 "x_c",  "y_c",  "u_c",  "v_c",  "exx",  "eyy",  "exy",  "e1",  "e2",  "gamma",  "e_vonmises",  "sigma",  "x",  "y",  "u",  "v"
-700,715,0,0,0,0,0,0,0,0,0,-1,524,309,0,0
-693,715,0,0,0,0,0,0,0,0,0,-1,531,309,0,0
-686,715,0,0,0,0,0,0,0,0,0,-1,538,309,0,0
-679,715,0,0,0,0,0,0,0,0,0,-1,545,309,0,0
-672,715,0,0,0,0,0,0,0,0,0,-1,552,309,0,0
-665,715,0,0,0,0,0,0,0,0,0,-1,559,309,0,0
-658,715,0,0,0,0,0,0,0,0,0,-1,566,309,0,0
-651,715,0,0,0,0,0,0,0,0,0,-1,573,309,0,0
-644,715,0,0,0,0,0,0,0,0,0,-1,580,309,0,0
-637,715,0,0,0,0,0,0,0,0,0,-1,587,309,0,0
-630,715,0,0,0,0,0,0,0,0,0,-1,594,309,0,0
-623,715,0,0,0,0,0,0,0,0,0,-1,601,309,0,0
-616,715,0,0,0,0,0,0,0,0,0,-1,608,309,0,0
-609,715,0,0,0,0,0,0,0,0,0,-1,615,309,0,0
-602,715,0,0,0,0,0,0,0,0,0,-1,622,309,0,0
-595,715,0,0,0,0,0,0,0,0,0,-1,629,309,0,0
-588,715,0,0,0,0,0,0,0,0,0,-1,636,309,0,0
-581,715,0,0,0,0,0,0,0,0,0,-1,643,309,0,0
-574,715,0,0,0,0,0,0,0,0,0,-1,650,309,0,0
-567,715,0,0,0,0,0,0,0,0,0,-1,657,309,0,0
-560,715,0,0,0,0,0,0,0,0,0,-1,664,309,0,0
-553,715,0,0,0,0,0,0,0,0,0,-1,671,309,0,0
-546,715,0,0,0,0,0,0,0,0,0,-1,678,309,0,0
-539,715,0,0,0,0,0,0,0,0,0,-1,685,309,0,0
-532,715,0,0,0,0,0,0,0,0,0,-1,692,309,0,0
-525,715,0,0,0,0,0,0,0,0,0,-1,699,309,0,0
-518,715,0,0,0,0,0,0,0,0,0,-1,706,309,0,0
-511,715,0,0,0,0,0,0,0,0,0,-1,713,309,0,0
-504,715,0,0,0,0,0,0,0,0,0,-1,720,309,0,0
-497,715,0,0,0,0,0,0,0,0,0,-1,727,309,0,0
-490,715,0,0,0,0,0,0,0,0,0,-1,734,309,0,0
-483,715,0,0,0,0,0,0,0,0,0,-1,741,309,0,0
-476,715,0,0,0,0,0,0,0,0,0,-1,748,309,0,0
-469,715,0,0,0,0,0,0,0,0,0,-1,755,309,0,0
-462,715,0,0,0,0,0,0,0,0,0,-1,762,309,0,0
-455,715,0,0,0,0,0,0,0,0,0,-1,769,309,0,0
-448,715,0,0,0,0,0,0,0,0,0,-1,776,309,0,0
-441,715,0,0,0,0,0,0,0,0,0,-1,783,309,0,0
-434,715,0,0,0,0,0,0,0,0,0,-1,790,309,0,0
-427,715,0,0,0,0,0,0,0,0,0,-1,797,309,0,0
-420,715,0,0,0,0,0,0,0,0,0,-1,804,309,0,0
-413,715,0,0,0,0,0,0,0,0,0,-1,811,309,0,0
-406,715,0,0,0,0,0,0,0,0,0,-1,818,309,0,0
-399,715,0,0,0,0,0,0,0,0,0,-1,825,309,0,0
-392,715,0,0,0,0,0,0,0,0,0,-1,832,309,0,0
-385,715,0,0,0,0,0,0,0,0,0,-1,839,309,0,0
-378,715,0,0,0,0,0,0,0,0,0,-1,846,309,0,0
-371,715,0,0,0,0,0,0,0,0,0,-1,853,309,0,0
-364,715,0,0,0,0,0,0,0,0,0,-1,860,309,0,0
-357,715,0,0,0,0,0,0,0,0,0,-1,867,309,0,0
-350,715,0,0,0,0,0,0,0,0,0,-1,874,309,0,0
-343,715,0,0,0,0,0,0,0,0,0,-1,881,309,0,0
-336,715,0,0,0,0,0,0,0,0,0,-1,888,309,0,0
-329,715,0,0,0,0,0,0,0,0,0,-1,895,309,0,0
-322,715,0,0,0,0,0,0,0,0,0,-1,902,309,0,0
-315,715,0,0,0,0,0,0,0,0,0,-1,909,309,0,0
-308,715,0,0,0,0,0,0,0,0,0,-1,916,309,0,0
-301,715,0,0,0,0,0,0,0,0,0,-1,923,309,0,0
-294,715,0,0,0,0,0,0,0,0,0,-1,930,309,0,0
-287,715,0,0,0,0,0,0,0,0,0,-1,937,309,0,0
-280,715,0,0,0,0,0,0,0,0,0,-1,944,309,0,0
-273,715,0,0,0,0,0,0,0,0,0,-1,951,309,0,0
-266,715,0,0,0,0,0,0,0,0,0,-1,958,309,0,0
-259,715,0,0,0,0,0,0,0,0,0,-1,965,309,0,0
-252,715,0,0,0,0,0,0,0,0,0,-1,972,309,0,0
-245,715,0,0,0,0,0,0,0,0,0,-1,979,309,0,0
-238,715,0,0,0,0,0,0,0,0,0,-1,986,309,0,0
-231,715,0,0,0,0,0,0,0,0,0,-1,993,309,0,0
-224,715,0,0,0,0,0,0,0,0,0,-1,1000,309,0,0
-217,715,0,0,0,0,0,0,0,0,0,-1,1007,309,0,0
-210,715,0,0,0,0,0,0,0,0,0,-1,1014,309,0,0
-203,715,0,0,0,0,0,0,0,0,0,-1,1021,309,0,0
-196,715,0,0,0,0,0,0,0,0,0,-1,1028,309,0,0
-189,715,0,0,0,0,0,0,0,0,0,-1,1035,309,0,0
-182,715,0,0,0,0,0,0,0,0,0,-1,1042,309,0,0
-175,715,0,0,0,0,0,0,0,0,0,-1,1049,309,0,0
-168,715,0,0,0,0,0,0,0,0,0,-1,1056,309,0,0
-161,715,0,0,0,0,0,0,0,0,0,-1,1063,309,0,0
-154,715,0,0,0,0,0,0,0,0,0,-1,1070,309,0,0
-147,715,0,0,0,0,0,0,0,0,0,-1,1077,309,0,0
-140,715,0,0,0,0,0,0,0,0,0,-1,1084,309,0,0
-133,715,0,0,0,0,0,0,0,0,0,-1,1091,309,0,0
-126,715,0,0,0,0,0,0,0,0,0,-1,1098,309,0,0
-119,715,0,0,0,0,0,0,0,0,0,-1,1105,309,0,0
-112,715,0,0,0,0,0,0,0,0,0,-1,1112,309,0,0
-105,715,0,0,0,0,0,0,0,0,0,-1,1119,309,0,0
-98,715,0,0,0,0,0,0,0,0,0,-1,1126,309,0,0
-91,715,0,0,0,0,0,0,0,0,0,-1,1133,309,0,0
-84,715,0,0,0,0,0,0,0,0,0,-1,1140,309,0,0
-77,715,0,0,0,0,0,0,0,0,0,-1,1147,309,0,0
-70,715,0,0,0,0,0,0,0,0,0,-1,1154,309,0,0
-63,715,0,0,0,0,0,0,0,0,0,-1,1161,309,0,0
-56,715,0,0,0,0,0,0,0,0,0,-1,1168,309,0,0
-49,715,0,0,0,0,0,0,0,0,0,-1,1175,309,0,0
-42,715,0,0,0,0,0,0,0,0,0,-1,1182,309,0,0
-35,715,0,0,0,0,0,0,0,0,0,-1,1189,309,0,0
-28,715,0,0,0,0,0,0,0,0,0,-1,1196,309,0,0
-21,715,0,0,0,0,0,0,0,0,0,-1,1203,309,0,0
-14,715,0,0,0,0,0,0,0,0,0,-1,1210,309,0,0
-7,715,0,0,0,0,0,0,0,0,0,-1,1217,309,0,0
0,715,0,0,0,0,0,0,0,0,0,-1,1224,309,0,0
7,715,0,0,0,0,0,0,0,0,0,-1,1231,309,0,0
14,715,0,0,0,0,0,0,0,0,0,-1,1238,309,0,0
21,715,0,0,0,0,0,0,0,0,0,-1,1245,309,0,0
28,715,0,0,0,0,0,0,0,0,0,-1,1252,309,0,0
35,715,0,0,0,0,0,0,0,0,0,-1,1259,309,0,0
42,715,0,0,0,0,0,0,0,0,0,-1,1266,309,0,0
49,715,0,0,0,0,0,0,0,0,0,-1,1273,309,0,0
56,715,0,0,0,0,0,0,0,0,0,-1,1280,309,0,0
63,715,4.91125,-30.3742,0,0,0,0,0,0,0,-1,1287,309,4.91127,30.3742
70,715,5.22083,-29.7687,0,0,0,0,0,0,0,-1,1294,309,5.22087,29.7687
77,715,0,0,0,0,0,0,0,0,0,-1,1301,309,0,0
84,715,0,0,0,0,0,0,0,0,0,-1,1308,309,0,0
91,715,0,0,0,0,0,0,0,0,0,-1,1315,309,0,0
98,715,0,0,0,0,0,0,0,0,0,-1,1322,309,0,0
105,715,0,0,0,0,0,0,0,0,0,-1,1329,309,0,0
112,715,0,0,0,0,0,0,0,0,0,-1,1336,309,0,0
119,715,0,0,0,0,0,0,0,0,0,-1,1343,309,0,0
126,715,0,0,0,0,0,0,0,0,0,-1,1350,309,0,0
133,715,0,0,0,0,0,0,0,0,0,-1,1357,309,0,0
140,715,0,0,0,0,0,0,0,0,0,-1,1364,309,0,0
147,715,0,0,0,0,0,0,0,0,0,-1,1371,309,0,0
154,715,0,0,0,0,0,0,0,0,0,-1,1378,309,0,0
161,715,0,0,0,0,0,0,0,0,0,-1,1385,309,0,0
168,715,0,0,0,0,0,0,0,0,0,-1,1392,309,0,0
175,715,0,0,0,0,0,0,0,0,0,-1,1399,309,0,0
182,715,0,0,0,0,0,0,0,0,0,-1,1406,309,0,0
189,715,0,0,0,0,0,0,0,0,0,-1,1413,309,0,0
196,715,0,0,0,0,0,0,0,0,0,-1,1420,309,0,0
203,715,0,0,0,0,0,0,0,0,0,-1,1427,309,0,0
210,715,0,0,0,0,0,0,0,0,0,-1,1434,309,0,0
217,715,0,0,0,0,0,0,0,0,0,-1,1441,309,0,0
224,715,0,0,0,0,0,0,0,0,0,-1,1448,309,0,0
231,715,0,0,0,0,0,0,0,0,0,-1,1455,309,0,0
238,715,0,0,0,0,0,0,0,0,0,-1,1462,309,0,0
245,715,0,0,0,0,0,0,0,0,0,-1,1469,309,0,0
252,715,0,0,0,0,0,0,0,0,0,-1,1476,309,0,0
259,715,0,0,0,0,0,0,0,0,0,-1,1483,309,0,0
266,715,0,0,0,0,0,0,0,0,0,-1,1490,309,0,0
273,715,0,0,0,0,0,0,0,0,0,-1,1497,309,0,0
280,715,0,0,0,0,0,0,0,0,0,-1,1504,309,0,0
287,715,0,0,0,0,0,0,0,0,0,-1,1511,309,0,0
294,715,0,0,0,0,0,0,0,0,0,-1,1518,309,0,0
301,715,0,0,0,0,0,0,0,0,0,-1,1525,309,0,0
308,715,0,0,0,0,0,0,0,0,0,-1,1532,309,0,0
315,715,0,0,0,0,0,0,0,0,0,-1,1539,309,0,0
322,715,0,0,0,0,0,0,0,0,0,-1,1546,309,0,0
329,715,0,0,0,0,0,0,0,0,0,-1,1553,309,0,0
336,715,0,0,0,0,0,0,0,0,0,-1,1560,309,0,0
343,715,0,0,0,0,0,0,0,0,0,-1,1567,309,0,0
350,715,0,0,0,0,0,0,0,0,0,-1,1574,309,0,0
357,715,0,0,0,0,0,0,0,0,0,-1,1581,309,0,0
364,715,0,0,0,0,0,0,0,0,0,-1,1588,309,0,0
371,715,0,0,0,0,0,0,0,0,0,-1,1595,309,0,0
378,715,0,0,0,0,0,0,0,0,0,-1,1602,309,0,0
385,715,0,0,0,0,0,0,0,0,0,-1,1609,309,0,0
392,715,0,0,0,0,0,0,0,0,0,-1,1616,309,0,0
399,715,0,0,0,0,0,0,0,0,0,-1,1623,309,0,0
406,715,0,0,0,0,0,0,0,0,0,-1,1630,309,0,0
413,715,0,0,0,0,0,0,0,0,0,-1,1637,309,0,0
420,715,0,0,0,0,0,0,0,0,0,-1,1644,309,0,0
427,715,0,0,0,0,0,0,0,0,0,-1,1651,309,0,0
434,715,0,0,0,0,0,0,0,0,0,-1,1658,309,0,0
441,715,0,0,0,0,0,0,0,0,0,-1,1665,309,0,0
448,715,0,0,0,0,0,0,0,0,0,-1,1672,309,0,0
455,715,0,0,0,0,0,0,0,0,0,-1,1679,309,0,0
462,715,0,0,0,0,0,0,0,0,0,-1,1686,309,0,0
469,715,0,0,0,0,0,0,0,0,0,-1,1693,309,0,0
476,715,0,0,0,0,0,0,0,0,0,-1,1700,309,0,0
483,715,0,0,0,0,0,0,0,0,0,-1,1707,309,0,0
490,715,0,0,0,0,0,0,0,0,0,-1,1714,309,0,0
497,715,0,0,0,0,0,0,0,0,0,-1,1721,309,0,0
504,715,0,0,0,0,0,0,0,0,0,-1,1728,309,0,0
511,715,0,0,0,0,0,0,0,0,0,-1,1735,309,0,0
518,715,0,0,0,0,0,0,0,0,0,-1,1742,309,0,0
525,715,0,0,0,0,0,0,0,0,0,-1,1749,309,0,0
532,715,0,0,0,0,0,0,0,0,0,-1,1756,309,0,0
539,715,0,0,0,0,0,0,0,0,0,-1,1763,309,0,0
546,715,0,0,0,0,0,0,0,0,0,-1,1770,309,0,0
553,715,0,0,0,0,0,0,0,0,0,-1,1777,309,0,0
560,715,0,0,0,0,0,0,0,0,0,-1,1784,309,0,0
567,715,0,0,0,0,0,0,0,0,0,-1,1791,309,0,0
574,715,0,0,0,0,0,0,0,0,0,-1,1798,309,0,0
581,715,0,0,0,0,0,0,0,0,0,-1,1805,309,0,0
588,715,0,0,0,0,0,0,0,0,0,-1,1812,309,0,0
595,715,0,0,0,0,0,0,0,0,0,-1,1819,309,0,0
602,715,0,0,0,0,0,0,0,0,0,-1,1826,309,0,0
609,715,0,0,0,0,0,0,0,0,0,-1,1833,309,0,0
616,715,0,0,0,0,0,0,0,0,0,-1,1840,309,0,0
623,715,0,0,0,0,0,0,0,0,0,-1,1847,309,0,0
630,715,0,0,0,0,0,0,0,0,0,-1,1854,309,0,0
637,715,0,0,0,0,0,0,0,0,0,-1,1861,309,0,0
644,715,0,0,0,0,0,0,0,0,0,-1,1868,309,0,0
651,715,0,0,0,0,0,0,0,0,0,-1,1875,309,0,0
658,715,0,0,0,0,0,0,0,0,0,-1,1882,309,0,0
665,715,0,0,0,0,0,0,0,0,0,-1,1889,309,0,0
672,715,0,0,0,0,0,0,0,0,0,-1,1896,309,0,0
679,715,0,0,0,0,0,0,0,0,0,-1,1903,309,0,0
686,715,0,0,0,0,0,0,0,0,0,-1,1910,309,0,0
693,715,0,0,0,0,0,0,0,0,0,-1,1917,309,0,0
700,715,0,0,0,0,0,0,0,0,0,-1,1924,309,0,0
707,715,0,0,0,0,0,0,0,0,0,-1,1931,309,0,0
714,715,0,0,0,0,0,0,0,0,0,-1,1938,309,0,0
721,715,0,0,0,0,0,0,0,0,0,-1,1945,309,0,0
728,715,0,0,0,0,0,0,0,0,0,-1,1952,309,0,0
735,715,0,0,0,0,0,0,0,0,0,-1,1959,309,0,0
742,715,0,0,0,0,0,0,0,0,0,-1,1966,309,0,0
749,715,0,0,0,0,0,0,0,0,0,-1,1973,309,0,0
756,715,0,0,0,0,0,0,0,0,0,-1,1980,309,0,0
763,715,0,0,0,0,0,0,0,0,0,-1,1987,309,0,0
770,715,0,0,0,0,0,0,0,0,0,-1,1994,309,0,0
777,715,0,0,0,0,0,0,0,0,0,-1,2001,309,0,0
784,715,0,0,0,0,0,0,0,0,0,-1,2008,309,0,0
791,715,0,0,0,0,0,0,0,0,0,-1,2015,309,0,0
798,715,0,0,0,0,0,0,0,0,0,-1,2022,309,0,0
805,715,0,0,0,0,0,0,0,0,0,-1,2029,309,0,0
812,715,0,0,0,0,0,0,0,0,0,-1,2036,309,0,0
-700,708,0,0,0,0,0,0,0,0,0,-1,524,316,0,0
-693,708,0,0,0,0,0,0,0,0,0,-1,531,316,0,0
-686,708,0,0,0,0,0,0,0,0,0,-1,538,316,0,0
-679,708,0,0,0,0,0,0,0,0,0,-1,545,316,0,0
-672,708,0,0,0,0,0,0,0,0,0,-1,552,316,0,0
-665,708,0,0,0,0,0,0,0,0,0,-1,559,316,0,0
-658,708,0,0,0,0,0,0,0,0,0,-1,566,316,0,0
-651,708,0,0,0,0,0,0,0,0,0,-1,573,316,0,0
-644,708,0,0,0,0,0,0,0,0,0,-1,580,316,0,0
-637,708,0,0,0,0,0,0,0,0,0,-1,587,316,0,0
-630,708,0,0,0,0,0,0,0,0,0,-1,594,316,0,0
-623,708,0,0,0,0,0,0,0,0,0,-1,601,316,0,0
-616,708,0,0,0,0,0,0,0,0,0,-1,608,316,0,0
-609,708,0,0,0,0,0,0,0,0,0,-1,615,316,0,0
-602,708,0,0,0,0,0,0,0,0,0,-1,622,316,0,0
-595,708,0,0,0,0,0,0,0,0,0,-1,629,316,0,0
-588,708,0,0,0,0,0,0,0,0,0,-1,636,316,0,0
-581,708,0,0,0,0,0,0,0,0,0,-1,643,316,0,0
-574,708,0,0,0,0,0,0,0,0,0,-1,650,316,0,0
-567,708,0,0,0,0,0,0,0,0,0,-1,657,316,0,0
-560,708,0,0,0,0,0,0,0,0,0,-1,664,316,0,0
-553,708,0,0,0,0,0,0,0,0,0,-1,671,316,0,0
-546,708,0,0,0,0,0,0,0,0,0,-1,678,316,0,0
-539,708,0,0,0,0,0,0,0,0,0,-1,685,316,0,0
-532,708,0,0,0,0,0,0,0,0,0,-1,692,316,0,0
-525,708,0,0,0,0,0,0,0,0,0,-1,699,316,0,0
-518,708,0,0,0,0,0,0,0,0,0,-1,706,316,0,0
-511,708,0,0,0,0,0,0,0,0,0,-1,713,316,0,0
-504,708,0,0,0,0,0,0,0,0,0,-1,720,316,0,0
-497,708,0,0,0,0,0,0,0,0,0,-1,727,316,0,0
-490,708,0,0,0,0,0,0,0,0,0,-1,734,316,0,0
-483,708,0,0,0,0,0,0,0,0,0,-1,741,316,0,0
-476,708,0,0,0,0,0,0,0,0,0,-1,748,316,0,0
-469,708,0,0,0,0,0,0,0,0,0,-1,755,316,0,0
-462,708,0,0,0,0,0,0,0,0,0,-1,762,316,0,0
-455,708,0,0,0,0,0,0,0,0,0,-1,769,316,0,0
-448,708,0,0,0,0,0,0,0,0,0,-1,776,316,0,0
-441,708,0,0,0,0,0,0,0,0,0,-1,783,316,0,0
-434,708,0,0,0,0,0,0,0,0,0,-1,790,316,0,0
-427,708,0,0,0,0,0,0,0,0,0,-1,797,316,0,0
-420,708,0,0,0,0,0,0,0,0,0,-1,804,316,0,0
-413,708,0,0,0,0,0,0,0,0,0,-1,811,316,0,0
-406,708,0,0,0,0,0,0,0,0,0,-1,818,316,0,0
-399,708,0,0,0,0,0,0,0,0,0,-1,825,316,0,0
-392,708,0,0,0,0,0,0,0,0,0,-1,832,316,0,0
-385,708,0,0,0,0,0,0,0,0,0,-1,839,316,0,0
-378,708,0,0,0,0,0,0,0,0,0,-1,846,316,0,0
-371,708,0,0,0,0,0,0,0,0,0,-1,853,316,0,0
-364,708,0,0,0,0,0,0,0,0,0,-1,860,316,0,0
-357,708,0,0,0,0,0,0,0,0,0,-1,867,316,0,0
-350,708,0,0,0,0,0,0,0,0,0,-1,874,316,0,0
-343,708,0,0,0,0,0,0,0,0,0,-1,881,316,0,0
-336,708,0,0,0,0,0,0,0,0,0,-1,888,316,0,0
-329,708,0,0,0,0,0,0,0,0,0,-1,895,316,0,0
-322,708,0,0,0,0,0,0,0,0,0,-1,902,316,0,0
-315,708,0,0,0,0,0,0,0,0,0,-1,909,316,0,0
-308,708,0,0,0,0,0,0,0,0,0,-1,916,316,0,0
-301,708,0,0,0,0,0,0,0,0,0,-1,923,316,0,0
-294,708,0,0,0,0,0,0,0,0,0,-1,930,316,0,0
-287,708,0,0,0,0,0,0,0,0,0,-1,937,316,0,0
-280,708,0,0,0,0,0,0,0,0,0,-1,944,316,0,0
-273,708,0,0,0,0,0,0,0,0,0,-1,951,316,0,0
-266,708,0,0,0,0,0,0,0,0,0,-1,958,316,0,0
-259,708,0,0,0,0,0,0,0,0,0,-1,965,316,0,0
-252,708,0,0,0,0,0,0,0,0,0,-1,972,316,0,0
-245,708,0,0,0,0,0,0,0,0,0,-1,979,316,0,0
-238,708,0,0,0,0,0,0,0,0,0,-1,986,316,0,0
-231,708,0,0,0,0,0,0,0,0,0,-1,993,316,0,0
-224,708,0,0,0,0,0,0,0,0,0,-1,1000,316,0,0
-217,708,0,0,0,0,0,0,0,0,0,-1,1007,316,0,0
-210,708,0,0,0,0,0,0,0,0,0,-1,1014,316,0,0
-203,708,0,0,0,0,0,0,0,0,0,-1,1021,316,0,0
-196,708,0,0,0,0,0,0,0,0,0,-1,1028,316,0,0
-189,708,0,0,0,0,0,0,0,0,0,-1,1035,316,0,0
-182,708,0,0,0,0,0,0,0,0,0,-1,1042,316,0,0
-175,708,0,0,0,0,0,0,0,0,0,-1,1049,316,0,0
-168,708,0,0,0,0,0,0,0,0,0,-1,1056,316,0,0
-161,708,0,0,0,0,0,0,0,0,0,-1,1063,316,0,0
-154,708,0,0,0,0,0,0,0,0,0,-1,1070,316,0,0
-147,708,0,0,0,0,0,0,0,0,0,-1,1077,316,0,0
-140,708,0,0,0,0,0,0,0,0,0,-1,1084,316,0,0
-133,708,0,0,0,0,0,0,0,0,0,-1,1091,316,0,0
-126,708,0,0,0,0,0,0,0,0,0,-1,1098,316,0,0
-119,708,0,0,0,0,0,0,0,0,0,-1,1105,316,0,0
-112,708,0,0,0,0,0,0,0,0,0,-1,1112,316,0,0
-105,708,0,0,0,0,0,0,0,0,0,-1,1119,316,0,0
-98,708,0,0,0,0,0,0,0,0,0,-1,1126,316,0,0
-91,708,0,0,0,0,0,0,0,0,0,-1,1133,316,0,0
-84,708,0,0,0,0,0,0,0,0,0,-1,1140,316,0,0
-77,708,0,0,0,0,0,0,0,0,0,-1,1147,316,0,0
-70,708,0,0,0,0,0,0,0,0,0,-1,1154,316,0,0
-63,708,0,0,0,0,0,0,0,0,0,-1,1161,316,0,0
-56,708,0,0,0,0,0,0,0,0,0,-1,1168,316,0,0
-49,708,0,0,0,0,0,0,0,0,0,-1,1175,316,0,0
-42,708,0,0,0,0,0,0,0,0,0,-1,1182,316,0,0
-35,708,-2.71204,-6.31558,0,0,0,0,0,0,0,-1,1189,316,-2.712,6.3156
-28,708,-2.92371,-5.53253,0,0,0,0,0,0,0,-1,1196,316,-2.92375,5.53254
-21,708,-0.417969,-24.5911,0,0,0,0,0,0,0,-1,1203,316,-0.418022,24.5911
-14,708,5.56641,-32.0021,0,0,0,0,0,0,0,-1,1210,316,5.56642,32.0021
-7,708,6.26636,-33.5423,0,0,0,0,0,0,0,-1,1217,316,6.26635,33.5423
0,708,4.10876,-29.9553,0,0,0,0,0,0,0,-1,1224,316,4.1087,29.9553
7,708,3.21472,-30.4184,0,0,0,0,0,0,0,-1,1231,316,3.21475,30.4184
14,708,2.4165,-30.7021,0,0,0,0,0,0,0,-1,1238,316,2.41653,30.7021
21,708,4.5022,-31.0356,0,0,0,0,0,0,0,-1,1245,316,4.50223,31.0356
28,708,4.46167,-31.0235,0,0,0,0,0,0,0,-1,1252,316,4.46161,31.0235
35,708,4.38428,-31.0059,0,0,0,0,0,0,0,-1,1259,316,4.38431,31.0059
42,708,4.36548,-30.9534,0,0,0,0,0,0,0,-1,1266,316,4.36553,30.9534
49,708,4.56555,-31.0208,0.00584818,0.0869758,0.0038316,0.0871564,0.00566762,1.52371,0.0563102,0.0434385,1273,316,4.5655,31.0208
56,708,4.80823,-31.0741,0,0,0,0,0,0,0,-1,1280,316,4.80821,31.0741
63,708,4.90332,-30.5121,-0.00125094,0.113664,0.0135726,0.115245,-0.00283225,1.45481,0.0777914,0.0439255,1287,316,4.90332,30.5121
70,708,5.08643,-30.0175,-0.00330719,0.120817,0.017653,0.123279,-0.005769,1.43224,0.0841748,0.043576,1294,316,5.08639,30.0175
77,708,5.10315,-29.7487,-0.00558065,0.127609,0.0197479,0.130476,-0.00844695,1.42666,0.0899317,0.0446013,1301,316,5.10313,29.7487
84,708,4.86182,-29.3181,0,0,0,0,0,0,0,-1,1308,316,4.8618,29.3181
91,708,4.58362,-28.3902,0,0,0,0,0,0,0,-1,1315,316,4.58362,28.3902
98,708,4.65662,-27.7445,0,0,0,0,0,0,0,-1,1322,316,4.65657,27.7445
105,708,3.75488,-29.7113,0,0,0,0,0,0,0,-1,1329,316,3.75487,29.7113
112,708,3.5675,-30.1053,0,0,0,0,0,0,0,-1,1336,316,3.56745,30.1053
119,708,3.41956,-30.3466,-0.0183072,0.160421,-0.00572266,0.160604,-0.0184903,-1.53882,0.113735,0.0460371,1343,316,3.41959,30.3467
126,708,3.71875,-29.8738,-0.0192627,0.165124,-0.0132753,0.166075,-0.0202136,-1.49929,0.118033,0.0462656,1350,316,3.7188,29.8738
133,708,3.52478,-30.2404,-0.0198217,0.169918,-0.0210073,0.172216,-0.0221197,-1.46184,0.122849,0.0475858,1357,316,3.52482,30.2404
140,708,3.02087,-30.6333,-0.0203277,0.17511,-0.028785,0.179261,-0.0244791,-1.42756,0.128447,0.0495805,1364,316,3.02087,30.6333
147,708,2.51257,-31.0372,-0.0218262,0.186697,-0.0371601,0.193121,-0.0282505,-1.39961,0.139124,0.0477152,1371,316,2.51251,31.0372
154,708,0,0,0,0,0,0,0,0,0,-1,1378,316,0,0
161,708,0,0,0,0,0,0,0,0,0,-1,1385,316,0,0
168,708,0,0,0,0,0,0,0,0,0,-1,1392,316,0,0
175,708,0,0,0,0,0,0,0,0,0,-1,1399,316,0,0
182,708,0,0,0,0,0,0,0,0,0,-1,1406,316,0,0
189,708,0,0,0,0,0,0,0,0,0,-1,1413,316,0,0
196,708,0,0,0,0,0,0,0,0,0,-1,1420,316,0,0
203,708,0,0,0,0,0,0,0,0,0,-1,1427,316,0,0
210,708,0,0,0,0,0,0,0,0,0,-1,1434,316,0,0
217,708,0,0,0,0,0,0,0,0,0,-1,1441,316,0,0
224,708,0,0,0,0,0,0,0,0,0,-1,1448,316,0,0
231,708,0,0,0,0,0,0,0,0,0,-1,1455,316,0,0
238,708,0,0,0,0,0,0,0,0,0,-1,1462,316,0,0
245,708,0,0,0,0,0,0,0,0,0,-1,1469,316,0,0
252,708,0,0,0,0,0,0,0,0,0,-1,1476,316,0,0
259,708,0,0,0,0,0,0,0,0,0,-1,1483,316,0,0
266,708,0,0,0,0,0,0,0,0,0,-1,1490,316,0,0
273,708,0,0,0,0,0,0,0,0,0,-1,1497,316,0,0
280,708,0,0,0,0,0,0,0,0,0,-1,1504,316,0,0
287,708,0,0,0,0,0,0,0,0,0,-1,1511,316,0,0
294,708,0,0,0,0,0,0,0,0,0,-1,1518,316,0,0
301,708,0,0,0,0,0,0,0,0,0,-1,1525,316,0,0
308,708,0,0,0,0,0,0,0,0,0,-1,1532,316,0,0
315,708,0,0,0,0,0,0,0,0,0,-1,1539,316,0,0
322,708,0,0,0,0,0,0,0,0,0,-1,1546,316,0,0
329,708,0,0,0,0,0,0,0,0,0,-1,1553,316,0,0
336,708,0,0,0,0,0,0,0,0,0,-1,1560,316,0,0
343,708,0,0,0,0,0,0,0,0,0,-1,1567,316,0,0
350,708,0,0,0,0,0,0,0,0,0,-1,1574,316,0,0
357,708,0,0,0,0,0,0,0,0,0,-1,1581,316,0,0
364,708,0,0,0,0,0,0,0,0,0,-1,1588,316,0,0
371,708,0,0,0,0,0,0,0,0,0,-1,1595,316,0,0
378,708,0,0,0,0,0,0,0,0,0,-1,1602,316,0,0
385,708,0,0,0,0,0,0,0,0,0,-1,1609,316,0,0
392,708,0,0,0,0,0,0,0,0,0,-1,1616,316,0,0
399,708,0,0,0,0,0,0,0,0,0,-1,1623,316,0,0
406,708,0,0,0,0,0,0,0,0,0,-1,1630,316,0,0
413,708,0,0,0,0,0,0,0,0,0,-1,1637,316,0,0
420,708,0,0,0,0,0,0,0,0,0,-1,1644,316,0,0
427,708,0,0,0,0,0,0,0,0,0,-1,1651,316,0,0
434,708,0,0,0,0,0,0,0,0,0,-1,1658,316,0,0
441,708,0,0,0,0,0,0,0,0,0,-1,1665,316,0,0
448,708,0,0,0,0,0,0,0,0,0,-1,1672,316,0,0
455,708,0,0,0,0,0,0,0,0,0,-1,1679,316,0,0
462,708,0,0,0,0,0,0,0,0,0,-1,1686,316,0,0
469,708,0,0,0,0,0,0,0,0,0,-1,1693,316,0,0
476,708,0,0,0,0,0,0,0,0,0,-1,1700,316,0,0
483,708,0,0,0,0,0,0,0,0,0,-1,1707,316,0,0
490,708,0,0,0,0,0,0,0,0,0,-1,1714,316,0,0
497,708,0,0,0,0,0,0,0,0,0,-1,1721,316,0,0
504,708,0,0,0,0,0,0,0,0,0,-1,1728,316,0,0
511,708,0,0,0,0,0,0,0,0,0,-1,1735,316,0,0
518,708,0,0,0,0,0,0,0,0,0,-1,1742,316,0,0
525,708,0,0,0,0,0,0,0,0,0,-1,1749,316,0,0
532,708,0,0,0,0,0,0,0,0,0,-1,1756,316,0,0
539,708,0,0,0,0,0,0,0,0,0,-1,1763,316,0,0
546,708,0,0,0,0,0,0,0,0,0,-1,1770,316,0,0
553,708,0,0,0,0,0,0,0,0,0,-1,1777,316,0,0
560,708,0,0,0,0,0,0,0,0,0,-1,1784,316,0,0
567,708,0,0,0,0,0,0,0,0,0,-1,1791,316,0,0
574,708,0,0,0,0,0,0,0,0,0,-1,1798,316,0,0
581,708,0,0,0,0,0,0,0,0,0,-1,1805,316,0,0
588,708,0,0,0,0,0,0,0,0,0,-1,1812,316,0,0
595,708,0,0,0,0,0,0,0,0,0,-1,1819,316,0,0
602,708,0,0,0,0,0,0,0,0,0,-1,1826,316,0,0
609,708,0,0,0,0,0,0,0,0,0,-1,1833,316,0,0
616,708,0,0,0,0,0,0,0,0,0,-1,1840,316,0,0
623,708,0,0,0,0,0,0,0,0,0,-1,1847,316,0,0
630,708,0,0,0,0,0,0,0,0,0,-1,1854,316,0,0
637,708,0,0,0,0,0,0,0,0,0,-1,1861,316,0,0
644,708,0,0,0,0,0,0,0,0,0,-1,1868,316,0,0
651,708,0,0,0,0,0,0,0,0,0,-1,1875,316,0,0
658,708,0,0,0,0,0,0,0,0,0,-1,1882,316,0,0
665,708,0,0,0,0,0,0,0,0,0,-1,1889,316,0,0
672,708,0,0,0,0,0,0,0,0,0,-1,1896,316,0,0
679,708,0,0,0,0,0,0,0,0,0,-1,1903,316,0,0
686,708,0,0,0,0,0,0,0,0,0,-1,1910,316,0,0
693,708,0,0,0,0,0,0,0,0,0,-1,1917,316,0,0
700,708,0,0,0,0,0,0,0,0,0,-1,1924,316,0,0
707,708,0,0,0,0,0,0,0,0,0,-1,1931,316,0,0
714,708,0,0,0,0,0,0,0,0,0,-1,1938,316,0,0
721,708,0,0,0,0,0,0,0,0,0,-1,1945,316,0,0
728,708,0,0,0,0,0,0,0,0,0,-1,1952,316,0,0
735,708,0,0,0,0,0,0,0,0,0,-1,1959,316,0,0
742,708,0,0,0,0,0,0,0,0,0,-1,1966,316,0,0
749,708,0,0,0,0,0,0,0,0,0,-1,1973,316,0,0
756,708,0,0,0,0,0,0,0,0,0,-1,1980,316,0,0
763,708,0,0,0,0,0,0,0,0,0,-1,1987,316,0,0
770,708,0,0,0,0,0,0,0,0,0,-1,1994,316,0,0
777,708,0,0,0,0,0,0,0,0,0,-1,2001,316,0,0
784,708,0,0,0,0,0,0,0,0,0,-1,2008,316,0,0
791,708,0,0,0,0,0,0,0,0,0,-1,2015,316,0,0
798,708,0,0,0,0,0,0,0,0,0,-1,2022,316,0,0
805,708,0,0,0,0,0,0,0,0,0,-1,2029,316,0,0
812,708,0,0,0,0,0,0,0,0,0,-1,2036,316,0,0
-700,701,0,0,0,0,0,0,0,0,0,-1,524,323,0,0
-693,701,0,0,0,0,0,0,0,0,0,-1,531,323,0,0
-686,701,0,0,0,0,0,0,0,0,0,-1,538,323,0,0
-679,701,0,0,0,0,0,0,0,0,0,-1,545,323,0,0
-672,701,0,0,0,0,0,0,0,0,0,-1,552,323,0,0
-665,701,0,0,0,0,0,0,0,0,0,-1,559,323,0,0
-658,701,0,0,0,0,0,0,0,0,0,-1,566,323,0,0
-651,701,0,0,0,0,0,0,0,0,0,-1,573,323,0,0
-644,701,0,0,0,0,0,0,0,0,0,-1,580,323,0,0
-637,701,0,0,0,0,0,0,0,0,0,-1,587,323,0,0
-630,701,0,0,0,0,0,0,0,0,0,-1,594,323,0,0
-623,701,0,0,0,0,0,0,0,0,0,-1,601,323,0,0
-616,701,0,0,0,0,0,0,0,0,0,-1,608,323,0,0
-609,701,0,0,0,0,0,0,0,0,0,-1,615,323,0,0
-602,701,0,0,0,0,0,0,0,0,0,-1,622,323,0,0
-595,701,0,0,0,0,0,0,0,0,0,-1,629,323,0,0
-588,701,0,0,0,0,0,0,0,0,0,-1,636,323,0,0
-581,701,0,0,0,0,0,0,0,0,0,-1,643,323,0,0
-574,701,0,0,0,0,0,0,0,0,0,-1,650,323,0,0
-567,701,0,0,0,0,0,0,0,0,0,-1,657,323,0,0
-560,701,0,0,0,0,0,0,0,0,0,-1,664,323,0,0
-553,701,0,0,0,0,0,0,0,0,0,-1,671,323,0,0
-546,701,0,0,0,0,0,0,0,0,0,-1,678,323,0,0
-539,701,0,0,0,0,0,0,0,0,0,-1,685,323,0,0
-532,701,0,0,0,0,0,0,0,0,0,-1,692,323,0,0
-525,701,0,0,0,0,0,0,0,0,0,-1,699,323,0,0
-518,701,0,0,0,0,0,0,0,0,0,-1,706,323,0,0
-511,701,0,0,0,0,0,0,0,0,0,-1,713,323,0,0
-504,701,0,0,0,0,0,0,0,0,0,-1,720,323,0,0
-497,701,0,0,0,0,0,0,0,0,0,-1,727,323,0,0
-490,701,0,0,0,0,0,0,0,0,0,-1,734,323,0,0
-483,701,0,0,0,0,0,0,0,0,0,-1,741,323,0,0
-476,701,0,0,0,0,0,0,0,0,0,-1,748,323,0,0
-469,701,0,0,0,0,0,0,0,0,0,-1,755,323,0,0
-462,701,0,0,0,0,0,0,0,0,0,-1,762,323,0,0
-455,701,0,0,0,0,0,0,0,0,0,-1,769,323,0,0
-448,701,0,0,0,0,0,0,0,0,0,-1,776,323,0,0
-441,701,0,0,0,0,0,0,0,0,0,-1,783,323,0,0
-434,701,0,0,0,0,0,0,0,0,0,-1,790,323,0,0
-427,701,0,0,0,0,0,0,0,0,0,-1,797,323,0,0
-420,701,0,0,0,0,0,0,0,0,0,-1,804,323,0,0
-413,701,0,0,0,0,0,0,0,0,0,-1,811,323,0,0
-406,701,0,0,0,0,0,0,0,0,0,-1,818,323,0,0
-399,701,0,0,0,0,0,0,0,0,0,-1,825,323,0,0
-392,701,0,0,0,0,0,0,0,0,0,-1,832,323,0,0
-385,701,0,0,0,0,0,0,0,0,0,-1,839,323,0,0
-378,701,0,0,0,0,0,0,0,0,0,-1,846,323,0,0
-371,701,0,0,0,0,0,0,0,0,0,-1,853,323,0,0
-364,701,0,0,0,0,0,0,0,0,0,-1,860,323,0,0
-357,701,0,0,0,0,0,0,0,0,0,-1,867,323,0,0
-350,701,0,0,0,0,0,0,0,0,0,-1,874,323,0,0
-343,701,0,0,0,0,0,0,0,0,0,-1,881,323,0,0
-336,701,0,0,0,0,0,0,0,0,0,-1,888,323,0,0
-329,701,0,0,0,0,0,0,0,0,0,-1,895,323,0,0
-322,701,0,0,0,0,0,0,0,0,0,-1,902,323,0,0
-315,701,0,0,0,0,0,0,0,0,0,-1,909,323,0,0
-308,701,0,0,0,0,0,0,0,0,0,-1,916,323,0,0
-301,701,0,0,0,0,0,0,0,0,0,-1,923,323,0,0
-294,701,0,0,0,0,0,0,0,0,0,-1,930,323,0,0
-287,701,0,0,0,0,0,0,0,0,0,-1,937,323,0,0
-280,701,0,0,0,0,0,0,0,0,0,-1,944,323,0,0
-273,701,0,0,0,0,0,0,0,0,0,-1,951,323,0,0
-266,701,0,0,0,0,0,0,0,0,0,-1,958,323,0,0
-259,701,0,0,0,0,0,0,0,0,0,-1,965,323,0,0
-252,701,0,0,0,0,0,0,0,0,0,-1,972,323,0,0
-245,701,0,0,0,0,0,0,0,0,0,-1,979,323,0,0
-238,701,0,0,0,0,0,0,0,0,0,-1,986,323,0,0
-231,701,0,0,0,0,0,0,0,0,0,-1,993,323,0,0
-224,701,0,0,0,0,0,0,0,0,0,-1,1000,323,0,0
-217,701,0,0,0,0,0,0,0,0,0,-1,1007,323,0,0
-210,701,0,0,0,0,0,0,0,0,0,-1,1014,323,0,0
-203,701,0,0,0,0,0,0,0,0,0,-1,1021,323,0,0
-196,701,0,0,0,0,0,0,0,0,0,-1,1028,323,0,0
-189,701,0,0,0,0,0,0,0,0,0,-1,1035,323,0,0
-182,701,0,0,0,0,0,0,0,0,0,-1,1042,323,0,0
-175,701,0,0,0,0,0,0,0,0,0,-1,1049,323,0,0
-168,701,0,0,0,0,0,0,0,0,0,-1,1056,323,0,0
-161,701,0,0,0,0,0,0,0,0,0,-1,1063,323,0,0
-154,701,0,0,0,0,0,0,0,0,0,-1,1070,323,0,0
-147,701,0,0,0,0,0,0,0,0,0,-1,1077,323,0,0
-140,701,0,0,0,0,0,0,0,0,0,-1,1084,323,0,0
-133,701,0,0,0,0,0,0,0,0,0,-1,1091,323,0,0
-126,701,0,0,0,0,0,0,0,0,0,-1,1098,323,0,0
-119,701,0,0,0,0,0,0,0,0,0,-1,1105,323,0,0
-112,701,0,0,0,0,0,0,0,0,0,-1,1112,323,0,0
-105,701,0,0,0,0,0,0,0,0,0,-1,1119,323,0,0
-98,701,0,0,0,0,0,0,0,0,0,-1,1126,323,0,0
-91,701,0,0,0,0,0,0,0,0,0,-1,1133,323,0,0
-84,701,0,0,0,0,0,0,0,0,0,-1,1140,323,0,0
-77,701,0,0,0,0,0,0,0,0,0,-1,1147,323,0,0
-70,701,-11.9647,-28.192,0,0,0,0,0,0,0,-1,1154,323,-11.9647,28.1919
-63,701,-18.3169,-21.2322,0,0,0,0,0,0,0,-1,1161,323,-18.3169,21.2322
-56,701,-0.420166,-0.101776,0,0,0,0,0,0,0,-1,1168,323,-0.420119,0.101777
-49,701,-1.09021,-0.155762,0,0,0,0,0,0,0,-1,1175,323,-1.09024,0.155768
-42,701,-0.210327,-0.299133,0,0,0,0,0,0,0,-1,1182,323,-0.210379,0.29914
-35,701,-2.9635,-7.98676,0,0,0,0,0,0,0,-1,1189,323,-2.9635,7.98676
-28,701,-6.64417,-5.4917,0,0,0,0,0,0,0,-1,1196,323,-6.64411,5.4917
-21,701,5.22729,-32.2801,0,0,0,0,0,0,0,-1,1203,323,5.22728,32.2801
-14,701,5.83496,-33.2999,0,0,0,0,0,0,0,-1,1210,323,5.83497,33.2999
-7,701,6.25269,-33.6407,0,0,0,0,0,0,0,-1,1217,323,6.25273,33.6407
0,701,6.67053,-33.9814,0,0,0,0,0,0,0,-1,1224,323,6.6705,33.9815
7,701,2.9718,-30.9355,0,0,0,0,0,0,0,-1,1231,323,2.97184,30.9355
14,701,2.15784,-31.1883,0,0,0,0,0,0,0,-1,1238,323,2.15785,31.1883
21,701,1.53564,-31.5458,0,0,0,0,0,0,0,-1,1245,323,1.53561,31.5458
28,701,3.94458,-32.8361,0,0,0,0,0,0,0,-1,1252,323,3.94462,32.8361
35,701,3.9187,-32.8519,0,0,0,0,0,0,0,-1,1259,323,3.91866,32.8519
42,701,5.84888,-31.6945,0,0,0,0,0,0,0,-1,1266,323,5.84887,31.6945
49,701,6.18591,-31.5372,0,0,0,0,0,0,0,-1,1273,323,6.18597,31.5372
56,701,5.11682,-31.0796,0,0,0,0,0,0,0,-1,1280,323,5.11686,31.0796
63,701,5.03223,-30.8194,-0.00393939,0.10654,0.011929,0.107814,-0.00521274,1.46446,0.0736749,0.0442157,1287,323,5.0322,30.8194
70,701,4.90186,-30.5581,-0.00572347,0.112952,0.0145601,0.114712,-0.00748371,1.45048,0.0790873,0.0439914,1294,323,4.9019,30.5581
77,701,4.69446,-30.4142,-0.00767862,0.119019,0.0157424,0.120946,-0.00960533,1.44901,0.0840155,0.0464481,1301,323,4.6944,30.4142
84,701,4.53381,-30.1883,-0.0101015,0.123217,0.0152389,0.124936,-0.0118212,1.45842,0.0874979,0.0459564,1308,323,4.53382,30.1883
91,701,4.42236,-29.6844,-0.0119668,0.127731,0.0127959,0.128893,-0.0131292,1.4802,0.0906227,0.0475919,1315,323,4.42231,29.6844
98,701,4.68738,-30.7492,0,0,0,0,0,0,0,-1,1322,323,4.68741,30.7492
105,701,4.5824,-30.6707,0,0,0,0,0,0,0,-1,1329,323,4.58244,30.6706
112,701,3.30212,-30.9029,0,0,0,0,0,0,0,-1,1336,323,3.30215,30.9029
119,701,3.39001,-30.8396,-0.0153294,0.140729,-0.00606257,0.140964,-0.0155646,-1.53203,0.0995708,0.0440149,1343,323,3.38997,30.8396
126,701,3.51575,-30.6626,-0.0154362,0.143364,-0.0118665,0.144245,-0.0163181,-1.49662,0.102039,0.0477648,1350,323,3.51576,30.6626
133,701,2.99963,-31.2541,-0.01527,0.146307,-0.0176019,0.148202,-0.0171652,-1.46353,0.104992,0.0496786,1357,323,2.99964,31.2541
140,701,2.71997,-31.9684,-0.0152276,0.149723,-0.0231782,0.152918,-0.0184227,-1.43381,0.108608,0.0495922,1364,323,2.71999,31.9684
147,701,2.82361,-32.8549,-0.0160214,0.157078,-0.0289821,0.161801,-0.020745,-1.40923,0.115406,0.0469646,1371,323,2.82366,32.8549
154,701,3.1748,-33.3728,0,0,0,0,0,0,0,-1,1378,323,3.17475,33.3728
161,701,3.50696,-33.7612,0,0,0,0,0,0,0,-1,1385,323,3.507,33.7612
168,701,30.7272,1.76184,0,0,0,0,0,0,0,-1,1392,323,30.7272,-1.76184
175,701,31.5035,2.25711,0,0,0,0,0,0,0,-1,1399,323,31.5036,-2.25712
182,701,8.80652,5.42807,0,0,0,0,0,0,0,-1,1406,323,8.8065,-5.42808
189,701,8.58081,4.24493,0,0,0,0,0,0,0,-1,1413,323,8.58082,-4.24494
196,701,0,0,0,0,0,0,0,0,0,-1,1420,323,0,0
203,701,0,0,0,0,0,0,0,0,0,-1,1427,323,0,0
210,701,0,0,0,0,0,0,0,0,0,-1,1434,323,0,0
217,701,0,0,0,0,0,0,0,0,0,-1,1441,323,0,0
224,701,0,0,0,0,0,0,0,0,0,-1,1448,323,0,0
231,701,0,0,0,0,0,0,0,0,0,-1,1455,323,0,0
238,701,0,0,0,0,0,0,0,0,0,-1,1462,323,0,0
245,701,0,0,0,0,0,0,0,0,0,-1,1469,323,0,0
252,701,0,0,0,0,0,0,0,0,0,-1,1476,323,0,0
259,701,0,0,0,0,0,0,0,0,0,-1,1483,323,0,0
266,701,0,0,0,0,0,0,0,0,0,-1,1490,323,0,0
273,701,0,0,0,0,0,0,0,0,0,-1,1497,323,0,0
280,701,0,0,0,0,0,0,0,0,0,-1,1504,323,0,0
287,701,0,0,0,0,0,0,0,0,0,-1,1511,323,0,0
294,701,0,0,0,0,0,0,0,0,0,-1,1518,323,0,0
301,701,0,0,0,0,0,0,0,0,0,-1,1525,323,0,0
308,701,0,0,0,0,0,0,0,0,0,-1,1532,323,0,0
315,701,0,0,0,0,0,0,0,0,0,-1,1539,323,0,0
322,701,0,0,0,0,0,0,0,0,0,-1,1546,323,0,0
329,701,0,0,0,0,0,0,0,0,0,-1,1553,323,0,0
336,701,0,0,0,0,0,0,0,0,0,-1,1560,323,0,0
343,701,0,0,0,0,0,0,0,0,0,-1,1567,323,0,0
350,701,0,0,0,0,0,0,0,0,0,-1,1574,323,0,0
357,701,0,0,0,0,0,0,0,0,0,-1,1581,323,0,0
364,701,0,0,0,0,0,0,0,0,0,-1,1588,323,0,0
371,701,0,0,0,0,0,0,0,0,0,-1,1595,323,0,0
378,701,0,0,0,0,0,0,0,0,0,-1,1602,323,0,0
385,701,0,0,0,0,0,0,0,0,0,-1,1609,323,0,0
392,701,0,0,0,0,0,0,0,0,0,-1,1616,323,0,0
399,701,0,0,0,0,0,0,0,0,0,-1,1623,323,0,0
406,701,0,0,0,0,0,0,0,0,0,-1,1630,323,0,0
413,701,0,0,0,0,0,0,0,0,0,-1,1637,323,0,0
420,701,0,0,0,0,0,0,0,0,0,-1,1644,323,0,0
427,701,0,0,0,0,0,0,0,0,0,-1,1651,323,0,0
434,701,0,0,0,0,0,0,0,0,0,-1,1658,323,0,0
441,701,0,0,0,0,0,0,0,0,0,-1,1665,323,0,0
448,701,0,0,0,0,0,0,0,0,0,-1,1672,323,0,0
455,701,0,0,0,0,0,0,0,0,0,-1,1679,323,0,0
462,701,0,0,0,0,0,0,0,0,0,-1,1686,323,0,0
469,701,0,0,0,0,0,0,0,0,0,-1,1693,323,0,0
476,701,0,0,0,0,0,0,0,0,0,-1,1700,323,0,0
483,701,0,0,0,0,0,0,0,0,0,-1,1707,323,0,0
490,701,0,0,0,0,0,0,0,0,0,-1,1714,323,0,0
497,701,0,0,0,0,0,0,0,0,0,-1,1721,323,0,0
504,701,0,0,0,0,0,0,0,0,0,-1,1728,323,0,0
511,701,0,0,0,0,0,0,0,0,0,-1,1735,323,0,0
518,701,0,0,0,0,0,0,0,0,0,-1,1742,323,0,0
525,701,0,0,0,0,0,0,0,0,0,-1,1749,323,0,0
532,701,0,0,0,0,0,0,0,0,0,-1,1756,323,0,0
539,701,0,0,0,0,0,0,0,0,0,-1,1763,323,0,0
546,701,0,0,0,0,0,0,0,0,0,-1,1770,323,0,0
553,701,0,0,0,0,0,0,0,0,0,-1,1777,323,0,0
560,701,0,0,0,0,0,0,0,0,0,-1,1784,323,0,0
567,701,0,0,0,0,0,0,0,0,0,-1,1791,323,0,0
574,701,0,0,0,0,0,0,0,0,0,-1,1798,323,0,0
581,701,0,0,0,0,0,0,0,0,0,-1,1805,323,0,0
588,701,0,0,0,0,0,0,0,0,0,-1,1812,323,0,0
595,701,0,0,0,0,0,0,0,0,0,-1,1819,323,0,0
602,701,0,0,0,0,0,0,0,0,0,-1,1826,323,0,0
609,701,0,0,0,0,0,0,0,0,0,-1,1833,323,0,0
616,701,0,0,0,0,0,0,0,0,0,-1,1840,323,0,0
623,701,0,0,0,0,0,0,0,0,0,-1,1847,323,0,0
630,701,0,0,0,0,0,0,0,0,0,-1,1854,323,0,0
637,701,0,0,0,0,0,0,0,0,0,-1,1861,323,0,0
644,701,0,0,0,0,0,0,0,0,0,-1,1868,323,0,0
651,701,0,0,0,0,0,0,0,0,0,-1,1875,323,0,0
658,701,0,0,0,0,0,0,0,0,0,-1,1882,323,0,0
665,701,0,0,0,0,0,0,0,0,0,-1,1889,323,0,0
672,701,0,0,0,0,0,0,0,0,0,-1,1896,323,0,0
679,701,0,0,0,0,0,0,0,0,0,-1,1903,323,0,0
686,701,0,0,0,0,0,0,0,0,0,-1,1910,323,0,0
693,701,0,0,0,0,0,0,0,0,0,-1,1917,323,0,0
700,701,0,0,0,0,0,0,0,0,0,-1,1924,323,0,0
707,701,0,0,0,0,0,0,0,0,0,-1,1931,323,0,0
714,701,0,0,0,0,0,0,0,0,0,-1,1938,323,0,0
721,701,0,0,0,0,0,0,0,0,0,-1,1945,323,0,0
728,701,0,0,0,0,0,0,0,0,0,-1,1952,323,0,0
735,701,0,0,0,0,0,0,0,0,0,-1,1959,323,0,0
742,701,0,0,0,0,0,0,0,0,0,-1,1966,323,0,0
749,701,0,0,0,0,0,0,0,0,0,-1,1973,323,0,0
756,701,0,0,0,0,0,0,0,0,0,-1,1980,323,0,0
763,701,0,0,0,0,0,0,0,0,0,-1,1987,323,0,0
770,701,0,0,0,0,0,0,0,0,0,-1,1994,323,0,0
777,701,0,0,0,0,0,0,0,0,0,-1,2001,323,0,0
784,701,0,0,0,0,0,0,0,0,0,-1,2008,323,0,0
791,701,0,0,0,0,0,0,0,0,0,-1,2015,323,0,0
798,701,0,0,0,0,0,0,0,0,0,-1,2022,323,0,0
805,701,0,0,0,0,0,0,0,0,0,-1,2029,323,0,0
812,701,0,0,0,0,0,0,0,0,0,-1,2036,323,0,0
-700,694,0,0,0,0,0,0,0,0,0,-1,524,330,0,0
-693,694,0,0,0,0,0,0,0,0,0,-1,531,330,0,0
-686,694,0,0,0,0,0,0,0,0,0,-1,538,330,0,0
-679,694,0,0,0,0,0,0,0,0,0,-1,545,330,0,0
-672,694,0,0,0,0,0,0,0,0,0,-1,552,330,0,0
-665,694,0,0,0,0,0,0,0,0,0,-1,559,330,0,0
-658,694,0,0,0,0,0,0,0,0,0,-1,566,330,0,0
-651,694,0,0,0,0,0,0,0,0,0,-1,573,330,0,0
-644,694,0,0,0,0,0,0,0,0,0,-1,580,330,0,0
-637,694,0,0,0,0,0,0,0,0,0,-1,587,330,0,0
-630,694,0,0,0,0,0,0,0,0,0,-1,594,330,0,0
-623,694,0,0,0,0,0,0,0,0,0,-1,601,330,0,0
-616,694,0,0,0,0,0,0,0,0,0,-1,608,330,0,0
-609,694,0,0,0,0,0,0,0,0,0,-1,615,330,0,0
-602,694,0,0,0,0,0,0,0,0,0,-1,622,330,0,0
-595,694,0,0,0,0,0,0,0,0,0,-1,629,330,0,0
-588,694,0,0,0,0,0,0,0,0,0,-1,636,330,0,0
-581,694,0,0,0,0,0,0,0,0,0,-1,643,330,0,0
-574,694,0,0,0,0,0,0,0,0,0,-1,650,330,0,0
-567,694,0,0,0,0,0,0,0,0,0,-1,657,330,0,0
-560,694,0,0,0,0,0,0,0,0,0,-1,664,330,0,0
-553,694,0,0,0,0,0,0,0,0,0,-1,671,330,0,0
-546,694,0,0,0,0,0,0,0,0,0,-1,678,330,0,0
-539,694,0,0,0,0,0,0,0,0,0,-1,685,330,0,0
-532,694,0,0,0,0,0,0,0,0,0,-1,692,330,0,0
-525,694,0,0,0,0,0,0,0,0,0,-1,699,330,0,0
-518,694,0,0,0,0,0,0,0,0,0,-1,706,330,0,0
-511,694,0,0,0,0,0,0,0,0,0,-1,713,330,0,0
-504,694,0,0,0,0,0,0,0,0,0,-1,720,330,0,0
-497,694,0,0,0,0,0,0,0,0,0,-1,727,330,0,0
-490,694,0,0,0,0,0,0,0,0,0,-1,734,330,0,0
-483,694,0,0,0,0,0,0,0,0,0,-1,741,330,0,0
-476,694,0,0,0,0,0,0,0,0,0,-1,748,330,0,0
-469,694,0,0,0,0,0,0,0,0,0,-1,755,330,0,0
-462,694,0,0,0,0,0,0,0,0,0,-1,762,330,0,0
-455,694,0,0,0,0,0,0,0,0,0,-1,769,330,0,0
-448,694,0,0,0,0,0,0,0,0,0,-1,776,330,0,0
-441,694,0,0,0,0,0,0,0,0,0,-1,783,330,0,0
-434,694,0,0,0,0,0,0,0,0,0,-1,790,330,0,0
-427,694,0,0,0,0,0,0,0,0,0,-1,797,330,0,0
-420,694,0,0,0,0,0,0,0,0,0,-1,804,330,0,0
-413,694,0,0,0,0,0,0,0,0,0,-1,811,330,0,0
-406,694,0,0,0,0,0,0,0,0,0,-1,818,330,0,0
-399,694,0,0,0,0,0,0,0,0,0,-1,825,330,0,0
-392,694,0,0,0,0,0,0,0,0,0,-1,832,330,0,0
-385,694,0,0,0,0,0,0,0,0,0,-1,839,330,0,0
-378,694,0,0,0,0,0,0,0,0,0,-1,846,330,0,0
-371,694,0,0,0,0,0,0,0,0,0,-1,853,330,0,0
-364,694,0,0,0,0,0,0,0,0,0,-1,860,330,0,0
-357,694,0,0,0,0,0,0,0,0,0,-1,867,330,0,0
-350,694,0,0,0,0,0,0,0,0,0,-1,874,330,0,0
-343,694,0,0,0,0,0,0,0,0,0,-1,881,330,0,0
-336,694,0,0,0,0,0,0,0,0,0,-1,888,330,0,0
-329,694,0,0,0,0,0,0,0,0,0,-1,895,330,0,0
-322,694,0,0,0,0,0,0,0,0,0,-1,902,330,0,0
-315,694,0,0,0,0,0,0,0,0,0,-1,909,330,0,0
-308,694,0,0,0,0,0,0,0,0,0,-1,916,330,0,0
-301,694,0,0,0,0,0,0,0,0,0,-1,923,330,0,0
-294,694,0,0,0,0,0,0,0,0,0,-1,930,330,0,0
-287,694,0,0,0,0,0,0,0,0,0,-1,937,330,0,0
-280,694,0,0,0,0,0,0,0,0,0,-1,944,330,0,0
-273,694,0,0,0,0,0,0,0,0,0,-1,951,330,0,0
-266,694,0,0,0,0,0,0,0,0,0,-1,958,330,0,0
-259,694,0,0,0,0,0,0,0,0,0,-1,965,330,0,0
-252,694,0,0,0,0,0,0,0,0,0,-1,972,330,0,0
-245,694,0,0,0,0,0,0,0,0,0,-1,979,330,0,0
-238,694,0,0,0,0,0,0,0,0,0,-1,986,330,0,0
-231,694,0,0,0,0,0,0,0,0,0,-1,993,330,0,0
-224,694,0,0,0,0,0,0,0,0,0,-1,1000,330,0,0
-217,694,0,0,0,0,0,0,0,0,0,-1,1007,330,0,0
-210,694,0,0,0,0,0,0,0,0,0,-1,1014,330,0,0
-203,694,0,0,0,0,0,0,0,0,0,-1,1021,330,0,0
-196,694,0,0,0,0,0,0,0,0,0,-1,1028,330,0,0
-189,694,0,0,0,0,0,0,0,0,0,-1,1035,330,0,0
-182,694,0,0,0,0,0,0,0,0,0,-1,1042,330,0,0
-175,694,0,0,0,0,0,0,0,0,0,-1,1049,330,0,0
-168,694,0,0,0,0,0,0,0,0,0,-1,1056,330,0,0
-161,694,0,0,0,0,0,0,0,0,0,-1,1063,330,0,0
-154,694,0,0,0,0,0,0,0,0,0,-1,1070,330,0,0
-147,694,0,0,0,0,0,0,0,0,0,-1,1077,330,0,0
-140,694,0,0,0,0,0,0,0,0,0,-1,1084,330,0,0
-133,694,0,0,0,0,0,0,0,0,0,-1,1091,330,0,0
-126,694,0,0,0,0,0,0,0,0,0,-1,1098,330,0,0
-119,694,0,0,0,0,0,0,0,0,0,-1,1105,330,0,0
-112,694,0,0,0,0,0,0,0,0,0,-1,1112,330,0,0
-105,694,2.5188,-19.3963,0,0,0,0,0,0,0,-1,1119,330,2.51882,19.3963
-98,694,1.34875,-10.1051,0,0,0,0,0,0,0,-1,1126,330,1.34874,10.1051
-91,694,7.12927,-43.3935,0,0,0,0,0,0,0,-1,1133,330,7.12929,43.3935
-84,694,1.07324,-37.1586,0,0,0,0,0,0,0,-1,1140,330,1.07323,37.1586
-77,694,-5.02612,-31.0246,0,0,0,0,0,0,0,-1,1147,330,-5.02613,31.0246
-70,694,-11.1091,-23.8819,0,0,0,0,0,0,0,-1,1154,330,-11.1091,23.8819
-63,694,-17.3901,-16.7162,0,0,0,0,0,0,0,-1,1161,330,-17.3901,16.7162
-56,694,-6.50623,-0.649139,0,0,0,0,0,0,0,-1,1168,330,-6.5062,0.649126
-49,694,-1.11426,0.0341797,0,0,0,0,0,0,0,-1,1175,330,-1.11424,-0.0341846
-42,694,-0.346313,-0.709595,0,0,0,0,0,0,0,-1,1182,330,-0.346298,0.709581
-35,694,-0.459106,-1.24713,0,0,0,0,0,0,0,-1,1189,330,-0.459142,1.24714
-28,694,-6.48413,-3.95972,0,0,0,0,0,0,0,-1,1196,330,-6.48414,3.9597
-21,694,4.51855,-32.5075,0,0,0,0,0,0,0,-1,1203,330,4.51852,32.5075
-14,694,5.67554,-33.7169,0,0,0,0,0,0,0,-1,1210,330,5.67558,33.717
-7,694,5.97363,-33.6424,0.0097762,-0.0121926,-0.00342552,0.0102979,-0.0127144,-0.151148,0.0133106,0.0494684,1217,330,5.97363,33.6424
0,694,6.21606,-34.2588,0.00972782,-0.00451932,-0.00713491,0.0126865,-0.00747802,-0.393097,0.0117707,0.0480878,1224,330,6.21608,34.2588
7,694,6.07849,-34.5232,0,0,0,0,0,0,0,-1,1231,330,6.07848,34.5232
14,694,6.27734,-35.0406,0,0,0,0,0,0,0,-1,1238,330,6.27729,35.0406
21,694,4.02698,-33.0258,0,0,0,0,0,0,0,-1,1245,330,4.02695,33.0258
28,694,4.05249,-33.0516,0.00471767,0.0403146,-0.00245263,0.0404828,0.00454948,-1.50233,0.0256071,0.0485569,1252,330,4.05248,33.0516
35,694,4.08167,-33.0964,0.0030169,0.0516938,-5.62169e-05,0.0516939,0.00301684,-1.56964,0.0335023,0.0465207,1259,330,4.08169,33.0965
42,694,4.10034,-33.0964,0,0,0,0,0,0,0,-1,1266,330,4.10032,33.0965
49,694,4.87952,-32.0063,0,0,0,0,0,0,0,-1,1273,330,4.87954,32.0063
56,694,5.05725,-31.6894,-0.00328703,0.0863108,0.00805339,0.0870289,-0.00400515,1.48186,0.0593993,0.0461218,1280,330,5.05729,31.6894
63,694,4.94604,-31.462,-0.00540678,0.095407,0.0100605,0.0964011,-0.00640095,1.4723,0.0665038,0.0455848,1287,330,4.94606,31.462
70,694,4.88818,-31.2517,-0.00688533,0.100976,0.0117298,0.102237,-0.00814621,1.46371,0.071029,0.045458,1294,330,4.88821,31.2517
77,694,4.58105,-31.2281,-0.00849792,0.106217,0.0123646,0.107535,-0.0098155,1.46464,0.0751757,0.0483719,1301,330,4.58104,31.2282
84,694,4.39819,-31.1319,-0.0102919,0.109538,0.0117159,0.110673,-0.0114266,1.47424,0.0778707,0.0467536,1308,330,4.39815,31.1319
91,694,4.29065,-31.1494,-0.0115185,0.112928,0.00960896,0.113666,-0.012256,1.49419,0.0801755,0.0470897,1315,330,4.29064,31.1493
98,694,4.10083,-31.303,-0.0121738,0.116141,0.00583503,0.116406,-0.0124386,1.52545,0.0820647,0.04462,1322,330,4.10078,31.303
105,694,3.9928,-31.2051,-0.0127895,0.117866,0.00329877,0.117949,-0.0128727,1.54557,0.083256,0.0466149,1329,330,3.99284,31.2051
112,694,3.31873,-31.5315,-0.0127428,0.118702,-0.000998904,0.118709,-0.0127504,-1.5632,0.0837141,0.0460282,1336,330,3.31873,31.5315
119,694,3.3949,-31.4255,-0.0127999,0.120526,-0.00537091,0.120742,-0.0130159,-1.5306,0.0851653,0.042864,1343,330,3.39485,31.4255
126,694,3.4364,-31.502,-0.0124523,0.121882,-0.0097165,0.122581,-0.0131514,-1.49896,0.0864388,0.045499,1350,330,3.43637,31.5021
133,694,3.12305,-32.0936,-0.0119102,0.123621,-0.0138823,0.125029,-0.0133175,-1.46977,0.0881277,0.048047,1357,330,3.123,32.0936
140,694,2.91724,-32.8655,-0.0115488,0.125806,-0.0177949,0.128074,-0.0138168,-1.44403,0.0903414,0.047598,1364,330,2.91724,32.8655
147,694,2.70215,-33.6894,-0.0118606,0.130222,-0.0217726,0.133483,-0.0151222,-1.4221,0.0944341,0.0473735,1371,330,2.70217,33.6894
154,694,2.50317,-34.4413,0,0,0,0,0,0,0,-1,1378,330,2.50316,34.4414
161,694,3.92969,-26.2193,0,0,0,0,0,0,0,-1,1385,330,3.92966,26.2193
168,694,30.451,0.196686,0,0,0,0,0,0,0,-1,1392,330,30.4511,-0.196674
175,694,31.0701,0.869873,0,0,0,0,0,0,0,-1,1399,330,31.07,-0.869874
182,694,8.29028,5.75238,0,0,0,0,0,0,0,-1,1406,330,8.29034,-5.75237
189,694,7.9801,4.46118,0,0,0,0,0,0,0,-1,1413,330,7.9801,-4.46118
196,694,7.39331,3.32632,0,0,0,0,0,0,0,-1,1420,330,7.39329,-3.32633
203,694,7.04492,2.20529,0,0,0,0,0,0,0,-1,1427,330,7.04496,-2.20529
210,694,6.44714,0.646912,0,0,0,0,0,0,0,-1,1434,330,6.44717,-0.646903
217,694,7.12061,-0.644958,0,0,0,0,0,0,0,-1,1441,330,7.12059,0.644961
224,694,6.74011,-1.70544,0,0,0,0,0,0,0,-1,1448,330,6.74013,1.70546
231,694,0,0,0,0,0,0,0,0,0,-1,1455,330,0,0
238,694,0,0,0,0,0,0,0,0,0,-1,1462,330,0,0
245,694,0,0,0,0,0,0,0,0,0,-1,1469,330,0,0
252,694,0,0,0,0,0,0,0,0,0,-1,1476,330,0,0
259,694,0,0,0,0,0,0,0,0,0,-1,1483,330,0,0
266,694,0,0,0,0,0,0,0,0,0,-1,1490,330,0,0
273,694,0,0,0,0,0,0,0,0,0,-1,1497,330,0,0
280,694,0,0,0,0,0,0,0,0,0,-1,1504,330,0,0
287,694,0,0,0,0,0,0,0,0,0,-1,1511,330,0,0
294,694,0,0,0,0,0,0,0,0,0,-1,1518,330,0,0
301,694,0,0,0,0,0,0,0,0,0,-1,1525,330,0,0
308,694,0,0,0,0,0,0,0,0,0,-1,1532,330,0,0
315,694,0,0,0,0,0,0,0,0,0,-1,1539,330,0,0
322,694,0,0,0,0,0,0,0,0,0,-1,1546,330,0,0
329,694,0,0,0,0,0,0,0,0,0,-1,1553,330,0,0
336,694,0,0,0,0,0,0,0,0,0,-1,1560,330,0,0
343,694,0,0,0,0,0,0,0,0,0,-1,1567,330,0,0
350,694,0,0,0,0,0,0,0,0,0,-1,1574,330,0,0
357,694,0,0,0,0,0,0,0,0,0,-1,1581,330,0,0
364,694,0,0,0,0,0,0,0,0,0,-1,1588,330,0,0
371,694,0,0,0,0,0,0,0,0,0,-1,1595,330,0,0
378,694,0,0,0,0,0,0,0,0,0,-1,1602,330,0,0
385,694,0,0,0,0,0,0,0,0,0,-1,1609,330,0,0
392,694,0,0,0,0,0,0,0,0,0,-1,1616,330,0,0
399,694,0,0,0,0,0,0,0,0,0,-1,1623,330,0,0
406,694,0,0,0,0,0,0,0,0,0,-1,1630,330,0,0
413,694,0,0,0,0,0,0,0,0,0,-1,1637,330,0,0
420,694,0,0,0,0,0,0,0,0,0,-1,1644,330,0,0
427,694,0,0,0,0,0,0,0,0,0,-1,1651,330,0,0
434,694,0,0,0,0,0,0,0,0,0,-1,1658,330,0,0
441,694,0,0,0,0,0,0,0,0,0,-1,1665,330,0,0
448,694,0,0,0,0,0,0,0,0,0,-1,1672,330,0,0
455,694,0,0,0,0,0,0,0,0,0,-1,1679,330,0,0
462,694,0,0,0,0,0,0,0,0,0,-1,1686,330,0,0
469,694,0,0,0,0,0,0,0,0,0,-1,1693,330,0,0
476,694,0,0,0,0,0,0,0,0,0,-1,1700,330,0,0
483,694,0,0,0,0,0,0,0,0,0,-1,1707,330,0,0
490,694,0,0,0,0,0,0,0,0,0,-1,1714,330,0,0
497,694,0,0,0,0,0,0,0,0,0,-1,1721,330,0,0
504,694,0,0,0,0,0,0,0,0,0,-1,1728,330,0,0
511,694,0,0,0,0,0,0,0,0,0,-1,1735,330,0,0
518,694,0,0,0,0,0,0,0,0,0,-1,1742,330,0,0
525,694,0,0,0,0,0,0,0,0,0,-1,1749,330,0,0
532,694,0,0,0,0,0,0,0,0,0,-1,1756,330,0,0
539,694,0,0,0,0,0,0,0,0,0,-1,1763,330,0,0
546,694,0,0,0,0,0,0,0,0,0,-1,1770,330,0,0
553,694,0,0,0,0,0,0,0,0,0,-1,1777,330,0,0
560,694,0,0,0,0,0,0,0,0,0,-1,1784,330,0,0
567,694,0,0,0,0,0,0,0,0,0,-1,1791,330,0,0
574,694,0,0,0,0,0,0,0,0,0,-1,1798,330,0,0
581,694,0,0,0,0,0,0,0,0,0,-1,1805,330,0,0
588,694,0,0,0,0,0,0,0,0,0,-1,1812,330,0,0
595,694,0,0,0,0,0,0,0,0,0,-1,1819,330,0,0
602,694,0,0,0,0,0,0,0,0,0,-1,1826,330,0,0
609,694,0,0,0,0,0,0,0,0,0,-1,1833,330,0,0
616,694,0,0,0,0,0,0,0,0,0,-1,1840,330,0,0
623,694,0,0,0,0,0,0,0,0,0,-1,1847,330,0,0
630,694,0,0,0,0,0,0,0,0,0,-1,1854,330,0,0
637,694,0,0,0,0,0,0,0,0,0,-1,1861,330,0,0
644,694,0,0,0,0,0,0,0,0,0,-1,1868,330,0,0
651,694,0,0,0,0,0,0,0,0,0,-1,1875,330,0,0
658,694,0,0,0,0,0,0,0,0,0,-1,1882,330,0,0
665,694,0,0,0,0,0,0,0,0,0,-1,1889,330,0,0
672,694,0,0,0,0,0,0,0,0,0,-1,1896,330,0,0
679,694,0,0,0,0,0,0,0,0,0,-1,1903,330,0,0
686,694,0,0,0,0,0,0,0,0,0,-1,1910,330,0,0
693,694,0,0,0,0,0,0,0,0,0,-1,1917,330,0,0
700,694,0,0,0,0,0,0,0,0,0,-1,1924,330,0,0
707,694,0,0,0,0,0,0,0,0,0,-1,1931,330,0,0
714,694,0,0,0,0,0,0,0,0,0,-1,1938,330,0,0
721,694,0,0,0,0,0,0,0,0,0,-1,1945,330,0,0
728,694,0,0,0,0,0,0,0,0,0,-1,1952,330,0,0
735,694,0,0,0,0,0,0,0,0,0,-1,1959,330,0,0
742,694,0,0,0,0,0,0,0,0,0,-1,1966,330,0,0
749,694,0,0,0,0,0,0,0,0,0,-1,1973,330,0,0
756,694,0,0,0,0,0,0,0,0,0,-1,1980,330,0,0
763,694,0,0,0,0,0,0,0,0,0,-1,1987,330,0,0
770,694,0,0,0,0,0,0,0,0,0,-1,1994,330,0,0
777,694,0,0,0,0,0,0,0,0,0,-1,2001,330,0,0
784,694,0,0,0,0,0,0,0,0,0,-1,2008,330,0,0
791,694,0,0,0,0,0,0,0,0,0,-1,2015,330,0,0
798,694,0,0,0,0,0,0,0,0,0,-1,2022,330,0,0
805,694,0,0,0,0,0,0,0,0,0,-1,2029,330,0,0
812,694,0,0,0,0,0,0,0,0,0,-1,2036,330,0,0
-700,687,0,0,0,0,0,0,0,0,0,-1,524,337,0,0
-693,687,0,0,0,0,0,0,0,0,0,-1,531,337,0,0
-686,687,0,0,0,0,0,0,0,0,0,-1,538,337,0,0
-679,687,0,0,0,0,0,0,0,0,0,-1,545,337,0,0
-672,687,0,0,0,0,0,0,0,0,0,-1,552,337,0,0
-665,687,0,0,0,0,0,0,0,0,0,-1,559,337,0,0
-658,687,0,0,0,0,0,0,0,0,0,-1,566,337,0,0
-651,687,0,0,0,0,0,0,0,0,0,-1,573,337,0,0
-644,687,0,0,0,0,0,0,0,0,0,-1,580,337,0,0
-637,687,0,0,0,0,0,0,0,0,0,-1,587,337,0,0
-630,687,0,0,0,0,0,0,0,0,0,-1,594,337,0,0
-623,687,0,0,0,0,0,0,0,0,0,-1,601,337,0,0
-616,687,0,0,0,0,0,0,0,0,0,-1,608,337,0,0
-609,687,0,0,0,0,0,0,0,0,0,-1,615,337,0,0
-602,687,0,0,0,0,0,0,0,0,0,-1,622,337,0,0
-595,687,0,0,0,0,0,0,0,0,0,-1,629,337,0,0
-588,687,0,0,0,0,0,0,0,0,0,-1,636,337,0,0
-581,687,0,0,0,0,0,0,0,0,0,-1,643,337,0,0
-574,687,0,0,0,0,0,0,0,0,0,-1,650,337,0,0
-567,687,0,0,0,0,0,0,0,0,0,-1,657,337,0,0
-560,687,0,0,0,0,0,0,0,0,0,-1,664,337,0,0
-553,687,0,0,0,0,0,0,0,0,0,-1,671,337,0,0
-546,687,0,0,0,0,0,0,0,0,0,-1,678,337,0,0
-539,687,0,0,0,0,0,0,0,0,0,-1,685,337,0,0
-532,687,0,0,0,0,0,0,0,0,0,-1,692,337,0,0
-525,687,0,0,0,0,0,0,0,0,0,-1,699,337,0,0
-518,687,0,0,0,0,0,0,0,0,0,-1,706,337,0,0
-511,687,0,0,0,0,0,0,0,0,0,-1,713,337,0,0
-504,687,0,0,0,0,0,0,0,0,0,-1,720,337,0,0
-497,687,0,0,0,0,0,0,0,0,0,-1,727,337,0,0
-490,687,0,0,0,0,0,0,0,0,0,-1,734,337,0,0
-483,687,0,0,0,0,0,0,0,0,0,-1,741,337,0,0
-476,687,0,0,0,0,0,0,0,0,0,-1,748,337,0,0
-469,687,0,0,0,0,0,0,0,0,0,-1,755,337,0,0
-462,687,0,0,0,0,0,0,0,0,0,-1,762,337,0,0
-455,687,0,0,0,0,0,0,0,0,0,-1,769,337,0,0
-448,687,0,0,0,0,0,0,0,0,0,-1,776,337,0,0
-441,687,0,0,0,0,0,0,0,0,0,-1,783,337,0,0
-434,687,0,0,0,0,0,0,0,0,0,-1,790,337,0,0
-427,687,0,0,0,0,0,0,0,0,0,-1,797,337,0,0
-420,687,0,0,0,0,0,0,0,0,0,-1,804,337,0,0
-413,687,0,0,0,0,0,0,0,0,0,-1,811,337,0,0
-406,687,0,0,0,0,0,0,0,0,0,-1,818,337,0,0
-399,687,0,0,0,0,0,0,0,0,0,-1,825,337,0,0
-392,687,0,0,0,0,0,0,0,0,0,-1,832,337,0,0
-385,687,0,0,0,0,0,0,0,0,0,-1,839,337,0,0
-378,687,0,0,0,0,0,0,0,0,0,-1,846,337,0,0
-371,687,0,0,0,0,0,0,0,0,0,-1,853,337,0,0
-364,687,0,0,0,0,0,0,0,0,0,-1,860,337,0,0
-357,687,0,0,0,0,0,0,0,0,0,-1,867,337,0,0
-350,687,0,0,0,0,0,0,0,0,0,-1,874,337,0,0
-343,687,0,0,0,0,0,0,0,0,0,-1,881,337,0,0
-336,687,0,0,0,0,0,0,0,0,0,-1,888,337,0,0
-329,687,0,0,0,0,0,0,0,0,0,-1,895,337,0,0
-322,687,0,0,0,0,0,0,0,0,0,-1,902,337,0,0
-315,687,0,0,0,0,0,0,0,0,0,-1,909,337,0,0
-308,687,0,0,0,0,0,0,0,0,0,-1,916,337,0,0
-301,687,0,0,0,0,0,0,0,0,0,-1,923,337,0,0
-294,687,0,0,0,0,0,0,0,0,0,-1,930,337,0,0
-287,687,0,0,0,0,0,0,0,0,0,-1,937,337,0,0
-280,687,0,0,0,0,0,0,0,0,0,-1,944,337,0,0
-273,687,0,0,0,0,0,0,0,0,0,-1,951,337,0,0
-266,687,0,0,0,0,0,0,0,0,0,-1,958,337,0,0
-259,687,0,0,0,0,0,0,0,0,0,-1,965,337,0,0
-252,687,0,0,0,0,0,0,0,0,0,-1,972,337,0,0
-245,687,0,0,0,0,0,0,0,0,0,-1,979,337,0,0
-238,687,0,0,0,0,0,0,0,0,0,-1,986,337,0,0
-231,687,0,0,0,0,0,0,0,0,0,-1,993,337,0,0
-224,687,0,0,0,0,0,0,0,0,0,-1,1000,337,0,0
-217,687,0,0,0,0,0,0,0,0,0,-1,1007,337,0,0
-210,687,0,0,0,0,0,0,0,0,0,-1,1014,337,0,0
-203,687,0,0,0,0,0,0,0,0,0,-1,1021,337,0,0
-196,687,0,0,0,0,0,0,0,0,0,-1,1028,337,0,0
-189,687,0,0,0,0,0,0,0,0,0,-1,1035,337,0,0
-182,687,0,0,0,0,0,0,0,0,0,-1,1042,337,0,0
-175,687,0,0,0,0,0,0,0,0,0,-1,1049,337,0,0
-168,687,0,0,0,0,0,0,0,0,0,-1,1056,337,0,0
-161,687,0,0,0,0,0,0,0,0,0,-1,1063,337,0,0
-154,687,0,0,0,0,0,0,0,0,0,-1,1070,337,0,0
-147,687,0,0,0,0,0,0,0,0,0,-1,1077,337,0,0
-140,687,0,0,0,0,0,0,0,0,0,-1,1084,337,0,0
-133,687,6.45044,-32.4885,0,0,0,0,0,0,0,-1,1091,337,6.4505,32.4885
-126,687,8.67322,-33.1278,0,0,0,0,0,0,0,-1,1098,337,8.67319,33.1278
-119,687,8.06726,-31.9553,0,0,0,0,0,0,0,-1,1105,337,8.06726,31.9553
-112,687,7.16846,-29.0458,0,0,0,0,0,0,0,-1,1112,337,7.16844,29.0458
-105,687,6.71155,-27.9981,0,0,0,0,0,0,0,-1,1119,337,6.7116,27.9981
-98,687,13.5825,-44.6227,0,0,0,0,0,0,0,-1,1126,337,13.5825,44.6227
-91,687,7.73694,-38.4884,0,0,0,0,0,0,0,-1,1133,337,7.73693,38.4884
-84,687,1.797,-32.6166,0,0,0,0,0,0,0,-1,1140,337,1.79697,32.6166
-77,687,-4.23816,-26.3512,0,0,0,0,0,0,0,-1,1147,337,-4.23819,26.3512
-70,687,-10.2548,-19.4462,0,0,0,0,0,0,0,-1,1154,337,-10.2548,19.4462
-63,687,-16.4756,-12.504,0,0,0,0,0,0,0,-1,1161,337,-16.4756,12.504
-56,687,-18.104,7.81931,0,0,0,0,0,0,0,-1,1168,337,-18.104,-7.81931
-49,687,-15.6449,-9.94391,0,0,0,0,0,0,0,-1,1175,337,-15.6449,9.94392
-42,687,-4.2019,-0.405609,0,0,0,0,0,0,0,-1,1182,337,-4.20192,0.405614
-35,687,-4.42273,-0.688171,0,0,0,0,0,0,0,-1,1189,337,-4.42276,0.688178
-28,687,-1.14038,-1.39072,0,0,0,0,0,0,0,-1,1196,337,-1.14035,1.3907
-21,687,5.71924,-31.2799,0,0,0,0,0,0,0,-1,1203,337,5.71923,31.2799
-14,687,5.30078,-33.6004,0,0,0,0,0,0,0,-1,1210,337,5.30078,33.6004
-7,687,5.55273,-33.4482,0.00405936,-0.00512868,-0.00280038,0.00484559,-0.00591492,-0.273713,0.0062228,0.047679,1217,337,5.55279,33.4483
0,687,5.56763,-33.9165,0.00412959,6.31215e-05,-0.00494074,0.0074391,-0.00324639,-0.590197,0.00632559,0.0482101,1224,337,5.56762,33.9165
7,687,5.61328,-34.4408,0.00374856,0.00737028,-0.0050689,0.0109421,0.000176764,-0.956957,0.00723652,0.0465379,1231,337,5.61323,34.4408
14,687,5.45483,-34.9368,0,0,0,0,0,0,0,-1,1238,337,5.45489,34.9368
21,687,4.89856,-33.5934,0,0,0,0,0,0,0,-1,1245,337,4.89858,33.5934
28,687,3.90393,-33.192,0.00134874,0.036039,-0.000766962,0.0360559,0.0013318,-1.5487,0.0236059,0.0454253,1252,337,3.90399,33.192
35,687,4.22583,-33.4234,0.000281502,0.0454624,0.00102275,0.0454856,0.000258362,1.54818,0.030238,0.0456173,1259,337,4.22586,33.4234
42,687,4.27527,-33.3468,0,0,0,0,0,0,0,-1,1266,337,4.27526,33.3468
49,687,4.8468,-32.5376,0,0,0,0,0,0,0,-1,1273,337,4.84678,32.5376
56,687,4.83704,-32.2955,-0.00441651,0.0748153,0.00690755,0.075413,-0.00501421,1.48448,0.0520273,0.0477383,1280,337,4.83699,32.2955
63,687,4.75623,-32.0865,-0.00600683,0.0824797,0.00819732,0.0832327,-0.00675982,1.4792,0.0578735,0.0449901,1287,337,4.75619,32.0865
70,687,4.73059,-31.8549,-0.00719531,0.0872068,0.00924091,0.0881029,-0.00809138,1.47413,0.0616097,0.0422291,1294,337,4.73059,31.8549
77,687,4.76123,-31.66,-0.0084874,0.0916315,0.00955856,0.0925359,-0.0093918,1.47646,0.0650476,0.0452616,1301,337,4.76127,31.66
84,687,4.16858,-32.9438,0,0,0,0,0,0,0,-1,1308,337,4.16857,32.9439
91,687,3.93567,-31.7613,-0.0105564,0.09681,0.00717782,0.0972877,-0.0110341,1.50434,0.068832,0.0471843,1315,337,3.93566,31.7613
98,687,3.66406,-31.8865,-0.0109012,0.0989618,0.00424869,0.0991258,-0.0110653,1.5322,0.0700642,0.0472504,1322,337,3.66408,31.8865
105,687,3.56104,-32.0096,-0.0111443,0.0999513,0.00223242,0.0999961,-0.0111891,1.55071,0.0706896,0.0454649,1329,337,3.56098,32.0096
112,687,3.43616,-32.1662,-0.0108765,0.100174,-0.00101071,0.100183,-0.0108857,-1.5617,0.070697,0.045162,1336,337,3.43612,32.1662
119,687,3.229,-32.3372,-0.0106148,0.101027,-0.00429439,0.101192,-0.0107798,-1.53241,0.0713264,0.0453747,1343,337,3.22902,32.3372
126,687,3.18176,-32.458,-0.0100416,0.101569,-0.00746636,0.102066,-0.0105389,-1.50429,0.0718152,0.0465805,1350,337,3.18173,32.458
133,687,3.12061,-32.1249,-0.00932716,0.102466,-0.0104089,0.103427,-0.0102881,-1.47874,0.072624,0.049343,1357,337,3.12065,32.1249
140,687,3.78284,-31.9948,0,0,0,0,0,0,0,-1,1364,337,3.7828,31.9948
147,687,2.82886,-34.5197,0,0,0,0,0,0,0,-1,1371,337,2.82881,34.5197
154,687,3.06482,-29.9561,0,0,0,0,0,0,0,-1,1378,337,3.06482,29.9561
161,687,29.3895,-1.90628,0,0,0,0,0,0,0,-1,1385,337,29.3895,1.90628
168,687,29.8564,-1.19434,0,0,0,0,0,0,0,-1,1392,337,29.8564,1.19434
175,687,30.3419,-0.453583,0,0,0,0,0,0,0,-1,1399,337,30.3419,0.45357
182,687,6.67249,0.289917,0,0,0,0,0,0,0,-1,1406,337,6.67247,-0.289916
189,687,7.76062,4.53635,0,0,0,0,0,0,0,-1,1413,337,7.76064,-4.53636
196,687,6.99048,3.2966,0,0,0,0,0,0,0,-1,1420,337,6.99046,-3.2966
203,687,6.36499,2.1445,0,0,0,0,0,0,0,-1,1427,337,6.36499,-2.14451
210,687,6.68066,0.674652,0,0,0,0,0,0,0,-1,1434,337,6.68062,-0.674655
217,687,5.99683,-0.630493,0,0,0,0,0,0,0,-1,1441,337,5.99684,0.630497
224,687,5.52917,0.524902,0,0,0,0,0,0,0,-1,1448,337,5.5292,-0.524915
231,687,5.85583,-1.73651,0,0,0,0,0,0,0,-1,1455,337,5.85577,1.73651
238,687,5.96582,-2.96774,0,0,0,0,0,0,0,-1,1462,337,5.96577,2.96773
245,687,1.28259,2.32211,0,0,0,0,0,0,0,-1,1469,337,1.28258,-2.32211
252,687,1.97278,3.88422,0,0,0,0,0,0,0,-1,1476,337,1.97281,-3.88421
259,687,0,0,0,0,0,0,0,0,0,-1,1483,337,0,0
266,687,0,0,0,0,0,0,0,0,0,-1,1490,337,0,0
273,687,0,0,0,0,0,0,0,0,0,-1,1497,337,0,0
280,687,0,0,0,0,0,0,0,0,0,-1,1504,337,0,0
287,687,0,0,0,0,0,0,0,0,0,-1,1511,337,0,0
294,687,0,0,0,0,0,0,0,0,0,-1,1518,337,0,0
301,687,0,0,0,0,0,0,0,0,0,-1,1525,337,0,0
308,687,0,0,0,0,0,0,0,0,0,-1,1532,337,0,0
315,687,0,0,0,0,0,0,0,0,0,-1,1539,337,0,0
322,687,0,0,0,0,0,0,0,0,0,-1,1546,337,0,0
329,687,0,0,0,0,0,0,0,0,0,-1,1553,337,0,0
336,687,0,0,0,0,0,0,0,0,0,-1,1560,337,0,0
343,687,0,0,0,0,0,0,0,0,0,-1,1567,337,0,0
350,687,0,0,0,0,0,0,0,0,0,-1,1574,337,0,0
357,687,0,0,0,0,0,0,0,0,0,-1,1581,337,0,0
364,687,0,0,0,0,0,0,0,0,0,-1,1588,337,0,0
371,687,0,0,0,0,0,0,0,0,0,-1,1595,337,0,0
378,687,0,0,0,0,0,0,0,0,0,-1,1602,337,0,0
385,687,0,0,0,0,0,0,0,0,0,-1,1609,337,0,0
392,687,0,0,0,0,0,0,0,0,0,-1,1616,337,0,0
399,687,0,0,0,0,0,0,0,0,0,-1,1623,337,0,0
406,687,0,0,0,0,0,0,0,0,0,-1,1630,337,0,0
413,687,0,0,0,0,0,0,0,0,0,-1,1637,337,0,0
420,687,0,0,0,0,0,0,0,0,0,-1,1644,337,0,0
427,687,0,0,0,0,0,0,0,0,0,-1,1651,337,0,0
434,687,0,0,0,0,0,0,0,0,0,-1,1658,337,0,0
441,687,0,0,0,0,0,0,0,0,0,-1,1665,337,0,0
448,687,0,0,0,0,0,0,0,0,0,-1,1672,337,0,0
455,687,0,0,0,0,0,0,0,0,0,-1,1679,337,0,0
462,687,0,0,0,0,0,0,0,0,0,-1,1686,337,0,0
469,687,0,0,0,0,0,0,0,0,0,-1,1693,337,0,0
476,687,0,0,0,0,0,0,0,0,0,-1,1700,337,0,0
483,687,0,0,0,0,0,0,0,0,0,-1,1707,337,0,0
490,687,0,0,0,0,0,0,0,0,0,-1,1714,337,0,0
497,687,0,0,0,0,0,0,0,0,0,-1,1721,337,0,0
504,687,0,0,0,0,0,0,0,0,0,-1,1728,337,0,0
511,687,0,0,0,0,0,0,0,0,0,-1,1735,337,0,0
518,687,0,0,0,0,0,0,0,0,0,-1,1742,337,0,0
525,687,0,0,0,0,0,0,0,0,0,-1,1749,337,0,0
532,687,0,0,0,0,0,0,0,0,0,-1,1756,337,0,0
539,687,0,0,0,0,0,0,0,0,0,-1,1763,337,0,0
546,687,0,0,0,0,0,0,0,0,0,-1,1770,337,0,0
553,687,0,0,0,0,0,0,0,0,0,-1,1777,337,0,0
560,687,0,0,0,0,0,0,0,0,0,-1,1784,337,0,0
567,687,0,0,0,0,0,0,0,0,0,-1,1791,337,0,0
574,687,0,0,0,0,0,0,0,0,0,-1,1798,337,0,0
581,687,0,0,0,0,0,0,0,0,0,-1,1805,337,0,0
588,687,0,0,0,0,0,0,0,0,0,-1,1812,337,0,0
595,687,0,0,0,0,0,0,0,0,0,-1,1819,337,0,0
602,687,0,0,0,0,0,0,0,0,0,-1,1826,337,0,0
609,687,0,0,0,0,0,0,0,0,0,-1,1833,337,0,0
616,687,0,0,0,0,0,0,0,0,0,-1,1840,337,0,0
623,687,0,0,0,0,0,0,0,0,0,-1,1847,337,0,0
630,687,0,0,0,0,0,0,0,0,0,-1,1854,337,0,0
637,687,0,0,0,0,0,0,0,0,0,-1,1861,337,0,0
644,687,0,0,0,0,0,0,0,0,0,-1,1868,337,0,0
651,687,0,0,0,0,0,0,0,0,0,-1,1875,337,0,0
658,687,0,0,0,0,0,0,0,0,0,-1,1882,337,0,0
665,687,0,0,0,0,0,0,0,0,0,-1,1889,337,0,0
672,687,0,0,0,0,0,0,0,0,0,-1,1896,337,0,0
679,687,0,0,0,0,0,0,0,0,0,-1,1903,337,0,0
686,687,0,0,0,0,0,0,0,0,0,-1,1910,337,0,0
693,687,0,0,0,0,0,0,0,0,0,-1,1917,337,0,0
700,687,0,0,0,0,0,0,0,0,0,-1,1924,337,0,0
707,687,0,0,0,0,0,0,0,0,0,-1,1931,337,0,0
714,687,0,0,0,0,0,0,0,0,0,-1,1938,337,0,0
721,687,0,0,0,0,0,0,0,0,0,-1,1945,337,0,0
728,687,0,0,0,0,0,0,0,0,0,-1,1952,337,0,0
735,687,0,0,0,0,0,0,0,0,0,-1,1959,337,0,0
742,687,0,0,0,0,0,0,0,0,0,-1,1966,337,0,0
749,687,0,0,0,0,0,0,0,0,0,-1,1973,337,0,0
756,687,0,0,0,0,0,0,0,0,0,-1,1980,337,0,0
763,687,0,0,0,0,0,0,0,0,0,-1,1987,337,0,0
770,687,0,0,0,0,0,0,0,0,0,-1,1994,337,0,0
777,687,0,0,0,0,0,0,0,0,0,-1,2001,337,0,0
784,687,0,0,0,0,0,0,0,0,0,-1,2008,337,0,0
791,687,0,0,0,0,0,0,0,0,0,-1,2015,337,0,0
798,687,0,0,0,0,0,0,0,0,0,-1,2022,337,0,0
805,687,0,0,0,0,0,0,0,0,0,-1,2029,337,0,0
812,687,0,0,0,0,0,0,0,0,0,-1,2036,337,0,0
-700,680,0,0,0,0,0,0,0,0,0,-1,524,344,0,0
-693,680,0,0,0,0,0,0,0,0,0,-1,531,344,0,0
-686,680,0,0,0,0,0,0,0,0,0,-1,538,344,0,0
-679,680,0,0,0,0,0,0,0,0,0,-1,545,344,0,0
-672,680,0,0,0,0,0,0,0,0,0,-1,552,344,0,0
-665,680,0,0,0,0,0,0,0,0,0,-1,559,344,0,0
-658,680,0,0,0,0,0,0,0,0,0,-1,566,344,0,0
-651,680,0,0,0,0,0,0,0,0,0,-1,573,344,0,0
-644,680,0,0,0,0,0,0,0,0,0,-1,580,344,0,0
-637,680,0,0,0,0,0,0,0,0,0,-1,587,344,0,0
-630,680,0,0,0,0,0,0,0,0,0,-1,594,344,0,0
-623,680,0,0,0,0,0,0,0,0,0,-1,601,344,0,0
-616,680,0,0,0,0,0,0,0,0,0,-1,608,344,0,0
-609,680,0,0,0,0,0,0,0,0,0,-1,615,344,0,0
-602,680,0,0,0,0,0,0,0,0,0,-1,622,344,0,0
-595,680,0,0,0,0,0,0,0,0,0,-1,629,344,0,0
-588,680,0,0,0,0,0,0,0,0,0,-1,636,344,0,0
-581,680,0,0,0,0,0,0,0,0,0,-1,643,344,0,0
-574,680,0,0,0,0,0,0,0,0,0,-1,650,344,0,0
-567,680,0,0,0,0,0,0,0,0,0,-1,657,344,0,0
-560,680,0,0,0,0,0,0,0,0,0,-1,664,344,0,0
-553,680,0,0,0,0,0,0,0,0,0,-1,671,344,0,0
-546,680,0,0,0,0,0,0,0,0,0,-1,678,344,0,0
-539,680,0,0,0,0,0,0,0,0,0,-1,685,344,0,0
-532,680,0,0,0,0,0,0,0,0,0,-1,692,344,0,0
-525,680,0,0,0,0,0,0,0,0,0,-1,699,344,0,0
-518,680,0,0,0,0,0,0,0,0,0,-1,706,344,0,0
-511,680,0,0,0,0,0,0,0,0,0,-1,713,344,0,0
-504,680,0,0,0,0,0,0,0,0,0,-1,720,344,0,0
-497,680,0,0,0,0,0,0,0,0,0,-1,727,344,0,0
-490,680,0,0,0,0,0,0,0,0,0,-1,734,344,0,0
-483,680,0,0,0,0,0,0,0,0,0,-1,741,344,0,0
-476,680,0,0,0,0,0,0,0,0,0,-1,748,344,0,0
-469,680,0,0,0,0,0,0,0,0,0,-1,755,344,0,0
-462,680,0,0,0,0,0,0,0,0,0,-1,762,344,0,0
-455,680,0,0,0,0,0,0,0,0,0,-1,769,344,0,0
-448,680,0,0,0,0,0,0,0,0,0,-1,776,344,0,0
-441,680,0,0,0,0,0,0,0,0,0,-1,783,344,0,0
-434,680,0,0,0,0,0,0,0,0,0,-1,790,344,0,0
-427,680,0,0,0,0,0,0,0,0,0,-1,797,344,0,0
-420,680,0,0,0,0,0,0,0,0,0,-1,804,344,0,0
-413,680,0,0,0,0,0,0,0,0,0,-1,811,344,0,0
-406,680,0,0,0,0,0,0,0,0,0,-1,818,344,0,0
-399,680,0,0,0,0,0,0,0,0,0,-1,825,344,0,0
-392,680,0,0,0,0,0,0,0,0,0,-1,832,344,0,0
-385,680,0,0,0,0,0,0,0,0,0,-1,839,344,0,0
-378,680,0,0,0,0,0,0,0,0,0,-1,846,344,0,0
-371,680,0,0,0,0,0,0,0,0,0,-1,853,344,0,0
-364,680,0,0,0,0,0,0,0,0,0,-1,860,344,0,0
-357,680,0,0,0,0,0,0,0,0,0,-1,867,344,0,0
-350,680,0,0,0,0,0,0,0,0,0,-1,874,344,0,0
-343,680,0,0,0,0,0,0,0,0,0,-1,881,344,0,0
-336,680,0,0,0,0,0,0,0,0,0,-1,888,344,0,0
-329,680,0,0,0,0,0,0,0,0,0,-1,895,344,0,0
-322,680,0,0,0,0,0,0,0,0,0,-1,902,344,0,0
-315,680,0,0,0,0,0,0,0,0,0,-1,909,344,0,0
-308,680,0,0,0,0,0,0,0,0,0,-1,916,344,0,0
-301,680,0,0,0,0,0,0,0,0,0,-1,923,344,0,0
-294,680,0,0,0,0,0,0,0,0,0,-1,930,344,0,0
-287,680,0,0,0,0,0,0,0,0,0,-1,937,344,0,0
-280,680,0,0,0,0,0,0,0,0,0,-1,944,344,0,0
-273,680,0,0,0,0,0,0,0,0,0,-1,951,344,0,0
-266,680,0,0,0,0,0,0,0,0,0,-1,958,344,0,0
-259,680,0,0,0,0,0,0,0,0,0,-1,965,344,0,0
-252,680,0,0,0,0,0,0,0,0,0,-1,972,344,0,0
-245,680,0,0,0,0,0,0,0,0,0,-1,979,344,0,0
-238,680,0,0,0,0,0,0,0,0,0,-1,986,344,0,0
-231,680,0,0,0,0,0,0,0,0,0,-1,993,344,0,0
-224,680,0,0,0,0,0,0,0,0,0,-1,1000,344,0,0
-217,680,0,0,0,0,0,0,0,0,0,-1,1007,344,0,0
-210,680,0,0,0,0,0,0,0,0,0,-1,1014,344,0,0
-203,680,0,0,0,0,0,0,0,0,0,-1,1021,344,0,0
-196,680,0,0,0,0,0,0,0,0,0,-1,1028,344,0,0
-189,680,0,0,0,0,0,0,0,0,0,-1,1035,344,0,0
-182,680,0,0,0,0,0,0,0,0,0,-1,1042,344,0,0
-175,680,0,0,0,0,0,0,0,0,0,-1,1049,344,0,0
-168,680,0,0,0,0,0,0,0,0,0,-1,1056,344,0,0
-161,680,0,0,0,0,0,0,0,0,0,-1,1063,344,0,0
-154,680,2.25244,-29.1442,0,0,0,0,0,0,0,-1,1070,344,2.25241,29.1442
-147,680,5.75867,-30.2404,0,0,0,0,0,0,0,-1,1077,344,5.75868,30.2404
-140,680,5.44031,-31.4833,0,0,0,0,0,0,0,-1,1084,344,5.4403,31.4833
-133,680,8.52869,-34.5387,0,0,0,0,0,0,0,-1,1091,344,8.52872,34.5387
-126,680,8.10266,-33.1023,-0.0355705,-0.0204059,0.115053,0.0873144,-0.143291,0.818302,0.134441,0.0426475,1098,344,8.10272,33.1023
-119,680,7.53833,-31.8541,-0.0399748,-0.0106642,0.118968,0.0945481,-0.145187,0.846683,0.139437,0.0425999,1105,344,7.53838,31.8541
-112,680,7.07043,-30.3094,0,0,0,0,0,0,0,-1,1112,344,7.07044,30.3094
-105,680,8.12,-27.7806,0,0,0,0,0,0,0,-1,1119,344,8.12,27.7806
-98,680,14.1224,-39.1392,0,0,0,0,0,0,0,-1,1126,344,14.1225,39.1392
-91,680,8.3208,-33.7806,0,0,0,0,0,0,0,-1,1133,344,8.32075,33.7806
-84,680,2.49768,-28.4062,0,0,0,0,0,0,0,-1,1140,344,2.49767,28.4062
-77,680,-3.48523,-21.6401,0,0,0,0,0,0,0,-1,1147,344,-3.48523,21.6402
-70,680,-9.48633,-14.8963,0,0,0,0,0,0,0,-1,1154,344,-9.48631,14.8963
-63,680,-16.3506,-2.21045,0,0,0,0,0,0,0,-1,1161,344,-16.3506,2.21045
-56,680,-6.96912,-8.83356,0,0,0,0,0,0,0,-1,1168,344,-6.96907,8.83354
-49,680,-6.7677,-2.24063,0,0,0,0,0,0,0,-1,1175,344,-6.76772,2.24063
-42,680,-1.02368,0.618805,0,0,0,0,0,0,0,-1,1182,344,-1.0237,-0.618797
-35,680,-0.947876,-0.942719,0,0,0,0,0,0,0,-1,1189,344,-0.947842,0.942731
-28,680,-1.46118,-1.10574,0,0,0,0,0,0,0,-1,1196,344,-1.4612,1.10575
-21,680,4.41296,-32.1291,0,0,0,0,0,0,0,-1,1203,344,4.41302,32.1291
-14,680,5.08069,-32.9734,0,0,0,0,0,0,0,-1,1210,344,5.08064,32.9734
-7,680,5.12537,-33.447,0.000356788,-0.000416836,-0.00219514,0.00219894,-0.00225899,-0.698187,0.00257386,0.0452451,1217,344,5.12537,33.447
0,680,5.10901,-33.8701,0.000520828,0.00308691,-0.00340746,0.00544488,-0.00183714,-0.965458,0.00437289,0.0481446,1224,344,5.10903,33.8701
7,680,4.79248,-34.3198,0.000408768,0.00851721,-0.00327323,0.00967363,-0.000747646,-1.23119,0.00671219,0.0459387,1231,344,4.79245,34.3198
14,680,4.50134,-34.7801,0,0,0,0,0,0,0,-1,1238,344,4.50139,34.7801
21,680,4.77502,-33.6809,-0.000106546,0.0230774,-0.00125373,0.023145,-0.000174149,-1.51693,0.0154884,0.0486292,1245,344,4.77506,33.6809
28,680,4.84021,-33.5742,-0.00079856,0.0311385,0.000120362,0.031139,-0.000799015,1.56703,0.0210307,0.0472301,1252,344,4.84015,33.5741
35,680,4.45361,-33.6428,-0.00140698,0.0387073,0.00142859,0.0387581,-0.0014578,1.53524,0.0263381,0.0445887,1259,344,4.45359,33.6428
42,680,4.42957,-33.6152,-0.00220814,0.0471089,0.00294291,0.0472839,-0.00238313,1.5114,0.0323462,0.0449378,1266,344,4.42957,33.6152
49,680,4.48364,-33.6164,-0.00344213,0.0551631,0.00432149,0.05548,-0.00375907,1.49759,0.0383012,0.0422879,1273,344,4.48364,33.6164
56,680,4.53918,-33.4528,-0.00480988,0.0628145,0.00565829,0.0632847,-0.00528005,1.48789,0.0440554,0.0405781,1280,344,4.53916,33.4528
63,680,4.58398,-32.9659,-0.00597585,0.0691201,0.00648445,0.0696759,-0.00653167,1.48529,0.0487738,0.0388969,1287,344,4.58393,32.9659
70,680,4.61365,-32.7827,-0.00690733,0.0730512,0.00713329,0.0736826,-0.00753872,1.48251,0.0518178,0.0393902,1294,344,4.61367,32.7826
77,680,4.62939,-32.6441,-0.00791921,0.0767146,0.00728029,0.0773363,-0.0085409,1.48561,0.0546275,0.042767,1301,344,4.62943,32.6441
84,680,4.2489,-33.2917,-0.00883814,0.0788034,0.0066958,0.079312,-0.00934675,1.49498,0.0562497,0.0465207,1308,344,4.24893,33.2917
91,680,4.43237,-33.1187,-0.00930232,0.0807296,0.00534525,0.0810459,-0.00961856,1.5117,0.0575055,0.0459756,1315,344,4.43234,33.1186
98,680,4.3418,-33.5997,-0.00946237,0.0821781,0.00315948,0.0822869,-0.00957117,1.53637,0.0583108,0.0473729,1322,344,4.34181,33.5997
105,680,3.91992,-33.6309,0,0,0,0,0,0,0,-1,1329,344,3.91996,33.6309
112,680,3.37524,-32.6441,0,0,0,0,0,0,0,-1,1336,344,3.37525,32.6441
119,680,3.44006,-32.8516,0,0,0,0,0,0,0,-1,1343,344,3.44008,32.8516
126,680,3.30908,-32.7177,0,0,0,0,0,0,0,-1,1350,344,3.30908,32.7177
133,680,3.35425,-32.4813,-0.00729773,0.0831362,-0.00737546,0.0837338,-0.0078953,-1.48995,0.0586317,0.0476809,1357,344,3.35421,32.4813
140,680,3.85229,-32.3988,-0.0067069,0.0836987,-0.00907781,0.0846013,-0.00760941,-1.4717,0.0591008,0.0499691,1364,344,3.85227,32.3988
147,680,3.72131,-32.3774,0,0,0,0,0,0,0,-1,1371,344,3.7213,32.3774
154,680,3.76416,-31.875,0,0,0,0,0,0,0,-1,1378,344,3.7642,31.875
161,680,3.46411,-30.1965,0,0,0,0,0,0,0,-1,1385,344,3.46411,30.1965
168,680,29.4142,-2.51651,0,0,0,0,0,0,0,-1,1392,344,29.4142,2.51652
175,680,6.66541,0.942078,0,0,0,0,0,0,0,-1,1399,344,6.66538,-0.942088
182,680,6.52917,0.532379,0,0,0,0,0,0,0,-1,1406,344,6.52922,-0.532385
189,680,7.55884,4.77695,0,0,0,0,0,0,0,-1,1413,344,7.55886,-4.77694
196,680,6.55627,3.35254,0,0,0,0,0,0,0,-1,1420,344,6.55622,-3.35255
203,680,5.7334,1.90753,0,0,0,0,0,0,0,-1,1427,344,5.73341,-1.90754
210,680,5.27515,0.493622,0,0,0,0,0,0,0,-1,1434,344,5.27514,-0.493632
217,680,6.56384,-0.374176,0,0,0,0,0,0,0,-1,1441,344,6.56379,0.374176
224,680,3.9491,-0.640228,0,0,0,0,0,0,0,-1,1448,344,3.94908,0.64024
231,680,4.24866,-1.96881,0,0,0,0,0,0,0,-1,1455,344,4.2486,1.96882
238,680,4.29333,-3.23984,0,0,0,0,0,0,0,-1,1462,344,4.29332,3.23984
245,680,2.44397,0.985382,0,0,0,0,0,0,0,-1,1469,344,2.44402,-0.985394
252,680,3.07349,2.18951,0,0,0,0,0,0,0,-1,1476,344,3.0735,-2.18952
259,680,2.82971,1.30682,0,0,0,0,0,0,0,-1,1483,344,2.82972,-1.30684
266,680,2.67554,1.44067,0,0,0,0,0,0,0,-1,1490,344,2.67551,-1.44066
273,680,2.46411,1.54666,0,0,0,0,0,0,0,-1,1497,344,2.46407,-1.54666
280,680,0,0,0,0,0,0,0,0,0,-1,1504,344,0,0
287,680,0,0,0,0,0,0,0,0,0,-1,1511,344,0,0
294,680,0,0,0,0,0,0,0,0,0,-1,1518,344,0,0
301,680,0,0,0,0,0,0,0,0,0,-1,1525,344,0,0
308,680,0,0,0,0,0,0,0,0,0,-1,1532,344,0,0
315,680,0,0,0,0,0,0,0,0,0,-1,1539,344,0,0
322,680,0,0,0,0,0,0,0,0,0,-1,1546,344,0,0
329,680,0,0,0,0,0,0,0,0,0,-1,1553,344,0,0
336,680,0,0,0,0,0,0,0,0,0,-1,1560,344,0,0
343,680,0,0,0,0,0,0,0,0,0,-1,1567,344,0,0
350,680,0,0,0,0,0,0,0,0,0,-1,1574,344,0,0
357,680,0,0,0,0,0,0,0,0,0,-1,1581,344,0,0
364,680,0,0,0,0,0,0,0,0,0,-1,1588,344,0,0
371,680,0,0,0,0,0,0,0,0,0,-1,1595,344,0,0
378,680,0,0,0,0,0,0,0,0,0,-1,1602,344,0,0
385,680,0,0,0,0,0,0,0,0,0,-1,1609,344,0,0
392,680,0,0,0,0,0,0,0,0,0,-1,1616,344,0,0
399,680,0,0,0,0,0,0,0,0,0,-1,1623,344,0,0
406,680,0,0,0,0,0,0,0,0,0,-1,1630,344,0,0
413,680,0,0,0,0,0,0,0,0,0,-1,1637,344,0,0
420,680,0,0,0,0,0,0,0,0,0,-1,1644,344,0,0
427,680,0,0,0,0,0,0,0,0,0,-1,1651,344,0,0
434,680,0,0,0,0,0,0,0,0,0,-1,1658,344,0,0
441,680,0,0,0,0,0,0,0,0,0,-1,1665,344,0,0
448,680,0,0,0,0,0,0,0,0,0,-1,1672,344,0,0
455,680,0,0,0,0,0,0,0,0,0,-1,1679,344,0,0
462,680,0,0,0,0,0,0,0,0,0,-1,1686,344,0,0
469,680,0,0,0,0,0,0,0,0,0,-1,1693,344,0,0
476,680,0,0,0,0,0,0,0,0,0,-1,1700,344,0,0
483,680,0,0,0,0,0,0,0,0,0,-1,1707,344,0,0
490,680,0,0,0,0,0,0,0,0,0,-1,1714,344,0,0
497,680,0,0,0,0,0,0,0,0,0,-1,1721,344,0,0
504,680,0,0,0,0,0,0,0,0,0,-1,1728,344,0,0
511,680,0,0,0,0,0,0,0,0,0,-1,1735,344,0,0
518,680,0,0,0,0,0,0,0,0,0,-1,1742,344,0,0
525,680,0,0,0,0,0,0,0,0,0,-1,1749,344,0,0
532,680,0,0,0,0,0,0,0,0,0,-1,1756,344,0,0
539,680,0,0,0,0,0,0,0,0,0,-1,1763,344,0,0
546,680,0,0,0,0,0,0,0,0,0,-1,1770,344,0,0
553,680,0,0,0,0,0,0,0,0,0,-1,1777,344,0,0
560,680,0,0,0,0,0,0,0,0,0,-1,1784,344,0,0
567,680,0,0,0,0,0,0,0,0,0,-1,1791,344,0,0
574,680,0,0,0,0,0,0,0,0,0,-1,1798,344,0,0
581,680,0,0,0,0,0,0,0,0,0,-1,1805,344,0,0
588,680,0,0,0,0,0,0,0,0,0,-1,1812,344,0,0
595,680,0,0,0,0,0,0,0,0,0,-1,1819,344,0,0
602,680,0,0,0,0,0,0,0,0,0,-1,1826,344,0,0
609,680,0,0,0,0,0,0,0,0,0,-1,1833,344,0,0
616,680,0,0,0,0,0,0,0,0,0,-1,1840,344,0,0
623,680,0,0,0,0,0,0,0,0,0,-1,1847,344,0,0
630,680,0,0,0,0,0,0,0,0,0,-1,1854,344,0,0
637,680,0,0,0,0,0,0,0,0,0,-1,1861,344,0,0
644,680,0,0,0,0,0,0,0,0,0,-1,1868,344,0,0
651,680,0,0,0,0,0,0,0,0,0,-1,1875,344,0,0
658,680,0,0,0,0,0,0,0,0,0,-1,1882,344,0,0
665,680,0,0,0,0,0,0,0,0,0,-1,1889,344,0,0
672,680,0,0,0,0,0,0,0,0,0,-1,1896,344,0,0
679,680,0,0,0,0,0,0,0,0,0,-1,1903,344,0,0
686,680,0,0,0,0,0,0,0,0,0,-1,1910,344,0,0
693,680,0,0,0,0,0,0,0,0,0,-1,1917,344,0,0
700,680,0,0,0,0,0,0,0,0,0,-1,1924,344,0,0
707,680,0,0,0,0,0,0,0,0,0,-1,1931,344,0,0
714,680,0,0,0,0,0,0,0,0,0,-1,1938,344,0,0
721,680,0,0,0,0,0,0,0,0,0,-1,1945,344,0,0
728,680,0,0,0,0,0,0,0,0,0,-1,1952,344,0,0
735,680,0,0,0,0,0,0,0,0,0,-1,1959,344,0,0
742,680,0,0,0,0,0,0,0,0,0,-1,1966,344,0,0
749,680,0,0,0,0,0,0,0,0,0,-1,1973,344,0,0
756,680,0,0,0,0,0,0,0,0,0,-1,1980,344,0,0
763,680,0,0,0,0,0,0,0,0,0,-1,1987,344,0,0
770,680,0,0,0,0,0,0,0,0,0,-1,1994,344,0,0
777,680,0,0,0,0,0,0,0,0,0,-1,2001,344,0,0
784,680,0,0,0,0,0,0,0,0,0,-1,2008,344,0,0
791,680,0,0,0,0,0,0,0,0,0,-1,2015,344,0,0
798,680,0,0,0,0,0,0,0,0,0,-1,2022,344,0,0
805,680,0,0,0,0,0,0,0,0,0,-1,2029,344,0,0
812,680,0,0,0,0,0,0,0,0,0,-1,2036,344,0,0
-700,673,0,0,0,0,0,0,0,0,0,-1,524,351,0,0
-693,673,0,0,0,0,0,0,0,0,0,-1,531,351,0,0
-686,673,0,0,0,0,0,0,0,0,0,-1,538,351,0,0
-679,673,0,0,0,0,0,0,0,0,0,-1,545,351,0,0
-672,673,0,0,0,0,0,0,0,0,0,-1,552,351,0,0
-665,673,0,0,0,0,0,0,0,0,0,-1,559,351,0,0
-658,673,0,0,0,0,0,0,0,0,0,-1,566,351,0,0
-651,673,0,0,0,0,0,0,0,0,0,-1,573,351,0,0
-644,673,0,0,0,0,0,0,0,0,0,-1,580,351,0,0
-637,673,0,0,0,0,0,0,0,0,0,-1,587,351,0,0
-630,673,0,0,0,0,0,0,0,0,0,-1,594,351,0,0
-623,673,0,0,0,0,0,0,0,0,0,-1,601,351,0,0
-616,673,0,0,0,0,0,0,0,0,0,-1,608,351,0,0
-609,673,0,0,0,0,0,0,0,0,0,-1,615,351,0,0
-602,673,0,0,0,0,0,0,0,0,0,-1,622,351,0,0
-595,673,0,0,0,0,0,0,0,0,0,-1,629,351,0,0
-588,673,0,0,0,0,0,0,0,0,0,-1,636,351,0,0
-581,673,0,0,0,0,0,0,0,0,0,-1,643,351,0,0
-574,673,0,0,0,0,0,0,0,0,0,-1,650,351,0,0
-567,673,0,0,0,0,0,0,0,0,0,-1,657,351,0,0
-560,673,0,0,0,0,0,0,0,0,0,-1,664,351,0,0
-553,673,0,0,0,0,0,0,0,0,0,-1,671,351,0,0
-546,673,0,0,0,0,0,0,0,0,0,-1,678,351,0,0
-539,673,0,0,0,0,0,0,0,0,0,-1,685,351,0,0
-532,673,0,0,0,0,0,0,0,0,0,-1,692,351,0,0
-525,673,0,0,0,0,0,0,0,0,0,-1,699,351,0,0
-518,673,0,0,0,0,0,0,0,0,0,-1,706,351,0,0
-511,673,0,0,0,0,0,0,0,0,0,-1,713,351,0,0
-504,673,0,0,0,0,0,0,0,0,0,-1,720,351,0,0
-497,673,0,0,0,0,0,0,0,0,0,-1,727,351,0,0
-490,673,0,0,0,0,0,0,0,0,0,-1,734,351,0,0
-483,673,0,0,0,0,0,0,0,0,0,-1,741,351,0,0
-476,673,0,0,0,0,0,0,0,0,0,-1,748,351,0,0
-469,673,0,0,0,0,0,0,0,0,0,-1,755,351,0,0
-462,673,0,0,0,0,0,0,0,0,0,-1,762,351,0,0
-455,673,0,0,0,0,0,0,0,0,0,-1,769,351,0,0
-448,673,0,0,0,0,0,0,0,0,0,-1,776,351,0,0
-441,673,0,0,0,0,0,0,0,0,0,-1,783,351,0,0
-434,673,0,0,0,0,0,0,0,0,0,-1,790,351,0,0
-427,673,0,0,0,0,0,0,0,0,0,-1,797,351,0,0
-420,673,0,0,0,0,0,0,0,0,0,-1,804,351,0,0
-413,673,0,0,0,0,0,0,0,0,0,-1,811,351,0,0
-406,673,0,0,0,0,0,0,0,0,0,-1,818,351,0,0
-399,673,0,0,0,0,0,0,0,0,0,-1,825,351,0,0
-392,673,0,0,0,0,0,0,0,0,0,-1,832,351,0,0
-385,673,0,0,0,0,0,0,0,0,0,-1,839,351,0,0
-378,673,0,0,0,0,0,0,0,0,0,-1,846,351,0,0
-371,673,0,0,0,0,0,0,0,0,0,-1,853,351,0,0
-364,673,0,0,0,0,0,0,0,0,0,-1,860,351,0,0
-357,673,0,0,0,0,0,0,0,0,0,-1,867,351,0,0
-350,673,0,0,0,0,0,0,0,0,0,-1,874,351,0,0
-343,673,0,0,0,0,0,0,0,0,0,-1,881,351,0,0
-336,673,0,0,0,0,0,0,0,0,0,-1,888,351,0,0
-329,673,0,0,0,0,0,0,0,0,0,-1,895,351,0,0
-322,673,0,0,0,0,0,0,0,0,0,-1,902,351,0,0
-315,673,0,0,0,0,0,0,0,0,0,-1,909,351,0,0
-308,673,0,0,0,0,0,0,0,0,0,-1,916,351,0,0
-301,673,0,0,0,0,0,0,0,0,0,-1,923,351,0,0
-294,673,0,0,0,0,0,0,0,0,0,-1,930,351,0,0
-287,673,0,0,0,0,0,0,0,0,0,-1,937,351,0,0
-280,673,0,0,0,0,0,0,0,0,0,-1,944,351,0,0
-273,673,0,0,0,0,0,0,0,0,0,-1,951,351,0,0
-266,673,0,0,0,0,0,0,0,0,0,-1,958,351,0,0
-259,673,0,0,0,0,0,0,0,0,0,-1,965,351,0,0
-252,673,0,0,0,0,0,0,0,0,0,-1,972,351,0,0
-245,673,0,0,0,0,0,0,0,0,0,-1,979,351,0,0
-238,673,0,0,0,0,0,0,0,0,0,-1,986,351,0,0
-231,673,0,0,0,0,0,0,0,0,0,-1,993,351,0,0
-224,673,0,0,0,0,0,0,0,0,0,-1,1000,351,0,0
-217,673,0,0,0,0,0,0,0,0,0,-1,1007,351,0,0
-210,673,0,0,0,0,0,0,0,0,0,-1,1014,351,0,0
-203,673,0,0,0,0,0,0,0,0,0,-1,1021,351,0,0
-196,673,0,0,0,0,0,0,0,0,0,-1,1028,351,0,0
-189,673,0,0,0,0,0,0,0,0,0,-1,1035,351,0,0
-182,673,0,0,0,0,0,0,0,0,0,-1,1042,351,0,0
-175,673,6.34473,-28.0434,0,0,0,0,0,0,0,-1,1049,351,6.34475,28.0434
-168,673,6.16272,-33.0204,0,0,0,0,0,0,0,-1,1056,351,6.16272,33.0204
-161,673,6.08594,-34.3705,0,0,0,0,0,0,0,-1,1063,351,6.08597,34.3705
-154,673,6.15723,-35.5591,0,0,0,0,0,0,0,-1,1070,351,6.15727,35.559
-147,673,5.61096,-30.1121,0,0,0,0,0,0,0,-1,1077,351,5.61101,30.1121
-140,673,5.27502,-30.6811,0,0,0,0,0,0,0,-1,1084,351,5.275,30.681
-133,673,7.41455,-33.7336,0,0,0,0,0,0,0,-1,1091,351,7.41453,33.7336
-126,673,7.28296,-32.9022,-0.0242255,-0.0170022,0.0841755,0.0636391,-0.104867,0.806838,0.0982527,0.0435312,1098,351,7.28294,32.9022
-119,673,6.9917,-31.819,-0.0287256,-0.00840485,0.0874508,0.0694738,-0.106604,0.843231,0.102409,0.0399132,1105,351,6.99174,31.819
-112,673,6.49609,-30.4004,-0.0304188,-0.00190573,0.0903347,0.0752905,-0.107615,0.863662,0.106149,0.0411605,1112,351,6.49606,30.4004
-105,673,6.17139,-28.5951,0,0,0,0,0,0,0,-1,1119,351,6.17133,28.5951
-98,673,14.6038,-34.1646,0,0,0,0,0,0,0,-1,1126,351,14.6038,34.1646
-91,673,8.87854,-29.3053,0,0,0,0,0,0,0,-1,1133,351,8.87848,29.3053
-84,673,3.21765,-23.7196,0,0,0,0,0,0,0,-1,1140,351,3.21768,23.7196
-77,673,-2.745,-17.165,0,0,0,0,0,0,0,-1,1147,351,-2.74502,17.165
-70,673,-8.71216,-10.3058,0,0,0,0,0,0,0,-1,1154,351,-8.71218,10.3058
-63,673,-12.606,-3.97971,0,0,0,0,0,0,0,-1,1161,351,-12.606,3.97969
-56,673,-18.0282,2.79053,0,0,0,0,0,0,0,-1,1168,351,-18.0283,-2.79052
-49,673,-0.926758,-0.115448,0,0,0,0,0,0,0,-1,1175,351,-0.926732,0.115444
-42,673,-1.15015,0.289917,0,0,0,0,0,0,0,-1,1182,351,-1.15017,-0.289932
-35,673,-0.919556,-1.00711,0,0,0,0,0,0,0,-1,1189,351,-0.919514,1.00711
-28,673,3.19104,-25.0986,0,0,0,0,0,0,0,-1,1196,351,3.19099,25.0986
-21,673,5.21094,-33.0018,0,0,0,0,0,0,0,-1,1203,351,5.21097,33.0018
-14,673,4.99951,-33.1584,-0.0017675,0.00110769,-0.0016513,0.00185949,-0.0025193,-1.14356,0.00253765,0.0441005,1210,351,4.99947,33.1584
-7,673,4.91846,-33.5107,-0.0017765,0.00248629,-0.00164797,0.00304908,-0.00233929,-1.24171,0.00311996,0.0392464,1217,351,4.91843,33.5107
0,673,4.87463,-33.7665,-0.00155469,0.00483183,-0.00231335,0.00558172,-0.00230458,-1.25732,0.00468237,0.0422006,1224,351,4.87469,33.7665
7,673,4.94043,-33.664,-0.00149505,0.00879614,-0.00208221,0.00920147,-0.00190038,-1.37854,0.00685613,0.0470376,1231,351,4.94043,33.664
14,673,5.03015,-33.4498,-0.00144368,0.0138576,-0.00142203,0.0139886,-0.00157472,-1.47891,0.00989252,0.0396641,1238,351,5.03013,33.4498
21,673,4.76001,-33.6484,-0.00159928,0.0197859,-0.000488441,0.0197971,-0.00161043,-1.54797,0.0137663,0.0279984,1245,351,4.76,33.6484
28,673,4.75183,-33.7411,-0.00196496,0.0261126,0.00053021,0.0261226,-0.00197497,1.55192,0.0181093,0.0203211,1252,351,4.75178,33.7411
35,673,4.73767,-33.7466,-0.00226321,0.0320062,0.00146443,0.0320687,-0.00232567,1.52817,0.022195,0.0304314,1259,351,4.73773,33.7466
42,673,4.5592,-33.7697,-0.00275532,0.0386644,0.00256172,0.0388222,-0.00291316,1.50926,0.0269051,0.0325407,1266,351,4.55926,33.7697
49,673,4.48511,-33.8009,-0.00365161,0.0451208,0.00353298,0.0453754,-0.00390621,1.49886,0.0316328,0.0198412,1273,351,4.48511,33.8009
56,673,4.45593,-33.7867,-0.0046589,0.0511823,0.00446852,0.0515376,-0.00501422,1.49145,0.0361459,0.0168679,1280,351,4.45593,33.7867
63,673,4.49231,-33.6656,-0.0054928,0.056234,0.00499669,0.0566358,-0.00589466,1.49054,0.0398676,0.0203205,1287,351,4.49235,33.6656
70,673,4.39746,-33.6106,-0.00620808,0.0594269,0.00540058,0.0598683,-0.00664948,1.48925,0.0423033,0.0322436,1294,351,4.39752,33.6106
77,673,4.37964,-33.3862,-0.00698467,0.0623921,0.0054634,0.0628197,-0.00741228,1.49269,0.0445565,0.0399498,1301,351,4.37963,33.3862
84,673,4.33459,-33.6163,-0.00762623,0.0640487,0.00498112,0.0643933,-0.00797074,1.50174,0.0458174,0.0446145,1308,351,4.33457,33.6163
91,673,4.45117,-33.8807,-0.00789662,0.0655006,0.00396836,0.0657145,-0.00811055,1.51694,0.0467483,0.0478124,1315,351,4.45115,33.8807
98,673,4.24524,-33.8011,-0.00795847,0.0664791,0.00240301,0.0665566,-0.00803596,1.53856,0.0472779,0.0476582,1322,351,4.24528,33.8011
105,673,3.90332,-33.5379,-0.0078768,0.0667647,0.00132523,0.0667882,-0.00790032,1.55305,0.047379,0.0452406,1329,351,3.90327,33.5379
112,673,3.82581,-33.4036,0,0,0,0,0,0,0,-1,1336,351,3.82583,33.4036
119,673,4.1554,-32.7391,0,0,0,0,0,0,0,-1,1343,351,4.15538,32.7391
126,673,3.59668,-32.9782,-0.00637745,0.0660206,-0.00356401,0.0661956,-0.00655248,-1.52173,0.0464688,0.0445342,1350,351,3.59665,32.9782
133,673,3.71277,-32.7462,-0.00566717,0.0658726,-0.00486693,0.0662022,-0.00599675,-1.50318,0.0462634,0.0457247,1357,351,3.71281,32.7462
140,673,3.85779,-32.7671,-0.00510278,0.0659349,-0.00587578,0.0664177,-0.00558551,-1.48883,0.0462528,0.0446717,1364,351,3.85784,32.7671
147,673,3.78406,-32.6841,-0.00476913,0.0658584,-0.0068999,0.0665262,-0.00543689,-1.47432,0.0462697,0.0415029,1371,351,3.78401,32.6841
154,673,3.74622,-32.2765,-0.00478698,0.0664866,-0.00775658,0.067321,-0.00562135,-1.46364,0.046867,0.0412517,1378,351,3.74625,32.2765
161,673,3.71118,-31.9248,0,0,0,0,0,0,0,-1,1385,351,3.7112,31.9248
168,673,6.87061,1.83954,0,0,0,0,0,0,0,-1,1392,351,6.87063,-1.83953
175,673,6.6228,1.1459,0,0,0,0,0,0,0,-1,1399,351,6.62276,-1.14591
182,673,6.37244,0.796112,0,0,0,0,0,0,0,-1,1406,351,6.3724,-0.796102
189,673,6.12097,0.265472,0,0,0,0,0,0,0,-1,1413,351,6.121,-0.265482
196,673,6.02173,3.12717,0,0,0,0,0,0,0,-1,1420,351,6.02176,-3.12717
203,673,5.04456,1.6351,0,0,0,0,0,0,0,-1,1427,351,5.04455,-1.63509
210,673,4.79224,0.447479,0,0,0,0,0,0,0,-1,1434,351,4.79229,-0.447469
217,673,2.01648,0.972687,0,0,0,0,0,0,0,-1,1441,351,2.01644,-0.972691
224,673,2.3689,-1.80539,0,0,0,0,0,0,0,-1,1448,351,2.36896,1.80539
231,673,2.65857,-2.18497,0,0,0,0,0,0,0,-1,1455,351,2.65852,2.18496
238,673,3.77844,-2.06088,0,0,0,0,0,0,0,-1,1462,351,3.77839,2.06088
245,673,3.5376,-0.190399,0,0,0,0,0,0,0,-1,1469,351,3.53759,0.1904
252,673,3.80518,0.55603,0,0,0,0,0,0,0,-1,1476,351,3.80519,-0.556022
259,673,3.88562,1.29617,0,0,0,0,0,0,0,-1,1483,351,3.88562,-1.29618
266,673,4.22424,2.04834,0,0,0,0,0,0,0,-1,1490,351,4.22429,-2.04834
273,673,6.07886,0.385895,0,0,0,0,0,0,0,-1,1497,351,6.0789,-0.385906
280,673,6.97534,-0.0820007,0,0,0,0,0,0,0,-1,1504,351,6.97536,0.0820122
287,673,7.66968,-0.348541,0,0,0,0,0,0,0,-1,1511,351,7.66969,0.348534
294,673,8.20996,0.28537,0,0,0,0,0,0,0,-1,1518,351,8.20993,-0.28536
301,673,0,0,0,0,0,0,0,0,0,-1,1525,351,0,0
308,673,0,0,0,0,0,0,0,0,0,-1,1532,351,0,0
315,673,0,0,0,0,0,0,0,0,0,-1,1539,351,0,0
322,673,0,0,0,0,0,0,0,0,0,-1,1546,351,0,0
329,673,0,0,0,0,0,0,0,0,0,-1,1553,351,0,0
336,673,0,0,0,0,0,0,0,0,0,-1,1560,351,0,0
343,673,0,0,0,0,0,0,0,0,0,-1,1567,351,0,0
350,673,0,0,0,0,0,0,0,0,0,-1,1574,351,0,0
357,673,0,0,0,0,0,0,0,0,0,-1,1581,351,0,0
364,673,0,0,0,0,0,0,0,0,0,-1,1588,351,0,0
371,673,0,0,0,0,0,0,0,0,0,-1,1595,351,0,0
378,673,0,0,0,0,0,0,0,0,0,-1,1602,351,0,0
385,673,0,0,0,0,0,0,0,0,0,-1,1609,351,0,0
392,673,0,0,0,0,0,0,0,0,0,-1,1616,351,0,0
399,673,0,0,0,0,0,0,0,0,0,-1,1623,351,0,0
406,673,0,0,0,0,0,0,0,0,0,-1,1630,351,0,0
413,673,0,0,0,0,0,0,0,0,0,-1,1637,351,0,0
420,673,0,0,0,0,0,0,0,0,0,-1,1644,351,0,0
427,673,0,0,0,0,0,0,0,0,0,-1,1651,351,0,0
434,673,0,0,0,0,0,0,0,0,0,-1,1658,351,0,0
441,673,0,0,0,0,0,0,0,0,0,-1,1665,351,0,0
448,673,0,0,0,0,0,0,0,0,0,-1,1672,351,0,0
455,673,0,0,0,0,0,0,0,0,0,-1,1679,351,0,0
462,673,0,0,0,0,0,0,0,0,0,-1,1686,351,0,0
469,673,0,0,0,0,0,0,0,0,0,-1,1693,351,0,0
476,673,0,0,0,0,0,0,0,0,0,-1,1700,351,0,0
483,673,0,0,0,0,0,0,0,0,0,-1,1707,351,0,0
490,673,0,0,0,0,0,0,0,0,0,-1,1714,351,0,0
497,673,0,0,0,0,0,0,0,0,0,-1,1721,351,0,0
504,673,0,0,0,0,0,0,0,0,0,-1,1728,351,0,0
511,673,0,0,0,0,0,0,0,0,0,-1,1735,351,0,0
518,673,0,0,0,0,0,0,0,0,0,-1,1742,351,0,0
525,673,0,0,0,0,0,0,0,0,0,-1,1749,351,0,0
532,673,0,0,0,0,0,0,0,0,0,-1,1756,351,0,0
539,673,0,0,0,0,0,0,0,0,0,-1,1763,351,0,0
546,673,0,0,0,0,0,0,0,0,0,-1,1770,351,0,0
553,673,0,0,0,0,0,0,0,0,0,-1,1777,351,0,0
560,673,0,0,0,0,0,0,0,0,0,-1,1784,351,0,0
567,673,0,0,0,0,0,0,0,0,0,-1,1791,351,0,0
574,673,0,0,0,0,0,0,0,0,0,-1,1798,351,0,0
581,673,0,0,0,0,0,0,0,0,0,-1,1805,351,0,0
588,673,0,0,0,0,0,0,0,0,0,-1,1812,351,0,0
595,673,0,0,0,0,0,0,0,0,0,-1,1819,351,0,0
602,673,0,0,0,0,0,0,0,0,0,-1,1826,351,0,0
609,673,0,0,0,0,0,0,0,0,0,-1,1833,351,0,0
616,673,0,0,0,0,0,0,0,0,0,-1,1840,351,0,0
623,673,0,0,0,0,0,0,0,0,0,-1,1847,351,0,0
630,673,0,0,0,0,0,0,0,0,0,-1,1854,351,0,0
637,673,0,0,0,0,0,0,0,0,0,-1,1861,351,0,0
644,673,0,0,0,0,0,0,0,0,0,-1,1868,351,0,0
651,673,0,0,0,0,0,0,0,0,0,-1,1875,351,0,0
658,673,0,0,0,0,0,0,0,0,0,-1,1882,351,0,0
665,673,0,0,0,0,0,0,0,0,0,-1,1889,351,0,0
672,673,0,0,0,0,0,0,0,0,0,-1,1896,351,0,0
679,673,0,0,0,0,0,0,0,0,0,-1,1903,351,0,0
686,673,0,0,0,0,0,0,0,0,0,-1,1910,351,0,0
693,673,0,0,0,0,0,0,0,0,0,-1,1917,351,0,0
700,673,0,0,0,0,0,0,0,0,0,-1,1924,351,0,0
707,673,0,0,0,0,0,0,0,0,0,-1,1931,351,0,0
714,673,0,0,0,0,0,0,0,0,0,-1,1938,351,0,0
721,673,0,0,0,0,0,0,0,0,0,-1,1945,351,0,0
728,673,0,0,0,0,0,0,0,0,0,-1,1952,351,0,0
735,673,0,0,0,0,0,0,0,0,0,-1,1959,351,0,0
742,673,0,0,0,0,0,0,0,0,0,-1,1966,351,0,0
749,673,0,0,0,0,0,0,0,0,0,-1,1973,351,0,0
756,673,0,0,0,0,0,0,0,0,0,-1,1980,351,0,0
763,673,0,0,0,0,0,0,0,0,0,-1,1987,351,0,0
770,673,0,0,0,0,0,0,0,0,0,-1,1994,351,0,0
777,673,0,0,0,0,0,0,0,0,0,-1,2001,351,0,0
784,673,0,0,0,0,0,0,0,0,0,-1,2008,351,0,0
791,673,0,0,0,0,0,0,0,0,0,-1,2015,351,0,0
798,673,0,0,0,0,0,0,0,0,0,-1,2022,351,0,0
805,673,0,0,0,0,0,0,0,0,0,-1,2029,351,0,0
812,673,0,0,0,0,0,0,0,0,0,-1,2036,351,0,0
-700,666,0,0,0,0,0,0,0,0,0,-1,524,358,0,0
-693,666,0,0,0,0,0,0,0,0,0,-1,531,358,0,0
-686,666,0,0,0,0,0,0,0,0,0,-1,538,358,0,0
-679,666,0,0,0,0,0,0,0,0,0,-1,545,358,0,0
-672,666,0,0,0,0,0,0,0,0,0,-1,552,358,0,0
-665,666,0,0,0,0,0,0,0,0,0,-1,559,358,0,0
-658,666,0,0,0,0,0,0,0,0,0,-1,566,358,0,0
-651,666,0,0,0,0,0,0,0,0,0,-1,573,358,0,0
-644,666,0,0,0,0,0,0,0,0,0,-1,580,358,0,0
-637,666,0,0,0,0,0,0,0,0,0,-1,587,358,0,0
-630,666,0,0,0,0,0,0,0,0,0,-1,594,358,0,0
-623,666,0,0,0,0,0,0,0,0,0,-1,601,358,0,0
-616,666,0,0,0,0,0,0,0,0,0,-1,608,358,0,0
-609,666,0,0,0,0,0,0,0,0,0,-1,615,358,0,0
-602,666,0,0,0,0,0,0,0,0,0,-1,622,358,0,0
-595,666,0,0,0,0,0,0,0,0,0,-1,629,358,0,0
-588,666,0,0,0,0,0,0,0,0,0,-1,636,358,0,0
-581,666,0,0,0,0,0,0,0,0,0,-1,643,358,0,0
-574,666,0,0,0,0,0,0,0,0,0,-1,650,358,0,0
-567,666,0,0,0,0,0,0,0,0,0,-1,657,358,0,0
-560,666,0,0,0,0,0,0,0,0,0,-1,664,358,0,0
-553,666,0,0,0,0,0,0,0,0,0,-1,671,358,0,0
-546,666,0,0,0,0,0,0,0,0,0,-1,678,358,0,0
-539,666,0,0,0,0,0,0,0,0,0,-1,685,358,0,0
-532,666,0,0,0,0,0,0,0,0,0,-1,692,358,0,0
-525,666,0,0,0,0,0,0,0,0,0,-1,699,358,0,0
-518,666,0,0,0,0,0,0,0,0,0,-1,706,358,0,0
-511,666,0,0,0,0,0,0,0,0,0,-1,713,358,0,0
-504,666,0,0,0,0,0,0,0,0,0,-1,720,358,0,0
-497,666,0,0,0,0,0,0,0,0,0,-1,727,358,0,0
-490,666,0,0,0,0,0,0,0,0,0,-1,734,358,0,0
-483,666,0,0,0,0,0,0,0,0,0,-1,741,358,0,0
-476,666,0,0,0,0,0,0,0,0,0,-1,748,358,0,0
-469,666,0,0,0,0,0,0,0,0,0,-1,755,358,0,0
-462,666,0,0,0,0,0,0,0,0,0,-1,762,358,0,0
-455,666,0,0,0,0,0,0,0,0,0,-1,769,358,0,0
-448,666,0,0,0,0,0,0,0,0,0,-1,776,358,0,0
-441,666,0,0,0,0,0,0,0,0,0,-1,783,358,0,0
-434,666,0,0,0,0,0,0,0,0,0,-1,790,358,0,0
-427,666,0,0,0,0,0,0,0,0,0,-1,797,358,0,0
-420,666,0,0,0,0,0,0,0,0,0,-1,804,358,0,0
-413,666,0,0,0,0,0,0,0,0,0,-1,811,358,0,0
-406,666,0,0,0,0,0,0,0,0,0,-1,818,358,0,0
-399,666,0,0,0,0,0,0,0,0,0,-1,825,358,0,0
-392,666,0,0,0,0,0,0,0,0,0,-1,832,358,0,0
-385,666,0,0,0,0,0,0,0,0,0,-1,839,358,0,0
-378,666,0,0,0,0,0,0,0,0,0,-1,846,358,0,0
-371,666,0,0,0,0,0,0,0,0,0,-1,853,358,0,0
-364,666,0,0,0,0,0,0,0,0,0,-1,860,358,0,0
-357,666,0,0,0,0,0,0,0,0,0,-1,867,358,0,0
-350,666,0,0,0,0,0,0,0,0,0,-1,874,358,0,0
-343,666,0,0,0,0,0,0,0,0,0,-1,881,358,0,0
-336,666,0,0,0,0,0,0,0,0,0,-1,888,358,0,0
-329,666,0,0,0,0,0,0,0,0,0,-1,895,358,0,0
-322,666,0,0,0,0,0,0,0,0,0,-1,902,358,0,0
-315,666,0,0,0,0,0,0,0,0,0,-1,909,358,0,0
-308,666,0,0,0,0,0,0,0,0,0,-1,916,358,0,0
-301,666,0,0,0,0,0,0,0,0,0,-1,923,358,0,0
-294,666,0,0,0,0,0,0,0,0,0,-1,930,358,0,0
-287,666,0,0,0,0,0,0,0,0,0,-1,937,358,0,0
-280,666,0,0,0,0,0,0,0,0,0,-1,944,358,0,0
-273,666,0,0,0,0,0,0,0,0,0,-1,951,358,0,0
-266,666,0,0,0,0,0,0,0,0,0,-1,958,358,0,0
-259,666,0,0,0,0,0,0,0,0,0,-1,965,358,0,0
-252,666,0,0,0,0,0,0,0,0,0,-1,972,358,0,0
-245,666,0,0,0,0,0,0,0,0,0,-1,979,358,0,0
-238,666,0,0,0,0,0,0,0,0,0,-1,986,358,0,0
-231,666,0,0,0,0,0,0,0,0,0,-1,993,358,0,0
-224,666,0,0,0,0,0,0,0,0,0,-1,1000,358,0,0
-217,666,0,0,0,0,0,0,0,0,0,-1,1007,358,0,0
-210,666,0,0,0,0,0,0,0,0,0,-1,1014,358,0,0
-203,666,0,0,0,0,0,0,0,0,0,-1,1021,358,0,0
-196,666,6.83093,-24.8537,0,0,0,0,0,0,0,-1,1028,358,6.8309,24.8537
-189,666,2.49304,-29.547,0,0,0,0,0,0,0,-1,1035,358,2.49303,29.547
-182,666,3.29309,-29.3553,0,0,0,0,0,0,0,-1,1042,358,3.29311,29.3553
-175,666,5.65308,-30.8897,0,0,0,0,0,0,0,-1,1049,358,5.65305,30.8898
-168,666,5.81433,-32.1994,0.0485419,-0.0992194,0.0121174,0.049529,-0.100206,0.0812828,0.0880848,0.0462927,1056,358,5.81439,32.1994
-161,666,5.88184,-33.5089,0,0,0,0,0,0,0,-1,1063,358,5.88187,33.5089
-154,666,6.10388,-29.8963,0,0,0,0,0,0,0,-1,1070,358,6.10384,29.8963
-147,666,5.3595,-29.8341,0,0,0,0,0,0,0,-1,1077,358,5.35944,29.8341
-140,666,4.9519,-29.9517,0,0,0,0,0,0,0,-1,1084,358,4.95186,29.9517
-133,666,5.04895,-29.9466,0,0,0,0,0,0,0,-1,1091,358,5.04899,29.9466
-126,666,6.77283,-31.7958,0,0,0,0,0,0,0,-1,1098,358,6.77277,31.7958
-119,666,5.6377,-30.9148,0,0,0,0,0,0,0,-1,1105,358,5.63775,30.9148
-112,666,6.13318,-30.696,0,0,0,0,0,0,0,-1,1112,358,6.13319,30.696
-105,666,6.30908,-29.0855,0,0,0,0,0,0,0,-1,1119,358,6.30905,29.0855
-98,666,3.5968,-23.5447,0,0,0,0,0,0,0,-1,1126,358,3.59686,23.5447
-91,666,9.5127,-25.1347,0,0,0,0,0,0,0,-1,1133,358,9.51269,25.1347
-84,666,4.03943,-19.3453,0,0,0,0,0,0,0,-1,1140,358,4.03941,19.3453
-77,666,-1.9137,-12.9077,0,0,0,0,0,0,0,-1,1147,358,-1.91368,12.9077
-70,666,-6.32251,-7.67145,0,0,0,0,0,0,0,-1,1154,358,-6.3225,7.67145
-63,666,-11.7778,-0.975189,0,0,0,0,0,0,0,-1,1161,358,-11.7778,0.97519
-56,666,0.424683,-2.04132,0,0,0,0,0,0,0,-1,1168,358,0.424665,2.04132
-49,666,0.754395,-2.23169,0,0,0,0,0,0,0,-1,1175,358,0.754383,2.23169
-42,666,1.34473,-3.53897,0,0,0,0,0,0,0,-1,1182,358,1.34476,3.53896
-35,666,4.7782,-33.2741,0,0,0,0,0,0,0,-1,1189,358,4.77819,33.2741
-28,666,4.96094,-33.2587,0,0,0,0,0,0,0,-1,1196,358,4.96093,33.2587
-21,666,5.01184,-33.2377,-0.00312047,0.00215699,-0.00106809,0.00236496,-0.00332845,-1.37849,0.00330274,0.0344651,1203,358,5.01189,33.2377
-14,666,4.88953,-33.3729,-0.00285487,0.00302768,-0.00117618,0.00325413,-0.00308132,-1.38059,0.00365823,0.0292105,1210,358,4.88958,33.3729
-7,666,4.80066,-33.5319,-0.00274993,0.00397406,-0.00116712,0.00417088,-0.00294675,-1.40373,0.00412958,0.0188356,1217,358,4.80071,33.5319
0,666,4.80688,-33.6737,-0.00249627,0.00552966,-0.00151846,0.00580734,-0.00277394,-1.38993,0.00505653,0.0131239,1224,358,4.80688,33.6737
7,666,4.72827,-33.7173,-0.00232932,0.00836587,-0.00128199,0.00851739,-0.00248084,-1.45315,0.00666102,0.0176677,1231,358,4.72829,33.7173
14,666,4.67078,-33.7414,-0.00218341,0.0120339,-0.000772785,0.0120758,-0.00222529,-1.51665,0.00888567,0.0172428,1238,358,4.6708,33.7414
21,666,4.62817,-33.8619,-0.00220184,0.0164364,-7.16431e-05,0.0164367,-0.00220211,-1.56695,0.0117608,0.0129488,1245,358,4.62818,33.8619
28,666,4.60217,-33.9561,-0.00235687,0.0212364,0.000661543,0.0212549,-0.0023754,1.54279,0.0150245,0.0139819,1252,358,4.6022,33.9561
35,666,4.61194,-33.9408,-0.00245636,0.0256799,0.0013086,0.0257406,-0.00251709,1.52442,0.018058,0.0134215,1259,358,4.61199,33.9408
42,666,4.54663,-33.9669,-0.0027339,0.0307762,0.0020895,0.030906,-0.00286369,1.50876,0.0216219,0.0136614,1266,358,4.54661,33.9669
49,666,4.4624,-33.9908,-0.00336709,0.0357723,0.00275952,0.0359659,-0.00356069,1.50075,0.025248,0.0118879,1273,358,4.46239,33.9908
56,666,4.43689,-34.0119,-0.00409128,0.0404212,0.00339706,0.0406789,-0.00434905,1.49506,0.0286791,0.0140845,1280,358,4.43691,34.0119
63,666,4.4082,-34.0572,-0.0046737,0.0443406,0.00373316,0.0446233,-0.0049564,1.49521,0.0315311,0.0162596,1287,358,4.40817,34.0572
70,666,4.38196,-34.0334,-0.00521373,0.0468554,0.00398667,0.0471588,-0.0055172,1.49482,0.0334304,0.0164804,1294,358,4.3819,34.0335
77,666,4.32715,-33.9447,-0.00579983,0.0491904,0.00401115,0.0494814,-0.00609087,1.49836,0.035194,0.0207238,1301,358,4.32714,33.9447
84,666,4.29236,-33.9607,-0.00624463,0.050493,0.00363394,0.0507248,-0.00647643,1.5071,0.0361692,0.0277169,1308,358,4.29236,33.9607
91,666,4.25159,-33.9527,-0.00640546,0.0515807,0.00290251,0.0517256,-0.00655039,1.52091,0.0368617,0.0242372,1315,358,4.25161,33.9527
98,666,4.14124,-33.8765,-0.00642976,0.0522485,0.00182702,0.0523053,-0.00648659,1.5397,0.0372213,0.0193067,1322,358,4.14125,33.8765
105,666,4.05884,-33.7531,-0.00630624,0.0523929,0.00110152,0.0524135,-0.0063269,1.55204,0.037231,0.0213406,1329,358,4.05884,33.753
112,666,4.10266,-33.4835,-0.00594069,0.0520506,-3.94641e-05,0.0520506,-0.00594072,-1.57012,0.0368407,0.0455234,1336,358,4.10269,33.4835
119,666,4.08276,-33.2731,-0.00549532,0.0517249,-0.00115815,0.0517483,-0.00551875,-1.55057,0.0364779,0.0483832,1343,358,4.08272,33.2731
126,666,3.94238,-33.2148,-0.00492191,0.0512093,-0.0021508,0.0512916,-0.0050042,-1.53255,0.0359786,0.0289603,1350,358,3.94242,33.2148
133,666,3.8866,-33.1544,-0.00431241,0.0507885,-0.00293173,0.0509441,-0.00446796,-1.51779,0.0355458,0.0259708,1357,358,3.88665,33.1544
140,666,3.86426,-33.1626,-0.00383115,0.0505191,-0.00344386,0.0507365,-0.00404849,-1.50777,0.0352514,0.0239663,1364,358,3.86425,33.1626
147,666,3.73364,-32.9958,-0.00349414,0.049883,-0.00396907,0.0501765,-0.00378766,-1.49698,0.0347824,0.0218724,1371,358,3.73363,32.9958
154,666,3.74512,-32.6763,-0.00335778,0.0496595,-0.00433912,0.0500122,-0.00371056,-1.48967,0.0346447,0.0202509,1378,358,3.7451,32.6763
161,666,3.79236,-32.4864,-0.00342914,0.049495,-0.00474546,0.0499172,-0.00385127,-1.48207,0.0346333,0.0276615,1385,358,3.79234,32.4863
168,666,3.77295,-32.2981,0,0,0,0,0,0,0,-1,1392,358,3.77297,32.2981
175,666,3.82971,-32.4636,0,0,0,0,0,0,0,-1,1399,358,3.82969,32.4636
182,666,2.60876,-5.17068,0,0,0,0,0,0,0,-1,1406,358,2.6088,5.17068
189,666,2.46973,-5.49979,0,0,0,0,0,0,0,-1,1413,358,2.46975,5.49979
196,666,2.32458,-5.23651,0,0,0,0,0,0,0,-1,1420,358,2.32461,5.23653
203,666,2.28064,-3.88004,0,0,0,0,0,0,0,-1,1427,358,2.28059,3.88003
210,666,3.02576,-5.83548,0,0,0,0,0,0,0,-1,1434,358,3.02581,5.83547
217,666,2.30444,-5.36011,0,0,0,0,0,0,0,-1,1441,358,2.30447,5.3601
224,666,1.82324,-6.03101,0,0,0,0,0,0,0,-1,1448,358,1.82322,6.031
231,666,2.29797,-10.1093,0,0,0,0,0,0,0,-1,1455,358,2.29801,10.1093
238,666,2.52429,-6.10568,0,0,0,0,0,0,0,-1,1462,358,2.52423,6.10567
245,666,4.53345,-1.38205,0,0,0,0,0,0,0,-1,1469,358,4.53349,1.38204
252,666,4.77405,-0.246979,0,0,0,0,0,0,0,-1,1476,358,4.77405,0.246993
259,666,4.83655,1.14087,0,0,0,0,0,0,0,-1,1483,358,4.83652,-1.14087
266,666,6.14148,0.749512,0,0,0,0,0,0,0,-1,1490,358,6.14144,-0.749519
273,666,2.61304,-1.53772,0,0,0,0,0,0,0,-1,1497,358,2.613,1.53773
280,666,8.70898,-0.836975,0,0,0,0,0,0,0,-1,1504,358,8.70894,0.836988
287,666,-7.06934,-20.3464,0,0,0,0,0,0,0,-1,1511,358,-7.06933,20.3464
294,666,-7.85376,-22.0297,0,0,0,0,0,0,0,-1,1518,358,-7.85378,22.0297
301,666,-6.78711,-23.9803,0,0,0,0,0,0,0,-1,1525,358,-6.78706,23.9803
308,666,1.08496,-1.87576,0,0,0,0,0,0,0,-1,1532,358,1.08491,1.87575
315,666,1.76294,-0.284027,0,0,0,0,0,0,0,-1,1539,358,1.76291,0.284016
322,666,0,0,0,0,0,0,0,0,0,-1,1546,358,0,0
329,666,0,0,0,0,0,0,0,0,0,-1,1553,358,0,0
336,666,0,0,0,0,0,0,0,0,0,-1,1560,358,0,0
343,666,0,0,0,0,0,0,0,0,0,-1,1567,358,0,0
350,666,0,0,0,0,0,0,0,0,0,-1,1574,358,0,0
357,666,0,0,0,0,0,0,0,0,0,-1,1581,358,0,0
364,666,0,0,0,0,0,0,0,0,0,-1,1588,358,0,0
371,666,0,0,0,0,0,0,0,0,0,-1,1595,358,0,0
378,666,0,0,0,0,0,0,0,0,0,-1,1602,358,0,0
385,666,0,0,0,0,0,0,0,0,0,-1,1609,358,0,0
392,666,0,0,0,0,0,0,0,0,0,-1,1616,358,0,0
399,666,0,0,0,0,0,0,0,0,0,-1,1623,358,0,0
406,666,0,0,0,0,0,0,0,0,0,-1,1630,358,0,0
413,666,0,0,0,0,0,0,0,0,0,-1,1637,358,0,0
420,666,0,0,0,0,0,0,0,0,0,-1,1644,358,0,0
427,666,0,0,0,0,0,0,0,0,0,-1,1651,358,0,0
434,666,0,0,0,0,0,0,0,0,0,-1,1658,358,0,0
441,666,0,0,0,0,0,0,0,0,0,-1,1665,358,0,0
448,666,0,0,0,0,0,0,0,0,0,-1,1672,358,0,0
455,666,0,0,0,0,0,0,0,0,0,-1,1679,358,0,0
462,666,0,0,0,0,0,0,0,0,0,-1,1686,358,0,0
469,666,0,0,0,0,0,0,0,0,0,-1,1693,358,0,0
476,666,0,0,0,0,0,0,0,0,0,-1,1700,358,0,0
483,666,0,0,0,0,0,0,0,0,0,-1,1707,358,0,0
490,666,0,0,0,0,0,0,0,0,0,-1,1714,358,0,0
497,666,0,0,0,0,0,0,0,0,0,-1,1721,358,0,0
504,666,0,0,0,0,0,0,0,0,0,-1,1728,358,0,0
511,666,0,0,0,0,0,0,0,0,0,-1,1735,358,0,0
518,666,0,0,0,0,0,0,0,0,0,-1,1742,358,0,0
525,666,0,0,0,0,0,0,0,0,0,-1,1749,358,0,0
532,666,0,0,0,0,0,0,0,0,0,-1,1756,358,0,0
539,666,0,0,0,0,0,0,0,0,0,-1,1763,358,0,0
546,666,0,0,0,0,0,0,0,0,0,-1,1770,358,0,0
553,666,0,0,0,0,0,0,0,0,0,-1,1777,358,0,0
560,666,0,0,0,0,0,0,0,0,0,-1,1784,358,0,0
567,666,0,0,0,0,0,0,0,0,0,-1,1791,358,0,0
574,666,0,0,0,0,0,0,0,0,0,-1,1798,358,0,0
581,666,0,0,0,0,0,0,0,0,0,-1,1805,358,0,0
588,666,0,0,0,0,0,0,0,0,0,-1,1812,358,0,0
595,666,0,0,0,0,0,0,0,0,0,-1,1819,358,0,0
602,666,0,0,0,0,0,0,0,0,0,-1,1826,358,0,0
609,666,0,0,0,0,0,0,0,0,0,-1,1833,358,0,0
616,666,0,0,0,0,0,0,0,0,0,-1,1840,358,0,0
623,666,0,0,0,0,0,0,0,0,0,-1,1847,358,0,0
630,666,0,0,0,0,0,0,0,0,0,-1,1854,358,0,0
637,666,0,0,0,0,0,0,0,0,0,-1,1861,358,0,0
644,666,0,0,0,0,0,0,0,0,0,-1,1868,358,0,0
651,666,0,0,0,0,0,0,0,0,0,-1,1875,358,0,0
658,666,0,0,0,0,0,0,0,0,0,-1,1882,358,0,0
665,666,0,0,0,0,0,0,0,0,0,-1,1889,358,0,0
672,666,0,0,0,0,0,0,0,0,0,-1,1896,358,0,0
679,666,0,0,0,0,0,0,0,0,0,-1,1903,358,0,0
686,666,0,0,0,0,0,0,0,0,0,-1,1910,358,0,0
693,666,0,0,0,0,0,0,0,0,0,-1,1917,358,0,0
700,666,0,0,0,0,0,0,0,0,0,-1,1924,358,0,0
707,666,0,0,0,0,0,0,0,0,0,-1,1931,358,0,0
714,666,0,0,0,0,0,0,0,0,0,-1,1938,358,0,0
721,666,0,0,0,0,0,0,0,0,0,-1,1945,358,0,0
728,666,0,0,0,0,0,0,0,0,0,-1,1952,358,0,0
735,666,0,0,0,0,0,0,0,0,0,-1,1959,358,0,0
742,666,0,0,0,0,0,0,0,0,0,-1,1966,358,0,0
749,666,0,0,0,0,0,0,0,0,0,-1,1973,358,0,0
756,666,0,0,0,0,0,0,0,0,0,-1,1980,358,0,0
763,666,0,0,0,0,0,0,0,0,0,-1,1987,358,0,0
770,666,0,0,0,0,0,0,0,0,0,-1,1994,358,0,0
777,666,0,0,0,0,0,0,0,0,0,-1,2001,358,0,0
784,666,0,0,0,0,0,0,0,0,0,-1,2008,358,0,0
791,666,0,0,0,0,0,0,0,0,0,-1,2015,358,0,0
798,666,0,0,0,0,0,0,0,0,0,-1,2022,358,0,0
805,666,0,0,0,0,0,0,0,0,0,-1,2029,358,0,0
812,666,0,0,0,0,0,0,0,0,0,-1,2036,358,0,0
-700,659,0,0,0,0,0,0,0,0,0,-1,524,365,0,0
-693,659,0,0,0,0,0,0,0,0,0,-1,531,365,0,0
-686,659,0,0,0,0,0,0,0,0,0,-1,538,365,0,0
-679,659,0,0,0,0,0,0,0,0,0,-1,545,365,0,0
-672,659,0,0,0,0,0,0,0,0,0,-1,552,365,0,0
-665,659,0,0,0,0,0,0,0,0,0,-1,559,365,0,0
-658,659,0,0,0,0,0,0,0,0,0,-1,566,365,0,0
-651,659,0,0,0,0,0,0,0,0,0,-1,573,365,0,0
-644,659,0,0,0,0,0,0,0,0,0,-1,580,365,0,0
-637,659,0,0,0,0,0,0,0,0,0,-1,587,365,0,0
-630,659,0,0,0,0,0,0,0,0,0,-1,594,365,0,0
-623,659,0,0,0,0,0,0,0,0,0,-1,601,365,0,0
-616,659,0,0,0,0,0,0,0,0,0,-1,608,365,0,0
-609,659,0,0,0,0,0,0,0,0,0,-1,615,365,0,0
-602,659,0,0,0,0,0,0,0,0,0,-1,622,365,0,0
-595,659,0,0,0,0,0,0,0,0,0,-1,629,365,0,0
-588,659,0,0,0,0,0,0,0,0,0,-1,636,365,0,0
-581,659,0,0,0,0,0,0,0,0,0,-1,643,365,0,0
-574,659,0,0,0,0,0,0,0,0,0,-1,650,365,0,0
-567,659,0,0,0,0,0,0,0,0,0,-1,657,365,0,0
-560,659,0,0,0,0,0,0,0,0,0,-1,664,365,0,0
-553,659,0,0,0,0,0,0,0,0,0,-1,671,365,0,0
-546,659,0,0,0,0,0,0,0,0,0,-1,678,365,0,0
-539,659,0,0,0,0,0,0,0,0,0,-1,685,365,0,0
-532,659,0,0,0,0,0,0,0,0,0,-1,692,365,0,0
-525,659,0,0,0,0,0,0,0,0,0,-1,699,365,0,0
-518,659,0,0,0,0,0,0,0,0,0,-1,706,365,0,0
-511,659,0,0,0,0,0,0,0,0,0,-1,713,365,0,0
-504,659,0,0,0,0,0,0,0,0,0,-1,720,365,0,0
-497,659,0,0,0,0,0,0,0,0,0,-1,727,365,0,0
-490,659,0,0,0,0,0,0,0,0,0,-1,734,365,0,0
-483,659,0,0,0,0,0,0,0,0,0,-1,741,365,0,0
-476,659,0,0,0,0,0,0,0,0,0,-1,748,365,0,0
-469,659,0,0,0,0,0,0,0,0,0,-1,755,365,0,0
-462,659,0,0,0,0,0,0,0,0,0,-1,762,365,0,0
-455,659,0,0,0,0,0,0,0,0,0,-1,769,365,0,0
-448,659,0,0,0,0,0,0,0,0,0,-1,776,365,0,0
-441,659,0,0,0,0,0,0,0,0,0,-1,783,365,0,0
-434,659,0,0,0,0,0,0,0,0,0,-1,790,365,0,0
-427,659,0,0,0,0,0,0,0,0,0,-1,797,365,0,0
-420,659,0,0,0,0,0,0,0,0,0,-1,804,365,0,0
-413,659,0,0,0,0,0,0,0,0,0,-1,811,365,0,0
-406,659,0,0,0,0,0,0,0,0,0,-1,818,365,0,0
-399,659,0,0,0,0,0,0,0,0,0,-1,825,365,0,0
-392,659,0,0,0,0,0,0,0,0,0,-1,832,365,0,0
-385,659,0,0,0,0,0,0,0,0,0,-1,839,365,0,0
-378,659,0,0,0,0,0,0,0,0,0,-1,846,365,0,0
-371,659,0,0,0,0,0,0,0,0,0,-1,853,365,0,0
-364,659,0,0,0,0,0,0,0,0,0,-1,860,365,0,0
-357,659,0,0,0,0,0,0,0,0,0,-1,867,365,0,0
-350,659,0,0,0,0,0,0,0,0,0,-1,874,365,0,0
-343,659,0,0,0,0,0,0,0,0,0,-1,881,365,0,0
-336,659,0,0,0,0,0,0,0,0,0,-1,888,365,0,0
-329,659,0,0,0,0,0,0,0,0,0,-1,895,365,0,0
-322,659,0,0,0,0,0,0,0,0,0,-1,902,365,0,0
-315,659,0,0,0,0,0,0,0,0,0,-1,909,365,0,0
-308,659,0,0,0,0,0,0,0,0,0,-1,916,365,0,0
-301,659,0,0,0,0,0,0,0,0,0,-1,923,365,0,0
-294,659,0,0,0,0,0,0,0,0,0,-1,930,365,0,0
-287,659,0,0,0,0,0,0,0,0,0,-1,937,365,0,0
-280,659,0,0,0,0,0,0,0,0,0,-1,944,365,0,0
-273,659,0,0,0,0,0,0,0,0,0,-1,951,365,0,0
-266,659,0,0,0,0,0,0,0,0,0,-1,958,365,0,0
-259,659,0,0,0,0,0,0,0,0,0,-1,965,365,0,0
-252,659,0,0,0,0,0,0,0,0,0,-1,972,365,0,0
-245,659,0,0,0,0,0,0,0,0,0,-1,979,365,0,0
-238,659,0,0,0,0,0,0,0,0,0,-1,986,365,0,0
-231,659,0,0,0,0,0,0,0,0,0,-1,993,365,0,0
-224,659,0,0,0,0,0,0,0,0,0,-1,1000,365,0,0
-217,659,1.58905,-25.7653,0,0,0,0,0,0,0,-1,1007,365,1.58908,25.7652
-210,659,2.664,-25.0039,0,0,0,0,0,0,0,-1,1014,365,2.664,25.0039
-203,659,3.64746,-23.8298,0,0,0,0,0,0,0,-1,1021,365,3.64742,23.8298
-196,659,4.5022,-23.0318,0,0,0,0,0,0,0,-1,1028,365,4.50215,23.0318
-189,659,2.1991,-28.1487,0,0,0,0,0,0,0,-1,1035,365,2.19914,28.1487
-182,659,3.38599,-28.3467,0,0,0,0,0,0,0,-1,1042,365,3.38601,28.3467
-175,659,5.03369,-30.021,0,0,0,0,0,0,0,-1,1049,365,5.03368,30.021
-168,659,5.68091,-31.2214,0,0,0,0,0,0,0,-1,1056,365,5.68087,31.2214
-161,659,5.53784,-29.6205,0,0,0,0,0,0,0,-1,1063,365,5.5379,29.6205
-154,659,5.87268,-29.36,0,0,0,0,0,0,0,-1,1070,365,5.87273,29.36
-147,659,5.98877,-29.2803,0,0,0,0,0,0,0,-1,1077,365,5.98877,29.2803
-140,659,3.98083,-28.1931,0,0,0,0,0,0,0,-1,1084,365,3.98081,28.1931
-133,659,3.87488,-29.336,0,0,0,0,0,0,0,-1,1091,365,3.87486,29.336
-126,659,5.25452,-30.1438,0,0,0,0,0,0,0,-1,1098,365,5.25454,30.1438
-119,659,5.38574,-30.6846,-0.013747,-0.00341436,0.0413696,0.0331102,-0.0502716,0.847517,0.0484792,0.0418022,1105,365,5.38573,30.6846
-112,659,5.5199,-30.7758,-0.0152192,0.00209069,0.0426331,0.0369385,-0.050067,0.885542,0.0504229,0.0447745,1112,365,5.51988,30.7759
-105,659,5.36084,-30.0963,0,0,0,0,0,0,0,-1,1119,365,5.36081,30.0963
-98,659,4.68042,-26.2438,0,0,0,0,0,0,0,-1,1126,365,4.68041,26.2438
-91,659,4.20776,-20.8654,0,0,0,0,0,0,0,-1,1133,365,4.20777,20.8654
-84,659,2.8584,-17.8303,0,0,0,0,0,0,0,-1,1140,365,2.85836,17.8303
-77,659,2.80139,-15.3457,0,0,0,0,0,0,0,-1,1147,365,2.80139,15.3457
-70,659,2.9353,-12.7028,0,0,0,0,0,0,0,-1,1154,365,2.93533,12.7028
-63,659,2.11267,-9.7796,0,0,0,0,0,0,0,-1,1161,365,2.11266,9.7796
-56,659,2.11182,-9.91541,0,0,0,0,0,0,0,-1,1168,365,2.11178,9.91541
-49,659,4.93481,-32.7703,0,0,0,0,0,0,0,-1,1175,365,4.9348,32.7703
-42,659,4.92432,-32.9669,0,0,0,0,0,0,0,-1,1182,365,4.92429,32.967
-35,659,4.86328,-33.1817,-0.00415964,0.00322001,-0.000860051,0.00331891,-0.00425855,-1.4563,0.00438605,0.0424187,1189,365,4.8633,33.1817
-28,659,4.88525,-33.2586,-0.00384851,0.00292747,-0.000709758,0.00300101,-0.00392205,-1.46754,0.00400881,0.015613,1196,365,4.88528,33.2586
-21,659,4.83789,-33.4058,-0.00336811,0.00338,-0.000749372,0.00346222,-0.00345033,-1.46152,0.00399096,0.012368,1203,365,4.83788,33.4058
-14,659,4.76758,-33.5602,-0.00305905,0.00391986,-0.000806473,0.00401184,-0.00315103,-1.45723,0.00414543,0.0103445,1210,365,4.76759,33.5602
-7,659,4.72888,-33.6756,-0.00287401,0.00447484,-0.000786258,0.00455802,-0.00295719,-1.4654,0.00437159,0.00982891,1217,365,4.72893,33.6756
0,659,4.71948,-33.7632,-0.00259933,0.00540273,-0.000960092,0.00551631,-0.00271291,-1.45304,0.00484217,0.00896503,1224,365,4.71945,33.7632
7,659,4.68335,-33.8345,-0.0023695,0.0073104,-0.000764313,0.00737038,-0.00242948,-1.49248,0.00589279,0.00876176,1231,365,4.68331,33.8345
14,659,4.61926,-33.8921,-0.00217784,0.00982754,-0.000392313,0.00984034,-0.00219065,-1.53816,0.00739934,0.0109169,1238,365,4.61928,33.8921
21,659,4.58423,-33.9633,-0.00212012,0.0129454,0.000114323,0.0129462,-0.00212098,1.56321,0.00941776,0.0117325,1245,365,4.5842,33.9633
28,659,4.5509,-34.041,-0.00214386,0.0164212,0.000622115,0.016442,-0.00216468,1.53734,0.0117496,0.0113374,1252,365,4.55084,34.041
35,659,4.55469,-34.0811,-0.00212401,0.019636,0.00105313,0.0196868,-0.00217486,1.52255,0.0139063,0.0117762,1259,365,4.55463,34.0811
42,659,4.52502,-34.1141,-0.00225767,0.0233818,0.00159839,0.023481,-0.00235693,1.50878,0.0164959,0.0119641,1266,365,4.52505,34.1141
49,659,4.45581,-34.1319,-0.00269057,0.0271127,0.00204738,0.0272527,-0.00283056,1.50253,0.0191817,0.011932,1273,365,4.45583,34.1319
56,659,4.40991,-34.1253,-0.00319834,0.0305656,0.00246131,0.0307441,-0.00337682,1.49841,0.0217094,0.0154825,1280,365,4.40985,34.1253
63,659,4.40381,-34.1392,-0.00359827,0.0335165,0.00266589,0.033707,-0.00378878,1.49946,0.0238349,0.0163946,1287,365,4.40378,34.1392
70,659,4.35889,-34.1313,-0.00400085,0.0354467,0.00281608,0.0356467,-0.00420087,1.49989,0.0252813,0.0172199,1294,365,4.35891,34.1313
77,659,4.30872,-34.0993,-0.00443447,0.0372354,0.00281095,0.0374242,-0.00462324,1.50374,0.0266247,0.0182406,1301,365,4.30877,34.0993
84,659,4.29468,-34.0984,-0.00474728,0.0382426,0.00251452,0.0383891,-0.00489386,1.51257,0.0273703,0.0136208,1308,365,4.29471,34.0984
91,659,4.2478,-34.0461,-0.00486236,0.0390442,0.00199041,0.0391343,-0.0049524,1.52559,0.0278873,0.0117501,1315,365,4.24777,34.0461
98,659,4.2063,-33.9647,-0.00489079,0.0394898,0.00127335,0.0395263,-0.00492729,1.54214,0.0281375,0.00809187,1322,365,4.20635,33.9647
105,659,4.18457,-33.8626,-0.00477212,0.0395543,0.000808586,0.0395691,-0.00478686,1.55256,0.0281112,0.00863983,1329,365,4.18455,33.8626
112,659,4.15808,-33.761,-0.00446257,0.0392197,6.97559e-05,0.0392198,-0.00446268,1.5692,0.027754,0.0128105,1336,365,4.15806,33.7611
119,659,4.10999,-33.6364,-0.00408068,0.0388244,-0.000632853,0.0388338,-0.00409001,-1.55605,0.0273546,0.0146636,1343,365,4.11001,33.6364
126,659,4.06628,-33.5087,-0.00360976,0.0382687,-0.00122546,0.0383046,-0.00364559,-1.54157,0.0268342,0.0128999,1350,365,4.06634,33.5087
133,659,4.02551,-33.4016,-0.00312938,0.0377581,-0.00162798,0.0378228,-0.00319409,-1.53106,0.0263445,0.0119845,1357,365,4.02547,33.4015
140,659,3.98242,-33.2864,-0.00275715,0.0373741,-0.00179748,0.0374545,-0.0028375,-1.52613,0.0259672,0.00928172,1364,365,3.98247,33.2864
147,659,3.94763,-33.1458,-0.00246699,0.0365744,-0.00197261,0.0366738,-0.0025664,-1.52044,0.025348,0.00853418,1371,365,3.94763,33.1458
154,659,3.90198,-32.9679,-0.0022862,0.0360245,-0.00202392,0.0361312,-0.00239282,-1.51816,0.0249234,0.00988385,1378,365,3.90202,32.9679
161,659,3.87354,-32.7784,-0.00227403,0.03549,-0.00213113,0.0356099,-0.00239391,-1.5146,0.0245768,0.0111843,1385,365,3.87351,32.7784
168,659,3.85376,-32.589,-0.00260583,0.034593,-0.00199733,0.0346999,-0.00271276,-1.51731,0.0240885,0.017734,1392,365,3.85375,32.589
175,659,3.83691,-32.4142,-0.0034269,0.032755,-0.00213256,0.0328803,-0.00355216,-1.51213,0.0231951,0.0411421,1399,365,3.83697,32.4142
182,659,3.68677,-32.2898,0,0,0,0,0,0,0,-1,1406,365,3.68682,32.2898
189,659,3.73425,-31.9258,0,0,0,0,0,0,0,-1,1413,365,3.73424,31.9258
196,659,2.41248,-13.4371,0,0,0,0,0,0,0,-1,1420,365,2.41243,13.4371
203,659,2.38623,-12.2163,0,0,0,0,0,0,0,-1,1427,365,2.38617,12.2163
210,659,2.20789,-13.9792,0,0,0,0,0,0,0,-1,1434,365,2.20794,13.9792
217,659,2.24121,-13.487,0,0,0,0,0,0,0,-1,1441,365,2.24116,13.487
224,659,2.3479,-15.2926,0,0,0,0,0,0,0,-1,1448,365,2.34793,15.2926
231,659,2.47974,-17.8629,0,0,0,0,0,0,0,-1,1455,365,2.47976,17.8628
238,659,3.57886,-21.1258,0,0,0,0,0,0,0,-1,1462,365,3.57889,21.1258
245,659,3.29883,-25.0283,0,0,0,0,0,0,0,-1,1469,365,3.29889,25.0283
252,659,2.81909,-24.1604,0,0,0,0,0,0,0,-1,1476,365,2.81905,24.1604
259,659,2.33069,-3.36703,0,0,0,0,0,0,0,-1,1483,365,2.33073,3.36702
266,659,1.72681,-17.183,0,0,0,0,0,0,0,-1,1490,365,1.72683,17.183
273,659,2.86487,-28.3759,0,0,0,0,0,0,0,-1,1497,365,2.86482,28.3759
280,659,-6.90784,-17.1906,0,0,0,0,0,0,0,-1,1504,365,-6.90789,17.1906
287,659,-6.03333,-19.2684,0,0,0,0,0,0,0,-1,1511,365,-6.03339,19.2684
294,659,-5.25952,-20.9666,0,0,0,0,0,0,0,-1,1518,365,-5.25957,20.9666
301,659,-4.52319,-22.5462,0,0,0,0,0,0,0,-1,1525,365,-4.52316,22.5462
308,659,-3.6543,-24.1383,0,0,0,0,0,0,0,-1,1532,365,-3.65433,24.1383
315,659,2.17102,-2.98474,0,0,0,0,0,0,0,-1,1539,365,2.171,2.98473
322,659,0.382813,-2.2424,0,0,0,0,0,0,0,-1,1546,365,0.382801,2.2424
329,659,0.604004,-1.75998,0,0,0,0,0,0,0,-1,1553,365,0.603966,1.75998
336,659,4.55933,-25.2647,0,0,0,0,0,0,0,-1,1560,365,4.55935,25.2647
343,659,0,0,0,0,0,0,0,0,0,-1,1567,365,0,0
350,659,0,0,0,0,0,0,0,0,0,-1,1574,365,0,0
357,659,0,0,0,0,0,0,0,0,0,-1,1581,365,0,0
364,659,0,0,0,0,0,0,0,0,0,-1,1588,365,0,0
371,659,0,0,0,0,0,0,0,0,0,-1,1595,365,0,0
378,659,0,0,0,0,0,0,0,0,0,-1,1602,365,0,0
385,659,0,0,0,0,0,0,0,0,0,-1,1609,365,0,0
392,659,0,0,0,0,0,0,0,0,0,-1,1616,365,0,0
399,659,0,0,0,0,0,0,0,0,0,-1,1623,365,0,0
406,659,0,0,0,0,0,0,0,0,0,-1,1630,365,0,0
413,659,0,0,0,0,0,0,0,0,0,-1,1637,365,0,0
420,659,0,0,0,0,0,0,0,0,0,-1,1644,365,0,0
427,659,0,0,0,0,0,0,0,0,0,-1,1651,365,0,0
434,659,0,0,0,0,0,0,0,0,0,-1,1658,365,0,0
441,659,0,0,0,0,0,0,0,0,0,-1,1665,365,0,0
448,659,0,0,0,0,0,0,0,0,0,-1,1672,365,0,0
455,659,0,0,0,0,0,0,0,0,0,-1,1679,365,0,0
462,659,0,0,0,0,0,0,0,0,0,-1,1686,365,0,0
469,659,0,0,0,0,0,0,0,0,0,-1,1693,365,0,0
476,659,0,0,0,0,0,0,0,0,0,-1,1700,365,0,0
483,659,0,0,0,0,0,0,0,0,0,-1,1707,365,0,0
490,659,0,0,0,0,0,0,0,0,0,-1,1714,365,0,0
497,659,0,0,0,0,0,0,0,0,0,-1,1721,365,0,0
504,659,0,0,0,0,0,0,0,0,0,-1,1728,365,0,0
511,659,0,0,0,0,0,0,0,0,0,-1,1735,365,0,0
518,659,0,0,0,0,0,0,0,0,0,-1,1742,365,0,0
525,659,0,0,0,0,0,0,0,0,0,-1,1749,365,0,0
532,659,0,0,0,0,0,0,0,0,0,-1,1756,365,0,0
539,659,0,0,0,0,0,0,0,0,0,-1,1763,365,0,0
546,659,0,0,0,0,0,0,0,0,0,-1,1770,365,0,0
553,659,0,0,0,0,0,0,0,0,0,-1,1777,365,0,0
560,659,0,0,0,0,0,0,0,0,0,-1,1784,365,0,0
567,659,0,0,0,0,0,0,0,0,0,-1,1791,365,0,0
574,659,0,0,0,0,0,0,0,0,0,-1,1798,365,0,0
581,659,0,0,0,0,0,0,0,0,0,-1,1805,365,0,0
588,659,0,0,0,0,0,0,0,0,0,-1,1812,365,0,0
595,659,0,0,0,0,0,0,0,0,0,-1,1819,365,0,0
602,659,0,0,0,0,0,0,0,0,0,-1,1826,365,0,0
609,659,0,0,0,0,0,0,0,0,0,-1,1833,365,0,0
616,659,0,0,0,0,0,0,0,0,0,-1,1840,365,0,0
623,659,0,0,0,0,0,0,0,0,0,-1,1847,365,0,0
630,659,0,0,0,0,0,0,0,0,0,-1,1854,365,0,0
637,659,0,0,0,0,0,0,0,0,0,-1,1861,365,0,0
644,659,0,0,0,0,0,0,0,0,0,-1,1868,365,0,0
651,659,0,0,0,0,0,0,0,0,0,-1,1875,365,0,0
658,659,0,0,0,0,0,0,0,0,0,-1,1882,365,0,0
665,659,0,0,0,0,0,0,0,0,0,-1,1889,365,0,0
672,659,0,0,0,0,0,0,0,0,0,-1,1896,365,0,0
679,659,0,0,0,0,0,0,0,0,0,-1,1903,365,0,0
686,659,0,0,0,0,0,0,0,0,0,-1,1910,365,0,0
693,659,0,0,0,0,0,0,0,0,0,-1,1917,365,0,0
700,659,0,0,0,0,0,0,0,0,0,-1,1924,365,0,0
707,659,0,0,0,0,0,0,0,0,0,-1,1931,365,0,0
714,659,0,0,0,0,0,0,0,0,0,-1,1938,365,0,0
721,659,0,0,0,0,0,0,0,0,0,-1,1945,365,0,0
728,659,0,0,0,0,0,0,0,0,0,-1,1952,365,0,0
735,659,0,0,0,0,0,0,0,0,0,-1,1959,365,0,0
742,659,0,0,0,0,0,0,0,0,0,-1,1966,365,0,0
749,659,0,0,0,0,0,0,0,0,0,-1,1973,365,0,0
756,659,0,0,0,0,0,0,0,0,0,-1,1980,365,0,0
763,659,0,0,0,0,0,0,0,0,0,-1,1987,365,0,0
770,659,0,0,0,0,0,0,0,0,0,-1,1994,365,0,0
777,659,0,0,0,0,0,0,0,0,0,-1,2001,365,0,0
784,659,0,0,0,0,0,0,0,0,0,-1,2008,365,0,0
791,659,0,0,0,0,0,0,0,0,0,-1,2015,365,0,0
798,659,0,0,0,0,0,0,0,0,0,-1,2022,365,0,0
805,659,0,0,0,0,0,0,0,0,0,-1,2029,365,0,0
812,659,0,0,0,0,0,0,0,0,0,-1,2036,365,0,0
-700,652,0,0,0,0,0,0,0,0,0,-1,524,372,0,0
-693,652,0,0,0,0,0,0,0,0,0,-1,531,372,0,0
-686,652,0,0,0,0,0,0,0,0,0,-1,538,372,0,0
-679,652,0,0,0,0,0,0,0,0,0,-1,545,372,0,0
-672,652,0,0,0,0,0,0,0,0,0,-1,552,372,0,0
-665,652,0,0,0,0,0,0,0,0,0,-1,559,372,0,0
-658,652,0,0,0,0,0,0,0,0,0,-1,566,372,0,0
-651,652,0,0,0,0,0,0,0,0,0,-1,573,372,0,0
-644,652,0,0,0,0,0,0,0,0,0,-1,580,372,0,0
-637,652,0,0,0,0,0,0,0,0,0,-1,587,372,0,0
-630,652,0,0,0,0,0,0,0,0,0,-1,594,372,0,0
-623,652,0,0,0,0,0,0,0,0,0,-1,601,372,0,0
-616,652,0,0,0,0,0,0,0,0,0,-1,608,372,0,0
-609,652,0,0,0,0,0,0,0,0,0,-1,615,372,0,0
-602,652,0,0,0,0,0,0,0,0,0,-1,622,372,0,0
-595,652,0,0,0,0,0,0,0,0,0,-1,629,372,0,0
-588,652,0,0,0,0,0,0,0,0,0,-1,636,372,0,0
-581,652,0,0,0,0,0,0,0,0,0,-1,643,372,0,0
-574,652,0,0,0,0,0,0,0,0,0,-1,650,372,0,0
-567,652,0,0,0,0,0,0,0,0,0,-1,657,372,0,0
-560,652,0,0,0,0,0,0,0,0,0,-1,664,372,0,0
-553,652,0,0,0,0,0,0,0,0,0,-1,671,372,0,0
-546,652,0,0,0,0,0,0,0,0,0,-1,678,372,0,0
-539,652,0,0,0,0,0,0,0,0,0,-1,685,372,0,0
-532,652,0,0,0,0,0,0,0,0,0,-1,692,372,0,0
-525,652,0,0,0,0,0,0,0,0,0,-1,699,372,0,0
-518,652,0,0,0,0,0,0,0,0,0,-1,706,372,0,0
-511,652,0,0,0,0,0,0,0,0,0,-1,713,372,0,0
-504,652,0,0,0,0,0,0,0,0,0,-1,720,372,0,0
-497,652,0,0,0,0,0,0,0,0,0,-1,727,372,0,0
-490,652,0,0,0,0,0,0,0,0,0,-1,734,372,0,0
-483,652,0,0,0,0,0,0,0,0,0,-1,741,372,0,0
-476,652,0,0,0,0,0,0,0,0,0,-1,748,372,0,0
-469,652,0,0,0,0,0,0,0,0,0,-1,755,372,0,0
-462,652,0,0,0,0,0,0,0,0,0,-1,762,372,0,0
-455,652,0,0,0,0,0,0,0,0,0,-1,769,372,0,0
-448,652,0,0,0,0,0,0,0,0,0,-1,776,372,0,0
-441,652,0,0,0,0,0,0,0,0,0,-1,783,372,0,0
-434,652,0,0,0,0,0,0,0,0,0,-1,790,372,0,0
-427,652,0,0,0,0,0,0,0,0,0,-1,797,372,0,0
-420,652,0,0,0,0,0,0,0,0,0,-1,804,372,0,0
-413,652,0,0,0,0,0,0,0,0,0,-1,811,372,0,0
-406,652,0,0,0,0,0,0,0,0,0,-1,818,372,0,0
-399,652,0,0,0,0,0,0,0,0,0,-1,825,372,0,0
-392,652,0,0,0,0,0,0,0,0,0,-1,832,372,0,0
-385,652,0,0,0,0,0,0,0,0,0,-1,839,372,0,0
-378,652,0,0,0,0,0,0,0,0,0,-1,846,372,0,0
-371,652,0,0,0,0,0,0,0,0,0,-1,853,372,0,0
-364,652,0,0,0,0,0,0,0,0,0,-1,860,372,0,0
-357,652,0,0,0,0,0,0,0,0,0,-1,867,372,0,0
-350,652,0,0,0,0,0,0,0,0,0,-1,874,372,0,0
-343,652,0,0,0,0,0,0,0,0,0,-1,881,372,0,0
-336,652,0,0,0,0,0,0,0,0,0,-1,888,372,0,0
-329,652,0,0,0,0,0,0,0,0,0,-1,895,372,0,0
-322,652,0,0,0,0,0,0,0,0,0,-1,902,372,0,0
-315,652,0,0,0,0,0,0,0,0,0,-1,909,372,0,0
-308,652,0,0,0,0,0,0,0,0,0,-1,916,372,0,0
-301,652,0,0,0,0,0,0,0,0,0,-1,923,372,0,0
-294,652,0,0,0,0,0,0,0,0,0,-1,930,372,0,0
-287,652,0,0,0,0,0,0,0,0,0,-1,937,372,0,0
-280,652,0,0,0,0,0,0,0,0,0,-1,944,372,0,0
-273,652,0,0,0,0,0,0,0,0,0,-1,951,372,0,0
-266,652,0,0,0,0,0,0,0,0,0,-1,958,372,0,0
-259,652,0,0,0,0,0,0,0,0,0,-1,965,372,0,0
-252,652,0,0,0,0,0,0,0,0,0,-1,972,372,0,0
-245,652,0,0,0,0,0,0,0,0,0,-1,979,372,0,0
-238,652,0,0,0,0,0,0,0,0,0,-1,986,372,0,0
-231,652,8.68457,-21.315,0,0,0,0,0,0,0,-1,993,372,8.68455,21.315
-224,652,9.47449,-18.002,0,0,0,0,0,0,0,-1,1000,372,9.47449,18.002
-217,652,1.80139,-26.709,0,0,0,0,0,0,0,-1,1007,372,1.80137,26.709
-210,652,2.70807,-25.7509,0,0,0,0,0,0,0,-1,1014,372,2.70809,25.7509
-203,652,3.66467,-24.6504,0,0,0,0,0,0,0,-1,1021,372,3.66463,24.6504
-196,652,4.50012,-23.3835,0,0,0,0,0,0,0,-1,1028,372,4.50007,23.3835
-189,652,2.43188,-26.0271,0,0,0,0,0,0,0,-1,1035,372,2.43189,26.0271
-182,652,3.5741,-27.6166,0,0,0,0,0,0,0,-1,1042,372,3.57413,27.6166
-175,652,4.62622,-28.9196,0.0412052,-0.0641091,-0.00395415,0.0413535,-0.0642574,-0.0374758,0.0614506,0.0440162,1049,372,4.62625,28.9197
-168,652,5.53882,-30.1236,0.0306385,-0.0545148,0.00303708,0.0307467,-0.054623,0.0356057,0.0499266,0.0434675,1056,372,5.53886,30.1236
-161,652,5.29822,-29.2598,0.0216013,-0.0448953,0.00877655,0.0227401,-0.0460342,0.129041,0.040459,0.0475254,1063,372,5.29826,29.2598
-154,652,5.6532,-28.9676,0.0135783,-0.0354188,0.0133174,0.0169641,-0.0388045,0.248958,0.0330108,0.0455326,1070,372,5.65323,28.9676
-147,652,5.44922,-29.3325,0.00665249,-0.0265492,0.0173035,0.0140308,-0.0339275,0.40306,0.0284719,0.0436824,1077,372,5.44918,29.3325
-140,652,5.13672,-29.6042,0,0,0,0,0,0,0,-1,1084,372,5.13669,29.6043
-133,652,5.10474,-29.6243,0,0,0,0,0,0,0,-1,1091,372,5.10472,29.6243
-126,652,5.11633,-29.9516,-0.00596801,-0.00652654,0.0249198,0.0186741,-0.0311687,0.779795,0.0290766,0.0423221,1098,372,5.11628,29.9516
-119,652,5.17517,-30.3829,-0.00917228,-0.00141271,0.0263273,0.0213191,-0.0319041,0.858555,0.0309303,0.0377996,1105,372,5.17523,30.3829
-112,652,5.16785,-30.5715,-0.0103935,0.0032304,0.0270833,0.0243453,-0.0315084,0.908601,0.0323354,0.0347504,1112,372,5.16789,30.5715
-105,652,5.13574,-30.589,-0.0101244,0.00485241,0.0258088,0.0242373,-0.0295092,0.926596,0.0310803,0.0474637,1119,372,5.13571,30.589
-98,652,5.14563,-30.7187,0,0,0,0,0,0,0,-1,1126,372,5.14564,30.7187
-91,652,5.24243,-30.873,0,0,0,0,0,0,0,-1,1133,372,5.24237,30.873
-84,652,5.18213,-31.1378,0,0,0,0,0,0,0,-1,1140,372,5.18218,31.1378
-77,652,4.97498,-31.9112,0,0,0,0,0,0,0,-1,1147,372,4.97499,31.9112
-70,652,4.94312,-32.1793,0,0,0,0,0,0,0,-1,1154,372,4.94317,32.1793
-63,652,4.92224,-32.401,0,0,0,0,0,0,0,-1,1161,372,4.92224,32.401
-56,652,4.85559,-32.6232,0,0,0,0,0,0,0,-1,1168,372,4.8556,32.6232
-49,652,4.87036,-32.8215,-0.00398963,0.00532278,-0.00118063,0.00547013,-0.00413698,-1.44663,0.00556444,0.038017,1175,372,4.8704,32.8215
-42,652,4.79688,-32.9618,-0.00386425,0.00388002,-0.000922032,0.00398828,-0.00397251,-1.45391,0.00459617,0.012378,1182,372,4.79689,32.9618
-35,652,4.77087,-33.1189,-0.00371316,0.00360396,-0.000690508,0.00366855,-0.00377775,-1.47752,0.00429928,0.00978417,1189,372,4.77082,33.1189
-28,652,4.74658,-33.2696,-0.00340423,0.00332901,-0.000536627,0.00337151,-0.00344673,-1.49176,0.00393659,0.00831307,1196,372,4.74656,33.2696
-21,652,4.69702,-33.4305,-0.00294901,0.00351931,-0.000500784,0.00355785,-0.00298755,-1.49399,0.00378376,0.00830922,1203,372,4.697,33.4305
-14,652,4.6698,-33.5736,-0.00261605,0.00371166,-0.00049067,0.00374948,-0.00265387,-1.49387,0.00371497,0.0101826,1210,372,4.66986,33.5736
-7,652,4.6394,-33.7054,-0.00237091,0.00386953,-0.000446298,0.00390128,-0.00240267,-1.49976,0.00367371,0.0128556,1217,372,4.63941,33.7054
0,652,4.61023,-33.8013,-0.00211018,0.00418991,-0.000426804,0.00421869,-0.00213897,-1.50346,0.00373548,0.0129299,1224,372,4.61027,33.8013
7,652,4.59094,-33.8355,-0.00186143,0.00528474,-0.000245506,0.00529316,-0.00186985,-1.5365,0.00429011,0.0134774,1231,372,4.59089,33.8355
14,652,4.57056,-33.9153,-0.00169352,0.00684088,3.48879e-05,0.00684103,-0.00169366,1.56671,0.00521768,0.0115613,1238,372,4.57061,33.9153
21,652,4.53125,-34.0237,-0.0016398,0.00889012,0.000392119,0.0089047,-0.00165438,1.53363,0.00655786,0.010924,1245,372,4.53125,34.0237
28,652,4.50989,-34.1113,-0.00163497,0.0112743,0.000718674,0.0113141,-0.00167486,1.51535,0.00815855,0.0101783,1252,372,4.50985,34.1113
35,652,4.50061,-34.1501,-0.00159776,0.013527,0.000991528,0.0135917,-0.00166248,1.50561,0.00966311,0.0105374,1259,372,4.50059,34.1501
42,652,4.47229,-34.1742,-0.00165257,0.0162003,0.00134309,0.0163008,-0.00175305,1.49613,0.0114962,0.011633,1266,372,4.47224,34.1742
49,652,4.4613,-34.1753,-0.00193916,0.0189329,0.00159038,0.0190533,-0.00205965,1.49518,0.0134415,0.0140083,1273,372,4.46127,34.1753
56,652,4.43213,-34.1563,-0.00228485,0.0214413,0.00178486,0.0215748,-0.00241837,1.49613,0.0152534,0.0152657,1280,372,4.43212,34.1563
63,652,4.39136,-34.1548,-0.0025374,0.0236166,0.0018261,0.0237434,-0.00266429,1.50142,0.0167877,0.0188065,1287,372,4.39138,34.1548
70,652,4.36682,-34.1359,-0.00281856,0.025094,0.00181858,0.0252119,-0.00293655,1.50601,0.0178674,0.017338,1294,372,4.36681,34.1359
77,652,4.2887,-34.1261,-0.00311276,0.0264404,0.00171863,0.0265401,-0.00321237,1.5129,0.0188556,0.0164543,1301,372,4.28867,34.1261
84,652,4.34204,-34.1176,-0.00330014,0.0271979,0.00142613,0.0272644,-0.00336668,1.52417,0.0193961,0.0143864,1308,372,4.34207,34.1176
91,652,4.30518,-34.1122,-0.0033617,0.0277454,0.00100777,0.027778,-0.00339432,1.53844,0.0197476,0.0171861,1315,372,4.30512,34.1122
98,652,4.28467,-34.0322,-0.00337171,0.0279074,0.000536109,0.0279166,-0.0033809,1.55366,0.0198343,0.0131699,1322,372,4.28461,34.0322
105,652,4.27563,-33.9217,-0.00323657,0.0278446,0.000186232,0.0278457,-0.00323768,1.5648,0.0197318,0.0102252,1329,372,4.27559,33.9217
112,652,4.24792,-33.8267,-0.00296627,0.0274316,-0.000269246,0.027434,-0.00296865,-1.56194,0.0193549,0.00912067,1336,372,4.24794,33.8267
119,652,4.20752,-33.6991,-0.00260635,0.0268774,-0.000653257,0.0268919,-0.00262082,-1.54865,0.0188623,0.0101981,1343,372,4.20747,33.6991
126,652,4.16052,-33.5766,-0.00217935,0.0261977,-0.000934364,0.0262285,-0.00221008,-1.53792,0.018267,0.0120003,1350,372,4.16046,33.5766
133,652,4.12512,-33.4549,-0.00176135,0.0255364,-0.00103521,0.0255756,-0.00180055,-1.53295,0.0176812,0.0124955,1357,372,4.12517,33.4549
140,652,4.10889,-33.3243,-0.00143532,0.024999,-0.000949891,0.0250331,-0.00146941,-1.53492,0.0171995,0.00973907,1364,372,4.10894,33.3243
147,652,4.10193,-33.182,-0.00113257,0.0240713,-0.00084885,0.0240998,-0.00116113,-1.53717,0.0164673,0.00953596,1371,372,4.10195,33.182
154,652,4.06287,-33.0147,-0.000861156,0.0233459,-0.000641076,0.0233628,-0.000878122,-1.54434,0.015876,0.00928443,1378,372,4.06281,33.0147
161,652,4.02893,-32.8234,-0.000759728,0.0226954,-0.000483908,0.0227054,-0.000769707,-1.55018,0.0153999,0.00990623,1385,372,4.02893,32.8234
168,652,4.00183,-32.6285,-0.00103601,0.0217369,-0.00014315,0.0217378,-0.00103691,-1.56451,0.0148496,0.0110819,1392,372,4.00177,32.6285
175,652,3.98083,-32.4295,-0.00161425,0.0200029,6.32562e-05,0.0200031,-0.00161444,1.56787,0.0139048,0.0119143,1399,372,3.98078,32.4295
182,652,3.91772,-32.261,-0.00207735,0.0174528,0.000438965,0.0174627,-0.00208721,1.54834,0.0123962,0.0175387,1406,372,3.91773,32.261
189,652,3.90771,-32.0539,-0.00271204,0.0152398,0.00133041,0.0153379,-0.00281011,1.49722,0.0112793,0.0294458,1413,372,3.90774,32.0539
196,652,3.87524,-31.7707,0,0,0,0,0,0,0,-1,1420,372,3.8753,31.7707
203,652,3.86047,-31.5023,0,0,0,0,0,0,0,-1,1427,372,3.86049,31.5023
210,652,3.90649,-31.1844,0,0,0,0,0,0,0,-1,1434,372,3.90648,31.1844
217,652,3.83508,-31.0002,0,0,0,0,0,0,0,-1,1441,372,3.83503,31.0002
224,652,3.63879,-30.8351,0,0,0,0,0,0,0,-1,1448,372,3.63881,30.8351
231,652,3.70862,-30.1151,0,0,0,0,0,0,0,-1,1455,372,3.70857,30.1151
238,652,3.73157,-29.8809,0,0,0,0,0,0,0,-1,1462,372,3.73152,29.8809
245,652,3.64685,-29.73,0,0,0,0,0,0,0,-1,1469,372,3.64687,29.73
252,652,3.74255,-29.4548,0,0,0,0,0,0,0,-1,1476,372,3.74256,29.4548
259,652,3.5481,-28.7882,0,0,0,0,0,0,0,-1,1483,372,3.54807,28.7882
266,652,3.38318,-28.4213,0,0,0,0,0,0,0,-1,1490,372,3.38321,28.4213
273,652,3.43616,-28.3835,0,0,0,0,0,0,0,-1,1497,372,3.43619,28.3835
280,652,3.32764,-28.0776,0,0,0,0,0,0,0,-1,1504,372,3.32758,28.0777
287,652,-4.71191,-19.5709,0,0,0,0,0,0,0,-1,1511,372,-4.71192,19.5709
294,652,-3.52563,-20.1174,0,0,0,0,0,0,0,-1,1518,372,-3.52558,20.1174
301,652,-2.42944,-21.364,0,0,0,0,0,0,0,-1,1525,372,-2.4295,21.364
308,652,-1.33337,-22.6107,0,0,0,0,0,0,0,-1,1532,372,-1.33341,22.6107
315,652,2.32214,-25.9898,0,0,0,0,0,0,0,-1,1539,372,2.32213,25.9898
322,652,1.62671,-24.3525,0,0,0,0,0,0,0,-1,1546,372,1.62673,24.3525
329,652,3.6593,-22.1693,0,0,0,0,0,0,0,-1,1553,372,3.65935,22.1693
336,652,3.52173,-24.2133,0,0,0,0,0,0,0,-1,1560,372,3.52174,24.2133
343,652,4.85767,-24.4762,0,0,0,0,0,0,0,-1,1567,372,4.85772,24.4762
350,652,5.28394,-25.6715,0,0,0,0,0,0,0,-1,1574,372,5.28393,25.6715
357,652,0,0,0,0,0,0,0,0,0,-1,1581,372,0,0
364,652,0,0,0,0,0,0,0,0,0,-1,1588,372,0,0
371,652,0,0,0,0,0,0,0,0,0,-1,1595,372,0,0
378,652,0,0,0,0,0,0,0,0,0,-1,1602,372,0,0
385,652,0,0,0,0,0,0,0,0,0,-1,1609,372,0,0
392,652,0,0,0,0,0,0,0,0,0,-1,1616,372,0,0
399,652,0,0,0,0,0,0,0,0,0,-1,1623,372,0,0
406,652,0,0,0,0,0,0,0,0,0,-1,1630,372,0,0
413,652,0,0,0,0,0,0,0,0,0,-1,1637,372,0,0
420,652,0,0,0,0,0,0,0,0,0,-1,1644,372,0,0
427,652,0,0,0,0,0,0,0,0,0,-1,1651,372,0,0
434,652,0,0,0,0,0,0,0,0,0,-1,1658,372,0,0
441,652,0,0,0,0,0,0,0,0,0,-1,1665,372,0,0
448,652,0,0,0,0,0,0,0,0,0,-1,1672,372,0,0
455,652,0,0,0,0,0,0,0,0,0,-1,1679,372,0,0
462,652,0,0,0,0,0,0,0,0,0,-1,1686,372,0,0
469,652,0,0,0,0,0,0,0,0,0,-1,1693,372,0,0
476,652,0,0,0,0,0,0,0,0,0,-1,1700,372,0,0
483,652,0,0,0,0,0,0,0,0,0,-1,1707,372,0,0
490,652,0,0,0,0,0,0,0,0,0,-1,1714,372,0,0
497,652,0,0,0,0,0,0,0,0,0,-1,1721,372,0,0
504,652,0,0,0,0,0,0,0,0,0,-1,1728,372,0,0
511,652,0,0,0,0,0,0,0,0,0,-1,1735,372,0,0
518,652,0,0,0,0,0,0,0,0,0,-1,1742,372,0,0
525,652,0,0,0,0,0,0,0,0,0,-1,1749,372,0,0
532,652,0,0,0,0,0,0,0,0,0,-1,1756,372,0,0
539,652,0,0,0,0,0,0,0,0,0,-1,1763,372,0,0
546,652,0,0,0,0,0,0,0,0,0,-1,1770,372,0,0
553,652,0,0,0,0,0,0,0,0,0,-1,1777,372,0,0
560,652,0,0,0,0,0,0,0,0,0,-1,1784,372,0,0
567,652,0,0,0,0,0,0,0,0,0,-1,1791,372,0,0
574,652,0,0,0,0,0,0,0,0,0,-1,1798,372,0,0
581,652,0,0,0,0,0,0,0,0,0,-1,1805,372,0,0
588,652,0,0,0,0,0,0,0,0,0,-1,1812,372,0,0
595,652,0,0,0,0,0,0,0,0,0,-1,1819,372,0,0
602,652,0,0,0,0,0,0,0,0,0,-1,1826,372,0,0
609,652,0,0,0,0,0,0,0,0,0,-1,1833,372,0,0
616,652,0,0,0,0,0,0,0,0,0,-1,1840,372,0,0
623,652,0,0,0,0,0,0,0,0,0,-1,1847,372,0,0
630,652,0,0,0,0,0,0,0,0,0,-1,1854,372,0,0
637,652,0,0,0,0,0,0,0,0,0,-1,1861,372,0,0
644,652,0,0,0,0,0,0,0,0,0,-1,1868,372,0,0
651,652,0,0,0,0,0,0,0,0,0,-1,1875,372,0,0
658,652,0,0,0,0,0,0,0,0,0,-1,1882,372,0,0
665,652,0,0,0,0,0,0,0,0,0,-1,1889,372,0,0
672,652,0,0,0,0,0,0,0,0,0,-1,1896,372,0,0
679,652,0,0,0,0,0,0,0,0,0,-1,1903,372,0,0
686,652,0,0,0,0,0,0,0,0,0,-1,1910,372,0,0
693,652,0,0,0,0,0,0,0,0,0,-1,1917,372,0,0
700,652,0,0,0,0,0,0,0,0,0,-1,1924,372,0,0
707,652,0,0,0,0,0,0,0,0,0,-1,1931,372,0,0
714,652,0,0,0,0,0,0,0,0,0,-1,1938,372,0,0
721,652,0,0,0,0,0,0,0,0,0,-1,1945,372,0,0
728,652,0,0,0,0,0,0,0,0,0,-1,1952,372,0,0
735,652,0,0,0,0,0,0,0,0,0,-1,1959,372,0,0
742,652,0,0,0,0,0,0,0,0,0,-1,1966,372,0,0
749,652,0,0,0,0,0,0,0,0,0,-1,1973,372,0,0
756,652,0,0,0,0,0,0,0,0,0,-1,1980,372,0,0
763,652,0,0,0,0,0,0,0,0,0,-1,1987,372,0,0
770,652,0,0,0,0,0,0,0,0,0,-1,1994,372,0,0
777,652,0,0,0,0,0,0,0,0,0,-1,2001,372,0,0
784,652,0,0,0,0,0,0,0,0,0,-1,2008,372,0,0
791,652,0,0,0,0,0,0,0,0,0,-1,2015,372,0,0
798,652,0,0,0,0,0,0,0,0,0,-1,2022,372,0,0
805,652,0,0,0,0,0,0,0,0,0,-1,2029,372,0,0
812,652,0,0,0,0,0,0,0,0,0,-1,2036,372,0,0
-700,645,0,0,0,0,0,0,0,0,0,-1,524,379,0,0
-693,645,0,0,0,0,0,0,0,0,0,-1,531,379,0,0
-686,645,0,0,0,0,0,0,0,0,0,-1,538,379,0,0
-679,645,0,0,0,0,0,0,0,0,0,-1,545,379,0,0
-672,645,0,0,0,0,0,0,0,0,0,-1,552,379,0,0
-665,645,0,0,0,0,0,0,0,0,0,-1,559,379,0,0
-658,645,0,0,0,0,0,0,0,0,0,-1,566,379,0,0
-651,645,0,0,0,0,0,0,0,0,0,-1,573,379,0,0
-644,645,0,0,0,0,0,0,0,0,0,-1,580,379,0,0
-637,645,0,0,0,0,0,0,0,0,0,-1,587,379,0,0
-630,645,0,0,0,0,0,0,0,0,0,-1,594,379,0,0
-623,645,0,0,0,0,0,0,0,0,0,-1,601,379,0,0
-616,645,0,0,0,0,0,0,0,0,0,-1,608,379,0,0
-609,645,0,0,0,0,0,0,0,0,0,-1,615,379,0,0
-602,645,0,0,0,0,0,0,0,0,0,-1,622,379,0,0
-595,645,0,0,0,0,0,0,0,0,0,-1,629,379,0,0
-588,645,0,0,0,0,0,0,0,0,0,-1,636,379,0,0
-581,645,0,0,0,0,0,0,0,0,0,-1,643,379,0,0
-574,645,0,0,0,0,0,0,0,0,0,-1,650,379,0,0
-567,645,0,0,0,0,0,0,0,0,0,-1,657,379,0,0
-560,645,0,0,0,0,0,0,0,0,0,-1,664,379,0,0
-553,645,0,0,0,0,0,0,0,0,0,-1,671,379,0,0
-546,645,0,0,0,0,0,0,0,0,0,-1,678,379,0,0
-539,645,0,0,0,0,0,0,0,0,0,-1,685,379,0,0
-532,645,0,0,0,0,0,0,0,0,0,-1,692,379,0,0
-525,645,0,0,0,0,0,0,0,0,0,-1,699,379,0,0
-518,645,0,0,0,0,0,0,0,0,0,-1,706,379,0,0
-511,645,0,0,0,0,0,0,0,0,0,-1,713,379,0,0
-504,645,0,0,0,0,0,0,0,0,0,-1,720,379,0,0
-497,645,0,0,0,0,0,0,0,0,0,-1,727,379,0,0
-490,645,0,0,0,0,0,0,0,0,0,-1,734,379,0,0
-483,645,0,0,0,0,0,0,0,0,0,-1,741,379,0,0
-476,645,0,0,0,0,0,0,0,0,0,-1,748,379,0,0
-469,645,0,0,0,0,0,0,0,0,0,-1,755,379,0,0
-462,645,0,0,0,0,0,0,0,0,0,-1,762,379,0,0
-455,645,0,0,0,0,0,0,0,0,0,-1,769,379,0,0
-448,645,0,0,0,0,0,0,0,0,0,-1,776,379,0,0
-441,645,0,0,0,0,0,0,0,0,0,-1,783,379,0,0
-434,645,0,0,0,0,0,0,0,0,0,-1,790,379,0,0
-427,645,0,0,0,0,0,0,0,0,0,-1,797,379,0,0
-420,645,0,0,0,0,0,0,0,0,0,-1,804,379,0,0
-413,645,0,0,0,0,0,0,0,0,0,-1,811,379,0,0
-406,645,0,0,0,0,0,0,0,0,0,-1,818,379,0,0
-399,645,0,0,0,0,0,0,0,0,0,-1,825,379,0,0
-392,645,0,0,0,0,0,0,0,0,0,-1,832,379,0,0
-385,645,0,0,0,0,0,0,0,0,0,-1,839,379,0,0
-378,645,0,0,0,0,0,0,0,0,0,-1,846,379,0,0
-371,645,0,0,0,0,0,0,0,0,0,-1,853,379,0,0
-364,645,0,0,0,0,0,0,0,0,0,-1,860,379,0,0
-357,645,0,0,0,0,0,0,0,0,0,-1,867,379,0,0
-350,645,0,0,0,0,0,0,0,0,0,-1,874,379,0,0
-343,645,0,0,0,0,0,0,0,0,0,-1,881,379,0,0
-336,645,0,0,0,0,0,0,0,0,0,-1,888,379,0,0
-329,645,0,0,0,0,0,0,0,0,0,-1,895,379,0,0
-322,645,0,0,0,0,0,0,0,0,0,-1,902,379,0,0
-315,645,0,0,0,0,0,0,0,0,0,-1,909,379,0,0
-308,645,0,0,0,0,0,0,0,0,0,-1,916,379,0,0
-301,645,0,0,0,0,0,0,0,0,0,-1,923,379,0,0
-294,645,0,0,0,0,0,0,0,0,0,-1,930,379,0,0
-287,645,0,0,0,0,0,0,0,0,0,-1,937,379,0,0
-280,645,0,0,0,0,0,0,0,0,0,-1,944,379,0,0
-273,645,0,0,0,0,0,0,0,0,0,-1,951,379,0,0
-266,645,0,0,0,0,0,0,0,0,0,-1,958,379,0,0
-259,645,0,0,0,0,0,0,0,0,0,-1,965,379,0,0
-252,645,2.95691,-26.9133,0,0,0,0,0,0,0,-1,972,379,2.9569,26.9133
-245,645,2.73169,-27.0215,0,0,0,0,0,0,0,-1,979,379,2.73172,27.0215
-238,645,2.6665,-26.9464,0,0,0,0,0,0,0,-1,986,379,2.66649,26.9464
-231,645,1.89801,-26.437,0,0,0,0,0,0,0,-1,993,379,1.89804,26.437
-224,645,9.92029,-21.3227,0,0,0,0,0,0,0,-1,1000,379,9.92026,21.3227
-217,645,8.09961,-19.0991,0,0,0,0,0,0,0,-1,1007,379,8.0996,19.0991
-210,645,3.58685,-26.664,0,0,0,0,0,0,0,-1,1014,379,3.58685,26.664
-203,645,3.70166,-25.3203,0,0,0,0,0,0,0,-1,1021,379,3.70166,25.3203
-196,645,3.98962,-24.5246,0,0,0,0,0,0,0,-1,1028,379,3.98963,24.5246
-189,645,3.8988,-23.8797,0,0,0,0,0,0,0,-1,1035,379,3.89886,23.8797
-182,645,3.19946,-26.9528,0,0,0,0,0,0,0,-1,1042,379,3.1995,26.9528
-175,645,4.1781,-28.0144,0.0293937,-0.0432615,-0.0037202,0.0295837,-0.0434515,-0.0510256,0.0424195,0.0442761,1049,379,4.17809,28.0144
-168,645,5.13806,-29.0605,0.0223859,-0.0375994,0.000736454,0.0223949,-0.0376084,0.0122748,0.0350122,0.0443108,1056,379,5.138,29.0605
-161,645,5.10498,-28.9359,0.0162126,-0.0314659,0.00448421,0.0166306,-0.031884,0.0929648,0.0284677,0.0475921,1063,379,5.10494,28.9359
-154,645,5.30432,-28.8719,0.0105899,-0.0249072,0.00739365,0.0120683,-0.0263857,0.197358,0.0227086,0.0406952,1070,379,5.30428,28.8719
-147,645,5.21375,-29.1683,0.00564983,-0.0186052,0.00993306,0.00919848,-0.0221539,0.343125,0.0186093,0.0403247,1077,379,5.21372,29.1683
-140,645,4.88135,-29.3941,0.00179523,-0.0130514,0.0120519,0.00852659,-0.0197828,0.509368,0.0167696,0.0426664,1084,379,4.88135,29.3941
-133,645,4.70459,-29.6812,0,0,0,0,0,0,0,-1,1091,379,4.70459,29.6812
-126,645,5.00171,-29.9592,-0.00344797,-0.00397487,0.0148714,0.0111623,-0.0185852,0.776541,0.017352,0.0352675,1098,379,5.00169,29.9592
-119,645,4.98499,-30.3283,-0.00599483,5.89016e-05,0.0158316,0.0131504,-0.0190863,0.879854,0.0187167,0.0212698,1105,379,4.98501,30.3283
-112,645,4.93982,-30.6669,-0.00692779,0.00378215,0.0162434,0.0155305,-0.0186762,0.944623,0.0197771,0.0138322,1112,379,4.93977,30.6669
-105,645,4.90503,-30.8998,-0.00671409,0.00507545,0.0152466,0.0155271,-0.0171658,0.969862,0.0188831,0.0192187,1119,379,4.90504,30.8998
-98,645,4.85327,-31.0743,-0.00643886,0.00548602,0.0139419,0.0146869,-0.0156398,0.98746,0.017512,0.0286102,1126,379,4.85322,31.0743
-91,645,4.90112,-31.3703,-0.00579359,0.00582864,0.0124836,0.0137874,-0.0137524,1.00323,0.0159001,0.0395375,1133,379,4.90114,31.3703
-84,645,4.93152,-31.6739,-0.00511518,0.0054781,0.0105195,0.0119592,-0.0115962,1.01862,0.0136002,0.047221,1140,379,4.9315,31.6739
-77,645,4.82788,-32.0493,-0.00473267,0.00520534,0.00829446,0.00990531,-0.00943264,1.05527,0.0111659,0.028485,1147,379,4.82782,32.0493
-70,645,4.74182,-32.2466,-0.00424221,0.00557035,0.00495661,0.00763828,-0.00631014,1.17555,0.00806529,0.0141035,1154,379,4.74187,32.2466
-63,645,4.71338,-32.4318,-0.00391899,0.00663913,0.00160747,0.00687844,-0.0041583,1.42301,0.00643625,0.0114055,1161,379,4.71336,32.4318
-56,645,4.69971,-32.5923,-0.00343018,0.00605214,-0.000649683,0.00609645,-0.00347449,-1.50271,0.00559447,0.0132191,1168,379,4.6997,32.5923
-49,645,4.6969,-32.7755,-0.0030403,0.00433951,-0.000790777,0.00442329,-0.00312408,-1.46524,0.00437895,0.0117324,1175,379,4.69689,32.7755
-42,645,4.65137,-32.9764,-0.00288531,0.00327336,-0.000582318,0.00332794,-0.00293989,-1.47735,0.00362104,0.010915,1182,379,4.65135,32.9764
-35,645,4.62231,-33.1633,-0.00272635,0.00296476,-0.000383136,0.00299044,-0.00275203,-1.50388,0.00331637,0.0105242,1189,379,4.62235,33.1633
-28,645,4.5802,-33.3165,-0.0024426,0.00264203,-0.000252367,0.00265452,-0.0024551,-1.52132,0.00295079,0.00864531,1196,379,4.58021,33.3165
-21,645,4.54895,-33.4583,-0.00204266,0.00260538,-0.000195037,0.00261355,-0.00205083,-1.52893,0.0026995,0.0103171,1203,379,4.54893,33.4584
-14,645,4.55322,-33.6097,-0.0017248,0.00251748,-0.000169988,0.00252428,-0.0017316,-1.53081,0.0024713,0.0103585,1210,379,4.55324,33.6097
-7,645,4.54956,-33.7464,-0.00145659,0.00241838,-0.000161674,0.00242512,-0.00146332,-1.52917,0.00226777,0.0135267,1217,379,4.54954,33.7464
0,645,4.54724,-33.8205,-0.00118951,0.00242505,-0.000174586,0.00243346,-0.00119792,-1.52264,0.00213665,0.0251442,1224,379,4.54729,33.8205
7,645,4.49927,-33.8734,-0.000941953,0.00292405,-8.69492e-05,0.00292601,-0.000943908,-1.54832,0.00232994,0.0165543,1231,379,4.49922,33.8734
14,645,4.48376,-33.9305,-0.000776646,0.0037536,7.78336e-05,0.00375494,-0.000777983,1.55362,0.0027989,0.0162321,1238,379,4.48377,33.9305
21,645,4.46069,-34.0471,-0.00071968,0.00497183,0.000314174,0.00498912,-0.00073697,1.51582,0.00359699,0.0109993,1245,379,4.46065,34.0471
28,645,4.46643,-34.134,-0.000676649,0.00646337,0.000515797,0.00650044,-0.000713717,1.49905,0.00459007,0.00958189,1252,379,4.46645,34.134
35,645,4.45239,-34.1732,-0.000623695,0.00790004,0.000689457,0.00795545,-0.000679103,1.4906,0.00554388,0.00922153,1259,379,4.45245,34.1732
42,645,4.43555,-34.2049,-0.000614968,0.00959487,0.000928184,0.00967857,-0.000698664,1.48087,0.00669742,0.00931609,1266,379,4.43554,34.2049
49,645,4.45435,-34.2101,-0.00078198,0.01146,0.00108489,0.0115554,-0.00087738,1.48309,0.0080121,0.0126724,1273,379,4.45437,34.2101
56,645,4.44495,-34.2035,-0.00101054,0.0131451,0.00118147,0.013243,-0.00110847,1.4881,0.00922039,0.012355,1280,379,4.44493,34.2035
63,645,4.40918,-34.2148,-0.00117766,0.0146008,0.0011707,0.0146872,-0.00126405,1.49714,0.0102389,0.0118684,1287,379,4.40919,34.2148
70,645,4.38037,-34.1835,-0.0013743,0.0155938,0.00111344,0.0156666,-0.00144705,1.50555,0.0109586,0.0157806,1294,379,4.38038,34.1835
77,645,4.34155,-34.1686,-0.00155045,0.016451,0.000977223,0.0165039,-0.00160335,1.51672,0.0115741,0.0180338,1301,379,4.34154,34.1686
84,645,4.3855,-34.1374,-0.00163928,0.0168931,0.000707545,0.0169201,-0.00166625,1.53269,0.0118745,0.0135391,1308,379,4.38544,34.1374
91,645,4.35828,-34.0984,-0.00170545,0.0171313,0.000406036,0.01714,-0.0017142,1.54925,0.0120388,0.014972,1315,379,4.35825,34.0984
98,645,4.34973,-34.0343,-0.00177198,0.01711,0.000121282,0.0171108,-0.00177276,1.56437,0.0120417,0.0128421,1322,379,4.34978,34.0343
105,645,4.34973,-33.9406,-0.00169193,0.0170144,-8.93783e-05,0.0170149,-0.00169236,-1.56602,0.0119474,0.0101486,1329,379,4.34969,33.9406
112,645,4.32629,-33.852,-0.0015186,0.0166846,-0.000343803,0.0166911,-0.00152509,-1.55192,0.011669,0.00889555,1336,379,4.32625,33.852
119,645,4.31067,-33.7234,-0.00128721,0.0162148,-0.000496531,0.0162289,-0.00130128,-1.54246,0.0112781,0.0087563,1343,379,4.31065,33.7234
126,645,4.27539,-33.5907,-0.00102202,0.015687,-0.000549364,0.015705,-0.00104006,-1.53797,0.0108334,0.0111053,1350,379,4.27534,33.5907
133,645,4.26538,-33.4868,-0.000813871,0.0152192,-0.000419774,0.0152302,-0.000824853,-1.54464,0.0104393,0.0123918,1357,379,4.26544,33.4868
140,645,4.26489,-33.3589,-0.000670504,0.0148859,-0.000153704,0.0148875,-0.000672022,-1.56092,0.0101564,0.0123785,1364,379,4.2649,33.359
147,645,4.24048,-33.2153,-0.000538632,0.0143312,0.000110266,0.0143321,-0.00053945,1.56338,0.00973951,0.0134356,1371,379,4.24046,33.2153
154,645,4.2124,-33.0456,-0.000379692,0.0138286,0.000397791,0.0138397,-0.000390821,1.54283,0.00935948,0.0118517,1378,379,4.21242,33.0456
161,645,4.19629,-32.8513,-0.000339921,0.0134729,0.000619389,0.0135006,-0.00036764,1.52607,0.00912543,0.0131274,1385,379,4.19629,32.8513
168,645,4.18665,-32.654,-0.000612718,0.0129262,0.000916137,0.012988,-0.000674429,1.50354,0.00889198,0.0154196,1392,379,4.18662,32.654
175,645,4.20618,-32.4749,-0.00107244,0.0118856,0.00110765,0.0119796,-0.00116644,1.48613,0.00840222,0.0138394,1399,379,4.20613,32.4749
182,645,4.1543,-32.2904,-0.00153959,0.010413,0.0013663,0.0105672,-0.00169378,1.45842,0.00767198,0.0104765,1406,379,4.15435,32.2904
189,645,4.12073,-32.0353,-0.00216882,0.00923426,0.00183079,0.00952099,-0.00245555,1.41544,0.00730474,0.0113701,1413,379,4.12069,32.0353
196,645,4.07947,-31.8115,-0.0027555,0.0075997,0.00215787,0.00803138,-0.00318717,1.37336,0.00667527,0.0121338,1420,379,4.07945,31.8115
203,645,4.04333,-31.5538,-0.0029033,0.00639039,0.00234928,0.00695049,-0.0034634,1.33675,0.00612379,0.0117006,1427,379,4.04332,31.5538
210,645,4.07288,-31.2418,-0.0033238,0.0058484,0.00214578,0.00632557,-0.00380097,1.35198,0.00590681,0.0197959,1434,379,4.07292,31.2418
217,645,4.05481,-31.0305,-0.00371319,0.00606641,0.00206033,0.00648275,-0.00412953,1.37141,0.00617701,0.0358611,1441,379,4.05475,31.0305
224,645,3.90015,-30.9452,-0.00376743,0.00700495,0.00216006,0.00742194,-0.00418442,1.3801,0.00678727,0.0436845,1448,379,3.90013,30.9452
231,645,3.8418,-30.616,-0.00365336,0.00826604,0.00255794,0.00879179,-0.00417911,1.36808,0.00764497,0.0412806,1455,379,3.84181,30.616
238,645,3.88513,-30.1276,-0.00329431,0.0102813,0.00338948,0.0110805,-0.00409352,1.33923,0.00906504,0.0227209,1462,379,3.88514,30.1276
245,645,3.88062,-29.8442,-0.00314427,0.0123486,0.00397547,0.0133091,-0.00410482,1.33372,0.0105117,0.0163713,1469,379,3.88062,29.8442
252,645,3.90259,-29.413,-0.0026934,0.0145389,0.00468312,0.0157293,-0.00388386,1.32187,0.0119923,0.0275469,1476,379,3.90259,29.413
259,645,3.83862,-28.9759,-0.00183568,0.0170077,0.00575252,0.018625,-0.003453,1.29672,0.0137134,0.0445762,1483,379,3.83867,28.9759
266,645,3.6908,-28.7003,-0.000973672,0.0193476,0.00680572,0.0214163,-0.00304236,1.27571,0.0153922,0.0317833,1490,379,3.69081,28.7003
273,645,3.72083,-28.5047,0.00323258,0.0195366,0.00950807,0.0239089,-0.00113973,1.13978,0.0163325,0.0241935,1497,379,3.72083,28.5047
280,645,3.74182,-28.2369,0,0,0,0,0,0,0,-1,1504,379,3.74185,28.2369
287,645,3.99646,-27.2858,0,0,0,0,0,0,0,-1,1511,379,3.99648,27.2858
294,645,3.31836,-27.1291,0,0,0,0,0,0,0,-1,1518,379,3.31838,27.1291
301,645,0.0356445,-19.925,0,0,0,0,0,0,0,-1,1525,379,0.0356305,19.925
308,645,4.37341,-25.1157,0,0,0,0,0,0,0,-1,1532,379,4.37337,25.1157
315,645,3.73743,-23.8562,0,0,0,0,0,0,0,-1,1539,379,3.73748,23.8562
322,645,4.20374,-27.3398,0,0,0,0,0,0,0,-1,1546,379,4.2037,27.3398
329,645,5.4458,-25.8137,0,0,0,0,0,0,0,-1,1553,379,5.44577,25.8137
336,645,5.78894,-25.6707,0,0,0,0,0,0,0,-1,1560,379,5.78891,25.6707
343,645,4.77185,-23.7191,0,0,0,0,0,0,0,-1,1567,379,4.77184,23.7191
350,645,4.76404,-22.1987,0,0,0,0,0,0,0,-1,1574,379,4.76399,22.1987
357,645,4.61316,-21.967,0,0,0,0,0,0,0,-1,1581,379,4.61316,21.967
364,645,-0.0794678,-3.22021,0,0,0,0,0,0,0,-1,1588,379,-0.0794987,3.22021
371,645,0,0,0,0,0,0,0,0,0,-1,1595,379,0,0
378,645,0,0,0,0,0,0,0,0,0,-1,1602,379,0,0
385,645,0,0,0,0,0,0,0,0,0,-1,1609,379,0,0
392,645,0,0,0,0,0,0,0,0,0,-1,1616,379,0,0
399,645,0,0,0,0,0,0,0,0,0,-1,1623,379,0,0
406,645,0,0,0,0,0,0,0,0,0,-1,1630,379,0,0
413,645,0,0,0,0,0,0,0,0,0,-1,1637,379,0,0
420,645,0,0,0,0,0,0,0,0,0,-1,1644,379,0,0
427,645,0,0,0,0,0,0,0,0,0,-1,1651,379,0,0
434,645,0,0,0,0,0,0,0,0,0,-1,1658,379,0,0
441,645,0,0,0,0,0,0,0,0,0,-1,1665,379,0,0
448,645,0,0,0,0,0,0,0,0,0,-1,1672,379,0,0
455,645,0,0,0,0,0,0,0,0,0,-1,1679,379,0,0
462,645,0,0,0,0,0,0,0,0,0,-1,1686,379,0,0
469,645,0,0,0,0,0,0,0,0,0,-1,1693,379,0,0
476,645,0,0,0,0,0,0,0,0,0,-1,1700,379,0,0
483,645,0,0,0,0,0,0,0,0,0,-1,1707,379,0,0
490,645,0,0,0,0,0,0,0,0,0,-1,1714,379,0,0
497,645,0,0,0,0,0,0,0,0,0,-1,1721,379,0,0
504,645,0,0,0,0,0,0,0,0,0,-1,1728,379,0,0
511,645,0,0,0,0,0,0,0,0,0,-1,1735,379,0,0
518,645,0,0,0,0,0,0,0,0,0,-1,1742,379,0,0
525,645,0,0,0,0,0,0,0,0,0,-1,1749,379,0,0
532,645,0,0,0,0,0,0,0,0,0,-1,1756,379,0,0
539,645,0,0,0,0,0,0,0,0,0,-1,1763,379,0,0
546,645,0,0,0,0,0,0,0,0,0,-1,1770,379,0,0
553,645,0,0,0,0,0,0,0,0,0,-1,1777,379,0,0
560,645,0,0,0,0,0,0,0,0,0,-1,1784,379,0,0
567,645,0,0,0,0,0,0,0,0,0,-1,1791,379,0,0
574,645,0,0,0,0,0,0,0,0,0,-1,1798,379,0,0
581,645,0,0,0,0,0,0,0,0,0,-1,1805,379,0,0
588,645,0,0,0,0,0,0,0,0,0,-1,1812,379,0,0
595,645,0,0,0,0,0,0,0,0,0,-1,1819,379,0,0
602,645,0,0,0,0,0,0,0,0,0,-1,1826,379,0,0
609,645,0,0,0,0,0,0,0,0,0,-1,1833,379,0,0
616,645,0,0,0,0,0,0,0,0,0,-1,1840,379,0,0
623,645,0,0,0,0,0,0,0,0,0,-1,1847,379,0,0
630,645,0,0,0,0,0,0,0,0,0,-1,1854,379,0,0
637,645,0,0,0,0,0,0,0,0,0,-1,1861,379,0,0
644,645,0,0,0,0,0,0,0,0,0,-1,1868,379,0,0
651,645,0,0,0,0,0,0,0,0,0,-1,1875,379,0,0
658,645,0,0,0,0,0,0,0,0,0,-1,1882,379,0,0
665,645,0,0,0,0,0,0,0,0,0,-1,1889,379,0,0
672,645,0,0,0,0,0,0,0,0,0,-1,1896,379,0,0
679,645,0,0,0,0,0,0,0,0,0,-1,1903,379,0,0
686,645,0,0,0,0,0,0,0,0,0,-1,1910,379,0,0
693,645,0,0,0,0,0,0,0,0,0,-1,1917,379,0,0
700,645,0,0,0,0,0,0,0,0,0,-1,1924,379,0,0
707,645,0,0,0,0,0,0,0,0,0,-1,1931,379,0,0
714,645,0,0,0,0,0,0,0,0,0,-1,1938,379,0,0
721,645,0,0,0,0,0,0,0,0,0,-1,1945,379,0,0
728,645,0,0,0,0,0,0,0,0,0,-1,1952,379,0,0
735,645,0,0,0,0,0,0,0,0,0,-1,1959,379,0,0
742,645,0,0,0,0,0,0,0,0,0,-1,1966,379,0,0
749,645,0,0,0,0,0,0,0,0,0,-1,1973,379,0,0
756,645,0,0,0,0,0,0,0,0,0,-1,1980,379,0,0
763,645,0,0,0,0,0,0,0,0,0,-1,1987,379,0,0
770,645,0,0,0,0,0,0,0,0,0,-1,1994,379,0,0
777,645,0,0,0,0,0,0,0,0,0,-1,2001,379,0,0
784,645,0,0,0,0,0,0,0,0,0,-1,2008,379,0,0
791,645,0,0,0,0,0,0,0,0,0,-1,2015,379,0,0
798,645,0,0,0,0,0,0,0,0,0,-1,2022,379,0,0
805,645,0,0,0,0,0,0,0,0,0,-1,2029,379,0,0
812,645,0,0,0,0,0,0,0,0,0,-1,2036,379,0,0
-700,638,0,0,0,0,0,0,0,0,0,-1,524,386,0,0
-693,638,0,0,0,0,0,0,0,0,0,-1,531,386,0,0
-686,638,0,0,0,0,0,0,0,0,0,-1,538,386,0,0
-679,638,0,0,0,0,0,0,0,0,0,-1,545,386,0,0
-672,638,0,0,0,0,0,0,0,0,0,-1,552,386,0,0
-665,638,0,0,0,0,0,0,0,0,0,-1,559,386,0,0
-658,638,0,0,0,0,0,0,0,0,0,-1,566,386,0,0
-651,638,0,0,0,0,0,0,0,0,0,-1,573,386,0,0
-644,638,0,0,0,0,0,0,0,0,0,-1,580,386,0,0
-637,638,0,0,0,0,0,0,0,0,0,-1,587,386,0,0
-630,638,0,0,0,0,0,0,0,0,0,-1,594,386,0,0
-623,638,0,0,0,0,0,0,0,0,0,-1,601,386,0,0
-616,638,0,0,0,0,0,0,0,0,0,-1,608,386,0,0
-609,638,0,0,0,0,0,0,0,0,0,-1,615,386,0,0
-602,638,0,0,0,0,0,0,0,0,0,-1,622,386,0,0
-595,638,0,0,0,0,0,0,0,0,0,-1,629,386,0,0
-588,638,0,0,0,0,0,0,0,0,0,-1,636,386,0,0
-581,638,0,0,0,0,0,0,0,0,0,-1,643,386,0,0
-574,638,0,0,0,0,0,0,0,0,0,-1,650,386,0,0
-567,638,0,0,0,0,0,0,0,0,0,-1,657,386,0,0
-560,638,0,0,0,0,0,0,0,0,0,-1,664,386,0,0
-553,638,0,0,0,0,0,0,0,0,0,-1,671,386,0,0
-546,638,0,0,0,0,0,0,0,0,0,-1,678,386,0,0
-539,638,0,0,0,0,0,0,0,0,0,-1,685,386,0,0
-532,638,0,0,0,0,0,0,0,0,0,-1,692,386,0,0
-525,638,0,0,0,0,0,0,0,0,0,-1,699,386,0,0
-518,638,0,0,0,0,0,0,0,0,0,-1,706,386,0,0
-511,638,0,0,0,0,0,0,0,0,0,-1,713,386,0,0
-504,638,0,0,0,0,0,0,0,0,0,-1,720,386,0,0
-497,638,0,0,0,0,0,0,0,0,0,-1,727,386,0,0
-490,638,0,0,0,0,0,0,0,0,0,-1,734,386,0,0
-483,638,0,0,0,0,0,0,0,0,0,-1,741,386,0,0
-476,638,0,0,0,0,0,0,0,0,0,-1,748,386,0,0
-469,638,0,0,0,0,0,0,0,0,0,-1,755,386,0,0
-462,638,0,0,0,0,0,0,0,0,0,-1,762,386,0,0
-455,638,0,0,0,0,0,0,0,0,0,-1,769,386,0,0
-448,638,0,0,0,0,0,0,0,0,0,-1,776,386,0,0
-441,638,0,0,0,0,0,0,0,0,0,-1,783,386,0,0
-434,638,0,0,0,0,0,0,0,0,0,-1,790,386,0,0
-427,638,0,0,0,0,0,0,0,0,0,-1,797,386,0,0
-420,638,0,0,0,0,0,0,0,0,0,-1,804,386,0,0
-413,638,0,0,0,0,0,0,0,0,0,-1,811,386,0,0
-406,638,0,0,0,0,0,0,0,0,0,-1,818,386,0,0
-399,638,0,0,0,0,0,0,0,0,0,-1,825,386,0,0
-392,638,0,0,0,0,0,0,0,0,0,-1,832,386,0,0
-385,638,0,0,0,0,0,0,0,0,0,-1,839,386,0,0
-378,638,0,0,0,0,0,0,0,0,0,-1,846,386,0,0
-371,638,0,0,0,0,0,0,0,0,0,-1,853,386,0,0
-364,638,0,0,0,0,0,0,0,0,0,-1,860,386,0,0
-357,638,0,0,0,0,0,0,0,0,0,-1,867,386,0,0
-350,638,0,0,0,0,0,0,0,0,0,-1,874,386,0,0
-343,638,0,0,0,0,0,0,0,0,0,-1,881,386,0,0
-336,638,0,0,0,0,0,0,0,0,0,-1,888,386,0,0
-329,638,0,0,0,0,0,0,0,0,0,-1,895,386,0,0
-322,638,0,0,0,0,0,0,0,0,0,-1,902,386,0,0
-315,638,0,0,0,0,0,0,0,0,0,-1,909,386,0,0
-308,638,0,0,0,0,0,0,0,0,0,-1,916,386,0,0
-301,638,0,0,0,0,0,0,0,0,0,-1,923,386,0,0
-294,638,0,0,0,0,0,0,0,0,0,-1,930,386,0,0
-287,638,0,0,0,0,0,0,0,0,0,-1,937,386,0,0
-280,638,0,0,0,0,0,0,0,0,0,-1,944,386,0,0
-273,638,0,0,0,0,0,0,0,0,0,-1,951,386,0,0
-266,638,5.34705,-26.6979,0,0,0,0,0,0,0,-1,958,386,5.34704,26.6979
-259,638,7.30426,-26.7659,0,0,0,0,0,0,0,-1,965,386,7.30423,26.7659
-252,638,9.31195,-27.1175,0,0,0,0,0,0,0,-1,972,386,9.31197,27.1175
-245,638,3.35309,-26.4681,0,0,0,0,0,0,0,-1,979,386,3.35311,26.4681
-238,638,2.93518,-26.3649,0,0,0,0,0,0,0,-1,986,386,2.93516,26.3649
-231,638,2.36829,-26.0088,0,0,0,0,0,0,0,-1,993,386,2.3683,26.0088
-224,638,1.80823,-25.8195,0,0,0,0,0,0,0,-1,1000,386,1.8082,25.8196
-217,638,3.34961,-27.6036,0,0,0,0,0,0,0,-1,1007,386,3.3496,27.6036
-210,638,3.4826,-26.5204,0,0,0,0,0,0,0,-1,1014,386,3.48262,26.5204
-203,638,3.61267,-25.3666,0,0,0,0,0,0,0,-1,1021,386,3.61262,25.3666
-196,638,3.92346,-24.3737,0,0,0,0,0,0,0,-1,1028,386,3.92344,24.3737
-189,638,4.1333,-23.6895,0,0,0,0,0,0,0,-1,1035,386,4.13334,23.6895
-182,638,4.18262,-25.9996,0,0,0,0,0,0,0,-1,1042,386,4.18259,25.9996
-175,638,5.11304,-27.8906,0,0,0,0,0,0,0,-1,1049,386,5.11302,27.8906
-168,638,4.84595,-28.3722,0.0154804,-0.024423,-0.000670102,0.0154916,-0.0244343,-0.0167868,0.0232432,0.038172,1056,386,4.84589,28.3722
-161,638,4.8761,-28.6567,0.0114704,-0.0208256,0.00177166,0.0115672,-0.0209225,0.0546386,0.0190154,0.0340071,1063,386,4.87615,28.6567
-154,638,4.92883,-28.8769,0.00770499,-0.0165353,0.00362666,0.00823595,-0.0170663,0.145373,0.0149018,0.0292519,1070,386,4.92884,28.8769
-147,638,4.86072,-29.1481,0.0043328,-0.012282,0.005209,0.00583084,-0.01378,0.28003,0.0116282,0.0244516,1077,386,4.86078,29.1481
-140,638,4.80969,-29.4793,0.00174196,-0.00850127,0.00652763,0.00491738,-0.0116767,0.452756,0.00984196,0.0215357,1084,386,4.80971,29.4793
-133,638,4.76196,-29.8816,-0.000353117,-0.00499747,0.00759738,0.00526905,-0.0106196,0.63708,0.00934512,0.0192661,1091,386,4.76199,29.8816
-126,638,4.74512,-30.1627,-0.00191026,-0.00201606,0.00827676,0.00631378,-0.0102401,0.782202,0.00964657,0.0171234,1098,386,4.74517,30.1627
-119,638,4.71741,-30.4669,-0.00380304,0.00105938,0.00888654,0.00784128,-0.0105849,0.918923,0.0106776,0.0167742,1105,386,4.71739,30.467
-112,638,4.70325,-30.7556,-0.00443834,0.00390045,0.00905814,0.0097027,-0.0102406,1.00109,0.0115157,0.0145352,1112,386,4.70323,30.7556
-105,638,4.67505,-31.026,-0.00424443,0.004884,0.00830687,0.00979798,-0.0091584,1.03661,0.0109465,0.0156881,1119,386,4.67509,31.026
-98,638,4.64258,-31.2912,-0.00402432,0.00512474,0.00742131,0.00926813,-0.00816772,1.0616,0.0100733,0.0157174,1126,386,4.64264,31.2912
-91,638,4.58545,-31.5645,-0.00351152,0.00529325,0.00653693,0.00877201,-0.00699028,1.08174,0.00911972,0.0125198,1133,386,4.58547,31.5644
-84,638,4.56311,-31.8005,-0.00302531,0.0049028,0.00546007,0.00768605,-0.00580856,1.09938,0.00781621,0.0146982,1140,386,4.56309,31.8005
-77,638,4.53699,-32.03,-0.00280144,0.00455373,0.00423907,0.00648813,-0.00473584,1.14269,0.00650643,0.012637,1147,386,4.53694,32.03
-70,638,4.52271,-32.2462,-0.00255236,0.00450127,0.00251148,0.00530411,-0.00335521,1.26139,0.00504149,0.0120038,1154,386,4.52273,32.2462
-63,638,4.51038,-32.4658,-0.00239649,0.00488687,0.000790268,0.00497164,-0.00248125,1.46395,0.00438227,0.0117055,1161,386,4.51038,32.4658
-56,638,4.52905,-32.6401,-0.00222381,0.00445558,-0.000356794,0.00447459,-0.00224281,-1.51758,0.003949,0.0153383,1168,386,4.52904,32.6401
-49,638,4.51184,-32.8206,-0.00202872,0.0033378,-0.000407317,0.00336854,-0.00205946,-1.49547,0.00316409,0.0136676,1175,386,4.5118,32.8206
-42,638,4.48938,-33.0194,-0.00199333,0.00253476,-0.000117953,0.00253783,-0.0019964,-1.54477,0.00262405,0.0122013,1182,386,4.48938,33.0195
-35,638,4.46716,-33.1921,-0.00170653,0.00210192,-3.78081e-05,0.00210229,-0.00170691,-1.56087,0.00220319,0.0107609,1189,386,4.4671,33.1921
-28,638,4.44727,-33.3409,-0.00119381,0.00158203,-0.000102723,0.00158582,-0.00119761,-1.53386,0.00161222,0.0100486,1196,386,4.44727,33.3409
-21,638,4.42249,-33.4548,-0.000548286,0.00113577,-0.000316283,0.00119321,-0.000605728,-1.39114,0.00105692,0.0119802,1203,386,4.42246,33.4548
-14,638,4.42126,-33.6095,5.01429e-05,0.00061245,-0.000628598,0.00101991,-0.000357313,-0.995689,0.000825243,0.0123541,1210,386,4.42122,33.6095
-7,638,4.43237,-33.7685,0.000563237,8.88454e-05,-0.00095957,0.00131449,-0.00066241,-0.664232,0.00116188,0.0172916,1217,386,4.43241,33.7685
0,638,4.44006,-33.7949,0.000965153,-0.000345544,-0.00124367,0.00171558,-0.00109597,-0.542912,0.00163633,0.0314237,1224,386,4.44004,33.7949
7,638,4.401,-33.8778,0.00123118,-0.000454521,-0.00138716,0.00201148,-0.00123482,-0.5124,0.00189205,0.0237454,1231,386,4.40095,33.8778
14,638,4.39331,-33.9763,0.00126452,-0.000221815,-0.00134941,0.00206187,-0.00101917,-0.533695,0.00181248,0.0125417,1238,386,4.39331,33.9763
21,638,4.39697,-34.0751,0.00110686,0.000409025,-0.00113737,0.00194763,-0.000431748,-0.636568,0.00146372,0.0109929,1245,386,4.39696,34.0751
28,638,4.41382,-34.1314,0.000929527,0.00131205,-0.000890261,0.00203136,0.000210215,-0.891209,0.00128989,0.0092499,1252,386,4.4138,34.1314
35,638,4.40552,-34.1678,0.000691684,0.00217761,-0.000502022,0.00233132,0.000537975,-1.27368,0.00140953,0.0113826,1259,386,4.40549,34.1678
42,638,4.42004,-34.2063,0.00050569,0.00326925,-6.41143e-05,0.00327074,0.000504204,-1.54761,0.00203337,0.0102907,1266,386,4.42006,34.2063
49,638,4.44751,-34.224,0.000248499,0.00454532,0.000288525,0.00456461,0.000229211,1.50405,0.00296962,0.00880937,1273,386,4.44745,34.224
56,638,4.44263,-34.2247,-1.20188e-05,0.00563549,0.000568889,0.00569222,-6.87547e-05,1.47139,0.00381794,0.0116967,1280,386,4.44259,34.2247
63,638,4.41772,-34.2413,-0.000418178,0.00660276,0.000912385,0.00671939,-0.000534807,1.44366,0.00466808,0.0135123,1287,386,4.41768,34.2413
70,638,4.38965,-34.2306,-0.000695322,0.00706144,0.00103146,0.00719625,-0.000830137,1.44083,0.0050968,0.0178921,1294,386,4.38962,34.2306
77,638,4.38708,-34.2048,-0.000670994,0.00743756,0.00100901,0.00756124,-0.000794667,1.44884,0.00532551,0.0175999,1301,386,4.38706,34.2048
84,638,4.43286,-34.1469,-0.000625052,0.00754052,0.000849783,0.00762802,-0.000712551,1.46819,0.00533874,0.0124285,1308,386,4.43281,34.1469
91,638,4.44434,-34.0667,-0.000663412,0.00739479,0.000631602,0.007444,-0.000712616,1.49305,0.00521645,0.0133682,1315,386,4.44432,34.0667
98,638,4.43274,-34.011,-0.000740851,0.00716912,0.000416465,0.00719099,-0.000762717,1.51834,0.0050674,0.0120798,1322,386,4.43279,34.011
105,638,4.41785,-33.9478,-0.000683161,0.00704183,0.000201035,0.00704706,-0.000688389,1.5448,0.00494351,0.00966345,1329,386,4.41788,33.9478
112,638,4.4082,-33.8486,-0.000544363,0.00683752,-3.41026e-05,0.00683768,-0.00054452,-1.56618,0.00475038,0.0093405,1336,386,4.40818,33.8486
119,638,4.41504,-33.7339,-0.000321517,0.00656614,-0.000191713,0.00657147,-0.000326849,-1.54299,0.00449389,0.0113422,1343,386,4.41501,33.7339
126,638,4.41919,-33.6214,-8.57154e-05,0.00634896,-0.000274414,0.00636064,-9.73968e-05,-1.52825,0.00427326,0.0157105,1350,386,4.41923,33.6214
133,638,4.40271,-33.5047,4.45256e-05,0.00631795,-0.000155354,0.0063218,4.06806e-05,-1.54605,0.00420104,0.0165393,1357,386,4.40268,33.5047
140,638,4.38062,-33.3961,0.000161259,0.00648391,1.73068e-05,0.00648396,0.000161212,1.56806,0.00426991,0.0167193,1364,386,4.38065,33.3961
147,638,4.37097,-33.2622,0.000238033,0.00652272,0.000250013,0.00653265,0.000228103,1.5311,0.00428109,0.0175627,1371,386,4.37099,33.2622
154,638,4.36292,-33.0808,0.000381262,0.00654951,0.000507323,0.00659096,0.000339814,1.48928,0.0042852,0.0156036,1378,386,4.36287,33.0808
161,638,4.36926,-32.8848,0.000430274,0.00676325,0.000714404,0.00684284,0.000350685,1.45985,0.0044496,0.01786,1385,386,4.36925,32.8848
168,638,4.38513,-32.6833,0.000223658,0.00682924,0.000918057,0.00695446,9.84389e-05,1.43524,0.00460384,0.0224004,1392,386,4.38509,32.6833
175,638,4.40381,-32.4832,-0.000142516,0.00653247,0.0010928,0.00670683,-0.000316869,1.41258,0.0045805,0.0185817,1399,386,4.40381,32.4831
182,638,4.35315,-32.303,-0.000562635,0.0059955,0.0012897,0.00624002,-0.000807147,1.38343,0.00445351,0.0128015,1406,386,4.35312,32.303
189,638,4.31689,-32.0621,-0.00107509,0.00557565,0.00154873,0.00591861,-0.00141805,1.35287,0.00449364,0.0115907,1413,386,4.31685,32.0621
196,638,4.29626,-31.8239,-0.00151134,0.00500997,0.00164451,0.0054012,-0.00190257,1.33724,0.00437513,0.0141193,1420,386,4.29632,31.8239
203,638,4.26221,-31.6035,-0.00174045,0.00470467,0.00168357,0.00511795,-0.00215373,1.33008,0.00431301,0.0197696,1427,386,4.26226,31.6034
210,638,4.27588,-31.3655,-0.00214926,0.00455433,0.00162581,0.00492782,-0.00252275,1.34499,0.00437566,0.0167662,1434,386,4.27583,31.3655
217,638,4.26343,-31.0867,-0.0025087,0.00488466,0.0016362,0.00523058,-0.00285462,1.36245,0.0047347,0.0128561,1441,386,4.26348,31.0867
224,638,4.24609,-30.7858,-0.00261552,0.00562345,0.00176061,0.00598391,-0.00297598,1.36885,0.00526926,0.0112398,1448,386,4.24609,30.7858
231,638,4.18933,-30.4908,-0.00258525,0.00658098,0.00211433,0.00704517,-0.00304944,1.35468,0.00597838,0.0114569,1455,386,4.18934,30.4908
238,638,4.15942,-30.2178,-0.00236512,0.00812651,0.00279959,0.00882681,-0.00306542,1.32568,0.00712951,0.0121558,1462,386,4.1594,30.2178
245,638,4.14441,-29.9076,-0.00231073,0.00966431,0.00327363,0.0105008,-0.00314722,1.32063,0.00825214,0.0144115,1469,386,4.14439,29.9075
252,638,4.12463,-29.5699,-0.00203891,0.0113086,0.0038352,0.0123321,-0.00306241,1.31,0.00940978,0.0194031,1476,386,4.12463,29.5699
259,638,4.08423,-29.2783,-0.00146289,0.013173,0.00470173,0.0145533,-0.00284314,1.28526,0.0107757,0.0192649,1483,386,4.08421,29.2783
266,638,4.00659,-28.9274,-0.000927475,0.014879,0.00551811,0.0166147,-0.00266326,1.26603,0.0120627,0.0127074,1490,386,4.00654,28.9274
273,638,4.00012,-28.6024,0.00198279,0.0150742,0.00751637,0.0184955,-0.00143856,1.14364,0.0128368,0.0112059,1497,386,4.00012,28.6024
280,638,4.02173,-28.2043,0.00443313,0.0161395,0.00933019,0.0213005,-0.00072786,1.06554,0.0144491,0.021558,1504,386,4.02173,28.2044
287,638,4.16077,-27.5657,0.00768283,0.0164564,0.0114244,0.0243073,-0.000168088,0.968709,0.0162612,0.040398,1511,386,4.16075,27.5657
294,638,4.21521,-27.0606,0,0,0,0,0,0,0,-1,1518,386,4.21515,27.0606
301,638,3.7937,-26.9174,0,0,0,0,0,0,0,-1,1525,386,3.79373,26.9174
308,638,4.28735,-26.3298,0,0,0,0,0,0,0,-1,1532,386,4.2873,26.3298
315,638,4.59631,-28.1189,0,0,0,0,0,0,0,-1,1539,386,4.59626,28.1189
322,638,4.16809,-26.87,0.0344101,0.00698597,0.0259235,0.0500246,-0.00862854,0.542131,0.0365668,0.0428321,1546,386,4.16812,26.87
329,638,5.07593,-25.6256,0,0,0,0,0,0,0,-1,1553,386,5.07593,25.6256
336,638,5.44971,-25.408,0,0,0,0,0,0,0,-1,1560,386,5.44974,25.408
343,638,5.62451,-25.231,0,0,0,0,0,0,0,-1,1567,386,5.62449,25.2311
350,638,5.91162,-19.0222,0,0,0,0,0,0,0,-1,1574,386,5.91165,19.0222
357,638,0.387329,-3.01077,0,0,0,0,0,0,0,-1,1581,386,0.387332,3.01077
364,638,3.78149,-6.45215,0,0,0,0,0,0,0,-1,1588,386,3.78155,6.45216
371,638,4.18604,-6.71164,0,0,0,0,0,0,0,-1,1595,386,4.18598,6.71164
378,638,4.59045,-6.97113,0,0,0,0,0,0,0,-1,1602,386,4.5904,6.97112
385,638,0,0,0,0,0,0,0,0,0,-1,1609,386,0,0
392,638,0,0,0,0,0,0,0,0,0,-1,1616,386,0,0
399,638,0,0,0,0,0,0,0,0,0,-1,1623,386,0,0
406,638,0,0,0,0,0,0,0,0,0,-1,1630,386,0,0
413,638,0,0,0,0,0,0,0,0,0,-1,1637,386,0,0
420,638,0,0,0,0,0,0,0,0,0,-1,1644,386,0,0
427,638,0,0,0,0,0,0,0,0,0,-1,1651,386,0,0
434,638,0,0,0,0,0,0,0,0,0,-1,1658,386,0,0
441,638,0,0,0,0,0,0,0,0,0,-1,1665,386,0,0
448,638,0,0,0,0,0,0,0,0,0,-1,1672,386,0,0
455,638,0,0,0,0,0,0,0,0,0,-1,1679,386,0,0
462,638,0,0,0,0,0,0,0,0,0,-1,1686,386,0,0
469,638,0,0,0,0,0,0,0,0,0,-1,1693,386,0,0
476,638,0,0,0,0,0,0,0,0,0,-1,1700,386,0,0
483,638,0,0,0,0,0,0,0,0,0,-1,1707,386,0,0
490,638,0,0,0,0,0,0,0,0,0,-1,1714,386,0,0
497,638,0,0,0,0,0,0,0,0,0,-1,1721,386,0,0
504,638,0,0,0,0,0,0,0,0,0,-1,1728,386,0,0
511,638,0,0,0,0,0,0,0,0,0,-1,1735,386,0,0
518,638,0,0,0,0,0,0,0,0,0,-1,1742,386,0,0
525,638,0,0,0,0,0,0,0,0,0,-1,1749,386,0,0
532,638,0,0,0,0,0,0,0,0,0,-1,1756,386,0,0
539,638,0,0,0,0,0,0,0,0,0,-1,1763,386,0,0
546,638,0,0,0,0,0,0,0,0,0,-1,1770,386,0,0
553,638,0,0,0,0,0,0,0,0,0,-1,1777,386,0,0
560,638,0,0,0,0,0,0,0,0,0,-1,1784,386,0,0
567,638,0,0,0,0,0,0,0,0,0,-1,1791,386,0,0
574,638,0,0,0,0,0,0,0,0,0,-1,1798,386,0,0
581,638,0,0,0,0,0,0,0,0,0,-1,1805,386,0,0
588,638,0,0,0,0,0,0,0,0,0,-1,1812,386,0,0
595,638,0,0,0,0,0,0,0,0,0,-1,1819,386,0,0
602,638,0,0,0,0,0,0,0,0,0,-1,1826,386,0,0
609,638,0,0,0,0,0,0,0,0,0,-1,1833,386,0,0
616,638,0,0,0,0,0,0,0,0,0,-1,1840,386,0,0
623,638,0,0,0,0,0,0,0,0,0,-1,1847,386,0,0
630,638,0,0,0,0,0,0,0,0,0,-1,1854,386,0,0
637,638,0,0,0,0,0,0,0,0,0,-1,1861,386,0,0
644,638,0,0,0,0,0,0,0,0,0,-1,1868,386,0,0
651,638,0,0,0,0,0,0,0,0,0,-1,1875,386,0,0
658,638,0,0,0,0,0,0,0,0,0,-1,1882,386,0,0
665,638,0,0,0,0,0,0,0,0,0,-1,1889,386,0,0
672,638,0,0,0,0,0,0,0,0,0,-1,1896,386,0,0
679,638,0,0,0,0,0,0,0,0,0,-1,1903,386,0,0
686,638,0,0,0,0,0,0,0,0,0,-1,1910,386,0,0
693,638,0,0,0,0,0,0,0,0,0,-1,1917,386,0,0
700,638,0,0,0,0,0,0,0,0,0,-1,1924,386,0,0
707,638,0,0,0,0,0,0,0,0,0,-1,1931,386,0,0
714,638,0,0,0,0,0,0,0,0,0,-1,1938,386,0,0
721,638,0,0,0,0,0,0,0,0,0,-1,1945,386,0,0
728,638,0,0,0,0,0,0,0,0,0,-1,1952,386,0,0
735,638,0,0,0,0,0,0,0,0,0,-1,1959,386,0,0
742,638,0,0,0,0,0,0,0,0,0,-1,1966,386,0,0
749,638,0,0,0,0,0,0,0,0,0,-1,1973,386,0,0
756,638,0,0,0,0,0,0,0,0,0,-1,1980,386,0,0
763,638,0,0,0,0,0,0,0,0,0,-1,1987,386,0,0
770,638,0,0,0,0,0,0,0,0,0,-1,1994,386,0,0
777,638,0,0,0,0,0,0,0,0,0,-1,2001,386,0,0
784,638,0,0,0,0,0,0,0,0,0,-1,2008,386,0,0
791,638,0,0,0,0,0,0,0,0,0,-1,2015,386,0,0
798,638,0,0,0,0,0,0,0,0,0,-1,2022,386,0,0
805,638,0,0,0,0,0,0,0,0,0,-1,2029,386,0,0
812,638,0,0,0,0,0,0,0,0,0,-1,2036,386,0,0
-700,631,0,0,0,0,0,0,0,0,0,-1,524,393,0,0
-693,631,0,0,0,0,0,0,0,0,0,-1,531,393,0,0
-686,631,0,0,0,0,0,0,0,0,0,-1,538,393,0,0
-679,631,0,0,0,0,0,0,0,0,0,-1,545,393,0,0
-672,631,0,0,0,0,0,0,0,0,0,-1,552,393,0,0
-665,631,0,0,0,0,0,0,0,0,0,-1,559,393,0,0
-658,631,0,0,0,0,0,0,0,0,0,-1,566,393,0,0
-651,631,0,0,0,0,0,0,0,0,0,-1,573,393,0,0
-644,631,0,0,0,0,0,0,0,0,0,-1,580,393,0,0
-637,631,0,0,0,0,0,0,0,0,0,-1,587,393,0,0
-630,631,0,0,0,0,0,0,0,0,0,-1,594,393,0,0
-623,631,0,0,0,0,0,0,0,0,0,-1,601,393,0,0
-616,631,0,0,0,0,0,0,0,0,0,-1,608,393,0,0
-609,631,0,0,0,0,0,0,0,0,0,-1,615,393,0,0
-602,631,0,0,0,0,0,0,0,0,0,-1,622,393,0,0
-595,631,0,0,0,0,0,0,0,0,0,-1,629,393,0,0
-588,631,0,0,0,0,0,0,0,0,0,-1,636,393,0,0
-581,631,0,0,0,0,0,0,0,0,0,-1,643,393,0,0
-574,631,0,0,0,0,0,0,0,0,0,-1,650,393,0,0
-567,631,0,0,0,0,0,0,0,0,0,-1,657,393,0,0
-560,631,0,0,0,0,0,0,0,0,0,-1,664,393,0,0
-553,631,0,0,0,0,0,0,0,0,0,-1,671,393,0,0
-546,631,0,0,0,0,0,0,0,0,0,-1,678,393,0,0
-539,631,0,0,0,0,0,0,0,0,0,-1,685,393,0,0
-532,631,0,0,0,0,0,0,0,0,0,-1,692,393,0,0
-525,631,0,0,0,0,0,0,0,0,0,-1,699,393,0,0
-518,631,0,0,0,0,0,0,0,0,0,-1,706,393,0,0
-511,631,0,0,0,0,0,0,0,0,0,-1,713,393,0,0
-504,631,0,0,0,0,0,0,0,0,0,-1,720,393,0,0
-497,631,0,0,0,0,0,0,0,0,0,-1,727,393,0,0
-490,631,0,0,0,0,0,0,0,0,0,-1,734,393,0,0
-483,631,0,0,0,0,0,0,0,0,0,-1,741,393,0,0
-476,631,0,0,0,0,0,0,0,0,0,-1,748,393,0,0
-469,631,0,0,0,0,0,0,0,0,0,-1,755,393,0,0
-462,631,0,0,0,0,0,0,0,0,0,-1,762,393,0,0
-455,631,0,0,0,0,0,0,0,0,0,-1,769,393,0,0
-448,631,0,0,0,0,0,0,0,0,0,-1,776,393,0,0
-441,631,0,0,0,0,0,0,0,0,0,-1,783,393,0,0
-434,631,0,0,0,0,0,0,0,0,0,-1,790,393,0,0
-427,631,0,0,0,0,0,0,0,0,0,-1,797,393,0,0
-420,631,0,0,0,0,0,0,0,0,0,-1,804,393,0,0
-413,631,0,0,0,0,0,0,0,0,0,-1,811,393,0,0
-406,631,0,0,0,0,0,0,0,0,0,-1,818,393,0,0
-399,631,0,0,0,0,0,0,0,0,0,-1,825,393,0,0
-392,631,0,0,0,0,0,0,0,0,0,-1,832,393,0,0
-385,631,0,0,0,0,0,0,0,0,0,-1,839,393,0,0
-378,631,0,0,0,0,0,0,0,0,0,-1,846,393,0,0
-371,631,0,0,0,0,0,0,0,0,0,-1,853,393,0,0
-364,631,0,0,0,0,0,0,0,0,0,-1,860,393,0,0
-357,631,0,0,0,0,0,0,0,0,0,-1,867,393,0,0
-350,631,0,0,0,0,0,0,0,0,0,-1,874,393,0,0
-343,631,0,0,0,0,0,0,0,0,0,-1,881,393,0,0
-336,631,0,0,0,0,0,0,0,0,0,-1,888,393,0,0
-329,631,0,0,0,0,0,0,0,0,0,-1,895,393,0,0
-322,631,0,0,0,0,0,0,0,0,0,-1,902,393,0,0
-315,631,0,0,0,0,0,0,0,0,0,-1,909,393,0,0
-308,631,0,0,0,0,0,0,0,0,0,-1,916,393,0,0
-301,631,0,0,0,0,0,0,0,0,0,-1,923,393,0,0
-294,631,0,0,0,0,0,0,0,0,0,-1,930,393,0,0
-287,631,0,0,0,0,0,0,0,0,0,-1,937,393,0,0
-280,631,1.02759,-14.3235,0,0,0,0,0,0,0,-1,944,393,1.02761,14.3235
-273,631,3.12531,-25.4045,0,0,0,0,0,0,0,-1,951,393,3.12531,25.4045
-266,631,4.95123,-25.876,0,0,0,0,0,0,0,-1,958,393,4.95123,25.876
-259,631,6.86334,-26.3179,0,0,0,0,0,0,0,-1,965,393,6.86332,26.3179
-252,631,8.73389,-26.7964,0,0,0,0,0,0,0,-1,972,393,8.7339,26.7964
-245,631,4.06909,-25.853,0,0,0,0,0,0,0,-1,979,393,4.06911,25.853
-238,631,3.05438,-25.4099,0,0,0,0,0,0,0,-1,986,393,3.0544,25.4099
-231,631,2.14966,-25.2306,0,0,0,0,0,0,0,-1,993,393,2.14968,25.2306
-224,631,6.83575,-19.7909,0,0,0,0,0,0,0,-1,1000,393,6.83575,19.7909
-217,631,5.05188,-18.3867,0,0,0,0,0,0,0,-1,1007,393,5.0519,18.3866
-210,631,3.37842,-26.3769,0,0,0,0,0,0,0,-1,1014,393,3.37839,26.3769
-203,631,4.99133,-24.6235,0,0,0,0,0,0,0,-1,1021,393,4.99134,24.6235
-196,631,4.93567,-26.3207,0,0,0,0,0,0,0,-1,1028,393,4.93571,26.3207
-189,631,4.58472,-26.6564,0,0,0,0,0,0,0,-1,1035,393,4.58471,26.6564
-182,631,4.78906,-27.5085,0,0,0,0,0,0,0,-1,1042,393,4.78911,27.5084
-175,631,4.78052,-27.8919,0.012792,-0.0158722,-0.00331308,0.0131699,-0.0162502,-0.113587,0.0170167,0.0375264,1049,393,4.78054,27.8919
-168,631,4.68103,-28.2673,0.0101561,-0.0146336,-0.00145721,0.0102415,-0.0147189,-0.0585141,0.014488,0.0205688,1056,393,4.68105,28.2673
-161,631,4.59473,-28.6574,0.00770262,-0.012842,0.000172609,0.00770407,-0.0128435,0.00840085,0.0119862,0.0104979,1063,393,4.5947,28.6574
-154,631,4.56897,-29.0182,0.00531059,-0.0102953,0.00139639,0.00543455,-0.0104193,0.0885414,0.00930279,0.0107429,1070,393,4.56897,29.0182
-147,631,4.55139,-29.3229,0.00312057,-0.00765043,0.00239882,0.00363066,-0.00816052,0.20952,0.00697308,0.0115353,1077,393,4.55139,29.3229
-140,631,4.5249,-29.6271,0.00145998,-0.0052527,0.00322026,0.00275499,-0.00654772,0.382354,0.00551771,0.0102502,1084,393,4.52495,29.6271
-133,631,4.47937,-29.9268,7.48525e-05,-0.00291828,0.00389143,0.00274757,-0.00559101,0.601827,0.00490669,0.00892656,1091,393,4.47931,29.9268
-126,631,4.4729,-30.2203,-0.000971888,-0.000857466,0.00428677,0.00337247,-0.00520183,0.792071,0.00498779,0.0128971,1098,393,4.47288,30.2203
-119,631,4.45093,-30.4984,-0.00226881,0.00139003,0.00464408,0.00455203,-0.0054308,0.973028,0.00577103,0.0162749,1105,393,4.45089,30.4984
-112,631,4.43396,-30.7806,-0.00262181,0.00344741,0.00465823,0.00597229,-0.0051467,1.0741,0.00642545,0.0150617,1112,393,4.43398,30.7806
-105,631,4.46338,-31.0534,-0.00241108,0.0041677,0.00409252,0.00612891,-0.00437229,1.12391,0.00609108,0.0194408,1119,393,4.46342,31.0534
-98,631,4.41528,-31.3123,-0.00219659,0.00430221,0.00347892,0.00581322,-0.0037076,1.16105,0.00554147,0.016394,1126,393,4.41527,31.3123
-91,631,4.37195,-31.5557,-0.00178038,0.00435689,0.00292943,0.00553067,-0.00295416,1.1897,0.00497344,0.0176303,1133,393,4.37192,31.5557
-84,631,4.35559,-31.7911,-0.00140828,0.0039777,0.00237313,0.00487413,-0.00230471,1.20962,0.00423227,0.0174268,1140,393,4.35562,31.7911
-77,631,4.32617,-32.0342,-0.00123638,0.00360243,0.00177763,0.00418527,-0.00181922,1.25397,0.00355527,0.0122279,1147,393,4.32616,32.0342
-70,631,4.32922,-32.2445,-0.00107343,0.00332936,0.00105275,0.00356814,-0.0013122,1.34776,0.00291628,0.0130773,1154,393,4.32924,32.2445
-63,631,4.33276,-32.4611,-0.000947168,0.00328872,0.000360809,0.00331923,-0.000977682,1.48643,0.00260071,0.0133374,1161,393,4.33278,32.4611
-56,631,4.30762,-32.6925,-0.000794673,0.00285589,-7.6675e-05,0.0028575,-0.000796283,-1.54981,0.00221858,0.0140883,1168,393,4.30764,32.6925
-49,631,4.30469,-32.8638,-0.000589442,0.0020376,-3.10395e-05,0.00203797,-0.000589808,-1.55898,0.00159209,0.0112161,1175,393,4.30469,32.8638
-42,631,4.31018,-33.0214,2.25589e-05,0.00117911,-0.000250338,0.00123097,-2.93019e-05,-1.36652,0.000830585,0.00936583,1182,393,4.3102,33.0214
-35,631,4.31091,-33.1799,0.000626698,0.000324325,-0.000471679,0.000970828,-1.98047e-05,-0.630307,0.00065392,0.010362,1189,393,4.31086,33.1799
-28,631,4.30811,-33.3226,0.00111459,-0.000598788,-0.000913817,0.00151049,-0.000994688,-0.408827,0.00145655,0.0131934,1196,393,4.30816,33.3226
-21,631,4.30212,-33.4563,0.00162264,-0.00159701,-0.00152511,0.00223035,-0.00220473,-0.379191,0.00256061,0.0114418,1203,393,4.30207,33.4563
-14,631,4.29749,-33.5923,0.00204136,-0.00256466,-0.00224488,0.00295446,-0.00347775,-0.386309,0.00371773,0.0133355,1210,393,4.29751,33.5924
-7,631,4.30408,-33.7633,0.00234377,-0.00350303,-0.00292068,0.00355276,-0.00471203,-0.392467,0.0047873,0.0204259,1217,393,4.30412,33.7633
0,631,4.29053,-33.8457,0.00246366,-0.00435149,-0.00344511,0.00390174,-0.00578957,-0.395438,0.00563055,0.0243811,1224,393,4.29049,33.8457
7,631,4.29956,-33.9182,0.00236287,-0.00497534,-0.00374445,0.0039362,-0.00654868,-0.39778,0.00611577,0.0190628,1231,393,4.29953,33.9182
14,631,4.33008,-34.0236,0.00195191,-0.00519493,-0.00373558,0.00354801,-0.00679103,-0.403791,0.00606634,0.010018,1238,393,4.33003,34.0236
21,631,4.34338,-34.1009,0.00137041,-0.00498897,-0.00343487,0.00287141,-0.00648996,-0.411979,0.00553774,0.0125253,1245,393,4.34334,34.1008
28,631,4.35876,-34.125,0.000831087,-0.00451117,-0.00304235,0.00220851,-0.0058886,-0.42514,0.00483314,0.0147477,1252,393,4.35881,34.125
35,631,4.39307,-34.1538,0.000266096,-0.00395776,-0.00236316,0.00132352,-0.00501518,-0.42074,0.003861,0.0144517,1259,393,4.39304,34.1538
42,631,4.42554,-34.1985,-9.57712e-05,-0.00320537,-0.00161605,0.000591977,-0.00389312,-0.402356,0.00281357,0.0128011,1266,393,4.42556,34.1985
49,631,4.42676,-34.2327,-0.000403499,-0.00225777,-0.000937124,-1.23861e-05,-0.00264889,-0.395377,0.00176181,0.0114141,1273,393,4.42679,34.2327
56,631,4.43286,-34.26,-0.00063353,-0.00145751,-0.000368102,-0.000493039,-0.001598,-0.364599,0.000944883,0.0132065,1280,393,4.43288,34.26
63,631,4.42993,-34.2866,-0.00104575,-0.000738207,0.000428897,-0.000436349,-0.00134761,0.957523,0.000793982,0.0156047,1287,393,4.42997,34.2865
70,631,4.42578,-34.2499,-0.00119231,-0.000518032,0.000801198,1.40718e-05,-0.00172441,0.984549,0.00115433,0.0157323,1294,393,4.42578,34.2499
77,631,4.4342,-34.194,-0.000843855,-0.00038414,0.00094279,0.000356409,-0.0015844,0.904968,0.00119295,0.0159374,1301,393,4.43426,34.194
84,631,4.46045,-34.1563,-0.000498225,-0.000420739,0.000883962,0.000425328,-0.00134429,0.807299,0.00106662,0.0135943,1308,393,4.46043,34.1563
91,631,4.47827,-34.0829,-0.000351017,-0.000757946,0.000716499,0.000190347,-0.00129931,0.647055,0.000936128,0.0155356,1315,393,4.4783,34.0829
98,631,4.49255,-34.0245,-0.0003129,-0.00111492,0.000476067,-9.14556e-05,-0.00133636,0.435384,0.000862042,0.0128474,1322,393,4.49261,34.0245
105,631,4.4729,-33.9631,-0.000145895,-0.00127072,0.000139742,-0.000128794,-0.00128782,0.121768,0.000818999,0.0108511,1329,393,4.47285,33.9631
112,631,4.49695,-33.8755,9.53249e-05,-0.00135928,-0.000232139,0.000131473,-0.00139542,-0.154479,0.000977061,0.0113191,1336,393,4.49692,33.8755
119,631,4.50684,-33.7823,0.000410192,-0.00147869,-0.000562428,0.000564975,-0.00163348,-0.268557,0.0013183,0.0122259,1343,393,4.50688,33.7822
126,631,4.51465,-33.6448,0.000659296,-0.00143106,-0.000845522,0.000958479,-0.00173024,-0.340095,0.0015735,0.0174942,1350,393,4.51461,33.6448
133,631,4.50574,-33.5234,0.000692362,-0.00102265,-0.000846344,0.00103969,-0.00136997,-0.389424,0.00139557,0.0188403,1357,393,4.50572,33.5234
140,631,4.48621,-33.4209,0.00076325,-0.000404731,-0.000876232,0.00123227,-0.000873749,-0.491462,0.00122177,0.0194355,1364,393,4.48619,33.4209
147,631,4.46179,-33.251,0.000737997,0.000188266,-0.000745593,0.00125778,-0.000331513,-0.608801,0.00096813,0.0222393,1371,393,4.46181,33.251
154,631,4.46301,-33.0734,0.000843442,0.000732806,-0.000563378,0.00135421,0.000222037,-0.73646,0.000838651,0.0214328,1378,393,4.46304,33.0734
161,631,4.54675,-32.875,0.000945379,0.00145917,-0.00036301,0.00164699,0.000757559,-1.09333,0.000951903,0.0230249,1385,393,4.54678,32.875
168,631,4.5802,-32.6805,0.00085985,0.00209107,-0.000179818,0.0021168,0.000834125,-1.4287,0.00123125,0.026929,1392,393,4.58021,32.6805
175,631,4.57483,-32.4897,0.000724155,0.00263815,-2.05056e-05,0.00263837,0.000723936,-1.56008,0.00157411,0.0211,1399,393,4.57489,32.4897
182,631,4.55261,-32.3205,0.000385541,0.00282276,0.000262201,0.00285065,0.000357652,1.46483,0.00179315,0.0121058,1406,393,4.55263,32.3205
189,631,4.53711,-32.0749,2.2305e-05,0.00301003,0.000600425,0.00312618,-9.38436e-05,1.37971,0.00211609,0.0112443,1413,393,4.53716,32.0749
196,631,4.5061,-31.8377,-0.000262857,0.00304294,0.000847413,0.00324751,-0.000467426,1.33392,0.00233645,0.0110743,1420,393,4.50605,31.8377
203,631,4.51819,-31.6166,-0.000497442,0.00318256,0.0010359,0.00345412,-0.000769004,1.31442,0.00259731,0.0127747,1427,393,4.51819,31.6166
210,631,4.52356,-31.3902,-0.000902109,0.00338501,0.00116661,0.0036819,-0.00119901,1.32159,0.00293702,0.015135,1434,393,4.52356,31.3902
217,631,4.51819,-31.1436,-0.00124439,0.00382523,0.00129686,0.00413772,-0.00155688,1.33435,0.00339847,0.0165521,1441,393,4.51819,31.1437
224,631,4.49744,-30.8477,-0.00139542,0.00443682,0.00146996,0.00478636,-0.00174496,1.33734,0.00390476,0.013576,1448,393,4.49739,30.8477
231,631,4.44714,-30.5455,-0.00143877,0.00518494,0.001805,0.00564487,-0.0018987,1.32129,0.00453076,0.0110393,1455,393,4.44716,30.5455
238,631,4.44116,-30.2404,-0.00133522,0.00636366,0.00236239,0.00703075,-0.00200232,1.29558,0.00547798,0.0161056,1462,393,4.44121,30.2404
245,631,4.43005,-29.9282,-0.00135512,0.00751954,0.00274136,0.00829805,-0.00213363,1.2941,0.00636361,0.0177857,1469,393,4.43007,29.9282
252,631,4.39563,-29.6325,-0.00123367,0.00876445,0.00317499,0.00968749,-0.0021567,1.28788,0.00728443,0.0174604,1476,393,4.39568,29.6325
259,631,4.35376,-29.3167,-0.00089588,0.0101727,0.00385407,0.0113824,-0.00210564,1.26664,0.00837882,0.0129053,1483,393,4.35382,29.3167
266,631,4.34009,-29.0025,-0.000607226,0.0114165,0.00447185,0.0128973,-0.00208802,1.25102,0.00937208,0.0113668,1490,393,4.34006,29.0025
273,631,4.31909,-28.66,0.00135119,0.011611,0.0059255,0.0143186,-0.00135648,1.14218,0.0100285,0.0140977,1497,393,4.31911,28.66
280,631,4.30835,-28.301,0.0029761,0.012414,0.00721994,0.0163204,-0.000930255,1.07485,0.0112032,0.0128845,1504,393,4.3084,28.301
287,631,4.26563,-27.9128,0.00518094,0.0127414,0.00873043,0.0184749,-0.000552536,0.989709,0.0125048,0.0138359,1511,393,4.26562,27.9128
294,631,4.20276,-27.4823,0.00768577,0.0125357,0.010385,0.0207752,-0.000553666,0.900096,0.0140383,0.0176958,1518,393,4.20273,27.4823
301,631,4.16052,-27.0402,0.0105966,0.0118609,0.0121335,0.0233787,-0.000921196,0.811424,0.0159018,0.0258254,1525,393,4.16052,27.0401
308,631,4.41187,-26.5297,0.0140877,0.0108539,0.0140529,0.0266164,-0.00167482,0.728121,0.0183281,0.0380765,1532,393,4.4119,26.5297
315,631,4.57336,-26.8045,0,0,0,0,0,0,0,-1,1539,393,4.57338,26.8045
322,631,4.17786,-26.3054,0,0,0,0,0,0,0,-1,1546,393,4.17792,26.3054
329,631,3.78247,-25.8063,0,0,0,0,0,0,0,-1,1553,393,3.78245,25.8063
336,631,4.97119,-25.2164,0,0,0,0,0,0,0,-1,1560,393,4.97118,25.2164
343,631,5.24622,-24.8675,0,0,0,0,0,0,0,-1,1567,393,5.24616,24.8675
350,631,2.1344,-9.23401,0,0,0,0,0,0,0,-1,1574,393,2.13439,9.23401
357,631,2.6449,-9.60303,0,0,0,0,0,0,0,-1,1581,393,2.64491,9.60304
364,631,3.39136,-5.7594,0,0,0,0,0,0,0,-1,1588,393,3.39137,5.75939
371,631,3.72839,-6.0574,0,0,0,0,0,0,0,-1,1595,393,3.72845,6.05742
378,631,4.06555,-6.35544,0,0,0,0,0,0,0,-1,1602,393,4.06553,6.35544
385,631,3.90442,-3.58298,0,0,0,0,0,0,0,-1,1609,393,3.90437,3.58299
392,631,0.352295,-2.21301,0,0,0,0,0,0,0,-1,1616,393,0.352345,2.213
399,631,0,0,0,0,0,0,0,0,0,-1,1623,393,0,0
406,631,0,0,0,0,0,0,0,0,0,-1,1630,393,0,0
413,631,0,0,0,0,0,0,0,0,0,-1,1637,393,0,0
420,631,0,0,0,0,0,0,0,0,0,-1,1644,393,0,0
427,631,0,0,0,0,0,0,0,0,0,-1,1651,393,0,0
434,631,0,0,0,0,0,0,0,0,0,-1,1658,393,0,0
441,631,0,0,0,0,0,0,0,0,0,-1,1665,393,0,0
448,631,0,0,0,0,0,0,0,0,0,-1,1672,393,0,0
455,631,0,0,0,0,0,0,0,0,0,-1,1679,393,0,0
462,631,0,0,0,0,0,0,0,0,0,-1,1686,393,0,0
469,631,0,0,0,0,0,0,0,0,0,-1,1693,393,0,0
476,631,0,0,0,0,0,0,0,0,0,-1,1700,393,0,0
483,631,0,0,0,0,0,0,0,0,0,-1,1707,393,0,0
490,631,0,0,0,0,0,0,0,0,0,-1,1714,393,0,0
497,631,0,0,0,0,0,0,0,0,0,-1,1721,393,0,0
504,631,0,0,0,0,0,0,0,0,0,-1,1728,393,0,0
511,631,0,0,0,0,0,0,0,0,0,-1,1735,393,0,0
518,631,0,0,0,0,0,0,0,0,0,-1,1742,393,0,0
525,631,0,0,0,0,0,0,0,0,0,-1,1749,393,0,0
532,631,0,0,0,0,0,0,0,0,0,-1,1756,393,0,0
539,631,0,0,0,0,0,0,0,0,0,-1,1763,393,0,0
546,631,0,0,0,0,0,0,0,0,0,-1,1770,393,0,0
553,631,0,0,0,0,0,0,0,0,0,-1,1777,393,0,0
560,631,0,0,0,0,0,0,0,0,0,-1,1784,393,0,0
567,631,0,0,0,0,0,0,0,0,0,-1,1791,393,0,0
574,631,0,0,0,0,0,0,0,0,0,-1,1798,393,0,0
581,631,0,0,0,0,0,0,0,0,0,-1,1805,393,0,0
588,631,0,0,0,0,0,0,0,0,0,-1,1812,393,0,0
595,631,0,0,0,0,0,0,0,0,0,-1,1819,393,0,0
602,631,0,0,0,0,0,0,0,0,0,-1,1826,393,0,0
609,631,0,0,0,0,0,0,0,0,0,-1,1833,393,0,0
616,631,0,0,0,0,0,0,0,0,0,-1,1840,393,0,0
623,631,0,0,0,0,0,0,0,0,0,-1,1847,393,0,0
630,631,0,0,0,0,0,0,0,0,0,-1,1854,393,0,0
637,631,0,0,0,0,0,0,0,0,0,-1,1861,393,0,0
644,631,0,0,0,0,0,0,0,0,0,-1,1868,393,0,0
651,631,0,0,0,0,0,0,0,0,0,-1,1875,393,0,0
658,631,0,0,0,0,0,0,0,0,0,-1,1882,393,0,0
665,631,0,0,0,0,0,0,0,0,0,-1,1889,393,0,0
672,631,0,0,0,0,0,0,0,0,0,-1,1896,393,0,0
679,631,0,0,0,0,0,0,0,0,0,-1,1903,393,0,0
686,631,0,0,0,0,0,0,0,0,0,-1,1910,393,0,0
693,631,0,0,0,0,0,0,0,0,0,-1,1917,393,0,0
700,631,0,0,0,0,0,0,0,0,0,-1,1924,393,0,0
707,631,0,0,0,0,0,0,0,0,0,-1,1931,393,0,0
714,631,0,0,0,0,0,0,0,0,0,-1,1938,393,0,0
721,631,0,0,0,0,0,0,0,0,0,-1,1945,393,0,0
728,631,0,0,0,0,0,0,0,0,0,-1,1952,393,0,0
735,631,0,0,0,0,0,0,0,0,0,-1,1959,393,0,0
742,631,0,0,0,0,0,0,0,0,0,-1,1966,393,0,0
749,631,0,0,0,0,0,0,0,0,0,-1,1973,393,0,0
756,631,0,0,0,0,0,0,0,0,0,-1,1980,393,0,0
763,631,0,0,0,0,0,0,0,0,0,-1,1987,393,0,0
770,631,0,0,0,0,0,0,0,0,0,-1,1994,393,0,0
777,631,0,0,0,0,0,0,0,0,0,-1,2001,393,0,0
784,631,0,0,0,0,0,0,0,0,0,-1,2008,393,0,0
791,631,0,0,0,0,0,0,0,0,0,-1,2015,393,0,0
798,631,0,0,0,0,0,0,0,0,0,-1,2022,393,0,0
805,631,0,0,0,0,0,0,0,0,0,-1,2029,393,0,0
812,631,0,0,0,0,0,0,0,0,0,-1,2036,393,0,0
-700,624,0,0,0,0,0,0,0,0,0,-1,524,400,0,0
-693,624,0,0,0,0,0,0,0,0,0,-1,531,400,0,0
-686,624,0,0,0,0,0,0,0,0,0,-1,538,400,0,0
-679,624,0,0,0,0,0,0,0,0,0,-1,545,400,0,0
-672,624,0,0,0,0,0,0,0,0,0,-1,552,400,0,0
-665,624,0,0,0,0,0,0,0,0,0,-1,559,400,0,0
-658,624,0,0,0,0,0,0,0,0,0,-1,566,400,0,0
-651,624,0,0,0,0,0,0,0,0,0,-1,573,400,0,0
-644,624,0,0,0,0,0,0,0,0,0,-1,580,400,0,0
-637,624,0,0,0,0,0,0,0,0,0,-1,587,400,0,0
-630,624,0,0,0,0,0,0,0,0,0,-1,594,400,0,0
-623,624,0,0,0,0,0,0,0,0,0,-1,601,400,0,0
-616,624,0,0,0,0,0,0,0,0,0,-1,608,400,0,0
-609,624,0,0,0,0,0,0,0,0,0,-1,615,400,0,0
-602,624,0,0,0,0,0,0,0,0,0,-1,622,400,0,0
-595,624,0,0,0,0,0,0,0,0,0,-1,629,400,0,0
-588,624,0,0,0,0,0,0,0,0,0,-1,636,400,0,0
-581,624,0,0,0,0,0,0,0,0,0,-1,643,400,0,0
-574,624,0,0,0,0,0,0,0,0,0,-1,650,400,0,0
-567,624,0,0,0,0,0,0,0,0,0,-1,657,400,0,0
-560,624,0,0,0,0,0,0,0,0,0,-1,664,400,0,0
-553,624,0,0,0,0,0,0,0,0,0,-1,671,400,0,0
-546,624,0,0,0,0,0,0,0,0,0,-1,678,400,0,0
-539,624,0,0,0,0,0,0,0,0,0,-1,685,400,0,0
-532,624,0,0,0,0,0,0,0,0,0,-1,692,400,0,0
-525,624,0,0,0,0,0,0,0,0,0,-1,699,400,0,0
-518,624,0,0,0,0,0,0,0,0,0,-1,706,400,0,0
-511,624,0,0,0,0,0,0,0,0,0,-1,713,400,0,0
-504,624,0,0,0,0,0,0,0,0,0,-1,720,400,0,0
-497,624,0,0,0,0,0,0,0,0,0,-1,727,400,0,0
-490,624,0,0,0,0,0,0,0,0,0,-1,734,400,0,0
-483,624,0,0,0,0,0,0,0,0,0,-1,741,400,0,0
-476,624,0,0,0,0,0,0,0,0,0,-1,748,400,0,0
-469,624,0,0,0,0,0,0,0,0,0,-1,755,400,0,0
-462,624,0,0,0,0,0,0,0,0,0,-1,762,400,0,0
-455,624,0,0,0,0,0,0,0,0,0,-1,769,400,0,0
-448,624,0,0,0,0,0,0,0,0,0,-1,776,400,0,0
-441,624,0,0,0,0,0,0,0,0,0,-1,783,400,0,0
-434,624,0,0,0,0,0,0,0,0,0,-1,790,400,0,0
-427,624,0,0,0,0,0,0,0,0,0,-1,797,400,0,0
-420,624,0,0,0,0,0,0,0,0,0,-1,804,400,0,0
-413,624,0,0,0,0,0,0,0,0,0,-1,811,400,0,0
-406,624,0,0,0,0,0,0,0,0,0,-1,818,400,0,0
-399,624,0,0,0,0,0,0,0,0,0,-1,825,400,0,0
-392,624,0,0,0,0,0,0,0,0,0,-1,832,400,0,0
-385,624,0,0,0,0,0,0,0,0,0,-1,839,400,0,0
-378,624,0,0,0,0,0,0,0,0,0,-1,846,400,0,0
-371,624,0,0,0,0,0,0,0,0,0,-1,853,400,0,0
-364,624,0,0,0,0,0,0,0,0,0,-1,860,400,0,0
-357,624,0,0,0,0,0,0,0,0,0,-1,867,400,0,0
-350,624,0,0,0,0,0,0,0,0,0,-1,874,400,0,0
-343,624,0,0,0,0,0,0,0,0,0,-1,881,400,0,0
-336,624,0,0,0,0,0,0,0,0,0,-1,888,400,0,0
-329,624,0,0,0,0,0,0,0,0,0,-1,895,400,0,0
-322,624,0,0,0,0,0,0,0,0,0,-1,902,400,0,0
-315,624,0,0,0,0,0,0,0,0,0,-1,909,400,0,0
-308,624,0,0,0,0,0,0,0,0,0,-1,916,400,0,0
-301,624,0,0,0,0,0,0,0,0,0,-1,923,400,0,0
-294,624,10.6271,-28.4093,0,0,0,0,0,0,0,-1,930,400,10.6271,28.4093
-287,624,0.12146,-15.0862,0,0,0,0,0,0,0,-1,937,400,0.121451,15.0862
-280,624,1.61359,-14.553,0,0,0,0,0,0,0,-1,944,400,1.6136,14.553
-273,624,2.92303,-24.3356,0,0,0,0,0,0,0,-1,951,400,2.92306,24.3356
-266,624,4.62988,-24.8541,0,0,0,0,0,0,0,-1,958,400,4.62991,24.8541
-259,624,6.30719,-25.3577,0,0,0,0,0,0,0,-1,965,400,6.30719,25.3577
-252,624,7.96606,-26.0403,0,0,0,0,0,0,0,-1,972,400,7.96608,26.0403
-245,624,4.72278,-25.3516,0,0,0,0,0,0,0,-1,979,400,4.72279,25.3516
-238,624,4.08038,-25.0565,0,0,0,0,0,0,0,-1,986,400,4.0804,25.0565
-231,624,4.95148,-20.7456,0,0,0,0,0,0,0,-1,993,400,4.95146,20.7456
-224,624,3.2287,-22.9566,0,0,0,0,0,0,0,-1,1000,400,3.22873,22.9566
-217,624,4.68689,-25.2181,0,0,0,0,0,0,0,-1,1007,400,4.68687,25.2181
-210,624,4.46136,-25.9052,0,0,0,0,0,0,0,-1,1014,400,4.46138,25.9052
-203,624,4.43311,-26.3327,0,0,0,0,0,0,0,-1,1021,400,4.43306,26.3327
-196,624,4.54333,-26.5745,0.0103087,-0.00494323,-0.00605636,0.0124211,-0.00705558,-0.335589,0.0113862,0.0434585,1028,400,4.54334,26.5745
-189,624,4.32141,-26.9589,0.00945986,-0.00622275,-0.00509463,0.0109696,-0.00773245,-0.288088,0.0108514,0.0411248,1035,400,4.32136,26.9589
-182,624,4.39709,-27.4236,0.00892026,-0.00744918,-0.00432228,0.00999144,-0.00852037,-0.242934,0.010699,0.034114,1042,400,4.39706,27.4236
-175,624,4.45496,-27.9266,0.00794159,-0.00817116,-0.00320243,0.00855475,-0.00878431,-0.189176,0.010011,0.02083,1049,400,4.45493,27.9266
-168,624,4.36597,-28.312,0.00658342,-0.0080853,-0.00210577,0.00687973,-0.00838161,-0.139795,0.00882535,0.0138201,1056,400,4.36592,28.312
-161,624,4.29688,-28.7014,0.00521532,-0.00752819,-0.00105456,0.005302,-0.00761487,-0.0820096,0.0074973,0.0110021,1063,400,4.2969,28.7014
-154,624,4.28064,-29.0244,0.00381208,-0.00625874,-0.000300676,0.00382105,-0.00626771,-0.0298208,0.00588156,0.0108761,1070,400,4.28063,29.0244
-147,624,4.27002,-29.3432,0.00247822,-0.00479033,0.000257773,0.00248735,-0.00479946,0.0354049,0.00427705,0.0119843,1077,400,4.27,29.3432
-140,624,4.2406,-29.6447,0.00148738,-0.00341447,0.000695522,0.00158416,-0.00351125,0.138255,0.00301115,0.0105962,1084,400,4.24064,29.6447
-133,624,4.20837,-29.9448,0.000617727,-0.00197433,0.00106609,0.000999865,-0.00235647,0.34418,0.00198984,0.0115903,1091,400,4.20842,29.9448
-126,624,4.2052,-30.2285,-6.19121e-05,-0.000633757,0.00127163,0.000955547,-0.00165122,0.674814,0.00152277,0.0129511,1098,400,4.20516,30.2285
-119,624,4.19092,-30.5157,-0.000900646,0.000929209,0.0014818,0.00175578,-0.00172722,1.06197,0.00201093,0.015519,1105,400,4.19096,30.5156
-112,624,4.17371,-30.7736,-0.00106165,0.00233479,0.00146936,0.00288223,-0.00160908,1.21416,0.00262756,0.0182476,1112,400,4.17366,30.7736
-105,624,4.17419,-31.0518,-0.000873487,0.00281927,0.00114383,0.00314486,-0.00119908,1.29348,0.00259049,0.014002,1119,400,4.17422,31.0518
-98,624,4.14624,-31.3131,-0.000702494,0.00286729,0.000834586,0.00305277,-0.000887976,1.35211,0.00238688,0.0143409,1126,400,4.14621,31.3132
-91,624,4.15466,-31.5459,-0.000408811,0.00284696,0.000599102,0.00295371,-0.000515553,1.39448,0.00216158,0.0200221,1133,400,4.1547,31.5459
-84,624,4.16968,-31.7945,-0.000142909,0.00252404,0.000431907,0.00259224,-0.000211112,1.41418,0.00180266,0.0189525,1140,400,4.16964,31.7945
-77,624,4.15405,-32.049,1.67193e-05,0.00220438,0.000279673,0.00223957,-1.84682e-05,1.44564,0.00149924,0.0141628,1147,400,4.1541,32.049
-70,624,4.15405,-32.2385,0.000184118,0.00193098,0.000213438,0.00195668,0.000158418,1.45096,0.00125499,0.0141994,1154,400,4.15404,32.2385
-63,624,4.16052,-32.4414,0.000305096,0.00178726,-2.97926e-06,0.00178726,0.00030509,-1.56879,0.00110396,0.0160935,1161,400,4.16058,32.4414
-56,624,4.13489,-32.6718,0.000408848,0.0014755,-0.000299207,0.0015537,0.000330651,-1.31516,0.000945063,0.0131313,1168,400,4.13491,32.6718
-49,624,4.13574,-32.8617,0.000561013,0.000869807,-0.000414059,0.00115732,0.000273501,-0.963857,0.000698463,0.009744,1175,400,4.13569,32.8617
-42,624,4.14221,-33.0168,0.00182969,-0.000222999,-0.00181849,0.00289148,-0.00128479,-0.528485,0.00246993,0.00970293,1182,400,4.1422,33.0169
-35,624,4.15417,-33.1646,0.00263188,-0.00161559,-0.0027331,0.00396937,-0.00295307,-0.455105,0.00401101,0.0148918,1189,400,4.15421,33.1646
-28,624,4.15393,-33.3325,0.00295767,-0.00295781,-0.00379206,0.00480908,-0.00480923,-0.45419,0.00555313,0.0192534,1196,400,4.15394,33.3324
-21,624,4.16431,-33.4639,0.00316251,-0.0045195,-0.00499807,0.005625,-0.00698199,-0.45778,0.00729269,0.0135214,1203,400,4.16435,33.4639
-14,624,4.20166,-33.5892,0.00331627,-0.00589434,-0.00615882,0.00640121,-0.00897928,-0.464366,0.00892142,0.0137608,1210,400,4.20164,33.5892
-7,624,4.17444,-33.7,0.00338926,-0.00706184,-0.00711489,0.0069914,-0.010664,-0.46866,0.0102666,0.019261,1217,400,4.17439,33.6999
0,624,4.20667,-33.8111,0.00326073,-0.00811781,-0.00771014,0.00715342,-0.0120105,-0.467544,0.0111821,0.0216453,1224,400,4.20667,33.8111
7,624,4.20581,-33.9115,0.00281319,-0.00896795,-0.00793999,0.00680908,-0.0129638,-0.466254,0.0115988,0.0158204,1231,400,4.2058,33.9115
14,624,4.2616,-34.0389,0.00194857,-0.00939365,-0.00771112,0.00584944,-0.0132945,-0.468337,0.011328,0.0121912,1238,400,4.26164,34.0389
21,624,4.28076,-34.0983,0.000881547,-0.0093613,-0.00707363,0.00449312,-0.0129729,-0.472067,0.0104727,0.0129557,1245,400,4.28078,34.0983
28,624,4.28308,-34.1394,-7.95729e-05,-0.00907307,-0.00632847,0.00318707,-0.0123397,-0.476509,0.00946933,0.0119753,1252,400,4.28304,34.1394
35,624,4.31909,-34.1689,-0.00103966,-0.00874632,-0.0050629,0.00146948,-0.0112555,-0.460117,0.00803837,0.0149544,1259,400,4.31907,34.1689
42,624,4.37988,-34.2158,-0.00164735,-0.0083385,-0.00363689,-5.12828e-05,-0.00993457,-0.413547,0.00660602,0.0171852,1266,400,4.37993,34.2158
49,624,4.38318,-34.231,-0.0020611,-0.0078124,-0.00223968,-0.00129182,-0.00858168,-0.330853,0.00534283,0.0182641,1273,400,4.38313,34.231
56,624,4.41895,-34.2426,-0.00231222,-0.00745897,-0.0009903,-0.00212825,-0.00764294,-0.183678,0.00455475,0.0185701,1280,400,4.41891,34.2426
63,624,4.45227,-34.2519,-0.00276913,-0.00735112,0.00070855,-0.00266206,-0.00745818,0.149973,0.00436435,0.0152426,1287,400,4.45231,34.2519
70,624,4.47009,-34.2545,-0.00276557,-0.00787097,0.00188092,-0.00214745,-0.0084891,0.317511,0.00509668,0.0139883,1294,400,4.47014,34.2545
77,624,4.48035,-34.2029,-0.00199182,-0.00852365,0.00279565,-0.000958683,-0.00955679,0.353986,0.00607689,0.0152253,1301,400,4.4804,34.203
84,624,4.49988,-34.1671,-0.00121669,-0.00924531,0.00343448,5.20218e-05,-0.010514,0.353856,0.00702675,0.0136307,1308,400,4.49985,34.167
91,624,4.53247,-34.0998,-0.000705864,-0.0103381,0.00385066,0.000644262,-0.0116883,0.337229,0.00801556,0.0137171,1315,400,4.53241,34.0998
98,624,4.54736,-34.032,-0.000345837,-0.0114841,0.00403728,0.000963611,-0.0127935,0.313634,0.00886769,0.0133355,1322,400,4.54731,34.032
105,624,4.54651,-34.0044,0.000114232,-0.0121642,0.00383034,0.00121114,-0.0132611,0.278909,0.00927086,0.0137999,1329,400,4.54647,34.0044
112,624,4.58118,-33.9397,0.000658952,-0.0124786,0.00338059,0.00147782,-0.0132974,0.237648,0.00939638,0.0139648,1336,400,4.58121,33.9397
119,624,4.59448,-33.832,0.00126008,-0.0124934,0.00275678,0.00179208,-0.0130254,0.190635,0.00933843,0.0148358,1343,400,4.59449,33.832
126,624,4.59131,-33.6618,0.00168961,-0.0120754,0.00196656,0.00196506,-0.0123508,0.139159,0.00896099,0.0188215,1350,400,4.59129,33.6618
133,624,4.64014,-33.5039,0.00158592,-0.0108203,0.00134845,0.0017308,-0.0109651,0.107026,0.00795007,0.0189315,1357,400,4.6401,33.5039
140,624,4.62427,-33.3891,0.0015768,-0.00921919,0.000508268,0.00160067,-0.00924307,0.0469409,0.00675908,0.0176665,1364,400,4.6243,33.3891
147,624,4.56299,-33.2271,0.00140934,-0.00760691,-2.40191e-05,0.0014094,-0.00760697,-0.00266395,0.00560055,0.0227732,1371,400,4.56295,33.2271
154,624,4.63574,-33.0852,0.00142815,-0.00610263,-0.000431933,0.00145284,-0.00612732,-0.0571061,0.00464551,0.0267114,1378,400,4.63578,33.0852
161,624,4.74463,-32.9025,0.00154082,-0.00441947,-0.000706263,0.00162337,-0.00450201,-0.116348,0.00366436,0.0246037,1385,400,4.74458,32.9025
168,624,4.77539,-32.6905,0.00159824,-0.00283485,-0.000898721,0.0017735,-0.00301012,-0.192602,0.00279242,0.0233136,1392,400,4.77544,32.6905
175,624,4.77332,-32.5265,0.00176714,-0.00112941,-0.00100948,0.00208424,-0.00144652,-0.304364,0.00204954,0.017934,1399,400,4.77327,32.5265
182,624,4.7666,-32.3314,0.00144756,-0.000194398,-0.000828488,0.00179294,-0.00053978,-0.394975,0.00141009,0.010816,1406,400,4.76656,32.3314
189,624,4.75427,-32.0968,0.00119603,0.00059047,-0.000381553,0.00138034,0.000406159,-0.45,0.000819126,0.0102255,1413,400,4.7543,32.0968
196,624,4.72449,-31.859,0.0010346,0.00118755,4.74117e-05,0.00120106,0.00102109,1.29332,0.000747969,0.0108709,1420,400,4.72447,31.859
203,624,4.74536,-31.6078,0.000796598,0.00176396,0.000394451,0.00190441,0.000656149,1.22873,0.00111709,0.0134924,1427,400,4.74541,31.6078
210,624,4.76404,-31.3726,0.000371598,0.00229963,0.00071507,0.00253589,0.000135343,1.25169,0.00164733,0.0173487,1434,400,4.76407,31.3726
217,624,4.74683,-31.1132,1.7601e-05,0.00289116,0.000974965,0.00319073,-0.000281963,1.2727,0.0022271,0.0202815,1441,400,4.74678,31.1132
224,624,4.73621,-30.8391,-0.000190771,0.00345478,0.00120528,0.00381723,-0.00055322,1.27868,0.00274786,0.0163844,1448,400,4.73616,30.8391
231,624,4.73047,-30.571,-0.000319118,0.00408359,0.00153455,0.00456567,-0.000801199,1.26641,0.003343,0.0119249,1455,400,4.73051,30.571
238,624,4.71216,-30.2834,-0.000323173,0.0049874,0.00198252,0.00564586,-0.000981636,1.25013,0.00413019,0.0162648,1462,400,4.71214,30.2834
245,624,4.72302,-29.9957,-0.000408891,0.00587663,0.00228153,0.00661746,-0.00114973,1.25683,0.00484061,0.0170828,1469,400,4.723,29.9957
252,624,4.69849,-29.6548,-0.000423114,0.00683757,0.00260645,0.00767634,-0.00126189,1.25946,0.0055859,0.0129077,1476,400,4.69848,29.6548
259,624,4.67236,-29.3373,-0.000297725,0.00791105,0.00311846,0.00896135,-0.00134802,1.24593,0.00647055,0.00957014,1483,400,4.67232,29.3373
266,624,4.66418,-29.0093,-0.000205236,0.00884076,0.0035781,0.0100849,-0.00144941,1.23615,0.00725485,0.0136033,1490,400,4.66416,29.0093
273,624,4.64539,-28.6752,0.00103794,0.00907298,0.00461788,0.0111763,-0.00106543,1.14339,0.00783024,0.016888,1497,400,4.64542,28.6752
280,624,4.60266,-28.3427,0.00208309,0.00970286,0.00554444,0.0126202,-0.000834287,1.08642,0.00870492,0.0156976,1504,400,4.60267,28.3428
287,624,4.5824,-27.9822,0.00357951,0.0100367,0.00665556,0.0142054,-0.000589217,1.01122,0.00967265,0.0117496,1511,400,4.58239,27.9822
294,624,4.55273,-27.6084,0.00520017,0.00999615,0.00781662,0.0157743,-0.000578018,0.934231,0.0107141,0.00992416,1518,400,4.55277,27.6084
301,624,4.52173,-27.203,0.00703443,0.00963473,0.00900193,0.0174299,-0.000760757,0.857117,0.0118816,0.0110404,1525,400,4.52169,27.203
308,624,4.51147,-26.7822,0.0092294,0.00910184,0.0102963,0.0194621,-0.00113083,0.782301,0.0133676,0.0160258,1532,400,4.5115,26.7822
315,624,4.51465,-26.4092,0.0116265,0.00821743,0.0116399,0.021686,-0.00184209,0.712696,0.0151088,0.0200919,1539,400,4.5146,26.4092
322,624,4.48877,-26.0693,0.0139013,0.00732076,0.0130058,0.0240265,-0.00280447,0.661505,0.0170297,0.0314321,1546,400,4.48871,26.0693
329,624,4.45972,-25.5644,0.0157661,0.0064232,0.0141258,0.0259729,-0.00378358,0.625707,0.0187044,0.0450927,1553,400,4.45978,25.5644
336,624,4.68201,-25.1584,0.0168303,0.00552207,0.0146312,0.0268619,-0.00450952,0.601016,0.0195849,0.0417316,1560,400,4.68199,25.1584
343,624,4.93994,-24.7488,0,0,0,0,0,0,0,-1,1567,400,4.93998,24.7488
350,624,1.99194,-7.29742,0,0,0,0,0,0,0,-1,1574,400,1.99198,7.29741
357,624,2.64075,-3.13092,0,0,0,0,0,0,0,-1,1581,400,2.64076,3.13091
364,624,3.16565,-4.9458,0,0,0,0,0,0,0,-1,1588,400,3.16564,4.94579
371,624,3.37561,-5.23529,0,0,0,0,0,0,0,-1,1595,400,3.37563,5.23529
378,624,1.50439,-5.22165,0,0,0,0,0,0,0,-1,1602,400,1.50438,5.22164
385,624,1.2301,-10.5866,0,0,0,0,0,0,0,-1,1609,400,1.2301,10.5866
392,624,4.26819,-5.14236,0,0,0,0,0,0,0,-1,1616,400,4.26818,5.14236
399,624,2.22168,-9.19293,0,0,0,0,0,0,0,-1,1623,400,2.22173,9.19294
406,624,2.68213,-9.91171,0,0,0,0,0,0,0,-1,1630,400,2.68213,9.91171
413,624,0,0,0,0,0,0,0,0,0,-1,1637,400,0,0
420,624,0,0,0,0,0,0,0,0,0,-1,1644,400,0,0
427,624,0,0,0,0,0,0,0,0,0,-1,1651,400,0,0
434,624,0,0,0,0,0,0,0,0,0,-1,1658,400,0,0
441,624,0,0,0,0,0,0,0,0,0,-1,1665,400,0,0
448,624,0,0,0,0,0,0,0,0,0,-1,1672,400,0,0
455,624,0,0,0,0,0,0,0,0,0,-1,1679,400,0,0
462,624,0,0,0,0,0,0,0,0,0,-1,1686,400,0,0
469,624,0,0,0,0,0,0,0,0,0,-1,1693,400,0,0
476,624,0,0,0,0,0,0,0,0,0,-1,1700,400,0,0
483,624,0,0,0,0,0,0,0,0,0,-1,1707,400,0,0
490,624,0,0,0,0,0,0,0,0,0,-1,1714,400,0,0
497,624,0,0,0,0,0,0,0,0,0,-1,1721,400,0,0
504,624,0,0,0,0,0,0,0,0,0,-1,1728,400,0,0
511,624,0,0,0,0,0,0,0,0,0,-1,1735,400,0,0
518,624,0,0,0,0,0,0,0,0,0,-1,1742,400,0,0
525,624,0,0,0,0,0,0,0,0,0,-1,1749,400,0,0
532,624,0,0,0,0,0,0,0,0,0,-1,1756,400,0,0
539,624,0,0,0,0,0,0,0,0,0,-1,1763,400,0,0
546,624,0,0,0,0,0,0,0,0,0,-1,1770,400,0,0
553,624,0,0,0,0,0,0,0,0,0,-1,1777,400,0,0
560,624,0,0,0,0,0,0,0,0,0,-1,1784,400,0,0
567,624,0,0,0,0,0,0,0,0,0,-1,1791,400,0,0
574,624,0,0,0,0,0,0,0,0,0,-1,1798,400,0,0
581,624,0,0,0,0,0,0,0,0,0,-1,1805,400,0,0
588,624,0,0,0,0,0,0,0,0,0,-1,1812,400,0,0
595,624,0,0,0,0,0,0,0,0,0,-1,1819,400,0,0
602,624,0,0,0,0,0,0,0,0,0,-1,1826,400,0,0
609,624,0,0,0,0,0,0,0,0,0,-1,1833,400,0,0
616,624,0,0,0,0,0,0,0,0,0,-1,1840,400,0,0
623,624,0,0,0,0,0,0,0,0,0,-1,1847,400,0,0
630,624,0,0,0,0,0,0,0,0,0,-1,1854,400,0,0
637,624,0,0,0,0,0,0,0,0,0,-1,1861,400,0,0
644,624,0,0,0,0,0,0,0,0,0,-1,1868,400,0,0
651,624,0,0,0,0,0,0,0,0,0,-1,1875,400,0,0
658,624,0,0,0,0,0,0,0,0,0,-1,1882,400,0,0
665,624,0,0,0,0,0,0,0,0,0,-1,1889,400,0,0
672,624,0,0,0,0,0,0,0,0,0,-1,1896,400,0,0
679,624,0,0,0,0,0,0,0,0,0,-1,1903,400,0,0
686,624,0,0,0,0,0,0,0,0,0,-1,1910,400,0,0
693,624,0,0,0,0,0,0,0,0,0,-1,1917,400,0,0
700,624,0,0,0,0,0,0,0,0,0,-1,1924,400,0,0
707,624,0,0,0,0,0,0,0,0,0,-1,1931,400,0,0
714,624,0,0,0,0,0,0,0,0,0,-1,1938,400,0,0
721,624,0,0,0,0,0,0,0,0,0,-1,1945,400,0,0
728,624,0,0,0,0,0,0,0,0,0,-1,1952,400,0,0
735,624,0,0,0,0,0,0,0,0,0,-1,1959,400,0,0
742,624,0,0,0,0,0,0,0,0,0,-1,1966,400,0,0
749,624,0,0,0,0,0,0,0,0,0,-1,1973,400,0,0
756,624,0,0,0,0,0,0,0,0,0,-1,1980,400,0,0
763,624,0,0,0,0,0,0,0,0,0,-1,1987,400,0,0
770,624,0,0,0,0,0,0,0,0,0,-1,1994,400,0,0
777,624,0,0,0,0,0,0,0,0,0,-1,2001,400,0,0
784,624,0,0,0,0,0,0,0,0,0,-1,2008,400,0,0
791,624,0,0,0,0,0,0,0,0,0,-1,2015,400,0,0
798,624,0,0,0,0,0,0,0,0,0,-1,2022,400,0,0
805,624,0,0,0,0,0,0,0,0,0,-1,2029,400,0,0
812,624,0,0,0,0,0,0,0,0,0,-1,2036,400,0,0
-700,617,0,0,0,0,0,0,0,0,0,-1,524,407,0,0
-693,617,0,0,0,0,0,0,0,0,0,-1,531,407,0,0
-686,617,0,0,0,0,0,0,0,0,0,-1,538,407,0,0
-679,617,0,0,0,0,0,0,0,0,0,-1,545,407,0,0
-672,617,0,0,0,0,0,0,0,0,0,-1,552,407,0,0
-665,617,0,0,0,0,0,0,0,0,0,-1,559,407,0,0
-658,617,0,0,0,0,0,0,0,0,0,-1,566,407,0,0
-651,617,0,0,0,0,0,0,0,0,0,-1,573,407,0,0
-644,617,0,0,0,0,0,0,0,0,0,-1,580,407,0,0
-637,617,0,0,0,0,0,0,0,0,0,-1,587,407,0,0
-630,617,0,0,0,0,0,0,0,0,0,-1,594,407,0,0
-623,617,0,0,0,0,0,0,0,0,0,-1,601,407,0,0
-616,617,0,0,0,0,0,0,0,0,0,-1,608,407,0,0
-609,617,0,0,0,0,0,0,0,0,0,-1,615,407,0,0
-602,617,0,0,0,0,0,0,0,0,0,-1,622,407,0,0
-595,617,0,0,0,0,0,0,0,0,0,-1,629,407,0,0
-588,617,0,0,0,0,0,0,0,0,0,-1,636,407,0,0
-581,617,0,0,0,0,0,0,0,0,0,-1,643,407,0,0
-574,617,0,0,0,0,0,0,0,0,0,-1,650,407,0,0
-567,617,0,0,0,0,0,0,0,0,0,-1,657,407,0,0
-560,617,0,0,0,0,0,0,0,0,0,-1,664,407,0,0
-553,617,0,0,0,0,0,0,0,0,0,-1,671,407,0,0
-546,617,0,0,0,0,0,0,0,0,0,-1,678,407,0,0
-539,617,0,0,0,0,0,0,0,0,0,-1,685,407,0,0
-532,617,0,0,0,0,0,0,0,0,0,-1,692,407,0,0
-525,617,0,0,0,0,0,0,0,0,0,-1,699,407,0,0
-518,617,0,0,0,0,0,0,0,0,0,-1,706,407,0,0
-511,617,0,0,0,0,0,0,0,0,0,-1,713,407,0,0
-504,617,0,0,0,0,0,0,0,0,0,-1,720,407,0,0
-497,617,0,0,0,0,0,0,0,0,0,-1,727,407,0,0
-490,617,0,0,0,0,0,0,0,0,0,-1,734,407,0,0
-483,617,0,0,0,0,0,0,0,0,0,-1,741,407,0,0
-476,617,0,0,0,0,0,0,0,0,0,-1,748,407,0,0
-469,617,0,0,0,0,0,0,0,0,0,-1,755,407,0,0
-462,617,0,0,0,0,0,0,0,0,0,-1,762,407,0,0
-455,617,0,0,0,0,0,0,0,0,0,-1,769,407,0,0
-448,617,0,0,0,0,0,0,0,0,0,-1,776,407,0,0
-441,617,0,0,0,0,0,0,0,0,0,-1,783,407,0,0
-434,617,0,0,0,0,0,0,0,0,0,-1,790,407,0,0
-427,617,0,0,0,0,0,0,0,0,0,-1,797,407,0,0
-420,617,0,0,0,0,0,0,0,0,0,-1,804,407,0,0
-413,617,0,0,0,0,0,0,0,0,0,-1,811,407,0,0
-406,617,0,0,0,0,0,0,0,0,0,-1,818,407,0,0
-399,617,0,0,0,0,0,0,0,0,0,-1,825,407,0,0
-392,617,0,0,0,0,0,0,0,0,0,-1,832,407,0,0
-385,617,0,0,0,0,0,0,0,0,0,-1,839,407,0,0
-378,617,0,0,0,0,0,0,0,0,0,-1,846,407,0,0
-371,617,0,0,0,0,0,0,0,0,0,-1,853,407,0,0
-364,617,0,0,0,0,0,0,0,0,0,-1,860,407,0,0
-357,617,0,0,0,0,0,0,0,0,0,-1,867,407,0,0
-350,617,0,0,0,0,0,0,0,0,0,-1,874,407,0,0
-343,617,0,0,0,0,0,0,0,0,0,-1,881,407,0,0
-336,617,0,0,0,0,0,0,0,0,0,-1,888,407,0,0
-329,617,0,0,0,0,0,0,0,0,0,-1,895,407,0,0
-322,617,0,0,0,0,0,0,0,0,0,-1,902,407,0,0
-315,617,0,0,0,0,0,0,0,0,0,-1,909,407,0,0
-308,617,0,0,0,0,0,0,0,0,0,-1,916,407,0,0
-301,617,6.8504,-26.4473,0,0,0,0,0,0,0,-1,923,407,6.85041,26.4473
-294,617,8.41962,-26.4389,0,0,0,0,0,0,0,-1,930,407,8.41964,26.4389
-287,617,9.90497,-26.4554,0,0,0,0,0,0,0,-1,937,407,9.90498,26.4554
-280,617,4.3504,-25.0479,0,0,0,0,0,0,0,-1,944,407,4.35041,25.0479
-273,617,3.83069,-23.1539,0,0,0,0,0,0,0,-1,951,407,3.83071,23.1539
-266,617,4.50061,-23.7659,0,0,0,0,0,0,0,-1,958,407,4.50058,23.7659
-259,617,5.4046,-24.5516,0,0,0,0,0,0,0,-1,965,407,5.40458,24.5516
-252,617,6.20453,-25.6898,0,0,0,0,0,0,0,-1,972,407,6.20453,25.6898
-245,617,4.03455,-24.67,0,0,0,0,0,0,0,-1,979,407,4.03457,24.67
-238,617,4.11346,-24.7751,0,0,0,0,0,0,0,-1,986,407,4.11347,24.7751
-231,617,3.98206,-24.3319,0,0,0,0,0,0,0,-1,993,407,3.98205,24.3319
-224,617,4.1109,-24.9589,0,0,0,0,0,0,0,-1,1000,407,4.11093,24.9589
-217,617,4.26318,-25.4377,0.00497141,0.00820141,-0.00833978,0.0150811,-0.0019083,-0.881039,0.0107468,0.042633,1007,407,4.26319,25.4377
-210,617,4.146,-26.0813,0.0054528,0.00501148,-0.0070371,0.0122727,-0.00180842,-0.769725,0.00884643,0.0298532,1014,407,4.14597,26.0813
-203,617,4.12744,-26.519,0.00577396,0.00251807,-0.005788,0.0101586,-0.00186657,-0.648309,0.00747271,0.0224568,1021,407,4.12749,26.519
-196,617,4.13208,-26.8569,0.00559237,0.000353194,-0.00487386,0.00850603,-0.00256046,-0.538809,0.00668955,0.0168052,1028,407,4.13208,26.8569
-189,617,4.052,-27.2434,0.00517218,-0.00101785,-0.00409737,0.0072121,-0.00305777,-0.461935,0.00608887,0.0146781,1035,407,4.05198,27.2434
-182,617,4.05737,-27.6043,0.00503792,-0.00241335,-0.00348187,0.00641168,-0.0037871,-0.375795,0.00595291,0.0165445,1042,407,4.05731,27.6044
-175,617,4.05408,-27.9408,0.00465872,-0.00356773,-0.00276006,0.00549893,-0.00440794,-0.295506,0.00573129,0.0151708,1049,407,4.05412,27.9408
-168,617,4.01929,-28.3407,0.00401662,-0.00416568,-0.00208764,0.00451848,-0.00466754,-0.235919,0.00530378,0.0113069,1056,407,4.01928,28.3407
-161,617,3.98914,-28.72,0.00339487,-0.00445888,-0.00150816,0.00367453,-0.00473854,-0.183346,0.00487022,0.0108631,1063,407,3.98919,28.72
-154,617,3.97107,-29.0306,0.00269238,-0.00408403,-0.00107922,0.00286011,-0.00425176,-0.154182,0.00413216,0.0116203,1070,407,3.97101,29.0306
-147,617,3.95703,-29.3309,0.00200454,-0.00348204,-0.000834577,0.00212868,-0.00360618,-0.147664,0.00334745,0.0158995,1077,407,3.957,29.3309
-140,617,3.94836,-29.664,0.00153818,-0.00288802,-0.000679112,0.00164003,-0.00298987,-0.148869,0.00271068,0.0121947,1084,407,3.94832,29.664
-133,617,3.93176,-29.9594,0.00110577,-0.00217479,-0.000538416,0.00119187,-0.00226089,-0.158583,0.00202505,0.0142198,1091,407,3.93173,29.9593
-126,617,3.91504,-30.2254,0.000759926,-0.00144709,-0.000471644,0.000856492,-0.00154366,-0.201953,0.00140453,0.0133495,1098,407,3.91498,30.2254
-119,617,3.90076,-30.5255,0.00033889,-0.000507238,-0.000357543,0.00046974,-0.000638088,-0.350829,0.000642062,0.0136622,1105,407,3.90076,30.5254
-112,617,3.88147,-30.787,0.000351887,0.000306055,-0.000336091,0.000665843,-7.90038e-06,-0.751359,0.000446552,0.0150924,1112,407,3.88142,30.787
-105,617,3.88489,-31.0486,0.000528718,0.000575781,-0.000415246,0.000968161,0.000136338,-0.813702,0.000605136,0.0165445,1119,407,3.88484,31.0486
-98,617,3.90063,-31.3095,0.000668632,0.00057942,-0.000430144,0.00105648,0.000191575,-0.733733,0.00064994,0.013951,1126,407,3.90058,31.3095
-91,617,3.90833,-31.5504,0.000861836,0.000546516,-0.000397264,0.00113158,0.000276771,-0.596498,0.000681139,0.0186182,1133,407,3.90837,31.5503
-84,617,3.92993,-31.8033,0.00105718,0.000355765,-0.000309757,0.00117439,0.000238557,-0.361737,0.000716765,0.0181179,1140,407,3.92993,31.8033
-77,617,3.92944,-32.0576,0.00123569,0.000209193,-0.000199957,0.00127326,0.000171618,-0.185751,0.000797812,0.0139509,1147,407,3.92944,32.0576
-70,617,3.96228,-32.2516,0.00138723,0.000259909,-2.60799e-05,0.00138784,0.000259306,-0.0231179,0.000852045,0.0151714,1154,407,3.96223,32.2516
-63,617,3.98096,-32.4547,0.00122199,0.000405863,-0.000698179,0.00162261,5.24265e-06,-0.520938,0.00108,0.0178736,1161,407,3.98098,32.4547
-56,617,3.9668,-32.6733,0.00100157,0.00049204,-0.00194814,0.00271154,-0.00121792,-0.72038,0.00232266,0.013003,1168,407,3.96674,32.6733
-49,617,3.96765,-32.863,0.000920647,0.000115355,-0.00271639,0.00326407,-0.00222807,-0.71182,0.00318964,0.0095131,1175,407,3.96771,32.863
-42,617,3.97839,-33.0439,0.00285904,-0.00138294,-0.00600865,0.00711006,-0.00563396,-0.615731,0.0073742,0.0115619,1182,407,3.97844,33.044
-35,617,4.01501,-33.1832,0.00377223,-0.00334452,-0.00787477,0.00885527,-0.00842756,-0.573194,0.00997927,0.0160339,1189,407,4.01497,33.1832
-28,617,4.01611,-33.3256,0.00389634,-0.00512564,-0.00965291,0.0100403,-0.0112696,-0.566817,0.0123101,0.0184759,1196,407,4.01615,33.3256
-21,617,4.04871,-33.4562,0.00384691,-0.00724185,-0.011421,0.0109982,-0.0143931,-0.559426,0.0147033,0.0135785,1203,407,4.04872,33.4562
-14,617,4.07263,-33.5706,0.00384847,-0.0090391,-0.012868,0.0117959,-0.0169865,-0.55327,0.0167074,0.0147816,1210,407,4.07264,33.5707
-7,617,4.02454,-33.6551,0.00367302,-0.0103695,-0.0138298,0.0121618,-0.0188582,-0.550507,0.018048,0.0181928,1217,407,4.02456,33.6551
0,617,4.08569,-33.7448,0.00326065,-0.0115763,-0.0141528,0.0118214,-0.0201371,-0.544001,0.0186583,0.0164314,1224,407,4.08563,33.7448
7,617,4.15149,-33.9157,0.00241319,-0.0125569,-0.0138846,0.0107017,-0.0208455,-0.538183,0.018525,0.0126202,1231,407,4.15146,33.9157
14,617,4.20581,-34.0132,0.000999243,-0.0130546,-0.0129705,0.00872393,-0.0207793,-0.537149,0.0175013,0.0144053,1238,407,4.20583,34.0132
21,617,4.21997,-34.0822,-0.000711169,-0.0130313,-0.0115783,0.0062438,-0.0199863,-0.540925,0.0158216,0.0125949,1245,407,4.21993,34.0822
28,617,4.23999,-34.1522,-0.00228743,-0.0127297,-0.0100728,0.00383702,-0.0188541,-0.546294,0.0140245,0.0108745,1252,407,4.23997,34.1522
35,617,4.24329,-34.2003,-0.00381109,-0.0124993,-0.0077736,0.000749853,-0.0170603,-0.530599,0.0116315,0.013111,1259,407,4.24329,34.2003
42,617,4.3197,-34.1971,-0.0048277,-0.0122648,-0.0052316,-0.00212773,-0.0149647,-0.476435,0.00934831,0.0192217,1266,407,4.31974,34.1972
49,617,4.36768,-34.2067,-0.00547681,-0.0120285,-0.00272338,-0.00449261,-0.0130127,-0.346785,0.00763188,0.0191536,1273,407,4.36767,34.2067
56,617,4.40588,-34.2209,-0.00576745,-0.0121289,-0.000459756,-0.0057344,-0.0121619,-0.0717755,0.00702549,0.0144247,1280,407,4.4059,34.2209
63,617,4.44202,-34.2334,-0.00622047,-0.0127669,0.00244796,-0.00540633,-0.013581,0.321071,0.00789513,0.0107608,1287,407,4.44203,34.2334
70,617,4.47754,-34.2414,-0.00596049,-0.0143007,0.00463019,-0.00389935,-0.0163619,0.418815,0.00986835,0.0160852,1294,407,4.47759,34.2414
77,617,4.54224,-34.2021,-0.00458395,-0.0161461,0.00648543,-0.00167701,-0.019053,0.421379,0.0121816,0.0147563,1301,407,4.54219,34.2021
84,617,4.57385,-34.1618,-0.00317459,-0.0180143,0.00795727,0.000285457,-0.0214744,0.410166,0.0144123,0.0111114,1308,407,4.57391,34.1618
91,617,4.61243,-34.1008,-0.00205155,-0.020348,0.00909756,0.001702,-0.0241015,0.391311,0.016664,0.0107164,1315,407,4.61241,34.1008
98,617,4.64734,-34.0269,-0.00109542,-0.0226063,0.00991619,0.00277823,-0.02648,0.37241,0.0186485,0.0116284,1322,407,4.64738,34.0269
105,617,4.66626,-33.9796,-6.04294e-05,-0.0242159,0.0100003,0.00354233,-0.0278187,0.34579,0.0198323,0.0130398,1329,407,4.66621,33.9796
112,617,4.69617,-33.9029,0.00099561,-0.0251373,0.00958374,0.00413349,-0.0282752,0.316416,0.0203683,0.0156223,1336,407,4.69622,33.9029
119,617,4.69666,-33.7821,0.00204796,-0.0253553,0.00878025,0.00461985,-0.0279272,0.284947,0.0203338,0.0180184,1343,407,4.69661,33.7821
126,617,4.70569,-33.6553,0.00281438,-0.0247435,0.00760471,0.00477364,-0.0267028,0.252154,0.0195879,0.0211157,1350,407,4.70564,33.6553
133,617,4.7478,-33.5132,0.002552,-0.0225116,0.00625281,0.00402533,-0.0239849,0.231406,0.0174868,0.0183347,1357,407,4.74783,33.5132
140,617,4.79834,-33.3875,0.00241151,-0.0197245,0.0044452,0.00327081,-0.0205838,0.190954,0.0149327,0.0152958,1364,407,4.79835,33.3875
147,617,4.77893,-33.2336,0.00206254,-0.0168497,0.00298995,0.00252398,-0.0173111,0.153122,0.0124675,0.0195975,1371,407,4.77894,33.2337
154,617,4.82373,-33.0902,0.00196606,-0.0140509,0.00164651,0.00213357,-0.0142184,0.101385,0.0102643,0.0235289,1378,407,4.82372,33.0902
161,617,4.91113,-32.9456,0.00204846,-0.0109499,0.000464606,0.00206505,-0.0109665,0.0356827,0.0080877,0.0244675,1385,407,4.91111,32.9457
168,617,4.93774,-32.7943,0.0022008,-0.00792944,-0.000568332,0.00223259,-0.00796123,-0.0558688,0.00618743,0.0217928,1392,407,4.9378,32.7942
175,617,4.953,-32.5863,0.00275096,-0.0046223,-0.00135868,0.00299336,-0.0048647,-0.176549,0.00457953,0.0173768,1399,407,4.95301,32.5863
182,617,4.97083,-32.3456,0.00246625,-0.0026058,-0.00168711,0.00297617,-0.00311572,-0.293513,0.00351746,0.0107327,1406,407,4.97089,32.3456
189,617,4.95569,-32.1193,0.00229817,-0.00139474,-0.00116269,0.00263375,-0.00173032,-0.280982,0.00253753,0.0104358,1413,407,4.95564,32.1193
196,617,4.93774,-31.8877,0.00223152,-0.000412984,-0.000604981,0.00236335,-0.000544813,-0.214552,0.0017851,0.0149949,1420,407,4.93769,31.8877
203,617,4.95728,-31.6403,0.00213688,0.000412574,-0.000252743,0.00217316,0.000376291,-0.142582,0.00134106,0.0159714,1427,407,4.95727,31.6403
210,617,4.99548,-31.3703,0.0016777,0.00128281,0.000277964,0.00182121,0.0011393,0.476584,0.00106247,0.0151262,1434,407,4.99552,31.3703
217,617,4.99585,-31.1093,0.00129669,0.00206582,0.000682263,0.00246443,0.00089807,1.04203,0.00144017,0.0193921,1441,407,4.99586,31.1093
224,617,5.00745,-30.8604,0.00102828,0.00263728,0.000980614,0.00310118,0.000564383,1.12893,0.00190736,0.0187313,1448,407,5.0075,30.8605
231,617,5.01868,-30.5994,0.000816083,0.0032026,0.00131867,0.00378776,0.000230926,1.15315,0.00245182,0.0141262,1455,407,5.01872,30.5994
238,617,4.99768,-30.313,0.000722412,0.00388581,0.00167536,0.00460816,6.91507e-08,1.16372,0.00307208,0.0147946,1462,407,4.99763,30.313
245,617,5.02258,-30.02,0.000582474,0.00454707,0.0019002,0.00531073,-0.000181183,1.18867,0.0036024,0.0130955,1469,407,5.0226,30.02
252,617,5.01709,-29.6743,0.000446421,0.00525666,0.00212476,0.00606078,-0.000357695,1.209,0.00416487,0.014372,1476,407,5.01704,29.6743
259,617,4.97961,-29.3359,0.000379119,0.00602477,0.00247764,0.00695788,-0.00055399,1.21061,0.00483384,0.0120202,1483,407,4.97955,29.3359
266,617,4.98315,-29.0035,0.000307933,0.00668099,0.00279742,0.00773468,-0.000745763,1.21056,0.00542217,0.0143119,1490,407,4.98311,29.0035
273,617,4.97754,-28.6761,0.000979902,0.00693548,0.00349479,0.00854907,-0.000633689,1.13824,0.00592192,0.0152544,1497,407,4.97752,28.6762
280,617,4.93176,-28.3343,0.00158102,0.00741599,0.00413232,0.00955695,-0.000559933,1.09277,0.00656591,0.0137723,1504,407,4.93176,28.3343
287,617,4.91003,-27.9676,0.00254867,0.00775531,0.00494404,0.0107395,-0.00043556,1.02773,0.00730921,0.0121409,1511,407,4.91004,27.9676
294,617,4.89551,-27.6194,0.00355633,0.00783252,0.00575916,0.0118377,-0.000448813,0.963138,0.00804555,0.0099059,1518,407,4.8955,27.6194
301,617,4.8667,-27.262,0.00467768,0.00770554,0.00657864,0.0129422,-0.000558983,0.898493,0.00882037,0.00826836,1525,407,4.86665,27.262
308,617,4.84082,-26.8838,0.00603935,0.00749193,0.00748101,0.0142818,-0.000750544,0.833789,0.009781,0.00837941,1532,407,4.84085,26.8838
315,617,4.82227,-26.5096,0.00748646,0.00705667,0.00838156,0.0156559,-0.00111275,0.772582,0.0108272,0.00915388,1539,407,4.82231,26.5095
322,617,4.79663,-26.0808,0.00876312,0.00662788,0.00925611,0.017013,-0.00162198,0.727981,0.0119195,0.0129668,1546,407,4.79664,26.0808
329,617,4.7771,-25.6667,0.00968192,0.00615519,0.00992481,0.0179988,-0.00216169,0.697479,0.0127808,0.0147247,1553,407,4.77714,25.6667
336,617,4.86462,-25.2214,0.010013,0.00567169,0.0101719,0.0182432,-0.00255856,0.680276,0.0130986,0.0269836,1560,407,4.86468,25.2214
343,617,4.98804,-24.7857,0,0,0,0,0,0,0,-1,1567,407,4.98802,24.7857
350,617,4.5835,-24.4215,0,0,0,0,0,0,0,-1,1574,407,4.58344,24.4215
357,617,2.1748,-7.16504,0,0,0,0,0,0,0,-1,1581,407,2.1748,7.16505
364,617,2.30127,-7.60257,0,0,0,0,0,0,0,-1,1588,407,2.30125,7.60258
371,617,2.60266,-6.20667,0,0,0,0,0,0,0,-1,1595,407,2.60261,6.20668
378,617,1.56921,-10.3601,0,0,0,0,0,0,0,-1,1602,407,1.56918,10.3601
385,617,1.74146,-10.3561,0,0,0,0,0,0,0,-1,1609,407,1.7414,10.3561
392,617,1.96936,-5.10449,0,0,0,0,0,0,0,-1,1616,407,1.96931,5.10451
399,617,2.48889,-5.81256,0,0,0,0,0,0,0,-1,1623,407,2.48888,5.81255
406,617,3.01465,-6.51642,0,0,0,0,0,0,0,-1,1630,407,3.01461,6.51643
413,617,3.6427,-7.2074,0,0,0,0,0,0,0,-1,1637,407,3.64274,7.20739
420,617,3.42737,-4.47391,0,0,0,0,0,0,0,-1,1644,407,3.42737,4.47391
427,617,0,0,0,0,0,0,0,0,0,-1,1651,407,0,0
434,617,0,0,0,0,0,0,0,0,0,-1,1658,407,0,0
441,617,0,0,0,0,0,0,0,0,0,-1,1665,407,0,0
448,617,0,0,0,0,0,0,0,0,0,-1,1672,407,0,0
455,617,0,0,0,0,0,0,0,0,0,-1,1679,407,0,0
462,617,0,0,0,0,0,0,0,0,0,-1,1686,407,0,0
469,617,0,0,0,0,0,0,0,0,0,-1,1693,407,0,0
476,617,0,0,0,0,0,0,0,0,0,-1,1700,407,0,0
483,617,0,0,0,0,0,0,0,0,0,-1,1707,407,0,0
490,617,0,0,0,0,0,0,0,0,0,-1,1714,407,0,0
497,617,0,0,0,0,0,0,0,0,0,-1,1721,407,0,0
504,617,0,0,0,0,0,0,0,0,0,-1,1728,407,0,0
511,617,0,0,0,0,0,0,0,0,0,-1,1735,407,0,0
518,617,0,0,0,0,0,0,0,0,0,-1,1742,407,0,0
525,617,0,0,0,0,0,0,0,0,0,-1,1749,407,0,0
532,617,0,0,0,0,0,0,0,0,0,-1,1756,407,0,0
539,617,0,0,0,0,0,0,0,0,0,-1,1763,407,0,0
546,617,0,0,0,0,0,0,0,0,0,-1,1770,407,0,0
553,617,0,0,0,0,0,0,0,0,0,-1,1777,407,0,0
560,617,0,0,0,0,0,0,0,0,0,-1,1784,407,0,0
567,617,0,0,0,0,0,0,0,0,0,-1,1791,407,0,0
574,617,0,0,0,0,0,0,0,0,0,-1,1798,407,0,0
581,617,0,0,0,0,0,0,0,0,0,-1,1805,407,0,0
588,617,0,0,0,0,0,0,0,0,0,-1,1812,407,0,0
595,617,0,0,0,0,0,0,0,0,0,-1,1819,407,0,0
602,617,0,0,0,0,0,0,0,0,0,-1,1826,407,0,0
609,617,0,0,0,0,0,0,0,0,0,-1,1833,407,0,0
616,617,0,0,0,0,0,0,0,0,0,-1,1840,407,0,0
623,617,0,0,0,0,0,0,0,0,0,-1,1847,407,0,0
630,617,0,0,0,0,0,0,0,0,0,-1,1854,407,0,0
637,617,0,0,0,0,0,0,0,0,0,-1,1861,407,0,0
644,617,0,0,0,0,0,0,0,0,0,-1,1868,407,0,0
651,617,0,0,0,0,0,0,0,0,0,-1,1875,407,0,0
658,617,0,0,0,0,0,0,0,0,0,-1,1882,407,0,0
665,617,0,0,0,0,0,0,0,0,0,-1,1889,407,0,0
672,617,0,0,0,0,0,0,0,0,0,-1,1896,407,0,0
679,617,0,0,0,0,0,0,0,0,0,-1,1903,407,0,0
686,617,0,0,0,0,0,0,0,0,0,-1,1910,407,0,0
693,617,0,0,0,0,0,0,0,0,0,-1,1917,407,0,0
700,617,0,0,0,0,0,0,0,0,0,-1,1924,407,0,0
707,617,0,0,0,0,0,0,0,0,0,-1,1931,407,0,0
714,617,0,0,0,0,0,0,0,0,0,-1,1938,407,0,0
721,617,0,0,0,0,0,0,0,0,0,-1,1945,407,0,0
728,617,0,0,0,0,0,0,0,0,0,-1,1952,407,0,0
735,617,0,0,0,0,0,0,0,0,0,-1,1959,407,0,0
742,617,0,0,0,0,0,0,0,0,0,-1,1966,407,0,0
749,617,0,0,0,0,0,0,0,0,0,-1,1973,407,0,0
756,617,0,0,0,0,0,0,0,0,0,-1,1980,407,0,0
763,617,0,0,0,0,0,0,0,0,0,-1,1987,407,0,0
770,617,0,0,0,0,0,0,0,0,0,-1,1994,407,0,0
777,617,0,0,0,0,0,0,0,0,0,-1,2001,407,0,0
784,617,0,0,0,0,0,0,0,0,0,-1,2008,407,0,0
791,617,0,0,0,0,0,0,0,0,0,-1,2015,407,0,0
798,617,0,0,0,0,0,0,0,0,0,-1,2022,407,0,0
805,617,0,0,0,0,0,0,0,0,0,-1,2029,407,0,0
812,617,0,0,0,0,0,0,0,0,0,-1,2036,407,0,0
-700,610,0,0,0,0,0,0,0,0,0,-1,524,414,0,0
-693,610,0,0,0,0,0,0,0,0,0,-1,531,414,0,0
-686,610,0,0,0,0,0,0,0,0,0,-1,538,414,0,0
-679,610,0,0,0,0,0,0,0,0,0,-1,545,414,0,0
-672,610,0,0,0,0,0,0,0,0,0,-1,552,414,0,0
-665,610,0,0,0,0,0,0,0,0,0,-1,559,414,0,0
-658,610,0,0,0,0,0,0,0,0,0,-1,566,414,0,0
-651,610,0,0,0,0,0,0,0,0,0,-1,573,414,0,0
-644,610,0,0,0,0,0,0,0,0,0,-1,580,414,0,0
-637,610,0,0,0,0,0,0,0,0,0,-1,587,414,0,0
-630,610,0,0,0,0,0,0,0,0,0,-1,594,414,0,0
-623,610,0,0,0,0,0,0,0,0,0,-1,601,414,0,0
-616,610,0,0,0,0,0,0,0,0,0,-1,608,414,0,0
-609,610,0,0,0,0,0,0,0,0,0,-1,615,414,0,0
-602,610,0,0,0,0,0,0,0,0,0,-1,622,414,0,0
-595,610,0,0,0,0,0,0,0,0,0,-1,629,414,0,0
-588,610,0,0,0,0,0,0,0,0,0,-1,636,414,0,0
-581,610,0,0,0,0,0,0,0,0,0,-1,643,414,0,0
-574,610,0,0,0,0,0,0,0,0,0,-1,650,414,0,0
-567,610,0,0,0,0,0,0,0,0,0,-1,657,414,0,0
-560,610,0,0,0,0,0,0,0,0,0,-1,664,414,0,0
-553,610,0,0,0,0,0,0,0,0,0,-1,671,414,0,0
-546,610,0,0,0,0,0,0,0,0,0,-1,678,414,0,0
-539,610,0,0,0,0,0,0,0,0,0,-1,685,414,0,0
-532,610,0,0,0,0,0,0,0,0,0,-1,692,414,0,0
-525,610,0,0,0,0,0,0,0,0,0,-1,699,414,0,0
-518,610,0,0,0,0,0,0,0,0,0,-1,706,414,0,0
-511,610,0,0,0,0,0,0,0,0,0,-1,713,414,0,0
-504,610,0,0,0,0,0,0,0,0,0,-1,720,414,0,0
-497,610,0,0,0,0,0,0,0,0,0,-1,727,414,0,0
-490,610,0,0,0,0,0,0,0,0,0,-1,734,414,0,0
-483,610,0,0,0,0,0,0,0,0,0,-1,741,414,0,0
-476,610,0,0,0,0,0,0,0,0,0,-1,748,414,0,0
-469,610,0,0,0,0,0,0,0,0,0,-1,755,414,0,0
-462,610,0,0,0,0,0,0,0,0,0,-1,762,414,0,0
-455,610,0,0,0,0,0,0,0,0,0,-1,769,414,0,0
-448,610,0,0,0,0,0,0,0,0,0,-1,776,414,0,0
-441,610,0,0,0,0,0,0,0,0,0,-1,783,414,0,0
-434,610,0,0,0,0,0,0,0,0,0,-1,790,414,0,0
-427,610,0,0,0,0,0,0,0,0,0,-1,797,414,0,0
-420,610,0,0,0,0,0,0,0,0,0,-1,804,414,0,0
-413,610,0,0,0,0,0,0,0,0,0,-1,811,414,0,0
-406,610,0,0,0,0,0,0,0,0,0,-1,818,414,0,0
-399,610,0,0,0,0,0,0,0,0,0,-1,825,414,0,0
-392,610,0,0,0,0,0,0,0,0,0,-1,832,414,0,0
-385,610,0,0,0,0,0,0,0,0,0,-1,839,414,0,0
-378,610,0,0,0,0,0,0,0,0,0,-1,846,414,0,0
-371,610,0,0,0,0,0,0,0,0,0,-1,853,414,0,0
-364,610,0,0,0,0,0,0,0,0,0,-1,860,414,0,0
-357,610,0,0,0,0,0,0,0,0,0,-1,867,414,0,0
-350,610,0,0,0,0,0,0,0,0,0,-1,874,414,0,0
-343,610,0,0,0,0,0,0,0,0,0,-1,881,414,0,0
-336,610,0,0,0,0,0,0,0,0,0,-1,888,414,0,0
-329,610,0,0,0,0,0,0,0,0,0,-1,895,414,0,0
-322,610,0,0,0,0,0,0,0,0,0,-1,902,414,0,0
-315,610,8.08594,-20.6403,0,0,0,0,0,0,0,-1,909,414,8.08595,20.6403
-308,610,3.97559,-24.1635,0,0,0,0,0,0,0,-1,916,414,3.97556,24.1635
-301,610,4.95953,-24.3575,0,0,0,0,0,0,0,-1,923,414,4.95952,24.3575
-294,610,6.20813,-24.3114,0,0,0,0,0,0,0,-1,930,414,6.20815,24.3114
-287,610,2.427,-24.4821,0,0,0,0,0,0,0,-1,937,414,2.42702,24.4821
-280,610,2.78668,-21.9856,0,0,0,0,0,0,0,-1,944,414,2.78671,21.9856
-273,610,3.55499,-22.5514,0,0,0,0,0,0,0,-1,951,414,3.55497,22.5514
-266,610,4.38629,-23.0743,0,0,0,0,0,0,0,-1,958,414,4.38632,23.0743
-259,610,5.26538,-23.9626,0,0,0,0,0,0,0,-1,965,414,5.26539,23.9627
-252,610,3.07806,-23.9093,0,0,0,0,0,0,0,-1,972,414,3.07807,23.9093
-245,610,3.65216,-24.3409,0.00207668,0.0135158,-0.00792381,0.0175686,-0.00197618,-1.09801,0.0124237,0.04635,979,414,3.65218,24.3409
-238,610,3.93414,-24.6263,0.000919734,0.0142893,-0.00752471,0.0176696,-0.00246065,-1.14858,0.0126798,0.0487829,986,414,3.93417,24.6263
-231,610,3.75446,-24.6327,7.14748e-05,0.0146467,-0.00706045,0.017506,-0.00278779,-1.18601,0.0127023,0.037135,993,414,3.75445,24.6327
-224,610,3.82642,-25.1958,0.00146159,0.0123295,-0.00688648,0.0156677,-0.00187666,-1.11942,0.0111236,0.0256047,1000,414,3.82641,25.1958
-217,610,3.86633,-25.7112,0.00212425,0.00928441,-0.00629314,0.0129445,-0.00153587,-1.04401,0.00918455,0.0172846,1007,414,3.86631,25.7112
-210,610,3.81995,-26.203,0.00251116,0.00701162,-0.00537925,0.0105923,-0.00106955,-0.983497,0.00744373,0.0121858,1014,414,3.81993,26.203
-203,610,3.80542,-26.5805,0.00283907,0.00504571,-0.00440243,0.00848096,-0.000596188,-0.908177,0.00586282,0.0150609,1021,414,3.80546,26.5805
-196,610,3.78625,-26.9329,0.00285538,0.00321413,-0.0036333,0.00667248,-0.000602972,-0.810063,0.00466232,0.0149145,1028,414,3.78622,26.9329
-189,610,3.76709,-27.3235,0.00265425,0.00192283,-0.00296741,0.0052784,-0.000701315,-0.724087,0.00377448,0.0116728,1035,414,3.76708,27.3235
-182,610,3.7428,-27.668,0.00270161,0.000524011,-0.00243353,0.00427881,-0.00105319,-0.575047,0.0032608,0.0125007,1042,414,3.74285,27.668
-175,610,3.71484,-27.9935,0.00264959,-0.000882109,-0.00181178,0.00341372,-0.00164624,-0.399118,0.00298018,0.0133347,1049,414,3.71488,27.9935
-168,610,3.68176,-28.3535,0.00239854,-0.00192267,-0.00128541,0.002752,-0.00227612,-0.268343,0.00290732,0.0120824,1056,414,3.68179,28.3536
-161,610,3.67822,-28.7355,0.00213202,-0.00271698,-0.000828666,0.00226973,-0.00285468,-0.16467,0.002965,0.0112995,1063,414,3.67821,28.7355
-154,610,3.67603,-29.046,0.00182743,-0.00299095,-0.000496816,0.00187812,-0.00304164,-0.101683,0.00286678,0.0132798,1070,414,3.67598,29.046
-147,610,3.67578,-29.3326,0.00153169,-0.0030621,-0.000336987,0.00155628,-0.00308669,-0.0728374,0.00272873,0.0149969,1077,414,3.67583,29.3326
-140,610,3.6582,-29.6568,0.00138896,-0.00310676,-0.000265379,0.00140457,-0.00312238,-0.0587572,0.00267562,0.0120935,1084,414,3.65816,29.6568
-133,610,3.65112,-29.9403,0.00125078,-0.00302633,-0.000213472,0.0012614,-0.00303695,-0.0497457,0.00255126,0.0135926,1091,414,3.6511,29.9403
-126,610,3.64258,-30.2169,0.00116255,-0.00286464,-0.000227285,0.00117534,-0.00287743,-0.0561997,0.00240767,0.0120657,1098,414,3.64262,30.2169
-119,610,3.6178,-30.5117,0.00111349,-0.00252154,-0.000230252,0.00112802,-0.00253607,-0.063007,0.0021669,0.0102871,1105,414,3.61775,30.5116
-112,610,3.63135,-30.7683,0.00131235,-0.0022657,-0.000290173,0.00133573,-0.00228908,-0.080398,0.00211677,0.0178883,1112,414,3.63134,30.7683
-105,610,3.64136,-31.0382,0.00154027,-0.00217607,-0.000367781,0.00157632,-0.00221212,-0.0977006,0.0021975,0.018048,1119,414,3.64138,31.0382
-98,610,3.65295,-31.2999,0.00172562,-0.00214465,-0.000401339,0.0017668,-0.00218583,-0.102248,0.00228632,0.0133012,1126,414,3.65298,31.2999
-91,610,3.65833,-31.5325,0.00190225,-0.0021258,-0.000420113,0.0019456,-0.00216915,-0.102822,0.00237682,0.0143179,1133,414,3.65834,31.5325
-84,610,3.68445,-31.8021,0.00209468,-0.0021455,-0.000370829,0.00212687,-0.00217769,-0.0865801,0.0024853,0.0146399,1140,414,3.68448,31.8021
-77,610,3.68518,-32.0715,0.00233734,-0.00207366,-0.000238755,0.00235023,-0.00208654,-0.0539173,0.00256308,0.0116961,1147,414,3.68512,32.0715
-70,610,3.72852,-32.2802,0.00248543,-0.0015873,-1.87673e-05,0.00248551,-0.00158739,-0.0046079,0.00237047,0.0142191,1154,414,3.7285,32.2803
-63,610,3.75366,-32.4756,0.00188127,-0.000887185,-0.00163484,0.00263919,-0.0016451,-0.434109,0.00249564,0.0140673,1161,414,3.75362,32.4756
-56,610,3.77661,-32.6765,0.00118204,-0.000151571,-0.00437363,0.00493941,-0.00390893,-0.70975,0.00512012,0.0118176,1168,414,3.77667,32.6764
-49,610,3.78027,-32.8548,0.000761671,-0.000232202,-0.00605572,0.00634081,-0.00581134,-0.74446,0.00701827,0.0115232,1175,414,3.78024,32.8548
-42,610,3.77991,-33.0443,0.00348288,-0.00225102,-0.0119857,0.0129398,-0.0117079,-0.668005,0.0142362,0.0153323,1182,414,3.77988,33.0443
-35,610,3.8241,-33.1964,0.00436634,-0.00475274,-0.014948,0.0154347,-0.0158211,-0.637367,0.018046,0.0152269,1189,414,3.82409,33.1964
-28,610,3.8584,-33.329,0.00425992,-0.00697555,-0.017482,0.0170046,-0.0197202,-0.629937,0.0212224,0.0128865,1196,414,3.85844,33.329
-21,610,3.90283,-33.4505,0.00394408,-0.00969303,-0.0197725,0.0180407,-0.0237897,-0.619358,0.0242267,0.0115699,1203,414,3.90288,33.4505
-14,610,3.93494,-33.5551,0.00380947,-0.011994,-0.0214283,0.0187465,-0.0269311,-0.608757,0.0265127,0.0127557,1210,414,3.93496,33.5551
-7,610,3.96631,-33.6492,0.00327793,-0.0136422,-0.0221007,0.0184825,-0.0288468,-0.602604,0.0275431,0.014465,1217,414,3.96633,33.6492
0,610,4.01135,-33.7703,0.00246901,-0.0151835,-0.0218677,0.0172245,-0.029939,-0.593586,0.0275577,0.0113246,1224,414,4.0113,33.7703
7,610,4.07178,-33.8967,0.00107144,-0.016462,-0.0208354,0.0149094,-0.0303,-0.586261,0.026601,0.0126604,1231,414,4.07176,33.8967
14,610,4.1676,-33.9519,-0.00103843,-0.0171227,-0.0189638,0.011518,-0.0296792,-0.584853,0.0245435,0.0160024,1238,414,4.1676,33.9519
21,610,4.19702,-33.9942,-0.00351751,-0.0171407,-0.0165483,0.00756623,-0.0282245,-0.590156,0.0217809,0.0149051,1245,414,4.19703,33.9942
28,610,4.17542,-34.0811,-0.00588988,-0.0168176,-0.0139837,0.00365946,-0.026367,-0.599152,0.0189162,0.0150254,1252,414,4.17535,34.0811
35,610,4.27673,-34.1434,-0.0080656,-0.0166956,-0.0103262,-0.0011891,-0.0235721,-0.58749,0.0153338,0.0176667,1259,414,4.27668,34.1434
42,610,4.33337,-34.1344,-0.00954336,-0.016614,-0.00636614,-0.00579677,-0.0203606,-0.531934,0.012113,0.0158528,1266,414,4.33334,34.1344
49,610,4.36206,-34.1916,-0.0103994,-0.0166521,-0.00245122,-0.00955303,-0.0174985,-0.332469,0.010117,0.0154508,1273,414,4.36202,34.1916
56,610,4.42859,-34.2043,-0.010676,-0.0171383,0.0010336,-0.0105147,-0.0172996,0.1548,0.010065,0.0156925,1280,414,4.42855,34.2043
63,610,4.40796,-34.1465,-0.01102,-0.0184506,0.00526411,-0.00829217,-0.0211785,0.478101,0.0123229,0.0212739,1287,414,4.40798,34.1465
70,610,4.50745,-34.0967,-0.0103557,-0.0210021,0.00864908,-0.00552298,-0.0258348,0.509543,0.0157092,0.0286152,1294,414,4.50745,34.0968
77,610,4.6123,-34.0633,-0.00822387,-0.0238973,0.011596,-0.00206482,-0.0300563,0.488245,0.019386,0.0350189,1301,414,4.61229,34.0633
84,610,4.64453,-34.0802,-0.00608433,-0.0263521,0.0142127,0.00123733,-0.0336738,0.475694,0.0228728,0.0326029,1308,414,4.64447,34.0802
91,610,4.73743,-34.1016,-0.00427989,-0.0295422,0.0163107,0.00371869,-0.0375407,0.455928,0.0263543,0.0260334,1315,414,4.73742,34.1016
98,610,4.80591,-34.035,-0.00264413,-0.0325035,0.0180063,0.00581681,-0.0409644,0.43927,0.0294407,0.0230323,1322,414,4.80594,34.035
105,610,4.81287,-33.9511,-0.00099742,-0.0346249,0.0187621,0.00738244,-0.0430048,0.420055,0.0314211,0.01928,1329,414,4.81291,33.9511
112,610,4.81921,-33.8579,0.000617613,-0.0358532,0.0188715,0.00862461,-0.0438602,0.401269,0.0324987,0.0138514,1336,414,4.81918,33.8579
119,610,4.82983,-33.7549,0.00214349,-0.0361555,0.018429,0.00957086,-0.0435828,0.383113,0.0327155,0.0191638,1343,414,4.82981,33.7549
126,610,4.88879,-33.6614,0.00326352,-0.0353453,0.0173725,0.00992958,-0.0420113,0.366387,0.0318378,0.0259938,1350,414,4.88876,33.6614
133,610,4.93018,-33.5388,0.00285613,-0.0321698,0.0154998,0.00873008,-0.0380438,0.362246,0.0287183,0.0200025,1357,414,4.93018,33.5388
140,610,4.96985,-33.3923,0.00257494,-0.0282852,0.0129078,0.00726196,-0.0329722,0.348312,0.0247597,0.0165008,1364,414,4.96981,33.3923
147,610,4.9447,-33.2079,0.00209007,-0.0242949,0.0104456,0.00572472,-0.0279295,0.334856,0.0207923,0.0183498,1371,414,4.94475,33.2079
154,610,4.98071,-33.0376,0.0019214,-0.0203669,0.00782476,0.00439411,-0.0228396,0.306081,0.0168828,0.0228245,1378,414,4.98074,33.0376
161,610,5.08105,-32.9084,0.00202786,-0.0160752,0.00533171,0.00348144,-0.0175288,0.266161,0.0130026,0.026834,1385,414,5.0811,32.9085
168,610,5.10815,-32.7391,0.0023346,-0.0118098,0.00287558,0.00289686,-0.012372,0.193093,0.00936422,0.0267591,1392,414,5.10811,32.7391
175,610,5.15955,-32.5463,0.0034858,-0.00675818,0.000326985,0.00349622,-0.00676861,0.0318765,0.00602595,0.0209122,1399,414,5.15957,32.5463
182,610,5.1969,-32.3296,0.00335781,-0.00360735,-0.00163318,0.00372174,-0.00397127,-0.219253,0.00444234,0.0144823,1406,414,5.19695,32.3296
189,610,5.18506,-32.1129,0.00341059,-0.00306694,-0.00190869,0.00393117,-0.00358752,-0.266267,0.00434243,0.0138093,1413,414,5.18511,32.1129
196,610,5.19177,-31.9008,0.00344926,-0.00178612,-0.00119556,0.00370936,-0.00204622,-0.214215,0.00336891,0.0137756,1420,414,5.19174,31.9008
203,610,5.20068,-31.6588,0.00353456,-0.000809636,-0.000889615,0.00370967,-0.000984754,-0.194363,0.00285848,0.0147675,1427,414,5.20063,31.6588
210,610,5.2229,-31.4191,0.00301429,0.000364488,-0.000136281,0.00302128,0.000357498,-0.0512504,0.00190623,0.0112826,1434,414,5.22285,31.4191
217,610,5.26709,-31.1409,0.00258711,0.00137983,0.000425712,0.00272212,0.00124482,0.307119,0.00157353,0.0163593,1441,414,5.26707,31.1409
224,610,5.28687,-30.8666,0.00225544,0.00201532,0.000802201,0.00294652,0.00132425,0.711118,0.00170407,0.0195473,1448,414,5.28681,30.8666
231,610,5.27185,-30.5953,0.00196179,0.00257065,0.00116322,0.00346862,0.00106382,0.913384,0.00205188,0.0156946,1455,414,5.27187,30.5953
238,610,5.28052,-30.285,0.00179647,0.003084,0.00144618,0.00402323,0.000857242,0.994804,0.00244698,0.0116799,1462,414,5.2805,30.285
245,610,5.31433,-29.9706,0.00161302,0.00355355,0.00160235,0.0044565,0.000710067,1.05763,0.00276488,0.012801,1469,414,5.31434,29.9706
252,610,5.32117,-29.6601,0.00137706,0.00400825,0.00172957,0.00486571,0.000519594,1.11054,0.00308523,0.0142487,1476,414,5.32119,29.6601
259,610,5.29736,-29.3306,0.00114294,0.004468,0.00192243,0.00534707,0.000263864,1.14191,0.0034801,0.0120409,1483,414,5.29741,29.3306
266,610,5.29773,-29.002,0.00093613,0.00486172,0.00210494,0.005777,2.0847e-05,1.16063,0.0038444,0.0124055,1490,414,5.29778,29.0021
273,610,5.28516,-28.6731,0.00115528,0.00509931,0.00250994,0.00631926,-6.46706e-05,1.11837,0.00423456,0.010211,1497,414,5.28511,28.6731
280,610,5.26868,-28.3185,0.00140984,0.00540553,0.00291029,0.00693772,-0.000122353,1.08619,0.00466647,0.00943998,1504,414,5.26873,28.3185
287,610,5.23389,-27.963,0.00196982,0.00571254,0.00348842,0.00779985,-0.000117486,1.03159,0.0052395,0.0124812,1511,414,5.23392,27.9631
294,610,5.22888,-27.6168,0.00253959,0.00584121,0.00405668,0.0085701,-0.000189303,0.978634,0.00577754,0.0117274,1518,414,5.22883,27.6168
301,610,5.22192,-27.2706,0.00317642,0.00586877,0.00464065,0.00935456,-0.000309364,0.926565,0.00634201,0.0110379,1525,414,5.22194,27.2706
308,610,5.19727,-26.8985,0.00398901,0.00585253,0.00530025,0.0103023,-0.000460756,0.872407,0.00702682,0.0122142,1532,414,5.19728,26.8985
315,610,5.17004,-26.5276,0.00482826,0.00571001,0.00593675,0.0112222,-0.000683964,0.822461,0.00771958,0.0125348,1539,414,5.1701,26.5276
322,610,5.14685,-26.1125,0.00549225,0.00558997,0.00653311,0.0120744,-0.000992187,0.789138,0.00839988,0.0120754,1546,414,5.1468,26.1125
329,610,5.1095,-25.6936,0.0058695,0.00541077,0.0069701,0.012614,-0.00133374,0.768951,0.00888734,0.01094,1553,414,5.10953,25.6936
336,610,5.10425,-25.2847,0.00582284,0.0052154,0.0071138,0.0126394,-0.00160116,0.764064,0.00900755,0.00967138,1560,414,5.10422,25.2847
343,610,5.10034,-24.8654,0.00553335,0.00507502,0.00713407,0.0124419,-0.00183357,0.769343,0.00896851,0.0184852,1567,414,5.10035,24.8653
350,610,4.99451,-24.5132,0.00501531,0.00561869,0.00729379,0.012617,-0.00198302,0.806068,0.00914431,0.0422499,1574,414,4.99453,24.5132
357,610,4.9447,-23.7917,0,0,0,0,0,0,0,-1,1581,414,4.94471,23.7918
364,610,4.34302,-15.9496,0,0,0,0,0,0,0,-1,1588,414,4.34299,15.9496
371,610,3.54138,-13.3788,0,0,0,0,0,0,0,-1,1595,414,3.54137,13.3788
378,610,3.5752,-12.1958,0,0,0,0,0,0,0,-1,1602,414,3.57517,12.1958
385,610,2.57104,-10.3878,0,0,0,0,0,0,0,-1,1609,414,2.57109,10.3878
392,610,1.99744,-1.83582,0,0,0,0,0,0,0,-1,1616,414,1.99741,1.8358
399,610,2.77136,-2.60333,0,0,0,0,0,0,0,-1,1623,414,2.77133,2.60332
406,610,3.54529,-3.37085,0,0,0,0,0,0,0,-1,1630,414,3.54525,3.37084
413,610,3.01929,-3.20306,0,0,0,0,0,0,0,-1,1637,414,3.01929,3.20306
420,610,4.78149,-3.64041,0,0,0,0,0,0,0,-1,1644,414,4.78152,3.64042
427,610,5.20764,-4.67545,0,0,0,0,0,0,0,-1,1651,414,5.20759,4.67545
434,610,5.39233,-5.45441,0,0,0,0,0,0,0,-1,1658,414,5.39228,5.4544
441,610,0,0,0,0,0,0,0,0,0,-1,1665,414,0,0
448,610,0,0,0,0,0,0,0,0,0,-1,1672,414,0,0
455,610,0,0,0,0,0,0,0,0,0,-1,1679,414,0,0
462,610,0,0,0,0,0,0,0,0,0,-1,1686,414,0,0
469,610,0,0,0,0,0,0,0,0,0,-1,1693,414,0,0
476,610,0,0,0,0,0,0,0,0,0,-1,1700,414,0,0
483,610,0,0,0,0,0,0,0,0,0,-1,1707,414,0,0
490,610,0,0,0,0,0,0,0,0,0,-1,1714,414,0,0
497,610,0,0,0,0,0,0,0,0,0,-1,1721,414,0,0
504,610,0,0,0,0,0,0,0,0,0,-1,1728,414,0,0
511,610,0,0,0,0,0,0,0,0,0,-1,1735,414,0,0
518,610,0,0,0,0,0,0,0,0,0,-1,1742,414,0,0
525,610,0,0,0,0,0,0,0,0,0,-1,1749,414,0,0
532,610,0,0,0,0,0,0,0,0,0,-1,1756,414,0,0
539,610,0,0,0,0,0,0,0,0,0,-1,1763,414,0,0
546,610,0,0,0,0,0,0,0,0,0,-1,1770,414,0,0
553,610,0,0,0,0,0,0,0,0,0,-1,1777,414,0,0
560,610,0,0,0,0,0,0,0,0,0,-1,1784,414,0,0
567,610,0,0,0,0,0,0,0,0,0,-1,1791,414,0,0
574,610,0,0,0,0,0,0,0,0,0,-1,1798,414,0,0
581,610,0,0,0,0,0,0,0,0,0,-1,1805,414,0,0
588,610,0,0,0,0,0,0,0,0,0,-1,1812,414,0,0
595,610,0,0,0,0,0,0,0,0,0,-1,1819,414,0,0
602,610,0,0,0,0,0,0,0,0,0,-1,1826,414,0,0
609,610,0,0,0,0,0,0,0,0,0,-1,1833,414,0,0
616,610,0,0,0,0,0,0,0,0,0,-1,1840,414,0,0
623,610,0,0,0,0,0,0,0,0,0,-1,1847,414,0,0
630,610,0,0,0,0,0,0,0,0,0,-1,1854,414,0,0
637,610,0,0,0,0,0,0,0,0,0,-1,1861,414,0,0
644,610,0,0,0,0,0,0,0,0,0,-1,1868,414,0,0
651,610,0,0,0,0,0,0,0,0,0,-1,1875,414,0,0
658,610,0,0,0,0,0,0,0,0,0,-1,1882,414,0,0
665,610,0,0,0,0,0,0,0,0,0,-1,1889,414,0,0
672,610,0,0,0,0,0,0,0,0,0,-1,1896,414,0,0
679,610,0,0,0,0,0,0,0,0,0,-1,1903,414,0,0
686,610,0,0,0,0,0,0,0,0,0,-1,1910,414,0,0
693,610,0,0,0,0,0,0,0,0,0,-1,1917,414,0,0
700,610,0,0,0,0,0,0,0,0,0,-1,1924,414,0,0
707,610,0,0,0,0,0,0,0,0,0,-1,1931,414,0,0
714,610,0,0,0,0,0,0,0,0,0,-1,1938,414,0,0
721,610,0,0,0,0,0,0,0,0,0,-1,1945,414,0,0
728,610,0,0,0,0,0,0,0,0,0,-1,1952,414,0,0
735,610,0,0,0,0,0,0,0,0,0,-1,1959,414,0,0
742,610,0,0,0,0,0,0,0,0,0,-1,1966,414,0,0
749,610,0,0,0,0,0,0,0,0,0,-1,1973,414,0,0
756,610,0,0,0,0,0,0,0,0,0,-1,1980,414,0,0
763,610,0,0,0,0,0,0,0,0,0,-1,1987,414,0,0
770,610,0,0,0,0,0,0,0,0,0,-1,1994,414,0,0
777,610,0,0,0,0,0,0,0,0,0,-1,2001,414,0,0
784,610,0,0,0,0,0,0,0,0,0,-1,2008,414,0,0
791,610,0,0,0,0,0,0,0,0,0,-1,2015,414,0,0
798,610,0,0,0,0,0,0,0,0,0,-1,2022,414,0,0
805,610,0,0,0,0,0,0,0,0,0,-1,2029,414,0,0
812,610,0,0,0,0,0,0,0,0,0,-1,2036,414,0,0
-700,603,0,0,0,0,0,0,0,0,0,-1,524,421,0,0
-693,603,0,0,0,0,0,0,0,0,0,-1,531,421,0,0
-686,603,0,0,0,0,0,0,0,0,0,-1,538,421,0,0
-679,603,0,0,0,0,0,0,0,0,0,-1,545,421,0,0
-672,603,0,0,0,0,0,0,0,0,0,-1,552,421,0,0
-665,603,0,0,0,0,0,0,0,0,0,-1,559,421,0,0
-658,603,0,0,0,0,0,0,0,0,0,-1,566,421,0,0
-651,603,0,0,0,0,0,0,0,0,0,-1,573,421,0,0
-644,603,0,0,0,0,0,0,0,0,0,-1,580,421,0,0
-637,603,0,0,0,0,0,0,0,0,0,-1,587,421,0,0
-630,603,0,0,0,0,0,0,0,0,0,-1,594,421,0,0
-623,603,0,0,0,0,0,0,0,0,0,-1,601,421,0,0
-616,603,0,0,0,0,0,0,0,0,0,-1,608,421,0,0
-609,603,0,0,0,0,0,0,0,0,0,-1,615,421,0,0
-602,603,0,0,0,0,0,0,0,0,0,-1,622,421,0,0
-595,603,0,0,0,0,0,0,0,0,0,-1,629,421,0,0
-588,603,0,0,0,0,0,0,0,0,0,-1,636,421,0,0
-581,603,0,0,0,0,0,0,0,0,0,-1,643,421,0,0
-574,603,0,0,0,0,0,0,0,0,0,-1,650,421,0,0
-567,603,0,0,0,0,0,0,0,0,0,-1,657,421,0,0
-560,603,0,0,0,0,0,0,0,0,0,-1,664,421,0,0
-553,603,0,0,0,0,0,0,0,0,0,-1,671,421,0,0
-546,603,0,0,0,0,0,0,0,0,0,-1,678,421,0,0
-539,603,0,0,0,0,0,0,0,0,0,-1,685,421,0,0
-532,603,0,0,0,0,0,0,0,0,0,-1,692,421,0,0
-525,603,0,0,0,0,0,0,0,0,0,-1,699,421,0,0
-518,603,0,0,0,0,0,0,0,0,0,-1,706,421,0,0
-511,603,0,0,0,0,0,0,0,0,0,-1,713,421,0,0
-504,603,0,0,0,0,0,0,0,0,0,-1,720,421,0,0
-497,603,0,0,0,0,0,0,0,0,0,-1,727,421,0,0
-490,603,0,0,0,0,0,0,0,0,0,-1,734,421,0,0
-483,603,0,0,0,0,0,0,0,0,0,-1,741,421,0,0
-476,603,0,0,0,0,0,0,0,0,0,-1,748,421,0,0
-469,603,0,0,0,0,0,0,0,0,0,-1,755,421,0,0
-462,603,0,0,0,0,0,0,0,0,0,-1,762,421,0,0
-455,603,0,0,0,0,0,0,0,0,0,-1,769,421,0,0
-448,603,0,0,0,0,0,0,0,0,0,-1,776,421,0,0
-441,603,0,0,0,0,0,0,0,0,0,-1,783,421,0,0
-434,603,0,0,0,0,0,0,0,0,0,-1,790,421,0,0
-427,603,0,0,0,0,0,0,0,0,0,-1,797,421,0,0
-420,603,0,0,0,0,0,0,0,0,0,-1,804,421,0,0
-413,603,0,0,0,0,0,0,0,0,0,-1,811,421,0,0
-406,603,0,0,0,0,0,0,0,0,0,-1,818,421,0,0
-399,603,0,0,0,0,0,0,0,0,0,-1,825,421,0,0
-392,603,0,0,0,0,0,0,0,0,0,-1,832,421,0,0
-385,603,0,0,0,0,0,0,0,0,0,-1,839,421,0,0
-378,603,0,0,0,0,0,0,0,0,0,-1,846,421,0,0
-371,603,0,0,0,0,0,0,0,0,0,-1,853,421,0,0
-364,603,0,0,0,0,0,0,0,0,0,-1,860,421,0,0
-357,603,0,0,0,0,0,0,0,0,0,-1,867,421,0,0
-350,603,0,0,0,0,0,0,0,0,0,-1,874,421,0,0
-343,603,0,0,0,0,0,0,0,0,0,-1,881,421,0,0
-336,603,0,0,0,0,0,0,0,0,0,-1,888,421,0,0
-329,603,4.09686,-17.9702,0,0,0,0,0,0,0,-1,895,421,4.09687,17.9702
-322,603,5.98431,-20.9071,0,0,0,0,0,0,0,-1,902,421,5.98431,20.9071
-315,603,5.99744,-20.4501,0,0,0,0,0,0,0,-1,909,421,5.99745,20.4501
-308,603,5.92249,-20.778,0,0,0,0,0,0,0,-1,916,421,5.92248,20.778
-301,603,2.87506,-22.5246,0,0,0,0,0,0,0,-1,923,421,2.87504,22.5246
-294,603,4.08228,-22.5695,0,0,0,0,0,0,0,-1,930,421,4.0823,22.5695
-287,603,5.09351,-22.4149,0,0,0,0,0,0,0,-1,937,421,5.09353,22.4149
-280,603,3.82019,-21.8847,0,0,0,0,0,0,0,-1,944,421,3.82019,21.8847
-273,603,3.82324,-22.3095,0,0,0,0,0,0,0,-1,951,421,3.82324,22.3095
-266,603,3.71173,-22.6786,0,0,0,0,0,0,0,-1,958,421,3.71172,22.6786
-259,603,3.53296,-22.9663,0,0,0,0,0,0,0,-1,965,421,3.53298,22.9663
-252,603,3.5943,-23.8613,0,0,0,0,0,0,0,-1,972,421,3.59429,23.8613
-245,603,3.62238,-24.1341,0.00129892,0.0109361,-0.0064393,0.0141601,-0.00192508,-1.10661,0.0101429,0.0353167,979,421,3.62236,24.1341
-238,603,3.5932,-24.4755,0.000538707,0.011353,-0.00604648,0.0140574,-0.00216569,-1.15022,0.0101707,0.0234893,986,421,3.59318,24.4755
-231,603,3.53125,-24.9576,-9.94019e-06,0.0114084,-0.00561296,0.0137055,-0.00230701,-1.18235,0.00999515,0.0138372,993,421,3.53123,24.9576
-224,603,3.49402,-25.403,0.000522638,0.010074,-0.00533902,0.0124616,-0.00186494,-1.15028,0.00899404,0.0138907,1000,421,3.49404,25.4031
-217,603,3.49554,-25.7896,0.000849688,0.00814836,-0.00487852,0.0105914,-0.0015934,-1.10652,0.00764763,0.0136241,1007,421,3.49554,25.7896
-210,603,3.47949,-26.1873,0.0011218,0.00641312,-0.00423166,0.0087581,-0.00122318,-1.06477,0.00628625,0.0115877,1014,421,3.47947,26.1873
-203,603,3.46802,-26.5774,0.00140207,0.00477855,-0.00345555,0.00693622,-0.000755591,-1.01262,0.00489548,0.0170792,1021,421,3.46803,26.5774
-196,603,3.47937,-26.975,0.00150899,0.0032309,-0.00278063,0.00528082,-0.000540923,-0.935531,0.00371401,0.0187252,1028,421,3.47931,26.975
-189,603,3.44165,-27.317,0.00144009,0.00206321,-0.00216768,0.0039416,-0.000438302,-0.856775,0.00278535,0.0165975,1035,421,3.44161,27.317
-182,603,3.41211,-27.6808,0.00158593,0.000770676,-0.00164127,0.00286944,-0.00051283,-0.66368,0.00210483,0.0122557,1042,421,3.4121,27.6808
-175,603,3.38037,-28.0245,0.00176174,-0.000670579,-0.0010432,0.00214787,-0.0010567,-0.354496,0.00188557,0.0118065,1049,421,3.38034,28.0245
-168,603,3.34509,-28.3547,0.00179245,-0.00188068,-0.000606415,0.00188998,-0.00197821,-0.159459,0.00223349,0.0141018,1056,421,3.34503,28.3547
-161,603,3.33521,-28.7017,0.00175232,-0.00288269,-0.000216168,0.00176238,-0.00289275,-0.0465036,0.00271392,0.0136502,1063,421,3.33515,28.7017
-154,603,3.35168,-29.0217,0.00172375,-0.00351227,7.11601e-05,0.00172471,-0.00351324,0.0135871,0.00308234,0.0125473,1070,421,3.35174,29.0217
-147,603,3.36475,-29.3246,0.00170978,-0.00397303,0.000178756,0.00171539,-0.00397865,0.0314142,0.00337291,0.0138803,1077,421,3.36474,29.3246
-140,603,3.37439,-29.6463,0.001782,-0.00440979,0.000179027,0.00178717,-0.00441496,0.0288815,0.00368638,0.0120571,1084,421,3.37442,29.6463
-133,603,3.35742,-29.9245,0.00183584,-0.00475957,0.000148036,0.00183916,-0.00476289,0.0224303,0.00393431,0.0125126,1091,421,3.35739,29.9245
-126,603,3.35205,-30.1867,0.00193555,-0.0050335,5.57773e-05,0.00193599,-0.00503394,0.0080029,0.00415448,0.0113148,1098,421,3.35208,30.1867
-119,603,3.36523,-30.4849,0.00216044,-0.00518775,-5.93341e-05,0.00216092,-0.00518823,-0.00807395,0.00436138,0.0110143,1105,421,3.36522,30.4849
-112,603,3.37537,-30.7815,0.00250025,-0.00537901,-0.000188563,0.00250476,-0.00538352,-0.0239133,0.00465429,0.0152482,1112,421,3.37538,30.7815
-105,603,3.39368,-31.0691,0.0027848,-0.00556013,-0.00033726,0.00279841,-0.00557374,-0.0403272,0.00492139,0.0151229,1119,421,3.39362,31.0691
-98,603,3.38623,-31.2931,0.00302884,-0.00557085,-0.000418792,0.00304919,-0.0055912,-0.0485454,0.00505998,0.0129378,1126,421,3.38621,31.2931
-91,603,3.39709,-31.527,0.00324196,-0.00555564,-0.000462706,0.00326623,-0.00557991,-0.0524019,0.00516522,0.00953749,1133,421,3.39707,31.527
-84,603,3.44092,-31.802,0.00344368,-0.00544118,-0.000423993,0.00346387,-0.00546136,-0.0475767,0.00519583,0.0106581,1140,421,3.44087,31.802
-77,603,3.45557,-32.0619,0.00372008,-0.00512787,-0.000249104,0.00372709,-0.00513487,-0.0281242,0.00513793,0.0168286,1147,421,3.4556,32.0619
-70,603,3.45093,-32.2749,0,0,0,0,0,0,0,-1,1154,421,3.45087,32.2749
-63,603,3.49817,-32.4557,0,0,0,0,0,0,0,-1,1161,421,3.49814,32.4557
-56,603,3.5575,-32.6639,0,0,0,0,0,0,0,-1,1168,421,3.55747,32.6639
-49,603,3.599,-32.8409,0,0,0,0,0,0,0,-1,1175,421,3.59895,32.841
-42,603,3.5918,-33.0131,0,0,0,0,0,0,0,-1,1182,421,3.59176,33.0131
-35,603,3.59973,-33.1257,0.00315774,-0.00524353,-0.0254712,0.0247723,-0.0268581,-0.703675,0.029817,0.0418923,1189,421,3.59972,33.1257
-28,603,3.62329,-33.2272,0.00272999,-0.00766453,-0.028679,0.0266789,-0.0316134,-0.69576,0.0336952,0.0272991,1196,421,3.6233,33.2272
-21,603,3.69507,-33.3677,0.00218142,-0.0107797,-0.0312784,0.0276436,-0.0362418,-0.683249,0.0369954,0.0240789,1203,421,3.69504,33.3677
-14,603,3.77185,-33.4715,0.00202439,-0.0135577,-0.0328987,0.028042,-0.0395753,-0.66913,0.0392277,0.0225061,1210,421,3.77181,33.4715
-7,603,3.8335,-33.5708,0.00115261,-0.0156069,-0.0328163,0.0266422,-0.0410965,-0.660393,0.0394046,0.0245777,1217,421,3.83344,33.5708
0,603,3.91821,-33.6995,-2.14465e-05,-0.0176069,-0.0316297,0.0240149,-0.0416433,-0.649826,0.0383605,0.0295799,1224,421,3.91821,33.6995
7,603,3.98914,-33.6563,-0.00192475,-0.0193087,-0.0294566,0.0200955,-0.041329,-0.641931,0.0361629,0.037059,1231,421,3.98909,33.6563
14,603,4.09888,-33.5443,-0.00466028,-0.0203172,-0.026307,0.0149583,-0.0399358,-0.64078,0.0327685,0.0360803,1238,421,4.09886,33.5443
21,603,4.0835,-33.6304,-0.0078666,-0.0204978,-0.0225988,0.00928252,-0.0376469,-0.649141,0.028697,0.0290928,1245,421,4.08353,33.6304
28,603,4.18921,-33.7082,-0.0110898,-0.0202318,-0.0186268,0.00351866,-0.0348402,-0.665076,0.0244841,0.0327165,1252,421,4.18915,33.7081
35,603,4.26501,-33.6574,-0.0138475,-0.0203307,-0.0132907,-0.00340881,-0.0307694,-0.665784,0.0194764,0.0410461,1259,421,4.26504,33.6574
42,603,4.35083,-33.9048,-0.0156999,-0.0205429,-0.00761774,-0.0101281,-0.0261147,-0.631512,0.0152033,0.0378913,1266,421,4.35078,33.9048
49,603,4.44128,-34.0631,-0.0166329,-0.0210107,-0.00205552,-0.0158191,-0.0218246,-0.376991,0.0130181,0.0192577,1273,421,4.4413,34.0631
56,603,4.40344,-33.9623,-0.0166755,-0.0220464,0.00292315,-0.0153915,-0.0233304,0.413878,0.013697,0.0413269,1280,421,4.40346,33.9623
63,603,4.38684,-33.8602,0,0,0,0,0,0,0,-1,1287,421,4.38679,33.8602
70,603,4.4845,-33.9132,0,0,0,0,0,0,0,-1,1294,421,4.48455,33.9132
77,603,4.68176,-33.8909,0,0,0,0,0,0,0,-1,1301,421,4.68176,33.8909
84,603,4.71094,-33.9968,0,0,0,0,0,0,0,-1,1308,421,4.71089,33.9968
91,603,4.58875,-33.7319,-0.00697974,-0.0371671,0.0240806,0.00634658,-0.0504934,0.505453,0.035965,0.0499565,1315,421,4.58872,33.7319
98,603,5.02612,-34.027,-0.0047168,-0.0400452,0.0266271,0.0095725,-0.0543345,0.492532,0.0397994,0.0495585,1322,421,5.02614,34.027
105,603,5.29333,-33.7541,-0.00250738,-0.041701,0.0279904,0.0120645,-0.0562728,0.479993,0.0421167,0.0449366,1329,421,5.2933,33.7541
112,603,5.13513,-33.5242,-0.000413978,-0.0421883,0.0285722,0.0140916,-0.0566938,0.469773,0.0432649,0.0405088,1336,421,5.13507,33.5242
119,603,5.16296,-33.4809,0.00140749,-0.041469,0.0285693,0.0156876,-0.0557492,0.463521,0.043352,0.042341,1343,421,5.163,33.4809
126,603,5.19128,-33.2901,0.00270887,-0.0395072,0.0278078,0.0165125,-0.0533108,0.460758,0.0421373,0.0489497,1350,421,5.19133,33.2901
133,603,5.19153,-33.2047,0.00221338,-0.0349116,0.025623,0.0152911,-0.0479893,0.471925,0.0381261,0.0399509,1357,421,5.19149,33.2047
140,603,5.30298,-33.1014,0.00183906,-0.0297014,0.0227397,0.0137418,-0.0416042,0.48222,0.0332764,0.0293066,1364,421,5.303,33.1014
147,603,5.1687,-33.0208,0.00138896,-0.0247331,0.0197879,0.0120377,-0.0353818,0.493695,0.028462,0.0246621,1371,421,5.16872,33.0207
154,603,5.15149,-32.9534,0.00132951,-0.0201683,0.0164492,0.0102304,-0.0290692,0.495996,0.0235425,0.0307846,1378,421,5.15152,32.9534
161,603,5.25183,-32.817,0.00158526,-0.0156114,0.0129658,0.00854464,-0.0225708,0.492614,0.0185629,0.0310331,1385,421,5.25189,32.817
168,603,5.34216,-32.6498,0.00205658,-0.0112579,0.00942517,0.00693851,-0.0161399,0.477918,0.0136728,0.032984,1392,421,5.34212,32.6498
175,603,5.53955,-32.464,0.00375406,-0.00592361,0.0051672,0.00599437,-0.00816392,0.409102,0.00820622,0.0361239,1399,421,5.53949,32.464
182,603,5.58618,-32.2811,0.00402838,-0.00293384,0.00107789,0.00419144,-0.0030969,0.150139,0.00422371,0.0419309,1406,421,5.58614,32.2811
189,603,5.53491,-32.0274,0.00456972,-0.00452651,-0.000834704,0.00464568,-0.00460247,-0.0907538,0.00533944,0.0370861,1413,421,5.53485,32.0274
196,603,5.45349,-31.7714,0.00489446,-0.00424006,-0.000743789,0.00495463,-0.00430023,-0.0807175,0.00534775,0.0278989,1420,421,5.45344,31.7714
203,603,5.45776,-31.5938,0.00517576,-0.00292718,-0.000853706,0.00526473,-0.00301614,-0.103839,0.00483936,0.0165338,1427,421,5.4578,31.5938
210,603,5.48975,-31.4417,0.00446881,-0.000943816,-0.000264871,0.00448174,-0.000956747,-0.0487804,0.00335256,0.0132032,1434,421,5.48973,31.4417
217,603,5.5072,-31.1433,0.00388719,0.000870315,0.000216592,0.00390266,0.000854844,0.071306,0.00236881,0.013719,1441,421,5.50722,31.1433
224,603,5.55103,-30.8438,0.00348483,0.00162201,0.000676883,0.00370481,0.00140203,0.31422,0.00215994,0.0172426,1448,421,5.55105,30.8438
231,603,5.53992,-30.5587,0.00311168,0.00221728,0.00107368,0.00382757,0.00150139,0.58807,0.00222688,0.0154129,1455,421,5.53986,30.5587
238,603,5.57458,-30.2692,0.00289522,0.00260734,0.00130132,0.00406054,0.00144202,0.730316,0.00237693,0.0115943,1462,421,5.57464,30.2692
245,603,5.59644,-29.9615,0.0026787,0.00290511,0.0013918,0.0041883,0.00139552,0.825977,0.00246256,0.0113303,1469,421,5.59644,29.9615
252,603,5.62012,-29.6566,0.00235647,0.00311071,0.00142576,0.00420838,0.0012588,0.914689,0.00249422,0.0100221,1476,421,5.62007,29.6566
259,603,5.61023,-29.3406,0.00197626,0.00326318,0.00146443,0.00421928,0.00102016,0.992396,0.00254198,0.0101543,1483,421,5.61025,29.3406
266,603,5.60107,-29.013,0.0016568,0.00339584,0.00151696,0.00427482,0.000777819,1.04564,0.00262924,0.0120148,1490,421,5.60108,29.013
273,603,5.60864,-28.6813,0.00152266,0.00356629,0.00167217,0.00450413,0.000584815,1.05966,0.00282805,0.0114021,1497,421,5.60866,28.6813
280,603,5.61755,-28.3225,0.0014975,0.00363207,0.0018524,0.00470266,0.000426914,1.04675,0.00300293,0.012718,1504,421,5.61754,28.3225
287,603,5.60645,-27.9674,0.00173404,0.00385134,0.00222636,0.00525793,0.000327448,1.00733,0.00340139,0.012224,1511,421,5.60647,27.9674
294,603,5.57312,-27.619,0.00199201,0.00397051,0.00259613,0.00575948,0.000203039,0.967429,0.0037738,0.0100996,1518,421,5.57317,27.619
301,603,5.56641,-27.2576,0.0023087,0.00408358,0.00301544,0.00633946,5.28181e-05,0.928507,0.00420881,0.0118414,1525,421,5.56642,27.2576
308,603,5.56018,-26.8915,0.00277541,0.00416932,0.00351629,0.00705706,-0.000112327,0.883234,0.00474259,0.0171564,1532,421,5.56017,26.8915
315,603,5.53894,-26.5246,0.00325131,0.00420597,0.00399673,0.00775377,-0.000296494,0.844831,0.0052708,0.0154869,1539,421,5.5389,26.5246
322,603,5.5155,-26.1266,0.00357652,0.00428379,0.00445223,0.00839641,-0.000536101,0.825029,0.00578459,0.0150394,1546,421,5.51546,26.1267
329,603,5.48169,-25.712,0.00368951,0.00431071,0.00480728,0.00881742,-0.000817194,0.817658,0.00616875,0.0104965,1553,421,5.48167,25.712
336,603,5.47742,-25.3195,0.00349353,0.00432016,0.00496661,0.00889062,-0.00107693,0.826912,0.00631673,0.00857647,1560,421,5.47738,25.3195
343,603,5.48621,-24.9133,0.00310226,0.00442681,0.00505825,0.00886596,-0.00133689,0.850492,0.00640296,0.0107773,1567,421,5.48615,24.9133
350,603,5.45593,-24.483,0.00255153,0.00506457,0.00526247,0.00921845,-0.00160235,0.902589,0.00674351,0.0206732,1574,421,5.45597,24.483
357,603,5.44958,-23.9722,0.00175857,0.00556341,0.0054316,0.00941611,-0.00209413,0.953847,0.00707946,0.0322919,1581,421,5.44957,23.9722
364,603,5.50598,-23.3892,0,0,0,0,0,0,0,-1,1588,421,5.50596,23.3892
371,603,5.36951,-23.008,0,0,0,0,0,0,0,-1,1595,421,5.36945,23.008
378,603,5.22095,-22.8461,0,0,0,0,0,0,0,-1,1602,421,5.221,22.8461
385,603,4.97754,-22.253,0,0,0,0,0,0,0,-1,1609,421,4.9775,22.253
392,603,4.90527,-19.605,0,0,0,0,0,0,0,-1,1616,421,4.90526,19.605
399,603,2.94299,0.638214,0,0,0,0,0,0,0,-1,1623,421,2.94293,-0.638215
406,603,3.01917,-2.37219,0,0,0,0,0,0,0,-1,1630,421,3.01915,2.37219
413,603,2.38928,-2.41275,0,0,0,0,0,0,0,-1,1637,421,2.38926,2.41274
420,603,2.74866,-2.30066,0,0,0,0,0,0,0,-1,1644,421,2.74867,2.30065
427,603,7.11548,-3.35352,0,0,0,0,0,0,0,-1,1651,421,7.11549,3.35351
434,603,7.32153,-4.50525,0,0,0,0,0,0,0,-1,1658,421,7.32149,4.50525
441,603,3.18213,-0.250946,0,0,0,0,0,0,0,-1,1665,421,3.18212,0.250944
448,603,2.95667,-0.066925,0,0,0,0,0,0,0,-1,1672,421,2.95662,0.0669226
455,603,0,0,0,0,0,0,0,0,0,-1,1679,421,0,0
462,603,0,0,0,0,0,0,0,0,0,-1,1686,421,0,0
469,603,0,0,0,0,0,0,0,0,0,-1,1693,421,0,0
476,603,0,0,0,0,0,0,0,0,0,-1,1700,421,0,0
483,603,0,0,0,0,0,0,0,0,0,-1,1707,421,0,0
490,603,0,0,0,0,0,0,0,0,0,-1,1714,421,0,0
497,603,0,0,0,0,0,0,0,0,0,-1,1721,421,0,0
504,603,0,0,0,0,0,0,0,0,0,-1,1728,421,0,0
511,603,0,0,0,0,0,0,0,0,0,-1,1735,421,0,0
518,603,0,0,0,0,0,0,0,0,0,-1,1742,421,0,0
525,603,0,0,0,0,0,0,0,0,0,-1,1749,421,0,0
532,603,0,0,0,0,0,0,0,0,0,-1,1756,421,0,0
539,603,0,0,0,0,0,0,0,0,0,-1,1763,421,0,0
546,603,0,0,0,0,0,0,0,0,0,-1,1770,421,0,0
553,603,0,0,0,0,0,0,0,0,0,-1,1777,421,0,0
560,603,0,0,0,0,0,0,0,0,0,-1,1784,421,0,0
567,603,0,0,0,0,0,0,0,0,0,-1,1791,421,0,0
574,603,0,0,0,0,0,0,0,0,0,-1,1798,421,0,0
581,603,0,0,0,0,0,0,0,0,0,-1,1805,421,0,0
588,603,0,0,0,0,0,0,0,0,0,-1,1812,421,0,0
595,603,0,0,0,0,0,0,0,0,0,-1,1819,421,0,0
602,603,0,0,0,0,0,0,0,0,0,-1,1826,421,0,0
609,603,0,0,0,0,0,0,0,0,0,-1,1833,421,0,0
616,603,0,0,0,0,0,0,0,0,0,-1,1840,421,0,0
623,603,0,0,0,0,0,0,0,0,0,-1,1847,421,0,0
630,603,0,0,0,0,0,0,0,0,0,-1,1854,421,0,0
637,603,0,0,0,0,0,0,0,0,0,-1,1861,421,0,0
644,603,0,0,0,0,0,0,0,0,0,-1,1868,421,0,0
651,603,0,0,0,0,0,0,0,0,0,-1,1875,421,0,0
658,603,0,0,0,0,0,0,0,0,0,-1,1882,421,0,0
665,603,0,0,0,0,0,0,0,0,0,-1,1889,421,0,0
672,603,0,0,0,0,0,0,0,0,0,-1,1896,421,0,0
679,603,0,0,0,0,0,0,0,0,0,-1,1903,421,0,0
686,603,0,0,0,0,0,0,0,0,0,-1,1910,421,0,0
693,603,0,0,0,0,0,0,0,0,0,-1,1917,421,0,0
700,603,0,0,0,0,0,0,0,0,0,-1,1924,421,0,0
707,603,0,0,0,0,0,0,0,0,0,-1,1931,421,0,0
714,603,0,0,0,0,0,0,0,0,0,-1,1938,421,0,0
721,603,0,0,0,0,0,0,0,0,0,-1,1945,421,0,0
728,603,0,0,0,0,0,0,0,0,0,-1,1952,421,0,0
735,603,0,0,0,0,0,0,0,0,0,-1,1959,421,0,0
742,603,0,0,0,0,0,0,0,0,0,-1,1966,421,0,0
749,603,0,0,0,0,0,0,0,0,0,-1,1973,421,0,0
756,603,0,0,0,0,0,0,0,0,0,-1,1980,421,0,0
763,603,0,0,0,0,0,0,0,0,0,-1,1987,421,0,0
770,603,0,0,0,0,0,0,0,0,0,-1,1994,421,0,0
777,603,0,0,0,0,0,0,0,0,0,-1,2001,421,0,0
784,603,0,0,0,0,0,0,0,0,0,-1,2008,421,0,0
791,603,0,0,0,0,0,0,0,0,0,-1,2015,421,0,0
798,603,0,0,0,0,0,0,0,0,0,-1,2022,421,0,0
805,603,0,0,0,0,0,0,0,0,0,-1,2029,421,0,0
812,603,0,0,0,0,0,0,0,0,0,-1,2036,421,0,0
-700,596,0,0,0,0,0,0,0,0,0,-1,524,428,0,0
-693,596,0,0,0,0,0,0,0,0,0,-1,531,428,0,0
-686,596,0,0,0,0,0,0,0,0,0,-1,538,428,0,0
-679,596,0,0,0,0,0,0,0,0,0,-1,545,428,0,0
-672,596,0,0,0,0,0,0,0,0,0,-1,552,428,0,0
-665,596,0,0,0,0,0,0,0,0,0,-1,559,428,0,0
-658,596,0,0,0,0,0,0,0,0,0,-1,566,428,0,0
-651,596,0,0,0,0,0,0,0,0,0,-1,573,428,0,0
-644,596,0,0,0,0,0,0,0,0,0,-1,580,428,0,0
-637,596,0,0,0,0,0,0,0,0,0,-1,587,428,0,0
-630,596,0,0,0,0,0,0,0,0,0,-1,594,428,0,0
-623,596,0,0,0,0,0,0,0,0,0,-1,601,428,0,0
-616,596,0,0,0,0,0,0,0,0,0,-1,608,428,0,0
-609,596,0,0,0,0,0,0,0,0,0,-1,615,428,0,0
-602,596,0,0,0,0,0,0,0,0,0,-1,622,428,0,0
-595,596,0,0,0,0,0,0,0,0,0,-1,629,428,0,0
-588,596,0,0,0,0,0,0,0,0,0,-1,636,428,0,0
-581,596,0,0,0,0,0,0,0,0,0,-1,643,428,0,0
-574,596,0,0,0,0,0,0,0,0,0,-1,650,428,0,0
-567,596,0,0,0,0,0,0,0,0,0,-1,657,428,0,0
-560,596,0,0,0,0,0,0,0,0,0,-1,664,428,0,0
-553,596,0,0,0,0,0,0,0,0,0,-1,671,428,0,0
-546,596,0,0,0,0,0,0,0,0,0,-1,678,428,0,0
-539,596,0,0,0,0,0,0,0,0,0,-1,685,428,0,0
-532,596,0,0,0,0,0,0,0,0,0,-1,692,428,0,0
-525,596,0,0,0,0,0,0,0,0,0,-1,699,428,0,0
-518,596,0,0,0,0,0,0,0,0,0,-1,706,428,0,0
-511,596,0,0,0,0,0,0,0,0,0,-1,713,428,0,0
-504,596,0,0,0,0,0,0,0,0,0,-1,720,428,0,0
-497,596,0,0,0,0,0,0,0,0,0,-1,727,428,0,0
-490,596,0,0,0,0,0,0,0,0,0,-1,734,428,0,0
-483,596,0,0,0,0,0,0,0,0,0,-1,741,428,0,0
-476,596,0,0,0,0,0,0,0,0,0,-1,748,428,0,0
-469,596,0,0,0,0,0,0,0,0,0,-1,755,428,0,0
-462,596,0,0,0,0,0,0,0,0,0,-1,762,428,0,0
-455,596,0,0,0,0,0,0,0,0,0,-1,769,428,0,0
-448,596,0,0,0,0,0,0,0,0,0,-1,776,428,0,0
-441,596,0,0,0,0,0,0,0,0,0,-1,783,428,0,0
-434,596,0,0,0,0,0,0,0,0,0,-1,790,428,0,0
-427,596,0,0,0,0,0,0,0,0,0,-1,797,428,0,0
-420,596,0,0,0,0,0,0,0,0,0,-1,804,428,0,0
-413,596,0,0,0,0,0,0,0,0,0,-1,811,428,0,0
-406,596,0,0,0,0,0,0,0,0,0,-1,818,428,0,0
-399,596,0,0,0,0,0,0,0,0,0,-1,825,428,0,0
-392,596,0,0,0,0,0,0,0,0,0,-1,832,428,0,0
-385,596,0,0,0,0,0,0,0,0,0,-1,839,428,0,0
-378,596,0,0,0,0,0,0,0,0,0,-1,846,428,0,0
-371,596,0,0,0,0,0,0,0,0,0,-1,853,428,0,0
-364,596,0,0,0,0,0,0,0,0,0,-1,860,428,0,0
-357,596,0,0,0,0,0,0,0,0,0,-1,867,428,0,0
-350,596,0,0,0,0,0,0,0,0,0,-1,874,428,0,0
-343,596,0,0,0,0,0,0,0,0,0,-1,881,428,0,0
-336,596,-0.98291,-20.0836,0,0,0,0,0,0,0,-1,888,428,-0.982933,20.0836
-329,596,4.43048,-20.1666,0,0,0,0,0,0,0,-1,895,428,4.43045,20.1666
-322,596,4.29657,-19.996,0,0,0,0,0,0,0,-1,902,428,4.29655,19.996
-315,596,4.20044,-19.8317,0,0,0,0,0,0,0,-1,909,428,4.20045,19.8317
-308,596,0.254761,-20.841,0,0,0,0,0,0,0,-1,916,428,0.254731,20.841
-301,596,2.90369,-20.8094,0,0,0,0,0,0,0,-1,923,428,2.9037,20.8094
-294,596,3.09009,-21.7782,0,0,0,0,0,0,0,-1,930,428,3.09008,21.7782
-287,596,3.14655,-21.4025,0,0,0,0,0,0,0,-1,937,428,3.14657,21.4025
-280,596,3.27997,-21.9278,-7.39025e-05,0.00783111,-0.00315306,0.0089347,-0.00117749,-1.23412,0.00638526,0.0497965,944,428,3.27995,21.9278
-273,596,3.35724,-22.3942,0.000493574,0.00806833,-0.00431365,0.0100213,-0.00145942,-1.14566,0.00721671,0.0434557,951,428,3.35721,22.3942
-266,596,3.31061,-22.7697,1.74844e-05,0.00841361,-0.00581471,0.0113873,-0.00295624,-1.09806,0.00874515,0.0402664,958,428,3.3106,22.7698
-259,596,3.1922,-23.1361,0.000495853,0.00826313,-0.00571702,0.0112909,-0.00253188,-1.08375,0.00849786,0.0343011,965,428,3.19219,23.1361
-252,596,3.19983,-23.7442,0.00108174,0.00854639,-0.00563987,0.0115771,-0.00194895,-1.0777,0.00844302,0.0180803,972,428,3.19982,23.7442
-245,596,3.20734,-24.1949,0.00089359,0.00870198,-0.00518174,0.0112857,-0.00169014,-1.10825,0.00814585,0.0143988,979,428,3.20735,24.1949
-238,596,3.20898,-24.5943,0.000470047,0.00873271,-0.00477267,0.0109138,-0.00171101,-1.14215,0.00790813,0.0127775,986,428,3.20901,24.5943
-231,596,3.14459,-25.0191,0.000140319,0.00849815,-0.00434066,0.0103446,-0.0017061,-1.16861,0.00752979,0.013979,993,428,3.14459,25.0191
-224,596,3.13086,-25.4366,9.07615e-05,0.00771274,-0.00395152,0.00939157,-0.00158807,-1.16905,0.00685203,0.0142759,1000,428,3.13088,25.4365
-217,596,3.1333,-25.826,0.000107492,0.00652662,-0.00354728,0.00810083,-0.00146672,-1.15313,0.00595002,0.0140977,1007,428,3.13327,25.826
-210,596,3.13104,-26.2026,0.000219837,0.00523243,-0.00304392,0.00666909,-0.00121683,-1.12982,0.00490227,0.0121346,1014,428,3.13102,26.2026
-203,596,3.11377,-26.5612,0.000376808,0.00388636,-0.00240117,0.00510561,-0.000842443,-1.10095,0.00371652,0.0158197,1021,428,3.11382,26.5613
-196,596,3.12561,-26.9503,0.000464489,0.00263413,-0.00180408,0.00365443,-0.000555811,-1.05609,0.00264113,0.0159983,1028,428,3.12561,26.9503
-189,596,3.09692,-27.3077,0.000426523,0.00162974,-0.00125072,0.00241602,-0.000359759,-1.00957,0.00174302,0.0136609,1035,428,3.09687,27.3077
-182,596,3.07043,-27.6453,0.000608789,0.000467496,-0.000750227,0.00129169,-0.000215404,-0.738453,0.00094118,0.01261,1042,428,3.07046,27.6453
-175,596,3.05139,-28.0008,0.000966459,-0.000975661,-0.000201794,0.000987204,-0.000996407,-0.102446,0.00114524,0.014281,1049,428,3.05137,28.0008
-168,596,3.02844,-28.3601,0.00127081,-0.00235848,0.000114755,0.00127444,-0.0023621,0.031577,0.00213063,0.0160869,1056,428,3.02843,28.3601
-161,596,3.02893,-28.6909,0.00146956,-0.00357367,0.000427674,0.00150557,-0.00360968,0.0840023,0.00303543,0.0150634,1063,428,3.02892,28.6909
-154,596,3.02271,-29.0052,0.00175042,-0.00459074,0.000649328,0.00181623,-0.00465655,0.101002,0.00385513,0.0136227,1070,428,3.02265,29.0052
-147,596,3.05957,-29.3106,0.00208378,-0.00548265,0.000702561,0.00214846,-0.00554733,0.0918065,0.00458534,0.0137114,1077,428,3.05959,29.3106
-140,596,3.08228,-29.6169,0.00245899,-0.00640653,0.000636549,0.00250447,-0.006452,0.0713129,0.00533581,0.0139233,1084,428,3.08222,29.6169
-133,596,3.05627,-29.9103,0.00276546,-0.00732921,0.000527885,0.00279299,-0.00735674,0.052104,0.00605419,0.0143282,1091,428,3.05632,29.9103
-126,596,3.06934,-30.1914,0.00310316,-0.00817,0.00034921,0.00311397,-0.00818081,0.0309376,0.00673621,0.0117232,1098,428,3.06934,30.1914
-119,596,3.10291,-30.4956,0.0035541,-0.00887189,0.000116925,0.0035552,-0.00887299,0.00940857,0.00739112,0.0146301,1105,428,3.10289,30.4956
-112,596,3.09656,-30.7643,0.00400258,-0.00946871,-0.000133807,0.0040039,-0.00947004,-0.00993143,0.00798972,0.0156649,1112,428,3.09659,30.7643
-105,596,3.09973,-31.0569,0.00433391,-0.00987523,-0.000447993,0.00434802,-0.00988934,-0.0314868,0.00842492,0.0163328,1119,428,3.09976,31.057
-98,596,3.13562,-31.2792,0.00460576,-0.00983284,-0.000646239,0.00463463,-0.00986171,-0.0446387,0.0085489,0.0120226,1126,428,3.13562,31.2792
-91,596,3.15369,-31.6194,0.00487069,-0.00965294,-0.000714644,0.00490577,-0.00968802,-0.0490477,0.0085752,0.0282859,1133,428,3.15371,31.6194
-84,596,3.18958,-31.8006,0,0,0,0,0,0,0,-1,1140,428,3.18957,31.8006
-77,596,3.23877,-32.0684,0,0,0,0,0,0,0,-1,1147,428,3.23883,32.0684
-70,596,3.50696,-32.137,0,0,0,0,0,0,0,-1,1154,428,3.50696,32.137
-63,596,1.95569,-12.2758,0,0,0,0,0,0,0,-1,1161,428,1.95563,12.2759
-56,596,1.60107,-10.5827,0,0,0,0,0,0,0,-1,1168,428,1.60108,10.5827
-49,596,1.59473,-10.0393,0,0,0,0,0,0,0,-1,1175,428,1.59472,10.0393
-42,596,1.99585,-6.6246,0,0,0,0,0,0,0,-1,1182,428,1.99586,6.62459
-35,596,3.23682,-32.9143,0,0,0,0,0,0,0,-1,1189,428,3.23685,32.9143
-28,596,3.40417,-33.082,0,0,0,0,0,0,0,-1,1196,428,3.40416,33.082
-21,596,3.47742,-33.23,0,0,0,0,0,0,0,-1,1203,428,3.47736,33.23
-14,596,3.57959,-33.3211,0,0,0,0,0,0,0,-1,1210,428,3.57962,33.3211
-7,596,3.65833,-33.4009,0,0,0,0,0,0,0,-1,1217,428,3.65836,33.4009
0,596,3.81628,-33.5829,0,0,0,0,0,0,0,-1,1224,428,3.81624,33.5829
7,596,3.81689,-33.3098,0,0,0,0,0,0,0,-1,1231,428,3.81695,33.3098
14,596,3.88428,-33.0511,0,0,0,0,0,0,0,-1,1238,428,3.88432,33.0511
21,596,3.98352,-33.0694,0,0,0,0,0,0,0,-1,1245,428,3.98348,33.0694
28,596,4.17615,-33.1913,0,0,0,0,0,0,0,-1,1252,428,4.17618,33.1913
35,596,4.18237,-33.0414,-0.0207304,-0.0235356,-0.0171244,-0.00495125,-0.0393148,-0.744536,0.0247252,0.0484669,1259,428,4.18236,33.0413
42,596,4.32581,-33.6193,-0.0230137,-0.0240481,-0.00941872,-0.014098,-0.0329638,-0.757971,0.0190979,0.0476251,1266,428,4.32579,33.6192
49,596,4.04822,-33.7597,-0.0240083,-0.0250247,-0.00189255,-0.0225569,-0.0264761,-0.654229,0.0165002,0.0445648,1273,428,4.04827,33.7597
56,596,4.26929,-33.505,-0.0236206,-0.0267422,0.00492774,-0.0200124,-0.0303504,0.632029,0.0178171,0.0417684,1280,428,4.26925,33.505
63,596,4.18591,-33.0977,-0.0231486,-0.0299319,0.012435,-0.013651,-0.0394295,0.652261,0.0231208,0.0426114,1287,428,4.18585,33.0977
70,596,3.99414,-32.9318,-0.0209943,-0.0344141,0.0186931,-0.00784334,-0.0475651,0.613084,0.0294459,0.0444218,1294,428,3.99411,32.9318
77,596,3.62183,-32.7419,0,0,0,0,0,0,0,-1,1301,428,3.62183,32.7419
84,596,3.11462,-32.3178,0,0,0,0,0,0,0,-1,1308,428,3.11467,32.3178
91,596,4.40039,-33.4482,0,0,0,0,0,0,0,-1,1315,428,4.40035,33.4481
98,596,5.1958,-34.0775,0,0,0,0,0,0,0,-1,1322,428,5.19583,34.0775
105,596,5.74292,-33.5328,0,0,0,0,0,0,0,-1,1329,428,5.74289,33.5328
112,596,5.66833,-33.2321,0,0,0,0,0,0,0,-1,1336,428,5.66834,33.2321
119,596,5.56909,-32.9833,0,0,0,0,0,0,0,-1,1343,428,5.56913,32.9833
126,596,5.53687,-32.762,0,0,0,0,0,0,0,-1,1350,428,5.53689,32.762
133,596,5.47217,-32.7457,0,0,0,0,0,0,0,-1,1357,428,5.47221,32.7457
140,596,5.69019,-32.6286,0,0,0,0,0,0,0,-1,1364,428,5.69014,32.6286
147,596,5.43652,-32.5933,0,0,0,0,0,0,0,-1,1371,428,5.43656,32.5933
154,596,5.23584,-32.6961,0,0,0,0,0,0,0,-1,1378,428,5.23582,32.6961
161,596,5.74194,-32.3283,0,0,0,0,0,0,0,-1,1385,428,5.74197,32.3283
168,596,5.63513,-32.3271,0,0,0,0,0,0,0,-1,1392,428,5.63516,32.327
175,596,5.83801,-32.14,0,0,0,0,0,0,0,-1,1399,428,5.83801,32.14
182,596,5.91345,-32.1656,0,0,0,0,0,0,0,-1,1406,428,5.91348,32.1656
189,596,5.83179,-31.9348,0,0,0,0,0,0,0,-1,1413,428,5.83175,31.9348
196,596,5.76245,-31.5083,0,0,0,0,0,0,0,-1,1420,428,5.76248,31.5083
203,596,5.70569,-31.542,0,0,0,0,0,0,0,-1,1427,428,5.70563,31.542
210,596,5.73242,-31.4589,0,0,0,0,0,0,0,-1,1434,428,5.73236,31.4589
217,596,5.76086,-31.1279,0,0,0,0,0,0,0,-1,1441,428,5.7609,31.1279
224,596,5.75818,-31.0252,0.00470974,0.00149293,0.000604824,0.0048197,0.00138297,0.179841,0.00286563,0.0462451,1448,428,5.75815,31.0252
231,596,5.87354,-30.5705,0.00425935,0.00217131,0.00105215,0.00469756,0.0017331,0.394639,0.00274302,0.0181308,1455,428,5.87348,30.5705
238,596,5.87512,-30.2597,0.0040139,0.00247901,0.0012458,0.00470967,0.00178324,0.50934,0.0027457,0.0146293,1462,428,5.87509,30.2597
245,596,5.90234,-29.9645,0.0037739,0.00260854,0.00127123,0.00458963,0.00179281,0.570506,0.00267087,0.0123273,1469,428,5.90234,29.9645
252,596,5.9231,-29.6509,0.00338514,0.00253626,0.00121256,0.0042454,0.00167601,0.617045,0.00246911,0.00975716,1476,428,5.92315,29.6509
259,596,5.92896,-29.3394,0.00288453,0.00235941,0.00109854,0.00375146,0.00149249,0.668094,0.00218092,0.00887952,1483,428,5.92895,29.3394
266,596,5.92041,-29.0173,0.00247542,0.00221896,0.00102221,0.00337741,0.00131697,0.723002,0.00196563,0.0105062,1490,428,5.92046,29.0173
273,596,5.94043,-28.6841,0.00207557,0.00227459,0.000962721,0.00314293,0.00120723,0.836897,0.00183075,0.0126505,1497,428,5.94043,28.6841
280,596,5.96033,-28.347,0.00183164,0.00207101,0.000952267,0.00291108,0.000991564,0.847911,0.00170894,0.0136992,1504,428,5.96036,28.347
287,596,5.94385,-27.9913,0.0018108,0.00216196,0.00115233,0.00315202,0.000820747,0.861,0.00188819,0.0123361,1511,428,5.94384,27.9913
294,596,5.92664,-27.6269,0.00182283,0.00225158,0.00136087,0.00341486,0.000659553,0.86352,0.00209168,0.00883094,1518,428,5.92669,27.6269
301,596,5.92615,-27.2594,0.00190023,0.00241754,0.00166233,0.00384122,0.000476552,0.862579,0.00241767,0.0100854,1525,428,5.92612,27.2594
308,596,5.93188,-26.8951,0.00211778,0.00253978,0.00204485,0.00438448,0.000273067,0.836809,0.00283635,0.0161024,1532,428,5.93192,26.8951
315,596,5.90845,-26.5095,0.00233944,0.00268172,0.00241494,0.00493157,8.95879e-05,0.820773,0.00325826,0.0163076,1539,428,5.90839,26.5095
322,596,5.88782,-26.1096,0.00244323,0.00287948,0.00277734,0.00544724,-0.000124537,0.824587,0.00367371,0.0139942,1546,428,5.88782,26.1097
329,596,5.87769,-25.7213,0.00241179,0.00304137,0.00308897,0.00583154,-0.000378382,0.836176,0.00401976,0.0103768,1553,428,5.87766,25.7213
336,596,5.86206,-25.3452,0.00217433,0.00317732,0.00327351,0.00598753,-0.000635881,0.861406,0.00421965,0.00914172,1560,428,5.86208,25.3452
343,596,5.87573,-24.9435,0.00178723,0.00341142,0.00341693,0.00611143,-0.000912789,0.902067,0.00441015,0.011727,1567,428,5.87574,24.9435
350,596,5.86877,-24.5029,0.00130471,0.00406078,0.00365101,0.00658516,-0.00121967,0.965852,0.00484808,0.0119513,1574,428,5.86875,24.5029
357,596,5.83289,-24.0824,0.000677412,0.00460482,0.00387238,0.00698295,-0.00170071,1.02006,0.00531371,0.00986296,1581,428,5.83291,24.0824
364,596,5.80969,-23.6196,-0.000180294,0.00513726,0.00392225,0.00721696,-0.00226,1.08326,0.00571557,0.0149555,1588,428,5.80972,23.6196
371,596,5.79285,-23.2003,-0.000981749,0.00606712,0.00408907,0.00794103,-0.00285566,1.14108,0.00645985,0.0226068,1595,428,5.79289,23.2003
378,596,5.69897,-22.8589,-0.00254536,0.00775906,0.00385834,0.00904363,-0.00382992,1.24941,0.00763302,0.0306227,1602,428,5.69896,22.8589
385,596,5.56213,-22.3432,-0.00349649,0.00855859,0.00384009,0.0096779,-0.0046158,1.28717,0.00842322,0.0446267,1609,428,5.56215,22.3432
392,596,5.41211,-21.8791,0,0,0,0,0,0,0,-1,1616,428,5.41206,21.879
399,596,5.52625,-20.7921,0,0,0,0,0,0,0,-1,1623,428,5.52628,20.7921
406,596,3.60034,-10.1525,0,0,0,0,0,0,0,-1,1630,428,3.60028,10.1525
413,596,3.39124,-2.63528,0,0,0,0,0,0,0,-1,1637,428,3.39122,2.6353
420,596,2.6344,-3.06308,0,0,0,0,0,0,0,-1,1644,428,2.63439,3.06308
427,596,2.99329,-1.90512,0,0,0,0,0,0,0,-1,1651,428,2.99327,1.90512
434,596,3.80896,-0.253998,0,0,0,0,0,0,0,-1,1658,428,3.80902,0.254004
441,596,3.86401,-0.131622,0,0,0,0,0,0,0,-1,1665,428,3.86406,0.131613
448,596,1.0769,0.0083313,0,0,0,0,0,0,0,-1,1672,428,1.07684,-0.00832231
455,596,2.00769,-1.43329,0,0,0,0,0,0,0,-1,1679,428,2.00765,1.4333
462,596,0,0,0,0,0,0,0,0,0,-1,1686,428,0,0
469,596,0,0,0,0,0,0,0,0,0,-1,1693,428,0,0
476,596,0,0,0,0,0,0,0,0,0,-1,1700,428,0,0
483,596,0,0,0,0,0,0,0,0,0,-1,1707,428,0,0
490,596,0,0,0,0,0,0,0,0,0,-1,1714,428,0,0
497,596,0,0,0,0,0,0,0,0,0,-1,1721,428,0,0
504,596,0,0,0,0,0,0,0,0,0,-1,1728,428,0,0
511,596,0,0,0,0,0,0,0,0,0,-1,1735,428,0,0
518,596,0,0,0,0,0,0,0,0,0,-1,1742,428,0,0
525,596,0,0,0,0,0,0,0,0,0,-1,1749,428,0,0
532,596,0,0,0,0,0,0,0,0,0,-1,1756,428,0,0
539,596,0,0,0,0,0,0,0,0,0,-1,1763,428,0,0
546,596,0,0,0,0,0,0,0,0,0,-1,1770,428,0,0
553,596,0,0,0,0,0,0,0,0,0,-1,1777,428,0,0
560,596,0,0,0,0,0,0,0,0,0,-1,1784,428,0,0
567,596,0,0,0,0,0,0,0,0,0,-1,1791,428,0,0
574,596,0,0,0,0,0,0,0,0,0,-1,1798,428,0,0
581,596,0,0,0,0,0,0,0,0,0,-1,1805,428,0,0
588,596,0,0,0,0,0,0,0,0,0,-1,1812,428,0,0
595,596,0,0,0,0,0,0,0,0,0,-1,1819,428,0,0
602,596,0,0,0,0,0,0,0,0,0,-1,1826,428,0,0
609,596,0,0,0,0,0,0,0,0,0,-1,1833,428,0,0
616,596,0,0,0,0,0,0,0,0,0,-1,1840,428,0,0
623,596,0,0,0,0,0,0,0,0,0,-1,1847,428,0,0
630,596,0,0,0,0,0,0,0,0,0,-1,1854,428,0,0
637,596,0,0,0,0,0,0,0,0,0,-1,1861,428,0,0
644,596,0,0,0,0,0,0,0,0,0,-1,1868,428,0,0
651,596,0,0,0,0,0,0,0,0,0,-1,1875,428,0,0
658,596,0,0,0,0,0,0,0,0,0,-1,1882,428,0,0
665,596,0,0,0,0,0,0,0,0,0,-1,1889,428,0,0
672,596,0,0,0,0,0,0,0,0,0,-1,1896,428,0,0
679,596,0,0,0,0,0,0,0,0,0,-1,1903,428,0,0
686,596,0,0,0,0,0,0,0,0,0,-1,1910,428,0,0
693,596,0,0,0,0,0,0,0,0,0,-1,1917,428,0,0
700,596,0,0,0,0,0,0,0,0,0,-1,1924,428,0,0
707,596,0,0,0,0,0,0,0,0,0,-1,1931,428,0,0
714,596,0,0,0,0,0,0,0,0,0,-1,1938,428,0,0
721,596,0,0,0,0,0,0,0,0,0,-1,1945,428,0,0
728,596,0,0,0,0,0,0,0,0,0,-1,1952,428,0,0
735,596,0,0,0,0,0,0,0,0,0,-1,1959,428,0,0
742,596,0,0,0,0,0,0,0,0,0,-1,1966,428,0,0
749,596,0,0,0,0,0,0,0,0,0,-1,1973,428,0,0
756,596,0,0,0,0,0,0,0,0,0,-1,1980,428,0,0
763,596,0,0,0,0,0,0,0,0,0,-1,1987,428,0,0
770,596,0,0,0,0,0,0,0,0,0,-1,1994,428,0,0
777,596,0,0,0,0,0,0,0,0,0,-1,2001,428,0,0
784,596,0,0,0,0,0,0,0,0,0,-1,2008,428,0,0
791,596,0,0,0,0,0,0,0,0,0,-1,2015,428,0,0
798,596,0,0,0,0,0,0,0,0,0,-1,2022,428,0,0
805,596,0,0,0,0,0,0,0,0,0,-1,2029,428,0,0
812,596,0,0,0,0,0,0,0,0,0,-1,2036,428,0,0
-700,589,0,0,0,0,0,0,0,0,0,-1,524,435,0,0
-693,589,0,0,0,0,0,0,0,0,0,-1,531,435,0,0
-686,589,0,0,0,0,0,0,0,0,0,-1,538,435,0,0
-679,589,0,0,0,0,0,0,0,0,0,-1,545,435,0,0
-672,589,0,0,0,0,0,0,0,0,0,-1,552,435,0,0
-665,589,0,0,0,0,0,0,0,0,0,-1,559,435,0,0
-658,589,0,0,0,0,0,0,0,0,0,-1,566,435,0,0
-651,589,0,0,0,0,0,0,0,0,0,-1,573,435,0,0
-644,589,0,0,0,0,0,0,0,0,0,-1,580,435,0,0
-637,589,0,0,0,0,0,0,0,0,0,-1,587,435,0,0
-630,589,0,0,0,0,0,0,0,0,0,-1,594,435,0,0
-623,589,0,0,0,0,0,0,0,0,0,-1,601,435,0,0
-616,589,0,0,0,0,0,0,0,0,0,-1,608,435,0,0
-609,589,0,0,0,0,0,0,0,0,0,-1,615,435,0,0
-602,589,0,0,0,0,0,0,0,0,0,-1,622,435,0,0
-595,589,0,0,0,0,0,0,0,0,0,-1,629,435,0,0
-588,589,0,0,0,0,0,0,0,0,0,-1,636,435,0,0
-581,589,0,0,0,0,0,0,0,0,0,-1,643,435,0,0
-574,589,0,0,0,0,0,0,0,0,0,-1,650,435,0,0
-567,589,0,0,0,0,0,0,0,0,0,-1,657,435,0,0
-560,589,0,0,0,0,0,0,0,0,0,-1,664,435,0,0
-553,589,0,0,0,0,0,0,0,0,0,-1,671,435,0,0
-546,589,0,0,0,0,0,0,0,0,0,-1,678,435,0,0
-539,589,0,0,0,0,0,0,0,0,0,-1,685,435,0,0
-532,589,0,0,0,0,0,0,0,0,0,-1,692,435,0,0
-525,589,0,0,0,0,0,0,0,0,0,-1,699,435,0,0
-518,589,0,0,0,0,0,0,0,0,0,-1,706,435,0,0
-511,589,0,0,0,0,0,0,0,0,0,-1,713,435,0,0
-504,589,0,0,0,0,0,0,0,0,0,-1,720,435,0,0
-497,589,0,0,0,0,0,0,0,0,0,-1,727,435,0,0
-490,589,0,0,0,0,0,0,0,0,0,-1,734,435,0,0
-483,589,0,0,0,0,0,0,0,0,0,-1,741,435,0,0
-476,589,0,0,0,0,0,0,0,0,0,-1,748,435,0,0
-469,589,0,0,0,0,0,0,0,0,0,-1,755,435,0,0
-462,589,0,0,0,0,0,0,0,0,0,-1,762,435,0,0
-455,589,0,0,0,0,0,0,0,0,0,-1,769,435,0,0
-448,589,0,0,0,0,0,0,0,0,0,-1,776,435,0,0
-441,589,0,0,0,0,0,0,0,0,0,-1,783,435,0,0
-434,589,0,0,0,0,0,0,0,0,0,-1,790,435,0,0
-427,589,0,0,0,0,0,0,0,0,0,-1,797,435,0,0
-420,589,0,0,0,0,0,0,0,0,0,-1,804,435,0,0
-413,589,0,0,0,0,0,0,0,0,0,-1,811,435,0,0
-406,589,0,0,0,0,0,0,0,0,0,-1,818,435,0,0
-399,589,0,0,0,0,0,0,0,0,0,-1,825,435,0,0
-392,589,0,0,0,0,0,0,0,0,0,-1,832,435,0,0
-385,589,0,0,0,0,0,0,0,0,0,-1,839,435,0,0
-378,589,0,0,0,0,0,0,0,0,0,-1,846,435,0,0
-371,589,0,0,0,0,0,0,0,0,0,-1,853,435,0,0
-364,589,0,0,0,0,0,0,0,0,0,-1,860,435,0,0
-357,589,0,0,0,0,0,0,0,0,0,-1,867,435,0,0
-350,589,-0.799927,-20.664,0,0,0,0,0,0,0,-1,874,435,-0.799952,20.664
-343,589,-0.370911,-19.1543,0,0,0,0,0,0,0,-1,881,435,-0.370922,19.1543
-336,589,-0.836914,-18.9103,0,0,0,0,0,0,0,-1,888,435,-0.836925,18.9103
-329,589,2.58252,-16.902,0,0,0,0,0,0,0,-1,895,435,2.58251,16.902
-322,589,4.17059,-19.8552,0,0,0,0,0,0,0,-1,902,435,4.17058,19.8552
-315,589,3.4679,-20.4316,0,0,0,0,0,0,0,-1,909,435,3.46792,20.4316
-308,589,3.51221,-20.593,0,0,0,0,0,0,0,-1,916,435,3.5122,20.593
-301,589,2.70557,-20.7562,0,0,0,0,0,0,0,-1,923,435,2.70558,20.7562
-294,589,2.74921,-21.0604,0,0,0,0,0,0,0,-1,930,435,2.74919,21.0604
-287,589,2.82715,-21.532,-0.00179564,0.00652755,-0.0014262,0.00676515,-0.00203324,-1.40572,0.005319,0.0447935,937,435,2.82718,21.532
-280,589,2.89978,-22.0127,-0.00111738,0.00676839,-0.00280957,0.00766699,-0.00201598,-1.26124,0.00589928,0.0330247,944,435,2.8998,22.0127
-273,589,2.93231,-22.4676,-0.000431846,0.00676099,-0.00361499,0.00826382,-0.00193468,-1.17681,0.00625465,0.0196495,951,435,2.93231,22.4676
-266,589,2.92047,-22.8808,-0.000581246,0.00683385,-0.00472189,0.00912981,-0.00287721,-1.11822,0.00723879,0.0166558,958,435,2.92049,22.8808
-259,589,2.85712,-23.3345,1.21832e-05,0.00651332,-0.00458512,0.00888321,-0.0023577,-1.09375,0.00684476,0.0139391,965,435,2.85709,23.3345
-252,589,2.83905,-23.8335,0.000645215,0.00656691,-0.00444191,0.00894434,-0.00173221,-1.07937,0.00661632,0.00954748,972,435,2.83904,23.8335
-245,589,2.84021,-24.2461,0.000652848,0.0063901,-0.00397957,0.00842719,-0.00138423,-1.09769,0.00613184,0.00984588,979,435,2.84024,24.2461
-238,589,2.81873,-24.6317,0.000452787,0.00607717,-0.00353551,0.00778253,-0.00125257,-1.12137,0.00565233,0.0137417,986,435,2.81875,24.6317
-231,589,2.79077,-25.0062,0.000274978,0.00557109,-0.00307951,0.00698451,-0.00113844,-1.1405,0.00507853,0.01607,993,435,2.79078,25.0062
-224,589,2.7594,-25.4141,6.82635e-05,0.00485923,-0.0026275,0.00601932,-0.00109183,-1.15502,0.00442199,0.0154588,1000,435,2.75941,25.4141
-217,589,2.758,-25.8273,-2.03369e-05,0.00389029,-0.00219605,0.00487536,-0.00100541,-1.14913,0.00363207,0.0149932,1007,435,2.75797,25.8273
-210,589,2.75427,-26.2102,4.70461e-05,0.00279176,-0.00169089,0.00359713,-0.000758321,-1.12629,0.00268677,0.0141254,1014,435,2.75429,26.2102
-203,589,2.73389,-26.569,0.000180828,0.00159452,-0.00109326,0.00218953,-0.000414186,-1.07237,0.00161555,0.0113286,1021,435,2.7339,26.569
-196,589,2.72522,-26.9479,0.000282987,0.000540113,-0.000536201,0.000962948,-0.000139849,-0.90306,0.000693299,0.0135398,1028,435,2.72525,26.9479
-189,589,2.72571,-27.3479,0.000331607,-0.000332423,-3.94379e-06,0.00033163,-0.000332446,-0.00593889,0.000383405,0.0169441,1035,435,2.72573,27.3479
-182,589,2.73279,-27.6376,0.000573103,-0.0013806,0.000507717,0.000697167,-0.00150466,0.239661,0.00129941,0.0129589,1042,435,2.73276,27.6376
-175,589,2.72656,-27.981,0.00111751,-0.00281403,0.00101262,0.001363,-0.00305952,0.237837,0.00261522,0.0156884,1049,435,2.72654,27.981
-168,589,2.71924,-28.3566,0.00168079,-0.00435843,0.00118444,0.00190478,-0.00458242,0.186904,0.00385027,0.0129873,1056,435,2.71928,28.3566
-161,589,2.71692,-28.6841,0.00206045,-0.00572495,0.00140044,0.0023047,-0.0059692,0.172672,0.00493064,0.01255,1063,435,2.71689,28.6841
-154,589,2.71729,-28.9931,0.0025729,-0.00702848,0.00152966,0.00281071,-0.00726629,0.154231,0.00600453,0.0135004,1070,435,2.71728,28.9931
-147,589,2.75403,-29.2976,0.00317905,-0.00829204,0.00148341,0.00336778,-0.00848077,0.126544,0.00704988,0.0133329,1077,435,2.75406,29.2976
-140,589,2.77332,-29.6007,0.00378231,-0.00964572,0.001284,0.00390399,-0.00976739,0.0944798,0.00813155,0.0138526,1084,435,2.7733,29.6007
-133,589,2.76025,-29.8884,0.00427151,-0.0110793,0.00101439,0.00433825,-0.011146,0.0657001,0.00922335,0.0131238,1091,435,2.76024,29.8884
-126,589,2.7998,-30.2002,0.00479082,-0.012443,0.000656929,0.00481582,-0.0124681,0.0380449,0.0102997,0.0113457,1098,435,2.79983,30.2002
-119,589,2.82935,-30.4743,0.00529755,-0.0135561,0.000218125,0.00530007,-0.0135587,0.0115673,0.0112307,0.0183775,1105,435,2.82939,30.4743
-112,589,2.80884,-30.731,0.00575135,-0.0144081,-0.000268518,0.00575492,-0.0144117,-0.0133166,0.0119954,0.0191489,1112,435,2.8088,30.731
-105,589,2.81519,-31.0289,0.00608908,-0.0149518,-0.000895233,0.00612711,-0.0149898,-0.0424451,0.0125447,0.0210558,1119,435,2.8152,31.0289
-98,589,2.89331,-31.3487,0.00636246,-0.0147542,-0.00135034,0.00644846,-0.0148402,-0.0636015,0.0126053,0.041327,1126,435,2.89327,31.3487
-91,589,2.97839,-31.8886,0,0,0,0,0,0,0,-1,1133,435,2.97837,31.8886
-84,589,2.76538,-22.6013,0,0,0,0,0,0,0,-1,1140,435,2.76539,22.6014
-77,589,2.18152,-14.8023,0,0,0,0,0,0,0,-1,1147,435,2.18155,14.8023
-70,589,1.48267,-9.90961,0,0,0,0,0,0,0,-1,1154,435,1.48264,9.9096
-63,589,0.880127,-5.50586,0,0,0,0,0,0,0,-1,1161,435,0.880186,5.50587
-56,589,-2.78052,-7.28082,0,0,0,0,0,0,0,-1,1168,435,-2.78053,7.28082
-49,589,-0.525757,-2.76703,0,0,0,0,0,0,0,-1,1175,435,-0.525771,2.76702
-42,589,-2.7738,-2.87921,0,0,0,0,0,0,0,-1,1182,435,-2.77383,2.87922
-35,589,-2.55225,-3.27551,0,0,0,0,0,0,0,-1,1189,435,-2.55223,3.27552
-28,589,-0.0632324,-3.42938,0,0,0,0,0,0,0,-1,1196,435,-0.063241,3.42938
-21,589,3.29968,-32.433,0,0,0,0,0,0,0,-1,1203,435,3.29969,32.433
-14,589,4.06738,-32.3402,0,0,0,0,0,0,0,-1,1210,435,4.0674,32.3402
-7,589,3.83862,-32.667,0,0,0,0,0,0,0,-1,1217,435,3.83861,32.667
0,589,3.35107,-33.67,0,0,0,0,0,0,0,-1,1224,435,3.35113,33.6701
7,589,3.5675,-32.9831,-0.0108489,-0.0230139,-0.0522267,0.0356482,-0.0695111,-0.727428,0.0617541,0.0443056,1231,435,3.56748,32.9831
14,589,6.24744,-33.2228,-0.0149767,-0.0249736,-0.0457468,0.0260439,-0.0659942,-0.730982,0.0547815,0.0454135,1238,435,6.24741,33.2228
21,589,5.43945,-33.5625,-0.0199385,-0.0256317,-0.038597,0.0159167,-0.0614869,-0.748589,0.0472001,0.0447379,1245,435,5.43941,33.5625
28,589,4.77808,-33.883,-0.0253054,-0.0254897,-0.0307916,0.00539419,-0.0561893,-0.783902,0.0393809,0.0472685,1252,435,4.77804,33.883
35,589,4.31287,-34.1177,-0.0294443,-0.0261095,-0.0211854,-0.00652595,-0.0490278,-0.82467,0.0307417,0.0461079,1259,435,4.31285,34.1177
42,589,4.13342,-33.6951,-0.0321153,-0.0271062,-0.0111627,-0.0181705,-0.041051,-0.895753,0.0237527,0.0476266,1266,435,4.13346,33.6951
49,589,4.1687,-33.5764,-0.0330581,-0.0288113,-0.00141542,-0.0283828,-0.0334866,-1.27683,0.0208326,0.0435133,1273,435,4.16865,33.5764
56,589,4.14526,-33.3948,0,0,0,0,0,0,0,-1,1280,435,4.14531,33.3948
63,589,3.72498,-32.9792,-0.0309086,-0.0358285,0.016883,-0.0163073,-0.0504298,0.713053,0.0297151,0.0438528,1287,435,3.72495,32.9793
70,589,3.41003,-32.9667,-0.0276785,-0.0414751,0.024785,-0.0088497,-0.0603038,0.64967,0.0376014,0.0427834,1294,435,3.41002,32.9667
77,589,3.20605,-32.934,0,0,0,0,0,0,0,-1,1301,435,3.2061,32.934
84,589,4.23645,-33.8287,-0.016584,-0.0493558,0.0375723,0.00802007,-0.0739599,0.579774,0.0521858,0.0412203,1308,435,4.2365,33.8287
91,589,3.95691,-33.4301,0,0,0,0,0,0,0,-1,1315,435,3.95697,33.4301
98,589,6.49622,-34.78,0,0,0,0,0,0,0,-1,1322,435,6.49625,34.78
105,589,6.02771,-34.0129,0,0,0,0,0,0,0,-1,1329,435,6.02774,34.0129
112,589,5.49231,-33.4376,0,0,0,0,0,0,0,-1,1336,435,5.49228,33.4376
119,589,4.76575,-33.2078,0.00212478,-0.0484925,0.0498954,0.0327633,-0.079131,0.550689,0.0664254,0.0421205,1343,435,4.76577,33.2078
126,589,3.63818,-33.3679,0,0,0,0,0,0,0,-1,1350,435,3.63813,33.3679
133,589,2.3512,-33.7908,0,0,0,0,0,0,0,-1,1357,435,2.35115,33.7908
140,589,6.0033,-32.0834,0,0,0,0,0,0,0,-1,1364,435,6.00331,32.0834
147,589,6.10596,-32.144,0,0,0,0,0,0,0,-1,1371,435,6.10601,32.144
154,589,6.33423,-32.015,0.0035575,-0.0125796,0.0338302,0.0302681,-0.0392902,0.668334,0.0402719,0.0419553,1378,435,6.33428,32.0149
161,589,6.40002,-31.9138,0,0,0,0,0,0,0,-1,1385,435,6.40007,31.9139
168,589,6.52686,-31.7546,0,0,0,0,0,0,0,-1,1392,435,6.52684,31.7546
175,589,8.66992,-7.65527,0,0,0,0,0,0,0,-1,1399,435,8.66994,7.65528
182,589,3.8136,-2.45389,0,0,0,0,0,0,0,-1,1406,435,3.81363,2.4539
189,589,3.69983,-3.68149,0,0,0,0,0,0,0,-1,1413,435,3.69987,3.68147
196,589,3.31055,-5.31677,0,0,0,0,0,0,0,-1,1420,435,3.31059,5.31678
203,589,2.72559,-8.84338,0,0,0,0,0,0,0,-1,1427,435,2.72558,8.84338
210,589,3.62378,-14.4032,0,0,0,0,0,0,0,-1,1434,435,3.62378,14.4032
217,589,4.65601,-22.3745,0,0,0,0,0,0,0,-1,1441,435,4.65607,22.3745
224,589,6.22278,-31.3884,0,0,0,0,0,0,0,-1,1448,435,6.22275,31.3884
231,589,6.18799,-30.5929,0,0,0,0,0,0,0,-1,1455,435,6.18796,30.5929
238,589,6.13599,-30.359,0.00518348,0.00330773,0.0013812,0.00591514,0.00257608,0.487142,0.00342456,0.0495757,1462,435,6.13598,30.3591
245,589,6.19336,-29.9227,0.00492345,0.00316784,0.00129656,0.00561141,0.00247989,0.487827,0.00324702,0.0289231,1469,435,6.19335,29.9227
252,589,6.22778,-29.62,0.00447752,0.00263319,0.00110589,0.00499528,0.00211544,0.437872,0.00289526,0.0136538,1476,435,6.22776,29.62
259,589,6.23364,-29.3464,0.00387042,0.0019651,0.000805389,0.00416524,0.00167028,0.350912,0.00242047,0.00970687,1483,435,6.2337,29.3464
266,589,6.24438,-29.01,0.00339097,0.00143629,0.000586219,0.0035533,0.00127396,0.270141,0.00207869,0.010037,1490,435,6.24438,29.01
273,589,6.27979,-28.6968,0.00279375,0.00126127,0.000337312,0.0028647,0.00119031,0.207345,0.00166179,0.0123735,1497,435,6.27979,28.6968
280,589,6.29504,-28.367,0.00237956,0.000676264,0.000157149,0.00239394,0.000661887,0.0912353,0.00142743,0.0131638,1504,435,6.29502,28.367
287,589,6.29309,-28.0204,0.00215648,0.000560585,0.000214403,0.00218478,0.000532282,0.131247,0.00131549,0.0117655,1511,435,6.29306,28.0204
294,589,6.29651,-27.6376,0.00198866,0.000563365,0.00029869,0.00204872,0.000503301,0.198443,0.00123278,0.0100695,1518,435,6.29646,27.6376
301,589,6.29321,-27.2546,0.00189414,0.000737959,0.000516559,0.0020913,0.000540794,0.364624,0.00125345,0.0104405,1525,435,6.29326,27.2546
308,589,6.28345,-26.8784,0.00190351,0.000837835,0.000795681,0.00232828,0.000413058,0.490362,0.00143446,0.0104044,1532,435,6.28339,26.8784
315,589,6.276,-26.5012,0.00191332,0.00104249,0.00107231,0.00263525,0.000320563,0.592543,0.00166033,0.0108298,1539,435,6.27604,26.5012
322,589,6.27747,-26.1214,0.00184421,0.00133941,0.00136419,0.00297915,0.000204468,0.693924,0.00192157,0.0119669,1546,435,6.27749,26.1214
329,589,6.27246,-25.7326,0.00171229,0.00163526,0.00165446,0.00332868,1.88672e-05,0.773762,0.00221286,0.0103754,1553,435,6.2725,25.7326
336,589,6.26636,-25.3558,0.00146071,0.0019107,0.00188346,0.00358256,-0.000211148,0.844845,0.00246178,0.00969994,1560,435,6.26631,25.3558
343,589,6.27673,-24.9683,0.00109727,0.00227794,0.0020902,0.00385957,-0.00048436,0.923029,0.00274876,0.0114821,1567,435,6.27673,24.9683
350,589,6.25793,-24.5431,0.000697232,0.0029797,0.00238014,0.00447807,-0.000801136,1.00895,0.00328515,0.01701,1574,435,6.25788,24.5431
357,589,6.23328,-24.0891,0.000225534,0.00362218,0.00267901,0.00509583,-0.00124811,1.0679,0.00388074,0.0143922,1581,435,6.23327,24.0891
364,589,6.22913,-23.6469,-0.000381057,0.00424865,0.00288317,0.00563126,-0.00176366,1.12365,0.00445986,0.0115334,1588,435,6.22911,23.6469
371,589,6.20007,-23.2064,-0.000947433,0.00512378,0.00315445,0.00646601,-0.00228966,1.1685,0.00524327,0.01133,1595,435,6.20002,23.2064
378,589,6.1698,-22.7603,-0.00188049,0.00642257,0.00321243,0.00752032,-0.00297824,1.24152,0.00624757,0.012022,1602,435,6.16985,22.7603
385,589,6.14673,-22.2754,-0.00252982,0.0071993,0.00329334,0.00820927,-0.00353978,1.27323,0.0069596,0.0149366,1609,435,6.14673,22.2754
392,589,6.09558,-21.7054,-0.00313227,0.00818806,0.00339307,0.00912717,-0.00407137,1.30078,0.00780431,0.0198838,1616,435,6.09563,21.7054
399,589,6.06396,-21.1136,-0.00290869,0.00929697,0.00398259,0.0104815,-0.00409322,1.2817,0.00867997,0.0322456,1623,435,6.06402,21.1136
406,589,6.04395,-20.6692,0,0,0,0,0,0,0,-1,1630,435,6.04393,20.6692
413,589,5.61377,-19.0606,0,0,0,0,0,0,0,-1,1637,435,5.61372,19.0606
420,589,2.79724,-5.79956,0,0,0,0,0,0,0,-1,1644,435,2.7973,5.79955
427,589,5.44861,-19.5135,0,0,0,0,0,0,0,-1,1651,435,5.44864,19.5136
434,589,2.52734,-2.73029,0,0,0,0,0,0,0,-1,1658,435,2.52736,2.73029
441,589,3.17639,-2.02435,0,0,0,0,0,0,0,-1,1665,435,3.17643,2.02435
448,589,0.453735,-3.2868,0,0,0,0,0,0,0,-1,1672,435,0.453701,3.28681
455,589,0.664307,-3.46848,0,0,0,0,0,0,0,-1,1679,435,0.66425,3.46846
462,589,3.46716,-4.41891,0,0,0,0,0,0,0,-1,1686,435,3.4672,4.41891
469,589,0.0238037,-3.81497,0,0,0,0,0,0,0,-1,1693,435,0.0237965,3.81498
476,589,0,0,0,0,0,0,0,0,0,-1,1700,435,0,0
483,589,0,0,0,0,0,0,0,0,0,-1,1707,435,0,0
490,589,0,0,0,0,0,0,0,0,0,-1,1714,435,0,0
497,589,0,0,0,0,0,0,0,0,0,-1,1721,435,0,0
504,589,0,0,0,0,0,0,0,0,0,-1,1728,435,0,0
511,589,0,0,0,0,0,0,0,0,0,-1,1735,435,0,0
518,589,0,0,0,0,0,0,0,0,0,-1,1742,435,0,0
525,589,0,0,0,0,0,0,0,0,0,-1,1749,435,0,0
532,589,0,0,0,0,0,0,0,0,0,-1,1756,435,0,0
539,589,0,0,0,0,0,0,0,0,0,-1,1763,435,0,0
546,589,0,0,0,0,0,0,0,0,0,-1,1770,435,0,0
553,589,0,0,0,0,0,0,0,0,0,-1,1777,435,0,0
560,589,0,0,0,0,0,0,0,0,0,-1,1784,435,0,0
567,589,0,0,0,0,0,0,0,0,0,-1,1791,435,0,0
574,589,0,0,0,0,0,0,0,0,0,-1,1798,435,0,0
581,589,0,0,0,0,0,0,0,0,0,-1,1805,435,0,0
588,589,0,0,0,0,0,0,0,0,0,-1,1812,435,0,0
595,589,0,0,0,0,0,0,0,0,0,-1,1819,435,0,0
602,589,0,0,0,0,0,0,0,0,0,-1,1826,435,0,0
609,589,0,0,0,0,0,0,0,0,0,-1,1833,435,0,0
616,589,0,0,0,0,0,0,0,0,0,-1,1840,435,0,0
623,589,0,0,0,0,0,0,0,0,0,-1,1847,435,0,0
630,589,0,0,0,0,0,0,0,0,0,-1,1854,435,0,0
637,589,0,0,0,0,0,0,0,0,0,-1,1861,435,0,0
644,589,0,0,0,0,0,0,0,0,0,-1,1868,435,0,0
651,589,0,0,0,0,0,0,0,0,0,-1,1875,435,0,0
658,589,0,0,0,0,0,0,0,0,0,-1,1882,435,0,0
665,589,0,0,0,0,0,0,0,0,0,-1,1889,435,0,0
672,589,0,0,0,0,0,0,0,0,0,-1,1896,435,0,0
679,589,0,0,0,0,0,0,0,0,0,-1,1903,435,0,0
686,589,0,0,0,0,0,0,0,0,0,-1,1910,435,0,0
693,589,0,0,0,0,0,0,0,0,0,-1,1917,435,0,0
700,589,0,0,0,0,0,0,0,0,0,-1,1924,435,0,0
707,589,0,0,0,0,0,0,0,0,0,-1,1931,435,0,0
714,589,0,0,0,0,0,0,0,0,0,-1,1938,435,0,0
721,589,0,0,0,0,0,0,0,0,0,-1,1945,435,0,0
728,589,0,0,0,0,0,0,0,0,0,-1,1952,435,0,0
735,589,0,0,0,0,0,0,0,0,0,-1,1959,435,0,0
742,589,0,0,0,0,0,0,0,0,0,-1,1966,435,0,0
749,589,0,0,0,0,0,0,0,0,0,-1,1973,435,0,0
756,589,0,0,0,0,0,0,0,0,0,-1,1980,435,0,0
763,589,0,0,0,0,0,0,0,0,0,-1,1987,435,0,0
770,589,0,0,0,0,0,0,0,0,0,-1,1994,435,0,0
777,589,0,0,0,0,0,0,0,0,0,-1,2001,435,0,0
784,589,0,0,0,0,0,0,0,0,0,-1,2008,435,0,0
791,589,0,0,0,0,0,0,0,0,0,-1,2015,435,0,0
798,589,0,0,0,0,0,0,0,0,0,-1,2022,435,0,0
805,589,0,0,0,0,0,0,0,0,0,-1,2029,435,0,0
812,589,0,0,0,0,0,0,0,0,0,-1,2036,435,0,0
-700,582,0,0,0,0,0,0,0,0,0,-1,524,442,0,0
-693,582,0,0,0,0,0,0,0,0,0,-1,531,442,0,0
-686,582,0,0,0,0,0,0,0,0,0,-1,538,442,0,0
-679,582,0,0,0,0,0,0,0,0,0,-1,545,442,0,0
-672,582,0,0,0,0,0,0,0,0,0,-1,552,442,0,0
-665,582,0,0,0,0,0,0,0,0,0,-1,559,442,0,0
-658,582,0,0,0,0,0,0,0,0,0,-1,566,442,0,0
-651,582,0,0,0,0,0,0,0,0,0,-1,573,442,0,0
-644,582,0,0,0,0,0,0,0,0,0,-1,580,442,0,0
-637,582,0,0,0,0,0,0,0,0,0,-1,587,442,0,0
-630,582,0,0,0,0,0,0,0,0,0,-1,594,442,0,0
-623,582,0,0,0,0,0,0,0,0,0,-1,601,442,0,0
-616,582,0,0,0,0,0,0,0,0,0,-1,608,442,0,0
-609,582,0,0,0,0,0,0,0,0,0,-1,615,442,0,0
-602,582,0,0,0,0,0,0,0,0,0,-1,622,442,0,0
-595,582,0,0,0,0,0,0,0,0,0,-1,629,442,0,0
-588,582,0,0,0,0,0,0,0,0,0,-1,636,442,0,0
-581,582,0,0,0,0,0,0,0,0,0,-1,643,442,0,0
-574,582,0,0,0,0,0,0,0,0,0,-1,650,442,0,0
-567,582,0,0,0,0,0,0,0,0,0,-1,657,442,0,0
-560,582,0,0,0,0,0,0,0,0,0,-1,664,442,0,0
-553,582,0,0,0,0,0,0,0,0,0,-1,671,442,0,0
-546,582,0,0,0,0,0,0,0,0,0,-1,678,442,0,0
-539,582,0,0,0,0,0,0,0,0,0,-1,685,442,0,0
-532,582,0,0,0,0,0,0,0,0,0,-1,692,442,0,0
-525,582,0,0,0,0,0,0,0,0,0,-1,699,442,0,0
-518,582,0,0,0,0,0,0,0,0,0,-1,706,442,0,0
-511,582,0,0,0,0,0,0,0,0,0,-1,713,442,0,0
-504,582,0,0,0,0,0,0,0,0,0,-1,720,442,0,0
-497,582,0,0,0,0,0,0,0,0,0,-1,727,442,0,0
-490,582,0,0,0,0,0,0,0,0,0,-1,734,442,0,0
-483,582,0,0,0,0,0,0,0,0,0,-1,741,442,0,0
-476,582,0,0,0,0,0,0,0,0,0,-1,748,442,0,0
-469,582,0,0,0,0,0,0,0,0,0,-1,755,442,0,0
-462,582,0,0,0,0,0,0,0,0,0,-1,762,442,0,0
-455,582,0,0,0,0,0,0,0,0,0,-1,769,442,0,0
-448,582,0,0,0,0,0,0,0,0,0,-1,776,442,0,0
-441,582,0,0,0,0,0,0,0,0,0,-1,783,442,0,0
-434,582,0,0,0,0,0,0,0,0,0,-1,790,442,0,0
-427,582,0,0,0,0,0,0,0,0,0,-1,797,442,0,0
-420,582,0,0,0,0,0,0,0,0,0,-1,804,442,0,0
-413,582,0,0,0,0,0,0,0,0,0,-1,811,442,0,0
-406,582,0,0,0,0,0,0,0,0,0,-1,818,442,0,0
-399,582,0,0,0,0,0,0,0,0,0,-1,825,442,0,0
-392,582,0,0,0,0,0,0,0,0,0,-1,832,442,0,0
-385,582,0,0,0,0,0,0,0,0,0,-1,839,442,0,0
-378,582,0,0,0,0,0,0,0,0,0,-1,846,442,0,0
-371,582,0,0,0,0,0,0,0,0,0,-1,853,442,0,0
-364,582,0,0,0,0,0,0,0,0,0,-1,860,442,0,0
-357,582,-1.4903,-21.5295,0,0,0,0,0,0,0,-1,867,442,-1.49031,21.5295
-350,582,-0.880859,-19.7966,0,0,0,0,0,0,0,-1,874,442,-0.880885,19.7966
-343,582,-0.208557,-18.0078,0,0,0,0,0,0,0,-1,881,442,-0.208576,18.0078
-336,582,-0.167114,-18.7637,0,0,0,0,0,0,0,-1,888,442,-0.167108,18.7637
-329,582,1.93494,-18.9446,0,0,0,0,0,0,0,-1,895,442,1.93492,18.9446
-322,582,2.3327,-19.6136,-0.00495222,0.00843778,0.0143307,0.0175602,-0.0140747,1.00392,0.0183013,0.0476665,902,442,2.33272,19.6136
-315,582,2.77924,-20.2921,0,0,0,0,0,0,0,-1,909,442,2.77921,20.2921
-308,582,2.92944,-20.4302,-0.00496178,0.00728811,0.00518975,0.00919115,-0.00686482,1.21933,0.00930229,0.0490582,916,442,2.92944,20.4302
-301,582,2.48407,-20.6547,-0.00429213,0.00695876,0.0020266,0.00731267,-0.00464604,1.39791,0.00696135,0.0471735,923,442,2.48406,20.6547
-294,582,2.46564,-21.1309,-0.00320805,0.00632176,-0.000276678,0.00632979,-0.00321607,-1.5418,0.00560819,0.043973,930,442,2.46566,21.1309
-287,582,2.49731,-21.5636,-0.00235961,0.00579899,-0.00156577,0.00608917,-0.00264979,-1.38755,0.00517405,0.034618,937,442,2.49733,21.5636
-280,582,2.54126,-21.9917,-0.00160781,0.0057288,-0.00247995,0.00648843,-0.00236744,-1.27356,0.00529425,0.016804,944,442,2.54123,21.9917
-273,582,2.54358,-22.4575,-0.000890409,0.0055214,-0.0029821,0.00669394,-0.00206295,-1.19617,0.0052862,0.011086,951,442,2.54358,22.4575
-266,582,2.51636,-22.9354,-0.000828975,0.00531932,-0.00372442,0.00707443,-0.00258408,-1.13042,0.00577373,0.0102131,958,442,2.51638,22.9354
-259,582,2.48016,-23.3955,-0.000172976,0.00478442,-0.00351669,0.00660817,-0.00199672,-1.09238,0.00520041,0.00848547,965,442,2.48014,23.3955
-252,582,2.44775,-23.8364,0.000461881,0.0045883,-0.00329057,0.00640899,-0.00135881,-1.06542,0.00479027,0.00768973,972,442,2.44773,23.8364
-245,582,2.44891,-24.2258,0.000582632,0.00410433,-0.00279715,0.00564873,-0.000961761,-1.06632,0.00412396,0.0114332,979,442,2.44892,24.2258
-238,582,2.43439,-24.5994,0.000543947,0.00347136,-0.00230998,0.00474232,-0.000727018,-1.06779,0.00342967,0.0167474,986,442,2.43437,24.5994
-231,582,2.42889,-24.9936,0.000483147,0.00269633,-0.00182033,0.00372003,-0.000540557,-1.0585,0.00267845,0.0139147,993,442,2.42892,24.9935
-224,582,2.42389,-25.4023,0.000402354,0.0017454,-0.0013304,0.00256415,-0.00041639,-1.01912,0.0018638,0.0110838,1000,442,2.4239,25.4023
-217,582,2.39209,-25.8066,0.000395986,0.000658842,-0.000863918,0.00140127,-0.000346444,-0.860884,0.00106855,0.0125872,1007,442,2.39207,25.8066
-210,582,2.38568,-26.1915,0.0005383,-0.000481376,-0.000306625,0.000623402,-0.000566478,-0.27073,0.000687239,0.0129207,1014,442,2.38565,26.1915
-203,582,2.39056,-26.5729,0.000762722,-0.00173164,0.000297065,0.000797613,-0.00176653,0.116916,0.00151523,0.010653,1021,442,2.39056,26.5729
-196,582,2.35608,-26.9639,0.000931307,-0.00275767,0.000852068,0.0011186,-0.00294497,0.216375,0.0024238,0.0154234,1028,442,2.35602,26.9639
-189,582,2.34106,-27.3381,0.00106274,-0.00358597,0.00139625,0.00144987,-0.0039731,0.270468,0.00324196,0.0221031,1035,442,2.34104,27.3381
-182,582,2.37549,-27.6749,0.00134225,-0.00456844,0.00196471,0.00193572,-0.00516192,0.293354,0.00423659,0.0159184,1042,442,2.37547,27.6749
-175,582,2.37427,-27.9873,0.00203291,-0.00598421,0.00245144,0.00272309,-0.00667439,0.274435,0.00558321,0.0127623,1049,442,2.37426,27.9873
-168,582,2.38049,-28.324,0.00279117,-0.00763881,0.00247992,0.00335079,-0.00819843,0.221943,0.00686094,0.0109057,1056,442,2.38048,28.324
-161,582,2.37769,-28.6391,0.00325888,-0.00905932,0.00260073,0.00378547,-0.0095859,0.199773,0.0079584,0.0129988,1063,442,2.37771,28.6391
-154,582,2.38928,-28.9596,0.0039095,-0.0105157,0.00261896,0.00437026,-0.0109765,0.174152,0.00912999,0.0134752,1070,442,2.38933,28.9596
-147,582,2.43274,-29.2875,0.00471935,-0.0119925,0.00242964,0.00506541,-0.0123386,0.141483,0.0103365,0.0134957,1077,442,2.43277,29.2875
-140,582,2.42603,-29.5816,0.00551712,-0.0136573,0.00203008,0.0057297,-0.0138699,0.104333,0.0116366,0.0143016,1084,442,2.42602,29.5816
-133,582,2.46057,-29.8732,0.00616051,-0.0155395,0.00151858,0.00626626,-0.0156452,0.069529,0.0130312,0.015775,1091,442,2.46054,29.8732
-126,582,2.49622,-30.0979,0.00687968,-0.0174498,0.000883463,0.00691172,-0.0174818,0.0362488,0.0145177,0.0141191,1098,442,2.4962,30.0979
-119,582,2.48145,-30.2674,0.00755506,-0.0191054,0.000105632,0.00755548,-0.0191058,0.00396205,0.0158671,0.0193133,1105,442,2.48148,30.2674
-112,582,2.37219,-30.5556,0.00813214,-0.0203088,-0.000743829,0.00815159,-0.0203283,-0.0261296,0.0169364,0.0288136,1112,442,2.37219,30.5556
-105,582,2.34778,-30.9222,0.00854136,-0.0211915,-0.00183018,0.00865359,-0.0213037,-0.0612459,0.0178024,0.0446047,1119,442,2.34779,30.9222
-98,582,2.27185,-31.3415,0,0,0,0,0,0,0,-1,1126,442,2.27186,31.3415
-91,582,2.16492,-24.1119,0,0,0,0,0,0,0,-1,1133,442,2.16496,24.1119
-84,582,2.10278,-16.7533,0,0,0,0,0,0,0,-1,1140,442,2.10279,16.7533
-77,582,2.30212,-11.4907,0,0,0,0,0,0,0,-1,1147,442,2.30207,11.4907
-70,582,1.49255,-6.36548,0,0,0,0,0,0,0,-1,1154,442,1.49251,6.36549
-63,582,-4.62915,-4.0347,0,0,0,0,0,0,0,-1,1161,442,-4.6292,4.03471
-56,582,-5.81714,-5.24149,0,0,0,0,0,0,0,-1,1168,442,-5.81718,5.24149
-49,582,-3.88672,-10.1064,0,0,0,0,0,0,0,-1,1175,442,-3.88678,10.1064
-42,582,-0.948975,1.13968,0,0,0,0,0,0,0,-1,1182,442,-0.949003,-1.13969
-35,582,-2.58435,-3.86911,0,0,0,0,0,0,0,-1,1189,442,-2.58437,3.86912
-28,582,-0.825317,-3.45941,0,0,0,0,0,0,0,-1,1196,442,-0.825377,3.45942
-21,582,3.68225,-32.4738,0,0,0,0,0,0,0,-1,1203,442,3.68221,32.4738
-14,582,7.78931,-28.8656,0,0,0,0,0,0,0,-1,1210,442,7.78936,28.8656
-7,582,7.48523,-29.8293,0,0,0,0,0,0,0,-1,1217,442,7.48527,29.8293
0,582,6.63208,-30.5101,0,0,0,0,0,0,0,-1,1224,442,6.63208,30.5101
7,582,6.6759,-31.3769,-0.017695,-0.0227568,-0.0655666,0.0453895,-0.0858413,-0.766107,0.0769566,0.0449313,1231,442,6.67587,31.3769
14,582,6.53259,-32.3434,-0.0226317,-0.0254592,-0.056902,0.0328741,-0.080965,-0.772978,0.0676517,0.0456013,1238,442,6.53261,32.3434
21,582,6.1571,-32.9236,-0.0286265,-0.0265738,-0.0475279,0.0199388,-0.0751391,-0.796194,0.057895,0.0457095,1245,442,6.15712,32.9236
28,582,5.57947,-33.1339,-0.0352567,-0.0266942,-0.0372715,0.00654112,-0.068492,-0.842581,0.0479905,0.047725,1252,442,5.57946,33.1339
35,582,4.97168,-33.3586,-0.0400634,-0.0278432,-0.0251524,-0.00806933,-0.0598372,-0.904552,0.0374923,0.0462009,1259,442,4.97164,33.3585
42,582,4.66699,-33.4987,-0.0430337,-0.0295543,-0.0126517,-0.0219591,-0.0506289,-1.03014,0.0293161,0.0438126,1266,442,4.66705,33.4987
49,582,4.66418,-33.2669,-0.0437999,-0.0322285,-0.000548579,-0.0322025,-0.0438259,-1.52353,0.0262162,0.0423453,1273,442,4.66424,33.2669
56,582,4.28845,-32.9991,-0.0420074,-0.035878,0.0104331,-0.0280688,-0.0498166,0.928254,0.0288387,0.0451319,1280,442,4.28846,32.9991
63,582,3.56885,-32.9329,-0.0399443,-0.0416736,0.0219519,-0.01884,-0.0627778,0.765714,0.0371978,0.0439066,1287,442,3.56888,32.9329
70,582,3.00037,-32.9591,-0.0353982,-0.0484165,0.031602,-0.00964197,-0.0741727,0.683832,0.0465684,0.0433372,1294,442,3.00036,32.9591
77,582,2.94031,-32.9371,0,0,0,0,0,0,0,-1,1301,442,2.94036,32.9371
84,582,3.03931,-32.7484,0,0,0,0,0,0,0,-1,1308,442,3.03936,32.7484
91,582,2.81226,-32.6024,0,0,0,0,0,0,0,-1,1315,442,2.81231,32.6024
98,582,3.27771,-32.0011,0,0,0,0,0,0,0,-1,1322,442,3.2777,32.0011
105,582,6.47168,-34.1555,0,0,0,0,0,0,0,-1,1329,442,6.47167,34.1555
112,582,3.83008,-31.8806,0,0,0,0,0,0,0,-1,1336,442,3.83006,31.8806
119,582,3.26392,-30.9806,0,0,0,0,0,0,0,-1,1343,442,3.26397,30.9806
126,582,4.12939,-30.1008,0,0,0,0,0,0,0,-1,1350,442,4.12945,30.1008
133,582,6.34595,-31.7514,0,0,0,0,0,0,0,-1,1357,442,6.346,31.7514
140,582,6.50427,-31.7721,0,0,0,0,0,0,0,-1,1364,442,6.50432,31.7721
147,582,6.58911,-31.8117,0,0,0,0,0,0,0,-1,1371,442,6.58916,31.8117
154,582,6.8269,-31.8349,0,0,0,0,0,0,0,-1,1378,442,6.82693,31.8349
161,582,6.93018,-31.6226,0,0,0,0,0,0,0,-1,1385,442,6.93022,31.6226
168,582,6.72119,-30.1363,0,0,0,0,0,0,0,-1,1392,442,6.72121,30.1363
175,582,6.50549,-2.00424,0,0,0,0,0,0,0,-1,1399,442,6.50546,2.00425
182,582,5.18958,-2.18652,0,0,0,0,0,0,0,-1,1406,442,5.1896,2.18652
189,582,6.19751,-0.880951,0,0,0,0,0,0,0,-1,1413,442,6.19754,0.88096
196,582,4.87354,-2.22327,0,0,0,0,0,0,0,-1,1420,442,4.87348,2.22325
203,582,3.11401,-4.48257,0,0,0,0,0,0,0,-1,1427,442,3.11404,4.48259
210,582,2.93115,-11.0731,0,0,0,0,0,0,0,-1,1434,442,2.93113,11.0731
217,582,4.94092,-16.5476,0,0,0,0,0,0,0,-1,1441,442,4.94087,16.5476
224,582,5.21008,-20.9908,0,0,0,0,0,0,0,-1,1448,442,5.21006,20.9908
231,582,5.70032,-25.622,0,0,0,0,0,0,0,-1,1455,442,5.70026,25.6221
238,582,6.44189,-30.7028,0,0,0,0,0,0,0,-1,1462,442,6.44195,30.7028
245,582,6.58228,-30.1777,0,0,0,0,0,0,0,-1,1469,442,6.58226,30.1777
252,582,6.57996,-29.7204,0.00591381,0.00358474,0.00148125,0.00663348,0.00286506,0.452268,0.00384166,0.0347249,1476,442,6.57999,29.7204
259,582,6.53882,-29.4272,0.00520983,0.00221321,0.000933314,0.00547674,0.0019463,0.278548,0.00320579,0.025884,1483,442,6.53878,29.4272
266,582,6.54871,-29.0967,0.00465063,0.00115868,0.000505447,0.00472232,0.00108699,0.140895,0.0028557,0.0186359,1490,442,6.54866,29.0967
273,582,6.62732,-28.7114,0.00416278,0.000473604,0.000160348,0.00416974,0.000466648,0.0433555,0.00263807,0.0153026,1497,442,6.62728,28.7114
280,582,6.6366,-28.3788,0.00357686,-0.000647553,-0.000244363,0.00359095,-0.000661641,-0.0575893,0.00264227,0.0125459,1504,442,6.63662,28.3788
287,582,6.65625,-28.0059,0.00311802,-0.0010592,-0.000389492,0.00315402,-0.00109521,-0.092183,0.00254747,0.0109828,1511,442,6.65624,28.0059
294,582,6.67273,-27.6328,0.00272184,-0.00118081,-0.000483643,0.00278088,-0.00123985,-0.121479,0.00237753,0.00915737,1518,442,6.67275,27.6328
301,582,6.66785,-27.2497,0.0023936,-0.00101016,-0.00039807,0.00243953,-0.00105609,-0.114885,0.00207021,0.0102447,1525,442,6.66783,27.2497
308,582,6.66394,-26.8723,0.00212936,-0.000934573,-0.000273477,0.00215358,-0.000958792,-0.0883263,0.00184053,0.01271,1532,442,6.66394,26.8723
315,582,6.6687,-26.5084,0.00182338,-0.000632871,-0.000110977,0.00182839,-0.000637875,-0.0450591,0.00147816,0.0131043,1539,442,6.66869,26.5084
322,582,6.66467,-26.115,0.001489,-0.000194725,8.77074e-05,0.00149355,-0.000199281,0.0519042,0.00106834,0.0104145,1546,442,6.66466,26.115
329,582,6.65564,-25.7229,0.00118153,0.000292304,0.000345206,0.00129981,0.000174024,0.330098,0.000814751,0.0100927,1553,442,6.65558,25.7229
336,582,6.65796,-25.3273,0.000854399,0.000746307,0.000592961,0.00139577,0.000204934,0.739951,0.000870284,0.0106729,1560,442,6.65794,25.3273
343,582,6.6665,-24.9066,0.000474858,0.0012553,0.000838046,0.00178952,-5.93625e-05,1.00329,0.00121329,0.0132883,1567,442,6.66648,24.9066
350,582,6.65503,-24.508,0.000130653,0.00197496,0.00115521,0.00253094,-0.000425328,1.12224,0.00184548,0.017123,1574,442,6.65509,24.508
357,582,6.64331,-24.0577,-0.000213463,0.00264718,0.00149748,0.00328767,-0.000853954,1.16663,0.00252503,0.0151962,1581,442,6.64333,24.0577
364,582,6.6355,-23.6266,-0.000607581,0.00326596,0.00180131,0.00397415,-0.00131577,1.19621,0.00318009,0.0117851,1588,442,6.63555,23.6266
371,582,6.61658,-23.2066,-0.000956686,0.00401287,0.00214248,0.004809,-0.00175282,1.21502,0.00392304,0.0156975,1595,442,6.61653,23.2066
378,582,6.5896,-22.7719,-0.00131325,0.00489675,0.00243763,0.00573929,-0.00215579,1.23801,0.00471214,0.0162836,1602,442,6.58961,22.7719
385,582,6.57385,-22.3223,-0.00175576,0.00561201,0.00257683,0.00642379,-0.00256754,1.26561,0.00534793,0.0116847,1609,442,6.57389,22.3223
392,582,6.5304,-21.8583,-0.00208506,0.00638412,0.0027444,0.00719567,-0.0028966,1.28328,0.0060004,0.0102436,1616,442,6.53034,21.8583
399,582,6.48901,-21.4252,-0.00186076,0.00716959,0.00326781,0.00822805,-0.00291922,1.25756,0.00667473,0.0176084,1623,442,6.48905,21.4252
406,582,6.48206,-20.8327,-0.00178815,0.00809485,0.00372546,0.00934184,-0.00303514,1.2478,0.00744867,0.0310868,1630,442,6.48201,20.8327
413,582,6.48462,-20.1985,0,0,0,0,0,0,0,-1,1637,442,6.48463,20.1984
420,582,6.34949,-19.948,0,0,0,0,0,0,0,-1,1644,442,6.34953,19.948
427,582,6.14417,-19.468,0,0,0,0,0,0,0,-1,1651,442,6.14414,19.468
434,582,6.10791,-18.9226,0,0,0,0,0,0,0,-1,1658,442,6.10791,18.9226
441,582,4.53979,-12.7726,0,0,0,0,0,0,0,-1,1665,442,4.53983,12.7726
448,582,7.19141,-18.3253,0,0,0,0,0,0,0,-1,1672,442,7.1914,18.3252
455,582,5.93567,-16.3171,0,0,0,0,0,0,0,-1,1679,442,5.93569,16.3171
462,582,5.71277,-16.3378,0,0,0,0,0,0,0,-1,1686,442,5.71282,16.3378
469,582,5.90674,-15.9182,0,0,0,0,0,0,0,-1,1693,442,5.90676,15.9182
476,582,1.93579,-8.53891,0,0,0,0,0,0,0,-1,1700,442,1.93579,8.53892
483,582,0,0,0,0,0,0,0,0,0,-1,1707,442,0,0
490,582,0,0,0,0,0,0,0,0,0,-1,1714,442,0,0
497,582,0,0,0,0,0,0,0,0,0,-1,1721,442,0,0
504,582,0,0,0,0,0,0,0,0,0,-1,1728,442,0,0
511,582,0,0,0,0,0,0,0,0,0,-1,1735,442,0,0
518,582,0,0,0,0,0,0,0,0,0,-1,1742,442,0,0
525,582,0,0,0,0,0,0,0,0,0,-1,1749,442,0,0
532,582,0,0,0,0,0,0,0,0,0,-1,1756,442,0,0
539,582,0,0,0,0,0,0,0,0,0,-1,1763,442,0,0
546,582,0,0,0,0,0,0,0,0,0,-1,1770,442,0,0
553,582,0,0,0,0,0,0,0,0,0,-1,1777,442,0,0
560,582,0,0,0,0,0,0,0,0,0,-1,1784,442,0,0
567,582,0,0,0,0,0,0,0,0,0,-1,1791,442,0,0
574,582,0,0,0,0,0,0,0,0,0,-1,1798,442,0,0
581,582,0,0,0,0,0,0,0,0,0,-1,1805,442,0,0
588,582,0,0,0,0,0,0,0,0,0,-1,1812,442,0,0
595,582,0,0,0,0,0,0,0,0,0,-1,1819,442,0,0
602,582,0,0,0,0,0,0,0,0,0,-1,1826,442,0,0
609,582,0,0,0,0,0,0,0,0,0,-1,1833,442,0,0
616,582,0,0,0,0,0,0,0,0,0,-1,1840,442,0,0
623,582,0,0,0,0,0,0,0,0,0,-1,1847,442,0,0
630,582,0,0,0,0,0,0,0,0,0,-1,1854,442,0,0
637,582,0,0,0,0,0,0,0,0,0,-1,1861,442,0,0
644,582,0,0,0,0,0,0,0,0,0,-1,1868,442,0,0
651,582,0,0,0,0,0,0,0,0,0,-1,1875,442,0,0
658,582,0,0,0,0,0,0,0,0,0,-1,1882,442,0,0
665,582,0,0,0,0,0,0,0,0,0,-1,1889,442,0,0
672,582,0,0,0,0,0,0,0,0,0,-1,1896,442,0,0
679,582,0,0,0,0,0,0,0,0,0,-1,1903,442,0,0
686,582,0,0,0,0,0,0,0,0,0,-1,1910,442,0,0
693,582,0,0,0,0,0,0,0,0,0,-1,1917,442,0,0
700,582,0,0,0,0,0,0,0,0,0,-1,1924,442,0,0
707,582,0,0,0,0,0,0,0,0,0,-1,1931,442,0,0
714,582,0,0,0,0,0,0,0,0,0,-1,1938,442,0,0
721,582,0,0,0,0,0,0,0,0,0,-1,1945,442,0,0
728,582,0,0,0,0,0,0,0,0,0,-1,1952,442,0,0
735,582,0,0,0,0,0,0,0,0,0,-1,1959,442,0,0
742,582,0,0,0,0,0,0,0,0,0,-1,1966,442,0,0
749,582,0,0,0,0,0,0,0,0,0,-1,1973,442,0,0
756,582,0,0,0,0,0,0,0,0,0,-1,1980,442,0,0
763,582,0,0,0,0,0,0,0,0,0,-1,1987,442,0,0
770,582,0,0,0,0,0,0,0,0,0,-1,1994,442,0,0
777,582,0,0,0,0,0,0,0,0,0,-1,2001,442,0,0
784,582,0,0,0,0,0,0,0,0,0,-1,2008,442,0,0
791,582,0,0,0,0,0,0,0,0,0,-1,2015,442,0,0
798,582,0,0,0,0,0,0,0,0,0,-1,2022,442,0,0
805,582,0,0,0,0,0,0,0,0,0,-1,2029,442,0,0
812,582,0,0,0,0,0,0,0,0,0,-1,2036,442,0,0
-700,575,0,0,0,0,0,0,0,0,0,-1,524,449,0,0
-693,575,0,0,0,0,0,0,0,0,0,-1,531,449,0,0
-686,575,0,0,0,0,0,0,0,0,0,-1,538,449,0,0
-679,575,0,0,0,0,0,0,0,0,0,-1,545,449,0,0
-672,575,0,0,0,0,0,0,0,0,0,-1,552,449,0,0
-665,575,0,0,0,0,0,0,0,0,0,-1,559,449,0,0
-658,575,0,0,0,0,0,0,0,0,0,-1,566,449,0,0
-651,575,0,0,0,0,0,0,0,0,0,-1,573,449,0,0
-644,575,0,0,0,0,0,0,0,0,0,-1,580,449,0,0
-637,575,0,0,0,0,0,0,0,0,0,-1,587,449,0,0
-630,575,0,0,0,0,0,0,0,0,0,-1,594,449,0,0
-623,575,0,0,0,0,0,0,0,0,0,-1,601,449,0,0
-616,575,0,0,0,0,0,0,0,0,0,-1,608,449,0,0
-609,575,0,0,0,0,0,0,0,0,0,-1,615,449,0,0
-602,575,0,0,0,0,0,0,0,0,0,-1,622,449,0,0
-595,575,0,0,0,0,0,0,0,0,0,-1,629,449,0,0
-588,575,0,0,0,0,0,0,0,0,0,-1,636,449,0,0
-581,575,0,0,0,0,0,0,0,0,0,-1,643,449,0,0
-574,575,0,0,0,0,0,0,0,0,0,-1,650,449,0,0
-567,575,0,0,0,0,0,0,0,0,0,-1,657,449,0,0
-560,575,0,0,0,0,0,0,0,0,0,-1,664,449,0,0
-553,575,0,0,0,0,0,0,0,0,0,-1,671,449,0,0
-546,575,0,0,0,0,0,0,0,0,0,-1,678,449,0,0
-539,575,0,0,0,0,0,0,0,0,0,-1,685,449,0,0
-532,575,0,0,0,0,0,0,0,0,0,-1,692,449,0,0
-525,575,0,0,0,0,0,0,0,0,0,-1,699,449,0,0
-518,575,0,0,0,0,0,0,0,0,0,-1,706,449,0,0
-511,575,0,0,0,0,0,0,0,0,0,-1,713,449,0,0
-504,575,0,0,0,0,0,0,0,0,0,-1,720,449,0,0
-497,575,0,0,0,0,0,0,0,0,0,-1,727,449,0,0
-490,575,0,0,0,0,0,0,0,0,0,-1,734,449,0,0
-483,575,0,0,0,0,0,0,0,0,0,-1,741,449,0,0
-476,575,0,0,0,0,0,0,0,0,0,-1,748,449,0,0
-469,575,0,0,0,0,0,0,0,0,0,-1,755,449,0,0
-462,575,0,0,0,0,0,0,0,0,0,-1,762,449,0,0
-455,575,0,0,0,0,0,0,0,0,0,-1,769,449,0,0
-448,575,0,0,0,0,0,0,0,0,0,-1,776,449,0,0
-441,575,0,0,0,0,0,0,0,0,0,-1,783,449,0,0
-434,575,0,0,0,0,0,0,0,0,0,-1,790,449,0,0
-427,575,0,0,0,0,0,0,0,0,0,-1,797,449,0,0
-420,575,0,0,0,0,0,0,0,0,0,-1,804,449,0,0
-413,575,0,0,0,0,0,0,0,0,0,-1,811,449,0,0
-406,575,0,0,0,0,0,0,0,0,0,-1,818,449,0,0
-399,575,0,0,0,0,0,0,0,0,0,-1,825,449,0,0
-392,575,0,0,0,0,0,0,0,0,0,-1,832,449,0,0
-385,575,0,0,0,0,0,0,0,0,0,-1,839,449,0,0
-378,575,0,0,0,0,0,0,0,0,0,-1,846,449,0,0
-371,575,0.56897,-3.52304,0,0,0,0,0,0,0,-1,853,449,0.568955,3.52306
-364,575,1.49805,-4.67191,0,0,0,0,0,0,0,-1,860,449,1.49803,4.6719
-357,575,3.15521,-8.29892,0,0,0,0,0,0,0,-1,867,449,3.15521,8.29891
-350,575,-0.825928,-18.5347,0,0,0,0,0,0,0,-1,874,449,-0.825948,18.5347
-343,575,0.465393,-16.3569,0,0,0,0,0,0,0,-1,881,449,0.465397,16.3569
-336,575,3.1994,-17.5725,0,0,0,0,0,0,0,-1,888,449,3.19941,17.5725
-329,575,-0.157471,-18.6644,0,0,0,0,0,0,0,-1,895,449,-0.157455,18.6644
-322,575,0.387695,-19.4034,0,0,0,0,0,0,0,-1,902,449,0.387725,19.4034
-315,575,2.31451,-19.8471,0,0,0,0,0,0,0,-1,909,449,2.31452,19.8471
-308,575,2.30762,-20.2898,-0.00492056,0.00683157,0.00268496,0.00741594,-0.00550493,1.35649,0.00748701,0.046295,916,449,2.3076,20.2898
-301,575,2.26306,-20.6392,-0.0041763,0.00625465,0.0006402,0.0062938,-0.00421545,1.50973,0.00610694,0.0337275,923,449,2.26309,20.6392
-294,575,2.18774,-21.0978,-0.00316843,0.00557607,-0.000824494,0.00565313,-0.00324549,-1.4776,0.00519993,0.0243439,930,449,2.18773,21.0978
-287,575,2.15735,-21.5871,-0.00235391,0.00493092,-0.00158407,0.00526047,-0.00268345,-1.36569,0.00466617,0.0173553,937,449,2.15735,21.5871
-280,575,2.15039,-22.0377,-0.00162065,0.00462327,-0.00212177,0.00527604,-0.00227342,-1.27234,0.00447212,0.0135582,944,449,2.15036,22.0377
-273,575,2.13965,-22.4997,-0.000941963,0.00423279,-0.00235932,0.00514697,-0.00185615,-1.20113,0.00418941,0.0123867,951,449,2.13967,22.4997
-266,575,2.13104,-22.9611,-0.000769968,0.00378216,-0.00276382,0.00508648,-0.00207429,-1.12986,0.00425445,0.0134396,958,449,2.13102,22.9611
-259,575,2.09064,-23.4027,-0.000135519,0.00302925,-0.00245406,0.00436686,-0.00147313,-1.07175,0.00350698,0.0126758,965,449,2.09061,23.4027
-252,575,2.04034,-23.8146,0.000432644,0.00254419,-0.00211408,0.00385147,-0.000874631,-1.01698,0.00290344,0.0109277,972,449,2.04031,23.8146
-245,575,2.02777,-24.2096,0.000581888,0.00174476,-0.00155427,0.00282279,-0.000496141,-0.964384,0.00206718,0.0141623,979,449,2.02777,24.2096
-238,575,2.03809,-24.6024,0.000642112,0.000786046,-0.00100313,0.00171979,-0.000291634,-0.821208,0.00125508,0.0151082,986,449,2.03806,24.6024
-231,575,2.04333,-24.9871,0.000660734,-0.000274649,-0.000461599,0.000850164,-0.000464079,-0.389421,0.000769615,0.0131363,993,449,2.04334,24.9871
-224,575,2.03149,-25.383,0.00067808,-0.00149265,8.15503e-05,0.00068114,-0.00149571,0.0374977,0.0012858,0.0123825,1000,449,2.03149,25.383
-217,575,2.03217,-25.7896,0.000744071,-0.00281165,0.000600208,0.000842654,-0.00291023,0.162793,0.0022737,0.0107058,1007,449,2.03218,25.7896
-210,575,2.03961,-26.1849,0.000968454,-0.00407658,0.00123421,0.0012542,-0.00436233,0.227516,0.00340419,0.00944021,1014,449,2.03961,26.1849
-203,575,2.03638,-26.5774,0.00129963,-0.00545359,0.00187413,0.00178486,-0.00593883,0.25335,0.0046693,0.0123626,1021,449,2.03637,26.5773
-196,575,2.0116,-26.9499,0.0015549,-0.00651067,0.00244101,0.00223612,-0.00719189,0.272151,0.00568841,0.0150108,1028,449,2.01156,26.9499
-189,575,2.00293,-27.3049,0.00179038,-0.0072969,0.00300241,0.00269276,-0.00819928,0.291963,0.00655092,0.0159514,1035,449,2.00288,27.3049
-182,575,2.00098,-27.6328,0.00211872,-0.00826075,0.00366043,0.00327974,-0.00942177,0.307145,0.00761366,0.0150459,1042,449,2.00092,27.6327
-175,575,2.01709,-27.9751,0.0029816,-0.00968127,0.00415541,0.00422344,-0.0109231,0.290401,0.00902552,0.0118769,1049,449,2.01707,27.9751
-168,575,2.02832,-28.3024,0.00398193,-0.0114512,0.00404273,0.0049768,-0.012446,0.241293,0.0103626,0.0108122,1056,449,2.02835,28.3024
-161,575,2.03564,-28.619,0.00458442,-0.0129026,0.00406147,0.00548168,-0.0137999,0.217429,0.0114723,0.0171085,1063,449,2.03568,28.619
-154,575,2.06311,-28.9199,0.0054311,-0.0144906,0.00394017,0.00618209,-0.0152416,0.188339,0.0127323,0.0213044,1070,449,2.06307,28.9199
-147,575,2.10461,-29.2039,0.00653184,-0.0161683,0.00356038,0.00707716,-0.0167136,0.151984,0.0141062,0.0195248,1077,449,2.1046,29.2039
-140,575,2.06519,-29.4386,0.00763414,-0.0182016,0.00288212,0.00795175,-0.0185192,0.109758,0.0156837,0.0255405,1084,449,2.06524,29.4386
-133,575,2.10364,-29.6187,0.00851898,-0.0206792,0.00202905,0.00865931,-0.0208195,0.06905,0.0174956,0.0330949,1091,449,2.1036,29.6187
-126,575,2.05884,-29.6386,0.00955752,-0.0233863,0.000986182,0.00958702,-0.0234158,0.0298996,0.0196038,0.0363483,1098,449,2.05886,29.6386
-119,575,2.08984,-29.7761,0.0105336,-0.0258585,-0.000282104,0.0105358,-0.0258607,-0.00775119,0.0216255,0.0373369,1105,449,2.08982,29.7761
-112,575,1.90662,-30.3316,0.0113931,-0.0278225,-0.00164275,0.0114618,-0.0278912,-0.0417925,0.0233712,0.0468094,1112,449,1.90662,30.3316
-105,575,1.6145,-30.6823,0,0,0,0,0,0,0,-1,1119,449,1.61448,30.6823
-98,575,1.521,-25.6961,0,0,0,0,0,0,0,-1,1126,449,1.52105,25.6961
-91,575,1.60803,-16.4247,0,0,0,0,0,0,0,-1,1133,449,1.60802,16.4247
-84,575,1.16553,-11.9056,0,0,0,0,0,0,0,-1,1140,449,1.16558,11.9056
-77,575,0.205078,-11.2584,0,0,0,0,0,0,0,-1,1147,449,0.205117,11.2584
-70,575,-4.2467,-1.78738,0,0,0,0,0,0,0,-1,1154,449,-4.24674,1.78739
-63,575,-4.52209,-3.48798,0,0,0,0,0,0,0,-1,1161,449,-4.5221,3.48796
-56,575,-5.5968,-5.4928,0,0,0,0,0,0,0,-1,1168,449,-5.59683,5.49281
-49,575,-5.96863,-7.17612,0,0,0,0,0,0,0,-1,1175,449,-5.96868,7.1761
-42,575,-0.830322,0.773499,0,0,0,0,0,0,0,-1,1182,449,-0.83038,-0.77351
-35,575,-0.62085,0.205139,0,0,0,0,0,0,0,-1,1189,449,-0.620855,-0.205126
-28,575,0.49292,-3.87988,0,0,0,0,0,0,0,-1,1196,449,0.492941,3.87989
-21,575,8.98682,-27.6803,0,0,0,0,0,0,0,-1,1203,449,8.98687,27.6803
-14,575,8.68127,-28.8997,-0.0215978,-0.00200805,-0.10034,0.0890139,-0.11262,-0.834052,0.116679,0.0486916,1210,449,8.68123,28.8998
-7,575,8.26172,-30.0644,-0.0209074,-0.00915123,-0.0957175,0.0808685,-0.110927,-0.816065,0.111186,0.0451922,1217,449,8.26173,30.0644
0,575,7.56665,-30.8022,0,0,0,0,0,0,0,-1,1224,449,7.56664,30.8022
7,575,7.09656,-31.3155,-0.0262664,-0.0206039,-0.079442,0.0560573,-0.102928,-0.80321,0.0931101,0.0449861,1231,449,7.09651,31.3155
14,575,6.86377,-31.9581,-0.0321572,-0.024227,-0.0681748,0.0400979,-0.0964821,-0.814446,0.0810634,0.0452495,1238,449,6.86377,31.9581
21,575,6.78796,-32.1593,0,0,0,0,0,0,0,-1,1245,449,6.78792,32.1593
28,575,6.22729,-32.3707,-0.0472698,-0.0265484,-0.0432597,0.00757401,-0.0813922,-0.902934,0.0569542,0.0450649,1252,449,6.2273,32.3707
35,575,5.57129,-32.6548,-0.0526373,-0.0284911,-0.028541,-0.00957474,-0.0715537,-0.985489,0.0448528,0.0443873,1259,449,5.57125,32.6549
42,575,5.02905,-33.1138,-0.0557648,-0.031191,-0.0135744,-0.0251685,-0.0617872,-1.15323,0.0358765,0.0426401,1266,449,5.0291,33.1138
49,575,5.04492,-32.8193,-0.0562417,-0.0350778,0.000849175,-0.0350438,-0.0562757,1.53076,0.0328154,0.0439402,1273,449,5.04491,32.8193
56,575,4.6394,-32.7339,-0.0534497,-0.0399185,0.0139468,-0.0311829,-0.0621853,1.01123,0.0359028,0.0449867,1280,449,4.63945,32.7339
63,575,3.82971,-32.7845,-0.0503799,-0.0471289,0.0275275,-0.0211789,-0.0763298,0.814889,0.0455007,0.0440097,1287,449,3.82973,32.7844
70,575,2.84851,-32.7184,-0.0443206,-0.0547696,0.0389917,-0.010205,-0.0888852,0.7188,0.0561651,0.0437963,1294,449,2.8485,32.7184
77,575,2.34314,-32.3336,0,0,0,0,0,0,0,-1,1301,449,2.3431,32.3336
84,575,1.94116,-31.2451,-0.0261819,-0.0636085,0.0571281,0.0152198,-0.10501,0.627122,0.0755925,0.0412109,1308,449,1.94121,31.2451
91,575,2.08899,-30.8902,-0.0184258,-0.0648135,0.0638665,0.026328,-0.109567,0.611223,0.0832208,0.0445807,1315,449,2.089,30.8902
98,575,2.40515,-30.644,-0.0118655,-0.0658148,0.0698578,0.0360447,-0.113725,0.601149,0.0902633,0.0465896,1322,449,2.40513,30.644
105,575,2.67004,-30.4195,-0.00608835,-0.0638791,0.0729367,0.0434682,-0.113436,0.596798,0.0935425,0.0446849,1329,449,2.67009,30.4195
112,575,3.07153,-30.2804,-0.00111455,-0.0593893,0.0740606,0.0493343,-0.109838,0.597985,0.0940852,0.0445407,1336,449,3.0715,30.2804
119,575,2.62231,-29.4197,0.00237469,-0.0513722,0.0740768,0.0543019,-0.103299,0.611392,0.0924454,0.0426493,1343,449,2.62237,29.4197
126,575,3.0083,-28.8293,0.00426912,-0.0405179,0.0719648,0.0572441,-0.0934929,0.63456,0.0878628,0.0482972,1350,449,3.00833,28.8293
133,575,3.16394,-28.2102,0,0,0,0,0,0,0,-1,1357,449,3.16393,28.2102
140,575,7.00537,-31.4608,0,0,0,0,0,0,0,-1,1364,449,7.00532,31.4608
147,575,6.93384,-31.8228,0,0,0,0,0,0,0,-1,1371,449,6.93389,31.8228
154,575,7.12134,-31.7237,0,0,0,0,0,0,0,-1,1378,449,7.12139,31.7237
161,575,7.30884,-31.6245,0,0,0,0,0,0,0,-1,1385,449,7.3089,31.6245
168,575,7.08777,-29.2379,0,0,0,0,0,0,0,-1,1392,449,7.08772,29.2379
175,575,4.32617,1.93634,0,0,0,0,0,0,0,-1,1399,449,4.32612,-1.93634
182,575,6.3147,-2.88345,0,0,0,0,0,0,0,-1,1406,449,6.31466,2.88346
189,575,6.10449,-1.30817,0,0,0,0,0,0,0,-1,1413,449,6.10455,1.30817
196,575,5.79895,0.818359,0,0,0,0,0,0,0,-1,1420,449,5.79895,-0.81837
203,575,3.29724,-1.46378,0,0,0,0,0,0,0,-1,1427,449,3.29722,1.46377
210,575,2.32739,-7.74503,0,0,0,0,0,0,0,-1,1434,449,2.32741,7.74502
217,575,3.33618,-11.5521,0,0,0,0,0,0,0,-1,1441,449,3.3362,11.5521
224,575,5.51709,-16.3903,0,0,0,0,0,0,0,-1,1448,449,5.51713,16.3903
231,575,5.48572,-20.4595,0,0,0,0,0,0,0,-1,1455,449,5.48571,20.4595
238,575,5.33484,-22.3575,0,0,0,0,0,0,0,-1,1462,449,5.33478,22.3575
245,575,5.59741,-23.513,0,0,0,0,0,0,0,-1,1469,449,5.5974,23.513
252,575,6.91809,-29.9792,0,0,0,0,0,0,0,-1,1476,449,6.91813,29.9792
259,575,6.89087,-29.6614,0,0,0,0,0,0,0,-1,1483,449,6.89087,29.6614
266,575,6.87854,-29.3076,0,0,0,0,0,0,0,-1,1490,449,6.87859,29.3076
273,575,6.93701,-28.7754,0,0,0,0,0,0,0,-1,1497,449,6.93704,28.7754
280,575,6.9436,-28.3711,0,0,0,0,0,0,0,-1,1504,449,6.94357,28.3711
287,575,6.94165,-28.031,0.0042871,-0.00241964,-0.000899814,0.00440572,-0.00253827,-0.131078,0.00405715,0.0278091,1511,449,6.94161,28.031
294,575,7.02466,-27.6547,0.00370539,-0.00269658,-0.00114339,0.00390347,-0.00289466,-0.171536,0.00393928,0.01198,1518,449,7.0247,27.6547
301,575,7.04578,-27.2654,0.0032175,-0.00260726,-0.001147,0.00343522,-0.00282498,-0.18759,0.00362005,0.0098846,1525,449,7.0458,27.2653
308,575,7.0553,-26.881,0.00275403,-0.00267826,-0.00114621,0.00298598,-0.00291021,-0.199663,0.00340426,0.0107326,1532,449,7.05529,26.8811
315,575,7.05078,-26.5117,0.00223226,-0.00240986,-0.00105542,0.00246095,-0.00263855,-0.213384,0.0029448,0.0105904,1539,449,7.05078,26.5118
322,575,7.05505,-26.1086,0.00173532,-0.00194184,-0.000902809,0.00194502,-0.00215154,-0.228225,0.00236615,0.00965109,1546,449,7.05509,26.1086
329,575,7.05896,-25.7166,0.00132619,-0.00134349,-0.000644153,0.00147349,-0.00149078,-0.224804,0.00171143,0.0105787,1553,449,7.05894,25.7165
336,575,7.05688,-25.305,0.000951065,-0.000761022,-0.000364569,0.00102546,-0.000835419,-0.201306,0.00107625,0.0122737,1560,449,7.05689,25.305
343,575,7.07727,-24.8773,0.00052645,-0.000146051,-9.84268e-05,0.00054056,-0.000160161,-0.142382,0.000423967,0.0124354,1567,449,7.07726,24.8773
350,575,7.07117,-24.4687,0.000191013,0.000618457,0.000248851,0.000732766,7.67045e-05,1.1402,0.000465056,0.0120736,1574,449,7.07114,24.4687
357,575,7.05273,-24.0454,-0.000100435,0.00136839,0.000623262,0.00159721,-0.000329256,1.21894,0.00118984,0.0120547,1581,449,7.05271,24.0454
364,575,7.03125,-23.6378,-0.000381654,0.00204299,0.00100362,0.00240452,-0.000743176,1.22505,0.00189982,0.0114578,1588,449,7.0312,23.6378
371,575,7.00171,-23.2246,-0.000638817,0.0027384,0.00138034,0.00323078,-0.0011312,1.22815,0.00261383,0.019392,1595,449,7.00167,23.2246
378,575,7.00024,-22.7895,-0.000892819,0.00350698,0.00170507,0.00409039,-0.00147623,1.24112,0.00332993,0.0188435,1602,449,7.00025,22.7895
385,575,6.99011,-22.3326,-0.00118412,0.00420061,0.00190232,0.00480485,-0.00178837,1.26324,0.00393716,0.0116751,1609,449,6.99011,22.3326
392,575,6.9491,-21.8881,-0.0013406,0.0048311,0.00211248,0.00548491,-0.00199441,1.27065,0.00447219,0.00961074,1616,449,6.94913,21.8881
399,575,6.93494,-21.4597,-0.00110452,0.00540595,0.00258716,0.00630884,-0.0020074,1.23502,0.0050109,0.0104014,1623,449,6.93497,21.4598
406,575,6.90979,-20.9582,-0.00103302,0.00610456,0.00297689,0.00718315,-0.00211161,1.22319,0.00562631,0.0115599,1630,449,6.90983,20.9582
413,575,6.89014,-20.4608,-0.00108098,0.00651697,0.0030746,0.00760526,-0.00216927,1.2306,0.0059271,0.0135715,1637,449,6.89012,20.4607
420,575,6.8446,-19.9811,-0.00089185,0.00689234,0.00340178,0.00816943,-0.00216894,1.21166,0.00629508,0.0132246,1644,449,6.84464,19.9811
427,575,6.78381,-19.4716,-6.47711e-05,0.0073007,0.0042663,0.00925391,-0.00201798,1.14146,0.00694042,0.0157391,1651,449,6.78376,19.4716
434,575,6.69092,-19.0553,0.000788978,0.0078178,0.00499539,0.0104112,-0.00180439,1.09194,0.00761385,0.0275155,1658,449,6.69096,19.0553
441,575,6.64221,-18.6589,0,0,0,0,0,0,0,-1,1665,449,6.64223,18.6589
448,575,7.35474,-18.1488,0,0,0,0,0,0,0,-1,1672,449,7.35469,18.1488
455,575,7.36926,-17.5569,0,0,0,0,0,0,0,-1,1679,449,7.36923,17.5569
462,575,6.21265,-16.6082,0,0,0,0,0,0,0,-1,1686,449,6.2127,16.6082
469,575,5.96838,-16.3638,0,0,0,0,0,0,0,-1,1693,449,5.9684,16.3638
476,575,6.77588,-15.1698,0,0,0,0,0,0,0,-1,1700,449,6.77589,15.1698
483,575,6.28979,-16.1878,0,0,0,0,0,0,0,-1,1707,449,6.28984,16.1878
490,575,5.84216,-16.4164,0,0,0,0,0,0,0,-1,1714,449,5.84215,16.4164
497,575,0,0,0,0,0,0,0,0,0,-1,1721,449,0,0
504,575,0,0,0,0,0,0,0,0,0,-1,1728,449,0,0
511,575,0,0,0,0,0,0,0,0,0,-1,1735,449,0,0
518,575,0,0,0,0,0,0,0,0,0,-1,1742,449,0,0
525,575,0,0,0,0,0,0,0,0,0,-1,1749,449,0,0
532,575,0,0,0,0,0,0,0,0,0,-1,1756,449,0,0
539,575,0,0,0,0,0,0,0,0,0,-1,1763,449,0,0
546,575,0,0,0,0,0,0,0,0,0,-1,1770,449,0,0
553,575,0,0,0,0,0,0,0,0,0,-1,1777,449,0,0
560,575,0,0,0,0,0,0,0,0,0,-1,1784,449,0,0
567,575,0,0,0,0,0,0,0,0,0,-1,1791,449,0,0
574,575,0,0,0,0,0,0,0,0,0,-1,1798,449,0,0
581,575,0,0,0,0,0,0,0,0,0,-1,1805,449,0,0
588,575,0,0,0,0,0,0,0,0,0,-1,1812,449,0,0
595,575,0,0,0,0,0,0,0,0,0,-1,1819,449,0,0
602,575,0,0,0,0,0,0,0,0,0,-1,1826,449,0,0
609,575,0,0,0,0,0,0,0,0,0,-1,1833,449,0,0
616,575,0,0,0,0,0,0,0,0,0,-1,1840,449,0,0
623,575,0,0,0,0,0,0,0,0,0,-1,1847,449,0,0
630,575,0,0,0,0,0,0,0,0,0,-1,1854,449,0,0
637,575,0,0,0,0,0,0,0,0,0,-1,1861,449,0,0
644,575,0,0,0,0,0,0,0,0,0,-1,1868,449,0,0
651,575,0,0,0,0,0,0,0,0,0,-1,1875,449,0,0
658,575,0,0,0,0,0,0,0,0,0,-1,1882,449,0,0
665,575,0,0,0,0,0,0,0,0,0,-1,1889,449,0,0
672,575,0,0,0,0,0,0,0,0,0,-1,1896,449,0,0
679,575,0,0,0,0,0,0,0,0,0,-1,1903,449,0,0
686,575,0,0,0,0,0,0,0,0,0,-1,1910,449,0,0
693,575,0,0,0,0,0,0,0,0,0,-1,1917,449,0,0
700,575,0,0,0,0,0,0,0,0,0,-1,1924,449,0,0
707,575,0,0,0,0,0,0,0,0,0,-1,1931,449,0,0
714,575,0,0,0,0,0,0,0,0,0,-1,1938,449,0,0
721,575,0,0,0,0,0,0,0,0,0,-1,1945,449,0,0
728,575,0,0,0,0,0,0,0,0,0,-1,1952,449,0,0
735,575,0,0,0,0,0,0,0,0,0,-1,1959,449,0,0
742,575,0,0,0,0,0,0,0,0,0,-1,1966,449,0,0
749,575,0,0,0,0,0,0,0,0,0,-1,1973,449,0,0
756,575,0,0,0,0,0,0,0,0,0,-1,1980,449,0,0
763,575,0,0,0,0,0,0,0,0,0,-1,1987,449,0,0
770,575,0,0,0,0,0,0,0,0,0,-1,1994,449,0,0
777,575,0,0,0,0,0,0,0,0,0,-1,2001,449,0,0
784,575,0,0,0,0,0,0,0,0,0,-1,2008,449,0,0
791,575,0,0,0,0,0,0,0,0,0,-1,2015,449,0,0
798,575,0,0,0,0,0,0,0,0,0,-1,2022,449,0,0
805,575,0,0,0,0,0,0,0,0,0,-1,2029,449,0,0
812,575,0,0,0,0,0,0,0,0,0,-1,2036,449,0,0
-700,568,0,0,0,0,0,0,0,0,0,-1,524,456,0,0
-693,568,0,0,0,0,0,0,0,0,0,-1,531,456,0,0
-686,568,0,0,0,0,0,0,0,0,0,-1,538,456,0,0
-679,568,0,0,0,0,0,0,0,0,0,-1,545,456,0,0
-672,568,0,0,0,0,0,0,0,0,0,-1,552,456,0,0
-665,568,0,0,0,0,0,0,0,0,0,-1,559,456,0,0
-658,568,0,0,0,0,0,0,0,0,0,-1,566,456,0,0
-651,568,0,0,0,0,0,0,0,0,0,-1,573,456,0,0
-644,568,0,0,0,0,0,0,0,0,0,-1,580,456,0,0
-637,568,0,0,0,0,0,0,0,0,0,-1,587,456,0,0
-630,568,0,0,0,0,0,0,0,0,0,-1,594,456,0,0
-623,568,0,0,0,0,0,0,0,0,0,-1,601,456,0,0
-616,568,0,0,0,0,0,0,0,0,0,-1,608,456,0,0
-609,568,0,0,0,0,0,0,0,0,0,-1,615,456,0,0
-602,568,0,0,0,0,0,0,0,0,0,-1,622,456,0,0
-595,568,0,0,0,0,0,0,0,0,0,-1,629,456,0,0
-588,568,0,0,0,0,0,0,0,0,0,-1,636,456,0,0
-581,568,0,0,0,0,0,0,0,0,0,-1,643,456,0,0
-574,568,0,0,0,0,0,0,0,0,0,-1,650,456,0,0
-567,568,0,0,0,0,0,0,0,0,0,-1,657,456,0,0
-560,568,0,0,0,0,0,0,0,0,0,-1,664,456,0,0
-553,568,0,0,0,0,0,0,0,0,0,-1,671,456,0,0
-546,568,0,0,0,0,0,0,0,0,0,-1,678,456,0,0
-539,568,0,0,0,0,0,0,0,0,0,-1,685,456,0,0
-532,568,0,0,0,0,0,0,0,0,0,-1,692,456,0,0
-525,568,0,0,0,0,0,0,0,0,0,-1,699,456,0,0
-518,568,0,0,0,0,0,0,0,0,0,-1,706,456,0,0
-511,568,0,0,0,0,0,0,0,0,0,-1,713,456,0,0
-504,568,0,0,0,0,0,0,0,0,0,-1,720,456,0,0
-497,568,0,0,0,0,0,0,0,0,0,-1,727,456,0,0
-490,568,0,0,0,0,0,0,0,0,0,-1,734,456,0,0
-483,568,0,0,0,0,0,0,0,0,0,-1,741,456,0,0
-476,568,0,0,0,0,0,0,0,0,0,-1,748,456,0,0
-469,568,0,0,0,0,0,0,0,0,0,-1,755,456,0,0
-462,568,0,0,0,0,0,0,0,0,0,-1,762,456,0,0
-455,568,0,0,0,0,0,0,0,0,0,-1,769,456,0,0
-448,568,0,0,0,0,0,0,0,0,0,-1,776,456,0,0
-441,568,0,0,0,0,0,0,0,0,0,-1,783,456,0,0
-434,568,0,0,0,0,0,0,0,0,0,-1,790,456,0,0
-427,568,0,0,0,0,0,0,0,0,0,-1,797,456,0,0
-420,568,0,0,0,0,0,0,0,0,0,-1,804,456,0,0
-413,568,0,0,0,0,0,0,0,0,0,-1,811,456,0,0
-406,568,0,0,0,0,0,0,0,0,0,-1,818,456,0,0
-399,568,0,0,0,0,0,0,0,0,0,-1,825,456,0,0
-392,568,0,0,0,0,0,0,0,0,0,-1,832,456,0,0
-385,568,0,0,0,0,0,0,0,0,0,-1,839,456,0,0
-378,568,0.321777,-7.29929,0,0,0,0,0,0,0,-1,846,456,0.321806,7.29927
-371,568,1.09595,-7.46707,0,0,0,0,0,0,0,-1,853,456,1.09597,7.46707
-364,568,1.87787,-7.61115,0,0,0,0,0,0,0,-1,860,456,1.87784,7.61116
-357,568,2.14166,-7.67645,0,0,0,0,0,0,0,-1,867,456,2.14167,7.67646
-350,568,2.7467,-11.2507,0,0,0,0,0,0,0,-1,874,456,2.7467,11.2507
-343,568,2.16516,-11.3762,0,0,0,0,0,0,0,-1,881,456,2.16514,11.3762
-336,568,1.71765,-18.171,0,0,0,0,0,0,0,-1,888,456,1.71766,18.171
-329,568,1.7063,-18.31,0,0,0,0,0,0,0,-1,895,456,1.70628,18.31
-322,568,-1.61914,-19.4169,0,0,0,0,0,0,0,-1,902,456,-1.61916,19.4169
-315,568,2.3656,-19.3232,-0.00492581,0.00689564,0.00256388,0.00742775,-0.00545793,1.36616,0.00746847,0.0401273,909,456,2.36558,19.3232
-308,568,1.90717,-20.1807,-0.00446973,0.00620363,0.00110261,0.00631634,-0.00458245,1.46892,0.00631891,0.0317671,916,456,1.90714,20.1807
-301,568,1.83246,-20.699,-0.00378034,0.00544297,-9.30678e-05,0.00544391,-0.00378128,-1.56071,0.00535492,0.0174482,923,456,1.83248,20.699
-294,568,1.78986,-21.1284,-0.00290123,0.00460325,-0.000914242,0.00471302,-0.00301101,-1.4513,0.00449541,0.0125502,930,456,1.78987,21.1284
-287,568,1.76288,-21.6096,-0.00215248,0.00386469,-0.0013039,0.00413509,-0.00242288,-1.36632,0.00382902,0.0112964,937,456,1.76288,21.6097
-280,568,1.75903,-22.0609,-0.00147242,0.00339183,-0.00157683,0.00385826,-0.00193885,-1.28319,0.00340757,0.0112499,944,456,1.75903,22.0609
-273,568,1.74146,-22.5027,-0.000851456,0.00286684,-0.00162755,0.00347859,-0.00146321,-1.21126,0.00293117,0.0128745,951,456,1.74143,22.5027
-266,568,1.69788,-22.9688,-0.000603868,0.00222634,-0.00176565,0.00307399,-0.00145151,-1.12321,0.00266818,0.0126509,958,456,1.69786,22.9688
-259,568,1.66815,-23.385,-8.6208e-06,0.00130218,-0.00138014,0.00217463,-0.000881072,-1.00707,0.00181614,0.0128314,965,456,1.66816,23.385
-252,568,1.63287,-23.7831,0.000482092,0.000533522,-0.000946961,0.00145512,-0.000439503,-0.798973,0.00114505,0.012398,972,456,1.63288,23.7831
-245,568,1.62445,-24.1704,0.000652196,-0.000583971,-0.000332755,0.000736077,-0.000667851,-0.246933,0.000810877,0.014534,979,456,1.62442,24.1704
-238,568,1.646,-24.5816,0.000803357,-0.00188439,0.000280128,0.000832243,-0.00191328,0.102753,0.00162557,0.0135563,986,456,1.646,24.5816
-231,568,1.63983,-24.9823,0.000890196,-0.00326328,0.000884159,0.00107057,-0.00344366,0.201251,0.00272369,0.0121321,993,456,1.63981,24.9823
-224,568,1.6167,-25.3736,0.000977145,-0.00480452,0.00150652,0.00134615,-0.00517352,0.240207,0.00397446,0.0135229,1000,456,1.61673,25.3736
-217,568,1.63171,-25.7708,0.00108566,-0.00643224,0.00210223,0.00163357,-0.00698015,0.254962,0.00528283,0.0118683,1007,456,1.6317,25.7707
-210,568,1.64917,-26.1467,0.00137039,-0.00788507,0.00285296,0.00217913,-0.00869381,0.276229,0.00664249,0.0114461,1014,456,1.64919,26.1467
-203,568,1.6452,-26.548,0.00178007,-0.00943201,0.0035719,0.0028213,-0.0104732,0.283645,0.00808831,0.0102435,1021,456,1.64518,26.548
-196,568,1.6571,-26.9002,0.00209743,-0.0105628,0.00419584,0.00336175,-0.0118271,0.292674,0.00921211,0.0131034,1028,456,1.65713,26.9002
-189,568,1.6593,-27.2386,0.00242187,-0.0113363,0.00482288,0.0039441,-0.0128585,0.30573,0.0101459,0.0133457,1035,456,1.65934,27.2386
-182,568,1.66724,-27.6071,0.00280463,-0.0123011,0.00562164,0.0046671,-0.0141636,0.319923,0.0113234,0.0148923,1042,456,1.66719,27.607
-175,568,1.68018,-27.9484,0.00388379,-0.0137406,0.00616784,0.00582785,-0.0156846,0.305337,0.0128475,0.0144726,1049,456,1.68021,27.9484
-168,568,1.69263,-28.1729,0.00521457,-0.0156495,0.00593044,0.00678243,-0.0172173,0.258462,0.0142862,0.0215205,1056,456,1.69268,28.1728
-161,568,1.67834,-28.4407,0.0060544,-0.0171403,0.00585242,0.00744741,-0.0185333,0.233674,0.0154485,0.0373291,1063,456,1.67832,28.4407
-154,568,1.85498,-29.0082,0.00722284,-0.0188961,0.00557245,0.00836203,-0.0200353,0.201654,0.0168506,0.04441,1070,456,1.85496,29.0082
-147,568,1.79932,-29.2303,0.00878733,-0.020837,0.00495699,0.00959477,-0.0216445,0.161471,0.0184778,0.0450048,1077,456,1.79927,29.2303
-140,568,1.73804,-29.485,0.0104313,-0.023423,0.00390684,0.0108763,-0.023868,0.113415,0.0205218,0.0446046,1084,456,1.73804,29.485
-133,568,1.64343,-29.8435,0,0,0,0,0,0,0,-1,1091,456,1.64349,29.8435
-126,568,2.12598,-29.1375,0.0132094,-0.0307072,0.00101406,0.0132328,-0.0307306,0.0230741,0.0260438,0.0449987,1098,456,2.12602,29.1375
-119,568,2.71631,-29.2212,0.0146639,-0.0344149,-0.000961528,0.0146827,-0.0344337,-0.0195815,0.0291116,0.0470192,1105,456,2.71629,29.2212
-112,568,3.14014,-29.2138,0,0,0,0,0,0,0,-1,1112,456,3.14012,29.2138
-105,568,2.02454,-25.038,0,0,0,0,0,0,0,-1,1119,456,2.02459,25.038
-98,568,1.58618,-14.7874,0,0,0,0,0,0,0,-1,1126,456,1.58617,14.7874
-91,568,1.11621,-11.1853,0,0,0,0,0,0,0,-1,1133,456,1.11626,11.1853
-84,568,0.461792,-9.7959,0,0,0,0,0,0,0,-1,1140,456,0.461793,9.7959
-77,568,-1.13806,-8.57822,0,0,0,0,0,0,0,-1,1147,456,-1.13807,8.57821
-70,568,-4.09766,-1.42911,0,0,0,0,0,0,0,-1,1154,456,-4.09767,1.4291
-63,568,-5.92273,-3.70752,0,0,0,0,0,0,0,-1,1161,456,-5.92272,3.70751
-56,568,-5.24158,-6.01385,0,0,0,0,0,0,0,-1,1168,456,-5.24161,6.01386
-49,568,-5.24365,-8.33557,0,0,0,0,0,0,0,-1,1175,456,-5.24371,8.33557
-42,568,-0.664795,0.521973,0,0,0,0,0,0,0,-1,1182,456,-0.664829,-0.521984
-35,568,-0.153076,-1.67731,0,0,0,0,0,0,0,-1,1189,456,-0.153068,1.67731
-28,568,1.25439,-4.48798,0,0,0,0,0,0,0,-1,1196,456,1.2544,4.48797
-21,568,9.85608,-27.6967,0,0,0,0,0,0,0,-1,1203,456,9.85614,27.6967
-14,568,9.55469,-28.9028,-0.0323726,0.00902412,-0.119838,0.109938,-0.133286,-0.870914,0.140641,0.0457932,1210,456,9.55465,28.9028
-7,568,9.04663,-30.3181,-0.0304085,-0.00121095,-0.114227,0.099346,-0.130965,-0.848956,0.133387,0.0474968,1217,456,9.04669,30.3181
0,568,7.92786,-30.4084,0,0,0,0,0,0,0,-1,1224,456,7.92785,30.4084
7,568,7.67627,-31.1664,-0.0368483,-0.0161002,-0.0928615,0.0669649,-0.119913,-0.841025,0.109328,0.0442859,1231,456,7.67628,31.1664
14,568,7.50793,-31.7477,-0.043852,-0.0208067,-0.0784771,0.0469892,-0.111648,-0.858291,0.0940909,0.0421223,1238,456,7.50793,31.7477
21,568,7.5675,-32.1811,0,0,0,0,0,0,0,-1,1245,456,7.56744,32.181
28,568,6.88318,-31.6459,0,0,0,0,0,0,0,-1,1252,456,6.88319,31.6459
35,568,6.11938,-31.9789,0,0,0,0,0,0,0,-1,1259,456,6.11941,31.9789
42,568,6.94873,-34.2164,-0.070222,-0.0317695,-0.0134232,-0.0275473,-0.0744442,-1.26605,0.0434616,0.0451394,1266,456,6.94868,34.2164
49,568,6.02625,-34.0048,-0.0703338,-0.0370842,0.00305429,-0.036806,-0.0706121,1.47995,0.0407802,0.0478715,1273,456,6.02628,34.0048
56,568,5.01355,-33.6955,-0.0664374,-0.0431524,0.0180221,-0.0333393,-0.0762506,1.07218,0.0441388,0.0466491,1280,456,5.01357,33.6955
63,568,4.05054,-32.5924,-0.062391,-0.0516497,0.0334907,-0.0231017,-0.0909389,0.864903,0.0545802,0.0443921,1287,456,4.05055,32.5924
70,568,2.68604,-32.6752,-0.0547074,-0.0597734,0.046765,-0.0104069,-0.104074,0.758343,0.0661869,0.0443638,1294,456,2.68606,32.6752
77,568,1.75208,-32.548,0,0,0,0,0,0,0,-1,1301,456,1.75202,32.548
84,568,0.85791,-30.1014,-0.032226,-0.0679369,0.0673642,0.019609,-0.119772,0.655848,0.0871229,0.0442668,1308,456,0.857936,30.1014
91,568,1.04358,-29.6661,-0.0225503,-0.067726,0.0750122,0.0332012,-0.123477,0.639155,0.0953324,0.0416489,1315,456,1.04356,29.6661
98,568,1.25879,-29.2217,-0.014346,-0.0675601,0.0819759,0.0452327,-0.127139,0.628476,0.103196,0.0458446,1322,456,1.25878,29.2217
105,568,1.37524,-28.7489,-0.00727857,-0.0642135,0.0855395,0.054406,-0.125898,0.624763,0.106792,0.0498885,1329,456,1.37525,28.7489
112,568,1.62805,-28.2859,-0.00139046,-0.0582079,0.0867104,0.0614463,-0.121045,0.627095,0.107218,0.0470511,1336,456,1.62802,28.2859
119,568,1.81165,-27.9232,0.00257197,-0.0478484,0.0865498,0.0675085,-0.112785,0.64368,0.105181,0.0426381,1343,456,1.8116,27.9232
126,568,1.87219,-27.5173,0.00450513,-0.0340988,0.0835942,0.0709969,-0.100591,0.671936,0.099556,0.0466121,1350,456,1.87222,27.5173
133,568,9.48547,-32.942,0,0,0,0,0,0,0,-1,1357,456,9.48546,32.942
140,568,8.6543,-32.7059,0,0,0,0,0,0,0,-1,1364,456,8.65425,32.7059
147,568,7.75647,-32.2764,0.00627242,0.00738898,0.0615763,0.0684095,-0.0547481,0.789931,0.0712508,0.0447581,1371,456,7.75652,32.2764
154,568,7.40247,-31.5473,0,0,0,0,0,0,0,-1,1378,456,7.40246,31.5473
161,568,7.53735,-31.2211,0,0,0,0,0,0,0,-1,1385,456,7.53735,31.2211
168,568,4.17395,-32.3794,0,0,0,0,0,0,0,-1,1392,456,4.174,32.3794
175,568,10.5151,0.747498,0,0,0,0,0,0,0,-1,1399,456,10.5152,-0.747501
182,568,6.35095,-3.63361,0,0,0,0,0,0,0,-1,1406,456,6.35093,3.63359
189,568,6.17493,-1.70911,0,0,0,0,0,0,0,-1,1413,456,6.17497,1.70911
196,568,6.04724,0.200836,0,0,0,0,0,0,0,-1,1420,456,6.04724,-0.200835
203,568,5.9281,2.08649,0,0,0,0,0,0,0,-1,1427,456,5.92812,-2.08648
210,568,1.46216,-2.50446,0,0,0,0,0,0,0,-1,1434,456,1.46219,2.50446
217,568,2.62366,-7.86703,0,0,0,0,0,0,0,-1,1441,456,2.62365,7.86704
224,568,3.43494,-12.1555,0,0,0,0,0,0,0,-1,1448,456,3.43492,12.1555
231,568,4.38245,-9.3205,0,0,0,0,0,0,0,-1,1455,456,4.38244,9.32048
238,568,5.88879,-20.7448,0,0,0,0,0,0,0,-1,1462,456,5.88876,20.7449
245,568,3.34387,-10.6774,0,0,0,0,0,0,0,-1,1469,456,3.34389,10.6774
252,568,3.56946,-9.28928,0,0,0,0,0,0,0,-1,1476,456,3.56948,9.28928
259,568,3.38843,-8.73068,0,0,0,0,0,0,0,-1,1483,456,3.38842,8.73068
266,568,3.104,-9.16876,0,0,0,0,0,0,0,-1,1490,456,3.10397,9.16876
273,568,3.77869,-13.1147,0,0,0,0,0,0,0,-1,1497,456,3.77869,13.1147
280,568,4.40002,-14.9322,0,0,0,0,0,0,0,-1,1504,456,4.4,14.9322
287,568,7.31299,-28.1893,0,0,0,0,0,0,0,-1,1511,456,7.31297,28.1893
294,568,7.39392,-27.5246,0.00491083,-0.00441486,-0.00180958,0.00524966,-0.00475369,-0.185096,0.0057778,0.0416277,1518,456,7.39391,27.5246
301,568,7.40234,-27.2,0.00428749,-0.0042996,-0.0018674,0.00467601,-0.00468812,-0.205126,0.00540639,0.0215419,1525,456,7.40229,27.2
308,568,7.42896,-26.8395,0.00360825,-0.0044711,-0.00199173,0.00407257,-0.00493542,-0.229033,0.00520871,0.014325,1532,456,7.42896,26.8395
315,568,7.42798,-26.4747,0.00282477,-0.00417174,-0.00195087,0.00333197,-0.00467894,-0.254356,0.00464684,0.0087405,1539,456,7.42799,26.4747
322,568,7.43921,-26.108,0.00213193,-0.00362862,-0.00183545,0.00266704,-0.00416373,-0.28368,0.00397518,0.00992407,1546,456,7.43922,26.108
329,568,7.45947,-25.7181,0.00158602,-0.00289192,-0.00157308,0.0020834,-0.00338929,-0.306232,0.0031895,0.0110245,1553,456,7.45941,25.7181
336,568,7.48157,-25.302,0.00111909,-0.00217859,-0.00127069,0.00155191,-0.00261141,-0.328295,0.0024295,0.0121244,1560,456,7.4816,25.302
343,568,7.50256,-24.8789,0.000612251,-0.00148349,-0.00100093,0.00101348,-0.00188472,-0.381244,0.00169829,0.012136,1567,456,7.50254,24.8789
350,568,7.48572,-24.4805,0.000246762,-0.000694361,-0.000638296,0.000569201,-0.0010168,-0.467764,0.000927754,0.0108742,1574,456,7.48569,24.4805
357,568,7.4613,-24.0546,-3.46893e-05,0.000118877,-0.000242548,0.000296505,-0.000212317,-0.938692,0.000295106,0.010325,1581,456,7.46127,24.0546
364,568,7.45972,-23.6506,-0.000264491,0.000833893,0.000183149,0.000863628,-0.000294225,1.40985,0.000694909,0.012468,1588,456,7.45977,23.6506
371,568,7.43164,-23.2043,-0.000443172,0.00151141,0.000599178,0.00168047,-0.000612228,1.2958,0.00137075,0.0207947,1595,456,7.4317,23.2043
378,568,7.42273,-22.7629,-0.000607619,0.00221173,0.000961341,0.00250832,-0.000904215,1.27154,0.0020415,0.0188464,1602,456,7.42272,22.7629
385,568,7.40784,-22.3435,-0.000775141,0.00293831,0.00122924,0.00330835,-0.00114518,1.2784,0.00267043,0.00917466,1609,456,7.4078,22.3435
392,568,7.37744,-21.8943,-0.00081584,0.00349832,0.0014881,0.00396182,-0.00127934,1.26885,0.00315533,0.0105712,1616,456,7.37748,21.8943
399,568,7.3175,-21.4862,-0.000616837,0.00395249,0.00193001,0.00465858,-0.00132293,1.22007,0.00362801,0.0174957,1623,456,7.31756,21.4862
406,568,7.34546,-20.9894,-0.000582475,0.00452697,0.00228567,0.00540021,-0.00145571,1.20586,0.00417093,0.0155976,1630,456,7.3454,20.9894
413,568,7.33057,-20.4792,-0.000640691,0.00492744,0.00244023,0.0058455,-0.00155876,1.21096,0.00450734,0.0117941,1637,456,7.3306,20.4792
420,568,7.30371,-19.9956,-0.000509716,0.00525648,0.00277108,0.00637227,-0.00162551,1.188,0.00488109,0.0103569,1644,456,7.30373,19.9956
427,568,7.27649,-19.5052,0.000101305,0.00565918,0.00356135,0.00739751,-0.00163702,1.11671,0.00555829,0.011789,1651,456,7.27651,19.5051
434,568,7.28223,-19.0124,0.000686966,0.00609326,0.00421024,0.00839343,-0.00161319,1.07078,0.00620366,0.0181614,1658,456,7.28228,19.0124
441,568,7.27307,-18.5858,0.00145151,0.00646799,0.00503336,0.00958345,-0.00166395,1.01655,0.00700976,0.0277111,1665,456,7.27309,18.5859
448,568,7.50769,-18.0383,0.00220756,0.00674208,0.00595826,0.0108499,-0.00190023,0.967201,0.00794279,0.0409655,1672,456,7.50764,18.0383
455,568,7.61938,-17.4397,0,0,0,0,0,0,0,-1,1679,456,7.61934,17.4397
462,568,6.94238,-16.7306,0,0,0,0,0,0,0,-1,1686,456,6.94234,16.7306
469,568,6.63074,-16.3246,0,0,0,0,0,0,0,-1,1693,456,6.63069,16.3246
476,568,6.6178,-16.0217,0,0,0,0,0,0,0,-1,1700,456,6.61786,16.0217
483,568,6.99231,-15.3912,0,0,0,0,0,0,0,-1,1707,456,6.99227,15.3912
490,568,7.36218,-14.3343,0,0,0,0,0,0,0,-1,1714,456,7.36218,14.3343
497,568,5.27844,-10.0788,0,0,0,0,0,0,0,-1,1721,456,5.27847,10.0788
504,568,0,0,0,0,0,0,0,0,0,-1,1728,456,0,0
511,568,0,0,0,0,0,0,0,0,0,-1,1735,456,0,0
518,568,0,0,0,0,0,0,0,0,0,-1,1742,456,0,0
525,568,0,0,0,0,0,0,0,0,0,-1,1749,456,0,0
532,568,0,0,0,0,0,0,0,0,0,-1,1756,456,0,0
539,568,0,0,0,0,0,0,0,0,0,-1,1763,456,0,0
546,568,0,0,0,0,0,0,0,0,0,-1,1770,456,0,0
553,568,0,0,0,0,0,0,0,0,0,-1,1777,456,0,0
560,568,0,0,0,0,0,0,0,0,0,-1,1784,456,0,0
567,568,0,0,0,0,0,0,0,0,0,-1,1791,456,0,0
574,568,0,0,0,0,0,0,0,0,0,-1,1798,456,0,0
581,568,0,0,0,0,0,0,0,0,0,-1,1805,456,0,0
588,568,0,0,0,0,0,0,0,0,0,-1,1812,456,0,0
595,568,0,0,0,0,0,0,0,0,0,-1,1819,456,0,0
602,568,0,0,0,0,0,0,0,0,0,-1,1826,456,0,0
609,568,0,0,0,0,0,0,0,0,0,-1,1833,456,0,0
616,568,0,0,0,0,0,0,0,0,0,-1,1840,456,0,0
623,568,0,0,0,0,0,0,0,0,0,-1,1847,456,0,0
630,568,0,0,0,0,0,0,0,0,0,-1,1854,456,0,0
637,568,0,0,0,0,0,0,0,0,0,-1,1861,456,0,0
644,568,0,0,0,0,0,0,0,0,0,-1,1868,456,0,0
651,568,0,0,0,0,0,0,0,0,0,-1,1875,456,0,0
658,568,0,0,0,0,0,0,0,0,0,-1,1882,456,0,0
665,568,0,0,0,0,0,0,0,0,0,-1,1889,456,0,0
672,568,0,0,0,0,0,0,0,0,0,-1,1896,456,0,0
679,568,0,0,0,0,0,0,0,0,0,-1,1903,456,0,0
686,568,0,0,0,0,0,0,0,0,0,-1,1910,456,0,0
693,568,0,0,0,0,0,0,0,0,0,-1,1917,456,0,0
700,568,0,0,0,0,0,0,0,0,0,-1,1924,456,0,0
707,568,0,0,0,0,0,0,0,0,0,-1,1931,456,0,0
714,568,0,0,0,0,0,0,0,0,0,-1,1938,456,0,0
721,568,0,0,0,0,0,0,0,0,0,-1,1945,456,0,0
728,568,0,0,0,0,0,0,0,0,0,-1,1952,456,0,0
735,568,0,0,0,0,0,0,0,0,0,-1,1959,456,0,0
742,568,0,0,0,0,0,0,0,0,0,-1,1966,456,0,0
749,568,0,0,0,0,0,0,0,0,0,-1,1973,456,0,0
756,568,0,0,0,0,0,0,0,0,0,-1,1980,456,0,0
763,568,0,0,0,0,0,0,0,0,0,-1,1987,456,0,0
770,568,0,0,0,0,0,0,0,0,0,-1,1994,456,0,0
777,568,0,0,0,0,0,0,0,0,0,-1,2001,456,0,0
784,568,0,0,0,0,0,0,0,0,0,-1,2008,456,0,0
791,568,0,0,0,0,0,0,0,0,0,-1,2015,456,0,0
798,568,0,0,0,0,0,0,0,0,0,-1,2022,456,0,0
805,568,0,0,0,0,0,0,0,0,0,-1,2029,456,0,0
812,568,0,0,0,0,0,0,0,0,0,-1,2036,456,0,0
-700,561,0,0,0,0,0,0,0,0,0,-1,524,463,0,0
-693,561,0,0,0,0,0,0,0,0,0,-1,531,463,0,0
-686,561,0,0,0,0,0,0,0,0,0,-1,538,463,0,0
-679,561,0,0,0,0,0,0,0,0,0,-1,545,463,0,0
-672,561,0,0,0,0,0,0,0,0,0,-1,552,463,0,0
-665,561,0,0,0,0,0,0,0,0,0,-1,559,463,0,0
-658,561,0,0,0,0,0,0,0,0,0,-1,566,463,0,0
-651,561,0,0,0,0,0,0,0,0,0,-1,573,463,0,0
-644,561,0,0,0,0,0,0,0,0,0,-1,580,463,0,0
-637,561,0,0,0,0,0,0,0,0,0,-1,587,463,0,0
-630,561,0,0,0,0,0,0,0,0,0,-1,594,463,0,0
-623,561,0,0,0,0,0,0,0,0,0,-1,601,463,0,0
-616,561,0,0,0,0,0,0,0,0,0,-1,608,463,0,0
-609,561,0,0,0,0,0,0,0,0,0,-1,615,463,0,0
-602,561,0,0,0,0,0,0,0,0,0,-1,622,463,0,0
-595,561,0,0,0,0,0,0,0,0,0,-1,629,463,0,0
-588,561,0,0,0,0,0,0,0,0,0,-1,636,463,0,0
-581,561,0,0,0,0,0,0,0,0,0,-1,643,463,0,0
-574,561,0,0,0,0,0,0,0,0,0,-1,650,463,0,0
-567,561,0,0,0,0,0,0,0,0,0,-1,657,463,0,0
-560,561,0,0,0,0,0,0,0,0,0,-1,664,463,0,0
-553,561,0,0,0,0,0,0,0,0,0,-1,671,463,0,0
-546,561,0,0,0,0,0,0,0,0,0,-1,678,463,0,0
-539,561,0,0,0,0,0,0,0,0,0,-1,685,463,0,0
-532,561,0,0,0,0,0,0,0,0,0,-1,692,463,0,0
-525,561,0,0,0,0,0,0,0,0,0,-1,699,463,0,0
-518,561,0,0,0,0,0,0,0,0,0,-1,706,463,0,0
-511,561,0,0,0,0,0,0,0,0,0,-1,713,463,0,0
-504,561,0,0,0,0,0,0,0,0,0,-1,720,463,0,0
-497,561,0,0,0,0,0,0,0,0,0,-1,727,463,0,0
-490,561,0,0,0,0,0,0,0,0,0,-1,734,463,0,0
-483,561,0,0,0,0,0,0,0,0,0,-1,741,463,0,0
-476,561,0,0,0,0,0,0,0,0,0,-1,748,463,0,0
-469,561,0,0,0,0,0,0,0,0,0,-1,755,463,0,0
-462,561,0,0,0,0,0,0,0,0,0,-1,762,463,0,0
-455,561,0,0,0,0,0,0,0,0,0,-1,769,463,0,0
-448,561,0,0,0,0,0,0,0,0,0,-1,776,463,0,0
-441,561,0,0,0,0,0,0,0,0,0,-1,783,463,0,0
-434,561,0,0,0,0,0,0,0,0,0,-1,790,463,0,0
-427,561,0,0,0,0,0,0,0,0,0,-1,797,463,0,0
-420,561,0,0,0,0,0,0,0,0,0,-1,804,463,0,0
-413,561,0,0,0,0,0,0,0,0,0,-1,811,463,0,0
-406,561,0,0,0,0,0,0,0,0,0,-1,818,463,0,0
-399,561,0,0,0,0,0,0,0,0,0,-1,825,463,0,0
-392,561,4.92407,-2.54578,0,0,0,0,0,0,0,-1,832,463,4.92408,2.54576
-385,561,5.55634,-1.02338,0,0,0,0,0,0,0,-1,839,463,5.55634,1.02338
-378,561,0.160522,-4.51785,0,0,0,0,0,0,0,-1,846,463,0.160542,4.51785
-371,561,1.06299,-7.56818,0,0,0,0,0,0,0,-1,853,463,1.06297,7.56817
-364,561,1.45264,-7.57684,0,0,0,0,0,0,0,-1,860,463,1.45264,7.57684
-357,561,0.948242,-12.2803,0,0,0,0,0,0,0,-1,867,463,0.948262,12.2803
-350,561,1.33124,-11.9406,0,0,0,0,0,0,0,-1,874,463,1.33127,11.9406
-343,561,1.13214,-14.1837,0,0,0,0,0,0,0,-1,881,463,1.13217,14.1837
-336,561,1.70624,-18.2607,0,0,0,0,0,0,0,-1,888,463,1.70622,18.2607
-329,561,1.43427,-18.8055,-0.00516299,0.00872384,0.00257086,0.0091845,-0.00562366,1.39349,0.00863149,0.0416104,895,463,1.43424,18.8055
-322,561,1.3407,-19.1843,-0.00473792,0.00738117,0.00167098,0.00760734,-0.00496409,1.43626,0.0073114,0.0356938,902,463,1.3407,19.1843
-315,561,1.49268,-19.5235,-0.00431305,0.00624502,0.000890131,0.00631954,-0.00438757,1.48727,0.00621521,0.0245842,909,463,1.49267,19.5235
-308,561,1.4505,-20.1217,-0.00386739,0.00550254,0.000146154,0.00550482,-0.00386967,1.5552,0.00543974,0.0198858,916,463,1.4505,20.1217
-301,561,1.3963,-20.696,-0.00324308,0.0046332,-0.000473864,0.00466161,-0.00327149,-1.51092,0.00460355,0.0139055,923,463,1.39628,20.6959
-294,561,1.36963,-21.1482,-0.00246928,0.00365214,-0.000837543,0.00376467,-0.00258181,-1.43724,0.00368529,0.0115568,930,463,1.36965,21.1482
-287,561,1.34174,-21.604,-0.00177853,0.00282019,-0.000950015,0.00300872,-0.00196706,-1.37489,0.00289368,0.010114,937,463,1.34176,21.604
-280,561,1.31378,-22.0393,-0.00115659,0.00219787,-0.00101078,0.0024789,-0.00143762,-1.29961,0.00228769,0.0121686,944,463,1.31379,22.0393
-273,561,1.27338,-22.486,-0.000597627,0.00153107,-0.000899795,0.00186045,-0.000927003,-1.21989,0.00163914,0.0145308,951,463,1.27335,22.486
-266,561,1.26361,-22.9276,-0.000289264,0.000675109,-0.000783453,0.00111287,-0.000727025,-1.06125,0.00107002,0.0103134,958,463,1.26362,22.9276
-259,561,1.24878,-23.3485,0.000255258,-0.000447057,-0.000296384,0.000363617,-0.000555415,-0.350506,0.000534441,0.0106075,965,463,1.24875,23.3485
-252,561,1.22729,-23.7444,0.00065434,-0.00155063,0.000247176,0.000681709,-0.001578,0.110276,0.00133841,0.0142187,972,463,1.22732,23.7444
-245,561,1.22845,-24.1613,0.000792828,-0.00300608,0.000941703,0.00101345,-0.00322671,0.230131,0.00255681,0.0174874,979,463,1.22843,24.1612
-238,561,1.25201,-24.5798,0.000996366,-0.00465635,0.00163126,0.00143333,-0.00509332,0.261728,0.00396074,0.0144648,986,463,1.25204,24.5798
-231,561,1.22595,-24.9868,0.00111913,-0.00636475,0.00231256,0.00177606,-0.00702167,0.276779,0.00537191,0.0119495,993,463,1.22593,24.9868
-224,561,1.21405,-25.396,0.00122521,-0.00826391,0.00304167,0.00211649,-0.00915518,0.285042,0.00691773,0.0117874,1000,463,1.21405,25.396
-217,561,1.22998,-25.7751,0.00134316,-0.010229,0.00372628,0.00243922,-0.011325,0.286076,0.00848083,0.0116331,1007,463,1.22999,25.7751
-210,561,1.23914,-26.1365,0.00166526,-0.011897,0.00462166,0.00309043,-0.0133222,0.299117,0.0100709,0.0117933,1014,463,1.23915,26.1365
-203,561,1.24597,-26.5094,0.00214709,-0.0136762,0.00546084,0.00384871,-0.0153778,0.302068,0.0117469,0.0130883,1021,463,1.24596,26.5094
-196,561,1.23804,-26.8347,0.00253693,-0.0149518,0.00618318,0.00450217,-0.016917,0.30774,0.0130404,0.0143341,1028,463,1.23803,26.8347
-189,561,1.26636,-27.1505,0.00297756,-0.0157499,0.00692957,0.00526279,-0.0180351,0.31855,0.0141087,0.0175445,1035,463,1.2664,27.1505
-182,561,1.3385,-27.5045,0.00344516,-0.0167961,0.00796357,0.00620263,-0.0195536,0.33334,0.015522,0.0218425,1042,463,1.33852,27.5045
-175,561,1.28821,-27.789,0.00481931,-0.0183194,0.00864345,0.00769154,-0.0211916,0.320821,0.0172722,0.0344017,1049,463,1.28822,27.789
-168,561,1.36121,-28.092,0.0066138,-0.0204445,0.00832441,0.00896966,-0.0228004,0.275795,0.0189129,0.0481609,1056,463,1.36122,28.092
-161,561,1.30127,-28.391,0.00783322,-0.022034,0.00819979,0.00993632,-0.0241371,0.251069,0.0202338,0.0488,1063,463,1.30131,28.391
-154,561,1.29517,-28.6981,0.00948096,-0.0239788,0.00777857,0.0112009,-0.0256987,0.217609,0.0218452,0.0476761,1070,463,1.29517,28.6981
-147,561,1.44629,-29.3191,0,0,0,0,0,0,0,-1,1077,463,1.44629,29.3191
-140,561,1.45374,-29.4763,0,0,0,0,0,0,0,-1,1084,463,1.4537,29.4762
-133,561,1.70483,-28.6868,0,0,0,0,0,0,0,-1,1091,463,1.70487,28.6868
-126,561,2.25159,-28.5863,0,0,0,0,0,0,0,-1,1098,463,2.25163,28.5863
-119,561,2.79834,-28.4858,0,0,0,0,0,0,0,-1,1105,463,2.79838,28.4858
-112,561,0.793579,-25.7806,0,0,0,0,0,0,0,-1,1112,463,0.793536,25.7806
-105,561,0.530518,-13.5379,0,0,0,0,0,0,0,-1,1119,463,0.530477,13.5379
-98,561,1.5387,-7.54352,0,0,0,0,0,0,0,-1,1126,463,1.53871,7.54351
-91,561,1.29553,-6.57968,0,0,0,0,0,0,0,-1,1133,463,1.29549,6.5797
-84,561,1.23364,-5.84555,0,0,0,0,0,0,0,-1,1140,463,1.23363,5.84556
-77,561,-2.36023,1.00204,0,0,0,0,0,0,0,-1,1147,463,-2.3602,-1.00205
-70,561,-3.90015,-1.41541,0,0,0,0,0,0,0,-1,1154,463,-3.90009,1.4154
-63,561,-6.95691,-4.02756,0,0,0,0,0,0,0,-1,1161,463,-6.95696,4.02756
-56,561,-5.37988,-6.66855,0,0,0,0,0,0,0,-1,1168,463,-5.37988,6.66854
-49,561,-5.7439,-9.11029,0,0,0,0,0,0,0,-1,1175,463,-5.74387,9.1103
-42,561,-1.72644,-5.63065,0,0,0,0,0,0,0,-1,1182,463,-1.72648,5.63064
-35,561,-1.65674,-4.87994,0,0,0,0,0,0,0,-1,1189,463,-1.6567,4.87993
-28,561,-1.91418,-3.86896,0,0,0,0,0,0,0,-1,1196,463,-1.91414,3.86895
-21,561,10.3536,-27.4406,0,0,0,0,0,0,0,-1,1203,463,10.3536,27.4406
-14,561,10.1056,-28.7089,0,0,0,0,0,0,0,-1,1210,463,10.1056,28.7089
-7,561,9.84863,-30.589,0,0,0,0,0,0,0,-1,1217,463,9.84867,30.589
0,561,8.55127,-30.2022,0,0,0,0,0,0,0,-1,1224,463,8.55121,30.2022
7,561,8.29468,-30.9953,-0.0501188,-0.00841614,-0.103975,0.0767775,-0.135312,-0.884356,0.123995,0.0433058,1231,463,8.29469,30.9953
14,561,8.06323,-31.6756,-0.0582734,-0.0144584,-0.0859242,0.0523071,-0.125039,-0.91022,0.105222,0.0425329,1238,463,8.06318,31.6756
21,561,8.01404,-32.169,0,0,0,0,0,0,0,-1,1245,463,8.0141,32.169
28,561,8.74268,-34.2234,0,0,0,0,0,0,0,-1,1252,463,8.74266,34.2234
35,561,7.49402,-33.8085,0,0,0,0,0,0,0,-1,1259,463,7.49401,33.8085
42,561,6.2522,-33.6729,-0.0860814,-0.0310794,-0.0114344,-0.028797,-0.0883638,-1.37378,0.0520376,0.0451009,1266,463,6.25221,33.6729
49,561,5.30334,-33.4314,-0.0857919,-0.037974,0.00649077,-0.0371086,-0.0866573,1.43825,0.0502032,0.0450378,1273,463,5.30335,33.4314
56,561,4.32202,-33.1499,-0.0808128,-0.0451176,0.022741,-0.0340569,-0.0918735,1.11811,0.0536312,0.0436663,1280,463,4.32205,33.1499
63,561,3.26514,-32.9166,-0.0760635,-0.0544603,0.039605,-0.0242104,-0.106314,0.918527,0.0643422,0.0455466,1287,463,3.26513,32.9166
70,561,2.37476,-32.6956,-0.0668098,-0.06223,0.0545201,-0.00995174,-0.119088,0.806387,0.0762914,0.0474927,1294,463,2.37474,32.6956
77,561,1.44849,-32.5863,0,0,0,0,0,0,0,-1,1301,463,1.44849,32.5863
84,561,-0.285278,-28.955,-0.0394433,-0.0679711,0.0769492,0.0245529,-0.131967,0.693755,0.0972017,0.0457383,1308,463,-0.285336,28.955
91,561,-0.0720215,-28.5551,-0.0275608,-0.0652941,0.0853259,0.0409594,-0.133814,0.676592,0.105546,0.0419688,1315,463,-0.0720787,28.5551
98,561,0.065918,-28.1993,-0.0173205,-0.0632148,0.0932765,0.0557901,-0.136325,0.664787,0.11412,0.0465688,1322,463,0.065901,28.1993
105,561,0.148926,-27.848,0,0,0,0,0,0,0,-1,1329,463,0.14887,27.848
112,561,0.52063,-27.146,0,0,0,0,0,0,0,-1,1336,463,0.520614,27.146
119,561,0.845581,-26.6255,0.00289975,-0.0383029,0.0986314,0.0830584,-0.118462,0.682443,0.116945,0.0440812,1343,463,0.84554,26.6254
126,561,0.569092,-25.2733,0.00494119,-0.0221231,0.0948933,0.0872623,-0.104444,0.714574,0.11083,0.0444509,1350,463,0.569047,25.2733
133,561,0.346436,-24.1353,0.00479895,-0.00343568,0.0866367,0.0874161,-0.0860528,0.761654,0.100153,0.0485063,1357,463,0.346398,24.1353
140,561,8.35535,-33.3021,0,0,0,0,0,0,0,-1,1364,463,8.35533,33.3021
147,561,7.73401,-32.6541,0,0,0,0,0,0,0,-1,1371,463,7.73401,32.6541
154,561,7.74146,-31.54,0,0,0,0,0,0,0,-1,1378,463,7.74143,31.54
161,561,0.154907,-27.9934,0,0,0,0,0,0,0,-1,1385,463,0.154956,27.9934
168,561,3.78113,-33.7118,0,0,0,0,0,0,0,-1,1392,463,3.78116,33.7118
175,561,10.4185,0.276398,0,0,0,0,0,0,0,-1,1399,463,10.4185,-0.276394
182,561,6.45703,-4.02127,0,0,0,0,0,0,0,-1,1406,463,6.45704,4.02127
189,561,6.50854,-2.08685,0,0,0,0,0,0,0,-1,1413,463,6.50851,2.08686
196,561,6.44775,-0.27182,0,0,0,0,0,0,0,-1,1420,463,6.44773,0.271814
203,561,6.18591,1.1301,0,0,0,0,0,0,0,-1,1427,463,6.18592,-1.13009
210,561,5.68713,2.68427,0,0,0,0,0,0,0,-1,1434,463,5.6871,-2.68425
217,561,3.61743,-7.33582,0,0,0,0,0,0,0,-1,1441,463,3.61738,7.33581
224,561,4.27466,-8.59171,0,0,0,0,0,0,0,-1,1448,463,4.27466,8.59171
231,561,4.93188,-9.8476,0,0,0,0,0,0,0,-1,1455,463,4.93193,9.84761
238,561,2.18018,-5.18359,0,0,0,0,0,0,0,-1,1462,463,2.18023,5.18359
245,561,3.07568,-3.50238,0,0,0,0,0,0,0,-1,1469,463,3.0757,3.50238
252,561,3.47412,-3.71109,0,0,0,0,0,0,0,-1,1476,463,3.47413,3.71109
259,561,3.42212,-3.2334,0,0,0,0,0,0,0,-1,1483,463,3.42214,3.2334
266,561,4.44373,-5.90027,0,0,0,0,0,0,0,-1,1490,463,4.44372,5.90026
273,561,2.59485,-3.65268,0,0,0,0,0,0,0,-1,1497,463,2.5948,3.65268
280,561,3.10767,-6.38235,0,0,0,0,0,0,0,-1,1504,463,3.10766,6.38235
287,561,4.91809,-14.429,0,0,0,0,0,0,0,-1,1511,463,4.9181,14.429
294,561,7.63599,-27.4488,0,0,0,0,0,0,0,-1,1518,463,7.63602,27.4488
301,561,7.71606,-27.0145,0.00535014,-0.00653181,-0.00270148,0.00593551,-0.00711718,-0.213386,0.00754626,0.0438499,1525,463,7.71604,27.0145
308,561,7.80847,-26.7184,0.00439989,-0.00666027,-0.00295232,0.00513862,-0.007399,-0.245186,0.0072777,0.0318412,1532,463,7.8085,26.7184
315,561,7.84265,-26.4497,0.00329766,-0.00617298,-0.00291301,0.00412192,-0.00699724,-0.275748,0.0064908,0.0181819,1539,463,7.84265,26.4497
322,561,7.85425,-26.1406,0.00241182,-0.00543914,-0.00280452,0.00331072,-0.00633805,-0.310176,0.00566138,0.0182667,1546,463,7.85427,26.1406
329,561,7.84888,-25.7246,0.00175537,-0.00448341,-0.00251074,0.00264027,-0.00536832,-0.338855,0.00471234,0.0147925,1553,463,7.84887,25.7246
336,561,7.88403,-25.2974,0.00122045,-0.00359333,-0.00217028,0.00205443,-0.00442731,-0.366875,0.00382491,0.0123167,1560,463,7.88409,25.2974
343,561,7.88782,-24.8963,0.000649488,-0.00278766,-0.00188883,0.00148457,-0.00362274,-0.41628,0.00303362,0.0107982,1567,463,7.88783,24.8963
350,561,7.87036,-24.4726,0.000267424,-0.00196569,-0.00150468,0.00102457,-0.00272284,-0.4662,0.0022364,0.0102162,1574,463,7.87039,24.4726
357,561,7.87524,-24.0367,-1.21296e-06,-0.00109219,-0.00108825,0.000670612,-0.00176402,-0.553074,0.00145212,0.0106886,1581,463,7.87523,24.0367
364,561,7.87781,-23.6447,-0.000181932,-0.000340863,-0.000625017,0.00036865,-0.000891446,-0.722166,0.000748097,0.0100597,1588,463,7.87776,23.6447
371,561,7.85645,-23.2236,-0.000286386,0.000346446,-0.000164952,0.000386861,-0.000326801,-1.33052,0.000412519,0.0162406,1595,463,7.85639,23.2236
378,561,7.85449,-22.775,-0.000365262,0.00103138,0.00023765,0.00107071,-0.000404592,1.40679,0.000880234,0.0116873,1602,463,7.85448,22.775
385,561,7.85474,-22.3154,-0.000437185,0.00182413,0.000579936,0.00196419,-0.000577241,1.33383,0.0015384,0.00984342,1609,463,7.85471,22.3154
392,561,7.81384,-21.8442,-0.000421734,0.00237058,0.00088292,0.00262633,-0.000677486,1.28885,0.00201504,0.0131889,1616,463,7.81379,21.8442
399,561,7.77588,-21.4316,-0.000249135,0.00277242,0.00130373,0.00325718,-0.000733892,1.21481,0.00245295,0.0199011,1623,463,7.77588,21.4316
406,561,7.80322,-20.9697,-0.000224384,0.0032933,0.00164503,0.0039427,-0.000873787,1.19481,0.00296299,0.0184274,1630,463,7.80326,20.9697
413,561,7.78235,-20.4825,-0.000266823,0.0037228,0.00185955,0.00445511,-0.000999136,1.19564,0.00335311,0.01673,1637,463,7.78229,20.4825
420,561,7.75732,-20.0002,-0.000165626,0.00404445,0.00219087,0.00497768,-0.00109886,1.16811,0.00373896,0.0138224,1644,463,7.7573,20.0001
427,561,7.75342,-19.5061,0.000278171,0.00445066,0.00290303,0.00593933,-0.0012105,1.09696,0.00441867,0.0109654,1651,463,7.75345,19.5061
434,561,7.75537,-19.011,0.000684581,0.00482979,0.00348087,0.00680837,-0.001294,1.05392,0.00502608,0.0129094,1658,463,7.75533,19.011
441,561,7.74695,-18.5423,0.00123627,0.00515487,0.00419371,0.0078244,-0.00143326,1.00393,0.00575384,0.0161014,1665,463,7.74694,18.5423
448,561,7.73413,-18.0262,0.00180618,0.00546378,0.00500431,0.00896299,-0.00169303,0.960582,0.00661231,0.0219747,1672,463,7.73408,18.0262
455,561,7.71509,-17.4008,0.00256974,0.00567087,0.00600807,0.0103252,-0.00208463,0.911683,0.00767335,0.0391333,1679,463,7.71504,17.4008
462,561,7.49939,-16.9335,0.00369223,0.00605064,0.00727652,0.0122429,-0.00250001,0.865728,0.00911033,0.0377751,1686,463,7.49942,16.9335
469,561,7.4364,-16.4944,0.00514515,0.00635102,0.00878826,0.014557,-0.00306083,0.819648,0.0108696,0.0262575,1693,463,7.43641,16.4944
476,561,7.47375,-15.6891,0.00681351,0.00647799,0.0105342,0.0171813,-0.00388976,0.777436,0.012947,0.0424246,1700,463,7.47371,15.6891
483,561,7.70093,-14.5725,0,0,0,0,0,0,0,-1,1707,463,7.70088,14.5725
490,561,7.92944,-13.2884,0,0,0,0,0,0,0,-1,1714,463,7.92949,13.2884
497,561,8.21472,-11.8027,0,0,0,0,0,0,0,-1,1721,463,8.21472,11.8027
504,561,10.0769,-0.811401,0,0,0,0,0,0,0,-1,1728,463,10.0769,0.8114
511,561,0,0,0,0,0,0,0,0,0,-1,1735,463,0,0
518,561,0,0,0,0,0,0,0,0,0,-1,1742,463,0,0
525,561,0,0,0,0,0,0,0,0,0,-1,1749,463,0,0
532,561,0,0,0,0,0,0,0,0,0,-1,1756,463,0,0
539,561,0,0,0,0,0,0,0,0,0,-1,1763,463,0,0
546,561,0,0,0,0,0,0,0,0,0,-1,1770,463,0,0
553,561,0,0,0,0,0,0,0,0,0,-1,1777,463,0,0
560,561,0,0,0,0,0,0,0,0,0,-1,1784,463,0,0
567,561,0,0,0,0,0,0,0,0,0,-1,1791,463,0,0
574,561,0,0,0,0,0,0,0,0,0,-1,1798,463,0,0
581,561,0,0,0,0,0,0,0,0,0,-1,1805,463,0,0
588,561,0,0,0,0,0,0,0,0,0,-1,1812,463,0,0
595,561,0,0,0,0,0,0,0,0,0,-1,1819,463,0,0
602,561,0,0,0,0,0,0,0,0,0,-1,1826,463,0,0
609,561,0,0,0,0,0,0,0,0,0,-1,1833,463,0,0
616,561,0,0,0,0,0,0,0,0,0,-1,1840,463,0,0
623,561,0,0,0,0,0,0,0,0,0,-1,1847,463,0,0
630,561,0,0,0,0,0,0,0,0,0,-1,1854,463,0,0
637,561,0,0,0,0,0,0,0,0,0,-1,1861,463,0,0
644,561,0,0,0,0,0,0,0,0,0,-1,1868,463,0,0
651,561,0,0,0,0,0,0,0,0,0,-1,1875,463,0,0
658,561,0,0,0,0,0,0,0,0,0,-1,1882,463,0,0
665,561,0,0,0,0,0,0,0,0,0,-1,1889,463,0,0
672,561,0,0,0,0,0,0,0,0,0,-1,1896,463,0,0
679,561,0,0,0,0,0,0,0,0,0,-1,1903,463,0,0
686,561,0,0,0,0,0,0,0,0,0,-1,1910,463,0,0
693,561,0,0,0,0,0,0,0,0,0,-1,1917,463,0,0
700,561,0,0,0,0,0,0,0,0,0,-1,1924,463,0,0
707,561,0,0,0,0,0,0,0,0,0,-1,1931,463,0,0
714,561,0,0,0,0,0,0,0,0,0,-1,1938,463,0,0
721,561,0,0,0,0,0,0,0,0,0,-1,1945,463,0,0
728,561,0,0,0,0,0,0,0,0,0,-1,1952,463,0,0
735,561,0,0,0,0,0,0,0,0,0,-1,1959,463,0,0
742,561,0,0,0,0,0,0,0,0,0,-1,1966,463,0,0
749,561,0,0,0,0,0,0,0,0,0,-1,1973,463,0,0
756,561,0,0,0,0,0,0,0,0,0,-1,1980,463,0,0
763,561,0,0,0,0,0,0,0,0,0,-1,1987,463,0,0
770,561,0,0,0,0,0,0,0,0,0,-1,1994,463,0,0
777,561,0,0,0,0,0,0,0,0,0,-1,2001,463,0,0
784,561,0,0,0,0,0,0,0,0,0,-1,2008,463,0,0
791,561,0,0,0,0,0,0,0,0,0,-1,2015,463,0,0
798,561,0,0,0,0,0,0,0,0,0,-1,2022,463,0,0
805,561,0,0,0,0,0,0,0,0,0,-1,2029,463,0,0
812,561,0,0,0,0,0,0,0,0,0,-1,2036,463,0,0
-700,554,0,0,0,0,0,0,0,0,0,-1,524,470,0,0
-693,554,0,0,0,0,0,0,0,0,0,-1,531,470,0,0
-686,554,0,0,0,0,0,0,0,0,0,-1,538,470,0,0
-679,554,0,0,0,0,0,0,0,0,0,-1,545,470,0,0
-672,554,0,0,0,0,0,0,0,0,0,-1,552,470,0,0
-665,554,0,0,0,0,0,0,0,0,0,-1,559,470,0,0
-658,554,0,0,0,0,0,0,0,0,0,-1,566,470,0,0
-651,554,0,0,0,0,0,0,0,0,0,-1,573,470,0,0
-644,554,0,0,0,0,0,0,0,0,0,-1,580,470,0,0
-637,554,0,0,0,0,0,0,0,0,0,-1,587,470,0,0
-630,554,0,0,0,0,0,0,0,0,0,-1,594,470,0,0
-623,554,0,0,0,0,0,0,0,0,0,-1,601,470,0,0
-616,554,0,0,0,0,0,0,0,0,0,-1,608,470,0,0
-609,554,0,0,0,0,0,0,0,0,0,-1,615,470,0,0
-602,554,0,0,0,0,0,0,0,0,0,-1,622,470,0,0
-595,554,0,0,0,0,0,0,0,0,0,-1,629,470,0,0
-588,554,0,0,0,0,0,0,0,0,0,-1,636,470,0,0
-581,554,0,0,0,0,0,0,0,0,0,-1,643,470,0,0
-574,554,0,0,0,0,0,0,0,0,0,-1,650,470,0,0
-567,554,0,0,0,0,0,0,0,0,0,-1,657,470,0,0
-560,554,0,0,0,0,0,0,0,0,0,-1,664,470,0,0
-553,554,0,0,0,0,0,0,0,0,0,-1,671,470,0,0
-546,554,0,0,0,0,0,0,0,0,0,-1,678,470,0,0
-539,554,0,0,0,0,0,0,0,0,0,-1,685,470,0,0
-532,554,0,0,0,0,0,0,0,0,0,-1,692,470,0,0
-525,554,0,0,0,0,0,0,0,0,0,-1,699,470,0,0
-518,554,0,0,0,0,0,0,0,0,0,-1,706,470,0,0
-511,554,0,0,0,0,0,0,0,0,0,-1,713,470,0,0
-504,554,0,0,0,0,0,0,0,0,0,-1,720,470,0,0
-497,554,0,0,0,0,0,0,0,0,0,-1,727,470,0,0
-490,554,0,0,0,0,0,0,0,0,0,-1,734,470,0,0
-483,554,0,0,0,0,0,0,0,0,0,-1,741,470,0,0
-476,554,0,0,0,0,0,0,0,0,0,-1,748,470,0,0
-469,554,0,0,0,0,0,0,0,0,0,-1,755,470,0,0
-462,554,0,0,0,0,0,0,0,0,0,-1,762,470,0,0
-455,554,0,0,0,0,0,0,0,0,0,-1,769,470,0,0
-448,554,0,0,0,0,0,0,0,0,0,-1,776,470,0,0
-441,554,0,0,0,0,0,0,0,0,0,-1,783,470,0,0
-434,554,0,0,0,0,0,0,0,0,0,-1,790,470,0,0
-427,554,0,0,0,0,0,0,0,0,0,-1,797,470,0,0
-420,554,0,0,0,0,0,0,0,0,0,-1,804,470,0,0
-413,554,0,0,0,0,0,0,0,0,0,-1,811,470,0,0
-406,554,0,0,0,0,0,0,0,0,0,-1,818,470,0,0
-399,554,-1.32275,-3.95142,0,0,0,0,0,0,0,-1,825,470,-1.32275,3.95141
-392,554,-1.35632,-3.7406,0,0,0,0,0,0,0,-1,832,470,-1.35632,3.7406
-385,554,-0.849243,-4.14447,0,0,0,0,0,0,0,-1,839,470,-0.849262,4.14446
-378,554,-0.982666,-4.55084,0,0,0,0,0,0,0,-1,846,470,-0.982671,4.55084
-371,554,-1.74542,-4.63467,0,0,0,0,0,0,0,-1,853,470,-1.74541,4.63468
-364,554,1.04883,-7.68756,0,0,0,0,0,0,0,-1,860,470,1.0488,7.68757
-357,554,1.06714,-11.5403,0,0,0,0,0,0,0,-1,867,470,1.06715,11.5403
-350,554,0.835327,-15.9311,0,0,0,0,0,0,0,-1,874,470,0.8353,15.9311
-343,554,1.21521,-17.5467,0,0,0,0,0,0,0,-1,881,470,1.21522,17.5467
-336,554,1.20355,-18.3171,-0.00477276,0.00927243,0.000779634,0.00931557,-0.0048159,1.51551,0.00829553,0.0397085,888,470,1.20353,18.3171
-329,554,1.05768,-18.8011,-0.00438565,0.0077081,0.00055048,0.00773311,-0.00441066,1.5254,0.00709814,0.0188789,895,470,1.05765,18.8011
-322,554,0.981934,-19.2973,-0.00393549,0.00645774,0.000213039,0.0064621,-0.00393985,1.55031,0.00606414,0.0126494,902,470,0.98191,19.2973
-315,554,0.984924,-19.762,-0.00351396,0.0053858,-6.27426e-05,0.00538624,-0.0035144,-1.56375,0.00517653,0.0125958,909,470,0.98495,19.762
-308,554,0.932861,-20.2313,-0.00310824,0.00465556,-0.000368523,0.00467301,-0.0031257,-1.52347,0.00453203,0.0141947,916,470,0.932855,20.2313
-301,554,0.940735,-20.6939,-0.00256626,0.00374766,-0.000609282,0.00380591,-0.00262451,-1.47547,0.00373344,0.0147302,923,470,0.940745,20.6939
-294,554,0.950317,-21.1574,-0.00193153,0.00268527,-0.00063709,0.00277157,-0.00201783,-1.43615,0.00277655,0.0125436,930,470,0.950331,21.1574
-287,554,0.909729,-21.6109,-0.0013259,0.00180376,-0.00054718,0.00189667,-0.00141881,-1.4026,0.00192081,0.0116968,937,470,0.909739,21.6109
-280,554,0.869141,-22.0432,-0.000789622,0.00104312,-0.00042846,0.00113833,-0.000884841,-1.35211,0.00117113,0.0111821,944,470,0.86914,22.0432
-273,554,0.835876,-22.5023,-0.00032289,0.000227032,-0.000162621,0.000271522,-0.00036738,-1.30375,0.000370252,0.0143737,951,470,0.835877,22.5023
-266,554,0.815369,-22.9315,2.05069e-06,-0.000831082,0.000185613,4.15322e-05,-0.000870564,0.209585,0.000594704,0.0131523,958,470,0.815349,22.9315
-259,554,0.812256,-23.2988,0.000478169,-0.00215903,0.000786144,0.000694733,-0.00237559,0.268809,0.00185909,0.0131669,965,470,0.812229,23.2988
-252,554,0.805176,-23.7011,0.000785113,-0.00363704,0.00145221,0.00121937,-0.0040713,0.290566,0.00319908,0.0143361,972,470,0.805174,23.7011
-245,554,0.802002,-24.1305,0.000890278,-0.00547313,0.0022553,0.00160852,-0.00619138,0.308315,0.00475532,0.0157897,979,470,0.802024,24.1305
-238,554,0.822021,-24.575,0.00114949,-0.00750943,0.00304212,0.00211141,-0.00847135,0.306253,0.0064673,0.0123534,986,470,0.822028,24.575
-231,554,0.818481,-24.9884,0.00132541,-0.00961477,0.00383398,0.00253524,-0.0108246,0.305665,0.00819329,0.0108075,993,470,0.818501,24.9884
-224,554,0.836975,-25.3679,0.00147193,-0.0119727,0.00471465,0.00296042,-0.0134612,0.305813,0.0101065,0.0105588,1000,470,0.836997,25.3679
-217,554,0.859619,-25.7416,0.00161699,-0.0144119,0.00554409,0.00334772,-0.0161426,0.302589,0.0120339,0.0105638,1007,470,0.85963,25.7416
-210,554,0.872803,-26.1181,0.00199264,-0.0164281,0.00666084,0.00414879,-0.0185843,0.31306,0.0139792,0.0138971,1014,470,0.872798,26.1181
-203,554,0.876343,-26.4586,0.00255923,-0.0185703,0.00770026,0.00506765,-0.0210787,0.314918,0.0160113,0.0239699,1021,470,0.876313,26.4586
-196,554,0.790405,-26.6436,0.00304604,-0.0201208,0.00859232,0.00588496,-0.0229597,0.31911,0.0175992,0.0313393,1028,470,0.790393,26.6435
-189,554,0.946289,-26.8311,0.003573,-0.0209368,0.0095405,0.00684883,-0.0242127,0.330747,0.0188443,0.0374739,1035,470,0.946291,26.8311
-182,554,0.96228,-27.3744,0,0,0,0,0,0,0,-1,1042,470,0.962317,27.3744
-175,554,0.874146,-27.6216,0,0,0,0,0,0,0,-1,1049,470,0.874168,27.6216
-168,554,1.02844,-27.9443,0,0,0,0,0,0,0,-1,1056,470,1.02849,27.9443
-161,554,0.691528,-28.4077,0.00998602,-0.0280971,0.0113622,0.0131183,-0.0312294,0.268997,0.0263063,0.0460534,1063,470,0.691588,28.4077
-154,554,0.88208,-28.416,0.0123265,-0.0301726,0.010807,0.0149167,-0.0327628,0.235242,0.0281632,0.0459012,1070,470,0.882093,28.416
-147,554,0.939087,-28.7489,0,0,0,0,0,0,0,-1,1077,470,0.939107,28.7489
-140,554,3.14563,-26.981,0,0,0,0,0,0,0,-1,1084,470,3.14569,26.981
-133,554,2.33813,-27.5244,0,0,0,0,0,0,0,-1,1091,470,2.3381,27.5244
-126,554,2.02161,-27.9971,0,0,0,0,0,0,0,-1,1098,470,2.02165,27.9971
-119,554,1.39795,-27.1727,0,0,0,0,0,0,0,-1,1105,470,1.39793,27.1727
-112,554,1.03162,-24.5784,0,0,0,0,0,0,0,-1,1112,470,1.03156,24.5784
-105,554,0.608765,-21.0475,0,0,0,0,0,0,0,-1,1119,470,0.608728,21.0475
-98,554,1.51929,-7.3624,0,0,0,0,0,0,0,-1,1126,470,1.51928,7.36241
-91,554,1.41089,-6.5864,0,0,0,0,0,0,0,-1,1133,470,1.41093,6.58638
-84,554,1.62305,-5.87186,0,0,0,0,0,0,0,-1,1140,470,1.62299,5.87186
-77,554,-2.56958,1.33258,0,0,0,0,0,0,0,-1,1147,470,-2.56959,-1.33257
-70,554,-3.68164,-1.18332,0,0,0,0,0,0,0,-1,1154,470,-3.68158,1.18331
-63,554,-4.86853,-3.88708,0,0,0,0,0,0,0,-1,1161,470,-4.86853,3.88708
-56,554,-5.69958,-6.45422,0,0,0,0,0,0,0,-1,1168,470,-5.69955,6.45422
-49,554,-6.23645,-8.8569,0,0,0,0,0,0,0,-1,1175,470,-6.23643,8.85689
-42,554,-6.62524,-11.5382,0,0,0,0,0,0,0,-1,1182,470,-6.62522,11.5382
-35,554,-2.40173,-4.59482,0,0,0,0,0,0,0,-1,1189,470,-2.40169,4.59481
-28,554,-0.760132,-1.65555,0,0,0,0,0,0,0,-1,1196,470,-0.760095,1.65556
-21,554,-6.11462,-31.9121,0,0,0,0,0,0,0,-1,1203,470,-6.11458,31.9122
-14,554,10.6931,-28.4804,0,0,0,0,0,0,0,-1,1210,470,10.6931,28.4804
-7,554,9.58484,-30.141,0,0,0,0,0,0,0,-1,1217,470,9.58482,30.141
0,554,9.35901,-30.6106,0,0,0,0,0,0,0,-1,1224,470,9.35905,30.6106
7,554,9.14136,-30.9982,-0.067802,0.00251651,-0.107533,0.0804926,-0.145778,-0.943401,0.132438,0.0475298,1231,470,9.14141,30.9982
14,554,8.73743,-31.8727,-0.076491,-0.00543794,-0.0859584,0.0520462,-0.133975,-0.981357,0.110817,0.0469466,1238,470,8.73744,31.8727
21,554,8.62439,-32.4245,0,0,0,0,0,0,0,-1,1245,470,8.6244,32.4245
28,554,5.44055,-30.0526,0,0,0,0,0,0,0,-1,1252,470,5.44051,30.0527
35,554,6.83459,-33.9202,0,0,0,0,0,0,0,-1,1259,470,6.83456,33.9202
42,554,5.64648,-33.0738,-0.102353,-0.0301895,-0.00618667,-0.029663,-0.102879,-1.48589,0.0611459,0.0432853,1266,470,5.6465,33.0738
49,554,4.68713,-32.8595,-0.101649,-0.0385532,0.0119333,-0.0363716,-0.10383,1.38998,0.0608353,0.0441067,1273,470,4.68716,32.8595
56,554,3.68152,-32.6338,-0.0957987,-0.0461027,0.0281657,-0.033391,-0.10851,1.14685,0.0641741,0.0436548,1280,470,3.68151,32.6338
63,554,2.87122,-32.5072,-0.0910588,-0.0550659,0.0451914,-0.0244195,-0.121705,0.974887,0.074346,0.045594,1287,470,2.87124,32.5072
70,554,2.26563,-32.8127,-0.0806349,-0.0604959,0.0610571,-0.00868361,-0.132447,0.867122,0.0855507,0.0464001,1294,470,2.26559,32.8127
77,554,1.69165,-33.5366,0,0,0,0,0,0,0,-1,1301,470,1.69171,33.5366
84,554,-1.38635,-27.6992,-0.0480248,-0.0595517,0.0833309,0.0297417,-0.137318,0.750871,0.102902,0.0433425,1308,470,-1.38632,27.6992
91,554,-1.21191,-27.3972,-0.0337039,-0.0518033,0.0917099,0.0494017,-0.134909,0.736219,0.110163,0.0433565,1315,470,-1.21187,27.3972
98,554,-1.21582,-27.3182,-0.0208596,-0.0457864,0.100349,0.067797,-0.134443,0.723614,0.118858,0.0441632,1322,470,-1.21581,27.3182
105,554,-1.35168,-27.3461,-0.0100336,-0.0380272,0.10536,0.0822555,-0.130316,0.719361,0.12377,0.0448506,1329,470,-1.3517,27.3461
112,554,-1.36389,-27.2419,0,0,0,0,0,0,0,-1,1336,470,-1.3639,27.2419
119,554,-0.745361,-25.9978,0.00364209,-0.0157445,0.107781,0.102165,-0.114267,0.740551,0.125022,0.0419657,1343,470,-0.745378,25.9978
126,554,-0.990845,-25.572,0.00595111,0.00131062,0.104025,0.107682,-0.10042,0.774248,0.120172,0.0419917,1350,470,-0.990852,25.572
133,554,-1.25964,-25.3682,0.00608854,0.019412,0.0948781,0.107862,-0.0823614,0.820447,0.110154,0.0442532,1357,470,-1.25962,25.3682
140,554,-1.41296,-25.1899,0.00748609,0.0334976,0.0838059,0.105301,-0.0643172,0.862379,0.0988774,0.0495522,1364,470,-1.41297,25.1899
147,554,7.71448,-32.9949,0,0,0,0,0,0,0,-1,1371,470,7.71453,32.9949
154,554,-0.634644,-27.1428,0.0167025,0.0415199,0.055662,0.0861395,-0.0279171,0.895069,0.068651,0.0439588,1378,470,-0.634613,27.1428
161,554,-0.447632,-27.5812,0.0231098,0.0320623,0.0421948,0.0700177,-0.0148455,0.838243,0.0523336,0.0454728,1385,470,-0.447654,27.5812
168,554,0.0893555,-27.8857,0,0,0,0,0,0,0,-1,1392,470,0.0893254,27.8856
175,554,10.663,0.286957,0,0,0,0,0,0,0,-1,1399,470,10.663,-0.286966
182,554,6.71106,-4.50217,0,0,0,0,0,0,0,-1,1406,470,6.71107,4.50215
189,554,6.90479,-2.50348,0,0,0,0,0,0,0,-1,1413,470,6.90477,2.50348
196,554,6.96216,-0.740906,0,0,0,0,0,0,0,-1,1420,470,6.96214,0.740912
203,554,6.43518,0.414154,0,0,0,0,0,0,0,-1,1427,470,6.43523,-0.414141
210,554,6.21167,1.96707,0,0,0,0,0,0,0,-1,1434,470,6.21165,-1.96706
217,554,5.64551,3.4989,0,0,0,0,0,0,0,-1,1441,470,5.64555,-3.49891
224,554,4.85144,-8.85172,0,0,0,0,0,0,0,-1,1448,470,4.85146,8.85173
231,554,3.25073,-5.29642,0,0,0,0,0,0,0,-1,1455,470,3.25078,5.29642
238,554,4.28625,-3.25253,0,0,0,0,0,0,0,-1,1462,470,4.28622,3.25252
245,554,4.0752,-2.90033,0,0,0,0,0,0,0,-1,1469,470,4.07515,2.90032
252,554,3.52112,-0.934998,0,0,0,0,0,0,0,-1,1476,470,3.52113,0.934996
259,554,3.96448,-2.16425,0,0,0,0,0,0,0,-1,1483,470,3.96446,2.16424
266,554,3.0592,-2.71716,0,0,0,0,0,0,0,-1,1490,470,3.05923,2.71718
273,554,2.58521,-3.06876,0,0,0,0,0,0,0,-1,1497,470,2.58524,3.06874
280,554,2.83301,-0.991699,0,0,0,0,0,0,0,-1,1504,470,2.83303,0.991704
287,554,3.54126,-4.12277,0,0,0,0,0,0,0,-1,1511,470,3.54123,4.12277
294,554,3.62036,-8.50146,0,0,0,0,0,0,0,-1,1518,470,3.62031,8.50145
301,554,8.01575,-26.6011,0,0,0,0,0,0,0,-1,1525,470,8.0158,26.6011
308,554,8.20251,-26.6295,0,0,0,0,0,0,0,-1,1532,470,8.20253,26.6295
315,554,8.28394,-26.4413,0,0,0,0,0,0,0,-1,1539,470,8.28389,26.4412
322,554,8.27576,-26.1904,0,0,0,0,0,0,0,-1,1546,470,8.27576,26.1904
329,554,8.26746,-25.4001,0.00145545,-0.0063088,-0.00368539,0.00292617,-0.00777952,-0.379704,0.00638915,0.0425892,1553,470,8.26748,25.4001
336,554,8.24695,-25.2339,0.00092513,-0.00515092,-0.00324017,0.00232876,-0.00655455,-0.408792,0.0053187,0.0259114,1560,470,8.24693,25.2339
343,554,8.24878,-24.9001,0.000358424,-0.00416312,-0.00289224,0.00176864,-0.00557333,-0.453666,0.00442454,0.0141316,1567,470,8.24877,24.9002
350,554,8.29504,-24.4643,2.47746e-05,-0.00326512,-0.00243638,0.00131952,-0.00455987,-0.488468,0.00356217,0.00951767,1574,470,8.2951,24.4643
357,554,8.31213,-24.0308,-0.000167717,-0.00230026,-0.00195978,0.000997085,-0.00346506,-0.536257,0.00270438,0.0107994,1581,470,8.31211,24.0308
364,554,8.30286,-23.6245,-0.000254848,-0.00148365,-0.00143487,0.000691625,-0.00243013,-0.583111,0.00189322,0.00895076,1588,470,8.30289,23.6245
371,554,8.297,-23.2055,-0.000254892,-0.000755794,-0.000915242,0.000443548,-0.00145423,-0.651846,0.00114631,0.00848446,1595,470,8.297,23.2055
378,554,8.29272,-22.7576,-0.000229554,-1.6309e-05,-0.000448988,0.000338543,-0.000584406,-0.901975,0.00053913,0.0101874,1602,470,8.29268,22.7576
385,554,8.29272,-22.2994,-0.000202828,0.000881918,-9.50311e-06,0.000882002,-0.000202911,-1.56204,0.000666022,0.00975717,1609,470,8.2927,22.2994
392,554,8.27576,-21.835,-0.000144367,0.00146317,0.000343026,0.00153331,-0.000214504,1.36911,0.0011007,0.0124244,1616,470,8.27574,21.835
399,554,8.24976,-21.3838,6.22123e-06,0.00186391,0.000751175,0.00212964,-0.000259512,1.23078,0.0015137,0.0175051,1623,470,8.24976,21.3838
406,554,8.25342,-20.9269,3.06351e-05,0.00237079,0.00108309,0.00279513,-0.000393704,1.19739,0.00200757,0.0160006,1630,470,8.25342,20.9269
413,554,8.24719,-20.4577,1.63281e-05,0.00285115,0.00135459,0.00339435,-0.000526867,1.18943,0.00245742,0.01565,1637,470,8.24715,20.4577
420,554,8.24792,-19.9926,9.84525e-05,0.00318414,0.00167396,0.00391781,-0.000635218,1.15773,0.00284733,0.0172052,1644,470,8.2479,19.9926
427,554,8.23694,-19.5094,0.000395441,0.00358793,0.00229154,0.00478438,-0.000801012,1.08961,0.00348739,0.0120186,1651,470,8.23695,19.5094
434,554,8.19836,-19.0313,0.000664812,0.00392275,0.00279109,0.00552546,-0.000937897,1.04955,0.00403279,0.01011,1658,470,8.19836,19.0313
441,554,8.1864,-18.5412,0.00106209,0.00419484,0.00339384,0.00636633,-0.0011094,1.0016,0.00465827,0.0113252,1665,470,8.18641,18.5412
448,554,8.18652,-18.0028,0.00149497,0.00447069,0.0040797,0.00732537,-0.00135971,0.960253,0.00539425,0.0166408,1672,470,8.18651,18.0028
455,554,8.13562,-17.5175,0.00209087,0.00467216,0.00490892,0.00845727,-0.00169424,0.913948,0.00627958,0.0174469,1679,470,8.13557,17.5175
462,554,8.04395,-17.0366,0.00299819,0.00485441,0.00590614,0.00990492,-0.00205232,0.863332,0.00738309,0.0194031,1686,470,8.04389,17.0366
469,554,8.02356,-16.5596,0.00416098,0.00485716,0.00705398,0.0115716,-0.00255349,0.810051,0.00869153,0.0248797,1693,470,8.0236,16.5596
476,554,8.05652,-15.5977,0.00534606,0.00473052,0.00832273,0.0133667,-0.00329013,0.766917,0.0101865,0.043572,1700,470,8.05654,15.5977
483,554,8.03491,-14.6013,0,0,0,0,0,0,0,-1,1707,470,8.03496,14.6013
490,554,8.76025,-12.0439,0,0,0,0,0,0,0,-1,1714,470,8.76021,12.0438
497,554,10.9613,1.60983,0,0,0,0,0,0,0,-1,1721,470,10.9613,-1.60982
504,554,2.13257,-3.81628,0,0,0,0,0,0,0,-1,1728,470,2.1326,3.8163
511,554,1.31396,-4.02713,0,0,0,0,0,0,0,-1,1735,470,1.31398,4.02712
518,554,5.04236,-5.9472,0,0,0,0,0,0,0,-1,1742,470,5.04231,5.94721
525,554,0,0,0,0,0,0,0,0,0,-1,1749,470,0,0
532,554,0,0,0,0,0,0,0,0,0,-1,1756,470,0,0
539,554,0,0,0,0,0,0,0,0,0,-1,1763,470,0,0
546,554,0,0,0,0,0,0,0,0,0,-1,1770,470,0,0
553,554,0,0,0,0,0,0,0,0,0,-1,1777,470,0,0
560,554,0,0,0,0,0,0,0,0,0,-1,1784,470,0,0
567,554,0,0,0,0,0,0,0,0,0,-1,1791,470,0,0
574,554,0,0,0,0,0,0,0,0,0,-1,1798,470,0,0
581,554,0,0,0,0,0,0,0,0,0,-1,1805,470,0,0
588,554,0,0,0,0,0,0,0,0,0,-1,1812,470,0,0
595,554,0,0,0,0,0,0,0,0,0,-1,1819,470,0,0
602,554,0,0,0,0,0,0,0,0,0,-1,1826,470,0,0
609,554,0,0,0,0,0,0,0,0,0,-1,1833,470,0,0
616,554,0,0,0,0,0,0,0,0,0,-1,1840,470,0,0
623,554,0,0,0,0,0,0,0,0,0,-1,1847,470,0,0
630,554,0,0,0,0,0,0,0,0,0,-1,1854,470,0,0
637,554,0,0,0,0,0,0,0,0,0,-1,1861,470,0,0
644,554,0,0,0,0,0,0,0,0,0,-1,1868,470,0,0
651,554,0,0,0,0,0,0,0,0,0,-1,1875,470,0,0
658,554,0,0,0,0,0,0,0,0,0,-1,1882,470,0,0
665,554,0,0,0,0,0,0,0,0,0,-1,1889,470,0,0
672,554,0,0,0,0,0,0,0,0,0,-1,1896,470,0,0
679,554,0,0,0,0,0,0,0,0,0,-1,1903,470,0,0
686,554,0,0,0,0,0,0,0,0,0,-1,1910,470,0,0
693,554,0,0,0,0,0,0,0,0,0,-1,1917,470,0,0
700,554,0,0,0,0,0,0,0,0,0,-1,1924,470,0,0
707,554,0,0,0,0,0,0,0,0,0,-1,1931,470,0,0
714,554,0,0,0,0,0,0,0,0,0,-1,1938,470,0,0
721,554,0,0,0,0,0,0,0,0,0,-1,1945,470,0,0
728,554,0,0,0,0,0,0,0,0,0,-1,1952,470,0,0
735,554,0,0,0,0,0,0,0,0,0,-1,1959,470,0,0
742,554,0,0,0,0,0,0,0,0,0,-1,1966,470,0,0
749,554,0,0,0,0,0,0,0,0,0,-1,1973,470,0,0
756,554,0,0,0,0,0,0,0,0,0,-1,1980,470,0,0
763,554,0,0,0,0,0,0,0,0,0,-1,1987,470,0,0
770,554,0,0,0,0,0,0,0,0,0,-1,1994,470,0,0
777,554,0,0,0,0,0,0,0,0,0,-1,2001,470,0,0
784,554,0,0,0,0,0,0,0,0,0,-1,2008,470,0,0
791,554,0,0,0,0,0,0,0,0,0,-1,2015,470,0,0
798,554,0,0,0,0,0,0,0,0,0,-1,2022,470,0,0
805,554,0,0,0,0,0,0,0,0,0,-1,2029,470,0,0
812,554,0,0,0,0,0,0,0,0,0,-1,2036,470,0,0
-700,547,0,0,0,0,0,0,0,0,0,-1,524,477,0,0
-693,547,0,0,0,0,0,0,0,0,0,-1,531,477,0,0
-686,547,0,0,0,0,0,0,0,0,0,-1,538,477,0,0
-679,547,0,0,0,0,0,0,0,0,0,-1,545,477,0,0
-672,547,0,0,0,0,0,0,0,0,0,-1,552,477,0,0
-665,547,0,0,0,0,0,0,0,0,0,-1,559,477,0,0
-658,547,0,0,0,0,0,0,0,0,0,-1,566,477,0,0
-651,547,0,0,0,0,0,0,0,0,0,-1,573,477,0,0
-644,547,0,0,0,0,0,0,0,0,0,-1,580,477,0,0
-637,547,0,0,0,0,0,0,0,0,0,-1,587,477,0,0
-630,547,0,0,0,0,0,0,0,0,0,-1,594,477,0,0
-623,547,0,0,0,0,0,0,0,0,0,-1,601,477,0,0
-616,547,0,0,0,0,0,0,0,0,0,-1,608,477,0,0
-609,547,0,0,0,0,0,0,0,0,0,-1,615,477,0,0
-602,547,0,0,0,0,0,0,0,0,0,-1,622,477,0,0
-595,547,0,0,0,0,0,0,0,0,0,-1,629,477,0,0
-588,547,0,0,0,0,0,0,0,0,0,-1,636,477,0,0
-581,547,0,0,0,0,0,0,0,0,0,-1,643,477,0,0
-574,547,0,0,0,0,0,0,0,0,0,-1,650,477,0,0
-567,547,0,0,0,0,0,0,0,0,0,-1,657,477,0,0
-560,547,0,0,0,0,0,0,0,0,0,-1,664,477,0,0
-553,547,0,0,0,0,0,0,0,0,0,-1,671,477,0,0
-546,547,0,0,0,0,0,0,0,0,0,-1,678,477,0,0
-539,547,0,0,0,0,0,0,0,0,0,-1,685,477,0,0
-532,547,0,0,0,0,0,0,0,0,0,-1,692,477,0,0
-525,547,0,0,0,0,0,0,0,0,0,-1,699,477,0,0
-518,547,0,0,0,0,0,0,0,0,0,-1,706,477,0,0
-511,547,0,0,0,0,0,0,0,0,0,-1,713,477,0,0
-504,547,0,0,0,0,0,0,0,0,0,-1,720,477,0,0
-497,547,0,0,0,0,0,0,0,0,0,-1,727,477,0,0
-490,547,0,0,0,0,0,0,0,0,0,-1,734,477,0,0
-483,547,0,0,0,0,0,0,0,0,0,-1,741,477,0,0
-476,547,0,0,0,0,0,0,0,0,0,-1,748,477,0,0
-469,547,0,0,0,0,0,0,0,0,0,-1,755,477,0,0
-462,547,0,0,0,0,0,0,0,0,0,-1,762,477,0,0
-455,547,0,0,0,0,0,0,0,0,0,-1,769,477,0,0
-448,547,0,0,0,0,0,0,0,0,0,-1,776,477,0,0
-441,547,0,0,0,0,0,0,0,0,0,-1,783,477,0,0
-434,547,0,0,0,0,0,0,0,0,0,-1,790,477,0,0
-427,547,0,0,0,0,0,0,0,0,0,-1,797,477,0,0
-420,547,0,0,0,0,0,0,0,0,0,-1,804,477,0,0
-413,547,0,0,0,0,0,0,0,0,0,-1,811,477,0,0
-406,547,0.144592,-11.0292,0,0,0,0,0,0,0,-1,818,477,0.144583,11.0292
-399,547,0.775513,-10.0294,0,0,0,0,0,0,0,-1,825,477,0.775482,10.0295
-392,547,-1.52271,-4.41675,0,0,0,0,0,0,0,-1,832,477,-1.52273,4.41674
-385,547,-1.73743,-4.6431,0,0,0,0,0,0,0,-1,839,477,-1.73743,4.64308
-378,547,-2.41339,-4.60071,0,0,0,0,0,0,0,-1,846,477,-2.41337,4.60071
-371,547,1.64569,-11.1445,0,0,0,0,0,0,0,-1,853,477,1.64569,11.1445
-364,547,0.271729,-4.58582,0,0,0,0,0,0,0,-1,860,477,0.271753,4.5858
-357,547,0.575989,-15.8035,0,0,0,0,0,0,0,-1,867,477,0.575992,15.8035
-350,547,0.860168,-16.6988,0,0,0,0,0,0,0,-1,874,477,0.860168,16.6988
-343,547,0.699036,-17.6142,-0.00427727,0.00932815,-0.000808604,0.00937604,-0.00432516,-1.51164,0.00808758,0.0476672,881,477,0.699054,17.6142
-336,547,0.659119,-18.2957,-0.00393934,0.00795094,-0.0006936,0.00799126,-0.00397967,-1.51273,0.00703959,0.0183898,888,477,0.659117,18.2957
-329,547,0.578979,-18.8121,-0.0035315,0.00649814,-0.000568883,0.0065303,-0.00356366,-1.51432,0.00591106,0.0101709,895,477,0.578954,18.8121
-322,547,0.542358,-19.295,-0.00307894,0.00536052,-0.000590099,0.00540158,-0.00312,-1.50133,0.00497837,0.011046,902,477,0.542337,19.295
-315,547,0.5177,-19.7944,-0.00266317,0.00438942,-0.000567043,0.00443472,-0.00270847,-1.49108,0.00416407,0.0104416,909,477,0.517706,19.7944
-308,547,0.49585,-20.2561,-0.00227661,0.00370801,-0.000598518,0.00376728,-0.00233588,-1.47209,0.00355582,0.0119543,916,477,0.495834,20.2561
-301,547,0.496643,-20.7135,-0.00179382,0.00280883,-0.000584693,0.00288194,-0.00186693,-1.44639,0.00276256,0.0119852,923,477,0.49662,20.7135
-294,547,0.486877,-21.1595,-0.00123162,0.00166831,-0.000380514,0.00171741,-0.00128072,-1.44248,0.00173708,0.0101872,930,477,0.486852,21.1595
-287,547,0.45343,-21.5988,-0.000677279,0.000727581,-0.000128493,0.000739237,-0.000688935,-1.48033,0.000824726,0.0114435,937,477,0.453421,21.5989
-280,547,0.447998,-22.0406,-0.000214771,-0.000150433,0.000149443,-2.97356e-05,-0.000335468,0.89141,0.000214422,0.0127112,944,477,0.447981,22.0406
-273,547,0.428589,-22.4778,0.00017124,-0.00111374,0.00055897,0.000380361,-0.00132286,0.357998,0.00103232,0.0125954,951,477,0.42859,22.4778
-266,547,0.395142,-22.8937,0.000499347,-0.00237446,0.00113106,0.000891099,-0.00276621,0.333428,0.00220211,0.0131049,958,477,0.395134,22.8937
-259,547,0.377075,-23.2947,0.000889857,-0.00391819,0.00187302,0.00153338,-0.00456171,0.330939,0.00366092,0.0120786,965,477,0.377099,23.2947
-252,547,0.401855,-23.7183,0.00106874,-0.00581224,0.00269282,0.00199726,-0.00674076,0.332047,0.00528688,0.0112541,972,477,0.401832,23.7183
-245,547,0.412964,-24.1399,0.00107819,-0.0080933,0.00365214,0.0023548,-0.00936991,0.336275,0.00716177,0.01154,979,477,0.41297,24.1399
-238,547,0.420593,-24.5642,0.00133893,-0.0105783,0.00456742,0.00288807,-0.0121274,0.326997,0.00919999,0.00859359,986,477,0.420573,24.5642
-231,547,0.421204,-24.9634,0.0015018,-0.0131749,0.0055114,0.00334097,-0.0150141,0.322083,0.0112891,0.00837649,993,477,0.421174,24.9635
-224,547,0.437866,-25.3214,0.001606,-0.0161348,0.00660661,0.00379595,-0.0183247,0.320081,0.0136588,0.0113632,1000,477,0.437838,25.3214
-217,547,0.479187,-25.6967,0.00171212,-0.0192393,0.00764458,0.00420484,-0.021732,0.315205,0.016074,0.019164,1007,477,0.479184,25.6967
-210,547,0.512085,-25.9509,0.00209921,-0.0218207,0.00907684,0.00515357,-0.0248751,0.324598,0.0185415,0.0335897,1014,477,0.512075,25.9509
-203,547,0.503296,-25.925,0.00273589,-0.0245372,0.0104215,0.00626219,-0.0280635,0.326274,0.0211083,0.0436818,1021,477,0.503268,25.925
-196,547,0.315552,-26.2208,0.00333553,-0.0265755,0.0115801,0.0072947,-0.0305347,0.329436,0.023174,0.0481647,1028,477,0.315581,26.2208
-189,547,0.673096,-26.4861,0,0,0,0,0,0,0,-1,1035,477,0.67313,26.4861
-182,547,-0.0454102,-23.1846,0,0,0,0,0,0,0,-1,1042,477,-0.0454543,23.1846
-175,547,-0.350098,-12.3584,0,0,0,0,0,0,0,-1,1049,477,-0.350098,12.3584
-168,547,1.12463,-8.66785,0,0,0,0,0,0,0,-1,1056,477,1.12461,8.66786
-161,547,0.0255127,-28.5823,0,0,0,0,0,0,0,-1,1063,477,0.0255109,28.5823
-154,547,0.430054,-28.2016,0,0,0,0,0,0,0,-1,1070,477,0.430011,28.2016
-147,547,3.69434,-26.413,0,0,0,0,0,0,0,-1,1077,477,3.69437,26.413
-140,547,1.55676,-22.5229,0,0,0,0,0,0,0,-1,1084,477,1.5568,22.5229
-133,547,2.31665,-17.9421,0,0,0,0,0,0,0,-1,1091,477,2.31667,17.9421
-126,547,1.7063,-26.5276,0,0,0,0,0,0,0,-1,1098,477,1.70634,26.5276
-119,547,0.967651,-24.9351,0,0,0,0,0,0,0,-1,1105,477,0.967657,24.9351
-112,547,1.15674,-22.2276,0,0,0,0,0,0,0,-1,1112,477,1.15677,22.2276
-105,547,0.966797,-20.5777,0,0,0,0,0,0,0,-1,1119,477,0.966804,20.5777
-98,547,0.70166,-18.9755,0,0,0,0,0,0,0,-1,1126,477,0.701713,18.9755
-91,547,1.37805,-7.12024,0,0,0,0,0,0,0,-1,1133,477,1.37804,7.12025
-84,547,1.94202,-6.66241,0,0,0,0,0,0,0,-1,1140,477,1.94201,6.66241
-77,547,-2.28357,1.8588,0,0,0,0,0,0,0,-1,1147,477,-2.28356,-1.85879
-70,547,-3.70178,-0.874908,0,0,0,0,0,0,0,-1,1154,477,-3.70182,0.874918
-63,547,-5.12012,-3.60861,0,0,0,0,0,0,0,-1,1161,477,-5.12009,3.60862
-56,547,-6.01917,-6.2399,0,0,0,0,0,0,0,-1,1168,477,-6.01921,6.23991
-49,547,-6.729,-8.60349,0,0,0,0,0,0,0,-1,1175,477,-6.72899,8.60348
-42,547,-2.41736,-5.53012,0,0,0,0,0,0,0,-1,1182,477,-2.41734,5.53011
-35,547,-2.96838,-4.45734,0,0,0,0,0,0,0,-1,1189,477,-2.96839,4.45734
-28,547,-0.869141,-1.29901,0,0,0,0,0,0,0,-1,1196,477,-0.869135,1.29901
-21,547,-7.68262,-30.8089,0,0,0,0,0,0,0,-1,1203,477,-7.68256,30.8089
-14,547,3.35913,-31.9398,0,0,0,0,0,0,0,-1,1210,477,3.35917,31.9398
-7,547,3.60913,-31.5948,0,0,0,0,0,0,0,-1,1217,477,3.60913,31.5947
0,547,10.3982,-30.6831,0,0,0,0,0,0,0,-1,1224,477,10.3982,30.6831
7,547,10.1986,-30.9488,0,0,0,0,0,0,0,-1,1231,477,10.1986,30.9487
14,547,0,0,0,0,0,0,0,0,0,-1,1238,477,0,0
21,547,0,0,0,0,0,0,0,0,0,-1,1245,477,0,0
28,547,0,0,0,0,0,0,0,0,0,-1,1252,477,0,0
35,547,0,0,0,0,0,0,0,0,0,-1,1259,477,0,0
42,547,0,0,0,0,0,0,0,0,0,-1,1266,477,0,0
49,547,0,0,0,0,0,0,0,0,0,-1,1273,477,0,0
56,547,0,0,0,0,0,0,0,0,0,-1,1280,477,0,0
63,547,0,0,0,0,0,0,0,0,0,-1,1287,477,0,0
70,547,0,0,0,0,0,0,0,0,0,-1,1294,477,0,0
77,547,0,0,0,0,0,0,0,0,0,-1,1301,477,0,0
84,547,0,0,0,0,0,0,0,0,0,-1,1308,477,0,0
91,547,0,0,0,0,0,0,0,0,0,-1,1315,477,0,0
98,547,0,0,0,0,0,0,0,0,0,-1,1322,477,0,0
105,547,-2.85437,-26.6664,-0.0111369,0.0113035,0.096541,0.0972741,-0.0971075,0.84325,0.112226,0.0425985,1329,477,-2.85435,26.6664
112,547,-2.83081,-26.4962,0,0,0,0,0,0,0,-1,1336,477,-2.83079,26.4962
119,547,-2.49634,-26.2234,0.00687597,0.043451,0.100376,0.127192,-0.0768649,0.875505,0.119001,0.0419715,1343,477,-2.49635,26.2234
126,547,-2.34021,-26.2056,0.0104048,0.0617531,0.0985853,0.137953,-0.0657947,0.912781,0.120067,0.0445418,1350,477,-2.34017,26.2056
133,547,-2.2019,-26.3988,0.0109496,0.0747145,0.0913149,0.139553,-0.0538886,0.953356,0.115276,0.0452809,1357,477,-2.20186,26.3988
140,547,-2.13379,-26.495,0.012674,0.0836341,0.081275,0.136836,-0.0405278,0.991202,0.107315,0.045858,1364,477,-2.1338,26.495
147,547,-1.73035,-26.5241,0,0,0,0,0,0,0,-1,1371,477,-1.73031,26.5241
154,547,-1.51978,-26.695,0.0236343,0.0664859,0.0503308,0.0997616,-0.00964143,0.986629,0.0699434,0.0464443,1378,477,-1.51973,26.695
161,547,-1.2417,-26.8777,0.0326045,0.0333176,0.0299145,0.0628776,0.00304443,0.791357,0.0409413,0.0496897,1385,477,-1.24172,26.8777
168,547,-0.833862,-27.0114,0,0,0,0,0,0,0,-1,1392,477,-0.833855,27.0114
175,547,3.35034,-0.26532,0,0,0,0,0,0,0,-1,1399,477,3.3503,0.265306
182,547,4.26038,3.72672,0,0,0,0,0,0,0,-1,1406,477,4.26039,-3.7267
189,547,3.40454,1.28671,0,0,0,0,0,0,0,-1,1413,477,3.40457,-1.28673
196,547,3.53931,1.87793,0,0,0,0,0,0,0,-1,1420,477,3.53928,-1.87794
203,547,6.49414,-0.425842,0,0,0,0,0,0,0,-1,1427,477,6.4941,0.425844
210,547,4.82092,0.53595,0,0,0,0,0,0,0,-1,1434,477,4.82096,-0.535942
217,547,4.68579,0.480072,0,0,0,0,0,0,0,-1,1441,477,4.68577,-0.480069
224,547,4.55615,0.739807,0,0,0,0,0,0,0,-1,1448,477,4.55613,-0.73981
231,547,5.90869,-3.57721,0,0,0,0,0,0,0,-1,1455,477,5.90871,3.57722
238,547,5.50049,-3.15356,0,0,0,0,0,0,0,-1,1462,477,5.50045,3.15356
245,547,5.13708,-2.65213,0,0,0,0,0,0,0,-1,1469,477,5.13708,2.65212
252,547,3.73511,-0.645233,0,0,0,0,0,0,0,-1,1476,477,3.73515,0.645237
259,547,5.86816,-3.20816,0,0,0,0,0,0,0,-1,1483,477,5.86815,3.20816
266,547,5.40222,-2.45731,0,0,0,0,0,0,0,-1,1490,477,5.40221,2.45732
273,547,3.05737,0.495789,0,0,0,0,0,0,0,-1,1497,477,3.05742,-0.49578
280,547,2.0885,1.47797,0,0,0,0,0,0,0,-1,1504,477,2.08848,-1.47795
287,547,2.31177,-2.21716,0,0,0,0,0,0,0,-1,1511,477,2.31174,2.21717
294,547,2.4823,-3.03659,0,0,0,0,0,0,0,-1,1518,477,2.48229,3.0366
301,547,4.72119,-3.93454,0,0,0,0,0,0,0,-1,1525,477,4.72119,3.93453
308,547,4.07471,-5.42175,0,0,0,0,0,0,0,-1,1532,477,4.07468,5.42174
315,547,3.58496,-6.62112,0,0,0,0,0,0,0,-1,1539,477,3.58497,6.62113
322,547,5.73926,-14.1878,0,0,0,0,0,0,0,-1,1546,477,5.73926,14.1878
329,547,8.54834,-25.2466,0,0,0,0,0,0,0,-1,1553,477,8.5483,25.2466
336,547,8.63562,-25.4003,0,0,0,0,0,0,0,-1,1560,477,8.6356,25.4003
343,547,8.85266,-24.9988,-0.000230155,-0.005543,-0.00395539,0.00187805,-0.00765121,-0.489695,0.00582857,0.046391,1567,477,8.8526,24.9988
350,547,8.76392,-24.4823,-0.000496383,-0.00454412,-0.00340269,0.00143883,-0.00647934,-0.51711,0.00487053,0.0271018,1574,477,8.76393,24.4823
357,547,8.7561,-24.0335,-0.00057715,-0.00347211,-0.00284886,0.00117087,-0.00522013,-0.550349,0.00392897,0.0144925,1581,477,8.75612,24.0336
364,547,8.7428,-23.6003,-0.000542865,-0.00257118,-0.00225733,0.000917661,-0.00403171,-0.574274,0.00304021,0.00953214,1588,477,8.74278,23.6003
371,547,8.74622,-23.1756,-0.000413372,-0.00177099,-0.00167263,0.000712946,-0.00289731,-0.592636,0.0022079,0.00891985,1595,477,8.74623,23.1756
378,547,8.73511,-22.7415,-0.000256179,-0.000943179,-0.00113689,0.000587966,-0.00178732,-0.638688,0.00142846,0.0106825,1602,477,8.73514,22.7415
385,547,8.74231,-22.2886,-8.34985e-05,8.53467e-05,-0.000571797,0.00057892,-0.000577071,-0.858691,0.000667412,0.0111433,1609,477,8.74237,22.2886
392,547,8.73669,-21.8257,5.17318e-05,0.000708235,-0.000155622,0.000743257,1.67103e-05,-1.34944,0.000490029,0.011486,1616,477,8.73672,21.8257
399,547,8.72949,-21.3756,0.000211103,0.00113837,0.000257286,0.00120497,0.000144499,1.31748,0.000759744,0.0136933,1623,477,8.72948,21.3756
406,547,8.72876,-20.9368,0.000271849,0.00165641,0.000603313,0.00188241,4.58487e-05,1.21238,0.00123994,0.013199,1630,477,8.72874,20.9368
413,547,8.71533,-20.4629,0.000305097,0.00219765,0.000941367,0.00258614,-8.3396e-05,1.1794,0.00175256,0.0137937,1637,477,8.71537,20.4629
420,547,8.7196,-19.9951,0.000377851,0.00254821,0.00125174,0.00311967,-0.00019361,1.14252,0.00214723,0.0162785,1644,477,8.71965,19.9951
427,547,8.70642,-19.5049,0.000538194,0.00293816,0.00177693,0.00388234,-0.000405991,1.08238,0.00273363,0.0146264,1651,477,8.70643,19.5048
434,547,8.64819,-19.0352,0.000683964,0.0032394,0.0022084,0.00451307,-0.000589713,1.04765,0.00322332,0.00966619,1658,477,8.64821,19.0352
441,547,8.62952,-18.5679,0.000944421,0.00347011,0.00271707,0.00520347,-0.000788936,1.00294,0.00375965,0.010048,1665,477,8.62955,18.5679
448,547,8.60608,-18.0635,0.00125019,0.00369693,0.00329098,0.00598457,-0.00103745,0.96335,0.00437671,0.0109114,1672,477,8.60611,18.0635
455,547,8.5918,-17.5668,0.00168745,0.00386308,0.00396679,0.0068885,-0.00133798,0.919224,0.0050972,0.0112562,1679,477,8.59181,17.5668
462,547,8.5564,-17.0791,0.00239507,0.00390934,0.00475208,0.00796422,-0.00165981,0.864398,0.00594055,0.0115827,1686,477,8.55636,17.0791
469,547,8.52515,-16.5678,0.00330206,0.00372574,0.00564353,0.00916141,-0.0021336,0.804158,0.00692918,0.0187814,1693,477,8.52514,16.5678
476,547,8.52271,-15.9054,0.00409135,0.0034602,0.00658623,0.0103696,-0.00281801,0.761459,0.00801915,0.0338981,1700,477,8.52265,15.9054
483,547,8.43665,-15.5321,0,0,0,0,0,0,0,-1,1707,477,8.43661,15.5321
490,547,3.65271,-3.71707,0,0,0,0,0,0,0,-1,1714,477,3.65277,3.71708
497,547,2.55481,-3.81421,0,0,0,0,0,0,0,-1,1721,477,2.55476,3.8142
504,547,4.01953,-2.22714,0,0,0,0,0,0,0,-1,1728,477,4.0195,2.22713
511,547,5.2146,-6.9552,0,0,0,0,0,0,0,-1,1735,477,5.21464,6.95521
518,547,5.24243,-6.56122,0,0,0,0,0,0,0,-1,1742,477,5.24241,6.56121
525,547,5.89368,-5.49866,0,0,0,0,0,0,0,-1,1749,477,5.89372,5.49866
532,547,0,0,0,0,0,0,0,0,0,-1,1756,477,0,0
539,547,0,0,0,0,0,0,0,0,0,-1,1763,477,0,0
546,547,0,0,0,0,0,0,0,0,0,-1,1770,477,0,0
553,547,0,0,0,0,0,0,0,0,0,-1,1777,477,0,0
560,547,0,0,0,0,0,0,0,0,0,-1,1784,477,0,0
567,547,0,0,0,0,0,0,0,0,0,-1,1791,477,0,0
574,547,0,0,0,0,0,0,0,0,0,-1,1798,477,0,0
581,547,0,0,0,0,0,0,0,0,0,-1,1805,477,0,0
588,547,0,0,0,0,0,0,0,0,0,-1,1812,477,0,0
595,547,0,0,0,0,0,0,0,0,0,-1,1819,477,0,0
602,547,0,0,0,0,0,0,0,0,0,-1,1826,477,0,0
609,547,0,0,0,0,0,0,0,0,0,-1,1833,477,0,0
616,547,0,0,0,0,0,0,0,0,0,-1,1840,477,0,0
623,547,0,0,0,0,0,0,0,0,0,-1,1847,477,0,0
630,547,0,0,0,0,0,0,0,0,0,-1,1854,477,0,0
637,547,0,0,0,0,0,0,0,0,0,-1,1861,477,0,0
644,547,0,0,0,0,0,0,0,0,0,-1,1868,477,0,0
651,547,0,0,0,0,0,0,0,0,0,-1,1875,477,0,0
658,547,0,0,0,0,0,0,0,0,0,-1,1882,477,0,0
665,547,0,0,0,0,0,0,0,0,0,-1,1889,477,0,0
672,547,0,0,0,0,0,0,0,0,0,-1,1896,477,0,0
679,547,0,0,0,0,0,0,0,0,0,-1,1903,477,0,0
686,547,0,0,0,0,0,0,0,0,0,-1,1910,477,0,0
693,547,0,0,0,0,0,0,0,0,0,-1,1917,477,0,0
700,547,0,0,0,0,0,0,0,0,0,-1,1924,477,0,0
707,547,0,0,0,0,0,0,0,0,0,-1,1931,477,0,0
714,547,0,0,0,0,0,0,0,0,0,-1,1938,477,0,0
721,547,0,0,0,0,0,0,0,0,0,-1,1945,477,0,0
728,547,0,0,0,0,0,0,0,0,0,-1,1952,477,0,0
735,547,0,0,0,0,0,0,0,0,0,-1,1959,477,0,0
742,547,0,0,0,0,0,0,0,0,0,-1,1966,477,0,0
749,547,0,0,0,0,0,0,0,0,0,-1,1973,477,0,0
756,547,0,0,0,0,0,0,0,0,0,-1,1980,477,0,0
763,547,0,0,0,0,0,0,0,0,0,-1,1987,477,0,0
770,547,0,0,0,0,0,0,0,0,0,-1,1994,477,0,0
777,547,0,0,0,0,0,0,0,0,0,-1,2001,477,0,0
784,547,0,0,0,0,0,0,0,0,0,-1,2008,477,0,0
791,547,0,0,0,0,0,0,0,0,0,-1,2015,477,0,0
798,547,0,0,0,0,0,0,0,0,0,-1,2022,477,0,0
805,547,0,0,0,0,0,0,0,0,0,-1,2029,477,0,0
812,547,0,0,0,0,0,0,0,0,0,-1,2036,477,0,0
-700,540,0,0,0,0,0,0,0,0,0,-1,524,484,0,0
-693,540,0,0,0,0,0,0,0,0,0,-1,531,484,0,0
-686,540,0,0,0,0,0,0,0,0,0,-1,538,484,0,0
-679,540,0,0,0,0,0,0,0,0,0,-1,545,484,0,0
-672,540,0,0,0,0,0,0,0,0,0,-1,552,484,0,0
-665,540,0,0,0,0,0,0,0,0,0,-1,559,484,0,0
-658,540,0,0,0,0,0,0,0,0,0,-1,566,484,0,0
-651,540,0,0,0,0,0,0,0,0,0,-1,573,484,0,0
-644,540,0,0,0,0,0,0,0,0,0,-1,580,484,0,0
-637,540,0,0,0,0,0,0,0,0,0,-1,587,484,0,0
-630,540,0,0,0,0,0,0,0,0,0,-1,594,484,0,0
-623,540,0,0,0,0,0,0,0,0,0,-1,601,484,0,0
-616,540,0,0,0,0,0,0,0,0,0,-1,608,484,0,0
-609,540,0,0,0,0,0,0,0,0,0,-1,615,484,0,0
-602,540,0,0,0,0,0,0,0,0,0,-1,622,484,0,0
-595,540,0,0,0,0,0,0,0,0,0,-1,629,484,0,0
-588,540,0,0,0,0,0,0,0,0,0,-1,636,484,0,0
-581,540,0,0,0,0,0,0,0,0,0,-1,643,484,0,0
-574,540,0,0,0,0,0,0,0,0,0,-1,650,484,0,0
-567,540,0,0,0,0,0,0,0,0,0,-1,657,484,0,0
-560,540,0,0,0,0,0,0,0,0,0,-1,664,484,0,0
-553,540,0,0,0,0,0,0,0,0,0,-1,671,484,0,0
-546,540,0,0,0,0,0,0,0,0,0,-1,678,484,0,0
-539,540,0,0,0,0,0,0,0,0,0,-1,685,484,0,0
-532,540,0,0,0,0,0,0,0,0,0,-1,692,484,0,0
-525,540,0,0,0,0,0,0,0,0,0,-1,699,484,0,0
-518,540,0,0,0,0,0,0,0,0,0,-1,706,484,0,0
-511,540,0,0,0,0,0,0,0,0,0,-1,713,484,0,0
-504,540,0,0,0,0,0,0,0,0,0,-1,720,484,0,0
-497,540,0,0,0,0,0,0,0,0,0,-1,727,484,0,0
-490,540,0,0,0,0,0,0,0,0,0,-1,734,484,0,0
-483,540,0,0,0,0,0,0,0,0,0,-1,741,484,0,0
-476,540,0,0,0,0,0,0,0,0,0,-1,748,484,0,0
-469,540,0,0,0,0,0,0,0,0,0,-1,755,484,0,0
-462,540,0,0,0,0,0,0,0,0,0,-1,762,484,0,0
-455,540,0,0,0,0,0,0,0,0,0,-1,769,484,0,0
-448,540,0,0,0,0,0,0,0,0,0,-1,776,484,0,0
-441,540,0,0,0,0,0,0,0,0,0,-1,783,484,0,0
-434,540,0,0,0,0,0,0,0,0,0,-1,790,484,0,0
-427,540,0,0,0,0,0,0,0,0,0,-1,797,484,0,0
-420,540,0.227051,-10.0402,0,0,0,0,0,0,0,-1,804,484,0.227063,10.0402
-413,540,-1.12311,-11.6776,0,0,0,0,0,0,0,-1,811,484,-1.12312,11.6776
-406,540,-0.518372,-11.5288,0,0,0,0,0,0,0,-1,818,484,-0.518402,11.5288
-399,540,0.0863037,-11.3801,0,0,0,0,0,0,0,-1,825,484,0.0863201,11.3801
-392,540,-0.517395,-10.6735,0,0,0,0,0,0,0,-1,832,484,-0.517377,10.6735
-385,540,-2.29407,-5.03418,0,0,0,0,0,0,0,-1,839,484,-2.29408,5.03418
-378,540,1.06445,-10.5824,0,0,0,0,0,0,0,-1,846,484,1.06446,10.5824
-371,540,1.14825,-10.7452,0,0,0,0,0,0,0,-1,853,484,1.14827,10.7452
-364,540,0.0887451,-16.6632,0,0,0,0,0,0,0,-1,860,484,0.0887568,16.6632
-357,540,0.209534,-16.7888,0,0,0,0,0,0,0,-1,867,484,0.209544,16.7888
-350,540,0.286072,-17.025,-0.00352964,0.00933114,-0.0020897,0.00966217,-0.00386066,-1.41369,0.00804334,0.0358419,874,484,0.286047,17.025
-343,540,0.185669,-17.7392,-0.00326024,0.00782637,-0.00170488,0.00808262,-0.00351649,-1.42161,0.00686754,0.0198683,881,484,0.185689,17.7392
-336,540,0.117676,-18.38,-0.00296314,0.00655603,-0.00138977,0.00675478,-0.0031619,-1.42875,0.00584931,0.0128167,888,484,0.11768,18.38
-329,540,0.105774,-18.8438,-0.0026128,0.00521046,-0.00108177,0.00535729,-0.00275962,-1.43589,0.00476562,0.00979641,895,484,0.105778,18.8438
-322,540,0.0719604,-19.3053,-0.00222063,0.00417228,-0.000927701,0.00430418,-0.00235253,-1.42956,0.00389792,0.0138633,902,484,0.0719576,19.3053
-315,540,0.0533447,-19.7748,-0.00185014,0.0032931,-0.000733943,0.00339578,-0.00195282,-1.43179,0.00312525,0.0128948,909,484,0.0533273,19.7748
-308,540,0.0518799,-20.2336,-0.00149766,0.0026448,-0.00059112,0.0027275,-0.00158036,-1.43179,0.00251636,0.0121331,916,484,0.0518913,20.2336
-301,540,0.026062,-20.6844,-0.00107797,0.00176166,-0.000396549,0.001816,-0.00113231,-1.43462,0.0017174,0.0119708,923,484,0.0260857,20.6844
-294,540,0.0235596,-21.123,-0.000590093,0.000546879,-2.27433e-05,0.000547334,-0.000590547,-1.5508,0.000657114,0.0107751,930,484,0.0235712,21.123
-287,540,0.0272217,-21.5732,-7.924e-05,-0.000447461,0.000348572,0.000130857,-0.000657558,0.542428,0.000487876,0.00853017,937,484,0.0272388,21.5732
-280,540,0.00982666,-22.019,0.000322998,-0.0014205,0.000759054,0.00060715,-0.00170466,0.358201,0.00138395,0.00975416,944,484,0.00984514,22.0191
-273,540,0.00396729,-22.4325,0.000639736,-0.00250787,0.00130401,0.00110977,-0.00297791,0.34596,0.0024408,0.0120648,951,484,0.00397176,22.4325
-266,540,-0.00354004,-22.86,0.000970929,-0.00395208,0.00208966,0.00173831,-0.00471946,0.351938,0.00385855,0.0133325,958,484,-0.00354307,22.86
-259,540,-0.0238037,-23.3066,0.00128784,-0.00570037,0.00300215,0.00240043,-0.00681297,0.354907,0.00551896,0.0122256,965,484,-0.0238186,23.3066
-252,540,-0.00897217,-23.7133,0.00133661,-0.00803802,0.00401298,0.00281978,-0.0095212,0.354023,0.00746702,0.0118975,972,484,-0.00896702,23.7133
-245,540,0.00799561,-24.1121,0.00123341,-0.0108421,0.00518817,0.00315628,-0.012765,0.35493,0.00973418,0.0120572,979,484,0.00801078,24.1121
-238,540,0.00610352,-24.5052,0.00147358,-0.0139018,0.00630638,0.00372928,-0.0161575,0.343505,0.0122062,0.00965658,986,484,0.00611449,24.5052
-231,540,0.0284424,-24.8869,0.00159439,-0.0171718,0.00749676,0.00422146,-0.0197988,0.337055,0.0148083,0.0143889,993,484,0.0284668,24.8869
-224,540,0.0181885,-25.2539,0.00158125,-0.0209612,0.00892984,0.00468996,-0.0240699,0.335004,0.0178169,0.0267955,1000,484,0.0181959,25.2539
-217,540,-0.0373535,-25.4171,0.00161075,-0.0249956,0.0102779,0.00511857,-0.0285034,0.328901,0.0209183,0.0410693,1007,484,-0.0373428,25.4171
-210,540,0.0300293,-25.6579,0.00202701,-0.0284209,0.0121584,0.00628625,-0.0326802,0.336954,0.0241564,0.0474473,1014,484,0.0300305,25.6579
-203,540,0.130432,-25.6292,0,0,0,0,0,0,0,-1,1021,484,0.130463,25.6292
-196,540,-0.143799,-26.0272,0,0,0,0,0,0,0,-1,1028,484,-0.143848,26.0272
-189,540,-0.726807,-22.826,0,0,0,0,0,0,0,-1,1035,484,-0.72684,22.8259
-182,540,0.109375,-15.2948,0,0,0,0,0,0,0,-1,1042,484,0.109331,15.2948
-175,540,1.73413,-10.728,0,0,0,0,0,0,0,-1,1049,484,1.73414,10.728
-168,540,1.18164,-7.65347,0,0,0,0,0,0,0,-1,1056,484,1.18163,7.65347
-161,540,-0.405884,-9.86481,0,0,0,0,0,0,0,-1,1063,484,-0.405886,9.8648
-154,540,1.96863,-22.0727,0,0,0,0,0,0,0,-1,1070,484,1.96859,22.0727
-147,540,1.32764,-21.9952,0,0,0,0,0,0,0,-1,1077,484,1.32762,21.9952
-140,540,1.40735,-15.6289,0,0,0,0,0,0,0,-1,1084,484,1.4073,15.6289
-133,540,2.28345,-17.6413,0,0,0,0,0,0,0,-1,1091,484,2.2835,17.6413
-126,540,1.25293,-23.9108,0,0,0,0,0,0,0,-1,1098,484,1.25288,23.9108
-119,540,1.55969,-23.0125,0,0,0,0,0,0,0,-1,1105,484,1.55968,23.0125
-112,540,1.4801,-21.6515,0,0,0,0,0,0,0,-1,1112,484,1.4801,21.6515
-105,540,1.30078,-19.8938,0,0,0,0,0,0,0,-1,1119,484,1.30077,19.8938
-98,540,1.08105,-18.1304,0,0,0,0,0,0,0,-1,1126,484,1.08101,18.1304
-91,540,1.56519,-7.48666,0,0,0,0,0,0,0,-1,1133,484,1.56514,7.48667
-84,540,-0.945923,4.43073,0,0,0,0,0,0,0,-1,1140,484,-0.945891,-4.43074
-77,540,-2.28894,2.14368,0,0,0,0,0,0,0,-1,1147,484,-2.28894,-2.14368
-70,540,-3.75244,-0.452576,0,0,0,0,0,0,0,-1,1154,484,-3.75244,0.452576
-63,540,-5.26257,-3.04767,0,0,0,0,0,0,0,-1,1161,484,-5.26262,3.04766
-56,540,-5.19055,-6.12595,0,0,0,0,0,0,0,-1,1168,484,-5.19057,6.12595
-49,540,-5.63867,-8.52298,0,0,0,0,0,0,0,-1,1175,484,-5.63871,8.52298
-42,540,0,0,0,0,0,0,0,0,0,-1,1182,484,0,0
-35,540,0,0,0,0,0,0,0,0,0,-1,1189,484,0,0
-28,540,0,0,0,0,0,0,0,0,0,-1,1196,484,0,0
-21,540,0,0,0,0,0,0,0,0,0,-1,1203,484,0,0
-14,540,0,0,0,0,0,0,0,0,0,-1,1210,484,0,0
-7,540,0,0,0,0,0,0,0,0,0,-1,1217,484,0,0
0,540,0,0,0,0,0,0,0,0,0,-1,1224,484,0,0
7,540,0,0,0,0,0,0,0,0,0,-1,1231,484,0,0
14,540,0,0,0,0,0,0,0,0,0,-1,1238,484,0,0
21,540,0,0,0,0,0,0,0,0,0,-1,1245,484,0,0
28,540,0,0,0,0,0,0,0,0,0,-1,1252,484,0,0
35,540,0,0,0,0,0,0,0,0,0,-1,1259,484,0,0
42,540,0,0,0,0,0,0,0,0,0,-1,1266,484,0,0
49,540,0,0,0,0,0,0,0,0,0,-1,1273,484,0,0
56,540,0,0,0,0,0,0,0,0,0,-1,1280,484,0,0
63,540,0,0,0,0,0,0,0,0,0,-1,1287,484,0,0
70,540,0,0,0,0,0,0,0,0,0,-1,1294,484,0,0
77,540,0,0,0,0,0,0,0,0,0,-1,1301,484,0,0
84,540,0,0,0,0,0,0,0,0,0,-1,1308,484,0,0
91,540,0,0,0,0,0,0,0,0,0,-1,1315,484,0,0
98,540,0,0,0,0,0,0,0,0,0,-1,1322,484,0,0
105,540,0,0,0,0,0,0,0,0,0,-1,1329,484,0,0
112,540,0,0,0,0,0,0,0,0,0,-1,1336,484,0,0
119,540,0,0,0,0,0,0,0,0,0,-1,1343,484,0,0
126,540,0,0,0,0,0,0,0,0,0,-1,1350,484,0,0
133,540,0,0,0,0,0,0,0,0,0,-1,1357,484,0,0
140,540,0,0,0,0,0,0,0,0,0,-1,1364,484,0,0
147,540,0,0,0,0,0,0,0,0,0,-1,1371,484,0,0
154,540,0,0,0,0,0,0,0,0,0,-1,1378,484,0,0
161,540,0,0,0,0,0,0,0,0,0,-1,1385,484,0,0
168,540,3.05078,-0.0010376,0,0,0,0,0,0,0,-1,1392,484,3.05084,0.00102554
175,540,3.37708,0.617035,0,0,0,0,0,0,0,-1,1399,484,3.37707,-0.617046
182,540,3.32678,1.23267,0,0,0,0,0,0,0,-1,1406,484,3.32678,-1.23266
189,540,3.5813,2.15619,0,0,0,0,0,0,0,-1,1413,484,3.58129,-2.1562
196,540,1.84448,-0.801483,0,0,0,0,0,0,0,-1,1420,484,1.84446,0.80148
203,540,4.14648,0.702087,0,0,0,0,0,0,0,-1,1427,484,4.14645,-0.702089
210,540,4.50671,-0.56076,0,0,0,0,0,0,0,-1,1434,484,4.50667,0.560771
217,540,5.00452,-0.278717,0,0,0,0,0,0,0,-1,1441,484,5.00452,0.278709
224,540,6.44458,-2.83527,0,0,0,0,0,0,0,-1,1448,484,6.44457,2.83525
231,540,6.9231,-3.10504,0,0,0,0,0,0,0,-1,1455,484,6.92307,3.10505
238,540,6.4823,-2.58365,0,0,0,0,0,0,0,-1,1462,484,6.48225,2.58363
245,540,6.02087,-1.97916,0,0,0,0,0,0,0,-1,1469,484,6.02088,1.97915
252,540,6.50647,-3.56006,0,0,0,0,0,0,0,-1,1476,484,6.50649,3.56006
259,540,6.01941,-2.798,0,0,0,0,0,0,0,-1,1483,484,6.01941,2.79801
266,540,5.5332,-2.02853,0,0,0,0,0,0,0,-1,1490,484,5.53323,2.02855
273,540,5.06787,-1.28137,0,0,0,0,0,0,0,-1,1497,484,5.06786,1.28136
280,540,1.62903,-2.14609,0,0,0,0,0,0,0,-1,1504,484,1.62906,2.1461
287,540,1.97156,-2.45053,0,0,0,0,0,0,0,-1,1511,484,1.97159,2.45053
294,540,2.44165,-2.6185,0,0,0,0,0,0,0,-1,1518,484,2.44167,2.6185
301,540,4.36169,-2.54272,0,0,0,0,0,0,0,-1,1525,484,4.36165,2.54272
308,540,4.2019,-4.30469,0,0,0,0,0,0,0,-1,1532,484,4.20193,4.3047
315,540,4.45923,-5.32101,0,0,0,0,0,0,0,-1,1539,484,4.45923,5.32103
322,540,4.71655,-6.33737,0,0,0,0,0,0,0,-1,1546,484,4.71653,6.33736
329,540,5.8949,-12.9383,0,0,0,0,0,0,0,-1,1553,484,5.89492,12.9383
336,540,7.16467,-17.7826,0,0,0,0,0,0,0,-1,1560,484,7.16469,17.7826
343,540,9.51343,-25.2014,0,0,0,0,0,0,0,-1,1567,484,9.51342,25.2014
350,540,9.17786,-24.5536,0,0,0,0,0,0,0,-1,1574,484,9.17791,24.5536
357,540,9.30286,-23.8168,-0.00159377,-0.00484338,-0.00395197,0.00105437,-0.00749152,-0.590363,0.00538035,0.0390245,1581,484,9.30291,23.8168
364,540,9.16272,-23.5358,-0.0013081,-0.00377509,-0.00322613,0.000912307,-0.0059955,-0.602801,0.00433323,0.0217002,1588,484,9.1627,23.5358
371,540,9.16199,-23.1569,-0.000929285,-0.00280387,-0.00251476,0.000817177,-0.00455033,-0.607015,0.00333944,0.0142521,1595,484,9.16194,23.1569
378,540,9.18933,-22.7151,-0.000535036,-0.00177355,-0.00184989,0.00079649,-0.00310507,-0.623884,0.00238039,0.0118923,1602,484,9.18932,22.7151
385,540,9.18896,-22.2739,-0.000137201,-0.000554523,-0.00111433,0.000787838,-0.00147956,-0.692844,0.00132924,0.0133982,1609,484,9.18892,22.2739
392,540,9.18347,-21.819,0.00010626,8.6907e-05,-0.000657265,0.00075392,-0.000560753,-0.778037,0.000761753,0.0122594,1616,484,9.18343,21.819
399,540,9.17358,-21.3723,0.00030643,0.000576438,-0.000247218,0.000723113,0.000159755,-1.03532,0.000438631,0.0166818,1623,484,9.17364,21.3722
406,540,9.18848,-20.9272,0.000438197,0.00110812,0.000113701,0.0011269,0.000419426,1.40718,0.00065766,0.0181797,1630,484,9.18843,20.9272
413,540,9.18689,-20.4562,0.000543554,0.00168739,0.000508218,0.00188057,0.000350373,1.20755,0.00115478,0.0144739,1637,484,9.18685,20.4562
420,540,9.16431,-19.9752,0.000631006,0.00203739,0.000805328,0.00240333,0.000265071,1.1443,0.00152158,0.0126502,1644,484,9.16433,19.9751
427,540,9.12842,-19.5089,0.000684572,0.00237692,0.00124161,0.00303328,2.82162e-05,1.0845,0.00201285,0.0129091,1651,484,9.12837,19.5089
434,540,9.11084,-19.0393,0.000738007,0.00262461,0.00162232,0.00355794,-0.00019532,1.04873,0.00243967,0.0154949,1658,484,9.11084,19.0393
441,540,9.12,-18.5426,0.000902403,0.00280764,0.00206751,0.00413144,-0.000421396,1.00128,0.00290497,0.0192783,1665,484,9.11994,18.5426
448,540,9.09033,-18.0592,0.00113557,0.00298053,0.00257422,0.00479257,-0.000676468,0.957447,0.00344276,0.0116989,1672,484,9.09028,18.0592
455,540,9.07043,-17.5631,0.00146933,0.00311015,0.00315446,0.00554914,-0.000969665,0.912619,0.00406142,0.0104364,1679,484,9.0704,17.5631
462,540,9.03418,-17.0699,0.00203272,0.00308173,0.00380977,0.00640294,-0.00128848,0.853805,0.00475665,0.0105804,1686,484,9.0342,17.0699
469,540,9.0011,-16.5568,0.00275318,0.00280849,0.004549,0.00732992,-0.00176824,0.788438,0.00557037,0.0124605,1693,484,9.00104,16.5568
476,540,8.98425,-16.0397,0.00327414,0.00249871,0.00529348,0.00819409,-0.00242124,0.748842,0.00642375,0.0174384,1700,484,8.98427,16.0397
483,540,9.00476,-15.5086,0.00399752,0.00193433,0.006062,0.00911507,-0.00318322,0.701119,0.00737059,0.031808,1707,484,9.00474,15.5086
490,540,9.16187,-14.8973,0,0,0,0,0,0,0,-1,1714,484,9.16188,14.8973
497,540,9.25146,-14.2222,0,0,0,0,0,0,0,-1,1721,484,9.25142,14.2222
504,540,5.68176,-6.39444,0,0,0,0,0,0,0,-1,1728,484,5.68179,6.39445
511,540,5.82471,-6.83521,0,0,0,0,0,0,0,-1,1735,484,5.82465,6.83522
518,540,9.98181,-12.4608,0,0,0,0,0,0,0,-1,1742,484,9.98187,12.4608
525,540,8.64587,-13.3445,0,0,0,0,0,0,0,-1,1749,484,8.64585,13.3445
532,540,2.84265,-1.07925,0,0,0,0,0,0,0,-1,1756,484,2.84269,1.07927
539,540,0,0,0,0,0,0,0,0,0,-1,1763,484,0,0
546,540,0,0,0,0,0,0,0,0,0,-1,1770,484,0,0
553,540,0,0,0,0,0,0,0,0,0,-1,1777,484,0,0
560,540,0,0,0,0,0,0,0,0,0,-1,1784,484,0,0
567,540,0,0,0,0,0,0,0,0,0,-1,1791,484,0,0
574,540,0,0,0,0,0,0,0,0,0,-1,1798,484,0,0
581,540,0,0,0,0,0,0,0,0,0,-1,1805,484,0,0
588,540,0,0,0,0,0,0,0,0,0,-1,1812,484,0,0
595,540,0,0,0,0,0,0,0,0,0,-1,1819,484,0,0
602,540,0,0,0,0,0,0,0,0,0,-1,1826,484,0,0
609,540,0,0,0,0,0,0,0,0,0,-1,1833,484,0,0
616,540,0,0,0,0,0,0,0,0,0,-1,1840,484,0,0
623,540,0,0,0,0,0,0,0,0,0,-1,1847,484,0,0
630,540,0,0,0,0,0,0,0,0,0,-1,1854,484,0,0
637,540,0,0,0,0,0,0,0,0,0,-1,1861,484,0,0
644,540,0,0,0,0,0,0,0,0,0,-1,1868,484,0,0
651,540,0,0,0,0,0,0,0,0,0,-1,1875,484,0,0
658,540,0,0,0,0,0,0,0,0,0,-1,1882,484,0,0
665,540,0,0,0,0,0,0,0,0,0,-1,1889,484,0,0
672,540,0,0,0,0,0,0,0,0,0,-1,1896,484,0,0
679,540,0,0,0,0,0,0,0,0,0,-1,1903,484,0,0
686,540,0,0,0,0,0,0,0,0,0,-1,1910,484,0,0
693,540,0,0,0,0,0,0,0,0,0,-1,1917,484,0,0
700,540,0,0,0,0,0,0,0,0,0,-1,1924,484,0,0
707,540,0,0,0,0,0,0,0,0,0,-1,1931,484,0,0
714,540,0,0,0,0,0,0,0,0,0,-1,1938,484,0,0
721,540,0,0,0,0,0,0,0,0,0,-1,1945,484,0,0
728,540,0,0,0,0,0,0,0,0,0,-1,1952,484,0,0
735,540,0,0,0,0,0,0,0,0,0,-1,1959,484,0,0
742,540,0,0,0,0,0,0,0,0,0,-1,1966,484,0,0
749,540,0,0,0,0,0,0,0,0,0,-1,1973,484,0,0
756,540,0,0,0,0,0,0,0,0,0,-1,1980,484,0,0
763,540,0,0,0,0,0,0,0,0,0,-1,1987,484,0,0
770,540,0,0,0,0,0,0,0,0,0,-1,1994,484,0,0
777,540,0,0,0,0,0,0,0,0,0,-1,2001,484,0,0
784,540,0,0,0,0,0,0,0,0,0,-1,2008,484,0,0
791,540,0,0,0,0,0,0,0,0,0,-1,2015,484,0,0
798,540,0,0,0,0,0,0,0,0,0,-1,2022,484,0,0
805,540,0,0,0,0,0,0,0,0,0,-1,2029,484,0,0
812,540,0,0,0,0,0,0,0,0,0,-1,2036,484,0,0
-700,533,0,0,0,0,0,0,0,0,0,-1,524,491,0,0
-693,533,0,0,0,0,0,0,0,0,0,-1,531,491,0,0
-686,533,0,0,0,0,0,0,0,0,0,-1,538,491,0,0
-679,533,0,0,0,0,0,0,0,0,0,-1,545,491,0,0
-672,533,0,0,0,0,0,0,0,0,0,-1,552,491,0,0
-665,533,0,0,0,0,0,0,0,0,0,-1,559,491,0,0
-658,533,0,0,0,0,0,0,0,0,0,-1,566,491,0,0
-651,533,0,0,0,0,0,0,0,0,0,-1,573,491,0,0
-644,533,0,0,0,0,0,0,0,0,0,-1,580,491,0,0
-637,533,0,0,0,0,0,0,0,0,0,-1,587,491,0,0
-630,533,0,0,0,0,0,0,0,0,0,-1,594,491,0,0
-623,533,0,0,0,0,0,0,0,0,0,-1,601,491,0,0
-616,533,0,0,0,0,0,0,0,0,0,-1,608,491,0,0
-609,533,0,0,0,0,0,0,0,0,0,-1,615,491,0,0
-602,533,0,0,0,0,0,0,0,0,0,-1,622,491,0,0
-595,533,0,0,0,0,0,0,0,0,0,-1,629,491,0,0
-588,533,0,0,0,0,0,0,0,0,0,-1,636,491,0,0
-581,533,0,0,0,0,0,0,0,0,0,-1,643,491,0,0
-574,533,0,0,0,0,0,0,0,0,0,-1,650,491,0,0
-567,533,0,0,0,0,0,0,0,0,0,-1,657,491,0,0
-560,533,0,0,0,0,0,0,0,0,0,-1,664,491,0,0
-553,533,0,0,0,0,0,0,0,0,0,-1,671,491,0,0
-546,533,0,0,0,0,0,0,0,0,0,-1,678,491,0,0
-539,533,0,0,0,0,0,0,0,0,0,-1,685,491,0,0
-532,533,0,0,0,0,0,0,0,0,0,-1,692,491,0,0
-525,533,0,0,0,0,0,0,0,0,0,-1,699,491,0,0
-518,533,0,0,0,0,0,0,0,0,0,-1,706,491,0,0
-511,533,0,0,0,0,0,0,0,0,0,-1,713,491,0,0
-504,533,0,0,0,0,0,0,0,0,0,-1,720,491,0,0
-497,533,0,0,0,0,0,0,0,0,0,-1,727,491,0,0
-490,533,0,0,0,0,0,0,0,0,0,-1,734,491,0,0
-483,533,0,0,0,0,0,0,0,0,0,-1,741,491,0,0
-476,533,0,0,0,0,0,0,0,0,0,-1,748,491,0,0
-469,533,0,0,0,0,0,0,0,0,0,-1,755,491,0,0
-462,533,0,0,0,0,0,0,0,0,0,-1,762,491,0,0
-455,533,0,0,0,0,0,0,0,0,0,-1,769,491,0,0
-448,533,0,0,0,0,0,0,0,0,0,-1,776,491,0,0
-441,533,0,0,0,0,0,0,0,0,0,-1,783,491,0,0
-434,533,0,0,0,0,0,0,0,0,0,-1,790,491,0,0
-427,533,0.559814,-4.40222,0,0,0,0,0,0,0,-1,797,491,0.559816,4.40222
-420,533,-0.194275,-9.77838,0,0,0,0,0,0,0,-1,804,491,-0.194288,9.77838
-413,533,-1.32666,-12.065,0,0,0,0,0,0,0,-1,811,491,-1.32665,12.065
-406,533,-0.890869,-12.2537,0,0,0,0,0,0,0,-1,818,491,-0.89084,12.2537
-399,533,-0.455017,-12.4423,0,0,0,0,0,0,0,-1,825,491,-0.455032,12.4423
-392,533,-1.89661,-10.3905,0,0,0,0,0,0,0,-1,832,491,-1.89661,10.3905
-385,533,-1.69116,-6.64645,0,0,0,0,0,0,0,-1,839,491,-1.69115,6.64645
-378,533,0.302185,-15.249,0,0,0,0,0,0,0,-1,846,491,0.302165,15.249
-371,533,-0.0303955,-15.7044,0,0,0,0,0,0,0,-1,853,491,-0.0303864,15.7044
-364,533,-0.349426,-16.511,-0.00310553,0.0109026,-0.00362693,0.011786,-0.0039889,-1.33189,0.00947122,0.0416979,860,491,-0.349451,16.511
-357,533,-0.249695,-16.796,-0.00290015,0.0091009,-0.00298621,0.0098029,-0.00360214,-1.33991,0.00801065,0.0225749,867,491,-0.249695,16.796
-350,533,-0.233032,-17.3429,-0.00267365,0.00758711,-0.00242121,0.00812974,-0.00321628,-1.35032,0.00675227,0.0142004,874,491,-0.233024,17.3429
-343,533,-0.275696,-17.8765,-0.00239014,0.00624972,-0.00196223,0.00667449,-0.00281491,-1.35761,0.00562773,0.0126316,881,491,-0.275705,17.8765
-336,533,-0.336365,-18.3878,-0.00211626,0.00510823,-0.00155421,0.0054284,-0.00243643,-1.36764,0.004649,0.0149484,888,491,-0.336387,18.3878
-329,533,-0.331604,-18.8182,-0.00176482,0.00390284,-0.00118008,0.00413873,-0.00200071,-1.3735,0.00361554,0.0135405,895,491,-0.331623,18.8182
-322,533,-0.359253,-19.2764,-0.001393,0.00298409,-0.00094358,0.00317884,-0.00158774,-1.36726,0.00280262,0.0115781,902,491,-0.359227,19.2764
-315,533,-0.393982,-19.7529,-0.0010445,0.00221898,-0.000667542,0.00235025,-0.00117577,-1.37663,0.00207305,0.0126692,909,491,-0.393985,19.7529
-308,533,-0.40625,-20.213,-0.000696683,0.00162632,-0.000432604,0.00170427,-0.00077463,-1.39253,0.00146436,0.011948,916,491,-0.40628,20.213
-301,533,-0.441589,-20.6499,-0.000310763,0.000787601,-0.000125715,0.000801806,-0.000324968,-1.45828,0.000669679,0.0124794,923,491,-0.441609,20.6499
-294,533,-0.433411,-21.0933,0.000119934,-0.000472993,0.00036669,0.000295013,-0.000648072,0.445451,0.000557064,0.0110222,930,491,-0.433431,21.0933
-287,533,-0.414734,-21.5585,0.000601366,-0.00150324,0.000819304,0.000882705,-0.00178458,0.330772,0.00156903,0.0093828,937,491,-0.414739,21.5585
-280,533,-0.422302,-22.0076,0.000952097,-0.0025802,0.00134592,0.00140648,-0.00303459,0.325588,0.00262086,0.00873061,944,491,-0.422322,22.0075
-273,533,-0.436157,-22.4178,0.00119834,-0.00381247,0.00202565,0.00191478,-0.00452891,0.339956,0.00382096,0.0118825,951,491,-0.436182,22.4178
-266,533,-0.434753,-22.8417,0.00152574,-0.00548434,0.00302952,0.00265355,-0.00661215,0.356378,0.00550989,0.01201,958,491,-0.434764,22.8417
-259,533,-0.430176,-23.2711,0.00176111,-0.00750047,0.00415734,0.00335348,-0.00909284,0.365788,0.00743619,0.0125068,965,491,-0.430178,23.2711
-252,533,-0.412415,-23.6718,0.00165178,-0.010413,0.00542253,0.00373071,-0.012492,0.366104,0.00981091,0.0143596,972,491,-0.412422,23.6718
-245,533,-0.436279,-24.0325,0.00137887,-0.0139483,0.00691892,0.00404011,-0.0166096,0.367188,0.0126369,0.0212889,979,491,-0.436257,24.0325
-238,533,-0.348999,-24.3781,0.00155113,-0.0178177,0.00833973,0.00464713,-0.0209137,0.355465,0.0157221,0.0282293,986,491,-0.349026,24.3781
-231,533,-0.204285,-24.7498,0,0,0,0,0,0,0,-1,993,491,-0.204255,24.7498
-224,533,-0.371399,-25.2627,0,0,0,0,0,0,0,-1,1000,491,-0.371422,25.2627
-217,533,-0.44574,-25.3234,0,0,0,0,0,0,0,-1,1007,491,-0.445717,25.3234
-210,533,-0.301636,-25.5342,0,0,0,0,0,0,0,-1,1014,491,-0.301625,25.5342
-203,533,1.02856,-25.6401,0,0,0,0,0,0,0,-1,1021,491,1.02856,25.6402
-196,533,0.688354,-19.5743,0,0,0,0,0,0,0,-1,1028,491,0.688406,19.5743
-189,533,-0.169189,-15.0303,0,0,0,0,0,0,0,-1,1035,491,-0.169241,15.0303
-182,533,1.26123,-11.4969,0,0,0,0,0,0,0,-1,1042,491,1.26128,11.4969
-175,533,0.937744,-7.36966,0,0,0,0,0,0,0,-1,1049,491,0.937769,7.36965
-168,533,2.64807,-2.7543,0,0,0,0,0,0,0,-1,1056,491,2.64812,2.7543
-161,533,1.91833,-1.76553,0,0,0,0,0,0,0,-1,1063,491,1.91836,1.76554
-154,533,0.376709,-11.0633,0,0,0,0,0,0,0,-1,1070,491,0.376715,11.0632
-147,533,0.383789,-12.1586,0,0,0,0,0,0,0,-1,1077,491,0.383829,12.1586
-140,533,1.14001,-15.4608,0,0,0,0,0,0,0,-1,1084,491,1.14005,15.4608
-133,533,0.189941,-16.0795,0,0,0,0,0,0,0,-1,1091,491,0.18994,16.0795
-126,533,2.89612,-2.59003,0,0,0,0,0,0,0,-1,1098,491,2.89608,2.59003
-119,533,1.78284,-22.5394,0,0,0,0,0,0,0,-1,1105,491,1.78279,22.5394
-112,533,1.83862,-21.2401,0,0,0,0,0,0,0,-1,1112,491,1.83859,21.24
-105,533,1.67554,-19.4018,0,0,0,0,0,0,0,-1,1119,491,1.6755,19.4018
-98,533,-1.39392,-5.16367,0,0,0,0,0,0,0,-1,1126,491,-1.39394,5.16367
-91,533,0.367432,4.49753,0,0,0,0,0,0,0,-1,1133,491,0.367468,-4.49754
-84,533,-0.88623,3.03604,0,0,0,0,0,0,0,-1,1140,491,-0.886288,-3.03605
-77,533,0,0,0,0,0,0,0,0,0,-1,1147,491,0,0
-70,533,0,0,0,0,0,0,0,0,0,-1,1154,491,0,0
-63,533,0,0,0,0,0,0,0,0,0,-1,1161,491,0,0
-56,533,0,0,0,0,0,0,0,0,0,-1,1168,491,0,0
-49,533,0,0,0,0,0,0,0,0,0,-1,1175,491,0,0
-42,533,0,0,0,0,0,0,0,0,0,-1,1182,491,0,0
-35,533,0,0,0,0,0,0,0,0,0,-1,1189,491,0,0
-28,533,0,0,0,0,0,0,0,0,0,-1,1196,491,0,0
-21,533,0,0,0,0,0,0,0,0,0,-1,1203,491,0,0
-14,533,0,0,0,0,0,0,0,0,0,-1,1210,491,0,0
-7,533,0,0,0,0,0,0,0,0,0,-1,1217,491,0,0
0,533,0,0,0,0,0,0,0,0,0,-1,1224,491,0,0
7,533,0,0,0,0,0,0,0,0,0,-1,1231,491,0,0
14,533,0,0,0,0,0,0,0,0,0,-1,1238,491,0,0
21,533,0,0,0,0,0,0,0,0,0,-1,1245,491,0,0
28,533,0,0,0,0,0,0,0,0,0,-1,1252,491,0,0
35,533,0,0,0,0,0,0,0,0,0,-1,1259,491,0,0
42,533,0,0,0,0,0,0,0,0,0,-1,1266,491,0,0
49,533,0,0,0,0,0,0,0,0,0,-1,1273,491,0,0
56,533,0,0,0,0,0,0,0,0,0,-1,1280,491,0,0
63,533,0,0,0,0,0,0,0,0,0,-1,1287,491,0,0
70,533,0,0,0,0,0,0,0,0,0,-1,1294,491,0,0
77,533,0,0,0,0,0,0,0,0,0,-1,1301,491,0,0
84,533,0,0,0,0,0,0,0,0,0,-1,1308,491,0,0
91,533,0,0,0,0,0,0,0,0,0,-1,1315,491,0,0
98,533,0,0,0,0,0,0,0,0,0,-1,1322,491,0,0
105,533,0,0,0,0,0,0,0,0,0,-1,1329,491,0,0
112,533,0,0,0,0,0,0,0,0,0,-1,1336,491,0,0
119,533,0,0,0,0,0,0,0,0,0,-1,1343,491,0,0
126,533,0,0,0,0,0,0,0,0,0,-1,1350,491,0,0
133,533,0,0,0,0,0,0,0,0,0,-1,1357,491,0,0
140,533,0,0,0,0,0,0,0,0,0,-1,1364,491,0,0
147,533,0,0,0,0,0,0,0,0,0,-1,1371,491,0,0
154,533,0,0,0,0,0,0,0,0,0,-1,1378,491,0,0
161,533,0,0,0,0,0,0,0,0,0,-1,1385,491,0,0
168,533,0,0,0,0,0,0,0,0,0,-1,1392,491,0,0
175,533,0,0,0,0,0,0,0,0,0,-1,1399,491,0,0
182,533,0,0,0,0,0,0,0,0,0,-1,1406,491,0,0
189,533,0,0,0,0,0,0,0,0,0,-1,1413,491,0,0
196,533,0,0,0,0,0,0,0,0,0,-1,1420,491,0,0
203,533,3.7887,1.16193,0,0,0,0,0,0,0,-1,1427,491,3.78872,-1.16193
210,533,5.09558,-0.216034,0,0,0,0,0,0,0,-1,1434,491,5.09559,0.216028
217,533,6.91614,-2.46814,0,0,0,0,0,0,0,-1,1441,491,6.91618,2.46814
224,533,7.23621,-2.1857,0,0,0,0,0,0,0,-1,1448,491,7.23621,2.1857
231,533,7.23474,-1.92282,0,0,0,0,0,0,0,-1,1455,491,7.2347,1.92282
238,533,7.23535,-1.67258,0,0,0,0,0,0,0,-1,1462,491,7.23539,1.67258
245,533,6.86682,-1.2301,0,0,0,0,0,0,0,-1,1469,491,6.86686,1.23011
252,533,6.63354,-3.07825,0,0,0,0,0,0,0,-1,1476,491,6.6335,3.07824
259,533,6.16431,-2.35037,0,0,0,0,0,0,0,-1,1483,491,6.1643,2.35037
266,533,5.68884,-1.6214,0,0,0,0,0,0,0,-1,1490,491,5.68885,1.6214
273,533,5.21399,-0.864227,0,0,0,0,0,0,0,-1,1497,491,5.21403,0.864227
280,533,1.41089,-1.97946,0,0,0,0,0,0,0,-1,1504,491,1.41087,1.97946
287,533,1.6814,-2.44443,0,0,0,0,0,0,0,-1,1511,491,1.6814,2.44444
294,533,2.2384,-2.57626,0,0,0,0,0,0,0,-1,1518,491,2.23839,2.57625
301,533,3.39941,-4.0817,0,0,0,0,0,0,0,-1,1525,491,3.3994,4.08171
308,533,4.13733,-4.14752,0,0,0,0,0,0,0,-1,1532,491,4.13727,4.14752
315,533,4.80762,-5.29349,0,0,0,0,0,0,0,-1,1539,491,4.80762,5.29347
322,533,5.47803,-6.43942,0,0,0,0,0,0,0,-1,1546,491,5.47798,6.43943
329,533,3.88477,-3.86301,0,0,0,0,0,0,0,-1,1553,491,3.88475,3.86299
336,533,6.70923,-13.2003,0,0,0,0,0,0,0,-1,1560,491,6.70926,13.2004
343,533,7.06677,-17.1133,0,0,0,0,0,0,0,-1,1567,491,7.06673,17.1133
350,533,9.40173,-22.6988,0,0,0,0,0,0,0,-1,1574,491,9.40172,22.6988
357,533,9.88159,-23.6361,0,0,0,0,0,0,0,-1,1581,491,9.88164,23.6361
364,533,9.71777,-23.2817,-0.0023708,-0.00457952,-0.00402408,0.000697709,-0.00764803,-0.651477,0.00534645,0.0418138,1588,491,9.71781,23.2817
371,533,9.55957,-23.0959,-0.00166061,-0.00335533,-0.00318297,0.000785857,-0.0058018,-0.655307,0.00415467,0.0356317,1595,491,9.55952,23.0959
378,533,9.59375,-22.6863,-0.000970365,-0.00206133,-0.0023888,0.000934445,-0.00396614,-0.673148,0.00300441,0.026924,1602,491,9.59371,22.6864
385,533,9.64844,-22.2482,-0.000294477,-0.000694745,-0.00147862,0.000997492,-0.00198671,-0.718131,0.0017542,0.0219,1609,491,9.64844,22.2482
392,533,9.63123,-21.8185,7.89959e-05,-0.000125787,-0.00101343,0.000995196,-0.00104199,-0.735052,0.00117627,0.0135474,1616,491,9.63122,21.8185
399,533,9.64661,-21.3808,0.000336948,0.000338114,-0.000641306,0.000978838,-0.000303776,-0.785853,0.000773951,0.0125571,1623,491,9.64666,21.3808
406,533,9.67102,-20.9229,0.000559562,0.000793587,-0.000291826,0.000990986,0.000362163,-0.976068,0.000579009,0.0150701,1630,491,9.67101,20.9228
413,533,9.65588,-20.4413,0.000754421,0.00133161,0.00013474,0.00136152,0.000724517,1.3524,0.000786613,0.0135922,1637,491,9.65586,20.4412
420,533,9.62122,-19.9693,0.000871676,0.00162441,0.000399609,0.00179699,0.000699099,1.16313,0.00104597,0.0124255,1644,491,9.62118,19.9693
427,533,9.59729,-19.481,0.000841251,0.00186923,0.000739724,0.002256,0.000454475,1.08902,0.00137773,0.0132104,1651,491,9.59725,19.481
434,533,9.58337,-19.0117,0.000823937,0.00205272,0.0010651,0.00266793,0.000208727,1.04701,0.00171329,0.0127034,1658,491,9.58341,19.0117
441,533,9.5979,-18.5352,0.000911866,0.00218841,0.00144824,0.00313278,-3.25126e-05,0.992954,0.00209944,0.0152207,1665,491,9.59787,18.5352
448,533,9.578,-18.0594,0.00107809,0.0023039,0.00188984,0.00367773,-0.000295746,0.942204,0.00255611,0.0160501,1672,491,9.57799,18.0594
455,533,9.55164,-17.5612,0.00131556,0.00240523,0.00238007,0.00430203,-0.000581242,0.897918,0.0030801,0.0152956,1679,491,9.55159,17.5613
462,533,9.5249,-17.0429,0.00174654,0.00232772,0.00291832,0.00496989,-0.000895625,0.835023,0.00364863,0.0142499,1686,491,9.52493,17.0429
469,533,9.5105,-16.5533,0.0023057,0.0020133,0.00353419,0.00569671,-0.00137772,0.764726,0.00433072,0.00926699,1693,491,9.51044,16.5533
476,533,9.50146,-16.0231,0.00262202,0.00169652,0.00413369,0.00631878,-0.00200024,0.729657,0.00501407,0.0105817,1700,491,9.50152,16.0231
483,533,9.52893,-15.4717,0.00307431,0.00117505,0.00471678,0.00693611,-0.00268675,0.686061,0.00573348,0.0176296,1707,491,9.52897,15.4717
490,533,9.62134,-15.0532,0.00358548,0.000245787,0.00540418,0.00757192,-0.00374065,0.635555,0.006655,0.0425037,1714,491,9.62131,15.0532
497,533,9.77478,-14.6038,0,0,0,0,0,0,0,-1,1721,491,9.77474,14.6037
504,533,9.82031,-13.8204,0,0,0,0,0,0,0,-1,1728,491,9.82031,13.8204
511,533,9.97083,-13.4682,0,0,0,0,0,0,0,-1,1735,491,9.97084,13.4682
518,533,10.076,-13.152,0,0,0,0,0,0,0,-1,1742,491,10.076,13.152
525,533,8.94031,-13.1281,0,0,0,0,0,0,0,-1,1749,491,8.94029,13.1281
532,533,8.45972,-12.6109,0,0,0,0,0,0,0,-1,1756,491,8.45969,12.6109
539,533,3.61609,1.62427,0,0,0,0,0,0,0,-1,1763,491,3.61606,-1.62426
546,533,3.59607,1.65799,0,0,0,0,0,0,0,-1,1770,491,3.59605,-1.658
553,533,0,0,0,0,0,0,0,0,0,-1,1777,491,0,0
560,533,0,0,0,0,0,0,0,0,0,-1,1784,491,0,0
567,533,0,0,0,0,0,0,0,0,0,-1,1791,491,0,0
574,533,0,0,0,0,0,0,0,0,0,-1,1798,491,0,0
581,533,0,0,0,0,0,0,0,0,0,-1,1805,491,0,0
588,533,0,0,0,0,0,0,0,0,0,-1,1812,491,0,0
595,533,0,0,0,0,0,0,0,0,0,-1,1819,491,0,0
602,533,0,0,0,0,0,0,0,0,0,-1,1826,491,0,0
609,533,0,0,0,0,0,0,0,0,0,-1,1833,491,0,0
616,533,0,0,0,0,0,0,0,0,0,-1,1840,491,0,0
623,533,0,0,0,0,0,0,0,0,0,-1,1847,491,0,0
630,533,0,0,0,0,0,0,0,0,0,-1,1854,491,0,0
637,533,0,0,0,0,0,0,0,0,0,-1,1861,491,0,0
644,533,0,0,0,0,0,0,0,0,0,-1,1868,491,0,0
651,533,0,0,0,0,0,0,0,0,0,-1,1875,491,0,0
658,533,0,0,0,0,0,0,0,0,0,-1,1882,491,0,0
665,533,0,0,0,0,0,0,0,0,0,-1,1889,491,0,0
672,533,0,0,0,0,0,0,0,0,0,-1,1896,491,0,0
679,533,0,0,0,0,0,0,0,0,0,-1,1903,491,0,0
686,533,0,0,0,0,0,0,0,0,0,-1,1910,491,0,0
693,533,0,0,0,0,0,0,0,0,0,-1,1917,491,0,0
700,533,0,0,0,0,0,0,0,0,0,-1,1924,491,0,0
707,533,0,0,0,0,0,0,0,0,0,-1,1931,491,0,0
714,533,0,0,0,0,0,0,0,0,0,-1,1938,491,0,0
721,533,0,0,0,0,0,0,0,0,0,-1,1945,491,0,0
728,533,0,0,0,0,0,0,0,0,0,-1,1952,491,0,0
735,533,0,0,0,0,0,0,0,0,0,-1,1959,491,0,0
742,533,0,0,0,0,0,0,0,0,0,-1,1966,491,0,0
749,533,0,0,0,0,0,0,0,0,0,-1,1973,491,0,0
756,533,0,0,0,0,0,0,0,0,0,-1,1980,491,0,0
763,533,0,0,0,0,0,0,0,0,0,-1,1987,491,0,0
770,533,0,0,0,0,0,0,0,0,0,-1,1994,491,0,0
777,533,0,0,0,0,0,0,0,0,0,-1,2001,491,0,0
784,533,0,0,0,0,0,0,0,0,0,-1,2008,491,0,0
791,533,0,0,0,0,0,0,0,0,0,-1,2015,491,0,0
798,533,0,0,0,0,0,0,0,0,0,-1,2022,491,0,0
805,533,0,0,0,0,0,0,0,0,0,-1,2029,491,0,0
812,533,0,0,0,0,0,0,0,0,0,-1,2036,491,0,0
-700,526,0,0,0,0,0,0,0,0,0,-1,524,498,0,0
-693,526,0,0,0,0,0,0,0,0,0,-1,531,498,0,0
-686,526,0,0,0,0,0,0,0,0,0,-1,538,498,0,0
-679,526,0,0,0,0,0,0,0,0,0,-1,545,498,0,0
-672,526,0,0,0,0,0,0,0,0,0,-1,552,498,0,0
-665,526,0,0,0,0,0,0,0,0,0,-1,559,498,0,0
-658,526,0,0,0,0,0,0,0,0,0,-1,566,498,0,0
-651,526,0,0,0,0,0,0,0,0,0,-1,573,498,0,0
-644,526,0,0,0,0,0,0,0,0,0,-1,580,498,0,0
-637,526,0,0,0,0,0,0,0,0,0,-1,587,498,0,0
-630,526,0,0,0,0,0,0,0,0,0,-1,594,498,0,0
-623,526,0,0,0,0,0,0,0,0,0,-1,601,498,0,0
-616,526,0,0,0,0,0,0,0,0,0,-1,608,498,0,0
-609,526,0,0,0,0,0,0,0,0,0,-1,615,498,0,0
-602,526,0,0,0,0,0,0,0,0,0,-1,622,498,0,0
-595,526,0,0,0,0,0,0,0,0,0,-1,629,498,0,0
-588,526,0,0,0,0,0,0,0,0,0,-1,636,498,0,0
-581,526,0,0,0,0,0,0,0,0,0,-1,643,498,0,0
-574,526,0,0,0,0,0,0,0,0,0,-1,650,498,0,0
-567,526,0,0,0,0,0,0,0,0,0,-1,657,498,0,0
-560,526,0,0,0,0,0,0,0,0,0,-1,664,498,0,0
-553,526,0,0,0,0,0,0,0,0,0,-1,671,498,0,0
-546,526,0,0,0,0,0,0,0,0,0,-1,678,498,0,0
-539,526,0,0,0,0,0,0,0,0,0,-1,685,498,0,0
-532,526,0,0,0,0,0,0,0,0,0,-1,692,498,0,0
-525,526,0,0,0,0,0,0,0,0,0,-1,699,498,0,0
-518,526,0,0,0,0,0,0,0,0,0,-1,706,498,0,0
-511,526,0,0,0,0,0,0,0,0,0,-1,713,498,0,0
-504,526,0,0,0,0,0,0,0,0,0,-1,720,498,0,0
-497,526,0,0,0,0,0,0,0,0,0,-1,727,498,0,0
-490,526,0,0,0,0,0,0,0,0,0,-1,734,498,0,0
-483,526,0,0,0,0,0,0,0,0,0,-1,741,498,0,0
-476,526,0,0,0,0,0,0,0,0,0,-1,748,498,0,0
-469,526,0,0,0,0,0,0,0,0,0,-1,755,498,0,0
-462,526,0,0,0,0,0,0,0,0,0,-1,762,498,0,0
-455,526,0,0,0,0,0,0,0,0,0,-1,769,498,0,0
-448,526,0,0,0,0,0,0,0,0,0,-1,776,498,0,0
-441,526,0,0,0,0,0,0,0,0,0,-1,783,498,0,0
-434,526,-0.153564,-5.96649,0,0,0,0,0,0,0,-1,790,498,-0.153589,5.9665
-427,526,1.23206,-4.59808,0,0,0,0,0,0,0,-1,797,498,1.23208,4.59809
-420,526,0.923462,-10.1938,0,0,0,0,0,0,0,-1,804,498,0.92349,10.1938
-413,526,-1.71814,-12.3744,0,0,0,0,0,0,0,-1,811,498,-1.71813,12.3744
-406,526,-1.29816,-12.5131,0,0,0,0,0,0,0,-1,818,498,-1.29816,12.5131
-399,526,-0.878174,-12.6518,0,0,0,0,0,0,0,-1,825,498,-0.878176,12.6518
-392,526,-2.27356,-11.5593,0,0,0,0,0,0,0,-1,832,498,-2.27357,11.5593
-385,526,-0.531067,-14.3409,0,0,0,0,0,0,0,-1,839,498,-0.531081,14.3409
-378,526,-0.433044,-15.058,-0.00399254,0.0122355,-0.00491023,0.0136056,-0.0053626,-1.2987,0.0112907,0.0475399,846,498,-0.433048,15.058
-371,526,-0.604553,-15.6798,-0.00321362,0.0102652,-0.00438906,0.0115684,-0.00451682,-1.28217,0.00957964,0.0349271,853,498,-0.604528,15.6798
-364,526,-0.727173,-16.3058,-0.00272264,0.00879571,-0.00379301,0.00993255,-0.00385948,-1.2796,0.00821612,0.0186405,860,498,-0.727197,16.3058
-357,526,-0.708191,-16.8338,-0.00236298,0.00730492,-0.00328706,0.00831664,-0.0033747,-1.27221,0.0069481,0.0118906,867,498,-0.708191,16.8338
-350,526,-0.712341,-17.3252,-0.0020433,0.00601358,-0.00276227,0.00686966,-0.00289937,-1.27027,0.00579334,0.0121592,874,498,-0.712338,17.3252
-343,526,-0.748047,-17.8297,-0.00172739,0.00483795,-0.00229167,0.00555873,-0.00244818,-1.26607,0.00473764,0.016335,881,498,-0.748051,17.8297
-336,526,-0.781738,-18.3245,-0.00141187,0.00380832,-0.00184338,0.00439364,-0.00199718,-1.26334,0.00377522,0.0152137,888,498,-0.781754,18.3245
-329,526,-0.778931,-18.7823,-0.00099894,0.00273509,-0.00142051,0.00321405,-0.0014779,-1.24559,0.00277003,0.0153402,895,498,-0.778927,18.7823
-322,526,-0.795837,-19.2426,-0.000589256,0.0019165,-0.00108054,0.00231809,-0.000990845,-1.21496,0.00196097,0.0102469,902,498,-0.795811,19.2425
-315,526,-0.827576,-19.7383,-0.000211585,0.00124352,-0.0006876,0.00151703,-0.000485096,-1.19221,0.00120602,0.00901413,909,498,-0.82756,19.7383
-308,526,-0.848633,-20.2285,0.000174474,0.00067858,-0.000319308,0.00083333,1.97247e-05,-1.11951,0.000549096,0.00845729,916,498,-0.848609,20.2285
-301,526,-0.883911,-20.6547,0.000556235,-0.000136247,0.00014298,0.000584596,-0.000164608,0.19581,0.000454644,0.00988379,923,498,-0.883921,20.6547
-294,526,-0.881348,-21.0842,0.000929607,-0.00145848,0.000787448,0.00116588,-0.00169476,0.291505,0.00166097,0.00949868,930,498,-0.881376,21.0842
-287,526,-0.883362,-21.5396,0.00135758,-0.0025537,0.00135086,0.00177878,-0.0029749,0.302245,0.00277334,0.00994374,937,498,-0.883341,21.5396
-280,526,-0.891479,-21.9797,0.00162071,-0.00380409,0.00203242,0.00229768,-0.00448106,0.321529,0.0039808,0.0128294,944,498,-0.891494,21.9797
-273,526,-0.889221,-22.4141,0.00176474,-0.00526128,0.00286909,0.00278746,-0.00628401,0.342422,0.00536553,0.0105208,951,498,-0.889216,22.4141
-266,526,-0.892883,-22.834,0.00196108,-0.00725051,0.00398124,0.00344327,-0.00873271,0.356397,0.00724754,0.0108197,958,498,-0.892859,22.8341
-259,526,-0.859192,-23.2216,0.00209909,-0.00964593,0.00539081,0.00419823,-0.0117451,0.371329,0.00954243,0.022597,965,498,-0.859166,23.2216
-252,526,-0.949463,-23.4396,0.0019029,-0.0132641,0.00693366,0.00459486,-0.0159561,0.370331,0.0124548,0.037423,972,498,-0.94948,23.4397
-245,526,-1.0387,-23.5304,0.00145068,-0.0177655,0.00891194,0.00494748,-0.0212623,0.373913,0.0160798,0.0484686,979,498,-1.03868,23.5304
-238,526,-0.740356,-24.2666,0,0,0,0,0,0,0,-1,986,498,-0.740377,24.2666
-231,526,-0.0792236,-23.5162,0,0,0,0,0,0,0,-1,993,498,-0.0792245,23.5162
-224,526,-0.292603,-23.2656,0,0,0,0,0,0,0,-1,1000,498,-0.292617,23.2656
-217,526,-0.170898,-25.1683,0,0,0,0,0,0,0,-1,1007,498,-0.170928,25.1683
-210,526,0.371399,-25.6344,0,0,0,0,0,0,0,-1,1014,498,0.371389,25.6344
-203,526,-0.659302,-18.8818,0,0,0,0,0,0,0,-1,1021,498,-0.659273,18.8818
-196,526,-0.328247,-12.179,0,0,0,0,0,0,0,-1,1028,498,-0.328238,12.179
-189,526,0.401245,-5.96826,0,0,0,0,0,0,0,-1,1035,498,0.401197,5.96826
-182,526,1.7323,-2.99405,0,0,0,0,0,0,0,-1,1042,498,1.73226,2.99404
-175,526,2.27637,-2.07983,0,0,0,0,0,0,0,-1,1049,498,2.27639,2.07984
-168,526,2.12036,-1.66049,0,0,0,0,0,0,0,-1,1056,498,2.12035,1.66048
-161,526,2.09082,-1.20572,0,0,0,0,0,0,0,-1,1063,498,2.09086,1.2057
-154,526,-1.3446,-5.37799,0,0,0,0,0,0,0,-1,1070,498,-1.34457,5.37799
-147,526,-0.472656,-6.64996,0,0,0,0,0,0,0,-1,1077,498,-0.472659,6.64997
-140,526,0.422852,-8.03339,0,0,0,0,0,0,0,-1,1084,498,0.422844,8.0334
-133,526,1.09583,-9.2215,0,0,0,0,0,0,0,-1,1091,498,1.09581,9.2215
-126,526,3.42529,-2.36053,0,0,0,0,0,0,0,-1,1098,498,3.42523,2.36052
-119,526,2.7771,-0.764099,0,0,0,0,0,0,0,-1,1105,498,2.7771,0.764107
-112,526,2.57715,-1.1893,0,0,0,0,0,0,0,-1,1112,498,2.57718,1.1893
-105,526,0,0,0,0,0,0,0,0,0,-1,1119,498,0,0
-98,526,0,0,0,0,0,0,0,0,0,-1,1126,498,0,0
-91,526,0,0,0,0,0,0,0,0,0,-1,1133,498,0,0
-84,526,0,0,0,0,0,0,0,0,0,-1,1140,498,0,0
-77,526,0,0,0,0,0,0,0,0,0,-1,1147,498,0,0
-70,526,0,0,0,0,0,0,0,0,0,-1,1154,498,0,0
-63,526,0,0,0,0,0,0,0,0,0,-1,1161,498,0,0
-56,526,0,0,0,0,0,0,0,0,0,-1,1168,498,0,0
-49,526,0,0,0,0,0,0,0,0,0,-1,1175,498,0,0
-42,526,0,0,0,0,0,0,0,0,0,-1,1182,498,0,0
-35,526,0,0,0,0,0,0,0,0,0,-1,1189,498,0,0
-28,526,0,0,0,0,0,0,0,0,0,-1,1196,498,0,0
-21,526,0,0,0,0,0,0,0,0,0,-1,1203,498,0,0
-14,526,0,0,0,0,0,0,0,0,0,-1,1210,498,0,0
-7,526,0,0,0,0,0,0,0,0,0,-1,1217,498,0,0
0,526,0,0,0,0,0,0,0,0,0,-1,1224,498,0,0
7,526,0,0,0,0,0,0,0,0,0,-1,1231,498,0,0
14,526,0,0,0,0,0,0,0,0,0,-1,1238,498,0,0
21,526,0,0,0,0,0,0,0,0,0,-1,1245,498,0,0
28,526,0,0,0,0,0,0,0,0,0,-1,1252,498,0,0
35,526,0,0,0,0,0,0,0,0,0,-1,1259,498,0,0
42,526,0,0,0,0,0,0,0,0,0,-1,1266,498,0,0
49,526,0,0,0,0,0,0,0,0,0,-1,1273,498,0,0
56,526,0,0,0,0,0,0,0,0,0,-1,1280,498,0,0
63,526,0,0,0,0,0,0,0,0,0,-1,1287,498,0,0
70,526,0,0,0,0,0,0,0,0,0,-1,1294,498,0,0
77,526,0,0,0,0,0,0,0,0,0,-1,1301,498,0,0
84,526,0,0,0,0,0,0,0,0,0,-1,1308,498,0,0
91,526,0,0,0,0,0,0,0,0,0,-1,1315,498,0,0
98,526,0,0,0,0,0,0,0,0,0,-1,1322,498,0,0
105,526,0,0,0,0,0,0,0,0,0,-1,1329,498,0,0
112,526,0,0,0,0,0,0,0,0,0,-1,1336,498,0,0
119,526,0,0,0,0,0,0,0,0,0,-1,1343,498,0,0
126,526,0,0,0,0,0,0,0,0,0,-1,1350,498,0,0
133,526,0,0,0,0,0,0,0,0,0,-1,1357,498,0,0
140,526,0,0,0,0,0,0,0,0,0,-1,1364,498,0,0
147,526,0,0,0,0,0,0,0,0,0,-1,1371,498,0,0
154,526,0,0,0,0,0,0,0,0,0,-1,1378,498,0,0
161,526,0,0,0,0,0,0,0,0,0,-1,1385,498,0,0
168,526,0,0,0,0,0,0,0,0,0,-1,1392,498,0,0
175,526,0,0,0,0,0,0,0,0,0,-1,1399,498,0,0
182,526,0,0,0,0,0,0,0,0,0,-1,1406,498,0,0
189,526,0,0,0,0,0,0,0,0,0,-1,1413,498,0,0
196,526,0,0,0,0,0,0,0,0,0,-1,1420,498,0,0
203,526,0,0,0,0,0,0,0,0,0,-1,1427,498,0,0
210,526,0,0,0,0,0,0,0,0,0,-1,1434,498,0,0
217,526,0,0,0,0,0,0,0,0,0,-1,1441,498,0,0
224,526,0,0,0,0,0,0,0,0,0,-1,1448,498,0,0
231,526,7.93237,-1.30618,0,0,0,0,0,0,0,-1,1455,498,7.93238,1.30618
238,526,7.97717,-1.08197,0,0,0,0,0,0,0,-1,1462,498,7.97723,1.08196
245,526,7.2793,-0.792938,0,0,0,0,0,0,0,-1,1469,498,7.27931,0.792926
252,526,6.73523,-2.23608,0,0,0,0,0,0,0,-1,1476,498,6.73525,2.23608
259,526,6.22949,-1.84967,0,0,0,0,0,0,0,-1,1483,498,6.22953,1.84968
266,526,5.72375,-1.46329,0,0,0,0,0,0,0,-1,1490,498,5.72381,1.46328
273,526,4.33984,0.49173,0,0,0,0,0,0,0,-1,1497,498,4.33979,-0.491727
280,526,1.4585,-1.59897,0,0,0,0,0,0,0,-1,1504,498,1.45846,1.59895
287,526,1.46411,-2.40134,0,0,0,0,0,0,0,-1,1511,498,1.46406,2.40133
294,526,5.57471,-4.59085,0,0,0,0,0,0,0,-1,1518,498,5.57466,4.59084
301,526,4.42786,-3.99677,0,0,0,0,0,0,0,-1,1525,498,4.42788,3.99676
308,526,5.79529,-4.19366,0,0,0,0,0,0,0,-1,1532,498,5.79528,4.19368
315,526,5.09851,-5.20068,0,0,0,0,0,0,0,-1,1539,498,5.09851,5.20068
322,526,5.50708,-4.72348,0,0,0,0,0,0,0,-1,1546,498,5.50713,4.72347
329,526,3.88672,-4.345,0,0,0,0,0,0,0,-1,1553,498,3.88674,4.34501
336,526,4.97876,-2.23828,0,0,0,0,0,0,0,-1,1560,498,4.97877,2.23828
343,526,3.31665,-2.69696,0,0,0,0,0,0,0,-1,1567,498,3.31667,2.69696
350,526,6.06287,-6.12015,0,0,0,0,0,0,0,-1,1574,498,6.06286,6.12014
357,526,9.50061,-23.9969,0,0,0,0,0,0,0,-1,1581,498,9.50057,23.9969
364,526,9.33667,-23.5336,0,0,0,0,0,0,0,-1,1588,498,9.33664,23.5336
371,526,9.99768,-23.3467,0,0,0,0,0,0,0,-1,1595,498,9.99762,23.3467
378,526,9.97095,-22.9429,0,0,0,0,0,0,0,-1,1602,498,9.97092,22.9429
385,526,10.0723,-22.2998,0,0,0,0,0,0,0,-1,1609,498,10.0722,22.2998
392,526,10.2041,-21.8465,7.27793e-06,6.46836e-05,-0.00122371,0.00126003,-0.00118807,-0.797124,0.00141361,0.0427293,1616,498,10.2041,21.8465
399,526,10.0912,-21.3791,0.000352241,0.000443141,-0.000915897,0.00131472,-0.000519333,-0.810189,0.00109158,0.0233615,1623,498,10.0912,21.3791
406,526,10.1244,-20.8909,0.0006913,0.000754231,-0.000594128,0.00131773,0.000127805,-0.811854,0.000839133,0.0124632,1630,498,10.1244,20.8909
413,526,10.1105,-20.4355,0.000985223,0.00118966,-0.000156766,0.00127459,0.000900294,-1.0743,0.000756483,0.0128597,1637,498,10.1105,20.4356
420,526,10.0861,-19.9714,0.00112517,0.00137361,5.13784e-05,0.00138381,0.00111496,1.3747,0.000847266,0.0130849,1644,498,10.086,19.9714
427,526,10.0784,-19.4761,0.00101774,0.00148337,0.000288667,0.00162141,0.000879701,1.12475,0.000937249,0.0133514,1651,498,10.0783,19.4761
434,526,10.0498,-18.9855,0.000930643,0.00158512,0.000555147,0.0019023,0.000613465,1.05172,0.00112113,0.0120962,1658,498,10.0498,18.9855
441,526,10.0461,-18.5038,0.000943236,0.00166829,0.000881069,0.0022585,0.000353026,0.980573,0.00140288,0.0114632,1665,498,10.0462,18.5039
448,526,10.0477,-18.0259,0.00105077,0.00171993,0.00126321,0.00269211,7.8585e-05,0.914859,0.00176913,0.0102259,1672,498,10.0477,18.0259
455,526,10.0282,-17.5659,0.00120317,0.00178756,0.00167197,0.00319268,-0.000201945,0.871905,0.00219886,0.0129672,1679,498,10.0282,17.5659
462,526,10.0259,-17.042,0.00151531,0.00171122,0.00212068,0.00373621,-0.000509679,0.808478,0.00267692,0.00996341,1686,498,10.0259,17.042
469,526,10.0205,-16.542,0.00193448,0.0014101,0.00264402,0.00432928,-0.0009847,0.735978,0.00326431,0.00734966,1693,498,10.0205,16.542
476,526,9.99182,-16.0345,0.00209812,0.00112364,0.00313798,0.00478646,-0.00156471,0.708377,0.00382087,0.00931408,1700,498,9.99178,16.0345
483,526,9.9812,-15.468,0.00234538,0.000672354,0.00358563,0.00519078,-0.00217305,0.6708,0.00436889,0.0122194,1707,498,9.98116,15.468
490,526,10.0507,-14.8796,0.00257517,-0.000108545,0.00409162,0.00553934,-0.00307272,0.626948,0.0050397,0.023378,1714,498,10.0507,14.8797
497,526,9.96069,-14.5283,0.00264257,-0.00130098,0.0044522,0.00554008,-0.00419849,0.576941,0.00564032,0.0287597,1721,498,9.96069,14.5282
504,526,10.01,-14.0015,0.00246848,-0.00265482,0.00467296,0.00523586,-0.0054222,0.534674,0.00615375,0.0325466,1728,498,10.01,14.0015
511,526,10.1781,-13.5433,0.00217224,-0.00439336,0.00490516,0.00479175,-0.00701288,0.490502,0.0068555,0.0445753,1735,498,10.1781,13.5433
518,526,10.3077,-13.1426,0.00147284,-0.00633554,0.00510027,0.00399169,-0.00885439,0.458728,0.00759174,0.0451869,1742,498,10.3078,13.1426
525,526,10.4471,-12.7652,0,0,0,0,0,0,0,-1,1749,498,10.4472,12.7652
532,526,8.87231,-12.3973,0,0,0,0,0,0,0,-1,1756,498,8.8723,12.3973
539,526,3.29407,0.932312,0,0,0,0,0,0,0,-1,1763,498,3.2941,-0.93232
546,526,3.36731,1.07721,0,0,0,0,0,0,0,-1,1770,498,3.36735,-1.07719
553,526,3.40796,1.37137,0,0,0,0,0,0,0,-1,1777,498,3.40792,-1.37138
560,526,0,0,0,0,0,0,0,0,0,-1,1784,498,0,0
567,526,0,0,0,0,0,0,0,0,0,-1,1791,498,0,0
574,526,0,0,0,0,0,0,0,0,0,-1,1798,498,0,0
581,526,0,0,0,0,0,0,0,0,0,-1,1805,498,0,0
588,526,0,0,0,0,0,0,0,0,0,-1,1812,498,0,0
595,526,0,0,0,0,0,0,0,0,0,-1,1819,498,0,0
602,526,0,0,0,0,0,0,0,0,0,-1,1826,498,0,0
609,526,0,0,0,0,0,0,0,0,0,-1,1833,498,0,0
616,526,0,0,0,0,0,0,0,0,0,-1,1840,498,0,0
623,526,0,0,0,0,0,0,0,0,0,-1,1847,498,0,0
630,526,0,0,0,0,0,0,0,0,0,-1,1854,498,0,0
637,526,0,0,0,0,0,0,0,0,0,-1,1861,498,0,0
644,526,0,0,0,0,0,0,0,0,0,-1,1868,498,0,0
651,526,0,0,0,0,0,0,0,0,0,-1,1875,498,0,0
658,526,0,0,0,0,0,0,0,0,0,-1,1882,498,0,0
665,526,0,0,0,0,0,0,0,0,0,-1,1889,498,0,0
672,526,0,0,0,0,0,0,0,0,0,-1,1896,498,0,0
679,526,0,0,0,0,0,0,0,0,0,-1,1903,498,0,0
686,526,0,0,0,0,0,0,0,0,0,-1,1910,498,0,0
693,526,0,0,0,0,0,0,0,0,0,-1,1917,498,0,0
700,526,0,0,0,0,0,0,0,0,0,-1,1924,498,0,0
707,526,0,0,0,0,0,0,0,0,0,-1,1931,498,0,0
714,526,0,0,0,0,0,0,0,0,0,-1,1938,498,0,0
721,526,0,0,0,0,0,0,0,0,0,-1,1945,498,0,0
728,526,0,0,0,0,0,0,0,0,0,-1,1952,498,0,0
735,526,0,0,0,0,0,0,0,0,0,-1,1959,498,0,0
742,526,0,0,0,0,0,0,0,0,0,-1,1966,498,0,0
749,526,0,0,0,0,0,0,0,0,0,-1,1973,498,0,0
756,526,0,0,0,0,0,0,0,0,0,-1,1980,498,0,0
763,526,0,0,0,0,0,0,0,0,0,-1,1987,498,0,0
770,526,0,0,0,0,0,0,0,0,0,-1,1994,498,0,0
777,526,0,0,0,0,0,0,0,0,0,-1,2001,498,0,0
784,526,0,0,0,0,0,0,0,0,0,-1,2008,498,0,0
791,526,0,0,0,0,0,0,0,0,0,-1,2015,498,0,0
798,526,0,0,0,0,0,0,0,0,0,-1,2022,498,0,0
805,526,0,0,0,0,0,0,0,0,0,-1,2029,498,0,0
812,526,0,0,0,0,0,0,0,0,0,-1,2036,498,0,0
-700,519,0,0,0,0,0,0,0,0,0,-1,524,505,0,0
-693,519,0,0,0,0,0,0,0,0,0,-1,531,505,0,0
-686,519,0,0,0,0,0,0,0,0,0,-1,538,505,0,0
-679,519,0,0,0,0,0,0,0,0,0,-1,545,505,0,0
-672,519,0,0,0,0,0,0,0,0,0,-1,552,505,0,0
-665,519,0,0,0,0,0,0,0,0,0,-1,559,505,0,0
-658,519,0,0,0,0,0,0,0,0,0,-1,566,505,0,0
-651,519,0,0,0,0,0,0,0,0,0,-1,573,505,0,0
-644,519,0,0,0,0,0,0,0,0,0,-1,580,505,0,0
-637,519,0,0,0,0,0,0,0,0,0,-1,587,505,0,0
-630,519,0,0,0,0,0,0,0,0,0,-1,594,505,0,0
-623,519,0,0,0,0,0,0,0,0,0,-1,601,505,0,0
-616,519,0,0,0,0,0,0,0,0,0,-1,608,505,0,0
-609,519,0,0,0,0,0,0,0,0,0,-1,615,505,0,0
-602,519,0,0,0,0,0,0,0,0,0,-1,622,505,0,0
-595,519,0,0,0,0,0,0,0,0,0,-1,629,505,0,0
-588,519,0,0,0,0,0,0,0,0,0,-1,636,505,0,0
-581,519,0,0,0,0,0,0,0,0,0,-1,643,505,0,0
-574,519,0,0,0,0,0,0,0,0,0,-1,650,505,0,0
-567,519,0,0,0,0,0,0,0,0,0,-1,657,505,0,0
-560,519,0,0,0,0,0,0,0,0,0,-1,664,505,0,0
-553,519,0,0,0,0,0,0,0,0,0,-1,671,505,0,0
-546,519,0,0,0,0,0,0,0,0,0,-1,678,505,0,0
-539,519,0,0,0,0,0,0,0,0,0,-1,685,505,0,0
-532,519,0,0,0,0,0,0,0,0,0,-1,692,505,0,0
-525,519,0,0,0,0,0,0,0,0,0,-1,699,505,0,0
-518,519,0,0,0,0,0,0,0,0,0,-1,706,505,0,0
-511,519,0,0,0,0,0,0,0,0,0,-1,713,505,0,0
-504,519,0,0,0,0,0,0,0,0,0,-1,720,505,0,0
-497,519,0,0,0,0,0,0,0,0,0,-1,727,505,0,0
-490,519,0,0,0,0,0,0,0,0,0,-1,734,505,0,0
-483,519,0,0,0,0,0,0,0,0,0,-1,741,505,0,0
-476,519,0,0,0,0,0,0,0,0,0,-1,748,505,0,0
-469,519,0,0,0,0,0,0,0,0,0,-1,755,505,0,0
-462,519,0,0,0,0,0,0,0,0,0,-1,762,505,0,0
-455,519,0,0,0,0,0,0,0,0,0,-1,769,505,0,0
-448,519,0,0,0,0,0,0,0,0,0,-1,776,505,0,0
-441,519,1.34839,-5.29346,0,0,0,0,0,0,0,-1,783,505,1.3484,5.29347
-434,519,0.949585,-5.77313,0,0,0,0,0,0,0,-1,790,505,0.949598,5.77315
-427,519,-0.0523682,-9.31567,0,0,0,0,0,0,0,-1,797,505,-0.0523854,9.31568
-420,519,-1.04669,-9.8855,0,0,0,0,0,0,0,-1,804,505,-1.04669,9.88547
-413,519,-2.14728,-12.5604,0,0,0,0,0,0,0,-1,811,505,-2.14725,12.5604
-406,519,-0.983887,-11.4449,0,0,0,0,0,0,0,-1,818,505,-0.983898,11.4449
-399,519,-0.731934,-12.9423,0,0,0,0,0,0,0,-1,825,505,-0.731951,12.9422
-392,519,-0.994751,-13.9607,0,0,0,0,0,0,0,-1,832,505,-0.994725,13.9607
-385,519,-1.07068,-14.448,-0.00381135,0.0122646,-0.00484589,0.0136123,-0.00515909,-1.29953,0.011198,0.0448857,839,505,-1.07068,14.448
-378,519,-1.21747,-15.0712,-0.00304808,0.0101795,-0.00431097,0.0114604,-0.00432901,-1.28197,0.00942087,0.0318779,846,505,-1.21744,15.0712
-371,519,-1.17462,-15.6982,-0.00237585,0.00837093,-0.00379146,0.0095739,-0.00357882,-1.26356,0.00785227,0.0183917,853,505,-1.1746,15.6983
-364,519,-1.18665,-16.2958,-0.00191382,0.00691344,-0.00321822,0.00796214,-0.00296252,-1.25578,0.00652381,0.0112474,860,505,-1.18662,16.2958
-357,519,-1.16119,-16.8265,-0.00153867,0.00561683,-0.00274001,0.00654551,-0.00246735,-1.24401,0.00537821,0.009945,867,505,-1.1612,16.8265
-350,519,-1.18719,-17.3169,-0.00119162,0.00448358,-0.0022559,0.00527104,-0.00197907,-1.23495,0.0043273,0.0122002,874,505,-1.18722,17.3169
-343,519,-1.24799,-17.7845,-0.000868269,0.00341977,-0.0018063,0.00407924,-0.00152774,-1.22074,0.00334705,0.0149829,881,505,-1.24798,17.7845
-336,519,-1.28125,-18.2744,-0.000546102,0.00247057,-0.00137789,0.00300519,-0.00108072,-1.20068,0.00244467,0.0153497,888,505,-1.28126,18.2743
-329,519,-1.25757,-18.7559,-0.000119196,0.00150947,-0.000999143,0.0019841,-0.000593825,-1.12732,0.00155885,0.01353,895,505,-1.25759,18.7559
-322,519,-1.2597,-19.2439,0.000279054,0.000772278,-0.000672766,0.00124221,-0.000190875,-0.961076,0.000898547,0.0105018,902,505,-1.25968,19.2439
-315,519,-1.27509,-19.7424,0.000648202,0.000179883,-0.000308903,0.000801666,2.64189e-05,-0.461086,0.000525859,0.00883502,909,505,-1.27507,19.7424
-308,519,-1.297,-20.2284,0.00105719,-0.000372411,4.20446e-05,0.00105842,-0.000373647,0.0293762,0.000857736,0.00756283,916,505,-1.29698,20.2284
-301,519,-1.32471,-20.6572,0.00143303,-0.00115251,0.000520132,0.00153374,-0.00125322,0.191261,0.00161177,0.0121918,923,505,-1.32471,20.6572
-294,519,-1.32739,-21.056,0.0017409,-0.00251301,0.00120198,0.00205704,-0.00282914,0.257188,0.00283275,0.0152429,930,505,-1.32738,21.056
-287,519,-1.35101,-21.5118,0.00210846,-0.00365389,0.00178686,0.00261757,-0.004163,0.277564,0.00394851,0.0111228,937,505,-1.35102,21.5118
-280,519,-1.35706,-21.9622,0.00230843,-0.00509441,0.0025703,0.00311334,-0.00589931,0.303482,0.00528568,0.0172128,944,505,-1.35706,21.9622
-273,519,-1.32874,-22.4233,0.00236079,-0.00681051,0.00355653,0.00357833,-0.00802805,0.329835,0.00686314,0.0309136,951,505,-1.32873,22.4234
-266,519,-1.3772,-22.8708,0.00247933,-0.00918631,0.00489207,0.00425928,-0.0109663,0.348953,0.0090703,0.0461457,958,505,-1.37721,22.8709
-259,519,-1.28473,-23.2503,0,0,0,0,0,0,0,-1,965,505,-1.28471,23.2503
-252,519,-1.53815,-23.1747,0,0,0,0,0,0,0,-1,972,505,-1.53817,23.1747
-245,519,-1.54333,-22.858,0,0,0,0,0,0,0,-1,979,505,-1.54335,22.858
-238,519,-1.41644,-22.7856,0,0,0,0,0,0,0,-1,986,505,-1.41642,22.7857
-231,519,0.337585,-11.2798,0,0,0,0,0,0,0,-1,993,505,0.337568,11.2798
-224,519,-0.0494995,-7.97394,0,0,0,0,0,0,0,-1,1000,505,-0.0495123,7.97392
-217,519,-0.283691,-23.8409,0,0,0,0,0,0,0,-1,1007,505,-0.283683,23.8409
-210,519,-2.14398,-4.74774,0,0,0,0,0,0,0,-1,1014,505,-2.14397,4.74775
-203,519,-0.513611,-5.39017,0,0,0,0,0,0,0,-1,1021,505,-0.513585,5.39017
-196,519,-0.374023,-5.41635,0,0,0,0,0,0,0,-1,1028,505,-0.374047,5.41635
-189,519,-0.234497,-5.44254,0,0,0,0,0,0,0,-1,1035,505,-0.234508,5.44253
-182,519,2.76697,-1.19659,0,0,0,0,0,0,0,-1,1042,505,2.76696,1.19661
-175,519,2.31323,-0.960938,0,0,0,0,0,0,0,-1,1049,505,2.31319,0.960941
-168,519,2.01074,-0.721405,0,0,0,0,0,0,0,-1,1056,505,2.01072,0.721407
-161,519,2.32056,-0.522339,0,0,0,0,0,0,0,-1,1063,505,2.32057,0.522328
-154,519,2.55566,0.116669,0,0,0,0,0,0,0,-1,1070,505,2.55563,-0.116661
-147,519,-0.55127,-6.14001,0,0,0,0,0,0,0,-1,1077,505,-0.551252,6.14001
-140,519,0.240601,-7.53503,0,0,0,0,0,0,0,-1,1084,505,0.240653,7.53501
-133,519,2.70911,-4.4516,0,0,0,0,0,0,0,-1,1091,505,2.70915,4.45161
-126,519,0,0,0,0,0,0,0,0,0,-1,1098,505,0,0
-119,519,0,0,0,0,0,0,0,0,0,-1,1105,505,0,0
-112,519,0,0,0,0,0,0,0,0,0,-1,1112,505,0,0
-105,519,0,0,0,0,0,0,0,0,0,-1,1119,505,0,0
-98,519,0,0,0,0,0,0,0,0,0,-1,1126,505,0,0
-91,519,0,0,0,0,0,0,0,0,0,-1,1133,505,0,0
-84,519,0,0,0,0,0,0,0,0,0,-1,1140,505,0,0
-77,519,0,0,0,0,0,0,0,0,0,-1,1147,505,0,0
-70,519,0,0,0,0,0,0,0,0,0,-1,1154,505,0,0
-63,519,0,0,0,0,0,0,0,0,0,-1,1161,505,0,0
-56,519,0,0,0,0,0,0,0,0,0,-1,1168,505,0,0
-49,519,0,0,0,0,0,0,0,0,0,-1,1175,505,0,0
-42,519,0,0,0,0,0,0,0,0,0,-1,1182,505,0,0
-35,519,0,0,0,0,0,0,0,0,0,-1,1189,505,0,0
-28,519,0,0,0,0,0,0,0,0,0,-1,1196,505,0,0
-21,519,0,0,0,0,0,0,0,0,0,-1,1203,505,0,0
-14,519,0,0,0,0,0,0,0,0,0,-1,1210,505,0,0
-7,519,0,0,0,0,0,0,0,0,0,-1,1217,505,0,0
0,519,0,0,0,0,0,0,0,0,0,-1,1224,505,0,0
7,519,0,0,0,0,0,0,0,0,0,-1,1231,505,0,0
14,519,0,0,0,0,0,0,0,0,0,-1,1238,505,0,0
21,519,0,0,0,0,0,0,0,0,0,-1,1245,505,0,0
28,519,0,0,0,0,0,0,0,0,0,-1,1252,505,0,0
35,519,0,0,0,0,0,0,0,0,0,-1,1259,505,0,0
42,519,0,0,0,0,0,0,0,0,0,-1,1266,505,0,0
49,519,0,0,0,0,0,0,0,0,0,-1,1273,505,0,0
56,519,0,0,0,0,0,0,0,0,0,-1,1280,505,0,0
63,519,0,0,0,0,0,0,0,0,0,-1,1287,505,0,0
70,519,0,0,0,0,0,0,0,0,0,-1,1294,505,0,0
77,519,0,0,0,0,0,0,0,0,0,-1,1301,505,0,0
84,519,0,0,0,0,0,0,0,0,0,-1,1308,505,0,0
91,519,0,0,0,0,0,0,0,0,0,-1,1315,505,0,0
98,519,0,0,0,0,0,0,0,0,0,-1,1322,505,0,0
105,519,0,0,0,0,0,0,0,0,0,-1,1329,505,0,0
112,519,0,0,0,0,0,0,0,0,0,-1,1336,505,0,0
119,519,0,0,0,0,0,0,0,0,0,-1,1343,505,0,0
126,519,0,0,0,0,0,0,0,0,0,-1,1350,505,0,0
133,519,0,0,0,0,0,0,0,0,0,-1,1357,505,0,0
140,519,0,0,0,0,0,0,0,0,0,-1,1364,505,0,0
147,519,0,0,0,0,0,0,0,0,0,-1,1371,505,0,0
154,519,0,0,0,0,0,0,0,0,0,-1,1378,505,0,0
161,519,0,0,0,0,0,0,0,0,0,-1,1385,505,0,0
168,519,0,0,0,0,0,0,0,0,0,-1,1392,505,0,0
175,519,0,0,0,0,0,0,0,0,0,-1,1399,505,0,0
182,519,0,0,0,0,0,0,0,0,0,-1,1406,505,0,0
189,519,0,0,0,0,0,0,0,0,0,-1,1413,505,0,0
196,519,0,0,0,0,0,0,0,0,0,-1,1420,505,0,0
203,519,0,0,0,0,0,0,0,0,0,-1,1427,505,0,0
210,519,0,0,0,0,0,0,0,0,0,-1,1434,505,0,0
217,519,0,0,0,0,0,0,0,0,0,-1,1441,505,0,0
224,519,0,0,0,0,0,0,0,0,0,-1,1448,505,0,0
231,519,0,0,0,0,0,0,0,0,0,-1,1455,505,0,0
238,519,0,0,0,0,0,0,0,0,0,-1,1462,505,0,0
245,519,0,0,0,0,0,0,0,0,0,-1,1469,505,0,0
252,519,5.26208,0.0938416,0,0,0,0,0,0,0,-1,1476,505,5.26207,-0.0938493
259,519,6.14246,-1.36441,0,0,0,0,0,0,0,-1,1483,505,6.14241,1.36441
266,519,5.31909,-0.400787,0,0,0,0,0,0,0,-1,1490,505,5.31912,0.400773
273,519,4.02393,0.325531,0,0,0,0,0,0,0,-1,1497,505,4.0239,-0.325522
280,519,4.68848,0.53006,0,0,0,0,0,0,0,-1,1504,505,4.68842,-0.530073
287,519,7.9519,-3.80801,0,0,0,0,0,0,0,-1,1511,505,7.95193,3.808
294,519,6.92273,-3.38889,0,0,0,0,0,0,0,-1,1518,505,6.92268,3.38888
301,519,5.35669,-2.92661,0,0,0,0,0,0,0,-1,1525,505,5.35675,2.9266
308,519,7.37549,-5.64529,0,0,0,0,0,0,0,-1,1532,505,7.3755,5.64529
315,519,6.30029,-4.53754,0,0,0,0,0,0,0,-1,1539,505,6.30024,4.53753
322,519,5.84302,-5.45117,0,0,0,0,0,0,0,-1,1546,505,5.84303,5.45116
329,519,4.92407,0.62384,0,0,0,0,0,0,0,-1,1553,505,4.92403,-0.623832
336,519,3.10095,-0.329285,0,0,0,0,0,0,0,-1,1560,505,3.1009,0.329283
343,519,2.49146,-2.31119,0,0,0,0,0,0,0,-1,1567,505,2.49145,2.31119
350,519,3.47729,-2.22516,0,0,0,0,0,0,0,-1,1574,505,3.47726,2.22515
357,519,9.01709,-24.3693,0,0,0,0,0,0,0,-1,1581,505,9.01713,24.3693
364,519,8.97009,-23.8635,0,0,0,0,0,0,0,-1,1588,505,8.9701,23.8635
371,519,8.9231,-23.3576,0,0,0,0,0,0,0,-1,1595,505,8.92307,23.3576
378,519,6.36597,-10.0967,0,0,0,0,0,0,0,-1,1602,505,6.36597,10.0967
385,519,6.24756,-9.72186,0,0,0,0,0,0,0,-1,1609,505,6.24752,9.72183
392,519,10.5437,-22.0969,0,0,0,0,0,0,0,-1,1616,505,10.5437,22.0969
399,519,10.5585,-21.3969,0,0,0,0,0,0,0,-1,1623,505,10.5584,21.3969
406,519,10.5389,-20.9019,0.000696586,0.000823567,-0.000933196,0.00169543,-0.000175276,-0.819364,0.00119301,0.0364948,1630,505,10.5389,20.9018
413,519,10.6134,-20.4491,0.00114634,0.00114155,-0.000475187,0.00161914,0.000668751,-0.782875,0.000939511,0.0161585,1637,505,10.6134,20.4491
420,519,10.5643,-19.9488,0.00135052,0.00120524,-0.000310864,0.00159712,0.000958643,-0.670621,0.000928252,0.0157175,1644,505,10.5643,19.9488
427,519,10.5635,-19.4837,0.0012393,0.00116581,-0.000138263,0.00134562,0.00105949,-0.655518,0.000818546,0.0137633,1651,505,10.5635,19.4837
434,519,10.5631,-19.0026,0.00112472,0.00118341,9.84861e-05,0.00125683,0.0010513,0.930176,0.000778475,0.0125028,1658,505,10.5632,19.0026
441,519,10.5287,-18.4902,0.00109108,0.00122061,0.00039345,0.00155459,0.0007571,0.866974,0.000897644,0.0127718,1665,505,10.5287,18.4902
448,519,10.5214,-18.0114,0.00116809,0.00122245,0.000741177,0.00193695,0.000453594,0.803728,0.00116979,0.00969,1672,505,10.5214,18.0113
455,519,10.5143,-17.5446,0.00124894,0.00127058,0.00108673,0.00234654,0.000172978,0.790375,0.00151001,0.0107172,1679,505,10.5143,17.5445
462,519,10.5134,-17.0224,0.00144129,0.00122394,0.00146139,0.00279804,-0.00013281,0.748285,0.00191117,0.0101232,1686,505,10.5134,17.0224
469,519,10.5126,-16.5233,0.00172198,0.00097841,0.00191091,0.00329694,-0.000596548,0.689319,0.00242143,0.0106417,1693,505,10.5125,16.5233
476,519,10.496,-15.9955,0.0017507,0.000748915,0.00232251,0.00362572,-0.0011261,0.679191,0.0028672,0.01318,1700,505,10.496,15.9955
483,519,10.4901,-15.4774,0.00180221,0.000388668,0.00265938,0.00384713,-0.00165625,0.655518,0.00326023,0.0137425,1707,505,10.4902,15.4774
490,519,10.4784,-14.9278,0.0017716,-0.000229679,0.00300943,0.00394238,-0.00240046,0.624897,0.00369794,0.012032,1714,505,10.4784,14.9278
497,519,10.437,-14.4711,0.00159597,-0.00109418,0.00327894,0.00379501,-0.00329321,0.590757,0.0040958,0.0164645,1721,505,10.437,14.4711
504,519,10.397,-13.9337,0.00117663,-0.00208982,0.00343234,0.00334451,-0.0042577,0.563334,0.00439968,0.0162884,1728,505,10.397,13.9337
511,519,10.4196,-13.3871,0.000523774,-0.00331239,0.00353749,0.00262973,-0.00541835,0.536975,0.00473862,0.0215825,1735,505,10.4196,13.3871
518,519,10.4976,-13.0891,-0.00059166,-0.00462848,0.00352693,0.00145357,-0.00667372,0.525502,0.00500453,0.0396793,1742,505,10.4975,13.0891
525,519,9.95129,-12.2761,0,0,0,0,0,0,0,-1,1749,505,9.95125,12.2761
532,519,3.5155,-2.86511,0,0,0,0,0,0,0,-1,1756,505,3.51554,2.8651
539,519,3.30005,0.0229797,0,0,0,0,0,0,0,-1,1763,505,3.30008,-0.0229869
546,519,4.62024,-2.89774,0,0,0,0,0,0,0,-1,1770,505,4.62023,2.89775
553,519,4.14136,0.0667419,0,0,0,0,0,0,0,-1,1777,505,4.14141,-0.0667503
560,519,3.77856,0.279724,0,0,0,0,0,0,0,-1,1784,505,3.77861,-0.279731
567,519,0,0,0,0,0,0,0,0,0,-1,1791,505,0,0
574,519,0,0,0,0,0,0,0,0,0,-1,1798,505,0,0
581,519,0,0,0,0,0,0,0,0,0,-1,1805,505,0,0
588,519,0,0,0,0,0,0,0,0,0,-1,1812,505,0,0
595,519,0,0,0,0,0,0,0,0,0,-1,1819,505,0,0
602,519,0,0,0,0,0,0,0,0,0,-1,1826,505,0,0
609,519,0,0,0,0,0,0,0,0,0,-1,1833,505,0,0
616,519,0,0,0,0,0,0,0,0,0,-1,1840,505,0,0
623,519,0,0,0,0,0,0,0,0,0,-1,1847,505,0,0
630,519,0,0,0,0,0,0,0,0,0,-1,1854,505,0,0
637,519,0,0,0,0,0,0,0,0,0,-1,1861,505,0,0
644,519,0,0,0,0,0,0,0,0,0,-1,1868,505,0,0
651,519,0,0,0,0,0,0,0,0,0,-1,1875,505,0,0
658,519,0,0,0,0,0,0,0,0,0,-1,1882,505,0,0
665,519,0,0,0,0,0,0,0,0,0,-1,1889,505,0,0
672,519,0,0,0,0,0,0,0,0,0,-1,1896,505,0,0
679,519,0,0,0,0,0,0,0,0,0,-1,1903,505,0,0
686,519,0,0,0,0,0,0,0,0,0,-1,1910,505,0,0
693,519,0,0,0,0,0,0,0,0,0,-1,1917,505,0,0
700,519,0,0,0,0,0,0,0,0,0,-1,1924,505,0,0
707,519,0,0,0,0,0,0,0,0,0,-1,1931,505,0,0
714,519,0,0,0,0,0,0,0,0,0,-1,1938,505,0,0
721,519,0,0,0,0,0,0,0,0,0,-1,1945,505,0,0
728,519,0,0,0,0,0,0,0,0,0,-1,1952,505,0,0
735,519,0,0,0,0,0,0,0,0,0,-1,1959,505,0,0
742,519,0,0,0,0,0,0,0,0,0,-1,1966,505,0,0
749,519,0,0,0,0,0,0,0,0,0,-1,1973,505,0,0
756,519,0,0,0,0,0,0,0,0,0,-1,1980,505,0,0
763,519,0,0,0,0,0,0,0,0,0,-1,1987,505,0,0
770,519,0,0,0,0,0,0,0,0,0,-1,1994,505,0,0
777,519,0,0,0,0,0,0,0,0,0,-1,2001,505,0,0
784,519,0,0,0,0,0,0,0,0,0,-1,2008,505,0,0
791,519,0,0,0,0,0,0,0,0,0,-1,2015,505,0,0
798,519,0,0,0,0,0,0,0,0,0,-1,2022,505,0,0
805,519,0,0,0,0,0,0,0,0,0,-1,2029,505,0,0
812,519,0,0,0,0,0,0,0,0,0,-1,2036,505,0,0
-700,512,0,0,0,0,0,0,0,0,0,-1,524,512,0,0
-693,512,0,0,0,0,0,0,0,0,0,-1,531,512,0,0
-686,512,0,0,0,0,0,0,0,0,0,-1,538,512,0,0
-679,512,0,0,0,0,0,0,0,0,0,-1,545,512,0,0
-672,512,0,0,0,0,0,0,0,0,0,-1,552,512,0,0
-665,512,0,0,0,0,0,0,0,0,0,-1,559,512,0,0
-658,512,0,0,0,0,0,0,0,0,0,-1,566,512,0,0
-651,512,0,0,0,0,0,0,0,0,0,-1,573,512,0,0
-644,512,0,0,0,0,0,0,0,0,0,-1,580,512,0,0
-637,512,0,0,0,0,0,0,0,0,0,-1,587,512,0,0
-630,512,0,0,0,0,0,0,0,0,0,-1,594,512,0,0
-623,512,0,0,0,0,0,0,0,0,0,-1,601,512,0,0
-616,512,0,0,0,0,0,0,0,0,0,-1,608,512,0,0
-609,512,0,0,0,0,0,0,0,0,0,-1,615,512,0,0
-602,512,0,0,0,0,0,0,0,0,0,-1,622,512,0,0
-595,512,0,0,0,0,0,0,0,0,0,-1,629,512,0,0
-588,512,0,0,0,0,0,0,0,0,0,-1,636,512,0,0
-581,512,0,0,0,0,0,0,0,0,0,-1,643,512,0,0
-574,512,0,0,0,0,0,0,0,0,0,-1,650,512,0,0
-567,512,0,0,0,0,0,0,0,0,0,-1,657,512,0,0
-560,512,0,0,0,0,0,0,0,0,0,-1,664,512,0,0
-553,512,0,0,0,0,0,0,0,0,0,-1,671,512,0,0
-546,512,0,0,0,0,0,0,0,0,0,-1,678,512,0,0
-539,512,0,0,0,0,0,0,0,0,0,-1,685,512,0,0
-532,512,0,0,0,0,0,0,0,0,0,-1,692,512,0,0
-525,512,0,0,0,0,0,0,0,0,0,-1,699,512,0,0
-518,512,0,0,0,0,0,0,0,0,0,-1,706,512,0,0
-511,512,0,0,0,0,0,0,0,0,0,-1,713,512,0,0
-504,512,0,0,0,0,0,0,0,0,0,-1,720,512,0,0
-497,512,0,0,0,0,0,0,0,0,0,-1,727,512,0,0
-490,512,0,0,0,0,0,0,0,0,0,-1,734,512,0,0
-483,512,0,0,0,0,0,0,0,0,0,-1,741,512,0,0
-476,512,0,0,0,0,0,0,0,0,0,-1,748,512,0,0
-469,512,0,0,0,0,0,0,0,0,0,-1,755,512,0,0
-462,512,0,0,0,0,0,0,0,0,0,-1,762,512,0,0
-455,512,0,0,0,0,0,0,0,0,0,-1,769,512,0,0
-448,512,1.96283,-4.15674,0,0,0,0,0,0,0,-1,776,512,1.96285,4.15677
-441,512,1.78198,-4.88824,0,0,0,0,0,0,0,-1,783,512,1.78201,4.88826
-434,512,0.0726929,-9.85822,0,0,0,0,0,0,0,-1,790,512,0.0727008,9.85819
-427,512,-0.384583,-9.94824,0,0,0,0,0,0,0,-1,797,512,-0.384552,9.94823
-420,512,-2.54126,-12.1921,0,0,0,0,0,0,0,-1,804,512,-2.54126,12.1921
-413,512,-2.42139,-11.0782,0,0,0,0,0,0,0,-1,811,512,-2.42136,11.0782
-406,512,-1.51416,-12.5161,0,0,0,0,0,0,0,-1,818,512,-1.51413,12.5161
-399,512,-1.5799,-13.5494,0,0,0,0,0,0,0,-1,825,512,-1.57988,13.5494
-392,512,-1.53448,-14.1417,-0.00368508,0.012164,-0.00475038,0.0134788,-0.00499982,-1.30079,0.0110366,0.0379658,832,512,-1.53448,14.1417
-385,512,-1.58759,-14.7239,-0.00292779,0.00998768,-0.00416241,0.0112129,-0.00415302,-1.28453,0.00917834,0.0187406,839,512,-1.5876,14.7239
-378,512,-1.63269,-15.2405,-0.00221715,0.00821507,-0.00368901,0.00938775,-0.00338983,-1.26301,0.00764326,0.0151757,846,512,-1.63269,15.2405
-371,512,-1.64221,-15.7884,-0.00162193,0.00659367,-0.00319579,0.0076904,-0.00271865,-1.24021,0.00623399,0.0126538,853,512,-1.64218,15.7884
-364,512,-1.65247,-16.3461,-0.00112963,0.00518561,-0.00265445,0.00615312,-0.00209713,-1.22128,0.00495144,0.0101277,860,512,-1.65247,16.3462
-357,512,-1.65308,-16.834,-0.000699108,0.00403115,-0.00217767,0.004881,-0.00154896,-1.19872,0.00387493,0.0103543,867,512,-1.65308,16.8341
-350,512,-1.67548,-17.3271,-0.000302382,0.00302725,-0.00173861,0.00376959,-0.00104472,-1.16726,0.00292418,0.0102729,874,512,-1.67546,17.3271
-343,512,-1.73065,-17.8091,4.33594e-05,0.00205656,-0.00132051,0.00271038,-0.000610462,-1.11106,0.00204107,0.0114941,881,512,-1.73064,17.8092
-336,512,-1.75787,-18.294,0.000377944,0.00117714,-0.000920638,0.00178116,-0.000226078,-0.990152,0.00126953,0.0132249,888,512,-1.75785,18.294
-329,512,-1.737,-18.7623,0.000804278,0.000332532,-0.000596078,0.00120945,-7.26455e-05,-0.596998,0.000831577,0.0147145,895,512,-1.73699,18.7624
-322,512,-1.74475,-19.2482,0.00116277,-0.00031872,-0.000300271,0.00122132,-0.000377266,-0.19256,0.000964874,0.0120806,902,512,-1.74474,19.2482
-315,512,-1.75439,-19.7404,0.0014799,-0.000823051,3.63923e-06,0.0014799,-0.000823057,0.00158025,0.00134752,0.0105373,909,512,-1.75442,19.7404
-308,512,-1.77466,-20.2018,0.00185795,-0.0013586,0.000297586,0.00188525,-0.0013859,0.0914826,0.00189592,0.0106943,916,512,-1.77465,20.2018
-301,512,-1.78864,-20.6322,0.00215659,-0.00207834,0.000752368,0.00228628,-0.00220803,0.170701,0.00259492,0.0154624,923,512,-1.78862,20.6322
-294,512,-1.78546,-21.04,0.00229106,-0.00344564,0.00144598,0.00263492,-0.0037895,0.233468,0.00372905,0.0149436,930,512,-1.78548,21.04
-287,512,-1.86682,-21.4213,0.00251657,-0.00462128,0.00201797,0.00304757,-0.00515228,0.257305,0.00478589,0.0229992,937,512,-1.86684,21.4213
-280,512,-1.75189,-21.9232,0.00259111,-0.00630103,0.00290406,0.00345551,-0.00716542,0.289302,0.00625545,0.040073,944,512,-1.75187,21.9231
-273,512,-1.64069,-22.4662,0,0,0,0,0,0,0,-1,951,512,-1.64072,22.4662
-266,512,-1.79431,-22.9714,0,0,0,0,0,0,0,-1,958,512,-1.79429,22.9714
-259,512,-0.525452,-14.0815,0,0,0,0,0,0,0,-1,965,512,-0.525475,14.0815
-252,512,1.45941,-3.43475,0,0,0,0,0,0,0,-1,972,512,1.45938,3.43475
-245,512,-2.13623,-22.42,0,0,0,0,0,0,0,-1,979,512,-2.13625,22.42
-238,512,0.227051,-8.92969,0,0,0,0,0,0,0,-1,986,512,0.227073,8.92968
-231,512,-2.54437,-10.169,0,0,0,0,0,0,0,-1,993,512,-2.54439,10.169
-224,512,-4.84601,-7.52783,0,0,0,0,0,0,0,-1,1000,512,-4.84602,7.52786
-217,512,-7.37274,-3.89563,0,0,0,0,0,0,0,-1,1007,512,-7.37274,3.89561
-210,512,-3.76642,-1.94702,0,0,0,0,0,0,0,-1,1014,512,-3.76641,1.94702
-203,512,-2.48328,-5.19061,0,0,0,0,0,0,0,-1,1021,512,-2.48328,5.19059
-196,512,-1.14929,-4.63202,0,0,0,0,0,0,0,-1,1028,512,-1.14934,4.632
-189,512,0.197998,4.55505,0,0,0,0,0,0,0,-1,1035,512,0.197996,-4.55506
-182,512,2.73938,0.0778503,0,0,0,0,0,0,0,-1,1042,512,2.73944,-0.077852
-175,512,2.29565,0.209808,0,0,0,0,0,0,0,-1,1049,512,2.29565,-0.209813
-168,512,2.09399,-0.302856,0,0,0,0,0,0,0,-1,1056,512,2.09403,0.302826
-161,512,2.76636,0.0921021,0,0,0,0,0,0,0,-1,1063,512,2.76633,-0.0921104
-154,512,3.41382,0.466187,0,0,0,0,0,0,0,-1,1070,512,3.41382,-0.466178
-147,512,0,0,0,0,0,0,0,0,0,-1,1077,512,0,0
-140,512,0,0,0,0,0,0,0,0,0,-1,1084,512,0,0
-133,512,0,0,0,0,0,0,0,0,0,-1,1091,512,0,0
-126,512,0,0,0,0,0,0,0,0,0,-1,1098,512,0,0
-119,512,0,0,0,0,0,0,0,0,0,-1,1105,512,0,0
-112,512,0,0,0,0,0,0,0,0,0,-1,1112,512,0,0
-105,512,0,0,0,0,0,0,0,0,0,-1,1119,512,0,0
-98,512,0,0,0,0,0,0,0,0,0,-1,1126,512,0,0
-91,512,0,0,0,0,0,0,0,0,0,-1,1133,512,0,0
-84,512,0,0,0,0,0,0,0,0,0,-1,1140,512,0,0
-77,512,0,0,0,0,0,0,0,0,0,-1,1147,512,0,0
-70,512,0,0,0,0,0,0,0,0,0,-1,1154,512,0,0
-63,512,0,0,0,0,0,0,0,0,0,-1,1161,512,0,0
-56,512,0,0,0,0,0,0,0,0,0,-1,1168,512,0,0
-49,512,0,0,0,0,0,0,0,0,0,-1,1175,512,0,0
-42,512,0,0,0,0,0,0,0,0,0,-1,1182,512,0,0
-35,512,0,0,0,0,0,0,0,0,0,-1,1189,512,0,0
-28,512,0,0,0,0,0,0,0,0,0,-1,1196,512,0,0
-21,512,0,0,0,0,0,0,0,0,0,-1,1203,512,0,0
-14,512,0,0,0,0,0,0,0,0,0,-1,1210,512,0,0
-7,512,0,0,0,0,0,0,0,0,0,-1,1217,512,0,0
0,512,0,0,0,0,0,0,0,0,0,-1,1224,512,0,0
7,512,0,0,0,0,0,0,0,0,0,-1,1231,512,0,0
14,512,0,0,0,0,0,0,0,0,0,-1,1238,512,0,0
21,512,0,0,0,0,0,0,0,0,0,-1,1245,512,0,0
28,512,0,0,0,0,0,0,0,0,0,-1,1252,512,0,0
35,512,0,0,0,0,0,0,0,0,0,-1,1259,512,0,0
42,512,0,0,0,0,0,0,0,0,0,-1,1266,512,0,0
49,512,0,0,0,0,0,0,0,0,0,-1,1273,512,0,0
56,512,0,0,0,0,0,0,0,0,0,-1,1280,512,0,0
63,512,0,0,0,0,0,0,0,0,0,-1,1287,512,0,0
70,512,0,0,0,0,0,0,0,0,0,-1,1294,512,0,0
77,512,0,0,0,0,0,0,0,0,0,-1,1301,512,0,0
84,512,0,0,0,0,0,0,0,0,0,-1,1308,512,0,0
91,512,0,0,0,0,0,0,0,0,0,-1,1315,512,0,0
98,512,0,0,0,0,0,0,0,0,0,-1,1322,512,0,0
105,512,0,0,0,0,0,0,0,0,0,-1,1329,512,0,0
112,512,0,0,0,0,0,0,0,0,0,-1,1336,512,0,0
119,512,0,0,0,0,0,0,0,0,0,-1,1343,512,0,0
126,512,0,0,0,0,0,0,0,0,0,-1,1350,512,0,0
133,512,0,0,0,0,0,0,0,0,0,-1,1357,512,0,0
140,512,0,0,0,0,0,0,0,0,0,-1,1364,512,0,0
147,512,0,0,0,0,0,0,0,0,0,-1,1371,512,0,0
154,512,0,0,0,0,0,0,0,0,0,-1,1378,512,0,0
161,512,0,0,0,0,0,0,0,0,0,-1,1385,512,0,0
168,512,0,0,0,0,0,0,0,0,0,-1,1392,512,0,0
175,512,0,0,0,0,0,0,0,0,0,-1,1399,512,0,0
182,512,0,0,0,0,0,0,0,0,0,-1,1406,512,0,0
189,512,0,0,0,0,0,0,0,0,0,-1,1413,512,0,0
196,512,0,0,0,0,0,0,0,0,0,-1,1420,512,0,0
203,512,0,0,0,0,0,0,0,0,0,-1,1427,512,0,0
210,512,0,0,0,0,0,0,0,0,0,-1,1434,512,0,0
217,512,0,0,0,0,0,0,0,0,0,-1,1441,512,0,0
224,512,0,0,0,0,0,0,0,0,0,-1,1448,512,0,0
231,512,0,0,0,0,0,0,0,0,0,-1,1455,512,0,0
238,512,0,0,0,0,0,0,0,0,0,-1,1462,512,0,0
245,512,0,0,0,0,0,0,0,0,0,-1,1469,512,0,0
252,512,0,0,0,0,0,0,0,0,0,-1,1476,512,0,0
259,512,0,0,0,0,0,0,0,0,0,-1,1483,512,0,0
266,512,0,0,0,0,0,0,0,0,0,-1,1490,512,0,0
273,512,4.00745,0.618622,0,0,0,0,0,0,0,-1,1497,512,4.00747,-0.618611
280,512,4.49609,0.649841,0,0,0,0,0,0,0,-1,1504,512,4.49612,-0.649834
287,512,4.77234,0.458069,0,0,0,0,0,0,0,-1,1511,512,4.77233,-0.458083
294,512,8.54956,-2.36273,0,0,0,0,0,0,0,-1,1518,512,8.54952,2.36274
301,512,6.302,-1.69092,0,0,0,0,0,0,0,-1,1525,512,6.30196,1.69093
308,512,8.2439,-6.22754,0,0,0,0,0,0,0,-1,1532,512,8.24394,6.22757
315,512,7.53687,-6.04211,0,0,0,0,0,0,0,-1,1539,512,7.53691,6.04211
322,512,6.82983,-5.85663,0,0,0,0,0,0,0,-1,1546,512,6.82988,5.85666
329,512,4.38147,-0.329651,0,0,0,0,0,0,0,-1,1553,512,4.38144,0.329662
336,512,4.41467,-0.741455,0,0,0,0,0,0,0,-1,1560,512,4.41467,0.741442
343,512,4.44727,-1.21667,0,0,0,0,0,0,0,-1,1567,512,4.44732,1.21666
350,512,4.55469,-1.65082,0,0,0,0,0,0,0,-1,1574,512,4.5547,1.65083
357,512,5.79993,-2.67456,0,0,0,0,0,0,0,-1,1581,512,5.79991,2.67454
364,512,8.56641,-24.3753,0,0,0,0,0,0,0,-1,1588,512,8.56646,24.3753
371,512,5.28467,-7.69269,0,0,0,0,0,0,0,-1,1595,512,5.28464,7.69269
378,512,6.29407,-9.88055,0,0,0,0,0,0,0,-1,1602,512,6.29412,9.88057
385,512,6.45569,-9.32233,0,0,0,0,0,0,0,-1,1609,512,6.45565,9.3223
392,512,6.35522,-8.98425,0,0,0,0,0,0,0,-1,1616,512,6.35526,8.98422
399,512,7.5304,-12.1449,0,0,0,0,0,0,0,-1,1623,512,7.53042,12.1449
406,512,11.0436,-20.9891,0,0,0,0,0,0,0,-1,1630,512,11.0435,20.9891
413,512,11.0687,-20.6088,0,0,0,0,0,0,0,-1,1637,512,11.0687,20.6088
420,512,11.0845,-19.9933,0.00193197,0.000936858,-0.000605447,0.00221808,0.000650751,-0.441452,0.00131655,0.0264494,1644,512,11.0844,19.9933
427,512,11.068,-19.4863,0.00169026,0.000773998,-0.000530205,0.00193285,0.000531415,-0.429096,0.001153,0.0152258,1651,512,11.068,19.4863
434,512,11.0684,-19.0087,0.00143403,0.000736105,-0.000351078,0.00158007,0.000590061,-0.394211,0.000921945,0.0111451,1658,512,11.0683,19.0087
441,512,11.0389,-18.5074,0.00126206,0.000758492,-0.000107088,0.00128389,0.000736665,-0.201069,0.000743938,0.0137354,1665,512,11.039,18.5074
448,512,11.014,-18.0387,0.00124517,0.000752028,0.000201191,0.00131684,0.000680362,0.342196,0.000760417,0.00989474,1672,512,11.014,18.0387
455,512,10.9972,-17.5311,0.00122123,0.000814725,0.000488411,0.00154699,0.000488962,0.588224,0.000913077,0.00900389,1679,512,10.9972,17.5311
462,512,10.9977,-17.0099,0.00128743,0.000829119,0.000804985,0.00189524,0.000221309,0.64673,0.00119657,0.00986484,1686,512,10.9977,17.0099
469,512,10.9832,-16.5096,0.00145347,0.000678822,0.00120503,0.00233189,-0.000199598,0.629901,0.00162522,0.0118651,1693,512,10.9831,16.5097
476,512,10.9624,-15.9901,0.00141761,0.000528627,0.00157257,0.0026073,-0.000661058,0.647664,0.00199539,0.0142636,1700,512,10.9625,15.9901
483,512,10.9625,-15.4462,0.00136847,0.000268773,0.00185518,0.00275357,-0.00111633,0.64133,0.00229998,0.0124705,1707,512,10.9625,15.4462
490,512,10.9532,-14.9373,0.001202,-0.000180869,0.00212371,0.002744,-0.00172287,0.628021,0.00260131,0.0102204,1714,512,10.9532,14.9373
497,512,10.9337,-14.4244,0.000915898,-0.000755841,0.00235935,0.00258307,-0.00242302,0.615157,0.00289076,0.011102,1721,512,10.9337,14.4244
504,512,10.9076,-13.874,0.000412865,-0.0014721,0.00250726,0.00214893,-0.00320816,0.605618,0.00311301,0.0120491,1728,512,10.9075,13.874
511,512,10.8618,-13.325,-0.00039957,-0.00230937,0.00256252,0.00138018,-0.00408912,0.607048,0.00328428,0.0140193,1735,512,10.8618,13.3249
518,512,10.8937,-12.819,-0.00167139,-0.00318942,0.00246191,0.00014585,-0.00500666,0.63587,0.00338744,0.0183904,1742,512,10.8937,12.819
525,512,10.6378,-12.2165,-0.00353677,-0.00410196,0.00211227,-0.00168827,-0.00595046,0.718899,0.00354101,0.0436406,1749,512,10.6378,12.2165
532,512,10.5354,-11.4152,0,0,0,0,0,0,0,-1,1756,512,10.5354,11.4152
539,512,7.05908,-7.00647,0,0,0,0,0,0,0,-1,1763,512,7.05909,7.00647
546,512,2.77551,-0.66449,0,0,0,0,0,0,0,-1,1770,512,2.77548,0.664503
553,512,3.927,-0.448853,0,0,0,0,0,0,0,-1,1777,512,3.92704,0.448843
560,512,3.55762,-0.201233,0,0,0,0,0,0,0,-1,1784,512,3.55768,0.201259
567,512,3.09045,0.191193,0,0,0,0,0,0,0,-1,1791,512,3.09045,-0.191203
574,512,0,0,0,0,0,0,0,0,0,-1,1798,512,0,0
581,512,0,0,0,0,0,0,0,0,0,-1,1805,512,0,0
588,512,0,0,0,0,0,0,0,0,0,-1,1812,512,0,0
595,512,0,0,0,0,0,0,0,0,0,-1,1819,512,0,0
602,512,0,0,0,0,0,0,0,0,0,-1,1826,512,0,0
609,512,0,0,0,0,0,0,0,0,0,-1,1833,512,0,0
616,512,0,0,0,0,0,0,0,0,0,-1,1840,512,0,0
623,512,0,0,0,0,0,0,0,0,0,-1,1847,512,0,0
630,512,0,0,0,0,0,0,0,0,0,-1,1854,512,0,0
637,512,0,0,0,0,0,0,0,0,0,-1,1861,512,0,0
644,512,0,0,0,0,0,0,0,0,0,-1,1868,512,0,0
651,512,0,0,0,0,0,0,0,0,0,-1,1875,512,0,0
658,512,0,0,0,0,0,0,0,0,0,-1,1882,512,0,0
665,512,0,0,0,0,0,0,0,0,0,-1,1889,512,0,0
672,512,0,0,0,0,0,0,0,0,0,-1,1896,512,0,0
679,512,0,0,0,0,0,0,0,0,0,-1,1903,512,0,0
686,512,0,0,0,0,0,0,0,0,0,-1,1910,512,0,0
693,512,0,0,0,0,0,0,0,0,0,-1,1917,512,0,0
700,512,0,0,0,0,0,0,0,0,0,-1,1924,512,0,0
707,512,0,0,0,0,0,0,0,0,0,-1,1931,512,0,0
714,512,0,0,0,0,0,0,0,0,0,-1,1938,512,0,0
721,512,0,0,0,0,0,0,0,0,0,-1,1945,512,0,0
728,512,0,0,0,0,0,0,0,0,0,-1,1952,512,0,0
735,512,0,0,0,0,0,0,0,0,0,-1,1959,512,0,0
742,512,0,0,0,0,0,0,0,0,0,-1,1966,512,0,0
749,512,0,0,0,0,0,0,0,0,0,-1,1973,512,0,0
756,512,0,0,0,0,0,0,0,0,0,-1,1980,512,0,0
763,512,0,0,0,0,0,0,0,0,0,-1,1987,512,0,0
770,512,0,0,0,0,0,0,0,0,0,-1,1994,512,0,0
777,512,0,0,0,0,0,0,0,0,0,-1,2001,512,0,0
784,512,0,0,0,0,0,0,0,0,0,-1,2008,512,0,0
791,512,0,0,0,0,0,0,0,0,0,-1,2015,512,0,0
798,512,0,0,0,0,0,0,0,0,0,-1,2022,512,0,0
805,512,0,0,0,0,0,0,0,0,0,-1,2029,512,0,0
812,512,0,0,0,0,0,0,0,0,0,-1,2036,512,0,0
-700,505,0,0,0,0,0,0,0,0,0,-1,524,519,0,0
-693,505,0,0,0,0,0,0,0,0,0,-1,531,519,0,0
-686,505,0,0,0,0,0,0,0,0,0,-1,538,519,0,0
-679,505,0,0,0,0,0,0,0,0,0,-1,545,519,0,0
-672,505,0,0,0,0,0,0,0,0,0,-1,552,519,0,0
-665,505,0,0,0,0,0,0,0,0,0,-1,559,519,0,0
-658,505,0,0,0,0,0,0,0,0,0,-1,566,519,0,0
-651,505,0,0,0,0,0,0,0,0,0,-1,573,519,0,0
-644,505,0,0,0,0,0,0,0,0,0,-1,580,519,0,0
-637,505,0,0,0,0,0,0,0,0,0,-1,587,519,0,0
-630,505,0,0,0,0,0,0,0,0,0,-1,594,519,0,0
-623,505,0,0,0,0,0,0,0,0,0,-1,601,519,0,0
-616,505,0,0,0,0,0,0,0,0,0,-1,608,519,0,0
-609,505,0,0,0,0,0,0,0,0,0,-1,615,519,0,0
-602,505,0,0,0,0,0,0,0,0,0,-1,622,519,0,0
-595,505,0,0,0,0,0,0,0,0,0,-1,629,519,0,0
-588,505,0,0,0,0,0,0,0,0,0,-1,636,519,0,0
-581,505,0,0,0,0,0,0,0,0,0,-1,643,519,0,0
-574,505,0,0,0,0,0,0,0,0,0,-1,650,519,0,0
-567,505,0,0,0,0,0,0,0,0,0,-1,657,519,0,0
-560,505,0,0,0,0,0,0,0,0,0,-1,664,519,0,0
-553,505,0,0,0,0,0,0,0,0,0,-1,671,519,0,0
-546,505,0,0,0,0,0,0,0,0,0,-1,678,519,0,0
-539,505,0,0,0,0,0,0,0,0,0,-1,685,519,0,0
-532,505,0,0,0,0,0,0,0,0,0,-1,692,519,0,0
-525,505,0,0,0,0,0,0,0,0,0,-1,699,519,0,0
-518,505,0,0,0,0,0,0,0,0,0,-1,706,519,0,0
-511,505,0,0,0,0,0,0,0,0,0,-1,713,519,0,0
-504,505,0,0,0,0,0,0,0,0,0,-1,720,519,0,0
-497,505,0,0,0,0,0,0,0,0,0,-1,727,519,0,0
-490,505,0,0,0,0,0,0,0,0,0,-1,734,519,0,0
-483,505,0,0,0,0,0,0,0,0,0,-1,741,519,0,0
-476,505,0,0,0,0,0,0,0,0,0,-1,748,519,0,0
-469,505,0,0,0,0,0,0,0,0,0,-1,755,519,0,0
-462,505,0,0,0,0,0,0,0,0,0,-1,762,519,0,0
-455,505,2.72137,-3.26379,0,0,0,0,0,0,0,-1,769,519,2.72135,3.26377
-448,505,2.51111,-3.94989,0,0,0,0,0,0,0,-1,776,519,2.51112,3.94986
-441,505,2.80212,-6.8902,0,0,0,0,0,0,0,-1,783,519,2.80209,6.89019
-434,505,-0.155212,-10.6374,0,0,0,0,0,0,0,-1,790,519,-0.155194,10.6374
-427,505,-0.474426,-10.4702,0,0,0,0,0,0,0,-1,797,519,-0.474433,10.4702
-420,505,-0.922546,-10.1928,0,0,0,0,0,0,0,-1,804,519,-0.92257,10.1928
-413,505,-2.85608,-12.5858,0,0,0,0,0,0,0,-1,811,519,-2.8561,12.5858
-406,505,-2.13086,-12.2787,0,0,0,0,0,0,0,-1,818,519,-2.13085,12.2787
-399,505,-2.09424,-13.4973,0,0,0,0,0,0,0,-1,825,519,-2.09426,13.4973
-392,505,-2.05945,-14.1484,-0.00282872,0.0098854,-0.00403982,0.0110604,-0.00400375,-1.28774,0.00900978,0.0222975,832,519,-2.05944,14.1484
-385,505,-2.08459,-14.7543,-0.00212982,0.0080017,-0.00352076,0.00910502,-0.00323315,-1.26711,0.00738746,0.00965131,839,519,-2.0846,14.7543
-378,505,-2.12897,-15.2856,-0.00143635,0.00647338,-0.00310163,0.00754455,-0.00250752,-1.23826,0.00604156,0.011526,846,519,-2.12896,15.2856
-371,505,-2.1402,-15.8297,-0.000900279,0.00500461,-0.00264194,0.00601408,-0.00190975,-1.20582,0.00477501,0.0142602,853,519,-2.14023,15.8296
-364,505,-2.15558,-16.3576,-0.000469026,0.00367075,-0.00214201,0.00457956,-0.00137784,-1.16954,0.00360128,0.0151317,860,519,-2.15555,16.3576
-357,505,-2.13477,-16.8528,-4.62885e-05,0.00261605,-0.00169175,0.00343757,-0.0008678,-1.11874,0.00262916,0.0117294,867,519,-2.13479,16.8528
-350,505,-2.15979,-17.3187,0.00036745,0.00171796,-0.00130323,0.00251049,-0.00042508,-1.02442,0.00183187,0.0109166,874,519,-2.1598,17.3187
-343,505,-2.19202,-17.7997,0.000716833,0.000829484,-0.000922334,0.00169721,-0.000150894,-0.815894,0.00118498,0.00900235,881,519,-2.19203,17.7997
-336,505,-2.22394,-18.2703,0.0010659,1.2577e-05,-0.00055319,0.00130304,-0.000224562,-0.40498,0.000952414,0.0111805,888,519,-2.22395,18.2702
-329,505,-2.21942,-18.7408,0.00151662,-0.000708899,-0.000275174,0.00155014,-0.000742418,-0.121213,0.00135072,0.0161415,895,519,-2.21944,18.7408
-322,505,-2.21161,-19.2423,0.00189498,-0.00126632,4.86003e-06,0.00189498,-0.00126633,0.00153735,0.00183717,0.0190247,902,519,-2.21159,19.2423
-315,505,-2.21423,-19.7183,0.00225594,-0.00167268,0.000265038,0.00227374,-0.00169048,0.0670585,0.00229698,0.0147008,909,519,-2.21425,19.7183
-308,505,-2.24677,-20.1568,0.00273381,-0.00218616,0.000522315,0.00278865,-0.002241,0.104609,0.0029096,0.0124196,916,519,-2.24674,20.1568
-301,505,-2.2428,-20.6272,0.00310551,-0.00281052,0.000985494,0.00326535,-0.00297036,0.160798,0.00360154,0.0178098,923,519,-2.2428,20.6272
-294,505,-2.24158,-21.0233,0,0,0,0,0,0,0,-1,930,519,-2.24159,21.0232
-287,505,-2.3125,-21.5123,0,0,0,0,0,0,0,-1,937,519,-2.31252,21.5123
-280,505,-2.14478,-22.1422,0,0,0,0,0,0,0,-1,944,519,-2.14478,22.1422
-273,505,-0.0680542,-9.44867,0,0,0,0,0,0,0,-1,951,519,-0.0680462,9.44866
-266,505,-0.036377,-9.07922,0,0,0,0,0,0,0,-1,958,519,-0.0364055,9.0792
-259,505,0.10321,-6.69824,0,0,0,0,0,0,0,-1,965,519,0.103235,6.69826
-252,505,6.82312,-15.6972,0,0,0,0,0,0,0,-1,972,519,6.82314,15.6972
-245,505,4.26727,-12.9861,0,0,0,0,0,0,0,-1,979,519,4.2673,12.9861
-238,505,1.67432,-11.2307,0,0,0,0,0,0,0,-1,986,519,1.67429,11.2307
-231,505,-0.958435,-8.3075,0,0,0,0,0,0,0,-1,993,519,-0.958421,8.30751
-224,505,-3.69653,-5.12732,0,0,0,0,0,0,0,-1,1000,519,-3.69653,5.12733
-217,505,-6.34302,-1.65533,0,0,0,0,0,0,0,-1,1007,519,-6.34299,1.65535
-210,505,-3.06128,-0.396301,0,0,0,0,0,0,0,-1,1014,519,-3.06129,0.396294
-203,505,-4.26465,2.03607,0,0,0,0,0,0,0,-1,1021,519,-4.26462,-2.03606
-196,505,-5.47595,4.27295,0,0,0,0,0,0,0,-1,1028,519,-5.47597,-4.27292
-189,505,1.51526,5.56207,0,0,0,0,0,0,0,-1,1035,519,1.51523,-5.56209
-182,505,2.97815,7.5097,0,0,0,0,0,0,0,-1,1042,519,2.97812,-7.5097
-175,505,-2.38416,-2.17548,0,0,0,0,0,0,0,-1,1049,519,-2.38411,2.1755
-168,505,0,0,0,0,0,0,0,0,0,-1,1056,519,0,0
-161,505,0,0,0,0,0,0,0,0,0,-1,1063,519,0,0
-154,505,0,0,0,0,0,0,0,0,0,-1,1070,519,0,0
-147,505,0,0,0,0,0,0,0,0,0,-1,1077,519,0,0
-140,505,0,0,0,0,0,0,0,0,0,-1,1084,519,0,0
-133,505,0,0,0,0,0,0,0,0,0,-1,1091,519,0,0
-126,505,0,0,0,0,0,0,0,0,0,-1,1098,519,0,0
-119,505,0,0,0,0,0,0,0,0,0,-1,1105,519,0,0
-112,505,0,0,0,0,0,0,0,0,0,-1,1112,519,0,0
-105,505,0,0,0,0,0,0,0,0,0,-1,1119,519,0,0
-98,505,0,0,0,0,0,0,0,0,0,-1,1126,519,0,0
-91,505,0,0,0,0,0,0,0,0,0,-1,1133,519,0,0
-84,505,0,0,0,0,0,0,0,0,0,-1,1140,519,0,0
-77,505,0,0,0,0,0,0,0,0,0,-1,1147,519,0,0
-70,505,0,0,0,0,0,0,0,0,0,-1,1154,519,0,0
-63,505,0,0,0,0,0,0,0,0,0,-1,1161,519,0,0
-56,505,0,0,0,0,0,0,0,0,0,-1,1168,519,0,0
-49,505,0,0,0,0,0,0,0,0,0,-1,1175,519,0,0
-42,505,0,0,0,0,0,0,0,0,0,-1,1182,519,0,0
-35,505,0,0,0,0,0,0,0,0,0,-1,1189,519,0,0
-28,505,0,0,0,0,0,0,0,0,0,-1,1196,519,0,0
-21,505,0,0,0,0,0,0,0,0,0,-1,1203,519,0,0
-14,505,0,0,0,0,0,0,0,0,0,-1,1210,519,0,0
-7,505,0,0,0,0,0,0,0,0,0,-1,1217,519,0,0
0,505,0,0,0,0,0,0,0,0,0,-1,1224,519,0,0
7,505,0,0,0,0,0,0,0,0,0,-1,1231,519,0,0
14,505,0,0,0,0,0,0,0,0,0,-1,1238,519,0,0
21,505,0,0,0,0,0,0,0,0,0,-1,1245,519,0,0
28,505,0,0,0,0,0,0,0,0,0,-1,1252,519,0,0
35,505,0,0,0,0,0,0,0,0,0,-1,1259,519,0,0
42,505,0,0,0,0,0,0,0,0,0,-1,1266,519,0,0
49,505,0,0,0,0,0,0,0,0,0,-1,1273,519,0,0
56,505,0,0,0,0,0,0,0,0,0,-1,1280,519,0,0
63,505,0,0,0,0,0,0,0,0,0,-1,1287,519,0,0
70,505,0,0,0,0,0,0,0,0,0,-1,1294,519,0,0
77,505,0,0,0,0,0,0,0,0,0,-1,1301,519,0,0
84,505,0,0,0,0,0,0,0,0,0,-1,1308,519,0,0
91,505,0,0,0,0,0,0,0,0,0,-1,1315,519,0,0
98,505,0,0,0,0,0,0,0,0,0,-1,1322,519,0,0
105,505,0,0,0,0,0,0,0,0,0,-1,1329,519,0,0
112,505,0,0,0,0,0,0,0,0,0,-1,1336,519,0,0
119,505,0,0,0,0,0,0,0,0,0,-1,1343,519,0,0
126,505,0,0,0,0,0,0,0,0,0,-1,1350,519,0,0
133,505,0,0,0,0,0,0,0,0,0,-1,1357,519,0,0
140,505,0,0,0,0,0,0,0,0,0,-1,1364,519,0,0
147,505,0,0,0,0,0,0,0,0,0,-1,1371,519,0,0
154,505,0,0,0,0,0,0,0,0,0,-1,1378,519,0,0
161,505,0,0,0,0,0,0,0,0,0,-1,1385,519,0,0
168,505,0,0,0,0,0,0,0,0,0,-1,1392,519,0,0
175,505,0,0,0,0,0,0,0,0,0,-1,1399,519,0,0
182,505,0,0,0,0,0,0,0,0,0,-1,1406,519,0,0
189,505,0,0,0,0,0,0,0,0,0,-1,1413,519,0,0
196,505,0,0,0,0,0,0,0,0,0,-1,1420,519,0,0
203,505,0,0,0,0,0,0,0,0,0,-1,1427,519,0,0
210,505,0,0,0,0,0,0,0,0,0,-1,1434,519,0,0
217,505,0,0,0,0,0,0,0,0,0,-1,1441,519,0,0
224,505,0,0,0,0,0,0,0,0,0,-1,1448,519,0,0
231,505,0,0,0,0,0,0,0,0,0,-1,1455,519,0,0
238,505,0,0,0,0,0,0,0,0,0,-1,1462,519,0,0
245,505,0,0,0,0,0,0,0,0,0,-1,1469,519,0,0
252,505,0,0,0,0,0,0,0,0,0,-1,1476,519,0,0
259,505,0,0,0,0,0,0,0,0,0,-1,1483,519,0,0
266,505,0,0,0,0,0,0,0,0,0,-1,1490,519,0,0
273,505,0,0,0,0,0,0,0,0,0,-1,1497,519,0,0
280,505,0,0,0,0,0,0,0,0,0,-1,1504,519,0,0
287,505,4.39478,0.499512,0,0,0,0,0,0,0,-1,1511,519,4.39476,-0.499506
294,505,4.88867,0.0822754,0,0,0,0,0,0,0,-1,1518,519,4.88871,-0.0822748
301,505,4.82153,-0.0704346,0,0,0,0,0,0,0,-1,1525,519,4.82156,0.0704312
308,505,4.67761,-0.29187,0,0,0,0,0,0,0,-1,1532,519,4.67762,0.291845
315,505,8.44055,-6.54352,0,0,0,0,0,0,0,-1,1539,519,8.44059,6.54349
322,505,4.78955,-0.594116,0,0,0,0,0,0,0,-1,1546,519,4.78957,0.594096
329,505,5.16321,0.434631,0,0,0,0,0,0,0,-1,1553,519,5.16316,-0.434614
336,505,4.94495,-0.920471,0,0,0,0,0,0,0,-1,1560,519,4.945,0.920495
343,505,5.01855,-1.4823,0,0,0,0,0,0,0,-1,1567,519,5.01851,1.48227
350,505,5.33154,-1.77838,0,0,0,0,0,0,0,-1,1574,519,5.33152,1.77838
357,505,5.56567,-1.9425,0,0,0,0,0,0,0,-1,1581,519,5.56562,1.94248
364,505,5.85205,-2.6579,0,0,0,0,0,0,0,-1,1588,519,5.85211,2.65788
371,505,5.88477,-7.00922,0,0,0,0,0,0,0,-1,1595,519,5.88473,7.00924
378,505,5.44104,-7.10162,0,0,0,0,0,0,0,-1,1602,519,5.44099,7.10162
385,505,6.64661,-8.65015,0,0,0,0,0,0,0,-1,1609,519,6.64662,8.65014
392,505,6.34558,-8.3429,0,0,0,0,0,0,0,-1,1616,519,6.34554,8.34288
399,505,7.45898,-9.70386,0,0,0,0,0,0,0,-1,1623,519,7.45899,9.70388
406,505,7.08679,-9.4928,0,0,0,0,0,0,0,-1,1630,519,7.08678,9.49278
413,505,8.4032,-14.0308,0,0,0,0,0,0,0,-1,1637,519,8.4032,14.0308
420,505,11.549,-20.157,0,0,0,0,0,0,0,-1,1644,519,11.5489,20.157
427,505,11.5657,-19.6083,0.00206213,0.000389067,-0.000838354,0.00240992,4.12753e-05,-0.393243,0.00159304,0.0298913,1651,519,11.5656,19.6084
434,505,11.5348,-19.0307,0.00172946,0.000294796,-0.000726285,0.00203294,-8.684e-06,-0.395801,0.00135819,0.0118168,1658,519,11.5348,19.0307
441,505,11.5387,-18.4814,0.00148689,0.000303173,-0.000536656,0.00169397,9.60965e-05,-0.368261,0.00109868,0.0107806,1665,519,11.5387,18.4814
448,505,11.5195,-17.9919,0.00143653,0.000314135,-0.000256851,0.00149251,0.000258149,-0.214613,0.000921098,0.0112014,1672,519,11.5196,17.9919
455,505,11.5072,-17.499,0.00135666,0.000411478,-2.14328e-05,0.00135714,0.000410992,-0.0226604,0.000803595,0.011362,1679,519,11.5072,17.499
462,505,11.4891,-16.9951,0.00132739,0.000498867,0.000244874,0.00139435,0.000431905,0.26693,0.000824223,0.011464,1686,519,11.4892,16.9951
469,505,11.4851,-16.4813,0.00139979,0.000459417,0.000601807,0.00169331,0.000165897,0.453784,0.00107784,0.0109535,1693,519,11.4851,16.4813
476,505,11.4546,-15.9729,0.00132945,0.000385152,0.000938685,0.00190804,-0.000193438,0.552379,0.00134117,0.0107424,1700,519,11.4546,15.9729
483,505,11.4476,-15.4496,0.00120245,0.000211693,0.00118914,0.00199527,-0.000581124,0.588037,0.00156038,0.0113595,1707,519,11.4476,15.4497
490,505,11.436,-14.9335,0.00092768,-8.86068e-05,0.00140319,0.0019119,-0.00107283,0.611676,0.00174578,0.0117875,1714,519,11.4361,14.9335
497,505,11.4279,-14.421,0.000552183,-0.00042174,0.0016261,0.00176267,-0.00163223,0.639915,0.00196053,0.0124278,1721,519,11.4279,14.421
504,505,11.3999,-13.8718,-2.24193e-05,-0.00093637,0.00176055,0.00133949,-0.00229828,0.658418,0.00212445,0.0131796,1728,519,11.3999,13.8718
511,505,11.3782,-13.3386,-0.000906143,-0.00149378,0.00178507,0.00060913,-0.00300905,0.703831,0.0022369,0.014833,1735,519,11.3782,13.3386
518,505,11.4363,-12.8042,-0.00220542,-0.00207123,0.00161371,-0.000523216,-0.00375343,0.806175,0.0023474,0.0215071,1742,519,11.4363,12.8042
525,505,11.2415,-12.2147,-0.00390139,-0.00273385,0.00121885,-0.00196619,-0.00466906,1.00873,0.00270684,0.0344156,1749,519,11.2415,12.2147
532,505,11.1832,-11.4043,0,0,0,0,0,0,0,-1,1756,519,11.1833,11.4043
539,505,7.90369,-7.11932,0,0,0,0,0,0,0,-1,1763,519,7.90373,7.11932
546,505,7.94946,-6.64539,0,0,0,0,0,0,0,-1,1770,519,7.94947,6.64539
553,505,2.82837,0.162659,0,0,0,0,0,0,0,-1,1777,519,2.82841,-0.162672
560,505,3.66223,-0.479797,0,0,0,0,0,0,0,-1,1784,519,3.66219,0.47982
567,505,4.65271,-0.950256,0,0,0,0,0,0,0,-1,1791,519,4.65274,0.95028
574,505,5.54443,-1.19977,0,0,0,0,0,0,0,-1,1798,519,5.54443,1.19974
581,505,0,0,0,0,0,0,0,0,0,-1,1805,519,0,0
588,505,0,0,0,0,0,0,0,0,0,-1,1812,519,0,0
595,505,0,0,0,0,0,0,0,0,0,-1,1819,519,0,0
602,505,0,0,0,0,0,0,0,0,0,-1,1826,519,0,0
609,505,0,0,0,0,0,0,0,0,0,-1,1833,519,0,0
616,505,0,0,0,0,0,0,0,0,0,-1,1840,519,0,0
623,505,0,0,0,0,0,0,0,0,0,-1,1847,519,0,0
630,505,0,0,0,0,0,0,0,0,0,-1,1854,519,0,0
637,505,0,0,0,0,0,0,0,0,0,-1,1861,519,0,0
644,505,0,0,0,0,0,0,0,0,0,-1,1868,519,0,0
651,505,0,0,0,0,0,0,0,0,0,-1,1875,519,0,0
658,505,0,0,0,0,0,0,0,0,0,-1,1882,519,0,0
665,505,0,0,0,0,0,0,0,0,0,-1,1889,519,0,0
672,505,0,0,0,0,0,0,0,0,0,-1,1896,519,0,0
679,505,0,0,0,0,0,0,0,0,0,-1,1903,519,0,0
686,505,0,0,0,0,0,0,0,0,0,-1,1910,519,0,0
693,505,0,0,0,0,0,0,0,0,0,-1,1917,519,0,0
700,505,0,0,0,0,0,0,0,0,0,-1,1924,519,0,0
707,505,0,0,0,0,0,0,0,0,0,-1,1931,519,0,0
714,505,0,0,0,0,0,0,0,0,0,-1,1938,519,0,0
721,505,0,0,0,0,0,0,0,0,0,-1,1945,519,0,0
728,505,0,0,0,0,0,0,0,0,0,-1,1952,519,0,0
735,505,0,0,0,0,0,0,0,0,0,-1,1959,519,0,0
742,505,0,0,0,0,0,0,0,0,0,-1,1966,519,0,0
749,505,0,0,0,0,0,0,0,0,0,-1,1973,519,0,0
756,505,0,0,0,0,0,0,0,0,0,-1,1980,519,0,0
763,505,0,0,0,0,0,0,0,0,0,-1,1987,519,0,0
770,505,0,0,0,0,0,0,0,0,0,-1,1994,519,0,0
777,505,0,0,0,0,0,0,0,0,0,-1,2001,519,0,0
784,505,0,0,0,0,0,0,0,0,0,-1,2008,519,0,0
791,505,0,0,0,0,0,0,0,0,0,-1,2015,519,0,0
798,505,0,0,0,0,0,0,0,0,0,-1,2022,519,0,0
805,505,0,0,0,0,0,0,0,0,0,-1,2029,519,0,0
812,505,0,0,0,0,0,0,0,0,0,-1,2036,519,0,0
-700,498,0,0,0,0,0,0,0,0,0,-1,524,526,0,0
-693,498,0,0,0,0,0,0,0,0,0,-1,531,526,0,0
-686,498,0,0,0,0,0,0,0,0,0,-1,538,526,0,0
-679,498,0,0,0,0,0,0,0,0,0,-1,545,526,0,0
-672,498,0,0,0,0,0,0,0,0,0,-1,552,526,0,0
-665,498,0,0,0,0,0,0,0,0,0,-1,559,526,0,0
-658,498,0,0,0,0,0,0,0,0,0,-1,566,526,0,0
-651,498,0,0,0,0,0,0,0,0,0,-1,573,526,0,0
-644,498,0,0,0,0,0,0,0,0,0,-1,580,526,0,0
-637,498,0,0,0,0,0,0,0,0,0,-1,587,526,0,0
-630,498,0,0,0,0,0,0,0,0,0,-1,594,526,0,0
-623,498,0,0,0,0,0,0,0,0,0,-1,601,526,0,0
-616,498,0,0,0,0,0,0,0,0,0,-1,608,526,0,0
-609,498,0,0,0,0,0,0,0,0,0,-1,615,526,0,0
-602,498,0,0,0,0,0,0,0,0,0,-1,622,526,0,0
-595,498,0,0,0,0,0,0,0,0,0,-1,629,526,0,0
-588,498,0,0,0,0,0,0,0,0,0,-1,636,526,0,0
-581,498,0,0,0,0,0,0,0,0,0,-1,643,526,0,0
-574,498,0,0,0,0,0,0,0,0,0,-1,650,526,0,0
-567,498,0,0,0,0,0,0,0,0,0,-1,657,526,0,0
-560,498,0,0,0,0,0,0,0,0,0,-1,664,526,0,0
-553,498,0,0,0,0,0,0,0,0,0,-1,671,526,0,0
-546,498,0,0,0,0,0,0,0,0,0,-1,678,526,0,0
-539,498,0,0,0,0,0,0,0,0,0,-1,685,526,0,0
-532,498,0,0,0,0,0,0,0,0,0,-1,692,526,0,0
-525,498,0,0,0,0,0,0,0,0,0,-1,699,526,0,0
-518,498,0,0,0,0,0,0,0,0,0,-1,706,526,0,0
-511,498,0,0,0,0,0,0,0,0,0,-1,713,526,0,0
-504,498,0,0,0,0,0,0,0,0,0,-1,720,526,0,0
-497,498,0,0,0,0,0,0,0,0,0,-1,727,526,0,0
-490,498,0,0,0,0,0,0,0,0,0,-1,734,526,0,0
-483,498,0,0,0,0,0,0,0,0,0,-1,741,526,0,0
-476,498,0,0,0,0,0,0,0,0,0,-1,748,526,0,0
-469,498,0,0,0,0,0,0,0,0,0,-1,755,526,0,0
-462,498,6.81024,1.15515,0,0,0,0,0,0,0,-1,762,526,6.81026,-1.15514
-455,498,3.25757,-3.0592,0,0,0,0,0,0,0,-1,769,526,3.25754,3.05921
-448,498,3.05939,-3.74298,0,0,0,0,0,0,0,-1,776,526,3.05939,3.74296
-441,498,2.77191,-6.08209,0,0,0,0,0,0,0,-1,783,526,2.77189,6.08207
-434,498,2.10681,-6.95929,0,0,0,0,0,0,0,-1,790,526,2.10682,6.9593
-427,498,-0.368042,-10.7726,0,0,0,0,0,0,0,-1,797,526,-0.36807,10.7726
-420,498,-1.05035,-10.5142,0,0,0,0,0,0,0,-1,804,526,-1.05034,10.5142
-413,498,-2.5174,-11.3257,0,0,0,0,0,0,0,-1,811,526,-2.51742,11.3257
-406,498,-2.64728,-13.1653,0,0,0,0,0,0,0,-1,818,526,-2.64726,13.1653
-399,498,-2.55444,-13.6318,-0.00273909,0.00955154,-0.00368248,0.0105704,-0.00375796,-1.30087,0.0085785,0.025747,825,526,-2.55441,13.6317
-392,498,-2.56946,-14.2242,-0.00208072,0.00783549,-0.00330852,0.00883801,-0.00308324,-1.27658,0.00714506,0.0126824,832,526,-2.56944,14.2242
-385,498,-2.57977,-14.7534,-0.00140964,0.00623766,-0.00287739,0.00719937,-0.00237136,-1.24824,0.00575525,0.00960961,839,526,-2.5798,14.7533
-378,498,-2.60016,-15.2707,-0.00072154,0.00491569,-0.0025228,0.00587982,-0.00168566,-1.20576,0.00458621,0.0107741,846,526,-2.60017,15.2707
-371,498,-2.59296,-15.7921,-0.000203125,0.00359975,-0.00210449,0.00453457,-0.00113795,-1.15277,0.00346521,0.0159796,853,526,-2.59298,15.7921
-364,498,-2.58984,-16.3204,0.000213673,0.00237028,-0.00163605,0.00325141,-0.000667465,-1.07677,0.00242096,0.0161263,860,526,-2.58987,16.3204
-357,498,-2.61829,-16.8224,0.000653589,0.00140878,-0.00122176,0.00230997,-0.000247599,-0.935271,0.0016288,0.0110662,867,526,-2.61826,16.8225
-350,498,-2.63885,-17.2993,0.001099,0.000601392,-0.000888707,0.00177308,-7.26811e-05,-0.648911,0.00120701,0.0111648,874,526,-2.63888,17.2993
-343,498,-2.65527,-17.7685,0.00146289,-0.000209801,-0.000552452,0.00162888,-0.000375792,-0.29188,0.00123046,0.0110678,881,526,-2.65529,17.7685
-336,498,-2.68689,-18.2385,0.00182813,-0.000972775,-0.000224111,0.00184595,-0.000990594,-0.0793409,0.00166231,0.0138142,888,526,-2.68691,18.2385
-329,498,-2.69873,-18.7051,0.00228957,-0.00157755,-1.39936e-06,0.00228957,-0.00157755,-0.000361862,0.00224526,0.0204441,895,526,-2.69875,18.7051
-322,498,-2.69934,-19.1931,0.00267082,-0.00205097,0.000251238,0.00268415,-0.0020643,0.0530087,0.00274929,0.0226245,902,526,-2.69935,19.1931
-315,498,-2.70514,-19.6761,0.00306078,-0.00237999,0.000450516,0.00309783,-0.00241704,0.082059,0.00319209,0.0183481,909,526,-2.70512,19.6762
-308,498,-2.71802,-20.1277,0.00363424,-0.00289135,0.000638308,0.00369609,-0.0029532,0.0965962,0.00384695,0.0202239,916,526,-2.71802,20.1278
-301,498,-2.61963,-20.6455,0.0040807,-0.00341264,0.00108663,0.0042351,-0.00356703,0.141141,0.00451006,0.0393122,923,526,-2.61963,20.6455
-294,498,-2.53186,-21.1682,0,0,0,0,0,0,0,-1,930,526,-2.53187,21.1681
-287,498,-0.91394,-13.4327,0,0,0,0,0,0,0,-1,937,526,-0.913935,13.4327
-280,498,-0.341614,-8.66608,0,0,0,0,0,0,0,-1,944,526,-0.341589,8.66606
-273,498,-0.988892,-8.62921,0,0,0,0,0,0,0,-1,951,526,-0.988906,8.62922
-266,498,0.362488,-6.33545,0,0,0,0,0,0,0,-1,958,526,0.362478,6.33547
-259,498,10.9454,-17.3615,0,0,0,0,0,0,0,-1,965,526,10.9454,17.3614
-252,498,8.56586,-14.6886,0,0,0,0,0,0,0,-1,972,526,8.56584,14.6886
-245,498,5.97382,-11.928,0,0,0,0,0,0,0,-1,979,526,5.97381,11.928
-238,498,2.24841,-13.8145,0,0,0,0,0,0,0,-1,986,526,2.24838,13.8145
-231,498,0.665894,-10.4898,0,0,0,0,0,0,0,-1,993,526,0.665863,10.4898
-224,498,-2.11243,-4.76312,0,0,0,0,0,0,0,-1,1000,526,-2.11245,4.76314
-217,498,-3.82239,-1.42841,0,0,0,0,0,0,0,-1,1007,526,-3.82241,1.42843
-210,498,-1.80591,-0.358215,0,0,0,0,0,0,0,-1,1014,526,-1.8059,0.3582
-203,498,-3.17316,1.06641,0,0,0,0,0,0,0,-1,1021,526,-3.17313,-1.0664
-196,498,-0.103271,5.40527,0,0,0,0,0,0,0,-1,1028,526,-0.103285,-5.40528
-189,498,3.00256,6.47137,0,0,0,0,0,0,0,-1,1035,526,3.00256,-6.47139
-182,498,0,0,0,0,0,0,0,0,0,-1,1042,526,0,0
-175,498,0,0,0,0,0,0,0,0,0,-1,1049,526,0,0
-168,498,0,0,0,0,0,0,0,0,0,-1,1056,526,0,0
-161,498,0,0,0,0,0,0,0,0,0,-1,1063,526,0,0
-154,498,0,0,0,0,0,0,0,0,0,-1,1070,526,0,0
-147,498,0,0,0,0,0,0,0,0,0,-1,1077,526,0,0
-140,498,0,0,0,0,0,0,0,0,0,-1,1084,526,0,0
-133,498,0,0,0,0,0,0,0,0,0,-1,1091,526,0,0
-126,498,0,0,0,0,0,0,0,0,0,-1,1098,526,0,0
-119,498,0,0,0,0,0,0,0,0,0,-1,1105,526,0,0
-112,498,0,0,0,0,0,0,0,0,0,-1,1112,526,0,0
-105,498,0,0,0,0,0,0,0,0,0,-1,1119,526,0,0
-98,498,0,0,0,0,0,0,0,0,0,-1,1126,526,0,0
-91,498,0,0,0,0,0,0,0,0,0,-1,1133,526,0,0
-84,498,0,0,0,0,0,0,0,0,0,-1,1140,526,0,0
-77,498,0,0,0,0,0,0,0,0,0,-1,1147,526,0,0
-70,498,0,0,0,0,0,0,0,0,0,-1,1154,526,0,0
-63,498,0,0,0,0,0,0,0,0,0,-1,1161,526,0,0
-56,498,0,0,0,0,0,0,0,0,0,-1,1168,526,0,0
-49,498,0,0,0,0,0,0,0,0,0,-1,1175,526,0,0
-42,498,0,0,0,0,0,0,0,0,0,-1,1182,526,0,0
-35,498,0,0,0,0,0,0,0,0,0,-1,1189,526,0,0
-28,498,0,0,0,0,0,0,0,0,0,-1,1196,526,0,0
-21,498,0,0,0,0,0,0,0,0,0,-1,1203,526,0,0
-14,498,0,0,0,0,0,0,0,0,0,-1,1210,526,0,0
-7,498,0,0,0,0,0,0,0,0,0,-1,1217,526,0,0
0,498,0,0,0,0,0,0,0,0,0,-1,1224,526,0,0
7,498,0,0,0,0,0,0,0,0,0,-1,1231,526,0,0
14,498,0,0,0,0,0,0,0,0,0,-1,1238,526,0,0
21,498,0,0,0,0,0,0,0,0,0,-1,1245,526,0,0
28,498,0,0,0,0,0,0,0,0,0,-1,1252,526,0,0
35,498,0,0,0,0,0,0,0,0,0,-1,1259,526,0,0
42,498,0,0,0,0,0,0,0,0,0,-1,1266,526,0,0
49,498,0,0,0,0,0,0,0,0,0,-1,1273,526,0,0
56,498,0,0,0,0,0,0,0,0,0,-1,1280,526,0,0
63,498,0,0,0,0,0,0,0,0,0,-1,1287,526,0,0
70,498,0,0,0,0,0,0,0,0,0,-1,1294,526,0,0
77,498,0,0,0,0,0,0,0,0,0,-1,1301,526,0,0
84,498,0,0,0,0,0,0,0,0,0,-1,1308,526,0,0
91,498,0,0,0,0,0,0,0,0,0,-1,1315,526,0,0
98,498,0,0,0,0,0,0,0,0,0,-1,1322,526,0,0
105,498,0,0,0,0,0,0,0,0,0,-1,1329,526,0,0
112,498,0,0,0,0,0,0,0,0,0,-1,1336,526,0,0
119,498,0,0,0,0,0,0,0,0,0,-1,1343,526,0,0
126,498,0,0,0,0,0,0,0,0,0,-1,1350,526,0,0
133,498,0,0,0,0,0,0,0,0,0,-1,1357,526,0,0
140,498,0,0,0,0,0,0,0,0,0,-1,1364,526,0,0
147,498,0,0,0,0,0,0,0,0,0,-1,1371,526,0,0
154,498,0,0,0,0,0,0,0,0,0,-1,1378,526,0,0
161,498,0,0,0,0,0,0,0,0,0,-1,1385,526,0,0
168,498,0,0,0,0,0,0,0,0,0,-1,1392,526,0,0
175,498,0,0,0,0,0,0,0,0,0,-1,1399,526,0,0
182,498,0,0,0,0,0,0,0,0,0,-1,1406,526,0,0
189,498,0,0,0,0,0,0,0,0,0,-1,1413,526,0,0
196,498,0,0,0,0,0,0,0,0,0,-1,1420,526,0,0
203,498,0,0,0,0,0,0,0,0,0,-1,1427,526,0,0
210,498,0,0,0,0,0,0,0,0,0,-1,1434,526,0,0
217,498,0,0,0,0,0,0,0,0,0,-1,1441,526,0,0
224,498,0,0,0,0,0,0,0,0,0,-1,1448,526,0,0
231,498,0,0,0,0,0,0,0,0,0,-1,1455,526,0,0
238,498,0,0,0,0,0,0,0,0,0,-1,1462,526,0,0
245,498,0,0,0,0,0,0,0,0,0,-1,1469,526,0,0
252,498,0,0,0,0,0,0,0,0,0,-1,1476,526,0,0
259,498,0,0,0,0,0,0,0,0,0,-1,1483,526,0,0
266,498,0,0,0,0,0,0,0,0,0,-1,1490,526,0,0
273,498,0,0,0,0,0,0,0,0,0,-1,1497,526,0,0
280,498,0,0,0,0,0,0,0,0,0,-1,1504,526,0,0
287,498,0,0,0,0,0,0,0,0,0,-1,1511,526,0,0
294,498,0,0,0,0,0,0,0,0,0,-1,1518,526,0,0
301,498,0,0,0,0,0,0,0,0,0,-1,1525,526,0,0
308,498,4.77942,-0.293884,0,0,0,0,0,0,0,-1,1532,526,4.77939,0.293899
315,498,4.56091,-0.564148,0,0,0,0,0,0,0,-1,1539,526,4.56097,0.564142
322,498,4.52344,-0.447266,0,0,0,0,0,0,0,-1,1546,526,4.52341,0.447295
329,498,4.63232,-0.156982,0,0,0,0,0,0,0,-1,1553,526,4.63238,0.156991
336,498,5.22644,0.0925903,0,0,0,0,0,0,0,-1,1560,526,5.22648,-0.0926188
343,498,6.22607,-1.67615,0,0,0,0,0,0,0,-1,1567,526,6.22605,1.67617
350,498,6.19373,-1.59906,0,0,0,0,0,0,0,-1,1574,526,6.19367,1.59906
357,498,6.21472,-1.58929,0,0,0,0,0,0,0,-1,1581,526,6.21476,1.58927
364,498,5.73547,-1.2019,0,0,0,0,0,0,0,-1,1588,526,5.73547,1.20192
371,498,3.27087,-4.55334,0,0,0,0,0,0,0,-1,1595,526,3.27089,4.55332
378,498,8.42944,-4.70624,0,0,0,0,0,0,0,-1,1602,526,8.42942,4.70624
385,498,4.7793,-5.15314,0,0,0,0,0,0,0,-1,1609,526,4.77935,5.15311
392,498,9.12439,-8.57953,0,0,0,0,0,0,0,-1,1616,526,9.12443,8.57955
399,498,7.98938,-9.46021,0,0,0,0,0,0,0,-1,1623,526,7.98936,9.4602
406,498,7.58081,-9.26819,0,0,0,0,0,0,0,-1,1630,526,7.58085,9.26817
413,498,7.17236,-9.07611,0,0,0,0,0,0,0,-1,1637,526,7.17234,9.07614
420,498,11.4314,-16.1147,0,0,0,0,0,0,0,-1,1644,526,11.4313,16.1147
427,498,11.8073,-19.5446,0,0,0,0,0,0,0,-1,1651,526,11.8072,19.5445
434,498,11.9264,-19.0298,0.00208635,-7.79531e-05,-0.00101959,0.00249101,-0.000482615,-0.37782,0.00184274,0.0356486,1658,526,11.9263,19.0298
441,498,12.0164,-18.4741,0.00175844,-6.85521e-05,-0.000868825,0.00210563,-0.000415743,-0.38017,0.0015609,0.0127176,1665,526,12.0164,18.4741
448,498,12.0349,-17.9489,0.00167262,-1.66374e-05,-0.000607368,0.00186833,-0.000212342,-0.311713,0.00132203,0.0107367,1672,526,12.0349,17.9489
455,498,12.0251,-17.4613,0.00155654,0.000149039,-0.000402088,0.0016633,4.22713e-05,-0.259544,0.00109505,0.0144978,1679,526,12.0252,17.4613
462,498,12.0157,-16.9799,0.00144554,0.000312343,-0.000173389,0.00147147,0.000286407,-0.148484,0.000900821,0.016524,1686,526,12.0157,16.9799
469,498,12.0054,-16.4725,0.00144746,0.000379018,0.000139352,0.00146534,0.000361142,0.127583,0.000881523,0.0140891,1693,526,12.0054,16.4725
476,498,11.9836,-15.9628,0.00138659,0.000356069,0.000452872,0.00155732,0.000185336,0.360523,0.00098228,0.010145,1700,526,11.9837,15.9628
483,498,11.9598,-15.4579,0.00122307,0.000240116,0.000688856,0.0015778,-0.000114617,0.475544,0.00109208,0.00864162,1707,526,11.9598,15.4579
490,498,11.9442,-14.9532,0.000891198,5.85968e-05,0.000867353,0.00143698,-0.000487188,0.561652,0.00115515,0.0111859,1714,526,11.9442,14.9532
497,498,11.9426,-14.4112,0.000483126,-7.96707e-05,0.00109534,0.00133263,-0.000929179,0.659665,0.00131277,0.0130391,1721,526,11.9426,14.4112
504,498,11.928,-13.8674,-0.000107969,-0.000447166,0.00122109,0.000955245,-0.00151038,0.716394,0.00143551,0.0149879,1728,526,11.928,13.8674
511,498,11.8945,-13.335,-0.000989907,-0.000819123,0.00123029,0.000328737,-0.00213777,0.820047,0.00154645,0.0166696,1735,526,11.8945,13.335
518,498,11.9421,-12.794,-0.00223132,-0.00120525,0.00104211,-0.000556739,-0.00287983,1.01413,0.00176384,0.0175791,1742,526,11.9422,12.794
525,498,11.8082,-12.244,-0.0037211,-0.00170279,0.000679349,-0.00149543,-0.00392846,1.27455,0.00228953,0.0261835,1749,526,11.8082,12.2439
532,498,11.5787,-11.6887,-0.00547939,-0.00220666,0.000192708,-0.00219535,-0.00549069,1.51218,0.00319119,0.04208,1756,526,11.5787,11.6887
539,498,11.5902,-11.1537,0,0,0,0,0,0,0,-1,1763,526,11.5902,11.1537
546,498,10.2014,-8.47589,0,0,0,0,0,0,0,-1,1770,526,10.2014,8.47589
553,498,5.93958,-1.71448,0,0,0,0,0,0,0,-1,1777,526,5.93956,1.71447
560,498,3.69385,-0.615112,0,0,0,0,0,0,0,-1,1784,526,3.69381,0.615118
567,498,5.12695,-0.581604,0,0,0,0,0,0,0,-1,1791,526,5.12699,0.58159
574,498,3.88,0.0286255,0,0,0,0,0,0,0,-1,1798,526,3.87999,-0.0286535
581,498,10.8722,2.58551,0,0,0,0,0,0,0,-1,1805,526,10.8723,-2.58551
588,498,0,0,0,0,0,0,0,0,0,-1,1812,526,0,0
595,498,0,0,0,0,0,0,0,0,0,-1,1819,526,0,0
602,498,0,0,0,0,0,0,0,0,0,-1,1826,526,0,0
609,498,0,0,0,0,0,0,0,0,0,-1,1833,526,0,0
616,498,0,0,0,0,0,0,0,0,0,-1,1840,526,0,0
623,498,0,0,0,0,0,0,0,0,0,-1,1847,526,0,0
630,498,0,0,0,0,0,0,0,0,0,-1,1854,526,0,0
637,498,0,0,0,0,0,0,0,0,0,-1,1861,526,0,0
644,498,0,0,0,0,0,0,0,0,0,-1,1868,526,0,0
651,498,0,0,0,0,0,0,0,0,0,-1,1875,526,0,0
658,498,0,0,0,0,0,0,0,0,0,-1,1882,526,0,0
665,498,0,0,0,0,0,0,0,0,0,-1,1889,526,0,0
672,498,0,0,0,0,0,0,0,0,0,-1,1896,526,0,0
679,498,0,0,0,0,0,0,0,0,0,-1,1903,526,0,0
686,498,0,0,0,0,0,0,0,0,0,-1,1910,526,0,0
693,498,0,0,0,0,0,0,0,0,0,-1,1917,526,0,0
700,498,0,0,0,0,0,0,0,0,0,-1,1924,526,0,0
707,498,0,0,0,0,0,0,0,0,0,-1,1931,526,0,0
714,498,0,0,0,0,0,0,0,0,0,-1,1938,526,0,0
721,498,0,0,0,0,0,0,0,0,0,-1,1945,526,0,0
728,498,0,0,0,0,0,0,0,0,0,-1,1952,526,0,0
735,498,0,0,0,0,0,0,0,0,0,-1,1959,526,0,0
742,498,0,0,0,0,0,0,0,0,0,-1,1966,526,0,0
749,498,0,0,0,0,0,0,0,0,0,-1,1973,526,0,0
756,498,0,0,0,0,0,0,0,0,0,-1,1980,526,0,0
763,498,0,0,0,0,0,0,0,0,0,-1,1987,526,0,0
770,498,0,0,0,0,0,0,0,0,0,-1,1994,526,0,0
777,498,0,0,0,0,0,0,0,0,0,-1,2001,526,0,0
784,498,0,0,0,0,0,0,0,0,0,-1,2008,526,0,0
791,498,0,0,0,0,0,0,0,0,0,-1,2015,526,0,0
798,498,0,0,0,0,0,0,0,0,0,-1,2022,526,0,0
805,498,0,0,0,0,0,0,0,0,0,-1,2029,526,0,0
812,498,0,0,0,0,0,0,0,0,0,-1,2036,526,0,0
-700,491,0,0,0,0,0,0,0,0,0,-1,524,533,0,0
-693,491,0,0,0,0,0,0,0,0,0,-1,531,533,0,0
-686,491,0,0,0,0,0,0,0,0,0,-1,538,533,0,0
-679,491,0,0,0,0,0,0,0,0,0,-1,545,533,0,0
-672,491,0,0,0,0,0,0,0,0,0,-1,552,533,0,0
-665,491,0,0,0,0,0,0,0,0,0,-1,559,533,0,0
-658,491,0,0,0,0,0,0,0,0,0,-1,566,533,0,0
-651,491,0,0,0,0,0,0,0,0,0,-1,573,533,0,0
-644,491,0,0,0,0,0,0,0,0,0,-1,580,533,0,0
-637,491,0,0,0,0,0,0,0,0,0,-1,587,533,0,0
-630,491,0,0,0,0,0,0,0,0,0,-1,594,533,0,0
-623,491,0,0,0,0,0,0,0,0,0,-1,601,533,0,0
-616,491,0,0,0,0,0,0,0,0,0,-1,608,533,0,0
-609,491,0,0,0,0,0,0,0,0,0,-1,615,533,0,0
-602,491,0,0,0,0,0,0,0,0,0,-1,622,533,0,0
-595,491,0,0,0,0,0,0,0,0,0,-1,629,533,0,0
-588,491,0,0,0,0,0,0,0,0,0,-1,636,533,0,0
-581,491,0,0,0,0,0,0,0,0,0,-1,643,533,0,0
-574,491,0,0,0,0,0,0,0,0,0,-1,650,533,0,0
-567,491,0,0,0,0,0,0,0,0,0,-1,657,533,0,0
-560,491,0,0,0,0,0,0,0,0,0,-1,664,533,0,0
-553,491,0,0,0,0,0,0,0,0,0,-1,671,533,0,0
-546,491,0,0,0,0,0,0,0,0,0,-1,678,533,0,0
-539,491,0,0,0,0,0,0,0,0,0,-1,685,533,0,0
-532,491,0,0,0,0,0,0,0,0,0,-1,692,533,0,0
-525,491,0,0,0,0,0,0,0,0,0,-1,699,533,0,0
-518,491,0,0,0,0,0,0,0,0,0,-1,706,533,0,0
-511,491,0,0,0,0,0,0,0,0,0,-1,713,533,0,0
-504,491,0,0,0,0,0,0,0,0,0,-1,720,533,0,0
-497,491,0,0,0,0,0,0,0,0,0,-1,727,533,0,0
-490,491,0,0,0,0,0,0,0,0,0,-1,734,533,0,0
-483,491,0,0,0,0,0,0,0,0,0,-1,741,533,0,0
-476,491,0,0,0,0,0,0,0,0,0,-1,748,533,0,0
-469,491,-5.85913,4.55011,0,0,0,0,0,0,0,-1,755,533,-5.8591,-4.55009
-462,491,-9.93713,4.90381,0,0,0,0,0,0,0,-1,762,533,-9.93716,-4.9038
-455,491,1.9494,-0.27887,0,0,0,0,0,0,0,-1,769,533,1.94941,0.27885
-448,491,2.68909,-1.8999,0,0,0,0,0,0,0,-1,776,533,2.6891,1.89988
-441,491,3.46069,-3.51855,0,0,0,0,0,0,0,-1,783,533,3.46071,3.51854
-434,491,2.67145,-7.44061,0,0,0,0,0,0,0,-1,790,533,2.67146,7.44061
-427,491,2.27136,-8.34546,0,0,0,0,0,0,0,-1,797,533,2.27136,8.34546
-420,491,-1.52142,-8.1123,0,0,0,0,0,0,0,-1,804,533,-1.52142,8.11228
-413,491,-3.086,-12.5434,0,0,0,0,0,0,0,-1,811,533,-3.08601,12.5434
-406,491,-3.02356,-13.2029,-0.00267661,0.00910731,-0.00318062,0.00991098,-0.00348029,-1.3233,0.00802311,0.0252204,818,533,-3.02357,13.2029
-399,491,-3.01825,-13.7516,-0.00205437,0.00751125,-0.00293451,0.00833973,-0.00288285,-1.29563,0.00672984,0.0109513,825,533,-3.01822,13.7516
-392,491,-3.0683,-14.2778,-0.00144275,0.00601908,-0.0026042,0.00683806,-0.00226173,-1.2661,0.00547075,0.0100672,832,533,-3.06832,14.2778
-385,491,-3.08087,-14.7774,-0.000781972,0.00465988,-0.0022489,0.00546897,-0.00159106,-1.22545,0.00427616,0.00986678,839,533,-3.08085,14.7774
-378,491,-3.0946,-15.2648,-9.17922e-05,0.00350787,-0.00195688,0.00436675,-0.000950677,-1.15721,0.00327439,0.0137504,846,533,-3.09458,15.2648
-371,491,-3.08636,-15.7715,0.000433678,0.00233263,-0.00158806,0.00323341,-0.000467104,-1.05483,0.00232699,0.0142334,853,533,-3.08636,15.7715
-364,491,-3.07623,-16.2824,0.000864554,0.00122363,-0.00116384,0.0022217,-0.000133508,-0.861928,0.00152758,0.0131629,860,533,-3.07624,16.2824
-357,491,-3.11255,-16.7784,0.00134317,0.000360729,-0.000798742,0.00178965,-8.5754e-05,-0.509714,0.00122269,0.0114078,867,533,-3.11258,16.7784
-350,491,-3.12463,-17.2537,0.00184578,-0.00035512,-0.000535766,0.00196928,-0.000478613,-0.22654,0.00149809,0.0145848,874,533,-3.12463,17.2537
-343,491,-3.1131,-17.7147,0.00225997,-0.00107003,-0.000267521,0.00228132,-0.00109139,-0.0796557,0.00198722,0.0226019,881,533,-3.11308,17.7147
-336,491,-3.14081,-18.1924,0.00268142,-0.00175957,-9.21081e-06,0.00268144,-0.00175959,-0.00207403,0.00258238,0.0231358,888,533,-3.14082,18.1924
-329,491,-3.18567,-18.6571,0.0031951,-0.00222943,0.000128066,0.00319813,-0.00223246,0.0235911,0.00315183,0.0247745,895,533,-3.18566,18.6571
-322,491,-3.1944,-19.1329,0.00362743,-0.00260023,0.000318195,0.00364364,-0.00261645,0.0509171,0.00363045,0.0230567,902,533,-3.19438,19.1329
-315,491,-3.23828,-19.5963,0.00409739,-0.00288706,0.000435954,0.0041245,-0.00291416,0.0620966,0.00408375,0.0214134,909,533,-3.23831,19.5963
-308,491,-3.21014,-20.1792,0,0,0,0,0,0,0,-1,916,533,-3.21012,20.1792
-301,491,-3.09882,-21.0473,0,0,0,0,0,0,0,-1,923,533,-3.09882,21.0473
-294,491,-0.777283,-8.60913,0,0,0,0,0,0,0,-1,930,533,-0.777288,8.6091
-287,491,-0.26123,-8.69055,0,0,0,0,0,0,0,-1,937,533,-0.261204,8.69053
-280,491,0.2948,-5.99219,0,0,0,0,0,0,0,-1,944,533,0.294811,5.99221
-273,491,0.369995,-5.33691,0,0,0,0,0,0,0,-1,951,533,0.369985,5.33693
-266,491,1.1167,-5.0321,0,0,0,0,0,0,0,-1,958,533,1.11668,5.0321
-259,491,12.0862,-16.9615,0,0,0,0,0,0,0,-1,965,533,12.0862,16.9615
-252,491,9.72443,-13.8417,0,0,0,0,0,0,0,-1,972,533,9.72444,13.8418
-245,491,5.27258,-14.3619,0,0,0,0,0,0,0,-1,979,533,5.27255,14.3619
-238,491,3.65381,-11.1472,0,0,0,0,0,0,0,-1,986,533,3.6538,11.1472
-231,491,2.17719,-7.86835,0,0,0,0,0,0,0,-1,993,533,2.17719,7.86832
-224,491,0.554626,-4.61725,0,0,0,0,0,0,0,-1,1000,533,0.554608,4.61727
-217,491,-2.92743,-1.0766,0,0,0,0,0,0,0,-1,1007,533,-2.92743,1.07659
-210,491,-0.92395,0.374512,0,0,0,0,0,0,0,-1,1014,533,-0.923959,-0.374531
-203,491,0.417419,4.77161,0,0,0,0,0,0,0,-1,1021,533,0.417446,-4.77162
-196,491,0,0,0,0,0,0,0,0,0,-1,1028,533,0,0
-189,491,0,0,0,0,0,0,0,0,0,-1,1035,533,0,0
-182,491,0,0,0,0,0,0,0,0,0,-1,1042,533,0,0
-175,491,0,0,0,0,0,0,0,0,0,-1,1049,533,0,0
-168,491,0,0,0,0,0,0,0,0,0,-1,1056,533,0,0
-161,491,0,0,0,0,0,0,0,0,0,-1,1063,533,0,0
-154,491,0,0,0,0,0,0,0,0,0,-1,1070,533,0,0
-147,491,0,0,0,0,0,0,0,0,0,-1,1077,533,0,0
-140,491,0,0,0,0,0,0,0,0,0,-1,1084,533,0,0
-133,491,0,0,0,0,0,0,0,0,0,-1,1091,533,0,0
-126,491,0,0,0,0,0,0,0,0,0,-1,1098,533,0,0
-119,491,0,0,0,0,0,0,0,0,0,-1,1105,533,0,0
-112,491,0,0,0,0,0,0,0,0,0,-1,1112,533,0,0
-105,491,0,0,0,0,0,0,0,0,0,-1,1119,533,0,0
-98,491,0,0,0,0,0,0,0,0,0,-1,1126,533,0,0
-91,491,0,0,0,0,0,0,0,0,0,-1,1133,533,0,0
-84,491,0,0,0,0,0,0,0,0,0,-1,1140,533,0,0
-77,491,0,0,0,0,0,0,0,0,0,-1,1147,533,0,0
-70,491,0,0,0,0,0,0,0,0,0,-1,1154,533,0,0
-63,491,0,0,0,0,0,0,0,0,0,-1,1161,533,0,0
-56,491,0,0,0,0,0,0,0,0,0,-1,1168,533,0,0
-49,491,0,0,0,0,0,0,0,0,0,-1,1175,533,0,0
-42,491,0,0,0,0,0,0,0,0,0,-1,1182,533,0,0
-35,491,0,0,0,0,0,0,0,0,0,-1,1189,533,0,0
-28,491,0,0,0,0,0,0,0,0,0,-1,1196,533,0,0
-21,491,0,0,0,0,0,0,0,0,0,-1,1203,533,0,0
-14,491,0,0,0,0,0,0,0,0,0,-1,1210,533,0,0
-7,491,0,0,0,0,0,0,0,0,0,-1,1217,533,0,0
0,491,0,0,0,0,0,0,0,0,0,-1,1224,533,0,0
7,491,0,0,0,0,0,0,0,0,0,-1,1231,533,0,0
14,491,0,0,0,0,0,0,0,0,0,-1,1238,533,0,0
21,491,0,0,0,0,0,0,0,0,0,-1,1245,533,0,0
28,491,0,0,0,0,0,0,0,0,0,-1,1252,533,0,0
35,491,0,0,0,0,0,0,0,0,0,-1,1259,533,0,0
42,491,0,0,0,0,0,0,0,0,0,-1,1266,533,0,0
49,491,0,0,0,0,0,0,0,0,0,-1,1273,533,0,0
56,491,0,0,0,0,0,0,0,0,0,-1,1280,533,0,0
63,491,0,0,0,0,0,0,0,0,0,-1,1287,533,0,0
70,491,0,0,0,0,0,0,0,0,0,-1,1294,533,0,0
77,491,0,0,0,0,0,0,0,0,0,-1,1301,533,0,0
84,491,0,0,0,0,0,0,0,0,0,-1,1308,533,0,0
91,491,0,0,0,0,0,0,0,0,0,-1,1315,533,0,0
98,491,0,0,0,0,0,0,0,0,0,-1,1322,533,0,0
105,491,0,0,0,0,0,0,0,0,0,-1,1329,533,0,0
112,491,0,0,0,0,0,0,0,0,0,-1,1336,533,0,0
119,491,0,0,0,0,0,0,0,0,0,-1,1343,533,0,0
126,491,0,0,0,0,0,0,0,0,0,-1,1350,533,0,0
133,491,0,0,0,0,0,0,0,0,0,-1,1357,533,0,0
140,491,0,0,0,0,0,0,0,0,0,-1,1364,533,0,0
147,491,0,0,0,0,0,0,0,0,0,-1,1371,533,0,0
154,491,0,0,0,0,0,0,0,0,0,-1,1378,533,0,0
161,491,0,0,0,0,0,0,0,0,0,-1,1385,533,0,0
168,491,0,0,0,0,0,0,0,0,0,-1,1392,533,0,0
175,491,0,0,0,0,0,0,0,0,0,-1,1399,533,0,0
182,491,0,0,0,0,0,0,0,0,0,-1,1406,533,0,0
189,491,0,0,0,0,0,0,0,0,0,-1,1413,533,0,0
196,491,0,0,0,0,0,0,0,0,0,-1,1420,533,0,0
203,491,0,0,0,0,0,0,0,0,0,-1,1427,533,0,0
210,491,0,0,0,0,0,0,0,0,0,-1,1434,533,0,0
217,491,0,0,0,0,0,0,0,0,0,-1,1441,533,0,0
224,491,0,0,0,0,0,0,0,0,0,-1,1448,533,0,0
231,491,0,0,0,0,0,0,0,0,0,-1,1455,533,0,0
238,491,0,0,0,0,0,0,0,0,0,-1,1462,533,0,0
245,491,0,0,0,0,0,0,0,0,0,-1,1469,533,0,0
252,491,0,0,0,0,0,0,0,0,0,-1,1476,533,0,0
259,491,0,0,0,0,0,0,0,0,0,-1,1483,533,0,0
266,491,0,0,0,0,0,0,0,0,0,-1,1490,533,0,0
273,491,0,0,0,0,0,0,0,0,0,-1,1497,533,0,0
280,491,0,0,0,0,0,0,0,0,0,-1,1504,533,0,0
287,491,0,0,0,0,0,0,0,0,0,-1,1511,533,0,0
294,491,0,0,0,0,0,0,0,0,0,-1,1518,533,0,0
301,491,0,0,0,0,0,0,0,0,0,-1,1525,533,0,0
308,491,0,0,0,0,0,0,0,0,0,-1,1532,533,0,0
315,491,0,0,0,0,0,0,0,0,0,-1,1539,533,0,0
322,491,4.26331,-0.734314,0,0,0,0,0,0,0,-1,1546,533,4.26326,0.734324
329,491,4.25354,-0.783752,0,0,0,0,0,0,0,-1,1553,533,4.25359,0.783734
336,491,4.81604,-0.722107,0,0,0,0,0,0,0,-1,1560,533,4.81605,0.722115
343,491,6.14478,-1.44281,0,0,0,0,0,0,0,-1,1567,533,6.14474,1.44281
350,491,6.36353,-1.30792,0,0,0,0,0,0,0,-1,1574,533,6.36352,1.3079
357,491,6.69482,-1.06018,0,0,0,0,0,0,0,-1,1581,533,6.69489,1.06018
364,491,8.01086,-1.69604,0,0,0,0,0,0,0,-1,1588,533,8.01087,1.69607
371,491,8.2135,-0.539307,0,0,0,0,0,0,0,-1,1595,533,8.21348,0.53929
378,491,13.3589,2.17267,0,0,0,0,0,0,0,-1,1602,533,13.3589,-2.17264
385,491,8.08228,-4.95471,0,0,0,0,0,0,0,-1,1609,533,8.08227,4.95474
392,491,2.88721,-4.30988,0,0,0,0,0,0,0,-1,1616,533,2.88716,4.30986
399,491,8.95862,-8.55518,0,0,0,0,0,0,0,-1,1623,533,8.95864,8.55516
406,491,8.16541,-9.00806,0,0,0,0,0,0,0,-1,1630,533,8.16535,9.00807
413,491,5.31848,-3.7124,0,0,0,0,0,0,0,-1,1637,533,5.31849,3.7124
420,491,4.86389,-3.95892,0,0,0,0,0,0,0,-1,1644,533,4.86387,3.95893
427,491,11.5096,-15.2742,0,0,0,0,0,0,0,-1,1651,533,11.5096,15.2742
434,491,12.3771,-19.0209,0,0,0,0,0,0,0,-1,1658,533,12.3771,19.0208
441,491,12.564,-18.1951,0.00202674,-0.000448419,-0.00126396,0.00255812,-0.000979795,-0.397972,0.00210928,0.047915,1665,533,12.564,18.1951
448,491,12.5037,-17.9828,0.00191845,-0.000267144,-0.00097258,0.00228857,-0.00063726,-0.363629,0.00177664,0.0309042,1672,533,12.5037,17.9829
455,491,12.5098,-17.4536,0.00178663,1.50033e-05,-0.000754002,0.00206409,-0.000262448,-0.352594,0.00147136,0.016947,1679,533,12.5098,17.4536
462,491,12.5249,-16.9567,0.0016446,0.000276868,-0.000502761,0.00180953,0.000111946,-0.316972,0.00117082,0.0171604,1686,533,12.5249,16.9566
469,491,12.507,-16.4705,0.00161732,0.000455884,-0.000200479,0.00165095,0.000422252,-0.166207,0.000990359,0.0162407,1693,533,12.507,16.4705
476,491,12.5044,-15.9576,0.00161277,0.00046465,0.00012282,0.00162576,0.000451658,0.105386,0.000969031,0.0110603,1700,533,12.5044,15.9576
483,491,12.5001,-15.4482,0.00145807,0.000376198,0.000380427,0.00157845,0.00025582,0.30646,0.000978241,0.0127581,1707,533,12.5001,15.4482
490,491,12.4749,-14.9417,0.00111574,0.000281756,0.000548296,0.0013876,9.90101e-06,0.460297,0.000921781,0.0114542,1714,533,12.4748,14.9417
497,491,12.4607,-14.4123,0.000712909,0.000280487,0.000794393,0.00131999,-0.000326592,0.652531,0.00100667,0.0121514,1721,533,12.4607,14.4123
504,491,12.4648,-13.8764,0.000137973,1.76165e-06,0.000918997,0.000991385,-0.00085165,0.748411,0.0010651,0.0136538,1728,533,12.4649,13.8764
511,491,12.4149,-13.344,-0.00070697,-0.000255947,0.000925448,0.000471069,-0.00143399,0.904908,0.00114576,0.0128928,1735,533,12.415,13.344
518,491,12.4037,-12.8122,-0.00186694,-0.000526467,0.000745457,-0.000194245,-0.00219916,1.15156,0.00140584,0.0104203,1742,533,12.4036,12.8122
525,491,12.41,-12.2651,-0.00317436,-0.00090986,0.000427529,-0.000831833,-0.00325238,1.39028,0.00195101,0.0104455,1749,533,12.4101,12.2652
532,491,12.3982,-11.7439,-0.00466164,-0.00122149,4.10462e-05,-0.001221,-0.00466213,1.55887,0.00279156,0.0214028,1756,533,12.3982,11.7439
539,491,12.2467,-11.2777,-0.00638897,-0.00156321,-0.000542735,-0.00150293,-0.00644925,-1.46017,0.00389638,0.0381368,1763,533,12.2468,11.2777
546,491,11.9723,-10.5783,0,0,0,0,0,0,0,-1,1770,533,11.9722,10.5783
553,491,10.5021,-7.77869,0,0,0,0,0,0,0,-1,1777,533,10.502,7.77871
560,491,6.28455,-1.43585,0,0,0,0,0,0,0,-1,1784,533,6.28458,1.43586
567,491,5.67651,-1.3562,0,0,0,0,0,0,0,-1,1791,533,5.67649,1.3562
574,491,8.0719,1.58325,0,0,0,0,0,0,0,-1,1798,533,8.07195,-1.58326
581,491,9.44812,1.60931,0,0,0,0,0,0,0,-1,1805,533,9.44808,-1.60933
588,491,11.0497,1.54962,0,0,0,0,0,0,0,-1,1812,533,11.0496,-1.54963
595,491,0,0,0,0,0,0,0,0,0,-1,1819,533,0,0
602,491,0,0,0,0,0,0,0,0,0,-1,1826,533,0,0
609,491,0,0,0,0,0,0,0,0,0,-1,1833,533,0,0
616,491,0,0,0,0,0,0,0,0,0,-1,1840,533,0,0
623,491,0,0,0,0,0,0,0,0,0,-1,1847,533,0,0
630,491,0,0,0,0,0,0,0,0,0,-1,1854,533,0,0
637,491,0,0,0,0,0,0,0,0,0,-1,1861,533,0,0
644,491,0,0,0,0,0,0,0,0,0,-1,1868,533,0,0
651,491,0,0,0,0,0,0,0,0,0,-1,1875,533,0,0
658,491,0,0,0,0,0,0,0,0,0,-1,1882,533,0,0
665,491,0,0,0,0,0,0,0,0,0,-1,1889,533,0,0
672,491,0,0,0,0,0,0,0,0,0,-1,1896,533,0,0
679,491,0,0,0,0,0,0,0,0,0,-1,1903,533,0,0
686,491,0,0,0,0,0,0,0,0,0,-1,1910,533,0,0
693,491,0,0,0,0,0,0,0,0,0,-1,1917,533,0,0
700,491,0,0,0,0,0,0,0,0,0,-1,1924,533,0,0
707,491,0,0,0,0,0,0,0,0,0,-1,1931,533,0,0
714,491,0,0,0,0,0,0,0,0,0,-1,1938,533,0,0
721,491,0,0,0,0,0,0,0,0,0,-1,1945,533,0,0
728,491,0,0,0,0,0,0,0,0,0,-1,1952,533,0,0
735,491,0,0,0,0,0,0,0,0,0,-1,1959,533,0,0
742,491,0,0,0,0,0,0,0,0,0,-1,1966,533,0,0
749,491,0,0,0,0,0,0,0,0,0,-1,1973,533,0,0
756,491,0,0,0,0,0,0,0,0,0,-1,1980,533,0,0
763,491,0,0,0,0,0,0,0,0,0,-1,1987,533,0,0
770,491,0,0,0,0,0,0,0,0,0,-1,1994,533,0,0
777,491,0,0,0,0,0,0,0,0,0,-1,2001,533,0,0
784,491,0,0,0,0,0,0,0,0,0,-1,2008,533,0,0
791,491,0,0,0,0,0,0,0,0,0,-1,2015,533,0,0
798,491,0,0,0,0,0,0,0,0,0,-1,2022,533,0,0
805,491,0,0,0,0,0,0,0,0,0,-1,2029,533,0,0
812,491,0,0,0,0,0,0,0,0,0,-1,2036,533,0,0
-700,484,0,0,0,0,0,0,0,0,0,-1,524,540,0,0
-693,484,0,0,0,0,0,0,0,0,0,-1,531,540,0,0
-686,484,0,0,0,0,0,0,0,0,0,-1,538,540,0,0
-679,484,0,0,0,0,0,0,0,0,0,-1,545,540,0,0
-672,484,0,0,0,0,0,0,0,0,0,-1,552,540,0,0
-665,484,0,0,0,0,0,0,0,0,0,-1,559,540,0,0
-658,484,0,0,0,0,0,0,0,0,0,-1,566,540,0,0
-651,484,0,0,0,0,0,0,0,0,0,-1,573,540,0,0
-644,484,0,0,0,0,0,0,0,0,0,-1,580,540,0,0
-637,484,0,0,0,0,0,0,0,0,0,-1,587,540,0,0
-630,484,0,0,0,0,0,0,0,0,0,-1,594,540,0,0
-623,484,0,0,0,0,0,0,0,0,0,-1,601,540,0,0
-616,484,0,0,0,0,0,0,0,0,0,-1,608,540,0,0
-609,484,0,0,0,0,0,0,0,0,0,-1,615,540,0,0
-602,484,0,0,0,0,0,0,0,0,0,-1,622,540,0,0
-595,484,0,0,0,0,0,0,0,0,0,-1,629,540,0,0
-588,484,0,0,0,0,0,0,0,0,0,-1,636,540,0,0
-581,484,0,0,0,0,0,0,0,0,0,-1,643,540,0,0
-574,484,0,0,0,0,0,0,0,0,0,-1,650,540,0,0
-567,484,0,0,0,0,0,0,0,0,0,-1,657,540,0,0
-560,484,0,0,0,0,0,0,0,0,0,-1,664,540,0,0
-553,484,0,0,0,0,0,0,0,0,0,-1,671,540,0,0
-546,484,0,0,0,0,0,0,0,0,0,-1,678,540,0,0
-539,484,0,0,0,0,0,0,0,0,0,-1,685,540,0,0
-532,484,0,0,0,0,0,0,0,0,0,-1,692,540,0,0
-525,484,0,0,0,0,0,0,0,0,0,-1,699,540,0,0
-518,484,0,0,0,0,0,0,0,0,0,-1,706,540,0,0
-511,484,0,0,0,0,0,0,0,0,0,-1,713,540,0,0
-504,484,0,0,0,0,0,0,0,0,0,-1,720,540,0,0
-497,484,0,0,0,0,0,0,0,0,0,-1,727,540,0,0
-490,484,0,0,0,0,0,0,0,0,0,-1,734,540,0,0
-483,484,0,0,0,0,0,0,0,0,0,-1,741,540,0,0
-476,484,-8.46552,1.44702,0,0,0,0,0,0,0,-1,748,540,-8.46554,-1.44702
-469,484,-7.82343,1.70355,0,0,0,0,0,0,0,-1,755,540,-7.82345,-1.70355
-462,484,-8.36987,3.08612,0,0,0,0,0,0,0,-1,762,540,-8.36988,-3.0861
-455,484,-6.77197,2.07092,0,0,0,0,0,0,0,-1,769,540,-6.77197,-2.07094
-448,484,3.54895,-1.40106,0,0,0,0,0,0,0,-1,776,540,3.54897,1.40106
-441,484,4.28906,-3.05884,0,0,0,0,0,0,0,-1,783,540,4.28905,3.05883
-434,484,-2.17548,-5.07245,0,0,0,0,0,0,0,-1,790,540,-2.17546,5.07243
-427,484,-3.51611,-11.0389,0,0,0,0,0,0,0,-1,797,540,-3.51609,11.0389
-420,484,-3.42639,-11.4015,0,0,0,0,0,0,0,-1,804,540,-3.42641,11.4015
-413,484,-3.37494,-12.5843,-0.00272103,0.0086451,-0.00266344,0.00923828,-0.0033142,-1.35166,0.00751139,0.0312129,811,540,-3.37494,12.5843
-406,484,-3.45996,-13.191,-0.00195253,0.00714552,-0.00254513,0.00780911,-0.00261612,-1.31575,0.00626297,0.0158475,818,540,-3.45998,13.191
-399,484,-3.54376,-13.7344,-0.00139065,0.00574857,-0.00228295,0.00641617,-0.00205825,-1.2863,0.0051038,0.0159297,825,540,-3.54374,13.7344
-392,484,-3.55573,-14.2331,-0.000822639,0.00442729,-0.00196714,0.00508258,-0.00147793,-1.24924,0.00397372,0.0188275,832,540,-3.55571,14.2331
-385,484,-3.56378,-14.7644,-0.000185836,0.00324409,-0.00165547,0.00391275,-0.0008545,-1.18692,0.00293509,0.0133451,839,540,-3.56379,14.7644
-378,484,-3.61139,-15.2663,0.000489094,0.00222014,-0.00139635,0.00299746,-0.000288226,-1.06284,0.00210098,0.014265,846,540,-3.61139,15.2663
-371,484,-3.60406,-15.7612,0.0010219,0.00117111,-0.00106379,0.00216291,3.01081e-05,-0.820406,0.00143201,0.0158341,853,540,-3.60408,15.7612
-364,484,-3.60809,-16.2558,0.00147882,0.000196999,-0.000690853,0.00178027,-0.000104453,-0.411442,0.00122315,0.0116047,860,540,-3.60808,16.2558
-357,484,-3.63647,-16.7486,0.00200473,-0.000550921,-0.00039132,0.00206331,-0.000609497,-0.148585,0.00161745,0.0122765,867,540,-3.63647,16.7486
-350,484,-3.64319,-17.2194,0.00257551,-0.00114767,-0.000222448,0.00258875,-0.00116091,-0.0594649,0.00221657,0.0155086,874,540,-3.64319,17.2194
-343,484,-3.62805,-17.6978,0.0030618,-0.00170873,-5.72817e-05,0.00306249,-0.00170942,-0.0120051,0.00279174,0.0223354,881,540,-3.62807,17.6978
-336,484,-3.64661,-18.1868,0.00356774,-0.00225434,8.41835e-05,0.00356896,-0.00225556,0.0144553,0.00339117,0.0242561,888,540,-3.64662,18.1868
-329,484,-3.61084,-18.6052,0.00417018,-0.00250694,7.36594e-05,0.00417099,-0.00250776,0.0110298,0.00389563,0.0348608,895,540,-3.61084,18.6052
-322,484,-3.62097,-19.1029,0,0,0,0,0,0,0,-1,902,540,-3.62094,19.1029
-315,484,-3.54272,-19.6668,0,0,0,0,0,0,0,-1,909,540,-3.54273,19.6668
-308,484,-1.32623,-8.9317,0,0,0,0,0,0,0,-1,916,540,-1.32626,8.93173
-301,484,-1.33453,-6.52667,0,0,0,0,0,0,0,-1,923,540,-1.33454,6.5267
-294,484,-1.61224,-8.17059,0,0,0,0,0,0,0,-1,930,540,-1.61227,8.17058
-287,484,-0.715759,-5.62103,0,0,0,0,0,0,0,-1,937,540,-0.715772,5.62105
-280,484,2.66742,-1.6795,0,0,0,0,0,0,0,-1,944,540,2.6674,1.67949
-273,484,2.53125,-2.22296,0,0,0,0,0,0,0,-1,951,540,2.53128,2.22295
-266,484,2.6778,-2.72058,0,0,0,0,0,0,0,-1,958,540,2.6778,2.72061
-259,484,2.41718,-2.59894,0,0,0,0,0,0,0,-1,965,540,2.41717,2.59892
-252,484,10.6069,-11.696,0,0,0,0,0,0,0,-1,972,540,10.6069,11.696
-245,484,6.34106,-11.6107,0,0,0,0,0,0,0,-1,979,540,6.34104,11.6107
-238,484,4.89319,-8.54059,0,0,0,0,0,0,0,-1,986,540,4.89321,8.5406
-231,484,3.47675,-5.22064,0,0,0,0,0,0,0,-1,993,540,3.47676,5.22067
-224,484,1.71344,-2.03473,0,0,0,0,0,0,0,-1,1000,540,1.71342,2.03472
-217,484,-0.745056,1.17358,0,0,0,0,0,0,0,-1,1007,540,-0.745043,-1.17359
-210,484,0,0,0,0,0,0,0,0,0,-1,1014,540,0,0
-203,484,0,0,0,0,0,0,0,0,0,-1,1021,540,0,0
-196,484,0,0,0,0,0,0,0,0,0,-1,1028,540,0,0
-189,484,0,0,0,0,0,0,0,0,0,-1,1035,540,0,0
-182,484,0,0,0,0,0,0,0,0,0,-1,1042,540,0,0
-175,484,0,0,0,0,0,0,0,0,0,-1,1049,540,0,0
-168,484,0,0,0,0,0,0,0,0,0,-1,1056,540,0,0
-161,484,0,0,0,0,0,0,0,0,0,-1,1063,540,0,0
-154,484,0,0,0,0,0,0,0,0,0,-1,1070,540,0,0
-147,484,0,0,0,0,0,0,0,0,0,-1,1077,540,0,0
-140,484,0,0,0,0,0,0,0,0,0,-1,1084,540,0,0
-133,484,0,0,0,0,0,0,0,0,0,-1,1091,540,0,0
-126,484,0,0,0,0,0,0,0,0,0,-1,1098,540,0,0
-119,484,0,0,0,0,0,0,0,0,0,-1,1105,540,0,0
-112,484,0,0,0,0,0,0,0,0,0,-1,1112,540,0,0
-105,484,0,0,0,0,0,0,0,0,0,-1,1119,540,0,0
-98,484,0,0,0,0,0,0,0,0,0,-1,1126,540,0,0
-91,484,0,0,0,0,0,0,0,0,0,-1,1133,540,0,0
-84,484,0,0,0,0,0,0,0,0,0,-1,1140,540,0,0
-77,484,0,0,0,0,0,0,0,0,0,-1,1147,540,0,0
-70,484,0,0,0,0,0,0,0,0,0,-1,1154,540,0,0
-63,484,0,0,0,0,0,0,0,0,0,-1,1161,540,0,0
-56,484,0,0,0,0,0,0,0,0,0,-1,1168,540,0,0
-49,484,0,0,0,0,0,0,0,0,0,-1,1175,540,0,0
-42,484,0,0,0,0,0,0,0,0,0,-1,1182,540,0,0
-35,484,0,0,0,0,0,0,0,0,0,-1,1189,540,0,0
-28,484,0,0,0,0,0,0,0,0,0,-1,1196,540,0,0
-21,484,0,0,0,0,0,0,0,0,0,-1,1203,540,0,0
-14,484,0,0,0,0,0,0,0,0,0,-1,1210,540,0,0
-7,484,0,0,0,0,0,0,0,0,0,-1,1217,540,0,0
0,484,0,0,0,0,0,0,0,0,0,-1,1224,540,0,0
7,484,0,0,0,0,0,0,0,0,0,-1,1231,540,0,0
14,484,0,0,0,0,0,0,0,0,0,-1,1238,540,0,0
21,484,0,0,0,0,0,0,0,0,0,-1,1245,540,0,0
28,484,0,0,0,0,0,0,0,0,0,-1,1252,540,0,0
35,484,0,0,0,0,0,0,0,0,0,-1,1259,540,0,0
42,484,0,0,0,0,0,0,0,0,0,-1,1266,540,0,0
49,484,0,0,0,0,0,0,0,0,0,-1,1273,540,0,0
56,484,0,0,0,0,0,0,0,0,0,-1,1280,540,0,0
63,484,0,0,0,0,0,0,0,0,0,-1,1287,540,0,0
70,484,0,0,0,0,0,0,0,0,0,-1,1294,540,0,0
77,484,0,0,0,0,0,0,0,0,0,-1,1301,540,0,0
84,484,0,0,0,0,0,0,0,0,0,-1,1308,540,0,0
91,484,0,0,0,0,0,0,0,0,0,-1,1315,540,0,0
98,484,0,0,0,0,0,0,0,0,0,-1,1322,540,0,0
105,484,0,0,0,0,0,0,0,0,0,-1,1329,540,0,0
112,484,0,0,0,0,0,0,0,0,0,-1,1336,540,0,0
119,484,0,0,0,0,0,0,0,0,0,-1,1343,540,0,0
126,484,0,0,0,0,0,0,0,0,0,-1,1350,540,0,0
133,484,0,0,0,0,0,0,0,0,0,-1,1357,540,0,0
140,484,0,0,0,0,0,0,0,0,0,-1,1364,540,0,0
147,484,0,0,0,0,0,0,0,0,0,-1,1371,540,0,0
154,484,0,0,0,0,0,0,0,0,0,-1,1378,540,0,0
161,484,0,0,0,0,0,0,0,0,0,-1,1385,540,0,0
168,484,0,0,0,0,0,0,0,0,0,-1,1392,540,0,0
175,484,0,0,0,0,0,0,0,0,0,-1,1399,540,0,0
182,484,0,0,0,0,0,0,0,0,0,-1,1406,540,0,0
189,484,0,0,0,0,0,0,0,0,0,-1,1413,540,0,0
196,484,0,0,0,0,0,0,0,0,0,-1,1420,540,0,0
203,484,0,0,0,0,0,0,0,0,0,-1,1427,540,0,0
210,484,0,0,0,0,0,0,0,0,0,-1,1434,540,0,0
217,484,0,0,0,0,0,0,0,0,0,-1,1441,540,0,0
224,484,0,0,0,0,0,0,0,0,0,-1,1448,540,0,0
231,484,0,0,0,0,0,0,0,0,0,-1,1455,540,0,0
238,484,0,0,0,0,0,0,0,0,0,-1,1462,540,0,0
245,484,0,0,0,0,0,0,0,0,0,-1,1469,540,0,0
252,484,0,0,0,0,0,0,0,0,0,-1,1476,540,0,0
259,484,0,0,0,0,0,0,0,0,0,-1,1483,540,0,0
266,484,0,0,0,0,0,0,0,0,0,-1,1490,540,0,0
273,484,0,0,0,0,0,0,0,0,0,-1,1497,540,0,0
280,484,0,0,0,0,0,0,0,0,0,-1,1504,540,0,0
287,484,0,0,0,0,0,0,0,0,0,-1,1511,540,0,0
294,484,0,0,0,0,0,0,0,0,0,-1,1518,540,0,0
301,484,0,0,0,0,0,0,0,0,0,-1,1525,540,0,0
308,484,0,0,0,0,0,0,0,0,0,-1,1532,540,0,0
315,484,0,0,0,0,0,0,0,0,0,-1,1539,540,0,0
322,484,0,0,0,0,0,0,0,0,0,-1,1546,540,0,0
329,484,0,0,0,0,0,0,0,0,0,-1,1553,540,0,0
336,484,4.38708,-1.64136,0,0,0,0,0,0,0,-1,1560,540,4.38704,1.64138
343,484,7.57996,-1.05457,0,0,0,0,0,0,0,-1,1567,540,7.57995,1.05454
350,484,8.10425,-1.18878,0,0,0,0,0,0,0,-1,1574,540,8.1043,1.18877
357,484,7.74902,-3.80286,0,0,0,0,0,0,0,-1,1581,540,7.74901,3.80287
364,484,6.31262,-3.87213,0,0,0,0,0,0,0,-1,1588,540,6.31263,3.87215
371,484,7.21008,0.973511,0,0,0,0,0,0,0,-1,1595,540,7.21014,-0.973541
378,484,11.0563,1.5014,0,0,0,0,0,0,0,-1,1602,540,11.0563,-1.5014
385,484,14.3469,2.5545,0,0,0,0,0,0,0,-1,1609,540,14.3469,-2.55453
392,484,7.39453,-4.95026,0,0,0,0,0,0,0,-1,1616,540,7.39448,4.95023
399,484,7.14417,-2.5639,0,0,0,0,0,0,0,-1,1623,540,7.14417,2.56391
406,484,7.88953,-2.47321,0,0,0,0,0,0,0,-1,1630,540,7.88954,2.47323
413,484,4.4895,-1.08673,0,0,0,0,0,0,0,-1,1637,540,4.48952,1.08674
420,484,4.50012,-2.11255,0,0,0,0,0,0,0,-1,1644,540,4.50012,2.11256
427,484,5.28601,-3.54053,0,0,0,0,0,0,0,-1,1651,540,5.28599,3.54051
434,484,11.1488,-13.5359,0,0,0,0,0,0,0,-1,1658,540,11.1489,13.5359
441,484,13.0039,-17.8347,0,0,0,0,0,0,0,-1,1665,540,13.0039,17.8347
448,484,12.9375,-18.124,0,0,0,0,0,0,0,-1,1672,540,12.9375,18.124
455,484,13.022,-17.4911,0,0,0,0,0,0,0,-1,1679,540,13.022,17.4911
462,484,13.0452,-16.9439,0.00194457,0.0002111,-0.000829011,0.0022772,-0.000121536,-0.381578,0.00156023,0.0225196,1686,540,13.0451,16.9439
469,484,13.043,-16.4436,0.00187834,0.000575149,-0.000488685,0.00204123,0.000412256,-0.321745,0.00124634,0.0188017,1693,540,13.043,16.4436
476,484,13.027,-15.919,0.00194197,0.000640425,-0.000114572,0.00195198,0.000630416,-0.0871347,0.00115028,0.0170401,1700,540,13.0269,15.919
483,484,13.0314,-15.426,0.00181525,0.000581628,0.000202853,0.00184775,0.000549128,0.158865,0.00109566,0.0131487,1707,540,13.0313,15.426
490,484,13.01,-14.9132,0.00148371,0.000570647,0.000386583,0.0016254,0.000428959,0.35131,0.000972672,0.0127627,1714,540,13.01,14.9132
497,484,12.9625,-14.3797,0.00109778,0.000668102,0.000662193,0.00157911,0.00018677,0.628537,0.000996338,0.01409,1721,540,12.9625,14.3797
504,484,12.9631,-13.8519,0.000550096,0.000432988,0.000786292,0.00128001,-0.000296928,0.748233,0.000967624,0.0161019,1728,540,12.9631,13.8519
511,484,12.972,-13.3244,-0.000233681,0.000232107,0.000793304,0.000825996,-0.000827571,0.928174,0.000954688,0.0181905,1735,540,12.972,13.3244
518,484,12.9465,-12.7955,-0.00127909,1.67161e-05,0.000631545,0.000273594,-0.00153597,1.18449,0.00112631,0.0159223,1742,540,12.9466,12.7955
525,484,12.9127,-12.2654,-0.00240024,-0.000312704,0.000352105,-0.000254914,-0.00245803,1.40812,0.00156067,0.0142682,1749,540,12.9127,12.2654
532,484,12.9265,-11.7131,-0.00364781,-0.000553776,2.43361e-05,-0.000553584,-0.003648,1.56293,0.00227008,0.0155149,1756,540,12.9266,11.7132
539,484,12.8704,-11.1347,-0.00505851,-0.00086638,-0.000448019,-0.000819034,-0.00510586,-1.46551,0.0031664,0.035626,1763,540,12.8704,11.1347
546,484,12.8549,-10.5743,0,0,0,0,0,0,0,-1,1770,540,12.8548,10.5743
553,484,12.4246,-8.96423,0,0,0,0,0,0,0,-1,1777,540,12.4246,8.96422
560,484,10.0549,-5.47931,0,0,0,0,0,0,0,-1,1784,540,10.055,5.47928
567,484,7.78223,-1.38312,0,0,0,0,0,0,0,-1,1791,540,7.78224,1.38311
574,484,5.74463,1.50922,0,0,0,0,0,0,0,-1,1798,540,5.74463,-1.50924
581,484,10.34,2.9491,0,0,0,0,0,0,0,-1,1805,540,10.34,-2.94912
588,484,10.6669,2.88568,0,0,0,0,0,0,0,-1,1812,540,10.6669,-2.88567
595,484,10.7233,1.04767,0,0,0,0,0,0,0,-1,1819,540,10.7233,-1.04766
602,484,0,0,0,0,0,0,0,0,0,-1,1826,540,0,0
609,484,0,0,0,0,0,0,0,0,0,-1,1833,540,0,0
616,484,0,0,0,0,0,0,0,0,0,-1,1840,540,0,0
623,484,0,0,0,0,0,0,0,0,0,-1,1847,540,0,0
630,484,0,0,0,0,0,0,0,0,0,-1,1854,540,0,0
637,484,0,0,0,0,0,0,0,0,0,-1,1861,540,0,0
644,484,0,0,0,0,0,0,0,0,0,-1,1868,540,0,0
651,484,0,0,0,0,0,0,0,0,0,-1,1875,540,0,0
658,484,0,0,0,0,0,0,0,0,0,-1,1882,540,0,0
665,484,0,0,0,0,0,0,0,0,0,-1,1889,540,0,0
672,484,0,0,0,0,0,0,0,0,0,-1,1896,540,0,0
679,484,0,0,0,0,0,0,0,0,0,-1,1903,540,0,0
686,484,0,0,0,0,0,0,0,0,0,-1,1910,540,0,0
693,484,0,0,0,0,0,0,0,0,0,-1,1917,540,0,0
700,484,0,0,0,0,0,0,0,0,0,-1,1924,540,0,0
707,484,0,0,0,0,0,0,0,0,0,-1,1931,540,0,0
714,484,0,0,0,0,0,0,0,0,0,-1,1938,540,0,0
721,484,0,0,0,0,0,0,0,0,0,-1,1945,540,0,0
728,484,0,0,0,0,0,0,0,0,0,-1,1952,540,0,0
735,484,0,0,0,0,0,0,0,0,0,-1,1959,540,0,0
742,484,0,0,0,0,0,0,0,0,0,-1,1966,540,0,0
749,484,0,0,0,0,0,0,0,0,0,-1,1973,540,0,0
756,484,0,0,0,0,0,0,0,0,0,-1,1980,540,0,0
763,484,0,0,0,0,0,0,0,0,0,-1,1987,540,0,0
770,484,0,0,0,0,0,0,0,0,0,-1,1994,540,0,0
777,484,0,0,0,0,0,0,0,0,0,-1,2001,540,0,0
784,484,0,0,0,0,0,0,0,0,0,-1,2008,540,0,0
791,484,0,0,0,0,0,0,0,0,0,-1,2015,540,0,0
798,484,0,0,0,0,0,0,0,0,0,-1,2022,540,0,0
805,484,0,0,0,0,0,0,0,0,0,-1,2029,540,0,0
812,484,0,0,0,0,0,0,0,0,0,-1,2036,540,0,0
-700,477,0,0,0,0,0,0,0,0,0,-1,524,547,0,0
-693,477,0,0,0,0,0,0,0,0,0,-1,531,547,0,0
-686,477,0,0,0,0,0,0,0,0,0,-1,538,547,0,0
-679,477,0,0,0,0,0,0,0,0,0,-1,545,547,0,0
-672,477,0,0,0,0,0,0,0,0,0,-1,552,547,0,0
-665,477,0,0,0,0,0,0,0,0,0,-1,559,547,0,0
-658,477,0,0,0,0,0,0,0,0,0,-1,566,547,0,0
-651,477,0,0,0,0,0,0,0,0,0,-1,573,547,0,0
-644,477,0,0,0,0,0,0,0,0,0,-1,580,547,0,0
-637,477,0,0,0,0,0,0,0,0,0,-1,587,547,0,0
-630,477,0,0,0,0,0,0,0,0,0,-1,594,547,0,0
-623,477,0,0,0,0,0,0,0,0,0,-1,601,547,0,0
-616,477,0,0,0,0,0,0,0,0,0,-1,608,547,0,0
-609,477,0,0,0,0,0,0,0,0,0,-1,615,547,0,0
-602,477,0,0,0,0,0,0,0,0,0,-1,622,547,0,0
-595,477,0,0,0,0,0,0,0,0,0,-1,629,547,0,0
-588,477,0,0,0,0,0,0,0,0,0,-1,636,547,0,0
-581,477,0,0,0,0,0,0,0,0,0,-1,643,547,0,0
-574,477,0,0,0,0,0,0,0,0,0,-1,650,547,0,0
-567,477,0,0,0,0,0,0,0,0,0,-1,657,547,0,0
-560,477,0,0,0,0,0,0,0,0,0,-1,664,547,0,0
-553,477,0,0,0,0,0,0,0,0,0,-1,671,547,0,0
-546,477,0,0,0,0,0,0,0,0,0,-1,678,547,0,0
-539,477,0,0,0,0,0,0,0,0,0,-1,685,547,0,0
-532,477,0,0,0,0,0,0,0,0,0,-1,692,547,0,0
-525,477,0,0,0,0,0,0,0,0,0,-1,699,547,0,0
-518,477,0,0,0,0,0,0,0,0,0,-1,706,547,0,0
-511,477,0,0,0,0,0,0,0,0,0,-1,713,547,0,0
-504,477,0,0,0,0,0,0,0,0,0,-1,720,547,0,0
-497,477,0,0,0,0,0,0,0,0,0,-1,727,547,0,0
-490,477,0,0,0,0,0,0,0,0,0,-1,734,547,0,0
-483,477,-7.73151,-0.224182,0,0,0,0,0,0,0,-1,741,547,-7.73152,0.224176
-476,477,-6.25806,-0.310547,0,0,0,0,0,0,0,-1,748,547,-6.25804,0.310549
-469,477,-7.26617,0.525085,0,0,0,0,0,0,0,-1,755,547,-7.2662,-0.525111
-462,477,-6.65143,1.06042,0,0,0,0,0,0,0,-1,762,547,-6.65143,-1.06043
-455,477,-5.31757,0.429016,0,0,0,0,0,0,0,-1,769,547,-5.31756,-0.42902
-448,477,-4.0697,0.273376,0,0,0,0,0,0,0,-1,776,547,-4.06971,-0.273363
-441,477,-2.47504,-4.76971,0,0,0,0,0,0,0,-1,783,547,-2.47505,4.76973
-434,477,-3.67407,-11.1298,0,0,0,0,0,0,0,-1,790,547,-3.67409,11.1297
-427,477,-3.95233,-11.3854,-0.00348372,0.0101818,-0.00232668,0.0105671,-0.00386899,-1.4067,0.00862855,0.0407663,797,547,-3.9523,11.3854
-420,477,-3.98096,-11.7957,-0.00274653,0.00845549,-0.0022484,0.00888992,-0.00318097,-1.37993,0.00722427,0.0347423,804,547,-3.98094,11.7956
-413,477,-3.94086,-12.5765,-0.00204293,0.0068099,-0.00209821,0.00728202,-0.00251505,-1.34947,0.00587529,0.0200108,811,547,-3.94083,12.5765
-406,477,-4.01563,-13.1796,-0.00139739,0.00555512,-0.00196661,0.00607285,-0.00191512,-1.31338,0.0048156,0.0103426,818,547,-4.01564,13.1796
-399,477,-4.02698,-13.703,-0.000880027,0.00436709,-0.00172454,0.00488313,-0.00139607,-1.28004,0.00380708,0.0185358,825,547,-4.02696,13.703
-392,477,-4.04871,-14.2269,-0.000331268,0.00321412,-0.00144871,0.0037308,-0.000847941,-1.22822,0.00281278,0.0186824,832,547,-4.04869,14.2269
-385,477,-4.04724,-14.7247,0.000302302,0.00219563,-0.00119237,0.00277143,-0.000273504,-1.12091,0.00194521,0.014588,839,547,-4.04721,14.7247
-378,477,-4.08032,-15.2305,0.000979784,0.00128047,-0.000966859,0.0021086,0.000151647,-0.862528,0.00135801,0.01291,846,547,-4.08031,15.2305
-371,477,-4.10071,-15.7261,0.00155774,0.000343379,-0.000671238,0.00185567,4.54477e-05,-0.417731,0.00122225,0.0132536,853,547,-4.10069,15.7261
-364,477,-4.11908,-16.2054,0.00209987,-0.000516387,-0.000348545,0.00214551,-0.000562025,-0.130198,0.0016499,0.0133506,860,547,-4.1191,16.2054
-357,477,-4.13074,-16.7179,0.00273835,-0.001209,-9.87652e-05,0.00274082,-0.00121147,-0.0249997,0.00233811,0.0115403,867,547,-4.13072,16.7179
-350,477,-4.14972,-17.2053,0.00345415,-0.00177942,6.57106e-06,0.00345416,-0.00177943,0.00125556,0.00307275,0.0109913,874,547,-4.14969,17.2053
-343,477,-4.11469,-17.7044,0.00411258,-0.00229689,0.000109168,0.00411444,-0.00229875,0.0170257,0.0037518,0.0184262,881,547,-4.11467,17.7044
-336,477,-4.0481,-18.2104,0.00482674,-0.00280667,0.000169571,0.0048305,-0.00281043,0.0221997,0.00446259,0.0361758,888,547,-4.0481,18.2105
-329,477,-3.9342,-18.6899,0,0,0,0,0,0,0,-1,895,547,-3.93421,18.69
-322,477,-2.04822,-12.0026,0,0,0,0,0,0,0,-1,902,547,-2.04819,12.0026
-315,477,-1.67358,-9.15253,0,0,0,0,0,0,0,-1,909,547,-1.67356,9.15253
-308,477,-1.30127,-6.55188,0,0,0,0,0,0,0,-1,916,547,-1.30128,6.55185
-301,477,-1.21185,-6.28351,0,0,0,0,0,0,0,-1,923,547,-1.21184,6.28352
-294,477,-0.352905,3.27142,0,0,0,0,0,0,0,-1,930,547,-0.35292,-3.27144
-287,477,3.54364,2.15399,0,0,0,0,0,0,0,-1,937,547,3.54362,-2.15396
-280,477,1.97308,-0.954163,0,0,0,0,0,0,0,-1,944,547,1.9731,0.954178
-273,477,2.11621,-3.76709,0,0,0,0,0,0,0,-1,951,547,2.11619,3.76706
-266,477,2.04669,-3.42389,0,0,0,0,0,0,0,-1,958,547,2.04671,3.42391
-259,477,-1.33478,-3.41205,0,0,0,0,0,0,0,-1,965,547,-1.3348,3.41206
-252,477,0.597168,-5.32922,0,0,0,0,0,0,0,-1,972,547,0.597144,5.32924
-245,477,8.2309,-8.48492,0,0,0,0,0,0,0,-1,979,547,8.23091,8.48494
-238,477,6.60938,-5.64063,0,0,0,0,0,0,0,-1,986,547,6.60938,5.64063
-231,477,4.71716,-2.52484,0,0,0,0,0,0,0,-1,993,547,4.71716,2.52483
-224,477,0,0,0,0,0,0,0,0,0,-1,1000,547,0,0
-217,477,0,0,0,0,0,0,0,0,0,-1,1007,547,0,0
-210,477,0,0,0,0,0,0,0,0,0,-1,1014,547,0,0
-203,477,0,0,0,0,0,0,0,0,0,-1,1021,547,0,0
-196,477,0,0,0,0,0,0,0,0,0,-1,1028,547,0,0
-189,477,0,0,0,0,0,0,0,0,0,-1,1035,547,0,0
-182,477,0,0,0,0,0,0,0,0,0,-1,1042,547,0,0
-175,477,0,0,0,0,0,0,0,0,0,-1,1049,547,0,0
-168,477,0,0,0,0,0,0,0,0,0,-1,1056,547,0,0
-161,477,0,0,0,0,0,0,0,0,0,-1,1063,547,0,0
-154,477,0,0,0,0,0,0,0,0,0,-1,1070,547,0,0
-147,477,0,0,0,0,0,0,0,0,0,-1,1077,547,0,0
-140,477,0,0,0,0,0,0,0,0,0,-1,1084,547,0,0
-133,477,0,0,0,0,0,0,0,0,0,-1,1091,547,0,0
-126,477,0,0,0,0,0,0,0,0,0,-1,1098,547,0,0
-119,477,0,0,0,0,0,0,0,0,0,-1,1105,547,0,0
-112,477,0,0,0,0,0,0,0,0,0,-1,1112,547,0,0
-105,477,0,0,0,0,0,0,0,0,0,-1,1119,547,0,0
-98,477,0,0,0,0,0,0,0,0,0,-1,1126,547,0,0
-91,477,0,0,0,0,0,0,0,0,0,-1,1133,547,0,0
-84,477,0,0,0,0,0,0,0,0,0,-1,1140,547,0,0
-77,477,0,0,0,0,0,0,0,0,0,-1,1147,547,0,0
-70,477,0,0,0,0,0,0,0,0,0,-1,1154,547,0,0
-63,477,0,0,0,0,0,0,0,0,0,-1,1161,547,0,0
-56,477,0,0,0,0,0,0,0,0,0,-1,1168,547,0,0
-49,477,0,0,0,0,0,0,0,0,0,-1,1175,547,0,0
-42,477,0,0,0,0,0,0,0,0,0,-1,1182,547,0,0
-35,477,0,0,0,0,0,0,0,0,0,-1,1189,547,0,0
-28,477,0,0,0,0,0,0,0,0,0,-1,1196,547,0,0
-21,477,0,0,0,0,0,0,0,0,0,-1,1203,547,0,0
-14,477,0,0,0,0,0,0,0,0,0,-1,1210,547,0,0
-7,477,0,0,0,0,0,0,0,0,0,-1,1217,547,0,0
0,477,0,0,0,0,0,0,0,0,0,-1,1224,547,0,0
7,477,0,0,0,0,0,0,0,0,0,-1,1231,547,0,0
14,477,0,0,0,0,0,0,0,0,0,-1,1238,547,0,0
21,477,0,0,0,0,0,0,0,0,0,-1,1245,547,0,0
28,477,0,0,0,0,0,0,0,0,0,-1,1252,547,0,0
35,477,0,0,0,0,0,0,0,0,0,-1,1259,547,0,0
42,477,0,0,0,0,0,0,0,0,0,-1,1266,547,0,0
49,477,0,0,0,0,0,0,0,0,0,-1,1273,547,0,0
56,477,0,0,0,0,0,0,0,0,0,-1,1280,547,0,0
63,477,0,0,0,0,0,0,0,0,0,-1,1287,547,0,0
70,477,0,0,0,0,0,0,0,0,0,-1,1294,547,0,0
77,477,0,0,0,0,0,0,0,0,0,-1,1301,547,0,0
84,477,0,0,0,0,0,0,0,0,0,-1,1308,547,0,0
91,477,0,0,0,0,0,0,0,0,0,-1,1315,547,0,0
98,477,0,0,0,0,0,0,0,0,0,-1,1322,547,0,0
105,477,0,0,0,0,0,0,0,0,0,-1,1329,547,0,0
112,477,0,0,0,0,0,0,0,0,0,-1,1336,547,0,0
119,477,0,0,0,0,0,0,0,0,0,-1,1343,547,0,0
126,477,0,0,0,0,0,0,0,0,0,-1,1350,547,0,0
133,477,0,0,0,0,0,0,0,0,0,-1,1357,547,0,0
140,477,0,0,0,0,0,0,0,0,0,-1,1364,547,0,0
147,477,0,0,0,0,0,0,0,0,0,-1,1371,547,0,0
154,477,0,0,0,0,0,0,0,0,0,-1,1378,547,0,0
161,477,0,0,0,0,0,0,0,0,0,-1,1385,547,0,0
168,477,0,0,0,0,0,0,0,0,0,-1,1392,547,0,0
175,477,0,0,0,0,0,0,0,0,0,-1,1399,547,0,0
182,477,0,0,0,0,0,0,0,0,0,-1,1406,547,0,0
189,477,0,0,0,0,0,0,0,0,0,-1,1413,547,0,0
196,477,0,0,0,0,0,0,0,0,0,-1,1420,547,0,0
203,477,0,0,0,0,0,0,0,0,0,-1,1427,547,0,0
210,477,0,0,0,0,0,0,0,0,0,-1,1434,547,0,0
217,477,0,0,0,0,0,0,0,0,0,-1,1441,547,0,0
224,477,0,0,0,0,0,0,0,0,0,-1,1448,547,0,0
231,477,0,0,0,0,0,0,0,0,0,-1,1455,547,0,0
238,477,0,0,0,0,0,0,0,0,0,-1,1462,547,0,0
245,477,0,0,0,0,0,0,0,0,0,-1,1469,547,0,0
252,477,0,0,0,0,0,0,0,0,0,-1,1476,547,0,0
259,477,0,0,0,0,0,0,0,0,0,-1,1483,547,0,0
266,477,0,0,0,0,0,0,0,0,0,-1,1490,547,0,0
273,477,0,0,0,0,0,0,0,0,0,-1,1497,547,0,0
280,477,0,0,0,0,0,0,0,0,0,-1,1504,547,0,0
287,477,0,0,0,0,0,0,0,0,0,-1,1511,547,0,0
294,477,0,0,0,0,0,0,0,0,0,-1,1518,547,0,0
301,477,0,0,0,0,0,0,0,0,0,-1,1525,547,0,0
308,477,0,0,0,0,0,0,0,0,0,-1,1532,547,0,0
315,477,0,0,0,0,0,0,0,0,0,-1,1539,547,0,0
322,477,0,0,0,0,0,0,0,0,0,-1,1546,547,0,0
329,477,0,0,0,0,0,0,0,0,0,-1,1553,547,0,0
336,477,0,0,0,0,0,0,0,0,0,-1,1560,547,0,0
343,477,0,0,0,0,0,0,0,0,0,-1,1567,547,0,0
350,477,1.7699,-3.32275,0,0,0,0,0,0,0,-1,1574,547,1.7699,3.32272
357,477,3.073,-4.83313,0,0,0,0,0,0,0,-1,1581,547,3.07303,4.83316
364,477,4.30127,-4.22864,0,0,0,0,0,0,0,-1,1588,547,4.30125,4.22865
371,477,4.57703,0.283264,0,0,0,0,0,0,0,-1,1595,547,4.57706,-0.283262
378,477,8.57947,1.05969,0,0,0,0,0,0,0,-1,1602,547,8.5795,-1.05972
385,477,12.3726,2.02356,0,0,0,0,0,0,0,-1,1609,547,12.3725,-2.02355
392,477,16.4678,2.76843,0,0,0,0,0,0,0,-1,1616,547,16.4678,-2.76845
399,477,8.00037,-2.29523,0,0,0,0,0,0,0,-1,1623,547,8.00031,2.2952
406,477,4.82495,2.7475,0,0,0,0,0,0,0,-1,1630,547,4.825,-2.74752
413,477,4.88171,-0.336426,0,0,0,0,0,0,0,-1,1637,547,4.88169,0.336398
420,477,3.34875,0.102722,0,0,0,0,0,0,0,-1,1644,547,3.34871,-0.1027
427,477,1.66772,-0.373108,0,0,0,0,0,0,0,-1,1651,547,1.66768,0.373104
434,477,3.76978,-2.30798,0,0,0,0,0,0,0,-1,1658,547,3.76974,2.30801
441,477,4.05444,-2.80402,0,0,0,0,0,0,0,-1,1665,547,4.05444,2.804
448,477,10.4247,-11.7421,0,0,0,0,0,0,0,-1,1672,547,10.4247,11.7421
455,477,13.3054,-16.8109,0,0,0,0,0,0,0,-1,1679,547,13.3054,16.8109
462,477,13.5315,-17.0442,0,0,0,0,0,0,0,-1,1686,547,13.5315,17.0442
469,477,13.5815,-16.4122,0.00245032,0.00055523,-0.000712263,0.00268817,0.00031738,-0.322292,0.00169625,0.039178,1693,547,13.5816,16.4122
476,477,13.5344,-15.9351,0.00254594,0.000717408,-0.00026902,0.0025847,0.00067865,-0.143085,0.00154735,0.0214162,1700,547,13.5344,15.935
483,477,13.5634,-15.4163,0.00242946,0.000720093,0.000135396,0.00244012,0.000709435,0.078555,0.00144935,0.0126004,1707,547,13.5634,15.4163
490,477,13.5288,-14.8961,0.0020907,0.00081695,0.000348954,0.00218004,0.000727616,0.25062,0.00128162,0.0120955,1714,547,13.5288,14.8961
497,477,13.4838,-14.3393,0.00169543,0.00100979,0.000657004,0.00209368,0.000611545,0.544932,0.00124313,0.0132802,1721,547,13.4838,14.3393
504,477,13.4769,-13.8141,0.00115091,0.000810207,0.000777392,0.0017764,0.000184721,0.677537,0.00112774,0.017921,1728,547,13.477,13.8141
511,477,13.527,-13.3347,0.000411986,0.000644763,0.000783884,0.00132085,-0.000264103,0.859098,0.000980531,0.0224264,1735,547,13.5269,13.3347
518,477,13.4991,-12.7946,-0.000536938,0.000459828,0.000643811,0.000775618,-0.000852728,1.11478,0.000940478,0.020349,1742,547,13.4992,12.7945
525,477,13.4285,-12.2363,-0.00152099,0.000158276,0.000400365,0.000248845,-0.00161156,1.34832,0.0011662,0.017783,1749,547,13.4284,12.2363
532,477,13.4166,-11.7203,-0.00260734,-6.89148e-05,0.000117648,-6.34738e-05,-0.00261278,1.52458,0.00172108,0.0193673,1756,547,13.4166,11.7203
539,477,13.41,-11.1062,-0.00379492,-0.00037508,-0.000264109,-0.000354804,-0.00381519,-1.49417,0.00243383,0.0176407,1763,547,13.41,11.1062
546,477,13.3293,-10.5939,-0.00515425,-0.000779863,-0.000777405,-0.000645812,-0.0052883,-1.40004,0.00333119,0.0361637,1770,547,13.3294,10.594
553,477,13.3849,-9.94629,0,0,0,0,0,0,0,-1,1777,547,13.3848,9.94629
560,477,13.283,-8.92719,0,0,0,0,0,0,0,-1,1784,547,13.2829,8.92719
567,477,13.3849,-8.70111,0,0,0,0,0,0,0,-1,1791,547,13.3849,8.70111
574,477,6.82593,-0.916992,0,0,0,0,0,0,0,-1,1798,547,6.82598,0.916977
581,477,9.29321,-0.557007,0,0,0,0,0,0,0,-1,1805,547,9.29324,0.55703
588,477,9.75195,0.422729,0,0,0,0,0,0,0,-1,1812,547,9.75198,-0.42273
595,477,9.89172,1.21326,0,0,0,0,0,0,0,-1,1819,547,9.89174,-1.21328
602,477,6.5271,-0.964417,0,0,0,0,0,0,0,-1,1826,547,6.52706,0.964427
609,477,0,0,0,0,0,0,0,0,0,-1,1833,547,0,0
616,477,0,0,0,0,0,0,0,0,0,-1,1840,547,0,0
623,477,0,0,0,0,0,0,0,0,0,-1,1847,547,0,0
630,477,0,0,0,0,0,0,0,0,0,-1,1854,547,0,0
637,477,0,0,0,0,0,0,0,0,0,-1,1861,547,0,0
644,477,0,0,0,0,0,0,0,0,0,-1,1868,547,0,0
651,477,0,0,0,0,0,0,0,0,0,-1,1875,547,0,0
658,477,0,0,0,0,0,0,0,0,0,-1,1882,547,0,0
665,477,0,0,0,0,0,0,0,0,0,-1,1889,547,0,0
672,477,0,0,0,0,0,0,0,0,0,-1,1896,547,0,0
679,477,0,0,0,0,0,0,0,0,0,-1,1903,547,0,0
686,477,0,0,0,0,0,0,0,0,0,-1,1910,547,0,0
693,477,0,0,0,0,0,0,0,0,0,-1,1917,547,0,0
700,477,0,0,0,0,0,0,0,0,0,-1,1924,547,0,0
707,477,0,0,0,0,0,0,0,0,0,-1,1931,547,0,0
714,477,0,0,0,0,0,0,0,0,0,-1,1938,547,0,0
721,477,0,0,0,0,0,0,0,0,0,-1,1945,547,0,0
728,477,0,0,0,0,0,0,0,0,0,-1,1952,547,0,0
735,477,0,0,0,0,0,0,0,0,0,-1,1959,547,0,0
742,477,0,0,0,0,0,0,0,0,0,-1,1966,547,0,0
749,477,0,0,0,0,0,0,0,0,0,-1,1973,547,0,0
756,477,0,0,0,0,0,0,0,0,0,-1,1980,547,0,0
763,477,0,0,0,0,0,0,0,0,0,-1,1987,547,0,0
770,477,0,0,0,0,0,0,0,0,0,-1,1994,547,0,0
777,477,0,0,0,0,0,0,0,0,0,-1,2001,547,0,0
784,477,0,0,0,0,0,0,0,0,0,-1,2008,547,0,0
791,477,0,0,0,0,0,0,0,0,0,-1,2015,547,0,0
798,477,0,0,0,0,0,0,0,0,0,-1,2022,547,0,0
805,477,0,0,0,0,0,0,0,0,0,-1,2029,547,0,0
812,477,0,0,0,0,0,0,0,0,0,-1,2036,547,0,0
-700,470,0,0,0,0,0,0,0,0,0,-1,524,554,0,0
-693,470,0,0,0,0,0,0,0,0,0,-1,531,554,0,0
-686,470,0,0,0,0,0,0,0,0,0,-1,538,554,0,0
-679,470,0,0,0,0,0,0,0,0,0,-1,545,554,0,0
-672,470,0,0,0,0,0,0,0,0,0,-1,552,554,0,0
-665,470,0,0,0,0,0,0,0,0,0,-1,559,554,0,0
-658,470,0,0,0,0,0,0,0,0,0,-1,566,554,0,0
-651,470,0,0,0,0,0,0,0,0,0,-1,573,554,0,0
-644,470,0,0,0,0,0,0,0,0,0,-1,580,554,0,0
-637,470,0,0,0,0,0,0,0,0,0,-1,587,554,0,0
-630,470,0,0,0,0,0,0,0,0,0,-1,594,554,0,0
-623,470,0,0,0,0,0,0,0,0,0,-1,601,554,0,0
-616,470,0,0,0,0,0,0,0,0,0,-1,608,554,0,0
-609,470,0,0,0,0,0,0,0,0,0,-1,615,554,0,0
-602,470,0,0,0,0,0,0,0,0,0,-1,622,554,0,0
-595,470,0,0,0,0,0,0,0,0,0,-1,629,554,0,0
-588,470,0,0,0,0,0,0,0,0,0,-1,636,554,0,0
-581,470,0,0,0,0,0,0,0,0,0,-1,643,554,0,0
-574,470,0,0,0,0,0,0,0,0,0,-1,650,554,0,0
-567,470,0,0,0,0,0,0,0,0,0,-1,657,554,0,0
-560,470,0,0,0,0,0,0,0,0,0,-1,664,554,0,0
-553,470,0,0,0,0,0,0,0,0,0,-1,671,554,0,0
-546,470,0,0,0,0,0,0,0,0,0,-1,678,554,0,0
-539,470,0,0,0,0,0,0,0,0,0,-1,685,554,0,0
-532,470,0,0,0,0,0,0,0,0,0,-1,692,554,0,0
-525,470,0,0,0,0,0,0,0,0,0,-1,699,554,0,0
-518,470,0,0,0,0,0,0,0,0,0,-1,706,554,0,0
-511,470,0,0,0,0,0,0,0,0,0,-1,713,554,0,0
-504,470,0,0,0,0,0,0,0,0,0,-1,720,554,0,0
-497,470,0,0,0,0,0,0,0,0,0,-1,727,554,0,0
-490,470,-9.13263,-1.03125,0,0,0,0,0,0,0,-1,734,554,-9.1326,1.03127
-483,470,-7.68677,-1.03955,0,0,0,0,0,0,0,-1,741,554,-7.68678,1.03958
-476,470,-6.17969,-1.03394,0,0,0,0,0,0,0,-1,748,554,-6.17971,1.03395
-469,470,-6.23016,-0.651855,0,0,0,0,0,0,0,-1,755,554,-6.23014,0.651829
-462,470,-4.87915,-1.03705,0,0,0,0,0,0,0,-1,762,554,-4.87914,1.03702
-455,470,-4.14777,-1.37079,0,0,0,0,0,0,0,-1,769,554,-4.14779,1.37078
-448,470,-2.9314,-5.74518,0,0,0,0,0,0,0,-1,776,554,-2.93137,5.74518
-441,470,-4.16986,-10.464,0,0,0,0,0,0,0,-1,783,554,-4.16985,10.464
-434,470,-4.23572,-11.0825,-0.00308022,0.00953596,-0.00225051,0.00992539,-0.00346965,-1.39945,0.00802744,0.0459139,790,554,-4.23572,11.0824
-427,470,-4.49554,-11.5066,-0.00240899,0.00806358,-0.00208623,0.00846387,-0.00280929,-1.38123,0.00677599,0.0210379,797,554,-4.49556,11.5066
-420,470,-4.4715,-12.0889,-0.00180306,0.00666733,-0.0019223,0.00708317,-0.0022189,-1.35776,0.00560998,0.0154024,804,554,-4.47152,12.0889
-413,470,-4.49146,-12.6566,-0.00126945,0.00525393,-0.00165716,0.00565076,-0.00166628,-1.33576,0.00442836,0.012817,811,554,-4.49147,12.6566
-406,470,-4.52161,-13.1728,-0.000757121,0.00418688,-0.00145823,0.00458494,-0.00115518,-1.30432,0.00350571,0.0104537,818,554,-4.52164,13.1728
-399,470,-4.53033,-13.6968,-0.000300719,0.00318129,-0.00119709,0.00355313,-0.000672559,-1.26962,0.00262185,0.0143522,825,554,-4.53034,13.6969
-392,470,-4.53668,-14.2117,0.000207425,0.00217272,-0.000922673,0.00253801,-0.00015786,-1.19383,0.001747,0.0144831,832,554,-4.5367,14.2117
-385,470,-4.5556,-14.7001,0.000808611,0.00129367,-0.000685852,0.00177861,0.000323669,-0.955344,0.00109393,0.0108271,839,554,-4.55559,14.7002
-378,470,-4.57166,-15.211,0.00144864,0.000467762,-0.000464138,0.00163345,0.000282957,-0.378926,0.00100797,0.0149841,846,554,-4.57168,15.211
-371,470,-4.59229,-15.7031,0.00203613,-0.00036104,-0.000196543,0.00205214,-0.000377048,-0.0812665,0.00150955,0.0133997,853,554,-4.59228,15.7031
-364,470,-4.62341,-16.1752,0.00263511,-0.0010991,6.12561e-05,0.00263611,-0.00110011,0.0163982,0.00221704,0.0139913,860,554,-4.62341,16.1752
-357,470,-4.6463,-16.684,0.00334808,-0.00176153,0.000235425,0.00335891,-0.00177235,0.0459452,0.00300937,0.0149898,867,554,-4.64632,16.684
-350,470,-4.6181,-17.1978,0.0041671,-0.00236625,0.000245911,0.00417635,-0.0023755,0.0375685,0.00383004,0.0112433,874,554,-4.61807,17.1978
-343,470,-4.52856,-17.6405,0.00500144,-0.00288899,0.000216799,0.00500739,-0.00289494,0.0274486,0.00461644,0.0370088,881,554,-4.52858,17.6405
-336,470,-4.40076,-18.2762,0,0,0,0,0,0,0,-1,888,554,-4.40076,18.2762
-329,470,-2.78516,-12.3594,0,0,0,0,0,0,0,-1,895,554,-2.78517,12.3594
-322,470,-2.30829,-11.4527,0,0,0,0,0,0,0,-1,902,554,-2.30827,11.4527
-315,470,-1.04797,-8.29529,0,0,0,0,0,0,0,-1,909,554,-1.04797,8.29526
-308,470,-1.39368,-6.68152,0,0,0,0,0,0,0,-1,916,554,-1.39369,6.68149
-301,470,-0.0340576,3.34888,0,0,0,0,0,0,0,-1,923,554,-0.0340496,-3.3489
-294,470,-1.18378,3.22266,0,0,0,0,0,0,0,-1,930,554,-1.18376,-3.22268
-287,470,-2.15454,3.2204,0,0,0,0,0,0,0,-1,937,554,-2.15452,-3.22037
-280,470,-3.00537,3.099,0,0,0,0,0,0,0,-1,944,554,-3.00536,-3.09898
-273,470,-12.3932,3.65009,0,0,0,0,0,0,0,-1,951,554,-12.3932,-3.65011
-266,470,-11.5706,1.16028,0,0,0,0,0,0,0,-1,958,554,-11.5706,-1.16031
-259,470,-7.50415,-2.77167,0,0,0,0,0,0,0,-1,965,554,-7.50413,2.7717
-252,470,-0.371155,-5.87823,0,0,0,0,0,0,0,-1,972,554,-0.37114,5.87821
-245,470,1.33221,-6.81122,0,0,0,0,0,0,0,-1,979,554,1.33223,6.8112
-238,470,0,0,0,0,0,0,0,0,0,-1,986,554,0,0
-231,470,0,0,0,0,0,0,0,0,0,-1,993,554,0,0
-224,470,0,0,0,0,0,0,0,0,0,-1,1000,554,0,0
-217,470,0,0,0,0,0,0,0,0,0,-1,1007,554,0,0
-210,470,0,0,0,0,0,0,0,0,0,-1,1014,554,0,0
-203,470,0,0,0,0,0,0,0,0,0,-1,1021,554,0,0
-196,470,0,0,0,0,0,0,0,0,0,-1,1028,554,0,0
-189,470,0,0,0,0,0,0,0,0,0,-1,1035,554,0,0
-182,470,0,0,0,0,0,0,0,0,0,-1,1042,554,0,0
-175,470,0,0,0,0,0,0,0,0,0,-1,1049,554,0,0
-168,470,0,0,0,0,0,0,0,0,0,-1,1056,554,0,0
-161,470,0,0,0,0,0,0,0,0,0,-1,1063,554,0,0
-154,470,0,0,0,0,0,0,0,0,0,-1,1070,554,0,0
-147,470,0,0,0,0,0,0,0,0,0,-1,1077,554,0,0
-140,470,0,0,0,0,0,0,0,0,0,-1,1084,554,0,0
-133,470,0,0,0,0,0,0,0,0,0,-1,1091,554,0,0
-126,470,0,0,0,0,0,0,0,0,0,-1,1098,554,0,0
-119,470,0,0,0,0,0,0,0,0,0,-1,1105,554,0,0
-112,470,0,0,0,0,0,0,0,0,0,-1,1112,554,0,0
-105,470,0,0,0,0,0,0,0,0,0,-1,1119,554,0,0
-98,470,0,0,0,0,0,0,0,0,0,-1,1126,554,0,0
-91,470,0,0,0,0,0,0,0,0,0,-1,1133,554,0,0
-84,470,0,0,0,0,0,0,0,0,0,-1,1140,554,0,0
-77,470,0,0,0,0,0,0,0,0,0,-1,1147,554,0,0
-70,470,0,0,0,0,0,0,0,0,0,-1,1154,554,0,0
-63,470,0,0,0,0,0,0,0,0,0,-1,1161,554,0,0
-56,470,0,0,0,0,0,0,0,0,0,-1,1168,554,0,0
-49,470,0,0,0,0,0,0,0,0,0,-1,1175,554,0,0
-42,470,0,0,0,0,0,0,0,0,0,-1,1182,554,0,0
-35,470,0,0,0,0,0,0,0,0,0,-1,1189,554,0,0
-28,470,0,0,0,0,0,0,0,0,0,-1,1196,554,0,0
-21,470,0,0,0,0,0,0,0,0,0,-1,1203,554,0,0
-14,470,0,0,0,0,0,0,0,0,0,-1,1210,554,0,0
-7,470,0,0,0,0,0,0,0,0,0,-1,1217,554,0,0
0,470,0,0,0,0,0,0,0,0,0,-1,1224,554,0,0
7,470,0,0,0,0,0,0,0,0,0,-1,1231,554,0,0
14,470,0,0,0,0,0,0,0,0,0,-1,1238,554,0,0
21,470,0,0,0,0,0,0,0,0,0,-1,1245,554,0,0
28,470,0,0,0,0,0,0,0,0,0,-1,1252,554,0,0
35,470,0,0,0,0,0,0,0,0,0,-1,1259,554,0,0
42,470,0,0,0,0,0,0,0,0,0,-1,1266,554,0,0
49,470,0,0,0,0,0,0,0,0,0,-1,1273,554,0,0
56,470,0,0,0,0,0,0,0,0,0,-1,1280,554,0,0
63,470,0,0,0,0,0,0,0,0,0,-1,1287,554,0,0
70,470,0,0,0,0,0,0,0,0,0,-1,1294,554,0,0
77,470,0,0,0,0,0,0,0,0,0,-1,1301,554,0,0
84,470,0,0,0,0,0,0,0,0,0,-1,1308,554,0,0
91,470,0,0,0,0,0,0,0,0,0,-1,1315,554,0,0
98,470,0,0,0,0,0,0,0,0,0,-1,1322,554,0,0
105,470,0,0,0,0,0,0,0,0,0,-1,1329,554,0,0
112,470,0,0,0,0,0,0,0,0,0,-1,1336,554,0,0
119,470,0,0,0,0,0,0,0,0,0,-1,1343,554,0,0
126,470,0,0,0,0,0,0,0,0,0,-1,1350,554,0,0
133,470,0,0,0,0,0,0,0,0,0,-1,1357,554,0,0
140,470,0,0,0,0,0,0,0,0,0,-1,1364,554,0,0
147,470,0,0,0,0,0,0,0,0,0,-1,1371,554,0,0
154,470,0,0,0,0,0,0,0,0,0,-1,1378,554,0,0
161,470,0,0,0,0,0,0,0,0,0,-1,1385,554,0,0
168,470,0,0,0,0,0,0,0,0,0,-1,1392,554,0,0
175,470,0,0,0,0,0,0,0,0,0,-1,1399,554,0,0
182,470,0,0,0,0,0,0,0,0,0,-1,1406,554,0,0
189,470,0,0,0,0,0,0,0,0,0,-1,1413,554,0,0
196,470,0,0,0,0,0,0,0,0,0,-1,1420,554,0,0
203,470,0,0,0,0,0,0,0,0,0,-1,1427,554,0,0
210,470,0,0,0,0,0,0,0,0,0,-1,1434,554,0,0
217,470,0,0,0,0,0,0,0,0,0,-1,1441,554,0,0
224,470,0,0,0,0,0,0,0,0,0,-1,1448,554,0,0
231,470,0,0,0,0,0,0,0,0,0,-1,1455,554,0,0
238,470,0,0,0,0,0,0,0,0,0,-1,1462,554,0,0
245,470,0,0,0,0,0,0,0,0,0,-1,1469,554,0,0
252,470,0,0,0,0,0,0,0,0,0,-1,1476,554,0,0
259,470,0,0,0,0,0,0,0,0,0,-1,1483,554,0,0
266,470,0,0,0,0,0,0,0,0,0,-1,1490,554,0,0
273,470,0,0,0,0,0,0,0,0,0,-1,1497,554,0,0
280,470,0,0,0,0,0,0,0,0,0,-1,1504,554,0,0
287,470,0,0,0,0,0,0,0,0,0,-1,1511,554,0,0
294,470,0,0,0,0,0,0,0,0,0,-1,1518,554,0,0
301,470,0,0,0,0,0,0,0,0,0,-1,1525,554,0,0
308,470,0,0,0,0,0,0,0,0,0,-1,1532,554,0,0
315,470,0,0,0,0,0,0,0,0,0,-1,1539,554,0,0
322,470,0,0,0,0,0,0,0,0,0,-1,1546,554,0,0
329,470,0,0,0,0,0,0,0,0,0,-1,1553,554,0,0
336,470,0,0,0,0,0,0,0,0,0,-1,1560,554,0,0
343,470,0,0,0,0,0,0,0,0,0,-1,1567,554,0,0
350,470,0,0,0,0,0,0,0,0,0,-1,1574,554,0,0
357,470,0,0,0,0,0,0,0,0,0,-1,1581,554,0,0
364,470,1.33423,0.293335,0,0,0,0,0,0,0,-1,1588,554,1.33422,-0.293348
371,470,2.22498,-0.0305176,0,0,0,0,0,0,0,-1,1595,554,2.22494,0.0305046
378,470,6.27051,0.710083,0,0,0,0,0,0,0,-1,1602,554,6.27054,-0.710093
385,470,10.3657,1.47296,0,0,0,0,0,0,0,-1,1609,554,10.3657,-1.47299
392,470,15.3881,3.01935,0,0,0,0,0,0,0,-1,1616,554,15.388,-3.01937
399,470,18.4479,2.93793,0,0,0,0,0,0,0,-1,1623,554,18.4479,-2.93792
406,470,15.1896,1.36676,0,0,0,0,0,0,0,-1,1630,554,15.1896,-1.36679
413,470,6.55383,1.99207,0,0,0,0,0,0,0,-1,1637,554,6.5538,-1.99208
420,470,4.47095,0.845703,0,0,0,0,0,0,0,-1,1644,554,4.47098,-0.845718
427,470,3.51038,1.19684,0,0,0,0,0,0,0,-1,1651,554,3.51039,-1.19684
434,470,3.31775,-1.37427,0,0,0,0,0,0,0,-1,1658,554,3.31781,1.37426
441,470,2.55457,-2.05902,0,0,0,0,0,0,0,-1,1665,554,2.55461,2.05904
448,470,3.27258,-2.64032,0,0,0,0,0,0,0,-1,1672,554,3.27257,2.64029
455,470,10.3658,-9.82233,0,0,0,0,0,0,0,-1,1679,554,10.3659,9.82233
462,470,11.0651,-11.9958,0,0,0,0,0,0,0,-1,1686,554,11.0651,11.9958
469,470,13.8132,-16.6532,0,0,0,0,0,0,0,-1,1693,554,13.8133,16.6532
476,470,13.9594,-15.9337,0.00366686,0.000595839,-0.000108779,0.00367071,0.000591991,-0.035362,0.00227563,0.0478775,1700,554,13.9593,15.9337
483,470,14.064,-15.3973,0.00358165,0.000700837,0.00038346,0.00363182,0.000650669,0.130091,0.0022361,0.0172184,1707,554,14.064,15.3973
490,470,14.031,-14.8746,0.00319904,0.000961396,0.000591752,0.0033459,0.000814544,0.243252,0.00201474,0.0125464,1714,554,14.0309,14.8746
497,470,14.0306,-14.3419,0.00271167,0.00126196,0.000882352,0.00312872,0.000844901,0.44154,0.00186896,0.0122593,1721,554,14.0307,14.3419
504,470,14.0337,-13.8367,0.0020652,0.0011178,0.000939472,0.00264364,0.00053936,0.551889,0.00161299,0.0183727,1728,554,14.0337,13.8367
511,470,14.0469,-13.3189,0.00126539,0.00100282,0.000893434,0.00203714,0.00023108,0.712448,0.00128799,0.0257178,1735,554,14.0468,13.3189
518,470,14.0355,-12.7717,0.000310476,0.000859822,0.000735643,0.0013704,-0.0002001,0.964072,0.000987083,0.0261483,1742,554,14.0355,12.7717
525,470,13.9888,-12.1974,-0.000658001,0.000597694,0.000488143,0.00076513,-0.000825437,1.24037,0.000918534,0.0167265,1749,554,13.9888,12.1974
532,470,13.9548,-11.6423,-0.00170835,0.000379487,0.000202732,0.00039899,-0.00172786,1.47489,0.00130539,0.0148788,1756,554,13.9548,11.6423
539,470,13.9379,-11.0872,-0.00279813,7.74326e-05,-0.000142935,8.45201e-05,-0.00280522,-1.52125,0.00189895,0.0169565,1763,554,13.9379,11.0872
546,470,13.9225,-10.5576,-0.00400426,-0.00031961,-0.000601288,-0.00022397,-0.0040999,-1.41306,0.00266175,0.0143624,1770,554,13.9225,10.5576
553,470,13.9297,-9.98962,-0.00531844,-0.000555117,-0.00109416,-0.000315807,-0.00555775,-1.35547,0.00360451,0.0208912,1777,554,13.9296,9.98962
560,470,13.9075,-9.3717,-0.00660431,-0.000885539,-0.0016351,-0.000451048,-0.00703881,-1.31107,0.00454965,0.036234,1784,554,13.9074,9.37168
567,470,13.7235,-8.87665,-0.00797585,-0.00137787,-0.00223905,-0.00068979,-0.00866393,-1.27265,0.0055603,0.0284325,1791,554,13.7235,8.87668
574,470,13.7382,-8.09552,0,0,0,0,0,0,0,-1,1798,554,13.7381,8.0955
581,470,8.24646,-4.06317,0,0,0,0,0,0,0,-1,1805,554,8.24648,4.06318
588,470,11.1803,1.74927,0,0,0,0,0,0,0,-1,1812,554,11.1803,-1.74926
595,470,4.72192,3.44116,0,0,0,0,0,0,0,-1,1819,554,4.72191,-3.44116
602,470,14.4307,2.76141,0,0,0,0,0,0,0,-1,1826,554,14.4306,-2.76139
609,470,20.9181,4.41058,0,0,0,0,0,0,0,-1,1833,554,20.9181,-4.4106
616,470,0,0,0,0,0,0,0,0,0,-1,1840,554,0,0
623,470,0,0,0,0,0,0,0,0,0,-1,1847,554,0,0
630,470,0,0,0,0,0,0,0,0,0,-1,1854,554,0,0
637,470,0,0,0,0,0,0,0,0,0,-1,1861,554,0,0
644,470,0,0,0,0,0,0,0,0,0,-1,1868,554,0,0
651,470,0,0,0,0,0,0,0,0,0,-1,1875,554,0,0
658,470,0,0,0,0,0,0,0,0,0,-1,1882,554,0,0
665,470,0,0,0,0,0,0,0,0,0,-1,1889,554,0,0
672,470,0,0,0,0,0,0,0,0,0,-1,1896,554,0,0
679,470,0,0,0,0,0,0,0,0,0,-1,1903,554,0,0
686,470,0,0,0,0,0,0,0,0,0,-1,1910,554,0,0
693,470,0,0,0,0,0,0,0,0,0,-1,1917,554,0,0
700,470,0,0,0,0,0,0,0,0,0,-1,1924,554,0,0
707,470,0,0,0,0,0,0,0,0,0,-1,1931,554,0,0
714,470,0,0,0,0,0,0,0,0,0,-1,1938,554,0,0
721,470,0,0,0,0,0,0,0,0,0,-1,1945,554,0,0
728,470,0,0,0,0,0,0,0,0,0,-1,1952,554,0,0
735,470,0,0,0,0,0,0,0,0,0,-1,1959,554,0,0
742,470,0,0,0,0,0,0,0,0,0,-1,1966,554,0,0
749,470,0,0,0,0,0,0,0,0,0,-1,1973,554,0,0
756,470,0,0,0,0,0,0,0,0,0,-1,1980,554,0,0
763,470,0,0,0,0,0,0,0,0,0,-1,1987,554,0,0
770,470,0,0,0,0,0,0,0,0,0,-1,1994,554,0,0
777,470,0,0,0,0,0,0,0,0,0,-1,2001,554,0,0
784,470,0,0,0,0,0,0,0,0,0,-1,2008,554,0,0
791,470,0,0,0,0,0,0,0,0,0,-1,2015,554,0,0
798,470,0,0,0,0,0,0,0,0,0,-1,2022,554,0,0
805,470,0,0,0,0,0,0,0,0,0,-1,2029,554,0,0
812,470,0,0,0,0,0,0,0,0,0,-1,2036,554,0,0
-700,463,0,0,0,0,0,0,0,0,0,-1,524,561,0,0
-693,463,0,0,0,0,0,0,0,0,0,-1,531,561,0,0
-686,463,0,0,0,0,0,0,0,0,0,-1,538,561,0,0
-679,463,0,0,0,0,0,0,0,0,0,-1,545,561,0,0
-672,463,0,0,0,0,0,0,0,0,0,-1,552,561,0,0
-665,463,0,0,0,0,0,0,0,0,0,-1,559,561,0,0
-658,463,0,0,0,0,0,0,0,0,0,-1,566,561,0,0
-651,463,0,0,0,0,0,0,0,0,0,-1,573,561,0,0
-644,463,0,0,0,0,0,0,0,0,0,-1,580,561,0,0
-637,463,0,0,0,0,0,0,0,0,0,-1,587,561,0,0
-630,463,0,0,0,0,0,0,0,0,0,-1,594,561,0,0
-623,463,0,0,0,0,0,0,0,0,0,-1,601,561,0,0
-616,463,0,0,0,0,0,0,0,0,0,-1,608,561,0,0
-609,463,0,0,0,0,0,0,0,0,0,-1,615,561,0,0
-602,463,0,0,0,0,0,0,0,0,0,-1,622,561,0,0
-595,463,0,0,0,0,0,0,0,0,0,-1,629,561,0,0
-588,463,0,0,0,0,0,0,0,0,0,-1,636,561,0,0
-581,463,0,0,0,0,0,0,0,0,0,-1,643,561,0,0
-574,463,0,0,0,0,0,0,0,0,0,-1,650,561,0,0
-567,463,0,0,0,0,0,0,0,0,0,-1,657,561,0,0
-560,463,0,0,0,0,0,0,0,0,0,-1,664,561,0,0
-553,463,0,0,0,0,0,0,0,0,0,-1,671,561,0,0
-546,463,0,0,0,0,0,0,0,0,0,-1,678,561,0,0
-539,463,0,0,0,0,0,0,0,0,0,-1,685,561,0,0
-532,463,0,0,0,0,0,0,0,0,0,-1,692,561,0,0
-525,463,0,0,0,0,0,0,0,0,0,-1,699,561,0,0
-518,463,0,0,0,0,0,0,0,0,0,-1,706,561,0,0
-511,463,0,0,0,0,0,0,0,0,0,-1,713,561,0,0
-504,463,0,0,0,0,0,0,0,0,0,-1,720,561,0,0
-497,463,-9.81451,-1.67126,0,0,0,0,0,0,0,-1,727,561,-9.81452,1.67127
-490,463,-8.57043,-1.58942,0,0,0,0,0,0,0,-1,734,561,-8.57045,1.58944
-483,463,-7.29224,-1.7226,0,0,0,0,0,0,0,-1,741,561,-7.29226,1.72261
-476,463,-5.77704,-1.7312,0,0,0,0,0,0,0,-1,748,561,-5.77703,1.73121
-469,463,-5.14545,-2.138,0,0,0,0,0,0,0,-1,755,561,-5.14546,2.13799
-462,463,-3.13672,-3.07977,0,0,0,0,0,0,0,-1,762,561,-3.13672,3.07974
-455,463,-2.91406,-5.61798,0,0,0,0,0,0,0,-1,769,561,-2.91406,5.61801
-448,463,-4.00177,-8.54681,0,0,0,0,0,0,0,-1,776,561,-4.00175,8.54683
-441,463,-5.06012,-10.3431,0,0,0,0,0,0,0,-1,783,561,-5.06011,10.3431
-434,463,-4.9707,-11.0114,-0.00196885,0.00767822,-0.00215991,0.00813973,-0.00243036,-1.36029,0.00639251,0.0254574,790,561,-4.97069,11.0114
-427,463,-4.97931,-11.5554,-0.00153056,0.00633512,-0.00181767,0.00673485,-0.00193029,-1.35433,0.00525291,0.0107567,797,561,-4.97931,11.5554
-420,463,-4.97229,-12.0871,-0.00109852,0.00510228,-0.00154439,0.00546564,-0.00146188,-1.33972,0.00421639,0.0101066,804,561,-4.97228,12.0871
-413,463,-4.99414,-12.6269,-0.000729036,0.00378671,-0.00117307,0.00407326,-0.00101558,-1.33122,0.00310981,0.00936354,811,561,-4.99412,12.6269
-406,463,-5.01868,-13.158,-0.000338128,0.00282794,-0.00090775,0.00306974,-0.000579924,-1.31047,0.00226469,0.00940482,818,561,-5.0187,13.158
-399,463,-5.02539,-13.6616,6.40344e-05,0.00194011,-0.000624621,0.00212904,-0.0001249,-1.27707,0.00146277,0.0107926,825,561,-5.02541,13.6616
-392,463,-5.04944,-14.1709,0.000543142,0.00104723,-0.000351786,0.00122795,0.000362428,-1.09625,0.000728519,0.0104361,832,561,-5.04944,14.1709
-385,463,-5.07959,-14.6905,0.00112604,0.000305798,-0.000136948,0.0011483,0.000283538,-0.161139,0.000690701,0.0110246,839,561,-5.07957,14.6905
-378,463,-5.08893,-15.1963,0.00174742,-0.000399818,7.62336e-05,0.00175012,-0.000402521,0.0354436,0.00132152,0.0122748,846,561,-5.08891,15.1963
-371,463,-5.09344,-15.7129,0.00238854,-0.00104465,0.000294757,0.00241366,-0.00106978,0.085026,0.00206045,0.0118259,853,561,-5.09342,15.7129
-364,463,-5.10217,-16.1743,0.00311724,-0.00154225,0.000448411,0.00316,-0.00158501,0.0950734,0.00278938,0.0144902,860,561,-5.1022,16.1742
-357,463,-5.14764,-16.6501,0.00398362,-0.00205079,0.000506267,0.0040258,-0.00209296,0.0831224,0.00359094,0.0203906,867,561,-5.14767,16.6501
-350,463,-5.04095,-17.1851,0.00501412,-0.00252677,0.000361379,0.0050314,-0.00254404,0.0477767,0.00445158,0.0362139,874,561,-5.04098,17.185
-343,463,-4.83392,-17.5068,0,0,0,0,0,0,0,-1,881,561,-4.83394,17.5069
-336,463,-2.94928,-12.2127,0,0,0,0,0,0,0,-1,888,561,-2.94925,12.2127
-329,463,-2.64307,-12.7037,0,0,0,0,0,0,0,-1,895,561,-2.64307,12.7038
-322,463,-1.82898,-9.11957,0,0,0,0,0,0,0,-1,902,561,-1.829,9.11957
-315,463,-0.944763,-5.96234,0,0,0,0,0,0,0,-1,909,561,-0.94479,5.96237
-308,463,-1.1535,-3.17889,0,0,0,0,0,0,0,-1,916,561,-1.15352,3.17889
-301,463,-1.50366,-3.15338,0,0,0,0,0,0,0,-1,923,561,-1.50364,3.15341
-294,463,-2.35889,-3.93463,0,0,0,0,0,0,0,-1,930,561,-2.35886,3.93465
-287,463,-2.80322,2.73999,0,0,0,0,0,0,0,-1,937,561,-2.80322,-2.74
-280,463,-12.864,5.25146,0,0,0,0,0,0,0,-1,944,561,-12.864,-5.25149
-273,463,-12.4598,3.39178,0,0,0,0,0,0,0,-1,951,561,-12.4598,-3.3918
-266,463,-8.78101,-3.7356,0,0,0,0,0,0,0,-1,958,561,-8.78098,3.73562
-259,463,-6.23285,-5.68842,0,0,0,0,0,0,0,-1,965,561,-6.23288,5.68843
-252,463,0,0,0,0,0,0,0,0,0,-1,972,561,0,0
-245,463,0,0,0,0,0,0,0,0,0,-1,979,561,0,0
-238,463,0,0,0,0,0,0,0,0,0,-1,986,561,0,0
-231,463,0,0,0,0,0,0,0,0,0,-1,993,561,0,0
-224,463,0,0,0,0,0,0,0,0,0,-1,1000,561,0,0
-217,463,0,0,0,0,0,0,0,0,0,-1,1007,561,0,0
-210,463,0,0,0,0,0,0,0,0,0,-1,1014,561,0,0
-203,463,0,0,0,0,0,0,0,0,0,-1,1021,561,0,0
-196,463,0,0,0,0,0,0,0,0,0,-1,1028,561,0,0
-189,463,0,0,0,0,0,0,0,0,0,-1,1035,561,0,0
-182,463,0,0,0,0,0,0,0,0,0,-1,1042,561,0,0
-175,463,0,0,0,0,0,0,0,0,0,-1,1049,561,0,0
-168,463,0,0,0,0,0,0,0,0,0,-1,1056,561,0,0
-161,463,0,0,0,0,0,0,0,0,0,-1,1063,561,0,0
-154,463,0,0,0,0,0,0,0,0,0,-1,1070,561,0,0
-147,463,0,0,0,0,0,0,0,0,0,-1,1077,561,0,0
-140,463,0,0,0,0,0,0,0,0,0,-1,1084,561,0,0
-133,463,0,0,0,0,0,0,0,0,0,-1,1091,561,0,0
-126,463,0,0,0,0,0,0,0,0,0,-1,1098,561,0,0
-119,463,0,0,0,0,0,0,0,0,0,-1,1105,561,0,0
-112,463,0,0,0,0,0,0,0,0,0,-1,1112,561,0,0
-105,463,0,0,0,0,0,0,0,0,0,-1,1119,561,0,0
-98,463,0,0,0,0,0,0,0,0,0,-1,1126,561,0,0
-91,463,0,0,0,0,0,0,0,0,0,-1,1133,561,0,0
-84,463,0,0,0,0,0,0,0,0,0,-1,1140,561,0,0
-77,463,0,0,0,0,0,0,0,0,0,-1,1147,561,0,0
-70,463,0,0,0,0,0,0,0,0,0,-1,1154,561,0,0
-63,463,0,0,0,0,0,0,0,0,0,-1,1161,561,0,0
-56,463,0,0,0,0,0,0,0,0,0,-1,1168,561,0,0
-49,463,0,0,0,0,0,0,0,0,0,-1,1175,561,0,0
-42,463,0,0,0,0,0,0,0,0,0,-1,1182,561,0,0
-35,463,0,0,0,0,0,0,0,0,0,-1,1189,561,0,0
-28,463,0,0,0,0,0,0,0,0,0,-1,1196,561,0,0
-21,463,0,0,0,0,0,0,0,0,0,-1,1203,561,0,0
-14,463,0,0,0,0,0,0,0,0,0,-1,1210,561,0,0
-7,463,0,0,0,0,0,0,0,0,0,-1,1217,561,0,0
0,463,0,0,0,0,0,0,0,0,0,-1,1224,561,0,0
7,463,0,0,0,0,0,0,0,0,0,-1,1231,561,0,0
14,463,0,0,0,0,0,0,0,0,0,-1,1238,561,0,0
21,463,0,0,0,0,0,0,0,0,0,-1,1245,561,0,0
28,463,0,0,0,0,0,0,0,0,0,-1,1252,561,0,0
35,463,0,0,0,0,0,0,0,0,0,-1,1259,561,0,0
42,463,0,0,0,0,0,0,0,0,0,-1,1266,561,0,0
49,463,0,0,0,0,0,0,0,0,0,-1,1273,561,0,0
56,463,0,0,0,0,0,0,0,0,0,-1,1280,561,0,0
63,463,0,0,0,0,0,0,0,0,0,-1,1287,561,0,0
70,463,0,0,0,0,0,0,0,0,0,-1,1294,561,0,0
77,463,0,0,0,0,0,0,0,0,0,-1,1301,561,0,0
84,463,0,0,0,0,0,0,0,0,0,-1,1308,561,0,0
91,463,0,0,0,0,0,0,0,0,0,-1,1315,561,0,0
98,463,0,0,0,0,0,0,0,0,0,-1,1322,561,0,0
105,463,0,0,0,0,0,0,0,0,0,-1,1329,561,0,0
112,463,0,0,0,0,0,0,0,0,0,-1,1336,561,0,0
119,463,0,0,0,0,0,0,0,0,0,-1,1343,561,0,0
126,463,0,0,0,0,0,0,0,0,0,-1,1350,561,0,0
133,463,0,0,0,0,0,0,0,0,0,-1,1357,561,0,0
140,463,0,0,0,0,0,0,0,0,0,-1,1364,561,0,0
147,463,0,0,0,0,0,0,0,0,0,-1,1371,561,0,0
154,463,0,0,0,0,0,0,0,0,0,-1,1378,561,0,0
161,463,0,0,0,0,0,0,0,0,0,-1,1385,561,0,0
168,463,0,0,0,0,0,0,0,0,0,-1,1392,561,0,0
175,463,0,0,0,0,0,0,0,0,0,-1,1399,561,0,0
182,463,0,0,0,0,0,0,0,0,0,-1,1406,561,0,0
189,463,0,0,0,0,0,0,0,0,0,-1,1413,561,0,0
196,463,0,0,0,0,0,0,0,0,0,-1,1420,561,0,0
203,463,0,0,0,0,0,0,0,0,0,-1,1427,561,0,0
210,463,0,0,0,0,0,0,0,0,0,-1,1434,561,0,0
217,463,0,0,0,0,0,0,0,0,0,-1,1441,561,0,0
224,463,0,0,0,0,0,0,0,0,0,-1,1448,561,0,0
231,463,0,0,0,0,0,0,0,0,0,-1,1455,561,0,0
238,463,0,0,0,0,0,0,0,0,0,-1,1462,561,0,0
245,463,0,0,0,0,0,0,0,0,0,-1,1469,561,0,0
252,463,0,0,0,0,0,0,0,0,0,-1,1476,561,0,0
259,463,0,0,0,0,0,0,0,0,0,-1,1483,561,0,0
266,463,0,0,0,0,0,0,0,0,0,-1,1490,561,0,0
273,463,0,0,0,0,0,0,0,0,0,-1,1497,561,0,0
280,463,0,0,0,0,0,0,0,0,0,-1,1504,561,0,0
287,463,0,0,0,0,0,0,0,0,0,-1,1511,561,0,0
294,463,0,0,0,0,0,0,0,0,0,-1,1518,561,0,0
301,463,0,0,0,0,0,0,0,0,0,-1,1525,561,0,0
308,463,0,0,0,0,0,0,0,0,0,-1,1532,561,0,0
315,463,0,0,0,0,0,0,0,0,0,-1,1539,561,0,0
322,463,0,0,0,0,0,0,0,0,0,-1,1546,561,0,0
329,463,0,0,0,0,0,0,0,0,0,-1,1553,561,0,0
336,463,0,0,0,0,0,0,0,0,0,-1,1560,561,0,0
343,463,0,0,0,0,0,0,0,0,0,-1,1567,561,0,0
350,463,0,0,0,0,0,0,0,0,0,-1,1574,561,0,0
357,463,0,0,0,0,0,0,0,0,0,-1,1581,561,0,0
364,463,0,0,0,0,0,0,0,0,0,-1,1588,561,0,0
371,463,1.75842,0.152588,0,0,0,0,0,0,0,-1,1595,561,1.75844,-0.152558
378,463,4.58813,-0.0444336,0,0,0,0,0,0,0,-1,1602,561,4.58809,0.0444505
385,463,8.88574,1.65057,0,0,0,0,0,0,0,-1,1609,561,8.88575,-1.65055
392,463,14.0912,2.50513,0,0,0,0,0,0,0,-1,1616,561,14.0912,-2.5051
399,463,21.4769,2.7002,0,0,0,0,0,0,0,-1,1623,561,21.477,-2.70017
406,463,26.2987,4.32318,0,0,0,0,0,0,0,-1,1630,561,26.2987,-4.3232
413,463,26.5011,2.65222,0,0,0,0,0,0,0,-1,1637,561,26.5011,-2.65224
420,463,8.849,2.26611,0,0,0,0,0,0,0,-1,1644,561,8.84899,-2.26613
427,463,5.12207,1.69183,0,0,0,0,0,0,0,-1,1651,561,5.12206,-1.69184
434,463,4.59814,1.81995,0,0,0,0,0,0,0,-1,1658,561,4.59812,-1.81994
441,463,1.76392,-5.99225,0,0,0,0,0,0,0,-1,1665,561,1.7639,5.99225
448,463,2.49939,-4.30536,0,0,0,0,0,0,0,-1,1672,561,2.49941,4.30536
455,463,4.40295,-3.02557,0,0,0,0,0,0,0,-1,1679,561,4.40299,3.02558
462,463,5.38293,-4.06445,0,0,0,0,0,0,0,-1,1686,561,5.38289,4.06444
469,463,5.94373,-4.50647,0,0,0,0,0,0,0,-1,1693,561,5.94368,4.50646
476,463,14.2999,-16.2153,0,0,0,0,0,0,0,-1,1700,561,14.3,16.2153
483,463,14.5524,-15.4451,0,0,0,0,0,0,0,-1,1707,561,14.5524,15.4451
490,463,14.5747,-14.8378,0.00445276,0.00105188,0.0010326,0.00474173,0.000762906,0.272867,0.00294003,0.023644,1714,561,14.5747,14.8378
497,463,14.5576,-14.3287,0.0038961,0.00144389,0.00130114,0.00445782,0.000882179,0.40754,0.00272583,0.0132676,1721,561,14.5576,14.3287
504,463,14.5513,-13.806,0.0031691,0.00135164,0.00128922,0.00383767,0.000683065,0.478405,0.00236389,0.0152911,1728,561,14.5513,13.806
511,463,14.5613,-13.2825,0.00234227,0.00127566,0.00119893,0.00312116,0.000496779,0.57613,0.00193654,0.0223545,1735,561,14.5612,13.2825
518,463,14.5714,-12.7303,0.00141599,0.00117027,0.00104384,0.00234417,0.000242088,0.726819,0.00148866,0.0244962,1742,561,14.5714,12.7303
525,463,14.5452,-12.1932,0.000477993,0.000958908,0.000806975,0.00156049,-0.000123588,0.930197,0.00108387,0.019514,1749,561,14.5451,12.1932
532,463,14.5342,-11.6484,-0.000521736,0.000750501,0.000521598,0.000937007,-0.000708242,1.2274,0.000952941,0.0168188,1756,561,14.5342,11.6483
539,463,14.4948,-11.0961,-0.00151442,0.000451723,0.000199715,0.000471805,-0.0015345,1.47058,0.00121129,0.0170607,1763,561,14.4947,11.0961
546,463,14.4546,-10.5867,-0.00257761,6.57958e-05,-0.00021778,8.36177e-05,-0.00259544,-1.48914,0.00175883,0.0137599,1770,561,14.4546,10.5867
553,463,14.4551,-9.99811,-0.00372667,-0.000199293,-0.000670104,-7.62816e-05,-0.00384969,-1.38925,0.00254141,0.0110872,1777,561,14.4551,9.99813
560,463,14.4716,-9.31781,-0.0048457,-0.00056477,-0.00114571,-0.00027743,-0.00513303,-1.32507,0.0033334,0.01906,1784,561,14.4715,9.31781
567,463,14.3396,-8.80756,-0.00599658,-0.00104808,-0.00166057,-0.000542499,-0.00650216,-1.27525,0.00416573,0.0264157,1791,561,14.3396,8.80756
574,463,14.1355,-8.44568,0,0,0,0,0,0,0,-1,1798,561,14.1355,8.44567
581,463,9.4939,-3.88245,0,0,0,0,0,0,0,-1,1805,561,9.49392,3.88245
588,463,1.97424,2.16016,0,0,0,0,0,0,0,-1,1812,561,1.97422,-2.16013
595,463,9.98657,2.99854,0,0,0,0,0,0,0,-1,1819,561,9.98662,-2.99856
602,463,17.2202,4.91302,0,0,0,0,0,0,0,-1,1826,561,17.2202,-4.91305
609,463,17.96,4.03131,0,0,0,0,0,0,0,-1,1833,561,17.96,-4.03132
616,463,20.8352,3.15131,0,0,0,0,0,0,0,-1,1840,561,20.8352,-3.1513
623,463,0,0,0,0,0,0,0,0,0,-1,1847,561,0,0
630,463,0,0,0,0,0,0,0,0,0,-1,1854,561,0,0
637,463,0,0,0,0,0,0,0,0,0,-1,1861,561,0,0
644,463,0,0,0,0,0,0,0,0,0,-1,1868,561,0,0
651,463,0,0,0,0,0,0,0,0,0,-1,1875,561,0,0
658,463,0,0,0,0,0,0,0,0,0,-1,1882,561,0,0
665,463,0,0,0,0,0,0,0,0,0,-1,1889,561,0,0
672,463,0,0,0,0,0,0,0,0,0,-1,1896,561,0,0
679,463,0,0,0,0,0,0,0,0,0,-1,1903,561,0,0
686,463,0,0,0,0,0,0,0,0,0,-1,1910,561,0,0
693,463,0,0,0,0,0,0,0,0,0,-1,1917,561,0,0
700,463,0,0,0,0,0,0,0,0,0,-1,1924,561,0,0
707,463,0,0,0,0,0,0,0,0,0,-1,1931,561,0,0
714,463,0,0,0,0,0,0,0,0,0,-1,1938,561,0,0
721,463,0,0,0,0,0,0,0,0,0,-1,1945,561,0,0
728,463,0,0,0,0,0,0,0,0,0,-1,1952,561,0,0
735,463,0,0,0,0,0,0,0,0,0,-1,1959,561,0,0
742,463,0,0,0,0,0,0,0,0,0,-1,1966,561,0,0
749,463,0,0,0,0,0,0,0,0,0,-1,1973,561,0,0
756,463,0,0,0,0,0,0,0,0,0,-1,1980,561,0,0
763,463,0,0,0,0,0,0,0,0,0,-1,1987,561,0,0
770,463,0,0,0,0,0,0,0,0,0,-1,1994,561,0,0
777,463,0,0,0,0,0,0,0,0,0,-1,2001,561,0,0
784,463,0,0,0,0,0,0,0,0,0,-1,2008,561,0,0
791,463,0,0,0,0,0,0,0,0,0,-1,2015,561,0,0
798,463,0,0,0,0,0,0,0,0,0,-1,2022,561,0,0
805,463,0,0,0,0,0,0,0,0,0,-1,2029,561,0,0
812,463,0,0,0,0,0,0,0,0,0,-1,2036,561,0,0
-700,456,0,0,0,0,0,0,0,0,0,-1,524,568,0,0
-693,456,0,0,0,0,0,0,0,0,0,-1,531,568,0,0
-686,456,0,0,0,0,0,0,0,0,0,-1,538,568,0,0
-679,456,0,0,0,0,0,0,0,0,0,-1,545,568,0,0
-672,456,0,0,0,0,0,0,0,0,0,-1,552,568,0,0
-665,456,0,0,0,0,0,0,0,0,0,-1,559,568,0,0
-658,456,0,0,0,0,0,0,0,0,0,-1,566,568,0,0
-651,456,0,0,0,0,0,0,0,0,0,-1,573,568,0,0
-644,456,0,0,0,0,0,0,0,0,0,-1,580,568,0,0
-637,456,0,0,0,0,0,0,0,0,0,-1,587,568,0,0
-630,456,0,0,0,0,0,0,0,0,0,-1,594,568,0,0
-623,456,0,0,0,0,0,0,0,0,0,-1,601,568,0,0
-616,456,0,0,0,0,0,0,0,0,0,-1,608,568,0,0
-609,456,0,0,0,0,0,0,0,0,0,-1,615,568,0,0
-602,456,0,0,0,0,0,0,0,0,0,-1,622,568,0,0
-595,456,0,0,0,0,0,0,0,0,0,-1,629,568,0,0
-588,456,0,0,0,0,0,0,0,0,0,-1,636,568,0,0
-581,456,0,0,0,0,0,0,0,0,0,-1,643,568,0,0
-574,456,0,0,0,0,0,0,0,0,0,-1,650,568,0,0
-567,456,0,0,0,0,0,0,0,0,0,-1,657,568,0,0
-560,456,0,0,0,0,0,0,0,0,0,-1,664,568,0,0
-553,456,0,0,0,0,0,0,0,0,0,-1,671,568,0,0
-546,456,0,0,0,0,0,0,0,0,0,-1,678,568,0,0
-539,456,0,0,0,0,0,0,0,0,0,-1,685,568,0,0
-532,456,0,0,0,0,0,0,0,0,0,-1,692,568,0,0
-525,456,0,0,0,0,0,0,0,0,0,-1,699,568,0,0
-518,456,0,0,0,0,0,0,0,0,0,-1,706,568,0,0
-511,456,0,0,0,0,0,0,0,0,0,-1,713,568,0,0
-504,456,-10.3994,-2.34839,0,0,0,0,0,0,0,-1,720,568,-10.3994,2.3484
-497,456,-9.21375,-2.38068,0,0,0,0,0,0,0,-1,727,568,-9.21372,2.38069
-490,456,-8.09058,-2.31824,0,0,0,0,0,0,0,-1,734,568,-8.09057,2.31821
-483,456,-6.66119,-2.24329,0,0,0,0,0,0,0,-1,741,568,-6.66121,2.24331
-476,456,-5.1499,-2.21185,0,0,0,0,0,0,0,-1,748,568,-5.14992,2.21184
-469,456,-2.81238,-3.51501,0,0,0,0,0,0,0,-1,755,568,-2.81237,3.51501
-462,456,-4.2431,-5.27478,0,0,0,0,0,0,0,-1,762,568,-4.24312,5.27476
-455,456,-5.58929,-8.65594,0,0,0,0,0,0,0,-1,769,568,-5.58931,8.65596
-448,456,-5.54675,-9.61823,0,0,0,0,0,0,0,-1,776,568,-5.54676,9.61822
-441,456,-5.3891,-10.447,-0.00145691,0.00762611,-0.00255098,0.00829351,-0.00212432,-1.3149,0.00635656,0.0293047,783,568,-5.38909,10.447
-434,456,-5.50342,-11.0035,-0.00117165,0.00618987,-0.00198752,0.00669219,-0.00167398,-1.32324,0.00511165,0.0152705,790,568,-5.50341,11.0036
-427,456,-5.50677,-11.5358,-0.00090167,0.00492272,-0.00152017,0.00529561,-0.00127456,-1.33025,0.00402313,0.00936101,797,568,-5.50677,11.5358
-420,456,-5.50061,-12.0665,-0.00059237,0.00379274,-0.00116185,0.00408156,-0.000881182,-1.32715,0.00305739,0.00958933,804,568,-5.50061,12.0665
-413,456,-5.51196,-12.5958,-0.000347677,0.00254248,-0.000706096,0.00270576,-0.000510959,-1.34354,0.00199608,0.00875766,811,568,-5.51196,12.5958
-406,456,-5.5412,-13.1115,-5.85084e-05,0.00164807,-0.000380248,0.00172896,-0.000139398,-1.36119,0.00120181,0.00909632,818,568,-5.54117,13.1115
-399,456,-5.54797,-13.6209,0.000290899,0.000836974,-7.30868e-05,0.000846587,0.000281286,-1.44002,0.000497861,0.0108777,825,568,-5.54799,13.6209
-392,456,-5.56329,-14.1305,0.000745486,2.88462e-05,0.000202922,0.000798956,-2.46232e-05,0.257641,0.000541032,0.00997803,832,568,-5.56331,14.1305
-385,456,-5.58569,-14.6424,0.00131605,-0.000608475,0.000407202,0.00139866,-0.000691086,0.20016,0.00122936,0.0094922,839,568,-5.5857,14.6424
-378,456,-5.60236,-15.1669,0.00192254,-0.00121893,0.00062899,0.0020438,-0.00134018,0.190444,0.00196777,0.0106227,846,568,-5.60236,15.1669
-371,456,-5.60162,-15.689,0.00263601,-0.00167889,0.000809672,0.00278294,-0.00182582,0.179513,0.00267992,0.0115398,853,568,-5.60163,15.689
-364,456,-5.58606,-16.1545,0.00353389,-0.00190059,0.000856893,0.0036658,-0.0020325,0.152741,0.00333466,0.021233,860,568,-5.58604,16.1545
-357,456,-5.57056,-16.7032,0,0,0,0,0,0,0,-1,867,568,-5.57053,16.7032
-350,456,-5.39386,-17.3665,0,0,0,0,0,0,0,-1,874,568,-5.39386,17.3665
-343,456,-3.39081,-12.0217,0,0,0,0,0,0,0,-1,881,568,-3.39078,12.0217
-336,456,-3.04517,-12.4623,0,0,0,0,0,0,0,-1,888,568,-3.04519,12.4624
-329,456,-1.06183,-10.7184,0,0,0,0,0,0,0,-1,895,568,-1.06184,10.7184
-322,456,-0.662537,-7.66632,0,0,0,0,0,0,0,-1,902,568,-0.662564,7.66633
-315,456,-0.675476,-3.38397,0,0,0,0,0,0,0,-1,909,568,-0.675473,3.38399
-308,456,-1.1618,-3.15314,0,0,0,0,0,0,0,-1,916,568,-1.16178,3.15314
-301,456,-1.83551,-3.26447,0,0,0,0,0,0,0,-1,923,568,-1.8355,3.26449
-294,456,-2.93414,-3.35449,0,0,0,0,0,0,0,-1,930,568,-2.93413,3.35451
-287,456,-3.7569,-3.53101,0,0,0,0,0,0,0,-1,937,568,-3.75692,3.53101
-280,456,-13.072,4.52856,0,0,0,0,0,0,0,-1,944,568,-13.072,-4.52855
-273,456,-8.76031,-5.4386,0,0,0,0,0,0,0,-1,951,568,-8.7603,5.43861
-266,456,-5.61133,-8.90918,0,0,0,0,0,0,0,-1,958,568,-5.61135,8.90919
-259,456,0,0,0,0,0,0,0,0,0,-1,965,568,0,0
-252,456,0,0,0,0,0,0,0,0,0,-1,972,568,0,0
-245,456,0,0,0,0,0,0,0,0,0,-1,979,568,0,0
-238,456,0,0,0,0,0,0,0,0,0,-1,986,568,0,0
-231,456,0,0,0,0,0,0,0,0,0,-1,993,568,0,0
-224,456,0,0,0,0,0,0,0,0,0,-1,1000,568,0,0
-217,456,0,0,0,0,0,0,0,0,0,-1,1007,568,0,0
-210,456,0,0,0,0,0,0,0,0,0,-1,1014,568,0,0
-203,456,0,0,0,0,0,0,0,0,0,-1,1021,568,0,0
-196,456,0,0,0,0,0,0,0,0,0,-1,1028,568,0,0
-189,456,0,0,0,0,0,0,0,0,0,-1,1035,568,0,0
-182,456,0,0,0,0,0,0,0,0,0,-1,1042,568,0,0
-175,456,0,0,0,0,0,0,0,0,0,-1,1049,568,0,0
-168,456,0,0,0,0,0,0,0,0,0,-1,1056,568,0,0
-161,456,0,0,0,0,0,0,0,0,0,-1,1063,568,0,0
-154,456,0,0,0,0,0,0,0,0,0,-1,1070,568,0,0
-147,456,0,0,0,0,0,0,0,0,0,-1,1077,568,0,0
-140,456,0,0,0,0,0,0,0,0,0,-1,1084,568,0,0
-133,456,0,0,0,0,0,0,0,0,0,-1,1091,568,0,0
-126,456,0,0,0,0,0,0,0,0,0,-1,1098,568,0,0
-119,456,0,0,0,0,0,0,0,0,0,-1,1105,568,0,0
-112,456,0,0,0,0,0,0,0,0,0,-1,1112,568,0,0
-105,456,0,0,0,0,0,0,0,0,0,-1,1119,568,0,0
-98,456,0,0,0,0,0,0,0,0,0,-1,1126,568,0,0
-91,456,0,0,0,0,0,0,0,0,0,-1,1133,568,0,0
-84,456,0,0,0,0,0,0,0,0,0,-1,1140,568,0,0
-77,456,0,0,0,0,0,0,0,0,0,-1,1147,568,0,0
-70,456,0,0,0,0,0,0,0,0,0,-1,1154,568,0,0
-63,456,0,0,0,0,0,0,0,0,0,-1,1161,568,0,0
-56,456,0,0,0,0,0,0,0,0,0,-1,1168,568,0,0
-49,456,0,0,0,0,0,0,0,0,0,-1,1175,568,0,0
-42,456,0,0,0,0,0,0,0,0,0,-1,1182,568,0,0
-35,456,0,0,0,0,0,0,0,0,0,-1,1189,568,0,0
-28,456,0,0,0,0,0,0,0,0,0,-1,1196,568,0,0
-21,456,0,0,0,0,0,0,0,0,0,-1,1203,568,0,0
-14,456,0,0,0,0,0,0,0,0,0,-1,1210,568,0,0
-7,456,0,0,0,0,0,0,0,0,0,-1,1217,568,0,0
0,456,0,0,0,0,0,0,0,0,0,-1,1224,568,0,0
7,456,0,0,0,0,0,0,0,0,0,-1,1231,568,0,0
14,456,0,0,0,0,0,0,0,0,0,-1,1238,568,0,0
21,456,0,0,0,0,0,0,0,0,0,-1,1245,568,0,0
28,456,0,0,0,0,0,0,0,0,0,-1,1252,568,0,0
35,456,0,0,0,0,0,0,0,0,0,-1,1259,568,0,0
42,456,0,0,0,0,0,0,0,0,0,-1,1266,568,0,0
49,456,0,0,0,0,0,0,0,0,0,-1,1273,568,0,0
56,456,0,0,0,0,0,0,0,0,0,-1,1280,568,0,0
63,456,0,0,0,0,0,0,0,0,0,-1,1287,568,0,0
70,456,0,0,0,0,0,0,0,0,0,-1,1294,568,0,0
77,456,0,0,0,0,0,0,0,0,0,-1,1301,568,0,0
84,456,0,0,0,0,0,0,0,0,0,-1,1308,568,0,0
91,456,0,0,0,0,0,0,0,0,0,-1,1315,568,0,0
98,456,0,0,0,0,0,0,0,0,0,-1,1322,568,0,0
105,456,0,0,0,0,0,0,0,0,0,-1,1329,568,0,0
112,456,0,0,0,0,0,0,0,0,0,-1,1336,568,0,0
119,456,0,0,0,0,0,0,0,0,0,-1,1343,568,0,0
126,456,0,0,0,0,0,0,0,0,0,-1,1350,568,0,0
133,456,0,0,0,0,0,0,0,0,0,-1,1357,568,0,0
140,456,0,0,0,0,0,0,0,0,0,-1,1364,568,0,0
147,456,0,0,0,0,0,0,0,0,0,-1,1371,568,0,0
154,456,0,0,0,0,0,0,0,0,0,-1,1378,568,0,0
161,456,0,0,0,0,0,0,0,0,0,-1,1385,568,0,0
168,456,0,0,0,0,0,0,0,0,0,-1,1392,568,0,0
175,456,0,0,0,0,0,0,0,0,0,-1,1399,568,0,0
182,456,0,0,0,0,0,0,0,0,0,-1,1406,568,0,0
189,456,0,0,0,0,0,0,0,0,0,-1,1413,568,0,0
196,456,0,0,0,0,0,0,0,0,0,-1,1420,568,0,0
203,456,0,0,0,0,0,0,0,0,0,-1,1427,568,0,0
210,456,0,0,0,0,0,0,0,0,0,-1,1434,568,0,0
217,456,0,0,0,0,0,0,0,0,0,-1,1441,568,0,0
224,456,0,0,0,0,0,0,0,0,0,-1,1448,568,0,0
231,456,0,0,0,0,0,0,0,0,0,-1,1455,568,0,0
238,456,0,0,0,0,0,0,0,0,0,-1,1462,568,0,0
245,456,0,0,0,0,0,0,0,0,0,-1,1469,568,0,0
252,456,0,0,0,0,0,0,0,0,0,-1,1476,568,0,0
259,456,0,0,0,0,0,0,0,0,0,-1,1483,568,0,0
266,456,0,0,0,0,0,0,0,0,0,-1,1490,568,0,0
273,456,0,0,0,0,0,0,0,0,0,-1,1497,568,0,0
280,456,0,0,0,0,0,0,0,0,0,-1,1504,568,0,0
287,456,0,0,0,0,0,0,0,0,0,-1,1511,568,0,0
294,456,0,0,0,0,0,0,0,0,0,-1,1518,568,0,0
301,456,0,0,0,0,0,0,0,0,0,-1,1525,568,0,0
308,456,0,0,0,0,0,0,0,0,0,-1,1532,568,0,0
315,456,0,0,0,0,0,0,0,0,0,-1,1539,568,0,0
322,456,0,0,0,0,0,0,0,0,0,-1,1546,568,0,0
329,456,0,0,0,0,0,0,0,0,0,-1,1553,568,0,0
336,456,0,0,0,0,0,0,0,0,0,-1,1560,568,0,0
343,456,0,0,0,0,0,0,0,0,0,-1,1567,568,0,0
350,456,0,0,0,0,0,0,0,0,0,-1,1574,568,0,0
357,456,0,0,0,0,0,0,0,0,0,-1,1581,568,0,0
364,456,0,0,0,0,0,0,0,0,0,-1,1588,568,0,0
371,456,0,0,0,0,0,0,0,0,0,-1,1595,568,0,0
378,456,0,0,0,0,0,0,0,0,0,-1,1602,568,0,0
385,456,5.66284,0.660645,0,0,0,0,0,0,0,-1,1609,568,5.66285,-0.660615
392,456,17.5027,4.32971,0,0,0,0,0,0,0,-1,1616,568,17.5026,-4.32971
399,456,24.1917,5.99652,0,0,0,0,0,0,0,-1,1623,568,24.1916,-5.99651
406,456,24.446,4.53003,0,0,0,0,0,0,0,-1,1630,568,24.446,-4.53005
413,456,24.9418,2.90521,0,0,0,0,0,0,0,-1,1637,568,24.9418,-2.90524
420,456,25.3048,1.04712,0,0,0,0,0,0,0,-1,1644,568,25.3048,-1.04713
427,456,6.21375,2.02905,0,0,0,0,0,0,0,-1,1651,568,6.21372,-2.02904
434,456,3.0719,-4.86285,0,0,0,0,0,0,0,-1,1658,568,3.07184,4.86287
441,456,2.90344,-4.70459,0,0,0,0,0,0,0,-1,1665,568,2.90346,4.7046
448,456,3.06995,-4.93689,0,0,0,0,0,0,0,-1,1672,568,3.06991,4.93687
455,456,3.46582,-3.43701,0,0,0,0,0,0,0,-1,1679,568,3.46585,3.43698
462,456,4.68445,-4.45831,0,0,0,0,0,0,0,-1,1686,568,4.68439,4.45833
469,456,4.93201,-2.289,0,0,0,0,0,0,0,-1,1693,568,4.93197,2.28903
476,456,4.8363,-2.79364,0,0,0,0,0,0,0,-1,1700,568,4.83636,2.79363
483,456,12.8522,-13.692,0,0,0,0,0,0,0,-1,1707,568,12.8522,13.6919
490,456,15.0791,-14.861,0,0,0,0,0,0,0,-1,1714,568,15.0791,14.861
497,456,15.0729,-14.3629,0.00493183,0.00172501,0.00191676,0.0058274,0.000829446,0.437089,0.00364009,0.0443419,1721,568,15.0728,14.3628
504,456,15.0477,-13.7921,0.00415873,0.00162569,0.00177014,0.00506878,0.000715638,0.474874,0.0031677,0.0124366,1728,568,15.0477,13.7921
511,456,15.0884,-13.265,0.00336673,0.00152365,0.0015848,0.00427845,0.000611932,0.522052,0.00267178,0.014376,1735,568,15.0884,13.265
518,456,15.1022,-12.7262,0.00253006,0.00140975,0.00140293,0.00348054,0.000459283,0.595458,0.00218342,0.017144,1742,568,15.1021,12.7262
525,456,15.0773,-12.191,0.00165172,0.00123019,0.00115308,0.00261314,0.000268772,0.695003,0.00165977,0.0160401,1749,568,15.0772,12.191
532,456,15.0637,-11.6138,0.000721509,0.00101341,0.000848836,0.00172875,6.16582e-06,0.870536,0.00115045,0.0154153,1756,568,15.0637,11.6138
539,456,15.0223,-11.0904,-0.00017053,0.00071437,0.000538655,0.000968993,-0.000425154,1.12922,0.000825072,0.0198354,1763,568,15.0223,11.0904
546,456,14.9838,-10.5432,-0.0011117,0.000343727,0.000159012,0.000360897,-0.00112887,1.46323,0.000897402,0.0226336,1770,568,14.9838,10.5432
553,456,14.9696,-9.9502,-0.00214155,7.80957e-05,-0.000239436,0.00010363,-0.00216708,-1.46455,0.00148047,0.0139758,1777,568,14.9696,9.95017
560,456,14.9596,-9.40497,-0.00315457,-0.000271224,-0.000634789,-0.000137657,-0.00328813,-1.36341,0.00214767,0.00953005,1784,568,14.9596,9.40497
567,456,14.9441,-8.84479,-0.00415613,-0.000629047,-0.00100446,-0.000363052,-0.00442213,-1.31192,0.00283483,0.0171662,1791,568,14.9441,8.84481
574,456,14.9091,-8.46283,-0.00542987,-0.000983307,-0.00150258,-0.000523174,-0.00589001,-1.27363,0.00376442,0.0484253,1798,568,14.909,8.46281
581,456,14.9379,-7.99561,0,0,0,0,0,0,0,-1,1805,568,14.9378,7.99561
588,456,5.23901,-0.0901489,0,0,0,0,0,0,0,-1,1812,568,5.23906,0.0901656
595,456,6.90063,3.14886,0,0,0,0,0,0,0,-1,1819,568,6.90066,-3.14887
602,456,16.894,4.10938,0,0,0,0,0,0,0,-1,1826,568,16.8941,-4.1094
609,456,14.9966,3.5708,0,0,0,0,0,0,0,-1,1833,568,14.9966,-3.57083
616,456,17.7407,2.6579,0,0,0,0,0,0,0,-1,1840,568,17.7408,-2.6579
623,456,20.6838,1.7121,0,0,0,0,0,0,0,-1,1847,568,20.6838,-1.71208
630,456,0,0,0,0,0,0,0,0,0,-1,1854,568,0,0
637,456,0,0,0,0,0,0,0,0,0,-1,1861,568,0,0
644,456,0,0,0,0,0,0,0,0,0,-1,1868,568,0,0
651,456,0,0,0,0,0,0,0,0,0,-1,1875,568,0,0
658,456,0,0,0,0,0,0,0,0,0,-1,1882,568,0,0
665,456,0,0,0,0,0,0,0,0,0,-1,1889,568,0,0
672,456,0,0,0,0,0,0,0,0,0,-1,1896,568,0,0
679,456,0,0,0,0,0,0,0,0,0,-1,1903,568,0,0
686,456,0,0,0,0,0,0,0,0,0,-1,1910,568,0,0
693,456,0,0,0,0,0,0,0,0,0,-1,1917,568,0,0
700,456,0,0,0,0,0,0,0,0,0,-1,1924,568,0,0
707,456,0,0,0,0,0,0,0,0,0,-1,1931,568,0,0
714,456,0,0,0,0,0,0,0,0,0,-1,1938,568,0,0
721,456,0,0,0,0,0,0,0,0,0,-1,1945,568,0,0
728,456,0,0,0,0,0,0,0,0,0,-1,1952,568,0,0
735,456,0,0,0,0,0,0,0,0,0,-1,1959,568,0,0
742,456,0,0,0,0,0,0,0,0,0,-1,1966,568,0,0
749,456,0,0,0,0,0,0,0,0,0,-1,1973,568,0,0
756,456,0,0,0,0,0,0,0,0,0,-1,1980,568,0,0
763,456,0,0,0,0,0,0,0,0,0,-1,1987,568,0,0
770,456,0,0,0,0,0,0,0,0,0,-1,1994,568,0,0
777,456,0,0,0,0,0,0,0,0,0,-1,2001,568,0,0
784,456,0,0,0,0,0,0,0,0,0,-1,2008,568,0,0
791,456,0,0,0,0,0,0,0,0,0,-1,2015,568,0,0
798,456,0,0,0,0,0,0,0,0,0,-1,2022,568,0,0
805,456,0,0,0,0,0,0,0,0,0,-1,2029,568,0,0
812,456,0,0,0,0,0,0,0,0,0,-1,2036,568,0,0
-700,449,0,0,0,0,0,0,0,0,0,-1,524,575,0,0
-693,449,0,0,0,0,0,0,0,0,0,-1,531,575,0,0
-686,449,0,0,0,0,0,0,0,0,0,-1,538,575,0,0
-679,449,0,0,0,0,0,0,0,0,0,-1,545,575,0,0
-672,449,0,0,0,0,0,0,0,0,0,-1,552,575,0,0
-665,449,0,0,0,0,0,0,0,0,0,-1,559,575,0,0
-658,449,0,0,0,0,0,0,0,0,0,-1,566,575,0,0
-651,449,0,0,0,0,0,0,0,0,0,-1,573,575,0,0
-644,449,0,0,0,0,0,0,0,0,0,-1,580,575,0,0
-637,449,0,0,0,0,0,0,0,0,0,-1,587,575,0,0
-630,449,0,0,0,0,0,0,0,0,0,-1,594,575,0,0
-623,449,0,0,0,0,0,0,0,0,0,-1,601,575,0,0
-616,449,0,0,0,0,0,0,0,0,0,-1,608,575,0,0
-609,449,0,0,0,0,0,0,0,0,0,-1,615,575,0,0
-602,449,0,0,0,0,0,0,0,0,0,-1,622,575,0,0
-595,449,0,0,0,0,0,0,0,0,0,-1,629,575,0,0
-588,449,0,0,0,0,0,0,0,0,0,-1,636,575,0,0
-581,449,0,0,0,0,0,0,0,0,0,-1,643,575,0,0
-574,449,0,0,0,0,0,0,0,0,0,-1,650,575,0,0
-567,449,0,0,0,0,0,0,0,0,0,-1,657,575,0,0
-560,449,0,0,0,0,0,0,0,0,0,-1,664,575,0,0
-553,449,0,0,0,0,0,0,0,0,0,-1,671,575,0,0
-546,449,0,0,0,0,0,0,0,0,0,-1,678,575,0,0
-539,449,0,0,0,0,0,0,0,0,0,-1,685,575,0,0
-532,449,0,0,0,0,0,0,0,0,0,-1,692,575,0,0
-525,449,0,0,0,0,0,0,0,0,0,-1,699,575,0,0
-518,449,0,0,0,0,0,0,0,0,0,-1,706,575,0,0
-511,449,-0.941345,-4.4519,0,0,0,0,0,0,0,-1,713,575,-0.941356,4.45191
-504,449,-14.1078,0.318237,0,0,0,0,0,0,0,-1,720,575,-14.1078,-0.318231
-497,449,-8.61292,-3.09009,0,0,0,0,0,0,0,-1,727,575,-8.61291,3.09011
-490,449,-7.50995,-2.96252,0,0,0,0,0,0,0,-1,734,575,-7.50995,2.96251
-483,449,-5.77789,-2.50061,0,0,0,0,0,0,0,-1,741,575,-5.77792,2.50059
-476,449,-4.1723,-2.07739,0,0,0,0,0,0,0,-1,748,575,-4.17228,2.0774
-469,449,-4.02954,-4.56329,0,0,0,0,0,0,0,-1,755,575,-4.02951,4.56329
-462,449,-6.00769,-8.39435,0,0,0,0,0,0,0,-1,762,575,-6.00767,8.39434
-455,449,-6.17517,-9.0921,0,0,0,0,0,0,0,-1,769,575,-6.17517,9.0921
-448,449,-5.95361,-9.83844,-0.00105572,0.00741755,-0.00303302,0.00839132,-0.00202949,-1.26014,0.00637924,0.0370964,776,575,-5.95359,9.83843
-441,449,-5.96057,-10.5234,-0.000793555,0.00597423,-0.00232692,0.00669707,-0.0015164,-1.2696,0.0050467,0.0181339,783,575,-5.96056,10.5234
-434,449,-6.0285,-11.0228,-0.000626813,0.00475151,-0.00169639,0.00524186,-0.00111717,-1.28941,0.00392039,0.0131923,790,575,-6.02853,11.0228
-427,449,-6.05078,-11.5201,-0.000467752,0.00361386,-0.00115037,0.00391575,-0.000769645,-1.31415,0.00290128,0.0134253,797,575,-6.05077,11.5201
-420,449,-6.02271,-12.0399,-0.000248727,0.0026155,-0.000735186,0.00279318,-0.000426411,-1.33366,0.00201932,0.0127545,804,575,-6.02273,12.0399
-413,449,-6.03241,-12.573,-9.9588e-05,0.00147089,-0.000218449,0.00150071,-0.000129407,-1.43513,0.00104628,0.0100439,811,575,-6.03238,12.573
-406,449,-6.07257,-13.103,0.000102409,0.000652513,0.000163068,0.000697219,5.77039e-05,1.30322,0.000446822,0.00950686,818,575,-6.07255,13.1031
-399,449,-6.08759,-13.6185,0.000402567,-8.72471e-05,0.000495435,0.000710321,-0.000395002,0.555849,0.000646756,0.00940309,825,575,-6.08759,13.6185
-392,449,-6.09552,-14.1245,0.000833509,-0.000818367,0.00077702,0.00114156,-0.00112642,0.377445,0.00130943,0.0101803,832,575,-6.09549,14.1244
-385,449,-6.10504,-14.6259,0.00138704,-0.00138473,0.00098033,0.00169872,-0.00169641,0.307827,0.00196018,0.011042,839,575,-6.10503,14.6259
-378,449,-6.12756,-15.1342,0.00197351,-0.00195189,0.00122492,0.00232439,-0.00230276,0.278976,0.0026715,0.010214,846,575,-6.12755,15.1342
-371,449,-6.10822,-15.6635,0.00276406,-0.00229302,0.00138007,0.00311617,-0.00264512,0.249805,0.00332999,0.0146911,853,575,-6.10824,15.6635
-364,449,-6.02576,-16.2104,0,0,0,0,0,0,0,-1,860,575,-6.02576,16.2105
-357,449,-5.88049,-15.8704,0,0,0,0,0,0,0,-1,867,575,-5.88051,15.8704
-350,449,-2.8764,-9.90204,0,0,0,0,0,0,0,-1,874,575,-2.87638,9.90203
-343,449,-2.98492,-9.2254,0,0,0,0,0,0,0,-1,881,575,-2.98491,9.22541
-336,449,-1.29523,-9.54626,0,0,0,0,0,0,0,-1,888,575,-1.29525,9.54626
-329,449,-0.733398,-7.78937,0,0,0,0,0,0,0,-1,895,575,-0.733398,7.78937
-322,449,-0.628845,-3.16669,0,0,0,0,0,0,0,-1,902,575,-0.628861,3.16667
-315,449,-0.540344,-3.21918,0,0,0,0,0,0,0,-1,909,575,-0.540336,3.21917
-308,449,-1.04413,-2.99341,0,0,0,0,0,0,0,-1,916,575,-1.04415,2.99338
-301,449,-1.58691,-2.80725,0,0,0,0,0,0,0,-1,923,575,-1.58692,2.80728
-294,449,-3.71118,-2.76086,0,0,0,0,0,0,0,-1,930,575,-3.71119,2.76087
-287,449,-4.4082,-2.69525,0,0,0,0,0,0,0,-1,937,575,-4.40822,2.69526
-280,449,-2.53235,-9.87903,0,0,0,0,0,0,0,-1,944,575,-2.53236,9.879
-273,449,0,0,0,0,0,0,0,0,0,-1,951,575,0,0
-266,449,0,0,0,0,0,0,0,0,0,-1,958,575,0,0
-259,449,0,0,0,0,0,0,0,0,0,-1,965,575,0,0
-252,449,0,0,0,0,0,0,0,0,0,-1,972,575,0,0
-245,449,0,0,0,0,0,0,0,0,0,-1,979,575,0,0
-238,449,0,0,0,0,0,0,0,0,0,-1,986,575,0,0
-231,449,0,0,0,0,0,0,0,0,0,-1,993,575,0,0
-224,449,0,0,0,0,0,0,0,0,0,-1,1000,575,0,0
-217,449,0,0,0,0,0,0,0,0,0,-1,1007,575,0,0
-210,449,0,0,0,0,0,0,0,0,0,-1,1014,575,0,0
-203,449,0,0,0,0,0,0,0,0,0,-1,1021,575,0,0
-196,449,0,0,0,0,0,0,0,0,0,-1,1028,575,0,0
-189,449,0,0,0,0,0,0,0,0,0,-1,1035,575,0,0
-182,449,0,0,0,0,0,0,0,0,0,-1,1042,575,0,0
-175,449,0,0,0,0,0,0,0,0,0,-1,1049,575,0,0
-168,449,0,0,0,0,0,0,0,0,0,-1,1056,575,0,0
-161,449,0,0,0,0,0,0,0,0,0,-1,1063,575,0,0
-154,449,0,0,0,0,0,0,0,0,0,-1,1070,575,0,0
-147,449,0,0,0,0,0,0,0,0,0,-1,1077,575,0,0
-140,449,0,0,0,0,0,0,0,0,0,-1,1084,575,0,0
-133,449,0,0,0,0,0,0,0,0,0,-1,1091,575,0,0
-126,449,0,0,0,0,0,0,0,0,0,-1,1098,575,0,0
-119,449,0,0,0,0,0,0,0,0,0,-1,1105,575,0,0
-112,449,0,0,0,0,0,0,0,0,0,-1,1112,575,0,0
-105,449,0,0,0,0,0,0,0,0,0,-1,1119,575,0,0
-98,449,0,0,0,0,0,0,0,0,0,-1,1126,575,0,0
-91,449,0,0,0,0,0,0,0,0,0,-1,1133,575,0,0
-84,449,0,0,0,0,0,0,0,0,0,-1,1140,575,0,0
-77,449,0,0,0,0,0,0,0,0,0,-1,1147,575,0,0
-70,449,0,0,0,0,0,0,0,0,0,-1,1154,575,0,0
-63,449,0,0,0,0,0,0,0,0,0,-1,1161,575,0,0
-56,449,0,0,0,0,0,0,0,0,0,-1,1168,575,0,0
-49,449,0,0,0,0,0,0,0,0,0,-1,1175,575,0,0
-42,449,0,0,0,0,0,0,0,0,0,-1,1182,575,0,0
-35,449,0,0,0,0,0,0,0,0,0,-1,1189,575,0,0
-28,449,0,0,0,0,0,0,0,0,0,-1,1196,575,0,0
-21,449,0,0,0,0,0,0,0,0,0,-1,1203,575,0,0
-14,449,0,0,0,0,0,0,0,0,0,-1,1210,575,0,0
-7,449,0,0,0,0,0,0,0,0,0,-1,1217,575,0,0
0,449,0,0,0,0,0,0,0,0,0,-1,1224,575,0,0
7,449,0,0,0,0,0,0,0,0,0,-1,1231,575,0,0
14,449,0,0,0,0,0,0,0,0,0,-1,1238,575,0,0
21,449,0,0,0,0,0,0,0,0,0,-1,1245,575,0,0
28,449,0,0,0,0,0,0,0,0,0,-1,1252,575,0,0
35,449,0,0,0,0,0,0,0,0,0,-1,1259,575,0,0
42,449,0,0,0,0,0,0,0,0,0,-1,1266,575,0,0
49,449,0,0,0,0,0,0,0,0,0,-1,1273,575,0,0
56,449,0,0,0,0,0,0,0,0,0,-1,1280,575,0,0
63,449,0,0,0,0,0,0,0,0,0,-1,1287,575,0,0
70,449,0,0,0,0,0,0,0,0,0,-1,1294,575,0,0
77,449,0,0,0,0,0,0,0,0,0,-1,1301,575,0,0
84,449,0,0,0,0,0,0,0,0,0,-1,1308,575,0,0
91,449,0,0,0,0,0,0,0,0,0,-1,1315,575,0,0
98,449,0,0,0,0,0,0,0,0,0,-1,1322,575,0,0
105,449,0,0,0,0,0,0,0,0,0,-1,1329,575,0,0
112,449,0,0,0,0,0,0,0,0,0,-1,1336,575,0,0
119,449,0,0,0,0,0,0,0,0,0,-1,1343,575,0,0
126,449,0,0,0,0,0,0,0,0,0,-1,1350,575,0,0
133,449,0,0,0,0,0,0,0,0,0,-1,1357,575,0,0
140,449,0,0,0,0,0,0,0,0,0,-1,1364,575,0,0
147,449,0,0,0,0,0,0,0,0,0,-1,1371,575,0,0
154,449,0,0,0,0,0,0,0,0,0,-1,1378,575,0,0
161,449,0,0,0,0,0,0,0,0,0,-1,1385,575,0,0
168,449,0,0,0,0,0,0,0,0,0,-1,1392,575,0,0
175,449,0,0,0,0,0,0,0,0,0,-1,1399,575,0,0
182,449,0,0,0,0,0,0,0,0,0,-1,1406,575,0,0
189,449,0,0,0,0,0,0,0,0,0,-1,1413,575,0,0
196,449,0,0,0,0,0,0,0,0,0,-1,1420,575,0,0
203,449,0,0,0,0,0,0,0,0,0,-1,1427,575,0,0
210,449,0,0,0,0,0,0,0,0,0,-1,1434,575,0,0
217,449,0,0,0,0,0,0,0,0,0,-1,1441,575,0,0
224,449,0,0,0,0,0,0,0,0,0,-1,1448,575,0,0
231,449,0,0,0,0,0,0,0,0,0,-1,1455,575,0,0
238,449,0,0,0,0,0,0,0,0,0,-1,1462,575,0,0
245,449,0,0,0,0,0,0,0,0,0,-1,1469,575,0,0
252,449,0,0,0,0,0,0,0,0,0,-1,1476,575,0,0
259,449,0,0,0,0,0,0,0,0,0,-1,1483,575,0,0
266,449,0,0,0,0,0,0,0,0,0,-1,1490,575,0,0
273,449,0,0,0,0,0,0,0,0,0,-1,1497,575,0,0
280,449,0,0,0,0,0,0,0,0,0,-1,1504,575,0,0
287,449,0,0,0,0,0,0,0,0,0,-1,1511,575,0,0
294,449,0,0,0,0,0,0,0,0,0,-1,1518,575,0,0
301,449,0,0,0,0,0,0,0,0,0,-1,1525,575,0,0
308,449,0,0,0,0,0,0,0,0,0,-1,1532,575,0,0
315,449,0,0,0,0,0,0,0,0,0,-1,1539,575,0,0
322,449,0,0,0,0,0,0,0,0,0,-1,1546,575,0,0
329,449,0,0,0,0,0,0,0,0,0,-1,1553,575,0,0
336,449,0,0,0,0,0,0,0,0,0,-1,1560,575,0,0
343,449,0,0,0,0,0,0,0,0,0,-1,1567,575,0,0
350,449,0,0,0,0,0,0,0,0,0,-1,1574,575,0,0
357,449,0,0,0,0,0,0,0,0,0,-1,1581,575,0,0
364,449,0,0,0,0,0,0,0,0,0,-1,1588,575,0,0
371,449,0,0,0,0,0,0,0,0,0,-1,1595,575,0,0
378,449,0,0,0,0,0,0,0,0,0,-1,1602,575,0,0
385,449,0,0,0,0,0,0,0,0,0,-1,1609,575,0,0
392,449,7.95471,3.66217,0,0,0,0,0,0,0,-1,1616,575,7.95471,-3.66218
399,449,19.9791,5.565,0,0,0,0,0,0,0,-1,1623,575,19.9791,-5.56499
406,449,24.9847,4.55969,0,0,0,0,0,0,0,-1,1630,575,24.9848,-4.55968
413,449,30.4159,3.15027,0,0,0,0,0,0,0,-1,1637,575,30.4159,-3.15028
420,449,23.9675,1.29718,0,0,0,0,0,0,0,-1,1644,575,23.9675,-1.29721
427,449,24.4276,-0.596558,0,0,0,0,0,0,0,-1,1651,575,24.4277,0.596569
434,449,25.61,-2.96594,0,0,0,0,0,0,0,-1,1658,575,25.61,2.96595
441,449,3.89856,-6.06458,0,0,0,0,0,0,0,-1,1665,575,3.89855,6.06459
448,449,4.03198,-5.18207,0,0,0,0,0,0,0,-1,1672,575,4.03197,5.18207
455,449,4.21948,-4.09467,0,0,0,0,0,0,0,-1,1679,575,4.21952,4.09465
462,449,4.23181,-2.96924,0,0,0,0,0,0,0,-1,1686,575,4.23185,2.96926
469,449,4.51672,-2.95135,0,0,0,0,0,0,0,-1,1693,575,4.51672,2.95135
476,449,4.71838,-1.86688,0,0,0,0,0,0,0,-1,1700,575,4.71842,1.86689
483,449,4.87878,-1.73126,0,0,0,0,0,0,0,-1,1707,575,4.87875,1.73128
490,449,5.73279,-2.74573,0,0,0,0,0,0,0,-1,1714,575,5.73282,2.74575
497,449,15.5233,-14.4499,0,0,0,0,0,0,0,-1,1721,575,15.5233,14.4499
504,449,15.5481,-13.8422,0.00525291,0.00218643,0.00240231,0.00656957,0.00086977,0.501367,0.0041205,0.0496228,1728,575,15.5481,13.8422
511,449,15.6005,-13.2354,0.00443536,0.00194998,0.00208782,0.00562233,0.000763009,0.516954,0.00352155,0.0123304,1735,575,15.6005,13.2354
518,449,15.6217,-12.7118,0.00363028,0.00174272,0.00186415,0.00477594,0.000597056,0.551069,0.00300478,0.0140892,1742,575,15.6217,12.7118
525,449,15.5818,-12.162,0.00274252,0.0015536,0.00158589,0.00384171,0.000454416,0.606081,0.00242391,0.0132312,1749,575,15.5818,12.162
532,449,15.5309,-11.6094,0.00181821,0.00128636,0.00123933,0.00281982,0.000284749,0.679716,0.00179252,0.0113035,1756,575,15.5309,11.6094
539,449,15.4993,-11.0728,0.000966681,0.000966246,0.000915914,0.00188238,5.05495e-05,0.785279,0.00123841,0.0140122,1763,575,15.4992,11.0728
546,449,15.5172,-10.5134,8.55991e-05,0.000594864,0.000545972,0.000942662,-0.000262199,1.0036,0.000731673,0.0238475,1770,575,15.5173,10.5134
553,449,15.4943,-9.94629,-0.000892036,0.000318383,0.000164087,0.000340233,-0.000913886,1.43842,0.000748889,0.0169245,1777,575,15.4942,9.94631
560,449,15.4973,-9.39435,-0.00187239,-1.57785e-05,-0.00020536,6.66513e-06,-0.00189483,-1.46194,0.00126545,0.0138922,1784,575,15.4974,9.39436
567,449,15.4872,-8.85699,-0.00282934,-0.000276789,-0.00052096,-0.000174558,-0.00293157,-1.37702,0.00189887,0.0101978,1791,575,15.4872,8.85697
574,449,15.4965,-8.2749,-0.00397924,-0.000522678,-0.000913876,-0.000295933,-0.00420599,-1.32759,0.00271074,0.0233058,1798,575,15.4965,8.2749
581,449,15.5325,-7.61469,0,0,0,0,0,0,0,-1,1805,575,15.5325,7.61467
588,449,12.3274,-4.5672,0,0,0,0,0,0,0,-1,1812,575,12.3274,4.5672
595,449,11.2511,-2.25397,0,0,0,0,0,0,0,-1,1819,575,11.2511,2.25397
602,449,9.46167,4.17444,0,0,0,0,0,0,0,-1,1826,575,9.46164,-4.17442
609,449,12.2028,3.18652,0,0,0,0,0,0,0,-1,1833,575,12.2027,-3.18655
616,449,14.9438,2.19867,0,0,0,0,0,0,0,-1,1840,575,14.9438,-2.19867
623,449,9.83789,-0.0820313,0,0,0,0,0,0,0,-1,1847,575,9.83794,0.0820443
630,449,8.90686,4.99329,0,0,0,0,0,0,0,-1,1854,575,8.90685,-4.99327
637,449,0,0,0,0,0,0,0,0,0,-1,1861,575,0,0
644,449,0,0,0,0,0,0,0,0,0,-1,1868,575,0,0
651,449,0,0,0,0,0,0,0,0,0,-1,1875,575,0,0
658,449,0,0,0,0,0,0,0,0,0,-1,1882,575,0,0
665,449,0,0,0,0,0,0,0,0,0,-1,1889,575,0,0
672,449,0,0,0,0,0,0,0,0,0,-1,1896,575,0,0
679,449,0,0,0,0,0,0,0,0,0,-1,1903,575,0,0
686,449,0,0,0,0,0,0,0,0,0,-1,1910,575,0,0
693,449,0,0,0,0,0,0,0,0,0,-1,1917,575,0,0
700,449,0,0,0,0,0,0,0,0,0,-1,1924,575,0,0
707,449,0,0,0,0,0,0,0,0,0,-1,1931,575,0,0
714,449,0,0,0,0,0,0,0,0,0,-1,1938,575,0,0
721,449,0,0,0,0,0,0,0,0,0,-1,1945,575,0,0
728,449,0,0,0,0,0,0,0,0,0,-1,1952,575,0,0
735,449,0,0,0,0,0,0,0,0,0,-1,1959,575,0,0
742,449,0,0,0,0,0,0,0,0,0,-1,1966,575,0,0
749,449,0,0,0,0,0,0,0,0,0,-1,1973,575,0,0
756,449,0,0,0,0,0,0,0,0,0,-1,1980,575,0,0
763,449,0,0,0,0,0,0,0,0,0,-1,1987,575,0,0
770,449,0,0,0,0,0,0,0,0,0,-1,1994,575,0,0
777,449,0,0,0,0,0,0,0,0,0,-1,2001,575,0,0
784,449,0,0,0,0,0,0,0,0,0,-1,2008,575,0,0
791,449,0,0,0,0,0,0,0,0,0,-1,2015,575,0,0
798,449,0,0,0,0,0,0,0,0,0,-1,2022,575,0,0
805,449,0,0,0,0,0,0,0,0,0,-1,2029,575,0,0
812,449,0,0,0,0,0,0,0,0,0,-1,2036,575,0,0
-700,442,0,0,0,0,0,0,0,0,0,-1,524,582,0,0
-693,442,0,0,0,0,0,0,0,0,0,-1,531,582,0,0
-686,442,0,0,0,0,0,0,0,0,0,-1,538,582,0,0
-679,442,0,0,0,0,0,0,0,0,0,-1,545,582,0,0
-672,442,0,0,0,0,0,0,0,0,0,-1,552,582,0,0
-665,442,0,0,0,0,0,0,0,0,0,-1,559,582,0,0
-658,442,0,0,0,0,0,0,0,0,0,-1,566,582,0,0
-651,442,0,0,0,0,0,0,0,0,0,-1,573,582,0,0
-644,442,0,0,0,0,0,0,0,0,0,-1,580,582,0,0
-637,442,0,0,0,0,0,0,0,0,0,-1,587,582,0,0
-630,442,0,0,0,0,0,0,0,0,0,-1,594,582,0,0
-623,442,0,0,0,0,0,0,0,0,0,-1,601,582,0,0
-616,442,0,0,0,0,0,0,0,0,0,-1,608,582,0,0
-609,442,0,0,0,0,0,0,0,0,0,-1,615,582,0,0
-602,442,0,0,0,0,0,0,0,0,0,-1,622,582,0,0
-595,442,0,0,0,0,0,0,0,0,0,-1,629,582,0,0
-588,442,0,0,0,0,0,0,0,0,0,-1,636,582,0,0
-581,442,0,0,0,0,0,0,0,0,0,-1,643,582,0,0
-574,442,0,0,0,0,0,0,0,0,0,-1,650,582,0,0
-567,442,0,0,0,0,0,0,0,0,0,-1,657,582,0,0
-560,442,0,0,0,0,0,0,0,0,0,-1,664,582,0,0
-553,442,0,0,0,0,0,0,0,0,0,-1,671,582,0,0
-546,442,0,0,0,0,0,0,0,0,0,-1,678,582,0,0
-539,442,0,0,0,0,0,0,0,0,0,-1,685,582,0,0
-532,442,0,0,0,0,0,0,0,0,0,-1,692,582,0,0
-525,442,0,0,0,0,0,0,0,0,0,-1,699,582,0,0
-518,442,-0.493774,-5.72943,0,0,0,0,0,0,0,-1,706,582,-0.493791,5.72946
-511,442,-1.33008,-6.18512,0,0,0,0,0,0,0,-1,713,582,-1.33006,6.18511
-504,442,-3.20807,-6.34082,0,0,0,0,0,0,0,-1,720,582,-3.2081,6.34083
-497,442,-13.6886,-0.250122,0,0,0,0,0,0,0,-1,727,582,-13.6886,0.250143
-490,442,-9.09039,-3.64862,0,0,0,0,0,0,0,-1,734,582,-9.09037,3.64861
-483,442,-7.36499,-1.01892,0,0,0,0,0,0,0,-1,741,582,-7.365,1.01895
-476,442,-4.62225,-3.47467,0,0,0,0,0,0,0,-1,748,582,-4.62225,3.47465
-469,442,-6.54816,-7.42548,0,0,0,0,0,0,0,-1,755,582,-6.54815,7.4255
-462,442,-6.66956,-8.59515,0,0,0,0,0,0,0,-1,762,582,-6.66954,8.59515
-455,442,-6.56677,-9.34589,-0.000750223,0.00701899,-0.00337079,0.00827758,-0.00200881,-1.21345,0.00629574,0.0420887,769,582,-6.56676,9.34588
-448,442,-6.45819,-9.92462,-0.000525351,0.00571728,-0.00263636,0.00668167,-0.00148974,-1.22011,0.00502518,0.0167088,776,582,-6.45818,9.92464
-441,442,-6.50549,-10.4626,-0.000356854,0.0045016,-0.00194987,0.00518736,-0.00104262,-1.23261,0.00385309,0.0130202,783,582,-6.50549,10.4626
-434,442,-6.53424,-11.0018,-0.00027055,0.00344697,-0.00131377,0.00386439,-0.000687968,-1.26316,0.00283356,0.012974,790,582,-6.53426,11.0018
-427,442,-6.55579,-11.5173,-0.00019063,0.00241624,-0.000731607,0.00260752,-0.000381916,-1.31506,0.00187864,0.0133002,797,582,-6.5558,11.5173
-420,442,-6.54163,-12.0261,-4.28874e-05,0.00152098,-0.000282176,0.00157033,-9.22442e-05,-1.39763,0.00107895,0.0134168,804,582,-6.5416,12.0261
-413,442,-6.54541,-12.565,2.94914e-05,0.000481042,0.000272399,0.000609068,-9.85355e-05,1.13144,0.000442562,0.01069,811,582,-6.54541,12.565
-406,442,-6.57458,-13.0967,0.000150321,-0.000279245,0.000706067,0.00067355,-0.000802475,0.637747,0.000853266,0.00912836,818,582,-6.57461,13.0967
-399,442,-6.60278,-13.617,0.000398845,-0.000968024,0.00106839,0.000983689,-0.00155287,0.500852,0.00147672,0.0086291,825,582,-6.60279,13.617
-392,442,-6.6098,-14.1188,0.0008026,-0.00162694,0.00136496,0.00141507,-0.0022394,0.421777,0.00212773,0.0107587,832,582,-6.6098,14.1188
-385,442,-6.62415,-14.6131,0.00132701,-0.00213248,0.00158603,0.00194408,-0.00274954,0.371041,0.00272313,0.0129979,839,582,-6.62418,14.6131
-378,442,-6.63507,-15.1172,0.00188078,-0.00267153,0.00188059,0.00255717,-0.00334792,0.345261,0.00341948,0.0154228,846,582,-6.63505,15.1172
-371,442,-6.56244,-15.6648,0.00276401,-0.0029002,0.0020407,0.00342264,-0.00355883,0.312195,0.00403101,0.044877,853,582,-6.56241,15.6648
-364,442,-6.37689,-16.2056,0,0,0,0,0,0,0,-1,860,582,-6.37691,16.2056
-357,442,-4.9115,-11.2649,0,0,0,0,0,0,0,-1,867,582,-4.91147,11.2649
-350,442,-1.75372,-6.27618,0,0,0,0,0,0,0,-1,874,582,-1.75371,6.27618
-343,442,-1.4599,-4.63605,0,0,0,0,0,0,0,-1,881,582,-1.4599,4.63607
-336,442,-1.4054,-2.64313,0,0,0,0,0,0,0,-1,888,582,-1.40539,2.64315
-329,442,-0.952576,-2.76923,0,0,0,0,0,0,0,-1,895,582,-0.952571,2.7692
-322,442,-0.972534,-2.63208,0,0,0,0,0,0,0,-1,902,582,-0.972512,2.6321
-315,442,-0.445557,-2.89764,0,0,0,0,0,0,0,-1,909,582,-0.445582,2.89765
-308,442,-0.654175,-3.07831,0,0,0,0,0,0,0,-1,916,582,-0.654145,3.07832
-301,442,-1.37427,-2.41455,0,0,0,0,0,0,0,-1,923,582,-1.37425,2.41453
-294,442,-2.99963,-2.07855,0,0,0,0,0,0,0,-1,930,582,-2.99964,2.07857
-287,442,-5.62799,-2.76422,0,0,0,0,0,0,0,-1,937,582,-5.628,2.76424
-280,442,0,0,0,0,0,0,0,0,0,-1,944,582,0,0
-273,442,0,0,0,0,0,0,0,0,0,-1,951,582,0,0
-266,442,0,0,0,0,0,0,0,0,0,-1,958,582,0,0
-259,442,0,0,0,0,0,0,0,0,0,-1,965,582,0,0
-252,442,0,0,0,0,0,0,0,0,0,-1,972,582,0,0
-245,442,0,0,0,0,0,0,0,0,0,-1,979,582,0,0
-238,442,0,0,0,0,0,0,0,0,0,-1,986,582,0,0
-231,442,0,0,0,0,0,0,0,0,0,-1,993,582,0,0
-224,442,0,0,0,0,0,0,0,0,0,-1,1000,582,0,0
-217,442,0,0,0,0,0,0,0,0,0,-1,1007,582,0,0
-210,442,0,0,0,0,0,0,0,0,0,-1,1014,582,0,0
-203,442,0,0,0,0,0,0,0,0,0,-1,1021,582,0,0
-196,442,0,0,0,0,0,0,0,0,0,-1,1028,582,0,0
-189,442,0,0,0,0,0,0,0,0,0,-1,1035,582,0,0
-182,442,0,0,0,0,0,0,0,0,0,-1,1042,582,0,0
-175,442,0,0,0,0,0,0,0,0,0,-1,1049,582,0,0
-168,442,0,0,0,0,0,0,0,0,0,-1,1056,582,0,0
-161,442,0,0,0,0,0,0,0,0,0,-1,1063,582,0,0
-154,442,0,0,0,0,0,0,0,0,0,-1,1070,582,0,0
-147,442,0,0,0,0,0,0,0,0,0,-1,1077,582,0,0
-140,442,0,0,0,0,0,0,0,0,0,-1,1084,582,0,0
-133,442,0,0,0,0,0,0,0,0,0,-1,1091,582,0,0
-126,442,0,0,0,0,0,0,0,0,0,-1,1098,582,0,0
-119,442,0,0,0,0,0,0,0,0,0,-1,1105,582,0,0
-112,442,0,0,0,0,0,0,0,0,0,-1,1112,582,0,0
-105,442,0,0,0,0,0,0,0,0,0,-1,1119,582,0,0
-98,442,0,0,0,0,0,0,0,0,0,-1,1126,582,0,0
-91,442,0,0,0,0,0,0,0,0,0,-1,1133,582,0,0
-84,442,0,0,0,0,0,0,0,0,0,-1,1140,582,0,0
-77,442,0,0,0,0,0,0,0,0,0,-1,1147,582,0,0
-70,442,0,0,0,0,0,0,0,0,0,-1,1154,582,0,0
-63,442,0,0,0,0,0,0,0,0,0,-1,1161,582,0,0
-56,442,0,0,0,0,0,0,0,0,0,-1,1168,582,0,0
-49,442,0,0,0,0,0,0,0,0,0,-1,1175,582,0,0
-42,442,0,0,0,0,0,0,0,0,0,-1,1182,582,0,0
-35,442,0,0,0,0,0,0,0,0,0,-1,1189,582,0,0
-28,442,0,0,0,0,0,0,0,0,0,-1,1196,582,0,0
-21,442,0,0,0,0,0,0,0,0,0,-1,1203,582,0,0
-14,442,0,0,0,0,0,0,0,0,0,-1,1210,582,0,0
-7,442,0,0,0,0,0,0,0,0,0,-1,1217,582,0,0
0,442,0,0,0,0,0,0,0,0,0,-1,1224,582,0,0
7,442,0,0,0,0,0,0,0,0,0,-1,1231,582,0,0
14,442,0,0,0,0,0,0,0,0,0,-1,1238,582,0,0
21,442,0,0,0,0,0,0,0,0,0,-1,1245,582,0,0
28,442,0,0,0,0,0,0,0,0,0,-1,1252,582,0,0
35,442,0,0,0,0,0,0,0,0,0,-1,1259,582,0,0
42,442,0,0,0,0,0,0,0,0,0,-1,1266,582,0,0
49,442,0,0,0,0,0,0,0,0,0,-1,1273,582,0,0
56,442,0,0,0,0,0,0,0,0,0,-1,1280,582,0,0
63,442,0,0,0,0,0,0,0,0,0,-1,1287,582,0,0
70,442,0,0,0,0,0,0,0,0,0,-1,1294,582,0,0
77,442,0,0,0,0,0,0,0,0,0,-1,1301,582,0,0
84,442,0,0,0,0,0,0,0,0,0,-1,1308,582,0,0
91,442,0,0,0,0,0,0,0,0,0,-1,1315,582,0,0
98,442,0,0,0,0,0,0,0,0,0,-1,1322,582,0,0
105,442,0,0,0,0,0,0,0,0,0,-1,1329,582,0,0
112,442,0,0,0,0,0,0,0,0,0,-1,1336,582,0,0
119,442,0,0,0,0,0,0,0,0,0,-1,1343,582,0,0
126,442,0,0,0,0,0,0,0,0,0,-1,1350,582,0,0
133,442,0,0,0,0,0,0,0,0,0,-1,1357,582,0,0
140,442,0,0,0,0,0,0,0,0,0,-1,1364,582,0,0
147,442,0,0,0,0,0,0,0,0,0,-1,1371,582,0,0
154,442,0,0,0,0,0,0,0,0,0,-1,1378,582,0,0
161,442,0,0,0,0,0,0,0,0,0,-1,1385,582,0,0
168,442,0,0,0,0,0,0,0,0,0,-1,1392,582,0,0
175,442,0,0,0,0,0,0,0,0,0,-1,1399,582,0,0
182,442,0,0,0,0,0,0,0,0,0,-1,1406,582,0,0
189,442,0,0,0,0,0,0,0,0,0,-1,1413,582,0,0
196,442,0,0,0,0,0,0,0,0,0,-1,1420,582,0,0
203,442,0,0,0,0,0,0,0,0,0,-1,1427,582,0,0
210,442,0,0,0,0,0,0,0,0,0,-1,1434,582,0,0
217,442,0,0,0,0,0,0,0,0,0,-1,1441,582,0,0
224,442,0,0,0,0,0,0,0,0,0,-1,1448,582,0,0
231,442,0,0,0,0,0,0,0,0,0,-1,1455,582,0,0
238,442,0,0,0,0,0,0,0,0,0,-1,1462,582,0,0
245,442,0,0,0,0,0,0,0,0,0,-1,1469,582,0,0
252,442,0,0,0,0,0,0,0,0,0,-1,1476,582,0,0
259,442,0,0,0,0,0,0,0,0,0,-1,1483,582,0,0
266,442,0,0,0,0,0,0,0,0,0,-1,1490,582,0,0
273,442,0,0,0,0,0,0,0,0,0,-1,1497,582,0,0
280,442,0,0,0,0,0,0,0,0,0,-1,1504,582,0,0
287,442,0,0,0,0,0,0,0,0,0,-1,1511,582,0,0
294,442,0,0,0,0,0,0,0,0,0,-1,1518,582,0,0
301,442,0,0,0,0,0,0,0,0,0,-1,1525,582,0,0
308,442,0,0,0,0,0,0,0,0,0,-1,1532,582,0,0
315,442,0,0,0,0,0,0,0,0,0,-1,1539,582,0,0
322,442,0,0,0,0,0,0,0,0,0,-1,1546,582,0,0
329,442,0,0,0,0,0,0,0,0,0,-1,1553,582,0,0
336,442,0,0,0,0,0,0,0,0,0,-1,1560,582,0,0
343,442,0,0,0,0,0,0,0,0,0,-1,1567,582,0,0
350,442,0,0,0,0,0,0,0,0,0,-1,1574,582,0,0
357,442,0,0,0,0,0,0,0,0,0,-1,1581,582,0,0
364,442,0,0,0,0,0,0,0,0,0,-1,1588,582,0,0
371,442,0,0,0,0,0,0,0,0,0,-1,1595,582,0,0
378,442,0,0,0,0,0,0,0,0,0,-1,1602,582,0,0
385,442,0,0,0,0,0,0,0,0,0,-1,1609,582,0,0
392,442,0,0,0,0,0,0,0,0,0,-1,1616,582,0,0
399,442,0,0,0,0,0,0,0,0,0,-1,1623,582,0,0
406,442,17.6321,4.08295,0,0,0,0,0,0,0,-1,1630,582,17.6321,-4.08293
413,442,25.4768,2.74445,0,0,0,0,0,0,0,-1,1637,582,25.4768,-2.74444
420,442,22.7478,1.55011,0,0,0,0,0,0,0,-1,1644,582,22.7478,-1.55009
427,442,23.2969,-0.456787,0,0,0,0,0,0,0,-1,1651,582,23.2968,0.456769
434,442,23.9512,-2.49365,0,0,0,0,0,0,0,-1,1658,582,23.9512,2.49366
441,442,24.8251,-4.43958,0,0,0,0,0,0,0,-1,1665,582,24.8251,4.43956
448,442,4.7749,-5.88562,0,0,0,0,0,0,0,-1,1672,582,4.7749,5.8856
455,442,4.87024,-4.60687,0,0,0,0,0,0,0,-1,1679,582,4.87019,4.60686
462,442,5.02307,-3.72821,0,0,0,0,0,0,0,-1,1686,582,5.02311,3.7282
469,442,5.12976,-2.98834,0,0,0,0,0,0,0,-1,1693,582,5.12971,2.98834
476,442,5.4624,1.76947,0,0,0,0,0,0,0,-1,1700,582,5.46234,-1.76944
483,442,5.98486,1.87042,0,0,0,0,0,0,0,-1,1707,582,5.98492,-1.87045
490,442,5.04407,-2.35834,0,0,0,0,0,0,0,-1,1714,582,5.04411,2.35837
497,442,6.20984,-3.07831,0,0,0,0,0,0,0,-1,1721,582,6.2098,3.07833
504,442,15.9266,-13.8783,0,0,0,0,0,0,0,-1,1728,582,15.9267,13.8783
511,442,16.0673,-13.2374,0.00532464,0.00269915,0.00257535,0.00690252,0.00112127,0.549696,0.0042772,0.0336168,1735,582,16.0673,13.2373
518,442,16.1583,-12.6627,0.00456204,0.00229389,0.00232829,0.00601776,0.00083817,0.558767,0.00376369,0.012885,1742,582,16.1584,12.6627
525,442,16.1089,-12.1334,0.0036644,0.00203628,0.00203158,0.00503895,0.000661729,0.594842,0.00316189,0.0113561,1749,582,16.1089,12.1334
532,442,16.0759,-11.5834,0.00274736,0.00165903,0.00164583,0.00393665,0.000469742,0.625739,0.00248271,0.0122158,1756,582,16.0759,11.5834
539,442,16.0631,-11.0321,0.00193858,0.00128373,0.00130909,0.00296057,0.000261742,0.662854,0.00189251,0.0125105,1763,582,16.0631,11.0321
546,442,16.0752,-10.4965,0.00112132,0.000884443,0.000948029,0.00195828,4.74829e-05,0.723254,0.00128998,0.0156148,1770,582,16.0752,10.4965
553,442,16.0383,-9.95691,0.000201308,0.000566769,0.000574179,0.000986592,-0.000218516,0.939454,0.00074138,0.0168511,1777,582,16.0384,9.95692
560,442,16.0365,-9.39771,-0.000738184,0.000232561,0.000212409,0.000277003,-0.000782627,1.36454,0.000634569,0.0158532,1784,582,16.0365,9.39773
567,442,16.0225,-8.83807,-0.00163886,3.02907e-05,-7.49776e-05,3.36519e-05,-0.00164222,-1.526,0.0011062,0.0109979,1791,582,16.0224,8.83808
574,442,16.0179,-8.28723,-0.00263432,-0.000107506,-0.000376291,-5.26594e-05,-0.00268916,-1.42606,0.00177548,0.0127866,1798,582,16.0179,8.28724
581,442,16.0607,-7.67938,-0.00380352,-0.000139693,-0.000662007,-2.37463e-05,-0.00391947,-1.39741,0.0026051,0.0255884,1805,582,16.0606,7.67937
588,442,16.142,-7.03699,0,0,0,0,0,0,0,-1,1812,582,16.142,7.03701
595,442,15.8801,-6.66101,0,0,0,0,0,0,0,-1,1819,582,15.8801,6.66101
602,442,11.4385,-1.74512,0,0,0,0,0,0,0,-1,1826,582,11.4385,1.74509
609,442,12.761,2.97223,0,0,0,0,0,0,0,-1,1833,582,12.761,-2.97221
616,442,9.78345,-0.103394,0,0,0,0,0,0,0,-1,1840,582,9.78341,0.103424
623,442,9.23828,0.326721,0,0,0,0,0,0,0,-1,1847,582,9.23829,-0.326727
630,442,7.74304,2.3924,0,0,0,0,0,0,0,-1,1854,582,7.7431,-2.39238
637,442,5.87805,1.84027,0,0,0,0,0,0,0,-1,1861,582,5.87807,-1.84025
644,442,0,0,0,0,0,0,0,0,0,-1,1868,582,0,0
651,442,0,0,0,0,0,0,0,0,0,-1,1875,582,0,0
658,442,0,0,0,0,0,0,0,0,0,-1,1882,582,0,0
665,442,0,0,0,0,0,0,0,0,0,-1,1889,582,0,0
672,442,0,0,0,0,0,0,0,0,0,-1,1896,582,0,0
679,442,0,0,0,0,0,0,0,0,0,-1,1903,582,0,0
686,442,0,0,0,0,0,0,0,0,0,-1,1910,582,0,0
693,442,0,0,0,0,0,0,0,0,0,-1,1917,582,0,0
700,442,0,0,0,0,0,0,0,0,0,-1,1924,582,0,0
707,442,0,0,0,0,0,0,0,0,0,-1,1931,582,0,0
714,442,0,0,0,0,0,0,0,0,0,-1,1938,582,0,0
721,442,0,0,0,0,0,0,0,0,0,-1,1945,582,0,0
728,442,0,0,0,0,0,0,0,0,0,-1,1952,582,0,0
735,442,0,0,0,0,0,0,0,0,0,-1,1959,582,0,0
742,442,0,0,0,0,0,0,0,0,0,-1,1966,582,0,0
749,442,0,0,0,0,0,0,0,0,0,-1,1973,582,0,0
756,442,0,0,0,0,0,0,0,0,0,-1,1980,582,0,0
763,442,0,0,0,0,0,0,0,0,0,-1,1987,582,0,0
770,442,0,0,0,0,0,0,0,0,0,-1,1994,582,0,0
777,442,0,0,0,0,0,0,0,0,0,-1,2001,582,0,0
784,442,0,0,0,0,0,0,0,0,0,-1,2008,582,0,0
791,442,0,0,0,0,0,0,0,0,0,-1,2015,582,0,0
798,442,0,0,0,0,0,0,0,0,0,-1,2022,582,0,0
805,442,0,0,0,0,0,0,0,0,0,-1,2029,582,0,0
812,442,0,0,0,0,0,0,0,0,0,-1,2036,582,0,0
-700,435,0,0,0,0,0,0,0,0,0,-1,524,589,0,0
-693,435,0,0,0,0,0,0,0,0,0,-1,531,589,0,0
-686,435,0,0,0,0,0,0,0,0,0,-1,538,589,0,0
-679,435,0,0,0,0,0,0,0,0,0,-1,545,589,0,0
-672,435,0,0,0,0,0,0,0,0,0,-1,552,589,0,0
-665,435,0,0,0,0,0,0,0,0,0,-1,559,589,0,0
-658,435,0,0,0,0,0,0,0,0,0,-1,566,589,0,0
-651,435,0,0,0,0,0,0,0,0,0,-1,573,589,0,0
-644,435,0,0,0,0,0,0,0,0,0,-1,580,589,0,0
-637,435,0,0,0,0,0,0,0,0,0,-1,587,589,0,0
-630,435,0,0,0,0,0,0,0,0,0,-1,594,589,0,0
-623,435,0,0,0,0,0,0,0,0,0,-1,601,589,0,0
-616,435,0,0,0,0,0,0,0,0,0,-1,608,589,0,0
-609,435,0,0,0,0,0,0,0,0,0,-1,615,589,0,0
-602,435,0,0,0,0,0,0,0,0,0,-1,622,589,0,0
-595,435,0,0,0,0,0,0,0,0,0,-1,629,589,0,0
-588,435,0,0,0,0,0,0,0,0,0,-1,636,589,0,0
-581,435,0,0,0,0,0,0,0,0,0,-1,643,589,0,0
-574,435,0,0,0,0,0,0,0,0,0,-1,650,589,0,0
-567,435,0,0,0,0,0,0,0,0,0,-1,657,589,0,0
-560,435,0,0,0,0,0,0,0,0,0,-1,664,589,0,0
-553,435,0,0,0,0,0,0,0,0,0,-1,671,589,0,0
-546,435,0,0,0,0,0,0,0,0,0,-1,678,589,0,0
-539,435,0,0,0,0,0,0,0,0,0,-1,685,589,0,0
-532,435,0,0,0,0,0,0,0,0,0,-1,692,589,0,0
-525,435,-10.0776,10.0547,0,0,0,0,0,0,0,-1,699,589,-10.0776,-10.0547
-518,435,-1.83093,-5.82367,0,0,0,0,0,0,0,-1,706,589,-1.83093,5.8237
-511,435,-2.45154,-5.33118,0,0,0,0,0,0,0,-1,713,589,-2.45151,5.33115
-504,435,-3.07208,-4.83862,0,0,0,0,0,0,0,-1,720,589,-3.0721,4.8386
-497,435,-6.31012,-5.84698,0,0,0,0,0,0,0,-1,727,589,-6.31012,5.84697
-490,435,-5.81903,-0.458679,0,0,0,0,0,0,0,-1,734,589,-5.81902,0.458684
-483,435,-6.96503,-3.01624,0,0,0,0,0,0,0,-1,741,589,-6.96505,3.01623
-476,435,-7.15179,-7.07507,0,0,0,0,0,0,0,-1,748,589,-7.1518,7.07508
-469,435,-6.96344,-7.82648,-0.000927692,0.00755572,-0.00429994,0.00935401,-0.00272598,-1.17469,0.00731596,0.0356518,755,589,-6.96346,7.82647
-462,435,-6.88281,-8.73212,-0.000601278,0.00640962,-0.00353429,0.00788206,-0.00207372,-1.17605,0.00606529,0.0226601,762,589,-6.88281,8.73209
-455,435,-7.03467,-9.3111,-0.0003554,0.0053844,-0.00281976,0.00653786,-0.00150885,-1.1825,0.00493895,0.0209434,769,589,-7.03465,9.31109
-448,435,-7.00696,-9.92194,-0.000175441,0.00430363,-0.0021707,0.00518298,-0.00105479,-1.1859,0.00385532,0.0132458,776,589,-7.00699,9.92194
-441,435,-7.0141,-10.439,-7.12424e-05,0.00326059,-0.00151912,0.00384922,-0.000659876,-1.20113,0.00281203,0.0111796,783,589,-7.01411,10.4389
-434,435,-7.03967,-10.964,-3.77408e-05,0.00233292,-0.000899613,0.00263564,-0.000340467,-1.24619,0.00188088,0.0116505,790,589,-7.03965,10.964
-427,435,-7.06628,-11.512,-1.52921e-05,0.00137476,-0.000304728,0.00143863,-7.91601e-05,-1.3642,0.000986532,0.00998311,797,589,-7.06628,11.512
-420,435,-7.06732,-12.0192,7.01713e-05,0.000536952,0.000172106,0.000593547,1.35765e-05,1.2531,0.000391251,0.0106503,804,589,-7.06734,12.0192
-413,435,-7.07709,-12.5504,7.07963e-05,-0.000422847,0.00075382,0.000617174,-0.000969224,0.627185,0.000923394,0.011068,811,589,-7.07709,12.5504
-406,435,-7.09052,-13.0726,9.92319e-05,-0.00117619,0.00124789,0.000862916,-0.00193987,0.549181,0.00165753,0.0110443,818,589,-7.0905,13.0727
-399,435,-7.11694,-13.59,0.000274836,-0.00187546,0.0016583,0.00117603,-0.00277665,0.497794,0.00234362,0.00953379,825,589,-7.11697,13.59
-392,435,-7.1427,-14.1078,0.00062454,-0.00252255,0.00199999,0.0015958,-0.0034938,0.452086,0.00300582,0.0104214,832,589,-7.14268,14.1079
-385,435,-7.14563,-14.6076,0.00107623,-0.00304938,0.00229005,0.00209555,-0.0040687,0.418779,0.0036192,0.018191,839,589,-7.14562,14.6076
-378,435,-7.17389,-15.0305,0.00155158,-0.00366558,0.00271598,0.0027088,-0.0048228,0.402783,0.0044051,0.0400784,846,589,-7.1739,15.0305
-371,435,-7.40094,-15.5554,0,0,0,0,0,0,0,-1,853,589,-7.40092,15.5554
-364,435,-5.62848,-11.5937,0,0,0,0,0,0,0,-1,860,589,-5.62847,11.5937
-357,435,-5.57343,-10.9666,0,0,0,0,0,0,0,-1,867,589,-5.57342,10.9666
-350,435,-0.86676,-3.69836,0,0,0,0,0,0,0,-1,874,589,-0.866784,3.69834
-343,435,-1.60706,-2.36835,0,0,0,0,0,0,0,-1,881,589,-1.60706,2.36838
-336,435,-2.07263,-1.94012,0,0,0,0,0,0,0,-1,888,589,-2.07265,1.94014
-329,435,-2.55963,-1.5517,0,0,0,0,0,0,0,-1,895,589,-2.5596,1.55168
-322,435,-3.08545,-1.55255,0,0,0,0,0,0,0,-1,902,589,-3.08544,1.55254
-315,435,-0.404297,-2.63763,0,0,0,0,0,0,0,-1,909,589,-0.404276,2.63761
-308,435,-1.70056,-1.90369,0,0,0,0,0,0,0,-1,916,589,-1.70056,1.90367
-301,435,-1.25232,-2.05511,0,0,0,0,0,0,0,-1,923,589,-1.25234,2.05514
-294,435,-1.79974,-1.97321,0,0,0,0,0,0,0,-1,930,589,-1.79973,1.97322
-287,435,0,0,0,0,0,0,0,0,0,-1,937,589,0,0
-280,435,0,0,0,0,0,0,0,0,0,-1,944,589,0,0
-273,435,0,0,0,0,0,0,0,0,0,-1,951,589,0,0
-266,435,0,0,0,0,0,0,0,0,0,-1,958,589,0,0
-259,435,0,0,0,0,0,0,0,0,0,-1,965,589,0,0
-252,435,0,0,0,0,0,0,0,0,0,-1,972,589,0,0
-245,435,0,0,0,0,0,0,0,0,0,-1,979,589,0,0
-238,435,0,0,0,0,0,0,0,0,0,-1,986,589,0,0
-231,435,0,0,0,0,0,0,0,0,0,-1,993,589,0,0
-224,435,0,0,0,0,0,0,0,0,0,-1,1000,589,0,0
-217,435,0,0,0,0,0,0,0,0,0,-1,1007,589,0,0
-210,435,0,0,0,0,0,0,0,0,0,-1,1014,589,0,0
-203,435,0,0,0,0,0,0,0,0,0,-1,1021,589,0,0
-196,435,0,0,0,0,0,0,0,0,0,-1,1028,589,0,0
-189,435,0,0,0,0,0,0,0,0,0,-1,1035,589,0,0
-182,435,0,0,0,0,0,0,0,0,0,-1,1042,589,0,0
-175,435,0,0,0,0,0,0,0,0,0,-1,1049,589,0,0
-168,435,0,0,0,0,0,0,0,0,0,-1,1056,589,0,0
-161,435,0,0,0,0,0,0,0,0,0,-1,1063,589,0,0
-154,435,0,0,0,0,0,0,0,0,0,-1,1070,589,0,0
-147,435,0,0,0,0,0,0,0,0,0,-1,1077,589,0,0
-140,435,0,0,0,0,0,0,0,0,0,-1,1084,589,0,0
-133,435,0,0,0,0,0,0,0,0,0,-1,1091,589,0,0
-126,435,0,0,0,0,0,0,0,0,0,-1,1098,589,0,0
-119,435,0,0,0,0,0,0,0,0,0,-1,1105,589,0,0
-112,435,0,0,0,0,0,0,0,0,0,-1,1112,589,0,0
-105,435,0,0,0,0,0,0,0,0,0,-1,1119,589,0,0
-98,435,0,0,0,0,0,0,0,0,0,-1,1126,589,0,0
-91,435,0,0,0,0,0,0,0,0,0,-1,1133,589,0,0
-84,435,0,0,0,0,0,0,0,0,0,-1,1140,589,0,0
-77,435,0,0,0,0,0,0,0,0,0,-1,1147,589,0,0
-70,435,0,0,0,0,0,0,0,0,0,-1,1154,589,0,0
-63,435,0,0,0,0,0,0,0,0,0,-1,1161,589,0,0
-56,435,0,0,0,0,0,0,0,0,0,-1,1168,589,0,0
-49,435,0,0,0,0,0,0,0,0,0,-1,1175,589,0,0
-42,435,0,0,0,0,0,0,0,0,0,-1,1182,589,0,0
-35,435,0,0,0,0,0,0,0,0,0,-1,1189,589,0,0
-28,435,0,0,0,0,0,0,0,0,0,-1,1196,589,0,0
-21,435,0,0,0,0,0,0,0,0,0,-1,1203,589,0,0
-14,435,0,0,0,0,0,0,0,0,0,-1,1210,589,0,0
-7,435,0,0,0,0,0,0,0,0,0,-1,1217,589,0,0
0,435,0,0,0,0,0,0,0,0,0,-1,1224,589,0,0
7,435,0,0,0,0,0,0,0,0,0,-1,1231,589,0,0
14,435,0,0,0,0,0,0,0,0,0,-1,1238,589,0,0
21,435,0,0,0,0,0,0,0,0,0,-1,1245,589,0,0
28,435,0,0,0,0,0,0,0,0,0,-1,1252,589,0,0
35,435,0,0,0,0,0,0,0,0,0,-1,1259,589,0,0
42,435,0,0,0,0,0,0,0,0,0,-1,1266,589,0,0
49,435,0,0,0,0,0,0,0,0,0,-1,1273,589,0,0
56,435,0,0,0,0,0,0,0,0,0,-1,1280,589,0,0
63,435,0,0,0,0,0,0,0,0,0,-1,1287,589,0,0
70,435,0,0,0,0,0,0,0,0,0,-1,1294,589,0,0
77,435,0,0,0,0,0,0,0,0,0,-1,1301,589,0,0
84,435,0,0,0,0,0,0,0,0,0,-1,1308,589,0,0
91,435,0,0,0,0,0,0,0,0,0,-1,1315,589,0,0
98,435,0,0,0,0,0,0,0,0,0,-1,1322,589,0,0
105,435,0,0,0,0,0,0,0,0,0,-1,1329,589,0,0
112,435,0,0,0,0,0,0,0,0,0,-1,1336,589,0,0
119,435,0,0,0,0,0,0,0,0,0,-1,1343,589,0,0
126,435,0,0,0,0,0,0,0,0,0,-1,1350,589,0,0
133,435,0,0,0,0,0,0,0,0,0,-1,1357,589,0,0
140,435,0,0,0,0,0,0,0,0,0,-1,1364,589,0,0
147,435,0,0,0,0,0,0,0,0,0,-1,1371,589,0,0
154,435,0,0,0,0,0,0,0,0,0,-1,1378,589,0,0
161,435,0,0,0,0,0,0,0,0,0,-1,1385,589,0,0
168,435,0,0,0,0,0,0,0,0,0,-1,1392,589,0,0
175,435,0,0,0,0,0,0,0,0,0,-1,1399,589,0,0
182,435,0,0,0,0,0,0,0,0,0,-1,1406,589,0,0
189,435,0,0,0,0,0,0,0,0,0,-1,1413,589,0,0
196,435,0,0,0,0,0,0,0,0,0,-1,1420,589,0,0
203,435,0,0,0,0,0,0,0,0,0,-1,1427,589,0,0
210,435,0,0,0,0,0,0,0,0,0,-1,1434,589,0,0
217,435,0,0,0,0,0,0,0,0,0,-1,1441,589,0,0
224,435,0,0,0,0,0,0,0,0,0,-1,1448,589,0,0
231,435,0,0,0,0,0,0,0,0,0,-1,1455,589,0,0
238,435,0,0,0,0,0,0,0,0,0,-1,1462,589,0,0
245,435,0,0,0,0,0,0,0,0,0,-1,1469,589,0,0
252,435,0,0,0,0,0,0,0,0,0,-1,1476,589,0,0
259,435,0,0,0,0,0,0,0,0,0,-1,1483,589,0,0
266,435,0,0,0,0,0,0,0,0,0,-1,1490,589,0,0
273,435,0,0,0,0,0,0,0,0,0,-1,1497,589,0,0
280,435,0,0,0,0,0,0,0,0,0,-1,1504,589,0,0
287,435,0,0,0,0,0,0,0,0,0,-1,1511,589,0,0
294,435,0,0,0,0,0,0,0,0,0,-1,1518,589,0,0
301,435,0,0,0,0,0,0,0,0,0,-1,1525,589,0,0
308,435,0,0,0,0,0,0,0,0,0,-1,1532,589,0,0
315,435,0,0,0,0,0,0,0,0,0,-1,1539,589,0,0
322,435,0,0,0,0,0,0,0,0,0,-1,1546,589,0,0
329,435,0,0,0,0,0,0,0,0,0,-1,1553,589,0,0
336,435,0,0,0,0,0,0,0,0,0,-1,1560,589,0,0
343,435,0,0,0,0,0,0,0,0,0,-1,1567,589,0,0
350,435,0,0,0,0,0,0,0,0,0,-1,1574,589,0,0
357,435,0,0,0,0,0,0,0,0,0,-1,1581,589,0,0
364,435,0,0,0,0,0,0,0,0,0,-1,1588,589,0,0
371,435,0,0,0,0,0,0,0,0,0,-1,1595,589,0,0
378,435,0,0,0,0,0,0,0,0,0,-1,1602,589,0,0
385,435,0,0,0,0,0,0,0,0,0,-1,1609,589,0,0
392,435,0,0,0,0,0,0,0,0,0,-1,1616,589,0,0
399,435,0,0,0,0,0,0,0,0,0,-1,1623,589,0,0
406,435,0,0,0,0,0,0,0,0,0,-1,1630,589,0,0
413,435,20.4565,3.49835,0,0,0,0,0,0,0,-1,1637,589,20.4565,-3.49836
420,435,21.4015,1.49609,0,0,0,0,0,0,0,-1,1644,589,21.4015,-1.49609
427,435,22.0464,-0.373962,0,0,0,0,0,0,0,-1,1651,589,22.0464,0.373972
434,435,22.1863,-1.54407,0,0,0,0,0,0,0,-1,1658,589,22.1862,1.54405
441,435,22.3992,-2.38287,0,0,0,0,0,0,0,-1,1665,589,22.3992,2.38289
448,435,7.4585,-0.00292969,0,0,0,0,0,0,0,-1,1672,589,7.45848,0.00294131
455,435,5.49915,-5.047,0,0,0,0,0,0,0,-1,1679,589,5.49914,5.04703
462,435,5.60669,-4.71466,0,0,0,0,0,0,0,-1,1686,589,5.60675,4.71469
469,435,5.87708,1.22351,0,0,0,0,0,0,0,-1,1693,589,5.87703,-1.22351
476,435,6.14136,1.37714,0,0,0,0,0,0,0,-1,1700,589,6.14138,-1.37712
483,435,6.49243,1.36169,0,0,0,0,0,0,0,-1,1707,589,6.49242,-1.36171
490,435,4.38391,-1.36218,0,0,0,0,0,0,0,-1,1714,589,4.38389,1.3622
497,435,7.23499,-3.64551,0,0,0,0,0,0,0,-1,1721,589,7.23495,3.64551
504,435,7.31189,-3.75909,0,0,0,0,0,0,0,-1,1728,589,7.31184,3.75911
511,435,16.5586,-13.3325,0,0,0,0,0,0,0,-1,1735,589,16.5586,13.3324
518,435,16.7061,-12.6879,0.0056284,0.00287861,0.00279216,0.00736582,0.0011412,0.556618,0.00457781,0.0285832,1742,589,16.706,12.6879
525,435,16.6495,-12.121,0.00462879,0.00256702,0.00247032,0.00627469,0.00092112,0.587729,0.0039124,0.0132492,1749,589,16.6496,12.121
532,435,16.6394,-11.5511,0.0036437,0.00208572,0.00203121,0.00504017,0.000689247,0.602292,0.00315556,0.0154574,1756,589,16.6394,11.5511
539,435,16.6555,-10.993,0.00282102,0.00167404,0.00167269,0.0040158,0.000479258,0.620249,0.00253261,0.0160802,1763,589,16.6555,10.993
546,435,16.6205,-10.4493,0.00202481,0.00125619,0.00131581,0.00301129,0.000269719,0.643314,0.00192393,0.015016,1770,589,16.6205,10.4493
553,435,16.5862,-9.94531,0.0011291,0.000889035,0.000939805,0.0019565,6.16271e-05,0.721883,0.00128429,0.0112566,1777,589,16.5862,9.94528
560,435,16.568,-9.41425,0.000198462,0.000552702,0.000576624,0.000978796,-0.000227632,0.934408,0.000740169,0.00973254,1784,589,16.568,9.41426
567,435,16.5741,-8.82532,-0.000690622,0.000388886,0.000300822,0.000467054,-0.000768791,1.31657,0.00072057,0.00935819,1791,589,16.5741,8.82534
574,435,16.5436,-8.27863,-0.00159208,0.000321426,5.18941e-05,0.000322832,-0.00159349,1.5437,0.00118469,0.0107791,1798,589,16.5436,8.27865
581,435,16.5048,-7.74786,-0.00257117,0.00039522,-0.00015257,0.000403047,-0.002579,-1.51954,0.00186823,0.0181512,1805,589,16.5047,7.74788
588,435,16.4968,-7.21387,-0.0035073,0.000751244,-0.000234216,0.000764087,-0.00352015,-1.51602,0.0026386,0.0396436,1812,589,16.4968,7.21386
595,435,16.322,-6.65204,-0.00446146,0.0016009,-0.000159999,0.00160512,-0.00446568,-1.54443,0.00363237,0.04621,1819,589,16.322,6.65202
602,435,16.1887,-5.51788,0,0,0,0,0,0,0,-1,1826,589,16.1887,5.51787
609,435,15.2611,-3.42242,0,0,0,0,0,0,0,-1,1833,589,15.2611,3.42242
616,435,5.05151,-2.75269,0,0,0,0,0,0,0,-1,1840,589,5.05157,2.7527
623,435,11.7588,3.9704,0,0,0,0,0,0,0,-1,1847,589,11.7587,-3.97043
630,435,4.72742,-0.87561,0,0,0,0,0,0,0,-1,1854,589,4.7274,0.875636
637,435,5.05286,1.48792,0,0,0,0,0,0,0,-1,1861,589,5.05291,-1.48792
644,435,0,0,0,0,0,0,0,0,0,-1,1868,589,0,0
651,435,0,0,0,0,0,0,0,0,0,-1,1875,589,0,0
658,435,0,0,0,0,0,0,0,0,0,-1,1882,589,0,0
665,435,0,0,0,0,0,0,0,0,0,-1,1889,589,0,0
672,435,0,0,0,0,0,0,0,0,0,-1,1896,589,0,0
679,435,0,0,0,0,0,0,0,0,0,-1,1903,589,0,0
686,435,0,0,0,0,0,0,0,0,0,-1,1910,589,0,0
693,435,0,0,0,0,0,0,0,0,0,-1,1917,589,0,0
700,435,0,0,0,0,0,0,0,0,0,-1,1924,589,0,0
707,435,0,0,0,0,0,0,0,0,0,-1,1931,589,0,0
714,435,0,0,0,0,0,0,0,0,0,-1,1938,589,0,0
721,435,0,0,0,0,0,0,0,0,0,-1,1945,589,0,0
728,435,0,0,0,0,0,0,0,0,0,-1,1952,589,0,0
735,435,0,0,0,0,0,0,0,0,0,-1,1959,589,0,0
742,435,0,0,0,0,0,0,0,0,0,-1,1966,589,0,0
749,435,0,0,0,0,0,0,0,0,0,-1,1973,589,0,0
756,435,0,0,0,0,0,0,0,0,0,-1,1980,589,0,0
763,435,0,0,0,0,0,0,0,0,0,-1,1987,589,0,0
770,435,0,0,0,0,0,0,0,0,0,-1,1994,589,0,0
777,435,0,0,0,0,0,0,0,0,0,-1,2001,589,0,0
784,435,0,0,0,0,0,0,0,0,0,-1,2008,589,0,0
791,435,0,0,0,0,0,0,0,0,0,-1,2015,589,0,0
798,435,0,0,0,0,0,0,0,0,0,-1,2022,589,0,0
805,435,0,0,0,0,0,0,0,0,0,-1,2029,589,0,0
812,435,0,0,0,0,0,0,0,0,0,-1,2036,589,0,0
-700,428,0,0,0,0,0,0,0,0,0,-1,524,596,0,0
-693,428,0,0,0,0,0,0,0,0,0,-1,531,596,0,0
-686,428,0,0,0,0,0,0,0,0,0,-1,538,596,0,0
-679,428,0,0,0,0,0,0,0,0,0,-1,545,596,0,0
-672,428,0,0,0,0,0,0,0,0,0,-1,552,596,0,0
-665,428,0,0,0,0,0,0,0,0,0,-1,559,596,0,0
-658,428,0,0,0,0,0,0,0,0,0,-1,566,596,0,0
-651,428,0,0,0,0,0,0,0,0,0,-1,573,596,0,0
-644,428,0,0,0,0,0,0,0,0,0,-1,580,596,0,0
-637,428,0,0,0,0,0,0,0,0,0,-1,587,596,0,0
-630,428,0,0,0,0,0,0,0,0,0,-1,594,596,0,0
-623,428,0,0,0,0,0,0,0,0,0,-1,601,596,0,0
-616,428,0,0,0,0,0,0,0,0,0,-1,608,596,0,0
-609,428,0,0,0,0,0,0,0,0,0,-1,615,596,0,0
-602,428,0,0,0,0,0,0,0,0,0,-1,622,596,0,0
-595,428,0,0,0,0,0,0,0,0,0,-1,629,596,0,0
-588,428,0,0,0,0,0,0,0,0,0,-1,636,596,0,0
-581,428,0,0,0,0,0,0,0,0,0,-1,643,596,0,0
-574,428,0,0,0,0,0,0,0,0,0,-1,650,596,0,0
-567,428,0,0,0,0,0,0,0,0,0,-1,657,596,0,0
-560,428,0,0,0,0,0,0,0,0,0,-1,664,596,0,0
-553,428,0,0,0,0,0,0,0,0,0,-1,671,596,0,0
-546,428,0,0,0,0,0,0,0,0,0,-1,678,596,0,0
-539,428,0,0,0,0,0,0,0,0,0,-1,685,596,0,0
-532,428,0,0,0,0,0,0,0,0,0,-1,692,596,0,0
-525,428,-9.59918,7.58618,0,0,0,0,0,0,0,-1,699,596,-9.59918,-7.5862
-518,428,-2.92285,-4.81854,0,0,0,0,0,0,0,-1,706,596,-2.92285,4.81856
-511,428,-3.68811,-4.79474,0,0,0,0,0,0,0,-1,713,596,-3.68811,4.79474
-504,428,-4.45337,-4.77094,0,0,0,0,0,0,0,-1,720,596,-4.45337,4.77092
-497,428,-2.98108,-3.77502,0,0,0,0,0,0,0,-1,727,596,-2.98106,3.77505
-490,428,-6.39044,-2.80481,0,0,0,0,0,0,0,-1,734,596,-6.39047,2.80483
-483,428,-7.62341,-5.64526,0,0,0,0,0,0,0,-1,741,596,-7.62344,5.64525
-476,428,-7.32092,-7.80945,0,0,0,0,0,0,0,-1,748,596,-7.32092,7.80945
-469,428,-7.3678,-8.15894,-0.000675115,0.00561596,-0.00338031,0.00708788,-0.00214703,-1.16012,0.00558035,0.0258713,755,596,-7.3678,8.15896
-462,428,-7.49347,-8.68256,-0.000333581,0.00476893,-0.00282248,0.00602232,-0.00158697,-1.15288,0.00463532,0.0258232,762,596,-7.49349,8.68258
-455,428,-7.55096,-9.30328,-8.21373e-05,0.00394847,-0.00225261,0.0049557,-0.00108937,-1.15032,0.00372047,0.015511,769,596,-7.55094,9.30331
-448,428,-7.55219,-9.86835,8.94133e-05,0.00305005,-0.00169123,0.00381731,-0.000677841,-1.1449,0.00279832,0.0120788,776,596,-7.55218,9.86838
-441,428,-7.56116,-10.4114,0.000153809,0.00213924,-0.00107416,0.00260916,-0.000316114,-1.1584,0.00185382,0.0140935,783,596,-7.56114,10.4114
-434,428,-7.56781,-10.9636,0.000147059,0.00130793,-0.000467814,0.00147299,-1.79955e-05,-1.23161,0.000988045,0.0101351,790,596,-7.56779,10.9636
-427,428,-7.58038,-11.5057,0.000112272,0.000399861,0.00014135,0.000457702,5.44314e-05,1.18238,0.000288706,0.010459,797,596,-7.58039,11.5057
-420,428,-7.59149,-11.9881,0.000116598,-0.000418002,0.000661645,0.000562897,-0.000864301,0.593426,0.000830096,0.0120014,804,596,-7.59147,11.9881
-413,428,-7.60071,-12.4937,2.06368e-05,-0.00131585,0.00127903,0.000795471,-0.00209069,0.544671,0.00172135,0.0148711,811,596,-7.60072,12.4937
-406,428,-7.6203,-13.0448,-8.55344e-05,-0.00211325,0.00185381,0.00101355,-0.00321233,0.535166,0.00254752,0.017447,818,596,-7.62033,13.0448
-399,428,-7.62933,-13.5602,-4.46168e-05,-0.00289543,0.00233701,0.00126738,-0.00420743,0.511555,0.00330932,0.0154845,825,596,-7.62931,13.5603
-392,428,-7.63428,-14.1194,0.000167264,-0.00361877,0.0027621,0.00162279,-0.00507429,0.484984,0.0040341,0.0243946,832,596,-7.63429,14.1194
-385,428,-7.69183,-14.7587,0,0,0,0,0,0,0,-1,839,596,-7.69181,14.7588
-378,428,-7.79712,-14.9997,0,0,0,0,0,0,0,-1,846,596,-7.79709,14.9997
-371,428,-5.96155,-11.0703,0,0,0,0,0,0,0,-1,853,596,-5.96154,11.0702
-364,428,-6.33643,-10.7223,0,0,0,0,0,0,0,-1,860,596,-6.33645,10.7223
-357,428,-3.20996,-4.70966,0,0,0,0,0,0,0,-1,867,596,-3.20997,4.70965
-350,428,-1.62793,-3.94055,0,0,0,0,0,0,0,-1,874,596,-1.62794,3.94055
-343,428,-0.0567017,-4.80994,0,0,0,0,0,0,0,-1,881,596,-0.0567096,4.80996
-336,428,-3.29175,-1.39569,0,0,0,0,0,0,0,-1,888,596,-3.29172,1.39568
-329,428,-3.71564,-0.791321,0,0,0,0,0,0,0,-1,895,596,-3.71564,0.791299
-322,428,-5.52863,-3.59827,0,0,0,0,0,0,0,-1,902,596,-5.52865,3.59829
-315,428,-4.57172,-1.22052,0,0,0,0,0,0,0,-1,909,596,-4.57171,1.22052
-308,428,-5.94324,-0.810791,0,0,0,0,0,0,0,-1,916,596,-5.94321,0.810803
-301,428,0,0,0,0,0,0,0,0,0,-1,923,596,0,0
-294,428,0,0,0,0,0,0,0,0,0,-1,930,596,0,0
-287,428,0,0,0,0,0,0,0,0,0,-1,937,596,0,0
-280,428,0,0,0,0,0,0,0,0,0,-1,944,596,0,0
-273,428,0,0,0,0,0,0,0,0,0,-1,951,596,0,0
-266,428,0,0,0,0,0,0,0,0,0,-1,958,596,0,0
-259,428,0,0,0,0,0,0,0,0,0,-1,965,596,0,0
-252,428,0,0,0,0,0,0,0,0,0,-1,972,596,0,0
-245,428,0,0,0,0,0,0,0,0,0,-1,979,596,0,0
-238,428,0,0,0,0,0,0,0,0,0,-1,986,596,0,0
-231,428,0,0,0,0,0,0,0,0,0,-1,993,596,0,0
-224,428,0,0,0,0,0,0,0,0,0,-1,1000,596,0,0
-217,428,0,0,0,0,0,0,0,0,0,-1,1007,596,0,0
-210,428,0,0,0,0,0,0,0,0,0,-1,1014,596,0,0
-203,428,0,0,0,0,0,0,0,0,0,-1,1021,596,0,0
-196,428,0,0,0,0,0,0,0,0,0,-1,1028,596,0,0
-189,428,0,0,0,0,0,0,0,0,0,-1,1035,596,0,0
-182,428,0,0,0,0,0,0,0,0,0,-1,1042,596,0,0
-175,428,0,0,0,0,0,0,0,0,0,-1,1049,596,0,0
-168,428,0,0,0,0,0,0,0,0,0,-1,1056,596,0,0
-161,428,0,0,0,0,0,0,0,0,0,-1,1063,596,0,0
-154,428,0,0,0,0,0,0,0,0,0,-1,1070,596,0,0
-147,428,0,0,0,0,0,0,0,0,0,-1,1077,596,0,0
-140,428,0,0,0,0,0,0,0,0,0,-1,1084,596,0,0
-133,428,0,0,0,0,0,0,0,0,0,-1,1091,596,0,0
-126,428,0,0,0,0,0,0,0,0,0,-1,1098,596,0,0
-119,428,0,0,0,0,0,0,0,0,0,-1,1105,596,0,0
-112,428,0,0,0,0,0,0,0,0,0,-1,1112,596,0,0
-105,428,0,0,0,0,0,0,0,0,0,-1,1119,596,0,0
-98,428,0,0,0,0,0,0,0,0,0,-1,1126,596,0,0
-91,428,0,0,0,0,0,0,0,0,0,-1,1133,596,0,0
-84,428,0,0,0,0,0,0,0,0,0,-1,1140,596,0,0
-77,428,0,0,0,0,0,0,0,0,0,-1,1147,596,0,0
-70,428,0,0,0,0,0,0,0,0,0,-1,1154,596,0,0
-63,428,0,0,0,0,0,0,0,0,0,-1,1161,596,0,0
-56,428,0,0,0,0,0,0,0,0,0,-1,1168,596,0,0
-49,428,0,0,0,0,0,0,0,0,0,-1,1175,596,0,0
-42,428,0,0,0,0,0,0,0,0,0,-1,1182,596,0,0
-35,428,0,0,0,0,0,0,0,0,0,-1,1189,596,0,0
-28,428,0,0,0,0,0,0,0,0,0,-1,1196,596,0,0
-21,428,0,0,0,0,0,0,0,0,0,-1,1203,596,0,0
-14,428,0,0,0,0,0,0,0,0,0,-1,1210,596,0,0
-7,428,0,0,0,0,0,0,0,0,0,-1,1217,596,0,0
0,428,0,0,0,0,0,0,0,0,0,-1,1224,596,0,0
7,428,0,0,0,0,0,0,0,0,0,-1,1231,596,0,0
14,428,0,0,0,0,0,0,0,0,0,-1,1238,596,0,0
21,428,0,0,0,0,0,0,0,0,0,-1,1245,596,0,0
28,428,0,0,0,0,0,0,0,0,0,-1,1252,596,0,0
35,428,0,0,0,0,0,0,0,0,0,-1,1259,596,0,0
42,428,0,0,0,0,0,0,0,0,0,-1,1266,596,0,0
49,428,0,0,0,0,0,0,0,0,0,-1,1273,596,0,0
56,428,0,0,0,0,0,0,0,0,0,-1,1280,596,0,0
63,428,0,0,0,0,0,0,0,0,0,-1,1287,596,0,0
70,428,0,0,0,0,0,0,0,0,0,-1,1294,596,0,0
77,428,0,0,0,0,0,0,0,0,0,-1,1301,596,0,0
84,428,0,0,0,0,0,0,0,0,0,-1,1308,596,0,0
91,428,0,0,0,0,0,0,0,0,0,-1,1315,596,0,0
98,428,0,0,0,0,0,0,0,0,0,-1,1322,596,0,0
105,428,0,0,0,0,0,0,0,0,0,-1,1329,596,0,0
112,428,0,0,0,0,0,0,0,0,0,-1,1336,596,0,0
119,428,0,0,0,0,0,0,0,0,0,-1,1343,596,0,0
126,428,0,0,0,0,0,0,0,0,0,-1,1350,596,0,0
133,428,0,0,0,0,0,0,0,0,0,-1,1357,596,0,0
140,428,0,0,0,0,0,0,0,0,0,-1,1364,596,0,0
147,428,0,0,0,0,0,0,0,0,0,-1,1371,596,0,0
154,428,0,0,0,0,0,0,0,0,0,-1,1378,596,0,0
161,428,0,0,0,0,0,0,0,0,0,-1,1385,596,0,0
168,428,0,0,0,0,0,0,0,0,0,-1,1392,596,0,0
175,428,0,0,0,0,0,0,0,0,0,-1,1399,596,0,0
182,428,0,0,0,0,0,0,0,0,0,-1,1406,596,0,0
189,428,0,0,0,0,0,0,0,0,0,-1,1413,596,0,0
196,428,0,0,0,0,0,0,0,0,0,-1,1420,596,0,0
203,428,0,0,0,0,0,0,0,0,0,-1,1427,596,0,0
210,428,0,0,0,0,0,0,0,0,0,-1,1434,596,0,0
217,428,0,0,0,0,0,0,0,0,0,-1,1441,596,0,0
224,428,0,0,0,0,0,0,0,0,0,-1,1448,596,0,0
231,428,0,0,0,0,0,0,0,0,0,-1,1455,596,0,0
238,428,0,0,0,0,0,0,0,0,0,-1,1462,596,0,0
245,428,0,0,0,0,0,0,0,0,0,-1,1469,596,0,0
252,428,0,0,0,0,0,0,0,0,0,-1,1476,596,0,0
259,428,0,0,0,0,0,0,0,0,0,-1,1483,596,0,0
266,428,0,0,0,0,0,0,0,0,0,-1,1490,596,0,0
273,428,0,0,0,0,0,0,0,0,0,-1,1497,596,0,0
280,428,0,0,0,0,0,0,0,0,0,-1,1504,596,0,0
287,428,0,0,0,0,0,0,0,0,0,-1,1511,596,0,0
294,428,0,0,0,0,0,0,0,0,0,-1,1518,596,0,0
301,428,0,0,0,0,0,0,0,0,0,-1,1525,596,0,0
308,428,0,0,0,0,0,0,0,0,0,-1,1532,596,0,0
315,428,0,0,0,0,0,0,0,0,0,-1,1539,596,0,0
322,428,0,0,0,0,0,0,0,0,0,-1,1546,596,0,0
329,428,0,0,0,0,0,0,0,0,0,-1,1553,596,0,0
336,428,0,0,0,0,0,0,0,0,0,-1,1560,596,0,0
343,428,0,0,0,0,0,0,0,0,0,-1,1567,596,0,0
350,428,0,0,0,0,0,0,0,0,0,-1,1574,596,0,0
357,428,0,0,0,0,0,0,0,0,0,-1,1581,596,0,0
364,428,0,0,0,0,0,0,0,0,0,-1,1588,596,0,0
371,428,0,0,0,0,0,0,0,0,0,-1,1595,596,0,0
378,428,0,0,0,0,0,0,0,0,0,-1,1602,596,0,0
385,428,0,0,0,0,0,0,0,0,0,-1,1609,596,0,0
392,428,0,0,0,0,0,0,0,0,0,-1,1616,596,0,0
399,428,0,0,0,0,0,0,0,0,0,-1,1623,596,0,0
406,428,0,0,0,0,0,0,0,0,0,-1,1630,596,0,0
413,428,0,0,0,0,0,0,0,0,0,-1,1637,596,0,0
420,428,19.8469,1.3399,0,0,0,0,0,0,0,-1,1644,596,19.8469,-1.33992
427,428,20.7299,-0.225281,0,0,0,0,0,0,0,-1,1651,596,20.7299,0.225262
434,428,19.8915,-0.583069,0,0,0,0,0,0,0,-1,1658,596,19.8915,0.583075
441,428,8.17993,0.607483,0,0,0,0,0,0,0,-1,1665,596,8.17997,-0.607513
448,428,7.84338,-0.385986,0,0,0,0,0,0,0,-1,1672,596,7.84336,0.385978
455,428,6.64038,2.1123,0,0,0,0,0,0,0,-1,1679,596,6.64037,-2.11229
462,428,4.84106,4.12341,0,0,0,0,0,0,0,-1,1686,596,4.84107,-4.12339
469,428,7.83789,3.10083,0,0,0,0,0,0,0,-1,1693,596,7.83785,-3.10086
476,428,7.61255,1.73956,0,0,0,0,0,0,0,-1,1700,596,7.61252,-1.73958
483,428,7.22766,1.05121,0,0,0,0,0,0,0,-1,1707,596,7.2277,-1.05121
490,428,5.4071,-3.2793,0,0,0,0,0,0,0,-1,1714,596,5.40707,3.27929
497,428,7.84106,-3.65491,0,0,0,0,0,0,0,-1,1721,596,7.84107,3.65491
504,428,6.92139,-2.83356,0,0,0,0,0,0,0,-1,1728,596,6.92137,2.83353
511,428,7.88501,-3.78723,0,0,0,0,0,0,0,-1,1735,596,7.88502,3.78722
518,428,17.1831,-12.7698,0,0,0,0,0,0,0,-1,1742,596,17.1831,12.7698
525,428,17.0844,-12.1247,0,0,0,0,0,0,0,-1,1749,596,17.0844,12.1247
532,428,17.1727,-11.5179,0.00473026,0.00250882,0.00247101,0.00632871,0.000910376,0.574178,0.0039508,0.0221822,1756,596,17.1728,11.5179
539,428,17.2203,-10.9821,0.00382747,0.00204589,0.00202553,0.00514944,0.000723925,0.578237,0.0032189,0.0213646,1763,596,17.2203,10.9821
546,428,17.1798,-10.4438,0.00300274,0.00159121,0.00162875,0.00407206,0.000521892,0.580951,0.00255855,0.0166509,1770,596,17.1798,10.4438
553,428,17.1418,-9.9281,0.00208885,0.00114201,0.00121573,0.00292009,0.000310776,0.599725,0.00185185,0.0110551,1777,596,17.1419,9.92807
560,428,17.1549,-9.36389,0.00112139,0.000785353,0.000830054,0.00180026,0.000106483,0.685538,0.0011663,0.01148,1784,596,17.1549,9.36392
567,428,17.1395,-8.80017,0.000198425,0.000632937,0.000551187,0.00100814,-0.000176778,0.973129,0.000738109,0.0116366,1791,596,17.1395,8.80018
574,428,17.1161,-8.26251,-0.000682419,0.000604165,0.000339353,0.000688187,-0.00076644,1.32808,0.000840234,0.0142686,1798,596,17.116,8.26253
581,428,17.0659,-7.70074,-0.00158288,0.000742922,0.000207315,0.000761257,-0.00160121,1.48259,0.00139241,0.0115313,1805,596,17.0659,7.70074
588,428,17.0483,-7.11371,-0.00243664,0.00118825,0.000214215,0.00120086,-0.00244925,1.51197,0.00214809,0.0174688,1812,596,17.0483,7.11369
595,428,17.0076,-6.5271,-0.00323166,0.00204992,0.000408906,0.0020814,-0.00326313,1.49399,0.00311071,0.0213368,1819,596,17.0076,6.52712
602,428,16.8561,-5.90723,-0.00407977,0.00324262,0.000741782,0.00331701,-0.00415416,1.47085,0.0043225,0.0382416,1826,596,16.856,5.90721
609,428,16.8379,-5.06653,0,0,0,0,0,0,0,-1,1833,596,16.8378,5.0665
616,428,15.7817,-3.09558,0,0,0,0,0,0,0,-1,1840,596,15.7817,3.09556
623,428,9.53577,1.12518,0,0,0,0,0,0,0,-1,1847,596,9.5358,-1.1252
630,428,7.07996,6.88562,0,0,0,0,0,0,0,-1,1854,596,7.0799,-6.88565
637,428,3.95435,1.90857,0,0,0,0,0,0,0,-1,1861,596,3.95439,-1.90858
644,428,5.75476,0.888977,0,0,0,0,0,0,0,-1,1868,596,5.75472,-0.888955
651,428,0,0,0,0,0,0,0,0,0,-1,1875,596,0,0
658,428,0,0,0,0,0,0,0,0,0,-1,1882,596,0,0
665,428,0,0,0,0,0,0,0,0,0,-1,1889,596,0,0
672,428,0,0,0,0,0,0,0,0,0,-1,1896,596,0,0
679,428,0,0,0,0,0,0,0,0,0,-1,1903,596,0,0
686,428,0,0,0,0,0,0,0,0,0,-1,1910,596,0,0
693,428,0,0,0,0,0,0,0,0,0,-1,1917,596,0,0
700,428,0,0,0,0,0,0,0,0,0,-1,1924,596,0,0
707,428,0,0,0,0,0,0,0,0,0,-1,1931,596,0,0
714,428,0,0,0,0,0,0,0,0,0,-1,1938,596,0,0
721,428,0,0,0,0,0,0,0,0,0,-1,1945,596,0,0
728,428,0,0,0,0,0,0,0,0,0,-1,1952,596,0,0
735,428,0,0,0,0,0,0,0,0,0,-1,1959,596,0,0
742,428,0,0,0,0,0,0,0,0,0,-1,1966,596,0,0
749,428,0,0,0,0,0,0,0,0,0,-1,1973,596,0,0
756,428,0,0,0,0,0,0,0,0,0,-1,1980,596,0,0
763,428,0,0,0,0,0,0,0,0,0,-1,1987,596,0,0
770,428,0,0,0,0,0,0,0,0,0,-1,1994,596,0,0
777,428,0,0,0,0,0,0,0,0,0,-1,2001,596,0,0
784,428,0,0,0,0,0,0,0,0,0,-1,2008,596,0,0
791,428,0,0,0,0,0,0,0,0,0,-1,2015,596,0,0
798,428,0,0,0,0,0,0,0,0,0,-1,2022,596,0,0
805,428,0,0,0,0,0,0,0,0,0,-1,2029,596,0,0
812,428,0,0,0,0,0,0,0,0,0,-1,2036,596,0,0
-700,421,0,0,0,0,0,0,0,0,0,-1,524,603,0,0
-693,421,0,0,0,0,0,0,0,0,0,-1,531,603,0,0
-686,421,0,0,0,0,0,0,0,0,0,-1,538,603,0,0
-679,421,0,0,0,0,0,0,0,0,0,-1,545,603,0,0
-672,421,0,0,0,0,0,0,0,0,0,-1,552,603,0,0
-665,421,0,0,0,0,0,0,0,0,0,-1,559,603,0,0
-658,421,0,0,0,0,0,0,0,0,0,-1,566,603,0,0
-651,421,0,0,0,0,0,0,0,0,0,-1,573,603,0,0
-644,421,0,0,0,0,0,0,0,0,0,-1,580,603,0,0
-637,421,0,0,0,0,0,0,0,0,0,-1,587,603,0,0
-630,421,0,0,0,0,0,0,0,0,0,-1,594,603,0,0
-623,421,0,0,0,0,0,0,0,0,0,-1,601,603,0,0
-616,421,0,0,0,0,0,0,0,0,0,-1,608,603,0,0
-609,421,0,0,0,0,0,0,0,0,0,-1,615,603,0,0
-602,421,0,0,0,0,0,0,0,0,0,-1,622,603,0,0
-595,421,0,0,0,0,0,0,0,0,0,-1,629,603,0,0
-588,421,0,0,0,0,0,0,0,0,0,-1,636,603,0,0
-581,421,0,0,0,0,0,0,0,0,0,-1,643,603,0,0
-574,421,0,0,0,0,0,0,0,0,0,-1,650,603,0,0
-567,421,0,0,0,0,0,0,0,0,0,-1,657,603,0,0
-560,421,0,0,0,0,0,0,0,0,0,-1,664,603,0,0
-553,421,0,0,0,0,0,0,0,0,0,-1,671,603,0,0
-546,421,0,0,0,0,0,0,0,0,0,-1,678,603,0,0
-539,421,0,0,0,0,0,0,0,0,0,-1,685,603,0,0
-532,421,-8.97382,6.95636,0,0,0,0,0,0,0,-1,692,603,-8.97384,-6.95634
-525,421,-2.11481,-8.04272,0,0,0,0,0,0,0,-1,699,603,-2.11483,8.0427
-518,421,-3.05908,-5.07233,0,0,0,0,0,0,0,-1,706,603,-3.0591,5.07235
-511,421,-4.63525,-4.08447,0,0,0,0,0,0,0,-1,713,603,-4.63524,4.08449
-504,421,-5.17029,-4.94458,0,0,0,0,0,0,0,-1,720,603,-5.17029,4.9446
-497,421,-6.63141,-2.32501,0,0,0,0,0,0,0,-1,727,603,-6.6314,2.32498
-490,421,-6.7616,-4.14783,0,0,0,0,0,0,0,-1,734,603,-6.76159,4.1478
-483,421,-8.0412,-6.93555,0,0,0,0,0,0,0,-1,741,603,-8.04123,6.93555
-476,421,-7.90454,-7.78638,-0.000667834,0.00448386,-0.00295793,0.00583029,-0.00201427,-1.14363,0.0047043,0.0357383,748,603,-7.90453,7.78636
-469,421,-8.03644,-8.16803,-0.000419272,0.00389808,-0.0026074,0.00512443,-0.00164562,-1.13116,0.00407708,0.0264112,755,603,-8.03641,8.16801
-462,421,-8.05127,-8.7804,-0.000121544,0.00326743,-0.00219624,0.00434688,-0.001201,-1.11397,0.00337035,0.0203175,762,603,-8.05124,8.78038
-455,421,-8.04486,-9.32849,9.73725e-05,0.00259956,-0.00174522,0.0034958,-0.000798862,-1.09638,0.00263746,0.0200301,769,603,-8.04488,9.32848
-448,421,-8.06525,-9.86371,0.000232476,0.00183277,-0.00124132,0.00250948,-0.000444235,-1.07168,0.00183904,0.0190399,776,603,-8.06526,9.86371
-441,421,-8.09235,-10.4118,0.000251515,0.00102616,-0.000646455,0.00139244,-0.000114769,-1.05529,0.000968821,0.0147591,783,603,-8.09236,10.4118
-434,421,-8.11536,-10.9612,0.000206736,0.000275709,-4.49092e-05,0.000297845,0.000184599,-1.11283,0.000173598,0.0107519,790,603,-8.11535,10.9612
-427,421,-8.1189,-11.4873,0.000115297,-0.00057402,0.000587752,0.000451992,-0.000910715,0.520218,0.00080148,0.010023,797,603,-8.11889,11.4873
-420,421,-8.12433,-11.9679,3.11934e-05,-0.00136429,0.00117695,0.000701682,-0.00203478,0.517829,0.0016412,0.0117714,804,603,-8.12433,11.9679
-413,421,-8.13647,-12.4678,-0.000166258,-0.0021546,0.0018487,0.000938636,-0.00325949,0.538697,0.00254426,0.015408,811,603,-8.13647,12.4679
-406,421,-8.17584,-13.0512,-0.000412477,-0.00296084,0.00253475,0.00115033,-0.00452364,0.552501,0.00346348,0.0208217,818,603,-8.17585,13.0512
-399,421,-8.13208,-13.6507,-0.000514106,-0.00379695,0.00313146,0.00138005,-0.00569111,0.543999,0.00432806,0.0289159,825,603,-8.13207,13.6507
-392,421,-8.26221,-14.0405,-0.000474728,-0.00457281,0.00370838,0.00171305,-0.00676059,0.533001,0.00517349,0.0484212,832,603,-8.26218,14.0404
-385,421,-8.37567,-14.702,0,0,0,0,0,0,0,-1,839,603,-8.37565,14.702
-378,421,-4.94733,-8.87909,0,0,0,0,0,0,0,-1,846,603,-4.94731,8.87906
-371,421,-5.65082,-7.01849,0,0,0,0,0,0,0,-1,853,603,-5.65082,7.0185
-364,421,-5.94189,-7.09875,0,0,0,0,0,0,0,-1,860,603,-5.94192,7.09878
-357,421,-7.62531,-8.26337,0,0,0,0,0,0,0,-1,867,603,-7.62532,8.26337
-350,421,-5.38019,-3.75024,0,0,0,0,0,0,0,-1,874,603,-5.38017,3.75026
-343,421,-6.22797,-2.57123,0,0,0,0,0,0,0,-1,881,603,-6.22798,2.57121
-336,421,-6.22882,-2.59369,0,0,0,0,0,0,0,-1,888,603,-6.22883,2.5937
-329,421,-4.50134,-1.49469,0,0,0,0,0,0,0,-1,895,603,-4.50137,1.49468
-322,421,-7.55817,1.13263,0,0,0,0,0,0,0,-1,902,603,-7.55818,-1.13263
-315,421,-4.47821,-1.26733,0,0,0,0,0,0,0,-1,909,603,-4.47824,1.26732
-308,421,0,0,0,0,0,0,0,0,0,-1,916,603,0,0
-301,421,0,0,0,0,0,0,0,0,0,-1,923,603,0,0
-294,421,0,0,0,0,0,0,0,0,0,-1,930,603,0,0
-287,421,0,0,0,0,0,0,0,0,0,-1,937,603,0,0
-280,421,0,0,0,0,0,0,0,0,0,-1,944,603,0,0
-273,421,0,0,0,0,0,0,0,0,0,-1,951,603,0,0
-266,421,0,0,0,0,0,0,0,0,0,-1,958,603,0,0
-259,421,0,0,0,0,0,0,0,0,0,-1,965,603,0,0
-252,421,0,0,0,0,0,0,0,0,0,-1,972,603,0,0
-245,421,0,0,0,0,0,0,0,0,0,-1,979,603,0,0
-238,421,0,0,0,0,0,0,0,0,0,-1,986,603,0,0
-231,421,0,0,0,0,0,0,0,0,0,-1,993,603,0,0
-224,421,0,0,0,0,0,0,0,0,0,-1,1000,603,0,0
-217,421,0,0,0,0,0,0,0,0,0,-1,1007,603,0,0
-210,421,0,0,0,0,0,0,0,0,0,-1,1014,603,0,0
-203,421,0,0,0,0,0,0,0,0,0,-1,1021,603,0,0
-196,421,0,0,0,0,0,0,0,0,0,-1,1028,603,0,0
-189,421,0,0,0,0,0,0,0,0,0,-1,1035,603,0,0
-182,421,0,0,0,0,0,0,0,0,0,-1,1042,603,0,0
-175,421,0,0,0,0,0,0,0,0,0,-1,1049,603,0,0
-168,421,0,0,0,0,0,0,0,0,0,-1,1056,603,0,0
-161,421,0,0,0,0,0,0,0,0,0,-1,1063,603,0,0
-154,421,0,0,0,0,0,0,0,0,0,-1,1070,603,0,0
-147,421,0,0,0,0,0,0,0,0,0,-1,1077,603,0,0
-140,421,0,0,0,0,0,0,0,0,0,-1,1084,603,0,0
-133,421,0,0,0,0,0,0,0,0,0,-1,1091,603,0,0
-126,421,0,0,0,0,0,0,0,0,0,-1,1098,603,0,0
-119,421,0,0,0,0,0,0,0,0,0,-1,1105,603,0,0
-112,421,0,0,0,0,0,0,0,0,0,-1,1112,603,0,0
-105,421,0,0,0,0,0,0,0,0,0,-1,1119,603,0,0
-98,421,0,0,0,0,0,0,0,0,0,-1,1126,603,0,0
-91,421,0,0,0,0,0,0,0,0,0,-1,1133,603,0,0
-84,421,0,0,0,0,0,0,0,0,0,-1,1140,603,0,0
-77,421,0,0,0,0,0,0,0,0,0,-1,1147,603,0,0
-70,421,0,0,0,0,0,0,0,0,0,-1,1154,603,0,0
-63,421,0,0,0,0,0,0,0,0,0,-1,1161,603,0,0
-56,421,0,0,0,0,0,0,0,0,0,-1,1168,603,0,0
-49,421,0,0,0,0,0,0,0,0,0,-1,1175,603,0,0
-42,421,0,0,0,0,0,0,0,0,0,-1,1182,603,0,0
-35,421,0,0,0,0,0,0,0,0,0,-1,1189,603,0,0
-28,421,0,0,0,0,0,0,0,0,0,-1,1196,603,0,0
-21,421,0,0,0,0,0,0,0,0,0,-1,1203,603,0,0
-14,421,0,0,0,0,0,0,0,0,0,-1,1210,603,0,0
-7,421,0,0,0,0,0,0,0,0,0,-1,1217,603,0,0
0,421,0,0,0,0,0,0,0,0,0,-1,1224,603,0,0
7,421,0,0,0,0,0,0,0,0,0,-1,1231,603,0,0
14,421,0,0,0,0,0,0,0,0,0,-1,1238,603,0,0
21,421,0,0,0,0,0,0,0,0,0,-1,1245,603,0,0
28,421,0,0,0,0,0,0,0,0,0,-1,1252,603,0,0
35,421,0,0,0,0,0,0,0,0,0,-1,1259,603,0,0
42,421,0,0,0,0,0,0,0,0,0,-1,1266,603,0,0
49,421,0,0,0,0,0,0,0,0,0,-1,1273,603,0,0
56,421,0,0,0,0,0,0,0,0,0,-1,1280,603,0,0
63,421,0,0,0,0,0,0,0,0,0,-1,1287,603,0,0
70,421,0,0,0,0,0,0,0,0,0,-1,1294,603,0,0
77,421,0,0,0,0,0,0,0,0,0,-1,1301,603,0,0
84,421,0,0,0,0,0,0,0,0,0,-1,1308,603,0,0
91,421,0,0,0,0,0,0,0,0,0,-1,1315,603,0,0
98,421,0,0,0,0,0,0,0,0,0,-1,1322,603,0,0
105,421,0,0,0,0,0,0,0,0,0,-1,1329,603,0,0
112,421,0,0,0,0,0,0,0,0,0,-1,1336,603,0,0
119,421,0,0,0,0,0,0,0,0,0,-1,1343,603,0,0
126,421,0,0,0,0,0,0,0,0,0,-1,1350,603,0,0
133,421,0,0,0,0,0,0,0,0,0,-1,1357,603,0,0
140,421,0,0,0,0,0,0,0,0,0,-1,1364,603,0,0
147,421,0,0,0,0,0,0,0,0,0,-1,1371,603,0,0
154,421,0,0,0,0,0,0,0,0,0,-1,1378,603,0,0
161,421,0,0,0,0,0,0,0,0,0,-1,1385,603,0,0
168,421,0,0,0,0,0,0,0,0,0,-1,1392,603,0,0
175,421,0,0,0,0,0,0,0,0,0,-1,1399,603,0,0
182,421,0,0,0,0,0,0,0,0,0,-1,1406,603,0,0
189,421,0,0,0,0,0,0,0,0,0,-1,1413,603,0,0
196,421,0,0,0,0,0,0,0,0,0,-1,1420,603,0,0
203,421,0,0,0,0,0,0,0,0,0,-1,1427,603,0,0
210,421,0,0,0,0,0,0,0,0,0,-1,1434,603,0,0
217,421,0,0,0,0,0,0,0,0,0,-1,1441,603,0,0
224,421,0,0,0,0,0,0,0,0,0,-1,1448,603,0,0
231,421,0,0,0,0,0,0,0,0,0,-1,1455,603,0,0
238,421,0,0,0,0,0,0,0,0,0,-1,1462,603,0,0
245,421,0,0,0,0,0,0,0,0,0,-1,1469,603,0,0
252,421,0,0,0,0,0,0,0,0,0,-1,1476,603,0,0
259,421,0,0,0,0,0,0,0,0,0,-1,1483,603,0,0
266,421,0,0,0,0,0,0,0,0,0,-1,1490,603,0,0
273,421,0,0,0,0,0,0,0,0,0,-1,1497,603,0,0
280,421,0,0,0,0,0,0,0,0,0,-1,1504,603,0,0
287,421,0,0,0,0,0,0,0,0,0,-1,1511,603,0,0
294,421,0,0,0,0,0,0,0,0,0,-1,1518,603,0,0
301,421,0,0,0,0,0,0,0,0,0,-1,1525,603,0,0
308,421,0,0,0,0,0,0,0,0,0,-1,1532,603,0,0
315,421,0,0,0,0,0,0,0,0,0,-1,1539,603,0,0
322,421,0,0,0,0,0,0,0,0,0,-1,1546,603,0,0
329,421,0,0,0,0,0,0,0,0,0,-1,1553,603,0,0
336,421,0,0,0,0,0,0,0,0,0,-1,1560,603,0,0
343,421,0,0,0,0,0,0,0,0,0,-1,1567,603,0,0
350,421,0,0,0,0,0,0,0,0,0,-1,1574,603,0,0
357,421,0,0,0,0,0,0,0,0,0,-1,1581,603,0,0
364,421,0,0,0,0,0,0,0,0,0,-1,1588,603,0,0
371,421,0,0,0,0,0,0,0,0,0,-1,1595,603,0,0
378,421,0,0,0,0,0,0,0,0,0,-1,1602,603,0,0
385,421,0,0,0,0,0,0,0,0,0,-1,1609,603,0,0
392,421,0,0,0,0,0,0,0,0,0,-1,1616,603,0,0
399,421,0,0,0,0,0,0,0,0,0,-1,1623,603,0,0
406,421,0,0,0,0,0,0,0,0,0,-1,1630,603,0,0
413,421,0,0,0,0,0,0,0,0,0,-1,1637,603,0,0
420,421,0,0,0,0,0,0,0,0,0,-1,1644,603,0,0
427,421,0,0,0,0,0,0,0,0,0,-1,1651,603,0,0
434,421,3.68176,-0.0327759,0,0,0,0,0,0,0,-1,1658,603,3.6818,0.0328037
441,421,8.06689,0.527832,0,0,0,0,0,0,0,-1,1665,603,8.06693,-0.527851
448,421,6.93921,0.802246,0,0,0,0,0,0,0,-1,1672,603,6.93923,-0.802251
455,421,7.29456,2.14825,0,0,0,0,0,0,0,-1,1679,603,7.29461,-2.14827
462,421,7.86902,3.53174,0,0,0,0,0,0,0,-1,1686,603,7.869,-3.53173
469,421,8.06604,2.81213,0,0,0,0,0,0,0,-1,1693,603,8.06606,-2.81212
476,421,8.26306,2.09253,0,0,0,0,0,0,0,-1,1700,603,8.26312,-2.09251
483,421,8.05322,0.798096,0,0,0,0,0,0,0,-1,1707,603,8.05323,-0.7981
490,421,7.51233,0.213074,0,0,0,0,0,0,0,-1,1714,603,7.51235,-0.213043
497,421,7.49634,-2.86688,0,0,0,0,0,0,0,-1,1721,603,7.4963,2.86688
504,421,6.90491,-2.18671,0,0,0,0,0,0,0,-1,1728,603,6.90491,2.18669
511,421,6.31348,-1.50653,0,0,0,0,0,0,0,-1,1735,603,6.31353,1.5065
518,421,6.27588,-2.49878,0,0,0,0,0,0,0,-1,1742,603,6.2759,2.4988
525,421,17.462,-12.3769,0,0,0,0,0,0,0,-1,1749,603,17.4621,12.3769
532,421,17.6046,-11.5724,0.00572929,0.00293417,0.00290392,0.00755445,0.00110901,0.561123,0.00471035,0.0446773,1756,603,17.6047,11.5724
539,421,17.7512,-10.9768,0.00472107,0.00242606,0.00236072,0.0061984,0.000948734,0.559172,0.00385514,0.0237307,1763,603,17.7512,10.9768
546,421,17.7305,-10.4471,0.00386449,0.00192175,0.00191715,0.00504231,0.000743932,0.550912,0.00314305,0.0141071,1770,603,17.7305,10.4471
553,421,17.7153,-9.88953,0.0029446,0.00136493,0.00145953,0.0038143,0.00049523,0.537384,0.00239492,0.0120228,1777,603,17.7154,9.88951
560,421,17.7111,-9.31879,0.0019536,0.00097293,0.00104386,0.00261655,0.000309981,0.565826,0.00165077,0.0141629,1784,603,17.711,9.31881
567,421,17.6874,-8.76575,0.00102094,0.00079645,0.000751407,0.00166844,0.000148953,0.711255,0.00106612,0.0174766,1791,603,17.6874,8.76576
574,421,17.6653,-8.21124,0.000188086,0.000772833,0.000567116,0.00111851,-0.000157587,1.0234,0.000803368,0.019586,1798,603,17.6653,8.21122
581,421,17.6382,-7.62811,-0.000606459,0.000930267,0.000485518,0.00107081,-0.000747002,1.28903,0.00105505,0.0160741,1805,603,17.6381,7.6281
588,421,17.6002,-7.11603,-0.00133631,0.00138771,0.000543509,0.00149215,-0.00144075,1.38095,0.0016934,0.0120854,1812,603,17.6002,7.11602
595,421,17.6355,-6.55035,-0.00193577,0.00219532,0.00080577,0.00234692,-0.00208738,1.38482,0.0025616,0.0175074,1819,603,17.6355,6.55038
602,421,17.5262,-6.07507,-0.00245073,0.00333126,0.00123665,0.00358465,-0.00270412,1.36869,0.00364267,0.0240183,1826,603,17.5262,6.07507
609,421,17.3628,-5.3374,0,0,0,0,0,0,0,-1,1833,603,17.3628,5.33741
616,421,17.4119,-4.48517,0,0,0,0,0,0,0,-1,1840,603,17.4118,4.48518
623,421,6.19885,0.376648,0,0,0,0,0,0,0,-1,1847,603,6.19881,-0.376624
630,421,6.54993,0.778748,0,0,0,0,0,0,0,-1,1854,603,6.54991,-0.778744
637,421,3.74512,1.65405,0,0,0,0,0,0,0,-1,1861,603,3.74517,-1.65407
644,421,3.58081,0.354675,0,0,0,0,0,0,0,-1,1868,603,3.58082,-0.354704
651,421,3.28687,3.66351,0,0,0,0,0,0,0,-1,1875,603,3.28688,-3.66353
658,421,0,0,0,0,0,0,0,0,0,-1,1882,603,0,0
665,421,0,0,0,0,0,0,0,0,0,-1,1889,603,0,0
672,421,0,0,0,0,0,0,0,0,0,-1,1896,603,0,0
679,421,0,0,0,0,0,0,0,0,0,-1,1903,603,0,0
686,421,0,0,0,0,0,0,0,0,0,-1,1910,603,0,0
693,421,0,0,0,0,0,0,0,0,0,-1,1917,603,0,0
700,421,0,0,0,0,0,0,0,0,0,-1,1924,603,0,0
707,421,0,0,0,0,0,0,0,0,0,-1,1931,603,0,0
714,421,0,0,0,0,0,0,0,0,0,-1,1938,603,0,0
721,421,0,0,0,0,0,0,0,0,0,-1,1945,603,0,0
728,421,0,0,0,0,0,0,0,0,0,-1,1952,603,0,0
735,421,0,0,0,0,0,0,0,0,0,-1,1959,603,0,0
742,421,0,0,0,0,0,0,0,0,0,-1,1966,603,0,0
749,421,0,0,0,0,0,0,0,0,0,-1,1973,603,0,0
756,421,0,0,0,0,0,0,0,0,0,-1,1980,603,0,0
763,421,0,0,0,0,0,0,0,0,0,-1,1987,603,0,0
770,421,0,0,0,0,0,0,0,0,0,-1,1994,603,0,0
777,421,0,0,0,0,0,0,0,0,0,-1,2001,603,0,0
784,421,0,0,0,0,0,0,0,0,0,-1,2008,603,0,0
791,421,0,0,0,0,0,0,0,0,0,-1,2015,603,0,0
798,421,0,0,0,0,0,0,0,0,0,-1,2022,603,0,0
805,421,0,0,0,0,0,0,0,0,0,-1,2029,603,0,0
812,421,0,0,0,0,0,0,0,0,0,-1,2036,603,0,0
-700,414,0,0,0,0,0,0,0,0,0,-1,524,610,0,0
-693,414,0,0,0,0,0,0,0,0,0,-1,531,610,0,0
-686,414,0,0,0,0,0,0,0,0,0,-1,538,610,0,0
-679,414,0,0,0,0,0,0,0,0,0,-1,545,610,0,0
-672,414,0,0,0,0,0,0,0,0,0,-1,552,610,0,0
-665,414,0,0,0,0,0,0,0,0,0,-1,559,610,0,0
-658,414,0,0,0,0,0,0,0,0,0,-1,566,610,0,0
-651,414,0,0,0,0,0,0,0,0,0,-1,573,610,0,0
-644,414,0,0,0,0,0,0,0,0,0,-1,580,610,0,0
-637,414,0,0,0,0,0,0,0,0,0,-1,587,610,0,0
-630,414,0,0,0,0,0,0,0,0,0,-1,594,610,0,0
-623,414,0,0,0,0,0,0,0,0,0,-1,601,610,0,0
-616,414,0,0,0,0,0,0,0,0,0,-1,608,610,0,0
-609,414,0,0,0,0,0,0,0,0,0,-1,615,610,0,0
-602,414,0,0,0,0,0,0,0,0,0,-1,622,610,0,0
-595,414,0,0,0,0,0,0,0,0,0,-1,629,610,0,0
-588,414,0,0,0,0,0,0,0,0,0,-1,636,610,0,0
-581,414,0,0,0,0,0,0,0,0,0,-1,643,610,0,0
-574,414,0,0,0,0,0,0,0,0,0,-1,650,610,0,0
-567,414,0,0,0,0,0,0,0,0,0,-1,657,610,0,0
-560,414,0,0,0,0,0,0,0,0,0,-1,664,610,0,0
-553,414,0,0,0,0,0,0,0,0,0,-1,671,610,0,0
-546,414,0,0,0,0,0,0,0,0,0,-1,678,610,0,0
-539,414,-7.50146,5.65619,0,0,0,0,0,0,0,-1,685,610,-7.50149,-5.65617
-532,414,-8.15204,4.01605,0,0,0,0,0,0,0,-1,692,610,-8.15206,-4.01606
-525,414,-3.47137,-3.27924,0,0,0,0,0,0,0,-1,699,610,-3.47136,3.27922
-518,414,-4.12909,-4.36908,0,0,0,0,0,0,0,-1,706,610,-4.12909,4.36909
-511,414,-3.92542,-4.97021,0,0,0,0,0,0,0,-1,713,610,-3.92542,4.97023
-504,414,-8.42041,-8.32294,0,0,0,0,0,0,0,-1,720,610,-8.42043,8.32296
-497,414,-8.66589,-5.32068,0,0,0,0,0,0,0,-1,727,610,-8.66589,5.32068
-490,414,-8.76697,-6.16968,0,0,0,0,0,0,0,-1,734,610,-8.76695,6.16967
-483,414,-8.52783,-7.11407,-0.00044871,0.00316733,-0.00239964,0.00436385,-0.00164522,-1.10825,0.00358574,0.0417413,741,610,-8.52786,7.11406
-476,414,-8.5553,-7.71234,-0.000343351,0.00296785,-0.00219552,0.00406203,-0.00143753,-1.10845,0.00329349,0.0230008,748,610,-8.55532,7.71234
-469,414,-8.59375,-8.21265,-8.04642e-05,0.00262219,-0.00199197,0.00367794,-0.00113621,-1.08344,0.00290571,0.0139975,755,610,-8.59375,8.21267
-462,414,-8.57776,-8.75452,0.000204206,0.00218912,-0.00171613,0.00317911,-0.000785783,-1.04756,0.00242416,0.0236773,762,610,-8.57774,8.75454
-455,414,-8.56714,-9.31927,0.000400945,0.00165616,-0.00137163,0.00253694,-0.00047984,-0.999961,0.00187186,0.0263114,769,610,-8.56715,9.31926
-448,414,-8.59088,-9.85345,0.000508858,0.00100593,-0.000926841,0.00171698,-0.000202192,-0.916393,0.00121766,0.0242504,776,610,-8.59089,9.85348
-441,414,-8.62732,-10.3949,0.000481084,0.000284486,-0.000359221,0.000755213,1.03572e-05,-0.651845,0.000500059,0.0163151,783,610,-8.62733,10.3949
-434,414,-8.65088,-10.9395,0.000375604,-0.000426421,0.000242738,0.000443348,-0.000494165,0.272159,0.000541539,0.00958456,790,610,-8.65089,10.9394
-427,414,-8.65906,-11.4596,0.00017893,-0.00126528,0.000915465,0.000622807,-0.00170915,0.451466,0.0013942,0.010526,797,610,-8.65907,11.4596
-420,414,-8.65399,-11.964,-7.19206e-05,-0.00210895,0.0016211,0.000824068,-0.00300494,0.504918,0.00232714,0.0102617,804,610,-8.65401,11.964
-413,414,-8.66992,-12.4807,-0.000466332,-0.00286661,0.00240129,0.00101802,-0.00435097,0.553658,0.00329287,0.0115242,811,610,-8.66991,12.4806
-406,414,-8.69196,-13.1083,-0.00097204,-0.00379712,0.00327603,0.001183,-0.00595216,0.581854,0.00441558,0.0238337,818,610,-8.69196,13.1084
-399,414,-8.77478,-13.4744,-0.00138345,-0.00484003,0.00410861,0.00134558,-0.00756906,0.586307,0.00554921,0.0488898,825,610,-8.77477,13.4745
-392,414,-8.77039,-14.1021,0,0,0,0,0,0,0,-1,832,610,-8.77039,14.1021
-385,414,-8.14691,-13.0653,0,0,0,0,0,0,0,-1,839,610,-8.14692,13.0653
-378,414,-8.04907,-11.3331,0,0,0,0,0,0,0,-1,846,610,-8.04905,11.3331
-371,414,-5.20886,-8.05151,0,0,0,0,0,0,0,-1,853,610,-5.20887,8.05153
-364,414,-6.76282,-6.58759,0,0,0,0,0,0,0,-1,860,610,-6.7628,6.58756
-357,414,-9.08685,-8.86188,0,0,0,0,0,0,0,-1,867,610,-9.08688,8.86187
-350,414,-6.4502,-2.41821,0,0,0,0,0,0,0,-1,874,610,-6.45021,2.41822
-343,414,-6.80249,-2.32117,0,0,0,0,0,0,0,-1,881,610,-6.80252,2.32116
-336,414,-7.11017,-2.52026,0,0,0,0,0,0,0,-1,888,610,-7.11016,2.52026
-329,414,-7.59747,-2.70313,0,0,0,0,0,0,0,-1,895,610,-7.59747,2.70315
-322,414,-4.42236,-1.29163,0,0,0,0,0,0,0,-1,902,610,-4.42238,1.2916
-315,414,0,0,0,0,0,0,0,0,0,-1,909,610,0,0
-308,414,0,0,0,0,0,0,0,0,0,-1,916,610,0,0
-301,414,0,0,0,0,0,0,0,0,0,-1,923,610,0,0
-294,414,0,0,0,0,0,0,0,0,0,-1,930,610,0,0
-287,414,0,0,0,0,0,0,0,0,0,-1,937,610,0,0
-280,414,0,0,0,0,0,0,0,0,0,-1,944,610,0,0
-273,414,0,0,0,0,0,0,0,0,0,-1,951,610,0,0
-266,414,0,0,0,0,0,0,0,0,0,-1,958,610,0,0
-259,414,0,0,0,0,0,0,0,0,0,-1,965,610,0,0
-252,414,0,0,0,0,0,0,0,0,0,-1,972,610,0,0
-245,414,0,0,0,0,0,0,0,0,0,-1,979,610,0,0
-238,414,0,0,0,0,0,0,0,0,0,-1,986,610,0,0
-231,414,0,0,0,0,0,0,0,0,0,-1,993,610,0,0
-224,414,0,0,0,0,0,0,0,0,0,-1,1000,610,0,0
-217,414,0,0,0,0,0,0,0,0,0,-1,1007,610,0,0
-210,414,0,0,0,0,0,0,0,0,0,-1,1014,610,0,0
-203,414,0,0,0,0,0,0,0,0,0,-1,1021,610,0,0
-196,414,0,0,0,0,0,0,0,0,0,-1,1028,610,0,0
-189,414,0,0,0,0,0,0,0,0,0,-1,1035,610,0,0
-182,414,0,0,0,0,0,0,0,0,0,-1,1042,610,0,0
-175,414,0,0,0,0,0,0,0,0,0,-1,1049,610,0,0
-168,414,0,0,0,0,0,0,0,0,0,-1,1056,610,0,0
-161,414,0,0,0,0,0,0,0,0,0,-1,1063,610,0,0
-154,414,0,0,0,0,0,0,0,0,0,-1,1070,610,0,0
-147,414,0,0,0,0,0,0,0,0,0,-1,1077,610,0,0
-140,414,0,0,0,0,0,0,0,0,0,-1,1084,610,0,0
-133,414,0,0,0,0,0,0,0,0,0,-1,1091,610,0,0
-126,414,0,0,0,0,0,0,0,0,0,-1,1098,610,0,0
-119,414,0,0,0,0,0,0,0,0,0,-1,1105,610,0,0
-112,414,0,0,0,0,0,0,0,0,0,-1,1112,610,0,0
-105,414,0,0,0,0,0,0,0,0,0,-1,1119,610,0,0
-98,414,0,0,0,0,0,0,0,0,0,-1,1126,610,0,0
-91,414,0,0,0,0,0,0,0,0,0,-1,1133,610,0,0
-84,414,0,0,0,0,0,0,0,0,0,-1,1140,610,0,0
-77,414,0,0,0,0,0,0,0,0,0,-1,1147,610,0,0
-70,414,0,0,0,0,0,0,0,0,0,-1,1154,610,0,0
-63,414,0,0,0,0,0,0,0,0,0,-1,1161,610,0,0
-56,414,0,0,0,0,0,0,0,0,0,-1,1168,610,0,0
-49,414,0,0,0,0,0,0,0,0,0,-1,1175,610,0,0
-42,414,0,0,0,0,0,0,0,0,0,-1,1182,610,0,0
-35,414,0,0,0,0,0,0,0,0,0,-1,1189,610,0,0
-28,414,0,0,0,0,0,0,0,0,0,-1,1196,610,0,0
-21,414,0,0,0,0,0,0,0,0,0,-1,1203,610,0,0
-14,414,0,0,0,0,0,0,0,0,0,-1,1210,610,0,0
-7,414,0,0,0,0,0,0,0,0,0,-1,1217,610,0,0
0,414,0,0,0,0,0,0,0,0,0,-1,1224,610,0,0
7,414,0,0,0,0,0,0,0,0,0,-1,1231,610,0,0
14,414,0,0,0,0,0,0,0,0,0,-1,1238,610,0,0
21,414,0,0,0,0,0,0,0,0,0,-1,1245,610,0,0
28,414,0,0,0,0,0,0,0,0,0,-1,1252,610,0,0
35,414,0,0,0,0,0,0,0,0,0,-1,1259,610,0,0
42,414,0,0,0,0,0,0,0,0,0,-1,1266,610,0,0
49,414,0,0,0,0,0,0,0,0,0,-1,1273,610,0,0
56,414,0,0,0,0,0,0,0,0,0,-1,1280,610,0,0
63,414,0,0,0,0,0,0,0,0,0,-1,1287,610,0,0
70,414,0,0,0,0,0,0,0,0,0,-1,1294,610,0,0
77,414,0,0,0,0,0,0,0,0,0,-1,1301,610,0,0
84,414,0,0,0,0,0,0,0,0,0,-1,1308,610,0,0
91,414,0,0,0,0,0,0,0,0,0,-1,1315,610,0,0
98,414,0,0,0,0,0,0,0,0,0,-1,1322,610,0,0
105,414,0,0,0,0,0,0,0,0,0,-1,1329,610,0,0
112,414,0,0,0,0,0,0,0,0,0,-1,1336,610,0,0
119,414,0,0,0,0,0,0,0,0,0,-1,1343,610,0,0
126,414,0,0,0,0,0,0,0,0,0,-1,1350,610,0,0
133,414,0,0,0,0,0,0,0,0,0,-1,1357,610,0,0
140,414,0,0,0,0,0,0,0,0,0,-1,1364,610,0,0
147,414,0,0,0,0,0,0,0,0,0,-1,1371,610,0,0
154,414,0,0,0,0,0,0,0,0,0,-1,1378,610,0,0
161,414,0,0,0,0,0,0,0,0,0,-1,1385,610,0,0
168,414,0,0,0,0,0,0,0,0,0,-1,1392,610,0,0
175,414,0,0,0,0,0,0,0,0,0,-1,1399,610,0,0
182,414,0,0,0,0,0,0,0,0,0,-1,1406,610,0,0
189,414,0,0,0,0,0,0,0,0,0,-1,1413,610,0,0
196,414,0,0,0,0,0,0,0,0,0,-1,1420,610,0,0
203,414,0,0,0,0,0,0,0,0,0,-1,1427,610,0,0
210,414,0,0,0,0,0,0,0,0,0,-1,1434,610,0,0
217,414,0,0,0,0,0,0,0,0,0,-1,1441,610,0,0
224,414,0,0,0,0,0,0,0,0,0,-1,1448,610,0,0
231,414,0,0,0,0,0,0,0,0,0,-1,1455,610,0,0
238,414,0,0,0,0,0,0,0,0,0,-1,1462,610,0,0
245,414,0,0,0,0,0,0,0,0,0,-1,1469,610,0,0
252,414,0,0,0,0,0,0,0,0,0,-1,1476,610,0,0
259,414,0,0,0,0,0,0,0,0,0,-1,1483,610,0,0
266,414,0,0,0,0,0,0,0,0,0,-1,1490,610,0,0
273,414,0,0,0,0,0,0,0,0,0,-1,1497,610,0,0
280,414,0,0,0,0,0,0,0,0,0,-1,1504,610,0,0
287,414,0,0,0,0,0,0,0,0,0,-1,1511,610,0,0
294,414,0,0,0,0,0,0,0,0,0,-1,1518,610,0,0
301,414,0,0,0,0,0,0,0,0,0,-1,1525,610,0,0
308,414,0,0,0,0,0,0,0,0,0,-1,1532,610,0,0
315,414,0,0,0,0,0,0,0,0,0,-1,1539,610,0,0
322,414,0,0,0,0,0,0,0,0,0,-1,1546,610,0,0
329,414,0,0,0,0,0,0,0,0,0,-1,1553,610,0,0
336,414,0,0,0,0,0,0,0,0,0,-1,1560,610,0,0
343,414,0,0,0,0,0,0,0,0,0,-1,1567,610,0,0
350,414,0,0,0,0,0,0,0,0,0,-1,1574,610,0,0
357,414,0,0,0,0,0,0,0,0,0,-1,1581,610,0,0
364,414,0,0,0,0,0,0,0,0,0,-1,1588,610,0,0
371,414,0,0,0,0,0,0,0,0,0,-1,1595,610,0,0
378,414,0,0,0,0,0,0,0,0,0,-1,1602,610,0,0
385,414,0,0,0,0,0,0,0,0,0,-1,1609,610,0,0
392,414,0,0,0,0,0,0,0,0,0,-1,1616,610,0,0
399,414,0,0,0,0,0,0,0,0,0,-1,1623,610,0,0
406,414,0,0,0,0,0,0,0,0,0,-1,1630,610,0,0
413,414,0,0,0,0,0,0,0,0,0,-1,1637,610,0,0
420,414,0,0,0,0,0,0,0,0,0,-1,1644,610,0,0
427,414,0,0,0,0,0,0,0,0,0,-1,1651,610,0,0
434,414,0,0,0,0,0,0,0,0,0,-1,1658,610,0,0
441,414,7.84375,0.584412,0,0,0,0,0,0,0,-1,1665,610,7.84379,-0.584394
448,414,7.40808,1.25446,0,0,0,0,0,0,0,-1,1672,610,7.40807,-1.25446
455,414,6.3512,1.73846,0,0,0,0,0,0,0,-1,1679,610,6.3512,-1.73847
462,414,8.18103,3.22113,0,0,0,0,0,0,0,-1,1686,610,8.18108,-3.22112
469,414,8.38513,2.49579,0,0,0,0,0,0,0,-1,1693,610,8.38516,-2.49576
476,414,8.64099,1.71161,0,0,0,0,0,0,0,-1,1700,610,8.64097,-1.71164
483,414,8.62744,0.687622,0,0,0,0,0,0,0,-1,1707,610,8.62749,-0.687615
490,414,8.38831,-0.0302734,0,0,0,0,0,0,0,-1,1714,610,8.38835,0.0302913
497,414,4.71094,-0.110046,0,0,0,0,0,0,0,-1,1721,610,4.71089,0.110024
504,414,7.19568,-1.43835,0,0,0,0,0,0,0,-1,1728,610,7.19563,1.43836
511,414,5.94153,-1.28772,0,0,0,0,0,0,0,-1,1735,610,5.94151,1.28769
518,414,4.53381,-0.0996704,0,0,0,0,0,0,0,-1,1742,610,4.53378,0.0996819
525,414,6.18811,-1.64056,0,0,0,0,0,0,0,-1,1749,610,6.18814,1.64055
532,414,18.1426,-11.7801,0,0,0,0,0,0,0,-1,1756,610,18.1426,11.7801
539,414,18.2327,-11.0756,0.00566053,0.00287597,0.00278622,0.00738297,0.00115353,0.553694,0.00458608,0.0462711,1763,610,18.2326,11.0755
546,414,18.2592,-10.4212,0.00476894,0.0022924,0.00228418,0.0061289,0.00093244,0.537017,0.00381331,0.014707,1770,610,18.2591,10.4212
553,414,18.2568,-9.87219,0.00384953,0.00160014,0.00177102,0.0048228,0.000626873,0.5025,0.00302795,0.0128044,1777,610,18.2569,9.87222
560,414,18.2543,-9.30536,0.00283146,0.00116503,0.00131579,0.00355566,0.000440829,0.503144,0.00223802,0.0148863,1784,610,18.2543,9.30535
567,414,18.2371,-8.73615,0.00187987,0.00094061,0.000989616,0.00250563,0.000314843,0.563855,0.00157599,0.0238276,1791,610,18.2371,8.73616
574,414,18.1887,-8.1864,0.00107362,0.00090155,0.000803885,0.00179606,0.000179109,0.73209,0.00114236,0.0205508,1798,610,18.1887,8.18641
581,414,18.1848,-7.60602,0.000338337,0.0010522,0.000731479,0.00150918,-0.00011865,1.01238,0.00104791,0.0167207,1805,610,18.1848,7.60601
588,414,18.1772,-7.09857,-0.000332172,0.00147264,0.000786194,0.00176708,-0.000626611,1.21245,0.00143333,0.0172319,1812,610,18.1773,7.09859
595,414,18.1703,-6.52301,-0.000824895,0.00218394,0.00104134,0.00250918,-0.00115014,1.26807,0.00216073,0.0226346,1819,610,18.1703,6.523
602,414,18.1525,-5.98755,-0.00115829,0.00320475,0.00147194,0.00365489,-0.00160843,1.27401,0.0031144,0.0227821,1826,610,18.1525,5.98758
609,414,18.1079,-5.38623,0,0,0,0,0,0,0,-1,1833,610,18.1079,5.38621
616,414,18.3488,-4.56384,0,0,0,0,0,0,0,-1,1840,610,18.3487,4.56386
623,414,9.6969,0.0378418,0,0,0,0,0,0,0,-1,1847,610,9.69685,-0.0378644
630,414,5.47144,0.499329,0,0,0,0,0,0,0,-1,1854,610,5.47142,-0.499303
637,414,8.36707,4.16278,0,0,0,0,0,0,0,-1,1861,610,8.36709,-4.16278
644,414,5.87073,1.51422,0,0,0,0,0,0,0,-1,1868,610,5.87076,-1.51424
651,414,3.6377,0.820557,0,0,0,0,0,0,0,-1,1875,610,3.6377,-0.820543
658,414,2.29761,3.87323,0,0,0,0,0,0,0,-1,1882,610,2.29758,-3.87325
665,414,0,0,0,0,0,0,0,0,0,-1,1889,610,0,0
672,414,0,0,0,0,0,0,0,0,0,-1,1896,610,0,0
679,414,0,0,0,0,0,0,0,0,0,-1,1903,610,0,0
686,414,0,0,0,0,0,0,0,0,0,-1,1910,610,0,0
693,414,0,0,0,0,0,0,0,0,0,-1,1917,610,0,0
700,414,0,0,0,0,0,0,0,0,0,-1,1924,610,0,0
707,414,0,0,0,0,0,0,0,0,0,-1,1931,610,0,0
714,414,0,0,0,0,0,0,0,0,0,-1,1938,610,0,0
721,414,0,0,0,0,0,0,0,0,0,-1,1945,610,0,0
728,414,0,0,0,0,0,0,0,0,0,-1,1952,610,0,0
735,414,0,0,0,0,0,0,0,0,0,-1,1959,610,0,0
742,414,0,0,0,0,0,0,0,0,0,-1,1966,610,0,0
749,414,0,0,0,0,0,0,0,0,0,-1,1973,610,0,0
756,414,0,0,0,0,0,0,0,0,0,-1,1980,610,0,0
763,414,0,0,0,0,0,0,0,0,0,-1,1987,610,0,0
770,414,0,0,0,0,0,0,0,0,0,-1,1994,610,0,0
777,414,0,0,0,0,0,0,0,0,0,-1,2001,610,0,0
784,414,0,0,0,0,0,0,0,0,0,-1,2008,610,0,0
791,414,0,0,0,0,0,0,0,0,0,-1,2015,610,0,0
798,414,0,0,0,0,0,0,0,0,0,-1,2022,610,0,0
805,414,0,0,0,0,0,0,0,0,0,-1,2029,610,0,0
812,414,0,0,0,0,0,0,0,0,0,-1,2036,610,0,0
-700,407,0,0,0,0,0,0,0,0,0,-1,524,617,0,0
-693,407,0,0,0,0,0,0,0,0,0,-1,531,617,0,0
-686,407,0,0,0,0,0,0,0,0,0,-1,538,617,0,0
-679,407,0,0,0,0,0,0,0,0,0,-1,545,617,0,0
-672,407,0,0,0,0,0,0,0,0,0,-1,552,617,0,0
-665,407,0,0,0,0,0,0,0,0,0,-1,559,617,0,0
-658,407,0,0,0,0,0,0,0,0,0,-1,566,617,0,0
-651,407,0,0,0,0,0,0,0,0,0,-1,573,617,0,0
-644,407,0,0,0,0,0,0,0,0,0,-1,580,617,0,0
-637,407,0,0,0,0,0,0,0,0,0,-1,587,617,0,0
-630,407,0,0,0,0,0,0,0,0,0,-1,594,617,0,0
-623,407,0,0,0,0,0,0,0,0,0,-1,601,617,0,0
-616,407,0,0,0,0,0,0,0,0,0,-1,608,617,0,0
-609,407,0,0,0,0,0,0,0,0,0,-1,615,617,0,0
-602,407,0,0,0,0,0,0,0,0,0,-1,622,617,0,0
-595,407,0,0,0,0,0,0,0,0,0,-1,629,617,0,0
-588,407,0,0,0,0,0,0,0,0,0,-1,636,617,0,0
-581,407,0,0,0,0,0,0,0,0,0,-1,643,617,0,0
-574,407,0,0,0,0,0,0,0,0,0,-1,650,617,0,0
-567,407,0,0,0,0,0,0,0,0,0,-1,657,617,0,0
-560,407,0,0,0,0,0,0,0,0,0,-1,664,617,0,0
-553,407,0,0,0,0,0,0,0,0,0,-1,671,617,0,0
-546,407,-8.54517,-0.658142,0,0,0,0,0,0,0,-1,678,617,-8.54515,0.658112
-539,407,-6.09442,-1.01154,0,0,0,0,0,0,0,-1,685,617,-6.09441,1.01155
-532,407,-7.75665,1.62152,0,0,0,0,0,0,0,-1,692,617,-7.75667,-1.62154
-525,407,-3.78247,-2.67639,0,0,0,0,0,0,0,-1,699,617,-3.78246,2.67638
-518,407,-5.013,-5.87323,0,0,0,0,0,0,0,-1,706,617,-5.013,5.87324
-511,407,-8.50342,-7.86023,0,0,0,0,0,0,0,-1,713,617,-8.5034,7.86024
-504,407,-8.64575,-7.46301,0,0,0,0,0,0,0,-1,720,617,-8.64573,7.46301
-497,407,-9.03357,-6.01971,0,0,0,0,0,0,0,-1,727,617,-9.03359,6.01973
-490,407,-9.04077,-6.58453,-0.000296183,0.00186641,-0.00184824,0.00292642,-0.0013562,-1.05007,0.00252736,0.04861,734,617,-9.04079,6.58454
-483,407,-9.02533,-7.12042,-0.000269428,0.00190098,-0.00172259,0.0028517,-0.00122014,-1.06649,0.00241297,0.030359,741,617,-9.02535,7.12039
-476,407,-9.05652,-7.64355,-0.000142573,0.00185558,-0.00161197,0.00275298,-0.00103997,-1.06282,0.00226308,0.0155335,748,617,-9.0565,7.64357
-469,407,-9.08264,-8.1806,0.000118114,0.00168429,-0.00149276,0.0025869,-0.000784493,-1.02696,0.00203709,0.0131194,755,617,-9.08266,8.18057
-462,407,-9.14539,-8.71509,0.000381986,0.00139965,-0.00129934,0.00228624,-0.000504605,-0.972023,0.00171726,0.0207176,762,617,-9.14539,8.71506
-455,407,-9.14478,-9.28174,0.000563588,0.000969001,-0.00102877,0.00181485,-0.000282256,-0.882671,0.00131413,0.022298,769,617,-9.14477,9.28177
-448,407,-9.09991,-9.84198,0.000664069,0.00041419,-0.00063377,0.0011851,-0.000106838,-0.688078,0.000827979,0.0192847,776,617,-9.09991,9.84196
-441,407,-9.15204,-10.3493,0.000626351,-0.000238976,-9.86898e-05,0.000637464,-0.000250089,-0.112131,0.000528447,0.0145263,783,617,-9.15202,10.3493
-434,407,-9.19739,-10.8685,0.000507458,-0.000939577,0.000494228,0.000660148,-0.00109227,0.299643,0.00102196,0.0102472,790,617,-9.19741,10.8684
-427,407,-9.19354,-11.3988,0.000260239,-0.00180242,0.00119348,0.000806259,-0.00234844,0.429076,0.00189252,0.0111789,797,617,-9.19352,11.3988
-420,407,-9.1701,-11.9252,-0.000109211,-0.00277246,0.00201626,0.000975467,-0.00385714,0.493557,0.00295083,0.0112644,804,617,-9.17012,11.9252
-413,407,-9.16779,-12.4373,-0.000651796,-0.00358147,0.00291027,0.0011415,-0.00537477,0.552243,0.00401809,0.0134231,811,617,-9.1678,12.4373
-406,407,-9.26965,-12.8361,-0.00140507,-0.00478305,0.00400576,0.00125321,-0.00744133,0.585887,0.00542707,0.0382839,818,617,-9.26968,12.8361
-399,407,-9.19623,-13.3074,0,0,0,0,0,0,0,-1,825,617,-9.19622,13.3075
-392,407,-8.33612,-12.195,0,0,0,0,0,0,0,-1,832,617,-8.33611,12.195
-385,407,-7.65765,-10.7744,0,0,0,0,0,0,0,-1,839,617,-7.65767,10.7744
-378,407,-6.08655,-7.42291,0,0,0,0,0,0,0,-1,846,617,-6.08652,7.42292
-371,407,-7.4007,-5.79449,0,0,0,0,0,0,0,-1,853,617,-7.40072,5.79447
-364,407,-10.0638,-6.6228,0,0,0,0,0,0,0,-1,860,617,-10.0639,6.62279
-357,407,-6.64447,-1.83337,0,0,0,0,0,0,0,-1,867,617,-6.64446,1.8334
-350,407,-7.03351,-1.77551,0,0,0,0,0,0,0,-1,874,617,-7.03349,1.77551
-343,407,-7.40967,-1.95026,0,0,0,0,0,0,0,-1,881,617,-7.40969,1.95026
-336,407,-8.10229,-2.40662,0,0,0,0,0,0,0,-1,888,617,-8.10229,2.40664
-329,407,-8.81232,-2.76331,0,0,0,0,0,0,0,-1,895,617,-8.81235,2.76331
-322,407,0,0,0,0,0,0,0,0,0,-1,902,617,0,0
-315,407,0,0,0,0,0,0,0,0,0,-1,909,617,0,0
-308,407,0,0,0,0,0,0,0,0,0,-1,916,617,0,0
-301,407,0,0,0,0,0,0,0,0,0,-1,923,617,0,0
-294,407,0,0,0,0,0,0,0,0,0,-1,930,617,0,0
-287,407,0,0,0,0,0,0,0,0,0,-1,937,617,0,0
-280,407,0,0,0,0,0,0,0,0,0,-1,944,617,0,0
-273,407,0,0,0,0,0,0,0,0,0,-1,951,617,0,0
-266,407,0,0,0,0,0,0,0,0,0,-1,958,617,0,0
-259,407,0,0,0,0,0,0,0,0,0,-1,965,617,0,0
-252,407,0,0,0,0,0,0,0,0,0,-1,972,617,0,0
-245,407,0,0,0,0,0,0,0,0,0,-1,979,617,0,0
-238,407,0,0,0,0,0,0,0,0,0,-1,986,617,0,0
-231,407,0,0,0,0,0,0,0,0,0,-1,993,617,0,0
-224,407,0,0,0,0,0,0,0,0,0,-1,1000,617,0,0
-217,407,0,0,0,0,0,0,0,0,0,-1,1007,617,0,0
-210,407,0,0,0,0,0,0,0,0,0,-1,1014,617,0,0
-203,407,0,0,0,0,0,0,0,0,0,-1,1021,617,0,0
-196,407,0,0,0,0,0,0,0,0,0,-1,1028,617,0,0
-189,407,0,0,0,0,0,0,0,0,0,-1,1035,617,0,0
-182,407,0,0,0,0,0,0,0,0,0,-1,1042,617,0,0
-175,407,0,0,0,0,0,0,0,0,0,-1,1049,617,0,0
-168,407,0,0,0,0,0,0,0,0,0,-1,1056,617,0,0
-161,407,0,0,0,0,0,0,0,0,0,-1,1063,617,0,0
-154,407,0,0,0,0,0,0,0,0,0,-1,1070,617,0,0
-147,407,0,0,0,0,0,0,0,0,0,-1,1077,617,0,0
-140,407,0,0,0,0,0,0,0,0,0,-1,1084,617,0,0
-133,407,0,0,0,0,0,0,0,0,0,-1,1091,617,0,0
-126,407,0,0,0,0,0,0,0,0,0,-1,1098,617,0,0
-119,407,0,0,0,0,0,0,0,0,0,-1,1105,617,0,0
-112,407,0,0,0,0,0,0,0,0,0,-1,1112,617,0,0
-105,407,0,0,0,0,0,0,0,0,0,-1,1119,617,0,0
-98,407,0,0,0,0,0,0,0,0,0,-1,1126,617,0,0
-91,407,0,0,0,0,0,0,0,0,0,-1,1133,617,0,0
-84,407,0,0,0,0,0,0,0,0,0,-1,1140,617,0,0
-77,407,0,0,0,0,0,0,0,0,0,-1,1147,617,0,0
-70,407,0,0,0,0,0,0,0,0,0,-1,1154,617,0,0
-63,407,0,0,0,0,0,0,0,0,0,-1,1161,617,0,0
-56,407,0,0,0,0,0,0,0,0,0,-1,1168,617,0,0
-49,407,0,0,0,0,0,0,0,0,0,-1,1175,617,0,0
-42,407,0,0,0,0,0,0,0,0,0,-1,1182,617,0,0
-35,407,0,0,0,0,0,0,0,0,0,-1,1189,617,0,0
-28,407,0,0,0,0,0,0,0,0,0,-1,1196,617,0,0
-21,407,0,0,0,0,0,0,0,0,0,-1,1203,617,0,0
-14,407,0,0,0,0,0,0,0,0,0,-1,1210,617,0,0
-7,407,0,0,0,0,0,0,0,0,0,-1,1217,617,0,0
0,407,0,0,0,0,0,0,0,0,0,-1,1224,617,0,0
7,407,0,0,0,0,0,0,0,0,0,-1,1231,617,0,0
14,407,0,0,0,0,0,0,0,0,0,-1,1238,617,0,0
21,407,0,0,0,0,0,0,0,0,0,-1,1245,617,0,0
28,407,0,0,0,0,0,0,0,0,0,-1,1252,617,0,0
35,407,0,0,0,0,0,0,0,0,0,-1,1259,617,0,0
42,407,0,0,0,0,0,0,0,0,0,-1,1266,617,0,0
49,407,0,0,0,0,0,0,0,0,0,-1,1273,617,0,0
56,407,0,0,0,0,0,0,0,0,0,-1,1280,617,0,0
63,407,0,0,0,0,0,0,0,0,0,-1,1287,617,0,0
70,407,0,0,0,0,0,0,0,0,0,-1,1294,617,0,0
77,407,0,0,0,0,0,0,0,0,0,-1,1301,617,0,0
84,407,0,0,0,0,0,0,0,0,0,-1,1308,617,0,0
91,407,0,0,0,0,0,0,0,0,0,-1,1315,617,0,0
98,407,0,0,0,0,0,0,0,0,0,-1,1322,617,0,0
105,407,0,0,0,0,0,0,0,0,0,-1,1329,617,0,0
112,407,0,0,0,0,0,0,0,0,0,-1,1336,617,0,0
119,407,0,0,0,0,0,0,0,0,0,-1,1343,617,0,0
126,407,0,0,0,0,0,0,0,0,0,-1,1350,617,0,0
133,407,0,0,0,0,0,0,0,0,0,-1,1357,617,0,0
140,407,0,0,0,0,0,0,0,0,0,-1,1364,617,0,0
147,407,0,0,0,0,0,0,0,0,0,-1,1371,617,0,0
154,407,0,0,0,0,0,0,0,0,0,-1,1378,617,0,0
161,407,0,0,0,0,0,0,0,0,0,-1,1385,617,0,0
168,407,0,0,0,0,0,0,0,0,0,-1,1392,617,0,0
175,407,0,0,0,0,0,0,0,0,0,-1,1399,617,0,0
182,407,0,0,0,0,0,0,0,0,0,-1,1406,617,0,0
189,407,0,0,0,0,0,0,0,0,0,-1,1413,617,0,0
196,407,0,0,0,0,0,0,0,0,0,-1,1420,617,0,0
203,407,0,0,0,0,0,0,0,0,0,-1,1427,617,0,0
210,407,0,0,0,0,0,0,0,0,0,-1,1434,617,0,0
217,407,0,0,0,0,0,0,0,0,0,-1,1441,617,0,0
224,407,0,0,0,0,0,0,0,0,0,-1,1448,617,0,0
231,407,0,0,0,0,0,0,0,0,0,-1,1455,617,0,0
238,407,0,0,0,0,0,0,0,0,0,-1,1462,617,0,0
245,407,0,0,0,0,0,0,0,0,0,-1,1469,617,0,0
252,407,0,0,0,0,0,0,0,0,0,-1,1476,617,0,0
259,407,0,0,0,0,0,0,0,0,0,-1,1483,617,0,0
266,407,0,0,0,0,0,0,0,0,0,-1,1490,617,0,0
273,407,0,0,0,0,0,0,0,0,0,-1,1497,617,0,0
280,407,0,0,0,0,0,0,0,0,0,-1,1504,617,0,0
287,407,0,0,0,0,0,0,0,0,0,-1,1511,617,0,0
294,407,0,0,0,0,0,0,0,0,0,-1,1518,617,0,0
301,407,0,0,0,0,0,0,0,0,0,-1,1525,617,0,0
308,407,0,0,0,0,0,0,0,0,0,-1,1532,617,0,0
315,407,0,0,0,0,0,0,0,0,0,-1,1539,617,0,0
322,407,0,0,0,0,0,0,0,0,0,-1,1546,617,0,0
329,407,0,0,0,0,0,0,0,0,0,-1,1553,617,0,0
336,407,0,0,0,0,0,0,0,0,0,-1,1560,617,0,0
343,407,0,0,0,0,0,0,0,0,0,-1,1567,617,0,0
350,407,0,0,0,0,0,0,0,0,0,-1,1574,617,0,0
357,407,0,0,0,0,0,0,0,0,0,-1,1581,617,0,0
364,407,0,0,0,0,0,0,0,0,0,-1,1588,617,0,0
371,407,0,0,0,0,0,0,0,0,0,-1,1595,617,0,0
378,407,0,0,0,0,0,0,0,0,0,-1,1602,617,0,0
385,407,0,0,0,0,0,0,0,0,0,-1,1609,617,0,0
392,407,0,0,0,0,0,0,0,0,0,-1,1616,617,0,0
399,407,0,0,0,0,0,0,0,0,0,-1,1623,617,0,0
406,407,0,0,0,0,0,0,0,0,0,-1,1630,617,0,0
413,407,0,0,0,0,0,0,0,0,0,-1,1637,617,0,0
420,407,0,0,0,0,0,0,0,0,0,-1,1644,617,0,0
427,407,0,0,0,0,0,0,0,0,0,-1,1651,617,0,0
434,407,0,0,0,0,0,0,0,0,0,-1,1658,617,0,0
441,407,0,0,0,0,0,0,0,0,0,-1,1665,617,0,0
448,407,7.02893,2.13843,0,0,0,0,0,0,0,-1,1672,617,7.02899,-2.13844
455,407,7.55237,2.29242,0,0,0,0,0,0,0,-1,1679,617,7.55236,-2.29244
462,407,8.2926,2.46173,0,0,0,0,0,0,0,-1,1686,617,8.29261,-2.46174
469,407,8.71509,2.22681,0,0,0,0,0,0,0,-1,1693,617,8.71511,-2.22681
476,407,8.89917,1.47766,0,0,0,0,0,0,0,-1,1700,617,8.89914,-1.47768
483,407,9.02612,0.682983,0,0,0,0,0,0,0,-1,1707,617,9.02608,-0.683004
490,407,9.12659,0.000671387,0,0,0,0,0,0,0,-1,1714,617,9.12653,-0.000675931
497,407,7.76819,0.855835,0,0,0,0,0,0,0,-1,1721,617,7.7682,-0.855865
504,407,4.69336,0.160706,0,0,0,0,0,0,0,-1,1728,617,4.69337,-0.1607
511,407,4.07104,-0.00140381,0,0,0,0,0,0,0,-1,1735,617,4.07109,0.00141425
518,407,6.09534,1.9411,0,0,0,0,0,0,0,-1,1742,617,6.09532,-1.94113
525,407,5.72534,-1.35986,0,0,0,0,0,0,0,-1,1749,617,5.72529,1.35988
532,407,18.5767,-10.6388,0,0,0,0,0,0,0,-1,1756,617,18.5766,10.6388
539,407,18.6675,-11.1478,0,0,0,0,0,0,0,-1,1763,617,18.6675,11.1479
546,407,18.8046,-10.4069,0.00576937,0.00264197,0.00268656,0.00731417,0.00109717,0.521842,0.00455465,0.0206297,1770,617,18.8046,10.4069
553,407,18.7819,-9.87604,0.00479387,0.00177213,0.00207584,0.00585046,0.000715543,0.470817,0.00368502,0.0153793,1777,617,18.7819,9.87604
560,407,18.7949,-9.30188,0.00369425,0.00126697,0.00154724,0.00444704,0.000514176,0.452823,0.00280903,0.0158687,1784,617,18.7949,9.30186
567,407,18.7919,-8.75519,0.00267101,0.000966465,0.0011526,0.00325222,0.00038526,0.467046,0.00205182,0.0275389,1791,617,18.7919,8.75516
574,407,18.7587,-8.21063,0.00184443,0.000899298,0.000941342,0.00242516,0.000318562,0.552771,0.00152174,0.0236716,1798,617,18.7587,8.21062
581,407,18.7211,-7.60046,0.00112194,0.00104239,0.000864055,0.00194713,0.000217192,0.762398,0.00123209,0.0172749,1805,617,18.7211,7.60045
588,407,18.7131,-7.06714,0.000478632,0.00143349,0.00091134,0.00198489,-7.27621e-05,1.02668,0.00134817,0.012541,1812,617,18.7132,7.06717
595,407,18.7266,-6.51758,7.21079e-05,0.00206559,0.00116101,0.00259902,-0.000461326,1.14011,0.00190517,0.0236119,1819,617,18.7266,6.51759
602,407,18.6975,-5.92847,-6.83633e-05,0.00299765,0.00162777,0.00370065,-0.000771371,1.16311,0.00276039,0.0185541,1826,617,18.6975,5.92845
609,407,18.6309,-5.34381,0.000103885,0.00424148,0.00233,0.00528859,-0.000943215,1.14844,0.00387855,0.0162373,1833,617,18.6308,5.34383
616,407,18.6897,-4.64185,0.000619067,0.00585501,0.00329415,0.00744479,-0.00097072,1.12116,0.00531639,0.0288903,1840,617,18.6897,4.64184
623,407,18.9574,-3.83405,0,0,0,0,0,0,0,-1,1847,617,18.9574,3.83407
630,407,7.06177,0.814575,0,0,0,0,0,0,0,-1,1854,617,7.06178,-0.814579
637,407,8.90479,0.219421,0,0,0,0,0,0,0,-1,1861,617,8.90474,-0.219401
644,407,5.09766,2.27747,0,0,0,0,0,0,0,-1,1868,617,5.09764,-2.27746
651,407,7.37524,0.0513916,0,0,0,0,0,0,0,-1,1875,617,7.3752,-0.0513923
658,407,3.76685,0.594177,0,0,0,0,0,0,0,-1,1882,617,3.76683,-0.594184
665,407,5.76123,0.375061,0,0,0,0,0,0,0,-1,1889,617,5.76118,-0.37509
672,407,0,0,0,0,0,0,0,0,0,-1,1896,617,0,0
679,407,0,0,0,0,0,0,0,0,0,-1,1903,617,0,0
686,407,0,0,0,0,0,0,0,0,0,-1,1910,617,0,0
693,407,0,0,0,0,0,0,0,0,0,-1,1917,617,0,0
700,407,0,0,0,0,0,0,0,0,0,-1,1924,617,0,0
707,407,0,0,0,0,0,0,0,0,0,-1,1931,617,0,0
714,407,0,0,0,0,0,0,0,0,0,-1,1938,617,0,0
721,407,0,0,0,0,0,0,0,0,0,-1,1945,617,0,0
728,407,0,0,0,0,0,0,0,0,0,-1,1952,617,0,0
735,407,0,0,0,0,0,0,0,0,0,-1,1959,617,0,0
742,407,0,0,0,0,0,0,0,0,0,-1,1966,617,0,0
749,407,0,0,0,0,0,0,0,0,0,-1,1973,617,0,0
756,407,0,0,0,0,0,0,0,0,0,-1,1980,617,0,0
763,407,0,0,0,0,0,0,0,0,0,-1,1987,617,0,0
770,407,0,0,0,0,0,0,0,0,0,-1,1994,617,0,0
777,407,0,0,0,0,0,0,0,0,0,-1,2001,617,0,0
784,407,0,0,0,0,0,0,0,0,0,-1,2008,617,0,0
791,407,0,0,0,0,0,0,0,0,0,-1,2015,617,0,0
798,407,0,0,0,0,0,0,0,0,0,-1,2022,617,0,0
805,407,0,0,0,0,0,0,0,0,0,-1,2029,617,0,0
812,407,0,0,0,0,0,0,0,0,0,-1,2036,617,0,0
-700,400,0,0,0,0,0,0,0,0,0,-1,524,624,0,0
-693,400,0,0,0,0,0,0,0,0,0,-1,531,624,0,0
-686,400,0,0,0,0,0,0,0,0,0,-1,538,624,0,0
-679,400,0,0,0,0,0,0,0,0,0,-1,545,624,0,0
-672,400,0,0,0,0,0,0,0,0,0,-1,552,624,0,0
-665,400,0,0,0,0,0,0,0,0,0,-1,559,624,0,0
-658,400,0,0,0,0,0,0,0,0,0,-1,566,624,0,0
-651,400,0,0,0,0,0,0,0,0,0,-1,573,624,0,0
-644,400,0,0,0,0,0,0,0,0,0,-1,580,624,0,0
-637,400,0,0,0,0,0,0,0,0,0,-1,587,624,0,0
-630,400,0,0,0,0,0,0,0,0,0,-1,594,624,0,0
-623,400,0,0,0,0,0,0,0,0,0,-1,601,624,0,0
-616,400,0,0,0,0,0,0,0,0,0,-1,608,624,0,0
-609,400,0,0,0,0,0,0,0,0,0,-1,615,624,0,0
-602,400,0,0,0,0,0,0,0,0,0,-1,622,624,0,0
-595,400,0,0,0,0,0,0,0,0,0,-1,629,624,0,0
-588,400,0,0,0,0,0,0,0,0,0,-1,636,624,0,0
-581,400,0,0,0,0,0,0,0,0,0,-1,643,624,0,0
-574,400,0,0,0,0,0,0,0,0,0,-1,650,624,0,0
-567,400,0,0,0,0,0,0,0,0,0,-1,657,624,0,0
-560,400,0,0,0,0,0,0,0,0,0,-1,664,624,0,0
-553,400,0,0,0,0,0,0,0,0,0,-1,671,624,0,0
-546,400,-8.41174,-1.4599,0,0,0,0,0,0,0,-1,678,624,-8.41173,1.45989
-539,400,-5.69104,-1.7337,0,0,0,0,0,0,0,-1,685,624,-5.69103,1.7337
-532,400,-3.03632,-2.03912,0,0,0,0,0,0,0,-1,692,624,-3.03632,2.03909
-525,400,-6.20813,-7.04071,0,0,0,0,0,0,0,-1,699,624,-6.20814,7.04071
-518,400,-5.26544,-1.58661,0,0,0,0,0,0,0,-1,706,624,-5.26544,1.58658
-511,400,-9.32965,-6.91058,0,0,0,0,0,0,0,-1,713,624,-9.32963,6.91059
-504,400,-9.86169,-5.77435,0,0,0,0,0,0,0,-1,720,624,-9.86171,5.77437
-497,400,-9.54266,-6.04108,0,0,0,0,0,0,0,-1,727,624,-9.54266,6.04108
-490,400,-9.5426,-6.46252,-0.000123854,0.000726602,-0.00110114,0.00148177,-0.000879018,-0.969663,0.00137773,0.0281858,734,624,-9.54258,6.46255
-483,400,-9.59314,-7.07281,-3.42404e-05,0.000911867,-0.00113167,0.00166538,-0.000787753,-0.983367,0.00144621,0.0163361,741,624,-9.59312,7.07283
-476,400,-9.60468,-7.6015,0.000140911,0.000999459,-0.00114281,0.00179096,-0.000650593,-0.965059,0.00145999,0.0135871,748,624,-9.60465,7.60147
-469,400,-9.604,-8.16364,0.000421433,0.000994444,-0.00113515,0.00187868,-0.000462806,-0.909014,0.00143188,0.0146492,755,624,-9.604,8.16363
-462,400,-9.66711,-8.71411,0.000669129,0.00080813,-0.00101403,0.00175504,-0.000277778,-0.819614,0.00127276,0.0194849,762,624,-9.66709,8.71413
-455,400,-9.68109,-9.23346,0.000834178,0.000453637,-0.000805963,0.00147203,-0.00018421,-0.669481,0.00104816,0.0201402,769,624,-9.68108,9.23344
-448,400,-9.65277,-9.79663,0.00092316,-2.10381e-05,-0.000458504,0.00110917,-0.000207045,-0.385395,0.000817249,0.016167,776,624,-9.65277,9.79665
-441,400,-9.68719,-10.303,0.000868365,-0.000605851,3.56789e-05,0.000869228,-0.000606714,0.0241831,0.000856617,0.0154732,783,624,-9.68719,10.303
-434,400,-9.73059,-10.8159,0.000719488,-0.00129394,0.000612504,0.000891178,-0.00146563,0.273293,0.00137411,0.0115868,790,624,-9.73059,10.8159
-427,400,-9.73608,-11.3468,0.000399429,-0.00216652,0.00133589,0.000968647,-0.00273574,0.402799,0.00221836,0.0100052,797,624,-9.73608,11.3468
-420,400,-9.68011,-11.9076,-0.000137545,-0.00326785,0.00229049,0.00107148,-0.00447687,0.485674,0.00339852,0.0148672,804,624,-9.68009,11.9076
-413,400,-9.75409,-12.3362,-0.000923226,-0.00413067,0.00332665,0.00116609,-0.00621999,0.560793,0.00458506,0.0346369,811,624,-9.75409,12.3362
-406,400,-9.76367,-12.457,0,0,0,0,0,0,0,-1,818,624,-9.76369,12.457
-399,400,-9.86206,-12.1,0,0,0,0,0,0,0,-1,825,624,-9.86206,12.1
-392,400,-4.92285,-6.63354,0,0,0,0,0,0,0,-1,832,624,-4.92285,6.63354
-385,400,-3.68738,-5.04205,0,0,0,0,0,0,0,-1,839,624,-3.68736,5.04207
-378,400,-6.84064,-1.28662,0,0,0,0,0,0,0,-1,846,624,-6.84062,1.28662
-371,400,-6.98865,-1.2572,0,0,0,0,0,0,0,-1,853,624,-6.98865,1.25721
-364,400,-6.97247,-1.24133,0,0,0,0,0,0,0,-1,860,624,-6.97249,1.24135
-357,400,-7.18329,-1.23218,0,0,0,0,0,0,0,-1,867,624,-7.18327,1.2322
-350,400,-7.40186,-1.19409,0,0,0,0,0,0,0,-1,874,624,-7.40187,1.19407
-343,400,-8.09357,-1.51147,0,0,0,0,0,0,0,-1,881,624,-8.09355,1.51148
-336,400,0,0,0,0,0,0,0,0,0,-1,888,624,0,0
-329,400,0,0,0,0,0,0,0,0,0,-1,895,624,0,0
-322,400,0,0,0,0,0,0,0,0,0,-1,902,624,0,0
-315,400,0,0,0,0,0,0,0,0,0,-1,909,624,0,0
-308,400,0,0,0,0,0,0,0,0,0,-1,916,624,0,0
-301,400,0,0,0,0,0,0,0,0,0,-1,923,624,0,0
-294,400,0,0,0,0,0,0,0,0,0,-1,930,624,0,0
-287,400,0,0,0,0,0,0,0,0,0,-1,937,624,0,0
-280,400,0,0,0,0,0,0,0,0,0,-1,944,624,0,0
-273,400,0,0,0,0,0,0,0,0,0,-1,951,624,0,0
-266,400,0,0,0,0,0,0,0,0,0,-1,958,624,0,0
-259,400,0,0,0,0,0,0,0,0,0,-1,965,624,0,0
-252,400,0,0,0,0,0,0,0,0,0,-1,972,624,0,0
-245,400,0,0,0,0,0,0,0,0,0,-1,979,624,0,0
-238,400,0,0,0,0,0,0,0,0,0,-1,986,624,0,0
-231,400,0,0,0,0,0,0,0,0,0,-1,993,624,0,0
-224,400,0,0,0,0,0,0,0,0,0,-1,1000,624,0,0
-217,400,0,0,0,0,0,0,0,0,0,-1,1007,624,0,0
-210,400,0,0,0,0,0,0,0,0,0,-1,1014,624,0,0
-203,400,0,0,0,0,0,0,0,0,0,-1,1021,624,0,0
-196,400,0,0,0,0,0,0,0,0,0,-1,1028,624,0,0
-189,400,0,0,0,0,0,0,0,0,0,-1,1035,624,0,0
-182,400,0,0,0,0,0,0,0,0,0,-1,1042,624,0,0
-175,400,0,0,0,0,0,0,0,0,0,-1,1049,624,0,0
-168,400,0,0,0,0,0,0,0,0,0,-1,1056,624,0,0
-161,400,0,0,0,0,0,0,0,0,0,-1,1063,624,0,0
-154,400,0,0,0,0,0,0,0,0,0,-1,1070,624,0,0
-147,400,0,0,0,0,0,0,0,0,0,-1,1077,624,0,0
-140,400,0,0,0,0,0,0,0,0,0,-1,1084,624,0,0
-133,400,0,0,0,0,0,0,0,0,0,-1,1091,624,0,0
-126,400,0,0,0,0,0,0,0,0,0,-1,1098,624,0,0
-119,400,0,0,0,0,0,0,0,0,0,-1,1105,624,0,0
-112,400,0,0,0,0,0,0,0,0,0,-1,1112,624,0,0
-105,400,0,0,0,0,0,0,0,0,0,-1,1119,624,0,0
-98,400,0,0,0,0,0,0,0,0,0,-1,1126,624,0,0
-91,400,0,0,0,0,0,0,0,0,0,-1,1133,624,0,0
-84,400,0,0,0,0,0,0,0,0,0,-1,1140,624,0,0
-77,400,0,0,0,0,0,0,0,0,0,-1,1147,624,0,0
-70,400,0,0,0,0,0,0,0,0,0,-1,1154,624,0,0
-63,400,0,0,0,0,0,0,0,0,0,-1,1161,624,0,0
-56,400,0,0,0,0,0,0,0,0,0,-1,1168,624,0,0
-49,400,0,0,0,0,0,0,0,0,0,-1,1175,624,0,0
-42,400,0,0,0,0,0,0,0,0,0,-1,1182,624,0,0
-35,400,0,0,0,0,0,0,0,0,0,-1,1189,624,0,0
-28,400,0,0,0,0,0,0,0,0,0,-1,1196,624,0,0
-21,400,0,0,0,0,0,0,0,0,0,-1,1203,624,0,0
-14,400,0,0,0,0,0,0,0,0,0,-1,1210,624,0,0
-7,400,0,0,0,0,0,0,0,0,0,-1,1217,624,0,0
0,400,0,0,0,0,0,0,0,0,0,-1,1224,624,0,0
7,400,0,0,0,0,0,0,0,0,0,-1,1231,624,0,0
14,400,0,0,0,0,0,0,0,0,0,-1,1238,624,0,0
21,400,0,0,0,0,0,0,0,0,0,-1,1245,624,0,0
28,400,0,0,0,0,0,0,0,0,0,-1,1252,624,0,0
35,400,0,0,0,0,0,0,0,0,0,-1,1259,624,0,0
42,400,0,0,0,0,0,0,0,0,0,-1,1266,624,0,0
49,400,0,0,0,0,0,0,0,0,0,-1,1273,624,0,0
56,400,0,0,0,0,0,0,0,0,0,-1,1280,624,0,0
63,400,0,0,0,0,0,0,0,0,0,-1,1287,624,0,0
70,400,0,0,0,0,0,0,0,0,0,-1,1294,624,0,0
77,400,0,0,0,0,0,0,0,0,0,-1,1301,624,0,0
84,400,0,0,0,0,0,0,0,0,0,-1,1308,624,0,0
91,400,0,0,0,0,0,0,0,0,0,-1,1315,624,0,0
98,400,0,0,0,0,0,0,0,0,0,-1,1322,624,0,0
105,400,0,0,0,0,0,0,0,0,0,-1,1329,624,0,0
112,400,0,0,0,0,0,0,0,0,0,-1,1336,624,0,0
119,400,0,0,0,0,0,0,0,0,0,-1,1343,624,0,0
126,400,0,0,0,0,0,0,0,0,0,-1,1350,624,0,0
133,400,0,0,0,0,0,0,0,0,0,-1,1357,624,0,0
140,400,0,0,0,0,0,0,0,0,0,-1,1364,624,0,0
147,400,0,0,0,0,0,0,0,0,0,-1,1371,624,0,0
154,400,0,0,0,0,0,0,0,0,0,-1,1378,624,0,0
161,400,0,0,0,0,0,0,0,0,0,-1,1385,624,0,0
168,400,0,0,0,0,0,0,0,0,0,-1,1392,624,0,0
175,400,0,0,0,0,0,0,0,0,0,-1,1399,624,0,0
182,400,0,0,0,0,0,0,0,0,0,-1,1406,624,0,0
189,400,0,0,0,0,0,0,0,0,0,-1,1413,624,0,0
196,400,0,0,0,0,0,0,0,0,0,-1,1420,624,0,0
203,400,0,0,0,0,0,0,0,0,0,-1,1427,624,0,0
210,400,0,0,0,0,0,0,0,0,0,-1,1434,624,0,0
217,400,0,0,0,0,0,0,0,0,0,-1,1441,624,0,0
224,400,0,0,0,0,0,0,0,0,0,-1,1448,624,0,0
231,400,0,0,0,0,0,0,0,0,0,-1,1455,624,0,0
238,400,0,0,0,0,0,0,0,0,0,-1,1462,624,0,0
245,400,0,0,0,0,0,0,0,0,0,-1,1469,624,0,0
252,400,0,0,0,0,0,0,0,0,0,-1,1476,624,0,0
259,400,0,0,0,0,0,0,0,0,0,-1,1483,624,0,0
266,400,0,0,0,0,0,0,0,0,0,-1,1490,624,0,0
273,400,0,0,0,0,0,0,0,0,0,-1,1497,624,0,0
280,400,0,0,0,0,0,0,0,0,0,-1,1504,624,0,0
287,400,0,0,0,0,0,0,0,0,0,-1,1511,624,0,0
294,400,0,0,0,0,0,0,0,0,0,-1,1518,624,0,0
301,400,0,0,0,0,0,0,0,0,0,-1,1525,624,0,0
308,400,0,0,0,0,0,0,0,0,0,-1,1532,624,0,0
315,400,0,0,0,0,0,0,0,0,0,-1,1539,624,0,0
322,400,0,0,0,0,0,0,0,0,0,-1,1546,624,0,0
329,400,0,0,0,0,0,0,0,0,0,-1,1553,624,0,0
336,400,0,0,0,0,0,0,0,0,0,-1,1560,624,0,0
343,400,0,0,0,0,0,0,0,0,0,-1,1567,624,0,0
350,400,0,0,0,0,0,0,0,0,0,-1,1574,624,0,0
357,400,0,0,0,0,0,0,0,0,0,-1,1581,624,0,0
364,400,0,0,0,0,0,0,0,0,0,-1,1588,624,0,0
371,400,0,0,0,0,0,0,0,0,0,-1,1595,624,0,0
378,400,0,0,0,0,0,0,0,0,0,-1,1602,624,0,0
385,400,0,0,0,0,0,0,0,0,0,-1,1609,624,0,0
392,400,0,0,0,0,0,0,0,0,0,-1,1616,624,0,0
399,400,0,0,0,0,0,0,0,0,0,-1,1623,624,0,0
406,400,0,0,0,0,0,0,0,0,0,-1,1630,624,0,0
413,400,0,0,0,0,0,0,0,0,0,-1,1637,624,0,0
420,400,0,0,0,0,0,0,0,0,0,-1,1644,624,0,0
427,400,0,0,0,0,0,0,0,0,0,-1,1651,624,0,0
434,400,0,0,0,0,0,0,0,0,0,-1,1658,624,0,0
441,400,0,0,0,0,0,0,0,0,0,-1,1665,624,0,0
448,400,0,0,0,0,0,0,0,0,0,-1,1672,624,0,0
455,400,8.91309,2.75885,0,0,0,0,0,0,0,-1,1679,624,8.91312,-2.75885
462,400,8.90356,2.37878,0,0,0,0,0,0,0,-1,1686,624,8.90353,-2.37878
469,400,9.14429,1.76849,0,0,0,0,0,0,0,-1,1693,624,9.14432,-1.76847
476,400,9.23254,1.25995,0,0,0,0,0,0,0,-1,1700,624,9.23252,-1.25994
483,400,9.59766,0.562439,0,0,0,0,0,0,0,-1,1707,624,9.59771,-0.56242
490,400,9.92578,-0.213745,0,0,0,0,0,0,0,-1,1714,624,9.92579,0.21376
497,400,9.19141,0.175232,0,0,0,0,0,0,0,-1,1721,624,9.19138,-0.175209
504,400,9.23438,0.00823975,0,0,0,0,0,0,0,-1,1728,624,9.23436,-0.00823766
511,400,6.16687,3.3501,0,0,0,0,0,0,0,-1,1735,624,6.16682,-3.35007
518,400,6.55237,1.74994,0,0,0,0,0,0,0,-1,1742,624,6.55236,-1.74993
525,400,6.99731,1.08783,0,0,0,0,0,0,0,-1,1749,624,6.99736,-1.08785
532,400,6.96582,-1.74982,0,0,0,0,0,0,0,-1,1756,624,6.96585,1.74983
539,400,16.0278,-8.40637,0,0,0,0,0,0,0,-1,1763,624,16.0278,8.40635
546,400,19.3754,-10.4081,0,0,0,0,0,0,0,-1,1770,624,19.3753,10.4081
553,400,19.2968,-9.8797,0.00590824,0.00181608,0.00227415,0.00692128,0.000803039,0.41907,0.00437116,0.0348758,1777,624,19.2968,9.87972
560,400,19.3641,-9.27704,0.00465531,0.00129629,0.00170141,0.00536652,0.000585075,0.395939,0.00339948,0.0147947,1784,624,19.3642,9.27704
567,400,19.3423,-8.74463,0.00348713,0.000947339,0.00125355,0.00400162,0.000432849,0.389461,0.00253581,0.0163923,1791,624,19.3423,8.74463
574,400,19.3136,-8.19452,0.00257647,0.000876213,0.00102967,0.00306161,0.000391073,0.440311,0.00192401,0.0182532,1798,624,19.3136,8.19454
581,400,19.2676,-7.61407,0.00180792,0.00102794,0.000954476,0.00244901,0.000386855,0.591453,0.00152022,0.0193602,1805,624,19.2676,7.6141
588,400,19.2524,-7.01361,0.00114846,0.00139575,0.000997894,0.00227763,0.000266578,0.847039,0.00143782,0.0159445,1812,624,19.2525,7.01363
595,400,19.2645,-6.47247,0.000766667,0.00195195,0.00122838,0.00272318,-4.56057e-06,1.01016,0.00181698,0.0152331,1819,624,19.2646,6.47247
602,400,19.2507,-5.91711,0.000695759,0.00278331,0.00168781,0.00372402,-0.000244949,1.06233,0.00256823,0.0144482,1826,624,19.2508,5.91712
609,400,19.1777,-5.34851,0.000886121,0.0038345,0.00232975,0.00511729,-0.000396674,1.06748,0.00355115,0.013475,1833,624,19.1778,5.34849
616,400,19.1718,-4.75183,0.00141151,0.00517221,0.00320414,0.00700699,-0.000423268,1.05075,0.00481862,0.018153,1840,624,19.1717,4.75183
623,400,19.3326,-3.81586,0,0,0,0,0,0,0,-1,1847,624,19.3326,3.81586
630,400,11.9432,0.09021,0,0,0,0,0,0,0,-1,1854,624,11.9432,-0.0902007
637,400,6.92896,1.01917,0,0,0,0,0,0,0,-1,1861,624,6.92899,-1.01918
644,400,8.65381,1.4599,0,0,0,0,0,0,0,-1,1868,624,8.65379,-1.45991
651,400,7.90601,0.424072,0,0,0,0,0,0,0,-1,1875,624,7.90598,-0.424097
658,400,8.69031,1.0484,0,0,0,0,0,0,0,-1,1882,624,8.6903,-1.0484
665,400,5.98438,0.522522,0,0,0,0,0,0,0,-1,1889,624,5.98442,-0.522552
672,400,0,0,0,0,0,0,0,0,0,-1,1896,624,0,0
679,400,0,0,0,0,0,0,0,0,0,-1,1903,624,0,0
686,400,0,0,0,0,0,0,0,0,0,-1,1910,624,0,0
693,400,0,0,0,0,0,0,0,0,0,-1,1917,624,0,0
700,400,0,0,0,0,0,0,0,0,0,-1,1924,624,0,0
707,400,0,0,0,0,0,0,0,0,0,-1,1931,624,0,0
714,400,0,0,0,0,0,0,0,0,0,-1,1938,624,0,0
721,400,0,0,0,0,0,0,0,0,0,-1,1945,624,0,0
728,400,0,0,0,0,0,0,0,0,0,-1,1952,624,0,0
735,400,0,0,0,0,0,0,0,0,0,-1,1959,624,0,0
742,400,0,0,0,0,0,0,0,0,0,-1,1966,624,0,0
749,400,0,0,0,0,0,0,0,0,0,-1,1973,624,0,0
756,400,0,0,0,0,0,0,0,0,0,-1,1980,624,0,0
763,400,0,0,0,0,0,0,0,0,0,-1,1987,624,0,0
770,400,0,0,0,0,0,0,0,0,0,-1,1994,624,0,0
777,400,0,0,0,0,0,0,0,0,0,-1,2001,624,0,0
784,400,0,0,0,0,0,0,0,0,0,-1,2008,624,0,0
791,400,0,0,0,0,0,0,0,0,0,-1,2015,624,0,0
798,400,0,0,0,0,0,0,0,0,0,-1,2022,624,0,0
805,400,0,0,0,0,0,0,0,0,0,-1,2029,624,0,0
812,400,0,0,0,0,0,0,0,0,0,-1,2036,624,0,0
-700,393,0,0,0,0,0,0,0,0,0,-1,524,631,0,0
-693,393,0,0,0,0,0,0,0,0,0,-1,531,631,0,0
-686,393,0,0,0,0,0,0,0,0,0,-1,538,631,0,0
-679,393,0,0,0,0,0,0,0,0,0,-1,545,631,0,0
-672,393,0,0,0,0,0,0,0,0,0,-1,552,631,0,0
-665,393,0,0,0,0,0,0,0,0,0,-1,559,631,0,0
-658,393,0,0,0,0,0,0,0,0,0,-1,566,631,0,0
-651,393,0,0,0,0,0,0,0,0,0,-1,573,631,0,0
-644,393,0,0,0,0,0,0,0,0,0,-1,580,631,0,0
-637,393,0,0,0,0,0,0,0,0,0,-1,587,631,0,0
-630,393,0,0,0,0,0,0,0,0,0,-1,594,631,0,0
-623,393,0,0,0,0,0,0,0,0,0,-1,601,631,0,0
-616,393,0,0,0,0,0,0,0,0,0,-1,608,631,0,0
-609,393,0,0,0,0,0,0,0,0,0,-1,615,631,0,0
-602,393,0,0,0,0,0,0,0,0,0,-1,622,631,0,0
-595,393,0,0,0,0,0,0,0,0,0,-1,629,631,0,0
-588,393,0,0,0,0,0,0,0,0,0,-1,636,631,0,0
-581,393,0,0,0,0,0,0,0,0,0,-1,643,631,0,0
-574,393,0,0,0,0,0,0,0,0,0,-1,650,631,0,0
-567,393,0,0,0,0,0,0,0,0,0,-1,657,631,0,0
-560,393,0,0,0,0,0,0,0,0,0,-1,664,631,0,0
-553,393,-2.35107,3.92633,0,0,0,0,0,0,0,-1,671,631,-2.35108,-3.92634
-546,393,-1.78778,2.4856,0,0,0,0,0,0,0,-1,678,631,-1.78778,-2.48557
-539,393,-5.2113,-2.20245,0,0,0,0,0,0,0,-1,685,631,-5.21128,2.20247
-532,393,-2.83643,-2.01624,0,0,0,0,0,0,0,-1,692,631,-2.83642,2.01626
-525,393,-5.9505,-0.952698,0,0,0,0,0,0,0,-1,699,631,-5.95053,0.95268
-518,393,-5.80219,-1.57739,0,0,0,0,0,0,0,-1,706,631,-5.80219,1.57738
-511,393,-6.15527,-2.09906,0,0,0,0,0,0,0,-1,713,631,-6.15526,2.09903
-504,393,-10.2025,-4.5719,0,0,0,0,0,0,0,-1,720,631,-10.2025,4.5719
-497,393,-9.80756,-5.49713,0,0,0,0,0,0,0,-1,727,631,-9.80758,5.4971
-490,393,-10.1088,-6.4942,0.000190092,1.47713e-05,-0.000664238,0.000772429,-0.000567566,-0.719792,0.000776655,0.0182978,734,631,-10.1088,6.49421
-483,393,-10.1196,-7.05945,0.000266304,0.00030379,-0.000762327,0.0010476,-0.00047751,-0.797689,0.000900797,0.0200463,741,631,-10.1196,7.05945
-476,393,-10.1287,-7.57507,0.000443824,0.000487977,-0.000842768,0.00130896,-0.000377156,-0.798493,0.00102183,0.0170873,748,631,-10.1287,7.57505
-469,393,-10.1461,-8.13147,0.000709897,0.000600941,-0.000899401,0.00155647,-0.00024563,-0.755149,0.00112847,0.0126545,755,631,-10.1461,8.1315
-462,393,-10.1841,-8.71552,0.000947027,0.000501273,-0.000840589,0.00159378,-0.000145485,-0.655808,0.00111419,0.014908,762,631,-10.1841,8.71553
-455,393,-10.1984,-9.25085,0.00111721,0.000218612,-0.000701074,0.0015006,-0.00016478,-0.500433,0.00105961,0.014777,769,631,-10.1983,9.25082
-448,393,-10.1995,-9.80359,0.00122147,-0.000180729,-0.00041649,0.00133585,-0.000295107,-0.268017,0.00100351,0.0147137,776,631,-10.1995,9.80357
-441,393,-10.2342,-10.3071,0.00119087,-0.000691713,7.32215e-06,0.00119089,-0.000691742,0.00388935,0.0010996,0.0132099,783,631,-10.2342,10.3071
-434,393,-10.2597,-10.7931,0.00105751,-0.00136642,0.000533555,0.00116976,-0.00147866,0.207354,0.00153253,0.0114828,790,631,-10.2597,10.7931
-427,393,-10.2197,-11.3635,0.000711828,-0.00224096,0.00124824,0.00116878,-0.00269791,0.350927,0.00228989,0.0205685,797,631,-10.2197,11.3635
-420,393,-10.2546,-11.8652,3.51992e-05,-0.00348381,0.00232841,0.00119414,-0.00464275,0.461839,0.0035606,0.0456429,804,631,-10.2546,11.8652
-413,393,-10.3556,-12.36,0,0,0,0,0,0,0,-1,811,631,-10.3556,12.3601
-406,393,-10.7375,-11.7292,0,0,0,0,0,0,0,-1,818,631,-10.7376,11.7292
-399,393,-5.07343,-5.92365,0,0,0,0,0,0,0,-1,825,631,-5.07344,5.92364
-392,393,-2.08063,-3.02386,0,0,0,0,0,0,0,-1,832,631,-2.08063,3.02384
-385,393,-3.16931,-0.624756,0,0,0,0,0,0,0,-1,839,631,-3.16928,0.624764
-378,393,-7.33081,-0.872314,0,0,0,0,0,0,0,-1,846,631,-7.33081,0.872325
-371,393,-7.47858,-0.811096,0,0,0,0,0,0,0,-1,853,631,-7.47859,0.811075
-364,393,-7.64917,-0.662415,0,0,0,0,0,0,0,-1,860,631,-7.64917,0.662406
-357,393,-8.09686,-0.726013,0,0,0,0,0,0,0,-1,867,631,-8.09689,0.726029
-350,393,-8.38788,-0.511841,0,0,0,0,0,0,0,-1,874,631,-8.38785,0.511811
-343,393,0,0,0,0,0,0,0,0,0,-1,881,631,0,0
-336,393,0,0,0,0,0,0,0,0,0,-1,888,631,0,0
-329,393,0,0,0,0,0,0,0,0,0,-1,895,631,0,0
-322,393,0,0,0,0,0,0,0,0,0,-1,902,631,0,0
-315,393,0,0,0,0,0,0,0,0,0,-1,909,631,0,0
-308,393,0,0,0,0,0,0,0,0,0,-1,916,631,0,0
-301,393,0,0,0,0,0,0,0,0,0,-1,923,631,0,0
-294,393,0,0,0,0,0,0,0,0,0,-1,930,631,0,0
-287,393,0,0,0,0,0,0,0,0,0,-1,937,631,0,0
-280,393,0,0,0,0,0,0,0,0,0,-1,944,631,0,0
-273,393,0,0,0,0,0,0,0,0,0,-1,951,631,0,0
-266,393,0,0,0,0,0,0,0,0,0,-1,958,631,0,0
-259,393,0,0,0,0,0,0,0,0,0,-1,965,631,0,0
-252,393,0,0,0,0,0,0,0,0,0,-1,972,631,0,0
-245,393,0,0,0,0,0,0,0,0,0,-1,979,631,0,0
-238,393,0,0,0,0,0,0,0,0,0,-1,986,631,0,0
-231,393,0,0,0,0,0,0,0,0,0,-1,993,631,0,0
-224,393,0,0,0,0,0,0,0,0,0,-1,1000,631,0,0
-217,393,0,0,0,0,0,0,0,0,0,-1,1007,631,0,0
-210,393,0,0,0,0,0,0,0,0,0,-1,1014,631,0,0
-203,393,0,0,0,0,0,0,0,0,0,-1,1021,631,0,0
-196,393,0,0,0,0,0,0,0,0,0,-1,1028,631,0,0
-189,393,0,0,0,0,0,0,0,0,0,-1,1035,631,0,0
-182,393,0,0,0,0,0,0,0,0,0,-1,1042,631,0,0
-175,393,0,0,0,0,0,0,0,0,0,-1,1049,631,0,0
-168,393,0,0,0,0,0,0,0,0,0,-1,1056,631,0,0
-161,393,0,0,0,0,0,0,0,0,0,-1,1063,631,0,0
-154,393,0,0,0,0,0,0,0,0,0,-1,1070,631,0,0
-147,393,0,0,0,0,0,0,0,0,0,-1,1077,631,0,0
-140,393,0,0,0,0,0,0,0,0,0,-1,1084,631,0,0
-133,393,0,0,0,0,0,0,0,0,0,-1,1091,631,0,0
-126,393,0,0,0,0,0,0,0,0,0,-1,1098,631,0,0
-119,393,0,0,0,0,0,0,0,0,0,-1,1105,631,0,0
-112,393,0,0,0,0,0,0,0,0,0,-1,1112,631,0,0
-105,393,0,0,0,0,0,0,0,0,0,-1,1119,631,0,0
-98,393,0,0,0,0,0,0,0,0,0,-1,1126,631,0,0
-91,393,0,0,0,0,0,0,0,0,0,-1,1133,631,0,0
-84,393,0,0,0,0,0,0,0,0,0,-1,1140,631,0,0
-77,393,0,0,0,0,0,0,0,0,0,-1,1147,631,0,0
-70,393,0,0,0,0,0,0,0,0,0,-1,1154,631,0,0
-63,393,0,0,0,0,0,0,0,0,0,-1,1161,631,0,0
-56,393,0,0,0,0,0,0,0,0,0,-1,1168,631,0,0
-49,393,0,0,0,0,0,0,0,0,0,-1,1175,631,0,0
-42,393,0,0,0,0,0,0,0,0,0,-1,1182,631,0,0
-35,393,0,0,0,0,0,0,0,0,0,-1,1189,631,0,0
-28,393,0,0,0,0,0,0,0,0,0,-1,1196,631,0,0
-21,393,0,0,0,0,0,0,0,0,0,-1,1203,631,0,0
-14,393,0,0,0,0,0,0,0,0,0,-1,1210,631,0,0
-7,393,0,0,0,0,0,0,0,0,0,-1,1217,631,0,0
0,393,0,0,0,0,0,0,0,0,0,-1,1224,631,0,0
7,393,0,0,0,0,0,0,0,0,0,-1,1231,631,0,0
14,393,0,0,0,0,0,0,0,0,0,-1,1238,631,0,0
21,393,0,0,0,0,0,0,0,0,0,-1,1245,631,0,0
28,393,0,0,0,0,0,0,0,0,0,-1,1252,631,0,0
35,393,0,0,0,0,0,0,0,0,0,-1,1259,631,0,0
42,393,0,0,0,0,0,0,0,0,0,-1,1266,631,0,0
49,393,0,0,0,0,0,0,0,0,0,-1,1273,631,0,0
56,393,0,0,0,0,0,0,0,0,0,-1,1280,631,0,0
63,393,0,0,0,0,0,0,0,0,0,-1,1287,631,0,0
70,393,0,0,0,0,0,0,0,0,0,-1,1294,631,0,0
77,393,0,0,0,0,0,0,0,0,0,-1,1301,631,0,0
84,393,0,0,0,0,0,0,0,0,0,-1,1308,631,0,0
91,393,0,0,0,0,0,0,0,0,0,-1,1315,631,0,0
98,393,0,0,0,0,0,0,0,0,0,-1,1322,631,0,0
105,393,0,0,0,0,0,0,0,0,0,-1,1329,631,0,0
112,393,0,0,0,0,0,0,0,0,0,-1,1336,631,0,0
119,393,0,0,0,0,0,0,0,0,0,-1,1343,631,0,0
126,393,0,0,0,0,0,0,0,0,0,-1,1350,631,0,0
133,393,0,0,0,0,0,0,0,0,0,-1,1357,631,0,0
140,393,0,0,0,0,0,0,0,0,0,-1,1364,631,0,0
147,393,0,0,0,0,0,0,0,0,0,-1,1371,631,0,0
154,393,0,0,0,0,0,0,0,0,0,-1,1378,631,0,0
161,393,0,0,0,0,0,0,0,0,0,-1,1385,631,0,0
168,393,0,0,0,0,0,0,0,0,0,-1,1392,631,0,0
175,393,0,0,0,0,0,0,0,0,0,-1,1399,631,0,0
182,393,0,0,0,0,0,0,0,0,0,-1,1406,631,0,0
189,393,0,0,0,0,0,0,0,0,0,-1,1413,631,0,0
196,393,0,0,0,0,0,0,0,0,0,-1,1420,631,0,0
203,393,0,0,0,0,0,0,0,0,0,-1,1427,631,0,0
210,393,0,0,0,0,0,0,0,0,0,-1,1434,631,0,0
217,393,0,0,0,0,0,0,0,0,0,-1,1441,631,0,0
224,393,0,0,0,0,0,0,0,0,0,-1,1448,631,0,0
231,393,0,0,0,0,0,0,0,0,0,-1,1455,631,0,0
238,393,0,0,0,0,0,0,0,0,0,-1,1462,631,0,0
245,393,0,0,0,0,0,0,0,0,0,-1,1469,631,0,0
252,393,0,0,0,0,0,0,0,0,0,-1,1476,631,0,0
259,393,0,0,0,0,0,0,0,0,0,-1,1483,631,0,0
266,393,0,0,0,0,0,0,0,0,0,-1,1490,631,0,0
273,393,0,0,0,0,0,0,0,0,0,-1,1497,631,0,0
280,393,0,0,0,0,0,0,0,0,0,-1,1504,631,0,0
287,393,0,0,0,0,0,0,0,0,0,-1,1511,631,0,0
294,393,0,0,0,0,0,0,0,0,0,-1,1518,631,0,0
301,393,0,0,0,0,0,0,0,0,0,-1,1525,631,0,0
308,393,0,0,0,0,0,0,0,0,0,-1,1532,631,0,0
315,393,0,0,0,0,0,0,0,0,0,-1,1539,631,0,0
322,393,0,0,0,0,0,0,0,0,0,-1,1546,631,0,0
329,393,0,0,0,0,0,0,0,0,0,-1,1553,631,0,0
336,393,0,0,0,0,0,0,0,0,0,-1,1560,631,0,0
343,393,0,0,0,0,0,0,0,0,0,-1,1567,631,0,0
350,393,0,0,0,0,0,0,0,0,0,-1,1574,631,0,0
357,393,0,0,0,0,0,0,0,0,0,-1,1581,631,0,0
364,393,0,0,0,0,0,0,0,0,0,-1,1588,631,0,0
371,393,0,0,0,0,0,0,0,0,0,-1,1595,631,0,0
378,393,0,0,0,0,0,0,0,0,0,-1,1602,631,0,0
385,393,0,0,0,0,0,0,0,0,0,-1,1609,631,0,0
392,393,0,0,0,0,0,0,0,0,0,-1,1616,631,0,0
399,393,0,0,0,0,0,0,0,0,0,-1,1623,631,0,0
406,393,0,0,0,0,0,0,0,0,0,-1,1630,631,0,0
413,393,0,0,0,0,0,0,0,0,0,-1,1637,631,0,0
420,393,0,0,0,0,0,0,0,0,0,-1,1644,631,0,0
427,393,0,0,0,0,0,0,0,0,0,-1,1651,631,0,0
434,393,0,0,0,0,0,0,0,0,0,-1,1658,631,0,0
441,393,0,0,0,0,0,0,0,0,0,-1,1665,631,0,0
448,393,0,0,0,0,0,0,0,0,0,-1,1672,631,0,0
455,393,0,0,0,0,0,0,0,0,0,-1,1679,631,0,0
462,393,8.51099,1.89502,0,0,0,0,0,0,0,-1,1686,631,8.51103,-1.89504
469,393,9.39465,1.51703,0,0,0,0,0,0,0,-1,1693,631,9.39465,-1.51703
476,393,9.95569,1.185,0,0,0,0,0,0,0,-1,1700,631,9.95575,-1.18497
483,393,10.5267,0.887329,0,0,0,0,0,0,0,-1,1707,631,10.5267,-0.887321
490,393,10.9303,0.761414,0,0,0,0,0,0,0,-1,1714,631,10.9303,-0.761386
497,393,8.32153,1.88104,0,0,0,0,0,0,0,-1,1721,631,8.32148,-1.88103
504,393,9.46985,1.78711,0,0,0,0,0,0,0,-1,1728,631,9.46986,-1.78713
511,393,9.66565,-0.375977,0,0,0,0,0,0,0,-1,1735,631,9.66571,0.375949
518,393,7.01599,1.62482,0,0,0,0,0,0,0,-1,1742,631,7.01597,-1.62483
525,393,7.88245,-1.13422,0,0,0,0,0,0,0,-1,1749,631,7.88246,1.13423
532,393,7.06335,-1.18103,0,0,0,0,0,0,0,-1,1756,631,7.06332,1.18101
539,393,9.91626,-2.46301,0,0,0,0,0,0,0,-1,1763,631,9.91625,2.46302
546,393,16.4094,-8.04651,0,0,0,0,0,0,0,-1,1770,631,16.4094,8.04649
553,393,19.7803,-9.89032,0,0,0,0,0,0,0,-1,1777,631,19.7802,9.89029
560,393,19.9221,-9.29114,0.00573728,0.00125372,0.00188807,0.00642644,0.000564562,0.349979,0.00410905,0.0338718,1784,631,19.9221,9.29117
567,393,19.88,-8.70325,0.00433275,0.000833389,0.00132776,0.0047795,0.000386635,0.324573,0.00306559,0.0145371,1791,631,19.88,8.70327
574,393,19.8655,-8.18976,0.00326774,0.000736576,0.00103791,0.00363891,0.000365408,0.34344,0.00231377,0.0152335,1798,631,19.8654,8.18973
581,393,19.829,-7.59698,0.00239254,0.000882633,0.000919323,0.00282717,0.000448002,0.44163,0.00175461,0.0163879,1805,631,19.829,7.59696
588,393,19.8175,-6.98761,0.00168118,0.00121461,0.000928312,0.00240507,0.000490724,0.662298,0.00146742,0.0181649,1812,631,19.8175,6.9876
595,393,19.8271,-6.44476,0.0012879,0.0017021,0.00111688,0.00263092,0.000359086,0.87707,0.00164735,0.0156318,1819,631,19.8271,6.44478
602,393,19.804,-5.89374,0.00123902,0.00244507,0.00154512,0.00350066,0.00018342,0.971447,0.0022751,0.0171927,1826,631,19.804,5.89377
609,393,19.7665,-5.32715,0.00140568,0.00335951,0.0021227,0.00471931,4.58867e-05,1.00106,0.00313102,0.0157415,1833,631,19.7665,5.32718
616,393,19.7484,-4.7594,0.00184631,0.00451219,0.00287583,0.00634897,9.53395e-06,1.00241,0.00422947,0.0162948,1840,631,19.7484,4.75939
623,393,19.7811,-4.06262,0.00291086,0.00581439,0.0039608,0.0085811,0.000144149,0.961062,0.00567329,0.0318959,1847,631,19.7811,4.06262
630,393,19.8534,-3.28156,0,0,0,0,0,0,0,-1,1854,631,19.8533,3.28153
637,393,11.4626,0.608887,0,0,0,0,0,0,0,-1,1861,631,11.4627,-0.608904
644,393,8.97583,1.30585,0,0,0,0,0,0,0,-1,1868,631,8.97586,-1.30584
651,393,11.348,0.53302,0,0,0,0,0,0,0,-1,1875,631,11.348,-0.53305
658,393,9.21338,1.50836,0,0,0,0,0,0,0,-1,1882,631,9.21338,-1.50834
665,393,6.1001,2.32129,0,0,0,0,0,0,0,-1,1889,631,6.10012,-2.3213
672,393,7.14575,2.43225,0,0,0,0,0,0,0,-1,1896,631,7.14572,-2.43222
679,393,0,0,0,0,0,0,0,0,0,-1,1903,631,0,0
686,393,0,0,0,0,0,0,0,0,0,-1,1910,631,0,0
693,393,0,0,0,0,0,0,0,0,0,-1,1917,631,0,0
700,393,0,0,0,0,0,0,0,0,0,-1,1924,631,0,0
707,393,0,0,0,0,0,0,0,0,0,-1,1931,631,0,0
714,393,0,0,0,0,0,0,0,0,0,-1,1938,631,0,0
721,393,0,0,0,0,0,0,0,0,0,-1,1945,631,0,0
728,393,0,0,0,0,0,0,0,0,0,-1,1952,631,0,0
735,393,0,0,0,0,0,0,0,0,0,-1,1959,631,0,0
742,393,0,0,0,0,0,0,0,0,0,-1,1966,631,0,0
749,393,0,0,0,0,0,0,0,0,0,-1,1973,631,0,0
756,393,0,0,0,0,0,0,0,0,0,-1,1980,631,0,0
763,393,0,0,0,0,0,0,0,0,0,-1,1987,631,0,0
770,393,0,0,0,0,0,0,0,0,0,-1,1994,631,0,0
777,393,0,0,0,0,0,0,0,0,0,-1,2001,631,0,0
784,393,0,0,0,0,0,0,0,0,0,-1,2008,631,0,0
791,393,0,0,0,0,0,0,0,0,0,-1,2015,631,0,0
798,393,0,0,0,0,0,0,0,0,0,-1,2022,631,0,0
805,393,0,0,0,0,0,0,0,0,0,-1,2029,631,0,0
812,393,0,0,0,0,0,0,0,0,0,-1,2036,631,0,0
-700,386,0,0,0,0,0,0,0,0,0,-1,524,638,0,0
-693,386,0,0,0,0,0,0,0,0,0,-1,531,638,0,0
-686,386,0,0,0,0,0,0,0,0,0,-1,538,638,0,0
-679,386,0,0,0,0,0,0,0,0,0,-1,545,638,0,0
-672,386,0,0,0,0,0,0,0,0,0,-1,552,638,0,0
-665,386,0,0,0,0,0,0,0,0,0,-1,559,638,0,0
-658,386,0,0,0,0,0,0,0,0,0,-1,566,638,0,0
-651,386,0,0,0,0,0,0,0,0,0,-1,573,638,0,0
-644,386,0,0,0,0,0,0,0,0,0,-1,580,638,0,0
-637,386,0,0,0,0,0,0,0,0,0,-1,587,638,0,0
-630,386,0,0,0,0,0,0,0,0,0,-1,594,638,0,0
-623,386,0,0,0,0,0,0,0,0,0,-1,601,638,0,0
-616,386,0,0,0,0,0,0,0,0,0,-1,608,638,0,0
-609,386,0,0,0,0,0,0,0,0,0,-1,615,638,0,0
-602,386,0,0,0,0,0,0,0,0,0,-1,622,638,0,0
-595,386,0,0,0,0,0,0,0,0,0,-1,629,638,0,0
-588,386,0,0,0,0,0,0,0,0,0,-1,636,638,0,0
-581,386,0,0,0,0,0,0,0,0,0,-1,643,638,0,0
-574,386,0,0,0,0,0,0,0,0,0,-1,650,638,0,0
-567,386,0,0,0,0,0,0,0,0,0,-1,657,638,0,0
-560,386,-3.97229,-5.13898,0,0,0,0,0,0,0,-1,664,638,-3.97232,5.13897
-553,386,-4.94244,-5.54309,0,0,0,0,0,0,0,-1,671,638,-4.94242,5.5431
-546,386,-1.78668,1.72827,0,0,0,0,0,0,0,-1,678,638,-1.78668,-1.72829
-539,386,-0.879456,-2.90009,0,0,0,0,0,0,0,-1,685,638,-0.879442,2.90008
-532,386,-5.4884,1.73328,0,0,0,0,0,0,0,-1,692,638,-5.4884,-1.73325
-525,386,-6.64148,-1.50604,0,0,0,0,0,0,0,-1,699,638,-6.64149,1.50603
-518,386,-7.68927,-2.40173,0,0,0,0,0,0,0,-1,706,638,-7.68929,2.4017
-511,386,-10.3862,-3.69092,0,0,0,0,0,0,0,-1,713,638,-10.3861,3.6909
-504,386,-10.7186,-5.02545,0,0,0,0,0,0,0,-1,720,638,-10.7186,5.02547
-497,386,-10.6865,-5.92212,0.000659682,-0.000262048,-0.000629593,0.000979063,-0.000581429,-0.469456,0.000910648,0.0184708,727,638,-10.6865,5.9221
-490,386,-10.655,-6.53717,0.00031675,-0.000337111,-0.000302483,0.000435218,-0.000455579,-0.373288,0.000514346,0.0133633,734,638,-10.655,6.53719
-483,386,-10.6344,-7.10962,0.000463331,4.38623e-05,-0.000517164,0.000811671,-0.000304478,-0.592759,0.000666217,0.0168113,741,638,-10.6344,7.10965
-476,386,-10.6382,-7.62628,0.000710944,0.000321575,-0.00071222,0.00125461,-0.00022209,-0.651983,0.000919421,0.0153522,748,638,-10.6383,7.62626
-469,386,-10.6926,-8.13831,0.00101366,0.000537728,-0.00086113,0.0016691,-0.000117712,-0.650593,0.00115397,0.0111609,755,638,-10.6926,8.13831
-462,386,-10.7133,-8.70074,0.00128539,0.000535341,-0.000890742,0.00187684,-5.6104e-05,-0.586148,0.00127034,0.0104775,762,638,-10.7133,8.70077
-455,386,-10.7081,-9.22351,0.00151013,0.000334908,-0.000837055,0.00194524,-0.000100195,-0.479364,0.00133148,0.0124301,769,638,-10.7081,9.22353
-448,386,-10.7272,-9.75696,0.00168102,1.11285e-05,-0.000631724,0.00189307,-0.000200927,-0.323858,0.00133408,0.0128685,776,638,-10.7272,9.75698
-441,386,-10.7554,-10.2809,0.00174096,-0.000423516,-0.000304716,0.00178304,-0.000465596,-0.137228,0.00137051,0.0137172,783,638,-10.7553,10.281
-434,386,-10.7343,-10.8621,0.00170125,-0.00109383,0.000149026,0.00170917,-0.00110175,0.0531167,0.00163547,0.036565,790,638,-10.7343,10.8621
-427,386,-10.6259,-11.5632,0,0,0,0,0,0,0,-1,797,638,-10.6259,11.5632
-420,386,-10.812,-11.8949,0,0,0,0,0,0,0,-1,804,638,-10.812,11.8949
-413,386,-5.45691,-5.35785,0,0,0,0,0,0,0,-1,811,638,-5.45691,5.35783
-406,386,-4.51135,-4.10999,0,0,0,0,0,0,0,-1,818,638,-4.51135,4.10996
-399,386,-3.57117,-3.42126,0,0,0,0,0,0,0,-1,825,638,-3.57116,3.42129
-392,386,-4.00977,0.403625,0,0,0,0,0,0,0,-1,832,638,-4.0098,-0.403616
-385,386,-3.2406,-0.118469,0,0,0,0,0,0,0,-1,839,638,-3.24058,0.118485
-378,386,-2.55243,-1.22748,0,0,0,0,0,0,0,-1,846,638,-2.55243,1.22748
-371,386,-7.95807,-0.330261,0,0,0,0,0,0,0,-1,853,638,-7.95806,0.330284
-364,386,-8.90637,-0.665955,0,0,0,0,0,0,0,-1,860,638,-8.90635,0.665951
-357,386,-9.10364,-0.388733,0,0,0,0,0,0,0,-1,867,638,-9.10364,0.388744
-350,386,0,0,0,0,0,0,0,0,0,-1,874,638,0,0
-343,386,0,0,0,0,0,0,0,0,0,-1,881,638,0,0
-336,386,0,0,0,0,0,0,0,0,0,-1,888,638,0,0
-329,386,0,0,0,0,0,0,0,0,0,-1,895,638,0,0
-322,386,0,0,0,0,0,0,0,0,0,-1,902,638,0,0
-315,386,0,0,0,0,0,0,0,0,0,-1,909,638,0,0
-308,386,0,0,0,0,0,0,0,0,0,-1,916,638,0,0
-301,386,0,0,0,0,0,0,0,0,0,-1,923,638,0,0
-294,386,0,0,0,0,0,0,0,0,0,-1,930,638,0,0
-287,386,0,0,0,0,0,0,0,0,0,-1,937,638,0,0
-280,386,0,0,0,0,0,0,0,0,0,-1,944,638,0,0
-273,386,0,0,0,0,0,0,0,0,0,-1,951,638,0,0
-266,386,0,0,0,0,0,0,0,0,0,-1,958,638,0,0
-259,386,0,0,0,0,0,0,0,0,0,-1,965,638,0,0
-252,386,0,0,0,0,0,0,0,0,0,-1,972,638,0,0
-245,386,0,0,0,0,0,0,0,0,0,-1,979,638,0,0
-238,386,0,0,0,0,0,0,0,0,0,-1,986,638,0,0
-231,386,0,0,0,0,0,0,0,0,0,-1,993,638,0,0
-224,386,0,0,0,0,0,0,0,0,0,-1,1000,638,0,0
-217,386,0,0,0,0,0,0,0,0,0,-1,1007,638,0,0
-210,386,0,0,0,0,0,0,0,0,0,-1,1014,638,0,0
-203,386,0,0,0,0,0,0,0,0,0,-1,1021,638,0,0
-196,386,0,0,0,0,0,0,0,0,0,-1,1028,638,0,0
-189,386,0,0,0,0,0,0,0,0,0,-1,1035,638,0,0
-182,386,0,0,0,0,0,0,0,0,0,-1,1042,638,0,0
-175,386,0,0,0,0,0,0,0,0,0,-1,1049,638,0,0
-168,386,0,0,0,0,0,0,0,0,0,-1,1056,638,0,0
-161,386,0,0,0,0,0,0,0,0,0,-1,1063,638,0,0
-154,386,0,0,0,0,0,0,0,0,0,-1,1070,638,0,0
-147,386,0,0,0,0,0,0,0,0,0,-1,1077,638,0,0
-140,386,0,0,0,0,0,0,0,0,0,-1,1084,638,0,0
-133,386,0,0,0,0,0,0,0,0,0,-1,1091,638,0,0
-126,386,0,0,0,0,0,0,0,0,0,-1,1098,638,0,0
-119,386,0,0,0,0,0,0,0,0,0,-1,1105,638,0,0
-112,386,0,0,0,0,0,0,0,0,0,-1,1112,638,0,0
-105,386,0,0,0,0,0,0,0,0,0,-1,1119,638,0,0
-98,386,0,0,0,0,0,0,0,0,0,-1,1126,638,0,0
-91,386,0,0,0,0,0,0,0,0,0,-1,1133,638,0,0
-84,386,0,0,0,0,0,0,0,0,0,-1,1140,638,0,0
-77,386,0,0,0,0,0,0,0,0,0,-1,1147,638,0,0
-70,386,0,0,0,0,0,0,0,0,0,-1,1154,638,0,0
-63,386,0,0,0,0,0,0,0,0,0,-1,1161,638,0,0
-56,386,0,0,0,0,0,0,0,0,0,-1,1168,638,0,0
-49,386,0,0,0,0,0,0,0,0,0,-1,1175,638,0,0
-42,386,0,0,0,0,0,0,0,0,0,-1,1182,638,0,0
-35,386,0,0,0,0,0,0,0,0,0,-1,1189,638,0,0
-28,386,0,0,0,0,0,0,0,0,0,-1,1196,638,0,0
-21,386,0,0,0,0,0,0,0,0,0,-1,1203,638,0,0
-14,386,0,0,0,0,0,0,0,0,0,-1,1210,638,0,0
-7,386,0,0,0,0,0,0,0,0,0,-1,1217,638,0,0
0,386,0,0,0,0,0,0,0,0,0,-1,1224,638,0,0
7,386,0,0,0,0,0,0,0,0,0,-1,1231,638,0,0
14,386,0,0,0,0,0,0,0,0,0,-1,1238,638,0,0
21,386,0,0,0,0,0,0,0,0,0,-1,1245,638,0,0
28,386,0,0,0,0,0,0,0,0,0,-1,1252,638,0,0
35,386,0,0,0,0,0,0,0,0,0,-1,1259,638,0,0
42,386,0,0,0,0,0,0,0,0,0,-1,1266,638,0,0
49,386,0,0,0,0,0,0,0,0,0,-1,1273,638,0,0
56,386,0,0,0,0,0,0,0,0,0,-1,1280,638,0,0
63,386,0,0,0,0,0,0,0,0,0,-1,1287,638,0,0
70,386,0,0,0,0,0,0,0,0,0,-1,1294,638,0,0
77,386,0,0,0,0,0,0,0,0,0,-1,1301,638,0,0
84,386,0,0,0,0,0,0,0,0,0,-1,1308,638,0,0
91,386,0,0,0,0,0,0,0,0,0,-1,1315,638,0,0
98,386,0,0,0,0,0,0,0,0,0,-1,1322,638,0,0
105,386,0,0,0,0,0,0,0,0,0,-1,1329,638,0,0
112,386,0,0,0,0,0,0,0,0,0,-1,1336,638,0,0
119,386,0,0,0,0,0,0,0,0,0,-1,1343,638,0,0
126,386,0,0,0,0,0,0,0,0,0,-1,1350,638,0,0
133,386,0,0,0,0,0,0,0,0,0,-1,1357,638,0,0
140,386,0,0,0,0,0,0,0,0,0,-1,1364,638,0,0
147,386,0,0,0,0,0,0,0,0,0,-1,1371,638,0,0
154,386,0,0,0,0,0,0,0,0,0,-1,1378,638,0,0
161,386,0,0,0,0,0,0,0,0,0,-1,1385,638,0,0
168,386,0,0,0,0,0,0,0,0,0,-1,1392,638,0,0
175,386,0,0,0,0,0,0,0,0,0,-1,1399,638,0,0
182,386,0,0,0,0,0,0,0,0,0,-1,1406,638,0,0
189,386,0,0,0,0,0,0,0,0,0,-1,1413,638,0,0
196,386,0,0,0,0,0,0,0,0,0,-1,1420,638,0,0
203,386,0,0,0,0,0,0,0,0,0,-1,1427,638,0,0
210,386,0,0,0,0,0,0,0,0,0,-1,1434,638,0,0
217,386,0,0,0,0,0,0,0,0,0,-1,1441,638,0,0
224,386,0,0,0,0,0,0,0,0,0,-1,1448,638,0,0
231,386,0,0,0,0,0,0,0,0,0,-1,1455,638,0,0
238,386,0,0,0,0,0,0,0,0,0,-1,1462,638,0,0
245,386,0,0,0,0,0,0,0,0,0,-1,1469,638,0,0
252,386,0,0,0,0,0,0,0,0,0,-1,1476,638,0,0
259,386,0,0,0,0,0,0,0,0,0,-1,1483,638,0,0
266,386,0,0,0,0,0,0,0,0,0,-1,1490,638,0,0
273,386,0,0,0,0,0,0,0,0,0,-1,1497,638,0,0
280,386,0,0,0,0,0,0,0,0,0,-1,1504,638,0,0
287,386,0,0,0,0,0,0,0,0,0,-1,1511,638,0,0
294,386,0,0,0,0,0,0,0,0,0,-1,1518,638,0,0
301,386,0,0,0,0,0,0,0,0,0,-1,1525,638,0,0
308,386,0,0,0,0,0,0,0,0,0,-1,1532,638,0,0
315,386,0,0,0,0,0,0,0,0,0,-1,1539,638,0,0
322,386,0,0,0,0,0,0,0,0,0,-1,1546,638,0,0
329,386,0,0,0,0,0,0,0,0,0,-1,1553,638,0,0
336,386,0,0,0,0,0,0,0,0,0,-1,1560,638,0,0
343,386,0,0,0,0,0,0,0,0,0,-1,1567,638,0,0
350,386,0,0,0,0,0,0,0,0,0,-1,1574,638,0,0
357,386,0,0,0,0,0,0,0,0,0,-1,1581,638,0,0
364,386,0,0,0,0,0,0,0,0,0,-1,1588,638,0,0
371,386,0,0,0,0,0,0,0,0,0,-1,1595,638,0,0
378,386,0,0,0,0,0,0,0,0,0,-1,1602,638,0,0
385,386,0,0,0,0,0,0,0,0,0,-1,1609,638,0,0
392,386,0,0,0,0,0,0,0,0,0,-1,1616,638,0,0
399,386,0,0,0,0,0,0,0,0,0,-1,1623,638,0,0
406,386,0,0,0,0,0,0,0,0,0,-1,1630,638,0,0
413,386,0,0,0,0,0,0,0,0,0,-1,1637,638,0,0
420,386,0,0,0,0,0,0,0,0,0,-1,1644,638,0,0
427,386,0,0,0,0,0,0,0,0,0,-1,1651,638,0,0
434,386,0,0,0,0,0,0,0,0,0,-1,1658,638,0,0
441,386,0,0,0,0,0,0,0,0,0,-1,1665,638,0,0
448,386,0,0,0,0,0,0,0,0,0,-1,1672,638,0,0
455,386,0,0,0,0,0,0,0,0,0,-1,1679,638,0,0
462,386,0,0,0,0,0,0,0,0,0,-1,1686,638,0,0
469,386,9.84692,1.55804,0,0,0,0,0,0,0,-1,1693,638,9.84691,-1.55807
476,386,10.6145,0.986511,0,0,0,0,0,0,0,-1,1700,638,10.6145,-0.986529
483,386,11.4113,0.732971,0,0,0,0,0,0,0,-1,1707,638,11.4112,-0.732958
490,386,7.79785,1.79572,0,0,0,0,0,0,0,-1,1714,638,7.79788,-1.7957
497,386,8.96362,1.77081,0,0,0,0,0,0,0,-1,1721,638,8.96357,-1.77081
504,386,10.0555,1.69427,0,0,0,0,0,0,0,-1,1728,638,10.0555,-1.69426
511,386,11.2172,1.534,0,0,0,0,0,0,0,-1,1735,638,11.2172,-1.53398
518,386,7.41553,1.75238,0,0,0,0,0,0,0,-1,1742,638,7.41547,-1.75238
525,386,8.82422,-1.1449,0,0,0,0,0,0,0,-1,1749,638,8.82426,1.14492
532,386,10.6432,0.617371,0,0,0,0,0,0,0,-1,1756,638,10.6432,-0.617359
539,386,9.62061,-0.393616,0,0,0,0,0,0,0,-1,1763,638,9.62059,0.393634
546,386,10.7963,-2.854,0,0,0,0,0,0,0,-1,1770,638,10.7962,2.854
553,386,16.9939,-7.27942,0,0,0,0,0,0,0,-1,1777,638,16.9939,7.27944
560,386,20.3628,-9.50488,0,0,0,0,0,0,0,-1,1784,638,20.3628,9.50487
567,386,20.3564,-8.67181,0.00522726,0.000773609,0.0014699,0.00566864,0.000332225,0.291716,0.00367337,0.0275452,1791,638,20.3565,8.67181
574,386,20.4281,-8.1062,0.00393258,0.000607269,0.00106743,0.00424574,0.000294111,0.285367,0.00273773,0.0149882,1798,638,20.4281,8.10623
581,386,20.3866,-7.56274,0.00288834,0.00071325,0.000866216,0.00319115,0.000410441,0.336298,0.00200467,0.0149019,1805,638,20.3866,7.56272
588,386,20.3903,-7.00342,0.00208457,0.000970826,0.000813841,0.00251383,0.000541573,0.485359,0.0015277,0.0130234,1812,638,20.3902,7.00339
595,386,20.375,-6.44165,0.00163733,0.00137498,0.000939135,0.00245441,0.000557905,0.716009,0.00148564,0.0140998,1819,638,20.375,6.44163
602,386,20.3407,-5.89063,0.00156066,0.00201359,0.00130818,0.00311477,0.000459486,0.871105,0.00194156,0.0156821,1826,638,20.3407,5.89065
609,386,20.3315,-5.33667,0.00168768,0.00279036,0.00180531,0.00412664,0.000351397,0.933599,0.00264176,0.0152521,1833,638,20.3316,5.33669
616,386,20.3143,-4.75183,0.00207381,0.00376075,0.00243859,0.00549762,0.000336932,0.9519,0.00355809,0.0126639,1840,638,20.3143,4.75185
623,386,20.2966,-4.16357,0.00293373,0.0048016,0.00330116,0.0072984,0.000436936,0.923251,0.00472669,0.0108408,1847,638,20.2967,4.16355
630,386,20.3967,-3.56055,0.00403271,0.00593937,0.00424536,0.00933713,0.000634953,0.895845,0.00602426,0.0347544,1854,638,20.3967,3.56056
637,386,20.568,-2.94403,0,0,0,0,0,0,0,-1,1861,638,20.5679,2.94403
644,386,11.6521,0.723328,0,0,0,0,0,0,0,-1,1868,638,11.6521,-0.723355
651,386,9.3866,1.31097,0,0,0,0,0,0,0,-1,1875,638,9.3866,-1.31095
658,386,12.0731,-0.00415039,0,0,0,0,0,0,0,-1,1882,638,12.0731,0.00412803
665,386,6.33167,1.78601,0,0,0,0,0,0,0,-1,1889,638,6.33171,-1.78601
672,386,7.23352,2.14435,0,0,0,0,0,0,0,-1,1896,638,7.23353,-2.14433
679,386,8.07764,2.57104,0,0,0,0,0,0,0,-1,1903,638,8.07758,-2.57103
686,386,0,0,0,0,0,0,0,0,0,-1,1910,638,0,0
693,386,0,0,0,0,0,0,0,0,0,-1,1917,638,0,0
700,386,0,0,0,0,0,0,0,0,0,-1,1924,638,0,0
707,386,0,0,0,0,0,0,0,0,0,-1,1931,638,0,0
714,386,0,0,0,0,0,0,0,0,0,-1,1938,638,0,0
721,386,0,0,0,0,0,0,0,0,0,-1,1945,638,0,0
728,386,0,0,0,0,0,0,0,0,0,-1,1952,638,0,0
735,386,0,0,0,0,0,0,0,0,0,-1,1959,638,0,0
742,386,0,0,0,0,0,0,0,0,0,-1,1966,638,0,0
749,386,0,0,0,0,0,0,0,0,0,-1,1973,638,0,0
756,386,0,0,0,0,0,0,0,0,0,-1,1980,638,0,0
763,386,0,0,0,0,0,0,0,0,0,-1,1987,638,0,0
770,386,0,0,0,0,0,0,0,0,0,-1,1994,638,0,0
777,386,0,0,0,0,0,0,0,0,0,-1,2001,638,0,0
784,386,0,0,0,0,0,0,0,0,0,-1,2008,638,0,0
791,386,0,0,0,0,0,0,0,0,0,-1,2015,638,0,0
798,386,0,0,0,0,0,0,0,0,0,-1,2022,638,0,0
805,386,0,0,0,0,0,0,0,0,0,-1,2029,638,0,0
812,386,0,0,0,0,0,0,0,0,0,-1,2036,638,0,0
-700,379,0,0,0,0,0,0,0,0,0,-1,524,645,0,0
-693,379,0,0,0,0,0,0,0,0,0,-1,531,645,0,0
-686,379,0,0,0,0,0,0,0,0,0,-1,538,645,0,0
-679,379,0,0,0,0,0,0,0,0,0,-1,545,645,0,0
-672,379,0,0,0,0,0,0,0,0,0,-1,552,645,0,0
-665,379,0,0,0,0,0,0,0,0,0,-1,559,645,0,0
-658,379,0,0,0,0,0,0,0,0,0,-1,566,645,0,0
-651,379,0,0,0,0,0,0,0,0,0,-1,573,645,0,0
-644,379,0,0,0,0,0,0,0,0,0,-1,580,645,0,0
-637,379,0,0,0,0,0,0,0,0,0,-1,587,645,0,0
-630,379,0,0,0,0,0,0,0,0,0,-1,594,645,0,0
-623,379,0,0,0,0,0,0,0,0,0,-1,601,645,0,0
-616,379,0,0,0,0,0,0,0,0,0,-1,608,645,0,0
-609,379,0,0,0,0,0,0,0,0,0,-1,615,645,0,0
-602,379,0,0,0,0,0,0,0,0,0,-1,622,645,0,0
-595,379,0,0,0,0,0,0,0,0,0,-1,629,645,0,0
-588,379,0,0,0,0,0,0,0,0,0,-1,636,645,0,0
-581,379,0,0,0,0,0,0,0,0,0,-1,643,645,0,0
-574,379,0,0,0,0,0,0,0,0,0,-1,650,645,0,0
-567,379,-8.78058,0.59668,0,0,0,0,0,0,0,-1,657,645,-8.7806,-0.596692
-560,379,-9.53485,-0.211304,0,0,0,0,0,0,0,-1,664,645,-9.53487,0.211282
-553,379,-5.17108,-4.53119,0,0,0,0,0,0,0,-1,671,645,-5.17106,4.53117
-546,379,-6.23053,-4.92102,0,0,0,0,0,0,0,-1,678,645,-6.23054,4.92105
-539,379,-0.71698,-2.19427,0,0,0,0,0,0,0,-1,685,645,-0.716959,2.19427
-532,379,-7.69611,0.217224,0,0,0,0,0,0,0,-1,692,645,-7.69614,-0.217204
-525,379,-7.09833,-1.13043,0,0,0,0,0,0,0,-1,699,645,-7.0983,1.13041
-518,379,-10.5613,-3.82849,0,0,0,0,0,0,0,-1,706,645,-10.5613,3.82849
-511,379,-11.1503,-4.84229,0,0,0,0,0,0,0,-1,713,645,-11.1502,4.8423
-504,379,-11.0981,-5.44904,0.00141922,-0.000385223,-0.000714273,0.00166774,-0.000633735,-0.334824,0.00137273,0.0268763,720,645,-11.0981,5.44901
-497,379,-11.1581,-5.94092,0.000896769,-0.000468846,-0.00033115,0.000972833,-0.00054491,-0.225781,0.000887803,0.0142586,727,645,-11.1582,5.94094
-490,379,-11.1728,-6.50696,0.000516822,-0.000646996,4.0237e-05,0.000518212,-0.000648385,0.0345183,0.000674931,0.0117039,734,645,-11.1728,6.50695
-483,379,-11.1761,-7.05908,0.000722958,-0.000200387,-0.000256136,0.000789251,-0.00026668,-0.253261,0.000634039,0.0128322,741,645,-11.1761,7.05909
-476,379,-11.1783,-7.56616,0.00103114,0.000170666,-0.000554967,0.00130311,-0.000101302,-0.455666,0.000904399,0.012725,748,645,-11.1783,7.56615
-469,379,-11.2174,-8.09247,0.00138901,0.000508556,-0.000821999,0.00188124,1.63217e-05,-0.539556,0.00124876,0.01179,755,645,-11.2174,8.09245
-462,379,-11.25,-8.65271,0.00172713,0.00065457,-0.000994313,0.00232057,6.11362e-05,-0.538083,0.00152707,0.00873991,762,645,-11.25,8.65274
-455,379,-11.2621,-9.17993,0.00203833,0.000608444,-0.00109736,0.00263311,1.36731e-05,-0.49668,0.00175086,0.00915002,769,645,-11.2622,9.17994
-448,379,-11.2551,-9.6908,0.00230188,0.000446765,-0.00105846,0.00278169,-3.30515e-05,-0.425608,0.00186558,0.0115043,776,645,-11.2551,9.69079
-441,379,-11.2601,-10.2792,0.00247758,0.000187232,-0.000938026,0.00281271,-0.000147904,-0.343143,0.00192634,0.0231393,783,645,-11.2602,10.2791
-434,379,-11.1212,-10.9747,0,0,0,0,0,0,0,-1,790,645,-11.1212,10.9747
-427,379,-4.16113,-4.13452,0,0,0,0,0,0,0,-1,797,645,-4.16116,4.1345
-420,379,-4.63953,-3.46869,0,0,0,0,0,0,0,-1,804,645,-4.63953,3.46872
-413,379,-4.62543,-3.7912,0,0,0,0,0,0,0,-1,811,645,-4.62541,3.79123
-406,379,-4.64063,-4.38489,0,0,0,0,0,0,0,-1,818,645,-4.64065,4.3849
-399,379,-2.93536,-1.40118,0,0,0,0,0,0,0,-1,825,645,-2.93534,1.40119
-392,379,-4.16711,-0.466003,0,0,0,0,0,0,0,-1,832,645,-4.16714,0.465992
-385,379,-3.51862,0.441101,0,0,0,0,0,0,0,-1,839,645,-3.51859,-0.441072
-378,379,-5.3504,0.212219,0,0,0,0,0,0,0,-1,846,645,-5.35038,-0.212241
-371,379,-4.32092,-0.186707,0,0,0,0,0,0,0,-1,853,645,-4.3209,0.186707
-364,379,-3.40887,-0.549805,0,0,0,0,0,0,0,-1,860,645,-3.4089,0.549802
-357,379,0,0,0,0,0,0,0,0,0,-1,867,645,0,0
-350,379,0,0,0,0,0,0,0,0,0,-1,874,645,0,0
-343,379,0,0,0,0,0,0,0,0,0,-1,881,645,0,0
-336,379,0,0,0,0,0,0,0,0,0,-1,888,645,0,0
-329,379,0,0,0,0,0,0,0,0,0,-1,895,645,0,0
-322,379,0,0,0,0,0,0,0,0,0,-1,902,645,0,0
-315,379,0,0,0,0,0,0,0,0,0,-1,909,645,0,0
-308,379,0,0,0,0,0,0,0,0,0,-1,916,645,0,0
-301,379,0,0,0,0,0,0,0,0,0,-1,923,645,0,0
-294,379,0,0,0,0,0,0,0,0,0,-1,930,645,0,0
-287,379,0,0,0,0,0,0,0,0,0,-1,937,645,0,0
-280,379,0,0,0,0,0,0,0,0,0,-1,944,645,0,0
-273,379,0,0,0,0,0,0,0,0,0,-1,951,645,0,0
-266,379,0,0,0,0,0,0,0,0,0,-1,958,645,0,0
-259,379,0,0,0,0,0,0,0,0,0,-1,965,645,0,0
-252,379,0,0,0,0,0,0,0,0,0,-1,972,645,0,0
-245,379,0,0,0,0,0,0,0,0,0,-1,979,645,0,0
-238,379,0,0,0,0,0,0,0,0,0,-1,986,645,0,0
-231,379,0,0,0,0,0,0,0,0,0,-1,993,645,0,0
-224,379,0,0,0,0,0,0,0,0,0,-1,1000,645,0,0
-217,379,0,0,0,0,0,0,0,0,0,-1,1007,645,0,0
-210,379,0,0,0,0,0,0,0,0,0,-1,1014,645,0,0
-203,379,0,0,0,0,0,0,0,0,0,-1,1021,645,0,0
-196,379,0,0,0,0,0,0,0,0,0,-1,1028,645,0,0
-189,379,0,0,0,0,0,0,0,0,0,-1,1035,645,0,0
-182,379,0,0,0,0,0,0,0,0,0,-1,1042,645,0,0
-175,379,0,0,0,0,0,0,0,0,0,-1,1049,645,0,0
-168,379,0,0,0,0,0,0,0,0,0,-1,1056,645,0,0
-161,379,0,0,0,0,0,0,0,0,0,-1,1063,645,0,0
-154,379,0,0,0,0,0,0,0,0,0,-1,1070,645,0,0
-147,379,0,0,0,0,0,0,0,0,0,-1,1077,645,0,0
-140,379,0,0,0,0,0,0,0,0,0,-1,1084,645,0,0
-133,379,0,0,0,0,0,0,0,0,0,-1,1091,645,0,0
-126,379,0,0,0,0,0,0,0,0,0,-1,1098,645,0,0
-119,379,0,0,0,0,0,0,0,0,0,-1,1105,645,0,0
-112,379,0,0,0,0,0,0,0,0,0,-1,1112,645,0,0
-105,379,0,0,0,0,0,0,0,0,0,-1,1119,645,0,0
-98,379,0,0,0,0,0,0,0,0,0,-1,1126,645,0,0
-91,379,0,0,0,0,0,0,0,0,0,-1,1133,645,0,0
-84,379,0,0,0,0,0,0,0,0,0,-1,1140,645,0,0
-77,379,0,0,0,0,0,0,0,0,0,-1,1147,645,0,0
-70,379,0,0,0,0,0,0,0,0,0,-1,1154,645,0,0
-63,379,0,0,0,0,0,0,0,0,0,-1,1161,645,0,0
-56,379,0,0,0,0,0,0,0,0,0,-1,1168,645,0,0
-49,379,0,0,0,0,0,0,0,0,0,-1,1175,645,0,0
-42,379,0,0,0,0,0,0,0,0,0,-1,1182,645,0,0
-35,379,0,0,0,0,0,0,0,0,0,-1,1189,645,0,0
-28,379,0,0,0,0,0,0,0,0,0,-1,1196,645,0,0
-21,379,0,0,0,0,0,0,0,0,0,-1,1203,645,0,0
-14,379,0,0,0,0,0,0,0,0,0,-1,1210,645,0,0
-7,379,0,0,0,0,0,0,0,0,0,-1,1217,645,0,0
0,379,0,0,0,0,0,0,0,0,0,-1,1224,645,0,0
7,379,0,0,0,0,0,0,0,0,0,-1,1231,645,0,0
14,379,0,0,0,0,0,0,0,0,0,-1,1238,645,0,0
21,379,0,0,0,0,0,0,0,0,0,-1,1245,645,0,0
28,379,0,0,0,0,0,0,0,0,0,-1,1252,645,0,0
35,379,0,0,0,0,0,0,0,0,0,-1,1259,645,0,0
42,379,0,0,0,0,0,0,0,0,0,-1,1266,645,0,0
49,379,0,0,0,0,0,0,0,0,0,-1,1273,645,0,0
56,379,0,0,0,0,0,0,0,0,0,-1,1280,645,0,0
63,379,0,0,0,0,0,0,0,0,0,-1,1287,645,0,0
70,379,0,0,0,0,0,0,0,0,0,-1,1294,645,0,0
77,379,0,0,0,0,0,0,0,0,0,-1,1301,645,0,0
84,379,0,0,0,0,0,0,0,0,0,-1,1308,645,0,0
91,379,0,0,0,0,0,0,0,0,0,-1,1315,645,0,0
98,379,0,0,0,0,0,0,0,0,0,-1,1322,645,0,0
105,379,0,0,0,0,0,0,0,0,0,-1,1329,645,0,0
112,379,0,0,0,0,0,0,0,0,0,-1,1336,645,0,0
119,379,0,0,0,0,0,0,0,0,0,-1,1343,645,0,0
126,379,0,0,0,0,0,0,0,0,0,-1,1350,645,0,0
133,379,0,0,0,0,0,0,0,0,0,-1,1357,645,0,0
140,379,0,0,0,0,0,0,0,0,0,-1,1364,645,0,0
147,379,0,0,0,0,0,0,0,0,0,-1,1371,645,0,0
154,379,0,0,0,0,0,0,0,0,0,-1,1378,645,0,0
161,379,0,0,0,0,0,0,0,0,0,-1,1385,645,0,0
168,379,0,0,0,0,0,0,0,0,0,-1,1392,645,0,0
175,379,0,0,0,0,0,0,0,0,0,-1,1399,645,0,0
182,379,0,0,0,0,0,0,0,0,0,-1,1406,645,0,0
189,379,0,0,0,0,0,0,0,0,0,-1,1413,645,0,0
196,379,0,0,0,0,0,0,0,0,0,-1,1420,645,0,0
203,379,0,0,0,0,0,0,0,0,0,-1,1427,645,0,0
210,379,0,0,0,0,0,0,0,0,0,-1,1434,645,0,0
217,379,0,0,0,0,0,0,0,0,0,-1,1441,645,0,0
224,379,0,0,0,0,0,0,0,0,0,-1,1448,645,0,0
231,379,0,0,0,0,0,0,0,0,0,-1,1455,645,0,0
238,379,0,0,0,0,0,0,0,0,0,-1,1462,645,0,0
245,379,0,0,0,0,0,0,0,0,0,-1,1469,645,0,0
252,379,0,0,0,0,0,0,0,0,0,-1,1476,645,0,0
259,379,0,0,0,0,0,0,0,0,0,-1,1483,645,0,0
266,379,0,0,0,0,0,0,0,0,0,-1,1490,645,0,0
273,379,0,0,0,0,0,0,0,0,0,-1,1497,645,0,0
280,379,0,0,0,0,0,0,0,0,0,-1,1504,645,0,0
287,379,0,0,0,0,0,0,0,0,0,-1,1511,645,0,0
294,379,0,0,0,0,0,0,0,0,0,-1,1518,645,0,0
301,379,0,0,0,0,0,0,0,0,0,-1,1525,645,0,0
308,379,0,0,0,0,0,0,0,0,0,-1,1532,645,0,0
315,379,0,0,0,0,0,0,0,0,0,-1,1539,645,0,0
322,379,0,0,0,0,0,0,0,0,0,-1,1546,645,0,0
329,379,0,0,0,0,0,0,0,0,0,-1,1553,645,0,0
336,379,0,0,0,0,0,0,0,0,0,-1,1560,645,0,0
343,379,0,0,0,0,0,0,0,0,0,-1,1567,645,0,0
350,379,0,0,0,0,0,0,0,0,0,-1,1574,645,0,0
357,379,0,0,0,0,0,0,0,0,0,-1,1581,645,0,0
364,379,0,0,0,0,0,0,0,0,0,-1,1588,645,0,0
371,379,0,0,0,0,0,0,0,0,0,-1,1595,645,0,0
378,379,0,0,0,0,0,0,0,0,0,-1,1602,645,0,0
385,379,0,0,0,0,0,0,0,0,0,-1,1609,645,0,0
392,379,0,0,0,0,0,0,0,0,0,-1,1616,645,0,0
399,379,0,0,0,0,0,0,0,0,0,-1,1623,645,0,0
406,379,0,0,0,0,0,0,0,0,0,-1,1630,645,0,0
413,379,0,0,0,0,0,0,0,0,0,-1,1637,645,0,0
420,379,0,0,0,0,0,0,0,0,0,-1,1644,645,0,0
427,379,0,0,0,0,0,0,0,0,0,-1,1651,645,0,0
434,379,0,0,0,0,0,0,0,0,0,-1,1658,645,0,0
441,379,0,0,0,0,0,0,0,0,0,-1,1665,645,0,0
448,379,0,0,0,0,0,0,0,0,0,-1,1672,645,0,0
455,379,0,0,0,0,0,0,0,0,0,-1,1679,645,0,0
462,379,0,0,0,0,0,0,0,0,0,-1,1686,645,0,0
469,379,0,0,0,0,0,0,0,0,0,-1,1693,645,0,0
476,379,11.1787,0.830383,0,0,0,0,0,0,0,-1,1700,645,11.1787,-0.830365
483,379,7.4231,1.54321,0,0,0,0,0,0,0,-1,1707,645,7.42314,-1.54324
490,379,8.52881,1.56677,0,0,0,0,0,0,0,-1,1714,645,8.52878,-1.56677
497,379,9.63599,1.49573,0,0,0,0,0,0,0,-1,1721,645,9.63604,-1.4957
504,379,10.0833,1.35229,0,0,0,0,0,0,0,-1,1728,645,10.0832,-1.35227
511,379,8.14343,1.59912,0,0,0,0,0,0,0,-1,1735,645,8.14347,-1.59912
518,379,12.7955,-0.324097,0,0,0,0,0,0,0,-1,1742,645,12.7955,0.324101
525,379,6.03711,1.10352,0,0,0,0,0,0,0,-1,1749,645,6.03711,-1.10351
532,379,8.70947,0.887817,0,0,0,0,0,0,0,-1,1756,645,8.70953,-0.887808
539,379,9.87097,0.111389,0,0,0,0,0,0,0,-1,1763,645,9.87095,-0.111395
546,379,8.42383,-0.730652,0,0,0,0,0,0,0,-1,1770,645,8.42378,0.730638
553,379,19.2905,-7.67834,0,0,0,0,0,0,0,-1,1777,645,19.2905,7.67837
560,379,20.6757,-9.177,0,0,0,0,0,0,0,-1,1784,645,20.6757,9.17699
567,379,20.8198,-8.61591,0.00595915,0.000494677,0.00151692,0.006352,0.000101828,0.253411,0.00420113,0.0363555,1791,645,20.8198,8.6159
574,379,21.0092,-8.07074,0.00444041,0.000356391,0.00105707,0.0046978,9.90091e-05,0.238839,0.00309939,0.0137218,1798,645,21.0091,8.07076
581,379,20.9805,-7.51489,0.00328433,0.000501709,0.000820695,0.00350835,0.000277692,0.266469,0.00225205,0.0155662,1805,645,20.9804,7.51488
588,379,20.9486,-6.9585,0.0024451,0.000736708,0.000745504,0.00272467,0.000457138,0.358778,0.00168487,0.0170289,1812,645,20.9486,6.95853
595,379,20.9247,-6.41748,0.00197248,0.0011151,0.000830871,0.00247873,0.000608847,0.547236,0.00149155,0.0145257,1819,645,20.9247,6.4175
602,379,20.9113,-5.88837,0.00186582,0.00168457,0.00114039,0.00291918,0.000631209,0.745748,0.00177356,0.0162092,1826,645,20.9113,5.88834
609,379,20.8826,-5.34686,0.00194172,0.00234758,0.00155495,0.00371279,0.000576509,0.850284,0.00230716,0.0170846,1833,645,20.8826,5.34687
616,379,20.8643,-4.7619,0.00224259,0.00315085,0.00207026,0.00481621,0.000577238,0.893368,0.00303673,0.0133212,1840,645,20.8642,4.76189
623,379,20.8683,-4.14886,0.00282068,0.00397006,0.00272863,0.00618386,0.00060688,0.889189,0.00393591,0.0119302,1847,645,20.8683,4.14887
630,379,20.8489,-3.58801,0.00344579,0.00479868,0.00339809,0.007587,0.000657471,0.883647,0.00485371,0.0135262,1854,645,20.8489,3.58803
637,379,20.8612,-2.92749,0.00405353,0.00578487,0.00413923,0.00914798,0.000690416,0.888482,0.00588204,0.0400773,1861,645,20.8613,2.92748
644,379,21.053,-2.16449,0,0,0,0,0,0,0,-1,1868,645,21.053,2.16451
651,379,12.9515,0.220825,0,0,0,0,0,0,0,-1,1875,645,12.9515,-0.220814
658,379,13.7498,0.37439,0,0,0,0,0,0,0,-1,1882,645,13.7498,-0.374371
665,379,11.9719,0.353333,0,0,0,0,0,0,0,-1,1889,645,11.9719,-0.353321
672,379,7.57605,2.15326,0,0,0,0,0,0,0,-1,1896,645,7.57599,-2.15326
679,379,8.55078,2.50409,0,0,0,0,0,0,0,-1,1903,645,8.55073,-2.50406
686,379,0,0,0,0,0,0,0,0,0,-1,1910,645,0,0
693,379,0,0,0,0,0,0,0,0,0,-1,1917,645,0,0
700,379,0,0,0,0,0,0,0,0,0,-1,1924,645,0,0
707,379,0,0,0,0,0,0,0,0,0,-1,1931,645,0,0
714,379,0,0,0,0,0,0,0,0,0,-1,1938,645,0,0
721,379,0,0,0,0,0,0,0,0,0,-1,1945,645,0,0
728,379,0,0,0,0,0,0,0,0,0,-1,1952,645,0,0
735,379,0,0,0,0,0,0,0,0,0,-1,1959,645,0,0
742,379,0,0,0,0,0,0,0,0,0,-1,1966,645,0,0
749,379,0,0,0,0,0,0,0,0,0,-1,1973,645,0,0
756,379,0,0,0,0,0,0,0,0,0,-1,1980,645,0,0
763,379,0,0,0,0,0,0,0,0,0,-1,1987,645,0,0
770,379,0,0,0,0,0,0,0,0,0,-1,1994,645,0,0
777,379,0,0,0,0,0,0,0,0,0,-1,2001,645,0,0
784,379,0,0,0,0,0,0,0,0,0,-1,2008,645,0,0
791,379,0,0,0,0,0,0,0,0,0,-1,2015,645,0,0
798,379,0,0,0,0,0,0,0,0,0,-1,2022,645,0,0
805,379,0,0,0,0,0,0,0,0,0,-1,2029,645,0,0
812,379,0,0,0,0,0,0,0,0,0,-1,2036,645,0,0
-700,372,0,0,0,0,0,0,0,0,0,-1,524,652,0,0
-693,372,0,0,0,0,0,0,0,0,0,-1,531,652,0,0
-686,372,0,0,0,0,0,0,0,0,0,-1,538,652,0,0
-679,372,0,0,0,0,0,0,0,0,0,-1,545,652,0,0
-672,372,0,0,0,0,0,0,0,0,0,-1,552,652,0,0
-665,372,0,0,0,0,0,0,0,0,0,-1,559,652,0,0
-658,372,0,0,0,0,0,0,0,0,0,-1,566,652,0,0
-651,372,0,0,0,0,0,0,0,0,0,-1,573,652,0,0
-644,372,0,0,0,0,0,0,0,0,0,-1,580,652,0,0
-637,372,0,0,0,0,0,0,0,0,0,-1,587,652,0,0
-630,372,0,0,0,0,0,0,0,0,0,-1,594,652,0,0
-623,372,0,0,0,0,0,0,0,0,0,-1,601,652,0,0
-616,372,0,0,0,0,0,0,0,0,0,-1,608,652,0,0
-609,372,0,0,0,0,0,0,0,0,0,-1,615,652,0,0
-602,372,0,0,0,0,0,0,0,0,0,-1,622,652,0,0
-595,372,0,0,0,0,0,0,0,0,0,-1,629,652,0,0
-588,372,0,0,0,0,0,0,0,0,0,-1,636,652,0,0
-581,372,0,0,0,0,0,0,0,0,0,-1,643,652,0,0
-574,372,0,0,0,0,0,0,0,0,0,-1,650,652,0,0
-567,372,-7.93744,0.73407,0,0,0,0,0,0,0,-1,657,652,-7.93741,-0.734076
-560,372,-8.78552,-0.158203,0,0,0,0,0,0,0,-1,664,652,-8.78552,0.158216
-553,372,-7.95551,1.61694,0,0,0,0,0,0,0,-1,671,652,-7.95552,-1.61697
-546,372,-4.2403,-3.75372,0,0,0,0,0,0,0,-1,678,652,-4.24028,3.75369
-539,372,-7.92285,-0.0650024,0,0,0,0,0,0,0,-1,685,652,-7.92287,0.0649772
-532,372,-8.59589,-0.419556,0,0,0,0,0,0,0,-1,692,652,-8.59591,0.419539
-525,372,-8.03674,-1.36804,0,0,0,0,0,0,0,-1,699,652,-8.03676,1.36806
-518,372,-11.6913,-4.22827,0,0,0,0,0,0,0,-1,706,652,-11.6913,4.22825
-511,372,-11.6643,-4.89081,0.00276608,0.000428002,-0.00158188,0.00356402,-0.000369932,-0.46718,0.00250843,0.0314888,713,652,-11.6643,4.8908
-504,372,-11.6841,-5.38232,0.00173052,-0.000200667,-0.000703217,0.00195944,-0.000429596,-0.314726,0.00147056,0.0151044,720,652,-11.6841,5.38232
-497,372,-11.6545,-5.92633,0.00126346,-0.00038875,-0.000354269,0.00133622,-0.000461509,-0.202561,0.00107809,0.0119612,727,652,-11.6545,5.92633
-490,372,-11.6984,-6.45789,0.000870124,-0.000656934,1.96477e-05,0.000870376,-0.000657186,0.0128636,0.000884797,0.0128197,734,652,-11.6984,6.45792
-483,372,-11.7332,-6.99988,0.00112473,-0.000185773,-0.000322521,0.0011998,-0.000260847,-0.228698,0.000899512,0.012669,741,652,-11.7332,6.9999
-476,372,-11.7281,-7.50604,0.00146956,0.000251491,-0.000677363,0.00177143,-5.03776e-05,-0.419233,0.0011981,0.0138185,748,652,-11.7281,7.50602
-469,372,-11.7546,-8.026,0.00184593,0.000680068,-0.00100825,0.00242763,9.83627e-05,-0.523295,0.00158665,0.0114767,755,652,-11.7546,8.02599
-462,372,-11.7808,-8.59973,0.00220968,0.000966072,-0.00126707,0.00299929,0.000176458,-0.557291,0.00194338,0.00972987,762,652,-11.7807,8.59974
-455,372,-11.8081,-9.14899,0.00257073,0.00108224,-0.00147017,0.0034743,0.000178666,-0.551088,0.002259,0.010354,769,652,-11.8081,9.14902
-448,372,-11.8044,-9.67078,0.00288335,0.00110054,-0.00153998,0.0037713,0.000212579,-0.523039,0.00244642,0.0122897,776,652,-11.8044,9.67078
-441,372,-11.6289,-10.3878,0,0,0,0,0,0,0,-1,783,652,-11.6289,10.3878
-434,372,-9.86865,-9.68494,0,0,0,0,0,0,0,-1,790,652,-9.86863,9.68492
-427,372,-4.54248,-3.56268,0,0,0,0,0,0,0,-1,797,652,-4.54247,3.56266
-420,372,-4.66168,-2.93597,0,0,0,0,0,0,0,-1,804,652,-4.66166,2.93599
-413,372,-4.74762,-3.29541,0,0,0,0,0,0,0,-1,811,652,-4.74763,3.29542
-406,372,-0.885437,-0.583923,0,0,0,0,0,0,0,-1,818,652,-0.885437,0.5839
-399,372,-3.97357,-0.825012,0,0,0,0,0,0,0,-1,825,652,-3.97359,0.825037
-392,372,-7.64337,0.173035,0,0,0,0,0,0,0,-1,832,652,-7.64337,-0.173019
-385,372,-6.48871,-0.0271606,0,0,0,0,0,0,0,-1,839,652,-6.48874,0.0271353
-378,372,-5.33044,-0.242432,0,0,0,0,0,0,0,-1,846,652,-5.33042,0.242457
-371,372,-4.40802,-0.495667,0,0,0,0,0,0,0,-1,853,652,-4.40802,0.495661
-364,372,0,0,0,0,0,0,0,0,0,-1,860,652,0,0
-357,372,0,0,0,0,0,0,0,0,0,-1,867,652,0,0
-350,372,0,0,0,0,0,0,0,0,0,-1,874,652,0,0
-343,372,0,0,0,0,0,0,0,0,0,-1,881,652,0,0
-336,372,0,0,0,0,0,0,0,0,0,-1,888,652,0,0
-329,372,0,0,0,0,0,0,0,0,0,-1,895,652,0,0
-322,372,0,0,0,0,0,0,0,0,0,-1,902,652,0,0
-315,372,0,0,0,0,0,0,0,0,0,-1,909,652,0,0
-308,372,0,0,0,0,0,0,0,0,0,-1,916,652,0,0
-301,372,0,0,0,0,0,0,0,0,0,-1,923,652,0,0
-294,372,0,0,0,0,0,0,0,0,0,-1,930,652,0,0
-287,372,0,0,0,0,0,0,0,0,0,-1,937,652,0,0
-280,372,0,0,0,0,0,0,0,0,0,-1,944,652,0,0
-273,372,0,0,0,0,0,0,0,0,0,-1,951,652,0,0
-266,372,0,0,0,0,0,0,0,0,0,-1,958,652,0,0
-259,372,0,0,0,0,0,0,0,0,0,-1,965,652,0,0
-252,372,0,0,0,0,0,0,0,0,0,-1,972,652,0,0
-245,372,0,0,0,0,0,0,0,0,0,-1,979,652,0,0
-238,372,0,0,0,0,0,0,0,0,0,-1,986,652,0,0
-231,372,0,0,0,0,0,0,0,0,0,-1,993,652,0,0
-224,372,0,0,0,0,0,0,0,0,0,-1,1000,652,0,0
-217,372,0,0,0,0,0,0,0,0,0,-1,1007,652,0,0
-210,372,0,0,0,0,0,0,0,0,0,-1,1014,652,0,0
-203,372,0,0,0,0,0,0,0,0,0,-1,1021,652,0,0
-196,372,0,0,0,0,0,0,0,0,0,-1,1028,652,0,0
-189,372,0,0,0,0,0,0,0,0,0,-1,1035,652,0,0
-182,372,0,0,0,0,0,0,0,0,0,-1,1042,652,0,0
-175,372,0,0,0,0,0,0,0,0,0,-1,1049,652,0,0
-168,372,0,0,0,0,0,0,0,0,0,-1,1056,652,0,0
-161,372,0,0,0,0,0,0,0,0,0,-1,1063,652,0,0
-154,372,0,0,0,0,0,0,0,0,0,-1,1070,652,0,0
-147,372,0,0,0,0,0,0,0,0,0,-1,1077,652,0,0
-140,372,0,0,0,0,0,0,0,0,0,-1,1084,652,0,0
-133,372,0,0,0,0,0,0,0,0,0,-1,1091,652,0,0
-126,372,0,0,0,0,0,0,0,0,0,-1,1098,652,0,0
-119,372,0,0,0,0,0,0,0,0,0,-1,1105,652,0,0
-112,372,0,0,0,0,0,0,0,0,0,-1,1112,652,0,0
-105,372,0,0,0,0,0,0,0,0,0,-1,1119,652,0,0
-98,372,0,0,0,0,0,0,0,0,0,-1,1126,652,0,0
-91,372,0,0,0,0,0,0,0,0,0,-1,1133,652,0,0
-84,372,0,0,0,0,0,0,0,0,0,-1,1140,652,0,0
-77,372,0,0,0,0,0,0,0,0,0,-1,1147,652,0,0
-70,372,0,0,0,0,0,0,0,0,0,-1,1154,652,0,0
-63,372,0,0,0,0,0,0,0,0,0,-1,1161,652,0,0
-56,372,0,0,0,0,0,0,0,0,0,-1,1168,652,0,0
-49,372,0,0,0,0,0,0,0,0,0,-1,1175,652,0,0
-42,372,0,0,0,0,0,0,0,0,0,-1,1182,652,0,0
-35,372,0,0,0,0,0,0,0,0,0,-1,1189,652,0,0
-28,372,0,0,0,0,0,0,0,0,0,-1,1196,652,0,0
-21,372,0,0,0,0,0,0,0,0,0,-1,1203,652,0,0
-14,372,0,0,0,0,0,0,0,0,0,-1,1210,652,0,0
-7,372,0,0,0,0,0,0,0,0,0,-1,1217,652,0,0
0,372,0,0,0,0,0,0,0,0,0,-1,1224,652,0,0
7,372,0,0,0,0,0,0,0,0,0,-1,1231,652,0,0
14,372,0,0,0,0,0,0,0,0,0,-1,1238,652,0,0
21,372,0,0,0,0,0,0,0,0,0,-1,1245,652,0,0
28,372,0,0,0,0,0,0,0,0,0,-1,1252,652,0,0
35,372,0,0,0,0,0,0,0,0,0,-1,1259,652,0,0
42,372,0,0,0,0,0,0,0,0,0,-1,1266,652,0,0
49,372,0,0,0,0,0,0,0,0,0,-1,1273,652,0,0
56,372,0,0,0,0,0,0,0,0,0,-1,1280,652,0,0
63,372,0,0,0,0,0,0,0,0,0,-1,1287,652,0,0
70,372,0,0,0,0,0,0,0,0,0,-1,1294,652,0,0
77,372,0,0,0,0,0,0,0,0,0,-1,1301,652,0,0
84,372,0,0,0,0,0,0,0,0,0,-1,1308,652,0,0
91,372,0,0,0,0,0,0,0,0,0,-1,1315,652,0,0
98,372,0,0,0,0,0,0,0,0,0,-1,1322,652,0,0
105,372,0,0,0,0,0,0,0,0,0,-1,1329,652,0,0
112,372,0,0,0,0,0,0,0,0,0,-1,1336,652,0,0
119,372,0,0,0,0,0,0,0,0,0,-1,1343,652,0,0
126,372,0,0,0,0,0,0,0,0,0,-1,1350,652,0,0
133,372,0,0,0,0,0,0,0,0,0,-1,1357,652,0,0
140,372,0,0,0,0,0,0,0,0,0,-1,1364,652,0,0
147,372,0,0,0,0,0,0,0,0,0,-1,1371,652,0,0
154,372,0,0,0,0,0,0,0,0,0,-1,1378,652,0,0
161,372,0,0,0,0,0,0,0,0,0,-1,1385,652,0,0
168,372,0,0,0,0,0,0,0,0,0,-1,1392,652,0,0
175,372,0,0,0,0,0,0,0,0,0,-1,1399,652,0,0
182,372,0,0,0,0,0,0,0,0,0,-1,1406,652,0,0
189,372,0,0,0,0,0,0,0,0,0,-1,1413,652,0,0
196,372,0,0,0,0,0,0,0,0,0,-1,1420,652,0,0
203,372,0,0,0,0,0,0,0,0,0,-1,1427,652,0,0
210,372,0,0,0,0,0,0,0,0,0,-1,1434,652,0,0
217,372,0,0,0,0,0,0,0,0,0,-1,1441,652,0,0
224,372,0,0,0,0,0,0,0,0,0,-1,1448,652,0,0
231,372,0,0,0,0,0,0,0,0,0,-1,1455,652,0,0
238,372,0,0,0,0,0,0,0,0,0,-1,1462,652,0,0
245,372,0,0,0,0,0,0,0,0,0,-1,1469,652,0,0
252,372,0,0,0,0,0,0,0,0,0,-1,1476,652,0,0
259,372,0,0,0,0,0,0,0,0,0,-1,1483,652,0,0
266,372,0,0,0,0,0,0,0,0,0,-1,1490,652,0,0
273,372,0,0,0,0,0,0,0,0,0,-1,1497,652,0,0
280,372,0,0,0,0,0,0,0,0,0,-1,1504,652,0,0
287,372,0,0,0,0,0,0,0,0,0,-1,1511,652,0,0
294,372,0,0,0,0,0,0,0,0,0,-1,1518,652,0,0
301,372,0,0,0,0,0,0,0,0,0,-1,1525,652,0,0
308,372,0,0,0,0,0,0,0,0,0,-1,1532,652,0,0
315,372,0,0,0,0,0,0,0,0,0,-1,1539,652,0,0
322,372,0,0,0,0,0,0,0,0,0,-1,1546,652,0,0
329,372,0,0,0,0,0,0,0,0,0,-1,1553,652,0,0
336,372,0,0,0,0,0,0,0,0,0,-1,1560,652,0,0
343,372,0,0,0,0,0,0,0,0,0,-1,1567,652,0,0
350,372,0,0,0,0,0,0,0,0,0,-1,1574,652,0,0
357,372,0,0,0,0,0,0,0,0,0,-1,1581,652,0,0
364,372,0,0,0,0,0,0,0,0,0,-1,1588,652,0,0
371,372,0,0,0,0,0,0,0,0,0,-1,1595,652,0,0
378,372,0,0,0,0,0,0,0,0,0,-1,1602,652,0,0
385,372,0,0,0,0,0,0,0,0,0,-1,1609,652,0,0
392,372,0,0,0,0,0,0,0,0,0,-1,1616,652,0,0
399,372,0,0,0,0,0,0,0,0,0,-1,1623,652,0,0
406,372,0,0,0,0,0,0,0,0,0,-1,1630,652,0,0
413,372,0,0,0,0,0,0,0,0,0,-1,1637,652,0,0
420,372,0,0,0,0,0,0,0,0,0,-1,1644,652,0,0
427,372,0,0,0,0,0,0,0,0,0,-1,1651,652,0,0
434,372,0,0,0,0,0,0,0,0,0,-1,1658,652,0,0
441,372,0,0,0,0,0,0,0,0,0,-1,1665,652,0,0
448,372,0,0,0,0,0,0,0,0,0,-1,1672,652,0,0
455,372,0,0,0,0,0,0,0,0,0,-1,1679,652,0,0
462,372,0,0,0,0,0,0,0,0,0,-1,1686,652,0,0
469,372,0,0,0,0,0,0,0,0,0,-1,1693,652,0,0
476,372,0,0,0,0,0,0,0,0,0,-1,1700,652,0,0
483,372,8.74182,1.53125,0,0,0,0,0,0,0,-1,1707,652,8.74186,-1.53126
490,372,9.78455,1.67096,0,0,0,0,0,0,0,-1,1714,652,9.7846,-1.67093
497,372,9.97644,1.46069,0,0,0,0,0,0,0,-1,1721,652,9.97647,-1.46071
504,372,10.1216,1.28375,0,0,0,0,0,0,0,-1,1728,652,10.1216,-1.28376
511,372,11.7367,-0.0272217,0,0,0,0,0,0,0,-1,1735,652,11.7367,0.0272326
518,372,12.0657,-0.0995483,0,0,0,0,0,0,0,-1,1742,652,12.0657,0.0995285
525,372,12.3947,-0.171814,0,0,0,0,0,0,0,-1,1749,652,12.3946,0.171824
532,372,9.36597,1.72034,0,0,0,0,0,0,0,-1,1756,652,9.36597,-1.72036
539,372,7.82886,-0.0865479,0,0,0,0,0,0,0,-1,1763,652,7.82882,0.0865771
546,372,10.953,-0.187195,0,0,0,0,0,0,0,-1,1770,652,10.953,0.187181
553,372,14.1201,-4.83234,0,0,0,0,0,0,0,-1,1777,652,14.1201,4.83235
560,372,20.1057,-8.06934,0,0,0,0,0,0,0,-1,1784,652,20.1058,8.06936
567,372,21.2537,-8.56378,0,0,0,0,0,0,0,-1,1791,652,21.2536,8.56377
574,372,21.5712,-7.99115,0.00472117,0.000239116,0.000997433,0.00493312,2.71702e-05,0.209377,0.00327973,0.0323229,1798,652,21.5712,7.99116
581,372,21.5466,-7.50519,0.00344368,0.000368562,0.000716234,0.00360231,0.000209925,0.217968,0.00233472,0.0196329,1805,652,21.5466,7.50516
588,372,21.5105,-6.94775,0.00256971,0.000511242,0.000617047,0.0027405,0.000340446,0.270034,0.00172476,0.0159622,1812,652,21.5105,6.94774
595,372,21.486,-6.40533,0.00206269,0.00080465,0.00065718,0.00234337,0.000523972,0.403644,0.00142018,0.0146286,1819,652,21.4859,6.40531
602,372,21.4962,-5.86652,0.0019139,0.00125033,0.000898574,0.00253998,0.00062424,0.608544,0.00152834,0.016241,1826,652,21.4962,5.86654
609,372,21.4404,-5.31226,0.00195809,0.001771,0.00124512,0.00311317,0.000615921,0.747903,0.00190365,0.0162904,1833,652,21.4404,5.31225
616,372,21.4269,-4.74908,0.00220187,0.00240824,0.00167136,0.0039796,0.000630515,0.816228,0.00246987,0.0155187,1840,652,21.4268,4.74906
623,372,21.4427,-4.1441,0.00258545,0.00306015,0.00218898,0.00502462,0.000620989,0.839402,0.00316313,0.0129767,1847,652,21.4428,4.1441
630,372,21.417,-3.57751,0.00294587,0.00369687,0.00269263,0.00604006,0.00060268,0.854678,0.0038416,0.0172239,1854,652,21.417,3.57753
637,372,21.4274,-3.04132,0.00329483,0.00442819,0.0032342,0.00714498,0.000578044,0.872126,0.00458281,0.0258286,1861,652,21.4273,3.0413
644,372,21.5717,-2.46869,0,0,0,0,0,0,0,-1,1868,652,21.5717,2.4687
651,372,21.3998,-0.888,0,0,0,0,0,0,0,-1,1875,652,21.3998,0.887992
658,372,14.157,0.280273,0,0,0,0,0,0,0,-1,1882,652,14.157,-0.280264
665,372,15.2286,0.463867,0,0,0,0,0,0,0,-1,1889,652,15.2287,-0.463854
672,372,9.34106,1.48444,0,0,0,0,0,0,0,-1,1896,652,9.34109,-1.48444
679,372,10.7308,2.32391,0,0,0,0,0,0,0,-1,1903,652,10.7309,-2.3239
686,372,11.6295,2.52997,0,0,0,0,0,0,0,-1,1910,652,11.6296,-2.52996
693,372,0,0,0,0,0,0,0,0,0,-1,1917,652,0,0
700,372,0,0,0,0,0,0,0,0,0,-1,1924,652,0,0
707,372,0,0,0,0,0,0,0,0,0,-1,1931,652,0,0
714,372,0,0,0,0,0,0,0,0,0,-1,1938,652,0,0
721,372,0,0,0,0,0,0,0,0,0,-1,1945,652,0,0
728,372,0,0,0,0,0,0,0,0,0,-1,1952,652,0,0
735,372,0,0,0,0,0,0,0,0,0,-1,1959,652,0,0
742,372,0,0,0,0,0,0,0,0,0,-1,1966,652,0,0
749,372,0,0,0,0,0,0,0,0,0,-1,1973,652,0,0
756,372,0,0,0,0,0,0,0,0,0,-1,1980,652,0,0
763,372,0,0,0,0,0,0,0,0,0,-1,1987,652,0,0
770,372,0,0,0,0,0,0,0,0,0,-1,1994,652,0,0
777,372,0,0,0,0,0,0,0,0,0,-1,2001,652,0,0
784,372,0,0,0,0,0,0,0,0,0,-1,2008,652,0,0
791,372,0,0,0,0,0,0,0,0,0,-1,2015,652,0,0
798,372,0,0,0,0,0,0,0,0,0,-1,2022,652,0,0
805,372,0,0,0,0,0,0,0,0,0,-1,2029,652,0,0
812,372,0,0,0,0,0,0,0,0,0,-1,2036,652,0,0
-700,365,0,0,0,0,0,0,0,0,0,-1,524,659,0,0
-693,365,0,0,0,0,0,0,0,0,0,-1,531,659,0,0
-686,365,0,0,0,0,0,0,0,0,0,-1,538,659,0,0
-679,365,0,0,0,0,0,0,0,0,0,-1,545,659,0,0
-672,365,0,0,0,0,0,0,0,0,0,-1,552,659,0,0
-665,365,0,0,0,0,0,0,0,0,0,-1,559,659,0,0
-658,365,0,0,0,0,0,0,0,0,0,-1,566,659,0,0
-651,365,0,0,0,0,0,0,0,0,0,-1,573,659,0,0
-644,365,0,0,0,0,0,0,0,0,0,-1,580,659,0,0
-637,365,0,0,0,0,0,0,0,0,0,-1,587,659,0,0
-630,365,0,0,0,0,0,0,0,0,0,-1,594,659,0,0
-623,365,0,0,0,0,0,0,0,0,0,-1,601,659,0,0
-616,365,0,0,0,0,0,0,0,0,0,-1,608,659,0,0
-609,365,0,0,0,0,0,0,0,0,0,-1,615,659,0,0
-602,365,0,0,0,0,0,0,0,0,0,-1,622,659,0,0
-595,365,0,0,0,0,0,0,0,0,0,-1,629,659,0,0
-588,365,0,0,0,0,0,0,0,0,0,-1,636,659,0,0
-581,365,0,0,0,0,0,0,0,0,0,-1,643,659,0,0
-574,365,-7.69281,1.59015,0,0,0,0,0,0,0,-1,650,659,-7.69282,-1.59018
-567,365,-8.2583,1.72638,0,0,0,0,0,0,0,-1,657,659,-8.25827,-1.72637
-560,365,-7.17767,0.275757,0,0,0,0,0,0,0,-1,664,659,-7.17768,-0.27577
-553,365,-10.0349,-0.169617,0,0,0,0,0,0,0,-1,671,659,-10.0349,0.169593
-546,365,-10.6303,-1.51642,0,0,0,0,0,0,0,-1,678,659,-10.6303,1.5164
-539,365,-8.38599,1.52936,0,0,0,0,0,0,0,-1,685,659,-8.38598,-1.52935
-532,365,-8.52863,0.166504,0,0,0,0,0,0,0,-1,692,659,-8.52863,-0.166501
-525,365,-9.28229,-2.62726,0,0,0,0,0,0,0,-1,699,659,-9.28227,2.62724
-518,365,-12.2252,-4.1897,0,0,0,0,0,0,0,-1,706,659,-12.2251,4.18969
-511,365,-12.2302,-4.81329,0.00274532,0.000776434,-0.00153409,0.00358367,-6.19153e-05,-0.500136,0.00241001,0.032718,713,659,-12.2301,4.81327
-504,365,-12.2009,-5.36475,0.00189798,6.9862e-05,-0.000763974,0.00217521,-0.000207364,-0.348097,0.00152397,0.0126499,720,659,-12.2009,5.36475
-497,365,-12.2075,-5.92657,0.00155963,-0.000148974,-0.000487223,0.0016888,-0.000278144,-0.259154,0.00122912,0.0130019,727,659,-12.2075,5.92659
-490,365,-12.2458,-6.46332,0.00118557,-0.000460023,-0.000136987,0.0011969,-0.000471349,-0.0824882,0.000993062,0.0140568,734,659,-12.2458,6.4633
-483,365,-12.2686,-6.99219,0.00147451,3.43769e-05,-0.000515019,0.00163973,-0.000130848,-0.31044,0.00113928,0.013071,741,659,-12.2685,6.99222
-476,365,-12.2333,-7.50507,0.00185422,0.000530224,-0.000912269,0.00231938,6.50687e-05,-0.471527,0.00152502,0.0154731,748,659,-12.2333,7.50506
-469,365,-12.2701,-8.02515,0.00225866,0.00102116,-0.00128393,0.00306516,0.000214667,-0.560859,0.00197578,0.0154746,755,659,-12.2701,8.02514
-462,365,-12.3163,-8.5639,0.00267333,0.00143286,-0.001611,0.00377937,0.000326823,-0.601644,0.00241801,0.0140248,762,659,-12.3163,8.56393
-455,365,-12.3358,-9.11188,0.00312524,0.0016991,-0.00189164,0.00443374,0.000390592,-0.605155,0.00283462,0.016448,769,659,-12.3357,9.11188
-448,365,-12.2581,-9.74274,0.0035511,0.00191926,-0.00206627,0.00495671,0.000513651,-0.597358,0.00314726,0.0352561,776,659,-12.2581,9.74271
-441,365,-12.017,-10.4489,0,0,0,0,0,0,0,-1,783,659,-12.017,10.4489
-434,365,-5.45056,-3.98041,0,0,0,0,0,0,0,-1,790,659,-5.45055,3.98042
-427,365,-5.05377,-4.74689,0,0,0,0,0,0,0,-1,797,659,-5.05376,4.7469
-420,365,-4.58813,-3.16376,0,0,0,0,0,0,0,-1,804,659,-4.58816,3.16374
-413,365,0.141357,0.672729,0,0,0,0,0,0,0,-1,811,659,0.141365,-0.672714
-406,365,-1.75067,-0.934448,0,0,0,0,0,0,0,-1,818,659,-1.7507,0.934424
-399,365,-4.10242,-1.25439,0,0,0,0,0,0,0,-1,825,659,-4.10244,1.25438
-392,365,-7.46545,-0.779724,0,0,0,0,0,0,0,-1,832,659,-7.46543,0.779744
-385,365,-6.27875,-0.887573,0,0,0,0,0,0,0,-1,839,659,-6.27874,0.887545
-378,365,-5.34503,-0.263306,0,0,0,0,0,0,0,-1,846,659,-5.34504,0.263275
-371,365,0,0,0,0,0,0,0,0,0,-1,853,659,0,0
-364,365,0,0,0,0,0,0,0,0,0,-1,860,659,0,0
-357,365,0,0,0,0,0,0,0,0,0,-1,867,659,0,0
-350,365,0,0,0,0,0,0,0,0,0,-1,874,659,0,0
-343,365,0,0,0,0,0,0,0,0,0,-1,881,659,0,0
-336,365,0,0,0,0,0,0,0,0,0,-1,888,659,0,0
-329,365,0,0,0,0,0,0,0,0,0,-1,895,659,0,0
-322,365,0,0,0,0,0,0,0,0,0,-1,902,659,0,0
-315,365,0,0,0,0,0,0,0,0,0,-1,909,659,0,0
-308,365,0,0,0,0,0,0,0,0,0,-1,916,659,0,0
-301,365,0,0,0,0,0,0,0,0,0,-1,923,659,0,0
-294,365,0,0,0,0,0,0,0,0,0,-1,930,659,0,0
-287,365,0,0,0,0,0,0,0,0,0,-1,937,659,0,0
-280,365,0,0,0,0,0,0,0,0,0,-1,944,659,0,0
-273,365,0,0,0,0,0,0,0,0,0,-1,951,659,0,0
-266,365,0,0,0,0,0,0,0,0,0,-1,958,659,0,0
-259,365,0,0,0,0,0,0,0,0,0,-1,965,659,0,0
-252,365,0,0,0,0,0,0,0,0,0,-1,972,659,0,0
-245,365,0,0,0,0,0,0,0,0,0,-1,979,659,0,0
-238,365,0,0,0,0,0,0,0,0,0,-1,986,659,0,0
-231,365,0,0,0,0,0,0,0,0,0,-1,993,659,0,0
-224,365,0,0,0,0,0,0,0,0,0,-1,1000,659,0,0
-217,365,0,0,0,0,0,0,0,0,0,-1,1007,659,0,0
-210,365,0,0,0,0,0,0,0,0,0,-1,1014,659,0,0
-203,365,0,0,0,0,0,0,0,0,0,-1,1021,659,0,0
-196,365,0,0,0,0,0,0,0,0,0,-1,1028,659,0,0
-189,365,0,0,0,0,0,0,0,0,0,-1,1035,659,0,0
-182,365,0,0,0,0,0,0,0,0,0,-1,1042,659,0,0
-175,365,0,0,0,0,0,0,0,0,0,-1,1049,659,0,0
-168,365,0,0,0,0,0,0,0,0,0,-1,1056,659,0,0
-161,365,0,0,0,0,0,0,0,0,0,-1,1063,659,0,0
-154,365,0,0,0,0,0,0,0,0,0,-1,1070,659,0,0
-147,365,0,0,0,0,0,0,0,0,0,-1,1077,659,0,0
-140,365,0,0,0,0,0,0,0,0,0,-1,1084,659,0,0
-133,365,0,0,0,0,0,0,0,0,0,-1,1091,659,0,0
-126,365,0,0,0,0,0,0,0,0,0,-1,1098,659,0,0
-119,365,0,0,0,0,0,0,0,0,0,-1,1105,659,0,0
-112,365,0,0,0,0,0,0,0,0,0,-1,1112,659,0,0
-105,365,0,0,0,0,0,0,0,0,0,-1,1119,659,0,0
-98,365,0,0,0,0,0,0,0,0,0,-1,1126,659,0,0
-91,365,0,0,0,0,0,0,0,0,0,-1,1133,659,0,0
-84,365,0,0,0,0,0,0,0,0,0,-1,1140,659,0,0
-77,365,0,0,0,0,0,0,0,0,0,-1,1147,659,0,0
-70,365,0,0,0,0,0,0,0,0,0,-1,1154,659,0,0
-63,365,0,0,0,0,0,0,0,0,0,-1,1161,659,0,0
-56,365,0,0,0,0,0,0,0,0,0,-1,1168,659,0,0
-49,365,0,0,0,0,0,0,0,0,0,-1,1175,659,0,0
-42,365,0,0,0,0,0,0,0,0,0,-1,1182,659,0,0
-35,365,0,0,0,0,0,0,0,0,0,-1,1189,659,0,0
-28,365,0,0,0,0,0,0,0,0,0,-1,1196,659,0,0
-21,365,0,0,0,0,0,0,0,0,0,-1,1203,659,0,0
-14,365,0,0,0,0,0,0,0,0,0,-1,1210,659,0,0
-7,365,0,0,0,0,0,0,0,0,0,-1,1217,659,0,0
0,365,0,0,0,0,0,0,0,0,0,-1,1224,659,0,0
7,365,0,0,0,0,0,0,0,0,0,-1,1231,659,0,0
14,365,0,0,0,0,0,0,0,0,0,-1,1238,659,0,0
21,365,0,0,0,0,0,0,0,0,0,-1,1245,659,0,0
28,365,0,0,0,0,0,0,0,0,0,-1,1252,659,0,0
35,365,0,0,0,0,0,0,0,0,0,-1,1259,659,0,0
42,365,0,0,0,0,0,0,0,0,0,-1,1266,659,0,0
49,365,0,0,0,0,0,0,0,0,0,-1,1273,659,0,0
56,365,0,0,0,0,0,0,0,0,0,-1,1280,659,0,0
63,365,0,0,0,0,0,0,0,0,0,-1,1287,659,0,0
70,365,0,0,0,0,0,0,0,0,0,-1,1294,659,0,0
77,365,0,0,0,0,0,0,0,0,0,-1,1301,659,0,0
84,365,0,0,0,0,0,0,0,0,0,-1,1308,659,0,0
91,365,0,0,0,0,0,0,0,0,0,-1,1315,659,0,0
98,365,0,0,0,0,0,0,0,0,0,-1,1322,659,0,0
105,365,0,0,0,0,0,0,0,0,0,-1,1329,659,0,0
112,365,0,0,0,0,0,0,0,0,0,-1,1336,659,0,0
119,365,0,0,0,0,0,0,0,0,0,-1,1343,659,0,0
126,365,0,0,0,0,0,0,0,0,0,-1,1350,659,0,0
133,365,0,0,0,0,0,0,0,0,0,-1,1357,659,0,0
140,365,0,0,0,0,0,0,0,0,0,-1,1364,659,0,0
147,365,0,0,0,0,0,0,0,0,0,-1,1371,659,0,0
154,365,0,0,0,0,0,0,0,0,0,-1,1378,659,0,0
161,365,0,0,0,0,0,0,0,0,0,-1,1385,659,0,0
168,365,0,0,0,0,0,0,0,0,0,-1,1392,659,0,0
175,365,0,0,0,0,0,0,0,0,0,-1,1399,659,0,0
182,365,0,0,0,0,0,0,0,0,0,-1,1406,659,0,0
189,365,0,0,0,0,0,0,0,0,0,-1,1413,659,0,0
196,365,0,0,0,0,0,0,0,0,0,-1,1420,659,0,0
203,365,0,0,0,0,0,0,0,0,0,-1,1427,659,0,0
210,365,0,0,0,0,0,0,0,0,0,-1,1434,659,0,0
217,365,0,0,0,0,0,0,0,0,0,-1,1441,659,0,0
224,365,0,0,0,0,0,0,0,0,0,-1,1448,659,0,0
231,365,0,0,0,0,0,0,0,0,0,-1,1455,659,0,0
238,365,0,0,0,0,0,0,0,0,0,-1,1462,659,0,0
245,365,0,0,0,0,0,0,0,0,0,-1,1469,659,0,0
252,365,0,0,0,0,0,0,0,0,0,-1,1476,659,0,0
259,365,0,0,0,0,0,0,0,0,0,-1,1483,659,0,0
266,365,0,0,0,0,0,0,0,0,0,-1,1490,659,0,0
273,365,0,0,0,0,0,0,0,0,0,-1,1497,659,0,0
280,365,0,0,0,0,0,0,0,0,0,-1,1504,659,0,0
287,365,0,0,0,0,0,0,0,0,0,-1,1511,659,0,0
294,365,0,0,0,0,0,0,0,0,0,-1,1518,659,0,0
301,365,0,0,0,0,0,0,0,0,0,-1,1525,659,0,0
308,365,0,0,0,0,0,0,0,0,0,-1,1532,659,0,0
315,365,0,0,0,0,0,0,0,0,0,-1,1539,659,0,0
322,365,0,0,0,0,0,0,0,0,0,-1,1546,659,0,0
329,365,0,0,0,0,0,0,0,0,0,-1,1553,659,0,0
336,365,0,0,0,0,0,0,0,0,0,-1,1560,659,0,0
343,365,0,0,0,0,0,0,0,0,0,-1,1567,659,0,0
350,365,0,0,0,0,0,0,0,0,0,-1,1574,659,0,0
357,365,0,0,0,0,0,0,0,0,0,-1,1581,659,0,0
364,365,0,0,0,0,0,0,0,0,0,-1,1588,659,0,0
371,365,0,0,0,0,0,0,0,0,0,-1,1595,659,0,0
378,365,0,0,0,0,0,0,0,0,0,-1,1602,659,0,0
385,365,0,0,0,0,0,0,0,0,0,-1,1609,659,0,0
392,365,0,0,0,0,0,0,0,0,0,-1,1616,659,0,0
399,365,0,0,0,0,0,0,0,0,0,-1,1623,659,0,0
406,365,0,0,0,0,0,0,0,0,0,-1,1630,659,0,0
413,365,0,0,0,0,0,0,0,0,0,-1,1637,659,0,0
420,365,0,0,0,0,0,0,0,0,0,-1,1644,659,0,0
427,365,0,0,0,0,0,0,0,0,0,-1,1651,659,0,0
434,365,0,0,0,0,0,0,0,0,0,-1,1658,659,0,0
441,365,0,0,0,0,0,0,0,0,0,-1,1665,659,0,0
448,365,0,0,0,0,0,0,0,0,0,-1,1672,659,0,0
455,365,0,0,0,0,0,0,0,0,0,-1,1679,659,0,0
462,365,0,0,0,0,0,0,0,0,0,-1,1686,659,0,0
469,365,0,0,0,0,0,0,0,0,0,-1,1693,659,0,0
476,365,0,0,0,0,0,0,0,0,0,-1,1700,659,0,0
483,365,0,0,0,0,0,0,0,0,0,-1,1707,659,0,0
490,365,8.39551,0.471252,0,0,0,0,0,0,0,-1,1714,659,8.39551,-0.471241
497,365,9.89233,1.35394,0,0,0,0,0,0,0,-1,1721,659,9.89237,-1.35396
504,365,10.1414,1.18005,0,0,0,0,0,0,0,-1,1728,659,10.1413,-1.18004
511,365,10.5151,0.993896,0,0,0,0,0,0,0,-1,1735,659,10.5152,-0.993894
518,365,11.2029,0.398132,0,0,0,0,0,0,0,-1,1742,659,11.2029,-0.398136
525,365,15.5748,3.85303,0,0,0,0,0,0,0,-1,1749,659,15.5748,-3.85303
532,365,11.2446,1.00629,0,0,0,0,0,0,0,-1,1756,659,11.2446,-1.00631
539,365,12.6301,1.03204,0,0,0,0,0,0,0,-1,1763,659,12.6302,-1.03204
546,365,11.647,0.84198,0,0,0,0,0,0,0,-1,1770,659,11.6469,-0.841955
553,365,12.028,-0.558899,0,0,0,0,0,0,0,-1,1777,659,12.028,0.558873
560,365,14.5372,-4.55548,0,0,0,0,0,0,0,-1,1784,659,14.5373,4.55547
567,365,20.5676,-7.53888,0,0,0,0,0,0,0,-1,1791,659,20.5676,7.53887
574,365,22.2802,-7.9162,0,0,0,0,0,0,0,-1,1798,659,22.2802,7.91617
581,365,21.9252,-7.78986,0,0,0,0,0,0,0,-1,1805,659,21.9251,7.78987
588,365,22.0293,-7.07446,0.00260922,0.000309333,0.000437603,0.00268967,0.000228884,0.181811,0.0017219,0.0211298,1812,659,22.0293,7.07449
595,365,22.0569,-6.39685,0.00204693,0.000551744,0.000453841,0.0021739,0.000424771,0.272801,0.00133048,0.0134805,1819,659,22.0569,6.39686
602,365,22.0313,-5.81934,0.00181254,0.000889193,0.00062504,0.00212792,0.00057381,0.467306,0.00127127,0.0157718,1826,659,22.0313,5.81934
609,365,21.9786,-5.26776,0.00180953,0.00129434,0.00091712,0.00250454,0.000599323,0.648488,0.0015101,0.0160894,1833,659,21.9786,5.26777
616,365,21.9844,-4.71228,0.00198519,0.00179459,0.00127355,0.003167,0.000612783,0.748053,0.00193961,0.0174153,1840,659,21.9844,4.71225
623,365,22.0033,-4.13123,0.00220431,0.00231255,0.00168147,0.00394077,0.000576086,0.801485,0.00245776,0.0118587,1847,659,22.0033,4.13121
630,365,21.9633,-3.56738,0.00233043,0.00280687,0.00206751,0.00464984,0.000487461,0.842756,0.00295086,0.0161109,1854,659,21.9633,3.56737
637,365,21.943,-3.02985,0.00233442,0.00333117,0.002419,0.0053026,0.000362984,0.886989,0.0034205,0.0215683,1861,659,21.943,3.02984
644,365,21.9535,-2.45154,0.00215267,0.00397807,0.00277481,0.00598643,0.00014431,0.944286,0.00394373,0.0217276,1868,659,21.9535,2.45154
651,365,22.1555,-1.64923,0,0,0,0,0,0,0,-1,1875,659,22.1555,1.64925
658,365,21.6173,-1.22028,0,0,0,0,0,0,0,-1,1882,659,21.6173,1.22025
665,365,14.0961,0.769043,0,0,0,0,0,0,0,-1,1889,659,14.0961,-0.769063
672,365,10.0579,2.15088,0,0,0,0,0,0,0,-1,1896,659,10.0579,-2.15088
679,365,10.9718,2.19208,0,0,0,0,0,0,0,-1,1903,659,10.9718,-2.19211
686,365,12.2134,2.17108,0,0,0,0,0,0,0,-1,1910,659,12.2134,-2.17109
693,365,13.7141,1.98279,0,0,0,0,0,0,0,-1,1917,659,13.7141,-1.98278
700,365,0,0,0,0,0,0,0,0,0,-1,1924,659,0,0
707,365,0,0,0,0,0,0,0,0,0,-1,1931,659,0,0
714,365,0,0,0,0,0,0,0,0,0,-1,1938,659,0,0
721,365,0,0,0,0,0,0,0,0,0,-1,1945,659,0,0
728,365,0,0,0,0,0,0,0,0,0,-1,1952,659,0,0
735,365,0,0,0,0,0,0,0,0,0,-1,1959,659,0,0
742,365,0,0,0,0,0,0,0,0,0,-1,1966,659,0,0
749,365,0,0,0,0,0,0,0,0,0,-1,1973,659,0,0
756,365,0,0,0,0,0,0,0,0,0,-1,1980,659,0,0
763,365,0,0,0,0,0,0,0,0,0,-1,1987,659,0,0
770,365,0,0,0,0,0,0,0,0,0,-1,1994,659,0,0
777,365,0,0,0,0,0,0,0,0,0,-1,2001,659,0,0
784,365,0,0,0,0,0,0,0,0,0,-1,2008,659,0,0
791,365,0,0,0,0,0,0,0,0,0,-1,2015,659,0,0
798,365,0,0,0,0,0,0,0,0,0,-1,2022,659,0,0
805,365,0,0,0,0,0,0,0,0,0,-1,2029,659,0,0
812,365,0,0,0,0,0,0,0,0,0,-1,2036,659,0,0
-700,358,0,0,0,0,0,0,0,0,0,-1,524,666,0,0
-693,358,0,0,0,0,0,0,0,0,0,-1,531,666,0,0
-686,358,0,0,0,0,0,0,0,0,0,-1,538,666,0,0
-679,358,0,0,0,0,0,0,0,0,0,-1,545,666,0,0
-672,358,0,0,0,0,0,0,0,0,0,-1,552,666,0,0
-665,358,0,0,0,0,0,0,0,0,0,-1,559,666,0,0
-658,358,0,0,0,0,0,0,0,0,0,-1,566,666,0,0
-651,358,0,0,0,0,0,0,0,0,0,-1,573,666,0,0
-644,358,0,0,0,0,0,0,0,0,0,-1,580,666,0,0
-637,358,0,0,0,0,0,0,0,0,0,-1,587,666,0,0
-630,358,0,0,0,0,0,0,0,0,0,-1,594,666,0,0
-623,358,0,0,0,0,0,0,0,0,0,-1,601,666,0,0
-616,358,0,0,0,0,0,0,0,0,0,-1,608,666,0,0
-609,358,0,0,0,0,0,0,0,0,0,-1,615,666,0,0
-602,358,0,0,0,0,0,0,0,0,0,-1,622,666,0,0
-595,358,0,0,0,0,0,0,0,0,0,-1,629,666,0,0
-588,358,0,0,0,0,0,0,0,0,0,-1,636,666,0,0
-581,358,-8.31616,1.61993,0,0,0,0,0,0,0,-1,643,666,-8.31614,-1.61993
-574,358,-8.22406,1.75385,0,0,0,0,0,0,0,-1,650,666,-8.22408,-1.75383
-567,358,-8.14215,1.91577,0,0,0,0,0,0,0,-1,657,666,-8.14214,-1.91579
-560,358,-10.6086,2.18872,0,0,0,0,0,0,0,-1,664,666,-10.6086,-2.18873
-553,358,-13.4767,1.09552,0,0,0,0,0,0,0,-1,671,666,-13.4767,-1.09551
-546,358,-13.3743,-0.185059,0,0,0,0,0,0,0,-1,678,666,-13.3743,0.185037
-539,358,-9.43884,-2.04785,0,0,0,0,0,0,0,-1,685,666,-9.43884,2.04785
-532,358,-12.4141,-2.36572,0,0,0,0,0,0,0,-1,692,666,-12.4141,2.3657
-525,358,-12.731,-3.88031,0,0,0,0,0,0,0,-1,699,666,-12.731,3.88029
-518,358,-12.7017,-4.18976,0,0,0,0,0,0,0,-1,706,666,-12.7017,4.18978
-511,358,-12.7416,-4.80121,0.00262041,0.00101264,-0.00138638,0.00341911,0.000213941,-0.522663,0.00221155,0.0179676,713,666,-12.7416,4.80121
-504,358,-12.7488,-5.33911,0.00193587,0.000289413,-0.000706706,0.0021976,2.76805e-05,-0.354692,0.00145593,0.0126166,720,666,-12.7488,5.33911
-497,358,-12.7661,-5.90717,0.0017182,7.79494e-05,-0.000498483,0.00185781,-6.166e-05,-0.273072,0.0012596,0.0115205,727,666,-12.7661,5.90716
-490,358,-12.7809,-6.44855,0.00142581,-0.000217679,-0.000220403,0.00145486,-0.000246724,-0.131023,0.00106174,0.0107795,734,666,-12.7809,6.44854
-483,358,-12.8006,-6.97443,0.00177955,0.000308611,-0.000661726,0.00203342,5.47385e-05,-0.366334,0.00133774,0.00991366,741,666,-12.8006,6.97445
-476,358,-12.7753,-7.47705,0.00222946,0.000873092,-0.00114154,0.00287907,0.000223477,-0.517365,0.0018494,0.0121366,748,666,-12.7753,7.47704
-469,358,-12.822,-8.00385,0.00271546,0.00142164,-0.0016043,0.00379837,0.000338725,-0.593752,0.00242723,0.0157944,755,666,-12.822,8.00387
-462,358,-12.8709,-8.55817,0.00325021,0.00198002,-0.00207128,0.00478157,0.000448656,-0.636639,0.00304919,0.0174804,762,666,-12.8709,8.55819
-455,358,-12.7879,-9.13257,0.00391255,0.00246737,-0.00254382,0.00583442,0.000545507,-0.647015,0.00372113,0.039198,769,666,-12.7879,9.13256
-448,358,-12.6223,-9.94635,0,0,0,0,0,0,0,-1,776,666,-12.6223,9.94635
-441,358,-5.56293,-3.98041,0,0,0,0,0,0,0,-1,783,666,-5.56291,3.98043
-434,358,-5.21558,-4.43127,0,0,0,0,0,0,0,-1,790,666,-5.21559,4.43125
-427,358,-3.56189,-3.15729,0,0,0,0,0,0,0,-1,797,666,-3.56192,3.15729
-420,358,0.200195,1.08234,0,0,0,0,0,0,0,-1,804,666,0.200174,-1.08231
-413,358,0.0325317,0.161072,0,0,0,0,0,0,0,-1,811,666,0.0325501,-0.161098
-406,358,-3.85846,0.753113,0,0,0,0,0,0,0,-1,818,666,-3.85846,-0.753129
-399,358,-1.31213,0.190735,0,0,0,0,0,0,0,-1,825,666,-1.31215,-0.190763
-392,358,-3.73914,-0.832214,0,0,0,0,0,0,0,-1,832,666,-3.73915,0.832202
-385,358,-5.95178,-1.69141,0,0,0,0,0,0,0,-1,839,666,-5.9518,1.69143
-378,358,0,0,0,0,0,0,0,0,0,-1,846,666,0,0
-371,358,0,0,0,0,0,0,0,0,0,-1,853,666,0,0
-364,358,0,0,0,0,0,0,0,0,0,-1,860,666,0,0
-357,358,0,0,0,0,0,0,0,0,0,-1,867,666,0,0
-350,358,0,0,0,0,0,0,0,0,0,-1,874,666,0,0
-343,358,0,0,0,0,0,0,0,0,0,-1,881,666,0,0
-336,358,0,0,0,0,0,0,0,0,0,-1,888,666,0,0
-329,358,0,0,0,0,0,0,0,0,0,-1,895,666,0,0
-322,358,0,0,0,0,0,0,0,0,0,-1,902,666,0,0
-315,358,0,0,0,0,0,0,0,0,0,-1,909,666,0,0
-308,358,0,0,0,0,0,0,0,0,0,-1,916,666,0,0
-301,358,0,0,0,0,0,0,0,0,0,-1,923,666,0,0
-294,358,0,0,0,0,0,0,0,0,0,-1,930,666,0,0
-287,358,0,0,0,0,0,0,0,0,0,-1,937,666,0,0
-280,358,0,0,0,0,0,0,0,0,0,-1,944,666,0,0
-273,358,0,0,0,0,0,0,0,0,0,-1,951,666,0,0
-266,358,0,0,0,0,0,0,0,0,0,-1,958,666,0,0
-259,358,0,0,0,0,0,0,0,0,0,-1,965,666,0,0
-252,358,0,0,0,0,0,0,0,0,0,-1,972,666,0,0
-245,358,0,0,0,0,0,0,0,0,0,-1,979,666,0,0
-238,358,0,0,0,0,0,0,0,0,0,-1,986,666,0,0
-231,358,0,0,0,0,0,0,0,0,0,-1,993,666,0,0
-224,358,0,0,0,0,0,0,0,0,0,-1,1000,666,0,0
-217,358,0,0,0,0,0,0,0,0,0,-1,1007,666,0,0
-210,358,0,0,0,0,0,0,0,0,0,-1,1014,666,0,0
-203,358,0,0,0,0,0,0,0,0,0,-1,1021,666,0,0
-196,358,0,0,0,0,0,0,0,0,0,-1,1028,666,0,0
-189,358,0,0,0,0,0,0,0,0,0,-1,1035,666,0,0
-182,358,0,0,0,0,0,0,0,0,0,-1,1042,666,0,0
-175,358,0,0,0,0,0,0,0,0,0,-1,1049,666,0,0
-168,358,0,0,0,0,0,0,0,0,0,-1,1056,666,0,0
-161,358,0,0,0,0,0,0,0,0,0,-1,1063,666,0,0
-154,358,0,0,0,0,0,0,0,0,0,-1,1070,666,0,0
-147,358,0,0,0,0,0,0,0,0,0,-1,1077,666,0,0
-140,358,0,0,0,0,0,0,0,0,0,-1,1084,666,0,0
-133,358,0,0,0,0,0,0,0,0,0,-1,1091,666,0,0
-126,358,0,0,0,0,0,0,0,0,0,-1,1098,666,0,0
-119,358,0,0,0,0,0,0,0,0,0,-1,1105,666,0,0
-112,358,0,0,0,0,0,0,0,0,0,-1,1112,666,0,0
-105,358,0,0,0,0,0,0,0,0,0,-1,1119,666,0,0
-98,358,0,0,0,0,0,0,0,0,0,-1,1126,666,0,0
-91,358,0,0,0,0,0,0,0,0,0,-1,1133,666,0,0
-84,358,0,0,0,0,0,0,0,0,0,-1,1140,666,0,0
-77,358,0,0,0,0,0,0,0,0,0,-1,1147,666,0,0
-70,358,0,0,0,0,0,0,0,0,0,-1,1154,666,0,0
-63,358,0,0,0,0,0,0,0,0,0,-1,1161,666,0,0
-56,358,0,0,0,0,0,0,0,0,0,-1,1168,666,0,0
-49,358,0,0,0,0,0,0,0,0,0,-1,1175,666,0,0
-42,358,0,0,0,0,0,0,0,0,0,-1,1182,666,0,0
-35,358,0,0,0,0,0,0,0,0,0,-1,1189,666,0,0
-28,358,0,0,0,0,0,0,0,0,0,-1,1196,666,0,0
-21,358,0,0,0,0,0,0,0,0,0,-1,1203,666,0,0
-14,358,0,0,0,0,0,0,0,0,0,-1,1210,666,0,0
-7,358,0,0,0,0,0,0,0,0,0,-1,1217,666,0,0
0,358,0,0,0,0,0,0,0,0,0,-1,1224,666,0,0
7,358,0,0,0,0,0,0,0,0,0,-1,1231,666,0,0
14,358,0,0,0,0,0,0,0,0,0,-1,1238,666,0,0
21,358,0,0,0,0,0,0,0,0,0,-1,1245,666,0,0
28,358,0,0,0,0,0,0,0,0,0,-1,1252,666,0,0
35,358,0,0,0,0,0,0,0,0,0,-1,1259,666,0,0
42,358,0,0,0,0,0,0,0,0,0,-1,1266,666,0,0
49,358,0,0,0,0,0,0,0,0,0,-1,1273,666,0,0
56,358,0,0,0,0,0,0,0,0,0,-1,1280,666,0,0
63,358,0,0,0,0,0,0,0,0,0,-1,1287,666,0,0
70,358,0,0,0,0,0,0,0,0,0,-1,1294,666,0,0
77,358,0,0,0,0,0,0,0,0,0,-1,1301,666,0,0
84,358,0,0,0,0,0,0,0,0,0,-1,1308,666,0,0
91,358,0,0,0,0,0,0,0,0,0,-1,1315,666,0,0
98,358,0,0,0,0,0,0,0,0,0,-1,1322,666,0,0
105,358,0,0,0,0,0,0,0,0,0,-1,1329,666,0,0
112,358,0,0,0,0,0,0,0,0,0,-1,1336,666,0,0
119,358,0,0,0,0,0,0,0,0,0,-1,1343,666,0,0
126,358,0,0,0,0,0,0,0,0,0,-1,1350,666,0,0
133,358,0,0,0,0,0,0,0,0,0,-1,1357,666,0,0
140,358,0,0,0,0,0,0,0,0,0,-1,1364,666,0,0
147,358,0,0,0,0,0,0,0,0,0,-1,1371,666,0,0
154,358,0,0,0,0,0,0,0,0,0,-1,1378,666,0,0
161,358,0,0,0,0,0,0,0,0,0,-1,1385,666,0,0
168,358,0,0,0,0,0,0,0,0,0,-1,1392,666,0,0
175,358,0,0,0,0,0,0,0,0,0,-1,1399,666,0,0
182,358,0,0,0,0,0,0,0,0,0,-1,1406,666,0,0
189,358,0,0,0,0,0,0,0,0,0,-1,1413,666,0,0
196,358,0,0,0,0,0,0,0,0,0,-1,1420,666,0,0
203,358,0,0,0,0,0,0,0,0,0,-1,1427,666,0,0
210,358,0,0,0,0,0,0,0,0,0,-1,1434,666,0,0
217,358,0,0,0,0,0,0,0,0,0,-1,1441,666,0,0
224,358,0,0,0,0,0,0,0,0,0,-1,1448,666,0,0
231,358,0,0,0,0,0,0,0,0,0,-1,1455,666,0,0
238,358,0,0,0,0,0,0,0,0,0,-1,1462,666,0,0
245,358,0,0,0,0,0,0,0,0,0,-1,1469,666,0,0
252,358,0,0,0,0,0,0,0,0,0,-1,1476,666,0,0
259,358,0,0,0,0,0,0,0,0,0,-1,1483,666,0,0
266,358,0,0,0,0,0,0,0,0,0,-1,1490,666,0,0
273,358,0,0,0,0,0,0,0,0,0,-1,1497,666,0,0
280,358,0,0,0,0,0,0,0,0,0,-1,1504,666,0,0
287,358,0,0,0,0,0,0,0,0,0,-1,1511,666,0,0
294,358,0,0,0,0,0,0,0,0,0,-1,1518,666,0,0
301,358,0,0,0,0,0,0,0,0,0,-1,1525,666,0,0
308,358,0,0,0,0,0,0,0,0,0,-1,1532,666,0,0
315,358,0,0,0,0,0,0,0,0,0,-1,1539,666,0,0
322,358,0,0,0,0,0,0,0,0,0,-1,1546,666,0,0
329,358,0,0,0,0,0,0,0,0,0,-1,1553,666,0,0
336,358,0,0,0,0,0,0,0,0,0,-1,1560,666,0,0
343,358,0,0,0,0,0,0,0,0,0,-1,1567,666,0,0
350,358,0,0,0,0,0,0,0,0,0,-1,1574,666,0,0
357,358,0,0,0,0,0,0,0,0,0,-1,1581,666,0,0
364,358,0,0,0,0,0,0,0,0,0,-1,1588,666,0,0
371,358,0,0,0,0,0,0,0,0,0,-1,1595,666,0,0
378,358,0,0,0,0,0,0,0,0,0,-1,1602,666,0,0
385,358,0,0,0,0,0,0,0,0,0,-1,1609,666,0,0
392,358,0,0,0,0,0,0,0,0,0,-1,1616,666,0,0
399,358,0,0,0,0,0,0,0,0,0,-1,1623,666,0,0
406,358,0,0,0,0,0,0,0,0,0,-1,1630,666,0,0
413,358,0,0,0,0,0,0,0,0,0,-1,1637,666,0,0
420,358,0,0,0,0,0,0,0,0,0,-1,1644,666,0,0
427,358,0,0,0,0,0,0,0,0,0,-1,1651,666,0,0
434,358,0,0,0,0,0,0,0,0,0,-1,1658,666,0,0
441,358,0,0,0,0,0,0,0,0,0,-1,1665,666,0,0
448,358,0,0,0,0,0,0,0,0,0,-1,1672,666,0,0
455,358,0,0,0,0,0,0,0,0,0,-1,1679,666,0,0
462,358,0,0,0,0,0,0,0,0,0,-1,1686,666,0,0
469,358,0,0,0,0,0,0,0,0,0,-1,1693,666,0,0
476,358,0,0,0,0,0,0,0,0,0,-1,1700,666,0,0
483,358,0,0,0,0,0,0,0,0,0,-1,1707,666,0,0
490,358,0,0,0,0,0,0,0,0,0,-1,1714,666,0,0
497,358,8.57239,1.1322,0,0,0,0,0,0,0,-1,1721,666,8.57234,-1.13219
504,358,10.5972,0.832947,0,0,0,0,0,0,0,-1,1728,666,10.5972,-0.832968
511,358,10.6873,0.868469,0,0,0,0,0,0,0,-1,1735,666,10.6872,-0.868484
518,358,16.5884,2.34894,0,0,0,0,0,0,0,-1,1742,666,16.5884,-2.34894
525,358,15.7626,3.65344,0,0,0,0,0,0,0,-1,1749,666,15.7626,-3.65342
532,358,14.9368,4.95789,0,0,0,0,0,0,0,-1,1756,666,14.9367,-4.9579
539,358,15.1597,3.42694,0,0,0,0,0,0,0,-1,1763,666,15.1597,-3.42692
546,358,12.3792,1.53558,0,0,0,0,0,0,0,-1,1770,666,12.3792,-1.5356
553,358,11.6584,1.26172,0,0,0,0,0,0,0,-1,1777,666,11.6585,-1.26175
560,358,10.8234,1.43042,0,0,0,0,0,0,0,-1,1784,666,10.8233,-1.43041
567,358,10.1333,-0.955139,0,0,0,0,0,0,0,-1,1791,666,10.1333,0.955132
574,358,14.7886,-2.69293,0,0,0,0,0,0,0,-1,1798,666,14.7885,2.6929
581,358,20.1738,-6.76135,0,0,0,0,0,0,0,-1,1805,666,20.1738,6.76137
588,358,22.4291,-7.19458,0,0,0,0,0,0,0,-1,1812,666,22.4291,7.19459
595,358,22.6011,-6.37738,0.00202621,0.000327669,0.000280102,0.00207121,0.00028267,0.15929,0.00129689,0.0148673,1819,666,22.6011,6.37735
602,358,22.5735,-5.78314,0.00166084,0.000593448,0.000368174,0.00177551,0.000478774,0.301943,0.00106073,0.0134474,1826,666,22.5735,5.78316
609,358,22.5209,-5.24774,0.00159947,0.000916063,0.000606475,0.00195388,0.000561654,0.528852,0.00116155,0.0170594,1833,666,22.5208,5.24774
616,358,22.5184,-4.685,0.00170398,0.00130485,0.000906187,0.00243232,0.000576514,0.677014,0.00146762,0.0164278,1840,666,22.5185,4.68498
623,358,22.5529,-4.11456,0.00178984,0.0017144,0.00122606,0.00297876,0.000525475,0.770019,0.00183592,0.0145345,1847,666,22.5528,4.11459
630,358,22.5306,-3.55963,0.0017567,0.00208921,0.00152498,0.00345697,0.000388937,0.839694,0.00218656,0.0171519,1854,666,22.5307,3.55963
637,358,22.4626,-3.01398,0.00156096,0.00245657,0.00174903,0.00381422,0.000203323,0.910721,0.00247782,0.0260264,1861,666,22.4626,3.01397
644,358,22.4564,-2.48334,0.00115974,0.00285229,0.00193099,0.00411431,-0.000102283,0.991921,0.0027776,0.0215295,1868,666,22.4565,2.48332
651,358,22.6112,-1.77527,0.000372767,0.00320253,0.00199488,0.00423335,-0.000658052,1.09385,0.00306522,0.0339775,1875,666,22.6112,1.77524
658,358,22.4486,-1.09015,0,0,0,0,0,0,0,-1,1882,666,22.4487,1.09015
665,358,21.4069,-0.5271,0,0,0,0,0,0,0,-1,1889,666,21.4068,0.527096
672,358,12.4299,1.47272,0,0,0,0,0,0,0,-1,1896,666,12.4299,-1.4727
679,358,12.1294,2.19702,0,0,0,0,0,0,0,-1,1903,666,12.1294,-2.19703
686,358,11.9557,2.2002,0,0,0,0,0,0,0,-1,1910,666,11.9557,-2.20021
693,358,13.188,2.52203,0,0,0,0,0,0,0,-1,1917,666,13.188,-2.52202
700,358,0,0,0,0,0,0,0,0,0,-1,1924,666,0,0
707,358,0,0,0,0,0,0,0,0,0,-1,1931,666,0,0
714,358,0,0,0,0,0,0,0,0,0,-1,1938,666,0,0
721,358,0,0,0,0,0,0,0,0,0,-1,1945,666,0,0
728,358,0,0,0,0,0,0,0,0,0,-1,1952,666,0,0
735,358,0,0,0,0,0,0,0,0,0,-1,1959,666,0,0
742,358,0,0,0,0,0,0,0,0,0,-1,1966,666,0,0
749,358,0,0,0,0,0,0,0,0,0,-1,1973,666,0,0
756,358,0,0,0,0,0,0,0,0,0,-1,1980,666,0,0
763,358,0,0,0,0,0,0,0,0,0,-1,1987,666,0,0
770,358,0,0,0,0,0,0,0,0,0,-1,1994,666,0,0
777,358,0,0,0,0,0,0,0,0,0,-1,2001,666,0,0
784,358,0,0,0,0,0,0,0,0,0,-1,2008,666,0,0
791,358,0,0,0,0,0,0,0,0,0,-1,2015,666,0,0
798,358,0,0,0,0,0,0,0,0,0,-1,2022,666,0,0
805,358,0,0,0,0,0,0,0,0,0,-1,2029,666,0,0
812,358,0,0,0,0,0,0,0,0,0,-1,2036,666,0,0
-700,351,0,0,0,0,0,0,0,0,0,-1,524,673,0,0
-693,351,0,0,0,0,0,0,0,0,0,-1,531,673,0,0
-686,351,0,0,0,0,0,0,0,0,0,-1,538,673,0,0
-679,351,0,0,0,0,0,0,0,0,0,-1,545,673,0,0
-672,351,0,0,0,0,0,0,0,0,0,-1,552,673,0,0
-665,351,0,0,0,0,0,0,0,0,0,-1,559,673,0,0
-658,351,0,0,0,0,0,0,0,0,0,-1,566,673,0,0
-651,351,0,0,0,0,0,0,0,0,0,-1,573,673,0,0
-644,351,0,0,0,0,0,0,0,0,0,-1,580,673,0,0
-637,351,0,0,0,0,0,0,0,0,0,-1,587,673,0,0
-630,351,0,0,0,0,0,0,0,0,0,-1,594,673,0,0
-623,351,0,0,0,0,0,0,0,0,0,-1,601,673,0,0
-616,351,0,0,0,0,0,0,0,0,0,-1,608,673,0,0
-609,351,0,0,0,0,0,0,0,0,0,-1,615,673,0,0
-602,351,0,0,0,0,0,0,0,0,0,-1,622,673,0,0
-595,351,0,0,0,0,0,0,0,0,0,-1,629,673,0,0
-588,351,0,0,0,0,0,0,0,0,0,-1,636,673,0,0
-581,351,-9.0647,1.71906,0,0,0,0,0,0,0,-1,643,673,-9.06472,-1.71908
-574,351,-8.23584,2.64764,0,0,0,0,0,0,0,-1,650,673,-8.23584,-2.64764
-567,351,-10.8027,4.56836,0,0,0,0,0,0,0,-1,657,673,-10.8027,-4.56839
-560,351,-14.2001,2.17084,0,0,0,0,0,0,0,-1,664,673,-14.2002,-2.17086
-553,351,-13.4979,0.779541,0,0,0,0,0,0,0,-1,671,673,-13.4978,-0.779519
-546,351,-14.0065,0.73645,0,0,0,0,0,0,0,-1,678,673,-14.0065,-0.736473
-539,351,-12.8123,-1.46393,0,0,0,0,0,0,0,-1,685,673,-12.8123,1.46395
-532,351,-13.1417,-3.13611,0,0,0,0,0,0,0,-1,692,673,-13.1416,3.13611
-525,351,-13.2166,-3.85016,0.00530824,0.00507632,-0.00443114,0.00962494,0.000759623,-0.772316,0.006179,0.0470834,699,673,-13.2166,3.85018
-518,351,-13.2909,-4.20679,0.00359313,0.00257434,-0.0024405,0.00557683,0.000590638,-0.682513,0.00353748,0.0184719,706,673,-13.2909,4.20682
-511,351,-13.2679,-4.77338,0.00254529,0.00121917,-0.00129695,0.00333884,0.000425611,-0.549097,0.00209846,0.0118578,713,673,-13.268,4.77338
-504,351,-13.2985,-5.31458,0.00196783,0.000488008,-0.000687921,0.00223821,0.00021762,-0.374502,0.00142515,0.010886,720,673,-13.2984,5.31459
-497,351,-13.334,-5.85449,0.00182346,0.000266132,-0.000524934,0.00198388,0.000105716,-0.296581,0.0012888,0.0105709,727,673,-13.334,5.8545
-490,351,-13.3434,-6.38605,0.00164442,3.35396e-05,-0.000358144,0.00172046,-4.24968e-05,-0.2092,0.0011614,0.0102029,734,673,-13.3434,6.38604
-483,351,-13.3511,-6.92499,0.00205608,0.000570444,-0.000849153,0.00244146,0.00018506,-0.426047,0.0015696,0.0119165,741,673,-13.3511,6.92498
-476,351,-13.3852,-7.46436,0.0025673,0.00118732,-0.00140563,0.00344316,0.000311454,-0.557238,0.00219899,0.0109255,748,673,-13.3852,7.46436
-469,351,-13.3824,-7.97827,0.00314121,0.00177067,-0.00196397,0.00453603,0.000375853,-0.617542,0.00290685,0.0135454,755,673,-13.3825,7.97825
-462,351,-13.3711,-8.56769,0.00383232,0.00250765,-0.00262606,0.00587828,0.000461691,-0.661867,0.00377438,0.0288049,762,673,-13.3711,8.56767
-455,351,-13.1412,-9.24097,0,0,0,0,0,0,0,-1,769,673,-13.1412,9.24095
-448,351,-6.61456,-4.38654,0,0,0,0,0,0,0,-1,776,673,-6.61456,4.38654
-441,351,-4.31567,-2.3009,0,0,0,0,0,0,0,-1,783,673,-4.31565,2.30089
-434,351,-3.81708,-2.28003,0,0,0,0,0,0,0,-1,790,673,-3.81706,2.28006
-427,351,-2.05157,-2.7785,0,0,0,0,0,0,0,-1,797,673,-2.05157,2.77848
-420,351,-1.06989,-2.43665,0,0,0,0,0,0,0,-1,804,673,-1.06991,2.43663
-413,351,-0.392334,-2.06671,0,0,0,0,0,0,0,-1,811,673,-0.392363,2.06672
-406,351,-1.86316,-2.58105,0,0,0,0,0,0,0,-1,818,673,-1.86313,2.58106
-399,351,1.00952,-1.53455,0,0,0,0,0,0,0,-1,825,673,1.00954,1.53457
-392,351,-1.02197,0.877136,0,0,0,0,0,0,0,-1,832,673,-1.02195,-0.877143
-385,351,-1.47205,1.04437,0,0,0,0,0,0,0,-1,839,673,-1.47207,-1.04435
-378,351,0,0,0,0,0,0,0,0,0,-1,846,673,0,0
-371,351,0,0,0,0,0,0,0,0,0,-1,853,673,0,0
-364,351,0,0,0,0,0,0,0,0,0,-1,860,673,0,0
-357,351,0,0,0,0,0,0,0,0,0,-1,867,673,0,0
-350,351,0,0,0,0,0,0,0,0,0,-1,874,673,0,0
-343,351,0,0,0,0,0,0,0,0,0,-1,881,673,0,0
-336,351,0,0,0,0,0,0,0,0,0,-1,888,673,0,0
-329,351,0,0,0,0,0,0,0,0,0,-1,895,673,0,0
-322,351,0,0,0,0,0,0,0,0,0,-1,902,673,0,0
-315,351,0,0,0,0,0,0,0,0,0,-1,909,673,0,0
-308,351,0,0,0,0,0,0,0,0,0,-1,916,673,0,0
-301,351,0,0,0,0,0,0,0,0,0,-1,923,673,0,0
-294,351,0,0,0,0,0,0,0,0,0,-1,930,673,0,0
-287,351,0,0,0,0,0,0,0,0,0,-1,937,673,0,0
-280,351,0,0,0,0,0,0,0,0,0,-1,944,673,0,0
-273,351,0,0,0,0,0,0,0,0,0,-1,951,673,0,0
-266,351,0,0,0,0,0,0,0,0,0,-1,958,673,0,0
-259,351,0,0,0,0,0,0,0,0,0,-1,965,673,0,0
-252,351,0,0,0,0,0,0,0,0,0,-1,972,673,0,0
-245,351,0,0,0,0,0,0,0,0,0,-1,979,673,0,0
-238,351,0,0,0,0,0,0,0,0,0,-1,986,673,0,0
-231,351,0,0,0,0,0,0,0,0,0,-1,993,673,0,0
-224,351,0,0,0,0,0,0,0,0,0,-1,1000,673,0,0
-217,351,0,0,0,0,0,0,0,0,0,-1,1007,673,0,0
-210,351,0,0,0,0,0,0,0,0,0,-1,1014,673,0,0
-203,351,0,0,0,0,0,0,0,0,0,-1,1021,673,0,0
-196,351,0,0,0,0,0,0,0,0,0,-1,1028,673,0,0
-189,351,0,0,0,0,0,0,0,0,0,-1,1035,673,0,0
-182,351,0,0,0,0,0,0,0,0,0,-1,1042,673,0,0
-175,351,0,0,0,0,0,0,0,0,0,-1,1049,673,0,0
-168,351,0,0,0,0,0,0,0,0,0,-1,1056,673,0,0
-161,351,0,0,0,0,0,0,0,0,0,-1,1063,673,0,0
-154,351,0,0,0,0,0,0,0,0,0,-1,1070,673,0,0
-147,351,0,0,0,0,0,0,0,0,0,-1,1077,673,0,0
-140,351,0,0,0,0,0,0,0,0,0,-1,1084,673,0,0
-133,351,0,0,0,0,0,0,0,0,0,-1,1091,673,0,0
-126,351,0,0,0,0,0,0,0,0,0,-1,1098,673,0,0
-119,351,0,0,0,0,0,0,0,0,0,-1,1105,673,0,0
-112,351,0,0,0,0,0,0,0,0,0,-1,1112,673,0,0
-105,351,0,0,0,0,0,0,0,0,0,-1,1119,673,0,0
-98,351,0,0,0,0,0,0,0,0,0,-1,1126,673,0,0
-91,351,0,0,0,0,0,0,0,0,0,-1,1133,673,0,0
-84,351,0,0,0,0,0,0,0,0,0,-1,1140,673,0,0
-77,351,0,0,0,0,0,0,0,0,0,-1,1147,673,0,0
-70,351,0,0,0,0,0,0,0,0,0,-1,1154,673,0,0
-63,351,0,0,0,0,0,0,0,0,0,-1,1161,673,0,0
-56,351,0,0,0,0,0,0,0,0,0,-1,1168,673,0,0
-49,351,0,0,0,0,0,0,0,0,0,-1,1175,673,0,0
-42,351,0,0,0,0,0,0,0,0,0,-1,1182,673,0,0
-35,351,0,0,0,0,0,0,0,0,0,-1,1189,673,0,0
-28,351,0,0,0,0,0,0,0,0,0,-1,1196,673,0,0
-21,351,0,0,0,0,0,0,0,0,0,-1,1203,673,0,0
-14,351,0,0,0,0,0,0,0,0,0,-1,1210,673,0,0
-7,351,0,0,0,0,0,0,0,0,0,-1,1217,673,0,0
0,351,0,0,0,0,0,0,0,0,0,-1,1224,673,0,0
7,351,0,0,0,0,0,0,0,0,0,-1,1231,673,0,0
14,351,0,0,0,0,0,0,0,0,0,-1,1238,673,0,0
21,351,0,0,0,0,0,0,0,0,0,-1,1245,673,0,0
28,351,0,0,0,0,0,0,0,0,0,-1,1252,673,0,0
35,351,0,0,0,0,0,0,0,0,0,-1,1259,673,0,0
42,351,0,0,0,0,0,0,0,0,0,-1,1266,673,0,0
49,351,0,0,0,0,0,0,0,0,0,-1,1273,673,0,0
56,351,0,0,0,0,0,0,0,0,0,-1,1280,673,0,0
63,351,0,0,0,0,0,0,0,0,0,-1,1287,673,0,0
70,351,0,0,0,0,0,0,0,0,0,-1,1294,673,0,0
77,351,0,0,0,0,0,0,0,0,0,-1,1301,673,0,0
84,351,0,0,0,0,0,0,0,0,0,-1,1308,673,0,0
91,351,0,0,0,0,0,0,0,0,0,-1,1315,673,0,0
98,351,0,0,0,0,0,0,0,0,0,-1,1322,673,0,0
105,351,0,0,0,0,0,0,0,0,0,-1,1329,673,0,0
112,351,0,0,0,0,0,0,0,0,0,-1,1336,673,0,0
119,351,0,0,0,0,0,0,0,0,0,-1,1343,673,0,0
126,351,0,0,0,0,0,0,0,0,0,-1,1350,673,0,0
133,351,0,0,0,0,0,0,0,0,0,-1,1357,673,0,0
140,351,0,0,0,0,0,0,0,0,0,-1,1364,673,0,0
147,351,0,0,0,0,0,0,0,0,0,-1,1371,673,0,0
154,351,0,0,0,0,0,0,0,0,0,-1,1378,673,0,0
161,351,0,0,0,0,0,0,0,0,0,-1,1385,673,0,0
168,351,0,0,0,0,0,0,0,0,0,-1,1392,673,0,0
175,351,0,0,0,0,0,0,0,0,0,-1,1399,673,0,0
182,351,0,0,0,0,0,0,0,0,0,-1,1406,673,0,0
189,351,0,0,0,0,0,0,0,0,0,-1,1413,673,0,0
196,351,0,0,0,0,0,0,0,0,0,-1,1420,673,0,0
203,351,0,0,0,0,0,0,0,0,0,-1,1427,673,0,0
210,351,0,0,0,0,0,0,0,0,0,-1,1434,673,0,0
217,351,0,0,0,0,0,0,0,0,0,-1,1441,673,0,0
224,351,0,0,0,0,0,0,0,0,0,-1,1448,673,0,0
231,351,0,0,0,0,0,0,0,0,0,-1,1455,673,0,0
238,351,0,0,0,0,0,0,0,0,0,-1,1462,673,0,0
245,351,0,0,0,0,0,0,0,0,0,-1,1469,673,0,0
252,351,0,0,0,0,0,0,0,0,0,-1,1476,673,0,0
259,351,0,0,0,0,0,0,0,0,0,-1,1483,673,0,0
266,351,0,0,0,0,0,0,0,0,0,-1,1490,673,0,0
273,351,0,0,0,0,0,0,0,0,0,-1,1497,673,0,0
280,351,0,0,0,0,0,0,0,0,0,-1,1504,673,0,0
287,351,0,0,0,0,0,0,0,0,0,-1,1511,673,0,0
294,351,0,0,0,0,0,0,0,0,0,-1,1518,673,0,0
301,351,0,0,0,0,0,0,0,0,0,-1,1525,673,0,0
308,351,0,0,0,0,0,0,0,0,0,-1,1532,673,0,0
315,351,0,0,0,0,0,0,0,0,0,-1,1539,673,0,0
322,351,0,0,0,0,0,0,0,0,0,-1,1546,673,0,0
329,351,0,0,0,0,0,0,0,0,0,-1,1553,673,0,0
336,351,0,0,0,0,0,0,0,0,0,-1,1560,673,0,0
343,351,0,0,0,0,0,0,0,0,0,-1,1567,673,0,0
350,351,0,0,0,0,0,0,0,0,0,-1,1574,673,0,0
357,351,0,0,0,0,0,0,0,0,0,-1,1581,673,0,0
364,351,0,0,0,0,0,0,0,0,0,-1,1588,673,0,0
371,351,0,0,0,0,0,0,0,0,0,-1,1595,673,0,0
378,351,0,0,0,0,0,0,0,0,0,-1,1602,673,0,0
385,351,0,0,0,0,0,0,0,0,0,-1,1609,673,0,0
392,351,0,0,0,0,0,0,0,0,0,-1,1616,673,0,0
399,351,0,0,0,0,0,0,0,0,0,-1,1623,673,0,0
406,351,0,0,0,0,0,0,0,0,0,-1,1630,673,0,0
413,351,0,0,0,0,0,0,0,0,0,-1,1637,673,0,0
420,351,0,0,0,0,0,0,0,0,0,-1,1644,673,0,0
427,351,0,0,0,0,0,0,0,0,0,-1,1651,673,0,0
434,351,0,0,0,0,0,0,0,0,0,-1,1658,673,0,0
441,351,0,0,0,0,0,0,0,0,0,-1,1665,673,0,0
448,351,0,0,0,0,0,0,0,0,0,-1,1672,673,0,0
455,351,0,0,0,0,0,0,0,0,0,-1,1679,673,0,0
462,351,0,0,0,0,0,0,0,0,0,-1,1686,673,0,0
469,351,0,0,0,0,0,0,0,0,0,-1,1693,673,0,0
476,351,0,0,0,0,0,0,0,0,0,-1,1700,673,0,0
483,351,0,0,0,0,0,0,0,0,0,-1,1707,673,0,0
490,351,0,0,0,0,0,0,0,0,0,-1,1714,673,0,0
497,351,0,0,0,0,0,0,0,0,0,-1,1721,673,0,0
504,351,10.8842,1.61615,0,0,0,0,0,0,0,-1,1728,673,10.8842,-1.61618
511,351,15.4548,0.0236816,0,0,0,0,0,0,0,-1,1735,673,15.4549,-0.0236664
518,351,16.7448,2.49268,0,0,0,0,0,0,0,-1,1742,673,16.7448,-2.49269
525,351,16.0701,3.43225,0,0,0,0,0,0,0,-1,1749,673,16.07,-3.43227
532,351,32.3822,3.03021,0,0,0,0,0,0,0,-1,1756,673,32.3822,-3.03019
539,351,15.3387,3.54486,0,0,0,0,0,0,0,-1,1763,673,15.3387,-3.54485
546,351,13.9387,4.59357,0,0,0,0,0,0,0,-1,1770,673,13.9388,-4.59359
553,351,12.0682,2.02832,0,0,0,0,0,0,0,-1,1777,673,12.0683,-2.02831
560,351,12.0173,0.55304,0,0,0,0,0,0,0,-1,1784,673,12.0174,-0.553028
567,351,10.7827,0.130188,0,0,0,0,0,0,0,-1,1791,673,10.7827,-0.130183
574,351,13.405,-1.09204,0,0,0,0,0,0,0,-1,1798,673,13.405,1.09207
581,351,15.2351,-3.06049,0,0,0,0,0,0,0,-1,1805,673,15.2351,3.06046
588,351,23.0468,-7.02283,0,0,0,0,0,0,0,-1,1812,673,23.0467,7.02286
595,351,23.1486,-6.39917,0.00196235,0.00301596,0.000707118,0.00337094,0.00160738,1.10554,0.00194691,0.03768,1819,673,23.1485,6.39915
602,351,23.1569,-5.78625,0.00135228,0.00134337,0.000555196,0.00190304,0.000792613,0.781384,0.00110382,0.0184841,1826,673,23.1569,5.78627
609,351,23.1421,-5.23901,0.00127988,0.000803856,0.000485078,0.00158219,0.000501543,0.557322,0.000933652,0.0174144,1833,673,23.1421,5.23899
616,351,23.0924,-4.67419,0.00139969,0.000870507,0.000598829,0.00178977,0.000480418,0.577372,0.00106963,0.0156217,1840,673,23.0923,4.67416
623,351,23.124,-4.09802,0.00140712,0.00117886,0.000820224,0.00212112,0.000464865,0.716269,0.00128741,0.0164117,1847,673,23.124,4.09805
630,351,23.094,-3.5567,0.00129441,0.00144926,0.00103408,0.00240881,0.000334865,0.822765,0.00150671,0.0251167,1854,673,23.094,3.55671
637,351,23.0497,-2.98578,0.000994872,0.00170367,0.00115604,0.00255842,0.000140128,0.934132,0.00166087,0.0306897,1861,673,23.0496,2.98575
644,351,23.0087,-2.42505,0.000479501,0.001931,0.00121541,0.00262085,-0.000210349,1.05455,0.0018214,0.0231671,1868,673,23.0086,2.42504
651,351,23.0615,-1.81604,-0.00040932,0.00213894,0.00116085,0.00258846,-0.000858841,1.20134,0.00207212,0.0167705,1875,673,23.0616,1.81605
658,351,23.0159,-1.19464,-0.0018004,0.00220862,0.000875904,0.00239164,-0.00198341,1.36482,0.0025296,0.0338067,1882,673,23.0158,1.19464
665,351,22.7734,-0.49292,0,0,0,0,0,0,0,-1,1889,673,22.7734,0.492927
672,351,22.0186,-0.232483,0,0,0,0,0,0,0,-1,1896,673,22.0186,0.232492
679,351,14.1252,1.85681,0,0,0,0,0,0,0,-1,1903,673,14.1253,-1.85682
686,351,13.0294,2.1189,0,0,0,0,0,0,0,-1,1910,673,13.0294,-2.11892
693,351,13.5187,2.34595,0,0,0,0,0,0,0,-1,1917,673,13.5187,-2.34596
700,351,14.5629,-2.40173,0,0,0,0,0,0,0,-1,1924,673,14.5629,2.40172
707,351,0,0,0,0,0,0,0,0,0,-1,1931,673,0,0
714,351,0,0,0,0,0,0,0,0,0,-1,1938,673,0,0
721,351,0,0,0,0,0,0,0,0,0,-1,1945,673,0,0
728,351,0,0,0,0,0,0,0,0,0,-1,1952,673,0,0
735,351,0,0,0,0,0,0,0,0,0,-1,1959,673,0,0
742,351,0,0,0,0,0,0,0,0,0,-1,1966,673,0,0
749,351,0,0,0,0,0,0,0,0,0,-1,1973,673,0,0
756,351,0,0,0,0,0,0,0,0,0,-1,1980,673,0,0
763,351,0,0,0,0,0,0,0,0,0,-1,1987,673,0,0
770,351,0,0,0,0,0,0,0,0,0,-1,1994,673,0,0
777,351,0,0,0,0,0,0,0,0,0,-1,2001,673,0,0
784,351,0,0,0,0,0,0,0,0,0,-1,2008,673,0,0
791,351,0,0,0,0,0,0,0,0,0,-1,2015,673,0,0
798,351,0,0,0,0,0,0,0,0,0,-1,2022,673,0,0
805,351,0,0,0,0,0,0,0,0,0,-1,2029,673,0,0
812,351,0,0,0,0,0,0,0,0,0,-1,2036,673,0,0
-700,344,0,0,0,0,0,0,0,0,0,-1,524,680,0,0
-693,344,0,0,0,0,0,0,0,0,0,-1,531,680,0,0
-686,344,0,0,0,0,0,0,0,0,0,-1,538,680,0,0
-679,344,0,0,0,0,0,0,0,0,0,-1,545,680,0,0
-672,344,0,0,0,0,0,0,0,0,0,-1,552,680,0,0
-665,344,0,0,0,0,0,0,0,0,0,-1,559,680,0,0
-658,344,0,0,0,0,0,0,0,0,0,-1,566,680,0,0
-651,344,0,0,0,0,0,0,0,0,0,-1,573,680,0,0
-644,344,0,0,0,0,0,0,0,0,0,-1,580,680,0,0
-637,344,0,0,0,0,0,0,0,0,0,-1,587,680,0,0
-630,344,0,0,0,0,0,0,0,0,0,-1,594,680,0,0
-623,344,0,0,0,0,0,0,0,0,0,-1,601,680,0,0
-616,344,0,0,0,0,0,0,0,0,0,-1,608,680,0,0
-609,344,0,0,0,0,0,0,0,0,0,-1,615,680,0,0
-602,344,0,0,0,0,0,0,0,0,0,-1,622,680,0,0
-595,344,0,0,0,0,0,0,0,0,0,-1,629,680,0,0
-588,344,-9.27826,1.47302,0,0,0,0,0,0,0,-1,636,680,-9.27829,-1.473
-581,344,-10.0098,1.71753,0,0,0,0,0,0,0,-1,643,680,-10.0098,-1.7175
-574,344,-10.2208,3.04871,0,0,0,0,0,0,0,-1,650,680,-10.2208,-3.04869
-567,344,-14.3779,2.29016,0,0,0,0,0,0,0,-1,657,680,-14.3779,-2.29014
-560,344,-14.1238,1.8374,0,0,0,0,0,0,0,-1,664,680,-14.1238,-1.83743
-553,344,-14.7884,2.00116,0,0,0,0,0,0,0,-1,671,680,-14.7884,-2.00115
-546,344,-14.8704,-0.308167,0,0,0,0,0,0,0,-1,678,680,-14.8703,0.308168
-539,344,-13.8946,-2.21393,0,0,0,0,0,0,0,-1,685,680,-13.8946,2.21392
-532,344,-13.7665,-3.0072,0,0,0,0,0,0,0,-1,692,680,-13.7666,3.00723
-525,344,-13.8619,-3.58661,0.00470391,0.0045931,-0.00376465,0.00841356,0.000883448,-0.77804,0.00533898,0.0358323,699,680,-13.862,3.58658
-518,344,-13.8279,-4.19409,0.00330347,0.00243665,-0.00211655,0.00503052,0.000709594,-0.684408,0.00314396,0.0208292,706,680,-13.8279,4.1941
-511,344,-13.8461,-4.77411,0.00242785,0.0011612,-0.00112857,0.00308866,0.000500402,-0.529707,0.00191423,0.0171252,713,680,-13.8461,4.77413
-504,344,-13.8367,-5.31567,0.00196051,0.00042658,-0.000601403,0.00216819,0.000218906,-0.332495,0.0013783,0.0172067,720,680,-13.8367,5.31568
-497,344,-13.8534,-5.85046,0.00187668,0.000192857,-0.000482949,0.00200537,6.4174e-05,-0.260403,0.00131604,0.0153927,727,680,-13.8534,5.85048
-490,344,-13.8809,-6.37543,0.00184304,8.62164e-05,-0.000479461,0.00196537,-3.61169e-05,-0.249817,0.00132245,0.0141241,734,680,-13.8809,6.37543
-483,344,-13.8824,-6.90173,0.00228626,0.000626508,-0.00101065,0.0027641,0.000148671,-0.441652,0.00179523,0.0140162,741,680,-13.8824,6.90171
-476,344,-13.9143,-7.44189,0.0028273,0.0012999,-0.00164431,0.00387661,0.000250596,-0.567995,0.00250506,0.0138788,748,680,-13.9143,7.44188
-469,344,-13.915,-7.98242,0.00347946,0.00193359,-0.00232812,0.0051596,0.000253456,-0.625123,0.00335844,0.0175532,755,680,-13.9151,7.98245
-462,344,-13.8137,-8.57538,0,0,0,0,0,0,0,-1,762,680,-13.8137,8.57537
-455,344,-12.1653,-7.99176,0,0,0,0,0,0,0,-1,769,680,-12.1653,7.99174
-448,344,-5.67657,-2.72864,0,0,0,0,0,0,0,-1,776,680,-5.6766,2.72863
-441,344,-5.09229,-2.34167,0,0,0,0,0,0,0,-1,783,680,-5.09229,2.34168
-434,344,-4.28778,-2.08807,0,0,0,0,0,0,0,-1,790,680,-4.28778,2.08809
-427,344,-3.06506,-1.45404,0,0,0,0,0,0,0,-1,797,680,-3.06505,1.45402
-420,344,-1.96582,-1.57574,0,0,0,0,0,0,0,-1,804,680,-1.96579,1.57574
-413,344,-0.817993,-1.4751,0,0,0,0,0,0,0,-1,811,680,-0.818017,1.47511
-406,344,-0.00714111,-1.25189,0,0,0,0,0,0,0,-1,818,680,-0.00714956,1.25191
-399,344,0.240051,-1.75769,0,0,0,0,0,0,0,-1,825,680,0.240079,1.75767
-392,344,1.11353,-2.05615,0,0,0,0,0,0,0,-1,832,680,1.11351,2.05616
-385,344,0,0,0,0,0,0,0,0,0,-1,839,680,0,0
-378,344,0,0,0,0,0,0,0,0,0,-1,846,680,0,0
-371,344,0,0,0,0,0,0,0,0,0,-1,853,680,0,0
-364,344,0,0,0,0,0,0,0,0,0,-1,860,680,0,0
-357,344,0,0,0,0,0,0,0,0,0,-1,867,680,0,0
-350,344,0,0,0,0,0,0,0,0,0,-1,874,680,0,0
-343,344,0,0,0,0,0,0,0,0,0,-1,881,680,0,0
-336,344,0,0,0,0,0,0,0,0,0,-1,888,680,0,0
-329,344,0,0,0,0,0,0,0,0,0,-1,895,680,0,0
-322,344,0,0,0,0,0,0,0,0,0,-1,902,680,0,0
-315,344,0,0,0,0,0,0,0,0,0,-1,909,680,0,0
-308,344,0,0,0,0,0,0,0,0,0,-1,916,680,0,0
-301,344,0,0,0,0,0,0,0,0,0,-1,923,680,0,0
-294,344,0,0,0,0,0,0,0,0,0,-1,930,680,0,0
-287,344,0,0,0,0,0,0,0,0,0,-1,937,680,0,0
-280,344,0,0,0,0,0,0,0,0,0,-1,944,680,0,0
-273,344,0,0,0,0,0,0,0,0,0,-1,951,680,0,0
-266,344,0,0,0,0,0,0,0,0,0,-1,958,680,0,0
-259,344,0,0,0,0,0,0,0,0,0,-1,965,680,0,0
-252,344,0,0,0,0,0,0,0,0,0,-1,972,680,0,0
-245,344,0,0,0,0,0,0,0,0,0,-1,979,680,0,0
-238,344,0,0,0,0,0,0,0,0,0,-1,986,680,0,0
-231,344,0,0,0,0,0,0,0,0,0,-1,993,680,0,0
-224,344,0,0,0,0,0,0,0,0,0,-1,1000,680,0,0
-217,344,0,0,0,0,0,0,0,0,0,-1,1007,680,0,0
-210,344,0,0,0,0,0,0,0,0,0,-1,1014,680,0,0
-203,344,0,0,0,0,0,0,0,0,0,-1,1021,680,0,0
-196,344,0,0,0,0,0,0,0,0,0,-1,1028,680,0,0
-189,344,0,0,0,0,0,0,0,0,0,-1,1035,680,0,0
-182,344,0,0,0,0,0,0,0,0,0,-1,1042,680,0,0
-175,344,0,0,0,0,0,0,0,0,0,-1,1049,680,0,0
-168,344,0,0,0,0,0,0,0,0,0,-1,1056,680,0,0
-161,344,0,0,0,0,0,0,0,0,0,-1,1063,680,0,0
-154,344,0,0,0,0,0,0,0,0,0,-1,1070,680,0,0
-147,344,0,0,0,0,0,0,0,0,0,-1,1077,680,0,0
-140,344,0,0,0,0,0,0,0,0,0,-1,1084,680,0,0
-133,344,0,0,0,0,0,0,0,0,0,-1,1091,680,0,0
-126,344,0,0,0,0,0,0,0,0,0,-1,1098,680,0,0
-119,344,0,0,0,0,0,0,0,0,0,-1,1105,680,0,0
-112,344,0,0,0,0,0,0,0,0,0,-1,1112,680,0,0
-105,344,0,0,0,0,0,0,0,0,0,-1,1119,680,0,0
-98,344,0,0,0,0,0,0,0,0,0,-1,1126,680,0,0
-91,344,0,0,0,0,0,0,0,0,0,-1,1133,680,0,0
-84,344,0,0,0,0,0,0,0,0,0,-1,1140,680,0,0
-77,344,0,0,0,0,0,0,0,0,0,-1,1147,680,0,0
-70,344,0,0,0,0,0,0,0,0,0,-1,1154,680,0,0
-63,344,0,0,0,0,0,0,0,0,0,-1,1161,680,0,0
-56,344,0,0,0,0,0,0,0,0,0,-1,1168,680,0,0
-49,344,0,0,0,0,0,0,0,0,0,-1,1175,680,0,0
-42,344,0,0,0,0,0,0,0,0,0,-1,1182,680,0,0
-35,344,0,0,0,0,0,0,0,0,0,-1,1189,680,0,0
-28,344,0,0,0,0,0,0,0,0,0,-1,1196,680,0,0
-21,344,0,0,0,0,0,0,0,0,0,-1,1203,680,0,0
-14,344,0,0,0,0,0,0,0,0,0,-1,1210,680,0,0
-7,344,0,0,0,0,0,0,0,0,0,-1,1217,680,0,0
0,344,0,0,0,0,0,0,0,0,0,-1,1224,680,0,0
7,344,0,0,0,0,0,0,0,0,0,-1,1231,680,0,0
14,344,0,0,0,0,0,0,0,0,0,-1,1238,680,0,0
21,344,0,0,0,0,0,0,0,0,0,-1,1245,680,0,0
28,344,0,0,0,0,0,0,0,0,0,-1,1252,680,0,0
35,344,0,0,0,0,0,0,0,0,0,-1,1259,680,0,0
42,344,0,0,0,0,0,0,0,0,0,-1,1266,680,0,0
49,344,0,0,0,0,0,0,0,0,0,-1,1273,680,0,0
56,344,0,0,0,0,0,0,0,0,0,-1,1280,680,0,0
63,344,0,0,0,0,0,0,0,0,0,-1,1287,680,0,0
70,344,0,0,0,0,0,0,0,0,0,-1,1294,680,0,0
77,344,0,0,0,0,0,0,0,0,0,-1,1301,680,0,0
84,344,0,0,0,0,0,0,0,0,0,-1,1308,680,0,0
91,344,0,0,0,0,0,0,0,0,0,-1,1315,680,0,0
98,344,0,0,0,0,0,0,0,0,0,-1,1322,680,0,0
105,344,0,0,0,0,0,0,0,0,0,-1,1329,680,0,0
112,344,0,0,0,0,0,0,0,0,0,-1,1336,680,0,0
119,344,0,0,0,0,0,0,0,0,0,-1,1343,680,0,0
126,344,0,0,0,0,0,0,0,0,0,-1,1350,680,0,0
133,344,0,0,0,0,0,0,0,0,0,-1,1357,680,0,0
140,344,0,0,0,0,0,0,0,0,0,-1,1364,680,0,0
147,344,0,0,0,0,0,0,0,0,0,-1,1371,680,0,0
154,344,0,0,0,0,0,0,0,0,0,-1,1378,680,0,0
161,344,0,0,0,0,0,0,0,0,0,-1,1385,680,0,0
168,344,0,0,0,0,0,0,0,0,0,-1,1392,680,0,0
175,344,0,0,0,0,0,0,0,0,0,-1,1399,680,0,0
182,344,0,0,0,0,0,0,0,0,0,-1,1406,680,0,0
189,344,0,0,0,0,0,0,0,0,0,-1,1413,680,0,0
196,344,0,0,0,0,0,0,0,0,0,-1,1420,680,0,0
203,344,0,0,0,0,0,0,0,0,0,-1,1427,680,0,0
210,344,0,0,0,0,0,0,0,0,0,-1,1434,680,0,0
217,344,0,0,0,0,0,0,0,0,0,-1,1441,680,0,0
224,344,0,0,0,0,0,0,0,0,0,-1,1448,680,0,0
231,344,0,0,0,0,0,0,0,0,0,-1,1455,680,0,0
238,344,0,0,0,0,0,0,0,0,0,-1,1462,680,0,0
245,344,0,0,0,0,0,0,0,0,0,-1,1469,680,0,0
252,344,0,0,0,0,0,0,0,0,0,-1,1476,680,0,0
259,344,0,0,0,0,0,0,0,0,0,-1,1483,680,0,0
266,344,0,0,0,0,0,0,0,0,0,-1,1490,680,0,0
273,344,0,0,0,0,0,0,0,0,0,-1,1497,680,0,0
280,344,0,0,0,0,0,0,0,0,0,-1,1504,680,0,0
287,344,0,0,0,0,0,0,0,0,0,-1,1511,680,0,0
294,344,0,0,0,0,0,0,0,0,0,-1,1518,680,0,0
301,344,0,0,0,0,0,0,0,0,0,-1,1525,680,0,0
308,344,0,0,0,0,0,0,0,0,0,-1,1532,680,0,0
315,344,0,0,0,0,0,0,0,0,0,-1,1539,680,0,0
322,344,0,0,0,0,0,0,0,0,0,-1,1546,680,0,0
329,344,0,0,0,0,0,0,0,0,0,-1,1553,680,0,0
336,344,0,0,0,0,0,0,0,0,0,-1,1560,680,0,0
343,344,0,0,0,0,0,0,0,0,0,-1,1567,680,0,0
350,344,0,0,0,0,0,0,0,0,0,-1,1574,680,0,0
357,344,0,0,0,0,0,0,0,0,0,-1,1581,680,0,0
364,344,0,0,0,0,0,0,0,0,0,-1,1588,680,0,0
371,344,0,0,0,0,0,0,0,0,0,-1,1595,680,0,0
378,344,0,0,0,0,0,0,0,0,0,-1,1602,680,0,0
385,344,0,0,0,0,0,0,0,0,0,-1,1609,680,0,0
392,344,0,0,0,0,0,0,0,0,0,-1,1616,680,0,0
399,344,0,0,0,0,0,0,0,0,0,-1,1623,680,0,0
406,344,0,0,0,0,0,0,0,0,0,-1,1630,680,0,0
413,344,0,0,0,0,0,0,0,0,0,-1,1637,680,0,0
420,344,0,0,0,0,0,0,0,0,0,-1,1644,680,0,0
427,344,0,0,0,0,0,0,0,0,0,-1,1651,680,0,0
434,344,0,0,0,0,0,0,0,0,0,-1,1658,680,0,0
441,344,0,0,0,0,0,0,0,0,0,-1,1665,680,0,0
448,344,0,0,0,0,0,0,0,0,0,-1,1672,680,0,0
455,344,0,0,0,0,0,0,0,0,0,-1,1679,680,0,0
462,344,0,0,0,0,0,0,0,0,0,-1,1686,680,0,0
469,344,0,0,0,0,0,0,0,0,0,-1,1693,680,0,0
476,344,0,0,0,0,0,0,0,0,0,-1,1700,680,0,0
483,344,0,0,0,0,0,0,0,0,0,-1,1707,680,0,0
490,344,0,0,0,0,0,0,0,0,0,-1,1714,680,0,0
497,344,0,0,0,0,0,0,0,0,0,-1,1721,680,0,0
504,344,0,0,0,0,0,0,0,0,0,-1,1728,680,0,0
511,344,15.4819,0.452637,0,0,0,0,0,0,0,-1,1735,680,15.4819,-0.452656
518,344,17.1357,2.31207,0,0,0,0,0,0,0,-1,1742,680,17.1358,-2.31207
525,344,31.5201,2.6217,0,0,0,0,0,0,0,-1,1749,680,31.5201,-2.62168
532,344,31.9766,2.61047,0,0,0,0,0,0,0,-1,1756,680,31.9765,-2.6105
539,344,32.4379,2.65314,0,0,0,0,0,0,0,-1,1763,680,32.4378,-2.65316
546,344,14.6722,4.30243,0,0,0,0,0,0,0,-1,1770,680,14.6722,-4.30241
553,344,14.8136,4.35681,0,0,0,0,0,0,0,-1,1777,680,14.8136,-4.35679
560,344,11.9363,2.14185,0,0,0,0,0,0,0,-1,1784,680,11.9362,-2.14182
567,344,11.397,0.925842,0,0,0,0,0,0,0,-1,1791,680,11.397,-0.92583
574,344,10.0004,0.504639,0,0,0,0,0,0,0,-1,1798,680,10.0004,-0.504645
581,344,13.6709,-0.969604,0,0,0,0,0,0,0,-1,1805,680,13.6709,0.969629
588,344,16.1447,-3.15948,0,0,0,0,0,0,0,-1,1812,680,16.1447,3.15946
595,344,23.6522,-6.39484,0,0,0,0,0,0,0,-1,1819,680,23.6522,6.39484
602,344,23.795,-5.77979,0,0,0,0,0,0,0,-1,1826,680,23.7951,5.77979
609,344,23.7449,-5.20471,-7.64212e-05,0.00139416,0.000575589,0.00159266,-0.000274916,1.23871,0.00116428,0.0157083,1833,680,23.7449,5.2047
616,344,23.676,-4.64801,0.000814994,0.000759436,0.000410855,0.00119901,0.000375422,0.751643,0.000708183,0.0228354,1840,680,23.6761,4.64798
623,344,23.7197,-4.07874,0.00116998,0.000795126,0.000592761,0.00160424,0.000360867,0.632274,0.000971802,0.020699,1847,680,23.7198,4.07873
630,344,23.6793,-3.53711,0.00101904,0.000981162,0.000748218,0.00174856,0.000251645,0.772744,0.00109154,0.0262988,1854,680,23.6793,3.53712
637,344,23.6517,-2.9762,0.000636002,0.00114888,0.000794968,0.00172775,5.71379e-05,0.941419,0.00113327,0.0259054,1861,680,23.6518,2.9762
644,344,23.6205,-2.40216,3.57357e-05,0.00126203,0.000764022,0.00162851,-0.000330749,1.12354,0.00121108,0.0174246,1868,680,23.6205,2.40217
651,344,23.6107,-1.82159,-0.000915563,0.0013763,0.000626531,0.00153639,-0.00107566,1.32063,0.00151587,0.0118222,1875,680,23.6107,1.82162
658,344,23.6139,-1.17883,-0.002322,0.00139162,0.000301883,0.001416,-0.00234638,1.49021,0.00219424,0.0233263,1882,680,23.6139,1.17883
665,344,23.4615,-0.628479,-0.00440752,0.00128343,-0.000258838,0.00129518,-0.00441927,-1.52544,0.00345968,0.0369538,1889,680,23.4616,0.628503
672,344,23.4702,-0.14032,0,0,0,0,0,0,0,-1,1896,680,23.4702,0.140348
679,344,23.6669,0.260864,0,0,0,0,0,0,0,-1,1903,680,23.6669,-0.260887
686,344,15.024,1.82709,0,0,0,0,0,0,0,-1,1910,680,15.024,-1.82706
693,344,12.4362,-1.42346,0,0,0,0,0,0,0,-1,1917,680,12.4361,1.42348
700,344,17.5396,2.61206,0,0,0,0,0,0,0,-1,1924,680,17.5396,-2.61204
707,344,18.5829,3.29352,0,0,0,0,0,0,0,-1,1931,680,18.5828,-3.2935
714,344,0,0,0,0,0,0,0,0,0,-1,1938,680,0,0
721,344,0,0,0,0,0,0,0,0,0,-1,1945,680,0,0
728,344,0,0,0,0,0,0,0,0,0,-1,1952,680,0,0
735,344,0,0,0,0,0,0,0,0,0,-1,1959,680,0,0
742,344,0,0,0,0,0,0,0,0,0,-1,1966,680,0,0
749,344,0,0,0,0,0,0,0,0,0,-1,1973,680,0,0
756,344,0,0,0,0,0,0,0,0,0,-1,1980,680,0,0
763,344,0,0,0,0,0,0,0,0,0,-1,1987,680,0,0
770,344,0,0,0,0,0,0,0,0,0,-1,1994,680,0,0
777,344,0,0,0,0,0,0,0,0,0,-1,2001,680,0,0
784,344,0,0,0,0,0,0,0,0,0,-1,2008,680,0,0
791,344,0,0,0,0,0,0,0,0,0,-1,2015,680,0,0
798,344,0,0,0,0,0,0,0,0,0,-1,2022,680,0,0
805,344,0,0,0,0,0,0,0,0,0,-1,2029,680,0,0
812,344,0,0,0,0,0,0,0,0,0,-1,2036,680,0,0
-700,337,0,0,0,0,0,0,0,0,0,-1,524,687,0,0
-693,337,0,0,0,0,0,0,0,0,0,-1,531,687,0,0
-686,337,0,0,0,0,0,0,0,0,0,-1,538,687,0,0
-679,337,0,0,0,0,0,0,0,0,0,-1,545,687,0,0
-672,337,0,0,0,0,0,0,0,0,0,-1,552,687,0,0
-665,337,0,0,0,0,0,0,0,0,0,-1,559,687,0,0
-658,337,0,0,0,0,0,0,0,0,0,-1,566,687,0,0
-651,337,0,0,0,0,0,0,0,0,0,-1,573,687,0,0
-644,337,0,0,0,0,0,0,0,0,0,-1,580,687,0,0
-637,337,0,0,0,0,0,0,0,0,0,-1,587,687,0,0
-630,337,0,0,0,0,0,0,0,0,0,-1,594,687,0,0
-623,337,0,0,0,0,0,0,0,0,0,-1,601,687,0,0
-616,337,0,0,0,0,0,0,0,0,0,-1,608,687,0,0
-609,337,0,0,0,0,0,0,0,0,0,-1,615,687,0,0
-602,337,0,0,0,0,0,0,0,0,0,-1,622,687,0,0
-595,337,0,0,0,0,0,0,0,0,0,-1,629,687,0,0
-588,337,-10.8413,1.27863,0,0,0,0,0,0,0,-1,636,687,-10.8413,-1.27861
-581,337,-11.2157,1.31567,0,0,0,0,0,0,0,-1,643,687,-11.2157,-1.3157
-574,337,-6.03339,2.0321,0,0,0,0,0,0,0,-1,650,687,-6.03337,-2.03213
-567,337,-13.8102,1.56787,0,0,0,0,0,0,0,-1,657,687,-13.8102,-1.56789
-560,337,-15.5435,2.34247,0,0,0,0,0,0,0,-1,664,687,-15.5435,-2.34247
-553,337,-15.2958,0.644409,0,0,0,0,0,0,0,-1,671,687,-15.2958,-0.644399
-546,337,-14.853,-0.887756,0.00985479,0.0134513,-0.0106136,0.0224179,0.000888226,-0.869316,0.0146581,0.0448716,678,687,-14.853,0.887761
-539,337,-14.2919,-2.41321,0,0,0,0,0,0,0,-1,685,687,-14.2919,2.41323
-532,337,-14.2703,-3.10883,0.00524975,0.00612703,-0.00487569,0.0105838,0.000793007,-0.83026,0.00680693,0.027545,692,687,-14.2703,3.1088
-525,337,-14.3708,-3.64441,0.00381458,0.00371444,-0.00303325,0.00679817,0.000730852,-0.777146,0.00430921,0.0163803,699,687,-14.3708,3.64442
-518,337,-14.3756,-4.17993,0.00279612,0.00195424,-0.00172049,0.00414642,0.000603944,-0.665424,0.00258658,0.0235977,706,687,-14.3756,4.17992
-511,337,-14.4227,-4.75781,0.00217537,0.000833778,-0.000894428,0.00262259,0.000386554,-0.463657,0.00163485,0.023444,713,687,-14.4227,4.75784
-504,337,-14.3898,-5.33478,0.00184707,0.000165002,-0.000427742,0.0019496,6.24779e-05,-0.235248,0.00127941,0.0230655,720,687,-14.3898,5.3348
-497,337,-14.3719,-5.84247,0.00182692,-4.00933e-05,-0.000319139,0.00187997,-9.31384e-05,-0.164707,0.00128548,0.0169602,727,687,-14.3719,5.84246
-490,337,-14.402,-6.36938,0.00198781,6.68535e-05,-0.000479426,0.00210082,-4.6152e-05,-0.231485,0.00141618,0.0144987,734,687,-14.402,6.3694
-483,337,-14.4093,-6.91449,0.00247297,0.000638901,-0.00100679,0.00291777,0.00019411,-0.416008,0.00188381,0.0145983,741,687,-14.4093,6.91448
-476,337,-14.421,-7.45081,0.00306449,0.00140453,-0.00169046,0.00411774,0.000351285,-0.557196,0.00263588,0.0144986,748,687,-14.4209,7.4508
-469,337,-14.3924,-8.13098,0.00385052,0.00215044,-0.00250735,0.005648,0.00035296,-0.621969,0.00365337,0.0477252,755,687,-14.3924,8.13097
-462,337,-13.9921,-8.6875,0,0,0,0,0,0,0,-1,762,687,-13.9921,8.68748
-455,337,-6.00574,-3.12933,0,0,0,0,0,0,0,-1,769,687,-6.00576,3.12934
-448,337,-5.30627,-2.07202,0,0,0,0,0,0,0,-1,776,687,-5.30628,2.07205
-441,337,-4.24762,-1.49597,0,0,0,0,0,0,0,-1,783,687,-4.24762,1.49598
-434,337,-6.86908,1.37531,0,0,0,0,0,0,0,-1,790,687,-6.86908,-1.3753
-427,337,-9.92004,2.487,0,0,0,0,0,0,0,-1,797,687,-9.92002,-2.48701
-420,337,-2.95996,-1.76697,0,0,0,0,0,0,0,-1,804,687,-2.95998,1.76696
-413,337,-1.29169,-1.99487,0,0,0,0,0,0,0,-1,811,687,-1.29171,1.9949
-406,337,-1.02356,-1.89563,0,0,0,0,0,0,0,-1,818,687,-1.02357,1.89564
-399,337,-0.472839,-2.21338,0,0,0,0,0,0,0,-1,825,687,-0.472837,2.2134
-392,337,0,0,0,0,0,0,0,0,0,-1,832,687,0,0
-385,337,0,0,0,0,0,0,0,0,0,-1,839,687,0,0
-378,337,0,0,0,0,0,0,0,0,0,-1,846,687,0,0
-371,337,0,0,0,0,0,0,0,0,0,-1,853,687,0,0
-364,337,0,0,0,0,0,0,0,0,0,-1,860,687,0,0
-357,337,0,0,0,0,0,0,0,0,0,-1,867,687,0,0
-350,337,0,0,0,0,0,0,0,0,0,-1,874,687,0,0
-343,337,0,0,0,0,0,0,0,0,0,-1,881,687,0,0
-336,337,0,0,0,0,0,0,0,0,0,-1,888,687,0,0
-329,337,0,0,0,0,0,0,0,0,0,-1,895,687,0,0
-322,337,0,0,0,0,0,0,0,0,0,-1,902,687,0,0
-315,337,0,0,0,0,0,0,0,0,0,-1,909,687,0,0
-308,337,0,0,0,0,0,0,0,0,0,-1,916,687,0,0
-301,337,0,0,0,0,0,0,0,0,0,-1,923,687,0,0
-294,337,0,0,0,0,0,0,0,0,0,-1,930,687,0,0
-287,337,0,0,0,0,0,0,0,0,0,-1,937,687,0,0
-280,337,0,0,0,0,0,0,0,0,0,-1,944,687,0,0
-273,337,0,0,0,0,0,0,0,0,0,-1,951,687,0,0
-266,337,0,0,0,0,0,0,0,0,0,-1,958,687,0,0
-259,337,0,0,0,0,0,0,0,0,0,-1,965,687,0,0
-252,337,0,0,0,0,0,0,0,0,0,-1,972,687,0,0
-245,337,0,0,0,0,0,0,0,0,0,-1,979,687,0,0
-238,337,0,0,0,0,0,0,0,0,0,-1,986,687,0,0
-231,337,0,0,0,0,0,0,0,0,0,-1,993,687,0,0
-224,337,0,0,0,0,0,0,0,0,0,-1,1000,687,0,0
-217,337,0,0,0,0,0,0,0,0,0,-1,1007,687,0,0
-210,337,0,0,0,0,0,0,0,0,0,-1,1014,687,0,0
-203,337,0,0,0,0,0,0,0,0,0,-1,1021,687,0,0
-196,337,0,0,0,0,0,0,0,0,0,-1,1028,687,0,0
-189,337,0,0,0,0,0,0,0,0,0,-1,1035,687,0,0
-182,337,0,0,0,0,0,0,0,0,0,-1,1042,687,0,0
-175,337,0,0,0,0,0,0,0,0,0,-1,1049,687,0,0
-168,337,0,0,0,0,0,0,0,0,0,-1,1056,687,0,0
-161,337,0,0,0,0,0,0,0,0,0,-1,1063,687,0,0
-154,337,0,0,0,0,0,0,0,0,0,-1,1070,687,0,0
-147,337,0,0,0,0,0,0,0,0,0,-1,1077,687,0,0
-140,337,0,0,0,0,0,0,0,0,0,-1,1084,687,0,0
-133,337,0,0,0,0,0,0,0,0,0,-1,1091,687,0,0
-126,337,0,0,0,0,0,0,0,0,0,-1,1098,687,0,0
-119,337,0,0,0,0,0,0,0,0,0,-1,1105,687,0,0
-112,337,0,0,0,0,0,0,0,0,0,-1,1112,687,0,0
-105,337,0,0,0,0,0,0,0,0,0,-1,1119,687,0,0
-98,337,0,0,0,0,0,0,0,0,0,-1,1126,687,0,0
-91,337,0,0,0,0,0,0,0,0,0,-1,1133,687,0,0
-84,337,0,0,0,0,0,0,0,0,0,-1,1140,687,0,0
-77,337,0,0,0,0,0,0,0,0,0,-1,1147,687,0,0
-70,337,0,0,0,0,0,0,0,0,0,-1,1154,687,0,0
-63,337,0,0,0,0,0,0,0,0,0,-1,1161,687,0,0
-56,337,0,0,0,0,0,0,0,0,0,-1,1168,687,0,0
-49,337,0,0,0,0,0,0,0,0,0,-1,1175,687,0,0
-42,337,0,0,0,0,0,0,0,0,0,-1,1182,687,0,0
-35,337,0,0,0,0,0,0,0,0,0,-1,1189,687,0,0
-28,337,0,0,0,0,0,0,0,0,0,-1,1196,687,0,0
-21,337,0,0,0,0,0,0,0,0,0,-1,1203,687,0,0
-14,337,0,0,0,0,0,0,0,0,0,-1,1210,687,0,0
-7,337,0,0,0,0,0,0,0,0,0,-1,1217,687,0,0
0,337,0,0,0,0,0,0,0,0,0,-1,1224,687,0,0
7,337,0,0,0,0,0,0,0,0,0,-1,1231,687,0,0
14,337,0,0,0,0,0,0,0,0,0,-1,1238,687,0,0
21,337,0,0,0,0,0,0,0,0,0,-1,1245,687,0,0
28,337,0,0,0,0,0,0,0,0,0,-1,1252,687,0,0
35,337,0,0,0,0,0,0,0,0,0,-1,1259,687,0,0
42,337,0,0,0,0,0,0,0,0,0,-1,1266,687,0,0
49,337,0,0,0,0,0,0,0,0,0,-1,1273,687,0,0
56,337,0,0,0,0,0,0,0,0,0,-1,1280,687,0,0
63,337,0,0,0,0,0,0,0,0,0,-1,1287,687,0,0
70,337,0,0,0,0,0,0,0,0,0,-1,1294,687,0,0
77,337,0,0,0,0,0,0,0,0,0,-1,1301,687,0,0
84,337,0,0,0,0,0,0,0,0,0,-1,1308,687,0,0
91,337,0,0,0,0,0,0,0,0,0,-1,1315,687,0,0
98,337,0,0,0,0,0,0,0,0,0,-1,1322,687,0,0
105,337,0,0,0,0,0,0,0,0,0,-1,1329,687,0,0
112,337,0,0,0,0,0,0,0,0,0,-1,1336,687,0,0
119,337,0,0,0,0,0,0,0,0,0,-1,1343,687,0,0
126,337,0,0,0,0,0,0,0,0,0,-1,1350,687,0,0
133,337,0,0,0,0,0,0,0,0,0,-1,1357,687,0,0
140,337,0,0,0,0,0,0,0,0,0,-1,1364,687,0,0
147,337,0,0,0,0,0,0,0,0,0,-1,1371,687,0,0
154,337,0,0,0,0,0,0,0,0,0,-1,1378,687,0,0
161,337,0,0,0,0,0,0,0,0,0,-1,1385,687,0,0
168,337,0,0,0,0,0,0,0,0,0,-1,1392,687,0,0
175,337,0,0,0,0,0,0,0,0,0,-1,1399,687,0,0
182,337,0,0,0,0,0,0,0,0,0,-1,1406,687,0,0
189,337,0,0,0,0,0,0,0,0,0,-1,1413,687,0,0
196,337,0,0,0,0,0,0,0,0,0,-1,1420,687,0,0
203,337,0,0,0,0,0,0,0,0,0,-1,1427,687,0,0
210,337,0,0,0,0,0,0,0,0,0,-1,1434,687,0,0
217,337,0,0,0,0,0,0,0,0,0,-1,1441,687,0,0
224,337,0,0,0,0,0,0,0,0,0,-1,1448,687,0,0
231,337,0,0,0,0,0,0,0,0,0,-1,1455,687,0,0
238,337,0,0,0,0,0,0,0,0,0,-1,1462,687,0,0
245,337,0,0,0,0,0,0,0,0,0,-1,1469,687,0,0
252,337,0,0,0,0,0,0,0,0,0,-1,1476,687,0,0
259,337,0,0,0,0,0,0,0,0,0,-1,1483,687,0,0
266,337,0,0,0,0,0,0,0,0,0,-1,1490,687,0,0
273,337,0,0,0,0,0,0,0,0,0,-1,1497,687,0,0
280,337,0,0,0,0,0,0,0,0,0,-1,1504,687,0,0
287,337,0,0,0,0,0,0,0,0,0,-1,1511,687,0,0
294,337,0,0,0,0,0,0,0,0,0,-1,1518,687,0,0
301,337,0,0,0,0,0,0,0,0,0,-1,1525,687,0,0
308,337,0,0,0,0,0,0,0,0,0,-1,1532,687,0,0
315,337,0,0,0,0,0,0,0,0,0,-1,1539,687,0,0
322,337,0,0,0,0,0,0,0,0,0,-1,1546,687,0,0
329,337,0,0,0,0,0,0,0,0,0,-1,1553,687,0,0
336,337,0,0,0,0,0,0,0,0,0,-1,1560,687,0,0
343,337,0,0,0,0,0,0,0,0,0,-1,1567,687,0,0
350,337,0,0,0,0,0,0,0,0,0,-1,1574,687,0,0
357,337,0,0,0,0,0,0,0,0,0,-1,1581,687,0,0
364,337,0,0,0,0,0,0,0,0,0,-1,1588,687,0,0
371,337,0,0,0,0,0,0,0,0,0,-1,1595,687,0,0
378,337,0,0,0,0,0,0,0,0,0,-1,1602,687,0,0
385,337,0,0,0,0,0,0,0,0,0,-1,1609,687,0,0
392,337,0,0,0,0,0,0,0,0,0,-1,1616,687,0,0
399,337,0,0,0,0,0,0,0,0,0,-1,1623,687,0,0
406,337,0,0,0,0,0,0,0,0,0,-1,1630,687,0,0
413,337,0,0,0,0,0,0,0,0,0,-1,1637,687,0,0
420,337,0,0,0,0,0,0,0,0,0,-1,1644,687,0,0
427,337,0,0,0,0,0,0,0,0,0,-1,1651,687,0,0
434,337,0,0,0,0,0,0,0,0,0,-1,1658,687,0,0
441,337,0,0,0,0,0,0,0,0,0,-1,1665,687,0,0
448,337,0,0,0,0,0,0,0,0,0,-1,1672,687,0,0
455,337,0,0,0,0,0,0,0,0,0,-1,1679,687,0,0
462,337,0,0,0,0,0,0,0,0,0,-1,1686,687,0,0
469,337,0,0,0,0,0,0,0,0,0,-1,1693,687,0,0
476,337,0,0,0,0,0,0,0,0,0,-1,1700,687,0,0
483,337,0,0,0,0,0,0,0,0,0,-1,1707,687,0,0
490,337,0,0,0,0,0,0,0,0,0,-1,1714,687,0,0
497,337,0,0,0,0,0,0,0,0,0,-1,1721,687,0,0
504,337,0,0,0,0,0,0,0,0,0,-1,1728,687,0,0
511,337,0,0,0,0,0,0,0,0,0,-1,1735,687,0,0
518,337,18.0369,1.64581,0,0,0,0,0,0,0,-1,1742,687,18.0368,-1.64581
525,337,31.0717,2.13745,0,0,0,0,0,0,0,-1,1749,687,31.0717,-2.13747
532,337,31.5126,2.13904,0,0,0,0,0,0,0,-1,1756,687,31.5125,-2.13905
539,337,31.9684,2.15594,0,0,0,0,0,0,0,-1,1763,687,31.9684,-2.15596
546,337,32.3584,1.43719,0,0,0,0,0,0,0,-1,1770,687,32.3585,-1.43722
553,337,32.1809,1.36395,0,0,0,0,0,0,0,-1,1777,687,32.181,-1.36396
560,337,18.4053,3.62793,0,0,0,0,0,0,0,-1,1784,687,18.4052,-3.6279
567,337,11.9288,1.38776,0,0,0,0,0,0,0,-1,1791,687,11.9288,-1.38777
574,337,10.704,1.19476,0,0,0,0,0,0,0,-1,1798,687,10.704,-1.19478
581,337,8.50427,0.561768,0,0,0,0,0,0,0,-1,1805,687,8.5043,-0.561754
588,337,8.5885,-0.0536499,0,0,0,0,0,0,0,-1,1812,687,8.58844,0.0536788
595,337,13.8816,-1.70703,0,0,0,0,0,0,0,-1,1819,687,13.8816,1.70702
602,337,24.3082,-5.78033,0,0,0,0,0,0,0,-1,1826,687,24.3082,5.78033
609,337,24.3174,-5.15039,-0.00132282,0.0025259,0.000912633,0.00273134,-0.00152827,1.34938,0.00249177,0.0284741,1833,687,24.3174,5.15037
616,337,24.2639,-4.59961,0.000275087,0.000870039,0.000300433,0.000995354,0.000149773,1.17562,0.000619707,0.0181344,1840,687,24.264,4.59959
623,337,24.2698,-4.0683,0.00102423,0.000502012,0.000433323,0.00126903,0.000257208,0.514245,0.000774651,0.0155929,1847,687,24.2698,4.06831
630,337,24.2565,-3.49725,0.000856665,0.000619136,0.00054095,0.00129173,0.000184067,0.677339,0.00080683,0.0198091,1854,687,24.2565,3.49725
637,337,24.2351,-2.93573,0.000413924,0.00072723,0.00053442,0.00112748,1.36697e-05,0.927968,0.000747141,0.0181339,1861,687,24.2351,2.93572
644,337,24.2007,-2.35864,-0.000242805,0.000789764,0.000455037,0.000961671,-0.000414712,1.20958,0.000815302,0.0115251,1868,687,24.2007,2.35862
651,337,24.1616,-1.80145,-0.0012169,0.000909993,0.000299896,0.00095147,-0.00125837,1.43336,0.00127995,0.00982619,1875,687,24.1616,1.80144
658,337,24.1638,-1.23132,-0.00258944,0.000959148,-3.5641e-06,0.000959152,-0.00258944,-1.56979,0.00211963,0.012414,1882,687,24.1638,1.23131
665,337,24.1638,-0.671021,-0.00451,0.000941607,-0.000486334,0.000984652,-0.00455305,-1.48252,0.00341129,0.0157051,1889,687,24.1638,0.670999
672,337,24.1346,-0.173401,-0.00716866,0.000727161,-0.00136365,0.000956038,-0.00739753,-1.40451,0.0052793,0.0315068,1896,687,24.1346,0.173418
679,337,24.4059,0.274109,0,0,0,0,0,0,0,-1,1903,687,24.4059,-0.274091
686,337,18.5614,1.68597,0,0,0,0,0,0,0,-1,1910,687,18.5614,-1.68598
693,337,16.5415,2.21411,0,0,0,0,0,0,0,-1,1917,687,16.5415,-2.2141
700,337,17.2661,2.44379,0,0,0,0,0,0,0,-1,1924,687,17.2661,-2.44378
707,337,17.3544,5.61853,0,0,0,0,0,0,0,-1,1931,687,17.3543,-5.61851
714,337,0,0,0,0,0,0,0,0,0,-1,1938,687,0,0
721,337,0,0,0,0,0,0,0,0,0,-1,1945,687,0,0
728,337,0,0,0,0,0,0,0,0,0,-1,1952,687,0,0
735,337,0,0,0,0,0,0,0,0,0,-1,1959,687,0,0
742,337,0,0,0,0,0,0,0,0,0,-1,1966,687,0,0
749,337,0,0,0,0,0,0,0,0,0,-1,1973,687,0,0
756,337,0,0,0,0,0,0,0,0,0,-1,1980,687,0,0
763,337,0,0,0,0,0,0,0,0,0,-1,1987,687,0,0
770,337,0,0,0,0,0,0,0,0,0,-1,1994,687,0,0
777,337,0,0,0,0,0,0,0,0,0,-1,2001,687,0,0
784,337,0,0,0,0,0,0,0,0,0,-1,2008,687,0,0
791,337,0,0,0,0,0,0,0,0,0,-1,2015,687,0,0
798,337,0,0,0,0,0,0,0,0,0,-1,2022,687,0,0
805,337,0,0,0,0,0,0,0,0,0,-1,2029,687,0,0
812,337,0,0,0,0,0,0,0,0,0,-1,2036,687,0,0
-700,330,0,0,0,0,0,0,0,0,0,-1,524,694,0,0
-693,330,0,0,0,0,0,0,0,0,0,-1,531,694,0,0
-686,330,0,0,0,0,0,0,0,0,0,-1,538,694,0,0
-679,330,0,0,0,0,0,0,0,0,0,-1,545,694,0,0
-672,330,0,0,0,0,0,0,0,0,0,-1,552,694,0,0
-665,330,0,0,0,0,0,0,0,0,0,-1,559,694,0,0
-658,330,0,0,0,0,0,0,0,0,0,-1,566,694,0,0
-651,330,0,0,0,0,0,0,0,0,0,-1,573,694,0,0
-644,330,0,0,0,0,0,0,0,0,0,-1,580,694,0,0
-637,330,0,0,0,0,0,0,0,0,0,-1,587,694,0,0
-630,330,0,0,0,0,0,0,0,0,0,-1,594,694,0,0
-623,330,0,0,0,0,0,0,0,0,0,-1,601,694,0,0
-616,330,0,0,0,0,0,0,0,0,0,-1,608,694,0,0
-609,330,0,0,0,0,0,0,0,0,0,-1,615,694,0,0
-602,330,0,0,0,0,0,0,0,0,0,-1,622,694,0,0
-595,330,-4.67883,1.65515,0,0,0,0,0,0,0,-1,629,694,-4.67881,-1.65515
-588,330,-8.5047,2.67346,0,0,0,0,0,0,0,-1,636,694,-8.50469,-2.67348
-581,330,-12.4227,0.947083,0,0,0,0,0,0,0,-1,643,694,-12.4227,-0.947109
-574,330,-9.02118,1.87952,0,0,0,0,0,0,0,-1,650,694,-9.02115,-1.87953
-567,330,-8.35577,0.909973,0,0,0,0,0,0,0,-1,657,694,-8.35575,-0.909945
-560,330,-13.1036,-0.584656,0,0,0,0,0,0,0,-1,664,694,-13.1035,0.584658
-553,330,-14.8167,-1.06445,0,0,0,0,0,0,0,-1,671,694,-14.8166,1.06444
-546,330,-14.7398,-1.81812,0,0,0,0,0,0,0,-1,678,694,-14.7398,1.81812
-539,330,-14.9396,-2.46375,0,0,0,0,0,0,0,-1,685,694,-14.9396,2.46374
-532,330,-14.9102,-3.08478,0.0038017,0.00462414,-0.00349272,0.00772976,0.000696074,-0.843997,0.00493753,0.0146244,692,694,-14.9102,3.0848
-525,330,-14.8885,-3.67291,0.0029079,0.00276458,-0.00216289,0.00500031,0.00067217,-0.768839,0.00313361,0.0108698,699,694,-14.8885,3.67292
-518,330,-14.9005,-4.17889,0.00228425,0.00141004,-0.00119747,0.0031219,0.000572389,-0.6104,0.00191913,0.0143355,706,694,-14.9005,4.17891
-511,330,-14.9563,-4.73944,0.00192462,0.000497518,-0.000561355,0.00211896,0.000303173,-0.333291,0.00132321,0.0187875,713,694,-14.9563,4.73945
-504,330,-14.9476,-5.30975,0.00177669,-3.8743e-05,-0.000191747,0.00179672,-5.87744e-05,-0.10409,0.00121788,0.017973,720,694,-14.9476,5.30973
-497,330,-14.9423,-5.80554,0.00187074,-0.000173917,-0.000116968,0.00187741,-0.000180586,-0.0569591,0.00131594,0.0137986,727,694,-14.9423,5.80552
-490,330,-14.9371,-6.33838,0.00230475,0.000209637,-0.000477572,0.00240847,0.000105912,-0.213872,0.00157153,0.0136484,734,694,-14.9371,6.33836
-483,330,-14.9496,-6.89777,0.00290658,0.000850027,-0.00101806,0.0033253,0.000431305,-0.390204,0.002088,0.0138978,741,694,-14.9496,6.89776
-476,330,-14.9312,-7.43939,0.00362003,0.0017448,-0.00177918,0.00469354,0.000671295,-0.542895,0.002931,0.0421127,748,694,-14.9312,7.43941
-469,330,-14.6863,-8.12445,0,0,0,0,0,0,0,-1,755,694,-14.6863,8.12443
-462,330,-7.26733,-3.84833,0,0,0,0,0,0,0,-1,762,694,-7.26731,3.84832
-455,330,-5.04254,-1.79303,0,0,0,0,0,0,0,-1,769,694,-5.04252,1.79305
-448,330,-4.89886,-1.66156,0,0,0,0,0,0,0,-1,776,694,-4.89886,1.66157
-441,330,-5.30676,-2.34045,0,0,0,0,0,0,0,-1,783,694,-5.30679,2.34048
-434,330,-7.20428,1.00024,0,0,0,0,0,0,0,-1,790,694,-7.20431,-1.00027
-427,330,-16.0428,2.89258,0,0,0,0,0,0,0,-1,797,694,-16.0428,-2.89259
-420,330,-29.0331,0.271606,0,0,0,0,0,0,0,-1,804,694,-29.0331,-0.27158
-413,330,-29.0896,0.56366,0,0,0,0,0,0,0,-1,811,694,-29.0896,-0.563671
-406,330,-1.65375,-1.74371,0,0,0,0,0,0,0,-1,818,694,-1.65375,1.74371
-399,330,0,0,0,0,0,0,0,0,0,-1,825,694,0,0
-392,330,0,0,0,0,0,0,0,0,0,-1,832,694,0,0
-385,330,0,0,0,0,0,0,0,0,0,-1,839,694,0,0
-378,330,0,0,0,0,0,0,0,0,0,-1,846,694,0,0
-371,330,0,0,0,0,0,0,0,0,0,-1,853,694,0,0
-364,330,0,0,0,0,0,0,0,0,0,-1,860,694,0,0
-357,330,0,0,0,0,0,0,0,0,0,-1,867,694,0,0
-350,330,0,0,0,0,0,0,0,0,0,-1,874,694,0,0
-343,330,0,0,0,0,0,0,0,0,0,-1,881,694,0,0
-336,330,0,0,0,0,0,0,0,0,0,-1,888,694,0,0
-329,330,0,0,0,0,0,0,0,0,0,-1,895,694,0,0
-322,330,0,0,0,0,0,0,0,0,0,-1,902,694,0,0
-315,330,0,0,0,0,0,0,0,0,0,-1,909,694,0,0
-308,330,0,0,0,0,0,0,0,0,0,-1,916,694,0,0
-301,330,0,0,0,0,0,0,0,0,0,-1,923,694,0,0
-294,330,0,0,0,0,0,0,0,0,0,-1,930,694,0,0
-287,330,0,0,0,0,0,0,0,0,0,-1,937,694,0,0
-280,330,0,0,0,0,0,0,0,0,0,-1,944,694,0,0
-273,330,0,0,0,0,0,0,0,0,0,-1,951,694,0,0
-266,330,0,0,0,0,0,0,0,0,0,-1,958,694,0,0
-259,330,0,0,0,0,0,0,0,0,0,-1,965,694,0,0
-252,330,0,0,0,0,0,0,0,0,0,-1,972,694,0,0
-245,330,0,0,0,0,0,0,0,0,0,-1,979,694,0,0
-238,330,0,0,0,0,0,0,0,0,0,-1,986,694,0,0
-231,330,0,0,0,0,0,0,0,0,0,-1,993,694,0,0
-224,330,0,0,0,0,0,0,0,0,0,-1,1000,694,0,0
-217,330,0,0,0,0,0,0,0,0,0,-1,1007,694,0,0
-210,330,0,0,0,0,0,0,0,0,0,-1,1014,694,0,0
-203,330,0,0,0,0,0,0,0,0,0,-1,1021,694,0,0
-196,330,0,0,0,0,0,0,0,0,0,-1,1028,694,0,0
-189,330,0,0,0,0,0,0,0,0,0,-1,1035,694,0,0
-182,330,0,0,0,0,0,0,0,0,0,-1,1042,694,0,0
-175,330,0,0,0,0,0,0,0,0,0,-1,1049,694,0,0
-168,330,0,0,0,0,0,0,0,0,0,-1,1056,694,0,0
-161,330,0,0,0,0,0,0,0,0,0,-1,1063,694,0,0
-154,330,0,0,0,0,0,0,0,0,0,-1,1070,694,0,0
-147,330,0,0,0,0,0,0,0,0,0,-1,1077,694,0,0
-140,330,0,0,0,0,0,0,0,0,0,-1,1084,694,0,0
-133,330,0,0,0,0,0,0,0,0,0,-1,1091,694,0,0
-126,330,0,0,0,0,0,0,0,0,0,-1,1098,694,0,0
-119,330,0,0,0,0,0,0,0,0,0,-1,1105,694,0,0
-112,330,0,0,0,0,0,0,0,0,0,-1,1112,694,0,0
-105,330,0,0,0,0,0,0,0,0,0,-1,1119,694,0,0
-98,330,0,0,0,0,0,0,0,0,0,-1,1126,694,0,0
-91,330,0,0,0,0,0,0,0,0,0,-1,1133,694,0,0
-84,330,0,0,0,0,0,0,0,0,0,-1,1140,694,0,0
-77,330,0,0,0,0,0,0,0,0,0,-1,1147,694,0,0
-70,330,0,0,0,0,0,0,0,0,0,-1,1154,694,0,0
-63,330,0,0,0,0,0,0,0,0,0,-1,1161,694,0,0
-56,330,0,0,0,0,0,0,0,0,0,-1,1168,694,0,0
-49,330,0,0,0,0,0,0,0,0,0,-1,1175,694,0,0
-42,330,0,0,0,0,0,0,0,0,0,-1,1182,694,0,0
-35,330,0,0,0,0,0,0,0,0,0,-1,1189,694,0,0
-28,330,0,0,0,0,0,0,0,0,0,-1,1196,694,0,0
-21,330,0,0,0,0,0,0,0,0,0,-1,1203,694,0,0
-14,330,0,0,0,0,0,0,0,0,0,-1,1210,694,0,0
-7,330,0,0,0,0,0,0,0,0,0,-1,1217,694,0,0
0,330,0,0,0,0,0,0,0,0,0,-1,1224,694,0,0
7,330,0,0,0,0,0,0,0,0,0,-1,1231,694,0,0
14,330,0,0,0,0,0,0,0,0,0,-1,1238,694,0,0
21,330,0,0,0,0,0,0,0,0,0,-1,1245,694,0,0
28,330,0,0,0,0,0,0,0,0,0,-1,1252,694,0,0
35,330,0,0,0,0,0,0,0,0,0,-1,1259,694,0,0
42,330,0,0,0,0,0,0,0,0,0,-1,1266,694,0,0
49,330,0,0,0,0,0,0,0,0,0,-1,1273,694,0,0
56,330,0,0,0,0,0,0,0,0,0,-1,1280,694,0,0
63,330,0,0,0,0,0,0,0,0,0,-1,1287,694,0,0
70,330,0,0,0,0,0,0,0,0,0,-1,1294,694,0,0
77,330,0,0,0,0,0,0,0,0,0,-1,1301,694,0,0
84,330,0,0,0,0,0,0,0,0,0,-1,1308,694,0,0
91,330,0,0,0,0,0,0,0,0,0,-1,1315,694,0,0
98,330,0,0,0,0,0,0,0,0,0,-1,1322,694,0,0
105,330,0,0,0,0,0,0,0,0,0,-1,1329,694,0,0
112,330,0,0,0,0,0,0,0,0,0,-1,1336,694,0,0
119,330,0,0,0,0,0,0,0,0,0,-1,1343,694,0,0
126,330,0,0,0,0,0,0,0,0,0,-1,1350,694,0,0
133,330,0,0,0,0,0,0,0,0,0,-1,1357,694,0,0
140,330,0,0,0,0,0,0,0,0,0,-1,1364,694,0,0
147,330,0,0,0,0,0,0,0,0,0,-1,1371,694,0,0
154,330,0,0,0,0,0,0,0,0,0,-1,1378,694,0,0
161,330,0,0,0,0,0,0,0,0,0,-1,1385,694,0,0
168,330,0,0,0,0,0,0,0,0,0,-1,1392,694,0,0
175,330,0,0,0,0,0,0,0,0,0,-1,1399,694,0,0
182,330,0,0,0,0,0,0,0,0,0,-1,1406,694,0,0
189,330,0,0,0,0,0,0,0,0,0,-1,1413,694,0,0
196,330,0,0,0,0,0,0,0,0,0,-1,1420,694,0,0
203,330,0,0,0,0,0,0,0,0,0,-1,1427,694,0,0
210,330,0,0,0,0,0,0,0,0,0,-1,1434,694,0,0
217,330,0,0,0,0,0,0,0,0,0,-1,1441,694,0,0
224,330,0,0,0,0,0,0,0,0,0,-1,1448,694,0,0
231,330,0,0,0,0,0,0,0,0,0,-1,1455,694,0,0
238,330,0,0,0,0,0,0,0,0,0,-1,1462,694,0,0
245,330,0,0,0,0,0,0,0,0,0,-1,1469,694,0,0
252,330,0,0,0,0,0,0,0,0,0,-1,1476,694,0,0
259,330,0,0,0,0,0,0,0,0,0,-1,1483,694,0,0
266,330,0,0,0,0,0,0,0,0,0,-1,1490,694,0,0
273,330,0,0,0,0,0,0,0,0,0,-1,1497,694,0,0
280,330,0,0,0,0,0,0,0,0,0,-1,1504,694,0,0
287,330,0,0,0,0,0,0,0,0,0,-1,1511,694,0,0
294,330,0,0,0,0,0,0,0,0,0,-1,1518,694,0,0
301,330,0,0,0,0,0,0,0,0,0,-1,1525,694,0,0
308,330,0,0,0,0,0,0,0,0,0,-1,1532,694,0,0
315,330,0,0,0,0,0,0,0,0,0,-1,1539,694,0,0
322,330,0,0,0,0,0,0,0,0,0,-1,1546,694,0,0
329,330,0,0,0,0,0,0,0,0,0,-1,1553,694,0,0
336,330,0,0,0,0,0,0,0,0,0,-1,1560,694,0,0
343,330,0,0,0,0,0,0,0,0,0,-1,1567,694,0,0
350,330,0,0,0,0,0,0,0,0,0,-1,1574,694,0,0
357,330,0,0,0,0,0,0,0,0,0,-1,1581,694,0,0
364,330,0,0,0,0,0,0,0,0,0,-1,1588,694,0,0
371,330,0,0,0,0,0,0,0,0,0,-1,1595,694,0,0
378,330,0,0,0,0,0,0,0,0,0,-1,1602,694,0,0
385,330,0,0,0,0,0,0,0,0,0,-1,1609,694,0,0
392,330,0,0,0,0,0,0,0,0,0,-1,1616,694,0,0
399,330,0,0,0,0,0,0,0,0,0,-1,1623,694,0,0
406,330,0,0,0,0,0,0,0,0,0,-1,1630,694,0,0
413,330,0,0,0,0,0,0,0,0,0,-1,1637,694,0,0
420,330,0,0,0,0,0,0,0,0,0,-1,1644,694,0,0
427,330,0,0,0,0,0,0,0,0,0,-1,1651,694,0,0
434,330,0,0,0,0,0,0,0,0,0,-1,1658,694,0,0
441,330,0,0,0,0,0,0,0,0,0,-1,1665,694,0,0
448,330,0,0,0,0,0,0,0,0,0,-1,1672,694,0,0
455,330,0,0,0,0,0,0,0,0,0,-1,1679,694,0,0
462,330,0,0,0,0,0,0,0,0,0,-1,1686,694,0,0
469,330,0,0,0,0,0,0,0,0,0,-1,1693,694,0,0
476,330,0,0,0,0,0,0,0,0,0,-1,1700,694,0,0
483,330,0,0,0,0,0,0,0,0,0,-1,1707,694,0,0
490,330,0,0,0,0,0,0,0,0,0,-1,1714,694,0,0
497,330,0,0,0,0,0,0,0,0,0,-1,1721,694,0,0
504,330,0,0,0,0,0,0,0,0,0,-1,1728,694,0,0
511,330,0,0,0,0,0,0,0,0,0,-1,1735,694,0,0
518,330,0,0,0,0,0,0,0,0,0,-1,1742,694,0,0
525,330,30.6694,0.69519,0,0,0,0,0,0,0,-1,1749,694,30.6694,-0.695206
532,330,30.9469,1.32501,0,0,0,0,0,0,0,-1,1756,694,30.9469,-1.32501
539,330,31.5155,1.62506,0,0,0,0,0,0,0,-1,1763,694,31.5155,-1.62507
546,330,31.4187,1.85651,0,0,0,0,0,0,0,-1,1770,694,31.4187,-1.85651
553,330,31.8452,1.81476,0,0,0,0,0,0,0,-1,1777,694,31.8452,-1.81475
560,330,32.2401,2.43225,0,0,0,0,0,0,0,-1,1784,694,32.2401,-2.43227
567,330,18.0321,3.98578,0,0,0,0,0,0,0,-1,1791,694,18.0321,-3.98576
574,330,12.0454,2.1662,0,0,0,0,0,0,0,-1,1798,694,12.0455,-2.16618
581,330,11.4215,4.50836,0,0,0,0,0,0,0,-1,1805,694,11.4215,-4.50837
588,330,6.45667,-0.0630493,0,0,0,0,0,0,0,-1,1812,694,6.45661,0.0630695
595,330,8.23193,-0.258484,0,0,0,0,0,0,0,-1,1819,694,8.23188,0.258459
602,330,24.6661,-5.88031,0,0,0,0,0,0,0,-1,1826,694,24.6661,5.88031
609,330,24.7802,-5.18823,-0.00326547,0.00491925,0.00258065,0.00566499,-0.0040112,1.28949,0.00561368,0.0418741,1833,694,24.7802,5.18821
616,330,24.8297,-4.59656,-0.000794284,0.00212146,0.00122981,0.00257089,-0.00124372,1.22042,0.00224636,0.0122167,1840,694,24.8297,4.59653
623,330,24.8041,-4.04102,0.000652168,0.0009618,0.000930659,0.00175043,-0.000136464,0.867819,0.001215,0.0131889,1847,694,24.8041,4.041
630,330,24.8038,-3.45581,0.00066284,0.000694628,0.000707736,0.00138665,-2.91802e-05,0.796625,0.000934311,0.0133779,1854,694,24.8038,3.45579
637,330,24.808,-2.88678,0.000309185,0.000573167,0.000462975,0.000922598,-4.02461e-05,0.92426,0.00062891,0.012948,1861,694,24.808,2.88676
644,330,24.7594,-2.33154,-0.000347924,0.000503083,0.000290843,0.000592985,-0.000437826,1.271,0.000597382,0.00856745,1868,694,24.7594,2.33154
651,330,24.7338,-1.76398,-0.00132004,0.000636163,0.000115979,0.000643015,-0.00132689,1.51178,0.00115995,0.0109897,1875,694,24.7337,1.76401
658,330,24.7068,-1.18939,-0.00262791,0.000725594,-0.000175569,0.00073476,-0.00263708,-1.51863,0.0020474,0.01212,1882,694,24.7067,1.18941
665,330,24.6753,-0.62439,-0.00436199,0.000789117,-0.000601931,0.00085852,-0.00443139,-1.456,0.00327813,0.0110599,1889,694,24.6753,0.624409
672,330,24.7102,-0.0577393,-0.00667685,0.000763208,-0.00129996,0.000983802,-0.00689744,-1.4027,0.00495887,0.0234232,1896,694,24.7102,0.0577345
679,330,24.3781,0.436279,-0.00991087,0.000683029,-0.00225115,0.00114154,-0.0103694,-1.36987,0.00732315,0.0392481,1903,694,24.3781,-0.436278
686,330,24.0905,1.04315,0,0,0,0,0,0,0,-1,1910,694,24.0904,-1.04315
693,330,17.3999,2.5976,0,0,0,0,0,0,0,-1,1917,694,17.4,-2.59759
700,330,17.1072,4.13,0,0,0,0,0,0,0,-1,1924,694,17.1071,-4.13002
707,330,16.663,4.88672,0,0,0,0,0,0,0,-1,1931,694,16.6629,-4.88673
714,330,16.5454,5.80896,0,0,0,0,0,0,0,-1,1938,694,16.5454,-5.80899
721,330,0,0,0,0,0,0,0,0,0,-1,1945,694,0,0
728,330,0,0,0,0,0,0,0,0,0,-1,1952,694,0,0
735,330,0,0,0,0,0,0,0,0,0,-1,1959,694,0,0
742,330,0,0,0,0,0,0,0,0,0,-1,1966,694,0,0
749,330,0,0,0,0,0,0,0,0,0,-1,1973,694,0,0
756,330,0,0,0,0,0,0,0,0,0,-1,1980,694,0,0
763,330,0,0,0,0,0,0,0,0,0,-1,1987,694,0,0
770,330,0,0,0,0,0,0,0,0,0,-1,1994,694,0,0
777,330,0,0,0,0,0,0,0,0,0,-1,2001,694,0,0
784,330,0,0,0,0,0,0,0,0,0,-1,2008,694,0,0
791,330,0,0,0,0,0,0,0,0,0,-1,2015,694,0,0
798,330,0,0,0,0,0,0,0,0,0,-1,2022,694,0,0
805,330,0,0,0,0,0,0,0,0,0,-1,2029,694,0,0
812,330,0,0,0,0,0,0,0,0,0,-1,2036,694,0,0
-700,323,0,0,0,0,0,0,0,0,0,-1,524,701,0,0
-693,323,0,0,0,0,0,0,0,0,0,-1,531,701,0,0
-686,323,0,0,0,0,0,0,0,0,0,-1,538,701,0,0
-679,323,0,0,0,0,0,0,0,0,0,-1,545,701,0,0
-672,323,0,0,0,0,0,0,0,0,0,-1,552,701,0,0
-665,323,0,0,0,0,0,0,0,0,0,-1,559,701,0,0
-658,323,0,0,0,0,0,0,0,0,0,-1,566,701,0,0
-651,323,0,0,0,0,0,0,0,0,0,-1,573,701,0,0
-644,323,0,0,0,0,0,0,0,0,0,-1,580,701,0,0
-637,323,0,0,0,0,0,0,0,0,0,-1,587,701,0,0
-630,323,0,0,0,0,0,0,0,0,0,-1,594,701,0,0
-623,323,0,0,0,0,0,0,0,0,0,-1,601,701,0,0
-616,323,0,0,0,0,0,0,0,0,0,-1,608,701,0,0
-609,323,0,0,0,0,0,0,0,0,0,-1,615,701,0,0
-602,323,-4.15833,2.12256,0,0,0,0,0,0,0,-1,622,701,-4.1583,-2.12257
-595,323,-4.052,1.79156,0,0,0,0,0,0,0,-1,629,701,-4.05198,-1.79158
-588,323,-4.07019,1.94543,0,0,0,0,0,0,0,-1,636,701,-4.07019,-1.94542
-581,323,-6.63727,0.562805,0,0,0,0,0,0,0,-1,643,701,-6.63728,-0.56279
-574,323,-6.15887,0.426697,0,0,0,0,0,0,0,-1,650,701,-6.15887,-0.426727
-567,323,-10.0015,0.0371094,0,0,0,0,0,0,0,-1,657,701,-10.0015,-0.037126
-560,323,-15.553,-1.1842,0,0,0,0,0,0,0,-1,664,701,-15.553,1.18421
-553,323,-15.3901,-1.65918,0.00573442,0.00941869,-0.00636646,0.0142042,0.000948943,-0.926227,0.00916951,0.0457043,671,701,-15.3902,1.65921
-546,323,-15.3596,-2.01965,0.00451488,0.00696657,-0.00481023,0.0107047,0.000776753,-0.910164,0.00689215,0.0217033,678,701,-15.3596,2.01967
-539,323,-15.3517,-2.4895,0.00360659,0.00500791,-0.00346917,0.00784647,0.000768031,-0.885042,0.00499469,0.0184722,685,701,-15.3517,2.48952
-532,323,-15.3972,-3.07715,0.00290165,0.00334578,-0.00237146,0.00550555,0.000741881,-0.832083,0.00344977,0.0105375,692,701,-15.3972,3.07714
-525,323,-15.4244,-3.64539,0.00230425,0.00199445,-0.0014437,0.00360134,0.000697368,-0.731956,0.0022055,0.0080593,699,701,-15.4244,3.64536
-518,323,-15.4308,-4.15369,0.00192966,0.000942112,-0.000763454,0.0023451,0.00052667,-0.49835,0.00142077,0.00959242,706,701,-15.4309,4.15371
-511,323,-15.4672,-4.69482,0.0016661,7.3393e-06,-0.000292423,0.00171614,-4.27024e-05,-0.169486,0.00115859,0.0127628,713,701,-15.4672,4.6948
-504,323,-15.5024,-5.24255,0.00146417,-0.000778751,-5.71869e-06,0.00146418,-0.000778765,-0.00254964,0.00131497,0.0141663,720,701,-15.5024,5.24254
-497,323,-15.5032,-5.7605,0.00132884,-0.0014657,6.81642e-05,0.0013305,-0.00146736,0.0243726,0.00161599,0.011659,727,701,-15.5032,5.76049
-490,323,-15.5066,-6.28864,0.00147268,-0.00186693,-0.000368202,0.0015128,-0.00190705,-0.108516,0.00197882,0.0132821,734,701,-15.5066,6.28865
-483,323,-15.5059,-6.82184,0.00146347,-0.00260231,-0.00083445,0.00162807,-0.00276691,-0.194752,0.00256568,0.0261109,741,701,-15.5059,6.82183
-476,323,-15.3972,-7.47461,0,0,0,0,0,0,0,-1,748,701,-15.3972,7.4746
-469,323,-8.33301,-3.64001,0,0,0,0,0,0,0,-1,755,701,-8.33298,3.64
-462,323,-5.29431,-1.45697,0,0,0,0,0,0,0,-1,762,701,-5.29431,1.45699
-455,323,-5.0658,-1.36639,0,0,0,0,0,0,0,-1,769,701,-5.06578,1.3664
-448,323,-4.91608,-1.59601,0,0,0,0,0,0,0,-1,776,701,-4.91606,1.59604
-441,323,-14.4006,0.535217,0,0,0,0,0,0,0,-1,783,701,-14.4006,-0.535203
-434,323,-15.3158,2.479,0,0,0,0,0,0,0,-1,790,701,-15.3158,-2.47898
-427,323,-28.3923,1.16797,0,0,0,0,0,0,0,-1,797,701,-28.3923,-1.16796
-420,323,-28.7292,1.09302,0,0,0,0,0,0,0,-1,804,701,-28.7292,-1.09304
-413,323,-28.7955,1.22418,0,0,0,0,0,0,0,-1,811,701,-28.7956,-1.22419
-406,323,0,0,0,0,0,0,0,0,0,-1,818,701,0,0
-399,323,0,0,0,0,0,0,0,0,0,-1,825,701,0,0
-392,323,0,0,0,0,0,0,0,0,0,-1,832,701,0,0
-385,323,0,0,0,0,0,0,0,0,0,-1,839,701,0,0
-378,323,0,0,0,0,0,0,0,0,0,-1,846,701,0,0
-371,323,0,0,0,0,0,0,0,0,0,-1,853,701,0,0
-364,323,0,0,0,0,0,0,0,0,0,-1,860,701,0,0
-357,323,0,0,0,0,0,0,0,0,0,-1,867,701,0,0
-350,323,0,0,0,0,0,0,0,0,0,-1,874,701,0,0
-343,323,0,0,0,0,0,0,0,0,0,-1,881,701,0,0
-336,323,0,0,0,0,0,0,0,0,0,-1,888,701,0,0
-329,323,0,0,0,0,0,0,0,0,0,-1,895,701,0,0
-322,323,0,0,0,0,0,0,0,0,0,-1,902,701,0,0
-315,323,0,0,0,0,0,0,0,0,0,-1,909,701,0,0
-308,323,0,0,0,0,0,0,0,0,0,-1,916,701,0,0
-301,323,0,0,0,0,0,0,0,0,0,-1,923,701,0,0
-294,323,0,0,0,0,0,0,0,0,0,-1,930,701,0,0
-287,323,0,0,0,0,0,0,0,0,0,-1,937,701,0,0
-280,323,0,0,0,0,0,0,0,0,0,-1,944,701,0,0
-273,323,0,0,0,0,0,0,0,0,0,-1,951,701,0,0
-266,323,0,0,0,0,0,0,0,0,0,-1,958,701,0,0
-259,323,0,0,0,0,0,0,0,0,0,-1,965,701,0,0
-252,323,0,0,0,0,0,0,0,0,0,-1,972,701,0,0
-245,323,0,0,0,0,0,0,0,0,0,-1,979,701,0,0
-238,323,0,0,0,0,0,0,0,0,0,-1,986,701,0,0
-231,323,0,0,0,0,0,0,0,0,0,-1,993,701,0,0
-224,323,0,0,0,0,0,0,0,0,0,-1,1000,701,0,0
-217,323,0,0,0,0,0,0,0,0,0,-1,1007,701,0,0
-210,323,0,0,0,0,0,0,0,0,0,-1,1014,701,0,0
-203,323,0,0,0,0,0,0,0,0,0,-1,1021,701,0,0
-196,323,0,0,0,0,0,0,0,0,0,-1,1028,701,0,0
-189,323,0,0,0,0,0,0,0,0,0,-1,1035,701,0,0
-182,323,0,0,0,0,0,0,0,0,0,-1,1042,701,0,0
-175,323,0,0,0,0,0,0,0,0,0,-1,1049,701,0,0
-168,323,0,0,0,0,0,0,0,0,0,-1,1056,701,0,0
-161,323,0,0,0,0,0,0,0,0,0,-1,1063,701,0,0
-154,323,0,0,0,0,0,0,0,0,0,-1,1070,701,0,0
-147,323,0,0,0,0,0,0,0,0,0,-1,1077,701,0,0
-140,323,0,0,0,0,0,0,0,0,0,-1,1084,701,0,0
-133,323,0,0,0,0,0,0,0,0,0,-1,1091,701,0,0
-126,323,0,0,0,0,0,0,0,0,0,-1,1098,701,0,0
-119,323,0,0,0,0,0,0,0,0,0,-1,1105,701,0,0
-112,323,0,0,0,0,0,0,0,0,0,-1,1112,701,0,0
-105,323,0,0,0,0,0,0,0,0,0,-1,1119,701,0,0
-98,323,0,0,0,0,0,0,0,0,0,-1,1126,701,0,0
-91,323,0,0,0,0,0,0,0,0,0,-1,1133,701,0,0
-84,323,0,0,0,0,0,0,0,0,0,-1,1140,701,0,0
-77,323,0,0,0,0,0,0,0,0,0,-1,1147,701,0,0
-70,323,0,0,0,0,0,0,0,0,0,-1,1154,701,0,0
-63,323,0,0,0,0,0,0,0,0,0,-1,1161,701,0,0
-56,323,0,0,0,0,0,0,0,0,0,-1,1168,701,0,0
-49,323,0,0,0,0,0,0,0,0,0,-1,1175,701,0,0
-42,323,0,0,0,0,0,0,0,0,0,-1,1182,701,0,0
-35,323,0,0,0,0,0,0,0,0,0,-1,1189,701,0,0
-28,323,0,0,0,0,0,0,0,0,0,-1,1196,701,0,0
-21,323,0,0,0,0,0,0,0,0,0,-1,1203,701,0,0
-14,323,0,0,0,0,0,0,0,0,0,-1,1210,701,0,0
-7,323,0,0,0,0,0,0,0,0,0,-1,1217,701,0,0
0,323,0,0,0,0,0,0,0,0,0,-1,1224,701,0,0
7,323,0,0,0,0,0,0,0,0,0,-1,1231,701,0,0
14,323,0,0,0,0,0,0,0,0,0,-1,1238,701,0,0
21,323,0,0,0,0,0,0,0,0,0,-1,1245,701,0,0
28,323,0,0,0,0,0,0,0,0,0,-1,1252,701,0,0
35,323,0,0,0,0,0,0,0,0,0,-1,1259,701,0,0
42,323,0,0,0,0,0,0,0,0,0,-1,1266,701,0,0
49,323,0,0,0,0,0,0,0,0,0,-1,1273,701,0,0
56,323,0,0,0,0,0,0,0,0,0,-1,1280,701,0,0
63,323,0,0,0,0,0,0,0,0,0,-1,1287,701,0,0
70,323,0,0,0,0,0,0,0,0,0,-1,1294,701,0,0
77,323,0,0,0,0,0,0,0,0,0,-1,1301,701,0,0
84,323,0,0,0,0,0,0,0,0,0,-1,1308,701,0,0
91,323,0,0,0,0,0,0,0,0,0,-1,1315,701,0,0
98,323,0,0,0,0,0,0,0,0,0,-1,1322,701,0,0
105,323,0,0,0,0,0,0,0,0,0,-1,1329,701,0,0
112,323,0,0,0,0,0,0,0,0,0,-1,1336,701,0,0
119,323,0,0,0,0,0,0,0,0,0,-1,1343,701,0,0
126,323,0,0,0,0,0,0,0,0,0,-1,1350,701,0,0
133,323,0,0,0,0,0,0,0,0,0,-1,1357,701,0,0
140,323,0,0,0,0,0,0,0,0,0,-1,1364,701,0,0
147,323,0,0,0,0,0,0,0,0,0,-1,1371,701,0,0
154,323,0,0,0,0,0,0,0,0,0,-1,1378,701,0,0
161,323,0,0,0,0,0,0,0,0,0,-1,1385,701,0,0
168,323,0,0,0,0,0,0,0,0,0,-1,1392,701,0,0
175,323,0,0,0,0,0,0,0,0,0,-1,1399,701,0,0
182,323,0,0,0,0,0,0,0,0,0,-1,1406,701,0,0
189,323,0,0,0,0,0,0,0,0,0,-1,1413,701,0,0
196,323,0,0,0,0,0,0,0,0,0,-1,1420,701,0,0
203,323,0,0,0,0,0,0,0,0,0,-1,1427,701,0,0
210,323,0,0,0,0,0,0,0,0,0,-1,1434,701,0,0
217,323,0,0,0,0,0,0,0,0,0,-1,1441,701,0,0
224,323,0,0,0,0,0,0,0,0,0,-1,1448,701,0,0
231,323,0,0,0,0,0,0,0,0,0,-1,1455,701,0,0
238,323,0,0,0,0,0,0,0,0,0,-1,1462,701,0,0
245,323,0,0,0,0,0,0,0,0,0,-1,1469,701,0,0
252,323,0,0,0,0,0,0,0,0,0,-1,1476,701,0,0
259,323,0,0,0,0,0,0,0,0,0,-1,1483,701,0,0
266,323,0,0,0,0,0,0,0,0,0,-1,1490,701,0,0
273,323,0,0,0,0,0,0,0,0,0,-1,1497,701,0,0
280,323,0,0,0,0,0,0,0,0,0,-1,1504,701,0,0
287,323,0,0,0,0,0,0,0,0,0,-1,1511,701,0,0
294,323,0,0,0,0,0,0,0,0,0,-1,1518,701,0,0
301,323,0,0,0,0,0,0,0,0,0,-1,1525,701,0,0
308,323,0,0,0,0,0,0,0,0,0,-1,1532,701,0,0
315,323,0,0,0,0,0,0,0,0,0,-1,1539,701,0,0
322,323,0,0,0,0,0,0,0,0,0,-1,1546,701,0,0
329,323,0,0,0,0,0,0,0,0,0,-1,1553,701,0,0
336,323,0,0,0,0,0,0,0,0,0,-1,1560,701,0,0
343,323,0,0,0,0,0,0,0,0,0,-1,1567,701,0,0
350,323,0,0,0,0,0,0,0,0,0,-1,1574,701,0,0
357,323,0,0,0,0,0,0,0,0,0,-1,1581,701,0,0
364,323,0,0,0,0,0,0,0,0,0,-1,1588,701,0,0
371,323,0,0,0,0,0,0,0,0,0,-1,1595,701,0,0
378,323,0,0,0,0,0,0,0,0,0,-1,1602,701,0,0
385,323,0,0,0,0,0,0,0,0,0,-1,1609,701,0,0
392,323,0,0,0,0,0,0,0,0,0,-1,1616,701,0,0
399,323,0,0,0,0,0,0,0,0,0,-1,1623,701,0,0
406,323,0,0,0,0,0,0,0,0,0,-1,1630,701,0,0
413,323,0,0,0,0,0,0,0,0,0,-1,1637,701,0,0
420,323,0,0,0,0,0,0,0,0,0,-1,1644,701,0,0
427,323,0,0,0,0,0,0,0,0,0,-1,1651,701,0,0
434,323,0,0,0,0,0,0,0,0,0,-1,1658,701,0,0
441,323,0,0,0,0,0,0,0,0,0,-1,1665,701,0,0
448,323,0,0,0,0,0,0,0,0,0,-1,1672,701,0,0
455,323,0,0,0,0,0,0,0,0,0,-1,1679,701,0,0
462,323,0,0,0,0,0,0,0,0,0,-1,1686,701,0,0
469,323,0,0,0,0,0,0,0,0,0,-1,1693,701,0,0
476,323,0,0,0,0,0,0,0,0,0,-1,1700,701,0,0
483,323,0,0,0,0,0,0,0,0,0,-1,1707,701,0,0
490,323,0,0,0,0,0,0,0,0,0,-1,1714,701,0,0
497,323,0,0,0,0,0,0,0,0,0,-1,1721,701,0,0
504,323,0,0,0,0,0,0,0,0,0,-1,1728,701,0,0
511,323,0,0,0,0,0,0,0,0,0,-1,1735,701,0,0
518,323,0,0,0,0,0,0,0,0,0,-1,1742,701,0,0
525,323,0,0,0,0,0,0,0,0,0,-1,1749,701,0,0
532,323,33.6193,1.69446,0,0,0,0,0,0,0,-1,1756,701,33.6193,-1.69444
539,323,32.2698,2.44037,0,0,0,0,0,0,0,-1,1763,701,32.2697,-2.44036
546,323,31.1644,3.9444,0,0,0,0,0,0,0,-1,1770,701,31.1644,-3.94438
553,323,30.2488,5.8775,0,0,0,0,0,0,0,-1,1777,701,30.2487,-5.87752
560,323,40.6711,1.25153,0,0,0,0,0,0,0,-1,1784,701,40.6711,-1.25154
567,323,42.1637,2.01208,0,0,0,0,0,0,0,-1,1791,701,42.1637,-2.01207
574,323,12.514,5.89685,0,0,0,0,0,0,0,-1,1798,701,12.5141,-5.89683
581,323,11.821,5.3476,0,0,0,0,0,0,0,-1,1805,701,11.821,-5.34762
588,323,11.7933,7.00818,0,0,0,0,0,0,0,-1,1812,701,11.7933,-7.00819
595,323,6.67847,0.06604,0,0,0,0,0,0,0,-1,1819,701,6.67841,-0.0660418
602,323,11.2856,-0.595459,0,0,0,0,0,0,0,-1,1826,701,11.2856,0.595433
609,323,25.2336,-5.25696,0,0,0,0,0,0,0,-1,1833,701,25.2336,5.25699
616,323,25.3706,-4.54266,-0.0020279,0.00501057,0.00193851,0.00550915,-0.00252648,1.31906,0.00474471,0.0144915,1840,701,25.3705,4.54268
623,323,25.3558,-3.99023,0.000191218,0.00257379,0.00140578,0.00322516,-0.00046015,1.1369,0.00231876,0.0131057,1847,701,25.3559,3.99021
630,323,25.3396,-3.41412,0.000471946,0.00144924,0.000943862,0.00202345,-0.000102258,1.02426,0.00138431,0.013359,1854,701,25.3396,3.41414
637,323,25.3563,-2.85358,0.000323944,0.000814563,0.000511825,0.00113683,1.67754e-06,1.00887,0.000757327,0.0108723,1861,701,25.3563,2.85356
644,323,25.3322,-2.31458,-0.000236722,0.000350715,0.000247168,0.000440875,-0.000326881,1.22102,0.00044489,0.00882515,1868,701,25.3322,2.31457
651,323,25.3123,-1.73706,-0.0011567,0.000435725,5.93639e-05,0.000437935,-0.00115891,1.53359,0.000952744,0.0102381,1875,701,25.3123,1.73703
658,323,25.2548,-1.14679,-0.00237548,0.00059471,-0.000212266,0.000609803,-0.00239058,-1.49981,0.00183115,0.014196,1882,701,25.2547,1.14679
665,323,25.2147,-0.593994,-0.00392554,0.000754081,-0.000581041,0.000825147,-0.0039966,-1.44909,0.0029778,0.0126258,1889,701,25.2147,0.593986
672,323,25.2391,0.00219727,-0.00592161,0.000910485,-0.00112353,0.0010905,-0.00610163,-1.41192,0.00447576,0.0135138,1896,701,25.2391,-0.00221234
679,323,25.1183,0.582275,-0.00860132,0.0011003,-0.001828,0.00143331,-0.00893432,-1.3906,0.00648698,0.0338655,1903,701,25.1182,-0.582298
686,323,24.9943,1.03479,0,0,0,0,0,0,0,-1,1910,701,24.9943,-1.03477
693,323,23.8806,1.08844,0,0,0,0,0,0,0,-1,1917,701,23.8806,-1.08845
700,323,10.7705,0.828613,0,0,0,0,0,0,0,-1,1924,701,10.7705,-0.828591
707,323,16.9005,4.79193,0,0,0,0,0,0,0,-1,1931,701,16.9005,-4.7919
714,323,16.2346,6.25958,0,0,0,0,0,0,0,-1,1938,701,16.2346,-6.25956
721,323,0,0,0,0,0,0,0,0,0,-1,1945,701,0,0
728,323,0,0,0,0,0,0,0,0,0,-1,1952,701,0,0
735,323,0,0,0,0,0,0,0,0,0,-1,1959,701,0,0
742,323,0,0,0,0,0,0,0,0,0,-1,1966,701,0,0
749,323,0,0,0,0,0,0,0,0,0,-1,1973,701,0,0
756,323,0,0,0,0,0,0,0,0,0,-1,1980,701,0,0
763,323,0,0,0,0,0,0,0,0,0,-1,1987,701,0,0
770,323,0,0,0,0,0,0,0,0,0,-1,1994,701,0,0
777,323,0,0,0,0,0,0,0,0,0,-1,2001,701,0,0
784,323,0,0,0,0,0,0,0,0,0,-1,2008,701,0,0
791,323,0,0,0,0,0,0,0,0,0,-1,2015,701,0,0
798,323,0,0,0,0,0,0,0,0,0,-1,2022,701,0,0
805,323,0,0,0,0,0,0,0,0,0,-1,2029,701,0,0
812,323,0,0,0,0,0,0,0,0,0,-1,2036,701,0,0
-700,316,0,0,0,0,0,0,0,0,0,-1,524,708,0,0
-693,316,0,0,0,0,0,0,0,0,0,-1,531,708,0,0
-686,316,0,0,0,0,0,0,0,0,0,-1,538,708,0,0
-679,316,0,0,0,0,0,0,0,0,0,-1,545,708,0,0
-672,316,0,0,0,0,0,0,0,0,0,-1,552,708,0,0
-665,316,0,0,0,0,0,0,0,0,0,-1,559,708,0,0
-658,316,0,0,0,0,0,0,0,0,0,-1,566,708,0,0
-651,316,0,0,0,0,0,0,0,0,0,-1,573,708,0,0
-644,316,0,0,0,0,0,0,0,0,0,-1,580,708,0,0
-637,316,0,0,0,0,0,0,0,0,0,-1,587,708,0,0
-630,316,0,0,0,0,0,0,0,0,0,-1,594,708,0,0
-623,316,0,0,0,0,0,0,0,0,0,-1,601,708,0,0
-616,316,0,0,0,0,0,0,0,0,0,-1,608,708,0,0
-609,316,0,0,0,0,0,0,0,0,0,-1,615,708,0,0
-602,316,-0.451782,-0.0494995,0,0,0,0,0,0,0,-1,622,708,-0.451768,0.0495022
-595,316,-3.3761,2.17188,0,0,0,0,0,0,0,-1,629,708,-3.37609,-2.17189
-588,316,-5.00177,2.60675,0,0,0,0,0,0,0,-1,636,708,-5.00175,-2.60676
-581,316,-3.94653,0.393433,0,0,0,0,0,0,0,-1,643,708,-3.94655,-0.39342
-574,316,-9.67395,1.06067,0,0,0,0,0,0,0,-1,650,708,-9.67396,-1.06065
-567,316,-10.1962,0.448425,0,0,0,0,0,0,0,-1,657,708,-10.1962,-0.448411
-560,316,-15.7098,-1.31354,0,0,0,0,0,0,0,-1,664,708,-15.7098,1.31352
-553,316,-15.805,-1.62982,0.00328587,0.00656587,-0.00395901,0.00921112,0.000640618,-0.981761,0.00593874,0.0412868,671,708,-15.805,1.62983
-546,316,-15.9813,-1.95422,0.00278377,0.00493125,-0.00307055,0.00711039,0.00060463,-0.953597,0.00455212,0.0264585,678,708,-15.9813,1.95423
-539,316,-15.8964,-2.50867,0.00239455,0.00355156,-0.0022398,0.00528635,0.000659753,-0.911779,0.0033262,0.0135979,685,708,-15.8964,2.50869
-532,316,-15.9453,-3.05756,0.00207016,0.00227533,-0.00150702,0.00368326,0.000662238,-0.819381,0.00226723,0.0109191,692,708,-15.9453,3.05754
-525,316,-15.9673,-3.59692,0.00175085,0.00126468,-0.000844822,0.00238686,0.000628666,-0.645316,0.00142856,0.00969139,699,708,-15.9673,3.59694
-518,316,-15.9551,-4.12128,0.00150618,0.000298291,-0.00034755,0.00159905,0.000205429,-0.261092,0.00100458,0.00928774,706,708,-15.9551,4.12126
-511,316,-15.9758,-4.6626,0.00118363,-0.000888176,6.43725e-05,0.00118563,-0.000890174,0.0310309,0.0012025,0.0101076,713,708,-15.9758,4.66258
-504,316,-16.0139,-5.21716,0.000770814,-0.00212815,0.000395559,0.000823818,-0.00218115,0.133205,0.00179295,0.0136039,720,708,-16.0138,5.21717
-497,316,-16.0195,-5.72205,0.000198722,-0.00364187,0.000634271,0.00030076,-0.0037439,0.159509,0.00260199,0.0127142,727,708,-16.0196,5.72203
-490,316,-16.0202,-6.26105,-0.000307111,-0.00525503,0.000446109,-0.000267211,-0.00529493,0.0892025,0.00344434,0.0174725,734,708,-16.0202,6.26108
-483,316,-16.0071,-6.84521,0,0,0,0,0,0,0,-1,741,708,-16.0072,6.84524
-476,316,-8.90894,-3.31207,0,0,0,0,0,0,0,-1,748,708,-8.90896,3.31206
-469,316,-6.24194,-1.42725,0,0,0,0,0,0,0,-1,755,708,-6.24192,1.42725
-462,316,-5.74237,-1.40039,0,0,0,0,0,0,0,-1,762,708,-5.74238,1.40039
-455,316,-5.44745,-1.21899,0,0,0,0,0,0,0,-1,769,708,-5.44746,1.21898
-448,316,-14.8945,0.655396,0,0,0,0,0,0,0,-1,776,708,-14.8946,-0.655396
-441,316,-14.9626,0.576111,0,0,0,0,0,0,0,-1,783,708,-14.9626,-0.576115
-434,316,-27.7723,1.15576,0,0,0,0,0,0,0,-1,790,708,-27.7723,-1.15579
-427,316,-28.0504,1.31427,0,0,0,0,0,0,0,-1,797,708,-28.0504,-1.31427
-420,316,-28.198,1.62891,0,0,0,0,0,0,0,-1,804,708,-28.198,-1.62889
-413,316,0,0,0,0,0,0,0,0,0,-1,811,708,0,0
-406,316,0,0,0,0,0,0,0,0,0,-1,818,708,0,0
-399,316,0,0,0,0,0,0,0,0,0,-1,825,708,0,0
-392,316,0,0,0,0,0,0,0,0,0,-1,832,708,0,0
-385,316,0,0,0,0,0,0,0,0,0,-1,839,708,0,0
-378,316,0,0,0,0,0,0,0,0,0,-1,846,708,0,0
-371,316,0,0,0,0,0,0,0,0,0,-1,853,708,0,0
-364,316,0,0,0,0,0,0,0,0,0,-1,860,708,0,0
-357,316,0,0,0,0,0,0,0,0,0,-1,867,708,0,0
-350,316,0,0,0,0,0,0,0,0,0,-1,874,708,0,0
-343,316,0,0,0,0,0,0,0,0,0,-1,881,708,0,0
-336,316,0,0,0,0,0,0,0,0,0,-1,888,708,0,0
-329,316,0,0,0,0,0,0,0,0,0,-1,895,708,0,0
-322,316,0,0,0,0,0,0,0,0,0,-1,902,708,0,0
-315,316,0,0,0,0,0,0,0,0,0,-1,909,708,0,0
-308,316,0,0,0,0,0,0,0,0,0,-1,916,708,0,0
-301,316,0,0,0,0,0,0,0,0,0,-1,923,708,0,0
-294,316,0,0,0,0,0,0,0,0,0,-1,930,708,0,0
-287,316,0,0,0,0,0,0,0,0,0,-1,937,708,0,0
-280,316,0,0,0,0,0,0,0,0,0,-1,944,708,0,0
-273,316,0,0,0,0,0,0,0,0,0,-1,951,708,0,0
-266,316,0,0,0,0,0,0,0,0,0,-1,958,708,0,0
-259,316,0,0,0,0,0,0,0,0,0,-1,965,708,0,0
-252,316,0,0,0,0,0,0,0,0,0,-1,972,708,0,0
-245,316,0,0,0,0,0,0,0,0,0,-1,979,708,0,0
-238,316,0,0,0,0,0,0,0,0,0,-1,986,708,0,0
-231,316,0,0,0,0,0,0,0,0,0,-1,993,708,0,0
-224,316,0,0,0,0,0,0,0,0,0,-1,1000,708,0,0
-217,316,0,0,0,0,0,0,0,0,0,-1,1007,708,0,0
-210,316,0,0,0,0,0,0,0,0,0,-1,1014,708,0,0
-203,316,0,0,0,0,0,0,0,0,0,-1,1021,708,0,0
-196,316,0,0,0,0,0,0,0,0,0,-1,1028,708,0,0
-189,316,0,0,0,0,0,0,0,0,0,-1,1035,708,0,0
-182,316,0,0,0,0,0,0,0,0,0,-1,1042,708,0,0
-175,316,0,0,0,0,0,0,0,0,0,-1,1049,708,0,0
-168,316,0,0,0,0,0,0,0,0,0,-1,1056,708,0,0
-161,316,0,0,0,0,0,0,0,0,0,-1,1063,708,0,0
-154,316,0,0,0,0,0,0,0,0,0,-1,1070,708,0,0
-147,316,0,0,0,0,0,0,0,0,0,-1,1077,708,0,0
-140,316,0,0,0,0,0,0,0,0,0,-1,1084,708,0,0
-133,316,0,0,0,0,0,0,0,0,0,-1,1091,708,0,0
-126,316,0,0,0,0,0,0,0,0,0,-1,1098,708,0,0
-119,316,0,0,0,0,0,0,0,0,0,-1,1105,708,0,0
-112,316,0,0,0,0,0,0,0,0,0,-1,1112,708,0,0
-105,316,0,0,0,0,0,0,0,0,0,-1,1119,708,0,0
-98,316,0,0,0,0,0,0,0,0,0,-1,1126,708,0,0
-91,316,0,0,0,0,0,0,0,0,0,-1,1133,708,0,0
-84,316,0,0,0,0,0,0,0,0,0,-1,1140,708,0,0
-77,316,0,0,0,0,0,0,0,0,0,-1,1147,708,0,0
-70,316,0,0,0,0,0,0,0,0,0,-1,1154,708,0,0
-63,316,0,0,0,0,0,0,0,0,0,-1,1161,708,0,0
-56,316,0,0,0,0,0,0,0,0,0,-1,1168,708,0,0
-49,316,0,0,0,0,0,0,0,0,0,-1,1175,708,0,0
-42,316,0,0,0,0,0,0,0,0,0,-1,1182,708,0,0
-35,316,0,0,0,0,0,0,0,0,0,-1,1189,708,0,0
-28,316,0,0,0,0,0,0,0,0,0,-1,1196,708,0,0
-21,316,0,0,0,0,0,0,0,0,0,-1,1203,708,0,0
-14,316,0,0,0,0,0,0,0,0,0,-1,1210,708,0,0
-7,316,0,0,0,0,0,0,0,0,0,-1,1217,708,0,0
0,316,0,0,0,0,0,0,0,0,0,-1,1224,708,0,0
7,316,0,0,0,0,0,0,0,0,0,-1,1231,708,0,0
14,316,0,0,0,0,0,0,0,0,0,-1,1238,708,0,0
21,316,0,0,0,0,0,0,0,0,0,-1,1245,708,0,0
28,316,0,0,0,0,0,0,0,0,0,-1,1252,708,0,0
35,316,0,0,0,0,0,0,0,0,0,-1,1259,708,0,0
42,316,0,0,0,0,0,0,0,0,0,-1,1266,708,0,0
49,316,0,0,0,0,0,0,0,0,0,-1,1273,708,0,0
56,316,0,0,0,0,0,0,0,0,0,-1,1280,708,0,0
63,316,0,0,0,0,0,0,0,0,0,-1,1287,708,0,0
70,316,0,0,0,0,0,0,0,0,0,-1,1294,708,0,0
77,316,0,0,0,0,0,0,0,0,0,-1,1301,708,0,0
84,316,0,0,0,0,0,0,0,0,0,-1,1308,708,0,0
91,316,0,0,0,0,0,0,0,0,0,-1,1315,708,0,0
98,316,0,0,0,0,0,0,0,0,0,-1,1322,708,0,0
105,316,0,0,0,0,0,0,0,0,0,-1,1329,708,0,0
112,316,0,0,0,0,0,0,0,0,0,-1,1336,708,0,0
119,316,0,0,0,0,0,0,0,0,0,-1,1343,708,0,0
126,316,0,0,0,0,0,0,0,0,0,-1,1350,708,0,0
133,316,0,0,0,0,0,0,0,0,0,-1,1357,708,0,0
140,316,0,0,0,0,0,0,0,0,0,-1,1364,708,0,0
147,316,0,0,0,0,0,0,0,0,0,-1,1371,708,0,0
154,316,0,0,0,0,0,0,0,0,0,-1,1378,708,0,0
161,316,0,0,0,0,0,0,0,0,0,-1,1385,708,0,0
168,316,0,0,0,0,0,0,0,0,0,-1,1392,708,0,0
175,316,0,0,0,0,0,0,0,0,0,-1,1399,708,0,0
182,316,0,0,0,0,0,0,0,0,0,-1,1406,708,0,0
189,316,0,0,0,0,0,0,0,0,0,-1,1413,708,0,0
196,316,0,0,0,0,0,0,0,0,0,-1,1420,708,0,0
203,316,0,0,0,0,0,0,0,0,0,-1,1427,708,0,0
210,316,0,0,0,0,0,0,0,0,0,-1,1434,708,0,0
217,316,0,0,0,0,0,0,0,0,0,-1,1441,708,0,0
224,316,0,0,0,0,0,0,0,0,0,-1,1448,708,0,0
231,316,0,0,0,0,0,0,0,0,0,-1,1455,708,0,0
238,316,0,0,0,0,0,0,0,0,0,-1,1462,708,0,0
245,316,0,0,0,0,0,0,0,0,0,-1,1469,708,0,0
252,316,0,0,0,0,0,0,0,0,0,-1,1476,708,0,0
259,316,0,0,0,0,0,0,0,0,0,-1,1483,708,0,0
266,316,0,0,0,0,0,0,0,0,0,-1,1490,708,0,0
273,316,0,0,0,0,0,0,0,0,0,-1,1497,708,0,0
280,316,0,0,0,0,0,0,0,0,0,-1,1504,708,0,0
287,316,0,0,0,0,0,0,0,0,0,-1,1511,708,0,0
294,316,0,0,0,0,0,0,0,0,0,-1,1518,708,0,0
301,316,0,0,0,0,0,0,0,0,0,-1,1525,708,0,0
308,316,0,0,0,0,0,0,0,0,0,-1,1532,708,0,0
315,316,0,0,0,0,0,0,0,0,0,-1,1539,708,0,0
322,316,0,0,0,0,0,0,0,0,0,-1,1546,708,0,0
329,316,0,0,0,0,0,0,0,0,0,-1,1553,708,0,0
336,316,0,0,0,0,0,0,0,0,0,-1,1560,708,0,0
343,316,0,0,0,0,0,0,0,0,0,-1,1567,708,0,0
350,316,0,0,0,0,0,0,0,0,0,-1,1574,708,0,0
357,316,0,0,0,0,0,0,0,0,0,-1,1581,708,0,0
364,316,0,0,0,0,0,0,0,0,0,-1,1588,708,0,0
371,316,0,0,0,0,0,0,0,0,0,-1,1595,708,0,0
378,316,0,0,0,0,0,0,0,0,0,-1,1602,708,0,0
385,316,0,0,0,0,0,0,0,0,0,-1,1609,708,0,0
392,316,0,0,0,0,0,0,0,0,0,-1,1616,708,0,0
399,316,0,0,0,0,0,0,0,0,0,-1,1623,708,0,0
406,316,0,0,0,0,0,0,0,0,0,-1,1630,708,0,0
413,316,0,0,0,0,0,0,0,0,0,-1,1637,708,0,0
420,316,0,0,0,0,0,0,0,0,0,-1,1644,708,0,0
427,316,0,0,0,0,0,0,0,0,0,-1,1651,708,0,0
434,316,0,0,0,0,0,0,0,0,0,-1,1658,708,0,0
441,316,0,0,0,0,0,0,0,0,0,-1,1665,708,0,0
448,316,0,0,0,0,0,0,0,0,0,-1,1672,708,0,0
455,316,0,0,0,0,0,0,0,0,0,-1,1679,708,0,0
462,316,0,0,0,0,0,0,0,0,0,-1,1686,708,0,0
469,316,0,0,0,0,0,0,0,0,0,-1,1693,708,0,0
476,316,0,0,0,0,0,0,0,0,0,-1,1700,708,0,0
483,316,0,0,0,0,0,0,0,0,0,-1,1707,708,0,0
490,316,0,0,0,0,0,0,0,0,0,-1,1714,708,0,0
497,316,0,0,0,0,0,0,0,0,0,-1,1721,708,0,0
504,316,0,0,0,0,0,0,0,0,0,-1,1728,708,0,0
511,316,0,0,0,0,0,0,0,0,0,-1,1735,708,0,0
518,316,0,0,0,0,0,0,0,0,0,-1,1742,708,0,0
525,316,0,0,0,0,0,0,0,0,0,-1,1749,708,0,0
532,316,33.8604,0.531128,0,0,0,0,0,0,0,-1,1756,708,33.8604,-0.531151
539,316,44.4543,2.73468,0,0,0,0,0,0,0,-1,1763,708,44.4543,-2.7347
546,316,44.713,3.35498,0,0,0,0,0,0,0,-1,1770,708,44.7131,-3.35501
553,316,39.9031,6.57275,0,0,0,0,0,0,0,-1,1777,708,39.9031,-6.57274
560,316,39.1196,1.10046,0,0,0,0,0,0,0,-1,1784,708,39.1197,-1.10048
567,316,40.3279,1.98065,0,0,0,0,0,0,0,-1,1791,708,40.3279,-1.98067
574,316,40.1323,2.25415,0,0,0,0,0,0,0,-1,1798,708,40.1324,-2.25415
581,316,24.6815,7.77496,0,0,0,0,0,0,0,-1,1805,708,24.6815,-7.77499
588,316,19.7659,2.90198,0,0,0,0,0,0,0,-1,1812,708,19.7659,-2.902
595,316,12.5363,1.50702,0,0,0,0,0,0,0,-1,1819,708,12.5363,-1.50701
602,316,7.79919,0.0422363,0,0,0,0,0,0,0,-1,1826,708,7.79923,-0.0422066
609,316,25.8711,-5.04584,0,0,0,0,0,0,0,-1,1833,708,25.8711,5.04581
616,316,25.9204,-4.49121,-0.00174145,0.00794832,0.00162001,0.00821199,-0.00200512,1.40945,0.00625116,0.0164585,1840,708,25.9204,4.4912
623,316,25.9243,-3.95636,0.000601822,0.00455583,0.00116998,0.00487609,0.000281567,1.30361,0.00316105,0.010434,1847,708,25.9243,3.95637
630,316,25.8972,-3.42059,0.000772428,0.00253759,0.000773221,0.00282839,0.000481629,1.21107,0.00174732,0.0118683,1854,708,25.8972,3.4206
637,316,25.9073,-2.83929,0.000640738,0.00134692,0.000351521,0.00149207,0.000495592,1.17921,0.000877477,0.0120758,1861,708,25.9074,2.83929
644,316,25.8931,-2.27411,6.29418e-05,0.00041,0.000133894,0.000455651,1.7291e-05,1.24221,0.000298171,0.0129633,1868,708,25.893,2.27413
651,316,25.849,-1.71313,-0.000854397,0.000324246,5.4306e-05,0.000326743,-0.000856894,1.52485,0.000705852,0.0140831,1875,708,25.8489,1.71314
658,316,25.788,-1.16162,-0.00192422,0.000565776,-0.000133561,0.00057292,-0.00193136,-1.51736,0.0015151,0.0239424,1882,708,25.788,1.1616
665,316,25.7578,-0.5896,-0.00316507,0.000853722,-0.000378868,0.000889127,-0.00320047,-1.47762,0.00248365,0.0188775,1889,708,25.7578,0.589606
672,316,25.8029,-0.0273438,-0.00472776,0.00119425,-0.000725863,0.00128192,-0.00481543,-1.4506,0.00371213,0.0138825,1896,708,25.8028,0.0273518
679,316,25.8055,0.608887,-0.00670295,0.00162334,-0.00114893,0.00177897,-0.00685858,-1.43616,0.0052665,0.0304997,1903,708,25.8055,-0.608904
686,316,25.4209,1.14539,-0.00909566,0.00216188,-0.00161619,0.00238932,-0.00932309,-1.43099,0.00714624,0.0428152,1910,708,25.4209,-1.1454
693,316,25.0145,1.72211,0,0,0,0,0,0,0,-1,1917,708,25.0146,-1.72211
700,316,12.8749,2.89136,0,0,0,0,0,0,0,-1,1924,708,12.8748,-2.89137
707,316,15.7089,5.41486,0,0,0,0,0,0,0,-1,1931,708,15.7088,-5.41487
714,316,16.1727,5.52045,0,0,0,0,0,0,0,-1,1938,708,16.1728,-5.52042
721,316,16.7094,6.53351,0,0,0,0,0,0,0,-1,1945,708,16.7094,-6.5335
728,316,0,0,0,0,0,0,0,0,0,-1,1952,708,0,0
735,316,0,0,0,0,0,0,0,0,0,-1,1959,708,0,0
742,316,0,0,0,0,0,0,0,0,0,-1,1966,708,0,0
749,316,0,0,0,0,0,0,0,0,0,-1,1973,708,0,0
756,316,0,0,0,0,0,0,0,0,0,-1,1980,708,0,0
763,316,0,0,0,0,0,0,0,0,0,-1,1987,708,0,0
770,316,0,0,0,0,0,0,0,0,0,-1,1994,708,0,0
777,316,0,0,0,0,0,0,0,0,0,-1,2001,708,0,0
784,316,0,0,0,0,0,0,0,0,0,-1,2008,708,0,0
791,316,0,0,0,0,0,0,0,0,0,-1,2015,708,0,0
798,316,0,0,0,0,0,0,0,0,0,-1,2022,708,0,0
805,316,0,0,0,0,0,0,0,0,0,-1,2029,708,0,0
812,316,0,0,0,0,0,0,0,0,0,-1,2036,708,0,0
-700,309,0,0,0,0,0,0,0,0,0,-1,524,715,0,0
-693,309,0,0,0,0,0,0,0,0,0,-1,531,715,0,0
-686,309,0,0,0,0,0,0,0,0,0,-1,538,715,0,0
-679,309,0,0,0,0,0,0,0,0,0,-1,545,715,0,0
-672,309,0,0,0,0,0,0,0,0,0,-1,552,715,0,0
-665,309,0,0,0,0,0,0,0,0,0,-1,559,715,0,0
-658,309,0,0,0,0,0,0,0,0,0,-1,566,715,0,0
-651,309,0,0,0,0,0,0,0,0,0,-1,573,715,0,0
-644,309,0,0,0,0,0,0,0,0,0,-1,580,715,0,0
-637,309,0,0,0,0,0,0,0,0,0,-1,587,715,0,0
-630,309,0,0,0,0,0,0,0,0,0,-1,594,715,0,0
-623,309,0,0,0,0,0,0,0,0,0,-1,601,715,0,0
-616,309,0,0,0,0,0,0,0,0,0,-1,608,715,0,0
-609,309,-5.95392,-3.93689,0,0,0,0,0,0,0,-1,615,715,-5.95392,3.93686
-602,309,-4.99786,-3.31287,0,0,0,0,0,0,0,-1,622,715,-4.99786,3.31284
-595,309,-6.80847,2.4046,0,0,0,0,0,0,0,-1,629,715,-6.80845,-2.40458
-588,309,-6.08795,2.19324,0,0,0,0,0,0,0,-1,636,715,-6.08793,-2.19325
-581,309,-5.97552,1.3277,0,0,0,0,0,0,0,-1,643,715,-5.97552,-1.32769
-574,309,-8.73602,0.208435,0,0,0,0,0,0,0,-1,650,715,-8.73604,-0.208437
-567,309,-10.3909,0.85968,0,0,0,0,0,0,0,-1,657,715,-10.3909,-0.859696
-560,309,-16.3162,-1.32117,0,0,0,0,0,0,0,-1,664,715,-16.3162,1.32117
-553,309,-16.4042,-1.46442,0.00173589,0.00459883,-0.00220666,0.00579765,0.000537065,-1.07313,0.0036991,0.041397,671,715,-16.4042,1.46441
-546,309,-16.5097,-1.94946,0.00160084,0.00341994,-0.00172062,0.00445662,0.000564159,-1.02854,0.00280202,0.0218906,678,715,-16.5097,1.94946
-539,309,-16.463,-2.50629,0.0015079,0.00238954,-0.00122646,0.003252,0.000645442,-0.957921,0.00198809,0.0158706,685,715,-16.4629,2.50628
-532,309,-16.4709,-3.03058,0.00140672,0.001362,-0.000743628,0.00212833,0.000640398,-0.770369,0.00126085,0.0124878,692,715,-16.4709,3.03058
-525,309,-16.4653,-3.59967,0.00125054,0.000557878,-0.000272012,0.00134459,0.000463828,-0.33289,0.000788643,0.0148061,699,715,-16.4653,3.59966
-518,309,-16.4783,-4.11304,0.00103414,-0.000446695,9.82433e-05,0.00104063,-0.000453184,0.0659577,0.000884407,0.0150966,706,715,-16.4783,4.11303
-511,309,-16.5095,-4.62115,0.000498377,-0.00196605,0.000512241,0.000600607,-0.00206828,0.196987,0.00161668,0.0114867,713,715,-16.5095,4.62115
-504,309,-16.5337,-5.17499,-0.000251368,-0.00365592,0.000936848,-1.05979e-05,-0.00389669,0.251556,0.00259427,0.00958247,720,715,-16.5337,5.17501
-497,309,-16.5437,-5.69214,-0.00142178,-0.00593264,0.00140132,-0.0010219,-0.00633252,0.27797,0.00392564,0.0139212,727,715,-16.5437,5.69212
-490,309,-16.4996,-6.22192,-0.0028081,-0.00861656,0.00158981,-0.00240143,-0.00902323,0.250427,0.00539616,0.0484097,734,715,-16.4996,6.22193
-483,309,-16.158,-7.05792,0,0,0,0,0,0,0,-1,741,715,-16.1579,7.05794
-476,309,-5.29486,-1.2262,0,0,0,0,0,0,0,-1,748,715,-5.29484,1.22622
-469,309,-4.22717,-0.592896,0,0,0,0,0,0,0,-1,755,715,-4.2272,0.592905
-462,309,-10.428,2.46948,0,0,0,0,0,0,0,-1,762,715,-10.428,-2.46947
-455,309,-15.8216,0.00915527,0,0,0,0,0,0,0,-1,769,715,-15.8216,-0.00913359
-448,309,-19.2673,1.19257,0,0,0,0,0,0,0,-1,776,715,-19.2673,-1.19254
-441,309,-19.8181,1.4425,0,0,0,0,0,0,0,-1,783,715,-19.8181,-1.44249
-434,309,-28.3196,0.95105,0,0,0,0,0,0,0,-1,790,715,-28.3196,-0.951068
-427,309,-27.8553,1.40332,0,0,0,0,0,0,0,-1,797,715,-27.8553,-1.40334
-420,309,-27.3148,1.90747,0,0,0,0,0,0,0,-1,804,715,-27.3148,-1.90745
-413,309,0,0,0,0,0,0,0,0,0,-1,811,715,0,0
-406,309,0,0,0,0,0,0,0,0,0,-1,818,715,0,0
-399,309,0,0,0,0,0,0,0,0,0,-1,825,715,0,0
-392,309,0,0,0,0,0,0,0,0,0,-1,832,715,0,0
-385,309,0,0,0,0,0,0,0,0,0,-1,839,715,0,0
-378,309,0,0,0,0,0,0,0,0,0,-1,846,715,0,0
-371,309,0,0,0,0,0,0,0,0,0,-1,853,715,0,0
-364,309,0,0,0,0,0,0,0,0,0,-1,860,715,0,0
-357,309,0,0,0,0,0,0,0,0,0,-1,867,715,0,0
-350,309,0,0,0,0,0,0,0,0,0,-1,874,715,0,0
-343,309,0,0,0,0,0,0,0,0,0,-1,881,715,0,0
-336,309,0,0,0,0,0,0,0,0,0,-1,888,715,0,0
-329,309,0,0,0,0,0,0,0,0,0,-1,895,715,0,0
-322,309,0,0,0,0,0,0,0,0,0,-1,902,715,0,0
-315,309,0,0,0,0,0,0,0,0,0,-1,909,715,0,0
-308,309,0,0,0,0,0,0,0,0,0,-1,916,715,0,0
-301,309,0,0,0,0,0,0,0,0,0,-1,923,715,0,0
-294,309,0,0,0,0,0,0,0,0,0,-1,930,715,0,0
-287,309,0,0,0,0,0,0,0,0,0,-1,937,715,0,0
-280,309,0,0,0,0,0,0,0,0,0,-1,944,715,0,0
-273,309,0,0,0,0,0,0,0,0,0,-1,951,715,0,0
-266,309,0,0,0,0,0,0,0,0,0,-1,958,715,0,0
-259,309,0,0,0,0,0,0,0,0,0,-1,965,715,0,0
-252,309,0,0,0,0,0,0,0,0,0,-1,972,715,0,0
-245,309,0,0,0,0,0,0,0,0,0,-1,979,715,0,0
-238,309,0,0,0,0,0,0,0,0,0,-1,986,715,0,0
-231,309,0,0,0,0,0,0,0,0,0,-1,993,715,0,0
-224,309,0,0,0,0,0,0,0,0,0,-1,1000,715,0,0
-217,309,0,0,0,0,0,0,0,0,0,-1,1007,715,0,0
-210,309,0,0,0,0,0,0,0,0,0,-1,1014,715,0,0
-203,309,0,0,0,0,0,0,0,0,0,-1,1021,715,0,0
-196,309,0,0,0,0,0,0,0,0,0,-1,1028,715,0,0
-189,309,0,0,0,0,0,0,0,0,0,-1,1035,715,0,0
-182,309,0,0,0,0,0,0,0,0,0,-1,1042,715,0,0
-175,309,0,0,0,0,0,0,0,0,0,-1,1049,715,0,0
-168,309,0,0,0,0,0,0,0,0,0,-1,1056,715,0,0
-161,309,0,0,0,0,0,0,0,0,0,-1,1063,715,0,0
-154,309,0,0,0,0,0,0,0,0,0,-1,1070,715,0,0
-147,309,0,0,0,0,0,0,0,0,0,-1,1077,715,0,0
-140,309,0,0,0,0,0,0,0,0,0,-1,1084,715,0,0
-133,309,0,0,0,0,0,0,0,0,0,-1,1091,715,0,0
-126,309,0,0,0,0,0,0,0,0,0,-1,1098,715,0,0
-119,309,0,0,0,0,0,0,0,0,0,-1,1105,715,0,0
-112,309,0,0,0,0,0,0,0,0,0,-1,1112,715,0,0
-105,309,0,0,0,0,0,0,0,0,0,-1,1119,715,0,0
-98,309,0,0,0,0,0,0,0,0,0,-1,1126,715,0,0
-91,309,0,0,0,0,0,0,0,0,0,-1,1133,715,0,0
-84,309,0,0,0,0,0,0,0,0,0,-1,1140,715,0,0
-77,309,0,0,0,0,0,0,0,0,0,-1,1147,715,0,0
-70,309,0,0,0,0,0,0,0,0,0,-1,1154,715,0,0
-63,309,0,0,0,0,0,0,0,0,0,-1,1161,715,0,0
-56,309,0,0,0,0,0,0,0,0,0,-1,1168,715,0,0
-49,309,0,0,0,0,0,0,0,0,0,-1,1175,715,0,0
-42,309,0,0,0,0,0,0,0,0,0,-1,1182,715,0,0
-35,309,0,0,0,0,0,0,0,0,0,-1,1189,715,0,0
-28,309,0,0,0,0,0,0,0,0,0,-1,1196,715,0,0
-21,309,0,0,0,0,0,0,0,0,0,-1,1203,715,0,0
-14,309,0,0,0,0,0,0,0,0,0,-1,1210,715,0,0
-7,309,0,0,0,0,0,0,0,0,0,-1,1217,715,0,0
0,309,0,0,0,0,0,0,0,0,0,-1,1224,715,0,0
7,309,0,0,0,0,0,0,0,0,0,-1,1231,715,0,0
14,309,0,0,0,0,0,0,0,0,0,-1,1238,715,0,0
21,309,0,0,0,0,0,0,0,0,0,-1,1245,715,0,0
28,309,0,0,0,0,0,0,0,0,0,-1,1252,715,0,0
35,309,0,0,0,0,0,0,0,0,0,-1,1259,715,0,0
42,309,0,0,0,0,0,0,0,0,0,-1,1266,715,0,0
49,309,0,0,0,0,0,0,0,0,0,-1,1273,715,0,0
56,309,0,0,0,0,0,0,0,0,0,-1,1280,715,0,0
63,309,0,0,0,0,0,0,0,0,0,-1,1287,715,0,0
70,309,0,0,0,0,0,0,0,0,0,-1,1294,715,0,0
77,309,0,0,0,0,0,0,0,0,0,-1,1301,715,0,0
84,309,0,0,0,0,0,0,0,0,0,-1,1308,715,0,0
91,309,0,0,0,0,0,0,0,0,0,-1,1315,715,0,0
98,309,0,0,0,0,0,0,0,0,0,-1,1322,715,0,0
105,309,0,0,0,0,0,0,0,0,0,-1,1329,715,0,0
112,309,0,0,0,0,0,0,0,0,0,-1,1336,715,0,0
119,309,0,0,0,0,0,0,0,0,0,-1,1343,715,0,0
126,309,0,0,0,0,0,0,0,0,0,-1,1350,715,0,0
133,309,0,0,0,0,0,0,0,0,0,-1,1357,715,0,0
140,309,0,0,0,0,0,0,0,0,0,-1,1364,715,0,0
147,309,0,0,0,0,0,0,0,0,0,-1,1371,715,0,0
154,309,0,0,0,0,0,0,0,0,0,-1,1378,715,0,0
161,309,0,0,0,0,0,0,0,0,0,-1,1385,715,0,0
168,309,0,0,0,0,0,0,0,0,0,-1,1392,715,0,0
175,309,0,0,0,0,0,0,0,0,0,-1,1399,715,0,0
182,309,0,0,0,0,0,0,0,0,0,-1,1406,715,0,0
189,309,0,0,0,0,0,0,0,0,0,-1,1413,715,0,0
196,309,0,0,0,0,0,0,0,0,0,-1,1420,715,0,0
203,309,0,0,0,0,0,0,0,0,0,-1,1427,715,0,0
210,309,0,0,0,0,0,0,0,0,0,-1,1434,715,0,0
217,309,0,0,0,0,0,0,0,0,0,-1,1441,715,0,0
224,309,0,0,0,0,0,0,0,0,0,-1,1448,715,0,0
231,309,0,0,0,0,0,0,0,0,0,-1,1455,715,0,0
238,309,0,0,0,0,0,0,0,0,0,-1,1462,715,0,0
245,309,0,0,0,0,0,0,0,0,0,-1,1469,715,0,0
252,309,0,0,0,0,0,0,0,0,0,-1,1476,715,0,0
259,309,0,0,0,0,0,0,0,0,0,-1,1483,715,0,0
266,309,0,0,0,0,0,0,0,0,0,-1,1490,715,0,0
273,309,0,0,0,0,0,0,0,0,0,-1,1497,715,0,0
280,309,0,0,0,0,0,0,0,0,0,-1,1504,715,0,0
287,309,0,0,0,0,0,0,0,0,0,-1,1511,715,0,0
294,309,0,0,0,0,0,0,0,0,0,-1,1518,715,0,0
301,309,0,0,0,0,0,0,0,0,0,-1,1525,715,0,0
308,309,0,0,0,0,0,0,0,0,0,-1,1532,715,0,0
315,309,0,0,0,0,0,0,0,0,0,-1,1539,715,0,0
322,309,0,0,0,0,0,0,0,0,0,-1,1546,715,0,0
329,309,0,0,0,0,0,0,0,0,0,-1,1553,715,0,0
336,309,0,0,0,0,0,0,0,0,0,-1,1560,715,0,0
343,309,0,0,0,0,0,0,0,0,0,-1,1567,715,0,0
350,309,0,0,0,0,0,0,0,0,0,-1,1574,715,0,0
357,309,0,0,0,0,0,0,0,0,0,-1,1581,715,0,0
364,309,0,0,0,0,0,0,0,0,0,-1,1588,715,0,0
371,309,0,0,0,0,0,0,0,0,0,-1,1595,715,0,0
378,309,0,0,0,0,0,0,0,0,0,-1,1602,715,0,0
385,309,0,0,0,0,0,0,0,0,0,-1,1609,715,0,0
392,309,0,0,0,0,0,0,0,0,0,-1,1616,715,0,0
399,309,0,0,0,0,0,0,0,0,0,-1,1623,715,0,0
406,309,0,0,0,0,0,0,0,0,0,-1,1630,715,0,0
413,309,0,0,0,0,0,0,0,0,0,-1,1637,715,0,0
420,309,0,0,0,0,0,0,0,0,0,-1,1644,715,0,0
427,309,0,0,0,0,0,0,0,0,0,-1,1651,715,0,0
434,309,0,0,0,0,0,0,0,0,0,-1,1658,715,0,0
441,309,0,0,0,0,0,0,0,0,0,-1,1665,715,0,0
448,309,0,0,0,0,0,0,0,0,0,-1,1672,715,0,0
455,309,0,0,0,0,0,0,0,0,0,-1,1679,715,0,0
462,309,0,0,0,0,0,0,0,0,0,-1,1686,715,0,0
469,309,0,0,0,0,0,0,0,0,0,-1,1693,715,0,0
476,309,0,0,0,0,0,0,0,0,0,-1,1700,715,0,0
483,309,0,0,0,0,0,0,0,0,0,-1,1707,715,0,0
490,309,0,0,0,0,0,0,0,0,0,-1,1714,715,0,0
497,309,0,0,0,0,0,0,0,0,0,-1,1721,715,0,0
504,309,0,0,0,0,0,0,0,0,0,-1,1728,715,0,0
511,309,0,0,0,0,0,0,0,0,0,-1,1735,715,0,0
518,309,0,0,0,0,0,0,0,0,0,-1,1742,715,0,0
525,309,0,0,0,0,0,0,0,0,0,-1,1749,715,0,0
532,309,0,0,0,0,0,0,0,0,0,-1,1756,715,0,0
539,309,44.2073,2.66235,0,0,0,0,0,0,0,-1,1763,715,44.2073,-2.66238
546,309,44.4976,3.25531,0,0,0,0,0,0,0,-1,1770,715,44.4976,-3.25533
553,309,44.7058,3.60016,0,0,0,0,0,0,0,-1,1777,715,44.7058,-3.60018
560,309,44.7665,4.18518,0,0,0,0,0,0,0,-1,1784,715,44.7665,-4.18518
567,309,38.2872,1.72437,0,0,0,0,0,0,0,-1,1791,715,38.2872,-1.72434
574,309,39.0372,2.01044,0,0,0,0,0,0,0,-1,1798,715,39.0372,-2.01045
581,309,39.9871,2.35028,0,0,0,0,0,0,0,-1,1805,715,39.9871,-2.3503
588,309,26.2064,7.76422,0,0,0,0,0,0,0,-1,1812,715,26.2064,-7.7642
595,309,19.585,3.71558,0,0,0,0,0,0,0,-1,1819,715,19.5849,-3.71555
602,309,11.0811,3.47772,0,0,0,0,0,0,0,-1,1826,715,11.0811,-3.47772
609,309,26.4539,-5.02759,0,0,0,0,0,0,0,-1,1833,715,26.4539,5.02757
616,309,26.5101,-4.47705,-0.0016814,0.0103604,0.00132986,0.0105055,-0.00182652,1.4621,0.00768519,0.0268345,1840,715,26.5101,4.47708
623,309,26.5256,-3.93945,0.00080389,0.00649736,0.000928814,0.00664506,0.000656198,1.4131,0.00422831,0.0107699,1847,715,26.5256,3.93947
630,309,26.4755,-3.38959,0.000985552,0.00382931,0.000560164,0.00393568,0.000879189,1.38315,0.00238536,0.010355,1854,715,26.4755,3.38958
637,309,26.425,-2.81812,0.000974514,0.00209596,0.000125803,0.0021099,0.000960574,1.46044,0.00121977,0.013234,1861,715,26.4251,2.81814
644,309,26.3951,-2.24945,0.000431363,0.000593486,-3.75306e-05,0.000601753,0.000423096,-1.354,0.000356849,0.0146365,1868,715,26.3951,2.24944
651,309,26.3759,-1.68567,-0.000490696,0.000227236,1.76262e-05,0.000227668,-0.000491129,1.54626,0.000424188,0.0137221,1875,715,26.3759,1.68568
658,309,26.3656,-1.14105,-0.00145174,0.000470985,-7.50794e-05,0.000473912,-0.00145467,-1.53183,0.00116047,0.0201969,1882,715,26.3656,1.14105
665,309,26.3672,-0.585266,-0.00243548,0.000856302,-0.000214921,0.000870274,-0.00244945,-1.50587,0.00198761,0.0180085,1889,715,26.3672,0.58525
672,309,26.359,-0.020752,-0.00364996,0.00132356,-0.00040815,0.00135684,-0.00368324,-1.48946,0.00301144,0.0154674,1896,715,26.359,0.0207401
679,309,26.3623,0.572815,-0.00509169,0.0019057,-0.000623251,0.00196078,-0.00514677,-1.48265,0.00423874,0.0195955,1903,715,26.3623,-0.572789
686,309,26.225,1.21704,-0.00671645,0.00264352,-0.000810434,0.00271317,-0.0067861,-1.48506,0.00564995,0.0325461,1910,715,26.225,-1.21704
693,309,25.8379,1.81976,0,0,0,0,0,0,0,-1,1917,715,25.8378,-1.81974
700,309,23.0179,3.08337,0,0,0,0,0,0,0,-1,1924,715,23.018,-3.08336
707,309,15.6318,4.58655,0,0,0,0,0,0,0,-1,1931,715,15.6318,-4.58657
714,309,16.7573,6.68286,0,0,0,0,0,0,0,-1,1938,715,16.7574,-6.68284
721,309,16.8337,5.4458,0,0,0,0,0,0,0,-1,1945,715,16.8338,-5.44582
728,309,0,0,0,0,0,0,0,0,0,-1,1952,715,0,0
735,309,0,0,0,0,0,0,0,0,0,-1,1959,715,0,0
742,309,0,0,0,0,0,0,0,0,0,-1,1966,715,0,0
749,309,0,0,0,0,0,0,0,0,0,-1,1973,715,0,0
756,309,0,0,0,0,0,0,0,0,0,-1,1980,715,0,0
763,309,0,0,0,0,0,0,0,0,0,-1,1987,715,0,0
770,309,0,0,0,0,0,0,0,0,0,-1,1994,715,0,0
777,309,0,0,0,0,0,0,0,0,0,-1,2001,715,0,0
784,309,0,0,0,0,0,0,0,0,0,-1,2008,715,0,0
791,309,0,0,0,0,0,0,0,0,0,-1,2015,715,0,0
798,309,0,0,0,0,0,0,0,0,0,-1,2022,715,0,0
805,309,0,0,0,0,0,0,0,0,0,-1,2029,715,0,0
812,309,0,0,0,0,0,0,0,0,0,-1,2036,715,0,0
-700,302,0,0,0,0,0,0,0,0,0,-1,524,722,0,0
-693,302,0,0,0,0,0,0,0,0,0,-1,531,722,0,0
-686,302,0,0,0,0,0,0,0,0,0,-1,538,722,0,0
-679,302,0,0,0,0,0,0,0,0,0,-1,545,722,0,0
-672,302,0,0,0,0,0,0,0,0,0,-1,552,722,0,0
-665,302,0,0,0,0,0,0,0,0,0,-1,559,722,0,0
-658,302,0,0,0,0,0,0,0,0,0,-1,566,722,0,0
-651,302,0,0,0,0,0,0,0,0,0,-1,573,722,0,0
-644,302,0,0,0,0,0,0,0,0,0,-1,580,722,0,0
-637,302,0,0,0,0,0,0,0,0,0,-1,587,722,0,0
-630,302,0,0,0,0,0,0,0,0,0,-1,594,722,0,0
-623,302,0,0,0,0,0,0,0,0,0,-1,601,722,0,0
-616,302,0,0,0,0,0,0,0,0,0,-1,608,722,0,0
-609,302,-7.79266,-3.71649,0,0,0,0,0,0,0,-1,615,722,-7.79267,3.7165
-602,302,0.92865,-1.99158,0,0,0,0,0,0,0,-1,622,722,0.928637,1.99157
-595,302,-7.89941,2.13641,0,0,0,0,0,0,0,-1,629,722,-7.89939,-2.13639
-588,302,-7.10895,1.79163,0,0,0,0,0,0,0,-1,636,722,-7.10896,-1.79163
-581,302,-9.17566,1.09448,0,0,0,0,0,0,0,-1,643,722,-9.17569,-1.09445
-574,302,-11.5183,-0.344543,0,0,0,0,0,0,0,-1,650,722,-11.5183,0.344557
-567,302,-12.1534,-0.672241,0,0,0,0,0,0,0,-1,657,722,-12.1535,0.672246
-560,302,-16.9373,-0.737854,0,0,0,0,0,0,0,-1,664,722,-16.9373,0.737865
-553,302,-16.9912,-1.37061,0.000795147,0.00317612,-0.000993999,0.00353653,0.000434733,-1.22295,0.00222697,0.0236692,671,722,-16.9912,1.3706
-546,302,-17.0068,-1.94489,0.00084528,0.00228767,-0.000748359,0.00260578,0.000527165,-1.16886,0.00159085,0.0160864,678,722,-17.0068,1.94491
-539,302,-17.0264,-2.45563,0.000905809,0.00147971,-0.000489384,0.00176007,0.000625452,-1.05056,0.00103025,0.0159228,685,722,-17.0264,2.45563
-532,302,-17.0126,-2.99756,0.000935427,0.000632201,-0.000157038,0.0010021,0.000565531,-0.401487,0.000580156,0.0147956,692,722,-17.0126,2.99754
-525,302,-16.9739,-3.58228,0.000851104,-5.708e-05,0.000202494,0.000894207,-0.000100183,0.209733,0.000632184,0.0188644,699,722,-16.9739,3.58228
-518,302,-17.0069,-4.10181,0.000568773,-0.00119811,0.00050928,0.000705055,-0.00133439,0.261471,0.00119601,0.0196205,706,722,-17.0069,4.10184
-511,302,-17.0483,-4.60645,-0.000222461,-0.00312535,0.000914411,4.15656e-05,-0.00338937,0.281094,0.00227356,0.010055,713,722,-17.0483,4.60643
-504,302,-17.0573,-5.14459,-0.00127942,-0.00528565,0.00137739,-0.000851556,-0.00571352,0.301185,0.00355928,0.00935148,720,722,-17.0573,5.14462
-497,302,-17.0972,-5.65173,-0.00289491,-0.00826455,0.00191971,-0.00227919,-0.00888027,0.310369,0.00532558,0.0144242,727,722,-17.0972,5.65175
-490,302,-17.1416,-6.16388,0,0,0,0,0,0,0,-1,734,722,-17.1416,6.16388
-483,302,-9.53412,-3.1673,0,0,0,0,0,0,0,-1,741,722,-9.53411,3.1673
-476,302,-4.29749,-0.203491,0,0,0,0,0,0,0,-1,748,722,-4.29751,0.203464
-469,302,-12.369,1.42859,0,0,0,0,0,0,0,-1,755,722,-12.3689,-1.42857
-462,302,-17.4766,0.310791,0,0,0,0,0,0,0,-1,762,722,-17.4766,-0.310788
-455,302,-28.6006,-0.598206,0,0,0,0,0,0,0,-1,769,722,-28.6006,0.598234
-448,302,-29.7947,1.49585,0,0,0,0,0,0,0,-1,776,722,-29.7948,-1.49585
-441,302,-27.6344,0.371826,0,0,0,0,0,0,0,-1,783,722,-27.6344,-0.371825
-434,302,-27.6,1.27759,0,0,0,0,0,0,0,-1,790,722,-27.6,-1.27759
-427,302,-27.1735,1.81506,0,0,0,0,0,0,0,-1,797,722,-27.1735,-1.81504
-420,302,0,0,0,0,0,0,0,0,0,-1,804,722,0,0
-413,302,0,0,0,0,0,0,0,0,0,-1,811,722,0,0
-406,302,0,0,0,0,0,0,0,0,0,-1,818,722,0,0
-399,302,0,0,0,0,0,0,0,0,0,-1,825,722,0,0
-392,302,0,0,0,0,0,0,0,0,0,-1,832,722,0,0
-385,302,0,0,0,0,0,0,0,0,0,-1,839,722,0,0
-378,302,0,0,0,0,0,0,0,0,0,-1,846,722,0,0
-371,302,0,0,0,0,0,0,0,0,0,-1,853,722,0,0
-364,302,0,0,0,0,0,0,0,0,0,-1,860,722,0,0
-357,302,0,0,0,0,0,0,0,0,0,-1,867,722,0,0
-350,302,0,0,0,0,0,0,0,0,0,-1,874,722,0,0
-343,302,0,0,0,0,0,0,0,0,0,-1,881,722,0,0
-336,302,0,0,0,0,0,0,0,0,0,-1,888,722,0,0
-329,302,0,0,0,0,0,0,0,0,0,-1,895,722,0,0
-322,302,0,0,0,0,0,0,0,0,0,-1,902,722,0,0
-315,302,0,0,0,0,0,0,0,0,0,-1,909,722,0,0
-308,302,0,0,0,0,0,0,0,0,0,-1,916,722,0,0
-301,302,0,0,0,0,0,0,0,0,0,-1,923,722,0,0
-294,302,0,0,0,0,0,0,0,0,0,-1,930,722,0,0
-287,302,0,0,0,0,0,0,0,0,0,-1,937,722,0,0
-280,302,0,0,0,0,0,0,0,0,0,-1,944,722,0,0
-273,302,0,0,0,0,0,0,0,0,0,-1,951,722,0,0
-266,302,0,0,0,0,0,0,0,0,0,-1,958,722,0,0
-259,302,0,0,0,0,0,0,0,0,0,-1,965,722,0,0
-252,302,0,0,0,0,0,0,0,0,0,-1,972,722,0,0
-245,302,0,0,0,0,0,0,0,0,0,-1,979,722,0,0
-238,302,0,0,0,0,0,0,0,0,0,-1,986,722,0,0
-231,302,0,0,0,0,0,0,0,0,0,-1,993,722,0,0
-224,302,0,0,0,0,0,0,0,0,0,-1,1000,722,0,0
-217,302,0,0,0,0,0,0,0,0,0,-1,1007,722,0,0
-210,302,0,0,0,0,0,0,0,0,0,-1,1014,722,0,0
-203,302,0,0,0,0,0,0,0,0,0,-1,1021,722,0,0
-196,302,0,0,0,0,0,0,0,0,0,-1,1028,722,0,0
-189,302,0,0,0,0,0,0,0,0,0,-1,1035,722,0,0
-182,302,0,0,0,0,0,0,0,0,0,-1,1042,722,0,0
-175,302,0,0,0,0,0,0,0,0,0,-1,1049,722,0,0
-168,302,0,0,0,0,0,0,0,0,0,-1,1056,722,0,0
-161,302,0,0,0,0,0,0,0,0,0,-1,1063,722,0,0
-154,302,0,0,0,0,0,0,0,0,0,-1,1070,722,0,0
-147,302,0,0,0,0,0,0,0,0,0,-1,1077,722,0,0
-140,302,0,0,0,0,0,0,0,0,0,-1,1084,722,0,0
-133,302,0,0,0,0,0,0,0,0,0,-1,1091,722,0,0
-126,302,0,0,0,0,0,0,0,0,0,-1,1098,722,0,0
-119,302,0,0,0,0,0,0,0,0,0,-1,1105,722,0,0
-112,302,0,0,0,0,0,0,0,0,0,-1,1112,722,0,0
-105,302,0,0,0,0,0,0,0,0,0,-1,1119,722,0,0
-98,302,0,0,0,0,0,0,0,0,0,-1,1126,722,0,0
-91,302,0,0,0,0,0,0,0,0,0,-1,1133,722,0,0
-84,302,0,0,0,0,0,0,0,0,0,-1,1140,722,0,0
-77,302,0,0,0,0,0,0,0,0,0,-1,1147,722,0,0
-70,302,0,0,0,0,0,0,0,0,0,-1,1154,722,0,0
-63,302,0,0,0,0,0,0,0,0,0,-1,1161,722,0,0
-56,302,0,0,0,0,0,0,0,0,0,-1,1168,722,0,0
-49,302,0,0,0,0,0,0,0,0,0,-1,1175,722,0,0
-42,302,0,0,0,0,0,0,0,0,0,-1,1182,722,0,0
-35,302,0,0,0,0,0,0,0,0,0,-1,1189,722,0,0
-28,302,0,0,0,0,0,0,0,0,0,-1,1196,722,0,0
-21,302,0,0,0,0,0,0,0,0,0,-1,1203,722,0,0
-14,302,0,0,0,0,0,0,0,0,0,-1,1210,722,0,0
-7,302,0,0,0,0,0,0,0,0,0,-1,1217,722,0,0
0,302,0,0,0,0,0,0,0,0,0,-1,1224,722,0,0
7,302,0,0,0,0,0,0,0,0,0,-1,1231,722,0,0
14,302,0,0,0,0,0,0,0,0,0,-1,1238,722,0,0
21,302,0,0,0,0,0,0,0,0,0,-1,1245,722,0,0
28,302,0,0,0,0,0,0,0,0,0,-1,1252,722,0,0
35,302,0,0,0,0,0,0,0,0,0,-1,1259,722,0,0
42,302,0,0,0,0,0,0,0,0,0,-1,1266,722,0,0
49,302,0,0,0,0,0,0,0,0,0,-1,1273,722,0,0
56,302,0,0,0,0,0,0,0,0,0,-1,1280,722,0,0
63,302,0,0,0,0,0,0,0,0,0,-1,1287,722,0,0
70,302,0,0,0,0,0,0,0,0,0,-1,1294,722,0,0
77,302,0,0,0,0,0,0,0,0,0,-1,1301,722,0,0
84,302,0,0,0,0,0,0,0,0,0,-1,1308,722,0,0
91,302,0,0,0,0,0,0,0,0,0,-1,1315,722,0,0
98,302,0,0,0,0,0,0,0,0,0,-1,1322,722,0,0
105,302,0,0,0,0,0,0,0,0,0,-1,1329,722,0,0
112,302,0,0,0,0,0,0,0,0,0,-1,1336,722,0,0
119,302,0,0,0,0,0,0,0,0,0,-1,1343,722,0,0
126,302,0,0,0,0,0,0,0,0,0,-1,1350,722,0,0
133,302,0,0,0,0,0,0,0,0,0,-1,1357,722,0,0
140,302,0,0,0,0,0,0,0,0,0,-1,1364,722,0,0
147,302,0,0,0,0,0,0,0,0,0,-1,1371,722,0,0
154,302,0,0,0,0,0,0,0,0,0,-1,1378,722,0,0
161,302,0,0,0,0,0,0,0,0,0,-1,1385,722,0,0
168,302,0,0,0,0,0,0,0,0,0,-1,1392,722,0,0
175,302,0,0,0,0,0,0,0,0,0,-1,1399,722,0,0
182,302,0,0,0,0,0,0,0,0,0,-1,1406,722,0,0
189,302,0,0,0,0,0,0,0,0,0,-1,1413,722,0,0
196,302,0,0,0,0,0,0,0,0,0,-1,1420,722,0,0
203,302,0,0,0,0,0,0,0,0,0,-1,1427,722,0,0
210,302,0,0,0,0,0,0,0,0,0,-1,1434,722,0,0
217,302,0,0,0,0,0,0,0,0,0,-1,1441,722,0,0
224,302,0,0,0,0,0,0,0,0,0,-1,1448,722,0,0
231,302,0,0,0,0,0,0,0,0,0,-1,1455,722,0,0
238,302,0,0,0,0,0,0,0,0,0,-1,1462,722,0,0
245,302,0,0,0,0,0,0,0,0,0,-1,1469,722,0,0
252,302,0,0,0,0,0,0,0,0,0,-1,1476,722,0,0
259,302,0,0,0,0,0,0,0,0,0,-1,1483,722,0,0
266,302,0,0,0,0,0,0,0,0,0,-1,1490,722,0,0
273,302,0,0,0,0,0,0,0,0,0,-1,1497,722,0,0
280,302,0,0,0,0,0,0,0,0,0,-1,1504,722,0,0
287,302,0,0,0,0,0,0,0,0,0,-1,1511,722,0,0
294,302,0,0,0,0,0,0,0,0,0,-1,1518,722,0,0
301,302,0,0,0,0,0,0,0,0,0,-1,1525,722,0,0
308,302,0,0,0,0,0,0,0,0,0,-1,1532,722,0,0
315,302,0,0,0,0,0,0,0,0,0,-1,1539,722,0,0
322,302,0,0,0,0,0,0,0,0,0,-1,1546,722,0,0
329,302,0,0,0,0,0,0,0,0,0,-1,1553,722,0,0
336,302,0,0,0,0,0,0,0,0,0,-1,1560,722,0,0
343,302,0,0,0,0,0,0,0,0,0,-1,1567,722,0,0
350,302,0,0,0,0,0,0,0,0,0,-1,1574,722,0,0
357,302,0,0,0,0,0,0,0,0,0,-1,1581,722,0,0
364,302,0,0,0,0,0,0,0,0,0,-1,1588,722,0,0
371,302,0,0,0,0,0,0,0,0,0,-1,1595,722,0,0
378,302,0,0,0,0,0,0,0,0,0,-1,1602,722,0,0
385,302,0,0,0,0,0,0,0,0,0,-1,1609,722,0,0
392,302,0,0,0,0,0,0,0,0,0,-1,1616,722,0,0
399,302,0,0,0,0,0,0,0,0,0,-1,1623,722,0,0
406,302,0,0,0,0,0,0,0,0,0,-1,1630,722,0,0
413,302,0,0,0,0,0,0,0,0,0,-1,1637,722,0,0
420,302,0,0,0,0,0,0,0,0,0,-1,1644,722,0,0
427,302,0,0,0,0,0,0,0,0,0,-1,1651,722,0,0
434,302,0,0,0,0,0,0,0,0,0,-1,1658,722,0,0
441,302,0,0,0,0,0,0,0,0,0,-1,1665,722,0,0
448,302,0,0,0,0,0,0,0,0,0,-1,1672,722,0,0
455,302,0,0,0,0,0,0,0,0,0,-1,1679,722,0,0
462,302,0,0,0,0,0,0,0,0,0,-1,1686,722,0,0
469,302,0,0,0,0,0,0,0,0,0,-1,1693,722,0,0
476,302,0,0,0,0,0,0,0,0,0,-1,1700,722,0,0
483,302,0,0,0,0,0,0,0,0,0,-1,1707,722,0,0
490,302,0,0,0,0,0,0,0,0,0,-1,1714,722,0,0
497,302,0,0,0,0,0,0,0,0,0,-1,1721,722,0,0
504,302,0,0,0,0,0,0,0,0,0,-1,1728,722,0,0
511,302,0,0,0,0,0,0,0,0,0,-1,1735,722,0,0
518,302,0,0,0,0,0,0,0,0,0,-1,1742,722,0,0
525,302,0,0,0,0,0,0,0,0,0,-1,1749,722,0,0
532,302,0,0,0,0,0,0,0,0,0,-1,1756,722,0,0
539,302,0,0,0,0,0,0,0,0,0,-1,1763,722,0,0
546,302,44.5226,3.35297,-0.0213958,0.081857,0.00793284,0.0824629,-0.0220017,1.49456,0.0635908,0.045635,1770,722,44.5226,-3.35296
553,302,44.6987,3.58752,-0.0272767,0.0717899,0.0113944,0.0730836,-0.0285703,1.45775,0.0605365,0.0448202,1777,722,44.6988,-3.58755
560,302,44.5889,3.88361,-0.0264059,0.0625068,0.0115367,0.0639794,-0.0278785,1.44384,0.0543822,0.0490842,1784,722,44.5889,-3.88359
567,302,44.1815,4.22626,0,0,0,0,0,0,0,-1,1791,722,44.1815,-4.22627
574,302,37.9297,1.69781,0,0,0,0,0,0,0,-1,1798,722,37.9297,-1.69781
581,302,38.2401,2.2843,0,0,0,0,0,0,0,-1,1805,722,38.2402,-2.28431
588,302,26.9731,7.19983,0,0,0,0,0,0,0,-1,1812,722,26.9732,-7.19981
595,302,27.3826,8.13104,0,0,0,0,0,0,0,-1,1819,722,27.3825,-8.13102
602,302,14.7349,5.21246,0,0,0,0,0,0,0,-1,1826,722,14.7349,-5.21247
609,302,11.1578,-0.125854,0,0,0,0,0,0,0,-1,1833,722,11.1579,0.125839
616,302,27.0975,-4.46222,0,0,0,0,0,0,0,-1,1840,722,27.0976,4.46222
623,302,27.0889,-3.91919,0.00224493,0.00731609,0.000740684,0.00742206,0.00213896,1.42869,0.00441143,0.0159256,1847,722,27.0889,3.91916
630,302,27.0085,-3.35626,0.00210752,0.00455883,0.000348413,0.00460739,0.00205896,1.43232,0.00266508,0.0115629,1854,722,27.0085,3.35627
637,302,26.957,-2.80786,0.0019059,0.00261945,-0.00011832,0.00263856,0.00188679,-1.41069,0.00156965,0.0144173,1861,722,26.9571,2.80787
644,302,26.9484,-2.2558,0.001112,0.000679133,-0.000267146,0.00123938,0.000551749,-0.444945,0.000716989,0.015323,1868,722,26.9484,2.25578
651,302,26.9456,-1.67365,-9.4813e-06,5.12446e-05,-6.27259e-05,9.05698e-05,-4.88066e-05,-1.0108,8.16643e-05,0.0146111,1875,722,26.9455,1.67362
658,302,26.9471,-1.11145,-0.00100642,0.000282232,-4.86129e-05,0.000284064,-0.00100826,-1.53314,0.0007842,0.0149972,1882,722,26.9471,1.11147
665,302,26.931,-0.571411,-0.00181926,0.000760145,-0.000116064,0.000765357,-0.00182447,-1.52592,0.00153635,0.0140271,1889,722,26.931,0.571432
672,302,26.9078,-0.0205078,-0.00273395,0.00134677,-0.000182957,0.00135495,-0.00274213,-1.52608,0.00241022,0.0115701,1896,722,26.9078,0.0204789
679,302,26.8767,0.557495,-0.00369249,0.00217008,-0.000242979,0.00218013,-0.00370255,-1.52945,0.00343407,0.0096567,1903,722,26.8767,-0.557509
686,302,26.8873,1.14331,-0.00468488,0.00317225,-0.000227913,0.00317886,-0.00469149,-1.54182,0.00457184,0.0182254,1910,722,26.8874,-1.1433
693,302,26.8315,1.73383,0,0,0,0,0,0,0,-1,1917,722,26.8316,-1.7338
700,302,25.4069,1.97308,0,0,0,0,0,0,0,-1,1924,722,25.4068,-1.97311
707,302,16.7321,4.76685,0,0,0,0,0,0,0,-1,1931,722,16.7321,-4.76687
714,302,17.2,5.77594,0,0,0,0,0,0,0,-1,1938,722,17.2,-5.77595
721,302,17.7914,6.60394,0,0,0,0,0,0,0,-1,1945,722,17.7914,-6.60395
728,302,17.2798,4.81702,0,0,0,0,0,0,0,-1,1952,722,17.2798,-4.81703
735,302,0,0,0,0,0,0,0,0,0,-1,1959,722,0,0
742,302,0,0,0,0,0,0,0,0,0,-1,1966,722,0,0
749,302,0,0,0,0,0,0,0,0,0,-1,1973,722,0,0
756,302,0,0,0,0,0,0,0,0,0,-1,1980,722,0,0
763,302,0,0,0,0,0,0,0,0,0,-1,1987,722,0,0
770,302,0,0,0,0,0,0,0,0,0,-1,1994,722,0,0
777,302,0,0,0,0,0,0,0,0,0,-1,2001,722,0,0
784,302,0,0,0,0,0,0,0,0,0,-1,2008,722,0,0
791,302,0,0,0,0,0,0,0,0,0,-1,2015,722,0,0
798,302,0,0,0,0,0,0,0,0,0,-1,2022,722,0,0
805,302,0,0,0,0,0,0,0,0,0,-1,2029,722,0,0
812,302,0,0,0,0,0,0,0,0,0,-1,2036,722,0,0
-700,295,0,0,0,0,0,0,0,0,0,-1,524,729,0,0
-693,295,0,0,0,0,0,0,0,0,0,-1,531,729,0,0
-686,295,0,0,0,0,0,0,0,0,0,-1,538,729,0,0
-679,295,0,0,0,0,0,0,0,0,0,-1,545,729,0,0
-672,295,0,0,0,0,0,0,0,0,0,-1,552,729,0,0
-665,295,0,0,0,0,0,0,0,0,0,-1,559,729,0,0
-658,295,0,0,0,0,0,0,0,0,0,-1,566,729,0,0
-651,295,0,0,0,0,0,0,0,0,0,-1,573,729,0,0
-644,295,0,0,0,0,0,0,0,0,0,-1,580,729,0,0
-637,295,0,0,0,0,0,0,0,0,0,-1,587,729,0,0
-630,295,0,0,0,0,0,0,0,0,0,-1,594,729,0,0
-623,295,0,0,0,0,0,0,0,0,0,-1,601,729,0,0
-616,295,-13.4911,1.31738,0,0,0,0,0,0,0,-1,608,729,-13.4911,-1.3174
-609,295,-10.2864,0.832031,0,0,0,0,0,0,0,-1,615,729,-10.2863,-0.832034
-602,295,-8.19006,3.01587,0,0,0,0,0,0,0,-1,622,729,-8.19005,-3.01588
-595,295,-0.615479,-1.95447,0,0,0,0,0,0,0,-1,629,729,-0.615481,1.95445
-588,295,-7.98999,1.56903,0,0,0,0,0,0,0,-1,636,729,-7.98997,-1.56905
-581,295,-12.0404,0.150574,0,0,0,0,0,0,0,-1,643,729,-12.0404,-0.150604
-574,295,-12.1605,-0.0739746,0,0,0,0,0,0,0,-1,650,729,-12.1605,0.0739856
-567,295,-17.1127,-0.323364,0,0,0,0,0,0,0,-1,657,729,-17.1127,0.323368
-560,295,-17.4779,-0.878357,0.000588194,0.00291166,-0.0005298,0.00302676,0.000473091,-1.35686,0.00188009,0.0342597,664,729,-17.4779,0.878343
-553,295,-17.4787,-1.42078,0.000596703,0.00227209,-0.000418581,0.00237085,0.000497945,-1.3391,0.0014435,0.0190758,671,729,-17.4787,1.42076
-546,295,-17.5428,-1.92651,0.000584567,0.00155399,-0.000238981,0.0016097,0.000528855,-1.34176,0.000947401,0.0213702,678,729,-17.5429,1.92649
-539,295,-17.5686,-2.41693,0.000568168,0.000874131,-5.45721e-05,0.000883573,0.000558726,-1.39947,0.000516054,0.020263,685,729,-17.5686,2.41694
-532,295,-17.5663,-2.97064,0.000559805,0.000120428,0.000276169,0.000693008,-1.27749e-05,0.449407,0.000466322,0.0167236,692,729,-17.5664,2.97063
-525,295,-17.5482,-3.53906,0.000334432,-0.000505969,0.000729713,0.000756282,-0.000927819,0.524164,0.000973996,0.0152059,699,729,-17.5482,3.53906
-518,295,-17.5564,-4.06689,-0.000258177,-0.00174438,0.00119034,0.000401968,-0.00240452,0.506358,0.00175244,0.0104684,706,729,-17.5564,4.06691
-511,295,-17.5723,-4.58325,-0.00151121,-0.00389501,0.00177988,-0.000561002,-0.00484522,0.490365,0.00306033,0.00873556,713,729,-17.5723,4.58327
-504,295,-17.5867,-5.10327,-0.00305136,-0.00616561,0.00248941,-0.0016722,-0.00754478,0.505919,0.00457547,0.0107378,720,729,-17.5867,5.10329
-497,295,-17.642,-5.56201,-0.0051953,-0.00923631,0.0032877,-0.00335687,-0.0110747,0.509868,0.00655717,0.0215889,727,729,-17.6421,5.56204
-490,295,-17.7004,-5.99933,0,0,0,0,0,0,0,-1,734,729,-17.7004,5.99936
-483,295,-6.84503,-0.454651,0,0,0,0,0,0,0,-1,741,729,-6.84505,0.454639
-476,295,-13.1738,-0.836243,0,0,0,0,0,0,0,-1,748,729,-13.1738,0.836223
-469,295,-26.5608,-0.466187,0,0,0,0,0,0,0,-1,755,729,-26.5608,0.466162
-462,295,-29.7701,-0.792664,0,0,0,0,0,0,0,-1,762,729,-29.7701,0.792642
-455,295,-33.181,-0.472229,0,0,0,0,0,0,0,-1,769,729,-33.181,0.472208
-448,295,-30.5955,2.21436,0,0,0,0,0,0,0,-1,776,729,-30.5955,-2.21439
-441,295,-33.0787,0.852539,0,0,0,0,0,0,0,-1,783,729,-33.0787,-0.852561
-434,295,-33.2675,0.936279,0,0,0,0,0,0,0,-1,790,729,-33.2675,-0.936288
-427,295,0,0,0,0,0,0,0,0,0,-1,797,729,0,0
-420,295,0,0,0,0,0,0,0,0,0,-1,804,729,0,0
-413,295,0,0,0,0,0,0,0,0,0,-1,811,729,0,0
-406,295,0,0,0,0,0,0,0,0,0,-1,818,729,0,0
-399,295,0,0,0,0,0,0,0,0,0,-1,825,729,0,0
-392,295,0,0,0,0,0,0,0,0,0,-1,832,729,0,0
-385,295,0,0,0,0,0,0,0,0,0,-1,839,729,0,0
-378,295,0,0,0,0,0,0,0,0,0,-1,846,729,0,0
-371,295,0,0,0,0,0,0,0,0,0,-1,853,729,0,0
-364,295,0,0,0,0,0,0,0,0,0,-1,860,729,0,0
-357,295,0,0,0,0,0,0,0,0,0,-1,867,729,0,0
-350,295,0,0,0,0,0,0,0,0,0,-1,874,729,0,0
-343,295,0,0,0,0,0,0,0,0,0,-1,881,729,0,0
-336,295,0,0,0,0,0,0,0,0,0,-1,888,729,0,0
-329,295,0,0,0,0,0,0,0,0,0,-1,895,729,0,0
-322,295,0,0,0,0,0,0,0,0,0,-1,902,729,0,0
-315,295,0,0,0,0,0,0,0,0,0,-1,909,729,0,0
-308,295,0,0,0,0,0,0,0,0,0,-1,916,729,0,0
-301,295,0,0,0,0,0,0,0,0,0,-1,923,729,0,0
-294,295,0,0,0,0,0,0,0,0,0,-1,930,729,0,0
-287,295,0,0,0,0,0,0,0,0,0,-1,937,729,0,0
-280,295,0,0,0,0,0,0,0,0,0,-1,944,729,0,0
-273,295,0,0,0,0,0,0,0,0,0,-1,951,729,0,0
-266,295,0,0,0,0,0,0,0,0,0,-1,958,729,0,0
-259,295,0,0,0,0,0,0,0,0,0,-1,965,729,0,0
-252,295,0,0,0,0,0,0,0,0,0,-1,972,729,0,0
-245,295,0,0,0,0,0,0,0,0,0,-1,979,729,0,0
-238,295,0,0,0,0,0,0,0,0,0,-1,986,729,0,0
-231,295,0,0,0,0,0,0,0,0,0,-1,993,729,0,0
-224,295,0,0,0,0,0,0,0,0,0,-1,1000,729,0,0
-217,295,0,0,0,0,0,0,0,0,0,-1,1007,729,0,0
-210,295,0,0,0,0,0,0,0,0,0,-1,1014,729,0,0
-203,295,0,0,0,0,0,0,0,0,0,-1,1021,729,0,0
-196,295,0,0,0,0,0,0,0,0,0,-1,1028,729,0,0
-189,295,0,0,0,0,0,0,0,0,0,-1,1035,729,0,0
-182,295,0,0,0,0,0,0,0,0,0,-1,1042,729,0,0
-175,295,0,0,0,0,0,0,0,0,0,-1,1049,729,0,0
-168,295,0,0,0,0,0,0,0,0,0,-1,1056,729,0,0
-161,295,0,0,0,0,0,0,0,0,0,-1,1063,729,0,0
-154,295,0,0,0,0,0,0,0,0,0,-1,1070,729,0,0
-147,295,0,0,0,0,0,0,0,0,0,-1,1077,729,0,0
-140,295,0,0,0,0,0,0,0,0,0,-1,1084,729,0,0
-133,295,0,0,0,0,0,0,0,0,0,-1,1091,729,0,0
-126,295,0,0,0,0,0,0,0,0,0,-1,1098,729,0,0
-119,295,0,0,0,0,0,0,0,0,0,-1,1105,729,0,0
-112,295,0,0,0,0,0,0,0,0,0,-1,1112,729,0,0
-105,295,0,0,0,0,0,0,0,0,0,-1,1119,729,0,0
-98,295,0,0,0,0,0,0,0,0,0,-1,1126,729,0,0
-91,295,0,0,0,0,0,0,0,0,0,-1,1133,729,0,0
-84,295,0,0,0,0,0,0,0,0,0,-1,1140,729,0,0
-77,295,0,0,0,0,0,0,0,0,0,-1,1147,729,0,0
-70,295,0,0,0,0,0,0,0,0,0,-1,1154,729,0,0
-63,295,0,0,0,0,0,0,0,0,0,-1,1161,729,0,0
-56,295,0,0,0,0,0,0,0,0,0,-1,1168,729,0,0
-49,295,0,0,0,0,0,0,0,0,0,-1,1175,729,0,0
-42,295,0,0,0,0,0,0,0,0,0,-1,1182,729,0,0
-35,295,0,0,0,0,0,0,0,0,0,-1,1189,729,0,0
-28,295,0,0,0,0,0,0,0,0,0,-1,1196,729,0,0
-21,295,0,0,0,0,0,0,0,0,0,-1,1203,729,0,0
-14,295,0,0,0,0,0,0,0,0,0,-1,1210,729,0,0
-7,295,0,0,0,0,0,0,0,0,0,-1,1217,729,0,0
0,295,0,0,0,0,0,0,0,0,0,-1,1224,729,0,0
7,295,0,0,0,0,0,0,0,0,0,-1,1231,729,0,0
14,295,0,0,0,0,0,0,0,0,0,-1,1238,729,0,0
21,295,0,0,0,0,0,0,0,0,0,-1,1245,729,0,0
28,295,0,0,0,0,0,0,0,0,0,-1,1252,729,0,0
35,295,0,0,0,0,0,0,0,0,0,-1,1259,729,0,0
42,295,0,0,0,0,0,0,0,0,0,-1,1266,729,0,0
49,295,0,0,0,0,0,0,0,0,0,-1,1273,729,0,0
56,295,0,0,0,0,0,0,0,0,0,-1,1280,729,0,0
63,295,0,0,0,0,0,0,0,0,0,-1,1287,729,0,0
70,295,0,0,0,0,0,0,0,0,0,-1,1294,729,0,0
77,295,0,0,0,0,0,0,0,0,0,-1,1301,729,0,0
84,295,0,0,0,0,0,0,0,0,0,-1,1308,729,0,0
91,295,0,0,0,0,0,0,0,0,0,-1,1315,729,0,0
98,295,0,0,0,0,0,0,0,0,0,-1,1322,729,0,0
105,295,0,0,0,0,0,0,0,0,0,-1,1329,729,0,0
112,295,0,0,0,0,0,0,0,0,0,-1,1336,729,0,0
119,295,0,0,0,0,0,0,0,0,0,-1,1343,729,0,0
126,295,0,0,0,0,0,0,0,0,0,-1,1350,729,0,0
133,295,0,0,0,0,0,0,0,0,0,-1,1357,729,0,0
140,295,0,0,0,0,0,0,0,0,0,-1,1364,729,0,0
147,295,0,0,0,0,0,0,0,0,0,-1,1371,729,0,0
154,295,0,0,0,0,0,0,0,0,0,-1,1378,729,0,0
161,295,0,0,0,0,0,0,0,0,0,-1,1385,729,0,0
168,295,0,0,0,0,0,0,0,0,0,-1,1392,729,0,0
175,295,0,0,0,0,0,0,0,0,0,-1,1399,729,0,0
182,295,0,0,0,0,0,0,0,0,0,-1,1406,729,0,0
189,295,0,0,0,0,0,0,0,0,0,-1,1413,729,0,0
196,295,0,0,0,0,0,0,0,0,0,-1,1420,729,0,0
203,295,0,0,0,0,0,0,0,0,0,-1,1427,729,0,0
210,295,0,0,0,0,0,0,0,0,0,-1,1434,729,0,0
217,295,0,0,0,0,0,0,0,0,0,-1,1441,729,0,0
224,295,0,0,0,0,0,0,0,0,0,-1,1448,729,0,0
231,295,0,0,0,0,0,0,0,0,0,-1,1455,729,0,0
238,295,0,0,0,0,0,0,0,0,0,-1,1462,729,0,0
245,295,0,0,0,0,0,0,0,0,0,-1,1469,729,0,0
252,295,0,0,0,0,0,0,0,0,0,-1,1476,729,0,0
259,295,0,0,0,0,0,0,0,0,0,-1,1483,729,0,0
266,295,0,0,0,0,0,0,0,0,0,-1,1490,729,0,0
273,295,0,0,0,0,0,0,0,0,0,-1,1497,729,0,0
280,295,0,0,0,0,0,0,0,0,0,-1,1504,729,0,0
287,295,0,0,0,0,0,0,0,0,0,-1,1511,729,0,0
294,295,0,0,0,0,0,0,0,0,0,-1,1518,729,0,0
301,295,0,0,0,0,0,0,0,0,0,-1,1525,729,0,0
308,295,0,0,0,0,0,0,0,0,0,-1,1532,729,0,0
315,295,0,0,0,0,0,0,0,0,0,-1,1539,729,0,0
322,295,0,0,0,0,0,0,0,0,0,-1,1546,729,0,0
329,295,0,0,0,0,0,0,0,0,0,-1,1553,729,0,0
336,295,0,0,0,0,0,0,0,0,0,-1,1560,729,0,0
343,295,0,0,0,0,0,0,0,0,0,-1,1567,729,0,0
350,295,0,0,0,0,0,0,0,0,0,-1,1574,729,0,0
357,295,0,0,0,0,0,0,0,0,0,-1,1581,729,0,0
364,295,0,0,0,0,0,0,0,0,0,-1,1588,729,0,0
371,295,0,0,0,0,0,0,0,0,0,-1,1595,729,0,0
378,295,0,0,0,0,0,0,0,0,0,-1,1602,729,0,0
385,295,0,0,0,0,0,0,0,0,0,-1,1609,729,0,0
392,295,0,0,0,0,0,0,0,0,0,-1,1616,729,0,0
399,295,0,0,0,0,0,0,0,0,0,-1,1623,729,0,0
406,295,0,0,0,0,0,0,0,0,0,-1,1630,729,0,0
413,295,0,0,0,0,0,0,0,0,0,-1,1637,729,0,0
420,295,0,0,0,0,0,0,0,0,0,-1,1644,729,0,0
427,295,0,0,0,0,0,0,0,0,0,-1,1651,729,0,0
434,295,0,0,0,0,0,0,0,0,0,-1,1658,729,0,0
441,295,0,0,0,0,0,0,0,0,0,-1,1665,729,0,0
448,295,0,0,0,0,0,0,0,0,0,-1,1672,729,0,0
455,295,0,0,0,0,0,0,0,0,0,-1,1679,729,0,0
462,295,0,0,0,0,0,0,0,0,0,-1,1686,729,0,0
469,295,0,0,0,0,0,0,0,0,0,-1,1693,729,0,0
476,295,0,0,0,0,0,0,0,0,0,-1,1700,729,0,0
483,295,0,0,0,0,0,0,0,0,0,-1,1707,729,0,0
490,295,0,0,0,0,0,0,0,0,0,-1,1714,729,0,0
497,295,0,0,0,0,0,0,0,0,0,-1,1721,729,0,0
504,295,0,0,0,0,0,0,0,0,0,-1,1728,729,0,0
511,295,0,0,0,0,0,0,0,0,0,-1,1735,729,0,0
518,295,0,0,0,0,0,0,0,0,0,-1,1742,729,0,0
525,295,0,0,0,0,0,0,0,0,0,-1,1749,729,0,0
532,295,0,0,0,0,0,0,0,0,0,-1,1756,729,0,0
539,295,0,0,0,0,0,0,0,0,0,-1,1763,729,0,0
546,295,45.0194,2.68616,-0.013585,0.073186,0.00493795,0.0734661,-0.0138651,1.51413,0.0541935,0.0465117,1770,729,45.0194,-2.68618
553,295,44.8136,3.06067,-0.0242632,0.0667049,0.0103364,0.0678646,-0.025423,1.45907,0.0556866,0.0459227,1777,729,44.8136,-3.06068
560,295,44.6329,3.6228,-0.0270236,0.0627215,0.0119393,0.0642827,-0.0285848,1.44077,0.0549216,0.0458073,1784,729,44.6329,-3.62281
567,295,43.8202,3.89935,-0.0241276,0.0545375,0.011154,0.0560884,-0.0256786,1.43263,0.0482842,0.0468136,1791,729,43.8202,-3.89934
574,295,43.2974,4.64819,0,0,0,0,0,0,0,-1,1798,729,43.2974,-4.64822
581,295,37.8191,2.19592,0,0,0,0,0,0,0,-1,1805,729,37.8191,-2.19594
588,295,39.0542,2.45679,0,0,0,0,0,0,0,-1,1812,729,39.0542,-2.45676
595,295,27.2102,6.99121,0,0,0,0,0,0,0,-1,1819,729,27.2103,-6.99121
602,295,26.9065,7.82141,0,0,0,0,0,0,0,-1,1826,729,26.9064,-7.8214
609,295,11.7737,2.19989,0,0,0,0,0,0,0,-1,1833,729,11.7736,-2.19988
616,295,27.6611,-4.47461,0,0,0,0,0,0,0,-1,1840,729,27.6611,4.47464
623,295,27.6003,-3.91119,0.00369078,0.00754257,0.000766852,0.00768962,0.00354372,1.38133,0.00444414,0.0336323,1847,729,27.6004,3.91119
630,295,27.5604,-3.33173,0.0033991,0.00486023,0.00033586,0.00493373,0.0033256,1.35534,0.00290545,0.0130092,1854,729,27.5604,3.33175
637,295,27.5388,-2.77747,0.00312159,0.00295016,-0.000184175,0.00323902,0.00283273,-0.567605,0.00203746,0.0141387,1861,729,27.5388,2.77748
644,295,27.5299,-2.22424,0.00209786,0.000712967,-0.000376266,0.00219349,0.000617341,-0.248875,0.00130612,0.0131616,1868,729,27.53,2.22421
651,295,27.5126,-1.66364,0.00070921,-0.000189032,-6.75451e-05,0.000714261,-0.000194083,-0.0746376,0.000552354,0.0131693,1875,729,27.5126,1.66364
658,295,27.5092,-1.09479,-0.000393205,2.3238e-05,3.77132e-05,2.66258e-05,-0.000396593,1.48121,0.000273703,0.0123192,1882,729,27.5092,1.09478
665,295,27.4894,-0.5495,-0.00110323,0.000599426,1.83469e-05,0.000599623,-0.00110343,1.56002,0.000997495,0.0113204,1889,729,27.4893,0.54951
672,295,27.4587,-0.00500488,-0.0017677,0.00126261,2.25484e-05,0.00126278,-0.00176787,1.56336,0.00175783,0.0146047,1896,729,27.4588,0.0050242
679,295,27.4243,0.575623,-0.00230068,0.00220898,5.30298e-05,0.00220961,-0.00230131,1.55904,0.00260456,0.0114373,1903,729,27.4243,-0.575622
686,295,27.4379,1.11841,-0.00279823,0.00331563,0.000165718,0.00332011,-0.00280272,1.54372,0.00353922,0.0110818,1910,729,27.4379,-1.11843
693,295,27.4146,1.65558,-0.00309234,0.00465228,0.000318552,0.00466536,-0.00310542,1.52976,0.00451649,0.0450419,1917,729,27.4145,-1.65558
700,295,27.4716,2.1925,0,0,0,0,0,0,0,-1,1924,729,27.4715,-2.19247
707,295,22.2661,3.05206,0,0,0,0,0,0,0,-1,1931,729,22.2662,-3.05207
714,295,17.4906,4.63068,0,0,0,0,0,0,0,-1,1938,729,17.4906,-4.63066
721,295,18.3792,5.32281,0,0,0,0,0,0,0,-1,1945,729,18.3791,-5.32283
728,295,17.379,3.74866,0,0,0,0,0,0,0,-1,1952,729,17.379,-3.74863
735,295,0,0,0,0,0,0,0,0,0,-1,1959,729,0,0
742,295,0,0,0,0,0,0,0,0,0,-1,1966,729,0,0
749,295,0,0,0,0,0,0,0,0,0,-1,1973,729,0,0
756,295,0,0,0,0,0,0,0,0,0,-1,1980,729,0,0
763,295,0,0,0,0,0,0,0,0,0,-1,1987,729,0,0
770,295,0,0,0,0,0,0,0,0,0,-1,1994,729,0,0
777,295,0,0,0,0,0,0,0,0,0,-1,2001,729,0,0
784,295,0,0,0,0,0,0,0,0,0,-1,2008,729,0,0
791,295,0,0,0,0,0,0,0,0,0,-1,2015,729,0,0
798,295,0,0,0,0,0,0,0,0,0,-1,2022,729,0,0
805,295,0,0,0,0,0,0,0,0,0,-1,2029,729,0,0
812,295,0,0,0,0,0,0,0,0,0,-1,2036,729,0,0
-700,288,0,0,0,0,0,0,0,0,0,-1,524,736,0,0
-693,288,0,0,0,0,0,0,0,0,0,-1,531,736,0,0
-686,288,0,0,0,0,0,0,0,0,0,-1,538,736,0,0
-679,288,0,0,0,0,0,0,0,0,0,-1,545,736,0,0
-672,288,0,0,0,0,0,0,0,0,0,-1,552,736,0,0
-665,288,0,0,0,0,0,0,0,0,0,-1,559,736,0,0
-658,288,0,0,0,0,0,0,0,0,0,-1,566,736,0,0
-651,288,0,0,0,0,0,0,0,0,0,-1,573,736,0,0
-644,288,0,0,0,0,0,0,0,0,0,-1,580,736,0,0
-637,288,0,0,0,0,0,0,0,0,0,-1,587,736,0,0
-630,288,0,0,0,0,0,0,0,0,0,-1,594,736,0,0
-623,288,0,0,0,0,0,0,0,0,0,-1,601,736,0,0
-616,288,-11.7584,2.4425,0,0,0,0,0,0,0,-1,608,736,-11.7584,-2.44251
-609,288,-10.3007,2.32178,0,0,0,0,0,0,0,-1,615,736,-10.3007,-2.32178
-602,288,-10.1458,-1.85559,0,0,0,0,0,0,0,-1,622,736,-10.1458,1.85556
-595,288,-7.63208,1.81769,0,0,0,0,0,0,0,-1,629,736,-7.63205,-1.81766
-588,288,-8.19269,1.50598,0,0,0,0,0,0,0,-1,636,736,-8.19268,-1.50601
-581,288,-13.1915,0.659241,0,0,0,0,0,0,0,-1,643,736,-13.1915,-0.659228
-574,288,-17.6379,0.190979,0,0,0,0,0,0,0,-1,650,736,-17.6379,-0.190975
-567,288,-17.7788,-0.361938,0.000601282,0.0025996,-0.000472361,0.00270563,0.000495252,-1.34999,0.00166343,0.037792,657,736,-17.7788,0.361948
-560,288,-18.0171,-0.935913,0.000380339,0.00203859,-0.00022923,0.00206969,0.000349235,-1.43593,0.00127937,0.0175713,664,736,-18.0171,0.935921
-553,288,-18.032,-1.37811,0.000304119,0.0014879,-4.15931e-05,0.00148935,0.00030266,-1.53572,0.000908971,0.0173618,671,736,-18.032,1.37813
-546,288,-18.0587,-1.87744,0.000267942,0.000860363,0.000177775,0.000909615,0.000218689,1.30053,0.00054825,0.0199919,678,736,-18.0587,1.87742
-539,288,-18.0652,-2.41364,0.000218853,0.000253744,0.000386092,0.000622785,-0.000150188,0.807975,0.000473264,0.0180586,685,736,-18.0652,2.41363
-532,288,-18.0461,-2.96552,0.000243893,-0.000410582,0.000826607,0.000805679,-0.000972368,0.596923,0.00102806,0.0144612,692,736,-18.0461,2.96551
-525,288,-18.0683,-3.52039,0.000108555,-0.00100614,0.00141443,0.00107149,-0.00196907,0.597718,0.00178078,0.0132188,699,736,-18.0683,3.52037
-518,288,-18.1136,-4.04016,-0.000496467,-0.00232765,0.00203209,0.000816771,-0.00364089,0.573735,0.0027404,0.0111271,706,736,-18.1136,4.04018
-511,288,-18.1275,-4.55963,-0.00181855,-0.00460074,0.0027478,-0.000129779,-0.00628951,0.551078,0.00415042,0.00859861,713,736,-18.1275,4.55962
-504,288,-18.1415,-5.06653,-0.00324835,-0.00685374,0.00362596,-0.00100169,-0.0091004,0.55471,0.00576213,0.0108636,720,736,-18.1415,5.06653
-497,288,-18.1468,-5.3924,-0.00520622,-0.00982978,0.00454826,-0.00241594,-0.0126201,0.550275,0.00773487,0.0318601,727,736,-18.1468,5.39241
-490,288,-18.0372,-5.65912,0,0,0,0,0,0,0,-1,734,736,-18.0372,5.6591
-483,288,-17.3287,0.564758,0,0,0,0,0,0,0,-1,741,736,-17.3287,-0.56477
-476,288,-26.136,0.452148,0,0,0,0,0,0,0,-1,748,736,-26.136,-0.452177
-469,288,-27.7904,0.649841,0,0,0,0,0,0,0,-1,755,736,-27.7904,-0.649854
-462,288,-32.1728,0.637939,0,0,0,0,0,0,0,-1,762,736,-32.1728,-0.637932
-455,288,-34.752,1.40771,0,0,0,0,0,0,0,-1,769,736,-34.752,-1.40769
-448,288,-33.851,1.07935,0,0,0,0,0,0,0,-1,776,736,-33.851,-1.07937
-441,288,-33.1253,1.11163,0,0,0,0,0,0,0,-1,783,736,-33.1253,-1.11164
-434,288,-32.9424,1.30786,0,0,0,0,0,0,0,-1,790,736,-32.9424,-1.30786
-427,288,0,0,0,0,0,0,0,0,0,-1,797,736,0,0
-420,288,0,0,0,0,0,0,0,0,0,-1,804,736,0,0
-413,288,0,0,0,0,0,0,0,0,0,-1,811,736,0,0
-406,288,0,0,0,0,0,0,0,0,0,-1,818,736,0,0
-399,288,0,0,0,0,0,0,0,0,0,-1,825,736,0,0
-392,288,0,0,0,0,0,0,0,0,0,-1,832,736,0,0
-385,288,0,0,0,0,0,0,0,0,0,-1,839,736,0,0
-378,288,0,0,0,0,0,0,0,0,0,-1,846,736,0,0
-371,288,0,0,0,0,0,0,0,0,0,-1,853,736,0,0
-364,288,0,0,0,0,0,0,0,0,0,-1,860,736,0,0
-357,288,0,0,0,0,0,0,0,0,0,-1,867,736,0,0
-350,288,0,0,0,0,0,0,0,0,0,-1,874,736,0,0
-343,288,0,0,0,0,0,0,0,0,0,-1,881,736,0,0
-336,288,0,0,0,0,0,0,0,0,0,-1,888,736,0,0
-329,288,0,0,0,0,0,0,0,0,0,-1,895,736,0,0
-322,288,0,0,0,0,0,0,0,0,0,-1,902,736,0,0
-315,288,0,0,0,0,0,0,0,0,0,-1,909,736,0,0
-308,288,0,0,0,0,0,0,0,0,0,-1,916,736,0,0
-301,288,0,0,0,0,0,0,0,0,0,-1,923,736,0,0
-294,288,0,0,0,0,0,0,0,0,0,-1,930,736,0,0
-287,288,0,0,0,0,0,0,0,0,0,-1,937,736,0,0
-280,288,0,0,0,0,0,0,0,0,0,-1,944,736,0,0
-273,288,0,0,0,0,0,0,0,0,0,-1,951,736,0,0
-266,288,0,0,0,0,0,0,0,0,0,-1,958,736,0,0
-259,288,0,0,0,0,0,0,0,0,0,-1,965,736,0,0
-252,288,0,0,0,0,0,0,0,0,0,-1,972,736,0,0
-245,288,0,0,0,0,0,0,0,0,0,-1,979,736,0,0
-238,288,0,0,0,0,0,0,0,0,0,-1,986,736,0,0
-231,288,0,0,0,0,0,0,0,0,0,-1,993,736,0,0
-224,288,0,0,0,0,0,0,0,0,0,-1,1000,736,0,0
-217,288,0,0,0,0,0,0,0,0,0,-1,1007,736,0,0
-210,288,0,0,0,0,0,0,0,0,0,-1,1014,736,0,0
-203,288,0,0,0,0,0,0,0,0,0,-1,1021,736,0,0
-196,288,0,0,0,0,0,0,0,0,0,-1,1028,736,0,0
-189,288,0,0,0,0,0,0,0,0,0,-1,1035,736,0,0
-182,288,0,0,0,0,0,0,0,0,0,-1,1042,736,0,0
-175,288,0,0,0,0,0,0,0,0,0,-1,1049,736,0,0
-168,288,0,0,0,0,0,0,0,0,0,-1,1056,736,0,0
-161,288,0,0,0,0,0,0,0,0,0,-1,1063,736,0,0
-154,288,0,0,0,0,0,0,0,0,0,-1,1070,736,0,0
-147,288,0,0,0,0,0,0,0,0,0,-1,1077,736,0,0
-140,288,0,0,0,0,0,0,0,0,0,-1,1084,736,0,0
-133,288,0,0,0,0,0,0,0,0,0,-1,1091,736,0,0
-126,288,0,0,0,0,0,0,0,0,0,-1,1098,736,0,0
-119,288,0,0,0,0,0,0,0,0,0,-1,1105,736,0,0
-112,288,0,0,0,0,0,0,0,0,0,-1,1112,736,0,0
-105,288,0,0,0,0,0,0,0,0,0,-1,1119,736,0,0
-98,288,0,0,0,0,0,0,0,0,0,-1,1126,736,0,0
-91,288,0,0,0,0,0,0,0,0,0,-1,1133,736,0,0
-84,288,0,0,0,0,0,0,0,0,0,-1,1140,736,0,0
-77,288,0,0,0,0,0,0,0,0,0,-1,1147,736,0,0
-70,288,0,0,0,0,0,0,0,0,0,-1,1154,736,0,0
-63,288,0,0,0,0,0,0,0,0,0,-1,1161,736,0,0
-56,288,0,0,0,0,0,0,0,0,0,-1,1168,736,0,0
-49,288,0,0,0,0,0,0,0,0,0,-1,1175,736,0,0
-42,288,0,0,0,0,0,0,0,0,0,-1,1182,736,0,0
-35,288,0,0,0,0,0,0,0,0,0,-1,1189,736,0,0
-28,288,0,0,0,0,0,0,0,0,0,-1,1196,736,0,0
-21,288,0,0,0,0,0,0,0,0,0,-1,1203,736,0,0
-14,288,0,0,0,0,0,0,0,0,0,-1,1210,736,0,0
-7,288,0,0,0,0,0,0,0,0,0,-1,1217,736,0,0
0,288,0,0,0,0,0,0,0,0,0,-1,1224,736,0,0
7,288,0,0,0,0,0,0,0,0,0,-1,1231,736,0,0
14,288,0,0,0,0,0,0,0,0,0,-1,1238,736,0,0
21,288,0,0,0,0,0,0,0,0,0,-1,1245,736,0,0
28,288,0,0,0,0,0,0,0,0,0,-1,1252,736,0,0
35,288,0,0,0,0,0,0,0,0,0,-1,1259,736,0,0
42,288,0,0,0,0,0,0,0,0,0,-1,1266,736,0,0
49,288,0,0,0,0,0,0,0,0,0,-1,1273,736,0,0
56,288,0,0,0,0,0,0,0,0,0,-1,1280,736,0,0
63,288,0,0,0,0,0,0,0,0,0,-1,1287,736,0,0
70,288,0,0,0,0,0,0,0,0,0,-1,1294,736,0,0
77,288,0,0,0,0,0,0,0,0,0,-1,1301,736,0,0
84,288,0,0,0,0,0,0,0,0,0,-1,1308,736,0,0
91,288,0,0,0,0,0,0,0,0,0,-1,1315,736,0,0
98,288,0,0,0,0,0,0,0,0,0,-1,1322,736,0,0
105,288,0,0,0,0,0,0,0,0,0,-1,1329,736,0,0
112,288,0,0,0,0,0,0,0,0,0,-1,1336,736,0,0
119,288,0,0,0,0,0,0,0,0,0,-1,1343,736,0,0
126,288,0,0,0,0,0,0,0,0,0,-1,1350,736,0,0
133,288,0,0,0,0,0,0,0,0,0,-1,1357,736,0,0
140,288,0,0,0,0,0,0,0,0,0,-1,1364,736,0,0
147,288,0,0,0,0,0,0,0,0,0,-1,1371,736,0,0
154,288,0,0,0,0,0,0,0,0,0,-1,1378,736,0,0
161,288,0,0,0,0,0,0,0,0,0,-1,1385,736,0,0
168,288,0,0,0,0,0,0,0,0,0,-1,1392,736,0,0
175,288,0,0,0,0,0,0,0,0,0,-1,1399,736,0,0
182,288,0,0,0,0,0,0,0,0,0,-1,1406,736,0,0
189,288,0,0,0,0,0,0,0,0,0,-1,1413,736,0,0
196,288,0,0,0,0,0,0,0,0,0,-1,1420,736,0,0
203,288,0,0,0,0,0,0,0,0,0,-1,1427,736,0,0
210,288,0,0,0,0,0,0,0,0,0,-1,1434,736,0,0
217,288,0,0,0,0,0,0,0,0,0,-1,1441,736,0,0
224,288,0,0,0,0,0,0,0,0,0,-1,1448,736,0,0
231,288,0,0,0,0,0,0,0,0,0,-1,1455,736,0,0
238,288,0,0,0,0,0,0,0,0,0,-1,1462,736,0,0
245,288,0,0,0,0,0,0,0,0,0,-1,1469,736,0,0
252,288,0,0,0,0,0,0,0,0,0,-1,1476,736,0,0
259,288,0,0,0,0,0,0,0,0,0,-1,1483,736,0,0
266,288,0,0,0,0,0,0,0,0,0,-1,1490,736,0,0
273,288,0,0,0,0,0,0,0,0,0,-1,1497,736,0,0
280,288,0,0,0,0,0,0,0,0,0,-1,1504,736,0,0
287,288,0,0,0,0,0,0,0,0,0,-1,1511,736,0,0
294,288,0,0,0,0,0,0,0,0,0,-1,1518,736,0,0
301,288,0,0,0,0,0,0,0,0,0,-1,1525,736,0,0
308,288,0,0,0,0,0,0,0,0,0,-1,1532,736,0,0
315,288,0,0,0,0,0,0,0,0,0,-1,1539,736,0,0
322,288,0,0,0,0,0,0,0,0,0,-1,1546,736,0,0
329,288,0,0,0,0,0,0,0,0,0,-1,1553,736,0,0
336,288,0,0,0,0,0,0,0,0,0,-1,1560,736,0,0
343,288,0,0,0,0,0,0,0,0,0,-1,1567,736,0,0
350,288,0,0,0,0,0,0,0,0,0,-1,1574,736,0,0
357,288,0,0,0,0,0,0,0,0,0,-1,1581,736,0,0
364,288,0,0,0,0,0,0,0,0,0,-1,1588,736,0,0
371,288,0,0,0,0,0,0,0,0,0,-1,1595,736,0,0
378,288,0,0,0,0,0,0,0,0,0,-1,1602,736,0,0
385,288,0,0,0,0,0,0,0,0,0,-1,1609,736,0,0
392,288,0,0,0,0,0,0,0,0,0,-1,1616,736,0,0
399,288,0,0,0,0,0,0,0,0,0,-1,1623,736,0,0
406,288,0,0,0,0,0,0,0,0,0,-1,1630,736,0,0
413,288,0,0,0,0,0,0,0,0,0,-1,1637,736,0,0
420,288,0,0,0,0,0,0,0,0,0,-1,1644,736,0,0
427,288,0,0,0,0,0,0,0,0,0,-1,1651,736,0,0
434,288,0,0,0,0,0,0,0,0,0,-1,1658,736,0,0
441,288,0,0,0,0,0,0,0,0,0,-1,1665,736,0,0
448,288,0,0,0,0,0,0,0,0,0,-1,1672,736,0,0
455,288,0,0,0,0,0,0,0,0,0,-1,1679,736,0,0
462,288,0,0,0,0,0,0,0,0,0,-1,1686,736,0,0
469,288,0,0,0,0,0,0,0,0,0,-1,1693,736,0,0
476,288,0,0,0,0,0,0,0,0,0,-1,1700,736,0,0
483,288,0,0,0,0,0,0,0,0,0,-1,1707,736,0,0
490,288,0,0,0,0,0,0,0,0,0,-1,1714,736,0,0
497,288,0,0,0,0,0,0,0,0,0,-1,1721,736,0,0
504,288,0,0,0,0,0,0,0,0,0,-1,1728,736,0,0
511,288,0,0,0,0,0,0,0,0,0,-1,1735,736,0,0
518,288,0,0,0,0,0,0,0,0,0,-1,1742,736,0,0
525,288,0,0,0,0,0,0,0,0,0,-1,1749,736,0,0
532,288,0,0,0,0,0,0,0,0,0,-1,1756,736,0,0
539,288,0,0,0,0,0,0,0,0,0,-1,1763,736,0,0
546,288,0,0,0,0,0,0,0,0,0,-1,1770,736,0,0
553,288,44.6665,2.66455,0,0,0,0,0,0,0,-1,1777,736,44.6665,-2.66458
560,288,44.5247,3.24725,-0.0239384,0.0565101,0.0108991,0.0579606,-0.0253889,1.43849,0.0493314,0.0442345,1784,736,44.5247,-3.24725
567,288,44.2982,3.59094,-0.0219955,0.0522098,0.0108559,0.0537654,-0.023551,1.42847,0.0457607,0.0471383,1791,736,44.2982,-3.59097
574,288,43.9329,3.85583,0,0,0,0,0,0,0,-1,1798,736,43.9328,-3.85583
581,288,44.63,3.258,0,0,0,0,0,0,0,-1,1805,736,44.63,-3.25797
588,288,44.1985,4.59546,0,0,0,0,0,0,0,-1,1812,736,44.1985,-4.59548
595,288,40.1831,2.50763,0,0,0,0,0,0,0,-1,1819,736,40.1831,-2.50762
602,288,26.7634,7.61279,0,0,0,0,0,0,0,-1,1826,736,26.7635,-7.61279
609,288,17.5223,4.86414,0,0,0,0,0,0,0,-1,1833,736,17.5223,-4.86412
616,288,13.4886,0.801331,0,0,0,0,0,0,0,-1,1840,736,13.4886,-0.80132
623,288,28.1432,-3.93445,0,0,0,0,0,0,0,-1,1847,736,28.1432,3.93444
630,288,28.1096,-3.31128,0.0044835,0.00502033,0.000306362,0.00515923,0.0043446,1.14513,0.00320267,0.0244677,1854,736,28.1097,3.31129
637,288,28.1243,-2.74896,0.00430797,0.00322932,-0.00022841,0.00435435,0.00318294,-0.200303,0.00260186,0.0105879,1861,736,28.1243,2.74894
644,288,28.1067,-2.19952,0.00317935,0.000781883,-0.000438779,0.00325713,0.000704102,-0.175444,0.00197892,0.0100496,1868,736,28.1067,2.19952
651,288,28.0693,-1.65234,0.00155968,-0.000458591,-2.76775e-05,0.00156006,-0.000458971,-0.01371,0.00122211,0.0117034,1875,736,28.0693,1.65232
658,288,28.0602,-1.06659,0.000316374,-0.000340792,0.000152291,0.000349951,-0.000374368,0.217002,0.000418265,0.0170092,1882,736,28.0601,1.06659
665,288,28.0494,-0.533813,-0.00036408,0.000318145,0.000173931,0.000359929,-0.000405864,1.33503,0.000442396,0.0175306,1889,736,28.0494,0.533833
672,288,28.0294,0.0117798,-0.000875555,0.00102406,0.000230117,0.00105154,-0.000903033,1.45195,0.00112956,0.0176341,1896,736,28.0294,-0.0117991
679,288,28.006,0.608826,-0.00120619,0.00202232,0.000332616,0.00205623,-0.0012401,1.46919,0.00192248,0.01488,1903,736,28.006,-0.608842
686,288,27.9729,1.10718,-0.0014823,0.00315304,0.000508638,0.0032082,-0.00153746,1.46278,0.00279593,0.0108608,1910,736,27.9729,-1.10721
693,288,27.9895,1.70984,-0.00151962,0.00452025,0.000758111,0.00461395,-0.00161332,1.44782,0.00373185,0.0208276,1917,736,27.9896,-1.70985
700,288,27.9083,2.39459,-0.00116894,0.00642782,0.00117732,0.0066061,-0.00134721,1.42051,0.00491507,0.0460344,1924,736,27.9083,-2.39458
707,288,28.0001,3.1073,0,0,0,0,0,0,0,-1,1931,736,28.0001,-3.10728
714,288,23.0149,3.82544,0,0,0,0,0,0,0,-1,1938,736,23.0149,-3.82541
721,288,18.0732,3.69385,0,0,0,0,0,0,0,-1,1945,736,18.0732,-3.69387
728,288,19.3208,3.91455,0,0,0,0,0,0,0,-1,1952,736,19.3209,-3.91455
735,288,18.7712,3.51312,0,0,0,0,0,0,0,-1,1959,736,18.7713,-3.51309
742,288,0,0,0,0,0,0,0,0,0,-1,1966,736,0,0
749,288,0,0,0,0,0,0,0,0,0,-1,1973,736,0,0
756,288,0,0,0,0,0,0,0,0,0,-1,1980,736,0,0
763,288,0,0,0,0,0,0,0,0,0,-1,1987,736,0,0
770,288,0,0,0,0,0,0,0,0,0,-1,1994,736,0,0
777,288,0,0,0,0,0,0,0,0,0,-1,2001,736,0,0
784,288,0,0,0,0,0,0,0,0,0,-1,2008,736,0,0
791,288,0,0,0,0,0,0,0,0,0,-1,2015,736,0,0
798,288,0,0,0,0,0,0,0,0,0,-1,2022,736,0,0
805,288,0,0,0,0,0,0,0,0,0,-1,2029,736,0,0
812,288,0,0,0,0,0,0,0,0,0,-1,2036,736,0,0
-700,281,0,0,0,0,0,0,0,0,0,-1,524,743,0,0
-693,281,0,0,0,0,0,0,0,0,0,-1,531,743,0,0
-686,281,0,0,0,0,0,0,0,0,0,-1,538,743,0,0
-679,281,0,0,0,0,0,0,0,0,0,-1,545,743,0,0
-672,281,0,0,0,0,0,0,0,0,0,-1,552,743,0,0
-665,281,0,0,0,0,0,0,0,0,0,-1,559,743,0,0
-658,281,0,0,0,0,0,0,0,0,0,-1,566,743,0,0
-651,281,0,0,0,0,0,0,0,0,0,-1,573,743,0,0
-644,281,0,0,0,0,0,0,0,0,0,-1,580,743,0,0
-637,281,0,0,0,0,0,0,0,0,0,-1,587,743,0,0
-630,281,0,0,0,0,0,0,0,0,0,-1,594,743,0,0
-623,281,-19.1697,5.67017,0,0,0,0,0,0,0,-1,601,743,-19.1697,-5.67019
-616,281,-11.5906,2.6853,0,0,0,0,0,0,0,-1,608,743,-11.5906,-2.68529
-609,281,-16.1972,4.14838,0,0,0,0,0,0,0,-1,615,743,-16.1972,-4.14837
-602,281,-12.7697,3.94086,0,0,0,0,0,0,0,-1,622,743,-12.7697,-3.94086
-595,281,-10.4797,-1.07404,0,0,0,0,0,0,0,-1,629,743,-10.4798,1.07402
-588,281,-13.277,1.49817,0,0,0,0,0,0,0,-1,636,743,-13.2771,-1.49817
-581,281,-18.8912,0.544434,0,0,0,0,0,0,0,-1,643,743,-18.8912,-0.544443
-574,281,-18.3959,0.122925,0.000681884,0.00158909,8.84817e-05,0.00159764,0.000673335,1.47447,0.000926181,0.0391297,650,743,-18.3959,-0.122955
-567,281,-18.5092,-0.350037,0.000245609,0.00121116,0.000355981,0.00132821,0.000128556,1.25311,0.000845887,0.0191059,657,743,-18.5091,0.350046
-560,281,-18.5569,-0.885742,-6.4981e-05,0.000751049,0.00058448,0.00105584,-0.000369773,1.09012,0.000854258,0.0083292,664,743,-18.5569,0.885717
-553,281,-18.5679,-1.39258,-0.000192462,0.000299307,0.000745096,0.000838042,-0.000731197,0.944774,0.0009067,0.0127217,671,743,-18.5679,1.39261
-546,281,-18.5648,-1.86469,-0.000215463,-0.000183116,0.00089764,0.000698497,-0.00109708,0.794406,0.00104515,0.0151465,678,743,-18.5648,1.8647
-539,281,-18.5679,-2.4054,-0.000258946,-0.000651684,0.00103106,0.000594281,-0.00150491,0.691299,0.0012494,0.0134838,685,743,-18.5679,2.40538
-532,281,-18.5974,-2.93469,-0.00017319,-0.00110866,0.00149953,0.00092986,-0.00221171,0.634219,0.00186344,0.0135262,692,743,-18.5974,2.93469
-525,281,-18.6315,-3.47504,-0.000287494,-0.0015732,0.00209482,0.00126089,-0.00312159,0.636521,0.00260514,0.0161228,699,743,-18.6315,3.47502
-518,281,-18.6526,-4.02014,-0.00102776,-0.00286754,0.00271988,0.000923577,-0.00481887,0.622331,0.0035606,0.0125202,706,743,-18.6527,4.02014
-511,281,-18.6532,-4.55151,-0.00251336,-0.00518576,0.00343176,-0.00016684,-0.00753228,0.599747,0.00496684,0.011415,713,743,-18.6532,4.55153
-504,281,-18.7031,-5.05774,-0.00399407,-0.0073459,0.0043003,-0.00105465,-0.0102853,0.599592,0.00653376,0.0153348,720,743,-18.7031,5.05776
-497,281,-18.5618,-5.52594,-0.00597961,-0.0102145,0.00517871,-0.00250217,-0.0136919,0.591333,0.00841875,0.0472172,727,743,-18.5617,5.52597
-490,281,-18.3322,-5.87,0,0,0,0,0,0,0,-1,734,743,-18.3321,5.87001
-483,281,-22.1078,-2.34973,0,0,0,0,0,0,0,-1,741,743,-22.1078,2.3497
-476,281,-28.0016,2.17786,0,0,0,0,0,0,0,-1,748,743,-28.0016,-2.17786
-469,281,-33.4158,-0.953064,0,0,0,0,0,0,0,-1,755,743,-33.4158,0.953048
-462,281,-33.7737,-1.08679,0,0,0,0,0,0,0,-1,762,743,-33.7738,1.08679
-455,281,-34.5995,1.30475,0,0,0,0,0,0,0,-1,769,743,-34.5995,-1.30473
-448,281,-33.7681,1.11536,0,0,0,0,0,0,0,-1,776,743,-33.7681,-1.11535
-441,281,-33.157,1.22894,0,0,0,0,0,0,0,-1,783,743,-33.157,-1.22896
-434,281,0,0,0,0,0,0,0,0,0,-1,790,743,0,0
-427,281,0,0,0,0,0,0,0,0,0,-1,797,743,0,0
-420,281,0,0,0,0,0,0,0,0,0,-1,804,743,0,0
-413,281,0,0,0,0,0,0,0,0,0,-1,811,743,0,0
-406,281,0,0,0,0,0,0,0,0,0,-1,818,743,0,0
-399,281,0,0,0,0,0,0,0,0,0,-1,825,743,0,0
-392,281,0,0,0,0,0,0,0,0,0,-1,832,743,0,0
-385,281,0,0,0,0,0,0,0,0,0,-1,839,743,0,0
-378,281,0,0,0,0,0,0,0,0,0,-1,846,743,0,0
-371,281,0,0,0,0,0,0,0,0,0,-1,853,743,0,0
-364,281,0,0,0,0,0,0,0,0,0,-1,860,743,0,0
-357,281,0,0,0,0,0,0,0,0,0,-1,867,743,0,0
-350,281,0,0,0,0,0,0,0,0,0,-1,874,743,0,0
-343,281,0,0,0,0,0,0,0,0,0,-1,881,743,0,0
-336,281,0,0,0,0,0,0,0,0,0,-1,888,743,0,0
-329,281,0,0,0,0,0,0,0,0,0,-1,895,743,0,0
-322,281,0,0,0,0,0,0,0,0,0,-1,902,743,0,0
-315,281,0,0,0,0,0,0,0,0,0,-1,909,743,0,0
-308,281,0,0,0,0,0,0,0,0,0,-1,916,743,0,0
-301,281,0,0,0,0,0,0,0,0,0,-1,923,743,0,0
-294,281,0,0,0,0,0,0,0,0,0,-1,930,743,0,0
-287,281,0,0,0,0,0,0,0,0,0,-1,937,743,0,0
-280,281,0,0,0,0,0,0,0,0,0,-1,944,743,0,0
-273,281,0,0,0,0,0,0,0,0,0,-1,951,743,0,0
-266,281,0,0,0,0,0,0,0,0,0,-1,958,743,0,0
-259,281,0,0,0,0,0,0,0,0,0,-1,965,743,0,0
-252,281,0,0,0,0,0,0,0,0,0,-1,972,743,0,0
-245,281,0,0,0,0,0,0,0,0,0,-1,979,743,0,0
-238,281,0,0,0,0,0,0,0,0,0,-1,986,743,0,0
-231,281,0,0,0,0,0,0,0,0,0,-1,993,743,0,0
-224,281,0,0,0,0,0,0,0,0,0,-1,1000,743,0,0
-217,281,0,0,0,0,0,0,0,0,0,-1,1007,743,0,0
-210,281,0,0,0,0,0,0,0,0,0,-1,1014,743,0,0
-203,281,0,0,0,0,0,0,0,0,0,-1,1021,743,0,0
-196,281,0,0,0,0,0,0,0,0,0,-1,1028,743,0,0
-189,281,0,0,0,0,0,0,0,0,0,-1,1035,743,0,0
-182,281,0,0,0,0,0,0,0,0,0,-1,1042,743,0,0
-175,281,0,0,0,0,0,0,0,0,0,-1,1049,743,0,0
-168,281,0,0,0,0,0,0,0,0,0,-1,1056,743,0,0
-161,281,0,0,0,0,0,0,0,0,0,-1,1063,743,0,0
-154,281,0,0,0,0,0,0,0,0,0,-1,1070,743,0,0
-147,281,0,0,0,0,0,0,0,0,0,-1,1077,743,0,0
-140,281,0,0,0,0,0,0,0,0,0,-1,1084,743,0,0
-133,281,0,0,0,0,0,0,0,0,0,-1,1091,743,0,0
-126,281,0,0,0,0,0,0,0,0,0,-1,1098,743,0,0
-119,281,0,0,0,0,0,0,0,0,0,-1,1105,743,0,0
-112,281,0,0,0,0,0,0,0,0,0,-1,1112,743,0,0
-105,281,0,0,0,0,0,0,0,0,0,-1,1119,743,0,0
-98,281,0,0,0,0,0,0,0,0,0,-1,1126,743,0,0
-91,281,0,0,0,0,0,0,0,0,0,-1,1133,743,0,0
-84,281,0,0,0,0,0,0,0,0,0,-1,1140,743,0,0
-77,281,0,0,0,0,0,0,0,0,0,-1,1147,743,0,0
-70,281,0,0,0,0,0,0,0,0,0,-1,1154,743,0,0
-63,281,0,0,0,0,0,0,0,0,0,-1,1161,743,0,0
-56,281,0,0,0,0,0,0,0,0,0,-1,1168,743,0,0
-49,281,0,0,0,0,0,0,0,0,0,-1,1175,743,0,0
-42,281,0,0,0,0,0,0,0,0,0,-1,1182,743,0,0
-35,281,0,0,0,0,0,0,0,0,0,-1,1189,743,0,0
-28,281,0,0,0,0,0,0,0,0,0,-1,1196,743,0,0
-21,281,0,0,0,0,0,0,0,0,0,-1,1203,743,0,0
-14,281,0,0,0,0,0,0,0,0,0,-1,1210,743,0,0
-7,281,0,0,0,0,0,0,0,0,0,-1,1217,743,0,0
0,281,0,0,0,0,0,0,0,0,0,-1,1224,743,0,0
7,281,0,0,0,0,0,0,0,0,0,-1,1231,743,0,0
14,281,0,0,0,0,0,0,0,0,0,-1,1238,743,0,0
21,281,0,0,0,0,0,0,0,0,0,-1,1245,743,0,0
28,281,0,0,0,0,0,0,0,0,0,-1,1252,743,0,0
35,281,0,0,0,0,0,0,0,0,0,-1,1259,743,0,0
42,281,0,0,0,0,0,0,0,0,0,-1,1266,743,0,0
49,281,0,0,0,0,0,0,0,0,0,-1,1273,743,0,0
56,281,0,0,0,0,0,0,0,0,0,-1,1280,743,0,0
63,281,0,0,0,0,0,0,0,0,0,-1,1287,743,0,0
70,281,0,0,0,0,0,0,0,0,0,-1,1294,743,0,0
77,281,0,0,0,0,0,0,0,0,0,-1,1301,743,0,0
84,281,0,0,0,0,0,0,0,0,0,-1,1308,743,0,0
91,281,0,0,0,0,0,0,0,0,0,-1,1315,743,0,0
98,281,0,0,0,0,0,0,0,0,0,-1,1322,743,0,0
105,281,0,0,0,0,0,0,0,0,0,-1,1329,743,0,0
112,281,0,0,0,0,0,0,0,0,0,-1,1336,743,0,0
119,281,0,0,0,0,0,0,0,0,0,-1,1343,743,0,0
126,281,0,0,0,0,0,0,0,0,0,-1,1350,743,0,0
133,281,0,0,0,0,0,0,0,0,0,-1,1357,743,0,0
140,281,0,0,0,0,0,0,0,0,0,-1,1364,743,0,0
147,281,0,0,0,0,0,0,0,0,0,-1,1371,743,0,0
154,281,0,0,0,0,0,0,0,0,0,-1,1378,743,0,0
161,281,0,0,0,0,0,0,0,0,0,-1,1385,743,0,0
168,281,0,0,0,0,0,0,0,0,0,-1,1392,743,0,0
175,281,0,0,0,0,0,0,0,0,0,-1,1399,743,0,0
182,281,0,0,0,0,0,0,0,0,0,-1,1406,743,0,0
189,281,0,0,0,0,0,0,0,0,0,-1,1413,743,0,0
196,281,0,0,0,0,0,0,0,0,0,-1,1420,743,0,0
203,281,0,0,0,0,0,0,0,0,0,-1,1427,743,0,0
210,281,0,0,0,0,0,0,0,0,0,-1,1434,743,0,0
217,281,0,0,0,0,0,0,0,0,0,-1,1441,743,0,0
224,281,0,0,0,0,0,0,0,0,0,-1,1448,743,0,0
231,281,0,0,0,0,0,0,0,0,0,-1,1455,743,0,0
238,281,0,0,0,0,0,0,0,0,0,-1,1462,743,0,0
245,281,0,0,0,0,0,0,0,0,0,-1,1469,743,0,0
252,281,0,0,0,0,0,0,0,0,0,-1,1476,743,0,0
259,281,0,0,0,0,0,0,0,0,0,-1,1483,743,0,0
266,281,0,0,0,0,0,0,0,0,0,-1,1490,743,0,0
273,281,0,0,0,0,0,0,0,0,0,-1,1497,743,0,0
280,281,0,0,0,0,0,0,0,0,0,-1,1504,743,0,0
287,281,0,0,0,0,0,0,0,0,0,-1,1511,743,0,0
294,281,0,0,0,0,0,0,0,0,0,-1,1518,743,0,0
301,281,0,0,0,0,0,0,0,0,0,-1,1525,743,0,0
308,281,0,0,0,0,0,0,0,0,0,-1,1532,743,0,0
315,281,0,0,0,0,0,0,0,0,0,-1,1539,743,0,0
322,281,0,0,0,0,0,0,0,0,0,-1,1546,743,0,0
329,281,0,0,0,0,0,0,0,0,0,-1,1553,743,0,0
336,281,0,0,0,0,0,0,0,0,0,-1,1560,743,0,0
343,281,0,0,0,0,0,0,0,0,0,-1,1567,743,0,0
350,281,0,0,0,0,0,0,0,0,0,-1,1574,743,0,0
357,281,0,0,0,0,0,0,0,0,0,-1,1581,743,0,0
364,281,0,0,0,0,0,0,0,0,0,-1,1588,743,0,0
371,281,0,0,0,0,0,0,0,0,0,-1,1595,743,0,0
378,281,0,0,0,0,0,0,0,0,0,-1,1602,743,0,0
385,281,0,0,0,0,0,0,0,0,0,-1,1609,743,0,0
392,281,0,0,0,0,0,0,0,0,0,-1,1616,743,0,0
399,281,0,0,0,0,0,0,0,0,0,-1,1623,743,0,0
406,281,0,0,0,0,0,0,0,0,0,-1,1630,743,0,0
413,281,0,0,0,0,0,0,0,0,0,-1,1637,743,0,0
420,281,0,0,0,0,0,0,0,0,0,-1,1644,743,0,0
427,281,0,0,0,0,0,0,0,0,0,-1,1651,743,0,0
434,281,0,0,0,0,0,0,0,0,0,-1,1658,743,0,0
441,281,0,0,0,0,0,0,0,0,0,-1,1665,743,0,0
448,281,0,0,0,0,0,0,0,0,0,-1,1672,743,0,0
455,281,0,0,0,0,0,0,0,0,0,-1,1679,743,0,0
462,281,0,0,0,0,0,0,0,0,0,-1,1686,743,0,0
469,281,0,0,0,0,0,0,0,0,0,-1,1693,743,0,0
476,281,0,0,0,0,0,0,0,0,0,-1,1700,743,0,0
483,281,0,0,0,0,0,0,0,0,0,-1,1707,743,0,0
490,281,0,0,0,0,0,0,0,0,0,-1,1714,743,0,0
497,281,0,0,0,0,0,0,0,0,0,-1,1721,743,0,0
504,281,0,0,0,0,0,0,0,0,0,-1,1728,743,0,0
511,281,0,0,0,0,0,0,0,0,0,-1,1735,743,0,0
518,281,0,0,0,0,0,0,0,0,0,-1,1742,743,0,0
525,281,0,0,0,0,0,0,0,0,0,-1,1749,743,0,0
532,281,0,0,0,0,0,0,0,0,0,-1,1756,743,0,0
539,281,0,0,0,0,0,0,0,0,0,-1,1763,743,0,0
546,281,0,0,0,0,0,0,0,0,0,-1,1770,743,0,0
553,281,0,0,0,0,0,0,0,0,0,-1,1777,743,0,0
560,281,44.8674,3.11121,0,0,0,0,0,0,0,-1,1784,743,44.8675,-3.11119
567,281,44.5067,3.40161,0,0,0,0,0,0,0,-1,1791,743,44.5067,-3.40164
574,281,45.1505,2.00494,0,0,0,0,0,0,0,-1,1798,743,45.1505,-2.00497
581,281,44.7604,3.04907,-0.0110663,0.0364245,0.00765456,0.0376277,-0.0122696,1.41488,0.0300227,0.0458072,1805,743,44.7604,-3.04906
588,281,44.4753,3.91583,-0.00704994,0.0305575,0.00610503,0.0315237,-0.00801617,1.41383,0.0241358,0.0433247,1812,743,44.4754,-3.91581
595,281,44.3922,4.31311,0,0,0,0,0,0,0,-1,1819,743,44.3922,-4.31313
602,281,43.4924,3.27167,0,0,0,0,0,0,0,-1,1826,743,43.4925,-3.27166
609,281,32.7925,1.28723,0,0,0,0,0,0,0,-1,1833,743,32.7925,-1.28722
616,281,21.3191,-0.253906,0,0,0,0,0,0,0,-1,1840,743,21.3191,0.253931
623,281,28.5464,-3.8045,0,0,0,0,0,0,0,-1,1847,743,28.5464,3.8045
630,281,28.6144,-3.28857,0.00521576,0.00624194,-0.00043504,0.00640155,0.00505615,-1.21916,0.00389742,0.0460921,1854,743,28.6143,3.28859
637,281,28.6451,-2.74127,0.00501958,0.00467098,-0.000940028,0.00580133,0.00388923,-0.693728,0.00341362,0.0146057,1861,743,28.6451,2.74125
644,281,28.6494,-2.18018,0.00384147,0.00209786,-0.00104796,0.00433285,0.00160649,-0.438449,0.00252927,0.00980952,1868,743,28.6494,2.18017
651,281,28.6359,-1.61603,0.00209073,0.000365761,-0.000450108,0.00220112,0.000255376,-0.240496,0.00139013,0.011889,1875,743,28.6359,1.61606
658,281,28.6217,-1.05768,0.000744578,-1.72536e-05,-6.03053e-05,0.000749322,-2.19977e-05,-0.0785068,0.000507039,0.0216605,1882,743,28.6216,1.05766
665,281,28.6268,-0.536682,8.30923e-05,0.000358903,0.000117364,0.000402083,3.99117e-05,1.21825,0.000255792,0.0219537,1889,743,28.6268,0.536695
672,281,28.5734,0.0445557,-0.000262612,0.00083449,0.000307738,0.000914915,-0.000343037,1.31517,0.000750879,0.0139648,1896,743,28.5733,-0.0445824
679,281,28.5564,0.590698,-0.000419912,0.00178726,0.000499996,0.00189524,-0.000527895,1.3581,0.00147137,0.0213439,1903,743,28.5564,-0.590707
686,281,28.4927,1.10132,-0.000505519,0.00299295,0.000709459,0.00313135,-0.000643916,1.37814,0.00233203,0.0162045,1910,743,28.4927,-1.1013
693,281,28.4866,1.646,-0.000322935,0.00442691,0.00101237,0.00463369,-0.000529708,1.36932,0.00327998,0.012252,1917,743,28.4865,-1.64603
700,281,28.4523,2.21985,0.000257169,0.00633197,0.00146534,0.00666696,-7.78225e-05,1.34605,0.00447081,0.0288474,1924,743,28.4523,-2.21986
707,281,28.293,2.93048,0,0,0,0,0,0,0,-1,1931,743,28.293,-2.93049
714,281,25.0125,2.5105,0,0,0,0,0,0,0,-1,1938,743,25.0124,-2.51053
721,281,16.9656,3.22174,0,0,0,0,0,0,0,-1,1945,743,16.9656,-3.22172
728,281,19.0251,3.63934,0,0,0,0,0,0,0,-1,1952,743,19.0252,-3.63932
735,281,19.0869,2.50311,0,0,0,0,0,0,0,-1,1959,743,19.0869,-2.5031
742,281,0,0,0,0,0,0,0,0,0,-1,1966,743,0,0
749,281,0,0,0,0,0,0,0,0,0,-1,1973,743,0,0
756,281,0,0,0,0,0,0,0,0,0,-1,1980,743,0,0
763,281,0,0,0,0,0,0,0,0,0,-1,1987,743,0,0
770,281,0,0,0,0,0,0,0,0,0,-1,1994,743,0,0
777,281,0,0,0,0,0,0,0,0,0,-1,2001,743,0,0
784,281,0,0,0,0,0,0,0,0,0,-1,2008,743,0,0
791,281,0,0,0,0,0,0,0,0,0,-1,2015,743,0,0
798,281,0,0,0,0,0,0,0,0,0,-1,2022,743,0,0
805,281,0,0,0,0,0,0,0,0,0,-1,2029,743,0,0
812,281,0,0,0,0,0,0,0,0,0,-1,2036,743,0,0
-700,274,0,0,0,0,0,0,0,0,0,-1,524,750,0,0
-693,274,0,0,0,0,0,0,0,0,0,-1,531,750,0,0
-686,274,0,0,0,0,0,0,0,0,0,-1,538,750,0,0
-679,274,0,0,0,0,0,0,0,0,0,-1,545,750,0,0
-672,274,0,0,0,0,0,0,0,0,0,-1,552,750,0,0
-665,274,0,0,0,0,0,0,0,0,0,-1,559,750,0,0
-658,274,0,0,0,0,0,0,0,0,0,-1,566,750,0,0
-651,274,0,0,0,0,0,0,0,0,0,-1,573,750,0,0
-644,274,0,0,0,0,0,0,0,0,0,-1,580,750,0,0
-637,274,0,0,0,0,0,0,0,0,0,-1,587,750,0,0
-630,274,0,0,0,0,0,0,0,0,0,-1,594,750,0,0
-623,274,-19.6909,5.12701,0,0,0,0,0,0,0,-1,601,750,-19.6908,-5.12703
-616,274,-17.9133,3.9024,0,0,0,0,0,0,0,-1,608,750,-17.9133,-3.90239
-609,274,-18.6586,4.92523,0,0,0,0,0,0,0,-1,615,750,-18.6586,-4.92526
-602,274,-18.191,4.28918,0,0,0,0,0,0,0,-1,622,750,-18.191,-4.28919
-595,274,-17.5515,3.23419,0,0,0,0,0,0,0,-1,629,750,-17.5514,-3.23422
-588,274,-18.8171,1.82379,0,0,0,0,0,0,0,-1,636,750,-18.8171,-1.82377
-581,274,-19.1732,0.603088,0.00322337,0.00318181,-0.00194944,0.00515214,0.00125304,-0.780069,0.0031026,0.0460654,643,750,-19.1731,-0.603063
-574,274,-18.9438,0.116699,0.00191985,0.00233196,-0.00104105,0.00318715,0.00106466,-0.883098,0.00187358,0.0240183,650,750,-18.9438,-0.116708
-567,274,-19.0695,-0.392395,0.00108203,0.00164728,-0.000408748,0.0018616,0.000867714,-1.08788,0.00107562,0.0235988,657,750,-19.0695,0.392422
-560,274,-19.0928,-0.856201,0.000461058,0.000981909,9.99685e-05,0.00100044,0.00044253,1.38754,0.000578882,0.0147334,664,750,-19.0928,0.856183
-553,274,-19.0894,-1.37805,6.53619e-05,0.000360332,0.000496136,0.00073044,-0.000304747,0.929872,0.000614279,0.00943478,671,750,-19.0894,1.37804
-546,274,-19.108,-1.89691,-0.000189729,-0.000294939,0.000875131,0.000634377,-0.00111904,0.755379,0.00102515,0.0112515,678,750,-19.1079,1.89693
-539,274,-19.1201,-2.41016,-0.000417964,-0.000842318,0.00115791,0.000547052,-0.00180733,0.694783,0.00142274,0.0114526,685,750,-19.1201,2.41014
-532,274,-19.1376,-2.91602,-0.000402242,-0.00124283,0.00186803,0.0010922,-0.00273727,0.674745,0.00227793,0.0124484,692,750,-19.1377,2.91603
-525,274,-19.1606,-3.43445,-0.000585519,-0.00172361,0.00259223,0.00149939,-0.00380852,0.677352,0.00315971,0.0131108,699,750,-19.1606,3.43444
-518,274,-19.1756,-3.99487,-0.00145865,-0.00302269,0.0032536,0.0011056,-0.00558693,0.667458,0.00414263,0.012134,706,750,-19.1756,3.99489
-511,274,-19.1776,-4.53741,-0.00301771,-0.00530995,0.00395056,-5.03738e-05,-0.00827728,0.644216,0.00550147,0.0127854,713,750,-19.1775,4.53744
-504,274,-19.2383,-5.08307,-0.00445129,-0.00730283,0.00478746,-0.000881803,-0.0108723,0.640674,0.00697289,0.0250132,720,750,-19.2383,5.08304
-497,274,-19.3593,-5.6579,0,0,0,0,0,0,0,-1,727,750,-19.3593,5.65791
-490,274,-13.6545,-3.58826,0,0,0,0,0,0,0,-1,734,750,-13.6546,3.58825
-483,274,-27.8608,1.30981,0,0,0,0,0,0,0,-1,741,750,-27.8608,-1.30979
-476,274,-33.1856,-0.161621,0,0,0,0,0,0,0,-1,748,750,-33.1856,0.161593
-469,274,-33.4237,-0.381287,-0.0240506,-0.0370806,0.00702823,-0.0209823,-0.040149,0.411638,0.023188,0.0482037,755,750,-33.4237,0.381306
-462,274,-33.6888,-0.414124,-0.0345096,-0.0538135,0.00653241,-0.0325069,-0.0558163,0.297492,0.0323711,0.0496535,762,750,-33.6888,0.414114
-455,274,-33.8593,-0.379211,0,0,0,0,0,0,0,-1,769,750,-33.8593,0.379241
-448,274,-33.9085,0.95105,0,0,0,0,0,0,0,-1,776,750,-33.9085,-0.95106
-441,274,0,0,0,0,0,0,0,0,0,-1,783,750,0,0
-434,274,0,0,0,0,0,0,0,0,0,-1,790,750,0,0
-427,274,0,0,0,0,0,0,0,0,0,-1,797,750,0,0
-420,274,0,0,0,0,0,0,0,0,0,-1,804,750,0,0
-413,274,0,0,0,0,0,0,0,0,0,-1,811,750,0,0
-406,274,0,0,0,0,0,0,0,0,0,-1,818,750,0,0
-399,274,0,0,0,0,0,0,0,0,0,-1,825,750,0,0
-392,274,0,0,0,0,0,0,0,0,0,-1,832,750,0,0
-385,274,0,0,0,0,0,0,0,0,0,-1,839,750,0,0
-378,274,0,0,0,0,0,0,0,0,0,-1,846,750,0,0
-371,274,0,0,0,0,0,0,0,0,0,-1,853,750,0,0
-364,274,0,0,0,0,0,0,0,0,0,-1,860,750,0,0
-357,274,0,0,0,0,0,0,0,0,0,-1,867,750,0,0
-350,274,0,0,0,0,0,0,0,0,0,-1,874,750,0,0
-343,274,0,0,0,0,0,0,0,0,0,-1,881,750,0,0
-336,274,0,0,0,0,0,0,0,0,0,-1,888,750,0,0
-329,274,0,0,0,0,0,0,0,0,0,-1,895,750,0,0
-322,274,0,0,0,0,0,0,0,0,0,-1,902,750,0,0
-315,274,0,0,0,0,0,0,0,0,0,-1,909,750,0,0
-308,274,0,0,0,0,0,0,0,0,0,-1,916,750,0,0
-301,274,0,0,0,0,0,0,0,0,0,-1,923,750,0,0
-294,274,0,0,0,0,0,0,0,0,0,-1,930,750,0,0
-287,274,0,0,0,0,0,0,0,0,0,-1,937,750,0,0
-280,274,0,0,0,0,0,0,0,0,0,-1,944,750,0,0
-273,274,0,0,0,0,0,0,0,0,0,-1,951,750,0,0
-266,274,0,0,0,0,0,0,0,0,0,-1,958,750,0,0
-259,274,0,0,0,0,0,0,0,0,0,-1,965,750,0,0
-252,274,0,0,0,0,0,0,0,0,0,-1,972,750,0,0
-245,274,0,0,0,0,0,0,0,0,0,-1,979,750,0,0
-238,274,0,0,0,0,0,0,0,0,0,-1,986,750,0,0
-231,274,0,0,0,0,0,0,0,0,0,-1,993,750,0,0
-224,274,0,0,0,0,0,0,0,0,0,-1,1000,750,0,0
-217,274,0,0,0,0,0,0,0,0,0,-1,1007,750,0,0
-210,274,0,0,0,0,0,0,0,0,0,-1,1014,750,0,0
-203,274,0,0,0,0,0,0,0,0,0,-1,1021,750,0,0
-196,274,0,0,0,0,0,0,0,0,0,-1,1028,750,0,0
-189,274,0,0,0,0,0,0,0,0,0,-1,1035,750,0,0
-182,274,0,0,0,0,0,0,0,0,0,-1,1042,750,0,0
-175,274,0,0,0,0,0,0,0,0,0,-1,1049,750,0,0
-168,274,0,0,0,0,0,0,0,0,0,-1,1056,750,0,0
-161,274,0,0,0,0,0,0,0,0,0,-1,1063,750,0,0
-154,274,0,0,0,0,0,0,0,0,0,-1,1070,750,0,0
-147,274,0,0,0,0,0,0,0,0,0,-1,1077,750,0,0
-140,274,0,0,0,0,0,0,0,0,0,-1,1084,750,0,0
-133,274,0,0,0,0,0,0,0,0,0,-1,1091,750,0,0
-126,274,0,0,0,0,0,0,0,0,0,-1,1098,750,0,0
-119,274,0,0,0,0,0,0,0,0,0,-1,1105,750,0,0
-112,274,0,0,0,0,0,0,0,0,0,-1,1112,750,0,0
-105,274,0,0,0,0,0,0,0,0,0,-1,1119,750,0,0
-98,274,0,0,0,0,0,0,0,0,0,-1,1126,750,0,0
-91,274,0,0,0,0,0,0,0,0,0,-1,1133,750,0,0
-84,274,0,0,0,0,0,0,0,0,0,-1,1140,750,0,0
-77,274,0,0,0,0,0,0,0,0,0,-1,1147,750,0,0
-70,274,0,0,0,0,0,0,0,0,0,-1,1154,750,0,0
-63,274,0,0,0,0,0,0,0,0,0,-1,1161,750,0,0
-56,274,0,0,0,0,0,0,0,0,0,-1,1168,750,0,0
-49,274,0,0,0,0,0,0,0,0,0,-1,1175,750,0,0
-42,274,0,0,0,0,0,0,0,0,0,-1,1182,750,0,0
-35,274,0,0,0,0,0,0,0,0,0,-1,1189,750,0,0
-28,274,0,0,0,0,0,0,0,0,0,-1,1196,750,0,0
-21,274,0,0,0,0,0,0,0,0,0,-1,1203,750,0,0
-14,274,0,0,0,0,0,0,0,0,0,-1,1210,750,0,0
-7,274,0,0,0,0,0,0,0,0,0,-1,1217,750,0,0
0,274,0,0,0,0,0,0,0,0,0,-1,1224,750,0,0
7,274,0,0,0,0,0,0,0,0,0,-1,1231,750,0,0
14,274,0,0,0,0,0,0,0,0,0,-1,1238,750,0,0
21,274,0,0,0,0,0,0,0,0,0,-1,1245,750,0,0
28,274,0,0,0,0,0,0,0,0,0,-1,1252,750,0,0
35,274,0,0,0,0,0,0,0,0,0,-1,1259,750,0,0
42,274,0,0,0,0,0,0,0,0,0,-1,1266,750,0,0
49,274,0,0,0,0,0,0,0,0,0,-1,1273,750,0,0
56,274,0,0,0,0,0,0,0,0,0,-1,1280,750,0,0
63,274,0,0,0,0,0,0,0,0,0,-1,1287,750,0,0
70,274,0,0,0,0,0,0,0,0,0,-1,1294,750,0,0
77,274,0,0,0,0,0,0,0,0,0,-1,1301,750,0,0
84,274,0,0,0,0,0,0,0,0,0,-1,1308,750,0,0
91,274,0,0,0,0,0,0,0,0,0,-1,1315,750,0,0
98,274,0,0,0,0,0,0,0,0,0,-1,1322,750,0,0
105,274,0,0,0,0,0,0,0,0,0,-1,1329,750,0,0
112,274,0,0,0,0,0,0,0,0,0,-1,1336,750,0,0
119,274,0,0,0,0,0,0,0,0,0,-1,1343,750,0,0
126,274,0,0,0,0,0,0,0,0,0,-1,1350,750,0,0
133,274,0,0,0,0,0,0,0,0,0,-1,1357,750,0,0
140,274,0,0,0,0,0,0,0,0,0,-1,1364,750,0,0
147,274,0,0,0,0,0,0,0,0,0,-1,1371,750,0,0
154,274,0,0,0,0,0,0,0,0,0,-1,1378,750,0,0
161,274,0,0,0,0,0,0,0,0,0,-1,1385,750,0,0
168,274,0,0,0,0,0,0,0,0,0,-1,1392,750,0,0
175,274,0,0,0,0,0,0,0,0,0,-1,1399,750,0,0
182,274,0,0,0,0,0,0,0,0,0,-1,1406,750,0,0
189,274,0,0,0,0,0,0,0,0,0,-1,1413,750,0,0
196,274,0,0,0,0,0,0,0,0,0,-1,1420,750,0,0
203,274,0,0,0,0,0,0,0,0,0,-1,1427,750,0,0
210,274,0,0,0,0,0,0,0,0,0,-1,1434,750,0,0
217,274,0,0,0,0,0,0,0,0,0,-1,1441,750,0,0
224,274,0,0,0,0,0,0,0,0,0,-1,1448,750,0,0
231,274,0,0,0,0,0,0,0,0,0,-1,1455,750,0,0
238,274,0,0,0,0,0,0,0,0,0,-1,1462,750,0,0
245,274,0,0,0,0,0,0,0,0,0,-1,1469,750,0,0
252,274,0,0,0,0,0,0,0,0,0,-1,1476,750,0,0
259,274,0,0,0,0,0,0,0,0,0,-1,1483,750,0,0
266,274,0,0,0,0,0,0,0,0,0,-1,1490,750,0,0
273,274,0,0,0,0,0,0,0,0,0,-1,1497,750,0,0
280,274,0,0,0,0,0,0,0,0,0,-1,1504,750,0,0
287,274,0,0,0,0,0,0,0,0,0,-1,1511,750,0,0
294,274,0,0,0,0,0,0,0,0,0,-1,1518,750,0,0
301,274,0,0,0,0,0,0,0,0,0,-1,1525,750,0,0
308,274,0,0,0,0,0,0,0,0,0,-1,1532,750,0,0
315,274,0,0,0,0,0,0,0,0,0,-1,1539,750,0,0
322,274,0,0,0,0,0,0,0,0,0,-1,1546,750,0,0
329,274,0,0,0,0,0,0,0,0,0,-1,1553,750,0,0
336,274,0,0,0,0,0,0,0,0,0,-1,1560,750,0,0
343,274,0,0,0,0,0,0,0,0,0,-1,1567,750,0,0
350,274,0,0,0,0,0,0,0,0,0,-1,1574,750,0,0
357,274,0,0,0,0,0,0,0,0,0,-1,1581,750,0,0
364,274,0,0,0,0,0,0,0,0,0,-1,1588,750,0,0
371,274,0,0,0,0,0,0,0,0,0,-1,1595,750,0,0
378,274,0,0,0,0,0,0,0,0,0,-1,1602,750,0,0
385,274,0,0,0,0,0,0,0,0,0,-1,1609,750,0,0
392,274,0,0,0,0,0,0,0,0,0,-1,1616,750,0,0
399,274,0,0,0,0,0,0,0,0,0,-1,1623,750,0,0
406,274,0,0,0,0,0,0,0,0,0,-1,1630,750,0,0
413,274,0,0,0,0,0,0,0,0,0,-1,1637,750,0,0
420,274,0,0,0,0,0,0,0,0,0,-1,1644,750,0,0
427,274,0,0,0,0,0,0,0,0,0,-1,1651,750,0,0
434,274,0,0,0,0,0,0,0,0,0,-1,1658,750,0,0
441,274,0,0,0,0,0,0,0,0,0,-1,1665,750,0,0
448,274,0,0,0,0,0,0,0,0,0,-1,1672,750,0,0
455,274,0,0,0,0,0,0,0,0,0,-1,1679,750,0,0
462,274,0,0,0,0,0,0,0,0,0,-1,1686,750,0,0
469,274,0,0,0,0,0,0,0,0,0,-1,1693,750,0,0
476,274,0,0,0,0,0,0,0,0,0,-1,1700,750,0,0
483,274,0,0,0,0,0,0,0,0,0,-1,1707,750,0,0
490,274,0,0,0,0,0,0,0,0,0,-1,1714,750,0,0
497,274,0,0,0,0,0,0,0,0,0,-1,1721,750,0,0
504,274,0,0,0,0,0,0,0,0,0,-1,1728,750,0,0
511,274,0,0,0,0,0,0,0,0,0,-1,1735,750,0,0
518,274,0,0,0,0,0,0,0,0,0,-1,1742,750,0,0
525,274,0,0,0,0,0,0,0,0,0,-1,1749,750,0,0
532,274,0,0,0,0,0,0,0,0,0,-1,1756,750,0,0
539,274,0,0,0,0,0,0,0,0,0,-1,1763,750,0,0
546,274,0,0,0,0,0,0,0,0,0,-1,1770,750,0,0
553,274,0,0,0,0,0,0,0,0,0,-1,1777,750,0,0
560,274,44.9775,3.0365,0,0,0,0,0,0,0,-1,1784,750,44.9776,-3.03651
567,274,44.7006,3.27594,0,0,0,0,0,0,0,-1,1791,750,44.7005,-3.27593
574,274,44.9934,3.0235,0,0,0,0,0,0,0,-1,1798,750,44.9934,-3.02349
581,274,44.934,3.01764,-0.00769461,0.0330822,0.00650942,0.0340962,-0.00870853,1.41628,0.026122,0.0423341,1805,750,44.934,-3.01763
588,274,44.7924,3.27295,-0.00378034,0.0282259,0.00487894,0.0289531,-0.00450755,1.42284,0.0209667,0.0432146,1812,750,44.7924,-3.27292
595,274,44.7206,3.70093,-0.000477161,0.0233972,0.00328697,0.0238415,-0.000921437,1.43645,0.0162102,0.0463196,1819,750,44.7205,-3.70094
602,274,45.2794,3.46649,0,0,0,0,0,0,0,-1,1826,750,45.2795,-3.46646
609,274,42.8204,3.33069,0,0,0,0,0,0,0,-1,1833,750,42.8205,-3.33069
616,274,32.7869,1.78436,0,0,0,0,0,0,0,-1,1840,750,32.7868,-1.78437
623,274,24.8231,-1.80353,0,0,0,0,0,0,0,-1,1847,750,24.8232,1.80351
630,274,29.2448,-3.24695,0,0,0,0,0,0,0,-1,1854,750,29.2447,3.24695
637,274,29.1687,-2.73694,0.00571692,0.0056555,-0.0018465,0.00753297,0.00383945,-0.777083,0.00434943,0.0164042,1861,750,29.1688,2.73691
644,274,29.1658,-2.16577,0.00451456,0.00325719,-0.00189824,0.00588551,0.00188624,-0.625487,0.00347023,0.0116118,1868,750,29.1658,2.16577
651,274,29.1571,-1.61761,0.0026543,0.00128394,-0.0011838,0.00333691,0.000601326,-0.523057,0.00205372,0.0133653,1875,750,29.1571,1.61761
658,274,29.1674,-1.05707,0.00116547,0.00047984,-0.000598577,0.00151245,0.000132861,-0.52534,0.000967059,0.0162516,1882,750,29.1674,1.05704
665,274,29.1538,-0.476074,0.000480442,0.000542786,-0.000222283,0.000736072,0.000287155,-0.855062,0.000428378,0.0161902,1889,750,29.1538,0.476086
672,274,29.1403,0.0695801,0.000295349,0.000706373,0.000151534,0.000756199,0.000245522,1.25312,0.000445448,0.0137033,1896,750,29.1402,-0.0695811
679,274,29.1062,0.608582,0.000297597,0.00153131,0.000478796,0.00169532,0.000133584,1.24077,0.00108842,0.0154637,1903,750,29.1062,-0.608607
686,274,29.0674,1.14545,0.000424347,0.00271386,0.000769742,0.00294858,0.000189621,1.27481,0.00190566,0.0168699,1910,750,29.0674,-1.14542
693,274,29.0309,1.69165,0.000834762,0.00419119,0.00113629,0.00453969,0.000486267,1.27321,0.0028781,0.0129292,1917,750,29.0308,-1.69163
700,274,29.0236,2.27454,0.00162055,0.00605032,0.0016302,0.00658558,0.00108529,1.25355,0.00407706,0.0156098,1924,750,29.0236,-2.27453
707,274,28.9164,2.86462,0.00299647,0.00842799,0.0023599,0.00931007,0.00211439,1.2131,0.00563572,0.0272759,1931,750,28.9164,-2.86463
714,274,28.7764,3.47528,0,0,0,0,0,0,0,-1,1938,750,28.7763,-3.47527
721,274,25.6215,3.91144,0,0,0,0,0,0,0,-1,1945,750,25.6214,-3.91141
728,274,19.2209,3.95154,0,0,0,0,0,0,0,-1,1952,750,19.221,-3.95151
735,274,20.6608,4.10931,0,0,0,0,0,0,0,-1,1959,750,20.6607,-4.10932
742,274,11.7815,-0.740234,0,0,0,0,0,0,0,-1,1966,750,11.7815,0.740253
749,274,0,0,0,0,0,0,0,0,0,-1,1973,750,0,0
756,274,0,0,0,0,0,0,0,0,0,-1,1980,750,0,0
763,274,0,0,0,0,0,0,0,0,0,-1,1987,750,0,0
770,274,0,0,0,0,0,0,0,0,0,-1,1994,750,0,0
777,274,0,0,0,0,0,0,0,0,0,-1,2001,750,0,0
784,274,0,0,0,0,0,0,0,0,0,-1,2008,750,0,0
791,274,0,0,0,0,0,0,0,0,0,-1,2015,750,0,0
798,274,0,0,0,0,0,0,0,0,0,-1,2022,750,0,0
805,274,0,0,0,0,0,0,0,0,0,-1,2029,750,0,0
812,274,0,0,0,0,0,0,0,0,0,-1,2036,750,0,0
-700,267,0,0,0,0,0,0,0,0,0,-1,524,757,0,0
-693,267,0,0,0,0,0,0,0,0,0,-1,531,757,0,0
-686,267,0,0,0,0,0,0,0,0,0,-1,538,757,0,0
-679,267,0,0,0,0,0,0,0,0,0,-1,545,757,0,0
-672,267,0,0,0,0,0,0,0,0,0,-1,552,757,0,0
-665,267,0,0,0,0,0,0,0,0,0,-1,559,757,0,0
-658,267,0,0,0,0,0,0,0,0,0,-1,566,757,0,0
-651,267,0,0,0,0,0,0,0,0,0,-1,573,757,0,0
-644,267,0,0,0,0,0,0,0,0,0,-1,580,757,0,0
-637,267,0,0,0,0,0,0,0,0,0,-1,587,757,0,0
-630,267,-21.3979,5.17529,0,0,0,0,0,0,0,-1,594,757,-21.3979,-5.17529
-623,267,-20.043,4.43115,0,0,0,0,0,0,0,-1,601,757,-20.043,-4.43116
-616,267,-18.6576,5.19214,0,0,0,0,0,0,0,-1,608,757,-18.6576,-5.19215
-609,267,-18.6078,4.34973,0,0,0,0,0,0,0,-1,615,757,-18.6078,-4.34976
-602,267,-18.6019,3.52838,0,0,0,0,0,0,0,-1,622,757,-18.602,-3.52839
-595,267,-19.4075,2.28229,0,0,0,0,0,0,0,-1,629,757,-19.4075,-2.28231
-588,267,-19.4284,1.58282,0.00640931,0.0058289,-0.00442907,0.0105577,0.00168054,-0.752684,0.00655053,0.0468803,636,757,-19.4284,-1.5828
-581,267,-19.5021,0.846313,0.00408272,0.00412244,-0.00295078,0.00705343,0.00115173,-0.788764,0.00436927,0.0348267,643,757,-19.5021,-0.8463
-574,267,-19.5044,0.190125,0.00256947,0.00292312,-0.00179568,0.00455066,0.000941934,-0.834477,0.00277363,0.0202921,650,757,-19.5044,-0.190124
-567,267,-19.5799,-0.302002,0.00150778,0.00196483,-0.000927377,0.00269143,0.000781188,-0.906202,0.00159882,0.0262441,657,757,-19.5799,0.302031
-560,267,-19.6201,-0.787048,0.000698471,0.00110877,-0.000217469,0.00120259,0.000604657,-1.16353,0.000694317,0.0235946,664,757,-19.6201,0.787042
-553,267,-19.6253,-1.34552,0.000118734,0.000326911,0.000374213,0.000611242,-0.000165597,0.921046,0.000472468,0.017979,671,757,-19.6253,1.3455
-546,267,-19.625,-1.8797,-0.000284161,-0.000454884,0.000966871,0.00060111,-0.00134016,0.741369,0.00114754,0.0110718,678,757,-19.625,1.87972
-539,267,-19.6336,-2.40973,-0.000637616,-0.00102864,0.00141408,0.000594401,-0.00226066,0.716702,0.00173943,0.0106103,685,757,-19.6336,2.40973
-532,267,-19.6261,-2.92487,-0.000625279,-0.00127775,0.00236634,0.00143721,-0.00334023,0.716898,0.00283026,0.0120641,692,757,-19.6261,2.92484
-525,267,-19.6743,-3.42078,-0.000798613,-0.00163827,0.00316566,0.00197494,-0.00441182,0.719473,0.00377581,0.0114259,699,757,-19.6742,3.42081
-518,267,-19.7029,-3.95612,-0.0016774,-0.00275795,0.00381848,0.00163884,-0.00607419,0.71512,0.00469213,0.0109625,706,757,-19.7029,3.95612
-511,267,-19.6857,-4.48523,-0.00317464,-0.00482305,0.00445377,0.000530542,-0.00852824,0.693904,0.00587034,0.0170644,713,757,-19.6857,4.48526
-504,267,-19.7586,-4.91028,-0.00447778,-0.00651959,0.00522465,-0.000175231,-0.0108221,0.688913,0.00715707,0.0319928,720,757,-19.7586,4.91027
-497,267,-19.887,-5.3075,0,0,0,0,0,0,0,-1,727,757,-19.8871,5.30751
-490,267,-23.4949,-0.494995,0,0,0,0,0,0,0,-1,734,757,-23.4949,0.494981
-483,267,-33.134,0.395935,0,0,0,0,0,0,0,-1,741,757,-33.134,-0.395957
-476,267,-33.2265,0.284912,-0.0170657,-0.0240859,0.00761232,-0.0121932,-0.0289584,0.569371,0.0167885,0.046364,748,757,-33.2265,-0.284903
-469,267,-33.4712,0.226624,-0.023953,-0.0342802,0.00778626,-0.0197738,-0.0384594,0.49261,0.0222075,0.0437389,755,757,-33.4712,-0.226653
-462,267,-33.7139,0.293884,-0.033518,-0.0484121,0.00765043,-0.0302885,-0.0516415,0.399434,0.0299637,0.0475062,762,757,-33.7139,-0.293899
-455,267,-33.8161,0.424805,0,0,0,0,0,0,0,-1,769,757,-33.8161,-0.424808
-448,267,-33.954,0.685242,0,0,0,0,0,0,0,-1,776,757,-33.954,-0.685222
-441,267,0,0,0,0,0,0,0,0,0,-1,783,757,0,0
-434,267,0,0,0,0,0,0,0,0,0,-1,790,757,0,0
-427,267,0,0,0,0,0,0,0,0,0,-1,797,757,0,0
-420,267,0,0,0,0,0,0,0,0,0,-1,804,757,0,0
-413,267,0,0,0,0,0,0,0,0,0,-1,811,757,0,0
-406,267,0,0,0,0,0,0,0,0,0,-1,818,757,0,0
-399,267,0,0,0,0,0,0,0,0,0,-1,825,757,0,0
-392,267,0,0,0,0,0,0,0,0,0,-1,832,757,0,0
-385,267,0,0,0,0,0,0,0,0,0,-1,839,757,0,0
-378,267,0,0,0,0,0,0,0,0,0,-1,846,757,0,0
-371,267,0,0,0,0,0,0,0,0,0,-1,853,757,0,0
-364,267,0,0,0,0,0,0,0,0,0,-1,860,757,0,0
-357,267,0,0,0,0,0,0,0,0,0,-1,867,757,0,0
-350,267,0,0,0,0,0,0,0,0,0,-1,874,757,0,0
-343,267,0,0,0,0,0,0,0,0,0,-1,881,757,0,0
-336,267,0,0,0,0,0,0,0,0,0,-1,888,757,0,0
-329,267,0,0,0,0,0,0,0,0,0,-1,895,757,0,0
-322,267,0,0,0,0,0,0,0,0,0,-1,902,757,0,0
-315,267,0,0,0,0,0,0,0,0,0,-1,909,757,0,0
-308,267,0,0,0,0,0,0,0,0,0,-1,916,757,0,0
-301,267,0,0,0,0,0,0,0,0,0,-1,923,757,0,0
-294,267,0,0,0,0,0,0,0,0,0,-1,930,757,0,0
-287,267,0,0,0,0,0,0,0,0,0,-1,937,757,0,0
-280,267,0,0,0,0,0,0,0,0,0,-1,944,757,0,0
-273,267,0,0,0,0,0,0,0,0,0,-1,951,757,0,0
-266,267,0,0,0,0,0,0,0,0,0,-1,958,757,0,0
-259,267,0,0,0,0,0,0,0,0,0,-1,965,757,0,0
-252,267,0,0,0,0,0,0,0,0,0,-1,972,757,0,0
-245,267,0,0,0,0,0,0,0,0,0,-1,979,757,0,0
-238,267,0,0,0,0,0,0,0,0,0,-1,986,757,0,0
-231,267,0,0,0,0,0,0,0,0,0,-1,993,757,0,0
-224,267,0,0,0,0,0,0,0,0,0,-1,1000,757,0,0
-217,267,0,0,0,0,0,0,0,0,0,-1,1007,757,0,0
-210,267,0,0,0,0,0,0,0,0,0,-1,1014,757,0,0
-203,267,0,0,0,0,0,0,0,0,0,-1,1021,757,0,0
-196,267,0,0,0,0,0,0,0,0,0,-1,1028,757,0,0
-189,267,0,0,0,0,0,0,0,0,0,-1,1035,757,0,0
-182,267,0,0,0,0,0,0,0,0,0,-1,1042,757,0,0
-175,267,0,0,0,0,0,0,0,0,0,-1,1049,757,0,0
-168,267,0,0,0,0,0,0,0,0,0,-1,1056,757,0,0
-161,267,0,0,0,0,0,0,0,0,0,-1,1063,757,0,0
-154,267,0,0,0,0,0,0,0,0,0,-1,1070,757,0,0
-147,267,0,0,0,0,0,0,0,0,0,-1,1077,757,0,0
-140,267,0,0,0,0,0,0,0,0,0,-1,1084,757,0,0
-133,267,0,0,0,0,0,0,0,0,0,-1,1091,757,0,0
-126,267,0,0,0,0,0,0,0,0,0,-1,1098,757,0,0
-119,267,0,0,0,0,0,0,0,0,0,-1,1105,757,0,0
-112,267,0,0,0,0,0,0,0,0,0,-1,1112,757,0,0
-105,267,0,0,0,0,0,0,0,0,0,-1,1119,757,0,0
-98,267,0,0,0,0,0,0,0,0,0,-1,1126,757,0,0
-91,267,0,0,0,0,0,0,0,0,0,-1,1133,757,0,0
-84,267,0,0,0,0,0,0,0,0,0,-1,1140,757,0,0
-77,267,0,0,0,0,0,0,0,0,0,-1,1147,757,0,0
-70,267,0,0,0,0,0,0,0,0,0,-1,1154,757,0,0
-63,267,0,0,0,0,0,0,0,0,0,-1,1161,757,0,0
-56,267,0,0,0,0,0,0,0,0,0,-1,1168,757,0,0
-49,267,0,0,0,0,0,0,0,0,0,-1,1175,757,0,0
-42,267,0,0,0,0,0,0,0,0,0,-1,1182,757,0,0
-35,267,0,0,0,0,0,0,0,0,0,-1,1189,757,0,0
-28,267,0,0,0,0,0,0,0,0,0,-1,1196,757,0,0
-21,267,0,0,0,0,0,0,0,0,0,-1,1203,757,0,0
-14,267,0,0,0,0,0,0,0,0,0,-1,1210,757,0,0
-7,267,0,0,0,0,0,0,0,0,0,-1,1217,757,0,0
0,267,0,0,0,0,0,0,0,0,0,-1,1224,757,0,0
7,267,0,0,0,0,0,0,0,0,0,-1,1231,757,0,0
14,267,0,0,0,0,0,0,0,0,0,-1,1238,757,0,0
21,267,0,0,0,0,0,0,0,0,0,-1,1245,757,0,0
28,267,0,0,0,0,0,0,0,0,0,-1,1252,757,0,0
35,267,0,0,0,0,0,0,0,0,0,-1,1259,757,0,0
42,267,0,0,0,0,0,0,0,0,0,-1,1266,757,0,0
49,267,0,0,0,0,0,0,0,0,0,-1,1273,757,0,0
56,267,0,0,0,0,0,0,0,0,0,-1,1280,757,0,0
63,267,0,0,0,0,0,0,0,0,0,-1,1287,757,0,0
70,267,0,0,0,0,0,0,0,0,0,-1,1294,757,0,0
77,267,0,0,0,0,0,0,0,0,0,-1,1301,757,0,0
84,267,0,0,0,0,0,0,0,0,0,-1,1308,757,0,0
91,267,0,0,0,0,0,0,0,0,0,-1,1315,757,0,0
98,267,0,0,0,0,0,0,0,0,0,-1,1322,757,0,0
105,267,0,0,0,0,0,0,0,0,0,-1,1329,757,0,0
112,267,0,0,0,0,0,0,0,0,0,-1,1336,757,0,0
119,267,0,0,0,0,0,0,0,0,0,-1,1343,757,0,0
126,267,0,0,0,0,0,0,0,0,0,-1,1350,757,0,0
133,267,0,0,0,0,0,0,0,0,0,-1,1357,757,0,0
140,267,0,0,0,0,0,0,0,0,0,-1,1364,757,0,0
147,267,0,0,0,0,0,0,0,0,0,-1,1371,757,0,0
154,267,0,0,0,0,0,0,0,0,0,-1,1378,757,0,0
161,267,0,0,0,0,0,0,0,0,0,-1,1385,757,0,0
168,267,0,0,0,0,0,0,0,0,0,-1,1392,757,0,0
175,267,0,0,0,0,0,0,0,0,0,-1,1399,757,0,0
182,267,0,0,0,0,0,0,0,0,0,-1,1406,757,0,0
189,267,0,0,0,0,0,0,0,0,0,-1,1413,757,0,0
196,267,0,0,0,0,0,0,0,0,0,-1,1420,757,0,0
203,267,0,0,0,0,0,0,0,0,0,-1,1427,757,0,0
210,267,0,0,0,0,0,0,0,0,0,-1,1434,757,0,0
217,267,0,0,0,0,0,0,0,0,0,-1,1441,757,0,0
224,267,0,0,0,0,0,0,0,0,0,-1,1448,757,0,0
231,267,0,0,0,0,0,0,0,0,0,-1,1455,757,0,0
238,267,0,0,0,0,0,0,0,0,0,-1,1462,757,0,0
245,267,0,0,0,0,0,0,0,0,0,-1,1469,757,0,0
252,267,0,0,0,0,0,0,0,0,0,-1,1476,757,0,0
259,267,0,0,0,0,0,0,0,0,0,-1,1483,757,0,0
266,267,0,0,0,0,0,0,0,0,0,-1,1490,757,0,0
273,267,0,0,0,0,0,0,0,0,0,-1,1497,757,0,0
280,267,0,0,0,0,0,0,0,0,0,-1,1504,757,0,0
287,267,0,0,0,0,0,0,0,0,0,-1,1511,757,0,0
294,267,0,0,0,0,0,0,0,0,0,-1,1518,757,0,0
301,267,0,0,0,0,0,0,0,0,0,-1,1525,757,0,0
308,267,0,0,0,0,0,0,0,0,0,-1,1532,757,0,0
315,267,0,0,0,0,0,0,0,0,0,-1,1539,757,0,0
322,267,0,0,0,0,0,0,0,0,0,-1,1546,757,0,0
329,267,0,0,0,0,0,0,0,0,0,-1,1553,757,0,0
336,267,0,0,0,0,0,0,0,0,0,-1,1560,757,0,0
343,267,0,0,0,0,0,0,0,0,0,-1,1567,757,0,0
350,267,0,0,0,0,0,0,0,0,0,-1,1574,757,0,0
357,267,0,0,0,0,0,0,0,0,0,-1,1581,757,0,0
364,267,0,0,0,0,0,0,0,0,0,-1,1588,757,0,0
371,267,0,0,0,0,0,0,0,0,0,-1,1595,757,0,0
378,267,0,0,0,0,0,0,0,0,0,-1,1602,757,0,0
385,267,0,0,0,0,0,0,0,0,0,-1,1609,757,0,0
392,267,0,0,0,0,0,0,0,0,0,-1,1616,757,0,0
399,267,0,0,0,0,0,0,0,0,0,-1,1623,757,0,0
406,267,0,0,0,0,0,0,0,0,0,-1,1630,757,0,0
413,267,0,0,0,0,0,0,0,0,0,-1,1637,757,0,0
420,267,0,0,0,0,0,0,0,0,0,-1,1644,757,0,0
427,267,0,0,0,0,0,0,0,0,0,-1,1651,757,0,0
434,267,0,0,0,0,0,0,0,0,0,-1,1658,757,0,0
441,267,0,0,0,0,0,0,0,0,0,-1,1665,757,0,0
448,267,0,0,0,0,0,0,0,0,0,-1,1672,757,0,0
455,267,0,0,0,0,0,0,0,0,0,-1,1679,757,0,0
462,267,0,0,0,0,0,0,0,0,0,-1,1686,757,0,0
469,267,0,0,0,0,0,0,0,0,0,-1,1693,757,0,0
476,267,0,0,0,0,0,0,0,0,0,-1,1700,757,0,0
483,267,0,0,0,0,0,0,0,0,0,-1,1707,757,0,0
490,267,0,0,0,0,0,0,0,0,0,-1,1714,757,0,0
497,267,0,0,0,0,0,0,0,0,0,-1,1721,757,0,0
504,267,0,0,0,0,0,0,0,0,0,-1,1728,757,0,0
511,267,0,0,0,0,0,0,0,0,0,-1,1735,757,0,0
518,267,0,0,0,0,0,0,0,0,0,-1,1742,757,0,0
525,267,0,0,0,0,0,0,0,0,0,-1,1749,757,0,0
532,267,0,0,0,0,0,0,0,0,0,-1,1756,757,0,0
539,267,0,0,0,0,0,0,0,0,0,-1,1763,757,0,0
546,267,0,0,0,0,0,0,0,0,0,-1,1770,757,0,0
553,267,0,0,0,0,0,0,0,0,0,-1,1777,757,0,0
560,267,0,0,0,0,0,0,0,0,0,-1,1784,757,0,0
567,267,45.0911,3.01678,0,0,0,0,0,0,0,-1,1791,757,45.091,-3.01678
574,267,45.1071,2.92517,-0.00957958,0.0294796,0.00666311,0.0305849,-0.010685,1.4064,0.0247333,0.0449531,1798,757,45.107,-2.92514
581,267,45.0225,2.99615,-0.00439491,0.0282206,0.00520556,0.0290313,-0.00520559,1.4163,0.0213025,0.0483932,1805,757,45.0225,-2.99613
588,267,44.7758,3.11902,0,0,0,0,0,0,0,-1,1812,757,44.7757,-3.11899
595,267,45.0289,3.07935,0.00260112,0.0211322,0.00191713,0.0213284,0.00240486,1.46878,0.013489,0.0470092,1819,757,45.0289,-3.07932
602,267,45.3949,2.99152,0.00454881,0.0169441,0.000798134,0.0169953,0.00449763,1.50676,0.0101682,0.0459604,1826,757,45.3949,-2.99151
609,267,45.9329,2.73193,0,0,0,0,0,0,0,-1,1833,757,45.9328,-2.73192
616,267,41.4904,3.89758,0,0,0,0,0,0,0,-1,1840,757,41.4903,-3.89759
623,267,24.1475,-1.1391,0,0,0,0,0,0,0,-1,1847,757,24.1475,1.13913
630,267,29.951,-2.83911,0,0,0,0,0,0,0,-1,1854,757,29.951,2.83911
637,267,29.7815,-2.52643,0.00633666,0.0055038,-0.00255714,0.00851105,0.00332941,-0.704682,0.0049525,0.0347153,1861,757,29.7815,2.5264
644,267,29.7013,-2.13177,0.00511796,0.00337325,-0.00258323,0.00697215,0.00151906,-0.62256,0.00423359,0.0130418,1868,757,29.7013,2.13177
651,267,29.6693,-1.59332,0.00324749,0.0014158,-0.00186382,0.00440833,0.000254965,-0.557034,0.00285769,0.0145424,1875,757,29.6693,1.59335
658,267,29.6831,-1.03455,0.001641,0.000454584,-0.0012185,0.00240301,-0.00030743,-0.558868,0.0017137,0.0143627,1882,757,29.6832,1.03453
665,267,29.7009,-0.464844,0.000805565,0.000407109,-0.000731237,0.00136423,-0.000151554,-0.6524,0.000963983,0.0146157,1889,757,29.7009,0.464869
672,267,29.6864,0.0769653,0.000629651,0.000364379,-0.000212001,0.000747089,0.000246941,-0.505868,0.000439512,0.0127937,1896,757,29.6864,-0.0769767
679,267,29.6566,0.622253,0.000635391,0.00106286,0.000247697,0.00117629,0.000521962,1.14136,0.000680564,0.0127094,1903,757,29.6566,-0.622227
686,267,29.6248,1.1889,0.000829978,0.00218391,0.000657636,0.00245075,0.00056314,1.18534,0.00148222,0.0141678,1910,757,29.6247,-1.18888
693,267,29.5911,1.70331,0.00139596,0.00364692,0.0010787,0.00408038,0.000962498,1.18871,0.00246293,0.0137832,1917,757,29.5911,-1.70328
700,267,29.5757,2.25922,0.00232202,0.00541545,0.00161404,0.00610423,0.00163324,1.16745,0.00364901,0.0151153,1924,757,29.5757,-2.25919
707,267,29.5536,2.80939,0.00376819,0.00762266,0.0023497,0.00873439,0.00265646,1.12887,0.00517016,0.0159339,1931,757,29.5536,-2.80938
714,267,29.7573,3.38995,0.0060871,0.0106704,0.00354697,0.0126016,0.00415586,1.07221,0.00741473,0.0347996,1938,757,29.7574,-3.38997
721,267,30.062,3.99219,0,0,0,0,0,0,0,-1,1945,757,30.062,-3.99217
728,267,26.7886,3.90027,0,0,0,0,0,0,0,-1,1952,757,26.7886,-3.90028
735,267,24.6713,2.82483,0,0,0,0,0,0,0,-1,1959,757,24.6713,-2.82483
742,267,18.1177,3.56561,0,0,0,0,0,0,0,-1,1966,757,18.1176,-3.56564
749,267,0,0,0,0,0,0,0,0,0,-1,1973,757,0,0
756,267,0,0,0,0,0,0,0,0,0,-1,1980,757,0,0
763,267,0,0,0,0,0,0,0,0,0,-1,1987,757,0,0
770,267,0,0,0,0,0,0,0,0,0,-1,1994,757,0,0
777,267,0,0,0,0,0,0,0,0,0,-1,2001,757,0,0
784,267,0,0,0,0,0,0,0,0,0,-1,2008,757,0,0
791,267,0,0,0,0,0,0,0,0,0,-1,2015,757,0,0
798,267,0,0,0,0,0,0,0,0,0,-1,2022,757,0,0
805,267,0,0,0,0,0,0,0,0,0,-1,2029,757,0,0
812,267,0,0,0,0,0,0,0,0,0,-1,2036,757,0,0
-700,260,0,0,0,0,0,0,0,0,0,-1,524,764,0,0
-693,260,0,0,0,0,0,0,0,0,0,-1,531,764,0,0
-686,260,0,0,0,0,0,0,0,0,0,-1,538,764,0,0
-679,260,0,0,0,0,0,0,0,0,0,-1,545,764,0,0
-672,260,0,0,0,0,0,0,0,0,0,-1,552,764,0,0
-665,260,0,0,0,0,0,0,0,0,0,-1,559,764,0,0
-658,260,0,0,0,0,0,0,0,0,0,-1,566,764,0,0
-651,260,0,0,0,0,0,0,0,0,0,-1,573,764,0,0
-644,260,0,0,0,0,0,0,0,0,0,-1,580,764,0,0
-637,260,0,0,0,0,0,0,0,0,0,-1,587,764,0,0
-630,260,-21.8905,4.49341,0,0,0,0,0,0,0,-1,594,764,-21.8905,-4.49342
-623,260,-20.3127,3.53546,0,0,0,0,0,0,0,-1,601,764,-20.3127,-3.53544
-616,260,-23.4346,3.65009,0,0,0,0,0,0,0,-1,608,764,-23.4345,-3.65008
-609,260,-18.557,3.77429,0,0,0,0,0,0,0,-1,615,764,-18.557,-3.77426
-602,260,-19.5761,2.78387,0,0,0,0,0,0,0,-1,622,764,-19.5761,-2.78388
-595,260,-20.0422,1.75018,0,0,0,0,0,0,0,-1,629,764,-20.0423,-1.75017
-588,260,-20.1113,1.39429,0.0069111,0.00677619,-0.00526489,0.012109,0.00157833,-0.778992,0.00760135,0.0438659,636,764,-20.1113,-1.39429
-581,260,-20.0652,0.725891,0.00463686,0.00477281,-0.00359643,0.00830191,0.00110776,-0.794847,0.0052048,0.0267247,643,764,-20.0652,-0.725876
-574,260,-20.0878,0.188599,0.00303252,0.0033069,-0.00227112,0.00544497,0.000894445,-0.815564,0.00337162,0.0171783,650,764,-20.0878,-0.188614
-567,260,-20.1189,-0.249268,0.00182226,0.00210556,-0.0012278,0.00319986,0.000727961,-0.84283,0.00193674,0.0171794,657,764,-20.1189,0.249237
-560,260,-20.1418,-0.765076,0.000867103,0.00105597,-0.000363817,0.00133741,0.000585662,-0.912375,0.000774135,0.0204131,664,764,-20.1418,0.765059
-553,260,-20.1416,-1.32202,0.000167763,0.000112205,0.000374631,0.000515643,-0.000235676,0.748391,0.000443699,0.0170255,671,764,-20.1416,1.32201
-546,260,-20.1509,-1.83051,-0.000317672,-0.000789444,0.00111547,0.000586583,-0.0016937,0.6812,0.00136727,0.0107163,678,764,-20.1509,1.83049
-539,260,-20.1428,-2.36273,-0.00069557,-0.00138472,0.0016533,0.000648681,-0.00272897,0.682661,0.00206971,0.0119918,685,764,-20.1428,2.36271
-532,260,-20.1349,-2.85748,-0.000591083,-0.00144405,0.00275229,0.00176757,-0.0038027,0.708532,0.00328676,0.0165601,692,764,-20.1349,2.85751
-525,260,-20.174,-3.40521,-0.000689609,-0.00159156,0.00353636,0.00242442,-0.00470559,0.721978,0.00418615,0.0143169,699,764,-20.174,3.40521
-518,260,-20.2408,-3.91071,-0.0014862,-0.00241266,0.00414371,0.00222009,-0.00611895,0.729734,0.00498687,0.0162949,706,764,-20.2409,3.91069
-511,260,-20.2509,-4.4021,-0.00284239,-0.00410263,0.00472531,0.00129463,-0.00823965,0.719114,0.00597161,0.0305466,713,764,-20.2509,4.40213
-504,260,-20.2637,-4.78735,0,0,0,0,0,0,0,-1,720,764,-20.2637,4.78736
-497,260,-16.6542,-3.67334,0,0,0,0,0,0,0,-1,727,764,-16.6542,3.67331
-490,260,-29.4557,0.921387,0,0,0,0,0,0,0,-1,734,764,-29.4557,-0.921369
-483,260,-33.8132,0.851318,0,0,0,0,0,0,0,-1,741,764,-33.8131,-0.851321
-476,260,-33.5394,0.591492,-0.0158063,-0.0201853,0.00795826,-0.00974184,-0.0262498,0.651158,0.0153222,0.043087,748,764,-33.5394,-0.591462
-469,260,-33.6395,0.491394,-0.021908,-0.0283695,0.00818391,-0.0163402,-0.0339373,0.597405,0.0195982,0.044261,755,764,-33.6395,-0.491418
-462,260,-34.1227,0.755371,-0.0299628,-0.0390083,0.00792825,-0.025358,-0.0436131,0.526192,0.0252911,0.0440841,762,764,-34.1228,-0.75535
-455,260,-34.0786,0.891968,0,0,0,0,0,0,0,-1,769,764,-34.0786,-0.891974
-448,260,0,0,0,0,0,0,0,0,0,-1,776,764,0,0
-441,260,0,0,0,0,0,0,0,0,0,-1,783,764,0,0
-434,260,0,0,0,0,0,0,0,0,0,-1,790,764,0,0
-427,260,0,0,0,0,0,0,0,0,0,-1,797,764,0,0
-420,260,0,0,0,0,0,0,0,0,0,-1,804,764,0,0
-413,260,0,0,0,0,0,0,0,0,0,-1,811,764,0,0
-406,260,0,0,0,0,0,0,0,0,0,-1,818,764,0,0
-399,260,0,0,0,0,0,0,0,0,0,-1,825,764,0,0
-392,260,0,0,0,0,0,0,0,0,0,-1,832,764,0,0
-385,260,0,0,0,0,0,0,0,0,0,-1,839,764,0,0
-378,260,0,0,0,0,0,0,0,0,0,-1,846,764,0,0
-371,260,0,0,0,0,0,0,0,0,0,-1,853,764,0,0
-364,260,0,0,0,0,0,0,0,0,0,-1,860,764,0,0
-357,260,0,0,0,0,0,0,0,0,0,-1,867,764,0,0
-350,260,0,0,0,0,0,0,0,0,0,-1,874,764,0,0
-343,260,0,0,0,0,0,0,0,0,0,-1,881,764,0,0
-336,260,0,0,0,0,0,0,0,0,0,-1,888,764,0,0
-329,260,0,0,0,0,0,0,0,0,0,-1,895,764,0,0
-322,260,0,0,0,0,0,0,0,0,0,-1,902,764,0,0
-315,260,0,0,0,0,0,0,0,0,0,-1,909,764,0,0
-308,260,0,0,0,0,0,0,0,0,0,-1,916,764,0,0
-301,260,0,0,0,0,0,0,0,0,0,-1,923,764,0,0
-294,260,0,0,0,0,0,0,0,0,0,-1,930,764,0,0
-287,260,0,0,0,0,0,0,0,0,0,-1,937,764,0,0
-280,260,0,0,0,0,0,0,0,0,0,-1,944,764,0,0
-273,260,0,0,0,0,0,0,0,0,0,-1,951,764,0,0
-266,260,0,0,0,0,0,0,0,0,0,-1,958,764,0,0
-259,260,0,0,0,0,0,0,0,0,0,-1,965,764,0,0
-252,260,0,0,0,0,0,0,0,0,0,-1,972,764,0,0
-245,260,0,0,0,0,0,0,0,0,0,-1,979,764,0,0
-238,260,0,0,0,0,0,0,0,0,0,-1,986,764,0,0
-231,260,0,0,0,0,0,0,0,0,0,-1,993,764,0,0
-224,260,0,0,0,0,0,0,0,0,0,-1,1000,764,0,0
-217,260,0,0,0,0,0,0,0,0,0,-1,1007,764,0,0
-210,260,0,0,0,0,0,0,0,0,0,-1,1014,764,0,0
-203,260,0,0,0,0,0,0,0,0,0,-1,1021,764,0,0
-196,260,0,0,0,0,0,0,0,0,0,-1,1028,764,0,0
-189,260,0,0,0,0,0,0,0,0,0,-1,1035,764,0,0
-182,260,0,0,0,0,0,0,0,0,0,-1,1042,764,0,0
-175,260,0,0,0,0,0,0,0,0,0,-1,1049,764,0,0
-168,260,0,0,0,0,0,0,0,0,0,-1,1056,764,0,0
-161,260,0,0,0,0,0,0,0,0,0,-1,1063,764,0,0
-154,260,0,0,0,0,0,0,0,0,0,-1,1070,764,0,0
-147,260,0,0,0,0,0,0,0,0,0,-1,1077,764,0,0
-140,260,0,0,0,0,0,0,0,0,0,-1,1084,764,0,0
-133,260,0,0,0,0,0,0,0,0,0,-1,1091,764,0,0
-126,260,0,0,0,0,0,0,0,0,0,-1,1098,764,0,0
-119,260,0,0,0,0,0,0,0,0,0,-1,1105,764,0,0
-112,260,0,0,0,0,0,0,0,0,0,-1,1112,764,0,0
-105,260,0,0,0,0,0,0,0,0,0,-1,1119,764,0,0
-98,260,0,0,0,0,0,0,0,0,0,-1,1126,764,0,0
-91,260,0,0,0,0,0,0,0,0,0,-1,1133,764,0,0
-84,260,0,0,0,0,0,0,0,0,0,-1,1140,764,0,0
-77,260,0,0,0,0,0,0,0,0,0,-1,1147,764,0,0
-70,260,0,0,0,0,0,0,0,0,0,-1,1154,764,0,0
-63,260,0,0,0,0,0,0,0,0,0,-1,1161,764,0,0
-56,260,0,0,0,0,0,0,0,0,0,-1,1168,764,0,0
-49,260,0,0,0,0,0,0,0,0,0,-1,1175,764,0,0
-42,260,0,0,0,0,0,0,0,0,0,-1,1182,764,0,0
-35,260,0,0,0,0,0,0,0,0,0,-1,1189,764,0,0
-28,260,0,0,0,0,0,0,0,0,0,-1,1196,764,0,0
-21,260,0,0,0,0,0,0,0,0,0,-1,1203,764,0,0
-14,260,0,0,0,0,0,0,0,0,0,-1,1210,764,0,0
-7,260,0,0,0,0,0,0,0,0,0,-1,1217,764,0,0
0,260,0,0,0,0,0,0,0,0,0,-1,1224,764,0,0
7,260,0,0,0,0,0,0,0,0,0,-1,1231,764,0,0
14,260,0,0,0,0,0,0,0,0,0,-1,1238,764,0,0
21,260,0,0,0,0,0,0,0,0,0,-1,1245,764,0,0
28,260,0,0,0,0,0,0,0,0,0,-1,1252,764,0,0
35,260,0,0,0,0,0,0,0,0,0,-1,1259,764,0,0
42,260,0,0,0,0,0,0,0,0,0,-1,1266,764,0,0
49,260,0,0,0,0,0,0,0,0,0,-1,1273,764,0,0
56,260,0,0,0,0,0,0,0,0,0,-1,1280,764,0,0
63,260,0,0,0,0,0,0,0,0,0,-1,1287,764,0,0
70,260,0,0,0,0,0,0,0,0,0,-1,1294,764,0,0
77,260,0,0,0,0,0,0,0,0,0,-1,1301,764,0,0
84,260,0,0,0,0,0,0,0,0,0,-1,1308,764,0,0
91,260,0,0,0,0,0,0,0,0,0,-1,1315,764,0,0
98,260,0,0,0,0,0,0,0,0,0,-1,1322,764,0,0
105,260,0,0,0,0,0,0,0,0,0,-1,1329,764,0,0
112,260,0,0,0,0,0,0,0,0,0,-1,1336,764,0,0
119,260,0,0,0,0,0,0,0,0,0,-1,1343,764,0,0
126,260,0,0,0,0,0,0,0,0,0,-1,1350,764,0,0
133,260,0,0,0,0,0,0,0,0,0,-1,1357,764,0,0
140,260,0,0,0,0,0,0,0,0,0,-1,1364,764,0,0
147,260,0,0,0,0,0,0,0,0,0,-1,1371,764,0,0
154,260,0,0,0,0,0,0,0,0,0,-1,1378,764,0,0
161,260,0,0,0,0,0,0,0,0,0,-1,1385,764,0,0
168,260,0,0,0,0,0,0,0,0,0,-1,1392,764,0,0
175,260,0,0,0,0,0,0,0,0,0,-1,1399,764,0,0
182,260,0,0,0,0,0,0,0,0,0,-1,1406,764,0,0
189,260,0,0,0,0,0,0,0,0,0,-1,1413,764,0,0
196,260,0,0,0,0,0,0,0,0,0,-1,1420,764,0,0
203,260,0,0,0,0,0,0,0,0,0,-1,1427,764,0,0
210,260,0,0,0,0,0,0,0,0,0,-1,1434,764,0,0
217,260,0,0,0,0,0,0,0,0,0,-1,1441,764,0,0
224,260,0,0,0,0,0,0,0,0,0,-1,1448,764,0,0
231,260,0,0,0,0,0,0,0,0,0,-1,1455,764,0,0
238,260,0,0,0,0,0,0,0,0,0,-1,1462,764,0,0
245,260,0,0,0,0,0,0,0,0,0,-1,1469,764,0,0
252,260,0,0,0,0,0,0,0,0,0,-1,1476,764,0,0
259,260,0,0,0,0,0,0,0,0,0,-1,1483,764,0,0
266,260,0,0,0,0,0,0,0,0,0,-1,1490,764,0,0
273,260,0,0,0,0,0,0,0,0,0,-1,1497,764,0,0
280,260,0,0,0,0,0,0,0,0,0,-1,1504,764,0,0
287,260,0,0,0,0,0,0,0,0,0,-1,1511,764,0,0
294,260,0,0,0,0,0,0,0,0,0,-1,1518,764,0,0
301,260,0,0,0,0,0,0,0,0,0,-1,1525,764,0,0
308,260,0,0,0,0,0,0,0,0,0,-1,1532,764,0,0
315,260,0,0,0,0,0,0,0,0,0,-1,1539,764,0,0
322,260,0,0,0,0,0,0,0,0,0,-1,1546,764,0,0
329,260,0,0,0,0,0,0,0,0,0,-1,1553,764,0,0
336,260,0,0,0,0,0,0,0,0,0,-1,1560,764,0,0
343,260,0,0,0,0,0,0,0,0,0,-1,1567,764,0,0
350,260,0,0,0,0,0,0,0,0,0,-1,1574,764,0,0
357,260,0,0,0,0,0,0,0,0,0,-1,1581,764,0,0
364,260,0,0,0,0,0,0,0,0,0,-1,1588,764,0,0
371,260,0,0,0,0,0,0,0,0,0,-1,1595,764,0,0
378,260,0,0,0,0,0,0,0,0,0,-1,1602,764,0,0
385,260,0,0,0,0,0,0,0,0,0,-1,1609,764,0,0
392,260,0,0,0,0,0,0,0,0,0,-1,1616,764,0,0
399,260,0,0,0,0,0,0,0,0,0,-1,1623,764,0,0
406,260,0,0,0,0,0,0,0,0,0,-1,1630,764,0,0
413,260,0,0,0,0,0,0,0,0,0,-1,1637,764,0,0
420,260,0,0,0,0,0,0,0,0,0,-1,1644,764,0,0
427,260,0,0,0,0,0,0,0,0,0,-1,1651,764,0,0
434,260,0,0,0,0,0,0,0,0,0,-1,1658,764,0,0
441,260,0,0,0,0,0,0,0,0,0,-1,1665,764,0,0
448,260,0,0,0,0,0,0,0,0,0,-1,1672,764,0,0
455,260,0,0,0,0,0,0,0,0,0,-1,1679,764,0,0
462,260,0,0,0,0,0,0,0,0,0,-1,1686,764,0,0
469,260,0,0,0,0,0,0,0,0,0,-1,1693,764,0,0
476,260,0,0,0,0,0,0,0,0,0,-1,1700,764,0,0
483,260,0,0,0,0,0,0,0,0,0,-1,1707,764,0,0
490,260,0,0,0,0,0,0,0,0,0,-1,1714,764,0,0
497,260,0,0,0,0,0,0,0,0,0,-1,1721,764,0,0
504,260,0,0,0,0,0,0,0,0,0,-1,1728,764,0,0
511,260,0,0,0,0,0,0,0,0,0,-1,1735,764,0,0
518,260,0,0,0,0,0,0,0,0,0,-1,1742,764,0,0
525,260,0,0,0,0,0,0,0,0,0,-1,1749,764,0,0
532,260,0,0,0,0,0,0,0,0,0,-1,1756,764,0,0
539,260,0,0,0,0,0,0,0,0,0,-1,1763,764,0,0
546,260,0,0,0,0,0,0,0,0,0,-1,1770,764,0,0
553,260,0,0,0,0,0,0,0,0,0,-1,1777,764,0,0
560,260,0,0,0,0,0,0,0,0,0,-1,1784,764,0,0
567,260,0,0,0,0,0,0,0,0,0,-1,1791,764,0,0
574,260,45.2189,2.7569,-0.00836392,0.0206102,0.00539156,0.021581,-0.00933467,1.39266,0.01831,0.03849,1798,764,45.2188,-2.75688
581,260,45.1737,2.90283,-0.00209481,0.0220333,0.00396457,0.022668,-0.00272955,1.41204,0.0160992,0.0464447,1805,764,45.1737,-2.90286
588,260,45.5497,2.75293,0,0,0,0,0,0,0,-1,1812,764,45.5497,-2.75292
595,260,45.4283,2.6153,0.00499064,0.0185668,0.00068728,0.0186015,0.00495594,1.52034,0.0111233,0.0451503,1819,764,45.4283,-2.61528
602,260,45.5952,2.63092,0.00650223,0.0152972,-0.000407742,0.0153161,0.00648337,-1.52457,0.00887734,0.0438022,1826,764,45.5952,-2.63092
609,260,46.022,2.38611,0,0,0,0,0,0,0,-1,1833,764,46.0219,-2.38613
616,260,44.4238,3.83069,0,0,0,0,0,0,0,-1,1840,764,44.4239,-3.83071
623,260,32.2268,3.25836,0,0,0,0,0,0,0,-1,1847,764,32.2268,-3.25833
630,260,24.3739,-0.536316,0,0,0,0,0,0,0,-1,1854,764,24.3739,0.536343
637,260,30.4141,-2.32056,0,0,0,0,0,0,0,-1,1861,764,30.4141,2.32058
644,260,30.3079,-2.04663,0.00494056,0.00354449,-0.00286041,0.00718687,0.00129817,-0.665721,0.0044225,0.0309043,1868,764,30.3078,2.04665
651,260,30.2679,-1.53186,0.00313756,0.00171243,-0.00220863,0.00474572,0.000104269,-0.629356,0.00312964,0.0151078,1875,764,30.2679,1.53187
658,260,30.2513,-0.996643,0.00156049,0.000675074,-0.00163564,0.00281227,-0.000576709,-0.653233,0.00209373,0.0156024,1882,764,30.2514,0.996638
665,260,30.224,-0.451416,0.000727097,0.000458127,-0.00116575,0.00176609,-0.000580871,-0.72797,0.00141144,0.0152939,1889,764,30.224,0.451422
672,260,30.2097,0.110168,0.000677109,0.000107841,-0.000594223,0.00105135,-0.000266401,-0.562044,0.000804539,0.0128482,1896,764,30.2098,-0.110146
679,260,30.1818,0.668213,0.000759223,0.000570775,-4.77e-05,0.000770609,0.000559389,-0.234314,0.000459799,0.0125045,1903,764,30.1818,-0.668238
686,260,30.152,1.2157,0.00107187,0.00153221,0.000464922,0.00182082,0.000783262,1.01525,0.00105466,0.0168814,1910,764,30.1519,-1.2157
693,260,30.1144,1.71625,0.00187065,0.00298413,0.000946541,0.00352553,0.00132926,1.05124,0.00205588,0.0166135,1917,764,30.1144,-1.71628
700,260,30.0695,2.25671,0.00300212,0.0046131,0.00151734,0.0055255,0.00208972,1.02941,0.00322155,0.0141367,1924,764,30.0694,-2.25671
707,260,30.0759,2.79034,0.00459933,0.00658951,0.00224894,0.00805367,0.00313516,0.993686,0.00468763,0.0149065,1931,764,30.0759,-2.79032
714,260,30.1438,3.37866,0.00696712,0.00919602,0.00335478,0.0116166,0.00454652,0.945762,0.0067594,0.0266579,1938,764,30.1438,-3.37867
721,260,30.2355,3.98395,0,0,0,0,0,0,0,-1,1945,764,30.2355,-3.98395
728,260,30.0559,5.07568,0,0,0,0,0,0,0,-1,1952,764,30.0559,-5.07567
735,260,26.9788,4.85681,0,0,0,0,0,0,0,-1,1959,764,26.9787,-4.85678
742,260,32.1443,1.73688,0,0,0,0,0,0,0,-1,1966,764,32.1442,-1.73688
749,260,33.6013,2.94733,0,0,0,0,0,0,0,-1,1973,764,33.6013,-2.9473
756,260,0,0,0,0,0,0,0,0,0,-1,1980,764,0,0
763,260,0,0,0,0,0,0,0,0,0,-1,1987,764,0,0
770,260,0,0,0,0,0,0,0,0,0,-1,1994,764,0,0
777,260,0,0,0,0,0,0,0,0,0,-1,2001,764,0,0
784,260,0,0,0,0,0,0,0,0,0,-1,2008,764,0,0
791,260,0,0,0,0,0,0,0,0,0,-1,2015,764,0,0
798,260,0,0,0,0,0,0,0,0,0,-1,2022,764,0,0
805,260,0,0,0,0,0,0,0,0,0,-1,2029,764,0,0
812,260,0,0,0,0,0,0,0,0,0,-1,2036,764,0,0
-700,253,0,0,0,0,0,0,0,0,0,-1,524,771,0,0
-693,253,0,0,0,0,0,0,0,0,0,-1,531,771,0,0
-686,253,0,0,0,0,0,0,0,0,0,-1,538,771,0,0
-679,253,0,0,0,0,0,0,0,0,0,-1,545,771,0,0
-672,253,0,0,0,0,0,0,0,0,0,-1,552,771,0,0
-665,253,0,0,0,0,0,0,0,0,0,-1,559,771,0,0
-658,253,0,0,0,0,0,0,0,0,0,-1,566,771,0,0
-651,253,0,0,0,0,0,0,0,0,0,-1,573,771,0,0
-644,253,0,0,0,0,0,0,0,0,0,-1,580,771,0,0
-637,253,-24.7979,-0.491394,0,0,0,0,0,0,0,-1,587,771,-24.7978,0.491371
-630,253,-25.156,0.540405,0,0,0,0,0,0,0,-1,594,771,-25.156,-0.540421
-623,253,-20.808,2.84314,0,0,0,0,0,0,0,-1,601,771,-20.8081,-2.84312
-616,253,-25.0877,2.96875,0,0,0,0,0,0,0,-1,608,771,-25.0877,-2.96876
-609,253,-24.28,2.08228,0,0,0,0,0,0,0,-1,615,771,-24.2801,-2.08227
-602,253,-20.5939,2.33582,0,0,0,0,0,0,0,-1,622,771,-20.5939,-2.33581
-595,253,-20.5771,1.81885,0.0100421,0.0103573,-0.0084647,0.0186658,0.0017335,-0.794706,0.0119082,0.0497663,629,771,-20.5772,-1.81884
-588,253,-20.5645,1.25909,0.00690207,0.00737286,-0.00586749,0.0130097,0.00126526,-0.805446,0.00828364,0.0377835,636,771,-20.5645,-1.2591
-581,253,-20.5664,0.717285,0.004754,0.00517054,-0.00403074,0.00899839,0.000926152,-0.81121,0.00571528,0.0253797,643,771,-20.5664,-0.717275
-574,253,-20.628,0.217102,0.00313362,0.00350201,-0.00254726,0.00587172,0.000763905,-0.821491,0.00368632,0.0201619,650,771,-20.628,-0.217085
-567,253,-20.6587,-0.341187,0.00184116,0.00210493,-0.00134269,0.0033222,0.000623901,-0.834354,0.0020389,0.0175486,657,771,-20.6587,0.341212
-560,253,-20.6374,-0.790833,0.000806078,0.000883551,-0.000354272,0.0012012,0.000488431,-0.839852,0.000697532,0.0139213,664,771,-20.6374,0.790845
-553,253,-20.6465,-1.29047,5.68674e-05,-0.000194673,0.000486946,0.000434023,-0.000571829,0.659018,0.000582543,0.0121278,671,771,-20.6465,1.29049
-546,253,-20.6761,-1.76947,-0.000462969,-0.00120523,0.00129336,0.000511456,-0.00217966,0.645677,0.00165022,0.0104115,678,771,-20.6761,1.76944
-539,253,-20.71,-2.33582,-0.000832544,-0.00180633,0.00181561,0.000560324,-0.0031992,0.654395,0.00234202,0.0119521,685,771,-20.71,2.3358
-532,253,-20.6918,-2.87482,-0.000637732,-0.00168216,0.00292558,0.00181188,-0.00413176,0.697079,0.00351761,0.0162959,692,771,-20.6918,2.87484
-525,253,-20.6685,-3.39777,-0.000665312,-0.00166328,0.00362435,0.00249424,-0.00482283,0.71699,0.00429523,0.0140254,699,771,-20.6685,3.39778
-518,253,-20.7755,-3.90149,-0.00136307,-0.00220587,0.00415075,0.00238762,-0.00595656,0.73481,0.00496223,0.0230656,706,771,-20.7755,3.90148
-511,253,-20.8477,-4.36597,0,0,0,0,0,0,0,-1,713,771,-20.8477,4.366
-504,253,-19.317,-4.1723,0,0,0,0,0,0,0,-1,720,771,-19.317,4.1723
-497,253,-21.7737,-1.76837,0,0,0,0,0,0,0,-1,727,771,-21.7738,1.7684
-490,253,-29.7674,0.438354,0,0,0,0,0,0,0,-1,734,771,-29.7674,-0.438339
-483,253,-34.1142,1.01941,0,0,0,0,0,0,0,-1,741,771,-34.1142,-1.01941
-476,253,-33.6968,0.772095,0,0,0,0,0,0,0,-1,748,771,-33.6968,-0.772087
-469,253,-33.2793,0.52478,0,0,0,0,0,0,0,-1,755,771,-33.2793,-0.524769
-462,253,-34.0089,0.854675,-0.025542,-0.028953,0.00737522,-0.0196777,-0.0348174,0.671773,0.0201586,0.0453996,762,771,-34.0089,-0.854692
-455,253,-34.0441,0.828857,0,0,0,0,0,0,0,-1,769,771,-34.0441,-0.828858
-448,253,0,0,0,0,0,0,0,0,0,-1,776,771,0,0
-441,253,0,0,0,0,0,0,0,0,0,-1,783,771,0,0
-434,253,0,0,0,0,0,0,0,0,0,-1,790,771,0,0
-427,253,0,0,0,0,0,0,0,0,0,-1,797,771,0,0
-420,253,0,0,0,0,0,0,0,0,0,-1,804,771,0,0
-413,253,0,0,0,0,0,0,0,0,0,-1,811,771,0,0
-406,253,0,0,0,0,0,0,0,0,0,-1,818,771,0,0
-399,253,0,0,0,0,0,0,0,0,0,-1,825,771,0,0
-392,253,0,0,0,0,0,0,0,0,0,-1,832,771,0,0
-385,253,0,0,0,0,0,0,0,0,0,-1,839,771,0,0
-378,253,0,0,0,0,0,0,0,0,0,-1,846,771,0,0
-371,253,0,0,0,0,0,0,0,0,0,-1,853,771,0,0
-364,253,0,0,0,0,0,0,0,0,0,-1,860,771,0,0
-357,253,0,0,0,0,0,0,0,0,0,-1,867,771,0,0
-350,253,0,0,0,0,0,0,0,0,0,-1,874,771,0,0
-343,253,0,0,0,0,0,0,0,0,0,-1,881,771,0,0
-336,253,0,0,0,0,0,0,0,0,0,-1,888,771,0,0
-329,253,0,0,0,0,0,0,0,0,0,-1,895,771,0,0
-322,253,0,0,0,0,0,0,0,0,0,-1,902,771,0,0
-315,253,0,0,0,0,0,0,0,0,0,-1,909,771,0,0
-308,253,0,0,0,0,0,0,0,0,0,-1,916,771,0,0
-301,253,0,0,0,0,0,0,0,0,0,-1,923,771,0,0
-294,253,0,0,0,0,0,0,0,0,0,-1,930,771,0,0
-287,253,0,0,0,0,0,0,0,0,0,-1,937,771,0,0
-280,253,0,0,0,0,0,0,0,0,0,-1,944,771,0,0
-273,253,0,0,0,0,0,0,0,0,0,-1,951,771,0,0
-266,253,0,0,0,0,0,0,0,0,0,-1,958,771,0,0
-259,253,0,0,0,0,0,0,0,0,0,-1,965,771,0,0
-252,253,0,0,0,0,0,0,0,0,0,-1,972,771,0,0
-245,253,0,0,0,0,0,0,0,0,0,-1,979,771,0,0
-238,253,0,0,0,0,0,0,0,0,0,-1,986,771,0,0
-231,253,0,0,0,0,0,0,0,0,0,-1,993,771,0,0
-224,253,0,0,0,0,0,0,0,0,0,-1,1000,771,0,0
-217,253,0,0,0,0,0,0,0,0,0,-1,1007,771,0,0
-210,253,0,0,0,0,0,0,0,0,0,-1,1014,771,0,0
-203,253,0,0,0,0,0,0,0,0,0,-1,1021,771,0,0
-196,253,0,0,0,0,0,0,0,0,0,-1,1028,771,0,0
-189,253,0,0,0,0,0,0,0,0,0,-1,1035,771,0,0
-182,253,0,0,0,0,0,0,0,0,0,-1,1042,771,0,0
-175,253,0,0,0,0,0,0,0,0,0,-1,1049,771,0,0
-168,253,0,0,0,0,0,0,0,0,0,-1,1056,771,0,0
-161,253,0,0,0,0,0,0,0,0,0,-1,1063,771,0,0
-154,253,0,0,0,0,0,0,0,0,0,-1,1070,771,0,0
-147,253,0,0,0,0,0,0,0,0,0,-1,1077,771,0,0
-140,253,0,0,0,0,0,0,0,0,0,-1,1084,771,0,0
-133,253,0,0,0,0,0,0,0,0,0,-1,1091,771,0,0
-126,253,0,0,0,0,0,0,0,0,0,-1,1098,771,0,0
-119,253,0,0,0,0,0,0,0,0,0,-1,1105,771,0,0
-112,253,0,0,0,0,0,0,0,0,0,-1,1112,771,0,0
-105,253,0,0,0,0,0,0,0,0,0,-1,1119,771,0,0
-98,253,0,0,0,0,0,0,0,0,0,-1,1126,771,0,0
-91,253,0,0,0,0,0,0,0,0,0,-1,1133,771,0,0
-84,253,0,0,0,0,0,0,0,0,0,-1,1140,771,0,0
-77,253,0,0,0,0,0,0,0,0,0,-1,1147,771,0,0
-70,253,0,0,0,0,0,0,0,0,0,-1,1154,771,0,0
-63,253,0,0,0,0,0,0,0,0,0,-1,1161,771,0,0
-56,253,0,0,0,0,0,0,0,0,0,-1,1168,771,0,0
-49,253,0,0,0,0,0,0,0,0,0,-1,1175,771,0,0
-42,253,0,0,0,0,0,0,0,0,0,-1,1182,771,0,0
-35,253,0,0,0,0,0,0,0,0,0,-1,1189,771,0,0
-28,253,0,0,0,0,0,0,0,0,0,-1,1196,771,0,0
-21,253,0,0,0,0,0,0,0,0,0,-1,1203,771,0,0
-14,253,0,0,0,0,0,0,0,0,0,-1,1210,771,0,0
-7,253,0,0,0,0,0,0,0,0,0,-1,1217,771,0,0
0,253,0,0,0,0,0,0,0,0,0,-1,1224,771,0,0
7,253,0,0,0,0,0,0,0,0,0,-1,1231,771,0,0
14,253,0,0,0,0,0,0,0,0,0,-1,1238,771,0,0
21,253,0,0,0,0,0,0,0,0,0,-1,1245,771,0,0
28,253,0,0,0,0,0,0,0,0,0,-1,1252,771,0,0
35,253,0,0,0,0,0,0,0,0,0,-1,1259,771,0,0
42,253,0,0,0,0,0,0,0,0,0,-1,1266,771,0,0
49,253,0,0,0,0,0,0,0,0,0,-1,1273,771,0,0
56,253,0,0,0,0,0,0,0,0,0,-1,1280,771,0,0
63,253,0,0,0,0,0,0,0,0,0,-1,1287,771,0,0
70,253,0,0,0,0,0,0,0,0,0,-1,1294,771,0,0
77,253,0,0,0,0,0,0,0,0,0,-1,1301,771,0,0
84,253,0,0,0,0,0,0,0,0,0,-1,1308,771,0,0
91,253,0,0,0,0,0,0,0,0,0,-1,1315,771,0,0
98,253,0,0,0,0,0,0,0,0,0,-1,1322,771,0,0
105,253,0,0,0,0,0,0,0,0,0,-1,1329,771,0,0
112,253,0,0,0,0,0,0,0,0,0,-1,1336,771,0,0
119,253,0,0,0,0,0,0,0,0,0,-1,1343,771,0,0
126,253,0,0,0,0,0,0,0,0,0,-1,1350,771,0,0
133,253,0,0,0,0,0,0,0,0,0,-1,1357,771,0,0
140,253,0,0,0,0,0,0,0,0,0,-1,1364,771,0,0
147,253,0,0,0,0,0,0,0,0,0,-1,1371,771,0,0
154,253,0,0,0,0,0,0,0,0,0,-1,1378,771,0,0
161,253,0,0,0,0,0,0,0,0,0,-1,1385,771,0,0
168,253,0,0,0,0,0,0,0,0,0,-1,1392,771,0,0
175,253,0,0,0,0,0,0,0,0,0,-1,1399,771,0,0
182,253,0,0,0,0,0,0,0,0,0,-1,1406,771,0,0
189,253,0,0,0,0,0,0,0,0,0,-1,1413,771,0,0
196,253,0,0,0,0,0,0,0,0,0,-1,1420,771,0,0
203,253,0,0,0,0,0,0,0,0,0,-1,1427,771,0,0
210,253,0,0,0,0,0,0,0,0,0,-1,1434,771,0,0
217,253,0,0,0,0,0,0,0,0,0,-1,1441,771,0,0
224,253,0,0,0,0,0,0,0,0,0,-1,1448,771,0,0
231,253,0,0,0,0,0,0,0,0,0,-1,1455,771,0,0
238,253,0,0,0,0,0,0,0,0,0,-1,1462,771,0,0
245,253,0,0,0,0,0,0,0,0,0,-1,1469,771,0,0
252,253,0,0,0,0,0,0,0,0,0,-1,1476,771,0,0
259,253,0,0,0,0,0,0,0,0,0,-1,1483,771,0,0
266,253,0,0,0,0,0,0,0,0,0,-1,1490,771,0,0
273,253,0,0,0,0,0,0,0,0,0,-1,1497,771,0,0
280,253,0,0,0,0,0,0,0,0,0,-1,1504,771,0,0
287,253,0,0,0,0,0,0,0,0,0,-1,1511,771,0,0
294,253,0,0,0,0,0,0,0,0,0,-1,1518,771,0,0
301,253,0,0,0,0,0,0,0,0,0,-1,1525,771,0,0
308,253,0,0,0,0,0,0,0,0,0,-1,1532,771,0,0
315,253,0,0,0,0,0,0,0,0,0,-1,1539,771,0,0
322,253,0,0,0,0,0,0,0,0,0,-1,1546,771,0,0
329,253,0,0,0,0,0,0,0,0,0,-1,1553,771,0,0
336,253,0,0,0,0,0,0,0,0,0,-1,1560,771,0,0
343,253,0,0,0,0,0,0,0,0,0,-1,1567,771,0,0
350,253,0,0,0,0,0,0,0,0,0,-1,1574,771,0,0
357,253,0,0,0,0,0,0,0,0,0,-1,1581,771,0,0
364,253,0,0,0,0,0,0,0,0,0,-1,1588,771,0,0
371,253,0,0,0,0,0,0,0,0,0,-1,1595,771,0,0
378,253,0,0,0,0,0,0,0,0,0,-1,1602,771,0,0
385,253,0,0,0,0,0,0,0,0,0,-1,1609,771,0,0
392,253,0,0,0,0,0,0,0,0,0,-1,1616,771,0,0
399,253,0,0,0,0,0,0,0,0,0,-1,1623,771,0,0
406,253,0,0,0,0,0,0,0,0,0,-1,1630,771,0,0
413,253,0,0,0,0,0,0,0,0,0,-1,1637,771,0,0
420,253,0,0,0,0,0,0,0,0,0,-1,1644,771,0,0
427,253,0,0,0,0,0,0,0,0,0,-1,1651,771,0,0
434,253,0,0,0,0,0,0,0,0,0,-1,1658,771,0,0
441,253,0,0,0,0,0,0,0,0,0,-1,1665,771,0,0
448,253,0,0,0,0,0,0,0,0,0,-1,1672,771,0,0
455,253,0,0,0,0,0,0,0,0,0,-1,1679,771,0,0
462,253,0,0,0,0,0,0,0,0,0,-1,1686,771,0,0
469,253,0,0,0,0,0,0,0,0,0,-1,1693,771,0,0
476,253,0,0,0,0,0,0,0,0,0,-1,1700,771,0,0
483,253,0,0,0,0,0,0,0,0,0,-1,1707,771,0,0
490,253,0,0,0,0,0,0,0,0,0,-1,1714,771,0,0
497,253,0,0,0,0,0,0,0,0,0,-1,1721,771,0,0
504,253,0,0,0,0,0,0,0,0,0,-1,1728,771,0,0
511,253,0,0,0,0,0,0,0,0,0,-1,1735,771,0,0
518,253,0,0,0,0,0,0,0,0,0,-1,1742,771,0,0
525,253,0,0,0,0,0,0,0,0,0,-1,1749,771,0,0
532,253,0,0,0,0,0,0,0,0,0,-1,1756,771,0,0
539,253,0,0,0,0,0,0,0,0,0,-1,1763,771,0,0
546,253,0,0,0,0,0,0,0,0,0,-1,1770,771,0,0
553,253,0,0,0,0,0,0,0,0,0,-1,1777,771,0,0
560,253,0,0,0,0,0,0,0,0,0,-1,1784,771,0,0
567,253,0,0,0,0,0,0,0,0,0,-1,1791,771,0,0
574,253,45.1459,2.68243,-0.00843324,0.0108288,0.00419461,0.0117026,-0.00930704,1.36542,0.0121562,0.0374181,1798,771,45.1459,-2.68242
581,253,45.1387,2.76349,-0.00109826,0.0144397,0.00289412,0.0149613,-0.00161982,1.3925,0.0105556,0.0396665,1805,771,45.1387,-2.76352
588,253,45.3606,2.7597,0.0039087,0.0165525,0.001114,0.0166499,0.0038113,1.48359,0.0100728,0.0424274,1812,771,45.3606,-2.75972
595,253,45.7034,2.6745,0.00659956,0.0157379,-0.00042737,0.0157579,0.00657962,-1.52417,0.00913896,0.0447002,1819,771,45.7034,-2.67451
602,253,45.8273,2.47223,0.00782088,0.0136281,-0.00151767,0.0140008,0.00744817,-1.32998,0.00808888,0.0452898,1826,771,45.8273,-2.47225
609,253,46.2473,2.21985,0.00819897,0.0115635,-0.00227987,0.0127146,0.0070479,-1.10325,0.0073552,0.0432451,1833,771,46.2473,-2.21984
616,253,46.8595,2.03064,0,0,0,0,0,0,0,-1,1840,771,46.8595,-2.03067
623,253,43.9686,4.74738,0,0,0,0,0,0,0,-1,1847,771,43.9687,-4.74736
630,253,33.561,2.96838,0,0,0,0,0,0,0,-1,1854,771,33.561,-2.96836
637,253,22.3192,-0.604004,0,0,0,0,0,0,0,-1,1861,771,22.3192,0.603986
644,253,30.9448,-1.97485,0,0,0,0,0,0,0,-1,1868,771,30.9448,1.97483
651,253,30.7867,-1.45386,0.00298558,0.00220312,-0.00256194,0.00518599,2.70922e-06,-0.70963,0.00345642,0.0276984,1875,771,30.7867,1.45384
658,253,30.7922,-0.953552,0.00149984,0.00120143,-0.0020523,0.00340835,-0.000707084,-0.749112,0.00254094,0.0194596,1882,771,30.7922,0.953565
665,253,30.7141,-0.42041,0.000652879,0.000816919,-0.00158862,0.00232564,-0.000855841,-0.81119,0.00190104,0.0206075,1889,771,30.7142,0.420412
672,253,30.7008,0.131775,0.000616876,0.000107142,-0.000977501,0.00137219,-0.000648172,-0.657871,0.00119116,0.0150786,1896,771,30.7008,-0.131795
679,253,30.7306,0.713074,0.000623176,0.000211344,-0.000368062,0.000839008,-4.48787e-06,-0.53036,0.000560841,0.0128598,1903,771,30.7306,-0.713045
686,253,30.6919,1.2561,0.000863037,0.00087943,0.000224028,0.00109541,0.000647055,0.803684,0.000635895,0.0213823,1910,771,30.6919,-1.25612
693,253,30.6516,1.76483,0.00169849,0.00230143,0.000688943,0.00275198,0.00124795,0.991638,0.00159115,0.0199883,1917,771,30.6517,-1.76482
700,253,30.6448,2.27466,0.00289523,0.00371118,0.0012243,0.00459369,0.00201272,0.946227,0.00265892,0.0154312,1924,771,30.6448,-2.27469
707,253,30.6313,2.81561,0.00448021,0.00539642,0.00188597,0.00687912,0.00299751,0.904542,0.00398258,0.015481,1931,771,30.6314,-2.81562
714,253,30.6238,3.37683,0.00671824,0.00749536,0.00283954,0.00997281,0.0042408,0.853396,0.00577922,0.0210912,1938,771,30.6237,-3.37683
721,253,30.6195,4.04266,0.0095771,0.0098759,0.00395262,0.0136819,0.00577106,0.804288,0.00793141,0.0358779,1945,771,30.6195,-4.04265
728,253,30.7218,4.78662,0.0132602,0.0128248,0.00527998,0.018327,0.00775804,0.764793,0.0106225,0.0497768,1952,771,30.7219,-4.78665
735,253,30.9088,5.36432,0,0,0,0,0,0,0,-1,1959,771,30.9088,-5.36435
742,253,31.0571,5.7337,0,0,0,0,0,0,0,-1,1966,771,31.0571,-5.73373
749,253,33.7754,3.21533,0,0,0,0,0,0,0,-1,1973,771,33.7754,-3.21533
756,253,0,0,0,0,0,0,0,0,0,-1,1980,771,0,0
763,253,0,0,0,0,0,0,0,0,0,-1,1987,771,0,0
770,253,0,0,0,0,0,0,0,0,0,-1,1994,771,0,0
777,253,0,0,0,0,0,0,0,0,0,-1,2001,771,0,0
784,253,0,0,0,0,0,0,0,0,0,-1,2008,771,0,0
791,253,0,0,0,0,0,0,0,0,0,-1,2015,771,0,0
798,253,0,0,0,0,0,0,0,0,0,-1,2022,771,0,0
805,253,0,0,0,0,0,0,0,0,0,-1,2029,771,0,0
812,253,0,0,0,0,0,0,0,0,0,-1,2036,771,0,0
-700,246,0,0,0,0,0,0,0,0,0,-1,524,778,0,0
-693,246,0,0,0,0,0,0,0,0,0,-1,531,778,0,0
-686,246,0,0,0,0,0,0,0,0,0,-1,538,778,0,0
-679,246,0,0,0,0,0,0,0,0,0,-1,545,778,0,0
-672,246,0,0,0,0,0,0,0,0,0,-1,552,778,0,0
-665,246,0,0,0,0,0,0,0,0,0,-1,559,778,0,0
-658,246,0,0,0,0,0,0,0,0,0,-1,566,778,0,0
-651,246,0,0,0,0,0,0,0,0,0,-1,573,778,0,0
-644,246,0,0,0,0,0,0,0,0,0,-1,580,778,0,0
-637,246,-24.1234,0.130432,0,0,0,0,0,0,0,-1,587,778,-24.1234,-0.130438
-630,246,-24.0781,1.38916,0,0,0,0,0,0,0,-1,594,778,-24.0781,-1.38913
-623,246,-23.9183,2.49573,0,0,0,0,0,0,0,-1,601,778,-23.9183,-2.49575
-616,246,-26.8182,2.0705,0,0,0,0,0,0,0,-1,608,778,-26.8182,-2.07052
-609,246,-26.0615,1.16388,0,0,0,0,0,0,0,-1,615,778,-26.0615,-1.16388
-602,246,-21.7195,2.15503,0,0,0,0,0,0,0,-1,622,778,-21.7195,-2.15501
-595,246,-21.4304,1.79327,0.00896942,0.0105745,-0.00891573,0.0187237,0.000820162,-0.830283,0.0122183,0.0439778,629,778,-21.4303,-1.79326
-588,246,-21.0873,1.30865,0.00634496,0.00760845,-0.00623997,0.0132486,0.000704836,-0.835847,0.00860707,0.0289645,636,778,-21.0874,-1.30865
-581,246,-21.1133,0.800659,0.00444548,0.00532162,-0.00427016,0.00917612,0.000590979,-0.836514,0.00593024,0.0177724,643,778,-21.1133,-0.800656
-574,246,-21.1098,0.220642,0.00290324,0.00351934,-0.00264413,0.0058733,0.000549272,-0.843388,0.00374589,0.0182608,650,778,-21.1098,-0.220623
-567,246,-21.1371,-0.324829,0.00159897,0.00197712,-0.00128557,0.00308745,0.000488645,-0.858413,0.0019163,0.0224287,657,778,-21.1372,0.324806
-560,246,-21.1699,-0.805664,0.000555718,0.000628725,-0.000189075,0.000784788,0.000399654,-0.880756,0.000453123,0.0177245,664,778,-21.1699,0.805683
-553,246,-21.1705,-1.25031,-0.000173648,-0.000563652,0.00072899,0.000385971,-0.00112327,0.65471,0.000905357,0.0134045,671,778,-21.1705,1.25033
-546,246,-21.2,-1.73981,-0.000675116,-0.00164938,0.00155621,0.000468423,-0.00279291,0.633717,0.00203612,0.0110031,678,778,-21.2,1.73982
-539,246,-21.2386,-2.29535,-0.00101299,-0.00225966,0.00195064,0.000411486,-0.00368413,0.630748,0.00260411,0.0112772,685,778,-21.2387,2.29536
-532,246,-21.2354,-2.85236,-0.000734468,-0.00203987,0.00296501,0.00164884,-0.00442317,0.677059,0.0036256,0.0133474,692,778,-21.2353,2.85238
-525,246,-21.2498,-3.34235,-0.000695249,-0.00191541,0.00350747,0.0022548,-0.00486547,0.699291,0.00420199,0.0208482,699,778,-21.2498,3.34236
-518,246,-21.4294,-3.6947,-0.00127035,-0.00223333,0.00389792,0.0021757,-0.00567938,0.723947,0.0046831,0.0343466,706,778,-21.4294,3.6947
-511,246,-21.7088,-3.93549,0,0,0,0,0,0,0,-1,713,778,-21.7088,3.93546
-504,246,-20.0047,-2.88214,0,0,0,0,0,0,0,-1,720,778,-20.0047,2.88216
-497,246,-29.4669,1.82684,0,0,0,0,0,0,0,-1,727,778,-29.4669,-1.82687
-490,246,-32.5896,1.00519,0,0,0,0,0,0,0,-1,734,778,-32.5896,-1.00518
-483,246,-33.2019,0.987122,-0.00804748,-0.00786053,0.00669554,-0.00125781,-0.0146502,0.792378,0.00937569,0.0498918,741,778,-33.2019,-0.987149
-476,246,-33.7382,1.13879,-0.0112606,-0.0108237,0.00708139,-0.00395737,-0.0181269,0.800818,0.0110053,0.0472354,748,778,-33.7382,-1.13878
-469,246,-33.7519,1.06335,-0.0154909,-0.0146888,0.00692733,-0.00815095,-0.0220288,0.814313,0.0128608,0.0428656,755,778,-33.7519,-1.06333
-462,246,-33.8433,1.01556,-0.0210449,-0.0191753,0.00566023,-0.0143732,-0.025847,0.867235,0.014954,0.0462424,762,778,-33.8433,-1.01554
-455,246,0,0,0,0,0,0,0,0,0,-1,769,778,0,0
-448,246,0,0,0,0,0,0,0,0,0,-1,776,778,0,0
-441,246,0,0,0,0,0,0,0,0,0,-1,783,778,0,0
-434,246,0,0,0,0,0,0,0,0,0,-1,790,778,0,0
-427,246,0,0,0,0,0,0,0,0,0,-1,797,778,0,0
-420,246,0,0,0,0,0,0,0,0,0,-1,804,778,0,0
-413,246,0,0,0,0,0,0,0,0,0,-1,811,778,0,0
-406,246,0,0,0,0,0,0,0,0,0,-1,818,778,0,0
-399,246,0,0,0,0,0,0,0,0,0,-1,825,778,0,0
-392,246,0,0,0,0,0,0,0,0,0,-1,832,778,0,0
-385,246,0,0,0,0,0,0,0,0,0,-1,839,778,0,0
-378,246,0,0,0,0,0,0,0,0,0,-1,846,778,0,0
-371,246,0,0,0,0,0,0,0,0,0,-1,853,778,0,0
-364,246,0,0,0,0,0,0,0,0,0,-1,860,778,0,0
-357,246,0,0,0,0,0,0,0,0,0,-1,867,778,0,0
-350,246,0,0,0,0,0,0,0,0,0,-1,874,778,0,0
-343,246,0,0,0,0,0,0,0,0,0,-1,881,778,0,0
-336,246,0,0,0,0,0,0,0,0,0,-1,888,778,0,0
-329,246,0,0,0,0,0,0,0,0,0,-1,895,778,0,0
-322,246,0,0,0,0,0,0,0,0,0,-1,902,778,0,0
-315,246,0,0,0,0,0,0,0,0,0,-1,909,778,0,0
-308,246,0,0,0,0,0,0,0,0,0,-1,916,778,0,0
-301,246,0,0,0,0,0,0,0,0,0,-1,923,778,0,0
-294,246,0,0,0,0,0,0,0,0,0,-1,930,778,0,0
-287,246,0,0,0,0,0,0,0,0,0,-1,937,778,0,0
-280,246,0,0,0,0,0,0,0,0,0,-1,944,778,0,0
-273,246,0,0,0,0,0,0,0,0,0,-1,951,778,0,0
-266,246,0,0,0,0,0,0,0,0,0,-1,958,778,0,0
-259,246,0,0,0,0,0,0,0,0,0,-1,965,778,0,0
-252,246,0,0,0,0,0,0,0,0,0,-1,972,778,0,0
-245,246,0,0,0,0,0,0,0,0,0,-1,979,778,0,0
-238,246,0,0,0,0,0,0,0,0,0,-1,986,778,0,0
-231,246,0,0,0,0,0,0,0,0,0,-1,993,778,0,0
-224,246,0,0,0,0,0,0,0,0,0,-1,1000,778,0,0
-217,246,0,0,0,0,0,0,0,0,0,-1,1007,778,0,0
-210,246,0,0,0,0,0,0,0,0,0,-1,1014,778,0,0
-203,246,0,0,0,0,0,0,0,0,0,-1,1021,778,0,0
-196,246,0,0,0,0,0,0,0,0,0,-1,1028,778,0,0
-189,246,0,0,0,0,0,0,0,0,0,-1,1035,778,0,0
-182,246,0,0,0,0,0,0,0,0,0,-1,1042,778,0,0
-175,246,0,0,0,0,0,0,0,0,0,-1,1049,778,0,0
-168,246,0,0,0,0,0,0,0,0,0,-1,1056,778,0,0
-161,246,0,0,0,0,0,0,0,0,0,-1,1063,778,0,0
-154,246,0,0,0,0,0,0,0,0,0,-1,1070,778,0,0
-147,246,0,0,0,0,0,0,0,0,0,-1,1077,778,0,0
-140,246,0,0,0,0,0,0,0,0,0,-1,1084,778,0,0
-133,246,0,0,0,0,0,0,0,0,0,-1,1091,778,0,0
-126,246,0,0,0,0,0,0,0,0,0,-1,1098,778,0,0
-119,246,0,0,0,0,0,0,0,0,0,-1,1105,778,0,0
-112,246,0,0,0,0,0,0,0,0,0,-1,1112,778,0,0
-105,246,0,0,0,0,0,0,0,0,0,-1,1119,778,0,0
-98,246,0,0,0,0,0,0,0,0,0,-1,1126,778,0,0
-91,246,0,0,0,0,0,0,0,0,0,-1,1133,778,0,0
-84,246,0,0,0,0,0,0,0,0,0,-1,1140,778,0,0
-77,246,0,0,0,0,0,0,0,0,0,-1,1147,778,0,0
-70,246,0,0,0,0,0,0,0,0,0,-1,1154,778,0,0
-63,246,0,0,0,0,0,0,0,0,0,-1,1161,778,0,0
-56,246,0,0,0,0,0,0,0,0,0,-1,1168,778,0,0
-49,246,0,0,0,0,0,0,0,0,0,-1,1175,778,0,0
-42,246,0,0,0,0,0,0,0,0,0,-1,1182,778,0,0
-35,246,0,0,0,0,0,0,0,0,0,-1,1189,778,0,0
-28,246,0,0,0,0,0,0,0,0,0,-1,1196,778,0,0
-21,246,0,0,0,0,0,0,0,0,0,-1,1203,778,0,0
-14,246,0,0,0,0,0,0,0,0,0,-1,1210,778,0,0
-7,246,0,0,0,0,0,0,0,0,0,-1,1217,778,0,0
0,246,0,0,0,0,0,0,0,0,0,-1,1224,778,0,0
7,246,0,0,0,0,0,0,0,0,0,-1,1231,778,0,0
14,246,0,0,0,0,0,0,0,0,0,-1,1238,778,0,0
21,246,0,0,0,0,0,0,0,0,0,-1,1245,778,0,0
28,246,0,0,0,0,0,0,0,0,0,-1,1252,778,0,0
35,246,0,0,0,0,0,0,0,0,0,-1,1259,778,0,0
42,246,0,0,0,0,0,0,0,0,0,-1,1266,778,0,0
49,246,0,0,0,0,0,0,0,0,0,-1,1273,778,0,0
56,246,0,0,0,0,0,0,0,0,0,-1,1280,778,0,0
63,246,0,0,0,0,0,0,0,0,0,-1,1287,778,0,0
70,246,0,0,0,0,0,0,0,0,0,-1,1294,778,0,0
77,246,0,0,0,0,0,0,0,0,0,-1,1301,778,0,0
84,246,0,0,0,0,0,0,0,0,0,-1,1308,778,0,0
91,246,0,0,0,0,0,0,0,0,0,-1,1315,778,0,0
98,246,0,0,0,0,0,0,0,0,0,-1,1322,778,0,0
105,246,0,0,0,0,0,0,0,0,0,-1,1329,778,0,0
112,246,0,0,0,0,0,0,0,0,0,-1,1336,778,0,0
119,246,0,0,0,0,0,0,0,0,0,-1,1343,778,0,0
126,246,0,0,0,0,0,0,0,0,0,-1,1350,778,0,0
133,246,0,0,0,0,0,0,0,0,0,-1,1357,778,0,0
140,246,0,0,0,0,0,0,0,0,0,-1,1364,778,0,0
147,246,0,0,0,0,0,0,0,0,0,-1,1371,778,0,0
154,246,0,0,0,0,0,0,0,0,0,-1,1378,778,0,0
161,246,0,0,0,0,0,0,0,0,0,-1,1385,778,0,0
168,246,0,0,0,0,0,0,0,0,0,-1,1392,778,0,0
175,246,0,0,0,0,0,0,0,0,0,-1,1399,778,0,0
182,246,0,0,0,0,0,0,0,0,0,-1,1406,778,0,0
189,246,0,0,0,0,0,0,0,0,0,-1,1413,778,0,0
196,246,0,0,0,0,0,0,0,0,0,-1,1420,778,0,0
203,246,0,0,0,0,0,0,0,0,0,-1,1427,778,0,0
210,246,0,0,0,0,0,0,0,0,0,-1,1434,778,0,0
217,246,0,0,0,0,0,0,0,0,0,-1,1441,778,0,0
224,246,0,0,0,0,0,0,0,0,0,-1,1448,778,0,0
231,246,0,0,0,0,0,0,0,0,0,-1,1455,778,0,0
238,246,0,0,0,0,0,0,0,0,0,-1,1462,778,0,0
245,246,0,0,0,0,0,0,0,0,0,-1,1469,778,0,0
252,246,0,0,0,0,0,0,0,0,0,-1,1476,778,0,0
259,246,0,0,0,0,0,0,0,0,0,-1,1483,778,0,0
266,246,0,0,0,0,0,0,0,0,0,-1,1490,778,0,0
273,246,0,0,0,0,0,0,0,0,0,-1,1497,778,0,0
280,246,0,0,0,0,0,0,0,0,0,-1,1504,778,0,0
287,246,0,0,0,0,0,0,0,0,0,-1,1511,778,0,0
294,246,0,0,0,0,0,0,0,0,0,-1,1518,778,0,0
301,246,0,0,0,0,0,0,0,0,0,-1,1525,778,0,0
308,246,0,0,0,0,0,0,0,0,0,-1,1532,778,0,0
315,246,0,0,0,0,0,0,0,0,0,-1,1539,778,0,0
322,246,0,0,0,0,0,0,0,0,0,-1,1546,778,0,0
329,246,0,0,0,0,0,0,0,0,0,-1,1553,778,0,0
336,246,0,0,0,0,0,0,0,0,0,-1,1560,778,0,0
343,246,0,0,0,0,0,0,0,0,0,-1,1567,778,0,0
350,246,0,0,0,0,0,0,0,0,0,-1,1574,778,0,0
357,246,0,0,0,0,0,0,0,0,0,-1,1581,778,0,0
364,246,0,0,0,0,0,0,0,0,0,-1,1588,778,0,0
371,246,0,0,0,0,0,0,0,0,0,-1,1595,778,0,0
378,246,0,0,0,0,0,0,0,0,0,-1,1602,778,0,0
385,246,0,0,0,0,0,0,0,0,0,-1,1609,778,0,0
392,246,0,0,0,0,0,0,0,0,0,-1,1616,778,0,0
399,246,0,0,0,0,0,0,0,0,0,-1,1623,778,0,0
406,246,0,0,0,0,0,0,0,0,0,-1,1630,778,0,0
413,246,0,0,0,0,0,0,0,0,0,-1,1637,778,0,0
420,246,0,0,0,0,0,0,0,0,0,-1,1644,778,0,0
427,246,0,0,0,0,0,0,0,0,0,-1,1651,778,0,0
434,246,0,0,0,0,0,0,0,0,0,-1,1658,778,0,0
441,246,0,0,0,0,0,0,0,0,0,-1,1665,778,0,0
448,246,0,0,0,0,0,0,0,0,0,-1,1672,778,0,0
455,246,0,0,0,0,0,0,0,0,0,-1,1679,778,0,0
462,246,0,0,0,0,0,0,0,0,0,-1,1686,778,0,0
469,246,0,0,0,0,0,0,0,0,0,-1,1693,778,0,0
476,246,0,0,0,0,0,0,0,0,0,-1,1700,778,0,0
483,246,0,0,0,0,0,0,0,0,0,-1,1707,778,0,0
490,246,0,0,0,0,0,0,0,0,0,-1,1714,778,0,0
497,246,0,0,0,0,0,0,0,0,0,-1,1721,778,0,0
504,246,0,0,0,0,0,0,0,0,0,-1,1728,778,0,0
511,246,0,0,0,0,0,0,0,0,0,-1,1735,778,0,0
518,246,0,0,0,0,0,0,0,0,0,-1,1742,778,0,0
525,246,0,0,0,0,0,0,0,0,0,-1,1749,778,0,0
532,246,0,0,0,0,0,0,0,0,0,-1,1756,778,0,0
539,246,0,0,0,0,0,0,0,0,0,-1,1763,778,0,0
546,246,0,0,0,0,0,0,0,0,0,-1,1770,778,0,0
553,246,0,0,0,0,0,0,0,0,0,-1,1777,778,0,0
560,246,0,0,0,0,0,0,0,0,0,-1,1784,778,0,0
567,246,0,0,0,0,0,0,0,0,0,-1,1791,778,0,0
574,246,0,0,0,0,0,0,0,0,0,-1,1798,778,0,0
581,246,45.1353,2.87885,-0.00181806,0.00564519,0.00249583,0.00640291,-0.00257577,1.27605,0.00533851,0.0376328,1805,778,45.1352,-2.87885
588,246,45.1467,2.80591,0.00411647,0.0109196,0.000413465,0.0109447,0.00409144,1.51032,0.00638562,0.0421108,1812,778,45.1467,-2.80588
595,246,45.4216,2.72577,0.0072026,0.0122311,-0.00124206,0.0125211,0.00691254,-1.34137,0.00724214,0.0405199,1819,778,45.4216,-2.72578
602,246,45.7831,2.56653,0.00844402,0.0116462,-0.00243125,0.0129562,0.00713402,-1.07658,0.00749304,0.0453837,1826,778,45.783,-2.56652
609,246,46.0128,2.39777,0.00859746,0.0104186,-0.00307849,0.0127183,0.00629768,-0.929188,0.00734305,0.0494721,1833,778,46.0128,-2.39778
616,246,46.3665,2.19281,0,0,0,0,0,0,0,-1,1840,778,46.3664,-2.1928
623,246,44.1857,4.13025,0,0,0,0,0,0,0,-1,1847,778,44.1856,-4.13026
630,246,42.2563,4.94934,0,0,0,0,0,0,0,-1,1854,778,42.2564,-4.94931
637,246,29.5785,0.837585,0,0,0,0,0,0,0,-1,1861,778,29.5785,-0.837606
644,246,28.1232,-1.43188,0,0,0,0,0,0,0,-1,1868,778,28.1232,1.43188
651,246,31.2749,-1.41071,0,0,0,0,0,0,0,-1,1875,778,31.2749,1.41068
658,246,31.2358,-0.962708,0.00133741,0.00140057,-0.0023863,0.0037555,-0.00101752,-0.792014,0.0029029,0.0304238,1882,778,31.2359,0.962699
665,246,31.2404,-0.382751,0.000486524,0.000965007,-0.00197015,0.00271039,-0.00125886,-0.845819,0.00234217,0.0221272,1889,778,31.2403,0.382777
672,246,31.241,0.171021,0.000429461,2.4961e-05,-0.00136812,0.0016102,-0.00115577,-0.712014,0.0016041,0.019166,1896,778,31.241,-0.17104
679,246,31.2566,0.713013,0.000333723,-0.000197745,-0.000724616,0.000839794,-0.000703816,-0.60965,0.000892356,0.0197407,1903,778,31.2566,-0.713038
686,246,31.2546,1.2738,0.00044757,0.000196983,-6.30888e-05,0.000462557,0.000181996,-0.233234,0.000269071,0.0232892,1910,778,31.2547,-1.27378
693,246,31.2316,1.79742,0.00127105,0.0016541,0.000374857,0.00188352,0.00104162,1.02158,0.00108949,0.0179927,1917,778,31.2316,-1.79744
700,246,31.2222,2.29596,0.00250285,0.00288572,0.000904075,0.00361841,0.00177017,0.88973,0.00208925,0.0143305,1924,778,31.2222,-2.29598
707,246,31.2012,2.83929,0.00407162,0.00434457,0.00153292,0.00574708,0.00266911,0.829797,0.00332088,0.0139227,1931,778,31.2012,-2.8393
714,246,31.1685,3.39502,0.00619229,0.00604557,0.00239213,0.00851218,0.00372568,0.77007,0.00492721,0.013565,1938,778,31.1684,-3.39502
721,246,31.1245,3.90112,0.00887856,0.00786014,0.00341024,0.0118174,0.0049213,0.711287,0.00685446,0.0193221,1945,778,31.1245,-3.90111
728,246,31.4652,4.42725,0.0122632,0.00990391,0.00459515,0.0158277,0.0063394,0.659754,0.00919821,0.0444923,1952,778,31.4652,-4.42725
735,246,32.1128,5.02344,0,0,0,0,0,0,0,-1,1959,778,32.1128,-5.02343
742,246,31.7356,6.70013,0,0,0,0,0,0,0,-1,1966,778,31.7356,-6.70011
749,246,32.3883,7.69324,0,0,0,0,0,0,0,-1,1973,778,32.3883,-7.69322
756,246,33.6919,3.45264,0,0,0,0,0,0,0,-1,1980,778,33.6919,-3.45262
763,246,0,0,0,0,0,0,0,0,0,-1,1987,778,0,0
770,246,0,0,0,0,0,0,0,0,0,-1,1994,778,0,0
777,246,0,0,0,0,0,0,0,0,0,-1,2001,778,0,0
784,246,0,0,0,0,0,0,0,0,0,-1,2008,778,0,0
791,246,0,0,0,0,0,0,0,0,0,-1,2015,778,0,0
798,246,0,0,0,0,0,0,0,0,0,-1,2022,778,0,0
805,246,0,0,0,0,0,0,0,0,0,-1,2029,778,0,0
812,246,0,0,0,0,0,0,0,0,0,-1,2036,778,0,0
-700,239,0,0,0,0,0,0,0,0,0,-1,524,785,0,0
-693,239,0,0,0,0,0,0,0,0,0,-1,531,785,0,0
-686,239,0,0,0,0,0,0,0,0,0,-1,538,785,0,0
-679,239,0,0,0,0,0,0,0,0,0,-1,545,785,0,0
-672,239,0,0,0,0,0,0,0,0,0,-1,552,785,0,0
-665,239,0,0,0,0,0,0,0,0,0,-1,559,785,0,0
-658,239,0,0,0,0,0,0,0,0,0,-1,566,785,0,0
-651,239,0,0,0,0,0,0,0,0,0,-1,573,785,0,0
-644,239,0,0,0,0,0,0,0,0,0,-1,580,785,0,0
-637,239,-23.2709,0.465088,0,0,0,0,0,0,0,-1,587,785,-23.271,-0.465116
-630,239,-23.4006,0.956299,0,0,0,0,0,0,0,-1,594,785,-23.4005,-0.956285
-623,239,-30.6328,2.52185,0,0,0,0,0,0,0,-1,601,785,-30.6328,-2.52183
-616,239,-29.1425,1.42139,0,0,0,0,0,0,0,-1,608,785,-29.1425,-1.42139
-609,239,-27.8569,0.322937,0,0,0,0,0,0,0,-1,615,785,-27.857,-0.322963
-602,239,-21.5236,2.88177,0,0,0,0,0,0,0,-1,622,785,-21.5236,-2.88175
-595,239,-21.5286,2.11951,0.00810259,0.0104648,-0.00929089,0.0186494,-8.19769e-05,-0.848621,0.0124603,0.0411469,629,785,-21.5286,-2.11948
-588,239,-21.5357,1.383,0.00576845,0.00762087,-0.00649623,0.0132566,0.000132733,-0.856209,0.00879382,0.0194321,636,785,-21.5357,-1.383
-581,239,-21.6304,0.773804,0.0040339,0.00530924,-0.00439272,0.00911033,0.000232812,-0.857477,0.00599746,0.0112048,643,785,-21.6304,-0.773804
-574,239,-21.6312,0.214539,0.00249837,0.00342825,-0.00261092,0.0056153,0.000311313,-0.873512,0.0036442,0.0119873,650,785,-21.6311,-0.214537
-567,239,-21.6523,-0.306824,0.00122662,0.00174795,-0.00113704,0.00265382,0.000320745,-0.898075,0.00167258,0.0162929,657,785,-21.6523,0.306802
-560,239,-21.6831,-0.783081,0.000263609,0.000285686,4.45795e-05,0.000320573,0.000228721,0.906762,0.000190623,0.0171153,664,785,-21.6831,0.783099
-553,239,-21.6993,-1.25598,-0.000382559,-0.0009653,0.0010146,0.000381684,-0.00172954,0.645573,0.00129908,0.0144008,671,785,-21.6992,1.25598
-546,239,-21.7328,-1.745,-0.000818325,-0.00203123,0.0018363,0.000509071,-0.00335863,0.625907,0.00242664,0.0149464,678,785,-21.7328,1.74497
-539,239,-21.7718,-2.25861,-0.000988883,-0.00256445,0.00208764,0.000454667,-0.004008,0.604981,0.00283573,0.0169108,685,785,-21.7718,2.25862
-532,239,-21.7607,-2.77759,-0.000598641,-0.00222638,0.00298231,0.00167886,-0.00450388,0.652192,0.00369172,0.0178221,692,785,-21.7607,2.77762
-525,239,-21.8075,-3.17999,-0.000464869,-0.00197929,0.00337953,0.00224125,-0.0046854,0.67519,0.00408125,0.0271731,699,785,-21.8075,3.18
-518,239,-22.0151,-3.52393,0,0,0,0,0,0,0,-1,706,785,-22.0151,3.52395
-511,239,-20.9849,-2.09235,0,0,0,0,0,0,0,-1,713,785,-20.9848,2.09234
-504,239,-25.5015,2.00421,0,0,0,0,0,0,0,-1,720,785,-25.5015,-2.00422
-497,239,-33.5215,0.799011,0,0,0,0,0,0,0,-1,727,785,-33.5215,-0.799028
-490,239,-34.1075,0.872437,0,0,0,0,0,0,0,-1,734,785,-34.1075,-0.872409
-483,239,-34.562,0.719604,-0.00604688,-0.00493657,0.00562823,0.000163822,-0.0111473,0.834558,0.00748672,0.0445454,741,785,-34.562,-0.719596
-476,239,-33.8021,1.07123,-0.00869631,-0.0065913,0.00566586,-0.00188102,-0.0134066,0.877233,0.00838138,0.0428032,748,785,-33.8021,-1.0712
-469,239,-33.8092,1.00183,-0.0122969,-0.00866333,0.00492395,-0.0052317,-0.0157286,0.962136,0.00924893,0.0449518,755,785,-33.8092,-1.00185
-462,239,-33.9185,0.93396,-0.0171635,-0.0106529,0.00258885,-0.00974897,-0.0180674,1.23487,0.0104421,0.0456517,762,785,-33.9185,-0.933977
-455,239,0,0,0,0,0,0,0,0,0,-1,769,785,0,0
-448,239,0,0,0,0,0,0,0,0,0,-1,776,785,0,0
-441,239,0,0,0,0,0,0,0,0,0,-1,783,785,0,0
-434,239,0,0,0,0,0,0,0,0,0,-1,790,785,0,0
-427,239,0,0,0,0,0,0,0,0,0,-1,797,785,0,0
-420,239,0,0,0,0,0,0,0,0,0,-1,804,785,0,0
-413,239,0,0,0,0,0,0,0,0,0,-1,811,785,0,0
-406,239,0,0,0,0,0,0,0,0,0,-1,818,785,0,0
-399,239,0,0,0,0,0,0,0,0,0,-1,825,785,0,0
-392,239,0,0,0,0,0,0,0,0,0,-1,832,785,0,0
-385,239,0,0,0,0,0,0,0,0,0,-1,839,785,0,0
-378,239,0,0,0,0,0,0,0,0,0,-1,846,785,0,0
-371,239,0,0,0,0,0,0,0,0,0,-1,853,785,0,0
-364,239,0,0,0,0,0,0,0,0,0,-1,860,785,0,0
-357,239,0,0,0,0,0,0,0,0,0,-1,867,785,0,0
-350,239,0,0,0,0,0,0,0,0,0,-1,874,785,0,0
-343,239,0,0,0,0,0,0,0,0,0,-1,881,785,0,0
-336,239,0,0,0,0,0,0,0,0,0,-1,888,785,0,0
-329,239,0,0,0,0,0,0,0,0,0,-1,895,785,0,0
-322,239,0,0,0,0,0,0,0,0,0,-1,902,785,0,0
-315,239,0,0,0,0,0,0,0,0,0,-1,909,785,0,0
-308,239,0,0,0,0,0,0,0,0,0,-1,916,785,0,0
-301,239,0,0,0,0,0,0,0,0,0,-1,923,785,0,0
-294,239,0,0,0,0,0,0,0,0,0,-1,930,785,0,0
-287,239,0,0,0,0,0,0,0,0,0,-1,937,785,0,0
-280,239,0,0,0,0,0,0,0,0,0,-1,944,785,0,0
-273,239,0,0,0,0,0,0,0,0,0,-1,951,785,0,0
-266,239,0,0,0,0,0,0,0,0,0,-1,958,785,0,0
-259,239,0,0,0,0,0,0,0,0,0,-1,965,785,0,0
-252,239,0,0,0,0,0,0,0,0,0,-1,972,785,0,0
-245,239,0,0,0,0,0,0,0,0,0,-1,979,785,0,0
-238,239,0,0,0,0,0,0,0,0,0,-1,986,785,0,0
-231,239,0,0,0,0,0,0,0,0,0,-1,993,785,0,0
-224,239,0,0,0,0,0,0,0,0,0,-1,1000,785,0,0
-217,239,0,0,0,0,0,0,0,0,0,-1,1007,785,0,0
-210,239,0,0,0,0,0,0,0,0,0,-1,1014,785,0,0
-203,239,0,0,0,0,0,0,0,0,0,-1,1021,785,0,0
-196,239,0,0,0,0,0,0,0,0,0,-1,1028,785,0,0
-189,239,0,0,0,0,0,0,0,0,0,-1,1035,785,0,0
-182,239,0,0,0,0,0,0,0,0,0,-1,1042,785,0,0
-175,239,0,0,0,0,0,0,0,0,0,-1,1049,785,0,0
-168,239,0,0,0,0,0,0,0,0,0,-1,1056,785,0,0
-161,239,0,0,0,0,0,0,0,0,0,-1,1063,785,0,0
-154,239,0,0,0,0,0,0,0,0,0,-1,1070,785,0,0
-147,239,0,0,0,0,0,0,0,0,0,-1,1077,785,0,0
-140,239,0,0,0,0,0,0,0,0,0,-1,1084,785,0,0
-133,239,0,0,0,0,0,0,0,0,0,-1,1091,785,0,0
-126,239,0,0,0,0,0,0,0,0,0,-1,1098,785,0,0
-119,239,0,0,0,0,0,0,0,0,0,-1,1105,785,0,0
-112,239,0,0,0,0,0,0,0,0,0,-1,1112,785,0,0
-105,239,0,0,0,0,0,0,0,0,0,-1,1119,785,0,0
-98,239,0,0,0,0,0,0,0,0,0,-1,1126,785,0,0
-91,239,0,0,0,0,0,0,0,0,0,-1,1133,785,0,0
-84,239,0,0,0,0,0,0,0,0,0,-1,1140,785,0,0
-77,239,0,0,0,0,0,0,0,0,0,-1,1147,785,0,0
-70,239,0,0,0,0,0,0,0,0,0,-1,1154,785,0,0
-63,239,0,0,0,0,0,0,0,0,0,-1,1161,785,0,0
-56,239,0,0,0,0,0,0,0,0,0,-1,1168,785,0,0
-49,239,0,0,0,0,0,0,0,0,0,-1,1175,785,0,0
-42,239,0,0,0,0,0,0,0,0,0,-1,1182,785,0,0
-35,239,0,0,0,0,0,0,0,0,0,-1,1189,785,0,0
-28,239,0,0,0,0,0,0,0,0,0,-1,1196,785,0,0
-21,239,0,0,0,0,0,0,0,0,0,-1,1203,785,0,0
-14,239,0,0,0,0,0,0,0,0,0,-1,1210,785,0,0
-7,239,0,0,0,0,0,0,0,0,0,-1,1217,785,0,0
0,239,0,0,0,0,0,0,0,0,0,-1,1224,785,0,0
7,239,0,0,0,0,0,0,0,0,0,-1,1231,785,0,0
14,239,0,0,0,0,0,0,0,0,0,-1,1238,785,0,0
21,239,0,0,0,0,0,0,0,0,0,-1,1245,785,0,0
28,239,0,0,0,0,0,0,0,0,0,-1,1252,785,0,0
35,239,0,0,0,0,0,0,0,0,0,-1,1259,785,0,0
42,239,0,0,0,0,0,0,0,0,0,-1,1266,785,0,0
49,239,0,0,0,0,0,0,0,0,0,-1,1273,785,0,0
56,239,0,0,0,0,0,0,0,0,0,-1,1280,785,0,0
63,239,0,0,0,0,0,0,0,0,0,-1,1287,785,0,0
70,239,0,0,0,0,0,0,0,0,0,-1,1294,785,0,0
77,239,0,0,0,0,0,0,0,0,0,-1,1301,785,0,0
84,239,0,0,0,0,0,0,0,0,0,-1,1308,785,0,0
91,239,0,0,0,0,0,0,0,0,0,-1,1315,785,0,0
98,239,0,0,0,0,0,0,0,0,0,-1,1322,785,0,0
105,239,0,0,0,0,0,0,0,0,0,-1,1329,785,0,0
112,239,0,0,0,0,0,0,0,0,0,-1,1336,785,0,0
119,239,0,0,0,0,0,0,0,0,0,-1,1343,785,0,0
126,239,0,0,0,0,0,0,0,0,0,-1,1350,785,0,0
133,239,0,0,0,0,0,0,0,0,0,-1,1357,785,0,0
140,239,0,0,0,0,0,0,0,0,0,-1,1364,785,0,0
147,239,0,0,0,0,0,0,0,0,0,-1,1371,785,0,0
154,239,0,0,0,0,0,0,0,0,0,-1,1378,785,0,0
161,239,0,0,0,0,0,0,0,0,0,-1,1385,785,0,0
168,239,0,0,0,0,0,0,0,0,0,-1,1392,785,0,0
175,239,0,0,0,0,0,0,0,0,0,-1,1399,785,0,0
182,239,0,0,0,0,0,0,0,0,0,-1,1406,785,0,0
189,239,0,0,0,0,0,0,0,0,0,-1,1413,785,0,0
196,239,0,0,0,0,0,0,0,0,0,-1,1420,785,0,0
203,239,0,0,0,0,0,0,0,0,0,-1,1427,785,0,0
210,239,0,0,0,0,0,0,0,0,0,-1,1434,785,0,0
217,239,0,0,0,0,0,0,0,0,0,-1,1441,785,0,0
224,239,0,0,0,0,0,0,0,0,0,-1,1448,785,0,0
231,239,0,0,0,0,0,0,0,0,0,-1,1455,785,0,0
238,239,0,0,0,0,0,0,0,0,0,-1,1462,785,0,0
245,239,0,0,0,0,0,0,0,0,0,-1,1469,785,0,0
252,239,0,0,0,0,0,0,0,0,0,-1,1476,785,0,0
259,239,0,0,0,0,0,0,0,0,0,-1,1483,785,0,0
266,239,0,0,0,0,0,0,0,0,0,-1,1490,785,0,0
273,239,0,0,0,0,0,0,0,0,0,-1,1497,785,0,0
280,239,0,0,0,0,0,0,0,0,0,-1,1504,785,0,0
287,239,0,0,0,0,0,0,0,0,0,-1,1511,785,0,0
294,239,0,0,0,0,0,0,0,0,0,-1,1518,785,0,0
301,239,0,0,0,0,0,0,0,0,0,-1,1525,785,0,0
308,239,0,0,0,0,0,0,0,0,0,-1,1532,785,0,0
315,239,0,0,0,0,0,0,0,0,0,-1,1539,785,0,0
322,239,0,0,0,0,0,0,0,0,0,-1,1546,785,0,0
329,239,0,0,0,0,0,0,0,0,0,-1,1553,785,0,0
336,239,0,0,0,0,0,0,0,0,0,-1,1560,785,0,0
343,239,0,0,0,0,0,0,0,0,0,-1,1567,785,0,0
350,239,0,0,0,0,0,0,0,0,0,-1,1574,785,0,0
357,239,0,0,0,0,0,0,0,0,0,-1,1581,785,0,0
364,239,0,0,0,0,0,0,0,0,0,-1,1588,785,0,0
371,239,0,0,0,0,0,0,0,0,0,-1,1595,785,0,0
378,239,0,0,0,0,0,0,0,0,0,-1,1602,785,0,0
385,239,0,0,0,0,0,0,0,0,0,-1,1609,785,0,0
392,239,0,0,0,0,0,0,0,0,0,-1,1616,785,0,0
399,239,0,0,0,0,0,0,0,0,0,-1,1623,785,0,0
406,239,0,0,0,0,0,0,0,0,0,-1,1630,785,0,0
413,239,0,0,0,0,0,0,0,0,0,-1,1637,785,0,0
420,239,0,0,0,0,0,0,0,0,0,-1,1644,785,0,0
427,239,0,0,0,0,0,0,0,0,0,-1,1651,785,0,0
434,239,0,0,0,0,0,0,0,0,0,-1,1658,785,0,0
441,239,0,0,0,0,0,0,0,0,0,-1,1665,785,0,0
448,239,0,0,0,0,0,0,0,0,0,-1,1672,785,0,0
455,239,0,0,0,0,0,0,0,0,0,-1,1679,785,0,0
462,239,0,0,0,0,0,0,0,0,0,-1,1686,785,0,0
469,239,0,0,0,0,0,0,0,0,0,-1,1693,785,0,0
476,239,0,0,0,0,0,0,0,0,0,-1,1700,785,0,0
483,239,0,0,0,0,0,0,0,0,0,-1,1707,785,0,0
490,239,0,0,0,0,0,0,0,0,0,-1,1714,785,0,0
497,239,0,0,0,0,0,0,0,0,0,-1,1721,785,0,0
504,239,0,0,0,0,0,0,0,0,0,-1,1728,785,0,0
511,239,0,0,0,0,0,0,0,0,0,-1,1735,785,0,0
518,239,0,0,0,0,0,0,0,0,0,-1,1742,785,0,0
525,239,0,0,0,0,0,0,0,0,0,-1,1749,785,0,0
532,239,0,0,0,0,0,0,0,0,0,-1,1756,785,0,0
539,239,0,0,0,0,0,0,0,0,0,-1,1763,785,0,0
546,239,0,0,0,0,0,0,0,0,0,-1,1770,785,0,0
553,239,0,0,0,0,0,0,0,0,0,-1,1777,785,0,0
560,239,0,0,0,0,0,0,0,0,0,-1,1784,785,0,0
567,239,0,0,0,0,0,0,0,0,0,-1,1791,785,0,0
574,239,0,0,0,0,0,0,0,0,0,-1,1798,785,0,0
581,239,45.1656,2.95569,-0.00037583,-0.00353603,0.00222035,0.00076926,-0.00468112,0.476149,0.00340624,0.0365759,1805,785,45.1657,-2.95568
588,239,45.0634,2.97626,0.00503852,0.00485303,-3.96294e-05,0.00504663,0.00484492,-0.201908,0.00329924,0.0377914,1812,785,45.0634,-2.97626
595,239,45.2313,2.75885,0.00791567,0.00834032,-0.00177406,0.00991471,0.00634128,-0.844957,0.00579814,0.0337954,1819,785,45.2314,-2.75885
602,239,45.2727,2.79205,0.00889839,0.0094625,-0.00304769,0.0122412,0.00611973,-0.83154,0.00706744,0.0374857,1826,785,45.2727,-2.79205
609,239,45.6691,2.55396,0,0,0,0,0,0,0,-1,1833,785,45.6691,-2.55398
616,239,44.3667,4.00977,0,0,0,0,0,0,0,-1,1840,785,44.3666,-4.00978
623,239,44.4498,3.73145,0,0,0,0,0,0,0,-1,1847,785,44.4498,-3.73142
630,239,44.533,3.45306,0,0,0,0,0,0,0,-1,1854,785,44.5329,-3.45307
637,239,39.5542,2.54114,0,0,0,0,0,0,0,-1,1861,785,39.5543,-2.54114
644,239,18.3466,0.735413,0,0,0,0,0,0,0,-1,1868,785,18.3465,-0.735414
651,239,31.4203,-1.70959,0,0,0,0,0,0,0,-1,1875,785,31.4203,1.7096
658,239,31.7003,-0.983337,0.00117133,0.00144067,-0.00265597,0.00396538,-0.00135338,-0.810729,0.00319183,0.0410404,1882,785,31.7003,0.983334
665,239,31.824,-0.342529,0.000338706,0.00101028,-0.00228121,0.00298029,-0.0016313,-0.858472,0.00270021,0.0176317,1889,785,31.824,0.342542
672,239,31.8113,0.186951,0.000235688,-3.09345e-05,-0.00171834,0.00182588,-0.00162113,-0.746685,0.0019913,0.0202512,1896,785,31.8112,-0.186939
679,239,31.8003,0.734497,5.7795e-05,-0.000491767,-0.00106496,0.000882854,-0.00131683,-0.659142,0.0012782,0.0204337,1903,785,31.8003,-0.734495
686,239,31.7738,1.29816,4.16234e-05,-0.000348553,-0.000353364,0.000250175,-0.000557105,-0.533175,0.000477181,0.0214417,1910,785,31.7738,-1.29816
693,239,31.7589,1.81805,0.000808719,0.0011412,4.76674e-05,0.0011479,0.00080202,1.43117,0.000679958,0.0147395,1917,785,31.7589,-1.81807
700,239,31.7554,2.32159,0.00202989,0.00221692,0.000572465,0.00270346,0.00154335,0.866361,0.00156606,0.011284,1924,785,31.7554,-2.32161
707,239,31.7378,2.85266,0.00356708,0.00348223,0.00119336,0.00471877,0.00233054,0.76763,0.00272445,0.0106789,1931,785,31.7378,-2.85267
714,239,31.7164,3.37708,0.00556308,0.00486864,0.0019934,0.00723927,0.00319244,0.699171,0.00418929,0.0102467,1938,785,31.7165,-3.37708
721,239,31.6471,3.91846,0.00806802,0.00626481,0.00295204,0.0102531,0.00407976,0.637188,0.0059606,0.023945,1945,785,31.6471,-3.91844
728,239,31.5363,4.45996,0.0111598,0.00767079,0.00404288,0.0138185,0.00501211,0.581714,0.00807776,0.0478357,1952,785,31.5363,-4.45996
735,239,31.6724,5.09833,0,0,0,0,0,0,0,-1,1959,785,31.6724,-5.09833
742,239,32.4141,7.6665,0,0,0,0,0,0,0,-1,1966,785,32.4141,-7.6665
749,239,32.1489,3.4411,0,0,0,0,0,0,0,-1,1973,785,32.149,-3.44109
756,239,32.9064,3.6687,0,0,0,0,0,0,0,-1,1980,785,32.9063,-3.66873
763,239,0,0,0,0,0,0,0,0,0,-1,1987,785,0,0
770,239,0,0,0,0,0,0,0,0,0,-1,1994,785,0,0
777,239,0,0,0,0,0,0,0,0,0,-1,2001,785,0,0
784,239,0,0,0,0,0,0,0,0,0,-1,2008,785,0,0
791,239,0,0,0,0,0,0,0,0,0,-1,2015,785,0,0
798,239,0,0,0,0,0,0,0,0,0,-1,2022,785,0,0
805,239,0,0,0,0,0,0,0,0,0,-1,2029,785,0,0
812,239,0,0,0,0,0,0,0,0,0,-1,2036,785,0,0
-700,232,0,0,0,0,0,0,0,0,0,-1,524,792,0,0
-693,232,0,0,0,0,0,0,0,0,0,-1,531,792,0,0
-686,232,0,0,0,0,0,0,0,0,0,-1,538,792,0,0
-679,232,0,0,0,0,0,0,0,0,0,-1,545,792,0,0
-672,232,0,0,0,0,0,0,0,0,0,-1,552,792,0,0
-665,232,0,0,0,0,0,0,0,0,0,-1,559,792,0,0
-658,232,0,0,0,0,0,0,0,0,0,-1,566,792,0,0
-651,232,0,0,0,0,0,0,0,0,0,-1,573,792,0,0
-644,232,-22.5826,0.269348,0,0,0,0,0,0,0,-1,580,792,-22.5826,-0.269357
-637,232,-30.1556,5.06824,0,0,0,0,0,0,0,-1,587,792,-30.1556,-5.06823
-630,232,-32.2345,1.80212,0,0,0,0,0,0,0,-1,594,792,-32.2345,-1.80211
-623,232,-31.5665,1.05115,0,0,0,0,0,0,0,-1,601,792,-31.5664,-1.05112
-616,232,-30.6812,0.432861,0,0,0,0,0,0,0,-1,608,792,-30.6812,-0.432881
-609,232,-29.7142,-0.478943,0,0,0,0,0,0,0,-1,615,792,-29.7142,0.478965
-602,232,-22.2416,2.95099,0,0,0,0,0,0,0,-1,622,792,-22.2417,-2.95098
-595,232,-22.1265,2.15247,0.00792404,0.0101219,-0.00931623,0.0184038,-0.000357837,-0.844107,0.0123902,0.0344841,629,792,-22.1265,-2.15249
-588,232,-22.0978,1.34955,0.0055279,0.00741985,-0.00648789,0.0130304,-8.2619e-05,-0.857791,0.00871458,0.013044,636,792,-22.0978,-1.34954
-581,232,-22.128,0.766479,0.00366939,0.00511239,-0.00426624,0.0087177,6.40713e-05,-0.869165,0.00579056,0.00845043,643,792,-22.128,-0.766457
-574,232,-22.137,0.2547,0.0020624,0.00316955,-0.0024038,0.00508269,0.000149257,-0.898572,0.00333982,0.00876501,650,792,-22.1369,-0.254716
-567,232,-22.1696,-0.235962,0.000799443,0.0013593,-0.00085765,0.00198155,0.000177194,-0.943143,0.00126611,0.0107993,657,792,-22.1695,0.235955
-560,232,-22.197,-0.739197,-5.74084e-05,-0.000194202,0.000368378,0.000248869,-0.000500479,0.693609,0.000440691,0.0138742,664,792,-22.197,0.739211
-553,232,-22.2243,-1.25763,-0.000600146,-0.00142472,0.00137167,0.000419856,-0.00244473,0.639406,0.00178629,0.0135203,671,792,-22.2243,1.25763
-546,232,-22.248,-1.75885,-0.000929098,-0.00240534,0.00211428,0.0005722,-0.00390664,0.617456,0.00281462,0.020867,678,792,-22.248,1.75885
-539,232,-22.287,-2.22467,-0.000861514,-0.00283101,0.00215987,0.000527506,-0.00422003,0.571511,0.00300466,0.0296905,685,792,-22.2871,2.22464
-532,232,-22.3428,-2.70032,-0.000370067,-0.00240684,0.00287936,0.0016657,-0.00444261,0.615421,0.00364608,0.029821,692,792,-22.3428,2.70029
-525,232,-22.3105,-2.95099,0,0,0,0,0,0,0,-1,699,792,-22.3105,2.95099
-518,232,-20.8098,-3.08154,0,0,0,0,0,0,0,-1,706,792,-20.8098,3.08155
-511,232,-21.6708,-0.962708,0,0,0,0,0,0,0,-1,713,792,-21.6708,0.962731
-504,232,-31.5711,1.60474,0,0,0,0,0,0,0,-1,720,792,-31.5711,-1.60476
-497,232,-34.021,0.646667,0,0,0,0,0,0,0,-1,727,792,-34.021,-0.646671
-490,232,-33.9757,0.821716,-0.00251468,-0.00217647,0.00408375,0.00174168,-0.00643283,0.806091,0.00497186,0.0449002,734,792,-33.9757,-0.821736
-483,232,-33.9922,0.972961,-0.0040139,-0.00248324,0.00410591,0.000928057,-0.0074252,0.877539,0.00528671,0.0430591,741,792,-33.9922,-0.972954
-476,232,-33.8858,0.94397,-0.00621805,-0.00298065,0.0036206,-0.000633384,-0.00856532,0.99561,0.00551123,0.0363169,748,792,-33.8858,-0.943956
-469,232,-33.9902,0.749573,-0.00931585,-0.00341485,0.00198229,-0.00281079,-0.00991992,1.27501,0.00590377,0.0364728,755,792,-33.9901,-0.749582
-462,232,0,0,0,0,0,0,0,0,0,-1,762,792,0,0
-455,232,0,0,0,0,0,0,0,0,0,-1,769,792,0,0
-448,232,0,0,0,0,0,0,0,0,0,-1,776,792,0,0
-441,232,0,0,0,0,0,0,0,0,0,-1,783,792,0,0
-434,232,0,0,0,0,0,0,0,0,0,-1,790,792,0,0
-427,232,0,0,0,0,0,0,0,0,0,-1,797,792,0,0
-420,232,0,0,0,0,0,0,0,0,0,-1,804,792,0,0
-413,232,0,0,0,0,0,0,0,0,0,-1,811,792,0,0
-406,232,0,0,0,0,0,0,0,0,0,-1,818,792,0,0
-399,232,0,0,0,0,0,0,0,0,0,-1,825,792,0,0
-392,232,0,0,0,0,0,0,0,0,0,-1,832,792,0,0
-385,232,0,0,0,0,0,0,0,0,0,-1,839,792,0,0
-378,232,0,0,0,0,0,0,0,0,0,-1,846,792,0,0
-371,232,0,0,0,0,0,0,0,0,0,-1,853,792,0,0
-364,232,0,0,0,0,0,0,0,0,0,-1,860,792,0,0
-357,232,0,0,0,0,0,0,0,0,0,-1,867,792,0,0
-350,232,0,0,0,0,0,0,0,0,0,-1,874,792,0,0
-343,232,0,0,0,0,0,0,0,0,0,-1,881,792,0,0
-336,232,0,0,0,0,0,0,0,0,0,-1,888,792,0,0
-329,232,0,0,0,0,0,0,0,0,0,-1,895,792,0,0
-322,232,0,0,0,0,0,0,0,0,0,-1,902,792,0,0
-315,232,0,0,0,0,0,0,0,0,0,-1,909,792,0,0
-308,232,0,0,0,0,0,0,0,0,0,-1,916,792,0,0
-301,232,0,0,0,0,0,0,0,0,0,-1,923,792,0,0
-294,232,0,0,0,0,0,0,0,0,0,-1,930,792,0,0
-287,232,0,0,0,0,0,0,0,0,0,-1,937,792,0,0
-280,232,0,0,0,0,0,0,0,0,0,-1,944,792,0,0
-273,232,0,0,0,0,0,0,0,0,0,-1,951,792,0,0
-266,232,0,0,0,0,0,0,0,0,0,-1,958,792,0,0
-259,232,0,0,0,0,0,0,0,0,0,-1,965,792,0,0
-252,232,0,0,0,0,0,0,0,0,0,-1,972,792,0,0
-245,232,0,0,0,0,0,0,0,0,0,-1,979,792,0,0
-238,232,0,0,0,0,0,0,0,0,0,-1,986,792,0,0
-231,232,0,0,0,0,0,0,0,0,0,-1,993,792,0,0
-224,232,0,0,0,0,0,0,0,0,0,-1,1000,792,0,0
-217,232,0,0,0,0,0,0,0,0,0,-1,1007,792,0,0
-210,232,0,0,0,0,0,0,0,0,0,-1,1014,792,0,0
-203,232,0,0,0,0,0,0,0,0,0,-1,1021,792,0,0
-196,232,0,0,0,0,0,0,0,0,0,-1,1028,792,0,0
-189,232,0,0,0,0,0,0,0,0,0,-1,1035,792,0,0
-182,232,0,0,0,0,0,0,0,0,0,-1,1042,792,0,0
-175,232,0,0,0,0,0,0,0,0,0,-1,1049,792,0,0
-168,232,0,0,0,0,0,0,0,0,0,-1,1056,792,0,0
-161,232,0,0,0,0,0,0,0,0,0,-1,1063,792,0,0
-154,232,0,0,0,0,0,0,0,0,0,-1,1070,792,0,0
-147,232,0,0,0,0,0,0,0,0,0,-1,1077,792,0,0
-140,232,0,0,0,0,0,0,0,0,0,-1,1084,792,0,0
-133,232,0,0,0,0,0,0,0,0,0,-1,1091,792,0,0
-126,232,0,0,0,0,0,0,0,0,0,-1,1098,792,0,0
-119,232,0,0,0,0,0,0,0,0,0,-1,1105,792,0,0
-112,232,0,0,0,0,0,0,0,0,0,-1,1112,792,0,0
-105,232,0,0,0,0,0,0,0,0,0,-1,1119,792,0,0
-98,232,0,0,0,0,0,0,0,0,0,-1,1126,792,0,0
-91,232,0,0,0,0,0,0,0,0,0,-1,1133,792,0,0
-84,232,0,0,0,0,0,0,0,0,0,-1,1140,792,0,0
-77,232,0,0,0,0,0,0,0,0,0,-1,1147,792,0,0
-70,232,0,0,0,0,0,0,0,0,0,-1,1154,792,0,0
-63,232,0,0,0,0,0,0,0,0,0,-1,1161,792,0,0
-56,232,0,0,0,0,0,0,0,0,0,-1,1168,792,0,0
-49,232,0,0,0,0,0,0,0,0,0,-1,1175,792,0,0
-42,232,0,0,0,0,0,0,0,0,0,-1,1182,792,0,0
-35,232,0,0,0,0,0,0,0,0,0,-1,1189,792,0,0
-28,232,0,0,0,0,0,0,0,0,0,-1,1196,792,0,0
-21,232,0,0,0,0,0,0,0,0,0,-1,1203,792,0,0
-14,232,0,0,0,0,0,0,0,0,0,-1,1210,792,0,0
-7,232,0,0,0,0,0,0,0,0,0,-1,1217,792,0,0
0,232,0,0,0,0,0,0,0,0,0,-1,1224,792,0,0
7,232,0,0,0,0,0,0,0,0,0,-1,1231,792,0,0
14,232,0,0,0,0,0,0,0,0,0,-1,1238,792,0,0
21,232,0,0,0,0,0,0,0,0,0,-1,1245,792,0,0
28,232,0,0,0,0,0,0,0,0,0,-1,1252,792,0,0
35,232,0,0,0,0,0,0,0,0,0,-1,1259,792,0,0
42,232,0,0,0,0,0,0,0,0,0,-1,1266,792,0,0
49,232,0,0,0,0,0,0,0,0,0,-1,1273,792,0,0
56,232,0,0,0,0,0,0,0,0,0,-1,1280,792,0,0
63,232,0,0,0,0,0,0,0,0,0,-1,1287,792,0,0
70,232,0,0,0,0,0,0,0,0,0,-1,1294,792,0,0
77,232,0,0,0,0,0,0,0,0,0,-1,1301,792,0,0
84,232,0,0,0,0,0,0,0,0,0,-1,1308,792,0,0
91,232,0,0,0,0,0,0,0,0,0,-1,1315,792,0,0
98,232,0,0,0,0,0,0,0,0,0,-1,1322,792,0,0
105,232,0,0,0,0,0,0,0,0,0,-1,1329,792,0,0
112,232,0,0,0,0,0,0,0,0,0,-1,1336,792,0,0
119,232,0,0,0,0,0,0,0,0,0,-1,1343,792,0,0
126,232,0,0,0,0,0,0,0,0,0,-1,1350,792,0,0
133,232,0,0,0,0,0,0,0,0,0,-1,1357,792,0,0
140,232,0,0,0,0,0,0,0,0,0,-1,1364,792,0,0
147,232,0,0,0,0,0,0,0,0,0,-1,1371,792,0,0
154,232,0,0,0,0,0,0,0,0,0,-1,1378,792,0,0
161,232,0,0,0,0,0,0,0,0,0,-1,1385,792,0,0
168,232,0,0,0,0,0,0,0,0,0,-1,1392,792,0,0
175,232,0,0,0,0,0,0,0,0,0,-1,1399,792,0,0
182,232,0,0,0,0,0,0,0,0,0,-1,1406,792,0,0
189,232,0,0,0,0,0,0,0,0,0,-1,1413,792,0,0
196,232,0,0,0,0,0,0,0,0,0,-1,1420,792,0,0
203,232,0,0,0,0,0,0,0,0,0,-1,1427,792,0,0
210,232,0,0,0,0,0,0,0,0,0,-1,1434,792,0,0
217,232,0,0,0,0,0,0,0,0,0,-1,1441,792,0,0
224,232,0,0,0,0,0,0,0,0,0,-1,1448,792,0,0
231,232,0,0,0,0,0,0,0,0,0,-1,1455,792,0,0
238,232,0,0,0,0,0,0,0,0,0,-1,1462,792,0,0
245,232,0,0,0,0,0,0,0,0,0,-1,1469,792,0,0
252,232,0,0,0,0,0,0,0,0,0,-1,1476,792,0,0
259,232,0,0,0,0,0,0,0,0,0,-1,1483,792,0,0
266,232,0,0,0,0,0,0,0,0,0,-1,1490,792,0,0
273,232,0,0,0,0,0,0,0,0,0,-1,1497,792,0,0
280,232,0,0,0,0,0,0,0,0,0,-1,1504,792,0,0
287,232,0,0,0,0,0,0,0,0,0,-1,1511,792,0,0
294,232,0,0,0,0,0,0,0,0,0,-1,1518,792,0,0
301,232,0,0,0,0,0,0,0,0,0,-1,1525,792,0,0
308,232,0,0,0,0,0,0,0,0,0,-1,1532,792,0,0
315,232,0,0,0,0,0,0,0,0,0,-1,1539,792,0,0
322,232,0,0,0,0,0,0,0,0,0,-1,1546,792,0,0
329,232,0,0,0,0,0,0,0,0,0,-1,1553,792,0,0
336,232,0,0,0,0,0,0,0,0,0,-1,1560,792,0,0
343,232,0,0,0,0,0,0,0,0,0,-1,1567,792,0,0
350,232,0,0,0,0,0,0,0,0,0,-1,1574,792,0,0
357,232,0,0,0,0,0,0,0,0,0,-1,1581,792,0,0
364,232,0,0,0,0,0,0,0,0,0,-1,1588,792,0,0
371,232,0,0,0,0,0,0,0,0,0,-1,1595,792,0,0
378,232,0,0,0,0,0,0,0,0,0,-1,1602,792,0,0
385,232,0,0,0,0,0,0,0,0,0,-1,1609,792,0,0
392,232,0,0,0,0,0,0,0,0,0,-1,1616,792,0,0
399,232,0,0,0,0,0,0,0,0,0,-1,1623,792,0,0
406,232,0,0,0,0,0,0,0,0,0,-1,1630,792,0,0
413,232,0,0,0,0,0,0,0,0,0,-1,1637,792,0,0
420,232,0,0,0,0,0,0,0,0,0,-1,1644,792,0,0
427,232,0,0,0,0,0,0,0,0,0,-1,1651,792,0,0
434,232,0,0,0,0,0,0,0,0,0,-1,1658,792,0,0
441,232,0,0,0,0,0,0,0,0,0,-1,1665,792,0,0
448,232,0,0,0,0,0,0,0,0,0,-1,1672,792,0,0
455,232,0,0,0,0,0,0,0,0,0,-1,1679,792,0,0
462,232,0,0,0,0,0,0,0,0,0,-1,1686,792,0,0
469,232,0,0,0,0,0,0,0,0,0,-1,1693,792,0,0
476,232,0,0,0,0,0,0,0,0,0,-1,1700,792,0,0
483,232,0,0,0,0,0,0,0,0,0,-1,1707,792,0,0
490,232,0,0,0,0,0,0,0,0,0,-1,1714,792,0,0
497,232,0,0,0,0,0,0,0,0,0,-1,1721,792,0,0
504,232,0,0,0,0,0,0,0,0,0,-1,1728,792,0,0
511,232,0,0,0,0,0,0,0,0,0,-1,1735,792,0,0
518,232,0,0,0,0,0,0,0,0,0,-1,1742,792,0,0
525,232,0,0,0,0,0,0,0,0,0,-1,1749,792,0,0
532,232,0,0,0,0,0,0,0,0,0,-1,1756,792,0,0
539,232,0,0,0,0,0,0,0,0,0,-1,1763,792,0,0
546,232,0,0,0,0,0,0,0,0,0,-1,1770,792,0,0
553,232,0,0,0,0,0,0,0,0,0,-1,1777,792,0,0
560,232,0,0,0,0,0,0,0,0,0,-1,1784,792,0,0
567,232,0,0,0,0,0,0,0,0,0,-1,1791,792,0,0
574,232,0,0,0,0,0,0,0,0,0,-1,1798,792,0,0
581,232,0,0,0,0,0,0,0,0,0,-1,1805,792,0,0
588,232,45.121,3.03821,0.00390712,0.000355396,-0.000292915,0.00393111,0.000331401,-0.0817352,0.00251756,0.0368693,1812,792,45.1209,-3.03823
595,232,45.2067,2.84723,0.00671987,0.00501602,-0.00195273,0.00799843,0.00373747,-0.579708,0.00462119,0.0362947,1819,792,45.2066,-2.84723
602,232,45.1865,2.72455,0.00788181,0.00738588,-0.00328366,0.0109269,0.00434083,-0.747713,0.00635286,0.0345271,1826,792,45.1866,-2.72456
609,232,45.1191,2.91852,0,0,0,0,0,0,0,-1,1833,792,45.1191,-2.91854
616,232,44.7849,3.21832,0.00719746,0.00737027,-0.00427138,0.0115561,0.00301161,-0.795511,0.00692214,0.0460494,1840,792,44.7849,-3.21831
623,232,44.6469,3.40002,0.00601073,0.00620785,-0.00430587,0.0104163,0.00180229,-0.796841,0.00642821,0.0449747,1847,792,44.6469,-3.40003
630,232,44.7102,3.47491,0.00494828,0.00511673,-0.00413091,0.00916427,0.00090074,-0.795592,0.0058325,0.0494402,1854,792,44.7102,-3.47491
637,232,44.7451,3.55951,0,0,0,0,0,0,0,-1,1861,792,44.7451,-3.5595
644,232,30.7756,4.24139,0,0,0,0,0,0,0,-1,1868,792,30.7757,-4.24141
651,232,31.6797,-0.564087,0,0,0,0,0,0,0,-1,1875,792,31.6797,0.564059
658,232,32.4769,-0.829346,0,0,0,0,0,0,0,-1,1882,792,32.4769,0.829369
665,232,32.3899,-0.302124,4.59423e-05,0.000985238,-0.00256794,0.00312612,-0.00209494,-0.875843,0.00303392,0.0194686,1889,792,32.3898,0.302138
672,232,32.3286,0.245728,-5.99802e-05,-9.96623e-05,-0.00208281,0.00200308,-0.00216272,-0.780635,0.00240572,0.0213029,1896,792,32.3286,-0.245742
679,232,32.3181,0.775696,-0.00029024,-0.000790195,-0.00146642,0.000947357,-0.00202779,-0.700976,0.00175505,0.0192577,1903,792,32.3181,-0.7757
686,232,32.304,1.3158,-0.000422066,-0.00090858,-0.000729514,0.000103679,-0.00143433,-0.62447,0.000992583,0.0180603,1910,792,32.304,-1.31581
693,232,32.2902,1.81122,0.000277919,0.000578639,-0.000372533,0.000830012,2.65462e-05,-0.977208,0.000544708,0.0103237,1917,792,32.2901,-1.81122
700,232,32.28,2.33173,0.00148689,0.00148575,0.000147436,0.00163376,0.00133889,0.783469,0.0010054,0.0123001,1924,792,32.2801,-2.3317
707,232,32.2656,2.87207,0.00302657,0.00254754,0.000768654,0.00359216,0.00198195,0.634366,0.00207763,0.0127282,1931,792,32.2657,-2.87208
714,232,32.248,3.38251,0.00496488,0.00366068,0.00153555,0.00598106,0.0026445,0.584603,0.00346086,0.0136605,1938,792,32.2481,-3.38249
721,232,32.2174,3.91156,0.00736622,0.00472113,0.00246693,0.00884276,0.00324459,0.53934,0.00516529,0.023194,1945,792,32.2174,-3.91158
728,232,32.1389,4.41602,0.0102713,0.00564564,0.00351597,0.0121669,0.00374999,0.494476,0.00719478,0.0479402,1952,792,32.1389,-4.41601
735,232,32.2749,5.13776,0,0,0,0,0,0,0,-1,1959,792,32.2749,-5.13776
742,232,25.6461,6.00684,0,0,0,0,0,0,0,-1,1966,792,25.6461,-6.00684
749,232,31.2874,3.74713,0,0,0,0,0,0,0,-1,1973,792,31.2874,-3.74713
756,232,32.1207,3.896,0,0,0,0,0,0,0,-1,1980,792,32.1207,-3.89597
763,232,32.7255,4.05878,0,0,0,0,0,0,0,-1,1987,792,32.7255,-4.05881
770,232,0,0,0,0,0,0,0,0,0,-1,1994,792,0,0
777,232,0,0,0,0,0,0,0,0,0,-1,2001,792,0,0
784,232,0,0,0,0,0,0,0,0,0,-1,2008,792,0,0
791,232,0,0,0,0,0,0,0,0,0,-1,2015,792,0,0
798,232,0,0,0,0,0,0,0,0,0,-1,2022,792,0,0
805,232,0,0,0,0,0,0,0,0,0,-1,2029,792,0,0
812,232,0,0,0,0,0,0,0,0,0,-1,2036,792,0,0
-700,225,0,0,0,0,0,0,0,0,0,-1,524,799,0,0
-693,225,0,0,0,0,0,0,0,0,0,-1,531,799,0,0
-686,225,0,0,0,0,0,0,0,0,0,-1,538,799,0,0
-679,225,0,0,0,0,0,0,0,0,0,-1,545,799,0,0
-672,225,0,0,0,0,0,0,0,0,0,-1,552,799,0,0
-665,225,0,0,0,0,0,0,0,0,0,-1,559,799,0,0
-658,225,0,0,0,0,0,0,0,0,0,-1,566,799,0,0
-651,225,0,0,0,0,0,0,0,0,0,-1,573,799,0,0
-644,225,-29.6308,5.53137,0,0,0,0,0,0,0,-1,580,799,-29.6308,-5.53137
-637,225,-29.8104,5.12939,0,0,0,0,0,0,0,-1,587,799,-29.8104,-5.12942
-630,225,-29.8912,5.02606,0,0,0,0,0,0,0,-1,594,799,-29.8912,-5.02606
-623,225,-32.8276,-0.00836182,0,0,0,0,0,0,0,-1,601,799,-32.8276,0.00837668
-616,225,-32.0569,-0.549255,0,0,0,0,0,0,0,-1,608,799,-32.0569,0.549265
-609,225,-23.0131,4.31055,0,0,0,0,0,0,0,-1,615,799,-23.0131,-4.31056
-602,225,-22.897,3.14191,0.0103813,0.0141898,-0.0126277,0.025056,-0.000484901,-0.860235,0.0168679,0.0482977,622,799,-22.897,-3.14193
-595,225,-22.6733,1.9632,0.00725021,0.0104224,-0.00900625,0.0179812,-0.000308537,-0.87256,0.0120916,0.0299553,629,799,-22.6733,-1.96317
-588,225,-22.636,1.26538,0.00482729,0.00707712,-0.00610685,0.0121618,-0.000257392,-0.87648,0.00819501,0.0124316,636,799,-22.636,-1.26539
-581,225,-22.6415,0.775452,0.00296229,0.00464506,-0.0038423,0.00773702,-0.000129666,-0.893186,0.00520178,0.0108797,643,799,-22.6415,-0.775473
-574,225,-22.6454,0.266846,0.0014011,0.00267479,-0.00198342,0.0041211,-4.52085e-05,-0.940741,0.00276259,0.0094155,650,799,-22.6454,-0.266816
-567,225,-22.6675,-0.237915,0.000180644,0.000835715,-0.00047138,0.00108218,-6.58229e-05,-1.08903,0.000744366,0.012028,657,799,-22.6675,0.237925
-560,225,-22.6996,-0.70575,-0.000501853,-0.000685976,0.000706242,0.000118303,-0.00130613,0.720587,0.000912748,0.0124911,664,799,-22.6996,0.705731
-553,225,-22.712,-1.24323,-0.000916037,-0.00178101,0.00164219,0.000349658,-0.00304671,0.656641,0.00215716,0.011528,671,799,-22.7121,1.24321
-546,225,-22.7536,-1.73682,-0.00114929,-0.00257106,0.00223217,0.00048246,-0.0042028,0.63124,0.00297575,0.0200161,678,799,-22.7536,1.73682
-539,225,-22.7535,-2.20715,-0.000919037,-0.00293799,0.00210511,0.000406125,-0.00426315,0.561827,0.00298669,0.0392841,685,799,-22.7535,2.20716
-532,225,-22.8708,-2.62885,-0.000408179,-0.00251257,0.00265868,0.00139895,-0.00431969,0.596976,0.00344221,0.0395731,692,799,-22.8708,2.62885
-525,225,-23.1928,-2.83136,0,0,0,0,0,0,0,-1,699,799,-23.1928,2.83137
-518,225,-21.963,0.171326,0,0,0,0,0,0,0,-1,706,799,-21.9629,-0.171319
-511,225,-31.7129,1.82031,0,0,0,0,0,0,0,-1,713,799,-31.7129,-1.82029
-504,225,-33.7421,1.01843,0,0,0,0,0,0,0,-1,720,799,-33.742,-1.01843
-497,225,-33.7557,1.00018,0,0,0,0,0,0,0,-1,727,799,-33.7557,-1.00021
-490,225,-33.952,0.851624,-0.00128916,-0.00110239,0.00294553,0.00175124,-0.00414279,0.801245,0.00349505,0.0401741,734,799,-33.952,-0.851636
-483,225,-33.9111,0.91803,-0.00238621,-0.000748677,0.00250995,0.00107268,-0.00420756,0.94306,0.00322267,0.0339324,741,799,-33.9111,-0.91802
-476,225,-33.9124,0.881348,-0.00411316,-0.000207309,0.00124829,0.000157553,-0.00447802,1.28643,0.00303923,0.0327093,748,799,-33.9124,-0.881343
-469,225,-33.9584,0.829102,-0.0067393,0.000875292,-0.00173112,0.00125037,-0.00711438,-1.35743,0.00520997,0.0378575,755,799,-33.9583,-0.829093
-462,225,0,0,0,0,0,0,0,0,0,-1,762,799,0,0
-455,225,0,0,0,0,0,0,0,0,0,-1,769,799,0,0
-448,225,0,0,0,0,0,0,0,0,0,-1,776,799,0,0
-441,225,0,0,0,0,0,0,0,0,0,-1,783,799,0,0
-434,225,0,0,0,0,0,0,0,0,0,-1,790,799,0,0
-427,225,0,0,0,0,0,0,0,0,0,-1,797,799,0,0
-420,225,0,0,0,0,0,0,0,0,0,-1,804,799,0,0
-413,225,0,0,0,0,0,0,0,0,0,-1,811,799,0,0
-406,225,0,0,0,0,0,0,0,0,0,-1,818,799,0,0
-399,225,0,0,0,0,0,0,0,0,0,-1,825,799,0,0
-392,225,0,0,0,0,0,0,0,0,0,-1,832,799,0,0
-385,225,0,0,0,0,0,0,0,0,0,-1,839,799,0,0
-378,225,0,0,0,0,0,0,0,0,0,-1,846,799,0,0
-371,225,0,0,0,0,0,0,0,0,0,-1,853,799,0,0
-364,225,0,0,0,0,0,0,0,0,0,-1,860,799,0,0
-357,225,0,0,0,0,0,0,0,0,0,-1,867,799,0,0
-350,225,0,0,0,0,0,0,0,0,0,-1,874,799,0,0
-343,225,0,0,0,0,0,0,0,0,0,-1,881,799,0,0
-336,225,0,0,0,0,0,0,0,0,0,-1,888,799,0,0
-329,225,0,0,0,0,0,0,0,0,0,-1,895,799,0,0
-322,225,0,0,0,0,0,0,0,0,0,-1,902,799,0,0
-315,225,0,0,0,0,0,0,0,0,0,-1,909,799,0,0
-308,225,0,0,0,0,0,0,0,0,0,-1,916,799,0,0
-301,225,0,0,0,0,0,0,0,0,0,-1,923,799,0,0
-294,225,0,0,0,0,0,0,0,0,0,-1,930,799,0,0
-287,225,0,0,0,0,0,0,0,0,0,-1,937,799,0,0
-280,225,0,0,0,0,0,0,0,0,0,-1,944,799,0,0
-273,225,0,0,0,0,0,0,0,0,0,-1,951,799,0,0
-266,225,0,0,0,0,0,0,0,0,0,-1,958,799,0,0
-259,225,0,0,0,0,0,0,0,0,0,-1,965,799,0,0
-252,225,0,0,0,0,0,0,0,0,0,-1,972,799,0,0
-245,225,0,0,0,0,0,0,0,0,0,-1,979,799,0,0
-238,225,0,0,0,0,0,0,0,0,0,-1,986,799,0,0
-231,225,0,0,0,0,0,0,0,0,0,-1,993,799,0,0
-224,225,0,0,0,0,0,0,0,0,0,-1,1000,799,0,0
-217,225,0,0,0,0,0,0,0,0,0,-1,1007,799,0,0
-210,225,0,0,0,0,0,0,0,0,0,-1,1014,799,0,0
-203,225,0,0,0,0,0,0,0,0,0,-1,1021,799,0,0
-196,225,0,0,0,0,0,0,0,0,0,-1,1028,799,0,0
-189,225,0,0,0,0,0,0,0,0,0,-1,1035,799,0,0
-182,225,0,0,0,0,0,0,0,0,0,-1,1042,799,0,0
-175,225,0,0,0,0,0,0,0,0,0,-1,1049,799,0,0
-168,225,0,0,0,0,0,0,0,0,0,-1,1056,799,0,0
-161,225,0,0,0,0,0,0,0,0,0,-1,1063,799,0,0
-154,225,0,0,0,0,0,0,0,0,0,-1,1070,799,0,0
-147,225,0,0,0,0,0,0,0,0,0,-1,1077,799,0,0
-140,225,0,0,0,0,0,0,0,0,0,-1,1084,799,0,0
-133,225,0,0,0,0,0,0,0,0,0,-1,1091,799,0,0
-126,225,0,0,0,0,0,0,0,0,0,-1,1098,799,0,0
-119,225,0,0,0,0,0,0,0,0,0,-1,1105,799,0,0
-112,225,0,0,0,0,0,0,0,0,0,-1,1112,799,0,0
-105,225,0,0,0,0,0,0,0,0,0,-1,1119,799,0,0
-98,225,0,0,0,0,0,0,0,0,0,-1,1126,799,0,0
-91,225,0,0,0,0,0,0,0,0,0,-1,1133,799,0,0
-84,225,0,0,0,0,0,0,0,0,0,-1,1140,799,0,0
-77,225,0,0,0,0,0,0,0,0,0,-1,1147,799,0,0
-70,225,0,0,0,0,0,0,0,0,0,-1,1154,799,0,0
-63,225,0,0,0,0,0,0,0,0,0,-1,1161,799,0,0
-56,225,0,0,0,0,0,0,0,0,0,-1,1168,799,0,0
-49,225,0,0,0,0,0,0,0,0,0,-1,1175,799,0,0
-42,225,0,0,0,0,0,0,0,0,0,-1,1182,799,0,0
-35,225,0,0,0,0,0,0,0,0,0,-1,1189,799,0,0
-28,225,0,0,0,0,0,0,0,0,0,-1,1196,799,0,0
-21,225,0,0,0,0,0,0,0,0,0,-1,1203,799,0,0
-14,225,0,0,0,0,0,0,0,0,0,-1,1210,799,0,0
-7,225,0,0,0,0,0,0,0,0,0,-1,1217,799,0,0
0,225,0,0,0,0,0,0,0,0,0,-1,1224,799,0,0
7,225,0,0,0,0,0,0,0,0,0,-1,1231,799,0,0
14,225,0,0,0,0,0,0,0,0,0,-1,1238,799,0,0
21,225,0,0,0,0,0,0,0,0,0,-1,1245,799,0,0
28,225,0,0,0,0,0,0,0,0,0,-1,1252,799,0,0
35,225,0,0,0,0,0,0,0,0,0,-1,1259,799,0,0
42,225,0,0,0,0,0,0,0,0,0,-1,1266,799,0,0
49,225,0,0,0,0,0,0,0,0,0,-1,1273,799,0,0
56,225,0,0,0,0,0,0,0,0,0,-1,1280,799,0,0
63,225,0,0,0,0,0,0,0,0,0,-1,1287,799,0,0
70,225,0,0,0,0,0,0,0,0,0,-1,1294,799,0,0
77,225,0,0,0,0,0,0,0,0,0,-1,1301,799,0,0
84,225,0,0,0,0,0,0,0,0,0,-1,1308,799,0,0
91,225,0,0,0,0,0,0,0,0,0,-1,1315,799,0,0
98,225,0,0,0,0,0,0,0,0,0,-1,1322,799,0,0
105,225,0,0,0,0,0,0,0,0,0,-1,1329,799,0,0
112,225,0,0,0,0,0,0,0,0,0,-1,1336,799,0,0
119,225,0,0,0,0,0,0,0,0,0,-1,1343,799,0,0
126,225,0,0,0,0,0,0,0,0,0,-1,1350,799,0,0
133,225,0,0,0,0,0,0,0,0,0,-1,1357,799,0,0
140,225,0,0,0,0,0,0,0,0,0,-1,1364,799,0,0
147,225,0,0,0,0,0,0,0,0,0,-1,1371,799,0,0
154,225,0,0,0,0,0,0,0,0,0,-1,1378,799,0,0
161,225,0,0,0,0,0,0,0,0,0,-1,1385,799,0,0
168,225,0,0,0,0,0,0,0,0,0,-1,1392,799,0,0
175,225,0,0,0,0,0,0,0,0,0,-1,1399,799,0,0
182,225,0,0,0,0,0,0,0,0,0,-1,1406,799,0,0
189,225,0,0,0,0,0,0,0,0,0,-1,1413,799,0,0
196,225,0,0,0,0,0,0,0,0,0,-1,1420,799,0,0
203,225,0,0,0,0,0,0,0,0,0,-1,1427,799,0,0
210,225,0,0,0,0,0,0,0,0,0,-1,1434,799,0,0
217,225,0,0,0,0,0,0,0,0,0,-1,1441,799,0,0
224,225,0,0,0,0,0,0,0,0,0,-1,1448,799,0,0
231,225,0,0,0,0,0,0,0,0,0,-1,1455,799,0,0
238,225,0,0,0,0,0,0,0,0,0,-1,1462,799,0,0
245,225,0,0,0,0,0,0,0,0,0,-1,1469,799,0,0
252,225,0,0,0,0,0,0,0,0,0,-1,1476,799,0,0
259,225,0,0,0,0,0,0,0,0,0,-1,1483,799,0,0
266,225,0,0,0,0,0,0,0,0,0,-1,1490,799,0,0
273,225,0,0,0,0,0,0,0,0,0,-1,1497,799,0,0
280,225,0,0,0,0,0,0,0,0,0,-1,1504,799,0,0
287,225,0,0,0,0,0,0,0,0,0,-1,1511,799,0,0
294,225,0,0,0,0,0,0,0,0,0,-1,1518,799,0,0
301,225,0,0,0,0,0,0,0,0,0,-1,1525,799,0,0
308,225,0,0,0,0,0,0,0,0,0,-1,1532,799,0,0
315,225,0,0,0,0,0,0,0,0,0,-1,1539,799,0,0
322,225,0,0,0,0,0,0,0,0,0,-1,1546,799,0,0
329,225,0,0,0,0,0,0,0,0,0,-1,1553,799,0,0
336,225,0,0,0,0,0,0,0,0,0,-1,1560,799,0,0
343,225,0,0,0,0,0,0,0,0,0,-1,1567,799,0,0
350,225,0,0,0,0,0,0,0,0,0,-1,1574,799,0,0
357,225,0,0,0,0,0,0,0,0,0,-1,1581,799,0,0
364,225,0,0,0,0,0,0,0,0,0,-1,1588,799,0,0
371,225,0,0,0,0,0,0,0,0,0,-1,1595,799,0,0
378,225,0,0,0,0,0,0,0,0,0,-1,1602,799,0,0
385,225,0,0,0,0,0,0,0,0,0,-1,1609,799,0,0
392,225,0,0,0,0,0,0,0,0,0,-1,1616,799,0,0
399,225,0,0,0,0,0,0,0,0,0,-1,1623,799,0,0
406,225,0,0,0,0,0,0,0,0,0,-1,1630,799,0,0
413,225,0,0,0,0,0,0,0,0,0,-1,1637,799,0,0
420,225,0,0,0,0,0,0,0,0,0,-1,1644,799,0,0
427,225,0,0,0,0,0,0,0,0,0,-1,1651,799,0,0
434,225,0,0,0,0,0,0,0,0,0,-1,1658,799,0,0
441,225,0,0,0,0,0,0,0,0,0,-1,1665,799,0,0
448,225,0,0,0,0,0,0,0,0,0,-1,1672,799,0,0
455,225,0,0,0,0,0,0,0,0,0,-1,1679,799,0,0
462,225,0,0,0,0,0,0,0,0,0,-1,1686,799,0,0
469,225,0,0,0,0,0,0,0,0,0,-1,1693,799,0,0
476,225,0,0,0,0,0,0,0,0,0,-1,1700,799,0,0
483,225,0,0,0,0,0,0,0,0,0,-1,1707,799,0,0
490,225,0,0,0,0,0,0,0,0,0,-1,1714,799,0,0
497,225,0,0,0,0,0,0,0,0,0,-1,1721,799,0,0
504,225,0,0,0,0,0,0,0,0,0,-1,1728,799,0,0
511,225,0,0,0,0,0,0,0,0,0,-1,1735,799,0,0
518,225,0,0,0,0,0,0,0,0,0,-1,1742,799,0,0
525,225,0,0,0,0,0,0,0,0,0,-1,1749,799,0,0
532,225,0,0,0,0,0,0,0,0,0,-1,1756,799,0,0
539,225,0,0,0,0,0,0,0,0,0,-1,1763,799,0,0
546,225,0,0,0,0,0,0,0,0,0,-1,1770,799,0,0
553,225,0,0,0,0,0,0,0,0,0,-1,1777,799,0,0
560,225,0,0,0,0,0,0,0,0,0,-1,1784,799,0,0
567,225,0,0,0,0,0,0,0,0,0,-1,1791,799,0,0
574,225,0,0,0,0,0,0,0,0,0,-1,1798,799,0,0
581,225,0,0,0,0,0,0,0,0,0,-1,1805,799,0,0
588,225,45.1685,3.01672,0.00230834,-0.0026419,-0.000144971,0.00231258,-0.00264614,-0.0292523,0.00286508,0.0378827,1812,799,45.1685,-3.01671
595,225,45.1868,2.94031,0.00516269,0.00218103,-0.00190723,0.00609262,0.0012511,-0.453666,0.0037156,0.0371167,1819,799,45.1868,-2.94033
602,225,45.2241,2.77466,0.00657589,0.00520647,-0.00339166,0.00935127,0.00243109,-0.685797,0.00560248,0.03409,1826,799,45.2241,-2.77469
609,225,45.2506,2.69336,0.00693688,0.00659008,-0.00430136,0.0110683,0.00245863,-0.765253,0.00671118,0.0322321,1833,799,45.2505,-2.69333
616,225,45.1635,2.78473,0.0063949,0.006486,-0.0046316,0.0110723,0.00180862,-0.790315,0.0068586,0.0391967,1840,799,45.1635,-2.78471
623,225,45.0118,3.01135,0.00528601,0.00557882,-0.00466596,0.0101007,0.000764157,-0.801081,0.00649407,0.0402208,1847,799,45.0119,-3.01135
630,225,45.3536,2.73627,0.00421943,0.00463028,-0.00442753,0.00885715,-7.43894e-06,-0.80858,0.00590725,0.0415316,1854,799,45.3536,-2.73624
637,225,45.7646,2.24304,0,0,0,0,0,0,0,-1,1861,799,45.7647,-2.24301
644,225,42.0298,2.46411,0,0,0,0,0,0,0,-1,1868,799,42.0298,-2.4641
651,225,27.9657,0.579529,0,0,0,0,0,0,0,-1,1875,799,27.9657,-0.579541
658,225,33.3923,-0.452148,0,0,0,0,0,0,0,-1,1882,799,33.3923,0.452132
665,225,33.0697,-0.139832,-0.000267936,0.000830752,-0.00279747,0.0031323,-0.00256949,-0.88235,0.00329727,0.0253091,1889,799,33.0697,0.139806
672,225,32.8838,0.352356,-0.000408132,-0.000218911,-0.00238335,0.0020717,-0.00269874,-0.805236,0.00276214,0.0228082,1896,799,32.8838,-0.352374
679,225,32.8428,0.855286,-0.000722385,-0.00101424,-0.00180717,0.000944736,-0.00268136,-0.745111,0.00217208,0.0193017,1903,799,32.8428,-0.855306
686,225,32.8345,1.32294,-0.00096603,-0.00132752,-0.0010739,-5.77722e-05,-0.00223578,-0.702025,0.00147164,0.0110427,1910,799,32.8345,-1.32291
693,225,32.821,1.81793,-0.000342623,0.000117411,-0.000755864,0.000677482,-0.000902693,-0.933101,0.000915398,0.00996897,1917,799,32.821,-1.81796
700,225,32.7922,2.34564,0.00081915,0.000877491,-0.000236151,0.00108627,0.000610375,-0.846849,0.000628757,0.0114937,1924,799,32.7922,-2.34562
707,225,32.7635,2.87708,0.00234708,0.00175894,0.000394986,0.00254544,0.00156057,0.465407,0.00148209,0.0119384,1931,799,32.7635,-2.8771
714,225,32.7679,3.40894,0.00427442,0.00265357,0.00114665,0.00486813,0.00205986,0.47777,0.00282167,0.0130317,1938,799,32.768,-3.40891
721,225,32.7788,3.91852,0.00662821,0.00345006,0.00206589,0.00764548,0.00243278,0.457561,0.00451033,0.0162005,1945,799,32.7788,-3.9185
728,225,32.6953,4.33289,0.00942039,0.00401458,0.00309675,0.0108279,0.00260707,0.426601,0.00652555,0.0339151,1952,799,32.6953,-4.33288
735,225,33.0554,5.23755,0,0,0,0,0,0,0,-1,1959,799,33.0554,-5.23754
742,225,29.0922,3.2132,0,0,0,0,0,0,0,-1,1966,799,29.0921,-3.21322
749,225,29.9529,4.45538,0,0,0,0,0,0,0,-1,1973,799,29.9529,-4.45537
756,225,31.8855,3.83466,0,0,0,0,0,0,0,-1,1980,799,31.8855,-3.83463
763,225,28.3649,5.54443,0,0,0,0,0,0,0,-1,1987,799,28.3649,-5.54444
770,225,0,0,0,0,0,0,0,0,0,-1,1994,799,0,0
777,225,0,0,0,0,0,0,0,0,0,-1,2001,799,0,0
784,225,0,0,0,0,0,0,0,0,0,-1,2008,799,0,0
791,225,0,0,0,0,0,0,0,0,0,-1,2015,799,0,0
798,225,0,0,0,0,0,0,0,0,0,-1,2022,799,0,0
805,225,0,0,0,0,0,0,0,0,0,-1,2029,799,0,0
812,225,0,0,0,0,0,0,0,0,0,-1,2036,799,0,0
-700,218,0,0,0,0,0,0,0,0,0,-1,524,806,0,0
-693,218,0,0,0,0,0,0,0,0,0,-1,531,806,0,0
-686,218,0,0,0,0,0,0,0,0,0,-1,538,806,0,0
-679,218,0,0,0,0,0,0,0,0,0,-1,545,806,0,0
-672,218,0,0,0,0,0,0,0,0,0,-1,552,806,0,0
-665,218,0,0,0,0,0,0,0,0,0,-1,559,806,0,0
-658,218,0,0,0,0,0,0,0,0,0,-1,566,806,0,0
-651,218,-32.1339,2.1004,0,0,0,0,0,0,0,-1,573,806,-32.1339,-2.10038
-644,218,-32.6035,3.86414,0,0,0,0,0,0,0,-1,580,806,-32.6035,-3.86413
-637,218,-29.4564,5.19836,0,0,0,0,0,0,0,-1,587,806,-29.4564,-5.19835
-630,218,-29.4624,4.92188,0,0,0,0,0,0,0,-1,594,806,-29.4624,-4.92185
-623,218,-29.4469,4.34161,0,0,0,0,0,0,0,-1,601,806,-29.4469,-4.34164
-616,218,-20.0258,1.87585,0,0,0,0,0,0,0,-1,608,806,-20.0258,-1.87585
-609,218,-23.0887,3.02112,0,0,0,0,0,0,0,-1,615,806,-23.0887,-3.02114
-602,218,-23.1425,2.42236,0.00901971,0.0145773,-0.0119136,0.0240319,-0.000434855,-0.899973,0.0161682,0.0426671,622,806,-23.1425,-2.42238
-595,218,-23.1692,1.79578,0.00608126,0.0104855,-0.00835933,0.0169279,-0.000361144,-0.914188,0.0114076,0.0186624,629,806,-23.1692,-1.79577
-588,218,-23.1519,1.26837,0.00382221,0.00674812,-0.00544317,0.0109215,-0.000351176,-0.91668,0.00740084,0.0114082,636,806,-23.1518,-1.26839
-581,218,-23.1648,0.795532,0.00205112,0.00420441,-0.0031269,0.00643482,-0.0001793,-0.9512,0.00435088,0.0111618,643,806,-23.1648,-0.795517
-574,218,-23.1763,0.296509,0.000597652,0.00230566,-0.00126079,0.00297446,-7.11469e-05,-1.08308,0.00200711,0.0108359,650,806,-23.1764,-0.296485
-567,218,-23.1591,-0.218201,-0.000473855,0.000509473,0.000234136,0.000562376,-0.000526758,1.34858,0.000628924,0.0174909,657,806,-23.1591,0.218195
-560,218,-23.1881,-0.694275,-0.00083724,-0.000872253,0.00136943,0.000514799,-0.00222429,0.779007,0.00168095,0.0176223,664,806,-23.1881,0.694265
-553,218,-23.1642,-1.24963,-0.00103043,-0.0017548,0.00220169,0.000838666,-0.0036239,0.703876,0.00273863,0.0182186,671,806,-23.1642,1.24965
-546,218,-23.2872,-1.85553,-0.00110427,-0.00228931,0.00258193,0.000952254,-0.00434583,0.672607,0.00326131,0.0201668,678,806,-23.2872,1.85551
-539,218,-23.3228,-2.35858,-0.000722184,-0.00258857,0.00228464,0.000812497,-0.00412326,0.591507,0.00305589,0.0319402,685,806,-23.3228,2.35861
-532,218,-23.4155,-2.59491,-0.000202238,-0.00217795,0.00264185,0.00163041,-0.0040106,0.606483,0.00335208,0.0412414,692,806,-23.4155,2.59491
-525,218,-23.8333,-2.73962,0,0,0,0,0,0,0,-1,699,806,-23.8333,2.73962
-518,218,-23.61,2.54181,0,0,0,0,0,0,0,-1,706,806,-23.61,-2.54183
-511,218,-34.1819,0.749084,0,0,0,0,0,0,0,-1,713,806,-34.1819,-0.749064
-504,218,-33.8078,0.923279,0.000600544,-0.0007428,0.0023277,0.00235154,-0.0024938,0.644936,0.00279786,0.0474178,720,806,-33.8078,-0.923259
-497,218,-33.6561,1.08246,0.000618877,-4.91394e-05,0.00209955,0.00241082,-0.00184108,0.706516,0.00246217,0.0486754,727,806,-33.6561,-1.08249
-490,218,-33.8109,0.912781,0.000252527,0.000801849,0.00167949,0.00222899,-0.00117462,0.86645,0.00199626,0.0365644,734,806,-33.8109,-0.912791
-483,218,-33.7731,0.935547,-0.000547867,0.00184027,0.000622327,0.00199272,-0.000700308,1.33057,0.0016134,0.0339542,741,806,-33.7731,-0.935546
-476,218,-33.8092,0.958008,-0.00214812,0.00320254,-0.00165006,0.00367047,-0.00261605,-1.29447,0.0036465,0.0374806,748,806,-33.8092,-0.958014
-469,218,0,0,0,0,0,0,0,0,0,-1,755,806,0,0
-462,218,0,0,0,0,0,0,0,0,0,-1,762,806,0,0
-455,218,0,0,0,0,0,0,0,0,0,-1,769,806,0,0
-448,218,0,0,0,0,0,0,0,0,0,-1,776,806,0,0
-441,218,0,0,0,0,0,0,0,0,0,-1,783,806,0,0
-434,218,0,0,0,0,0,0,0,0,0,-1,790,806,0,0
-427,218,0,0,0,0,0,0,0,0,0,-1,797,806,0,0
-420,218,0,0,0,0,0,0,0,0,0,-1,804,806,0,0
-413,218,0,0,0,0,0,0,0,0,0,-1,811,806,0,0
-406,218,0,0,0,0,0,0,0,0,0,-1,818,806,0,0
-399,218,0,0,0,0,0,0,0,0,0,-1,825,806,0,0
-392,218,0,0,0,0,0,0,0,0,0,-1,832,806,0,0
-385,218,0,0,0,0,0,0,0,0,0,-1,839,806,0,0
-378,218,0,0,0,0,0,0,0,0,0,-1,846,806,0,0
-371,218,0,0,0,0,0,0,0,0,0,-1,853,806,0,0
-364,218,0,0,0,0,0,0,0,0,0,-1,860,806,0,0
-357,218,0,0,0,0,0,0,0,0,0,-1,867,806,0,0
-350,218,0,0,0,0,0,0,0,0,0,-1,874,806,0,0
-343,218,0,0,0,0,0,0,0,0,0,-1,881,806,0,0
-336,218,0,0,0,0,0,0,0,0,0,-1,888,806,0,0
-329,218,0,0,0,0,0,0,0,0,0,-1,895,806,0,0
-322,218,0,0,0,0,0,0,0,0,0,-1,902,806,0,0
-315,218,0,0,0,0,0,0,0,0,0,-1,909,806,0,0
-308,218,0,0,0,0,0,0,0,0,0,-1,916,806,0,0
-301,218,0,0,0,0,0,0,0,0,0,-1,923,806,0,0
-294,218,0,0,0,0,0,0,0,0,0,-1,930,806,0,0
-287,218,0,0,0,0,0,0,0,0,0,-1,937,806,0,0
-280,218,0,0,0,0,0,0,0,0,0,-1,944,806,0,0
-273,218,0,0,0,0,0,0,0,0,0,-1,951,806,0,0
-266,218,0,0,0,0,0,0,0,0,0,-1,958,806,0,0
-259,218,0,0,0,0,0,0,0,0,0,-1,965,806,0,0
-252,218,0,0,0,0,0,0,0,0,0,-1,972,806,0,0
-245,218,0,0,0,0,0,0,0,0,0,-1,979,806,0,0
-238,218,0,0,0,0,0,0,0,0,0,-1,986,806,0,0
-231,218,0,0,0,0,0,0,0,0,0,-1,993,806,0,0
-224,218,0,0,0,0,0,0,0,0,0,-1,1000,806,0,0
-217,218,0,0,0,0,0,0,0,0,0,-1,1007,806,0,0
-210,218,0,0,0,0,0,0,0,0,0,-1,1014,806,0,0
-203,218,0,0,0,0,0,0,0,0,0,-1,1021,806,0,0
-196,218,0,0,0,0,0,0,0,0,0,-1,1028,806,0,0
-189,218,0,0,0,0,0,0,0,0,0,-1,1035,806,0,0
-182,218,0,0,0,0,0,0,0,0,0,-1,1042,806,0,0
-175,218,0,0,0,0,0,0,0,0,0,-1,1049,806,0,0
-168,218,0,0,0,0,0,0,0,0,0,-1,1056,806,0,0
-161,218,0,0,0,0,0,0,0,0,0,-1,1063,806,0,0
-154,218,0,0,0,0,0,0,0,0,0,-1,1070,806,0,0
-147,218,0,0,0,0,0,0,0,0,0,-1,1077,806,0,0
-140,218,0,0,0,0,0,0,0,0,0,-1,1084,806,0,0
-133,218,0,0,0,0,0,0,0,0,0,-1,1091,806,0,0
-126,218,0,0,0,0,0,0,0,0,0,-1,1098,806,0,0
-119,218,0,0,0,0,0,0,0,0,0,-1,1105,806,0,0
-112,218,0,0,0,0,0,0,0,0,0,-1,1112,806,0,0
-105,218,0,0,0,0,0,0,0,0,0,-1,1119,806,0,0
-98,218,0,0,0,0,0,0,0,0,0,-1,1126,806,0,0
-91,218,0,0,0,0,0,0,0,0,0,-1,1133,806,0,0
-84,218,0,0,0,0,0,0,0,0,0,-1,1140,806,0,0
-77,218,0,0,0,0,0,0,0,0,0,-1,1147,806,0,0
-70,218,0,0,0,0,0,0,0,0,0,-1,1154,806,0,0
-63,218,0,0,0,0,0,0,0,0,0,-1,1161,806,0,0
-56,218,0,0,0,0,0,0,0,0,0,-1,1168,806,0,0
-49,218,0,0,0,0,0,0,0,0,0,-1,1175,806,0,0
-42,218,0,0,0,0,0,0,0,0,0,-1,1182,806,0,0
-35,218,0,0,0,0,0,0,0,0,0,-1,1189,806,0,0
-28,218,0,0,0,0,0,0,0,0,0,-1,1196,806,0,0
-21,218,0,0,0,0,0,0,0,0,0,-1,1203,806,0,0
-14,218,0,0,0,0,0,0,0,0,0,-1,1210,806,0,0
-7,218,0,0,0,0,0,0,0,0,0,-1,1217,806,0,0
0,218,0,0,0,0,0,0,0,0,0,-1,1224,806,0,0
7,218,0,0,0,0,0,0,0,0,0,-1,1231,806,0,0
14,218,0,0,0,0,0,0,0,0,0,-1,1238,806,0,0
21,218,0,0,0,0,0,0,0,0,0,-1,1245,806,0,0
28,218,0,0,0,0,0,0,0,0,0,-1,1252,806,0,0
35,218,0,0,0,0,0,0,0,0,0,-1,1259,806,0,0
42,218,0,0,0,0,0,0,0,0,0,-1,1266,806,0,0
49,218,0,0,0,0,0,0,0,0,0,-1,1273,806,0,0
56,218,0,0,0,0,0,0,0,0,0,-1,1280,806,0,0
63,218,0,0,0,0,0,0,0,0,0,-1,1287,806,0,0
70,218,0,0,0,0,0,0,0,0,0,-1,1294,806,0,0
77,218,0,0,0,0,0,0,0,0,0,-1,1301,806,0,0
84,218,0,0,0,0,0,0,0,0,0,-1,1308,806,0,0
91,218,0,0,0,0,0,0,0,0,0,-1,1315,806,0,0
98,218,0,0,0,0,0,0,0,0,0,-1,1322,806,0,0
105,218,0,0,0,0,0,0,0,0,0,-1,1329,806,0,0
112,218,0,0,0,0,0,0,0,0,0,-1,1336,806,0,0
119,218,0,0,0,0,0,0,0,0,0,-1,1343,806,0,0
126,218,0,0,0,0,0,0,0,0,0,-1,1350,806,0,0
133,218,0,0,0,0,0,0,0,0,0,-1,1357,806,0,0
140,218,0,0,0,0,0,0,0,0,0,-1,1364,806,0,0
147,218,0,0,0,0,0,0,0,0,0,-1,1371,806,0,0
154,218,0,0,0,0,0,0,0,0,0,-1,1378,806,0,0
161,218,0,0,0,0,0,0,0,0,0,-1,1385,806,0,0
168,218,0,0,0,0,0,0,0,0,0,-1,1392,806,0,0
175,218,0,0,0,0,0,0,0,0,0,-1,1399,806,0,0
182,218,0,0,0,0,0,0,0,0,0,-1,1406,806,0,0
189,218,0,0,0,0,0,0,0,0,0,-1,1413,806,0,0
196,218,0,0,0,0,0,0,0,0,0,-1,1420,806,0,0
203,218,0,0,0,0,0,0,0,0,0,-1,1427,806,0,0
210,218,0,0,0,0,0,0,0,0,0,-1,1434,806,0,0
217,218,0,0,0,0,0,0,0,0,0,-1,1441,806,0,0
224,218,0,0,0,0,0,0,0,0,0,-1,1448,806,0,0
231,218,0,0,0,0,0,0,0,0,0,-1,1455,806,0,0
238,218,0,0,0,0,0,0,0,0,0,-1,1462,806,0,0
245,218,0,0,0,0,0,0,0,0,0,-1,1469,806,0,0
252,218,0,0,0,0,0,0,0,0,0,-1,1476,806,0,0
259,218,0,0,0,0,0,0,0,0,0,-1,1483,806,0,0
266,218,0,0,0,0,0,0,0,0,0,-1,1490,806,0,0
273,218,0,0,0,0,0,0,0,0,0,-1,1497,806,0,0
280,218,0,0,0,0,0,0,0,0,0,-1,1504,806,0,0
287,218,0,0,0,0,0,0,0,0,0,-1,1511,806,0,0
294,218,0,0,0,0,0,0,0,0,0,-1,1518,806,0,0
301,218,0,0,0,0,0,0,0,0,0,-1,1525,806,0,0
308,218,0,0,0,0,0,0,0,0,0,-1,1532,806,0,0
315,218,0,0,0,0,0,0,0,0,0,-1,1539,806,0,0
322,218,0,0,0,0,0,0,0,0,0,-1,1546,806,0,0
329,218,0,0,0,0,0,0,0,0,0,-1,1553,806,0,0
336,218,0,0,0,0,0,0,0,0,0,-1,1560,806,0,0
343,218,0,0,0,0,0,0,0,0,0,-1,1567,806,0,0
350,218,0,0,0,0,0,0,0,0,0,-1,1574,806,0,0
357,218,0,0,0,0,0,0,0,0,0,-1,1581,806,0,0
364,218,0,0,0,0,0,0,0,0,0,-1,1588,806,0,0
371,218,0,0,0,0,0,0,0,0,0,-1,1595,806,0,0
378,218,0,0,0,0,0,0,0,0,0,-1,1602,806,0,0
385,218,0,0,0,0,0,0,0,0,0,-1,1609,806,0,0
392,218,0,0,0,0,0,0,0,0,0,-1,1616,806,0,0
399,218,0,0,0,0,0,0,0,0,0,-1,1623,806,0,0
406,218,0,0,0,0,0,0,0,0,0,-1,1630,806,0,0
413,218,0,0,0,0,0,0,0,0,0,-1,1637,806,0,0
420,218,0,0,0,0,0,0,0,0,0,-1,1644,806,0,0
427,218,0,0,0,0,0,0,0,0,0,-1,1651,806,0,0
434,218,0,0,0,0,0,0,0,0,0,-1,1658,806,0,0
441,218,0,0,0,0,0,0,0,0,0,-1,1665,806,0,0
448,218,0,0,0,0,0,0,0,0,0,-1,1672,806,0,0
455,218,0,0,0,0,0,0,0,0,0,-1,1679,806,0,0
462,218,0,0,0,0,0,0,0,0,0,-1,1686,806,0,0
469,218,0,0,0,0,0,0,0,0,0,-1,1693,806,0,0
476,218,0,0,0,0,0,0,0,0,0,-1,1700,806,0,0
483,218,0,0,0,0,0,0,0,0,0,-1,1707,806,0,0
490,218,0,0,0,0,0,0,0,0,0,-1,1714,806,0,0
497,218,0,0,0,0,0,0,0,0,0,-1,1721,806,0,0
504,218,0,0,0,0,0,0,0,0,0,-1,1728,806,0,0
511,218,0,0,0,0,0,0,0,0,0,-1,1735,806,0,0
518,218,0,0,0,0,0,0,0,0,0,-1,1742,806,0,0
525,218,0,0,0,0,0,0,0,0,0,-1,1749,806,0,0
532,218,0,0,0,0,0,0,0,0,0,-1,1756,806,0,0
539,218,0,0,0,0,0,0,0,0,0,-1,1763,806,0,0
546,218,0,0,0,0,0,0,0,0,0,-1,1770,806,0,0
553,218,0,0,0,0,0,0,0,0,0,-1,1777,806,0,0
560,218,0,0,0,0,0,0,0,0,0,-1,1784,806,0,0
567,218,0,0,0,0,0,0,0,0,0,-1,1791,806,0,0
574,218,0,0,0,0,0,0,0,0,0,-1,1798,806,0,0
581,218,0,0,0,0,0,0,0,0,0,-1,1805,806,0,0
588,218,0,0,0,0,0,0,0,0,0,-1,1812,806,0,0
595,218,45.3079,2.78357,0.00387645,-0.000335526,-0.0012722,0.00423088,-0.000689961,-0.27171,0.00307647,0.0388946,1819,806,45.3079,-2.78356
602,218,45.329,2.68127,0.00523389,0.00275471,-0.00277876,0.00703701,0.000951586,-0.575598,0.00440852,0.0345955,1826,806,45.329,-2.68126
609,218,45.312,2.70264,0.00574937,0.00465392,-0.00393214,0.00917174,0.00123155,-0.716196,0.00574813,0.0301569,1833,806,45.312,-2.70263
616,218,45.2069,2.75232,0.0054625,0.00515721,-0.00444739,0.00975986,0.000859845,-0.768244,0.00623974,0.0330217,1840,806,45.2069,-2.7523
623,218,45.1515,2.79126,0.0044974,0.00461456,-0.0045961,0.00915245,-4.04948e-05,-0.791771,0.00611518,0.0379708,1847,806,45.1515,-2.79124
630,218,45.3116,2.68805,0.00346091,0.00388811,-0.00438352,0.00806323,-0.000714215,-0.809743,0.00562868,0.0402276,1854,806,45.3116,-2.68802
637,218,45.5504,2.01141,0.00257856,0.0030944,-0.00407967,0.00692429,-0.00125133,-0.816966,0.00508489,0.0416863,1861,806,45.5505,-2.01138
644,218,45.6615,1.39795,0,0,0,0,0,0,0,-1,1868,806,45.6614,-1.39793
651,218,41.7338,1.99164,0,0,0,0,0,0,0,-1,1875,806,41.7338,-1.99162
658,218,28.41,0.514954,0,0,0,0,0,0,0,-1,1882,806,28.41,-0.514983
665,218,33.7412,-0.155334,0,0,0,0,0,0,0,-1,1889,806,33.7412,0.155364
672,218,33.5586,0.402161,-0.000730591,-0.000296835,-0.0024244,0.00192037,-0.00294779,-0.830008,0.00283142,0.020285,1896,806,33.5586,-0.402169
679,218,33.425,0.869934,-0.00112955,-0.00107371,-0.00189768,0.000796251,-0.00299952,-0.792754,0.00231127,0.0162131,1903,806,33.4251,-0.869938
686,218,33.3839,1.32062,-0.0014346,-0.00149195,-0.00123858,-0.000224364,-0.00270219,-0.773825,0.00173153,0.0115285,1910,806,33.3839,-1.32063
693,218,33.3708,1.83661,-0.000863329,-0.00016711,-0.00101042,0.00055349,-0.00158393,-0.951289,0.00128095,0.0111421,1917,806,33.3708,-1.8366
700,218,33.324,2.35187,0.00023208,0.000413669,-0.000542712,0.000873129,-0.000227379,-0.868279,0.000670849,0.00954906,1924,806,33.324,-2.35189
707,218,33.298,2.86987,0.00173738,0.00105957,5.25808e-05,0.00174143,0.00105551,0.0769608,0.00101294,0.00803769,1931,806,33.298,-2.86986
714,218,33.2969,3.40564,0.00365013,0.00171691,0.000750512,0.00390729,0.00145976,0.330103,0.00227978,0.00989278,1938,806,33.2968,-3.40564
721,218,33.3019,3.91937,0.00598938,0.0022278,0.0016059,0.0065817,0.00163548,0.35336,0.00395696,0.0129872,1945,806,33.3019,-3.91937
728,218,33.3071,4.47943,0.00873781,0.0024273,0.00255044,0.0096397,0.00152542,0.339895,0.00598316,0.0256378,1952,806,33.3071,-4.47944
735,218,33.4508,5.12231,0.0121565,0.00247885,0.00383733,0.0134934,0.00114197,0.335237,0.00864015,0.0448229,1959,806,33.4508,-5.12231
742,218,33.7091,5.76984,0,0,0,0,0,0,0,-1,1966,806,33.7091,-5.76981
749,218,32.3662,5.508,0,0,0,0,0,0,0,-1,1973,806,32.3662,-5.50799
756,218,32.0544,6.07904,0,0,0,0,0,0,0,-1,1980,806,32.0545,-6.07904
763,218,31.1039,4.53247,0,0,0,0,0,0,0,-1,1987,806,31.1038,-4.53247
770,218,0,0,0,0,0,0,0,0,0,-1,1994,806,0,0
777,218,0,0,0,0,0,0,0,0,0,-1,2001,806,0,0
784,218,0,0,0,0,0,0,0,0,0,-1,2008,806,0,0
791,218,0,0,0,0,0,0,0,0,0,-1,2015,806,0,0
798,218,0,0,0,0,0,0,0,0,0,-1,2022,806,0,0
805,218,0,0,0,0,0,0,0,0,0,-1,2029,806,0,0
812,218,0,0,0,0,0,0,0,0,0,-1,2036,806,0,0
-700,211,0,0,0,0,0,0,0,0,0,-1,524,813,0,0
-693,211,0,0,0,0,0,0,0,0,0,-1,531,813,0,0
-686,211,0,0,0,0,0,0,0,0,0,-1,538,813,0,0
-679,211,0,0,0,0,0,0,0,0,0,-1,545,813,0,0
-672,211,0,0,0,0,0,0,0,0,0,-1,552,813,0,0
-665,211,0,0,0,0,0,0,0,0,0,-1,559,813,0,0
-658,211,0,0,0,0,0,0,0,0,0,-1,566,813,0,0
-651,211,-31.6703,2.68042,0,0,0,0,0,0,0,-1,573,813,-31.6703,-2.68041
-644,211,-31.6545,4.41211,0,0,0,0,0,0,0,-1,580,813,-31.6545,-4.4121
-637,211,-31.5224,6.12036,0,0,0,0,0,0,0,-1,587,813,-31.5224,-6.12039
-630,211,-24.5848,5.75372,0,0,0,0,0,0,0,-1,594,813,-24.5849,-5.75375
-623,211,-23.3645,3.88855,0,0,0,0,0,0,0,-1,601,813,-23.3645,-3.88856
-616,211,-23.6011,3.39545,0,0,0,0,0,0,0,-1,608,813,-23.6011,-3.39543
-609,211,-23.5542,2.82184,0.0117795,0.0192555,-0.0152018,0.0311721,-0.00013711,-0.905952,0.0208273,0.0420614,615,813,-23.5542,-2.82181
-602,211,-23.5788,2.263,0.00804261,0.0139353,-0.0110346,0.0224102,-0.000432253,-0.91586,0.0150863,0.0217493,622,813,-23.5788,-2.26299
-595,211,-23.6375,1.78021,0.00523983,0.0098237,-0.00755745,0.0154291,-0.000365584,-0.932624,0.0104101,0.0108543,629,813,-23.6374,-1.78022
-588,211,-23.6427,1.28595,0.00310441,0.00596512,-0.00464957,0.00939937,-0.000329842,-0.93462,0.00637903,0.010761,636,813,-23.6427,-1.28595
-581,211,-23.6689,0.81073,0.00139526,0.00343545,-0.00231934,0.00494912,-0.000118402,-0.992577,0.00333958,0.0115325,643,813,-23.6689,-0.810702
-574,211,-23.7029,0.330566,2.14507e-05,0.001705,-0.000560365,0.00187446,-0.000148009,-1.27713,0.00130178,0.0130544,650,813,-23.7029,-0.330592
-567,211,-23.6891,-0.174866,-0.000888905,4.61995e-05,0.0007492,0.00046177,-0.00130448,1.06436,0.00105772,0.0200705,657,813,-23.6891,0.174842
-560,211,-23.7104,-0.656555,-0.000931042,-0.00110543,0.00171685,0.000700829,-0.00273731,0.760026,0.00209787,0.0238478,664,813,-23.7104,0.656547
-553,211,-23.6049,-1.16809,-0.000966442,-0.00172839,0.00236936,0.00105238,-0.00374721,0.705684,0.00291301,0.0324383,671,813,-23.6049,1.16809
-546,211,-23.9029,-1.57727,-0.000965364,-0.00203402,0.00253743,0.00109338,-0.00409277,0.681625,0.00315674,0.0412528,678,813,-23.9029,1.57726
-539,211,-23.8432,-2.12616,-0.000503016,-0.00229606,0.00213299,0.000914206,-0.00371329,0.586451,0.00282992,0.0273872,685,813,-23.8432,2.12616
-532,211,-23.7003,-2.77319,0,0,0,0,0,0,0,-1,692,813,-23.7003,2.77321
-525,211,-14.3009,2.3233,0,0,0,0,0,0,0,-1,699,813,-14.3009,-2.3233
-518,211,-34.0734,0.82019,0,0,0,0,0,0,0,-1,706,813,-34.0734,-0.820207
-511,211,-34.0759,0.758911,0.000898015,-0.000644427,0.00178755,0.00207361,-0.00182002,0.581741,0.00224958,0.0467471,713,813,-34.0759,-0.758924
-504,211,-33.9773,0.760437,0.00142991,6.02789e-05,0.00148392,0.00237941,-0.000889222,0.569214,0.00195142,0.0470433,720,813,-33.9773,-0.760419
-497,211,-33.7536,0.952698,0.00171268,0.00108606,0.000968446,0.00241723,0.0003815,0.628953,0.00150057,0.047565,727,813,-33.7536,-0.952723
-490,211,-33.6951,0.925598,0.00158653,0.00235552,0.000129596,0.00237677,0.00156528,1.40825,0.00139504,0.0352627,734,813,-33.6951,-0.925604
-483,211,-33.7233,0.86792,0.00101222,0.00385407,-0.00165624,0.00461538,0.000250909,-1.13993,0.00299679,0.0329391,741,813,-33.7233,-0.867896
-476,211,-33.8064,0.836304,-0.000793759,0.00555329,-0.00499441,0.00829714,-0.00353761,-1.06843,0.00701457,0.0376561,748,813,-33.8064,-0.836322
-469,211,0,0,0,0,0,0,0,0,0,-1,755,813,0,0
-462,211,0,0,0,0,0,0,0,0,0,-1,762,813,0,0
-455,211,0,0,0,0,0,0,0,0,0,-1,769,813,0,0
-448,211,0,0,0,0,0,0,0,0,0,-1,776,813,0,0
-441,211,0,0,0,0,0,0,0,0,0,-1,783,813,0,0
-434,211,0,0,0,0,0,0,0,0,0,-1,790,813,0,0
-427,211,0,0,0,0,0,0,0,0,0,-1,797,813,0,0
-420,211,0,0,0,0,0,0,0,0,0,-1,804,813,0,0
-413,211,0,0,0,0,0,0,0,0,0,-1,811,813,0,0
-406,211,0,0,0,0,0,0,0,0,0,-1,818,813,0,0
-399,211,0,0,0,0,0,0,0,0,0,-1,825,813,0,0
-392,211,0,0,0,0,0,0,0,0,0,-1,832,813,0,0
-385,211,0,0,0,0,0,0,0,0,0,-1,839,813,0,0
-378,211,0,0,0,0,0,0,0,0,0,-1,846,813,0,0
-371,211,0,0,0,0,0,0,0,0,0,-1,853,813,0,0
-364,211,0,0,0,0,0,0,0,0,0,-1,860,813,0,0
-357,211,0,0,0,0,0,0,0,0,0,-1,867,813,0,0
-350,211,0,0,0,0,0,0,0,0,0,-1,874,813,0,0
-343,211,0,0,0,0,0,0,0,0,0,-1,881,813,0,0
-336,211,0,0,0,0,0,0,0,0,0,-1,888,813,0,0
-329,211,0,0,0,0,0,0,0,0,0,-1,895,813,0,0
-322,211,0,0,0,0,0,0,0,0,0,-1,902,813,0,0
-315,211,0,0,0,0,0,0,0,0,0,-1,909,813,0,0
-308,211,0,0,0,0,0,0,0,0,0,-1,916,813,0,0
-301,211,0,0,0,0,0,0,0,0,0,-1,923,813,0,0
-294,211,0,0,0,0,0,0,0,0,0,-1,930,813,0,0
-287,211,0,0,0,0,0,0,0,0,0,-1,937,813,0,0
-280,211,0,0,0,0,0,0,0,0,0,-1,944,813,0,0
-273,211,0,0,0,0,0,0,0,0,0,-1,951,813,0,0
-266,211,0,0,0,0,0,0,0,0,0,-1,958,813,0,0
-259,211,0,0,0,0,0,0,0,0,0,-1,965,813,0,0
-252,211,0,0,0,0,0,0,0,0,0,-1,972,813,0,0
-245,211,0,0,0,0,0,0,0,0,0,-1,979,813,0,0
-238,211,0,0,0,0,0,0,0,0,0,-1,986,813,0,0
-231,211,0,0,0,0,0,0,0,0,0,-1,993,813,0,0
-224,211,0,0,0,0,0,0,0,0,0,-1,1000,813,0,0
-217,211,0,0,0,0,0,0,0,0,0,-1,1007,813,0,0
-210,211,0,0,0,0,0,0,0,0,0,-1,1014,813,0,0
-203,211,0,0,0,0,0,0,0,0,0,-1,1021,813,0,0
-196,211,0,0,0,0,0,0,0,0,0,-1,1028,813,0,0
-189,211,0,0,0,0,0,0,0,0,0,-1,1035,813,0,0
-182,211,0,0,0,0,0,0,0,0,0,-1,1042,813,0,0
-175,211,0,0,0,0,0,0,0,0,0,-1,1049,813,0,0
-168,211,0,0,0,0,0,0,0,0,0,-1,1056,813,0,0
-161,211,0,0,0,0,0,0,0,0,0,-1,1063,813,0,0
-154,211,0,0,0,0,0,0,0,0,0,-1,1070,813,0,0
-147,211,0,0,0,0,0,0,0,0,0,-1,1077,813,0,0
-140,211,0,0,0,0,0,0,0,0,0,-1,1084,813,0,0
-133,211,0,0,0,0,0,0,0,0,0,-1,1091,813,0,0
-126,211,0,0,0,0,0,0,0,0,0,-1,1098,813,0,0
-119,211,0,0,0,0,0,0,0,0,0,-1,1105,813,0,0
-112,211,0,0,0,0,0,0,0,0,0,-1,1112,813,0,0
-105,211,0,0,0,0,0,0,0,0,0,-1,1119,813,0,0
-98,211,0,0,0,0,0,0,0,0,0,-1,1126,813,0,0
-91,211,0,0,0,0,0,0,0,0,0,-1,1133,813,0,0
-84,211,0,0,0,0,0,0,0,0,0,-1,1140,813,0,0
-77,211,0,0,0,0,0,0,0,0,0,-1,1147,813,0,0
-70,211,0,0,0,0,0,0,0,0,0,-1,1154,813,0,0
-63,211,0,0,0,0,0,0,0,0,0,-1,1161,813,0,0
-56,211,0,0,0,0,0,0,0,0,0,-1,1168,813,0,0
-49,211,0,0,0,0,0,0,0,0,0,-1,1175,813,0,0
-42,211,0,0,0,0,0,0,0,0,0,-1,1182,813,0,0
-35,211,0,0,0,0,0,0,0,0,0,-1,1189,813,0,0
-28,211,0,0,0,0,0,0,0,0,0,-1,1196,813,0,0
-21,211,0,0,0,0,0,0,0,0,0,-1,1203,813,0,0
-14,211,0,0,0,0,0,0,0,0,0,-1,1210,813,0,0
-7,211,0,0,0,0,0,0,0,0,0,-1,1217,813,0,0
0,211,0,0,0,0,0,0,0,0,0,-1,1224,813,0,0
7,211,0,0,0,0,0,0,0,0,0,-1,1231,813,0,0
14,211,0,0,0,0,0,0,0,0,0,-1,1238,813,0,0
21,211,0,0,0,0,0,0,0,0,0,-1,1245,813,0,0
28,211,0,0,0,0,0,0,0,0,0,-1,1252,813,0,0
35,211,0,0,0,0,0,0,0,0,0,-1,1259,813,0,0
42,211,0,0,0,0,0,0,0,0,0,-1,1266,813,0,0
49,211,0,0,0,0,0,0,0,0,0,-1,1273,813,0,0
56,211,0,0,0,0,0,0,0,0,0,-1,1280,813,0,0
63,211,0,0,0,0,0,0,0,0,0,-1,1287,813,0,0
70,211,0,0,0,0,0,0,0,0,0,-1,1294,813,0,0
77,211,0,0,0,0,0,0,0,0,0,-1,1301,813,0,0
84,211,0,0,0,0,0,0,0,0,0,-1,1308,813,0,0
91,211,0,0,0,0,0,0,0,0,0,-1,1315,813,0,0
98,211,0,0,0,0,0,0,0,0,0,-1,1322,813,0,0
105,211,0,0,0,0,0,0,0,0,0,-1,1329,813,0,0
112,211,0,0,0,0,0,0,0,0,0,-1,1336,813,0,0
119,211,0,0,0,0,0,0,0,0,0,-1,1343,813,0,0
126,211,0,0,0,0,0,0,0,0,0,-1,1350,813,0,0
133,211,0,0,0,0,0,0,0,0,0,-1,1357,813,0,0
140,211,0,0,0,0,0,0,0,0,0,-1,1364,813,0,0
147,211,0,0,0,0,0,0,0,0,0,-1,1371,813,0,0
154,211,0,0,0,0,0,0,0,0,0,-1,1378,813,0,0
161,211,0,0,0,0,0,0,0,0,0,-1,1385,813,0,0
168,211,0,0,0,0,0,0,0,0,0,-1,1392,813,0,0
175,211,0,0,0,0,0,0,0,0,0,-1,1399,813,0,0
182,211,0,0,0,0,0,0,0,0,0,-1,1406,813,0,0
189,211,0,0,0,0,0,0,0,0,0,-1,1413,813,0,0
196,211,0,0,0,0,0,0,0,0,0,-1,1420,813,0,0
203,211,0,0,0,0,0,0,0,0,0,-1,1427,813,0,0
210,211,0,0,0,0,0,0,0,0,0,-1,1434,813,0,0
217,211,0,0,0,0,0,0,0,0,0,-1,1441,813,0,0
224,211,0,0,0,0,0,0,0,0,0,-1,1448,813,0,0
231,211,0,0,0,0,0,0,0,0,0,-1,1455,813,0,0
238,211,0,0,0,0,0,0,0,0,0,-1,1462,813,0,0
245,211,0,0,0,0,0,0,0,0,0,-1,1469,813,0,0
252,211,0,0,0,0,0,0,0,0,0,-1,1476,813,0,0
259,211,0,0,0,0,0,0,0,0,0,-1,1483,813,0,0
266,211,0,0,0,0,0,0,0,0,0,-1,1490,813,0,0
273,211,0,0,0,0,0,0,0,0,0,-1,1497,813,0,0
280,211,0,0,0,0,0,0,0,0,0,-1,1504,813,0,0
287,211,0,0,0,0,0,0,0,0,0,-1,1511,813,0,0
294,211,0,0,0,0,0,0,0,0,0,-1,1518,813,0,0
301,211,0,0,0,0,0,0,0,0,0,-1,1525,813,0,0
308,211,0,0,0,0,0,0,0,0,0,-1,1532,813,0,0
315,211,0,0,0,0,0,0,0,0,0,-1,1539,813,0,0
322,211,0,0,0,0,0,0,0,0,0,-1,1546,813,0,0
329,211,0,0,0,0,0,0,0,0,0,-1,1553,813,0,0
336,211,0,0,0,0,0,0,0,0,0,-1,1560,813,0,0
343,211,0,0,0,0,0,0,0,0,0,-1,1567,813,0,0
350,211,0,0,0,0,0,0,0,0,0,-1,1574,813,0,0
357,211,0,0,0,0,0,0,0,0,0,-1,1581,813,0,0
364,211,0,0,0,0,0,0,0,0,0,-1,1588,813,0,0
371,211,0,0,0,0,0,0,0,0,0,-1,1595,813,0,0
378,211,0,0,0,0,0,0,0,0,0,-1,1602,813,0,0
385,211,0,0,0,0,0,0,0,0,0,-1,1609,813,0,0
392,211,0,0,0,0,0,0,0,0,0,-1,1616,813,0,0
399,211,0,0,0,0,0,0,0,0,0,-1,1623,813,0,0
406,211,0,0,0,0,0,0,0,0,0,-1,1630,813,0,0
413,211,0,0,0,0,0,0,0,0,0,-1,1637,813,0,0
420,211,0,0,0,0,0,0,0,0,0,-1,1644,813,0,0
427,211,0,0,0,0,0,0,0,0,0,-1,1651,813,0,0
434,211,0,0,0,0,0,0,0,0,0,-1,1658,813,0,0
441,211,0,0,0,0,0,0,0,0,0,-1,1665,813,0,0
448,211,0,0,0,0,0,0,0,0,0,-1,1672,813,0,0
455,211,0,0,0,0,0,0,0,0,0,-1,1679,813,0,0
462,211,0,0,0,0,0,0,0,0,0,-1,1686,813,0,0
469,211,0,0,0,0,0,0,0,0,0,-1,1693,813,0,0
476,211,0,0,0,0,0,0,0,0,0,-1,1700,813,0,0
483,211,0,0,0,0,0,0,0,0,0,-1,1707,813,0,0
490,211,0,0,0,0,0,0,0,0,0,-1,1714,813,0,0
497,211,0,0,0,0,0,0,0,0,0,-1,1721,813,0,0
504,211,0,0,0,0,0,0,0,0,0,-1,1728,813,0,0
511,211,0,0,0,0,0,0,0,0,0,-1,1735,813,0,0
518,211,0,0,0,0,0,0,0,0,0,-1,1742,813,0,0
525,211,0,0,0,0,0,0,0,0,0,-1,1749,813,0,0
532,211,0,0,0,0,0,0,0,0,0,-1,1756,813,0,0
539,211,0,0,0,0,0,0,0,0,0,-1,1763,813,0,0
546,211,0,0,0,0,0,0,0,0,0,-1,1770,813,0,0
553,211,0,0,0,0,0,0,0,0,0,-1,1777,813,0,0
560,211,0,0,0,0,0,0,0,0,0,-1,1784,813,0,0
567,211,0,0,0,0,0,0,0,0,0,-1,1791,813,0,0
574,211,0,0,0,0,0,0,0,0,0,-1,1798,813,0,0
581,211,0,0,0,0,0,0,0,0,0,-1,1805,813,0,0
588,211,0,0,0,0,0,0,0,0,0,-1,1812,813,0,0
595,211,45.3607,2.62842,0.00357815,-0.00193807,-0.000693515,0.003664,-0.00202392,-0.123169,0.00332912,0.0390397,1819,813,45.3607,-2.62839
602,211,45.3521,2.60144,0.00423254,0.000910619,-0.00187924,0.00507963,6.35297e-05,-0.423488,0.00336544,0.0377586,1826,813,45.352,-2.60142
609,211,45.3167,2.6925,0.00446467,0.00302151,-0.00301989,0.00684799,0.000638186,-0.668127,0.00436817,0.0369311,1833,813,45.3166,-2.69249
616,211,45.2529,2.72046,0.00430598,0.00401762,-0.00363583,0.00780049,0.00052311,-0.765581,0.00503502,0.0317765,1840,813,45.2529,-2.72046
623,211,45.2334,2.72235,0.00354534,0.00384498,-0.00391898,0.007617,-0.000226679,-0.804504,0.00515522,0.0326913,1847,813,45.2334,-2.72238
630,211,45.1647,2.74176,0.00261351,0.0033547,-0.00379759,0.00679973,-0.000831526,-0.834038,0.00483423,0.0369851,1854,813,45.1646,-2.74176
637,211,45.0691,2.82111,0.00179272,0.00265394,-0.00355079,0.00580013,-0.00135348,-0.845739,0.00438805,0.0440939,1861,813,45.0691,-2.82111
644,211,45.1632,2.7301,0,0,0,0,0,0,0,-1,1868,813,45.1632,-2.73009
651,211,43.2537,2.62592,0,0,0,0,0,0,0,-1,1875,813,43.2537,-2.62594
658,211,27.7909,1.52234,0,0,0,0,0,0,0,-1,1882,813,27.7909,-1.52234
665,211,34.3521,0.143555,0,0,0,0,0,0,0,-1,1889,813,34.3521,-0.143575
672,211,34.1895,0.465637,-0.00113158,-0.000261612,-0.00219821,0.00154424,-0.00293743,-0.883076,0.00262884,0.0377065,1896,813,34.1894,-0.465641
679,211,34.0425,0.868408,-0.00158373,-0.000977917,-0.0017809,0.000525658,-0.0030873,-0.869634,0.00225395,0.0211059,1903,813,34.0425,-0.868406
686,211,33.9052,1.35095,-0.00191771,-0.00143038,-0.00127968,-0.000371372,-0.00297672,-0.879477,0.001873,0.0121807,1910,813,33.9052,-1.35098
693,211,33.887,1.84973,-0.00143643,-0.000325162,-0.00119847,0.000440212,-0.00220181,-1.00246,0.00163449,0.011609,1917,813,33.887,-1.84974
700,211,33.8048,2.33673,-0.000486843,4.23002e-05,-0.000835701,0.00065431,-0.00109885,-0.9387,0.00102298,0.0135132,1924,813,33.8048,-2.33671
707,211,33.8347,2.89673,0.000893709,0.000448799,-0.000310911,0.00105355,0.000288956,-0.474874,0.000628592,0.0206709,1931,813,33.8347,-2.89673
714,211,33.8286,3.46063,0.00270789,0.000918218,0.000324311,0.00276485,0.000861261,0.17385,0.00163366,0.0213347,1938,813,33.8286,-3.46062
721,211,33.842,3.922,0.00495887,0.00123714,0.00113934,0.00527996,0.000916055,0.274693,0.00325784,0.0169222,1945,813,33.842,-3.92202
728,211,33.8571,4.42664,0.00757962,0.00121731,0.00204105,0.0081781,0.000618828,0.285226,0.00525794,0.0171252,1952,813,33.8571,-4.42665
735,211,33.8916,5.00122,0.0107684,0.000958787,0.0032145,0.0117279,-7.1153e-07,0.290072,0.00781887,0.0293669,1959,813,33.8916,-5.00124
742,211,34.2642,5.28571,0.0150982,-0.000163287,0.00475204,0.0164569,-0.00152199,0.27849,0.0115122,0.049591,1966,813,34.2641,-5.28569
749,211,34.4857,5.58496,0,0,0,0,0,0,0,-1,1973,813,34.4857,-5.58494
756,211,32.5559,7.93188,0,0,0,0,0,0,0,-1,1980,813,32.556,-7.93189
763,211,32.7439,9.03937,0,0,0,0,0,0,0,-1,1987,813,32.7438,-9.03939
770,211,27.9138,9.25177,0,0,0,0,0,0,0,-1,1994,813,27.9139,-9.25176
777,211,0,0,0,0,0,0,0,0,0,-1,2001,813,0,0
784,211,0,0,0,0,0,0,0,0,0,-1,2008,813,0,0
791,211,0,0,0,0,0,0,0,0,0,-1,2015,813,0,0
798,211,0,0,0,0,0,0,0,0,0,-1,2022,813,0,0
805,211,0,0,0,0,0,0,0,0,0,-1,2029,813,0,0
812,211,0,0,0,0,0,0,0,0,0,-1,2036,813,0,0
-700,204,0,0,0,0,0,0,0,0,0,-1,524,820,0,0
-693,204,0,0,0,0,0,0,0,0,0,-1,531,820,0,0
-686,204,0,0,0,0,0,0,0,0,0,-1,538,820,0,0
-679,204,0,0,0,0,0,0,0,0,0,-1,545,820,0,0
-672,204,0,0,0,0,0,0,0,0,0,-1,552,820,0,0
-665,204,0,0,0,0,0,0,0,0,0,-1,559,820,0,0
-658,204,0,0,0,0,0,0,0,0,0,-1,566,820,0,0
-651,204,-30.9467,3.40283,0,0,0,0,0,0,0,-1,573,820,-30.9467,-3.40284
-644,204,-30.6304,4.97833,0,0,0,0,0,0,0,-1,580,820,-30.6304,-4.97831
-637,204,-25.3243,6.70752,0,0,0,0,0,0,0,-1,587,820,-25.3243,-6.70749
-630,204,-24.963,5.72131,0,0,0,0,0,0,0,-1,594,820,-24.963,-5.72134
-623,204,-24.6017,4.73517,0,0,0,0,0,0,0,-1,601,820,-24.6017,-4.73518
-616,204,-24.0692,3.41406,0,0,0,0,0,0,0,-1,608,820,-24.0692,-3.41405
-609,204,-24.0532,2.849,0.0103352,0.0182764,-0.0138205,0.0286854,-7.37673e-05,-0.92528,0.0191482,0.0358301,615,820,-24.0532,-2.84899
-602,204,-24.0917,2.28833,0.00677438,0.012984,-0.00986248,0.0202188,-0.000460463,-0.937892,0.0136353,0.0158195,622,820,-24.0917,-2.28832
-595,204,-24.1361,1.78076,0.00416718,0.00889153,-0.00657764,0.0135183,-0.000459584,-0.957787,0.00916923,0.014169,629,820,-24.1361,-1.78075
-588,204,-24.1438,1.28833,0.00221274,0.00497013,-0.00379576,0.00762983,-0.000446957,-0.9596,0.00524189,0.0127389,636,820,-24.1438,-1.28833
-581,204,-24.164,0.811401,0.000664351,0.00248309,-0.00157629,0.00339351,-0.00024607,-1.04703,0.00234867,0.0127716,643,820,-24.164,-0.811386
-574,204,-24.1913,0.325745,-0.000520295,0.000915816,-3.12818e-05,0.000916497,-0.000520976,-1.54903,0.000840332,0.0143376,650,820,-24.1913,-0.325727
-567,204,-24.1597,-0.156738,-0.00118942,-0.00062989,0.00100627,0.000134784,-0.00195409,0.920984,0.0013499,0.0149181,657,820,-24.1597,0.156752
-560,204,-24.1241,-0.675476,-0.000931203,-0.00160575,0.00180277,0.000565571,-0.00310252,0.692924,0.00228037,0.0167204,664,820,-24.1241,0.675501
-553,204,-24.2188,-1.05859,-0.000896608,-0.00207614,0.0023063,0.000894144,-0.00386689,0.660221,0.00292194,0.0189122,671,820,-24.2188,1.05862
-546,204,-24.3562,-1.46033,-0.000887781,-0.00226944,0.00233787,0.000859191,-0.00401641,0.641739,0.00300523,0.0235402,678,820,-24.3562,1.46034
-539,204,-24.2795,-1.99915,-0.000391626,-0.00254262,0.0018804,0.000699119,-0.00363337,0.525628,0.00268579,0.0443348,685,820,-24.2795,1.99917
-532,204,-24.1923,-2.75134,0,0,0,0,0,0,0,-1,692,820,-24.1923,2.75133
-525,204,-25.7137,1.52496,0,0,0,0,0,0,0,-1,699,820,-25.7137,-1.52496
-518,204,-33.8746,0.957275,0,0,0,0,0,0,0,-1,706,820,-33.8746,-0.957289
-511,204,-33.8906,0.888977,0.0012246,-0.000846472,0.00111805,0.001713,-0.00133487,0.411847,0.0017642,0.0479283,713,820,-33.8906,-0.888993
-504,204,-33.9073,0.803711,0.00195773,-3.60007e-05,0.000611922,0.00213056,-0.000208831,0.275269,0.00149486,0.0480636,720,820,-33.9074,-0.803741
-497,204,-33.8654,0.814514,0.00248607,0.00120871,-0.000233062,0.00252727,0.00116752,-0.174949,0.00146053,0.0394743,727,820,-33.8653,-0.81454
-490,204,-33.8503,0.74939,0.00259713,0.00275489,-0.00157573,0.00425372,0.00109831,-0.810407,0.00254981,0.0347274,734,820,-33.8503,-0.749371
-483,204,-33.8701,0.675415,0.00228165,0.00450558,-0.00422518,0.00776267,-0.00097544,-0.914068,0.00552901,0.039639,741,820,-33.8701,-0.675429
-476,204,0,0,0,0,0,0,0,0,0,-1,748,820,0,0
-469,204,0,0,0,0,0,0,0,0,0,-1,755,820,0,0
-462,204,0,0,0,0,0,0,0,0,0,-1,762,820,0,0
-455,204,0,0,0,0,0,0,0,0,0,-1,769,820,0,0
-448,204,0,0,0,0,0,0,0,0,0,-1,776,820,0,0
-441,204,0,0,0,0,0,0,0,0,0,-1,783,820,0,0
-434,204,0,0,0,0,0,0,0,0,0,-1,790,820,0,0
-427,204,0,0,0,0,0,0,0,0,0,-1,797,820,0,0
-420,204,0,0,0,0,0,0,0,0,0,-1,804,820,0,0
-413,204,0,0,0,0,0,0,0,0,0,-1,811,820,0,0
-406,204,0,0,0,0,0,0,0,0,0,-1,818,820,0,0
-399,204,0,0,0,0,0,0,0,0,0,-1,825,820,0,0
-392,204,0,0,0,0,0,0,0,0,0,-1,832,820,0,0
-385,204,0,0,0,0,0,0,0,0,0,-1,839,820,0,0
-378,204,0,0,0,0,0,0,0,0,0,-1,846,820,0,0
-371,204,0,0,0,0,0,0,0,0,0,-1,853,820,0,0
-364,204,0,0,0,0,0,0,0,0,0,-1,860,820,0,0
-357,204,0,0,0,0,0,0,0,0,0,-1,867,820,0,0
-350,204,0,0,0,0,0,0,0,0,0,-1,874,820,0,0
-343,204,0,0,0,0,0,0,0,0,0,-1,881,820,0,0
-336,204,0,0,0,0,0,0,0,0,0,-1,888,820,0,0
-329,204,0,0,0,0,0,0,0,0,0,-1,895,820,0,0
-322,204,0,0,0,0,0,0,0,0,0,-1,902,820,0,0
-315,204,0,0,0,0,0,0,0,0,0,-1,909,820,0,0
-308,204,0,0,0,0,0,0,0,0,0,-1,916,820,0,0
-301,204,0,0,0,0,0,0,0,0,0,-1,923,820,0,0
-294,204,0,0,0,0,0,0,0,0,0,-1,930,820,0,0
-287,204,0,0,0,0,0,0,0,0,0,-1,937,820,0,0
-280,204,0,0,0,0,0,0,0,0,0,-1,944,820,0,0
-273,204,0,0,0,0,0,0,0,0,0,-1,951,820,0,0
-266,204,0,0,0,0,0,0,0,0,0,-1,958,820,0,0
-259,204,0,0,0,0,0,0,0,0,0,-1,965,820,0,0
-252,204,0,0,0,0,0,0,0,0,0,-1,972,820,0,0
-245,204,0,0,0,0,0,0,0,0,0,-1,979,820,0,0
-238,204,0,0,0,0,0,0,0,0,0,-1,986,820,0,0
-231,204,0,0,0,0,0,0,0,0,0,-1,993,820,0,0
-224,204,0,0,0,0,0,0,0,0,0,-1,1000,820,0,0
-217,204,0,0,0,0,0,0,0,0,0,-1,1007,820,0,0
-210,204,0,0,0,0,0,0,0,0,0,-1,1014,820,0,0
-203,204,0,0,0,0,0,0,0,0,0,-1,1021,820,0,0
-196,204,0,0,0,0,0,0,0,0,0,-1,1028,820,0,0
-189,204,0,0,0,0,0,0,0,0,0,-1,1035,820,0,0
-182,204,0,0,0,0,0,0,0,0,0,-1,1042,820,0,0
-175,204,0,0,0,0,0,0,0,0,0,-1,1049,820,0,0
-168,204,0,0,0,0,0,0,0,0,0,-1,1056,820,0,0
-161,204,0,0,0,0,0,0,0,0,0,-1,1063,820,0,0
-154,204,0,0,0,0,0,0,0,0,0,-1,1070,820,0,0
-147,204,0,0,0,0,0,0,0,0,0,-1,1077,820,0,0
-140,204,0,0,0,0,0,0,0,0,0,-1,1084,820,0,0
-133,204,0,0,0,0,0,0,0,0,0,-1,1091,820,0,0
-126,204,0,0,0,0,0,0,0,0,0,-1,1098,820,0,0
-119,204,0,0,0,0,0,0,0,0,0,-1,1105,820,0,0
-112,204,0,0,0,0,0,0,0,0,0,-1,1112,820,0,0
-105,204,0,0,0,0,0,0,0,0,0,-1,1119,820,0,0
-98,204,0,0,0,0,0,0,0,0,0,-1,1126,820,0,0
-91,204,0,0,0,0,0,0,0,0,0,-1,1133,820,0,0
-84,204,0,0,0,0,0,0,0,0,0,-1,1140,820,0,0
-77,204,0,0,0,0,0,0,0,0,0,-1,1147,820,0,0
-70,204,0,0,0,0,0,0,0,0,0,-1,1154,820,0,0
-63,204,0,0,0,0,0,0,0,0,0,-1,1161,820,0,0
-56,204,0,0,0,0,0,0,0,0,0,-1,1168,820,0,0
-49,204,0,0,0,0,0,0,0,0,0,-1,1175,820,0,0
-42,204,0,0,0,0,0,0,0,0,0,-1,1182,820,0,0
-35,204,0,0,0,0,0,0,0,0,0,-1,1189,820,0,0
-28,204,0,0,0,0,0,0,0,0,0,-1,1196,820,0,0
-21,204,0,0,0,0,0,0,0,0,0,-1,1203,820,0,0
-14,204,0,0,0,0,0,0,0,0,0,-1,1210,820,0,0
-7,204,0,0,0,0,0,0,0,0,0,-1,1217,820,0,0
0,204,0,0,0,0,0,0,0,0,0,-1,1224,820,0,0
7,204,0,0,0,0,0,0,0,0,0,-1,1231,820,0,0
14,204,0,0,0,0,0,0,0,0,0,-1,1238,820,0,0
21,204,0,0,0,0,0,0,0,0,0,-1,1245,820,0,0
28,204,0,0,0,0,0,0,0,0,0,-1,1252,820,0,0
35,204,0,0,0,0,0,0,0,0,0,-1,1259,820,0,0
42,204,0,0,0,0,0,0,0,0,0,-1,1266,820,0,0
49,204,0,0,0,0,0,0,0,0,0,-1,1273,820,0,0
56,204,0,0,0,0,0,0,0,0,0,-1,1280,820,0,0
63,204,0,0,0,0,0,0,0,0,0,-1,1287,820,0,0
70,204,0,0,0,0,0,0,0,0,0,-1,1294,820,0,0
77,204,0,0,0,0,0,0,0,0,0,-1,1301,820,0,0
84,204,0,0,0,0,0,0,0,0,0,-1,1308,820,0,0
91,204,0,0,0,0,0,0,0,0,0,-1,1315,820,0,0
98,204,0,0,0,0,0,0,0,0,0,-1,1322,820,0,0
105,204,0,0,0,0,0,0,0,0,0,-1,1329,820,0,0
112,204,0,0,0,0,0,0,0,0,0,-1,1336,820,0,0
119,204,0,0,0,0,0,0,0,0,0,-1,1343,820,0,0
126,204,0,0,0,0,0,0,0,0,0,-1,1350,820,0,0
133,204,0,0,0,0,0,0,0,0,0,-1,1357,820,0,0
140,204,0,0,0,0,0,0,0,0,0,-1,1364,820,0,0
147,204,0,0,0,0,0,0,0,0,0,-1,1371,820,0,0
154,204,0,0,0,0,0,0,0,0,0,-1,1378,820,0,0
161,204,0,0,0,0,0,0,0,0,0,-1,1385,820,0,0
168,204,0,0,0,0,0,0,0,0,0,-1,1392,820,0,0
175,204,0,0,0,0,0,0,0,0,0,-1,1399,820,0,0
182,204,0,0,0,0,0,0,0,0,0,-1,1406,820,0,0
189,204,0,0,0,0,0,0,0,0,0,-1,1413,820,0,0
196,204,0,0,0,0,0,0,0,0,0,-1,1420,820,0,0
203,204,0,0,0,0,0,0,0,0,0,-1,1427,820,0,0
210,204,0,0,0,0,0,0,0,0,0,-1,1434,820,0,0
217,204,0,0,0,0,0,0,0,0,0,-1,1441,820,0,0
224,204,0,0,0,0,0,0,0,0,0,-1,1448,820,0,0
231,204,0,0,0,0,0,0,0,0,0,-1,1455,820,0,0
238,204,0,0,0,0,0,0,0,0,0,-1,1462,820,0,0
245,204,0,0,0,0,0,0,0,0,0,-1,1469,820,0,0
252,204,0,0,0,0,0,0,0,0,0,-1,1476,820,0,0
259,204,0,0,0,0,0,0,0,0,0,-1,1483,820,0,0
266,204,0,0,0,0,0,0,0,0,0,-1,1490,820,0,0
273,204,0,0,0,0,0,0,0,0,0,-1,1497,820,0,0
280,204,0,0,0,0,0,0,0,0,0,-1,1504,820,0,0
287,204,0,0,0,0,0,0,0,0,0,-1,1511,820,0,0
294,204,0,0,0,0,0,0,0,0,0,-1,1518,820,0,0
301,204,0,0,0,0,0,0,0,0,0,-1,1525,820,0,0
308,204,0,0,0,0,0,0,0,0,0,-1,1532,820,0,0
315,204,0,0,0,0,0,0,0,0,0,-1,1539,820,0,0
322,204,0,0,0,0,0,0,0,0,0,-1,1546,820,0,0
329,204,0,0,0,0,0,0,0,0,0,-1,1553,820,0,0
336,204,0,0,0,0,0,0,0,0,0,-1,1560,820,0,0
343,204,0,0,0,0,0,0,0,0,0,-1,1567,820,0,0
350,204,0,0,0,0,0,0,0,0,0,-1,1574,820,0,0
357,204,0,0,0,0,0,0,0,0,0,-1,1581,820,0,0
364,204,0,0,0,0,0,0,0,0,0,-1,1588,820,0,0
371,204,0,0,0,0,0,0,0,0,0,-1,1595,820,0,0
378,204,0,0,0,0,0,0,0,0,0,-1,1602,820,0,0
385,204,0,0,0,0,0,0,0,0,0,-1,1609,820,0,0
392,204,0,0,0,0,0,0,0,0,0,-1,1616,820,0,0
399,204,0,0,0,0,0,0,0,0,0,-1,1623,820,0,0
406,204,0,0,0,0,0,0,0,0,0,-1,1630,820,0,0
413,204,0,0,0,0,0,0,0,0,0,-1,1637,820,0,0
420,204,0,0,0,0,0,0,0,0,0,-1,1644,820,0,0
427,204,0,0,0,0,0,0,0,0,0,-1,1651,820,0,0
434,204,0,0,0,0,0,0,0,0,0,-1,1658,820,0,0
441,204,0,0,0,0,0,0,0,0,0,-1,1665,820,0,0
448,204,0,0,0,0,0,0,0,0,0,-1,1672,820,0,0
455,204,0,0,0,0,0,0,0,0,0,-1,1679,820,0,0
462,204,0,0,0,0,0,0,0,0,0,-1,1686,820,0,0
469,204,0,0,0,0,0,0,0,0,0,-1,1693,820,0,0
476,204,0,0,0,0,0,0,0,0,0,-1,1700,820,0,0
483,204,0,0,0,0,0,0,0,0,0,-1,1707,820,0,0
490,204,0,0,0,0,0,0,0,0,0,-1,1714,820,0,0
497,204,0,0,0,0,0,0,0,0,0,-1,1721,820,0,0
504,204,0,0,0,0,0,0,0,0,0,-1,1728,820,0,0
511,204,0,0,0,0,0,0,0,0,0,-1,1735,820,0,0
518,204,0,0,0,0,0,0,0,0,0,-1,1742,820,0,0
525,204,0,0,0,0,0,0,0,0,0,-1,1749,820,0,0
532,204,0,0,0,0,0,0,0,0,0,-1,1756,820,0,0
539,204,0,0,0,0,0,0,0,0,0,-1,1763,820,0,0
546,204,0,0,0,0,0,0,0,0,0,-1,1770,820,0,0
553,204,0,0,0,0,0,0,0,0,0,-1,1777,820,0,0
560,204,0,0,0,0,0,0,0,0,0,-1,1784,820,0,0
567,204,0,0,0,0,0,0,0,0,0,-1,1791,820,0,0
574,204,0,0,0,0,0,0,0,0,0,-1,1798,820,0,0
581,204,0,0,0,0,0,0,0,0,0,-1,1805,820,0,0
588,204,0,0,0,0,0,0,0,0,0,-1,1812,820,0,0
595,204,0,0,0,0,0,0,0,0,0,-1,1819,820,0,0
602,204,45.2854,2.68127,0.00347268,9.579e-06,-0.00127245,0.00388994,-0.000407682,-0.31687,0.00273932,0.0378616,1826,820,45.2854,-2.68125
609,204,45.2773,2.66376,0.00342059,0.00199604,-0.00227848,0.00509553,0.000321095,-0.633906,0.00329521,0.0400091,1833,820,45.2773,-2.66375
616,204,45.2505,2.60834,0.00330092,0.00320253,-0.00289983,0.00615197,0.000351476,-0.776916,0.00398932,0.0384548,1840,820,45.2505,-2.60835
623,204,45.2776,2.65479,0.00269458,0.00331344,-0.00326666,0.00628529,-0.000277273,-0.832619,0.00428561,0.0293066,1847,820,45.2776,-2.65476
630,204,45.2554,2.69019,0.00184225,0.00302949,-0.00323656,0.00572642,-0.000854677,-0.876095,0.00413208,0.0273927,1854,820,45.2554,-2.69019
637,204,45.1737,2.73425,0.00106437,0.00243607,-0.00304488,0.00487139,-0.00137095,-0.896173,0.00378819,0.0343856,1861,820,45.1737,-2.73424
644,204,45.1726,2.64471,0.000309713,0.00183542,-0.00280208,0.00397663,-0.0018315,-0.9183,0.00342872,0.0400645,1868,820,45.1726,-2.64472
651,204,45.1749,2.57599,0,0,0,0,0,0,0,-1,1875,820,45.1749,-2.57602
658,204,34.9631,1.64844,0,0,0,0,0,0,0,-1,1882,820,34.9631,-1.64842
665,204,21.8292,1.51099,0,0,0,0,0,0,0,-1,1889,820,21.8292,-1.51099
672,204,34.7283,0.399414,0,0,0,0,0,0,0,-1,1896,820,34.7282,-0.399433
679,204,34.4562,0.701721,-0.00188769,-0.00076098,-0.00166068,0.000429301,-0.00307797,-0.948922,0.00220903,0.038336,1903,820,34.4562,-0.701722
686,204,34.4178,1.34491,-0.00220082,-0.00122131,-0.00130041,-0.000321489,-0.00310064,-0.965493,0.0019687,0.0183487,1910,820,34.4179,-1.34491
693,204,34.3691,1.84918,-0.00180029,-0.000377431,-0.00132513,0.000415171,-0.00259289,-1.03175,0.00188231,0.016629,1917,820,34.3692,-1.84921
700,204,34.3995,2.37976,-0.00101898,-0.000237887,-0.00108791,0.000527452,-0.00178432,-0.957728,0.00139891,0.0164947,1924,820,34.3995,-2.37977
707,204,34.3219,2.93622,0.000192793,-6.66144e-05,-0.000668974,0.000744521,-0.000618343,-0.689644,0.000787973,0.0153468,1931,820,34.3219,-2.93619
714,204,34.3252,3.51367,0.00186293,0.000311504,-0.000129983,0.00187374,0.000300689,-0.083012,0.00116197,0.0239104,1938,820,34.3252,-3.51368
721,204,34.338,3.94281,0.00397052,0.000564979,0.000626069,0.00408197,0.00045353,0.176167,0.00258344,0.021851,1945,820,34.338,-3.94284
728,204,34.3193,4.42792,0.00639627,0.00053582,0.00148212,0.00674978,0.000182311,0.234141,0.00444033,0.01378,1952,820,34.3194,-4.42789
735,204,34.2498,4.97021,0.00927173,0.000284457,0.0025425,0.00994114,-0.000384953,0.257446,0.0067594,0.0157125,1959,820,34.2498,-4.97024
742,204,34.2853,5.42383,0.0130506,-0.00063129,0.00391348,0.0140909,-0.00167158,0.259815,0.00999779,0.0308604,1966,820,34.2853,-5.42381
749,204,34.4915,5.89154,0.0180694,-0.00261476,0.00567864,0.0195259,-0.00407122,0.251068,0.0145653,0.0467276,1973,820,34.4915,-5.89156
756,204,34.6594,6.36652,0,0,0,0,0,0,0,-1,1980,820,34.6594,-6.3665
763,204,33.3907,8.75122,0,0,0,0,0,0,0,-1,1987,820,33.3907,-8.75124
770,204,33.6228,9.7973,0,0,0,0,0,0,0,-1,1994,820,33.6228,-9.79728
777,204,0,0,0,0,0,0,0,0,0,-1,2001,820,0,0
784,204,0,0,0,0,0,0,0,0,0,-1,2008,820,0,0
791,204,0,0,0,0,0,0,0,0,0,-1,2015,820,0,0
798,204,0,0,0,0,0,0,0,0,0,-1,2022,820,0,0
805,204,0,0,0,0,0,0,0,0,0,-1,2029,820,0,0
812,204,0,0,0,0,0,0,0,0,0,-1,2036,820,0,0
-700,197,0,0,0,0,0,0,0,0,0,-1,524,827,0,0
-693,197,0,0,0,0,0,0,0,0,0,-1,531,827,0,0
-686,197,0,0,0,0,0,0,0,0,0,-1,538,827,0,0
-679,197,0,0,0,0,0,0,0,0,0,-1,545,827,0,0
-672,197,0,0,0,0,0,0,0,0,0,-1,552,827,0,0
-665,197,0,0,0,0,0,0,0,0,0,-1,559,827,0,0
-658,197,-30.4204,2.35925,0,0,0,0,0,0,0,-1,566,827,-30.4204,-2.35925
-651,197,-30.2333,3.96747,0,0,0,0,0,0,0,-1,573,827,-30.2333,-3.96747
-644,197,-29.4877,5.617,0,0,0,0,0,0,0,-1,580,827,-29.4877,-5.617
-637,197,-25.7267,6.74622,0,0,0,0,0,0,0,-1,587,827,-25.7267,-6.7462
-630,197,-25.3511,5.74207,0,0,0,0,0,0,0,-1,594,827,-25.3511,-5.74205
-623,197,-24.3281,4.09808,0,0,0,0,0,0,0,-1,601,827,-24.3281,-4.0981
-616,197,-24.3975,3.46796,0.0133375,0.0242503,-0.0178423,0.0374519,0.000135947,-0.933789,0.0249227,0.0477288,608,827,-24.3975,-3.46795
-609,197,-24.5099,2.8349,0.00898482,0.0174266,-0.0127141,0.0266021,-0.000190749,-0.945666,0.0177987,0.0341736,615,827,-24.5099,-2.83493
-602,197,-24.6146,2.27075,0.00564351,0.0121387,-0.00886582,0.018333,-0.000550818,-0.96096,0.0124097,0.0183817,622,827,-24.6146,-2.27074
-595,197,-24.641,1.8161,0.00327597,0.00805393,-0.00567703,0.0118242,-0.000494266,-0.984559,0.00805259,0.0187094,629,827,-24.641,-1.81607
-588,197,-24.6424,1.31506,0.00155117,0.00410136,-0.00295205,0.00604192,-0.000389395,-0.989264,0.00416382,0.0199044,636,827,-24.6424,-1.31508
-581,197,-24.6588,0.811829,0.000245841,0.00169628,-0.0008349,0.00207696,-0.000134833,-1.143,0.0014317,0.011964,643,827,-24.6588,-0.811839
-574,197,-24.6631,0.330505,-0.000711696,0.000371395,0.000477242,0.000551675,-0.000891976,1.20961,0.000841175,0.0137039,650,827,-24.6631,-0.330506
-567,197,-24.6292,-0.147705,-0.00112232,-0.000989711,0.00126168,0.000207404,-0.00231944,0.811651,0.00161986,0.015459,657,827,-24.6292,0.147712
-560,197,-24.6155,-0.613037,-0.000618307,-0.00178629,0.00193639,0.000820239,-0.00322484,0.638942,0.00246914,0.0230369,664,827,-24.6155,0.613018
-553,197,-24.9398,-0.994812,-0.00056919,-0.00210263,0.00231829,0.00110588,-0.0037777,0.625697,0.00295685,0.0247529,671,827,-24.9398,0.994806
-546,197,-24.8492,-1.43665,-0.000594569,-0.00221805,0.00225304,0.000988504,-0.00380112,0.612494,0.0029199,0.0385832,678,827,-24.8492,1.43666
-539,197,-24.7832,-1.81726,0,0,0,0,0,0,0,-1,685,827,-24.7832,1.81729
-532,197,-16.0519,0.0410156,0,0,0,0,0,0,0,-1,692,827,-16.0519,-0.0410415
-525,197,-33.4587,0.677856,0,0,0,0,0,0,0,-1,699,827,-33.4587,-0.677857
-518,197,-33.8276,0.854431,0,0,0,0,0,0,0,-1,706,827,-33.8276,-0.854419
-511,197,-33.698,1.02802,0.00145906,-0.00101924,0.000706543,0.00164633,-0.00120652,0.259104,0.00165361,0.0444329,713,827,-33.698,-1.028
-504,197,-33.6909,1.10535,0.00228042,-0.000227522,4.21558e-05,0.00228112,-0.00022823,0.0168026,0.00160225,0.0405073,720,827,-33.6908,-1.10536
-497,197,-33.7374,1.10394,0.00286238,0.00103703,-0.00108258,0.00336567,0.00053374,-0.435174,0.00208872,0.0403009,727,827,-33.7374,-1.10392
-490,197,-33.8797,0.67688,0.00300945,0.00261652,-0.00288228,0.00570196,-7.59873e-05,-0.751369,0.00382688,0.039595,734,827,-33.8797,-0.676869
-483,197,-33.8457,0.620605,0,0,0,0,0,0,0,-1,741,827,-33.8457,-0.62061
-476,197,0,0,0,0,0,0,0,0,0,-1,748,827,0,0
-469,197,0,0,0,0,0,0,0,0,0,-1,755,827,0,0
-462,197,0,0,0,0,0,0,0,0,0,-1,762,827,0,0
-455,197,0,0,0,0,0,0,0,0,0,-1,769,827,0,0
-448,197,0,0,0,0,0,0,0,0,0,-1,776,827,0,0
-441,197,0,0,0,0,0,0,0,0,0,-1,783,827,0,0
-434,197,0,0,0,0,0,0,0,0,0,-1,790,827,0,0
-427,197,0,0,0,0,0,0,0,0,0,-1,797,827,0,0
-420,197,0,0,0,0,0,0,0,0,0,-1,804,827,0,0
-413,197,0,0,0,0,0,0,0,0,0,-1,811,827,0,0
-406,197,0,0,0,0,0,0,0,0,0,-1,818,827,0,0
-399,197,0,0,0,0,0,0,0,0,0,-1,825,827,0,0
-392,197,0,0,0,0,0,0,0,0,0,-1,832,827,0,0
-385,197,0,0,0,0,0,0,0,0,0,-1,839,827,0,0
-378,197,0,0,0,0,0,0,0,0,0,-1,846,827,0,0
-371,197,0,0,0,0,0,0,0,0,0,-1,853,827,0,0
-364,197,0,0,0,0,0,0,0,0,0,-1,860,827,0,0
-357,197,0,0,0,0,0,0,0,0,0,-1,867,827,0,0
-350,197,0,0,0,0,0,0,0,0,0,-1,874,827,0,0
-343,197,0,0,0,0,0,0,0,0,0,-1,881,827,0,0
-336,197,0,0,0,0,0,0,0,0,0,-1,888,827,0,0
-329,197,0,0,0,0,0,0,0,0,0,-1,895,827,0,0
-322,197,0,0,0,0,0,0,0,0,0,-1,902,827,0,0
-315,197,0,0,0,0,0,0,0,0,0,-1,909,827,0,0
-308,197,0,0,0,0,0,0,0,0,0,-1,916,827,0,0
-301,197,0,0,0,0,0,0,0,0,0,-1,923,827,0,0
-294,197,0,0,0,0,0,0,0,0,0,-1,930,827,0,0
-287,197,0,0,0,0,0,0,0,0,0,-1,937,827,0,0
-280,197,0,0,0,0,0,0,0,0,0,-1,944,827,0,0
-273,197,0,0,0,0,0,0,0,0,0,-1,951,827,0,0
-266,197,0,0,0,0,0,0,0,0,0,-1,958,827,0,0
-259,197,0,0,0,0,0,0,0,0,0,-1,965,827,0,0
-252,197,0,0,0,0,0,0,0,0,0,-1,972,827,0,0
-245,197,0,0,0,0,0,0,0,0,0,-1,979,827,0,0
-238,197,0,0,0,0,0,0,0,0,0,-1,986,827,0,0
-231,197,0,0,0,0,0,0,0,0,0,-1,993,827,0,0
-224,197,0,0,0,0,0,0,0,0,0,-1,1000,827,0,0
-217,197,0,0,0,0,0,0,0,0,0,-1,1007,827,0,0
-210,197,0,0,0,0,0,0,0,0,0,-1,1014,827,0,0
-203,197,0,0,0,0,0,0,0,0,0,-1,1021,827,0,0
-196,197,0,0,0,0,0,0,0,0,0,-1,1028,827,0,0
-189,197,0,0,0,0,0,0,0,0,0,-1,1035,827,0,0
-182,197,0,0,0,0,0,0,0,0,0,-1,1042,827,0,0
-175,197,0,0,0,0,0,0,0,0,0,-1,1049,827,0,0
-168,197,0,0,0,0,0,0,0,0,0,-1,1056,827,0,0
-161,197,0,0,0,0,0,0,0,0,0,-1,1063,827,0,0
-154,197,0,0,0,0,0,0,0,0,0,-1,1070,827,0,0
-147,197,0,0,0,0,0,0,0,0,0,-1,1077,827,0,0
-140,197,0,0,0,0,0,0,0,0,0,-1,1084,827,0,0
-133,197,0,0,0,0,0,0,0,0,0,-1,1091,827,0,0
-126,197,0,0,0,0,0,0,0,0,0,-1,1098,827,0,0
-119,197,0,0,0,0,0,0,0,0,0,-1,1105,827,0,0
-112,197,0,0,0,0,0,0,0,0,0,-1,1112,827,0,0
-105,197,0,0,0,0,0,0,0,0,0,-1,1119,827,0,0
-98,197,0,0,0,0,0,0,0,0,0,-1,1126,827,0,0
-91,197,0,0,0,0,0,0,0,0,0,-1,1133,827,0,0
-84,197,0,0,0,0,0,0,0,0,0,-1,1140,827,0,0
-77,197,0,0,0,0,0,0,0,0,0,-1,1147,827,0,0
-70,197,0,0,0,0,0,0,0,0,0,-1,1154,827,0,0
-63,197,0,0,0,0,0,0,0,0,0,-1,1161,827,0,0
-56,197,0,0,0,0,0,0,0,0,0,-1,1168,827,0,0
-49,197,0,0,0,0,0,0,0,0,0,-1,1175,827,0,0
-42,197,0,0,0,0,0,0,0,0,0,-1,1182,827,0,0
-35,197,0,0,0,0,0,0,0,0,0,-1,1189,827,0,0
-28,197,0,0,0,0,0,0,0,0,0,-1,1196,827,0,0
-21,197,0,0,0,0,0,0,0,0,0,-1,1203,827,0,0
-14,197,0,0,0,0,0,0,0,0,0,-1,1210,827,0,0
-7,197,0,0,0,0,0,0,0,0,0,-1,1217,827,0,0
0,197,0,0,0,0,0,0,0,0,0,-1,1224,827,0,0
7,197,0,0,0,0,0,0,0,0,0,-1,1231,827,0,0
14,197,0,0,0,0,0,0,0,0,0,-1,1238,827,0,0
21,197,0,0,0,0,0,0,0,0,0,-1,1245,827,0,0
28,197,0,0,0,0,0,0,0,0,0,-1,1252,827,0,0
35,197,0,0,0,0,0,0,0,0,0,-1,1259,827,0,0
42,197,0,0,0,0,0,0,0,0,0,-1,1266,827,0,0
49,197,0,0,0,0,0,0,0,0,0,-1,1273,827,0,0
56,197,0,0,0,0,0,0,0,0,0,-1,1280,827,0,0
63,197,0,0,0,0,0,0,0,0,0,-1,1287,827,0,0
70,197,0,0,0,0,0,0,0,0,0,-1,1294,827,0,0
77,197,0,0,0,0,0,0,0,0,0,-1,1301,827,0,0
84,197,0,0,0,0,0,0,0,0,0,-1,1308,827,0,0
91,197,0,0,0,0,0,0,0,0,0,-1,1315,827,0,0
98,197,0,0,0,0,0,0,0,0,0,-1,1322,827,0,0
105,197,0,0,0,0,0,0,0,0,0,-1,1329,827,0,0
112,197,0,0,0,0,0,0,0,0,0,-1,1336,827,0,0
119,197,0,0,0,0,0,0,0,0,0,-1,1343,827,0,0
126,197,0,0,0,0,0,0,0,0,0,-1,1350,827,0,0
133,197,0,0,0,0,0,0,0,0,0,-1,1357,827,0,0
140,197,0,0,0,0,0,0,0,0,0,-1,1364,827,0,0
147,197,0,0,0,0,0,0,0,0,0,-1,1371,827,0,0
154,197,0,0,0,0,0,0,0,0,0,-1,1378,827,0,0
161,197,0,0,0,0,0,0,0,0,0,-1,1385,827,0,0
168,197,0,0,0,0,0,0,0,0,0,-1,1392,827,0,0
175,197,0,0,0,0,0,0,0,0,0,-1,1399,827,0,0
182,197,0,0,0,0,0,0,0,0,0,-1,1406,827,0,0
189,197,0,0,0,0,0,0,0,0,0,-1,1413,827,0,0
196,197,0,0,0,0,0,0,0,0,0,-1,1420,827,0,0
203,197,0,0,0,0,0,0,0,0,0,-1,1427,827,0,0
210,197,0,0,0,0,0,0,0,0,0,-1,1434,827,0,0
217,197,0,0,0,0,0,0,0,0,0,-1,1441,827,0,0
224,197,0,0,0,0,0,0,0,0,0,-1,1448,827,0,0
231,197,0,0,0,0,0,0,0,0,0,-1,1455,827,0,0
238,197,0,0,0,0,0,0,0,0,0,-1,1462,827,0,0
245,197,0,0,0,0,0,0,0,0,0,-1,1469,827,0,0
252,197,0,0,0,0,0,0,0,0,0,-1,1476,827,0,0
259,197,0,0,0,0,0,0,0,0,0,-1,1483,827,0,0
266,197,0,0,0,0,0,0,0,0,0,-1,1490,827,0,0
273,197,0,0,0,0,0,0,0,0,0,-1,1497,827,0,0
280,197,0,0,0,0,0,0,0,0,0,-1,1504,827,0,0
287,197,0,0,0,0,0,0,0,0,0,-1,1511,827,0,0
294,197,0,0,0,0,0,0,0,0,0,-1,1518,827,0,0
301,197,0,0,0,0,0,0,0,0,0,-1,1525,827,0,0
308,197,0,0,0,0,0,0,0,0,0,-1,1532,827,0,0
315,197,0,0,0,0,0,0,0,0,0,-1,1539,827,0,0
322,197,0,0,0,0,0,0,0,0,0,-1,1546,827,0,0
329,197,0,0,0,0,0,0,0,0,0,-1,1553,827,0,0
336,197,0,0,0,0,0,0,0,0,0,-1,1560,827,0,0
343,197,0,0,0,0,0,0,0,0,0,-1,1567,827,0,0
350,197,0,0,0,0,0,0,0,0,0,-1,1574,827,0,0
357,197,0,0,0,0,0,0,0,0,0,-1,1581,827,0,0
364,197,0,0,0,0,0,0,0,0,0,-1,1588,827,0,0
371,197,0,0,0,0,0,0,0,0,0,-1,1595,827,0,0
378,197,0,0,0,0,0,0,0,0,0,-1,1602,827,0,0
385,197,0,0,0,0,0,0,0,0,0,-1,1609,827,0,0
392,197,0,0,0,0,0,0,0,0,0,-1,1616,827,0,0
399,197,0,0,0,0,0,0,0,0,0,-1,1623,827,0,0
406,197,0,0,0,0,0,0,0,0,0,-1,1630,827,0,0
413,197,0,0,0,0,0,0,0,0,0,-1,1637,827,0,0
420,197,0,0,0,0,0,0,0,0,0,-1,1644,827,0,0
427,197,0,0,0,0,0,0,0,0,0,-1,1651,827,0,0
434,197,0,0,0,0,0,0,0,0,0,-1,1658,827,0,0
441,197,0,0,0,0,0,0,0,0,0,-1,1665,827,0,0
448,197,0,0,0,0,0,0,0,0,0,-1,1672,827,0,0
455,197,0,0,0,0,0,0,0,0,0,-1,1679,827,0,0
462,197,0,0,0,0,0,0,0,0,0,-1,1686,827,0,0
469,197,0,0,0,0,0,0,0,0,0,-1,1693,827,0,0
476,197,0,0,0,0,0,0,0,0,0,-1,1700,827,0,0
483,197,0,0,0,0,0,0,0,0,0,-1,1707,827,0,0
490,197,0,0,0,0,0,0,0,0,0,-1,1714,827,0,0
497,197,0,0,0,0,0,0,0,0,0,-1,1721,827,0,0
504,197,0,0,0,0,0,0,0,0,0,-1,1728,827,0,0
511,197,0,0,0,0,0,0,0,0,0,-1,1735,827,0,0
518,197,0,0,0,0,0,0,0,0,0,-1,1742,827,0,0
525,197,0,0,0,0,0,0,0,0,0,-1,1749,827,0,0
532,197,0,0,0,0,0,0,0,0,0,-1,1756,827,0,0
539,197,0,0,0,0,0,0,0,0,0,-1,1763,827,0,0
546,197,0,0,0,0,0,0,0,0,0,-1,1770,827,0,0
553,197,0,0,0,0,0,0,0,0,0,-1,1777,827,0,0
560,197,0,0,0,0,0,0,0,0,0,-1,1784,827,0,0
567,197,0,0,0,0,0,0,0,0,0,-1,1791,827,0,0
574,197,0,0,0,0,0,0,0,0,0,-1,1798,827,0,0
581,197,0,0,0,0,0,0,0,0,0,-1,1805,827,0,0
588,197,0,0,0,0,0,0,0,0,0,-1,1812,827,0,0
595,197,0,0,0,0,0,0,0,0,0,-1,1819,827,0,0
602,197,45.1953,2.74292,0.0030341,0.000291999,-0.00108356,0.00341059,-8.4488e-05,-0.334404,0.00230241,0.0405283,1826,827,45.1954,-2.7429
609,197,45.2047,2.69574,0.00257116,0.00203952,-0.00185084,0.00417517,0.000435511,-0.714076,0.00265023,0.0431567,1833,827,45.2047,-2.69574
616,197,45.3756,2.59851,0.00232023,0.00314582,-0.00235248,0.00512144,0.000344604,-0.87225,0.00330542,0.0420323,1840,827,45.3756,-2.59852
623,197,45.332,2.58185,0.00181546,0.00331097,-0.00269381,0.00535888,-0.000232459,-0.920781,0.00365254,0.0372516,1847,827,45.332,-2.58183
630,197,45.2531,2.65155,0.00107985,0.00305352,-0.0027331,0.00497248,-0.000839115,-0.958649,0.00362719,0.0311431,1854,827,45.2531,-2.65155
637,197,45.2012,2.67517,0.000394896,0.0024825,-0.00259214,0.0042331,-0.00135571,-0.976805,0.00336623,0.0286175,1861,827,45.2011,-2.67515
644,197,45.2059,2.65814,-0.000249839,0.00186611,-0.00238417,0.0034165,-0.00180023,-0.99422,0.00305969,0.0344524,1868,827,45.2059,-2.65812
651,197,45.2238,2.65826,0,0,0,0,0,0,0,-1,1875,827,45.2237,-2.65826
658,197,40.4694,3.05927,0,0,0,0,0,0,0,-1,1882,827,40.4694,-3.05926
665,197,14.0618,1.80304,0,0,0,0,0,0,0,-1,1889,827,14.0617,-1.80303
672,197,33.3518,0.135193,0,0,0,0,0,0,0,-1,1896,827,33.3518,-0.135171
679,197,34.8168,0.517456,0,0,0,0,0,0,0,-1,1903,827,34.8168,-0.517441
686,197,34.9338,1.40051,-0.00222557,-0.0010767,-0.00121118,-0.000310631,-0.00299163,-1.00683,0.00189936,0.0308389,1910,827,34.9339,-1.40054
693,197,34.887,1.94116,-0.00186252,-0.000507423,-0.00127424,0.000258204,-0.00262815,-1.02975,0.0018442,0.0178602,1917,827,34.887,-1.94114
700,197,34.8793,2.45422,-0.00124486,-0.000529687,-0.00113648,0.000304139,-0.00207869,-0.937816,0.0014975,0.0222965,1924,827,34.8793,-2.45421
707,197,34.8925,2.95563,-0.000252488,-0.000569604,-0.00086261,0.000466015,-0.00128811,-0.694507,0.00104916,0.00980987,1931,827,34.8924,-2.95565
714,197,34.8391,3.45032,0.0012147,-0.00031417,-0.000499626,0.00136349,-0.000462964,-0.289447,0.0010964,0.0119751,1938,827,34.8391,-3.45033
721,197,34.8267,3.93616,0.00311809,-0.00017097,0.000107837,0.00312162,-0.000174502,0.0327397,0.00214162,0.0118501,1945,827,34.8267,-3.93614
728,197,34.8079,4.4472,0.00533514,-0.000241656,0.000823804,0.00545429,-0.000360803,0.143634,0.00376223,0.0110307,1952,827,34.8078,-4.44721
735,197,34.7731,4.97156,0.00793193,-0.000513344,0.00166114,0.00824692,-0.000828332,0.187397,0.00579383,0.0116527,1959,827,34.7731,-4.97156
742,197,34.7706,5.50897,0.0112681,-0.00128164,0.00270781,0.0118274,-0.00184096,0.203696,0.0085648,0.02107,1966,827,34.7706,-5.50895
749,197,34.8911,6.09644,0.0156747,-0.00288579,0.0040066,0.0165027,-0.00371375,0.20378,0.0124261,0.0449836,1973,827,34.8912,-6.09641
756,197,34.5699,5.92645,0,0,0,0,0,0,0,-1,1980,827,34.5699,-5.92648
763,197,33.9271,8.19739,0,0,0,0,0,0,0,-1,1987,827,33.9272,-8.19739
770,197,34.2562,9.11902,0,0,0,0,0,0,0,-1,1994,827,34.2563,-9.119
777,197,0,0,0,0,0,0,0,0,0,-1,2001,827,0,0
784,197,0,0,0,0,0,0,0,0,0,-1,2008,827,0,0
791,197,0,0,0,0,0,0,0,0,0,-1,2015,827,0,0
798,197,0,0,0,0,0,0,0,0,0,-1,2022,827,0,0
805,197,0,0,0,0,0,0,0,0,0,-1,2029,827,0,0
812,197,0,0,0,0,0,0,0,0,0,-1,2036,827,0,0
-700,190,0,0,0,0,0,0,0,0,0,-1,524,834,0,0
-693,190,0,0,0,0,0,0,0,0,0,-1,531,834,0,0
-686,190,0,0,0,0,0,0,0,0,0,-1,538,834,0,0
-679,190,0,0,0,0,0,0,0,0,0,-1,545,834,0,0
-672,190,0,0,0,0,0,0,0,0,0,-1,552,834,0,0
-665,190,0,0,0,0,0,0,0,0,0,-1,559,834,0,0
-658,190,-30.1389,2.94177,0,0,0,0,0,0,0,-1,566,834,-30.1389,-2.94175
-651,190,-26.9968,5.7478,0,0,0,0,0,0,0,-1,573,834,-26.9968,-5.74781
-644,190,-22.9308,4.65051,0,0,0,0,0,0,0,-1,580,834,-22.9308,-4.65049
-637,190,-26.1625,6.78931,0,0,0,0,0,0,0,-1,587,834,-26.1625,-6.78932
-630,190,-25.7758,5.80328,0.021085,0.0362079,-0.0279106,0.0575632,-0.000270236,-0.917681,0.0384659,0.0498181,594,834,-25.7757,-5.80327
-623,190,-25.376,4.80804,0,0,0,0,0,0,0,-1,601,834,-25.376,-4.80802
-616,190,-24.8745,3.54517,0.0106555,0.0222366,-0.0160536,0.0335121,-0.000619931,-0.958486,0.0225509,0.0444456,608,834,-24.8745,-3.54519
-609,190,-25.0884,2.70038,0.00716996,0.0163972,-0.0112925,0.0239822,-0.000415063,-0.979328,0.0161283,0.0252298,615,834,-25.0885,-2.70038
-602,190,-25.104,2.2644,0.00424846,0.0113676,-0.00762512,0.0162231,-0.000607018,-1.00378,0.0110233,0.0165451,622,834,-25.104,-2.26441
-595,190,-25.1236,1.80048,0.00219378,0.00725613,-0.00455402,0.00993513,-0.000485227,-1.03904,0.00679094,0.0192125,629,834,-25.1236,-1.80045
-588,190,-25.1401,1.3139,0.000791774,0.003307,-0.00194355,0.00436433,-0.000265559,-1.07255,0.00300199,0.0187056,636,834,-25.1401,-1.31388
-581,190,-25.1478,0.828308,-0.000166995,0.00100623,-2.23924e-05,0.00100666,-0.000167422,-1.55172,0.000733313,0.013189,643,834,-25.1478,-0.828321
-574,190,-25.1461,0.346924,-0.000859122,-6.65457e-05,0.00096917,0.000584227,-0.00150989,0.979473,0.00124779,0.0119914,650,834,-25.1461,-0.34691
-567,190,-25.0778,-0.204407,-0.00102264,-0.00121117,0.00145888,0.000345014,-0.00257882,0.753136,0.001845,0.0207802,657,834,-25.0778,0.204422
-560,190,-25.202,-0.590088,-0.000350768,-0.00184239,0.00202258,0.00105912,-0.00325228,0.608761,0.00259432,0.0421724,664,834,-25.202,0.590058
-553,190,-25.6597,-1.04846,0,0,0,0,0,0,0,-1,671,834,-25.6597,1.04849
-546,190,-25.3854,-1.50055,0,0,0,0,0,0,0,-1,678,834,-25.3854,1.50058
-539,190,-16.4624,-0.542542,0,0,0,0,0,0,0,-1,685,834,-16.4624,0.542527
-532,190,-21.6292,2.06122,0,0,0,0,0,0,0,-1,692,834,-21.6292,-2.06123
-525,190,-34.0926,0.589478,0,0,0,0,0,0,0,-1,699,834,-34.0926,-0.58945
-518,190,-33.8889,0.779907,0,0,0,0,0,0,0,-1,706,834,-33.8889,-0.779886
-511,190,-33.6926,0.979858,0.00194221,-0.000925571,1.06063e-05,0.00194225,-0.00092561,0.00369837,0.00169008,0.0415807,713,834,-33.6926,-0.979845
-504,190,-33.4308,1.37256,0.00293988,-0.000174583,-0.000881996,0.00317231,-0.000407012,-0.257669,0.00226278,0.0426505,720,834,-33.4309,-1.37256
-497,190,-34.0922,1.16864,0.00368262,0.00104213,-0.00232679,0.00503763,-0.000312883,-0.527343,0.00346743,0.0482,727,834,-34.0922,-1.16862
-490,190,-33.7706,0.925232,0.0039534,0.00260297,-0.00453938,0.00786751,-0.00131113,-0.711567,0.00573225,0.0441544,734,834,-33.7706,-0.925262
-483,190,0,0,0,0,0,0,0,0,0,-1,741,834,0,0
-476,190,0,0,0,0,0,0,0,0,0,-1,748,834,0,0
-469,190,0,0,0,0,0,0,0,0,0,-1,755,834,0,0
-462,190,0,0,0,0,0,0,0,0,0,-1,762,834,0,0
-455,190,0,0,0,0,0,0,0,0,0,-1,769,834,0,0
-448,190,0,0,0,0,0,0,0,0,0,-1,776,834,0,0
-441,190,0,0,0,0,0,0,0,0,0,-1,783,834,0,0
-434,190,0,0,0,0,0,0,0,0,0,-1,790,834,0,0
-427,190,0,0,0,0,0,0,0,0,0,-1,797,834,0,0
-420,190,0,0,0,0,0,0,0,0,0,-1,804,834,0,0
-413,190,0,0,0,0,0,0,0,0,0,-1,811,834,0,0
-406,190,0,0,0,0,0,0,0,0,0,-1,818,834,0,0
-399,190,0,0,0,0,0,0,0,0,0,-1,825,834,0,0
-392,190,0,0,0,0,0,0,0,0,0,-1,832,834,0,0
-385,190,0,0,0,0,0,0,0,0,0,-1,839,834,0,0
-378,190,0,0,0,0,0,0,0,0,0,-1,846,834,0,0
-371,190,0,0,0,0,0,0,0,0,0,-1,853,834,0,0
-364,190,0,0,0,0,0,0,0,0,0,-1,860,834,0,0
-357,190,0,0,0,0,0,0,0,0,0,-1,867,834,0,0
-350,190,0,0,0,0,0,0,0,0,0,-1,874,834,0,0
-343,190,0,0,0,0,0,0,0,0,0,-1,881,834,0,0
-336,190,0,0,0,0,0,0,0,0,0,-1,888,834,0,0
-329,190,0,0,0,0,0,0,0,0,0,-1,895,834,0,0
-322,190,0,0,0,0,0,0,0,0,0,-1,902,834,0,0
-315,190,0,0,0,0,0,0,0,0,0,-1,909,834,0,0
-308,190,0,0,0,0,0,0,0,0,0,-1,916,834,0,0
-301,190,0,0,0,0,0,0,0,0,0,-1,923,834,0,0
-294,190,0,0,0,0,0,0,0,0,0,-1,930,834,0,0
-287,190,0,0,0,0,0,0,0,0,0,-1,937,834,0,0
-280,190,0,0,0,0,0,0,0,0,0,-1,944,834,0,0
-273,190,0,0,0,0,0,0,0,0,0,-1,951,834,0,0
-266,190,0,0,0,0,0,0,0,0,0,-1,958,834,0,0
-259,190,0,0,0,0,0,0,0,0,0,-1,965,834,0,0
-252,190,0,0,0,0,0,0,0,0,0,-1,972,834,0,0
-245,190,0,0,0,0,0,0,0,0,0,-1,979,834,0,0
-238,190,0,0,0,0,0,0,0,0,0,-1,986,834,0,0
-231,190,0,0,0,0,0,0,0,0,0,-1,993,834,0,0
-224,190,0,0,0,0,0,0,0,0,0,-1,1000,834,0,0
-217,190,0,0,0,0,0,0,0,0,0,-1,1007,834,0,0
-210,190,0,0,0,0,0,0,0,0,0,-1,1014,834,0,0
-203,190,0,0,0,0,0,0,0,0,0,-1,1021,834,0,0
-196,190,0,0,0,0,0,0,0,0,0,-1,1028,834,0,0
-189,190,0,0,0,0,0,0,0,0,0,-1,1035,834,0,0
-182,190,0,0,0,0,0,0,0,0,0,-1,1042,834,0,0
-175,190,0,0,0,0,0,0,0,0,0,-1,1049,834,0,0
-168,190,0,0,0,0,0,0,0,0,0,-1,1056,834,0,0
-161,190,0,0,0,0,0,0,0,0,0,-1,1063,834,0,0
-154,190,0,0,0,0,0,0,0,0,0,-1,1070,834,0,0
-147,190,0,0,0,0,0,0,0,0,0,-1,1077,834,0,0
-140,190,0,0,0,0,0,0,0,0,0,-1,1084,834,0,0
-133,190,0,0,0,0,0,0,0,0,0,-1,1091,834,0,0
-126,190,0,0,0,0,0,0,0,0,0,-1,1098,834,0,0
-119,190,0,0,0,0,0,0,0,0,0,-1,1105,834,0,0
-112,190,0,0,0,0,0,0,0,0,0,-1,1112,834,0,0
-105,190,0,0,0,0,0,0,0,0,0,-1,1119,834,0,0
-98,190,0,0,0,0,0,0,0,0,0,-1,1126,834,0,0
-91,190,0,0,0,0,0,0,0,0,0,-1,1133,834,0,0
-84,190,0,0,0,0,0,0,0,0,0,-1,1140,834,0,0
-77,190,0,0,0,0,0,0,0,0,0,-1,1147,834,0,0
-70,190,0,0,0,0,0,0,0,0,0,-1,1154,834,0,0
-63,190,0,0,0,0,0,0,0,0,0,-1,1161,834,0,0
-56,190,0,0,0,0,0,0,0,0,0,-1,1168,834,0,0
-49,190,0,0,0,0,0,0,0,0,0,-1,1175,834,0,0
-42,190,0,0,0,0,0,0,0,0,0,-1,1182,834,0,0
-35,190,0,0,0,0,0,0,0,0,0,-1,1189,834,0,0
-28,190,0,0,0,0,0,0,0,0,0,-1,1196,834,0,0
-21,190,0,0,0,0,0,0,0,0,0,-1,1203,834,0,0
-14,190,0,0,0,0,0,0,0,0,0,-1,1210,834,0,0
-7,190,0,0,0,0,0,0,0,0,0,-1,1217,834,0,0
0,190,0,0,0,0,0,0,0,0,0,-1,1224,834,0,0
7,190,0,0,0,0,0,0,0,0,0,-1,1231,834,0,0
14,190,0,0,0,0,0,0,0,0,0,-1,1238,834,0,0
21,190,0,0,0,0,0,0,0,0,0,-1,1245,834,0,0
28,190,0,0,0,0,0,0,0,0,0,-1,1252,834,0,0
35,190,0,0,0,0,0,0,0,0,0,-1,1259,834,0,0
42,190,0,0,0,0,0,0,0,0,0,-1,1266,834,0,0
49,190,0,0,0,0,0,0,0,0,0,-1,1273,834,0,0
56,190,0,0,0,0,0,0,0,0,0,-1,1280,834,0,0
63,190,0,0,0,0,0,0,0,0,0,-1,1287,834,0,0
70,190,0,0,0,0,0,0,0,0,0,-1,1294,834,0,0
77,190,0,0,0,0,0,0,0,0,0,-1,1301,834,0,0
84,190,0,0,0,0,0,0,0,0,0,-1,1308,834,0,0
91,190,0,0,0,0,0,0,0,0,0,-1,1315,834,0,0
98,190,0,0,0,0,0,0,0,0,0,-1,1322,834,0,0
105,190,0,0,0,0,0,0,0,0,0,-1,1329,834,0,0
112,190,0,0,0,0,0,0,0,0,0,-1,1336,834,0,0
119,190,0,0,0,0,0,0,0,0,0,-1,1343,834,0,0
126,190,0,0,0,0,0,0,0,0,0,-1,1350,834,0,0
133,190,0,0,0,0,0,0,0,0,0,-1,1357,834,0,0
140,190,0,0,0,0,0,0,0,0,0,-1,1364,834,0,0
147,190,0,0,0,0,0,0,0,0,0,-1,1371,834,0,0
154,190,0,0,0,0,0,0,0,0,0,-1,1378,834,0,0
161,190,0,0,0,0,0,0,0,0,0,-1,1385,834,0,0
168,190,0,0,0,0,0,0,0,0,0,-1,1392,834,0,0
175,190,0,0,0,0,0,0,0,0,0,-1,1399,834,0,0
182,190,0,0,0,0,0,0,0,0,0,-1,1406,834,0,0
189,190,0,0,0,0,0,0,0,0,0,-1,1413,834,0,0
196,190,0,0,0,0,0,0,0,0,0,-1,1420,834,0,0
203,190,0,0,0,0,0,0,0,0,0,-1,1427,834,0,0
210,190,0,0,0,0,0,0,0,0,0,-1,1434,834,0,0
217,190,0,0,0,0,0,0,0,0,0,-1,1441,834,0,0
224,190,0,0,0,0,0,0,0,0,0,-1,1448,834,0,0
231,190,0,0,0,0,0,0,0,0,0,-1,1455,834,0,0
238,190,0,0,0,0,0,0,0,0,0,-1,1462,834,0,0
245,190,0,0,0,0,0,0,0,0,0,-1,1469,834,0,0
252,190,0,0,0,0,0,0,0,0,0,-1,1476,834,0,0
259,190,0,0,0,0,0,0,0,0,0,-1,1483,834,0,0
266,190,0,0,0,0,0,0,0,0,0,-1,1490,834,0,0
273,190,0,0,0,0,0,0,0,0,0,-1,1497,834,0,0
280,190,0,0,0,0,0,0,0,0,0,-1,1504,834,0,0
287,190,0,0,0,0,0,0,0,0,0,-1,1511,834,0,0
294,190,0,0,0,0,0,0,0,0,0,-1,1518,834,0,0
301,190,0,0,0,0,0,0,0,0,0,-1,1525,834,0,0
308,190,0,0,0,0,0,0,0,0,0,-1,1532,834,0,0
315,190,0,0,0,0,0,0,0,0,0,-1,1539,834,0,0
322,190,0,0,0,0,0,0,0,0,0,-1,1546,834,0,0
329,190,0,0,0,0,0,0,0,0,0,-1,1553,834,0,0
336,190,0,0,0,0,0,0,0,0,0,-1,1560,834,0,0
343,190,0,0,0,0,0,0,0,0,0,-1,1567,834,0,0
350,190,0,0,0,0,0,0,0,0,0,-1,1574,834,0,0
357,190,0,0,0,0,0,0,0,0,0,-1,1581,834,0,0
364,190,0,0,0,0,0,0,0,0,0,-1,1588,834,0,0
371,190,0,0,0,0,0,0,0,0,0,-1,1595,834,0,0
378,190,0,0,0,0,0,0,0,0,0,-1,1602,834,0,0
385,190,0,0,0,0,0,0,0,0,0,-1,1609,834,0,0
392,190,0,0,0,0,0,0,0,0,0,-1,1616,834,0,0
399,190,0,0,0,0,0,0,0,0,0,-1,1623,834,0,0
406,190,0,0,0,0,0,0,0,0,0,-1,1630,834,0,0
413,190,0,0,0,0,0,0,0,0,0,-1,1637,834,0,0
420,190,0,0,0,0,0,0,0,0,0,-1,1644,834,0,0
427,190,0,0,0,0,0,0,0,0,0,-1,1651,834,0,0
434,190,0,0,0,0,0,0,0,0,0,-1,1658,834,0,0
441,190,0,0,0,0,0,0,0,0,0,-1,1665,834,0,0
448,190,0,0,0,0,0,0,0,0,0,-1,1672,834,0,0
455,190,0,0,0,0,0,0,0,0,0,-1,1679,834,0,0
462,190,0,0,0,0,0,0,0,0,0,-1,1686,834,0,0
469,190,0,0,0,0,0,0,0,0,0,-1,1693,834,0,0
476,190,0,0,0,0,0,0,0,0,0,-1,1700,834,0,0
483,190,0,0,0,0,0,0,0,0,0,-1,1707,834,0,0
490,190,0,0,0,0,0,0,0,0,0,-1,1714,834,0,0
497,190,0,0,0,0,0,0,0,0,0,-1,1721,834,0,0
504,190,0,0,0,0,0,0,0,0,0,-1,1728,834,0,0
511,190,0,0,0,0,0,0,0,0,0,-1,1735,834,0,0
518,190,0,0,0,0,0,0,0,0,0,-1,1742,834,0,0
525,190,0,0,0,0,0,0,0,0,0,-1,1749,834,0,0
532,190,0,0,0,0,0,0,0,0,0,-1,1756,834,0,0
539,190,0,0,0,0,0,0,0,0,0,-1,1763,834,0,0
546,190,0,0,0,0,0,0,0,0,0,-1,1770,834,0,0
553,190,0,0,0,0,0,0,0,0,0,-1,1777,834,0,0
560,190,0,0,0,0,0,0,0,0,0,-1,1784,834,0,0
567,190,0,0,0,0,0,0,0,0,0,-1,1791,834,0,0
574,190,0,0,0,0,0,0,0,0,0,-1,1798,834,0,0
581,190,0,0,0,0,0,0,0,0,0,-1,1805,834,0,0
588,190,0,0,0,0,0,0,0,0,0,-1,1812,834,0,0
595,190,0,0,0,0,0,0,0,0,0,-1,1819,834,0,0
602,190,45.0425,2.8205,0.00289632,0.00169858,-0.00113198,0.00357808,0.00101682,-0.54209,0.00212899,0.0434026,1826,834,45.0424,-2.82053
609,190,45.1571,2.82446,0.00228326,0.00295549,-0.001679,0.00433169,0.00090707,-0.884186,0.00263794,0.0429142,1833,834,45.1571,-2.82446
616,190,45.3103,2.70892,0.00193226,0.00360532,-0.00201878,0.00495403,0.000583548,-0.981816,0.00312638,0.040537,1840,834,45.3102,-2.70893
623,190,45.1631,2.95355,0,0,0,0,0,0,0,-1,1847,834,45.1631,-2.95357
630,190,45.2117,2.7981,0.000664676,0.00317899,-0.00226249,0.00451014,-0.00066647,-1.03898,0.00325176,0.0412372,1854,834,45.2116,-2.79807
637,190,45.1813,2.70239,-4.14398e-05,0.00258069,-0.0021382,0.00377777,-0.00123852,-1.06042,0.00301731,0.0352617,1861,834,45.1813,-2.70239
644,190,45.1627,2.76746,-0.000668505,0.00193748,-0.00195283,0.0029821,-0.00171313,-1.0796,0.0027436,0.0297046,1868,834,45.1627,-2.76747
651,190,45.1725,2.7887,-0.00112202,0.0013082,-0.00175954,0.00223142,-0.00204524,-1.08759,0.00246991,0.0422698,1875,834,45.1725,-2.78867
658,190,45.1959,2.81628,0,0,0,0,0,0,0,-1,1882,834,45.1959,-2.81627
665,190,25.9916,3.05157,0,0,0,0,0,0,0,-1,1889,834,25.9916,-3.05156
672,190,27.2662,1.70862,0,0,0,0,0,0,0,-1,1896,834,27.2662,-1.70861
679,190,35.4911,1.11609,0,0,0,0,0,0,0,-1,1903,834,35.4911,-1.11606
686,190,35.4037,1.52014,-0.00245844,-0.000753261,-0.00102552,-0.000272212,-0.00293949,-1.13219,0.00187552,0.0255489,1910,834,35.4036,-1.52015
693,190,35.4398,1.97827,-0.00211973,-0.000349706,-0.00111784,0.00019105,-0.00266048,-1.12023,0.00184065,0.0174634,1917,834,35.4398,-1.97828
700,190,35.3667,2.46948,-0.00162688,-0.000392837,-0.00105862,0.000215456,-0.00223518,-1.04926,0.00156688,0.0129822,1924,834,35.3666,-2.4695
707,190,35.3658,2.96375,-0.00084185,-0.000531811,-0.00089914,0.000225575,-0.00159924,-0.870763,0.00114875,0.0136094,1931,834,35.3658,-2.96377
714,190,35.3579,3.44226,0.000447713,-0.000384441,-0.000709252,0.000853924,-0.000790652,-0.520128,0.000949731,0.0124373,1938,834,35.3579,-3.44226
721,190,35.3395,3.94617,0.00216552,-0.000362104,-0.00028532,0.00219732,-0.000393911,-0.11102,0.00161231,0.0108747,1945,834,35.3395,-3.9462
728,190,35.3142,4.44415,0.00418516,-0.000474341,0.00025908,0.00419952,-0.000488703,0.0553749,0.00297599,0.0125048,1952,834,35.3142,-4.44418
735,190,35.3086,4.93909,0.00656322,-0.000758123,0.000863287,0.00666363,-0.00085854,0.115798,0.00475451,0.0124943,1959,834,35.3086,-4.93907
742,190,35.2725,5.48755,0.00955105,-0.00142645,0.00158397,0.00977503,-0.00165043,0.140476,0.00713079,0.0165932,1966,834,35.2724,-5.48757
749,190,34.8792,5.76221,0,0,0,0,0,0,0,-1,1973,834,34.8791,-5.76221
756,190,35.4143,6.0296,0,0,0,0,0,0,0,-1,1980,834,35.4143,-6.0296
763,190,35.9495,6.297,0,0,0,0,0,0,0,-1,1987,834,35.9494,-6.297
770,190,34.1694,8.19507,0,0,0,0,0,0,0,-1,1994,834,34.1694,-8.19508
777,190,34.9115,4.44727,0,0,0,0,0,0,0,-1,2001,834,34.9115,-4.44725
784,190,0,0,0,0,0,0,0,0,0,-1,2008,834,0,0
791,190,0,0,0,0,0,0,0,0,0,-1,2015,834,0,0
798,190,0,0,0,0,0,0,0,0,0,-1,2022,834,0,0
805,190,0,0,0,0,0,0,0,0,0,-1,2029,834,0,0
812,190,0,0,0,0,0,0,0,0,0,-1,2036,834,0,0
-700,183,0,0,0,0,0,0,0,0,0,-1,524,841,0,0
-693,183,0,0,0,0,0,0,0,0,0,-1,531,841,0,0
-686,183,0,0,0,0,0,0,0,0,0,-1,538,841,0,0
-679,183,0,0,0,0,0,0,0,0,0,-1,545,841,0,0
-672,183,0,0,0,0,0,0,0,0,0,-1,552,841,0,0
-665,183,0,0,0,0,0,0,0,0,0,-1,559,841,0,0
-658,183,-28.5403,5.31598,0,0,0,0,0,0,0,-1,566,841,-28.5403,-5.31601
-651,183,-27.9584,5.27997,0,0,0,0,0,0,0,-1,573,841,-27.9584,-5.27997
-644,183,-27.1913,7.47778,0,0,0,0,0,0,0,-1,580,841,-27.1913,-7.47779
-637,183,-26.6554,6.6579,0.0161463,0.0324305,-0.0308803,0.0562241,-0.00764725,-0.914299,0.0402745,0.0492174,587,841,-26.6554,-6.65787
-630,183,-26.1517,5.86389,0.0133275,0.0279578,-0.0248012,0.0465002,-0.00521488,-0.928807,0.0328766,0.047053,594,841,-26.1517,-5.86387
-623,183,-25.3961,3.88843,0,0,0,0,0,0,0,-1,601,841,-25.396,-3.88845
-616,183,-25.4828,3.31055,0.00753451,0.0192218,-0.0142061,0.0287392,-0.00198291,-0.980523,0.0198535,0.0389528,608,841,-25.4828,-3.31057
-609,183,-25.574,2.73169,0.00522679,0.0147174,-0.00974898,0.0208146,-0.000870436,-1.01189,0.0141755,0.0170882,615,841,-25.574,-2.73169
-602,183,-25.5771,2.28052,0.00298129,0.0102166,-0.00624147,0.0138131,-0.000615159,-1.04805,0.00942047,0.0110331,622,841,-25.5771,-2.28051
-595,183,-25.5945,1.78339,0.00137048,0.00632741,-0.00329698,0.00797361,-0.000275714,-1.1077,0.00540998,0.0105514,629,841,-25.5945,-1.78337
-588,183,-25.6006,1.29309,0.000184118,0.00250873,-0.00090743,0.002821,-0.000128156,-1.23936,0.00192481,0.0129649,636,841,-25.6007,-1.29308
-581,183,-25.6346,0.836792,-0.00051017,0.000403211,0.000691404,0.000775137,-0.000882097,1.07727,0.000957468,0.0142888,643,841,-25.6346,-0.836771
-574,183,-25.6407,0.38855,-0.00102715,-0.000417939,0.00130062,0.000613265,-0.00205836,0.900426,0.00161593,0.0140943,650,841,-25.6407,-0.388563
-567,183,-25.4772,-0.136658,-0.00105693,-0.00143986,0.00154027,0.000303731,-0.00280053,0.723562,0.00197606,0.0417024,657,841,-25.4772,0.136646
-560,183,-25.7451,-0.53772,-0.000345785,-0.00200147,0.00210325,0.00108668,-0.00343393,0.59791,0.00272473,0.0471598,664,841,-25.7451,0.537726
-553,183,-26.0853,-1.23743,0,0,0,0,0,0,0,-1,671,841,-26.0853,1.2374
-546,183,-23.2448,-1.43811,0,0,0,0,0,0,0,-1,678,841,-23.2448,1.43813
-539,183,-16.8032,-0.417297,0,0,0,0,0,0,0,-1,685,841,-16.8032,0.41732
-532,183,-29.9686,0.953613,0,0,0,0,0,0,0,-1,692,841,-29.9686,-0.953627
-525,183,-33.5478,1.25665,0,0,0,0,0,0,0,-1,699,841,-33.5478,-1.25664
-518,183,-34.1501,0.22876,0,0,0,0,0,0,0,-1,706,841,-34.1501,-0.228752
-511,183,-33.7462,0.858887,0.00137071,-0.0011533,-0.000132409,0.00137764,-0.00116023,-0.0522684,0.00146703,0.0378971,713,841,-33.7462,-0.85888
-504,183,-33.5657,1.22797,0.0022654,-0.000407617,-0.00119062,0.00271882,-0.000861031,-0.363866,0.00215761,0.0392485,720,841,-33.5658,-1.22796
-497,183,-34.0001,1.24011,0.00291175,0.000754112,-0.00286253,0.00489201,-0.00122614,-0.605191,0.00373771,0.0449916,727,841,-34.0001,-1.24011
-490,183,-33.6648,0.783264,0.00336063,0.00215573,-0.00544735,0.00823874,-0.00272238,-0.730325,0.00659014,0.0406705,734,841,-33.6648,-0.783281
-483,183,0,0,0,0,0,0,0,0,0,-1,741,841,0,0
-476,183,0,0,0,0,0,0,0,0,0,-1,748,841,0,0
-469,183,0,0,0,0,0,0,0,0,0,-1,755,841,0,0
-462,183,0,0,0,0,0,0,0,0,0,-1,762,841,0,0
-455,183,0,0,0,0,0,0,0,0,0,-1,769,841,0,0
-448,183,0,0,0,0,0,0,0,0,0,-1,776,841,0,0
-441,183,0,0,0,0,0,0,0,0,0,-1,783,841,0,0
-434,183,0,0,0,0,0,0,0,0,0,-1,790,841,0,0
-427,183,0,0,0,0,0,0,0,0,0,-1,797,841,0,0
-420,183,0,0,0,0,0,0,0,0,0,-1,804,841,0,0
-413,183,0,0,0,0,0,0,0,0,0,-1,811,841,0,0
-406,183,0,0,0,0,0,0,0,0,0,-1,818,841,0,0
-399,183,0,0,0,0,0,0,0,0,0,-1,825,841,0,0
-392,183,0,0,0,0,0,0,0,0,0,-1,832,841,0,0
-385,183,0,0,0,0,0,0,0,0,0,-1,839,841,0,0
-378,183,0,0,0,0,0,0,0,0,0,-1,846,841,0,0
-371,183,0,0,0,0,0,0,0,0,0,-1,853,841,0,0
-364,183,0,0,0,0,0,0,0,0,0,-1,860,841,0,0
-357,183,0,0,0,0,0,0,0,0,0,-1,867,841,0,0
-350,183,0,0,0,0,0,0,0,0,0,-1,874,841,0,0
-343,183,0,0,0,0,0,0,0,0,0,-1,881,841,0,0
-336,183,0,0,0,0,0,0,0,0,0,-1,888,841,0,0
-329,183,0,0,0,0,0,0,0,0,0,-1,895,841,0,0
-322,183,0,0,0,0,0,0,0,0,0,-1,902,841,0,0
-315,183,0,0,0,0,0,0,0,0,0,-1,909,841,0,0
-308,183,0,0,0,0,0,0,0,0,0,-1,916,841,0,0
-301,183,0,0,0,0,0,0,0,0,0,-1,923,841,0,0
-294,183,0,0,0,0,0,0,0,0,0,-1,930,841,0,0
-287,183,0,0,0,0,0,0,0,0,0,-1,937,841,0,0
-280,183,0,0,0,0,0,0,0,0,0,-1,944,841,0,0
-273,183,0,0,0,0,0,0,0,0,0,-1,951,841,0,0
-266,183,0,0,0,0,0,0,0,0,0,-1,958,841,0,0
-259,183,0,0,0,0,0,0,0,0,0,-1,965,841,0,0
-252,183,0,0,0,0,0,0,0,0,0,-1,972,841,0,0
-245,183,0,0,0,0,0,0,0,0,0,-1,979,841,0,0
-238,183,0,0,0,0,0,0,0,0,0,-1,986,841,0,0
-231,183,0,0,0,0,0,0,0,0,0,-1,993,841,0,0
-224,183,0,0,0,0,0,0,0,0,0,-1,1000,841,0,0
-217,183,0,0,0,0,0,0,0,0,0,-1,1007,841,0,0
-210,183,0,0,0,0,0,0,0,0,0,-1,1014,841,0,0
-203,183,0,0,0,0,0,0,0,0,0,-1,1021,841,0,0
-196,183,0,0,0,0,0,0,0,0,0,-1,1028,841,0,0
-189,183,0,0,0,0,0,0,0,0,0,-1,1035,841,0,0
-182,183,0,0,0,0,0,0,0,0,0,-1,1042,841,0,0
-175,183,0,0,0,0,0,0,0,0,0,-1,1049,841,0,0
-168,183,0,0,0,0,0,0,0,0,0,-1,1056,841,0,0
-161,183,0,0,0,0,0,0,0,0,0,-1,1063,841,0,0
-154,183,0,0,0,0,0,0,0,0,0,-1,1070,841,0,0
-147,183,0,0,0,0,0,0,0,0,0,-1,1077,841,0,0
-140,183,0,0,0,0,0,0,0,0,0,-1,1084,841,0,0
-133,183,0,0,0,0,0,0,0,0,0,-1,1091,841,0,0
-126,183,0,0,0,0,0,0,0,0,0,-1,1098,841,0,0
-119,183,0,0,0,0,0,0,0,0,0,-1,1105,841,0,0
-112,183,0,0,0,0,0,0,0,0,0,-1,1112,841,0,0
-105,183,0,0,0,0,0,0,0,0,0,-1,1119,841,0,0
-98,183,0,0,0,0,0,0,0,0,0,-1,1126,841,0,0
-91,183,0,0,0,0,0,0,0,0,0,-1,1133,841,0,0
-84,183,0,0,0,0,0,0,0,0,0,-1,1140,841,0,0
-77,183,0,0,0,0,0,0,0,0,0,-1,1147,841,0,0
-70,183,0,0,0,0,0,0,0,0,0,-1,1154,841,0,0
-63,183,0,0,0,0,0,0,0,0,0,-1,1161,841,0,0
-56,183,0,0,0,0,0,0,0,0,0,-1,1168,841,0,0
-49,183,0,0,0,0,0,0,0,0,0,-1,1175,841,0,0
-42,183,0,0,0,0,0,0,0,0,0,-1,1182,841,0,0
-35,183,0,0,0,0,0,0,0,0,0,-1,1189,841,0,0
-28,183,0,0,0,0,0,0,0,0,0,-1,1196,841,0,0
-21,183,0,0,0,0,0,0,0,0,0,-1,1203,841,0,0
-14,183,0,0,0,0,0,0,0,0,0,-1,1210,841,0,0
-7,183,0,0,0,0,0,0,0,0,0,-1,1217,841,0,0
0,183,0,0,0,0,0,0,0,0,0,-1,1224,841,0,0
7,183,0,0,0,0,0,0,0,0,0,-1,1231,841,0,0
14,183,0,0,0,0,0,0,0,0,0,-1,1238,841,0,0
21,183,0,0,0,0,0,0,0,0,0,-1,1245,841,0,0
28,183,0,0,0,0,0,0,0,0,0,-1,1252,841,0,0
35,183,0,0,0,0,0,0,0,0,0,-1,1259,841,0,0
42,183,0,0,0,0,0,0,0,0,0,-1,1266,841,0,0
49,183,0,0,0,0,0,0,0,0,0,-1,1273,841,0,0
56,183,0,0,0,0,0,0,0,0,0,-1,1280,841,0,0
63,183,0,0,0,0,0,0,0,0,0,-1,1287,841,0,0
70,183,0,0,0,0,0,0,0,0,0,-1,1294,841,0,0
77,183,0,0,0,0,0,0,0,0,0,-1,1301,841,0,0
84,183,0,0,0,0,0,0,0,0,0,-1,1308,841,0,0
91,183,0,0,0,0,0,0,0,0,0,-1,1315,841,0,0
98,183,0,0,0,0,0,0,0,0,0,-1,1322,841,0,0
105,183,0,0,0,0,0,0,0,0,0,-1,1329,841,0,0
112,183,0,0,0,0,0,0,0,0,0,-1,1336,841,0,0
119,183,0,0,0,0,0,0,0,0,0,-1,1343,841,0,0
126,183,0,0,0,0,0,0,0,0,0,-1,1350,841,0,0
133,183,0,0,0,0,0,0,0,0,0,-1,1357,841,0,0
140,183,0,0,0,0,0,0,0,0,0,-1,1364,841,0,0
147,183,0,0,0,0,0,0,0,0,0,-1,1371,841,0,0
154,183,0,0,0,0,0,0,0,0,0,-1,1378,841,0,0
161,183,0,0,0,0,0,0,0,0,0,-1,1385,841,0,0
168,183,0,0,0,0,0,0,0,0,0,-1,1392,841,0,0
175,183,0,0,0,0,0,0,0,0,0,-1,1399,841,0,0
182,183,0,0,0,0,0,0,0,0,0,-1,1406,841,0,0
189,183,0,0,0,0,0,0,0,0,0,-1,1413,841,0,0
196,183,0,0,0,0,0,0,0,0,0,-1,1420,841,0,0
203,183,0,0,0,0,0,0,0,0,0,-1,1427,841,0,0
210,183,0,0,0,0,0,0,0,0,0,-1,1434,841,0,0
217,183,0,0,0,0,0,0,0,0,0,-1,1441,841,0,0
224,183,0,0,0,0,0,0,0,0,0,-1,1448,841,0,0
231,183,0,0,0,0,0,0,0,0,0,-1,1455,841,0,0
238,183,0,0,0,0,0,0,0,0,0,-1,1462,841,0,0
245,183,0,0,0,0,0,0,0,0,0,-1,1469,841,0,0
252,183,0,0,0,0,0,0,0,0,0,-1,1476,841,0,0
259,183,0,0,0,0,0,0,0,0,0,-1,1483,841,0,0
266,183,0,0,0,0,0,0,0,0,0,-1,1490,841,0,0
273,183,0,0,0,0,0,0,0,0,0,-1,1497,841,0,0
280,183,0,0,0,0,0,0,0,0,0,-1,1504,841,0,0
287,183,0,0,0,0,0,0,0,0,0,-1,1511,841,0,0
294,183,0,0,0,0,0,0,0,0,0,-1,1518,841,0,0
301,183,0,0,0,0,0,0,0,0,0,-1,1525,841,0,0
308,183,0,0,0,0,0,0,0,0,0,-1,1532,841,0,0
315,183,0,0,0,0,0,0,0,0,0,-1,1539,841,0,0
322,183,0,0,0,0,0,0,0,0,0,-1,1546,841,0,0
329,183,0,0,0,0,0,0,0,0,0,-1,1553,841,0,0
336,183,0,0,0,0,0,0,0,0,0,-1,1560,841,0,0
343,183,0,0,0,0,0,0,0,0,0,-1,1567,841,0,0
350,183,0,0,0,0,0,0,0,0,0,-1,1574,841,0,0
357,183,0,0,0,0,0,0,0,0,0,-1,1581,841,0,0
364,183,0,0,0,0,0,0,0,0,0,-1,1588,841,0,0
371,183,0,0,0,0,0,0,0,0,0,-1,1595,841,0,0
378,183,0,0,0,0,0,0,0,0,0,-1,1602,841,0,0
385,183,0,0,0,0,0,0,0,0,0,-1,1609,841,0,0
392,183,0,0,0,0,0,0,0,0,0,-1,1616,841,0,0
399,183,0,0,0,0,0,0,0,0,0,-1,1623,841,0,0
406,183,0,0,0,0,0,0,0,0,0,-1,1630,841,0,0
413,183,0,0,0,0,0,0,0,0,0,-1,1637,841,0,0
420,183,0,0,0,0,0,0,0,0,0,-1,1644,841,0,0
427,183,0,0,0,0,0,0,0,0,0,-1,1651,841,0,0
434,183,0,0,0,0,0,0,0,0,0,-1,1658,841,0,0
441,183,0,0,0,0,0,0,0,0,0,-1,1665,841,0,0
448,183,0,0,0,0,0,0,0,0,0,-1,1672,841,0,0
455,183,0,0,0,0,0,0,0,0,0,-1,1679,841,0,0
462,183,0,0,0,0,0,0,0,0,0,-1,1686,841,0,0
469,183,0,0,0,0,0,0,0,0,0,-1,1693,841,0,0
476,183,0,0,0,0,0,0,0,0,0,-1,1700,841,0,0
483,183,0,0,0,0,0,0,0,0,0,-1,1707,841,0,0
490,183,0,0,0,0,0,0,0,0,0,-1,1714,841,0,0
497,183,0,0,0,0,0,0,0,0,0,-1,1721,841,0,0
504,183,0,0,0,0,0,0,0,0,0,-1,1728,841,0,0
511,183,0,0,0,0,0,0,0,0,0,-1,1735,841,0,0
518,183,0,0,0,0,0,0,0,0,0,-1,1742,841,0,0
525,183,0,0,0,0,0,0,0,0,0,-1,1749,841,0,0
532,183,0,0,0,0,0,0,0,0,0,-1,1756,841,0,0
539,183,0,0,0,0,0,0,0,0,0,-1,1763,841,0,0
546,183,0,0,0,0,0,0,0,0,0,-1,1770,841,0,0
553,183,0,0,0,0,0,0,0,0,0,-1,1777,841,0,0
560,183,0,0,0,0,0,0,0,0,0,-1,1784,841,0,0
567,183,0,0,0,0,0,0,0,0,0,-1,1791,841,0,0
574,183,0,0,0,0,0,0,0,0,0,-1,1798,841,0,0
581,183,0,0,0,0,0,0,0,0,0,-1,1805,841,0,0
588,183,0,0,0,0,0,0,0,0,0,-1,1812,841,0,0
595,183,0,0,0,0,0,0,0,0,0,-1,1819,841,0,0
602,183,0,0,0,0,0,0,0,0,0,-1,1826,841,0,0
609,183,45.3063,2.78253,0.00274568,0.00356569,-0.00129069,0.00450994,0.00180144,-0.939189,0.00262131,0.0403524,1833,841,45.3063,-2.78251
616,183,45.2798,2.70844,0.00232336,0.00376749,-0.00148812,0.00469947,0.00139137,-1.01127,0.00278745,0.0378601,1840,841,45.2798,-2.70845
623,183,45.1935,2.68555,0.0016516,0.00356959,-0.00155216,0.00443511,0.000786077,-1.06212,0.00273267,0.0406672,1847,841,45.1935,-2.68552
630,183,45.2465,2.7132,0.000745614,0.00310792,-0.00160892,0.0039227,-6.91693e-05,-1.10203,0.00263849,0.0408238,1854,841,45.2464,-2.71322
637,183,45.1805,2.76074,-0.000129324,0.00256059,-0.00152409,0.0032483,-0.000817039,-1.14692,0.0024831,0.0361031,1861,841,45.1805,-2.76073
644,183,45.1378,2.82422,-0.000845184,0.00195464,-0.00139595,0.0025317,-0.00142225,-1.17881,0.00231257,0.0300221,1868,841,45.1378,-2.82419
651,183,45.1812,2.7373,-0.00131976,0.00136597,-0.00127166,0.00187253,-0.00182633,-1.19171,0.00213559,0.0264932,1875,841,45.1812,-2.73732
658,183,45.322,2.5506,0,0,0,0,0,0,0,-1,1882,841,45.322,-2.5506
665,183,38.4337,2.66992,0,0,0,0,0,0,0,-1,1889,841,38.4337,-2.6699
672,183,29.168,1.54572,0,0,0,0,0,0,0,-1,1896,841,29.168,-1.54574
679,183,36.1141,1.12775,0,0,0,0,0,0,0,-1,1903,841,36.1141,-1.12772
686,183,36.0437,1.54474,-0.00245619,-0.000358693,-0.000828146,-7.11411e-05,-0.00274374,-1.2366,0.00180592,0.0278303,1910,841,36.0437,-1.54472
693,183,36.0126,1.99805,-0.00210669,-5.69798e-05,-0.00097362,0.000331764,-0.00249543,-1.19091,0.00178452,0.0241877,1917,841,36.0126,-1.99805
700,183,35.8916,2.50391,-0.00166096,-0.000105128,-0.000960903,0.000353277,-0.00211936,-1.12567,0.0015442,0.0213024,1924,841,35.8915,-2.5039
707,183,35.8483,2.99701,-0.000997961,-0.000304542,-0.000873671,0.0002887,-0.0015912,-0.974289,0.00116898,0.0124398,1931,841,35.8483,-2.99703
714,183,35.8508,3.46088,0.000169436,-0.000215913,-0.000837897,0.000836526,-0.000883003,-0.672388,0.000992891,0.0168925,1938,841,35.8509,-3.46088
721,183,35.8485,3.93903,0.00172901,-0.000264369,-0.000603862,0.00189767,-0.000433028,-0.272361,0.00143146,0.0155325,1945,841,35.8486,-3.93905
728,183,35.821,4.44385,0.00354255,-0.000349087,-0.000234644,0.00355665,-0.000363184,-0.0600045,0.00250097,0.0132255,1952,841,35.8211,-4.44386
735,183,35.8132,4.93835,0.00567972,-0.000562327,0.000159032,0.00568377,-0.000566376,0.0254554,0.00399139,0.0124073,1959,841,35.8132,-4.93835
742,183,35.7985,5.44525,0.00828667,-0.00103623,0.000615536,0.00832714,-0.00107669,0.0656443,0.00594292,0.0111459,1966,841,35.7985,-5.44523
749,183,35.6963,5.82867,0,0,0,0,0,0,0,-1,1973,841,35.6963,-5.8287
756,183,36.269,6.12183,0,0,0,0,0,0,0,-1,1980,841,36.2691,-6.12183
763,183,36.8419,6.41498,0,0,0,0,0,0,0,-1,1987,841,36.8419,-6.41496
770,183,35.5146,4.29053,0,0,0,0,0,0,0,-1,1994,841,35.5146,-4.29052
777,183,35.8634,3.97717,0,0,0,0,0,0,0,-1,2001,841,35.8634,-3.97714
784,183,0,0,0,0,0,0,0,0,0,-1,2008,841,0,0
791,183,0,0,0,0,0,0,0,0,0,-1,2015,841,0,0
798,183,0,0,0,0,0,0,0,0,0,-1,2022,841,0,0
805,183,0,0,0,0,0,0,0,0,0,-1,2029,841,0,0
812,183,0,0,0,0,0,0,0,0,0,-1,2036,841,0,0
-700,176,0,0,0,0,0,0,0,0,0,-1,524,848,0,0
-693,176,0,0,0,0,0,0,0,0,0,-1,531,848,0,0
-686,176,0,0,0,0,0,0,0,0,0,-1,538,848,0,0
-679,176,0,0,0,0,0,0,0,0,0,-1,545,848,0,0
-672,176,0,0,0,0,0,0,0,0,0,-1,552,848,0,0
-665,176,-28.4487,2.87634,0,0,0,0,0,0,0,-1,559,848,-28.4487,-2.87632
-658,176,-29.4591,5.03693,0,0,0,0,0,0,0,-1,566,848,-29.4591,-5.03691
-651,176,-27.4266,8.35675,0,0,0,0,0,0,0,-1,573,848,-27.4266,-8.35672
-644,176,-27.159,7.31061,0.00531771,0.0203207,-0.0329161,0.0465793,-0.0209409,-0.897433,0.0399085,0.0436409,580,848,-27.159,-7.31059
-637,176,-26.7476,6.55273,0.00593803,0.0201345,-0.0272877,0.0412321,-0.0151596,-0.912641,0.0336977,0.0456818,587,848,-26.7476,-6.55274
-630,176,-25.8708,4.30273,0,0,0,0,0,0,0,-1,594,848,-25.8708,-4.30274
-623,176,-25.9064,3.771,0.00443949,0.016851,-0.0168374,0.0285899,-0.00729939,-0.961959,0.0219023,0.0447444,601,848,-25.9064,-3.77099
-616,176,-25.9642,3.25049,0.0040326,0.0154371,-0.0125286,0.0235001,-0.00403042,-0.998957,0.0171686,0.0277366,608,848,-25.9643,-3.25051
-609,176,-26.0491,2.75085,0.00302448,0.0125182,-0.00836411,0.0173886,-0.0018459,-1.0435,0.0122541,0.0121163,615,848,-26.0491,-2.75087
-602,176,-26.0743,2.26715,0.0016079,0.00879077,-0.00503314,0.0113824,-0.000983776,-1.09528,0.00793657,0.0123122,622,848,-26.0743,-2.26713
-595,176,-26.092,1.77802,0.000553515,0.00527341,-0.00224017,0.00616734,-0.000340413,-1.19111,0.0042296,0.0110676,629,848,-26.092,-1.778
-588,176,-26.0853,1.31342,-0.000311047,0.00172451,-0.000119722,0.00173153,-0.000318064,-1.51225,0.00127368,0.0122726,636,848,-26.0853,-1.3134
-581,176,-26.1185,0.887634,-0.000672226,-0.000101863,0.00113882,0.00078694,-0.00156103,0.908084,0.00137994,0.0121155,643,848,-26.1185,-0.887605
-574,176,-26.1532,0.424622,-0.00102264,-0.000699724,0.00146335,0.000611051,-0.00233342,0.840343,0.00179432,0.0188796,650,848,-26.1532,-0.424645
-567,176,-25.9871,0.0985107,-0.000976034,-0.00163068,0.0015813,0.000311468,-0.00291818,0.683342,0.00205715,0.0496939,657,848,-25.9871,-0.098526
-560,176,-26.1689,-0.490662,-0.000330236,-0.00214164,0.00215709,0.00110358,-0.00357546,0.586639,0.00282431,0.0377697,664,848,-26.1689,0.490645
-553,176,-26.1141,-1.07013,0,0,0,0,0,0,0,-1,671,848,-26.1141,1.07014
-546,176,-16.657,-0.403198,0,0,0,0,0,0,0,-1,678,848,-16.657,0.403182
-539,176,-22.7061,1.48657,0,0,0,0,0,0,0,-1,685,848,-22.7061,-1.48657
-532,176,-33.3401,1.53455,0,0,0,0,0,0,0,-1,692,848,-33.3401,-1.53456
-525,176,-33.7344,0.920349,0.000514969,-0.00204807,0.00113882,0.00094786,-0.00248096,0.363254,0.00204453,0.0491739,699,848,-33.7344,-0.920319
-518,176,-34.0434,0.390686,0.000583112,-0.00166892,0.000731633,0.000799928,-0.00188574,0.288101,0.00159225,0.0427657,706,848,-34.0434,-0.390685
-511,176,-33.7827,0.924194,0.00109484,-0.00116266,7.37524e-05,0.00109725,-0.00116507,0.0326236,0.00130634,0.0376597,713,848,-33.7827,-0.924214
-504,176,-33.7605,1.08185,0.00201983,-0.000302446,-0.00102949,0.0024105,-0.000693112,-0.362688,0.00188109,0.0380253,720,848,-33.7605,-1.08187
-497,176,-33.8467,1.21893,0.00269849,0.000933157,-0.00270922,0.0046652,-0.00103356,-0.62792,0.00350581,0.0409003,727,848,-33.8467,-1.21892
-490,176,-33.7745,1.09314,0.00335385,0.00234418,-0.00544117,0.00831356,-0.00261552,-0.73914,0.00658957,0.0397807,734,848,-33.7745,-1.09312
-483,176,0,0,0,0,0,0,0,0,0,-1,741,848,0,0
-476,176,0,0,0,0,0,0,0,0,0,-1,748,848,0,0
-469,176,0,0,0,0,0,0,0,0,0,-1,755,848,0,0
-462,176,0,0,0,0,0,0,0,0,0,-1,762,848,0,0
-455,176,0,0,0,0,0,0,0,0,0,-1,769,848,0,0
-448,176,0,0,0,0,0,0,0,0,0,-1,776,848,0,0
-441,176,0,0,0,0,0,0,0,0,0,-1,783,848,0,0
-434,176,0,0,0,0,0,0,0,0,0,-1,790,848,0,0
-427,176,0,0,0,0,0,0,0,0,0,-1,797,848,0,0
-420,176,0,0,0,0,0,0,0,0,0,-1,804,848,0,0
-413,176,0,0,0,0,0,0,0,0,0,-1,811,848,0,0
-406,176,0,0,0,0,0,0,0,0,0,-1,818,848,0,0
-399,176,0,0,0,0,0,0,0,0,0,-1,825,848,0,0
-392,176,0,0,0,0,0,0,0,0,0,-1,832,848,0,0
-385,176,0,0,0,0,0,0,0,0,0,-1,839,848,0,0
-378,176,0,0,0,0,0,0,0,0,0,-1,846,848,0,0
-371,176,0,0,0,0,0,0,0,0,0,-1,853,848,0,0
-364,176,0,0,0,0,0,0,0,0,0,-1,860,848,0,0
-357,176,0,0,0,0,0,0,0,0,0,-1,867,848,0,0
-350,176,0,0,0,0,0,0,0,0,0,-1,874,848,0,0
-343,176,0,0,0,0,0,0,0,0,0,-1,881,848,0,0
-336,176,0,0,0,0,0,0,0,0,0,-1,888,848,0,0
-329,176,0,0,0,0,0,0,0,0,0,-1,895,848,0,0
-322,176,0,0,0,0,0,0,0,0,0,-1,902,848,0,0
-315,176,0,0,0,0,0,0,0,0,0,-1,909,848,0,0
-308,176,0,0,0,0,0,0,0,0,0,-1,916,848,0,0
-301,176,0,0,0,0,0,0,0,0,0,-1,923,848,0,0
-294,176,0,0,0,0,0,0,0,0,0,-1,930,848,0,0
-287,176,0,0,0,0,0,0,0,0,0,-1,937,848,0,0
-280,176,0,0,0,0,0,0,0,0,0,-1,944,848,0,0
-273,176,0,0,0,0,0,0,0,0,0,-1,951,848,0,0
-266,176,0,0,0,0,0,0,0,0,0,-1,958,848,0,0
-259,176,0,0,0,0,0,0,0,0,0,-1,965,848,0,0
-252,176,0,0,0,0,0,0,0,0,0,-1,972,848,0,0
-245,176,0,0,0,0,0,0,0,0,0,-1,979,848,0,0
-238,176,0,0,0,0,0,0,0,0,0,-1,986,848,0,0
-231,176,0,0,0,0,0,0,0,0,0,-1,993,848,0,0
-224,176,0,0,0,0,0,0,0,0,0,-1,1000,848,0,0
-217,176,0,0,0,0,0,0,0,0,0,-1,1007,848,0,0
-210,176,0,0,0,0,0,0,0,0,0,-1,1014,848,0,0
-203,176,0,0,0,0,0,0,0,0,0,-1,1021,848,0,0
-196,176,0,0,0,0,0,0,0,0,0,-1,1028,848,0,0
-189,176,0,0,0,0,0,0,0,0,0,-1,1035,848,0,0
-182,176,0,0,0,0,0,0,0,0,0,-1,1042,848,0,0
-175,176,0,0,0,0,0,0,0,0,0,-1,1049,848,0,0
-168,176,0,0,0,0,0,0,0,0,0,-1,1056,848,0,0
-161,176,0,0,0,0,0,0,0,0,0,-1,1063,848,0,0
-154,176,0,0,0,0,0,0,0,0,0,-1,1070,848,0,0
-147,176,0,0,0,0,0,0,0,0,0,-1,1077,848,0,0
-140,176,0,0,0,0,0,0,0,0,0,-1,1084,848,0,0
-133,176,0,0,0,0,0,0,0,0,0,-1,1091,848,0,0
-126,176,0,0,0,0,0,0,0,0,0,-1,1098,848,0,0
-119,176,0,0,0,0,0,0,0,0,0,-1,1105,848,0,0
-112,176,0,0,0,0,0,0,0,0,0,-1,1112,848,0,0
-105,176,0,0,0,0,0,0,0,0,0,-1,1119,848,0,0
-98,176,0,0,0,0,0,0,0,0,0,-1,1126,848,0,0
-91,176,0,0,0,0,0,0,0,0,0,-1,1133,848,0,0
-84,176,0,0,0,0,0,0,0,0,0,-1,1140,848,0,0
-77,176,0,0,0,0,0,0,0,0,0,-1,1147,848,0,0
-70,176,0,0,0,0,0,0,0,0,0,-1,1154,848,0,0
-63,176,0,0,0,0,0,0,0,0,0,-1,1161,848,0,0
-56,176,0,0,0,0,0,0,0,0,0,-1,1168,848,0,0
-49,176,0,0,0,0,0,0,0,0,0,-1,1175,848,0,0
-42,176,0,0,0,0,0,0,0,0,0,-1,1182,848,0,0
-35,176,0,0,0,0,0,0,0,0,0,-1,1189,848,0,0
-28,176,0,0,0,0,0,0,0,0,0,-1,1196,848,0,0
-21,176,0,0,0,0,0,0,0,0,0,-1,1203,848,0,0
-14,176,0,0,0,0,0,0,0,0,0,-1,1210,848,0,0
-7,176,0,0,0,0,0,0,0,0,0,-1,1217,848,0,0
0,176,0,0,0,0,0,0,0,0,0,-1,1224,848,0,0
7,176,0,0,0,0,0,0,0,0,0,-1,1231,848,0,0
14,176,0,0,0,0,0,0,0,0,0,-1,1238,848,0,0
21,176,0,0,0,0,0,0,0,0,0,-1,1245,848,0,0
28,176,0,0,0,0,0,0,0,0,0,-1,1252,848,0,0
35,176,0,0,0,0,0,0,0,0,0,-1,1259,848,0,0
42,176,0,0,0,0,0,0,0,0,0,-1,1266,848,0,0
49,176,0,0,0,0,0,0,0,0,0,-1,1273,848,0,0
56,176,0,0,0,0,0,0,0,0,0,-1,1280,848,0,0
63,176,0,0,0,0,0,0,0,0,0,-1,1287,848,0,0
70,176,0,0,0,0,0,0,0,0,0,-1,1294,848,0,0
77,176,0,0,0,0,0,0,0,0,0,-1,1301,848,0,0
84,176,0,0,0,0,0,0,0,0,0,-1,1308,848,0,0
91,176,0,0,0,0,0,0,0,0,0,-1,1315,848,0,0
98,176,0,0,0,0,0,0,0,0,0,-1,1322,848,0,0
105,176,0,0,0,0,0,0,0,0,0,-1,1329,848,0,0
112,176,0,0,0,0,0,0,0,0,0,-1,1336,848,0,0
119,176,0,0,0,0,0,0,0,0,0,-1,1343,848,0,0
126,176,0,0,0,0,0,0,0,0,0,-1,1350,848,0,0
133,176,0,0,0,0,0,0,0,0,0,-1,1357,848,0,0
140,176,0,0,0,0,0,0,0,0,0,-1,1364,848,0,0
147,176,0,0,0,0,0,0,0,0,0,-1,1371,848,0,0
154,176,0,0,0,0,0,0,0,0,0,-1,1378,848,0,0
161,176,0,0,0,0,0,0,0,0,0,-1,1385,848,0,0
168,176,0,0,0,0,0,0,0,0,0,-1,1392,848,0,0
175,176,0,0,0,0,0,0,0,0,0,-1,1399,848,0,0
182,176,0,0,0,0,0,0,0,0,0,-1,1406,848,0,0
189,176,0,0,0,0,0,0,0,0,0,-1,1413,848,0,0
196,176,0,0,0,0,0,0,0,0,0,-1,1420,848,0,0
203,176,0,0,0,0,0,0,0,0,0,-1,1427,848,0,0
210,176,0,0,0,0,0,0,0,0,0,-1,1434,848,0,0
217,176,0,0,0,0,0,0,0,0,0,-1,1441,848,0,0
224,176,0,0,0,0,0,0,0,0,0,-1,1448,848,0,0
231,176,0,0,0,0,0,0,0,0,0,-1,1455,848,0,0
238,176,0,0,0,0,0,0,0,0,0,-1,1462,848,0,0
245,176,0,0,0,0,0,0,0,0,0,-1,1469,848,0,0
252,176,0,0,0,0,0,0,0,0,0,-1,1476,848,0,0
259,176,0,0,0,0,0,0,0,0,0,-1,1483,848,0,0
266,176,0,0,0,0,0,0,0,0,0,-1,1490,848,0,0
273,176,0,0,0,0,0,0,0,0,0,-1,1497,848,0,0
280,176,0,0,0,0,0,0,0,0,0,-1,1504,848,0,0
287,176,0,0,0,0,0,0,0,0,0,-1,1511,848,0,0
294,176,0,0,0,0,0,0,0,0,0,-1,1518,848,0,0
301,176,0,0,0,0,0,0,0,0,0,-1,1525,848,0,0
308,176,0,0,0,0,0,0,0,0,0,-1,1532,848,0,0
315,176,0,0,0,0,0,0,0,0,0,-1,1539,848,0,0
322,176,0,0,0,0,0,0,0,0,0,-1,1546,848,0,0
329,176,0,0,0,0,0,0,0,0,0,-1,1553,848,0,0
336,176,0,0,0,0,0,0,0,0,0,-1,1560,848,0,0
343,176,0,0,0,0,0,0,0,0,0,-1,1567,848,0,0
350,176,0,0,0,0,0,0,0,0,0,-1,1574,848,0,0
357,176,0,0,0,0,0,0,0,0,0,-1,1581,848,0,0
364,176,0,0,0,0,0,0,0,0,0,-1,1588,848,0,0
371,176,0,0,0,0,0,0,0,0,0,-1,1595,848,0,0
378,176,0,0,0,0,0,0,0,0,0,-1,1602,848,0,0
385,176,0,0,0,0,0,0,0,0,0,-1,1609,848,0,0
392,176,0,0,0,0,0,0,0,0,0,-1,1616,848,0,0
399,176,0,0,0,0,0,0,0,0,0,-1,1623,848,0,0
406,176,0,0,0,0,0,0,0,0,0,-1,1630,848,0,0
413,176,0,0,0,0,0,0,0,0,0,-1,1637,848,0,0
420,176,0,0,0,0,0,0,0,0,0,-1,1644,848,0,0
427,176,0,0,0,0,0,0,0,0,0,-1,1651,848,0,0
434,176,0,0,0,0,0,0,0,0,0,-1,1658,848,0,0
441,176,0,0,0,0,0,0,0,0,0,-1,1665,848,0,0
448,176,0,0,0,0,0,0,0,0,0,-1,1672,848,0,0
455,176,0,0,0,0,0,0,0,0,0,-1,1679,848,0,0
462,176,0,0,0,0,0,0,0,0,0,-1,1686,848,0,0
469,176,0,0,0,0,0,0,0,0,0,-1,1693,848,0,0
476,176,0,0,0,0,0,0,0,0,0,-1,1700,848,0,0
483,176,0,0,0,0,0,0,0,0,0,-1,1707,848,0,0
490,176,0,0,0,0,0,0,0,0,0,-1,1714,848,0,0
497,176,0,0,0,0,0,0,0,0,0,-1,1721,848,0,0
504,176,0,0,0,0,0,0,0,0,0,-1,1728,848,0,0
511,176,0,0,0,0,0,0,0,0,0,-1,1735,848,0,0
518,176,0,0,0,0,0,0,0,0,0,-1,1742,848,0,0
525,176,0,0,0,0,0,0,0,0,0,-1,1749,848,0,0
532,176,0,0,0,0,0,0,0,0,0,-1,1756,848,0,0
539,176,0,0,0,0,0,0,0,0,0,-1,1763,848,0,0
546,176,0,0,0,0,0,0,0,0,0,-1,1770,848,0,0
553,176,0,0,0,0,0,0,0,0,0,-1,1777,848,0,0
560,176,0,0,0,0,0,0,0,0,0,-1,1784,848,0,0
567,176,0,0,0,0,0,0,0,0,0,-1,1791,848,0,0
574,176,0,0,0,0,0,0,0,0,0,-1,1798,848,0,0
581,176,0,0,0,0,0,0,0,0,0,-1,1805,848,0,0
588,176,0,0,0,0,0,0,0,0,0,-1,1812,848,0,0
595,176,0,0,0,0,0,0,0,0,0,-1,1819,848,0,0
602,176,0,0,0,0,0,0,0,0,0,-1,1826,848,0,0
609,176,45.2281,2.75043,0.00310321,0.00512291,-0.00106053,0.00557748,0.00264864,-1.16586,0.00322151,0.0395782,1833,848,45.2282,-2.75041
616,176,45.1345,2.64728,0.00279507,0.00432902,-0.00105923,0.0048698,0.00225429,-1.09875,0.00281416,0.0384374,1840,848,45.1346,-2.6473
623,176,45.1755,2.54205,0.00212713,0.0034835,-0.000862182,0.00390226,0.00170837,-1.11865,0.00225878,0.0411206,1847,848,45.1756,-2.54206
630,176,45.4796,2.56775,0.00118425,0.00261782,-0.000801168,0.00297604,0.000826019,-1.15033,0.00177399,0.0404055,1854,848,45.4796,-2.56774
637,176,45.3524,2.77307,0.000195202,0.00200981,-0.000699371,0.00224807,-4.30592e-05,-1.24245,0.00151327,0.0331002,1861,848,45.3525,-2.77306
644,176,45.1793,2.85651,-0.000616992,0.00147321,-0.000616626,0.00164156,-0.000785342,-1.30427,0.00142994,0.0326731,1868,848,45.1793,-2.85652
651,176,45.1941,2.77887,-0.00114711,0.000985052,-0.000569652,0.0011277,-0.00128976,-1.32543,0.00139677,0.0332962,1875,848,45.1941,-2.7789
658,176,45.2922,2.60437,-0.00147734,0.000728382,-0.000612047,0.000886832,-0.00163579,-1.31747,0.00147768,0.0374598,1882,848,45.2922,-2.60436
665,176,45.3129,2.53101,0,0,0,0,0,0,0,-1,1889,848,45.3129,-2.53099
672,176,16.9304,2.80719,0,0,0,0,0,0,0,-1,1896,848,16.9305,-2.80719
679,176,36.8424,1.05988,0,0,0,0,0,0,0,-1,1903,848,36.8423,-1.05987
686,176,36.7108,1.62256,-0.00213842,-0.000239525,-0.00054864,-9.24069e-05,-0.00228554,-1.30881,0.00149384,0.0387252,1910,848,36.7108,-1.62253
693,176,36.5428,2.12653,-0.00182429,-5.40171e-05,-0.00074599,0.000218416,-0.00209672,-1.22065,0.00147602,0.0212257,1917,848,36.5429,-2.12655
700,176,36.3892,2.61646,-0.00143184,-0.000107239,-0.000785309,0.000257765,-0.00179684,-1.13571,0.00129241,0.0234137,1924,848,36.3892,-2.61644
707,176,36.3898,3.05402,-0.000881001,-0.000303804,-0.0007625,0.000222886,-0.00140769,-0.966311,0.0010209,0.0150774,1931,848,36.3898,-3.05399
714,176,36.3729,3.48395,0.00010025,-0.000196313,-0.000870077,0.00083459,-0.000930654,-0.700997,0.00101967,0.0122215,1938,848,36.3729,-3.48396
721,176,36.3691,3.95667,0.00140612,-0.000231713,-0.000806705,0.00173672,-0.000562317,-0.388943,0.00138388,0.0126786,1945,848,36.3691,-3.95665
728,176,36.3267,4.45215,0.00290113,-0.000223896,-0.000588194,0.00300818,-0.00033094,-0.180016,0.00212437,0.0157877,1952,848,36.3266,-4.45214
735,176,36.3105,4.94214,0.00469859,-0.000295553,-0.000364898,0.00472511,-0.000322074,-0.0725515,0.00326274,0.0147871,1959,848,36.3105,-4.94212
742,176,36.3027,5.44171,0.00687518,-0.000507906,-0.000107241,0.00687674,-0.000509463,-0.0145211,0.00476341,0.0166399,1966,848,36.3027,-5.44171
749,176,36.2988,5.8092,0,0,0,0,0,0,0,-1,1973,848,36.2988,-5.80922
756,176,36.7933,6.01257,0,0,0,0,0,0,0,-1,1980,848,36.7933,-6.01259
763,176,37.2877,6.21594,0,0,0,0,0,0,0,-1,1987,848,37.2878,-6.21596
770,176,36.4186,4.25641,0,0,0,0,0,0,0,-1,1994,848,36.4186,-4.25639
777,176,36.828,3.72211,0,0,0,0,0,0,0,-1,2001,848,36.828,-3.72213
784,176,0,0,0,0,0,0,0,0,0,-1,2008,848,0,0
791,176,0,0,0,0,0,0,0,0,0,-1,2015,848,0,0
798,176,0,0,0,0,0,0,0,0,0,-1,2022,848,0,0
805,176,0,0,0,0,0,0,0,0,0,-1,2029,848,0,0
812,176,0,0,0,0,0,0,0,0,0,-1,2036,848,0,0
-700,169,0,0,0,0,0,0,0,0,0,-1,524,855,0,0
-693,169,0,0,0,0,0,0,0,0,0,-1,531,855,0,0
-686,169,0,0,0,0,0,0,0,0,0,-1,538,855,0,0
-679,169,0,0,0,0,0,0,0,0,0,-1,545,855,0,0
-672,169,0,0,0,0,0,0,0,0,0,-1,552,855,0,0
-665,169,-27.82,3.31958,0,0,0,0,0,0,0,-1,559,855,-27.82,-3.3196
-658,169,-24.0884,4.01282,0,0,0,0,0,0,0,-1,566,855,-24.0884,-4.01279
-651,169,-27.4211,6.03021,0,0,0,0,0,0,0,-1,573,855,-27.4211,-6.03021
-644,169,-27.16,5.95386,-0.00643656,0.00485514,-0.0286328,0.0283935,-0.0299749,-0.88274,0.0337031,0.0443961,580,855,-27.16,-5.95383
-637,169,-27.0403,5.56128,-0.0038117,0.00766962,-0.0237379,0.0263512,-0.0224933,-0.904038,0.0282297,0.0451475,587,855,-27.0403,-5.56131
-630,169,-26.5004,4.43207,0,0,0,0,0,0,0,-1,594,855,-26.5004,-4.43205
-623,169,-26.5188,3.81219,-0.00114726,0.00991531,-0.0145599,0.0199592,-0.0111911,-0.966927,0.0182206,0.0393957,601,855,-26.5188,-3.81222
-616,169,-26.4955,3.2196,0.000119268,0.0108179,-0.0107368,0.0174641,-0.00652696,-1.01651,0.014323,0.0223437,608,855,-26.4955,-3.21963
-609,169,-26.5528,2.75031,0.000512277,0.00968538,-0.00687888,0.0133666,-0.00316891,-1.07943,0.0101339,0.0139934,615,855,-26.5528,-2.75031
-602,169,-26.5806,2.28485,0.000111141,0.00698826,-0.0037571,0.00864278,-0.00154338,-1.15598,0.00633925,0.0133133,622,855,-26.5806,-2.28485
-595,169,-26.5861,1.7959,-0.000251638,0.00402247,-0.00117425,0.00432383,-0.000552998,-1.31958,0.00308346,0.0115116,629,855,-26.5861,-1.79588
-588,169,-26.5644,1.34875,-0.000707459,0.000866489,0.000579249,0.00105668,-0.000897653,1.25354,0.00112958,0.0106612,636,855,-26.5644,-1.34878
-581,169,-26.6064,0.926331,-0.000716711,-0.000620557,0.00144503,0.0007772,-0.00211447,0.802027,0.00172799,0.0150674,643,855,-26.6065,-0.926334
-574,169,-26.7892,0.453247,-0.000950259,-0.00100932,0.0015423,0.000562796,-0.00252237,0.775826,0.00189721,0.0266954,650,855,-26.7892,-0.453244
-567,169,-26.619,0.109985,-0.000879957,-0.00178892,0.00160323,0.000331964,-0.00300084,0.647282,0.0021199,0.0380097,657,855,-26.6189,-0.109959
-560,169,-26.6058,-0.239136,-0.000324689,-0.00219032,0.00217378,0.00110797,-0.00362297,0.58272,0.00285717,0.0439144,664,855,-26.6058,0.239155
-553,169,-26.4789,-0.650208,0,0,0,0,0,0,0,-1,671,855,-26.4789,0.650229
-546,169,-19.0852,-1.05609,0,0,0,0,0,0,0,-1,678,855,-19.0852,1.05612
-539,169,-33.2307,1.10706,0,0,0,0,0,0,0,-1,685,855,-33.2307,-1.10708
-532,169,-33.7259,0.865723,0,0,0,0,0,0,0,-1,692,855,-33.7259,-0.865698
-525,169,-33.9241,0.541321,0.000270548,-0.00175049,0.00122038,0.000844476,-0.00232442,0.439596,0.0018949,0.0472417,699,855,-33.9242,-0.541351
-518,169,-34.0544,0.500732,0.000234078,-0.0012534,0.000890725,0.000650744,-0.00167007,0.437543,0.00138233,0.0413754,706,855,-34.0545,-0.500746
-511,169,-33.7932,0.980591,0.000722979,-0.000574328,0.000313012,0.000794553,-0.000645902,0.224798,0.000833122,0.0403278,713,855,-33.7932,-0.980591
-504,169,-33.7316,1.12946,0.0016079,0.000691915,-0.000757533,0.00203512,0.000264686,-0.513508,0.00127769,0.0401931,720,855,-33.7316,-1.12948
-497,169,-33.7372,0.992737,0.00223447,0.00239966,-0.00231881,0.00463734,-3.21446e-06,-0.8032,0.00309263,0.0403339,727,855,-33.7372,-0.992714
-490,169,0,0,0,0,0,0,0,0,0,-1,734,855,0,0
-483,169,0,0,0,0,0,0,0,0,0,-1,741,855,0,0
-476,169,0,0,0,0,0,0,0,0,0,-1,748,855,0,0
-469,169,0,0,0,0,0,0,0,0,0,-1,755,855,0,0
-462,169,0,0,0,0,0,0,0,0,0,-1,762,855,0,0
-455,169,0,0,0,0,0,0,0,0,0,-1,769,855,0,0
-448,169,0,0,0,0,0,0,0,0,0,-1,776,855,0,0
-441,169,0,0,0,0,0,0,0,0,0,-1,783,855,0,0
-434,169,0,0,0,0,0,0,0,0,0,-1,790,855,0,0
-427,169,0,0,0,0,0,0,0,0,0,-1,797,855,0,0
-420,169,0,0,0,0,0,0,0,0,0,-1,804,855,0,0
-413,169,0,0,0,0,0,0,0,0,0,-1,811,855,0,0
-406,169,0,0,0,0,0,0,0,0,0,-1,818,855,0,0
-399,169,0,0,0,0,0,0,0,0,0,-1,825,855,0,0
-392,169,0,0,0,0,0,0,0,0,0,-1,832,855,0,0
-385,169,0,0,0,0,0,0,0,0,0,-1,839,855,0,0
-378,169,0,0,0,0,0,0,0,0,0,-1,846,855,0,0
-371,169,0,0,0,0,0,0,0,0,0,-1,853,855,0,0
-364,169,0,0,0,0,0,0,0,0,0,-1,860,855,0,0
-357,169,0,0,0,0,0,0,0,0,0,-1,867,855,0,0
-350,169,0,0,0,0,0,0,0,0,0,-1,874,855,0,0
-343,169,0,0,0,0,0,0,0,0,0,-1,881,855,0,0
-336,169,0,0,0,0,0,0,0,0,0,-1,888,855,0,0
-329,169,0,0,0,0,0,0,0,0,0,-1,895,855,0,0
-322,169,0,0,0,0,0,0,0,0,0,-1,902,855,0,0
-315,169,0,0,0,0,0,0,0,0,0,-1,909,855,0,0
-308,169,0,0,0,0,0,0,0,0,0,-1,916,855,0,0
-301,169,0,0,0,0,0,0,0,0,0,-1,923,855,0,0
-294,169,0,0,0,0,0,0,0,0,0,-1,930,855,0,0
-287,169,0,0,0,0,0,0,0,0,0,-1,937,855,0,0
-280,169,0,0,0,0,0,0,0,0,0,-1,944,855,0,0
-273,169,0,0,0,0,0,0,0,0,0,-1,951,855,0,0
-266,169,0,0,0,0,0,0,0,0,0,-1,958,855,0,0
-259,169,0,0,0,0,0,0,0,0,0,-1,965,855,0,0
-252,169,0,0,0,0,0,0,0,0,0,-1,972,855,0,0
-245,169,0,0,0,0,0,0,0,0,0,-1,979,855,0,0
-238,169,0,0,0,0,0,0,0,0,0,-1,986,855,0,0
-231,169,0,0,0,0,0,0,0,0,0,-1,993,855,0,0
-224,169,0,0,0,0,0,0,0,0,0,-1,1000,855,0,0
-217,169,0,0,0,0,0,0,0,0,0,-1,1007,855,0,0
-210,169,0,0,0,0,0,0,0,0,0,-1,1014,855,0,0
-203,169,0,0,0,0,0,0,0,0,0,-1,1021,855,0,0
-196,169,0,0,0,0,0,0,0,0,0,-1,1028,855,0,0
-189,169,0,0,0,0,0,0,0,0,0,-1,1035,855,0,0
-182,169,0,0,0,0,0,0,0,0,0,-1,1042,855,0,0
-175,169,0,0,0,0,0,0,0,0,0,-1,1049,855,0,0
-168,169,0,0,0,0,0,0,0,0,0,-1,1056,855,0,0
-161,169,0,0,0,0,0,0,0,0,0,-1,1063,855,0,0
-154,169,0,0,0,0,0,0,0,0,0,-1,1070,855,0,0
-147,169,0,0,0,0,0,0,0,0,0,-1,1077,855,0,0
-140,169,0,0,0,0,0,0,0,0,0,-1,1084,855,0,0
-133,169,0,0,0,0,0,0,0,0,0,-1,1091,855,0,0
-126,169,0,0,0,0,0,0,0,0,0,-1,1098,855,0,0
-119,169,0,0,0,0,0,0,0,0,0,-1,1105,855,0,0
-112,169,0,0,0,0,0,0,0,0,0,-1,1112,855,0,0
-105,169,0,0,0,0,0,0,0,0,0,-1,1119,855,0,0
-98,169,0,0,0,0,0,0,0,0,0,-1,1126,855,0,0
-91,169,0,0,0,0,0,0,0,0,0,-1,1133,855,0,0
-84,169,0,0,0,0,0,0,0,0,0,-1,1140,855,0,0
-77,169,0,0,0,0,0,0,0,0,0,-1,1147,855,0,0
-70,169,0,0,0,0,0,0,0,0,0,-1,1154,855,0,0
-63,169,0,0,0,0,0,0,0,0,0,-1,1161,855,0,0
-56,169,0,0,0,0,0,0,0,0,0,-1,1168,855,0,0
-49,169,0,0,0,0,0,0,0,0,0,-1,1175,855,0,0
-42,169,0,0,0,0,0,0,0,0,0,-1,1182,855,0,0
-35,169,0,0,0,0,0,0,0,0,0,-1,1189,855,0,0
-28,169,0,0,0,0,0,0,0,0,0,-1,1196,855,0,0
-21,169,0,0,0,0,0,0,0,0,0,-1,1203,855,0,0
-14,169,0,0,0,0,0,0,0,0,0,-1,1210,855,0,0
-7,169,0,0,0,0,0,0,0,0,0,-1,1217,855,0,0
0,169,0,0,0,0,0,0,0,0,0,-1,1224,855,0,0
7,169,0,0,0,0,0,0,0,0,0,-1,1231,855,0,0
14,169,0,0,0,0,0,0,0,0,0,-1,1238,855,0,0
21,169,0,0,0,0,0,0,0,0,0,-1,1245,855,0,0
28,169,0,0,0,0,0,0,0,0,0,-1,1252,855,0,0
35,169,0,0,0,0,0,0,0,0,0,-1,1259,855,0,0
42,169,0,0,0,0,0,0,0,0,0,-1,1266,855,0,0
49,169,0,0,0,0,0,0,0,0,0,-1,1273,855,0,0
56,169,0,0,0,0,0,0,0,0,0,-1,1280,855,0,0
63,169,0,0,0,0,0,0,0,0,0,-1,1287,855,0,0
70,169,0,0,0,0,0,0,0,0,0,-1,1294,855,0,0
77,169,0,0,0,0,0,0,0,0,0,-1,1301,855,0,0
84,169,0,0,0,0,0,0,0,0,0,-1,1308,855,0,0
91,169,0,0,0,0,0,0,0,0,0,-1,1315,855,0,0
98,169,0,0,0,0,0,0,0,0,0,-1,1322,855,0,0
105,169,0,0,0,0,0,0,0,0,0,-1,1329,855,0,0
112,169,0,0,0,0,0,0,0,0,0,-1,1336,855,0,0
119,169,0,0,0,0,0,0,0,0,0,-1,1343,855,0,0
126,169,0,0,0,0,0,0,0,0,0,-1,1350,855,0,0
133,169,0,0,0,0,0,0,0,0,0,-1,1357,855,0,0
140,169,0,0,0,0,0,0,0,0,0,-1,1364,855,0,0
147,169,0,0,0,0,0,0,0,0,0,-1,1371,855,0,0
154,169,0,0,0,0,0,0,0,0,0,-1,1378,855,0,0
161,169,0,0,0,0,0,0,0,0,0,-1,1385,855,0,0
168,169,0,0,0,0,0,0,0,0,0,-1,1392,855,0,0
175,169,0,0,0,0,0,0,0,0,0,-1,1399,855,0,0
182,169,0,0,0,0,0,0,0,0,0,-1,1406,855,0,0
189,169,0,0,0,0,0,0,0,0,0,-1,1413,855,0,0
196,169,0,0,0,0,0,0,0,0,0,-1,1420,855,0,0
203,169,0,0,0,0,0,0,0,0,0,-1,1427,855,0,0
210,169,0,0,0,0,0,0,0,0,0,-1,1434,855,0,0
217,169,0,0,0,0,0,0,0,0,0,-1,1441,855,0,0
224,169,0,0,0,0,0,0,0,0,0,-1,1448,855,0,0
231,169,0,0,0,0,0,0,0,0,0,-1,1455,855,0,0
238,169,0,0,0,0,0,0,0,0,0,-1,1462,855,0,0
245,169,0,0,0,0,0,0,0,0,0,-1,1469,855,0,0
252,169,0,0,0,0,0,0,0,0,0,-1,1476,855,0,0
259,169,0,0,0,0,0,0,0,0,0,-1,1483,855,0,0
266,169,0,0,0,0,0,0,0,0,0,-1,1490,855,0,0
273,169,0,0,0,0,0,0,0,0,0,-1,1497,855,0,0
280,169,0,0,0,0,0,0,0,0,0,-1,1504,855,0,0
287,169,0,0,0,0,0,0,0,0,0,-1,1511,855,0,0
294,169,0,0,0,0,0,0,0,0,0,-1,1518,855,0,0
301,169,0,0,0,0,0,0,0,0,0,-1,1525,855,0,0
308,169,0,0,0,0,0,0,0,0,0,-1,1532,855,0,0
315,169,0,0,0,0,0,0,0,0,0,-1,1539,855,0,0
322,169,0,0,0,0,0,0,0,0,0,-1,1546,855,0,0
329,169,0,0,0,0,0,0,0,0,0,-1,1553,855,0,0
336,169,0,0,0,0,0,0,0,0,0,-1,1560,855,0,0
343,169,0,0,0,0,0,0,0,0,0,-1,1567,855,0,0
350,169,0,0,0,0,0,0,0,0,0,-1,1574,855,0,0
357,169,0,0,0,0,0,0,0,0,0,-1,1581,855,0,0
364,169,0,0,0,0,0,0,0,0,0,-1,1588,855,0,0
371,169,0,0,0,0,0,0,0,0,0,-1,1595,855,0,0
378,169,0,0,0,0,0,0,0,0,0,-1,1602,855,0,0
385,169,0,0,0,0,0,0,0,0,0,-1,1609,855,0,0
392,169,0,0,0,0,0,0,0,0,0,-1,1616,855,0,0
399,169,0,0,0,0,0,0,0,0,0,-1,1623,855,0,0
406,169,0,0,0,0,0,0,0,0,0,-1,1630,855,0,0
413,169,0,0,0,0,0,0,0,0,0,-1,1637,855,0,0
420,169,0,0,0,0,0,0,0,0,0,-1,1644,855,0,0
427,169,0,0,0,0,0,0,0,0,0,-1,1651,855,0,0
434,169,0,0,0,0,0,0,0,0,0,-1,1658,855,0,0
441,169,0,0,0,0,0,0,0,0,0,-1,1665,855,0,0
448,169,0,0,0,0,0,0,0,0,0,-1,1672,855,0,0
455,169,0,0,0,0,0,0,0,0,0,-1,1679,855,0,0
462,169,0,0,0,0,0,0,0,0,0,-1,1686,855,0,0
469,169,0,0,0,0,0,0,0,0,0,-1,1693,855,0,0
476,169,0,0,0,0,0,0,0,0,0,-1,1700,855,0,0
483,169,0,0,0,0,0,0,0,0,0,-1,1707,855,0,0
490,169,0,0,0,0,0,0,0,0,0,-1,1714,855,0,0
497,169,0,0,0,0,0,0,0,0,0,-1,1721,855,0,0
504,169,0,0,0,0,0,0,0,0,0,-1,1728,855,0,0
511,169,0,0,0,0,0,0,0,0,0,-1,1735,855,0,0
518,169,0,0,0,0,0,0,0,0,0,-1,1742,855,0,0
525,169,0,0,0,0,0,0,0,0,0,-1,1749,855,0,0
532,169,0,0,0,0,0,0,0,0,0,-1,1756,855,0,0
539,169,0,0,0,0,0,0,0,0,0,-1,1763,855,0,0
546,169,0,0,0,0,0,0,0,0,0,-1,1770,855,0,0
553,169,0,0,0,0,0,0,0,0,0,-1,1777,855,0,0
560,169,0,0,0,0,0,0,0,0,0,-1,1784,855,0,0
567,169,0,0,0,0,0,0,0,0,0,-1,1791,855,0,0
574,169,0,0,0,0,0,0,0,0,0,-1,1798,855,0,0
581,169,0,0,0,0,0,0,0,0,0,-1,1805,855,0,0
588,169,0,0,0,0,0,0,0,0,0,-1,1812,855,0,0
595,169,0,0,0,0,0,0,0,0,0,-1,1819,855,0,0
602,169,0,0,0,0,0,0,0,0,0,-1,1826,855,0,0
609,169,0,0,0,0,0,0,0,0,0,-1,1833,855,0,0
616,169,44.6997,3.10089,0,0,0,0,0,0,0,-1,1840,855,44.6997,-3.10088
623,169,45.2792,2.71472,0.0024219,0.00358856,-0.000546612,0.00380465,0.00220582,-1.19434,0.00220591,0.042872,1847,855,45.2792,-2.7147
630,169,45.6372,2.51636,0.00146431,0.00248245,-0.000289926,0.00255922,0.00138754,-1.31194,0.00147932,0.0420772,1854,855,45.6372,-2.51638
637,169,45.5317,2.71246,0.000419267,0.0017952,-7.15159e-05,0.00179891,0.00041556,-1.51901,0.00108755,0.0368009,1861,855,45.5318,-2.71247
644,169,45.2839,2.789,-0.000442207,0.00126543,4.42795e-05,0.00126658,-0.000443355,1.54489,0.00102466,0.0357805,1868,855,45.2839,-2.78898
651,169,45.1897,2.7179,-0.000982722,0.000814017,6.44978e-05,0.000816329,-0.000985035,1.53496,0.00104154,0.0359243,1875,855,45.1897,-2.71789
658,169,45.2241,2.67499,-0.00129396,0.000578566,-4.57717e-06,0.000578577,-0.00129397,-1.56835,0.0011071,0.0344508,1882,855,45.2241,-2.675
665,169,45.2769,2.70142,0,0,0,0,0,0,0,-1,1889,855,45.2769,-2.70139
672,169,31.2465,2.96387,0,0,0,0,0,0,0,-1,1896,855,31.2464,-2.9639
679,169,37.0104,1.02563,0,0,0,0,0,0,0,-1,1903,855,37.0103,-1.02561
686,169,37.0729,1.60858,-0.00177502,-0.000224286,-0.00020373,-0.000197967,-0.00180134,-1.44232,0.00114064,0.0475989,1910,855,37.0729,-1.60861
693,169,37.0565,2.1665,-0.00153812,-0.000106065,-0.000449186,2.31668e-05,-0.00166735,-1.29066,0.00111937,0.0212029,1917,855,37.0566,-2.16648
700,169,37.0365,2.67548,-0.00123921,-0.000104941,-0.000539139,0.000110428,-0.00145458,-1.19075,0.00100855,0.018861,1924,855,37.0365,-2.67546
707,169,36.9675,3.09534,-0.000805869,-0.000237967,-0.000560385,0.000106301,-0.00115014,-1.0199,0.000804537,0.0187504,1931,855,36.9675,-3.09532
714,169,36.873,3.50592,-1.35492e-05,-6.85808e-05,-0.000786164,0.00074558,-0.00082771,-0.767905,0.000908752,0.0140194,1938,855,36.873,-3.50595
721,169,36.8751,4.00317,0.00102693,-6.8709e-05,-0.000888412,0.00152285,-0.000564623,-0.509119,0.00124681,0.0163076,1945,855,36.8751,-4.00319
728,169,36.8456,4.47705,0.00221701,2.16983e-05,-0.000824467,0.00249216,-0.000253451,-0.322107,0.00175205,0.014095,1952,855,36.8456,-4.47707
735,169,36.8091,4.93805,0.00372426,4.79486e-05,-0.000770124,0.00387907,-0.00010686,-0.198374,0.00262239,0.0203259,1959,855,36.8091,-4.93804
742,169,36.7892,5.4281,0.00556926,1.76877e-05,-0.000696831,0.00565539,-6.8442e-05,-0.122978,0.00379328,0.0153862,1966,855,36.7892,-5.42811
749,169,36.7145,5.84064,0.00791771,-0.00020662,-0.000669245,0.00797247,-0.00026138,-0.081642,0.00540421,0.0261026,1973,855,36.7145,-5.84062
756,169,37.038,6.10498,0.0111832,-0.00063497,-0.000741675,0.0112295,-0.000681334,-0.0624308,0.0077235,0.0483542,1980,855,37.0379,-6.10499
763,169,37.4812,6.38776,0,0,0,0,0,0,0,-1,1987,855,37.4812,-6.38774
770,169,37.2059,3.97021,0,0,0,0,0,0,0,-1,1994,855,37.2059,-3.97022
777,169,37.9381,9.14392,0,0,0,0,0,0,0,-1,2001,855,37.9381,-9.1439
784,169,37.6997,9.83215,0,0,0,0,0,0,0,-1,2008,855,37.6997,-9.83216
791,169,0,0,0,0,0,0,0,0,0,-1,2015,855,0,0
798,169,0,0,0,0,0,0,0,0,0,-1,2022,855,0,0
805,169,0,0,0,0,0,0,0,0,0,-1,2029,855,0,0
812,169,0,0,0,0,0,0,0,0,0,-1,2036,855,0,0
-700,162,0,0,0,0,0,0,0,0,0,-1,524,862,0,0
-693,162,0,0,0,0,0,0,0,0,0,-1,531,862,0,0
-686,162,0,0,0,0,0,0,0,0,0,-1,538,862,0,0
-679,162,0,0,0,0,0,0,0,0,0,-1,545,862,0,0
-672,162,0,0,0,0,0,0,0,0,0,-1,552,862,0,0
-665,162,-24.839,2.87067,0,0,0,0,0,0,0,-1,559,862,-24.839,-2.87067
-658,162,-25.4185,3.26233,0,0,0,0,0,0,0,-1,566,862,-25.4184,-3.26236
-651,162,-27.1874,5.96069,0,0,0,0,0,0,0,-1,573,862,-27.1875,-5.96068
-644,162,-27.1977,5.56244,-0.016885,-0.00900243,-0.0253672,0.0127278,-0.0386152,-0.862467,0.0308734,0.0475481,580,862,-27.1977,-5.56244
-637,162,-27.1754,5.14093,-0.01195,-0.00301532,-0.0210343,0.0140209,-0.0289862,-0.890035,0.0253263,0.0459702,587,862,-27.1753,-5.14091
-630,162,-27.0649,4.55872,-0.00818966,0.00143073,-0.0168428,0.0141368,-0.0208957,-0.924492,0.0203511,0.0453731,594,862,-27.0649,-4.55869
-623,162,-26.8764,3.73499,-0.00548574,0.00412169,-0.0127353,0.0129291,-0.0142932,-0.965746,0.0157234,0.0340661,601,862,-26.8764,-3.735
-616,162,-26.9521,3.22455,-0.00284715,0.0069105,-0.00925707,0.0124957,-0.00843237,-1.02792,0.0121585,0.0191031,608,862,-26.9522,-3.22453
-609,162,-27.0239,2.74945,-0.00132762,0.00726238,-0.00565016,0.0100647,-0.00412989,-1.11038,0.00843061,0.0132643,615,862,-27.0239,-2.74942
-602,162,-27.0647,2.28723,-0.000903119,0.00551802,-0.00275053,0.00653512,-0.00192022,-1.21661,0.00511833,0.0114397,622,862,-27.0647,-2.28721
-595,162,-27.0511,1.84003,-0.000715657,0.00315019,-0.000420048,0.00319531,-0.000760772,-1.4638,0.00242392,0.0108033,629,862,-27.0511,-1.84004
-588,162,-27.0493,1.38605,-0.000839127,0.000523684,0.00095142,0.00101254,-0.00132798,1.09616,0.00135539,0.0120657,636,862,-27.0493,-1.38607
-581,162,-27.2203,0.933533,-0.000674323,-0.000588198,0.00146842,0.000837795,-0.00210032,0.800057,0.00174774,0.0232558,643,862,-27.2203,-0.933507
-574,162,-27.4562,0.4375,-0.00088418,-0.00085192,0.00142577,0.000557809,-0.00229391,0.791055,0.00174518,0.0350654,650,862,-27.4562,-0.437526
-567,162,-27.3814,-0.0245361,-0.000800808,-0.00150463,0.00146027,0.000349357,-0.00265479,0.667158,0.00189707,0.0421387,657,862,-27.3814,0.0245284
-560,162,-27.1574,-0.624573,-0.000329156,-0.0017774,0.00197957,0.00105458,-0.00316113,0.610059,0.00253321,0.038901,664,862,-27.1574,0.624576
-553,162,-26.8273,-1.24469,0,0,0,0,0,0,0,-1,671,862,-26.8273,1.2447
-546,162,-22.8181,-1.51154,0,0,0,0,0,0,0,-1,678,862,-22.8181,1.51155
-539,162,-33.772,0.90979,0,0,0,0,0,0,0,-1,685,862,-33.772,-0.909783
-532,162,-33.7878,0.793152,-3.77121e-05,-0.00144389,0.00132197,0.000756509,-0.00223811,0.540997,0.0017981,0.0391619,692,862,-33.7878,-0.793173
-525,162,-33.903,0.551514,-1.42096e-05,-0.00116408,0.00103392,0.000593874,-0.00177217,0.53165,0.00142138,0.0411644,699,862,-33.903,-0.55149
-518,162,-33.9557,0.522217,-0.000166238,-0.000569695,0.000788949,0.000446364,-0.0011823,0.660233,0.00097178,0.0410972,706,862,-33.9557,-0.522206
-511,162,-33.8082,0.757324,0.000278049,0.000358374,0.00036,0.000680445,-4.40217e-05,0.84095,0.000468993,0.041995,713,862,-33.8082,-0.757328
-504,162,-33.7537,0.895264,0.00109745,0.00231339,-0.000516348,0.00250306,0.000907774,-1.21875,0.0014632,0.0441612,720,862,-33.7537,-0.895268
-497,162,-33.767,0.809204,0.00171513,0.00487751,-0.00176969,0.0056695,0.000923149,-1.15,0.00351262,0.0429937,727,862,-33.7669,-0.809216
-490,162,0,0,0,0,0,0,0,0,0,-1,734,862,0,0
-483,162,0,0,0,0,0,0,0,0,0,-1,741,862,0,0
-476,162,0,0,0,0,0,0,0,0,0,-1,748,862,0,0
-469,162,0,0,0,0,0,0,0,0,0,-1,755,862,0,0
-462,162,0,0,0,0,0,0,0,0,0,-1,762,862,0,0
-455,162,0,0,0,0,0,0,0,0,0,-1,769,862,0,0
-448,162,0,0,0,0,0,0,0,0,0,-1,776,862,0,0
-441,162,0,0,0,0,0,0,0,0,0,-1,783,862,0,0
-434,162,0,0,0,0,0,0,0,0,0,-1,790,862,0,0
-427,162,0,0,0,0,0,0,0,0,0,-1,797,862,0,0
-420,162,0,0,0,0,0,0,0,0,0,-1,804,862,0,0
-413,162,0,0,0,0,0,0,0,0,0,-1,811,862,0,0
-406,162,0,0,0,0,0,0,0,0,0,-1,818,862,0,0
-399,162,0,0,0,0,0,0,0,0,0,-1,825,862,0,0
-392,162,0,0,0,0,0,0,0,0,0,-1,832,862,0,0
-385,162,0,0,0,0,0,0,0,0,0,-1,839,862,0,0
-378,162,0,0,0,0,0,0,0,0,0,-1,846,862,0,0
-371,162,0,0,0,0,0,0,0,0,0,-1,853,862,0,0
-364,162,0,0,0,0,0,0,0,0,0,-1,860,862,0,0
-357,162,0,0,0,0,0,0,0,0,0,-1,867,862,0,0
-350,162,0,0,0,0,0,0,0,0,0,-1,874,862,0,0
-343,162,0,0,0,0,0,0,0,0,0,-1,881,862,0,0
-336,162,0,0,0,0,0,0,0,0,0,-1,888,862,0,0
-329,162,0,0,0,0,0,0,0,0,0,-1,895,862,0,0
-322,162,0,0,0,0,0,0,0,0,0,-1,902,862,0,0
-315,162,0,0,0,0,0,0,0,0,0,-1,909,862,0,0
-308,162,0,0,0,0,0,0,0,0,0,-1,916,862,0,0
-301,162,0,0,0,0,0,0,0,0,0,-1,923,862,0,0
-294,162,0,0,0,0,0,0,0,0,0,-1,930,862,0,0
-287,162,0,0,0,0,0,0,0,0,0,-1,937,862,0,0
-280,162,0,0,0,0,0,0,0,0,0,-1,944,862,0,0
-273,162,0,0,0,0,0,0,0,0,0,-1,951,862,0,0
-266,162,0,0,0,0,0,0,0,0,0,-1,958,862,0,0
-259,162,0,0,0,0,0,0,0,0,0,-1,965,862,0,0
-252,162,0,0,0,0,0,0,0,0,0,-1,972,862,0,0
-245,162,0,0,0,0,0,0,0,0,0,-1,979,862,0,0
-238,162,0,0,0,0,0,0,0,0,0,-1,986,862,0,0
-231,162,0,0,0,0,0,0,0,0,0,-1,993,862,0,0
-224,162,0,0,0,0,0,0,0,0,0,-1,1000,862,0,0
-217,162,0,0,0,0,0,0,0,0,0,-1,1007,862,0,0
-210,162,0,0,0,0,0,0,0,0,0,-1,1014,862,0,0
-203,162,0,0,0,0,0,0,0,0,0,-1,1021,862,0,0
-196,162,0,0,0,0,0,0,0,0,0,-1,1028,862,0,0
-189,162,0,0,0,0,0,0,0,0,0,-1,1035,862,0,0
-182,162,0,0,0,0,0,0,0,0,0,-1,1042,862,0,0
-175,162,0,0,0,0,0,0,0,0,0,-1,1049,862,0,0
-168,162,0,0,0,0,0,0,0,0,0,-1,1056,862,0,0
-161,162,0,0,0,0,0,0,0,0,0,-1,1063,862,0,0
-154,162,0,0,0,0,0,0,0,0,0,-1,1070,862,0,0
-147,162,0,0,0,0,0,0,0,0,0,-1,1077,862,0,0
-140,162,0,0,0,0,0,0,0,0,0,-1,1084,862,0,0
-133,162,0,0,0,0,0,0,0,0,0,-1,1091,862,0,0
-126,162,0,0,0,0,0,0,0,0,0,-1,1098,862,0,0
-119,162,0,0,0,0,0,0,0,0,0,-1,1105,862,0,0
-112,162,0,0,0,0,0,0,0,0,0,-1,1112,862,0,0
-105,162,0,0,0,0,0,0,0,0,0,-1,1119,862,0,0
-98,162,0,0,0,0,0,0,0,0,0,-1,1126,862,0,0
-91,162,0,0,0,0,0,0,0,0,0,-1,1133,862,0,0
-84,162,0,0,0,0,0,0,0,0,0,-1,1140,862,0,0
-77,162,0,0,0,0,0,0,0,0,0,-1,1147,862,0,0
-70,162,0,0,0,0,0,0,0,0,0,-1,1154,862,0,0
-63,162,0,0,0,0,0,0,0,0,0,-1,1161,862,0,0
-56,162,0,0,0,0,0,0,0,0,0,-1,1168,862,0,0
-49,162,0,0,0,0,0,0,0,0,0,-1,1175,862,0,0
-42,162,0,0,0,0,0,0,0,0,0,-1,1182,862,0,0
-35,162,0,0,0,0,0,0,0,0,0,-1,1189,862,0,0
-28,162,0,0,0,0,0,0,0,0,0,-1,1196,862,0,0
-21,162,0,0,0,0,0,0,0,0,0,-1,1203,862,0,0
-14,162,0,0,0,0,0,0,0,0,0,-1,1210,862,0,0
-7,162,0,0,0,0,0,0,0,0,0,-1,1217,862,0,0
0,162,0,0,0,0,0,0,0,0,0,-1,1224,862,0,0
7,162,0,0,0,0,0,0,0,0,0,-1,1231,862,0,0
14,162,0,0,0,0,0,0,0,0,0,-1,1238,862,0,0
21,162,0,0,0,0,0,0,0,0,0,-1,1245,862,0,0
28,162,0,0,0,0,0,0,0,0,0,-1,1252,862,0,0
35,162,0,0,0,0,0,0,0,0,0,-1,1259,862,0,0
42,162,0,0,0,0,0,0,0,0,0,-1,1266,862,0,0
49,162,0,0,0,0,0,0,0,0,0,-1,1273,862,0,0
56,162,0,0,0,0,0,0,0,0,0,-1,1280,862,0,0
63,162,0,0,0,0,0,0,0,0,0,-1,1287,862,0,0
70,162,0,0,0,0,0,0,0,0,0,-1,1294,862,0,0
77,162,0,0,0,0,0,0,0,0,0,-1,1301,862,0,0
84,162,0,0,0,0,0,0,0,0,0,-1,1308,862,0,0
91,162,0,0,0,0,0,0,0,0,0,-1,1315,862,0,0
98,162,0,0,0,0,0,0,0,0,0,-1,1322,862,0,0
105,162,0,0,0,0,0,0,0,0,0,-1,1329,862,0,0
112,162,0,0,0,0,0,0,0,0,0,-1,1336,862,0,0
119,162,0,0,0,0,0,0,0,0,0,-1,1343,862,0,0
126,162,0,0,0,0,0,0,0,0,0,-1,1350,862,0,0
133,162,0,0,0,0,0,0,0,0,0,-1,1357,862,0,0
140,162,0,0,0,0,0,0,0,0,0,-1,1364,862,0,0
147,162,0,0,0,0,0,0,0,0,0,-1,1371,862,0,0
154,162,0,0,0,0,0,0,0,0,0,-1,1378,862,0,0
161,162,0,0,0,0,0,0,0,0,0,-1,1385,862,0,0
168,162,0,0,0,0,0,0,0,0,0,-1,1392,862,0,0
175,162,0,0,0,0,0,0,0,0,0,-1,1399,862,0,0
182,162,0,0,0,0,0,0,0,0,0,-1,1406,862,0,0
189,162,0,0,0,0,0,0,0,0,0,-1,1413,862,0,0
196,162,0,0,0,0,0,0,0,0,0,-1,1420,862,0,0
203,162,0,0,0,0,0,0,0,0,0,-1,1427,862,0,0
210,162,0,0,0,0,0,0,0,0,0,-1,1434,862,0,0
217,162,0,0,0,0,0,0,0,0,0,-1,1441,862,0,0
224,162,0,0,0,0,0,0,0,0,0,-1,1448,862,0,0
231,162,0,0,0,0,0,0,0,0,0,-1,1455,862,0,0
238,162,0,0,0,0,0,0,0,0,0,-1,1462,862,0,0
245,162,0,0,0,0,0,0,0,0,0,-1,1469,862,0,0
252,162,0,0,0,0,0,0,0,0,0,-1,1476,862,0,0
259,162,0,0,0,0,0,0,0,0,0,-1,1483,862,0,0
266,162,0,0,0,0,0,0,0,0,0,-1,1490,862,0,0
273,162,0,0,0,0,0,0,0,0,0,-1,1497,862,0,0
280,162,0,0,0,0,0,0,0,0,0,-1,1504,862,0,0
287,162,0,0,0,0,0,0,0,0,0,-1,1511,862,0,0
294,162,0,0,0,0,0,0,0,0,0,-1,1518,862,0,0
301,162,0,0,0,0,0,0,0,0,0,-1,1525,862,0,0
308,162,0,0,0,0,0,0,0,0,0,-1,1532,862,0,0
315,162,0,0,0,0,0,0,0,0,0,-1,1539,862,0,0
322,162,0,0,0,0,0,0,0,0,0,-1,1546,862,0,0
329,162,0,0,0,0,0,0,0,0,0,-1,1553,862,0,0
336,162,0,0,0,0,0,0,0,0,0,-1,1560,862,0,0
343,162,0,0,0,0,0,0,0,0,0,-1,1567,862,0,0
350,162,0,0,0,0,0,0,0,0,0,-1,1574,862,0,0
357,162,0,0,0,0,0,0,0,0,0,-1,1581,862,0,0
364,162,0,0,0,0,0,0,0,0,0,-1,1588,862,0,0
371,162,0,0,0,0,0,0,0,0,0,-1,1595,862,0,0
378,162,0,0,0,0,0,0,0,0,0,-1,1602,862,0,0
385,162,0,0,0,0,0,0,0,0,0,-1,1609,862,0,0
392,162,0,0,0,0,0,0,0,0,0,-1,1616,862,0,0
399,162,0,0,0,0,0,0,0,0,0,-1,1623,862,0,0
406,162,0,0,0,0,0,0,0,0,0,-1,1630,862,0,0
413,162,0,0,0,0,0,0,0,0,0,-1,1637,862,0,0
420,162,0,0,0,0,0,0,0,0,0,-1,1644,862,0,0
427,162,0,0,0,0,0,0,0,0,0,-1,1651,862,0,0
434,162,0,0,0,0,0,0,0,0,0,-1,1658,862,0,0
441,162,0,0,0,0,0,0,0,0,0,-1,1665,862,0,0
448,162,0,0,0,0,0,0,0,0,0,-1,1672,862,0,0
455,162,0,0,0,0,0,0,0,0,0,-1,1679,862,0,0
462,162,0,0,0,0,0,0,0,0,0,-1,1686,862,0,0
469,162,0,0,0,0,0,0,0,0,0,-1,1693,862,0,0
476,162,0,0,0,0,0,0,0,0,0,-1,1700,862,0,0
483,162,0,0,0,0,0,0,0,0,0,-1,1707,862,0,0
490,162,0,0,0,0,0,0,0,0,0,-1,1714,862,0,0
497,162,0,0,0,0,0,0,0,0,0,-1,1721,862,0,0
504,162,0,0,0,0,0,0,0,0,0,-1,1728,862,0,0
511,162,0,0,0,0,0,0,0,0,0,-1,1735,862,0,0
518,162,0,0,0,0,0,0,0,0,0,-1,1742,862,0,0
525,162,0,0,0,0,0,0,0,0,0,-1,1749,862,0,0
532,162,0,0,0,0,0,0,0,0,0,-1,1756,862,0,0
539,162,0,0,0,0,0,0,0,0,0,-1,1763,862,0,0
546,162,0,0,0,0,0,0,0,0,0,-1,1770,862,0,0
553,162,0,0,0,0,0,0,0,0,0,-1,1777,862,0,0
560,162,0,0,0,0,0,0,0,0,0,-1,1784,862,0,0
567,162,0,0,0,0,0,0,0,0,0,-1,1791,862,0,0
574,162,0,0,0,0,0,0,0,0,0,-1,1798,862,0,0
581,162,0,0,0,0,0,0,0,0,0,-1,1805,862,0,0
588,162,0,0,0,0,0,0,0,0,0,-1,1812,862,0,0
595,162,0,0,0,0,0,0,0,0,0,-1,1819,862,0,0
602,162,0,0,0,0,0,0,0,0,0,-1,1826,862,0,0
609,162,0,0,0,0,0,0,0,0,0,-1,1833,862,0,0
616,162,45.0564,2.77661,0.00336059,0.00451168,-0.00108,0.00515992,0.00271235,-1.03021,0.00298039,0.0444157,1840,862,45.0564,-2.77663
623,162,45.1971,2.86981,0.00255105,0.00363092,-0.000501751,0.00382806,0.00235391,-1.19642,0.0022295,0.0445893,1847,862,45.1971,-2.86981
630,162,45.3263,2.70563,0.00161734,0.00272849,-0.000122652,0.00274187,0.00160396,-1.46216,0.00159062,0.0415286,1854,862,45.3264,-2.70565
637,162,45.2616,2.74457,0.000560305,0.00219435,0.000195621,0.00221744,0.000537213,1.45329,0.00133573,0.0396298,1861,862,45.2615,-2.74459
644,162,45.267,2.63776,-0.000339687,0.0017135,0.000370983,0.00177847,-0.000404662,1.39741,0.00134105,0.0353969,1868,862,45.267,-2.63778
651,162,45.2152,2.64777,-0.000894189,0.00124745,0.00040314,0.00132082,-0.000967562,1.39076,0.00132644,0.0317194,1875,862,45.2152,-2.64774
658,162,45.1382,2.7688,-0.00117827,0.000954349,0.000354523,0.00101174,-0.00123566,1.41031,0.00129968,0.0338505,1882,862,45.1382,-2.7688
665,162,45.0845,2.90497,-0.00137072,0.000751882,0.000250162,0.000780966,-0.00139981,1.45505,0.00127586,0.0439795,1889,862,45.0845,-2.90499
672,162,45.0309,3.01971,0,0,0,0,0,0,0,-1,1896,862,45.0309,-3.01971
679,162,26.5077,2.54785,0,0,0,0,0,0,0,-1,1903,862,26.5077,-2.54787
686,162,37.2938,1.55591,0,0,0,0,0,0,0,-1,1910,862,37.2939,-1.55592
693,162,37.5322,2.21936,-0.0012405,-9.91826e-06,-0.000287572,5.39674e-05,-0.00130438,-1.35219,0.000888124,0.0230072,1917,862,37.5322,-2.21936
700,162,37.5332,2.65997,-0.00101543,4.77683e-05,-0.000407728,0.000186124,-0.00115379,-1.24366,0.00083815,0.0221094,1924,862,37.5331,-2.66
707,162,37.469,3.07288,-0.000655486,-4.06533e-05,-0.000431453,0.0001817,-0.00087784,-1.09494,0.000654259,0.016198,1931,862,37.469,-3.07285
714,162,37.377,3.51648,-1.06489e-05,0.000153102,-0.000719707,0.000795576,-0.000653123,-0.842036,0.000837754,0.0189709,1938,862,37.3769,-3.51649
721,162,37.2816,4.08124,0.00077143,0.00015839,-0.000941871,0.0014554,-0.000525582,-0.628084,0.00118497,0.0280921,1945,862,37.2817,-4.08121
728,162,37.2629,4.54059,0.00159435,0.000293892,-0.00102605,0.00215886,-0.000270616,-0.502977,0.0015374,0.0232632,1952,862,37.2629,-4.54058
735,162,37.3029,4.9613,0.00272622,0.000386213,-0.00114333,0.0031921,-7.96666e-05,-0.386935,0.00215511,0.0115524,1959,862,37.3029,-4.96131
742,162,37.2703,5.43896,0.00417695,0.000484495,-0.00126368,0.00456801,9.34387e-05,-0.300112,0.00301468,0.0132881,1966,862,37.2702,-5.43899
749,162,37.2239,5.91205,0.0060549,0.000494256,-0.0014302,0.00640118,0.000147972,-0.237551,0.00421899,0.0196953,1973,862,37.2239,-5.91206
756,162,37.2697,6.34698,0.008703,0.000435309,-0.00170009,0.00903894,9.93675e-05,-0.195088,0.00599311,0.0436309,1980,862,37.2697,-6.347
763,162,37.396,7.0376,0,0,0,0,0,0,0,-1,1987,862,37.396,-7.03757
770,162,37.8954,6.94592,0,0,0,0,0,0,0,-1,1994,862,37.8954,-6.94592
777,162,38.9558,7.25244,0,0,0,0,0,0,0,-1,2001,862,38.9558,-7.25246
784,162,39.6116,7.495,0,0,0,0,0,0,0,-1,2008,862,39.6116,-7.49501
791,162,0,0,0,0,0,0,0,0,0,-1,2015,862,0,0
798,162,0,0,0,0,0,0,0,0,0,-1,2022,862,0,0
805,162,0,0,0,0,0,0,0,0,0,-1,2029,862,0,0
812,162,0,0,0,0,0,0,0,0,0,-1,2036,862,0,0
-700,155,0,0,0,0,0,0,0,0,0,-1,524,869,0,0
-693,155,0,0,0,0,0,0,0,0,0,-1,531,869,0,0
-686,155,0,0,0,0,0,0,0,0,0,-1,538,869,0,0
-679,155,0,0,0,0,0,0,0,0,0,-1,545,869,0,0
-672,155,0,0,0,0,0,0,0,0,0,-1,552,869,0,0
-665,155,-30.5135,-2.07013,0,0,0,0,0,0,0,-1,559,869,-30.5135,2.07016
-658,155,-26.5083,2.80249,0,0,0,0,0,0,0,-1,566,869,-26.5083,-2.80249
-651,155,-26.8799,3.1662,0,0,0,0,0,0,0,-1,573,869,-26.88,-3.16622
-644,155,-27.3491,5.06921,0,0,0,0,0,0,0,-1,580,869,-27.3491,-5.06923
-637,155,-27.1959,4.92041,0,0,0,0,0,0,0,-1,587,869,-27.1959,-4.92039
-630,155,-27.3053,4.35278,-0.0132668,-0.00602085,-0.0138938,0.00471455,-0.0240022,-0.912939,0.0177825,0.04858,594,869,-27.3053,-4.35275
-623,155,-27.3426,3.76355,-0.00929357,-0.00142278,-0.0103369,0.00570254,-0.0164189,-0.967283,0.0132619,0.0266184,601,869,-27.3426,-3.76353
-616,155,-27.4105,3.22534,-0.0056673,0.00295148,-0.00730257,0.00712139,-0.00983721,-1.05196,0.00983281,0.0148366,608,869,-27.4105,-3.22537
-609,155,-27.4763,2.73553,-0.00320354,0.00474644,-0.00413479,0.00650705,-0.00496415,-1.16825,0.00664284,0.0139046,615,869,-27.4763,-2.73553
-602,155,-27.5068,2.29059,-0.00197291,0.00421589,-0.00168369,0.00464429,-0.00240131,-1.32164,0.00413591,0.0127252,622,869,-27.5068,-2.29061
-595,155,-27.533,1.85114,-0.00124059,0.00263237,0.000227127,0.00264565,-0.00125386,1.51242,0.00229868,0.0122377,629,869,-27.533,-1.85116
-588,155,-27.5413,1.41974,-0.00108922,0.000560046,0.00121333,0.00120244,-0.00173162,1.08387,0.00170314,0.0147954,636,869,-27.5413,-1.41973
-581,155,-27.7661,1.06641,-0.000836308,-0.000259887,0.00152224,0.00100119,-0.00209738,0.878957,0.00182589,0.0284642,643,869,-27.7661,-1.0664
-574,155,-27.8561,0.671509,-0.00103175,-0.000463782,0.001417,0.000697405,-0.00219294,0.884295,0.00174161,0.0352973,650,869,-27.8561,-0.671486
-567,155,-27.7909,0.052002,-0.000952976,-0.00103766,0.00144253,0.000447831,-0.00243846,0.770727,0.00179365,0.0414802,657,869,-27.7909,-0.0520045
-560,155,-27.6594,-0.51532,-0.000584417,-0.00125567,0.00191633,0.00102545,-0.00286554,0.698707,0.0023287,0.0356988,664,869,-27.6594,0.51533
-553,155,-27.4471,-1.35913,0,0,0,0,0,0,0,-1,671,869,-27.4471,1.35914
-546,155,-22.7988,0.873657,0,0,0,0,0,0,0,-1,678,869,-22.7988,-0.873645
-539,155,-33.8356,0.734009,0,0,0,0,0,0,0,-1,685,869,-33.8356,-0.733988
-532,155,-33.7409,0.844177,-0.000536167,-0.000853271,0.00126034,0.000575554,-0.00196499,0.722826,0.00153817,0.0355281,692,869,-33.7409,-0.844168
-525,155,-33.7123,0.923767,-0.000705615,-0.000591797,0.00102307,0.000375942,-0.00167335,0.813182,0.00125972,0.0385147,699,869,-33.7123,-0.923766
-518,155,-33.7886,0.742981,-0.000990291,3.93892e-05,0.00083726,0.000507435,-0.00145834,1.06105,0.00117837,0.0411163,706,869,-33.7886,-0.742958
-511,155,-33.796,0.756897,-0.000614225,0.00110862,0.000499198,0.00124281,-0.000748416,1.30819,0.00116139,0.0420884,713,869,-33.7959,-0.756917
-504,155,-33.8918,0.797546,0.000163025,0.00350245,-0.000351883,0.00353913,0.000126349,-1.46694,0.00231845,0.044465,720,869,-33.8919,-0.797563
-497,155,0,0,0,0,0,0,0,0,0,-1,727,869,0,0
-490,155,0,0,0,0,0,0,0,0,0,-1,734,869,0,0
-483,155,0,0,0,0,0,0,0,0,0,-1,741,869,0,0
-476,155,0,0,0,0,0,0,0,0,0,-1,748,869,0,0
-469,155,0,0,0,0,0,0,0,0,0,-1,755,869,0,0
-462,155,0,0,0,0,0,0,0,0,0,-1,762,869,0,0
-455,155,0,0,0,0,0,0,0,0,0,-1,769,869,0,0
-448,155,0,0,0,0,0,0,0,0,0,-1,776,869,0,0
-441,155,0,0,0,0,0,0,0,0,0,-1,783,869,0,0
-434,155,0,0,0,0,0,0,0,0,0,-1,790,869,0,0
-427,155,0,0,0,0,0,0,0,0,0,-1,797,869,0,0
-420,155,0,0,0,0,0,0,0,0,0,-1,804,869,0,0
-413,155,0,0,0,0,0,0,0,0,0,-1,811,869,0,0
-406,155,0,0,0,0,0,0,0,0,0,-1,818,869,0,0
-399,155,0,0,0,0,0,0,0,0,0,-1,825,869,0,0
-392,155,0,0,0,0,0,0,0,0,0,-1,832,869,0,0
-385,155,0,0,0,0,0,0,0,0,0,-1,839,869,0,0
-378,155,0,0,0,0,0,0,0,0,0,-1,846,869,0,0
-371,155,0,0,0,0,0,0,0,0,0,-1,853,869,0,0
-364,155,0,0,0,0,0,0,0,0,0,-1,860,869,0,0
-357,155,0,0,0,0,0,0,0,0,0,-1,867,869,0,0
-350,155,0,0,0,0,0,0,0,0,0,-1,874,869,0,0
-343,155,0,0,0,0,0,0,0,0,0,-1,881,869,0,0
-336,155,0,0,0,0,0,0,0,0,0,-1,888,869,0,0
-329,155,0,0,0,0,0,0,0,0,0,-1,895,869,0,0
-322,155,0,0,0,0,0,0,0,0,0,-1,902,869,0,0
-315,155,0,0,0,0,0,0,0,0,0,-1,909,869,0,0
-308,155,0,0,0,0,0,0,0,0,0,-1,916,869,0,0
-301,155,0,0,0,0,0,0,0,0,0,-1,923,869,0,0
-294,155,0,0,0,0,0,0,0,0,0,-1,930,869,0,0
-287,155,0,0,0,0,0,0,0,0,0,-1,937,869,0,0
-280,155,0,0,0,0,0,0,0,0,0,-1,944,869,0,0
-273,155,0,0,0,0,0,0,0,0,0,-1,951,869,0,0
-266,155,0,0,0,0,0,0,0,0,0,-1,958,869,0,0
-259,155,0,0,0,0,0,0,0,0,0,-1,965,869,0,0
-252,155,0,0,0,0,0,0,0,0,0,-1,972,869,0,0
-245,155,0,0,0,0,0,0,0,0,0,-1,979,869,0,0
-238,155,0,0,0,0,0,0,0,0,0,-1,986,869,0,0
-231,155,0,0,0,0,0,0,0,0,0,-1,993,869,0,0
-224,155,0,0,0,0,0,0,0,0,0,-1,1000,869,0,0
-217,155,0,0,0,0,0,0,0,0,0,-1,1007,869,0,0
-210,155,0,0,0,0,0,0,0,0,0,-1,1014,869,0,0
-203,155,0,0,0,0,0,0,0,0,0,-1,1021,869,0,0
-196,155,0,0,0,0,0,0,0,0,0,-1,1028,869,0,0
-189,155,0,0,0,0,0,0,0,0,0,-1,1035,869,0,0
-182,155,0,0,0,0,0,0,0,0,0,-1,1042,869,0,0
-175,155,0,0,0,0,0,0,0,0,0,-1,1049,869,0,0
-168,155,0,0,0,0,0,0,0,0,0,-1,1056,869,0,0
-161,155,0,0,0,0,0,0,0,0,0,-1,1063,869,0,0
-154,155,0,0,0,0,0,0,0,0,0,-1,1070,869,0,0
-147,155,0,0,0,0,0,0,0,0,0,-1,1077,869,0,0
-140,155,0,0,0,0,0,0,0,0,0,-1,1084,869,0,0
-133,155,0,0,0,0,0,0,0,0,0,-1,1091,869,0,0
-126,155,0,0,0,0,0,0,0,0,0,-1,1098,869,0,0
-119,155,0,0,0,0,0,0,0,0,0,-1,1105,869,0,0
-112,155,0,0,0,0,0,0,0,0,0,-1,1112,869,0,0
-105,155,0,0,0,0,0,0,0,0,0,-1,1119,869,0,0
-98,155,0,0,0,0,0,0,0,0,0,-1,1126,869,0,0
-91,155,0,0,0,0,0,0,0,0,0,-1,1133,869,0,0
-84,155,0,0,0,0,0,0,0,0,0,-1,1140,869,0,0
-77,155,0,0,0,0,0,0,0,0,0,-1,1147,869,0,0
-70,155,0,0,0,0,0,0,0,0,0,-1,1154,869,0,0
-63,155,0,0,0,0,0,0,0,0,0,-1,1161,869,0,0
-56,155,0,0,0,0,0,0,0,0,0,-1,1168,869,0,0
-49,155,0,0,0,0,0,0,0,0,0,-1,1175,869,0,0
-42,155,0,0,0,0,0,0,0,0,0,-1,1182,869,0,0
-35,155,0,0,0,0,0,0,0,0,0,-1,1189,869,0,0
-28,155,0,0,0,0,0,0,0,0,0,-1,1196,869,0,0
-21,155,0,0,0,0,0,0,0,0,0,-1,1203,869,0,0
-14,155,0,0,0,0,0,0,0,0,0,-1,1210,869,0,0
-7,155,0,0,0,0,0,0,0,0,0,-1,1217,869,0,0
0,155,0,0,0,0,0,0,0,0,0,-1,1224,869,0,0
7,155,0,0,0,0,0,0,0,0,0,-1,1231,869,0,0
14,155,0,0,0,0,0,0,0,0,0,-1,1238,869,0,0
21,155,0,0,0,0,0,0,0,0,0,-1,1245,869,0,0
28,155,0,0,0,0,0,0,0,0,0,-1,1252,869,0,0
35,155,0,0,0,0,0,0,0,0,0,-1,1259,869,0,0
42,155,0,0,0,0,0,0,0,0,0,-1,1266,869,0,0
49,155,0,0,0,0,0,0,0,0,0,-1,1273,869,0,0
56,155,0,0,0,0,0,0,0,0,0,-1,1280,869,0,0
63,155,0,0,0,0,0,0,0,0,0,-1,1287,869,0,0
70,155,0,0,0,0,0,0,0,0,0,-1,1294,869,0,0
77,155,0,0,0,0,0,0,0,0,0,-1,1301,869,0,0
84,155,0,0,0,0,0,0,0,0,0,-1,1308,869,0,0
91,155,0,0,0,0,0,0,0,0,0,-1,1315,869,0,0
98,155,0,0,0,0,0,0,0,0,0,-1,1322,869,0,0
105,155,0,0,0,0,0,0,0,0,0,-1,1329,869,0,0
112,155,0,0,0,0,0,0,0,0,0,-1,1336,869,0,0
119,155,0,0,0,0,0,0,0,0,0,-1,1343,869,0,0
126,155,0,0,0,0,0,0,0,0,0,-1,1350,869,0,0
133,155,0,0,0,0,0,0,0,0,0,-1,1357,869,0,0
140,155,0,0,0,0,0,0,0,0,0,-1,1364,869,0,0
147,155,0,0,0,0,0,0,0,0,0,-1,1371,869,0,0
154,155,0,0,0,0,0,0,0,0,0,-1,1378,869,0,0
161,155,0,0,0,0,0,0,0,0,0,-1,1385,869,0,0
168,155,0,0,0,0,0,0,0,0,0,-1,1392,869,0,0
175,155,0,0,0,0,0,0,0,0,0,-1,1399,869,0,0
182,155,0,0,0,0,0,0,0,0,0,-1,1406,869,0,0
189,155,0,0,0,0,0,0,0,0,0,-1,1413,869,0,0
196,155,0,0,0,0,0,0,0,0,0,-1,1420,869,0,0
203,155,0,0,0,0,0,0,0,0,0,-1,1427,869,0,0
210,155,0,0,0,0,0,0,0,0,0,-1,1434,869,0,0
217,155,0,0,0,0,0,0,0,0,0,-1,1441,869,0,0
224,155,0,0,0,0,0,0,0,0,0,-1,1448,869,0,0
231,155,0,0,0,0,0,0,0,0,0,-1,1455,869,0,0
238,155,0,0,0,0,0,0,0,0,0,-1,1462,869,0,0
245,155,0,0,0,0,0,0,0,0,0,-1,1469,869,0,0
252,155,0,0,0,0,0,0,0,0,0,-1,1476,869,0,0
259,155,0,0,0,0,0,0,0,0,0,-1,1483,869,0,0
266,155,0,0,0,0,0,0,0,0,0,-1,1490,869,0,0
273,155,0,0,0,0,0,0,0,0,0,-1,1497,869,0,0
280,155,0,0,0,0,0,0,0,0,0,-1,1504,869,0,0
287,155,0,0,0,0,0,0,0,0,0,-1,1511,869,0,0
294,155,0,0,0,0,0,0,0,0,0,-1,1518,869,0,0
301,155,0,0,0,0,0,0,0,0,0,-1,1525,869,0,0
308,155,0,0,0,0,0,0,0,0,0,-1,1532,869,0,0
315,155,0,0,0,0,0,0,0,0,0,-1,1539,869,0,0
322,155,0,0,0,0,0,0,0,0,0,-1,1546,869,0,0
329,155,0,0,0,0,0,0,0,0,0,-1,1553,869,0,0
336,155,0,0,0,0,0,0,0,0,0,-1,1560,869,0,0
343,155,0,0,0,0,0,0,0,0,0,-1,1567,869,0,0
350,155,0,0,0,0,0,0,0,0,0,-1,1574,869,0,0
357,155,0,0,0,0,0,0,0,0,0,-1,1581,869,0,0
364,155,0,0,0,0,0,0,0,0,0,-1,1588,869,0,0
371,155,0,0,0,0,0,0,0,0,0,-1,1595,869,0,0
378,155,0,0,0,0,0,0,0,0,0,-1,1602,869,0,0
385,155,0,0,0,0,0,0,0,0,0,-1,1609,869,0,0
392,155,0,0,0,0,0,0,0,0,0,-1,1616,869,0,0
399,155,0,0,0,0,0,0,0,0,0,-1,1623,869,0,0
406,155,0,0,0,0,0,0,0,0,0,-1,1630,869,0,0
413,155,0,0,0,0,0,0,0,0,0,-1,1637,869,0,0
420,155,0,0,0,0,0,0,0,0,0,-1,1644,869,0,0
427,155,0,0,0,0,0,0,0,0,0,-1,1651,869,0,0
434,155,0,0,0,0,0,0,0,0,0,-1,1658,869,0,0
441,155,0,0,0,0,0,0,0,0,0,-1,1665,869,0,0
448,155,0,0,0,0,0,0,0,0,0,-1,1672,869,0,0
455,155,0,0,0,0,0,0,0,0,0,-1,1679,869,0,0
462,155,0,0,0,0,0,0,0,0,0,-1,1686,869,0,0
469,155,0,0,0,0,0,0,0,0,0,-1,1693,869,0,0
476,155,0,0,0,0,0,0,0,0,0,-1,1700,869,0,0
483,155,0,0,0,0,0,0,0,0,0,-1,1707,869,0,0
490,155,0,0,0,0,0,0,0,0,0,-1,1714,869,0,0
497,155,0,0,0,0,0,0,0,0,0,-1,1721,869,0,0
504,155,0,0,0,0,0,0,0,0,0,-1,1728,869,0,0
511,155,0,0,0,0,0,0,0,0,0,-1,1735,869,0,0
518,155,0,0,0,0,0,0,0,0,0,-1,1742,869,0,0
525,155,0,0,0,0,0,0,0,0,0,-1,1749,869,0,0
532,155,0,0,0,0,0,0,0,0,0,-1,1756,869,0,0
539,155,0,0,0,0,0,0,0,0,0,-1,1763,869,0,0
546,155,0,0,0,0,0,0,0,0,0,-1,1770,869,0,0
553,155,0,0,0,0,0,0,0,0,0,-1,1777,869,0,0
560,155,0,0,0,0,0,0,0,0,0,-1,1784,869,0,0
567,155,0,0,0,0,0,0,0,0,0,-1,1791,869,0,0
574,155,0,0,0,0,0,0,0,0,0,-1,1798,869,0,0
581,155,0,0,0,0,0,0,0,0,0,-1,1805,869,0,0
588,155,0,0,0,0,0,0,0,0,0,-1,1812,869,0,0
595,155,0,0,0,0,0,0,0,0,0,-1,1819,869,0,0
602,155,0,0,0,0,0,0,0,0,0,-1,1826,869,0,0
609,155,0,0,0,0,0,0,0,0,0,-1,1833,869,0,0
616,155,45.3171,2.70624,0.00292854,0.00494669,-0.000951998,0.00532489,0.00255034,-1.19265,0.00307524,0.0441691,1840,869,45.3172,-2.70626
623,155,45.1298,2.88428,0.00236689,0.00400042,-0.000403066,0.00409446,0.00227285,-1.34158,0.00236872,0.0422578,1847,869,45.1298,-2.8843
630,155,44.9756,2.82867,0.00171954,0.00304684,-3.13985e-05,0.00304759,0.00171879,-1.54716,0.00176432,0.0423217,1854,869,44.9756,-2.82864
637,155,45.069,2.67047,0.000880558,0.00247884,0.000269988,0.00252321,0.000836182,1.40789,0.00148413,0.0407464,1861,869,45.069,-2.6705
644,155,45.2032,2.54382,3.98198e-05,0.00198225,0.000461716,0.00208642,-6.43441e-05,1.34891,0.00141288,0.0364454,1868,869,45.2033,-2.5438
651,155,45.2676,2.54291,-0.000538281,0.00150413,0.000521835,0.00162973,-0.000663885,1.33459,0.0013628,0.0325416,1875,869,45.2676,-2.54288
658,155,45.212,2.66345,-0.000836034,0.00117985,0.000522921,0.00130742,-0.000963607,1.33151,0.00131618,0.0277264,1882,869,45.2121,-2.66347
665,155,45.0708,2.8255,-0.00101819,0.000969533,0.000432987,0.00105975,-0.00110842,1.36536,0.0012519,0.0322745,1889,869,45.0708,-2.82549
672,155,45.1758,2.6217,0,0,0,0,0,0,0,-1,1896,869,45.1758,-2.62169
679,155,35.1565,2.78528,0,0,0,0,0,0,0,-1,1903,869,35.1565,-2.7853
686,155,38.0996,1.91821,0,0,0,0,0,0,0,-1,1910,869,38.0996,-1.91822
693,155,37.9596,2.24579,-0.000959821,0.000204384,-0.00014941,0.000223254,-0.00097869,-1.44517,0.000738217,0.0383575,1917,869,37.9596,-2.24576
700,155,38.0034,2.7226,-0.000808333,0.000302569,-0.000283698,0.000370825,-0.000876589,-1.33469,0.000739663,0.0283802,1924,869,38.0034,-2.72262
707,155,38.0519,3.1994,-0.00050263,0.000253277,-0.000295058,0.000354811,-0.000604164,-1.23937,0.000559868,0.0206329,1931,869,38.0518,-3.19941
714,155,38.0177,3.60474,3.8918e-05,0.000455381,-0.000610298,0.000891993,-0.000397694,-0.949803,0.000762613,0.038871,1938,869,38.0177,-3.60476
721,155,37.8256,4.06152,0.000585214,0.00047568,-0.000911206,0.0014433,-0.000382404,-0.755382,0.00111181,0.0291942,1945,869,37.8256,-4.06152
728,155,37.8021,4.5387,0.0010396,0.00068551,-0.00111813,0.00199462,-0.000269508,-0.70688,0.00142808,0.020457,1952,869,37.8022,-4.53872
735,155,37.7954,4.99573,0.00174338,0.000897402,-0.00138851,0.0027719,-0.000131115,-0.637546,0.00189315,0.0160089,1959,869,37.7955,-4.99573
742,155,37.782,5.45959,0.0027139,0.00117411,-0.00168873,0.00379995,8.80569e-05,-0.571522,0.00250446,0.0178693,1966,869,37.782,-5.45962
749,155,37.7103,5.9068,0.00403726,0.00144103,-0.00202525,0.00514471,0.000333583,-0.500399,0.0033242,0.0168909,1973,869,37.7103,-5.9068
756,155,37.6758,6.42413,0.00598564,0.00175272,-0.00245286,0.00710892,0.00062944,-0.429443,0.00454402,0.027969,1980,869,37.6758,-6.42413
763,155,37.6749,6.9563,0.00892176,0.00238459,-0.00278877,0.00994979,0.00135656,-0.353175,0.00623043,0.0460304,1987,869,37.675,-6.95627
770,155,37.6512,7.48785,0,0,0,0,0,0,0,-1,1994,869,37.6513,-7.48787
777,155,39.4199,7.27161,0,0,0,0,0,0,0,-1,2001,869,39.42,-7.27162
784,155,40.4202,7.72455,0,0,0,0,0,0,0,-1,2008,869,40.4202,-7.72452
791,155,0,0,0,0,0,0,0,0,0,-1,2015,869,0,0
798,155,0,0,0,0,0,0,0,0,0,-1,2022,869,0,0
805,155,0,0,0,0,0,0,0,0,0,-1,2029,869,0,0
812,155,0,0,0,0,0,0,0,0,0,-1,2036,869,0,0
-700,148,0,0,0,0,0,0,0,0,0,-1,524,876,0,0
-693,148,0,0,0,0,0,0,0,0,0,-1,531,876,0,0
-686,148,0,0,0,0,0,0,0,0,0,-1,538,876,0,0
-679,148,0,0,0,0,0,0,0,0,0,-1,545,876,0,0
-672,148,-29.1981,-1.29865,-0.0718642,-0.0971209,-0.0315242,-0.0505329,-0.118452,-0.59489,0.0686335,0.0492533,552,876,-29.198,1.29867
-665,148,-30.1098,-1.46204,-0.0591269,-0.0760362,-0.0286379,-0.0377217,-0.0974414,-0.641862,0.0567337,0.0480189,559,876,-30.1098,1.46203
-658,148,-29.9059,-1.84497,0,0,0,0,0,0,0,-1,566,876,-29.9059,1.84497
-651,148,-27.1993,2.35455,0,0,0,0,0,0,0,-1,573,876,-27.1993,-2.35458
-644,148,-27.428,2.4422,0,0,0,0,0,0,0,-1,580,876,-27.428,-2.44218
-637,148,-27.6625,2.17377,0,0,0,0,0,0,0,-1,587,876,-27.6625,-2.17374
-630,148,-27.5092,4.36823,0,0,0,0,0,0,0,-1,594,876,-27.5092,-4.36821
-623,148,-27.7111,3.76013,-0.0123622,-0.00634604,-0.00794302,-0.000860587,-0.0178477,-0.966407,0.0116222,0.0247074,601,876,-27.7111,-3.76015
-616,148,-27.8721,3.19806,-0.00801837,-0.000703579,-0.00532354,0.00209786,-0.0108198,-1.08638,0.00800466,0.0136028,608,876,-27.8721,-3.19805
-609,148,-27.9433,2.72058,-0.0048201,0.00230358,-0.00261831,0.0031624,-0.00567892,-1.25385,0.005173,0.0123269,615,876,-27.9433,-2.72059
-602,148,-27.9647,2.28552,-0.00291895,0.00291409,-0.000670994,0.00299029,-0.00299514,-1.45773,0.00345569,0.0137061,622,876,-27.9646,-2.28552
-595,148,-27.9867,1.85565,-0.00175234,0.00210707,0.000766349,0.00225367,-0.00189894,1.38178,0.00240043,0.0126852,629,876,-27.9867,-1.85563
-588,148,-28.0387,1.36047,-0.00138651,0.0005718,0.00135298,0.00126277,-0.00207747,1.09863,0.00194751,0.0212568,636,876,-28.0387,-1.36049
-581,148,-28.1633,1.02979,-0.0011128,-2.50769e-06,0.00147998,0.00102302,-0.00213833,0.964829,0.00186268,0.0362022,643,876,-28.1633,-1.02979
-574,148,-27.8625,0.721191,-0.00131819,-0.000175026,0.00136995,0.000737802,-0.00223102,0.983033,0.00178485,0.0408045,650,876,-27.8625,-0.72122
-567,148,-28.0833,0.252502,0,0,0,0,0,0,0,-1,657,876,-28.0833,-0.252482
-560,148,-28.204,-0.425354,0,0,0,0,0,0,0,-1,664,876,-28.204,0.425334
-553,148,-18.3896,-0.00280762,0,0,0,0,0,0,0,-1,671,876,-18.3897,0.00278524
-546,148,-33.8135,0.811157,0,0,0,0,0,0,0,-1,678,876,-33.8135,-0.811148
-539,148,-33.766,0.77948,-0.00122049,-0.000430361,0.00141383,0.000642563,-0.00229342,0.921638,0.00178217,0.0381034,685,876,-33.766,-0.779495
-532,148,-33.7233,0.826416,-0.00112657,-0.000200028,0.00130379,0.000720348,-0.00204695,0.956105,0.00165776,0.0357668,692,876,-33.7233,-0.826402
-525,148,-33.6856,0.947327,-0.00150876,0.000163541,0.00116106,0.000758197,-0.00210342,1.09746,0.00171192,0.0365983,699,876,-33.6856,-0.947297
-518,148,-33.7346,1.02875,-0.00195986,0.000978149,0.00108279,0.00133409,-0.0023158,1.2532,0.00213252,0.0418331,706,876,-33.7346,-1.02875
-511,148,-33.6844,1.09351,-0.00179988,0.00241297,0.000847379,0.00257703,-0.00196394,1.37956,0.00262968,0.0421306,713,876,-33.6844,-1.09353
-504,148,-33.6744,1.0802,-0.00137066,0.00544311,-4.87799e-05,0.00544346,-0.00137101,-1.56364,0.00416194,0.0431973,720,876,-33.6744,-1.08023
-497,148,0,0,0,0,0,0,0,0,0,-1,727,876,0,0
-490,148,0,0,0,0,0,0,0,0,0,-1,734,876,0,0
-483,148,0,0,0,0,0,0,0,0,0,-1,741,876,0,0
-476,148,0,0,0,0,0,0,0,0,0,-1,748,876,0,0
-469,148,0,0,0,0,0,0,0,0,0,-1,755,876,0,0
-462,148,0,0,0,0,0,0,0,0,0,-1,762,876,0,0
-455,148,0,0,0,0,0,0,0,0,0,-1,769,876,0,0
-448,148,0,0,0,0,0,0,0,0,0,-1,776,876,0,0
-441,148,0,0,0,0,0,0,0,0,0,-1,783,876,0,0
-434,148,0,0,0,0,0,0,0,0,0,-1,790,876,0,0
-427,148,0,0,0,0,0,0,0,0,0,-1,797,876,0,0
-420,148,0,0,0,0,0,0,0,0,0,-1,804,876,0,0
-413,148,0,0,0,0,0,0,0,0,0,-1,811,876,0,0
-406,148,0,0,0,0,0,0,0,0,0,-1,818,876,0,0
-399,148,0,0,0,0,0,0,0,0,0,-1,825,876,0,0
-392,148,0,0,0,0,0,0,0,0,0,-1,832,876,0,0
-385,148,0,0,0,0,0,0,0,0,0,-1,839,876,0,0
-378,148,0,0,0,0,0,0,0,0,0,-1,846,876,0,0
-371,148,0,0,0,0,0,0,0,0,0,-1,853,876,0,0
-364,148,0,0,0,0,0,0,0,0,0,-1,860,876,0,0
-357,148,0,0,0,0,0,0,0,0,0,-1,867,876,0,0
-350,148,0,0,0,0,0,0,0,0,0,-1,874,876,0,0
-343,148,0,0,0,0,0,0,0,0,0,-1,881,876,0,0
-336,148,0,0,0,0,0,0,0,0,0,-1,888,876,0,0
-329,148,0,0,0,0,0,0,0,0,0,-1,895,876,0,0
-322,148,0,0,0,0,0,0,0,0,0,-1,902,876,0,0
-315,148,0,0,0,0,0,0,0,0,0,-1,909,876,0,0
-308,148,0,0,0,0,0,0,0,0,0,-1,916,876,0,0
-301,148,0,0,0,0,0,0,0,0,0,-1,923,876,0,0
-294,148,0,0,0,0,0,0,0,0,0,-1,930,876,0,0
-287,148,0,0,0,0,0,0,0,0,0,-1,937,876,0,0
-280,148,0,0,0,0,0,0,0,0,0,-1,944,876,0,0
-273,148,0,0,0,0,0,0,0,0,0,-1,951,876,0,0
-266,148,0,0,0,0,0,0,0,0,0,-1,958,876,0,0
-259,148,0,0,0,0,0,0,0,0,0,-1,965,876,0,0
-252,148,0,0,0,0,0,0,0,0,0,-1,972,876,0,0
-245,148,0,0,0,0,0,0,0,0,0,-1,979,876,0,0
-238,148,0,0,0,0,0,0,0,0,0,-1,986,876,0,0
-231,148,0,0,0,0,0,0,0,0,0,-1,993,876,0,0
-224,148,0,0,0,0,0,0,0,0,0,-1,1000,876,0,0
-217,148,0,0,0,0,0,0,0,0,0,-1,1007,876,0,0
-210,148,0,0,0,0,0,0,0,0,0,-1,1014,876,0,0
-203,148,0,0,0,0,0,0,0,0,0,-1,1021,876,0,0
-196,148,0,0,0,0,0,0,0,0,0,-1,1028,876,0,0
-189,148,0,0,0,0,0,0,0,0,0,-1,1035,876,0,0
-182,148,0,0,0,0,0,0,0,0,0,-1,1042,876,0,0
-175,148,0,0,0,0,0,0,0,0,0,-1,1049,876,0,0
-168,148,0,0,0,0,0,0,0,0,0,-1,1056,876,0,0
-161,148,0,0,0,0,0,0,0,0,0,-1,1063,876,0,0
-154,148,0,0,0,0,0,0,0,0,0,-1,1070,876,0,0
-147,148,0,0,0,0,0,0,0,0,0,-1,1077,876,0,0
-140,148,0,0,0,0,0,0,0,0,0,-1,1084,876,0,0
-133,148,0,0,0,0,0,0,0,0,0,-1,1091,876,0,0
-126,148,0,0,0,0,0,0,0,0,0,-1,1098,876,0,0
-119,148,0,0,0,0,0,0,0,0,0,-1,1105,876,0,0
-112,148,0,0,0,0,0,0,0,0,0,-1,1112,876,0,0
-105,148,0,0,0,0,0,0,0,0,0,-1,1119,876,0,0
-98,148,0,0,0,0,0,0,0,0,0,-1,1126,876,0,0
-91,148,0,0,0,0,0,0,0,0,0,-1,1133,876,0,0
-84,148,0,0,0,0,0,0,0,0,0,-1,1140,876,0,0
-77,148,0,0,0,0,0,0,0,0,0,-1,1147,876,0,0
-70,148,0,0,0,0,0,0,0,0,0,-1,1154,876,0,0
-63,148,0,0,0,0,0,0,0,0,0,-1,1161,876,0,0
-56,148,0,0,0,0,0,0,0,0,0,-1,1168,876,0,0
-49,148,0,0,0,0,0,0,0,0,0,-1,1175,876,0,0
-42,148,0,0,0,0,0,0,0,0,0,-1,1182,876,0,0
-35,148,0,0,0,0,0,0,0,0,0,-1,1189,876,0,0
-28,148,0,0,0,0,0,0,0,0,0,-1,1196,876,0,0
-21,148,0,0,0,0,0,0,0,0,0,-1,1203,876,0,0
-14,148,0,0,0,0,0,0,0,0,0,-1,1210,876,0,0
-7,148,0,0,0,0,0,0,0,0,0,-1,1217,876,0,0
0,148,0,0,0,0,0,0,0,0,0,-1,1224,876,0,0
7,148,0,0,0,0,0,0,0,0,0,-1,1231,876,0,0
14,148,0,0,0,0,0,0,0,0,0,-1,1238,876,0,0
21,148,0,0,0,0,0,0,0,0,0,-1,1245,876,0,0
28,148,0,0,0,0,0,0,0,0,0,-1,1252,876,0,0
35,148,0,0,0,0,0,0,0,0,0,-1,1259,876,0,0
42,148,0,0,0,0,0,0,0,0,0,-1,1266,876,0,0
49,148,0,0,0,0,0,0,0,0,0,-1,1273,876,0,0
56,148,0,0,0,0,0,0,0,0,0,-1,1280,876,0,0
63,148,0,0,0,0,0,0,0,0,0,-1,1287,876,0,0
70,148,0,0,0,0,0,0,0,0,0,-1,1294,876,0,0
77,148,0,0,0,0,0,0,0,0,0,-1,1301,876,0,0
84,148,0,0,0,0,0,0,0,0,0,-1,1308,876,0,0
91,148,0,0,0,0,0,0,0,0,0,-1,1315,876,0,0
98,148,0,0,0,0,0,0,0,0,0,-1,1322,876,0,0
105,148,0,0,0,0,0,0,0,0,0,-1,1329,876,0,0
112,148,0,0,0,0,0,0,0,0,0,-1,1336,876,0,0
119,148,0,0,0,0,0,0,0,0,0,-1,1343,876,0,0
126,148,0,0,0,0,0,0,0,0,0,-1,1350,876,0,0
133,148,0,0,0,0,0,0,0,0,0,-1,1357,876,0,0
140,148,0,0,0,0,0,0,0,0,0,-1,1364,876,0,0
147,148,0,0,0,0,0,0,0,0,0,-1,1371,876,0,0
154,148,0,0,0,0,0,0,0,0,0,-1,1378,876,0,0
161,148,0,0,0,0,0,0,0,0,0,-1,1385,876,0,0
168,148,0,0,0,0,0,0,0,0,0,-1,1392,876,0,0
175,148,0,0,0,0,0,0,0,0,0,-1,1399,876,0,0
182,148,0,0,0,0,0,0,0,0,0,-1,1406,876,0,0
189,148,0,0,0,0,0,0,0,0,0,-1,1413,876,0,0
196,148,0,0,0,0,0,0,0,0,0,-1,1420,876,0,0
203,148,0,0,0,0,0,0,0,0,0,-1,1427,876,0,0
210,148,0,0,0,0,0,0,0,0,0,-1,1434,876,0,0
217,148,0,0,0,0,0,0,0,0,0,-1,1441,876,0,0
224,148,0,0,0,0,0,0,0,0,0,-1,1448,876,0,0
231,148,0,0,0,0,0,0,0,0,0,-1,1455,876,0,0
238,148,0,0,0,0,0,0,0,0,0,-1,1462,876,0,0
245,148,0,0,0,0,0,0,0,0,0,-1,1469,876,0,0
252,148,0,0,0,0,0,0,0,0,0,-1,1476,876,0,0
259,148,0,0,0,0,0,0,0,0,0,-1,1483,876,0,0
266,148,0,0,0,0,0,0,0,0,0,-1,1490,876,0,0
273,148,0,0,0,0,0,0,0,0,0,-1,1497,876,0,0
280,148,0,0,0,0,0,0,0,0,0,-1,1504,876,0,0
287,148,0,0,0,0,0,0,0,0,0,-1,1511,876,0,0
294,148,0,0,0,0,0,0,0,0,0,-1,1518,876,0,0
301,148,0,0,0,0,0,0,0,0,0,-1,1525,876,0,0
308,148,0,0,0,0,0,0,0,0,0,-1,1532,876,0,0
315,148,0,0,0,0,0,0,0,0,0,-1,1539,876,0,0
322,148,0,0,0,0,0,0,0,0,0,-1,1546,876,0,0
329,148,0,0,0,0,0,0,0,0,0,-1,1553,876,0,0
336,148,0,0,0,0,0,0,0,0,0,-1,1560,876,0,0
343,148,0,0,0,0,0,0,0,0,0,-1,1567,876,0,0
350,148,0,0,0,0,0,0,0,0,0,-1,1574,876,0,0
357,148,0,0,0,0,0,0,0,0,0,-1,1581,876,0,0
364,148,0,0,0,0,0,0,0,0,0,-1,1588,876,0,0
371,148,0,0,0,0,0,0,0,0,0,-1,1595,876,0,0
378,148,0,0,0,0,0,0,0,0,0,-1,1602,876,0,0
385,148,0,0,0,0,0,0,0,0,0,-1,1609,876,0,0
392,148,0,0,0,0,0,0,0,0,0,-1,1616,876,0,0
399,148,0,0,0,0,0,0,0,0,0,-1,1623,876,0,0
406,148,0,0,0,0,0,0,0,0,0,-1,1630,876,0,0
413,148,0,0,0,0,0,0,0,0,0,-1,1637,876,0,0
420,148,0,0,0,0,0,0,0,0,0,-1,1644,876,0,0
427,148,0,0,0,0,0,0,0,0,0,-1,1651,876,0,0
434,148,0,0,0,0,0,0,0,0,0,-1,1658,876,0,0
441,148,0,0,0,0,0,0,0,0,0,-1,1665,876,0,0
448,148,0,0,0,0,0,0,0,0,0,-1,1672,876,0,0
455,148,0,0,0,0,0,0,0,0,0,-1,1679,876,0,0
462,148,0,0,0,0,0,0,0,0,0,-1,1686,876,0,0
469,148,0,0,0,0,0,0,0,0,0,-1,1693,876,0,0
476,148,0,0,0,0,0,0,0,0,0,-1,1700,876,0,0
483,148,0,0,0,0,0,0,0,0,0,-1,1707,876,0,0
490,148,0,0,0,0,0,0,0,0,0,-1,1714,876,0,0
497,148,0,0,0,0,0,0,0,0,0,-1,1721,876,0,0
504,148,0,0,0,0,0,0,0,0,0,-1,1728,876,0,0
511,148,0,0,0,0,0,0,0,0,0,-1,1735,876,0,0
518,148,0,0,0,0,0,0,0,0,0,-1,1742,876,0,0
525,148,0,0,0,0,0,0,0,0,0,-1,1749,876,0,0
532,148,0,0,0,0,0,0,0,0,0,-1,1756,876,0,0
539,148,0,0,0,0,0,0,0,0,0,-1,1763,876,0,0
546,148,0,0,0,0,0,0,0,0,0,-1,1770,876,0,0
553,148,0,0,0,0,0,0,0,0,0,-1,1777,876,0,0
560,148,0,0,0,0,0,0,0,0,0,-1,1784,876,0,0
567,148,0,0,0,0,0,0,0,0,0,-1,1791,876,0,0
574,148,0,0,0,0,0,0,0,0,0,-1,1798,876,0,0
581,148,0,0,0,0,0,0,0,0,0,-1,1805,876,0,0
588,148,0,0,0,0,0,0,0,0,0,-1,1812,876,0,0
595,148,0,0,0,0,0,0,0,0,0,-1,1819,876,0,0
602,148,0,0,0,0,0,0,0,0,0,-1,1826,876,0,0
609,148,0,0,0,0,0,0,0,0,0,-1,1833,876,0,0
616,148,0,0,0,0,0,0,0,0,0,-1,1840,876,0,0
623,148,45.1246,2.73389,0.00226464,0.0047571,-0.000212475,0.00477508,0.00224666,-1.48636,0.0027585,0.0409307,1847,876,45.1246,-2.73386
630,148,44.9578,2.7359,0.00184924,0.00350603,0.000232718,0.0035381,0.00181718,1.43386,0.00204298,0.0407845,1854,876,44.9577,-2.73588
637,148,45.062,2.62256,0.00114798,0.00269555,0.000485875,0.00283545,0.00100808,1.29045,0.00165967,0.0373861,1861,876,45.062,-2.62255
644,148,45.1758,2.47614,0.000329288,0.00206719,0.000622106,0.00226693,0.000129552,1.26013,0.00147,0.0364993,1868,876,45.1758,-2.47614
651,148,45.2333,2.33551,-0.000306128,0.00153483,0.000641751,0.00173646,-0.000507756,1.26638,0.00135889,0.0375804,1875,876,45.2332,-2.33551
658,148,45.2478,2.55133,-0.000636727,0.00118852,0.000638431,0.00138966,-0.000837869,1.26558,0.00129915,0.0329677,1882,876,45.2478,-2.55131
665,148,45.0684,2.82312,-0.000826525,0.000986368,0.000524008,0.00112693,-0.000967089,1.30872,0.00121016,0.0244823,1889,876,45.0684,-2.82313
672,148,45.121,2.73309,-0.000817993,0.000729251,0.000454276,0.000852768,-0.00094151,1.30532,0.00103635,0.029026,1896,876,45.121,-2.73309
679,148,45.1831,2.60834,0,0,0,0,0,0,0,-1,1903,876,45.183,-2.60836
686,148,21.6195,2.40845,0,0,0,0,0,0,0,-1,1910,876,21.6196,-2.40846
693,148,38.5413,2.35022,0,0,0,0,0,0,0,-1,1917,876,38.5412,-2.35024
700,148,38.4983,2.7713,-0.000674071,0.000496083,-0.000277242,0.000558445,-0.000736433,-1.34954,0.000749949,0.0308498,1924,876,38.4983,-2.77132
707,148,38.6326,3.37006,-0.000404583,0.000492285,-0.000262157,0.000563292,-0.00047559,-1.30629,0.000600511,0.0259701,1931,876,38.6326,-3.37007
714,148,38.6233,3.71405,0,0,0,0,0,0,0,-1,1938,876,38.6233,-3.71404
721,148,38.3167,4.08588,0.000509996,0.000750492,-0.000875634,0.0015141,-0.000253608,-0.853635,0.00110369,0.0207649,1945,876,38.3166,-4.08589
728,148,38.2999,4.54297,0.000767564,0.00106462,-0.00112765,0.00205348,-0.000221294,-0.85088,0.0014484,0.0214061,1952,876,38.2999,-4.54297
735,148,38.3031,5.03107,0.00124586,0.00139526,-0.00142376,0.00274628,-0.000105161,-0.811608,0.0018669,0.0199046,1959,876,38.3031,-5.03106
742,148,38.2614,5.48309,0.00196439,0.00177517,-0.00174664,0.00361898,0.000120576,-0.758341,0.00237349,0.0212404,1966,876,38.2614,-5.4831
749,148,38.173,5.91296,0.00301228,0.00216751,-0.00204404,0.00467713,0.000502667,-0.683511,0.00296477,0.0210055,1973,876,38.173,-5.91299
756,148,38.1293,6.39581,0.0046269,0.00253963,-0.00228392,0.00609433,0.0010722,-0.57109,0.00375684,0.0251518,1980,876,38.1293,-6.3958
763,148,38.3146,6.72192,0.00716175,0.0030172,-0.00218137,0.00809824,0.0020807,-0.405521,0.00485619,0.0438331,1987,876,38.3146,-6.7219
770,148,38.476,7.04065,0,0,0,0,0,0,0,-1,1994,876,38.476,-7.04064
777,148,39.8684,7.34644,0,0,0,0,0,0,0,-1,2001,876,39.8685,-7.34641
784,148,41.1113,7.52332,0,0,0,0,0,0,0,-1,2008,876,41.1112,-7.5233
791,148,42.314,7.74591,0,0,0,0,0,0,0,-1,2015,876,42.3139,-7.74589
798,148,0,0,0,0,0,0,0,0,0,-1,2022,876,0,0
805,148,0,0,0,0,0,0,0,0,0,-1,2029,876,0,0
812,148,0,0,0,0,0,0,0,0,0,-1,2036,876,0,0
-700,141,0,0,0,0,0,0,0,0,0,-1,524,883,0,0
-693,141,0,0,0,0,0,0,0,0,0,-1,531,883,0,0
-686,141,0,0,0,0,0,0,0,0,0,-1,538,883,0,0
-679,141,0,0,0,0,0,0,0,0,0,-1,545,883,0,0
-672,141,-29.209,-0.566528,-0.0775423,-0.113849,-0.0260274,-0.063963,-0.127429,-0.480883,0.0735711,0.0463407,552,883,-29.209,0.566526
-665,141,-29.5568,-0.754639,-0.0651296,-0.0901084,-0.0235897,-0.0509271,-0.104311,-0.541936,0.0602295,0.0473485,559,883,-29.5568,0.754616
-658,141,-29.8615,-1.03497,-0.0541276,-0.0703564,-0.0205284,-0.0401681,-0.0843159,-0.597184,0.0486979,0.0498849,566,883,-29.8615,1.03497
-651,141,-30.1461,-1.29907,0,0,0,0,0,0,0,-1,573,883,-30.146,1.29907
-644,141,-28.4802,2.24866,0,0,0,0,0,0,0,-1,580,883,-28.4802,-2.24866
-637,141,-28.4466,4.72577,0,0,0,0,0,0,0,-1,587,883,-28.4466,-4.72575
-630,141,-28.3544,4.32294,0,0,0,0,0,0,0,-1,594,883,-28.3544,-4.32292
-623,141,-28.131,3.68274,-0.014729,-0.0100389,-0.0058214,-0.00610794,-0.0186599,-0.976871,0.0109854,0.0281642,601,883,-28.131,-3.68272
-616,141,-28.3367,3.1579,-0.00982163,-0.00346064,-0.0035703,-0.00185965,-0.0114226,-1.14926,0.00707711,0.0133939,608,883,-28.3367,-3.15792
-609,141,-28.3992,2.7204,-0.0060413,0.000440348,-0.00130542,0.000693384,-0.00629433,-1.37934,0.00444541,0.013917,615,883,-28.3992,-2.72042
-602,141,-28.4105,2.29675,-0.00363023,0.00190887,0.000164033,0.00191372,-0.00363508,1.54122,0.00325458,0.0141222,622,883,-28.4105,-2.29676
-595,141,-28.396,1.8548,-0.00216681,0.00174622,0.00114231,0.00205527,-0.00247587,1.30657,0.00261981,0.0144824,629,883,-28.396,-1.85478
-588,141,-28.6954,1.41718,-0.00168222,0.000631124,0.00138106,0.0012759,-0.00232699,1.134,0.00210943,0.0267789,636,883,-28.6954,-1.41719
-581,141,-28.65,1.04932,-0.00146948,0.000215987,0.00137132,0.000982822,-0.00223631,1.06092,0.00190496,0.0355976,643,883,-28.65,-1.04934
-574,141,-28.326,0.79895,-0.00168903,4.62089e-05,0.00126038,0.00070873,-0.00235155,1.08684,0.00184977,0.0474243,650,883,-28.326,-0.798945
-567,141,-28.3788,0.38269,0,0,0,0,0,0,0,-1,657,883,-28.3788,-0.382671
-560,141,-28.3712,0.097229,0,0,0,0,0,0,0,-1,664,883,-28.3712,-0.0972434
-553,141,-32.0876,1.39459,0,0,0,0,0,0,0,-1,671,883,-32.0876,-1.3946
-546,141,-33.6398,0.937866,0,0,0,0,0,0,0,-1,678,883,-33.6398,-0.937879
-539,141,-33.6648,0.834106,-0.00179512,0.00016291,0.00121011,0.000740438,-0.00237265,1.12551,0.00187789,0.0306447,685,883,-33.6648,-0.834106
-532,141,-33.7155,0.808655,-0.00178885,0.000544697,0.00116575,0.00102726,-0.00227142,1.17832,0.00194913,0.0306567,692,883,-33.7155,-0.808656
-525,141,-33.7452,0.797729,-0.00237334,0.00115373,0.00115346,0.00149745,-0.00271706,1.28118,0.00246698,0.0370524,699,883,-33.7452,-0.797742
-518,141,-33.7729,0.918091,-0.00295558,0.00237945,0.00123518,0.00265154,-0.00322768,1.35397,0.0033998,0.0409927,706,883,-33.7729,-0.918063
-511,141,-33.7463,1.17334,-0.0029922,0.00447495,0.00117519,0.00465553,-0.00317279,1.41832,0.00454663,0.0417239,713,883,-33.7463,-1.17335
-504,141,-33.6957,0.798218,-0.00277409,0.00835545,0.000387762,0.00836894,-0.00278759,1.53601,0.00670453,0.0412524,720,883,-33.6957,-0.798214
-497,141,0,0,0,0,0,0,0,0,0,-1,727,883,0,0
-490,141,0,0,0,0,0,0,0,0,0,-1,734,883,0,0
-483,141,0,0,0,0,0,0,0,0,0,-1,741,883,0,0
-476,141,0,0,0,0,0,0,0,0,0,-1,748,883,0,0
-469,141,0,0,0,0,0,0,0,0,0,-1,755,883,0,0
-462,141,0,0,0,0,0,0,0,0,0,-1,762,883,0,0
-455,141,0,0,0,0,0,0,0,0,0,-1,769,883,0,0
-448,141,0,0,0,0,0,0,0,0,0,-1,776,883,0,0
-441,141,0,0,0,0,0,0,0,0,0,-1,783,883,0,0
-434,141,0,0,0,0,0,0,0,0,0,-1,790,883,0,0
-427,141,0,0,0,0,0,0,0,0,0,-1,797,883,0,0
-420,141,0,0,0,0,0,0,0,0,0,-1,804,883,0,0
-413,141,0,0,0,0,0,0,0,0,0,-1,811,883,0,0
-406,141,0,0,0,0,0,0,0,0,0,-1,818,883,0,0
-399,141,0,0,0,0,0,0,0,0,0,-1,825,883,0,0
-392,141,0,0,0,0,0,0,0,0,0,-1,832,883,0,0
-385,141,0,0,0,0,0,0,0,0,0,-1,839,883,0,0
-378,141,0,0,0,0,0,0,0,0,0,-1,846,883,0,0
-371,141,0,0,0,0,0,0,0,0,0,-1,853,883,0,0
-364,141,0,0,0,0,0,0,0,0,0,-1,860,883,0,0
-357,141,0,0,0,0,0,0,0,0,0,-1,867,883,0,0
-350,141,0,0,0,0,0,0,0,0,0,-1,874,883,0,0
-343,141,0,0,0,0,0,0,0,0,0,-1,881,883,0,0
-336,141,0,0,0,0,0,0,0,0,0,-1,888,883,0,0
-329,141,0,0,0,0,0,0,0,0,0,-1,895,883,0,0
-322,141,0,0,0,0,0,0,0,0,0,-1,902,883,0,0
-315,141,0,0,0,0,0,0,0,0,0,-1,909,883,0,0
-308,141,0,0,0,0,0,0,0,0,0,-1,916,883,0,0
-301,141,0,0,0,0,0,0,0,0,0,-1,923,883,0,0
-294,141,0,0,0,0,0,0,0,0,0,-1,930,883,0,0
-287,141,0,0,0,0,0,0,0,0,0,-1,937,883,0,0
-280,141,0,0,0,0,0,0,0,0,0,-1,944,883,0,0
-273,141,0,0,0,0,0,0,0,0,0,-1,951,883,0,0
-266,141,0,0,0,0,0,0,0,0,0,-1,958,883,0,0
-259,141,0,0,0,0,0,0,0,0,0,-1,965,883,0,0
-252,141,0,0,0,0,0,0,0,0,0,-1,972,883,0,0
-245,141,0,0,0,0,0,0,0,0,0,-1,979,883,0,0
-238,141,0,0,0,0,0,0,0,0,0,-1,986,883,0,0
-231,141,0,0,0,0,0,0,0,0,0,-1,993,883,0,0
-224,141,0,0,0,0,0,0,0,0,0,-1,1000,883,0,0
-217,141,0,0,0,0,0,0,0,0,0,-1,1007,883,0,0
-210,141,0,0,0,0,0,0,0,0,0,-1,1014,883,0,0
-203,141,0,0,0,0,0,0,0,0,0,-1,1021,883,0,0
-196,141,0,0,0,0,0,0,0,0,0,-1,1028,883,0,0
-189,141,0,0,0,0,0,0,0,0,0,-1,1035,883,0,0
-182,141,0,0,0,0,0,0,0,0,0,-1,1042,883,0,0
-175,141,0,0,0,0,0,0,0,0,0,-1,1049,883,0,0
-168,141,0,0,0,0,0,0,0,0,0,-1,1056,883,0,0
-161,141,0,0,0,0,0,0,0,0,0,-1,1063,883,0,0
-154,141,0,0,0,0,0,0,0,0,0,-1,1070,883,0,0
-147,141,0,0,0,0,0,0,0,0,0,-1,1077,883,0,0
-140,141,0,0,0,0,0,0,0,0,0,-1,1084,883,0,0
-133,141,0,0,0,0,0,0,0,0,0,-1,1091,883,0,0
-126,141,0,0,0,0,0,0,0,0,0,-1,1098,883,0,0
-119,141,0,0,0,0,0,0,0,0,0,-1,1105,883,0,0
-112,141,0,0,0,0,0,0,0,0,0,-1,1112,883,0,0
-105,141,0,0,0,0,0,0,0,0,0,-1,1119,883,0,0
-98,141,0,0,0,0,0,0,0,0,0,-1,1126,883,0,0
-91,141,0,0,0,0,0,0,0,0,0,-1,1133,883,0,0
-84,141,0,0,0,0,0,0,0,0,0,-1,1140,883,0,0
-77,141,0,0,0,0,0,0,0,0,0,-1,1147,883,0,0
-70,141,0,0,0,0,0,0,0,0,0,-1,1154,883,0,0
-63,141,0,0,0,0,0,0,0,0,0,-1,1161,883,0,0
-56,141,0,0,0,0,0,0,0,0,0,-1,1168,883,0,0
-49,141,0,0,0,0,0,0,0,0,0,-1,1175,883,0,0
-42,141,0,0,0,0,0,0,0,0,0,-1,1182,883,0,0
-35,141,0,0,0,0,0,0,0,0,0,-1,1189,883,0,0
-28,141,0,0,0,0,0,0,0,0,0,-1,1196,883,0,0
-21,141,0,0,0,0,0,0,0,0,0,-1,1203,883,0,0
-14,141,0,0,0,0,0,0,0,0,0,-1,1210,883,0,0
-7,141,0,0,0,0,0,0,0,0,0,-1,1217,883,0,0
0,141,0,0,0,0,0,0,0,0,0,-1,1224,883,0,0
7,141,0,0,0,0,0,0,0,0,0,-1,1231,883,0,0
14,141,0,0,0,0,0,0,0,0,0,-1,1238,883,0,0
21,141,0,0,0,0,0,0,0,0,0,-1,1245,883,0,0
28,141,0,0,0,0,0,0,0,0,0,-1,1252,883,0,0
35,141,0,0,0,0,0,0,0,0,0,-1,1259,883,0,0
42,141,0,0,0,0,0,0,0,0,0,-1,1266,883,0,0
49,141,0,0,0,0,0,0,0,0,0,-1,1273,883,0,0
56,141,0,0,0,0,0,0,0,0,0,-1,1280,883,0,0
63,141,0,0,0,0,0,0,0,0,0,-1,1287,883,0,0
70,141,0,0,0,0,0,0,0,0,0,-1,1294,883,0,0
77,141,0,0,0,0,0,0,0,0,0,-1,1301,883,0,0
84,141,0,0,0,0,0,0,0,0,0,-1,1308,883,0,0
91,141,0,0,0,0,0,0,0,0,0,-1,1315,883,0,0
98,141,0,0,0,0,0,0,0,0,0,-1,1322,883,0,0
105,141,0,0,0,0,0,0,0,0,0,-1,1329,883,0,0
112,141,0,0,0,0,0,0,0,0,0,-1,1336,883,0,0
119,141,0,0,0,0,0,0,0,0,0,-1,1343,883,0,0
126,141,0,0,0,0,0,0,0,0,0,-1,1350,883,0,0
133,141,0,0,0,0,0,0,0,0,0,-1,1357,883,0,0
140,141,0,0,0,0,0,0,0,0,0,-1,1364,883,0,0
147,141,0,0,0,0,0,0,0,0,0,-1,1371,883,0,0
154,141,0,0,0,0,0,0,0,0,0,-1,1378,883,0,0
161,141,0,0,0,0,0,0,0,0,0,-1,1385,883,0,0
168,141,0,0,0,0,0,0,0,0,0,-1,1392,883,0,0
175,141,0,0,0,0,0,0,0,0,0,-1,1399,883,0,0
182,141,0,0,0,0,0,0,0,0,0,-1,1406,883,0,0
189,141,0,0,0,0,0,0,0,0,0,-1,1413,883,0,0
196,141,0,0,0,0,0,0,0,0,0,-1,1420,883,0,0
203,141,0,0,0,0,0,0,0,0,0,-1,1427,883,0,0
210,141,0,0,0,0,0,0,0,0,0,-1,1434,883,0,0
217,141,0,0,0,0,0,0,0,0,0,-1,1441,883,0,0
224,141,0,0,0,0,0,0,0,0,0,-1,1448,883,0,0
231,141,0,0,0,0,0,0,0,0,0,-1,1455,883,0,0
238,141,0,0,0,0,0,0,0,0,0,-1,1462,883,0,0
245,141,0,0,0,0,0,0,0,0,0,-1,1469,883,0,0
252,141,0,0,0,0,0,0,0,0,0,-1,1476,883,0,0
259,141,0,0,0,0,0,0,0,0,0,-1,1483,883,0,0
266,141,0,0,0,0,0,0,0,0,0,-1,1490,883,0,0
273,141,0,0,0,0,0,0,0,0,0,-1,1497,883,0,0
280,141,0,0,0,0,0,0,0,0,0,-1,1504,883,0,0
287,141,0,0,0,0,0,0,0,0,0,-1,1511,883,0,0
294,141,0,0,0,0,0,0,0,0,0,-1,1518,883,0,0
301,141,0,0,0,0,0,0,0,0,0,-1,1525,883,0,0
308,141,0,0,0,0,0,0,0,0,0,-1,1532,883,0,0
315,141,0,0,0,0,0,0,0,0,0,-1,1539,883,0,0
322,141,0,0,0,0,0,0,0,0,0,-1,1546,883,0,0
329,141,0,0,0,0,0,0,0,0,0,-1,1553,883,0,0
336,141,0,0,0,0,0,0,0,0,0,-1,1560,883,0,0
343,141,0,0,0,0,0,0,0,0,0,-1,1567,883,0,0
350,141,0,0,0,0,0,0,0,0,0,-1,1574,883,0,0
357,141,0,0,0,0,0,0,0,0,0,-1,1581,883,0,0
364,141,0,0,0,0,0,0,0,0,0,-1,1588,883,0,0
371,141,0,0,0,0,0,0,0,0,0,-1,1595,883,0,0
378,141,0,0,0,0,0,0,0,0,0,-1,1602,883,0,0
385,141,0,0,0,0,0,0,0,0,0,-1,1609,883,0,0
392,141,0,0,0,0,0,0,0,0,0,-1,1616,883,0,0
399,141,0,0,0,0,0,0,0,0,0,-1,1623,883,0,0
406,141,0,0,0,0,0,0,0,0,0,-1,1630,883,0,0
413,141,0,0,0,0,0,0,0,0,0,-1,1637,883,0,0
420,141,0,0,0,0,0,0,0,0,0,-1,1644,883,0,0
427,141,0,0,0,0,0,0,0,0,0,-1,1651,883,0,0
434,141,0,0,0,0,0,0,0,0,0,-1,1658,883,0,0
441,141,0,0,0,0,0,0,0,0,0,-1,1665,883,0,0
448,141,0,0,0,0,0,0,0,0,0,-1,1672,883,0,0
455,141,0,0,0,0,0,0,0,0,0,-1,1679,883,0,0
462,141,0,0,0,0,0,0,0,0,0,-1,1686,883,0,0
469,141,0,0,0,0,0,0,0,0,0,-1,1693,883,0,0
476,141,0,0,0,0,0,0,0,0,0,-1,1700,883,0,0
483,141,0,0,0,0,0,0,0,0,0,-1,1707,883,0,0
490,141,0,0,0,0,0,0,0,0,0,-1,1714,883,0,0
497,141,0,0,0,0,0,0,0,0,0,-1,1721,883,0,0
504,141,0,0,0,0,0,0,0,0,0,-1,1728,883,0,0
511,141,0,0,0,0,0,0,0,0,0,-1,1735,883,0,0
518,141,0,0,0,0,0,0,0,0,0,-1,1742,883,0,0
525,141,0,0,0,0,0,0,0,0,0,-1,1749,883,0,0
532,141,0,0,0,0,0,0,0,0,0,-1,1756,883,0,0
539,141,0,0,0,0,0,0,0,0,0,-1,1763,883,0,0
546,141,0,0,0,0,0,0,0,0,0,-1,1770,883,0,0
553,141,0,0,0,0,0,0,0,0,0,-1,1777,883,0,0
560,141,0,0,0,0,0,0,0,0,0,-1,1784,883,0,0
567,141,0,0,0,0,0,0,0,0,0,-1,1791,883,0,0
574,141,0,0,0,0,0,0,0,0,0,-1,1798,883,0,0
581,141,0,0,0,0,0,0,0,0,0,-1,1805,883,0,0
588,141,0,0,0,0,0,0,0,0,0,-1,1812,883,0,0
595,141,0,0,0,0,0,0,0,0,0,-1,1819,883,0,0
602,141,0,0,0,0,0,0,0,0,0,-1,1826,883,0,0
609,141,0,0,0,0,0,0,0,0,0,-1,1833,883,0,0
616,141,0,0,0,0,0,0,0,0,0,-1,1840,883,0,0
623,141,45.1617,2.4649,0.0018699,0.00576417,0.00018578,0.00577301,0.00186105,1.52323,0.00340244,0.0429573,1847,883,45.1618,-2.4649
630,141,45.1334,2.35297,0.00177863,0.00415451,0.000573942,0.00428589,0.00164725,1.34576,0.00249643,0.0431746,1854,883,45.1335,-2.35294
637,141,45.2012,2.2973,0.00128961,0.00313588,0.000716896,0.00338155,0.00104394,1.24064,0.0019994,0.0410108,1861,883,45.2012,-2.29728
644,141,45.1227,2.66388,0.000579997,0.00239122,0.000763719,0.00267026,0.000300958,1.2205,0.00168882,0.0387311,1868,883,45.1227,-2.66389
651,141,45.1974,2.65118,-5.748e-05,0.00180754,0.000736808,0.0020635,-0.00031344,1.23645,0.00149117,0.0379433,1875,883,45.1974,-2.65116
658,141,45.3071,2.6358,-0.000405174,0.00143745,0.000735571,0.00169507,-0.000662794,1.23392,0.00140413,0.0371456,1882,883,45.3071,-2.63579
665,141,45.094,2.76416,-0.000569318,0.00123432,0.000631182,0.00143326,-0.000768258,1.26547,0.00129023,0.0284923,1889,883,45.094,-2.76414
672,141,45.0914,2.76178,-0.000533164,0.0009885,0.000571646,0.00117932,-0.000723986,1.24862,0.00110931,0.020114,1896,883,45.0915,-2.76175
679,141,45.0505,2.79718,-0.000504248,0.000758232,0.000463115,0.000909896,-0.000655913,1.25432,0.000907976,0.03887,1903,883,45.0506,-2.79718
686,141,44.9777,2.81982,0,0,0,0,0,0,0,-1,1910,883,44.9777,-2.81981
693,141,38.6749,2.10632,0,0,0,0,0,0,0,-1,1917,883,38.6749,-2.1063
700,141,38.9823,2.77271,-0.000481053,0.000746699,-0.000149523,0.000764646,-0.000499,-1.45134,0.000734921,0.0291786,1924,883,38.9823,-2.77272
707,141,38.9507,3.323,-0.000272399,0.00075389,-0.000106137,0.000764752,-0.00028326,-1.46882,0.000625994,0.0259095,1931,883,38.9507,-3.32298
714,141,38.7294,3.6554,0.000136992,0.000918262,-0.000380076,0.00107265,-1.73991e-05,-1.18495,0.000720972,0.025348,1938,883,38.7294,-3.65537
721,141,38.7317,4.10132,0.000439978,0.000958677,-0.000712961,0.00145799,-5.93395e-05,-0.95984,0.000992367,0.0155039,1945,883,38.7317,-4.10133
728,141,38.7659,4.5083,0.000537436,0.00128872,-0.0010013,0.00198253,-0.000156368,-0.964851,0.00137677,0.0161272,1952,883,38.7659,-4.50833
735,141,38.761,5.02936,0.000873621,0.00165571,-0.00128749,0.00261023,-8.09015e-05,-0.932834,0.00176774,0.0174995,1959,883,38.761,-5.02938
742,141,38.7296,5.49231,0.00148046,0.00207586,-0.00158094,0.00338689,0.000169431,-0.878462,0.00220362,0.0184149,1966,883,38.7296,-5.49229
749,141,38.7028,5.89429,0.00243859,0.00252043,-0.00179574,0.00427571,0.000683309,-0.796791,0.00265221,0.0153174,1973,883,38.7028,-5.8943
756,141,38.7136,6.38062,0.0040132,0.00284931,-0.00181137,0.00533381,0.0015287,-0.629969,0.00317159,0.0206836,1980,883,38.7136,-6.38062
763,141,38.87,6.71106,0.00661077,0.00306249,-0.00130236,0.00703748,0.00263579,-0.316617,0.00410551,0.043367,1987,883,38.87,-6.71104
770,141,39.0062,7.04724,0,0,0,0,0,0,0,-1,1994,883,39.0062,-7.04721
777,141,40.3793,7.42285,0,0,0,0,0,0,0,-1,2001,883,40.3792,-7.42282
784,141,41.4417,7.61206,0,0,0,0,0,0,0,-1,2008,883,41.4418,-7.61209
791,141,42.5815,7.74707,0,0,0,0,0,0,0,-1,2015,883,42.5815,-7.74706
798,141,0,0,0,0,0,0,0,0,0,-1,2022,883,0,0
805,141,0,0,0,0,0,0,0,0,0,-1,2029,883,0,0
812,141,0,0,0,0,0,0,0,0,0,-1,2036,883,0,0
-700,134,0,0,0,0,0,0,0,0,0,-1,524,890,0,0
-693,134,0,0,0,0,0,0,0,0,0,-1,531,890,0,0
-686,134,0,0,0,0,0,0,0,0,0,-1,538,890,0,0
-679,134,0,0,0,0,0,0,0,0,0,-1,545,890,0,0
-672,134,-29.1186,0.39856,-0.0743774,-0.115104,-0.024405,-0.0629561,-0.126526,-0.437716,0.0730499,0.0460275,552,890,-29.1186,-0.398539
-665,134,-29.5502,0.0595093,-0.0649852,-0.0933348,-0.0210019,-0.0538222,-0.104498,-0.488548,0.0603409,0.0460835,559,890,-29.5502,-0.0594825
-658,134,-30.0958,-0.373779,-0.0553467,-0.074039,-0.0176381,-0.0447316,-0.0846541,-0.541765,0.0489014,0.0436227,566,890,-30.0958,0.373774
-651,134,-31.4387,-0.70282,-0.0459679,-0.0571595,-0.0144279,-0.0360887,-0.0670388,-0.600406,0.0387427,0.0406778,573,890,-31.4387,0.702798
-644,134,-32.571,-0.702576,0,0,0,0,0,0,0,-1,580,890,-32.571,0.702575
-637,134,-28.7275,0.339355,0,0,0,0,0,0,0,-1,587,890,-28.7275,-0.339377
-630,134,-28.7185,3.2406,0,0,0,0,0,0,0,-1,594,890,-28.7185,-3.24061
-623,134,-28.6343,3.59583,-0.0164892,-0.0122331,-0.00377827,-0.0100248,-0.0186975,-1.04187,0.0108044,0.0268534,601,890,-28.6343,-3.59581
-616,134,-28.8088,3.17023,-0.0112623,-0.0052489,-0.00180168,-0.00475042,-0.0117608,-1.30087,0.00683175,0.0127315,608,890,-28.8088,-3.17024
-609,134,-28.8868,2.74146,-0.00702143,-0.000805416,-2.88912e-05,-0.000805282,-0.00702157,-1.56615,0.00443704,0.0122262,615,890,-28.8868,-2.74144
-602,134,-28.8791,2.30042,-0.00426118,0.00123261,0.000936502,0.00138786,-0.00441644,1.40651,0.00349987,0.0129301,622,890,-28.8791,-2.30044
-595,134,-28.8171,1.90979,-0.00261092,0.00149241,0.00149239,0.00197778,-0.00309629,1.25635,0.00295314,0.0194791,629,890,-28.8171,-1.90982
-588,134,-29.2415,1.56042,-0.00208857,0.000667482,0.00146259,0.00129896,-0.00272005,1.16322,0.00236823,0.0335825,636,890,-29.2415,-1.56041
-581,134,-29.3545,1.19537,0,0,0,0,0,0,0,-1,643,890,-29.3545,-1.19535
-574,134,-28.9481,0.694275,0,0,0,0,0,0,0,-1,650,890,-28.9481,-0.694246
-567,134,-28.7189,0.292297,0,0,0,0,0,0,0,-1,657,890,-28.7188,-0.292282
-560,134,-22.9123,0.106567,0,0,0,0,0,0,0,-1,664,890,-22.9123,-0.106594
-553,134,-33.6566,0.830994,0,0,0,0,0,0,0,-1,671,890,-33.6566,-0.830971
-546,134,-33.6487,0.841919,-0.00254499,0.000358602,0.000988044,0.000662922,-0.00284931,1.27201,0.00215478,0.0293202,678,890,-33.6488,-0.841891
-539,134,-33.667,0.831848,-0.00267261,0.000634367,0.000857356,0.000843426,-0.00288167,1.33162,0.00225545,0.0183412,685,890,-33.667,-0.831867
-532,134,-33.7066,0.846069,-0.00281107,0.00115157,0.000809018,0.00131038,-0.00296987,1.37697,0.00253236,0.0236529,692,890,-33.7066,-0.846045
-525,134,-33.7101,0.886108,-0.00357939,0.00198284,0.000816355,0.00210018,-0.00369673,1.42804,0.0033889,0.0351441,699,890,-33.7101,-0.886104
-518,134,-33.7006,0.912354,-0.0042456,0.00355263,0.000887948,0.00365246,-0.00434543,1.45884,0.00462336,0.0417573,706,890,-33.7005,-0.91235
-511,134,-33.9205,1.36969,-0.00441385,0.00611988,0.000801048,0.00618045,-0.00447442,1.49533,0.00617782,0.0443793,713,890,-33.9205,-1.36969
-504,134,0,0,0,0,0,0,0,0,0,-1,720,890,0,0
-497,134,0,0,0,0,0,0,0,0,0,-1,727,890,0,0
-490,134,0,0,0,0,0,0,0,0,0,-1,734,890,0,0
-483,134,0,0,0,0,0,0,0,0,0,-1,741,890,0,0
-476,134,0,0,0,0,0,0,0,0,0,-1,748,890,0,0
-469,134,0,0,0,0,0,0,0,0,0,-1,755,890,0,0
-462,134,0,0,0,0,0,0,0,0,0,-1,762,890,0,0
-455,134,0,0,0,0,0,0,0,0,0,-1,769,890,0,0
-448,134,0,0,0,0,0,0,0,0,0,-1,776,890,0,0
-441,134,0,0,0,0,0,0,0,0,0,-1,783,890,0,0
-434,134,0,0,0,0,0,0,0,0,0,-1,790,890,0,0
-427,134,0,0,0,0,0,0,0,0,0,-1,797,890,0,0
-420,134,0,0,0,0,0,0,0,0,0,-1,804,890,0,0
-413,134,0,0,0,0,0,0,0,0,0,-1,811,890,0,0
-406,134,0,0,0,0,0,0,0,0,0,-1,818,890,0,0
-399,134,0,0,0,0,0,0,0,0,0,-1,825,890,0,0
-392,134,0,0,0,0,0,0,0,0,0,-1,832,890,0,0
-385,134,0,0,0,0,0,0,0,0,0,-1,839,890,0,0
-378,134,0,0,0,0,0,0,0,0,0,-1,846,890,0,0
-371,134,0,0,0,0,0,0,0,0,0,-1,853,890,0,0
-364,134,0,0,0,0,0,0,0,0,0,-1,860,890,0,0
-357,134,0,0,0,0,0,0,0,0,0,-1,867,890,0,0
-350,134,0,0,0,0,0,0,0,0,0,-1,874,890,0,0
-343,134,0,0,0,0,0,0,0,0,0,-1,881,890,0,0
-336,134,0,0,0,0,0,0,0,0,0,-1,888,890,0,0
-329,134,0,0,0,0,0,0,0,0,0,-1,895,890,0,0
-322,134,0,0,0,0,0,0,0,0,0,-1,902,890,0,0
-315,134,0,0,0,0,0,0,0,0,0,-1,909,890,0,0
-308,134,0,0,0,0,0,0,0,0,0,-1,916,890,0,0
-301,134,0,0,0,0,0,0,0,0,0,-1,923,890,0,0
-294,134,0,0,0,0,0,0,0,0,0,-1,930,890,0,0
-287,134,0,0,0,0,0,0,0,0,0,-1,937,890,0,0
-280,134,0,0,0,0,0,0,0,0,0,-1,944,890,0,0
-273,134,0,0,0,0,0,0,0,0,0,-1,951,890,0,0
-266,134,0,0,0,0,0,0,0,0,0,-1,958,890,0,0
-259,134,0,0,0,0,0,0,0,0,0,-1,965,890,0,0
-252,134,0,0,0,0,0,0,0,0,0,-1,972,890,0,0
-245,134,0,0,0,0,0,0,0,0,0,-1,979,890,0,0
-238,134,0,0,0,0,0,0,0,0,0,-1,986,890,0,0
-231,134,0,0,0,0,0,0,0,0,0,-1,993,890,0,0
-224,134,0,0,0,0,0,0,0,0,0,-1,1000,890,0,0
-217,134,0,0,0,0,0,0,0,0,0,-1,1007,890,0,0
-210,134,0,0,0,0,0,0,0,0,0,-1,1014,890,0,0
-203,134,0,0,0,0,0,0,0,0,0,-1,1021,890,0,0
-196,134,0,0,0,0,0,0,0,0,0,-1,1028,890,0,0
-189,134,0,0,0,0,0,0,0,0,0,-1,1035,890,0,0
-182,134,0,0,0,0,0,0,0,0,0,-1,1042,890,0,0
-175,134,0,0,0,0,0,0,0,0,0,-1,1049,890,0,0
-168,134,0,0,0,0,0,0,0,0,0,-1,1056,890,0,0
-161,134,0,0,0,0,0,0,0,0,0,-1,1063,890,0,0
-154,134,0,0,0,0,0,0,0,0,0,-1,1070,890,0,0
-147,134,0,0,0,0,0,0,0,0,0,-1,1077,890,0,0
-140,134,0,0,0,0,0,0,0,0,0,-1,1084,890,0,0
-133,134,0,0,0,0,0,0,0,0,0,-1,1091,890,0,0
-126,134,0,0,0,0,0,0,0,0,0,-1,1098,890,0,0
-119,134,0,0,0,0,0,0,0,0,0,-1,1105,890,0,0
-112,134,0,0,0,0,0,0,0,0,0,-1,1112,890,0,0
-105,134,0,0,0,0,0,0,0,0,0,-1,1119,890,0,0
-98,134,0,0,0,0,0,0,0,0,0,-1,1126,890,0,0
-91,134,0,0,0,0,0,0,0,0,0,-1,1133,890,0,0
-84,134,0,0,0,0,0,0,0,0,0,-1,1140,890,0,0
-77,134,0,0,0,0,0,0,0,0,0,-1,1147,890,0,0
-70,134,0,0,0,0,0,0,0,0,0,-1,1154,890,0,0
-63,134,0,0,0,0,0,0,0,0,0,-1,1161,890,0,0
-56,134,0,0,0,0,0,0,0,0,0,-1,1168,890,0,0
-49,134,0,0,0,0,0,0,0,0,0,-1,1175,890,0,0
-42,134,0,0,0,0,0,0,0,0,0,-1,1182,890,0,0
-35,134,0,0,0,0,0,0,0,0,0,-1,1189,890,0,0
-28,134,0,0,0,0,0,0,0,0,0,-1,1196,890,0,0
-21,134,0,0,0,0,0,0,0,0,0,-1,1203,890,0,0
-14,134,0,0,0,0,0,0,0,0,0,-1,1210,890,0,0
-7,134,0,0,0,0,0,0,0,0,0,-1,1217,890,0,0
0,134,0,0,0,0,0,0,0,0,0,-1,1224,890,0,0
7,134,0,0,0,0,0,0,0,0,0,-1,1231,890,0,0
14,134,0,0,0,0,0,0,0,0,0,-1,1238,890,0,0
21,134,0,0,0,0,0,0,0,0,0,-1,1245,890,0,0
28,134,0,0,0,0,0,0,0,0,0,-1,1252,890,0,0
35,134,0,0,0,0,0,0,0,0,0,-1,1259,890,0,0
42,134,0,0,0,0,0,0,0,0,0,-1,1266,890,0,0
49,134,0,0,0,0,0,0,0,0,0,-1,1273,890,0,0
56,134,0,0,0,0,0,0,0,0,0,-1,1280,890,0,0
63,134,0,0,0,0,0,0,0,0,0,-1,1287,890,0,0
70,134,0,0,0,0,0,0,0,0,0,-1,1294,890,0,0
77,134,0,0,0,0,0,0,0,0,0,-1,1301,890,0,0
84,134,0,0,0,0,0,0,0,0,0,-1,1308,890,0,0
91,134,0,0,0,0,0,0,0,0,0,-1,1315,890,0,0
98,134,0,0,0,0,0,0,0,0,0,-1,1322,890,0,0
105,134,0,0,0,0,0,0,0,0,0,-1,1329,890,0,0
112,134,0,0,0,0,0,0,0,0,0,-1,1336,890,0,0
119,134,0,0,0,0,0,0,0,0,0,-1,1343,890,0,0
126,134,0,0,0,0,0,0,0,0,0,-1,1350,890,0,0
133,134,0,0,0,0,0,0,0,0,0,-1,1357,890,0,0
140,134,0,0,0,0,0,0,0,0,0,-1,1364,890,0,0
147,134,0,0,0,0,0,0,0,0,0,-1,1371,890,0,0
154,134,0,0,0,0,0,0,0,0,0,-1,1378,890,0,0
161,134,0,0,0,0,0,0,0,0,0,-1,1385,890,0,0
168,134,0,0,0,0,0,0,0,0,0,-1,1392,890,0,0
175,134,0,0,0,0,0,0,0,0,0,-1,1399,890,0,0
182,134,0,0,0,0,0,0,0,0,0,-1,1406,890,0,0
189,134,0,0,0,0,0,0,0,0,0,-1,1413,890,0,0
196,134,0,0,0,0,0,0,0,0,0,-1,1420,890,0,0
203,134,0,0,0,0,0,0,0,0,0,-1,1427,890,0,0
210,134,0,0,0,0,0,0,0,0,0,-1,1434,890,0,0
217,134,0,0,0,0,0,0,0,0,0,-1,1441,890,0,0
224,134,0,0,0,0,0,0,0,0,0,-1,1448,890,0,0
231,134,0,0,0,0,0,0,0,0,0,-1,1455,890,0,0
238,134,0,0,0,0,0,0,0,0,0,-1,1462,890,0,0
245,134,0,0,0,0,0,0,0,0,0,-1,1469,890,0,0
252,134,0,0,0,0,0,0,0,0,0,-1,1476,890,0,0
259,134,0,0,0,0,0,0,0,0,0,-1,1483,890,0,0
266,134,0,0,0,0,0,0,0,0,0,-1,1490,890,0,0
273,134,0,0,0,0,0,0,0,0,0,-1,1497,890,0,0
280,134,0,0,0,0,0,0,0,0,0,-1,1504,890,0,0
287,134,0,0,0,0,0,0,0,0,0,-1,1511,890,0,0
294,134,0,0,0,0,0,0,0,0,0,-1,1518,890,0,0
301,134,0,0,0,0,0,0,0,0,0,-1,1525,890,0,0
308,134,0,0,0,0,0,0,0,0,0,-1,1532,890,0,0
315,134,0,0,0,0,0,0,0,0,0,-1,1539,890,0,0
322,134,0,0,0,0,0,0,0,0,0,-1,1546,890,0,0
329,134,0,0,0,0,0,0,0,0,0,-1,1553,890,0,0
336,134,0,0,0,0,0,0,0,0,0,-1,1560,890,0,0
343,134,0,0,0,0,0,0,0,0,0,-1,1567,890,0,0
350,134,0,0,0,0,0,0,0,0,0,-1,1574,890,0,0
357,134,0,0,0,0,0,0,0,0,0,-1,1581,890,0,0
364,134,0,0,0,0,0,0,0,0,0,-1,1588,890,0,0
371,134,0,0,0,0,0,0,0,0,0,-1,1595,890,0,0
378,134,0,0,0,0,0,0,0,0,0,-1,1602,890,0,0
385,134,0,0,0,0,0,0,0,0,0,-1,1609,890,0,0
392,134,0,0,0,0,0,0,0,0,0,-1,1616,890,0,0
399,134,0,0,0,0,0,0,0,0,0,-1,1623,890,0,0
406,134,0,0,0,0,0,0,0,0,0,-1,1630,890,0,0
413,134,0,0,0,0,0,0,0,0,0,-1,1637,890,0,0
420,134,0,0,0,0,0,0,0,0,0,-1,1644,890,0,0
427,134,0,0,0,0,0,0,0,0,0,-1,1651,890,0,0
434,134,0,0,0,0,0,0,0,0,0,-1,1658,890,0,0
441,134,0,0,0,0,0,0,0,0,0,-1,1665,890,0,0
448,134,0,0,0,0,0,0,0,0,0,-1,1672,890,0,0
455,134,0,0,0,0,0,0,0,0,0,-1,1679,890,0,0
462,134,0,0,0,0,0,0,0,0,0,-1,1686,890,0,0
469,134,0,0,0,0,0,0,0,0,0,-1,1693,890,0,0
476,134,0,0,0,0,0,0,0,0,0,-1,1700,890,0,0
483,134,0,0,0,0,0,0,0,0,0,-1,1707,890,0,0
490,134,0,0,0,0,0,0,0,0,0,-1,1714,890,0,0
497,134,0,0,0,0,0,0,0,0,0,-1,1721,890,0,0
504,134,0,0,0,0,0,0,0,0,0,-1,1728,890,0,0
511,134,0,0,0,0,0,0,0,0,0,-1,1735,890,0,0
518,134,0,0,0,0,0,0,0,0,0,-1,1742,890,0,0
525,134,0,0,0,0,0,0,0,0,0,-1,1749,890,0,0
532,134,0,0,0,0,0,0,0,0,0,-1,1756,890,0,0
539,134,0,0,0,0,0,0,0,0,0,-1,1763,890,0,0
546,134,0,0,0,0,0,0,0,0,0,-1,1770,890,0,0
553,134,0,0,0,0,0,0,0,0,0,-1,1777,890,0,0
560,134,0,0,0,0,0,0,0,0,0,-1,1784,890,0,0
567,134,0,0,0,0,0,0,0,0,0,-1,1791,890,0,0
574,134,0,0,0,0,0,0,0,0,0,-1,1798,890,0,0
581,134,0,0,0,0,0,0,0,0,0,-1,1805,890,0,0
588,134,0,0,0,0,0,0,0,0,0,-1,1812,890,0,0
595,134,0,0,0,0,0,0,0,0,0,-1,1819,890,0,0
602,134,0,0,0,0,0,0,0,0,0,-1,1826,890,0,0
609,134,0,0,0,0,0,0,0,0,0,-1,1833,890,0,0
616,134,0,0,0,0,0,0,0,0,0,-1,1840,890,0,0
623,134,45.1067,2.40448,0,0,0,0,0,0,0,-1,1847,890,45.1067,-2.40449
630,134,45.1169,2.11243,0,0,0,0,0,0,0,-1,1854,890,45.117,-2.11244
637,134,45.1572,2.52319,0.00116709,0.00327617,0.000830473,0.00356392,0.000879341,1.23725,0.00214382,0.0458605,1861,890,45.1572,-2.52321
644,134,45.1837,2.96838,0.000638666,0.00249223,0.000799366,0.00278934,0.000341556,1.21494,0.00175681,0.0407419,1868,890,45.1837,-2.96836
651,134,45.2321,2.7597,6.89688e-05,0.00192091,0.000746589,0.0021844,-0.000194522,1.23152,0.00152524,0.0398807,1875,890,45.2321,-2.75973
658,134,45.3007,2.63397,-0.000260399,0.0015752,0.000760646,0.00184943,-0.00053463,1.22478,0.00144453,0.0382148,1882,890,45.3006,-2.63397
665,134,45.2113,2.5434,-0.000396073,0.00141427,0.00068912,0.00164674,-0.000628539,1.24545,0.00135677,0.0330407,1889,890,45.2113,-2.5434
672,134,45.1915,2.63501,-0.000337542,0.00119759,0.000681453,0.00145644,-0.000596395,1.20778,0.00121938,0.0215423,1896,890,45.1915,-2.63502
679,134,45.1321,2.67291,-0.000286594,0.000970727,0.000614354,0.00122107,-0.000536936,1.18385,0.00104029,0.0191732,1903,890,45.1321,-2.67293
686,134,45.0792,2.71161,0,0,0,0,0,0,0,-1,1910,890,45.0792,-2.71163
693,134,34.5778,2.48096,0,0,0,0,0,0,0,-1,1917,890,34.5777,-2.48099
700,134,39.1804,2.62695,0,0,0,0,0,0,0,-1,1924,890,39.1804,-2.62697
707,134,39.0187,2.97699,-0.000184226,0.000960797,0.000113465,0.000971932,-0.000195361,1.47297,0.000721941,0.0227615,1931,890,39.0187,-2.97698
714,134,39.0427,3.48041,0.000158124,0.00109894,-0.000127945,0.00111602,0.000141035,-1.43801,0.000701745,0.0226391,1938,890,39.0427,-3.48042
721,134,39.225,4.0412,0.000359678,0.00111864,-0.000467705,0.00134145,0.000136868,-1.12621,0.000852345,0.0197722,1945,890,39.225,-4.04118
728,134,39.2727,4.49585,0.000336947,0.00139633,-0.000786654,0.001815,-8.17287e-05,-1.0817,0.00123814,0.0175887,1952,890,39.2727,-4.49586
735,134,39.2219,4.9986,0.000544501,0.00174904,-0.00106744,0.00237239,-7.88503e-05,-1.04225,0.00160852,0.0240702,1959,890,39.222,-4.9986
742,134,39.1798,5.48169,0.000980419,0.00220029,-0.00134128,0.0030638,0.000116907,-0.998793,0.0020047,0.0162826,1966,890,39.1799,-5.48171
749,134,39.203,5.90436,0.00173184,0.0027121,-0.0014979,0.00379801,0.000645922,-0.943514,0.00234652,0.0126525,1973,890,39.203,-5.90437
756,134,39.1946,6.32532,0.00308079,0.00308188,-0.00137999,0.00446132,0.00170134,-0.785596,0.0025998,0.0165757,1980,890,39.1946,-6.32532
763,134,39.2136,6.75336,0.00536381,0.00322474,-0.00068778,0.00556587,0.00302269,-0.285743,0.00321743,0.0378549,1987,890,39.2137,-6.75338
770,134,39.2418,7.19073,0,0,0,0,0,0,0,-1,1994,890,39.2419,-7.19072
777,134,41.01,7.33026,0,0,0,0,0,0,0,-1,2001,890,41.01,-7.33024
784,134,42.3352,7.4964,0,0,0,0,0,0,0,-1,2008,890,42.3352,-7.49641
791,134,42.2061,9.63593,0,0,0,0,0,0,0,-1,2015,890,42.2061,-9.63591
798,134,0,0,0,0,0,0,0,0,0,-1,2022,890,0,0
805,134,0,0,0,0,0,0,0,0,0,-1,2029,890,0,0
812,134,0,0,0,0,0,0,0,0,0,-1,2036,890,0,0
-700,127,0,0,0,0,0,0,0,0,0,-1,524,897,0,0
-693,127,0,0,0,0,0,0,0,0,0,-1,531,897,0,0
-686,127,0,0,0,0,0,0,0,0,0,-1,538,897,0,0
-679,127,-28.9101,1.37067,0,0,0,0,0,0,0,-1,545,897,-28.9101,-1.37067
-672,127,-29.1959,1.24384,-0.0642258,-0.102722,-0.0268865,-0.0504078,-0.11654,-0.474738,0.0674884,0.0489514,552,897,-29.1959,-1.24383
-665,127,-29.5027,0.927368,-0.0599288,-0.0875908,-0.0208734,-0.04872,-0.0987997,-0.492802,0.0570438,0.0471701,559,897,-29.5027,-0.927371
-658,127,-30.1021,0.551758,-0.0531357,-0.0716909,-0.0162558,-0.0436963,-0.0811303,-0.526091,0.0468871,0.0485404,566,897,-30.102,-0.55173
-651,127,-31.027,0.223938,-0.0454143,-0.0566336,-0.0124592,-0.0373602,-0.0646878,-0.573871,0.0374969,0.0436224,573,897,-31.027,-0.223956
-644,127,-31.9432,-0.0734253,0,0,0,0,0,0,0,-1,580,897,-31.9432,0.0734411
-637,127,-29.5175,3.04944,0,0,0,0,0,0,0,-1,587,897,-29.5175,-3.04946
-630,127,-29.2903,3.36359,0,0,0,0,0,0,0,-1,594,897,-29.2903,-3.36357
-623,127,-29.2087,3.48877,-0.017712,-0.013462,-0.00193332,-0.0127141,-0.0184599,-1.2017,0.010908,0.016532,601,897,-29.2087,-3.48879
-616,127,-29.276,3.13635,-0.0123952,-0.00629963,-0.000231291,-0.00629086,-0.012404,-1.53293,0.0071617,0.0103808,608,897,-29.276,-3.13638
-609,127,-29.3232,2.72839,-0.00795156,-0.00152113,0.00101871,-0.0013636,-0.00810908,1.41738,0.00501372,0.014444,615,897,-29.3232,-2.72841
-602,127,-29.3304,2.31036,-0.00512704,0.00093191,0.00151014,0.00128744,-0.00548256,1.33958,0.00415127,0.0160948,622,897,-29.3304,-2.31039
-595,127,-29.2835,1.94452,-0.00345918,0.00153541,0.00173133,0.00207686,-0.00400063,1.2677,0.00356696,0.024594,629,897,-29.2835,-1.94454
-588,127,-29.4329,1.50195,-0.00293684,0.000907686,0.00155027,0.00145492,-0.00348408,1.23146,0.00293065,0.0318505,636,897,-29.4329,-1.50193
-581,127,-29.2921,1.11456,0,0,0,0,0,0,0,-1,643,897,-29.2921,-1.11458
-574,127,-25.2603,0.511169,0,0,0,0,0,0,0,-1,650,897,-25.2603,-0.51117
-567,127,-24.5417,-0.0447388,0,0,0,0,0,0,0,-1,657,897,-24.5417,0.0447226
-560,127,-18.9678,1.21667,0,0,0,0,0,0,0,-1,664,897,-18.9677,-1.2167
-553,127,-33.6519,0.859009,0,0,0,0,0,0,0,-1,671,897,-33.6519,-0.859006
-546,127,-33.6567,0.861206,-0.0033385,0.000852672,0.00073524,0.00097791,-0.00346374,1.40208,0.00269494,0.0221449,678,897,-33.6567,-0.861204
-539,127,-33.6561,0.854675,-0.00350851,0.00121207,0.00056892,0.00127967,-0.00357611,1.45253,0.00290611,0.019808,685,897,-33.6561,-0.854666
-532,127,-33.6536,0.839478,-0.00371488,0.00183013,0.000470459,0.00186977,-0.00375452,1.48675,0.0033074,0.0165456,692,897,-33.6536,-0.839452
-525,127,-33.6854,1.06409,-0.00450981,0.00282533,0.000404212,0.00284754,-0.00453202,1.51591,0.00429743,0.0328461,699,897,-33.6854,-1.06407
-518,127,-33.696,1.25128,-0.00525502,0.00463808,0.000362359,0.00465134,-0.00526828,1.53423,0.00573078,0.0405618,706,897,-33.6961,-1.2513
-511,127,-33.9592,1.36639,-0.00561768,0.00750807,0.000144061,0.00750965,-0.00561926,1.55982,0.00760613,0.0415696,713,897,-33.9592,-1.3664
-504,127,0,0,0,0,0,0,0,0,0,-1,720,897,0,0
-497,127,0,0,0,0,0,0,0,0,0,-1,727,897,0,0
-490,127,0,0,0,0,0,0,0,0,0,-1,734,897,0,0
-483,127,0,0,0,0,0,0,0,0,0,-1,741,897,0,0
-476,127,0,0,0,0,0,0,0,0,0,-1,748,897,0,0
-469,127,0,0,0,0,0,0,0,0,0,-1,755,897,0,0
-462,127,0,0,0,0,0,0,0,0,0,-1,762,897,0,0
-455,127,0,0,0,0,0,0,0,0,0,-1,769,897,0,0
-448,127,0,0,0,0,0,0,0,0,0,-1,776,897,0,0
-441,127,0,0,0,0,0,0,0,0,0,-1,783,897,0,0
-434,127,0,0,0,0,0,0,0,0,0,-1,790,897,0,0
-427,127,0,0,0,0,0,0,0,0,0,-1,797,897,0,0
-420,127,0,0,0,0,0,0,0,0,0,-1,804,897,0,0
-413,127,0,0,0,0,0,0,0,0,0,-1,811,897,0,0
-406,127,0,0,0,0,0,0,0,0,0,-1,818,897,0,0
-399,127,0,0,0,0,0,0,0,0,0,-1,825,897,0,0
-392,127,0,0,0,0,0,0,0,0,0,-1,832,897,0,0
-385,127,0,0,0,0,0,0,0,0,0,-1,839,897,0,0
-378,127,0,0,0,0,0,0,0,0,0,-1,846,897,0,0
-371,127,0,0,0,0,0,0,0,0,0,-1,853,897,0,0
-364,127,0,0,0,0,0,0,0,0,0,-1,860,897,0,0
-357,127,0,0,0,0,0,0,0,0,0,-1,867,897,0,0
-350,127,0,0,0,0,0,0,0,0,0,-1,874,897,0,0
-343,127,0,0,0,0,0,0,0,0,0,-1,881,897,0,0
-336,127,0,0,0,0,0,0,0,0,0,-1,888,897,0,0
-329,127,0,0,0,0,0,0,0,0,0,-1,895,897,0,0
-322,127,0,0,0,0,0,0,0,0,0,-1,902,897,0,0
-315,127,0,0,0,0,0,0,0,0,0,-1,909,897,0,0
-308,127,0,0,0,0,0,0,0,0,0,-1,916,897,0,0
-301,127,0,0,0,0,0,0,0,0,0,-1,923,897,0,0
-294,127,0,0,0,0,0,0,0,0,0,-1,930,897,0,0
-287,127,0,0,0,0,0,0,0,0,0,-1,937,897,0,0
-280,127,0,0,0,0,0,0,0,0,0,-1,944,897,0,0
-273,127,0,0,0,0,0,0,0,0,0,-1,951,897,0,0
-266,127,0,0,0,0,0,0,0,0,0,-1,958,897,0,0
-259,127,0,0,0,0,0,0,0,0,0,-1,965,897,0,0
-252,127,0,0,0,0,0,0,0,0,0,-1,972,897,0,0
-245,127,0,0,0,0,0,0,0,0,0,-1,979,897,0,0
-238,127,0,0,0,0,0,0,0,0,0,-1,986,897,0,0
-231,127,0,0,0,0,0,0,0,0,0,-1,993,897,0,0
-224,127,0,0,0,0,0,0,0,0,0,-1,1000,897,0,0
-217,127,0,0,0,0,0,0,0,0,0,-1,1007,897,0,0
-210,127,0,0,0,0,0,0,0,0,0,-1,1014,897,0,0
-203,127,0,0,0,0,0,0,0,0,0,-1,1021,897,0,0
-196,127,0,0,0,0,0,0,0,0,0,-1,1028,897,0,0
-189,127,0,0,0,0,0,0,0,0,0,-1,1035,897,0,0
-182,127,0,0,0,0,0,0,0,0,0,-1,1042,897,0,0
-175,127,0,0,0,0,0,0,0,0,0,-1,1049,897,0,0
-168,127,0,0,0,0,0,0,0,0,0,-1,1056,897,0,0
-161,127,0,0,0,0,0,0,0,0,0,-1,1063,897,0,0
-154,127,0,0,0,0,0,0,0,0,0,-1,1070,897,0,0
-147,127,0,0,0,0,0,0,0,0,0,-1,1077,897,0,0
-140,127,0,0,0,0,0,0,0,0,0,-1,1084,897,0,0
-133,127,0,0,0,0,0,0,0,0,0,-1,1091,897,0,0
-126,127,0,0,0,0,0,0,0,0,0,-1,1098,897,0,0
-119,127,0,0,0,0,0,0,0,0,0,-1,1105,897,0,0
-112,127,0,0,0,0,0,0,0,0,0,-1,1112,897,0,0
-105,127,0,0,0,0,0,0,0,0,0,-1,1119,897,0,0
-98,127,0,0,0,0,0,0,0,0,0,-1,1126,897,0,0
-91,127,0,0,0,0,0,0,0,0,0,-1,1133,897,0,0
-84,127,0,0,0,0,0,0,0,0,0,-1,1140,897,0,0
-77,127,0,0,0,0,0,0,0,0,0,-1,1147,897,0,0
-70,127,0,0,0,0,0,0,0,0,0,-1,1154,897,0,0
-63,127,0,0,0,0,0,0,0,0,0,-1,1161,897,0,0
-56,127,0,0,0,0,0,0,0,0,0,-1,1168,897,0,0
-49,127,0,0,0,0,0,0,0,0,0,-1,1175,897,0,0
-42,127,0,0,0,0,0,0,0,0,0,-1,1182,897,0,0
-35,127,0,0,0,0,0,0,0,0,0,-1,1189,897,0,0
-28,127,0,0,0,0,0,0,0,0,0,-1,1196,897,0,0
-21,127,0,0,0,0,0,0,0,0,0,-1,1203,897,0,0
-14,127,0,0,0,0,0,0,0,0,0,-1,1210,897,0,0
-7,127,0,0,0,0,0,0,0,0,0,-1,1217,897,0,0
0,127,0,0,0,0,0,0,0,0,0,-1,1224,897,0,0
7,127,0,0,0,0,0,0,0,0,0,-1,1231,897,0,0
14,127,0,0,0,0,0,0,0,0,0,-1,1238,897,0,0
21,127,0,0,0,0,0,0,0,0,0,-1,1245,897,0,0
28,127,0,0,0,0,0,0,0,0,0,-1,1252,897,0,0
35,127,0,0,0,0,0,0,0,0,0,-1,1259,897,0,0
42,127,0,0,0,0,0,0,0,0,0,-1,1266,897,0,0
49,127,0,0,0,0,0,0,0,0,0,-1,1273,897,0,0
56,127,0,0,0,0,0,0,0,0,0,-1,1280,897,0,0
63,127,0,0,0,0,0,0,0,0,0,-1,1287,897,0,0
70,127,0,0,0,0,0,0,0,0,0,-1,1294,897,0,0
77,127,0,0,0,0,0,0,0,0,0,-1,1301,897,0,0
84,127,0,0,0,0,0,0,0,0,0,-1,1308,897,0,0
91,127,0,0,0,0,0,0,0,0,0,-1,1315,897,0,0
98,127,0,0,0,0,0,0,0,0,0,-1,1322,897,0,0
105,127,0,0,0,0,0,0,0,0,0,-1,1329,897,0,0
112,127,0,0,0,0,0,0,0,0,0,-1,1336,897,0,0
119,127,0,0,0,0,0,0,0,0,0,-1,1343,897,0,0
126,127,0,0,0,0,0,0,0,0,0,-1,1350,897,0,0
133,127,0,0,0,0,0,0,0,0,0,-1,1357,897,0,0
140,127,0,0,0,0,0,0,0,0,0,-1,1364,897,0,0
147,127,0,0,0,0,0,0,0,0,0,-1,1371,897,0,0
154,127,0,0,0,0,0,0,0,0,0,-1,1378,897,0,0
161,127,0,0,0,0,0,0,0,0,0,-1,1385,897,0,0
168,127,0,0,0,0,0,0,0,0,0,-1,1392,897,0,0
175,127,0,0,0,0,0,0,0,0,0,-1,1399,897,0,0
182,127,0,0,0,0,0,0,0,0,0,-1,1406,897,0,0
189,127,0,0,0,0,0,0,0,0,0,-1,1413,897,0,0
196,127,0,0,0,0,0,0,0,0,0,-1,1420,897,0,0
203,127,0,0,0,0,0,0,0,0,0,-1,1427,897,0,0
210,127,0,0,0,0,0,0,0,0,0,-1,1434,897,0,0
217,127,0,0,0,0,0,0,0,0,0,-1,1441,897,0,0
224,127,0,0,0,0,0,0,0,0,0,-1,1448,897,0,0
231,127,0,0,0,0,0,0,0,0,0,-1,1455,897,0,0
238,127,0,0,0,0,0,0,0,0,0,-1,1462,897,0,0
245,127,0,0,0,0,0,0,0,0,0,-1,1469,897,0,0
252,127,0,0,0,0,0,0,0,0,0,-1,1476,897,0,0
259,127,0,0,0,0,0,0,0,0,0,-1,1483,897,0,0
266,127,0,0,0,0,0,0,0,0,0,-1,1490,897,0,0
273,127,0,0,0,0,0,0,0,0,0,-1,1497,897,0,0
280,127,0,0,0,0,0,0,0,0,0,-1,1504,897,0,0
287,127,0,0,0,0,0,0,0,0,0,-1,1511,897,0,0
294,127,0,0,0,0,0,0,0,0,0,-1,1518,897,0,0
301,127,0,0,0,0,0,0,0,0,0,-1,1525,897,0,0
308,127,0,0,0,0,0,0,0,0,0,-1,1532,897,0,0
315,127,0,0,0,0,0,0,0,0,0,-1,1539,897,0,0
322,127,0,0,0,0,0,0,0,0,0,-1,1546,897,0,0
329,127,0,0,0,0,0,0,0,0,0,-1,1553,897,0,0
336,127,0,0,0,0,0,0,0,0,0,-1,1560,897,0,0
343,127,0,0,0,0,0,0,0,0,0,-1,1567,897,0,0
350,127,0,0,0,0,0,0,0,0,0,-1,1574,897,0,0
357,127,0,0,0,0,0,0,0,0,0,-1,1581,897,0,0
364,127,0,0,0,0,0,0,0,0,0,-1,1588,897,0,0
371,127,0,0,0,0,0,0,0,0,0,-1,1595,897,0,0
378,127,0,0,0,0,0,0,0,0,0,-1,1602,897,0,0
385,127,0,0,0,0,0,0,0,0,0,-1,1609,897,0,0
392,127,0,0,0,0,0,0,0,0,0,-1,1616,897,0,0
399,127,0,0,0,0,0,0,0,0,0,-1,1623,897,0,0
406,127,0,0,0,0,0,0,0,0,0,-1,1630,897,0,0
413,127,0,0,0,0,0,0,0,0,0,-1,1637,897,0,0
420,127,0,0,0,0,0,0,0,0,0,-1,1644,897,0,0
427,127,0,0,0,0,0,0,0,0,0,-1,1651,897,0,0
434,127,0,0,0,0,0,0,0,0,0,-1,1658,897,0,0
441,127,0,0,0,0,0,0,0,0,0,-1,1665,897,0,0
448,127,0,0,0,0,0,0,0,0,0,-1,1672,897,0,0
455,127,0,0,0,0,0,0,0,0,0,-1,1679,897,0,0
462,127,0,0,0,0,0,0,0,0,0,-1,1686,897,0,0
469,127,0,0,0,0,0,0,0,0,0,-1,1693,897,0,0
476,127,0,0,0,0,0,0,0,0,0,-1,1700,897,0,0
483,127,0,0,0,0,0,0,0,0,0,-1,1707,897,0,0
490,127,0,0,0,0,0,0,0,0,0,-1,1714,897,0,0
497,127,0,0,0,0,0,0,0,0,0,-1,1721,897,0,0
504,127,0,0,0,0,0,0,0,0,0,-1,1728,897,0,0
511,127,0,0,0,0,0,0,0,0,0,-1,1735,897,0,0
518,127,0,0,0,0,0,0,0,0,0,-1,1742,897,0,0
525,127,0,0,0,0,0,0,0,0,0,-1,1749,897,0,0
532,127,0,0,0,0,0,0,0,0,0,-1,1756,897,0,0
539,127,0,0,0,0,0,0,0,0,0,-1,1763,897,0,0
546,127,0,0,0,0,0,0,0,0,0,-1,1770,897,0,0
553,127,0,0,0,0,0,0,0,0,0,-1,1777,897,0,0
560,127,0,0,0,0,0,0,0,0,0,-1,1784,897,0,0
567,127,0,0,0,0,0,0,0,0,0,-1,1791,897,0,0
574,127,0,0,0,0,0,0,0,0,0,-1,1798,897,0,0
581,127,0,0,0,0,0,0,0,0,0,-1,1805,897,0,0
588,127,0,0,0,0,0,0,0,0,0,-1,1812,897,0,0
595,127,0,0,0,0,0,0,0,0,0,-1,1819,897,0,0
602,127,0,0,0,0,0,0,0,0,0,-1,1826,897,0,0
609,127,0,0,0,0,0,0,0,0,0,-1,1833,897,0,0
616,127,0,0,0,0,0,0,0,0,0,-1,1840,897,0,0
623,127,0,0,0,0,0,0,0,0,0,-1,1847,897,0,0
630,127,44.7601,2.52673,0,0,0,0,0,0,0,-1,1854,897,44.7601,-2.52673
637,127,45.0178,2.80084,0.00106204,0.00277842,0.00101177,0.00324694,0.000593516,1.13713,0.00199642,0.0419808,1861,897,45.0179,-2.80086
644,127,45.1833,2.9809,0.000657422,0.00214876,0.00086768,0.00254716,0.000259024,1.14036,0.00161869,0.039868,1868,897,45.1834,-2.98092
651,127,45.1927,2.79742,0.000160751,0.00176583,0.000768671,0.00207456,-0.000147982,1.18887,0.00143491,0.0405351,1875,897,45.1927,-2.79745
658,127,45.1744,2.60376,-0.000148984,0.00159583,0.000775781,0.00189087,-0.000444023,1.20738,0.00143173,0.0400149,1882,897,45.1744,-2.60376
665,127,45.1879,2.52136,-0.000260738,0.00157811,0.000740885,0.00183947,-0.000522098,1.23166,0.00143242,0.0373971,1889,897,45.1878,-2.52137
672,127,45.1965,2.55847,-0.000179939,0.00144615,0.000786958,0.00176463,-0.000498417,1.18625,0.00137305,0.0326316,1896,897,45.1965,-2.55846
679,127,45.1895,2.61816,-9.42552e-05,0.00125899,0.000763768,0.00160274,-0.000438006,1.14788,0.00124054,0.0237517,1903,897,45.1895,-2.61814
686,127,45.1283,2.63214,-2.06435e-06,0.00107286,0.000703232,0.00142049,-0.000349702,1.11168,0.00108256,0.0424282,1910,897,45.1283,-2.63214
693,127,45.0256,2.59003,0,0,0,0,0,0,0,-1,1917,897,45.0256,-2.59002
700,127,39.5098,2.57623,0,0,0,0,0,0,0,-1,1924,897,39.5098,-2.57622
707,127,39.4138,3.01355,-8.08198e-05,0.00126838,0.00028632,0.00132663,-0.000139067,1.3701,0.000934231,0.0272649,1931,897,39.4138,-3.01354
714,127,39.6134,3.52081,0.000190317,0.00136981,7.40725e-05,0.00137445,0.000185683,1.50832,0.000861102,0.022435,1938,897,39.6134,-3.52079
721,127,39.8115,4.14429,0.000294674,0.00137716,-0.000256621,0.00143492,0.000236919,-1.34943,0.000888233,0.0188307,1945,897,39.8115,-4.14431
728,127,39.7332,4.52277,0.000148902,0.00158351,-0.000596192,0.00179893,-6.65154e-05,-1.22407,0.00122206,0.0160928,1952,897,39.7332,-4.52279
735,127,39.6854,4.97742,0.000199952,0.00192304,-0.000842345,0.0022664,-0.000143412,-1.18373,0.00156094,0.0206839,1959,897,39.6855,-4.9774
742,127,39.6592,5.46149,0.000423321,0.00241119,-0.00105118,0.00286394,-2.94239e-05,-1.16411,0.00191917,0.0182485,1966,897,39.6591,-5.46146
749,127,39.6376,5.88135,0.000889956,0.00305034,-0.00108235,0.0034993,0.000440997,-1.1776,0.00220064,0.012684,1973,897,39.6375,-5.88138
756,127,39.6084,6.26343,0.00191279,0.00358633,-0.00075369,0.00387572,0.00162341,-1.20419,0.00224745,0.0148009,1980,897,39.6084,-6.26343
763,127,39.6218,6.65967,0.00375326,0.0038547,0.0001759,0.00398705,0.00362091,0.925764,0.00254478,0.0250179,1987,897,39.6218,-6.65969
770,127,39.6986,7.07867,0,0,0,0,0,0,0,-1,1994,897,39.6986,-7.0787
777,127,42.703,5.33789,0,0,0,0,0,0,0,-1,2001,897,42.7031,-5.33791
784,127,42.6145,8.47131,0,0,0,0,0,0,0,-1,2008,897,42.6146,-8.47131
791,127,42.238,8.97205,0,0,0,0,0,0,0,-1,2015,897,42.2381,-8.97204
798,127,0,0,0,0,0,0,0,0,0,-1,2022,897,0,0
805,127,0,0,0,0,0,0,0,0,0,-1,2029,897,0,0
812,127,0,0,0,0,0,0,0,0,0,-1,2036,897,0,0
-700,120,0,0,0,0,0,0,0,0,0,-1,524,904,0,0
-693,120,0,0,0,0,0,0,0,0,0,-1,531,904,0,0
-686,120,0,0,0,0,0,0,0,0,0,-1,538,904,0,0
-679,120,-29.0184,2.04999,0,0,0,0,0,0,0,-1,545,904,-29.0184,-2.04998
-672,120,-29.252,1.95532,-0.053499,-0.0916016,-0.0295772,-0.0373684,-0.107732,-0.499283,0.0631641,0.0450233,552,904,-29.252,-1.9553
-665,120,-29.4636,1.87878,-0.0535879,-0.082058,-0.0211233,-0.0423509,-0.0932951,-0.4889,0.05394,0.0447575,559,904,-29.4636,-1.87877
-658,120,-30.1797,1.64648,-0.0495632,-0.0694348,-0.0151849,-0.0413523,-0.0776457,-0.495694,0.0448605,0.0487302,566,904,-30.1797,-1.64648
-651,120,-30.9658,1.20135,-0.0435618,-0.0562451,-0.0107341,-0.037436,-0.0623709,-0.518586,0.0362502,0.04815,573,904,-30.9658,-1.20138
-644,120,-31.6437,0.769592,0,0,0,0,0,0,0,-1,580,904,-31.6437,-0.769568
-637,120,-30.2066,3.82123,0,0,0,0,0,0,0,-1,587,904,-30.2066,-3.82124
-630,120,-29.862,3.48651,0,0,0,0,0,0,0,-1,594,904,-29.862,-3.48653
-623,120,-29.6908,3.47125,-0.0180156,-0.0145915,-0.0004125,-0.0145425,-0.0180646,-1.45258,0.0110576,0.0114401,601,904,-29.6908,-3.47125
-616,120,-29.7219,3.09686,-0.0129043,-0.0073252,0.00104202,-0.00713693,-0.0130926,1.39205,0.00756926,0.0107612,608,904,-29.7218,-3.09684
-609,120,-29.7338,2.7121,-0.00856594,-0.0022954,0.00176311,-0.00183366,-0.00902768,1.31466,0.0055099,0.0141457,615,904,-29.7338,-2.71209
-602,120,-29.7557,2.30951,-0.00596025,0.000500049,0.00182666,0.000980768,-0.00644097,1.31346,0.00465547,0.0157984,622,904,-29.7557,-2.30949
-595,120,-29.71,1.97223,-0.00442437,0.00144433,0.00178895,0.00194665,-0.0049267,1.29705,0.00409077,0.0269828,629,904,-29.71,-1.97222
-588,120,-29.6776,1.52264,-0.00396026,0.00108165,0.00147375,0.00148083,-0.00435943,1.30629,0.00350575,0.0362893,636,904,-29.6776,-1.52267
-581,120,-29.8758,1.38953,0,0,0,0,0,0,0,-1,643,904,-29.8758,-1.38953
-574,120,-27.5438,0.505066,0,0,0,0,0,0,0,-1,650,904,-27.5438,-0.505085
-567,120,-25.2822,-0.410645,0,0,0,0,0,0,0,-1,657,904,-25.2821,0.410629
-560,120,-27.3358,1.10327,0,0,0,0,0,0,0,-1,664,904,-27.3358,-1.10324
-553,120,-33.5598,1.16602,0,0,0,0,0,0,0,-1,671,904,-33.5598,-1.16601
-546,120,-33.6521,0.919312,-0.00423717,0.00135964,0.000514918,0.00140662,-0.00428415,1.47981,0.00342272,0.0298584,678,904,-33.6521,-0.91931
-539,120,-33.6509,0.878113,-0.00431863,0.00182692,0.000318597,0.00184339,-0.00433511,1.51914,0.00366258,0.0250375,685,904,-33.6509,-0.878091
-532,120,-33.6097,0.770081,-0.00441686,0.00256485,0.00016725,0.00256886,-0.00442087,1.54686,0.00408247,0.0271658,692,904,-33.6097,-0.770092
-525,120,-33.6967,0.950806,-0.00495921,0.0037821,-5.06151e-05,0.00378239,-0.00495951,-1.56501,0.00506237,0.0340846,699,904,-33.6966,-0.950827
-518,120,-33.8212,1.13409,-0.00563619,0.0059398,-0.000375462,0.00595196,-0.00564835,-1.53841,0.00669821,0.0370139,706,904,-33.8212,-1.13407
-511,120,-33.8677,1.23499,-0.0060378,0.00921028,-0.000976222,0.00927253,-0.00610005,-1.50712,0.00893814,0.0387398,713,904,-33.8677,-1.23497
-504,120,0,0,0,0,0,0,0,0,0,-1,720,904,0,0
-497,120,0,0,0,0,0,0,0,0,0,-1,727,904,0,0
-490,120,0,0,0,0,0,0,0,0,0,-1,734,904,0,0
-483,120,0,0,0,0,0,0,0,0,0,-1,741,904,0,0
-476,120,0,0,0,0,0,0,0,0,0,-1,748,904,0,0
-469,120,0,0,0,0,0,0,0,0,0,-1,755,904,0,0
-462,120,0,0,0,0,0,0,0,0,0,-1,762,904,0,0
-455,120,0,0,0,0,0,0,0,0,0,-1,769,904,0,0
-448,120,0,0,0,0,0,0,0,0,0,-1,776,904,0,0
-441,120,0,0,0,0,0,0,0,0,0,-1,783,904,0,0
-434,120,0,0,0,0,0,0,0,0,0,-1,790,904,0,0
-427,120,0,0,0,0,0,0,0,0,0,-1,797,904,0,0
-420,120,0,0,0,0,0,0,0,0,0,-1,804,904,0,0
-413,120,0,0,0,0,0,0,0,0,0,-1,811,904,0,0
-406,120,0,0,0,0,0,0,0,0,0,-1,818,904,0,0
-399,120,0,0,0,0,0,0,0,0,0,-1,825,904,0,0
-392,120,0,0,0,0,0,0,0,0,0,-1,832,904,0,0
-385,120,0,0,0,0,0,0,0,0,0,-1,839,904,0,0
-378,120,0,0,0,0,0,0,0,0,0,-1,846,904,0,0
-371,120,0,0,0,0,0,0,0,0,0,-1,853,904,0,0
-364,120,0,0,0,0,0,0,0,0,0,-1,860,904,0,0
-357,120,0,0,0,0,0,0,0,0,0,-1,867,904,0,0
-350,120,0,0,0,0,0,0,0,0,0,-1,874,904,0,0
-343,120,0,0,0,0,0,0,0,0,0,-1,881,904,0,0
-336,120,0,0,0,0,0,0,0,0,0,-1,888,904,0,0
-329,120,0,0,0,0,0,0,0,0,0,-1,895,904,0,0
-322,120,0,0,0,0,0,0,0,0,0,-1,902,904,0,0
-315,120,0,0,0,0,0,0,0,0,0,-1,909,904,0,0
-308,120,0,0,0,0,0,0,0,0,0,-1,916,904,0,0
-301,120,0,0,0,0,0,0,0,0,0,-1,923,904,0,0
-294,120,0,0,0,0,0,0,0,0,0,-1,930,904,0,0
-287,120,0,0,0,0,0,0,0,0,0,-1,937,904,0,0
-280,120,0,0,0,0,0,0,0,0,0,-1,944,904,0,0
-273,120,0,0,0,0,0,0,0,0,0,-1,951,904,0,0
-266,120,0,0,0,0,0,0,0,0,0,-1,958,904,0,0
-259,120,0,0,0,0,0,0,0,0,0,-1,965,904,0,0
-252,120,0,0,0,0,0,0,0,0,0,-1,972,904,0,0
-245,120,0,0,0,0,0,0,0,0,0,-1,979,904,0,0
-238,120,0,0,0,0,0,0,0,0,0,-1,986,904,0,0
-231,120,0,0,0,0,0,0,0,0,0,-1,993,904,0,0
-224,120,0,0,0,0,0,0,0,0,0,-1,1000,904,0,0
-217,120,0,0,0,0,0,0,0,0,0,-1,1007,904,0,0
-210,120,0,0,0,0,0,0,0,0,0,-1,1014,904,0,0
-203,120,0,0,0,0,0,0,0,0,0,-1,1021,904,0,0
-196,120,0,0,0,0,0,0,0,0,0,-1,1028,904,0,0
-189,120,0,0,0,0,0,0,0,0,0,-1,1035,904,0,0
-182,120,0,0,0,0,0,0,0,0,0,-1,1042,904,0,0
-175,120,0,0,0,0,0,0,0,0,0,-1,1049,904,0,0
-168,120,0,0,0,0,0,0,0,0,0,-1,1056,904,0,0
-161,120,0,0,0,0,0,0,0,0,0,-1,1063,904,0,0
-154,120,0,0,0,0,0,0,0,0,0,-1,1070,904,0,0
-147,120,0,0,0,0,0,0,0,0,0,-1,1077,904,0,0
-140,120,0,0,0,0,0,0,0,0,0,-1,1084,904,0,0
-133,120,0,0,0,0,0,0,0,0,0,-1,1091,904,0,0
-126,120,0,0,0,0,0,0,0,0,0,-1,1098,904,0,0
-119,120,0,0,0,0,0,0,0,0,0,-1,1105,904,0,0
-112,120,0,0,0,0,0,0,0,0,0,-1,1112,904,0,0
-105,120,0,0,0,0,0,0,0,0,0,-1,1119,904,0,0
-98,120,0,0,0,0,0,0,0,0,0,-1,1126,904,0,0
-91,120,0,0,0,0,0,0,0,0,0,-1,1133,904,0,0
-84,120,0,0,0,0,0,0,0,0,0,-1,1140,904,0,0
-77,120,0,0,0,0,0,0,0,0,0,-1,1147,904,0,0
-70,120,0,0,0,0,0,0,0,0,0,-1,1154,904,0,0
-63,120,0,0,0,0,0,0,0,0,0,-1,1161,904,0,0
-56,120,0,0,0,0,0,0,0,0,0,-1,1168,904,0,0
-49,120,0,0,0,0,0,0,0,0,0,-1,1175,904,0,0
-42,120,0,0,0,0,0,0,0,0,0,-1,1182,904,0,0
-35,120,0,0,0,0,0,0,0,0,0,-1,1189,904,0,0
-28,120,0,0,0,0,0,0,0,0,0,-1,1196,904,0,0
-21,120,0,0,0,0,0,0,0,0,0,-1,1203,904,0,0
-14,120,0,0,0,0,0,0,0,0,0,-1,1210,904,0,0
-7,120,0,0,0,0,0,0,0,0,0,-1,1217,904,0,0
0,120,0,0,0,0,0,0,0,0,0,-1,1224,904,0,0
7,120,0,0,0,0,0,0,0,0,0,-1,1231,904,0,0
14,120,0,0,0,0,0,0,0,0,0,-1,1238,904,0,0
21,120,0,0,0,0,0,0,0,0,0,-1,1245,904,0,0
28,120,0,0,0,0,0,0,0,0,0,-1,1252,904,0,0
35,120,0,0,0,0,0,0,0,0,0,-1,1259,904,0,0
42,120,0,0,0,0,0,0,0,0,0,-1,1266,904,0,0
49,120,0,0,0,0,0,0,0,0,0,-1,1273,904,0,0
56,120,0,0,0,0,0,0,0,0,0,-1,1280,904,0,0
63,120,0,0,0,0,0,0,0,0,0,-1,1287,904,0,0
70,120,0,0,0,0,0,0,0,0,0,-1,1294,904,0,0
77,120,0,0,0,0,0,0,0,0,0,-1,1301,904,0,0
84,120,0,0,0,0,0,0,0,0,0,-1,1308,904,0,0
91,120,0,0,0,0,0,0,0,0,0,-1,1315,904,0,0
98,120,0,0,0,0,0,0,0,0,0,-1,1322,904,0,0
105,120,0,0,0,0,0,0,0,0,0,-1,1329,904,0,0
112,120,0,0,0,0,0,0,0,0,0,-1,1336,904,0,0
119,120,0,0,0,0,0,0,0,0,0,-1,1343,904,0,0
126,120,0,0,0,0,0,0,0,0,0,-1,1350,904,0,0
133,120,0,0,0,0,0,0,0,0,0,-1,1357,904,0,0
140,120,0,0,0,0,0,0,0,0,0,-1,1364,904,0,0
147,120,0,0,0,0,0,0,0,0,0,-1,1371,904,0,0
154,120,0,0,0,0,0,0,0,0,0,-1,1378,904,0,0
161,120,0,0,0,0,0,0,0,0,0,-1,1385,904,0,0
168,120,0,0,0,0,0,0,0,0,0,-1,1392,904,0,0
175,120,0,0,0,0,0,0,0,0,0,-1,1399,904,0,0
182,120,0,0,0,0,0,0,0,0,0,-1,1406,904,0,0
189,120,0,0,0,0,0,0,0,0,0,-1,1413,904,0,0
196,120,0,0,0,0,0,0,0,0,0,-1,1420,904,0,0
203,120,0,0,0,0,0,0,0,0,0,-1,1427,904,0,0
210,120,0,0,0,0,0,0,0,0,0,-1,1434,904,0,0
217,120,0,0,0,0,0,0,0,0,0,-1,1441,904,0,0
224,120,0,0,0,0,0,0,0,0,0,-1,1448,904,0,0
231,120,0,0,0,0,0,0,0,0,0,-1,1455,904,0,0
238,120,0,0,0,0,0,0,0,0,0,-1,1462,904,0,0
245,120,0,0,0,0,0,0,0,0,0,-1,1469,904,0,0
252,120,0,0,0,0,0,0,0,0,0,-1,1476,904,0,0
259,120,0,0,0,0,0,0,0,0,0,-1,1483,904,0,0
266,120,0,0,0,0,0,0,0,0,0,-1,1490,904,0,0
273,120,0,0,0,0,0,0,0,0,0,-1,1497,904,0,0
280,120,0,0,0,0,0,0,0,0,0,-1,1504,904,0,0
287,120,0,0,0,0,0,0,0,0,0,-1,1511,904,0,0
294,120,0,0,0,0,0,0,0,0,0,-1,1518,904,0,0
301,120,0,0,0,0,0,0,0,0,0,-1,1525,904,0,0
308,120,0,0,0,0,0,0,0,0,0,-1,1532,904,0,0
315,120,0,0,0,0,0,0,0,0,0,-1,1539,904,0,0
322,120,0,0,0,0,0,0,0,0,0,-1,1546,904,0,0
329,120,0,0,0,0,0,0,0,0,0,-1,1553,904,0,0
336,120,0,0,0,0,0,0,0,0,0,-1,1560,904,0,0
343,120,0,0,0,0,0,0,0,0,0,-1,1567,904,0,0
350,120,0,0,0,0,0,0,0,0,0,-1,1574,904,0,0
357,120,0,0,0,0,0,0,0,0,0,-1,1581,904,0,0
364,120,0,0,0,0,0,0,0,0,0,-1,1588,904,0,0
371,120,0,0,0,0,0,0,0,0,0,-1,1595,904,0,0
378,120,0,0,0,0,0,0,0,0,0,-1,1602,904,0,0
385,120,0,0,0,0,0,0,0,0,0,-1,1609,904,0,0
392,120,0,0,0,0,0,0,0,0,0,-1,1616,904,0,0
399,120,0,0,0,0,0,0,0,0,0,-1,1623,904,0,0
406,120,0,0,0,0,0,0,0,0,0,-1,1630,904,0,0
413,120,0,0,0,0,0,0,0,0,0,-1,1637,904,0,0
420,120,0,0,0,0,0,0,0,0,0,-1,1644,904,0,0
427,120,0,0,0,0,0,0,0,0,0,-1,1651,904,0,0
434,120,0,0,0,0,0,0,0,0,0,-1,1658,904,0,0
441,120,0,0,0,0,0,0,0,0,0,-1,1665,904,0,0
448,120,0,0,0,0,0,0,0,0,0,-1,1672,904,0,0
455,120,0,0,0,0,0,0,0,0,0,-1,1679,904,0,0
462,120,0,0,0,0,0,0,0,0,0,-1,1686,904,0,0
469,120,0,0,0,0,0,0,0,0,0,-1,1693,904,0,0
476,120,0,0,0,0,0,0,0,0,0,-1,1700,904,0,0
483,120,0,0,0,0,0,0,0,0,0,-1,1707,904,0,0
490,120,0,0,0,0,0,0,0,0,0,-1,1714,904,0,0
497,120,0,0,0,0,0,0,0,0,0,-1,1721,904,0,0
504,120,0,0,0,0,0,0,0,0,0,-1,1728,904,0,0
511,120,0,0,0,0,0,0,0,0,0,-1,1735,904,0,0
518,120,0,0,0,0,0,0,0,0,0,-1,1742,904,0,0
525,120,0,0,0,0,0,0,0,0,0,-1,1749,904,0,0
532,120,0,0,0,0,0,0,0,0,0,-1,1756,904,0,0
539,120,0,0,0,0,0,0,0,0,0,-1,1763,904,0,0
546,120,0,0,0,0,0,0,0,0,0,-1,1770,904,0,0
553,120,0,0,0,0,0,0,0,0,0,-1,1777,904,0,0
560,120,0,0,0,0,0,0,0,0,0,-1,1784,904,0,0
567,120,0,0,0,0,0,0,0,0,0,-1,1791,904,0,0
574,120,0,0,0,0,0,0,0,0,0,-1,1798,904,0,0
581,120,0,0,0,0,0,0,0,0,0,-1,1805,904,0,0
588,120,0,0,0,0,0,0,0,0,0,-1,1812,904,0,0
595,120,0,0,0,0,0,0,0,0,0,-1,1819,904,0,0
602,120,0,0,0,0,0,0,0,0,0,-1,1826,904,0,0
609,120,0,0,0,0,0,0,0,0,0,-1,1833,904,0,0
616,120,0,0,0,0,0,0,0,0,0,-1,1840,904,0,0
623,120,0,0,0,0,0,0,0,0,0,-1,1847,904,0,0
630,120,45.0278,2.66956,0.000612946,0.00347487,0.00188313,0.00440904,-0.000321217,1.1103,0.00305207,0.0404467,1854,904,45.0279,-2.66954
637,120,45.0081,2.74658,0.000740264,0.00255809,0.00139499,0.00331415,-1.57941e-05,1.07413,0.00221472,0.0422505,1861,904,45.008,-2.74656
644,120,45.1459,2.99353,0.000500531,0.00202784,0.00102725,0.00254419,-1.58194e-05,1.10503,0.00170143,0.0403549,1868,904,45.1459,-2.99354
651,120,45.1243,2.88159,0.000147614,0.00178044,0.00080657,0.00211167,-0.000183615,1.18113,0.00147281,0.0400979,1875,904,45.1242,-2.88157
658,120,45.0195,2.78711,-9.71291e-05,0.00175879,0.000790025,0.00204954,-0.000387877,1.21816,0.00151233,0.0397983,1882,904,45.0196,-2.78713
665,120,45.0608,2.82324,-0.000172686,0.00186094,0.000804955,0.00214099,-0.000452739,1.23598,0.00159974,0.0375284,1889,904,45.0608,-2.82322
672,120,45.1713,2.77948,-9.98475e-05,0.0017984,0.000922771,0.00217304,-0.000474485,1.18514,0.00163004,0.03659,1896,904,45.1713,-2.7795
679,120,45.1747,2.63934,-1.11198e-05,0.001626,0.000971247,0.00207762,-0.00046274,1.13555,0.00156234,0.0305139,1903,904,45.1747,-2.63936
686,120,45.1332,2.66302,7.41097e-05,0.00144597,0.000949913,0.00193172,-0.00041164,1.0981,0.00144471,0.0245032,1910,904,45.1331,-2.66303
693,120,45.0485,2.68842,0,0,0,0,0,0,0,-1,1917,904,45.0485,-2.68839
700,120,40.1227,2.8855,0,0,0,0,0,0,0,-1,1924,904,40.1227,-2.88551
707,120,39.9933,3.2373,0,0,0,0,0,0,0,-1,1931,904,39.9933,-3.2373
714,120,40.345,3.56134,0,0,0,0,0,0,0,-1,1938,904,40.345,-3.56135
721,120,40.2535,4.18945,6.77459e-07,0.00166238,9.00452e-05,0.00166724,-4.18775e-06,1.51682,0.00111289,0.0169558,1945,904,40.2535,-4.18943
728,120,40.1859,4.62531,-0.000236785,0.00181926,-0.000277582,0.00185608,-0.000273602,-1.43893,0.00133794,0.012103,1952,904,40.1859,-4.6253
735,120,40.1394,5.01355,-0.000321245,0.00213456,-0.000556281,0.00225469,-0.000441375,-1.35811,0.00166981,0.0133416,1959,904,40.1394,-5.01356
742,120,40.1124,5.46631,-0.000269337,0.00263581,-0.000781488,0.00283269,-0.000466216,-1.324,0.00206151,0.0140744,1966,904,40.1125,-5.46632
749,120,40.0824,5.86334,-4.70609e-05,0.00337425,-0.000789411,0.00354761,-0.00022042,-1.35462,0.00244186,0.0110217,1973,904,40.0824,-5.86332
756,120,40.0308,6.26794,0.000664226,0.00406872,-0.000360321,0.00410643,0.000626509,-1.4665,0.00255453,0.0139514,1980,904,40.0308,-6.26795
763,120,39.9628,6.66205,0.00205152,0.00449755,0.000704875,0.00468613,0.00186293,1.30938,0.00272441,0.0294706,1987,904,39.9628,-6.66206
770,120,39.9337,7.09186,0,0,0,0,0,0,0,-1,1994,904,39.9337,-7.09183
777,120,41.3512,6.78638,0,0,0,0,0,0,0,-1,2001,904,41.3512,-6.78635
784,120,42.5986,7.98151,0,0,0,0,0,0,0,-1,2008,904,42.5987,-7.98152
791,120,42.2488,7.85376,0,0,0,0,0,0,0,-1,2015,904,42.2489,-7.85375
798,120,42.8147,7.98224,0,0,0,0,0,0,0,-1,2022,904,42.8147,-7.98223
805,120,0,0,0,0,0,0,0,0,0,-1,2029,904,0,0
812,120,0,0,0,0,0,0,0,0,0,-1,2036,904,0,0
-700,113,0,0,0,0,0,0,0,0,0,-1,524,911,0,0
-693,113,0,0,0,0,0,0,0,0,0,-1,531,911,0,0
-686,113,0,0,0,0,0,0,0,0,0,-1,538,911,0,0
-679,113,-29.2112,8.24695,0,0,0,0,0,0,0,-1,545,911,-29.2112,-8.24696
-672,113,-29.506,2.68262,0,0,0,0,0,0,0,-1,552,911,-29.506,-2.68259
-665,113,-29.4839,2.77087,0,0,0,0,0,0,0,-1,559,911,-29.4839,-2.7709
-658,113,-29.4395,2.62317,0,0,0,0,0,0,0,-1,566,911,-29.4394,-2.62315
-651,113,-29.3741,2.66736,0,0,0,0,0,0,0,-1,573,911,-29.3741,-2.66734
-644,113,-30.418,4.0495,0,0,0,0,0,0,0,-1,580,911,-30.4179,-4.04948
-637,113,-30.2665,3.91077,-0.0284728,-0.0303115,-0.0033182,-0.0259489,-0.0328353,-0.650255,0.0199941,0.0410361,587,911,-30.2665,-3.91077
-630,113,-30.0825,3.81934,-0.0227513,-0.0215772,-0.000943791,-0.0210528,-0.0232758,-1.06363,0.0148318,0.0197314,594,911,-30.0825,-3.81935
-623,113,-30.1371,3.45502,-0.0175644,-0.0142067,0.000800585,-0.0140256,-0.0177455,1.34831,0.0108059,0.0119464,601,911,-30.1371,-3.45505
-616,113,-30.1428,3.07776,-0.0128414,-0.00736124,0.00194505,-0.00674107,-0.0134616,1.26214,0.00777205,0.0110797,608,911,-30.1428,-3.07778
-609,113,-30.1336,2.71906,-0.00891011,-0.00260394,0.00217165,-0.00192844,-0.00958561,1.26923,0.00585444,0.0121874,615,911,-30.1336,-2.71903
-602,113,-30.1513,2.31763,-0.00669033,0.000168518,0.00187459,0.000647423,-0.00716923,1.32067,0.00500926,0.0177943,622,911,-30.1513,-2.31764
-595,113,-30.1896,2.05664,-0.00531926,0.00125999,0.00162427,0.00163914,-0.00569841,1.34148,0.00444718,0.0233777,629,911,-30.1896,-2.05666
-588,113,-30.1428,1.66321,-0.00494259,0.00104151,0.00117918,0.00126548,-0.00516657,1.38309,0.00393464,0.0274605,636,911,-30.1427,-1.66321
-581,113,-30.1608,1.25372,-0.0049414,0.00104685,0.000907423,0.00118134,-0.00507588,1.42366,0.00383878,0.0284102,643,911,-30.1608,-1.25373
-574,113,-30.1516,0.695435,0,0,0,0,0,0,0,-1,650,911,-30.1515,-0.69545
-567,113,-21.8396,0.437378,0,0,0,0,0,0,0,-1,657,911,-21.8396,-0.437351
-560,113,-33.5342,0.944763,0,0,0,0,0,0,0,-1,664,911,-33.5342,-0.944762
-553,113,-33.5899,1.01208,-0.0051203,0.00120535,0.000118771,0.00120757,-0.00512253,1.55203,0.00388069,0.0384464,671,911,-33.5899,-1.0121
-546,113,-33.6243,0.836243,-0.00527481,0.00157164,-0.000131053,0.00157415,-0.00527732,-1.55166,0.00414382,0.036482,678,911,-33.6243,-0.836242
-539,113,-33.5026,0.867126,-0.00522212,0.00209725,-0.000369325,0.00211584,-0.00524071,-1.52051,0.00437317,0.0377855,685,911,-33.5026,-0.867126
-532,113,-33.545,0.74353,-0.00507675,0.00289974,-0.000581381,0.00294189,-0.0051189,-1.49842,0.00471014,0.0397145,692,911,-33.545,-0.74354
-525,113,-33.8182,0.882935,-0.00516116,0.00419004,-0.00094777,0.00428513,-0.00525625,-1.4708,0.00551822,0.0366611,699,911,-33.8182,-0.88292
-518,113,-33.7872,0.78064,-0.00561311,0.00636887,-0.00151779,0.00655814,-0.00580238,-1.44673,0.00714079,0.0370405,706,911,-33.7872,-0.780645
-511,113,-33.6991,0.750122,-0.00587702,0.009416,-0.0024546,0.00980032,-0.00626134,-1.41549,0.00934794,0.040423,713,911,-33.6991,-0.750109
-504,113,0,0,0,0,0,0,0,0,0,-1,720,911,0,0
-497,113,0,0,0,0,0,0,0,0,0,-1,727,911,0,0
-490,113,0,0,0,0,0,0,0,0,0,-1,734,911,0,0
-483,113,0,0,0,0,0,0,0,0,0,-1,741,911,0,0
-476,113,0,0,0,0,0,0,0,0,0,-1,748,911,0,0
-469,113,0,0,0,0,0,0,0,0,0,-1,755,911,0,0
-462,113,0,0,0,0,0,0,0,0,0,-1,762,911,0,0
-455,113,0,0,0,0,0,0,0,0,0,-1,769,911,0,0
-448,113,0,0,0,0,0,0,0,0,0,-1,776,911,0,0
-441,113,0,0,0,0,0,0,0,0,0,-1,783,911,0,0
-434,113,0,0,0,0,0,0,0,0,0,-1,790,911,0,0
-427,113,0,0,0,0,0,0,0,0,0,-1,797,911,0,0
-420,113,0,0,0,0,0,0,0,0,0,-1,804,911,0,0
-413,113,0,0,0,0,0,0,0,0,0,-1,811,911,0,0
-406,113,0,0,0,0,0,0,0,0,0,-1,818,911,0,0
-399,113,0,0,0,0,0,0,0,0,0,-1,825,911,0,0
-392,113,0,0,0,0,0,0,0,0,0,-1,832,911,0,0
-385,113,0,0,0,0,0,0,0,0,0,-1,839,911,0,0
-378,113,0,0,0,0,0,0,0,0,0,-1,846,911,0,0
-371,113,0,0,0,0,0,0,0,0,0,-1,853,911,0,0
-364,113,0,0,0,0,0,0,0,0,0,-1,860,911,0,0
-357,113,0,0,0,0,0,0,0,0,0,-1,867,911,0,0
-350,113,0,0,0,0,0,0,0,0,0,-1,874,911,0,0
-343,113,0,0,0,0,0,0,0,0,0,-1,881,911,0,0
-336,113,0,0,0,0,0,0,0,0,0,-1,888,911,0,0
-329,113,0,0,0,0,0,0,0,0,0,-1,895,911,0,0
-322,113,0,0,0,0,0,0,0,0,0,-1,902,911,0,0
-315,113,0,0,0,0,0,0,0,0,0,-1,909,911,0,0
-308,113,0,0,0,0,0,0,0,0,0,-1,916,911,0,0
-301,113,0,0,0,0,0,0,0,0,0,-1,923,911,0,0
-294,113,0,0,0,0,0,0,0,0,0,-1,930,911,0,0
-287,113,0,0,0,0,0,0,0,0,0,-1,937,911,0,0
-280,113,0,0,0,0,0,0,0,0,0,-1,944,911,0,0
-273,113,0,0,0,0,0,0,0,0,0,-1,951,911,0,0
-266,113,0,0,0,0,0,0,0,0,0,-1,958,911,0,0
-259,113,0,0,0,0,0,0,0,0,0,-1,965,911,0,0
-252,113,0,0,0,0,0,0,0,0,0,-1,972,911,0,0
-245,113,0,0,0,0,0,0,0,0,0,-1,979,911,0,0
-238,113,0,0,0,0,0,0,0,0,0,-1,986,911,0,0
-231,113,0,0,0,0,0,0,0,0,0,-1,993,911,0,0
-224,113,0,0,0,0,0,0,0,0,0,-1,1000,911,0,0
-217,113,0,0,0,0,0,0,0,0,0,-1,1007,911,0,0
-210,113,0,0,0,0,0,0,0,0,0,-1,1014,911,0,0
-203,113,0,0,0,0,0,0,0,0,0,-1,1021,911,0,0
-196,113,0,0,0,0,0,0,0,0,0,-1,1028,911,0,0
-189,113,0,0,0,0,0,0,0,0,0,-1,1035,911,0,0
-182,113,0,0,0,0,0,0,0,0,0,-1,1042,911,0,0
-175,113,0,0,0,0,0,0,0,0,0,-1,1049,911,0,0
-168,113,0,0,0,0,0,0,0,0,0,-1,1056,911,0,0
-161,113,0,0,0,0,0,0,0,0,0,-1,1063,911,0,0
-154,113,0,0,0,0,0,0,0,0,0,-1,1070,911,0,0
-147,113,0,0,0,0,0,0,0,0,0,-1,1077,911,0,0
-140,113,0,0,0,0,0,0,0,0,0,-1,1084,911,0,0
-133,113,0,0,0,0,0,0,0,0,0,-1,1091,911,0,0
-126,113,0,0,0,0,0,0,0,0,0,-1,1098,911,0,0
-119,113,0,0,0,0,0,0,0,0,0,-1,1105,911,0,0
-112,113,0,0,0,0,0,0,0,0,0,-1,1112,911,0,0
-105,113,0,0,0,0,0,0,0,0,0,-1,1119,911,0,0
-98,113,0,0,0,0,0,0,0,0,0,-1,1126,911,0,0
-91,113,0,0,0,0,0,0,0,0,0,-1,1133,911,0,0
-84,113,0,0,0,0,0,0,0,0,0,-1,1140,911,0,0
-77,113,0,0,0,0,0,0,0,0,0,-1,1147,911,0,0
-70,113,0,0,0,0,0,0,0,0,0,-1,1154,911,0,0
-63,113,0,0,0,0,0,0,0,0,0,-1,1161,911,0,0
-56,113,0,0,0,0,0,0,0,0,0,-1,1168,911,0,0
-49,113,0,0,0,0,0,0,0,0,0,-1,1175,911,0,0
-42,113,0,0,0,0,0,0,0,0,0,-1,1182,911,0,0
-35,113,0,0,0,0,0,0,0,0,0,-1,1189,911,0,0
-28,113,0,0,0,0,0,0,0,0,0,-1,1196,911,0,0
-21,113,0,0,0,0,0,0,0,0,0,-1,1203,911,0,0
-14,113,0,0,0,0,0,0,0,0,0,-1,1210,911,0,0
-7,113,0,0,0,0,0,0,0,0,0,-1,1217,911,0,0
0,113,0,0,0,0,0,0,0,0,0,-1,1224,911,0,0
7,113,0,0,0,0,0,0,0,0,0,-1,1231,911,0,0
14,113,0,0,0,0,0,0,0,0,0,-1,1238,911,0,0
21,113,0,0,0,0,0,0,0,0,0,-1,1245,911,0,0
28,113,0,0,0,0,0,0,0,0,0,-1,1252,911,0,0
35,113,0,0,0,0,0,0,0,0,0,-1,1259,911,0,0
42,113,0,0,0,0,0,0,0,0,0,-1,1266,911,0,0
49,113,0,0,0,0,0,0,0,0,0,-1,1273,911,0,0
56,113,0,0,0,0,0,0,0,0,0,-1,1280,911,0,0
63,113,0,0,0,0,0,0,0,0,0,-1,1287,911,0,0
70,113,0,0,0,0,0,0,0,0,0,-1,1294,911,0,0
77,113,0,0,0,0,0,0,0,0,0,-1,1301,911,0,0
84,113,0,0,0,0,0,0,0,0,0,-1,1308,911,0,0
91,113,0,0,0,0,0,0,0,0,0,-1,1315,911,0,0
98,113,0,0,0,0,0,0,0,0,0,-1,1322,911,0,0
105,113,0,0,0,0,0,0,0,0,0,-1,1329,911,0,0
112,113,0,0,0,0,0,0,0,0,0,-1,1336,911,0,0
119,113,0,0,0,0,0,0,0,0,0,-1,1343,911,0,0
126,113,0,0,0,0,0,0,0,0,0,-1,1350,911,0,0
133,113,0,0,0,0,0,0,0,0,0,-1,1357,911,0,0
140,113,0,0,0,0,0,0,0,0,0,-1,1364,911,0,0
147,113,0,0,0,0,0,0,0,0,0,-1,1371,911,0,0
154,113,0,0,0,0,0,0,0,0,0,-1,1378,911,0,0
161,113,0,0,0,0,0,0,0,0,0,-1,1385,911,0,0
168,113,0,0,0,0,0,0,0,0,0,-1,1392,911,0,0
175,113,0,0,0,0,0,0,0,0,0,-1,1399,911,0,0
182,113,0,0,0,0,0,0,0,0,0,-1,1406,911,0,0
189,113,0,0,0,0,0,0,0,0,0,-1,1413,911,0,0
196,113,0,0,0,0,0,0,0,0,0,-1,1420,911,0,0
203,113,0,0,0,0,0,0,0,0,0,-1,1427,911,0,0
210,113,0,0,0,0,0,0,0,0,0,-1,1434,911,0,0
217,113,0,0,0,0,0,0,0,0,0,-1,1441,911,0,0
224,113,0,0,0,0,0,0,0,0,0,-1,1448,911,0,0
231,113,0,0,0,0,0,0,0,0,0,-1,1455,911,0,0
238,113,0,0,0,0,0,0,0,0,0,-1,1462,911,0,0
245,113,0,0,0,0,0,0,0,0,0,-1,1469,911,0,0
252,113,0,0,0,0,0,0,0,0,0,-1,1476,911,0,0
259,113,0,0,0,0,0,0,0,0,0,-1,1483,911,0,0
266,113,0,0,0,0,0,0,0,0,0,-1,1490,911,0,0
273,113,0,0,0,0,0,0,0,0,0,-1,1497,911,0,0
280,113,0,0,0,0,0,0,0,0,0,-1,1504,911,0,0
287,113,0,0,0,0,0,0,0,0,0,-1,1511,911,0,0
294,113,0,0,0,0,0,0,0,0,0,-1,1518,911,0,0
301,113,0,0,0,0,0,0,0,0,0,-1,1525,911,0,0
308,113,0,0,0,0,0,0,0,0,0,-1,1532,911,0,0
315,113,0,0,0,0,0,0,0,0,0,-1,1539,911,0,0
322,113,0,0,0,0,0,0,0,0,0,-1,1546,911,0,0
329,113,0,0,0,0,0,0,0,0,0,-1,1553,911,0,0
336,113,0,0,0,0,0,0,0,0,0,-1,1560,911,0,0
343,113,0,0,0,0,0,0,0,0,0,-1,1567,911,0,0
350,113,0,0,0,0,0,0,0,0,0,-1,1574,911,0,0
357,113,0,0,0,0,0,0,0,0,0,-1,1581,911,0,0
364,113,0,0,0,0,0,0,0,0,0,-1,1588,911,0,0
371,113,0,0,0,0,0,0,0,0,0,-1,1595,911,0,0
378,113,0,0,0,0,0,0,0,0,0,-1,1602,911,0,0
385,113,0,0,0,0,0,0,0,0,0,-1,1609,911,0,0
392,113,0,0,0,0,0,0,0,0,0,-1,1616,911,0,0
399,113,0,0,0,0,0,0,0,0,0,-1,1623,911,0,0
406,113,0,0,0,0,0,0,0,0,0,-1,1630,911,0,0
413,113,0,0,0,0,0,0,0,0,0,-1,1637,911,0,0
420,113,0,0,0,0,0,0,0,0,0,-1,1644,911,0,0
427,113,0,0,0,0,0,0,0,0,0,-1,1651,911,0,0
434,113,0,0,0,0,0,0,0,0,0,-1,1658,911,0,0
441,113,0,0,0,0,0,0,0,0,0,-1,1665,911,0,0
448,113,0,0,0,0,0,0,0,0,0,-1,1672,911,0,0
455,113,0,0,0,0,0,0,0,0,0,-1,1679,911,0,0
462,113,0,0,0,0,0,0,0,0,0,-1,1686,911,0,0
469,113,0,0,0,0,0,0,0,0,0,-1,1693,911,0,0
476,113,0,0,0,0,0,0,0,0,0,-1,1700,911,0,0
483,113,0,0,0,0,0,0,0,0,0,-1,1707,911,0,0
490,113,0,0,0,0,0,0,0,0,0,-1,1714,911,0,0
497,113,0,0,0,0,0,0,0,0,0,-1,1721,911,0,0
504,113,0,0,0,0,0,0,0,0,0,-1,1728,911,0,0
511,113,0,0,0,0,0,0,0,0,0,-1,1735,911,0,0
518,113,0,0,0,0,0,0,0,0,0,-1,1742,911,0,0
525,113,0,0,0,0,0,0,0,0,0,-1,1749,911,0,0
532,113,0,0,0,0,0,0,0,0,0,-1,1756,911,0,0
539,113,0,0,0,0,0,0,0,0,0,-1,1763,911,0,0
546,113,0,0,0,0,0,0,0,0,0,-1,1770,911,0,0
553,113,0,0,0,0,0,0,0,0,0,-1,1777,911,0,0
560,113,0,0,0,0,0,0,0,0,0,-1,1784,911,0,0
567,113,0,0,0,0,0,0,0,0,0,-1,1791,911,0,0
574,113,0,0,0,0,0,0,0,0,0,-1,1798,911,0,0
581,113,0,0,0,0,0,0,0,0,0,-1,1805,911,0,0
588,113,0,0,0,0,0,0,0,0,0,-1,1812,911,0,0
595,113,0,0,0,0,0,0,0,0,0,-1,1819,911,0,0
602,113,0,0,0,0,0,0,0,0,0,-1,1826,911,0,0
609,113,0,0,0,0,0,0,0,0,0,-1,1833,911,0,0
616,113,0,0,0,0,0,0,0,0,0,-1,1840,911,0,0
623,113,0,0,0,0,0,0,0,0,0,-1,1847,911,0,0
630,113,45.1927,2.75751,-1.89162e-05,0.00365603,0.00221663,0.00469775,-0.00106064,1.13147,0.00353877,0.0399486,1854,911,45.1927,-2.75751
637,113,45.068,2.84918,0.000411608,0.00270639,0.0014364,0.00339741,-0.000279414,1.1224,0.00236359,0.0407725,1861,911,45.068,-2.84921
644,113,45.1921,3.05823,0.000363269,0.00211865,0.000885404,0.00248766,-5.7494e-06,1.17591,0.00166036,0.0395445,1868,911,45.1922,-3.05824
651,113,45.1951,2.88312,0.000137098,0.00183405,0.000581794,0.00201436,-4.32095e-05,1.27027,0.00135754,0.0412158,1875,911,45.1951,-2.88314
658,113,45.1488,2.82172,-7.50341e-05,0.00179107,0.00057801,0.0019556,-0.000239562,1.29349,0.00139048,0.0403852,1882,911,45.1488,-2.8217
665,113,45.0667,2.88086,-0.000157183,0.00187682,0.000682649,0.00208468,-0.000365049,1.27522,0.0015261,0.0369539,1889,911,45.0667,-2.88088
672,113,45.111,2.85297,-0.000157982,0.00180892,0.000903381,0.00216086,-0.000509924,1.1993,0.00163723,0.0366905,1896,911,45.111,-2.85299
679,113,45.0858,2.75122,-0.000114584,0.00161117,0.00105352,0.00211007,-0.000613492,1.12852,0.00164969,0.0317831,1903,911,45.0858,-2.75124
686,113,45.1385,2.64557,-5.67364e-05,0.00141096,0.00109556,0.00199574,-0.000641516,1.0805,0.00158812,0.026325,1910,911,45.1385,-2.64559
693,113,45.0179,2.71222,0,0,0,0,0,0,0,-1,1917,911,45.0179,-2.71221
700,113,43.897,2.79669,0,0,0,0,0,0,0,-1,1924,911,43.897,-2.79671
707,113,40.6803,3.32166,0,0,0,0,0,0,0,-1,1931,911,40.6803,-3.32164
714,113,40.6044,3.66791,-0.0004489,0.00159957,0.000703249,0.00181776,-0.000667088,1.26996,0.00148502,0.0219187,1938,911,40.6043,-3.66791
721,113,40.6042,4.12207,-0.000527384,0.00168823,0.000401409,0.00175871,-0.000597866,1.39698,0.00141452,0.0209092,1945,911,40.6043,-4.12205
728,113,40.6293,4.63483,-0.000831897,0.00191049,2.357e-05,0.0019107,-0.0008321,1.5622,0.00162386,0.0211845,1952,911,40.6293,-4.6348
735,113,40.589,5.05066,-0.00100271,0.00232087,-0.000282673,0.00234474,-0.00102658,-1.48655,0.00199541,0.0186777,1959,911,40.589,-5.05064
742,113,40.5441,5.43695,-0.00109014,0.00293147,-0.000534702,0.00300135,-0.00116002,-1.44085,0.00247973,0.0128754,1966,911,40.5441,-5.43694
749,113,40.5417,5.85449,-0.00102672,0.00373837,-0.000612796,0.00381592,-0.00110426,-1.44492,0.00298101,0.00975366,1973,911,40.5417,-5.85452
756,113,40.478,6.2868,-0.000440074,0.00439894,-0.000308375,0.00441851,-0.000459646,-1.50741,0.00311023,0.0137084,1980,911,40.478,-6.28679
763,113,40.3531,6.73694,0.000739753,0.00473718,0.000598026,0.00482472,0.000652204,1.42543,0.00302263,0.0298697,1987,911,40.3531,-6.73696
770,113,40.2509,7.17603,0,0,0,0,0,0,0,-1,1994,911,40.2509,-7.17604
777,113,41.6749,6.92761,0,0,0,0,0,0,0,-1,2001,911,41.6749,-6.92759
784,113,42.5828,7.4917,0,0,0,0,0,0,0,-1,2008,911,42.5828,-7.49173
791,113,42.229,7.76093,0,0,0,0,0,0,0,-1,2015,911,42.229,-7.76093
798,113,42.8308,7.89142,0,0,0,0,0,0,0,-1,2022,911,42.8307,-7.89141
805,113,0,0,0,0,0,0,0,0,0,-1,2029,911,0,0
812,113,0,0,0,0,0,0,0,0,0,-1,2036,911,0,0
-700,106,0,0,0,0,0,0,0,0,0,-1,524,918,0,0
-693,106,0,0,0,0,0,0,0,0,0,-1,531,918,0,0
-686,106,0,0,0,0,0,0,0,0,0,-1,538,918,0,0
-679,106,-29.5488,7.67676,0,0,0,0,0,0,0,-1,545,918,-29.5488,-7.67674
-672,106,-29.9048,3.67712,0,0,0,0,0,0,0,-1,552,918,-29.9048,-3.67711
-665,106,-29.7753,3.60522,0,0,0,0,0,0,0,-1,559,918,-29.7753,-3.60523
-658,106,-29.7538,3.31799,-0.0363276,-0.0499671,-0.0183548,-0.0235666,-0.0627281,-0.607526,0.0365873,0.0475993,566,918,-29.7538,-3.31798
-651,106,-29.7908,3.20282,-0.0342185,-0.0424965,-0.0113075,-0.0263163,-0.0503987,-0.609951,0.0291072,0.0487671,573,918,-29.7908,-3.20282
-644,106,-30.131,3.84515,-0.0303761,-0.0341596,-0.00627151,-0.0257172,-0.0388184,-0.638918,0.022803,0.0456548,580,918,-30.131,-3.84516
-637,106,-30.2874,4.23206,-0.0257037,-0.0259374,-0.00277732,-0.0230408,-0.0286003,-0.76438,0.0175104,0.0331082,587,918,-30.2873,-4.23206
-630,106,-30.4597,3.8916,-0.0209683,-0.0187211,-4.47907e-05,-0.0187202,-0.0209692,-1.55087,0.0132934,0.0151867,594,918,-30.4596,-3.89163
-623,106,-30.5512,3.42786,-0.0165662,-0.0124238,0.00181553,-0.0117407,-0.0172492,1.21094,0.0101732,0.0151053,601,918,-30.5512,-3.42788
-616,106,-30.573,3.04138,-0.0124404,-0.00645022,0.00284353,-0.00531539,-0.0135752,1.19107,0.00789888,0.0151264,608,918,-30.573,-3.04136
-609,106,-30.5594,2.69977,-0.00900036,-0.00232669,0.00267337,-0.00138785,-0.00993919,1.23307,0.00621538,0.0125767,615,918,-30.5595,-2.69977
-602,106,-30.5696,2.31458,-0.00717985,0.000160937,0.00214524,0.000741879,-0.00776079,1.30633,0.00543805,0.0179428,622,918,-30.5696,-2.31459
-595,106,-30.673,1.97589,-0.00596606,0.00123986,0.00178119,0.0016561,-0.0063823,1.34123,0.00490107,0.0216071,629,918,-30.673,-1.9759
-588,106,-30.647,1.59369,-0.00566306,0.0010749,0.00124448,0.00129741,-0.00588556,1.39387,0.00442011,0.0255377,636,918,-30.647,-1.59368
-581,106,-30.4948,1.17804,-0.00571187,0.00113842,0.000906154,0.00125626,-0.0058297,1.44148,0.00436589,0.0168557,643,918,-30.4947,-1.17801
-574,106,-30.6557,0.751953,-0.00568392,0.00105192,0.000653456,0.00111473,-0.00574673,1.47498,0.00425172,0.0419586,650,918,-30.6557,-0.751974
-567,106,-31.5134,0.533264,0,0,0,0,0,0,0,-1,657,918,-31.5134,-0.533291
-560,106,-33.5467,0.843384,-0.00585618,0.00122604,0.000175472,0.00123039,-0.00586053,1.54604,0.0043752,0.0484181,664,918,-33.5467,-0.843404
-553,106,-33.6305,0.863708,-0.00598486,0.00151622,-0.000145212,0.00151903,-0.00598767,-1.55145,0.00458282,0.0348671,671,918,-33.6305,-0.863735
-546,106,-33.6898,0.795593,-0.00602054,0.00191052,-0.000457119,0.00193678,-0.0060468,-1.51341,0.00480862,0.0404333,678,918,-33.6898,-0.795586
-539,106,-33.6765,0.858215,-0.00574166,0.00245645,-0.000817211,0.00253712,-0.00582232,-1.4724,0.004949,0.0440853,685,918,-33.6764,-0.858189
-532,106,-33.6925,1.0202,0,0,0,0,0,0,0,-1,692,918,-33.6925,-1.02019
-525,106,-33.8112,0.947693,-0.00469288,0.0044409,-0.00209409,0.00489812,-0.0051501,-1.35583,0.00580195,0.0371787,699,918,-33.8112,-0.94771
-518,106,-33.8649,0.655762,-0.00490991,0.00651135,-0.00322328,0.00735822,-0.00575679,-1.31387,0.00759074,0.0380572,706,918,-33.8649,-0.655788
-511,106,0,0,0,0,0,0,0,0,0,-1,713,918,0,0
-504,106,0,0,0,0,0,0,0,0,0,-1,720,918,0,0
-497,106,0,0,0,0,0,0,0,0,0,-1,727,918,0,0
-490,106,0,0,0,0,0,0,0,0,0,-1,734,918,0,0
-483,106,0,0,0,0,0,0,0,0,0,-1,741,918,0,0
-476,106,0,0,0,0,0,0,0,0,0,-1,748,918,0,0
-469,106,0,0,0,0,0,0,0,0,0,-1,755,918,0,0
-462,106,0,0,0,0,0,0,0,0,0,-1,762,918,0,0
-455,106,0,0,0,0,0,0,0,0,0,-1,769,918,0,0
-448,106,0,0,0,0,0,0,0,0,0,-1,776,918,0,0
-441,106,0,0,0,0,0,0,0,0,0,-1,783,918,0,0
-434,106,0,0,0,0,0,0,0,0,0,-1,790,918,0,0
-427,106,0,0,0,0,0,0,0,0,0,-1,797,918,0,0
-420,106,0,0,0,0,0,0,0,0,0,-1,804,918,0,0
-413,106,0,0,0,0,0,0,0,0,0,-1,811,918,0,0
-406,106,0,0,0,0,0,0,0,0,0,-1,818,918,0,0
-399,106,0,0,0,0,0,0,0,0,0,-1,825,918,0,0
-392,106,0,0,0,0,0,0,0,0,0,-1,832,918,0,0
-385,106,0,0,0,0,0,0,0,0,0,-1,839,918,0,0
-378,106,0,0,0,0,0,0,0,0,0,-1,846,918,0,0
-371,106,0,0,0,0,0,0,0,0,0,-1,853,918,0,0
-364,106,0,0,0,0,0,0,0,0,0,-1,860,918,0,0
-357,106,0,0,0,0,0,0,0,0,0,-1,867,918,0,0
-350,106,0,0,0,0,0,0,0,0,0,-1,874,918,0,0
-343,106,0,0,0,0,0,0,0,0,0,-1,881,918,0,0
-336,106,0,0,0,0,0,0,0,0,0,-1,888,918,0,0
-329,106,0,0,0,0,0,0,0,0,0,-1,895,918,0,0
-322,106,0,0,0,0,0,0,0,0,0,-1,902,918,0,0
-315,106,0,0,0,0,0,0,0,0,0,-1,909,918,0,0
-308,106,0,0,0,0,0,0,0,0,0,-1,916,918,0,0
-301,106,0,0,0,0,0,0,0,0,0,-1,923,918,0,0
-294,106,0,0,0,0,0,0,0,0,0,-1,930,918,0,0
-287,106,0,0,0,0,0,0,0,0,0,-1,937,918,0,0
-280,106,0,0,0,0,0,0,0,0,0,-1,944,918,0,0
-273,106,0,0,0,0,0,0,0,0,0,-1,951,918,0,0
-266,106,0,0,0,0,0,0,0,0,0,-1,958,918,0,0
-259,106,0,0,0,0,0,0,0,0,0,-1,965,918,0,0
-252,106,0,0,0,0,0,0,0,0,0,-1,972,918,0,0
-245,106,0,0,0,0,0,0,0,0,0,-1,979,918,0,0
-238,106,0,0,0,0,0,0,0,0,0,-1,986,918,0,0
-231,106,0,0,0,0,0,0,0,0,0,-1,993,918,0,0
-224,106,0,0,0,0,0,0,0,0,0,-1,1000,918,0,0
-217,106,0,0,0,0,0,0,0,0,0,-1,1007,918,0,0
-210,106,0,0,0,0,0,0,0,0,0,-1,1014,918,0,0
-203,106,0,0,0,0,0,0,0,0,0,-1,1021,918,0,0
-196,106,0,0,0,0,0,0,0,0,0,-1,1028,918,0,0
-189,106,0,0,0,0,0,0,0,0,0,-1,1035,918,0,0
-182,106,0,0,0,0,0,0,0,0,0,-1,1042,918,0,0
-175,106,0,0,0,0,0,0,0,0,0,-1,1049,918,0,0
-168,106,0,0,0,0,0,0,0,0,0,-1,1056,918,0,0
-161,106,0,0,0,0,0,0,0,0,0,-1,1063,918,0,0
-154,106,0,0,0,0,0,0,0,0,0,-1,1070,918,0,0
-147,106,0,0,0,0,0,0,0,0,0,-1,1077,918,0,0
-140,106,0,0,0,0,0,0,0,0,0,-1,1084,918,0,0
-133,106,0,0,0,0,0,0,0,0,0,-1,1091,918,0,0
-126,106,0,0,0,0,0,0,0,0,0,-1,1098,918,0,0
-119,106,0,0,0,0,0,0,0,0,0,-1,1105,918,0,0
-112,106,0,0,0,0,0,0,0,0,0,-1,1112,918,0,0
-105,106,0,0,0,0,0,0,0,0,0,-1,1119,918,0,0
-98,106,0,0,0,0,0,0,0,0,0,-1,1126,918,0,0
-91,106,0,0,0,0,0,0,0,0,0,-1,1133,918,0,0
-84,106,0,0,0,0,0,0,0,0,0,-1,1140,918,0,0
-77,106,0,0,0,0,0,0,0,0,0,-1,1147,918,0,0
-70,106,0,0,0,0,0,0,0,0,0,-1,1154,918,0,0
-63,106,0,0,0,0,0,0,0,0,0,-1,1161,918,0,0
-56,106,0,0,0,0,0,0,0,0,0,-1,1168,918,0,0
-49,106,0,0,0,0,0,0,0,0,0,-1,1175,918,0,0
-42,106,0,0,0,0,0,0,0,0,0,-1,1182,918,0,0
-35,106,0,0,0,0,0,0,0,0,0,-1,1189,918,0,0
-28,106,0,0,0,0,0,0,0,0,0,-1,1196,918,0,0
-21,106,0,0,0,0,0,0,0,0,0,-1,1203,918,0,0
-14,106,0,0,0,0,0,0,0,0,0,-1,1210,918,0,0
-7,106,0,0,0,0,0,0,0,0,0,-1,1217,918,0,0
0,106,0,0,0,0,0,0,0,0,0,-1,1224,918,0,0
7,106,0,0,0,0,0,0,0,0,0,-1,1231,918,0,0
14,106,0,0,0,0,0,0,0,0,0,-1,1238,918,0,0
21,106,0,0,0,0,0,0,0,0,0,-1,1245,918,0,0
28,106,0,0,0,0,0,0,0,0,0,-1,1252,918,0,0
35,106,0,0,0,0,0,0,0,0,0,-1,1259,918,0,0
42,106,0,0,0,0,0,0,0,0,0,-1,1266,918,0,0
49,106,0,0,0,0,0,0,0,0,0,-1,1273,918,0,0
56,106,0,0,0,0,0,0,0,0,0,-1,1280,918,0,0
63,106,0,0,0,0,0,0,0,0,0,-1,1287,918,0,0
70,106,0,0,0,0,0,0,0,0,0,-1,1294,918,0,0
77,106,0,0,0,0,0,0,0,0,0,-1,1301,918,0,0
84,106,0,0,0,0,0,0,0,0,0,-1,1308,918,0,0
91,106,0,0,0,0,0,0,0,0,0,-1,1315,918,0,0
98,106,0,0,0,0,0,0,0,0,0,-1,1322,918,0,0
105,106,0,0,0,0,0,0,0,0,0,-1,1329,918,0,0
112,106,0,0,0,0,0,0,0,0,0,-1,1336,918,0,0
119,106,0,0,0,0,0,0,0,0,0,-1,1343,918,0,0
126,106,0,0,0,0,0,0,0,0,0,-1,1350,918,0,0
133,106,0,0,0,0,0,0,0,0,0,-1,1357,918,0,0
140,106,0,0,0,0,0,0,0,0,0,-1,1364,918,0,0
147,106,0,0,0,0,0,0,0,0,0,-1,1371,918,0,0
154,106,0,0,0,0,0,0,0,0,0,-1,1378,918,0,0
161,106,0,0,0,0,0,0,0,0,0,-1,1385,918,0,0
168,106,0,0,0,0,0,0,0,0,0,-1,1392,918,0,0
175,106,0,0,0,0,0,0,0,0,0,-1,1399,918,0,0
182,106,0,0,0,0,0,0,0,0,0,-1,1406,918,0,0
189,106,0,0,0,0,0,0,0,0,0,-1,1413,918,0,0
196,106,0,0,0,0,0,0,0,0,0,-1,1420,918,0,0
203,106,0,0,0,0,0,0,0,0,0,-1,1427,918,0,0
210,106,0,0,0,0,0,0,0,0,0,-1,1434,918,0,0
217,106,0,0,0,0,0,0,0,0,0,-1,1441,918,0,0
224,106,0,0,0,0,0,0,0,0,0,-1,1448,918,0,0
231,106,0,0,0,0,0,0,0,0,0,-1,1455,918,0,0
238,106,0,0,0,0,0,0,0,0,0,-1,1462,918,0,0
245,106,0,0,0,0,0,0,0,0,0,-1,1469,918,0,0
252,106,0,0,0,0,0,0,0,0,0,-1,1476,918,0,0
259,106,0,0,0,0,0,0,0,0,0,-1,1483,918,0,0
266,106,0,0,0,0,0,0,0,0,0,-1,1490,918,0,0
273,106,0,0,0,0,0,0,0,0,0,-1,1497,918,0,0
280,106,0,0,0,0,0,0,0,0,0,-1,1504,918,0,0
287,106,0,0,0,0,0,0,0,0,0,-1,1511,918,0,0
294,106,0,0,0,0,0,0,0,0,0,-1,1518,918,0,0
301,106,0,0,0,0,0,0,0,0,0,-1,1525,918,0,0
308,106,0,0,0,0,0,0,0,0,0,-1,1532,918,0,0
315,106,0,0,0,0,0,0,0,0,0,-1,1539,918,0,0
322,106,0,0,0,0,0,0,0,0,0,-1,1546,918,0,0
329,106,0,0,0,0,0,0,0,0,0,-1,1553,918,0,0
336,106,0,0,0,0,0,0,0,0,0,-1,1560,918,0,0
343,106,0,0,0,0,0,0,0,0,0,-1,1567,918,0,0
350,106,0,0,0,0,0,0,0,0,0,-1,1574,918,0,0
357,106,0,0,0,0,0,0,0,0,0,-1,1581,918,0,0
364,106,0,0,0,0,0,0,0,0,0,-1,1588,918,0,0
371,106,0,0,0,0,0,0,0,0,0,-1,1595,918,0,0
378,106,0,0,0,0,0,0,0,0,0,-1,1602,918,0,0
385,106,0,0,0,0,0,0,0,0,0,-1,1609,918,0,0
392,106,0,0,0,0,0,0,0,0,0,-1,1616,918,0,0
399,106,0,0,0,0,0,0,0,0,0,-1,1623,918,0,0
406,106,0,0,0,0,0,0,0,0,0,-1,1630,918,0,0
413,106,0,0,0,0,0,0,0,0,0,-1,1637,918,0,0
420,106,0,0,0,0,0,0,0,0,0,-1,1644,918,0,0
427,106,0,0,0,0,0,0,0,0,0,-1,1651,918,0,0
434,106,0,0,0,0,0,0,0,0,0,-1,1658,918,0,0
441,106,0,0,0,0,0,0,0,0,0,-1,1665,918,0,0
448,106,0,0,0,0,0,0,0,0,0,-1,1672,918,0,0
455,106,0,0,0,0,0,0,0,0,0,-1,1679,918,0,0
462,106,0,0,0,0,0,0,0,0,0,-1,1686,918,0,0
469,106,0,0,0,0,0,0,0,0,0,-1,1693,918,0,0
476,106,0,0,0,0,0,0,0,0,0,-1,1700,918,0,0
483,106,0,0,0,0,0,0,0,0,0,-1,1707,918,0,0
490,106,0,0,0,0,0,0,0,0,0,-1,1714,918,0,0
497,106,0,0,0,0,0,0,0,0,0,-1,1721,918,0,0
504,106,0,0,0,0,0,0,0,0,0,-1,1728,918,0,0
511,106,0,0,0,0,0,0,0,0,0,-1,1735,918,0,0
518,106,0,0,0,0,0,0,0,0,0,-1,1742,918,0,0
525,106,0,0,0,0,0,0,0,0,0,-1,1749,918,0,0
532,106,0,0,0,0,0,0,0,0,0,-1,1756,918,0,0
539,106,0,0,0,0,0,0,0,0,0,-1,1763,918,0,0
546,106,0,0,0,0,0,0,0,0,0,-1,1770,918,0,0
553,106,0,0,0,0,0,0,0,0,0,-1,1777,918,0,0
560,106,0,0,0,0,0,0,0,0,0,-1,1784,918,0,0
567,106,0,0,0,0,0,0,0,0,0,-1,1791,918,0,0
574,106,0,0,0,0,0,0,0,0,0,-1,1798,918,0,0
581,106,0,0,0,0,0,0,0,0,0,-1,1805,918,0,0
588,106,0,0,0,0,0,0,0,0,0,-1,1812,918,0,0
595,106,0,0,0,0,0,0,0,0,0,-1,1819,918,0,0
602,106,0,0,0,0,0,0,0,0,0,-1,1826,918,0,0
609,106,0,0,0,0,0,0,0,0,0,-1,1833,918,0,0
616,106,0,0,0,0,0,0,0,0,0,-1,1840,918,0,0
623,106,0,0,0,0,0,0,0,0,0,-1,1847,918,0,0
630,106,45.2632,2.68945,-0.000692336,0.00380024,0.00245667,0.00488277,-0.00177487,1.15574,0.00398095,0.0416672,1854,918,45.2632,-2.68947
637,106,45.1744,2.89539,3.03198e-06,0.00284001,0.00137773,0.00339896,-0.000555915,1.18538,0.0024722,0.0396084,1861,918,45.1745,-2.89538
644,106,45.174,2.9903,0.000112621,0.00222122,0.000681693,0.00242241,-8.85694e-05,1.28381,0.00164526,0.0385735,1868,918,45.174,-2.99032
651,106,45.2417,2.72675,2.14519e-05,0.00190266,0.000327486,0.00195804,-3.39275e-05,1.40328,0.00131681,0.0406224,1875,918,45.2417,-2.72673
658,106,45.1788,2.76379,-0.000130657,0.00183385,0.000362169,0.00189849,-0.000195298,1.39417,0.00133553,0.0394843,1882,918,45.1789,-2.76377
665,106,45.0898,2.73083,-0.000202248,0.0019018,0.000584751,0.00205339,-0.000353839,1.31714,0.00150084,0.0377182,1889,918,45.0898,-2.73082
672,106,45.1058,2.68475,-0.000243158,0.00182986,0.000922879,0.00218118,-0.000594473,1.20706,0.00168755,0.0384231,1896,918,45.1058,-2.68473
679,106,45.0822,2.70374,-0.000245527,0.00160967,0.00119664,0.00219613,-0.000831988,1.11511,0.00180645,0.0345578,1903,918,45.0821,-2.70376
686,106,45.1407,2.65643,-0.000204598,0.00138512,0.00130526,0.00211849,-0.00093797,1.05889,0.00180799,0.0278189,1910,918,45.1408,-2.65643
693,106,45.0558,2.74341,-0.000317231,0.00135396,0.00107969,0.00188363,-0.000846905,1.11471,0.00161391,0.0303143,1917,918,45.0558,-2.74341
700,106,45.0195,2.8028,0,0,0,0,0,0,0,-1,1924,918,45.0195,-2.80283
707,106,40.8928,3.1933,0,0,0,0,0,0,0,-1,1931,918,40.8928,-3.19332
714,106,41.0392,3.67102,-0.000761922,0.00152243,0.000996177,0.00189582,-0.00113531,1.21218,0.00176829,0.031153,1938,918,41.0392,-3.67105
721,106,41.0719,4.17303,-0.000902121,0.00168654,0.000687462,0.00185778,-0.00107336,1.32667,0.00171237,0.0246794,1945,918,41.0719,-4.17303
728,106,41.1387,4.67139,-0.0012325,0.00194683,0.000267133,0.00196912,-0.00125479,1.48755,0.00187649,0.02395,1952,918,41.1387,-4.67139
735,106,41.0811,5.06543,-0.0014351,0.00244098,-8.78784e-05,0.00244297,-0.00143709,-1.54814,0.00226511,0.0211493,1959,918,41.0811,-5.06543
742,106,41.0115,5.42389,-0.0015962,0.00312348,-0.000404133,0.00315783,-0.00163056,-1.48599,0.00281106,0.0127591,1966,918,41.0115,-5.42391
749,106,40.9818,5.83228,-0.0015958,0.00395798,-0.000630117,0.00402858,-0.00166639,-1.45923,0.00338096,0.0101571,1973,918,40.9818,-5.83227
756,106,40.9236,6.23999,-0.000992301,0.00452463,-0.00055787,0.00458047,-0.00104815,-1.47102,0.00345642,0.0124344,1980,918,40.9235,-6.23999
763,106,40.8324,6.72882,0.000148816,0.00476147,9.90759e-05,0.0047636,0.000146689,1.54933,0.00312798,0.0233786,1987,918,40.8324,-6.72884
770,106,40.7101,7.17413,0.00220414,0.00400236,0.000959578,0.00441824,0.00178826,1.16184,0.00256626,0.046544,1994,918,40.71,-7.17414
777,106,40.6448,7.59998,0,0,0,0,0,0,0,-1,2001,918,40.6448,-7.59999
784,106,41.1948,8.23419,0,0,0,0,0,0,0,-1,2008,918,41.1949,-8.23417
791,106,41.2222,9.30646,0,0,0,0,0,0,0,-1,2015,918,41.2222,-9.30647
798,106,42.5476,8.06757,0,0,0,0,0,0,0,-1,2022,918,42.5476,-8.06759
805,106,0,0,0,0,0,0,0,0,0,-1,2029,918,0,0
812,106,0,0,0,0,0,0,0,0,0,-1,2036,918,0,0
-700,99,0,0,0,0,0,0,0,0,0,-1,524,925,0,0
-693,99,0,0,0,0,0,0,0,0,0,-1,531,925,0,0
-686,99,0,0,0,0,0,0,0,0,0,-1,538,925,0,0
-679,99,-30.0079,7.35645,0,0,0,0,0,0,0,-1,545,925,-30.0079,-7.35644
-672,99,-29.8383,5.823,0,0,0,0,0,0,0,-1,552,925,-29.8383,-5.82299
-665,99,-30.0091,4.16467,0,0,0,0,0,0,0,-1,559,925,-30.0091,-4.16464
-658,99,-30.136,3.94427,-0.0282627,-0.0363005,-0.0222739,-0.00964809,-0.0549151,-0.696143,0.0338554,0.0483909,566,925,-30.136,-3.94428
-651,99,-30.2343,3.81329,-0.027722,-0.0312926,-0.0137219,-0.0156697,-0.0433449,-0.720708,0.0253431,0.046729,573,925,-30.2343,-3.81328
-644,99,-30.5335,4.01898,-0.0253678,-0.0253532,-0.00753163,-0.0178288,-0.0328921,-0.785883,0.0190126,0.0429372,580,925,-30.5335,-4.019
-637,99,-30.7107,4.21796,-0.0219383,-0.0193074,-0.00328307,-0.017086,-0.0241596,-0.975942,0.0143423,0.0290473,587,925,-30.7107,-4.21797
-630,99,-30.8391,3.85034,-0.0183484,-0.0141148,1.0722e-05,-0.0141148,-0.0183484,1.56826,0.0110937,0.01566,594,925,-30.8391,-3.85034
-623,99,-30.9676,3.43005,-0.0149926,-0.0093955,0.00214526,-0.00866785,-0.0157202,1.24379,0.00909202,0.0110172,601,925,-30.9676,-3.43006
-616,99,-30.9758,3.05884,-0.0117093,-0.00474799,0.00316388,-0.00352491,-0.0129324,1.20192,0.00771968,0.0125766,608,925,-30.9759,-3.05883
-609,99,-30.9789,2.71771,-0.00892031,-0.00155807,0.00271312,-0.000666265,-0.00981212,1.25322,0.00633102,0.0118078,615,925,-30.9789,-2.71772
-602,99,-30.9761,2.38641,-0.00755828,0.000462339,0.00209443,0.00097632,-0.00807227,1.33015,0.00573472,0.0148208,622,925,-30.9761,-2.3864
-595,99,-31.0562,2.0531,-0.00652916,0.00144077,0.0017181,0.00179537,-0.00688375,1.36726,0.00529017,0.019374,629,925,-31.0562,-2.05312
-588,99,-31.0396,1.6662,-0.00628964,0.00129665,0.0011588,0.00146971,-0.0064627,1.42255,0.00487282,0.0210258,636,925,-31.0396,-1.66618
-581,99,-30.4114,1.16754,0,0,0,0,0,0,0,-1,643,925,-30.4114,-1.16756
-574,99,-31.3421,0.803528,0,0,0,0,0,0,0,-1,650,925,-31.3421,-0.80354
-567,99,-32.2728,0.439514,0,0,0,0,0,0,0,-1,657,925,-32.2728,-0.439517
-560,99,-33.5458,0.75946,-0.00659536,0.00175303,-0.000104717,0.00175435,-0.00659667,-1.55826,0.00508447,0.0415543,664,925,-33.5458,-0.759448
-553,99,-33.6635,0.78833,-0.0066328,0.00212642,-0.000457014,0.0021502,-0.00665658,-1.51881,0.00530184,0.0386054,671,925,-33.6635,-0.788301
-546,99,-33.7444,0.792786,-0.00644461,0.0026046,-0.000836449,0.00268127,-0.00652128,-1.47939,0.0054651,0.0423997,678,925,-33.7444,-0.792812
-539,99,-33.7441,0.848267,-0.00578014,0.00321837,-0.00132771,0.00341018,-0.00597195,-1.42732,0.00548367,0.0411918,685,925,-33.7441,-0.848253
-532,99,-33.7119,0.915833,-0.00457643,0.00399694,-0.0020482,0.00446113,-0.00504062,-1.34793,0.00548924,0.0429107,692,925,-33.7119,-0.915857
-525,99,-33.7591,0.930054,-0.00336143,0.00530841,-0.00335121,0.00645274,-0.00450576,-1.24174,0.00636009,0.0411845,699,925,-33.7591,-0.930044
-518,99,-33.9319,0.771973,-0.00327732,0.00759058,-0.00494057,0.00950082,-0.00518755,-1.20186,0.00860135,0.0401735,706,925,-33.9319,-0.771959
-511,99,0,0,0,0,0,0,0,0,0,-1,713,925,0,0
-504,99,0,0,0,0,0,0,0,0,0,-1,720,925,0,0
-497,99,0,0,0,0,0,0,0,0,0,-1,727,925,0,0
-490,99,0,0,0,0,0,0,0,0,0,-1,734,925,0,0
-483,99,0,0,0,0,0,0,0,0,0,-1,741,925,0,0
-476,99,0,0,0,0,0,0,0,0,0,-1,748,925,0,0
-469,99,0,0,0,0,0,0,0,0,0,-1,755,925,0,0
-462,99,0,0,0,0,0,0,0,0,0,-1,762,925,0,0
-455,99,0,0,0,0,0,0,0,0,0,-1,769,925,0,0
-448,99,0,0,0,0,0,0,0,0,0,-1,776,925,0,0
-441,99,0,0,0,0,0,0,0,0,0,-1,783,925,0,0
-434,99,0,0,0,0,0,0,0,0,0,-1,790,925,0,0
-427,99,0,0,0,0,0,0,0,0,0,-1,797,925,0,0
-420,99,0,0,0,0,0,0,0,0,0,-1,804,925,0,0
-413,99,0,0,0,0,0,0,0,0,0,-1,811,925,0,0
-406,99,0,0,0,0,0,0,0,0,0,-1,818,925,0,0
-399,99,0,0,0,0,0,0,0,0,0,-1,825,925,0,0
-392,99,0,0,0,0,0,0,0,0,0,-1,832,925,0,0
-385,99,0,0,0,0,0,0,0,0,0,-1,839,925,0,0
-378,99,0,0,0,0,0,0,0,0,0,-1,846,925,0,0
-371,99,0,0,0,0,0,0,0,0,0,-1,853,925,0,0
-364,99,0,0,0,0,0,0,0,0,0,-1,860,925,0,0
-357,99,0,0,0,0,0,0,0,0,0,-1,867,925,0,0
-350,99,0,0,0,0,0,0,0,0,0,-1,874,925,0,0
-343,99,0,0,0,0,0,0,0,0,0,-1,881,925,0,0
-336,99,0,0,0,0,0,0,0,0,0,-1,888,925,0,0
-329,99,0,0,0,0,0,0,0,0,0,-1,895,925,0,0
-322,99,0,0,0,0,0,0,0,0,0,-1,902,925,0,0
-315,99,0,0,0,0,0,0,0,0,0,-1,909,925,0,0
-308,99,0,0,0,0,0,0,0,0,0,-1,916,925,0,0
-301,99,0,0,0,0,0,0,0,0,0,-1,923,925,0,0
-294,99,0,0,0,0,0,0,0,0,0,-1,930,925,0,0
-287,99,0,0,0,0,0,0,0,0,0,-1,937,925,0,0
-280,99,0,0,0,0,0,0,0,0,0,-1,944,925,0,0
-273,99,0,0,0,0,0,0,0,0,0,-1,951,925,0,0
-266,99,0,0,0,0,0,0,0,0,0,-1,958,925,0,0
-259,99,0,0,0,0,0,0,0,0,0,-1,965,925,0,0
-252,99,0,0,0,0,0,0,0,0,0,-1,972,925,0,0
-245,99,0,0,0,0,0,0,0,0,0,-1,979,925,0,0
-238,99,0,0,0,0,0,0,0,0,0,-1,986,925,0,0
-231,99,0,0,0,0,0,0,0,0,0,-1,993,925,0,0
-224,99,0,0,0,0,0,0,0,0,0,-1,1000,925,0,0
-217,99,0,0,0,0,0,0,0,0,0,-1,1007,925,0,0
-210,99,0,0,0,0,0,0,0,0,0,-1,1014,925,0,0
-203,99,0,0,0,0,0,0,0,0,0,-1,1021,925,0,0
-196,99,0,0,0,0,0,0,0,0,0,-1,1028,925,0,0
-189,99,0,0,0,0,0,0,0,0,0,-1,1035,925,0,0
-182,99,0,0,0,0,0,0,0,0,0,-1,1042,925,0,0
-175,99,0,0,0,0,0,0,0,0,0,-1,1049,925,0,0
-168,99,0,0,0,0,0,0,0,0,0,-1,1056,925,0,0
-161,99,0,0,0,0,0,0,0,0,0,-1,1063,925,0,0
-154,99,0,0,0,0,0,0,0,0,0,-1,1070,925,0,0
-147,99,0,0,0,0,0,0,0,0,0,-1,1077,925,0,0
-140,99,0,0,0,0,0,0,0,0,0,-1,1084,925,0,0
-133,99,0,0,0,0,0,0,0,0,0,-1,1091,925,0,0
-126,99,0,0,0,0,0,0,0,0,0,-1,1098,925,0,0
-119,99,0,0,0,0,0,0,0,0,0,-1,1105,925,0,0
-112,99,0,0,0,0,0,0,0,0,0,-1,1112,925,0,0
-105,99,0,0,0,0,0,0,0,0,0,-1,1119,925,0,0
-98,99,0,0,0,0,0,0,0,0,0,-1,1126,925,0,0
-91,99,0,0,0,0,0,0,0,0,0,-1,1133,925,0,0
-84,99,0,0,0,0,0,0,0,0,0,-1,1140,925,0,0
-77,99,0,0,0,0,0,0,0,0,0,-1,1147,925,0,0
-70,99,0,0,0,0,0,0,0,0,0,-1,1154,925,0,0
-63,99,0,0,0,0,0,0,0,0,0,-1,1161,925,0,0
-56,99,0,0,0,0,0,0,0,0,0,-1,1168,925,0,0
-49,99,0,0,0,0,0,0,0,0,0,-1,1175,925,0,0
-42,99,0,0,0,0,0,0,0,0,0,-1,1182,925,0,0
-35,99,0,0,0,0,0,0,0,0,0,-1,1189,925,0,0
-28,99,0,0,0,0,0,0,0,0,0,-1,1196,925,0,0
-21,99,0,0,0,0,0,0,0,0,0,-1,1203,925,0,0
-14,99,0,0,0,0,0,0,0,0,0,-1,1210,925,0,0
-7,99,0,0,0,0,0,0,0,0,0,-1,1217,925,0,0
0,99,0,0,0,0,0,0,0,0,0,-1,1224,925,0,0
7,99,0,0,0,0,0,0,0,0,0,-1,1231,925,0,0
14,99,0,0,0,0,0,0,0,0,0,-1,1238,925,0,0
21,99,0,0,0,0,0,0,0,0,0,-1,1245,925,0,0
28,99,0,0,0,0,0,0,0,0,0,-1,1252,925,0,0
35,99,0,0,0,0,0,0,0,0,0,-1,1259,925,0,0
42,99,0,0,0,0,0,0,0,0,0,-1,1266,925,0,0
49,99,0,0,0,0,0,0,0,0,0,-1,1273,925,0,0
56,99,0,0,0,0,0,0,0,0,0,-1,1280,925,0,0
63,99,0,0,0,0,0,0,0,0,0,-1,1287,925,0,0
70,99,0,0,0,0,0,0,0,0,0,-1,1294,925,0,0
77,99,0,0,0,0,0,0,0,0,0,-1,1301,925,0,0
84,99,0,0,0,0,0,0,0,0,0,-1,1308,925,0,0
91,99,0,0,0,0,0,0,0,0,0,-1,1315,925,0,0
98,99,0,0,0,0,0,0,0,0,0,-1,1322,925,0,0
105,99,0,0,0,0,0,0,0,0,0,-1,1329,925,0,0
112,99,0,0,0,0,0,0,0,0,0,-1,1336,925,0,0
119,99,0,0,0,0,0,0,0,0,0,-1,1343,925,0,0
126,99,0,0,0,0,0,0,0,0,0,-1,1350,925,0,0
133,99,0,0,0,0,0,0,0,0,0,-1,1357,925,0,0
140,99,0,0,0,0,0,0,0,0,0,-1,1364,925,0,0
147,99,0,0,0,0,0,0,0,0,0,-1,1371,925,0,0
154,99,0,0,0,0,0,0,0,0,0,-1,1378,925,0,0
161,99,0,0,0,0,0,0,0,0,0,-1,1385,925,0,0
168,99,0,0,0,0,0,0,0,0,0,-1,1392,925,0,0
175,99,0,0,0,0,0,0,0,0,0,-1,1399,925,0,0
182,99,0,0,0,0,0,0,0,0,0,-1,1406,925,0,0
189,99,0,0,0,0,0,0,0,0,0,-1,1413,925,0,0
196,99,0,0,0,0,0,0,0,0,0,-1,1420,925,0,0
203,99,0,0,0,0,0,0,0,0,0,-1,1427,925,0,0
210,99,0,0,0,0,0,0,0,0,0,-1,1434,925,0,0
217,99,0,0,0,0,0,0,0,0,0,-1,1441,925,0,0
224,99,0,0,0,0,0,0,0,0,0,-1,1448,925,0,0
231,99,0,0,0,0,0,0,0,0,0,-1,1455,925,0,0
238,99,0,0,0,0,0,0,0,0,0,-1,1462,925,0,0
245,99,0,0,0,0,0,0,0,0,0,-1,1469,925,0,0
252,99,0,0,0,0,0,0,0,0,0,-1,1476,925,0,0
259,99,0,0,0,0,0,0,0,0,0,-1,1483,925,0,0
266,99,0,0,0,0,0,0,0,0,0,-1,1490,925,0,0
273,99,0,0,0,0,0,0,0,0,0,-1,1497,925,0,0
280,99,0,0,0,0,0,0,0,0,0,-1,1504,925,0,0
287,99,0,0,0,0,0,0,0,0,0,-1,1511,925,0,0
294,99,0,0,0,0,0,0,0,0,0,-1,1518,925,0,0
301,99,0,0,0,0,0,0,0,0,0,-1,1525,925,0,0
308,99,0,0,0,0,0,0,0,0,0,-1,1532,925,0,0
315,99,0,0,0,0,0,0,0,0,0,-1,1539,925,0,0
322,99,0,0,0,0,0,0,0,0,0,-1,1546,925,0,0
329,99,0,0,0,0,0,0,0,0,0,-1,1553,925,0,0
336,99,0,0,0,0,0,0,0,0,0,-1,1560,925,0,0
343,99,0,0,0,0,0,0,0,0,0,-1,1567,925,0,0
350,99,0,0,0,0,0,0,0,0,0,-1,1574,925,0,0
357,99,0,0,0,0,0,0,0,0,0,-1,1581,925,0,0
364,99,0,0,0,0,0,0,0,0,0,-1,1588,925,0,0
371,99,0,0,0,0,0,0,0,0,0,-1,1595,925,0,0
378,99,0,0,0,0,0,0,0,0,0,-1,1602,925,0,0
385,99,0,0,0,0,0,0,0,0,0,-1,1609,925,0,0
392,99,0,0,0,0,0,0,0,0,0,-1,1616,925,0,0
399,99,0,0,0,0,0,0,0,0,0,-1,1623,925,0,0
406,99,0,0,0,0,0,0,0,0,0,-1,1630,925,0,0
413,99,0,0,0,0,0,0,0,0,0,-1,1637,925,0,0
420,99,0,0,0,0,0,0,0,0,0,-1,1644,925,0,0
427,99,0,0,0,0,0,0,0,0,0,-1,1651,925,0,0
434,99,0,0,0,0,0,0,0,0,0,-1,1658,925,0,0
441,99,0,0,0,0,0,0,0,0,0,-1,1665,925,0,0
448,99,0,0,0,0,0,0,0,0,0,-1,1672,925,0,0
455,99,0,0,0,0,0,0,0,0,0,-1,1679,925,0,0
462,99,0,0,0,0,0,0,0,0,0,-1,1686,925,0,0
469,99,0,0,0,0,0,0,0,0,0,-1,1693,925,0,0
476,99,0,0,0,0,0,0,0,0,0,-1,1700,925,0,0
483,99,0,0,0,0,0,0,0,0,0,-1,1707,925,0,0
490,99,0,0,0,0,0,0,0,0,0,-1,1714,925,0,0
497,99,0,0,0,0,0,0,0,0,0,-1,1721,925,0,0
504,99,0,0,0,0,0,0,0,0,0,-1,1728,925,0,0
511,99,0,0,0,0,0,0,0,0,0,-1,1735,925,0,0
518,99,0,0,0,0,0,0,0,0,0,-1,1742,925,0,0
525,99,0,0,0,0,0,0,0,0,0,-1,1749,925,0,0
532,99,0,0,0,0,0,0,0,0,0,-1,1756,925,0,0
539,99,0,0,0,0,0,0,0,0,0,-1,1763,925,0,0
546,99,0,0,0,0,0,0,0,0,0,-1,1770,925,0,0
553,99,0,0,0,0,0,0,0,0,0,-1,1777,925,0,0
560,99,0,0,0,0,0,0,0,0,0,-1,1784,925,0,0
567,99,0,0,0,0,0,0,0,0,0,-1,1791,925,0,0
574,99,0,0,0,0,0,0,0,0,0,-1,1798,925,0,0
581,99,0,0,0,0,0,0,0,0,0,-1,1805,925,0,0
588,99,0,0,0,0,0,0,0,0,0,-1,1812,925,0,0
595,99,0,0,0,0,0,0,0,0,0,-1,1819,925,0,0
602,99,0,0,0,0,0,0,0,0,0,-1,1826,925,0,0
609,99,0,0,0,0,0,0,0,0,0,-1,1833,925,0,0
616,99,0,0,0,0,0,0,0,0,0,-1,1840,925,0,0
623,99,0,0,0,0,0,0,0,0,0,-1,1847,925,0,0
630,99,0,0,0,0,0,0,0,0,0,-1,1854,925,0,0
637,99,45.0872,2.81458,-0.000100836,0.00280884,0.00145037,0.0034083,-0.000700295,1.17887,0.00253804,0.0439124,1861,925,45.0872,-2.8146
644,99,45.1362,2.91833,-6.6382e-05,0.00226199,0.000600921,0.00240793,-0.000212324,1.33255,0.00168054,0.0387982,1868,925,45.1363,-2.91835
651,99,45.1754,2.73279,-0.000134784,0.00198307,0.000174362,0.00199733,-0.000149043,1.4892,0.00138391,0.0378335,1875,925,45.1754,-2.73279
658,99,45.1619,2.5885,-0.000267854,0.00195236,0.000211978,0.00197242,-0.000287911,1.47646,0.00142068,0.0372015,1882,925,45.1619,-2.58851
665,99,45.1304,2.56726,-0.000347644,0.00206911,0.000528112,0.00217948,-0.000458008,1.36478,0.00162728,0.0369433,1889,925,45.1303,-2.56727
672,99,45.1749,2.68274,-0.000449075,0.00203678,0.000978136,0.0023755,-0.000787797,1.23743,0.00190147,0.0371163,1896,925,45.175,-2.68271
679,99,45.14,2.69629,-0.000498118,0.00183396,0.00136285,0.00246152,-0.00112568,1.13926,0.0021184,0.0348197,1903,925,45.14,-2.69628
686,99,45.0768,2.64349,-0.000461167,0.00160752,0.00152874,0.00241896,-0.0012726,1.08282,0.00216531,0.0269639,1910,925,45.0768,-2.6435
693,99,45.094,2.76306,-0.000540399,0.00154103,0.00134626,0.00220194,-0.00120131,1.11444,0.00199297,0.0260866,1917,925,45.0939,-2.76305
700,99,45.0863,2.83966,0,0,0,0,0,0,0,-1,1924,925,45.0863,-2.83965
707,99,41.6495,3.23956,0,0,0,0,0,0,0,-1,1931,925,41.6495,-3.23957
714,99,41.6267,3.76221,-0.00108297,0.00165164,0.0012601,0.00214374,-0.00157507,1.19849,0.0021554,0.0365819,1938,925,41.6267,-3.76221
721,99,41.478,4.16913,-0.00126377,0.00185492,0.000958039,0.00212571,-0.00153456,1.29533,0.00212243,0.0276673,1945,925,41.478,-4.16913
728,99,41.5455,4.63049,-0.00160261,0.00210013,0.000502926,0.00216722,-0.00166971,1.43817,0.00222145,0.0224337,1952,925,41.5455,-4.63047
735,99,41.5038,5.05969,-0.00183824,0.00259778,9.15022e-05,0.00259967,-0.00184012,1.55018,0.00257579,0.0188418,1959,925,41.5037,-5.05967
742,99,41.4574,5.44061,-0.00203074,0.00323721,-0.000321319,0.00325673,-0.00205027,-1.5101,0.00309028,0.0138923,1966,925,41.4574,-5.44063
749,99,41.4048,5.82507,-0.00205214,0.00393658,-0.000708296,0.00401921,-0.00213477,-1.45466,0.0036081,0.0122471,1973,925,41.4047,-5.82508
756,99,41.365,6.18134,-0.00139901,0.00421151,-0.00088651,0.00434826,-0.00153575,-1.41775,0.00352412,0.0130913,1980,925,41.3649,-6.18134
763,99,41.3257,6.56653,-0.000261389,0.00416362,-0.000505908,0.00422072,-0.000318493,-1.4584,0.00292576,0.0156639,1987,925,41.3257,-6.56652
770,99,41.3207,7.12329,0.00177419,0.0030069,5.77884e-06,0.00300693,0.00177416,1.56611,0.00174541,0.0288924,1994,925,41.3207,-7.12329
777,99,41.6185,7.74414,0,0,0,0,0,0,0,-1,2001,925,41.6186,-7.74413
784,99,41.8574,8.44952,0.0106135,-0.00606933,0.00198482,0.0108464,-0.00630222,0.116802,0.0100159,0.0422899,2008,925,41.8575,-8.44954
791,99,41.9009,9.48218,0.0192781,-0.0158272,0.00278179,0.0194971,-0.0160463,0.0785878,0.0205532,0.0496098,2015,925,41.901,-9.48218
798,99,41.9714,10.4873,0,0,0,0,0,0,0,-1,2022,925,41.9714,-10.4873
805,99,0,0,0,0,0,0,0,0,0,-1,2029,925,0,0
812,99,0,0,0,0,0,0,0,0,0,-1,2036,925,0,0
-700,92,0,0,0,0,0,0,0,0,0,-1,524,932,0,0
-693,92,0,0,0,0,0,0,0,0,0,-1,531,932,0,0
-686,92,-30.6254,8.62091,0,0,0,0,0,0,0,-1,538,932,-30.6254,-8.62091
-679,92,-30.4653,6.95532,0,0,0,0,0,0,0,-1,545,932,-30.4653,-6.95532
-672,92,-30.3468,5.43445,0,0,0,0,0,0,0,-1,552,932,-30.3468,-5.43446
-665,92,-30.6332,6.41046,0,0,0,0,0,0,0,-1,559,932,-30.6333,-6.41048
-658,92,-29.6367,5.33136,0,0,0,0,0,0,0,-1,566,932,-29.6367,-5.33134
-651,92,-30.3851,4.57416,-0.0215898,-0.0197769,-0.0162055,-0.00445257,-0.0369142,-0.813337,0.0232677,0.0485568,573,932,-30.3851,-4.57414
-644,92,-30.8915,4.35089,-0.0204656,-0.0160649,-0.00903375,-0.00896742,-0.0275631,-0.904856,0.016234,0.042028,580,932,-30.8915,-4.35087
-637,92,-31.1703,4.0921,-0.018161,-0.0121671,-0.00407921,-0.0101023,-0.0202258,-1.10221,0.0116774,0.0238742,587,932,-31.1703,-4.09211
-630,92,-31.2487,3.74188,-0.0156503,-0.00906722,-0.000216073,-0.00906014,-0.0156574,-1.53802,0.00907699,0.0123043,594,932,-31.2486,-3.74187
-623,92,-31.3323,3.40228,-0.0133323,-0.00604623,0.00218361,-0.00544193,-0.0139366,1.30081,0.00811039,0.00886272,601,932,-31.3324,-3.40231
-616,92,-31.3494,3.06665,-0.0109774,-0.00287128,0.00312673,-0.00180538,-0.0120433,1.24225,0.00749983,0.00827813,608,932,-31.3494,-3.06667
-609,92,-31.3851,2.73169,-0.00886253,-0.000721903,0.00241188,-6.09779e-05,-0.00952346,1.30333,0.00632874,0.00893077,615,932,-31.3851,-2.73168
-602,92,-31.3702,2.39087,-0.00791126,0.000777105,0.00172166,0.00110583,-0.00823998,1.38213,0.00589659,0.0102907,622,932,-31.3702,-2.39084
-595,92,-31.2877,1.99738,-0.00705018,0.00159074,0.00131538,0.00178654,-0.00724598,1.42303,0.00552333,0.0201269,629,932,-31.2877,-1.99738
-588,92,-31.3209,1.66815,-0.00688569,0.00146394,0.000722986,0.00152608,-0.00694783,1.48506,0.00521554,0.0231458,636,932,-31.3209,-1.66815
-581,92,-31.243,1.26764,0,0,0,0,0,0,0,-1,643,932,-31.2431,-1.26763
-574,92,-32.1248,0.927002,0,0,0,0,0,0,0,-1,650,932,-32.1248,-0.927004
-567,92,-33.0066,0.586365,0,0,0,0,0,0,0,-1,657,932,-33.0066,-0.586379
-560,92,-33.5146,0.795898,-0.00718878,0.00206529,-0.00076514,0.00212813,-0.00725161,-1.48886,0.00567831,0.0409221,664,932,-33.5146,-0.795928
-553,92,-33.7157,0.833496,-0.00704507,0.00250573,-0.00114451,0.00264096,-0.00718031,-1.45318,0.00586873,0.0441542,671,932,-33.7157,-0.833525
-546,92,-33.7985,0.718445,-0.00651136,0.00306009,-0.00157812,0.00331358,-0.00676484,-1.41153,0.00593141,0.0435479,678,932,-33.7985,-0.718448
-539,92,-33.6998,0.760559,-0.0053365,0.00373692,-0.00216141,0.00422549,-0.00582507,-1.34849,0.00582714,0.0385134,685,932,-33.6998,-0.760541
-532,92,-33.7537,0.868408,-0.00338911,0.00451983,-0.00307267,0.00557327,-0.00444255,-1.24051,0.00579491,0.0419385,692,932,-33.7537,-0.868434
-525,92,-33.8225,0.909607,-0.00156476,0.00590065,-0.00473144,0.00819452,-0.00385863,-1.11937,0.00710739,0.0413256,699,932,-33.8225,-0.909582
-518,92,-33.8694,0.804077,-0.00136824,0.00830632,-0.00668185,0.0117181,-0.00477999,-1.09871,0.00980189,0.0399278,706,932,-33.8694,-0.804059
-511,92,0,0,0,0,0,0,0,0,0,-1,713,932,0,0
-504,92,0,0,0,0,0,0,0,0,0,-1,720,932,0,0
-497,92,0,0,0,0,0,0,0,0,0,-1,727,932,0,0
-490,92,0,0,0,0,0,0,0,0,0,-1,734,932,0,0
-483,92,0,0,0,0,0,0,0,0,0,-1,741,932,0,0
-476,92,0,0,0,0,0,0,0,0,0,-1,748,932,0,0
-469,92,0,0,0,0,0,0,0,0,0,-1,755,932,0,0
-462,92,0,0,0,0,0,0,0,0,0,-1,762,932,0,0
-455,92,0,0,0,0,0,0,0,0,0,-1,769,932,0,0
-448,92,0,0,0,0,0,0,0,0,0,-1,776,932,0,0
-441,92,0,0,0,0,0,0,0,0,0,-1,783,932,0,0
-434,92,0,0,0,0,0,0,0,0,0,-1,790,932,0,0
-427,92,0,0,0,0,0,0,0,0,0,-1,797,932,0,0
-420,92,0,0,0,0,0,0,0,0,0,-1,804,932,0,0
-413,92,0,0,0,0,0,0,0,0,0,-1,811,932,0,0
-406,92,0,0,0,0,0,0,0,0,0,-1,818,932,0,0
-399,92,0,0,0,0,0,0,0,0,0,-1,825,932,0,0
-392,92,0,0,0,0,0,0,0,0,0,-1,832,932,0,0
-385,92,0,0,0,0,0,0,0,0,0,-1,839,932,0,0
-378,92,0,0,0,0,0,0,0,0,0,-1,846,932,0,0
-371,92,0,0,0,0,0,0,0,0,0,-1,853,932,0,0
-364,92,0,0,0,0,0,0,0,0,0,-1,860,932,0,0
-357,92,0,0,0,0,0,0,0,0,0,-1,867,932,0,0
-350,92,0,0,0,0,0,0,0,0,0,-1,874,932,0,0
-343,92,0,0,0,0,0,0,0,0,0,-1,881,932,0,0
-336,92,0,0,0,0,0,0,0,0,0,-1,888,932,0,0
-329,92,0,0,0,0,0,0,0,0,0,-1,895,932,0,0
-322,92,0,0,0,0,0,0,0,0,0,-1,902,932,0,0
-315,92,0,0,0,0,0,0,0,0,0,-1,909,932,0,0
-308,92,0,0,0,0,0,0,0,0,0,-1,916,932,0,0
-301,92,0,0,0,0,0,0,0,0,0,-1,923,932,0,0
-294,92,0,0,0,0,0,0,0,0,0,-1,930,932,0,0
-287,92,0,0,0,0,0,0,0,0,0,-1,937,932,0,0
-280,92,0,0,0,0,0,0,0,0,0,-1,944,932,0,0
-273,92,0,0,0,0,0,0,0,0,0,-1,951,932,0,0
-266,92,0,0,0,0,0,0,0,0,0,-1,958,932,0,0
-259,92,0,0,0,0,0,0,0,0,0,-1,965,932,0,0
-252,92,0,0,0,0,0,0,0,0,0,-1,972,932,0,0
-245,92,0,0,0,0,0,0,0,0,0,-1,979,932,0,0
-238,92,0,0,0,0,0,0,0,0,0,-1,986,932,0,0
-231,92,0,0,0,0,0,0,0,0,0,-1,993,932,0,0
-224,92,0,0,0,0,0,0,0,0,0,-1,1000,932,0,0
-217,92,0,0,0,0,0,0,0,0,0,-1,1007,932,0,0
-210,92,0,0,0,0,0,0,0,0,0,-1,1014,932,0,0
-203,92,0,0,0,0,0,0,0,0,0,-1,1021,932,0,0
-196,92,0,0,0,0,0,0,0,0,0,-1,1028,932,0,0
-189,92,0,0,0,0,0,0,0,0,0,-1,1035,932,0,0
-182,92,0,0,0,0,0,0,0,0,0,-1,1042,932,0,0
-175,92,0,0,0,0,0,0,0,0,0,-1,1049,932,0,0
-168,92,0,0,0,0,0,0,0,0,0,-1,1056,932,0,0
-161,92,0,0,0,0,0,0,0,0,0,-1,1063,932,0,0
-154,92,0,0,0,0,0,0,0,0,0,-1,1070,932,0,0
-147,92,0,0,0,0,0,0,0,0,0,-1,1077,932,0,0
-140,92,0,0,0,0,0,0,0,0,0,-1,1084,932,0,0
-133,92,0,0,0,0,0,0,0,0,0,-1,1091,932,0,0
-126,92,0,0,0,0,0,0,0,0,0,-1,1098,932,0,0
-119,92,0,0,0,0,0,0,0,0,0,-1,1105,932,0,0
-112,92,0,0,0,0,0,0,0,0,0,-1,1112,932,0,0
-105,92,0,0,0,0,0,0,0,0,0,-1,1119,932,0,0
-98,92,0,0,0,0,0,0,0,0,0,-1,1126,932,0,0
-91,92,0,0,0,0,0,0,0,0,0,-1,1133,932,0,0
-84,92,0,0,0,0,0,0,0,0,0,-1,1140,932,0,0
-77,92,0,0,0,0,0,0,0,0,0,-1,1147,932,0,0
-70,92,0,0,0,0,0,0,0,0,0,-1,1154,932,0,0
-63,92,0,0,0,0,0,0,0,0,0,-1,1161,932,0,0
-56,92,0,0,0,0,0,0,0,0,0,-1,1168,932,0,0
-49,92,0,0,0,0,0,0,0,0,0,-1,1175,932,0,0
-42,92,0,0,0,0,0,0,0,0,0,-1,1182,932,0,0
-35,92,0,0,0,0,0,0,0,0,0,-1,1189,932,0,0
-28,92,0,0,0,0,0,0,0,0,0,-1,1196,932,0,0
-21,92,0,0,0,0,0,0,0,0,0,-1,1203,932,0,0
-14,92,0,0,0,0,0,0,0,0,0,-1,1210,932,0,0
-7,92,0,0,0,0,0,0,0,0,0,-1,1217,932,0,0
0,92,0,0,0,0,0,0,0,0,0,-1,1224,932,0,0
7,92,0,0,0,0,0,0,0,0,0,-1,1231,932,0,0
14,92,0,0,0,0,0,0,0,0,0,-1,1238,932,0,0
21,92,0,0,0,0,0,0,0,0,0,-1,1245,932,0,0
28,92,0,0,0,0,0,0,0,0,0,-1,1252,932,0,0
35,92,0,0,0,0,0,0,0,0,0,-1,1259,932,0,0
42,92,0,0,0,0,0,0,0,0,0,-1,1266,932,0,0
49,92,0,0,0,0,0,0,0,0,0,-1,1273,932,0,0
56,92,0,0,0,0,0,0,0,0,0,-1,1280,932,0,0
63,92,0,0,0,0,0,0,0,0,0,-1,1287,932,0,0
70,92,0,0,0,0,0,0,0,0,0,-1,1294,932,0,0
77,92,0,0,0,0,0,0,0,0,0,-1,1301,932,0,0
84,92,0,0,0,0,0,0,0,0,0,-1,1308,932,0,0
91,92,0,0,0,0,0,0,0,0,0,-1,1315,932,0,0
98,92,0,0,0,0,0,0,0,0,0,-1,1322,932,0,0
105,92,0,0,0,0,0,0,0,0,0,-1,1329,932,0,0
112,92,0,0,0,0,0,0,0,0,0,-1,1336,932,0,0
119,92,0,0,0,0,0,0,0,0,0,-1,1343,932,0,0
126,92,0,0,0,0,0,0,0,0,0,-1,1350,932,0,0
133,92,0,0,0,0,0,0,0,0,0,-1,1357,932,0,0
140,92,0,0,0,0,0,0,0,0,0,-1,1364,932,0,0
147,92,0,0,0,0,0,0,0,0,0,-1,1371,932,0,0
154,92,0,0,0,0,0,0,0,0,0,-1,1378,932,0,0
161,92,0,0,0,0,0,0,0,0,0,-1,1385,932,0,0
168,92,0,0,0,0,0,0,0,0,0,-1,1392,932,0,0
175,92,0,0,0,0,0,0,0,0,0,-1,1399,932,0,0
182,92,0,0,0,0,0,0,0,0,0,-1,1406,932,0,0
189,92,0,0,0,0,0,0,0,0,0,-1,1413,932,0,0
196,92,0,0,0,0,0,0,0,0,0,-1,1420,932,0,0
203,92,0,0,0,0,0,0,0,0,0,-1,1427,932,0,0
210,92,0,0,0,0,0,0,0,0,0,-1,1434,932,0,0
217,92,0,0,0,0,0,0,0,0,0,-1,1441,932,0,0
224,92,0,0,0,0,0,0,0,0,0,-1,1448,932,0,0
231,92,0,0,0,0,0,0,0,0,0,-1,1455,932,0,0
238,92,0,0,0,0,0,0,0,0,0,-1,1462,932,0,0
245,92,0,0,0,0,0,0,0,0,0,-1,1469,932,0,0
252,92,0,0,0,0,0,0,0,0,0,-1,1476,932,0,0
259,92,0,0,0,0,0,0,0,0,0,-1,1483,932,0,0
266,92,0,0,0,0,0,0,0,0,0,-1,1490,932,0,0
273,92,0,0,0,0,0,0,0,0,0,-1,1497,932,0,0
280,92,0,0,0,0,0,0,0,0,0,-1,1504,932,0,0
287,92,0,0,0,0,0,0,0,0,0,-1,1511,932,0,0
294,92,0,0,0,0,0,0,0,0,0,-1,1518,932,0,0
301,92,0,0,0,0,0,0,0,0,0,-1,1525,932,0,0
308,92,0,0,0,0,0,0,0,0,0,-1,1532,932,0,0
315,92,0,0,0,0,0,0,0,0,0,-1,1539,932,0,0
322,92,0,0,0,0,0,0,0,0,0,-1,1546,932,0,0
329,92,0,0,0,0,0,0,0,0,0,-1,1553,932,0,0
336,92,0,0,0,0,0,0,0,0,0,-1,1560,932,0,0
343,92,0,0,0,0,0,0,0,0,0,-1,1567,932,0,0
350,92,0,0,0,0,0,0,0,0,0,-1,1574,932,0,0
357,92,0,0,0,0,0,0,0,0,0,-1,1581,932,0,0
364,92,0,0,0,0,0,0,0,0,0,-1,1588,932,0,0
371,92,0,0,0,0,0,0,0,0,0,-1,1595,932,0,0
378,92,0,0,0,0,0,0,0,0,0,-1,1602,932,0,0
385,92,0,0,0,0,0,0,0,0,0,-1,1609,932,0,0
392,92,0,0,0,0,0,0,0,0,0,-1,1616,932,0,0
399,92,0,0,0,0,0,0,0,0,0,-1,1623,932,0,0
406,92,0,0,0,0,0,0,0,0,0,-1,1630,932,0,0
413,92,0,0,0,0,0,0,0,0,0,-1,1637,932,0,0
420,92,0,0,0,0,0,0,0,0,0,-1,1644,932,0,0
427,92,0,0,0,0,0,0,0,0,0,-1,1651,932,0,0
434,92,0,0,0,0,0,0,0,0,0,-1,1658,932,0,0
441,92,0,0,0,0,0,0,0,0,0,-1,1665,932,0,0
448,92,0,0,0,0,0,0,0,0,0,-1,1672,932,0,0
455,92,0,0,0,0,0,0,0,0,0,-1,1679,932,0,0
462,92,0,0,0,0,0,0,0,0,0,-1,1686,932,0,0
469,92,0,0,0,0,0,0,0,0,0,-1,1693,932,0,0
476,92,0,0,0,0,0,0,0,0,0,-1,1700,932,0,0
483,92,0,0,0,0,0,0,0,0,0,-1,1707,932,0,0
490,92,0,0,0,0,0,0,0,0,0,-1,1714,932,0,0
497,92,0,0,0,0,0,0,0,0,0,-1,1721,932,0,0
504,92,0,0,0,0,0,0,0,0,0,-1,1728,932,0,0
511,92,0,0,0,0,0,0,0,0,0,-1,1735,932,0,0
518,92,0,0,0,0,0,0,0,0,0,-1,1742,932,0,0
525,92,0,0,0,0,0,0,0,0,0,-1,1749,932,0,0
532,92,0,0,0,0,0,0,0,0,0,-1,1756,932,0,0
539,92,0,0,0,0,0,0,0,0,0,-1,1763,932,0,0
546,92,0,0,0,0,0,0,0,0,0,-1,1770,932,0,0
553,92,0,0,0,0,0,0,0,0,0,-1,1777,932,0,0
560,92,0,0,0,0,0,0,0,0,0,-1,1784,932,0,0
567,92,0,0,0,0,0,0,0,0,0,-1,1791,932,0,0
574,92,0,0,0,0,0,0,0,0,0,-1,1798,932,0,0
581,92,0,0,0,0,0,0,0,0,0,-1,1805,932,0,0
588,92,0,0,0,0,0,0,0,0,0,-1,1812,932,0,0
595,92,0,0,0,0,0,0,0,0,0,-1,1819,932,0,0
602,92,0,0,0,0,0,0,0,0,0,-1,1826,932,0,0
609,92,0,0,0,0,0,0,0,0,0,-1,1833,932,0,0
616,92,0,0,0,0,0,0,0,0,0,-1,1840,932,0,0
623,92,0,0,0,0,0,0,0,0,0,-1,1847,932,0,0
630,92,0,0,0,0,0,0,0,0,0,-1,1854,932,0,0
637,92,45.045,2.65771,-0.000280886,0.00226561,0.00175781,0.00316286,-0.00117813,1.09884,0.00259212,0.0462053,1861,932,45.045,-2.65773
644,92,45.0244,2.88104,-0.000290828,0.00189738,0.000713489,0.00210946,-0.000502914,1.28186,0.0016005,0.0406528,1868,932,45.0244,-2.88105
651,92,45.0513,2.66559,-0.000323029,0.00173478,0.000172486,0.00174914,-0.000337386,1.48775,0.00129331,0.0392396,1875,932,45.0513,-2.6656
658,92,45.1233,2.40601,-0.000441019,0.00178749,0.000159593,0.00179886,-0.000452391,1.49967,0.00137507,0.0400625,1882,932,45.1232,-2.406
665,92,45.1995,2.45203,-0.000556346,0.0019725,0.000495334,0.00206606,-0.000649907,1.38411,0.00163758,0.0394734,1889,932,45.1994,-2.45205
672,92,45.2385,2.67468,-0.00073883,0.00199727,0.000995506,0.00232114,-0.0010627,1.25626,0.00199819,0.0379835,1896,932,45.2386,-2.67467
679,92,45.1194,2.72351,-0.000872822,0.00183576,0.00144188,0.00245963,-0.00149669,1.16244,0.00230663,0.0344867,1903,932,45.1193,-2.72352
686,92,45.0352,2.75604,-0.00087383,0.00162451,0.00164013,0.002437,-0.00168632,1.11085,0.00239371,0.028378,1910,932,45.0352,-2.75604
693,92,45.1219,2.77325,-0.000943003,0.00153104,0.00149102,0.00223138,-0.00164334,1.13168,0.00224564,0.0222424,1917,932,45.1219,-2.77326
700,92,45.1691,2.77979,0,0,0,0,0,0,0,-1,1924,932,45.1691,-2.7798
707,92,32.9893,3.26874,0,0,0,0,0,0,0,-1,1931,932,32.9893,-3.26874
714,92,42.1173,3.74243,0,0,0,0,0,0,0,-1,1938,932,42.1174,-3.74244
721,92,42.0265,4.25848,-0.00181754,0.00187487,0.00110136,0.00217842,-0.0021211,1.30186,0.0024824,0.0299888,1945,932,42.0264,-4.25846
728,92,41.9,4.70844,-0.00215528,0.00217192,0.000642152,0.00226521,-0.00224857,1.42654,0.00260603,0.0228621,1952,932,41.9,-4.70844
735,92,41.8623,5.07843,-0.00241923,0.0027325,0.000200552,0.0027403,-0.00242703,1.53195,0.00298519,0.0186279,1959,932,41.8624,-5.07843
742,92,41.8922,5.41766,-0.00265017,0.00336902,-0.000261484,0.00338035,-0.00266151,-1.52746,0.00349649,0.0191861,1966,932,41.8922,-5.41766
749,92,41.8354,5.80377,-0.00271022,0.00394316,-0.000745669,0.0040257,-0.00279277,-1.46054,0.00395804,0.0171752,1973,932,41.8354,-5.80379
756,92,41.7694,6.15771,-0.00197014,0.00397652,-0.00113029,0.00418411,-0.00217773,-1.38916,0.0037334,0.0154464,1980,932,41.7694,-6.15774
763,92,41.7629,6.53223,-0.000584895,0.00375609,-0.00106332,0.00400256,-0.00083136,-1.34303,0.00298435,0.0173558,1987,932,41.763,-6.53223
770,92,41.7524,7.0033,0.00161767,0.00238688,-0.000882792,0.00296521,0.00103934,-0.990833,0.00173728,0.0262017,1994,932,41.7524,-7.00331
777,92,41.6086,7.1673,0,0,0,0,0,0,0,-1,2001,932,41.6087,-7.1673
784,92,42.4131,8.65656,0.0110562,-0.00673897,-0.000256694,0.0110599,-0.00674267,-0.0144209,0.0103786,0.0481679,2008,932,42.4131,-8.65656
791,92,42.6614,9.73669,0.020231,-0.0160751,-0.000365764,0.0202347,-0.0160788,-0.0100731,0.0210113,0.0483155,2015,932,42.6613,-9.73668
798,92,42.9348,10.8129,0,0,0,0,0,0,0,-1,2022,932,42.9349,-10.8129
805,92,0,0,0,0,0,0,0,0,0,-1,2029,932,0,0
812,92,0,0,0,0,0,0,0,0,0,-1,2036,932,0,0
-700,85,0,0,0,0,0,0,0,0,0,-1,524,939,0,0
-693,85,0,0,0,0,0,0,0,0,0,-1,531,939,0,0
-686,85,-31.0159,8.02319,0,0,0,0,0,0,0,-1,538,939,-31.0159,-8.02319
-679,85,-30.8798,6.5033,0.00115713,-0.00321579,-0.0773092,0.0763108,-0.0783694,-0.771261,0.0893073,0.0493693,545,939,-30.8797,-6.50331
-672,85,-30.778,4.93323,-0.00665463,-0.00740629,-0.058736,0.0517068,-0.0657677,-0.782199,0.0679857,0.0490289,552,939,-30.778,-4.93322
-665,85,-29.8894,5.09167,0,0,0,0,0,0,0,-1,559,939,-29.8894,-5.09166
-658,85,-30.213,4.82227,0,0,0,0,0,0,0,-1,566,939,-30.213,-4.82227
-651,85,-30.6774,4.61945,-0.0168289,-0.00861437,-0.0189539,0.00667213,-0.0321154,-0.892098,0.0239462,0.0436193,573,939,-30.6774,-4.61944
-644,85,-31.3072,4.27301,-0.0165987,-0.00704786,-0.0108807,5.9234e-05,-0.0237058,-0.992186,0.0158237,0.0334286,580,939,-31.3072,-4.27301
-637,85,-31.5568,4.00519,-0.0151335,-0.00522944,-0.00523828,-0.00297298,-0.0173899,-1.16405,0.0107403,0.0181671,587,939,-31.5567,-4.00522
-630,85,-31.6469,3.66461,-0.0134414,-0.00407363,-0.000839203,-0.00399904,-0.013516,-1.48215,0.00801727,0.0112857,594,939,-31.6469,-3.66461
-623,85,-31.7136,3.34436,-0.0118991,-0.00272357,0.00187619,-0.00235476,-0.0122679,1.3767,0.00751767,0.00885031,601,939,-31.7136,-3.34434
-616,85,-31.7211,3.03711,-0.010248,-0.000975483,0.00277922,-0.000206282,-0.0110172,1.30079,0.00727699,0.00850429,608,939,-31.7211,-3.0371
-609,85,-31.7514,2.7074,-0.00858907,0.000218942,0.00183849,0.000587287,-0.00895741,1.37306,0.00617668,0.0114683,615,939,-31.7514,-2.70738
-602,85,-31.7577,2.388,-0.00794034,0.0011931,0.00105944,0.00131438,-0.00806162,1.45682,0.00586187,0.0156565,622,939,-31.7577,-2.388
-595,85,-31.6891,2.05402,-0.00720799,0.00179726,0.00061458,0.00183901,-0.00724974,1.50297,0.0055487,0.0198403,629,939,-31.6891,-2.05402
-588,85,-31.6898,1.72815,-0.00707884,0.00165315,4.83705e-06,0.00165315,-0.00707884,1.57024,0.00535601,0.0193668,636,939,-31.6898,-1.72813
-581,85,-31.6111,1.32996,0,0,0,0,0,0,0,-1,643,939,-31.6112,-1.32997
-574,85,-32.4529,1.16113,0,0,0,0,0,0,0,-1,650,939,-32.4529,-1.16115
-567,85,-33.2946,0.99231,0,0,0,0,0,0,0,-1,657,939,-33.2946,-0.992325
-560,85,-33.5079,0.914124,-0.00733381,0.00229237,-0.00161923,0.00255744,-0.00759888,-1.40853,0.00609981,0.0386735,664,939,-33.5079,-0.914124
-553,85,-33.6984,0.848389,-0.00700601,0.00272457,-0.00197741,0.00311107,-0.0073925,-1.37778,0.0062299,0.0449588,671,939,-33.6983,-0.848385
-546,85,-33.8749,0.823364,0,0,0,0,0,0,0,-1,678,939,-33.8749,-0.823393
-539,85,-33.5718,0.79718,-0.00461695,0.00384379,-0.00301177,0.00480638,-0.00557954,-1.26145,0.00600185,0.0382768,685,939,-33.5719,-0.797161
-532,85,-33.6078,0.882874,-0.00222218,0.00439108,-0.00404247,0.00630703,-0.00413813,-1.1282,0.0060737,0.0391566,692,939,-33.6078,-0.882861
-525,85,-33.7242,0.84375,-0.000292265,0.00548281,-0.00600816,0.0092613,-0.00407075,-1.0094,0.00788932,0.0376382,699,939,-33.7243,-0.843768
-518,85,-33.6962,0.779907,-0.000408811,0.00754983,-0.00830831,0.0127826,-0.00564161,-1.00873,0.0109003,0.0351621,706,939,-33.6962,-0.779878
-511,85,0,0,0,0,0,0,0,0,0,-1,713,939,0,0
-504,85,0,0,0,0,0,0,0,0,0,-1,720,939,0,0
-497,85,0,0,0,0,0,0,0,0,0,-1,727,939,0,0
-490,85,0,0,0,0,0,0,0,0,0,-1,734,939,0,0
-483,85,0,0,0,0,0,0,0,0,0,-1,741,939,0,0
-476,85,0,0,0,0,0,0,0,0,0,-1,748,939,0,0
-469,85,0,0,0,0,0,0,0,0,0,-1,755,939,0,0
-462,85,0,0,0,0,0,0,0,0,0,-1,762,939,0,0
-455,85,0,0,0,0,0,0,0,0,0,-1,769,939,0,0
-448,85,0,0,0,0,0,0,0,0,0,-1,776,939,0,0
-441,85,0,0,0,0,0,0,0,0,0,-1,783,939,0,0
-434,85,0,0,0,0,0,0,0,0,0,-1,790,939,0,0
-427,85,0,0,0,0,0,0,0,0,0,-1,797,939,0,0
-420,85,0,0,0,0,0,0,0,0,0,-1,804,939,0,0
-413,85,0,0,0,0,0,0,0,0,0,-1,811,939,0,0
-406,85,0,0,0,0,0,0,0,0,0,-1,818,939,0,0
-399,85,0,0,0,0,0,0,0,0,0,-1,825,939,0,0
-392,85,0,0,0,0,0,0,0,0,0,-1,832,939,0,0
-385,85,0,0,0,0,0,0,0,0,0,-1,839,939,0,0
-378,85,0,0,0,0,0,0,0,0,0,-1,846,939,0,0
-371,85,0,0,0,0,0,0,0,0,0,-1,853,939,0,0
-364,85,0,0,0,0,0,0,0,0,0,-1,860,939,0,0
-357,85,0,0,0,0,0,0,0,0,0,-1,867,939,0,0
-350,85,0,0,0,0,0,0,0,0,0,-1,874,939,0,0
-343,85,0,0,0,0,0,0,0,0,0,-1,881,939,0,0
-336,85,0,0,0,0,0,0,0,0,0,-1,888,939,0,0
-329,85,0,0,0,0,0,0,0,0,0,-1,895,939,0,0
-322,85,0,0,0,0,0,0,0,0,0,-1,902,939,0,0
-315,85,0,0,0,0,0,0,0,0,0,-1,909,939,0,0
-308,85,0,0,0,0,0,0,0,0,0,-1,916,939,0,0
-301,85,0,0,0,0,0,0,0,0,0,-1,923,939,0,0
-294,85,0,0,0,0,0,0,0,0,0,-1,930,939,0,0
-287,85,0,0,0,0,0,0,0,0,0,-1,937,939,0,0
-280,85,0,0,0,0,0,0,0,0,0,-1,944,939,0,0
-273,85,0,0,0,0,0,0,0,0,0,-1,951,939,0,0
-266,85,0,0,0,0,0,0,0,0,0,-1,958,939,0,0
-259,85,0,0,0,0,0,0,0,0,0,-1,965,939,0,0
-252,85,0,0,0,0,0,0,0,0,0,-1,972,939,0,0
-245,85,0,0,0,0,0,0,0,0,0,-1,979,939,0,0
-238,85,0,0,0,0,0,0,0,0,0,-1,986,939,0,0
-231,85,0,0,0,0,0,0,0,0,0,-1,993,939,0,0
-224,85,0,0,0,0,0,0,0,0,0,-1,1000,939,0,0
-217,85,0,0,0,0,0,0,0,0,0,-1,1007,939,0,0
-210,85,0,0,0,0,0,0,0,0,0,-1,1014,939,0,0
-203,85,0,0,0,0,0,0,0,0,0,-1,1021,939,0,0
-196,85,0,0,0,0,0,0,0,0,0,-1,1028,939,0,0
-189,85,0,0,0,0,0,0,0,0,0,-1,1035,939,0,0
-182,85,0,0,0,0,0,0,0,0,0,-1,1042,939,0,0
-175,85,0,0,0,0,0,0,0,0,0,-1,1049,939,0,0
-168,85,0,0,0,0,0,0,0,0,0,-1,1056,939,0,0
-161,85,0,0,0,0,0,0,0,0,0,-1,1063,939,0,0
-154,85,0,0,0,0,0,0,0,0,0,-1,1070,939,0,0
-147,85,0,0,0,0,0,0,0,0,0,-1,1077,939,0,0
-140,85,0,0,0,0,0,0,0,0,0,-1,1084,939,0,0
-133,85,0,0,0,0,0,0,0,0,0,-1,1091,939,0,0
-126,85,0,0,0,0,0,0,0,0,0,-1,1098,939,0,0
-119,85,0,0,0,0,0,0,0,0,0,-1,1105,939,0,0
-112,85,0,0,0,0,0,0,0,0,0,-1,1112,939,0,0
-105,85,0,0,0,0,0,0,0,0,0,-1,1119,939,0,0
-98,85,0,0,0,0,0,0,0,0,0,-1,1126,939,0,0
-91,85,0,0,0,0,0,0,0,0,0,-1,1133,939,0,0
-84,85,0,0,0,0,0,0,0,0,0,-1,1140,939,0,0
-77,85,0,0,0,0,0,0,0,0,0,-1,1147,939,0,0
-70,85,0,0,0,0,0,0,0,0,0,-1,1154,939,0,0
-63,85,0,0,0,0,0,0,0,0,0,-1,1161,939,0,0
-56,85,0,0,0,0,0,0,0,0,0,-1,1168,939,0,0
-49,85,0,0,0,0,0,0,0,0,0,-1,1175,939,0,0
-42,85,0,0,0,0,0,0,0,0,0,-1,1182,939,0,0
-35,85,0,0,0,0,0,0,0,0,0,-1,1189,939,0,0
-28,85,0,0,0,0,0,0,0,0,0,-1,1196,939,0,0
-21,85,0,0,0,0,0,0,0,0,0,-1,1203,939,0,0
-14,85,0,0,0,0,0,0,0,0,0,-1,1210,939,0,0
-7,85,0,0,0,0,0,0,0,0,0,-1,1217,939,0,0
0,85,0,0,0,0,0,0,0,0,0,-1,1224,939,0,0
7,85,0,0,0,0,0,0,0,0,0,-1,1231,939,0,0
14,85,0,0,0,0,0,0,0,0,0,-1,1238,939,0,0
21,85,0,0,0,0,0,0,0,0,0,-1,1245,939,0,0
28,85,0,0,0,0,0,0,0,0,0,-1,1252,939,0,0
35,85,0,0,0,0,0,0,0,0,0,-1,1259,939,0,0
42,85,0,0,0,0,0,0,0,0,0,-1,1266,939,0,0
49,85,0,0,0,0,0,0,0,0,0,-1,1273,939,0,0
56,85,0,0,0,0,0,0,0,0,0,-1,1280,939,0,0
63,85,0,0,0,0,0,0,0,0,0,-1,1287,939,0,0
70,85,0,0,0,0,0,0,0,0,0,-1,1294,939,0,0
77,85,0,0,0,0,0,0,0,0,0,-1,1301,939,0,0
84,85,0,0,0,0,0,0,0,0,0,-1,1308,939,0,0
91,85,0,0,0,0,0,0,0,0,0,-1,1315,939,0,0
98,85,0,0,0,0,0,0,0,0,0,-1,1322,939,0,0
105,85,0,0,0,0,0,0,0,0,0,-1,1329,939,0,0
112,85,0,0,0,0,0,0,0,0,0,-1,1336,939,0,0
119,85,0,0,0,0,0,0,0,0,0,-1,1343,939,0,0
126,85,0,0,0,0,0,0,0,0,0,-1,1350,939,0,0
133,85,0,0,0,0,0,0,0,0,0,-1,1357,939,0,0
140,85,0,0,0,0,0,0,0,0,0,-1,1364,939,0,0
147,85,0,0,0,0,0,0,0,0,0,-1,1371,939,0,0
154,85,0,0,0,0,0,0,0,0,0,-1,1378,939,0,0
161,85,0,0,0,0,0,0,0,0,0,-1,1385,939,0,0
168,85,0,0,0,0,0,0,0,0,0,-1,1392,939,0,0
175,85,0,0,0,0,0,0,0,0,0,-1,1399,939,0,0
182,85,0,0,0,0,0,0,0,0,0,-1,1406,939,0,0
189,85,0,0,0,0,0,0,0,0,0,-1,1413,939,0,0
196,85,0,0,0,0,0,0,0,0,0,-1,1420,939,0,0
203,85,0,0,0,0,0,0,0,0,0,-1,1427,939,0,0
210,85,0,0,0,0,0,0,0,0,0,-1,1434,939,0,0
217,85,0,0,0,0,0,0,0,0,0,-1,1441,939,0,0
224,85,0,0,0,0,0,0,0,0,0,-1,1448,939,0,0
231,85,0,0,0,0,0,0,0,0,0,-1,1455,939,0,0
238,85,0,0,0,0,0,0,0,0,0,-1,1462,939,0,0
245,85,0,0,0,0,0,0,0,0,0,-1,1469,939,0,0
252,85,0,0,0,0,0,0,0,0,0,-1,1476,939,0,0
259,85,0,0,0,0,0,0,0,0,0,-1,1483,939,0,0
266,85,0,0,0,0,0,0,0,0,0,-1,1490,939,0,0
273,85,0,0,0,0,0,0,0,0,0,-1,1497,939,0,0
280,85,0,0,0,0,0,0,0,0,0,-1,1504,939,0,0
287,85,0,0,0,0,0,0,0,0,0,-1,1511,939,0,0
294,85,0,0,0,0,0,0,0,0,0,-1,1518,939,0,0
301,85,0,0,0,0,0,0,0,0,0,-1,1525,939,0,0
308,85,0,0,0,0,0,0,0,0,0,-1,1532,939,0,0
315,85,0,0,0,0,0,0,0,0,0,-1,1539,939,0,0
322,85,0,0,0,0,0,0,0,0,0,-1,1546,939,0,0
329,85,0,0,0,0,0,0,0,0,0,-1,1553,939,0,0
336,85,0,0,0,0,0,0,0,0,0,-1,1560,939,0,0
343,85,0,0,0,0,0,0,0,0,0,-1,1567,939,0,0
350,85,0,0,0,0,0,0,0,0,0,-1,1574,939,0,0
357,85,0,0,0,0,0,0,0,0,0,-1,1581,939,0,0
364,85,0,0,0,0,0,0,0,0,0,-1,1588,939,0,0
371,85,0,0,0,0,0,0,0,0,0,-1,1595,939,0,0
378,85,0,0,0,0,0,0,0,0,0,-1,1602,939,0,0
385,85,0,0,0,0,0,0,0,0,0,-1,1609,939,0,0
392,85,0,0,0,0,0,0,0,0,0,-1,1616,939,0,0
399,85,0,0,0,0,0,0,0,0,0,-1,1623,939,0,0
406,85,0,0,0,0,0,0,0,0,0,-1,1630,939,0,0
413,85,0,0,0,0,0,0,0,0,0,-1,1637,939,0,0
420,85,0,0,0,0,0,0,0,0,0,-1,1644,939,0,0
427,85,0,0,0,0,0,0,0,0,0,-1,1651,939,0,0
434,85,0,0,0,0,0,0,0,0,0,-1,1658,939,0,0
441,85,0,0,0,0,0,0,0,0,0,-1,1665,939,0,0
448,85,0,0,0,0,0,0,0,0,0,-1,1672,939,0,0
455,85,0,0,0,0,0,0,0,0,0,-1,1679,939,0,0
462,85,0,0,0,0,0,0,0,0,0,-1,1686,939,0,0
469,85,0,0,0,0,0,0,0,0,0,-1,1693,939,0,0
476,85,0,0,0,0,0,0,0,0,0,-1,1700,939,0,0
483,85,0,0,0,0,0,0,0,0,0,-1,1707,939,0,0
490,85,0,0,0,0,0,0,0,0,0,-1,1714,939,0,0
497,85,0,0,0,0,0,0,0,0,0,-1,1721,939,0,0
504,85,0,0,0,0,0,0,0,0,0,-1,1728,939,0,0
511,85,0,0,0,0,0,0,0,0,0,-1,1735,939,0,0
518,85,0,0,0,0,0,0,0,0,0,-1,1742,939,0,0
525,85,0,0,0,0,0,0,0,0,0,-1,1749,939,0,0
532,85,0,0,0,0,0,0,0,0,0,-1,1756,939,0,0
539,85,0,0,0,0,0,0,0,0,0,-1,1763,939,0,0
546,85,0,0,0,0,0,0,0,0,0,-1,1770,939,0,0
553,85,0,0,0,0,0,0,0,0,0,-1,1777,939,0,0
560,85,0,0,0,0,0,0,0,0,0,-1,1784,939,0,0
567,85,0,0,0,0,0,0,0,0,0,-1,1791,939,0,0
574,85,0,0,0,0,0,0,0,0,0,-1,1798,939,0,0
581,85,0,0,0,0,0,0,0,0,0,-1,1805,939,0,0
588,85,0,0,0,0,0,0,0,0,0,-1,1812,939,0,0
595,85,0,0,0,0,0,0,0,0,0,-1,1819,939,0,0
602,85,0,0,0,0,0,0,0,0,0,-1,1826,939,0,0
609,85,0,0,0,0,0,0,0,0,0,-1,1833,939,0,0
616,85,0,0,0,0,0,0,0,0,0,-1,1840,939,0,0
623,85,0,0,0,0,0,0,0,0,0,-1,1847,939,0,0
630,85,0,0,0,0,0,0,0,0,0,-1,1854,939,0,0
637,85,45.1011,2.60272,-0.000532548,0.00160724,0.00208295,0.002879,-0.00180431,1.02265,0.00272754,0.0479539,1861,939,45.1011,-2.60275
644,85,45.0774,2.711,-0.00053058,0.00134093,0.000880089,0.00168977,-0.000879424,1.19342,0.00150772,0.0444859,1868,939,45.0774,-2.71103
651,85,45.1124,2.61127,-0.000504484,0.00123601,0.000247227,0.00127045,-0.00053892,1.4324,0.00107272,0.04276,1875,939,45.1124,-2.61124
658,85,45.1067,2.48303,-0.000555771,0.00133273,0.000201459,0.00135398,-0.000577023,1.4657,0.00114455,0.0413699,1882,939,45.1066,-2.48302
665,85,45.1381,2.41492,-0.00063116,0.00153741,0.000585245,0.00168528,-0.000779021,1.32333,0.00145448,0.0427797,1889,939,45.1381,-2.41493
672,85,45.1991,2.4328,-0.000823964,0.00158482,0.00115291,0.00204769,-0.00128684,1.18901,0.00194182,0.0416291,1896,939,45.199,-2.43279
679,85,45.1722,2.58881,-0.000992105,0.00143855,0.0016715,0.00228985,-0.0018434,1.09974,0.00239097,0.0376367,1903,939,45.1722,-2.58881
686,85,45.0648,2.71564,-0.00101268,0.00123299,0.00191232,0.00232774,-0.00210744,1.05086,0.00256171,0.0333122,1910,939,45.0648,-2.71566
693,85,45.0912,2.76575,-0.00108138,0.00110367,0.00181179,0.00212685,-0.00210456,1.05671,0.00244302,0.0261697,1917,939,45.0912,-2.76573
700,85,45.1227,2.7348,-0.00133249,0.00097124,0.00178576,0.0019444,-0.00230565,1.07183,0.00245672,0.0393375,1924,939,45.1227,-2.73483
707,85,45.2014,2.73126,0,0,0,0,0,0,0,-1,1931,939,45.2014,-2.73126
714,85,42.3721,3.85577,0,0,0,0,0,0,0,-1,1938,939,42.372,-3.85578
721,85,42.3217,4.3175,-0.00214443,0.0015801,0.0013763,0.00203348,-0.00259782,1.25257,0.00268049,0.0299752,1945,939,42.3217,-4.31749
728,85,42.2383,4.81665,-0.0025051,0.00198236,0.00090059,0.00215636,-0.00267909,1.37995,0.00279718,0.0260719,1952,939,42.2383,-4.81662
735,85,42.2444,5.11993,-0.00281835,0.00269628,0.000383568,0.00272283,-0.0028449,1.50169,0.00321479,0.0238532,1959,939,42.2444,-5.11993
742,85,42.3134,5.43909,-0.00310077,0.00342425,-0.000178191,0.00342911,-0.00310563,-1.54351,0.00377438,0.0171394,1966,939,42.3133,-5.43908
749,85,42.2542,5.79675,-0.00311311,0.0039811,-0.000862361,0.00408442,-0.00321643,-1.45155,0.00422507,0.0134632,1973,939,42.2541,-5.79677
756,85,42.178,6.13049,-0.00214844,0.00393968,-0.00162252,0.0043451,-0.00255386,-1.32594,0.00402762,0.0131646,1980,939,42.1779,-6.13052
763,85,42.1536,6.48047,-0.000250848,0.00367391,-0.00211238,0.00459477,-0.00117171,-1.1597,0.00351938,0.0138864,1987,939,42.1536,-6.48047
770,85,42.1333,6.87115,0.00243925,0.00222294,-0.00245745,0.00479092,-0.000128733,-0.763407,0.00323771,0.0201456,1994,939,42.1333,-6.87113
777,85,42.0536,7.20551,0.006612,-0.000980323,-0.00296918,0.00763527,-0.00200359,-0.331882,0.00587309,0.042943,2001,939,42.0536,-7.20553
784,85,41.9766,7.94757,0,0,0,0,0,0,0,-1,2008,939,41.9765,-7.94754
791,85,43.1919,10.0039,0,0,0,0,0,0,0,-1,2015,939,43.192,-10.0039
798,85,43.3538,11.0305,0,0,0,0,0,0,0,-1,2022,939,43.3538,-11.0305
805,85,43.3367,3.89349,0,0,0,0,0,0,0,-1,2029,939,43.3366,-3.89351
812,85,0,0,0,0,0,0,0,0,0,-1,2036,939,0,0
-700,78,0,0,0,0,0,0,0,0,0,-1,524,946,0,0
-693,78,0,0,0,0,0,0,0,0,0,-1,531,946,0,0
-686,78,-31.4091,7.61658,0.00794189,0.0167706,-0.0945377,0.106997,-0.0822845,-0.808728,0.109592,0.0443248,538,946,-31.4091,-7.61656
-679,78,-31.3519,6.11401,0.0002155,0.010625,-0.07567,0.081269,-0.0704285,-0.819735,0.0876571,0.0487412,545,946,-31.3519,-6.11399
-672,78,-31.2269,4.57751,-0.00549698,0.0067464,-0.0587172,0.0596602,-0.0584108,-0.837339,0.0681696,0.0495397,552,946,-31.2269,-4.57755
-665,78,-31.1266,3.0047,0,0,0,0,0,0,0,-1,559,946,-31.1266,-3.00471
-658,78,-31.1753,4.55725,0,0,0,0,0,0,0,-1,566,946,-31.1753,-4.55727
-651,78,-31.4476,4.34332,-0.0134275,0.00182923,-0.0203379,0.0159224,-0.0275206,-0.964819,0.025378,0.0459378,573,946,-31.4476,-4.34334
-644,78,-31.7065,4.13745,-0.0134349,0.00145488,-0.0120217,0.0081503,-0.0201304,-1.06264,0.0168091,0.0279278,580,946,-31.7065,-4.13743
-637,78,-31.9047,3.89557,-0.0122355,0.00136778,-0.00621354,0.00377865,-0.0146464,-1.20067,0.0112376,0.0157872,587,946,-31.9047,-3.89555
-630,78,-32.0234,3.59381,-0.011051,0.000707215,-0.00148225,0.00089119,-0.011235,-1.44731,0.00780404,0.0144127,594,946,-32.0235,-3.59379
-623,78,-32.0496,3.28925,-0.0100958,0.000493773,0.00146762,0.00069341,-0.0102954,1.4356,0.00710602,0.0125712,601,946,-32.0496,-3.28924
-616,78,-32.0613,2.98895,-0.00912035,0.000921161,0.00233304,0.00143675,-0.00963594,1.3533,0.00695253,0.0109578,608,946,-32.0613,-2.98895
-609,78,-32.0405,2.70624,-0.00781937,0.00121502,0.00116807,0.0013636,-0.00796795,1.44428,0.00581999,0.0118835,615,946,-32.0405,-2.70625
-602,78,-32.0557,2.38776,-0.00738824,0.0016247,0.000280729,0.00163344,-0.00739698,1.53969,0.00555641,0.0164867,622,946,-32.0557,-2.38775
-595,78,-32.0234,2.0564,-0.00680094,0.00186541,-0.000223793,0.00187119,-0.00680672,-1.545,0.00527339,0.0165851,629,946,-32.0234,-2.05642
-588,78,-32.0157,1.80115,-0.0066678,0.00161595,-0.000837991,0.00169987,-0.00675172,-1.47098,0.00516192,0.0138193,636,946,-32.0157,-1.80113
-581,78,-32.1387,1.52661,-0.00683661,0.00161987,-0.00135173,0.00183069,-0.00704742,-1.41608,0.00541271,0.0307258,643,946,-32.1387,-1.52664
-574,78,-32.8002,1.22638,-0.00678519,0.00167536,-0.00172169,0.0020123,-0.00712213,-1.37754,0.00554199,0.0378155,650,946,-32.8003,-1.22637
-567,78,-33.5496,1.08057,0,0,0,0,0,0,0,-1,657,946,-33.5496,-1.08056
-560,78,-33.6492,0.930603,-0.00679055,0.00227735,-0.00250718,0.00292439,-0.00743759,-1.31823,0.00616874,0.0340369,664,946,-33.6492,-0.930627
-553,78,-33.7108,0.828247,-0.0062898,0.00273063,-0.00284435,0.00355261,-0.00711178,-1.28947,0.00627035,0.0414766,671,946,-33.7107,-0.828268
-546,78,-33.6647,0.894653,-0.00521607,0.00325306,-0.00325782,0.00436123,-0.00632425,-1.24291,0.00620387,0.0429915,678,946,-33.6647,-0.894678
-539,78,-33.4665,1.01929,-0.00340961,0.00374959,-0.00386032,0.00543455,-0.00509457,-1.15924,0.00608005,0.0401414,685,946,-33.4665,-1.01929
-532,78,-33.5844,0.926453,-0.000725386,0.00411387,-0.0050279,0.00727406,-0.00388558,-1.00966,0.00654127,0.0401232,692,946,-33.5843,-0.926475
-525,78,-33.5355,0.883545,0.00135478,0.00496928,-0.00738834,0.0107682,-0.00444413,-0.905347,0.00903227,0.0379289,699,946,-33.5355,-0.883515
-518,78,-33.5399,0.790649,0.00127329,0.00679369,-0.0102693,0.0146673,-0.00660031,-0.916686,0.0125698,0.0391283,706,946,-33.5399,-0.790619
-511,78,0,0,0,0,0,0,0,0,0,-1,713,946,0,0
-504,78,0,0,0,0,0,0,0,0,0,-1,720,946,0,0
-497,78,0,0,0,0,0,0,0,0,0,-1,727,946,0,0
-490,78,0,0,0,0,0,0,0,0,0,-1,734,946,0,0
-483,78,0,0,0,0,0,0,0,0,0,-1,741,946,0,0
-476,78,0,0,0,0,0,0,0,0,0,-1,748,946,0,0
-469,78,0,0,0,0,0,0,0,0,0,-1,755,946,0,0
-462,78,0,0,0,0,0,0,0,0,0,-1,762,946,0,0
-455,78,0,0,0,0,0,0,0,0,0,-1,769,946,0,0
-448,78,0,0,0,0,0,0,0,0,0,-1,776,946,0,0
-441,78,0,0,0,0,0,0,0,0,0,-1,783,946,0,0
-434,78,0,0,0,0,0,0,0,0,0,-1,790,946,0,0
-427,78,0,0,0,0,0,0,0,0,0,-1,797,946,0,0
-420,78,0,0,0,0,0,0,0,0,0,-1,804,946,0,0
-413,78,0,0,0,0,0,0,0,0,0,-1,811,946,0,0
-406,78,0,0,0,0,0,0,0,0,0,-1,818,946,0,0
-399,78,0,0,0,0,0,0,0,0,0,-1,825,946,0,0
-392,78,0,0,0,0,0,0,0,0,0,-1,832,946,0,0
-385,78,0,0,0,0,0,0,0,0,0,-1,839,946,0,0
-378,78,0,0,0,0,0,0,0,0,0,-1,846,946,0,0
-371,78,0,0,0,0,0,0,0,0,0,-1,853,946,0,0
-364,78,0,0,0,0,0,0,0,0,0,-1,860,946,0,0
-357,78,0,0,0,0,0,0,0,0,0,-1,867,946,0,0
-350,78,0,0,0,0,0,0,0,0,0,-1,874,946,0,0
-343,78,0,0,0,0,0,0,0,0,0,-1,881,946,0,0
-336,78,0,0,0,0,0,0,0,0,0,-1,888,946,0,0
-329,78,0,0,0,0,0,0,0,0,0,-1,895,946,0,0
-322,78,0,0,0,0,0,0,0,0,0,-1,902,946,0,0
-315,78,0,0,0,0,0,0,0,0,0,-1,909,946,0,0
-308,78,0,0,0,0,0,0,0,0,0,-1,916,946,0,0
-301,78,0,0,0,0,0,0,0,0,0,-1,923,946,0,0
-294,78,0,0,0,0,0,0,0,0,0,-1,930,946,0,0
-287,78,0,0,0,0,0,0,0,0,0,-1,937,946,0,0
-280,78,0,0,0,0,0,0,0,0,0,-1,944,946,0,0
-273,78,0,0,0,0,0,0,0,0,0,-1,951,946,0,0
-266,78,0,0,0,0,0,0,0,0,0,-1,958,946,0,0
-259,78,0,0,0,0,0,0,0,0,0,-1,965,946,0,0
-252,78,0,0,0,0,0,0,0,0,0,-1,972,946,0,0
-245,78,0,0,0,0,0,0,0,0,0,-1,979,946,0,0
-238,78,0,0,0,0,0,0,0,0,0,-1,986,946,0,0
-231,78,0,0,0,0,0,0,0,0,0,-1,993,946,0,0
-224,78,0,0,0,0,0,0,0,0,0,-1,1000,946,0,0
-217,78,0,0,0,0,0,0,0,0,0,-1,1007,946,0,0
-210,78,0,0,0,0,0,0,0,0,0,-1,1014,946,0,0
-203,78,0,0,0,0,0,0,0,0,0,-1,1021,946,0,0
-196,78,0,0,0,0,0,0,0,0,0,-1,1028,946,0,0
-189,78,0,0,0,0,0,0,0,0,0,-1,1035,946,0,0
-182,78,0,0,0,0,0,0,0,0,0,-1,1042,946,0,0
-175,78,0,0,0,0,0,0,0,0,0,-1,1049,946,0,0
-168,78,0,0,0,0,0,0,0,0,0,-1,1056,946,0,0
-161,78,0,0,0,0,0,0,0,0,0,-1,1063,946,0,0
-154,78,0,0,0,0,0,0,0,0,0,-1,1070,946,0,0
-147,78,0,0,0,0,0,0,0,0,0,-1,1077,946,0,0
-140,78,0,0,0,0,0,0,0,0,0,-1,1084,946,0,0
-133,78,0,0,0,0,0,0,0,0,0,-1,1091,946,0,0
-126,78,0,0,0,0,0,0,0,0,0,-1,1098,946,0,0
-119,78,0,0,0,0,0,0,0,0,0,-1,1105,946,0,0
-112,78,0,0,0,0,0,0,0,0,0,-1,1112,946,0,0
-105,78,0,0,0,0,0,0,0,0,0,-1,1119,946,0,0
-98,78,0,0,0,0,0,0,0,0,0,-1,1126,946,0,0
-91,78,0,0,0,0,0,0,0,0,0,-1,1133,946,0,0
-84,78,0,0,0,0,0,0,0,0,0,-1,1140,946,0,0
-77,78,0,0,0,0,0,0,0,0,0,-1,1147,946,0,0
-70,78,0,0,0,0,0,0,0,0,0,-1,1154,946,0,0
-63,78,0,0,0,0,0,0,0,0,0,-1,1161,946,0,0
-56,78,0,0,0,0,0,0,0,0,0,-1,1168,946,0,0
-49,78,0,0,0,0,0,0,0,0,0,-1,1175,946,0,0
-42,78,0,0,0,0,0,0,0,0,0,-1,1182,946,0,0
-35,78,0,0,0,0,0,0,0,0,0,-1,1189,946,0,0
-28,78,0,0,0,0,0,0,0,0,0,-1,1196,946,0,0
-21,78,0,0,0,0,0,0,0,0,0,-1,1203,946,0,0
-14,78,0,0,0,0,0,0,0,0,0,-1,1210,946,0,0
-7,78,0,0,0,0,0,0,0,0,0,-1,1217,946,0,0
0,78,0,0,0,0,0,0,0,0,0,-1,1224,946,0,0
7,78,0,0,0,0,0,0,0,0,0,-1,1231,946,0,0
14,78,0,0,0,0,0,0,0,0,0,-1,1238,946,0,0
21,78,0,0,0,0,0,0,0,0,0,-1,1245,946,0,0
28,78,0,0,0,0,0,0,0,0,0,-1,1252,946,0,0
35,78,0,0,0,0,0,0,0,0,0,-1,1259,946,0,0
42,78,0,0,0,0,0,0,0,0,0,-1,1266,946,0,0
49,78,0,0,0,0,0,0,0,0,0,-1,1273,946,0,0
56,78,0,0,0,0,0,0,0,0,0,-1,1280,946,0,0
63,78,0,0,0,0,0,0,0,0,0,-1,1287,946,0,0
70,78,0,0,0,0,0,0,0,0,0,-1,1294,946,0,0
77,78,0,0,0,0,0,0,0,0,0,-1,1301,946,0,0
84,78,0,0,0,0,0,0,0,0,0,-1,1308,946,0,0
91,78,0,0,0,0,0,0,0,0,0,-1,1315,946,0,0
98,78,0,0,0,0,0,0,0,0,0,-1,1322,946,0,0
105,78,0,0,0,0,0,0,0,0,0,-1,1329,946,0,0
112,78,0,0,0,0,0,0,0,0,0,-1,1336,946,0,0
119,78,0,0,0,0,0,0,0,0,0,-1,1343,946,0,0
126,78,0,0,0,0,0,0,0,0,0,-1,1350,946,0,0
133,78,0,0,0,0,0,0,0,0,0,-1,1357,946,0,0
140,78,0,0,0,0,0,0,0,0,0,-1,1364,946,0,0
147,78,0,0,0,0,0,0,0,0,0,-1,1371,946,0,0
154,78,0,0,0,0,0,0,0,0,0,-1,1378,946,0,0
161,78,0,0,0,0,0,0,0,0,0,-1,1385,946,0,0
168,78,0,0,0,0,0,0,0,0,0,-1,1392,946,0,0
175,78,0,0,0,0,0,0,0,0,0,-1,1399,946,0,0
182,78,0,0,0,0,0,0,0,0,0,-1,1406,946,0,0
189,78,0,0,0,0,0,0,0,0,0,-1,1413,946,0,0
196,78,0,0,0,0,0,0,0,0,0,-1,1420,946,0,0
203,78,0,0,0,0,0,0,0,0,0,-1,1427,946,0,0
210,78,0,0,0,0,0,0,0,0,0,-1,1434,946,0,0
217,78,0,0,0,0,0,0,0,0,0,-1,1441,946,0,0
224,78,0,0,0,0,0,0,0,0,0,-1,1448,946,0,0
231,78,0,0,0,0,0,0,0,0,0,-1,1455,946,0,0
238,78,0,0,0,0,0,0,0,0,0,-1,1462,946,0,0
245,78,0,0,0,0,0,0,0,0,0,-1,1469,946,0,0
252,78,0,0,0,0,0,0,0,0,0,-1,1476,946,0,0
259,78,0,0,0,0,0,0,0,0,0,-1,1483,946,0,0
266,78,0,0,0,0,0,0,0,0,0,-1,1490,946,0,0
273,78,0,0,0,0,0,0,0,0,0,-1,1497,946,0,0
280,78,0,0,0,0,0,0,0,0,0,-1,1504,946,0,0
287,78,0,0,0,0,0,0,0,0,0,-1,1511,946,0,0
294,78,0,0,0,0,0,0,0,0,0,-1,1518,946,0,0
301,78,0,0,0,0,0,0,0,0,0,-1,1525,946,0,0
308,78,0,0,0,0,0,0,0,0,0,-1,1532,946,0,0
315,78,0,0,0,0,0,0,0,0,0,-1,1539,946,0,0
322,78,0,0,0,0,0,0,0,0,0,-1,1546,946,0,0
329,78,0,0,0,0,0,0,0,0,0,-1,1553,946,0,0
336,78,0,0,0,0,0,0,0,0,0,-1,1560,946,0,0
343,78,0,0,0,0,0,0,0,0,0,-1,1567,946,0,0
350,78,0,0,0,0,0,0,0,0,0,-1,1574,946,0,0
357,78,0,0,0,0,0,0,0,0,0,-1,1581,946,0,0
364,78,0,0,0,0,0,0,0,0,0,-1,1588,946,0,0
371,78,0,0,0,0,0,0,0,0,0,-1,1595,946,0,0
378,78,0,0,0,0,0,0,0,0,0,-1,1602,946,0,0
385,78,0,0,0,0,0,0,0,0,0,-1,1609,946,0,0
392,78,0,0,0,0,0,0,0,0,0,-1,1616,946,0,0
399,78,0,0,0,0,0,0,0,0,0,-1,1623,946,0,0
406,78,0,0,0,0,0,0,0,0,0,-1,1630,946,0,0
413,78,0,0,0,0,0,0,0,0,0,-1,1637,946,0,0
420,78,0,0,0,0,0,0,0,0,0,-1,1644,946,0,0
427,78,0,0,0,0,0,0,0,0,0,-1,1651,946,0,0
434,78,0,0,0,0,0,0,0,0,0,-1,1658,946,0,0
441,78,0,0,0,0,0,0,0,0,0,-1,1665,946,0,0
448,78,0,0,0,0,0,0,0,0,0,-1,1672,946,0,0
455,78,0,0,0,0,0,0,0,0,0,-1,1679,946,0,0
462,78,0,0,0,0,0,0,0,0,0,-1,1686,946,0,0
469,78,0,0,0,0,0,0,0,0,0,-1,1693,946,0,0
476,78,0,0,0,0,0,0,0,0,0,-1,1700,946,0,0
483,78,0,0,0,0,0,0,0,0,0,-1,1707,946,0,0
490,78,0,0,0,0,0,0,0,0,0,-1,1714,946,0,0
497,78,0,0,0,0,0,0,0,0,0,-1,1721,946,0,0
504,78,0,0,0,0,0,0,0,0,0,-1,1728,946,0,0
511,78,0,0,0,0,0,0,0,0,0,-1,1735,946,0,0
518,78,0,0,0,0,0,0,0,0,0,-1,1742,946,0,0
525,78,0,0,0,0,0,0,0,0,0,-1,1749,946,0,0
532,78,0,0,0,0,0,0,0,0,0,-1,1756,946,0,0
539,78,0,0,0,0,0,0,0,0,0,-1,1763,946,0,0
546,78,0,0,0,0,0,0,0,0,0,-1,1770,946,0,0
553,78,0,0,0,0,0,0,0,0,0,-1,1777,946,0,0
560,78,0,0,0,0,0,0,0,0,0,-1,1784,946,0,0
567,78,0,0,0,0,0,0,0,0,0,-1,1791,946,0,0
574,78,0,0,0,0,0,0,0,0,0,-1,1798,946,0,0
581,78,0,0,0,0,0,0,0,0,0,-1,1805,946,0,0
588,78,0,0,0,0,0,0,0,0,0,-1,1812,946,0,0
595,78,0,0,0,0,0,0,0,0,0,-1,1819,946,0,0
602,78,0,0,0,0,0,0,0,0,0,-1,1826,946,0,0
609,78,0,0,0,0,0,0,0,0,0,-1,1833,946,0,0
616,78,0,0,0,0,0,0,0,0,0,-1,1840,946,0,0
623,78,0,0,0,0,0,0,0,0,0,-1,1847,946,0,0
630,78,0,0,0,0,0,0,0,0,0,-1,1854,946,0,0
637,78,45.2644,2.76007,-0.000965713,0.00163677,0.00236283,0.00303297,-0.00236191,1.03709,0.00312276,0.0469968,1861,946,45.2644,-2.7601
644,78,45.1915,2.78595,-0.00093912,0.00116867,0.0011037,0.00164083,-0.00141128,1.16656,0.0017638,0.0446134,1868,946,45.1915,-2.78593
651,78,45.1733,2.67725,-0.000832854,0.000936379,0.000404403,0.00102443,-0.000920908,1.3564,0.00112367,0.0412351,1875,946,45.1734,-2.67722
658,78,45.1256,2.62964,-0.000791849,0.00096427,0.000316651,0.00101962,-0.0008472,1.39774,0.00107934,0.0376146,1882,946,45.1256,-2.62964
665,78,45.0375,2.56714,-0.000820449,0.00116227,0.000726572,0.00140001,-0.0010582,1.25456,0.00142381,0.0404143,1889,946,45.0375,-2.56716
672,78,45.0977,2.44104,-0.00101702,0.00125053,0.00134805,0.0018782,-0.00164469,1.13504,0.00203543,0.0423657,1896,946,45.0977,-2.44103
679,78,45.1748,2.55292,-0.00121748,0.0011694,0.00194068,0.00225424,-0.00230231,1.06107,0.00263077,0.04017,1903,946,45.1748,-2.55294
686,78,45.1455,2.59741,-0.00126966,0.000997187,0.00224788,0.00238123,-0.0026537,1.01891,0.00290834,0.0354616,1910,946,45.1455,-2.59741
693,78,45.0978,2.59857,-0.00134976,0.000862888,0.00221862,0.00223572,-0.00272259,1.01668,0.00286728,0.0289531,1917,946,45.0978,-2.59855
700,78,45.0756,2.66522,-0.00160164,0.000746553,0.00220073,0.00206679,-0.00292188,1.03044,0.00289428,0.024962,1924,946,45.0755,-2.66521
707,78,44.8066,3.45782,0,0,0,0,0,0,0,-1,1931,946,44.8067,-3.45781
714,78,42.5477,4.11273,0,0,0,0,0,0,0,-1,1938,946,42.5478,-4.11271
721,78,42.5696,4.43079,-0.00250899,0.00154278,0.00169204,0.00215644,-0.00312265,1.22287,0.00306486,0.0303487,1945,946,42.5696,-4.43081
728,78,42.621,4.86255,-0.00285436,0.00203883,0.0011897,0.00231275,-0.00312828,1.34449,0.00315312,0.0295311,1952,946,42.621,-4.86253
735,78,42.6774,5.16504,-0.00316454,0.00289427,0.000559528,0.00294551,-0.00321578,1.47948,0.00355836,0.0214037,1959,946,42.6773,-5.16501
742,78,42.7112,5.45929,-0.00344188,0.00368736,-0.000139823,0.0036901,-0.00344462,-1.55119,0.00412005,0.016327,1966,946,42.7112,-5.45927
749,78,42.6245,5.7782,-0.00338634,0.00422539,-0.00105114,0.00436788,-0.00352883,-1.43606,0.00456774,0.0132708,1973,946,42.6245,-5.77823
756,78,42.5995,6.07916,-0.0021064,0.00411892,-0.00223507,0.00483825,-0.00282573,-1.25942,0.00447537,0.0140245,1980,946,42.5995,-6.07914
763,78,42.522,6.37598,0.000394374,0.0038049,-0.00333666,0.0058468,-0.00164752,-1.02163,0.00454763,0.0157041,1987,946,42.522,-6.37598
770,78,42.444,6.70215,0.00366226,0.00232442,-0.00425855,0.0073041,-0.00131743,-0.707496,0.00536275,0.0221793,1994,946,42.444,-6.70215
777,78,42.4127,7.20752,0.00851002,-0.000843103,-0.00550122,0.0110538,-0.00338691,-0.433124,0.00872026,0.0425628,2001,946,42.4127,-7.2075
784,78,42.1821,7.59955,0.0158338,-0.00651621,-0.00707994,0.0178878,-0.00857019,-0.282362,0.0155881,0.0499504,2008,946,42.182,-7.59956
791,78,41.6067,7.63702,0,0,0,0,0,0,0,-1,2015,946,41.6067,-7.63704
798,78,43.1021,4.99615,0,0,0,0,0,0,0,-1,2022,946,43.1021,-4.99615
805,78,43.2346,4.30304,0,0,0,0,0,0,0,-1,2029,946,43.2347,-4.30302
812,78,0,0,0,0,0,0,0,0,0,-1,2036,946,0,0
-700,71,0,0,0,0,0,0,0,0,0,-1,524,953,0,0
-693,71,0,0,0,0,0,0,0,0,0,-1,531,953,0,0
-686,71,-31.8088,7.14978,0,0,0,0,0,0,0,-1,538,953,-31.8088,-7.14977
-679,71,-32.4156,5.64795,0,0,0,0,0,0,0,-1,545,953,-32.4156,-5.64793
-672,71,-31.2578,4.73425,-0.00762419,0.0182274,-0.0572435,0.0639864,-0.0533831,-0.896438,0.0678554,0.0466085,552,953,-31.2578,-4.73426
-665,71,-30.8739,2.96594,0,0,0,0,0,0,0,-1,559,953,-30.8739,-2.96595
-658,71,-31.5161,4.69958,0,0,0,0,0,0,0,-1,566,953,-31.5161,-4.69959
-651,71,-31.7738,4.46155,-0.0128478,0.0102191,-0.0207199,0.0223992,-0.025028,-1.03936,0.0273961,0.0445768,573,953,-31.7738,-4.46155
-644,71,-32.0068,4.13947,-0.0124915,0.00835515,-0.0125473,0.0142438,-0.0183802,-1.132,0.0188858,0.0330678,580,953,-32.0069,-4.13947
-637,71,-32.264,3.8454,-0.0109957,0.00683194,-0.00691685,0.00920081,-0.0133646,-1.24084,0.0131018,0.0162583,587,953,-32.264,-3.84538
-630,71,-32.3517,3.5545,-0.00979731,0.00477118,-0.00207769,0.00506169,-0.0100878,-1.43187,0.00890559,0.0149206,594,953,-32.3517,-3.55452
-623,71,-32.3765,3.24872,-0.00896253,0.00333907,0.000961714,0.0034138,-0.00903726,1.49325,0.00742899,0.0143062,601,953,-32.3765,-3.24872
-616,71,-32.3884,2.93439,-0.00828903,0.00273337,0.00171923,0.00299531,-0.00855096,1.4196,0.00691869,0.0142182,608,953,-32.3884,-2.93442
-609,71,-32.3524,2.70758,-0.00717808,0.00227284,0.000336099,0.00228478,-0.00719002,1.53529,0.00570941,0.0150493,615,953,-32.3524,-2.70756
-602,71,-32.326,2.43683,-0.00683975,0.00216793,-0.000664732,0.00221672,-0.00688854,-1.49753,0.00548273,0.0165455,622,953,-32.326,-2.43681
-595,71,-32.3471,2.16571,-0.00633071,0.00204669,-0.00121569,0.00221954,-0.00650356,-1.42956,0.00523482,0.0176003,629,953,-32.3471,-2.16569
-588,71,-32.33,1.95074,-0.00617442,0.00168125,-0.00184346,0.00209233,-0.00658551,-1.35139,0.00522923,0.0207655,636,953,-32.33,-1.95075
-581,71,-32.5743,1.44824,-0.00629901,0.00161006,-0.00240106,0.00228191,-0.00697085,-1.29796,0.00556604,0.0372977,643,953,-32.5743,-1.44821
-574,71,-33.2582,1.03973,-0.00621977,0.00165466,-0.00277406,0.00253379,-0.00709889,-1.2639,0.00576585,0.0401419,650,953,-33.2582,-1.03974
-567,71,-33.81,0.78833,0,0,0,0,0,0,0,-1,657,953,-33.81,-0.788345
-560,71,-33.6606,0.846375,-0.00600428,0.00224885,-0.00344924,0.00350056,-0.00725599,-1.22268,0.0063352,0.0271537,664,953,-33.6606,-0.846395
-553,71,-33.6774,0.886169,-0.00531324,0.00268331,-0.00370099,0.0041333,-0.00676323,-1.19739,0.0063519,0.0394327,671,953,-33.6774,-0.886147
-546,71,-33.6218,0.997925,-0.00400486,0.00314418,-0.00401508,0.00494536,-0.00580603,-1.14911,0.00621394,0.0431422,678,953,-33.6217,-0.997912
-539,71,-33.6064,1.03705,-0.00193387,0.00351293,-0.00453052,0.0060756,-0.00449654,-1.05602,0.00612648,0.0429859,685,953,-33.6064,-1.03704
-532,71,-33.8458,0.722351,0.00104241,0.00370397,-0.00574765,0.00827289,-0.00352651,-0.899161,0.00699369,0.0431124,692,953,-33.8458,-0.722361
-525,71,-33.6528,0.7771,0.0033458,0.00433055,-0.00842883,0.0122814,-0.00460503,-0.814573,0.0100796,0.0424682,699,953,-33.6528,-0.777116
-518,71,0,0,0,0,0,0,0,0,0,-1,706,953,0,0
-511,71,0,0,0,0,0,0,0,0,0,-1,713,953,0,0
-504,71,0,0,0,0,0,0,0,0,0,-1,720,953,0,0
-497,71,0,0,0,0,0,0,0,0,0,-1,727,953,0,0
-490,71,0,0,0,0,0,0,0,0,0,-1,734,953,0,0
-483,71,0,0,0,0,0,0,0,0,0,-1,741,953,0,0
-476,71,0,0,0,0,0,0,0,0,0,-1,748,953,0,0
-469,71,0,0,0,0,0,0,0,0,0,-1,755,953,0,0
-462,71,0,0,0,0,0,0,0,0,0,-1,762,953,0,0
-455,71,0,0,0,0,0,0,0,0,0,-1,769,953,0,0
-448,71,0,0,0,0,0,0,0,0,0,-1,776,953,0,0
-441,71,0,0,0,0,0,0,0,0,0,-1,783,953,0,0
-434,71,0,0,0,0,0,0,0,0,0,-1,790,953,0,0
-427,71,0,0,0,0,0,0,0,0,0,-1,797,953,0,0
-420,71,0,0,0,0,0,0,0,0,0,-1,804,953,0,0
-413,71,0,0,0,0,0,0,0,0,0,-1,811,953,0,0
-406,71,0,0,0,0,0,0,0,0,0,-1,818,953,0,0
-399,71,0,0,0,0,0,0,0,0,0,-1,825,953,0,0
-392,71,0,0,0,0,0,0,0,0,0,-1,832,953,0,0
-385,71,0,0,0,0,0,0,0,0,0,-1,839,953,0,0
-378,71,0,0,0,0,0,0,0,0,0,-1,846,953,0,0
-371,71,0,0,0,0,0,0,0,0,0,-1,853,953,0,0
-364,71,0,0,0,0,0,0,0,0,0,-1,860,953,0,0
-357,71,0,0,0,0,0,0,0,0,0,-1,867,953,0,0
-350,71,0,0,0,0,0,0,0,0,0,-1,874,953,0,0
-343,71,0,0,0,0,0,0,0,0,0,-1,881,953,0,0
-336,71,0,0,0,0,0,0,0,0,0,-1,888,953,0,0
-329,71,0,0,0,0,0,0,0,0,0,-1,895,953,0,0
-322,71,0,0,0,0,0,0,0,0,0,-1,902,953,0,0
-315,71,0,0,0,0,0,0,0,0,0,-1,909,953,0,0
-308,71,0,0,0,0,0,0,0,0,0,-1,916,953,0,0
-301,71,0,0,0,0,0,0,0,0,0,-1,923,953,0,0
-294,71,0,0,0,0,0,0,0,0,0,-1,930,953,0,0
-287,71,0,0,0,0,0,0,0,0,0,-1,937,953,0,0
-280,71,0,0,0,0,0,0,0,0,0,-1,944,953,0,0
-273,71,0,0,0,0,0,0,0,0,0,-1,951,953,0,0
-266,71,0,0,0,0,0,0,0,0,0,-1,958,953,0,0
-259,71,0,0,0,0,0,0,0,0,0,-1,965,953,0,0
-252,71,0,0,0,0,0,0,0,0,0,-1,972,953,0,0
-245,71,0,0,0,0,0,0,0,0,0,-1,979,953,0,0
-238,71,0,0,0,0,0,0,0,0,0,-1,986,953,0,0
-231,71,0,0,0,0,0,0,0,0,0,-1,993,953,0,0
-224,71,0,0,0,0,0,0,0,0,0,-1,1000,953,0,0
-217,71,0,0,0,0,0,0,0,0,0,-1,1007,953,0,0
-210,71,0,0,0,0,0,0,0,0,0,-1,1014,953,0,0
-203,71,0,0,0,0,0,0,0,0,0,-1,1021,953,0,0
-196,71,0,0,0,0,0,0,0,0,0,-1,1028,953,0,0
-189,71,0,0,0,0,0,0,0,0,0,-1,1035,953,0,0
-182,71,0,0,0,0,0,0,0,0,0,-1,1042,953,0,0
-175,71,0,0,0,0,0,0,0,0,0,-1,1049,953,0,0
-168,71,0,0,0,0,0,0,0,0,0,-1,1056,953,0,0
-161,71,0,0,0,0,0,0,0,0,0,-1,1063,953,0,0
-154,71,0,0,0,0,0,0,0,0,0,-1,1070,953,0,0
-147,71,0,0,0,0,0,0,0,0,0,-1,1077,953,0,0
-140,71,0,0,0,0,0,0,0,0,0,-1,1084,953,0,0
-133,71,0,0,0,0,0,0,0,0,0,-1,1091,953,0,0
-126,71,0,0,0,0,0,0,0,0,0,-1,1098,953,0,0
-119,71,0,0,0,0,0,0,0,0,0,-1,1105,953,0,0
-112,71,0,0,0,0,0,0,0,0,0,-1,1112,953,0,0
-105,71,0,0,0,0,0,0,0,0,0,-1,1119,953,0,0
-98,71,0,0,0,0,0,0,0,0,0,-1,1126,953,0,0
-91,71,0,0,0,0,0,0,0,0,0,-1,1133,953,0,0
-84,71,0,0,0,0,0,0,0,0,0,-1,1140,953,0,0
-77,71,0,0,0,0,0,0,0,0,0,-1,1147,953,0,0
-70,71,0,0,0,0,0,0,0,0,0,-1,1154,953,0,0
-63,71,0,0,0,0,0,0,0,0,0,-1,1161,953,0,0
-56,71,0,0,0,0,0,0,0,0,0,-1,1168,953,0,0
-49,71,0,0,0,0,0,0,0,0,0,-1,1175,953,0,0
-42,71,0,0,0,0,0,0,0,0,0,-1,1182,953,0,0
-35,71,0,0,0,0,0,0,0,0,0,-1,1189,953,0,0
-28,71,0,0,0,0,0,0,0,0,0,-1,1196,953,0,0
-21,71,0,0,0,0,0,0,0,0,0,-1,1203,953,0,0
-14,71,0,0,0,0,0,0,0,0,0,-1,1210,953,0,0
-7,71,0,0,0,0,0,0,0,0,0,-1,1217,953,0,0
0,71,0,0,0,0,0,0,0,0,0,-1,1224,953,0,0
7,71,0,0,0,0,0,0,0,0,0,-1,1231,953,0,0
14,71,0,0,0,0,0,0,0,0,0,-1,1238,953,0,0
21,71,0,0,0,0,0,0,0,0,0,-1,1245,953,0,0
28,71,0,0,0,0,0,0,0,0,0,-1,1252,953,0,0
35,71,0,0,0,0,0,0,0,0,0,-1,1259,953,0,0
42,71,0,0,0,0,0,0,0,0,0,-1,1266,953,0,0
49,71,0,0,0,0,0,0,0,0,0,-1,1273,953,0,0
56,71,0,0,0,0,0,0,0,0,0,-1,1280,953,0,0
63,71,0,0,0,0,0,0,0,0,0,-1,1287,953,0,0
70,71,0,0,0,0,0,0,0,0,0,-1,1294,953,0,0
77,71,0,0,0,0,0,0,0,0,0,-1,1301,953,0,0
84,71,0,0,0,0,0,0,0,0,0,-1,1308,953,0,0
91,71,0,0,0,0,0,0,0,0,0,-1,1315,953,0,0
98,71,0,0,0,0,0,0,0,0,0,-1,1322,953,0,0
105,71,0,0,0,0,0,0,0,0,0,-1,1329,953,0,0
112,71,0,0,0,0,0,0,0,0,0,-1,1336,953,0,0
119,71,0,0,0,0,0,0,0,0,0,-1,1343,953,0,0
126,71,0,0,0,0,0,0,0,0,0,-1,1350,953,0,0
133,71,0,0,0,0,0,0,0,0,0,-1,1357,953,0,0
140,71,0,0,0,0,0,0,0,0,0,-1,1364,953,0,0
147,71,0,0,0,0,0,0,0,0,0,-1,1371,953,0,0
154,71,0,0,0,0,0,0,0,0,0,-1,1378,953,0,0
161,71,0,0,0,0,0,0,0,0,0,-1,1385,953,0,0
168,71,0,0,0,0,0,0,0,0,0,-1,1392,953,0,0
175,71,0,0,0,0,0,0,0,0,0,-1,1399,953,0,0
182,71,0,0,0,0,0,0,0,0,0,-1,1406,953,0,0
189,71,0,0,0,0,0,0,0,0,0,-1,1413,953,0,0
196,71,0,0,0,0,0,0,0,0,0,-1,1420,953,0,0
203,71,0,0,0,0,0,0,0,0,0,-1,1427,953,0,0
210,71,0,0,0,0,0,0,0,0,0,-1,1434,953,0,0
217,71,0,0,0,0,0,0,0,0,0,-1,1441,953,0,0
224,71,0,0,0,0,0,0,0,0,0,-1,1448,953,0,0
231,71,0,0,0,0,0,0,0,0,0,-1,1455,953,0,0
238,71,0,0,0,0,0,0,0,0,0,-1,1462,953,0,0
245,71,0,0,0,0,0,0,0,0,0,-1,1469,953,0,0
252,71,0,0,0,0,0,0,0,0,0,-1,1476,953,0,0
259,71,0,0,0,0,0,0,0,0,0,-1,1483,953,0,0
266,71,0,0,0,0,0,0,0,0,0,-1,1490,953,0,0
273,71,0,0,0,0,0,0,0,0,0,-1,1497,953,0,0
280,71,0,0,0,0,0,0,0,0,0,-1,1504,953,0,0
287,71,0,0,0,0,0,0,0,0,0,-1,1511,953,0,0
294,71,0,0,0,0,0,0,0,0,0,-1,1518,953,0,0
301,71,0,0,0,0,0,0,0,0,0,-1,1525,953,0,0
308,71,0,0,0,0,0,0,0,0,0,-1,1532,953,0,0
315,71,0,0,0,0,0,0,0,0,0,-1,1539,953,0,0
322,71,0,0,0,0,0,0,0,0,0,-1,1546,953,0,0
329,71,0,0,0,0,0,0,0,0,0,-1,1553,953,0,0
336,71,0,0,0,0,0,0,0,0,0,-1,1560,953,0,0
343,71,0,0,0,0,0,0,0,0,0,-1,1567,953,0,0
350,71,0,0,0,0,0,0,0,0,0,-1,1574,953,0,0
357,71,0,0,0,0,0,0,0,0,0,-1,1581,953,0,0
364,71,0,0,0,0,0,0,0,0,0,-1,1588,953,0,0
371,71,0,0,0,0,0,0,0,0,0,-1,1595,953,0,0
378,71,0,0,0,0,0,0,0,0,0,-1,1602,953,0,0
385,71,0,0,0,0,0,0,0,0,0,-1,1609,953,0,0
392,71,0,0,0,0,0,0,0,0,0,-1,1616,953,0,0
399,71,0,0,0,0,0,0,0,0,0,-1,1623,953,0,0
406,71,0,0,0,0,0,0,0,0,0,-1,1630,953,0,0
413,71,0,0,0,0,0,0,0,0,0,-1,1637,953,0,0
420,71,0,0,0,0,0,0,0,0,0,-1,1644,953,0,0
427,71,0,0,0,0,0,0,0,0,0,-1,1651,953,0,0
434,71,0,0,0,0,0,0,0,0,0,-1,1658,953,0,0
441,71,0,0,0,0,0,0,0,0,0,-1,1665,953,0,0
448,71,0,0,0,0,0,0,0,0,0,-1,1672,953,0,0
455,71,0,0,0,0,0,0,0,0,0,-1,1679,953,0,0
462,71,0,0,0,0,0,0,0,0,0,-1,1686,953,0,0
469,71,0,0,0,0,0,0,0,0,0,-1,1693,953,0,0
476,71,0,0,0,0,0,0,0,0,0,-1,1700,953,0,0
483,71,0,0,0,0,0,0,0,0,0,-1,1707,953,0,0
490,71,0,0,0,0,0,0,0,0,0,-1,1714,953,0,0
497,71,0,0,0,0,0,0,0,0,0,-1,1721,953,0,0
504,71,0,0,0,0,0,0,0,0,0,-1,1728,953,0,0
511,71,0,0,0,0,0,0,0,0,0,-1,1735,953,0,0
518,71,0,0,0,0,0,0,0,0,0,-1,1742,953,0,0
525,71,0,0,0,0,0,0,0,0,0,-1,1749,953,0,0
532,71,0,0,0,0,0,0,0,0,0,-1,1756,953,0,0
539,71,0,0,0,0,0,0,0,0,0,-1,1763,953,0,0
546,71,0,0,0,0,0,0,0,0,0,-1,1770,953,0,0
553,71,0,0,0,0,0,0,0,0,0,-1,1777,953,0,0
560,71,0,0,0,0,0,0,0,0,0,-1,1784,953,0,0
567,71,0,0,0,0,0,0,0,0,0,-1,1791,953,0,0
574,71,0,0,0,0,0,0,0,0,0,-1,1798,953,0,0
581,71,0,0,0,0,0,0,0,0,0,-1,1805,953,0,0
588,71,0,0,0,0,0,0,0,0,0,-1,1812,953,0,0
595,71,0,0,0,0,0,0,0,0,0,-1,1819,953,0,0
602,71,0,0,0,0,0,0,0,0,0,-1,1826,953,0,0
609,71,0,0,0,0,0,0,0,0,0,-1,1833,953,0,0
616,71,0,0,0,0,0,0,0,0,0,-1,1840,953,0,0
623,71,0,0,0,0,0,0,0,0,0,-1,1847,953,0,0
630,71,0,0,0,0,0,0,0,0,0,-1,1854,953,0,0
637,71,45.1116,2.72034,-0.00142008,0.00161408,0.00307965,0.00353005,-0.00333604,1.01426,0.00396467,0.0429767,1861,953,45.1116,-2.72036
644,71,45.0068,2.90863,-0.0013435,0.00112145,0.00159022,0.00190089,-0.00212294,1.11506,0.00232434,0.0451944,1868,953,45.0068,-2.90862
651,71,45.0225,2.84686,-0.00114489,0.000873311,0.000689334,0.00108628,-0.00135787,1.27114,0.00141403,0.040071,1875,953,45.0225,-2.84686
658,71,45.1219,2.54626,-0.00100094,0.000868878,0.000453238,0.000972949,-0.00110501,1.34509,0.00120052,0.0363869,1882,953,45.1219,-2.54628
665,71,45.1544,2.63989,-0.000986805,0.00110901,0.000812767,0.00138726,-0.00126506,1.24095,0.00153186,0.0385542,1889,953,45.1545,-2.63989
672,71,45.0061,2.41595,-0.00117202,0.00127943,0.00144207,0.00194632,-0.00183891,1.13764,0.0021857,0.0411525,1896,953,45.006,-2.41597
679,71,45.0662,2.349,-0.00138143,0.00129654,0.00211612,0.00246172,-0.0025466,1.06748,0.0028917,0.0400084,1903,953,45.0662,-2.34898
686,71,45.0776,2.36682,-0.00145451,0.00118121,0.00252195,0.00270887,-0.00298217,1.02616,0.00328699,0.0368904,1910,953,45.0776,-2.36681
693,71,45.0898,2.42743,-0.00153508,0.00106369,0.00258735,0.00265961,-0.003131,1.0181,0.0033469,0.031475,1917,953,45.0899,-2.42741
700,71,45.0662,2.53064,-0.00176957,0.000963408,0.00260141,0.00253539,-0.00334155,1.02723,0.00340368,0.0263614,1924,953,45.0662,-2.53061
707,71,44.9307,3.0672,-0.00207878,0.00106215,0.00257455,0.00250743,-0.00352405,1.05927,0.00349873,0.0384103,1931,953,44.9306,-3.06722
714,71,43.3058,4.20648,0,0,0,0,0,0,0,-1,1938,953,43.3058,-4.2065
721,71,43.1248,4.48871,-0.00273508,0.00180939,0.00209632,0.00262869,-0.00355438,1.19822,0.00358311,0.0417012,1945,953,43.1248,-4.48871
728,71,42.9722,4.88873,-0.00308007,0.00235104,0.0015961,0.00278537,-0.0035144,1.30511,0.00364529,0.0248866,1952,953,42.9722,-4.88874
735,71,42.9893,5.19818,-0.00341215,0.00328906,0.000884468,0.00340384,-0.00352692,1.44175,0.00400169,0.0190381,1959,953,42.9892,-5.1982
742,71,43.0253,5.461,-0.00376635,0.00410027,3.42581e-05,0.00410042,-0.0037665,1.56644,0.00454333,0.0190343,1966,953,43.0252,-5.46099
749,71,43,5.74927,-0.00375757,0.00453977,-0.00112829,0.00469046,-0.00390826,-1.43803,0.00497131,0.0172611,1973,953,43,-5.74927
756,71,42.9813,6.0354,-0.002414,0.00434066,-0.00271541,0.0052969,-0.00337023,-1.23221,0.00504502,0.0159928,1980,953,42.9814,-6.0354
763,71,42.9314,6.3446,0.000311248,0.00396901,-0.00442814,0.00693108,-0.00265082,-0.981235,0.00571314,0.0205044,1987,953,42.9314,-6.34462
770,71,42.7131,6.57611,0.00382341,0.00248255,-0.00598589,0.0091763,-0.00287034,-0.72963,0.00726582,0.0255623,1994,953,42.7132,-6.57611
777,71,42.7374,7.08734,0.00897976,-0.000603033,-0.00792051,0.0134454,-0.00506863,-0.513378,0.0110477,0.0452448,2001,953,42.7374,-7.08735
784,71,42.4209,7.23065,0.0166846,-0.00603551,-0.0102791,0.0206448,-0.00999575,-0.367744,0.018043,0.0481944,2008,953,42.4208,-7.23065
791,71,41.8867,7.26746,0,0,0,0,0,0,0,-1,2015,953,41.8866,-7.26746
798,71,41.3037,7.29156,0,0,0,0,0,0,0,-1,2022,953,41.3038,-7.29157
805,71,43.5295,4.75482,0,0,0,0,0,0,0,-1,2029,953,43.5295,-4.75484
812,71,0,0,0,0,0,0,0,0,0,-1,2036,953,0,0
-700,64,0,0,0,0,0,0,0,0,0,-1,524,960,0,0
-693,64,0,0,0,0,0,0,0,0,0,-1,531,960,0,0
-686,64,-32.2095,6.64197,-0.00221966,0.0376873,-0.088999,0.108942,-0.0734745,-0.895674,0.10598,0.0461944,538,960,-32.2095,-6.64198
-679,64,-32.4438,5.29242,-0.00802351,0.0318835,-0.071216,0.0858885,-0.0620285,-0.921987,0.0857694,0.0466562,545,960,-32.4438,-5.29239
-672,64,-32.5521,3.87244,0,0,0,0,0,0,0,-1,552,960,-32.5521,-3.87243
-665,64,-31.9355,2.41931,0,0,0,0,0,0,0,-1,559,960,-31.9355,-2.41931
-658,64,-32.0179,4.73969,0,0,0,0,0,0,0,-1,566,960,-32.0179,-4.7397
-651,64,-32.2632,4.52625,-0.0135608,0.0167318,-0.0208845,0.0273841,-0.0242131,-1.09913,0.0298085,0.0422083,573,960,-32.2632,-4.52624
-644,64,-32.565,4.10938,-0.0125461,0.0137523,-0.0130077,0.0190991,-0.0178929,-1.1808,0.0213611,0.03172,580,960,-32.565,-4.10937
-637,64,-32.6103,3.71198,-0.0104923,0.0111949,-0.00768629,0.0136428,-0.0129401,-1.26248,0.0153494,0.0167797,587,960,-32.6103,-3.71196
-630,64,-32.6594,3.48114,-0.00900446,0.00813985,-0.00286841,0.00860703,-0.00947165,-1.40934,0.0104417,0.0135013,594,960,-32.6594,-3.48114
-623,64,-32.6713,3.21332,-0.00794213,0.00584382,0.000155825,0.00584558,-0.0079439,1.5595,0.00799202,0.0141593,601,960,-32.6713,-3.21333
-616,64,-32.6778,2.93707,-0.00734279,0.00448496,0.000786433,0.00453702,-0.00739485,1.50469,0.00695442,0.0176718,608,960,-32.6778,-2.93706
-609,64,-32.6638,2.73334,-0.00632454,0.00343864,-0.000784393,0.00350126,-0.00638716,-1.49114,0.00578956,0.0167903,615,960,-32.6638,-2.73334
-602,64,-32.6434,2.4964,-0.0060064,0.00290532,-0.00187889,0.00328526,-0.00638634,-1.37127,0.00567877,0.0169505,622,960,-32.6434,-2.49642
-595,64,-32.6487,2.27606,-0.00554101,0.00246652,-0.00245521,0.00315937,-0.00623387,-1.29575,0.00551917,0.0197733,629,960,-32.6487,-2.27608
-588,64,-32.6228,2.12659,-0.00536876,0.00198846,-0.00307388,0.00310369,-0.00648399,-1.22276,0.00564896,0.0304739,636,960,-32.6228,-2.12656
-581,64,-32.9143,1.51947,-0.00545723,0.00182544,-0.0036309,0.00332635,-0.00695815,-1.17881,0.00605991,0.0409515,643,960,-32.9143,-1.51948
-574,64,-33.4325,0.968262,-0.00534388,0.00181386,-0.00396692,0.00357772,-0.00710774,-1.15241,0.00628047,0.0410393,650,960,-33.4325,-0.968284
-567,64,-33.5567,0.778564,-0.00530255,0.00192632,-0.00425794,0.00389706,-0.00727329,-1.13732,0.00654666,0.0245247,657,960,-33.5567,-0.778542
-560,64,-33.5745,0.739197,-0.00498869,0.00223259,-0.00437017,0.00429074,-0.00704683,-1.13066,0.00660991,0.0338175,664,960,-33.5745,-0.739211
-553,64,-33.5394,0.719788,-0.00420939,0.00254733,-0.00443753,0.00474615,-0.00640821,-1.11075,0.00646376,0.0400951,671,960,-33.5395,-0.71979
-546,64,-33.5719,0.968201,-0.00282906,0.00282444,-0.00454956,0.00535391,-0.00535852,-1.06337,0.00618483,0.0425734,678,960,-33.5719,-0.968173
-539,64,-33.6047,1.0683,-0.00070545,0.00292169,-0.00490503,0.00633768,-0.00412145,-0.962472,0.0060836,0.0414035,685,960,-33.6047,-1.06832
-532,64,-33.8314,0.821533,0.00227821,0.002831,-0.00617584,0.00873662,-0.00362742,-0.807761,0.00733873,0.040181,692,960,-33.8314,-0.821524
-525,64,-33.7004,0.701172,0.00450631,0.00303376,-0.0091783,0.0129778,-0.00543776,-0.745374,0.0109253,0.0420504,699,960,-33.7004,-0.701198
-518,64,0,0,0,0,0,0,0,0,0,-1,706,960,0,0
-511,64,0,0,0,0,0,0,0,0,0,-1,713,960,0,0
-504,64,0,0,0,0,0,0,0,0,0,-1,720,960,0,0
-497,64,0,0,0,0,0,0,0,0,0,-1,727,960,0,0
-490,64,0,0,0,0,0,0,0,0,0,-1,734,960,0,0
-483,64,0,0,0,0,0,0,0,0,0,-1,741,960,0,0
-476,64,0,0,0,0,0,0,0,0,0,-1,748,960,0,0
-469,64,0,0,0,0,0,0,0,0,0,-1,755,960,0,0
-462,64,0,0,0,0,0,0,0,0,0,-1,762,960,0,0
-455,64,0,0,0,0,0,0,0,0,0,-1,769,960,0,0
-448,64,0,0,0,0,0,0,0,0,0,-1,776,960,0,0
-441,64,0,0,0,0,0,0,0,0,0,-1,783,960,0,0
-434,64,0,0,0,0,0,0,0,0,0,-1,790,960,0,0
-427,64,0,0,0,0,0,0,0,0,0,-1,797,960,0,0
-420,64,0,0,0,0,0,0,0,0,0,-1,804,960,0,0
-413,64,0,0,0,0,0,0,0,0,0,-1,811,960,0,0
-406,64,0,0,0,0,0,0,0,0,0,-1,818,960,0,0
-399,64,0,0,0,0,0,0,0,0,0,-1,825,960,0,0
-392,64,0,0,0,0,0,0,0,0,0,-1,832,960,0,0
-385,64,0,0,0,0,0,0,0,0,0,-1,839,960,0,0
-378,64,0,0,0,0,0,0,0,0,0,-1,846,960,0,0
-371,64,0,0,0,0,0,0,0,0,0,-1,853,960,0,0
-364,64,0,0,0,0,0,0,0,0,0,-1,860,960,0,0
-357,64,0,0,0,0,0,0,0,0,0,-1,867,960,0,0
-350,64,0,0,0,0,0,0,0,0,0,-1,874,960,0,0
-343,64,0,0,0,0,0,0,0,0,0,-1,881,960,0,0
-336,64,0,0,0,0,0,0,0,0,0,-1,888,960,0,0
-329,64,0,0,0,0,0,0,0,0,0,-1,895,960,0,0
-322,64,0,0,0,0,0,0,0,0,0,-1,902,960,0,0
-315,64,0,0,0,0,0,0,0,0,0,-1,909,960,0,0
-308,64,0,0,0,0,0,0,0,0,0,-1,916,960,0,0
-301,64,0,0,0,0,0,0,0,0,0,-1,923,960,0,0
-294,64,0,0,0,0,0,0,0,0,0,-1,930,960,0,0
-287,64,0,0,0,0,0,0,0,0,0,-1,937,960,0,0
-280,64,0,0,0,0,0,0,0,0,0,-1,944,960,0,0
-273,64,0,0,0,0,0,0,0,0,0,-1,951,960,0,0
-266,64,0,0,0,0,0,0,0,0,0,-1,958,960,0,0
-259,64,0,0,0,0,0,0,0,0,0,-1,965,960,0,0
-252,64,0,0,0,0,0,0,0,0,0,-1,972,960,0,0
-245,64,0,0,0,0,0,0,0,0,0,-1,979,960,0,0
-238,64,0,0,0,0,0,0,0,0,0,-1,986,960,0,0
-231,64,0,0,0,0,0,0,0,0,0,-1,993,960,0,0
-224,64,0,0,0,0,0,0,0,0,0,-1,1000,960,0,0
-217,64,0,0,0,0,0,0,0,0,0,-1,1007,960,0,0
-210,64,0,0,0,0,0,0,0,0,0,-1,1014,960,0,0
-203,64,0,0,0,0,0,0,0,0,0,-1,1021,960,0,0
-196,64,0,0,0,0,0,0,0,0,0,-1,1028,960,0,0
-189,64,0,0,0,0,0,0,0,0,0,-1,1035,960,0,0
-182,64,0,0,0,0,0,0,0,0,0,-1,1042,960,0,0
-175,64,0,0,0,0,0,0,0,0,0,-1,1049,960,0,0
-168,64,0,0,0,0,0,0,0,0,0,-1,1056,960,0,0
-161,64,0,0,0,0,0,0,0,0,0,-1,1063,960,0,0
-154,64,0,0,0,0,0,0,0,0,0,-1,1070,960,0,0
-147,64,0,0,0,0,0,0,0,0,0,-1,1077,960,0,0
-140,64,0,0,0,0,0,0,0,0,0,-1,1084,960,0,0
-133,64,0,0,0,0,0,0,0,0,0,-1,1091,960,0,0
-126,64,0,0,0,0,0,0,0,0,0,-1,1098,960,0,0
-119,64,0,0,0,0,0,0,0,0,0,-1,1105,960,0,0
-112,64,0,0,0,0,0,0,0,0,0,-1,1112,960,0,0
-105,64,0,0,0,0,0,0,0,0,0,-1,1119,960,0,0
-98,64,0,0,0,0,0,0,0,0,0,-1,1126,960,0,0
-91,64,0,0,0,0,0,0,0,0,0,-1,1133,960,0,0
-84,64,0,0,0,0,0,0,0,0,0,-1,1140,960,0,0
-77,64,0,0,0,0,0,0,0,0,0,-1,1147,960,0,0
-70,64,0,0,0,0,0,0,0,0,0,-1,1154,960,0,0
-63,64,0,0,0,0,0,0,0,0,0,-1,1161,960,0,0
-56,64,0,0,0,0,0,0,0,0,0,-1,1168,960,0,0
-49,64,0,0,0,0,0,0,0,0,0,-1,1175,960,0,0
-42,64,0,0,0,0,0,0,0,0,0,-1,1182,960,0,0
-35,64,0,0,0,0,0,0,0,0,0,-1,1189,960,0,0
-28,64,0,0,0,0,0,0,0,0,0,-1,1196,960,0,0
-21,64,0,0,0,0,0,0,0,0,0,-1,1203,960,0,0
-14,64,0,0,0,0,0,0,0,0,0,-1,1210,960,0,0
-7,64,0,0,0,0,0,0,0,0,0,-1,1217,960,0,0
0,64,0,0,0,0,0,0,0,0,0,-1,1224,960,0,0
7,64,0,0,0,0,0,0,0,0,0,-1,1231,960,0,0
14,64,0,0,0,0,0,0,0,0,0,-1,1238,960,0,0
21,64,0,0,0,0,0,0,0,0,0,-1,1245,960,0,0
28,64,0,0,0,0,0,0,0,0,0,-1,1252,960,0,0
35,64,0,0,0,0,0,0,0,0,0,-1,1259,960,0,0
42,64,0,0,0,0,0,0,0,0,0,-1,1266,960,0,0
49,64,0,0,0,0,0,0,0,0,0,-1,1273,960,0,0
56,64,0,0,0,0,0,0,0,0,0,-1,1280,960,0,0
63,64,0,0,0,0,0,0,0,0,0,-1,1287,960,0,0
70,64,0,0,0,0,0,0,0,0,0,-1,1294,960,0,0
77,64,0,0,0,0,0,0,0,0,0,-1,1301,960,0,0
84,64,0,0,0,0,0,0,0,0,0,-1,1308,960,0,0
91,64,0,0,0,0,0,0,0,0,0,-1,1315,960,0,0
98,64,0,0,0,0,0,0,0,0,0,-1,1322,960,0,0
105,64,0,0,0,0,0,0,0,0,0,-1,1329,960,0,0
112,64,0,0,0,0,0,0,0,0,0,-1,1336,960,0,0
119,64,0,0,0,0,0,0,0,0,0,-1,1343,960,0,0
126,64,0,0,0,0,0,0,0,0,0,-1,1350,960,0,0
133,64,0,0,0,0,0,0,0,0,0,-1,1357,960,0,0
140,64,0,0,0,0,0,0,0,0,0,-1,1364,960,0,0
147,64,0,0,0,0,0,0,0,0,0,-1,1371,960,0,0
154,64,0,0,0,0,0,0,0,0,0,-1,1378,960,0,0
161,64,0,0,0,0,0,0,0,0,0,-1,1385,960,0,0
168,64,0,0,0,0,0,0,0,0,0,-1,1392,960,0,0
175,64,0,0,0,0,0,0,0,0,0,-1,1399,960,0,0
182,64,0,0,0,0,0,0,0,0,0,-1,1406,960,0,0
189,64,0,0,0,0,0,0,0,0,0,-1,1413,960,0,0
196,64,0,0,0,0,0,0,0,0,0,-1,1420,960,0,0
203,64,0,0,0,0,0,0,0,0,0,-1,1427,960,0,0
210,64,0,0,0,0,0,0,0,0,0,-1,1434,960,0,0
217,64,0,0,0,0,0,0,0,0,0,-1,1441,960,0,0
224,64,0,0,0,0,0,0,0,0,0,-1,1448,960,0,0
231,64,0,0,0,0,0,0,0,0,0,-1,1455,960,0,0
238,64,0,0,0,0,0,0,0,0,0,-1,1462,960,0,0
245,64,0,0,0,0,0,0,0,0,0,-1,1469,960,0,0
252,64,0,0,0,0,0,0,0,0,0,-1,1476,960,0,0
259,64,0,0,0,0,0,0,0,0,0,-1,1483,960,0,0
266,64,0,0,0,0,0,0,0,0,0,-1,1490,960,0,0
273,64,0,0,0,0,0,0,0,0,0,-1,1497,960,0,0
280,64,0,0,0,0,0,0,0,0,0,-1,1504,960,0,0
287,64,0,0,0,0,0,0,0,0,0,-1,1511,960,0,0
294,64,0,0,0,0,0,0,0,0,0,-1,1518,960,0,0
301,64,0,0,0,0,0,0,0,0,0,-1,1525,960,0,0
308,64,0,0,0,0,0,0,0,0,0,-1,1532,960,0,0
315,64,0,0,0,0,0,0,0,0,0,-1,1539,960,0,0
322,64,0,0,0,0,0,0,0,0,0,-1,1546,960,0,0
329,64,0,0,0,0,0,0,0,0,0,-1,1553,960,0,0
336,64,0,0,0,0,0,0,0,0,0,-1,1560,960,0,0
343,64,0,0,0,0,0,0,0,0,0,-1,1567,960,0,0
350,64,0,0,0,0,0,0,0,0,0,-1,1574,960,0,0
357,64,0,0,0,0,0,0,0,0,0,-1,1581,960,0,0
364,64,0,0,0,0,0,0,0,0,0,-1,1588,960,0,0
371,64,0,0,0,0,0,0,0,0,0,-1,1595,960,0,0
378,64,0,0,0,0,0,0,0,0,0,-1,1602,960,0,0
385,64,0,0,0,0,0,0,0,0,0,-1,1609,960,0,0
392,64,0,0,0,0,0,0,0,0,0,-1,1616,960,0,0
399,64,0,0,0,0,0,0,0,0,0,-1,1623,960,0,0
406,64,0,0,0,0,0,0,0,0,0,-1,1630,960,0,0
413,64,0,0,0,0,0,0,0,0,0,-1,1637,960,0,0
420,64,0,0,0,0,0,0,0,0,0,-1,1644,960,0,0
427,64,0,0,0,0,0,0,0,0,0,-1,1651,960,0,0
434,64,0,0,0,0,0,0,0,0,0,-1,1658,960,0,0
441,64,0,0,0,0,0,0,0,0,0,-1,1665,960,0,0
448,64,0,0,0,0,0,0,0,0,0,-1,1672,960,0,0
455,64,0,0,0,0,0,0,0,0,0,-1,1679,960,0,0
462,64,0,0,0,0,0,0,0,0,0,-1,1686,960,0,0
469,64,0,0,0,0,0,0,0,0,0,-1,1693,960,0,0
476,64,0,0,0,0,0,0,0,0,0,-1,1700,960,0,0
483,64,0,0,0,0,0,0,0,0,0,-1,1707,960,0,0
490,64,0,0,0,0,0,0,0,0,0,-1,1714,960,0,0
497,64,0,0,0,0,0,0,0,0,0,-1,1721,960,0,0
504,64,0,0,0,0,0,0,0,0,0,-1,1728,960,0,0
511,64,0,0,0,0,0,0,0,0,0,-1,1735,960,0,0
518,64,0,0,0,0,0,0,0,0,0,-1,1742,960,0,0
525,64,0,0,0,0,0,0,0,0,0,-1,1749,960,0,0
532,64,0,0,0,0,0,0,0,0,0,-1,1756,960,0,0
539,64,0,0,0,0,0,0,0,0,0,-1,1763,960,0,0
546,64,0,0,0,0,0,0,0,0,0,-1,1770,960,0,0
553,64,0,0,0,0,0,0,0,0,0,-1,1777,960,0,0
560,64,0,0,0,0,0,0,0,0,0,-1,1784,960,0,0
567,64,0,0,0,0,0,0,0,0,0,-1,1791,960,0,0
574,64,0,0,0,0,0,0,0,0,0,-1,1798,960,0,0
581,64,0,0,0,0,0,0,0,0,0,-1,1805,960,0,0
588,64,0,0,0,0,0,0,0,0,0,-1,1812,960,0,0
595,64,0,0,0,0,0,0,0,0,0,-1,1819,960,0,0
602,64,0,0,0,0,0,0,0,0,0,-1,1826,960,0,0
609,64,0,0,0,0,0,0,0,0,0,-1,1833,960,0,0
616,64,0,0,0,0,0,0,0,0,0,-1,1840,960,0,0
623,64,0,0,0,0,0,0,0,0,0,-1,1847,960,0,0
630,64,0,0,0,0,0,0,0,0,0,-1,1854,960,0,0
637,64,0,0,0,0,0,0,0,0,0,-1,1861,960,0,0
644,64,45.0681,2.72595,-0.00137434,0.00113393,0.00221951,0.00242912,-0.00266953,1.04256,0.0029448,0.0419121,1868,960,45.0681,-2.72594
651,64,45.1763,2.71722,-0.00118288,0.000834886,0.00107344,0.00129914,-0.00164713,1.1626,0.00170498,0.0402189,1875,960,45.1762,-2.71724
658,64,45.1926,2.62762,-0.00101493,0.000768557,0.000655699,0.000983678,-0.00123005,1.25378,0.00128073,0.037211,1882,960,45.1926,-2.62764
665,64,45.2069,2.72314,-0.000983716,0.000997538,0.000924508,0.00136192,-0.0013481,1.19535,0.00156464,0.0400368,1889,960,45.207,-2.72316
672,64,45.1201,2.5238,-0.00112822,0.00120595,0.00151695,0.00195283,-0.00187509,1.11329,0.0022102,0.0435706,1896,960,45.1201,-2.52377
679,64,45.0225,2.36536,-0.0012943,0.00128486,0.00224198,0.00258169,-0.00259113,1.04639,0.00298653,0.042656,1903,960,45.0224,-2.36534
686,64,44.9265,2.41412,-0.00134256,0.00121201,0.00275034,0.00296719,-0.00309774,1.00278,0.00350186,0.0373024,1910,960,44.9265,-2.4141
693,64,45.0227,2.4198,-0.00139471,0.00112971,0.00291943,0.0030481,-0.00331311,0.989437,0.00367371,0.0326336,1917,960,45.0228,-2.4198
700,64,45.1044,2.48016,-0.00157718,0.00105132,0.00297428,0.00298878,-0.00351464,0.993435,0.00375884,0.0268654,1924,960,45.1043,-2.48017
707,64,45.0107,2.95453,-0.00187267,0.00118615,0.00295659,0.00298548,-0.003672,1.02409,0.00385051,0.039093,1931,960,45.0108,-2.95454
714,64,44.1521,4.33038,0,0,0,0,0,0,0,-1,1938,960,44.1521,-4.33036
721,64,43.5171,4.49982,-0.00255539,0.00199813,0.00251249,0.00311198,-0.00366925,1.15351,0.00391955,0.0411918,1945,960,43.5171,-4.49984
728,64,43.286,4.8894,-0.0029221,0.00260475,0.00201027,0.0032586,-0.00357595,1.25634,0.00394734,0.0192317,1952,960,43.286,-4.88941
735,64,43.2367,5.20514,-0.00329605,0.00365117,0.001221,0.00385951,-0.0035044,1.40179,0.0042532,0.0274914,1959,960,43.2367,-5.20514
742,64,43.3135,5.44385,-0.00378031,0.00451703,0.000216757,0.00452269,-0.00378597,1.5447,0.00480329,0.0243284,1966,960,43.3134,-5.44385
749,64,43.3197,5.72528,-0.0038867,0.00486789,-0.0011895,0.00502663,-0.00404544,-1.43813,0.00524797,0.0152593,1973,960,43.3197,-5.7253
756,64,43.3092,6.00494,-0.00256469,0.00460532,-0.00313911,0.00578542,-0.00374479,-1.2112,0.00554416,0.0145385,1980,960,43.3092,-6.00495
763,64,43.3053,6.30481,0.000249955,0.00420283,-0.00541622,0.00799196,-0.00353917,-0.960346,0.00682095,0.0176396,1987,960,43.3053,-6.30483
770,64,43.0879,6.51758,0.0038969,0.00270581,-0.0076265,0.0109511,-0.00434837,-0.746433,0.0091032,0.0192528,1994,960,43.0879,-6.51755
777,64,42.9104,6.7843,0.00931456,-0.000323475,-0.0102349,0.0158082,-0.00681712,-0.565373,0.0134021,0.0368868,2001,960,42.9104,-6.78427
784,64,42.7939,7.05267,0.0173698,-0.00555188,-0.0133391,0.0234954,-0.0116775,-0.430496,0.0206856,0.046862,2008,960,42.7939,-7.05267
791,64,42.6155,7.3139,0,0,0,0,0,0,0,-1,2015,960,42.6154,-7.3139
798,64,43.5742,5.67792,0.044989,-0.0247573,-0.0219033,0.051297,-0.0310653,-0.280407,0.0480278,0.048736,2022,960,43.5743,-5.67794
805,64,43.8235,5.27936,0.0663323,-0.0394338,-0.0274777,0.0730448,-0.0461463,-0.2396,0.0693967,0.0468254,2029,960,43.8235,-5.27938
812,64,0,0,0,0,0,0,0,0,0,-1,2036,960,0,0
-700,57,0,0,0,0,0,0,0,0,0,-1,524,967,0,0
-693,57,0,0,0,0,0,0,0,0,0,-1,531,967,0,0
-686,57,-32.478,6.3429,-0.0177388,0.0395223,-0.0797447,0.0956203,-0.0738368,-0.957746,0.0981052,0.0454252,538,967,-32.478,-6.34289
-679,57,-32.3751,5.17651,-0.0196358,0.0340662,-0.0644373,0.0770231,-0.0625927,-0.982808,0.0807506,0.0462121,545,967,-32.3751,-5.17654
-672,57,-32.0439,3.52521,-0.0201117,0.0296396,-0.0508455,0.0613683,-0.0518405,-1.0129,0.0654383,0.0474055,552,967,-32.0439,-3.5252
-665,57,-31.6135,2.05499,0,0,0,0,0,0,0,-1,559,967,-31.6135,-2.05497
-658,57,-32.6285,4.43036,0,0,0,0,0,0,0,-1,566,967,-32.6285,-4.43038
-651,57,-32.7939,4.2002,-0.016497,0.0188306,-0.0197336,0.0276512,-0.0253176,-1.15045,0.0305915,0.0456188,573,967,-32.7939,-4.20022
-644,57,-32.9382,3.96362,-0.0143285,0.0156617,-0.0125894,0.0202458,-0.0189126,-1.22159,0.0226125,0.0322292,580,967,-32.9382,-3.96363
-637,57,-32.8882,3.5929,-0.0113066,0.0129324,-0.00789739,0.0152784,-0.0136526,-1.28204,0.0167121,0.0190557,587,967,-32.8882,-3.59291
-630,57,-32.9476,3.39136,-0.00918229,0.00959363,-0.0033975,0.0101895,-0.00977816,-1.39718,0.0115291,0.0136722,594,967,-32.9476,-3.39133
-623,57,-32.9624,3.17542,-0.00759763,0.00704012,-0.000553569,0.00706102,-0.00761854,-1.53305,0.00847729,0.0125433,601,967,-32.9624,-3.17541
-616,57,-32.9561,2.95319,-0.00672896,0.00540837,-8.77533e-05,0.005409,-0.0067296,-1.56357,0.00702203,0.014518,608,967,-32.9561,-2.9532
-609,57,-32.9587,2.72852,-0.00559409,0.00407963,-0.00177529,0.00439514,-0.00590959,-1.39491,0.00597082,0.0145728,615,967,-32.9587,-2.72852
-602,57,-32.945,2.50104,-0.00516102,0.00325723,-0.00295825,0.00419281,-0.0060966,-1.26449,0.00597439,0.0114878,622,967,-32.945,-2.50102
-595,57,-32.9256,2.29907,-0.00465909,0.00257944,-0.00355473,0.00403316,-0.00611281,-1.18259,0.00589865,0.0138196,629,967,-32.9256,-2.29907
-588,57,-32.7812,2.25885,0,0,0,0,0,0,0,-1,636,967,-32.7812,-2.25886
-581,57,-33.1758,1.48541,0,0,0,0,0,0,0,-1,643,967,-33.1758,-1.48542
-574,57,-33.5704,0.711975,0,0,0,0,0,0,0,-1,650,967,-33.5704,-0.711976
-567,57,-33.5148,0.721436,-0.00419038,0.00166348,-0.00520554,0.00470853,-0.00723543,-1.04151,0.0069471,0.0318617,657,967,-33.5148,-0.721416
-560,57,-33.4491,0.617554,-0.00386711,0.00186242,-0.00512064,0.00486518,-0.00686987,-1.04043,0.0068081,0.0411935,664,967,-33.4491,-0.617548
-553,57,-33.3754,0.598999,-0.00309324,0.0020914,-0.00496635,0.00510128,-0.00610313,-1.02594,0.00647748,0.0420753,671,967,-33.3754,-0.599021
-546,57,-33.4922,1.07184,-0.00176482,0.00224212,-0.00483664,0.00547382,-0.00499652,-0.981754,0.00604714,0.0416158,678,967,-33.4922,-1.07186
-539,57,-33.5873,1.28809,0.000267795,0.0021546,-0.00499117,0.00629074,-0.00386835,-0.878803,0.00592067,0.0408636,685,967,-33.5873,-1.28811
-532,57,-33.6461,0.937866,0.00309538,0.00187875,-0.00627569,0.00879217,-0.00381803,-0.737083,0.00746692,0.0398463,692,967,-33.6461,-0.937878
-525,57,-33.5575,0.722107,0.00505467,0.00169644,-0.00950075,0.0130235,-0.00627243,-0.697934,0.0113656,0.0421571,699,967,-33.5575,-0.722094
-518,57,0,0,0,0,0,0,0,0,0,-1,706,967,0,0
-511,57,0,0,0,0,0,0,0,0,0,-1,713,967,0,0
-504,57,0,0,0,0,0,0,0,0,0,-1,720,967,0,0
-497,57,0,0,0,0,0,0,0,0,0,-1,727,967,0,0
-490,57,0,0,0,0,0,0,0,0,0,-1,734,967,0,0
-483,57,0,0,0,0,0,0,0,0,0,-1,741,967,0,0
-476,57,0,0,0,0,0,0,0,0,0,-1,748,967,0,0
-469,57,0,0,0,0,0,0,0,0,0,-1,755,967,0,0
-462,57,0,0,0,0,0,0,0,0,0,-1,762,967,0,0
-455,57,0,0,0,0,0,0,0,0,0,-1,769,967,0,0
-448,57,0,0,0,0,0,0,0,0,0,-1,776,967,0,0
-441,57,0,0,0,0,0,0,0,0,0,-1,783,967,0,0
-434,57,0,0,0,0,0,0,0,0,0,-1,790,967,0,0
-427,57,0,0,0,0,0,0,0,0,0,-1,797,967,0,0
-420,57,0,0,0,0,0,0,0,0,0,-1,804,967,0,0
-413,57,0,0,0,0,0,0,0,0,0,-1,811,967,0,0
-406,57,0,0,0,0,0,0,0,0,0,-1,818,967,0,0
-399,57,0,0,0,0,0,0,0,0,0,-1,825,967,0,0
-392,57,0,0,0,0,0,0,0,0,0,-1,832,967,0,0
-385,57,0,0,0,0,0,0,0,0,0,-1,839,967,0,0
-378,57,0,0,0,0,0,0,0,0,0,-1,846,967,0,0
-371,57,0,0,0,0,0,0,0,0,0,-1,853,967,0,0
-364,57,0,0,0,0,0,0,0,0,0,-1,860,967,0,0
-357,57,0,0,0,0,0,0,0,0,0,-1,867,967,0,0
-350,57,0,0,0,0,0,0,0,0,0,-1,874,967,0,0
-343,57,0,0,0,0,0,0,0,0,0,-1,881,967,0,0
-336,57,0,0,0,0,0,0,0,0,0,-1,888,967,0,0
-329,57,0,0,0,0,0,0,0,0,0,-1,895,967,0,0
-322,57,0,0,0,0,0,0,0,0,0,-1,902,967,0,0
-315,57,0,0,0,0,0,0,0,0,0,-1,909,967,0,0
-308,57,0,0,0,0,0,0,0,0,0,-1,916,967,0,0
-301,57,0,0,0,0,0,0,0,0,0,-1,923,967,0,0
-294,57,0,0,0,0,0,0,0,0,0,-1,930,967,0,0
-287,57,0,0,0,0,0,0,0,0,0,-1,937,967,0,0
-280,57,0,0,0,0,0,0,0,0,0,-1,944,967,0,0
-273,57,0,0,0,0,0,0,0,0,0,-1,951,967,0,0
-266,57,0,0,0,0,0,0,0,0,0,-1,958,967,0,0
-259,57,0,0,0,0,0,0,0,0,0,-1,965,967,0,0
-252,57,0,0,0,0,0,0,0,0,0,-1,972,967,0,0
-245,57,0,0,0,0,0,0,0,0,0,-1,979,967,0,0
-238,57,0,0,0,0,0,0,0,0,0,-1,986,967,0,0
-231,57,0,0,0,0,0,0,0,0,0,-1,993,967,0,0
-224,57,0,0,0,0,0,0,0,0,0,-1,1000,967,0,0
-217,57,0,0,0,0,0,0,0,0,0,-1,1007,967,0,0
-210,57,0,0,0,0,0,0,0,0,0,-1,1014,967,0,0
-203,57,0,0,0,0,0,0,0,0,0,-1,1021,967,0,0
-196,57,0,0,0,0,0,0,0,0,0,-1,1028,967,0,0
-189,57,0,0,0,0,0,0,0,0,0,-1,1035,967,0,0
-182,57,0,0,0,0,0,0,0,0,0,-1,1042,967,0,0
-175,57,0,0,0,0,0,0,0,0,0,-1,1049,967,0,0
-168,57,0,0,0,0,0,0,0,0,0,-1,1056,967,0,0
-161,57,0,0,0,0,0,0,0,0,0,-1,1063,967,0,0
-154,57,0,0,0,0,0,0,0,0,0,-1,1070,967,0,0
-147,57,0,0,0,0,0,0,0,0,0,-1,1077,967,0,0
-140,57,0,0,0,0,0,0,0,0,0,-1,1084,967,0,0
-133,57,0,0,0,0,0,0,0,0,0,-1,1091,967,0,0
-126,57,0,0,0,0,0,0,0,0,0,-1,1098,967,0,0
-119,57,0,0,0,0,0,0,0,0,0,-1,1105,967,0,0
-112,57,0,0,0,0,0,0,0,0,0,-1,1112,967,0,0
-105,57,0,0,0,0,0,0,0,0,0,-1,1119,967,0,0
-98,57,0,0,0,0,0,0,0,0,0,-1,1126,967,0,0
-91,57,0,0,0,0,0,0,0,0,0,-1,1133,967,0,0
-84,57,0,0,0,0,0,0,0,0,0,-1,1140,967,0,0
-77,57,0,0,0,0,0,0,0,0,0,-1,1147,967,0,0
-70,57,0,0,0,0,0,0,0,0,0,-1,1154,967,0,0
-63,57,0,0,0,0,0,0,0,0,0,-1,1161,967,0,0
-56,57,0,0,0,0,0,0,0,0,0,-1,1168,967,0,0
-49,57,0,0,0,0,0,0,0,0,0,-1,1175,967,0,0
-42,57,0,0,0,0,0,0,0,0,0,-1,1182,967,0,0
-35,57,0,0,0,0,0,0,0,0,0,-1,1189,967,0,0
-28,57,0,0,0,0,0,0,0,0,0,-1,1196,967,0,0
-21,57,0,0,0,0,0,0,0,0,0,-1,1203,967,0,0
-14,57,0,0,0,0,0,0,0,0,0,-1,1210,967,0,0
-7,57,0,0,0,0,0,0,0,0,0,-1,1217,967,0,0
0,57,0,0,0,0,0,0,0,0,0,-1,1224,967,0,0
7,57,0,0,0,0,0,0,0,0,0,-1,1231,967,0,0
14,57,0,0,0,0,0,0,0,0,0,-1,1238,967,0,0
21,57,0,0,0,0,0,0,0,0,0,-1,1245,967,0,0
28,57,0,0,0,0,0,0,0,0,0,-1,1252,967,0,0
35,57,0,0,0,0,0,0,0,0,0,-1,1259,967,0,0
42,57,0,0,0,0,0,0,0,0,0,-1,1266,967,0,0
49,57,0,0,0,0,0,0,0,0,0,-1,1273,967,0,0
56,57,0,0,0,0,0,0,0,0,0,-1,1280,967,0,0
63,57,0,0,0,0,0,0,0,0,0,-1,1287,967,0,0
70,57,0,0,0,0,0,0,0,0,0,-1,1294,967,0,0
77,57,0,0,0,0,0,0,0,0,0,-1,1301,967,0,0
84,57,0,0,0,0,0,0,0,0,0,-1,1308,967,0,0
91,57,0,0,0,0,0,0,0,0,0,-1,1315,967,0,0
98,57,0,0,0,0,0,0,0,0,0,-1,1322,967,0,0
105,57,0,0,0,0,0,0,0,0,0,-1,1329,967,0,0
112,57,0,0,0,0,0,0,0,0,0,-1,1336,967,0,0
119,57,0,0,0,0,0,0,0,0,0,-1,1343,967,0,0
126,57,0,0,0,0,0,0,0,0,0,-1,1350,967,0,0
133,57,0,0,0,0,0,0,0,0,0,-1,1357,967,0,0
140,57,0,0,0,0,0,0,0,0,0,-1,1364,967,0,0
147,57,0,0,0,0,0,0,0,0,0,-1,1371,967,0,0
154,57,0,0,0,0,0,0,0,0,0,-1,1378,967,0,0
161,57,0,0,0,0,0,0,0,0,0,-1,1385,967,0,0
168,57,0,0,0,0,0,0,0,0,0,-1,1392,967,0,0
175,57,0,0,0,0,0,0,0,0,0,-1,1399,967,0,0
182,57,0,0,0,0,0,0,0,0,0,-1,1406,967,0,0
189,57,0,0,0,0,0,0,0,0,0,-1,1413,967,0,0
196,57,0,0,0,0,0,0,0,0,0,-1,1420,967,0,0
203,57,0,0,0,0,0,0,0,0,0,-1,1427,967,0,0
210,57,0,0,0,0,0,0,0,0,0,-1,1434,967,0,0
217,57,0,0,0,0,0,0,0,0,0,-1,1441,967,0,0
224,57,0,0,0,0,0,0,0,0,0,-1,1448,967,0,0
231,57,0,0,0,0,0,0,0,0,0,-1,1455,967,0,0
238,57,0,0,0,0,0,0,0,0,0,-1,1462,967,0,0
245,57,0,0,0,0,0,0,0,0,0,-1,1469,967,0,0
252,57,0,0,0,0,0,0,0,0,0,-1,1476,967,0,0
259,57,0,0,0,0,0,0,0,0,0,-1,1483,967,0,0
266,57,0,0,0,0,0,0,0,0,0,-1,1490,967,0,0
273,57,0,0,0,0,0,0,0,0,0,-1,1497,967,0,0
280,57,0,0,0,0,0,0,0,0,0,-1,1504,967,0,0
287,57,0,0,0,0,0,0,0,0,0,-1,1511,967,0,0
294,57,0,0,0,0,0,0,0,0,0,-1,1518,967,0,0
301,57,0,0,0,0,0,0,0,0,0,-1,1525,967,0,0
308,57,0,0,0,0,0,0,0,0,0,-1,1532,967,0,0
315,57,0,0,0,0,0,0,0,0,0,-1,1539,967,0,0
322,57,0,0,0,0,0,0,0,0,0,-1,1546,967,0,0
329,57,0,0,0,0,0,0,0,0,0,-1,1553,967,0,0
336,57,0,0,0,0,0,0,0,0,0,-1,1560,967,0,0
343,57,0,0,0,0,0,0,0,0,0,-1,1567,967,0,0
350,57,0,0,0,0,0,0,0,0,0,-1,1574,967,0,0
357,57,0,0,0,0,0,0,0,0,0,-1,1581,967,0,0
364,57,0,0,0,0,0,0,0,0,0,-1,1588,967,0,0
371,57,0,0,0,0,0,0,0,0,0,-1,1595,967,0,0
378,57,0,0,0,0,0,0,0,0,0,-1,1602,967,0,0
385,57,0,0,0,0,0,0,0,0,0,-1,1609,967,0,0
392,57,0,0,0,0,0,0,0,0,0,-1,1616,967,0,0
399,57,0,0,0,0,0,0,0,0,0,-1,1623,967,0,0
406,57,0,0,0,0,0,0,0,0,0,-1,1630,967,0,0
413,57,0,0,0,0,0,0,0,0,0,-1,1637,967,0,0
420,57,0,0,0,0,0,0,0,0,0,-1,1644,967,0,0
427,57,0,0,0,0,0,0,0,0,0,-1,1651,967,0,0
434,57,0,0,0,0,0,0,0,0,0,-1,1658,967,0,0
441,57,0,0,0,0,0,0,0,0,0,-1,1665,967,0,0
448,57,0,0,0,0,0,0,0,0,0,-1,1672,967,0,0
455,57,0,0,0,0,0,0,0,0,0,-1,1679,967,0,0
462,57,0,0,0,0,0,0,0,0,0,-1,1686,967,0,0
469,57,0,0,0,0,0,0,0,0,0,-1,1693,967,0,0
476,57,0,0,0,0,0,0,0,0,0,-1,1700,967,0,0
483,57,0,0,0,0,0,0,0,0,0,-1,1707,967,0,0
490,57,0,0,0,0,0,0,0,0,0,-1,1714,967,0,0
497,57,0,0,0,0,0,0,0,0,0,-1,1721,967,0,0
504,57,0,0,0,0,0,0,0,0,0,-1,1728,967,0,0
511,57,0,0,0,0,0,0,0,0,0,-1,1735,967,0,0
518,57,0,0,0,0,0,0,0,0,0,-1,1742,967,0,0
525,57,0,0,0,0,0,0,0,0,0,-1,1749,967,0,0
532,57,0,0,0,0,0,0,0,0,0,-1,1756,967,0,0
539,57,0,0,0,0,0,0,0,0,0,-1,1763,967,0,0
546,57,0,0,0,0,0,0,0,0,0,-1,1770,967,0,0
553,57,0,0,0,0,0,0,0,0,0,-1,1777,967,0,0
560,57,0,0,0,0,0,0,0,0,0,-1,1784,967,0,0
567,57,0,0,0,0,0,0,0,0,0,-1,1791,967,0,0
574,57,0,0,0,0,0,0,0,0,0,-1,1798,967,0,0
581,57,0,0,0,0,0,0,0,0,0,-1,1805,967,0,0
588,57,0,0,0,0,0,0,0,0,0,-1,1812,967,0,0
595,57,0,0,0,0,0,0,0,0,0,-1,1819,967,0,0
602,57,0,0,0,0,0,0,0,0,0,-1,1826,967,0,0
609,57,0,0,0,0,0,0,0,0,0,-1,1833,967,0,0
616,57,0,0,0,0,0,0,0,0,0,-1,1840,967,0,0
623,57,0,0,0,0,0,0,0,0,0,-1,1847,967,0,0
630,57,0,0,0,0,0,0,0,0,0,-1,1854,967,0,0
637,57,0,0,0,0,0,0,0,0,0,-1,1861,967,0,0
644,57,45.1636,2.71088,-0.000553465,0.000751298,0.00322758,0.00339177,-0.00319393,0.885118,0.00380283,0.0381417,1868,967,45.1636,-2.71087
651,57,45.2104,2.6283,-0.00060819,0.000413317,0.00173539,0.00171155,-0.00190642,0.928516,0.00208985,0.0346391,1875,967,45.2105,-2.6283
658,57,45.1527,2.64215,-0.000591402,0.000300146,0.00105081,0.000995829,-0.00128708,0.986002,0.00132161,0.0337813,1882,967,45.1528,-2.64217
665,57,45.0726,2.73083,-0.000674848,0.000524987,0.0011453,0.00121798,-0.00136784,1.02665,0.00149376,0.0426522,1889,967,45.0726,-2.73081
672,57,45.0729,2.81915,-0.000881014,0.000795975,0.00162776,0.00178851,-0.00187355,1.02323,0.00211448,0.0481871,1896,967,45.0729,-2.81917
679,57,45.0129,2.76086,-0.00109016,0.000967639,0.00235262,0.00250651,-0.00262903,0.991537,0.00296528,0.0454029,1903,967,45.013,-2.76088
686,57,44.9479,2.68677,-0.00116931,0.000973356,0.00293812,0.00302937,-0.00322533,0.960223,0.00361174,0.0392817,1910,967,44.9479,-2.68677
693,57,44.998,2.57312,-0.00122385,0.00095675,0.00320209,0.00324907,-0.00351617,0.94949,0.00390693,0.0318772,1917,967,44.9981,-2.57312
700,57,45.0972,2.52484,-0.00139968,0.000939062,0.00329189,0.0032631,-0.00372372,0.956061,0.00403677,0.0236013,1924,967,45.0972,-2.52483
707,57,45.035,2.93262,-0.00169493,0.00113623,0.00329447,0.00330637,-0.00386507,0.988314,0.00414462,0.0432218,1931,967,45.035,-2.93261
714,57,44.9718,3.47675,0,0,0,0,0,0,0,-1,1938,967,44.9718,-3.47672
721,57,43.696,4.6463,0,0,0,0,0,0,0,-1,1945,967,43.6961,-4.64631
728,57,43.5677,4.96649,-0.00283001,0.00273794,0.00243891,0.00365515,-0.00374722,1.21108,0.00427387,0.0213068,1952,967,43.5677,-4.96651
735,57,43.5995,5.26215,-0.00322735,0.00387031,0.0015966,0.00421292,-0.00356997,1.35941,0.00449856,0.0269136,1959,967,43.5995,-5.26212
742,57,43.6371,5.43665,-0.00384742,0.00478941,0.000463998,0.00481426,-0.00387228,1.51728,0.005025,0.0204969,1966,967,43.6371,-5.43668
749,57,43.6256,5.74384,-0.00410579,0.00507527,-0.00114191,0.00521517,-0.00424569,-1.44889,0.00547178,0.0142922,1973,967,43.6256,-5.74381
756,57,43.5958,5.98285,-0.00285852,0.00479623,-0.00338625,0.00607919,-0.00414148,-1.20863,0.00593615,0.0112303,1980,967,43.5958,-5.98286
763,57,43.5404,6.22589,-5.49156e-05,0.00439527,-0.00613922,0.00870018,-0.00435983,-0.959255,0.00767775,0.0118745,1987,967,43.5404,-6.2259
770,57,43.437,6.43671,0.00360095,0.00291506,-0.00896397,0.0122285,-0.00571253,-0.766278,0.0105836,0.0112982,1994,967,43.437,-6.43671
777,57,43.3591,6.64569,0.00915647,-4.33385e-05,-0.0121998,0.0175948,-0.00848166,-0.605116,0.0153586,0.0258296,2001,967,43.3591,-6.64567
784,57,43.3506,6.75378,0.017367,-0.00503874,-0.0159918,0.0256896,-0.0133613,-0.479855,0.0229175,0.0452446,2008,967,43.3505,-6.75376
791,57,43.3279,6.87469,0,0,0,0,0,0,0,-1,2015,967,43.328,-6.87467
798,57,43.6921,6.15356,0.04587,-0.0232154,-0.0259824,0.054551,-0.0318963,-0.322448,0.0504784,0.0485769,2022,967,43.692,-6.15359
805,57,44.0317,5.72894,0.0682038,-0.0369939,-0.0322917,0.0773252,-0.0461153,-0.275297,0.0720237,0.0458672,2029,967,44.0317,-5.72897
812,57,0,0,0,0,0,0,0,0,0,-1,2036,967,0,0
-700,50,0,0,0,0,0,0,0,0,0,-1,524,974,0,0
-693,50,-31.6336,7.12335,0,0,0,0,0,0,0,-1,531,974,-31.6336,-7.12334
-686,50,-31.8553,6.03345,-0.0343766,0.0403122,-0.0679271,0.0804836,-0.074548,-1.03673,0.0895294,0.0481347,538,974,-31.8553,-6.03344
-679,50,-32.0646,4.98785,-0.0318244,0.0353007,-0.055736,0.0667992,-0.063323,-1.0564,0.075135,0.046683,545,974,-32.0646,-4.98785
-672,50,-31.875,3.42688,-0.0290993,0.0310631,-0.0444197,0.0546288,-0.0526649,-1.08303,0.0619495,0.0472902,552,974,-31.875,-3.4269
-665,50,-31.5558,1.90796,0,0,0,0,0,0,0,-1,559,974,-31.5558,-1.90796
-658,50,-32.8932,4.11499,0,0,0,0,0,0,0,-1,566,974,-32.8933,-4.11497
-651,50,-32.9836,3.91046,-0.0195663,0.0202576,-0.0177622,0.0270286,-0.0263373,-1.2066,0.0308117,0.046484,573,974,-32.9837,-3.91049
-644,50,-33.0298,3.62262,-0.0161721,0.0170121,-0.0115645,0.0206446,-0.0198046,-1.26645,0.023355,0.0307769,580,974,-33.0298,-3.62261
-637,50,-33.1308,3.48499,-0.0121246,0.0142145,-0.00766047,0.0162805,-0.0141905,-1.30738,0.0176062,0.0181211,587,974,-33.1308,-3.48499
-630,50,-33.1807,3.32452,-0.00916711,0.0107167,-0.00374789,0.0113997,-0.00985009,-1.39054,0.0122794,0.0116232,594,974,-33.1807,-3.32455
-623,50,-33.202,3.15686,-0.00693664,0.00800528,-0.00122132,0.00810445,-0.00703581,-1.48978,0.00874849,0.0114183,601,974,-33.202,-3.15686
-616,50,-33.2124,2.96893,-0.00571682,0.00622842,-0.000962133,0.00630542,-0.00579382,-1.49094,0.00698758,0.0113928,608,974,-33.2124,-2.96896
-609,50,-33.2061,2.72906,-0.00449562,0.00469434,-0.0027303,0.0054443,-0.00524558,-1.30273,0.00617216,0.0107061,615,974,-33.2061,-2.72908
-602,50,-33.2098,2.52081,-0.00396816,0.00362071,-0.00401404,0.00534988,-0.00569734,-1.16404,0.00637917,0.0113086,622,974,-33.2098,-2.52081
-595,50,-33.1983,2.33673,-0.00345084,0.00273101,-0.00465403,0.00522701,-0.00594685,-1.07852,0.00645569,0.0117541,629,974,-33.1983,-2.33672
-588,50,-33.2288,2.05817,-0.00317233,0.0020115,-0.00529338,0.00531347,-0.0064743,-1.01307,0.00681666,0.0175378,636,974,-33.2288,-2.05815
-581,50,-33.4427,1.2489,-0.00307727,0.00166438,-0.00589963,0.00565174,-0.00706463,-0.976453,0.00735689,0.0253793,643,974,-33.4428,-1.24892
-574,50,-33.6138,0.434265,0,0,0,0,0,0,0,-1,650,974,-33.6138,-0.434279
-567,50,-33.478,0.603027,-0.00284105,0.00156657,-0.00614766,0.0058935,-0.00716798,-0.957502,0.007553,0.0371259,657,974,-33.478,-0.603001
-560,50,-33.3515,0.560425,-0.0025404,0.00174291,-0.00588146,0.00586051,-0.00665799,-0.960005,0.00723245,0.0436951,664,974,-33.3515,-0.560412
-553,50,-33.3429,0.706848,-0.00184945,0.00195738,-0.00549664,0.00587083,-0.00576291,-0.95208,0.00671684,0.0417419,671,974,-33.3429,-0.706865
-546,50,-33.5092,1.23999,-0.000667252,0.00208922,-0.00509685,0.00599089,-0.00456893,-0.917445,0.00611511,0.0392573,678,974,-33.5092,-1.24001
-539,50,-33.5762,1.34351,0.00117983,0.00199039,-0.00500049,0.00660199,-0.00343177,-0.825834,0.00588859,0.0421435,685,974,-33.5762,-1.34349
-532,50,-33.5604,0.66748,0.00377209,0.00181129,-0.006217,0.00908552,-0.00350214,-0.707194,0.00750202,0.0429068,692,974,-33.5604,-0.667493
-525,50,-33.4031,0.656006,0.00546255,0.00162932,-0.00951506,0.0132521,-0.00616024,-0.686013,0.0114543,0.0416749,699,974,-33.4031,-0.655988
-518,50,0,0,0,0,0,0,0,0,0,-1,706,974,0,0
-511,50,0,0,0,0,0,0,0,0,0,-1,713,974,0,0
-504,50,0,0,0,0,0,0,0,0,0,-1,720,974,0,0
-497,50,0,0,0,0,0,0,0,0,0,-1,727,974,0,0
-490,50,0,0,0,0,0,0,0,0,0,-1,734,974,0,0
-483,50,0,0,0,0,0,0,0,0,0,-1,741,974,0,0
-476,50,0,0,0,0,0,0,0,0,0,-1,748,974,0,0
-469,50,0,0,0,0,0,0,0,0,0,-1,755,974,0,0
-462,50,0,0,0,0,0,0,0,0,0,-1,762,974,0,0
-455,50,0,0,0,0,0,0,0,0,0,-1,769,974,0,0
-448,50,0,0,0,0,0,0,0,0,0,-1,776,974,0,0
-441,50,0,0,0,0,0,0,0,0,0,-1,783,974,0,0
-434,50,0,0,0,0,0,0,0,0,0,-1,790,974,0,0
-427,50,0,0,0,0,0,0,0,0,0,-1,797,974,0,0
-420,50,0,0,0,0,0,0,0,0,0,-1,804,974,0,0
-413,50,0,0,0,0,0,0,0,0,0,-1,811,974,0,0
-406,50,0,0,0,0,0,0,0,0,0,-1,818,974,0,0
-399,50,0,0,0,0,0,0,0,0,0,-1,825,974,0,0
-392,50,0,0,0,0,0,0,0,0,0,-1,832,974,0,0
-385,50,0,0,0,0,0,0,0,0,0,-1,839,974,0,0
-378,50,0,0,0,0,0,0,0,0,0,-1,846,974,0,0
-371,50,0,0,0,0,0,0,0,0,0,-1,853,974,0,0
-364,50,0,0,0,0,0,0,0,0,0,-1,860,974,0,0
-357,50,0,0,0,0,0,0,0,0,0,-1,867,974,0,0
-350,50,0,0,0,0,0,0,0,0,0,-1,874,974,0,0
-343,50,0,0,0,0,0,0,0,0,0,-1,881,974,0,0
-336,50,0,0,0,0,0,0,0,0,0,-1,888,974,0,0
-329,50,0,0,0,0,0,0,0,0,0,-1,895,974,0,0
-322,50,0,0,0,0,0,0,0,0,0,-1,902,974,0,0
-315,50,0,0,0,0,0,0,0,0,0,-1,909,974,0,0
-308,50,0,0,0,0,0,0,0,0,0,-1,916,974,0,0
-301,50,0,0,0,0,0,0,0,0,0,-1,923,974,0,0
-294,50,0,0,0,0,0,0,0,0,0,-1,930,974,0,0
-287,50,0,0,0,0,0,0,0,0,0,-1,937,974,0,0
-280,50,0,0,0,0,0,0,0,0,0,-1,944,974,0,0
-273,50,0,0,0,0,0,0,0,0,0,-1,951,974,0,0
-266,50,0,0,0,0,0,0,0,0,0,-1,958,974,0,0
-259,50,0,0,0,0,0,0,0,0,0,-1,965,974,0,0
-252,50,0,0,0,0,0,0,0,0,0,-1,972,974,0,0
-245,50,0,0,0,0,0,0,0,0,0,-1,979,974,0,0
-238,50,0,0,0,0,0,0,0,0,0,-1,986,974,0,0
-231,50,0,0,0,0,0,0,0,0,0,-1,993,974,0,0
-224,50,0,0,0,0,0,0,0,0,0,-1,1000,974,0,0
-217,50,0,0,0,0,0,0,0,0,0,-1,1007,974,0,0
-210,50,0,0,0,0,0,0,0,0,0,-1,1014,974,0,0
-203,50,0,0,0,0,0,0,0,0,0,-1,1021,974,0,0
-196,50,0,0,0,0,0,0,0,0,0,-1,1028,974,0,0
-189,50,0,0,0,0,0,0,0,0,0,-1,1035,974,0,0
-182,50,0,0,0,0,0,0,0,0,0,-1,1042,974,0,0
-175,50,0,0,0,0,0,0,0,0,0,-1,1049,974,0,0
-168,50,0,0,0,0,0,0,0,0,0,-1,1056,974,0,0
-161,50,0,0,0,0,0,0,0,0,0,-1,1063,974,0,0
-154,50,0,0,0,0,0,0,0,0,0,-1,1070,974,0,0
-147,50,0,0,0,0,0,0,0,0,0,-1,1077,974,0,0
-140,50,0,0,0,0,0,0,0,0,0,-1,1084,974,0,0
-133,50,0,0,0,0,0,0,0,0,0,-1,1091,974,0,0
-126,50,0,0,0,0,0,0,0,0,0,-1,1098,974,0,0
-119,50,0,0,0,0,0,0,0,0,0,-1,1105,974,0,0
-112,50,0,0,0,0,0,0,0,0,0,-1,1112,974,0,0
-105,50,0,0,0,0,0,0,0,0,0,-1,1119,974,0,0
-98,50,0,0,0,0,0,0,0,0,0,-1,1126,974,0,0
-91,50,0,0,0,0,0,0,0,0,0,-1,1133,974,0,0
-84,50,0,0,0,0,0,0,0,0,0,-1,1140,974,0,0
-77,50,0,0,0,0,0,0,0,0,0,-1,1147,974,0,0
-70,50,0,0,0,0,0,0,0,0,0,-1,1154,974,0,0
-63,50,0,0,0,0,0,0,0,0,0,-1,1161,974,0,0
-56,50,0,0,0,0,0,0,0,0,0,-1,1168,974,0,0
-49,50,0,0,0,0,0,0,0,0,0,-1,1175,974,0,0
-42,50,0,0,0,0,0,0,0,0,0,-1,1182,974,0,0
-35,50,0,0,0,0,0,0,0,0,0,-1,1189,974,0,0
-28,50,0,0,0,0,0,0,0,0,0,-1,1196,974,0,0
-21,50,0,0,0,0,0,0,0,0,0,-1,1203,974,0,0
-14,50,0,0,0,0,0,0,0,0,0,-1,1210,974,0,0
-7,50,0,0,0,0,0,0,0,0,0,-1,1217,974,0,0
0,50,0,0,0,0,0,0,0,0,0,-1,1224,974,0,0
7,50,0,0,0,0,0,0,0,0,0,-1,1231,974,0,0
14,50,0,0,0,0,0,0,0,0,0,-1,1238,974,0,0
21,50,0,0,0,0,0,0,0,0,0,-1,1245,974,0,0
28,50,0,0,0,0,0,0,0,0,0,-1,1252,974,0,0
35,50,0,0,0,0,0,0,0,0,0,-1,1259,974,0,0
42,50,0,0,0,0,0,0,0,0,0,-1,1266,974,0,0
49,50,0,0,0,0,0,0,0,0,0,-1,1273,974,0,0
56,50,0,0,0,0,0,0,0,0,0,-1,1280,974,0,0
63,50,0,0,0,0,0,0,0,0,0,-1,1287,974,0,0
70,50,0,0,0,0,0,0,0,0,0,-1,1294,974,0,0
77,50,0,0,0,0,0,0,0,0,0,-1,1301,974,0,0
84,50,0,0,0,0,0,0,0,0,0,-1,1308,974,0,0
91,50,0,0,0,0,0,0,0,0,0,-1,1315,974,0,0
98,50,0,0,0,0,0,0,0,0,0,-1,1322,974,0,0
105,50,0,0,0,0,0,0,0,0,0,-1,1329,974,0,0
112,50,0,0,0,0,0,0,0,0,0,-1,1336,974,0,0
119,50,0,0,0,0,0,0,0,0,0,-1,1343,974,0,0
126,50,0,0,0,0,0,0,0,0,0,-1,1350,974,0,0
133,50,0,0,0,0,0,0,0,0,0,-1,1357,974,0,0
140,50,0,0,0,0,0,0,0,0,0,-1,1364,974,0,0
147,50,0,0,0,0,0,0,0,0,0,-1,1371,974,0,0
154,50,0,0,0,0,0,0,0,0,0,-1,1378,974,0,0
161,50,0,0,0,0,0,0,0,0,0,-1,1385,974,0,0
168,50,0,0,0,0,0,0,0,0,0,-1,1392,974,0,0
175,50,0,0,0,0,0,0,0,0,0,-1,1399,974,0,0
182,50,0,0,0,0,0,0,0,0,0,-1,1406,974,0,0
189,50,0,0,0,0,0,0,0,0,0,-1,1413,974,0,0
196,50,0,0,0,0,0,0,0,0,0,-1,1420,974,0,0
203,50,0,0,0,0,0,0,0,0,0,-1,1427,974,0,0
210,50,0,0,0,0,0,0,0,0,0,-1,1434,974,0,0
217,50,0,0,0,0,0,0,0,0,0,-1,1441,974,0,0
224,50,0,0,0,0,0,0,0,0,0,-1,1448,974,0,0
231,50,0,0,0,0,0,0,0,0,0,-1,1455,974,0,0
238,50,0,0,0,0,0,0,0,0,0,-1,1462,974,0,0
245,50,0,0,0,0,0,0,0,0,0,-1,1469,974,0,0
252,50,0,0,0,0,0,0,0,0,0,-1,1476,974,0,0
259,50,0,0,0,0,0,0,0,0,0,-1,1483,974,0,0
266,50,0,0,0,0,0,0,0,0,0,-1,1490,974,0,0
273,50,0,0,0,0,0,0,0,0,0,-1,1497,974,0,0
280,50,0,0,0,0,0,0,0,0,0,-1,1504,974,0,0
287,50,0,0,0,0,0,0,0,0,0,-1,1511,974,0,0
294,50,0,0,0,0,0,0,0,0,0,-1,1518,974,0,0
301,50,0,0,0,0,0,0,0,0,0,-1,1525,974,0,0
308,50,0,0,0,0,0,0,0,0,0,-1,1532,974,0,0
315,50,0,0,0,0,0,0,0,0,0,-1,1539,974,0,0
322,50,0,0,0,0,0,0,0,0,0,-1,1546,974,0,0
329,50,0,0,0,0,0,0,0,0,0,-1,1553,974,0,0
336,50,0,0,0,0,0,0,0,0,0,-1,1560,974,0,0
343,50,0,0,0,0,0,0,0,0,0,-1,1567,974,0,0
350,50,0,0,0,0,0,0,0,0,0,-1,1574,974,0,0
357,50,0,0,0,0,0,0,0,0,0,-1,1581,974,0,0
364,50,0,0,0,0,0,0,0,0,0,-1,1588,974,0,0
371,50,0,0,0,0,0,0,0,0,0,-1,1595,974,0,0
378,50,0,0,0,0,0,0,0,0,0,-1,1602,974,0,0
385,50,0,0,0,0,0,0,0,0,0,-1,1609,974,0,0
392,50,0,0,0,0,0,0,0,0,0,-1,1616,974,0,0
399,50,0,0,0,0,0,0,0,0,0,-1,1623,974,0,0
406,50,0,0,0,0,0,0,0,0,0,-1,1630,974,0,0
413,50,0,0,0,0,0,0,0,0,0,-1,1637,974,0,0
420,50,0,0,0,0,0,0,0,0,0,-1,1644,974,0,0
427,50,0,0,0,0,0,0,0,0,0,-1,1651,974,0,0
434,50,0,0,0,0,0,0,0,0,0,-1,1658,974,0,0
441,50,0,0,0,0,0,0,0,0,0,-1,1665,974,0,0
448,50,0,0,0,0,0,0,0,0,0,-1,1672,974,0,0
455,50,0,0,0,0,0,0,0,0,0,-1,1679,974,0,0
462,50,0,0,0,0,0,0,0,0,0,-1,1686,974,0,0
469,50,0,0,0,0,0,0,0,0,0,-1,1693,974,0,0
476,50,0,0,0,0,0,0,0,0,0,-1,1700,974,0,0
483,50,0,0,0,0,0,0,0,0,0,-1,1707,974,0,0
490,50,0,0,0,0,0,0,0,0,0,-1,1714,974,0,0
497,50,0,0,0,0,0,0,0,0,0,-1,1721,974,0,0
504,50,0,0,0,0,0,0,0,0,0,-1,1728,974,0,0
511,50,0,0,0,0,0,0,0,0,0,-1,1735,974,0,0
518,50,0,0,0,0,0,0,0,0,0,-1,1742,974,0,0
525,50,0,0,0,0,0,0,0,0,0,-1,1749,974,0,0
532,50,0,0,0,0,0,0,0,0,0,-1,1756,974,0,0
539,50,0,0,0,0,0,0,0,0,0,-1,1763,974,0,0
546,50,0,0,0,0,0,0,0,0,0,-1,1770,974,0,0
553,50,0,0,0,0,0,0,0,0,0,-1,1777,974,0,0
560,50,0,0,0,0,0,0,0,0,0,-1,1784,974,0,0
567,50,0,0,0,0,0,0,0,0,0,-1,1791,974,0,0
574,50,0,0,0,0,0,0,0,0,0,-1,1798,974,0,0
581,50,0,0,0,0,0,0,0,0,0,-1,1805,974,0,0
588,50,0,0,0,0,0,0,0,0,0,-1,1812,974,0,0
595,50,0,0,0,0,0,0,0,0,0,-1,1819,974,0,0
602,50,0,0,0,0,0,0,0,0,0,-1,1826,974,0,0
609,50,0,0,0,0,0,0,0,0,0,-1,1833,974,0,0
616,50,0,0,0,0,0,0,0,0,0,-1,1840,974,0,0
623,50,0,0,0,0,0,0,0,0,0,-1,1847,974,0,0
630,50,0,0,0,0,0,0,0,0,0,-1,1854,974,0,0
637,50,0,0,0,0,0,0,0,0,0,-1,1861,974,0,0
644,50,45.2247,2.58148,-7.09881e-05,0.000422,0.00378188,0.00396541,-0.0036144,0.817941,0.00437777,0.0365124,1868,974,45.2248,-2.5815
651,50,45.144,2.53949,-0.000228144,0.000110405,0.00202972,0.00197789,-0.00209563,0.827001,0.00235218,0.0320381,1875,974,45.144,-2.53946
658,50,45.0909,2.64233,-0.000259836,-3.32853e-05,0.00114851,0.00100752,-0.00130064,0.834553,0.0013362,0.0354071,1882,974,45.0909,-2.64233
665,50,45.0352,2.69751,-0.000380646,0.000163031,0.00111877,0.00104251,-0.00126013,0.904579,0.00133141,0.0405277,1889,974,45.0351,-2.69749
672,50,44.894,2.52795,-0.000602527,0.000457106,0.00152629,0.00154292,-0.00168834,0.952455,0.0018662,0.043999,1896,974,44.894,-2.52796
679,50,44.9652,2.67963,-0.000826852,0.00068405,0.00226401,0.00231532,-0.00245812,0.946429,0.00275636,0.0435148,1903,974,44.9652,-2.6796
686,50,45.0814,2.55811,-0.000914162,0.000742488,0.00292864,0.00295769,-0.00312936,0.923217,0.00351482,0.0420699,1910,974,45.0814,-2.55811
693,50,45.006,2.64313,-0.000966663,0.000770052,0.00329678,0.00331092,-0.00350753,0.914171,0.00393718,0.0376952,1917,974,45.006,-2.64314
700,50,45.0378,2.63794,-0.00112068,0.000797309,0.00343693,0.00340653,-0.0037299,0.921451,0.00412163,0.0197961,1924,974,45.0378,-2.63793
707,50,45.04,2.81494,-0.00141247,0.00103436,0.00348645,0.00350582,-0.00388393,0.954139,0.00426833,0.0320567,1931,974,45.04,-2.81491
714,50,45.0305,3.04016,0,0,0,0,0,0,0,-1,1938,974,45.0305,-3.04015
721,50,43.8608,4.62555,0,0,0,0,0,0,0,-1,1945,974,43.8608,-4.62556
728,50,43.858,4.97119,-0.00264751,0.00275806,0.00277035,0.00392567,-0.00381512,1.17193,0.00446929,0.0213834,1952,974,43.8581,-4.97117
735,50,43.9075,5.23706,-0.00308276,0.00395277,0.0018777,0.00442254,-0.00355253,1.32565,0.00461353,0.0199576,1959,974,43.9074,-5.23707
742,50,43.9119,5.474,-0.00386172,0.004895,0.000605234,0.00493664,-0.00390336,1.50212,0.00511538,0.0159983,1966,974,43.9118,-5.47399
749,50,43.8866,5.65466,-0.00428893,0.00516109,-0.0011813,0.00530652,-0.00443436,-1.4483,0.00563141,0.015806,1973,974,43.8866,-5.65465
756,50,43.8539,5.91504,-0.00319806,0.0048553,-0.00367306,0.0062789,-0.00462166,-1.20104,0.00631764,0.0124924,1980,974,43.8539,-5.91505
763,50,43.7877,6.15576,-0.000550969,0.0044576,-0.0068168,0.00921556,-0.00530893,-0.96143,0.00848623,0.0128623,1987,974,43.7878,-6.15576
770,50,43.7246,6.34064,0.00289824,0.00299342,-0.0101923,0.0131382,-0.00724659,-0.787733,0.0119319,0.0119912,1994,974,43.7247,-6.34063
777,50,43.7137,6.5708,0.0083535,9.2967e-05,-0.0140041,0.0188237,-0.0103773,-0.641998,0.0170927,0.0231494,2001,974,43.7138,-6.5708
784,50,43.655,6.56677,0.016396,-0.00467838,-0.0184053,0.0270671,-0.0153494,-0.525418,0.0247987,0.0401921,2008,974,43.655,-6.56676
791,50,43.5967,6.51355,0.0282058,-0.0119171,-0.0235443,0.0390764,-0.0227878,-0.432551,0.0361277,0.0448348,2015,974,43.5966,-6.51357
798,50,43.8215,6.4729,0.0448146,-0.0218878,-0.0295948,0.0560521,-0.0331253,-0.362896,0.0520507,0.0464466,2022,974,43.8215,-6.4729
805,50,44.197,6.2215,0.0674179,-0.0348172,-0.036453,0.0790843,-0.0464836,-0.309739,0.0733066,0.0444609,2029,974,44.1971,-6.22153
812,50,0,0,0,0,0,0,0,0,0,-1,2036,974,0,0
-700,43,0,0,0,0,0,0,0,0,0,-1,524,981,0,0
-693,43,-30.2173,6.16907,0,0,0,0,0,0,0,-1,531,981,-30.2173,-6.16908
-686,43,-31.3057,5.48596,-0.0503477,0.0400323,-0.0531063,0.0645734,-0.0748887,-1.13792,0.0805918,0.0447104,538,981,-31.3057,-5.48594
-679,43,-31.7501,4.65967,-0.0436765,0.0355265,-0.0446009,0.0555699,-0.0637199,-1.14845,0.0689256,0.0450472,545,981,-31.7501,-4.65964
-672,43,-32.0575,3.7243,0,0,0,0,0,0,0,-1,552,981,-32.0575,-3.72431
-665,43,-32.0276,3.28076,0,0,0,0,0,0,0,-1,559,981,-32.0276,-3.28074
-658,43,-32.9702,3.81567,0,0,0,0,0,0,0,-1,566,981,-32.9701,-3.81569
-651,43,-33.1052,3.67188,-0.0228261,0.0208909,-0.014869,0.0254687,-0.0274039,-1.27213,0.0305329,0.0432313,573,981,-33.1052,-3.67186
-644,43,-33.2609,3.53412,-0.0182481,0.0176253,-0.0098682,0.0201607,-0.0207835,-1.31931,0.0236401,0.024188,580,981,-33.2608,-3.5341
-637,43,-33.3671,3.38446,-0.0131475,0.014815,-0.0070175,0.0164773,-0.0148098,-1.3382,0.0180722,0.0177694,587,981,-33.367,-3.38447
-630,43,-33.385,3.23657,-0.00932799,0.0112723,-0.00389742,0.011985,-0.0100407,-1.38993,0.0127331,0.0142563,594,981,-33.385,-3.23656
-623,43,-33.4047,3.09332,-0.00639696,0.00852707,-0.00185323,0.00875375,-0.00662365,-1.44908,0.00890649,0.0120387,601,981,-33.4047,-3.09334
-616,43,-33.4097,2.90686,-0.00472935,0.00670851,-0.00181118,0.00698846,-0.0050093,-1.41744,0.00695825,0.0108704,608,981,-33.4097,-2.90686
-609,43,-33.4186,2.72699,-0.00337911,0.00512517,-0.00356388,0.00642117,-0.00467512,-1.22201,0.00643283,0.0131275,615,981,-33.4186,-2.72701
-602,43,-33.4138,2.54694,-0.00269826,0.00393849,-0.00490411,0.00654142,-0.00530119,-1.08284,0.00684982,0.0159971,622,981,-33.4138,-2.54696
-595,43,-33.442,2.39514,-0.00212059,0.0029143,-0.00558117,0.00651952,-0.00572581,-0.997266,0.00707479,0.0148511,629,981,-33.442,-2.39512
-588,43,-33.4269,1.95111,-0.00175419,0.00212001,-0.00621319,0.00669107,-0.00632525,-0.936509,0.00751596,0.0210689,636,981,-33.4269,-1.95112
-581,43,-33.4809,1.12085,-0.0015635,0.00172585,-0.00680252,0.00707969,-0.00691734,-0.904009,0.00808137,0.027577,643,981,-33.4809,-1.12088
-574,43,-33.5474,0.872498,-0.00140115,0.0015151,-0.0069896,0.00719705,-0.0070831,-0.88823,0.00824474,0.0293306,650,981,-33.5474,-0.87247
-567,43,-33.4753,0.67041,-0.00134795,0.00150947,-0.00683838,0.00706679,-0.00690527,-0.88838,0.00806696,0.0370478,657,981,-33.4753,-0.670391
-560,43,-33.4707,0.751099,-0.00111877,0.00163334,-0.00639158,0.00679532,-0.00628075,-0.891426,0.00755142,0.0404213,664,981,-33.4707,-0.751102
-553,43,-33.5565,0.845581,-0.000581115,0.00179044,-0.00579363,0.0065184,-0.00530907,-0.886339,0.00684048,0.039643,671,981,-33.5565,-0.845553
-546,43,-33.5538,0.96167,0.000369125,0.00184608,-0.00516471,0.00632484,-0.00410963,-0.85641,0.00606943,0.0405952,678,981,-33.5538,-0.961672
-539,43,-33.5657,1.0639,0.00193023,0.00167964,-0.00489359,0.00670013,-0.00309026,-0.772599,0.00577914,0.0438211,685,981,-33.5657,-1.06393
-532,43,-33.6403,0.404419,0.00420689,0.00154783,-0.00611892,0.00913906,-0.00338434,-0.67842,0.00748052,0.0451237,692,981,-33.6403,-0.404423
-525,43,-33.3562,0.39801,0.00564118,0.00124775,-0.00950429,0.0131993,-0.00631038,-0.671828,0.0114956,0.044017,699,981,-33.3562,-0.39798
-518,43,0,0,0,0,0,0,0,0,0,-1,706,981,0,0
-511,43,0,0,0,0,0,0,0,0,0,-1,713,981,0,0
-504,43,0,0,0,0,0,0,0,0,0,-1,720,981,0,0
-497,43,0,0,0,0,0,0,0,0,0,-1,727,981,0,0
-490,43,0,0,0,0,0,0,0,0,0,-1,734,981,0,0
-483,43,0,0,0,0,0,0,0,0,0,-1,741,981,0,0
-476,43,0,0,0,0,0,0,0,0,0,-1,748,981,0,0
-469,43,0,0,0,0,0,0,0,0,0,-1,755,981,0,0
-462,43,0,0,0,0,0,0,0,0,0,-1,762,981,0,0
-455,43,0,0,0,0,0,0,0,0,0,-1,769,981,0,0
-448,43,0,0,0,0,0,0,0,0,0,-1,776,981,0,0
-441,43,0,0,0,0,0,0,0,0,0,-1,783,981,0,0
-434,43,0,0,0,0,0,0,0,0,0,-1,790,981,0,0
-427,43,0,0,0,0,0,0,0,0,0,-1,797,981,0,0
-420,43,0,0,0,0,0,0,0,0,0,-1,804,981,0,0
-413,43,0,0,0,0,0,0,0,0,0,-1,811,981,0,0
-406,43,0,0,0,0,0,0,0,0,0,-1,818,981,0,0
-399,43,0,0,0,0,0,0,0,0,0,-1,825,981,0,0
-392,43,0,0,0,0,0,0,0,0,0,-1,832,981,0,0
-385,43,0,0,0,0,0,0,0,0,0,-1,839,981,0,0
-378,43,0,0,0,0,0,0,0,0,0,-1,846,981,0,0
-371,43,0,0,0,0,0,0,0,0,0,-1,853,981,0,0
-364,43,0,0,0,0,0,0,0,0,0,-1,860,981,0,0
-357,43,0,0,0,0,0,0,0,0,0,-1,867,981,0,0
-350,43,0,0,0,0,0,0,0,0,0,-1,874,981,0,0
-343,43,0,0,0,0,0,0,0,0,0,-1,881,981,0,0
-336,43,0,0,0,0,0,0,0,0,0,-1,888,981,0,0
-329,43,0,0,0,0,0,0,0,0,0,-1,895,981,0,0
-322,43,0,0,0,0,0,0,0,0,0,-1,902,981,0,0
-315,43,0,0,0,0,0,0,0,0,0,-1,909,981,0,0
-308,43,0,0,0,0,0,0,0,0,0,-1,916,981,0,0
-301,43,0,0,0,0,0,0,0,0,0,-1,923,981,0,0
-294,43,0,0,0,0,0,0,0,0,0,-1,930,981,0,0
-287,43,0,0,0,0,0,0,0,0,0,-1,937,981,0,0
-280,43,0,0,0,0,0,0,0,0,0,-1,944,981,0,0
-273,43,0,0,0,0,0,0,0,0,0,-1,951,981,0,0
-266,43,0,0,0,0,0,0,0,0,0,-1,958,981,0,0
-259,43,0,0,0,0,0,0,0,0,0,-1,965,981,0,0
-252,43,0,0,0,0,0,0,0,0,0,-1,972,981,0,0
-245,43,0,0,0,0,0,0,0,0,0,-1,979,981,0,0
-238,43,0,0,0,0,0,0,0,0,0,-1,986,981,0,0
-231,43,0,0,0,0,0,0,0,0,0,-1,993,981,0,0
-224,43,0,0,0,0,0,0,0,0,0,-1,1000,981,0,0
-217,43,0,0,0,0,0,0,0,0,0,-1,1007,981,0,0
-210,43,0,0,0,0,0,0,0,0,0,-1,1014,981,0,0
-203,43,0,0,0,0,0,0,0,0,0,-1,1021,981,0,0
-196,43,0,0,0,0,0,0,0,0,0,-1,1028,981,0,0
-189,43,0,0,0,0,0,0,0,0,0,-1,1035,981,0,0
-182,43,0,0,0,0,0,0,0,0,0,-1,1042,981,0,0
-175,43,0,0,0,0,0,0,0,0,0,-1,1049,981,0,0
-168,43,0,0,0,0,0,0,0,0,0,-1,1056,981,0,0
-161,43,0,0,0,0,0,0,0,0,0,-1,1063,981,0,0
-154,43,0,0,0,0,0,0,0,0,0,-1,1070,981,0,0
-147,43,0,0,0,0,0,0,0,0,0,-1,1077,981,0,0
-140,43,0,0,0,0,0,0,0,0,0,-1,1084,981,0,0
-133,43,0,0,0,0,0,0,0,0,0,-1,1091,981,0,0
-126,43,0,0,0,0,0,0,0,0,0,-1,1098,981,0,0
-119,43,0,0,0,0,0,0,0,0,0,-1,1105,981,0,0
-112,43,0,0,0,0,0,0,0,0,0,-1,1112,981,0,0
-105,43,0,0,0,0,0,0,0,0,0,-1,1119,981,0,0
-98,43,0,0,0,0,0,0,0,0,0,-1,1126,981,0,0
-91,43,0,0,0,0,0,0,0,0,0,-1,1133,981,0,0
-84,43,0,0,0,0,0,0,0,0,0,-1,1140,981,0,0
-77,43,0,0,0,0,0,0,0,0,0,-1,1147,981,0,0
-70,43,0,0,0,0,0,0,0,0,0,-1,1154,981,0,0
-63,43,0,0,0,0,0,0,0,0,0,-1,1161,981,0,0
-56,43,0,0,0,0,0,0,0,0,0,-1,1168,981,0,0
-49,43,0,0,0,0,0,0,0,0,0,-1,1175,981,0,0
-42,43,0,0,0,0,0,0,0,0,0,-1,1182,981,0,0
-35,43,0,0,0,0,0,0,0,0,0,-1,1189,981,0,0
-28,43,0,0,0,0,0,0,0,0,0,-1,1196,981,0,0
-21,43,0,0,0,0,0,0,0,0,0,-1,1203,981,0,0
-14,43,0,0,0,0,0,0,0,0,0,-1,1210,981,0,0
-7,43,0,0,0,0,0,0,0,0,0,-1,1217,981,0,0
0,43,0,0,0,0,0,0,0,0,0,-1,1224,981,0,0
7,43,0,0,0,0,0,0,0,0,0,-1,1231,981,0,0
14,43,0,0,0,0,0,0,0,0,0,-1,1238,981,0,0
21,43,0,0,0,0,0,0,0,0,0,-1,1245,981,0,0
28,43,0,0,0,0,0,0,0,0,0,-1,1252,981,0,0
35,43,0,0,0,0,0,0,0,0,0,-1,1259,981,0,0
42,43,0,0,0,0,0,0,0,0,0,-1,1266,981,0,0
49,43,0,0,0,0,0,0,0,0,0,-1,1273,981,0,0
56,43,0,0,0,0,0,0,0,0,0,-1,1280,981,0,0
63,43,0,0,0,0,0,0,0,0,0,-1,1287,981,0,0
70,43,0,0,0,0,0,0,0,0,0,-1,1294,981,0,0
77,43,0,0,0,0,0,0,0,0,0,-1,1301,981,0,0
84,43,0,0,0,0,0,0,0,0,0,-1,1308,981,0,0
91,43,0,0,0,0,0,0,0,0,0,-1,1315,981,0,0
98,43,0,0,0,0,0,0,0,0,0,-1,1322,981,0,0
105,43,0,0,0,0,0,0,0,0,0,-1,1329,981,0,0
112,43,0,0,0,0,0,0,0,0,0,-1,1336,981,0,0
119,43,0,0,0,0,0,0,0,0,0,-1,1343,981,0,0
126,43,0,0,0,0,0,0,0,0,0,-1,1350,981,0,0
133,43,0,0,0,0,0,0,0,0,0,-1,1357,981,0,0
140,43,0,0,0,0,0,0,0,0,0,-1,1364,981,0,0
147,43,0,0,0,0,0,0,0,0,0,-1,1371,981,0,0
154,43,0,0,0,0,0,0,0,0,0,-1,1378,981,0,0
161,43,0,0,0,0,0,0,0,0,0,-1,1385,981,0,0
168,43,0,0,0,0,0,0,0,0,0,-1,1392,981,0,0
175,43,0,0,0,0,0,0,0,0,0,-1,1399,981,0,0
182,43,0,0,0,0,0,0,0,0,0,-1,1406,981,0,0
189,43,0,0,0,0,0,0,0,0,0,-1,1413,981,0,0
196,43,0,0,0,0,0,0,0,0,0,-1,1420,981,0,0
203,43,0,0,0,0,0,0,0,0,0,-1,1427,981,0,0
210,43,0,0,0,0,0,0,0,0,0,-1,1434,981,0,0
217,43,0,0,0,0,0,0,0,0,0,-1,1441,981,0,0
224,43,0,0,0,0,0,0,0,0,0,-1,1448,981,0,0
231,43,0,0,0,0,0,0,0,0,0,-1,1455,981,0,0
238,43,0,0,0,0,0,0,0,0,0,-1,1462,981,0,0
245,43,0,0,0,0,0,0,0,0,0,-1,1469,981,0,0
252,43,0,0,0,0,0,0,0,0,0,-1,1476,981,0,0
259,43,0,0,0,0,0,0,0,0,0,-1,1483,981,0,0
266,43,0,0,0,0,0,0,0,0,0,-1,1490,981,0,0
273,43,0,0,0,0,0,0,0,0,0,-1,1497,981,0,0
280,43,0,0,0,0,0,0,0,0,0,-1,1504,981,0,0
287,43,0,0,0,0,0,0,0,0,0,-1,1511,981,0,0
294,43,0,0,0,0,0,0,0,0,0,-1,1518,981,0,0
301,43,0,0,0,0,0,0,0,0,0,-1,1525,981,0,0
308,43,0,0,0,0,0,0,0,0,0,-1,1532,981,0,0
315,43,0,0,0,0,0,0,0,0,0,-1,1539,981,0,0
322,43,0,0,0,0,0,0,0,0,0,-1,1546,981,0,0
329,43,0,0,0,0,0,0,0,0,0,-1,1553,981,0,0
336,43,0,0,0,0,0,0,0,0,0,-1,1560,981,0,0
343,43,0,0,0,0,0,0,0,0,0,-1,1567,981,0,0
350,43,0,0,0,0,0,0,0,0,0,-1,1574,981,0,0
357,43,0,0,0,0,0,0,0,0,0,-1,1581,981,0,0
364,43,0,0,0,0,0,0,0,0,0,-1,1588,981,0,0
371,43,0,0,0,0,0,0,0,0,0,-1,1595,981,0,0
378,43,0,0,0,0,0,0,0,0,0,-1,1602,981,0,0
385,43,0,0,0,0,0,0,0,0,0,-1,1609,981,0,0
392,43,0,0,0,0,0,0,0,0,0,-1,1616,981,0,0
399,43,0,0,0,0,0,0,0,0,0,-1,1623,981,0,0
406,43,0,0,0,0,0,0,0,0,0,-1,1630,981,0,0
413,43,0,0,0,0,0,0,0,0,0,-1,1637,981,0,0
420,43,0,0,0,0,0,0,0,0,0,-1,1644,981,0,0
427,43,0,0,0,0,0,0,0,0,0,-1,1651,981,0,0
434,43,0,0,0,0,0,0,0,0,0,-1,1658,981,0,0
441,43,0,0,0,0,0,0,0,0,0,-1,1665,981,0,0
448,43,0,0,0,0,0,0,0,0,0,-1,1672,981,0,0
455,43,0,0,0,0,0,0,0,0,0,-1,1679,981,0,0
462,43,0,0,0,0,0,0,0,0,0,-1,1686,981,0,0
469,43,0,0,0,0,0,0,0,0,0,-1,1693,981,0,0
476,43,0,0,0,0,0,0,0,0,0,-1,1700,981,0,0
483,43,0,0,0,0,0,0,0,0,0,-1,1707,981,0,0
490,43,0,0,0,0,0,0,0,0,0,-1,1714,981,0,0
497,43,0,0,0,0,0,0,0,0,0,-1,1721,981,0,0
504,43,0,0,0,0,0,0,0,0,0,-1,1728,981,0,0
511,43,0,0,0,0,0,0,0,0,0,-1,1735,981,0,0
518,43,0,0,0,0,0,0,0,0,0,-1,1742,981,0,0
525,43,0,0,0,0,0,0,0,0,0,-1,1749,981,0,0
532,43,0,0,0,0,0,0,0,0,0,-1,1756,981,0,0
539,43,0,0,0,0,0,0,0,0,0,-1,1763,981,0,0
546,43,0,0,0,0,0,0,0,0,0,-1,1770,981,0,0
553,43,0,0,0,0,0,0,0,0,0,-1,1777,981,0,0
560,43,0,0,0,0,0,0,0,0,0,-1,1784,981,0,0
567,43,0,0,0,0,0,0,0,0,0,-1,1791,981,0,0
574,43,0,0,0,0,0,0,0,0,0,-1,1798,981,0,0
581,43,0,0,0,0,0,0,0,0,0,-1,1805,981,0,0
588,43,0,0,0,0,0,0,0,0,0,-1,1812,981,0,0
595,43,0,0,0,0,0,0,0,0,0,-1,1819,981,0,0
602,43,0,0,0,0,0,0,0,0,0,-1,1826,981,0,0
609,43,0,0,0,0,0,0,0,0,0,-1,1833,981,0,0
616,43,0,0,0,0,0,0,0,0,0,-1,1840,981,0,0
623,43,0,0,0,0,0,0,0,0,0,-1,1847,981,0,0
630,43,0,0,0,0,0,0,0,0,0,-1,1854,981,0,0
637,43,0,0,0,0,0,0,0,0,0,-1,1861,981,0,0
644,43,45.0757,2.46521,0.000210592,0.000397082,0.00404781,0.00435272,-0.00374505,0.796914,0.00467964,0.0358299,1868,981,45.0756,-2.46522
651,43,45.0327,2.48712,-2.01694e-05,0.00013546,0.00211527,0.00217435,-0.00205906,0.803783,0.00244446,0.0350539,1875,981,45.0328,-2.48713
658,43,45.2185,2.64075,-7.90733e-05,-3.90974e-05,0.00110771,0.0010488,-0.00116697,0.794419,0.00127988,0.0360249,1882,981,45.2186,-2.64072
665,43,45.2153,2.69373,-0.000213048,9.69835e-05,0.000992369,0.000946371,-0.00106244,0.862876,0.00116043,0.0379442,1889,981,45.2153,-2.69374
672,43,45.0417,2.53931,-0.000412155,0.000353301,0.00135552,0.00137909,-0.00143794,0.92299,0.00162653,0.0400177,1896,981,45.0417,-2.53929
679,43,45.0521,2.61761,-0.000607447,0.000578654,0.00211852,0.00218557,-0.00221436,0.921873,0.00254032,0.0405675,1903,981,45.0522,-2.61763
686,43,45.0529,2.68304,-0.000656472,0.000632014,0.00285855,0.00291802,-0.00294248,0.896233,0.00338357,0.0387855,1910,981,45.0529,-2.68305
693,43,45.0825,2.51123,-0.000669511,0.00066781,0.00333804,0.0034035,-0.0034052,0.884248,0.003931,0.0350211,1917,981,45.0826,-2.51122
700,43,45.0803,2.53644,-0.000782964,0.000709142,0.00353894,0.00357981,-0.00365363,0.889283,0.0041763,0.028829,1924,981,45.0804,-2.53645
707,43,45.0911,2.63812,-0.00105419,0.000957008,0.00366102,0.00374803,-0.00384521,0.919431,0.00438408,0.0242831,1931,981,45.0911,-2.63815
714,43,45.0845,2.7854,0,0,0,0,0,0,0,-1,1938,981,45.0845,-2.78542
721,43,44.2979,4.61023,0,0,0,0,0,0,0,-1,1945,981,44.2978,-4.61021
728,43,44.2441,4.9328,-0.00240333,0.00273149,0.00308437,0.00417718,-0.00384901,1.13249,0.00463521,0.0206883,1952,981,44.2442,-4.93277
735,43,44.1951,5.22241,-0.00289124,0.00398956,0.00214308,0.00460245,-0.00350413,1.29225,0.00469463,0.0145154,1959,981,44.1951,-5.2224
742,43,44.1635,5.42883,-0.00386957,0.00497684,0.000735217,0.00503753,-0.00393026,1.48844,0.00519069,0.0162362,1966,981,44.1634,-5.42884
749,43,44.131,5.63104,-0.00452754,0.00527292,-0.0012149,0.00542127,-0.0046759,-1.44928,0.0058349,0.0180819,1973,981,44.1309,-5.63103
756,43,44.1111,5.8454,-0.00367,0.00502949,-0.00390484,0.00652509,-0.0051656,-1.20502,0.00676482,0.0193733,1980,981,44.111,-5.84538
763,43,44.0525,6.03387,-0.0012882,0.0047095,-0.00736499,0.00966277,-0.00624147,-0.978737,0.00925287,0.0234353,1987,981,44.0525,-6.03387
770,43,43.9662,6.28558,0.00179307,0.00335982,-0.0112315,0.0138353,-0.00868237,-0.820216,0.0131135,0.0191342,1994,981,43.9662,-6.28559
777,43,44.0099,6.52466,0.0069807,0.000600999,-0.0156077,0.0197212,-0.0121395,-0.684598,0.0185675,0.0242769,2001,981,44.0098,-6.52464
784,43,44.0269,6.60583,0.0147029,-0.00390462,-0.0205955,0.0279986,-0.0172003,-0.57325,0.0263427,0.0436349,2008,981,44.0267,-6.60586
791,43,44.0322,6.68256,0.0262014,-0.0107466,-0.0263541,0.0399117,-0.0244569,-0.479703,0.0375186,0.0466776,2015,981,44.0323,-6.68256
798,43,43.6218,6.98743,0.0425456,-0.0201789,-0.0330392,0.0567375,-0.0343708,-0.405716,0.0531272,0.0434108,2022,981,43.6219,-6.98743
805,43,44.124,6.84924,0.0649758,-0.0323673,-0.0405523,0.0796558,-0.0470472,-0.347325,0.0739551,0.0421718,2029,981,44.124,-6.84924
812,43,45.064,6.88324,0.0953883,-0.0472411,-0.0488053,0.11049,-0.0623425,-0.300078,0.101067,0.0466326,2036,981,45.0641,-6.88321
-700,36,0,0,0,0,0,0,0,0,0,-1,524,988,0,0
-693,36,-28.5112,3.25055,0,0,0,0,0,0,0,-1,531,988,-28.5112,-3.25057
-686,36,-30.0809,3.66821,0,0,0,0,0,0,0,-1,538,988,-30.0809,-3.66823
-679,36,-31.4517,4.17743,-0.0536515,0.0341223,-0.0337431,0.0455947,-0.0651239,-1.24306,0.064254,0.0440538,545,988,-31.4517,-4.17744
-672,36,-31.6889,3.40228,0,0,0,0,0,0,0,-1,552,988,-31.6889,-3.4023
-665,36,-31.95,2.58862,0,0,0,0,0,0,0,-1,559,988,-31.95,-2.58862
-658,36,-33.2231,3.54395,0,0,0,0,0,0,0,-1,566,988,-33.2231,-3.54392
-651,36,-33.3373,3.4328,-0.0248223,0.0204699,-0.0118522,0.023384,-0.0277363,-1.32971,0.02955,0.0415798,573,988,-33.3374,-3.43278
-644,36,-33.4727,3.32617,-0.0193624,0.0173377,-0.00795644,0.0189883,-0.0210131,-1.36623,0.0231047,0.0256461,580,988,-33.4727,-3.32619
-637,36,-33.5708,3.23169,-0.0135672,0.0146548,-0.00602069,0.0158855,-0.014798,-1.36916,0.0177188,0.0198443,587,988,-33.5708,-3.23167
-630,36,-33.576,3.17242,-0.00917258,0.0112182,-0.00371948,0.0118754,-0.00982987,-1.39589,0.0125501,0.0147643,594,988,-33.5761,-3.17243
-623,36,-33.6071,3.04852,-0.00578446,0.00857039,-0.00225549,0.00891644,-0.00613051,-1.41856,0.00873685,0.012414,601,988,-33.607,-3.04852
-616,36,-33.6024,2.90344,-0.0037767,0.00675401,-0.00245176,0.00729685,-0.00431954,-1.3529,0.00677975,0.0106859,608,988,-33.6023,-2.90346
-609,36,-33.5811,2.7818,-0.00237265,0.00520436,-0.0041406,0.0070281,-0.00419639,-1.15591,0.00654884,0.0148721,615,988,-33.5811,-2.78177
-602,36,-33.5981,2.62274,-0.00158916,0.00401374,-0.00548806,0.00737402,-0.00494944,-1.02139,0.00716071,0.0188799,622,988,-33.5981,-2.62275
-595,36,-33.6452,2.46124,-0.0009805,0.00289319,-0.00617129,0.00742443,-0.00551174,-0.937454,0.00749587,0.0223372,629,988,-33.6452,-2.46122
-588,36,-33.5826,1.78235,-0.000517396,0.00201782,-0.00678123,0.0076489,-0.00614848,-0.877796,0.00798161,0.0277924,636,988,-33.5826,-1.78232
-581,36,-33.4652,0.977661,-0.000203751,0.00153535,-0.00732867,0.00804588,-0.00671428,-0.844447,0.00853333,0.0302694,643,988,-33.4652,-0.977674
-574,36,-33.5225,0.88208,-3.89937e-05,0.00121791,-0.00743275,0.00804872,-0.00686981,-0.827574,0.00862218,0.0283286,650,988,-33.5224,-0.882066
-567,36,-33.549,0.760803,-1.45724e-05,0.00112123,-0.00713491,0.0077108,-0.00660414,-0.825112,0.00827297,0.032344,657,988,-33.5489,-0.760799
-560,36,-33.5423,0.717529,0.000129287,0.00115011,-0.00651444,0.00717411,-0.00589471,-0.824494,0.00755733,0.036048,664,988,-33.5423,-0.717522
-553,36,-33.5193,0.615356,0.000494595,0.00119892,-0.00570964,0.00656724,-0.00487373,-0.816198,0.00662953,0.0395915,671,988,-33.5194,-0.615382
-546,36,-33.4941,0.545959,0.00118861,0.00111494,-0.00485246,0.00600437,-0.00370082,-0.781603,0.00565566,0.0414849,678,988,-33.4941,-0.545967
-539,36,-33.4364,0.662415,0.0024304,0.00081724,-0.00441649,0.00611336,-0.00286572,-0.695079,0.0052959,0.0420582,685,988,-33.4364,-0.662417
-532,36,-33.3757,0.591736,0.0043791,0.000644119,-0.00563869,0.00845151,-0.00342829,-0.625487,0.00706023,0.0448821,692,988,-33.3757,-0.59175
-525,36,-33.5891,0.495789,0.00551903,6.56387e-05,-0.00898364,0.0121807,-0.00659599,-0.638058,0.0109994,0.0476564,699,988,-33.589,-0.495806
-518,36,0,0,0,0,0,0,0,0,0,-1,706,988,0,0
-511,36,0,0,0,0,0,0,0,0,0,-1,713,988,0,0
-504,36,0,0,0,0,0,0,0,0,0,-1,720,988,0,0
-497,36,0,0,0,0,0,0,0,0,0,-1,727,988,0,0
-490,36,0,0,0,0,0,0,0,0,0,-1,734,988,0,0
-483,36,0,0,0,0,0,0,0,0,0,-1,741,988,0,0
-476,36,0,0,0,0,0,0,0,0,0,-1,748,988,0,0
-469,36,0,0,0,0,0,0,0,0,0,-1,755,988,0,0
-462,36,0,0,0,0,0,0,0,0,0,-1,762,988,0,0
-455,36,0,0,0,0,0,0,0,0,0,-1,769,988,0,0
-448,36,0,0,0,0,0,0,0,0,0,-1,776,988,0,0
-441,36,0,0,0,0,0,0,0,0,0,-1,783,988,0,0
-434,36,0,0,0,0,0,0,0,0,0,-1,790,988,0,0
-427,36,0,0,0,0,0,0,0,0,0,-1,797,988,0,0
-420,36,0,0,0,0,0,0,0,0,0,-1,804,988,0,0
-413,36,0,0,0,0,0,0,0,0,0,-1,811,988,0,0
-406,36,0,0,0,0,0,0,0,0,0,-1,818,988,0,0
-399,36,0,0,0,0,0,0,0,0,0,-1,825,988,0,0
-392,36,0,0,0,0,0,0,0,0,0,-1,832,988,0,0
-385,36,0,0,0,0,0,0,0,0,0,-1,839,988,0,0
-378,36,0,0,0,0,0,0,0,0,0,-1,846,988,0,0
-371,36,0,0,0,0,0,0,0,0,0,-1,853,988,0,0
-364,36,0,0,0,0,0,0,0,0,0,-1,860,988,0,0
-357,36,0,0,0,0,0,0,0,0,0,-1,867,988,0,0
-350,36,0,0,0,0,0,0,0,0,0,-1,874,988,0,0
-343,36,0,0,0,0,0,0,0,0,0,-1,881,988,0,0
-336,36,0,0,0,0,0,0,0,0,0,-1,888,988,0,0
-329,36,0,0,0,0,0,0,0,0,0,-1,895,988,0,0
-322,36,0,0,0,0,0,0,0,0,0,-1,902,988,0,0
-315,36,0,0,0,0,0,0,0,0,0,-1,909,988,0,0
-308,36,0,0,0,0,0,0,0,0,0,-1,916,988,0,0
-301,36,0,0,0,0,0,0,0,0,0,-1,923,988,0,0
-294,36,0,0,0,0,0,0,0,0,0,-1,930,988,0,0
-287,36,0,0,0,0,0,0,0,0,0,-1,937,988,0,0
-280,36,0,0,0,0,0,0,0,0,0,-1,944,988,0,0
-273,36,0,0,0,0,0,0,0,0,0,-1,951,988,0,0
-266,36,0,0,0,0,0,0,0,0,0,-1,958,988,0,0
-259,36,0,0,0,0,0,0,0,0,0,-1,965,988,0,0
-252,36,0,0,0,0,0,0,0,0,0,-1,972,988,0,0
-245,36,0,0,0,0,0,0,0,0,0,-1,979,988,0,0
-238,36,0,0,0,0,0,0,0,0,0,-1,986,988,0,0
-231,36,0,0,0,0,0,0,0,0,0,-1,993,988,0,0
-224,36,0,0,0,0,0,0,0,0,0,-1,1000,988,0,0
-217,36,0,0,0,0,0,0,0,0,0,-1,1007,988,0,0
-210,36,0,0,0,0,0,0,0,0,0,-1,1014,988,0,0
-203,36,0,0,0,0,0,0,0,0,0,-1,1021,988,0,0
-196,36,0,0,0,0,0,0,0,0,0,-1,1028,988,0,0
-189,36,0,0,0,0,0,0,0,0,0,-1,1035,988,0,0
-182,36,0,0,0,0,0,0,0,0,0,-1,1042,988,0,0
-175,36,0,0,0,0,0,0,0,0,0,-1,1049,988,0,0
-168,36,0,0,0,0,0,0,0,0,0,-1,1056,988,0,0
-161,36,0,0,0,0,0,0,0,0,0,-1,1063,988,0,0
-154,36,0,0,0,0,0,0,0,0,0,-1,1070,988,0,0
-147,36,0,0,0,0,0,0,0,0,0,-1,1077,988,0,0
-140,36,0,0,0,0,0,0,0,0,0,-1,1084,988,0,0
-133,36,0,0,0,0,0,0,0,0,0,-1,1091,988,0,0
-126,36,0,0,0,0,0,0,0,0,0,-1,1098,988,0,0
-119,36,0,0,0,0,0,0,0,0,0,-1,1105,988,0,0
-112,36,0,0,0,0,0,0,0,0,0,-1,1112,988,0,0
-105,36,0,0,0,0,0,0,0,0,0,-1,1119,988,0,0
-98,36,0,0,0,0,0,0,0,0,0,-1,1126,988,0,0
-91,36,0,0,0,0,0,0,0,0,0,-1,1133,988,0,0
-84,36,0,0,0,0,0,0,0,0,0,-1,1140,988,0,0
-77,36,0,0,0,0,0,0,0,0,0,-1,1147,988,0,0
-70,36,0,0,0,0,0,0,0,0,0,-1,1154,988,0,0
-63,36,0,0,0,0,0,0,0,0,0,-1,1161,988,0,0
-56,36,0,0,0,0,0,0,0,0,0,-1,1168,988,0,0
-49,36,0,0,0,0,0,0,0,0,0,-1,1175,988,0,0
-42,36,0,0,0,0,0,0,0,0,0,-1,1182,988,0,0
-35,36,0,0,0,0,0,0,0,0,0,-1,1189,988,0,0
-28,36,0,0,0,0,0,0,0,0,0,-1,1196,988,0,0
-21,36,0,0,0,0,0,0,0,0,0,-1,1203,988,0,0
-14,36,0,0,0,0,0,0,0,0,0,-1,1210,988,0,0
-7,36,0,0,0,0,0,0,0,0,0,-1,1217,988,0,0
0,36,0,0,0,0,0,0,0,0,0,-1,1224,988,0,0
7,36,0,0,0,0,0,0,0,0,0,-1,1231,988,0,0
14,36,0,0,0,0,0,0,0,0,0,-1,1238,988,0,0
21,36,0,0,0,0,0,0,0,0,0,-1,1245,988,0,0
28,36,0,0,0,0,0,0,0,0,0,-1,1252,988,0,0
35,36,0,0,0,0,0,0,0,0,0,-1,1259,988,0,0
42,36,0,0,0,0,0,0,0,0,0,-1,1266,988,0,0
49,36,0,0,0,0,0,0,0,0,0,-1,1273,988,0,0
56,36,0,0,0,0,0,0,0,0,0,-1,1280,988,0,0
63,36,0,0,0,0,0,0,0,0,0,-1,1287,988,0,0
70,36,0,0,0,0,0,0,0,0,0,-1,1294,988,0,0
77,36,0,0,0,0,0,0,0,0,0,-1,1301,988,0,0
84,36,0,0,0,0,0,0,0,0,0,-1,1308,988,0,0
91,36,0,0,0,0,0,0,0,0,0,-1,1315,988,0,0
98,36,0,0,0,0,0,0,0,0,0,-1,1322,988,0,0
105,36,0,0,0,0,0,0,0,0,0,-1,1329,988,0,0
112,36,0,0,0,0,0,0,0,0,0,-1,1336,988,0,0
119,36,0,0,0,0,0,0,0,0,0,-1,1343,988,0,0
126,36,0,0,0,0,0,0,0,0,0,-1,1350,988,0,0
133,36,0,0,0,0,0,0,0,0,0,-1,1357,988,0,0
140,36,0,0,0,0,0,0,0,0,0,-1,1364,988,0,0
147,36,0,0,0,0,0,0,0,0,0,-1,1371,988,0,0
154,36,0,0,0,0,0,0,0,0,0,-1,1378,988,0,0
161,36,0,0,0,0,0,0,0,0,0,-1,1385,988,0,0
168,36,0,0,0,0,0,0,0,0,0,-1,1392,988,0,0
175,36,0,0,0,0,0,0,0,0,0,-1,1399,988,0,0
182,36,0,0,0,0,0,0,0,0,0,-1,1406,988,0,0
189,36,0,0,0,0,0,0,0,0,0,-1,1413,988,0,0
196,36,0,0,0,0,0,0,0,0,0,-1,1420,988,0,0
203,36,0,0,0,0,0,0,0,0,0,-1,1427,988,0,0
210,36,0,0,0,0,0,0,0,0,0,-1,1434,988,0,0
217,36,0,0,0,0,0,0,0,0,0,-1,1441,988,0,0
224,36,0,0,0,0,0,0,0,0,0,-1,1448,988,0,0
231,36,0,0,0,0,0,0,0,0,0,-1,1455,988,0,0
238,36,0,0,0,0,0,0,0,0,0,-1,1462,988,0,0
245,36,0,0,0,0,0,0,0,0,0,-1,1469,988,0,0
252,36,0,0,0,0,0,0,0,0,0,-1,1476,988,0,0
259,36,0,0,0,0,0,0,0,0,0,-1,1483,988,0,0
266,36,0,0,0,0,0,0,0,0,0,-1,1490,988,0,0
273,36,0,0,0,0,0,0,0,0,0,-1,1497,988,0,0
280,36,0,0,0,0,0,0,0,0,0,-1,1504,988,0,0
287,36,0,0,0,0,0,0,0,0,0,-1,1511,988,0,0
294,36,0,0,0,0,0,0,0,0,0,-1,1518,988,0,0
301,36,0,0,0,0,0,0,0,0,0,-1,1525,988,0,0
308,36,0,0,0,0,0,0,0,0,0,-1,1532,988,0,0
315,36,0,0,0,0,0,0,0,0,0,-1,1539,988,0,0
322,36,0,0,0,0,0,0,0,0,0,-1,1546,988,0,0
329,36,0,0,0,0,0,0,0,0,0,-1,1553,988,0,0
336,36,0,0,0,0,0,0,0,0,0,-1,1560,988,0,0
343,36,0,0,0,0,0,0,0,0,0,-1,1567,988,0,0
350,36,0,0,0,0,0,0,0,0,0,-1,1574,988,0,0
357,36,0,0,0,0,0,0,0,0,0,-1,1581,988,0,0
364,36,0,0,0,0,0,0,0,0,0,-1,1588,988,0,0
371,36,0,0,0,0,0,0,0,0,0,-1,1595,988,0,0
378,36,0,0,0,0,0,0,0,0,0,-1,1602,988,0,0
385,36,0,0,0,0,0,0,0,0,0,-1,1609,988,0,0
392,36,0,0,0,0,0,0,0,0,0,-1,1616,988,0,0
399,36,0,0,0,0,0,0,0,0,0,-1,1623,988,0,0
406,36,0,0,0,0,0,0,0,0,0,-1,1630,988,0,0
413,36,0,0,0,0,0,0,0,0,0,-1,1637,988,0,0
420,36,0,0,0,0,0,0,0,0,0,-1,1644,988,0,0
427,36,0,0,0,0,0,0,0,0,0,-1,1651,988,0,0
434,36,0,0,0,0,0,0,0,0,0,-1,1658,988,0,0
441,36,0,0,0,0,0,0,0,0,0,-1,1665,988,0,0
448,36,0,0,0,0,0,0,0,0,0,-1,1672,988,0,0
455,36,0,0,0,0,0,0,0,0,0,-1,1679,988,0,0
462,36,0,0,0,0,0,0,0,0,0,-1,1686,988,0,0
469,36,0,0,0,0,0,0,0,0,0,-1,1693,988,0,0
476,36,0,0,0,0,0,0,0,0,0,-1,1700,988,0,0
483,36,0,0,0,0,0,0,0,0,0,-1,1707,988,0,0
490,36,0,0,0,0,0,0,0,0,0,-1,1714,988,0,0
497,36,0,0,0,0,0,0,0,0,0,-1,1721,988,0,0
504,36,0,0,0,0,0,0,0,0,0,-1,1728,988,0,0
511,36,0,0,0,0,0,0,0,0,0,-1,1735,988,0,0
518,36,0,0,0,0,0,0,0,0,0,-1,1742,988,0,0
525,36,0,0,0,0,0,0,0,0,0,-1,1749,988,0,0
532,36,0,0,0,0,0,0,0,0,0,-1,1756,988,0,0
539,36,0,0,0,0,0,0,0,0,0,-1,1763,988,0,0
546,36,0,0,0,0,0,0,0,0,0,-1,1770,988,0,0
553,36,0,0,0,0,0,0,0,0,0,-1,1777,988,0,0
560,36,0,0,0,0,0,0,0,0,0,-1,1784,988,0,0
567,36,0,0,0,0,0,0,0,0,0,-1,1791,988,0,0
574,36,0,0,0,0,0,0,0,0,0,-1,1798,988,0,0
581,36,0,0,0,0,0,0,0,0,0,-1,1805,988,0,0
588,36,0,0,0,0,0,0,0,0,0,-1,1812,988,0,0
595,36,0,0,0,0,0,0,0,0,0,-1,1819,988,0,0
602,36,0,0,0,0,0,0,0,0,0,-1,1826,988,0,0
609,36,0,0,0,0,0,0,0,0,0,-1,1833,988,0,0
616,36,0,0,0,0,0,0,0,0,0,-1,1840,988,0,0
623,36,0,0,0,0,0,0,0,0,0,-1,1847,988,0,0
630,36,0,0,0,0,0,0,0,0,0,-1,1854,988,0,0
637,36,0,0,0,0,0,0,0,0,0,-1,1861,988,0,0
644,36,45.0511,2.54761,0.000590572,0.000534128,0.00424653,0.00480897,-0.00368427,0.782075,0.00491788,0.0370249,1868,988,45.0511,-2.54763
651,36,45.0109,2.66504,0.000195325,0.000302539,0.00217958,0.00242917,-0.00193131,0.797693,0.00252299,0.0365282,1875,988,45.0109,-2.66506
658,36,45.1687,2.7627,6.19976e-05,8.78745e-05,0.00107175,0.00114676,-0.000996888,0.791434,0.00123864,0.0371093,1882,988,45.1686,-2.76268
665,36,45.208,2.77777,-0.000104735,0.000152394,0.000873742,0.000906979,-0.00085932,0.858445,0.0010199,0.0385944,1889,988,45.208,-2.7778
672,36,45.124,2.76843,-0.000296199,0.000342773,0.00117706,0.00124293,-0.00119636,0.917919,0.00140841,0.0416506,1896,988,45.124,-2.76843
679,36,45.1119,2.71832,-0.000455825,0.00054271,0.00193749,0.00204423,-0.00195735,0.911498,0.00231049,0.0405967,1903,988,45.112,-2.71833
686,36,45.0054,2.60583,-0.000466977,0.000568043,0.00272408,0.00282333,-0.00272227,0.879268,0.00320193,0.0360202,1910,988,45.0053,-2.60581
693,36,45.0397,2.61713,-0.000438795,0.000590244,0.00329423,0.0034099,-0.00325845,0.862866,0.0038503,0.03697,1917,988,45.0396,-2.61715
700,36,45.1,2.64081,-0.000507222,0.000637818,0.00354795,0.00365914,-0.00352855,0.865392,0.00415004,0.0344451,1924,988,45.0999,-2.64083
707,36,45.1234,2.61871,-0.000739364,0.000877123,0.00374533,0.00390042,-0.00376266,0.891669,0.00442452,0.0246472,1931,988,45.1234,-2.61871
714,36,45.0488,3.03204,-0.00113803,0.00126427,0.00380582,0.00405399,-0.00392774,0.938255,0.00460845,0.0332005,1938,988,45.0489,-3.03206
721,36,44.5902,4.72504,0,0,0,0,0,0,0,-1,1945,988,44.5902,-4.72504
728,36,44.4926,5.02032,-0.00216295,0.00267404,0.00331903,0.00436226,-0.00385116,1.10025,0.00474508,0.0224233,1952,988,44.4925,-5.02034
735,36,44.4115,5.28387,-0.00269555,0.00395938,0.00236795,0.00471593,-0.00345211,1.26155,0.0047346,0.0194656,1959,988,44.4115,-5.28388
742,36,44.3737,5.4328,-0.00385344,0.0049804,0.000871724,0.00506561,-0.00393864,1.47337,0.00521216,0.0159703,1966,988,44.3737,-5.4328
749,36,44.3661,5.63074,-0.00475887,0.00533181,-0.00118305,0.00546866,-0.00489572,-1.45563,0.00598692,0.0172957,1973,988,44.3661,-5.63072
756,36,44.321,5.80994,-0.00421739,0.00518699,-0.00397755,0.00664365,-0.00567405,-1.21974,0.00711897,0.0164658,1980,988,44.3211,-5.80992
763,36,44.2249,5.97467,-0.00223544,0.00497757,-0.00762075,0.00980212,-0.00705999,-1.00641,0.00977816,0.0194938,1987,988,44.2249,-5.9747
770,36,44.1563,6.17755,0.000288872,0.00380828,-0.0118105,0.0139895,-0.00989234,-0.859351,0.0138557,0.0165064,1994,988,44.1563,-6.17756
777,36,44.2181,6.45099,0.00491907,0.00125765,-0.0166183,0.0198072,-0.0136305,-0.730538,0.0194148,0.0257217,2001,988,44.2181,-6.45097
784,36,44.356,6.32196,0.0119844,-0.00293799,-0.0220491,0.0278005,-0.0187541,-0.622251,0.0270469,0.0472398,2008,988,44.356,-6.32195
791,36,43.5955,7.80219,0,0,0,0,0,0,0,-1,2015,988,43.5954,-7.80221
798,36,43.7429,7.63501,0.0382321,-0.0182884,-0.0354781,0.0553298,-0.035386,-0.44908,0.052795,0.0431477,2022,988,43.743,-7.63504
805,36,44.4231,7.27246,0.0598217,-0.0298585,-0.0435495,0.0774891,-0.047526,-0.385399,0.0728653,0.0470205,2029,988,44.4232,-7.27243
812,36,45.6035,6.69067,0.089429,-0.0439999,-0.0523947,0.107544,-0.0621148,-0.332874,0.0991161,0.0497688,2036,988,45.6034,-6.69065
-700,29,0,0,0,0,0,0,0,0,0,-1,524,995,0,0
-693,29,-28.7123,3.16479,-0.0904142,0.0373829,-0.0216305,0.0409447,-0.093976,-1.40759,0.0798771,0.0454759,531,995,-28.7123,-3.16477
-686,29,-30.2677,3.56921,-0.0718133,0.0339805,-0.0253091,0.0397234,-0.0775563,-1.34766,0.0688758,0.0451398,538,995,-30.2677,-3.56919
-679,29,-31.2903,3.57159,-0.0588715,0.030853,-0.0235324,0.0366504,-0.0646688,-1.32925,0.0592376,0.0439701,545,995,-31.2903,-3.5716
-672,29,-32.0991,3.39148,0,0,0,0,0,0,0,-1,552,995,-32.0991,-3.39148
-665,29,-31.8471,1.84924,0,0,0,0,0,0,0,-1,559,995,-31.8471,-1.84927
-658,29,-33.8499,1.77032,0,0,0,0,0,0,0,-1,566,995,-33.8499,-1.77035
-651,29,-33.5391,3.19476,0,0,0,0,0,0,0,-1,573,995,-33.539,-3.19477
-644,29,-33.5549,2.9328,-0.0197117,0.0162774,-0.00596521,0.0172404,-0.0206747,-1.41075,0.0219202,0.0438197,580,995,-33.5549,-2.93279
-637,29,-33.7188,3.10248,-0.0136126,0.0138845,-0.00494274,0.014746,-0.0144741,-1.39824,0.0168705,0.0243292,587,995,-33.7188,-3.10249
-630,29,-33.7307,3.09564,-0.00891542,0.0107455,-0.00347578,0.0113419,-0.00951179,-1.40087,0.0120553,0.0127064,594,995,-33.7307,-3.09567
-623,29,-33.7406,3.03204,-0.00524386,0.00826172,-0.00261356,0.00874984,-0.00573199,-1.38616,0.00842139,0.0115073,601,995,-33.7406,-3.03203
-616,29,-33.7571,2.90125,-0.00299015,0.00649054,-0.00300548,0.00736301,-0.00386263,-1.28827,0.00658532,0.0138009,608,995,-33.7571,-2.90124
-609,29,-33.756,2.82764,-0.00158499,0.00500538,-0.00452458,0.00730752,-0.00388713,-1.10013,0.00656303,0.019461,615,995,-33.756,-2.82765
-602,29,-33.7741,2.71326,-0.000750646,0.00381406,-0.00578822,0.00775365,-0.00469024,-0.973194,0.00725669,0.0197414,622,995,-33.7741,-2.71328
-595,29,-33.798,2.52252,-0.000143386,0.00267427,-0.006412,0.00783039,-0.0052995,-0.893539,0.00762734,0.0220743,629,995,-33.798,-2.5225
-588,29,-33.63,1.80042,0.000403079,0.00176989,-0.00697055,0.00809045,-0.00591748,-0.834263,0.00811986,0.0343964,636,995,-33.63,-1.80044
-581,29,-33.4359,1.20532,0.000835673,0.00120677,-0.00744865,0.00847218,-0.00642974,-0.797851,0.00863052,0.0429597,643,995,-33.4359,-1.2053
-574,29,-33.4999,0.858032,0.00100419,0.000798001,-0.00746838,0.00837019,-0.00656799,-0.778496,0.00864546,0.0333847,650,995,-33.4999,-0.858008
-567,29,-33.5535,0.760681,0.00100606,0.00062155,-0.00705662,0.00787304,-0.00624544,-0.771779,0.00816934,0.0316268,657,995,-33.5535,-0.760675
-560,29,-33.5491,0.645203,0.00107256,0.000565958,-0.0062969,0.00712125,-0.00548273,-0.765296,0.00729738,0.0358465,664,995,-33.5492,-0.645175
-553,29,-33.5522,0.5849,0.00127355,0.000518209,-0.00531891,0.00622819,-0.00443642,-0.749955,0.00618612,0.041981,671,995,-33.5522,-0.584911
-546,29,-33.5254,0.501282,0.00172266,0.000308564,-0.00425707,0.005331,-0.00329977,-0.703105,0.00502877,0.0426562,678,995,-33.5254,-0.501257
-539,29,-33.3928,0.712097,0.00266178,-9.28527e-05,-0.00367592,0.00520995,-0.00264102,-0.60615,0.00461293,0.042349,685,995,-33.3928,-0.712117
-532,29,-33.1766,0.723755,0.00430129,-0.000282049,-0.00485886,0.0073818,-0.00336255,-0.565043,0.00634628,0.0461168,692,995,-33.1766,-0.723737
-525,29,-33.3711,0.697083,0.0051503,-0.00112009,-0.00798997,0.0105982,-0.00656797,-0.598433,0.0100015,0.045499,699,995,-33.3711,-0.69708
-518,29,0,0,0,0,0,0,0,0,0,-1,706,995,0,0
-511,29,0,0,0,0,0,0,0,0,0,-1,713,995,0,0
-504,29,0,0,0,0,0,0,0,0,0,-1,720,995,0,0
-497,29,0,0,0,0,0,0,0,0,0,-1,727,995,0,0
-490,29,0,0,0,0,0,0,0,0,0,-1,734,995,0,0
-483,29,0,0,0,0,0,0,0,0,0,-1,741,995,0,0
-476,29,0,0,0,0,0,0,0,0,0,-1,748,995,0,0
-469,29,0,0,0,0,0,0,0,0,0,-1,755,995,0,0
-462,29,0,0,0,0,0,0,0,0,0,-1,762,995,0,0
-455,29,0,0,0,0,0,0,0,0,0,-1,769,995,0,0
-448,29,0,0,0,0,0,0,0,0,0,-1,776,995,0,0
-441,29,0,0,0,0,0,0,0,0,0,-1,783,995,0,0
-434,29,0,0,0,0,0,0,0,0,0,-1,790,995,0,0
-427,29,0,0,0,0,0,0,0,0,0,-1,797,995,0,0
-420,29,0,0,0,0,0,0,0,0,0,-1,804,995,0,0
-413,29,0,0,0,0,0,0,0,0,0,-1,811,995,0,0
-406,29,0,0,0,0,0,0,0,0,0,-1,818,995,0,0
-399,29,0,0,0,0,0,0,0,0,0,-1,825,995,0,0
-392,29,0,0,0,0,0,0,0,0,0,-1,832,995,0,0
-385,29,0,0,0,0,0,0,0,0,0,-1,839,995,0,0
-378,29,0,0,0,0,0,0,0,0,0,-1,846,995,0,0
-371,29,0,0,0,0,0,0,0,0,0,-1,853,995,0,0
-364,29,0,0,0,0,0,0,0,0,0,-1,860,995,0,0
-357,29,0,0,0,0,0,0,0,0,0,-1,867,995,0,0
-350,29,0,0,0,0,0,0,0,0,0,-1,874,995,0,0
-343,29,0,0,0,0,0,0,0,0,0,-1,881,995,0,0
-336,29,0,0,0,0,0,0,0,0,0,-1,888,995,0,0
-329,29,0,0,0,0,0,0,0,0,0,-1,895,995,0,0
-322,29,0,0,0,0,0,0,0,0,0,-1,902,995,0,0
-315,29,0,0,0,0,0,0,0,0,0,-1,909,995,0,0
-308,29,0,0,0,0,0,0,0,0,0,-1,916,995,0,0
-301,29,0,0,0,0,0,0,0,0,0,-1,923,995,0,0
-294,29,0,0,0,0,0,0,0,0,0,-1,930,995,0,0
-287,29,0,0,0,0,0,0,0,0,0,-1,937,995,0,0
-280,29,0,0,0,0,0,0,0,0,0,-1,944,995,0,0
-273,29,0,0,0,0,0,0,0,0,0,-1,951,995,0,0
-266,29,0,0,0,0,0,0,0,0,0,-1,958,995,0,0
-259,29,0,0,0,0,0,0,0,0,0,-1,965,995,0,0
-252,29,0,0,0,0,0,0,0,0,0,-1,972,995,0,0
-245,29,0,0,0,0,0,0,0,0,0,-1,979,995,0,0
-238,29,0,0,0,0,0,0,0,0,0,-1,986,995,0,0
-231,29,0,0,0,0,0,0,0,0,0,-1,993,995,0,0
-224,29,0,0,0,0,0,0,0,0,0,-1,1000,995,0,0
-217,29,0,0,0,0,0,0,0,0,0,-1,1007,995,0,0
-210,29,0,0,0,0,0,0,0,0,0,-1,1014,995,0,0
-203,29,0,0,0,0,0,0,0,0,0,-1,1021,995,0,0
-196,29,0,0,0,0,0,0,0,0,0,-1,1028,995,0,0
-189,29,0,0,0,0,0,0,0,0,0,-1,1035,995,0,0
-182,29,0,0,0,0,0,0,0,0,0,-1,1042,995,0,0
-175,29,0,0,0,0,0,0,0,0,0,-1,1049,995,0,0
-168,29,0,0,0,0,0,0,0,0,0,-1,1056,995,0,0
-161,29,0,0,0,0,0,0,0,0,0,-1,1063,995,0,0
-154,29,0,0,0,0,0,0,0,0,0,-1,1070,995,0,0
-147,29,0,0,0,0,0,0,0,0,0,-1,1077,995,0,0
-140,29,0,0,0,0,0,0,0,0,0,-1,1084,995,0,0
-133,29,0,0,0,0,0,0,0,0,0,-1,1091,995,0,0
-126,29,0,0,0,0,0,0,0,0,0,-1,1098,995,0,0
-119,29,0,0,0,0,0,0,0,0,0,-1,1105,995,0,0
-112,29,0,0,0,0,0,0,0,0,0,-1,1112,995,0,0
-105,29,0,0,0,0,0,0,0,0,0,-1,1119,995,0,0
-98,29,0,0,0,0,0,0,0,0,0,-1,1126,995,0,0
-91,29,0,0,0,0,0,0,0,0,0,-1,1133,995,0,0
-84,29,0,0,0,0,0,0,0,0,0,-1,1140,995,0,0
-77,29,0,0,0,0,0,0,0,0,0,-1,1147,995,0,0
-70,29,0,0,0,0,0,0,0,0,0,-1,1154,995,0,0
-63,29,0,0,0,0,0,0,0,0,0,-1,1161,995,0,0
-56,29,0,0,0,0,0,0,0,0,0,-1,1168,995,0,0
-49,29,0,0,0,0,0,0,0,0,0,-1,1175,995,0,0
-42,29,0,0,0,0,0,0,0,0,0,-1,1182,995,0,0
-35,29,0,0,0,0,0,0,0,0,0,-1,1189,995,0,0
-28,29,0,0,0,0,0,0,0,0,0,-1,1196,995,0,0
-21,29,0,0,0,0,0,0,0,0,0,-1,1203,995,0,0
-14,29,0,0,0,0,0,0,0,0,0,-1,1210,995,0,0
-7,29,0,0,0,0,0,0,0,0,0,-1,1217,995,0,0
0,29,0,0,0,0,0,0,0,0,0,-1,1224,995,0,0
7,29,0,0,0,0,0,0,0,0,0,-1,1231,995,0,0
14,29,0,0,0,0,0,0,0,0,0,-1,1238,995,0,0
21,29,0,0,0,0,0,0,0,0,0,-1,1245,995,0,0
28,29,0,0,0,0,0,0,0,0,0,-1,1252,995,0,0
35,29,0,0,0,0,0,0,0,0,0,-1,1259,995,0,0
42,29,0,0,0,0,0,0,0,0,0,-1,1266,995,0,0
49,29,0,0,0,0,0,0,0,0,0,-1,1273,995,0,0
56,29,0,0,0,0,0,0,0,0,0,-1,1280,995,0,0
63,29,0,0,0,0,0,0,0,0,0,-1,1287,995,0,0
70,29,0,0,0,0,0,0,0,0,0,-1,1294,995,0,0
77,29,0,0,0,0,0,0,0,0,0,-1,1301,995,0,0
84,29,0,0,0,0,0,0,0,0,0,-1,1308,995,0,0
91,29,0,0,0,0,0,0,0,0,0,-1,1315,995,0,0
98,29,0,0,0,0,0,0,0,0,0,-1,1322,995,0,0
105,29,0,0,0,0,0,0,0,0,0,-1,1329,995,0,0
112,29,0,0,0,0,0,0,0,0,0,-1,1336,995,0,0
119,29,0,0,0,0,0,0,0,0,0,-1,1343,995,0,0
126,29,0,0,0,0,0,0,0,0,0,-1,1350,995,0,0
133,29,0,0,0,0,0,0,0,0,0,-1,1357,995,0,0
140,29,0,0,0,0,0,0,0,0,0,-1,1364,995,0,0
147,29,0,0,0,0,0,0,0,0,0,-1,1371,995,0,0
154,29,0,0,0,0,0,0,0,0,0,-1,1378,995,0,0
161,29,0,0,0,0,0,0,0,0,0,-1,1385,995,0,0
168,29,0,0,0,0,0,0,0,0,0,-1,1392,995,0,0
175,29,0,0,0,0,0,0,0,0,0,-1,1399,995,0,0
182,29,0,0,0,0,0,0,0,0,0,-1,1406,995,0,0
189,29,0,0,0,0,0,0,0,0,0,-1,1413,995,0,0
196,29,0,0,0,0,0,0,0,0,0,-1,1420,995,0,0
203,29,0,0,0,0,0,0,0,0,0,-1,1427,995,0,0
210,29,0,0,0,0,0,0,0,0,0,-1,1434,995,0,0
217,29,0,0,0,0,0,0,0,0,0,-1,1441,995,0,0
224,29,0,0,0,0,0,0,0,0,0,-1,1448,995,0,0
231,29,0,0,0,0,0,0,0,0,0,-1,1455,995,0,0
238,29,0,0,0,0,0,0,0,0,0,-1,1462,995,0,0
245,29,0,0,0,0,0,0,0,0,0,-1,1469,995,0,0
252,29,0,0,0,0,0,0,0,0,0,-1,1476,995,0,0
259,29,0,0,0,0,0,0,0,0,0,-1,1483,995,0,0
266,29,0,0,0,0,0,0,0,0,0,-1,1490,995,0,0
273,29,0,0,0,0,0,0,0,0,0,-1,1497,995,0,0
280,29,0,0,0,0,0,0,0,0,0,-1,1504,995,0,0
287,29,0,0,0,0,0,0,0,0,0,-1,1511,995,0,0
294,29,0,0,0,0,0,0,0,0,0,-1,1518,995,0,0
301,29,0,0,0,0,0,0,0,0,0,-1,1525,995,0,0
308,29,0,0,0,0,0,0,0,0,0,-1,1532,995,0,0
315,29,0,0,0,0,0,0,0,0,0,-1,1539,995,0,0
322,29,0,0,0,0,0,0,0,0,0,-1,1546,995,0,0
329,29,0,0,0,0,0,0,0,0,0,-1,1553,995,0,0
336,29,0,0,0,0,0,0,0,0,0,-1,1560,995,0,0
343,29,0,0,0,0,0,0,0,0,0,-1,1567,995,0,0
350,29,0,0,0,0,0,0,0,0,0,-1,1574,995,0,0
357,29,0,0,0,0,0,0,0,0,0,-1,1581,995,0,0
364,29,0,0,0,0,0,0,0,0,0,-1,1588,995,0,0
371,29,0,0,0,0,0,0,0,0,0,-1,1595,995,0,0
378,29,0,0,0,0,0,0,0,0,0,-1,1602,995,0,0
385,29,0,0,0,0,0,0,0,0,0,-1,1609,995,0,0
392,29,0,0,0,0,0,0,0,0,0,-1,1616,995,0,0
399,29,0,0,0,0,0,0,0,0,0,-1,1623,995,0,0
406,29,0,0,0,0,0,0,0,0,0,-1,1630,995,0,0
413,29,0,0,0,0,0,0,0,0,0,-1,1637,995,0,0
420,29,0,0,0,0,0,0,0,0,0,-1,1644,995,0,0
427,29,0,0,0,0,0,0,0,0,0,-1,1651,995,0,0
434,29,0,0,0,0,0,0,0,0,0,-1,1658,995,0,0
441,29,0,0,0,0,0,0,0,0,0,-1,1665,995,0,0
448,29,0,0,0,0,0,0,0,0,0,-1,1672,995,0,0
455,29,0,0,0,0,0,0,0,0,0,-1,1679,995,0,0
462,29,0,0,0,0,0,0,0,0,0,-1,1686,995,0,0
469,29,0,0,0,0,0,0,0,0,0,-1,1693,995,0,0
476,29,0,0,0,0,0,0,0,0,0,-1,1700,995,0,0
483,29,0,0,0,0,0,0,0,0,0,-1,1707,995,0,0
490,29,0,0,0,0,0,0,0,0,0,-1,1714,995,0,0
497,29,0,0,0,0,0,0,0,0,0,-1,1721,995,0,0
504,29,0,0,0,0,0,0,0,0,0,-1,1728,995,0,0
511,29,0,0,0,0,0,0,0,0,0,-1,1735,995,0,0
518,29,0,0,0,0,0,0,0,0,0,-1,1742,995,0,0
525,29,0,0,0,0,0,0,0,0,0,-1,1749,995,0,0
532,29,0,0,0,0,0,0,0,0,0,-1,1756,995,0,0
539,29,0,0,0,0,0,0,0,0,0,-1,1763,995,0,0
546,29,0,0,0,0,0,0,0,0,0,-1,1770,995,0,0
553,29,0,0,0,0,0,0,0,0,0,-1,1777,995,0,0
560,29,0,0,0,0,0,0,0,0,0,-1,1784,995,0,0
567,29,0,0,0,0,0,0,0,0,0,-1,1791,995,0,0
574,29,0,0,0,0,0,0,0,0,0,-1,1798,995,0,0
581,29,0,0,0,0,0,0,0,0,0,-1,1805,995,0,0
588,29,0,0,0,0,0,0,0,0,0,-1,1812,995,0,0
595,29,0,0,0,0,0,0,0,0,0,-1,1819,995,0,0
602,29,0,0,0,0,0,0,0,0,0,-1,1826,995,0,0
609,29,0,0,0,0,0,0,0,0,0,-1,1833,995,0,0
616,29,0,0,0,0,0,0,0,0,0,-1,1840,995,0,0
623,29,0,0,0,0,0,0,0,0,0,-1,1847,995,0,0
630,29,0,0,0,0,0,0,0,0,0,-1,1854,995,0,0
637,29,0,0,0,0,0,0,0,0,0,-1,1861,995,0,0
644,29,45.0667,2.62286,0.00102262,0.000943361,0.00454553,0.00552869,-0.00356271,0.781039,0.00528968,0.0395722,1868,995,45.0666,-2.62288
651,29,44.955,2.91229,0.00047242,0.000676804,0.00232527,0.00290213,-0.00175291,0.807358,0.00271475,0.0397404,1875,995,44.9549,-2.91228
658,29,45.0833,2.98706,0.000253778,0.000360773,0.00109407,0.00140265,-0.000788104,0.809828,0.00128132,0.0410308,1882,995,45.0833,-2.98705
665,29,45.1141,2.82202,4.89943e-05,0.000306244,0.000787438,0.000975493,-0.000620255,0.866356,0.000928884,0.0407993,1889,995,45.1141,-2.822
672,29,45.0038,2.77155,-0.000147102,0.00039036,0.00100421,0.00116118,-0.000917919,0.916137,0.0012031,0.0404669,1896,995,45.0038,-2.77153
679,29,45.0178,2.6842,-0.000288635,0.000523712,0.00172701,0.00189167,-0.00165659,0.900894,0.00205008,0.0403209,1903,995,45.0178,-2.68417
686,29,44.9137,2.51544,-0.000294133,0.000496647,0.00252912,0.0026611,-0.00245858,0.862938,0.00295662,0.0377012,1910,995,44.9137,-2.51547
693,29,44.9436,2.63544,-0.000251521,0.000482244,0.00315874,0.00329534,-0.00306462,0.843213,0.00367273,0.0383248,1917,995,44.9436,-2.63544
700,29,45.08,2.58258,-0.000295475,0.000522382,0.00345871,0.00359625,-0.00336934,0.844241,0.0040223,0.0345069,1924,995,45.08,-2.58259
707,29,45.0535,2.65564,-0.000501929,0.00074467,0.00373085,0.00390392,-0.00366118,0.868167,0.00436847,0.0218573,1931,995,45.0535,-2.65566
714,29,45.0143,3.10614,-0.000887234,0.00111799,0.00386592,0.00410919,-0.00387844,0.912276,0.0046123,0.0356343,1938,995,45.0143,-3.10613
721,29,44.6594,4.7981,0,0,0,0,0,0,0,-1,1945,995,44.6594,-4.79807
728,29,44.6176,5.11169,-0.00202884,0.00256147,0.00347487,0.00443074,-0.00389811,1.07726,0.00481194,0.0271883,1952,995,44.6176,-5.11172
735,29,44.5544,5.36584,-0.00257744,0.00382466,0.00258036,0.00473518,-0.00348796,1.23157,0.0047658,0.0158467,1959,995,44.5544,-5.36586
742,29,44.5409,5.46777,-0.00383525,0.00484392,0.0010809,0.00497651,-0.00396784,1.44874,0.00517496,0.0141774,1966,995,44.5409,-5.46774
749,29,44.5182,5.61969,-0.00494994,0.00526543,-0.000985001,0.00535954,-0.00504405,-1.47554,0.00600744,0.015419,1973,995,44.5182,-5.61969
756,29,44.5004,5.79376,-0.00475001,0.00523744,-0.00378283,0.00650846,-0.00602103,-1.24665,0.00723574,0.01394,1980,995,44.5004,-5.79373
763,29,44.4443,5.90576,-0.00323484,0.00513885,-0.00746382,0.00950994,-0.00760593,-1.041,0.00990221,0.0125013,1987,995,44.4443,-5.90579
770,29,44.3755,6.02515,-0.00133639,0.0041558,-0.0117989,0.013524,-0.0107046,-0.899733,0.0140199,0.0167589,1994,995,44.3755,-6.02517
777,29,44.3453,6.20477,0.00256055,0.00184555,-0.0168574,0.0190643,-0.0146582,-0.774796,0.019525,0.0285808,2001,995,44.3454,-6.20475
784,29,44.6494,5.7962,0.00872097,-0.00201716,-0.02255,0.0265323,-0.0198285,-0.668526,0.0268595,0.0442484,2008,995,44.6493,-5.79618
791,29,44.9414,5.4577,0,0,0,0,0,0,0,-1,2015,995,44.9413,-5.45768
798,29,43.9387,8.26019,0,0,0,0,0,0,0,-1,2022,995,43.9387,-8.26019
805,29,44.6931,7.47736,0.0527213,-0.0275375,-0.0451723,0.0730146,-0.0478308,-0.422224,0.0702733,0.0480134,2029,995,44.6931,-7.47734
812,29,45.8237,6.92328,0.08092,-0.0411775,-0.0545776,0.101759,-0.0620169,-0.364745,0.0954798,0.0498511,2036,995,45.8236,-6.92328
-700,22,0,0,0,0,0,0,0,0,0,-1,524,1002,0,0
-693,22,-29.637,3.23322,-0.0954705,0.0295457,-0.00450369,0.0297077,-0.0956325,-1.53483,0.0756282,0.0484829,531,1002,-29.637,-3.23324
-686,22,-30.603,3.24628,-0.0771155,0.0283772,-0.0115937,0.0296363,-0.0783746,-1.46262,0.0644416,0.0458786,538,1002,-30.603,-3.24631
-679,22,-31.6241,3.2038,-0.0633666,0.0267002,-0.0127998,0.0284839,-0.0651504,-1.43233,0.0554242,0.0445617,545,1002,-31.6241,-3.20381
-672,22,-32.6061,3.15167,-0.05207,0.0247493,-0.0117249,0.026499,-0.0538197,-1.42266,0.0472578,0.0491744,552,1002,-32.6062,-3.1517
-665,22,-34.2028,1.71057,0,0,0,0,0,0,0,-1,559,1002,-34.2028,-1.71059
-658,22,-33.8779,1.86011,0,0,0,0,0,0,0,-1,566,1002,-33.8779,-1.86011
-651,22,-33.0302,2.1153,0,0,0,0,0,0,0,-1,573,1002,-33.0302,-2.11531
-644,22,-33.5198,2.61761,-0.0203151,0.0152761,-0.0038902,0.0156964,-0.0207354,-1.46319,0.0211008,0.0381656,580,1002,-33.5198,-2.61759
-637,22,-33.8447,2.97552,-0.0139288,0.0132374,-0.00380173,0.0137594,-0.0144508,-1.43434,0.0162887,0.0233477,587,1002,-33.8447,-2.97551
-630,22,-33.835,3.01404,-0.00887787,0.0104068,-0.00321672,0.0109292,-0.00940028,-1.4098,0.0117483,0.0133947,594,1002,-33.835,-3.01405
-623,22,-33.8643,2.9671,-0.00490936,0.00801576,-0.00288052,0.00862866,-0.00552226,-1.36115,0.00823539,0.0112335,601,1002,-33.8643,-2.9671
-616,22,-33.853,2.84302,-0.00242136,0.00621613,-0.00340993,0.00740004,-0.00360527,-1.23662,0.0064786,0.0173272,608,1002,-33.8529,-2.843
-609,22,-33.8833,2.7757,-0.000989174,0.00474727,-0.00472018,0.00740235,-0.00364425,-1.05841,0.00649962,0.0257458,615,1002,-33.8833,-2.77567
-602,22,-33.9405,2.73346,-0.000113693,0.00348972,-0.00584453,0.00780395,-0.00442793,-0.934912,0.00715118,0.0248761,622,1002,-33.9405,-2.73348
-595,22,-33.9258,2.52222,0.000506203,0.00235717,-0.00637103,0.00786959,-0.00500621,-0.857526,0.00749487,0.0254922,629,1002,-33.9258,-2.52223
-588,22,-33.6316,1.90259,0.00110909,0.00145455,-0.0068519,0.0081359,-0.00557226,-0.798,0.00796041,0.0406568,636,1002,-33.6316,-1.90257
-581,22,-33.4354,1.35193,0.0016096,0.000843039,-0.00725548,0.00849191,-0.00603927,-0.759009,0.00842932,0.0448881,643,1002,-33.4354,-1.35191
-574,22,-33.5115,0.818237,0.00175318,0.000382752,-0.00721124,0.00831169,-0.00617576,-0.73803,0.00839458,0.0359027,650,1002,-33.5115,-0.818257
-567,22,-33.4743,0.759033,0.00169644,0.000165707,-0.00673735,0.00771176,-0.00584961,-0.72884,0.00785423,0.0325251,657,1002,-33.4743,-0.759047
-560,22,-33.4594,0.632324,0.00162901,7.37341e-05,-0.00590539,0.00680775,-0.005105,-0.719933,0.00690121,0.0364068,664,1002,-33.4594,-0.632341
-553,22,-33.5287,0.700623,0.00158867,-1.74829e-05,-0.00483369,0.00568554,-0.00411435,-0.703079,0.00568216,0.0412159,671,1002,-33.5287,-0.700638
-546,22,-33.5149,0.73822,0.00169764,-0.000294408,-0.00364865,0.00448377,-0.00308054,-0.652153,0.00439223,0.041802,678,1002,-33.5149,-0.738214
-539,22,-33.527,1.02673,0.00221861,-0.000719033,-0.00299069,0.0040817,-0.00258213,-0.557134,0.0038797,0.0439863,685,1002,-33.527,-1.02674
-532,22,-33.3615,0.681458,0.0034424,-0.000836569,-0.00413458,0.00595826,-0.00335242,-0.546639,0.00544525,0.044792,692,1002,-33.3615,-0.681481
-525,22,0,0,0,0,0,0,0,0,0,-1,699,1002,0,0
-518,22,0,0,0,0,0,0,0,0,0,-1,706,1002,0,0
-511,22,0,0,0,0,0,0,0,0,0,-1,713,1002,0,0
-504,22,0,0,0,0,0,0,0,0,0,-1,720,1002,0,0
-497,22,0,0,0,0,0,0,0,0,0,-1,727,1002,0,0
-490,22,0,0,0,0,0,0,0,0,0,-1,734,1002,0,0
-483,22,0,0,0,0,0,0,0,0,0,-1,741,1002,0,0
-476,22,0,0,0,0,0,0,0,0,0,-1,748,1002,0,0
-469,22,0,0,0,0,0,0,0,0,0,-1,755,1002,0,0
-462,22,0,0,0,0,0,0,0,0,0,-1,762,1002,0,0
-455,22,0,0,0,0,0,0,0,0,0,-1,769,1002,0,0
-448,22,0,0,0,0,0,0,0,0,0,-1,776,1002,0,0
-441,22,0,0,0,0,0,0,0,0,0,-1,783,1002,0,0
-434,22,0,0,0,0,0,0,0,0,0,-1,790,1002,0,0
-427,22,0,0,0,0,0,0,0,0,0,-1,797,1002,0,0
-420,22,0,0,0,0,0,0,0,0,0,-1,804,1002,0,0
-413,22,0,0,0,0,0,0,0,0,0,-1,811,1002,0,0
-406,22,0,0,0,0,0,0,0,0,0,-1,818,1002,0,0
-399,22,0,0,0,0,0,0,0,0,0,-1,825,1002,0,0
-392,22,0,0,0,0,0,0,0,0,0,-1,832,1002,0,0
-385,22,0,0,0,0,0,0,0,0,0,-1,839,1002,0,0
-378,22,0,0,0,0,0,0,0,0,0,-1,846,1002,0,0
-371,22,0,0,0,0,0,0,0,0,0,-1,853,1002,0,0
-364,22,0,0,0,0,0,0,0,0,0,-1,860,1002,0,0
-357,22,0,0,0,0,0,0,0,0,0,-1,867,1002,0,0
-350,22,0,0,0,0,0,0,0,0,0,-1,874,1002,0,0
-343,22,0,0,0,0,0,0,0,0,0,-1,881,1002,0,0
-336,22,0,0,0,0,0,0,0,0,0,-1,888,1002,0,0
-329,22,0,0,0,0,0,0,0,0,0,-1,895,1002,0,0
-322,22,0,0,0,0,0,0,0,0,0,-1,902,1002,0,0
-315,22,0,0,0,0,0,0,0,0,0,-1,909,1002,0,0
-308,22,0,0,0,0,0,0,0,0,0,-1,916,1002,0,0
-301,22,0,0,0,0,0,0,0,0,0,-1,923,1002,0,0
-294,22,0,0,0,0,0,0,0,0,0,-1,930,1002,0,0
-287,22,0,0,0,0,0,0,0,0,0,-1,937,1002,0,0
-280,22,0,0,0,0,0,0,0,0,0,-1,944,1002,0,0
-273,22,0,0,0,0,0,0,0,0,0,-1,951,1002,0,0
-266,22,0,0,0,0,0,0,0,0,0,-1,958,1002,0,0
-259,22,0,0,0,0,0,0,0,0,0,-1,965,1002,0,0
-252,22,0,0,0,0,0,0,0,0,0,-1,972,1002,0,0
-245,22,0,0,0,0,0,0,0,0,0,-1,979,1002,0,0
-238,22,0,0,0,0,0,0,0,0,0,-1,986,1002,0,0
-231,22,0,0,0,0,0,0,0,0,0,-1,993,1002,0,0
-224,22,0,0,0,0,0,0,0,0,0,-1,1000,1002,0,0
-217,22,0,0,0,0,0,0,0,0,0,-1,1007,1002,0,0
-210,22,0,0,0,0,0,0,0,0,0,-1,1014,1002,0,0
-203,22,0,0,0,0,0,0,0,0,0,-1,1021,1002,0,0
-196,22,0,0,0,0,0,0,0,0,0,-1,1028,1002,0,0
-189,22,0,0,0,0,0,0,0,0,0,-1,1035,1002,0,0
-182,22,0,0,0,0,0,0,0,0,0,-1,1042,1002,0,0
-175,22,0,0,0,0,0,0,0,0,0,-1,1049,1002,0,0
-168,22,0,0,0,0,0,0,0,0,0,-1,1056,1002,0,0
-161,22,0,0,0,0,0,0,0,0,0,-1,1063,1002,0,0
-154,22,0,0,0,0,0,0,0,0,0,-1,1070,1002,0,0
-147,22,0,0,0,0,0,0,0,0,0,-1,1077,1002,0,0
-140,22,0,0,0,0,0,0,0,0,0,-1,1084,1002,0,0
-133,22,0,0,0,0,0,0,0,0,0,-1,1091,1002,0,0
-126,22,0,0,0,0,0,0,0,0,0,-1,1098,1002,0,0
-119,22,0,0,0,0,0,0,0,0,0,-1,1105,1002,0,0
-112,22,0,0,0,0,0,0,0,0,0,-1,1112,1002,0,0
-105,22,0,0,0,0,0,0,0,0,0,-1,1119,1002,0,0
-98,22,0,0,0,0,0,0,0,0,0,-1,1126,1002,0,0
-91,22,0,0,0,0,0,0,0,0,0,-1,1133,1002,0,0
-84,22,0,0,0,0,0,0,0,0,0,-1,1140,1002,0,0
-77,22,0,0,0,0,0,0,0,0,0,-1,1147,1002,0,0
-70,22,0,0,0,0,0,0,0,0,0,-1,1154,1002,0,0
-63,22,0,0,0,0,0,0,0,0,0,-1,1161,1002,0,0
-56,22,0,0,0,0,0,0,0,0,0,-1,1168,1002,0,0
-49,22,0,0,0,0,0,0,0,0,0,-1,1175,1002,0,0
-42,22,0,0,0,0,0,0,0,0,0,-1,1182,1002,0,0
-35,22,0,0,0,0,0,0,0,0,0,-1,1189,1002,0,0
-28,22,0,0,0,0,0,0,0,0,0,-1,1196,1002,0,0
-21,22,0,0,0,0,0,0,0,0,0,-1,1203,1002,0,0
-14,22,0,0,0,0,0,0,0,0,0,-1,1210,1002,0,0
-7,22,0,0,0,0,0,0,0,0,0,-1,1217,1002,0,0
0,22,0,0,0,0,0,0,0,0,0,-1,1224,1002,0,0
7,22,0,0,0,0,0,0,0,0,0,-1,1231,1002,0,0
14,22,0,0,0,0,0,0,0,0,0,-1,1238,1002,0,0
21,22,0,0,0,0,0,0,0,0,0,-1,1245,1002,0,0
28,22,0,0,0,0,0,0,0,0,0,-1,1252,1002,0,0
35,22,0,0,0,0,0,0,0,0,0,-1,1259,1002,0,0
42,22,0,0,0,0,0,0,0,0,0,-1,1266,1002,0,0
49,22,0,0,0,0,0,0,0,0,0,-1,1273,1002,0,0
56,22,0,0,0,0,0,0,0,0,0,-1,1280,1002,0,0
63,22,0,0,0,0,0,0,0,0,0,-1,1287,1002,0,0
70,22,0,0,0,0,0,0,0,0,0,-1,1294,1002,0,0
77,22,0,0,0,0,0,0,0,0,0,-1,1301,1002,0,0
84,22,0,0,0,0,0,0,0,0,0,-1,1308,1002,0,0
91,22,0,0,0,0,0,0,0,0,0,-1,1315,1002,0,0
98,22,0,0,0,0,0,0,0,0,0,-1,1322,1002,0,0
105,22,0,0,0,0,0,0,0,0,0,-1,1329,1002,0,0
112,22,0,0,0,0,0,0,0,0,0,-1,1336,1002,0,0
119,22,0,0,0,0,0,0,0,0,0,-1,1343,1002,0,0
126,22,0,0,0,0,0,0,0,0,0,-1,1350,1002,0,0
133,22,0,0,0,0,0,0,0,0,0,-1,1357,1002,0,0
140,22,0,0,0,0,0,0,0,0,0,-1,1364,1002,0,0
147,22,0,0,0,0,0,0,0,0,0,-1,1371,1002,0,0
154,22,0,0,0,0,0,0,0,0,0,-1,1378,1002,0,0
161,22,0,0,0,0,0,0,0,0,0,-1,1385,1002,0,0
168,22,0,0,0,0,0,0,0,0,0,-1,1392,1002,0,0
175,22,0,0,0,0,0,0,0,0,0,-1,1399,1002,0,0
182,22,0,0,0,0,0,0,0,0,0,-1,1406,1002,0,0
189,22,0,0,0,0,0,0,0,0,0,-1,1413,1002,0,0
196,22,0,0,0,0,0,0,0,0,0,-1,1420,1002,0,0
203,22,0,0,0,0,0,0,0,0,0,-1,1427,1002,0,0
210,22,0,0,0,0,0,0,0,0,0,-1,1434,1002,0,0
217,22,0,0,0,0,0,0,0,0,0,-1,1441,1002,0,0
224,22,0,0,0,0,0,0,0,0,0,-1,1448,1002,0,0
231,22,0,0,0,0,0,0,0,0,0,-1,1455,1002,0,0
238,22,0,0,0,0,0,0,0,0,0,-1,1462,1002,0,0
245,22,0,0,0,0,0,0,0,0,0,-1,1469,1002,0,0
252,22,0,0,0,0,0,0,0,0,0,-1,1476,1002,0,0
259,22,0,0,0,0,0,0,0,0,0,-1,1483,1002,0,0
266,22,0,0,0,0,0,0,0,0,0,-1,1490,1002,0,0
273,22,0,0,0,0,0,0,0,0,0,-1,1497,1002,0,0
280,22,0,0,0,0,0,0,0,0,0,-1,1504,1002,0,0
287,22,0,0,0,0,0,0,0,0,0,-1,1511,1002,0,0
294,22,0,0,0,0,0,0,0,0,0,-1,1518,1002,0,0
301,22,0,0,0,0,0,0,0,0,0,-1,1525,1002,0,0
308,22,0,0,0,0,0,0,0,0,0,-1,1532,1002,0,0
315,22,0,0,0,0,0,0,0,0,0,-1,1539,1002,0,0
322,22,0,0,0,0,0,0,0,0,0,-1,1546,1002,0,0
329,22,0,0,0,0,0,0,0,0,0,-1,1553,1002,0,0
336,22,0,0,0,0,0,0,0,0,0,-1,1560,1002,0,0
343,22,0,0,0,0,0,0,0,0,0,-1,1567,1002,0,0
350,22,0,0,0,0,0,0,0,0,0,-1,1574,1002,0,0
357,22,0,0,0,0,0,0,0,0,0,-1,1581,1002,0,0
364,22,0,0,0,0,0,0,0,0,0,-1,1588,1002,0,0
371,22,0,0,0,0,0,0,0,0,0,-1,1595,1002,0,0
378,22,0,0,0,0,0,0,0,0,0,-1,1602,1002,0,0
385,22,0,0,0,0,0,0,0,0,0,-1,1609,1002,0,0
392,22,0,0,0,0,0,0,0,0,0,-1,1616,1002,0,0
399,22,0,0,0,0,0,0,0,0,0,-1,1623,1002,0,0
406,22,0,0,0,0,0,0,0,0,0,-1,1630,1002,0,0
413,22,0,0,0,0,0,0,0,0,0,-1,1637,1002,0,0
420,22,0,0,0,0,0,0,0,0,0,-1,1644,1002,0,0
427,22,0,0,0,0,0,0,0,0,0,-1,1651,1002,0,0
434,22,0,0,0,0,0,0,0,0,0,-1,1658,1002,0,0
441,22,0,0,0,0,0,0,0,0,0,-1,1665,1002,0,0
448,22,0,0,0,0,0,0,0,0,0,-1,1672,1002,0,0
455,22,0,0,0,0,0,0,0,0,0,-1,1679,1002,0,0
462,22,0,0,0,0,0,0,0,0,0,-1,1686,1002,0,0
469,22,0,0,0,0,0,0,0,0,0,-1,1693,1002,0,0
476,22,0,0,0,0,0,0,0,0,0,-1,1700,1002,0,0
483,22,0,0,0,0,0,0,0,0,0,-1,1707,1002,0,0
490,22,0,0,0,0,0,0,0,0,0,-1,1714,1002,0,0
497,22,0,0,0,0,0,0,0,0,0,-1,1721,1002,0,0
504,22,0,0,0,0,0,0,0,0,0,-1,1728,1002,0,0
511,22,0,0,0,0,0,0,0,0,0,-1,1735,1002,0,0
518,22,0,0,0,0,0,0,0,0,0,-1,1742,1002,0,0
525,22,0,0,0,0,0,0,0,0,0,-1,1749,1002,0,0
532,22,0,0,0,0,0,0,0,0,0,-1,1756,1002,0,0
539,22,0,0,0,0,0,0,0,0,0,-1,1763,1002,0,0
546,22,0,0,0,0,0,0,0,0,0,-1,1770,1002,0,0
553,22,0,0,0,0,0,0,0,0,0,-1,1777,1002,0,0
560,22,0,0,0,0,0,0,0,0,0,-1,1784,1002,0,0
567,22,0,0,0,0,0,0,0,0,0,-1,1791,1002,0,0
574,22,0,0,0,0,0,0,0,0,0,-1,1798,1002,0,0
581,22,0,0,0,0,0,0,0,0,0,-1,1805,1002,0,0
588,22,0,0,0,0,0,0,0,0,0,-1,1812,1002,0,0
595,22,0,0,0,0,0,0,0,0,0,-1,1819,1002,0,0
602,22,0,0,0,0,0,0,0,0,0,-1,1826,1002,0,0
609,22,0,0,0,0,0,0,0,0,0,-1,1833,1002,0,0
616,22,0,0,0,0,0,0,0,0,0,-1,1840,1002,0,0
623,22,0,0,0,0,0,0,0,0,0,-1,1847,1002,0,0
630,22,0,0,0,0,0,0,0,0,0,-1,1854,1002,0,0
637,22,0,0,0,0,0,0,0,0,0,-1,1861,1002,0,0
644,22,44.9586,2.77374,0.0013981,0.00160786,0.0042881,0.00579237,-0.00278641,0.797625,0.00505329,0.0390769,1868,1002,44.9586,-2.77374
651,22,44.8756,3.04108,0.000695775,0.0011871,0.00210524,0.00306096,-0.00117809,0.843481,0.00252661,0.0407016,1875,1002,44.8757,-3.04109
658,22,44.9679,2.91199,0.000397009,0.000681421,0.000891287,0.00144178,-0.000363345,0.864507,0.00110244,0.0416652,1882,1002,44.968,-2.91202
665,22,44.9564,2.72058,0.000160927,0.000433795,0.000569852,0.000883318,-0.000288597,0.902896,0.000705049,0.0402582,1889,1002,44.9564,-2.72056
672,22,44.9867,2.64795,-3.83327e-05,0.000350953,0.000772533,0.000952986,-0.000640366,0.908807,0.000925806,0.0397202,1896,1002,44.9867,-2.64793
679,22,45.0435,2.62061,-0.000173591,0.000359262,0.00149256,0.00160899,-0.00142332,0.87372,0.0017518,0.0402502,1903,1002,45.0434,-2.62063
686,22,45.0762,2.56561,-0.000189065,0.000244665,0.00232556,0.00236345,-0.00230785,0.83189,0.00269704,0.039468,1910,1002,45.0762,-2.56562
693,22,45.0159,2.59875,-0.00014457,0.000172057,0.00301503,0.00303293,-0.00300544,0.811628,0.00348627,0.0379659,1917,1002,45.0159,-2.59875
700,22,45.0594,2.5929,-0.000177,0.000189303,0.00336909,0.00338022,-0.00336791,0.812553,0.00389604,0.0333816,1924,1002,45.0595,-2.59288
707,22,45.0338,2.6778,-0.00035904,0.000391332,0.00371199,0.00374705,-0.00371475,0.835764,0.00430808,0.0271885,1931,1002,45.0338,-2.67782
714,22,45.0303,2.82269,-0.000726082,0.000769707,0.00391691,0.00400949,-0.00396586,0.879733,0.0046046,0.0324213,1938,1002,45.0303,-2.8227
721,22,44.8292,4.07349,0,0,0,0,0,0,0,-1,1945,1002,44.8292,-4.07352
728,22,44.6704,4.92041,-0.00198475,0.00225354,0.00361274,0.00432279,-0.004054,1.05064,0.00483717,0.0413529,1952,1002,44.6705,-4.92043
735,22,44.7062,5.45355,-0.00254064,0.00349202,0.00277962,0.00457746,-0.00362609,1.19851,0.00474693,0.0162289,1959,1002,44.7061,-5.45354
742,22,44.7274,5.54126,-0.00386402,0.00453523,0.00130135,0.00473224,-0.00406103,1.42055,0.00508172,0.0174843,1966,1002,44.7274,-5.54124
749,22,44.6742,5.63934,-0.00516082,0.00506279,-0.000729999,0.00511465,-0.00521269,-1.49987,0.00596258,0.0140883,1973,1002,44.6742,-5.63935
756,22,44.6604,5.72498,-0.00525989,0.00517518,-0.00350349,0.00624232,-0.00632703,-1.27513,0.00725697,0.0183972,1980,1002,44.6604,-5.72495
763,22,44.6061,5.85303,-0.00415773,0.0054322,-0.00713566,0.00923429,-0.00795982,-1.08123,0.00993611,0.0186546,1987,1002,44.6061,-5.85301
770,22,44.4738,5.94269,-0.00280142,0.00487117,-0.0115155,0.0131725,-0.0111028,-0.946188,0.0140323,0.017705,1994,1002,44.4738,-5.94268
777,22,44.2439,5.93823,0.00042192,0.00319989,-0.0166831,0.0185517,-0.0149299,-0.826931,0.0193683,0.0373314,2001,1002,44.2439,-5.93826
784,22,44.0432,5.96716,0,0,0,0,0,0,0,-1,2008,1002,44.0432,-5.96715
791,22,43.0432,5.1557,0.0142795,-0.00433839,-0.0289039,0.0353365,-0.0253954,-0.62961,0.0352198,0.0467398,2015,1002,43.0433,-5.15568
798,22,42.4858,4.46411,0.0272303,-0.0108362,-0.0363482,0.049227,-0.0328329,-0.544209,0.0476914,0.0470768,2022,1002,42.4858,-4.46408
805,22,44.7573,7.72168,0,0,0,0,0,0,0,-1,2029,1002,44.7573,-7.7217
812,22,45.7168,7.15564,0,0,0,0,0,0,0,-1,2036,1002,45.7167,-7.15563
-700,15,0,0,0,0,0,0,0,0,0,-1,524,1009,0,0
-693,15,-30.0991,2.9317,0,0,0,0,0,0,0,-1,531,1009,-30.0991,-2.93172
-686,15,-31.3423,3.02808,0,0,0,0,0,0,0,-1,538,1009,-31.3422,-3.02805
-679,15,-32.2025,3.0899,-0.0492382,0.0275379,-0.0112229,0.0291448,-0.050845,-1.42858,0.0467452,0.0459243,545,1009,-32.2024,-3.08988
-672,15,-33.0694,3.13141,-0.0409688,0.0252933,-0.0105816,0.0269421,-0.0426176,-1.41622,0.0404988,0.0469498,552,1009,-33.0694,-3.13139
-665,15,-34.2247,1.91858,0,0,0,0,0,0,0,-1,559,1009,-34.2247,-1.91857
-658,15,-33.8511,2.06421,0,0,0,0,0,0,0,-1,566,1009,-33.8511,-2.06423
-651,15,-33.1781,1.70795,0,0,0,0,0,0,0,-1,573,1009,-33.1781,-1.70792
-644,15,-33.5737,2.50342,0,0,0,0,0,0,0,-1,580,1009,-33.5737,-2.50342
-637,15,-33.9694,3.29895,0,0,0,0,0,0,0,-1,587,1009,-33.9693,-3.29892
-630,15,-33.8506,2.9389,-0.00731763,0.00988703,-0.00357278,0.0105995,-0.00803006,-1.37397,0.0107898,0.0143671,594,1009,-33.8506,-2.93889
-623,15,-33.9071,2.89349,-0.00464543,0.00772355,-0.00310324,0.00845845,-0.00538034,-1.33826,0.00805544,0.00989911,601,1009,-33.9071,-2.89351
-616,15,-33.9214,2.85065,-0.00205161,0.00587752,-0.00366082,0.00730919,-0.00348328,-1.198,0.0063602,0.0152572,608,1009,-33.9214,-2.85064
-609,15,-33.9413,2.8371,-0.000663735,0.00440939,-0.00470265,0.00721597,-0.00347031,-1.03273,0.00629479,0.0208868,615,1009,-33.9413,-2.8371
-602,15,-33.951,2.77515,0.00019414,0.00311166,-0.00563265,0.00747138,-0.00416558,-0.912106,0.00680837,0.0218402,622,1009,-33.951,-2.77516
-595,15,-33.7579,2.14526,0.00080447,0.00196892,-0.00601409,0.00742891,-0.00465551,-0.833653,0.00703792,0.0392639,629,1009,-33.7579,-2.14526
-588,15,-33.5421,1.50629,0.00143501,0.00106574,-0.00637138,0.00762443,-0.00512368,-0.770913,0.00740718,0.0483522,636,1009,-33.5421,-1.50627
-581,15,-33.4454,1.36255,0,0,0,0,0,0,0,-1,643,1009,-33.4454,-1.36255
-574,15,-33.5347,0.73877,0.00209902,-8.61733e-05,-0.00656892,0.00766559,-0.00565274,-0.702988,0.00771856,0.0342643,650,1009,-33.5346,-0.738766
-567,15,-33.5178,0.699585,0.00201582,-0.000341873,-0.00606329,0.0070138,-0.00533985,-0.689384,0.00715418,0.0336149,657,1009,-33.5177,-0.699579
-560,15,-33.4716,0.638916,0.00186953,-0.000458158,-0.00521388,0.00604788,-0.00463651,-0.675588,0.00618655,0.0366826,664,1009,-33.4716,-0.638896
-553,15,-33.4751,0.667114,0.00166143,-0.000569427,-0.00413476,0.00482857,-0.00373657,-0.65365,0.00495847,0.0381636,671,1009,-33.4751,-0.66709
-546,15,-33.4486,0.969482,0.00150524,-0.000872981,-0.00295137,0.00349804,-0.00286578,-0.593895,0.00368019,0.0402471,678,1009,-33.4486,-0.969498
-539,15,-33.4922,0.808044,0.0016502,-0.00125374,-0.00234616,0.00295734,-0.00256088,-0.508309,0.00318868,0.0433318,685,1009,-33.4922,-0.808047
-532,15,-33.5283,0.698608,0.00244292,-0.00122352,-0.00347982,0.00454288,-0.00332347,-0.542964,0.00455979,0.0445868,692,1009,-33.5283,-0.698604
-525,15,0,0,0,0,0,0,0,0,0,-1,699,1009,0,0
-518,15,0,0,0,0,0,0,0,0,0,-1,706,1009,0,0
-511,15,0,0,0,0,0,0,0,0,0,-1,713,1009,0,0
-504,15,0,0,0,0,0,0,0,0,0,-1,720,1009,0,0
-497,15,0,0,0,0,0,0,0,0,0,-1,727,1009,0,0
-490,15,0,0,0,0,0,0,0,0,0,-1,734,1009,0,0
-483,15,0,0,0,0,0,0,0,0,0,-1,741,1009,0,0
-476,15,0,0,0,0,0,0,0,0,0,-1,748,1009,0,0
-469,15,0,0,0,0,0,0,0,0,0,-1,755,1009,0,0
-462,15,0,0,0,0,0,0,0,0,0,-1,762,1009,0,0
-455,15,0,0,0,0,0,0,0,0,0,-1,769,1009,0,0
-448,15,0,0,0,0,0,0,0,0,0,-1,776,1009,0,0
-441,15,0,0,0,0,0,0,0,0,0,-1,783,1009,0,0
-434,15,0,0,0,0,0,0,0,0,0,-1,790,1009,0,0
-427,15,0,0,0,0,0,0,0,0,0,-1,797,1009,0,0
-420,15,0,0,0,0,0,0,0,0,0,-1,804,1009,0,0
-413,15,0,0,0,0,0,0,0,0,0,-1,811,1009,0,0
-406,15,0,0,0,0,0,0,0,0,0,-1,818,1009,0,0
-399,15,0,0,0,0,0,0,0,0,0,-1,825,1009,0,0
-392,15,0,0,0,0,0,0,0,0,0,-1,832,1009,0,0
-385,15,0,0,0,0,0,0,0,0,0,-1,839,1009,0,0
-378,15,0,0,0,0,0,0,0,0,0,-1,846,1009,0,0
-371,15,0,0,0,0,0,0,0,0,0,-1,853,1009,0,0
-364,15,0,0,0,0,0,0,0,0,0,-1,860,1009,0,0
-357,15,0,0,0,0,0,0,0,0,0,-1,867,1009,0,0
-350,15,0,0,0,0,0,0,0,0,0,-1,874,1009,0,0
-343,15,0,0,0,0,0,0,0,0,0,-1,881,1009,0,0
-336,15,0,0,0,0,0,0,0,0,0,-1,888,1009,0,0
-329,15,0,0,0,0,0,0,0,0,0,-1,895,1009,0,0
-322,15,0,0,0,0,0,0,0,0,0,-1,902,1009,0,0
-315,15,0,0,0,0,0,0,0,0,0,-1,909,1009,0,0
-308,15,0,0,0,0,0,0,0,0,0,-1,916,1009,0,0
-301,15,0,0,0,0,0,0,0,0,0,-1,923,1009,0,0
-294,15,0,0,0,0,0,0,0,0,0,-1,930,1009,0,0
-287,15,0,0,0,0,0,0,0,0,0,-1,937,1009,0,0
-280,15,0,0,0,0,0,0,0,0,0,-1,944,1009,0,0
-273,15,0,0,0,0,0,0,0,0,0,-1,951,1009,0,0
-266,15,0,0,0,0,0,0,0,0,0,-1,958,1009,0,0
-259,15,0,0,0,0,0,0,0,0,0,-1,965,1009,0,0
-252,15,0,0,0,0,0,0,0,0,0,-1,972,1009,0,0
-245,15,0,0,0,0,0,0,0,0,0,-1,979,1009,0,0
-238,15,0,0,0,0,0,0,0,0,0,-1,986,1009,0,0
-231,15,0,0,0,0,0,0,0,0,0,-1,993,1009,0,0
-224,15,0,0,0,0,0,0,0,0,0,-1,1000,1009,0,0
-217,15,0,0,0,0,0,0,0,0,0,-1,1007,1009,0,0
-210,15,0,0,0,0,0,0,0,0,0,-1,1014,1009,0,0
-203,15,0,0,0,0,0,0,0,0,0,-1,1021,1009,0,0
-196,15,0,0,0,0,0,0,0,0,0,-1,1028,1009,0,0
-189,15,0,0,0,0,0,0,0,0,0,-1,1035,1009,0,0
-182,15,0,0,0,0,0,0,0,0,0,-1,1042,1009,0,0
-175,15,0,0,0,0,0,0,0,0,0,-1,1049,1009,0,0
-168,15,0,0,0,0,0,0,0,0,0,-1,1056,1009,0,0
-161,15,0,0,0,0,0,0,0,0,0,-1,1063,1009,0,0
-154,15,0,0,0,0,0,0,0,0,0,-1,1070,1009,0,0
-147,15,0,0,0,0,0,0,0,0,0,-1,1077,1009,0,0
-140,15,0,0,0,0,0,0,0,0,0,-1,1084,1009,0,0
-133,15,0,0,0,0,0,0,0,0,0,-1,1091,1009,0,0
-126,15,0,0,0,0,0,0,0,0,0,-1,1098,1009,0,0
-119,15,0,0,0,0,0,0,0,0,0,-1,1105,1009,0,0
-112,15,0,0,0,0,0,0,0,0,0,-1,1112,1009,0,0
-105,15,0,0,0,0,0,0,0,0,0,-1,1119,1009,0,0
-98,15,0,0,0,0,0,0,0,0,0,-1,1126,1009,0,0
-91,15,0,0,0,0,0,0,0,0,0,-1,1133,1009,0,0
-84,15,0,0,0,0,0,0,0,0,0,-1,1140,1009,0,0
-77,15,0,0,0,0,0,0,0,0,0,-1,1147,1009,0,0
-70,15,0,0,0,0,0,0,0,0,0,-1,1154,1009,0,0
-63,15,0,0,0,0,0,0,0,0,0,-1,1161,1009,0,0
-56,15,0,0,0,0,0,0,0,0,0,-1,1168,1009,0,0
-49,15,0,0,0,0,0,0,0,0,0,-1,1175,1009,0,0
-42,15,0,0,0,0,0,0,0,0,0,-1,1182,1009,0,0
-35,15,0,0,0,0,0,0,0,0,0,-1,1189,1009,0,0
-28,15,0,0,0,0,0,0,0,0,0,-1,1196,1009,0,0
-21,15,0,0,0,0,0,0,0,0,0,-1,1203,1009,0,0
-14,15,0,0,0,0,0,0,0,0,0,-1,1210,1009,0,0
-7,15,0,0,0,0,0,0,0,0,0,-1,1217,1009,0,0
0,15,0,0,0,0,0,0,0,0,0,-1,1224,1009,0,0
7,15,0,0,0,0,0,0,0,0,0,-1,1231,1009,0,0
14,15,0,0,0,0,0,0,0,0,0,-1,1238,1009,0,0
21,15,0,0,0,0,0,0,0,0,0,-1,1245,1009,0,0
28,15,0,0,0,0,0,0,0,0,0,-1,1252,1009,0,0
35,15,0,0,0,0,0,0,0,0,0,-1,1259,1009,0,0
42,15,0,0,0,0,0,0,0,0,0,-1,1266,1009,0,0
49,15,0,0,0,0,0,0,0,0,0,-1,1273,1009,0,0
56,15,0,0,0,0,0,0,0,0,0,-1,1280,1009,0,0
63,15,0,0,0,0,0,0,0,0,0,-1,1287,1009,0,0
70,15,0,0,0,0,0,0,0,0,0,-1,1294,1009,0,0
77,15,0,0,0,0,0,0,0,0,0,-1,1301,1009,0,0
84,15,0,0,0,0,0,0,0,0,0,-1,1308,1009,0,0
91,15,0,0,0,0,0,0,0,0,0,-1,1315,1009,0,0
98,15,0,0,0,0,0,0,0,0,0,-1,1322,1009,0,0
105,15,0,0,0,0,0,0,0,0,0,-1,1329,1009,0,0
112,15,0,0,0,0,0,0,0,0,0,-1,1336,1009,0,0
119,15,0,0,0,0,0,0,0,0,0,-1,1343,1009,0,0
126,15,0,0,0,0,0,0,0,0,0,-1,1350,1009,0,0
133,15,0,0,0,0,0,0,0,0,0,-1,1357,1009,0,0
140,15,0,0,0,0,0,0,0,0,0,-1,1364,1009,0,0
147,15,0,0,0,0,0,0,0,0,0,-1,1371,1009,0,0
154,15,0,0,0,0,0,0,0,0,0,-1,1378,1009,0,0
161,15,0,0,0,0,0,0,0,0,0,-1,1385,1009,0,0
168,15,0,0,0,0,0,0,0,0,0,-1,1392,1009,0,0
175,15,0,0,0,0,0,0,0,0,0,-1,1399,1009,0,0
182,15,0,0,0,0,0,0,0,0,0,-1,1406,1009,0,0
189,15,0,0,0,0,0,0,0,0,0,-1,1413,1009,0,0
196,15,0,0,0,0,0,0,0,0,0,-1,1420,1009,0,0
203,15,0,0,0,0,0,0,0,0,0,-1,1427,1009,0,0
210,15,0,0,0,0,0,0,0,0,0,-1,1434,1009,0,0
217,15,0,0,0,0,0,0,0,0,0,-1,1441,1009,0,0
224,15,0,0,0,0,0,0,0,0,0,-1,1448,1009,0,0
231,15,0,0,0,0,0,0,0,0,0,-1,1455,1009,0,0
238,15,0,0,0,0,0,0,0,0,0,-1,1462,1009,0,0
245,15,0,0,0,0,0,0,0,0,0,-1,1469,1009,0,0
252,15,0,0,0,0,0,0,0,0,0,-1,1476,1009,0,0
259,15,0,0,0,0,0,0,0,0,0,-1,1483,1009,0,0
266,15,0,0,0,0,0,0,0,0,0,-1,1490,1009,0,0
273,15,0,0,0,0,0,0,0,0,0,-1,1497,1009,0,0
280,15,0,0,0,0,0,0,0,0,0,-1,1504,1009,0,0
287,15,0,0,0,0,0,0,0,0,0,-1,1511,1009,0,0
294,15,0,0,0,0,0,0,0,0,0,-1,1518,1009,0,0
301,15,0,0,0,0,0,0,0,0,0,-1,1525,1009,0,0
308,15,0,0,0,0,0,0,0,0,0,-1,1532,1009,0,0
315,15,0,0,0,0,0,0,0,0,0,-1,1539,1009,0,0
322,15,0,0,0,0,0,0,0,0,0,-1,1546,1009,0,0
329,15,0,0,0,0,0,0,0,0,0,-1,1553,1009,0,0
336,15,0,0,0,0,0,0,0,0,0,-1,1560,1009,0,0
343,15,0,0,0,0,0,0,0,0,0,-1,1567,1009,0,0
350,15,0,0,0,0,0,0,0,0,0,-1,1574,1009,0,0
357,15,0,0,0,0,0,0,0,0,0,-1,1581,1009,0,0
364,15,0,0,0,0,0,0,0,0,0,-1,1588,1009,0,0
371,15,0,0,0,0,0,0,0,0,0,-1,1595,1009,0,0
378,15,0,0,0,0,0,0,0,0,0,-1,1602,1009,0,0
385,15,0,0,0,0,0,0,0,0,0,-1,1609,1009,0,0
392,15,0,0,0,0,0,0,0,0,0,-1,1616,1009,0,0
399,15,0,0,0,0,0,0,0,0,0,-1,1623,1009,0,0
406,15,0,0,0,0,0,0,0,0,0,-1,1630,1009,0,0
413,15,0,0,0,0,0,0,0,0,0,-1,1637,1009,0,0
420,15,0,0,0,0,0,0,0,0,0,-1,1644,1009,0,0
427,15,0,0,0,0,0,0,0,0,0,-1,1651,1009,0,0
434,15,0,0,0,0,0,0,0,0,0,-1,1658,1009,0,0
441,15,0,0,0,0,0,0,0,0,0,-1,1665,1009,0,0
448,15,0,0,0,0,0,0,0,0,0,-1,1672,1009,0,0
455,15,0,0,0,0,0,0,0,0,0,-1,1679,1009,0,0
462,15,0,0,0,0,0,0,0,0,0,-1,1686,1009,0,0
469,15,0,0,0,0,0,0,0,0,0,-1,1693,1009,0,0
476,15,0,0,0,0,0,0,0,0,0,-1,1700,1009,0,0
483,15,0,0,0,0,0,0,0,0,0,-1,1707,1009,0,0
490,15,0,0,0,0,0,0,0,0,0,-1,1714,1009,0,0
497,15,0,0,0,0,0,0,0,0,0,-1,1721,1009,0,0
504,15,0,0,0,0,0,0,0,0,0,-1,1728,1009,0,0
511,15,0,0,0,0,0,0,0,0,0,-1,1735,1009,0,0
518,15,0,0,0,0,0,0,0,0,0,-1,1742,1009,0,0
525,15,0,0,0,0,0,0,0,0,0,-1,1749,1009,0,0
532,15,0,0,0,0,0,0,0,0,0,-1,1756,1009,0,0
539,15,0,0,0,0,0,0,0,0,0,-1,1763,1009,0,0
546,15,0,0,0,0,0,0,0,0,0,-1,1770,1009,0,0
553,15,0,0,0,0,0,0,0,0,0,-1,1777,1009,0,0
560,15,0,0,0,0,0,0,0,0,0,-1,1784,1009,0,0
567,15,0,0,0,0,0,0,0,0,0,-1,1791,1009,0,0
574,15,0,0,0,0,0,0,0,0,0,-1,1798,1009,0,0
581,15,0,0,0,0,0,0,0,0,0,-1,1805,1009,0,0
588,15,0,0,0,0,0,0,0,0,0,-1,1812,1009,0,0
595,15,0,0,0,0,0,0,0,0,0,-1,1819,1009,0,0
602,15,0,0,0,0,0,0,0,0,0,-1,1826,1009,0,0
609,15,0,0,0,0,0,0,0,0,0,-1,1833,1009,0,0
616,15,0,0,0,0,0,0,0,0,0,-1,1840,1009,0,0
623,15,0,0,0,0,0,0,0,0,0,-1,1847,1009,0,0
630,15,0,0,0,0,0,0,0,0,0,-1,1854,1009,0,0
637,15,0,0,0,0,0,0,0,0,0,-1,1861,1009,0,0
644,15,44.9473,2.61536,0.00170601,0.0021627,0.00348165,0.00542349,-0.00155477,0.818144,0.00423025,0.0396859,1868,1009,44.9473,-2.61536
651,15,44.9578,2.75287,0.000788108,0.00165987,0.00163558,0.00291665,-0.000468677,0.915621,0.00211802,0.0373663,1875,1009,44.9578,-2.75286
658,15,44.9729,2.77728,0.000383222,0.00103286,0.000617231,0.00140552,1.05582e-05,1.02761,0.000933514,0.0401315,1882,1009,44.9729,-2.7773
665,15,44.9115,2.50537,0.000126501,0.000623849,0.000355259,0.00080882,-5.84702e-05,1.09075,0.000559722,0.0397834,1889,1009,44.9114,-2.50538
672,15,45.0135,2.54614,-4.29554e-05,0.000392028,0.000576245,0.000790459,-0.000441386,0.965847,0.000720662,0.0394084,1896,1009,45.0136,-2.54614
679,15,45.1509,2.6225,-0.00011776,0.000269796,0.00128236,0.00137293,-0.0012209,0.860386,0.0014984,0.0398878,1903,1009,45.1509,-2.62247
686,15,45.1923,2.53094,-8.76959e-05,5.74504e-05,0.0021087,0.00209482,-0.00212507,0.802599,0.00243638,0.0437467,1910,1009,45.1922,-2.53093
693,15,45.0099,2.44476,3.40286e-06,-8.26758e-05,0.0028223,0.00278299,-0.00286226,0.777774,0.00325939,0.0407193,1917,1009,45.0099,-2.44476
700,15,45.0293,2.59454,1.76951e-05,-9.62727e-05,0.0032066,0.00316782,-0.00324639,0.776514,0.00370334,0.0325275,1924,1009,45.0293,-2.59452
707,15,45.0492,2.66827,-0.000121215,7.14377e-05,0.00358268,0.00355909,-0.00360886,0.798838,0.00413845,0.0262261,1931,1009,45.0492,-2.66825
714,15,45.0491,2.69672,-0.000452173,0.000437489,0.00383575,0.00385412,-0.0038688,0.843125,0.00445883,0.0237694,1938,1009,45.0491,-2.6967
721,15,44.8713,3.63409,0,0,0,0,0,0,0,-1,1945,1009,44.8713,-3.63408
728,15,44.6382,4.94989,-0.00179553,0.00192563,0.003616,0.00413165,-0.00400154,1.023,0.0046959,0.0439108,1952,1009,44.6382,-4.9499
735,15,44.7819,5.47638,-0.00236677,0.00313936,0.00287906,0.0043698,-0.00359721,1.16691,0.00460696,0.0174589,1959,1009,44.7819,-5.47638
742,15,44.7462,5.63495,-0.00374485,0.00420065,0.00149124,0.00447131,-0.00401551,1.39125,0.00490222,0.0281389,1966,1009,44.7462,-5.63492
749,15,44.7734,5.66736,-0.005208,0.00497117,-0.000384206,0.00498565,-0.00522249,-1.53312,0.0058942,0.0178089,1973,1009,44.7734,-5.66737
756,15,44.7811,5.63531,-0.0056884,0.00541244,-0.00305008,0.00619528,-0.00647124,-1.31956,0.00731359,0.015416,1980,1009,44.7811,-5.63533
763,15,44.7203,5.74933,-0.00516972,0.00632799,-0.00663163,0.00935569,-0.00819742,-1.14251,0.0101416,0.0132115,1987,1009,44.7204,-5.74931
770,15,44.5913,5.81604,-0.00450619,0.00660377,-0.0110344,0.0134026,-0.011305,-1.01859,0.0142821,0.0183776,1994,1009,44.5913,-5.81604
777,15,44.2883,5.86066,-0.00221222,0.00619293,-0.0163365,0.0188588,-0.0148781,-0.911294,0.0195231,0.0419111,2001,1009,44.2883,-5.86067
784,15,44.0325,5.89734,0,0,0,0,0,0,0,-1,2008,1009,44.0325,-5.89732
791,15,43.2046,5.04669,0.00889737,0.00291941,-0.0289496,0.0350119,-0.0231951,-0.733957,0.0338358,0.0476966,2015,1009,43.2046,-5.04668
798,15,42.6299,4.35553,0.0198245,-0.000121412,-0.0367639,0.0479442,-0.028241,-0.65295,0.0444732,0.0499267,2022,1009,42.6298,-4.35553
805,15,42.0295,3.70923,0,0,0,0,0,0,0,-1,2029,1009,42.0294,-3.70922
812,15,39.7278,5.85449,0,0,0,0,0,0,0,-1,2036,1009,39.7278,-5.8545
-700,8,0,0,0,0,0,0,0,0,0,-1,524,1016,0,0
-693,8,-32.156,3.21399,0,0,0,0,0,0,0,-1,531,1016,-32.1561,-3.21401
-686,8,-31.5892,3.10156,0,0,0,0,0,0,0,-1,538,1016,-31.5892,-3.10158
-679,8,-32.6292,3.34161,-0.0295264,0.028887,-0.012091,0.0312908,-0.0319302,-1.37455,0.0365012,0.0450707,545,1016,-32.6291,-3.3416
-672,8,-33.0037,2.74524,-0.0261468,0.0261954,-0.0109206,0.0283824,-0.0283339,-1.37314,0.0327452,0.0448456,552,1016,-33.0037,-2.74523
-665,8,-33.9514,2.05542,-0.0223876,0.0235012,-0.00927235,0.025304,-0.0241904,-1.37877,0.028578,0.0476619,559,1016,-33.9514,-2.05541
-658,8,-33.8938,2.245,-0.0186602,0.0207491,-0.00747974,0.022121,-0.0200321,-1.3894,0.024347,0.0413184,566,1016,-33.8938,-2.245
-651,8,-33.4105,2.5235,0,0,0,0,0,0,0,-1,573,1016,-33.4105,-2.52351
-644,8,-33.402,2.57294,0,0,0,0,0,0,0,-1,580,1016,-33.402,-2.57293
-637,8,-33.7023,2.74188,-0.00844683,0.0132672,-0.00459221,0.0141985,-0.00937808,-1.37072,0.0137064,0.0376965,587,1016,-33.7024,-2.74191
-630,8,-33.8774,2.85742,-0.00607806,0.00930771,-0.00360984,0.0101126,-0.00688291,-1.35143,0.00987122,0.0211545,594,1016,-33.8774,-2.85741
-623,8,-33.8687,2.88867,-0.0041609,0.00740934,-0.0032971,0.00828294,-0.0050345,-1.31179,0.0077647,0.0144053,601,1016,-33.8687,-2.88867
-616,8,-33.882,2.86902,-0.00176435,0.00552088,-0.00376851,0.00711948,-0.00336294,-1.1696,0.00618021,0.0145606,608,1016,-33.8819,-2.86901
-609,8,-33.938,2.82068,-0.000526976,0.00400801,-0.00458474,0.00685533,-0.0033743,-1.01505,0.00601899,0.0172067,615,1016,-33.938,-2.82069
-602,8,-33.8908,2.84625,0.000207078,0.00260355,-0.00536683,0.00690428,-0.00409365,-0.895231,0.0064184,0.0228164,622,1016,-33.8908,-2.84622
-595,8,-33.9211,2.7804,0,0,0,0,0,0,0,-1,629,1016,-33.9211,-2.78042
-588,8,-33.3845,1.39246,0,0,0,0,0,0,0,-1,636,1016,-33.3845,-1.39247
-581,8,-33.4343,0.740417,0,0,0,0,0,0,0,-1,643,1016,-33.4343,-0.740402
-574,8,-33.4998,0.819397,0.00206815,-0.000702644,-0.0057873,0.00663356,-0.00526806,-0.667916,0.00688646,0.036826,650,1016,-33.4998,-0.819381
-567,8,-33.5475,0.744568,0.00199798,-0.000985757,-0.00523534,0.00594987,-0.00493765,-0.646597,0.00629496,0.0396678,657,1016,-33.5475,-0.744586
-560,8,-33.5479,0.854919,0.00184777,-0.00109919,-0.00436189,0.00497833,-0.00422975,-0.622512,0.00532214,0.0383781,664,1016,-33.5478,-0.854893
-553,8,-33.4563,0.752869,0.00158985,-0.00116831,-0.00327173,0.00376127,-0.00333973,-0.58594,0.00410217,0.0379458,671,1016,-33.4563,-0.752852
-546,8,-33.4282,0.838013,0.00132129,-0.00139049,-0.00208489,0.00245241,-0.00252161,-0.497091,0.00287184,0.0393459,678,1016,-33.4282,-0.838025
-539,8,-33.4825,0.908325,0.00124356,-0.00159925,-0.00153291,0.00191265,-0.00226835,-0.411562,0.00241681,0.0420121,685,1016,-33.4826,-0.908325
-532,8,-33.5284,0.806519,0.0017377,-0.00129788,-0.00254179,0.00318038,-0.00274056,-0.516243,0.0034216,0.0428824,692,1016,-33.5285,-0.806538
-525,8,0,0,0,0,0,0,0,0,0,-1,699,1016,0,0
-518,8,0,0,0,0,0,0,0,0,0,-1,706,1016,0,0
-511,8,0,0,0,0,0,0,0,0,0,-1,713,1016,0,0
-504,8,0,0,0,0,0,0,0,0,0,-1,720,1016,0,0
-497,8,0,0,0,0,0,0,0,0,0,-1,727,1016,0,0
-490,8,0,0,0,0,0,0,0,0,0,-1,734,1016,0,0
-483,8,0,0,0,0,0,0,0,0,0,-1,741,1016,0,0
-476,8,0,0,0,0,0,0,0,0,0,-1,748,1016,0,0
-469,8,0,0,0,0,0,0,0,0,0,-1,755,1016,0,0
-462,8,0,0,0,0,0,0,0,0,0,-1,762,1016,0,0
-455,8,0,0,0,0,0,0,0,0,0,-1,769,1016,0,0
-448,8,0,0,0,0,0,0,0,0,0,-1,776,1016,0,0
-441,8,0,0,0,0,0,0,0,0,0,-1,783,1016,0,0
-434,8,0,0,0,0,0,0,0,0,0,-1,790,1016,0,0
-427,8,0,0,0,0,0,0,0,0,0,-1,797,1016,0,0
-420,8,0,0,0,0,0,0,0,0,0,-1,804,1016,0,0
-413,8,0,0,0,0,0,0,0,0,0,-1,811,1016,0,0
-406,8,0,0,0,0,0,0,0,0,0,-1,818,1016,0,0
-399,8,0,0,0,0,0,0,0,0,0,-1,825,1016,0,0
-392,8,0,0,0,0,0,0,0,0,0,-1,832,1016,0,0
-385,8,0,0,0,0,0,0,0,0,0,-1,839,1016,0,0
-378,8,0,0,0,0,0,0,0,0,0,-1,846,1016,0,0
-371,8,0,0,0,0,0,0,0,0,0,-1,853,1016,0,0
-364,8,0,0,0,0,0,0,0,0,0,-1,860,1016,0,0
-357,8,0,0,0,0,0,0,0,0,0,-1,867,1016,0,0
-350,8,0,0,0,0,0,0,0,0,0,-1,874,1016,0,0
-343,8,0,0,0,0,0,0,0,0,0,-1,881,1016,0,0
-336,8,0,0,0,0,0,0,0,0,0,-1,888,1016,0,0
-329,8,0,0,0,0,0,0,0,0,0,-1,895,1016,0,0
-322,8,0,0,0,0,0,0,0,0,0,-1,902,1016,0,0
-315,8,0,0,0,0,0,0,0,0,0,-1,909,1016,0,0
-308,8,0,0,0,0,0,0,0,0,0,-1,916,1016,0,0
-301,8,0,0,0,0,0,0,0,0,0,-1,923,1016,0,0
-294,8,0,0,0,0,0,0,0,0,0,-1,930,1016,0,0
-287,8,0,0,0,0,0,0,0,0,0,-1,937,1016,0,0
-280,8,0,0,0,0,0,0,0,0,0,-1,944,1016,0,0
-273,8,0,0,0,0,0,0,0,0,0,-1,951,1016,0,0
-266,8,0,0,0,0,0,0,0,0,0,-1,958,1016,0,0
-259,8,0,0,0,0,0,0,0,0,0,-1,965,1016,0,0
-252,8,0,0,0,0,0,0,0,0,0,-1,972,1016,0,0
-245,8,0,0,0,0,0,0,0,0,0,-1,979,1016,0,0
-238,8,0,0,0,0,0,0,0,0,0,-1,986,1016,0,0
-231,8,0,0,0,0,0,0,0,0,0,-1,993,1016,0,0
-224,8,0,0,0,0,0,0,0,0,0,-1,1000,1016,0,0
-217,8,0,0,0,0,0,0,0,0,0,-1,1007,1016,0,0
-210,8,0,0,0,0,0,0,0,0,0,-1,1014,1016,0,0
-203,8,0,0,0,0,0,0,0,0,0,-1,1021,1016,0,0
-196,8,0,0,0,0,0,0,0,0,0,-1,1028,1016,0,0
-189,8,0,0,0,0,0,0,0,0,0,-1,1035,1016,0,0
-182,8,0,0,0,0,0,0,0,0,0,-1,1042,1016,0,0
-175,8,0,0,0,0,0,0,0,0,0,-1,1049,1016,0,0
-168,8,0,0,0,0,0,0,0,0,0,-1,1056,1016,0,0
-161,8,0,0,0,0,0,0,0,0,0,-1,1063,1016,0,0
-154,8,0,0,0,0,0,0,0,0,0,-1,1070,1016,0,0
-147,8,0,0,0,0,0,0,0,0,0,-1,1077,1016,0,0
-140,8,0,0,0,0,0,0,0,0,0,-1,1084,1016,0,0
-133,8,0,0,0,0,0,0,0,0,0,-1,1091,1016,0,0
-126,8,0,0,0,0,0,0,0,0,0,-1,1098,1016,0,0
-119,8,0,0,0,0,0,0,0,0,0,-1,1105,1016,0,0
-112,8,0,0,0,0,0,0,0,0,0,-1,1112,1016,0,0
-105,8,0,0,0,0,0,0,0,0,0,-1,1119,1016,0,0
-98,8,0,0,0,0,0,0,0,0,0,-1,1126,1016,0,0
-91,8,0,0,0,0,0,0,0,0,0,-1,1133,1016,0,0
-84,8,0,0,0,0,0,0,0,0,0,-1,1140,1016,0,0
-77,8,0,0,0,0,0,0,0,0,0,-1,1147,1016,0,0
-70,8,0,0,0,0,0,0,0,0,0,-1,1154,1016,0,0
-63,8,0,0,0,0,0,0,0,0,0,-1,1161,1016,0,0
-56,8,0,0,0,0,0,0,0,0,0,-1,1168,1016,0,0
-49,8,0,0,0,0,0,0,0,0,0,-1,1175,1016,0,0
-42,8,0,0,0,0,0,0,0,0,0,-1,1182,1016,0,0
-35,8,0,0,0,0,0,0,0,0,0,-1,1189,1016,0,0
-28,8,0,0,0,0,0,0,0,0,0,-1,1196,1016,0,0
-21,8,0,0,0,0,0,0,0,0,0,-1,1203,1016,0,0
-14,8,0,0,0,0,0,0,0,0,0,-1,1210,1016,0,0
-7,8,0,0,0,0,0,0,0,0,0,-1,1217,1016,0,0
0,8,0,0,0,0,0,0,0,0,0,-1,1224,1016,0,0
7,8,0,0,0,0,0,0,0,0,0,-1,1231,1016,0,0
14,8,0,0,0,0,0,0,0,0,0,-1,1238,1016,0,0
21,8,0,0,0,0,0,0,0,0,0,-1,1245,1016,0,0
28,8,0,0,0,0,0,0,0,0,0,-1,1252,1016,0,0
35,8,0,0,0,0,0,0,0,0,0,-1,1259,1016,0,0
42,8,0,0,0,0,0,0,0,0,0,-1,1266,1016,0,0
49,8,0,0,0,0,0,0,0,0,0,-1,1273,1016,0,0
56,8,0,0,0,0,0,0,0,0,0,-1,1280,1016,0,0
63,8,0,0,0,0,0,0,0,0,0,-1,1287,1016,0,0
70,8,0,0,0,0,0,0,0,0,0,-1,1294,1016,0,0
77,8,0,0,0,0,0,0,0,0,0,-1,1301,1016,0,0
84,8,0,0,0,0,0,0,0,0,0,-1,1308,1016,0,0
91,8,0,0,0,0,0,0,0,0,0,-1,1315,1016,0,0
98,8,0,0,0,0,0,0,0,0,0,-1,1322,1016,0,0
105,8,0,0,0,0,0,0,0,0,0,-1,1329,1016,0,0
112,8,0,0,0,0,0,0,0,0,0,-1,1336,1016,0,0
119,8,0,0,0,0,0,0,0,0,0,-1,1343,1016,0,0
126,8,0,0,0,0,0,0,0,0,0,-1,1350,1016,0,0
133,8,0,0,0,0,0,0,0,0,0,-1,1357,1016,0,0
140,8,0,0,0,0,0,0,0,0,0,-1,1364,1016,0,0
147,8,0,0,0,0,0,0,0,0,0,-1,1371,1016,0,0
154,8,0,0,0,0,0,0,0,0,0,-1,1378,1016,0,0
161,8,0,0,0,0,0,0,0,0,0,-1,1385,1016,0,0
168,8,0,0,0,0,0,0,0,0,0,-1,1392,1016,0,0
175,8,0,0,0,0,0,0,0,0,0,-1,1399,1016,0,0
182,8,0,0,0,0,0,0,0,0,0,-1,1406,1016,0,0
189,8,0,0,0,0,0,0,0,0,0,-1,1413,1016,0,0
196,8,0,0,0,0,0,0,0,0,0,-1,1420,1016,0,0
203,8,0,0,0,0,0,0,0,0,0,-1,1427,1016,0,0
210,8,0,0,0,0,0,0,0,0,0,-1,1434,1016,0,0
217,8,0,0,0,0,0,0,0,0,0,-1,1441,1016,0,0
224,8,0,0,0,0,0,0,0,0,0,-1,1448,1016,0,0
231,8,0,0,0,0,0,0,0,0,0,-1,1455,1016,0,0
238,8,0,0,0,0,0,0,0,0,0,-1,1462,1016,0,0
245,8,0,0,0,0,0,0,0,0,0,-1,1469,1016,0,0
252,8,0,0,0,0,0,0,0,0,0,-1,1476,1016,0,0
259,8,0,0,0,0,0,0,0,0,0,-1,1483,1016,0,0
266,8,0,0,0,0,0,0,0,0,0,-1,1490,1016,0,0
273,8,0,0,0,0,0,0,0,0,0,-1,1497,1016,0,0
280,8,0,0,0,0,0,0,0,0,0,-1,1504,1016,0,0
287,8,0,0,0,0,0,0,0,0,0,-1,1511,1016,0,0
294,8,0,0,0,0,0,0,0,0,0,-1,1518,1016,0,0
301,8,0,0,0,0,0,0,0,0,0,-1,1525,1016,0,0
308,8,0,0,0,0,0,0,0,0,0,-1,1532,1016,0,0
315,8,0,0,0,0,0,0,0,0,0,-1,1539,1016,0,0
322,8,0,0,0,0,0,0,0,0,0,-1,1546,1016,0,0
329,8,0,0,0,0,0,0,0,0,0,-1,1553,1016,0,0
336,8,0,0,0,0,0,0,0,0,0,-1,1560,1016,0,0
343,8,0,0,0,0,0,0,0,0,0,-1,1567,1016,0,0
350,8,0,0,0,0,0,0,0,0,0,-1,1574,1016,0,0
357,8,0,0,0,0,0,0,0,0,0,-1,1581,1016,0,0
364,8,0,0,0,0,0,0,0,0,0,-1,1588,1016,0,0
371,8,0,0,0,0,0,0,0,0,0,-1,1595,1016,0,0
378,8,0,0,0,0,0,0,0,0,0,-1,1602,1016,0,0
385,8,0,0,0,0,0,0,0,0,0,-1,1609,1016,0,0
392,8,0,0,0,0,0,0,0,0,0,-1,1616,1016,0,0
399,8,0,0,0,0,0,0,0,0,0,-1,1623,1016,0,0
406,8,0,0,0,0,0,0,0,0,0,-1,1630,1016,0,0
413,8,0,0,0,0,0,0,0,0,0,-1,1637,1016,0,0
420,8,0,0,0,0,0,0,0,0,0,-1,1644,1016,0,0
427,8,0,0,0,0,0,0,0,0,0,-1,1651,1016,0,0
434,8,0,0,0,0,0,0,0,0,0,-1,1658,1016,0,0
441,8,0,0,0,0,0,0,0,0,0,-1,1665,1016,0,0
448,8,0,0,0,0,0,0,0,0,0,-1,1672,1016,0,0
455,8,0,0,0,0,0,0,0,0,0,-1,1679,1016,0,0
462,8,0,0,0,0,0,0,0,0,0,-1,1686,1016,0,0
469,8,0,0,0,0,0,0,0,0,0,-1,1693,1016,0,0
476,8,0,0,0,0,0,0,0,0,0,-1,1700,1016,0,0
483,8,0,0,0,0,0,0,0,0,0,-1,1707,1016,0,0
490,8,0,0,0,0,0,0,0,0,0,-1,1714,1016,0,0
497,8,0,0,0,0,0,0,0,0,0,-1,1721,1016,0,0
504,8,0,0,0,0,0,0,0,0,0,-1,1728,1016,0,0
511,8,0,0,0,0,0,0,0,0,0,-1,1735,1016,0,0
518,8,0,0,0,0,0,0,0,0,0,-1,1742,1016,0,0
525,8,0,0,0,0,0,0,0,0,0,-1,1749,1016,0,0
532,8,0,0,0,0,0,0,0,0,0,-1,1756,1016,0,0
539,8,0,0,0,0,0,0,0,0,0,-1,1763,1016,0,0
546,8,0,0,0,0,0,0,0,0,0,-1,1770,1016,0,0
553,8,0,0,0,0,0,0,0,0,0,-1,1777,1016,0,0
560,8,0,0,0,0,0,0,0,0,0,-1,1784,1016,0,0
567,8,0,0,0,0,0,0,0,0,0,-1,1791,1016,0,0
574,8,0,0,0,0,0,0,0,0,0,-1,1798,1016,0,0
581,8,0,0,0,0,0,0,0,0,0,-1,1805,1016,0,0
588,8,0,0,0,0,0,0,0,0,0,-1,1812,1016,0,0
595,8,0,0,0,0,0,0,0,0,0,-1,1819,1016,0,0
602,8,0,0,0,0,0,0,0,0,0,-1,1826,1016,0,0
609,8,0,0,0,0,0,0,0,0,0,-1,1833,1016,0,0
616,8,0,0,0,0,0,0,0,0,0,-1,1840,1016,0,0
623,8,0,0,0,0,0,0,0,0,0,-1,1847,1016,0,0
630,8,0,0,0,0,0,0,0,0,0,-1,1854,1016,0,0
637,8,0,0,0,0,0,0,0,0,0,-1,1861,1016,0,0
644,8,44.7781,2.63354,0.00161175,0.00251751,0.00273908,0.00484089,-0.000711642,0.867327,0.00348876,0.042282,1868,1016,44.7781,-2.63357
651,8,45.1189,2.88934,0.000616943,0.00211525,0.00125518,0.00282785,-9.56518e-05,1.05445,0.00191791,0.0395837,1875,1016,45.1189,-2.88936
658,8,44.9835,2.82819,0.000187704,0.00152408,0.000447333,0.00165999,5.17884e-05,1.27582,0.00108981,0.038981,1882,1016,44.9835,-2.82819
665,8,44.8992,2.62268,-4.16758e-05,0.00107997,0.000252592,0.00113423,-9.59342e-05,1.35921,0.000790075,0.0393874,1889,1016,44.8992,-2.62267
672,8,45.0051,2.54938,-0.000156984,0.0007929,0.000486431,0.000997799,-0.000361884,1.17212,0.000813129,0.0388334,1896,1016,45.0052,-2.54938
679,8,45.1274,2.6394,-0.000154329,0.000592076,0.0011519,0.00142973,-0.000991979,0.942056,0.00140577,0.0400927,1903,1016,45.1274,-2.6394
686,8,45.0861,2.56512,-7.84197e-05,0.000289746,0.00193331,0.00204772,-0.00183639,0.832863,0.0022436,0.0432348,1910,1016,45.086,-2.56513
693,8,45.0083,2.37329,5.54745e-05,5.65892e-05,0.00262555,0.00268158,-0.00256951,0.785504,0.00303195,0.039358,1917,1016,45.0083,-2.3733
700,8,45.0009,2.56329,0.00011876,-1.88113e-05,0.00301626,0.00306702,-0.00296707,0.773998,0.00348394,0.0322095,1924,1016,45.0008,-2.56327
707,8,45.0209,2.66876,1.02661e-05,7.53628e-05,0.00340259,0.00344556,-0.00335993,0.790181,0.00392926,0.0235443,1931,1016,45.0209,-2.66879
714,8,45.0477,2.63068,-0.000304765,0.00037779,0.003675,0.00372733,-0.0036543,0.831698,0.00426185,0.0207111,1938,1016,45.0478,-2.63071
721,8,45.0697,3.6734,0,0,0,0,0,0,0,-1,1945,1016,45.0697,-3.67338
728,8,44.7749,4.95758,-0.00168777,0.00177755,0.00351892,0.00396725,-0.00387746,1.01417,0.00452925,0.0402617,1952,1016,44.7749,-4.95759
735,8,44.7163,5.47314,-0.00229195,0.00289316,0.00286057,0.0041612,-0.00355999,1.15354,0.00446233,0.038725,1959,1016,44.7164,-5.47314
742,8,44.8989,5.40881,-0.0036568,0.00397282,0.00155776,0.00427861,-0.00396259,1.37696,0.00475923,0.0489307,1966,1016,44.8989,-5.4088
749,8,44.9153,5.62158,-0.00517656,0.00504289,-0.000137334,0.00504474,-0.00517841,-1.55736,0.0059025,0.0379457,1973,1016,44.9152,-5.62156
756,8,44.8228,5.58301,-0.00590774,0.00602321,-0.0026454,0.00658346,-0.00646798,-1.3621,0.00753535,0.0249317,1980,1016,44.8228,-5.583
763,8,44.8069,5.66907,-0.00581722,0.00768533,-0.00608927,0.0100258,-0.00815764,-1.20385,0.0105166,0.0156399,1987,1016,44.8068,-5.66906
770,8,44.7034,5.68146,-0.00558932,0.00902529,-0.010435,0.0144571,-0.0110211,-1.09085,0.0147544,0.021366,1994,1016,44.7034,-5.68149
777,8,44.3636,5.70099,-0.00389178,0.0101803,-0.0157625,0.0204059,-0.0141174,-0.995317,0.0200419,0.0367289,2001,1016,44.3636,-5.70097
784,8,44.0303,5.67908,0,0,0,0,0,0,0,-1,2008,1016,44.0302,-5.67908
791,8,43.5352,4.92096,0.00563886,0.0116471,-0.0284747,0.0372757,-0.0199897,-0.837955,0.0335606,0.0464775,2015,1016,43.5352,-4.92094
798,8,42.9822,4.64172,0.015501,0.0121207,-0.0364108,0.0502609,-0.0226392,-0.762206,0.0430842,0.0459972,2022,1016,42.9821,-4.64171
805,8,42.9304,4.4375,0,0,0,0,0,0,0,-1,2029,1016,42.9305,-4.43751
812,8,42.6667,4.37238,0,0,0,0,0,0,0,-1,2036,1016,42.6666,-4.37236
-700,1,0,0,0,0,0,0,0,0,0,-1,524,1023,0,0
-693,1,-30.922,2.09564,0,0,0,0,0,0,0,-1,531,1023,-30.922,-2.09567
-686,1,-31.7936,2.71082,-0.0027156,0.035677,-0.0164875,0.0417855,-0.00882413,-1.21598,0.0312169,0.0458467,538,1023,-31.7936,-2.71081
-679,1,-32.7644,3.31525,-0.00715533,0.0317031,-0.01437,0.0364398,-0.011892,-1.25239,0.0290794,0.0447768,545,1023,-32.7644,-3.31522
-672,1,-33.3167,2.77661,-0.00911558,0.0281516,-0.0119894,0.0316755,-0.0126395,-1.28492,0.0263604,0.0454086,552,1023,-33.3167,-2.77661
-665,1,-33.9802,2.12292,-0.0095057,0.024847,-0.00968793,0.0273908,-0.0120495,-1.31402,0.023338,0.044995,559,1023,-33.9802,-2.1229
-658,1,-33.8638,2.41895,-0.00900519,0.0216525,-0.00757752,0.0234231,-0.0107758,-1.34125,0.0201898,0.0340005,566,1023,-33.8638,-2.41897
-651,1,-33.66,2.61279,-0.0080199,0.0184596,-0.00578182,0.019667,-0.00922731,-1.36493,0.0170412,0.0257938,573,1023,-33.66,-2.61279
-644,1,-33.4218,2.80566,0,0,0,0,0,0,0,-1,580,1023,-33.4218,-2.80564
-637,1,-33.702,2.71704,-0.00563623,0.0131064,-0.00424857,0.0140244,-0.00655432,-1.35797,0.0121393,0.0346996,587,1023,-33.702,-2.71705
-630,1,-33.9218,2.71503,-0.00495013,0.00896285,-0.0031367,0.00963733,-0.00562461,-1.35899,0.00891242,0.0292393,594,1023,-33.9217,-2.71504
-623,1,-33.8397,2.87256,-0.00393817,0.00726112,-0.00299989,0.00801406,-0.00469111,-1.32489,0.00741849,0.0146417,601,1023,-33.8397,-2.87258
-616,1,-33.9231,2.83478,-0.00180667,0.00517797,-0.00354073,0.00665888,-0.00328758,-1.17466,0.00585151,0.0177814,608,1023,-33.9231,-2.83476
-609,1,-33.9308,2.86469,-0.000759395,0.00356904,-0.00419605,0.00612612,-0.00331648,-1.02349,0.00553155,0.0187015,615,1023,-33.9309,-2.86469
-602,1,-33.799,2.91339,-0.000166664,0.00206972,-0.00488129,0.00595926,-0.0040562,-0.897994,0.00581712,0.0144785,622,1023,-33.7989,-2.91337
-595,1,-33.6526,2.89014,0,0,0,0,0,0,0,-1,629,1023,-33.6526,-2.89011
-588,1,-33.5493,1.85925,0,0,0,0,0,0,0,-1,636,1023,-33.5493,-1.85926
-581,1,-33.3789,0.739624,0,0,0,0,0,0,0,-1,643,1023,-33.3789,-0.739617
-574,1,-33.3994,0.838318,0.00151519,-0.00117393,-0.00493323,0.00528382,-0.00494255,-0.652354,0.00590529,0.0358876,650,1023,-33.3994,-0.8383
-567,1,-33.4905,0.885132,0.0014769,-0.00142122,-0.00439233,0.00465302,-0.00459735,-0.626066,0.00534074,0.0421334,657,1023,-33.4905,-0.885162
-560,1,-33.6582,1.11584,0.00137277,-0.00147592,-0.00356314,0.0037857,-0.00388885,-0.595255,0.00443104,0.041075,664,1023,-33.6582,-1.11583
-553,1,-33.4794,0.89093,0.0011676,-0.00145463,-0.00252992,0.00270596,-0.00299299,-0.546329,0.00329168,0.0390371,671,1023,-33.4793,-0.890923
-546,1,-33.3595,0.835815,0.000938677,-0.00156131,-0.00138612,0.00155518,-0.00217781,-0.418496,0.00216521,0.0412082,678,1023,-33.3595,-0.8358
-539,1,-33.3628,0.841675,0.000796539,-0.00163154,-0.000839109,0.0010583,-0.0018933,-0.302388,0.00172669,0.0413157,685,1023,-33.3628,-0.841644
-532,1,-33.3936,0.803162,0.00107541,-0.00120017,-0.00152223,0.00183808,-0.00196284,-0.464466,0.00219486,0.0414093,692,1023,-33.3936,-0.803178
-525,1,0,0,0,0,0,0,0,0,0,-1,699,1023,0,0
-518,1,0,0,0,0,0,0,0,0,0,-1,706,1023,0,0
-511,1,0,0,0,0,0,0,0,0,0,-1,713,1023,0,0
-504,1,0,0,0,0,0,0,0,0,0,-1,720,1023,0,0
-497,1,0,0,0,0,0,0,0,0,0,-1,727,1023,0,0
-490,1,0,0,0,0,0,0,0,0,0,-1,734,1023,0,0
-483,1,0,0,0,0,0,0,0,0,0,-1,741,1023,0,0
-476,1,0,0,0,0,0,0,0,0,0,-1,748,1023,0,0
-469,1,0,0,0,0,0,0,0,0,0,-1,755,1023,0,0
-462,1,0,0,0,0,0,0,0,0,0,-1,762,1023,0,0
-455,1,0,0,0,0,0,0,0,0,0,-1,769,1023,0,0
-448,1,0,0,0,0,0,0,0,0,0,-1,776,1023,0,0
-441,1,0,0,0,0,0,0,0,0,0,-1,783,1023,0,0
-434,1,0,0,0,0,0,0,0,0,0,-1,790,1023,0,0
-427,1,0,0,0,0,0,0,0,0,0,-1,797,1023,0,0
-420,1,0,0,0,0,0,0,0,0,0,-1,804,1023,0,0
-413,1,0,0,0,0,0,0,0,0,0,-1,811,1023,0,0
-406,1,0,0,0,0,0,0,0,0,0,-1,818,1023,0,0
-399,1,0,0,0,0,0,0,0,0,0,-1,825,1023,0,0
-392,1,0,0,0,0,0,0,0,0,0,-1,832,1023,0,0
-385,1,0,0,0,0,0,0,0,0,0,-1,839,1023,0,0
-378,1,0,0,0,0,0,0,0,0,0,-1,846,1023,0,0
-371,1,0,0,0,0,0,0,0,0,0,-1,853,1023,0,0
-364,1,0,0,0,0,0,0,0,0,0,-1,860,1023,0,0
-357,1,0,0,0,0,0,0,0,0,0,-1,867,1023,0,0
-350,1,0,0,0,0,0,0,0,0,0,-1,874,1023,0,0
-343,1,0,0,0,0,0,0,0,0,0,-1,881,1023,0,0
-336,1,0,0,0,0,0,0,0,0,0,-1,888,1023,0,0
-329,1,0,0,0,0,0,0,0,0,0,-1,895,1023,0,0
-322,1,0,0,0,0,0,0,0,0,0,-1,902,1023,0,0
-315,1,0,0,0,0,0,0,0,0,0,-1,909,1023,0,0
-308,1,0,0,0,0,0,0,0,0,0,-1,916,1023,0,0
-301,1,0,0,0,0,0,0,0,0,0,-1,923,1023,0,0
-294,1,0,0,0,0,0,0,0,0,0,-1,930,1023,0,0
-287,1,0,0,0,0,0,0,0,0,0,-1,937,1023,0,0
-280,1,0,0,0,0,0,0,0,0,0,-1,944,1023,0,0
-273,1,0,0,0,0,0,0,0,0,0,-1,951,1023,0,0
-266,1,0,0,0,0,0,0,0,0,0,-1,958,1023,0,0
-259,1,0,0,0,0,0,0,0,0,0,-1,965,1023,0,0
-252,1,0,0,0,0,0,0,0,0,0,-1,972,1023,0,0
-245,1,0,0,0,0,0,0,0,0,0,-1,979,1023,0,0
-238,1,0,0,0,0,0,0,0,0,0,-1,986,1023,0,0
-231,1,0,0,0,0,0,0,0,0,0,-1,993,1023,0,0
-224,1,0,0,0,0,0,0,0,0,0,-1,1000,1023,0,0
-217,1,0,0,0,0,0,0,0,0,0,-1,1007,1023,0,0
-210,1,0,0,0,0,0,0,0,0,0,-1,1014,1023,0,0
-203,1,0,0,0,0,0,0,0,0,0,-1,1021,1023,0,0
-196,1,0,0,0,0,0,0,0,0,0,-1,1028,1023,0,0
-189,1,0,0,0,0,0,0,0,0,0,-1,1035,1023,0,0
-182,1,0,0,0,0,0,0,0,0,0,-1,1042,1023,0,0
-175,1,0,0,0,0,0,0,0,0,0,-1,1049,1023,0,0
-168,1,0,0,0,0,0,0,0,0,0,-1,1056,1023,0,0
-161,1,0,0,0,0,0,0,0,0,0,-1,1063,1023,0,0
-154,1,0,0,0,0,0,0,0,0,0,-1,1070,1023,0,0
-147,1,0,0,0,0,0,0,0,0,0,-1,1077,1023,0,0
-140,1,0,0,0,0,0,0,0,0,0,-1,1084,1023,0,0
-133,1,0,0,0,0,0,0,0,0,0,-1,1091,1023,0,0
-126,1,0,0,0,0,0,0,0,0,0,-1,1098,1023,0,0
-119,1,0,0,0,0,0,0,0,0,0,-1,1105,1023,0,0
-112,1,0,0,0,0,0,0,0,0,0,-1,1112,1023,0,0
-105,1,0,0,0,0,0,0,0,0,0,-1,1119,1023,0,0
-98,1,0,0,0,0,0,0,0,0,0,-1,1126,1023,0,0
-91,1,0,0,0,0,0,0,0,0,0,-1,1133,1023,0,0
-84,1,0,0,0,0,0,0,0,0,0,-1,1140,1023,0,0
-77,1,0,0,0,0,0,0,0,0,0,-1,1147,1023,0,0
-70,1,0,0,0,0,0,0,0,0,0,-1,1154,1023,0,0
-63,1,0,0,0,0,0,0,0,0,0,-1,1161,1023,0,0
-56,1,0,0,0,0,0,0,0,0,0,-1,1168,1023,0,0
-49,1,0,0,0,0,0,0,0,0,0,-1,1175,1023,0,0
-42,1,0,0,0,0,0,0,0,0,0,-1,1182,1023,0,0
-35,1,0,0,0,0,0,0,0,0,0,-1,1189,1023,0,0
-28,1,0,0,0,0,0,0,0,0,0,-1,1196,1023,0,0
-21,1,0,0,0,0,0,0,0,0,0,-1,1203,1023,0,0
-14,1,0,0,0,0,0,0,0,0,0,-1,1210,1023,0,0
-7,1,0,0,0,0,0,0,0,0,0,-1,1217,1023,0,0
0,1,0,0,0,0,0,0,0,0,0,-1,1224,1023,0,0
7,1,0,0,0,0,0,0,0,0,0,-1,1231,1023,0,0
14,1,0,0,0,0,0,0,0,0,0,-1,1238,1023,0,0
21,1,0,0,0,0,0,0,0,0,0,-1,1245,1023,0,0
28,1,0,0,0,0,0,0,0,0,0,-1,1252,1023,0,0
35,1,0,0,0,0,0,0,0,0,0,-1,1259,1023,0,0
42,1,0,0,0,0,0,0,0,0,0,-1,1266,1023,0,0
49,1,0,0,0,0,0,0,0,0,0,-1,1273,1023,0,0
56,1,0,0,0,0,0,0,0,0,0,-1,1280,1023,0,0
63,1,0,0,0,0,0,0,0,0,0,-1,1287,1023,0,0
70,1,0,0,0,0,0,0,0,0,0,-1,1294,1023,0,0
77,1,0,0,0,0,0,0,0,0,0,-1,1301,1023,0,0
84,1,0,0,0,0,0,0,0,0,0,-1,1308,1023,0,0
91,1,0,0,0,0,0,0,0,0,0,-1,1315,1023,0,0
98,1,0,0,0,0,0,0,0,0,0,-1,1322,1023,0,0
105,1,0,0,0,0,0,0,0,0,0,-1,1329,1023,0,0
112,1,0,0,0,0,0,0,0,0,0,-1,1336,1023,0,0
119,1,0,0,0,0,0,0,0,0,0,-1,1343,1023,0,0
126,1,0,0,0,0,0,0,0,0,0,-1,1350,1023,0,0
133,1,0,0,0,0,0,0,0,0,0,-1,1357,1023,0,0
140,1,0,0,0,0,0,0,0,0,0,-1,1364,1023,0,0
147,1,0,0,0,0,0,0,0,0,0,-1,1371,1023,0,0
154,1,0,0,0,0,0,0,0,0,0,-1,1378,1023,0,0
161,1,0,0,0,0,0,0,0,0,0,-1,1385,1023,0,0
168,1,0,0,0,0,0,0,0,0,0,-1,1392,1023,0,0
175,1,0,0,0,0,0,0,0,0,0,-1,1399,1023,0,0
182,1,0,0,0,0,0,0,0,0,0,-1,1406,1023,0,0
189,1,0,0,0,0,0,0,0,0,0,-1,1413,1023,0,0
196,1,0,0,0,0,0,0,0,0,0,-1,1420,1023,0,0
203,1,0,0,0,0,0,0,0,0,0,-1,1427,1023,0,0
210,1,0,0,0,0,0,0,0,0,0,-1,1434,1023,0,0
217,1,0,0,0,0,0,0,0,0,0,-1,1441,1023,0,0
224,1,0,0,0,0,0,0,0,0,0,-1,1448,1023,0,0
231,1,0,0,0,0,0,0,0,0,0,-1,1455,1023,0,0
238,1,0,0,0,0,0,0,0,0,0,-1,1462,1023,0,0
245,1,0,0,0,0,0,0,0,0,0,-1,1469,1023,0,0
252,1,0,0,0,0,0,0,0,0,0,-1,1476,1023,0,0
259,1,0,0,0,0,0,0,0,0,0,-1,1483,1023,0,0
266,1,0,0,0,0,0,0,0,0,0,-1,1490,1023,0,0
273,1,0,0,0,0,0,0,0,0,0,-1,1497,1023,0,0
280,1,0,0,0,0,0,0,0,0,0,-1,1504,1023,0,0
287,1,0,0,0,0,0,0,0,0,0,-1,1511,1023,0,0
294,1,0,0,0,0,0,0,0,0,0,-1,1518,1023,0,0
301,1,0,0,0,0,0,0,0,0,0,-1,1525,1023,0,0
308,1,0,0,0,0,0,0,0,0,0,-1,1532,1023,0,0
315,1,0,0,0,0,0,0,0,0,0,-1,1539,1023,0,0
322,1,0,0,0,0,0,0,0,0,0,-1,1546,1023,0,0
329,1,0,0,0,0,0,0,0,0,0,-1,1553,1023,0,0
336,1,0,0,0,0,0,0,0,0,0,-1,1560,1023,0,0
343,1,0,0,0,0,0,0,0,0,0,-1,1567,1023,0,0
350,1,0,0,0,0,0,0,0,0,0,-1,1574,1023,0,0
357,1,0,0,0,0,0,0,0,0,0,-1,1581,1023,0,0
364,1,0,0,0,0,0,0,0,0,0,-1,1588,1023,0,0
371,1,0,0,0,0,0,0,0,0,0,-1,1595,1023,0,0
378,1,0,0,0,0,0,0,0,0,0,-1,1602,1023,0,0
385,1,0,0,0,0,0,0,0,0,0,-1,1609,1023,0,0
392,1,0,0,0,0,0,0,0,0,0,-1,1616,1023,0,0
399,1,0,0,0,0,0,0,0,0,0,-1,1623,1023,0,0
406,1,0,0,0,0,0,0,0,0,0,-1,1630,1023,0,0
413,1,0,0,0,0,0,0,0,0,0,-1,1637,1023,0,0
420,1,0,0,0,0,0,0,0,0,0,-1,1644,1023,0,0
427,1,0,0,0,0,0,0,0,0,0,-1,1651,1023,0,0
434,1,0,0,0,0,0,0,0,0,0,-1,1658,1023,0,0
441,1,0,0,0,0,0,0,0,0,0,-1,1665,1023,0,0
448,1,0,0,0,0,0,0,0,0,0,-1,1672,1023,0,0
455,1,0,0,0,0,0,0,0,0,0,-1,1679,1023,0,0
462,1,0,0,0,0,0,0,0,0,0,-1,1686,1023,0,0
469,1,0,0,0,0,0,0,0,0,0,-1,1693,1023,0,0
476,1,0,0,0,0,0,0,0,0,0,-1,1700,1023,0,0
483,1,0,0,0,0,0,0,0,0,0,-1,1707,1023,0,0
490,1,0,0,0,0,0,0,0,0,0,-1,1714,1023,0,0
497,1,0,0,0,0,0,0,0,0,0,-1,1721,1023,0,0
504,1,0,0,0,0,0,0,0,0,0,-1,1728,1023,0,0
511,1,0,0,0,0,0,0,0,0,0,-1,1735,1023,0,0
518,1,0,0,0,0,0,0,0,0,0,-1,1742,1023,0,0
525,1,0,0,0,0,0,0,0,0,0,-1,1749,1023,0,0
532,1,0,0,0,0,0,0,0,0,0,-1,1756,1023,0,0
539,1,0,0,0,0,0,0,0,0,0,-1,1763,1023,0,0
546,1,0,0,0,0,0,0,0,0,0,-1,1770,1023,0,0
553,1,0,0,0,0,0,0,0,0,0,-1,1777,1023,0,0
560,1,0,0,0,0,0,0,0,0,0,-1,1784,1023,0,0
567,1,0,0,0,0,0,0,0,0,0,-1,1791,1023,0,0
574,1,0,0,0,0,0,0,0,0,0,-1,1798,1023,0,0
581,1,0,0,0,0,0,0,0,0,0,-1,1805,1023,0,0
588,1,0,0,0,0,0,0,0,0,0,-1,1812,1023,0,0
595,1,0,0,0,0,0,0,0,0,0,-1,1819,1023,0,0
602,1,0,0,0,0,0,0,0,0,0,-1,1826,1023,0,0
609,1,0,0,0,0,0,0,0,0,0,-1,1833,1023,0,0
616,1,0,0,0,0,0,0,0,0,0,-1,1840,1023,0,0
623,1,0,0,0,0,0,0,0,0,0,-1,1847,1023,0,0
630,1,0,0,0,0,0,0,0,0,0,-1,1854,1023,0,0
637,1,0,0,0,0,0,0,0,0,0,-1,1861,1023,0,0
644,1,0,0,0,0,0,0,0,0,0,-1,1868,1023,0,0
651,1,45.0116,2.82043,0.000487802,0.00207687,0.00067254,0.0023233,0.000241378,1.21958,0.001475,0.0415584,1875,1023,45.0116,-2.82044
658,1,45.0287,2.6283,-1.24229e-05,0.00151112,0.000116346,0.00151995,-2.12566e-05,1.49502,0.00102046,0.0416979,1882,1023,45.0287,-2.6283
665,1,44.9552,2.62671,-0.000241629,0.00106505,3.08641e-05,0.00106578,-0.000242358,1.54719,0.000803579,0.0414834,1889,1023,44.9552,-2.62674
672,1,45.0251,2.58368,-0.000323754,0.000769941,0.000318923,0.000856145,-0.000409958,1.30681,0.000745962,0.0400659,1896,1023,45.0251,-2.58367
679,1,45.1367,2.50836,-0.000275921,0.000549608,0.000970601,0.00119157,-0.000917879,0.986446,0.0012213,0.0410413,1903,1023,45.1367,-2.50836
686,1,45.139,2.43408,-0.000195056,0.000218132,0.00171713,0.00174105,-0.00171798,0.845267,0.00199709,0.0405671,1910,1023,45.139,-2.43408
693,1,45.092,2.55011,-5.40272e-05,-5.03821e-05,0.00238532,0.00233311,-0.00243752,0.78578,0.00275455,0.0350139,1917,1023,45.092,-2.5501
700,1,45.0588,2.66888,3.12315e-05,-0.000153034,0.00277975,0.00272037,-0.00284217,0.768832,0.00321179,0.0306639,1924,1023,45.0588,-2.66888
707,1,45.0135,2.664,-6.83509e-05,-9.56805e-05,0.00317025,0.00308826,-0.0032523,0.783243,0.00366113,0.0256356,1931,1023,45.0135,-2.66403
714,1,45.0204,2.58551,-0.00038253,0.000182496,0.00345069,0.00336222,-0.00356225,0.826243,0.0039984,0.0223389,1938,1023,45.0204,-2.58552
721,1,45.1233,2.48529,0,0,0,0,0,0,0,-1,1945,1023,45.1233,-2.48531
728,1,44.708,5.68658,0,0,0,0,0,0,0,-1,1952,1023,44.708,-5.68661
735,1,44.694,5.57617,-0.00240225,0.00258366,0.00277632,0.00382203,-0.00364063,1.15123,0.00430899,0.0374468,1959,1023,44.6939,-5.57616
742,1,44.8099,5.54358,-0.0037224,0.00369874,0.00154117,0.00400607,-0.00402973,1.37396,0.00463948,0.0449882,1966,1023,44.81,-5.5436
749,1,44.8475,5.60809,-0.00522267,0.00506842,-7.12416e-07,0.00506842,-0.00522267,-1.57073,0.00594179,0.0422865,1973,1023,44.8475,-5.60807
756,1,44.8667,5.63843,-0.00606358,0.00655632,-0.00240783,0.00700011,-0.00650738,-1.38853,0.00780028,0.0245685,1980,1023,44.8667,-5.63841
763,1,44.7821,5.5896,-0.00616572,0.00886242,-0.00577575,0.0108257,-0.00812902,-1.24313,0.0109804,0.0164011,1987,1023,44.7821,-5.5896
770,1,44.7505,5.58258,-0.00613089,0.0111613,-0.0101535,0.0158512,-0.0108208,-1.13809,0.0154901,0.0184668,1994,1023,44.7505,-5.58256
777,1,44.4927,5.53174,-0.00472424,0.0137211,-0.0156531,0.0226665,-0.0136696,-1.05162,0.0211919,0.0254054,2001,1023,44.4927,-5.53171
784,1,44.314,5.38293,-0.00165697,0.0163352,-0.0218111,0.0309326,-0.0162544,-0.980996,0.0276793,0.0453418,2008,1023,44.314,-5.38295
791,1,43.8621,4.77991,0.00393408,0.0190615,-0.0289987,0.0414667,-0.0184711,-0.91297,0.0354439,0.0454724,2015,1023,43.8621,-4.77993
798,1,43.6677,4.78979,0,0,0,0,0,0,0,-1,2022,1023,43.6678,-4.78978
805,1,43.4019,4.84882,0.0274546,0.0260198,-0.0471529,0.0738956,-0.0204212,-0.777792,0.057297,0.0496166,2029,1023,43.4018,-4.84879
812,1,43.1699,4.81158,0,0,0,0,0,0,0,-1,2036,1023,43.1699,-4.81156
-700,-6,0,0,0,0,0,0,0,0,0,-1,524,1030,0,0
-693,-6,-31.1585,1.73987,0.0569999,0.0565456,-0.0385973,0.0953708,0.0181748,-0.782455,0.0584715,0.0418985,531,1030,-31.1585,-1.73985
-686,-6,-32.0302,2.33911,0.0382147,0.0477822,-0.0305067,0.073878,0.0121189,-0.863169,0.0457505,0.0432044,538,1030,-32.0302,-2.33916
-679,-6,-32.947,2.9491,0.0241229,0.0404597,-0.0234753,0.0571471,0.00743549,-0.952825,0.0358773,0.0433358,545,1030,-32.947,-2.94915
-672,-6,-33.5922,2.88342,0.0145498,0.0344402,-0.0178399,0.0449197,0.00407033,-1.03968,0.0286861,0.0476181,552,1030,-33.5922,-2.88337
-665,-6,-33.6859,2.53931,0.00816783,0.0293117,-0.01337,0.0357845,0.00169505,-1.11993,0.0233118,0.0446235,559,1030,-33.6859,-2.53926
-658,-6,-33.7773,2.59595,0.00399853,0.0247643,-0.00982985,0.0286794,8.35042e-05,-1.19177,0.0190918,0.0382943,566,1030,-33.7774,-2.5959
-651,-6,-33.7574,2.41296,0.00136321,0.0205618,-0.00710938,0.0229078,-0.000982774,-1.25206,0.0156098,0.0394462,573,1030,-33.7574,-2.41298
-644,-6,-33.5834,3.05542,0,0,0,0,0,0,0,-1,580,1030,-33.5834,-3.05539
-637,-6,-33.7019,2.80115,-0.00239911,0.0130232,-0.00382423,0.0139194,-0.00329532,-1.3406,0.010551,0.0379878,587,1030,-33.7019,-2.80119
-630,-6,-33.8239,2.71216,-0.00339129,0.00860565,-0.00248465,0.00909987,-0.00388552,-1.37445,0.00769596,0.0213747,594,1030,-33.8239,-2.71218
-623,-6,-33.7825,2.7937,-0.00340168,0.0070495,-0.00240214,0.00757518,-0.00392735,-1.35536,0.00675139,0.0157393,601,1030,-33.7825,-2.79368
-616,-6,-33.8251,2.82581,-0.0016153,0.00472585,-0.00298034,0.00590671,-0.00279615,-1.19356,0.00513047,0.0176017,608,1030,-33.8251,-2.82582
-609,-6,-33.8141,2.89551,-0.000736432,0.00302669,-0.0035603,0.00517204,-0.00288178,-1.02849,0.00471213,0.0184997,615,1030,-33.8142,-2.89548
-602,-6,-33.7523,2.99414,-0.000272525,0.00145719,-0.00421354,0.00489371,-0.00370905,-0.88662,0.00498248,0.0136147,622,1030,-33.7523,-2.99418
-595,-6,-33.7024,3.07007,0,0,0,0,0,0,0,-1,629,1030,-33.7024,-3.07013
-588,-6,-33.5422,1.75928,0,0,0,0,0,0,0,-1,636,1030,-33.5422,-1.75932
-581,-6,-33.4616,0.568848,0,0,0,0,0,0,0,-1,643,1030,-33.4616,-0.568886
-574,-6,-33.4357,0.693726,0.00115416,-0.00163889,-0.00407548,0.00406575,-0.00455048,-0.620336,0.0049772,0.0307267,650,1030,-33.4357,-0.693751
-567,-6,-33.5172,0.705688,0.00109871,-0.0018221,-0.00359385,0.00351755,-0.00424094,-0.592408,0.00448585,0.0392827,657,1030,-33.5171,-0.705629
-560,-6,-33.627,1.03406,0.000957453,-0.00179421,-0.00287248,0.0027666,-0.00360335,-0.562057,0.00368825,0.0414766,664,1030,-33.627,-1.03406
-553,-6,-33.3637,0.817505,0.000690695,-0.00167662,-0.00197841,0.0018125,-0.00279843,-0.515819,0.00268233,0.0402068,671,1030,-33.3637,-0.81746
-546,-6,-33.2171,0.596558,0.000349854,-0.00168407,-0.000974572,0.000741438,-0.00207566,-0.382058,0.00168616,0.0442439,678,1030,-33.2171,-0.596502
-539,-6,-33.3472,0.78479,-3.0465e-05,-0.00170454,-0.000525662,0.000120907,-0.00185591,-0.280378,0.00127948,0.0442056,685,1030,-33.3472,-0.784803
-532,-6,-33.3381,0.716064,-0.000125154,-0.00127734,-0.000941922,0.000402882,-0.00180537,-0.510941,0.00135795,0.0420846,692,1030,-33.3381,-0.71603
-525,-6,0,0,0,0,0,0,0,0,0,-1,699,1030,0,0
-518,-6,0,0,0,0,0,0,0,0,0,-1,706,1030,0,0
-511,-6,0,0,0,0,0,0,0,0,0,-1,713,1030,0,0
-504,-6,0,0,0,0,0,0,0,0,0,-1,720,1030,0,0
-497,-6,0,0,0,0,0,0,0,0,0,-1,727,1030,0,0
-490,-6,0,0,0,0,0,0,0,0,0,-1,734,1030,0,0
-483,-6,0,0,0,0,0,0,0,0,0,-1,741,1030,0,0
-476,-6,0,0,0,0,0,0,0,0,0,-1,748,1030,0,0
-469,-6,0,0,0,0,0,0,0,0,0,-1,755,1030,0,0
-462,-6,0,0,0,0,0,0,0,0,0,-1,762,1030,0,0
-455,-6,0,0,0,0,0,0,0,0,0,-1,769,1030,0,0
-448,-6,0,0,0,0,0,0,0,0,0,-1,776,1030,0,0
-441,-6,0,0,0,0,0,0,0,0,0,-1,783,1030,0,0
-434,-6,0,0,0,0,0,0,0,0,0,-1,790,1030,0,0
-427,-6,0,0,0,0,0,0,0,0,0,-1,797,1030,0,0
-420,-6,0,0,0,0,0,0,0,0,0,-1,804,1030,0,0
-413,-6,0,0,0,0,0,0,0,0,0,-1,811,1030,0,0
-406,-6,0,0,0,0,0,0,0,0,0,-1,818,1030,0,0
-399,-6,0,0,0,0,0,0,0,0,0,-1,825,1030,0,0
-392,-6,0,0,0,0,0,0,0,0,0,-1,832,1030,0,0
-385,-6,0,0,0,0,0,0,0,0,0,-1,839,1030,0,0
-378,-6,0,0,0,0,0,0,0,0,0,-1,846,1030,0,0
-371,-6,0,0,0,0,0,0,0,0,0,-1,853,1030,0,0
-364,-6,0,0,0,0,0,0,0,0,0,-1,860,1030,0,0
-357,-6,0,0,0,0,0,0,0,0,0,-1,867,1030,0,0
-350,-6,0,0,0,0,0,0,0,0,0,-1,874,1030,0,0
-343,-6,0,0,0,0,0,0,0,0,0,-1,881,1030,0,0
-336,-6,0,0,0,0,0,0,0,0,0,-1,888,1030,0,0
-329,-6,0,0,0,0,0,0,0,0,0,-1,895,1030,0,0
-322,-6,0,0,0,0,0,0,0,0,0,-1,902,1030,0,0
-315,-6,0,0,0,0,0,0,0,0,0,-1,909,1030,0,0
-308,-6,0,0,0,0,0,0,0,0,0,-1,916,1030,0,0
-301,-6,0,0,0,0,0,0,0,0,0,-1,923,1030,0,0
-294,-6,0,0,0,0,0,0,0,0,0,-1,930,1030,0,0
-287,-6,0,0,0,0,0,0,0,0,0,-1,937,1030,0,0
-280,-6,0,0,0,0,0,0,0,0,0,-1,944,1030,0,0
-273,-6,0,0,0,0,0,0,0,0,0,-1,951,1030,0,0
-266,-6,0,0,0,0,0,0,0,0,0,-1,958,1030,0,0
-259,-6,0,0,0,0,0,0,0,0,0,-1,965,1030,0,0
-252,-6,0,0,0,0,0,0,0,0,0,-1,972,1030,0,0
-245,-6,0,0,0,0,0,0,0,0,0,-1,979,1030,0,0
-238,-6,0,0,0,0,0,0,0,0,0,-1,986,1030,0,0
-231,-6,0,0,0,0,0,0,0,0,0,-1,993,1030,0,0
-224,-6,0,0,0,0,0,0,0,0,0,-1,1000,1030,0,0
-217,-6,0,0,0,0,0,0,0,0,0,-1,1007,1030,0,0
-210,-6,0,0,0,0,0,0,0,0,0,-1,1014,1030,0,0
-203,-6,0,0,0,0,0,0,0,0,0,-1,1021,1030,0,0
-196,-6,0,0,0,0,0,0,0,0,0,-1,1028,1030,0,0
-189,-6,0,0,0,0,0,0,0,0,0,-1,1035,1030,0,0
-182,-6,0,0,0,0,0,0,0,0,0,-1,1042,1030,0,0
-175,-6,0,0,0,0,0,0,0,0,0,-1,1049,1030,0,0
-168,-6,0,0,0,0,0,0,0,0,0,-1,1056,1030,0,0
-161,-6,0,0,0,0,0,0,0,0,0,-1,1063,1030,0,0
-154,-6,0,0,0,0,0,0,0,0,0,-1,1070,1030,0,0
-147,-6,0,0,0,0,0,0,0,0,0,-1,1077,1030,0,0
-140,-6,0,0,0,0,0,0,0,0,0,-1,1084,1030,0,0
-133,-6,0,0,0,0,0,0,0,0,0,-1,1091,1030,0,0
-126,-6,0,0,0,0,0,0,0,0,0,-1,1098,1030,0,0
-119,-6,0,0,0,0,0,0,0,0,0,-1,1105,1030,0,0
-112,-6,0,0,0,0,0,0,0,0,0,-1,1112,1030,0,0
-105,-6,0,0,0,0,0,0,0,0,0,-1,1119,1030,0,0
-98,-6,0,0,0,0,0,0,0,0,0,-1,1126,1030,0,0
-91,-6,0,0,0,0,0,0,0,0,0,-1,1133,1030,0,0
-84,-6,0,0,0,0,0,0,0,0,0,-1,1140,1030,0,0
-77,-6,0,0,0,0,0,0,0,0,0,-1,1147,1030,0,0
-70,-6,0,0,0,0,0,0,0,0,0,-1,1154,1030,0,0
-63,-6,0,0,0,0,0,0,0,0,0,-1,1161,1030,0,0
-56,-6,0,0,0,0,0,0,0,0,0,-1,1168,1030,0,0
-49,-6,0,0,0,0,0,0,0,0,0,-1,1175,1030,0,0
-42,-6,0,0,0,0,0,0,0,0,0,-1,1182,1030,0,0
-35,-6,0,0,0,0,0,0,0,0,0,-1,1189,1030,0,0
-28,-6,0,0,0,0,0,0,0,0,0,-1,1196,1030,0,0
-21,-6,0,0,0,0,0,0,0,0,0,-1,1203,1030,0,0
-14,-6,0,0,0,0,0,0,0,0,0,-1,1210,1030,0,0
-7,-6,0,0,0,0,0,0,0,0,0,-1,1217,1030,0,0
0,-6,0,0,0,0,0,0,0,0,0,-1,1224,1030,0,0
7,-6,0,0,0,0,0,0,0,0,0,-1,1231,1030,0,0
14,-6,0,0,0,0,0,0,0,0,0,-1,1238,1030,0,0
21,-6,0,0,0,0,0,0,0,0,0,-1,1245,1030,0,0
28,-6,0,0,0,0,0,0,0,0,0,-1,1252,1030,0,0
35,-6,0,0,0,0,0,0,0,0,0,-1,1259,1030,0,0
42,-6,0,0,0,0,0,0,0,0,0,-1,1266,1030,0,0
49,-6,0,0,0,0,0,0,0,0,0,-1,1273,1030,0,0
56,-6,0,0,0,0,0,0,0,0,0,-1,1280,1030,0,0
63,-6,0,0,0,0,0,0,0,0,0,-1,1287,1030,0,0
70,-6,0,0,0,0,0,0,0,0,0,-1,1294,1030,0,0
77,-6,0,0,0,0,0,0,0,0,0,-1,1301,1030,0,0
84,-6,0,0,0,0,0,0,0,0,0,-1,1308,1030,0,0
91,-6,0,0,0,0,0,0,0,0,0,-1,1315,1030,0,0
98,-6,0,0,0,0,0,0,0,0,0,-1,1322,1030,0,0
105,-6,0,0,0,0,0,0,0,0,0,-1,1329,1030,0,0
112,-6,0,0,0,0,0,0,0,0,0,-1,1336,1030,0,0
119,-6,0,0,0,0,0,0,0,0,0,-1,1343,1030,0,0
126,-6,0,0,0,0,0,0,0,0,0,-1,1350,1030,0,0
133,-6,0,0,0,0,0,0,0,0,0,-1,1357,1030,0,0
140,-6,0,0,0,0,0,0,0,0,0,-1,1364,1030,0,0
147,-6,0,0,0,0,0,0,0,0,0,-1,1371,1030,0,0
154,-6,0,0,0,0,0,0,0,0,0,-1,1378,1030,0,0
161,-6,0,0,0,0,0,0,0,0,0,-1,1385,1030,0,0
168,-6,0,0,0,0,0,0,0,0,0,-1,1392,1030,0,0
175,-6,0,0,0,0,0,0,0,0,0,-1,1399,1030,0,0
182,-6,0,0,0,0,0,0,0,0,0,-1,1406,1030,0,0
189,-6,0,0,0,0,0,0,0,0,0,-1,1413,1030,0,0
196,-6,0,0,0,0,0,0,0,0,0,-1,1420,1030,0,0
203,-6,0,0,0,0,0,0,0,0,0,-1,1427,1030,0,0
210,-6,0,0,0,0,0,0,0,0,0,-1,1434,1030,0,0
217,-6,0,0,0,0,0,0,0,0,0,-1,1441,1030,0,0
224,-6,0,0,0,0,0,0,0,0,0,-1,1448,1030,0,0
231,-6,0,0,0,0,0,0,0,0,0,-1,1455,1030,0,0
238,-6,0,0,0,0,0,0,0,0,0,-1,1462,1030,0,0
245,-6,0,0,0,0,0,0,0,0,0,-1,1469,1030,0,0
252,-6,0,0,0,0,0,0,0,0,0,-1,1476,1030,0,0
259,-6,0,0,0,0,0,0,0,0,0,-1,1483,1030,0,0
266,-6,0,0,0,0,0,0,0,0,0,-1,1490,1030,0,0
273,-6,0,0,0,0,0,0,0,0,0,-1,1497,1030,0,0
280,-6,0,0,0,0,0,0,0,0,0,-1,1504,1030,0,0
287,-6,0,0,0,0,0,0,0,0,0,-1,1511,1030,0,0
294,-6,0,0,0,0,0,0,0,0,0,-1,1518,1030,0,0
301,-6,0,0,0,0,0,0,0,0,0,-1,1525,1030,0,0
308,-6,0,0,0,0,0,0,0,0,0,-1,1532,1030,0,0
315,-6,0,0,0,0,0,0,0,0,0,-1,1539,1030,0,0
322,-6,0,0,0,0,0,0,0,0,0,-1,1546,1030,0,0
329,-6,0,0,0,0,0,0,0,0,0,-1,1553,1030,0,0
336,-6,0,0,0,0,0,0,0,0,0,-1,1560,1030,0,0
343,-6,0,0,0,0,0,0,0,0,0,-1,1567,1030,0,0
350,-6,0,0,0,0,0,0,0,0,0,-1,1574,1030,0,0
357,-6,0,0,0,0,0,0,0,0,0,-1,1581,1030,0,0
364,-6,0,0,0,0,0,0,0,0,0,-1,1588,1030,0,0
371,-6,0,0,0,0,0,0,0,0,0,-1,1595,1030,0,0
378,-6,0,0,0,0,0,0,0,0,0,-1,1602,1030,0,0
385,-6,0,0,0,0,0,0,0,0,0,-1,1609,1030,0,0
392,-6,0,0,0,0,0,0,0,0,0,-1,1616,1030,0,0
399,-6,0,0,0,0,0,0,0,0,0,-1,1623,1030,0,0
406,-6,0,0,0,0,0,0,0,0,0,-1,1630,1030,0,0
413,-6,0,0,0,0,0,0,0,0,0,-1,1637,1030,0,0
420,-6,0,0,0,0,0,0,0,0,0,-1,1644,1030,0,0
427,-6,0,0,0,0,0,0,0,0,0,-1,1651,1030,0,0
434,-6,0,0,0,0,0,0,0,0,0,-1,1658,1030,0,0
441,-6,0,0,0,0,0,0,0,0,0,-1,1665,1030,0,0
448,-6,0,0,0,0,0,0,0,0,0,-1,1672,1030,0,0
455,-6,0,0,0,0,0,0,0,0,0,-1,1679,1030,0,0
462,-6,0,0,0,0,0,0,0,0,0,-1,1686,1030,0,0
469,-6,0,0,0,0,0,0,0,0,0,-1,1693,1030,0,0
476,-6,0,0,0,0,0,0,0,0,0,-1,1700,1030,0,0
483,-6,0,0,0,0,0,0,0,0,0,-1,1707,1030,0,0
490,-6,0,0,0,0,0,0,0,0,0,-1,1714,1030,0,0
497,-6,0,0,0,0,0,0,0,0,0,-1,1721,1030,0,0
504,-6,0,0,0,0,0,0,0,0,0,-1,1728,1030,0,0
511,-6,0,0,0,0,0,0,0,0,0,-1,1735,1030,0,0
518,-6,0,0,0,0,0,0,0,0,0,-1,1742,1030,0,0
525,-6,0,0,0,0,0,0,0,0,0,-1,1749,1030,0,0
532,-6,0,0,0,0,0,0,0,0,0,-1,1756,1030,0,0
539,-6,0,0,0,0,0,0,0,0,0,-1,1763,1030,0,0
546,-6,0,0,0,0,0,0,0,0,0,-1,1770,1030,0,0
553,-6,0,0,0,0,0,0,0,0,0,-1,1777,1030,0,0
560,-6,0,0,0,0,0,0,0,0,0,-1,1784,1030,0,0
567,-6,0,0,0,0,0,0,0,0,0,-1,1791,1030,0,0
574,-6,0,0,0,0,0,0,0,0,0,-1,1798,1030,0,0
581,-6,0,0,0,0,0,0,0,0,0,-1,1805,1030,0,0
588,-6,0,0,0,0,0,0,0,0,0,-1,1812,1030,0,0
595,-6,0,0,0,0,0,0,0,0,0,-1,1819,1030,0,0
602,-6,0,0,0,0,0,0,0,0,0,-1,1826,1030,0,0
609,-6,0,0,0,0,0,0,0,0,0,-1,1833,1030,0,0
616,-6,0,0,0,0,0,0,0,0,0,-1,1840,1030,0,0
623,-6,0,0,0,0,0,0,0,0,0,-1,1847,1030,0,0
630,-6,0,0,0,0,0,0,0,0,0,-1,1854,1030,0,0
637,-6,0,0,0,0,0,0,0,0,0,-1,1861,1030,0,0
644,-6,0,0,0,0,0,0,0,0,0,-1,1868,1030,0,0
651,-6,45.1702,2.78845,0.000594962,0.00185243,0.000178912,0.00187739,0.000570002,1.43218,0.00111143,0.0395347,1875,1030,45.1701,-2.78846
658,-6,45.1626,2.40076,-7.09993e-05,0.00126035,-0.00012714,0.00127239,-8.30319e-05,-1.47644,0.000877246,0.0425161,1882,1030,45.1626,-2.40075
665,-6,45.106,2.45129,-0.000368195,0.000786648,-9.97479e-05,0.0007952,-0.000376747,-1.48527,0.000690852,0.043431,1889,1030,45.106,-2.45135
672,-6,45.101,2.62439,-0.000463252,0.00047508,0.000241852,0.000533748,-0.000521921,1.33281,0.000609503,0.0400182,1896,1030,45.1009,-2.62441
679,-6,45.0337,2.60657,-0.000399082,0.000243183,0.000872134,0.000851429,-0.00100733,0.961802,0.00107441,0.040652,1903,1030,45.0338,-2.60652
686,-6,44.9249,2.61243,-0.000326791,-8.87802e-05,0.001568,0.00136473,-0.0017803,0.823274,0.00182106,0.0387874,1910,1030,44.925,-2.61244
693,-6,45.0186,2.6554,-0.000187078,-0.000358117,0.00219398,0.00192305,-0.00246824,0.765918,0.00254181,0.0359396,1917,1030,45.0186,-2.6554
700,-6,45.0631,2.71802,-9.1008e-05,-0.000457064,0.00258626,0.00231869,-0.00286676,0.750072,0.00299939,0.0309338,1924,1030,45.0632,-2.71806
707,-6,45.0142,2.65845,-0.000196843,-0.000406163,0.00296397,0.00266432,-0.00326732,0.76775,0.00343053,0.0268966,1931,1030,45.0142,-2.65846
714,-6,44.9972,2.59607,-0.000512302,-0.00012635,0.0032388,0.00292522,-0.00356387,0.815154,0.00375252,0.0296461,1938,1030,44.9972,-2.59608
721,-6,45.0886,2.57068,0,0,0,0,0,0,0,-1,1945,1030,45.0886,-2.57064
728,-6,44.6758,5.60645,0,0,0,0,0,0,0,-1,1952,1030,44.6757,-5.60641
735,-6,44.7233,5.52551,-0.00249948,0.00223396,0.00270768,0.00346348,-0.00372899,1.14455,0.00415352,0.0350117,1959,1030,44.7233,-5.52557
742,-6,44.8259,5.52246,-0.00374235,0.00342155,0.00154938,0.00374228,-0.00406308,1.36667,0.0045077,0.034276,1966,1030,44.8259,-5.52251
749,-6,44.8027,5.64319,-0.00514609,0.00512251,0.000138728,0.00512439,-0.00514797,1.55729,0.00593075,0.0279284,1973,1030,44.8027,-5.64324
756,-6,44.8392,5.52698,-0.00599454,0.00708802,-0.00217895,0.00744139,-0.00634791,-1.41002,0.00796959,0.0204045,1980,1030,44.8393,-5.527
763,-6,44.7336,5.4613,-0.00620971,0.0101942,-0.00539524,0.0118096,-0.00782512,-1.27988,0.0114137,0.0180882,1987,1030,44.7336,-5.46132
770,-6,44.6663,5.4292,-0.00628015,0.0135811,-0.00972209,0.0175478,-0.0102469,-1.1834,0.0162308,0.0158866,1994,1030,44.6662,-5.42915
777,-6,44.5951,5.41235,-0.00510334,0.0177681,-0.015256,0.0253986,-0.0127339,-1.10702,0.0224169,0.0174305,2001,1030,44.5951,-5.41239
784,-6,44.5823,5.36682,-0.0024455,0.0223313,-0.0214676,0.0347286,-0.0148427,-1.04709,0.0293776,0.0419721,2008,1030,44.5822,-5.36686
791,-6,44.3887,5.20227,0.00243147,0.0274716,-0.0287286,0.0462897,-0.0163867,-0.990891,0.037534,0.0490018,2015,1030,44.3886,-5.20227
798,-6,44.1399,5.26196,0,0,0,0,0,0,0,-1,2022,1030,44.1399,-5.26196
805,-6,43.8652,5.31262,0,0,0,0,0,0,0,-1,2029,1030,43.8652,-5.31265
812,-6,43.6025,5.36023,0,0,0,0,0,0,0,-1,2036,1030,43.6025,-5.36018
-700,-13,0,0,0,0,0,0,0,0,0,-1,524,1037,0,0
-693,-13,-31.3872,1.35461,0,0,0,0,0,0,0,-1,531,1037,-31.3872,-1.35455
-686,-13,-33.4086,2.60388,0,0,0,0,0,0,0,-1,538,1037,-33.4086,-2.60383
-679,-13,-33.4317,2.77588,0.0567223,0.048822,-0.0328186,0.0858276,0.0197166,-0.725505,0.0519097,0.0480169,545,1037,-33.4317,-2.77586
-672,-13,-33.6415,2.62329,0.0401693,0.0408117,-0.0245808,0.0650733,0.0159076,-0.791932,0.0391716,0.0483738,552,1037,-33.6415,-2.62326
-665,-13,-33.5661,2.47095,0.0276345,0.0339661,-0.0180483,0.0491241,0.0124765,-0.872219,0.029484,0.0442251,559,1037,-33.5661,-2.47095
-658,-13,-33.448,2.42896,0.0183215,0.0280215,-0.0129564,0.0370059,0.00933711,-0.964491,0.022222,0.0443597,566,1037,-33.448,-2.42898
-651,-13,-33.5149,2.30273,0.0115631,0.022734,-0.00911922,0.0278423,0.00645472,-1.06018,0.0168278,0.0386466,573,1037,-33.5149,-2.30272
-644,-13,-33.4929,2.49182,0.0054076,0.0184647,-0.00620844,0.0209454,0.00292689,-1.19066,0.0130974,0.0297968,580,1037,-33.4929,-2.49177
-637,-13,-33.5673,2.62793,0.00125485,0.0132564,-0.00399461,0.0144644,4.68707e-05,-1.27714,0.00962736,0.0251707,587,1037,-33.5673,-2.62798
-630,-13,-33.6691,2.61499,-0.00173047,0.00813407,-0.00217966,0.00859422,-0.00219063,-1.36274,0.00658234,0.015573,594,1037,-33.6691,-2.61502
-623,-13,-33.6666,2.72754,-0.00286956,0.00678195,-0.00198233,0.00717324,-0.00326085,-1.37591,0.00616367,0.0123587,601,1037,-33.6666,-2.7275
-616,-13,-33.666,2.85217,-0.00146732,0.00429665,-0.00247677,0.00521469,-0.00238536,-1.21583,0.0044881,0.0119281,608,1037,-33.666,-2.85221
-609,-13,-33.6453,2.91821,-0.000724819,0.00252049,-0.00298413,0.0042946,-0.00249893,-1.03442,0.00396766,0.0176198,615,1037,-33.6453,-2.91827
-602,-13,-33.6396,3.03015,-0.000358506,0.000869965,-0.00358644,0.00389439,-0.00338293,-0.870208,0.00420502,0.0130585,622,1037,-33.6396,-3.03018
-595,-13,-33.6611,3.13342,0,0,0,0,0,0,0,-1,629,1037,-33.6612,-3.1334
-588,-13,-33.4077,1.54761,0,0,0,0,0,0,0,-1,636,1037,-33.4077,-1.54766
-581,-13,-33.4346,0.715942,0.000743101,-0.00172242,-0.003528,0.00324751,-0.00422684,-0.617318,0.00432765,0.023629,643,1037,-33.4346,-0.715982
-574,-13,-33.497,0.866699,0.000853243,-0.00218527,-0.0033054,0.00297182,-0.00430385,-0.569983,0.00422401,0.0338034,650,1037,-33.497,-0.866654
-567,-13,-33.553,0.961914,0.0007956,-0.00234967,-0.00289827,0.00252041,-0.00407448,-0.536822,0.00384264,0.0404258,657,1037,-33.553,-0.961949
-560,-13,-33.4683,0.877319,0.000640648,-0.00227564,-0.0023088,0.00191321,-0.00354819,-0.503747,0.00319989,0.0438885,664,1037,-33.4682,-0.877361
-553,-13,-33.2963,0.583252,0.000345806,-0.00206911,-0.00159875,0.00114184,-0.00286514,-0.461972,0.00238368,0.0434863,671,1037,-33.2963,-0.583285
-546,-13,-33.4123,0.722046,-6.69513e-05,-0.00191624,-0.000812962,0.000239613,-0.0022228,-0.360607,0.00156785,0.0416603,678,1037,-33.4123,-0.722074
-539,-13,-33.4844,0.991699,-0.000645919,-0.00176609,-0.000549091,-0.00042166,-0.00199035,-0.387743,0.00121107,0.0421846,685,1037,-33.4844,-0.9917
-532,-13,-33.3315,0.837036,-0.00109475,-0.00117702,-0.000818063,-0.000316787,-0.00195498,-0.760279,0.00121161,0.0415568,692,1037,-33.3316,-0.837012
-525,-13,0,0,0,0,0,0,0,0,0,-1,699,1037,0,0
-518,-13,0,0,0,0,0,0,0,0,0,-1,706,1037,0,0
-511,-13,0,0,0,0,0,0,0,0,0,-1,713,1037,0,0
-504,-13,0,0,0,0,0,0,0,0,0,-1,720,1037,0,0
-497,-13,0,0,0,0,0,0,0,0,0,-1,727,1037,0,0
-490,-13,0,0,0,0,0,0,0,0,0,-1,734,1037,0,0
-483,-13,0,0,0,0,0,0,0,0,0,-1,741,1037,0,0
-476,-13,0,0,0,0,0,0,0,0,0,-1,748,1037,0,0
-469,-13,0,0,0,0,0,0,0,0,0,-1,755,1037,0,0
-462,-13,0,0,0,0,0,0,0,0,0,-1,762,1037,0,0
-455,-13,0,0,0,0,0,0,0,0,0,-1,769,1037,0,0
-448,-13,0,0,0,0,0,0,0,0,0,-1,776,1037,0,0
-441,-13,0,0,0,0,0,0,0,0,0,-1,783,1037,0,0
-434,-13,0,0,0,0,0,0,0,0,0,-1,790,1037,0,0
-427,-13,0,0,0,0,0,0,0,0,0,-1,797,1037,0,0
-420,-13,0,0,0,0,0,0,0,0,0,-1,804,1037,0,0
-413,-13,0,0,0,0,0,0,0,0,0,-1,811,1037,0,0
-406,-13,0,0,0,0,0,0,0,0,0,-1,818,1037,0,0
-399,-13,0,0,0,0,0,0,0,0,0,-1,825,1037,0,0
-392,-13,0,0,0,0,0,0,0,0,0,-1,832,1037,0,0
-385,-13,0,0,0,0,0,0,0,0,0,-1,839,1037,0,0
-378,-13,0,0,0,0,0,0,0,0,0,-1,846,1037,0,0
-371,-13,0,0,0,0,0,0,0,0,0,-1,853,1037,0,0
-364,-13,0,0,0,0,0,0,0,0,0,-1,860,1037,0,0
-357,-13,0,0,0,0,0,0,0,0,0,-1,867,1037,0,0
-350,-13,0,0,0,0,0,0,0,0,0,-1,874,1037,0,0
-343,-13,0,0,0,0,0,0,0,0,0,-1,881,1037,0,0
-336,-13,0,0,0,0,0,0,0,0,0,-1,888,1037,0,0
-329,-13,0,0,0,0,0,0,0,0,0,-1,895,1037,0,0
-322,-13,0,0,0,0,0,0,0,0,0,-1,902,1037,0,0
-315,-13,0,0,0,0,0,0,0,0,0,-1,909,1037,0,0
-308,-13,0,0,0,0,0,0,0,0,0,-1,916,1037,0,0
-301,-13,0,0,0,0,0,0,0,0,0,-1,923,1037,0,0
-294,-13,0,0,0,0,0,0,0,0,0,-1,930,1037,0,0
-287,-13,0,0,0,0,0,0,0,0,0,-1,937,1037,0,0
-280,-13,0,0,0,0,0,0,0,0,0,-1,944,1037,0,0
-273,-13,0,0,0,0,0,0,0,0,0,-1,951,1037,0,0
-266,-13,0,0,0,0,0,0,0,0,0,-1,958,1037,0,0
-259,-13,0,0,0,0,0,0,0,0,0,-1,965,1037,0,0
-252,-13,0,0,0,0,0,0,0,0,0,-1,972,1037,0,0
-245,-13,0,0,0,0,0,0,0,0,0,-1,979,1037,0,0
-238,-13,0,0,0,0,0,0,0,0,0,-1,986,1037,0,0
-231,-13,0,0,0,0,0,0,0,0,0,-1,993,1037,0,0
-224,-13,0,0,0,0,0,0,0,0,0,-1,1000,1037,0,0
-217,-13,0,0,0,0,0,0,0,0,0,-1,1007,1037,0,0
-210,-13,0,0,0,0,0,0,0,0,0,-1,1014,1037,0,0
-203,-13,0,0,0,0,0,0,0,0,0,-1,1021,1037,0,0
-196,-13,0,0,0,0,0,0,0,0,0,-1,1028,1037,0,0
-189,-13,0,0,0,0,0,0,0,0,0,-1,1035,1037,0,0
-182,-13,0,0,0,0,0,0,0,0,0,-1,1042,1037,0,0
-175,-13,0,0,0,0,0,0,0,0,0,-1,1049,1037,0,0
-168,-13,0,0,0,0,0,0,0,0,0,-1,1056,1037,0,0
-161,-13,0,0,0,0,0,0,0,0,0,-1,1063,1037,0,0
-154,-13,0,0,0,0,0,0,0,0,0,-1,1070,1037,0,0
-147,-13,0,0,0,0,0,0,0,0,0,-1,1077,1037,0,0
-140,-13,0,0,0,0,0,0,0,0,0,-1,1084,1037,0,0
-133,-13,0,0,0,0,0,0,0,0,0,-1,1091,1037,0,0
-126,-13,0,0,0,0,0,0,0,0,0,-1,1098,1037,0,0
-119,-13,0,0,0,0,0,0,0,0,0,-1,1105,1037,0,0
-112,-13,0,0,0,0,0,0,0,0,0,-1,1112,1037,0,0
-105,-13,0,0,0,0,0,0,0,0,0,-1,1119,1037,0,0
-98,-13,0,0,0,0,0,0,0,0,0,-1,1126,1037,0,0
-91,-13,0,0,0,0,0,0,0,0,0,-1,1133,1037,0,0
-84,-13,0,0,0,0,0,0,0,0,0,-1,1140,1037,0,0
-77,-13,0,0,0,0,0,0,0,0,0,-1,1147,1037,0,0
-70,-13,0,0,0,0,0,0,0,0,0,-1,1154,1037,0,0
-63,-13,0,0,0,0,0,0,0,0,0,-1,1161,1037,0,0
-56,-13,0,0,0,0,0,0,0,0,0,-1,1168,1037,0,0
-49,-13,0,0,0,0,0,0,0,0,0,-1,1175,1037,0,0
-42,-13,0,0,0,0,0,0,0,0,0,-1,1182,1037,0,0
-35,-13,0,0,0,0,0,0,0,0,0,-1,1189,1037,0,0
-28,-13,0,0,0,0,0,0,0,0,0,-1,1196,1037,0,0
-21,-13,0,0,0,0,0,0,0,0,0,-1,1203,1037,0,0
-14,-13,0,0,0,0,0,0,0,0,0,-1,1210,1037,0,0
-7,-13,0,0,0,0,0,0,0,0,0,-1,1217,1037,0,0
0,-13,0,0,0,0,0,0,0,0,0,-1,1224,1037,0,0
7,-13,0,0,0,0,0,0,0,0,0,-1,1231,1037,0,0
14,-13,0,0,0,0,0,0,0,0,0,-1,1238,1037,0,0
21,-13,0,0,0,0,0,0,0,0,0,-1,1245,1037,0,0
28,-13,0,0,0,0,0,0,0,0,0,-1,1252,1037,0,0
35,-13,0,0,0,0,0,0,0,0,0,-1,1259,1037,0,0
42,-13,0,0,0,0,0,0,0,0,0,-1,1266,1037,0,0
49,-13,0,0,0,0,0,0,0,0,0,-1,1273,1037,0,0
56,-13,0,0,0,0,0,0,0,0,0,-1,1280,1037,0,0
63,-13,0,0,0,0,0,0,0,0,0,-1,1287,1037,0,0
70,-13,0,0,0,0,0,0,0,0,0,-1,1294,1037,0,0
77,-13,0,0,0,0,0,0,0,0,0,-1,1301,1037,0,0
84,-13,0,0,0,0,0,0,0,0,0,-1,1308,1037,0,0
91,-13,0,0,0,0,0,0,0,0,0,-1,1315,1037,0,0
98,-13,0,0,0,0,0,0,0,0,0,-1,1322,1037,0,0
105,-13,0,0,0,0,0,0,0,0,0,-1,1329,1037,0,0
112,-13,0,0,0,0,0,0,0,0,0,-1,1336,1037,0,0
119,-13,0,0,0,0,0,0,0,0,0,-1,1343,1037,0,0
126,-13,0,0,0,0,0,0,0,0,0,-1,1350,1037,0,0
133,-13,0,0,0,0,0,0,0,0,0,-1,1357,1037,0,0
140,-13,0,0,0,0,0,0,0,0,0,-1,1364,1037,0,0
147,-13,0,0,0,0,0,0,0,0,0,-1,1371,1037,0,0
154,-13,0,0,0,0,0,0,0,0,0,-1,1378,1037,0,0
161,-13,0,0,0,0,0,0,0,0,0,-1,1385,1037,0,0
168,-13,0,0,0,0,0,0,0,0,0,-1,1392,1037,0,0
175,-13,0,0,0,0,0,0,0,0,0,-1,1399,1037,0,0
182,-13,0,0,0,0,0,0,0,0,0,-1,1406,1037,0,0
189,-13,0,0,0,0,0,0,0,0,0,-1,1413,1037,0,0
196,-13,0,0,0,0,0,0,0,0,0,-1,1420,1037,0,0
203,-13,0,0,0,0,0,0,0,0,0,-1,1427,1037,0,0
210,-13,0,0,0,0,0,0,0,0,0,-1,1434,1037,0,0
217,-13,0,0,0,0,0,0,0,0,0,-1,1441,1037,0,0
224,-13,0,0,0,0,0,0,0,0,0,-1,1448,1037,0,0
231,-13,0,0,0,0,0,0,0,0,0,-1,1455,1037,0,0
238,-13,0,0,0,0,0,0,0,0,0,-1,1462,1037,0,0
245,-13,0,0,0,0,0,0,0,0,0,-1,1469,1037,0,0
252,-13,0,0,0,0,0,0,0,0,0,-1,1476,1037,0,0
259,-13,0,0,0,0,0,0,0,0,0,-1,1483,1037,0,0
266,-13,0,0,0,0,0,0,0,0,0,-1,1490,1037,0,0
273,-13,0,0,0,0,0,0,0,0,0,-1,1497,1037,0,0
280,-13,0,0,0,0,0,0,0,0,0,-1,1504,1037,0,0
287,-13,0,0,0,0,0,0,0,0,0,-1,1511,1037,0,0
294,-13,0,0,0,0,0,0,0,0,0,-1,1518,1037,0,0
301,-13,0,0,0,0,0,0,0,0,0,-1,1525,1037,0,0
308,-13,0,0,0,0,0,0,0,0,0,-1,1532,1037,0,0
315,-13,0,0,0,0,0,0,0,0,0,-1,1539,1037,0,0
322,-13,0,0,0,0,0,0,0,0,0,-1,1546,1037,0,0
329,-13,0,0,0,0,0,0,0,0,0,-1,1553,1037,0,0
336,-13,0,0,0,0,0,0,0,0,0,-1,1560,1037,0,0
343,-13,0,0,0,0,0,0,0,0,0,-1,1567,1037,0,0
350,-13,0,0,0,0,0,0,0,0,0,-1,1574,1037,0,0
357,-13,0,0,0,0,0,0,0,0,0,-1,1581,1037,0,0
364,-13,0,0,0,0,0,0,0,0,0,-1,1588,1037,0,0
371,-13,0,0,0,0,0,0,0,0,0,-1,1595,1037,0,0
378,-13,0,0,0,0,0,0,0,0,0,-1,1602,1037,0,0
385,-13,0,0,0,0,0,0,0,0,0,-1,1609,1037,0,0
392,-13,0,0,0,0,0,0,0,0,0,-1,1616,1037,0,0
399,-13,0,0,0,0,0,0,0,0,0,-1,1623,1037,0,0
406,-13,0,0,0,0,0,0,0,0,0,-1,1630,1037,0,0
413,-13,0,0,0,0,0,0,0,0,0,-1,1637,1037,0,0
420,-13,0,0,0,0,0,0,0,0,0,-1,1644,1037,0,0
427,-13,0,0,0,0,0,0,0,0,0,-1,1651,1037,0,0
434,-13,0,0,0,0,0,0,0,0,0,-1,1658,1037,0,0
441,-13,0,0,0,0,0,0,0,0,0,-1,1665,1037,0,0
448,-13,0,0,0,0,0,0,0,0,0,-1,1672,1037,0,0
455,-13,0,0,0,0,0,0,0,0,0,-1,1679,1037,0,0
462,-13,0,0,0,0,0,0,0,0,0,-1,1686,1037,0,0
469,-13,0,0,0,0,0,0,0,0,0,-1,1693,1037,0,0
476,-13,0,0,0,0,0,0,0,0,0,-1,1700,1037,0,0
483,-13,0,0,0,0,0,0,0,0,0,-1,1707,1037,0,0
490,-13,0,0,0,0,0,0,0,0,0,-1,1714,1037,0,0
497,-13,0,0,0,0,0,0,0,0,0,-1,1721,1037,0,0
504,-13,0,0,0,0,0,0,0,0,0,-1,1728,1037,0,0
511,-13,0,0,0,0,0,0,0,0,0,-1,1735,1037,0,0
518,-13,0,0,0,0,0,0,0,0,0,-1,1742,1037,0,0
525,-13,0,0,0,0,0,0,0,0,0,-1,1749,1037,0,0
532,-13,0,0,0,0,0,0,0,0,0,-1,1756,1037,0,0
539,-13,0,0,0,0,0,0,0,0,0,-1,1763,1037,0,0
546,-13,0,0,0,0,0,0,0,0,0,-1,1770,1037,0,0
553,-13,0,0,0,0,0,0,0,0,0,-1,1777,1037,0,0
560,-13,0,0,0,0,0,0,0,0,0,-1,1784,1037,0,0
567,-13,0,0,0,0,0,0,0,0,0,-1,1791,1037,0,0
574,-13,0,0,0,0,0,0,0,0,0,-1,1798,1037,0,0
581,-13,0,0,0,0,0,0,0,0,0,-1,1805,1037,0,0
588,-13,0,0,0,0,0,0,0,0,0,-1,1812,1037,0,0
595,-13,0,0,0,0,0,0,0,0,0,-1,1819,1037,0,0
602,-13,0,0,0,0,0,0,0,0,0,-1,1826,1037,0,0
609,-13,0,0,0,0,0,0,0,0,0,-1,1833,1037,0,0
616,-13,0,0,0,0,0,0,0,0,0,-1,1840,1037,0,0
623,-13,0,0,0,0,0,0,0,0,0,-1,1847,1037,0,0
630,-13,0,0,0,0,0,0,0,0,0,-1,1854,1037,0,0
637,-13,0,0,0,0,0,0,0,0,0,-1,1861,1037,0,0
644,-13,0,0,0,0,0,0,0,0,0,-1,1868,1037,0,0
651,-13,45.2122,2.63318,0.000580025,0.0021255,-0.00016928,0.00214383,0.000561701,-1.46297,0.00128362,0.0399411,1875,1037,45.2122,-2.63315
658,-13,45.1469,2.28125,-0.000213933,0.00153005,-0.000229166,0.00155966,-0.000243544,-1.4423,0.00112974,0.0454909,1882,1037,45.1468,-2.28131
665,-13,45.1189,2.44592,-0.000543953,0.00103922,-9.76677e-05,0.00104522,-0.000549956,-1.50942,0.000935654,0.0440744,1889,1037,45.1189,-2.44591
672,-13,45.1322,2.52087,-0.000618461,0.000706592,0.000282952,0.000764485,-0.000676354,1.36898,0.000832387,0.0355435,1896,1037,45.1322,-2.52089
679,-13,45.0029,2.63049,-0.000501382,0.000450704,0.000871439,0.000967648,-0.00101833,1.03539,0.00114673,0.0371414,1903,1037,45.003,-2.63043
686,-13,44.8722,2.68091,-0.000412991,8.87946e-05,0.00149394,0.00135276,-0.00167696,0.868592,0.00175255,0.0417033,1910,1037,44.8721,-2.68089
693,-13,44.85,2.78259,-0.000268743,-0.000225743,0.00205417,0.00180704,-0.00230153,0.790631,0.00237781,0.0402772,1917,1037,44.8499,-2.78255
700,-13,44.9528,2.72961,-0.000163947,-0.000367145,0.00243267,0.00216925,-0.00270034,0.764528,0.00281703,0.0360481,1924,1037,44.9528,-2.72956
707,-13,45.0182,2.60315,-0.000286993,-0.000363699,0.00278707,0.00246199,-0.00311268,0.778518,0.00322584,0.0301415,1931,1037,45.0182,-2.60316
714,-13,44.9999,2.77991,-0.000603917,-0.000127082,0.00304253,0.00268636,-0.00341736,0.824499,0.0035324,0.0258472,1938,1037,44.9999,-2.77987
721,-13,44.9496,3.06921,0,0,0,0,0,0,0,-1,1945,1037,44.9496,-3.06927
728,-13,44.8247,5.69312,0,0,0,0,0,0,0,-1,1952,1037,44.8247,-5.69306
735,-13,44.766,5.6637,-0.00256049,0.00201203,0.00262403,0.00320608,-0.00375454,1.14376,0.00402287,0.0257154,1959,1037,44.7659,-5.6637
742,-13,44.7389,5.6156,-0.00367822,0.0032325,0.00149958,0.00354387,-0.00398959,1.36607,0.00435198,0.0168419,1966,1037,44.7388,-5.61561
749,-13,44.7635,5.56946,-0.00489721,0.00519363,0.000158629,0.00519612,-0.0048997,1.55508,0.00582966,0.0230628,1973,1037,44.7636,-5.56943
756,-13,44.749,5.50623,-0.00567607,0.00757466,-0.00210408,0.00790074,-0.00600215,-1.41704,0.00805175,0.0164932,1980,1037,44.749,-5.5062
763,-13,44.7148,5.42627,-0.00597128,0.0113565,-0.0052687,0.0128327,-0.00744752,-1.29761,0.0118456,0.0221288,1987,1037,44.7149,-5.42624
770,-13,44.6343,5.38403,-0.00607629,0.0157493,-0.00965031,0.0194042,-0.00973118,-1.20876,0.0171276,0.0193507,1994,1037,44.6343,-5.384
777,-13,44.5341,5.2876,-0.00508962,0.0214929,-0.0153686,0.0285204,-0.0121171,-1.14192,0.0240907,0.0146228,2001,1037,44.534,-5.28755
784,-13,44.571,5.22864,-0.00288772,0.0279126,-0.0218291,0.0392272,-0.0142023,-1.0926,0.0319555,0.0328418,2008,1037,44.5711,-5.22861
791,-13,44.5564,5.20581,0.0010954,0.0353515,-0.0294359,0.0522799,-0.015833,-1.04889,0.0411589,0.0476523,2015,1037,44.5564,-5.20577
798,-13,44.501,5.1759,0,0,0,0,0,0,0,-1,2022,1037,44.5011,-5.17591
805,-13,44.3298,5.76953,0,0,0,0,0,0,0,-1,2029,1037,44.3299,-5.76952
812,-13,43.1555,4.44434,0,0,0,0,0,0,0,-1,2036,1037,43.1555,-4.44432
-700,-20,-34.6952,2.62915,0,0,0,0,0,0,0,-1,524,1044,-34.6952,-2.6292
-693,-20,-34.3659,2.75977,0.158752,0.0852327,-0.0773029,0.20759,0.0363943,-0.56346,0.127998,0.0457214,531,1044,-34.3659,-2.75976
-686,-20,-34.091,2.69995,0.1236,0.0720178,-0.0603611,0.163449,0.0321686,-0.583498,0.0999834,0.0427575,538,1044,-34.091,-2.69997
-679,-20,-33.703,2.68848,0.0933172,0.0598196,-0.045808,0.125342,0.0277945,-0.610132,0.07601,0.0445923,545,1044,-33.703,-2.68853
-672,-20,-33.537,2.37073,0.0686519,0.0492014,-0.0339187,0.094212,0.0236413,-0.645783,0.0565981,0.0493918,552,1044,-33.537,-2.37067
-665,-20,-33.2596,2.21997,0.049025,0.0400806,-0.0244739,0.0694319,0.0196736,-0.695028,0.0413218,0.0460601,559,1044,-33.2596,-2.21997
-658,-20,-33.292,2.37891,0.0338166,0.0322713,-0.0171779,0.0502392,0.0158487,-0.762924,0.0296568,0.0449015,566,1044,-33.292,-2.37887
-651,-20,-33.3443,2.3092,0.0223798,0.0255431,-0.0117523,0.0358197,0.0121032,-0.852287,0.0210397,0.0392331,573,1044,-33.3443,-2.30924
-644,-20,-33.3703,2.29602,0.0122555,0.0202952,-0.00764691,0.0249145,0.00763622,-1.02739,0.0147391,0.026524,580,1044,-33.3703,-2.296
-637,-20,-33.4323,2.40051,0.00487189,0.0135896,-0.00419764,0.0152822,0.00317932,-1.18752,0.00931109,0.0190997,587,1044,-33.4323,-2.40054
-630,-20,-33.4963,2.56189,-0.000155578,0.00784047,-0.00176628,0.00821325,-0.000528361,-1.36279,0.00565985,0.0155844,594,1044,-33.4963,-2.56194
-623,-20,-33.539,2.72717,-0.00237117,0.00665743,-0.00146687,0.00688977,-0.00260351,-1.41371,0.00566411,0.0133729,601,1044,-33.539,-2.72714
-616,-20,-33.5374,2.85693,-0.00133108,0.00402162,-0.00192139,0.0046399,-0.00194936,-1.25947,0.00390859,0.013011,608,1044,-33.5373,-2.85694
-609,-20,-33.5344,2.94031,-0.000723033,0.00216514,-0.00236403,0.00349126,-0.00204915,-1.05958,0.00323468,0.0154939,615,1044,-33.5344,-2.94032
-602,-20,-33.5284,3.05273,-0.000453945,0.00043373,-0.00290981,0.00293336,-0.00295358,-0.86108,0.00339883,0.0130548,622,1044,-33.5284,-3.05268
-595,-20,-33.5344,3.14429,-0.000223029,-0.000727383,-0.00297567,0.00251113,-0.00346155,-0.743126,0.00346285,0.0275765,629,1044,-33.5344,-3.14424
-588,-20,-33.3746,0.740723,0,0,0,0,0,0,0,-1,636,1044,-33.3746,-0.74069
-581,-20,-33.4359,0.740845,0.000535484,-0.00204765,-0.00273248,0.00226627,-0.00377843,-0.564625,0.00352612,0.0314109,643,1044,-33.4359,-0.740857
-574,-20,-33.5198,1.00537,0.000696087,-0.00246871,-0.00252717,0.00209539,-0.00386802,-0.505683,0.00349331,0.0396834,650,1044,-33.5198,-1.00537
-567,-20,-33.4459,1.04858,0.000698267,-0.00259546,-0.00220907,0.00180679,-0.00370398,-0.465091,0.00324389,0.0446315,657,1044,-33.4459,-1.04853
-560,-20,-33.2881,0.798706,0.000625666,-0.00244799,-0.00178489,0.00144419,-0.00326651,-0.42997,0.00278673,0.0441384,664,1044,-33.2881,-0.798742
-553,-20,-33.2721,0.629395,0.000451383,-0.00209447,-0.00131887,0.00101142,-0.00265452,-0.401562,0.00218625,0.0418867,671,1044,-33.2721,-0.629398
-546,-20,-33.6055,0.96521,0.000197401,-0.00166871,-0.000844833,0.000523049,-0.00199436,-0.367908,0.00153394,0.0414364,678,1044,-33.6055,-0.96517
-539,-20,-33.6377,1.04285,-0.000235839,-0.00116517,-0.000864425,0.000280895,-0.0016819,-0.538784,0.00122568,0.0422978,685,1044,-33.6377,-1.04287
-532,-20,-33.4717,1.04712,-0.000617366,-0.000196178,-0.00107344,0.000687131,-0.00150067,-0.882261,0.00129191,0.0408998,692,1044,-33.4717,-1.0471
-525,-20,0,0,0,0,0,0,0,0,0,-1,699,1044,0,0
-518,-20,0,0,0,0,0,0,0,0,0,-1,706,1044,0,0
-511,-20,0,0,0,0,0,0,0,0,0,-1,713,1044,0,0
-504,-20,0,0,0,0,0,0,0,0,0,-1,720,1044,0,0
-497,-20,0,0,0,0,0,0,0,0,0,-1,727,1044,0,0
-490,-20,0,0,0,0,0,0,0,0,0,-1,734,1044,0,0
-483,-20,0,0,0,0,0,0,0,0,0,-1,741,1044,0,0
-476,-20,0,0,0,0,0,0,0,0,0,-1,748,1044,0,0
-469,-20,0,0,0,0,0,0,0,0,0,-1,755,1044,0,0
-462,-20,0,0,0,0,0,0,0,0,0,-1,762,1044,0,0
-455,-20,0,0,0,0,0,0,0,0,0,-1,769,1044,0,0
-448,-20,0,0,0,0,0,0,0,0,0,-1,776,1044,0,0
-441,-20,0,0,0,0,0,0,0,0,0,-1,783,1044,0,0
-434,-20,0,0,0,0,0,0,0,0,0,-1,790,1044,0,0
-427,-20,0,0,0,0,0,0,0,0,0,-1,797,1044,0,0
-420,-20,0,0,0,0,0,0,0,0,0,-1,804,1044,0,0
-413,-20,0,0,0,0,0,0,0,0,0,-1,811,1044,0,0
-406,-20,0,0,0,0,0,0,0,0,0,-1,818,1044,0,0
-399,-20,0,0,0,0,0,0,0,0,0,-1,825,1044,0,0
-392,-20,0,0,0,0,0,0,0,0,0,-1,832,1044,0,0
-385,-20,0,0,0,0,0,0,0,0,0,-1,839,1044,0,0
-378,-20,0,0,0,0,0,0,0,0,0,-1,846,1044,0,0
-371,-20,0,0,0,0,0,0,0,0,0,-1,853,1044,0,0
-364,-20,0,0,0,0,0,0,0,0,0,-1,860,1044,0,0
-357,-20,0,0,0,0,0,0,0,0,0,-1,867,1044,0,0
-350,-20,0,0,0,0,0,0,0,0,0,-1,874,1044,0,0
-343,-20,0,0,0,0,0,0,0,0,0,-1,881,1044,0,0
-336,-20,0,0,0,0,0,0,0,0,0,-1,888,1044,0,0
-329,-20,0,0,0,0,0,0,0,0,0,-1,895,1044,0,0
-322,-20,0,0,0,0,0,0,0,0,0,-1,902,1044,0,0
-315,-20,0,0,0,0,0,0,0,0,0,-1,909,1044,0,0
-308,-20,0,0,0,0,0,0,0,0,0,-1,916,1044,0,0
-301,-20,0,0,0,0,0,0,0,0,0,-1,923,1044,0,0
-294,-20,0,0,0,0,0,0,0,0,0,-1,930,1044,0,0
-287,-20,0,0,0,0,0,0,0,0,0,-1,937,1044,0,0
-280,-20,0,0,0,0,0,0,0,0,0,-1,944,1044,0,0
-273,-20,0,0,0,0,0,0,0,0,0,-1,951,1044,0,0
-266,-20,0,0,0,0,0,0,0,0,0,-1,958,1044,0,0
-259,-20,0,0,0,0,0,0,0,0,0,-1,965,1044,0,0
-252,-20,0,0,0,0,0,0,0,0,0,-1,972,1044,0,0
-245,-20,0,0,0,0,0,0,0,0,0,-1,979,1044,0,0
-238,-20,0,0,0,0,0,0,0,0,0,-1,986,1044,0,0
-231,-20,0,0,0,0,0,0,0,0,0,-1,993,1044,0,0
-224,-20,0,0,0,0,0,0,0,0,0,-1,1000,1044,0,0
-217,-20,0,0,0,0,0,0,0,0,0,-1,1007,1044,0,0
-210,-20,0,0,0,0,0,0,0,0,0,-1,1014,1044,0,0
-203,-20,0,0,0,0,0,0,0,0,0,-1,1021,1044,0,0
-196,-20,0,0,0,0,0,0,0,0,0,-1,1028,1044,0,0
-189,-20,0,0,0,0,0,0,0,0,0,-1,1035,1044,0,0
-182,-20,0,0,0,0,0,0,0,0,0,-1,1042,1044,0,0
-175,-20,0,0,0,0,0,0,0,0,0,-1,1049,1044,0,0
-168,-20,0,0,0,0,0,0,0,0,0,-1,1056,1044,0,0
-161,-20,0,0,0,0,0,0,0,0,0,-1,1063,1044,0,0
-154,-20,0,0,0,0,0,0,0,0,0,-1,1070,1044,0,0
-147,-20,0,0,0,0,0,0,0,0,0,-1,1077,1044,0,0
-140,-20,0,0,0,0,0,0,0,0,0,-1,1084,1044,0,0
-133,-20,0,0,0,0,0,0,0,0,0,-1,1091,1044,0,0
-126,-20,0,0,0,0,0,0,0,0,0,-1,1098,1044,0,0
-119,-20,0,0,0,0,0,0,0,0,0,-1,1105,1044,0,0
-112,-20,0,0,0,0,0,0,0,0,0,-1,1112,1044,0,0
-105,-20,0,0,0,0,0,0,0,0,0,-1,1119,1044,0,0
-98,-20,0,0,0,0,0,0,0,0,0,-1,1126,1044,0,0
-91,-20,0,0,0,0,0,0,0,0,0,-1,1133,1044,0,0
-84,-20,0,0,0,0,0,0,0,0,0,-1,1140,1044,0,0
-77,-20,0,0,0,0,0,0,0,0,0,-1,1147,1044,0,0
-70,-20,0,0,0,0,0,0,0,0,0,-1,1154,1044,0,0
-63,-20,0,0,0,0,0,0,0,0,0,-1,1161,1044,0,0
-56,-20,0,0,0,0,0,0,0,0,0,-1,1168,1044,0,0
-49,-20,0,0,0,0,0,0,0,0,0,-1,1175,1044,0,0
-42,-20,0,0,0,0,0,0,0,0,0,-1,1182,1044,0,0
-35,-20,0,0,0,0,0,0,0,0,0,-1,1189,1044,0,0
-28,-20,0,0,0,0,0,0,0,0,0,-1,1196,1044,0,0
-21,-20,0,0,0,0,0,0,0,0,0,-1,1203,1044,0,0
-14,-20,0,0,0,0,0,0,0,0,0,-1,1210,1044,0,0
-7,-20,0,0,0,0,0,0,0,0,0,-1,1217,1044,0,0
0,-20,0,0,0,0,0,0,0,0,0,-1,1224,1044,0,0
7,-20,0,0,0,0,0,0,0,0,0,-1,1231,1044,0,0
14,-20,0,0,0,0,0,0,0,0,0,-1,1238,1044,0,0
21,-20,0,0,0,0,0,0,0,0,0,-1,1245,1044,0,0
28,-20,0,0,0,0,0,0,0,0,0,-1,1252,1044,0,0
35,-20,0,0,0,0,0,0,0,0,0,-1,1259,1044,0,0
42,-20,0,0,0,0,0,0,0,0,0,-1,1266,1044,0,0
49,-20,0,0,0,0,0,0,0,0,0,-1,1273,1044,0,0
56,-20,0,0,0,0,0,0,0,0,0,-1,1280,1044,0,0
63,-20,0,0,0,0,0,0,0,0,0,-1,1287,1044,0,0
70,-20,0,0,0,0,0,0,0,0,0,-1,1294,1044,0,0
77,-20,0,0,0,0,0,0,0,0,0,-1,1301,1044,0,0
84,-20,0,0,0,0,0,0,0,0,0,-1,1308,1044,0,0
91,-20,0,0,0,0,0,0,0,0,0,-1,1315,1044,0,0
98,-20,0,0,0,0,0,0,0,0,0,-1,1322,1044,0,0
105,-20,0,0,0,0,0,0,0,0,0,-1,1329,1044,0,0
112,-20,0,0,0,0,0,0,0,0,0,-1,1336,1044,0,0
119,-20,0,0,0,0,0,0,0,0,0,-1,1343,1044,0,0
126,-20,0,0,0,0,0,0,0,0,0,-1,1350,1044,0,0
133,-20,0,0,0,0,0,0,0,0,0,-1,1357,1044,0,0
140,-20,0,0,0,0,0,0,0,0,0,-1,1364,1044,0,0
147,-20,0,0,0,0,0,0,0,0,0,-1,1371,1044,0,0
154,-20,0,0,0,0,0,0,0,0,0,-1,1378,1044,0,0
161,-20,0,0,0,0,0,0,0,0,0,-1,1385,1044,0,0
168,-20,0,0,0,0,0,0,0,0,0,-1,1392,1044,0,0
175,-20,0,0,0,0,0,0,0,0,0,-1,1399,1044,0,0
182,-20,0,0,0,0,0,0,0,0,0,-1,1406,1044,0,0
189,-20,0,0,0,0,0,0,0,0,0,-1,1413,1044,0,0
196,-20,0,0,0,0,0,0,0,0,0,-1,1420,1044,0,0
203,-20,0,0,0,0,0,0,0,0,0,-1,1427,1044,0,0
210,-20,0,0,0,0,0,0,0,0,0,-1,1434,1044,0,0
217,-20,0,0,0,0,0,0,0,0,0,-1,1441,1044,0,0
224,-20,0,0,0,0,0,0,0,0,0,-1,1448,1044,0,0
231,-20,0,0,0,0,0,0,0,0,0,-1,1455,1044,0,0
238,-20,0,0,0,0,0,0,0,0,0,-1,1462,1044,0,0
245,-20,0,0,0,0,0,0,0,0,0,-1,1469,1044,0,0
252,-20,0,0,0,0,0,0,0,0,0,-1,1476,1044,0,0
259,-20,0,0,0,0,0,0,0,0,0,-1,1483,1044,0,0
266,-20,0,0,0,0,0,0,0,0,0,-1,1490,1044,0,0
273,-20,0,0,0,0,0,0,0,0,0,-1,1497,1044,0,0
280,-20,0,0,0,0,0,0,0,0,0,-1,1504,1044,0,0
287,-20,0,0,0,0,0,0,0,0,0,-1,1511,1044,0,0
294,-20,0,0,0,0,0,0,0,0,0,-1,1518,1044,0,0
301,-20,0,0,0,0,0,0,0,0,0,-1,1525,1044,0,0
308,-20,0,0,0,0,0,0,0,0,0,-1,1532,1044,0,0
315,-20,0,0,0,0,0,0,0,0,0,-1,1539,1044,0,0
322,-20,0,0,0,0,0,0,0,0,0,-1,1546,1044,0,0
329,-20,0,0,0,0,0,0,0,0,0,-1,1553,1044,0,0
336,-20,0,0,0,0,0,0,0,0,0,-1,1560,1044,0,0
343,-20,0,0,0,0,0,0,0,0,0,-1,1567,1044,0,0
350,-20,0,0,0,0,0,0,0,0,0,-1,1574,1044,0,0
357,-20,0,0,0,0,0,0,0,0,0,-1,1581,1044,0,0
364,-20,0,0,0,0,0,0,0,0,0,-1,1588,1044,0,0
371,-20,0,0,0,0,0,0,0,0,0,-1,1595,1044,0,0
378,-20,0,0,0,0,0,0,0,0,0,-1,1602,1044,0,0
385,-20,0,0,0,0,0,0,0,0,0,-1,1609,1044,0,0
392,-20,0,0,0,0,0,0,0,0,0,-1,1616,1044,0,0
399,-20,0,0,0,0,0,0,0,0,0,-1,1623,1044,0,0
406,-20,0,0,0,0,0,0,0,0,0,-1,1630,1044,0,0
413,-20,0,0,0,0,0,0,0,0,0,-1,1637,1044,0,0
420,-20,0,0,0,0,0,0,0,0,0,-1,1644,1044,0,0
427,-20,0,0,0,0,0,0,0,0,0,-1,1651,1044,0,0
434,-20,0,0,0,0,0,0,0,0,0,-1,1658,1044,0,0
441,-20,0,0,0,0,0,0,0,0,0,-1,1665,1044,0,0
448,-20,0,0,0,0,0,0,0,0,0,-1,1672,1044,0,0
455,-20,0,0,0,0,0,0,0,0,0,-1,1679,1044,0,0
462,-20,0,0,0,0,0,0,0,0,0,-1,1686,1044,0,0
469,-20,0,0,0,0,0,0,0,0,0,-1,1693,1044,0,0
476,-20,0,0,0,0,0,0,0,0,0,-1,1700,1044,0,0
483,-20,0,0,0,0,0,0,0,0,0,-1,1707,1044,0,0
490,-20,0,0,0,0,0,0,0,0,0,-1,1714,1044,0,0
497,-20,0,0,0,0,0,0,0,0,0,-1,1721,1044,0,0
504,-20,0,0,0,0,0,0,0,0,0,-1,1728,1044,0,0
511,-20,0,0,0,0,0,0,0,0,0,-1,1735,1044,0,0
518,-20,0,0,0,0,0,0,0,0,0,-1,1742,1044,0,0
525,-20,0,0,0,0,0,0,0,0,0,-1,1749,1044,0,0
532,-20,0,0,0,0,0,0,0,0,0,-1,1756,1044,0,0
539,-20,0,0,0,0,0,0,0,0,0,-1,1763,1044,0,0
546,-20,0,0,0,0,0,0,0,0,0,-1,1770,1044,0,0
553,-20,0,0,0,0,0,0,0,0,0,-1,1777,1044,0,0
560,-20,0,0,0,0,0,0,0,0,0,-1,1784,1044,0,0
567,-20,0,0,0,0,0,0,0,0,0,-1,1791,1044,0,0
574,-20,0,0,0,0,0,0,0,0,0,-1,1798,1044,0,0
581,-20,0,0,0,0,0,0,0,0,0,-1,1805,1044,0,0
588,-20,0,0,0,0,0,0,0,0,0,-1,1812,1044,0,0
595,-20,0,0,0,0,0,0,0,0,0,-1,1819,1044,0,0
602,-20,0,0,0,0,0,0,0,0,0,-1,1826,1044,0,0
609,-20,0,0,0,0,0,0,0,0,0,-1,1833,1044,0,0
616,-20,0,0,0,0,0,0,0,0,0,-1,1840,1044,0,0
623,-20,0,0,0,0,0,0,0,0,0,-1,1847,1044,0,0
630,-20,0,0,0,0,0,0,0,0,0,-1,1854,1044,0,0
637,-20,0,0,0,0,0,0,0,0,0,-1,1861,1044,0,0
644,-20,0,0,0,0,0,0,0,0,0,-1,1868,1044,0,0
651,-20,45.1028,2.54846,0.000550448,0.00245828,-0.000494557,0.00257886,0.000429868,-1.33165,0.00159537,0.0422564,1875,1044,45.1028,-2.54849
658,-20,45.0017,2.45862,-0.000344307,0.00184287,-0.000348129,0.00189695,-0.000398381,-1.4167,0.00141623,0.0442756,1882,1044,45.0018,-2.45861
665,-20,45.0552,2.57263,-0.000693814,0.00134656,-0.000143382,0.00135659,-0.00070384,-1.50098,0.00120932,0.041158,1889,1044,45.0552,-2.57266
672,-20,45.0851,2.58081,-0.000735847,0.00100163,0.000237354,0.00103347,-0.000767688,1.43744,0.00104367,0.0259032,1896,1044,45.0851,-2.58077
679,-20,45.0157,2.6272,-0.000557725,0.000735149,0.000749333,0.00107835,-0.000900925,1.1413,0.00114426,0.0284527,1903,1044,45.0157,-2.62719
686,-20,44.9879,2.6969,-0.000447093,0.000348654,0.00128463,0.00129562,-0.00139406,0.935572,0.00155323,0.0398863,1910,1044,44.9879,-2.69695
693,-20,44.886,2.73694,-0.000310138,-9.80806e-06,0.00176999,0.00161637,-0.00193632,0.827717,0.00205392,0.0433836,1917,1044,44.886,-2.73699
700,-20,44.9355,2.66785,-0.000206696,-0.000203929,0.00212888,0.00192357,-0.0023342,0.785723,0.00246203,0.0373781,1924,1044,44.9356,-2.66779
707,-20,45.0326,2.55811,-0.000343029,-0.000253607,0.00246465,0.00216673,-0.00276337,0.794468,0.00285334,0.0290748,1931,1044,45.0326,-2.55811
714,-20,45.0474,2.76636,-0.000669383,-6.45183e-05,0.00271596,0.0023658,-0.0030997,0.840847,0.00316497,0.0236438,1938,1044,45.0474,-2.76638
721,-20,44.9872,2.89087,0,0,0,0,0,0,0,-1,1945,1044,44.9872,-2.89092
728,-20,45.1016,5.6709,0,0,0,0,0,0,0,-1,1952,1044,45.1015,-5.67094
735,-20,44.8171,5.65649,-0.00259086,0.00178483,0.00246318,0.00289152,-0.00369754,1.14853,0.00381367,0.0269886,1959,1044,44.8172,-5.65645
742,-20,44.6257,5.57544,-0.00359548,0.00299684,0.00135032,0.0032627,-0.00386135,1.37639,0.00411791,0.0207545,1966,1044,44.6257,-5.57539
749,-20,44.6853,5.53076,-0.0046496,0.00511073,7.62258e-05,0.00511132,-0.0046502,1.56299,0.00563791,0.0225989,1973,1044,44.6853,-5.53077
756,-20,44.6671,5.48169,-0.00532932,0.00778423,-0.00210658,0.00811432,-0.00565942,-1.41536,0.00799426,0.015914,1980,1044,44.6671,-5.48168
763,-20,44.615,5.41296,-0.00564959,0.012077,-0.00516831,0.0134738,-0.00704639,-1.30684,0.0120395,0.0229434,1987,1044,44.615,-5.41292
770,-20,44.5437,5.38037,-0.00573689,0.0173039,-0.00952642,0.0207325,-0.00916548,-1.22533,0.017687,0.0203541,1994,1044,44.5437,-5.38036
777,-20,44.446,5.22961,-0.00487916,0.0243852,-0.0152948,0.0309197,-0.0114137,-1.16703,0.0252913,0.0143866,2001,1044,44.4461,-5.22965
784,-20,44.4495,5.16052,-0.00309538,0.0324532,-0.0217951,0.0428028,-0.013445,-1.12746,0.0339171,0.0192506,2008,1044,44.4496,-5.16046
791,-20,44.4805,5.05627,-2.34199e-05,0.0420034,-0.0293869,0.0571169,-0.0151369,-1.09578,0.0440002,0.0368577,2015,1044,44.4805,-5.05622
798,-20,44.4802,4.86633,0,0,0,0,0,0,0,-1,2022,1044,44.4801,-4.86639
805,-20,44.5193,4.94214,0,0,0,0,0,0,0,-1,2029,1044,44.5192,-4.94213
812,-20,44.6389,4.85596,0,0,0,0,0,0,0,-1,2036,1044,44.6389,-4.856
-700,-27,-35.0419,2.53577,0,0,0,0,0,0,0,-1,524,1051,-35.0419,-2.53577
-693,-27,-34.7065,2.89502,0.213352,0.103394,-0.100945,0.273319,0.0434273,-0.536037,0.169601,0.0470409,531,1051,-34.7065,-2.89505
-686,-27,-34.4396,3.35022,0.168529,0.0864824,-0.0776498,0.215326,0.0396855,-0.542378,0.132321,0.0428503,538,1051,-34.4396,-3.35019
-679,-27,-33.4196,2.47229,0,0,0,0,0,0,0,-1,545,1051,-33.4196,-2.47225
-672,-27,-33.3887,2.15869,0,0,0,0,0,0,0,-1,552,1051,-33.3887,-2.15868
-665,-27,-33.0231,1.922,0,0,0,0,0,0,0,-1,559,1051,-33.0231,-1.92196
-658,-27,-33.019,1.69153,0.0496548,0.0362046,-0.0205608,0.0645624,0.021297,-0.62734,0.0379876,0.0431017,566,1051,-33.019,-1.69152
-651,-27,-33.0213,2.12646,0.0335482,0.0280268,-0.0136167,0.0446812,0.0168937,-0.685381,0.026051,0.0353007,573,1051,-33.0213,-2.12652
-644,-27,-33.2303,2.16028,0.019482,0.0218698,-0.00842868,0.0291887,0.0121631,-0.855753,0.0169299,0.0190427,580,1051,-33.2303,-2.16034
-637,-27,-33.2807,2.26917,0.00871566,0.0135849,-0.00381209,0.0156735,0.00662708,-1.06958,0.00908495,0.0160766,587,1051,-33.2807,-2.2692
-630,-27,-33.3696,2.55591,0.00163292,0.00736841,-0.000998813,0.00753738,0.00146396,-1.40322,0.00461499,0.0190562,594,1051,-33.3696,-2.55594
-623,-27,-33.4016,2.74072,-0.00164089,0.00639684,-0.000709265,0.00645894,-0.00170299,-1.48345,0.00497182,0.01611,601,1051,-33.4016,-2.74077
-616,-27,-33.3851,2.88159,-0.00109634,0.00374525,-0.00125538,0.0040514,-0.00140249,-1.33159,0.00327026,0.0137924,608,1051,-33.3852,-2.88164
-609,-27,-33.3712,3.00891,-0.000715702,0.00192271,-0.00169274,0.00274959,-0.00154258,-1.1164,0.00251053,0.014383,615,1051,-33.3712,-3.00885
-602,-27,-33.3261,3.17407,-0.000537255,0.000192043,-0.00219143,0.00204895,-0.00239416,-0.867842,0.00256782,0.0130423,622,1051,-33.3261,-3.17401
-595,-27,-33.3842,3.29163,-0.000323504,-0.000895399,-0.00225688,0.00166548,-0.00288438,-0.722384,0.0026581,0.0143725,629,1051,-33.3842,-3.29166
-588,-27,-33.3925,0.769287,0,0,0,0,0,0,0,-1,636,1051,-33.3924,-0.769325
-581,-27,-33.3563,0.737427,0.000375834,-0.00197345,-0.00194185,0.00147068,-0.00306829,-0.513387,0.00267414,0.0258699,643,1051,-33.3563,-0.737367
-574,-27,-33.4507,0.934448,0.000574653,-0.00227292,-0.00175333,0.00140948,-0.00310775,-0.444376,0.00266875,0.0377443,650,1051,-33.4507,-0.934479
-567,-27,-33.3625,0.964111,0.000634953,-0.00228983,-0.00153323,0.00129138,-0.00294626,-0.404521,0.00250802,0.0439997,657,1051,-33.3625,-0.964124
-560,-27,-33.3092,0.78064,0.000635,-0.00202253,-0.00129435,0.00116122,-0.00254875,-0.38614,0.00219132,0.0428612,664,1051,-33.3092,-0.780687
-553,-27,-33.3251,0.796875,0.000566431,-0.00152342,-0.00110488,0.00104224,-0.00199923,-0.406641,0.00178473,0.0400558,671,1051,-33.3251,-0.796845
-546,-27,-33.389,0.987305,0.000446015,-0.000904243,-0.000998934,0.000976567,-0.0014348,-0.488232,0.00140056,0.0433612,678,1051,-33.389,-0.98728
-539,-27,-33.506,1.03821,0.000113884,-0.000216263,-0.00138788,0.00134648,-0.00144886,-0.726207,0.00161425,0.0461455,685,1051,-33.506,-1.03819
-532,-27,-33.5622,1.1134,-0.000262774,0.000934525,-0.00162006,0.00206301,-0.00139125,-0.962378,0.00200685,0.0423412,692,1051,-33.5622,-1.11345
-525,-27,0,0,0,0,0,0,0,0,0,-1,699,1051,0,0
-518,-27,0,0,0,0,0,0,0,0,0,-1,706,1051,0,0
-511,-27,0,0,0,0,0,0,0,0,0,-1,713,1051,0,0
-504,-27,0,0,0,0,0,0,0,0,0,-1,720,1051,0,0
-497,-27,0,0,0,0,0,0,0,0,0,-1,727,1051,0,0
-490,-27,0,0,0,0,0,0,0,0,0,-1,734,1051,0,0
-483,-27,0,0,0,0,0,0,0,0,0,-1,741,1051,0,0
-476,-27,0,0,0,0,0,0,0,0,0,-1,748,1051,0,0
-469,-27,0,0,0,0,0,0,0,0,0,-1,755,1051,0,0
-462,-27,0,0,0,0,0,0,0,0,0,-1,762,1051,0,0
-455,-27,0,0,0,0,0,0,0,0,0,-1,769,1051,0,0
-448,-27,0,0,0,0,0,0,0,0,0,-1,776,1051,0,0
-441,-27,0,0,0,0,0,0,0,0,0,-1,783,1051,0,0
-434,-27,0,0,0,0,0,0,0,0,0,-1,790,1051,0,0
-427,-27,0,0,0,0,0,0,0,0,0,-1,797,1051,0,0
-420,-27,0,0,0,0,0,0,0,0,0,-1,804,1051,0,0
-413,-27,0,0,0,0,0,0,0,0,0,-1,811,1051,0,0
-406,-27,0,0,0,0,0,0,0,0,0,-1,818,1051,0,0
-399,-27,0,0,0,0,0,0,0,0,0,-1,825,1051,0,0
-392,-27,0,0,0,0,0,0,0,0,0,-1,832,1051,0,0
-385,-27,0,0,0,0,0,0,0,0,0,-1,839,1051,0,0
-378,-27,0,0,0,0,0,0,0,0,0,-1,846,1051,0,0
-371,-27,0,0,0,0,0,0,0,0,0,-1,853,1051,0,0
-364,-27,0,0,0,0,0,0,0,0,0,-1,860,1051,0,0
-357,-27,0,0,0,0,0,0,0,0,0,-1,867,1051,0,0
-350,-27,0,0,0,0,0,0,0,0,0,-1,874,1051,0,0
-343,-27,0,0,0,0,0,0,0,0,0,-1,881,1051,0,0
-336,-27,0,0,0,0,0,0,0,0,0,-1,888,1051,0,0
-329,-27,0,0,0,0,0,0,0,0,0,-1,895,1051,0,0
-322,-27,0,0,0,0,0,0,0,0,0,-1,902,1051,0,0
-315,-27,0,0,0,0,0,0,0,0,0,-1,909,1051,0,0
-308,-27,0,0,0,0,0,0,0,0,0,-1,916,1051,0,0
-301,-27,0,0,0,0,0,0,0,0,0,-1,923,1051,0,0
-294,-27,0,0,0,0,0,0,0,0,0,-1,930,1051,0,0
-287,-27,0,0,0,0,0,0,0,0,0,-1,937,1051,0,0
-280,-27,0,0,0,0,0,0,0,0,0,-1,944,1051,0,0
-273,-27,0,0,0,0,0,0,0,0,0,-1,951,1051,0,0
-266,-27,0,0,0,0,0,0,0,0,0,-1,958,1051,0,0
-259,-27,0,0,0,0,0,0,0,0,0,-1,965,1051,0,0
-252,-27,0,0,0,0,0,0,0,0,0,-1,972,1051,0,0
-245,-27,0,0,0,0,0,0,0,0,0,-1,979,1051,0,0
-238,-27,0,0,0,0,0,0,0,0,0,-1,986,1051,0,0
-231,-27,0,0,0,0,0,0,0,0,0,-1,993,1051,0,0
-224,-27,0,0,0,0,0,0,0,0,0,-1,1000,1051,0,0
-217,-27,0,0,0,0,0,0,0,0,0,-1,1007,1051,0,0
-210,-27,0,0,0,0,0,0,0,0,0,-1,1014,1051,0,0
-203,-27,0,0,0,0,0,0,0,0,0,-1,1021,1051,0,0
-196,-27,0,0,0,0,0,0,0,0,0,-1,1028,1051,0,0
-189,-27,0,0,0,0,0,0,0,0,0,-1,1035,1051,0,0
-182,-27,0,0,0,0,0,0,0,0,0,-1,1042,1051,0,0
-175,-27,0,0,0,0,0,0,0,0,0,-1,1049,1051,0,0
-168,-27,0,0,0,0,0,0,0,0,0,-1,1056,1051,0,0
-161,-27,0,0,0,0,0,0,0,0,0,-1,1063,1051,0,0
-154,-27,0,0,0,0,0,0,0,0,0,-1,1070,1051,0,0
-147,-27,0,0,0,0,0,0,0,0,0,-1,1077,1051,0,0
-140,-27,0,0,0,0,0,0,0,0,0,-1,1084,1051,0,0
-133,-27,0,0,0,0,0,0,0,0,0,-1,1091,1051,0,0
-126,-27,0,0,0,0,0,0,0,0,0,-1,1098,1051,0,0
-119,-27,0,0,0,0,0,0,0,0,0,-1,1105,1051,0,0
-112,-27,0,0,0,0,0,0,0,0,0,-1,1112,1051,0,0
-105,-27,0,0,0,0,0,0,0,0,0,-1,1119,1051,0,0
-98,-27,0,0,0,0,0,0,0,0,0,-1,1126,1051,0,0
-91,-27,0,0,0,0,0,0,0,0,0,-1,1133,1051,0,0
-84,-27,0,0,0,0,0,0,0,0,0,-1,1140,1051,0,0
-77,-27,0,0,0,0,0,0,0,0,0,-1,1147,1051,0,0
-70,-27,0,0,0,0,0,0,0,0,0,-1,1154,1051,0,0
-63,-27,0,0,0,0,0,0,0,0,0,-1,1161,1051,0,0
-56,-27,0,0,0,0,0,0,0,0,0,-1,1168,1051,0,0
-49,-27,0,0,0,0,0,0,0,0,0,-1,1175,1051,0,0
-42,-27,0,0,0,0,0,0,0,0,0,-1,1182,1051,0,0
-35,-27,0,0,0,0,0,0,0,0,0,-1,1189,1051,0,0
-28,-27,0,0,0,0,0,0,0,0,0,-1,1196,1051,0,0
-21,-27,0,0,0,0,0,0,0,0,0,-1,1203,1051,0,0
-14,-27,0,0,0,0,0,0,0,0,0,-1,1210,1051,0,0
-7,-27,0,0,0,0,0,0,0,0,0,-1,1217,1051,0,0
0,-27,0,0,0,0,0,0,0,0,0,-1,1224,1051,0,0
7,-27,0,0,0,0,0,0,0,0,0,-1,1231,1051,0,0
14,-27,0,0,0,0,0,0,0,0,0,-1,1238,1051,0,0
21,-27,0,0,0,0,0,0,0,0,0,-1,1245,1051,0,0
28,-27,0,0,0,0,0,0,0,0,0,-1,1252,1051,0,0
35,-27,0,0,0,0,0,0,0,0,0,-1,1259,1051,0,0
42,-27,0,0,0,0,0,0,0,0,0,-1,1266,1051,0,0
49,-27,0,0,0,0,0,0,0,0,0,-1,1273,1051,0,0
56,-27,0,0,0,0,0,0,0,0,0,-1,1280,1051,0,0
63,-27,0,0,0,0,0,0,0,0,0,-1,1287,1051,0,0
70,-27,0,0,0,0,0,0,0,0,0,-1,1294,1051,0,0
77,-27,0,0,0,0,0,0,0,0,0,-1,1301,1051,0,0
84,-27,0,0,0,0,0,0,0,0,0,-1,1308,1051,0,0
91,-27,0,0,0,0,0,0,0,0,0,-1,1315,1051,0,0
98,-27,0,0,0,0,0,0,0,0,0,-1,1322,1051,0,0
105,-27,0,0,0,0,0,0,0,0,0,-1,1329,1051,0,0
112,-27,0,0,0,0,0,0,0,0,0,-1,1336,1051,0,0
119,-27,0,0,0,0,0,0,0,0,0,-1,1343,1051,0,0
126,-27,0,0,0,0,0,0,0,0,0,-1,1350,1051,0,0
133,-27,0,0,0,0,0,0,0,0,0,-1,1357,1051,0,0
140,-27,0,0,0,0,0,0,0,0,0,-1,1364,1051,0,0
147,-27,0,0,0,0,0,0,0,0,0,-1,1371,1051,0,0
154,-27,0,0,0,0,0,0,0,0,0,-1,1378,1051,0,0
161,-27,0,0,0,0,0,0,0,0,0,-1,1385,1051,0,0
168,-27,0,0,0,0,0,0,0,0,0,-1,1392,1051,0,0
175,-27,0,0,0,0,0,0,0,0,0,-1,1399,1051,0,0
182,-27,0,0,0,0,0,0,0,0,0,-1,1406,1051,0,0
189,-27,0,0,0,0,0,0,0,0,0,-1,1413,1051,0,0
196,-27,0,0,0,0,0,0,0,0,0,-1,1420,1051,0,0
203,-27,0,0,0,0,0,0,0,0,0,-1,1427,1051,0,0
210,-27,0,0,0,0,0,0,0,0,0,-1,1434,1051,0,0
217,-27,0,0,0,0,0,0,0,0,0,-1,1441,1051,0,0
224,-27,0,0,0,0,0,0,0,0,0,-1,1448,1051,0,0
231,-27,0,0,0,0,0,0,0,0,0,-1,1455,1051,0,0
238,-27,0,0,0,0,0,0,0,0,0,-1,1462,1051,0,0
245,-27,0,0,0,0,0,0,0,0,0,-1,1469,1051,0,0
252,-27,0,0,0,0,0,0,0,0,0,-1,1476,1051,0,0
259,-27,0,0,0,0,0,0,0,0,0,-1,1483,1051,0,0
266,-27,0,0,0,0,0,0,0,0,0,-1,1490,1051,0,0
273,-27,0,0,0,0,0,0,0,0,0,-1,1497,1051,0,0
280,-27,0,0,0,0,0,0,0,0,0,-1,1504,1051,0,0
287,-27,0,0,0,0,0,0,0,0,0,-1,1511,1051,0,0
294,-27,0,0,0,0,0,0,0,0,0,-1,1518,1051,0,0
301,-27,0,0,0,0,0,0,0,0,0,-1,1525,1051,0,0
308,-27,0,0,0,0,0,0,0,0,0,-1,1532,1051,0,0
315,-27,0,0,0,0,0,0,0,0,0,-1,1539,1051,0,0
322,-27,0,0,0,0,0,0,0,0,0,-1,1546,1051,0,0
329,-27,0,0,0,0,0,0,0,0,0,-1,1553,1051,0,0
336,-27,0,0,0,0,0,0,0,0,0,-1,1560,1051,0,0
343,-27,0,0,0,0,0,0,0,0,0,-1,1567,1051,0,0
350,-27,0,0,0,0,0,0,0,0,0,-1,1574,1051,0,0
357,-27,0,0,0,0,0,0,0,0,0,-1,1581,1051,0,0
364,-27,0,0,0,0,0,0,0,0,0,-1,1588,1051,0,0
371,-27,0,0,0,0,0,0,0,0,0,-1,1595,1051,0,0
378,-27,0,0,0,0,0,0,0,0,0,-1,1602,1051,0,0
385,-27,0,0,0,0,0,0,0,0,0,-1,1609,1051,0,0
392,-27,0,0,0,0,0,0,0,0,0,-1,1616,1051,0,0
399,-27,0,0,0,0,0,0,0,0,0,-1,1623,1051,0,0
406,-27,0,0,0,0,0,0,0,0,0,-1,1630,1051,0,0
413,-27,0,0,0,0,0,0,0,0,0,-1,1637,1051,0,0
420,-27,0,0,0,0,0,0,0,0,0,-1,1644,1051,0,0
427,-27,0,0,0,0,0,0,0,0,0,-1,1651,1051,0,0
434,-27,0,0,0,0,0,0,0,0,0,-1,1658,1051,0,0
441,-27,0,0,0,0,0,0,0,0,0,-1,1665,1051,0,0
448,-27,0,0,0,0,0,0,0,0,0,-1,1672,1051,0,0
455,-27,0,0,0,0,0,0,0,0,0,-1,1679,1051,0,0
462,-27,0,0,0,0,0,0,0,0,0,-1,1686,1051,0,0
469,-27,0,0,0,0,0,0,0,0,0,-1,1693,1051,0,0
476,-27,0,0,0,0,0,0,0,0,0,-1,1700,1051,0,0
483,-27,0,0,0,0,0,0,0,0,0,-1,1707,1051,0,0
490,-27,0,0,0,0,0,0,0,0,0,-1,1714,1051,0,0
497,-27,0,0,0,0,0,0,0,0,0,-1,1721,1051,0,0
504,-27,0,0,0,0,0,0,0,0,0,-1,1728,1051,0,0
511,-27,0,0,0,0,0,0,0,0,0,-1,1735,1051,0,0
518,-27,0,0,0,0,0,0,0,0,0,-1,1742,1051,0,0
525,-27,0,0,0,0,0,0,0,0,0,-1,1749,1051,0,0
532,-27,0,0,0,0,0,0,0,0,0,-1,1756,1051,0,0
539,-27,0,0,0,0,0,0,0,0,0,-1,1763,1051,0,0
546,-27,0,0,0,0,0,0,0,0,0,-1,1770,1051,0,0
553,-27,0,0,0,0,0,0,0,0,0,-1,1777,1051,0,0
560,-27,0,0,0,0,0,0,0,0,0,-1,1784,1051,0,0
567,-27,0,0,0,0,0,0,0,0,0,-1,1791,1051,0,0
574,-27,0,0,0,0,0,0,0,0,0,-1,1798,1051,0,0
581,-27,0,0,0,0,0,0,0,0,0,-1,1805,1051,0,0
588,-27,0,0,0,0,0,0,0,0,0,-1,1812,1051,0,0
595,-27,0,0,0,0,0,0,0,0,0,-1,1819,1051,0,0
602,-27,0,0,0,0,0,0,0,0,0,-1,1826,1051,0,0
609,-27,0,0,0,0,0,0,0,0,0,-1,1833,1051,0,0
616,-27,0,0,0,0,0,0,0,0,0,-1,1840,1051,0,0
623,-27,0,0,0,0,0,0,0,0,0,-1,1847,1051,0,0
630,-27,0,0,0,0,0,0,0,0,0,-1,1854,1051,0,0
637,-27,0,0,0,0,0,0,0,0,0,-1,1861,1051,0,0
644,-27,0,0,0,0,0,0,0,0,0,-1,1868,1051,0,0
651,-27,45.1521,2.62646,0.000635898,0.00251187,-0.000731585,0.00276344,0.000384332,-1.2396,0.00172848,0.0423027,1875,1051,45.1522,-2.62646
658,-27,44.9999,2.73792,-0.000363987,0.0018654,-0.000389446,0.00193147,-0.00043006,-1.40274,0.00145238,0.0434583,1882,1051,44.9999,-2.73797
665,-27,44.976,2.6886,-0.000748654,0.00138504,-0.000118897,0.00139165,-0.000755259,-1.5153,0.00125754,0.0401332,1889,1051,44.9759,-2.68864
672,-27,45.0724,2.57092,-0.000779399,0.00102226,0.00026621,0.00106077,-0.000817911,1.42713,0.00108767,0.0304573,1896,1051,45.0724,-2.57096
679,-27,45.0579,2.63867,-0.000567216,0.000728222,0.000711568,0.00104272,-0.000881718,1.15463,0.00111237,0.0296509,1903,1051,45.0579,-2.63865
686,-27,45.0576,2.70959,-0.000420576,0.000310706,0.00117216,0.00117293,-0.0012828,0.936585,0.00141828,0.0422104,1910,1051,45.0577,-2.70958
693,-27,45.0016,2.75781,-0.000267654,-8.78727e-05,0.00159206,0.00141683,-0.00177236,0.813599,0.00184509,0.0447606,1917,1051,45.0016,-2.75777
700,-27,44.9551,2.62891,-0.00015176,-0.000329896,0.00192797,0.0016892,-0.00217085,0.762316,0.00223438,0.0380781,1924,1051,44.955,-2.62896
707,-27,45.0249,2.60107,-0.000282946,-0.000422605,0.0022396,0.00188792,-0.00259347,0.769814,0.002598,0.0233379,1931,1051,45.0249,-2.60107
714,-27,45.04,2.71631,-0.000600554,-0.000264554,0.00248413,0.00205725,-0.00292236,0.819161,0.0028894,0.0176047,1938,1051,45.0401,-2.71625
721,-27,45.0275,2.84473,0,0,0,0,0,0,0,-1,1945,1051,45.0274,-2.84469
728,-27,45.1254,5.73486,0,0,0,0,0,0,0,-1,1952,1051,45.1253,-5.73488
735,-27,44.7009,5.73376,-0.00241948,0.0013911,0.00237786,0.00253283,-0.00356122,1.12315,0.00353506,0.0294808,1959,1051,44.7009,-5.73374
742,-27,44.5179,5.67212,-0.00331689,0.00260465,0.00129557,0.0028757,-0.00358794,1.36456,0.00373933,0.0179639,1966,1051,44.518,-5.67206
749,-27,44.5737,5.54907,-0.00420969,0.00480877,2.98953e-05,0.00480887,-0.00420979,1.56748,0.00521075,0.0138548,1973,1051,44.5737,-5.54912
756,-27,44.5529,5.44678,-0.00484714,0.00768358,-0.0021464,0.00804104,-0.0052046,-1.40577,0.0077056,0.013329,1980,1051,44.5528,-5.44679
763,-27,44.5038,5.32275,-0.00527595,0.0122695,-0.00524923,0.0137201,-0.00672649,-1.30119,0.0120328,0.0141668,1987,1051,44.5037,-5.3228
770,-27,44.4391,5.2002,-0.00542773,0.018003,-0.00971946,0.0215099,-0.00893465,-1.22452,0.0180701,0.0158987,1994,1051,44.439,-5.20019
777,-27,44.3712,5.14795,-0.00481336,0.0258861,-0.015742,0.0325233,-0.0114506,-1.17179,0.0263421,0.0178149,2001,1051,44.3713,-5.14799
784,-27,44.3188,5.14502,-0.0035656,0.034934,-0.0225332,0.0453203,-0.0139519,-1.13889,0.0357827,0.0265656,2008,1051,44.3188,-5.145
791,-27,44.3074,4.96472,-0.00149934,0.045707,-0.0303919,0.0605847,-0.016377,-1.11556,0.0468136,0.0430633,2015,1051,44.3074,-4.96467
798,-27,46.05,5.4563,0,0,0,0,0,0,0,-1,2022,1051,46.0502,-5.45634
805,-27,44.4814,3.51514,0.00682604,0.0747074,-0.0496017,0.100869,-0.0193357,-1.08544,0.0745321,0.0463886,2029,1051,44.4815,-3.51515
812,-27,44.906,3.45178,0.0136283,0.0942385,-0.0603888,0.126537,-0.0186703,-1.07966,0.0912207,0.0448669,2036,1051,44.9059,-3.45178
-700,-34,-35.5437,3.92822,0,0,0,0,0,0,0,-1,524,1058,-35.5437,-3.9282
-693,-34,-35.2626,3.95337,0.261791,0.123034,-0.121647,0.332452,0.052372,-0.52624,0.206404,0.0466988,531,1058,-35.2626,-3.95336
-686,-34,-34.9972,3.96851,0.207677,0.101213,-0.0918261,0.260585,0.0483052,-0.522718,0.16007,0.0479568,538,1058,-34.9972,-3.96845
-679,-34,-31.6957,-4.33313,0.160948,0.0817838,-0.0676744,0.199766,0.042966,-0.520779,0.121417,0.0448075,545,1058,-31.6957,4.33314
-672,-34,-33.2421,1.79419,0,0,0,0,0,0,0,-1,552,1058,-33.2421,-1.79414
-665,-34,-33.0109,1.72668,0,0,0,0,0,0,0,-1,559,1058,-33.0108,-1.72663
-658,-34,-33.0479,0.972656,0,0,0,0,0,0,0,-1,566,1058,-33.0478,-0.972664
-651,-34,-32.8925,1.95752,0.043591,0.030115,-0.0143036,0.0526642,0.0210418,-0.565279,0.0306095,0.0288742,573,1058,-32.8925,-1.95752
-644,-34,-33.0956,2.05542,0.0261518,0.0231816,-0.00834023,0.0331381,0.0161952,-0.697289,0.0191339,0.0159983,580,1058,-33.0956,-2.05538
-637,-34,-33.1426,2.20544,0.0124712,0.0133527,-0.00286109,0.0158068,0.0100171,-0.861828,0.0092342,0.0179342,587,1058,-33.1427,-2.20545
-630,-34,-33.1607,2.48462,0.0036241,0.0067687,4.70384e-05,0.0067694,0.0036234,1.55584,0.00391155,0.0184267,594,1058,-33.1607,-2.48466
-623,-34,-33.1453,2.68103,-0.000586335,0.00597585,0.000172904,0.0059804,-0.000590888,1.54447,0.00419778,0.0137393,601,1058,-33.1453,-2.68104
-616,-34,-33.1257,2.90662,-0.000693352,0.00333552,-0.000553326,0.00341013,-0.000767964,-1.43676,0.00256798,0.0208166,608,1058,-33.1257,-2.90662
-609,-34,-33.1284,3.0741,-0.000607735,0.001571,-0.00104677,0.00199241,-0.00102915,-1.18807,0.0017738,0.0207448,615,1058,-33.1284,-3.07407
-602,-34,-33.131,3.21826,-0.000521434,-0.000156738,-0.00151972,0.00119154,-0.00186971,-0.845107,0.00178181,0.0158559,622,1058,-33.1311,-3.21825
-595,-34,-33.2357,3.34839,-0.000328766,-0.00118189,-0.00163032,0.000929875,-0.00244053,-0.657445,0.00201001,0.0158917,629,1058,-33.2357,-3.34839
-588,-34,-33.3829,0.762817,0,0,0,0,0,0,0,-1,636,1058,-33.3829,-0.762829
-581,-34,-33.3197,0.829346,0.000307737,-0.00204592,-0.00127766,0.000867956,-0.00260614,-0.413227,0.00208778,0.0260944,643,1058,-33.3197,-0.829359
-574,-34,-33.403,0.921997,0.000529585,-0.00224056,-0.00112544,0.000929178,-0.00264015,-0.341173,0.00213822,0.035602,650,1058,-33.403,-0.92198
-567,-34,-33.4033,0.812988,0.000648576,-0.0021528,-0.00100288,0.000970588,-0.00247481,-0.310689,0.00205142,0.0415566,657,1058,-33.4033,-0.813015
-560,-34,-33.3899,0.827148,0.000717956,-0.00178408,-0.000936141,0.00102944,-0.00209556,-0.321207,0.00183889,0.0416582,664,1058,-33.3899,-0.827179
-553,-34,-33.4187,0.799927,0.000743792,-0.00118054,-0.000997311,0.00116741,-0.00160416,-0.401666,0.00160677,0.042169,671,1058,-33.4187,-0.799889
-546,-34,-33.4055,0.751953,0.000732331,-0.000446953,-0.00122004,0.00149775,-0.00121237,-0.560301,0.00156758,0.0443933,678,1058,-33.4055,-0.751971
-539,-34,-33.3856,0.892578,0.000466227,0.000269608,-0.0019441,0.0023145,-0.00157866,-0.760135,0.00226106,0.0440755,685,1058,-33.3856,-0.892614
-532,-34,-33.5051,1.02844,4.60933e-06,0.00136627,-0.00223368,0.00302058,-0.0016497,-0.933326,0.00273483,0.0419985,692,1058,-33.5051,-1.02842
-525,-34,0,0,0,0,0,0,0,0,0,-1,699,1058,0,0
-518,-34,0,0,0,0,0,0,0,0,0,-1,706,1058,0,0
-511,-34,0,0,0,0,0,0,0,0,0,-1,713,1058,0,0
-504,-34,0,0,0,0,0,0,0,0,0,-1,720,1058,0,0
-497,-34,0,0,0,0,0,0,0,0,0,-1,727,1058,0,0
-490,-34,0,0,0,0,0,0,0,0,0,-1,734,1058,0,0
-483,-34,0,0,0,0,0,0,0,0,0,-1,741,1058,0,0
-476,-34,0,0,0,0,0,0,0,0,0,-1,748,1058,0,0
-469,-34,0,0,0,0,0,0,0,0,0,-1,755,1058,0,0
-462,-34,0,0,0,0,0,0,0,0,0,-1,762,1058,0,0
-455,-34,0,0,0,0,0,0,0,0,0,-1,769,1058,0,0
-448,-34,0,0,0,0,0,0,0,0,0,-1,776,1058,0,0
-441,-34,0,0,0,0,0,0,0,0,0,-1,783,1058,0,0
-434,-34,0,0,0,0,0,0,0,0,0,-1,790,1058,0,0
-427,-34,0,0,0,0,0,0,0,0,0,-1,797,1058,0,0
-420,-34,0,0,0,0,0,0,0,0,0,-1,804,1058,0,0
-413,-34,0,0,0,0,0,0,0,0,0,-1,811,1058,0,0
-406,-34,0,0,0,0,0,0,0,0,0,-1,818,1058,0,0
-399,-34,0,0,0,0,0,0,0,0,0,-1,825,1058,0,0
-392,-34,0,0,0,0,0,0,0,0,0,-1,832,1058,0,0
-385,-34,0,0,0,0,0,0,0,0,0,-1,839,1058,0,0
-378,-34,0,0,0,0,0,0,0,0,0,-1,846,1058,0,0
-371,-34,0,0,0,0,0,0,0,0,0,-1,853,1058,0,0
-364,-34,0,0,0,0,0,0,0,0,0,-1,860,1058,0,0
-357,-34,0,0,0,0,0,0,0,0,0,-1,867,1058,0,0
-350,-34,0,0,0,0,0,0,0,0,0,-1,874,1058,0,0
-343,-34,0,0,0,0,0,0,0,0,0,-1,881,1058,0,0
-336,-34,0,0,0,0,0,0,0,0,0,-1,888,1058,0,0
-329,-34,0,0,0,0,0,0,0,0,0,-1,895,1058,0,0
-322,-34,0,0,0,0,0,0,0,0,0,-1,902,1058,0,0
-315,-34,0,0,0,0,0,0,0,0,0,-1,909,1058,0,0
-308,-34,0,0,0,0,0,0,0,0,0,-1,916,1058,0,0
-301,-34,0,0,0,0,0,0,0,0,0,-1,923,1058,0,0
-294,-34,0,0,0,0,0,0,0,0,0,-1,930,1058,0,0
-287,-34,0,0,0,0,0,0,0,0,0,-1,937,1058,0,0
-280,-34,0,0,0,0,0,0,0,0,0,-1,944,1058,0,0
-273,-34,0,0,0,0,0,0,0,0,0,-1,951,1058,0,0
-266,-34,0,0,0,0,0,0,0,0,0,-1,958,1058,0,0
-259,-34,0,0,0,0,0,0,0,0,0,-1,965,1058,0,0
-252,-34,0,0,0,0,0,0,0,0,0,-1,972,1058,0,0
-245,-34,0,0,0,0,0,0,0,0,0,-1,979,1058,0,0
-238,-34,0,0,0,0,0,0,0,0,0,-1,986,1058,0,0
-231,-34,0,0,0,0,0,0,0,0,0,-1,993,1058,0,0
-224,-34,0,0,0,0,0,0,0,0,0,-1,1000,1058,0,0
-217,-34,0,0,0,0,0,0,0,0,0,-1,1007,1058,0,0
-210,-34,0,0,0,0,0,0,0,0,0,-1,1014,1058,0,0
-203,-34,0,0,0,0,0,0,0,0,0,-1,1021,1058,0,0
-196,-34,0,0,0,0,0,0,0,0,0,-1,1028,1058,0,0
-189,-34,0,0,0,0,0,0,0,0,0,-1,1035,1058,0,0
-182,-34,0,0,0,0,0,0,0,0,0,-1,1042,1058,0,0
-175,-34,0,0,0,0,0,0,0,0,0,-1,1049,1058,0,0
-168,-34,0,0,0,0,0,0,0,0,0,-1,1056,1058,0,0
-161,-34,0,0,0,0,0,0,0,0,0,-1,1063,1058,0,0
-154,-34,0,0,0,0,0,0,0,0,0,-1,1070,1058,0,0
-147,-34,0,0,0,0,0,0,0,0,0,-1,1077,1058,0,0
-140,-34,0,0,0,0,0,0,0,0,0,-1,1084,1058,0,0
-133,-34,0,0,0,0,0,0,0,0,0,-1,1091,1058,0,0
-126,-34,0,0,0,0,0,0,0,0,0,-1,1098,1058,0,0
-119,-34,0,0,0,0,0,0,0,0,0,-1,1105,1058,0,0
-112,-34,0,0,0,0,0,0,0,0,0,-1,1112,1058,0,0
-105,-34,0,0,0,0,0,0,0,0,0,-1,1119,1058,0,0
-98,-34,0,0,0,0,0,0,0,0,0,-1,1126,1058,0,0
-91,-34,0,0,0,0,0,0,0,0,0,-1,1133,1058,0,0
-84,-34,0,0,0,0,0,0,0,0,0,-1,1140,1058,0,0
-77,-34,0,0,0,0,0,0,0,0,0,-1,1147,1058,0,0
-70,-34,0,0,0,0,0,0,0,0,0,-1,1154,1058,0,0
-63,-34,0,0,0,0,0,0,0,0,0,-1,1161,1058,0,0
-56,-34,0,0,0,0,0,0,0,0,0,-1,1168,1058,0,0
-49,-34,0,0,0,0,0,0,0,0,0,-1,1175,1058,0,0
-42,-34,0,0,0,0,0,0,0,0,0,-1,1182,1058,0,0
-35,-34,0,0,0,0,0,0,0,0,0,-1,1189,1058,0,0
-28,-34,0,0,0,0,0,0,0,0,0,-1,1196,1058,0,0
-21,-34,0,0,0,0,0,0,0,0,0,-1,1203,1058,0,0
-14,-34,0,0,0,0,0,0,0,0,0,-1,1210,1058,0,0
-7,-34,0,0,0,0,0,0,0,0,0,-1,1217,1058,0,0
0,-34,0,0,0,0,0,0,0,0,0,-1,1224,1058,0,0
7,-34,0,0,0,0,0,0,0,0,0,-1,1231,1058,0,0
14,-34,0,0,0,0,0,0,0,0,0,-1,1238,1058,0,0
21,-34,0,0,0,0,0,0,0,0,0,-1,1245,1058,0,0
28,-34,0,0,0,0,0,0,0,0,0,-1,1252,1058,0,0
35,-34,0,0,0,0,0,0,0,0,0,-1,1259,1058,0,0
42,-34,0,0,0,0,0,0,0,0,0,-1,1266,1058,0,0
49,-34,0,0,0,0,0,0,0,0,0,-1,1273,1058,0,0
56,-34,0,0,0,0,0,0,0,0,0,-1,1280,1058,0,0
63,-34,0,0,0,0,0,0,0,0,0,-1,1287,1058,0,0
70,-34,0,0,0,0,0,0,0,0,0,-1,1294,1058,0,0
77,-34,0,0,0,0,0,0,0,0,0,-1,1301,1058,0,0
84,-34,0,0,0,0,0,0,0,0,0,-1,1308,1058,0,0
91,-34,0,0,0,0,0,0,0,0,0,-1,1315,1058,0,0
98,-34,0,0,0,0,0,0,0,0,0,-1,1322,1058,0,0
105,-34,0,0,0,0,0,0,0,0,0,-1,1329,1058,0,0
112,-34,0,0,0,0,0,0,0,0,0,-1,1336,1058,0,0
119,-34,0,0,0,0,0,0,0,0,0,-1,1343,1058,0,0
126,-34,0,0,0,0,0,0,0,0,0,-1,1350,1058,0,0
133,-34,0,0,0,0,0,0,0,0,0,-1,1357,1058,0,0
140,-34,0,0,0,0,0,0,0,0,0,-1,1364,1058,0,0
147,-34,0,0,0,0,0,0,0,0,0,-1,1371,1058,0,0
154,-34,0,0,0,0,0,0,0,0,0,-1,1378,1058,0,0
161,-34,0,0,0,0,0,0,0,0,0,-1,1385,1058,0,0
168,-34,0,0,0,0,0,0,0,0,0,-1,1392,1058,0,0
175,-34,0,0,0,0,0,0,0,0,0,-1,1399,1058,0,0
182,-34,0,0,0,0,0,0,0,0,0,-1,1406,1058,0,0
189,-34,0,0,0,0,0,0,0,0,0,-1,1413,1058,0,0
196,-34,0,0,0,0,0,0,0,0,0,-1,1420,1058,0,0
203,-34,0,0,0,0,0,0,0,0,0,-1,1427,1058,0,0
210,-34,0,0,0,0,0,0,0,0,0,-1,1434,1058,0,0
217,-34,0,0,0,0,0,0,0,0,0,-1,1441,1058,0,0
224,-34,0,0,0,0,0,0,0,0,0,-1,1448,1058,0,0
231,-34,0,0,0,0,0,0,0,0,0,-1,1455,1058,0,0
238,-34,0,0,0,0,0,0,0,0,0,-1,1462,1058,0,0
245,-34,0,0,0,0,0,0,0,0,0,-1,1469,1058,0,0
252,-34,0,0,0,0,0,0,0,0,0,-1,1476,1058,0,0
259,-34,0,0,0,0,0,0,0,0,0,-1,1483,1058,0,0
266,-34,0,0,0,0,0,0,0,0,0,-1,1490,1058,0,0
273,-34,0,0,0,0,0,0,0,0,0,-1,1497,1058,0,0
280,-34,0,0,0,0,0,0,0,0,0,-1,1504,1058,0,0
287,-34,0,0,0,0,0,0,0,0,0,-1,1511,1058,0,0
294,-34,0,0,0,0,0,0,0,0,0,-1,1518,1058,0,0
301,-34,0,0,0,0,0,0,0,0,0,-1,1525,1058,0,0
308,-34,0,0,0,0,0,0,0,0,0,-1,1532,1058,0,0
315,-34,0,0,0,0,0,0,0,0,0,-1,1539,1058,0,0
322,-34,0,0,0,0,0,0,0,0,0,-1,1546,1058,0,0
329,-34,0,0,0,0,0,0,0,0,0,-1,1553,1058,0,0
336,-34,0,0,0,0,0,0,0,0,0,-1,1560,1058,0,0
343,-34,0,0,0,0,0,0,0,0,0,-1,1567,1058,0,0
350,-34,0,0,0,0,0,0,0,0,0,-1,1574,1058,0,0
357,-34,0,0,0,0,0,0,0,0,0,-1,1581,1058,0,0
364,-34,0,0,0,0,0,0,0,0,0,-1,1588,1058,0,0
371,-34,0,0,0,0,0,0,0,0,0,-1,1595,1058,0,0
378,-34,0,0,0,0,0,0,0,0,0,-1,1602,1058,0,0
385,-34,0,0,0,0,0,0,0,0,0,-1,1609,1058,0,0
392,-34,0,0,0,0,0,0,0,0,0,-1,1616,1058,0,0
399,-34,0,0,0,0,0,0,0,0,0,-1,1623,1058,0,0
406,-34,0,0,0,0,0,0,0,0,0,-1,1630,1058,0,0
413,-34,0,0,0,0,0,0,0,0,0,-1,1637,1058,0,0
420,-34,0,0,0,0,0,0,0,0,0,-1,1644,1058,0,0
427,-34,0,0,0,0,0,0,0,0,0,-1,1651,1058,0,0
434,-34,0,0,0,0,0,0,0,0,0,-1,1658,1058,0,0
441,-34,0,0,0,0,0,0,0,0,0,-1,1665,1058,0,0
448,-34,0,0,0,0,0,0,0,0,0,-1,1672,1058,0,0
455,-34,0,0,0,0,0,0,0,0,0,-1,1679,1058,0,0
462,-34,0,0,0,0,0,0,0,0,0,-1,1686,1058,0,0
469,-34,0,0,0,0,0,0,0,0,0,-1,1693,1058,0,0
476,-34,0,0,0,0,0,0,0,0,0,-1,1700,1058,0,0
483,-34,0,0,0,0,0,0,0,0,0,-1,1707,1058,0,0
490,-34,0,0,0,0,0,0,0,0,0,-1,1714,1058,0,0
497,-34,0,0,0,0,0,0,0,0,0,-1,1721,1058,0,0
504,-34,0,0,0,0,0,0,0,0,0,-1,1728,1058,0,0
511,-34,0,0,0,0,0,0,0,0,0,-1,1735,1058,0,0
518,-34,0,0,0,0,0,0,0,0,0,-1,1742,1058,0,0
525,-34,0,0,0,0,0,0,0,0,0,-1,1749,1058,0,0
532,-34,0,0,0,0,0,0,0,0,0,-1,1756,1058,0,0
539,-34,0,0,0,0,0,0,0,0,0,-1,1763,1058,0,0
546,-34,0,0,0,0,0,0,0,0,0,-1,1770,1058,0,0
553,-34,0,0,0,0,0,0,0,0,0,-1,1777,1058,0,0
560,-34,0,0,0,0,0,0,0,0,0,-1,1784,1058,0,0
567,-34,0,0,0,0,0,0,0,0,0,-1,1791,1058,0,0
574,-34,0,0,0,0,0,0,0,0,0,-1,1798,1058,0,0
581,-34,0,0,0,0,0,0,0,0,0,-1,1805,1058,0,0
588,-34,0,0,0,0,0,0,0,0,0,-1,1812,1058,0,0
595,-34,0,0,0,0,0,0,0,0,0,-1,1819,1058,0,0
602,-34,0,0,0,0,0,0,0,0,0,-1,1826,1058,0,0
609,-34,0,0,0,0,0,0,0,0,0,-1,1833,1058,0,0
616,-34,0,0,0,0,0,0,0,0,0,-1,1840,1058,0,0
623,-34,0,0,0,0,0,0,0,0,0,-1,1847,1058,0,0
630,-34,0,0,0,0,0,0,0,0,0,-1,1854,1058,0,0
637,-34,0,0,0,0,0,0,0,0,0,-1,1861,1058,0,0
644,-34,0,0,0,0,0,0,0,0,0,-1,1868,1058,0,0
651,-34,45.1165,2.68176,0.000653408,0.00173993,-0.000562723,0.00197884,0.0004145,-1.1693,0.00120506,0.0396214,1875,1058,45.1165,-2.68178
658,-34,45.1532,2.79236,-0.000385495,0.00128309,-0.00014434,0.00129549,-0.000397889,-1.48514,0.00102243,0.0456469,1882,1058,45.1532,-2.79231
665,-34,45.1582,2.64124,-0.000779416,0.000981814,0.000117979,0.000989682,-0.000787284,1.50421,0.00102815,0.0424656,1889,1058,45.1583,-2.64121
672,-34,45.0728,2.54016,-0.000792163,0.000736948,0.00046555,0.000867536,-0.000922751,1.29732,0.00103379,0.0375503,1896,1058,45.0728,-2.54022
679,-34,44.8518,2.88123,-0.000580833,0.000523072,0.000819746,0.000959368,-0.00101713,1.0817,0.00114129,0.0375988,1903,1058,44.8518,-2.88121
686,-34,44.9327,3.05139,-0.000462323,0.000144218,0.00118214,0.00106137,-0.00137947,0.910962,0.0014132,0.0444516,1910,1058,44.9327,-3.05145
693,-34,44.9569,2.8844,-0.000338161,-0.000242935,0.00152173,0.00123193,-0.00181302,0.801037,0.00176864,0.044383,1917,1058,44.9569,-2.88437
700,-34,44.9346,2.60315,-0.000250173,-0.000486716,0.00181385,0.00144926,-0.00218615,0.752842,0.00211323,0.0393547,1924,1058,44.9346,-2.60311
707,-34,44.9863,2.61353,-0.000412681,-0.0005982,0.00208079,0.00157741,-0.00258829,0.763123,0.00242856,0.0239103,1931,1058,44.9863,-2.61351
714,-34,45.0035,2.70593,-0.000739287,-0.000466323,0.00229498,0.00169623,-0.00290184,0.815098,0.00268494,0.0169145,1938,1058,45.0036,-2.70588
721,-34,45.0837,3.11951,0,0,0,0,0,0,0,-1,1945,1058,45.0838,-3.11949
728,-34,44.6061,5.85254,0,0,0,0,0,0,0,-1,1952,1058,44.6061,-5.85259
735,-34,44.4406,5.7998,-0.0023831,0.00108229,0.00226451,0.00220095,-0.00350176,1.11196,0.00332089,0.0190779,1959,1058,44.4405,-5.79984
742,-34,44.3567,5.69629,-0.00313153,0.00230558,0.00120426,0.00256037,-0.00338632,1.3623,0.00344434,0.0165404,1966,1058,44.3567,-5.6963
749,-34,44.3948,5.573,-0.00382575,0.00458204,-0.000122802,0.00458383,-0.00382754,-1.55619,0.00486285,0.0140735,1973,1058,44.3947,-5.57296
756,-34,44.4113,5.41003,-0.0042496,0.00757064,-0.00239131,0.00803609,-0.00471505,-1.37856,0.00744464,0.0108308,1980,1058,44.4113,-5.41003
763,-34,44.3479,5.26404,-0.00447723,0.0122591,-0.00567194,0.0140001,-0.00621832,-1.27296,0.0119579,0.0119642,1987,1058,44.3479,-5.26407
770,-34,44.2622,5.13489,-0.00431641,0.0182316,-0.010414,0.0223054,-0.00839022,-1.19791,0.0183191,0.017386,1994,1058,44.2622,-5.13484
777,-34,44.1696,5.06189,-0.00336947,0.0264137,-0.0168705,0.0340248,-0.0109806,-1.14698,0.0270955,0.0185061,2001,1058,44.1696,-5.06184
784,-34,44.0447,5.03455,-0.00187488,0.035768,-0.0241656,0.047577,-0.0136838,-1.11625,0.0371295,0.0342504,2008,1058,44.0446,-5.03453
791,-34,44.0039,4.78711,0,0,0,0,0,0,0,-1,2015,1058,44.0038,-4.78715
798,-34,45.2859,4.15991,0.00364841,0.0600671,-0.0421554,0.0825809,-0.0188655,-1.08027,0.0623019,0.048655,2022,1058,45.2858,-4.15994
805,-34,45.2224,3.47131,0.008511,0.076165,-0.0527737,0.105022,-0.0203463,-1.0704,0.0776902,0.0460174,2029,1058,45.2225,-3.47126
812,-34,44.7769,1.97791,0.0149743,0.095687,-0.0639468,0.130947,-0.0202857,-1.06688,0.0947862,0.0495463,2036,1058,44.7768,-1.97795
-700,-41,-36.6263,4.25354,0.366044,0.170797,-0.178344,0.471736,0.0651057,-0.53498,0.295192,0.0454118,524,1065,-36.6264,-4.25349
-693,-41,-35.6628,4.35767,0.299909,0.142228,-0.136624,0.378809,0.0633292,-0.523706,0.2343,0.0444662,531,1065,-35.6628,-4.3577
-686,-41,-32.4044,-2.93579,0.238483,0.114909,-0.101551,0.295566,0.0578253,-0.512098,0.180877,0.047368,538,1065,-32.4044,2.93577
-679,-41,-32.2196,-3.39075,0.185947,0.0914533,-0.0738053,0.226333,0.0510674,-0.500687,0.137074,0.043291,545,1065,-32.2196,3.39069
-672,-41,-32.0266,-3.8656,0,0,0,0,0,0,0,-1,552,1065,-32.0266,3.86565
-665,-41,-33.4495,-0.0491943,0,0,0,0,0,0,0,-1,559,1065,-33.4494,0.0491416
-658,-41,-33.0704,0.819336,0.0751975,0.0421942,-0.0228165,0.0868543,0.0305374,-0.472323,0.0508763,0.0383835,566,1065,-33.0704,-0.819363
-651,-41,-32.6498,1.81165,0.051851,0.0314822,-0.0139577,0.0589449,0.0243884,-0.47022,0.0342002,0.0299234,573,1065,-32.6498,-1.81162
-644,-41,-32.8899,2.01672,0.0316663,0.0239494,-0.00746217,0.0362086,0.0194071,-0.546792,0.0209231,0.0168329,580,1065,-32.8899,-2.01668
-637,-41,-32.9498,2.19373,0.0157245,0.0127843,-0.00141466,0.0162946,0.0122142,-0.38309,0.00979059,0.0186227,587,1065,-32.9498,-2.19375
-630,-41,-32.9297,2.41931,0.00558308,0.00603111,0.00131958,0.00714556,0.00446863,0.869478,0.0041685,0.0146492,594,1065,-32.9297,-2.41935
-623,-41,-32.8904,2.63586,0.0006663,0.00541651,0.00116885,0.00568854,0.00039427,1.34213,0.00366801,0.0121776,601,1065,-32.8905,-2.63588
-616,-41,-32.8854,2.90137,-4.61836e-05,0.0028517,0.000231232,0.00287003,-6.45184e-05,1.49167,0.00193522,0.016614,608,1065,-32.8854,-2.90141
-609,-41,-32.8717,3.12134,-0.000407789,0.00120396,-0.000355944,0.00127907,-0.000482897,-1.36284,0.00105132,0.0227802,615,1065,-32.8717,-3.12131
-602,-41,-32.9205,3.26331,-0.000363687,-0.000492897,-0.000849409,0.00042357,-0.00128015,-0.747442,0.00102425,0.0135017,622,1065,-32.9205,-3.26327
-595,-41,-33.0275,3.39783,-0.000152414,-0.00148602,-0.00107266,0.000443803,-0.00208223,-0.50731,0.00155731,0.0221394,629,1065,-33.0275,-3.3978
-588,-41,-33.2753,1.95105,0,0,0,0,0,0,0,-1,636,1065,-33.2754,-1.95099
-581,-41,-33.3718,0.791138,0.000494387,-0.00214784,-0.000822507,0.000729505,-0.00238296,-0.278431,0.0018796,0.035418,643,1065,-33.3718,-0.791152
-574,-41,-33.4701,1.03503,0.00074072,-0.00223958,-0.000748003,0.00091792,-0.00241678,-0.232609,0.00198906,0.036314,650,1065,-33.4701,-1.03498
-567,-41,-33.5518,1.10095,0.000913248,-0.00204286,-0.000749166,0.00109227,-0.00222188,-0.23456,0.00195012,0.0417758,657,1065,-33.5518,-1.10096
-560,-41,-33.5299,1.073,0.00104054,-0.00155184,-0.000860249,0.00130003,-0.00181133,-0.292964,0.00180441,0.0430719,664,1065,-33.5299,-1.07301
-553,-41,-33.4566,0.786255,0.00114152,-0.000794825,-0.00115112,0.00167749,-0.00133079,-0.435756,0.00174067,0.0428663,671,1065,-33.4566,-0.786197
-546,-41,-33.2712,0.666016,0.00121168,0.000143286,-0.0016377,0.0024001,-0.00104514,-0.627745,0.00203974,0.0398436,678,1065,-33.2712,-0.666047
-539,-41,-33.3446,0.804321,0.00105171,0.00104142,-0.00257955,0.00362612,-0.00153299,-0.784401,0.00305924,0.0409047,685,1065,-33.3446,-0.804299
-532,-41,-33.4607,0.956665,0.00058983,0.00222989,-0.00286476,0.00438968,-0.00156996,-0.924794,0.00356686,0.0403693,692,1065,-33.4607,-0.956637
-525,-41,0,0,0,0,0,0,0,0,0,-1,699,1065,0,0
-518,-41,0,0,0,0,0,0,0,0,0,-1,706,1065,0,0
-511,-41,0,0,0,0,0,0,0,0,0,-1,713,1065,0,0
-504,-41,0,0,0,0,0,0,0,0,0,-1,720,1065,0,0
-497,-41,0,0,0,0,0,0,0,0,0,-1,727,1065,0,0
-490,-41,0,0,0,0,0,0,0,0,0,-1,734,1065,0,0
-483,-41,0,0,0,0,0,0,0,0,0,-1,741,1065,0,0
-476,-41,0,0,0,0,0,0,0,0,0,-1,748,1065,0,0
-469,-41,0,0,0,0,0,0,0,0,0,-1,755,1065,0,0
-462,-41,0,0,0,0,0,0,0,0,0,-1,762,1065,0,0
-455,-41,0,0,0,0,0,0,0,0,0,-1,769,1065,0,0
-448,-41,0,0,0,0,0,0,0,0,0,-1,776,1065,0,0
-441,-41,0,0,0,0,0,0,0,0,0,-1,783,1065,0,0
-434,-41,0,0,0,0,0,0,0,0,0,-1,790,1065,0,0
-427,-41,0,0,0,0,0,0,0,0,0,-1,797,1065,0,0
-420,-41,0,0,0,0,0,0,0,0,0,-1,804,1065,0,0
-413,-41,0,0,0,0,0,0,0,0,0,-1,811,1065,0,0
-406,-41,0,0,0,0,0,0,0,0,0,-1,818,1065,0,0
-399,-41,0,0,0,0,0,0,0,0,0,-1,825,1065,0,0
-392,-41,0,0,0,0,0,0,0,0,0,-1,832,1065,0,0
-385,-41,0,0,0,0,0,0,0,0,0,-1,839,1065,0,0
-378,-41,0,0,0,0,0,0,0,0,0,-1,846,1065,0,0
-371,-41,0,0,0,0,0,0,0,0,0,-1,853,1065,0,0
-364,-41,0,0,0,0,0,0,0,0,0,-1,860,1065,0,0
-357,-41,0,0,0,0,0,0,0,0,0,-1,867,1065,0,0
-350,-41,0,0,0,0,0,0,0,0,0,-1,874,1065,0,0
-343,-41,0,0,0,0,0,0,0,0,0,-1,881,1065,0,0
-336,-41,0,0,0,0,0,0,0,0,0,-1,888,1065,0,0
-329,-41,0,0,0,0,0,0,0,0,0,-1,895,1065,0,0
-322,-41,0,0,0,0,0,0,0,0,0,-1,902,1065,0,0
-315,-41,0,0,0,0,0,0,0,0,0,-1,909,1065,0,0
-308,-41,0,0,0,0,0,0,0,0,0,-1,916,1065,0,0
-301,-41,0,0,0,0,0,0,0,0,0,-1,923,1065,0,0
-294,-41,0,0,0,0,0,0,0,0,0,-1,930,1065,0,0
-287,-41,0,0,0,0,0,0,0,0,0,-1,937,1065,0,0
-280,-41,0,0,0,0,0,0,0,0,0,-1,944,1065,0,0
-273,-41,0,0,0,0,0,0,0,0,0,-1,951,1065,0,0
-266,-41,0,0,0,0,0,0,0,0,0,-1,958,1065,0,0
-259,-41,0,0,0,0,0,0,0,0,0,-1,965,1065,0,0
-252,-41,0,0,0,0,0,0,0,0,0,-1,972,1065,0,0
-245,-41,0,0,0,0,0,0,0,0,0,-1,979,1065,0,0
-238,-41,0,0,0,0,0,0,0,0,0,-1,986,1065,0,0
-231,-41,0,0,0,0,0,0,0,0,0,-1,993,1065,0,0
-224,-41,0,0,0,0,0,0,0,0,0,-1,1000,1065,0,0
-217,-41,0,0,0,0,0,0,0,0,0,-1,1007,1065,0,0
-210,-41,0,0,0,0,0,0,0,0,0,-1,1014,1065,0,0
-203,-41,0,0,0,0,0,0,0,0,0,-1,1021,1065,0,0
-196,-41,0,0,0,0,0,0,0,0,0,-1,1028,1065,0,0
-189,-41,0,0,0,0,0,0,0,0,0,-1,1035,1065,0,0
-182,-41,0,0,0,0,0,0,0,0,0,-1,1042,1065,0,0
-175,-41,0,0,0,0,0,0,0,0,0,-1,1049,1065,0,0
-168,-41,0,0,0,0,0,0,0,0,0,-1,1056,1065,0,0
-161,-41,0,0,0,0,0,0,0,0,0,-1,1063,1065,0,0
-154,-41,0,0,0,0,0,0,0,0,0,-1,1070,1065,0,0
-147,-41,0,0,0,0,0,0,0,0,0,-1,1077,1065,0,0
-140,-41,0,0,0,0,0,0,0,0,0,-1,1084,1065,0,0
-133,-41,0,0,0,0,0,0,0,0,0,-1,1091,1065,0,0
-126,-41,0,0,0,0,0,0,0,0,0,-1,1098,1065,0,0
-119,-41,0,0,0,0,0,0,0,0,0,-1,1105,1065,0,0
-112,-41,0,0,0,0,0,0,0,0,0,-1,1112,1065,0,0
-105,-41,0,0,0,0,0,0,0,0,0,-1,1119,1065,0,0
-98,-41,0,0,0,0,0,0,0,0,0,-1,1126,1065,0,0
-91,-41,0,0,0,0,0,0,0,0,0,-1,1133,1065,0,0
-84,-41,0,0,0,0,0,0,0,0,0,-1,1140,1065,0,0
-77,-41,0,0,0,0,0,0,0,0,0,-1,1147,1065,0,0
-70,-41,0,0,0,0,0,0,0,0,0,-1,1154,1065,0,0
-63,-41,0,0,0,0,0,0,0,0,0,-1,1161,1065,0,0
-56,-41,0,0,0,0,0,0,0,0,0,-1,1168,1065,0,0
-49,-41,0,0,0,0,0,0,0,0,0,-1,1175,1065,0,0
-42,-41,0,0,0,0,0,0,0,0,0,-1,1182,1065,0,0
-35,-41,0,0,0,0,0,0,0,0,0,-1,1189,1065,0,0
-28,-41,0,0,0,0,0,0,0,0,0,-1,1196,1065,0,0
-21,-41,0,0,0,0,0,0,0,0,0,-1,1203,1065,0,0
-14,-41,0,0,0,0,0,0,0,0,0,-1,1210,1065,0,0
-7,-41,0,0,0,0,0,0,0,0,0,-1,1217,1065,0,0
0,-41,0,0,0,0,0,0,0,0,0,-1,1224,1065,0,0
7,-41,0,0,0,0,0,0,0,0,0,-1,1231,1065,0,0
14,-41,0,0,0,0,0,0,0,0,0,-1,1238,1065,0,0
21,-41,0,0,0,0,0,0,0,0,0,-1,1245,1065,0,0
28,-41,0,0,0,0,0,0,0,0,0,-1,1252,1065,0,0
35,-41,0,0,0,0,0,0,0,0,0,-1,1259,1065,0,0
42,-41,0,0,0,0,0,0,0,0,0,-1,1266,1065,0,0
49,-41,0,0,0,0,0,0,0,0,0,-1,1273,1065,0,0
56,-41,0,0,0,0,0,0,0,0,0,-1,1280,1065,0,0
63,-41,0,0,0,0,0,0,0,0,0,-1,1287,1065,0,0
70,-41,0,0,0,0,0,0,0,0,0,-1,1294,1065,0,0
77,-41,0,0,0,0,0,0,0,0,0,-1,1301,1065,0,0
84,-41,0,0,0,0,0,0,0,0,0,-1,1308,1065,0,0
91,-41,0,0,0,0,0,0,0,0,0,-1,1315,1065,0,0
98,-41,0,0,0,0,0,0,0,0,0,-1,1322,1065,0,0
105,-41,0,0,0,0,0,0,0,0,0,-1,1329,1065,0,0
112,-41,0,0,0,0,0,0,0,0,0,-1,1336,1065,0,0
119,-41,0,0,0,0,0,0,0,0,0,-1,1343,1065,0,0
126,-41,0,0,0,0,0,0,0,0,0,-1,1350,1065,0,0
133,-41,0,0,0,0,0,0,0,0,0,-1,1357,1065,0,0
140,-41,0,0,0,0,0,0,0,0,0,-1,1364,1065,0,0
147,-41,0,0,0,0,0,0,0,0,0,-1,1371,1065,0,0
154,-41,0,0,0,0,0,0,0,0,0,-1,1378,1065,0,0
161,-41,0,0,0,0,0,0,0,0,0,-1,1385,1065,0,0
168,-41,0,0,0,0,0,0,0,0,0,-1,1392,1065,0,0
175,-41,0,0,0,0,0,0,0,0,0,-1,1399,1065,0,0
182,-41,0,0,0,0,0,0,0,0,0,-1,1406,1065,0,0
189,-41,0,0,0,0,0,0,0,0,0,-1,1413,1065,0,0
196,-41,0,0,0,0,0,0,0,0,0,-1,1420,1065,0,0
203,-41,0,0,0,0,0,0,0,0,0,-1,1427,1065,0,0
210,-41,0,0,0,0,0,0,0,0,0,-1,1434,1065,0,0
217,-41,0,0,0,0,0,0,0,0,0,-1,1441,1065,0,0
224,-41,0,0,0,0,0,0,0,0,0,-1,1448,1065,0,0
231,-41,0,0,0,0,0,0,0,0,0,-1,1455,1065,0,0
238,-41,0,0,0,0,0,0,0,0,0,-1,1462,1065,0,0
245,-41,0,0,0,0,0,0,0,0,0,-1,1469,1065,0,0
252,-41,0,0,0,0,0,0,0,0,0,-1,1476,1065,0,0
259,-41,0,0,0,0,0,0,0,0,0,-1,1483,1065,0,0
266,-41,0,0,0,0,0,0,0,0,0,-1,1490,1065,0,0
273,-41,0,0,0,0,0,0,0,0,0,-1,1497,1065,0,0
280,-41,0,0,0,0,0,0,0,0,0,-1,1504,1065,0,0
287,-41,0,0,0,0,0,0,0,0,0,-1,1511,1065,0,0
294,-41,0,0,0,0,0,0,0,0,0,-1,1518,1065,0,0
301,-41,0,0,0,0,0,0,0,0,0,-1,1525,1065,0,0
308,-41,0,0,0,0,0,0,0,0,0,-1,1532,1065,0,0
315,-41,0,0,0,0,0,0,0,0,0,-1,1539,1065,0,0
322,-41,0,0,0,0,0,0,0,0,0,-1,1546,1065,0,0
329,-41,0,0,0,0,0,0,0,0,0,-1,1553,1065,0,0
336,-41,0,0,0,0,0,0,0,0,0,-1,1560,1065,0,0
343,-41,0,0,0,0,0,0,0,0,0,-1,1567,1065,0,0
350,-41,0,0,0,0,0,0,0,0,0,-1,1574,1065,0,0
357,-41,0,0,0,0,0,0,0,0,0,-1,1581,1065,0,0
364,-41,0,0,0,0,0,0,0,0,0,-1,1588,1065,0,0
371,-41,0,0,0,0,0,0,0,0,0,-1,1595,1065,0,0
378,-41,0,0,0,0,0,0,0,0,0,-1,1602,1065,0,0
385,-41,0,0,0,0,0,0,0,0,0,-1,1609,1065,0,0
392,-41,0,0,0,0,0,0,0,0,0,-1,1616,1065,0,0
399,-41,0,0,0,0,0,0,0,0,0,-1,1623,1065,0,0
406,-41,0,0,0,0,0,0,0,0,0,-1,1630,1065,0,0
413,-41,0,0,0,0,0,0,0,0,0,-1,1637,1065,0,0
420,-41,0,0,0,0,0,0,0,0,0,-1,1644,1065,0,0
427,-41,0,0,0,0,0,0,0,0,0,-1,1651,1065,0,0
434,-41,0,0,0,0,0,0,0,0,0,-1,1658,1065,0,0
441,-41,0,0,0,0,0,0,0,0,0,-1,1665,1065,0,0
448,-41,0,0,0,0,0,0,0,0,0,-1,1672,1065,0,0
455,-41,0,0,0,0,0,0,0,0,0,-1,1679,1065,0,0
462,-41,0,0,0,0,0,0,0,0,0,-1,1686,1065,0,0
469,-41,0,0,0,0,0,0,0,0,0,-1,1693,1065,0,0
476,-41,0,0,0,0,0,0,0,0,0,-1,1700,1065,0,0
483,-41,0,0,0,0,0,0,0,0,0,-1,1707,1065,0,0
490,-41,0,0,0,0,0,0,0,0,0,-1,1714,1065,0,0
497,-41,0,0,0,0,0,0,0,0,0,-1,1721,1065,0,0
504,-41,0,0,0,0,0,0,0,0,0,-1,1728,1065,0,0
511,-41,0,0,0,0,0,0,0,0,0,-1,1735,1065,0,0
518,-41,0,0,0,0,0,0,0,0,0,-1,1742,1065,0,0
525,-41,0,0,0,0,0,0,0,0,0,-1,1749,1065,0,0
532,-41,0,0,0,0,0,0,0,0,0,-1,1756,1065,0,0
539,-41,0,0,0,0,0,0,0,0,0,-1,1763,1065,0,0
546,-41,0,0,0,0,0,0,0,0,0,-1,1770,1065,0,0
553,-41,0,0,0,0,0,0,0,0,0,-1,1777,1065,0,0
560,-41,0,0,0,0,0,0,0,0,0,-1,1784,1065,0,0
567,-41,0,0,0,0,0,0,0,0,0,-1,1791,1065,0,0
574,-41,0,0,0,0,0,0,0,0,0,-1,1798,1065,0,0
581,-41,0,0,0,0,0,0,0,0,0,-1,1805,1065,0,0
588,-41,0,0,0,0,0,0,0,0,0,-1,1812,1065,0,0
595,-41,0,0,0,0,0,0,0,0,0,-1,1819,1065,0,0
602,-41,0,0,0,0,0,0,0,0,0,-1,1826,1065,0,0
609,-41,0,0,0,0,0,0,0,0,0,-1,1833,1065,0,0
616,-41,0,0,0,0,0,0,0,0,0,-1,1840,1065,0,0
623,-41,0,0,0,0,0,0,0,0,0,-1,1847,1065,0,0
630,-41,0,0,0,0,0,0,0,0,0,-1,1854,1065,0,0
637,-41,0,0,0,0,0,0,0,0,0,-1,1861,1065,0,0
644,-41,0,0,0,0,0,0,0,0,0,-1,1868,1065,0,0
651,-41,45.0233,2.57617,0.00063722,0.000554099,-0.000235868,0.000835162,0.000356158,-0.698192,0.000483916,0.0334676,1875,1065,45.0233,-2.57618
658,-41,45.1134,2.58667,-0.000349796,0.000417836,0.000156675,0.000448582,-0.000380542,1.37702,0.000479232,0.0385333,1882,1065,45.1134,-2.58663
665,-41,45.2118,2.54248,-0.0007227,0.000380588,0.000350114,0.000482313,-0.000824425,1.28803,0.000763015,0.0385679,1889,1065,45.2118,-2.54244
672,-41,45.0565,2.49133,-0.00071399,0.000324749,0.000619849,0.000614056,-0.0010033,1.13411,0.00094275,0.0383838,1896,1065,45.0566,-2.49135
679,-41,44.7744,2.76355,-0.000522657,0.000259464,0.000865887,0.000818503,-0.0010817,0.997503,0.00110058,0.0385044,1903,1065,44.7744,-2.76355
686,-41,44.8591,2.97351,-0.000444522,-3.02256e-05,0.00112337,0.000904931,-0.00137968,0.876574,0.00132848,0.0416903,1910,1065,44.8592,-2.97346
693,-41,44.9115,2.79602,-0.000347467,-0.000378578,0.00137832,0.00101538,-0.00174143,0.779756,0.00160994,0.0456243,1917,1065,44.9116,-2.79601
700,-41,44.9521,2.63599,-0.000283088,-0.0005956,0.00163096,0.00119908,-0.00207777,0.737641,0.00191443,0.0409419,1924,1065,44.9522,-2.63597
707,-41,45.0148,2.58545,-0.000477858,-0.000707577,0.00186089,0.00127172,-0.00245715,0.754576,0.00218883,0.0261579,1931,1065,45.0148,-2.58544
714,-41,44.9984,2.64917,-0.000815551,-0.000595579,0.00204378,0.00134117,-0.0027523,0.81228,0.00240972,0.0197786,1938,1065,44.9985,-2.64913
721,-41,44.9938,2.69287,0,0,0,0,0,0,0,-1,1945,1065,44.9937,-2.69282
728,-41,44.3956,5.91187,0,0,0,0,0,0,0,-1,1952,1065,44.3957,-5.91184
735,-41,44.2671,5.8031,-0.00229416,0.000832985,0.0021232,0.00190622,-0.00336739,1.10278,0.00308343,0.017994,1959,1065,44.2671,-5.80315
742,-41,44.1891,5.68079,-0.00292653,0.00205408,0.00108425,0.00227988,-0.00315233,1.36548,0.00314974,0.0158432,1966,1065,44.1891,-5.68073
749,-41,44.2115,5.56763,-0.00349291,0.0043142,-0.000350034,0.00432986,-0.00350857,-1.52608,0.00453379,0.0141073,1973,1065,44.2115,-5.56768
756,-41,44.2445,5.41797,-0.00380736,0.00727158,-0.00274083,0.00791255,-0.00444833,-1.34106,0.00722938,0.0132549,1980,1065,44.2445,-5.41799
763,-41,44.1763,5.21863,-0.00394954,0.0118879,-0.00619849,0.0140254,-0.00608703,-1.23873,0.0119096,0.0116975,1987,1065,44.1763,-5.21865
770,-41,44.088,5.07104,-0.00368012,0.0178552,-0.0112616,0.0226685,-0.00849345,-1.16689,0.0186015,0.0133695,1994,1065,44.088,-5.07107
777,-41,43.9899,4.92517,-0.00269668,0.025941,-0.0181985,0.0347785,-0.0115342,-1.11872,0.0278386,0.0151268,2001,1065,43.9899,-4.92522
784,-41,43.8789,4.75183,-0.00125964,0.0351482,-0.0260634,0.0487356,-0.014847,-1.09024,0.0384081,0.025169,2008,1065,43.879,-4.75183
791,-41,43.8538,4.16418,0.000763419,0.0459056,-0.0350536,0.0650264,-0.0183573,-1.07144,0.0505926,0.0433683,2015,1065,43.8538,-4.16414
798,-41,44.2517,3.05725,0.0037398,0.0587834,-0.0453752,0.084331,-0.0218078,-1.058,0.0647263,0.0454163,2022,1065,44.2518,-3.0573
805,-41,44.5981,2.13855,0.00803258,0.0742971,-0.0567372,0.106868,-0.024538,-1.04967,0.080678,0.043864,2029,1065,44.598,-2.13861
812,-41,44.7949,1.29358,0,0,0,0,0,0,0,-1,2036,1065,44.7949,-1.29361
-700,-48,-36.7663,4.59473,0.404639,0.19325,-0.194451,0.520264,0.0776239,-0.536459,0.324082,0.0469476,524,1072,-36.7663,-4.5947
-693,-48,-36.0251,4.90332,0.32814,0.155715,-0.1443,0.41002,0.073835,-0.516126,0.252361,0.047152,531,1072,-36.0251,-4.90333
-686,-48,-33.0174,-2.18445,0.260477,0.123055,-0.104727,0.317022,0.06651,-0.495073,0.193036,0.048792,538,1072,-33.0174,2.18448
-679,-48,-32.6606,-2.4281,0.203323,0.0961287,-0.0743443,0.241376,0.0580758,-0.47308,0.145476,0.0458296,545,1072,-32.6606,2.42813
-672,-48,-32.6196,-0.403564,0.155374,0.0741577,-0.0510732,0.180015,0.0495163,-0.449527,0.10738,0.0427886,552,1072,-32.6196,0.403625
-665,-48,-32.7446,-0.233887,0.115637,0.0564272,-0.0335542,0.130779,0.0412846,-0.423925,0.0771965,0.0422651,559,1072,-32.7446,0.23393
-658,-48,-32.7696,0.423462,0.0833392,0.0422681,-0.0207868,0.0920235,0.0335838,-0.395739,0.053772,0.0434198,566,1072,-32.7696,-0.423448
-651,-48,-32.5182,1.40417,0.057851,0.0310675,-0.0119381,0.0623996,0.0265189,-0.364035,0.0361613,0.03362,573,1072,-32.5183,-1.40415
-644,-48,-32.5896,1.96118,0.0358486,0.0234577,-0.00550305,0.0379397,0.0213666,-0.363141,0.0219627,0.0197975,580,1072,-32.5896,-1.96121
-637,-48,-32.5875,2.11707,0.0184761,0.011632,0.000501281,0.0185126,0.0115955,0.0727253,0.0108014,0.0210957,587,1072,-32.5874,-2.11707
-630,-48,-32.58,2.3667,0.00752103,0.00511394,0.00264514,0.00922356,0.00341141,0.571895,0.00538502,0.0224854,594,1072,-32.58,-2.36666
-623,-48,-32.6727,2.60645,0.00221339,0.00483222,0.001992,0.00590664,0.00113898,1.07616,0.00361835,0.0122531,601,1072,-32.6727,-2.60645
-616,-48,-32.6729,2.85229,0.000930552,0.00259749,0.000681235,0.00284048,0.000687568,1.22818,0.00171115,0.0112805,608,1072,-32.6729,-2.85227
-609,-48,-32.6306,3.0896,0.000176836,0.00123553,-8.03212e-05,0.00124159,0.000170777,-1.4955,0.00077708,0.0127258,615,1072,-32.6305,-3.08959
-602,-48,-32.6495,3.30127,0.000249168,-0.000308599,-0.000567393,0.000602512,-0.000661943,-0.556979,0.000730302,0.0125189,622,1072,-32.6494,-3.30128
-595,-48,-32.7,3.4541,0.000513199,-0.00122064,-0.000871297,0.000875389,-0.00158283,-0.393959,0.00143871,0.0284985,629,1072,-32.7,-3.45406
-588,-48,-33.3722,0.496948,0,0,0,0,0,0,0,-1,636,1072,-33.3722,-0.496994
-581,-48,-33.374,0.723389,0.00111713,-0.00163858,-0.000614758,0.00124805,-0.0017695,-0.209833,0.00175083,0.0444394,643,1072,-33.374,-0.723432
-574,-48,-33.5191,0.983032,0.00135338,-0.00163212,-0.000543257,0.00144916,-0.0017279,-0.174515,0.00183663,0.0399946,650,1072,-33.5191,-0.983009
-567,-48,-33.7086,1.47083,0,0,0,0,0,0,0,-1,657,1072,-33.7085,-1.47081
-560,-48,-33.5128,1.30444,0.00158796,-0.000827417,-0.000720579,0.0017866,-0.00102605,-0.26898,0.00164355,0.0424054,664,1072,-33.5128,-1.30448
-553,-48,-33.3942,0.924927,0.00160094,-4.89326e-05,-0.00106087,0.00211986,-0.000567856,-0.454931,0.00163572,0.0418638,671,1072,-33.3941,-0.924901
-546,-48,-33.2533,0.722778,0.00153322,0.000899428,-0.00159215,0.00283971,-0.000407061,-0.687164,0.00204239,0.0389034,678,1072,-33.2533,-0.722824
-539,-48,-33.3207,0.765137,0.00128759,0.00179871,-0.002586,0.00414175,-0.00105545,-0.83465,0.00317206,0.0414954,685,1072,-33.3207,-0.765088
-532,-48,-33.4875,0.916504,0.000724098,0.00302866,-0.00285427,0.00495446,-0.00120171,-0.977246,0.00376797,0.0426004,692,1072,-33.4875,-0.916499
-525,-48,0,0,0,0,0,0,0,0,0,-1,699,1072,0,0
-518,-48,0,0,0,0,0,0,0,0,0,-1,706,1072,0,0
-511,-48,0,0,0,0,0,0,0,0,0,-1,713,1072,0,0
-504,-48,0,0,0,0,0,0,0,0,0,-1,720,1072,0,0
-497,-48,0,0,0,0,0,0,0,0,0,-1,727,1072,0,0
-490,-48,0,0,0,0,0,0,0,0,0,-1,734,1072,0,0
-483,-48,0,0,0,0,0,0,0,0,0,-1,741,1072,0,0
-476,-48,0,0,0,0,0,0,0,0,0,-1,748,1072,0,0
-469,-48,0,0,0,0,0,0,0,0,0,-1,755,1072,0,0
-462,-48,0,0,0,0,0,0,0,0,0,-1,762,1072,0,0
-455,-48,0,0,0,0,0,0,0,0,0,-1,769,1072,0,0
-448,-48,0,0,0,0,0,0,0,0,0,-1,776,1072,0,0
-441,-48,0,0,0,0,0,0,0,0,0,-1,783,1072,0,0
-434,-48,0,0,0,0,0,0,0,0,0,-1,790,1072,0,0
-427,-48,0,0,0,0,0,0,0,0,0,-1,797,1072,0,0
-420,-48,0,0,0,0,0,0,0,0,0,-1,804,1072,0,0
-413,-48,0,0,0,0,0,0,0,0,0,-1,811,1072,0,0
-406,-48,0,0,0,0,0,0,0,0,0,-1,818,1072,0,0
-399,-48,0,0,0,0,0,0,0,0,0,-1,825,1072,0,0
-392,-48,0,0,0,0,0,0,0,0,0,-1,832,1072,0,0
-385,-48,0,0,0,0,0,0,0,0,0,-1,839,1072,0,0
-378,-48,0,0,0,0,0,0,0,0,0,-1,846,1072,0,0
-371,-48,0,0,0,0,0,0,0,0,0,-1,853,1072,0,0
-364,-48,0,0,0,0,0,0,0,0,0,-1,860,1072,0,0
-357,-48,0,0,0,0,0,0,0,0,0,-1,867,1072,0,0
-350,-48,0,0,0,0,0,0,0,0,0,-1,874,1072,0,0
-343,-48,0,0,0,0,0,0,0,0,0,-1,881,1072,0,0
-336,-48,0,0,0,0,0,0,0,0,0,-1,888,1072,0,0
-329,-48,0,0,0,0,0,0,0,0,0,-1,895,1072,0,0
-322,-48,0,0,0,0,0,0,0,0,0,-1,902,1072,0,0
-315,-48,0,0,0,0,0,0,0,0,0,-1,909,1072,0,0
-308,-48,0,0,0,0,0,0,0,0,0,-1,916,1072,0,0
-301,-48,0,0,0,0,0,0,0,0,0,-1,923,1072,0,0
-294,-48,0,0,0,0,0,0,0,0,0,-1,930,1072,0,0
-287,-48,0,0,0,0,0,0,0,0,0,-1,937,1072,0,0
-280,-48,0,0,0,0,0,0,0,0,0,-1,944,1072,0,0
-273,-48,0,0,0,0,0,0,0,0,0,-1,951,1072,0,0
-266,-48,0,0,0,0,0,0,0,0,0,-1,958,1072,0,0
-259,-48,0,0,0,0,0,0,0,0,0,-1,965,1072,0,0
-252,-48,0,0,0,0,0,0,0,0,0,-1,972,1072,0,0
-245,-48,0,0,0,0,0,0,0,0,0,-1,979,1072,0,0
-238,-48,0,0,0,0,0,0,0,0,0,-1,986,1072,0,0
-231,-48,0,0,0,0,0,0,0,0,0,-1,993,1072,0,0
-224,-48,0,0,0,0,0,0,0,0,0,-1,1000,1072,0,0
-217,-48,0,0,0,0,0,0,0,0,0,-1,1007,1072,0,0
-210,-48,0,0,0,0,0,0,0,0,0,-1,1014,1072,0,0
-203,-48,0,0,0,0,0,0,0,0,0,-1,1021,1072,0,0
-196,-48,0,0,0,0,0,0,0,0,0,-1,1028,1072,0,0
-189,-48,0,0,0,0,0,0,0,0,0,-1,1035,1072,0,0
-182,-48,0,0,0,0,0,0,0,0,0,-1,1042,1072,0,0
-175,-48,0,0,0,0,0,0,0,0,0,-1,1049,1072,0,0
-168,-48,0,0,0,0,0,0,0,0,0,-1,1056,1072,0,0
-161,-48,0,0,0,0,0,0,0,0,0,-1,1063,1072,0,0
-154,-48,0,0,0,0,0,0,0,0,0,-1,1070,1072,0,0
-147,-48,0,0,0,0,0,0,0,0,0,-1,1077,1072,0,0
-140,-48,0,0,0,0,0,0,0,0,0,-1,1084,1072,0,0
-133,-48,0,0,0,0,0,0,0,0,0,-1,1091,1072,0,0
-126,-48,0,0,0,0,0,0,0,0,0,-1,1098,1072,0,0
-119,-48,0,0,0,0,0,0,0,0,0,-1,1105,1072,0,0
-112,-48,0,0,0,0,0,0,0,0,0,-1,1112,1072,0,0
-105,-48,0,0,0,0,0,0,0,0,0,-1,1119,1072,0,0
-98,-48,0,0,0,0,0,0,0,0,0,-1,1126,1072,0,0
-91,-48,0,0,0,0,0,0,0,0,0,-1,1133,1072,0,0
-84,-48,0,0,0,0,0,0,0,0,0,-1,1140,1072,0,0
-77,-48,0,0,0,0,0,0,0,0,0,-1,1147,1072,0,0
-70,-48,0,0,0,0,0,0,0,0,0,-1,1154,1072,0,0
-63,-48,0,0,0,0,0,0,0,0,0,-1,1161,1072,0,0
-56,-48,0,0,0,0,0,0,0,0,0,-1,1168,1072,0,0
-49,-48,0,0,0,0,0,0,0,0,0,-1,1175,1072,0,0
-42,-48,0,0,0,0,0,0,0,0,0,-1,1182,1072,0,0
-35,-48,0,0,0,0,0,0,0,0,0,-1,1189,1072,0,0
-28,-48,0,0,0,0,0,0,0,0,0,-1,1196,1072,0,0
-21,-48,0,0,0,0,0,0,0,0,0,-1,1203,1072,0,0
-14,-48,0,0,0,0,0,0,0,0,0,-1,1210,1072,0,0
-7,-48,0,0,0,0,0,0,0,0,0,-1,1217,1072,0,0
0,-48,0,0,0,0,0,0,0,0,0,-1,1224,1072,0,0
7,-48,0,0,0,0,0,0,0,0,0,-1,1231,1072,0,0
14,-48,0,0,0,0,0,0,0,0,0,-1,1238,1072,0,0
21,-48,0,0,0,0,0,0,0,0,0,-1,1245,1072,0,0
28,-48,0,0,0,0,0,0,0,0,0,-1,1252,1072,0,0
35,-48,0,0,0,0,0,0,0,0,0,-1,1259,1072,0,0
42,-48,0,0,0,0,0,0,0,0,0,-1,1266,1072,0,0
49,-48,0,0,0,0,0,0,0,0,0,-1,1273,1072,0,0
56,-48,0,0,0,0,0,0,0,0,0,-1,1280,1072,0,0
63,-48,0,0,0,0,0,0,0,0,0,-1,1287,1072,0,0
70,-48,0,0,0,0,0,0,0,0,0,-1,1294,1072,0,0
77,-48,0,0,0,0,0,0,0,0,0,-1,1301,1072,0,0
84,-48,0,0,0,0,0,0,0,0,0,-1,1308,1072,0,0
91,-48,0,0,0,0,0,0,0,0,0,-1,1315,1072,0,0
98,-48,0,0,0,0,0,0,0,0,0,-1,1322,1072,0,0
105,-48,0,0,0,0,0,0,0,0,0,-1,1329,1072,0,0
112,-48,0,0,0,0,0,0,0,0,0,-1,1336,1072,0,0
119,-48,0,0,0,0,0,0,0,0,0,-1,1343,1072,0,0
126,-48,0,0,0,0,0,0,0,0,0,-1,1350,1072,0,0
133,-48,0,0,0,0,0,0,0,0,0,-1,1357,1072,0,0
140,-48,0,0,0,0,0,0,0,0,0,-1,1364,1072,0,0
147,-48,0,0,0,0,0,0,0,0,0,-1,1371,1072,0,0
154,-48,0,0,0,0,0,0,0,0,0,-1,1378,1072,0,0
161,-48,0,0,0,0,0,0,0,0,0,-1,1385,1072,0,0
168,-48,0,0,0,0,0,0,0,0,0,-1,1392,1072,0,0
175,-48,0,0,0,0,0,0,0,0,0,-1,1399,1072,0,0
182,-48,0,0,0,0,0,0,0,0,0,-1,1406,1072,0,0
189,-48,0,0,0,0,0,0,0,0,0,-1,1413,1072,0,0
196,-48,0,0,0,0,0,0,0,0,0,-1,1420,1072,0,0
203,-48,0,0,0,0,0,0,0,0,0,-1,1427,1072,0,0
210,-48,0,0,0,0,0,0,0,0,0,-1,1434,1072,0,0
217,-48,0,0,0,0,0,0,0,0,0,-1,1441,1072,0,0
224,-48,0,0,0,0,0,0,0,0,0,-1,1448,1072,0,0
231,-48,0,0,0,0,0,0,0,0,0,-1,1455,1072,0,0
238,-48,0,0,0,0,0,0,0,0,0,-1,1462,1072,0,0
245,-48,0,0,0,0,0,0,0,0,0,-1,1469,1072,0,0
252,-48,0,0,0,0,0,0,0,0,0,-1,1476,1072,0,0
259,-48,0,0,0,0,0,0,0,0,0,-1,1483,1072,0,0
266,-48,0,0,0,0,0,0,0,0,0,-1,1490,1072,0,0
273,-48,0,0,0,0,0,0,0,0,0,-1,1497,1072,0,0
280,-48,0,0,0,0,0,0,0,0,0,-1,1504,1072,0,0
287,-48,0,0,0,0,0,0,0,0,0,-1,1511,1072,0,0
294,-48,0,0,0,0,0,0,0,0,0,-1,1518,1072,0,0
301,-48,0,0,0,0,0,0,0,0,0,-1,1525,1072,0,0
308,-48,0,0,0,0,0,0,0,0,0,-1,1532,1072,0,0
315,-48,0,0,0,0,0,0,0,0,0,-1,1539,1072,0,0
322,-48,0,0,0,0,0,0,0,0,0,-1,1546,1072,0,0
329,-48,0,0,0,0,0,0,0,0,0,-1,1553,1072,0,0
336,-48,0,0,0,0,0,0,0,0,0,-1,1560,1072,0,0
343,-48,0,0,0,0,0,0,0,0,0,-1,1567,1072,0,0
350,-48,0,0,0,0,0,0,0,0,0,-1,1574,1072,0,0
357,-48,0,0,0,0,0,0,0,0,0,-1,1581,1072,0,0
364,-48,0,0,0,0,0,0,0,0,0,-1,1588,1072,0,0
371,-48,0,0,0,0,0,0,0,0,0,-1,1595,1072,0,0
378,-48,0,0,0,0,0,0,0,0,0,-1,1602,1072,0,0
385,-48,0,0,0,0,0,0,0,0,0,-1,1609,1072,0,0
392,-48,0,0,0,0,0,0,0,0,0,-1,1616,1072,0,0
399,-48,0,0,0,0,0,0,0,0,0,-1,1623,1072,0,0
406,-48,0,0,0,0,0,0,0,0,0,-1,1630,1072,0,0
413,-48,0,0,0,0,0,0,0,0,0,-1,1637,1072,0,0
420,-48,0,0,0,0,0,0,0,0,0,-1,1644,1072,0,0
427,-48,0,0,0,0,0,0,0,0,0,-1,1651,1072,0,0
434,-48,0,0,0,0,0,0,0,0,0,-1,1658,1072,0,0
441,-48,0,0,0,0,0,0,0,0,0,-1,1665,1072,0,0
448,-48,0,0,0,0,0,0,0,0,0,-1,1672,1072,0,0
455,-48,0,0,0,0,0,0,0,0,0,-1,1679,1072,0,0
462,-48,0,0,0,0,0,0,0,0,0,-1,1686,1072,0,0
469,-48,0,0,0,0,0,0,0,0,0,-1,1693,1072,0,0
476,-48,0,0,0,0,0,0,0,0,0,-1,1700,1072,0,0
483,-48,0,0,0,0,0,0,0,0,0,-1,1707,1072,0,0
490,-48,0,0,0,0,0,0,0,0,0,-1,1714,1072,0,0
497,-48,0,0,0,0,0,0,0,0,0,-1,1721,1072,0,0
504,-48,0,0,0,0,0,0,0,0,0,-1,1728,1072,0,0
511,-48,0,0,0,0,0,0,0,0,0,-1,1735,1072,0,0
518,-48,0,0,0,0,0,0,0,0,0,-1,1742,1072,0,0
525,-48,0,0,0,0,0,0,0,0,0,-1,1749,1072,0,0
532,-48,0,0,0,0,0,0,0,0,0,-1,1756,1072,0,0
539,-48,0,0,0,0,0,0,0,0,0,-1,1763,1072,0,0
546,-48,0,0,0,0,0,0,0,0,0,-1,1770,1072,0,0
553,-48,0,0,0,0,0,0,0,0,0,-1,1777,1072,0,0
560,-48,0,0,0,0,0,0,0,0,0,-1,1784,1072,0,0
567,-48,0,0,0,0,0,0,0,0,0,-1,1791,1072,0,0
574,-48,0,0,0,0,0,0,0,0,0,-1,1798,1072,0,0
581,-48,0,0,0,0,0,0,0,0,0,-1,1805,1072,0,0
588,-48,0,0,0,0,0,0,0,0,0,-1,1812,1072,0,0
595,-48,0,0,0,0,0,0,0,0,0,-1,1819,1072,0,0
602,-48,0,0,0,0,0,0,0,0,0,-1,1826,1072,0,0
609,-48,0,0,0,0,0,0,0,0,0,-1,1833,1072,0,0
616,-48,0,0,0,0,0,0,0,0,0,-1,1840,1072,0,0
623,-48,0,0,0,0,0,0,0,0,0,-1,1847,1072,0,0
630,-48,0,0,0,0,0,0,0,0,0,-1,1854,1072,0,0
637,-48,0,0,0,0,0,0,0,0,0,-1,1861,1072,0,0
644,-48,0,0,0,0,0,0,0,0,0,-1,1868,1072,0,0
651,-48,45.0245,2.52905,0.000186541,-0.000448059,-0.000211379,0.000250503,-0.00051202,-0.293832,0.00044879,0.0301858,1875,1072,45.0246,-2.52902
658,-48,45.1244,2.53748,-0.000528675,-0.000239203,0.000226656,-0.000115013,-0.000652865,1.06955,0.000402422,0.0337405,1882,1072,45.1244,-2.53753
665,-48,45.1134,2.57727,-0.000759784,-5.01307e-06,0.000418282,0.000180966,-0.000945763,1.15242,0.000698687,0.038693,1889,1072,45.1134,-2.57726
672,-48,45.0077,2.57947,-0.000665276,0.000128391,0.000653886,0.000496439,-0.00103332,1.05813,0.000901157,0.0397454,1896,1072,45.0077,-2.57947
679,-48,44.7885,2.55261,-0.000450018,0.000213232,0.000834189,0.000779297,-0.00101608,0.974591,0.00103956,0.0387265,1903,1072,44.7884,-2.55259
686,-48,44.8081,2.67627,-0.000376106,2.13091e-05,0.00101982,0.0008616,-0.0012164,0.881615,0.00120555,0.0408721,1910,1072,44.808,-2.67622
693,-48,44.9399,2.74255,-0.000292025,-0.000277048,0.00120804,0.000923526,-0.0014926,0.788498,0.00140779,0.0427949,1917,1072,44.94,-2.74258
700,-48,45.0072,2.71826,-0.000226508,-0.000472842,0.00142646,0.00108209,-0.00178144,0.742333,0.00166961,0.0368414,1924,1072,45.0072,-2.71829
707,-48,45.0161,2.57251,-0.000432896,-0.000577479,0.0016276,0.00112402,-0.00213439,0.763205,0.00191115,0.02438,1931,1072,45.0162,-2.57246
714,-48,45.0122,2.65796,-0.000777246,-0.000487122,0.00177919,0.00115291,-0.00241728,0.826074,0.0021039,0.0314786,1938,1072,45.0122,-2.65792
721,-48,45.0063,2.8269,0,0,0,0,0,0,0,-1,1945,1072,45.0063,-2.82689
728,-48,44.1791,6.11743,0,0,0,0,0,0,0,-1,1952,1072,44.179,-6.11746
735,-48,44.0902,5.922,-0.00211426,0.000772125,0.00196502,0.00176699,-0.00310912,1.10213,0.00285055,0.019492,1959,1072,44.0902,-5.92205
742,-48,43.9841,5.70886,-0.00265381,0.00195519,0.000940368,0.00213967,-0.00283829,1.37708,0.00288344,0.0167598,1966,1072,43.9841,-5.70886
749,-48,44.016,5.53918,-0.0031803,0.00409564,-0.000656021,0.00415432,-0.00323898,-1.48159,0.00427941,0.0150388,1973,1072,44.0159,-5.53924
756,-48,44.0175,5.37476,-0.00353041,0.00689478,-0.00321485,0.00780643,-0.00444207,-1.29448,0.00716004,0.0124064,1980,1072,44.0175,-5.37479
763,-48,43.9552,5.19202,-0.00379149,0.0112616,-0.00691784,0.0139578,-0.00648773,-1.19916,0.012064,0.0116384,1987,1072,43.9552,-5.19206
770,-48,43.9315,5.01196,-0.00371695,0.0169611,-0.0124078,0.0227729,-0.00952871,-1.13275,0.0191648,0.0133785,1994,1072,43.9315,-5.01191
777,-48,43.8324,4.81812,-0.00316161,0.0245149,-0.0199535,0.0349591,-0.0136058,-1.08858,0.0289283,0.0126386,2001,1072,43.8324,-4.81814
784,-48,43.7437,4.61206,-0.00232678,0.0330556,-0.0285551,0.0489557,-0.0182268,-1.06273,0.0401175,0.0241181,2008,1072,43.7435,-4.61204
791,-48,43.7051,3.47791,-0.00113889,0.0429499,-0.0384115,0.0651932,-0.0233822,-1.0459,0.0530042,0.0398397,2015,1072,43.705,-3.47789
798,-48,43.707,2.54956,0.000674182,0.0546724,-0.0497671,0.0842924,-0.0289457,-1.03394,0.0679312,0.0437019,2022,1072,43.7071,-2.54953
805,-48,44.01,0.850342,0.00337416,0.068634,-0.0623295,0.106358,-0.0343499,-1.02654,0.0847095,0.0436474,2029,1072,44.01,-0.850403
812,-48,44.5981,-0.694946,0.00686616,0.0852619,-0.0755748,0.131199,-0.0390713,-1.02463,0.102991,0.0460379,2036,1072,44.5982,0.694975
-700,-55,-36.7896,5.03918,0.445006,0.20295,-0.201741,0.559238,0.0887183,-0.515218,0.347053,0.048608,524,1079,-36.7896,-5.03919
-693,-55,-33.3473,-1.50061,0.360061,0.15796,-0.144966,0.43572,0.0823002,-0.481022,0.267304,0.0479921,531,1079,-33.3473,1.50067
-686,-55,-33.1662,-1.46179,0.286816,0.122008,-0.102754,0.336126,0.0726972,-0.447432,0.204212,0.0487945,538,1079,-33.1662,1.46175
-679,-55,-32.9665,-1.47729,0.225067,0.0935612,-0.071269,0.256282,0.0623465,-0.412817,0.154329,0.0482065,545,1079,-32.9665,1.47733
-672,-55,-32.6913,-1.23279,0.1731,0.0710149,-0.047686,0.191909,0.0522055,-0.375707,0.114573,0.0477033,552,1079,-32.6914,1.2328
-665,-55,-32.6934,-0.786011,0.129736,0.0532256,-0.0302688,0.140262,0.042699,-0.334687,0.0830199,0.0477772,559,1079,-32.6933,0.786046
-658,-55,-32.6381,0.0731201,0.0941962,0.0392961,-0.0178177,0.0994719,0.0340204,-0.28787,0.058378,0.0456425,566,1079,-32.6381,-0.0731668
-651,-55,-32.3934,1.10352,0.0658998,0.0284785,-0.00939759,0.0681273,0.026251,-0.232726,0.0396766,0.0372904,573,1079,-32.3934,-1.10346
-644,-55,-32.354,1.84094,0.0416116,0.0213475,-0.00329522,0.0421339,0.0208251,-0.157219,0.0243266,0.022259,580,1079,-32.354,-1.84096
-637,-55,-32.3497,2.04333,0.0224252,0.00964092,0.00234717,0.0228425,0.00922361,0.175956,0.0132693,0.0189521,587,1079,-32.3496,-2.04334
-630,-55,-32.3259,2.33679,0.0102361,0.0038195,0.00377923,0.0119852,0.0020704,0.433463,0.0073972,0.0214816,594,1079,-32.3258,-2.33678
-623,-55,-32.4495,2.63464,0.00390906,0.0039671,0.00270086,0.0066391,0.00123706,0.790771,0.00407676,0.0181114,601,1079,-32.4495,-2.63468
-616,-55,-32.4772,2.83264,0.00185736,0.00218393,0.00109063,0.00312343,0.000917856,0.859703,0.0018537,0.0161678,608,1079,-32.4771,-2.83266
-609,-55,-32.4287,3.11182,0.000716893,0.00119229,0.000184975,0.00125578,0.0006534,1.24015,0.000725225,0.0162183,615,1079,-32.4287,-3.11179
-602,-55,-32.399,3.37122,0.000857109,-0.000157635,-0.00025168,0.000916102,-0.000216628,-0.23024,0.000694301,0.0142348,622,1079,-32.399,-3.37121
-595,-55,-32.312,3.61523,0.00118974,-0.000996543,-0.000610956,0.00134888,-0.00115569,-0.254825,0.00144745,0.0294001,629,1079,-32.312,-3.61527
-588,-55,-32.3437,3.86206,0,0,0,0,0,0,0,-1,636,1079,-32.3437,-3.86202
-581,-55,-33.3732,0.612671,0,0,0,0,0,0,0,-1,643,1079,-33.3732,-0.612665
-574,-55,-33.4752,0.950195,0.00198661,-0.00128797,-0.000336246,0.00202078,-0.00132214,-0.101276,0.00194403,0.0411716,650,1079,-33.4751,-0.950189
-567,-55,-33.4009,1.11194,0.00211857,-0.00104128,-0.000398647,0.00216809,-0.0010908,-0.12358,0.00191548,0.0399068,657,1079,-33.401,-1.11192
-560,-55,-33.2375,1.06409,0.00212582,-0.000568933,-0.000608904,0.00225702,-0.000700133,-0.212224,0.00178444,0.0426878,664,1079,-33.2375,-1.06409
-553,-55,-33.3295,0.901123,0.0020161,8.6444e-05,-0.00100854,0.002447,-0.000344454,-0.403773,0.00175744,0.0424197,671,1079,-33.3295,-0.901117
-546,-55,-33.3356,0.746216,0.00179175,0.000861129,-0.00158321,0.00297662,-0.000323735,-0.642471,0.00210066,0.0370908,678,1079,-33.3356,-0.746164
-539,-55,-33.3221,0.635986,0.00149136,0.00151458,-0.00257547,0.00407847,-0.00107252,-0.787652,0.00313818,0.0394358,685,1079,-33.3221,-0.635937
-532,-55,-33.4877,0.790527,0.000881836,0.00250069,-0.00281258,0.00461799,-0.00123547,-0.925506,0.00356262,0.0421712,692,1079,-33.4876,-0.790575
-525,-55,0,0,0,0,0,0,0,0,0,-1,699,1079,0,0
-518,-55,0,0,0,0,0,0,0,0,0,-1,706,1079,0,0
-511,-55,0,0,0,0,0,0,0,0,0,-1,713,1079,0,0
-504,-55,0,0,0,0,0,0,0,0,0,-1,720,1079,0,0
-497,-55,0,0,0,0,0,0,0,0,0,-1,727,1079,0,0
-490,-55,0,0,0,0,0,0,0,0,0,-1,734,1079,0,0
-483,-55,0,0,0,0,0,0,0,0,0,-1,741,1079,0,0
-476,-55,0,0,0,0,0,0,0,0,0,-1,748,1079,0,0
-469,-55,0,0,0,0,0,0,0,0,0,-1,755,1079,0,0
-462,-55,0,0,0,0,0,0,0,0,0,-1,762,1079,0,0
-455,-55,0,0,0,0,0,0,0,0,0,-1,769,1079,0,0
-448,-55,0,0,0,0,0,0,0,0,0,-1,776,1079,0,0
-441,-55,0,0,0,0,0,0,0,0,0,-1,783,1079,0,0
-434,-55,0,0,0,0,0,0,0,0,0,-1,790,1079,0,0
-427,-55,0,0,0,0,0,0,0,0,0,-1,797,1079,0,0
-420,-55,0,0,0,0,0,0,0,0,0,-1,804,1079,0,0
-413,-55,0,0,0,0,0,0,0,0,0,-1,811,1079,0,0
-406,-55,0,0,0,0,0,0,0,0,0,-1,818,1079,0,0
-399,-55,0,0,0,0,0,0,0,0,0,-1,825,1079,0,0
-392,-55,0,0,0,0,0,0,0,0,0,-1,832,1079,0,0
-385,-55,0,0,0,0,0,0,0,0,0,-1,839,1079,0,0
-378,-55,0,0,0,0,0,0,0,0,0,-1,846,1079,0,0
-371,-55,0,0,0,0,0,0,0,0,0,-1,853,1079,0,0
-364,-55,0,0,0,0,0,0,0,0,0,-1,860,1079,0,0
-357,-55,0,0,0,0,0,0,0,0,0,-1,867,1079,0,0
-350,-55,0,0,0,0,0,0,0,0,0,-1,874,1079,0,0
-343,-55,0,0,0,0,0,0,0,0,0,-1,881,1079,0,0
-336,-55,0,0,0,0,0,0,0,0,0,-1,888,1079,0,0
-329,-55,0,0,0,0,0,0,0,0,0,-1,895,1079,0,0
-322,-55,0,0,0,0,0,0,0,0,0,-1,902,1079,0,0
-315,-55,0,0,0,0,0,0,0,0,0,-1,909,1079,0,0
-308,-55,0,0,0,0,0,0,0,0,0,-1,916,1079,0,0
-301,-55,0,0,0,0,0,0,0,0,0,-1,923,1079,0,0
-294,-55,0,0,0,0,0,0,0,0,0,-1,930,1079,0,0
-287,-55,0,0,0,0,0,0,0,0,0,-1,937,1079,0,0
-280,-55,0,0,0,0,0,0,0,0,0,-1,944,1079,0,0
-273,-55,0,0,0,0,0,0,0,0,0,-1,951,1079,0,0
-266,-55,0,0,0,0,0,0,0,0,0,-1,958,1079,0,0
-259,-55,0,0,0,0,0,0,0,0,0,-1,965,1079,0,0
-252,-55,0,0,0,0,0,0,0,0,0,-1,972,1079,0,0
-245,-55,0,0,0,0,0,0,0,0,0,-1,979,1079,0,0
-238,-55,0,0,0,0,0,0,0,0,0,-1,986,1079,0,0
-231,-55,0,0,0,0,0,0,0,0,0,-1,993,1079,0,0
-224,-55,0,0,0,0,0,0,0,0,0,-1,1000,1079,0,0
-217,-55,0,0,0,0,0,0,0,0,0,-1,1007,1079,0,0
-210,-55,0,0,0,0,0,0,0,0,0,-1,1014,1079,0,0
-203,-55,0,0,0,0,0,0,0,0,0,-1,1021,1079,0,0
-196,-55,0,0,0,0,0,0,0,0,0,-1,1028,1079,0,0
-189,-55,0,0,0,0,0,0,0,0,0,-1,1035,1079,0,0
-182,-55,0,0,0,0,0,0,0,0,0,-1,1042,1079,0,0
-175,-55,0,0,0,0,0,0,0,0,0,-1,1049,1079,0,0
-168,-55,0,0,0,0,0,0,0,0,0,-1,1056,1079,0,0
-161,-55,0,0,0,0,0,0,0,0,0,-1,1063,1079,0,0
-154,-55,0,0,0,0,0,0,0,0,0,-1,1070,1079,0,0
-147,-55,0,0,0,0,0,0,0,0,0,-1,1077,1079,0,0
-140,-55,0,0,0,0,0,0,0,0,0,-1,1084,1079,0,0
-133,-55,0,0,0,0,0,0,0,0,0,-1,1091,1079,0,0
-126,-55,0,0,0,0,0,0,0,0,0,-1,1098,1079,0,0
-119,-55,0,0,0,0,0,0,0,0,0,-1,1105,1079,0,0
-112,-55,0,0,0,0,0,0,0,0,0,-1,1112,1079,0,0
-105,-55,0,0,0,0,0,0,0,0,0,-1,1119,1079,0,0
-98,-55,0,0,0,0,0,0,0,0,0,-1,1126,1079,0,0
-91,-55,0,0,0,0,0,0,0,0,0,-1,1133,1079,0,0
-84,-55,0,0,0,0,0,0,0,0,0,-1,1140,1079,0,0
-77,-55,0,0,0,0,0,0,0,0,0,-1,1147,1079,0,0
-70,-55,0,0,0,0,0,0,0,0,0,-1,1154,1079,0,0
-63,-55,0,0,0,0,0,0,0,0,0,-1,1161,1079,0,0
-56,-55,0,0,0,0,0,0,0,0,0,-1,1168,1079,0,0
-49,-55,0,0,0,0,0,0,0,0,0,-1,1175,1079,0,0
-42,-55,0,0,0,0,0,0,0,0,0,-1,1182,1079,0,0
-35,-55,0,0,0,0,0,0,0,0,0,-1,1189,1079,0,0
-28,-55,0,0,0,0,0,0,0,0,0,-1,1196,1079,0,0
-21,-55,0,0,0,0,0,0,0,0,0,-1,1203,1079,0,0
-14,-55,0,0,0,0,0,0,0,0,0,-1,1210,1079,0,0
-7,-55,0,0,0,0,0,0,0,0,0,-1,1217,1079,0,0
0,-55,0,0,0,0,0,0,0,0,0,-1,1224,1079,0,0
7,-55,0,0,0,0,0,0,0,0,0,-1,1231,1079,0,0
14,-55,0,0,0,0,0,0,0,0,0,-1,1238,1079,0,0
21,-55,0,0,0,0,0,0,0,0,0,-1,1245,1079,0,0
28,-55,0,0,0,0,0,0,0,0,0,-1,1252,1079,0,0
35,-55,0,0,0,0,0,0,0,0,0,-1,1259,1079,0,0
42,-55,0,0,0,0,0,0,0,0,0,-1,1266,1079,0,0
49,-55,0,0,0,0,0,0,0,0,0,-1,1273,1079,0,0
56,-55,0,0,0,0,0,0,0,0,0,-1,1280,1079,0,0
63,-55,0,0,0,0,0,0,0,0,0,-1,1287,1079,0,0
70,-55,0,0,0,0,0,0,0,0,0,-1,1294,1079,0,0
77,-55,0,0,0,0,0,0,0,0,0,-1,1301,1079,0,0
84,-55,0,0,0,0,0,0,0,0,0,-1,1308,1079,0,0
91,-55,0,0,0,0,0,0,0,0,0,-1,1315,1079,0,0
98,-55,0,0,0,0,0,0,0,0,0,-1,1322,1079,0,0
105,-55,0,0,0,0,0,0,0,0,0,-1,1329,1079,0,0
112,-55,0,0,0,0,0,0,0,0,0,-1,1336,1079,0,0
119,-55,0,0,0,0,0,0,0,0,0,-1,1343,1079,0,0
126,-55,0,0,0,0,0,0,0,0,0,-1,1350,1079,0,0
133,-55,0,0,0,0,0,0,0,0,0,-1,1357,1079,0,0
140,-55,0,0,0,0,0,0,0,0,0,-1,1364,1079,0,0
147,-55,0,0,0,0,0,0,0,0,0,-1,1371,1079,0,0
154,-55,0,0,0,0,0,0,0,0,0,-1,1378,1079,0,0
161,-55,0,0,0,0,0,0,0,0,0,-1,1385,1079,0,0
168,-55,0,0,0,0,0,0,0,0,0,-1,1392,1079,0,0
175,-55,0,0,0,0,0,0,0,0,0,-1,1399,1079,0,0
182,-55,0,0,0,0,0,0,0,0,0,-1,1406,1079,0,0
189,-55,0,0,0,0,0,0,0,0,0,-1,1413,1079,0,0
196,-55,0,0,0,0,0,0,0,0,0,-1,1420,1079,0,0
203,-55,0,0,0,0,0,0,0,0,0,-1,1427,1079,0,0
210,-55,0,0,0,0,0,0,0,0,0,-1,1434,1079,0,0
217,-55,0,0,0,0,0,0,0,0,0,-1,1441,1079,0,0
224,-55,0,0,0,0,0,0,0,0,0,-1,1448,1079,0,0
231,-55,0,0,0,0,0,0,0,0,0,-1,1455,1079,0,0
238,-55,0,0,0,0,0,0,0,0,0,-1,1462,1079,0,0
245,-55,0,0,0,0,0,0,0,0,0,-1,1469,1079,0,0
252,-55,0,0,0,0,0,0,0,0,0,-1,1476,1079,0,0
259,-55,0,0,0,0,0,0,0,0,0,-1,1483,1079,0,0
266,-55,0,0,0,0,0,0,0,0,0,-1,1490,1079,0,0
273,-55,0,0,0,0,0,0,0,0,0,-1,1497,1079,0,0
280,-55,0,0,0,0,0,0,0,0,0,-1,1504,1079,0,0
287,-55,0,0,0,0,0,0,0,0,0,-1,1511,1079,0,0
294,-55,0,0,0,0,0,0,0,0,0,-1,1518,1079,0,0
301,-55,0,0,0,0,0,0,0,0,0,-1,1525,1079,0,0
308,-55,0,0,0,0,0,0,0,0,0,-1,1532,1079,0,0
315,-55,0,0,0,0,0,0,0,0,0,-1,1539,1079,0,0
322,-55,0,0,0,0,0,0,0,0,0,-1,1546,1079,0,0
329,-55,0,0,0,0,0,0,0,0,0,-1,1553,1079,0,0
336,-55,0,0,0,0,0,0,0,0,0,-1,1560,1079,0,0
343,-55,0,0,0,0,0,0,0,0,0,-1,1567,1079,0,0
350,-55,0,0,0,0,0,0,0,0,0,-1,1574,1079,0,0
357,-55,0,0,0,0,0,0,0,0,0,-1,1581,1079,0,0
364,-55,0,0,0,0,0,0,0,0,0,-1,1588,1079,0,0
371,-55,0,0,0,0,0,0,0,0,0,-1,1595,1079,0,0
378,-55,0,0,0,0,0,0,0,0,0,-1,1602,1079,0,0
385,-55,0,0,0,0,0,0,0,0,0,-1,1609,1079,0,0
392,-55,0,0,0,0,0,0,0,0,0,-1,1616,1079,0,0
399,-55,0,0,0,0,0,0,0,0,0,-1,1623,1079,0,0
406,-55,0,0,0,0,0,0,0,0,0,-1,1630,1079,0,0
413,-55,0,0,0,0,0,0,0,0,0,-1,1637,1079,0,0
420,-55,0,0,0,0,0,0,0,0,0,-1,1644,1079,0,0
427,-55,0,0,0,0,0,0,0,0,0,-1,1651,1079,0,0
434,-55,0,0,0,0,0,0,0,0,0,-1,1658,1079,0,0
441,-55,0,0,0,0,0,0,0,0,0,-1,1665,1079,0,0
448,-55,0,0,0,0,0,0,0,0,0,-1,1672,1079,0,0
455,-55,0,0,0,0,0,0,0,0,0,-1,1679,1079,0,0
462,-55,0,0,0,0,0,0,0,0,0,-1,1686,1079,0,0
469,-55,0,0,0,0,0,0,0,0,0,-1,1693,1079,0,0
476,-55,0,0,0,0,0,0,0,0,0,-1,1700,1079,0,0
483,-55,0,0,0,0,0,0,0,0,0,-1,1707,1079,0,0
490,-55,0,0,0,0,0,0,0,0,0,-1,1714,1079,0,0
497,-55,0,0,0,0,0,0,0,0,0,-1,1721,1079,0,0
504,-55,0,0,0,0,0,0,0,0,0,-1,1728,1079,0,0
511,-55,0,0,0,0,0,0,0,0,0,-1,1735,1079,0,0
518,-55,0,0,0,0,0,0,0,0,0,-1,1742,1079,0,0
525,-55,0,0,0,0,0,0,0,0,0,-1,1749,1079,0,0
532,-55,0,0,0,0,0,0,0,0,0,-1,1756,1079,0,0
539,-55,0,0,0,0,0,0,0,0,0,-1,1763,1079,0,0
546,-55,0,0,0,0,0,0,0,0,0,-1,1770,1079,0,0
553,-55,0,0,0,0,0,0,0,0,0,-1,1777,1079,0,0
560,-55,0,0,0,0,0,0,0,0,0,-1,1784,1079,0,0
567,-55,0,0,0,0,0,0,0,0,0,-1,1791,1079,0,0
574,-55,0,0,0,0,0,0,0,0,0,-1,1798,1079,0,0
581,-55,0,0,0,0,0,0,0,0,0,-1,1805,1079,0,0
588,-55,0,0,0,0,0,0,0,0,0,-1,1812,1079,0,0
595,-55,0,0,0,0,0,0,0,0,0,-1,1819,1079,0,0
602,-55,0,0,0,0,0,0,0,0,0,-1,1826,1079,0,0
609,-55,0,0,0,0,0,0,0,0,0,-1,1833,1079,0,0
616,-55,0,0,0,0,0,0,0,0,0,-1,1840,1079,0,0
623,-55,0,0,0,0,0,0,0,0,0,-1,1847,1079,0,0
630,-55,0,0,0,0,0,0,0,0,0,-1,1854,1079,0,0
637,-55,0,0,0,0,0,0,0,0,0,-1,1861,1079,0,0
644,-55,0,0,0,0,0,0,0,0,0,-1,1868,1079,0,0
651,-55,45.0166,2.63721,0.000859629,-0.00149782,0.000144062,0.0008684,-0.00150659,0.0608076,0.0013876,0.0329977,1875,1079,45.0166,-2.63721
658,-55,45.1556,2.67285,2.25523e-05,-0.000912241,0.000402754,0.000172141,-0.00106183,0.355623,0.000771693,0.032552,1882,1079,45.1556,-2.67279
665,-55,45.0823,2.71838,-0.000324066,-0.000398922,0.000486262,0.000126207,-0.000849194,0.746988,0.000612548,0.0375358,1889,1079,45.0823,-2.71833
672,-55,45.031,2.71912,-0.000318723,-6.83147e-05,0.000625624,0.000444511,-0.000831549,0.884157,0.000747944,0.0384016,1896,1079,45.031,-2.71912
679,-55,44.9618,2.61304,-0.000209943,0.000161655,0.000732424,0.000731479,-0.000779767,0.909616,0.000872667,0.0374296,1903,1079,44.9618,-2.61301
686,-55,44.9479,2.49744,-0.000208336,5.95949e-05,0.000882286,0.000818028,-0.000966769,0.860742,0.00103164,0.0405601,1910,1079,44.9479,-2.49738
693,-55,45.0609,2.68945,-0.000170663,-0.000181021,0.00104722,0.000871388,-0.00122307,0.782925,0.00121491,0.0396719,1917,1079,45.0609,-2.68951
700,-55,45.0404,2.73328,-0.000157108,-0.000343716,0.00125641,0.00100946,-0.00151028,0.748335,0.00146432,0.0328199,1924,1079,45.0404,-2.73333
707,-55,45.0272,2.60608,-0.000381672,-0.000437047,0.00145856,0.00104946,-0.00186818,0.775908,0.00170646,0.0215366,1931,1079,45.0272,-2.60607
714,-55,45.0239,2.73438,-0.000716834,-0.000371895,0.00161249,0.00107733,-0.00216605,0.838675,0.00190741,0.0381735,1938,1079,45.0239,-2.73441
721,-55,45.0895,2.95825,0,0,0,0,0,0,0,-1,1945,1079,45.0895,-2.95827
728,-55,43.9183,6.18188,0,0,0,0,0,0,0,-1,1952,1079,43.9184,-6.18185
735,-55,43.8456,5.95007,-0.00198626,0.000736058,0.0019577,0.00175929,-0.0030095,1.08918,0.00278462,0.0199687,1959,1079,43.8456,-5.95001
742,-55,43.8341,5.73584,-0.00247338,0.00187507,0.000987239,0.00208871,-0.00268702,1.35768,0.00276447,0.0202918,1966,1079,43.8341,-5.73584
749,-55,43.8379,5.54407,-0.00311239,0.00382782,-0.0008121,0.00392158,-0.00320615,-1.45585,0.0041221,0.014002,1973,1079,43.8378,-5.54411
756,-55,43.77,5.35498,-0.00367071,0.00644541,-0.00359763,0.00759435,-0.00481965,-1.26167,0.00722666,0.0101235,1980,1079,43.77,-5.35502
763,-55,43.724,5.18091,-0.0042689,0.0104765,-0.0076001,0.0136924,-0.00748479,-1.1705,0.0124005,0.0130581,1987,1079,43.724,-5.1809
770,-55,43.7098,4.97412,-0.0047158,0.0157657,-0.0135811,0.0225344,-0.0114845,-1.10844,0.0199832,0.0153546,1994,1079,43.7098,-4.97416
777,-55,43.642,4.77234,-0.00504527,0.0225395,-0.021783,0.0345295,-0.0170352,-1.06763,0.0303366,0.0129014,2001,1079,43.6419,-4.77229
784,-55,43.5813,4.17432,0,0,0,0,0,0,0,-1,2008,1079,43.5814,-4.17431
791,-55,43.5671,2.99487,-0.00559573,0.0388285,-0.0420502,0.0641726,-0.0309398,-1.02839,0.0560194,0.042328,2015,1079,43.5672,-2.99491
798,-55,43.5598,1.80737,-0.00567565,0.0490037,-0.0546541,0.0827748,-0.0394468,-1.01731,0.0720275,0.0474962,2022,1079,43.5599,-1.80742
805,-55,43.8435,0.805908,-0.00543131,0.0609472,-0.068756,0.104105,-0.0485894,-1.01026,0.0900796,0.0464431,2029,1079,43.8435,-0.805969
812,-55,43.9482,0.00817871,-0.00506026,0.0749603,-0.0838552,0.127861,-0.0579613,-1.00799,0.109786,0.0434673,2036,1079,43.9483,-0.00814307
-700,-62,-36.8065,5.49841,0,0,0,0,0,0,0,-1,524,1086,-36.8065,-5.49843
-693,-62,-33.5375,-0.855347,0,0,0,0,0,0,0,-1,531,1086,-33.5375,0.855343
-686,-62,-32.8887,-0.974243,0.308594,0.115371,-0.094705,0.34727,0.0766947,-0.387718,0.210655,0.0480665,538,1086,-32.8887,0.974254
-679,-62,-33.1693,-0.708008,0.243144,0.0875447,-0.0644788,0.26639,0.0642983,-0.346023,0.160512,0.0458983,545,1086,-33.1693,0.707955
-672,-62,-32.7573,-1.87317,0,0,0,0,0,0,0,-1,552,1086,-32.7573,1.87317
-665,-62,-32.7078,-1.06323,0,0,0,0,0,0,0,-1,559,1086,-32.7078,1.06322
-658,-62,-32.7162,-0.202881,0,0,0,0,0,0,0,-1,566,1086,-32.7162,0.20292
-651,-62,-32.1072,1.33679,0.0717298,0.0251767,-0.00628867,0.0725644,0.0243421,-0.131936,0.0426446,0.037982,573,1086,-32.1073,-1.33681
-644,-62,-32.0917,1.75037,0.0455613,0.0186878,-0.000752589,0.0455824,0.0186668,-0.0279756,0.0264603,0.0144895,580,1086,-32.0917,-1.75037
-637,-62,-32.1124,2.047,0.0247455,0.00751388,0.00422166,0.0257242,0.00653518,0.227804,0.0154392,0.0132859,587,1086,-32.1124,-2.04694
-630,-62,-32.1525,2.31372,0.0119596,0.00256347,0.00478099,0.0139645,0.000558583,0.397072,0.00912919,0.0149151,594,1086,-32.1525,-2.31375
-623,-62,-32.1855,2.63428,0.00518314,0.00306627,0.00326587,0.00755781,0.000691608,0.628694,0.00482456,0.0167207,601,1086,-32.1855,-2.63425
-616,-62,-32.1957,2.90161,0.00260239,0.00177658,0.001439,0.00368656,0.000692416,0.645683,0.0022625,0.0162112,608,1086,-32.1957,-2.90162
-609,-62,-32.1668,3.15173,0.001147,0.00113296,0.000462109,0.00160214,0.000677816,0.777806,0.000928639,0.0158651,615,1086,-32.1668,-3.15174
-602,-62,-32.0898,3.40698,0.00136719,-8.78318e-06,9.5981e-05,0.00137385,-1.54461e-05,0.0693078,0.000921092,0.0167102,622,1086,-32.0898,-3.40697
-595,-62,-31.954,3.6947,0.00175258,-0.000809194,-0.000312374,0.00179012,-0.000846734,-0.119602,0.00155453,0.0316174,629,1086,-31.9541,-3.69474
-588,-62,-31.8919,3.97095,0,0,0,0,0,0,0,-1,636,1086,-31.8919,-3.97097
-581,-62,-33.3276,0.888306,0,0,0,0,0,0,0,-1,643,1086,-33.3276,-0.888288
-574,-62,-33.4103,0.99231,0.00250856,-0.00110109,-0.000112514,0.00251206,-0.00110459,-0.0311301,0.00214013,0.037042,650,1086,-33.4103,-0.992347
-567,-62,-33.3514,1.08423,0.00260764,-0.000925253,-0.000218665,0.00262112,-0.000938736,-0.0615807,0.00213042,0.0385356,657,1086,-33.3514,-1.08421
-560,-62,-33.2943,1.10352,0.00256513,-0.000581076,-0.000492478,0.00264042,-0.000656363,-0.151698,0.00201502,0.0420362,664,1086,-33.2943,-1.10357
-553,-62,-33.2953,0.930176,0.00236071,-0.000107932,-0.000977698,0.00270101,-0.000448235,-0.334951,0.00196718,0.0401026,671,1086,-33.2953,-0.930219
-546,-62,-33.2886,0.755615,0.00205266,0.000434472,-0.00165033,0.00308156,-0.000594427,-0.557485,0.00227851,0.033246,678,1086,-33.2886,-0.755558
-539,-62,-33.2374,0.659912,0.0018666,0.00079979,-0.00269903,0.00408443,-0.00141804,-0.687842,0.00329884,0.0391442,685,1086,-33.2375,-0.659907
-532,-62,-33.1823,0.663696,0.00139073,0.0014941,-0.00300359,0.00444645,-0.00156162,-0.794002,0.00359958,0.0410853,692,1086,-33.1823,-0.66364
-525,-62,0,0,0,0,0,0,0,0,0,-1,699,1086,0,0
-518,-62,0,0,0,0,0,0,0,0,0,-1,706,1086,0,0
-511,-62,0,0,0,0,0,0,0,0,0,-1,713,1086,0,0
-504,-62,0,0,0,0,0,0,0,0,0,-1,720,1086,0,0
-497,-62,0,0,0,0,0,0,0,0,0,-1,727,1086,0,0
-490,-62,0,0,0,0,0,0,0,0,0,-1,734,1086,0,0
-483,-62,0,0,0,0,0,0,0,0,0,-1,741,1086,0,0
-476,-62,0,0,0,0,0,0,0,0,0,-1,748,1086,0,0
-469,-62,0,0,0,0,0,0,0,0,0,-1,755,1086,0,0
-462,-62,0,0,0,0,0,0,0,0,0,-1,762,1086,0,0
-455,-62,0,0,0,0,0,0,0,0,0,-1,769,1086,0,0
-448,-62,0,0,0,0,0,0,0,0,0,-1,776,1086,0,0
-441,-62,0,0,0,0,0,0,0,0,0,-1,783,1086,0,0
-434,-62,0,0,0,0,0,0,0,0,0,-1,790,1086,0,0
-427,-62,0,0,0,0,0,0,0,0,0,-1,797,1086,0,0
-420,-62,0,0,0,0,0,0,0,0,0,-1,804,1086,0,0
-413,-62,0,0,0,0,0,0,0,0,0,-1,811,1086,0,0
-406,-62,0,0,0,0,0,0,0,0,0,-1,818,1086,0,0
-399,-62,0,0,0,0,0,0,0,0,0,-1,825,1086,0,0
-392,-62,0,0,0,0,0,0,0,0,0,-1,832,1086,0,0
-385,-62,0,0,0,0,0,0,0,0,0,-1,839,1086,0,0
-378,-62,0,0,0,0,0,0,0,0,0,-1,846,1086,0,0
-371,-62,0,0,0,0,0,0,0,0,0,-1,853,1086,0,0
-364,-62,0,0,0,0,0,0,0,0,0,-1,860,1086,0,0
-357,-62,0,0,0,0,0,0,0,0,0,-1,867,1086,0,0
-350,-62,0,0,0,0,0,0,0,0,0,-1,874,1086,0,0
-343,-62,0,0,0,0,0,0,0,0,0,-1,881,1086,0,0
-336,-62,0,0,0,0,0,0,0,0,0,-1,888,1086,0,0
-329,-62,0,0,0,0,0,0,0,0,0,-1,895,1086,0,0
-322,-62,0,0,0,0,0,0,0,0,0,-1,902,1086,0,0
-315,-62,0,0,0,0,0,0,0,0,0,-1,909,1086,0,0
-308,-62,0,0,0,0,0,0,0,0,0,-1,916,1086,0,0
-301,-62,0,0,0,0,0,0,0,0,0,-1,923,1086,0,0
-294,-62,0,0,0,0,0,0,0,0,0,-1,930,1086,0,0
-287,-62,0,0,0,0,0,0,0,0,0,-1,937,1086,0,0
-280,-62,0,0,0,0,0,0,0,0,0,-1,944,1086,0,0
-273,-62,0,0,0,0,0,0,0,0,0,-1,951,1086,0,0
-266,-62,0,0,0,0,0,0,0,0,0,-1,958,1086,0,0
-259,-62,0,0,0,0,0,0,0,0,0,-1,965,1086,0,0
-252,-62,0,0,0,0,0,0,0,0,0,-1,972,1086,0,0
-245,-62,0,0,0,0,0,0,0,0,0,-1,979,1086,0,0
-238,-62,0,0,0,0,0,0,0,0,0,-1,986,1086,0,0
-231,-62,0,0,0,0,0,0,0,0,0,-1,993,1086,0,0
-224,-62,0,0,0,0,0,0,0,0,0,-1,1000,1086,0,0
-217,-62,0,0,0,0,0,0,0,0,0,-1,1007,1086,0,0
-210,-62,0,0,0,0,0,0,0,0,0,-1,1014,1086,0,0
-203,-62,0,0,0,0,0,0,0,0,0,-1,1021,1086,0,0
-196,-62,0,0,0,0,0,0,0,0,0,-1,1028,1086,0,0
-189,-62,0,0,0,0,0,0,0,0,0,-1,1035,1086,0,0
-182,-62,0,0,0,0,0,0,0,0,0,-1,1042,1086,0,0
-175,-62,0,0,0,0,0,0,0,0,0,-1,1049,1086,0,0
-168,-62,0,0,0,0,0,0,0,0,0,-1,1056,1086,0,0
-161,-62,0,0,0,0,0,0,0,0,0,-1,1063,1086,0,0
-154,-62,0,0,0,0,0,0,0,0,0,-1,1070,1086,0,0
-147,-62,0,0,0,0,0,0,0,0,0,-1,1077,1086,0,0
-140,-62,0,0,0,0,0,0,0,0,0,-1,1084,1086,0,0
-133,-62,0,0,0,0,0,0,0,0,0,-1,1091,1086,0,0
-126,-62,0,0,0,0,0,0,0,0,0,-1,1098,1086,0,0
-119,-62,0,0,0,0,0,0,0,0,0,-1,1105,1086,0,0
-112,-62,0,0,0,0,0,0,0,0,0,-1,1112,1086,0,0
-105,-62,0,0,0,0,0,0,0,0,0,-1,1119,1086,0,0
-98,-62,0,0,0,0,0,0,0,0,0,-1,1126,1086,0,0
-91,-62,0,0,0,0,0,0,0,0,0,-1,1133,1086,0,0
-84,-62,0,0,0,0,0,0,0,0,0,-1,1140,1086,0,0
-77,-62,0,0,0,0,0,0,0,0,0,-1,1147,1086,0,0
-70,-62,0,0,0,0,0,0,0,0,0,-1,1154,1086,0,0
-63,-62,0,0,0,0,0,0,0,0,0,-1,1161,1086,0,0
-56,-62,0,0,0,0,0,0,0,0,0,-1,1168,1086,0,0
-49,-62,0,0,0,0,0,0,0,0,0,-1,1175,1086,0,0
-42,-62,0,0,0,0,0,0,0,0,0,-1,1182,1086,0,0
-35,-62,0,0,0,0,0,0,0,0,0,-1,1189,1086,0,0
-28,-62,0,0,0,0,0,0,0,0,0,-1,1196,1086,0,0
-21,-62,0,0,0,0,0,0,0,0,0,-1,1203,1086,0,0
-14,-62,0,0,0,0,0,0,0,0,0,-1,1210,1086,0,0
-7,-62,0,0,0,0,0,0,0,0,0,-1,1217,1086,0,0
0,-62,0,0,0,0,0,0,0,0,0,-1,1224,1086,0,0
7,-62,0,0,0,0,0,0,0,0,0,-1,1231,1086,0,0
14,-62,0,0,0,0,0,0,0,0,0,-1,1238,1086,0,0
21,-62,0,0,0,0,0,0,0,0,0,-1,1245,1086,0,0
28,-62,0,0,0,0,0,0,0,0,0,-1,1252,1086,0,0
35,-62,0,0,0,0,0,0,0,0,0,-1,1259,1086,0,0
42,-62,0,0,0,0,0,0,0,0,0,-1,1266,1086,0,0
49,-62,0,0,0,0,0,0,0,0,0,-1,1273,1086,0,0
56,-62,0,0,0,0,0,0,0,0,0,-1,1280,1086,0,0
63,-62,0,0,0,0,0,0,0,0,0,-1,1287,1086,0,0
70,-62,0,0,0,0,0,0,0,0,0,-1,1294,1086,0,0
77,-62,0,0,0,0,0,0,0,0,0,-1,1301,1086,0,0
84,-62,0,0,0,0,0,0,0,0,0,-1,1308,1086,0,0
91,-62,0,0,0,0,0,0,0,0,0,-1,1315,1086,0,0
98,-62,0,0,0,0,0,0,0,0,0,-1,1322,1086,0,0
105,-62,0,0,0,0,0,0,0,0,0,-1,1329,1086,0,0
112,-62,0,0,0,0,0,0,0,0,0,-1,1336,1086,0,0
119,-62,0,0,0,0,0,0,0,0,0,-1,1343,1086,0,0
126,-62,0,0,0,0,0,0,0,0,0,-1,1350,1086,0,0
133,-62,0,0,0,0,0,0,0,0,0,-1,1357,1086,0,0
140,-62,0,0,0,0,0,0,0,0,0,-1,1364,1086,0,0
147,-62,0,0,0,0,0,0,0,0,0,-1,1371,1086,0,0
154,-62,0,0,0,0,0,0,0,0,0,-1,1378,1086,0,0
161,-62,0,0,0,0,0,0,0,0,0,-1,1385,1086,0,0
168,-62,0,0,0,0,0,0,0,0,0,-1,1392,1086,0,0
175,-62,0,0,0,0,0,0,0,0,0,-1,1399,1086,0,0
182,-62,0,0,0,0,0,0,0,0,0,-1,1406,1086,0,0
189,-62,0,0,0,0,0,0,0,0,0,-1,1413,1086,0,0
196,-62,0,0,0,0,0,0,0,0,0,-1,1420,1086,0,0
203,-62,0,0,0,0,0,0,0,0,0,-1,1427,1086,0,0
210,-62,0,0,0,0,0,0,0,0,0,-1,1434,1086,0,0
217,-62,0,0,0,0,0,0,0,0,0,-1,1441,1086,0,0
224,-62,0,0,0,0,0,0,0,0,0,-1,1448,1086,0,0
231,-62,0,0,0,0,0,0,0,0,0,-1,1455,1086,0,0
238,-62,0,0,0,0,0,0,0,0,0,-1,1462,1086,0,0
245,-62,0,0,0,0,0,0,0,0,0,-1,1469,1086,0,0
252,-62,0,0,0,0,0,0,0,0,0,-1,1476,1086,0,0
259,-62,0,0,0,0,0,0,0,0,0,-1,1483,1086,0,0
266,-62,0,0,0,0,0,0,0,0,0,-1,1490,1086,0,0
273,-62,0,0,0,0,0,0,0,0,0,-1,1497,1086,0,0
280,-62,0,0,0,0,0,0,0,0,0,-1,1504,1086,0,0
287,-62,0,0,0,0,0,0,0,0,0,-1,1511,1086,0,0
294,-62,0,0,0,0,0,0,0,0,0,-1,1518,1086,0,0
301,-62,0,0,0,0,0,0,0,0,0,-1,1525,1086,0,0
308,-62,0,0,0,0,0,0,0,0,0,-1,1532,1086,0,0
315,-62,0,0,0,0,0,0,0,0,0,-1,1539,1086,0,0
322,-62,0,0,0,0,0,0,0,0,0,-1,1546,1086,0,0
329,-62,0,0,0,0,0,0,0,0,0,-1,1553,1086,0,0
336,-62,0,0,0,0,0,0,0,0,0,-1,1560,1086,0,0
343,-62,0,0,0,0,0,0,0,0,0,-1,1567,1086,0,0
350,-62,0,0,0,0,0,0,0,0,0,-1,1574,1086,0,0
357,-62,0,0,0,0,0,0,0,0,0,-1,1581,1086,0,0
364,-62,0,0,0,0,0,0,0,0,0,-1,1588,1086,0,0
371,-62,0,0,0,0,0,0,0,0,0,-1,1595,1086,0,0
378,-62,0,0,0,0,0,0,0,0,0,-1,1602,1086,0,0
385,-62,0,0,0,0,0,0,0,0,0,-1,1609,1086,0,0
392,-62,0,0,0,0,0,0,0,0,0,-1,1616,1086,0,0
399,-62,0,0,0,0,0,0,0,0,0,-1,1623,1086,0,0
406,-62,0,0,0,0,0,0,0,0,0,-1,1630,1086,0,0
413,-62,0,0,0,0,0,0,0,0,0,-1,1637,1086,0,0
420,-62,0,0,0,0,0,0,0,0,0,-1,1644,1086,0,0
427,-62,0,0,0,0,0,0,0,0,0,-1,1651,1086,0,0
434,-62,0,0,0,0,0,0,0,0,0,-1,1658,1086,0,0
441,-62,0,0,0,0,0,0,0,0,0,-1,1665,1086,0,0
448,-62,0,0,0,0,0,0,0,0,0,-1,1672,1086,0,0
455,-62,0,0,0,0,0,0,0,0,0,-1,1679,1086,0,0
462,-62,0,0,0,0,0,0,0,0,0,-1,1686,1086,0,0
469,-62,0,0,0,0,0,0,0,0,0,-1,1693,1086,0,0
476,-62,0,0,0,0,0,0,0,0,0,-1,1700,1086,0,0
483,-62,0,0,0,0,0,0,0,0,0,-1,1707,1086,0,0
490,-62,0,0,0,0,0,0,0,0,0,-1,1714,1086,0,0
497,-62,0,0,0,0,0,0,0,0,0,-1,1721,1086,0,0
504,-62,0,0,0,0,0,0,0,0,0,-1,1728,1086,0,0
511,-62,0,0,0,0,0,0,0,0,0,-1,1735,1086,0,0
518,-62,0,0,0,0,0,0,0,0,0,-1,1742,1086,0,0
525,-62,0,0,0,0,0,0,0,0,0,-1,1749,1086,0,0
532,-62,0,0,0,0,0,0,0,0,0,-1,1756,1086,0,0
539,-62,0,0,0,0,0,0,0,0,0,-1,1763,1086,0,0
546,-62,0,0,0,0,0,0,0,0,0,-1,1770,1086,0,0
553,-62,0,0,0,0,0,0,0,0,0,-1,1777,1086,0,0
560,-62,0,0,0,0,0,0,0,0,0,-1,1784,1086,0,0
567,-62,0,0,0,0,0,0,0,0,0,-1,1791,1086,0,0
574,-62,0,0,0,0,0,0,0,0,0,-1,1798,1086,0,0
581,-62,0,0,0,0,0,0,0,0,0,-1,1805,1086,0,0
588,-62,0,0,0,0,0,0,0,0,0,-1,1812,1086,0,0
595,-62,0,0,0,0,0,0,0,0,0,-1,1819,1086,0,0
602,-62,0,0,0,0,0,0,0,0,0,-1,1826,1086,0,0
609,-62,0,0,0,0,0,0,0,0,0,-1,1833,1086,0,0
616,-62,0,0,0,0,0,0,0,0,0,-1,1840,1086,0,0
623,-62,0,0,0,0,0,0,0,0,0,-1,1847,1086,0,0
630,-62,0,0,0,0,0,0,0,0,0,-1,1854,1086,0,0
637,-62,0,0,0,0,0,0,0,0,0,-1,1861,1086,0,0
644,-62,0,0,0,0,0,0,0,0,0,-1,1868,1086,0,0
651,-62,44.9351,2.6416,0.00165831,-0.00197593,0.000136401,0.00166343,-0.00198104,0.0374619,0.00210679,0.0371105,1875,1086,44.9351,-2.64155
658,-62,45.1061,2.60327,0.000690401,-0.0012797,0.000292366,0.000732873,-0.00132217,0.14426,0.00120263,0.0388456,1882,1086,45.1061,-2.6033
665,-62,44.9906,2.69617,0.000213549,-0.00067915,0.000326956,0.000320488,-0.000786089,0.316107,0.000657463,0.0378597,1889,1086,44.9906,-2.69612
672,-62,44.9786,2.69312,0.000101475,-0.000283,0.000412511,0.000364342,-0.000545867,0.567351,0.000528982,0.0356852,1896,1086,44.9787,-2.69306
679,-62,44.9956,2.57617,6.72155e-05,-1.58056e-05,0.000487259,0.000514729,-0.000463319,0.742905,0.000564936,0.0368972,1903,1086,44.9956,-2.57619
686,-62,45.03,2.47583,-2.15373e-05,-8.78694e-05,0.000634192,0.000580355,-0.000689762,0.759274,0.000734209,0.038917,1910,1086,45.03,-2.47581
693,-62,45.0443,2.65857,-2.91102e-05,-0.000297852,0.000798249,0.000645999,-0.000972961,0.702014,0.000941039,0.0373068,1917,1086,45.0443,-2.65855
700,-62,45.0427,2.64368,-5.99918e-05,-0.000432135,0.0010226,0.000793329,-0.00128546,0.695403,0.00121135,0.029363,1924,1086,45.0427,-2.64363
707,-62,45.0045,2.62,-0.000295944,-0.000506517,0.00123381,0.000837062,-0.00163952,0.742834,0.00145466,0.0186023,1931,1086,45.0045,-2.61998
714,-62,45.0414,2.62476,-0.000610981,-0.000456184,0.00139059,0.000859156,-0.00192632,0.813199,0.00164707,0.0343979,1938,1086,45.0414,-2.62472
721,-62,45.1298,2.71204,0,0,0,0,0,0,0,-1,1945,1086,45.1297,-2.712
728,-62,43.6356,6.27002,0,0,0,0,0,0,0,-1,1952,1086,43.6357,-6.27001
735,-62,43.6088,5.95337,-0.00186524,0.000581848,0.00187524,0.00159741,-0.0028808,1.07445,0.00262065,0.0238597,1959,1086,43.6087,-5.95338
742,-62,43.5884,5.7616,-0.00233896,0.00166049,0.000961634,0.0018797,-0.00255817,1.34668,0.00257216,0.0229443,1966,1086,43.5883,-5.76154
749,-62,43.5526,5.52637,-0.00313818,0.003379,-0.00105657,0.00354602,-0.00330519,-1.41402,0.00395636,0.0173088,1973,1086,43.5527,-5.52635
756,-62,43.4779,5.37268,-0.004012,0.005695,-0.00412488,0.00721105,-0.00552804,-1.21858,0.00737628,0.0133852,1980,1086,43.478,-5.37264
763,-62,43.4707,5.16248,-0.00508254,0.00927647,-0.00851005,0.013231,-0.00903704,-1.1358,0.0129322,0.0147003,1987,1086,43.4707,-5.16245
770,-62,43.4679,4.92151,-0.00625057,0.0139224,-0.0150858,0.021983,-0.0143112,-1.08007,0.0211099,0.0124034,1994,1086,43.4679,-4.92153
777,-62,43.3802,4.66541,-0.00768993,0.0195982,-0.0240335,0.0335906,-0.0216823,-1.04357,0.0321577,0.0130374,2001,1086,43.3802,-4.66536
784,-62,43.3296,4.05298,0,0,0,0,0,0,0,-1,2008,1086,43.3297,-4.05292
791,-62,43.3481,2.67786,-0.0113879,0.0328329,-0.0463675,0.0620918,-0.0406468,-1.00788,0.0597454,0.0433855,2015,1086,43.3481,-2.6778
798,-62,43.3738,1.3031,-0.0137556,0.0408069,-0.0604278,0.0798264,-0.0527751,-0.997435,0.0770867,0.0478297,2022,1086,43.3738,-1.30313
805,-62,43.4531,-0.0300293,0,0,0,0,0,0,0,-1,2029,1086,43.4531,0.0299807
812,-62,41.2214,-1.64905,0,0,0,0,0,0,0,-1,2036,1086,41.2215,1.64904
-700,-69,-30.9086,4.0498,0,0,0,0,0,0,0,-1,524,1093,-30.9086,-4.04974
-693,-69,-35.8587,-7.56409,0,0,0,0,0,0,0,-1,531,1093,-35.8587,7.5641
-686,-69,-34.7823,-5.83447,0,0,0,0,0,0,0,-1,538,1093,-34.7822,5.83442
-679,-69,-33.3666,0.0454102,0,0,0,0,0,0,0,-1,545,1093,-33.3666,-0.0453675
-672,-69,-33.5085,-2.06567,0,0,0,0,0,0,0,-1,552,1093,-33.5086,2.06564
-665,-69,-32.86,-0.697632,0,0,0,0,0,0,0,-1,559,1093,-32.8601,0.697588
-658,-69,-32.2115,0.67041,0,0,0,0,0,0,0,-1,566,1093,-32.2116,-0.670466
-651,-69,-31.751,1.42041,0.0758785,0.0202934,-0.00226032,0.0759703,0.0202017,-0.0405749,0.0454355,0.0335673,573,1093,-31.751,-1.42037
-644,-69,-31.7739,1.74072,0.0483804,0.0148612,0.0021998,0.0485241,0.0147174,0.065255,0.028729,0.0102252,580,1093,-31.774,-1.74067
-637,-69,-31.8214,2.04797,0.0267187,0.00483414,0.00602327,0.0282669,0.00328589,0.251598,0.0178504,0.0119422,587,1093,-31.8214,-2.04793
-630,-69,-31.8531,2.32202,0.0135114,0.00103192,0.00552447,0.0156056,-0.00106225,0.362336,0.0107753,0.0147111,594,1093,-31.8531,-2.32201
-623,-69,-31.8265,2.60217,0.00619294,0.00194929,0.00355289,0.00820937,-6.71381e-05,0.516215,0.00549543,0.0155454,601,1093,-31.8265,-2.6022
-616,-69,-31.8206,2.85718,0.00307919,0.0012491,0.00156199,0.00397442,0.000353867,0.520434,0.00253989,0.0175795,608,1093,-31.8206,-2.85718
-609,-69,-31.8223,3.11389,0.00134019,0.0010201,0.000568935,0.00177116,0.000589125,0.648287,0.0010415,0.0162847,615,1093,-31.8223,-3.11386
-602,-69,-31.7987,3.44031,0.00167412,0.000133722,0.000303025,0.00173159,7.62552e-05,0.187418,0.00112983,0.0201474,622,1093,-31.7987,-3.44034
-595,-69,-31.6871,3.69995,0.00212057,-0.00060812,-0.000122457,0.00212605,-0.000613605,-0.0447578,0.00166014,0.0322329,629,1093,-31.6871,-3.69991
-588,-69,-31.6252,3.96472,0,0,0,0,0,0,0,-1,636,1093,-31.6252,-3.9647
-581,-69,-33.3564,0.927612,0,0,0,0,0,0,0,-1,643,1093,-33.3564,-0.927651
-574,-69,-33.4139,0.800659,0.00284147,-0.000889116,6.30756e-05,0.00284254,-0.000890182,0.0169013,0.0022512,0.0330936,650,1093,-33.4139,-0.800627
-567,-69,-33.3146,1.07336,0.002922,-0.000780669,-5.44077e-05,0.0029228,-0.000781468,-0.01469,0.00225463,0.0384876,657,1093,-33.3146,-1.07335
-560,-69,-33.2126,1.35925,0.00285579,-0.000558862,-0.000354092,0.00289212,-0.000595194,-0.102248,0.00215407,0.0413319,664,1093,-33.2126,-1.3593
-553,-69,-33.3233,1.30249,0.00256389,-0.000275095,-0.000899105,0.00282468,-0.000535885,-0.282308,0.00208483,0.040454,671,1093,-33.3233,-1.30245
-546,-69,-33.2614,0.943726,0.00215229,4.17336e-06,-0.00166193,0.00305702,-0.000900562,-0.498524,0.00239532,0.037108,678,1093,-33.2614,-0.943675
-539,-69,-33.1017,0.674438,0.00197727,1.02335e-06,-0.00278026,0.00393978,-0.00196149,-0.614657,0.00347033,0.0394268,685,1093,-33.1017,-0.674453
-532,-69,-32.8978,0.537598,0.00152281,0.000305831,-0.00319948,0.00417115,-0.0023425,-0.691428,0.00380974,0.0400515,692,1093,-32.8978,-0.537615
-525,-69,0,0,0,0,0,0,0,0,0,-1,699,1093,0,0
-518,-69,0,0,0,0,0,0,0,0,0,-1,706,1093,0,0
-511,-69,0,0,0,0,0,0,0,0,0,-1,713,1093,0,0
-504,-69,0,0,0,0,0,0,0,0,0,-1,720,1093,0,0
-497,-69,0,0,0,0,0,0,0,0,0,-1,727,1093,0,0
-490,-69,0,0,0,0,0,0,0,0,0,-1,734,1093,0,0
-483,-69,0,0,0,0,0,0,0,0,0,-1,741,1093,0,0
-476,-69,0,0,0,0,0,0,0,0,0,-1,748,1093,0,0
-469,-69,0,0,0,0,0,0,0,0,0,-1,755,1093,0,0
-462,-69,0,0,0,0,0,0,0,0,0,-1,762,1093,0,0
-455,-69,0,0,0,0,0,0,0,0,0,-1,769,1093,0,0
-448,-69,0,0,0,0,0,0,0,0,0,-1,776,1093,0,0
-441,-69,0,0,0,0,0,0,0,0,0,-1,783,1093,0,0
-434,-69,0,0,0,0,0,0,0,0,0,-1,790,1093,0,0
-427,-69,0,0,0,0,0,0,0,0,0,-1,797,1093,0,0
-420,-69,0,0,0,0,0,0,0,0,0,-1,804,1093,0,0
-413,-69,0,0,0,0,0,0,0,0,0,-1,811,1093,0,0
-406,-69,0,0,0,0,0,0,0,0,0,-1,818,1093,0,0
-399,-69,0,0,0,0,0,0,0,0,0,-1,825,1093,0,0
-392,-69,0,0,0,0,0,0,0,0,0,-1,832,1093,0,0
-385,-69,0,0,0,0,0,0,0,0,0,-1,839,1093,0,0
-378,-69,0,0,0,0,0,0,0,0,0,-1,846,1093,0,0
-371,-69,0,0,0,0,0,0,0,0,0,-1,853,1093,0,0
-364,-69,0,0,0,0,0,0,0,0,0,-1,860,1093,0,0
-357,-69,0,0,0,0,0,0,0,0,0,-1,867,1093,0,0
-350,-69,0,0,0,0,0,0,0,0,0,-1,874,1093,0,0
-343,-69,0,0,0,0,0,0,0,0,0,-1,881,1093,0,0
-336,-69,0,0,0,0,0,0,0,0,0,-1,888,1093,0,0
-329,-69,0,0,0,0,0,0,0,0,0,-1,895,1093,0,0
-322,-69,0,0,0,0,0,0,0,0,0,-1,902,1093,0,0
-315,-69,0,0,0,0,0,0,0,0,0,-1,909,1093,0,0
-308,-69,0,0,0,0,0,0,0,0,0,-1,916,1093,0,0
-301,-69,0,0,0,0,0,0,0,0,0,-1,923,1093,0,0
-294,-69,0,0,0,0,0,0,0,0,0,-1,930,1093,0,0
-287,-69,0,0,0,0,0,0,0,0,0,-1,937,1093,0,0
-280,-69,0,0,0,0,0,0,0,0,0,-1,944,1093,0,0
-273,-69,0,0,0,0,0,0,0,0,0,-1,951,1093,0,0
-266,-69,0,0,0,0,0,0,0,0,0,-1,958,1093,0,0
-259,-69,0,0,0,0,0,0,0,0,0,-1,965,1093,0,0
-252,-69,0,0,0,0,0,0,0,0,0,-1,972,1093,0,0
-245,-69,0,0,0,0,0,0,0,0,0,-1,979,1093,0,0
-238,-69,0,0,0,0,0,0,0,0,0,-1,986,1093,0,0
-231,-69,0,0,0,0,0,0,0,0,0,-1,993,1093,0,0
-224,-69,0,0,0,0,0,0,0,0,0,-1,1000,1093,0,0
-217,-69,0,0,0,0,0,0,0,0,0,-1,1007,1093,0,0
-210,-69,0,0,0,0,0,0,0,0,0,-1,1014,1093,0,0
-203,-69,0,0,0,0,0,0,0,0,0,-1,1021,1093,0,0
-196,-69,0,0,0,0,0,0,0,0,0,-1,1028,1093,0,0
-189,-69,0,0,0,0,0,0,0,0,0,-1,1035,1093,0,0
-182,-69,0,0,0,0,0,0,0,0,0,-1,1042,1093,0,0
-175,-69,0,0,0,0,0,0,0,0,0,-1,1049,1093,0,0
-168,-69,0,0,0,0,0,0,0,0,0,-1,1056,1093,0,0
-161,-69,0,0,0,0,0,0,0,0,0,-1,1063,1093,0,0
-154,-69,0,0,0,0,0,0,0,0,0,-1,1070,1093,0,0
-147,-69,0,0,0,0,0,0,0,0,0,-1,1077,1093,0,0
-140,-69,0,0,0,0,0,0,0,0,0,-1,1084,1093,0,0
-133,-69,0,0,0,0,0,0,0,0,0,-1,1091,1093,0,0
-126,-69,0,0,0,0,0,0,0,0,0,-1,1098,1093,0,0
-119,-69,0,0,0,0,0,0,0,0,0,-1,1105,1093,0,0
-112,-69,0,0,0,0,0,0,0,0,0,-1,1112,1093,0,0
-105,-69,0,0,0,0,0,0,0,0,0,-1,1119,1093,0,0
-98,-69,0,0,0,0,0,0,0,0,0,-1,1126,1093,0,0
-91,-69,0,0,0,0,0,0,0,0,0,-1,1133,1093,0,0
-84,-69,0,0,0,0,0,0,0,0,0,-1,1140,1093,0,0
-77,-69,0,0,0,0,0,0,0,0,0,-1,1147,1093,0,0
-70,-69,0,0,0,0,0,0,0,0,0,-1,1154,1093,0,0
-63,-69,0,0,0,0,0,0,0,0,0,-1,1161,1093,0,0
-56,-69,0,0,0,0,0,0,0,0,0,-1,1168,1093,0,0
-49,-69,0,0,0,0,0,0,0,0,0,-1,1175,1093,0,0
-42,-69,0,0,0,0,0,0,0,0,0,-1,1182,1093,0,0
-35,-69,0,0,0,0,0,0,0,0,0,-1,1189,1093,0,0
-28,-69,0,0,0,0,0,0,0,0,0,-1,1196,1093,0,0
-21,-69,0,0,0,0,0,0,0,0,0,-1,1203,1093,0,0
-14,-69,0,0,0,0,0,0,0,0,0,-1,1210,1093,0,0
-7,-69,0,0,0,0,0,0,0,0,0,-1,1217,1093,0,0
0,-69,0,0,0,0,0,0,0,0,0,-1,1224,1093,0,0
7,-69,0,0,0,0,0,0,0,0,0,-1,1231,1093,0,0
14,-69,0,0,0,0,0,0,0,0,0,-1,1238,1093,0,0
21,-69,0,0,0,0,0,0,0,0,0,-1,1245,1093,0,0
28,-69,0,0,0,0,0,0,0,0,0,-1,1252,1093,0,0
35,-69,0,0,0,0,0,0,0,0,0,-1,1259,1093,0,0
42,-69,0,0,0,0,0,0,0,0,0,-1,1266,1093,0,0
49,-69,0,0,0,0,0,0,0,0,0,-1,1273,1093,0,0
56,-69,0,0,0,0,0,0,0,0,0,-1,1280,1093,0,0
63,-69,0,0,0,0,0,0,0,0,0,-1,1287,1093,0,0
70,-69,0,0,0,0,0,0,0,0,0,-1,1294,1093,0,0
77,-69,0,0,0,0,0,0,0,0,0,-1,1301,1093,0,0
84,-69,0,0,0,0,0,0,0,0,0,-1,1308,1093,0,0
91,-69,0,0,0,0,0,0,0,0,0,-1,1315,1093,0,0
98,-69,0,0,0,0,0,0,0,0,0,-1,1322,1093,0,0
105,-69,0,0,0,0,0,0,0,0,0,-1,1329,1093,0,0
112,-69,0,0,0,0,0,0,0,0,0,-1,1336,1093,0,0
119,-69,0,0,0,0,0,0,0,0,0,-1,1343,1093,0,0
126,-69,0,0,0,0,0,0,0,0,0,-1,1350,1093,0,0
133,-69,0,0,0,0,0,0,0,0,0,-1,1357,1093,0,0
140,-69,0,0,0,0,0,0,0,0,0,-1,1364,1093,0,0
147,-69,0,0,0,0,0,0,0,0,0,-1,1371,1093,0,0
154,-69,0,0,0,0,0,0,0,0,0,-1,1378,1093,0,0
161,-69,0,0,0,0,0,0,0,0,0,-1,1385,1093,0,0
168,-69,0,0,0,0,0,0,0,0,0,-1,1392,1093,0,0
175,-69,0,0,0,0,0,0,0,0,0,-1,1399,1093,0,0
182,-69,0,0,0,0,0,0,0,0,0,-1,1406,1093,0,0
189,-69,0,0,0,0,0,0,0,0,0,-1,1413,1093,0,0
196,-69,0,0,0,0,0,0,0,0,0,-1,1420,1093,0,0
203,-69,0,0,0,0,0,0,0,0,0,-1,1427,1093,0,0
210,-69,0,0,0,0,0,0,0,0,0,-1,1434,1093,0,0
217,-69,0,0,0,0,0,0,0,0,0,-1,1441,1093,0,0
224,-69,0,0,0,0,0,0,0,0,0,-1,1448,1093,0,0
231,-69,0,0,0,0,0,0,0,0,0,-1,1455,1093,0,0
238,-69,0,0,0,0,0,0,0,0,0,-1,1462,1093,0,0
245,-69,0,0,0,0,0,0,0,0,0,-1,1469,1093,0,0
252,-69,0,0,0,0,0,0,0,0,0,-1,1476,1093,0,0
259,-69,0,0,0,0,0,0,0,0,0,-1,1483,1093,0,0
266,-69,0,0,0,0,0,0,0,0,0,-1,1490,1093,0,0
273,-69,0,0,0,0,0,0,0,0,0,-1,1497,1093,0,0
280,-69,0,0,0,0,0,0,0,0,0,-1,1504,1093,0,0
287,-69,0,0,0,0,0,0,0,0,0,-1,1511,1093,0,0
294,-69,0,0,0,0,0,0,0,0,0,-1,1518,1093,0,0
301,-69,0,0,0,0,0,0,0,0,0,-1,1525,1093,0,0
308,-69,0,0,0,0,0,0,0,0,0,-1,1532,1093,0,0
315,-69,0,0,0,0,0,0,0,0,0,-1,1539,1093,0,0
322,-69,0,0,0,0,0,0,0,0,0,-1,1546,1093,0,0
329,-69,0,0,0,0,0,0,0,0,0,-1,1553,1093,0,0
336,-69,0,0,0,0,0,0,0,0,0,-1,1560,1093,0,0
343,-69,0,0,0,0,0,0,0,0,0,-1,1567,1093,0,0
350,-69,0,0,0,0,0,0,0,0,0,-1,1574,1093,0,0
357,-69,0,0,0,0,0,0,0,0,0,-1,1581,1093,0,0
364,-69,0,0,0,0,0,0,0,0,0,-1,1588,1093,0,0
371,-69,0,0,0,0,0,0,0,0,0,-1,1595,1093,0,0
378,-69,0,0,0,0,0,0,0,0,0,-1,1602,1093,0,0
385,-69,0,0,0,0,0,0,0,0,0,-1,1609,1093,0,0
392,-69,0,0,0,0,0,0,0,0,0,-1,1616,1093,0,0
399,-69,0,0,0,0,0,0,0,0,0,-1,1623,1093,0,0
406,-69,0,0,0,0,0,0,0,0,0,-1,1630,1093,0,0
413,-69,0,0,0,0,0,0,0,0,0,-1,1637,1093,0,0
420,-69,0,0,0,0,0,0,0,0,0,-1,1644,1093,0,0
427,-69,0,0,0,0,0,0,0,0,0,-1,1651,1093,0,0
434,-69,0,0,0,0,0,0,0,0,0,-1,1658,1093,0,0
441,-69,0,0,0,0,0,0,0,0,0,-1,1665,1093,0,0
448,-69,0,0,0,0,0,0,0,0,0,-1,1672,1093,0,0
455,-69,0,0,0,0,0,0,0,0,0,-1,1679,1093,0,0
462,-69,0,0,0,0,0,0,0,0,0,-1,1686,1093,0,0
469,-69,0,0,0,0,0,0,0,0,0,-1,1693,1093,0,0
476,-69,0,0,0,0,0,0,0,0,0,-1,1700,1093,0,0
483,-69,0,0,0,0,0,0,0,0,0,-1,1707,1093,0,0
490,-69,0,0,0,0,0,0,0,0,0,-1,1714,1093,0,0
497,-69,0,0,0,0,0,0,0,0,0,-1,1721,1093,0,0
504,-69,0,0,0,0,0,0,0,0,0,-1,1728,1093,0,0
511,-69,0,0,0,0,0,0,0,0,0,-1,1735,1093,0,0
518,-69,0,0,0,0,0,0,0,0,0,-1,1742,1093,0,0
525,-69,0,0,0,0,0,0,0,0,0,-1,1749,1093,0,0
532,-69,0,0,0,0,0,0,0,0,0,-1,1756,1093,0,0
539,-69,0,0,0,0,0,0,0,0,0,-1,1763,1093,0,0
546,-69,0,0,0,0,0,0,0,0,0,-1,1770,1093,0,0
553,-69,0,0,0,0,0,0,0,0,0,-1,1777,1093,0,0
560,-69,0,0,0,0,0,0,0,0,0,-1,1784,1093,0,0
567,-69,0,0,0,0,0,0,0,0,0,-1,1791,1093,0,0
574,-69,0,0,0,0,0,0,0,0,0,-1,1798,1093,0,0
581,-69,0,0,0,0,0,0,0,0,0,-1,1805,1093,0,0
588,-69,0,0,0,0,0,0,0,0,0,-1,1812,1093,0,0
595,-69,0,0,0,0,0,0,0,0,0,-1,1819,1093,0,0
602,-69,0,0,0,0,0,0,0,0,0,-1,1826,1093,0,0
609,-69,0,0,0,0,0,0,0,0,0,-1,1833,1093,0,0
616,-69,0,0,0,0,0,0,0,0,0,-1,1840,1093,0,0
623,-69,0,0,0,0,0,0,0,0,0,-1,1847,1093,0,0
630,-69,0,0,0,0,0,0,0,0,0,-1,1854,1093,0,0
637,-69,0,0,0,0,0,0,0,0,0,-1,1861,1093,0,0
644,-69,0,0,0,0,0,0,0,0,0,-1,1868,1093,0,0
651,-69,44.9281,2.62561,0.00180142,-0.00184443,-0.000506693,0.00187053,-0.00191353,-0.135556,0.00218478,0.0377282,1875,1093,44.9281,-2.62566
658,-69,44.9319,2.58154,0.000864827,-0.00122833,-0.000247483,0.00089369,-0.00125719,-0.116102,0.00124771,0.0406037,1882,1093,44.9319,-2.58156
665,-69,44.9835,2.49158,0.000377934,-0.0006905,-0.00011693,0.000390581,-0.000703147,-0.107742,0.000640002,0.0419579,1889,1093,44.9835,-2.49159
672,-69,45.0032,2.57605,0.000234195,-0.000348432,2.47175e-05,0.000235242,-0.000349479,0.0423228,0.000339729,0.0376333,1896,1093,45.0032,-2.57605
679,-69,44.9954,2.45398,0.00013364,-0.000149306,0.000148963,0.000197604,-0.00021327,0.40559,0.000237276,0.037113,1903,1093,44.9953,-2.454
686,-69,45.0309,2.45911,2.9926e-05,-0.000252072,0.000330621,0.000248358,-0.000470504,0.583842,0.000421589,0.036021,1910,1093,45.0309,-2.45909
693,-69,45.0363,2.55554,3.64371e-05,-0.000465814,0.000506161,0.000350345,-0.000779722,0.555122,0.000667959,0.033627,1917,1093,45.0363,-2.55548
700,-69,44.9952,2.53491,9.84035e-06,-0.000600351,0.00074459,0.000509417,-0.00109993,0.590957,0.000949776,0.0274099,1924,1093,44.9952,-2.53492
707,-69,44.9753,2.5614,-0.000196389,-0.000657996,0.000967627,0.00056758,-0.00142197,0.668323,0.00118344,0.0196789,1931,1093,44.9753,-2.56136
714,-69,45.017,2.50317,-0.000466034,-0.000620554,0.00112979,0.000589135,-0.00167572,0.751259,0.00135685,0.0276168,1938,1093,45.0169,-2.50312
721,-69,45.0632,2.45068,0,0,0,0,0,0,0,-1,1945,1093,45.0632,-2.45066
728,-69,43.066,6.40454,0,0,0,0,0,0,0,-1,1952,1093,43.0661,-6.40455
735,-69,43.3025,6.09192,-0.00168427,0.000368391,0.00168347,0.00131372,-0.00262959,1.05914,0.00231854,0.0322992,1959,1093,43.3024,-6.09189
742,-69,43.2974,5.85657,-0.00217272,0.00136464,0.000837356,0.00155284,-0.00236092,1.34971,0.00227561,0.0242805,1966,1093,43.2974,-5.85652
749,-69,43.1556,5.57056,-0.00314926,0.00282903,-0.00132409,0.00310917,-0.00342939,-1.3623,0.00377655,0.02535,1973,1093,43.1556,-5.5706
756,-69,43.2223,5.36475,-0.00437204,0.00480144,-0.00460133,0.00671166,-0.00628225,-1.1773,0.0075034,0.0160848,1980,1093,43.2223,-5.3647
763,-69,43.2162,5.12646,-0.0059859,0.00787173,-0.00931924,0.0125557,-0.0106699,-1.10506,0.013424,0.0162281,1987,1093,43.2162,-5.12648
770,-69,43.1729,4.91138,-0.00799648,0.0117448,-0.016398,0.0210138,-0.0172655,-1.05632,0.0221358,0.016169,1994,1093,43.1728,-4.91141
777,-69,43.0806,4.67505,-0.0106549,0.0161845,-0.0259175,0.0319505,-0.0264209,-1.02429,0.0337511,0.0203574,2001,1093,43.0806,-4.67507
784,-69,43.1436,4.16321,0,0,0,0,0,0,0,-1,2008,1093,43.1435,-4.16325
791,-69,43.1599,2.61682,-0.0178131,0.0261163,-0.0501215,0.0588747,-0.0505714,-0.991909,0.0632493,0.0443412,2015,1093,43.16,-2.61677
798,-69,43.0771,1.15479,-0.0227025,0.0317665,-0.065627,0.0755857,-0.0665217,-0.982079,0.0821014,0.0466843,2022,1093,43.0772,-1.15484
805,-69,43.1479,-0.187988,0,0,0,0,0,0,0,-1,2029,1093,43.1479,0.188026
812,-69,40.9021,-1.79907,0,0,0,0,0,0,0,-1,2036,1093,40.9022,1.79908
-700,-76,0,0,0,0,0,0,0,0,0,-1,524,1100,0,0
-693,-76,-35.9832,-6.97339,0,0,0,0,0,0,0,-1,531,1100,-35.9832,6.97337
-686,-76,-35.1718,-5.12024,0,0,0,0,0,0,0,-1,538,1100,-35.1718,5.12024
-679,-76,-34.3811,-3.26013,0,0,0,0,0,0,0,-1,545,1100,-34.3811,3.26015
-672,-76,-33.6609,-1.71362,0.211671,0.0459661,-0.0231419,0.214842,0.0427948,-0.136187,0.131309,0.0468108,552,1100,-33.661,1.71364
-665,-76,-32.8002,-0.221069,0.158443,0.0323291,-0.0106894,0.159343,0.0314295,-0.0839615,0.0974564,0.0475948,559,1100,-32.8002,0.221102
-658,-76,-31.8182,1.34448,0,0,0,0,0,0,0,-1,566,1100,-31.8182,-1.34448
-651,-76,-31.297,1.42456,0.0796914,0.014944,0.00194056,0.0797495,0.0148859,0.0299354,0.0489645,0.0315198,573,1100,-31.297,-1.42462
-644,-76,-31.4001,1.71411,0.0507393,0.0106965,0.00514049,0.0513887,0.0100472,0.125661,0.0314497,0.0111924,580,1100,-31.4002,-1.71413
-637,-76,-31.4917,2.00171,0.028205,0.0022143,0.00758814,0.0302582,0.0001611,0.264253,0.0201186,0.0136847,587,1100,-31.4917,-2.00175
-630,-76,-31.5097,2.29468,0.0146354,-0.000339549,0.00603644,0.0167657,-0.00246981,0.339256,0.0120848,0.0158549,594,1100,-31.5097,-2.29463
-623,-76,-31.5018,2.58899,0.00678302,0.000970683,0.00366434,0.00855374,-0.000800031,0.45014,0.00598701,0.0165882,601,1100,-31.5018,-2.58893
-616,-76,-31.5267,2.87427,0.00325184,0.000814089,0.00159008,0.00403646,2.9468e-05,0.458393,0.0026812,0.0158767,608,1100,-31.5267,-2.87427
-609,-76,-31.5175,3.17993,0.00132797,0.000956256,0.00062193,0.00179122,0.000493005,0.640203,0.00106842,0.0171032,615,1100,-31.5174,-3.17996
-602,-76,-31.4886,3.47791,0.00176209,0.000334648,0.000467697,0.00190168,0.000195059,0.290043,0.00120803,0.0202373,622,1100,-31.4886,-3.47788
-595,-76,-31.4319,3.73547,0.00227012,-0.000372682,5.86165e-05,0.00227142,-0.000373982,0.0221651,0.0016531,0.0294022,629,1100,-31.432,-3.73546
-588,-76,-31.3589,4.02771,0,0,0,0,0,0,0,-1,636,1100,-31.3589,-4.02767
-581,-76,-33.306,0.692871,0,0,0,0,0,0,0,-1,643,1100,-33.306,-0.692922
-574,-76,-33.29,0.541382,0.00295874,-0.00075148,0.000323929,0.00298681,-0.000779549,0.0864357,0.00229561,0.0363211,650,1100,-33.2901,-0.541418
-567,-76,-33.1957,0.98584,0.00303624,-0.000727415,0.000241927,0.00305173,-0.000742903,0.0639293,0.00232207,0.0436183,657,1100,-33.1958,-0.985848
-560,-76,-33.3095,1.43652,0.00298341,-0.00064201,-2.30965e-05,0.00298355,-0.000642157,-0.00637036,0.00223407,0.0449426,664,1100,-33.3095,-1.43651
-553,-76,-33.3862,1.37891,0.00265354,-0.00056203,-0.000557195,0.00274736,-0.000655844,-0.166804,0.00208486,0.045408,671,1100,-33.3861,-1.3789
-546,-76,-33.3417,1.00073,0.00218894,-0.000574671,-0.00134723,0.00273701,-0.00112274,-0.386365,0.00229247,0.0429036,678,1100,-33.3417,-1.00073
-539,-76,-33.15,0.557373,0.00207361,-0.000986248,-0.00247458,0.00345302,-0.00236566,-0.50853,0.00337891,0.0401575,685,1100,-33.15,-0.557434
-532,-76,-32.9565,0.560303,0.00169871,-0.0011428,-0.00299577,0.00359355,-0.00303764,-0.563978,0.003833,0.0393115,692,1100,-32.9566,-0.560319
-525,-76,0,0,0,0,0,0,0,0,0,-1,699,1100,0,0
-518,-76,0,0,0,0,0,0,0,0,0,-1,706,1100,0,0
-511,-76,0,0,0,0,0,0,0,0,0,-1,713,1100,0,0
-504,-76,0,0,0,0,0,0,0,0,0,-1,720,1100,0,0
-497,-76,0,0,0,0,0,0,0,0,0,-1,727,1100,0,0
-490,-76,0,0,0,0,0,0,0,0,0,-1,734,1100,0,0
-483,-76,0,0,0,0,0,0,0,0,0,-1,741,1100,0,0
-476,-76,0,0,0,0,0,0,0,0,0,-1,748,1100,0,0
-469,-76,0,0,0,0,0,0,0,0,0,-1,755,1100,0,0
-462,-76,0,0,0,0,0,0,0,0,0,-1,762,1100,0,0
-455,-76,0,0,0,0,0,0,0,0,0,-1,769,1100,0,0
-448,-76,0,0,0,0,0,0,0,0,0,-1,776,1100,0,0
-441,-76,0,0,0,0,0,0,0,0,0,-1,783,1100,0,0
-434,-76,0,0,0,0,0,0,0,0,0,-1,790,1100,0,0
-427,-76,0,0,0,0,0,0,0,0,0,-1,797,1100,0,0
-420,-76,0,0,0,0,0,0,0,0,0,-1,804,1100,0,0
-413,-76,0,0,0,0,0,0,0,0,0,-1,811,1100,0,0
-406,-76,0,0,0,0,0,0,0,0,0,-1,818,1100,0,0
-399,-76,0,0,0,0,0,0,0,0,0,-1,825,1100,0,0
-392,-76,0,0,0,0,0,0,0,0,0,-1,832,1100,0,0
-385,-76,0,0,0,0,0,0,0,0,0,-1,839,1100,0,0
-378,-76,0,0,0,0,0,0,0,0,0,-1,846,1100,0,0
-371,-76,0,0,0,0,0,0,0,0,0,-1,853,1100,0,0
-364,-76,0,0,0,0,0,0,0,0,0,-1,860,1100,0,0
-357,-76,0,0,0,0,0,0,0,0,0,-1,867,1100,0,0
-350,-76,0,0,0,0,0,0,0,0,0,-1,874,1100,0,0
-343,-76,0,0,0,0,0,0,0,0,0,-1,881,1100,0,0
-336,-76,0,0,0,0,0,0,0,0,0,-1,888,1100,0,0
-329,-76,0,0,0,0,0,0,0,0,0,-1,895,1100,0,0
-322,-76,0,0,0,0,0,0,0,0,0,-1,902,1100,0,0
-315,-76,0,0,0,0,0,0,0,0,0,-1,909,1100,0,0
-308,-76,0,0,0,0,0,0,0,0,0,-1,916,1100,0,0
-301,-76,0,0,0,0,0,0,0,0,0,-1,923,1100,0,0
-294,-76,0,0,0,0,0,0,0,0,0,-1,930,1100,0,0
-287,-76,0,0,0,0,0,0,0,0,0,-1,937,1100,0,0
-280,-76,0,0,0,0,0,0,0,0,0,-1,944,1100,0,0
-273,-76,0,0,0,0,0,0,0,0,0,-1,951,1100,0,0
-266,-76,0,0,0,0,0,0,0,0,0,-1,958,1100,0,0
-259,-76,0,0,0,0,0,0,0,0,0,-1,965,1100,0,0
-252,-76,0,0,0,0,0,0,0,0,0,-1,972,1100,0,0
-245,-76,0,0,0,0,0,0,0,0,0,-1,979,1100,0,0
-238,-76,0,0,0,0,0,0,0,0,0,-1,986,1100,0,0
-231,-76,0,0,0,0,0,0,0,0,0,-1,993,1100,0,0
-224,-76,0,0,0,0,0,0,0,0,0,-1,1000,1100,0,0
-217,-76,0,0,0,0,0,0,0,0,0,-1,1007,1100,0,0
-210,-76,0,0,0,0,0,0,0,0,0,-1,1014,1100,0,0
-203,-76,0,0,0,0,0,0,0,0,0,-1,1021,1100,0,0
-196,-76,0,0,0,0,0,0,0,0,0,-1,1028,1100,0,0
-189,-76,0,0,0,0,0,0,0,0,0,-1,1035,1100,0,0
-182,-76,0,0,0,0,0,0,0,0,0,-1,1042,1100,0,0
-175,-76,0,0,0,0,0,0,0,0,0,-1,1049,1100,0,0
-168,-76,0,0,0,0,0,0,0,0,0,-1,1056,1100,0,0
-161,-76,0,0,0,0,0,0,0,0,0,-1,1063,1100,0,0
-154,-76,0,0,0,0,0,0,0,0,0,-1,1070,1100,0,0
-147,-76,0,0,0,0,0,0,0,0,0,-1,1077,1100,0,0
-140,-76,0,0,0,0,0,0,0,0,0,-1,1084,1100,0,0
-133,-76,0,0,0,0,0,0,0,0,0,-1,1091,1100,0,0
-126,-76,0,0,0,0,0,0,0,0,0,-1,1098,1100,0,0
-119,-76,0,0,0,0,0,0,0,0,0,-1,1105,1100,0,0
-112,-76,0,0,0,0,0,0,0,0,0,-1,1112,1100,0,0
-105,-76,0,0,0,0,0,0,0,0,0,-1,1119,1100,0,0
-98,-76,0,0,0,0,0,0,0,0,0,-1,1126,1100,0,0
-91,-76,0,0,0,0,0,0,0,0,0,-1,1133,1100,0,0
-84,-76,0,0,0,0,0,0,0,0,0,-1,1140,1100,0,0
-77,-76,0,0,0,0,0,0,0,0,0,-1,1147,1100,0,0
-70,-76,0,0,0,0,0,0,0,0,0,-1,1154,1100,0,0
-63,-76,0,0,0,0,0,0,0,0,0,-1,1161,1100,0,0
-56,-76,0,0,0,0,0,0,0,0,0,-1,1168,1100,0,0
-49,-76,0,0,0,0,0,0,0,0,0,-1,1175,1100,0,0
-42,-76,0,0,0,0,0,0,0,0,0,-1,1182,1100,0,0
-35,-76,0,0,0,0,0,0,0,0,0,-1,1189,1100,0,0
-28,-76,0,0,0,0,0,0,0,0,0,-1,1196,1100,0,0
-21,-76,0,0,0,0,0,0,0,0,0,-1,1203,1100,0,0
-14,-76,0,0,0,0,0,0,0,0,0,-1,1210,1100,0,0
-7,-76,0,0,0,0,0,0,0,0,0,-1,1217,1100,0,0
0,-76,0,0,0,0,0,0,0,0,0,-1,1224,1100,0,0
7,-76,0,0,0,0,0,0,0,0,0,-1,1231,1100,0,0
14,-76,0,0,0,0,0,0,0,0,0,-1,1238,1100,0,0
21,-76,0,0,0,0,0,0,0,0,0,-1,1245,1100,0,0
28,-76,0,0,0,0,0,0,0,0,0,-1,1252,1100,0,0
35,-76,0,0,0,0,0,0,0,0,0,-1,1259,1100,0,0
42,-76,0,0,0,0,0,0,0,0,0,-1,1266,1100,0,0
49,-76,0,0,0,0,0,0,0,0,0,-1,1273,1100,0,0
56,-76,0,0,0,0,0,0,0,0,0,-1,1280,1100,0,0
63,-76,0,0,0,0,0,0,0,0,0,-1,1287,1100,0,0
70,-76,0,0,0,0,0,0,0,0,0,-1,1294,1100,0,0
77,-76,0,0,0,0,0,0,0,0,0,-1,1301,1100,0,0
84,-76,0,0,0,0,0,0,0,0,0,-1,1308,1100,0,0
91,-76,0,0,0,0,0,0,0,0,0,-1,1315,1100,0,0
98,-76,0,0,0,0,0,0,0,0,0,-1,1322,1100,0,0
105,-76,0,0,0,0,0,0,0,0,0,-1,1329,1100,0,0
112,-76,0,0,0,0,0,0,0,0,0,-1,1336,1100,0,0
119,-76,0,0,0,0,0,0,0,0,0,-1,1343,1100,0,0
126,-76,0,0,0,0,0,0,0,0,0,-1,1350,1100,0,0
133,-76,0,0,0,0,0,0,0,0,0,-1,1357,1100,0,0
140,-76,0,0,0,0,0,0,0,0,0,-1,1364,1100,0,0
147,-76,0,0,0,0,0,0,0,0,0,-1,1371,1100,0,0
154,-76,0,0,0,0,0,0,0,0,0,-1,1378,1100,0,0
161,-76,0,0,0,0,0,0,0,0,0,-1,1385,1100,0,0
168,-76,0,0,0,0,0,0,0,0,0,-1,1392,1100,0,0
175,-76,0,0,0,0,0,0,0,0,0,-1,1399,1100,0,0
182,-76,0,0,0,0,0,0,0,0,0,-1,1406,1100,0,0
189,-76,0,0,0,0,0,0,0,0,0,-1,1413,1100,0,0
196,-76,0,0,0,0,0,0,0,0,0,-1,1420,1100,0,0
203,-76,0,0,0,0,0,0,0,0,0,-1,1427,1100,0,0
210,-76,0,0,0,0,0,0,0,0,0,-1,1434,1100,0,0
217,-76,0,0,0,0,0,0,0,0,0,-1,1441,1100,0,0
224,-76,0,0,0,0,0,0,0,0,0,-1,1448,1100,0,0
231,-76,0,0,0,0,0,0,0,0,0,-1,1455,1100,0,0
238,-76,0,0,0,0,0,0,0,0,0,-1,1462,1100,0,0
245,-76,0,0,0,0,0,0,0,0,0,-1,1469,1100,0,0
252,-76,0,0,0,0,0,0,0,0,0,-1,1476,1100,0,0
259,-76,0,0,0,0,0,0,0,0,0,-1,1483,1100,0,0
266,-76,0,0,0,0,0,0,0,0,0,-1,1490,1100,0,0
273,-76,0,0,0,0,0,0,0,0,0,-1,1497,1100,0,0
280,-76,0,0,0,0,0,0,0,0,0,-1,1504,1100,0,0
287,-76,0,0,0,0,0,0,0,0,0,-1,1511,1100,0,0
294,-76,0,0,0,0,0,0,0,0,0,-1,1518,1100,0,0
301,-76,0,0,0,0,0,0,0,0,0,-1,1525,1100,0,0
308,-76,0,0,0,0,0,0,0,0,0,-1,1532,1100,0,0
315,-76,0,0,0,0,0,0,0,0,0,-1,1539,1100,0,0
322,-76,0,0,0,0,0,0,0,0,0,-1,1546,1100,0,0
329,-76,0,0,0,0,0,0,0,0,0,-1,1553,1100,0,0
336,-76,0,0,0,0,0,0,0,0,0,-1,1560,1100,0,0
343,-76,0,0,0,0,0,0,0,0,0,-1,1567,1100,0,0
350,-76,0,0,0,0,0,0,0,0,0,-1,1574,1100,0,0
357,-76,0,0,0,0,0,0,0,0,0,-1,1581,1100,0,0
364,-76,0,0,0,0,0,0,0,0,0,-1,1588,1100,0,0
371,-76,0,0,0,0,0,0,0,0,0,-1,1595,1100,0,0
378,-76,0,0,0,0,0,0,0,0,0,-1,1602,1100,0,0
385,-76,0,0,0,0,0,0,0,0,0,-1,1609,1100,0,0
392,-76,0,0,0,0,0,0,0,0,0,-1,1616,1100,0,0
399,-76,0,0,0,0,0,0,0,0,0,-1,1623,1100,0,0
406,-76,0,0,0,0,0,0,0,0,0,-1,1630,1100,0,0
413,-76,0,0,0,0,0,0,0,0,0,-1,1637,1100,0,0
420,-76,0,0,0,0,0,0,0,0,0,-1,1644,1100,0,0
427,-76,0,0,0,0,0,0,0,0,0,-1,1651,1100,0,0
434,-76,0,0,0,0,0,0,0,0,0,-1,1658,1100,0,0
441,-76,0,0,0,0,0,0,0,0,0,-1,1665,1100,0,0
448,-76,0,0,0,0,0,0,0,0,0,-1,1672,1100,0,0
455,-76,0,0,0,0,0,0,0,0,0,-1,1679,1100,0,0
462,-76,0,0,0,0,0,0,0,0,0,-1,1686,1100,0,0
469,-76,0,0,0,0,0,0,0,0,0,-1,1693,1100,0,0
476,-76,0,0,0,0,0,0,0,0,0,-1,1700,1100,0,0
483,-76,0,0,0,0,0,0,0,0,0,-1,1707,1100,0,0
490,-76,0,0,0,0,0,0,0,0,0,-1,1714,1100,0,0
497,-76,0,0,0,0,0,0,0,0,0,-1,1721,1100,0,0
504,-76,0,0,0,0,0,0,0,0,0,-1,1728,1100,0,0
511,-76,0,0,0,0,0,0,0,0,0,-1,1735,1100,0,0
518,-76,0,0,0,0,0,0,0,0,0,-1,1742,1100,0,0
525,-76,0,0,0,0,0,0,0,0,0,-1,1749,1100,0,0
532,-76,0,0,0,0,0,0,0,0,0,-1,1756,1100,0,0
539,-76,0,0,0,0,0,0,0,0,0,-1,1763,1100,0,0
546,-76,0,0,0,0,0,0,0,0,0,-1,1770,1100,0,0
553,-76,0,0,0,0,0,0,0,0,0,-1,1777,1100,0,0
560,-76,0,0,0,0,0,0,0,0,0,-1,1784,1100,0,0
567,-76,0,0,0,0,0,0,0,0,0,-1,1791,1100,0,0
574,-76,0,0,0,0,0,0,0,0,0,-1,1798,1100,0,0
581,-76,0,0,0,0,0,0,0,0,0,-1,1805,1100,0,0
588,-76,0,0,0,0,0,0,0,0,0,-1,1812,1100,0,0
595,-76,0,0,0,0,0,0,0,0,0,-1,1819,1100,0,0
602,-76,0,0,0,0,0,0,0,0,0,-1,1826,1100,0,0
609,-76,0,0,0,0,0,0,0,0,0,-1,1833,1100,0,0
616,-76,0,0,0,0,0,0,0,0,0,-1,1840,1100,0,0
623,-76,0,0,0,0,0,0,0,0,0,-1,1847,1100,0,0
630,-76,0,0,0,0,0,0,0,0,0,-1,1854,1100,0,0
637,-76,0,0,0,0,0,0,0,0,0,-1,1861,1100,0,0
644,-76,0,0,0,0,0,0,0,0,0,-1,1868,1100,0,0
651,-76,45.024,2.59924,0.00167675,-0.00176563,-0.00136408,0.00215174,-0.00224062,-0.335081,0.0025361,0.0387885,1875,1100,45.0241,-2.59925
658,-76,44.9618,2.65112,0.000833158,-0.00125101,-0.000869753,0.00114843,-0.00156628,-0.347751,0.00157352,0.0407765,1882,1100,44.9618,-2.65106
665,-76,44.9639,2.54236,0.00039214,-0.00078759,-0.000562129,0.000617094,-0.00101254,-0.380664,0.000950061,0.0398038,1889,1100,44.9639,-2.54231
672,-76,44.9967,2.55127,0.000267627,-0.000511195,-0.000299916,0.000369735,-0.000613303,-0.328146,0.000573335,0.0369016,1896,1100,44.9967,-2.55121
679,-76,45.0059,2.49451,0.000143936,-0.000374692,-8.66653e-05,0.000158035,-0.000388791,-0.16127,0.000324945,0.0356609,1903,1100,45.0058,-2.49448
686,-76,45.0211,2.50842,6.64059e-05,-0.000494192,0.00013654,9.78932e-05,-0.000525679,0.226646,0.00038723,0.034955,1910,1100,45.0211,-2.50847
693,-76,45.0253,2.54553,0.00011271,-0.000691504,0.000322256,0.000225908,-0.000804701,0.337803,0.000625519,0.0354319,1917,1100,45.0252,-2.54554
700,-76,45.0024,2.53125,9.48413e-05,-0.000798318,0.000557996,0.000362959,-0.00106644,0.447928,0.00085793,0.0311456,1924,1100,45.0024,-2.53126
707,-76,44.9745,2.60168,-6.37114e-05,-0.000835042,0.000785413,0.000425616,-0.00132437,0.557173,0.00105383,0.0220523,1931,1100,44.9745,-2.60173
714,-76,45.0383,2.77966,-0.000287753,-0.00080018,0.000934865,0.000425372,-0.00151331,0.65165,0.00117658,0.0488227,1938,1100,45.0384,-2.7796
721,-76,45.1713,3.04919,0,0,0,0,0,0,0,-1,1945,1100,45.1713,-3.04915
728,-76,42.3287,6.39673,0,0,0,0,0,0,0,-1,1952,1100,42.3287,-6.3967
735,-76,42.7384,6.17908,-0.00141814,0.000152829,0.00150813,0.00106777,-0.00233308,1.02549,0.00200827,0.0375395,1959,1100,42.7383,-6.1791
742,-76,42.9869,5.9054,-0.00190678,0.00105512,0.000765808,0.0012414,-0.00209307,1.33218,0.00194598,0.0250861,1966,1100,42.987,-5.90533
749,-76,42.9011,5.59985,-0.00305443,0.00225137,-0.00147406,0.00263339,-0.00343645,-1.31722,0.00351463,0.0241765,1973,1100,42.9011,-5.59987
756,-76,42.9625,5.3595,-0.00462123,0.00385231,-0.00489995,0.00609317,-0.00686209,-1.14187,0.00748412,0.0162314,1980,1100,42.9625,-5.35953
763,-76,42.959,5.08264,-0.00676222,0.00637162,-0.00987909,0.0116673,-0.0120579,-1.07873,0.0136984,0.0161354,1987,1100,42.959,-5.08263
770,-76,42.8702,4.87524,-0.00960048,0.00941309,-0.0173417,0.0196829,-0.0198703,-1.03613,0.0228361,0.0162584,1994,1100,42.8702,-4.87521
777,-76,42.7699,4.72595,-0.0133973,0.0126221,-0.027256,0.0298141,-0.0305893,-1.00807,0.0348749,0.0207834,2001,1100,42.77,-4.72601
784,-76,42.8416,4.37964,-0.0180226,0.0159282,-0.0389791,0.0414678,-0.0435623,-0.990764,0.0490971,0.0318124,2008,1100,42.8416,-4.37961
791,-76,43.0088,2.87756,0,0,0,0,0,0,0,-1,2015,1100,43.0087,-2.87758
798,-76,42.937,1.16467,-0.0312998,0.0227742,-0.0700519,0.0708256,-0.0793513,-0.969569,0.0867512,0.0444365,2022,1100,42.9369,-1.16465
805,-76,42.157,-0.200806,-0.0405247,0.0261902,-0.0897827,0.088612,-0.102946,-0.963263,0.110699,0.046243,2029,1100,42.157,0.200755
812,-76,40.6589,-1.82141,-0.0523059,0.0295336,-0.112102,0.10795,-0.130723,-0.960396,0.138007,0.0496356,2036,1100,40.6589,1.82138
-700,-83,0,0,0,0,0,0,0,0,0,-1,524,1107,0,0
-693,-83,-36.1077,-6.38269,0,0,0,0,0,0,0,-1,531,1107,-36.1077,6.38264
-686,-83,-35.2882,-4.5592,0,0,0,0,0,0,0,-1,538,1107,-35.2882,4.55916
-679,-83,-35.0065,-2.42334,0,0,0,0,0,0,0,-1,545,1107,-35.0065,2.42337
-672,-83,-33.8711,-1.0802,0.214188,0.0442002,-0.020232,0.216563,0.0418253,-0.116846,0.13265,0.0470844,552,1107,-33.8711,1.08016
-665,-83,-32.8406,0.417847,0.161942,0.0301572,-0.00849656,0.162488,0.0296116,-0.064119,0.0999279,0.0444923,559,1107,-32.8407,-0.41779
-658,-83,-32.0289,1.83887,0,0,0,0,0,0,0,-1,566,1107,-32.0289,-1.83888
-651,-83,-31.1014,1.22754,0.0825164,0.012959,0.0027051,0.0826214,0.012854,0.0388121,0.0513356,0.0342769,573,1107,-31.1015,-1.2275
-644,-83,-31.0565,1.64624,0.0532352,0.00887042,0.00528388,0.0538558,0.00824979,0.116922,0.0334944,0.0164607,580,1107,-31.0565,-1.64624
-637,-83,-31.1247,1.97278,0.0302783,0.0016605,0.00697813,0.0318891,4.96376e-05,0.226871,0.0212429,0.0119078,587,1107,-31.1247,-1.97272
-630,-83,-31.1638,2.29126,0.0162115,-0.000419864,0.00526891,0.0177402,-0.00194857,0.282384,0.0125269,0.0170192,594,1107,-31.1638,-2.29128
-623,-83,-31.1717,2.5918,0.00759055,0.00066986,0.00311083,0.00878329,-0.000522882,0.366129,0.00603738,0.0161353,601,1107,-31.1717,-2.59183
-616,-83,-31.2016,2.89417,0.00353637,0.000492635,0.00140639,0.0040867,-5.76968e-05,0.372991,0.0027439,0.0140428,608,1107,-31.2016,-2.89414
-609,-83,-31.1989,3.18799,0.00136271,0.000859711,0.000662799,0.00182012,0.000402299,0.604066,0.00110402,0.0171324,615,1107,-31.1989,-3.18795
-602,-83,-31.2008,3.51611,0.0018698,0.000446884,0.000630287,0.00210884,0.000207852,0.362487,0.00134198,0.0181393,622,1107,-31.2008,-3.5161
-595,-83,-31.1251,3.82495,0.00241005,-0.00026017,0.000258322,0.00243481,-0.000284931,0.0955611,0.00172604,0.0212864,629,1107,-31.1251,-3.82497
-588,-83,-31.0618,4.12671,0,0,0,0,0,0,0,-1,636,1107,-31.0617,-4.12674
-581,-83,-33.3068,0.642822,0,0,0,0,0,0,0,-1,643,1107,-33.3068,-0.642783
-574,-83,-33.2561,0.556152,0.00304078,-0.00079129,0.000609906,0.00313551,-0.00088602,0.154088,0.0024399,0.0373043,650,1107,-33.2561,-0.556147
-567,-83,-33.367,0.653687,0.0031027,-0.000854649,0.000566992,0.00318233,-0.000934283,0.139537,0.00249206,0.0427398,657,1107,-33.367,-0.65369
-560,-83,-33.5084,0.952759,0.00305263,-0.000898279,0.000351716,0.0030837,-0.000929345,0.0880983,0.00242567,0.043599,664,1107,-33.5084,-0.952774
-553,-83,-33.3882,1.20728,0.00270494,-0.000990988,-0.00013568,0.00270991,-0.000995962,-0.0366449,0.00221455,0.0437512,671,1107,-33.3882,-1.20724
-546,-83,-33.3068,1.1676,0.00222471,-0.00123095,-0.00090176,0.00244587,-0.00145211,-0.240508,0.00227475,0.0418929,678,1107,-33.3068,-1.16755
-539,-83,-33.2325,0.647095,0.00225049,-0.00193406,-0.00195764,0.00302351,-0.00270708,-0.376083,0.00331024,0.0424504,685,1107,-33.2325,-0.647109
-532,-83,-33.1133,0.774902,0.00220361,-0.00239572,-0.00247986,0.00328598,-0.00347809,-0.411541,0.00390576,0.0424204,692,1107,-33.1134,-0.774916
-525,-83,0,0,0,0,0,0,0,0,0,-1,699,1107,0,0
-518,-83,0,0,0,0,0,0,0,0,0,-1,706,1107,0,0
-511,-83,0,0,0,0,0,0,0,0,0,-1,713,1107,0,0
-504,-83,0,0,0,0,0,0,0,0,0,-1,720,1107,0,0
-497,-83,0,0,0,0,0,0,0,0,0,-1,727,1107,0,0
-490,-83,0,0,0,0,0,0,0,0,0,-1,734,1107,0,0
-483,-83,0,0,0,0,0,0,0,0,0,-1,741,1107,0,0
-476,-83,0,0,0,0,0,0,0,0,0,-1,748,1107,0,0
-469,-83,0,0,0,0,0,0,0,0,0,-1,755,1107,0,0
-462,-83,0,0,0,0,0,0,0,0,0,-1,762,1107,0,0
-455,-83,0,0,0,0,0,0,0,0,0,-1,769,1107,0,0
-448,-83,0,0,0,0,0,0,0,0,0,-1,776,1107,0,0
-441,-83,0,0,0,0,0,0,0,0,0,-1,783,1107,0,0
-434,-83,0,0,0,0,0,0,0,0,0,-1,790,1107,0,0
-427,-83,0,0,0,0,0,0,0,0,0,-1,797,1107,0,0
-420,-83,0,0,0,0,0,0,0,0,0,-1,804,1107,0,0
-413,-83,0,0,0,0,0,0,0,0,0,-1,811,1107,0,0
-406,-83,0,0,0,0,0,0,0,0,0,-1,818,1107,0,0
-399,-83,0,0,0,0,0,0,0,0,0,-1,825,1107,0,0
-392,-83,0,0,0,0,0,0,0,0,0,-1,832,1107,0,0
-385,-83,0,0,0,0,0,0,0,0,0,-1,839,1107,0,0
-378,-83,0,0,0,0,0,0,0,0,0,-1,846,1107,0,0
-371,-83,0,0,0,0,0,0,0,0,0,-1,853,1107,0,0
-364,-83,0,0,0,0,0,0,0,0,0,-1,860,1107,0,0
-357,-83,0,0,0,0,0,0,0,0,0,-1,867,1107,0,0
-350,-83,0,0,0,0,0,0,0,0,0,-1,874,1107,0,0
-343,-83,0,0,0,0,0,0,0,0,0,-1,881,1107,0,0
-336,-83,0,0,0,0,0,0,0,0,0,-1,888,1107,0,0
-329,-83,0,0,0,0,0,0,0,0,0,-1,895,1107,0,0
-322,-83,0,0,0,0,0,0,0,0,0,-1,902,1107,0,0
-315,-83,0,0,0,0,0,0,0,0,0,-1,909,1107,0,0
-308,-83,0,0,0,0,0,0,0,0,0,-1,916,1107,0,0
-301,-83,0,0,0,0,0,0,0,0,0,-1,923,1107,0,0
-294,-83,0,0,0,0,0,0,0,0,0,-1,930,1107,0,0
-287,-83,0,0,0,0,0,0,0,0,0,-1,937,1107,0,0
-280,-83,0,0,0,0,0,0,0,0,0,-1,944,1107,0,0
-273,-83,0,0,0,0,0,0,0,0,0,-1,951,1107,0,0
-266,-83,0,0,0,0,0,0,0,0,0,-1,958,1107,0,0
-259,-83,0,0,0,0,0,0,0,0,0,-1,965,1107,0,0
-252,-83,0,0,0,0,0,0,0,0,0,-1,972,1107,0,0
-245,-83,0,0,0,0,0,0,0,0,0,-1,979,1107,0,0
-238,-83,0,0,0,0,0,0,0,0,0,-1,986,1107,0,0
-231,-83,0,0,0,0,0,0,0,0,0,-1,993,1107,0,0
-224,-83,0,0,0,0,0,0,0,0,0,-1,1000,1107,0,0
-217,-83,0,0,0,0,0,0,0,0,0,-1,1007,1107,0,0
-210,-83,0,0,0,0,0,0,0,0,0,-1,1014,1107,0,0
-203,-83,0,0,0,0,0,0,0,0,0,-1,1021,1107,0,0
-196,-83,0,0,0,0,0,0,0,0,0,-1,1028,1107,0,0
-189,-83,0,0,0,0,0,0,0,0,0,-1,1035,1107,0,0
-182,-83,0,0,0,0,0,0,0,0,0,-1,1042,1107,0,0
-175,-83,0,0,0,0,0,0,0,0,0,-1,1049,1107,0,0
-168,-83,0,0,0,0,0,0,0,0,0,-1,1056,1107,0,0
-161,-83,0,0,0,0,0,0,0,0,0,-1,1063,1107,0,0
-154,-83,0,0,0,0,0,0,0,0,0,-1,1070,1107,0,0
-147,-83,0,0,0,0,0,0,0,0,0,-1,1077,1107,0,0
-140,-83,0,0,0,0,0,0,0,0,0,-1,1084,1107,0,0
-133,-83,0,0,0,0,0,0,0,0,0,-1,1091,1107,0,0
-126,-83,0,0,0,0,0,0,0,0,0,-1,1098,1107,0,0
-119,-83,0,0,0,0,0,0,0,0,0,-1,1105,1107,0,0
-112,-83,0,0,0,0,0,0,0,0,0,-1,1112,1107,0,0
-105,-83,0,0,0,0,0,0,0,0,0,-1,1119,1107,0,0
-98,-83,0,0,0,0,0,0,0,0,0,-1,1126,1107,0,0
-91,-83,0,0,0,0,0,0,0,0,0,-1,1133,1107,0,0
-84,-83,0,0,0,0,0,0,0,0,0,-1,1140,1107,0,0
-77,-83,0,0,0,0,0,0,0,0,0,-1,1147,1107,0,0
-70,-83,0,0,0,0,0,0,0,0,0,-1,1154,1107,0,0
-63,-83,0,0,0,0,0,0,0,0,0,-1,1161,1107,0,0
-56,-83,0,0,0,0,0,0,0,0,0,-1,1168,1107,0,0
-49,-83,0,0,0,0,0,0,0,0,0,-1,1175,1107,0,0
-42,-83,0,0,0,0,0,0,0,0,0,-1,1182,1107,0,0
-35,-83,0,0,0,0,0,0,0,0,0,-1,1189,1107,0,0
-28,-83,0,0,0,0,0,0,0,0,0,-1,1196,1107,0,0
-21,-83,0,0,0,0,0,0,0,0,0,-1,1203,1107,0,0
-14,-83,0,0,0,0,0,0,0,0,0,-1,1210,1107,0,0
-7,-83,0,0,0,0,0,0,0,0,0,-1,1217,1107,0,0
0,-83,0,0,0,0,0,0,0,0,0,-1,1224,1107,0,0
7,-83,0,0,0,0,0,0,0,0,0,-1,1231,1107,0,0
14,-83,0,0,0,0,0,0,0,0,0,-1,1238,1107,0,0
21,-83,0,0,0,0,0,0,0,0,0,-1,1245,1107,0,0
28,-83,0,0,0,0,0,0,0,0,0,-1,1252,1107,0,0
35,-83,0,0,0,0,0,0,0,0,0,-1,1259,1107,0,0
42,-83,0,0,0,0,0,0,0,0,0,-1,1266,1107,0,0
49,-83,0,0,0,0,0,0,0,0,0,-1,1273,1107,0,0
56,-83,0,0,0,0,0,0,0,0,0,-1,1280,1107,0,0
63,-83,0,0,0,0,0,0,0,0,0,-1,1287,1107,0,0
70,-83,0,0,0,0,0,0,0,0,0,-1,1294,1107,0,0
77,-83,0,0,0,0,0,0,0,0,0,-1,1301,1107,0,0
84,-83,0,0,0,0,0,0,0,0,0,-1,1308,1107,0,0
91,-83,0,0,0,0,0,0,0,0,0,-1,1315,1107,0,0
98,-83,0,0,0,0,0,0,0,0,0,-1,1322,1107,0,0
105,-83,0,0,0,0,0,0,0,0,0,-1,1329,1107,0,0
112,-83,0,0,0,0,0,0,0,0,0,-1,1336,1107,0,0
119,-83,0,0,0,0,0,0,0,0,0,-1,1343,1107,0,0
126,-83,0,0,0,0,0,0,0,0,0,-1,1350,1107,0,0
133,-83,0,0,0,0,0,0,0,0,0,-1,1357,1107,0,0
140,-83,0,0,0,0,0,0,0,0,0,-1,1364,1107,0,0
147,-83,0,0,0,0,0,0,0,0,0,-1,1371,1107,0,0
154,-83,0,0,0,0,0,0,0,0,0,-1,1378,1107,0,0
161,-83,0,0,0,0,0,0,0,0,0,-1,1385,1107,0,0
168,-83,0,0,0,0,0,0,0,0,0,-1,1392,1107,0,0
175,-83,0,0,0,0,0,0,0,0,0,-1,1399,1107,0,0
182,-83,0,0,0,0,0,0,0,0,0,-1,1406,1107,0,0
189,-83,0,0,0,0,0,0,0,0,0,-1,1413,1107,0,0
196,-83,0,0,0,0,0,0,0,0,0,-1,1420,1107,0,0
203,-83,0,0,0,0,0,0,0,0,0,-1,1427,1107,0,0
210,-83,0,0,0,0,0,0,0,0,0,-1,1434,1107,0,0
217,-83,0,0,0,0,0,0,0,0,0,-1,1441,1107,0,0
224,-83,0,0,0,0,0,0,0,0,0,-1,1448,1107,0,0
231,-83,0,0,0,0,0,0,0,0,0,-1,1455,1107,0,0
238,-83,0,0,0,0,0,0,0,0,0,-1,1462,1107,0,0
245,-83,0,0,0,0,0,0,0,0,0,-1,1469,1107,0,0
252,-83,0,0,0,0,0,0,0,0,0,-1,1476,1107,0,0
259,-83,0,0,0,0,0,0,0,0,0,-1,1483,1107,0,0
266,-83,0,0,0,0,0,0,0,0,0,-1,1490,1107,0,0
273,-83,0,0,0,0,0,0,0,0,0,-1,1497,1107,0,0
280,-83,0,0,0,0,0,0,0,0,0,-1,1504,1107,0,0
287,-83,0,0,0,0,0,0,0,0,0,-1,1511,1107,0,0
294,-83,0,0,0,0,0,0,0,0,0,-1,1518,1107,0,0
301,-83,0,0,0,0,0,0,0,0,0,-1,1525,1107,0,0
308,-83,0,0,0,0,0,0,0,0,0,-1,1532,1107,0,0
315,-83,0,0,0,0,0,0,0,0,0,-1,1539,1107,0,0
322,-83,0,0,0,0,0,0,0,0,0,-1,1546,1107,0,0
329,-83,0,0,0,0,0,0,0,0,0,-1,1553,1107,0,0
336,-83,0,0,0,0,0,0,0,0,0,-1,1560,1107,0,0
343,-83,0,0,0,0,0,0,0,0,0,-1,1567,1107,0,0
350,-83,0,0,0,0,0,0,0,0,0,-1,1574,1107,0,0
357,-83,0,0,0,0,0,0,0,0,0,-1,1581,1107,0,0
364,-83,0,0,0,0,0,0,0,0,0,-1,1588,1107,0,0
371,-83,0,0,0,0,0,0,0,0,0,-1,1595,1107,0,0
378,-83,0,0,0,0,0,0,0,0,0,-1,1602,1107,0,0
385,-83,0,0,0,0,0,0,0,0,0,-1,1609,1107,0,0
392,-83,0,0,0,0,0,0,0,0,0,-1,1616,1107,0,0
399,-83,0,0,0,0,0,0,0,0,0,-1,1623,1107,0,0
406,-83,0,0,0,0,0,0,0,0,0,-1,1630,1107,0,0
413,-83,0,0,0,0,0,0,0,0,0,-1,1637,1107,0,0
420,-83,0,0,0,0,0,0,0,0,0,-1,1644,1107,0,0
427,-83,0,0,0,0,0,0,0,0,0,-1,1651,1107,0,0
434,-83,0,0,0,0,0,0,0,0,0,-1,1658,1107,0,0
441,-83,0,0,0,0,0,0,0,0,0,-1,1665,1107,0,0
448,-83,0,0,0,0,0,0,0,0,0,-1,1672,1107,0,0
455,-83,0,0,0,0,0,0,0,0,0,-1,1679,1107,0,0
462,-83,0,0,0,0,0,0,0,0,0,-1,1686,1107,0,0
469,-83,0,0,0,0,0,0,0,0,0,-1,1693,1107,0,0
476,-83,0,0,0,0,0,0,0,0,0,-1,1700,1107,0,0
483,-83,0,0,0,0,0,0,0,0,0,-1,1707,1107,0,0
490,-83,0,0,0,0,0,0,0,0,0,-1,1714,1107,0,0
497,-83,0,0,0,0,0,0,0,0,0,-1,1721,1107,0,0
504,-83,0,0,0,0,0,0,0,0,0,-1,1728,1107,0,0
511,-83,0,0,0,0,0,0,0,0,0,-1,1735,1107,0,0
518,-83,0,0,0,0,0,0,0,0,0,-1,1742,1107,0,0
525,-83,0,0,0,0,0,0,0,0,0,-1,1749,1107,0,0
532,-83,0,0,0,0,0,0,0,0,0,-1,1756,1107,0,0
539,-83,0,0,0,0,0,0,0,0,0,-1,1763,1107,0,0
546,-83,0,0,0,0,0,0,0,0,0,-1,1770,1107,0,0
553,-83,0,0,0,0,0,0,0,0,0,-1,1777,1107,0,0
560,-83,0,0,0,0,0,0,0,0,0,-1,1784,1107,0,0
567,-83,0,0,0,0,0,0,0,0,0,-1,1791,1107,0,0
574,-83,0,0,0,0,0,0,0,0,0,-1,1798,1107,0,0
581,-83,0,0,0,0,0,0,0,0,0,-1,1805,1107,0,0
588,-83,0,0,0,0,0,0,0,0,0,-1,1812,1107,0,0
595,-83,0,0,0,0,0,0,0,0,0,-1,1819,1107,0,0
602,-83,0,0,0,0,0,0,0,0,0,-1,1826,1107,0,0
609,-83,0,0,0,0,0,0,0,0,0,-1,1833,1107,0,0
616,-83,0,0,0,0,0,0,0,0,0,-1,1840,1107,0,0
623,-83,0,0,0,0,0,0,0,0,0,-1,1847,1107,0,0
630,-83,0,0,0,0,0,0,0,0,0,-1,1854,1107,0,0
637,-83,0,0,0,0,0,0,0,0,0,-1,1861,1107,0,0
644,-83,45.0066,2.54883,0.00275366,-0.00231162,-0.00333451,0.00440829,-0.00396626,-0.460614,0.00483729,0.0353366,1868,1107,45.0066,-2.54878
651,-83,45.0032,2.47168,0.00134728,-0.00181483,-0.00213586,0.0024236,-0.00289115,-0.466785,0.00307243,0.0409402,1875,1107,45.0031,-2.47172
658,-83,45.0355,2.48169,0.000641137,-0.0014235,-0.00148163,0.00141462,-0.00219698,-0.481129,0.0021014,0.0433423,1882,1107,45.0355,-2.48166
665,-83,44.9302,2.60388,0.000287834,-0.00103894,-0.00104919,0.000865771,-0.00161687,-0.503488,0.00145506,0.0383497,1889,1107,44.9302,-2.60386
672,-83,44.847,2.61963,0.000223036,-0.000807268,-0.000698484,0.000575791,-0.00116002,-0.467662,0.00102092,0.0347399,1896,1107,44.847,-2.61964
679,-83,44.8817,2.46472,0.000114182,-0.000693556,-0.000411752,0.000287071,-0.000866445,-0.397532,0.000693419,0.034414,1903,1107,44.8817,-2.46475
686,-83,45.0012,2.44202,7.47473e-05,-0.000787185,-0.000152614,0.000100971,-0.000813409,-0.170171,0.000578873,0.03295,1910,1107,45.0012,-2.44203
693,-83,45.0363,2.57739,0.000164929,-0.000923483,5.53005e-05,0.000167731,-0.000926286,0.0506347,0.000680361,0.0344201,1917,1107,45.0362,-2.57738
700,-83,45.0001,2.65198,0.00016205,-0.000973323,0.000308652,0.000240532,-0.00105181,0.248998,0.000793626,0.0301397,1924,1107,45.0002,-2.65193
707,-83,44.9918,2.65125,4.67513e-05,-0.000960389,0.000562463,0.00029813,-0.00121177,0.420293,0.000923405,0.0212532,1931,1107,44.9918,-2.6513
714,-83,44.9755,2.61182,0,0,0,0,0,0,0,-1,1938,1107,44.9755,-2.61176
721,-83,42.7579,6.66528,0,0,0,0,0,0,0,-1,1945,1107,42.758,-6.66534
728,-83,42.762,6.40918,-0.00078668,-0.000310559,0.0011848,0.000659856,-0.00175709,0.884543,0.00144256,0.0382504,1952,1107,42.762,-6.40924
735,-83,42.4502,6.1416,-0.00119969,4.61688e-05,0.00135178,0.000911649,-0.00206517,1.00131,0.00176115,0.0375403,1959,1107,42.4502,-6.14154
742,-83,42.6309,5.88538,-0.0016837,0.000844083,0.000756576,0.00105323,-0.00189284,1.3011,0.00172379,0.0225975,1966,1107,42.6309,-5.88539
749,-83,42.6969,5.62671,-0.00299215,0.00177089,-0.0014729,0.00218957,-0.00341082,-1.29385,0.00325891,0.0160998,1973,1107,42.6969,-5.62673
756,-83,42.7212,5.35107,-0.00492258,0.00300343,-0.00496333,0.00539181,-0.00731096,-1.1223,0.00736179,0.0155222,1980,1107,42.7212,-5.35104
763,-83,42.7043,5.05029,-0.00762676,0.00486732,-0.0101652,0.0105517,-0.0133111,-1.06092,0.0138078,0.0122719,1987,1107,42.7043,-5.05026
770,-83,42.6113,4.83411,-0.0112965,0.00700224,-0.0179138,0.0179679,-0.0222622,-1.0215,0.0232709,0.0151817,1994,1107,42.6114,-4.83408
777,-83,42.5049,4.62463,-0.0161669,0.00899403,-0.028104,0.0272048,-0.0343777,-0.995843,0.035635,0.0173059,2001,1107,42.5048,-4.62458
784,-83,42.469,4.43127,-0.0222023,0.0108899,-0.0404139,0.0380137,-0.0493261,-0.979696,0.0505664,0.0260539,2008,1107,42.469,-4.43123
791,-83,43.5779,2.56726,0,0,0,0,0,0,0,-1,2015,1107,43.5779,-2.56726
798,-83,42.9221,1.1908,-0.0397971,0.0138314,-0.0740505,0.065773,-0.0917387,-0.959108,0.0913504,0.0449929,2022,1107,42.9221,-1.19083
805,-83,42.1064,-0.231934,-0.0521789,0.0146013,-0.0959086,0.0827659,-0.120344,-0.952909,0.117932,0.0459397,2029,1107,42.1065,0.231891
812,-83,40.9084,-1.99255,-0.0680251,0.014693,-0.121142,0.101341,-0.154673,-0.9499,0.148875,0.0487829,2036,1107,40.9084,1.99259
-700,-90,0,0,0,0,0,0,0,0,0,-1,524,1114,0,0
-693,-90,-28.2109,0.485352,0,0,0,0,0,0,0,-1,531,1114,-28.2109,-0.4854
-686,-90,-28.8427,0.010376,0,0,0,0,0,0,0,-1,538,1114,-28.8428,-0.0104289
-679,-90,-28.997,0.0477295,0,0,0,0,0,0,0,-1,545,1114,-28.997,-0.0476698
-672,-90,-34.0713,-0.65625,0,0,0,0,0,0,0,-1,552,1114,-34.0713,0.656262
-665,-90,-33.1768,0.976929,0.155951,0.0259966,-0.00212388,0.155986,0.0259619,-0.0163375,0.0965075,0.0449405,559,1114,-33.1768,-0.976937
-658,-90,-30.6867,0.717773,0,0,0,0,0,0,0,-1,566,1114,-30.6867,-0.717733
-651,-90,-30.738,1.10681,0.0804242,0.0107707,0.00540837,0.0808417,0.0103533,0.0770315,0.0507963,0.0336313,573,1114,-30.738,-1.10684
-644,-90,-30.754,1.54431,0.052396,0.00718535,0.00665295,0.0533547,0.00622667,0.143114,0.0336866,0.0155534,580,1114,-30.754,-1.54428
-637,-90,-30.7775,1.9469,0.0302159,0.00143315,0.00712231,0.0318819,-0.000232838,0.22978,0.0213326,0.0122879,587,1114,-30.7775,-1.94694
-630,-90,-30.8079,2.2666,0.0167214,4.91683e-05,0.0047815,0.0179953,-0.0012248,0.260387,0.0124253,0.0115741,594,1114,-30.8079,-2.26657
-623,-90,-30.8063,2.59106,0.00795926,0.000610211,0.002658,0.00881983,-0.00025036,0.313116,0.00596509,0.0102274,601,1114,-30.8063,-2.59109
-616,-90,-30.8315,2.94373,0.00350146,0.000304153,0.00125477,0.00393508,-0.000129465,0.332729,0.00266759,0.0122624,608,1114,-30.8316,-2.94371
-609,-90,-30.8511,3.25366,0.00130692,0.00074224,0.000693728,0.00177356,0.000275597,0.592141,0.00110205,0.0185476,615,1114,-30.8511,-3.25369
-602,-90,-30.9203,3.53247,0.0018534,0.000464523,0.000758985,0.0021877,0.000130222,0.41489,0.00141705,0.0186527,622,1114,-30.9204,-3.53245
-595,-90,-30.7723,3.91968,0.00238055,-0.000233941,0.000411364,0.00244374,-0.000297138,0.152435,0.0017367,0.0148027,629,1114,-30.7723,-3.91974
-588,-90,-30.7249,4.25513,0,0,0,0,0,0,0,-1,636,1114,-30.7249,-4.25507
-581,-90,-33.3055,0.7229,0,0,0,0,0,0,0,-1,643,1114,-33.3055,-0.722935
-574,-90,-33.2862,0.747681,0.00292777,-0.000820471,0.000802471,0.00309235,-0.000985048,0.202283,0.00245665,0.0366488,650,1114,-33.2862,-0.747696
-567,-90,-33.3328,0.755249,0.00297315,-0.000922816,0.000789724,0.00312714,-0.00107681,0.192579,0.00252154,0.0357941,657,1114,-33.3328,-0.755285
-560,-90,-33.4066,0.932251,0.0029203,-0.00103356,0.000622057,0.00301586,-0.00112912,0.152425,0.00247436,0.0380077,664,1114,-33.4066,-0.932201
-553,-90,-33.2613,1.23303,0.00255691,-0.00122867,0.000191361,0.00256655,-0.00123832,0.0503788,0.00224092,0.0395776,671,1114,-33.2613,-1.233
-546,-90,-33.2097,1.26074,0.00205062,-0.0016265,-0.000522192,0.00212334,-0.00169922,-0.138367,0.00221148,0.0431936,678,1114,-33.2097,-1.26075
-539,-90,-33.1929,0.511108,0.0021348,-0.00257377,-0.00147083,0.00255648,-0.00299545,-0.279208,0.00320875,0.042108,685,1114,-33.1929,-0.511161
-532,-90,-33.2864,0.792847,0.00237794,-0.00332107,-0.00196602,0.00299035,-0.00393349,-0.301975,0.00400983,0.041779,692,1114,-33.2865,-0.79288
-525,-90,0,0,0,0,0,0,0,0,0,-1,699,1114,0,0
-518,-90,0,0,0,0,0,0,0,0,0,-1,706,1114,0,0
-511,-90,0,0,0,0,0,0,0,0,0,-1,713,1114,0,0
-504,-90,0,0,0,0,0,0,0,0,0,-1,720,1114,0,0
-497,-90,0,0,0,0,0,0,0,0,0,-1,727,1114,0,0
-490,-90,0,0,0,0,0,0,0,0,0,-1,734,1114,0,0
-483,-90,0,0,0,0,0,0,0,0,0,-1,741,1114,0,0
-476,-90,0,0,0,0,0,0,0,0,0,-1,748,1114,0,0
-469,-90,0,0,0,0,0,0,0,0,0,-1,755,1114,0,0
-462,-90,0,0,0,0,0,0,0,0,0,-1,762,1114,0,0
-455,-90,0,0,0,0,0,0,0,0,0,-1,769,1114,0,0
-448,-90,0,0,0,0,0,0,0,0,0,-1,776,1114,0,0
-441,-90,0,0,0,0,0,0,0,0,0,-1,783,1114,0,0
-434,-90,0,0,0,0,0,0,0,0,0,-1,790,1114,0,0
-427,-90,0,0,0,0,0,0,0,0,0,-1,797,1114,0,0
-420,-90,0,0,0,0,0,0,0,0,0,-1,804,1114,0,0
-413,-90,0,0,0,0,0,0,0,0,0,-1,811,1114,0,0
-406,-90,0,0,0,0,0,0,0,0,0,-1,818,1114,0,0
-399,-90,0,0,0,0,0,0,0,0,0,-1,825,1114,0,0
-392,-90,0,0,0,0,0,0,0,0,0,-1,832,1114,0,0
-385,-90,0,0,0,0,0,0,0,0,0,-1,839,1114,0,0
-378,-90,0,0,0,0,0,0,0,0,0,-1,846,1114,0,0
-371,-90,0,0,0,0,0,0,0,0,0,-1,853,1114,0,0
-364,-90,0,0,0,0,0,0,0,0,0,-1,860,1114,0,0
-357,-90,0,0,0,0,0,0,0,0,0,-1,867,1114,0,0
-350,-90,0,0,0,0,0,0,0,0,0,-1,874,1114,0,0
-343,-90,0,0,0,0,0,0,0,0,0,-1,881,1114,0,0
-336,-90,0,0,0,0,0,0,0,0,0,-1,888,1114,0,0
-329,-90,0,0,0,0,0,0,0,0,0,-1,895,1114,0,0
-322,-90,0,0,0,0,0,0,0,0,0,-1,902,1114,0,0
-315,-90,0,0,0,0,0,0,0,0,0,-1,909,1114,0,0
-308,-90,0,0,0,0,0,0,0,0,0,-1,916,1114,0,0
-301,-90,0,0,0,0,0,0,0,0,0,-1,923,1114,0,0
-294,-90,0,0,0,0,0,0,0,0,0,-1,930,1114,0,0
-287,-90,0,0,0,0,0,0,0,0,0,-1,937,1114,0,0
-280,-90,0,0,0,0,0,0,0,0,0,-1,944,1114,0,0
-273,-90,0,0,0,0,0,0,0,0,0,-1,951,1114,0,0
-266,-90,0,0,0,0,0,0,0,0,0,-1,958,1114,0,0
-259,-90,0,0,0,0,0,0,0,0,0,-1,965,1114,0,0
-252,-90,0,0,0,0,0,0,0,0,0,-1,972,1114,0,0
-245,-90,0,0,0,0,0,0,0,0,0,-1,979,1114,0,0
-238,-90,0,0,0,0,0,0,0,0,0,-1,986,1114,0,0
-231,-90,0,0,0,0,0,0,0,0,0,-1,993,1114,0,0
-224,-90,0,0,0,0,0,0,0,0,0,-1,1000,1114,0,0
-217,-90,0,0,0,0,0,0,0,0,0,-1,1007,1114,0,0
-210,-90,0,0,0,0,0,0,0,0,0,-1,1014,1114,0,0
-203,-90,0,0,0,0,0,0,0,0,0,-1,1021,1114,0,0
-196,-90,0,0,0,0,0,0,0,0,0,-1,1028,1114,0,0
-189,-90,0,0,0,0,0,0,0,0,0,-1,1035,1114,0,0
-182,-90,0,0,0,0,0,0,0,0,0,-1,1042,1114,0,0
-175,-90,0,0,0,0,0,0,0,0,0,-1,1049,1114,0,0
-168,-90,0,0,0,0,0,0,0,0,0,-1,1056,1114,0,0
-161,-90,0,0,0,0,0,0,0,0,0,-1,1063,1114,0,0
-154,-90,0,0,0,0,0,0,0,0,0,-1,1070,1114,0,0
-147,-90,0,0,0,0,0,0,0,0,0,-1,1077,1114,0,0
-140,-90,0,0,0,0,0,0,0,0,0,-1,1084,1114,0,0
-133,-90,0,0,0,0,0,0,0,0,0,-1,1091,1114,0,0
-126,-90,0,0,0,0,0,0,0,0,0,-1,1098,1114,0,0
-119,-90,0,0,0,0,0,0,0,0,0,-1,1105,1114,0,0
-112,-90,0,0,0,0,0,0,0,0,0,-1,1112,1114,0,0
-105,-90,0,0,0,0,0,0,0,0,0,-1,1119,1114,0,0
-98,-90,0,0,0,0,0,0,0,0,0,-1,1126,1114,0,0
-91,-90,0,0,0,0,0,0,0,0,0,-1,1133,1114,0,0
-84,-90,0,0,0,0,0,0,0,0,0,-1,1140,1114,0,0
-77,-90,0,0,0,0,0,0,0,0,0,-1,1147,1114,0,0
-70,-90,0,0,0,0,0,0,0,0,0,-1,1154,1114,0,0
-63,-90,0,0,0,0,0,0,0,0,0,-1,1161,1114,0,0
-56,-90,0,0,0,0,0,0,0,0,0,-1,1168,1114,0,0
-49,-90,0,0,0,0,0,0,0,0,0,-1,1175,1114,0,0
-42,-90,0,0,0,0,0,0,0,0,0,-1,1182,1114,0,0
-35,-90,0,0,0,0,0,0,0,0,0,-1,1189,1114,0,0
-28,-90,0,0,0,0,0,0,0,0,0,-1,1196,1114,0,0
-21,-90,0,0,0,0,0,0,0,0,0,-1,1203,1114,0,0
-14,-90,0,0,0,0,0,0,0,0,0,-1,1210,1114,0,0
-7,-90,0,0,0,0,0,0,0,0,0,-1,1217,1114,0,0
0,-90,0,0,0,0,0,0,0,0,0,-1,1224,1114,0,0
7,-90,0,0,0,0,0,0,0,0,0,-1,1231,1114,0,0
14,-90,0,0,0,0,0,0,0,0,0,-1,1238,1114,0,0
21,-90,0,0,0,0,0,0,0,0,0,-1,1245,1114,0,0
28,-90,0,0,0,0,0,0,0,0,0,-1,1252,1114,0,0
35,-90,0,0,0,0,0,0,0,0,0,-1,1259,1114,0,0
42,-90,0,0,0,0,0,0,0,0,0,-1,1266,1114,0,0
49,-90,0,0,0,0,0,0,0,0,0,-1,1273,1114,0,0
56,-90,0,0,0,0,0,0,0,0,0,-1,1280,1114,0,0
63,-90,0,0,0,0,0,0,0,0,0,-1,1287,1114,0,0
70,-90,0,0,0,0,0,0,0,0,0,-1,1294,1114,0,0
77,-90,0,0,0,0,0,0,0,0,0,-1,1301,1114,0,0
84,-90,0,0,0,0,0,0,0,0,0,-1,1308,1114,0,0
91,-90,0,0,0,0,0,0,0,0,0,-1,1315,1114,0,0
98,-90,0,0,0,0,0,0,0,0,0,-1,1322,1114,0,0
105,-90,0,0,0,0,0,0,0,0,0,-1,1329,1114,0,0
112,-90,0,0,0,0,0,0,0,0,0,-1,1336,1114,0,0
119,-90,0,0,0,0,0,0,0,0,0,-1,1343,1114,0,0
126,-90,0,0,0,0,0,0,0,0,0,-1,1350,1114,0,0
133,-90,0,0,0,0,0,0,0,0,0,-1,1357,1114,0,0
140,-90,0,0,0,0,0,0,0,0,0,-1,1364,1114,0,0
147,-90,0,0,0,0,0,0,0,0,0,-1,1371,1114,0,0
154,-90,0,0,0,0,0,0,0,0,0,-1,1378,1114,0,0
161,-90,0,0,0,0,0,0,0,0,0,-1,1385,1114,0,0
168,-90,0,0,0,0,0,0,0,0,0,-1,1392,1114,0,0
175,-90,0,0,0,0,0,0,0,0,0,-1,1399,1114,0,0
182,-90,0,0,0,0,0,0,0,0,0,-1,1406,1114,0,0
189,-90,0,0,0,0,0,0,0,0,0,-1,1413,1114,0,0
196,-90,0,0,0,0,0,0,0,0,0,-1,1420,1114,0,0
203,-90,0,0,0,0,0,0,0,0,0,-1,1427,1114,0,0
210,-90,0,0,0,0,0,0,0,0,0,-1,1434,1114,0,0
217,-90,0,0,0,0,0,0,0,0,0,-1,1441,1114,0,0
224,-90,0,0,0,0,0,0,0,0,0,-1,1448,1114,0,0
231,-90,0,0,0,0,0,0,0,0,0,-1,1455,1114,0,0
238,-90,0,0,0,0,0,0,0,0,0,-1,1462,1114,0,0
245,-90,0,0,0,0,0,0,0,0,0,-1,1469,1114,0,0
252,-90,0,0,0,0,0,0,0,0,0,-1,1476,1114,0,0
259,-90,0,0,0,0,0,0,0,0,0,-1,1483,1114,0,0
266,-90,0,0,0,0,0,0,0,0,0,-1,1490,1114,0,0
273,-90,0,0,0,0,0,0,0,0,0,-1,1497,1114,0,0
280,-90,0,0,0,0,0,0,0,0,0,-1,1504,1114,0,0
287,-90,0,0,0,0,0,0,0,0,0,-1,1511,1114,0,0
294,-90,0,0,0,0,0,0,0,0,0,-1,1518,1114,0,0
301,-90,0,0,0,0,0,0,0,0,0,-1,1525,1114,0,0
308,-90,0,0,0,0,0,0,0,0,0,-1,1532,1114,0,0
315,-90,0,0,0,0,0,0,0,0,0,-1,1539,1114,0,0
322,-90,0,0,0,0,0,0,0,0,0,-1,1546,1114,0,0
329,-90,0,0,0,0,0,0,0,0,0,-1,1553,1114,0,0
336,-90,0,0,0,0,0,0,0,0,0,-1,1560,1114,0,0
343,-90,0,0,0,0,0,0,0,0,0,-1,1567,1114,0,0
350,-90,0,0,0,0,0,0,0,0,0,-1,1574,1114,0,0
357,-90,0,0,0,0,0,0,0,0,0,-1,1581,1114,0,0
364,-90,0,0,0,0,0,0,0,0,0,-1,1588,1114,0,0
371,-90,0,0,0,0,0,0,0,0,0,-1,1595,1114,0,0
378,-90,0,0,0,0,0,0,0,0,0,-1,1602,1114,0,0
385,-90,0,0,0,0,0,0,0,0,0,-1,1609,1114,0,0
392,-90,0,0,0,0,0,0,0,0,0,-1,1616,1114,0,0
399,-90,0,0,0,0,0,0,0,0,0,-1,1623,1114,0,0
406,-90,0,0,0,0,0,0,0,0,0,-1,1630,1114,0,0
413,-90,0,0,0,0,0,0,0,0,0,-1,1637,1114,0,0
420,-90,0,0,0,0,0,0,0,0,0,-1,1644,1114,0,0
427,-90,0,0,0,0,0,0,0,0,0,-1,1651,1114,0,0
434,-90,0,0,0,0,0,0,0,0,0,-1,1658,1114,0,0
441,-90,0,0,0,0,0,0,0,0,0,-1,1665,1114,0,0
448,-90,0,0,0,0,0,0,0,0,0,-1,1672,1114,0,0
455,-90,0,0,0,0,0,0,0,0,0,-1,1679,1114,0,0
462,-90,0,0,0,0,0,0,0,0,0,-1,1686,1114,0,0
469,-90,0,0,0,0,0,0,0,0,0,-1,1693,1114,0,0
476,-90,0,0,0,0,0,0,0,0,0,-1,1700,1114,0,0
483,-90,0,0,0,0,0,0,0,0,0,-1,1707,1114,0,0
490,-90,0,0,0,0,0,0,0,0,0,-1,1714,1114,0,0
497,-90,0,0,0,0,0,0,0,0,0,-1,1721,1114,0,0
504,-90,0,0,0,0,0,0,0,0,0,-1,1728,1114,0,0
511,-90,0,0,0,0,0,0,0,0,0,-1,1735,1114,0,0
518,-90,0,0,0,0,0,0,0,0,0,-1,1742,1114,0,0
525,-90,0,0,0,0,0,0,0,0,0,-1,1749,1114,0,0
532,-90,0,0,0,0,0,0,0,0,0,-1,1756,1114,0,0
539,-90,0,0,0,0,0,0,0,0,0,-1,1763,1114,0,0
546,-90,0,0,0,0,0,0,0,0,0,-1,1770,1114,0,0
553,-90,0,0,0,0,0,0,0,0,0,-1,1777,1114,0,0
560,-90,0,0,0,0,0,0,0,0,0,-1,1784,1114,0,0
567,-90,0,0,0,0,0,0,0,0,0,-1,1791,1114,0,0
574,-90,0,0,0,0,0,0,0,0,0,-1,1798,1114,0,0
581,-90,0,0,0,0,0,0,0,0,0,-1,1805,1114,0,0
588,-90,0,0,0,0,0,0,0,0,0,-1,1812,1114,0,0
595,-90,0,0,0,0,0,0,0,0,0,-1,1819,1114,0,0
602,-90,0,0,0,0,0,0,0,0,0,-1,1826,1114,0,0
609,-90,0,0,0,0,0,0,0,0,0,-1,1833,1114,0,0
616,-90,0,0,0,0,0,0,0,0,0,-1,1840,1114,0,0
623,-90,0,0,0,0,0,0,0,0,0,-1,1847,1114,0,0
630,-90,0,0,0,0,0,0,0,0,0,-1,1854,1114,0,0
637,-90,0,0,0,0,0,0,0,0,0,-1,1861,1114,0,0
644,-90,44.9512,2.59814,0.0019183,-0.00258544,-0.0039711,0.00423157,-0.00489871,-0.527473,0.00527606,0.0352228,1868,1114,44.9512,-2.59811
651,-90,44.9197,2.42224,0.000757308,-0.00219537,-0.00273157,0.00238597,-0.00382404,-0.537648,0.00361725,0.0402376,1875,1114,44.9197,-2.4222
658,-90,45.0029,2.42969,0.000253826,-0.00186292,-0.00200339,0.00146122,-0.00307032,-0.542386,0.0026707,0.0429467,1882,1114,45.0029,-2.42966
665,-90,45.0096,2.73975,3.15352e-05,-0.00149758,-0.00149996,0.000950551,-0.00241659,-0.549702,0.0020045,0.041885,1889,1114,45.0096,-2.73974
672,-90,44.9299,2.77417,4.963e-05,-0.00124225,-0.00109167,0.000672146,-0.00186477,-0.518251,0.00151768,0.0399926,1896,1114,44.93,-2.7742
679,-90,44.8757,2.53833,-3.64367e-05,-0.00107987,-0.000760345,0.000363971,-0.00148028,-0.48471,0.00112792,0.0372034,1903,1114,44.8758,-2.53827
686,-90,45.02,2.599,-5.21446e-05,-0.0011057,-0.000473541,0.00012941,-0.00128726,-0.366113,0.0009044,0.0327268,1910,1114,45.02,-2.599
693,-90,45.0106,2.66602,6.88574e-05,-0.0011579,-0.00025182,0.000118537,-0.00120758,-0.194782,0.000847337,0.0344447,1917,1114,45.0106,-2.66604
700,-90,44.9783,2.66614,7.41288e-05,-0.00114394,1.50105e-05,7.43138e-05,-0.00114413,0.0123207,0.000788689,0.0295265,1924,1114,44.9782,-2.66613
707,-90,44.985,2.57129,5.79629e-06,-0.00106879,0.000298014,8.29106e-05,-0.0011459,0.253207,0.000793016,0.0199674,1931,1114,44.985,-2.57133
714,-90,44.9839,2.4408,0,0,0,0,0,0,0,-1,1938,1114,44.9839,-2.44082
721,-90,42.3724,6.7489,0,0,0,0,0,0,0,-1,1945,1114,42.3724,-6.74891
728,-90,42.3839,6.54724,-0.000756846,-0.000336602,0.0009813,0.000456821,-0.00155027,0.890868,0.00121476,0.0275443,1952,1114,42.384,-6.54724
735,-90,42.2075,6.22327,-0.00110763,-2.78475e-05,0.00121194,0.000759015,-0.00189449,0.994941,0.00157806,0.0313816,1959,1114,42.2076,-6.22331
742,-90,42.2858,5.89221,-0.00153607,0.000651391,0.000826563,0.000928593,-0.00181327,1.24722,0.00161025,0.0268336,1966,1114,42.2857,-5.89219
749,-90,42.4932,5.53442,-0.00292328,0.00124559,-0.00125719,0.00159537,-0.00327306,-1.29944,0.00286588,0.0181544,1973,1114,42.4932,-5.53446
756,-90,42.4714,5.29199,-0.00505486,0.00204813,-0.00466616,0.0043606,-0.00736734,-1.11069,0.0068449,0.0159048,1980,1114,42.4714,-5.292
763,-90,42.4191,5.02075,-0.00806748,0.00318894,-0.00978979,0.00885306,-0.0137316,-1.04628,0.0131403,0.0119692,1987,1114,42.4191,-5.02078
770,-90,42.3593,4.75037,-0.0122052,0.00433005,-0.0174029,0.0153294,-0.0232045,-1.00715,0.0224019,0.0156787,1994,1114,42.3592,-4.75042
777,-90,42.2681,4.55127,-0.0176484,0.00512111,-0.0273757,0.0233849,-0.0359123,-0.982455,0.034489,0.0159297,2001,1114,42.268,-4.55123
784,-90,42.1797,4.37903,-0.0245423,0.00563824,-0.0397536,0.0330693,-0.0519734,-0.966795,0.0495021,0.0282017,2008,1114,42.1797,-4.37905
791,-90,43.8235,2.77783,0,0,0,0,0,0,0,-1,2015,1114,43.8234,-2.77784
798,-90,43.1956,1.45508,-0.0449272,0.00501226,-0.0746551,0.0587627,-0.0986777,-0.946784,0.0918669,0.0411945,2022,1114,43.1956,-1.4551
805,-90,42.5605,0.154907,-0.0594451,0.0035751,-0.0978903,0.0749017,-0.130772,-0.941107,0.120197,0.0446269,2029,1114,42.5605,-0.154966
812,-90,41.8245,-1.23804,0,0,0,0,0,0,0,-1,2036,1114,41.8244,1.23805
-700,-97,0,0,0,0,0,0,0,0,0,-1,524,1121,0,0
-693,-97,-28.1553,-0.34082,0,0,0,0,0,0,0,-1,531,1121,-28.1553,0.340842
-686,-97,-28.3021,-0.222412,0,0,0,0,0,0,0,-1,538,1121,-28.3021,0.222391
-679,-97,-35.8235,0.024292,0,0,0,0,0,0,0,-1,545,1121,-35.8236,-0.0242447
-672,-97,-34.8503,0.756104,0.202,0.0329204,-0.00542663,0.202174,0.0327464,-0.0320512,0.125302,0.0452338,552,1121,-34.8503,-0.756158
-665,-97,-33.7889,1.52515,0.156453,0.0218214,0.00111135,0.156462,0.0218122,0.00825405,0.0978509,0.0462876,559,1121,-33.789,-1.52515
-658,-97,-32.7546,2.31335,0,0,0,0,0,0,0,-1,566,1121,-32.7547,-2.31339
-651,-97,-30.4157,1.16382,0.0831347,0.00904342,0.00541009,0.0835277,0.00865046,0.0725067,0.0530373,0.032588,573,1121,-30.4157,-1.16378
-644,-97,-30.4408,1.5459,0.0552689,0.00591249,0.00586186,0.0559555,0.00522585,0.116605,0.0356895,0.01197,580,1121,-30.4408,-1.54588
-637,-97,-30.4337,1.91553,0.0331014,0.00145312,0.00567622,0.0340886,0.000465868,0.172205,0.0225721,0.0115902,587,1121,-30.4337,-1.91548
-630,-97,-30.4468,2.24194,0.0187085,0.000471105,0.00354105,0.0193719,-0.000192309,0.185202,0.0129792,0.00961001,594,1121,-30.4469,-2.24193
-623,-97,-30.4639,2.57117,0.00860327,0.000531715,0.00201576,0.00907867,5.63092e-05,0.231613,0.00603377,0.0117026,601,1121,-30.4639,-2.57114
-616,-97,-30.4847,2.93384,0.00363902,0.000141985,0.00101584,0.00391269,-0.000131685,0.263155,0.00265345,0.0183075,608,1121,-30.4847,-2.93387
-609,-97,-30.5644,3.3031,0.00128112,0.000631254,0.000740022,0.0017644,0.000147969,0.578529,0.00113018,0.0250894,615,1121,-30.5644,-3.30311
-602,-97,-30.6068,3.56433,0.00185106,0.000540588,0.000906179,0.00231408,7.75678e-05,0.472376,0.00151752,0.0228654,622,1121,-30.6068,-3.56435
-595,-97,-30.4439,3.93445,0.00234557,-7.61133e-05,0.000578382,0.00247662,-0.00020716,0.222812,0.00172429,0.0177362,629,1121,-30.4439,-3.93448
-588,-97,-30.4342,4.30505,0,0,0,0,0,0,0,-1,636,1121,-30.4342,-4.30508
-581,-97,-33.381,0.636597,0,0,0,0,0,0,0,-1,643,1121,-33.381,-0.636634
-574,-97,-33.35,0.831787,0.00270999,-0.000625711,0.000979849,0.00297652,-0.00089224,0.265586,0.00233919,0.0469388,650,1121,-33.35,-0.831789
-567,-97,-33.2784,0.791748,0.00271001,-0.000716198,0.00100364,0.00298236,-0.000988548,0.26498,0.00238699,0.0361622,657,1121,-33.2784,-0.79174
-560,-97,-33.2766,0.86145,0.00261349,-0.000832634,0.000898729,0.00283379,-0.00105293,0.240384,0.00232119,0.0392626,664,1121,-33.2766,-0.861496
-553,-97,-33.1503,1.04065,0.00217384,-0.00106694,0.000546887,0.00226364,-0.00115674,0.16275,0.00200893,0.0419226,671,1121,-33.1503,-1.04061
-546,-97,-32.7587,-0.112793,0,0,0,0,0,0,0,-1,678,1121,-32.7587,0.112832
-539,-97,-33.1379,0.13501,0.00161464,-0.00275609,-0.000793785,0.00175434,-0.00289579,-0.174205,0.00271158,0.0411913,685,1121,-33.1379,-0.135
-532,-97,-33.3942,0.496704,0.00199056,-0.00387719,-0.00109642,0.00218874,-0.00407537,-0.17882,0.00367085,0.0386552,692,1121,-33.3942,-0.496758
-525,-97,0,0,0,0,0,0,0,0,0,-1,699,1121,0,0
-518,-97,0,0,0,0,0,0,0,0,0,-1,706,1121,0,0
-511,-97,0,0,0,0,0,0,0,0,0,-1,713,1121,0,0
-504,-97,0,0,0,0,0,0,0,0,0,-1,720,1121,0,0
-497,-97,0,0,0,0,0,0,0,0,0,-1,727,1121,0,0
-490,-97,0,0,0,0,0,0,0,0,0,-1,734,1121,0,0
-483,-97,0,0,0,0,0,0,0,0,0,-1,741,1121,0,0
-476,-97,0,0,0,0,0,0,0,0,0,-1,748,1121,0,0
-469,-97,0,0,0,0,0,0,0,0,0,-1,755,1121,0,0
-462,-97,0,0,0,0,0,0,0,0,0,-1,762,1121,0,0
-455,-97,0,0,0,0,0,0,0,0,0,-1,769,1121,0,0
-448,-97,0,0,0,0,0,0,0,0,0,-1,776,1121,0,0
-441,-97,0,0,0,0,0,0,0,0,0,-1,783,1121,0,0
-434,-97,0,0,0,0,0,0,0,0,0,-1,790,1121,0,0
-427,-97,0,0,0,0,0,0,0,0,0,-1,797,1121,0,0
-420,-97,0,0,0,0,0,0,0,0,0,-1,804,1121,0,0
-413,-97,0,0,0,0,0,0,0,0,0,-1,811,1121,0,0
-406,-97,0,0,0,0,0,0,0,0,0,-1,818,1121,0,0
-399,-97,0,0,0,0,0,0,0,0,0,-1,825,1121,0,0
-392,-97,0,0,0,0,0,0,0,0,0,-1,832,1121,0,0
-385,-97,0,0,0,0,0,0,0,0,0,-1,839,1121,0,0
-378,-97,0,0,0,0,0,0,0,0,0,-1,846,1121,0,0
-371,-97,0,0,0,0,0,0,0,0,0,-1,853,1121,0,0
-364,-97,0,0,0,0,0,0,0,0,0,-1,860,1121,0,0
-357,-97,0,0,0,0,0,0,0,0,0,-1,867,1121,0,0
-350,-97,0,0,0,0,0,0,0,0,0,-1,874,1121,0,0
-343,-97,0,0,0,0,0,0,0,0,0,-1,881,1121,0,0
-336,-97,0,0,0,0,0,0,0,0,0,-1,888,1121,0,0
-329,-97,0,0,0,0,0,0,0,0,0,-1,895,1121,0,0
-322,-97,0,0,0,0,0,0,0,0,0,-1,902,1121,0,0
-315,-97,0,0,0,0,0,0,0,0,0,-1,909,1121,0,0
-308,-97,0,0,0,0,0,0,0,0,0,-1,916,1121,0,0
-301,-97,0,0,0,0,0,0,0,0,0,-1,923,1121,0,0
-294,-97,0,0,0,0,0,0,0,0,0,-1,930,1121,0,0
-287,-97,0,0,0,0,0,0,0,0,0,-1,937,1121,0,0
-280,-97,0,0,0,0,0,0,0,0,0,-1,944,1121,0,0
-273,-97,0,0,0,0,0,0,0,0,0,-1,951,1121,0,0
-266,-97,0,0,0,0,0,0,0,0,0,-1,958,1121,0,0
-259,-97,0,0,0,0,0,0,0,0,0,-1,965,1121,0,0
-252,-97,0,0,0,0,0,0,0,0,0,-1,972,1121,0,0
-245,-97,0,0,0,0,0,0,0,0,0,-1,979,1121,0,0
-238,-97,0,0,0,0,0,0,0,0,0,-1,986,1121,0,0
-231,-97,0,0,0,0,0,0,0,0,0,-1,993,1121,0,0
-224,-97,0,0,0,0,0,0,0,0,0,-1,1000,1121,0,0
-217,-97,0,0,0,0,0,0,0,0,0,-1,1007,1121,0,0
-210,-97,0,0,0,0,0,0,0,0,0,-1,1014,1121,0,0
-203,-97,0,0,0,0,0,0,0,0,0,-1,1021,1121,0,0
-196,-97,0,0,0,0,0,0,0,0,0,-1,1028,1121,0,0
-189,-97,0,0,0,0,0,0,0,0,0,-1,1035,1121,0,0
-182,-97,0,0,0,0,0,0,0,0,0,-1,1042,1121,0,0
-175,-97,0,0,0,0,0,0,0,0,0,-1,1049,1121,0,0
-168,-97,0,0,0,0,0,0,0,0,0,-1,1056,1121,0,0
-161,-97,0,0,0,0,0,0,0,0,0,-1,1063,1121,0,0
-154,-97,0,0,0,0,0,0,0,0,0,-1,1070,1121,0,0
-147,-97,0,0,0,0,0,0,0,0,0,-1,1077,1121,0,0
-140,-97,0,0,0,0,0,0,0,0,0,-1,1084,1121,0,0
-133,-97,0,0,0,0,0,0,0,0,0,-1,1091,1121,0,0
-126,-97,0,0,0,0,0,0,0,0,0,-1,1098,1121,0,0
-119,-97,0,0,0,0,0,0,0,0,0,-1,1105,1121,0,0
-112,-97,0,0,0,0,0,0,0,0,0,-1,1112,1121,0,0
-105,-97,0,0,0,0,0,0,0,0,0,-1,1119,1121,0,0
-98,-97,0,0,0,0,0,0,0,0,0,-1,1126,1121,0,0
-91,-97,0,0,0,0,0,0,0,0,0,-1,1133,1121,0,0
-84,-97,0,0,0,0,0,0,0,0,0,-1,1140,1121,0,0
-77,-97,0,0,0,0,0,0,0,0,0,-1,1147,1121,0,0
-70,-97,0,0,0,0,0,0,0,0,0,-1,1154,1121,0,0
-63,-97,0,0,0,0,0,0,0,0,0,-1,1161,1121,0,0
-56,-97,0,0,0,0,0,0,0,0,0,-1,1168,1121,0,0
-49,-97,0,0,0,0,0,0,0,0,0,-1,1175,1121,0,0
-42,-97,0,0,0,0,0,0,0,0,0,-1,1182,1121,0,0
-35,-97,0,0,0,0,0,0,0,0,0,-1,1189,1121,0,0
-28,-97,0,0,0,0,0,0,0,0,0,-1,1196,1121,0,0
-21,-97,0,0,0,0,0,0,0,0,0,-1,1203,1121,0,0
-14,-97,0,0,0,0,0,0,0,0,0,-1,1210,1121,0,0
-7,-97,0,0,0,0,0,0,0,0,0,-1,1217,1121,0,0
0,-97,0,0,0,0,0,0,0,0,0,-1,1224,1121,0,0
7,-97,0,0,0,0,0,0,0,0,0,-1,1231,1121,0,0
14,-97,0,0,0,0,0,0,0,0,0,-1,1238,1121,0,0
21,-97,0,0,0,0,0,0,0,0,0,-1,1245,1121,0,0
28,-97,0,0,0,0,0,0,0,0,0,-1,1252,1121,0,0
35,-97,0,0,0,0,0,0,0,0,0,-1,1259,1121,0,0
42,-97,0,0,0,0,0,0,0,0,0,-1,1266,1121,0,0
49,-97,0,0,0,0,0,0,0,0,0,-1,1273,1121,0,0
56,-97,0,0,0,0,0,0,0,0,0,-1,1280,1121,0,0
63,-97,0,0,0,0,0,0,0,0,0,-1,1287,1121,0,0
70,-97,0,0,0,0,0,0,0,0,0,-1,1294,1121,0,0
77,-97,0,0,0,0,0,0,0,0,0,-1,1301,1121,0,0
84,-97,0,0,0,0,0,0,0,0,0,-1,1308,1121,0,0
91,-97,0,0,0,0,0,0,0,0,0,-1,1315,1121,0,0
98,-97,0,0,0,0,0,0,0,0,0,-1,1322,1121,0,0
105,-97,0,0,0,0,0,0,0,0,0,-1,1329,1121,0,0
112,-97,0,0,0,0,0,0,0,0,0,-1,1336,1121,0,0
119,-97,0,0,0,0,0,0,0,0,0,-1,1343,1121,0,0
126,-97,0,0,0,0,0,0,0,0,0,-1,1350,1121,0,0
133,-97,0,0,0,0,0,0,0,0,0,-1,1357,1121,0,0
140,-97,0,0,0,0,0,0,0,0,0,-1,1364,1121,0,0
147,-97,0,0,0,0,0,0,0,0,0,-1,1371,1121,0,0
154,-97,0,0,0,0,0,0,0,0,0,-1,1378,1121,0,0
161,-97,0,0,0,0,0,0,0,0,0,-1,1385,1121,0,0
168,-97,0,0,0,0,0,0,0,0,0,-1,1392,1121,0,0
175,-97,0,0,0,0,0,0,0,0,0,-1,1399,1121,0,0
182,-97,0,0,0,0,0,0,0,0,0,-1,1406,1121,0,0
189,-97,0,0,0,0,0,0,0,0,0,-1,1413,1121,0,0
196,-97,0,0,0,0,0,0,0,0,0,-1,1420,1121,0,0
203,-97,0,0,0,0,0,0,0,0,0,-1,1427,1121,0,0
210,-97,0,0,0,0,0,0,0,0,0,-1,1434,1121,0,0
217,-97,0,0,0,0,0,0,0,0,0,-1,1441,1121,0,0
224,-97,0,0,0,0,0,0,0,0,0,-1,1448,1121,0,0
231,-97,0,0,0,0,0,0,0,0,0,-1,1455,1121,0,0
238,-97,0,0,0,0,0,0,0,0,0,-1,1462,1121,0,0
245,-97,0,0,0,0,0,0,0,0,0,-1,1469,1121,0,0
252,-97,0,0,0,0,0,0,0,0,0,-1,1476,1121,0,0
259,-97,0,0,0,0,0,0,0,0,0,-1,1483,1121,0,0
266,-97,0,0,0,0,0,0,0,0,0,-1,1490,1121,0,0
273,-97,0,0,0,0,0,0,0,0,0,-1,1497,1121,0,0
280,-97,0,0,0,0,0,0,0,0,0,-1,1504,1121,0,0
287,-97,0,0,0,0,0,0,0,0,0,-1,1511,1121,0,0
294,-97,0,0,0,0,0,0,0,0,0,-1,1518,1121,0,0
301,-97,0,0,0,0,0,0,0,0,0,-1,1525,1121,0,0
308,-97,0,0,0,0,0,0,0,0,0,-1,1532,1121,0,0
315,-97,0,0,0,0,0,0,0,0,0,-1,1539,1121,0,0
322,-97,0,0,0,0,0,0,0,0,0,-1,1546,1121,0,0
329,-97,0,0,0,0,0,0,0,0,0,-1,1553,1121,0,0
336,-97,0,0,0,0,0,0,0,0,0,-1,1560,1121,0,0
343,-97,0,0,0,0,0,0,0,0,0,-1,1567,1121,0,0
350,-97,0,0,0,0,0,0,0,0,0,-1,1574,1121,0,0
357,-97,0,0,0,0,0,0,0,0,0,-1,1581,1121,0,0
364,-97,0,0,0,0,0,0,0,0,0,-1,1588,1121,0,0
371,-97,0,0,0,0,0,0,0,0,0,-1,1595,1121,0,0
378,-97,0,0,0,0,0,0,0,0,0,-1,1602,1121,0,0
385,-97,0,0,0,0,0,0,0,0,0,-1,1609,1121,0,0
392,-97,0,0,0,0,0,0,0,0,0,-1,1616,1121,0,0
399,-97,0,0,0,0,0,0,0,0,0,-1,1623,1121,0,0
406,-97,0,0,0,0,0,0,0,0,0,-1,1630,1121,0,0
413,-97,0,0,0,0,0,0,0,0,0,-1,1637,1121,0,0
420,-97,0,0,0,0,0,0,0,0,0,-1,1644,1121,0,0
427,-97,0,0,0,0,0,0,0,0,0,-1,1651,1121,0,0
434,-97,0,0,0,0,0,0,0,0,0,-1,1658,1121,0,0
441,-97,0,0,0,0,0,0,0,0,0,-1,1665,1121,0,0
448,-97,0,0,0,0,0,0,0,0,0,-1,1672,1121,0,0
455,-97,0,0,0,0,0,0,0,0,0,-1,1679,1121,0,0
462,-97,0,0,0,0,0,0,0,0,0,-1,1686,1121,0,0
469,-97,0,0,0,0,0,0,0,0,0,-1,1693,1121,0,0
476,-97,0,0,0,0,0,0,0,0,0,-1,1700,1121,0,0
483,-97,0,0,0,0,0,0,0,0,0,-1,1707,1121,0,0
490,-97,0,0,0,0,0,0,0,0,0,-1,1714,1121,0,0
497,-97,0,0,0,0,0,0,0,0,0,-1,1721,1121,0,0
504,-97,0,0,0,0,0,0,0,0,0,-1,1728,1121,0,0
511,-97,0,0,0,0,0,0,0,0,0,-1,1735,1121,0,0
518,-97,0,0,0,0,0,0,0,0,0,-1,1742,1121,0,0
525,-97,0,0,0,0,0,0,0,0,0,-1,1749,1121,0,0
532,-97,0,0,0,0,0,0,0,0,0,-1,1756,1121,0,0
539,-97,0,0,0,0,0,0,0,0,0,-1,1763,1121,0,0
546,-97,0,0,0,0,0,0,0,0,0,-1,1770,1121,0,0
553,-97,0,0,0,0,0,0,0,0,0,-1,1777,1121,0,0
560,-97,0,0,0,0,0,0,0,0,0,-1,1784,1121,0,0
567,-97,0,0,0,0,0,0,0,0,0,-1,1791,1121,0,0
574,-97,0,0,0,0,0,0,0,0,0,-1,1798,1121,0,0
581,-97,0,0,0,0,0,0,0,0,0,-1,1805,1121,0,0
588,-97,0,0,0,0,0,0,0,0,0,-1,1812,1121,0,0
595,-97,0,0,0,0,0,0,0,0,0,-1,1819,1121,0,0
602,-97,0,0,0,0,0,0,0,0,0,-1,1826,1121,0,0
609,-97,0,0,0,0,0,0,0,0,0,-1,1833,1121,0,0
616,-97,0,0,0,0,0,0,0,0,0,-1,1840,1121,0,0
623,-97,0,0,0,0,0,0,0,0,0,-1,1847,1121,0,0
630,-97,0,0,0,0,0,0,0,0,0,-1,1854,1121,0,0
637,-97,0,0,0,0,0,0,0,0,0,-1,1861,1121,0,0
644,-97,44.9481,2.77466,0.00118195,-0.00263631,-0.00417639,0.00386488,-0.00531924,-0.571017,0.00532457,0.0394161,1868,1121,44.9482,-2.77463
651,-97,44.9753,2.57593,0.000202004,-0.00229878,-0.00300401,0.00220546,-0.00430224,-0.588184,0.00382168,0.0395832,1875,1121,44.9753,-2.57591
658,-97,44.9413,2.68909,-0.000145039,-0.00201785,-0.00228457,0.00138759,-0.00355047,-0.5909,0.00294074,0.0413749,1882,1121,44.9412,-2.68906
665,-97,44.9695,2.87219,-0.000251652,-0.00168133,-0.00176158,0.000934602,-0.00286759,-0.592652,0.0022878,0.0441834,1889,1121,44.9695,-2.87225
672,-97,44.9739,2.78491,-0.000146123,-0.00141876,-0.00132905,0.000691081,-0.00225597,-0.562135,0.00177964,0.044426,1896,1121,44.9738,-2.7849
679,-97,44.9067,2.72412,-0.000188784,-0.00125185,-0.000980535,0.000395019,-0.00183566,-0.537025,0.0013745,0.0407544,1903,1121,44.9067,-2.72417
686,-97,44.906,2.81421,-0.000166002,-0.00125253,-0.000681645,0.000162384,-0.00158092,-0.448946,0.00111203,0.036473,1910,1121,44.906,-2.81422
693,-97,44.9408,2.69214,-1.5867e-05,-0.0012621,-0.00045857,0.000134684,-0.00141265,-0.317218,0.00098972,0.0346264,1917,1121,44.9409,-2.69214
700,-97,44.96,2.53345,1.38799e-07,-0.00123492,-0.000190267,2.87858e-05,-0.00126357,-0.14944,0.000852136,0.0270605,1924,1121,44.9599,-2.53339
707,-97,44.9741,2.50269,-1.8195e-05,-0.00113974,0.000107527,-7.97905e-06,-0.00114995,0.0947243,0.000763991,0.0214355,1931,1121,44.9741,-2.50274
714,-97,44.9606,2.38708,0,0,0,0,0,0,0,-1,1938,1121,44.9606,-2.38711
721,-97,42.1779,6.70105,0,0,0,0,0,0,0,-1,1945,1121,42.1779,-6.70101
728,-97,42.145,6.53601,-0.000727828,-0.000397178,0.000872034,0.000325065,-0.00145007,0.879079,0.00109133,0.0225929,1952,1121,42.1451,-6.53599
735,-97,42.0807,6.19202,-0.00102552,-0.000118705,0.00117834,0.000690452,-0.00183467,0.969058,0.00150695,0.0250578,1959,1121,42.0807,-6.19207
742,-97,42.0657,5.8772,-0.00142108,0.000473485,0.00103093,0.00092626,-0.00187385,1.15697,0.00164721,0.0204021,1966,1121,42.0657,-5.87721
749,-97,42.1346,5.54968,-0.0028614,0.00085615,-0.000770615,0.00100956,-0.00301481,-1.37429,0.0024177,0.0215275,1973,1121,42.1347,-5.54964
756,-97,42.1364,5.26733,-0.00516217,0.00132796,-0.00397831,0.00321684,-0.00705105,-1.12752,0.00606437,0.0161699,1980,1121,42.1364,-5.2673
763,-97,42.0728,5.01099,-0.00841273,0.00207209,-0.00892934,0.0071842,-0.0135248,-1.05084,0.0121417,0.0117721,1987,1121,42.0728,-5.01094
770,-97,42.0289,4.76489,-0.0128638,0.00266921,-0.0162586,0.0129211,-0.0231157,-1.00822,0.0210815,0.0107001,1994,1121,42.0289,-4.76486
777,-97,41.9963,4.52979,-0.0186291,0.00290306,-0.0258926,0.0201787,-0.0359047,-0.982423,0.0328013,0.0161394,2001,1121,41.9963,-4.52974
784,-97,41.9385,4.22058,-0.0260361,0.00281471,-0.0381847,0.029208,-0.0524294,-0.966001,0.0477647,0.0369639,2008,1121,41.9385,-4.22054
791,-97,44.2615,3.22656,0,0,0,0,0,0,0,-1,2015,1121,44.2614,-3.22661
798,-97,43.5396,1.86707,-0.0477781,0.000984853,-0.0737157,0.0542465,-0.10104,-0.94511,0.0910013,0.0389215,2022,1121,43.5396,-1.86706
805,-97,42.813,0.50415,-0.0631728,-0.000909929,-0.0979011,0.0706903,-0.134773,-0.939337,0.120532,0.0411188,2029,1121,42.813,-0.504139
812,-97,42.0598,-0.879272,0,0,0,0,0,0,0,-1,2036,1121,42.0597,0.879258
-700,-104,0,0,0,0,0,0,0,0,0,-1,524,1128,0,0
-693,-104,-44.7964,1.37195,0,0,0,0,0,0,0,-1,531,1128,-44.7964,-1.37195
-686,-104,-42.4924,1.5614,0,0,0,0,0,0,0,-1,538,1128,-42.4924,-1.56137
-679,-104,-39.4015,2.26501,0.252678,0.0373341,-0.00811832,0.252984,0.0370285,-0.0376281,0.157768,0.0481631,545,1128,-39.4015,-2.26507
-672,-104,-35.3689,1.29675,0.20342,0.0257905,-0.00178114,0.203437,0.0257726,-0.0100259,0.127903,0.0498804,552,1128,-35.3689,-1.29676
-665,-104,-34.2979,2.33777,0.158659,0.0175922,0.00170659,0.158679,0.0175715,0.0120954,0.100443,0.0454923,559,1128,-34.2978,-2.33776
-658,-104,-32.7382,3.09741,0,0,0,0,0,0,0,-1,566,1128,-32.7382,-3.09736
-651,-104,-30.0117,1.2749,0.0853897,0.00787551,0.0035798,0.0855547,0.00771054,0.0460518,0.0546479,0.0408496,573,1128,-30.0117,-1.27495
-644,-104,-30.0861,1.54834,0.0573118,0.00523911,0.00373254,0.057578,0.00497293,0.0711942,0.0368398,0.0156522,580,1128,-30.0861,-1.54837
-637,-104,-30.0592,1.88599,0.0349722,0.00228332,0.00323342,0.035289,0.00196655,0.0976542,0.0228986,0.0106483,587,1128,-30.0592,-1.88595
-630,-104,-30.0729,2.17712,0.0198427,0.000867461,0.00187886,0.0200269,0.000683212,0.097752,0.0131295,0.0142995,594,1128,-30.0729,-2.17714
-623,-104,-30.1048,2.54163,0.00872338,0.000521949,0.00107687,0.00886242,0.000382909,0.128404,0.00578487,0.0167164,601,1128,-30.1048,-2.54159
-616,-104,-30.2744,2.96875,0.00345348,-5.24412e-06,0.000586118,0.0035501,-0.000101869,0.163386,0.00240141,0.0214006,608,1128,-30.2743,-2.96878
-609,-104,-30.3995,3.20581,0.00110957,0.000486752,0.000612854,0.00148559,0.000110726,0.550335,0.000955627,0.0272649,615,1128,-30.3995,-3.20578
-602,-104,-30.2419,3.604,0.00164465,0.000532971,0.000853877,0.00210766,6.99569e-05,0.496873,0.00138238,0.0242556,622,1128,-30.242,-3.60399
-595,-104,-30.0862,4.02356,0.00208886,2.64334e-05,0.00056016,0.00223118,-0.000115886,0.248805,0.00152755,0.0178422,629,1128,-30.0862,-4.02355
-588,-104,-30.0234,4.44092,0,0,0,0,0,0,0,-1,636,1128,-30.0234,-4.44093
-581,-104,-23.9373,2.85864,0,0,0,0,0,0,0,-1,643,1128,-23.9373,-2.85861
-574,-104,-33.3629,0.950806,0,0,0,0,0,0,0,-1,650,1128,-33.3629,-0.950796
-567,-104,-33.2191,0.851929,0.00225425,-0.000561388,0.00110446,0.00263578,-0.00094292,0.332614,0.00214184,0.0377634,657,1128,-33.2191,-0.851882
-560,-104,-33.0878,0.713867,0.00214221,-0.000675159,0.00110085,0.00252134,-0.00105429,0.331672,0.00212152,0.0426909,664,1128,-33.0879,-0.713812
-553,-104,-33.1813,0.803955,0.00166854,-0.000925292,0.000870934,0.00193384,-0.00119059,0.295685,0.00182083,0.044941,671,1128,-33.1813,-0.803909
-546,-104,-33.2269,0.432129,0.00104742,-0.00150494,0.00038987,0.00110565,-0.00156316,0.148246,0.00154837,0.0429561,678,1128,-33.2269,-0.432076
-539,-104,-33.3562,0.315186,0.00100529,-0.00283442,-0.000137233,0.00101019,-0.00283932,-0.0356798,0.00230463,0.0395539,685,1128,-33.3562,-0.315184
-532,-104,-33.4062,0.513184,0.00149713,-0.00424585,-0.000257637,0.00150866,-0.00425738,-0.0447415,0.00345281,0.0398108,692,1128,-33.4062,-0.513209
-525,-104,-33.415,0.648438,0.00180294,-0.00559628,-8.2275e-05,0.00180385,-0.0055972,-0.0111176,0.00445616,0.0375971,699,1128,-33.415,-0.64848
-518,-104,0,0,0,0,0,0,0,0,0,-1,706,1128,0,0
-511,-104,0,0,0,0,0,0,0,0,0,-1,713,1128,0,0
-504,-104,0,0,0,0,0,0,0,0,0,-1,720,1128,0,0
-497,-104,0,0,0,0,0,0,0,0,0,-1,727,1128,0,0
-490,-104,0,0,0,0,0,0,0,0,0,-1,734,1128,0,0
-483,-104,0,0,0,0,0,0,0,0,0,-1,741,1128,0,0
-476,-104,0,0,0,0,0,0,0,0,0,-1,748,1128,0,0
-469,-104,0,0,0,0,0,0,0,0,0,-1,755,1128,0,0
-462,-104,0,0,0,0,0,0,0,0,0,-1,762,1128,0,0
-455,-104,0,0,0,0,0,0,0,0,0,-1,769,1128,0,0
-448,-104,0,0,0,0,0,0,0,0,0,-1,776,1128,0,0
-441,-104,0,0,0,0,0,0,0,0,0,-1,783,1128,0,0
-434,-104,0,0,0,0,0,0,0,0,0,-1,790,1128,0,0
-427,-104,0,0,0,0,0,0,0,0,0,-1,797,1128,0,0
-420,-104,0,0,0,0,0,0,0,0,0,-1,804,1128,0,0
-413,-104,0,0,0,0,0,0,0,0,0,-1,811,1128,0,0
-406,-104,0,0,0,0,0,0,0,0,0,-1,818,1128,0,0
-399,-104,0,0,0,0,0,0,0,0,0,-1,825,1128,0,0
-392,-104,0,0,0,0,0,0,0,0,0,-1,832,1128,0,0
-385,-104,0,0,0,0,0,0,0,0,0,-1,839,1128,0,0
-378,-104,0,0,0,0,0,0,0,0,0,-1,846,1128,0,0
-371,-104,0,0,0,0,0,0,0,0,0,-1,853,1128,0,0
-364,-104,0,0,0,0,0,0,0,0,0,-1,860,1128,0,0
-357,-104,0,0,0,0,0,0,0,0,0,-1,867,1128,0,0
-350,-104,0,0,0,0,0,0,0,0,0,-1,874,1128,0,0
-343,-104,0,0,0,0,0,0,0,0,0,-1,881,1128,0,0
-336,-104,0,0,0,0,0,0,0,0,0,-1,888,1128,0,0
-329,-104,0,0,0,0,0,0,0,0,0,-1,895,1128,0,0
-322,-104,0,0,0,0,0,0,0,0,0,-1,902,1128,0,0
-315,-104,0,0,0,0,0,0,0,0,0,-1,909,1128,0,0
-308,-104,0,0,0,0,0,0,0,0,0,-1,916,1128,0,0
-301,-104,0,0,0,0,0,0,0,0,0,-1,923,1128,0,0
-294,-104,0,0,0,0,0,0,0,0,0,-1,930,1128,0,0
-287,-104,0,0,0,0,0,0,0,0,0,-1,937,1128,0,0
-280,-104,0,0,0,0,0,0,0,0,0,-1,944,1128,0,0
-273,-104,0,0,0,0,0,0,0,0,0,-1,951,1128,0,0
-266,-104,0,0,0,0,0,0,0,0,0,-1,958,1128,0,0
-259,-104,0,0,0,0,0,0,0,0,0,-1,965,1128,0,0
-252,-104,0,0,0,0,0,0,0,0,0,-1,972,1128,0,0
-245,-104,0,0,0,0,0,0,0,0,0,-1,979,1128,0,0
-238,-104,0,0,0,0,0,0,0,0,0,-1,986,1128,0,0
-231,-104,0,0,0,0,0,0,0,0,0,-1,993,1128,0,0
-224,-104,0,0,0,0,0,0,0,0,0,-1,1000,1128,0,0
-217,-104,0,0,0,0,0,0,0,0,0,-1,1007,1128,0,0
-210,-104,0,0,0,0,0,0,0,0,0,-1,1014,1128,0,0
-203,-104,0,0,0,0,0,0,0,0,0,-1,1021,1128,0,0
-196,-104,0,0,0,0,0,0,0,0,0,-1,1028,1128,0,0
-189,-104,0,0,0,0,0,0,0,0,0,-1,1035,1128,0,0
-182,-104,0,0,0,0,0,0,0,0,0,-1,1042,1128,0,0
-175,-104,0,0,0,0,0,0,0,0,0,-1,1049,1128,0,0
-168,-104,0,0,0,0,0,0,0,0,0,-1,1056,1128,0,0
-161,-104,0,0,0,0,0,0,0,0,0,-1,1063,1128,0,0
-154,-104,0,0,0,0,0,0,0,0,0,-1,1070,1128,0,0
-147,-104,0,0,0,0,0,0,0,0,0,-1,1077,1128,0,0
-140,-104,0,0,0,0,0,0,0,0,0,-1,1084,1128,0,0
-133,-104,0,0,0,0,0,0,0,0,0,-1,1091,1128,0,0
-126,-104,0,0,0,0,0,0,0,0,0,-1,1098,1128,0,0
-119,-104,0,0,0,0,0,0,0,0,0,-1,1105,1128,0,0
-112,-104,0,0,0,0,0,0,0,0,0,-1,1112,1128,0,0
-105,-104,0,0,0,0,0,0,0,0,0,-1,1119,1128,0,0
-98,-104,0,0,0,0,0,0,0,0,0,-1,1126,1128,0,0
-91,-104,0,0,0,0,0,0,0,0,0,-1,1133,1128,0,0
-84,-104,0,0,0,0,0,0,0,0,0,-1,1140,1128,0,0
-77,-104,0,0,0,0,0,0,0,0,0,-1,1147,1128,0,0
-70,-104,0,0,0,0,0,0,0,0,0,-1,1154,1128,0,0
-63,-104,0,0,0,0,0,0,0,0,0,-1,1161,1128,0,0
-56,-104,0,0,0,0,0,0,0,0,0,-1,1168,1128,0,0
-49,-104,0,0,0,0,0,0,0,0,0,-1,1175,1128,0,0
-42,-104,0,0,0,0,0,0,0,0,0,-1,1182,1128,0,0
-35,-104,0,0,0,0,0,0,0,0,0,-1,1189,1128,0,0
-28,-104,0,0,0,0,0,0,0,0,0,-1,1196,1128,0,0
-21,-104,0,0,0,0,0,0,0,0,0,-1,1203,1128,0,0
-14,-104,0,0,0,0,0,0,0,0,0,-1,1210,1128,0,0
-7,-104,0,0,0,0,0,0,0,0,0,-1,1217,1128,0,0
0,-104,0,0,0,0,0,0,0,0,0,-1,1224,1128,0,0
7,-104,0,0,0,0,0,0,0,0,0,-1,1231,1128,0,0
14,-104,0,0,0,0,0,0,0,0,0,-1,1238,1128,0,0
21,-104,0,0,0,0,0,0,0,0,0,-1,1245,1128,0,0
28,-104,0,0,0,0,0,0,0,0,0,-1,1252,1128,0,0
35,-104,0,0,0,0,0,0,0,0,0,-1,1259,1128,0,0
42,-104,0,0,0,0,0,0,0,0,0,-1,1266,1128,0,0
49,-104,0,0,0,0,0,0,0,0,0,-1,1273,1128,0,0
56,-104,0,0,0,0,0,0,0,0,0,-1,1280,1128,0,0
63,-104,0,0,0,0,0,0,0,0,0,-1,1287,1128,0,0
70,-104,0,0,0,0,0,0,0,0,0,-1,1294,1128,0,0
77,-104,0,0,0,0,0,0,0,0,0,-1,1301,1128,0,0
84,-104,0,0,0,0,0,0,0,0,0,-1,1308,1128,0,0
91,-104,0,0,0,0,0,0,0,0,0,-1,1315,1128,0,0
98,-104,0,0,0,0,0,0,0,0,0,-1,1322,1128,0,0
105,-104,0,0,0,0,0,0,0,0,0,-1,1329,1128,0,0
112,-104,0,0,0,0,0,0,0,0,0,-1,1336,1128,0,0
119,-104,0,0,0,0,0,0,0,0,0,-1,1343,1128,0,0
126,-104,0,0,0,0,0,0,0,0,0,-1,1350,1128,0,0
133,-104,0,0,0,0,0,0,0,0,0,-1,1357,1128,0,0
140,-104,0,0,0,0,0,0,0,0,0,-1,1364,1128,0,0
147,-104,0,0,0,0,0,0,0,0,0,-1,1371,1128,0,0
154,-104,0,0,0,0,0,0,0,0,0,-1,1378,1128,0,0
161,-104,0,0,0,0,0,0,0,0,0,-1,1385,1128,0,0
168,-104,0,0,0,0,0,0,0,0,0,-1,1392,1128,0,0
175,-104,0,0,0,0,0,0,0,0,0,-1,1399,1128,0,0
182,-104,0,0,0,0,0,0,0,0,0,-1,1406,1128,0,0
189,-104,0,0,0,0,0,0,0,0,0,-1,1413,1128,0,0
196,-104,0,0,0,0,0,0,0,0,0,-1,1420,1128,0,0
203,-104,0,0,0,0,0,0,0,0,0,-1,1427,1128,0,0
210,-104,0,0,0,0,0,0,0,0,0,-1,1434,1128,0,0
217,-104,0,0,0,0,0,0,0,0,0,-1,1441,1128,0,0
224,-104,0,0,0,0,0,0,0,0,0,-1,1448,1128,0,0
231,-104,0,0,0,0,0,0,0,0,0,-1,1455,1128,0,0
238,-104,0,0,0,0,0,0,0,0,0,-1,1462,1128,0,0
245,-104,0,0,0,0,0,0,0,0,0,-1,1469,1128,0,0
252,-104,0,0,0,0,0,0,0,0,0,-1,1476,1128,0,0
259,-104,0,0,0,0,0,0,0,0,0,-1,1483,1128,0,0
266,-104,0,0,0,0,0,0,0,0,0,-1,1490,1128,0,0
273,-104,0,0,0,0,0,0,0,0,0,-1,1497,1128,0,0
280,-104,0,0,0,0,0,0,0,0,0,-1,1504,1128,0,0
287,-104,0,0,0,0,0,0,0,0,0,-1,1511,1128,0,0
294,-104,0,0,0,0,0,0,0,0,0,-1,1518,1128,0,0
301,-104,0,0,0,0,0,0,0,0,0,-1,1525,1128,0,0
308,-104,0,0,0,0,0,0,0,0,0,-1,1532,1128,0,0
315,-104,0,0,0,0,0,0,0,0,0,-1,1539,1128,0,0
322,-104,0,0,0,0,0,0,0,0,0,-1,1546,1128,0,0
329,-104,0,0,0,0,0,0,0,0,0,-1,1553,1128,0,0
336,-104,0,0,0,0,0,0,0,0,0,-1,1560,1128,0,0
343,-104,0,0,0,0,0,0,0,0,0,-1,1567,1128,0,0
350,-104,0,0,0,0,0,0,0,0,0,-1,1574,1128,0,0
357,-104,0,0,0,0,0,0,0,0,0,-1,1581,1128,0,0
364,-104,0,0,0,0,0,0,0,0,0,-1,1588,1128,0,0
371,-104,0,0,0,0,0,0,0,0,0,-1,1595,1128,0,0
378,-104,0,0,0,0,0,0,0,0,0,-1,1602,1128,0,0
385,-104,0,0,0,0,0,0,0,0,0,-1,1609,1128,0,0
392,-104,0,0,0,0,0,0,0,0,0,-1,1616,1128,0,0
399,-104,0,0,0,0,0,0,0,0,0,-1,1623,1128,0,0
406,-104,0,0,0,0,0,0,0,0,0,-1,1630,1128,0,0
413,-104,0,0,0,0,0,0,0,0,0,-1,1637,1128,0,0
420,-104,0,0,0,0,0,0,0,0,0,-1,1644,1128,0,0
427,-104,0,0,0,0,0,0,0,0,0,-1,1651,1128,0,0
434,-104,0,0,0,0,0,0,0,0,0,-1,1658,1128,0,0
441,-104,0,0,0,0,0,0,0,0,0,-1,1665,1128,0,0
448,-104,0,0,0,0,0,0,0,0,0,-1,1672,1128,0,0
455,-104,0,0,0,0,0,0,0,0,0,-1,1679,1128,0,0
462,-104,0,0,0,0,0,0,0,0,0,-1,1686,1128,0,0
469,-104,0,0,0,0,0,0,0,0,0,-1,1693,1128,0,0
476,-104,0,0,0,0,0,0,0,0,0,-1,1700,1128,0,0
483,-104,0,0,0,0,0,0,0,0,0,-1,1707,1128,0,0
490,-104,0,0,0,0,0,0,0,0,0,-1,1714,1128,0,0
497,-104,0,0,0,0,0,0,0,0,0,-1,1721,1128,0,0
504,-104,0,0,0,0,0,0,0,0,0,-1,1728,1128,0,0
511,-104,0,0,0,0,0,0,0,0,0,-1,1735,1128,0,0
518,-104,0,0,0,0,0,0,0,0,0,-1,1742,1128,0,0
525,-104,0,0,0,0,0,0,0,0,0,-1,1749,1128,0,0
532,-104,0,0,0,0,0,0,0,0,0,-1,1756,1128,0,0
539,-104,0,0,0,0,0,0,0,0,0,-1,1763,1128,0,0
546,-104,0,0,0,0,0,0,0,0,0,-1,1770,1128,0,0
553,-104,0,0,0,0,0,0,0,0,0,-1,1777,1128,0,0
560,-104,0,0,0,0,0,0,0,0,0,-1,1784,1128,0,0
567,-104,0,0,0,0,0,0,0,0,0,-1,1791,1128,0,0
574,-104,0,0,0,0,0,0,0,0,0,-1,1798,1128,0,0
581,-104,0,0,0,0,0,0,0,0,0,-1,1805,1128,0,0
588,-104,0,0,0,0,0,0,0,0,0,-1,1812,1128,0,0
595,-104,0,0,0,0,0,0,0,0,0,-1,1819,1128,0,0
602,-104,0,0,0,0,0,0,0,0,0,-1,1826,1128,0,0
609,-104,0,0,0,0,0,0,0,0,0,-1,1833,1128,0,0
616,-104,0,0,0,0,0,0,0,0,0,-1,1840,1128,0,0
623,-104,0,0,0,0,0,0,0,0,0,-1,1847,1128,0,0
630,-104,0,0,0,0,0,0,0,0,0,-1,1854,1128,0,0
637,-104,0,0,0,0,0,0,0,0,0,-1,1861,1128,0,0
644,-104,44.8552,2.85718,0.000176651,-0.00238583,-0.00413834,0.00322755,-0.00543674,-0.635277,0.00505624,0.0391472,1868,1128,44.8552,-2.85719
651,-104,45.0759,2.80383,-0.000526024,-0.00197612,-0.00302558,0.00186017,-0.00436232,-0.667796,0.0036881,0.0395908,1875,1128,45.0759,-2.80379
658,-104,45.0505,2.66553,-0.000656823,-0.00169151,-0.00232761,0.00121025,-0.00355858,-0.676044,0.0028624,0.0415501,1882,1128,45.0505,-2.66552
665,-104,44.9076,2.75183,-0.000595002,-0.00137543,-0.00180836,0.000864768,-0.0028352,-0.679136,0.00223487,0.0453106,1889,1128,44.9076,-2.75187
672,-104,44.9581,2.66772,-0.000361538,-0.00112753,-0.00138549,0.000692914,-0.00218198,-0.650548,0.00173245,0.0447903,1896,1128,44.9581,-2.66772
679,-104,44.9641,2.55212,-0.000328856,-0.000980082,-0.00105582,0.000450416,-0.00175935,-0.635826,0.00134836,0.0419547,1903,1128,44.9641,-2.55216
686,-104,44.785,2.69177,-0.000242573,-0.000999839,-0.000771523,0.000238219,-0.00148063,-0.557284,0.00107533,0.0394211,1910,1128,44.785,-2.6918
693,-104,44.9209,2.63611,-4.86709e-05,-0.00099805,-0.000559576,0.000210435,-0.00125716,-0.433644,0.000916339,0.035331,1917,1128,44.9209,-2.63612
700,-104,44.9982,2.51807,-1.45975e-05,-0.000997216,-0.000302065,7.08321e-05,-0.00108265,-0.275621,0.000746495,0.0258662,1924,1128,44.9982,-2.51809
707,-104,44.968,2.48889,1.04682e-05,-0.000929068,-6.13515e-06,1.05083e-05,-0.000929108,-0.00652961,0.000622938,0.0474828,1931,1128,44.968,-2.48891
714,-104,44.8978,2.31592,0,0,0,0,0,0,0,-1,1938,1128,44.8978,-2.31595
721,-104,41.8068,6.8313,0,0,0,0,0,0,0,-1,1945,1128,41.8068,-6.83129
728,-104,41.9186,6.44568,-0.00065042,-0.000308471,0.000824893,0.00036298,-0.00132187,0.887586,0.00102392,0.0230473,1952,1128,41.9186,-6.44571
735,-104,41.9283,6.11536,-0.00089059,-6.16634e-05,0.00117656,0.000771304,-0.00172356,0.954744,0.00147497,0.0261428,1959,1128,41.9283,-6.1154
742,-104,41.8049,5.83765,-0.00122911,0.000506017,0.00123598,0.00114853,-0.00187162,1.09141,0.00176026,0.0179392,1966,1128,41.805,-5.83762
749,-104,41.7798,5.5531,-0.00261774,0.000799535,-0.000158266,0.000806849,-0.00262505,-1.52461,0.00207203,0.0192235,1973,1128,41.7798,-5.55314
756,-104,41.798,5.26111,-0.00495076,0.00117203,-0.00300517,0.00240053,-0.00617926,-1.18273,0.00511117,0.0176918,1980,1128,41.798,-5.26106
763,-104,41.7653,5.00012,-0.00833689,0.00182048,-0.00757084,0.0058583,-0.0123747,-1.08083,0.0107486,0.0153867,1987,1128,41.7653,-5.00011
770,-104,41.7084,4.74548,-0.0129085,0.00230572,-0.014322,0.0109155,-0.0215183,-1.02953,0.0190562,0.0131707,1994,1128,41.7084,-4.74547
777,-104,41.6318,4.46558,-0.0188233,0.00251106,-0.0233187,0.0174867,-0.0337989,-0.999914,0.0301048,0.0219505,2001,1128,41.6318,-4.46555
784,-104,41.4824,3.99377,-0.0265804,0.00244568,-0.0351556,0.0259661,-0.0501009,-0.981154,0.0446481,0.0420372,2008,1128,41.4825,-3.99372
791,-104,45.0264,3.57471,0,0,0,0,0,0,0,-1,2015,1128,45.0263,-3.57475
798,-104,43.979,2.1521,-0.0492984,0.00115339,-0.0703873,0.0506986,-0.0988436,-0.957462,0.087817,0.0471985,2022,1128,43.9791,-2.1521
805,-104,42.9521,0.62439,-0.0653334,-3.70193e-05,-0.0950156,0.067783,-0.133153,-0.950883,0.118039,0.0454437,2029,1128,42.9522,-0.624391
812,-104,41.7976,-0.603638,0,0,0,0,0,0,0,-1,2036,1128,41.7976,0.603624
-700,-111,0,0,0,0,0,0,0,0,0,-1,524,1135,0,0
-693,-111,-45.396,1.82568,0.334128,0.0155142,0.0202392,0.335409,0.0142337,0.0631841,0.219016,0.0495524,531,1135,-45.396,-1.82571
-686,-111,-42.5403,2.23657,0,0,0,0,0,0,0,-1,538,1135,-42.5403,-2.23659
-679,-111,-39.6262,2.70752,0,0,0,0,0,0,0,-1,545,1135,-39.6262,-2.70746
-672,-111,-37.1025,3.04834,0,0,0,0,0,0,0,-1,552,1135,-37.1025,-3.04828
-665,-111,-34.7737,3.56262,0,0,0,0,0,0,0,-1,559,1135,-34.7737,-3.56258
-658,-111,-32.4448,4.0769,0,0,0,0,0,0,0,-1,566,1135,-32.4448,-4.07689
-651,-111,-29.5208,1.12244,0.0870761,0.00690628,0.00107795,0.0870906,0.00689179,0.0134426,0.0559049,0.0442567,573,1135,-29.5208,-1.12242
-644,-111,-29.6207,1.51978,0.0598807,0.00516438,0.000599105,0.0598873,0.00515782,0.0109475,0.0383214,0.0272363,580,1135,-29.6208,-1.5198
-637,-111,-29.6919,1.88,0.0370504,0.00397292,0.000143569,0.037051,0.0039723,0.00434027,0.0234888,0.0108123,587,1135,-29.6919,-1.87996
-630,-111,-29.7236,2.16187,0.0207875,0.00191731,1.97818e-05,0.0207875,0.00191729,0.00104831,0.0132655,0.0197944,594,1135,-29.7236,-2.16182
-623,-111,-29.7316,2.53406,0.00878074,0.000996412,0.000100803,0.00878204,0.000995107,0.0129466,0.0055528,0.0168158,601,1135,-29.7316,-2.53402
-616,-111,-29.8987,2.90247,0.00317558,0.000204003,0.000227906,0.00319296,0.000186625,0.0761021,0.00206924,0.0173802,608,1135,-29.8987,-2.90244
-609,-111,-30.1121,3.19812,0.000895849,0.000555785,0.000613033,0.00136199,8.96403e-05,0.650118,0.00087964,0.0279997,615,1135,-30.112,-3.19807
-602,-111,-30.0159,3.6012,0.00136963,0.0006686,0.000886497,0.00197239,6.58374e-05,0.597134,0.00129354,0.0320319,622,1135,-30.0158,-3.60122
-595,-111,-29.8023,4.0531,0.00174247,0.000224935,0.000601177,0.00195176,1.56415e-05,0.335017,0.00129599,0.0166689,629,1135,-29.8023,-4.05304
-588,-111,-29.5853,4.55261,0,0,0,0,0,0,0,-1,636,1135,-29.5853,-4.55264
-581,-111,-21.0555,3.14551,0,0,0,0,0,0,0,-1,643,1135,-21.0555,-3.14548
-574,-111,-33.3373,1.02173,0,0,0,0,0,0,0,-1,650,1135,-33.3373,-1.02179
-567,-111,-33.227,0.8927,0.00173464,-0.00034049,0.00113393,0.00223406,-0.000839915,0.414873,0.0018346,0.040293,657,1135,-33.227,-0.892642
-560,-111,-33.3145,0.849976,0.00163091,-0.000461162,0.0011833,0.00216423,-0.000994487,0.423446,0.00186491,0.0404035,664,1135,-33.3144,-0.849954
-553,-111,-33.3323,0.671265,0.00118187,-0.000706435,0.00103656,0.00163982,-0.00116438,0.416011,0.00162674,0.0436846,671,1135,-33.3323,-0.671288
-546,-111,-33.2679,0.490723,0.000630274,-0.00130738,0.000666141,0.00083719,-0.00151429,0.301169,0.00137626,0.0394622,678,1135,-33.268,-0.490679
-539,-111,-33.458,0.617188,0.000626887,-0.00260317,0.000331038,0.000660465,-0.00263674,0.101087,0.0020144,0.0382202,685,1135,-33.458,-0.61722
-532,-111,-33.3931,0.666138,0.00131327,-0.00405911,0.000428508,0.00134723,-0.00409308,0.0790948,0.00327161,0.0399559,692,1135,-33.3931,-0.666098
-525,-111,-33.3297,0.685669,0.00182818,-0.00543376,0.000766739,0.00190825,-0.00551383,0.104055,0.00445049,0.0380148,699,1135,-33.3297,-0.685725
-518,-111,0,0,0,0,0,0,0,0,0,-1,706,1135,0,0
-511,-111,0,0,0,0,0,0,0,0,0,-1,713,1135,0,0
-504,-111,0,0,0,0,0,0,0,0,0,-1,720,1135,0,0
-497,-111,0,0,0,0,0,0,0,0,0,-1,727,1135,0,0
-490,-111,0,0,0,0,0,0,0,0,0,-1,734,1135,0,0
-483,-111,0,0,0,0,0,0,0,0,0,-1,741,1135,0,0
-476,-111,0,0,0,0,0,0,0,0,0,-1,748,1135,0,0
-469,-111,0,0,0,0,0,0,0,0,0,-1,755,1135,0,0
-462,-111,0,0,0,0,0,0,0,0,0,-1,762,1135,0,0
-455,-111,0,0,0,0,0,0,0,0,0,-1,769,1135,0,0
-448,-111,0,0,0,0,0,0,0,0,0,-1,776,1135,0,0
-441,-111,0,0,0,0,0,0,0,0,0,-1,783,1135,0,0
-434,-111,0,0,0,0,0,0,0,0,0,-1,790,1135,0,0
-427,-111,0,0,0,0,0,0,0,0,0,-1,797,1135,0,0
-420,-111,0,0,0,0,0,0,0,0,0,-1,804,1135,0,0
-413,-111,0,0,0,0,0,0,0,0,0,-1,811,1135,0,0
-406,-111,0,0,0,0,0,0,0,0,0,-1,818,1135,0,0
-399,-111,0,0,0,0,0,0,0,0,0,-1,825,1135,0,0
-392,-111,0,0,0,0,0,0,0,0,0,-1,832,1135,0,0
-385,-111,0,0,0,0,0,0,0,0,0,-1,839,1135,0,0
-378,-111,0,0,0,0,0,0,0,0,0,-1,846,1135,0,0
-371,-111,0,0,0,0,0,0,0,0,0,-1,853,1135,0,0
-364,-111,0,0,0,0,0,0,0,0,0,-1,860,1135,0,0
-357,-111,0,0,0,0,0,0,0,0,0,-1,867,1135,0,0
-350,-111,0,0,0,0,0,0,0,0,0,-1,874,1135,0,0
-343,-111,0,0,0,0,0,0,0,0,0,-1,881,1135,0,0
-336,-111,0,0,0,0,0,0,0,0,0,-1,888,1135,0,0
-329,-111,0,0,0,0,0,0,0,0,0,-1,895,1135,0,0
-322,-111,0,0,0,0,0,0,0,0,0,-1,902,1135,0,0
-315,-111,0,0,0,0,0,0,0,0,0,-1,909,1135,0,0
-308,-111,0,0,0,0,0,0,0,0,0,-1,916,1135,0,0
-301,-111,0,0,0,0,0,0,0,0,0,-1,923,1135,0,0
-294,-111,0,0,0,0,0,0,0,0,0,-1,930,1135,0,0
-287,-111,0,0,0,0,0,0,0,0,0,-1,937,1135,0,0
-280,-111,0,0,0,0,0,0,0,0,0,-1,944,1135,0,0
-273,-111,0,0,0,0,0,0,0,0,0,-1,951,1135,0,0
-266,-111,0,0,0,0,0,0,0,0,0,-1,958,1135,0,0
-259,-111,0,0,0,0,0,0,0,0,0,-1,965,1135,0,0
-252,-111,0,0,0,0,0,0,0,0,0,-1,972,1135,0,0
-245,-111,0,0,0,0,0,0,0,0,0,-1,979,1135,0,0
-238,-111,0,0,0,0,0,0,0,0,0,-1,986,1135,0,0
-231,-111,0,0,0,0,0,0,0,0,0,-1,993,1135,0,0
-224,-111,0,0,0,0,0,0,0,0,0,-1,1000,1135,0,0
-217,-111,0,0,0,0,0,0,0,0,0,-1,1007,1135,0,0
-210,-111,0,0,0,0,0,0,0,0,0,-1,1014,1135,0,0
-203,-111,0,0,0,0,0,0,0,0,0,-1,1021,1135,0,0
-196,-111,0,0,0,0,0,0,0,0,0,-1,1028,1135,0,0
-189,-111,0,0,0,0,0,0,0,0,0,-1,1035,1135,0,0
-182,-111,0,0,0,0,0,0,0,0,0,-1,1042,1135,0,0
-175,-111,0,0,0,0,0,0,0,0,0,-1,1049,1135,0,0
-168,-111,0,0,0,0,0,0,0,0,0,-1,1056,1135,0,0
-161,-111,0,0,0,0,0,0,0,0,0,-1,1063,1135,0,0
-154,-111,0,0,0,0,0,0,0,0,0,-1,1070,1135,0,0
-147,-111,0,0,0,0,0,0,0,0,0,-1,1077,1135,0,0
-140,-111,0,0,0,0,0,0,0,0,0,-1,1084,1135,0,0
-133,-111,0,0,0,0,0,0,0,0,0,-1,1091,1135,0,0
-126,-111,0,0,0,0,0,0,0,0,0,-1,1098,1135,0,0
-119,-111,0,0,0,0,0,0,0,0,0,-1,1105,1135,0,0
-112,-111,0,0,0,0,0,0,0,0,0,-1,1112,1135,0,0
-105,-111,0,0,0,0,0,0,0,0,0,-1,1119,1135,0,0
-98,-111,0,0,0,0,0,0,0,0,0,-1,1126,1135,0,0
-91,-111,0,0,0,0,0,0,0,0,0,-1,1133,1135,0,0
-84,-111,0,0,0,0,0,0,0,0,0,-1,1140,1135,0,0
-77,-111,0,0,0,0,0,0,0,0,0,-1,1147,1135,0,0
-70,-111,0,0,0,0,0,0,0,0,0,-1,1154,1135,0,0
-63,-111,0,0,0,0,0,0,0,0,0,-1,1161,1135,0,0
-56,-111,0,0,0,0,0,0,0,0,0,-1,1168,1135,0,0
-49,-111,0,0,0,0,0,0,0,0,0,-1,1175,1135,0,0
-42,-111,0,0,0,0,0,0,0,0,0,-1,1182,1135,0,0
-35,-111,0,0,0,0,0,0,0,0,0,-1,1189,1135,0,0
-28,-111,0,0,0,0,0,0,0,0,0,-1,1196,1135,0,0
-21,-111,0,0,0,0,0,0,0,0,0,-1,1203,1135,0,0
-14,-111,0,0,0,0,0,0,0,0,0,-1,1210,1135,0,0
-7,-111,0,0,0,0,0,0,0,0,0,-1,1217,1135,0,0
0,-111,0,0,0,0,0,0,0,0,0,-1,1224,1135,0,0
7,-111,0,0,0,0,0,0,0,0,0,-1,1231,1135,0,0
14,-111,0,0,0,0,0,0,0,0,0,-1,1238,1135,0,0
21,-111,0,0,0,0,0,0,0,0,0,-1,1245,1135,0,0
28,-111,0,0,0,0,0,0,0,0,0,-1,1252,1135,0,0
35,-111,0,0,0,0,0,0,0,0,0,-1,1259,1135,0,0
42,-111,0,0,0,0,0,0,0,0,0,-1,1266,1135,0,0
49,-111,0,0,0,0,0,0,0,0,0,-1,1273,1135,0,0
56,-111,0,0,0,0,0,0,0,0,0,-1,1280,1135,0,0
63,-111,0,0,0,0,0,0,0,0,0,-1,1287,1135,0,0
70,-111,0,0,0,0,0,0,0,0,0,-1,1294,1135,0,0
77,-111,0,0,0,0,0,0,0,0,0,-1,1301,1135,0,0
84,-111,0,0,0,0,0,0,0,0,0,-1,1308,1135,0,0
91,-111,0,0,0,0,0,0,0,0,0,-1,1315,1135,0,0
98,-111,0,0,0,0,0,0,0,0,0,-1,1322,1135,0,0
105,-111,0,0,0,0,0,0,0,0,0,-1,1329,1135,0,0
112,-111,0,0,0,0,0,0,0,0,0,-1,1336,1135,0,0
119,-111,0,0,0,0,0,0,0,0,0,-1,1343,1135,0,0
126,-111,0,0,0,0,0,0,0,0,0,-1,1350,1135,0,0
133,-111,0,0,0,0,0,0,0,0,0,-1,1357,1135,0,0
140,-111,0,0,0,0,0,0,0,0,0,-1,1364,1135,0,0
147,-111,0,0,0,0,0,0,0,0,0,-1,1371,1135,0,0
154,-111,0,0,0,0,0,0,0,0,0,-1,1378,1135,0,0
161,-111,0,0,0,0,0,0,0,0,0,-1,1385,1135,0,0
168,-111,0,0,0,0,0,0,0,0,0,-1,1392,1135,0,0
175,-111,0,0,0,0,0,0,0,0,0,-1,1399,1135,0,0
182,-111,0,0,0,0,0,0,0,0,0,-1,1406,1135,0,0
189,-111,0,0,0,0,0,0,0,0,0,-1,1413,1135,0,0
196,-111,0,0,0,0,0,0,0,0,0,-1,1420,1135,0,0
203,-111,0,0,0,0,0,0,0,0,0,-1,1427,1135,0,0
210,-111,0,0,0,0,0,0,0,0,0,-1,1434,1135,0,0
217,-111,0,0,0,0,0,0,0,0,0,-1,1441,1135,0,0
224,-111,0,0,0,0,0,0,0,0,0,-1,1448,1135,0,0
231,-111,0,0,0,0,0,0,0,0,0,-1,1455,1135,0,0
238,-111,0,0,0,0,0,0,0,0,0,-1,1462,1135,0,0
245,-111,0,0,0,0,0,0,0,0,0,-1,1469,1135,0,0
252,-111,0,0,0,0,0,0,0,0,0,-1,1476,1135,0,0
259,-111,0,0,0,0,0,0,0,0,0,-1,1483,1135,0,0
266,-111,0,0,0,0,0,0,0,0,0,-1,1490,1135,0,0
273,-111,0,0,0,0,0,0,0,0,0,-1,1497,1135,0,0
280,-111,0,0,0,0,0,0,0,0,0,-1,1504,1135,0,0
287,-111,0,0,0,0,0,0,0,0,0,-1,1511,1135,0,0
294,-111,0,0,0,0,0,0,0,0,0,-1,1518,1135,0,0
301,-111,0,0,0,0,0,0,0,0,0,-1,1525,1135,0,0
308,-111,0,0,0,0,0,0,0,0,0,-1,1532,1135,0,0
315,-111,0,0,0,0,0,0,0,0,0,-1,1539,1135,0,0
322,-111,0,0,0,0,0,0,0,0,0,-1,1546,1135,0,0
329,-111,0,0,0,0,0,0,0,0,0,-1,1553,1135,0,0
336,-111,0,0,0,0,0,0,0,0,0,-1,1560,1135,0,0
343,-111,0,0,0,0,0,0,0,0,0,-1,1567,1135,0,0
350,-111,0,0,0,0,0,0,0,0,0,-1,1574,1135,0,0
357,-111,0,0,0,0,0,0,0,0,0,-1,1581,1135,0,0
364,-111,0,0,0,0,0,0,0,0,0,-1,1588,1135,0,0
371,-111,0,0,0,0,0,0,0,0,0,-1,1595,1135,0,0
378,-111,0,0,0,0,0,0,0,0,0,-1,1602,1135,0,0
385,-111,0,0,0,0,0,0,0,0,0,-1,1609,1135,0,0
392,-111,0,0,0,0,0,0,0,0,0,-1,1616,1135,0,0
399,-111,0,0,0,0,0,0,0,0,0,-1,1623,1135,0,0
406,-111,0,0,0,0,0,0,0,0,0,-1,1630,1135,0,0
413,-111,0,0,0,0,0,0,0,0,0,-1,1637,1135,0,0
420,-111,0,0,0,0,0,0,0,0,0,-1,1644,1135,0,0
427,-111,0,0,0,0,0,0,0,0,0,-1,1651,1135,0,0
434,-111,0,0,0,0,0,0,0,0,0,-1,1658,1135,0,0
441,-111,0,0,0,0,0,0,0,0,0,-1,1665,1135,0,0
448,-111,0,0,0,0,0,0,0,0,0,-1,1672,1135,0,0
455,-111,0,0,0,0,0,0,0,0,0,-1,1679,1135,0,0
462,-111,0,0,0,0,0,0,0,0,0,-1,1686,1135,0,0
469,-111,0,0,0,0,0,0,0,0,0,-1,1693,1135,0,0
476,-111,0,0,0,0,0,0,0,0,0,-1,1700,1135,0,0
483,-111,0,0,0,0,0,0,0,0,0,-1,1707,1135,0,0
490,-111,0,0,0,0,0,0,0,0,0,-1,1714,1135,0,0
497,-111,0,0,0,0,0,0,0,0,0,-1,1721,1135,0,0
504,-111,0,0,0,0,0,0,0,0,0,-1,1728,1135,0,0
511,-111,0,0,0,0,0,0,0,0,0,-1,1735,1135,0,0
518,-111,0,0,0,0,0,0,0,0,0,-1,1742,1135,0,0
525,-111,0,0,0,0,0,0,0,0,0,-1,1749,1135,0,0
532,-111,0,0,0,0,0,0,0,0,0,-1,1756,1135,0,0
539,-111,0,0,0,0,0,0,0,0,0,-1,1763,1135,0,0
546,-111,0,0,0,0,0,0,0,0,0,-1,1770,1135,0,0
553,-111,0,0,0,0,0,0,0,0,0,-1,1777,1135,0,0
560,-111,0,0,0,0,0,0,0,0,0,-1,1784,1135,0,0
567,-111,0,0,0,0,0,0,0,0,0,-1,1791,1135,0,0
574,-111,0,0,0,0,0,0,0,0,0,-1,1798,1135,0,0
581,-111,0,0,0,0,0,0,0,0,0,-1,1805,1135,0,0
588,-111,0,0,0,0,0,0,0,0,0,-1,1812,1135,0,0
595,-111,0,0,0,0,0,0,0,0,0,-1,1819,1135,0,0
602,-111,0,0,0,0,0,0,0,0,0,-1,1826,1135,0,0
609,-111,0,0,0,0,0,0,0,0,0,-1,1833,1135,0,0
616,-111,0,0,0,0,0,0,0,0,0,-1,1840,1135,0,0
623,-111,0,0,0,0,0,0,0,0,0,-1,1847,1135,0,0
630,-111,0,0,0,0,0,0,0,0,0,-1,1854,1135,0,0
637,-111,0,0,0,0,0,0,0,0,0,-1,1861,1135,0,0
644,-111,44.921,2.99243,-0.000925007,-0.00199513,-0.00453504,0.00310643,-0.00602657,-0.726678,0.00536203,0.0402817,1868,1135,44.921,-2.99249
651,-111,45.0444,2.78833,-0.00130985,-0.00161049,-0.00331844,0.00186167,-0.00478201,-0.762765,0.00395733,0.0418883,1875,1135,45.0444,-2.78831
658,-111,45.1855,2.54968,-0.00119224,-0.00136224,-0.00252859,0.00125278,-0.00380725,-0.768596,0.00304297,0.0453148,1882,1135,45.1856,-2.54972
665,-111,45.0917,2.7561,-0.000922632,-0.00108374,-0.00193632,0.000934805,-0.00294118,-0.764609,0.0023356,0.0468879,1889,1135,45.0917,-2.7561
672,-111,45.0875,2.72571,-0.000532603,-0.000856546,-0.00146821,0.000782543,-0.00217169,-0.730461,0.00176737,0.0454593,1896,1135,45.0876,-2.72568
679,-111,45.041,2.57275,-0.000405871,-0.000708324,-0.00112268,0.000575721,-0.00168992,-0.71845,0.00135977,0.0402895,1903,1135,45.0411,-2.57277
686,-111,44.8837,2.69434,-0.000278452,-0.00075252,-0.000833731,0.000351285,-0.00138226,-0.6469,0.00105822,0.0361479,1910,1135,44.8836,-2.69429
693,-111,44.9365,2.73474,-7.37324e-05,-0.000737786,-0.000616211,0.000294211,-0.00110573,-0.538289,0.000852321,0.0346308,1917,1135,44.9366,-2.7347
700,-111,44.9941,2.59656,-3.54227e-05,-0.000765806,-0.0003619,0.000113523,-0.000914752,-0.390436,0.000650983,0.0258581,1924,1135,44.9942,-2.59651
707,-111,44.98,2.56104,0,0,0,0,0,0,0,-1,1931,1135,44.98,-2.56106
714,-111,39.0695,6.81152,0,0,0,0,0,0,0,-1,1938,1135,39.0694,-6.81152
721,-111,41.4613,6.87512,0,0,0,0,0,0,0,-1,1945,1135,41.4613,-6.87515
728,-111,41.542,6.48682,-0.000656087,-0.000239668,0.000812075,0.000390465,-0.00128622,0.910891,0.00101304,0.0228474,1952,1135,41.542,-6.48685
735,-111,41.528,6.18799,-0.000832386,-1.59184e-05,0.00117634,0.000821012,-0.00166932,0.952414,0.00146533,0.022269,1959,1135,41.528,-6.18799
742,-111,41.463,5.90967,-0.00112415,0.00050745,0.00139187,0.00130498,-0.00192168,1.05047,0.00187422,0.0144673,1966,1135,41.463,-5.90967
749,-111,41.4672,5.57996,-0.0023734,0.000790424,0.000443196,0.000851335,-0.00243431,1.43422,0.00196899,0.0158634,1973,1135,41.4672,-5.58002
756,-111,41.464,5.25488,-0.00453875,0.00122621,-0.00194998,0.00182383,-0.00513637,-1.27341,0.00416742,0.0165488,1980,1135,41.464,-5.25492
763,-111,41.4489,4.98694,-0.00770584,0.00178104,-0.00604288,0.00471982,-0.0106446,-1.11815,0.00908785,0.0144032,1987,1135,41.4488,-4.98699
770,-111,41.415,4.70557,-0.0119712,0.00224264,-0.0120825,0.00915339,-0.0188819,-1.05125,0.0165079,0.0116755,1994,1135,41.415,-4.70557
777,-111,41.2776,4.37231,-0.0175336,0.00246039,-0.0202918,0.0150841,-0.0301573,-1.01428,0.026599,0.0242403,2001,1135,41.2776,-4.37227
784,-111,41.1357,3.90454,-0.0249583,0.00242486,-0.0314002,0.0229887,-0.0455221,-0.990989,0.0402616,0.0431031,2008,1135,41.1356,-3.90456
791,-111,44.481,3.80542,0,0,0,0,0,0,0,-1,2015,1135,44.4809,-3.80548
798,-111,43.9854,2.28003,-0.0468171,0.00135769,-0.0654779,0.0470382,-0.0924976,-0.961651,0.0819738,0.0486142,2022,1135,43.9854,-2.27998
805,-111,43.3669,0.470825,-0.0622325,0.000444371,-0.0899028,0.0643142,-0.126102,-0.953103,0.11185,0.0468013,2029,1135,43.3668,-0.470871
812,-111,42.0542,-0.822754,0,0,0,0,0,0,0,-1,2036,1135,42.0541,0.8228
-700,-118,0,0,0,0,0,0,0,0,0,-1,524,1142,0,0
-693,-118,-45.9828,2.17285,0,0,0,0,0,0,0,-1,531,1142,-45.9828,-2.17281
-686,-118,-42.9326,2.74377,0,0,0,0,0,0,0,-1,538,1142,-42.9325,-2.74378
-679,-118,-40.1979,3.16357,0,0,0,0,0,0,0,-1,545,1142,-40.1979,-3.1636
-672,-118,-37.7932,3.7915,0,0,0,0,0,0,0,-1,552,1142,-37.7932,-3.79145
-665,-118,-35.334,4.35608,0,0,0,0,0,0,0,-1,559,1142,-35.334,-4.35612
-658,-118,-32.8886,4.8833,0,0,0,0,0,0,0,-1,566,1142,-32.8886,-4.88331
-651,-118,-29.0443,1.07642,0,0,0,0,0,0,0,-1,573,1142,-29.0443,-1.07639
-644,-118,-29.1593,1.41638,0.0610184,0.00809637,-0.00309674,0.0611989,0.00791578,-0.0582501,0.0384334,0.0310084,580,1142,-29.1593,-1.41633
-637,-118,-29.2952,1.89856,0.0379479,0.00608076,-0.00227548,0.0381095,0.0059191,-0.0709258,0.0236812,0.0168052,587,1142,-29.2952,-1.89853
-630,-118,-29.3255,2.2356,0.0210697,0.0035028,-0.00129482,0.0211646,0.00340788,-0.073181,0.0131221,0.0221319,594,1142,-29.3255,-2.23558
-623,-118,-29.3145,2.58582,0.00860105,0.00172113,-0.00051457,0.00863932,0.00168286,-0.0742425,0.00528861,0.0184396,601,1142,-29.3145,-2.58584
-616,-118,-29.4051,2.91101,0.00289256,0.000506096,4.40775e-05,0.00289337,0.000505283,0.0184614,0.00178449,0.019242,608,1142,-29.4051,-2.91099
-609,-118,-29.6259,3.12866,0.000831042,0.000683068,0.000644573,0.00140586,0.000108249,0.728256,0.000903322,0.032541,615,1142,-29.6259,-3.12861
-602,-118,-29.5123,3.67627,0.00117402,0.000855725,0.000891837,0.0019208,0.000108945,0.697104,0.0012458,0.0318597,622,1142,-29.5123,-3.67623
-595,-118,-29.5474,3.98645,0.0014176,0.000490821,0.000583777,0.00169954,0.000208874,0.44993,0.00107022,0.0257823,629,1142,-29.5474,-3.98645
-588,-118,-29.0688,4.63013,0,0,0,0,0,0,0,-1,636,1142,-29.0688,-4.63012
-581,-118,-24.6116,3.89648,0,0,0,0,0,0,0,-1,643,1142,-24.6116,-3.89645
-574,-118,-33.2908,0.908325,0,0,0,0,0,0,0,-1,650,1142,-33.2908,-0.908269
-567,-118,-33.2435,0.881958,0.00119426,8.29856e-05,0.00108976,0.00186186,-0.000584617,0.549642,0.00147524,0.044857,657,1142,-33.2436,-0.881994
-560,-118,-33.3159,0.889038,0.00107063,1.64965e-05,0.00119167,0.00184659,-0.000759463,0.577185,0.00154763,0.0370897,664,1142,-33.3159,-0.888981
-553,-118,-33.295,0.827637,0.000610415,-0.000155844,0.00113765,0.00142771,-0.000973142,0.622976,0.00139439,0.0383124,671,1142,-33.295,-0.827609
-546,-118,-33.1772,0.769531,7.3645e-05,-0.000719575,0.000908771,0.000668581,-0.00131451,0.579644,0.00116501,0.0390586,678,1142,-33.1772,-0.76954
-539,-118,-33.1791,0.859253,-2.54946e-05,-0.00193042,0.000811753,0.000273493,-0.00222941,0.352904,0.00158532,0.0399383,685,1142,-33.1791,-0.859218
-532,-118,-33.2949,0.886719,0.000658677,-0.00337561,0.00120758,0.000992517,-0.00370945,0.269716,0.00286176,0.0399399,692,1142,-33.2949,-0.886696
-525,-118,-33.27,0.786987,0.00121836,-0.00474329,0.00181441,0.00172715,-0.00525207,0.273393,0.00419727,0.0417537,699,1142,-33.27,-0.786936
-518,-118,0,0,0,0,0,0,0,0,0,-1,706,1142,0,0
-511,-118,0,0,0,0,0,0,0,0,0,-1,713,1142,0,0
-504,-118,0,0,0,0,0,0,0,0,0,-1,720,1142,0,0
-497,-118,0,0,0,0,0,0,0,0,0,-1,727,1142,0,0
-490,-118,0,0,0,0,0,0,0,0,0,-1,734,1142,0,0
-483,-118,0,0,0,0,0,0,0,0,0,-1,741,1142,0,0
-476,-118,0,0,0,0,0,0,0,0,0,-1,748,1142,0,0
-469,-118,0,0,0,0,0,0,0,0,0,-1,755,1142,0,0
-462,-118,0,0,0,0,0,0,0,0,0,-1,762,1142,0,0
-455,-118,0,0,0,0,0,0,0,0,0,-1,769,1142,0,0
-448,-118,0,0,0,0,0,0,0,0,0,-1,776,1142,0,0
-441,-118,0,0,0,0,0,0,0,0,0,-1,783,1142,0,0
-434,-118,0,0,0,0,0,0,0,0,0,-1,790,1142,0,0
-427,-118,0,0,0,0,0,0,0,0,0,-1,797,1142,0,0
-420,-118,0,0,0,0,0,0,0,0,0,-1,804,1142,0,0
-413,-118,0,0,0,0,0,0,0,0,0,-1,811,1142,0,0
-406,-118,0,0,0,0,0,0,0,0,0,-1,818,1142,0,0
-399,-118,0,0,0,0,0,0,0,0,0,-1,825,1142,0,0
-392,-118,0,0,0,0,0,0,0,0,0,-1,832,1142,0,0
-385,-118,0,0,0,0,0,0,0,0,0,-1,839,1142,0,0
-378,-118,0,0,0,0,0,0,0,0,0,-1,846,1142,0,0
-371,-118,0,0,0,0,0,0,0,0,0,-1,853,1142,0,0
-364,-118,0,0,0,0,0,0,0,0,0,-1,860,1142,0,0
-357,-118,0,0,0,0,0,0,0,0,0,-1,867,1142,0,0
-350,-118,0,0,0,0,0,0,0,0,0,-1,874,1142,0,0
-343,-118,0,0,0,0,0,0,0,0,0,-1,881,1142,0,0
-336,-118,0,0,0,0,0,0,0,0,0,-1,888,1142,0,0
-329,-118,0,0,0,0,0,0,0,0,0,-1,895,1142,0,0
-322,-118,0,0,0,0,0,0,0,0,0,-1,902,1142,0,0
-315,-118,0,0,0,0,0,0,0,0,0,-1,909,1142,0,0
-308,-118,0,0,0,0,0,0,0,0,0,-1,916,1142,0,0
-301,-118,0,0,0,0,0,0,0,0,0,-1,923,1142,0,0
-294,-118,0,0,0,0,0,0,0,0,0,-1,930,1142,0,0
-287,-118,0,0,0,0,0,0,0,0,0,-1,937,1142,0,0
-280,-118,0,0,0,0,0,0,0,0,0,-1,944,1142,0,0
-273,-118,0,0,0,0,0,0,0,0,0,-1,951,1142,0,0
-266,-118,0,0,0,0,0,0,0,0,0,-1,958,1142,0,0
-259,-118,0,0,0,0,0,0,0,0,0,-1,965,1142,0,0
-252,-118,0,0,0,0,0,0,0,0,0,-1,972,1142,0,0
-245,-118,0,0,0,0,0,0,0,0,0,-1,979,1142,0,0
-238,-118,0,0,0,0,0,0,0,0,0,-1,986,1142,0,0
-231,-118,0,0,0,0,0,0,0,0,0,-1,993,1142,0,0
-224,-118,0,0,0,0,0,0,0,0,0,-1,1000,1142,0,0
-217,-118,0,0,0,0,0,0,0,0,0,-1,1007,1142,0,0
-210,-118,0,0,0,0,0,0,0,0,0,-1,1014,1142,0,0
-203,-118,0,0,0,0,0,0,0,0,0,-1,1021,1142,0,0
-196,-118,0,0,0,0,0,0,0,0,0,-1,1028,1142,0,0
-189,-118,0,0,0,0,0,0,0,0,0,-1,1035,1142,0,0
-182,-118,0,0,0,0,0,0,0,0,0,-1,1042,1142,0,0
-175,-118,0,0,0,0,0,0,0,0,0,-1,1049,1142,0,0
-168,-118,0,0,0,0,0,0,0,0,0,-1,1056,1142,0,0
-161,-118,0,0,0,0,0,0,0,0,0,-1,1063,1142,0,0
-154,-118,0,0,0,0,0,0,0,0,0,-1,1070,1142,0,0
-147,-118,0,0,0,0,0,0,0,0,0,-1,1077,1142,0,0
-140,-118,0,0,0,0,0,0,0,0,0,-1,1084,1142,0,0
-133,-118,0,0,0,0,0,0,0,0,0,-1,1091,1142,0,0
-126,-118,0,0,0,0,0,0,0,0,0,-1,1098,1142,0,0
-119,-118,0,0,0,0,0,0,0,0,0,-1,1105,1142,0,0
-112,-118,0,0,0,0,0,0,0,0,0,-1,1112,1142,0,0
-105,-118,0,0,0,0,0,0,0,0,0,-1,1119,1142,0,0
-98,-118,0,0,0,0,0,0,0,0,0,-1,1126,1142,0,0
-91,-118,0,0,0,0,0,0,0,0,0,-1,1133,1142,0,0
-84,-118,0,0,0,0,0,0,0,0,0,-1,1140,1142,0,0
-77,-118,0,0,0,0,0,0,0,0,0,-1,1147,1142,0,0
-70,-118,0,0,0,0,0,0,0,0,0,-1,1154,1142,0,0
-63,-118,0,0,0,0,0,0,0,0,0,-1,1161,1142,0,0
-56,-118,0,0,0,0,0,0,0,0,0,-1,1168,1142,0,0
-49,-118,0,0,0,0,0,0,0,0,0,-1,1175,1142,0,0
-42,-118,0,0,0,0,0,0,0,0,0,-1,1182,1142,0,0
-35,-118,0,0,0,0,0,0,0,0,0,-1,1189,1142,0,0
-28,-118,0,0,0,0,0,0,0,0,0,-1,1196,1142,0,0
-21,-118,0,0,0,0,0,0,0,0,0,-1,1203,1142,0,0
-14,-118,0,0,0,0,0,0,0,0,0,-1,1210,1142,0,0
-7,-118,0,0,0,0,0,0,0,0,0,-1,1217,1142,0,0
0,-118,0,0,0,0,0,0,0,0,0,-1,1224,1142,0,0
7,-118,0,0,0,0,0,0,0,0,0,-1,1231,1142,0,0
14,-118,0,0,0,0,0,0,0,0,0,-1,1238,1142,0,0
21,-118,0,0,0,0,0,0,0,0,0,-1,1245,1142,0,0
28,-118,0,0,0,0,0,0,0,0,0,-1,1252,1142,0,0
35,-118,0,0,0,0,0,0,0,0,0,-1,1259,1142,0,0
42,-118,0,0,0,0,0,0,0,0,0,-1,1266,1142,0,0
49,-118,0,0,0,0,0,0,0,0,0,-1,1273,1142,0,0
56,-118,0,0,0,0,0,0,0,0,0,-1,1280,1142,0,0
63,-118,0,0,0,0,0,0,0,0,0,-1,1287,1142,0,0
70,-118,0,0,0,0,0,0,0,0,0,-1,1294,1142,0,0
77,-118,0,0,0,0,0,0,0,0,0,-1,1301,1142,0,0
84,-118,0,0,0,0,0,0,0,0,0,-1,1308,1142,0,0
91,-118,0,0,0,0,0,0,0,0,0,-1,1315,1142,0,0
98,-118,0,0,0,0,0,0,0,0,0,-1,1322,1142,0,0
105,-118,0,0,0,0,0,0,0,0,0,-1,1329,1142,0,0
112,-118,0,0,0,0,0,0,0,0,0,-1,1336,1142,0,0
119,-118,0,0,0,0,0,0,0,0,0,-1,1343,1142,0,0
126,-118,0,0,0,0,0,0,0,0,0,-1,1350,1142,0,0
133,-118,0,0,0,0,0,0,0,0,0,-1,1357,1142,0,0
140,-118,0,0,0,0,0,0,0,0,0,-1,1364,1142,0,0
147,-118,0,0,0,0,0,0,0,0,0,-1,1371,1142,0,0
154,-118,0,0,0,0,0,0,0,0,0,-1,1378,1142,0,0
161,-118,0,0,0,0,0,0,0,0,0,-1,1385,1142,0,0
168,-118,0,0,0,0,0,0,0,0,0,-1,1392,1142,0,0
175,-118,0,0,0,0,0,0,0,0,0,-1,1399,1142,0,0
182,-118,0,0,0,0,0,0,0,0,0,-1,1406,1142,0,0
189,-118,0,0,0,0,0,0,0,0,0,-1,1413,1142,0,0
196,-118,0,0,0,0,0,0,0,0,0,-1,1420,1142,0,0
203,-118,0,0,0,0,0,0,0,0,0,-1,1427,1142,0,0
210,-118,0,0,0,0,0,0,0,0,0,-1,1434,1142,0,0
217,-118,0,0,0,0,0,0,0,0,0,-1,1441,1142,0,0
224,-118,0,0,0,0,0,0,0,0,0,-1,1448,1142,0,0
231,-118,0,0,0,0,0,0,0,0,0,-1,1455,1142,0,0
238,-118,0,0,0,0,0,0,0,0,0,-1,1462,1142,0,0
245,-118,0,0,0,0,0,0,0,0,0,-1,1469,1142,0,0
252,-118,0,0,0,0,0,0,0,0,0,-1,1476,1142,0,0
259,-118,0,0,0,0,0,0,0,0,0,-1,1483,1142,0,0
266,-118,0,0,0,0,0,0,0,0,0,-1,1490,1142,0,0
273,-118,0,0,0,0,0,0,0,0,0,-1,1497,1142,0,0
280,-118,0,0,0,0,0,0,0,0,0,-1,1504,1142,0,0
287,-118,0,0,0,0,0,0,0,0,0,-1,1511,1142,0,0
294,-118,0,0,0,0,0,0,0,0,0,-1,1518,1142,0,0
301,-118,0,0,0,0,0,0,0,0,0,-1,1525,1142,0,0
308,-118,0,0,0,0,0,0,0,0,0,-1,1532,1142,0,0
315,-118,0,0,0,0,0,0,0,0,0,-1,1539,1142,0,0
322,-118,0,0,0,0,0,0,0,0,0,-1,1546,1142,0,0
329,-118,0,0,0,0,0,0,0,0,0,-1,1553,1142,0,0
336,-118,0,0,0,0,0,0,0,0,0,-1,1560,1142,0,0
343,-118,0,0,0,0,0,0,0,0,0,-1,1567,1142,0,0
350,-118,0,0,0,0,0,0,0,0,0,-1,1574,1142,0,0
357,-118,0,0,0,0,0,0,0,0,0,-1,1581,1142,0,0
364,-118,0,0,0,0,0,0,0,0,0,-1,1588,1142,0,0
371,-118,0,0,0,0,0,0,0,0,0,-1,1595,1142,0,0
378,-118,0,0,0,0,0,0,0,0,0,-1,1602,1142,0,0
385,-118,0,0,0,0,0,0,0,0,0,-1,1609,1142,0,0
392,-118,0,0,0,0,0,0,0,0,0,-1,1616,1142,0,0
399,-118,0,0,0,0,0,0,0,0,0,-1,1623,1142,0,0
406,-118,0,0,0,0,0,0,0,0,0,-1,1630,1142,0,0
413,-118,0,0,0,0,0,0,0,0,0,-1,1637,1142,0,0
420,-118,0,0,0,0,0,0,0,0,0,-1,1644,1142,0,0
427,-118,0,0,0,0,0,0,0,0,0,-1,1651,1142,0,0
434,-118,0,0,0,0,0,0,0,0,0,-1,1658,1142,0,0
441,-118,0,0,0,0,0,0,0,0,0,-1,1665,1142,0,0
448,-118,0,0,0,0,0,0,0,0,0,-1,1672,1142,0,0
455,-118,0,0,0,0,0,0,0,0,0,-1,1679,1142,0,0
462,-118,0,0,0,0,0,0,0,0,0,-1,1686,1142,0,0
469,-118,0,0,0,0,0,0,0,0,0,-1,1693,1142,0,0
476,-118,0,0,0,0,0,0,0,0,0,-1,1700,1142,0,0
483,-118,0,0,0,0,0,0,0,0,0,-1,1707,1142,0,0
490,-118,0,0,0,0,0,0,0,0,0,-1,1714,1142,0,0
497,-118,0,0,0,0,0,0,0,0,0,-1,1721,1142,0,0
504,-118,0,0,0,0,0,0,0,0,0,-1,1728,1142,0,0
511,-118,0,0,0,0,0,0,0,0,0,-1,1735,1142,0,0
518,-118,0,0,0,0,0,0,0,0,0,-1,1742,1142,0,0
525,-118,0,0,0,0,0,0,0,0,0,-1,1749,1142,0,0
532,-118,0,0,0,0,0,0,0,0,0,-1,1756,1142,0,0
539,-118,0,0,0,0,0,0,0,0,0,-1,1763,1142,0,0
546,-118,0,0,0,0,0,0,0,0,0,-1,1770,1142,0,0
553,-118,0,0,0,0,0,0,0,0,0,-1,1777,1142,0,0
560,-118,0,0,0,0,0,0,0,0,0,-1,1784,1142,0,0
567,-118,0,0,0,0,0,0,0,0,0,-1,1791,1142,0,0
574,-118,0,0,0,0,0,0,0,0,0,-1,1798,1142,0,0
581,-118,0,0,0,0,0,0,0,0,0,-1,1805,1142,0,0
588,-118,0,0,0,0,0,0,0,0,0,-1,1812,1142,0,0
595,-118,0,0,0,0,0,0,0,0,0,-1,1819,1142,0,0
602,-118,0,0,0,0,0,0,0,0,0,-1,1826,1142,0,0
609,-118,0,0,0,0,0,0,0,0,0,-1,1833,1142,0,0
616,-118,0,0,0,0,0,0,0,0,0,-1,1840,1142,0,0
623,-118,0,0,0,0,0,0,0,0,0,-1,1847,1142,0,0
630,-118,0,0,0,0,0,0,0,0,0,-1,1854,1142,0,0
637,-118,0,0,0,0,0,0,0,0,0,-1,1861,1142,0,0
644,-118,45.0339,2.80774,-0.0022777,-0.00165202,-0.00480614,0.00285145,-0.00678117,-0.817898,0.00571358,0.0423829,1868,1142,45.0339,-2.80768
651,-118,44.9464,2.73462,-0.00228729,-0.00137545,-0.00354242,0.00174027,-0.00540301,-0.849398,0.0043011,0.0425187,1875,1142,44.9464,-2.7346
658,-118,44.8209,2.39539,-0.00187463,-0.00118625,-0.00269631,0.00118775,-0.00424862,-0.848881,0.00330036,0.0432511,1882,1142,44.8209,-2.39541
665,-118,45.2994,2.80725,0,0,0,0,0,0,0,-1,1889,1142,45.2994,-2.8073
672,-118,45.068,2.74487,-0.000760953,-0.000723182,-0.00155288,0.000810925,-0.00229506,-0.791479,0.00186023,0.0454049,1896,1142,45.068,-2.74491
679,-118,44.972,2.68872,-0.000508121,-0.000534771,-0.0011895,0.000668125,-0.00171102,-0.779797,0.00141691,0.0400972,1903,1142,44.972,-2.6887
686,-118,44.937,2.75061,-0.000313347,-0.000572797,-0.000890221,0.000456552,-0.0013427,-0.713046,0.00107998,0.0333807,1910,1142,44.937,-2.75063
693,-118,44.9039,2.72656,-8.40847e-05,-0.000535819,-0.000659639,0.000387285,-0.00100719,-0.620449,0.000831194,0.0314541,1917,1142,44.9039,-2.7266
700,-118,44.9565,2.63489,-2.32149e-05,-0.000581485,-0.000408747,0.000192615,-0.000797315,-0.485818,0.000606038,0.0186219,1924,1142,44.9565,-2.63494
707,-118,45.052,2.70496,0,0,0,0,0,0,0,-1,1931,1142,45.052,-2.70492
714,-118,41.3593,7.29492,0,0,0,0,0,0,0,-1,1938,1142,41.3593,-7.2949
721,-118,41.1515,6.91675,-0.000376376,-0.000217325,0.000389177,0.000100369,-0.00069407,0.886182,0.000499542,0.0250754,1945,1142,41.1515,-6.9167
728,-118,41.1992,6.58313,-0.000602927,-0.000200682,0.000835838,0.00045789,-0.0012615,0.903466,0.0010282,0.0205074,1952,1142,41.1992,-6.5831
735,-118,41.1454,6.27295,-0.000712824,-3.14522e-05,0.00122828,0.000902516,-0.00164679,0.920681,0.00149261,0.0197666,1959,1142,41.1454,-6.27289
742,-118,41.1776,5.94482,-0.000950195,0.000445557,0.00156639,0.0014625,-0.00196714,0.994964,0.00198724,0.0257282,1966,1142,41.1776,-5.94488
749,-118,41.1284,5.56641,-0.00201058,0.000774204,0.00107223,0.00113921,-0.00237558,1.24269,0.00207069,0.0217168,1973,1142,41.1285,-5.56643
756,-118,41.1427,5.25439,-0.0039087,0.00133435,-0.00081614,0.00145845,-0.0040328,-1.41989,0.00328446,0.0187157,1980,1142,41.1427,-5.25437
763,-118,41.1405,4.98242,-0.00666065,0.0020115,-0.00422974,0.00373284,-0.00838199,-1.1843,0.00716412,0.0109239,1987,1142,41.1405,-4.98237
770,-118,41.0785,4.69434,-0.0103762,0.0026821,-0.00932627,0.00753754,-0.0152317,-1.09079,0.0133937,0.0137371,1994,1142,41.0785,-4.69438
777,-118,40.9562,4.36914,-0.0152615,0.0032129,-0.0163922,0.0127914,-0.0248401,-1.04198,0.0220946,0.0288381,2001,1142,40.9561,-4.36911
784,-118,40.8728,3.86011,-0.0218415,0.00363384,-0.0261449,0.0199789,-0.0381866,-1.01207,0.0341259,0.046807,2008,1142,40.8729,-3.86007
791,-118,40.7979,3.36487,0,0,0,0,0,0,0,-1,2015,1142,40.7979,-3.36482
798,-118,43.7917,2.72144,0,0,0,0,0,0,0,-1,2022,1142,43.7917,-2.72147
805,-118,43.7727,0.305908,0,0,0,0,0,0,0,-1,2029,1142,43.7726,-0.305951
812,-118,40.7043,1.45728,0,0,0,0,0,0,0,-1,2036,1142,40.7044,-1.45733
-700,-125,0,0,0,0,0,0,0,0,0,-1,524,1149,0,0
-693,-125,-46.5584,2.36023,0,0,0,0,0,0,0,-1,531,1149,-46.5584,-2.36028
-686,-125,-32.17,2.54443,0,0,0,0,0,0,0,-1,538,1149,-32.17,-2.54446
-679,-125,-40.8537,3.63794,0,0,0,0,0,0,0,-1,545,1149,-40.8537,-3.63791
-672,-125,-38.4451,4.49426,0,0,0,0,0,0,0,-1,552,1149,-38.445,-4.49421
-665,-125,-35.8948,5.13892,0,0,0,0,0,0,0,-1,559,1149,-35.8949,-5.13892
-658,-125,-28.5529,0.115967,0,0,0,0,0,0,0,-1,566,1149,-28.5528,-0.115991
-651,-125,-28.6451,0.815186,0.0853584,0.0159578,-0.00816242,0.0863055,0.0150107,-0.115513,0.0532435,0.0427355,573,1149,-28.6451,-0.81517
-644,-125,-28.8335,1.48169,0.0591971,0.0118319,-0.00582542,0.059903,0.0111259,-0.120595,0.0367918,0.0283802,580,1149,-28.8335,-1.48165
-637,-125,-28.9102,1.88538,0.0371421,0.00867397,-0.00400575,0.037695,0.00812106,-0.137162,0.0229079,0.0138585,587,1149,-28.9102,-1.88532
-630,-125,-28.904,2.23462,0.0207235,0.00505881,-0.00222908,0.0210345,0.00474779,-0.138634,0.0127388,0.0151231,594,1149,-28.904,-2.23463
-623,-125,-28.8979,2.60559,0.00843813,0.00243882,-0.000887265,0.0085666,0.00231035,-0.143795,0.00511783,0.0142653,601,1149,-28.8979,-2.60563
-616,-125,-28.9391,2.94629,0.00277173,0.000747953,-2.1936e-05,0.00277197,0.000747715,-0.0108375,0.001656,0.0192996,608,1149,-28.9391,-2.94623
-609,-125,-29.113,3.21375,0.000957686,0.000705632,0.000662792,0.00150633,0.000156992,0.691447,0.000956193,0.0363276,615,1149,-29.113,-3.21379
-602,-125,-29.1106,3.71521,0.00117226,0.000823169,0.000873448,0.00188843,0.000106998,0.686779,0.00122485,0.0307233,622,1149,-29.1106,-3.71525
-595,-125,-29.1647,4.09448,0.00128808,0.000519726,0.000558186,0.00158152,0.000226287,0.483997,0.000987598,0.0298992,629,1149,-29.1647,-4.09452
-588,-125,-28.5201,4.5575,0,0,0,0,0,0,0,-1,636,1149,-28.5201,-4.55745
-581,-125,-26.4055,4.83203,0,0,0,0,0,0,0,-1,643,1149,-26.4055,-4.83204
-574,-125,-33.1903,0.714111,0,0,0,0,0,0,0,-1,650,1149,-33.1903,-0.714078
-567,-125,-33.2459,0.777832,0.000807471,0.000191249,0.000985693,0.00153209,-0.000533366,0.633918,0.00123809,0.0468385,657,1149,-33.2459,-0.777873
-560,-125,-33.2892,0.800415,0.000616643,0.000191403,0.00110495,0.00152924,-0.000721195,0.690347,0.00132691,0.0365538,664,1149,-33.2893,-0.800436
-553,-125,-33.368,0.870239,9.18288e-05,0.000126214,0.00110335,0.0012125,-0.000994459,0.793189,0.00127626,0.037627,671,1149,-33.368,-0.870238
-546,-125,-33.4398,1.02527,-0.000482712,-0.000314588,0.000983105,0.000588042,-0.00138534,0.828048,0.00116992,0.0387995,678,1149,-33.4398,-1.02531
-539,-125,-33.2469,1.08301,-0.000745255,-0.00129664,0.00109443,0.000107672,-0.00214957,0.662012,0.00147025,0.0404986,685,1149,-33.2469,-1.08304
-532,-125,-33.2806,1.02991,-0.000142081,-0.00261466,0.00179067,0.000797613,-0.00355436,0.483269,0.00267537,0.0387728,692,1149,-33.2806,-1.02987
-525,-125,-33.3076,0.95166,0.000492396,-0.00398707,0.00273876,0.00179063,-0.0052853,0.44265,0.00424813,0.0421929,699,1149,-33.3075,-0.951667
-518,-125,0,0,0,0,0,0,0,0,0,-1,706,1149,0,0
-511,-125,0,0,0,0,0,0,0,0,0,-1,713,1149,0,0
-504,-125,0,0,0,0,0,0,0,0,0,-1,720,1149,0,0
-497,-125,0,0,0,0,0,0,0,0,0,-1,727,1149,0,0
-490,-125,0,0,0,0,0,0,0,0,0,-1,734,1149,0,0
-483,-125,0,0,0,0,0,0,0,0,0,-1,741,1149,0,0
-476,-125,0,0,0,0,0,0,0,0,0,-1,748,1149,0,0
-469,-125,0,0,0,0,0,0,0,0,0,-1,755,1149,0,0
-462,-125,0,0,0,0,0,0,0,0,0,-1,762,1149,0,0
-455,-125,0,0,0,0,0,0,0,0,0,-1,769,1149,0,0
-448,-125,0,0,0,0,0,0,0,0,0,-1,776,1149,0,0
-441,-125,0,0,0,0,0,0,0,0,0,-1,783,1149,0,0
-434,-125,0,0,0,0,0,0,0,0,0,-1,790,1149,0,0
-427,-125,0,0,0,0,0,0,0,0,0,-1,797,1149,0,0
-420,-125,0,0,0,0,0,0,0,0,0,-1,804,1149,0,0
-413,-125,0,0,0,0,0,0,0,0,0,-1,811,1149,0,0
-406,-125,0,0,0,0,0,0,0,0,0,-1,818,1149,0,0
-399,-125,0,0,0,0,0,0,0,0,0,-1,825,1149,0,0
-392,-125,0,0,0,0,0,0,0,0,0,-1,832,1149,0,0
-385,-125,0,0,0,0,0,0,0,0,0,-1,839,1149,0,0
-378,-125,0,0,0,0,0,0,0,0,0,-1,846,1149,0,0
-371,-125,0,0,0,0,0,0,0,0,0,-1,853,1149,0,0
-364,-125,0,0,0,0,0,0,0,0,0,-1,860,1149,0,0
-357,-125,0,0,0,0,0,0,0,0,0,-1,867,1149,0,0
-350,-125,0,0,0,0,0,0,0,0,0,-1,874,1149,0,0
-343,-125,0,0,0,0,0,0,0,0,0,-1,881,1149,0,0
-336,-125,0,0,0,0,0,0,0,0,0,-1,888,1149,0,0
-329,-125,0,0,0,0,0,0,0,0,0,-1,895,1149,0,0
-322,-125,0,0,0,0,0,0,0,0,0,-1,902,1149,0,0
-315,-125,0,0,0,0,0,0,0,0,0,-1,909,1149,0,0
-308,-125,0,0,0,0,0,0,0,0,0,-1,916,1149,0,0
-301,-125,0,0,0,0,0,0,0,0,0,-1,923,1149,0,0
-294,-125,0,0,0,0,0,0,0,0,0,-1,930,1149,0,0
-287,-125,0,0,0,0,0,0,0,0,0,-1,937,1149,0,0
-280,-125,0,0,0,0,0,0,0,0,0,-1,944,1149,0,0
-273,-125,0,0,0,0,0,0,0,0,0,-1,951,1149,0,0
-266,-125,0,0,0,0,0,0,0,0,0,-1,958,1149,0,0
-259,-125,0,0,0,0,0,0,0,0,0,-1,965,1149,0,0
-252,-125,0,0,0,0,0,0,0,0,0,-1,972,1149,0,0
-245,-125,0,0,0,0,0,0,0,0,0,-1,979,1149,0,0
-238,-125,0,0,0,0,0,0,0,0,0,-1,986,1149,0,0
-231,-125,0,0,0,0,0,0,0,0,0,-1,993,1149,0,0
-224,-125,0,0,0,0,0,0,0,0,0,-1,1000,1149,0,0
-217,-125,0,0,0,0,0,0,0,0,0,-1,1007,1149,0,0
-210,-125,0,0,0,0,0,0,0,0,0,-1,1014,1149,0,0
-203,-125,0,0,0,0,0,0,0,0,0,-1,1021,1149,0,0
-196,-125,0,0,0,0,0,0,0,0,0,-1,1028,1149,0,0
-189,-125,0,0,0,0,0,0,0,0,0,-1,1035,1149,0,0
-182,-125,0,0,0,0,0,0,0,0,0,-1,1042,1149,0,0
-175,-125,0,0,0,0,0,0,0,0,0,-1,1049,1149,0,0
-168,-125,0,0,0,0,0,0,0,0,0,-1,1056,1149,0,0
-161,-125,0,0,0,0,0,0,0,0,0,-1,1063,1149,0,0
-154,-125,0,0,0,0,0,0,0,0,0,-1,1070,1149,0,0
-147,-125,0,0,0,0,0,0,0,0,0,-1,1077,1149,0,0
-140,-125,0,0,0,0,0,0,0,0,0,-1,1084,1149,0,0
-133,-125,0,0,0,0,0,0,0,0,0,-1,1091,1149,0,0
-126,-125,0,0,0,0,0,0,0,0,0,-1,1098,1149,0,0
-119,-125,0,0,0,0,0,0,0,0,0,-1,1105,1149,0,0
-112,-125,0,0,0,0,0,0,0,0,0,-1,1112,1149,0,0
-105,-125,0,0,0,0,0,0,0,0,0,-1,1119,1149,0,0
-98,-125,0,0,0,0,0,0,0,0,0,-1,1126,1149,0,0
-91,-125,0,0,0,0,0,0,0,0,0,-1,1133,1149,0,0
-84,-125,0,0,0,0,0,0,0,0,0,-1,1140,1149,0,0
-77,-125,0,0,0,0,0,0,0,0,0,-1,1147,1149,0,0
-70,-125,0,0,0,0,0,0,0,0,0,-1,1154,1149,0,0
-63,-125,0,0,0,0,0,0,0,0,0,-1,1161,1149,0,0
-56,-125,0,0,0,0,0,0,0,0,0,-1,1168,1149,0,0
-49,-125,0,0,0,0,0,0,0,0,0,-1,1175,1149,0,0
-42,-125,0,0,0,0,0,0,0,0,0,-1,1182,1149,0,0
-35,-125,0,0,0,0,0,0,0,0,0,-1,1189,1149,0,0
-28,-125,0,0,0,0,0,0,0,0,0,-1,1196,1149,0,0
-21,-125,0,0,0,0,0,0,0,0,0,-1,1203,1149,0,0
-14,-125,0,0,0,0,0,0,0,0,0,-1,1210,1149,0,0
-7,-125,0,0,0,0,0,0,0,0,0,-1,1217,1149,0,0
0,-125,0,0,0,0,0,0,0,0,0,-1,1224,1149,0,0
7,-125,0,0,0,0,0,0,0,0,0,-1,1231,1149,0,0
14,-125,0,0,0,0,0,0,0,0,0,-1,1238,1149,0,0
21,-125,0,0,0,0,0,0,0,0,0,-1,1245,1149,0,0
28,-125,0,0,0,0,0,0,0,0,0,-1,1252,1149,0,0
35,-125,0,0,0,0,0,0,0,0,0,-1,1259,1149,0,0
42,-125,0,0,0,0,0,0,0,0,0,-1,1266,1149,0,0
49,-125,0,0,0,0,0,0,0,0,0,-1,1273,1149,0,0
56,-125,0,0,0,0,0,0,0,0,0,-1,1280,1149,0,0
63,-125,0,0,0,0,0,0,0,0,0,-1,1287,1149,0,0
70,-125,0,0,0,0,0,0,0,0,0,-1,1294,1149,0,0
77,-125,0,0,0,0,0,0,0,0,0,-1,1301,1149,0,0
84,-125,0,0,0,0,0,0,0,0,0,-1,1308,1149,0,0
91,-125,0,0,0,0,0,0,0,0,0,-1,1315,1149,0,0
98,-125,0,0,0,0,0,0,0,0,0,-1,1322,1149,0,0
105,-125,0,0,0,0,0,0,0,0,0,-1,1329,1149,0,0
112,-125,0,0,0,0,0,0,0,0,0,-1,1336,1149,0,0
119,-125,0,0,0,0,0,0,0,0,0,-1,1343,1149,0,0
126,-125,0,0,0,0,0,0,0,0,0,-1,1350,1149,0,0
133,-125,0,0,0,0,0,0,0,0,0,-1,1357,1149,0,0
140,-125,0,0,0,0,0,0,0,0,0,-1,1364,1149,0,0
147,-125,0,0,0,0,0,0,0,0,0,-1,1371,1149,0,0
154,-125,0,0,0,0,0,0,0,0,0,-1,1378,1149,0,0
161,-125,0,0,0,0,0,0,0,0,0,-1,1385,1149,0,0
168,-125,0,0,0,0,0,0,0,0,0,-1,1392,1149,0,0
175,-125,0,0,0,0,0,0,0,0,0,-1,1399,1149,0,0
182,-125,0,0,0,0,0,0,0,0,0,-1,1406,1149,0,0
189,-125,0,0,0,0,0,0,0,0,0,-1,1413,1149,0,0
196,-125,0,0,0,0,0,0,0,0,0,-1,1420,1149,0,0
203,-125,0,0,0,0,0,0,0,0,0,-1,1427,1149,0,0
210,-125,0,0,0,0,0,0,0,0,0,-1,1434,1149,0,0
217,-125,0,0,0,0,0,0,0,0,0,-1,1441,1149,0,0
224,-125,0,0,0,0,0,0,0,0,0,-1,1448,1149,0,0
231,-125,0,0,0,0,0,0,0,0,0,-1,1455,1149,0,0
238,-125,0,0,0,0,0,0,0,0,0,-1,1462,1149,0,0
245,-125,0,0,0,0,0,0,0,0,0,-1,1469,1149,0,0
252,-125,0,0,0,0,0,0,0,0,0,-1,1476,1149,0,0
259,-125,0,0,0,0,0,0,0,0,0,-1,1483,1149,0,0
266,-125,0,0,0,0,0,0,0,0,0,-1,1490,1149,0,0
273,-125,0,0,0,0,0,0,0,0,0,-1,1497,1149,0,0
280,-125,0,0,0,0,0,0,0,0,0,-1,1504,1149,0,0
287,-125,0,0,0,0,0,0,0,0,0,-1,1511,1149,0,0
294,-125,0,0,0,0,0,0,0,0,0,-1,1518,1149,0,0
301,-125,0,0,0,0,0,0,0,0,0,-1,1525,1149,0,0
308,-125,0,0,0,0,0,0,0,0,0,-1,1532,1149,0,0
315,-125,0,0,0,0,0,0,0,0,0,-1,1539,1149,0,0
322,-125,0,0,0,0,0,0,0,0,0,-1,1546,1149,0,0
329,-125,0,0,0,0,0,0,0,0,0,-1,1553,1149,0,0
336,-125,0,0,0,0,0,0,0,0,0,-1,1560,1149,0,0
343,-125,0,0,0,0,0,0,0,0,0,-1,1567,1149,0,0
350,-125,0,0,0,0,0,0,0,0,0,-1,1574,1149,0,0
357,-125,0,0,0,0,0,0,0,0,0,-1,1581,1149,0,0
364,-125,0,0,0,0,0,0,0,0,0,-1,1588,1149,0,0
371,-125,0,0,0,0,0,0,0,0,0,-1,1595,1149,0,0
378,-125,0,0,0,0,0,0,0,0,0,-1,1602,1149,0,0
385,-125,0,0,0,0,0,0,0,0,0,-1,1609,1149,0,0
392,-125,0,0,0,0,0,0,0,0,0,-1,1616,1149,0,0
399,-125,0,0,0,0,0,0,0,0,0,-1,1623,1149,0,0
406,-125,0,0,0,0,0,0,0,0,0,-1,1630,1149,0,0
413,-125,0,0,0,0,0,0,0,0,0,-1,1637,1149,0,0
420,-125,0,0,0,0,0,0,0,0,0,-1,1644,1149,0,0
427,-125,0,0,0,0,0,0,0,0,0,-1,1651,1149,0,0
434,-125,0,0,0,0,0,0,0,0,0,-1,1658,1149,0,0
441,-125,0,0,0,0,0,0,0,0,0,-1,1665,1149,0,0
448,-125,0,0,0,0,0,0,0,0,0,-1,1672,1149,0,0
455,-125,0,0,0,0,0,0,0,0,0,-1,1679,1149,0,0
462,-125,0,0,0,0,0,0,0,0,0,-1,1686,1149,0,0
469,-125,0,0,0,0,0,0,0,0,0,-1,1693,1149,0,0
476,-125,0,0,0,0,0,0,0,0,0,-1,1700,1149,0,0
483,-125,0,0,0,0,0,0,0,0,0,-1,1707,1149,0,0
490,-125,0,0,0,0,0,0,0,0,0,-1,1714,1149,0,0
497,-125,0,0,0,0,0,0,0,0,0,-1,1721,1149,0,0
504,-125,0,0,0,0,0,0,0,0,0,-1,1728,1149,0,0
511,-125,0,0,0,0,0,0,0,0,0,-1,1735,1149,0,0
518,-125,0,0,0,0,0,0,0,0,0,-1,1742,1149,0,0
525,-125,0,0,0,0,0,0,0,0,0,-1,1749,1149,0,0
532,-125,0,0,0,0,0,0,0,0,0,-1,1756,1149,0,0
539,-125,0,0,0,0,0,0,0,0,0,-1,1763,1149,0,0
546,-125,0,0,0,0,0,0,0,0,0,-1,1770,1149,0,0
553,-125,0,0,0,0,0,0,0,0,0,-1,1777,1149,0,0
560,-125,0,0,0,0,0,0,0,0,0,-1,1784,1149,0,0
567,-125,0,0,0,0,0,0,0,0,0,-1,1791,1149,0,0
574,-125,0,0,0,0,0,0,0,0,0,-1,1798,1149,0,0
581,-125,0,0,0,0,0,0,0,0,0,-1,1805,1149,0,0
588,-125,0,0,0,0,0,0,0,0,0,-1,1812,1149,0,0
595,-125,0,0,0,0,0,0,0,0,0,-1,1819,1149,0,0
602,-125,0,0,0,0,0,0,0,0,0,-1,1826,1149,0,0
609,-125,0,0,0,0,0,0,0,0,0,-1,1833,1149,0,0
616,-125,0,0,0,0,0,0,0,0,0,-1,1840,1149,0,0
623,-125,0,0,0,0,0,0,0,0,0,-1,1847,1149,0,0
630,-125,0,0,0,0,0,0,0,0,0,-1,1854,1149,0,0
637,-125,0,0,0,0,0,0,0,0,0,-1,1861,1149,0,0
644,-125,45.3232,2.79724,0,0,0,0,0,0,0,-1,1868,1149,45.3233,-2.79723
651,-125,44.989,2.64539,-0.00306642,-0.00130598,-0.00328535,0.00121502,-0.00558742,-0.916285,0.00418911,0.0413916,1875,1149,44.989,-2.64538
658,-125,44.726,2.54175,-0.00239882,-0.00106764,-0.00251231,0.000865756,-0.00433221,-0.914888,0.00321581,0.0410997,1882,1149,44.726,-2.5418
665,-125,44.8887,2.48718,-0.00162671,-0.000784805,-0.00192539,0.000765112,-0.00317663,-0.893021,0.00241356,0.0427023,1889,1149,44.8886,-2.48718
672,-125,44.8757,2.53369,-0.000855371,-0.000503481,-0.00146248,0.000793602,-0.00215245,-0.845263,0.00176018,0.0426549,1896,1149,44.8757,-2.53373
679,-125,44.8676,2.66504,-0.000505709,-0.000235961,-0.00111301,0.000750316,-0.00149199,-0.845694,0.00131799,0.0382361,1903,1149,44.8676,-2.66508
686,-125,44.9266,2.66553,-0.000286042,-0.000252639,-0.000824727,0.000555555,-0.00109424,-0.795522,0.000969285,0.0347888,1910,1149,44.9266,-2.66548
693,-125,44.8595,2.61389,-6.7315e-05,-0.000195125,-0.000591434,0.000463656,-0.000726096,-0.731582,0.000692452,0.0289704,1917,1149,44.8595,-2.61394
700,-125,44.9521,2.67529,-1.4659e-05,-0.000248667,-0.000348536,0.000235988,-0.000499314,-0.623458,0.000433506,0.012988,1924,1149,44.9521,-2.67528
707,-125,45.1359,2.80261,0,0,0,0,0,0,0,-1,1931,1149,45.1359,-2.80265
714,-125,40.9189,7.28821,0,0,0,0,0,0,0,-1,1938,1149,40.9189,-7.28819
721,-125,40.8488,6.94885,-0.000415636,7.54933e-05,0.000454503,0.000346528,-0.000686671,1.03308,0.000607197,0.0274288,1945,1149,40.8488,-6.94889
728,-125,40.811,6.64404,-0.000616358,1.97753e-05,0.000913675,0.000669164,-0.00126575,0.952897,0.00113468,0.0211126,1952,1149,40.811,-6.64407
735,-125,40.8004,6.33643,-0.000697317,0.000153688,0.00131674,0.00111197,-0.0016556,0.941676,0.0016081,0.0220849,1959,1149,40.8004,-6.33648
742,-125,40.8854,5.99426,-0.000896729,0.000593035,0.00171582,0.00171868,-0.00202238,0.990186,0.00216227,0.0251632,1966,1149,40.8854,-5.99427
749,-125,40.8362,5.65137,-0.00172947,0.000995612,0.00160916,0.0017416,-0.00247546,1.1367,0.00244698,0.0262024,1973,1149,40.8362,-5.65139
756,-125,40.786,5.27856,-0.00327829,0.00173673,0.000218927,0.00174627,-0.00328783,1.52725,0.00295151,0.0224459,1980,1149,40.786,-5.27856
763,-125,40.7853,4.97925,-0.00548858,0.00266173,-0.00247805,0.00335602,-0.00618287,-1.29762,0.00558731,0.0126485,1987,1149,40.7852,-4.97924
770,-125,40.7412,4.63708,-0.00850786,0.00368862,-0.00658344,0.00656424,-0.0113835,-1.15898,0.0104859,0.0161043,1994,1149,40.7412,-4.63705
777,-125,40.6608,4.36658,-0.0125536,0.00471079,-0.0124288,0.011211,-0.0190538,-1.08892,0.0176679,0.0315458,2001,1149,40.6607,-4.36658
784,-125,40.8918,4.32556,-0.0180919,0.00579331,-0.020683,0.017734,-0.0300326,-1.04722,0.0278811,0.047622,2008,1149,40.8918,-4.32555
791,-125,41.1973,4.28992,0,0,0,0,0,0,0,-1,2015,1149,41.1972,-4.28986
798,-125,40.3928,2.34473,0,0,0,0,0,0,0,-1,2022,1149,40.3928,-2.34468
805,-125,39.6768,4.10376,0,0,0,0,0,0,0,-1,2029,1149,39.6767,-4.10371
812,-125,40.9634,0.805176,0,0,0,0,0,0,0,-1,2036,1149,40.9635,-0.805195
-700,-132,0,0,0,0,0,0,0,0,0,-1,524,1156,0,0
-693,-132,-33.0464,1.66931,0.283013,0.0516669,-0.0339562,0.287894,0.0467859,-0.142766,0.178391,0.0498239,531,1156,-33.0464,-1.66927
-686,-132,-32.1145,1.94092,0.253525,0.0503738,-0.0328023,0.25869,0.0452086,-0.156182,0.15954,0.0485398,538,1156,-32.1145,-1.94086
-679,-132,-31.1785,2.12415,0.217408,0.0459365,-0.0294953,0.22234,0.0410048,-0.165671,0.136625,0.0450801,545,1156,-31.1785,-2.12414
-672,-132,-30.2605,2.36548,0.180111,0.0400273,-0.025286,0.184536,0.0356028,-0.173226,0.113041,0.0423636,552,1156,-30.2605,-2.36544
-665,-132,-28.705,0.400513,0.144024,0.0335306,-0.0207404,0.147788,0.0297658,-0.179567,0.0902549,0.0439384,559,1156,-28.705,-0.400494
-658,-132,-28.1964,0.115112,0,0,0,0,0,0,0,-1,566,1156,-28.1963,-0.115087
-651,-132,-28.3361,0.785889,0.0814563,0.0208557,-0.0122183,0.083827,0.018485,-0.191648,0.0508554,0.0430631,573,1156,-28.336,-0.785925
-644,-132,-28.5096,1.45288,0.0566717,0.0153479,-0.00868458,0.0584227,0.0135969,-0.198949,0.0353001,0.022324,580,1156,-28.5096,-1.45288
-637,-132,-28.5332,1.85645,0.0357846,0.0110771,-0.00588273,0.0371138,0.00974798,-0.222209,0.0222178,0.0112156,587,1156,-28.5332,-1.85644
-630,-132,-28.5181,2.2168,0.0200617,0.00648427,-0.00330182,0.0208221,0.00572391,-0.226341,0.0124211,0.00994017,594,1156,-28.5181,-2.21681
-623,-132,-28.5374,2.62634,0.00814481,0.00305917,-0.00135648,0.008484,0.00271998,-0.245026,0.00500223,0.0161308,601,1156,-28.5373,-2.62638
-616,-132,-28.5359,2.9115,0.00251915,0.000876,-0.000179888,0.00253862,0.000856537,-0.107777,0.00149128,0.0270377,608,1156,-28.5359,-2.9115
-609,-132,-28.4362,3.28711,0.000895007,0.000616731,0.000495889,0.00127091,0.00024083,0.648624,0.000779496,0.0313224,615,1156,-28.4362,-3.28708
-602,-132,-28.6104,3.66553,0.00101498,0.000637017,0.000677872,0.00152972,0.000122277,0.649457,0.000981597,0.0276946,622,1156,-28.6103,-3.6655
-595,-132,-28.7153,4.07983,0.00102516,0.000394836,0.000378502,0.00120253,0.000217462,0.43823,0.00073993,0.0387484,629,1156,-28.7153,-4.07978
-588,-132,-28.5021,4.62769,0.000771313,0.000264886,0.000180955,0.000829326,0.000206873,0.31024,0.000498448,0.0374089,636,1156,-28.5021,-4.62773
-581,-132,-28.0887,5.24927,0,0,0,0,0,0,0,-1,643,1156,-28.0887,-5.24928
-574,-132,-31.5448,2.52698,0,0,0,0,0,0,0,-1,650,1156,-31.5448,-2.52692
-567,-132,-33.2235,0.780884,0,0,0,0,0,0,0,-1,657,1156,-33.2235,-0.780855
-560,-132,-33.2559,0.769775,0.000201595,0.000150988,0.000804108,0.000980798,-0.000628215,0.769669,0.000936369,0.0337665,664,1156,-33.2558,-0.769759
-553,-132,-33.3979,0.921509,-0.000326401,0.000169363,0.00081294,0.000771373,-0.000928411,0.933381,0.000982766,0.037746,671,1156,-33.3979,-0.921505
-546,-132,-33.4667,1.09631,-0.000832497,-0.000127023,0.000740647,0.000340594,-0.00130011,1.00763,0.000999803,0.040451,678,1156,-33.4667,-1.09629
-539,-132,-33.3118,1.13379,-0.00116317,-0.000789416,0.000955694,-2.50002e-06,-0.00195009,0.881951,0.00129923,0.0397593,685,1156,-33.3118,-1.13381
-532,-132,-33.2927,1.01733,-0.000673877,-0.00179844,0.00178424,0.00063458,-0.0031069,0.632754,0.00231201,0.0386814,692,1156,-33.2927,-1.01739
-525,-132,-33.2731,1.06592,4.94541e-05,-0.00293995,0.00292506,0.00183958,-0.00473008,0.549194,0.00391345,0.0396247,699,1156,-33.2731,-1.06596
-518,-132,0,0,0,0,0,0,0,0,0,-1,706,1156,0,0
-511,-132,0,0,0,0,0,0,0,0,0,-1,713,1156,0,0
-504,-132,0,0,0,0,0,0,0,0,0,-1,720,1156,0,0
-497,-132,0,0,0,0,0,0,0,0,0,-1,727,1156,0,0
-490,-132,0,0,0,0,0,0,0,0,0,-1,734,1156,0,0
-483,-132,0,0,0,0,0,0,0,0,0,-1,741,1156,0,0
-476,-132,0,0,0,0,0,0,0,0,0,-1,748,1156,0,0
-469,-132,0,0,0,0,0,0,0,0,0,-1,755,1156,0,0
-462,-132,0,0,0,0,0,0,0,0,0,-1,762,1156,0,0
-455,-132,0,0,0,0,0,0,0,0,0,-1,769,1156,0,0
-448,-132,0,0,0,0,0,0,0,0,0,-1,776,1156,0,0
-441,-132,0,0,0,0,0,0,0,0,0,-1,783,1156,0,0
-434,-132,0,0,0,0,0,0,0,0,0,-1,790,1156,0,0
-427,-132,0,0,0,0,0,0,0,0,0,-1,797,1156,0,0
-420,-132,0,0,0,0,0,0,0,0,0,-1,804,1156,0,0
-413,-132,0,0,0,0,0,0,0,0,0,-1,811,1156,0,0
-406,-132,0,0,0,0,0,0,0,0,0,-1,818,1156,0,0
-399,-132,0,0,0,0,0,0,0,0,0,-1,825,1156,0,0
-392,-132,0,0,0,0,0,0,0,0,0,-1,832,1156,0,0
-385,-132,0,0,0,0,0,0,0,0,0,-1,839,1156,0,0
-378,-132,0,0,0,0,0,0,0,0,0,-1,846,1156,0,0
-371,-132,0,0,0,0,0,0,0,0,0,-1,853,1156,0,0
-364,-132,0,0,0,0,0,0,0,0,0,-1,860,1156,0,0
-357,-132,0,0,0,0,0,0,0,0,0,-1,867,1156,0,0
-350,-132,0,0,0,0,0,0,0,0,0,-1,874,1156,0,0
-343,-132,0,0,0,0,0,0,0,0,0,-1,881,1156,0,0
-336,-132,0,0,0,0,0,0,0,0,0,-1,888,1156,0,0
-329,-132,0,0,0,0,0,0,0,0,0,-1,895,1156,0,0
-322,-132,0,0,0,0,0,0,0,0,0,-1,902,1156,0,0
-315,-132,0,0,0,0,0,0,0,0,0,-1,909,1156,0,0
-308,-132,0,0,0,0,0,0,0,0,0,-1,916,1156,0,0
-301,-132,0,0,0,0,0,0,0,0,0,-1,923,1156,0,0
-294,-132,0,0,0,0,0,0,0,0,0,-1,930,1156,0,0
-287,-132,0,0,0,0,0,0,0,0,0,-1,937,1156,0,0
-280,-132,0,0,0,0,0,0,0,0,0,-1,944,1156,0,0
-273,-132,0,0,0,0,0,0,0,0,0,-1,951,1156,0,0
-266,-132,0,0,0,0,0,0,0,0,0,-1,958,1156,0,0
-259,-132,0,0,0,0,0,0,0,0,0,-1,965,1156,0,0
-252,-132,0,0,0,0,0,0,0,0,0,-1,972,1156,0,0
-245,-132,0,0,0,0,0,0,0,0,0,-1,979,1156,0,0
-238,-132,0,0,0,0,0,0,0,0,0,-1,986,1156,0,0
-231,-132,0,0,0,0,0,0,0,0,0,-1,993,1156,0,0
-224,-132,0,0,0,0,0,0,0,0,0,-1,1000,1156,0,0
-217,-132,0,0,0,0,0,0,0,0,0,-1,1007,1156,0,0
-210,-132,0,0,0,0,0,0,0,0,0,-1,1014,1156,0,0
-203,-132,0,0,0,0,0,0,0,0,0,-1,1021,1156,0,0
-196,-132,0,0,0,0,0,0,0,0,0,-1,1028,1156,0,0
-189,-132,0,0,0,0,0,0,0,0,0,-1,1035,1156,0,0
-182,-132,0,0,0,0,0,0,0,0,0,-1,1042,1156,0,0
-175,-132,0,0,0,0,0,0,0,0,0,-1,1049,1156,0,0
-168,-132,0,0,0,0,0,0,0,0,0,-1,1056,1156,0,0
-161,-132,0,0,0,0,0,0,0,0,0,-1,1063,1156,0,0
-154,-132,0,0,0,0,0,0,0,0,0,-1,1070,1156,0,0
-147,-132,0,0,0,0,0,0,0,0,0,-1,1077,1156,0,0
-140,-132,0,0,0,0,0,0,0,0,0,-1,1084,1156,0,0
-133,-132,0,0,0,0,0,0,0,0,0,-1,1091,1156,0,0
-126,-132,0,0,0,0,0,0,0,0,0,-1,1098,1156,0,0
-119,-132,0,0,0,0,0,0,0,0,0,-1,1105,1156,0,0
-112,-132,0,0,0,0,0,0,0,0,0,-1,1112,1156,0,0
-105,-132,0,0,0,0,0,0,0,0,0,-1,1119,1156,0,0
-98,-132,0,0,0,0,0,0,0,0,0,-1,1126,1156,0,0
-91,-132,0,0,0,0,0,0,0,0,0,-1,1133,1156,0,0
-84,-132,0,0,0,0,0,0,0,0,0,-1,1140,1156,0,0
-77,-132,0,0,0,0,0,0,0,0,0,-1,1147,1156,0,0
-70,-132,0,0,0,0,0,0,0,0,0,-1,1154,1156,0,0
-63,-132,0,0,0,0,0,0,0,0,0,-1,1161,1156,0,0
-56,-132,0,0,0,0,0,0,0,0,0,-1,1168,1156,0,0
-49,-132,0,0,0,0,0,0,0,0,0,-1,1175,1156,0,0
-42,-132,0,0,0,0,0,0,0,0,0,-1,1182,1156,0,0
-35,-132,0,0,0,0,0,0,0,0,0,-1,1189,1156,0,0
-28,-132,0,0,0,0,0,0,0,0,0,-1,1196,1156,0,0
-21,-132,0,0,0,0,0,0,0,0,0,-1,1203,1156,0,0
-14,-132,0,0,0,0,0,0,0,0,0,-1,1210,1156,0,0
-7,-132,0,0,0,0,0,0,0,0,0,-1,1217,1156,0,0
0,-132,0,0,0,0,0,0,0,0,0,-1,1224,1156,0,0
7,-132,0,0,0,0,0,0,0,0,0,-1,1231,1156,0,0
14,-132,0,0,0,0,0,0,0,0,0,-1,1238,1156,0,0
21,-132,0,0,0,0,0,0,0,0,0,-1,1245,1156,0,0
28,-132,0,0,0,0,0,0,0,0,0,-1,1252,1156,0,0
35,-132,0,0,0,0,0,0,0,0,0,-1,1259,1156,0,0
42,-132,0,0,0,0,0,0,0,0,0,-1,1266,1156,0,0
49,-132,0,0,0,0,0,0,0,0,0,-1,1273,1156,0,0
56,-132,0,0,0,0,0,0,0,0,0,-1,1280,1156,0,0
63,-132,0,0,0,0,0,0,0,0,0,-1,1287,1156,0,0
70,-132,0,0,0,0,0,0,0,0,0,-1,1294,1156,0,0
77,-132,0,0,0,0,0,0,0,0,0,-1,1301,1156,0,0
84,-132,0,0,0,0,0,0,0,0,0,-1,1308,1156,0,0
91,-132,0,0,0,0,0,0,0,0,0,-1,1315,1156,0,0
98,-132,0,0,0,0,0,0,0,0,0,-1,1322,1156,0,0
105,-132,0,0,0,0,0,0,0,0,0,-1,1329,1156,0,0
112,-132,0,0,0,0,0,0,0,0,0,-1,1336,1156,0,0
119,-132,0,0,0,0,0,0,0,0,0,-1,1343,1156,0,0
126,-132,0,0,0,0,0,0,0,0,0,-1,1350,1156,0,0
133,-132,0,0,0,0,0,0,0,0,0,-1,1357,1156,0,0
140,-132,0,0,0,0,0,0,0,0,0,-1,1364,1156,0,0
147,-132,0,0,0,0,0,0,0,0,0,-1,1371,1156,0,0
154,-132,0,0,0,0,0,0,0,0,0,-1,1378,1156,0,0
161,-132,0,0,0,0,0,0,0,0,0,-1,1385,1156,0,0
168,-132,0,0,0,0,0,0,0,0,0,-1,1392,1156,0,0
175,-132,0,0,0,0,0,0,0,0,0,-1,1399,1156,0,0
182,-132,0,0,0,0,0,0,0,0,0,-1,1406,1156,0,0
189,-132,0,0,0,0,0,0,0,0,0,-1,1413,1156,0,0
196,-132,0,0,0,0,0,0,0,0,0,-1,1420,1156,0,0
203,-132,0,0,0,0,0,0,0,0,0,-1,1427,1156,0,0
210,-132,0,0,0,0,0,0,0,0,0,-1,1434,1156,0,0
217,-132,0,0,0,0,0,0,0,0,0,-1,1441,1156,0,0
224,-132,0,0,0,0,0,0,0,0,0,-1,1448,1156,0,0
231,-132,0,0,0,0,0,0,0,0,0,-1,1455,1156,0,0
238,-132,0,0,0,0,0,0,0,0,0,-1,1462,1156,0,0
245,-132,0,0,0,0,0,0,0,0,0,-1,1469,1156,0,0
252,-132,0,0,0,0,0,0,0,0,0,-1,1476,1156,0,0
259,-132,0,0,0,0,0,0,0,0,0,-1,1483,1156,0,0
266,-132,0,0,0,0,0,0,0,0,0,-1,1490,1156,0,0
273,-132,0,0,0,0,0,0,0,0,0,-1,1497,1156,0,0
280,-132,0,0,0,0,0,0,0,0,0,-1,1504,1156,0,0
287,-132,0,0,0,0,0,0,0,0,0,-1,1511,1156,0,0
294,-132,0,0,0,0,0,0,0,0,0,-1,1518,1156,0,0
301,-132,0,0,0,0,0,0,0,0,0,-1,1525,1156,0,0
308,-132,0,0,0,0,0,0,0,0,0,-1,1532,1156,0,0
315,-132,0,0,0,0,0,0,0,0,0,-1,1539,1156,0,0
322,-132,0,0,0,0,0,0,0,0,0,-1,1546,1156,0,0
329,-132,0,0,0,0,0,0,0,0,0,-1,1553,1156,0,0
336,-132,0,0,0,0,0,0,0,0,0,-1,1560,1156,0,0
343,-132,0,0,0,0,0,0,0,0,0,-1,1567,1156,0,0
350,-132,0,0,0,0,0,0,0,0,0,-1,1574,1156,0,0
357,-132,0,0,0,0,0,0,0,0,0,-1,1581,1156,0,0
364,-132,0,0,0,0,0,0,0,0,0,-1,1588,1156,0,0
371,-132,0,0,0,0,0,0,0,0,0,-1,1595,1156,0,0
378,-132,0,0,0,0,0,0,0,0,0,-1,1602,1156,0,0
385,-132,0,0,0,0,0,0,0,0,0,-1,1609,1156,0,0
392,-132,0,0,0,0,0,0,0,0,0,-1,1616,1156,0,0
399,-132,0,0,0,0,0,0,0,0,0,-1,1623,1156,0,0
406,-132,0,0,0,0,0,0,0,0,0,-1,1630,1156,0,0
413,-132,0,0,0,0,0,0,0,0,0,-1,1637,1156,0,0
420,-132,0,0,0,0,0,0,0,0,0,-1,1644,1156,0,0
427,-132,0,0,0,0,0,0,0,0,0,-1,1651,1156,0,0
434,-132,0,0,0,0,0,0,0,0,0,-1,1658,1156,0,0
441,-132,0,0,0,0,0,0,0,0,0,-1,1665,1156,0,0
448,-132,0,0,0,0,0,0,0,0,0,-1,1672,1156,0,0
455,-132,0,0,0,0,0,0,0,0,0,-1,1679,1156,0,0
462,-132,0,0,0,0,0,0,0,0,0,-1,1686,1156,0,0
469,-132,0,0,0,0,0,0,0,0,0,-1,1693,1156,0,0
476,-132,0,0,0,0,0,0,0,0,0,-1,1700,1156,0,0
483,-132,0,0,0,0,0,0,0,0,0,-1,1707,1156,0,0
490,-132,0,0,0,0,0,0,0,0,0,-1,1714,1156,0,0
497,-132,0,0,0,0,0,0,0,0,0,-1,1721,1156,0,0
504,-132,0,0,0,0,0,0,0,0,0,-1,1728,1156,0,0
511,-132,0,0,0,0,0,0,0,0,0,-1,1735,1156,0,0
518,-132,0,0,0,0,0,0,0,0,0,-1,1742,1156,0,0
525,-132,0,0,0,0,0,0,0,0,0,-1,1749,1156,0,0
532,-132,0,0,0,0,0,0,0,0,0,-1,1756,1156,0,0
539,-132,0,0,0,0,0,0,0,0,0,-1,1763,1156,0,0
546,-132,0,0,0,0,0,0,0,0,0,-1,1770,1156,0,0
553,-132,0,0,0,0,0,0,0,0,0,-1,1777,1156,0,0
560,-132,0,0,0,0,0,0,0,0,0,-1,1784,1156,0,0
567,-132,0,0,0,0,0,0,0,0,0,-1,1791,1156,0,0
574,-132,0,0,0,0,0,0,0,0,0,-1,1798,1156,0,0
581,-132,0,0,0,0,0,0,0,0,0,-1,1805,1156,0,0
588,-132,0,0,0,0,0,0,0,0,0,-1,1812,1156,0,0
595,-132,0,0,0,0,0,0,0,0,0,-1,1819,1156,0,0
602,-132,0,0,0,0,0,0,0,0,0,-1,1826,1156,0,0
609,-132,0,0,0,0,0,0,0,0,0,-1,1833,1156,0,0
616,-132,0,0,0,0,0,0,0,0,0,-1,1840,1156,0,0
623,-132,0,0,0,0,0,0,0,0,0,-1,1847,1156,0,0
630,-132,0,0,0,0,0,0,0,0,0,-1,1854,1156,0,0
637,-132,0,0,0,0,0,0,0,0,0,-1,1861,1156,0,0
644,-132,45.0803,2.68787,-0.00391091,-0.00160833,-0.00393357,0.00133898,-0.00685821,-0.927763,0.00507766,0.0446904,1868,1156,45.0803,-2.68783
651,-132,45.0549,2.64343,-0.00342031,-0.00120261,-0.00294778,0.000837978,-0.0054609,-0.965294,0.00394967,0.0426584,1875,1156,45.0549,-2.64344
658,-132,44.7755,2.62744,-0.0026035,-0.00087247,-0.00226405,0.000685865,-0.00416184,-0.96797,0.00302917,0.0404914,1882,1156,44.7756,-2.62746
665,-132,44.7678,2.64966,-0.00168442,-0.000513944,-0.00175696,0.000752682,-0.00295105,-0.946167,0.00226042,0.0422496,1889,1156,44.7679,-2.64961
672,-132,44.8711,2.57556,-0.000880604,-0.000217278,-0.00131787,0.000810022,-0.0019079,-0.908671,0.0016113,0.0409081,1896,1156,44.871,-2.57559
679,-132,44.9463,2.71765,-0.000604408,5.0773e-05,-0.000942636,0.000721119,-0.00127475,-0.952633,0.001167,0.0394428,1903,1156,44.9463,-2.71768
686,-132,44.9509,2.68298,-0.0005084,-4.00622e-05,-0.000618681,0.000387284,-0.000935745,-0.966314,0.000785425,0.0358818,1910,1156,44.9509,-2.68292
693,-132,44.8882,2.67358,-0.000409573,-4.65187e-05,-0.000341562,0.000158758,-0.000614849,-1.02965,0.000471807,0.0265934,1917,1156,44.8882,-2.67359
700,-132,44.9861,2.66821,-0.000427378,-0.000154178,-7.81693e-05,-0.000133393,-0.000448163,-1.31091,0.000265716,0.0355541,1924,1156,44.9861,-2.66826
707,-132,45.1123,2.6842,0,0,0,0,0,0,0,-1,1931,1156,45.1123,-2.68422
714,-132,40.4274,7.14258,0,0,0,0,0,0,0,-1,1938,1156,40.4274,-7.14256
721,-132,40.5156,6.89307,-0.000884296,9.61698e-05,0.000734405,0.000488932,-0.00127706,1.0797,0.0010529,0.033858,1945,1156,40.5156,-6.8931
728,-132,40.4639,6.63293,-0.00107314,-8.7289e-06,0.0011972,0.00076923,-0.0018511,0.994551,0.00155523,0.0249674,1952,1156,40.4638,-6.63295
735,-132,40.3981,6.34851,-0.00114131,0.000121014,0.00159101,0.00120148,-0.00222178,0.97423,0.00200547,0.0257351,1959,1156,40.398,-6.34855
742,-132,40.4661,5.9729,-0.00127183,0.000546682,0.00198315,0.00181908,-0.00254423,1.00034,0.00253073,0.0200299,1966,1156,40.466,-5.97286
749,-132,40.4893,5.63379,-0.00181071,0.0010523,0.00209103,0.00215489,-0.0029133,1.08555,0.00293702,0.0229826,1973,1156,40.4893,-5.6338
756,-132,40.4701,5.30542,-0.00281332,0.00204529,0.00110243,0.00228373,-0.00305176,1.35779,0.00309107,0.0212439,1980,1156,40.4701,-5.30536
763,-132,40.4255,4.98718,-0.00412648,0.0033232,-0.000849187,0.00341877,-0.00422205,-1.45872,0.00441955,0.013464,1987,1156,40.4255,-4.9872
770,-132,40.4069,4.65723,-0.00606181,0.00481266,-0.00392478,0.0060812,-0.00733035,-1.25818,0.00775435,0.0145107,1994,1156,40.4068,-4.65725
777,-132,40.3669,4.34644,-0.00882461,0.00641835,-0.00845912,0.010183,-0.0125892,-1.15208,0.013172,0.0249345,2001,1156,40.3669,-4.3464
784,-132,40.4341,4.35095,-0.0127744,0.00824548,-0.015028,0.0160741,-0.0206029,-1.09054,0.0212292,0.0460371,2008,1156,40.434,-4.35097
791,-132,40.5603,4.38989,0,0,0,0,0,0,0,-1,2015,1156,40.5603,-4.38984
798,-132,39.7036,4.26147,0,0,0,0,0,0,0,-1,2022,1156,39.7036,-4.2615
805,-132,39.6836,3.66589,0,0,0,0,0,0,0,-1,2029,1156,39.6836,-3.66592
812,-132,39.6636,3.07031,0,0,0,0,0,0,0,-1,2036,1156,39.6635,-3.07034
-700,-139,0,0,0,0,0,0,0,0,0,-1,524,1163,0,0
-693,-139,-32.8668,2.0614,0.251677,0.0634905,-0.0444932,0.261666,0.0535011,-0.220852,0.159627,0.0468457,531,1163,-32.8668,-2.06135
-686,-139,-31.9435,1.6012,0.22969,0.0609019,-0.0416536,0.23941,0.0511823,-0.229241,0.145576,0.0478753,538,1163,-31.9436,-1.6012
-679,-139,-30.9806,1.43152,0.199059,0.0550377,-0.0367846,0.20791,0.0461865,-0.236134,0.126064,0.0449548,545,1163,-30.9806,-1.43151
-672,-139,-28.0854,-0.347656,0.166098,0.0477482,-0.0311455,0.173794,0.0400523,-0.242244,0.105088,0.0478384,552,1163,-28.0854,0.347683
-665,-139,-28.0633,-0.00683594,0.133579,0.0399578,-0.0253222,0.139989,0.0335476,-0.247934,0.0843962,0.0447966,559,1163,-28.0633,0.00679702
-658,-139,-28.0421,0.234375,0,0,0,0,0,0,0,-1,566,1163,-28.0421,-0.234328
-651,-139,-28.1582,0.816284,0.0763727,0.0249854,-0.0147049,0.0802831,0.021075,-0.259908,0.0480628,0.0440072,573,1163,-28.1582,-0.816295
-644,-139,-28.0969,1.42456,0.0533686,0.0184607,-0.0103334,0.0561982,0.0156311,-0.267273,0.0334938,0.0229219,580,1163,-28.0969,-1.42455
-637,-139,-28.1077,1.83594,0.0339933,0.0133164,-0.00686987,0.0360677,0.011242,-0.293249,0.0213103,0.0124881,587,1163,-28.1077,-1.83596
-630,-139,-28.1296,2.21497,0.0192753,0.00798597,-0.00382881,0.0204514,0.00680993,-0.298008,0.0120252,0.011165,594,1163,-28.1296,-2.21496
-623,-139,-28.1412,2.60059,0.00801819,0.00389519,-0.0015468,0.00853397,0.00337941,-0.321855,0.00496249,0.0179989,601,1163,-28.1412,-2.60054
-616,-139,-28.1687,2.94238,0.0024474,0.00124054,-0.00018343,0.00247466,0.00121328,-0.147551,0.00142884,0.0190591,608,1163,-28.1687,-2.94239
-609,-139,-27.9819,3.3689,0.000921353,0.000777903,0.000395129,0.00125121,0.000448042,0.695614,0.000732024,0.0391929,615,1163,-27.9819,-3.36895
-602,-139,-28.1868,3.77527,0.000911603,0.000697517,0.000504828,0.00132061,0.000288508,0.680926,0.000801733,0.0338894,622,1163,-28.1868,-3.77532
-595,-139,-28.3486,4.16101,0.000812374,0.000462656,0.000181789,0.000889751,0.000385279,0.402412,0.000515232,0.0370515,629,1163,-28.3487,-4.16096
-588,-139,-28.2254,4.55798,0.00049532,0.000300882,-8.72794e-05,0.000528751,0.000267452,-0.365788,0.000305281,0.0315827,636,1163,-28.2254,-4.55795
-581,-139,-27.7454,5.07349,0,0,0,0,0,0,0,-1,643,1163,-27.7454,-5.07348
-574,-139,-23.0725,2.4043,0,0,0,0,0,0,0,-1,650,1163,-23.0725,-2.40433
-567,-139,-33.2,0.78894,0,0,0,0,0,0,0,-1,657,1163,-33.2,-0.789001
-560,-139,-33.2266,0.84082,-4.2604e-05,0.000266924,0.000486784,0.000622954,-0.000398634,0.939311,0.000594535,0.0343423,664,1163,-33.2266,-0.840773
-553,-139,-33.3,1.09839,-0.000540444,0.000353971,0.000497971,0.000576069,-0.000762542,1.15127,0.000775343,0.0376747,671,1163,-33.3,-1.09836
-546,-139,-33.3054,1.02295,-0.000913338,0.000154979,0.000462482,0.000327373,-0.00108573,1.21399,0.00085412,0.0411833,678,1163,-33.3054,-1.02289
-539,-139,-33.2463,0.899414,-0.00119126,-0.000285299,0.000754337,0.000141615,-0.00161818,1.05579,0.00112895,0.0386884,685,1163,-33.2463,-0.899468
-532,-139,-33.2747,0.812988,-0.000741812,-0.00112651,0.00163781,0.000714904,-0.00258323,0.726944,0.00200343,0.0372023,692,1163,-33.2747,-0.81301
-525,-139,-33.2197,0.833984,0.000130669,-0.00215681,0.00290113,0.00210537,-0.00413151,0.597633,0.00366366,0.0386354,699,1163,-33.2197,-0.833962
-518,-139,0,0,0,0,0,0,0,0,0,-1,706,1163,0,0
-511,-139,0,0,0,0,0,0,0,0,0,-1,713,1163,0,0
-504,-139,0,0,0,0,0,0,0,0,0,-1,720,1163,0,0
-497,-139,0,0,0,0,0,0,0,0,0,-1,727,1163,0,0
-490,-139,0,0,0,0,0,0,0,0,0,-1,734,1163,0,0
-483,-139,0,0,0,0,0,0,0,0,0,-1,741,1163,0,0
-476,-139,0,0,0,0,0,0,0,0,0,-1,748,1163,0,0
-469,-139,0,0,0,0,0,0,0,0,0,-1,755,1163,0,0
-462,-139,0,0,0,0,0,0,0,0,0,-1,762,1163,0,0
-455,-139,0,0,0,0,0,0,0,0,0,-1,769,1163,0,0
-448,-139,0,0,0,0,0,0,0,0,0,-1,776,1163,0,0
-441,-139,0,0,0,0,0,0,0,0,0,-1,783,1163,0,0
-434,-139,0,0,0,0,0,0,0,0,0,-1,790,1163,0,0
-427,-139,0,0,0,0,0,0,0,0,0,-1,797,1163,0,0
-420,-139,0,0,0,0,0,0,0,0,0,-1,804,1163,0,0
-413,-139,0,0,0,0,0,0,0,0,0,-1,811,1163,0,0
-406,-139,0,0,0,0,0,0,0,0,0,-1,818,1163,0,0
-399,-139,0,0,0,0,0,0,0,0,0,-1,825,1163,0,0
-392,-139,0,0,0,0,0,0,0,0,0,-1,832,1163,0,0
-385,-139,0,0,0,0,0,0,0,0,0,-1,839,1163,0,0
-378,-139,0,0,0,0,0,0,0,0,0,-1,846,1163,0,0
-371,-139,0,0,0,0,0,0,0,0,0,-1,853,1163,0,0
-364,-139,0,0,0,0,0,0,0,0,0,-1,860,1163,0,0
-357,-139,0,0,0,0,0,0,0,0,0,-1,867,1163,0,0
-350,-139,0,0,0,0,0,0,0,0,0,-1,874,1163,0,0
-343,-139,0,0,0,0,0,0,0,0,0,-1,881,1163,0,0
-336,-139,0,0,0,0,0,0,0,0,0,-1,888,1163,0,0
-329,-139,0,0,0,0,0,0,0,0,0,-1,895,1163,0,0
-322,-139,0,0,0,0,0,0,0,0,0,-1,902,1163,0,0
-315,-139,0,0,0,0,0,0,0,0,0,-1,909,1163,0,0
-308,-139,0,0,0,0,0,0,0,0,0,-1,916,1163,0,0
-301,-139,0,0,0,0,0,0,0,0,0,-1,923,1163,0,0
-294,-139,0,0,0,0,0,0,0,0,0,-1,930,1163,0,0
-287,-139,0,0,0,0,0,0,0,0,0,-1,937,1163,0,0
-280,-139,0,0,0,0,0,0,0,0,0,-1,944,1163,0,0
-273,-139,0,0,0,0,0,0,0,0,0,-1,951,1163,0,0
-266,-139,0,0,0,0,0,0,0,0,0,-1,958,1163,0,0
-259,-139,0,0,0,0,0,0,0,0,0,-1,965,1163,0,0
-252,-139,0,0,0,0,0,0,0,0,0,-1,972,1163,0,0
-245,-139,0,0,0,0,0,0,0,0,0,-1,979,1163,0,0
-238,-139,0,0,0,0,0,0,0,0,0,-1,986,1163,0,0
-231,-139,0,0,0,0,0,0,0,0,0,-1,993,1163,0,0
-224,-139,0,0,0,0,0,0,0,0,0,-1,1000,1163,0,0
-217,-139,0,0,0,0,0,0,0,0,0,-1,1007,1163,0,0
-210,-139,0,0,0,0,0,0,0,0,0,-1,1014,1163,0,0
-203,-139,0,0,0,0,0,0,0,0,0,-1,1021,1163,0,0
-196,-139,0,0,0,0,0,0,0,0,0,-1,1028,1163,0,0
-189,-139,0,0,0,0,0,0,0,0,0,-1,1035,1163,0,0
-182,-139,0,0,0,0,0,0,0,0,0,-1,1042,1163,0,0
-175,-139,0,0,0,0,0,0,0,0,0,-1,1049,1163,0,0
-168,-139,0,0,0,0,0,0,0,0,0,-1,1056,1163,0,0
-161,-139,0,0,0,0,0,0,0,0,0,-1,1063,1163,0,0
-154,-139,0,0,0,0,0,0,0,0,0,-1,1070,1163,0,0
-147,-139,0,0,0,0,0,0,0,0,0,-1,1077,1163,0,0
-140,-139,0,0,0,0,0,0,0,0,0,-1,1084,1163,0,0
-133,-139,0,0,0,0,0,0,0,0,0,-1,1091,1163,0,0
-126,-139,0,0,0,0,0,0,0,0,0,-1,1098,1163,0,0
-119,-139,0,0,0,0,0,0,0,0,0,-1,1105,1163,0,0
-112,-139,0,0,0,0,0,0,0,0,0,-1,1112,1163,0,0
-105,-139,0,0,0,0,0,0,0,0,0,-1,1119,1163,0,0
-98,-139,0,0,0,0,0,0,0,0,0,-1,1126,1163,0,0
-91,-139,0,0,0,0,0,0,0,0,0,-1,1133,1163,0,0
-84,-139,0,0,0,0,0,0,0,0,0,-1,1140,1163,0,0
-77,-139,0,0,0,0,0,0,0,0,0,-1,1147,1163,0,0
-70,-139,0,0,0,0,0,0,0,0,0,-1,1154,1163,0,0
-63,-139,0,0,0,0,0,0,0,0,0,-1,1161,1163,0,0
-56,-139,0,0,0,0,0,0,0,0,0,-1,1168,1163,0,0
-49,-139,0,0,0,0,0,0,0,0,0,-1,1175,1163,0,0
-42,-139,0,0,0,0,0,0,0,0,0,-1,1182,1163,0,0
-35,-139,0,0,0,0,0,0,0,0,0,-1,1189,1163,0,0
-28,-139,0,0,0,0,0,0,0,0,0,-1,1196,1163,0,0
-21,-139,0,0,0,0,0,0,0,0,0,-1,1203,1163,0,0
-14,-139,0,0,0,0,0,0,0,0,0,-1,1210,1163,0,0
-7,-139,0,0,0,0,0,0,0,0,0,-1,1217,1163,0,0
0,-139,0,0,0,0,0,0,0,0,0,-1,1224,1163,0,0
7,-139,0,0,0,0,0,0,0,0,0,-1,1231,1163,0,0
14,-139,0,0,0,0,0,0,0,0,0,-1,1238,1163,0,0
21,-139,0,0,0,0,0,0,0,0,0,-1,1245,1163,0,0
28,-139,0,0,0,0,0,0,0,0,0,-1,1252,1163,0,0
35,-139,0,0,0,0,0,0,0,0,0,-1,1259,1163,0,0
42,-139,0,0,0,0,0,0,0,0,0,-1,1266,1163,0,0
49,-139,0,0,0,0,0,0,0,0,0,-1,1273,1163,0,0
56,-139,0,0,0,0,0,0,0,0,0,-1,1280,1163,0,0
63,-139,0,0,0,0,0,0,0,0,0,-1,1287,1163,0,0
70,-139,0,0,0,0,0,0,0,0,0,-1,1294,1163,0,0
77,-139,0,0,0,0,0,0,0,0,0,-1,1301,1163,0,0
84,-139,0,0,0,0,0,0,0,0,0,-1,1308,1163,0,0
91,-139,0,0,0,0,0,0,0,0,0,-1,1315,1163,0,0
98,-139,0,0,0,0,0,0,0,0,0,-1,1322,1163,0,0
105,-139,0,0,0,0,0,0,0,0,0,-1,1329,1163,0,0
112,-139,0,0,0,0,0,0,0,0,0,-1,1336,1163,0,0
119,-139,0,0,0,0,0,0,0,0,0,-1,1343,1163,0,0
126,-139,0,0,0,0,0,0,0,0,0,-1,1350,1163,0,0
133,-139,0,0,0,0,0,0,0,0,0,-1,1357,1163,0,0
140,-139,0,0,0,0,0,0,0,0,0,-1,1364,1163,0,0
147,-139,0,0,0,0,0,0,0,0,0,-1,1371,1163,0,0
154,-139,0,0,0,0,0,0,0,0,0,-1,1378,1163,0,0
161,-139,0,0,0,0,0,0,0,0,0,-1,1385,1163,0,0
168,-139,0,0,0,0,0,0,0,0,0,-1,1392,1163,0,0
175,-139,0,0,0,0,0,0,0,0,0,-1,1399,1163,0,0
182,-139,0,0,0,0,0,0,0,0,0,-1,1406,1163,0,0
189,-139,0,0,0,0,0,0,0,0,0,-1,1413,1163,0,0
196,-139,0,0,0,0,0,0,0,0,0,-1,1420,1163,0,0
203,-139,0,0,0,0,0,0,0,0,0,-1,1427,1163,0,0
210,-139,0,0,0,0,0,0,0,0,0,-1,1434,1163,0,0
217,-139,0,0,0,0,0,0,0,0,0,-1,1441,1163,0,0
224,-139,0,0,0,0,0,0,0,0,0,-1,1448,1163,0,0
231,-139,0,0,0,0,0,0,0,0,0,-1,1455,1163,0,0
238,-139,0,0,0,0,0,0,0,0,0,-1,1462,1163,0,0
245,-139,0,0,0,0,0,0,0,0,0,-1,1469,1163,0,0
252,-139,0,0,0,0,0,0,0,0,0,-1,1476,1163,0,0
259,-139,0,0,0,0,0,0,0,0,0,-1,1483,1163,0,0
266,-139,0,0,0,0,0,0,0,0,0,-1,1490,1163,0,0
273,-139,0,0,0,0,0,0,0,0,0,-1,1497,1163,0,0
280,-139,0,0,0,0,0,0,0,0,0,-1,1504,1163,0,0
287,-139,0,0,0,0,0,0,0,0,0,-1,1511,1163,0,0
294,-139,0,0,0,0,0,0,0,0,0,-1,1518,1163,0,0
301,-139,0,0,0,0,0,0,0,0,0,-1,1525,1163,0,0
308,-139,0,0,0,0,0,0,0,0,0,-1,1532,1163,0,0
315,-139,0,0,0,0,0,0,0,0,0,-1,1539,1163,0,0
322,-139,0,0,0,0,0,0,0,0,0,-1,1546,1163,0,0
329,-139,0,0,0,0,0,0,0,0,0,-1,1553,1163,0,0
336,-139,0,0,0,0,0,0,0,0,0,-1,1560,1163,0,0
343,-139,0,0,0,0,0,0,0,0,0,-1,1567,1163,0,0
350,-139,0,0,0,0,0,0,0,0,0,-1,1574,1163,0,0
357,-139,0,0,0,0,0,0,0,0,0,-1,1581,1163,0,0
364,-139,0,0,0,0,0,0,0,0,0,-1,1588,1163,0,0
371,-139,0,0,0,0,0,0,0,0,0,-1,1595,1163,0,0
378,-139,0,0,0,0,0,0,0,0,0,-1,1602,1163,0,0
385,-139,0,0,0,0,0,0,0,0,0,-1,1609,1163,0,0
392,-139,0,0,0,0,0,0,0,0,0,-1,1616,1163,0,0
399,-139,0,0,0,0,0,0,0,0,0,-1,1623,1163,0,0
406,-139,0,0,0,0,0,0,0,0,0,-1,1630,1163,0,0
413,-139,0,0,0,0,0,0,0,0,0,-1,1637,1163,0,0
420,-139,0,0,0,0,0,0,0,0,0,-1,1644,1163,0,0
427,-139,0,0,0,0,0,0,0,0,0,-1,1651,1163,0,0
434,-139,0,0,0,0,0,0,0,0,0,-1,1658,1163,0,0
441,-139,0,0,0,0,0,0,0,0,0,-1,1665,1163,0,0
448,-139,0,0,0,0,0,0,0,0,0,-1,1672,1163,0,0
455,-139,0,0,0,0,0,0,0,0,0,-1,1679,1163,0,0
462,-139,0,0,0,0,0,0,0,0,0,-1,1686,1163,0,0
469,-139,0,0,0,0,0,0,0,0,0,-1,1693,1163,0,0
476,-139,0,0,0,0,0,0,0,0,0,-1,1700,1163,0,0
483,-139,0,0,0,0,0,0,0,0,0,-1,1707,1163,0,0
490,-139,0,0,0,0,0,0,0,0,0,-1,1714,1163,0,0
497,-139,0,0,0,0,0,0,0,0,0,-1,1721,1163,0,0
504,-139,0,0,0,0,0,0,0,0,0,-1,1728,1163,0,0
511,-139,0,0,0,0,0,0,0,0,0,-1,1735,1163,0,0
518,-139,0,0,0,0,0,0,0,0,0,-1,1742,1163,0,0
525,-139,0,0,0,0,0,0,0,0,0,-1,1749,1163,0,0
532,-139,0,0,0,0,0,0,0,0,0,-1,1756,1163,0,0
539,-139,0,0,0,0,0,0,0,0,0,-1,1763,1163,0,0
546,-139,0,0,0,0,0,0,0,0,0,-1,1770,1163,0,0
553,-139,0,0,0,0,0,0,0,0,0,-1,1777,1163,0,0
560,-139,0,0,0,0,0,0,0,0,0,-1,1784,1163,0,0
567,-139,0,0,0,0,0,0,0,0,0,-1,1791,1163,0,0
574,-139,0,0,0,0,0,0,0,0,0,-1,1798,1163,0,0
581,-139,0,0,0,0,0,0,0,0,0,-1,1805,1163,0,0
588,-139,0,0,0,0,0,0,0,0,0,-1,1812,1163,0,0
595,-139,0,0,0,0,0,0,0,0,0,-1,1819,1163,0,0
602,-139,0,0,0,0,0,0,0,0,0,-1,1826,1163,0,0
609,-139,0,0,0,0,0,0,0,0,0,-1,1833,1163,0,0
616,-139,0,0,0,0,0,0,0,0,0,-1,1840,1163,0,0
623,-139,0,0,0,0,0,0,0,0,0,-1,1847,1163,0,0
630,-139,0,0,0,0,0,0,0,0,0,-1,1854,1163,0,0
637,-139,0,0,0,0,0,0,0,0,0,-1,1861,1163,0,0
644,-139,45.0647,2.61682,-0.00449961,-0.00127404,-0.0037404,0.00118646,-0.00696011,-0.988945,0.00508194,0.0433911,1868,1163,45.0647,-2.6168
651,-139,45.0125,2.76123,-0.00374656,-0.000844829,-0.00279075,0.000849664,-0.00544106,-1.02511,0.00394124,0.0439494,1875,1163,45.0124,-2.76127
658,-139,44.8973,2.74561,-0.0027313,-0.000465016,-0.00212912,0.000813725,-0.00401004,-1.02994,0.00298185,0.0426304,1882,1163,44.8973,-2.74555
665,-139,44.9852,2.69507,-0.00161903,-0.000117305,-0.00161525,0.000913076,-0.00264941,-1.00297,0.00213668,0.0417237,1889,1163,44.9852,-2.69503
672,-139,45.012,2.7876,-0.000766614,8.4703e-05,-0.00110364,0.000841921,-0.00152383,-0.969452,0.00138465,0.0408152,1896,1163,45.012,-2.78758
679,-139,45.0905,2.67432,-0.000503269,0.000262986,-0.000647731,0.000632416,-0.000872699,-1.05247,0.000872662,0.0368959,1903,1163,45.0905,-2.67428
686,-139,44.9442,2.78918,-0.000462528,5.27771e-05,-0.000249937,0.000154086,-0.000563837,-1.1857,0.000436417,0.0325004,1910,1163,44.9442,-2.78921
693,-139,44.9398,2.70667,-0.000451516,-3.16423e-05,7.62757e-05,-1.82152e-05,-0.000464943,1.39655,0.000304072,0.019901,1917,1163,44.9398,-2.70662
700,-139,45.0487,2.66858,0,0,0,0,0,0,0,-1,1924,1163,45.0487,-2.66854
707,-139,32.116,6.54346,0,0,0,0,0,0,0,-1,1931,1163,32.116,-6.54343
714,-139,40.0449,7.32642,0,0,0,0,0,0,0,-1,1938,1163,40.0449,-7.32639
721,-139,40.1335,6.91394,-0.00103052,-1.09154e-05,0.00114409,0.000731819,-0.00177325,0.99499,0.00148738,0.0304864,1945,1163,40.1336,-6.91394
728,-139,40.0665,6.67505,-0.00122541,-0.000161231,0.00159315,0.000986332,-0.00237298,0.946568,0.00199381,0.0368486,1952,1163,40.0665,-6.67506
735,-139,39.9683,6.4093,-0.00130947,-3.00301e-05,0.00195269,0.00138506,-0.00272456,0.943693,0.00241434,0.0277398,1959,1163,39.9683,-6.40931
742,-139,40.0668,5.9447,-0.00139198,0.000380911,0.00231336,0.00197185,-0.00298292,0.968362,0.00288042,0.0227467,1966,1163,40.0668,-5.94472
749,-139,40.0883,5.61084,-0.00170348,0.000996824,0.00251711,0.00250303,-0.00320968,1.03157,0.00330663,0.018369,1973,1163,40.0883,-5.61086
756,-139,40.0583,5.28979,-0.00224843,0.00227932,0.00184817,0.00293791,-0.00290702,1.22847,0.00337459,0.00965581,1980,1163,40.0583,-5.28981
763,-139,40.0195,4.95886,-0.00284528,0.00397029,0.000593395,0.00402157,-0.00289656,1.4846,0.00401175,0.0105444,1987,1163,40.0196,-4.9589
770,-139,40.0366,4.64319,-0.00388434,0.00597735,-0.00148946,0.0061974,-0.00410439,-1.42412,0.00598852,0.0132339,1994,1163,40.0366,-4.64316
777,-139,40.056,4.38208,-0.0055442,0.00826173,-0.0046742,0.00969538,-0.00697784,-1.27319,0.00966881,0.0251266,2001,1163,40.056,-4.38207
784,-139,40.0569,4.57727,-0.00808596,0.0109811,-0.0094325,0.0148588,-0.0119636,-1.18076,0.015516,0.04188,2008,1163,40.0568,-4.57733
791,-139,40.1238,4.77979,-0.0117011,0.0139751,-0.0164955,0.0220396,-0.0197656,-1.11608,0.0241481,0.0498429,2015,1163,40.1237,-4.77976
798,-139,40.1465,4.90137,0,0,0,0,0,0,0,-1,2022,1163,40.1466,-4.90133
805,-139,39.6677,3.26489,0,0,0,0,0,0,0,-1,2029,1163,39.6676,-3.26491
812,-139,0,0,0,0,0,0,0,0,0,-1,2036,1163,0,0
-700,-146,0,0,0,0,0,0,0,0,0,-1,524,1170,0,0
-693,-146,-32.5652,1.46033,0.221817,0.0703099,-0.0492337,0.23641,0.0557165,-0.28816,0.142707,0.0433375,531,1170,-32.5652,-1.46033
-686,-146,-31.6594,1.00366,0.206455,0.0677218,-0.0453761,0.219978,0.0541986,-0.289644,0.132338,0.047365,538,1170,-31.6594,-1.00363
-679,-146,-30.7579,0.855713,0.18086,0.0613527,-0.0394799,0.192724,0.0494882,-0.291934,0.115574,0.0462903,545,1170,-30.7579,-0.855765
-672,-146,-29.8028,0.426514,0.151988,0.0534144,-0.0329726,0.162,0.0434021,-0.294806,0.0968313,0.0421896,552,1170,-29.8028,-0.426567
-665,-146,-27.1118,-0.80957,0.122908,0.0449452,-0.0264404,0.131029,0.0368241,-0.298001,0.07803,0.0427456,559,1170,-27.1118,0.80963
-658,-146,-27.8212,0.0177002,0,0,0,0,0,0,0,-1,566,1170,-27.8212,-0.0176862
-651,-146,-27.7346,0.721802,0.0709913,0.0286518,-0.0148516,0.0756813,0.0239618,-0.305882,0.0446635,0.0409903,573,1170,-27.7346,-0.721763
-644,-146,-27.6229,1.39661,0.0498189,0.0214662,-0.0101727,0.0530912,0.018194,-0.311214,0.0311537,0.0220901,580,1170,-27.6229,-1.39657
-637,-146,-27.6711,1.83228,0.0320272,0.0156707,-0.00650743,0.0343003,0.0133976,-0.336056,0.0199607,0.0117553,587,1170,-27.6711,-1.83229
-630,-146,-27.7133,2.21814,0.0183886,0.00978511,-0.00345844,0.0196064,0.00856726,-0.338578,0.0113497,0.0112993,594,1170,-27.7133,-2.21811
-623,-146,-27.7493,2.59045,0.00785986,0.00508698,-0.00122577,0.00832402,0.00462282,-0.361985,0.00481568,0.0137245,601,1170,-27.7494,-2.59044
-616,-146,-27.8124,2.97266,0.00232898,0.00191615,7.9215e-05,0.00234366,0.00190148,0.183219,0.00143789,0.0190366,608,1170,-27.8124,-2.97269
-609,-146,-27.5757,3.44275,0.000866243,0.00116632,0.000508041,0.00154601,0.000486547,0.92898,0.000912792,0.0247948,615,1170,-27.5757,-3.44271
-602,-146,-27.8657,3.96313,0,0,0,0,0,0,0,-1,622,1170,-27.8657,-3.96308
-595,-146,-27.9912,4.22144,0,0,0,0,0,0,0,-1,629,1170,-27.9912,-4.22145
-588,-146,-28.1168,4.47986,0,0,0,0,0,0,0,-1,636,1170,-28.1168,-4.47982
-581,-146,-25.8838,5.00452,0,0,0,0,0,0,0,-1,643,1170,-25.8838,-5.00447
-574,-146,-17.9915,3.79114,0,0,0,0,0,0,0,-1,650,1170,-17.9915,-3.79118
-567,-146,-33.2473,0.813354,0,0,0,0,0,0,0,-1,657,1170,-33.2473,-0.813365
-560,-146,-33.2494,0.928101,-0.000202371,0.000367777,0.000284049,0.000485134,-0.000319729,1.179,0.000467947,0.0379439,664,1170,-33.2494,-0.928094
-553,-146,-33.2373,0.964355,-0.000659276,0.000479514,0.000282977,0.000545954,-0.000725716,1.34018,0.00073664,0.0360374,671,1170,-33.2373,-0.964372
-546,-146,-33.209,0.977539,-0.000876657,0.000293253,0.000263372,0.00034981,-0.000933213,1.35927,0.000765855,0.0406435,678,1170,-33.2091,-0.977494
-539,-146,-33.1855,0.629639,-0.00102762,-6.85057e-05,0.000615359,0.000232092,-0.00132822,1.1164,0.000972121,0.0409293,685,1170,-33.1855,-0.629589
-532,-146,-33.3005,0.634277,-0.000575613,-0.000957785,0.00154443,0.000789504,-0.0023229,0.723848,0.00186823,0.0389756,692,1170,-33.3006,-0.634232
-525,-146,-33.3492,0.910034,0.000476559,-0.00213794,0.00295734,0.00240269,-0.00406407,0.577292,0.00377443,0.0404837,699,1170,-33.3493,-0.909992
-518,-146,0,0,0,0,0,0,0,0,0,-1,706,1170,0,0
-511,-146,0,0,0,0,0,0,0,0,0,-1,713,1170,0,0
-504,-146,0,0,0,0,0,0,0,0,0,-1,720,1170,0,0
-497,-146,0,0,0,0,0,0,0,0,0,-1,727,1170,0,0
-490,-146,0,0,0,0,0,0,0,0,0,-1,734,1170,0,0
-483,-146,0,0,0,0,0,0,0,0,0,-1,741,1170,0,0
-476,-146,0,0,0,0,0,0,0,0,0,-1,748,1170,0,0
-469,-146,0,0,0,0,0,0,0,0,0,-1,755,1170,0,0
-462,-146,0,0,0,0,0,0,0,0,0,-1,762,1170,0,0
-455,-146,0,0,0,0,0,0,0,0,0,-1,769,1170,0,0
-448,-146,0,0,0,0,0,0,0,0,0,-1,776,1170,0,0
-441,-146,0,0,0,0,0,0,0,0,0,-1,783,1170,0,0
-434,-146,0,0,0,0,0,0,0,0,0,-1,790,1170,0,0
-427,-146,0,0,0,0,0,0,0,0,0,-1,797,1170,0,0
-420,-146,0,0,0,0,0,0,0,0,0,-1,804,1170,0,0
-413,-146,0,0,0,0,0,0,0,0,0,-1,811,1170,0,0
-406,-146,0,0,0,0,0,0,0,0,0,-1,818,1170,0,0
-399,-146,0,0,0,0,0,0,0,0,0,-1,825,1170,0,0
-392,-146,0,0,0,0,0,0,0,0,0,-1,832,1170,0,0
-385,-146,0,0,0,0,0,0,0,0,0,-1,839,1170,0,0
-378,-146,0,0,0,0,0,0,0,0,0,-1,846,1170,0,0
-371,-146,0,0,0,0,0,0,0,0,0,-1,853,1170,0,0
-364,-146,0,0,0,0,0,0,0,0,0,-1,860,1170,0,0
-357,-146,0,0,0,0,0,0,0,0,0,-1,867,1170,0,0
-350,-146,0,0,0,0,0,0,0,0,0,-1,874,1170,0,0
-343,-146,0,0,0,0,0,0,0,0,0,-1,881,1170,0,0
-336,-146,0,0,0,0,0,0,0,0,0,-1,888,1170,0,0
-329,-146,0,0,0,0,0,0,0,0,0,-1,895,1170,0,0
-322,-146,0,0,0,0,0,0,0,0,0,-1,902,1170,0,0
-315,-146,0,0,0,0,0,0,0,0,0,-1,909,1170,0,0
-308,-146,0,0,0,0,0,0,0,0,0,-1,916,1170,0,0
-301,-146,0,0,0,0,0,0,0,0,0,-1,923,1170,0,0
-294,-146,0,0,0,0,0,0,0,0,0,-1,930,1170,0,0
-287,-146,0,0,0,0,0,0,0,0,0,-1,937,1170,0,0
-280,-146,0,0,0,0,0,0,0,0,0,-1,944,1170,0,0
-273,-146,0,0,0,0,0,0,0,0,0,-1,951,1170,0,0
-266,-146,0,0,0,0,0,0,0,0,0,-1,958,1170,0,0
-259,-146,0,0,0,0,0,0,0,0,0,-1,965,1170,0,0
-252,-146,0,0,0,0,0,0,0,0,0,-1,972,1170,0,0
-245,-146,0,0,0,0,0,0,0,0,0,-1,979,1170,0,0
-238,-146,0,0,0,0,0,0,0,0,0,-1,986,1170,0,0
-231,-146,0,0,0,0,0,0,0,0,0,-1,993,1170,0,0
-224,-146,0,0,0,0,0,0,0,0,0,-1,1000,1170,0,0
-217,-146,0,0,0,0,0,0,0,0,0,-1,1007,1170,0,0
-210,-146,0,0,0,0,0,0,0,0,0,-1,1014,1170,0,0
-203,-146,0,0,0,0,0,0,0,0,0,-1,1021,1170,0,0
-196,-146,0,0,0,0,0,0,0,0,0,-1,1028,1170,0,0
-189,-146,0,0,0,0,0,0,0,0,0,-1,1035,1170,0,0
-182,-146,0,0,0,0,0,0,0,0,0,-1,1042,1170,0,0
-175,-146,0,0,0,0,0,0,0,0,0,-1,1049,1170,0,0
-168,-146,0,0,0,0,0,0,0,0,0,-1,1056,1170,0,0
-161,-146,0,0,0,0,0,0,0,0,0,-1,1063,1170,0,0
-154,-146,0,0,0,0,0,0,0,0,0,-1,1070,1170,0,0
-147,-146,0,0,0,0,0,0,0,0,0,-1,1077,1170,0,0
-140,-146,0,0,0,0,0,0,0,0,0,-1,1084,1170,0,0
-133,-146,0,0,0,0,0,0,0,0,0,-1,1091,1170,0,0
-126,-146,0,0,0,0,0,0,0,0,0,-1,1098,1170,0,0
-119,-146,0,0,0,0,0,0,0,0,0,-1,1105,1170,0,0
-112,-146,0,0,0,0,0,0,0,0,0,-1,1112,1170,0,0
-105,-146,0,0,0,0,0,0,0,0,0,-1,1119,1170,0,0
-98,-146,0,0,0,0,0,0,0,0,0,-1,1126,1170,0,0
-91,-146,0,0,0,0,0,0,0,0,0,-1,1133,1170,0,0
-84,-146,0,0,0,0,0,0,0,0,0,-1,1140,1170,0,0
-77,-146,0,0,0,0,0,0,0,0,0,-1,1147,1170,0,0
-70,-146,0,0,0,0,0,0,0,0,0,-1,1154,1170,0,0
-63,-146,0,0,0,0,0,0,0,0,0,-1,1161,1170,0,0
-56,-146,0,0,0,0,0,0,0,0,0,-1,1168,1170,0,0
-49,-146,0,0,0,0,0,0,0,0,0,-1,1175,1170,0,0
-42,-146,0,0,0,0,0,0,0,0,0,-1,1182,1170,0,0
-35,-146,0,0,0,0,0,0,0,0,0,-1,1189,1170,0,0
-28,-146,0,0,0,0,0,0,0,0,0,-1,1196,1170,0,0
-21,-146,0,0,0,0,0,0,0,0,0,-1,1203,1170,0,0
-14,-146,0,0,0,0,0,0,0,0,0,-1,1210,1170,0,0
-7,-146,0,0,0,0,0,0,0,0,0,-1,1217,1170,0,0
0,-146,0,0,0,0,0,0,0,0,0,-1,1224,1170,0,0
7,-146,0,0,0,0,0,0,0,0,0,-1,1231,1170,0,0
14,-146,0,0,0,0,0,0,0,0,0,-1,1238,1170,0,0
21,-146,0,0,0,0,0,0,0,0,0,-1,1245,1170,0,0
28,-146,0,0,0,0,0,0,0,0,0,-1,1252,1170,0,0
35,-146,0,0,0,0,0,0,0,0,0,-1,1259,1170,0,0
42,-146,0,0,0,0,0,0,0,0,0,-1,1266,1170,0,0
49,-146,0,0,0,0,0,0,0,0,0,-1,1273,1170,0,0
56,-146,0,0,0,0,0,0,0,0,0,-1,1280,1170,0,0
63,-146,0,0,0,0,0,0,0,0,0,-1,1287,1170,0,0
70,-146,0,0,0,0,0,0,0,0,0,-1,1294,1170,0,0
77,-146,0,0,0,0,0,0,0,0,0,-1,1301,1170,0,0
84,-146,0,0,0,0,0,0,0,0,0,-1,1308,1170,0,0
91,-146,0,0,0,0,0,0,0,0,0,-1,1315,1170,0,0
98,-146,0,0,0,0,0,0,0,0,0,-1,1322,1170,0,0
105,-146,0,0,0,0,0,0,0,0,0,-1,1329,1170,0,0
112,-146,0,0,0,0,0,0,0,0,0,-1,1336,1170,0,0
119,-146,0,0,0,0,0,0,0,0,0,-1,1343,1170,0,0
126,-146,0,0,0,0,0,0,0,0,0,-1,1350,1170,0,0
133,-146,0,0,0,0,0,0,0,0,0,-1,1357,1170,0,0
140,-146,0,0,0,0,0,0,0,0,0,-1,1364,1170,0,0
147,-146,0,0,0,0,0,0,0,0,0,-1,1371,1170,0,0
154,-146,0,0,0,0,0,0,0,0,0,-1,1378,1170,0,0
161,-146,0,0,0,0,0,0,0,0,0,-1,1385,1170,0,0
168,-146,0,0,0,0,0,0,0,0,0,-1,1392,1170,0,0
175,-146,0,0,0,0,0,0,0,0,0,-1,1399,1170,0,0
182,-146,0,0,0,0,0,0,0,0,0,-1,1406,1170,0,0
189,-146,0,0,0,0,0,0,0,0,0,-1,1413,1170,0,0
196,-146,0,0,0,0,0,0,0,0,0,-1,1420,1170,0,0
203,-146,0,0,0,0,0,0,0,0,0,-1,1427,1170,0,0
210,-146,0,0,0,0,0,0,0,0,0,-1,1434,1170,0,0
217,-146,0,0,0,0,0,0,0,0,0,-1,1441,1170,0,0
224,-146,0,0,0,0,0,0,0,0,0,-1,1448,1170,0,0
231,-146,0,0,0,0,0,0,0,0,0,-1,1455,1170,0,0
238,-146,0,0,0,0,0,0,0,0,0,-1,1462,1170,0,0
245,-146,0,0,0,0,0,0,0,0,0,-1,1469,1170,0,0
252,-146,0,0,0,0,0,0,0,0,0,-1,1476,1170,0,0
259,-146,0,0,0,0,0,0,0,0,0,-1,1483,1170,0,0
266,-146,0,0,0,0,0,0,0,0,0,-1,1490,1170,0,0
273,-146,0,0,0,0,0,0,0,0,0,-1,1497,1170,0,0
280,-146,0,0,0,0,0,0,0,0,0,-1,1504,1170,0,0
287,-146,0,0,0,0,0,0,0,0,0,-1,1511,1170,0,0
294,-146,0,0,0,0,0,0,0,0,0,-1,1518,1170,0,0
301,-146,0,0,0,0,0,0,0,0,0,-1,1525,1170,0,0
308,-146,0,0,0,0,0,0,0,0,0,-1,1532,1170,0,0
315,-146,0,0,0,0,0,0,0,0,0,-1,1539,1170,0,0
322,-146,0,0,0,0,0,0,0,0,0,-1,1546,1170,0,0
329,-146,0,0,0,0,0,0,0,0,0,-1,1553,1170,0,0
336,-146,0,0,0,0,0,0,0,0,0,-1,1560,1170,0,0
343,-146,0,0,0,0,0,0,0,0,0,-1,1567,1170,0,0
350,-146,0,0,0,0,0,0,0,0,0,-1,1574,1170,0,0
357,-146,0,0,0,0,0,0,0,0,0,-1,1581,1170,0,0
364,-146,0,0,0,0,0,0,0,0,0,-1,1588,1170,0,0
371,-146,0,0,0,0,0,0,0,0,0,-1,1595,1170,0,0
378,-146,0,0,0,0,0,0,0,0,0,-1,1602,1170,0,0
385,-146,0,0,0,0,0,0,0,0,0,-1,1609,1170,0,0
392,-146,0,0,0,0,0,0,0,0,0,-1,1616,1170,0,0
399,-146,0,0,0,0,0,0,0,0,0,-1,1623,1170,0,0
406,-146,0,0,0,0,0,0,0,0,0,-1,1630,1170,0,0
413,-146,0,0,0,0,0,0,0,0,0,-1,1637,1170,0,0
420,-146,0,0,0,0,0,0,0,0,0,-1,1644,1170,0,0
427,-146,0,0,0,0,0,0,0,0,0,-1,1651,1170,0,0
434,-146,0,0,0,0,0,0,0,0,0,-1,1658,1170,0,0
441,-146,0,0,0,0,0,0,0,0,0,-1,1665,1170,0,0
448,-146,0,0,0,0,0,0,0,0,0,-1,1672,1170,0,0
455,-146,0,0,0,0,0,0,0,0,0,-1,1679,1170,0,0
462,-146,0,0,0,0,0,0,0,0,0,-1,1686,1170,0,0
469,-146,0,0,0,0,0,0,0,0,0,-1,1693,1170,0,0
476,-146,0,0,0,0,0,0,0,0,0,-1,1700,1170,0,0
483,-146,0,0,0,0,0,0,0,0,0,-1,1707,1170,0,0
490,-146,0,0,0,0,0,0,0,0,0,-1,1714,1170,0,0
497,-146,0,0,0,0,0,0,0,0,0,-1,1721,1170,0,0
504,-146,0,0,0,0,0,0,0,0,0,-1,1728,1170,0,0
511,-146,0,0,0,0,0,0,0,0,0,-1,1735,1170,0,0
518,-146,0,0,0,0,0,0,0,0,0,-1,1742,1170,0,0
525,-146,0,0,0,0,0,0,0,0,0,-1,1749,1170,0,0
532,-146,0,0,0,0,0,0,0,0,0,-1,1756,1170,0,0
539,-146,0,0,0,0,0,0,0,0,0,-1,1763,1170,0,0
546,-146,0,0,0,0,0,0,0,0,0,-1,1770,1170,0,0
553,-146,0,0,0,0,0,0,0,0,0,-1,1777,1170,0,0
560,-146,0,0,0,0,0,0,0,0,0,-1,1784,1170,0,0
567,-146,0,0,0,0,0,0,0,0,0,-1,1791,1170,0,0
574,-146,0,0,0,0,0,0,0,0,0,-1,1798,1170,0,0
581,-146,0,0,0,0,0,0,0,0,0,-1,1805,1170,0,0
588,-146,0,0,0,0,0,0,0,0,0,-1,1812,1170,0,0
595,-146,0,0,0,0,0,0,0,0,0,-1,1819,1170,0,0
602,-146,0,0,0,0,0,0,0,0,0,-1,1826,1170,0,0
609,-146,0,0,0,0,0,0,0,0,0,-1,1833,1170,0,0
616,-146,0,0,0,0,0,0,0,0,0,-1,1840,1170,0,0
623,-146,0,0,0,0,0,0,0,0,0,-1,1847,1170,0,0
630,-146,0,0,0,0,0,0,0,0,0,-1,1854,1170,0,0
637,-146,44.9716,2.51892,-0.00576253,-0.000632265,-0.00484283,0.00228283,-0.00867763,-1.02895,0.0066774,0.0425484,1861,1170,44.9716,-2.51893
644,-146,45.0389,2.55859,-0.00497066,-0.000527571,-0.00343743,0.0013437,-0.00684194,-1.07228,0.00506891,0.0402328,1868,1170,45.039,-2.55863
651,-146,44.9845,2.66638,-0.0039677,-0.000179144,-0.0025797,0.00112707,-0.00527392,-1.10209,0.00394566,0.0375657,1875,1170,44.9845,-2.6664
658,-146,44.9576,2.77148,-0.00274626,0.000126294,-0.00196679,0.00112541,-0.00374538,-1.10077,0.00294464,0.0407427,1882,1170,44.9577,-2.77151
665,-146,45.0197,2.8158,-0.00147426,0.000367945,-0.00146495,0.00117731,-0.00228362,-1.06605,0.00203191,0.042068,1889,1170,45.0197,-2.8158
672,-146,44.9963,2.72168,-0.000615691,0.000416713,-0.000893687,0.000932567,-0.00113155,-1.04729,0.00119356,0.039562,1896,1170,44.9963,-2.72163
679,-146,45.0415,2.64856,-0.00041871,0.000472493,-0.000373479,0.00060831,-0.000554527,-1.22201,0.000671603,0.0309795,1903,1170,45.0415,-2.64853
686,-146,44.9098,2.66772,-0.000458377,0.000170863,6.92175e-05,0.000178387,-0.000465901,1.46252,0.000384128,0.0220288,1910,1170,44.9098,-2.66774
693,-146,44.9507,2.58264,-0.00053592,5.02123e-05,0.000430883,0.000278248,-0.000763957,1.08404,0.000623118,0.0137058,1917,1170,44.9507,-2.58259
700,-146,45.0188,2.32129,0,0,0,0,0,0,0,-1,1924,1170,45.0188,-2.32131
707,-146,29.9441,6.94653,0,0,0,0,0,0,0,-1,1931,1170,29.9441,-6.94652
714,-146,31.325,6.13245,0,0,0,0,0,0,0,-1,1938,1170,31.325,-6.1325
721,-146,39.7229,6.84302,0,0,0,0,0,0,0,-1,1945,1170,39.7229,-6.84299
728,-146,40.153,6.31372,0,0,0,0,0,0,0,-1,1952,1170,40.153,-6.31368
735,-146,39.7377,6.73328,0,0,0,0,0,0,0,-1,1959,1170,39.7376,-6.73323
742,-146,39.748,5.97168,-0.001591,0.000244851,0.00260227,0.00208635,-0.00343249,0.954955,0.00321774,0.0168391,1966,1170,39.748,-5.97168
749,-146,39.7216,5.63257,-0.00169154,0.000964036,0.00283295,0.00276492,-0.00349243,1.00454,0.00362082,0.0148101,1973,1170,39.7215,-5.63261
756,-146,39.6783,5.27917,-0.00182601,0.00252561,0.002387,0.00357965,-0.00288004,1.15497,0.00373679,0.0108439,1980,1170,39.6784,-5.27914
763,-146,39.6392,4.93848,-0.00191233,0.00458971,0.00158666,0.00495623,-0.00227885,1.34378,0.00427145,0.0111688,1987,1170,39.6391,-4.93842
770,-146,39.6436,4.6106,-0.00231466,0.00709671,0.000217041,0.00710171,-0.00231967,1.54775,0.00566819,0.0137292,1994,1170,39.6436,-4.61058
777,-146,39.672,4.41846,-0.00320507,0.0100874,-0.00193812,0.0103642,-0.00348189,-1.42892,0.00831673,0.0246972,2001,1170,39.672,-4.41851
784,-146,39.5393,4.63647,-0.0047888,0.0137516,-0.00525263,0.0151363,-0.00617349,-1.31304,0.0126608,0.0415292,2008,1170,39.5393,-4.63645
791,-146,39.5735,4.83386,-0.00718868,0.017972,-0.01032,0.0216633,-0.01088,-1.22729,0.0191296,0.0454335,2015,1170,39.5734,-4.83386
798,-146,39.6089,3.56482,-0.0106718,0.0229702,-0.0180029,0.0307876,-0.0184892,-1.16113,0.0287438,0.0434476,2022,1170,39.6089,-3.56477
805,-146,39.6436,2.92126,0,0,0,0,0,0,0,-1,2029,1170,39.6435,-2.92127
812,-146,0,0,0,0,0,0,0,0,0,-1,2036,1170,0,0
-700,-153,0,0,0,0,0,0,0,0,0,-1,524,1177,0,0
-693,-153,0,0,0,0,0,0,0,0,0,-1,531,1177,0,0
-686,-153,-31.3682,0.410522,0,0,0,0,0,0,0,-1,538,1177,-31.3682,-0.410509
-679,-153,-30.3531,0.714966,0,0,0,0,0,0,0,-1,545,1177,-30.3531,-0.714931
-672,-153,-29.3064,0.332397,0.138697,0.0580827,-0.0334297,0.150756,0.0460237,-0.346199,0.0892119,0.046556,552,1177,-29.3064,-0.332425
-665,-153,-28.2978,-0.029541,0.112902,0.0491591,-0.0267641,0.122649,0.039412,-0.349257,0.0723027,0.048072,559,1177,-28.2978,0.0295749
-658,-153,-27.0771,0.402954,0,0,0,0,0,0,0,-1,566,1177,-27.0771,-0.402949
-651,-153,-27.1704,0.879761,0.0659801,0.0317375,-0.0148691,0.0715354,0.0261822,-0.357557,0.0417925,0.0483858,573,1177,-27.1704,-0.879738
-644,-153,-27.2158,1.38281,0.0465542,0.0239433,-0.0100745,0.0503917,0.0201058,-0.363943,0.0292909,0.0280517,580,1177,-27.2158,-1.38283
-637,-153,-27.2538,1.82886,0.0302522,0.0175485,-0.00634903,0.0328813,0.0149195,-0.392587,0.0190111,0.0119146,587,1177,-27.2538,-1.82889
-630,-153,-27.2865,2.2168,0.0176953,0.0112036,-0.00339283,0.0191448,0.009754,-0.403766,0.0110539,0.0105902,594,1177,-27.2865,-2.21675
-623,-153,-27.3151,2.60266,0.00787191,0.00598864,-0.00126312,0.00850576,0.00535479,-0.465097,0.00496545,0.0103739,601,1177,-27.3151,-2.60271
-616,-153,-27.3461,2.98914,0.00229224,0.00223391,3.23979e-06,0.00229242,0.00223373,0.0553129,0.0015091,0.0123679,608,1177,-27.3462,-2.98914
-609,-153,-27.3076,3.37451,0.000682177,0.00110359,0.000314433,0.00127139,0.00051438,1.08059,0.000738479,0.0198858,615,1177,-27.3076,-3.37454
-602,-153,-27.2574,3.75562,0,0,0,0,0,0,0,-1,622,1177,-27.2574,-3.75559
-595,-153,-27.6691,4.29492,0,0,0,0,0,0,0,-1,629,1177,-27.6691,-4.29495
-588,-153,-26.1733,4.40442,0,0,0,0,0,0,0,-1,636,1177,-26.1734,-4.40446
-581,-153,-25.6566,4.79578,0,0,0,0,0,0,0,-1,643,1177,-25.6566,-4.79579
-574,-153,-25.4814,5.16956,0,0,0,0,0,0,0,-1,650,1177,-25.4814,-5.16961
-567,-153,-33.1028,0.598633,0,0,0,0,0,0,0,-1,657,1177,-33.1028,-0.598673
-560,-153,-33.1724,0.710327,-0.00045029,0.000145347,-0.000124738,0.000170414,-0.000475357,-1.37248,0.000386444,0.0454301,664,1177,-33.1724,-0.710372
-553,-153,-33.1517,0.7771,-0.000892554,0.000278283,-0.000130405,0.000292632,-0.000906903,-1.46121,0.000722186,0.0354439,671,1177,-33.1517,-0.777078
-546,-153,-33.1323,0.651001,-0.000996259,0.000149378,-0.000142456,0.000166826,-0.00101371,-1.44892,0.000737728,0.0382366,678,1177,-33.1324,-0.651018
-539,-153,-33.2149,0.538574,-0.00100202,1.29202e-05,0.000233439,6.40373e-05,-0.00105314,1.35523,0.000724383,0.0410838,685,1177,-33.2149,-0.538525
-532,-153,-33.2947,0.589111,-0.000496006,-0.00064781,0.00110846,0.000539148,-0.00168296,0.751214,0.00133839,0.0428905,692,1177,-33.2947,-0.589153
-525,-153,-33.3278,0.892944,0.0008944,-0.00179199,0.00245964,0.0023537,-0.0032513,0.535478,0.00324985,0.0416493,699,1177,-33.3278,-0.892979
-518,-153,0,0,0,0,0,0,0,0,0,-1,706,1177,0,0
-511,-153,0,0,0,0,0,0,0,0,0,-1,713,1177,0,0
-504,-153,0,0,0,0,0,0,0,0,0,-1,720,1177,0,0
-497,-153,0,0,0,0,0,0,0,0,0,-1,727,1177,0,0
-490,-153,0,0,0,0,0,0,0,0,0,-1,734,1177,0,0
-483,-153,0,0,0,0,0,0,0,0,0,-1,741,1177,0,0
-476,-153,0,0,0,0,0,0,0,0,0,-1,748,1177,0,0
-469,-153,0,0,0,0,0,0,0,0,0,-1,755,1177,0,0
-462,-153,0,0,0,0,0,0,0,0,0,-1,762,1177,0,0
-455,-153,0,0,0,0,0,0,0,0,0,-1,769,1177,0,0
-448,-153,0,0,0,0,0,0,0,0,0,-1,776,1177,0,0
-441,-153,0,0,0,0,0,0,0,0,0,-1,783,1177,0,0
-434,-153,0,0,0,0,0,0,0,0,0,-1,790,1177,0,0
-427,-153,0,0,0,0,0,0,0,0,0,-1,797,1177,0,0
-420,-153,0,0,0,0,0,0,0,0,0,-1,804,1177,0,0
-413,-153,0,0,0,0,0,0,0,0,0,-1,811,1177,0,0
-406,-153,0,0,0,0,0,0,0,0,0,-1,818,1177,0,0
-399,-153,0,0,0,0,0,0,0,0,0,-1,825,1177,0,0
-392,-153,0,0,0,0,0,0,0,0,0,-1,832,1177,0,0
-385,-153,0,0,0,0,0,0,0,0,0,-1,839,1177,0,0
-378,-153,0,0,0,0,0,0,0,0,0,-1,846,1177,0,0
-371,-153,0,0,0,0,0,0,0,0,0,-1,853,1177,0,0
-364,-153,0,0,0,0,0,0,0,0,0,-1,860,1177,0,0
-357,-153,0,0,0,0,0,0,0,0,0,-1,867,1177,0,0
-350,-153,0,0,0,0,0,0,0,0,0,-1,874,1177,0,0
-343,-153,0,0,0,0,0,0,0,0,0,-1,881,1177,0,0
-336,-153,0,0,0,0,0,0,0,0,0,-1,888,1177,0,0
-329,-153,0,0,0,0,0,0,0,0,0,-1,895,1177,0,0
-322,-153,0,0,0,0,0,0,0,0,0,-1,902,1177,0,0
-315,-153,0,0,0,0,0,0,0,0,0,-1,909,1177,0,0
-308,-153,0,0,0,0,0,0,0,0,0,-1,916,1177,0,0
-301,-153,0,0,0,0,0,0,0,0,0,-1,923,1177,0,0
-294,-153,0,0,0,0,0,0,0,0,0,-1,930,1177,0,0
-287,-153,0,0,0,0,0,0,0,0,0,-1,937,1177,0,0
-280,-153,0,0,0,0,0,0,0,0,0,-1,944,1177,0,0
-273,-153,0,0,0,0,0,0,0,0,0,-1,951,1177,0,0
-266,-153,0,0,0,0,0,0,0,0,0,-1,958,1177,0,0
-259,-153,0,0,0,0,0,0,0,0,0,-1,965,1177,0,0
-252,-153,0,0,0,0,0,0,0,0,0,-1,972,1177,0,0
-245,-153,0,0,0,0,0,0,0,0,0,-1,979,1177,0,0
-238,-153,0,0,0,0,0,0,0,0,0,-1,986,1177,0,0
-231,-153,0,0,0,0,0,0,0,0,0,-1,993,1177,0,0
-224,-153,0,0,0,0,0,0,0,0,0,-1,1000,1177,0,0
-217,-153,0,0,0,0,0,0,0,0,0,-1,1007,1177,0,0
-210,-153,0,0,0,0,0,0,0,0,0,-1,1014,1177,0,0
-203,-153,0,0,0,0,0,0,0,0,0,-1,1021,1177,0,0
-196,-153,0,0,0,0,0,0,0,0,0,-1,1028,1177,0,0
-189,-153,0,0,0,0,0,0,0,0,0,-1,1035,1177,0,0
-182,-153,0,0,0,0,0,0,0,0,0,-1,1042,1177,0,0
-175,-153,0,0,0,0,0,0,0,0,0,-1,1049,1177,0,0
-168,-153,0,0,0,0,0,0,0,0,0,-1,1056,1177,0,0
-161,-153,0,0,0,0,0,0,0,0,0,-1,1063,1177,0,0
-154,-153,0,0,0,0,0,0,0,0,0,-1,1070,1177,0,0
-147,-153,0,0,0,0,0,0,0,0,0,-1,1077,1177,0,0
-140,-153,0,0,0,0,0,0,0,0,0,-1,1084,1177,0,0
-133,-153,0,0,0,0,0,0,0,0,0,-1,1091,1177,0,0
-126,-153,0,0,0,0,0,0,0,0,0,-1,1098,1177,0,0
-119,-153,0,0,0,0,0,0,0,0,0,-1,1105,1177,0,0
-112,-153,0,0,0,0,0,0,0,0,0,-1,1112,1177,0,0
-105,-153,0,0,0,0,0,0,0,0,0,-1,1119,1177,0,0
-98,-153,0,0,0,0,0,0,0,0,0,-1,1126,1177,0,0
-91,-153,0,0,0,0,0,0,0,0,0,-1,1133,1177,0,0
-84,-153,0,0,0,0,0,0,0,0,0,-1,1140,1177,0,0
-77,-153,0,0,0,0,0,0,0,0,0,-1,1147,1177,0,0
-70,-153,0,0,0,0,0,0,0,0,0,-1,1154,1177,0,0
-63,-153,0,0,0,0,0,0,0,0,0,-1,1161,1177,0,0
-56,-153,0,0,0,0,0,0,0,0,0,-1,1168,1177,0,0
-49,-153,0,0,0,0,0,0,0,0,0,-1,1175,1177,0,0
-42,-153,0,0,0,0,0,0,0,0,0,-1,1182,1177,0,0
-35,-153,0,0,0,0,0,0,0,0,0,-1,1189,1177,0,0
-28,-153,0,0,0,0,0,0,0,0,0,-1,1196,1177,0,0
-21,-153,0,0,0,0,0,0,0,0,0,-1,1203,1177,0,0
-14,-153,0,0,0,0,0,0,0,0,0,-1,1210,1177,0,0
-7,-153,0,0,0,0,0,0,0,0,0,-1,1217,1177,0,0
0,-153,0,0,0,0,0,0,0,0,0,-1,1224,1177,0,0
7,-153,0,0,0,0,0,0,0,0,0,-1,1231,1177,0,0
14,-153,0,0,0,0,0,0,0,0,0,-1,1238,1177,0,0
21,-153,0,0,0,0,0,0,0,0,0,-1,1245,1177,0,0
28,-153,0,0,0,0,0,0,0,0,0,-1,1252,1177,0,0
35,-153,0,0,0,0,0,0,0,0,0,-1,1259,1177,0,0
42,-153,0,0,0,0,0,0,0,0,0,-1,1266,1177,0,0
49,-153,0,0,0,0,0,0,0,0,0,-1,1273,1177,0,0
56,-153,0,0,0,0,0,0,0,0,0,-1,1280,1177,0,0
63,-153,0,0,0,0,0,0,0,0,0,-1,1287,1177,0,0
70,-153,0,0,0,0,0,0,0,0,0,-1,1294,1177,0,0
77,-153,0,0,0,0,0,0,0,0,0,-1,1301,1177,0,0
84,-153,0,0,0,0,0,0,0,0,0,-1,1308,1177,0,0
91,-153,0,0,0,0,0,0,0,0,0,-1,1315,1177,0,0
98,-153,0,0,0,0,0,0,0,0,0,-1,1322,1177,0,0
105,-153,0,0,0,0,0,0,0,0,0,-1,1329,1177,0,0
112,-153,0,0,0,0,0,0,0,0,0,-1,1336,1177,0,0
119,-153,0,0,0,0,0,0,0,0,0,-1,1343,1177,0,0
126,-153,0,0,0,0,0,0,0,0,0,-1,1350,1177,0,0
133,-153,0,0,0,0,0,0,0,0,0,-1,1357,1177,0,0
140,-153,0,0,0,0,0,0,0,0,0,-1,1364,1177,0,0
147,-153,0,0,0,0,0,0,0,0,0,-1,1371,1177,0,0
154,-153,0,0,0,0,0,0,0,0,0,-1,1378,1177,0,0
161,-153,0,0,0,0,0,0,0,0,0,-1,1385,1177,0,0
168,-153,0,0,0,0,0,0,0,0,0,-1,1392,1177,0,0
175,-153,0,0,0,0,0,0,0,0,0,-1,1399,1177,0,0
182,-153,0,0,0,0,0,0,0,0,0,-1,1406,1177,0,0
189,-153,0,0,0,0,0,0,0,0,0,-1,1413,1177,0,0
196,-153,0,0,0,0,0,0,0,0,0,-1,1420,1177,0,0
203,-153,0,0,0,0,0,0,0,0,0,-1,1427,1177,0,0
210,-153,0,0,0,0,0,0,0,0,0,-1,1434,1177,0,0
217,-153,0,0,0,0,0,0,0,0,0,-1,1441,1177,0,0
224,-153,0,0,0,0,0,0,0,0,0,-1,1448,1177,0,0
231,-153,0,0,0,0,0,0,0,0,0,-1,1455,1177,0,0
238,-153,0,0,0,0,0,0,0,0,0,-1,1462,1177,0,0
245,-153,0,0,0,0,0,0,0,0,0,-1,1469,1177,0,0
252,-153,0,0,0,0,0,0,0,0,0,-1,1476,1177,0,0
259,-153,0,0,0,0,0,0,0,0,0,-1,1483,1177,0,0
266,-153,0,0,0,0,0,0,0,0,0,-1,1490,1177,0,0
273,-153,0,0,0,0,0,0,0,0,0,-1,1497,1177,0,0
280,-153,0,0,0,0,0,0,0,0,0,-1,1504,1177,0,0
287,-153,0,0,0,0,0,0,0,0,0,-1,1511,1177,0,0
294,-153,0,0,0,0,0,0,0,0,0,-1,1518,1177,0,0
301,-153,0,0,0,0,0,0,0,0,0,-1,1525,1177,0,0
308,-153,0,0,0,0,0,0,0,0,0,-1,1532,1177,0,0
315,-153,0,0,0,0,0,0,0,0,0,-1,1539,1177,0,0
322,-153,0,0,0,0,0,0,0,0,0,-1,1546,1177,0,0
329,-153,0,0,0,0,0,0,0,0,0,-1,1553,1177,0,0
336,-153,0,0,0,0,0,0,0,0,0,-1,1560,1177,0,0
343,-153,0,0,0,0,0,0,0,0,0,-1,1567,1177,0,0
350,-153,0,0,0,0,0,0,0,0,0,-1,1574,1177,0,0
357,-153,0,0,0,0,0,0,0,0,0,-1,1581,1177,0,0
364,-153,0,0,0,0,0,0,0,0,0,-1,1588,1177,0,0
371,-153,0,0,0,0,0,0,0,0,0,-1,1595,1177,0,0
378,-153,0,0,0,0,0,0,0,0,0,-1,1602,1177,0,0
385,-153,0,0,0,0,0,0,0,0,0,-1,1609,1177,0,0
392,-153,0,0,0,0,0,0,0,0,0,-1,1616,1177,0,0
399,-153,0,0,0,0,0,0,0,0,0,-1,1623,1177,0,0
406,-153,0,0,0,0,0,0,0,0,0,-1,1630,1177,0,0
413,-153,0,0,0,0,0,0,0,0,0,-1,1637,1177,0,0
420,-153,0,0,0,0,0,0,0,0,0,-1,1644,1177,0,0
427,-153,0,0,0,0,0,0,0,0,0,-1,1651,1177,0,0
434,-153,0,0,0,0,0,0,0,0,0,-1,1658,1177,0,0
441,-153,0,0,0,0,0,0,0,0,0,-1,1665,1177,0,0
448,-153,0,0,0,0,0,0,0,0,0,-1,1672,1177,0,0
455,-153,0,0,0,0,0,0,0,0,0,-1,1679,1177,0,0
462,-153,0,0,0,0,0,0,0,0,0,-1,1686,1177,0,0
469,-153,0,0,0,0,0,0,0,0,0,-1,1693,1177,0,0
476,-153,0,0,0,0,0,0,0,0,0,-1,1700,1177,0,0
483,-153,0,0,0,0,0,0,0,0,0,-1,1707,1177,0,0
490,-153,0,0,0,0,0,0,0,0,0,-1,1714,1177,0,0
497,-153,0,0,0,0,0,0,0,0,0,-1,1721,1177,0,0
504,-153,0,0,0,0,0,0,0,0,0,-1,1728,1177,0,0
511,-153,0,0,0,0,0,0,0,0,0,-1,1735,1177,0,0
518,-153,0,0,0,0,0,0,0,0,0,-1,1742,1177,0,0
525,-153,0,0,0,0,0,0,0,0,0,-1,1749,1177,0,0
532,-153,0,0,0,0,0,0,0,0,0,-1,1756,1177,0,0
539,-153,0,0,0,0,0,0,0,0,0,-1,1763,1177,0,0
546,-153,0,0,0,0,0,0,0,0,0,-1,1770,1177,0,0
553,-153,0,0,0,0,0,0,0,0,0,-1,1777,1177,0,0
560,-153,0,0,0,0,0,0,0,0,0,-1,1784,1177,0,0
567,-153,0,0,0,0,0,0,0,0,0,-1,1791,1177,0,0
574,-153,0,0,0,0,0,0,0,0,0,-1,1798,1177,0,0
581,-153,0,0,0,0,0,0,0,0,0,-1,1805,1177,0,0
588,-153,0,0,0,0,0,0,0,0,0,-1,1812,1177,0,0
595,-153,0,0,0,0,0,0,0,0,0,-1,1819,1177,0,0
602,-153,0,0,0,0,0,0,0,0,0,-1,1826,1177,0,0
609,-153,0,0,0,0,0,0,0,0,0,-1,1833,1177,0,0
616,-153,0,0,0,0,0,0,0,0,0,-1,1840,1177,0,0
623,-153,0,0,0,0,0,0,0,0,0,-1,1847,1177,0,0
630,-153,0,0,0,0,0,0,0,0,0,-1,1854,1177,0,0
637,-153,45.0148,2.64441,-0.00603708,0.000244865,-0.0041684,0.00232321,-0.00811543,-1.10827,0.00632846,0.0438874,1861,1177,45.0147,-2.64439
644,-153,44.9485,2.56335,-0.0050436,0.000161466,-0.00299142,0.001524,-0.00640614,-1.14339,0.00485909,0.0390818,1868,1177,44.9484,-2.56336
651,-153,44.9022,2.52234,-0.00385898,0.000329873,-0.00224562,0.00130619,-0.00483529,-1.16069,0.00373583,0.0304,1875,1177,44.9022,-2.5223
658,-153,44.9681,2.55237,-0.00246015,0.000472578,-0.00173108,0.00127488,-0.00326245,-1.1368,0.00270211,0.0339265,1882,1177,44.9682,-2.5524
665,-153,44.9407,2.60229,-0.00107471,0.000539967,-0.00128436,0.00124966,-0.0017844,-1.06599,0.00176076,0.0376377,1889,1177,44.9407,-2.60236
672,-153,44.907,2.599,-0.000250862,0.000402773,-0.000696913,0.000845694,-0.000693783,-1.00465,0.000890259,0.0366407,1896,1177,44.9069,-2.59902
679,-153,44.9036,2.59595,-0.000156866,0.000331632,-0.000152868,0.000375525,-0.000200759,-1.29118,0.000337779,0.0284742,1903,1177,44.9035,-2.59597
686,-153,44.9275,2.60815,-0.000290287,-3.03835e-05,0.000298673,0.000165384,-0.000486054,0.990594,0.000391003,0.0174991,1910,1177,44.9275,-2.60817
693,-153,44.9786,2.495,-0.000441474,-0.000163687,0.000676277,0.000387812,-0.000992973,0.88668,0.000822322,0.0280269,1917,1177,44.9786,-2.49499
700,-153,45.0417,2.29883,0,0,0,0,0,0,0,-1,1924,1177,45.0417,-2.29885
707,-153,29.6483,6.6842,0,0,0,0,0,0,0,-1,1931,1177,29.6483,-6.68415
714,-153,36.0046,6.78418,0,0,0,0,0,0,0,-1,1938,1177,36.0046,-6.78418
721,-153,36.4866,6.47595,0,0,0,0,0,0,0,-1,1945,1177,36.4866,-6.47593
728,-153,39.9515,5.92847,0,0,0,0,0,0,0,-1,1952,1177,39.9515,-5.92849
735,-153,39.3519,6.28931,-0.00164643,-0.00038344,0.0025229,0.0015858,-0.00361567,0.908031,0.00307835,0.0320121,1959,1177,39.3519,-6.28929
742,-153,39.3815,6.01038,-0.00167635,8.80201e-06,0.00284548,0.00213383,-0.00380137,0.92934,0.00347148,0.0138974,1966,1177,39.3815,-6.01037
749,-153,39.3564,5.66589,-0.00157064,0.000895819,0.00304736,0.00295003,-0.00362486,0.977669,0.00380267,0.0145883,1973,1177,39.3565,-5.66589
756,-153,39.3269,5.29321,-0.00135599,0.00270787,0.00276668,0.00410861,-0.00275673,1.10213,0.00398924,0.00996725,1980,1177,39.3269,-5.29316
763,-153,39.2877,4.93518,-0.00103373,0.00505646,0.00228785,0.00582015,-0.00179742,1.24862,0.00459788,0.0103701,1987,1177,39.2877,-4.93518
770,-153,39.2903,4.58875,-0.000929686,0.00794494,0.00144094,0.00817304,-0.00115778,1.4138,0.00587278,0.0119792,1994,1177,39.2903,-4.5887
777,-153,39.3167,4.29138,-0.00121275,0.0114749,8.01414e-05,0.0114754,-0.00121326,1.56448,0.0080851,0.025551,2001,1177,39.3167,-4.29133
784,-153,39.1638,4.52771,-0.00205937,0.0158405,-0.00208971,0.0160812,-0.00230009,-1.45611,0.011564,0.0450746,2008,1177,39.1639,-4.52771
791,-153,39.4163,3.57373,-0.00348904,0.0209662,-0.00550996,0.0221503,-0.00467315,-1.35911,0.016546,0.0466651,2015,1177,39.4163,-3.57367
798,-153,39.3022,3.24414,-0.00569997,0.027166,-0.0108366,0.0304174,-0.00895138,-1.2793,0.0238293,0.0467805,2022,1177,39.3024,-3.24412
805,-153,39.2046,2.85339,0,0,0,0,0,0,0,-1,2029,1177,39.2047,-2.85342
812,-153,0,0,0,0,0,0,0,0,0,-1,2036,1177,0,0
-700,-160,0,0,0,0,0,0,0,0,0,-1,524,1184,0,0
-693,-160,0,0,0,0,0,0,0,0,0,-1,531,1184,0,0
-686,-160,-26.2714,0.487915,0,0,0,0,0,0,0,-1,538,1184,-26.2714,-0.487966
-679,-160,-29.5509,0.785645,0,0,0,0,0,0,0,-1,545,1184,-29.5509,-0.785647
-672,-160,-28.5607,0.37146,0.119689,0.0634759,-0.0303639,0.132958,0.0502068,-0.411993,0.0775261,0.0468552,552,1184,-28.5607,-0.371437
-665,-160,-27.5197,-0.0795898,0.0978109,0.0540159,-0.024249,0.108586,0.0432406,-0.418155,0.0631238,0.0469971,559,1184,-27.5197,0.0796499
-658,-160,-26.5164,-0.512451,0,0,0,0,0,0,0,-1,566,1184,-26.5164,0.512427
-651,-160,-26.8241,1.10132,0,0,0,0,0,0,0,-1,573,1184,-26.8241,-1.10136
-644,-160,-26.812,1.46912,0.0412695,0.0267785,-0.00876983,0.0453997,0.0226483,-0.440146,0.0262116,0.0348791,580,1184,-26.812,-1.46911
-637,-160,-26.824,1.83716,0.0271743,0.0196979,-0.00536821,0.0299776,0.0168945,-0.481258,0.0173542,0.0135544,587,1184,-26.824,-1.83714
-630,-160,-26.8835,2.19788,0.0163209,0.0128482,-0.0028136,0.0178908,0.0112783,-0.508939,0.0104457,0.00888529,594,1184,-26.8835,-2.19785
-623,-160,-26.9302,2.56848,0.00795111,0.00703807,-0.00106052,0.00864919,0.00633998,-0.582153,0.00517121,0.0122678,601,1184,-26.9302,-2.56847
-616,-160,-26.9445,2.98425,0.00251656,0.00267331,3.36981e-05,0.00268024,0.00250962,1.36777,0.00173276,0.010276,608,1184,-26.9444,-2.98425
-609,-160,-26.9468,3.43506,0.00063382,0.0010405,0.000213942,0.00113232,0.000542002,1.1654,0.000653944,0.01273,615,1184,-26.9468,-3.4351
-602,-160,-26.853,4.01831,0.000433074,0.000590603,5.80503e-05,0.000609684,0.000413993,1.25323,0.000359444,0.044202,622,1184,-26.853,-4.01828
-595,-160,-26.9156,4.79236,0,0,0,0,0,0,0,-1,629,1184,-26.9156,-4.79233
-588,-160,-26.9316,4.80334,0,0,0,0,0,0,0,-1,636,1184,-26.9317,-4.80335
-581,-160,-25.2925,4.6272,0,0,0,0,0,0,0,-1,643,1184,-25.2925,-4.62719
-574,-160,-28.1793,4.33484,0,0,0,0,0,0,0,-1,650,1184,-28.1792,-4.33488
-567,-160,-29.5828,0.643921,0,0,0,0,0,0,0,-1,657,1184,-29.5828,-0.643968
-560,-160,-33.1671,0.725098,0,0,0,0,0,0,0,-1,664,1184,-33.1671,-0.725069
-553,-160,-33.0922,0.703613,-0.000802287,5.91672e-05,-0.000249743,0.000126333,-0.000869453,-1.30807,0.00062601,0.0378683,671,1184,-33.0923,-0.70356
-546,-160,-33.0897,0.615479,-0.000813637,-2.35305e-05,-0.000240669,4.40051e-05,-0.000881173,-1.29722,0.000602653,0.0379025,678,1184,-33.0897,-0.615527
-539,-160,-33.1251,0.530762,-0.000769166,9.58522e-05,0.00011324,0.000110431,-0.000783745,1.44276,0.000562929,0.0390822,685,1184,-33.1252,-0.530733
-532,-160,-33.1715,0.623901,-0.000385064,-0.000152949,0.000829147,0.000568223,-0.00110624,0.854933,0.000983243,0.0423467,692,1184,-33.1715,-0.623946
-525,-160,-33.1517,0.801147,0.00105289,-0.000863723,0.00202305,0.00233313,-0.00214396,0.564207,0.00258562,0.0433912,699,1184,-33.1517,-0.801139
-518,-160,-33.0811,0.78064,0.00265101,-0.00140617,0.00341033,0.00459048,-0.00334564,0.517091,0.00460067,0.0426896,706,1184,-33.0811,-0.780701
-511,-160,0,0,0,0,0,0,0,0,0,-1,713,1184,0,0
-504,-160,0,0,0,0,0,0,0,0,0,-1,720,1184,0,0
-497,-160,0,0,0,0,0,0,0,0,0,-1,727,1184,0,0
-490,-160,0,0,0,0,0,0,0,0,0,-1,734,1184,0,0
-483,-160,0,0,0,0,0,0,0,0,0,-1,741,1184,0,0
-476,-160,0,0,0,0,0,0,0,0,0,-1,748,1184,0,0
-469,-160,0,0,0,0,0,0,0,0,0,-1,755,1184,0,0
-462,-160,0,0,0,0,0,0,0,0,0,-1,762,1184,0,0
-455,-160,0,0,0,0,0,0,0,0,0,-1,769,1184,0,0
-448,-160,0,0,0,0,0,0,0,0,0,-1,776,1184,0,0
-441,-160,0,0,0,0,0,0,0,0,0,-1,783,1184,0,0
-434,-160,0,0,0,0,0,0,0,0,0,-1,790,1184,0,0
-427,-160,0,0,0,0,0,0,0,0,0,-1,797,1184,0,0
-420,-160,0,0,0,0,0,0,0,0,0,-1,804,1184,0,0
-413,-160,0,0,0,0,0,0,0,0,0,-1,811,1184,0,0
-406,-160,0,0,0,0,0,0,0,0,0,-1,818,1184,0,0
-399,-160,0,0,0,0,0,0,0,0,0,-1,825,1184,0,0
-392,-160,0,0,0,0,0,0,0,0,0,-1,832,1184,0,0
-385,-160,0,0,0,0,0,0,0,0,0,-1,839,1184,0,0
-378,-160,0,0,0,0,0,0,0,0,0,-1,846,1184,0,0
-371,-160,0,0,0,0,0,0,0,0,0,-1,853,1184,0,0
-364,-160,0,0,0,0,0,0,0,0,0,-1,860,1184,0,0
-357,-160,0,0,0,0,0,0,0,0,0,-1,867,1184,0,0
-350,-160,0,0,0,0,0,0,0,0,0,-1,874,1184,0,0
-343,-160,0,0,0,0,0,0,0,0,0,-1,881,1184,0,0
-336,-160,0,0,0,0,0,0,0,0,0,-1,888,1184,0,0
-329,-160,0,0,0,0,0,0,0,0,0,-1,895,1184,0,0
-322,-160,0,0,0,0,0,0,0,0,0,-1,902,1184,0,0
-315,-160,0,0,0,0,0,0,0,0,0,-1,909,1184,0,0
-308,-160,0,0,0,0,0,0,0,0,0,-1,916,1184,0,0
-301,-160,0,0,0,0,0,0,0,0,0,-1,923,1184,0,0
-294,-160,0,0,0,0,0,0,0,0,0,-1,930,1184,0,0
-287,-160,0,0,0,0,0,0,0,0,0,-1,937,1184,0,0
-280,-160,0,0,0,0,0,0,0,0,0,-1,944,1184,0,0
-273,-160,0,0,0,0,0,0,0,0,0,-1,951,1184,0,0
-266,-160,0,0,0,0,0,0,0,0,0,-1,958,1184,0,0
-259,-160,0,0,0,0,0,0,0,0,0,-1,965,1184,0,0
-252,-160,0,0,0,0,0,0,0,0,0,-1,972,1184,0,0
-245,-160,0,0,0,0,0,0,0,0,0,-1,979,1184,0,0
-238,-160,0,0,0,0,0,0,0,0,0,-1,986,1184,0,0
-231,-160,0,0,0,0,0,0,0,0,0,-1,993,1184,0,0
-224,-160,0,0,0,0,0,0,0,0,0,-1,1000,1184,0,0
-217,-160,0,0,0,0,0,0,0,0,0,-1,1007,1184,0,0
-210,-160,0,0,0,0,0,0,0,0,0,-1,1014,1184,0,0
-203,-160,0,0,0,0,0,0,0,0,0,-1,1021,1184,0,0
-196,-160,0,0,0,0,0,0,0,0,0,-1,1028,1184,0,0
-189,-160,0,0,0,0,0,0,0,0,0,-1,1035,1184,0,0
-182,-160,0,0,0,0,0,0,0,0,0,-1,1042,1184,0,0
-175,-160,0,0,0,0,0,0,0,0,0,-1,1049,1184,0,0
-168,-160,0,0,0,0,0,0,0,0,0,-1,1056,1184,0,0
-161,-160,0,0,0,0,0,0,0,0,0,-1,1063,1184,0,0
-154,-160,0,0,0,0,0,0,0,0,0,-1,1070,1184,0,0
-147,-160,0,0,0,0,0,0,0,0,0,-1,1077,1184,0,0
-140,-160,0,0,0,0,0,0,0,0,0,-1,1084,1184,0,0
-133,-160,0,0,0,0,0,0,0,0,0,-1,1091,1184,0,0
-126,-160,0,0,0,0,0,0,0,0,0,-1,1098,1184,0,0
-119,-160,0,0,0,0,0,0,0,0,0,-1,1105,1184,0,0
-112,-160,0,0,0,0,0,0,0,0,0,-1,1112,1184,0,0
-105,-160,0,0,0,0,0,0,0,0,0,-1,1119,1184,0,0
-98,-160,0,0,0,0,0,0,0,0,0,-1,1126,1184,0,0
-91,-160,0,0,0,0,0,0,0,0,0,-1,1133,1184,0,0
-84,-160,0,0,0,0,0,0,0,0,0,-1,1140,1184,0,0
-77,-160,0,0,0,0,0,0,0,0,0,-1,1147,1184,0,0
-70,-160,0,0,0,0,0,0,0,0,0,-1,1154,1184,0,0
-63,-160,0,0,0,0,0,0,0,0,0,-1,1161,1184,0,0
-56,-160,0,0,0,0,0,0,0,0,0,-1,1168,1184,0,0
-49,-160,0,0,0,0,0,0,0,0,0,-1,1175,1184,0,0
-42,-160,0,0,0,0,0,0,0,0,0,-1,1182,1184,0,0
-35,-160,0,0,0,0,0,0,0,0,0,-1,1189,1184,0,0
-28,-160,0,0,0,0,0,0,0,0,0,-1,1196,1184,0,0
-21,-160,0,0,0,0,0,0,0,0,0,-1,1203,1184,0,0
-14,-160,0,0,0,0,0,0,0,0,0,-1,1210,1184,0,0
-7,-160,0,0,0,0,0,0,0,0,0,-1,1217,1184,0,0
0,-160,0,0,0,0,0,0,0,0,0,-1,1224,1184,0,0
7,-160,0,0,0,0,0,0,0,0,0,-1,1231,1184,0,0
14,-160,0,0,0,0,0,0,0,0,0,-1,1238,1184,0,0
21,-160,0,0,0,0,0,0,0,0,0,-1,1245,1184,0,0
28,-160,0,0,0,0,0,0,0,0,0,-1,1252,1184,0,0
35,-160,0,0,0,0,0,0,0,0,0,-1,1259,1184,0,0
42,-160,0,0,0,0,0,0,0,0,0,-1,1266,1184,0,0
49,-160,0,0,0,0,0,0,0,0,0,-1,1273,1184,0,0
56,-160,0,0,0,0,0,0,0,0,0,-1,1280,1184,0,0
63,-160,0,0,0,0,0,0,0,0,0,-1,1287,1184,0,0
70,-160,0,0,0,0,0,0,0,0,0,-1,1294,1184,0,0
77,-160,0,0,0,0,0,0,0,0,0,-1,1301,1184,0,0
84,-160,0,0,0,0,0,0,0,0,0,-1,1308,1184,0,0
91,-160,0,0,0,0,0,0,0,0,0,-1,1315,1184,0,0
98,-160,0,0,0,0,0,0,0,0,0,-1,1322,1184,0,0
105,-160,0,0,0,0,0,0,0,0,0,-1,1329,1184,0,0
112,-160,0,0,0,0,0,0,0,0,0,-1,1336,1184,0,0
119,-160,0,0,0,0,0,0,0,0,0,-1,1343,1184,0,0
126,-160,0,0,0,0,0,0,0,0,0,-1,1350,1184,0,0
133,-160,0,0,0,0,0,0,0,0,0,-1,1357,1184,0,0
140,-160,0,0,0,0,0,0,0,0,0,-1,1364,1184,0,0
147,-160,0,0,0,0,0,0,0,0,0,-1,1371,1184,0,0
154,-160,0,0,0,0,0,0,0,0,0,-1,1378,1184,0,0
161,-160,0,0,0,0,0,0,0,0,0,-1,1385,1184,0,0
168,-160,0,0,0,0,0,0,0,0,0,-1,1392,1184,0,0
175,-160,0,0,0,0,0,0,0,0,0,-1,1399,1184,0,0
182,-160,0,0,0,0,0,0,0,0,0,-1,1406,1184,0,0
189,-160,0,0,0,0,0,0,0,0,0,-1,1413,1184,0,0
196,-160,0,0,0,0,0,0,0,0,0,-1,1420,1184,0,0
203,-160,0,0,0,0,0,0,0,0,0,-1,1427,1184,0,0
210,-160,0,0,0,0,0,0,0,0,0,-1,1434,1184,0,0
217,-160,0,0,0,0,0,0,0,0,0,-1,1441,1184,0,0
224,-160,0,0,0,0,0,0,0,0,0,-1,1448,1184,0,0
231,-160,0,0,0,0,0,0,0,0,0,-1,1455,1184,0,0
238,-160,0,0,0,0,0,0,0,0,0,-1,1462,1184,0,0
245,-160,0,0,0,0,0,0,0,0,0,-1,1469,1184,0,0
252,-160,0,0,0,0,0,0,0,0,0,-1,1476,1184,0,0
259,-160,0,0,0,0,0,0,0,0,0,-1,1483,1184,0,0
266,-160,0,0,0,0,0,0,0,0,0,-1,1490,1184,0,0
273,-160,0,0,0,0,0,0,0,0,0,-1,1497,1184,0,0
280,-160,0,0,0,0,0,0,0,0,0,-1,1504,1184,0,0
287,-160,0,0,0,0,0,0,0,0,0,-1,1511,1184,0,0
294,-160,0,0,0,0,0,0,0,0,0,-1,1518,1184,0,0
301,-160,0,0,0,0,0,0,0,0,0,-1,1525,1184,0,0
308,-160,0,0,0,0,0,0,0,0,0,-1,1532,1184,0,0
315,-160,0,0,0,0,0,0,0,0,0,-1,1539,1184,0,0
322,-160,0,0,0,0,0,0,0,0,0,-1,1546,1184,0,0
329,-160,0,0,0,0,0,0,0,0,0,-1,1553,1184,0,0
336,-160,0,0,0,0,0,0,0,0,0,-1,1560,1184,0,0
343,-160,0,0,0,0,0,0,0,0,0,-1,1567,1184,0,0
350,-160,0,0,0,0,0,0,0,0,0,-1,1574,1184,0,0
357,-160,0,0,0,0,0,0,0,0,0,-1,1581,1184,0,0
364,-160,0,0,0,0,0,0,0,0,0,-1,1588,1184,0,0
371,-160,0,0,0,0,0,0,0,0,0,-1,1595,1184,0,0
378,-160,0,0,0,0,0,0,0,0,0,-1,1602,1184,0,0
385,-160,0,0,0,0,0,0,0,0,0,-1,1609,1184,0,0
392,-160,0,0,0,0,0,0,0,0,0,-1,1616,1184,0,0
399,-160,0,0,0,0,0,0,0,0,0,-1,1623,1184,0,0
406,-160,0,0,0,0,0,0,0,0,0,-1,1630,1184,0,0
413,-160,0,0,0,0,0,0,0,0,0,-1,1637,1184,0,0
420,-160,0,0,0,0,0,0,0,0,0,-1,1644,1184,0,0
427,-160,0,0,0,0,0,0,0,0,0,-1,1651,1184,0,0
434,-160,0,0,0,0,0,0,0,0,0,-1,1658,1184,0,0
441,-160,0,0,0,0,0,0,0,0,0,-1,1665,1184,0,0
448,-160,0,0,0,0,0,0,0,0,0,-1,1672,1184,0,0
455,-160,0,0,0,0,0,0,0,0,0,-1,1679,1184,0,0
462,-160,0,0,0,0,0,0,0,0,0,-1,1686,1184,0,0
469,-160,0,0,0,0,0,0,0,0,0,-1,1693,1184,0,0
476,-160,0,0,0,0,0,0,0,0,0,-1,1700,1184,0,0
483,-160,0,0,0,0,0,0,0,0,0,-1,1707,1184,0,0
490,-160,0,0,0,0,0,0,0,0,0,-1,1714,1184,0,0
497,-160,0,0,0,0,0,0,0,0,0,-1,1721,1184,0,0
504,-160,0,0,0,0,0,0,0,0,0,-1,1728,1184,0,0
511,-160,0,0,0,0,0,0,0,0,0,-1,1735,1184,0,0
518,-160,0,0,0,0,0,0,0,0,0,-1,1742,1184,0,0
525,-160,0,0,0,0,0,0,0,0,0,-1,1749,1184,0,0
532,-160,0,0,0,0,0,0,0,0,0,-1,1756,1184,0,0
539,-160,0,0,0,0,0,0,0,0,0,-1,1763,1184,0,0
546,-160,0,0,0,0,0,0,0,0,0,-1,1770,1184,0,0
553,-160,0,0,0,0,0,0,0,0,0,-1,1777,1184,0,0
560,-160,0,0,0,0,0,0,0,0,0,-1,1784,1184,0,0
567,-160,0,0,0,0,0,0,0,0,0,-1,1791,1184,0,0
574,-160,0,0,0,0,0,0,0,0,0,-1,1798,1184,0,0
581,-160,0,0,0,0,0,0,0,0,0,-1,1805,1184,0,0
588,-160,0,0,0,0,0,0,0,0,0,-1,1812,1184,0,0
595,-160,0,0,0,0,0,0,0,0,0,-1,1819,1184,0,0
602,-160,0,0,0,0,0,0,0,0,0,-1,1826,1184,0,0
609,-160,0,0,0,0,0,0,0,0,0,-1,1833,1184,0,0
616,-160,0,0,0,0,0,0,0,0,0,-1,1840,1184,0,0
623,-160,0,0,0,0,0,0,0,0,0,-1,1847,1184,0,0
630,-160,0,0,0,0,0,0,0,0,0,-1,1854,1184,0,0
637,-160,44.9253,2.88477,-0.0063786,0.000296284,-0.00330048,0.00165263,-0.00773495,-1.18088,0.00578672,0.0438721,1861,1184,44.9253,-2.88479
644,-160,44.8699,2.64258,-0.00510739,0.000205904,-0.00238335,0.00111831,-0.00601979,-1.20518,0.00443323,0.0420211,1868,1184,44.8699,-2.64255
651,-160,44.7429,2.5321,-0.00367687,0.000318867,-0.00178235,0.000998358,-0.00435636,-1.20657,0.00328794,0.0384976,1875,1184,44.743,-2.53208
658,-160,44.7664,2.49268,-0.00205016,0.000413958,-0.00141991,0.00106182,-0.00269802,-1.14274,0.00223821,0.0372727,1882,1184,44.7664,-2.49262
665,-160,44.8783,2.43445,-0.000554381,0.000390421,-0.00106676,0.0010847,-0.00124866,-0.993839,0.00134827,0.0367004,1889,1184,44.8783,-2.43441
672,-160,44.8965,2.56787,0.000226412,0.000141875,-0.000505987,0.000691893,-0.000323605,-0.743727,0.000599013,0.0317867,1896,1184,44.8965,-2.5679
679,-160,44.8839,2.56714,0.000217668,1.19448e-05,1.50532e-05,0.000218763,1.08491e-05,0.0726566,0.000142364,0.0244229,1903,1184,44.8839,-2.56708
686,-160,44.9351,2.57397,5.20484e-06,-0.000356615,0.000439047,0.000299153,-0.000650564,0.589972,0.000560692,0.0152203,1910,1184,44.935,-2.57399
693,-160,44.9995,2.4292,0,0,0,0,0,0,0,-1,1917,1184,44.9995,-2.42917
700,-160,42.8784,2.44617,0,0,0,0,0,0,0,-1,1924,1184,42.8785,-2.4462
707,-160,24.5115,6.27405,0,0,0,0,0,0,0,-1,1931,1184,24.5115,-6.27401
714,-160,35.6892,6.8905,0,0,0,0,0,0,0,-1,1938,1184,35.6892,-6.89048
721,-160,36.2388,6.37878,0,0,0,0,0,0,0,-1,1945,1184,36.2388,-6.37876
728,-160,38.9854,6.74316,0,0,0,0,0,0,0,-1,1952,1184,38.9854,-6.74319
735,-160,39.092,6.31543,-0.0015824,-0.000652848,0.00263985,0.00156283,-0.00379808,0.872535,0.00318354,0.0256324,1959,1184,39.092,-6.31537
742,-160,39.0031,5.95728,-0.00155905,-0.000168413,0.00293313,0.00215069,-0.00387815,0.901778,0.00352806,0.0150477,1966,1184,39.0031,-5.95727
749,-160,38.9768,5.61914,-0.0011924,0.000890043,0.00309423,0.00311354,-0.00341589,0.947699,0.00377112,0.0156775,1973,1184,38.9768,-5.61912
756,-160,38.9695,5.27161,-0.000618887,0.00284331,0.00294941,0.00453211,-0.00230769,1.05077,0.00401797,0.0101516,1980,1184,38.9695,-5.27164
763,-160,38.9221,4.93433,9.59228e-05,0.00533891,0.00268919,0.00647294,-0.00103811,1.17172,0.0046997,0.0114021,1987,1184,38.9221,-4.93434
770,-160,38.854,4.57959,0.000666541,0.00842573,0.00220868,0.00901038,8.18879e-05,1.31202,0.00597981,0.0223863,1994,1184,38.854,-4.57957
777,-160,38.8492,4.32385,0.000898718,0.0122512,0.00140986,0.0124237,0.000726248,1.44907,0.00805129,0.0350185,2001,1184,38.8492,-4.32386
784,-160,38.9479,3.96802,0.00060863,0.0170072,3.08837e-05,0.0170073,0.000608573,1.56891,0.0111409,0.0465832,2008,1184,38.9479,-3.96803
791,-160,38.9883,3.57678,-0.000107543,0.0226376,-0.00225527,0.0228591,-0.000329006,-1.47291,0.0153502,0.049339,2015,1184,38.9882,-3.57681
798,-160,38.7554,3.12891,-0.00139689,0.0295065,-0.00590036,0.0305947,-0.00248512,-1.38841,0.0212733,0.0466203,2022,1184,38.7554,-3.12888
805,-160,38.7546,2.4696,-0.00391575,0.037369,-0.0112748,0.0402475,-0.00679421,-1.32084,0.0293596,0.0446409,2029,1184,38.7546,-2.46957
812,-160,0,0,0,0,0,0,0,0,0,-1,2036,1184,0,0
-700,-167,0,0,0,0,0,0,0,0,0,-1,524,1191,0,0
-693,-167,0,0,0,0,0,0,0,0,0,-1,531,1191,0,0
-686,-167,-25.3492,0.168823,0,0,0,0,0,0,0,-1,538,1191,-25.3492,-0.168854
-679,-167,-25.596,0.425415,0,0,0,0,0,0,0,-1,545,1191,-25.596,-0.425378
-672,-167,-26.8815,-0.376587,0,0,0,0,0,0,0,-1,552,1191,-26.8815,0.376592
-665,-167,-26.8413,-0.00646973,0,0,0,0,0,0,0,-1,559,1191,-26.8413,0.00644331
-658,-167,-26.7571,0.420166,0,0,0,0,0,0,0,-1,566,1191,-26.7572,-0.420129
-651,-167,-26.6965,0.878418,0.0529005,0.038926,-0.00990637,0.0580358,0.0337906,-0.478251,0.0336577,0.0488008,573,1191,-26.6965,-0.878378
-644,-167,-26.4766,1.41492,0.0383046,0.0297676,-0.006242,0.041598,0.0264742,-0.485502,0.0243128,0.0373038,580,1191,-26.4765,-1.41486
-637,-167,-26.3948,1.82886,0.0260002,0.0219142,-0.0034371,0.0279557,0.0199588,-0.517255,0.0166254,0.0169136,587,1191,-26.3948,-1.82889
-630,-167,-26.4655,2.19641,0.0161545,0.0146208,-0.00159277,0.0171555,0.0136199,-0.561048,0.0104596,0.00911578,594,1191,-26.4654,-2.1964
-623,-167,-26.4967,2.56555,0.00839315,0.00831963,-0.000438648,0.00879657,0.0079162,-0.743591,0.00559406,0.0118717,601,1191,-26.4967,-2.56555
-616,-167,-26.5109,2.98169,0.00293975,0.00332683,0.00026036,0.00345771,0.00280887,1.10502,0.00212218,0.0149493,608,1191,-26.5108,-2.98163
-609,-167,-26.5221,3.4292,0.000705866,0.00106739,0.000212208,0.00116539,0.000607867,1.13817,0.000673045,0.0134568,615,1191,-26.5221,-3.42918
-602,-167,-26.5384,3.83728,0.000431763,0.000406985,-7.12034e-05,0.000491647,0.000347101,-0.699262,0.000291772,0.0164846,622,1191,-26.5384,-3.83734
-595,-167,-26.442,4.20679,0,0,0,0,0,0,0,-1,629,1191,-26.442,-4.20674
-588,-167,-26.6711,4.52026,0,0,0,0,0,0,0,-1,636,1191,-26.6711,-4.52023
-581,-167,-26.6655,4.78748,0,0,0,0,0,0,0,-1,643,1191,-26.6654,-4.78743
-574,-167,-24.1547,5.43677,0,0,0,0,0,0,0,-1,650,1191,-24.1547,-5.43682
-567,-167,-27.3643,2.55859,0,0,0,0,0,0,0,-1,657,1191,-27.3643,-2.55864
-560,-167,-33.1284,0.686279,0,0,0,0,0,0,0,-1,664,1191,-33.1284,-0.686309
-553,-167,-33.0822,0.689453,-0.000461001,-0.00023847,-0.000334655,2.93119e-06,-0.000702403,-0.945888,0.000469249,0.0387481,671,1191,-33.0822,-0.689442
-546,-167,-33.0912,0.663818,-0.000392133,-0.000367451,-0.000307748,-7.17966e-05,-0.000687788,-0.805439,0.000436565,0.0366346,678,1191,-33.0912,-0.663837
-539,-167,-33.0855,0.608887,-0.00034841,-0.000136924,4.2143e-05,-0.000128835,-0.000356499,1.38117,0.000208444,0.0373417,685,1191,-33.0855,-0.608905
-532,-167,-33.1202,0.67041,-0.000280456,-8.67359e-05,0.000665302,0.00048872,-0.000855912,0.857684,0.000785913,0.0403534,692,1191,-33.1202,-0.670461
-525,-167,-33.2351,0.636597,0.000745742,-0.000310029,0.00185971,0.00215103,-0.00171532,0.647109,0.00223696,0.0447216,699,1191,-33.2351,-0.63659
-518,-167,-33.1505,0.678345,0.00203911,-0.000481039,0.00327899,0.00429181,-0.00273374,0.601954,0.00408932,0.0434295,706,1191,-33.1505,-0.678388
-511,-167,0,0,0,0,0,0,0,0,0,-1,713,1191,0,0
-504,-167,0,0,0,0,0,0,0,0,0,-1,720,1191,0,0
-497,-167,0,0,0,0,0,0,0,0,0,-1,727,1191,0,0
-490,-167,0,0,0,0,0,0,0,0,0,-1,734,1191,0,0
-483,-167,0,0,0,0,0,0,0,0,0,-1,741,1191,0,0
-476,-167,0,0,0,0,0,0,0,0,0,-1,748,1191,0,0
-469,-167,0,0,0,0,0,0,0,0,0,-1,755,1191,0,0
-462,-167,0,0,0,0,0,0,0,0,0,-1,762,1191,0,0
-455,-167,0,0,0,0,0,0,0,0,0,-1,769,1191,0,0
-448,-167,0,0,0,0,0,0,0,0,0,-1,776,1191,0,0
-441,-167,0,0,0,0,0,0,0,0,0,-1,783,1191,0,0
-434,-167,0,0,0,0,0,0,0,0,0,-1,790,1191,0,0
-427,-167,0,0,0,0,0,0,0,0,0,-1,797,1191,0,0
-420,-167,0,0,0,0,0,0,0,0,0,-1,804,1191,0,0
-413,-167,0,0,0,0,0,0,0,0,0,-1,811,1191,0,0
-406,-167,0,0,0,0,0,0,0,0,0,-1,818,1191,0,0
-399,-167,0,0,0,0,0,0,0,0,0,-1,825,1191,0,0
-392,-167,0,0,0,0,0,0,0,0,0,-1,832,1191,0,0
-385,-167,0,0,0,0,0,0,0,0,0,-1,839,1191,0,0
-378,-167,0,0,0,0,0,0,0,0,0,-1,846,1191,0,0
-371,-167,0,0,0,0,0,0,0,0,0,-1,853,1191,0,0
-364,-167,0,0,0,0,0,0,0,0,0,-1,860,1191,0,0
-357,-167,0,0,0,0,0,0,0,0,0,-1,867,1191,0,0
-350,-167,0,0,0,0,0,0,0,0,0,-1,874,1191,0,0
-343,-167,0,0,0,0,0,0,0,0,0,-1,881,1191,0,0
-336,-167,0,0,0,0,0,0,0,0,0,-1,888,1191,0,0
-329,-167,0,0,0,0,0,0,0,0,0,-1,895,1191,0,0
-322,-167,0,0,0,0,0,0,0,0,0,-1,902,1191,0,0
-315,-167,0,0,0,0,0,0,0,0,0,-1,909,1191,0,0
-308,-167,0,0,0,0,0,0,0,0,0,-1,916,1191,0,0
-301,-167,0,0,0,0,0,0,0,0,0,-1,923,1191,0,0
-294,-167,0,0,0,0,0,0,0,0,0,-1,930,1191,0,0
-287,-167,0,0,0,0,0,0,0,0,0,-1,937,1191,0,0
-280,-167,0,0,0,0,0,0,0,0,0,-1,944,1191,0,0
-273,-167,0,0,0,0,0,0,0,0,0,-1,951,1191,0,0
-266,-167,0,0,0,0,0,0,0,0,0,-1,958,1191,0,0
-259,-167,0,0,0,0,0,0,0,0,0,-1,965,1191,0,0
-252,-167,0,0,0,0,0,0,0,0,0,-1,972,1191,0,0
-245,-167,0,0,0,0,0,0,0,0,0,-1,979,1191,0,0
-238,-167,0,0,0,0,0,0,0,0,0,-1,986,1191,0,0
-231,-167,0,0,0,0,0,0,0,0,0,-1,993,1191,0,0
-224,-167,0,0,0,0,0,0,0,0,0,-1,1000,1191,0,0
-217,-167,0,0,0,0,0,0,0,0,0,-1,1007,1191,0,0
-210,-167,0,0,0,0,0,0,0,0,0,-1,1014,1191,0,0
-203,-167,0,0,0,0,0,0,0,0,0,-1,1021,1191,0,0
-196,-167,0,0,0,0,0,0,0,0,0,-1,1028,1191,0,0
-189,-167,0,0,0,0,0,0,0,0,0,-1,1035,1191,0,0
-182,-167,0,0,0,0,0,0,0,0,0,-1,1042,1191,0,0
-175,-167,0,0,0,0,0,0,0,0,0,-1,1049,1191,0,0
-168,-167,0,0,0,0,0,0,0,0,0,-1,1056,1191,0,0
-161,-167,0,0,0,0,0,0,0,0,0,-1,1063,1191,0,0
-154,-167,0,0,0,0,0,0,0,0,0,-1,1070,1191,0,0
-147,-167,0,0,0,0,0,0,0,0,0,-1,1077,1191,0,0
-140,-167,0,0,0,0,0,0,0,0,0,-1,1084,1191,0,0
-133,-167,0,0,0,0,0,0,0,0,0,-1,1091,1191,0,0
-126,-167,0,0,0,0,0,0,0,0,0,-1,1098,1191,0,0
-119,-167,0,0,0,0,0,0,0,0,0,-1,1105,1191,0,0
-112,-167,0,0,0,0,0,0,0,0,0,-1,1112,1191,0,0
-105,-167,0,0,0,0,0,0,0,0,0,-1,1119,1191,0,0
-98,-167,0,0,0,0,0,0,0,0,0,-1,1126,1191,0,0
-91,-167,0,0,0,0,0,0,0,0,0,-1,1133,1191,0,0
-84,-167,0,0,0,0,0,0,0,0,0,-1,1140,1191,0,0
-77,-167,0,0,0,0,0,0,0,0,0,-1,1147,1191,0,0
-70,-167,0,0,0,0,0,0,0,0,0,-1,1154,1191,0,0
-63,-167,0,0,0,0,0,0,0,0,0,-1,1161,1191,0,0
-56,-167,0,0,0,0,0,0,0,0,0,-1,1168,1191,0,0
-49,-167,0,0,0,0,0,0,0,0,0,-1,1175,1191,0,0
-42,-167,0,0,0,0,0,0,0,0,0,-1,1182,1191,0,0
-35,-167,0,0,0,0,0,0,0,0,0,-1,1189,1191,0,0
-28,-167,0,0,0,0,0,0,0,0,0,-1,1196,1191,0,0
-21,-167,0,0,0,0,0,0,0,0,0,-1,1203,1191,0,0
-14,-167,0,0,0,0,0,0,0,0,0,-1,1210,1191,0,0
-7,-167,0,0,0,0,0,0,0,0,0,-1,1217,1191,0,0
0,-167,0,0,0,0,0,0,0,0,0,-1,1224,1191,0,0
7,-167,0,0,0,0,0,0,0,0,0,-1,1231,1191,0,0
14,-167,0,0,0,0,0,0,0,0,0,-1,1238,1191,0,0
21,-167,0,0,0,0,0,0,0,0,0,-1,1245,1191,0,0
28,-167,0,0,0,0,0,0,0,0,0,-1,1252,1191,0,0
35,-167,0,0,0,0,0,0,0,0,0,-1,1259,1191,0,0
42,-167,0,0,0,0,0,0,0,0,0,-1,1266,1191,0,0
49,-167,0,0,0,0,0,0,0,0,0,-1,1273,1191,0,0
56,-167,0,0,0,0,0,0,0,0,0,-1,1280,1191,0,0
63,-167,0,0,0,0,0,0,0,0,0,-1,1287,1191,0,0
70,-167,0,0,0,0,0,0,0,0,0,-1,1294,1191,0,0
77,-167,0,0,0,0,0,0,0,0,0,-1,1301,1191,0,0
84,-167,0,0,0,0,0,0,0,0,0,-1,1308,1191,0,0
91,-167,0,0,0,0,0,0,0,0,0,-1,1315,1191,0,0
98,-167,0,0,0,0,0,0,0,0,0,-1,1322,1191,0,0
105,-167,0,0,0,0,0,0,0,0,0,-1,1329,1191,0,0
112,-167,0,0,0,0,0,0,0,0,0,-1,1336,1191,0,0
119,-167,0,0,0,0,0,0,0,0,0,-1,1343,1191,0,0
126,-167,0,0,0,0,0,0,0,0,0,-1,1350,1191,0,0
133,-167,0,0,0,0,0,0,0,0,0,-1,1357,1191,0,0
140,-167,0,0,0,0,0,0,0,0,0,-1,1364,1191,0,0
147,-167,0,0,0,0,0,0,0,0,0,-1,1371,1191,0,0
154,-167,0,0,0,0,0,0,0,0,0,-1,1378,1191,0,0
161,-167,0,0,0,0,0,0,0,0,0,-1,1385,1191,0,0
168,-167,0,0,0,0,0,0,0,0,0,-1,1392,1191,0,0
175,-167,0,0,0,0,0,0,0,0,0,-1,1399,1191,0,0
182,-167,0,0,0,0,0,0,0,0,0,-1,1406,1191,0,0
189,-167,0,0,0,0,0,0,0,0,0,-1,1413,1191,0,0
196,-167,0,0,0,0,0,0,0,0,0,-1,1420,1191,0,0
203,-167,0,0,0,0,0,0,0,0,0,-1,1427,1191,0,0
210,-167,0,0,0,0,0,0,0,0,0,-1,1434,1191,0,0
217,-167,0,0,0,0,0,0,0,0,0,-1,1441,1191,0,0
224,-167,0,0,0,0,0,0,0,0,0,-1,1448,1191,0,0
231,-167,0,0,0,0,0,0,0,0,0,-1,1455,1191,0,0
238,-167,0,0,0,0,0,0,0,0,0,-1,1462,1191,0,0
245,-167,0,0,0,0,0,0,0,0,0,-1,1469,1191,0,0
252,-167,0,0,0,0,0,0,0,0,0,-1,1476,1191,0,0
259,-167,0,0,0,0,0,0,0,0,0,-1,1483,1191,0,0
266,-167,0,0,0,0,0,0,0,0,0,-1,1490,1191,0,0
273,-167,0,0,0,0,0,0,0,0,0,-1,1497,1191,0,0
280,-167,0,0,0,0,0,0,0,0,0,-1,1504,1191,0,0
287,-167,0,0,0,0,0,0,0,0,0,-1,1511,1191,0,0
294,-167,0,0,0,0,0,0,0,0,0,-1,1518,1191,0,0
301,-167,0,0,0,0,0,0,0,0,0,-1,1525,1191,0,0
308,-167,0,0,0,0,0,0,0,0,0,-1,1532,1191,0,0
315,-167,0,0,0,0,0,0,0,0,0,-1,1539,1191,0,0
322,-167,0,0,0,0,0,0,0,0,0,-1,1546,1191,0,0
329,-167,0,0,0,0,0,0,0,0,0,-1,1553,1191,0,0
336,-167,0,0,0,0,0,0,0,0,0,-1,1560,1191,0,0
343,-167,0,0,0,0,0,0,0,0,0,-1,1567,1191,0,0
350,-167,0,0,0,0,0,0,0,0,0,-1,1574,1191,0,0
357,-167,0,0,0,0,0,0,0,0,0,-1,1581,1191,0,0
364,-167,0,0,0,0,0,0,0,0,0,-1,1588,1191,0,0
371,-167,0,0,0,0,0,0,0,0,0,-1,1595,1191,0,0
378,-167,0,0,0,0,0,0,0,0,0,-1,1602,1191,0,0
385,-167,0,0,0,0,0,0,0,0,0,-1,1609,1191,0,0
392,-167,0,0,0,0,0,0,0,0,0,-1,1616,1191,0,0
399,-167,0,0,0,0,0,0,0,0,0,-1,1623,1191,0,0
406,-167,0,0,0,0,0,0,0,0,0,-1,1630,1191,0,0
413,-167,0,0,0,0,0,0,0,0,0,-1,1637,1191,0,0
420,-167,0,0,0,0,0,0,0,0,0,-1,1644,1191,0,0
427,-167,0,0,0,0,0,0,0,0,0,-1,1651,1191,0,0
434,-167,0,0,0,0,0,0,0,0,0,-1,1658,1191,0,0
441,-167,0,0,0,0,0,0,0,0,0,-1,1665,1191,0,0
448,-167,0,0,0,0,0,0,0,0,0,-1,1672,1191,0,0
455,-167,0,0,0,0,0,0,0,0,0,-1,1679,1191,0,0
462,-167,0,0,0,0,0,0,0,0,0,-1,1686,1191,0,0
469,-167,0,0,0,0,0,0,0,0,0,-1,1693,1191,0,0
476,-167,0,0,0,0,0,0,0,0,0,-1,1700,1191,0,0
483,-167,0,0,0,0,0,0,0,0,0,-1,1707,1191,0,0
490,-167,0,0,0,0,0,0,0,0,0,-1,1714,1191,0,0
497,-167,0,0,0,0,0,0,0,0,0,-1,1721,1191,0,0
504,-167,0,0,0,0,0,0,0,0,0,-1,1728,1191,0,0
511,-167,0,0,0,0,0,0,0,0,0,-1,1735,1191,0,0
518,-167,0,0,0,0,0,0,0,0,0,-1,1742,1191,0,0
525,-167,0,0,0,0,0,0,0,0,0,-1,1749,1191,0,0
532,-167,0,0,0,0,0,0,0,0,0,-1,1756,1191,0,0
539,-167,0,0,0,0,0,0,0,0,0,-1,1763,1191,0,0
546,-167,0,0,0,0,0,0,0,0,0,-1,1770,1191,0,0
553,-167,0,0,0,0,0,0,0,0,0,-1,1777,1191,0,0
560,-167,0,0,0,0,0,0,0,0,0,-1,1784,1191,0,0
567,-167,0,0,0,0,0,0,0,0,0,-1,1791,1191,0,0
574,-167,0,0,0,0,0,0,0,0,0,-1,1798,1191,0,0
581,-167,0,0,0,0,0,0,0,0,0,-1,1805,1191,0,0
588,-167,0,0,0,0,0,0,0,0,0,-1,1812,1191,0,0
595,-167,0,0,0,0,0,0,0,0,0,-1,1819,1191,0,0
602,-167,0,0,0,0,0,0,0,0,0,-1,1826,1191,0,0
609,-167,0,0,0,0,0,0,0,0,0,-1,1833,1191,0,0
616,-167,0,0,0,0,0,0,0,0,0,-1,1840,1191,0,0
623,-167,0,0,0,0,0,0,0,0,0,-1,1847,1191,0,0
630,-167,0,0,0,0,0,0,0,0,0,-1,1854,1191,0,0
637,-167,45.2043,2.66895,-0.00621211,-0.000345438,-0.00250809,0.000580625,-0.00713818,-1.21709,0.00496366,0.0423265,1861,1191,45.2043,-2.6689
644,-167,45.1713,2.50354,-0.00475752,-0.000229608,-0.0018338,0.000419911,-0.00540704,-1.23039,0.0037525,0.0436699,1868,1191,45.1713,-2.50352
651,-167,44.8931,2.52759,-0.00312038,-1.07476e-05,-0.00139171,0.000521138,-0.00365226,-1.20575,0.00262585,0.0411333,1875,1191,44.893,-2.52757
658,-167,44.7378,2.66895,-0.00136189,0.000175731,-0.00120283,0.000834465,-0.00202062,-1.06976,0.00169514,0.0411695,1882,1191,44.7378,-2.66897
665,-167,44.9492,2.63049,0.000100464,0.000186316,-0.000945909,0.00109027,-0.000803493,-0.808073,0.00109754,0.0378957,1889,1191,44.9492,-2.63048
672,-167,44.9183,2.58032,0.000732787,-6.53584e-05,-0.000420043,0.000913106,-0.000245678,-0.405497,0.000705045,0.0269962,1896,1191,44.9184,-2.58036
679,-167,44.8796,2.57178,0.000589137,-0.00015946,6.79663e-05,0.000595258,-0.000165581,0.089813,0.00046203,0.019631,1903,1191,44.8796,-2.57179
686,-167,44.9315,2.61487,0.000293209,-0.00047606,0.000462692,0.000510262,-0.000693113,0.43863,0.000697437,0.0256153,1910,1191,44.9315,-2.61488
693,-167,44.9818,2.68359,0,0,0,0,0,0,0,-1,1917,1191,44.9819,-2.68365
700,-167,28.0459,2.70508,0,0,0,0,0,0,0,-1,1924,1191,28.0459,-2.70513
707,-167,29.4708,7.10168,0,0,0,0,0,0,0,-1,1931,1191,29.4708,-7.10172
714,-167,35.9202,6.84668,0,0,0,0,0,0,0,-1,1938,1191,35.9202,-6.84664
721,-167,36.2072,6.38892,0,0,0,0,0,0,0,-1,1945,1191,36.2072,-6.38891
728,-167,38.7299,6.80188,0,0,0,0,0,0,0,-1,1952,1191,38.7299,-6.80185
735,-167,38.6373,6.41919,-0.0015628,-0.000692725,0.0027009,0.00160795,-0.00386348,0.865248,0.00324717,0.0176245,1959,1191,38.6373,-6.41914
742,-167,38.6298,5.97803,-0.0014379,-0.000123096,0.00295975,0.00225138,-0.00381237,0.894681,0.00353937,0.0150143,1966,1191,38.6298,-5.97805
749,-167,38.6011,5.63049,-0.000824182,0.00105036,0.00309537,0.00334725,-0.00312107,0.932409,0.00373525,0.0137396,1973,1191,38.6011,-5.63051
756,-167,38.6046,5.28918,1.7141e-05,0.00299724,0.00309932,0.00494609,-0.00193171,1.00947,0.00409605,0.0107417,1980,1191,38.6046,-5.28924
763,-167,38.5443,4.93323,0.000984372,0.00548595,0.00301797,0.00700002,-0.000529699,1.1058,0.00485289,0.0128212,1987,1191,38.5443,-4.9332
770,-167,38.4069,4.73083,0.00181378,0.00860479,0.00282657,0.00962731,0.000791257,1.22369,0.00617138,0.0280209,1994,1191,38.4068,-4.73088
777,-167,38.5801,4.61597,0.00225346,0.0125064,0.00244843,0.0130611,0.00169878,1.34801,0.00820001,0.0426818,2001,1191,38.5801,-4.616
784,-167,38.7676,4.45325,0,0,0,0,0,0,0,-1,2008,1191,38.7675,-4.45325
791,-167,38.6218,3.6792,0,0,0,0,0,0,0,-1,2015,1191,38.6218,-3.67916
798,-167,38.2114,2.99121,0.000219354,0.030371,-0.00281099,0.0306309,-4.04706e-05,-1.47863,0.0204341,0.0489607,2022,1191,38.2113,-2.99116
805,-167,38.0281,2.27844,-0.00242929,0.0384307,-0.00688363,0.0395592,-0.0035578,-1.4083,0.0276352,0.0449319,2029,1191,38.0282,-2.27841
812,-167,0,0,0,0,0,0,0,0,0,-1,2036,1191,0,0
-700,-174,0,0,0,0,0,0,0,0,0,-1,524,1198,0,0
-693,-174,0,0,0,0,0,0,0,0,0,-1,531,1198,0,0
-686,-174,-23.7429,0.504028,0,0,0,0,0,0,0,-1,538,1198,-23.7429,-0.504024
-679,-174,-26.6094,-1.20056,0,0,0,0,0,0,0,-1,545,1198,-26.6094,1.20058
-672,-174,-26.459,-0.679321,0.0932254,0.0804017,-0.0187157,0.106597,0.06703,-0.620368,0.062221,0.0473013,552,1198,-26.459,0.679364
-665,-174,-26.3513,-0.116577,0.0772155,0.0681872,-0.0137149,0.08714,0.0582627,-0.626411,0.051255,0.0457516,559,1198,-26.3512,0.116534
-658,-174,-26.3389,0.26001,0.0616749,0.0561398,-0.00939377,0.0687004,0.0491144,-0.642142,0.0408672,0.0465323,566,1198,-26.3389,-0.260053
-651,-174,-26.2653,0.711548,0.0475294,0.0448131,-0.00587573,0.0522019,0.0401406,-0.671821,0.0315587,0.0473628,573,1198,-26.2653,-0.71155
-644,-174,-26.1611,1.30188,0.0349294,0.0344167,-0.00319242,0.0378757,0.0314704,-0.745332,0.0234093,0.0431909,580,1198,-26.1611,-1.30184
-637,-174,-25.9387,1.77393,0.0241604,0.0253973,-0.00125679,0.0261796,0.0233782,-1.01404,0.0165982,0.0230781,587,1198,-25.9387,-1.77389
-630,-174,-26.0188,2.19263,0.0155309,0.0172223,-0.000156063,0.0172366,0.0155166,-1.47955,0.0109628,0.0124555,594,1198,-26.0188,-2.19263
-623,-174,-26.0473,2.6051,0.00865262,0.0101393,0.000378981,0.0102303,0.00856159,1.33505,0.00633762,0.0135336,601,1198,-26.0473,-2.60509
-616,-174,-26.0547,3.03455,0.00351268,0.00435231,0.000669601,0.00472282,0.00314218,1.0654,0.00277596,0.0188714,608,1198,-26.0548,-3.03455
-609,-174,-26.0925,3.44116,0.00103926,0.00131539,0.000388279,0.00158942,0.000765225,0.956217,0.00091786,0.0199798,615,1198,-26.0925,-3.44111
-602,-174,-26.1238,3.82886,0.000692673,0.000288209,-4.9687e-05,0.000698687,0.000282195,-0.120461,0.000405863,0.0141079,622,1198,-26.1238,-3.82882
-595,-174,-25.9809,4.19189,0,0,0,0,0,0,0,-1,629,1198,-25.9809,-4.19194
-588,-174,-26.4982,4.53979,0.000627661,-0.000218846,-0.000566549,0.0009116,-0.000502785,-0.464585,0.000827888,0.0315097,636,1198,-26.4982,-4.53975
-581,-174,-26.4371,5.0625,0.000262726,-0.000359967,-0.000618403,0.000643737,-0.000740978,-0.552189,0.000800123,0.0373017,643,1198,-26.4371,-5.06245
-574,-174,-26.0209,5.6748,0,0,0,0,0,0,0,-1,650,1198,-26.0209,-5.67478
-567,-174,-26.6597,3.04041,0,0,0,0,0,0,0,-1,657,1198,-26.6597,-3.04039
-560,-174,-33.0606,0.688721,0,0,0,0,0,0,0,-1,664,1198,-33.0606,-0.68878
-553,-174,-33.0743,0.726685,-1.00806e-05,-0.000484103,-0.000280532,0.000120158,-0.000614342,-0.434646,0.000454934,0.0377888,671,1198,-33.0743,-0.726705
-546,-174,-33.097,0.768799,6.27434e-05,-0.000681171,-0.000232179,0.00012926,-0.000747688,-0.279016,0.000546663,0.0301086,678,1198,-33.097,-0.768774
-539,-174,-33.1175,0.759521,5.16136e-05,-0.00049931,7.32204e-05,6.11789e-05,-0.000508875,0.129901,0.000361373,0.0333499,685,1198,-33.1175,-0.759546
-532,-174,-33.2113,0.653076,-0.000145706,-0.000358367,0.000558804,0.000316793,-0.000820867,0.691381,0.000677979,0.0425935,692,1198,-33.2113,-0.653099
-525,-174,-33.2951,0.562744,0.000379664,-0.000334666,0.0015702,0.00163281,-0.00158781,0.673569,0.00185949,0.0454261,699,1198,-33.2951,-0.562738
-518,-174,-33.218,0.833862,0.00145613,-0.000234859,0.00297901,0.0037073,-0.00248603,0.647125,0.00359882,0.0424433,706,1198,-33.218,-0.833833
-511,-174,0,0,0,0,0,0,0,0,0,-1,713,1198,0,0
-504,-174,0,0,0,0,0,0,0,0,0,-1,720,1198,0,0
-497,-174,0,0,0,0,0,0,0,0,0,-1,727,1198,0,0
-490,-174,0,0,0,0,0,0,0,0,0,-1,734,1198,0,0
-483,-174,0,0,0,0,0,0,0,0,0,-1,741,1198,0,0
-476,-174,0,0,0,0,0,0,0,0,0,-1,748,1198,0,0
-469,-174,0,0,0,0,0,0,0,0,0,-1,755,1198,0,0
-462,-174,0,0,0,0,0,0,0,0,0,-1,762,1198,0,0
-455,-174,0,0,0,0,0,0,0,0,0,-1,769,1198,0,0
-448,-174,0,0,0,0,0,0,0,0,0,-1,776,1198,0,0
-441,-174,0,0,0,0,0,0,0,0,0,-1,783,1198,0,0
-434,-174,0,0,0,0,0,0,0,0,0,-1,790,1198,0,0
-427,-174,0,0,0,0,0,0,0,0,0,-1,797,1198,0,0
-420,-174,0,0,0,0,0,0,0,0,0,-1,804,1198,0,0
-413,-174,0,0,0,0,0,0,0,0,0,-1,811,1198,0,0
-406,-174,0,0,0,0,0,0,0,0,0,-1,818,1198,0,0
-399,-174,0,0,0,0,0,0,0,0,0,-1,825,1198,0,0
-392,-174,0,0,0,0,0,0,0,0,0,-1,832,1198,0,0
-385,-174,0,0,0,0,0,0,0,0,0,-1,839,1198,0,0
-378,-174,0,0,0,0,0,0,0,0,0,-1,846,1198,0,0
-371,-174,0,0,0,0,0,0,0,0,0,-1,853,1198,0,0
-364,-174,0,0,0,0,0,0,0,0,0,-1,860,1198,0,0
-357,-174,0,0,0,0,0,0,0,0,0,-1,867,1198,0,0
-350,-174,0,0,0,0,0,0,0,0,0,-1,874,1198,0,0
-343,-174,0,0,0,0,0,0,0,0,0,-1,881,1198,0,0
-336,-174,0,0,0,0,0,0,0,0,0,-1,888,1198,0,0
-329,-174,0,0,0,0,0,0,0,0,0,-1,895,1198,0,0
-322,-174,0,0,0,0,0,0,0,0,0,-1,902,1198,0,0
-315,-174,0,0,0,0,0,0,0,0,0,-1,909,1198,0,0
-308,-174,0,0,0,0,0,0,0,0,0,-1,916,1198,0,0
-301,-174,0,0,0,0,0,0,0,0,0,-1,923,1198,0,0
-294,-174,0,0,0,0,0,0,0,0,0,-1,930,1198,0,0
-287,-174,0,0,0,0,0,0,0,0,0,-1,937,1198,0,0
-280,-174,0,0,0,0,0,0,0,0,0,-1,944,1198,0,0
-273,-174,0,0,0,0,0,0,0,0,0,-1,951,1198,0,0
-266,-174,0,0,0,0,0,0,0,0,0,-1,958,1198,0,0
-259,-174,0,0,0,0,0,0,0,0,0,-1,965,1198,0,0
-252,-174,0,0,0,0,0,0,0,0,0,-1,972,1198,0,0
-245,-174,0,0,0,0,0,0,0,0,0,-1,979,1198,0,0
-238,-174,0,0,0,0,0,0,0,0,0,-1,986,1198,0,0
-231,-174,0,0,0,0,0,0,0,0,0,-1,993,1198,0,0
-224,-174,0,0,0,0,0,0,0,0,0,-1,1000,1198,0,0
-217,-174,0,0,0,0,0,0,0,0,0,-1,1007,1198,0,0
-210,-174,0,0,0,0,0,0,0,0,0,-1,1014,1198,0,0
-203,-174,0,0,0,0,0,0,0,0,0,-1,1021,1198,0,0
-196,-174,0,0,0,0,0,0,0,0,0,-1,1028,1198,0,0
-189,-174,0,0,0,0,0,0,0,0,0,-1,1035,1198,0,0
-182,-174,0,0,0,0,0,0,0,0,0,-1,1042,1198,0,0
-175,-174,0,0,0,0,0,0,0,0,0,-1,1049,1198,0,0
-168,-174,0,0,0,0,0,0,0,0,0,-1,1056,1198,0,0
-161,-174,0,0,0,0,0,0,0,0,0,-1,1063,1198,0,0
-154,-174,0,0,0,0,0,0,0,0,0,-1,1070,1198,0,0
-147,-174,0,0,0,0,0,0,0,0,0,-1,1077,1198,0,0
-140,-174,0,0,0,0,0,0,0,0,0,-1,1084,1198,0,0
-133,-174,0,0,0,0,0,0,0,0,0,-1,1091,1198,0,0
-126,-174,0,0,0,0,0,0,0,0,0,-1,1098,1198,0,0
-119,-174,0,0,0,0,0,0,0,0,0,-1,1105,1198,0,0
-112,-174,0,0,0,0,0,0,0,0,0,-1,1112,1198,0,0
-105,-174,0,0,0,0,0,0,0,0,0,-1,1119,1198,0,0
-98,-174,0,0,0,0,0,0,0,0,0,-1,1126,1198,0,0
-91,-174,0,0,0,0,0,0,0,0,0,-1,1133,1198,0,0
-84,-174,0,0,0,0,0,0,0,0,0,-1,1140,1198,0,0
-77,-174,0,0,0,0,0,0,0,0,0,-1,1147,1198,0,0
-70,-174,0,0,0,0,0,0,0,0,0,-1,1154,1198,0,0
-63,-174,0,0,0,0,0,0,0,0,0,-1,1161,1198,0,0
-56,-174,0,0,0,0,0,0,0,0,0,-1,1168,1198,0,0
-49,-174,0,0,0,0,0,0,0,0,0,-1,1175,1198,0,0
-42,-174,0,0,0,0,0,0,0,0,0,-1,1182,1198,0,0
-35,-174,0,0,0,0,0,0,0,0,0,-1,1189,1198,0,0
-28,-174,0,0,0,0,0,0,0,0,0,-1,1196,1198,0,0
-21,-174,0,0,0,0,0,0,0,0,0,-1,1203,1198,0,0
-14,-174,0,0,0,0,0,0,0,0,0,-1,1210,1198,0,0
-7,-174,0,0,0,0,0,0,0,0,0,-1,1217,1198,0,0
0,-174,0,0,0,0,0,0,0,0,0,-1,1224,1198,0,0
7,-174,0,0,0,0,0,0,0,0,0,-1,1231,1198,0,0
14,-174,0,0,0,0,0,0,0,0,0,-1,1238,1198,0,0
21,-174,0,0,0,0,0,0,0,0,0,-1,1245,1198,0,0
28,-174,0,0,0,0,0,0,0,0,0,-1,1252,1198,0,0
35,-174,0,0,0,0,0,0,0,0,0,-1,1259,1198,0,0
42,-174,0,0,0,0,0,0,0,0,0,-1,1266,1198,0,0
49,-174,0,0,0,0,0,0,0,0,0,-1,1273,1198,0,0
56,-174,0,0,0,0,0,0,0,0,0,-1,1280,1198,0,0
63,-174,0,0,0,0,0,0,0,0,0,-1,1287,1198,0,0
70,-174,0,0,0,0,0,0,0,0,0,-1,1294,1198,0,0
77,-174,0,0,0,0,0,0,0,0,0,-1,1301,1198,0,0
84,-174,0,0,0,0,0,0,0,0,0,-1,1308,1198,0,0
91,-174,0,0,0,0,0,0,0,0,0,-1,1315,1198,0,0
98,-174,0,0,0,0,0,0,0,0,0,-1,1322,1198,0,0
105,-174,0,0,0,0,0,0,0,0,0,-1,1329,1198,0,0
112,-174,0,0,0,0,0,0,0,0,0,-1,1336,1198,0,0
119,-174,0,0,0,0,0,0,0,0,0,-1,1343,1198,0,0
126,-174,0,0,0,0,0,0,0,0,0,-1,1350,1198,0,0
133,-174,0,0,0,0,0,0,0,0,0,-1,1357,1198,0,0
140,-174,0,0,0,0,0,0,0,0,0,-1,1364,1198,0,0
147,-174,0,0,0,0,0,0,0,0,0,-1,1371,1198,0,0
154,-174,0,0,0,0,0,0,0,0,0,-1,1378,1198,0,0
161,-174,0,0,0,0,0,0,0,0,0,-1,1385,1198,0,0
168,-174,0,0,0,0,0,0,0,0,0,-1,1392,1198,0,0
175,-174,0,0,0,0,0,0,0,0,0,-1,1399,1198,0,0
182,-174,0,0,0,0,0,0,0,0,0,-1,1406,1198,0,0
189,-174,0,0,0,0,0,0,0,0,0,-1,1413,1198,0,0
196,-174,0,0,0,0,0,0,0,0,0,-1,1420,1198,0,0
203,-174,0,0,0,0,0,0,0,0,0,-1,1427,1198,0,0
210,-174,0,0,0,0,0,0,0,0,0,-1,1434,1198,0,0
217,-174,0,0,0,0,0,0,0,0,0,-1,1441,1198,0,0
224,-174,0,0,0,0,0,0,0,0,0,-1,1448,1198,0,0
231,-174,0,0,0,0,0,0,0,0,0,-1,1455,1198,0,0
238,-174,0,0,0,0,0,0,0,0,0,-1,1462,1198,0,0
245,-174,0,0,0,0,0,0,0,0,0,-1,1469,1198,0,0
252,-174,0,0,0,0,0,0,0,0,0,-1,1476,1198,0,0
259,-174,0,0,0,0,0,0,0,0,0,-1,1483,1198,0,0
266,-174,0,0,0,0,0,0,0,0,0,-1,1490,1198,0,0
273,-174,0,0,0,0,0,0,0,0,0,-1,1497,1198,0,0
280,-174,0,0,0,0,0,0,0,0,0,-1,1504,1198,0,0
287,-174,0,0,0,0,0,0,0,0,0,-1,1511,1198,0,0
294,-174,0,0,0,0,0,0,0,0,0,-1,1518,1198,0,0
301,-174,0,0,0,0,0,0,0,0,0,-1,1525,1198,0,0
308,-174,0,0,0,0,0,0,0,0,0,-1,1532,1198,0,0
315,-174,0,0,0,0,0,0,0,0,0,-1,1539,1198,0,0
322,-174,0,0,0,0,0,0,0,0,0,-1,1546,1198,0,0
329,-174,0,0,0,0,0,0,0,0,0,-1,1553,1198,0,0
336,-174,0,0,0,0,0,0,0,0,0,-1,1560,1198,0,0
343,-174,0,0,0,0,0,0,0,0,0,-1,1567,1198,0,0
350,-174,0,0,0,0,0,0,0,0,0,-1,1574,1198,0,0
357,-174,0,0,0,0,0,0,0,0,0,-1,1581,1198,0,0
364,-174,0,0,0,0,0,0,0,0,0,-1,1588,1198,0,0
371,-174,0,0,0,0,0,0,0,0,0,-1,1595,1198,0,0
378,-174,0,0,0,0,0,0,0,0,0,-1,1602,1198,0,0
385,-174,0,0,0,0,0,0,0,0,0,-1,1609,1198,0,0
392,-174,0,0,0,0,0,0,0,0,0,-1,1616,1198,0,0
399,-174,0,0,0,0,0,0,0,0,0,-1,1623,1198,0,0
406,-174,0,0,0,0,0,0,0,0,0,-1,1630,1198,0,0
413,-174,0,0,0,0,0,0,0,0,0,-1,1637,1198,0,0
420,-174,0,0,0,0,0,0,0,0,0,-1,1644,1198,0,0
427,-174,0,0,0,0,0,0,0,0,0,-1,1651,1198,0,0
434,-174,0,0,0,0,0,0,0,0,0,-1,1658,1198,0,0
441,-174,0,0,0,0,0,0,0,0,0,-1,1665,1198,0,0
448,-174,0,0,0,0,0,0,0,0,0,-1,1672,1198,0,0
455,-174,0,0,0,0,0,0,0,0,0,-1,1679,1198,0,0
462,-174,0,0,0,0,0,0,0,0,0,-1,1686,1198,0,0
469,-174,0,0,0,0,0,0,0,0,0,-1,1693,1198,0,0
476,-174,0,0,0,0,0,0,0,0,0,-1,1700,1198,0,0
483,-174,0,0,0,0,0,0,0,0,0,-1,1707,1198,0,0
490,-174,0,0,0,0,0,0,0,0,0,-1,1714,1198,0,0
497,-174,0,0,0,0,0,0,0,0,0,-1,1721,1198,0,0
504,-174,0,0,0,0,0,0,0,0,0,-1,1728,1198,0,0
511,-174,0,0,0,0,0,0,0,0,0,-1,1735,1198,0,0
518,-174,0,0,0,0,0,0,0,0,0,-1,1742,1198,0,0
525,-174,0,0,0,0,0,0,0,0,0,-1,1749,1198,0,0
532,-174,0,0,0,0,0,0,0,0,0,-1,1756,1198,0,0
539,-174,0,0,0,0,0,0,0,0,0,-1,1763,1198,0,0
546,-174,0,0,0,0,0,0,0,0,0,-1,1770,1198,0,0
553,-174,0,0,0,0,0,0,0,0,0,-1,1777,1198,0,0
560,-174,0,0,0,0,0,0,0,0,0,-1,1784,1198,0,0
567,-174,0,0,0,0,0,0,0,0,0,-1,1791,1198,0,0
574,-174,0,0,0,0,0,0,0,0,0,-1,1798,1198,0,0
581,-174,0,0,0,0,0,0,0,0,0,-1,1805,1198,0,0
588,-174,0,0,0,0,0,0,0,0,0,-1,1812,1198,0,0
595,-174,0,0,0,0,0,0,0,0,0,-1,1819,1198,0,0
602,-174,0,0,0,0,0,0,0,0,0,-1,1826,1198,0,0
609,-174,0,0,0,0,0,0,0,0,0,-1,1833,1198,0,0
616,-174,0,0,0,0,0,0,0,0,0,-1,1840,1198,0,0
623,-174,0,0,0,0,0,0,0,0,0,-1,1847,1198,0,0
630,-174,0,0,0,0,0,0,0,0,0,-1,1854,1198,0,0
637,-174,45.2123,2.60449,-0.00484575,-0.00106442,-0.00212121,-0.000113583,-0.00579659,-1.1494,0.00382709,0.0407354,1861,1198,45.2123,-2.60453
644,-174,45.2404,2.59485,-0.00343288,-0.00072726,-0.00162233,3.22829e-05,-0.00419243,-1.13293,0.00280577,0.0408151,1868,1198,45.2403,-2.5948
651,-174,45.0253,2.60059,-0.00189372,-0.000375852,-0.00128025,0.000353507,-0.00262308,-1.05295,0.00187768,0.0407176,1875,1198,45.0252,-2.60064
658,-174,44.8522,2.6593,-0.00033485,-0.000112991,-0.00117346,0.000954772,-0.00140261,-0.832524,0.0013692,0.0409449,1882,1198,44.8522,-2.65926
665,-174,44.9218,2.62842,0.000817309,-9.56373e-05,-0.000911494,0.00138024,-0.00065857,-0.553256,0.00120144,0.035092,1889,1198,44.9217,-2.62847
672,-174,44.8762,2.57178,0.0011525,-0.000352257,-0.000358036,0.00123335,-0.000433103,-0.222079,0.00099842,0.0260967,1896,1198,44.8763,-2.57176
679,-174,44.8677,2.56726,0.00083627,-0.00042343,0.000138178,0.000851249,-0.000438409,0.107981,0.000757194,0.0212334,1903,1198,44.8676,-2.56726
686,-174,44.9885,2.64075,0.000461064,-0.000695915,0.000536352,0.00067145,-0.000906301,0.37381,0.000914272,0.0455511,1910,1198,44.9885,-2.64074
693,-174,45.0994,2.7428,0,0,0,0,0,0,0,-1,1917,1198,45.0994,-2.74284
700,-174,25.4004,6.11792,0,0,0,0,0,0,0,-1,1924,1198,25.4004,-6.11797
707,-174,34.7908,7.34473,0,0,0,0,0,0,0,-1,1931,1198,34.7908,-7.34475
714,-174,38.8972,7.36743,0,0,0,0,0,0,0,-1,1938,1198,38.8972,-7.36742
721,-174,38.2128,7.13586,0,0,0,0,0,0,0,-1,1945,1198,38.2127,-7.13582
728,-174,38.3788,6.76843,-0.00140175,-0.000914778,0.00252729,0.00138073,-0.00369725,0.833421,0.00303176,0.0415986,1952,1198,38.3788,-6.76843
735,-174,38.2423,6.40503,-0.00164811,-0.000689165,0.00284974,0.00172116,-0.00405843,0.868743,0.00342659,0.0125288,1959,1198,38.2423,-6.40499
742,-174,38.2607,6.02197,-0.00135267,3.14185e-05,0.00301094,0.00242882,-0.00375007,0.898358,0.00359447,0.0190236,1966,1198,38.2608,-6.02197
749,-174,38.25,5.66064,-0.00050149,0.00133761,0.00296422,0.00352163,-0.00268552,0.9358,0.00359452,0.0174794,1973,1198,38.25,-5.66065
756,-174,38.2166,5.28528,0.000529979,0.00329795,0.00283102,0.00506517,-0.00123724,1.01275,0.00385594,0.0108005,1980,1198,38.2165,-5.28525
763,-174,38.1681,4.92261,0.00166993,0.00578118,0.002609,0.00704707,0.000404035,1.11906,0.00456933,0.0138614,1987,1198,38.168,-4.92265
770,-174,38.2191,4.59216,0.00263591,0.00889288,0.00228869,0.00964067,0.00188812,1.255,0.00589934,0.0313796,1994,1198,38.2191,-4.59222
777,-174,38.3815,4.20422,0,0,0,0,0,0,0,-1,2001,1198,38.3815,-4.20419
784,-174,39.4727,3.78906,0,0,0,0,0,0,0,-1,2008,1198,39.4726,-3.7891
791,-174,38.6997,3.08923,0,0,0,0,0,0,0,-1,2015,1198,38.6997,-3.08926
798,-174,37.7639,2.88745,0,0,0,0,0,0,0,-1,2022,1198,37.764,-2.88747
805,-174,37.6196,2.22083,0,0,0,0,0,0,0,-1,2029,1198,37.6197,-2.22083
812,-174,0,0,0,0,0,0,0,0,0,-1,2036,1198,0,0
-700,-181,0,0,0,0,0,0,0,0,0,-1,524,1205,0,0
-693,-181,0,0,0,0,0,0,0,0,0,-1,531,1205,0,0
-686,-181,-22.394,0.957397,0,0,0,0,0,0,0,-1,538,1205,-22.3941,-0.957362
-679,-181,-26.1887,-1.66858,0,0,0,0,0,0,0,-1,545,1205,-26.1886,1.66856
-672,-181,-26.0607,-1.13074,0.0806813,0.0904978,-0.0115827,0.0981693,0.0730098,-0.985806,0.0588796,0.0455661,552,1205,-26.0607,1.13069
-665,-181,-25.9142,-0.467407,0.0676844,0.0767329,-0.0076306,0.0810797,0.0633376,-1.05299,0.0492169,0.0474953,559,1205,-25.9142,0.467462
-658,-181,-25.9721,-0.412231,0.0548562,0.0631383,-0.00446689,0.0650884,0.0529061,-1.15918,0.0399554,0.0475389,566,1205,-25.9721,0.412232
-651,-181,-25.5421,0.633545,0,0,0,0,0,0,0,-1,573,1205,-25.5421,-0.633565
-644,-181,-25.561,1.14209,0.0323061,0.0387706,-0.000369684,0.0387917,0.0322851,-1.51386,0.0239882,0.0447584,580,1205,-25.5611,-1.14214
-637,-181,-25.5286,1.71106,0.0229011,0.0286126,0.00071253,0.0287001,0.0228135,1.44854,0.0175043,0.0247065,587,1205,-25.5286,-1.71103
-630,-181,-25.5972,2.16809,0.0152666,0.0196213,0.00112724,0.0198958,0.0149921,1.33194,0.011969,0.0127367,594,1205,-25.5971,-2.16805
-623,-181,-25.6242,2.60681,0.00913717,0.0118753,0.00110417,0.012265,0.00874739,1.23144,0.00729264,0.0144412,601,1205,-25.6242,-2.60677
-616,-181,-25.6287,3.03442,0.00429489,0.00548322,0.00103118,0.00607917,0.00369894,1.04676,0.00353723,0.0141764,608,1205,-25.6287,-3.03437
-609,-181,-25.644,3.448,0.00159814,0.00170932,0.000513296,0.00217003,0.00113743,0.839335,0.00125335,0.0136453,615,1205,-25.6441,-3.44795
-602,-181,-25.6476,3.86438,0.00113566,0.000152862,-0.000102467,0.00114623,0.000142292,-0.102788,0.000721415,0.0127494,622,1205,-25.6476,-3.86434
-595,-181,-25.8084,4.20288,0.00122411,-0.000284475,-0.000455582,0.00135102,-0.000411381,-0.271672,0.00106464,0.0313343,629,1205,-25.8084,-4.20289
-588,-181,-26.0776,4.6748,0.00119361,-0.000551074,-0.000585857,0.00137208,-0.000729545,-0.295702,0.00123213,0.0305483,636,1205,-26.0776,-4.67479
-581,-181,-26.0043,5.20557,0.000840337,-0.000724253,-0.000638686,0.00106795,-0.000951861,-0.342339,0.00116678,0.0266024,643,1205,-26.0043,-5.2056
-574,-181,-25.7378,5.66858,0,0,0,0,0,0,0,-1,650,1205,-25.7378,-5.66852
-567,-181,-25.8839,3.34485,0,0,0,0,0,0,0,-1,657,1205,-25.8839,-3.3449
-560,-181,-31.7396,1.63306,0,0,0,0,0,0,0,-1,664,1205,-31.7396,-1.63303
-553,-181,-33.1109,0.83606,0,0,0,0,0,0,0,-1,671,1205,-33.1109,-0.836074
-546,-181,-33.1112,0.833618,0.000683634,-0.00120691,-0.000243559,0.000714508,-0.00123779,-0.126087,0.00114057,0.0343949,678,1205,-33.1112,-0.833631
-539,-181,-33.1649,0.905151,0.00062177,-0.00110436,7.56513e-06,0.000621803,-0.0011044,0.0043826,0.00100952,0.036645,685,1205,-33.1649,-0.905159
-532,-181,-33.1412,0.924194,0.000193642,-0.000948811,0.000343658,0.00028905,-0.00104422,0.270803,0.000809876,0.0437667,692,1205,-33.1412,-0.924156
-525,-181,-33.172,0.776123,0.000108152,-0.0007887,0.00105729,0.000808183,-0.00148873,0.584833,0.00134539,0.0430674,699,1205,-33.172,-0.776131
-518,-181,-33.168,0.822388,0.000742486,-0.000494551,0.00228014,0.00248651,-0.00223858,0.652954,0.00272928,0.0408523,706,1205,-33.168,-0.822447
-511,-181,0,0,0,0,0,0,0,0,0,-1,713,1205,0,0
-504,-181,0,0,0,0,0,0,0,0,0,-1,720,1205,0,0
-497,-181,0,0,0,0,0,0,0,0,0,-1,727,1205,0,0
-490,-181,0,0,0,0,0,0,0,0,0,-1,734,1205,0,0
-483,-181,0,0,0,0,0,0,0,0,0,-1,741,1205,0,0
-476,-181,0,0,0,0,0,0,0,0,0,-1,748,1205,0,0
-469,-181,0,0,0,0,0,0,0,0,0,-1,755,1205,0,0
-462,-181,0,0,0,0,0,0,0,0,0,-1,762,1205,0,0
-455,-181,0,0,0,0,0,0,0,0,0,-1,769,1205,0,0
-448,-181,0,0,0,0,0,0,0,0,0,-1,776,1205,0,0
-441,-181,0,0,0,0,0,0,0,0,0,-1,783,1205,0,0
-434,-181,0,0,0,0,0,0,0,0,0,-1,790,1205,0,0
-427,-181,0,0,0,0,0,0,0,0,0,-1,797,1205,0,0
-420,-181,0,0,0,0,0,0,0,0,0,-1,804,1205,0,0
-413,-181,0,0,0,0,0,0,0,0,0,-1,811,1205,0,0
-406,-181,0,0,0,0,0,0,0,0,0,-1,818,1205,0,0
-399,-181,0,0,0,0,0,0,0,0,0,-1,825,1205,0,0
-392,-181,0,0,0,0,0,0,0,0,0,-1,832,1205,0,0
-385,-181,0,0,0,0,0,0,0,0,0,-1,839,1205,0,0
-378,-181,0,0,0,0,0,0,0,0,0,-1,846,1205,0,0
-371,-181,0,0,0,0,0,0,0,0,0,-1,853,1205,0,0
-364,-181,0,0,0,0,0,0,0,0,0,-1,860,1205,0,0
-357,-181,0,0,0,0,0,0,0,0,0,-1,867,1205,0,0
-350,-181,0,0,0,0,0,0,0,0,0,-1,874,1205,0,0
-343,-181,0,0,0,0,0,0,0,0,0,-1,881,1205,0,0
-336,-181,0,0,0,0,0,0,0,0,0,-1,888,1205,0,0
-329,-181,0,0,0,0,0,0,0,0,0,-1,895,1205,0,0
-322,-181,0,0,0,0,0,0,0,0,0,-1,902,1205,0,0
-315,-181,0,0,0,0,0,0,0,0,0,-1,909,1205,0,0
-308,-181,0,0,0,0,0,0,0,0,0,-1,916,1205,0,0
-301,-181,0,0,0,0,0,0,0,0,0,-1,923,1205,0,0
-294,-181,0,0,0,0,0,0,0,0,0,-1,930,1205,0,0
-287,-181,0,0,0,0,0,0,0,0,0,-1,937,1205,0,0
-280,-181,0,0,0,0,0,0,0,0,0,-1,944,1205,0,0
-273,-181,0,0,0,0,0,0,0,0,0,-1,951,1205,0,0
-266,-181,0,0,0,0,0,0,0,0,0,-1,958,1205,0,0
-259,-181,0,0,0,0,0,0,0,0,0,-1,965,1205,0,0
-252,-181,0,0,0,0,0,0,0,0,0,-1,972,1205,0,0
-245,-181,0,0,0,0,0,0,0,0,0,-1,979,1205,0,0
-238,-181,0,0,0,0,0,0,0,0,0,-1,986,1205,0,0
-231,-181,0,0,0,0,0,0,0,0,0,-1,993,1205,0,0
-224,-181,0,0,0,0,0,0,0,0,0,-1,1000,1205,0,0
-217,-181,0,0,0,0,0,0,0,0,0,-1,1007,1205,0,0
-210,-181,0,0,0,0,0,0,0,0,0,-1,1014,1205,0,0
-203,-181,0,0,0,0,0,0,0,0,0,-1,1021,1205,0,0
-196,-181,0,0,0,0,0,0,0,0,0,-1,1028,1205,0,0
-189,-181,0,0,0,0,0,0,0,0,0,-1,1035,1205,0,0
-182,-181,0,0,0,0,0,0,0,0,0,-1,1042,1205,0,0
-175,-181,0,0,0,0,0,0,0,0,0,-1,1049,1205,0,0
-168,-181,0,0,0,0,0,0,0,0,0,-1,1056,1205,0,0
-161,-181,0,0,0,0,0,0,0,0,0,-1,1063,1205,0,0
-154,-181,0,0,0,0,0,0,0,0,0,-1,1070,1205,0,0
-147,-181,0,0,0,0,0,0,0,0,0,-1,1077,1205,0,0
-140,-181,0,0,0,0,0,0,0,0,0,-1,1084,1205,0,0
-133,-181,0,0,0,0,0,0,0,0,0,-1,1091,1205,0,0
-126,-181,0,0,0,0,0,0,0,0,0,-1,1098,1205,0,0
-119,-181,0,0,0,0,0,0,0,0,0,-1,1105,1205,0,0
-112,-181,0,0,0,0,0,0,0,0,0,-1,1112,1205,0,0
-105,-181,0,0,0,0,0,0,0,0,0,-1,1119,1205,0,0
-98,-181,0,0,0,0,0,0,0,0,0,-1,1126,1205,0,0
-91,-181,0,0,0,0,0,0,0,0,0,-1,1133,1205,0,0
-84,-181,0,0,0,0,0,0,0,0,0,-1,1140,1205,0,0
-77,-181,0,0,0,0,0,0,0,0,0,-1,1147,1205,0,0
-70,-181,0,0,0,0,0,0,0,0,0,-1,1154,1205,0,0
-63,-181,0,0,0,0,0,0,0,0,0,-1,1161,1205,0,0
-56,-181,0,0,0,0,0,0,0,0,0,-1,1168,1205,0,0
-49,-181,0,0,0,0,0,0,0,0,0,-1,1175,1205,0,0
-42,-181,0,0,0,0,0,0,0,0,0,-1,1182,1205,0,0
-35,-181,0,0,0,0,0,0,0,0,0,-1,1189,1205,0,0
-28,-181,0,0,0,0,0,0,0,0,0,-1,1196,1205,0,0
-21,-181,0,0,0,0,0,0,0,0,0,-1,1203,1205,0,0
-14,-181,0,0,0,0,0,0,0,0,0,-1,1210,1205,0,0
-7,-181,0,0,0,0,0,0,0,0,0,-1,1217,1205,0,0
0,-181,0,0,0,0,0,0,0,0,0,-1,1224,1205,0,0
7,-181,0,0,0,0,0,0,0,0,0,-1,1231,1205,0,0
14,-181,0,0,0,0,0,0,0,0,0,-1,1238,1205,0,0
21,-181,0,0,0,0,0,0,0,0,0,-1,1245,1205,0,0
28,-181,0,0,0,0,0,0,0,0,0,-1,1252,1205,0,0
35,-181,0,0,0,0,0,0,0,0,0,-1,1259,1205,0,0
42,-181,0,0,0,0,0,0,0,0,0,-1,1266,1205,0,0
49,-181,0,0,0,0,0,0,0,0,0,-1,1273,1205,0,0
56,-181,0,0,0,0,0,0,0,0,0,-1,1280,1205,0,0
63,-181,0,0,0,0,0,0,0,0,0,-1,1287,1205,0,0
70,-181,0,0,0,0,0,0,0,0,0,-1,1294,1205,0,0
77,-181,0,0,0,0,0,0,0,0,0,-1,1301,1205,0,0
84,-181,0,0,0,0,0,0,0,0,0,-1,1308,1205,0,0
91,-181,0,0,0,0,0,0,0,0,0,-1,1315,1205,0,0
98,-181,0,0,0,0,0,0,0,0,0,-1,1322,1205,0,0
105,-181,0,0,0,0,0,0,0,0,0,-1,1329,1205,0,0
112,-181,0,0,0,0,0,0,0,0,0,-1,1336,1205,0,0
119,-181,0,0,0,0,0,0,0,0,0,-1,1343,1205,0,0
126,-181,0,0,0,0,0,0,0,0,0,-1,1350,1205,0,0
133,-181,0,0,0,0,0,0,0,0,0,-1,1357,1205,0,0
140,-181,0,0,0,0,0,0,0,0,0,-1,1364,1205,0,0
147,-181,0,0,0,0,0,0,0,0,0,-1,1371,1205,0,0
154,-181,0,0,0,0,0,0,0,0,0,-1,1378,1205,0,0
161,-181,0,0,0,0,0,0,0,0,0,-1,1385,1205,0,0
168,-181,0,0,0,0,0,0,0,0,0,-1,1392,1205,0,0
175,-181,0,0,0,0,0,0,0,0,0,-1,1399,1205,0,0
182,-181,0,0,0,0,0,0,0,0,0,-1,1406,1205,0,0
189,-181,0,0,0,0,0,0,0,0,0,-1,1413,1205,0,0
196,-181,0,0,0,0,0,0,0,0,0,-1,1420,1205,0,0
203,-181,0,0,0,0,0,0,0,0,0,-1,1427,1205,0,0
210,-181,0,0,0,0,0,0,0,0,0,-1,1434,1205,0,0
217,-181,0,0,0,0,0,0,0,0,0,-1,1441,1205,0,0
224,-181,0,0,0,0,0,0,0,0,0,-1,1448,1205,0,0
231,-181,0,0,0,0,0,0,0,0,0,-1,1455,1205,0,0
238,-181,0,0,0,0,0,0,0,0,0,-1,1462,1205,0,0
245,-181,0,0,0,0,0,0,0,0,0,-1,1469,1205,0,0
252,-181,0,0,0,0,0,0,0,0,0,-1,1476,1205,0,0
259,-181,0,0,0,0,0,0,0,0,0,-1,1483,1205,0,0
266,-181,0,0,0,0,0,0,0,0,0,-1,1490,1205,0,0
273,-181,0,0,0,0,0,0,0,0,0,-1,1497,1205,0,0
280,-181,0,0,0,0,0,0,0,0,0,-1,1504,1205,0,0
287,-181,0,0,0,0,0,0,0,0,0,-1,1511,1205,0,0
294,-181,0,0,0,0,0,0,0,0,0,-1,1518,1205,0,0
301,-181,0,0,0,0,0,0,0,0,0,-1,1525,1205,0,0
308,-181,0,0,0,0,0,0,0,0,0,-1,1532,1205,0,0
315,-181,0,0,0,0,0,0,0,0,0,-1,1539,1205,0,0
322,-181,0,0,0,0,0,0,0,0,0,-1,1546,1205,0,0
329,-181,0,0,0,0,0,0,0,0,0,-1,1553,1205,0,0
336,-181,0,0,0,0,0,0,0,0,0,-1,1560,1205,0,0
343,-181,0,0,0,0,0,0,0,0,0,-1,1567,1205,0,0
350,-181,0,0,0,0,0,0,0,0,0,-1,1574,1205,0,0
357,-181,0,0,0,0,0,0,0,0,0,-1,1581,1205,0,0
364,-181,0,0,0,0,0,0,0,0,0,-1,1588,1205,0,0
371,-181,0,0,0,0,0,0,0,0,0,-1,1595,1205,0,0
378,-181,0,0,0,0,0,0,0,0,0,-1,1602,1205,0,0
385,-181,0,0,0,0,0,0,0,0,0,-1,1609,1205,0,0
392,-181,0,0,0,0,0,0,0,0,0,-1,1616,1205,0,0
399,-181,0,0,0,0,0,0,0,0,0,-1,1623,1205,0,0
406,-181,0,0,0,0,0,0,0,0,0,-1,1630,1205,0,0
413,-181,0,0,0,0,0,0,0,0,0,-1,1637,1205,0,0
420,-181,0,0,0,0,0,0,0,0,0,-1,1644,1205,0,0
427,-181,0,0,0,0,0,0,0,0,0,-1,1651,1205,0,0
434,-181,0,0,0,0,0,0,0,0,0,-1,1658,1205,0,0
441,-181,0,0,0,0,0,0,0,0,0,-1,1665,1205,0,0
448,-181,0,0,0,0,0,0,0,0,0,-1,1672,1205,0,0
455,-181,0,0,0,0,0,0,0,0,0,-1,1679,1205,0,0
462,-181,0,0,0,0,0,0,0,0,0,-1,1686,1205,0,0
469,-181,0,0,0,0,0,0,0,0,0,-1,1693,1205,0,0
476,-181,0,0,0,0,0,0,0,0,0,-1,1700,1205,0,0
483,-181,0,0,0,0,0,0,0,0,0,-1,1707,1205,0,0
490,-181,0,0,0,0,0,0,0,0,0,-1,1714,1205,0,0
497,-181,0,0,0,0,0,0,0,0,0,-1,1721,1205,0,0
504,-181,0,0,0,0,0,0,0,0,0,-1,1728,1205,0,0
511,-181,0,0,0,0,0,0,0,0,0,-1,1735,1205,0,0
518,-181,0,0,0,0,0,0,0,0,0,-1,1742,1205,0,0
525,-181,0,0,0,0,0,0,0,0,0,-1,1749,1205,0,0
532,-181,0,0,0,0,0,0,0,0,0,-1,1756,1205,0,0
539,-181,0,0,0,0,0,0,0,0,0,-1,1763,1205,0,0
546,-181,0,0,0,0,0,0,0,0,0,-1,1770,1205,0,0
553,-181,0,0,0,0,0,0,0,0,0,-1,1777,1205,0,0
560,-181,0,0,0,0,0,0,0,0,0,-1,1784,1205,0,0
567,-181,0,0,0,0,0,0,0,0,0,-1,1791,1205,0,0
574,-181,0,0,0,0,0,0,0,0,0,-1,1798,1205,0,0
581,-181,0,0,0,0,0,0,0,0,0,-1,1805,1205,0,0
588,-181,0,0,0,0,0,0,0,0,0,-1,1812,1205,0,0
595,-181,0,0,0,0,0,0,0,0,0,-1,1819,1205,0,0
602,-181,0,0,0,0,0,0,0,0,0,-1,1826,1205,0,0
609,-181,0,0,0,0,0,0,0,0,0,-1,1833,1205,0,0
616,-181,0,0,0,0,0,0,0,0,0,-1,1840,1205,0,0
623,-181,0,0,0,0,0,0,0,0,0,-1,1847,1205,0,0
630,-181,44.9852,2.85425,-0.00492335,-0.00101595,-0.00235667,9.15385e-05,-0.00603083,-1.13149,0.00405141,0.0356189,1854,1205,44.9853,-2.85428
637,-181,44.9951,2.72314,-0.00381557,-0.000625195,-0.00188535,0.000249268,-0.00469003,-1.13651,0.003213,0.0345338,1861,1205,44.9952,-2.72314
644,-181,45.0129,2.70129,-0.0023405,-0.000397609,-0.00156681,0.000474473,-0.00321258,-1.0629,0.00231614,0.0362996,1868,1205,45.013,-2.70125
651,-181,45.0422,2.71716,-0.000825741,-0.000180175,-0.00131322,0.000849346,-0.00185526,-0.905907,0.0015971,0.0397155,1875,1205,45.0422,-2.71721
658,-181,45.0061,2.71558,0.000577406,-6.7033e-05,-0.00123956,0.00153594,-0.00102557,-0.658239,0.00148864,0.0384017,1882,1205,45.0061,-2.7156
665,-181,44.8936,2.69727,0.00146702,-0.000180681,-0.000937794,0.00189144,-0.000605105,-0.424995,0.0015038,0.0317623,1889,1205,44.8936,-2.69725
672,-181,44.8905,2.64648,0.00159774,-0.000521707,-0.000364468,0.00165866,-0.000582631,-0.165628,0.0013428,0.0225356,1896,1205,44.8905,-2.64652
679,-181,44.9333,2.60327,0.00119018,-0.000617655,0.000125923,0.00119891,-0.000626384,0.0692088,0.00107097,0.0277812,1903,1205,44.9333,-2.60326
686,-181,45.0164,2.61572,0,0,0,0,0,0,0,-1,1910,1205,45.0164,-2.61574
693,-181,36.1301,2.91016,0,0,0,0,0,0,0,-1,1917,1205,36.1302,-2.9102
700,-181,29.5845,6.58398,0,0,0,0,0,0,0,-1,1924,1205,29.5844,-6.58395
707,-181,38.2222,7.8916,0,0,0,0,0,0,0,-1,1931,1205,38.2222,-7.89158
714,-181,38.4518,7.36646,-0.00029205,-0.0010637,0.00171755,0.00108248,-0.00243823,0.674914,0.00208231,0.0481002,1938,1205,38.4518,-7.3664
721,-181,38.3467,6.96863,-0.000804658,-0.00102176,0.00211067,0.00120025,-0.00302667,0.759706,0.00251521,0.0465353,1945,1205,38.3467,-6.96857
728,-181,37.865,6.77466,-0.00133421,-0.00111858,0.00257598,0.00135185,-0.00380463,0.806313,0.00308732,0.0241217,1952,1205,37.865,-6.7746
735,-181,37.8668,6.42505,-0.00149935,-0.000753071,0.00282491,0.00172324,-0.00397566,0.851063,0.00337484,0.0114687,1959,1205,37.8668,-6.42502
742,-181,37.8558,6.06995,-0.000980467,0.000172362,0.00280642,0.00246095,-0.00326906,0.886685,0.00331917,0.0157684,1966,1205,37.8558,-6.06993
749,-181,37.8605,5.67444,0.000126254,0.00165838,0.00250735,0.00351408,-0.00172944,0.933658,0.00308524,0.0148806,1973,1205,37.8605,-5.67443
756,-181,37.8357,5.26868,0.0014176,0.00369965,0.00215907,0.00500065,0.000116591,1.02848,0.00329559,0.0111618,1980,1205,37.8357,-5.26874
763,-181,37.8265,4.89551,0.00286934,0.00624677,0.00170599,0.00695851,0.0021576,1.17555,0.00411298,0.0134306,1987,1205,37.8265,-4.89556
770,-181,37.9365,4.44885,0.00415082,0.00941659,0.00118271,0.00967004,0.00389738,1.3597,0.00561788,0.0361934,1994,1205,37.9366,-4.44885
777,-181,38.1194,3.9021,0,0,0,0,0,0,0,-1,2001,1205,38.1194,-3.90213
784,-181,34.7717,2.39917,0,0,0,0,0,0,0,-1,2008,1205,34.7717,-2.39918
791,-181,37.9451,2.53906,0,0,0,0,0,0,0,-1,2015,1205,37.9451,-2.5391
798,-181,32.4534,1.89966,0,0,0,0,0,0,0,-1,2022,1205,32.4535,-1.8997
805,-181,0,0,0,0,0,0,0,0,0,-1,2029,1205,0,0
812,-181,0,0,0,0,0,0,0,0,0,-1,2036,1205,0,0
-700,-188,0,0,0,0,0,0,0,0,0,-1,524,1212,0,0
-693,-188,0,0,0,0,0,0,0,0,0,-1,531,1212,0,0
-686,-188,0,0,0,0,0,0,0,0,0,-1,538,1212,0,0
-679,-188,-25.3886,-1.99316,0.0781301,0.116188,-0.00945237,0.118406,0.0759117,-1.34028,0.0692634,0.0440842,545,1212,-25.3886,1.99319
-672,-188,-25.5283,-1.73376,0.068698,0.101239,-0.0044112,0.101826,0.0681106,-1.43842,0.0598967,0.0478227,552,1212,-25.5283,1.73379
-665,-188,-25.5449,-0.821289,0,0,0,0,0,0,0,-1,559,1212,-25.5448,0.821295
-658,-188,-25.4963,-1.00671,0.0480041,0.0699991,0.00112157,0.0700561,0.047947,1.51998,0.0413537,0.0478433,566,1212,-25.4963,1.00666
-651,-188,-25.0492,-0.817627,0.0383353,0.0556098,0.00241619,0.0559414,0.0380037,1.43441,0.0329831,0.0470774,573,1212,-25.0492,0.817574
-644,-188,-24.6839,1.76062,0.0294771,0.0426745,0.0030165,0.0433313,0.0288203,1.35641,0.025468,0.0412488,580,1212,-24.6839,-1.76062
-637,-188,-25.1264,1.75671,0.021447,0.0312656,0.00314662,0.0321875,0.0205251,1.2858,0.0188168,0.0225963,587,1212,-25.1264,-1.75672
-630,-188,-25.1764,2.18188,0.0147915,0.0215081,0.00274586,0.0224878,0.0138119,1.2281,0.0130957,0.0109535,594,1212,-25.1764,-2.18192
-623,-188,-25.1863,2.61609,0.00941381,0.0132481,0.00204775,0.0141361,0.00852583,1.16163,0.00821912,0.0111875,601,1212,-25.1863,-2.61604
-616,-188,-25.1788,3.03821,0.00494462,0.00662952,0.00143076,0.00744743,0.00412672,1.05147,0.00430816,0.0104042,608,1212,-25.1788,-3.03815
-609,-188,-25.1775,3.46606,0.00210001,0.00226328,0.000570673,0.00275813,0.00160516,0.85644,0.00159952,0.0132577,615,1212,-25.1775,-3.46605
-602,-188,-25.1961,3.91016,0.00135337,0.000178881,-0.000192078,0.00138398,0.000148266,-0.158057,0.00087742,0.0172085,622,1212,-25.1961,-3.91019
-595,-188,-25.2684,4.30542,0.00144031,-0.000510954,-0.000585923,0.00160273,-0.000673375,-0.270415,0.00135013,0.0197431,629,1212,-25.2684,-4.30539
-588,-188,-25.4106,4.72278,0.00157298,-0.000885183,-0.000602644,0.00171278,-0.00102498,-0.227937,0.00159718,0.0243082,636,1212,-25.4106,-4.72281
-581,-188,-25.4437,5.15051,0.00130845,-0.00113769,-0.000627459,0.00146001,-0.00128925,-0.237004,0.00158831,0.0245627,643,1212,-25.4437,-5.15055
-574,-188,-25.7764,5.52673,0,0,0,0,0,0,0,-1,650,1212,-25.7764,-5.52674
-567,-188,-19.5786,4.10388,0,0,0,0,0,0,0,-1,657,1212,-19.5785,-4.10383
-560,-188,-23.9507,0.416626,0,0,0,0,0,0,0,-1,664,1212,-23.9508,-0.416602
-553,-188,-33.2805,0.874756,0,0,0,0,0,0,0,-1,671,1212,-33.2804,-0.874801
-546,-188,-33.1648,0.921143,0.000969941,-0.00163767,-0.000168588,0.000980795,-0.00164853,-0.0642955,0.00153427,0.0429473,678,1212,-33.1648,-0.921106
-539,-188,-33.131,0.929321,0.000803111,-0.00153888,2.7411e-05,0.000803432,-0.0015392,0.011702,0.00137458,0.036197,685,1212,-33.1311,-0.929371
-532,-188,-33.1086,0.974854,0.000150761,-0.00137607,0.000235365,0.00018622,-0.00141153,0.149529,0.00100884,0.0404026,692,1212,-33.1086,-0.97486
-525,-188,-33.22,0.980957,-0.000536144,-0.00121426,0.000649395,-0.000142622,-0.00160778,0.544807,0.00102762,0.0413221,699,1212,-33.22,-0.980923
-518,-188,-33.1344,0.753906,-0.000531285,-0.00101866,0.00162365,0.000866865,-0.00241681,0.710912,0.00196497,0.0429621,706,1212,-33.1344,-0.753901
-511,-188,-33.0749,0.720825,0.000689111,-0.000532325,0.00354418,0.00367481,-0.00351802,0.700078,0.00415311,0.038975,713,1212,-33.0749,-0.720836
-504,-188,0,0,0,0,0,0,0,0,0,-1,720,1212,0,0
-497,-188,0,0,0,0,0,0,0,0,0,-1,727,1212,0,0
-490,-188,0,0,0,0,0,0,0,0,0,-1,734,1212,0,0
-483,-188,0,0,0,0,0,0,0,0,0,-1,741,1212,0,0
-476,-188,0,0,0,0,0,0,0,0,0,-1,748,1212,0,0
-469,-188,0,0,0,0,0,0,0,0,0,-1,755,1212,0,0
-462,-188,0,0,0,0,0,0,0,0,0,-1,762,1212,0,0
-455,-188,0,0,0,0,0,0,0,0,0,-1,769,1212,0,0
-448,-188,0,0,0,0,0,0,0,0,0,-1,776,1212,0,0
-441,-188,0,0,0,0,0,0,0,0,0,-1,783,1212,0,0
-434,-188,0,0,0,0,0,0,0,0,0,-1,790,1212,0,0
-427,-188,0,0,0,0,0,0,0,0,0,-1,797,1212,0,0
-420,-188,0,0,0,0,0,0,0,0,0,-1,804,1212,0,0
-413,-188,0,0,0,0,0,0,0,0,0,-1,811,1212,0,0
-406,-188,0,0,0,0,0,0,0,0,0,-1,818,1212,0,0
-399,-188,0,0,0,0,0,0,0,0,0,-1,825,1212,0,0
-392,-188,0,0,0,0,0,0,0,0,0,-1,832,1212,0,0
-385,-188,0,0,0,0,0,0,0,0,0,-1,839,1212,0,0
-378,-188,0,0,0,0,0,0,0,0,0,-1,846,1212,0,0
-371,-188,0,0,0,0,0,0,0,0,0,-1,853,1212,0,0
-364,-188,0,0,0,0,0,0,0,0,0,-1,860,1212,0,0
-357,-188,0,0,0,0,0,0,0,0,0,-1,867,1212,0,0
-350,-188,0,0,0,0,0,0,0,0,0,-1,874,1212,0,0
-343,-188,0,0,0,0,0,0,0,0,0,-1,881,1212,0,0
-336,-188,0,0,0,0,0,0,0,0,0,-1,888,1212,0,0
-329,-188,0,0,0,0,0,0,0,0,0,-1,895,1212,0,0
-322,-188,0,0,0,0,0,0,0,0,0,-1,902,1212,0,0
-315,-188,0,0,0,0,0,0,0,0,0,-1,909,1212,0,0
-308,-188,0,0,0,0,0,0,0,0,0,-1,916,1212,0,0
-301,-188,0,0,0,0,0,0,0,0,0,-1,923,1212,0,0
-294,-188,0,0,0,0,0,0,0,0,0,-1,930,1212,0,0
-287,-188,0,0,0,0,0,0,0,0,0,-1,937,1212,0,0
-280,-188,0,0,0,0,0,0,0,0,0,-1,944,1212,0,0
-273,-188,0,0,0,0,0,0,0,0,0,-1,951,1212,0,0
-266,-188,0,0,0,0,0,0,0,0,0,-1,958,1212,0,0
-259,-188,0,0,0,0,0,0,0,0,0,-1,965,1212,0,0
-252,-188,0,0,0,0,0,0,0,0,0,-1,972,1212,0,0
-245,-188,0,0,0,0,0,0,0,0,0,-1,979,1212,0,0
-238,-188,0,0,0,0,0,0,0,0,0,-1,986,1212,0,0
-231,-188,0,0,0,0,0,0,0,0,0,-1,993,1212,0,0
-224,-188,0,0,0,0,0,0,0,0,0,-1,1000,1212,0,0
-217,-188,0,0,0,0,0,0,0,0,0,-1,1007,1212,0,0
-210,-188,0,0,0,0,0,0,0,0,0,-1,1014,1212,0,0
-203,-188,0,0,0,0,0,0,0,0,0,-1,1021,1212,0,0
-196,-188,0,0,0,0,0,0,0,0,0,-1,1028,1212,0,0
-189,-188,0,0,0,0,0,0,0,0,0,-1,1035,1212,0,0
-182,-188,0,0,0,0,0,0,0,0,0,-1,1042,1212,0,0
-175,-188,0,0,0,0,0,0,0,0,0,-1,1049,1212,0,0
-168,-188,0,0,0,0,0,0,0,0,0,-1,1056,1212,0,0
-161,-188,0,0,0,0,0,0,0,0,0,-1,1063,1212,0,0
-154,-188,0,0,0,0,0,0,0,0,0,-1,1070,1212,0,0
-147,-188,0,0,0,0,0,0,0,0,0,-1,1077,1212,0,0
-140,-188,0,0,0,0,0,0,0,0,0,-1,1084,1212,0,0
-133,-188,0,0,0,0,0,0,0,0,0,-1,1091,1212,0,0
-126,-188,0,0,0,0,0,0,0,0,0,-1,1098,1212,0,0
-119,-188,0,0,0,0,0,0,0,0,0,-1,1105,1212,0,0
-112,-188,0,0,0,0,0,0,0,0,0,-1,1112,1212,0,0
-105,-188,0,0,0,0,0,0,0,0,0,-1,1119,1212,0,0
-98,-188,0,0,0,0,0,0,0,0,0,-1,1126,1212,0,0
-91,-188,0,0,0,0,0,0,0,0,0,-1,1133,1212,0,0
-84,-188,0,0,0,0,0,0,0,0,0,-1,1140,1212,0,0
-77,-188,0,0,0,0,0,0,0,0,0,-1,1147,1212,0,0
-70,-188,0,0,0,0,0,0,0,0,0,-1,1154,1212,0,0
-63,-188,0,0,0,0,0,0,0,0,0,-1,1161,1212,0,0
-56,-188,0,0,0,0,0,0,0,0,0,-1,1168,1212,0,0
-49,-188,0,0,0,0,0,0,0,0,0,-1,1175,1212,0,0
-42,-188,0,0,0,0,0,0,0,0,0,-1,1182,1212,0,0
-35,-188,0,0,0,0,0,0,0,0,0,-1,1189,1212,0,0
-28,-188,0,0,0,0,0,0,0,0,0,-1,1196,1212,0,0
-21,-188,0,0,0,0,0,0,0,0,0,-1,1203,1212,0,0
-14,-188,0,0,0,0,0,0,0,0,0,-1,1210,1212,0,0
-7,-188,0,0,0,0,0,0,0,0,0,-1,1217,1212,0,0
0,-188,0,0,0,0,0,0,0,0,0,-1,1224,1212,0,0
7,-188,0,0,0,0,0,0,0,0,0,-1,1231,1212,0,0
14,-188,0,0,0,0,0,0,0,0,0,-1,1238,1212,0,0
21,-188,0,0,0,0,0,0,0,0,0,-1,1245,1212,0,0
28,-188,0,0,0,0,0,0,0,0,0,-1,1252,1212,0,0
35,-188,0,0,0,0,0,0,0,0,0,-1,1259,1212,0,0
42,-188,0,0,0,0,0,0,0,0,0,-1,1266,1212,0,0
49,-188,0,0,0,0,0,0,0,0,0,-1,1273,1212,0,0
56,-188,0,0,0,0,0,0,0,0,0,-1,1280,1212,0,0
63,-188,0,0,0,0,0,0,0,0,0,-1,1287,1212,0,0
70,-188,0,0,0,0,0,0,0,0,0,-1,1294,1212,0,0
77,-188,0,0,0,0,0,0,0,0,0,-1,1301,1212,0,0
84,-188,0,0,0,0,0,0,0,0,0,-1,1308,1212,0,0
91,-188,0,0,0,0,0,0,0,0,0,-1,1315,1212,0,0
98,-188,0,0,0,0,0,0,0,0,0,-1,1322,1212,0,0
105,-188,0,0,0,0,0,0,0,0,0,-1,1329,1212,0,0
112,-188,0,0,0,0,0,0,0,0,0,-1,1336,1212,0,0
119,-188,0,0,0,0,0,0,0,0,0,-1,1343,1212,0,0
126,-188,0,0,0,0,0,0,0,0,0,-1,1350,1212,0,0
133,-188,0,0,0,0,0,0,0,0,0,-1,1357,1212,0,0
140,-188,0,0,0,0,0,0,0,0,0,-1,1364,1212,0,0
147,-188,0,0,0,0,0,0,0,0,0,-1,1371,1212,0,0
154,-188,0,0,0,0,0,0,0,0,0,-1,1378,1212,0,0
161,-188,0,0,0,0,0,0,0,0,0,-1,1385,1212,0,0
168,-188,0,0,0,0,0,0,0,0,0,-1,1392,1212,0,0
175,-188,0,0,0,0,0,0,0,0,0,-1,1399,1212,0,0
182,-188,0,0,0,0,0,0,0,0,0,-1,1406,1212,0,0
189,-188,0,0,0,0,0,0,0,0,0,-1,1413,1212,0,0
196,-188,0,0,0,0,0,0,0,0,0,-1,1420,1212,0,0
203,-188,0,0,0,0,0,0,0,0,0,-1,1427,1212,0,0
210,-188,0,0,0,0,0,0,0,0,0,-1,1434,1212,0,0
217,-188,0,0,0,0,0,0,0,0,0,-1,1441,1212,0,0
224,-188,0,0,0,0,0,0,0,0,0,-1,1448,1212,0,0
231,-188,0,0,0,0,0,0,0,0,0,-1,1455,1212,0,0
238,-188,0,0,0,0,0,0,0,0,0,-1,1462,1212,0,0
245,-188,0,0,0,0,0,0,0,0,0,-1,1469,1212,0,0
252,-188,0,0,0,0,0,0,0,0,0,-1,1476,1212,0,0
259,-188,0,0,0,0,0,0,0,0,0,-1,1483,1212,0,0
266,-188,0,0,0,0,0,0,0,0,0,-1,1490,1212,0,0
273,-188,0,0,0,0,0,0,0,0,0,-1,1497,1212,0,0
280,-188,0,0,0,0,0,0,0,0,0,-1,1504,1212,0,0
287,-188,0,0,0,0,0,0,0,0,0,-1,1511,1212,0,0
294,-188,0,0,0,0,0,0,0,0,0,-1,1518,1212,0,0
301,-188,0,0,0,0,0,0,0,0,0,-1,1525,1212,0,0
308,-188,0,0,0,0,0,0,0,0,0,-1,1532,1212,0,0
315,-188,0,0,0,0,0,0,0,0,0,-1,1539,1212,0,0
322,-188,0,0,0,0,0,0,0,0,0,-1,1546,1212,0,0
329,-188,0,0,0,0,0,0,0,0,0,-1,1553,1212,0,0
336,-188,0,0,0,0,0,0,0,0,0,-1,1560,1212,0,0
343,-188,0,0,0,0,0,0,0,0,0,-1,1567,1212,0,0
350,-188,0,0,0,0,0,0,0,0,0,-1,1574,1212,0,0
357,-188,0,0,0,0,0,0,0,0,0,-1,1581,1212,0,0
364,-188,0,0,0,0,0,0,0,0,0,-1,1588,1212,0,0
371,-188,0,0,0,0,0,0,0,0,0,-1,1595,1212,0,0
378,-188,0,0,0,0,0,0,0,0,0,-1,1602,1212,0,0
385,-188,0,0,0,0,0,0,0,0,0,-1,1609,1212,0,0
392,-188,0,0,0,0,0,0,0,0,0,-1,1616,1212,0,0
399,-188,0,0,0,0,0,0,0,0,0,-1,1623,1212,0,0
406,-188,0,0,0,0,0,0,0,0,0,-1,1630,1212,0,0
413,-188,0,0,0,0,0,0,0,0,0,-1,1637,1212,0,0
420,-188,0,0,0,0,0,0,0,0,0,-1,1644,1212,0,0
427,-188,0,0,0,0,0,0,0,0,0,-1,1651,1212,0,0
434,-188,0,0,0,0,0,0,0,0,0,-1,1658,1212,0,0
441,-188,0,0,0,0,0,0,0,0,0,-1,1665,1212,0,0
448,-188,0,0,0,0,0,0,0,0,0,-1,1672,1212,0,0
455,-188,0,0,0,0,0,0,0,0,0,-1,1679,1212,0,0
462,-188,0,0,0,0,0,0,0,0,0,-1,1686,1212,0,0
469,-188,0,0,0,0,0,0,0,0,0,-1,1693,1212,0,0
476,-188,0,0,0,0,0,0,0,0,0,-1,1700,1212,0,0
483,-188,0,0,0,0,0,0,0,0,0,-1,1707,1212,0,0
490,-188,0,0,0,0,0,0,0,0,0,-1,1714,1212,0,0
497,-188,0,0,0,0,0,0,0,0,0,-1,1721,1212,0,0
504,-188,0,0,0,0,0,0,0,0,0,-1,1728,1212,0,0
511,-188,0,0,0,0,0,0,0,0,0,-1,1735,1212,0,0
518,-188,0,0,0,0,0,0,0,0,0,-1,1742,1212,0,0
525,-188,0,0,0,0,0,0,0,0,0,-1,1749,1212,0,0
532,-188,0,0,0,0,0,0,0,0,0,-1,1756,1212,0,0
539,-188,0,0,0,0,0,0,0,0,0,-1,1763,1212,0,0
546,-188,0,0,0,0,0,0,0,0,0,-1,1770,1212,0,0
553,-188,0,0,0,0,0,0,0,0,0,-1,1777,1212,0,0
560,-188,0,0,0,0,0,0,0,0,0,-1,1784,1212,0,0
567,-188,0,0,0,0,0,0,0,0,0,-1,1791,1212,0,0
574,-188,0,0,0,0,0,0,0,0,0,-1,1798,1212,0,0
581,-188,0,0,0,0,0,0,0,0,0,-1,1805,1212,0,0
588,-188,0,0,0,0,0,0,0,0,0,-1,1812,1212,0,0
595,-188,0,0,0,0,0,0,0,0,0,-1,1819,1212,0,0
602,-188,0,0,0,0,0,0,0,0,0,-1,1826,1212,0,0
609,-188,0,0,0,0,0,0,0,0,0,-1,1833,1212,0,0
616,-188,0,0,0,0,0,0,0,0,0,-1,1840,1212,0,0
623,-188,0,0,0,0,0,0,0,0,0,-1,1847,1212,0,0
630,-188,44.9641,2.88135,-0.00409255,-0.000355621,-0.00196205,0.000485304,-0.00493348,-1.16588,0.00346211,0.0403658,1854,1212,44.9641,-2.8813
637,-188,44.9297,2.68481,-0.00287669,-0.000138094,-0.00164569,0.000633464,-0.00364825,-1.13239,0.0026685,0.0372831,1861,1212,44.9296,-2.68487
644,-188,44.8542,2.61255,-0.00133446,-7.47372e-06,-0.00145874,0.000931578,-0.00227351,-0.998834,0.00190376,0.0338216,1868,1212,44.8543,-2.6126
651,-188,44.8602,2.67395,0.000163667,6.94534e-05,-0.0012854,0.00140282,-0.0011697,-0.767083,0.00148728,0.03067,1875,1212,44.8602,-2.67393
658,-188,44.9543,2.66443,0.00142044,3.47257e-05,-0.00122891,0.00213835,-0.000683191,-0.528712,0.0016997,0.0327985,1882,1212,44.9543,-2.66441
665,-188,44.9053,2.65149,0.0020896,-0.000182693,-0.000893129,0.00239862,-0.000491714,-0.333105,0.00178569,0.0291064,1889,1212,44.9053,-2.65145
672,-188,44.9082,2.64661,0.00209062,-0.000574486,-0.000331047,0.00213112,-0.000614991,-0.121751,0.00166407,0.0216993,1896,1212,44.9082,-2.64666
679,-188,44.973,2.61389,0.00167248,-0.000661657,0.000133023,0.00168004,-0.000669213,0.0567455,0.00139757,0.0420181,1903,1212,44.973,-2.61391
686,-188,45.041,2.53491,0,0,0,0,0,0,0,-1,1910,1212,45.041,-2.53496
693,-188,35.9054,2.18042,0,0,0,0,0,0,0,-1,1917,1212,35.9054,-2.18038
700,-188,37.8777,8.28552,0,0,0,0,0,0,0,-1,1924,1212,37.8776,-8.28554
707,-188,37.7268,7.91492,0.000425206,-0.00118067,0.00142579,0.0012586,-0.00201406,0.528956,0.00190618,0.0374871,1931,1212,37.7269,-7.91497
714,-188,37.8441,7.56531,-1.62654e-05,-0.00123004,0.00171577,0.00119678,-0.00244309,0.61541,0.00214215,0.0328142,1938,1212,37.8441,-7.56535
721,-188,37.6375,7.23035,-0.000571688,-0.0012083,0.00209328,0.00122734,-0.00300733,0.709945,0.00251586,0.0349931,1945,1212,37.6374,-7.23033
728,-188,37.4685,6.80603,-0.00108561,-0.00128684,0.00249116,0.00130697,-0.00367941,0.765214,0.00298553,0.0122743,1952,1212,37.4685,-6.80606
735,-188,37.4513,6.43298,-0.00109788,-0.000792285,0.0025987,0.00165811,-0.00354827,0.814763,0.00307123,0.0124276,1959,1212,37.4513,-6.43296
742,-188,37.422,6.05823,-0.000302623,0.000259832,0.00238258,0.00237773,-0.00242052,0.844144,0.0027703,0.0139445,1966,1212,37.4221,-6.05827
749,-188,37.4408,5.67603,0.00109927,0.00182138,0.00186645,0.00336137,-0.000440731,0.88094,0.00240135,0.0136919,1973,1212,37.4408,-5.67598
756,-188,37.4371,5.26953,0.00273925,0.00385,0.00131488,0.00472198,0.00186727,0.98522,0.00274603,0.0128249,1980,1212,37.4372,-5.26949
763,-188,37.4487,4.87939,0.00467256,0.00637772,0.000619448,0.00657899,0.00447128,1.25663,0.00387923,0.0159145,1987,1212,37.4487,-4.87935
770,-188,37.4567,4.43909,0.00651518,0.00953806,-0.000129897,0.00954364,0.00650961,-1.52793,0.0056305,0.0316689,1994,1212,37.4567,-4.43912
777,-188,37.5123,3.96729,0,0,0,0,0,0,0,-1,2001,1212,37.5124,-3.96728
784,-188,34.7103,1.6665,0,0,0,0,0,0,0,-1,2008,1212,34.7103,-1.66656
791,-188,38.8401,0.969482,0,0,0,0,0,0,0,-1,2015,1212,38.8401,-0.969542
798,-188,38.8203,2.93079,0,0,0,0,0,0,0,-1,2022,1212,38.8204,-2.93082
805,-188,0,0,0,0,0,0,0,0,0,-1,2029,1212,0,0
812,-188,0,0,0,0,0,0,0,0,0,-1,2036,1212,0,0
-700,-195,0,0,0,0,0,0,0,0,0,-1,524,1219,0,0
-693,-195,0,0,0,0,0,0,0,0,0,-1,531,1219,0,0
-686,-195,0,0,0,0,0,0,0,0,0,-1,538,1219,0,0
-679,-195,-25.1219,-2.19617,0,0,0,0,0,0,0,-1,545,1219,-25.1219,2.19614
-672,-195,-24.9609,-2.09473,0,0,0,0,0,0,0,-1,552,1219,-24.9609,2.09478
-665,-195,-25.8173,-2.0155,0,0,0,0,0,0,0,-1,559,1219,-25.8173,2.01552
-658,-195,-25.1318,-1.56885,0.0420597,0.079702,0.00598156,0.0806296,0.0411321,1.41694,0.0465547,0.04767,566,1219,-25.1317,1.56883
-651,-195,-24.3953,-1.25659,0.0346478,0.0630172,0.00611217,0.0642781,0.0333869,1.36737,0.0371203,0.0471893,573,1219,-24.3954,1.25665
-644,-195,-24.4783,0.242676,0.0275309,0.0481824,0.00574115,0.0496711,0.0260422,1.31708,0.0286889,0.0439899,580,1219,-24.4783,-0.24264
-637,-195,-24.5961,1.84558,0.0207495,0.0351083,0.00501192,0.0366846,0.0191732,1.26607,0.0211871,0.0228342,587,1219,-24.5961,-1.84555
-630,-195,-24.7182,2.18591,0.0148759,0.0241696,0.00396789,0.0256331,0.0134123,1.21742,0.0148046,0.00908387,594,1219,-24.7182,-2.18592
-623,-195,-24.7466,2.61365,0.0101655,0.0151158,0.00276434,0.0163512,0.00893013,1.15053,0.00945374,0.00920224,601,1219,-24.7466,-2.6137
-616,-195,-24.7413,3.05847,0.00599575,0.00795478,0.00185789,0.00907555,0.00487498,1.02799,0.00524459,0.0102875,608,1219,-24.7413,-3.05845
-609,-195,-24.7459,3.51367,0.00292448,0.0030617,0.000768062,0.00376421,0.00222197,0.829944,0.00218505,0.0180203,615,1219,-24.7459,-3.51369
-602,-195,-24.7883,3.93518,0.00182775,0.000404603,-0.000124858,0.00183862,0.000393731,-0.0868499,0.00111786,0.0224446,622,1219,-24.7883,-3.93515
-595,-195,-24.8113,4.36157,0.00184071,-0.000585884,-0.000560287,0.00196383,-0.000709005,-0.216307,0.00159885,0.0178898,629,1219,-24.8113,-4.3616
-588,-195,-24.8414,4.83264,0.00214045,-0.0011562,-0.000467,0.00220533,-0.00122108,-0.138041,0.00200526,0.0206712,636,1219,-24.8414,-4.83261
-581,-195,-24.6505,5.36121,0,0,0,0,0,0,0,-1,643,1219,-24.6505,-5.36124
-574,-195,-22.6731,4.11804,0,0,0,0,0,0,0,-1,650,1219,-22.6731,-4.11802
-567,-195,-20.6388,3.78369,0,0,0,0,0,0,0,-1,657,1219,-20.6388,-3.78369
-560,-195,-20.878,2.10388,0,0,0,0,0,0,0,-1,664,1219,-20.878,-2.10385
-553,-195,-33.462,1.11926,0,0,0,0,0,0,0,-1,671,1219,-33.462,-1.11925
-546,-195,-33.2007,0.982422,0.00151737,-0.00209689,5.61048e-05,0.00151824,-0.00209776,0.0155182,0.00209662,0.0485469,678,1219,-33.2007,-0.982406
-539,-195,-33.045,0.874268,0.00127944,-0.00198968,0.000186608,0.00129005,-0.00200029,0.0568361,0.00191438,0.0403656,685,1219,-33.045,-0.87427
-532,-195,-33.1772,0.870605,0.000518086,-0.00180898,0.00028112,0.000551565,-0.00184245,0.118533,0.00144762,0.0358676,692,1219,-33.1772,-0.870559
-525,-195,-33.2731,0.87439,-0.000538545,-0.00158683,0.000432288,-0.000383276,-0.00174209,0.344828,0.00105706,0.039267,699,1219,-33.2731,-0.874412
-518,-195,-33.2612,0.854492,-0.00121822,-0.00141898,0.001029,-0.000284717,-0.00235248,0.736775,0.00148255,0.0432625,706,1219,-33.2612,-0.854444
-511,-195,-33.2198,0.856934,-0.000542816,-0.00101491,0.00272449,0.00195584,-0.00351356,0.742187,0.00320017,0.0431465,713,1219,-33.2198,-0.856958
-504,-195,0,0,0,0,0,0,0,0,0,-1,720,1219,0,0
-497,-195,0,0,0,0,0,0,0,0,0,-1,727,1219,0,0
-490,-195,0,0,0,0,0,0,0,0,0,-1,734,1219,0,0
-483,-195,0,0,0,0,0,0,0,0,0,-1,741,1219,0,0
-476,-195,0,0,0,0,0,0,0,0,0,-1,748,1219,0,0
-469,-195,0,0,0,0,0,0,0,0,0,-1,755,1219,0,0
-462,-195,0,0,0,0,0,0,0,0,0,-1,762,1219,0,0
-455,-195,0,0,0,0,0,0,0,0,0,-1,769,1219,0,0
-448,-195,0,0,0,0,0,0,0,0,0,-1,776,1219,0,0
-441,-195,0,0,0,0,0,0,0,0,0,-1,783,1219,0,0
-434,-195,0,0,0,0,0,0,0,0,0,-1,790,1219,0,0
-427,-195,0,0,0,0,0,0,0,0,0,-1,797,1219,0,0
-420,-195,0,0,0,0,0,0,0,0,0,-1,804,1219,0,0
-413,-195,0,0,0,0,0,0,0,0,0,-1,811,1219,0,0
-406,-195,0,0,0,0,0,0,0,0,0,-1,818,1219,0,0
-399,-195,0,0,0,0,0,0,0,0,0,-1,825,1219,0,0
-392,-195,0,0,0,0,0,0,0,0,0,-1,832,1219,0,0
-385,-195,0,0,0,0,0,0,0,0,0,-1,839,1219,0,0
-378,-195,0,0,0,0,0,0,0,0,0,-1,846,1219,0,0
-371,-195,0,0,0,0,0,0,0,0,0,-1,853,1219,0,0
-364,-195,0,0,0,0,0,0,0,0,0,-1,860,1219,0,0
-357,-195,0,0,0,0,0,0,0,0,0,-1,867,1219,0,0
-350,-195,0,0,0,0,0,0,0,0,0,-1,874,1219,0,0
-343,-195,0,0,0,0,0,0,0,0,0,-1,881,1219,0,0
-336,-195,0,0,0,0,0,0,0,0,0,-1,888,1219,0,0
-329,-195,0,0,0,0,0,0,0,0,0,-1,895,1219,0,0
-322,-195,0,0,0,0,0,0,0,0,0,-1,902,1219,0,0
-315,-195,0,0,0,0,0,0,0,0,0,-1,909,1219,0,0
-308,-195,0,0,0,0,0,0,0,0,0,-1,916,1219,0,0
-301,-195,0,0,0,0,0,0,0,0,0,-1,923,1219,0,0
-294,-195,0,0,0,0,0,0,0,0,0,-1,930,1219,0,0
-287,-195,0,0,0,0,0,0,0,0,0,-1,937,1219,0,0
-280,-195,0,0,0,0,0,0,0,0,0,-1,944,1219,0,0
-273,-195,0,0,0,0,0,0,0,0,0,-1,951,1219,0,0
-266,-195,0,0,0,0,0,0,0,0,0,-1,958,1219,0,0
-259,-195,0,0,0,0,0,0,0,0,0,-1,965,1219,0,0
-252,-195,0,0,0,0,0,0,0,0,0,-1,972,1219,0,0
-245,-195,0,0,0,0,0,0,0,0,0,-1,979,1219,0,0
-238,-195,0,0,0,0,0,0,0,0,0,-1,986,1219,0,0
-231,-195,0,0,0,0,0,0,0,0,0,-1,993,1219,0,0
-224,-195,0,0,0,0,0,0,0,0,0,-1,1000,1219,0,0
-217,-195,0,0,0,0,0,0,0,0,0,-1,1007,1219,0,0
-210,-195,0,0,0,0,0,0,0,0,0,-1,1014,1219,0,0
-203,-195,0,0,0,0,0,0,0,0,0,-1,1021,1219,0,0
-196,-195,0,0,0,0,0,0,0,0,0,-1,1028,1219,0,0
-189,-195,0,0,0,0,0,0,0,0,0,-1,1035,1219,0,0
-182,-195,0,0,0,0,0,0,0,0,0,-1,1042,1219,0,0
-175,-195,0,0,0,0,0,0,0,0,0,-1,1049,1219,0,0
-168,-195,0,0,0,0,0,0,0,0,0,-1,1056,1219,0,0
-161,-195,0,0,0,0,0,0,0,0,0,-1,1063,1219,0,0
-154,-195,0,0,0,0,0,0,0,0,0,-1,1070,1219,0,0
-147,-195,0,0,0,0,0,0,0,0,0,-1,1077,1219,0,0
-140,-195,0,0,0,0,0,0,0,0,0,-1,1084,1219,0,0
-133,-195,0,0,0,0,0,0,0,0,0,-1,1091,1219,0,0
-126,-195,0,0,0,0,0,0,0,0,0,-1,1098,1219,0,0
-119,-195,0,0,0,0,0,0,0,0,0,-1,1105,1219,0,0
-112,-195,0,0,0,0,0,0,0,0,0,-1,1112,1219,0,0
-105,-195,0,0,0,0,0,0,0,0,0,-1,1119,1219,0,0
-98,-195,0,0,0,0,0,0,0,0,0,-1,1126,1219,0,0
-91,-195,0,0,0,0,0,0,0,0,0,-1,1133,1219,0,0
-84,-195,0,0,0,0,0,0,0,0,0,-1,1140,1219,0,0
-77,-195,0,0,0,0,0,0,0,0,0,-1,1147,1219,0,0
-70,-195,0,0,0,0,0,0,0,0,0,-1,1154,1219,0,0
-63,-195,0,0,0,0,0,0,0,0,0,-1,1161,1219,0,0
-56,-195,0,0,0,0,0,0,0,0,0,-1,1168,1219,0,0
-49,-195,0,0,0,0,0,0,0,0,0,-1,1175,1219,0,0
-42,-195,0,0,0,0,0,0,0,0,0,-1,1182,1219,0,0
-35,-195,0,0,0,0,0,0,0,0,0,-1,1189,1219,0,0
-28,-195,0,0,0,0,0,0,0,0,0,-1,1196,1219,0,0
-21,-195,0,0,0,0,0,0,0,0,0,-1,1203,1219,0,0
-14,-195,0,0,0,0,0,0,0,0,0,-1,1210,1219,0,0
-7,-195,0,0,0,0,0,0,0,0,0,-1,1217,1219,0,0
0,-195,0,0,0,0,0,0,0,0,0,-1,1224,1219,0,0
7,-195,0,0,0,0,0,0,0,0,0,-1,1231,1219,0,0
14,-195,0,0,0,0,0,0,0,0,0,-1,1238,1219,0,0
21,-195,0,0,0,0,0,0,0,0,0,-1,1245,1219,0,0
28,-195,0,0,0,0,0,0,0,0,0,-1,1252,1219,0,0
35,-195,0,0,0,0,0,0,0,0,0,-1,1259,1219,0,0
42,-195,0,0,0,0,0,0,0,0,0,-1,1266,1219,0,0
49,-195,0,0,0,0,0,0,0,0,0,-1,1273,1219,0,0
56,-195,0,0,0,0,0,0,0,0,0,-1,1280,1219,0,0
63,-195,0,0,0,0,0,0,0,0,0,-1,1287,1219,0,0
70,-195,0,0,0,0,0,0,0,0,0,-1,1294,1219,0,0
77,-195,0,0,0,0,0,0,0,0,0,-1,1301,1219,0,0
84,-195,0,0,0,0,0,0,0,0,0,-1,1308,1219,0,0
91,-195,0,0,0,0,0,0,0,0,0,-1,1315,1219,0,0
98,-195,0,0,0,0,0,0,0,0,0,-1,1322,1219,0,0
105,-195,0,0,0,0,0,0,0,0,0,-1,1329,1219,0,0
112,-195,0,0,0,0,0,0,0,0,0,-1,1336,1219,0,0
119,-195,0,0,0,0,0,0,0,0,0,-1,1343,1219,0,0
126,-195,0,0,0,0,0,0,0,0,0,-1,1350,1219,0,0
133,-195,0,0,0,0,0,0,0,0,0,-1,1357,1219,0,0
140,-195,0,0,0,0,0,0,0,0,0,-1,1364,1219,0,0
147,-195,0,0,0,0,0,0,0,0,0,-1,1371,1219,0,0
154,-195,0,0,0,0,0,0,0,0,0,-1,1378,1219,0,0
161,-195,0,0,0,0,0,0,0,0,0,-1,1385,1219,0,0
168,-195,0,0,0,0,0,0,0,0,0,-1,1392,1219,0,0
175,-195,0,0,0,0,0,0,0,0,0,-1,1399,1219,0,0
182,-195,0,0,0,0,0,0,0,0,0,-1,1406,1219,0,0
189,-195,0,0,0,0,0,0,0,0,0,-1,1413,1219,0,0
196,-195,0,0,0,0,0,0,0,0,0,-1,1420,1219,0,0
203,-195,0,0,0,0,0,0,0,0,0,-1,1427,1219,0,0
210,-195,0,0,0,0,0,0,0,0,0,-1,1434,1219,0,0
217,-195,0,0,0,0,0,0,0,0,0,-1,1441,1219,0,0
224,-195,0,0,0,0,0,0,0,0,0,-1,1448,1219,0,0
231,-195,0,0,0,0,0,0,0,0,0,-1,1455,1219,0,0
238,-195,0,0,0,0,0,0,0,0,0,-1,1462,1219,0,0
245,-195,0,0,0,0,0,0,0,0,0,-1,1469,1219,0,0
252,-195,0,0,0,0,0,0,0,0,0,-1,1476,1219,0,0
259,-195,0,0,0,0,0,0,0,0,0,-1,1483,1219,0,0
266,-195,0,0,0,0,0,0,0,0,0,-1,1490,1219,0,0
273,-195,0,0,0,0,0,0,0,0,0,-1,1497,1219,0,0
280,-195,0,0,0,0,0,0,0,0,0,-1,1504,1219,0,0
287,-195,0,0,0,0,0,0,0,0,0,-1,1511,1219,0,0
294,-195,0,0,0,0,0,0,0,0,0,-1,1518,1219,0,0
301,-195,0,0,0,0,0,0,0,0,0,-1,1525,1219,0,0
308,-195,0,0,0,0,0,0,0,0,0,-1,1532,1219,0,0
315,-195,0,0,0,0,0,0,0,0,0,-1,1539,1219,0,0
322,-195,0,0,0,0,0,0,0,0,0,-1,1546,1219,0,0
329,-195,0,0,0,0,0,0,0,0,0,-1,1553,1219,0,0
336,-195,0,0,0,0,0,0,0,0,0,-1,1560,1219,0,0
343,-195,0,0,0,0,0,0,0,0,0,-1,1567,1219,0,0
350,-195,0,0,0,0,0,0,0,0,0,-1,1574,1219,0,0
357,-195,0,0,0,0,0,0,0,0,0,-1,1581,1219,0,0
364,-195,0,0,0,0,0,0,0,0,0,-1,1588,1219,0,0
371,-195,0,0,0,0,0,0,0,0,0,-1,1595,1219,0,0
378,-195,0,0,0,0,0,0,0,0,0,-1,1602,1219,0,0
385,-195,0,0,0,0,0,0,0,0,0,-1,1609,1219,0,0
392,-195,0,0,0,0,0,0,0,0,0,-1,1616,1219,0,0
399,-195,0,0,0,0,0,0,0,0,0,-1,1623,1219,0,0
406,-195,0,0,0,0,0,0,0,0,0,-1,1630,1219,0,0
413,-195,0,0,0,0,0,0,0,0,0,-1,1637,1219,0,0
420,-195,0,0,0,0,0,0,0,0,0,-1,1644,1219,0,0
427,-195,0,0,0,0,0,0,0,0,0,-1,1651,1219,0,0
434,-195,0,0,0,0,0,0,0,0,0,-1,1658,1219,0,0
441,-195,0,0,0,0,0,0,0,0,0,-1,1665,1219,0,0
448,-195,0,0,0,0,0,0,0,0,0,-1,1672,1219,0,0
455,-195,0,0,0,0,0,0,0,0,0,-1,1679,1219,0,0
462,-195,0,0,0,0,0,0,0,0,0,-1,1686,1219,0,0
469,-195,0,0,0,0,0,0,0,0,0,-1,1693,1219,0,0
476,-195,0,0,0,0,0,0,0,0,0,-1,1700,1219,0,0
483,-195,0,0,0,0,0,0,0,0,0,-1,1707,1219,0,0
490,-195,0,0,0,0,0,0,0,0,0,-1,1714,1219,0,0
497,-195,0,0,0,0,0,0,0,0,0,-1,1721,1219,0,0
504,-195,0,0,0,0,0,0,0,0,0,-1,1728,1219,0,0
511,-195,0,0,0,0,0,0,0,0,0,-1,1735,1219,0,0
518,-195,0,0,0,0,0,0,0,0,0,-1,1742,1219,0,0
525,-195,0,0,0,0,0,0,0,0,0,-1,1749,1219,0,0
532,-195,0,0,0,0,0,0,0,0,0,-1,1756,1219,0,0
539,-195,0,0,0,0,0,0,0,0,0,-1,1763,1219,0,0
546,-195,0,0,0,0,0,0,0,0,0,-1,1770,1219,0,0
553,-195,0,0,0,0,0,0,0,0,0,-1,1777,1219,0,0
560,-195,0,0,0,0,0,0,0,0,0,-1,1784,1219,0,0
567,-195,0,0,0,0,0,0,0,0,0,-1,1791,1219,0,0
574,-195,0,0,0,0,0,0,0,0,0,-1,1798,1219,0,0
581,-195,0,0,0,0,0,0,0,0,0,-1,1805,1219,0,0
588,-195,0,0,0,0,0,0,0,0,0,-1,1812,1219,0,0
595,-195,0,0,0,0,0,0,0,0,0,-1,1819,1219,0,0
602,-195,0,0,0,0,0,0,0,0,0,-1,1826,1219,0,0
609,-195,0,0,0,0,0,0,0,0,0,-1,1833,1219,0,0
616,-195,0,0,0,0,0,0,0,0,0,-1,1840,1219,0,0
623,-195,0,0,0,0,0,0,0,0,0,-1,1847,1219,0,0
630,-195,44.9722,2.72632,-0.00325165,-8.45678e-05,-0.00157056,0.0005622,-0.00389841,-1.18015,0.00280518,0.0400002,1854,1219,44.9721,-2.72635
637,-195,44.9277,2.71631,-0.00193007,5.55082e-05,-0.00145108,0.000820916,-0.00269548,-1.08541,0.00212418,0.0375396,1861,1219,44.9278,-2.71628
644,-195,44.9094,2.6377,-0.00031774,0.000121647,-0.00138689,0.00130614,-0.00150223,-0.863949,0.00162273,0.0330794,1868,1219,44.9095,-2.63767
651,-195,44.9161,2.57861,0.00112545,0.00010095,-0.00132373,0.00203259,-0.000806192,-0.600785,0.00168919,0.0261737,1875,1219,44.9161,-2.57858
658,-195,44.941,2.63135,0.00220706,-4.27075e-05,-0.00130051,0.00280168,-0.000637327,-0.428842,0.00211252,0.0244478,1882,1219,44.941,-2.63131
665,-195,44.9216,2.62854,0.00268077,-0.00032469,-0.000964517,0.00296368,-0.000607594,-0.28531,0.00220638,0.0233366,1889,1219,44.9216,-2.62852
672,-195,44.9811,2.59961,0.00260873,-0.000735605,-0.000460774,0.00267106,-0.000797928,-0.134441,0.00209789,0.0325032,1896,1219,44.981,-2.59956
679,-195,45.0128,2.64307,0.00224171,-0.000820931,-3.04872e-05,0.00224202,-0.000821235,-0.00995322,0.00183088,0.0461613,1903,1219,45.0128,-2.64308
686,-195,45.0555,2.6012,0,0,0,0,0,0,0,-1,1910,1219,45.0556,-2.60116
693,-195,24.4368,5.68298,0,0,0,0,0,0,0,-1,1917,1219,24.4368,-5.68293
700,-195,37.4231,8.49927,0,0,0,0,0,0,0,-1,1924,1219,37.4231,-8.49932
707,-195,37.1537,8.05847,0.000933332,-0.00143237,0.00134491,0.00154155,-0.00204059,0.42471,0.00207483,0.0323712,1931,1219,37.1537,-8.05851
714,-195,37.1364,7.5188,0.000442373,-0.00150734,0.00163751,0.00137324,-0.0024382,0.516909,0.00222899,0.0384766,1938,1219,37.1364,-7.51878
721,-195,37.0955,7.23389,-0.000152349,-0.00146283,0.00199663,0.00129381,-0.00290899,0.626849,0.0024855,0.0196195,1945,1219,37.0955,-7.23387
728,-195,37.0875,6.83789,-0.000624933,-0.00145374,0.00230621,0.00130381,-0.00338248,0.696501,0.00279294,0.0107165,1952,1219,37.0876,-6.83783
735,-195,37.0706,6.41003,-0.000454866,-0.000826767,0.00225988,0.0016267,-0.00290833,0.744349,0.00265292,0.0125513,1959,1219,37.0706,-6.41009
742,-195,37.0402,6.05518,0.000596816,0.000289314,0.00183169,0.0022812,-0.00139507,0.743527,0.00214295,0.0140244,1966,1219,37.0402,-6.05515
749,-195,37.0332,5.68152,0.00227064,0.00181658,0.0011109,0.00317747,0.000909755,0.684603,0.00188953,0.0142146,1973,1219,37.0332,-5.68154
756,-195,37.0385,5.27966,0.00429637,0.00375084,0.000297232,0.00442702,0.00362018,0.414148,0.00272255,0.0140232,1980,1219,37.0385,-5.27967
763,-195,37.0421,4.86987,0.00682369,0.00619705,-0.000770697,0.00734232,0.00567842,-0.592331,0.00444529,0.0176088,1987,1219,37.0421,-4.86982
770,-195,37.0455,4.52441,0.00943548,0.00930605,-0.00194097,0.0113128,0.00742871,-0.768733,0.00663746,0.0343412,1994,1219,37.0455,-4.52442
777,-195,37.1053,4.2262,0,0,0,0,0,0,0,-1,2001,1219,37.1054,-4.22624
784,-195,40.2747,-0.327393,0,0,0,0,0,0,0,-1,2008,1219,40.2747,0.327416
791,-195,40.3972,1.3114,0,0,0,0,0,0,0,-1,2015,1219,40.3973,-1.31137
798,-195,40.4421,3.11365,0,0,0,0,0,0,0,-1,2022,1219,40.4421,-3.11367
805,-195,0,0,0,0,0,0,0,0,0,-1,2029,1219,0,0
812,-195,0,0,0,0,0,0,0,0,0,-1,2036,1219,0,0
-700,-202,0,0,0,0,0,0,0,0,0,-1,524,1226,0,0
-693,-202,0,0,0,0,0,0,0,0,0,-1,531,1226,0,0
-686,-202,0,0,0,0,0,0,0,0,0,-1,538,1226,0,0
-679,-202,-25.0066,-2.41846,0,0,0,0,0,0,0,-1,545,1226,-25.0066,2.4185
-672,-202,-28.6512,-9.50256,0,0,0,0,0,0,0,-1,552,1226,-28.6512,9.50253
-665,-202,-25.7346,-2.69568,0,0,0,0,0,0,0,-1,559,1226,-25.7346,2.69572
-658,-202,-24.7484,-2.30493,0,0,0,0,0,0,0,-1,566,1226,-24.7484,2.30489
-651,-202,-23.7623,-1.91406,0,0,0,0,0,0,0,-1,573,1226,-23.7623,1.91406
-644,-202,-24.0668,1.40576,0,0,0,0,0,0,0,-1,580,1226,-24.0668,-1.4058
-637,-202,-24.1823,1.82275,0.0199556,0.0395037,0.00632604,0.0413723,0.018087,1.28358,0.0239491,0.0382977,587,1226,-24.1823,-1.82275
-630,-202,-24.266,2.19409,0.0147651,0.0271308,0.00480003,0.0287754,0.0131206,1.24072,0.0166349,0.0165808,594,1226,-24.266,-2.19409
-623,-202,-24.2891,2.62122,0.0105565,0.0171439,0.00328064,0.018499,0.00920143,1.17909,0.0106804,0.00930523,601,1226,-24.2891,-2.62126
-616,-202,-24.3036,3.06274,0.00681513,0.00921729,0.00223046,0.0105495,0.00548292,1.03238,0.00609234,0.00902262,608,1226,-24.3036,-3.0627
-609,-202,-24.2915,3.48254,0.00386564,0.00380275,0.00101986,0.00485454,0.00281385,0.769985,0.00281459,0.0223062,615,1226,-24.2915,-3.48252
-602,-202,-24.3576,3.8916,0.00235782,0.000563971,0.000114381,0.00236509,0.000556707,0.0634206,0.0014278,0.0225736,622,1226,-24.3576,-3.89158
-595,-202,-24.3859,4.35608,0.0022034,-0.000730811,-0.000320755,0.00223805,-0.000765465,-0.107622,0.00180222,0.0157592,629,1226,-24.3859,-4.35603
-588,-202,-24.3232,4.82959,0.00265445,-0.00148415,-0.000119832,0.00265791,-0.00148761,-0.0289226,0.002425,0.0133667,636,1226,-24.3232,-4.8296
-581,-202,-24.2566,5.14795,0.00267614,-0.00192778,-4.65494e-05,0.00267661,-0.00192825,-0.0101095,0.00267029,0.0459081,643,1226,-24.2566,-5.14796
-574,-202,-24.4998,5.17981,0,0,0,0,0,0,0,-1,650,1226,-24.4998,-5.17977
-567,-202,-22.1768,4.56995,0,0,0,0,0,0,0,-1,657,1226,-22.1768,-4.56991
-560,-202,-10.929,2.73096,0,0,0,0,0,0,0,-1,664,1226,-10.929,-2.73092
-553,-202,-30.2701,1.474,0,0,0,0,0,0,0,-1,671,1226,-30.2701,-1.47395
-546,-202,-33.0743,0.713379,0,0,0,0,0,0,0,-1,678,1226,-33.0743,-0.713346
-539,-202,-32.9645,0.691895,0.00168351,-0.00203673,0.000408112,0.00172775,-0.00208097,0.107989,0.00220212,0.0415775,685,1226,-32.9645,-0.691852
-532,-202,-33.1083,0.841187,0.000806896,-0.00176091,0.000388059,0.000864259,-0.00181828,0.146759,0.00158107,0.0291698,692,1226,-33.1083,-0.841236
-525,-202,-33.1946,0.833618,-0.000477276,-0.00136225,0.000315008,-0.000376601,-0.00146292,0.309335,0.000877126,0.034144,699,1226,-33.1946,-0.833648
-518,-202,-33.2956,0.931763,-0.0017222,-0.00102537,0.00048104,-0.000779821,-0.00196775,1.09882,0.00114419,0.0420599,706,1226,-33.2956,-0.931782
-511,-202,-33.287,1.03992,-0.00166059,-0.000561491,0.0017055,0.000680808,-0.00290289,0.941257,0.00219764,0.0444882,713,1226,-33.287,-1.03995
-504,-202,0,0,0,0,0,0,0,0,0,-1,720,1226,0,0
-497,-202,0,0,0,0,0,0,0,0,0,-1,727,1226,0,0
-490,-202,0,0,0,0,0,0,0,0,0,-1,734,1226,0,0
-483,-202,0,0,0,0,0,0,0,0,0,-1,741,1226,0,0
-476,-202,0,0,0,0,0,0,0,0,0,-1,748,1226,0,0
-469,-202,0,0,0,0,0,0,0,0,0,-1,755,1226,0,0
-462,-202,0,0,0,0,0,0,0,0,0,-1,762,1226,0,0
-455,-202,0,0,0,0,0,0,0,0,0,-1,769,1226,0,0
-448,-202,0,0,0,0,0,0,0,0,0,-1,776,1226,0,0
-441,-202,0,0,0,0,0,0,0,0,0,-1,783,1226,0,0
-434,-202,0,0,0,0,0,0,0,0,0,-1,790,1226,0,0
-427,-202,0,0,0,0,0,0,0,0,0,-1,797,1226,0,0
-420,-202,0,0,0,0,0,0,0,0,0,-1,804,1226,0,0
-413,-202,0,0,0,0,0,0,0,0,0,-1,811,1226,0,0
-406,-202,0,0,0,0,0,0,0,0,0,-1,818,1226,0,0
-399,-202,0,0,0,0,0,0,0,0,0,-1,825,1226,0,0
-392,-202,0,0,0,0,0,0,0,0,0,-1,832,1226,0,0
-385,-202,0,0,0,0,0,0,0,0,0,-1,839,1226,0,0
-378,-202,0,0,0,0,0,0,0,0,0,-1,846,1226,0,0
-371,-202,0,0,0,0,0,0,0,0,0,-1,853,1226,0,0
-364,-202,0,0,0,0,0,0,0,0,0,-1,860,1226,0,0
-357,-202,0,0,0,0,0,0,0,0,0,-1,867,1226,0,0
-350,-202,0,0,0,0,0,0,0,0,0,-1,874,1226,0,0
-343,-202,0,0,0,0,0,0,0,0,0,-1,881,1226,0,0
-336,-202,0,0,0,0,0,0,0,0,0,-1,888,1226,0,0
-329,-202,0,0,0,0,0,0,0,0,0,-1,895,1226,0,0
-322,-202,0,0,0,0,0,0,0,0,0,-1,902,1226,0,0
-315,-202,0,0,0,0,0,0,0,0,0,-1,909,1226,0,0
-308,-202,0,0,0,0,0,0,0,0,0,-1,916,1226,0,0
-301,-202,0,0,0,0,0,0,0,0,0,-1,923,1226,0,0
-294,-202,0,0,0,0,0,0,0,0,0,-1,930,1226,0,0
-287,-202,0,0,0,0,0,0,0,0,0,-1,937,1226,0,0
-280,-202,0,0,0,0,0,0,0,0,0,-1,944,1226,0,0
-273,-202,0,0,0,0,0,0,0,0,0,-1,951,1226,0,0
-266,-202,0,0,0,0,0,0,0,0,0,-1,958,1226,0,0
-259,-202,0,0,0,0,0,0,0,0,0,-1,965,1226,0,0
-252,-202,0,0,0,0,0,0,0,0,0,-1,972,1226,0,0
-245,-202,0,0,0,0,0,0,0,0,0,-1,979,1226,0,0
-238,-202,0,0,0,0,0,0,0,0,0,-1,986,1226,0,0
-231,-202,0,0,0,0,0,0,0,0,0,-1,993,1226,0,0
-224,-202,0,0,0,0,0,0,0,0,0,-1,1000,1226,0,0
-217,-202,0,0,0,0,0,0,0,0,0,-1,1007,1226,0,0
-210,-202,0,0,0,0,0,0,0,0,0,-1,1014,1226,0,0
-203,-202,0,0,0,0,0,0,0,0,0,-1,1021,1226,0,0
-196,-202,0,0,0,0,0,0,0,0,0,-1,1028,1226,0,0
-189,-202,0,0,0,0,0,0,0,0,0,-1,1035,1226,0,0
-182,-202,0,0,0,0,0,0,0,0,0,-1,1042,1226,0,0
-175,-202,0,0,0,0,0,0,0,0,0,-1,1049,1226,0,0
-168,-202,0,0,0,0,0,0,0,0,0,-1,1056,1226,0,0
-161,-202,0,0,0,0,0,0,0,0,0,-1,1063,1226,0,0
-154,-202,0,0,0,0,0,0,0,0,0,-1,1070,1226,0,0
-147,-202,0,0,0,0,0,0,0,0,0,-1,1077,1226,0,0
-140,-202,0,0,0,0,0,0,0,0,0,-1,1084,1226,0,0
-133,-202,0,0,0,0,0,0,0,0,0,-1,1091,1226,0,0
-126,-202,0,0,0,0,0,0,0,0,0,-1,1098,1226,0,0
-119,-202,0,0,0,0,0,0,0,0,0,-1,1105,1226,0,0
-112,-202,0,0,0,0,0,0,0,0,0,-1,1112,1226,0,0
-105,-202,0,0,0,0,0,0,0,0,0,-1,1119,1226,0,0
-98,-202,0,0,0,0,0,0,0,0,0,-1,1126,1226,0,0
-91,-202,0,0,0,0,0,0,0,0,0,-1,1133,1226,0,0
-84,-202,0,0,0,0,0,0,0,0,0,-1,1140,1226,0,0
-77,-202,0,0,0,0,0,0,0,0,0,-1,1147,1226,0,0
-70,-202,0,0,0,0,0,0,0,0,0,-1,1154,1226,0,0
-63,-202,0,0,0,0,0,0,0,0,0,-1,1161,1226,0,0
-56,-202,0,0,0,0,0,0,0,0,0,-1,1168,1226,0,0
-49,-202,0,0,0,0,0,0,0,0,0,-1,1175,1226,0,0
-42,-202,0,0,0,0,0,0,0,0,0,-1,1182,1226,0,0
-35,-202,0,0,0,0,0,0,0,0,0,-1,1189,1226,0,0
-28,-202,0,0,0,0,0,0,0,0,0,-1,1196,1226,0,0
-21,-202,0,0,0,0,0,0,0,0,0,-1,1203,1226,0,0
-14,-202,0,0,0,0,0,0,0,0,0,-1,1210,1226,0,0
-7,-202,0,0,0,0,0,0,0,0,0,-1,1217,1226,0,0
0,-202,0,0,0,0,0,0,0,0,0,-1,1224,1226,0,0
7,-202,0,0,0,0,0,0,0,0,0,-1,1231,1226,0,0
14,-202,0,0,0,0,0,0,0,0,0,-1,1238,1226,0,0
21,-202,0,0,0,0,0,0,0,0,0,-1,1245,1226,0,0
28,-202,0,0,0,0,0,0,0,0,0,-1,1252,1226,0,0
35,-202,0,0,0,0,0,0,0,0,0,-1,1259,1226,0,0
42,-202,0,0,0,0,0,0,0,0,0,-1,1266,1226,0,0
49,-202,0,0,0,0,0,0,0,0,0,-1,1273,1226,0,0
56,-202,0,0,0,0,0,0,0,0,0,-1,1280,1226,0,0
63,-202,0,0,0,0,0,0,0,0,0,-1,1287,1226,0,0
70,-202,0,0,0,0,0,0,0,0,0,-1,1294,1226,0,0
77,-202,0,0,0,0,0,0,0,0,0,-1,1301,1226,0,0
84,-202,0,0,0,0,0,0,0,0,0,-1,1308,1226,0,0
91,-202,0,0,0,0,0,0,0,0,0,-1,1315,1226,0,0
98,-202,0,0,0,0,0,0,0,0,0,-1,1322,1226,0,0
105,-202,0,0,0,0,0,0,0,0,0,-1,1329,1226,0,0
112,-202,0,0,0,0,0,0,0,0,0,-1,1336,1226,0,0
119,-202,0,0,0,0,0,0,0,0,0,-1,1343,1226,0,0
126,-202,0,0,0,0,0,0,0,0,0,-1,1350,1226,0,0
133,-202,0,0,0,0,0,0,0,0,0,-1,1357,1226,0,0
140,-202,0,0,0,0,0,0,0,0,0,-1,1364,1226,0,0
147,-202,0,0,0,0,0,0,0,0,0,-1,1371,1226,0,0
154,-202,0,0,0,0,0,0,0,0,0,-1,1378,1226,0,0
161,-202,0,0,0,0,0,0,0,0,0,-1,1385,1226,0,0
168,-202,0,0,0,0,0,0,0,0,0,-1,1392,1226,0,0
175,-202,0,0,0,0,0,0,0,0,0,-1,1399,1226,0,0
182,-202,0,0,0,0,0,0,0,0,0,-1,1406,1226,0,0
189,-202,0,0,0,0,0,0,0,0,0,-1,1413,1226,0,0
196,-202,0,0,0,0,0,0,0,0,0,-1,1420,1226,0,0
203,-202,0,0,0,0,0,0,0,0,0,-1,1427,1226,0,0
210,-202,0,0,0,0,0,0,0,0,0,-1,1434,1226,0,0
217,-202,0,0,0,0,0,0,0,0,0,-1,1441,1226,0,0
224,-202,0,0,0,0,0,0,0,0,0,-1,1448,1226,0,0
231,-202,0,0,0,0,0,0,0,0,0,-1,1455,1226,0,0
238,-202,0,0,0,0,0,0,0,0,0,-1,1462,1226,0,0
245,-202,0,0,0,0,0,0,0,0,0,-1,1469,1226,0,0
252,-202,0,0,0,0,0,0,0,0,0,-1,1476,1226,0,0
259,-202,0,0,0,0,0,0,0,0,0,-1,1483,1226,0,0
266,-202,0,0,0,0,0,0,0,0,0,-1,1490,1226,0,0
273,-202,0,0,0,0,0,0,0,0,0,-1,1497,1226,0,0
280,-202,0,0,0,0,0,0,0,0,0,-1,1504,1226,0,0
287,-202,0,0,0,0,0,0,0,0,0,-1,1511,1226,0,0
294,-202,0,0,0,0,0,0,0,0,0,-1,1518,1226,0,0
301,-202,0,0,0,0,0,0,0,0,0,-1,1525,1226,0,0
308,-202,0,0,0,0,0,0,0,0,0,-1,1532,1226,0,0
315,-202,0,0,0,0,0,0,0,0,0,-1,1539,1226,0,0
322,-202,0,0,0,0,0,0,0,0,0,-1,1546,1226,0,0
329,-202,0,0,0,0,0,0,0,0,0,-1,1553,1226,0,0
336,-202,0,0,0,0,0,0,0,0,0,-1,1560,1226,0,0
343,-202,0,0,0,0,0,0,0,0,0,-1,1567,1226,0,0
350,-202,0,0,0,0,0,0,0,0,0,-1,1574,1226,0,0
357,-202,0,0,0,0,0,0,0,0,0,-1,1581,1226,0,0
364,-202,0,0,0,0,0,0,0,0,0,-1,1588,1226,0,0
371,-202,0,0,0,0,0,0,0,0,0,-1,1595,1226,0,0
378,-202,0,0,0,0,0,0,0,0,0,-1,1602,1226,0,0
385,-202,0,0,0,0,0,0,0,0,0,-1,1609,1226,0,0
392,-202,0,0,0,0,0,0,0,0,0,-1,1616,1226,0,0
399,-202,0,0,0,0,0,0,0,0,0,-1,1623,1226,0,0
406,-202,0,0,0,0,0,0,0,0,0,-1,1630,1226,0,0
413,-202,0,0,0,0,0,0,0,0,0,-1,1637,1226,0,0
420,-202,0,0,0,0,0,0,0,0,0,-1,1644,1226,0,0
427,-202,0,0,0,0,0,0,0,0,0,-1,1651,1226,0,0
434,-202,0,0,0,0,0,0,0,0,0,-1,1658,1226,0,0
441,-202,0,0,0,0,0,0,0,0,0,-1,1665,1226,0,0
448,-202,0,0,0,0,0,0,0,0,0,-1,1672,1226,0,0
455,-202,0,0,0,0,0,0,0,0,0,-1,1679,1226,0,0
462,-202,0,0,0,0,0,0,0,0,0,-1,1686,1226,0,0
469,-202,0,0,0,0,0,0,0,0,0,-1,1693,1226,0,0
476,-202,0,0,0,0,0,0,0,0,0,-1,1700,1226,0,0
483,-202,0,0,0,0,0,0,0,0,0,-1,1707,1226,0,0
490,-202,0,0,0,0,0,0,0,0,0,-1,1714,1226,0,0
497,-202,0,0,0,0,0,0,0,0,0,-1,1721,1226,0,0
504,-202,0,0,0,0,0,0,0,0,0,-1,1728,1226,0,0
511,-202,0,0,0,0,0,0,0,0,0,-1,1735,1226,0,0
518,-202,0,0,0,0,0,0,0,0,0,-1,1742,1226,0,0
525,-202,0,0,0,0,0,0,0,0,0,-1,1749,1226,0,0
532,-202,0,0,0,0,0,0,0,0,0,-1,1756,1226,0,0
539,-202,0,0,0,0,0,0,0,0,0,-1,1763,1226,0,0
546,-202,0,0,0,0,0,0,0,0,0,-1,1770,1226,0,0
553,-202,0,0,0,0,0,0,0,0,0,-1,1777,1226,0,0
560,-202,0,0,0,0,0,0,0,0,0,-1,1784,1226,0,0
567,-202,0,0,0,0,0,0,0,0,0,-1,1791,1226,0,0
574,-202,0,0,0,0,0,0,0,0,0,-1,1798,1226,0,0
581,-202,0,0,0,0,0,0,0,0,0,-1,1805,1226,0,0
588,-202,0,0,0,0,0,0,0,0,0,-1,1812,1226,0,0
595,-202,0,0,0,0,0,0,0,0,0,-1,1819,1226,0,0
602,-202,0,0,0,0,0,0,0,0,0,-1,1826,1226,0,0
609,-202,0,0,0,0,0,0,0,0,0,-1,1833,1226,0,0
616,-202,0,0,0,0,0,0,0,0,0,-1,1840,1226,0,0
623,-202,0,0,0,0,0,0,0,0,0,-1,1847,1226,0,0
630,-202,44.8701,2.62524,-0.00262984,-0.000107579,-0.00128581,0.000432335,-0.00316975,-1.17325,0.00227104,0.0342144,1854,1226,44.8701,-2.6252
637,-202,44.9376,2.73804,-0.00111423,9.85626e-06,-0.00137203,0.000930502,-0.00203488,-0.979794,0.00175119,0.0317023,1861,1226,44.9377,-2.73802
644,-202,44.9862,2.66882,0.00060682,1.9816e-05,-0.00140726,0.00175086,-0.00112422,-0.682591,0.00167302,0.0299314,1868,1226,44.9862,-2.66878
651,-202,44.9653,2.56616,0.00195687,-5.53046e-05,-0.00143307,0.00270175,-0.000800185,-0.479347,0.00211888,0.0251402,1875,1226,44.9653,-2.56614
658,-202,44.9294,2.61328,0.00282856,-0.000262662,-0.00141727,0.00337999,-0.00081409,-0.371055,0.00256807,0.0220345,1882,1226,44.9294,-2.61333
665,-202,44.9373,2.5907,0.00311377,-0.000557742,-0.00108515,0.00341051,-0.000854487,-0.266933,0.00260563,0.0211915,1889,1226,44.9372,-2.59067
672,-202,45.09,2.63745,0.00298768,-0.000964893,-0.000645789,0.00309052,-0.00106773,-0.157915,0.00249365,0.0410599,1896,1226,45.0899,-2.63749
679,-202,45.3116,2.70654,0,0,0,0,0,0,0,-1,1903,1226,45.3117,-2.70656
686,-202,44.2722,2.33875,0,0,0,0,0,0,0,-1,1910,1226,44.2722,-2.33878
693,-202,36.5421,9.22632,0,0,0,0,0,0,0,-1,1917,1226,36.5421,-9.22636
700,-202,36.624,8.57422,0.00175474,-0.00152461,0.000785296,0.00193309,-0.00170296,0.223327,0.00210067,0.0460751,1924,1226,36.6241,-8.5742
707,-202,36.7091,7.90234,0.001373,-0.00164111,0.00115787,0.00176644,-0.00203455,0.327555,0.00219632,0.0341851,1931,1226,36.7091,-7.90236
714,-202,36.6991,7.49561,0.000825086,-0.00166211,0.00147047,0.00150732,-0.00234434,0.434398,0.00224119,0.023329,1938,1226,36.6991,-7.49554
721,-202,36.7213,7.23035,0.000234697,-0.00150589,0.00180065,0.00136434,-0.00263554,0.56029,0.00234788,0.0135001,1945,1226,36.7213,-7.23038
728,-202,36.7073,6.83765,-0.000116531,-0.00132741,0.00200323,0.00137075,-0.00281469,0.638647,0.00246393,0.0110454,1952,1226,36.7073,-6.83763
735,-202,36.6816,6.42664,0.000286093,-0.000600606,0.00182351,0.00171937,-0.00203388,0.666147,0.00216948,0.0110504,1959,1226,36.6816,-6.4266
742,-202,36.6548,6.04309,0.00154285,0.000450482,0.00130212,0.0024087,-0.000415368,0.586815,0.00176066,0.0111819,1966,1226,36.6548,-6.04311
749,-202,36.6229,5.66443,0.00338061,0.00180522,0.000554376,0.00355613,0.00162969,0.306634,0.00205552,0.0120736,1973,1226,36.6229,-5.66448
756,-202,36.6284,5.27234,0.00570593,0.00352526,-0.000370001,0.005767,0.00346419,-0.163576,0.00335201,0.0121827,1980,1226,36.6284,-5.27237
763,-202,36.6786,4.90955,0.00874839,0.00568736,-0.00160591,0.0094363,0.00499945,-0.404716,0.00545128,0.01922,1987,1226,36.6786,-4.90961
770,-202,36.7505,4.7019,0.0120921,0.00843728,-0.00294491,0.0137305,0.00679887,-0.507708,0.00792744,0.0474617,1994,1226,36.7505,-4.70194
777,-202,36.8695,4.47314,0,0,0,0,0,0,0,-1,2001,1226,36.8695,-4.47314
784,-202,37.9491,-2.1272,0,0,0,0,0,0,0,-1,2008,1226,37.9491,2.12721
791,-202,41.6821,1.56946,0,0,0,0,0,0,0,-1,2015,1226,41.6821,-1.56946
798,-202,41.7263,3.20728,0,0,0,0,0,0,0,-1,2022,1226,41.7262,-3.20725
805,-202,0,0,0,0,0,0,0,0,0,-1,2029,1226,0,0
812,-202,0,0,0,0,0,0,0,0,0,-1,2036,1226,0,0
-700,-209,0,0,0,0,0,0,0,0,0,-1,524,1233,0,0
-693,-209,0,0,0,0,0,0,0,0,0,-1,531,1233,0,0
-686,-209,0,0,0,0,0,0,0,0,0,-1,538,1233,0,0
-679,-209,-29.3519,-10.2809,0.0435485,0.173384,0.012022,0.174488,0.0424447,1.47924,0.105075,0.0482451,545,1233,-29.3519,10.2809
-672,-209,-29.1357,-10.3215,0,0,0,0,0,0,0,-1,552,1233,-29.1357,10.3215
-665,-209,-28.7137,-10.476,0,0,0,0,0,0,0,-1,559,1233,-28.7138,10.4759
-658,-209,-24.4443,-2.94019,0,0,0,0,0,0,0,-1,566,1233,-24.4443,2.94017
-651,-209,-24.9169,0.177734,0,0,0,0,0,0,0,-1,573,1233,-24.9169,-0.177781
-644,-209,-24.6359,0.885254,0,0,0,0,0,0,0,-1,580,1233,-24.6358,-0.885223
-637,-209,-24.0045,1.60999,0.0214179,0.0437252,0.00725152,0.0458753,0.0192679,1.28256,0.0265989,0.0487264,587,1233,-24.0045,-1.61001
-630,-209,-23.7721,2.15442,0.0161547,0.0298733,0.00542894,0.0317618,0.0142662,1.23604,0.0183692,0.0249201,594,1233,-23.7721,-2.15448
-623,-209,-23.8257,2.63086,0.0118938,0.0189425,0.00371221,0.0205369,0.0102994,1.16512,0.011857,0.0129507,601,1233,-23.8257,-2.63084
-616,-209,-23.8549,3.08313,0.00817308,0.010257,0.00251193,0.0119345,0.00649558,0.982002,0.0068994,0.0126187,608,1233,-23.8549,-3.08312
-609,-209,-23.8557,3.5011,0.00507104,0.00436957,0.00126468,0.00603272,0.00340789,0.650134,0.00349276,0.0146649,615,1233,-23.8557,-3.50107
-602,-209,-23.8802,3.93079,0.00317375,0.000724264,0.000381012,0.00323165,0.000666367,0.150802,0.00197024,0.0167525,622,1233,-23.8802,-3.93081
-595,-209,-23.8956,4.37671,0.00276906,-0.000742465,-3.92155e-05,0.0027695,-0.000742903,-0.0111658,0.00213744,0.011892,629,1233,-23.8955,-4.3767
-588,-209,-23.8602,4.83765,0.0032582,-0.00162946,0.000218535,0.00326795,-0.00163922,0.044593,0.00288471,0.0157911,636,1233,-23.8602,-4.83762
-581,-209,-23.6107,5.39453,0.00340973,-0.00211528,0.000351082,0.00343195,-0.0021375,0.0632054,0.00324434,0.0446969,643,1233,-23.6107,-5.39457
-574,-209,-23.8674,5.80286,0,0,0,0,0,0,0,-1,650,1233,-23.8674,-5.80283
-567,-209,-24.0602,6.00916,0,0,0,0,0,0,0,-1,657,1233,-24.0602,-6.00911
-560,-209,-13.9294,4.16626,0,0,0,0,0,0,0,-1,664,1233,-13.9294,-4.16621
-553,-209,-22.7542,0.748779,0,0,0,0,0,0,0,-1,671,1233,-22.7541,-0.748796
-546,-209,-33.306,0.405518,0,0,0,0,0,0,0,-1,678,1233,-33.306,-0.405528
-539,-209,-33.1051,0.619385,0.00179114,-0.00167754,0.000590263,0.00188884,-0.00177523,0.164021,0.00211579,0.0385234,685,1233,-33.1051,-0.619348
-532,-209,-32.959,0.870728,0.00075289,-0.00125921,0.000509603,0.000874595,-0.00138091,0.234433,0.00131311,0.0310739,692,1233,-32.959,-0.870679
-525,-209,-33.0688,0.831543,-0.000732024,-0.000679849,0.000353116,-0.000351858,-0.00106001,0.82227,0.000623417,0.0320223,699,1233,-33.0688,-0.831577
-518,-209,-33.0869,0.829224,-0.00245232,-0.000129557,0.000311452,-8.852e-05,-0.00249336,1.43979,0.00163353,0.0402525,706,1233,-33.0868,-0.829174
-511,-209,-32.9633,0.807861,-0.00314138,0.000405234,0.00113783,0.000738887,-0.00347503,1.28556,0.00259824,0.0426467,713,1233,-32.9633,-0.807921
-504,-209,0,0,0,0,0,0,0,0,0,-1,720,1233,0,0
-497,-209,0,0,0,0,0,0,0,0,0,-1,727,1233,0,0
-490,-209,0,0,0,0,0,0,0,0,0,-1,734,1233,0,0
-483,-209,0,0,0,0,0,0,0,0,0,-1,741,1233,0,0
-476,-209,0,0,0,0,0,0,0,0,0,-1,748,1233,0,0
-469,-209,0,0,0,0,0,0,0,0,0,-1,755,1233,0,0
-462,-209,0,0,0,0,0,0,0,0,0,-1,762,1233,0,0
-455,-209,0,0,0,0,0,0,0,0,0,-1,769,1233,0,0
-448,-209,0,0,0,0,0,0,0,0,0,-1,776,1233,0,0
-441,-209,0,0,0,0,0,0,0,0,0,-1,783,1233,0,0
-434,-209,0,0,0,0,0,0,0,0,0,-1,790,1233,0,0
-427,-209,0,0,0,0,0,0,0,0,0,-1,797,1233,0,0
-420,-209,0,0,0,0,0,0,0,0,0,-1,804,1233,0,0
-413,-209,0,0,0,0,0,0,0,0,0,-1,811,1233,0,0
-406,-209,0,0,0,0,0,0,0,0,0,-1,818,1233,0,0
-399,-209,0,0,0,0,0,0,0,0,0,-1,825,1233,0,0
-392,-209,0,0,0,0,0,0,0,0,0,-1,832,1233,0,0
-385,-209,0,0,0,0,0,0,0,0,0,-1,839,1233,0,0
-378,-209,0,0,0,0,0,0,0,0,0,-1,846,1233,0,0
-371,-209,0,0,0,0,0,0,0,0,0,-1,853,1233,0,0
-364,-209,0,0,0,0,0,0,0,0,0,-1,860,1233,0,0
-357,-209,0,0,0,0,0,0,0,0,0,-1,867,1233,0,0
-350,-209,0,0,0,0,0,0,0,0,0,-1,874,1233,0,0
-343,-209,0,0,0,0,0,0,0,0,0,-1,881,1233,0,0
-336,-209,0,0,0,0,0,0,0,0,0,-1,888,1233,0,0
-329,-209,0,0,0,0,0,0,0,0,0,-1,895,1233,0,0
-322,-209,0,0,0,0,0,0,0,0,0,-1,902,1233,0,0
-315,-209,0,0,0,0,0,0,0,0,0,-1,909,1233,0,0
-308,-209,0,0,0,0,0,0,0,0,0,-1,916,1233,0,0
-301,-209,0,0,0,0,0,0,0,0,0,-1,923,1233,0,0
-294,-209,0,0,0,0,0,0,0,0,0,-1,930,1233,0,0
-287,-209,0,0,0,0,0,0,0,0,0,-1,937,1233,0,0
-280,-209,0,0,0,0,0,0,0,0,0,-1,944,1233,0,0
-273,-209,0,0,0,0,0,0,0,0,0,-1,951,1233,0,0
-266,-209,0,0,0,0,0,0,0,0,0,-1,958,1233,0,0
-259,-209,0,0,0,0,0,0,0,0,0,-1,965,1233,0,0
-252,-209,0,0,0,0,0,0,0,0,0,-1,972,1233,0,0
-245,-209,0,0,0,0,0,0,0,0,0,-1,979,1233,0,0
-238,-209,0,0,0,0,0,0,0,0,0,-1,986,1233,0,0
-231,-209,0,0,0,0,0,0,0,0,0,-1,993,1233,0,0
-224,-209,0,0,0,0,0,0,0,0,0,-1,1000,1233,0,0
-217,-209,0,0,0,0,0,0,0,0,0,-1,1007,1233,0,0
-210,-209,0,0,0,0,0,0,0,0,0,-1,1014,1233,0,0
-203,-209,0,0,0,0,0,0,0,0,0,-1,1021,1233,0,0
-196,-209,0,0,0,0,0,0,0,0,0,-1,1028,1233,0,0
-189,-209,0,0,0,0,0,0,0,0,0,-1,1035,1233,0,0
-182,-209,0,0,0,0,0,0,0,0,0,-1,1042,1233,0,0
-175,-209,0,0,0,0,0,0,0,0,0,-1,1049,1233,0,0
-168,-209,0,0,0,0,0,0,0,0,0,-1,1056,1233,0,0
-161,-209,0,0,0,0,0,0,0,0,0,-1,1063,1233,0,0
-154,-209,0,0,0,0,0,0,0,0,0,-1,1070,1233,0,0
-147,-209,0,0,0,0,0,0,0,0,0,-1,1077,1233,0,0
-140,-209,0,0,0,0,0,0,0,0,0,-1,1084,1233,0,0
-133,-209,0,0,0,0,0,0,0,0,0,-1,1091,1233,0,0
-126,-209,0,0,0,0,0,0,0,0,0,-1,1098,1233,0,0
-119,-209,0,0,0,0,0,0,0,0,0,-1,1105,1233,0,0
-112,-209,0,0,0,0,0,0,0,0,0,-1,1112,1233,0,0
-105,-209,0,0,0,0,0,0,0,0,0,-1,1119,1233,0,0
-98,-209,0,0,0,0,0,0,0,0,0,-1,1126,1233,0,0
-91,-209,0,0,0,0,0,0,0,0,0,-1,1133,1233,0,0
-84,-209,0,0,0,0,0,0,0,0,0,-1,1140,1233,0,0
-77,-209,0,0,0,0,0,0,0,0,0,-1,1147,1233,0,0
-70,-209,0,0,0,0,0,0,0,0,0,-1,1154,1233,0,0
-63,-209,0,0,0,0,0,0,0,0,0,-1,1161,1233,0,0
-56,-209,0,0,0,0,0,0,0,0,0,-1,1168,1233,0,0
-49,-209,0,0,0,0,0,0,0,0,0,-1,1175,1233,0,0
-42,-209,0,0,0,0,0,0,0,0,0,-1,1182,1233,0,0
-35,-209,0,0,0,0,0,0,0,0,0,-1,1189,1233,0,0
-28,-209,0,0,0,0,0,0,0,0,0,-1,1196,1233,0,0
-21,-209,0,0,0,0,0,0,0,0,0,-1,1203,1233,0,0
-14,-209,0,0,0,0,0,0,0,0,0,-1,1210,1233,0,0
-7,-209,0,0,0,0,0,0,0,0,0,-1,1217,1233,0,0
0,-209,0,0,0,0,0,0,0,0,0,-1,1224,1233,0,0
7,-209,0,0,0,0,0,0,0,0,0,-1,1231,1233,0,0
14,-209,0,0,0,0,0,0,0,0,0,-1,1238,1233,0,0
21,-209,0,0,0,0,0,0,0,0,0,-1,1245,1233,0,0
28,-209,0,0,0,0,0,0,0,0,0,-1,1252,1233,0,0
35,-209,0,0,0,0,0,0,0,0,0,-1,1259,1233,0,0
42,-209,0,0,0,0,0,0,0,0,0,-1,1266,1233,0,0
49,-209,0,0,0,0,0,0,0,0,0,-1,1273,1233,0,0
56,-209,0,0,0,0,0,0,0,0,0,-1,1280,1233,0,0
63,-209,0,0,0,0,0,0,0,0,0,-1,1287,1233,0,0
70,-209,0,0,0,0,0,0,0,0,0,-1,1294,1233,0,0
77,-209,0,0,0,0,0,0,0,0,0,-1,1301,1233,0,0
84,-209,0,0,0,0,0,0,0,0,0,-1,1308,1233,0,0
91,-209,0,0,0,0,0,0,0,0,0,-1,1315,1233,0,0
98,-209,0,0,0,0,0,0,0,0,0,-1,1322,1233,0,0
105,-209,0,0,0,0,0,0,0,0,0,-1,1329,1233,0,0
112,-209,0,0,0,0,0,0,0,0,0,-1,1336,1233,0,0
119,-209,0,0,0,0,0,0,0,0,0,-1,1343,1233,0,0
126,-209,0,0,0,0,0,0,0,0,0,-1,1350,1233,0,0
133,-209,0,0,0,0,0,0,0,0,0,-1,1357,1233,0,0
140,-209,0,0,0,0,0,0,0,0,0,-1,1364,1233,0,0
147,-209,0,0,0,0,0,0,0,0,0,-1,1371,1233,0,0
154,-209,0,0,0,0,0,0,0,0,0,-1,1378,1233,0,0
161,-209,0,0,0,0,0,0,0,0,0,-1,1385,1233,0,0
168,-209,0,0,0,0,0,0,0,0,0,-1,1392,1233,0,0
175,-209,0,0,0,0,0,0,0,0,0,-1,1399,1233,0,0
182,-209,0,0,0,0,0,0,0,0,0,-1,1406,1233,0,0
189,-209,0,0,0,0,0,0,0,0,0,-1,1413,1233,0,0
196,-209,0,0,0,0,0,0,0,0,0,-1,1420,1233,0,0
203,-209,0,0,0,0,0,0,0,0,0,-1,1427,1233,0,0
210,-209,0,0,0,0,0,0,0,0,0,-1,1434,1233,0,0
217,-209,0,0,0,0,0,0,0,0,0,-1,1441,1233,0,0
224,-209,0,0,0,0,0,0,0,0,0,-1,1448,1233,0,0
231,-209,0,0,0,0,0,0,0,0,0,-1,1455,1233,0,0
238,-209,0,0,0,0,0,0,0,0,0,-1,1462,1233,0,0
245,-209,0,0,0,0,0,0,0,0,0,-1,1469,1233,0,0
252,-209,0,0,0,0,0,0,0,0,0,-1,1476,1233,0,0
259,-209,0,0,0,0,0,0,0,0,0,-1,1483,1233,0,0
266,-209,0,0,0,0,0,0,0,0,0,-1,1490,1233,0,0
273,-209,0,0,0,0,0,0,0,0,0,-1,1497,1233,0,0
280,-209,0,0,0,0,0,0,0,0,0,-1,1504,1233,0,0
287,-209,0,0,0,0,0,0,0,0,0,-1,1511,1233,0,0
294,-209,0,0,0,0,0,0,0,0,0,-1,1518,1233,0,0
301,-209,0,0,0,0,0,0,0,0,0,-1,1525,1233,0,0
308,-209,0,0,0,0,0,0,0,0,0,-1,1532,1233,0,0
315,-209,0,0,0,0,0,0,0,0,0,-1,1539,1233,0,0
322,-209,0,0,0,0,0,0,0,0,0,-1,1546,1233,0,0
329,-209,0,0,0,0,0,0,0,0,0,-1,1553,1233,0,0
336,-209,0,0,0,0,0,0,0,0,0,-1,1560,1233,0,0
343,-209,0,0,0,0,0,0,0,0,0,-1,1567,1233,0,0
350,-209,0,0,0,0,0,0,0,0,0,-1,1574,1233,0,0
357,-209,0,0,0,0,0,0,0,0,0,-1,1581,1233,0,0
364,-209,0,0,0,0,0,0,0,0,0,-1,1588,1233,0,0
371,-209,0,0,0,0,0,0,0,0,0,-1,1595,1233,0,0
378,-209,0,0,0,0,0,0,0,0,0,-1,1602,1233,0,0
385,-209,0,0,0,0,0,0,0,0,0,-1,1609,1233,0,0
392,-209,0,0,0,0,0,0,0,0,0,-1,1616,1233,0,0
399,-209,0,0,0,0,0,0,0,0,0,-1,1623,1233,0,0
406,-209,0,0,0,0,0,0,0,0,0,-1,1630,1233,0,0
413,-209,0,0,0,0,0,0,0,0,0,-1,1637,1233,0,0
420,-209,0,0,0,0,0,0,0,0,0,-1,1644,1233,0,0
427,-209,0,0,0,0,0,0,0,0,0,-1,1651,1233,0,0
434,-209,0,0,0,0,0,0,0,0,0,-1,1658,1233,0,0
441,-209,0,0,0,0,0,0,0,0,0,-1,1665,1233,0,0
448,-209,0,0,0,0,0,0,0,0,0,-1,1672,1233,0,0
455,-209,0,0,0,0,0,0,0,0,0,-1,1679,1233,0,0
462,-209,0,0,0,0,0,0,0,0,0,-1,1686,1233,0,0
469,-209,0,0,0,0,0,0,0,0,0,-1,1693,1233,0,0
476,-209,0,0,0,0,0,0,0,0,0,-1,1700,1233,0,0
483,-209,0,0,0,0,0,0,0,0,0,-1,1707,1233,0,0
490,-209,0,0,0,0,0,0,0,0,0,-1,1714,1233,0,0
497,-209,0,0,0,0,0,0,0,0,0,-1,1721,1233,0,0
504,-209,0,0,0,0,0,0,0,0,0,-1,1728,1233,0,0
511,-209,0,0,0,0,0,0,0,0,0,-1,1735,1233,0,0
518,-209,0,0,0,0,0,0,0,0,0,-1,1742,1233,0,0
525,-209,0,0,0,0,0,0,0,0,0,-1,1749,1233,0,0
532,-209,0,0,0,0,0,0,0,0,0,-1,1756,1233,0,0
539,-209,0,0,0,0,0,0,0,0,0,-1,1763,1233,0,0
546,-209,0,0,0,0,0,0,0,0,0,-1,1770,1233,0,0
553,-209,0,0,0,0,0,0,0,0,0,-1,1777,1233,0,0
560,-209,0,0,0,0,0,0,0,0,0,-1,1784,1233,0,0
567,-209,0,0,0,0,0,0,0,0,0,-1,1791,1233,0,0
574,-209,0,0,0,0,0,0,0,0,0,-1,1798,1233,0,0
581,-209,0,0,0,0,0,0,0,0,0,-1,1805,1233,0,0
588,-209,0,0,0,0,0,0,0,0,0,-1,1812,1233,0,0
595,-209,0,0,0,0,0,0,0,0,0,-1,1819,1233,0,0
602,-209,0,0,0,0,0,0,0,0,0,-1,1826,1233,0,0
609,-209,0,0,0,0,0,0,0,0,0,-1,1833,1233,0,0
616,-209,0,0,0,0,0,0,0,0,0,-1,1840,1233,0,0
623,-209,44.9034,2.44604,-0.0030064,-2.35229e-05,-0.000677714,0.000123234,-0.00315316,-1.35754,0.00214437,0.0331607,1847,1233,44.9035,-2.44601
630,-209,44.8683,2.5166,-0.00156485,7.03546e-05,-0.00116336,0.000674677,-0.00216917,-1.0917,0.00171581,0.0336984,1854,1233,44.8683,-2.51656
637,-209,44.9028,2.6499,6.13106e-05,3.61596e-05,-0.00153821,0.00158699,-0.00148952,-0.781311,0.00177652,0.0323064,1861,1233,44.9028,-2.64993
644,-209,44.937,2.6532,0.00170979,-0.000109524,-0.00167846,0.00270925,-0.00110898,-0.537075,0.00226807,0.0283329,1868,1233,44.937,-2.65315
651,-209,44.9324,2.59106,0.00280092,-0.0002359,-0.001749,0.00359866,-0.00103364,-0.427927,0.00280781,0.0227596,1875,1233,44.9324,-2.59107
658,-209,44.9125,2.60437,0.00338464,-0.000464967,-0.0016808,0.00401521,-0.00109554,-0.358914,0.00310705,0.0203308,1882,1233,44.9125,-2.60438
665,-209,44.9991,2.60364,0.00347238,-0.000723971,-0.0013168,0.00385135,-0.00110295,-0.28023,0.0030035,0.0341708,1889,1233,44.9991,-2.60366
672,-209,45.1179,2.58704,0.00329698,-0.00109279,-0.000918996,0.00348161,-0.00127742,-0.198261,0.00284417,0.046888,1896,1233,45.1179,-2.58708
679,-209,45.3828,2.73914,0,0,0,0,0,0,0,-1,1903,1233,45.3829,-2.7391
686,-209,33.3711,3.89856,0,0,0,0,0,0,0,-1,1910,1233,33.3711,-3.89855
693,-209,36.0033,9.28003,0,0,0,0,0,0,0,-1,1917,1233,36.0033,-9.28005
700,-209,36.1498,8.62244,0.00213215,-0.00159004,0.000536158,0.00220784,-0.00166573,0.140246,0.0022437,0.0422631,1924,1233,36.1498,-8.62238
707,-209,36.2827,8.02368,0.00166344,-0.00169665,0.000950744,0.0019138,-0.00194702,0.257486,0.00222907,0.0333021,1931,1233,36.2827,-8.02366
714,-209,36.3004,7.63391,0.00104663,-0.00165166,0.00128118,0.00155802,-0.00216306,0.379783,0.00215781,0.0173444,1938,1233,36.3004,-7.6339
721,-209,36.3152,7.22888,0.000487682,-0.00136796,0.00157611,0.00138879,-0.00226907,0.519372,0.00213215,0.0130534,1945,1233,36.3151,-7.22887
728,-209,36.3307,6.85303,0.000291888,-0.00104711,0.00167882,0.00142979,-0.002185,0.595667,0.00210213,0.0129621,1952,1233,36.3306,-6.853
735,-209,36.3091,6.45898,0.000914112,-0.000277041,0.00141363,0.0018525,-0.00121543,0.586027,0.00178396,0.0147966,1959,1233,36.3091,-6.45893
742,-209,36.283,6.06653,0.0023558,0.000689979,0.000843518,0.00270833,0.000337452,0.395862,0.00170424,0.0140917,1966,1233,36.283,-6.0665
749,-209,36.2401,5.66589,0.00442176,0.00189327,3.36354e-05,0.00442221,0.00189282,0.0132994,0.00256196,0.0126537,1973,1233,36.2401,-5.66595
756,-209,36.2289,5.29028,0.0071597,0.00341673,-0.00103505,0.00742685,0.00314958,-0.252596,0.00430434,0.0119476,1980,1233,36.2289,-5.29025
763,-209,36.2281,4.97498,0.0108981,0.00528197,-0.00250952,0.011856,0.00432402,-0.364658,0.00692811,0.020382,1987,1233,36.2281,-4.97499
770,-209,36.4823,4.55872,0.0153105,0.00760399,-0.00417501,0.0171386,0.00577584,-0.412727,0.0100687,0.0487904,1994,1233,36.4823,-4.55872
777,-209,36.8132,4.10876,0,0,0,0,0,0,0,-1,2001,1233,36.8132,-4.10881
784,-209,40.3342,-2.14001,0,0,0,0,0,0,0,-1,2008,1233,40.3342,2.13997
791,-209,41.8398,1.573,0,0,0,0,0,0,0,-1,2015,1233,41.8399,-1.57295
798,-209,41.8267,2.67419,0,0,0,0,0,0,0,-1,2022,1233,41.8267,-2.67425
805,-209,0,0,0,0,0,0,0,0,0,-1,2029,1233,0,0
812,-209,0,0,0,0,0,0,0,0,0,-1,2036,1233,0,0
-700,-216,0,0,0,0,0,0,0,0,0,-1,524,1240,0,0
-693,-216,0,0,0,0,0,0,0,0,0,-1,531,1240,0,0
-686,-216,0,0,0,0,0,0,0,0,0,-1,538,1240,0,0
-679,-216,-29.845,-11.2792,0,0,0,0,0,0,0,-1,545,1240,-29.845,11.2792
-672,-216,-29.6016,-11.1006,0,0,0,0,0,0,0,-1,552,1240,-29.6016,11.1006
-665,-216,-29.1888,-11.118,0.0435448,0.141346,0.0157938,0.143833,0.0410576,1.4146,0.0855526,0.0485247,559,1240,-29.1888,11.1181
-658,-216,-28.6475,-11.2354,0.0394267,0.114017,0.0143136,0.116669,0.0367743,1.38757,0.0688754,0.0492494,566,1240,-28.6475,11.2353
-651,-216,-28.3902,-11.2539,0,0,0,0,0,0,0,-1,573,1240,-28.3902,11.254
-644,-216,-24.2487,0.854858,0,0,0,0,0,0,0,-1,580,1240,-24.2487,-0.854917
-637,-216,-23.5015,1.52441,0.0231037,0.0472269,0.00818388,0.0497413,0.0205894,1.27272,0.0288596,0.0488343,587,1240,-23.5015,-1.52435
-630,-216,-23.3006,2.0835,0.017631,0.0319282,0.00606555,0.0341547,0.0154044,1.21899,0.0197508,0.030942,594,1240,-23.3006,-2.08345
-623,-216,-23.3582,2.64404,0.0132082,0.0201411,0.0041421,0.0220759,0.0112734,1.13381,0.0127465,0.0143193,601,1240,-23.3582,-2.64408
-616,-216,-23.421,3.08521,0.00941812,0.0107838,0.00275303,0.0129374,0.0072645,0.906959,0.00748823,0.0136256,608,1240,-23.4209,-3.08527
-609,-216,-23.429,3.52136,0.00616579,0.00463659,0.00141566,0.00701013,0.00379225,0.537792,0.00405183,0.0129686,615,1240,-23.429,-3.52131
-602,-216,-23.4284,3.9436,0.00394035,0.000823727,0.000563051,0.00403895,0.000725126,0.173362,0.00248643,0.0130427,622,1240,-23.4284,-3.94363
-595,-216,-23.4197,4.3728,0.00325469,-0.000576383,0.000183545,0.00326347,-0.000585156,0.0477636,0.00239465,0.0181777,629,1240,-23.4197,-4.37283
-588,-216,-23.4424,4.82715,0.00366855,-0.00148357,0.000473223,0.00371165,-0.00152668,0.0908375,0.00311081,0.0203434,636,1240,-23.4424,-4.8272
-581,-216,-23.398,5.33191,0.00391101,-0.00194884,0.000694582,0.00399221,-0.00203004,0.116384,0.00353793,0.0308049,643,1240,-23.398,-5.33191
-574,-216,-23.211,5.79578,0,0,0,0,0,0,0,-1,650,1240,-23.211,-5.79575
-567,-216,-23.5254,6.66406,0,0,0,0,0,0,0,-1,657,1240,-23.5254,-6.66402
-560,-216,-16.5087,5.4574,0,0,0,0,0,0,0,-1,664,1240,-16.5087,-5.45746
-553,-216,-16.2355,1.22351,0,0,0,0,0,0,0,-1,671,1240,-16.2356,-1.22356
-546,-216,-33.461,0.584717,0,0,0,0,0,0,0,-1,678,1240,-33.461,-0.584686
-539,-216,-33.1895,0.864868,0.00140366,-0.00107576,0.000765719,0.00162108,-0.00129317,0.276652,0.00168609,0.0441299,685,1240,-33.1895,-0.864862
-532,-216,-32.8647,0.93396,0.000147121,-0.000513952,0.000649963,0.000545767,-0.000912598,0.550167,0.00085082,0.0447755,692,1240,-32.8647,-0.93397
-525,-216,-32.9373,0.862793,-0.0015324,0.000206805,0.000479025,0.000330013,-0.00165561,1.31905,0.00122861,0.0409821,699,1240,-32.9373,-0.862798
-518,-216,-32.9424,0.754028,-0.00357912,0.00093462,0.000387289,0.000967609,-0.00361211,1.48582,0.00278717,0.0393048,706,1240,-32.9424,-0.754011
-511,-216,-32.9239,0.769043,-0.00502129,0.001504,0.000917819,0.00163064,-0.00514793,1.43368,0.00408545,0.0419242,713,1240,-32.9239,-0.769081
-504,-216,-32.913,0.832031,-0.00472112,0.00096148,0.00277124,0.00208916,-0.0058488,1.18434,0.00475124,0.0445002,720,1240,-32.9129,-0.832038
-497,-216,0,0,0,0,0,0,0,0,0,-1,727,1240,0,0
-490,-216,0,0,0,0,0,0,0,0,0,-1,734,1240,0,0
-483,-216,0,0,0,0,0,0,0,0,0,-1,741,1240,0,0
-476,-216,0,0,0,0,0,0,0,0,0,-1,748,1240,0,0
-469,-216,0,0,0,0,0,0,0,0,0,-1,755,1240,0,0
-462,-216,0,0,0,0,0,0,0,0,0,-1,762,1240,0,0
-455,-216,0,0,0,0,0,0,0,0,0,-1,769,1240,0,0
-448,-216,0,0,0,0,0,0,0,0,0,-1,776,1240,0,0
-441,-216,0,0,0,0,0,0,0,0,0,-1,783,1240,0,0
-434,-216,0,0,0,0,0,0,0,0,0,-1,790,1240,0,0
-427,-216,0,0,0,0,0,0,0,0,0,-1,797,1240,0,0
-420,-216,0,0,0,0,0,0,0,0,0,-1,804,1240,0,0
-413,-216,0,0,0,0,0,0,0,0,0,-1,811,1240,0,0
-406,-216,0,0,0,0,0,0,0,0,0,-1,818,1240,0,0
-399,-216,0,0,0,0,0,0,0,0,0,-1,825,1240,0,0
-392,-216,0,0,0,0,0,0,0,0,0,-1,832,1240,0,0
-385,-216,0,0,0,0,0,0,0,0,0,-1,839,1240,0,0
-378,-216,0,0,0,0,0,0,0,0,0,-1,846,1240,0,0
-371,-216,0,0,0,0,0,0,0,0,0,-1,853,1240,0,0
-364,-216,0,0,0,0,0,0,0,0,0,-1,860,1240,0,0
-357,-216,0,0,0,0,0,0,0,0,0,-1,867,1240,0,0
-350,-216,0,0,0,0,0,0,0,0,0,-1,874,1240,0,0
-343,-216,0,0,0,0,0,0,0,0,0,-1,881,1240,0,0
-336,-216,0,0,0,0,0,0,0,0,0,-1,888,1240,0,0
-329,-216,0,0,0,0,0,0,0,0,0,-1,895,1240,0,0
-322,-216,0,0,0,0,0,0,0,0,0,-1,902,1240,0,0
-315,-216,0,0,0,0,0,0,0,0,0,-1,909,1240,0,0
-308,-216,0,0,0,0,0,0,0,0,0,-1,916,1240,0,0
-301,-216,0,0,0,0,0,0,0,0,0,-1,923,1240,0,0
-294,-216,0,0,0,0,0,0,0,0,0,-1,930,1240,0,0
-287,-216,0,0,0,0,0,0,0,0,0,-1,937,1240,0,0
-280,-216,0,0,0,0,0,0,0,0,0,-1,944,1240,0,0
-273,-216,0,0,0,0,0,0,0,0,0,-1,951,1240,0,0
-266,-216,0,0,0,0,0,0,0,0,0,-1,958,1240,0,0
-259,-216,0,0,0,0,0,0,0,0,0,-1,965,1240,0,0
-252,-216,0,0,0,0,0,0,0,0,0,-1,972,1240,0,0
-245,-216,0,0,0,0,0,0,0,0,0,-1,979,1240,0,0
-238,-216,0,0,0,0,0,0,0,0,0,-1,986,1240,0,0
-231,-216,0,0,0,0,0,0,0,0,0,-1,993,1240,0,0
-224,-216,0,0,0,0,0,0,0,0,0,-1,1000,1240,0,0
-217,-216,0,0,0,0,0,0,0,0,0,-1,1007,1240,0,0
-210,-216,0,0,0,0,0,0,0,0,0,-1,1014,1240,0,0
-203,-216,0,0,0,0,0,0,0,0,0,-1,1021,1240,0,0
-196,-216,0,0,0,0,0,0,0,0,0,-1,1028,1240,0,0
-189,-216,0,0,0,0,0,0,0,0,0,-1,1035,1240,0,0
-182,-216,0,0,0,0,0,0,0,0,0,-1,1042,1240,0,0
-175,-216,0,0,0,0,0,0,0,0,0,-1,1049,1240,0,0
-168,-216,0,0,0,0,0,0,0,0,0,-1,1056,1240,0,0
-161,-216,0,0,0,0,0,0,0,0,0,-1,1063,1240,0,0
-154,-216,0,0,0,0,0,0,0,0,0,-1,1070,1240,0,0
-147,-216,0,0,0,0,0,0,0,0,0,-1,1077,1240,0,0
-140,-216,0,0,0,0,0,0,0,0,0,-1,1084,1240,0,0
-133,-216,0,0,0,0,0,0,0,0,0,-1,1091,1240,0,0
-126,-216,0,0,0,0,0,0,0,0,0,-1,1098,1240,0,0
-119,-216,0,0,0,0,0,0,0,0,0,-1,1105,1240,0,0
-112,-216,0,0,0,0,0,0,0,0,0,-1,1112,1240,0,0
-105,-216,0,0,0,0,0,0,0,0,0,-1,1119,1240,0,0
-98,-216,0,0,0,0,0,0,0,0,0,-1,1126,1240,0,0
-91,-216,0,0,0,0,0,0,0,0,0,-1,1133,1240,0,0
-84,-216,0,0,0,0,0,0,0,0,0,-1,1140,1240,0,0
-77,-216,0,0,0,0,0,0,0,0,0,-1,1147,1240,0,0
-70,-216,0,0,0,0,0,0,0,0,0,-1,1154,1240,0,0
-63,-216,0,0,0,0,0,0,0,0,0,-1,1161,1240,0,0
-56,-216,0,0,0,0,0,0,0,0,0,-1,1168,1240,0,0
-49,-216,0,0,0,0,0,0,0,0,0,-1,1175,1240,0,0
-42,-216,0,0,0,0,0,0,0,0,0,-1,1182,1240,0,0
-35,-216,0,0,0,0,0,0,0,0,0,-1,1189,1240,0,0
-28,-216,0,0,0,0,0,0,0,0,0,-1,1196,1240,0,0
-21,-216,0,0,0,0,0,0,0,0,0,-1,1203,1240,0,0
-14,-216,0,0,0,0,0,0,0,0,0,-1,1210,1240,0,0
-7,-216,0,0,0,0,0,0,0,0,0,-1,1217,1240,0,0
0,-216,0,0,0,0,0,0,0,0,0,-1,1224,1240,0,0
7,-216,0,0,0,0,0,0,0,0,0,-1,1231,1240,0,0
14,-216,0,0,0,0,0,0,0,0,0,-1,1238,1240,0,0
21,-216,0,0,0,0,0,0,0,0,0,-1,1245,1240,0,0
28,-216,0,0,0,0,0,0,0,0,0,-1,1252,1240,0,0
35,-216,0,0,0,0,0,0,0,0,0,-1,1259,1240,0,0
42,-216,0,0,0,0,0,0,0,0,0,-1,1266,1240,0,0
49,-216,0,0,0,0,0,0,0,0,0,-1,1273,1240,0,0
56,-216,0,0,0,0,0,0,0,0,0,-1,1280,1240,0,0
63,-216,0,0,0,0,0,0,0,0,0,-1,1287,1240,0,0
70,-216,0,0,0,0,0,0,0,0,0,-1,1294,1240,0,0
77,-216,0,0,0,0,0,0,0,0,0,-1,1301,1240,0,0
84,-216,0,0,0,0,0,0,0,0,0,-1,1308,1240,0,0
91,-216,0,0,0,0,0,0,0,0,0,-1,1315,1240,0,0
98,-216,0,0,0,0,0,0,0,0,0,-1,1322,1240,0,0
105,-216,0,0,0,0,0,0,0,0,0,-1,1329,1240,0,0
112,-216,0,0,0,0,0,0,0,0,0,-1,1336,1240,0,0
119,-216,0,0,0,0,0,0,0,0,0,-1,1343,1240,0,0
126,-216,0,0,0,0,0,0,0,0,0,-1,1350,1240,0,0
133,-216,0,0,0,0,0,0,0,0,0,-1,1357,1240,0,0
140,-216,0,0,0,0,0,0,0,0,0,-1,1364,1240,0,0
147,-216,0,0,0,0,0,0,0,0,0,-1,1371,1240,0,0
154,-216,0,0,0,0,0,0,0,0,0,-1,1378,1240,0,0
161,-216,0,0,0,0,0,0,0,0,0,-1,1385,1240,0,0
168,-216,0,0,0,0,0,0,0,0,0,-1,1392,1240,0,0
175,-216,0,0,0,0,0,0,0,0,0,-1,1399,1240,0,0
182,-216,0,0,0,0,0,0,0,0,0,-1,1406,1240,0,0
189,-216,0,0,0,0,0,0,0,0,0,-1,1413,1240,0,0
196,-216,0,0,0,0,0,0,0,0,0,-1,1420,1240,0,0
203,-216,0,0,0,0,0,0,0,0,0,-1,1427,1240,0,0
210,-216,0,0,0,0,0,0,0,0,0,-1,1434,1240,0,0
217,-216,0,0,0,0,0,0,0,0,0,-1,1441,1240,0,0
224,-216,0,0,0,0,0,0,0,0,0,-1,1448,1240,0,0
231,-216,0,0,0,0,0,0,0,0,0,-1,1455,1240,0,0
238,-216,0,0,0,0,0,0,0,0,0,-1,1462,1240,0,0
245,-216,0,0,0,0,0,0,0,0,0,-1,1469,1240,0,0
252,-216,0,0,0,0,0,0,0,0,0,-1,1476,1240,0,0
259,-216,0,0,0,0,0,0,0,0,0,-1,1483,1240,0,0
266,-216,0,0,0,0,0,0,0,0,0,-1,1490,1240,0,0
273,-216,0,0,0,0,0,0,0,0,0,-1,1497,1240,0,0
280,-216,0,0,0,0,0,0,0,0,0,-1,1504,1240,0,0
287,-216,0,0,0,0,0,0,0,0,0,-1,1511,1240,0,0
294,-216,0,0,0,0,0,0,0,0,0,-1,1518,1240,0,0
301,-216,0,0,0,0,0,0,0,0,0,-1,1525,1240,0,0
308,-216,0,0,0,0,0,0,0,0,0,-1,1532,1240,0,0
315,-216,0,0,0,0,0,0,0,0,0,-1,1539,1240,0,0
322,-216,0,0,0,0,0,0,0,0,0,-1,1546,1240,0,0
329,-216,0,0,0,0,0,0,0,0,0,-1,1553,1240,0,0
336,-216,0,0,0,0,0,0,0,0,0,-1,1560,1240,0,0
343,-216,0,0,0,0,0,0,0,0,0,-1,1567,1240,0,0
350,-216,0,0,0,0,0,0,0,0,0,-1,1574,1240,0,0
357,-216,0,0,0,0,0,0,0,0,0,-1,1581,1240,0,0
364,-216,0,0,0,0,0,0,0,0,0,-1,1588,1240,0,0
371,-216,0,0,0,0,0,0,0,0,0,-1,1595,1240,0,0
378,-216,0,0,0,0,0,0,0,0,0,-1,1602,1240,0,0
385,-216,0,0,0,0,0,0,0,0,0,-1,1609,1240,0,0
392,-216,0,0,0,0,0,0,0,0,0,-1,1616,1240,0,0
399,-216,0,0,0,0,0,0,0,0,0,-1,1623,1240,0,0
406,-216,0,0,0,0,0,0,0,0,0,-1,1630,1240,0,0
413,-216,0,0,0,0,0,0,0,0,0,-1,1637,1240,0,0
420,-216,0,0,0,0,0,0,0,0,0,-1,1644,1240,0,0
427,-216,0,0,0,0,0,0,0,0,0,-1,1651,1240,0,0
434,-216,0,0,0,0,0,0,0,0,0,-1,1658,1240,0,0
441,-216,0,0,0,0,0,0,0,0,0,-1,1665,1240,0,0
448,-216,0,0,0,0,0,0,0,0,0,-1,1672,1240,0,0
455,-216,0,0,0,0,0,0,0,0,0,-1,1679,1240,0,0
462,-216,0,0,0,0,0,0,0,0,0,-1,1686,1240,0,0
469,-216,0,0,0,0,0,0,0,0,0,-1,1693,1240,0,0
476,-216,0,0,0,0,0,0,0,0,0,-1,1700,1240,0,0
483,-216,0,0,0,0,0,0,0,0,0,-1,1707,1240,0,0
490,-216,0,0,0,0,0,0,0,0,0,-1,1714,1240,0,0
497,-216,0,0,0,0,0,0,0,0,0,-1,1721,1240,0,0
504,-216,0,0,0,0,0,0,0,0,0,-1,1728,1240,0,0
511,-216,0,0,0,0,0,0,0,0,0,-1,1735,1240,0,0
518,-216,0,0,0,0,0,0,0,0,0,-1,1742,1240,0,0
525,-216,0,0,0,0,0,0,0,0,0,-1,1749,1240,0,0
532,-216,0,0,0,0,0,0,0,0,0,-1,1756,1240,0,0
539,-216,0,0,0,0,0,0,0,0,0,-1,1763,1240,0,0
546,-216,0,0,0,0,0,0,0,0,0,-1,1770,1240,0,0
553,-216,0,0,0,0,0,0,0,0,0,-1,1777,1240,0,0
560,-216,0,0,0,0,0,0,0,0,0,-1,1784,1240,0,0
567,-216,0,0,0,0,0,0,0,0,0,-1,1791,1240,0,0
574,-216,0,0,0,0,0,0,0,0,0,-1,1798,1240,0,0
581,-216,0,0,0,0,0,0,0,0,0,-1,1805,1240,0,0
588,-216,0,0,0,0,0,0,0,0,0,-1,1812,1240,0,0
595,-216,0,0,0,0,0,0,0,0,0,-1,1819,1240,0,0
602,-216,0,0,0,0,0,0,0,0,0,-1,1826,1240,0,0
609,-216,0,0,0,0,0,0,0,0,0,-1,1833,1240,0,0
616,-216,0,0,0,0,0,0,0,0,0,-1,1840,1240,0,0
623,-216,44.8799,2.64807,-0.00214694,0.000451222,0.00015022,0.000459879,-0.0021556,1.51323,0.00161237,0.0380198,1847,1240,44.8799,-2.64809
630,-216,44.8815,2.49597,-0.000304381,0.000236562,-0.000882494,0.000889102,-0.000956921,-0.934096,0.00106604,0.0354141,1854,1240,44.8815,-2.49601
637,-216,44.9041,2.61951,0.00163203,-8.37707e-06,-0.00174705,0.00274183,-0.00111818,-0.565931,0.00229336,0.0313455,1861,1240,44.904,-2.61948
644,-216,44.8741,2.71436,0.00312423,-0.000305682,-0.00202643,0.00406398,-0.00124544,-0.434229,0.00320614,0.0253717,1868,1240,44.8742,-2.71432
651,-216,44.8831,2.6355,0.00384794,-0.000422744,-0.00210636,0.004712,-0.00128681,-0.389282,0.00364675,0.0212075,1875,1240,44.883,-2.6355
658,-216,44.9229,2.64697,0.00409279,-0.000617659,-0.00195798,0.00480037,-0.00132524,-0.346779,0.00372149,0.0301288,1882,1240,44.9228,-2.64703
665,-216,45.0908,2.67615,0.00395258,-0.000806379,-0.00155795,0.00441724,-0.00127104,-0.289852,0.00344751,0.04226,1889,1240,45.0908,-2.6762
672,-216,45.1094,2.4353,0,0,0,0,0,0,0,-1,1896,1240,45.1093,-2.43526
679,-216,44.4913,2.29272,0,0,0,0,0,0,0,-1,1903,1240,44.4913,-2.2927
686,-216,21.5172,6.19458,0,0,0,0,0,0,0,-1,1910,1240,21.5172,-6.19453
693,-216,36.101,8.90479,0,0,0,0,0,0,0,-1,1917,1240,36.1009,-8.90477
700,-216,35.9003,8.58911,0.0024074,-0.00139409,0.00034522,0.0024385,-0.00142518,0.0898326,0.00225613,0.0390355,1924,1240,35.9002,-8.58906
707,-216,35.8866,8.08716,0.00185561,-0.00149179,0.000758865,0.00201961,-0.00165579,0.212841,0.00212546,0.0305435,1931,1240,35.8866,-8.0871
714,-216,35.9141,7.64807,0.00119866,-0.00142449,0.00107834,0.00158504,-0.00181087,0.344057,0.00196207,0.0135293,1938,1240,35.9141,-7.64806
721,-216,35.9191,7.26392,0.000747961,-0.00106796,0.00130395,0.00142893,-0.00174893,0.481274,0.00183783,0.0136584,1945,1240,35.9191,-7.26391
728,-216,35.9512,6.86853,0.0007306,-0.000634024,0.00131349,0.00152842,-0.00143185,0.545849,0.00170941,0.0129114,1952,1240,35.9512,-6.86847
735,-216,35.9547,6.49048,0.00153663,0.000135615,0.000976023,0.00203751,-0.000365265,0.47414,0.00149504,0.013574,1959,1240,35.9547,-6.49047
742,-216,35.8958,6.11121,0.00314235,0.00109965,0.000342435,0.00319822,0.00104377,0.16175,0.00188324,0.0149688,1966,1240,35.8957,-6.11118
749,-216,35.8634,5.67908,0.00545536,0.00226039,-0.000546735,0.00554633,0.00216942,-0.164876,0.00322737,0.0115851,1973,1240,35.8634,-5.67904
756,-216,35.8236,5.2887,0.00871479,0.00371693,-0.0018275,0.00931173,0.00311999,-0.315717,0.00547276,0.0111518,1980,1240,35.8236,-5.28865
763,-216,35.8127,4.96985,0.0133448,0.00551648,-0.00364716,0.0147806,0.00408064,-0.375051,0.00881424,0.0179994,1987,1240,35.8127,-4.96991
770,-216,35.9574,4.60034,0.0192589,0.00773056,-0.00584702,0.0217053,0.00528417,-0.396266,0.0130699,0.040315,1994,1240,35.9574,-4.6003
777,-216,36.1464,4.22449,0,0,0,0,0,0,0,-1,2001,1240,36.1463,-4.22449
784,-216,42.4829,-1.97656,0,0,0,0,0,0,0,-1,2008,1240,42.4828,1.97653
791,-216,41.0908,0.603882,0,0,0,0,0,0,0,-1,2015,1240,41.0908,-0.603931
798,-216,0,0,0,0,0,0,0,0,0,-1,2022,1240,0,0
805,-216,0,0,0,0,0,0,0,0,0,-1,2029,1240,0,0
812,-216,0,0,0,0,0,0,0,0,0,-1,2036,1240,0,0
-700,-223,0,0,0,0,0,0,0,0,0,-1,524,1247,0,0
-693,-223,0,0,0,0,0,0,0,0,0,-1,531,1247,0,0
-686,-223,0,0,0,0,0,0,0,0,0,-1,538,1247,0,0
-679,-223,0,0,0,0,0,0,0,0,0,-1,545,1247,0,0
-672,-223,-29.7585,-12.3416,0.0509792,0.185408,0.0169479,0.187512,0.0488754,1.4473,0.112318,0.0479842,552,1247,-29.7585,12.3416
-665,-223,-29.5582,-12.22,0.0479221,0.15365,0.0157852,0.155956,0.0456157,1.42571,0.09259,0.0483522,559,1247,-29.5581,12.22
-658,-223,-29.2791,-12.3606,0.0432255,0.123285,0.0142011,0.125729,0.0407811,1.40034,0.0740679,0.0486627,566,1247,-29.2791,12.3606
-651,-223,-28.8952,-12.516,0,0,0,0,0,0,0,-1,573,1247,-28.8952,12.516
-644,-223,-23.5477,0.646973,0,0,0,0,0,0,0,-1,580,1247,-23.5477,-0.647005
-637,-223,-22.8637,1.45618,0,0,0,0,0,0,0,-1,587,1247,-22.8637,-1.45623
-630,-223,-22.9215,2.09924,0.0195105,0.0333122,0.00588275,0.0354794,0.0173433,1.21784,0.0204857,0.0443094,594,1247,-22.9215,-2.09924
-623,-223,-22.9564,2.64209,0.014706,0.0208397,0.00398213,0.0227991,0.0127466,1.11354,0.0131937,0.0227902,601,1247,-22.9564,-2.64205
-616,-223,-22.9769,3.07336,0.0105841,0.010988,0.0026667,0.0134604,0.00811172,0.823187,0.00782574,0.0158758,608,1247,-22.9769,-3.07342
-609,-223,-22.9719,3.52612,0.00708849,0.00472182,0.00141693,0.00775123,0.00405909,0.437496,0.00447684,0.0115556,615,1247,-22.9719,-3.52614
-602,-223,-22.9815,3.94727,0.00465369,0.000906193,0.000660927,0.00476684,0.000793044,0.169552,0.0029493,0.0138796,622,1247,-22.9815,-3.9473
-595,-223,-22.9672,4.41187,0.00374812,-0.000302681,0.000382398,0.0037839,-0.000338463,0.0933024,0.00264266,0.0205963,629,1247,-22.9671,-4.41184
-588,-223,-23.0041,4.85925,0.00401158,-0.00115929,0.000678148,0.00409904,-0.00124675,0.128259,0.00322951,0.0238819,636,1247,-23.0041,-4.85929
-581,-223,-23.0651,5.31372,0.00430601,-0.00160337,0.000955602,0.0044567,-0.00175406,0.1564,0.00369722,0.0215783,643,1247,-23.0651,-5.31376
-574,-223,-22.9907,5.78247,0.00435568,-0.00191348,0.000998745,0.00451094,-0.00206874,0.154226,0.00388503,0.0231328,650,1247,-22.9906,-5.78242
-567,-223,-22.8365,6.39319,0.00399283,-0.00160009,0.000817559,0.00410988,-0.00171715,0.142214,0.00345749,0.0377145,657,1247,-22.8365,-6.39314
-560,-223,-22.8574,7.0249,0,0,0,0,0,0,0,-1,664,1247,-22.8574,-7.02487
-553,-223,-11.4025,4.14722,0,0,0,0,0,0,0,-1,671,1247,-11.4025,-4.14719
-546,-223,-26.9034,-0.148682,0,0,0,0,0,0,0,-1,678,1247,-26.9034,0.14867
-539,-223,-33.1787,1.13501,0,0,0,0,0,0,0,-1,685,1247,-33.1787,-1.13495
-532,-223,-32.754,0.907471,0,0,0,0,0,0,0,-1,692,1247,-32.754,-0.907485
-525,-223,-32.9016,0.865723,0,0,0,0,0,0,0,-1,699,1247,-32.9015,-0.865681
-518,-223,-32.9647,0.799072,0,0,0,0,0,0,0,-1,706,1247,-32.9647,-0.799105
-511,-223,-33.0032,0.859131,-0.00713136,0.00288552,0.00101337,0.00298701,-0.00723285,1.47098,0.0060678,0.0413699,713,1247,-33.0032,-0.859175
-504,-223,-33.0489,0.894043,-0.0077538,0.00276235,0.00256891,0.00335634,-0.00834779,1.34357,0.0069592,0.0425656,720,1247,-33.0489,-0.89406
-497,-223,0,0,0,0,0,0,0,0,0,-1,727,1247,0,0
-490,-223,0,0,0,0,0,0,0,0,0,-1,734,1247,0,0
-483,-223,0,0,0,0,0,0,0,0,0,-1,741,1247,0,0
-476,-223,0,0,0,0,0,0,0,0,0,-1,748,1247,0,0
-469,-223,0,0,0,0,0,0,0,0,0,-1,755,1247,0,0
-462,-223,0,0,0,0,0,0,0,0,0,-1,762,1247,0,0
-455,-223,0,0,0,0,0,0,0,0,0,-1,769,1247,0,0
-448,-223,0,0,0,0,0,0,0,0,0,-1,776,1247,0,0
-441,-223,0,0,0,0,0,0,0,0,0,-1,783,1247,0,0
-434,-223,0,0,0,0,0,0,0,0,0,-1,790,1247,0,0
-427,-223,0,0,0,0,0,0,0,0,0,-1,797,1247,0,0
-420,-223,0,0,0,0,0,0,0,0,0,-1,804,1247,0,0
-413,-223,0,0,0,0,0,0,0,0,0,-1,811,1247,0,0
-406,-223,0,0,0,0,0,0,0,0,0,-1,818,1247,0,0
-399,-223,0,0,0,0,0,0,0,0,0,-1,825,1247,0,0
-392,-223,0,0,0,0,0,0,0,0,0,-1,832,1247,0,0
-385,-223,0,0,0,0,0,0,0,0,0,-1,839,1247,0,0
-378,-223,0,0,0,0,0,0,0,0,0,-1,846,1247,0,0
-371,-223,0,0,0,0,0,0,0,0,0,-1,853,1247,0,0
-364,-223,0,0,0,0,0,0,0,0,0,-1,860,1247,0,0
-357,-223,0,0,0,0,0,0,0,0,0,-1,867,1247,0,0
-350,-223,0,0,0,0,0,0,0,0,0,-1,874,1247,0,0
-343,-223,0,0,0,0,0,0,0,0,0,-1,881,1247,0,0
-336,-223,0,0,0,0,0,0,0,0,0,-1,888,1247,0,0
-329,-223,0,0,0,0,0,0,0,0,0,-1,895,1247,0,0
-322,-223,0,0,0,0,0,0,0,0,0,-1,902,1247,0,0
-315,-223,0,0,0,0,0,0,0,0,0,-1,909,1247,0,0
-308,-223,0,0,0,0,0,0,0,0,0,-1,916,1247,0,0
-301,-223,0,0,0,0,0,0,0,0,0,-1,923,1247,0,0
-294,-223,0,0,0,0,0,0,0,0,0,-1,930,1247,0,0
-287,-223,0,0,0,0,0,0,0,0,0,-1,937,1247,0,0
-280,-223,0,0,0,0,0,0,0,0,0,-1,944,1247,0,0
-273,-223,0,0,0,0,0,0,0,0,0,-1,951,1247,0,0
-266,-223,0,0,0,0,0,0,0,0,0,-1,958,1247,0,0
-259,-223,0,0,0,0,0,0,0,0,0,-1,965,1247,0,0
-252,-223,0,0,0,0,0,0,0,0,0,-1,972,1247,0,0
-245,-223,0,0,0,0,0,0,0,0,0,-1,979,1247,0,0
-238,-223,0,0,0,0,0,0,0,0,0,-1,986,1247,0,0
-231,-223,0,0,0,0,0,0,0,0,0,-1,993,1247,0,0
-224,-223,0,0,0,0,0,0,0,0,0,-1,1000,1247,0,0
-217,-223,0,0,0,0,0,0,0,0,0,-1,1007,1247,0,0
-210,-223,0,0,0,0,0,0,0,0,0,-1,1014,1247,0,0
-203,-223,0,0,0,0,0,0,0,0,0,-1,1021,1247,0,0
-196,-223,0,0,0,0,0,0,0,0,0,-1,1028,1247,0,0
-189,-223,0,0,0,0,0,0,0,0,0,-1,1035,1247,0,0
-182,-223,0,0,0,0,0,0,0,0,0,-1,1042,1247,0,0
-175,-223,0,0,0,0,0,0,0,0,0,-1,1049,1247,0,0
-168,-223,0,0,0,0,0,0,0,0,0,-1,1056,1247,0,0
-161,-223,0,0,0,0,0,0,0,0,0,-1,1063,1247,0,0
-154,-223,0,0,0,0,0,0,0,0,0,-1,1070,1247,0,0
-147,-223,0,0,0,0,0,0,0,0,0,-1,1077,1247,0,0
-140,-223,0,0,0,0,0,0,0,0,0,-1,1084,1247,0,0
-133,-223,0,0,0,0,0,0,0,0,0,-1,1091,1247,0,0
-126,-223,0,0,0,0,0,0,0,0,0,-1,1098,1247,0,0
-119,-223,0,0,0,0,0,0,0,0,0,-1,1105,1247,0,0
-112,-223,0,0,0,0,0,0,0,0,0,-1,1112,1247,0,0
-105,-223,0,0,0,0,0,0,0,0,0,-1,1119,1247,0,0
-98,-223,0,0,0,0,0,0,0,0,0,-1,1126,1247,0,0
-91,-223,0,0,0,0,0,0,0,0,0,-1,1133,1247,0,0
-84,-223,0,0,0,0,0,0,0,0,0,-1,1140,1247,0,0
-77,-223,0,0,0,0,0,0,0,0,0,-1,1147,1247,0,0
-70,-223,0,0,0,0,0,0,0,0,0,-1,1154,1247,0,0
-63,-223,0,0,0,0,0,0,0,0,0,-1,1161,1247,0,0
-56,-223,0,0,0,0,0,0,0,0,0,-1,1168,1247,0,0
-49,-223,0,0,0,0,0,0,0,0,0,-1,1175,1247,0,0
-42,-223,0,0,0,0,0,0,0,0,0,-1,1182,1247,0,0
-35,-223,0,0,0,0,0,0,0,0,0,-1,1189,1247,0,0
-28,-223,0,0,0,0,0,0,0,0,0,-1,1196,1247,0,0
-21,-223,0,0,0,0,0,0,0,0,0,-1,1203,1247,0,0
-14,-223,0,0,0,0,0,0,0,0,0,-1,1210,1247,0,0
-7,-223,0,0,0,0,0,0,0,0,0,-1,1217,1247,0,0
0,-223,0,0,0,0,0,0,0,0,0,-1,1224,1247,0,0
7,-223,0,0,0,0,0,0,0,0,0,-1,1231,1247,0,0
14,-223,0,0,0,0,0,0,0,0,0,-1,1238,1247,0,0
21,-223,0,0,0,0,0,0,0,0,0,-1,1245,1247,0,0
28,-223,0,0,0,0,0,0,0,0,0,-1,1252,1247,0,0
35,-223,0,0,0,0,0,0,0,0,0,-1,1259,1247,0,0
42,-223,0,0,0,0,0,0,0,0,0,-1,1266,1247,0,0
49,-223,0,0,0,0,0,0,0,0,0,-1,1273,1247,0,0
56,-223,0,0,0,0,0,0,0,0,0,-1,1280,1247,0,0
63,-223,0,0,0,0,0,0,0,0,0,-1,1287,1247,0,0
70,-223,0,0,0,0,0,0,0,0,0,-1,1294,1247,0,0
77,-223,0,0,0,0,0,0,0,0,0,-1,1301,1247,0,0
84,-223,0,0,0,0,0,0,0,0,0,-1,1308,1247,0,0
91,-223,0,0,0,0,0,0,0,0,0,-1,1315,1247,0,0
98,-223,0,0,0,0,0,0,0,0,0,-1,1322,1247,0,0
105,-223,0,0,0,0,0,0,0,0,0,-1,1329,1247,0,0
112,-223,0,0,0,0,0,0,0,0,0,-1,1336,1247,0,0
119,-223,0,0,0,0,0,0,0,0,0,-1,1343,1247,0,0
126,-223,0,0,0,0,0,0,0,0,0,-1,1350,1247,0,0
133,-223,0,0,0,0,0,0,0,0,0,-1,1357,1247,0,0
140,-223,0,0,0,0,0,0,0,0,0,-1,1364,1247,0,0
147,-223,0,0,0,0,0,0,0,0,0,-1,1371,1247,0,0
154,-223,0,0,0,0,0,0,0,0,0,-1,1378,1247,0,0
161,-223,0,0,0,0,0,0,0,0,0,-1,1385,1247,0,0
168,-223,0,0,0,0,0,0,0,0,0,-1,1392,1247,0,0
175,-223,0,0,0,0,0,0,0,0,0,-1,1399,1247,0,0
182,-223,0,0,0,0,0,0,0,0,0,-1,1406,1247,0,0
189,-223,0,0,0,0,0,0,0,0,0,-1,1413,1247,0,0
196,-223,0,0,0,0,0,0,0,0,0,-1,1420,1247,0,0
203,-223,0,0,0,0,0,0,0,0,0,-1,1427,1247,0,0
210,-223,0,0,0,0,0,0,0,0,0,-1,1434,1247,0,0
217,-223,0,0,0,0,0,0,0,0,0,-1,1441,1247,0,0
224,-223,0,0,0,0,0,0,0,0,0,-1,1448,1247,0,0
231,-223,0,0,0,0,0,0,0,0,0,-1,1455,1247,0,0
238,-223,0,0,0,0,0,0,0,0,0,-1,1462,1247,0,0
245,-223,0,0,0,0,0,0,0,0,0,-1,1469,1247,0,0
252,-223,0,0,0,0,0,0,0,0,0,-1,1476,1247,0,0
259,-223,0,0,0,0,0,0,0,0,0,-1,1483,1247,0,0
266,-223,0,0,0,0,0,0,0,0,0,-1,1490,1247,0,0
273,-223,0,0,0,0,0,0,0,0,0,-1,1497,1247,0,0
280,-223,0,0,0,0,0,0,0,0,0,-1,1504,1247,0,0
287,-223,0,0,0,0,0,0,0,0,0,-1,1511,1247,0,0
294,-223,0,0,0,0,0,0,0,0,0,-1,1518,1247,0,0
301,-223,0,0,0,0,0,0,0,0,0,-1,1525,1247,0,0
308,-223,0,0,0,0,0,0,0,0,0,-1,1532,1247,0,0
315,-223,0,0,0,0,0,0,0,0,0,-1,1539,1247,0,0
322,-223,0,0,0,0,0,0,0,0,0,-1,1546,1247,0,0
329,-223,0,0,0,0,0,0,0,0,0,-1,1553,1247,0,0
336,-223,0,0,0,0,0,0,0,0,0,-1,1560,1247,0,0
343,-223,0,0,0,0,0,0,0,0,0,-1,1567,1247,0,0
350,-223,0,0,0,0,0,0,0,0,0,-1,1574,1247,0,0
357,-223,0,0,0,0,0,0,0,0,0,-1,1581,1247,0,0
364,-223,0,0,0,0,0,0,0,0,0,-1,1588,1247,0,0
371,-223,0,0,0,0,0,0,0,0,0,-1,1595,1247,0,0
378,-223,0,0,0,0,0,0,0,0,0,-1,1602,1247,0,0
385,-223,0,0,0,0,0,0,0,0,0,-1,1609,1247,0,0
392,-223,0,0,0,0,0,0,0,0,0,-1,1616,1247,0,0
399,-223,0,0,0,0,0,0,0,0,0,-1,1623,1247,0,0
406,-223,0,0,0,0,0,0,0,0,0,-1,1630,1247,0,0
413,-223,0,0,0,0,0,0,0,0,0,-1,1637,1247,0,0
420,-223,0,0,0,0,0,0,0,0,0,-1,1644,1247,0,0
427,-223,0,0,0,0,0,0,0,0,0,-1,1651,1247,0,0
434,-223,0,0,0,0,0,0,0,0,0,-1,1658,1247,0,0
441,-223,0,0,0,0,0,0,0,0,0,-1,1665,1247,0,0
448,-223,0,0,0,0,0,0,0,0,0,-1,1672,1247,0,0
455,-223,0,0,0,0,0,0,0,0,0,-1,1679,1247,0,0
462,-223,0,0,0,0,0,0,0,0,0,-1,1686,1247,0,0
469,-223,0,0,0,0,0,0,0,0,0,-1,1693,1247,0,0
476,-223,0,0,0,0,0,0,0,0,0,-1,1700,1247,0,0
483,-223,0,0,0,0,0,0,0,0,0,-1,1707,1247,0,0
490,-223,0,0,0,0,0,0,0,0,0,-1,1714,1247,0,0
497,-223,0,0,0,0,0,0,0,0,0,-1,1721,1247,0,0
504,-223,0,0,0,0,0,0,0,0,0,-1,1728,1247,0,0
511,-223,0,0,0,0,0,0,0,0,0,-1,1735,1247,0,0
518,-223,0,0,0,0,0,0,0,0,0,-1,1742,1247,0,0
525,-223,0,0,0,0,0,0,0,0,0,-1,1749,1247,0,0
532,-223,0,0,0,0,0,0,0,0,0,-1,1756,1247,0,0
539,-223,0,0,0,0,0,0,0,0,0,-1,1763,1247,0,0
546,-223,0,0,0,0,0,0,0,0,0,-1,1770,1247,0,0
553,-223,0,0,0,0,0,0,0,0,0,-1,1777,1247,0,0
560,-223,0,0,0,0,0,0,0,0,0,-1,1784,1247,0,0
567,-223,0,0,0,0,0,0,0,0,0,-1,1791,1247,0,0
574,-223,0,0,0,0,0,0,0,0,0,-1,1798,1247,0,0
581,-223,0,0,0,0,0,0,0,0,0,-1,1805,1247,0,0
588,-223,0,0,0,0,0,0,0,0,0,-1,1812,1247,0,0
595,-223,0,0,0,0,0,0,0,0,0,-1,1819,1247,0,0
602,-223,0,0,0,0,0,0,0,0,0,-1,1826,1247,0,0
609,-223,0,0,0,0,0,0,0,0,0,-1,1833,1247,0,0
616,-223,0,0,0,0,0,0,0,0,0,-1,1840,1247,0,0
623,-223,44.7025,2.98889,-0.00130236,0.00112035,0.000260778,0.0011481,-0.00133011,1.46478,0.00143208,0.03728,1847,1247,44.7025,-2.98893
630,-223,44.8218,2.73376,0.00111174,0.000617469,-0.00101308,0.00190739,-0.00017819,-0.665764,0.00133496,0.0348902,1854,1247,44.8218,-2.73371
637,-223,44.8837,2.5625,0.00338855,0.000178579,-0.00212279,0.00444481,-0.00087768,-0.46171,0.00329497,0.0298881,1861,1247,44.8837,-2.56251
644,-223,44.8373,2.68396,0.00453167,-0.000242489,-0.00226086,0.00543239,-0.00114321,-0.379125,0.00405672,0.0228237,1868,1247,44.8373,-2.68401
651,-223,44.8572,2.59521,0.00483282,-0.000371511,-0.00225751,0.00567559,-0.00121428,-0.357297,0.00424676,0.0286137,1875,1247,44.8571,-2.59524
658,-223,44.8574,2.51624,0,0,0,0,0,0,0,-1,1882,1247,44.8574,-2.5162
665,-223,45.1466,2.67725,0,0,0,0,0,0,0,-1,1889,1247,45.1467,-2.67724
672,-223,44.368,2.3197,0,0,0,0,0,0,0,-1,1896,1247,44.368,-2.31973
679,-223,43.2783,2.46973,0,0,0,0,0,0,0,-1,1903,1247,43.2784,-2.46978
686,-223,35.8121,9.15173,0,0,0,0,0,0,0,-1,1910,1247,35.8121,-9.15172
693,-223,35.75,8.80493,0.00299466,-0.000985647,-0.000105004,0.00299743,-0.000988415,-0.0263565,0.00239669,0.0431039,1917,1247,35.75,-8.80497
700,-223,35.6141,8.43982,0.00260268,-0.00119548,0.000259301,0.0026203,-0.0012131,0.0678506,0.00226237,0.0224209,1924,1247,35.6142,-8.43982
707,-223,35.5212,8.07141,0.00192136,-0.00127024,0.000661911,0.00205319,-0.00140207,0.196593,0.00200666,0.0173365,1931,1247,35.5213,-8.0714
714,-223,35.5093,7.68274,0.001183,-0.00118267,0.000959268,0.00152309,-0.00152276,0.340703,0.00175852,0.0105781,1938,1247,35.5093,-7.68271
721,-223,35.5057,7.2843,0.000815955,-0.000786214,0.00110356,0.00137853,-0.00134879,0.471445,0.00157465,0.0145958,1945,1247,35.5057,-7.28429
728,-223,35.5178,6.87866,0.000919608,-0.000276876,0.00102275,0.00150623,-0.000863503,0.520764,0.00138484,0.0179619,1952,1247,35.5179,-6.87862
735,-223,35.5072,6.50696,0.0018371,0.000515407,0.000615458,0.00207931,0.0002732,0.374925,0.00130471,0.0169992,1959,1247,35.5072,-6.50701
742,-223,35.4542,6.14514,0.00352935,0.00149237,-8.91344e-05,0.00353324,0.00148847,-0.0436468,0.00204833,0.0148565,1966,1247,35.4542,-6.14513
749,-223,35.4353,5.68445,0.00606076,0.00267303,-0.00107437,0.00637275,0.00236104,-0.282619,0.00372022,0.0125414,1973,1247,35.4354,-5.68444
756,-223,35.392,5.27893,0.00986439,0.00420958,-0.00257735,0.0108628,0.00321116,-0.369582,0.00644395,0.0152667,1980,1247,35.392,-5.27888
763,-223,35.3809,4.96643,0.0154172,0.00617934,-0.00477348,0.0174406,0.00415593,-0.400926,0.0105191,0.019508,1987,1247,35.3808,-4.96641
770,-223,35.4227,4.51221,0.023039,0.00869627,-0.00757242,0.026297,0.00543835,-0.406296,0.0160291,0.0419384,1994,1247,35.4228,-4.51225
777,-223,35.4564,4.0321,0,0,0,0,0,0,0,-1,2001,1247,35.4565,-4.03212
784,-223,35.1801,2.14172,0,0,0,0,0,0,0,-1,2008,1247,35.1801,-2.14178
791,-223,34.7136,2.92554,0,0,0,0,0,0,0,-1,2015,1247,34.7137,-2.92555
798,-223,0,0,0,0,0,0,0,0,0,-1,2022,1247,0,0
805,-223,0,0,0,0,0,0,0,0,0,-1,2029,1247,0,0
812,-223,0,0,0,0,0,0,0,0,0,-1,2036,1247,0,0
-700,-230,0,0,0,0,0,0,0,0,0,-1,524,1254,0,0
-693,-230,0,0,0,0,0,0,0,0,0,-1,531,1254,0,0
-686,-230,0,0,0,0,0,0,0,0,0,-1,538,1254,0,0
-679,-230,0,0,0,0,0,0,0,0,0,-1,545,1254,0,0
-672,-230,-29.5114,-13.923,0,0,0,0,0,0,0,-1,552,1254,-29.5114,13.9229
-665,-230,-29.7886,-13.2142,0,0,0,0,0,0,0,-1,559,1254,-29.7885,13.2142
-658,-230,-29.6566,-13.4025,0,0,0,0,0,0,0,-1,566,1254,-29.6566,13.4025
-651,-230,-29.1981,-13.4294,0,0,0,0,0,0,0,-1,573,1254,-29.1981,13.4295
-644,-230,-22.1688,1.23816,0,0,0,0,0,0,0,-1,580,1254,-22.1688,-1.23818
-637,-230,-23.254,2.19312,0,0,0,0,0,0,0,-1,587,1254,-23.254,-2.19308
-630,-230,-22.8777,2.35486,0.0219383,0.0346064,0.00592719,0.0369472,0.0195976,1.19468,0.0213446,0.0466982,594,1254,-22.8777,-2.35485
-623,-230,-22.5034,2.57019,0.0166093,0.0213276,0.00399765,0.0236103,0.0143266,1.05196,0.0137347,0.0277628,601,1254,-22.5034,-2.57017
-616,-230,-22.5121,3.06958,0.0119885,0.0110024,0.00269537,0.0142355,0.00875534,0.69493,0.00829108,0.0169736,608,1254,-22.5121,-3.06958
-609,-230,-22.499,3.53638,0.00814375,0.0047587,0.00148516,0.00870297,0.00419948,0.360117,0.00502569,0.0124751,615,1254,-22.499,-3.53632
-602,-230,-22.5111,3.96655,0.00543633,0.00113245,0.000778771,0.00557291,0.000995873,0.173615,0.00343183,0.0109896,622,1254,-22.5111,-3.9665
-595,-230,-22.5313,4.42188,0.00423643,0.000137855,0.000557035,0.00431079,6.34978e-05,0.132703,0.00285293,0.0181778,629,1254,-22.5312,-4.42188
-588,-230,-22.5568,4.89001,0.00425179,-0.000650815,0.000808598,0.00438171,-0.000780736,0.159313,0.00321316,0.0270682,636,1254,-22.5568,-4.88996
-581,-230,-22.6353,5.36829,0.00452983,-0.00106793,0.00111243,0.0047428,-0.0012809,0.189155,0.00366423,0.0256319,643,1254,-22.6353,-5.36832
-574,-230,-22.5546,5.76196,0.00470503,-0.00141332,0.00118605,0.0049269,-0.00163519,0.184929,0.00394432,0.019933,650,1254,-22.5546,-5.76202
-567,-230,-22.3835,6.29626,0.00434053,-0.00107322,0.000919305,0.00449238,-0.00122507,0.163698,0.00347599,0.0352342,657,1254,-22.3835,-6.29622
-560,-230,-22.1894,6.86194,0,0,0,0,0,0,0,-1,664,1254,-22.1894,-6.86199
-553,-230,-13.1939,4.9718,0,0,0,0,0,0,0,-1,671,1254,-13.1939,-4.97175
-546,-230,-15.23,0.453979,0,0,0,0,0,0,0,-1,678,1254,-15.23,-0.453996
-539,-230,-25.8232,0.512817,0,0,0,0,0,0,0,-1,685,1254,-25.8232,-0.512878
-532,-230,-21.1644,1.52966,0,0,0,0,0,0,0,-1,692,1254,-21.1644,-1.52969
-525,-230,-29.4775,0.731445,0,0,0,0,0,0,0,-1,699,1254,-29.4775,-0.731432
-518,-230,-32.9543,0.764038,0,0,0,0,0,0,0,-1,706,1254,-32.9543,-0.76405
-511,-230,-33.0333,0.817383,-0.00931497,0.00385873,0.00146127,0.00401887,-0.00947511,1.46164,0.00800023,0.0419734,713,1254,-33.0332,-0.81741
-504,-230,-33.1049,0.879639,-0.0112345,0.00445087,0.00275365,0.00492025,-0.0117039,1.40196,0.0098607,0.038482,720,1254,-33.1049,-0.879687
-497,-230,0,0,0,0,0,0,0,0,0,-1,727,1254,0,0
-490,-230,0,0,0,0,0,0,0,0,0,-1,734,1254,0,0
-483,-230,0,0,0,0,0,0,0,0,0,-1,741,1254,0,0
-476,-230,0,0,0,0,0,0,0,0,0,-1,748,1254,0,0
-469,-230,0,0,0,0,0,0,0,0,0,-1,755,1254,0,0
-462,-230,0,0,0,0,0,0,0,0,0,-1,762,1254,0,0
-455,-230,0,0,0,0,0,0,0,0,0,-1,769,1254,0,0
-448,-230,0,0,0,0,0,0,0,0,0,-1,776,1254,0,0
-441,-230,0,0,0,0,0,0,0,0,0,-1,783,1254,0,0
-434,-230,0,0,0,0,0,0,0,0,0,-1,790,1254,0,0
-427,-230,0,0,0,0,0,0,0,0,0,-1,797,1254,0,0
-420,-230,0,0,0,0,0,0,0,0,0,-1,804,1254,0,0
-413,-230,0,0,0,0,0,0,0,0,0,-1,811,1254,0,0
-406,-230,0,0,0,0,0,0,0,0,0,-1,818,1254,0,0
-399,-230,0,0,0,0,0,0,0,0,0,-1,825,1254,0,0
-392,-230,0,0,0,0,0,0,0,0,0,-1,832,1254,0,0
-385,-230,0,0,0,0,0,0,0,0,0,-1,839,1254,0,0
-378,-230,0,0,0,0,0,0,0,0,0,-1,846,1254,0,0
-371,-230,0,0,0,0,0,0,0,0,0,-1,853,1254,0,0
-364,-230,0,0,0,0,0,0,0,0,0,-1,860,1254,0,0
-357,-230,0,0,0,0,0,0,0,0,0,-1,867,1254,0,0
-350,-230,0,0,0,0,0,0,0,0,0,-1,874,1254,0,0
-343,-230,0,0,0,0,0,0,0,0,0,-1,881,1254,0,0
-336,-230,0,0,0,0,0,0,0,0,0,-1,888,1254,0,0
-329,-230,0,0,0,0,0,0,0,0,0,-1,895,1254,0,0
-322,-230,0,0,0,0,0,0,0,0,0,-1,902,1254,0,0
-315,-230,0,0,0,0,0,0,0,0,0,-1,909,1254,0,0
-308,-230,0,0,0,0,0,0,0,0,0,-1,916,1254,0,0
-301,-230,0,0,0,0,0,0,0,0,0,-1,923,1254,0,0
-294,-230,0,0,0,0,0,0,0,0,0,-1,930,1254,0,0
-287,-230,0,0,0,0,0,0,0,0,0,-1,937,1254,0,0
-280,-230,0,0,0,0,0,0,0,0,0,-1,944,1254,0,0
-273,-230,0,0,0,0,0,0,0,0,0,-1,951,1254,0,0
-266,-230,0,0,0,0,0,0,0,0,0,-1,958,1254,0,0
-259,-230,0,0,0,0,0,0,0,0,0,-1,965,1254,0,0
-252,-230,0,0,0,0,0,0,0,0,0,-1,972,1254,0,0
-245,-230,0,0,0,0,0,0,0,0,0,-1,979,1254,0,0
-238,-230,0,0,0,0,0,0,0,0,0,-1,986,1254,0,0
-231,-230,0,0,0,0,0,0,0,0,0,-1,993,1254,0,0
-224,-230,0,0,0,0,0,0,0,0,0,-1,1000,1254,0,0
-217,-230,0,0,0,0,0,0,0,0,0,-1,1007,1254,0,0
-210,-230,0,0,0,0,0,0,0,0,0,-1,1014,1254,0,0
-203,-230,0,0,0,0,0,0,0,0,0,-1,1021,1254,0,0
-196,-230,0,0,0,0,0,0,0,0,0,-1,1028,1254,0,0
-189,-230,0,0,0,0,0,0,0,0,0,-1,1035,1254,0,0
-182,-230,0,0,0,0,0,0,0,0,0,-1,1042,1254,0,0
-175,-230,0,0,0,0,0,0,0,0,0,-1,1049,1254,0,0
-168,-230,0,0,0,0,0,0,0,0,0,-1,1056,1254,0,0
-161,-230,0,0,0,0,0,0,0,0,0,-1,1063,1254,0,0
-154,-230,0,0,0,0,0,0,0,0,0,-1,1070,1254,0,0
-147,-230,0,0,0,0,0,0,0,0,0,-1,1077,1254,0,0
-140,-230,0,0,0,0,0,0,0,0,0,-1,1084,1254,0,0
-133,-230,0,0,0,0,0,0,0,0,0,-1,1091,1254,0,0
-126,-230,0,0,0,0,0,0,0,0,0,-1,1098,1254,0,0
-119,-230,0,0,0,0,0,0,0,0,0,-1,1105,1254,0,0
-112,-230,0,0,0,0,0,0,0,0,0,-1,1112,1254,0,0
-105,-230,0,0,0,0,0,0,0,0,0,-1,1119,1254,0,0
-98,-230,0,0,0,0,0,0,0,0,0,-1,1126,1254,0,0
-91,-230,0,0,0,0,0,0,0,0,0,-1,1133,1254,0,0
-84,-230,0,0,0,0,0,0,0,0,0,-1,1140,1254,0,0
-77,-230,0,0,0,0,0,0,0,0,0,-1,1147,1254,0,0
-70,-230,0,0,0,0,0,0,0,0,0,-1,1154,1254,0,0
-63,-230,0,0,0,0,0,0,0,0,0,-1,1161,1254,0,0
-56,-230,0,0,0,0,0,0,0,0,0,-1,1168,1254,0,0
-49,-230,0,0,0,0,0,0,0,0,0,-1,1175,1254,0,0
-42,-230,0,0,0,0,0,0,0,0,0,-1,1182,1254,0,0
-35,-230,0,0,0,0,0,0,0,0,0,-1,1189,1254,0,0
-28,-230,0,0,0,0,0,0,0,0,0,-1,1196,1254,0,0
-21,-230,0,0,0,0,0,0,0,0,0,-1,1203,1254,0,0
-14,-230,0,0,0,0,0,0,0,0,0,-1,1210,1254,0,0
-7,-230,0,0,0,0,0,0,0,0,0,-1,1217,1254,0,0
0,-230,0,0,0,0,0,0,0,0,0,-1,1224,1254,0,0
7,-230,0,0,0,0,0,0,0,0,0,-1,1231,1254,0,0
14,-230,0,0,0,0,0,0,0,0,0,-1,1238,1254,0,0
21,-230,0,0,0,0,0,0,0,0,0,-1,1245,1254,0,0
28,-230,0,0,0,0,0,0,0,0,0,-1,1252,1254,0,0
35,-230,0,0,0,0,0,0,0,0,0,-1,1259,1254,0,0
42,-230,0,0,0,0,0,0,0,0,0,-1,1266,1254,0,0
49,-230,0,0,0,0,0,0,0,0,0,-1,1273,1254,0,0
56,-230,0,0,0,0,0,0,0,0,0,-1,1280,1254,0,0
63,-230,0,0,0,0,0,0,0,0,0,-1,1287,1254,0,0
70,-230,0,0,0,0,0,0,0,0,0,-1,1294,1254,0,0
77,-230,0,0,0,0,0,0,0,0,0,-1,1301,1254,0,0
84,-230,0,0,0,0,0,0,0,0,0,-1,1308,1254,0,0
91,-230,0,0,0,0,0,0,0,0,0,-1,1315,1254,0,0
98,-230,0,0,0,0,0,0,0,0,0,-1,1322,1254,0,0
105,-230,0,0,0,0,0,0,0,0,0,-1,1329,1254,0,0
112,-230,0,0,0,0,0,0,0,0,0,-1,1336,1254,0,0
119,-230,0,0,0,0,0,0,0,0,0,-1,1343,1254,0,0
126,-230,0,0,0,0,0,0,0,0,0,-1,1350,1254,0,0
133,-230,0,0,0,0,0,0,0,0,0,-1,1357,1254,0,0
140,-230,0,0,0,0,0,0,0,0,0,-1,1364,1254,0,0
147,-230,0,0,0,0,0,0,0,0,0,-1,1371,1254,0,0
154,-230,0,0,0,0,0,0,0,0,0,-1,1378,1254,0,0
161,-230,0,0,0,0,0,0,0,0,0,-1,1385,1254,0,0
168,-230,0,0,0,0,0,0,0,0,0,-1,1392,1254,0,0
175,-230,0,0,0,0,0,0,0,0,0,-1,1399,1254,0,0
182,-230,0,0,0,0,0,0,0,0,0,-1,1406,1254,0,0
189,-230,0,0,0,0,0,0,0,0,0,-1,1413,1254,0,0
196,-230,0,0,0,0,0,0,0,0,0,-1,1420,1254,0,0
203,-230,0,0,0,0,0,0,0,0,0,-1,1427,1254,0,0
210,-230,0,0,0,0,0,0,0,0,0,-1,1434,1254,0,0
217,-230,0,0,0,0,0,0,0,0,0,-1,1441,1254,0,0
224,-230,0,0,0,0,0,0,0,0,0,-1,1448,1254,0,0
231,-230,0,0,0,0,0,0,0,0,0,-1,1455,1254,0,0
238,-230,0,0,0,0,0,0,0,0,0,-1,1462,1254,0,0
245,-230,0,0,0,0,0,0,0,0,0,-1,1469,1254,0,0
252,-230,0,0,0,0,0,0,0,0,0,-1,1476,1254,0,0
259,-230,0,0,0,0,0,0,0,0,0,-1,1483,1254,0,0
266,-230,0,0,0,0,0,0,0,0,0,-1,1490,1254,0,0
273,-230,0,0,0,0,0,0,0,0,0,-1,1497,1254,0,0
280,-230,0,0,0,0,0,0,0,0,0,-1,1504,1254,0,0
287,-230,0,0,0,0,0,0,0,0,0,-1,1511,1254,0,0
294,-230,0,0,0,0,0,0,0,0,0,-1,1518,1254,0,0
301,-230,0,0,0,0,0,0,0,0,0,-1,1525,1254,0,0
308,-230,0,0,0,0,0,0,0,0,0,-1,1532,1254,0,0
315,-230,0,0,0,0,0,0,0,0,0,-1,1539,1254,0,0
322,-230,0,0,0,0,0,0,0,0,0,-1,1546,1254,0,0
329,-230,0,0,0,0,0,0,0,0,0,-1,1553,1254,0,0
336,-230,0,0,0,0,0,0,0,0,0,-1,1560,1254,0,0
343,-230,0,0,0,0,0,0,0,0,0,-1,1567,1254,0,0
350,-230,0,0,0,0,0,0,0,0,0,-1,1574,1254,0,0
357,-230,0,0,0,0,0,0,0,0,0,-1,1581,1254,0,0
364,-230,0,0,0,0,0,0,0,0,0,-1,1588,1254,0,0
371,-230,0,0,0,0,0,0,0,0,0,-1,1595,1254,0,0
378,-230,0,0,0,0,0,0,0,0,0,-1,1602,1254,0,0
385,-230,0,0,0,0,0,0,0,0,0,-1,1609,1254,0,0
392,-230,0,0,0,0,0,0,0,0,0,-1,1616,1254,0,0
399,-230,0,0,0,0,0,0,0,0,0,-1,1623,1254,0,0
406,-230,0,0,0,0,0,0,0,0,0,-1,1630,1254,0,0
413,-230,0,0,0,0,0,0,0,0,0,-1,1637,1254,0,0
420,-230,0,0,0,0,0,0,0,0,0,-1,1644,1254,0,0
427,-230,0,0,0,0,0,0,0,0,0,-1,1651,1254,0,0
434,-230,0,0,0,0,0,0,0,0,0,-1,1658,1254,0,0
441,-230,0,0,0,0,0,0,0,0,0,-1,1665,1254,0,0
448,-230,0,0,0,0,0,0,0,0,0,-1,1672,1254,0,0
455,-230,0,0,0,0,0,0,0,0,0,-1,1679,1254,0,0
462,-230,0,0,0,0,0,0,0,0,0,-1,1686,1254,0,0
469,-230,0,0,0,0,0,0,0,0,0,-1,1693,1254,0,0
476,-230,0,0,0,0,0,0,0,0,0,-1,1700,1254,0,0
483,-230,0,0,0,0,0,0,0,0,0,-1,1707,1254,0,0
490,-230,0,0,0,0,0,0,0,0,0,-1,1714,1254,0,0
497,-230,0,0,0,0,0,0,0,0,0,-1,1721,1254,0,0
504,-230,0,0,0,0,0,0,0,0,0,-1,1728,1254,0,0
511,-230,0,0,0,0,0,0,0,0,0,-1,1735,1254,0,0
518,-230,0,0,0,0,0,0,0,0,0,-1,1742,1254,0,0
525,-230,0,0,0,0,0,0,0,0,0,-1,1749,1254,0,0
532,-230,0,0,0,0,0,0,0,0,0,-1,1756,1254,0,0
539,-230,0,0,0,0,0,0,0,0,0,-1,1763,1254,0,0
546,-230,0,0,0,0,0,0,0,0,0,-1,1770,1254,0,0
553,-230,0,0,0,0,0,0,0,0,0,-1,1777,1254,0,0
560,-230,0,0,0,0,0,0,0,0,0,-1,1784,1254,0,0
567,-230,0,0,0,0,0,0,0,0,0,-1,1791,1254,0,0
574,-230,0,0,0,0,0,0,0,0,0,-1,1798,1254,0,0
581,-230,0,0,0,0,0,0,0,0,0,-1,1805,1254,0,0
588,-230,0,0,0,0,0,0,0,0,0,-1,1812,1254,0,0
595,-230,0,0,0,0,0,0,0,0,0,-1,1819,1254,0,0
602,-230,0,0,0,0,0,0,0,0,0,-1,1826,1254,0,0
609,-230,0,0,0,0,0,0,0,0,0,-1,1833,1254,0,0
616,-230,44.927,2.86975,-0.00482091,0.00375697,4.83729e-05,0.00375724,-0.00482119,1.56516,0.00496544,0.037487,1840,1254,44.927,-2.86975
623,-230,44.824,2.9585,-0.000708795,0.00243112,-0.000824777,0.00263458,-0.000912259,-1.32894,0.00212672,0.0354203,1847,1254,44.824,-2.95846
630,-230,44.8303,2.82703,0.0029533,0.00145594,-0.00175605,0.00411361,0.000295633,-0.583893,0.00264937,0.0324802,1854,1254,44.8303,-2.82701
637,-230,44.8383,2.62524,0.00585818,0.000643071,-0.00257552,0.00691568,-0.000414434,-0.389609,0.00475462,0.0277666,1861,1254,44.8382,-2.62529
644,-230,44.8241,2.61328,0.00645239,4.3753e-05,-0.00235015,0.00722184,-0.000725699,-0.316406,0.00507379,0.0216966,1868,1254,44.8241,-2.61334
651,-230,44.9281,2.6178,0.00621241,-0.000133177,-0.0022467,0.00692732,-0.000848094,-0.308076,0.00492531,0.0455421,1875,1254,44.9281,-2.61784
658,-230,45.0081,2.61475,0,0,0,0,0,0,0,-1,1882,1254,45.008,-2.61475
665,-230,44.3485,2.11414,0,0,0,0,0,0,0,-1,1889,1254,44.3485,-2.11413
672,-230,43.0962,2.78699,0,0,0,0,0,0,0,-1,1896,1254,43.0962,-2.78698
679,-230,27.9967,2.37708,0,0,0,0,0,0,0,-1,1903,1254,27.9967,-2.3771
686,-230,35.0422,9.02136,0,0,0,0,0,0,0,-1,1910,1254,35.0422,-9.02131
693,-230,35.0895,8.81433,0.00310402,-0.000799343,-0.000176277,0.00311196,-0.000807287,-0.0450382,0.00238963,0.0452685,1917,1254,35.0894,-8.81429
700,-230,35.1532,8.52576,0.00270005,-0.00105202,0.000205236,0.00271125,-0.00106322,0.0544825,0.00224736,0.016574,1924,1254,35.1531,-8.52579
707,-230,35.1075,8.11462,0.00189817,-0.00109773,0.000583563,0.00200783,-0.00120738,0.185743,0.00187538,0.0103498,1931,1254,35.1075,-8.11467
714,-230,35.0826,7.7052,0.00106862,-0.000977719,0.000847358,0.00137394,-0.00128304,0.345842,0.00153431,0.0124796,1938,1254,35.0826,-7.70515
721,-230,35.0846,7.29907,0.000770763,-0.000551141,0.000919275,0.00124203,-0.00102241,0.473718,0.00130942,0.0128398,1945,1254,35.0846,-7.29908
728,-230,35.0811,6.91772,0.000965504,-2.44585e-05,0.000770637,0.00138643,-0.000445386,0.499926,0.00110314,0.0152883,1952,1254,35.081,-6.91771
735,-230,35.0688,6.54163,0.00193257,0.000742448,0.000316568,0.00201153,0.000663482,0.244457,0.00118357,0.0158705,1959,1254,35.0688,-6.54157
742,-230,35.0421,6.12415,0.00365592,0.0016814,-0.000436615,0.00374816,0.00158916,-0.208195,0.00217232,0.0119065,1966,1254,35.0422,-6.12414
749,-230,35.0282,5.67749,0.00631068,0.0028388,-0.00151272,0.0068773,0.00227217,-0.358397,0.00404605,0.0114387,1973,1254,35.0282,-5.67754
756,-230,34.9971,5.29089,0.0104255,0.00439871,-0.00323768,0.0118351,0.00298908,-0.410632,0.00710644,0.0165095,1980,1254,34.997,-5.29085
763,-230,35.0421,4.81592,0.016525,0.00642934,-0.00579362,0.0191613,0.00379298,-0.427041,0.0117164,0.0328522,1987,1254,35.0421,-4.8159
770,-230,35.3932,4.05273,0.0250676,0.00909276,-0.00918178,0.02925,0.00491037,-0.427426,0.0180867,0.0439861,1994,1254,35.3932,-4.05269
777,-230,35.7896,3.49048,0,0,0,0,0,0,0,-1,2001,1254,35.7896,-3.49044
784,-230,35.8896,1.80334,0,0,0,0,0,0,0,-1,2008,1254,35.8897,-1.80338
791,-230,35.6028,2.20642,0,0,0,0,0,0,0,-1,2015,1254,35.6027,-2.2064
798,-230,0,0,0,0,0,0,0,0,0,-1,2022,1254,0,0
805,-230,0,0,0,0,0,0,0,0,0,-1,2029,1254,0,0
812,-230,0,0,0,0,0,0,0,0,0,-1,2036,1254,0,0
-700,-237,0,0,0,0,0,0,0,0,0,-1,524,1261,0,0
-693,-237,0,0,0,0,0,0,0,0,0,-1,531,1261,0,0
-686,-237,0,0,0,0,0,0,0,0,0,-1,538,1261,0,0
-679,-237,0,0,0,0,0,0,0,0,0,-1,545,1261,0,0
-672,-237,-29.3025,-15.5063,0,0,0,0,0,0,0,-1,552,1261,-29.3025,15.5064
-665,-237,-29.1047,-11.6073,0,0,0,0,0,0,0,-1,559,1261,-29.1047,11.6073
-658,-237,-29.7421,-14.4137,0,0,0,0,0,0,0,-1,566,1261,-29.7421,14.4137
-651,-237,-37.2526,1.15991,0,0,0,0,0,0,0,-1,573,1261,-37.2526,-1.15996
-644,-237,-22.7836,6.22681,0,0,0,0,0,0,0,-1,580,1261,-22.7836,-6.22677
-637,-237,-22.978,2.65613,0,0,0,0,0,0,0,-1,587,1261,-22.9781,-2.65617
-630,-237,-22.5754,2.75952,0.0240358,0.0356954,0.00591728,0.0381723,0.0215589,1.17437,0.0221003,0.0475346,594,1261,-22.5754,-2.75956
-623,-237,-21.9708,2.58777,0.018145,0.0216113,0.00392974,0.0241731,0.0155832,0.993088,0.0141497,0.0319775,601,1261,-21.9708,-2.58781
-616,-237,-22.0063,3.07544,0.0130292,0.0109148,0.00262485,0.0148017,0.00914223,0.593954,0.00862428,0.014481,608,1261,-22.0063,-3.07548
-609,-237,-22.0339,3.53101,0.00891471,0.00476618,0.00146072,0.00937742,0.00430346,0.306773,0.00542014,0.0164866,615,1261,-22.0339,-3.53099
-602,-237,-22.0418,3.98267,0.00606093,0.00134449,0.000816459,0.00619827,0.00120715,0.166651,0.00379435,0.0112099,622,1261,-22.0418,-3.98273
-595,-237,-22.0807,4.43091,0.00469014,0.000469639,0.000689311,0.00479986,0.00035991,0.157862,0.00308694,0.0145736,629,1261,-22.0808,-4.43093
-588,-237,-22.0953,4.89734,0.00446275,-0.000298867,0.00090129,0.00462763,-0.000463755,0.180946,0.00325072,0.0274807,636,1261,-22.0953,-4.89738
-581,-237,-22.1339,5.36169,0.00464245,-0.000718067,0.00121564,0.00490525,-0.000980864,0.212903,0.00364143,0.026555,643,1261,-22.1338,-5.36165
-574,-237,-22.1171,5.81958,0.00487305,-0.0010464,0.00133362,0.00515963,-0.00133298,0.211672,0.00395959,0.0163732,650,1261,-22.1171,-5.81956
-567,-237,-22.066,6.34167,0.00454328,-0.000717352,0.00104343,0.00474268,-0.000916754,0.188826,0.00350754,0.0246057,657,1261,-22.066,-6.34162
-560,-237,-21.9388,6.76672,0,0,0,0,0,0,0,-1,664,1261,-21.9388,-6.76672
-553,-237,-20.6102,6.92139,0,0,0,0,0,0,0,-1,671,1261,-20.6102,-6.92138
-546,-237,-11.192,1.14014,0,0,0,0,0,0,0,-1,678,1261,-11.192,-1.14011
-539,-237,-16.512,1.53455,0,0,0,0,0,0,0,-1,685,1261,-16.512,-1.53457
-532,-237,-29.7025,1.23621,0,0,0,0,0,0,0,-1,692,1261,-29.7025,-1.23618
-525,-237,-32.2904,0.708252,0,0,0,0,0,0,0,-1,699,1261,-32.2904,-0.708273
-518,-237,-32.5186,0.644897,-0.00825975,0.00323273,0.00111645,0.00334018,-0.00836721,1.47485,0.00696387,0.0477805,706,1261,-32.5186,-0.644859
-511,-237,-32.9081,0.768066,-0.0110797,0.00444118,0.00202317,0.00470057,-0.0113391,1.44328,0.00952123,0.0471567,713,1261,-32.9081,-0.768087
-504,-237,-33.0333,0.880859,-0.0138416,0.00520424,0.00340097,0.00579333,-0.0144306,1.39929,0.012026,0.042537,720,1261,-33.0333,-0.880907
-497,-237,-33.0798,1.1106,-0.0153808,0.00519733,0.0056651,0.00665382,-0.0168373,1.31915,0.013981,0.0462858,727,1261,-33.0798,-1.1106
-490,-237,0,0,0,0,0,0,0,0,0,-1,734,1261,0,0
-483,-237,0,0,0,0,0,0,0,0,0,-1,741,1261,0,0
-476,-237,0,0,0,0,0,0,0,0,0,-1,748,1261,0,0
-469,-237,0,0,0,0,0,0,0,0,0,-1,755,1261,0,0
-462,-237,0,0,0,0,0,0,0,0,0,-1,762,1261,0,0
-455,-237,0,0,0,0,0,0,0,0,0,-1,769,1261,0,0
-448,-237,0,0,0,0,0,0,0,0,0,-1,776,1261,0,0
-441,-237,0,0,0,0,0,0,0,0,0,-1,783,1261,0,0
-434,-237,0,0,0,0,0,0,0,0,0,-1,790,1261,0,0
-427,-237,0,0,0,0,0,0,0,0,0,-1,797,1261,0,0
-420,-237,0,0,0,0,0,0,0,0,0,-1,804,1261,0,0
-413,-237,0,0,0,0,0,0,0,0,0,-1,811,1261,0,0
-406,-237,0,0,0,0,0,0,0,0,0,-1,818,1261,0,0
-399,-237,0,0,0,0,0,0,0,0,0,-1,825,1261,0,0
-392,-237,0,0,0,0,0,0,0,0,0,-1,832,1261,0,0
-385,-237,0,0,0,0,0,0,0,0,0,-1,839,1261,0,0
-378,-237,0,0,0,0,0,0,0,0,0,-1,846,1261,0,0
-371,-237,0,0,0,0,0,0,0,0,0,-1,853,1261,0,0
-364,-237,0,0,0,0,0,0,0,0,0,-1,860,1261,0,0
-357,-237,0,0,0,0,0,0,0,0,0,-1,867,1261,0,0
-350,-237,0,0,0,0,0,0,0,0,0,-1,874,1261,0,0
-343,-237,0,0,0,0,0,0,0,0,0,-1,881,1261,0,0
-336,-237,0,0,0,0,0,0,0,0,0,-1,888,1261,0,0
-329,-237,0,0,0,0,0,0,0,0,0,-1,895,1261,0,0
-322,-237,0,0,0,0,0,0,0,0,0,-1,902,1261,0,0
-315,-237,0,0,0,0,0,0,0,0,0,-1,909,1261,0,0
-308,-237,0,0,0,0,0,0,0,0,0,-1,916,1261,0,0
-301,-237,0,0,0,0,0,0,0,0,0,-1,923,1261,0,0
-294,-237,0,0,0,0,0,0,0,0,0,-1,930,1261,0,0
-287,-237,0,0,0,0,0,0,0,0,0,-1,937,1261,0,0
-280,-237,0,0,0,0,0,0,0,0,0,-1,944,1261,0,0
-273,-237,0,0,0,0,0,0,0,0,0,-1,951,1261,0,0
-266,-237,0,0,0,0,0,0,0,0,0,-1,958,1261,0,0
-259,-237,0,0,0,0,0,0,0,0,0,-1,965,1261,0,0
-252,-237,0,0,0,0,0,0,0,0,0,-1,972,1261,0,0
-245,-237,0,0,0,0,0,0,0,0,0,-1,979,1261,0,0
-238,-237,0,0,0,0,0,0,0,0,0,-1,986,1261,0,0
-231,-237,0,0,0,0,0,0,0,0,0,-1,993,1261,0,0
-224,-237,0,0,0,0,0,0,0,0,0,-1,1000,1261,0,0
-217,-237,0,0,0,0,0,0,0,0,0,-1,1007,1261,0,0
-210,-237,0,0,0,0,0,0,0,0,0,-1,1014,1261,0,0
-203,-237,0,0,0,0,0,0,0,0,0,-1,1021,1261,0,0
-196,-237,0,0,0,0,0,0,0,0,0,-1,1028,1261,0,0
-189,-237,0,0,0,0,0,0,0,0,0,-1,1035,1261,0,0
-182,-237,0,0,0,0,0,0,0,0,0,-1,1042,1261,0,0
-175,-237,0,0,0,0,0,0,0,0,0,-1,1049,1261,0,0
-168,-237,0,0,0,0,0,0,0,0,0,-1,1056,1261,0,0
-161,-237,0,0,0,0,0,0,0,0,0,-1,1063,1261,0,0
-154,-237,0,0,0,0,0,0,0,0,0,-1,1070,1261,0,0
-147,-237,0,0,0,0,0,0,0,0,0,-1,1077,1261,0,0
-140,-237,0,0,0,0,0,0,0,0,0,-1,1084,1261,0,0
-133,-237,0,0,0,0,0,0,0,0,0,-1,1091,1261,0,0
-126,-237,0,0,0,0,0,0,0,0,0,-1,1098,1261,0,0
-119,-237,0,0,0,0,0,0,0,0,0,-1,1105,1261,0,0
-112,-237,0,0,0,0,0,0,0,0,0,-1,1112,1261,0,0
-105,-237,0,0,0,0,0,0,0,0,0,-1,1119,1261,0,0
-98,-237,0,0,0,0,0,0,0,0,0,-1,1126,1261,0,0
-91,-237,0,0,0,0,0,0,0,0,0,-1,1133,1261,0,0
-84,-237,0,0,0,0,0,0,0,0,0,-1,1140,1261,0,0
-77,-237,0,0,0,0,0,0,0,0,0,-1,1147,1261,0,0
-70,-237,0,0,0,0,0,0,0,0,0,-1,1154,1261,0,0
-63,-237,0,0,0,0,0,0,0,0,0,-1,1161,1261,0,0
-56,-237,0,0,0,0,0,0,0,0,0,-1,1168,1261,0,0
-49,-237,0,0,0,0,0,0,0,0,0,-1,1175,1261,0,0
-42,-237,0,0,0,0,0,0,0,0,0,-1,1182,1261,0,0
-35,-237,0,0,0,0,0,0,0,0,0,-1,1189,1261,0,0
-28,-237,0,0,0,0,0,0,0,0,0,-1,1196,1261,0,0
-21,-237,0,0,0,0,0,0,0,0,0,-1,1203,1261,0,0
-14,-237,0,0,0,0,0,0,0,0,0,-1,1210,1261,0,0
-7,-237,0,0,0,0,0,0,0,0,0,-1,1217,1261,0,0
0,-237,0,0,0,0,0,0,0,0,0,-1,1224,1261,0,0
7,-237,0,0,0,0,0,0,0,0,0,-1,1231,1261,0,0
14,-237,0,0,0,0,0,0,0,0,0,-1,1238,1261,0,0
21,-237,0,0,0,0,0,0,0,0,0,-1,1245,1261,0,0
28,-237,0,0,0,0,0,0,0,0,0,-1,1252,1261,0,0
35,-237,0,0,0,0,0,0,0,0,0,-1,1259,1261,0,0
42,-237,0,0,0,0,0,0,0,0,0,-1,1266,1261,0,0
49,-237,0,0,0,0,0,0,0,0,0,-1,1273,1261,0,0
56,-237,0,0,0,0,0,0,0,0,0,-1,1280,1261,0,0
63,-237,0,0,0,0,0,0,0,0,0,-1,1287,1261,0,0
70,-237,0,0,0,0,0,0,0,0,0,-1,1294,1261,0,0
77,-237,0,0,0,0,0,0,0,0,0,-1,1301,1261,0,0
84,-237,0,0,0,0,0,0,0,0,0,-1,1308,1261,0,0
91,-237,0,0,0,0,0,0,0,0,0,-1,1315,1261,0,0
98,-237,0,0,0,0,0,0,0,0,0,-1,1322,1261,0,0
105,-237,0,0,0,0,0,0,0,0,0,-1,1329,1261,0,0
112,-237,0,0,0,0,0,0,0,0,0,-1,1336,1261,0,0
119,-237,0,0,0,0,0,0,0,0,0,-1,1343,1261,0,0
126,-237,0,0,0,0,0,0,0,0,0,-1,1350,1261,0,0
133,-237,0,0,0,0,0,0,0,0,0,-1,1357,1261,0,0
140,-237,0,0,0,0,0,0,0,0,0,-1,1364,1261,0,0
147,-237,0,0,0,0,0,0,0,0,0,-1,1371,1261,0,0
154,-237,0,0,0,0,0,0,0,0,0,-1,1378,1261,0,0
161,-237,0,0,0,0,0,0,0,0,0,-1,1385,1261,0,0
168,-237,0,0,0,0,0,0,0,0,0,-1,1392,1261,0,0
175,-237,0,0,0,0,0,0,0,0,0,-1,1399,1261,0,0
182,-237,0,0,0,0,0,0,0,0,0,-1,1406,1261,0,0
189,-237,0,0,0,0,0,0,0,0,0,-1,1413,1261,0,0
196,-237,0,0,0,0,0,0,0,0,0,-1,1420,1261,0,0
203,-237,0,0,0,0,0,0,0,0,0,-1,1427,1261,0,0
210,-237,0,0,0,0,0,0,0,0,0,-1,1434,1261,0,0
217,-237,0,0,0,0,0,0,0,0,0,-1,1441,1261,0,0
224,-237,0,0,0,0,0,0,0,0,0,-1,1448,1261,0,0
231,-237,0,0,0,0,0,0,0,0,0,-1,1455,1261,0,0
238,-237,0,0,0,0,0,0,0,0,0,-1,1462,1261,0,0
245,-237,0,0,0,0,0,0,0,0,0,-1,1469,1261,0,0
252,-237,0,0,0,0,0,0,0,0,0,-1,1476,1261,0,0
259,-237,0,0,0,0,0,0,0,0,0,-1,1483,1261,0,0
266,-237,0,0,0,0,0,0,0,0,0,-1,1490,1261,0,0
273,-237,0,0,0,0,0,0,0,0,0,-1,1497,1261,0,0
280,-237,0,0,0,0,0,0,0,0,0,-1,1504,1261,0,0
287,-237,0,0,0,0,0,0,0,0,0,-1,1511,1261,0,0
294,-237,0,0,0,0,0,0,0,0,0,-1,1518,1261,0,0
301,-237,0,0,0,0,0,0,0,0,0,-1,1525,1261,0,0
308,-237,0,0,0,0,0,0,0,0,0,-1,1532,1261,0,0
315,-237,0,0,0,0,0,0,0,0,0,-1,1539,1261,0,0
322,-237,0,0,0,0,0,0,0,0,0,-1,1546,1261,0,0
329,-237,0,0,0,0,0,0,0,0,0,-1,1553,1261,0,0
336,-237,0,0,0,0,0,0,0,0,0,-1,1560,1261,0,0
343,-237,0,0,0,0,0,0,0,0,0,-1,1567,1261,0,0
350,-237,0,0,0,0,0,0,0,0,0,-1,1574,1261,0,0
357,-237,0,0,0,0,0,0,0,0,0,-1,1581,1261,0,0
364,-237,0,0,0,0,0,0,0,0,0,-1,1588,1261,0,0
371,-237,0,0,0,0,0,0,0,0,0,-1,1595,1261,0,0
378,-237,0,0,0,0,0,0,0,0,0,-1,1602,1261,0,0
385,-237,0,0,0,0,0,0,0,0,0,-1,1609,1261,0,0
392,-237,0,0,0,0,0,0,0,0,0,-1,1616,1261,0,0
399,-237,0,0,0,0,0,0,0,0,0,-1,1623,1261,0,0
406,-237,0,0,0,0,0,0,0,0,0,-1,1630,1261,0,0
413,-237,0,0,0,0,0,0,0,0,0,-1,1637,1261,0,0
420,-237,0,0,0,0,0,0,0,0,0,-1,1644,1261,0,0
427,-237,0,0,0,0,0,0,0,0,0,-1,1651,1261,0,0
434,-237,0,0,0,0,0,0,0,0,0,-1,1658,1261,0,0
441,-237,0,0,0,0,0,0,0,0,0,-1,1665,1261,0,0
448,-237,0,0,0,0,0,0,0,0,0,-1,1672,1261,0,0
455,-237,0,0,0,0,0,0,0,0,0,-1,1679,1261,0,0
462,-237,0,0,0,0,0,0,0,0,0,-1,1686,1261,0,0
469,-237,0,0,0,0,0,0,0,0,0,-1,1693,1261,0,0
476,-237,0,0,0,0,0,0,0,0,0,-1,1700,1261,0,0
483,-237,0,0,0,0,0,0,0,0,0,-1,1707,1261,0,0
490,-237,0,0,0,0,0,0,0,0,0,-1,1714,1261,0,0
497,-237,0,0,0,0,0,0,0,0,0,-1,1721,1261,0,0
504,-237,0,0,0,0,0,0,0,0,0,-1,1728,1261,0,0
511,-237,0,0,0,0,0,0,0,0,0,-1,1735,1261,0,0
518,-237,0,0,0,0,0,0,0,0,0,-1,1742,1261,0,0
525,-237,0,0,0,0,0,0,0,0,0,-1,1749,1261,0,0
532,-237,0,0,0,0,0,0,0,0,0,-1,1756,1261,0,0
539,-237,0,0,0,0,0,0,0,0,0,-1,1763,1261,0,0
546,-237,0,0,0,0,0,0,0,0,0,-1,1770,1261,0,0
553,-237,0,0,0,0,0,0,0,0,0,-1,1777,1261,0,0
560,-237,0,0,0,0,0,0,0,0,0,-1,1784,1261,0,0
567,-237,0,0,0,0,0,0,0,0,0,-1,1791,1261,0,0
574,-237,0,0,0,0,0,0,0,0,0,-1,1798,1261,0,0
581,-237,0,0,0,0,0,0,0,0,0,-1,1805,1261,0,0
588,-237,0,0,0,0,0,0,0,0,0,-1,1812,1261,0,0
595,-237,0,0,0,0,0,0,0,0,0,-1,1819,1261,0,0
602,-237,0,0,0,0,0,0,0,0,0,-1,1826,1261,0,0
609,-237,0,0,0,0,0,0,0,0,0,-1,1833,1261,0,0
616,-237,44.9246,2.68201,-0.00447378,0.00492338,-0.000695136,0.00497453,-0.00452492,-1.49736,0.00548656,0.0372216,1840,1261,44.9245,-2.68201
623,-237,44.9264,2.71619,0.000773738,0.00315688,-0.00149973,0.00388078,4.98388e-05,-1.12109,0.00257073,0.0319896,1847,1261,44.9264,-2.71618
630,-237,44.835,2.703,0.00538643,0.0017256,-0.00243689,0.00660377,0.000508255,-0.463286,0.00424326,0.0267297,1854,1261,44.835,-2.70304
637,-237,44.8125,2.6145,0.00817696,0.000711014,-0.0031275,0.00931393,-0.000425955,-0.348685,0.00635603,0.0221239,1861,1261,44.8125,-2.61449
644,-237,44.8402,2.53711,0.00792451,0.000139824,-0.00269298,0.0087653,-0.000700958,-0.302623,0.00609064,0.0418713,1868,1261,44.8402,-2.53707
651,-237,44.9224,2.46301,0,0,0,0,0,0,0,-1,1875,1261,44.9224,-2.46307
658,-237,44.1733,3.74915,0,0,0,0,0,0,0,-1,1882,1261,44.1734,-3.74916
665,-237,44.104,4.79102,0,0,0,0,0,0,0,-1,1889,1261,44.104,-4.79105
672,-237,44.1165,5.77795,0,0,0,0,0,0,0,-1,1896,1261,44.1164,-5.778
679,-237,23.1501,7.37488,0,0,0,0,0,0,0,-1,1903,1261,23.1502,-7.37493
686,-237,34.5033,9.34766,0,0,0,0,0,0,0,-1,1910,1261,34.5033,-9.34769
693,-237,34.5608,8.93237,0.00332807,-0.000583704,-0.000408786,0.00337033,-0.000625966,-0.103019,0.002482,0.0490976,1917,1261,34.5608,-8.93237
700,-237,34.6918,8.56152,0.00295438,-0.000817402,1.2509e-06,0.00295438,-0.000817403,0.000331648,0.00229118,0.0130459,1924,1261,34.6917,-8.56147
707,-237,34.693,8.13171,0.00207301,-0.00078619,0.000368721,0.00211979,-0.000832975,0.126209,0.00175792,0.0110325,1931,1261,34.693,-8.1317
714,-237,34.6647,7.703,0.00114512,-0.0006298,0.000619381,0.00133989,-0.000824569,0.304667,0.0012614,0.0145774,1938,1261,34.6647,-7.703
721,-237,34.6226,7.31421,0.000858715,-0.000196472,0.000642276,0.00116231,-0.000500067,0.441558,0.000984832,0.0158609,1945,1261,34.6225,-7.3142
728,-237,34.6628,6.91077,0.00103167,0.00029837,0.000474625,0.00126477,6.52691e-05,0.456524,0.000822288,0.0155077,1952,1261,34.6628,-6.91077
735,-237,34.653,6.50269,0.00190469,0.000981243,3.21838e-05,0.00190581,0.000980122,0.0347957,0.00110047,0.0204299,1959,1261,34.6529,-6.50267
742,-237,34.6227,6.11719,0.00354359,0.00183758,-0.000729612,0.00381306,0.00156811,-0.353794,0.002213,0.015342,1966,1261,34.6227,-6.11715
749,-237,34.5886,5.72571,0.006227,0.00292146,-0.00186555,0.00706661,0.00208186,-0.422902,0.00419309,0.0102088,1973,1261,34.5886,-5.72566
756,-237,34.5665,5.32483,0.0105454,0.00444822,-0.00379255,0.0123628,0.00263088,-0.446858,0.00751989,0.0167419,1980,1261,34.5665,-5.32489
763,-237,34.4985,4.72546,0.0170978,0.00647171,-0.00671149,0.0203447,0.00322481,-0.450589,0.0126262,0.033548,1987,1261,34.4986,-4.72548
770,-237,34.9619,3.7301,0.0264727,0.00925036,-0.0107234,0.0316145,0.00410856,-0.447107,0.0198491,0.0428058,1994,1261,34.9619,-3.7301
777,-237,35.4331,2.75403,0,0,0,0,0,0,0,-1,2001,1261,35.4331,-2.75402
784,-237,36.3441,1.68591,0,0,0,0,0,0,0,-1,2008,1261,36.3441,-1.68592
791,-237,32.3025,6.03235,0,0,0,0,0,0,0,-1,2015,1261,32.3025,-6.03229
798,-237,0,0,0,0,0,0,0,0,0,-1,2022,1261,0,0
805,-237,0,0,0,0,0,0,0,0,0,-1,2029,1261,0,0
812,-237,0,0,0,0,0,0,0,0,0,-1,2036,1261,0,0
-700,-244,0,0,0,0,0,0,0,0,0,-1,524,1268,0,0
-693,-244,0,0,0,0,0,0,0,0,0,-1,531,1268,0,0
-686,-244,0,0,0,0,0,0,0,0,0,-1,538,1268,0,0
-679,-244,0,0,0,0,0,0,0,0,0,-1,545,1268,0,0
-672,-244,-29.0622,-13.5513,0,0,0,0,0,0,0,-1,552,1268,-29.0622,13.5513
-665,-244,-23.669,1.3938,0,0,0,0,0,0,0,-1,559,1268,-23.669,-1.39374
-658,-244,-23.6096,2.91895,0,0,0,0,0,0,0,-1,566,1268,-23.6096,-2.91896
-651,-244,-23.5394,4.41724,0,0,0,0,0,0,0,-1,573,1268,-23.5394,-4.41721
-644,-244,-20.4261,0.428345,0,0,0,0,0,0,0,-1,580,1268,-20.4261,-0.428352
-637,-244,-21.4786,1.81677,0,0,0,0,0,0,0,-1,587,1268,-21.4786,-1.81682
-630,-244,-22.3339,2.13672,0,0,0,0,0,0,0,-1,594,1268,-22.3338,-2.13672
-623,-244,-21.878,2.63159,0.0187564,0.0213551,0.00363768,0.0239186,0.016193,0.956932,0.0140949,0.0359592,601,1268,-21.878,-2.63164
-616,-244,-21.5535,3.10193,0.0132277,0.0105451,0.00235751,0.0145988,0.00917407,0.526762,0.00852078,0.0166844,608,1268,-21.5535,-3.10194
-609,-244,-21.5734,3.55762,0.00904698,0.00463478,0.00134018,0.00942215,0.0042596,0.272954,0.0054482,0.0148722,615,1268,-21.5734,-3.5576
-602,-244,-21.5889,4.00598,0.00624922,0.00150975,0.000815176,0.00638551,0.00137347,0.165658,0.00388105,0.0150706,622,1268,-21.5889,-4.00593
-595,-244,-21.6606,4.48157,0.00484091,0.000755552,0.000817663,0.00499848,0.000597979,0.190378,0.00315196,0.0159023,629,1268,-21.6607,-4.48158
-588,-244,-21.6567,4.89807,0.00441688,-4.81084e-06,0.00101656,0.00463939,-0.000227321,0.215488,0.00317142,0.0208903,636,1268,-21.6567,-4.89801
-581,-244,-21.6412,5.35437,0.00449771,-0.000550904,0.00129013,0.00480829,-0.000861478,0.236236,0.00352792,0.0180678,643,1268,-21.6412,-5.35431
-574,-244,-21.6501,5.84692,0.00478705,-0.00098545,0.00143279,0.00512312,-0.00132152,0.23039,0.00393068,0.0130553,650,1268,-21.6502,-5.84688
-567,-244,-21.6312,6.33423,0.00455475,-0.000748337,0.00115183,0.00479412,-0.000987711,0.204903,0.00357114,0.0135409,657,1268,-21.6312,-6.33423
-560,-244,-21.5559,6.78467,0.00364292,-0.00036415,0.000953741,0.00385835,-0.000579573,0.222144,0.00278559,0.0356454,664,1268,-21.5559,-6.78471
-553,-244,-21.4326,7.2489,0,0,0,0,0,0,0,-1,671,1268,-21.4325,-7.24885
-546,-244,-11.2686,4.41772,0,0,0,0,0,0,0,-1,678,1268,-11.2686,-4.41767
-539,-244,-12.8706,0.3302,0,0,0,0,0,0,0,-1,685,1268,-12.8706,-0.330156
-532,-244,-18.1502,0.816528,0,0,0,0,0,0,0,-1,692,1268,-18.1502,-0.816514
-525,-244,-31.8924,0.281982,0,0,0,0,0,0,0,-1,699,1268,-31.8924,-0.281933
-518,-244,-32.1387,0.416992,0,0,0,0,0,0,0,-1,706,1268,-32.1387,-0.416943
-511,-244,-32.8305,0.752441,0,0,0,0,0,0,0,-1,713,1268,-32.8305,-0.752461
-504,-244,-32.9797,0.800781,0,0,0,0,0,0,0,-1,720,1268,-32.9798,-0.800809
-497,-244,-33.0258,1.07349,0,0,0,0,0,0,0,-1,727,1268,-33.0258,-1.07348
-490,-244,0,0,0,0,0,0,0,0,0,-1,734,1268,0,0
-483,-244,0,0,0,0,0,0,0,0,0,-1,741,1268,0,0
-476,-244,0,0,0,0,0,0,0,0,0,-1,748,1268,0,0
-469,-244,0,0,0,0,0,0,0,0,0,-1,755,1268,0,0
-462,-244,0,0,0,0,0,0,0,0,0,-1,762,1268,0,0
-455,-244,0,0,0,0,0,0,0,0,0,-1,769,1268,0,0
-448,-244,0,0,0,0,0,0,0,0,0,-1,776,1268,0,0
-441,-244,0,0,0,0,0,0,0,0,0,-1,783,1268,0,0
-434,-244,0,0,0,0,0,0,0,0,0,-1,790,1268,0,0
-427,-244,0,0,0,0,0,0,0,0,0,-1,797,1268,0,0
-420,-244,0,0,0,0,0,0,0,0,0,-1,804,1268,0,0
-413,-244,0,0,0,0,0,0,0,0,0,-1,811,1268,0,0
-406,-244,0,0,0,0,0,0,0,0,0,-1,818,1268,0,0
-399,-244,0,0,0,0,0,0,0,0,0,-1,825,1268,0,0
-392,-244,0,0,0,0,0,0,0,0,0,-1,832,1268,0,0
-385,-244,0,0,0,0,0,0,0,0,0,-1,839,1268,0,0
-378,-244,0,0,0,0,0,0,0,0,0,-1,846,1268,0,0
-371,-244,0,0,0,0,0,0,0,0,0,-1,853,1268,0,0
-364,-244,0,0,0,0,0,0,0,0,0,-1,860,1268,0,0
-357,-244,0,0,0,0,0,0,0,0,0,-1,867,1268,0,0
-350,-244,0,0,0,0,0,0,0,0,0,-1,874,1268,0,0
-343,-244,0,0,0,0,0,0,0,0,0,-1,881,1268,0,0
-336,-244,0,0,0,0,0,0,0,0,0,-1,888,1268,0,0
-329,-244,0,0,0,0,0,0,0,0,0,-1,895,1268,0,0
-322,-244,0,0,0,0,0,0,0,0,0,-1,902,1268,0,0
-315,-244,0,0,0,0,0,0,0,0,0,-1,909,1268,0,0
-308,-244,0,0,0,0,0,0,0,0,0,-1,916,1268,0,0
-301,-244,0,0,0,0,0,0,0,0,0,-1,923,1268,0,0
-294,-244,0,0,0,0,0,0,0,0,0,-1,930,1268,0,0
-287,-244,0,0,0,0,0,0,0,0,0,-1,937,1268,0,0
-280,-244,0,0,0,0,0,0,0,0,0,-1,944,1268,0,0
-273,-244,0,0,0,0,0,0,0,0,0,-1,951,1268,0,0
-266,-244,0,0,0,0,0,0,0,0,0,-1,958,1268,0,0
-259,-244,0,0,0,0,0,0,0,0,0,-1,965,1268,0,0
-252,-244,0,0,0,0,0,0,0,0,0,-1,972,1268,0,0
-245,-244,0,0,0,0,0,0,0,0,0,-1,979,1268,0,0
-238,-244,0,0,0,0,0,0,0,0,0,-1,986,1268,0,0
-231,-244,0,0,0,0,0,0,0,0,0,-1,993,1268,0,0
-224,-244,0,0,0,0,0,0,0,0,0,-1,1000,1268,0,0
-217,-244,0,0,0,0,0,0,0,0,0,-1,1007,1268,0,0
-210,-244,0,0,0,0,0,0,0,0,0,-1,1014,1268,0,0
-203,-244,0,0,0,0,0,0,0,0,0,-1,1021,1268,0,0
-196,-244,0,0,0,0,0,0,0,0,0,-1,1028,1268,0,0
-189,-244,0,0,0,0,0,0,0,0,0,-1,1035,1268,0,0
-182,-244,0,0,0,0,0,0,0,0,0,-1,1042,1268,0,0
-175,-244,0,0,0,0,0,0,0,0,0,-1,1049,1268,0,0
-168,-244,0,0,0,0,0,0,0,0,0,-1,1056,1268,0,0
-161,-244,0,0,0,0,0,0,0,0,0,-1,1063,1268,0,0
-154,-244,0,0,0,0,0,0,0,0,0,-1,1070,1268,0,0
-147,-244,0,0,0,0,0,0,0,0,0,-1,1077,1268,0,0
-140,-244,0,0,0,0,0,0,0,0,0,-1,1084,1268,0,0
-133,-244,0,0,0,0,0,0,0,0,0,-1,1091,1268,0,0
-126,-244,0,0,0,0,0,0,0,0,0,-1,1098,1268,0,0
-119,-244,0,0,0,0,0,0,0,0,0,-1,1105,1268,0,0
-112,-244,0,0,0,0,0,0,0,0,0,-1,1112,1268,0,0
-105,-244,0,0,0,0,0,0,0,0,0,-1,1119,1268,0,0
-98,-244,0,0,0,0,0,0,0,0,0,-1,1126,1268,0,0
-91,-244,0,0,0,0,0,0,0,0,0,-1,1133,1268,0,0
-84,-244,0,0,0,0,0,0,0,0,0,-1,1140,1268,0,0
-77,-244,0,0,0,0,0,0,0,0,0,-1,1147,1268,0,0
-70,-244,0,0,0,0,0,0,0,0,0,-1,1154,1268,0,0
-63,-244,0,0,0,0,0,0,0,0,0,-1,1161,1268,0,0
-56,-244,0,0,0,0,0,0,0,0,0,-1,1168,1268,0,0
-49,-244,0,0,0,0,0,0,0,0,0,-1,1175,1268,0,0
-42,-244,0,0,0,0,0,0,0,0,0,-1,1182,1268,0,0
-35,-244,0,0,0,0,0,0,0,0,0,-1,1189,1268,0,0
-28,-244,0,0,0,0,0,0,0,0,0,-1,1196,1268,0,0
-21,-244,0,0,0,0,0,0,0,0,0,-1,1203,1268,0,0
-14,-244,0,0,0,0,0,0,0,0,0,-1,1210,1268,0,0
-7,-244,0,0,0,0,0,0,0,0,0,-1,1217,1268,0,0
0,-244,0,0,0,0,0,0,0,0,0,-1,1224,1268,0,0
7,-244,0,0,0,0,0,0,0,0,0,-1,1231,1268,0,0
14,-244,0,0,0,0,0,0,0,0,0,-1,1238,1268,0,0
21,-244,0,0,0,0,0,0,0,0,0,-1,1245,1268,0,0
28,-244,0,0,0,0,0,0,0,0,0,-1,1252,1268,0,0
35,-244,0,0,0,0,0,0,0,0,0,-1,1259,1268,0,0
42,-244,0,0,0,0,0,0,0,0,0,-1,1266,1268,0,0
49,-244,0,0,0,0,0,0,0,0,0,-1,1273,1268,0,0
56,-244,0,0,0,0,0,0,0,0,0,-1,1280,1268,0,0
63,-244,0,0,0,0,0,0,0,0,0,-1,1287,1268,0,0
70,-244,0,0,0,0,0,0,0,0,0,-1,1294,1268,0,0
77,-244,0,0,0,0,0,0,0,0,0,-1,1301,1268,0,0
84,-244,0,0,0,0,0,0,0,0,0,-1,1308,1268,0,0
91,-244,0,0,0,0,0,0,0,0,0,-1,1315,1268,0,0
98,-244,0,0,0,0,0,0,0,0,0,-1,1322,1268,0,0
105,-244,0,0,0,0,0,0,0,0,0,-1,1329,1268,0,0
112,-244,0,0,0,0,0,0,0,0,0,-1,1336,1268,0,0
119,-244,0,0,0,0,0,0,0,0,0,-1,1343,1268,0,0
126,-244,0,0,0,0,0,0,0,0,0,-1,1350,1268,0,0
133,-244,0,0,0,0,0,0,0,0,0,-1,1357,1268,0,0
140,-244,0,0,0,0,0,0,0,0,0,-1,1364,1268,0,0
147,-244,0,0,0,0,0,0,0,0,0,-1,1371,1268,0,0
154,-244,0,0,0,0,0,0,0,0,0,-1,1378,1268,0,0
161,-244,0,0,0,0,0,0,0,0,0,-1,1385,1268,0,0
168,-244,0,0,0,0,0,0,0,0,0,-1,1392,1268,0,0
175,-244,0,0,0,0,0,0,0,0,0,-1,1399,1268,0,0
182,-244,0,0,0,0,0,0,0,0,0,-1,1406,1268,0,0
189,-244,0,0,0,0,0,0,0,0,0,-1,1413,1268,0,0
196,-244,0,0,0,0,0,0,0,0,0,-1,1420,1268,0,0
203,-244,0,0,0,0,0,0,0,0,0,-1,1427,1268,0,0
210,-244,0,0,0,0,0,0,0,0,0,-1,1434,1268,0,0
217,-244,0,0,0,0,0,0,0,0,0,-1,1441,1268,0,0
224,-244,0,0,0,0,0,0,0,0,0,-1,1448,1268,0,0
231,-244,0,0,0,0,0,0,0,0,0,-1,1455,1268,0,0
238,-244,0,0,0,0,0,0,0,0,0,-1,1462,1268,0,0
245,-244,0,0,0,0,0,0,0,0,0,-1,1469,1268,0,0
252,-244,0,0,0,0,0,0,0,0,0,-1,1476,1268,0,0
259,-244,0,0,0,0,0,0,0,0,0,-1,1483,1268,0,0
266,-244,0,0,0,0,0,0,0,0,0,-1,1490,1268,0,0
273,-244,0,0,0,0,0,0,0,0,0,-1,1497,1268,0,0
280,-244,0,0,0,0,0,0,0,0,0,-1,1504,1268,0,0
287,-244,0,0,0,0,0,0,0,0,0,-1,1511,1268,0,0
294,-244,0,0,0,0,0,0,0,0,0,-1,1518,1268,0,0
301,-244,0,0,0,0,0,0,0,0,0,-1,1525,1268,0,0
308,-244,0,0,0,0,0,0,0,0,0,-1,1532,1268,0,0
315,-244,0,0,0,0,0,0,0,0,0,-1,1539,1268,0,0
322,-244,0,0,0,0,0,0,0,0,0,-1,1546,1268,0,0
329,-244,0,0,0,0,0,0,0,0,0,-1,1553,1268,0,0
336,-244,0,0,0,0,0,0,0,0,0,-1,1560,1268,0,0
343,-244,0,0,0,0,0,0,0,0,0,-1,1567,1268,0,0
350,-244,0,0,0,0,0,0,0,0,0,-1,1574,1268,0,0
357,-244,0,0,0,0,0,0,0,0,0,-1,1581,1268,0,0
364,-244,0,0,0,0,0,0,0,0,0,-1,1588,1268,0,0
371,-244,0,0,0,0,0,0,0,0,0,-1,1595,1268,0,0
378,-244,0,0,0,0,0,0,0,0,0,-1,1602,1268,0,0
385,-244,0,0,0,0,0,0,0,0,0,-1,1609,1268,0,0
392,-244,0,0,0,0,0,0,0,0,0,-1,1616,1268,0,0
399,-244,0,0,0,0,0,0,0,0,0,-1,1623,1268,0,0
406,-244,0,0,0,0,0,0,0,0,0,-1,1630,1268,0,0
413,-244,0,0,0,0,0,0,0,0,0,-1,1637,1268,0,0
420,-244,0,0,0,0,0,0,0,0,0,-1,1644,1268,0,0
427,-244,0,0,0,0,0,0,0,0,0,-1,1651,1268,0,0
434,-244,0,0,0,0,0,0,0,0,0,-1,1658,1268,0,0
441,-244,0,0,0,0,0,0,0,0,0,-1,1665,1268,0,0
448,-244,0,0,0,0,0,0,0,0,0,-1,1672,1268,0,0
455,-244,0,0,0,0,0,0,0,0,0,-1,1679,1268,0,0
462,-244,0,0,0,0,0,0,0,0,0,-1,1686,1268,0,0
469,-244,0,0,0,0,0,0,0,0,0,-1,1693,1268,0,0
476,-244,0,0,0,0,0,0,0,0,0,-1,1700,1268,0,0
483,-244,0,0,0,0,0,0,0,0,0,-1,1707,1268,0,0
490,-244,0,0,0,0,0,0,0,0,0,-1,1714,1268,0,0
497,-244,0,0,0,0,0,0,0,0,0,-1,1721,1268,0,0
504,-244,0,0,0,0,0,0,0,0,0,-1,1728,1268,0,0
511,-244,0,0,0,0,0,0,0,0,0,-1,1735,1268,0,0
518,-244,0,0,0,0,0,0,0,0,0,-1,1742,1268,0,0
525,-244,0,0,0,0,0,0,0,0,0,-1,1749,1268,0,0
532,-244,0,0,0,0,0,0,0,0,0,-1,1756,1268,0,0
539,-244,0,0,0,0,0,0,0,0,0,-1,1763,1268,0,0
546,-244,0,0,0,0,0,0,0,0,0,-1,1770,1268,0,0
553,-244,0,0,0,0,0,0,0,0,0,-1,1777,1268,0,0
560,-244,0,0,0,0,0,0,0,0,0,-1,1784,1268,0,0
567,-244,0,0,0,0,0,0,0,0,0,-1,1791,1268,0,0
574,-244,0,0,0,0,0,0,0,0,0,-1,1798,1268,0,0
581,-244,0,0,0,0,0,0,0,0,0,-1,1805,1268,0,0
588,-244,0,0,0,0,0,0,0,0,0,-1,1812,1268,0,0
595,-244,0,0,0,0,0,0,0,0,0,-1,1819,1268,0,0
602,-244,0,0,0,0,0,0,0,0,0,-1,1826,1268,0,0
609,-244,0,0,0,0,0,0,0,0,0,-1,1833,1268,0,0
616,-244,44.8942,2.51501,-0.00300665,0.00583936,-0.00142409,0.00606297,-0.00323025,-1.41505,0.0054479,0.0318735,1840,1268,44.8941,-2.51506
623,-244,44.9181,2.63928,0.0035511,0.00362333,-0.00210612,0.00569365,0.00148079,-0.793971,0.00341104,0.0254316,1847,1268,44.9181,-2.63929
630,-244,44.8619,2.67505,0.00845987,0.00179214,-0.00290015,0.00954478,0.000707236,-0.357969,0.00614103,0.024457,1854,1268,44.862,-2.67503
637,-244,44.8739,2.62476,0.0100919,0.000673017,-0.00328388,0.0111237,-0.00035886,-0.304456,0.00753829,0.0400956,1861,1268,44.8739,-2.6248
644,-244,44.9178,2.54114,0.00898718,0.000153009,-0.002759,0.00977804,-0.000637853,-0.279163,0.00674138,0.0458527,1868,1268,44.9179,-2.54115
651,-244,44.9032,2.40295,0,0,0,0,0,0,0,-1,1875,1268,44.9032,-2.4029
658,-244,44.9009,2.27881,0,0,0,0,0,0,0,-1,1882,1268,44.9008,-2.27877
665,-244,44.809,3.75134,0,0,0,0,0,0,0,-1,1889,1268,44.809,-3.75139
672,-244,32.224,3.6123,0,0,0,0,0,0,0,-1,1896,1268,32.224,-3.6123
679,-244,27.2593,7.90649,0,0,0,0,0,0,0,-1,1903,1268,27.2592,-7.9065
686,-244,34.2333,9.61243,0,0,0,0,0,0,0,-1,1910,1268,34.2333,-9.61248
693,-244,34.2279,9.0929,0.00314552,-0.000603447,-0.000553572,0.00322555,-0.000683479,-0.143579,0.00241071,0.0252349,1917,1268,34.228,-9.09293
700,-244,34.2605,8.57983,0.00276261,-0.000778667,-0.000153284,0.00276923,-0.000785289,-0.0431773,0.00215613,0.00938628,1924,1268,34.2605,-8.57987
707,-244,34.2769,8.15906,0.00183113,-0.000643183,0.000208279,0.00184854,-0.000660593,0.0833946,0.00150179,0.011219,1931,1268,34.2768,-8.15904
714,-244,34.2996,7.71802,0.000883456,-0.000444315,0.000470141,0.00103307,-0.000593926,0.308093,0.000950682,0.0129073,1938,1268,34.2996,-7.71799
721,-244,34.2356,7.3208,0.000648308,-5.16565e-07,0.000467093,0.000892595,-0.000244804,0.481874,0.000691268,0.0162776,1945,1268,34.2356,-7.32083
728,-244,34.2325,6.9021,0.000811495,0.000473096,0.000304785,0.000990895,0.000293695,0.532006,0.000587692,0.0215187,1952,1268,34.2326,-6.90212
735,-244,34.214,6.43359,0.0016164,0.00108936,-0.000114221,0.00164009,0.00106567,-0.204499,0.000960961,0.025308,1959,1268,34.2139,-6.43356
742,-244,34.1725,6.13318,0.00319844,0.00188613,-0.000884049,0.00364323,0.00144134,-0.466147,0.00211864,0.0171455,1966,1268,34.1724,-6.1332
749,-244,34.0684,5.82568,0.00594066,0.00291429,-0.00208624,0.00700471,0.00185024,-0.471641,0.00419147,0.0244714,1973,1268,34.0684,-5.82573
756,-244,33.8998,5.53162,0.0104913,0.00442453,-0.00423317,0.0126657,0.00225012,-0.474517,0.00780267,0.0316316,1980,1268,33.8998,-5.53158
763,-244,34.0464,4.74463,0.0174576,0.00647364,-0.00756611,0.0213148,0.0026164,-0.471461,0.013423,0.0439488,1987,1268,34.0464,-4.74466
770,-244,34.4805,3.81653,0.0276718,0.00930662,-0.0122978,0.033837,0.00314139,-0.46471,0.0215872,0.04984,1994,1268,34.4805,-3.81657
777,-244,34.8073,2.93054,0,0,0,0,0,0,0,-1,2001,1268,34.8073,-2.93058
784,-244,31.7908,5.20081,0,0,0,0,0,0,0,-1,2008,1268,31.7907,-5.20083
791,-244,0,0,0,0,0,0,0,0,0,-1,2015,1268,0,0
798,-244,0,0,0,0,0,0,0,0,0,-1,2022,1268,0,0
805,-244,0,0,0,0,0,0,0,0,0,-1,2029,1268,0,0
812,-244,0,0,0,0,0,0,0,0,0,-1,2036,1268,0,0
-700,-251,0,0,0,0,0,0,0,0,0,-1,524,1275,0,0
-693,-251,0,0,0,0,0,0,0,0,0,-1,531,1275,0,0
-686,-251,0,0,0,0,0,0,0,0,0,-1,538,1275,0,0
-679,-251,0,0,0,0,0,0,0,0,0,-1,545,1275,0,0
-672,-251,0,0,0,0,0,0,0,0,0,-1,552,1275,0,0
-665,-251,-20.993,4.27515,0,0,0,0,0,0,0,-1,559,1275,-20.993,-4.2752
-658,-251,-23.7194,2.79553,0,0,0,0,0,0,0,-1,566,1275,-23.7194,-2.79554
-651,-251,-20.6763,-0.483032,0,0,0,0,0,0,0,-1,573,1275,-20.6763,0.483012
-644,-251,-20.5963,0.301636,0,0,0,0,0,0,0,-1,580,1275,-20.5963,-0.30168
-637,-251,-21.1573,1.49084,0,0,0,0,0,0,0,-1,587,1275,-21.1573,-1.49086
-630,-251,-21.206,2.13306,0,0,0,0,0,0,0,-1,594,1275,-21.206,-2.13301
-623,-251,-21.1761,2.61792,0.0191217,0.0200495,0.00305497,0.0226756,0.0164956,0.860751,0.0135358,0.0402163,601,1275,-21.1761,-2.61794
-616,-251,-21.088,3.08386,0.0133924,0.00950524,0.00192683,0.0141856,0.008712,0.390537,0.0082609,0.0198015,608,1275,-21.088,-3.08385
-609,-251,-21.1126,3.54919,0.00914082,0.00416594,0.00109423,0.00937085,0.0039359,0.207212,0.00543329,0.0186872,615,1275,-21.1126,-3.54916
-602,-251,-21.1274,4.02734,0.00640043,0.00155005,0.000710757,0.00650244,0.00144805,0.142545,0.00394195,0.0151356,622,1275,-21.1275,-4.02735
-595,-251,-21.1808,4.4845,0.00486968,0.000973468,0.000790428,0.00502393,0.00081922,0.192723,0.00311236,0.0136494,629,1275,-21.1808,-4.48448
-588,-251,-21.1925,4.91504,0.00419705,0.000321951,0.00099767,0.00443882,8.01783e-05,0.237754,0.00293285,0.0151394,636,1275,-21.1925,-4.9151
-581,-251,-21.1726,5.38611,0.00412285,-0.000361927,0.00123512,0.0044405,-0.000679584,0.251731,0.00321093,0.0141247,643,1275,-21.1726,-5.38609
-574,-251,-21.167,5.89465,0.00440571,-0.000957638,0.00140702,0.00475241,-0.00130434,0.241597,0.00368091,0.0127996,650,1275,-21.167,-5.8946
-567,-251,-21.1785,6.36719,0.00434976,-0.000904853,0.00118934,0.00460642,-0.00116151,0.212542,0.00352254,0.0122498,657,1275,-21.1785,-6.36724
-560,-251,-21.1259,6.92798,0.00358735,-0.000488643,0.00101454,0.00382591,-0.000727207,0.230949,0.00282439,0.0322853,664,1275,-21.1258,-6.92793
-553,-251,-20.9741,7.44336,0,0,0,0,0,0,0,-1,671,1275,-20.974,-7.44339
-546,-251,-12.995,4.5675,0,0,0,0,0,0,0,-1,678,1275,-12.995,-4.56745
-539,-251,-10.7916,0.366333,0,0,0,0,0,0,0,-1,685,1275,-10.7916,-0.366282
-532,-251,-10.7391,-0.00769043,0,0,0,0,0,0,0,-1,692,1275,-10.7391,0.00773227
-525,-251,-29.4286,-0.250244,0,0,0,0,0,0,0,-1,699,1275,-29.4286,0.250266
-518,-251,-31.7877,0.479492,0,0,0,0,0,0,0,-1,706,1275,-31.7876,-0.479481
-511,-251,-29.4731,0.637085,0,0,0,0,0,0,0,-1,713,1275,-29.4731,-0.637025
-504,-251,-30.6428,0.792358,0,0,0,0,0,0,0,-1,720,1275,-30.6427,-0.792335
-497,-251,-32.9707,0.863159,0,0,0,0,0,0,0,-1,727,1275,-32.9707,-0.863213
-490,-251,0,0,0,0,0,0,0,0,0,-1,734,1275,0,0
-483,-251,0,0,0,0,0,0,0,0,0,-1,741,1275,0,0
-476,-251,0,0,0,0,0,0,0,0,0,-1,748,1275,0,0
-469,-251,0,0,0,0,0,0,0,0,0,-1,755,1275,0,0
-462,-251,0,0,0,0,0,0,0,0,0,-1,762,1275,0,0
-455,-251,0,0,0,0,0,0,0,0,0,-1,769,1275,0,0
-448,-251,0,0,0,0,0,0,0,0,0,-1,776,1275,0,0
-441,-251,0,0,0,0,0,0,0,0,0,-1,783,1275,0,0
-434,-251,0,0,0,0,0,0,0,0,0,-1,790,1275,0,0
-427,-251,0,0,0,0,0,0,0,0,0,-1,797,1275,0,0
-420,-251,0,0,0,0,0,0,0,0,0,-1,804,1275,0,0
-413,-251,0,0,0,0,0,0,0,0,0,-1,811,1275,0,0
-406,-251,0,0,0,0,0,0,0,0,0,-1,818,1275,0,0
-399,-251,0,0,0,0,0,0,0,0,0,-1,825,1275,0,0
-392,-251,0,0,0,0,0,0,0,0,0,-1,832,1275,0,0
-385,-251,0,0,0,0,0,0,0,0,0,-1,839,1275,0,0
-378,-251,0,0,0,0,0,0,0,0,0,-1,846,1275,0,0
-371,-251,0,0,0,0,0,0,0,0,0,-1,853,1275,0,0
-364,-251,0,0,0,0,0,0,0,0,0,-1,860,1275,0,0
-357,-251,0,0,0,0,0,0,0,0,0,-1,867,1275,0,0
-350,-251,0,0,0,0,0,0,0,0,0,-1,874,1275,0,0
-343,-251,0,0,0,0,0,0,0,0,0,-1,881,1275,0,0
-336,-251,0,0,0,0,0,0,0,0,0,-1,888,1275,0,0
-329,-251,0,0,0,0,0,0,0,0,0,-1,895,1275,0,0
-322,-251,0,0,0,0,0,0,0,0,0,-1,902,1275,0,0
-315,-251,0,0,0,0,0,0,0,0,0,-1,909,1275,0,0
-308,-251,0,0,0,0,0,0,0,0,0,-1,916,1275,0,0
-301,-251,0,0,0,0,0,0,0,0,0,-1,923,1275,0,0
-294,-251,0,0,0,0,0,0,0,0,0,-1,930,1275,0,0
-287,-251,0,0,0,0,0,0,0,0,0,-1,937,1275,0,0
-280,-251,0,0,0,0,0,0,0,0,0,-1,944,1275,0,0
-273,-251,0,0,0,0,0,0,0,0,0,-1,951,1275,0,0
-266,-251,0,0,0,0,0,0,0,0,0,-1,958,1275,0,0
-259,-251,0,0,0,0,0,0,0,0,0,-1,965,1275,0,0
-252,-251,0,0,0,0,0,0,0,0,0,-1,972,1275,0,0
-245,-251,0,0,0,0,0,0,0,0,0,-1,979,1275,0,0
-238,-251,0,0,0,0,0,0,0,0,0,-1,986,1275,0,0
-231,-251,0,0,0,0,0,0,0,0,0,-1,993,1275,0,0
-224,-251,0,0,0,0,0,0,0,0,0,-1,1000,1275,0,0
-217,-251,0,0,0,0,0,0,0,0,0,-1,1007,1275,0,0
-210,-251,0,0,0,0,0,0,0,0,0,-1,1014,1275,0,0
-203,-251,0,0,0,0,0,0,0,0,0,-1,1021,1275,0,0
-196,-251,0,0,0,0,0,0,0,0,0,-1,1028,1275,0,0
-189,-251,0,0,0,0,0,0,0,0,0,-1,1035,1275,0,0
-182,-251,0,0,0,0,0,0,0,0,0,-1,1042,1275,0,0
-175,-251,0,0,0,0,0,0,0,0,0,-1,1049,1275,0,0
-168,-251,0,0,0,0,0,0,0,0,0,-1,1056,1275,0,0
-161,-251,0,0,0,0,0,0,0,0,0,-1,1063,1275,0,0
-154,-251,0,0,0,0,0,0,0,0,0,-1,1070,1275,0,0
-147,-251,0,0,0,0,0,0,0,0,0,-1,1077,1275,0,0
-140,-251,0,0,0,0,0,0,0,0,0,-1,1084,1275,0,0
-133,-251,0,0,0,0,0,0,0,0,0,-1,1091,1275,0,0
-126,-251,0,0,0,0,0,0,0,0,0,-1,1098,1275,0,0
-119,-251,0,0,0,0,0,0,0,0,0,-1,1105,1275,0,0
-112,-251,0,0,0,0,0,0,0,0,0,-1,1112,1275,0,0
-105,-251,0,0,0,0,0,0,0,0,0,-1,1119,1275,0,0
-98,-251,0,0,0,0,0,0,0,0,0,-1,1126,1275,0,0
-91,-251,0,0,0,0,0,0,0,0,0,-1,1133,1275,0,0
-84,-251,0,0,0,0,0,0,0,0,0,-1,1140,1275,0,0
-77,-251,0,0,0,0,0,0,0,0,0,-1,1147,1275,0,0
-70,-251,0,0,0,0,0,0,0,0,0,-1,1154,1275,0,0
-63,-251,0,0,0,0,0,0,0,0,0,-1,1161,1275,0,0
-56,-251,0,0,0,0,0,0,0,0,0,-1,1168,1275,0,0
-49,-251,0,0,0,0,0,0,0,0,0,-1,1175,1275,0,0
-42,-251,0,0,0,0,0,0,0,0,0,-1,1182,1275,0,0
-35,-251,0,0,0,0,0,0,0,0,0,-1,1189,1275,0,0
-28,-251,0,0,0,0,0,0,0,0,0,-1,1196,1275,0,0
-21,-251,0,0,0,0,0,0,0,0,0,-1,1203,1275,0,0
-14,-251,0,0,0,0,0,0,0,0,0,-1,1210,1275,0,0
-7,-251,0,0,0,0,0,0,0,0,0,-1,1217,1275,0,0
0,-251,0,0,0,0,0,0,0,0,0,-1,1224,1275,0,0
7,-251,0,0,0,0,0,0,0,0,0,-1,1231,1275,0,0
14,-251,0,0,0,0,0,0,0,0,0,-1,1238,1275,0,0
21,-251,0,0,0,0,0,0,0,0,0,-1,1245,1275,0,0
28,-251,0,0,0,0,0,0,0,0,0,-1,1252,1275,0,0
35,-251,0,0,0,0,0,0,0,0,0,-1,1259,1275,0,0
42,-251,0,0,0,0,0,0,0,0,0,-1,1266,1275,0,0
49,-251,0,0,0,0,0,0,0,0,0,-1,1273,1275,0,0
56,-251,0,0,0,0,0,0,0,0,0,-1,1280,1275,0,0
63,-251,0,0,0,0,0,0,0,0,0,-1,1287,1275,0,0
70,-251,0,0,0,0,0,0,0,0,0,-1,1294,1275,0,0
77,-251,0,0,0,0,0,0,0,0,0,-1,1301,1275,0,0
84,-251,0,0,0,0,0,0,0,0,0,-1,1308,1275,0,0
91,-251,0,0,0,0,0,0,0,0,0,-1,1315,1275,0,0
98,-251,0,0,0,0,0,0,0,0,0,-1,1322,1275,0,0
105,-251,0,0,0,0,0,0,0,0,0,-1,1329,1275,0,0
112,-251,0,0,0,0,0,0,0,0,0,-1,1336,1275,0,0
119,-251,0,0,0,0,0,0,0,0,0,-1,1343,1275,0,0
126,-251,0,0,0,0,0,0,0,0,0,-1,1350,1275,0,0
133,-251,0,0,0,0,0,0,0,0,0,-1,1357,1275,0,0
140,-251,0,0,0,0,0,0,0,0,0,-1,1364,1275,0,0
147,-251,0,0,0,0,0,0,0,0,0,-1,1371,1275,0,0
154,-251,0,0,0,0,0,0,0,0,0,-1,1378,1275,0,0
161,-251,0,0,0,0,0,0,0,0,0,-1,1385,1275,0,0
168,-251,0,0,0,0,0,0,0,0,0,-1,1392,1275,0,0
175,-251,0,0,0,0,0,0,0,0,0,-1,1399,1275,0,0
182,-251,0,0,0,0,0,0,0,0,0,-1,1406,1275,0,0
189,-251,0,0,0,0,0,0,0,0,0,-1,1413,1275,0,0
196,-251,0,0,0,0,0,0,0,0,0,-1,1420,1275,0,0
203,-251,0,0,0,0,0,0,0,0,0,-1,1427,1275,0,0
210,-251,0,0,0,0,0,0,0,0,0,-1,1434,1275,0,0
217,-251,0,0,0,0,0,0,0,0,0,-1,1441,1275,0,0
224,-251,0,0,0,0,0,0,0,0,0,-1,1448,1275,0,0
231,-251,0,0,0,0,0,0,0,0,0,-1,1455,1275,0,0
238,-251,0,0,0,0,0,0,0,0,0,-1,1462,1275,0,0
245,-251,0,0,0,0,0,0,0,0,0,-1,1469,1275,0,0
252,-251,0,0,0,0,0,0,0,0,0,-1,1476,1275,0,0
259,-251,0,0,0,0,0,0,0,0,0,-1,1483,1275,0,0
266,-251,0,0,0,0,0,0,0,0,0,-1,1490,1275,0,0
273,-251,0,0,0,0,0,0,0,0,0,-1,1497,1275,0,0
280,-251,0,0,0,0,0,0,0,0,0,-1,1504,1275,0,0
287,-251,0,0,0,0,0,0,0,0,0,-1,1511,1275,0,0
294,-251,0,0,0,0,0,0,0,0,0,-1,1518,1275,0,0
301,-251,0,0,0,0,0,0,0,0,0,-1,1525,1275,0,0
308,-251,0,0,0,0,0,0,0,0,0,-1,1532,1275,0,0
315,-251,0,0,0,0,0,0,0,0,0,-1,1539,1275,0,0
322,-251,0,0,0,0,0,0,0,0,0,-1,1546,1275,0,0
329,-251,0,0,0,0,0,0,0,0,0,-1,1553,1275,0,0
336,-251,0,0,0,0,0,0,0,0,0,-1,1560,1275,0,0
343,-251,0,0,0,0,0,0,0,0,0,-1,1567,1275,0,0
350,-251,0,0,0,0,0,0,0,0,0,-1,1574,1275,0,0
357,-251,0,0,0,0,0,0,0,0,0,-1,1581,1275,0,0
364,-251,0,0,0,0,0,0,0,0,0,-1,1588,1275,0,0
371,-251,0,0,0,0,0,0,0,0,0,-1,1595,1275,0,0
378,-251,0,0,0,0,0,0,0,0,0,-1,1602,1275,0,0
385,-251,0,0,0,0,0,0,0,0,0,-1,1609,1275,0,0
392,-251,0,0,0,0,0,0,0,0,0,-1,1616,1275,0,0
399,-251,0,0,0,0,0,0,0,0,0,-1,1623,1275,0,0
406,-251,0,0,0,0,0,0,0,0,0,-1,1630,1275,0,0
413,-251,0,0,0,0,0,0,0,0,0,-1,1637,1275,0,0
420,-251,0,0,0,0,0,0,0,0,0,-1,1644,1275,0,0
427,-251,0,0,0,0,0,0,0,0,0,-1,1651,1275,0,0
434,-251,0,0,0,0,0,0,0,0,0,-1,1658,1275,0,0
441,-251,0,0,0,0,0,0,0,0,0,-1,1665,1275,0,0
448,-251,0,0,0,0,0,0,0,0,0,-1,1672,1275,0,0
455,-251,0,0,0,0,0,0,0,0,0,-1,1679,1275,0,0
462,-251,0,0,0,0,0,0,0,0,0,-1,1686,1275,0,0
469,-251,0,0,0,0,0,0,0,0,0,-1,1693,1275,0,0
476,-251,0,0,0,0,0,0,0,0,0,-1,1700,1275,0,0
483,-251,0,0,0,0,0,0,0,0,0,-1,1707,1275,0,0
490,-251,0,0,0,0,0,0,0,0,0,-1,1714,1275,0,0
497,-251,0,0,0,0,0,0,0,0,0,-1,1721,1275,0,0
504,-251,0,0,0,0,0,0,0,0,0,-1,1728,1275,0,0
511,-251,0,0,0,0,0,0,0,0,0,-1,1735,1275,0,0
518,-251,0,0,0,0,0,0,0,0,0,-1,1742,1275,0,0
525,-251,0,0,0,0,0,0,0,0,0,-1,1749,1275,0,0
532,-251,0,0,0,0,0,0,0,0,0,-1,1756,1275,0,0
539,-251,0,0,0,0,0,0,0,0,0,-1,1763,1275,0,0
546,-251,0,0,0,0,0,0,0,0,0,-1,1770,1275,0,0
553,-251,0,0,0,0,0,0,0,0,0,-1,1777,1275,0,0
560,-251,0,0,0,0,0,0,0,0,0,-1,1784,1275,0,0
567,-251,0,0,0,0,0,0,0,0,0,-1,1791,1275,0,0
574,-251,0,0,0,0,0,0,0,0,0,-1,1798,1275,0,0
581,-251,0,0,0,0,0,0,0,0,0,-1,1805,1275,0,0
588,-251,0,0,0,0,0,0,0,0,0,-1,1812,1275,0,0
595,-251,0,0,0,0,0,0,0,0,0,-1,1819,1275,0,0
602,-251,0,0,0,0,0,0,0,0,0,-1,1826,1275,0,0
609,-251,44.8363,2.52881,-0.00906862,0.00964589,-0.00257357,0.00999335,-0.00941608,-1.4366,0.0112077,0.0287674,1833,1275,44.8363,-2.52879
616,-251,44.8407,2.58496,-0.00036125,0.00684209,-0.00232577,0.00752776,-0.00104691,-1.28411,0.0054014,0.0228409,1840,1275,44.8406,-2.58498
623,-251,44.8793,2.65894,0.00726174,0.0041172,-0.00258826,0.00871786,0.00266108,-0.512453,0.00515896,0.0207793,1847,1275,44.8793,-2.65896
630,-251,44.8535,2.65552,0.0116749,0.00198929,-0.00305916,0.0125602,0.00110399,-0.281698,0.00803082,0.0331729,1854,1275,44.8535,-2.65548
637,-251,44.8688,2.59631,0.0117969,0.000827519,-0.00314459,0.0126344,-9.99263e-06,-0.260292,0.0084263,0.0414881,1861,1275,44.8688,-2.5963
644,-251,44.9227,2.5647,0,0,0,0,0,0,0,-1,1868,1275,44.9228,-2.56469
651,-251,44.9745,2.42188,0,0,0,0,0,0,0,-1,1875,1275,44.9745,-2.42193
658,-251,43.3821,2.00269,0,0,0,0,0,0,0,-1,1882,1275,43.3821,-2.00272
665,-251,32.9579,2.60229,0,0,0,0,0,0,0,-1,1889,1275,32.9579,-2.60231
672,-251,26.0721,4.53064,0,0,0,0,0,0,0,-1,1896,1275,26.0721,-4.53063
679,-251,29.1344,8.63782,0,0,0,0,0,0,0,-1,1903,1275,29.1344,-8.63778
686,-251,33.8993,9.49902,0,0,0,0,0,0,0,-1,1910,1275,33.8993,-9.49906
693,-251,33.8698,9.05762,0.00303432,-0.000675211,-0.000575341,0.00312151,-0.000762396,-0.150392,0.00237626,0.0136911,1917,1275,33.8697,-9.05756
700,-251,33.8577,8.61243,0.00258168,-0.000838629,-0.000171212,0.00259023,-0.000847178,-0.0498912,0.00206789,0.00861543,1924,1275,33.8577,-8.61245
707,-251,33.8643,8.18066,0.00154217,-0.000668592,0.000212519,0.00156241,-0.000688836,0.0949702,0.00133198,0.0111821,1931,1275,33.8643,-8.18064
714,-251,33.8679,7.74805,0.000536641,-0.00047386,0.000511001,0.00075,-0.000687219,0.395528,0.000830043,0.0127598,1938,1275,33.868,-7.74809
721,-251,33.8041,7.34985,0.000282884,-4.8287e-05,0.000505941,0.000649647,-0.00041505,0.627251,0.000619657,0.0172738,1945,1275,33.8041,-7.34984
728,-251,33.7955,6.97144,0.000337298,0.000385999,0.00037181,0.000734254,-1.09579e-05,0.818098,0.000493196,0.0205932,1952,1275,33.7955,-6.9714
735,-251,33.8055,6.48474,0.000990215,0.000942177,-1.65072e-05,0.00099534,0.000937052,-0.301062,0.000645009,0.0180443,1959,1275,33.8055,-6.48476
742,-251,33.7379,6.14954,0.00244161,0.00168573,-0.000786334,0.00293612,0.00119122,-0.561378,0.00170519,0.0182893,1966,1275,33.7379,-6.14955
749,-251,33.5264,5.9137,0.00516113,0.0026613,-0.00204733,0.00630993,0.0015125,-0.511342,0.00380404,0.0363858,1973,1275,33.5264,-5.9137
756,-251,33.2878,5.73596,0,0,0,0,0,0,0,-1,1980,1275,33.2879,-5.73601
763,-251,33.715,4.70752,0,0,0,0,0,0,0,-1,1987,1275,33.715,-4.70747
770,-251,34.192,3.73474,0,0,0,0,0,0,0,-1,1994,1275,34.192,-3.7348
777,-251,31.5731,4.33252,0,0,0,0,0,0,0,-1,2001,1275,31.5731,-4.33251
784,-251,32.0776,5.78247,0,0,0,0,0,0,0,-1,2008,1275,32.0776,-5.78247
791,-251,0,0,0,0,0,0,0,0,0,-1,2015,1275,0,0
798,-251,0,0,0,0,0,0,0,0,0,-1,2022,1275,0,0
805,-251,0,0,0,0,0,0,0,0,0,-1,2029,1275,0,0
812,-251,0,0,0,0,0,0,0,0,0,-1,2036,1275,0,0
-700,-258,0,0,0,0,0,0,0,0,0,-1,524,1282,0,0
-693,-258,0,0,0,0,0,0,0,0,0,-1,531,1282,0,0
-686,-258,0,0,0,0,0,0,0,0,0,-1,538,1282,0,0
-679,-258,0,0,0,0,0,0,0,0,0,-1,545,1282,0,0
-672,-258,0,0,0,0,0,0,0,0,0,-1,552,1282,0,0
-665,-258,-20.7346,4.88318,0,0,0,0,0,0,0,-1,559,1282,-20.7345,-4.88316
-658,-258,-21.545,6.01331,0,0,0,0,0,0,0,-1,566,1282,-21.545,-6.01331
-651,-258,-21.2513,-0.901245,0,0,0,0,0,0,0,-1,573,1282,-21.2513,0.901221
-644,-258,-20.8941,-0.0340576,0,0,0,0,0,0,0,-1,580,1282,-20.8941,0.0340716
-637,-258,-20.7496,0.923828,0,0,0,0,0,0,0,-1,587,1282,-20.7496,-0.92382
-630,-258,-20.6909,1.87012,0,0,0,0,0,0,0,-1,594,1282,-20.6909,-1.87011
-623,-258,-20.7606,2.59082,0,0,0,0,0,0,0,-1,601,1282,-20.7606,-2.59088
-616,-258,-20.6539,3.00732,0.0139041,0.0099545,0.00238525,0.0150259,0.00883265,0.439631,0.00871972,0.0335331,608,1282,-20.6539,-3.00729
-609,-258,-20.6165,3.55823,0.00942348,0.00482047,0.00151327,0.00987641,0.00436753,0.29082,0.00571482,0.0161057,615,1282,-20.6165,-3.55826
-602,-258,-20.6566,4.04016,0.00653351,0.00226511,0.00108032,0.00679136,0.00200726,0.234296,0.00402877,0.0134268,622,1282,-20.6565,-4.04018
-595,-258,-20.6769,4.49658,0.00483586,0.0015446,0.00104759,0.00514101,0.00123945,0.283445,0.00309797,0.0113959,629,1282,-20.677,-4.49661
-588,-258,-20.6912,4.95142,0.00396615,0.000789692,0.00109956,0.00430963,0.000446214,0.302775,0.0027365,0.0123956,636,1282,-20.6912,-4.95147
-581,-258,-20.6985,5.42126,0.00374234,1.04009e-05,0.00121594,0.00410356,-0.000350815,0.288764,0.00285983,0.0149053,643,1282,-20.6985,-5.42128
-574,-258,-20.6761,5.91321,0.00399861,-0.000685328,0.00132969,0.00434976,-0.00103648,0.25819,0.00330004,0.0141413,650,1282,-20.6762,-5.91319
-567,-258,-20.7234,6.3772,0.00418359,-0.00088803,0.00113832,0.00442736,-0.00113181,0.210969,0.00339237,0.0136677,657,1282,-20.7234,-6.37719
-560,-258,-20.7087,6.82666,0.00377614,-0.000640442,0.000993933,0.00398951,-0.000853814,0.211465,0.00298526,0.035376,664,1282,-20.7087,-6.82664
-553,-258,-20.6147,7.29846,0,0,0,0,0,0,0,-1,671,1282,-20.6147,-7.29847
-546,-258,-14.2231,5.92029,0,0,0,0,0,0,0,-1,678,1282,-14.2231,-5.92028
-539,-258,-10.2228,4.05823,0,0,0,0,0,0,0,-1,685,1282,-10.2228,-4.05823
-532,-258,-10.2173,-0.353882,0,0,0,0,0,0,0,-1,692,1282,-10.2173,0.353836
-525,-258,-21.8661,-1.5929,0,0,0,0,0,0,0,-1,699,1282,-21.8661,1.59285
-518,-258,-29.2484,0.123169,0,0,0,0,0,0,0,-1,706,1282,-29.2484,-0.123186
-511,-258,-23.5061,1.16833,0,0,0,0,0,0,0,-1,713,1282,-23.5061,-1.16833
-504,-258,-22.9178,0.484131,0,0,0,0,0,0,0,-1,720,1282,-22.9178,-0.484106
-497,-258,-17.8047,0.730469,0,0,0,0,0,0,0,-1,727,1282,-17.8048,-0.730489
-490,-258,-15.4346,0.632935,0,0,0,0,0,0,0,-1,734,1282,-15.4346,-0.632917
-483,-258,0,0,0,0,0,0,0,0,0,-1,741,1282,0,0
-476,-258,0,0,0,0,0,0,0,0,0,-1,748,1282,0,0
-469,-258,0,0,0,0,0,0,0,0,0,-1,755,1282,0,0
-462,-258,0,0,0,0,0,0,0,0,0,-1,762,1282,0,0
-455,-258,0,0,0,0,0,0,0,0,0,-1,769,1282,0,0
-448,-258,0,0,0,0,0,0,0,0,0,-1,776,1282,0,0
-441,-258,0,0,0,0,0,0,0,0,0,-1,783,1282,0,0
-434,-258,0,0,0,0,0,0,0,0,0,-1,790,1282,0,0
-427,-258,0,0,0,0,0,0,0,0,0,-1,797,1282,0,0
-420,-258,0,0,0,0,0,0,0,0,0,-1,804,1282,0,0
-413,-258,0,0,0,0,0,0,0,0,0,-1,811,1282,0,0
-406,-258,0,0,0,0,0,0,0,0,0,-1,818,1282,0,0
-399,-258,0,0,0,0,0,0,0,0,0,-1,825,1282,0,0
-392,-258,0,0,0,0,0,0,0,0,0,-1,832,1282,0,0
-385,-258,0,0,0,0,0,0,0,0,0,-1,839,1282,0,0
-378,-258,0,0,0,0,0,0,0,0,0,-1,846,1282,0,0
-371,-258,0,0,0,0,0,0,0,0,0,-1,853,1282,0,0
-364,-258,0,0,0,0,0,0,0,0,0,-1,860,1282,0,0
-357,-258,0,0,0,0,0,0,0,0,0,-1,867,1282,0,0
-350,-258,0,0,0,0,0,0,0,0,0,-1,874,1282,0,0
-343,-258,0,0,0,0,0,0,0,0,0,-1,881,1282,0,0
-336,-258,0,0,0,0,0,0,0,0,0,-1,888,1282,0,0
-329,-258,0,0,0,0,0,0,0,0,0,-1,895,1282,0,0
-322,-258,0,0,0,0,0,0,0,0,0,-1,902,1282,0,0
-315,-258,0,0,0,0,0,0,0,0,0,-1,909,1282,0,0
-308,-258,0,0,0,0,0,0,0,0,0,-1,916,1282,0,0
-301,-258,0,0,0,0,0,0,0,0,0,-1,923,1282,0,0
-294,-258,0,0,0,0,0,0,0,0,0,-1,930,1282,0,0
-287,-258,0,0,0,0,0,0,0,0,0,-1,937,1282,0,0
-280,-258,0,0,0,0,0,0,0,0,0,-1,944,1282,0,0
-273,-258,0,0,0,0,0,0,0,0,0,-1,951,1282,0,0
-266,-258,0,0,0,0,0,0,0,0,0,-1,958,1282,0,0
-259,-258,0,0,0,0,0,0,0,0,0,-1,965,1282,0,0
-252,-258,0,0,0,0,0,0,0,0,0,-1,972,1282,0,0
-245,-258,0,0,0,0,0,0,0,0,0,-1,979,1282,0,0
-238,-258,0,0,0,0,0,0,0,0,0,-1,986,1282,0,0
-231,-258,0,0,0,0,0,0,0,0,0,-1,993,1282,0,0
-224,-258,0,0,0,0,0,0,0,0,0,-1,1000,1282,0,0
-217,-258,0,0,0,0,0,0,0,0,0,-1,1007,1282,0,0
-210,-258,0,0,0,0,0,0,0,0,0,-1,1014,1282,0,0
-203,-258,0,0,0,0,0,0,0,0,0,-1,1021,1282,0,0
-196,-258,0,0,0,0,0,0,0,0,0,-1,1028,1282,0,0
-189,-258,0,0,0,0,0,0,0,0,0,-1,1035,1282,0,0
-182,-258,0,0,0,0,0,0,0,0,0,-1,1042,1282,0,0
-175,-258,0,0,0,0,0,0,0,0,0,-1,1049,1282,0,0
-168,-258,0,0,0,0,0,0,0,0,0,-1,1056,1282,0,0
-161,-258,0,0,0,0,0,0,0,0,0,-1,1063,1282,0,0
-154,-258,0,0,0,0,0,0,0,0,0,-1,1070,1282,0,0
-147,-258,0,0,0,0,0,0,0,0,0,-1,1077,1282,0,0
-140,-258,0,0,0,0,0,0,0,0,0,-1,1084,1282,0,0
-133,-258,0,0,0,0,0,0,0,0,0,-1,1091,1282,0,0
-126,-258,0,0,0,0,0,0,0,0,0,-1,1098,1282,0,0
-119,-258,0,0,0,0,0,0,0,0,0,-1,1105,1282,0,0
-112,-258,0,0,0,0,0,0,0,0,0,-1,1112,1282,0,0
-105,-258,0,0,0,0,0,0,0,0,0,-1,1119,1282,0,0
-98,-258,0,0,0,0,0,0,0,0,0,-1,1126,1282,0,0
-91,-258,0,0,0,0,0,0,0,0,0,-1,1133,1282,0,0
-84,-258,0,0,0,0,0,0,0,0,0,-1,1140,1282,0,0
-77,-258,0,0,0,0,0,0,0,0,0,-1,1147,1282,0,0
-70,-258,0,0,0,0,0,0,0,0,0,-1,1154,1282,0,0
-63,-258,0,0,0,0,0,0,0,0,0,-1,1161,1282,0,0
-56,-258,0,0,0,0,0,0,0,0,0,-1,1168,1282,0,0
-49,-258,0,0,0,0,0,0,0,0,0,-1,1175,1282,0,0
-42,-258,0,0,0,0,0,0,0,0,0,-1,1182,1282,0,0
-35,-258,0,0,0,0,0,0,0,0,0,-1,1189,1282,0,0
-28,-258,0,0,0,0,0,0,0,0,0,-1,1196,1282,0,0
-21,-258,0,0,0,0,0,0,0,0,0,-1,1203,1282,0,0
-14,-258,0,0,0,0,0,0,0,0,0,-1,1210,1282,0,0
-7,-258,0,0,0,0,0,0,0,0,0,-1,1217,1282,0,0
0,-258,0,0,0,0,0,0,0,0,0,-1,1224,1282,0,0
7,-258,0,0,0,0,0,0,0,0,0,-1,1231,1282,0,0
14,-258,0,0,0,0,0,0,0,0,0,-1,1238,1282,0,0
21,-258,0,0,0,0,0,0,0,0,0,-1,1245,1282,0,0
28,-258,0,0,0,0,0,0,0,0,0,-1,1252,1282,0,0
35,-258,0,0,0,0,0,0,0,0,0,-1,1259,1282,0,0
42,-258,0,0,0,0,0,0,0,0,0,-1,1266,1282,0,0
49,-258,0,0,0,0,0,0,0,0,0,-1,1273,1282,0,0
56,-258,0,0,0,0,0,0,0,0,0,-1,1280,1282,0,0
63,-258,0,0,0,0,0,0,0,0,0,-1,1287,1282,0,0
70,-258,0,0,0,0,0,0,0,0,0,-1,1294,1282,0,0
77,-258,0,0,0,0,0,0,0,0,0,-1,1301,1282,0,0
84,-258,0,0,0,0,0,0,0,0,0,-1,1308,1282,0,0
91,-258,0,0,0,0,0,0,0,0,0,-1,1315,1282,0,0
98,-258,0,0,0,0,0,0,0,0,0,-1,1322,1282,0,0
105,-258,0,0,0,0,0,0,0,0,0,-1,1329,1282,0,0
112,-258,0,0,0,0,0,0,0,0,0,-1,1336,1282,0,0
119,-258,0,0,0,0,0,0,0,0,0,-1,1343,1282,0,0
126,-258,0,0,0,0,0,0,0,0,0,-1,1350,1282,0,0
133,-258,0,0,0,0,0,0,0,0,0,-1,1357,1282,0,0
140,-258,0,0,0,0,0,0,0,0,0,-1,1364,1282,0,0
147,-258,0,0,0,0,0,0,0,0,0,-1,1371,1282,0,0
154,-258,0,0,0,0,0,0,0,0,0,-1,1378,1282,0,0
161,-258,0,0,0,0,0,0,0,0,0,-1,1385,1282,0,0
168,-258,0,0,0,0,0,0,0,0,0,-1,1392,1282,0,0
175,-258,0,0,0,0,0,0,0,0,0,-1,1399,1282,0,0
182,-258,0,0,0,0,0,0,0,0,0,-1,1406,1282,0,0
189,-258,0,0,0,0,0,0,0,0,0,-1,1413,1282,0,0
196,-258,0,0,0,0,0,0,0,0,0,-1,1420,1282,0,0
203,-258,0,0,0,0,0,0,0,0,0,-1,1427,1282,0,0
210,-258,0,0,0,0,0,0,0,0,0,-1,1434,1282,0,0
217,-258,0,0,0,0,0,0,0,0,0,-1,1441,1282,0,0
224,-258,0,0,0,0,0,0,0,0,0,-1,1448,1282,0,0
231,-258,0,0,0,0,0,0,0,0,0,-1,1455,1282,0,0
238,-258,0,0,0,0,0,0,0,0,0,-1,1462,1282,0,0
245,-258,0,0,0,0,0,0,0,0,0,-1,1469,1282,0,0
252,-258,0,0,0,0,0,0,0,0,0,-1,1476,1282,0,0
259,-258,0,0,0,0,0,0,0,0,0,-1,1483,1282,0,0
266,-258,0,0,0,0,0,0,0,0,0,-1,1490,1282,0,0
273,-258,0,0,0,0,0,0,0,0,0,-1,1497,1282,0,0
280,-258,0,0,0,0,0,0,0,0,0,-1,1504,1282,0,0
287,-258,0,0,0,0,0,0,0,0,0,-1,1511,1282,0,0
294,-258,0,0,0,0,0,0,0,0,0,-1,1518,1282,0,0
301,-258,0,0,0,0,0,0,0,0,0,-1,1525,1282,0,0
308,-258,0,0,0,0,0,0,0,0,0,-1,1532,1282,0,0
315,-258,0,0,0,0,0,0,0,0,0,-1,1539,1282,0,0
322,-258,0,0,0,0,0,0,0,0,0,-1,1546,1282,0,0
329,-258,0,0,0,0,0,0,0,0,0,-1,1553,1282,0,0
336,-258,0,0,0,0,0,0,0,0,0,-1,1560,1282,0,0
343,-258,0,0,0,0,0,0,0,0,0,-1,1567,1282,0,0
350,-258,0,0,0,0,0,0,0,0,0,-1,1574,1282,0,0
357,-258,0,0,0,0,0,0,0,0,0,-1,1581,1282,0,0
364,-258,0,0,0,0,0,0,0,0,0,-1,1588,1282,0,0
371,-258,0,0,0,0,0,0,0,0,0,-1,1595,1282,0,0
378,-258,0,0,0,0,0,0,0,0,0,-1,1602,1282,0,0
385,-258,0,0,0,0,0,0,0,0,0,-1,1609,1282,0,0
392,-258,0,0,0,0,0,0,0,0,0,-1,1616,1282,0,0
399,-258,0,0,0,0,0,0,0,0,0,-1,1623,1282,0,0
406,-258,0,0,0,0,0,0,0,0,0,-1,1630,1282,0,0
413,-258,0,0,0,0,0,0,0,0,0,-1,1637,1282,0,0
420,-258,0,0,0,0,0,0,0,0,0,-1,1644,1282,0,0
427,-258,0,0,0,0,0,0,0,0,0,-1,1651,1282,0,0
434,-258,0,0,0,0,0,0,0,0,0,-1,1658,1282,0,0
441,-258,0,0,0,0,0,0,0,0,0,-1,1665,1282,0,0
448,-258,0,0,0,0,0,0,0,0,0,-1,1672,1282,0,0
455,-258,0,0,0,0,0,0,0,0,0,-1,1679,1282,0,0
462,-258,0,0,0,0,0,0,0,0,0,-1,1686,1282,0,0
469,-258,0,0,0,0,0,0,0,0,0,-1,1693,1282,0,0
476,-258,0,0,0,0,0,0,0,0,0,-1,1700,1282,0,0
483,-258,0,0,0,0,0,0,0,0,0,-1,1707,1282,0,0
490,-258,0,0,0,0,0,0,0,0,0,-1,1714,1282,0,0
497,-258,0,0,0,0,0,0,0,0,0,-1,1721,1282,0,0
504,-258,0,0,0,0,0,0,0,0,0,-1,1728,1282,0,0
511,-258,0,0,0,0,0,0,0,0,0,-1,1735,1282,0,0
518,-258,0,0,0,0,0,0,0,0,0,-1,1742,1282,0,0
525,-258,0,0,0,0,0,0,0,0,0,-1,1749,1282,0,0
532,-258,0,0,0,0,0,0,0,0,0,-1,1756,1282,0,0
539,-258,0,0,0,0,0,0,0,0,0,-1,1763,1282,0,0
546,-258,0,0,0,0,0,0,0,0,0,-1,1770,1282,0,0
553,-258,0,0,0,0,0,0,0,0,0,-1,1777,1282,0,0
560,-258,0,0,0,0,0,0,0,0,0,-1,1784,1282,0,0
567,-258,0,0,0,0,0,0,0,0,0,-1,1791,1282,0,0
574,-258,0,0,0,0,0,0,0,0,0,-1,1798,1282,0,0
581,-258,0,0,0,0,0,0,0,0,0,-1,1805,1282,0,0
588,-258,0,0,0,0,0,0,0,0,0,-1,1812,1282,0,0
595,-258,0,0,0,0,0,0,0,0,0,-1,1819,1282,0,0
602,-258,0,0,0,0,0,0,0,0,0,-1,1826,1282,0,0
609,-258,44.8407,2.64453,-0.00664935,0.0113775,-0.00389843,0.0121844,-0.00745629,-1.36669,0.0114486,0.0257842,1833,1282,44.8407,-2.64457
616,-258,44.8402,2.63977,0.00382181,0.00803924,-0.00300335,0.00960024,0.00226081,-1.09147,0.00579546,0.0222131,1840,1282,44.8402,-2.63976
623,-258,44.8901,2.67603,0.0111084,0.00481895,-0.00260144,0.0120449,0.0038824,-0.345567,0.00709897,0.032264,1847,1282,44.8901,-2.67606
630,-258,44.959,2.62891,0.0137823,0.00248818,-0.00269551,0.0143927,0.00187784,-0.222673,0.00903447,0.0424937,1854,1282,44.9589,-2.62887
637,-258,45.0505,2.61902,0.0126152,0.00121334,-0.00265621,0.0132037,0.000624909,-0.218009,0.00860171,0.047608,1861,1282,45.0505,-2.61906
644,-258,45.1112,2.61133,0,0,0,0,0,0,0,-1,1868,1282,45.1113,-2.6113
651,-258,43.3661,2.59558,0,0,0,0,0,0,0,-1,1875,1282,43.3661,-2.59563
658,-258,37.3499,1.09253,0,0,0,0,0,0,0,-1,1882,1282,37.3498,-1.0925
665,-258,35.4747,1.1864,0,0,0,0,0,0,0,-1,1889,1282,35.4747,-1.18637
672,-258,22.703,2.80957,0,0,0,0,0,0,0,-1,1896,1282,22.703,-2.80962
679,-258,26.8693,8.19543,0,0,0,0,0,0,0,-1,1903,1282,26.8692,-8.19548
686,-258,33.5057,9.51343,0,0,0,0,0,0,0,-1,1910,1282,33.5057,-9.51344
693,-258,33.4733,9.05872,0.00258321,-0.000661245,-0.000484283,0.00265396,-0.000731989,-0.145053,0.00205718,0.0130898,1917,1282,33.4732,-9.05871
700,-258,33.446,8.60901,0.00207366,-0.000766821,-6.54165e-05,0.00207517,-0.000768327,-0.0230138,0.0016985,0.00884768,1924,1282,33.446,-8.60898
707,-258,33.4404,8.19238,0.00103223,-0.00060361,0.000334324,0.00109792,-0.000669299,0.194013,0.00103026,0.0108014,1931,1282,33.4405,-8.19244
714,-258,33.4366,7.77551,8.95954e-05,-0.000442367,0.000637633,0.000514499,-0.000867271,0.587801,0.000806385,0.0111912,1938,1282,33.4367,-7.77552
721,-258,33.4154,7.33545,-0.000135621,-8.81201e-05,0.000616435,0.000505022,-0.000728763,0.804653,0.00071622,0.0163074,1945,1282,33.4154,-7.33551
728,-258,33.3812,6.95642,-0.000184344,0.000248395,0.000504731,0.000581179,-0.000517128,0.987891,0.000634467,0.0160459,1952,1282,33.3812,-6.95648
735,-258,33.3933,6.53162,0.000297764,0.000688094,0.000132919,0.000729058,0.0002568,1.27184,0.000427005,0.0158976,1959,1282,33.3933,-6.53164
742,-258,33.3463,6.13135,0.00157553,0.00131109,-0.000645993,0.00210269,0.000783921,-0.684454,0.00122701,0.0178567,1966,1282,33.3463,-6.13134
749,-258,33.215,5.82166,0.00419177,0.00213951,-0.00197711,0.00539317,0.000938104,-0.54603,0.00332713,0.0390975,1973,1282,33.215,-5.82172
756,-258,33.1427,5.38782,0,0,0,0,0,0,0,-1,1980,1282,33.1427,-5.38781
763,-258,32.7402,5.84204,0,0,0,0,0,0,0,-1,1987,1282,32.7402,-5.84203
770,-258,33.6843,5.38574,0,0,0,0,0,0,0,-1,1994,1282,33.6843,-5.38573
777,-258,31.912,4.83093,0,0,0,0,0,0,0,-1,2001,1282,31.912,-4.8309
784,-258,32.6525,6.43091,0,0,0,0,0,0,0,-1,2008,1282,32.6525,-6.43091
791,-258,0,0,0,0,0,0,0,0,0,-1,2015,1282,0,0
798,-258,0,0,0,0,0,0,0,0,0,-1,2022,1282,0,0
805,-258,0,0,0,0,0,0,0,0,0,-1,2029,1282,0,0
812,-258,0,0,0,0,0,0,0,0,0,-1,2036,1282,0,0
-700,-265,0,0,0,0,0,0,0,0,0,-1,524,1289,0,0
-693,-265,0,0,0,0,0,0,0,0,0,-1,531,1289,0,0
-686,-265,0,0,0,0,0,0,0,0,0,-1,538,1289,0,0
-679,-265,0,0,0,0,0,0,0,0,0,-1,545,1289,0,0
-672,-265,0,0,0,0,0,0,0,0,0,-1,552,1289,0,0
-665,-265,-21.8043,0.183594,0,0,0,0,0,0,0,-1,559,1289,-21.8042,-0.183562
-658,-265,-18.9856,-0.2948,0,0,0,0,0,0,0,-1,566,1289,-18.9856,0.294797
-651,-265,-18.8685,0.415161,0,0,0,0,0,0,0,-1,573,1289,-18.8685,-0.415106
-644,-265,-21.1107,-0.415527,0,0,0,0,0,0,0,-1,580,1289,-21.1106,0.415535
-637,-265,-20.9237,0.733765,0,0,0,0,0,0,0,-1,587,1289,-20.9237,-0.733739
-630,-265,-19.4874,2.06287,0,0,0,0,0,0,0,-1,594,1289,-19.4874,-2.06282
-623,-265,-20.2378,2.13025,0,0,0,0,0,0,0,-1,601,1289,-20.2378,-2.13024
-616,-265,-20.1685,2.80786,0.0139576,0.0106443,0.00310737,0.0158224,0.00877958,0.5405,0.00915337,0.0425478,608,1289,-20.1685,-2.8078
-609,-265,-20.1461,3.53955,0.0093622,0.00571303,0.00210678,0.0103247,0.00475057,0.428528,0.00596727,0.0188898,615,1289,-20.146,-3.53954
-602,-265,-20.1725,4.04614,0.00643423,0.00317681,0.00154868,0.00705298,0.00255806,0.380108,0.0041229,0.0143201,622,1289,-20.1725,-4.04619
-595,-265,-20.1913,4.53674,0.00466843,0.0022373,0.00132793,0.00525314,0.00165259,0.414774,0.00310163,0.0124521,629,1289,-20.1913,-4.53673
-588,-265,-20.2037,4.99829,0.00367083,0.00132928,0.00117626,0.00415967,0.00084045,0.393867,0.00253975,0.0114933,636,1289,-20.2037,-4.99831
-581,-265,-20.2255,5.44934,0.00328439,0.000449485,0.00110376,0.00366345,7.04232e-05,0.330807,0.00241917,0.0134543,643,1289,-20.2255,-5.44936
-574,-265,-20.2473,5.96228,0.00336484,-0.000304597,0.00108558,0.00366195,-0.000601701,0.267141,0.00266461,0.0144734,650,1289,-20.2473,-5.96226
-567,-265,-20.299,6.42688,0.00353666,-0.000716894,0.00090718,0.00372206,-0.000902293,0.201592,0.00283049,0.0209582,657,1289,-20.299,-6.42682
-560,-265,-20.3203,6.8877,0.00330982,-0.000685563,0.000849507,0.00348294,-0.000858685,0.201039,0.00265489,0.0231712,664,1289,-20.3203,-6.88766
-553,-265,-20.2009,7.34692,0,0,0,0,0,0,0,-1,671,1289,-20.2009,-7.34698
-546,-265,-19.0402,7.96277,0,0,0,0,0,0,0,-1,678,1289,-19.0402,-7.96282
-539,-265,-13.7668,6.39917,0,0,0,0,0,0,0,-1,685,1289,-13.7668,-6.39915
-532,-265,-8.53998,3.41467,0,0,0,0,0,0,0,-1,692,1289,-8.53996,-3.41473
-525,-265,-12.1317,0.514648,0,0,0,0,0,0,0,-1,699,1289,-12.1317,-0.514634
-518,-265,-24.1604,0.712402,0,0,0,0,0,0,0,-1,706,1289,-24.1604,-0.712425
-511,-265,-23.233,0.791626,0,0,0,0,0,0,0,-1,713,1289,-23.233,-0.791617
-504,-265,-22.3056,0.87085,0,0,0,0,0,0,0,-1,720,1289,-22.3056,-0.87081
-497,-265,-18.689,-0.278442,0,0,0,0,0,0,0,-1,727,1289,-18.689,0.278423
-490,-265,-15.1696,0.492676,0,0,0,0,0,0,0,-1,734,1289,-15.1696,-0.492688
-483,-265,0,0,0,0,0,0,0,0,0,-1,741,1289,0,0
-476,-265,0,0,0,0,0,0,0,0,0,-1,748,1289,0,0
-469,-265,0,0,0,0,0,0,0,0,0,-1,755,1289,0,0
-462,-265,0,0,0,0,0,0,0,0,0,-1,762,1289,0,0
-455,-265,0,0,0,0,0,0,0,0,0,-1,769,1289,0,0
-448,-265,0,0,0,0,0,0,0,0,0,-1,776,1289,0,0
-441,-265,0,0,0,0,0,0,0,0,0,-1,783,1289,0,0
-434,-265,0,0,0,0,0,0,0,0,0,-1,790,1289,0,0
-427,-265,0,0,0,0,0,0,0,0,0,-1,797,1289,0,0
-420,-265,0,0,0,0,0,0,0,0,0,-1,804,1289,0,0
-413,-265,0,0,0,0,0,0,0,0,0,-1,811,1289,0,0
-406,-265,0,0,0,0,0,0,0,0,0,-1,818,1289,0,0
-399,-265,0,0,0,0,0,0,0,0,0,-1,825,1289,0,0
-392,-265,0,0,0,0,0,0,0,0,0,-1,832,1289,0,0
-385,-265,0,0,0,0,0,0,0,0,0,-1,839,1289,0,0
-378,-265,0,0,0,0,0,0,0,0,0,-1,846,1289,0,0
-371,-265,0,0,0,0,0,0,0,0,0,-1,853,1289,0,0
-364,-265,0,0,0,0,0,0,0,0,0,-1,860,1289,0,0
-357,-265,0,0,0,0,0,0,0,0,0,-1,867,1289,0,0
-350,-265,0,0,0,0,0,0,0,0,0,-1,874,1289,0,0
-343,-265,0,0,0,0,0,0,0,0,0,-1,881,1289,0,0
-336,-265,0,0,0,0,0,0,0,0,0,-1,888,1289,0,0
-329,-265,0,0,0,0,0,0,0,0,0,-1,895,1289,0,0
-322,-265,0,0,0,0,0,0,0,0,0,-1,902,1289,0,0
-315,-265,0,0,0,0,0,0,0,0,0,-1,909,1289,0,0
-308,-265,0,0,0,0,0,0,0,0,0,-1,916,1289,0,0
-301,-265,0,0,0,0,0,0,0,0,0,-1,923,1289,0,0
-294,-265,0,0,0,0,0,0,0,0,0,-1,930,1289,0,0
-287,-265,0,0,0,0,0,0,0,0,0,-1,937,1289,0,0
-280,-265,0,0,0,0,0,0,0,0,0,-1,944,1289,0,0
-273,-265,0,0,0,0,0,0,0,0,0,-1,951,1289,0,0
-266,-265,0,0,0,0,0,0,0,0,0,-1,958,1289,0,0
-259,-265,0,0,0,0,0,0,0,0,0,-1,965,1289,0,0
-252,-265,0,0,0,0,0,0,0,0,0,-1,972,1289,0,0
-245,-265,0,0,0,0,0,0,0,0,0,-1,979,1289,0,0
-238,-265,0,0,0,0,0,0,0,0,0,-1,986,1289,0,0
-231,-265,0,0,0,0,0,0,0,0,0,-1,993,1289,0,0
-224,-265,0,0,0,0,0,0,0,0,0,-1,1000,1289,0,0
-217,-265,0,0,0,0,0,0,0,0,0,-1,1007,1289,0,0
-210,-265,0,0,0,0,0,0,0,0,0,-1,1014,1289,0,0
-203,-265,0,0,0,0,0,0,0,0,0,-1,1021,1289,0,0
-196,-265,0,0,0,0,0,0,0,0,0,-1,1028,1289,0,0
-189,-265,0,0,0,0,0,0,0,0,0,-1,1035,1289,0,0
-182,-265,0,0,0,0,0,0,0,0,0,-1,1042,1289,0,0
-175,-265,0,0,0,0,0,0,0,0,0,-1,1049,1289,0,0
-168,-265,0,0,0,0,0,0,0,0,0,-1,1056,1289,0,0
-161,-265,0,0,0,0,0,0,0,0,0,-1,1063,1289,0,0
-154,-265,0,0,0,0,0,0,0,0,0,-1,1070,1289,0,0
-147,-265,0,0,0,0,0,0,0,0,0,-1,1077,1289,0,0
-140,-265,0,0,0,0,0,0,0,0,0,-1,1084,1289,0,0
-133,-265,0,0,0,0,0,0,0,0,0,-1,1091,1289,0,0
-126,-265,0,0,0,0,0,0,0,0,0,-1,1098,1289,0,0
-119,-265,0,0,0,0,0,0,0,0,0,-1,1105,1289,0,0
-112,-265,0,0,0,0,0,0,0,0,0,-1,1112,1289,0,0
-105,-265,0,0,0,0,0,0,0,0,0,-1,1119,1289,0,0
-98,-265,0,0,0,0,0,0,0,0,0,-1,1126,1289,0,0
-91,-265,0,0,0,0,0,0,0,0,0,-1,1133,1289,0,0
-84,-265,0,0,0,0,0,0,0,0,0,-1,1140,1289,0,0
-77,-265,0,0,0,0,0,0,0,0,0,-1,1147,1289,0,0
-70,-265,0,0,0,0,0,0,0,0,0,-1,1154,1289,0,0
-63,-265,0,0,0,0,0,0,0,0,0,-1,1161,1289,0,0
-56,-265,0,0,0,0,0,0,0,0,0,-1,1168,1289,0,0
-49,-265,0,0,0,0,0,0,0,0,0,-1,1175,1289,0,0
-42,-265,0,0,0,0,0,0,0,0,0,-1,1182,1289,0,0
-35,-265,0,0,0,0,0,0,0,0,0,-1,1189,1289,0,0
-28,-265,0,0,0,0,0,0,0,0,0,-1,1196,1289,0,0
-21,-265,0,0,0,0,0,0,0,0,0,-1,1203,1289,0,0
-14,-265,0,0,0,0,0,0,0,0,0,-1,1210,1289,0,0
-7,-265,0,0,0,0,0,0,0,0,0,-1,1217,1289,0,0
0,-265,0,0,0,0,0,0,0,0,0,-1,1224,1289,0,0
7,-265,0,0,0,0,0,0,0,0,0,-1,1231,1289,0,0
14,-265,0,0,0,0,0,0,0,0,0,-1,1238,1289,0,0
21,-265,0,0,0,0,0,0,0,0,0,-1,1245,1289,0,0
28,-265,0,0,0,0,0,0,0,0,0,-1,1252,1289,0,0
35,-265,0,0,0,0,0,0,0,0,0,-1,1259,1289,0,0
42,-265,0,0,0,0,0,0,0,0,0,-1,1266,1289,0,0
49,-265,0,0,0,0,0,0,0,0,0,-1,1273,1289,0,0
56,-265,0,0,0,0,0,0,0,0,0,-1,1280,1289,0,0
63,-265,0,0,0,0,0,0,0,0,0,-1,1287,1289,0,0
70,-265,0,0,0,0,0,0,0,0,0,-1,1294,1289,0,0
77,-265,0,0,0,0,0,0,0,0,0,-1,1301,1289,0,0
84,-265,0,0,0,0,0,0,0,0,0,-1,1308,1289,0,0
91,-265,0,0,0,0,0,0,0,0,0,-1,1315,1289,0,0
98,-265,0,0,0,0,0,0,0,0,0,-1,1322,1289,0,0
105,-265,0,0,0,0,0,0,0,0,0,-1,1329,1289,0,0
112,-265,0,0,0,0,0,0,0,0,0,-1,1336,1289,0,0
119,-265,0,0,0,0,0,0,0,0,0,-1,1343,1289,0,0
126,-265,0,0,0,0,0,0,0,0,0,-1,1350,1289,0,0
133,-265,0,0,0,0,0,0,0,0,0,-1,1357,1289,0,0
140,-265,0,0,0,0,0,0,0,0,0,-1,1364,1289,0,0
147,-265,0,0,0,0,0,0,0,0,0,-1,1371,1289,0,0
154,-265,0,0,0,0,0,0,0,0,0,-1,1378,1289,0,0
161,-265,0,0,0,0,0,0,0,0,0,-1,1385,1289,0,0
168,-265,0,0,0,0,0,0,0,0,0,-1,1392,1289,0,0
175,-265,0,0,0,0,0,0,0,0,0,-1,1399,1289,0,0
182,-265,0,0,0,0,0,0,0,0,0,-1,1406,1289,0,0
189,-265,0,0,0,0,0,0,0,0,0,-1,1413,1289,0,0
196,-265,0,0,0,0,0,0,0,0,0,-1,1420,1289,0,0
203,-265,0,0,0,0,0,0,0,0,0,-1,1427,1289,0,0
210,-265,0,0,0,0,0,0,0,0,0,-1,1434,1289,0,0
217,-265,0,0,0,0,0,0,0,0,0,-1,1441,1289,0,0
224,-265,0,0,0,0,0,0,0,0,0,-1,1448,1289,0,0
231,-265,0,0,0,0,0,0,0,0,0,-1,1455,1289,0,0
238,-265,0,0,0,0,0,0,0,0,0,-1,1462,1289,0,0
245,-265,0,0,0,0,0,0,0,0,0,-1,1469,1289,0,0
252,-265,0,0,0,0,0,0,0,0,0,-1,1476,1289,0,0
259,-265,0,0,0,0,0,0,0,0,0,-1,1483,1289,0,0
266,-265,0,0,0,0,0,0,0,0,0,-1,1490,1289,0,0
273,-265,0,0,0,0,0,0,0,0,0,-1,1497,1289,0,0
280,-265,0,0,0,0,0,0,0,0,0,-1,1504,1289,0,0
287,-265,0,0,0,0,0,0,0,0,0,-1,1511,1289,0,0
294,-265,0,0,0,0,0,0,0,0,0,-1,1518,1289,0,0
301,-265,0,0,0,0,0,0,0,0,0,-1,1525,1289,0,0
308,-265,0,0,0,0,0,0,0,0,0,-1,1532,1289,0,0
315,-265,0,0,0,0,0,0,0,0,0,-1,1539,1289,0,0
322,-265,0,0,0,0,0,0,0,0,0,-1,1546,1289,0,0
329,-265,0,0,0,0,0,0,0,0,0,-1,1553,1289,0,0
336,-265,0,0,0,0,0,0,0,0,0,-1,1560,1289,0,0
343,-265,0,0,0,0,0,0,0,0,0,-1,1567,1289,0,0
350,-265,0,0,0,0,0,0,0,0,0,-1,1574,1289,0,0
357,-265,0,0,0,0,0,0,0,0,0,-1,1581,1289,0,0
364,-265,0,0,0,0,0,0,0,0,0,-1,1588,1289,0,0
371,-265,0,0,0,0,0,0,0,0,0,-1,1595,1289,0,0
378,-265,0,0,0,0,0,0,0,0,0,-1,1602,1289,0,0
385,-265,0,0,0,0,0,0,0,0,0,-1,1609,1289,0,0
392,-265,0,0,0,0,0,0,0,0,0,-1,1616,1289,0,0
399,-265,0,0,0,0,0,0,0,0,0,-1,1623,1289,0,0
406,-265,0,0,0,0,0,0,0,0,0,-1,1630,1289,0,0
413,-265,0,0,0,0,0,0,0,0,0,-1,1637,1289,0,0
420,-265,0,0,0,0,0,0,0,0,0,-1,1644,1289,0,0
427,-265,0,0,0,0,0,0,0,0,0,-1,1651,1289,0,0
434,-265,0,0,0,0,0,0,0,0,0,-1,1658,1289,0,0
441,-265,0,0,0,0,0,0,0,0,0,-1,1665,1289,0,0
448,-265,0,0,0,0,0,0,0,0,0,-1,1672,1289,0,0
455,-265,0,0,0,0,0,0,0,0,0,-1,1679,1289,0,0
462,-265,0,0,0,0,0,0,0,0,0,-1,1686,1289,0,0
469,-265,0,0,0,0,0,0,0,0,0,-1,1693,1289,0,0
476,-265,0,0,0,0,0,0,0,0,0,-1,1700,1289,0,0
483,-265,0,0,0,0,0,0,0,0,0,-1,1707,1289,0,0
490,-265,0,0,0,0,0,0,0,0,0,-1,1714,1289,0,0
497,-265,0,0,0,0,0,0,0,0,0,-1,1721,1289,0,0
504,-265,0,0,0,0,0,0,0,0,0,-1,1728,1289,0,0
511,-265,0,0,0,0,0,0,0,0,0,-1,1735,1289,0,0
518,-265,0,0,0,0,0,0,0,0,0,-1,1742,1289,0,0
525,-265,0,0,0,0,0,0,0,0,0,-1,1749,1289,0,0
532,-265,0,0,0,0,0,0,0,0,0,-1,1756,1289,0,0
539,-265,0,0,0,0,0,0,0,0,0,-1,1763,1289,0,0
546,-265,0,0,0,0,0,0,0,0,0,-1,1770,1289,0,0
553,-265,0,0,0,0,0,0,0,0,0,-1,1777,1289,0,0
560,-265,0,0,0,0,0,0,0,0,0,-1,1784,1289,0,0
567,-265,0,0,0,0,0,0,0,0,0,-1,1791,1289,0,0
574,-265,0,0,0,0,0,0,0,0,0,-1,1798,1289,0,0
581,-265,0,0,0,0,0,0,0,0,0,-1,1805,1289,0,0
588,-265,0,0,0,0,0,0,0,0,0,-1,1812,1289,0,0
595,-265,0,0,0,0,0,0,0,0,0,-1,1819,1289,0,0
602,-265,44.9189,2.68811,-0.0156563,0.0173979,-0.00723529,0.0189123,-0.0171706,-1.36447,0.0208406,0.0286066,1826,1289,44.919,-2.68811
609,-265,44.8784,2.59875,-0.00272325,0.013651,-0.00477411,0.0149413,-0.00401353,-1.30684,0.0115339,0.0299021,1833,1289,44.8784,-2.5988
616,-265,44.8875,2.61938,0.00872475,0.009624,-0.00302629,0.0122339,0.00611487,-0.859146,0.00706323,0.0334602,1840,1289,44.8875,-2.61939
623,-265,45.0284,2.68127,0.0142454,0.00595892,-0.00206612,0.014732,0.00547233,-0.231293,0.00859869,0.0463629,1847,1289,45.0285,-2.68129
630,-265,45.2517,2.7666,0.0151081,0.00344126,-0.00201919,0.0154477,0.00310168,-0.166617,0.00943604,0.0463275,1854,1289,45.2517,-2.76658
637,-265,45.6011,2.84448,0.0133379,0.00195539,-0.00203445,0.0136906,0.0016027,-0.171656,0.00864252,0.0486905,1861,1289,45.6011,-2.84454
644,-265,45.796,2.74084,0,0,0,0,0,0,0,-1,1868,1289,45.7961,-2.74079
651,-265,38.2179,0.64856,0,0,0,0,0,0,0,-1,1875,1289,38.2179,-0.648555
658,-265,36.2434,1.67969,0,0,0,0,0,0,0,-1,1882,1289,36.2434,-1.67963
665,-265,34.7902,1.43164,0,0,0,0,0,0,0,-1,1889,1289,34.7901,-1.43162
672,-265,20.0045,6.62671,0,0,0,0,0,0,0,-1,1896,1289,20.0045,-6.62668
679,-265,33.0193,9.96838,0,0,0,0,0,0,0,-1,1903,1289,33.0193,-9.96837
686,-265,33.0254,9.50977,0.00297322,-0.00109558,-0.00167881,0.00357647,-0.00169883,-0.344963,0.00310934,0.0352062,1910,1289,33.0254,-9.50973
693,-265,33.0314,9.06433,0.00209528,-0.000539658,-0.000391762,0.00215229,-0.000596672,-0.144517,0.00166967,0.0102264,1917,1289,33.0314,-9.0643
700,-265,33.02,8.62573,0.0015301,-0.000589666,5.74427e-05,0.00153166,-0.000591221,0.0270721,0.0012651,0.0107815,1924,1289,33.02,-8.62575
707,-265,33.0269,8.18872,0.000532693,-0.000463933,0.000468374,0.000718258,-0.000649498,0.377218,0.000790007,0.0108435,1931,1289,33.0268,-8.18876
714,-265,32.9994,7.7865,-0.000337306,-0.000356476,0.000771377,0.000424546,-0.00111833,0.779186,0.000920308,0.0112297,1938,1289,32.9994,-7.78644
721,-265,32.9594,7.35718,-0.000598549,-0.000105637,0.000761704,0.00044849,-0.00115268,0.941862,0.000953769,0.0117097,1945,1289,32.9594,-7.35713
728,-265,32.9375,6.94714,-0.000801392,0.000104103,0.000700415,0.000485358,-0.00118265,1.07232,0.000990676,0.0137134,1952,1289,32.9375,-6.94713
735,-265,32.9781,6.52661,-0.000545852,0.000390454,0.000374364,0.000521731,-0.000677128,1.23353,0.000694097,0.0164428,1959,1289,32.9782,-6.52662
742,-265,32.9301,6.10925,0.000466311,0.000833348,-0.000372185,0.0010648,0.000234859,-1.01445,0.000645972,0.0194002,1966,1289,32.93,-6.10931
749,-265,32.8523,5.55798,0.00282223,0.00141103,-0.00172446,0.00397985,0.000253399,-0.591204,0.00257293,0.0454078,1973,1289,32.8523,-5.55795
756,-265,32.9442,4.99561,0,0,0,0,0,0,0,-1,1980,1289,32.9442,-4.99562
763,-265,32.5039,6.22058,0,0,0,0,0,0,0,-1,1987,1289,32.5039,-6.22062
770,-265,32.1581,1.84326,0,0,0,0,0,0,0,-1,1994,1289,32.158,-1.84325
777,-265,32.1664,5.3457,0,0,0,0,0,0,0,-1,2001,1289,32.1664,-5.34568
784,-265,0,0,0,0,0,0,0,0,0,-1,2008,1289,0,0
791,-265,0,0,0,0,0,0,0,0,0,-1,2015,1289,0,0
798,-265,0,0,0,0,0,0,0,0,0,-1,2022,1289,0,0
805,-265,0,0,0,0,0,0,0,0,0,-1,2029,1289,0,0
812,-265,0,0,0,0,0,0,0,0,0,-1,2036,1289,0,0
-700,-272,0,0,0,0,0,0,0,0,0,-1,524,1296,0,0
-693,-272,0,0,0,0,0,0,0,0,0,-1,531,1296,0,0
-686,-272,0,0,0,0,0,0,0,0,0,-1,538,1296,0,0
-679,-272,0,0,0,0,0,0,0,0,0,-1,545,1296,0,0
-672,-272,0,0,0,0,0,0,0,0,0,-1,552,1296,0,0
-665,-272,0,0,0,0,0,0,0,0,0,-1,559,1296,0,0
-658,-272,-18.6953,0.101318,0,0,0,0,0,0,0,-1,566,1296,-18.6953,-0.101268
-651,-272,-19.5643,1.76074,0,0,0,0,0,0,0,-1,573,1296,-19.5643,-1.76073
-644,-272,-19.5433,1.52747,0,0,0,0,0,0,0,-1,580,1296,-19.5433,-1.52742
-637,-272,-19.4523,1.22437,0,0,0,0,0,0,0,-1,587,1296,-19.4523,-1.22431
-630,-272,-19.5844,0.638184,0,0,0,0,0,0,0,-1,594,1296,-19.5844,-0.638227
-623,-272,-18.2599,2.30176,0,0,0,0,0,0,0,-1,601,1296,-18.2599,-2.30181
-616,-272,-19.6708,3.71106,0,0,0,0,0,0,0,-1,608,1296,-19.6708,-3.71102
-609,-272,-19.647,3.70435,0.00934828,0.00634764,0.00290171,0.0111146,0.00458133,0.546803,0.00644992,0.0273204,615,1296,-19.647,-3.70431
-602,-272,-19.6898,4.04785,0.00649961,0.00426493,0.0022754,0.0079172,0.00284733,0.557167,0.00463065,0.0160067,622,1296,-19.6897,-4.04785
-595,-272,-19.7103,4.54834,0.00467315,0.00304086,0.00181154,0.00584391,0.00187011,0.573754,0.00344608,0.012653,629,1296,-19.7103,-4.54829
-588,-272,-19.7209,5.02039,0.00358843,0.00192186,0.00143496,0.00441451,0.00109578,0.522344,0.00265424,0.0115515,636,1296,-19.7209,-5.0204
-581,-272,-19.7527,5.4707,0.00305888,0.000921309,0.00116173,0.00356868,0.000411509,0.413523,0.0022545,0.0104039,643,1296,-19.7527,-5.47066
-574,-272,-19.7966,5.96399,0.00291135,0.000112823,0.00100046,0.00323222,-0.000208045,0.310357,0.0022274,0.0153433,650,1296,-19.7967,-5.96401
-567,-272,-19.8267,6.43286,0.00295782,-0.000439332,0.000815328,0.00314337,-0.000624879,0.223763,0.00233195,0.0230074,657,1296,-19.8267,-6.4329
-560,-272,-19.8495,6.93213,0.00284985,-0.000515857,0.000773879,0.00301926,-0.000685268,0.215512,0.00227591,0.0215375,664,1296,-19.8495,-6.93207
-553,-272,-19.7706,7.41089,0.00245666,-0.000197007,0.00100026,0.00279145,-0.000531799,0.322986,0.00206123,0.0215796,671,1296,-19.7706,-7.41089
-546,-272,-19.6805,7.86914,0,0,0,0,0,0,0,-1,678,1296,-19.6805,-7.86917
-539,-272,-18.9283,8.57861,0,0,0,0,0,0,0,-1,685,1296,-18.9283,-8.57865
-532,-272,-10.5572,4.53943,0,0,0,0,0,0,0,-1,692,1296,-10.5572,-4.53943
-525,-272,-11.9599,0.0393066,0,0,0,0,0,0,0,-1,699,1296,-11.9599,-0.0393577
-518,-272,-21.1357,-1.41382,0,0,0,0,0,0,0,-1,706,1296,-21.1357,1.41379
-511,-272,-23.2565,0.226318,0,0,0,0,0,0,0,-1,713,1296,-23.2565,-0.22626
-504,-272,-19.7397,0.114746,0,0,0,0,0,0,0,-1,720,1296,-19.7397,-0.114701
-497,-272,-19.2225,1.71301,0,0,0,0,0,0,0,-1,727,1296,-19.2225,-1.71302
-490,-272,-20.1948,2.4032,0,0,0,0,0,0,0,-1,734,1296,-20.1948,-2.40322
-483,-272,-15.3736,0.792603,0,0,0,0,0,0,0,-1,741,1296,-15.3736,-0.79263
-476,-272,0,0,0,0,0,0,0,0,0,-1,748,1296,0,0
-469,-272,0,0,0,0,0,0,0,0,0,-1,755,1296,0,0
-462,-272,0,0,0,0,0,0,0,0,0,-1,762,1296,0,0
-455,-272,0,0,0,0,0,0,0,0,0,-1,769,1296,0,0
-448,-272,0,0,0,0,0,0,0,0,0,-1,776,1296,0,0
-441,-272,0,0,0,0,0,0,0,0,0,-1,783,1296,0,0
-434,-272,0,0,0,0,0,0,0,0,0,-1,790,1296,0,0
-427,-272,0,0,0,0,0,0,0,0,0,-1,797,1296,0,0
-420,-272,0,0,0,0,0,0,0,0,0,-1,804,1296,0,0
-413,-272,0,0,0,0,0,0,0,0,0,-1,811,1296,0,0
-406,-272,0,0,0,0,0,0,0,0,0,-1,818,1296,0,0
-399,-272,0,0,0,0,0,0,0,0,0,-1,825,1296,0,0
-392,-272,0,0,0,0,0,0,0,0,0,-1,832,1296,0,0
-385,-272,0,0,0,0,0,0,0,0,0,-1,839,1296,0,0
-378,-272,0,0,0,0,0,0,0,0,0,-1,846,1296,0,0
-371,-272,0,0,0,0,0,0,0,0,0,-1,853,1296,0,0
-364,-272,0,0,0,0,0,0,0,0,0,-1,860,1296,0,0
-357,-272,0,0,0,0,0,0,0,0,0,-1,867,1296,0,0
-350,-272,0,0,0,0,0,0,0,0,0,-1,874,1296,0,0
-343,-272,0,0,0,0,0,0,0,0,0,-1,881,1296,0,0
-336,-272,0,0,0,0,0,0,0,0,0,-1,888,1296,0,0
-329,-272,0,0,0,0,0,0,0,0,0,-1,895,1296,0,0
-322,-272,0,0,0,0,0,0,0,0,0,-1,902,1296,0,0
-315,-272,0,0,0,0,0,0,0,0,0,-1,909,1296,0,0
-308,-272,0,0,0,0,0,0,0,0,0,-1,916,1296,0,0
-301,-272,0,0,0,0,0,0,0,0,0,-1,923,1296,0,0
-294,-272,0,0,0,0,0,0,0,0,0,-1,930,1296,0,0
-287,-272,0,0,0,0,0,0,0,0,0,-1,937,1296,0,0
-280,-272,0,0,0,0,0,0,0,0,0,-1,944,1296,0,0
-273,-272,0,0,0,0,0,0,0,0,0,-1,951,1296,0,0
-266,-272,0,0,0,0,0,0,0,0,0,-1,958,1296,0,0
-259,-272,0,0,0,0,0,0,0,0,0,-1,965,1296,0,0
-252,-272,0,0,0,0,0,0,0,0,0,-1,972,1296,0,0
-245,-272,0,0,0,0,0,0,0,0,0,-1,979,1296,0,0
-238,-272,0,0,0,0,0,0,0,0,0,-1,986,1296,0,0
-231,-272,0,0,0,0,0,0,0,0,0,-1,993,1296,0,0
-224,-272,0,0,0,0,0,0,0,0,0,-1,1000,1296,0,0
-217,-272,0,0,0,0,0,0,0,0,0,-1,1007,1296,0,0
-210,-272,0,0,0,0,0,0,0,0,0,-1,1014,1296,0,0
-203,-272,0,0,0,0,0,0,0,0,0,-1,1021,1296,0,0
-196,-272,0,0,0,0,0,0,0,0,0,-1,1028,1296,0,0
-189,-272,0,0,0,0,0,0,0,0,0,-1,1035,1296,0,0
-182,-272,0,0,0,0,0,0,0,0,0,-1,1042,1296,0,0
-175,-272,0,0,0,0,0,0,0,0,0,-1,1049,1296,0,0
-168,-272,0,0,0,0,0,0,0,0,0,-1,1056,1296,0,0
-161,-272,0,0,0,0,0,0,0,0,0,-1,1063,1296,0,0
-154,-272,0,0,0,0,0,0,0,0,0,-1,1070,1296,0,0
-147,-272,0,0,0,0,0,0,0,0,0,-1,1077,1296,0,0
-140,-272,0,0,0,0,0,0,0,0,0,-1,1084,1296,0,0
-133,-272,0,0,0,0,0,0,0,0,0,-1,1091,1296,0,0
-126,-272,0,0,0,0,0,0,0,0,0,-1,1098,1296,0,0
-119,-272,0,0,0,0,0,0,0,0,0,-1,1105,1296,0,0
-112,-272,0,0,0,0,0,0,0,0,0,-1,1112,1296,0,0
-105,-272,0,0,0,0,0,0,0,0,0,-1,1119,1296,0,0
-98,-272,0,0,0,0,0,0,0,0,0,-1,1126,1296,0,0
-91,-272,0,0,0,0,0,0,0,0,0,-1,1133,1296,0,0
-84,-272,0,0,0,0,0,0,0,0,0,-1,1140,1296,0,0
-77,-272,0,0,0,0,0,0,0,0,0,-1,1147,1296,0,0
-70,-272,0,0,0,0,0,0,0,0,0,-1,1154,1296,0,0
-63,-272,0,0,0,0,0,0,0,0,0,-1,1161,1296,0,0
-56,-272,0,0,0,0,0,0,0,0,0,-1,1168,1296,0,0
-49,-272,0,0,0,0,0,0,0,0,0,-1,1175,1296,0,0
-42,-272,0,0,0,0,0,0,0,0,0,-1,1182,1296,0,0
-35,-272,0,0,0,0,0,0,0,0,0,-1,1189,1296,0,0
-28,-272,0,0,0,0,0,0,0,0,0,-1,1196,1296,0,0
-21,-272,0,0,0,0,0,0,0,0,0,-1,1203,1296,0,0
-14,-272,0,0,0,0,0,0,0,0,0,-1,1210,1296,0,0
-7,-272,0,0,0,0,0,0,0,0,0,-1,1217,1296,0,0
0,-272,0,0,0,0,0,0,0,0,0,-1,1224,1296,0,0
7,-272,0,0,0,0,0,0,0,0,0,-1,1231,1296,0,0
14,-272,0,0,0,0,0,0,0,0,0,-1,1238,1296,0,0
21,-272,0,0,0,0,0,0,0,0,0,-1,1245,1296,0,0
28,-272,0,0,0,0,0,0,0,0,0,-1,1252,1296,0,0
35,-272,0,0,0,0,0,0,0,0,0,-1,1259,1296,0,0
42,-272,0,0,0,0,0,0,0,0,0,-1,1266,1296,0,0
49,-272,0,0,0,0,0,0,0,0,0,-1,1273,1296,0,0
56,-272,0,0,0,0,0,0,0,0,0,-1,1280,1296,0,0
63,-272,0,0,0,0,0,0,0,0,0,-1,1287,1296,0,0
70,-272,0,0,0,0,0,0,0,0,0,-1,1294,1296,0,0
77,-272,0,0,0,0,0,0,0,0,0,-1,1301,1296,0,0
84,-272,0,0,0,0,0,0,0,0,0,-1,1308,1296,0,0
91,-272,0,0,0,0,0,0,0,0,0,-1,1315,1296,0,0
98,-272,0,0,0,0,0,0,0,0,0,-1,1322,1296,0,0
105,-272,0,0,0,0,0,0,0,0,0,-1,1329,1296,0,0
112,-272,0,0,0,0,0,0,0,0,0,-1,1336,1296,0,0
119,-272,0,0,0,0,0,0,0,0,0,-1,1343,1296,0,0
126,-272,0,0,0,0,0,0,0,0,0,-1,1350,1296,0,0
133,-272,0,0,0,0,0,0,0,0,0,-1,1357,1296,0,0
140,-272,0,0,0,0,0,0,0,0,0,-1,1364,1296,0,0
147,-272,0,0,0,0,0,0,0,0,0,-1,1371,1296,0,0
154,-272,0,0,0,0,0,0,0,0,0,-1,1378,1296,0,0
161,-272,0,0,0,0,0,0,0,0,0,-1,1385,1296,0,0
168,-272,0,0,0,0,0,0,0,0,0,-1,1392,1296,0,0
175,-272,0,0,0,0,0,0,0,0,0,-1,1399,1296,0,0
182,-272,0,0,0,0,0,0,0,0,0,-1,1406,1296,0,0
189,-272,0,0,0,0,0,0,0,0,0,-1,1413,1296,0,0
196,-272,0,0,0,0,0,0,0,0,0,-1,1420,1296,0,0
203,-272,0,0,0,0,0,0,0,0,0,-1,1427,1296,0,0
210,-272,0,0,0,0,0,0,0,0,0,-1,1434,1296,0,0
217,-272,0,0,0,0,0,0,0,0,0,-1,1441,1296,0,0
224,-272,0,0,0,0,0,0,0,0,0,-1,1448,1296,0,0
231,-272,0,0,0,0,0,0,0,0,0,-1,1455,1296,0,0
238,-272,0,0,0,0,0,0,0,0,0,-1,1462,1296,0,0
245,-272,0,0,0,0,0,0,0,0,0,-1,1469,1296,0,0
252,-272,0,0,0,0,0,0,0,0,0,-1,1476,1296,0,0
259,-272,0,0,0,0,0,0,0,0,0,-1,1483,1296,0,0
266,-272,0,0,0,0,0,0,0,0,0,-1,1490,1296,0,0
273,-272,0,0,0,0,0,0,0,0,0,-1,1497,1296,0,0
280,-272,0,0,0,0,0,0,0,0,0,-1,1504,1296,0,0
287,-272,0,0,0,0,0,0,0,0,0,-1,1511,1296,0,0
294,-272,0,0,0,0,0,0,0,0,0,-1,1518,1296,0,0
301,-272,0,0,0,0,0,0,0,0,0,-1,1525,1296,0,0
308,-272,0,0,0,0,0,0,0,0,0,-1,1532,1296,0,0
315,-272,0,0,0,0,0,0,0,0,0,-1,1539,1296,0,0
322,-272,0,0,0,0,0,0,0,0,0,-1,1546,1296,0,0
329,-272,0,0,0,0,0,0,0,0,0,-1,1553,1296,0,0
336,-272,0,0,0,0,0,0,0,0,0,-1,1560,1296,0,0
343,-272,0,0,0,0,0,0,0,0,0,-1,1567,1296,0,0
350,-272,0,0,0,0,0,0,0,0,0,-1,1574,1296,0,0
357,-272,0,0,0,0,0,0,0,0,0,-1,1581,1296,0,0
364,-272,0,0,0,0,0,0,0,0,0,-1,1588,1296,0,0
371,-272,0,0,0,0,0,0,0,0,0,-1,1595,1296,0,0
378,-272,0,0,0,0,0,0,0,0,0,-1,1602,1296,0,0
385,-272,0,0,0,0,0,0,0,0,0,-1,1609,1296,0,0
392,-272,0,0,0,0,0,0,0,0,0,-1,1616,1296,0,0
399,-272,0,0,0,0,0,0,0,0,0,-1,1623,1296,0,0
406,-272,0,0,0,0,0,0,0,0,0,-1,1630,1296,0,0
413,-272,0,0,0,0,0,0,0,0,0,-1,1637,1296,0,0
420,-272,0,0,0,0,0,0,0,0,0,-1,1644,1296,0,0
427,-272,0,0,0,0,0,0,0,0,0,-1,1651,1296,0,0
434,-272,0,0,0,0,0,0,0,0,0,-1,1658,1296,0,0
441,-272,0,0,0,0,0,0,0,0,0,-1,1665,1296,0,0
448,-272,0,0,0,0,0,0,0,0,0,-1,1672,1296,0,0
455,-272,0,0,0,0,0,0,0,0,0,-1,1679,1296,0,0
462,-272,0,0,0,0,0,0,0,0,0,-1,1686,1296,0,0
469,-272,0,0,0,0,0,0,0,0,0,-1,1693,1296,0,0
476,-272,0,0,0,0,0,0,0,0,0,-1,1700,1296,0,0
483,-272,0,0,0,0,0,0,0,0,0,-1,1707,1296,0,0
490,-272,0,0,0,0,0,0,0,0,0,-1,1714,1296,0,0
497,-272,0,0,0,0,0,0,0,0,0,-1,1721,1296,0,0
504,-272,0,0,0,0,0,0,0,0,0,-1,1728,1296,0,0
511,-272,0,0,0,0,0,0,0,0,0,-1,1735,1296,0,0
518,-272,0,0,0,0,0,0,0,0,0,-1,1742,1296,0,0
525,-272,0,0,0,0,0,0,0,0,0,-1,1749,1296,0,0
532,-272,0,0,0,0,0,0,0,0,0,-1,1756,1296,0,0
539,-272,0,0,0,0,0,0,0,0,0,-1,1763,1296,0,0
546,-272,0,0,0,0,0,0,0,0,0,-1,1770,1296,0,0
553,-272,0,0,0,0,0,0,0,0,0,-1,1777,1296,0,0
560,-272,0,0,0,0,0,0,0,0,0,-1,1784,1296,0,0
567,-272,0,0,0,0,0,0,0,0,0,-1,1791,1296,0,0
574,-272,0,0,0,0,0,0,0,0,0,-1,1798,1296,0,0
581,-272,0,0,0,0,0,0,0,0,0,-1,1805,1296,0,0
588,-272,0,0,0,0,0,0,0,0,0,-1,1812,1296,0,0
595,-272,0,0,0,0,0,0,0,0,0,-1,1819,1296,0,0
602,-272,44.8875,2.64954,-0.0118989,0.0205796,-0.00847202,0.0226566,-0.013976,-1.33037,0.0213469,0.0308554,1826,1296,44.8875,-2.64958
609,-272,44.7509,2.42139,0.00294291,0.0161766,-0.0049458,0.0178207,0.00129878,-1.24986,0.0114721,0.0382019,1833,1296,44.7509,-2.42139
616,-272,44.9149,2.46118,0,0,0,0,0,0,0,-1,1840,1296,44.9149,-2.46119
623,-272,45.0818,2.6499,0.0158826,0.00771234,-0.00130381,0.0160856,0.00750932,-0.154471,0.00929382,0.0437492,1847,1296,45.0818,-2.64985
630,-272,45.4159,2.96301,0.0156034,0.00503277,-0.00121891,0.0157421,0.00489404,-0.113329,0.00930288,0.0433068,1854,1296,45.416,-2.96299
637,-272,46.068,3.55872,0,0,0,0,0,0,0,-1,1861,1296,46.068,-3.55876
644,-272,43.7391,3.16553,0,0,0,0,0,0,0,-1,1868,1296,43.7391,-3.1655
651,-272,31.4108,2.48743,0,0,0,0,0,0,0,-1,1875,1296,31.4107,-2.48747
658,-272,35.1527,2.10571,0,0,0,0,0,0,0,-1,1882,1296,35.1527,-2.10573
665,-272,22.0238,4.14417,0,0,0,0,0,0,0,-1,1889,1296,22.0238,-4.14421
672,-272,22.661,7.21765,0,0,0,0,0,0,0,-1,1896,1296,22.661,-7.21761
679,-272,32.5642,9.98132,0,0,0,0,0,0,0,-1,1903,1296,32.5642,-9.98132
686,-272,32.5697,9.52966,0.00266847,-0.00105565,-0.00170813,0.00333326,-0.00172044,-0.371154,0.00296687,0.02166,1910,1296,32.5697,-9.52967
693,-272,32.5814,9.08887,0.00172327,-0.000444016,-0.000350638,0.00177858,-0.000499333,-0.156471,0.00138256,0.0121801,1917,1296,32.5814,-9.08887
700,-272,32.5837,8.6571,0.00113164,-0.000483913,0.000123536,0.00114103,-0.000493305,0.0758789,0.000967971,0.0122986,1924,1296,32.5838,-8.65714
707,-272,32.5867,8.2041,0.000198694,-0.000424755,0.000545586,0.00051533,-0.00074139,0.525852,0.00072947,0.0114049,1931,1296,32.5867,-8.20405
714,-272,32.5603,7.77844,-0.000636936,-0.000384345,0.000861213,0.000359783,-0.00138106,0.858204,0.00106117,0.0121207,1938,1296,32.5603,-7.77845
721,-272,32.5203,7.38953,-0.00100424,-0.000235076,0.000891928,0.000351648,-0.00159097,0.988946,0.00119523,0.0143308,1945,1296,32.5203,-7.38957
728,-272,32.5244,6.93372,-0.00140577,-0.000143627,0.000899241,0.000323886,-0.00187328,1.09136,0.00136964,0.0160108,1952,1296,32.5244,-6.93368
735,-272,32.5226,6.5282,-0.00141349,5.76219e-06,0.000633156,0.000247165,-0.00165489,1.20654,0.00119421,0.0154299,1959,1296,32.5226,-6.5282
742,-272,32.4153,6.13013,-0.000722674,0.000267969,-5.34445e-05,0.000270844,-0.000725549,-1.51705,0.0005949,0.0250611,1966,1296,32.4153,-6.1301
749,-272,32.3231,5.67041,0.00125868,0.000578035,-0.00139005,0.00234946,-0.000512747,-0.665346,0.00176227,0.0496014,1973,1296,32.3231,-5.6704
756,-272,32.4388,5.31665,0,0,0,0,0,0,0,-1,1980,1296,32.4389,-5.31667
763,-272,31.1876,2.48035,0,0,0,0,0,0,0,-1,1987,1296,31.1877,-2.4804
770,-272,25.9485,3.67749,0,0,0,0,0,0,0,-1,1994,1296,25.9485,-3.67744
777,-272,32.3619,6.13257,0,0,0,0,0,0,0,-1,2001,1296,32.362,-6.1326
784,-272,0,0,0,0,0,0,0,0,0,-1,2008,1296,0,0
791,-272,0,0,0,0,0,0,0,0,0,-1,2015,1296,0,0
798,-272,0,0,0,0,0,0,0,0,0,-1,2022,1296,0,0
805,-272,0,0,0,0,0,0,0,0,0,-1,2029,1296,0,0
812,-272,0,0,0,0,0,0,0,0,0,-1,2036,1296,0,0
-700,-279,0,0,0,0,0,0,0,0,0,-1,524,1303,0,0
-693,-279,0,0,0,0,0,0,0,0,0,-1,531,1303,0,0
-686,-279,0,0,0,0,0,0,0,0,0,-1,538,1303,0,0
-679,-279,0,0,0,0,0,0,0,0,0,-1,545,1303,0,0
-672,-279,0,0,0,0,0,0,0,0,0,-1,552,1303,0,0
-665,-279,0,0,0,0,0,0,0,0,0,-1,559,1303,0,0
-658,-279,-18.0391,1.31946,0,0,0,0,0,0,0,-1,566,1303,-18.0391,-1.31942
-651,-279,-18.2878,1.5625,0,0,0,0,0,0,0,-1,573,1303,-18.2879,-1.56247
-644,-279,-19.7198,0.645874,0,0,0,0,0,0,0,-1,580,1303,-19.7198,-0.645909
-637,-279,-19.5298,0.346313,0,0,0,0,0,0,0,-1,587,1303,-19.5298,-0.346318
-630,-279,-19.8475,-0.60144,0,0,0,0,0,0,0,-1,594,1303,-19.8475,0.60148
-623,-279,-19.9731,2.19092,0,0,0,0,0,0,0,-1,601,1303,-19.9731,-2.19091
-616,-279,-19.9052,2.7644,0,0,0,0,0,0,0,-1,608,1303,-19.9052,-2.76436
-609,-279,-19.5038,3.45044,0.00968338,0.00730785,0.00388482,0.012558,0.00443328,0.637038,0.00735401,0.0471841,615,1303,-19.5038,-3.45041
-602,-279,-19.1945,4.05933,0.00675412,0.00553307,0.00309163,0.00929493,0.00299226,0.687914,0.00547871,0.0161511,622,1303,-19.1944,-4.05937
-595,-279,-19.2301,4.53918,0.00479699,0.00394492,0.00236844,0.0067774,0.0019645,0.696409,0.00402648,0.0112867,629,1303,-19.2301,-4.53916
-588,-279,-19.2457,5.01465,0.00358516,0.00256546,0.00177149,0.00491871,0.00123191,0.64528,0.00295536,0.0111892,636,1303,-19.2456,-5.01468
-581,-279,-19.2787,5.46155,0.00293323,0.00138668,0.0013165,0.00368676,0.000633153,0.519857,0.00227633,0.0118884,643,1303,-19.2787,-5.46153
-574,-279,-19.3082,5.94543,0.00262891,0.000449533,0.00100794,0.0030236,5.48485e-05,0.373223,0.0019977,0.0119288,650,1303,-19.3081,-5.94537
-567,-279,-19.3195,6.43848,0.00259272,-0.000265498,0.000739157,0.00277255,-0.000445334,0.238663,0.0020133,0.0174276,657,1303,-19.3195,-6.43854
-560,-279,-19.336,6.95813,0.00263693,-0.000594393,0.000593404,0.00274246,-0.00069992,0.175994,0.00210084,0.0173905,664,1303,-19.336,-6.95812
-553,-279,-19.3219,7.44458,0.00264349,-0.000483644,0.000718883,0.00280083,-0.000640989,0.215475,0.00211354,0.0130687,671,1303,-19.3219,-7.44455
-546,-279,-19.2641,7.89868,0.00214334,0.00014127,0.000944501,0.00251859,-0.000233977,0.378173,0.00176224,0.0240319,678,1303,-19.2641,-7.89866
-539,-279,-19.4467,8.42456,0,0,0,0,0,0,0,-1,685,1303,-19.4467,-8.42456
-532,-279,-14.9813,7.89917,0,0,0,0,0,0,0,-1,692,1303,-14.9813,-7.89918
-525,-279,-11.7063,-0.539185,0,0,0,0,0,0,0,-1,699,1303,-11.7063,0.539166
-518,-279,-16.8138,1.11963,0,0,0,0,0,0,0,-1,706,1303,-16.8138,-1.11968
-511,-279,-20.1063,-1.37915,0,0,0,0,0,0,0,-1,713,1303,-20.1062,1.37918
-504,-279,-18.3766,1.04578,0,0,0,0,0,0,0,-1,720,1303,-18.3767,-1.04577
-497,-279,-19.0046,2.08911,0,0,0,0,0,0,0,-1,727,1303,-19.0046,-2.08905
-490,-279,-20.0176,2.55188,0,0,0,0,0,0,0,-1,734,1303,-20.0176,-2.55183
-483,-279,-20.8064,2.99792,0,0,0,0,0,0,0,-1,741,1303,-20.8064,-2.99797
-476,-279,0,0,0,0,0,0,0,0,0,-1,748,1303,0,0
-469,-279,0,0,0,0,0,0,0,0,0,-1,755,1303,0,0
-462,-279,0,0,0,0,0,0,0,0,0,-1,762,1303,0,0
-455,-279,0,0,0,0,0,0,0,0,0,-1,769,1303,0,0
-448,-279,0,0,0,0,0,0,0,0,0,-1,776,1303,0,0
-441,-279,0,0,0,0,0,0,0,0,0,-1,783,1303,0,0
-434,-279,0,0,0,0,0,0,0,0,0,-1,790,1303,0,0
-427,-279,0,0,0,0,0,0,0,0,0,-1,797,1303,0,0
-420,-279,0,0,0,0,0,0,0,0,0,-1,804,1303,0,0
-413,-279,0,0,0,0,0,0,0,0,0,-1,811,1303,0,0
-406,-279,0,0,0,0,0,0,0,0,0,-1,818,1303,0,0
-399,-279,0,0,0,0,0,0,0,0,0,-1,825,1303,0,0
-392,-279,0,0,0,0,0,0,0,0,0,-1,832,1303,0,0
-385,-279,0,0,0,0,0,0,0,0,0,-1,839,1303,0,0
-378,-279,0,0,0,0,0,0,0,0,0,-1,846,1303,0,0
-371,-279,0,0,0,0,0,0,0,0,0,-1,853,1303,0,0
-364,-279,0,0,0,0,0,0,0,0,0,-1,860,1303,0,0
-357,-279,0,0,0,0,0,0,0,0,0,-1,867,1303,0,0
-350,-279,0,0,0,0,0,0,0,0,0,-1,874,1303,0,0
-343,-279,0,0,0,0,0,0,0,0,0,-1,881,1303,0,0
-336,-279,0,0,0,0,0,0,0,0,0,-1,888,1303,0,0
-329,-279,0,0,0,0,0,0,0,0,0,-1,895,1303,0,0
-322,-279,0,0,0,0,0,0,0,0,0,-1,902,1303,0,0
-315,-279,0,0,0,0,0,0,0,0,0,-1,909,1303,0,0
-308,-279,0,0,0,0,0,0,0,0,0,-1,916,1303,0,0
-301,-279,0,0,0,0,0,0,0,0,0,-1,923,1303,0,0
-294,-279,0,0,0,0,0,0,0,0,0,-1,930,1303,0,0
-287,-279,0,0,0,0,0,0,0,0,0,-1,937,1303,0,0
-280,-279,0,0,0,0,0,0,0,0,0,-1,944,1303,0,0
-273,-279,0,0,0,0,0,0,0,0,0,-1,951,1303,0,0
-266,-279,0,0,0,0,0,0,0,0,0,-1,958,1303,0,0
-259,-279,0,0,0,0,0,0,0,0,0,-1,965,1303,0,0
-252,-279,0,0,0,0,0,0,0,0,0,-1,972,1303,0,0
-245,-279,0,0,0,0,0,0,0,0,0,-1,979,1303,0,0
-238,-279,0,0,0,0,0,0,0,0,0,-1,986,1303,0,0
-231,-279,0,0,0,0,0,0,0,0,0,-1,993,1303,0,0
-224,-279,0,0,0,0,0,0,0,0,0,-1,1000,1303,0,0
-217,-279,0,0,0,0,0,0,0,0,0,-1,1007,1303,0,0
-210,-279,0,0,0,0,0,0,0,0,0,-1,1014,1303,0,0
-203,-279,0,0,0,0,0,0,0,0,0,-1,1021,1303,0,0
-196,-279,0,0,0,0,0,0,0,0,0,-1,1028,1303,0,0
-189,-279,0,0,0,0,0,0,0,0,0,-1,1035,1303,0,0
-182,-279,0,0,0,0,0,0,0,0,0,-1,1042,1303,0,0
-175,-279,0,0,0,0,0,0,0,0,0,-1,1049,1303,0,0
-168,-279,0,0,0,0,0,0,0,0,0,-1,1056,1303,0,0
-161,-279,0,0,0,0,0,0,0,0,0,-1,1063,1303,0,0
-154,-279,0,0,0,0,0,0,0,0,0,-1,1070,1303,0,0
-147,-279,0,0,0,0,0,0,0,0,0,-1,1077,1303,0,0
-140,-279,0,0,0,0,0,0,0,0,0,-1,1084,1303,0,0
-133,-279,0,0,0,0,0,0,0,0,0,-1,1091,1303,0,0
-126,-279,0,0,0,0,0,0,0,0,0,-1,1098,1303,0,0
-119,-279,0,0,0,0,0,0,0,0,0,-1,1105,1303,0,0
-112,-279,0,0,0,0,0,0,0,0,0,-1,1112,1303,0,0
-105,-279,0,0,0,0,0,0,0,0,0,-1,1119,1303,0,0
-98,-279,0,0,0,0,0,0,0,0,0,-1,1126,1303,0,0
-91,-279,0,0,0,0,0,0,0,0,0,-1,1133,1303,0,0
-84,-279,0,0,0,0,0,0,0,0,0,-1,1140,1303,0,0
-77,-279,0,0,0,0,0,0,0,0,0,-1,1147,1303,0,0
-70,-279,0,0,0,0,0,0,0,0,0,-1,1154,1303,0,0
-63,-279,0,0,0,0,0,0,0,0,0,-1,1161,1303,0,0
-56,-279,0,0,0,0,0,0,0,0,0,-1,1168,1303,0,0
-49,-279,0,0,0,0,0,0,0,0,0,-1,1175,1303,0,0
-42,-279,0,0,0,0,0,0,0,0,0,-1,1182,1303,0,0
-35,-279,0,0,0,0,0,0,0,0,0,-1,1189,1303,0,0
-28,-279,0,0,0,0,0,0,0,0,0,-1,1196,1303,0,0
-21,-279,0,0,0,0,0,0,0,0,0,-1,1203,1303,0,0
-14,-279,0,0,0,0,0,0,0,0,0,-1,1210,1303,0,0
-7,-279,0,0,0,0,0,0,0,0,0,-1,1217,1303,0,0
0,-279,0,0,0,0,0,0,0,0,0,-1,1224,1303,0,0
7,-279,0,0,0,0,0,0,0,0,0,-1,1231,1303,0,0
14,-279,0,0,0,0,0,0,0,0,0,-1,1238,1303,0,0
21,-279,0,0,0,0,0,0,0,0,0,-1,1245,1303,0,0
28,-279,0,0,0,0,0,0,0,0,0,-1,1252,1303,0,0
35,-279,0,0,0,0,0,0,0,0,0,-1,1259,1303,0,0
42,-279,0,0,0,0,0,0,0,0,0,-1,1266,1303,0,0
49,-279,0,0,0,0,0,0,0,0,0,-1,1273,1303,0,0
56,-279,0,0,0,0,0,0,0,0,0,-1,1280,1303,0,0
63,-279,0,0,0,0,0,0,0,0,0,-1,1287,1303,0,0
70,-279,0,0,0,0,0,0,0,0,0,-1,1294,1303,0,0
77,-279,0,0,0,0,0,0,0,0,0,-1,1301,1303,0,0
84,-279,0,0,0,0,0,0,0,0,0,-1,1308,1303,0,0
91,-279,0,0,0,0,0,0,0,0,0,-1,1315,1303,0,0
98,-279,0,0,0,0,0,0,0,0,0,-1,1322,1303,0,0
105,-279,0,0,0,0,0,0,0,0,0,-1,1329,1303,0,0
112,-279,0,0,0,0,0,0,0,0,0,-1,1336,1303,0,0
119,-279,0,0,0,0,0,0,0,0,0,-1,1343,1303,0,0
126,-279,0,0,0,0,0,0,0,0,0,-1,1350,1303,0,0
133,-279,0,0,0,0,0,0,0,0,0,-1,1357,1303,0,0
140,-279,0,0,0,0,0,0,0,0,0,-1,1364,1303,0,0
147,-279,0,0,0,0,0,0,0,0,0,-1,1371,1303,0,0
154,-279,0,0,0,0,0,0,0,0,0,-1,1378,1303,0,0
161,-279,0,0,0,0,0,0,0,0,0,-1,1385,1303,0,0
168,-279,0,0,0,0,0,0,0,0,0,-1,1392,1303,0,0
175,-279,0,0,0,0,0,0,0,0,0,-1,1399,1303,0,0
182,-279,0,0,0,0,0,0,0,0,0,-1,1406,1303,0,0
189,-279,0,0,0,0,0,0,0,0,0,-1,1413,1303,0,0
196,-279,0,0,0,0,0,0,0,0,0,-1,1420,1303,0,0
203,-279,0,0,0,0,0,0,0,0,0,-1,1427,1303,0,0
210,-279,0,0,0,0,0,0,0,0,0,-1,1434,1303,0,0
217,-279,0,0,0,0,0,0,0,0,0,-1,1441,1303,0,0
224,-279,0,0,0,0,0,0,0,0,0,-1,1448,1303,0,0
231,-279,0,0,0,0,0,0,0,0,0,-1,1455,1303,0,0
238,-279,0,0,0,0,0,0,0,0,0,-1,1462,1303,0,0
245,-279,0,0,0,0,0,0,0,0,0,-1,1469,1303,0,0
252,-279,0,0,0,0,0,0,0,0,0,-1,1476,1303,0,0
259,-279,0,0,0,0,0,0,0,0,0,-1,1483,1303,0,0
266,-279,0,0,0,0,0,0,0,0,0,-1,1490,1303,0,0
273,-279,0,0,0,0,0,0,0,0,0,-1,1497,1303,0,0
280,-279,0,0,0,0,0,0,0,0,0,-1,1504,1303,0,0
287,-279,0,0,0,0,0,0,0,0,0,-1,1511,1303,0,0
294,-279,0,0,0,0,0,0,0,0,0,-1,1518,1303,0,0
301,-279,0,0,0,0,0,0,0,0,0,-1,1525,1303,0,0
308,-279,0,0,0,0,0,0,0,0,0,-1,1532,1303,0,0
315,-279,0,0,0,0,0,0,0,0,0,-1,1539,1303,0,0
322,-279,0,0,0,0,0,0,0,0,0,-1,1546,1303,0,0
329,-279,0,0,0,0,0,0,0,0,0,-1,1553,1303,0,0
336,-279,0,0,0,0,0,0,0,0,0,-1,1560,1303,0,0
343,-279,0,0,0,0,0,0,0,0,0,-1,1567,1303,0,0
350,-279,0,0,0,0,0,0,0,0,0,-1,1574,1303,0,0
357,-279,0,0,0,0,0,0,0,0,0,-1,1581,1303,0,0
364,-279,0,0,0,0,0,0,0,0,0,-1,1588,1303,0,0
371,-279,0,0,0,0,0,0,0,0,0,-1,1595,1303,0,0
378,-279,0,0,0,0,0,0,0,0,0,-1,1602,1303,0,0
385,-279,0,0,0,0,0,0,0,0,0,-1,1609,1303,0,0
392,-279,0,0,0,0,0,0,0,0,0,-1,1616,1303,0,0
399,-279,0,0,0,0,0,0,0,0,0,-1,1623,1303,0,0
406,-279,0,0,0,0,0,0,0,0,0,-1,1630,1303,0,0
413,-279,0,0,0,0,0,0,0,0,0,-1,1637,1303,0,0
420,-279,0,0,0,0,0,0,0,0,0,-1,1644,1303,0,0
427,-279,0,0,0,0,0,0,0,0,0,-1,1651,1303,0,0
434,-279,0,0,0,0,0,0,0,0,0,-1,1658,1303,0,0
441,-279,0,0,0,0,0,0,0,0,0,-1,1665,1303,0,0
448,-279,0,0,0,0,0,0,0,0,0,-1,1672,1303,0,0
455,-279,0,0,0,0,0,0,0,0,0,-1,1679,1303,0,0
462,-279,0,0,0,0,0,0,0,0,0,-1,1686,1303,0,0
469,-279,0,0,0,0,0,0,0,0,0,-1,1693,1303,0,0
476,-279,0,0,0,0,0,0,0,0,0,-1,1700,1303,0,0
483,-279,0,0,0,0,0,0,0,0,0,-1,1707,1303,0,0
490,-279,0,0,0,0,0,0,0,0,0,-1,1714,1303,0,0
497,-279,0,0,0,0,0,0,0,0,0,-1,1721,1303,0,0
504,-279,0,0,0,0,0,0,0,0,0,-1,1728,1303,0,0
511,-279,0,0,0,0,0,0,0,0,0,-1,1735,1303,0,0
518,-279,0,0,0,0,0,0,0,0,0,-1,1742,1303,0,0
525,-279,0,0,0,0,0,0,0,0,0,-1,1749,1303,0,0
532,-279,0,0,0,0,0,0,0,0,0,-1,1756,1303,0,0
539,-279,0,0,0,0,0,0,0,0,0,-1,1763,1303,0,0
546,-279,0,0,0,0,0,0,0,0,0,-1,1770,1303,0,0
553,-279,0,0,0,0,0,0,0,0,0,-1,1777,1303,0,0
560,-279,0,0,0,0,0,0,0,0,0,-1,1784,1303,0,0
567,-279,0,0,0,0,0,0,0,0,0,-1,1791,1303,0,0
574,-279,0,0,0,0,0,0,0,0,0,-1,1798,1303,0,0
581,-279,0,0,0,0,0,0,0,0,0,-1,1805,1303,0,0
588,-279,0,0,0,0,0,0,0,0,0,-1,1812,1303,0,0
595,-279,0,0,0,0,0,0,0,0,0,-1,1819,1303,0,0
602,-279,44.8561,2.57336,-0.00654827,0.0243298,-0.00976314,0.0271577,-0.00937623,-1.28886,0.0219098,0.0428868,1826,1303,44.8561,-2.57339
609,-279,44.5286,1.93823,0.00854269,0.0191449,-0.00518767,0.0212609,0.00642667,-1.1835,0.0125908,0.0497014,1833,1303,44.5286,-1.93827
616,-279,44.389,1.84753,0,0,0,0,0,0,0,-1,1840,1303,44.389,-1.84757
623,-279,44.9873,2.31921,0.0149328,0.0102152,-0.00102858,0.0151473,0.0100007,-0.205601,0.00889371,0.0463369,1847,1303,44.9873,-2.31918
630,-279,45.6045,3.02197,0.0147948,0.0070285,-0.000576198,0.0148373,0.00698598,-0.0736548,0.00857117,0.0465358,1854,1303,45.6045,-3.02201
637,-279,46.2701,3.74939,0,0,0,0,0,0,0,-1,1861,1303,46.2701,-3.74937
644,-279,33.5021,3.40234,0,0,0,0,0,0,0,-1,1868,1303,33.5021,-3.40237
651,-279,29.8456,2.3562,0,0,0,0,0,0,0,-1,1875,1303,29.8455,-2.35615
658,-279,21.5076,7.65649,0,0,0,0,0,0,0,-1,1882,1303,21.5076,-7.65648
665,-279,18.9794,6.09607,0,0,0,0,0,0,0,-1,1889,1303,18.9793,-6.09601
672,-279,23.5206,8.32507,0,0,0,0,0,0,0,-1,1896,1303,23.5206,-8.32512
679,-279,32.0908,9.95923,0,0,0,0,0,0,0,-1,1903,1303,32.0908,-9.95927
686,-279,32.1351,9.52356,0.00269751,-0.00110279,-0.00172425,0.00336321,-0.00176849,-0.368452,0.0030101,0.0245864,1910,1303,32.1351,-9.52361
693,-279,32.137,9.09644,0.00172161,-0.000484148,-0.000473584,0.00181899,-0.000581529,-0.202799,0.00144602,0.0156961,1917,1303,32.137,-9.09639
700,-279,32.1335,8.67529,0.00102684,-0.000462848,2.54828e-05,0.00102728,-0.000463284,0.0170994,0.000880871,0.0116906,1924,1303,32.1335,-8.67528
707,-279,32.1195,8.21448,7.72866e-05,-0.000454999,0.000503667,0.000380804,-0.000758516,0.54234,0.000669727,0.00915104,1931,1303,32.1195,-8.21447
714,-279,32.0986,7.79163,-0.000811332,-0.000485446,0.000907831,0.000273949,-0.00157073,0.874196,0.0011494,0.0106808,1938,1303,32.0986,-7.79159
721,-279,32.1102,7.37878,-0.0013546,-0.000500322,0.00109654,0.000249338,-0.00210426,0.971123,0.00149291,0.013787,1945,1303,32.1102,-7.37879
728,-279,32.1274,6.95691,-0.00199687,-0.000600663,0.00127892,0.000158278,-0.00275581,1.03523,0.00189218,0.0154567,1952,1303,32.1275,-6.95687
735,-279,32.0953,6.56445,-0.00231815,-0.000678292,0.00118844,-5.43786e-05,-0.00294206,1.08736,0.0019435,0.0154996,1959,1303,32.0954,-6.5644
742,-279,31.9506,6.15979,-0.00203407,-0.000742938,0.000722358,-0.000419713,-0.00235729,1.15006,0.00145199,0.0322492,1966,1303,31.9506,-6.15981
749,-279,31.9376,5.7019,0,0,0,0,0,0,0,-1,1973,1303,31.9377,-5.70187
756,-279,23.2091,4.43433,0,0,0,0,0,0,0,-1,1980,1303,23.2092,-4.43432
763,-279,27.1613,3.46265,0,0,0,0,0,0,0,-1,1987,1303,27.1613,-3.4627
770,-279,21.5828,3.54199,0,0,0,0,0,0,0,-1,1994,1303,21.5827,-3.54198
777,-279,32.5369,6.99609,0,0,0,0,0,0,0,-1,2001,1303,32.5369,-6.99608
784,-279,0,0,0,0,0,0,0,0,0,-1,2008,1303,0,0
791,-279,0,0,0,0,0,0,0,0,0,-1,2015,1303,0,0
798,-279,0,0,0,0,0,0,0,0,0,-1,2022,1303,0,0
805,-279,0,0,0,0,0,0,0,0,0,-1,2029,1303,0,0
812,-279,0,0,0,0,0,0,0,0,0,-1,2036,1303,0,0
-700,-286,0,0,0,0,0,0,0,0,0,-1,524,1310,0,0
-693,-286,0,0,0,0,0,0,0,0,0,-1,531,1310,0,0
-686,-286,0,0,0,0,0,0,0,0,0,-1,538,1310,0,0
-679,-286,0,0,0,0,0,0,0,0,0,-1,545,1310,0,0
-672,-286,0,0,0,0,0,0,0,0,0,-1,552,1310,0,0
-665,-286,0,0,0,0,0,0,0,0,0,-1,559,1310,0,0
-658,-286,-18.8017,-0.794922,0,0,0,0,0,0,0,-1,566,1310,-18.8017,0.79496
-651,-286,-18.798,0.594727,0,0,0,0,0,0,0,-1,573,1310,-18.798,-0.594671
-644,-286,-19.1089,1.80017,0,0,0,0,0,0,0,-1,580,1310,-19.1089,-1.80021
-637,-286,-19.4593,2.65125,0,0,0,0,0,0,0,-1,587,1310,-19.4593,-2.65124
-630,-286,-19.6556,3.39246,0,0,0,0,0,0,0,-1,594,1310,-19.6556,-3.39242
-623,-286,-20.1415,-1.72998,0,0,0,0,0,0,0,-1,601,1310,-20.1415,1.72995
-616,-286,-20.1397,1.81775,0,0,0,0,0,0,0,-1,608,1310,-20.1397,-1.81771
-609,-286,-19.1428,3.0835,0,0,0,0,0,0,0,-1,615,1310,-19.1428,-3.08355
-602,-286,-18.7382,4.00244,0.00668702,0.00676879,0.00404003,0.0107681,0.00268767,0.790458,0.00647166,0.0202187,622,1310,-18.7382,-4.00247
-595,-286,-18.7725,4.55054,0.00475733,0.00479612,0.00300795,0.00778474,0.00176871,0.788622,0.00471223,0.0120117,629,1310,-18.7725,-4.55059
-588,-286,-18.7831,5.01282,0.00351883,0.00317795,0.00218111,0.00553615,0.00116063,0.746405,0.00337116,0.0124574,636,1310,-18.7832,-5.01284
-581,-286,-18.7715,5.47864,0.00282704,0.00187539,0.0015609,0.00398303,0.000719401,0.637453,0.002451,0.0131466,643,1310,-18.7716,-5.47858
-574,-286,-18.8066,5.96851,0.00247163,0.000846553,0.00112319,0.00304537,0.000272813,0.472262,0.0019457,0.0126445,650,1310,-18.8067,-5.96847
-567,-286,-18.8297,6.4646,0.00238195,4.81205e-05,0.000778939,0.00261804,-0.000187974,0.294297,0.00181127,0.0137113,657,1310,-18.8297,-6.4646
-560,-286,-18.8379,6.96155,0.00249777,-0.000476617,0.00055851,0.00259919,-0.000578032,0.179625,0.00195417,0.0143216,664,1310,-18.8379,-6.96151
-553,-286,-18.8401,7.43909,0.00277102,-0.000626225,0.000586726,0.0028695,-0.000724701,0.166291,0.00219481,0.0103165,671,1310,-18.8401,-7.43909
-546,-286,-18.824,7.92676,0.00279432,-0.000308591,0.000775846,0.00297749,-0.000491769,0.231855,0.00216759,0.018567,678,1310,-18.824,-7.92675
-539,-286,-18.7943,8.43213,0.00260672,0.00015228,0.0011146,0.00303733,-0.00027833,0.368672,0.00212375,0.0439243,685,1310,-18.7943,-8.43216
-532,-286,-18.6216,8.948,0,0,0,0,0,0,0,-1,692,1310,-18.6216,-8.94794
-525,-286,-11.4528,-1.11768,0,0,0,0,0,0,0,-1,699,1310,-11.4528,1.11769
-518,-286,-11.0701,1.37329,0,0,0,0,0,0,0,-1,706,1310,-11.0701,-1.37332
-511,-286,-17.7545,-0.0791016,0,0,0,0,0,0,0,-1,713,1310,-17.7544,0.0791606
-504,-286,-18.0455,1.29602,0,0,0,0,0,0,0,-1,720,1310,-18.0455,-1.29601
-497,-286,-18.3367,2.67114,0,0,0,0,0,0,0,-1,727,1310,-18.3366,-2.67118
-490,-286,-19.5795,2.47266,0,0,0,0,0,0,0,-1,734,1310,-19.5795,-2.4727
-483,-286,-19.7277,2.74744,0,0,0,0,0,0,0,-1,741,1310,-19.7277,-2.74747
-476,-286,-20.0391,3.06177,0,0,0,0,0,0,0,-1,748,1310,-20.0391,-3.06178
-469,-286,0,0,0,0,0,0,0,0,0,-1,755,1310,0,0
-462,-286,0,0,0,0,0,0,0,0,0,-1,762,1310,0,0
-455,-286,0,0,0,0,0,0,0,0,0,-1,769,1310,0,0
-448,-286,0,0,0,0,0,0,0,0,0,-1,776,1310,0,0
-441,-286,0,0,0,0,0,0,0,0,0,-1,783,1310,0,0
-434,-286,0,0,0,0,0,0,0,0,0,-1,790,1310,0,0
-427,-286,0,0,0,0,0,0,0,0,0,-1,797,1310,0,0
-420,-286,0,0,0,0,0,0,0,0,0,-1,804,1310,0,0
-413,-286,0,0,0,0,0,0,0,0,0,-1,811,1310,0,0
-406,-286,0,0,0,0,0,0,0,0,0,-1,818,1310,0,0
-399,-286,0,0,0,0,0,0,0,0,0,-1,825,1310,0,0
-392,-286,0,0,0,0,0,0,0,0,0,-1,832,1310,0,0
-385,-286,0,0,0,0,0,0,0,0,0,-1,839,1310,0,0
-378,-286,0,0,0,0,0,0,0,0,0,-1,846,1310,0,0
-371,-286,0,0,0,0,0,0,0,0,0,-1,853,1310,0,0
-364,-286,0,0,0,0,0,0,0,0,0,-1,860,1310,0,0
-357,-286,0,0,0,0,0,0,0,0,0,-1,867,1310,0,0
-350,-286,0,0,0,0,0,0,0,0,0,-1,874,1310,0,0
-343,-286,0,0,0,0,0,0,0,0,0,-1,881,1310,0,0
-336,-286,0,0,0,0,0,0,0,0,0,-1,888,1310,0,0
-329,-286,0,0,0,0,0,0,0,0,0,-1,895,1310,0,0
-322,-286,0,0,0,0,0,0,0,0,0,-1,902,1310,0,0
-315,-286,0,0,0,0,0,0,0,0,0,-1,909,1310,0,0
-308,-286,0,0,0,0,0,0,0,0,0,-1,916,1310,0,0
-301,-286,0,0,0,0,0,0,0,0,0,-1,923,1310,0,0
-294,-286,0,0,0,0,0,0,0,0,0,-1,930,1310,0,0
-287,-286,0,0,0,0,0,0,0,0,0,-1,937,1310,0,0
-280,-286,0,0,0,0,0,0,0,0,0,-1,944,1310,0,0
-273,-286,0,0,0,0,0,0,0,0,0,-1,951,1310,0,0
-266,-286,0,0,0,0,0,0,0,0,0,-1,958,1310,0,0
-259,-286,0,0,0,0,0,0,0,0,0,-1,965,1310,0,0
-252,-286,0,0,0,0,0,0,0,0,0,-1,972,1310,0,0
-245,-286,0,0,0,0,0,0,0,0,0,-1,979,1310,0,0
-238,-286,0,0,0,0,0,0,0,0,0,-1,986,1310,0,0
-231,-286,0,0,0,0,0,0,0,0,0,-1,993,1310,0,0
-224,-286,0,0,0,0,0,0,0,0,0,-1,1000,1310,0,0
-217,-286,0,0,0,0,0,0,0,0,0,-1,1007,1310,0,0
-210,-286,0,0,0,0,0,0,0,0,0,-1,1014,1310,0,0
-203,-286,0,0,0,0,0,0,0,0,0,-1,1021,1310,0,0
-196,-286,0,0,0,0,0,0,0,0,0,-1,1028,1310,0,0
-189,-286,0,0,0,0,0,0,0,0,0,-1,1035,1310,0,0
-182,-286,0,0,0,0,0,0,0,0,0,-1,1042,1310,0,0
-175,-286,0,0,0,0,0,0,0,0,0,-1,1049,1310,0,0
-168,-286,0,0,0,0,0,0,0,0,0,-1,1056,1310,0,0
-161,-286,0,0,0,0,0,0,0,0,0,-1,1063,1310,0,0
-154,-286,0,0,0,0,0,0,0,0,0,-1,1070,1310,0,0
-147,-286,0,0,0,0,0,0,0,0,0,-1,1077,1310,0,0
-140,-286,0,0,0,0,0,0,0,0,0,-1,1084,1310,0,0
-133,-286,0,0,0,0,0,0,0,0,0,-1,1091,1310,0,0
-126,-286,0,0,0,0,0,0,0,0,0,-1,1098,1310,0,0
-119,-286,0,0,0,0,0,0,0,0,0,-1,1105,1310,0,0
-112,-286,0,0,0,0,0,0,0,0,0,-1,1112,1310,0,0
-105,-286,0,0,0,0,0,0,0,0,0,-1,1119,1310,0,0
-98,-286,0,0,0,0,0,0,0,0,0,-1,1126,1310,0,0
-91,-286,0,0,0,0,0,0,0,0,0,-1,1133,1310,0,0
-84,-286,0,0,0,0,0,0,0,0,0,-1,1140,1310,0,0
-77,-286,0,0,0,0,0,0,0,0,0,-1,1147,1310,0,0
-70,-286,0,0,0,0,0,0,0,0,0,-1,1154,1310,0,0
-63,-286,0,0,0,0,0,0,0,0,0,-1,1161,1310,0,0
-56,-286,0,0,0,0,0,0,0,0,0,-1,1168,1310,0,0
-49,-286,0,0,0,0,0,0,0,0,0,-1,1175,1310,0,0
-42,-286,0,0,0,0,0,0,0,0,0,-1,1182,1310,0,0
-35,-286,0,0,0,0,0,0,0,0,0,-1,1189,1310,0,0
-28,-286,0,0,0,0,0,0,0,0,0,-1,1196,1310,0,0
-21,-286,0,0,0,0,0,0,0,0,0,-1,1203,1310,0,0
-14,-286,0,0,0,0,0,0,0,0,0,-1,1210,1310,0,0
-7,-286,0,0,0,0,0,0,0,0,0,-1,1217,1310,0,0
0,-286,0,0,0,0,0,0,0,0,0,-1,1224,1310,0,0
7,-286,0,0,0,0,0,0,0,0,0,-1,1231,1310,0,0
14,-286,0,0,0,0,0,0,0,0,0,-1,1238,1310,0,0
21,-286,0,0,0,0,0,0,0,0,0,-1,1245,1310,0,0
28,-286,0,0,0,0,0,0,0,0,0,-1,1252,1310,0,0
35,-286,0,0,0,0,0,0,0,0,0,-1,1259,1310,0,0
42,-286,0,0,0,0,0,0,0,0,0,-1,1266,1310,0,0
49,-286,0,0,0,0,0,0,0,0,0,-1,1273,1310,0,0
56,-286,0,0,0,0,0,0,0,0,0,-1,1280,1310,0,0
63,-286,0,0,0,0,0,0,0,0,0,-1,1287,1310,0,0
70,-286,0,0,0,0,0,0,0,0,0,-1,1294,1310,0,0
77,-286,0,0,0,0,0,0,0,0,0,-1,1301,1310,0,0
84,-286,0,0,0,0,0,0,0,0,0,-1,1308,1310,0,0
91,-286,0,0,0,0,0,0,0,0,0,-1,1315,1310,0,0
98,-286,0,0,0,0,0,0,0,0,0,-1,1322,1310,0,0
105,-286,0,0,0,0,0,0,0,0,0,-1,1329,1310,0,0
112,-286,0,0,0,0,0,0,0,0,0,-1,1336,1310,0,0
119,-286,0,0,0,0,0,0,0,0,0,-1,1343,1310,0,0
126,-286,0,0,0,0,0,0,0,0,0,-1,1350,1310,0,0
133,-286,0,0,0,0,0,0,0,0,0,-1,1357,1310,0,0
140,-286,0,0,0,0,0,0,0,0,0,-1,1364,1310,0,0
147,-286,0,0,0,0,0,0,0,0,0,-1,1371,1310,0,0
154,-286,0,0,0,0,0,0,0,0,0,-1,1378,1310,0,0
161,-286,0,0,0,0,0,0,0,0,0,-1,1385,1310,0,0
168,-286,0,0,0,0,0,0,0,0,0,-1,1392,1310,0,0
175,-286,0,0,0,0,0,0,0,0,0,-1,1399,1310,0,0
182,-286,0,0,0,0,0,0,0,0,0,-1,1406,1310,0,0
189,-286,0,0,0,0,0,0,0,0,0,-1,1413,1310,0,0
196,-286,0,0,0,0,0,0,0,0,0,-1,1420,1310,0,0
203,-286,0,0,0,0,0,0,0,0,0,-1,1427,1310,0,0
210,-286,0,0,0,0,0,0,0,0,0,-1,1434,1310,0,0
217,-286,0,0,0,0,0,0,0,0,0,-1,1441,1310,0,0
224,-286,0,0,0,0,0,0,0,0,0,-1,1448,1310,0,0
231,-286,0,0,0,0,0,0,0,0,0,-1,1455,1310,0,0
238,-286,0,0,0,0,0,0,0,0,0,-1,1462,1310,0,0
245,-286,0,0,0,0,0,0,0,0,0,-1,1469,1310,0,0
252,-286,0,0,0,0,0,0,0,0,0,-1,1476,1310,0,0
259,-286,0,0,0,0,0,0,0,0,0,-1,1483,1310,0,0
266,-286,0,0,0,0,0,0,0,0,0,-1,1490,1310,0,0
273,-286,0,0,0,0,0,0,0,0,0,-1,1497,1310,0,0
280,-286,0,0,0,0,0,0,0,0,0,-1,1504,1310,0,0
287,-286,0,0,0,0,0,0,0,0,0,-1,1511,1310,0,0
294,-286,0,0,0,0,0,0,0,0,0,-1,1518,1310,0,0
301,-286,0,0,0,0,0,0,0,0,0,-1,1525,1310,0,0
308,-286,0,0,0,0,0,0,0,0,0,-1,1532,1310,0,0
315,-286,0,0,0,0,0,0,0,0,0,-1,1539,1310,0,0
322,-286,0,0,0,0,0,0,0,0,0,-1,1546,1310,0,0
329,-286,0,0,0,0,0,0,0,0,0,-1,1553,1310,0,0
336,-286,0,0,0,0,0,0,0,0,0,-1,1560,1310,0,0
343,-286,0,0,0,0,0,0,0,0,0,-1,1567,1310,0,0
350,-286,0,0,0,0,0,0,0,0,0,-1,1574,1310,0,0
357,-286,0,0,0,0,0,0,0,0,0,-1,1581,1310,0,0
364,-286,0,0,0,0,0,0,0,0,0,-1,1588,1310,0,0
371,-286,0,0,0,0,0,0,0,0,0,-1,1595,1310,0,0
378,-286,0,0,0,0,0,0,0,0,0,-1,1602,1310,0,0
385,-286,0,0,0,0,0,0,0,0,0,-1,1609,1310,0,0
392,-286,0,0,0,0,0,0,0,0,0,-1,1616,1310,0,0
399,-286,0,0,0,0,0,0,0,0,0,-1,1623,1310,0,0
406,-286,0,0,0,0,0,0,0,0,0,-1,1630,1310,0,0
413,-286,0,0,0,0,0,0,0,0,0,-1,1637,1310,0,0
420,-286,0,0,0,0,0,0,0,0,0,-1,1644,1310,0,0
427,-286,0,0,0,0,0,0,0,0,0,-1,1651,1310,0,0
434,-286,0,0,0,0,0,0,0,0,0,-1,1658,1310,0,0
441,-286,0,0,0,0,0,0,0,0,0,-1,1665,1310,0,0
448,-286,0,0,0,0,0,0,0,0,0,-1,1672,1310,0,0
455,-286,0,0,0,0,0,0,0,0,0,-1,1679,1310,0,0
462,-286,0,0,0,0,0,0,0,0,0,-1,1686,1310,0,0
469,-286,0,0,0,0,0,0,0,0,0,-1,1693,1310,0,0
476,-286,0,0,0,0,0,0,0,0,0,-1,1700,1310,0,0
483,-286,0,0,0,0,0,0,0,0,0,-1,1707,1310,0,0
490,-286,0,0,0,0,0,0,0,0,0,-1,1714,1310,0,0
497,-286,0,0,0,0,0,0,0,0,0,-1,1721,1310,0,0
504,-286,0,0,0,0,0,0,0,0,0,-1,1728,1310,0,0
511,-286,0,0,0,0,0,0,0,0,0,-1,1735,1310,0,0
518,-286,0,0,0,0,0,0,0,0,0,-1,1742,1310,0,0
525,-286,0,0,0,0,0,0,0,0,0,-1,1749,1310,0,0
532,-286,0,0,0,0,0,0,0,0,0,-1,1756,1310,0,0
539,-286,0,0,0,0,0,0,0,0,0,-1,1763,1310,0,0
546,-286,0,0,0,0,0,0,0,0,0,-1,1770,1310,0,0
553,-286,0,0,0,0,0,0,0,0,0,-1,1777,1310,0,0
560,-286,0,0,0,0,0,0,0,0,0,-1,1784,1310,0,0
567,-286,0,0,0,0,0,0,0,0,0,-1,1791,1310,0,0
574,-286,0,0,0,0,0,0,0,0,0,-1,1798,1310,0,0
581,-286,0,0,0,0,0,0,0,0,0,-1,1805,1310,0,0
588,-286,0,0,0,0,0,0,0,0,0,-1,1812,1310,0,0
595,-286,44.9952,2.69006,0,0,0,0,0,0,0,-1,1819,1310,44.9952,-2.6901
602,-286,45.0784,2.44653,0,0,0,0,0,0,0,-1,1826,1310,45.0784,-2.44652
609,-286,43.8816,1.22864,0,0,0,0,0,0,0,-1,1833,1310,43.8815,-1.22867
616,-286,44.4275,1.70667,0,0,0,0,0,0,0,-1,1840,1310,44.4275,-1.70671
623,-286,45.0806,2.21985,0,0,0,0,0,0,0,-1,1847,1310,45.0805,-2.21991
630,-286,45.8309,3.00671,0,0,0,0,0,0,0,-1,1854,1310,45.8309,-3.00671
637,-286,42.8304,1.58423,0,0,0,0,0,0,0,-1,1861,1310,42.8305,-1.58421
644,-286,25.6433,1.33862,0,0,0,0,0,0,0,-1,1868,1310,25.6433,-1.33858
651,-286,25.2507,1.88245,0,0,0,0,0,0,0,-1,1875,1310,25.2508,-1.88245
658,-286,25.9475,9.43689,0,0,0,0,0,0,0,-1,1882,1310,25.9475,-9.43693
665,-286,24.9838,8.03101,0,0,0,0,0,0,0,-1,1889,1310,24.9837,-8.03104
672,-286,31.5782,10.6278,0,0,0,0,0,0,0,-1,1896,1310,31.5783,-10.6278
679,-286,31.6202,10.0632,0.00511927,-0.00191486,-0.00165769,0.00549036,-0.00228594,-0.220224,0.00461496,0.0497028,1903,1310,31.6202,-10.0633
686,-286,31.7073,9.54138,0.00229403,-0.00100875,-0.00164835,0.00297591,-0.00169063,-0.392239,0.00272808,0.0232108,1910,1310,31.7073,-9.54136
693,-286,31.7009,9.12036,0.00134036,-0.000448607,-0.000541842,0.00149168,-0.000599921,-0.272321,0.00124363,0.0163339,1917,1310,31.701,-9.12038
700,-286,31.702,8.66858,0.000668763,-0.000413408,-1.52322e-05,0.000668978,-0.000413623,-0.0140719,0.000630809,0.0112133,1924,1310,31.702,-8.66861
707,-286,31.6876,8.22742,-0.000194169,-0.000475242,0.000525377,0.000209143,-0.000878554,0.65471,0.000666447,0.00892879,1931,1310,31.6876,-8.2274
714,-286,31.6803,7.81689,-0.00108515,-0.000599381,0.00103151,0.000217459,-0.00190199,0.901024,0.00134634,0.00957342,1938,1310,31.6803,-7.81695
721,-286,31.6906,7.40295,-0.0018102,-0.000812054,0.00142522,0.000198951,-0.0028212,0.953812,0.0019505,0.0124267,1945,1310,31.6906,-7.4029
728,-286,31.6963,6.97314,-0.00270973,-0.0011466,0.00183947,7.04541e-05,-0.00392679,0.986285,0.00264166,0.0153981,1952,1310,31.6963,-6.9732
735,-286,31.7148,6.55469,-0.00343797,-0.00151481,0.00201429,-0.000244347,-0.00470843,1.00809,0.00306076,0.0192595,1959,1310,31.7149,-6.55475
742,-286,31.6735,6.20093,-0.0038009,-0.00204661,0.0019508,-0.000784823,-0.00506268,0.996673,0.00314631,0.0457346,1966,1310,31.6735,-6.20098
749,-286,31.8319,5.80432,0,0,0,0,0,0,0,-1,1973,1310,31.8319,-5.80429
756,-286,24.8226,4.43481,0,0,0,0,0,0,0,-1,1980,1310,24.8227,-4.43479
763,-286,20.6671,3.99683,0,0,0,0,0,0,0,-1,1987,1310,20.6671,-3.99683
770,-286,23.9147,4.45679,0,0,0,0,0,0,0,-1,1994,1310,23.9146,-4.45675
777,-286,0,0,0,0,0,0,0,0,0,-1,2001,1310,0,0
784,-286,0,0,0,0,0,0,0,0,0,-1,2008,1310,0,0
791,-286,0,0,0,0,0,0,0,0,0,-1,2015,1310,0,0
798,-286,0,0,0,0,0,0,0,0,0,-1,2022,1310,0,0
805,-286,0,0,0,0,0,0,0,0,0,-1,2029,1310,0,0
812,-286,0,0,0,0,0,0,0,0,0,-1,2036,1310,0,0
-700,-293,0,0,0,0,0,0,0,0,0,-1,524,1317,0,0
-693,-293,0,0,0,0,0,0,0,0,0,-1,531,1317,0,0
-686,-293,0,0,0,0,0,0,0,0,0,-1,538,1317,0,0
-679,-293,0,0,0,0,0,0,0,0,0,-1,545,1317,0,0
-672,-293,0,0,0,0,0,0,0,0,0,-1,552,1317,0,0
-665,-293,0,0,0,0,0,0,0,0,0,-1,559,1317,0,0
-658,-293,0,0,0,0,0,0,0,0,0,-1,566,1317,0,0
-651,-293,-19.3986,0.230591,0,0,0,0,0,0,0,-1,573,1317,-19.3986,-0.230615
-644,-293,-19.6501,1.56128,0,0,0,0,0,0,0,-1,580,1317,-19.6502,-1.56126
-637,-293,-19.9641,2.40369,0,0,0,0,0,0,0,-1,587,1317,-19.9641,-2.4037
-630,-293,-20.2918,3.08264,0,0,0,0,0,0,0,-1,594,1317,-20.2918,-3.08267
-623,-293,-15.6058,0.229614,0,0,0,0,0,0,0,-1,601,1317,-15.6058,-0.229666
-616,-293,-15.5056,2.17737,0,0,0,0,0,0,0,-1,608,1317,-15.5055,-2.17742
-609,-293,-18.1876,3.10071,0,0,0,0,0,0,0,-1,615,1317,-18.1875,-3.10072
-602,-293,-18.1471,3.85901,0.00641887,0.00813254,0.00530501,0.0126495,0.00190194,0.865464,0.00787592,0.0449171,622,1317,-18.1471,-3.85896
-595,-293,-18.3015,4.56091,0.00469091,0.00570069,0.00381887,0.0090479,0.0013437,0.851121,0.00563767,0.0189317,629,1317,-18.3015,-4.56096
-588,-293,-18.2918,5.04919,0.00352117,0.00381317,0.00268582,0.00635696,0.000977384,0.812551,0.00395267,0.0163831,636,1317,-18.2918,-5.04919
-581,-293,-18.2735,5.52075,0.00285526,0.00238682,0.00186795,0.00450362,0.000738465,0.723029,0.00278904,0.0175938,643,1317,-18.2735,-5.52073
-574,-293,-18.2866,6.0199,0.00253172,0.00125604,0.00127407,0.0033187,0.000469066,0.553322,0.00207387,0.014944,650,1317,-18.2866,-6.01984
-567,-293,-18.33,6.49817,0.00248125,0.000352473,0.000875132,0.00279483,3.88998e-05,0.344063,0.00185039,0.0155216,657,1317,-18.33,-6.49819
-560,-293,-18.35,6.98425,0.00275762,-0.000363176,0.000626842,0.00287882,-0.000484377,0.190994,0.00209938,0.0170104,664,1317,-18.35,-6.9843
-553,-293,-18.351,7.45386,0.00340365,-0.000826329,0.00061807,0.00349211,-0.000914789,0.142158,0.00268545,0.0113208,671,1317,-18.351,-7.45381
-546,-293,-18.3619,7.93787,0.00428305,-0.00102876,0.000793201,0.00439897,-0.00114468,0.145111,0.00337946,0.0118603,678,1317,-18.362,-7.93788
-539,-293,-18.3112,8.41565,0.00565106,-0.00128001,0.00125501,0.0058713,-0.00150025,0.173724,0.00449846,0.0343554,685,1317,-18.3111,-8.41569
-532,-293,-18.2262,8.8385,0,0,0,0,0,0,0,-1,692,1317,-18.2262,-8.8385
-525,-293,-8.20642,3.62256,0,0,0,0,0,0,0,-1,699,1317,-8.20639,-3.6226
-518,-293,-10.1053,0.314209,0,0,0,0,0,0,0,-1,706,1317,-10.1053,-0.314234
-511,-293,-11.6276,0.235352,0,0,0,0,0,0,0,-1,713,1317,-11.6276,-0.235372
-504,-293,-17.9086,1.25427,0,0,0,0,0,0,0,-1,720,1317,-17.9086,-1.25423
-497,-293,-18.8006,1.62122,0,0,0,0,0,0,0,-1,727,1317,-18.8006,-1.62119
-490,-293,-18.8961,1.99255,0,0,0,0,0,0,0,-1,734,1317,-18.8961,-1.99251
-483,-293,-19.0831,2.35498,0,0,0,0,0,0,0,-1,741,1317,-19.0831,-2.35497
-476,-293,-19.5228,2.61243,0,0,0,0,0,0,0,-1,748,1317,-19.5228,-2.61237
-469,-293,0,0,0,0,0,0,0,0,0,-1,755,1317,0,0
-462,-293,0,0,0,0,0,0,0,0,0,-1,762,1317,0,0
-455,-293,0,0,0,0,0,0,0,0,0,-1,769,1317,0,0
-448,-293,0,0,0,0,0,0,0,0,0,-1,776,1317,0,0
-441,-293,0,0,0,0,0,0,0,0,0,-1,783,1317,0,0
-434,-293,0,0,0,0,0,0,0,0,0,-1,790,1317,0,0
-427,-293,0,0,0,0,0,0,0,0,0,-1,797,1317,0,0
-420,-293,0,0,0,0,0,0,0,0,0,-1,804,1317,0,0
-413,-293,0,0,0,0,0,0,0,0,0,-1,811,1317,0,0
-406,-293,0,0,0,0,0,0,0,0,0,-1,818,1317,0,0
-399,-293,0,0,0,0,0,0,0,0,0,-1,825,1317,0,0
-392,-293,0,0,0,0,0,0,0,0,0,-1,832,1317,0,0
-385,-293,0,0,0,0,0,0,0,0,0,-1,839,1317,0,0
-378,-293,0,0,0,0,0,0,0,0,0,-1,846,1317,0,0
-371,-293,0,0,0,0,0,0,0,0,0,-1,853,1317,0,0
-364,-293,0,0,0,0,0,0,0,0,0,-1,860,1317,0,0
-357,-293,0,0,0,0,0,0,0,0,0,-1,867,1317,0,0
-350,-293,0,0,0,0,0,0,0,0,0,-1,874,1317,0,0
-343,-293,0,0,0,0,0,0,0,0,0,-1,881,1317,0,0
-336,-293,0,0,0,0,0,0,0,0,0,-1,888,1317,0,0
-329,-293,0,0,0,0,0,0,0,0,0,-1,895,1317,0,0
-322,-293,0,0,0,0,0,0,0,0,0,-1,902,1317,0,0
-315,-293,0,0,0,0,0,0,0,0,0,-1,909,1317,0,0
-308,-293,0,0,0,0,0,0,0,0,0,-1,916,1317,0,0
-301,-293,0,0,0,0,0,0,0,0,0,-1,923,1317,0,0
-294,-293,0,0,0,0,0,0,0,0,0,-1,930,1317,0,0
-287,-293,0,0,0,0,0,0,0,0,0,-1,937,1317,0,0
-280,-293,0,0,0,0,0,0,0,0,0,-1,944,1317,0,0
-273,-293,0,0,0,0,0,0,0,0,0,-1,951,1317,0,0
-266,-293,0,0,0,0,0,0,0,0,0,-1,958,1317,0,0
-259,-293,0,0,0,0,0,0,0,0,0,-1,965,1317,0,0
-252,-293,0,0,0,0,0,0,0,0,0,-1,972,1317,0,0
-245,-293,0,0,0,0,0,0,0,0,0,-1,979,1317,0,0
-238,-293,0,0,0,0,0,0,0,0,0,-1,986,1317,0,0
-231,-293,0,0,0,0,0,0,0,0,0,-1,993,1317,0,0
-224,-293,0,0,0,0,0,0,0,0,0,-1,1000,1317,0,0
-217,-293,0,0,0,0,0,0,0,0,0,-1,1007,1317,0,0
-210,-293,0,0,0,0,0,0,0,0,0,-1,1014,1317,0,0
-203,-293,0,0,0,0,0,0,0,0,0,-1,1021,1317,0,0
-196,-293,0,0,0,0,0,0,0,0,0,-1,1028,1317,0,0
-189,-293,0,0,0,0,0,0,0,0,0,-1,1035,1317,0,0
-182,-293,0,0,0,0,0,0,0,0,0,-1,1042,1317,0,0
-175,-293,0,0,0,0,0,0,0,0,0,-1,1049,1317,0,0
-168,-293,0,0,0,0,0,0,0,0,0,-1,1056,1317,0,0
-161,-293,0,0,0,0,0,0,0,0,0,-1,1063,1317,0,0
-154,-293,0,0,0,0,0,0,0,0,0,-1,1070,1317,0,0
-147,-293,0,0,0,0,0,0,0,0,0,-1,1077,1317,0,0
-140,-293,0,0,0,0,0,0,0,0,0,-1,1084,1317,0,0
-133,-293,0,0,0,0,0,0,0,0,0,-1,1091,1317,0,0
-126,-293,0,0,0,0,0,0,0,0,0,-1,1098,1317,0,0
-119,-293,0,0,0,0,0,0,0,0,0,-1,1105,1317,0,0
-112,-293,0,0,0,0,0,0,0,0,0,-1,1112,1317,0,0
-105,-293,0,0,0,0,0,0,0,0,0,-1,1119,1317,0,0
-98,-293,0,0,0,0,0,0,0,0,0,-1,1126,1317,0,0
-91,-293,0,0,0,0,0,0,0,0,0,-1,1133,1317,0,0
-84,-293,0,0,0,0,0,0,0,0,0,-1,1140,1317,0,0
-77,-293,0,0,0,0,0,0,0,0,0,-1,1147,1317,0,0
-70,-293,0,0,0,0,0,0,0,0,0,-1,1154,1317,0,0
-63,-293,0,0,0,0,0,0,0,0,0,-1,1161,1317,0,0
-56,-293,0,0,0,0,0,0,0,0,0,-1,1168,1317,0,0
-49,-293,0,0,0,0,0,0,0,0,0,-1,1175,1317,0,0
-42,-293,0,0,0,0,0,0,0,0,0,-1,1182,1317,0,0
-35,-293,0,0,0,0,0,0,0,0,0,-1,1189,1317,0,0
-28,-293,0,0,0,0,0,0,0,0,0,-1,1196,1317,0,0
-21,-293,0,0,0,0,0,0,0,0,0,-1,1203,1317,0,0
-14,-293,0,0,0,0,0,0,0,0,0,-1,1210,1317,0,0
-7,-293,0,0,0,0,0,0,0,0,0,-1,1217,1317,0,0
0,-293,0,0,0,0,0,0,0,0,0,-1,1224,1317,0,0
7,-293,0,0,0,0,0,0,0,0,0,-1,1231,1317,0,0
14,-293,0,0,0,0,0,0,0,0,0,-1,1238,1317,0,0
21,-293,0,0,0,0,0,0,0,0,0,-1,1245,1317,0,0
28,-293,0,0,0,0,0,0,0,0,0,-1,1252,1317,0,0
35,-293,0,0,0,0,0,0,0,0,0,-1,1259,1317,0,0
42,-293,0,0,0,0,0,0,0,0,0,-1,1266,1317,0,0
49,-293,0,0,0,0,0,0,0,0,0,-1,1273,1317,0,0
56,-293,0,0,0,0,0,0,0,0,0,-1,1280,1317,0,0
63,-293,0,0,0,0,0,0,0,0,0,-1,1287,1317,0,0
70,-293,0,0,0,0,0,0,0,0,0,-1,1294,1317,0,0
77,-293,0,0,0,0,0,0,0,0,0,-1,1301,1317,0,0
84,-293,0,0,0,0,0,0,0,0,0,-1,1308,1317,0,0
91,-293,0,0,0,0,0,0,0,0,0,-1,1315,1317,0,0
98,-293,0,0,0,0,0,0,0,0,0,-1,1322,1317,0,0
105,-293,0,0,0,0,0,0,0,0,0,-1,1329,1317,0,0
112,-293,0,0,0,0,0,0,0,0,0,-1,1336,1317,0,0
119,-293,0,0,0,0,0,0,0,0,0,-1,1343,1317,0,0
126,-293,0,0,0,0,0,0,0,0,0,-1,1350,1317,0,0
133,-293,0,0,0,0,0,0,0,0,0,-1,1357,1317,0,0
140,-293,0,0,0,0,0,0,0,0,0,-1,1364,1317,0,0
147,-293,0,0,0,0,0,0,0,0,0,-1,1371,1317,0,0
154,-293,0,0,0,0,0,0,0,0,0,-1,1378,1317,0,0
161,-293,0,0,0,0,0,0,0,0,0,-1,1385,1317,0,0
168,-293,0,0,0,0,0,0,0,0,0,-1,1392,1317,0,0
175,-293,0,0,0,0,0,0,0,0,0,-1,1399,1317,0,0
182,-293,0,0,0,0,0,0,0,0,0,-1,1406,1317,0,0
189,-293,0,0,0,0,0,0,0,0,0,-1,1413,1317,0,0
196,-293,0,0,0,0,0,0,0,0,0,-1,1420,1317,0,0
203,-293,0,0,0,0,0,0,0,0,0,-1,1427,1317,0,0
210,-293,0,0,0,0,0,0,0,0,0,-1,1434,1317,0,0
217,-293,0,0,0,0,0,0,0,0,0,-1,1441,1317,0,0
224,-293,0,0,0,0,0,0,0,0,0,-1,1448,1317,0,0
231,-293,0,0,0,0,0,0,0,0,0,-1,1455,1317,0,0
238,-293,0,0,0,0,0,0,0,0,0,-1,1462,1317,0,0
245,-293,0,0,0,0,0,0,0,0,0,-1,1469,1317,0,0
252,-293,0,0,0,0,0,0,0,0,0,-1,1476,1317,0,0
259,-293,0,0,0,0,0,0,0,0,0,-1,1483,1317,0,0
266,-293,0,0,0,0,0,0,0,0,0,-1,1490,1317,0,0
273,-293,0,0,0,0,0,0,0,0,0,-1,1497,1317,0,0
280,-293,0,0,0,0,0,0,0,0,0,-1,1504,1317,0,0
287,-293,0,0,0,0,0,0,0,0,0,-1,1511,1317,0,0
294,-293,0,0,0,0,0,0,0,0,0,-1,1518,1317,0,0
301,-293,0,0,0,0,0,0,0,0,0,-1,1525,1317,0,0
308,-293,0,0,0,0,0,0,0,0,0,-1,1532,1317,0,0
315,-293,0,0,0,0,0,0,0,0,0,-1,1539,1317,0,0
322,-293,0,0,0,0,0,0,0,0,0,-1,1546,1317,0,0
329,-293,0,0,0,0,0,0,0,0,0,-1,1553,1317,0,0
336,-293,0,0,0,0,0,0,0,0,0,-1,1560,1317,0,0
343,-293,0,0,0,0,0,0,0,0,0,-1,1567,1317,0,0
350,-293,0,0,0,0,0,0,0,0,0,-1,1574,1317,0,0
357,-293,0,0,0,0,0,0,0,0,0,-1,1581,1317,0,0
364,-293,0,0,0,0,0,0,0,0,0,-1,1588,1317,0,0
371,-293,0,0,0,0,0,0,0,0,0,-1,1595,1317,0,0
378,-293,0,0,0,0,0,0,0,0,0,-1,1602,1317,0,0
385,-293,0,0,0,0,0,0,0,0,0,-1,1609,1317,0,0
392,-293,0,0,0,0,0,0,0,0,0,-1,1616,1317,0,0
399,-293,0,0,0,0,0,0,0,0,0,-1,1623,1317,0,0
406,-293,0,0,0,0,0,0,0,0,0,-1,1630,1317,0,0
413,-293,0,0,0,0,0,0,0,0,0,-1,1637,1317,0,0
420,-293,0,0,0,0,0,0,0,0,0,-1,1644,1317,0,0
427,-293,0,0,0,0,0,0,0,0,0,-1,1651,1317,0,0
434,-293,0,0,0,0,0,0,0,0,0,-1,1658,1317,0,0
441,-293,0,0,0,0,0,0,0,0,0,-1,1665,1317,0,0
448,-293,0,0,0,0,0,0,0,0,0,-1,1672,1317,0,0
455,-293,0,0,0,0,0,0,0,0,0,-1,1679,1317,0,0
462,-293,0,0,0,0,0,0,0,0,0,-1,1686,1317,0,0
469,-293,0,0,0,0,0,0,0,0,0,-1,1693,1317,0,0
476,-293,0,0,0,0,0,0,0,0,0,-1,1700,1317,0,0
483,-293,0,0,0,0,0,0,0,0,0,-1,1707,1317,0,0
490,-293,0,0,0,0,0,0,0,0,0,-1,1714,1317,0,0
497,-293,0,0,0,0,0,0,0,0,0,-1,1721,1317,0,0
504,-293,0,0,0,0,0,0,0,0,0,-1,1728,1317,0,0
511,-293,0,0,0,0,0,0,0,0,0,-1,1735,1317,0,0
518,-293,0,0,0,0,0,0,0,0,0,-1,1742,1317,0,0
525,-293,0,0,0,0,0,0,0,0,0,-1,1749,1317,0,0
532,-293,0,0,0,0,0,0,0,0,0,-1,1756,1317,0,0
539,-293,0,0,0,0,0,0,0,0,0,-1,1763,1317,0,0
546,-293,0,0,0,0,0,0,0,0,0,-1,1770,1317,0,0
553,-293,0,0,0,0,0,0,0,0,0,-1,1777,1317,0,0
560,-293,0,0,0,0,0,0,0,0,0,-1,1784,1317,0,0
567,-293,0,0,0,0,0,0,0,0,0,-1,1791,1317,0,0
574,-293,0,0,0,0,0,0,0,0,0,-1,1798,1317,0,0
581,-293,0,0,0,0,0,0,0,0,0,-1,1805,1317,0,0
588,-293,0,0,0,0,0,0,0,0,0,-1,1812,1317,0,0
595,-293,45.6949,2.82886,0,0,0,0,0,0,0,-1,1819,1317,45.6949,-2.8288
602,-293,45.5685,2.3291,0,0,0,0,0,0,0,-1,1826,1317,45.5685,-2.32912
609,-293,45.4421,1.82947,0,0,0,0,0,0,0,-1,1833,1317,45.4422,-1.82943
616,-293,44.55,1.74963,0,0,0,0,0,0,0,-1,1840,1317,44.55,-1.74965
623,-293,45.2192,2.14087,0,0,0,0,0,0,0,-1,1847,1317,45.2192,-2.14089
630,-293,43.121,1.28076,0,0,0,0,0,0,0,-1,1854,1317,43.121,-1.28071
637,-293,42.7729,4.95544,0,0,0,0,0,0,0,-1,1861,1317,42.773,-4.95546
644,-293,24.4565,0.520752,0,0,0,0,0,0,0,-1,1868,1317,24.4566,-0.520709
651,-293,25.8926,9.51245,0,0,0,0,0,0,0,-1,1875,1317,25.8926,-9.51246
658,-293,25.4904,9.10205,0,0,0,0,0,0,0,-1,1882,1317,25.4904,-9.10209
665,-293,31.6411,10.6609,0,0,0,0,0,0,0,-1,1889,1317,31.6411,-10.6609
672,-293,31.3905,10.4271,0.00801675,-0.00137536,-0.000333205,0.00802856,-0.00138716,-0.0354177,0.00586965,0.034818,1896,1317,31.3905,-10.4272
679,-293,31.3242,9.98792,0.00453302,-0.00171886,-0.00131142,0.00479697,-0.00198281,-0.198614,0.00402514,0.0153951,1903,1317,31.3242,-9.98791
686,-293,31.323,9.55652,0.0018103,-0.000825236,-0.00129141,0.00233759,-0.00135253,-0.387649,0.00215565,0.018302,1910,1317,31.323,-9.55651
693,-293,31.3013,9.13428,0.00093985,-0.000412353,-0.00038117,0.0010399,-0.000512398,-0.256679,0.000913303,0.0133319,1917,1317,31.3013,-9.13425
700,-293,31.2721,8.68518,0.000312407,-0.000423365,0.000111025,0.000328795,-0.000439753,0.146549,0.000445261,0.0101103,1924,1317,31.2721,-8.68515
707,-293,31.2592,8.24951,-0.000457146,-0.000555149,0.000658687,0.00015436,-0.00116665,0.74827,0.000833998,0.0113589,1931,1317,31.2592,-8.24952
714,-293,31.2526,7.83398,-0.00132605,-0.000756312,0.00121543,0.000207188,-0.00228955,0.900509,0.00159991,0.00860021,1938,1317,31.2525,-7.83398
721,-293,31.2583,7.40308,-0.00223395,-0.00109234,0.00176962,0.000196257,-0.00352254,0.941408,0.00241644,0.00993993,1945,1317,31.2583,-7.40307
728,-293,31.2518,6.95667,-0.00339786,-0.0015911,0.00239093,6.14233e-05,-0.00505039,0.966025,0.00338758,0.0124102,1952,1317,31.2518,-6.9567
735,-293,31.2484,6.50842,-0.00459349,-0.00214305,0.0028291,-0.000285258,-0.00645128,0.989745,0.00420899,0.0242284,1959,1317,31.2484,-6.50847
742,-293,31.3346,6.05127,0,0,0,0,0,0,0,-1,1966,1317,31.3346,-6.05122
749,-293,29.439,5.35339,0,0,0,0,0,0,0,-1,1973,1317,29.4389,-5.35334
756,-293,24.978,3.9718,0,0,0,0,0,0,0,-1,1980,1317,24.978,-3.97186
763,-293,26.6713,4.74097,0,0,0,0,0,0,0,-1,1987,1317,26.6713,-4.74098
770,-293,24.1349,4.69153,0,0,0,0,0,0,0,-1,1994,1317,24.1348,-4.69159
777,-293,0,0,0,0,0,0,0,0,0,-1,2001,1317,0,0
784,-293,0,0,0,0,0,0,0,0,0,-1,2008,1317,0,0
791,-293,0,0,0,0,0,0,0,0,0,-1,2015,1317,0,0
798,-293,0,0,0,0,0,0,0,0,0,-1,2022,1317,0,0
805,-293,0,0,0,0,0,0,0,0,0,-1,2029,1317,0,0
812,-293,0,0,0,0,0,0,0,0,0,-1,2036,1317,0,0
-700,-300,0,0,0,0,0,0,0,0,0,-1,524,1324,0,0
-693,-300,0,0,0,0,0,0,0,0,0,-1,531,1324,0,0
-686,-300,0,0,0,0,0,0,0,0,0,-1,538,1324,0,0
-679,-300,0,0,0,0,0,0,0,0,0,-1,545,1324,0,0
-672,-300,0,0,0,0,0,0,0,0,0,-1,552,1324,0,0
-665,-300,0,0,0,0,0,0,0,0,0,-1,559,1324,0,0
-658,-300,0,0,0,0,0,0,0,0,0,-1,566,1324,0,0
-651,-300,-20.1143,0.203857,0,0,0,0,0,0,0,-1,573,1324,-20.1142,-0.203872
-644,-300,-20.4374,1.17224,0,0,0,0,0,0,0,-1,580,1324,-20.4375,-1.17226
-637,-300,-20.7362,1.82813,0,0,0,0,0,0,0,-1,587,1324,-20.7362,-1.8281
-630,-300,-21.1108,2.26306,0,0,0,0,0,0,0,-1,594,1324,-21.1109,-2.2631
-623,-300,-12.7067,1.48462,0,0,0,0,0,0,0,-1,601,1324,-12.7067,-1.48462
-616,-300,-14.9988,1.68628,0,0,0,0,0,0,0,-1,608,1324,-14.9988,-1.68627
-609,-300,-15.5027,3.29907,0,0,0,0,0,0,0,-1,615,1324,-15.5027,-3.29902
-602,-300,-17.6767,3.7605,0,0,0,0,0,0,0,-1,622,1324,-17.6767,-3.76045
-595,-300,-17.8559,4.54883,0.00492062,0.00619598,0.00434859,0.00995339,0.0011632,0.8582,0.00628385,0.0317347,629,1324,-17.8559,-4.54888
-588,-300,-17.7844,5.07922,0.00366313,0.00420811,0.00304111,0.00698892,0.00088232,0.83008,0.00439479,0.0201234,636,1324,-17.7844,-5.07919
-581,-300,-17.7916,5.58044,0.00293272,0.00277176,0.00211657,0.00497034,0.000734145,0.766396,0.00309798,0.0195834,643,1324,-17.7916,-5.58047
-574,-300,-17.7875,6.04822,0.00254691,0.00164516,0.00145926,0.00362336,0.000568713,0.635563,0.00225009,0.0152097,650,1324,-17.7875,-6.04818
-567,-300,-17.8276,6.50928,0.0024443,0.000750375,0.00102129,0.00292413,0.00027054,0.439221,0.00186579,0.0162732,657,1324,-17.8276,-6.5093
-560,-300,-17.8542,7.00623,0.00261866,2.73634e-05,0.00074029,0.00281524,-0.000169212,0.259549,0.0019357,0.0153265,664,1324,-17.8542,-7.00619
-553,-300,-17.8577,7.48328,0.00310906,-0.000478876,0.000677825,0.00323284,-0.000602659,0.180627,0.00238167,0.0106171,671,1324,-17.8577,-7.48326
-546,-300,-17.8843,7.96277,0.00387087,-0.000772139,0.000822661,0.00401232,-0.000913591,0.170279,0.00302574,0.00949435,678,1324,-17.8843,-7.96271
-539,-300,-17.8536,8.45215,0.00506835,-0.00107477,0.00122703,0.00530437,-0.00131079,0.190029,0.00404461,0.0207188,685,1324,-17.8537,-8.4521
-532,-300,-17.7996,8.89795,0,0,0,0,0,0,0,-1,692,1324,-17.7996,-8.89794
-525,-300,-13.5115,6.27783,0,0,0,0,0,0,0,-1,699,1324,-13.5115,-6.2778
-518,-300,-9.8349,-0.537109,0,0,0,0,0,0,0,-1,706,1324,-9.83487,0.537068
-511,-300,-12.8644,0.081665,0,0,0,0,0,0,0,-1,713,1324,-12.8644,-0.0817016
-504,-300,-13.4829,-0.165527,0,0,0,0,0,0,0,-1,720,1324,-13.4829,0.165544
-497,-300,-18.1063,0.956543,0,0,0,0,0,0,0,-1,727,1324,-18.1063,-0.9565
-490,-300,-18.2293,1.53625,0,0,0,0,0,0,0,-1,734,1324,-18.2293,-1.53626
-483,-300,-18.3522,1.61084,0,0,0,0,0,0,0,-1,741,1324,-18.3522,-1.6108
-476,-300,-18.7489,1.96387,0,0,0,0,0,0,0,-1,748,1324,-18.7489,-1.96387
-469,-300,0,0,0,0,0,0,0,0,0,-1,755,1324,0,0
-462,-300,0,0,0,0,0,0,0,0,0,-1,762,1324,0,0
-455,-300,0,0,0,0,0,0,0,0,0,-1,769,1324,0,0
-448,-300,0,0,0,0,0,0,0,0,0,-1,776,1324,0,0
-441,-300,0,0,0,0,0,0,0,0,0,-1,783,1324,0,0
-434,-300,0,0,0,0,0,0,0,0,0,-1,790,1324,0,0
-427,-300,0,0,0,0,0,0,0,0,0,-1,797,1324,0,0
-420,-300,0,0,0,0,0,0,0,0,0,-1,804,1324,0,0
-413,-300,0,0,0,0,0,0,0,0,0,-1,811,1324,0,0
-406,-300,0,0,0,0,0,0,0,0,0,-1,818,1324,0,0
-399,-300,0,0,0,0,0,0,0,0,0,-1,825,1324,0,0
-392,-300,0,0,0,0,0,0,0,0,0,-1,832,1324,0,0
-385,-300,0,0,0,0,0,0,0,0,0,-1,839,1324,0,0
-378,-300,0,0,0,0,0,0,0,0,0,-1,846,1324,0,0
-371,-300,0,0,0,0,0,0,0,0,0,-1,853,1324,0,0
-364,-300,0,0,0,0,0,0,0,0,0,-1,860,1324,0,0
-357,-300,0,0,0,0,0,0,0,0,0,-1,867,1324,0,0
-350,-300,0,0,0,0,0,0,0,0,0,-1,874,1324,0,0
-343,-300,0,0,0,0,0,0,0,0,0,-1,881,1324,0,0
-336,-300,0,0,0,0,0,0,0,0,0,-1,888,1324,0,0
-329,-300,0,0,0,0,0,0,0,0,0,-1,895,1324,0,0
-322,-300,0,0,0,0,0,0,0,0,0,-1,902,1324,0,0
-315,-300,0,0,0,0,0,0,0,0,0,-1,909,1324,0,0
-308,-300,0,0,0,0,0,0,0,0,0,-1,916,1324,0,0
-301,-300,0,0,0,0,0,0,0,0,0,-1,923,1324,0,0
-294,-300,0,0,0,0,0,0,0,0,0,-1,930,1324,0,0
-287,-300,0,0,0,0,0,0,0,0,0,-1,937,1324,0,0
-280,-300,0,0,0,0,0,0,0,0,0,-1,944,1324,0,0
-273,-300,0,0,0,0,0,0,0,0,0,-1,951,1324,0,0
-266,-300,0,0,0,0,0,0,0,0,0,-1,958,1324,0,0
-259,-300,0,0,0,0,0,0,0,0,0,-1,965,1324,0,0
-252,-300,0,0,0,0,0,0,0,0,0,-1,972,1324,0,0
-245,-300,0,0,0,0,0,0,0,0,0,-1,979,1324,0,0
-238,-300,0,0,0,0,0,0,0,0,0,-1,986,1324,0,0
-231,-300,0,0,0,0,0,0,0,0,0,-1,993,1324,0,0
-224,-300,0,0,0,0,0,0,0,0,0,-1,1000,1324,0,0
-217,-300,0,0,0,0,0,0,0,0,0,-1,1007,1324,0,0
-210,-300,0,0,0,0,0,0,0,0,0,-1,1014,1324,0,0
-203,-300,0,0,0,0,0,0,0,0,0,-1,1021,1324,0,0
-196,-300,0,0,0,0,0,0,0,0,0,-1,1028,1324,0,0
-189,-300,0,0,0,0,0,0,0,0,0,-1,1035,1324,0,0
-182,-300,0,0,0,0,0,0,0,0,0,-1,1042,1324,0,0
-175,-300,0,0,0,0,0,0,0,0,0,-1,1049,1324,0,0
-168,-300,0,0,0,0,0,0,0,0,0,-1,1056,1324,0,0
-161,-300,0,0,0,0,0,0,0,0,0,-1,1063,1324,0,0
-154,-300,0,0,0,0,0,0,0,0,0,-1,1070,1324,0,0
-147,-300,0,0,0,0,0,0,0,0,0,-1,1077,1324,0,0
-140,-300,0,0,0,0,0,0,0,0,0,-1,1084,1324,0,0
-133,-300,0,0,0,0,0,0,0,0,0,-1,1091,1324,0,0
-126,-300,0,0,0,0,0,0,0,0,0,-1,1098,1324,0,0
-119,-300,0,0,0,0,0,0,0,0,0,-1,1105,1324,0,0
-112,-300,0,0,0,0,0,0,0,0,0,-1,1112,1324,0,0
-105,-300,0,0,0,0,0,0,0,0,0,-1,1119,1324,0,0
-98,-300,0,0,0,0,0,0,0,0,0,-1,1126,1324,0,0
-91,-300,0,0,0,0,0,0,0,0,0,-1,1133,1324,0,0
-84,-300,0,0,0,0,0,0,0,0,0,-1,1140,1324,0,0
-77,-300,0,0,0,0,0,0,0,0,0,-1,1147,1324,0,0
-70,-300,0,0,0,0,0,0,0,0,0,-1,1154,1324,0,0
-63,-300,0,0,0,0,0,0,0,0,0,-1,1161,1324,0,0
-56,-300,0,0,0,0,0,0,0,0,0,-1,1168,1324,0,0
-49,-300,0,0,0,0,0,0,0,0,0,-1,1175,1324,0,0
-42,-300,0,0,0,0,0,0,0,0,0,-1,1182,1324,0,0
-35,-300,0,0,0,0,0,0,0,0,0,-1,1189,1324,0,0
-28,-300,0,0,0,0,0,0,0,0,0,-1,1196,1324,0,0
-21,-300,0,0,0,0,0,0,0,0,0,-1,1203,1324,0,0
-14,-300,0,0,0,0,0,0,0,0,0,-1,1210,1324,0,0
-7,-300,0,0,0,0,0,0,0,0,0,-1,1217,1324,0,0
0,-300,0,0,0,0,0,0,0,0,0,-1,1224,1324,0,0
7,-300,0,0,0,0,0,0,0,0,0,-1,1231,1324,0,0
14,-300,0,0,0,0,0,0,0,0,0,-1,1238,1324,0,0
21,-300,0,0,0,0,0,0,0,0,0,-1,1245,1324,0,0
28,-300,0,0,0,0,0,0,0,0,0,-1,1252,1324,0,0
35,-300,0,0,0,0,0,0,0,0,0,-1,1259,1324,0,0
42,-300,0,0,0,0,0,0,0,0,0,-1,1266,1324,0,0
49,-300,0,0,0,0,0,0,0,0,0,-1,1273,1324,0,0
56,-300,0,0,0,0,0,0,0,0,0,-1,1280,1324,0,0
63,-300,0,0,0,0,0,0,0,0,0,-1,1287,1324,0,0
70,-300,0,0,0,0,0,0,0,0,0,-1,1294,1324,0,0
77,-300,0,0,0,0,0,0,0,0,0,-1,1301,1324,0,0
84,-300,0,0,0,0,0,0,0,0,0,-1,1308,1324,0,0
91,-300,0,0,0,0,0,0,0,0,0,-1,1315,1324,0,0
98,-300,0,0,0,0,0,0,0,0,0,-1,1322,1324,0,0
105,-300,0,0,0,0,0,0,0,0,0,-1,1329,1324,0,0
112,-300,0,0,0,0,0,0,0,0,0,-1,1336,1324,0,0
119,-300,0,0,0,0,0,0,0,0,0,-1,1343,1324,0,0
126,-300,0,0,0,0,0,0,0,0,0,-1,1350,1324,0,0
133,-300,0,0,0,0,0,0,0,0,0,-1,1357,1324,0,0
140,-300,0,0,0,0,0,0,0,0,0,-1,1364,1324,0,0
147,-300,0,0,0,0,0,0,0,0,0,-1,1371,1324,0,0
154,-300,0,0,0,0,0,0,0,0,0,-1,1378,1324,0,0
161,-300,0,0,0,0,0,0,0,0,0,-1,1385,1324,0,0
168,-300,0,0,0,0,0,0,0,0,0,-1,1392,1324,0,0
175,-300,0,0,0,0,0,0,0,0,0,-1,1399,1324,0,0
182,-300,0,0,0,0,0,0,0,0,0,-1,1406,1324,0,0
189,-300,0,0,0,0,0,0,0,0,0,-1,1413,1324,0,0
196,-300,0,0,0,0,0,0,0,0,0,-1,1420,1324,0,0
203,-300,0,0,0,0,0,0,0,0,0,-1,1427,1324,0,0
210,-300,0,0,0,0,0,0,0,0,0,-1,1434,1324,0,0
217,-300,0,0,0,0,0,0,0,0,0,-1,1441,1324,0,0
224,-300,0,0,0,0,0,0,0,0,0,-1,1448,1324,0,0
231,-300,0,0,0,0,0,0,0,0,0,-1,1455,1324,0,0
238,-300,0,0,0,0,0,0,0,0,0,-1,1462,1324,0,0
245,-300,0,0,0,0,0,0,0,0,0,-1,1469,1324,0,0
252,-300,0,0,0,0,0,0,0,0,0,-1,1476,1324,0,0
259,-300,0,0,0,0,0,0,0,0,0,-1,1483,1324,0,0
266,-300,0,0,0,0,0,0,0,0,0,-1,1490,1324,0,0
273,-300,0,0,0,0,0,0,0,0,0,-1,1497,1324,0,0
280,-300,0,0,0,0,0,0,0,0,0,-1,1504,1324,0,0
287,-300,0,0,0,0,0,0,0,0,0,-1,1511,1324,0,0
294,-300,0,0,0,0,0,0,0,0,0,-1,1518,1324,0,0
301,-300,0,0,0,0,0,0,0,0,0,-1,1525,1324,0,0
308,-300,0,0,0,0,0,0,0,0,0,-1,1532,1324,0,0
315,-300,0,0,0,0,0,0,0,0,0,-1,1539,1324,0,0
322,-300,0,0,0,0,0,0,0,0,0,-1,1546,1324,0,0
329,-300,0,0,0,0,0,0,0,0,0,-1,1553,1324,0,0
336,-300,0,0,0,0,0,0,0,0,0,-1,1560,1324,0,0
343,-300,0,0,0,0,0,0,0,0,0,-1,1567,1324,0,0
350,-300,0,0,0,0,0,0,0,0,0,-1,1574,1324,0,0
357,-300,0,0,0,0,0,0,0,0,0,-1,1581,1324,0,0
364,-300,0,0,0,0,0,0,0,0,0,-1,1588,1324,0,0
371,-300,0,0,0,0,0,0,0,0,0,-1,1595,1324,0,0
378,-300,0,0,0,0,0,0,0,0,0,-1,1602,1324,0,0
385,-300,0,0,0,0,0,0,0,0,0,-1,1609,1324,0,0
392,-300,0,0,0,0,0,0,0,0,0,-1,1616,1324,0,0
399,-300,0,0,0,0,0,0,0,0,0,-1,1623,1324,0,0
406,-300,0,0,0,0,0,0,0,0,0,-1,1630,1324,0,0
413,-300,0,0,0,0,0,0,0,0,0,-1,1637,1324,0,0
420,-300,0,0,0,0,0,0,0,0,0,-1,1644,1324,0,0
427,-300,0,0,0,0,0,0,0,0,0,-1,1651,1324,0,0
434,-300,0,0,0,0,0,0,0,0,0,-1,1658,1324,0,0
441,-300,0,0,0,0,0,0,0,0,0,-1,1665,1324,0,0
448,-300,0,0,0,0,0,0,0,0,0,-1,1672,1324,0,0
455,-300,0,0,0,0,0,0,0,0,0,-1,1679,1324,0,0
462,-300,0,0,0,0,0,0,0,0,0,-1,1686,1324,0,0
469,-300,0,0,0,0,0,0,0,0,0,-1,1693,1324,0,0
476,-300,0,0,0,0,0,0,0,0,0,-1,1700,1324,0,0
483,-300,0,0,0,0,0,0,0,0,0,-1,1707,1324,0,0
490,-300,0,0,0,0,0,0,0,0,0,-1,1714,1324,0,0
497,-300,0,0,0,0,0,0,0,0,0,-1,1721,1324,0,0
504,-300,0,0,0,0,0,0,0,0,0,-1,1728,1324,0,0
511,-300,0,0,0,0,0,0,0,0,0,-1,1735,1324,0,0
518,-300,0,0,0,0,0,0,0,0,0,-1,1742,1324,0,0
525,-300,0,0,0,0,0,0,0,0,0,-1,1749,1324,0,0
532,-300,0,0,0,0,0,0,0,0,0,-1,1756,1324,0,0
539,-300,0,0,0,0,0,0,0,0,0,-1,1763,1324,0,0
546,-300,0,0,0,0,0,0,0,0,0,-1,1770,1324,0,0
553,-300,0,0,0,0,0,0,0,0,0,-1,1777,1324,0,0
560,-300,0,0,0,0,0,0,0,0,0,-1,1784,1324,0,0
567,-300,0,0,0,0,0,0,0,0,0,-1,1791,1324,0,0
574,-300,0,0,0,0,0,0,0,0,0,-1,1798,1324,0,0
581,-300,0,0,0,0,0,0,0,0,0,-1,1805,1324,0,0
588,-300,45.2787,2.81055,0,0,0,0,0,0,0,-1,1812,1324,45.2787,-2.81056
595,-300,45.9817,2.8866,0,0,0,0,0,0,0,-1,1819,1324,45.9817,-2.88654
602,-300,45.7073,2.36829,0,0,0,0,0,0,0,-1,1826,1324,45.7073,-2.36824
609,-300,45.4207,1.84717,0,0,0,0,0,0,0,-1,1833,1324,45.4207,-1.84718
616,-300,45.15,1.30237,0,0,0,0,0,0,0,-1,1840,1324,45.1501,-1.30234
623,-300,43.1338,1.7113,0,0,0,0,0,0,0,-1,1847,1324,43.1339,-1.71129
630,-300,42.4099,3.9165,0,0,0,0,0,0,0,-1,1854,1324,42.4099,-3.91649
637,-300,31.1719,4.6366,0,0,0,0,0,0,0,-1,1861,1324,31.1718,-4.63665
644,-300,22.9836,3.44934,0,0,0,0,0,0,0,-1,1868,1324,22.9836,-3.4493
651,-300,25.5004,9.11853,0,0,0,0,0,0,0,-1,1875,1324,25.5004,-9.11851
658,-300,25.4012,9.20032,0,0,0,0,0,0,0,-1,1882,1324,25.4012,-9.20036
665,-300,30.9872,11.043,0,0,0,0,0,0,0,-1,1889,1324,30.9872,-11.0429
672,-300,30.8633,10.5103,0.00719312,-0.00125811,5.89987e-05,0.00719353,-0.00125852,0.00698062,0.00526557,0.020947,1896,1324,30.8633,-10.5102
679,-300,30.8788,10.0132,0.00373665,-0.00146427,-0.000803514,0.00385796,-0.00158558,-0.149841,0.00323282,0.012993,1903,1324,30.8787,-10.0132
686,-300,30.882,9.58606,0.00138904,-0.000704548,-0.000774832,0.00164461,-0.000960114,-0.318598,0.00152105,0.0138696,1910,1324,30.882,-9.58604
693,-300,30.8386,9.16553,0.000693038,-0.000423926,-0.000111561,0.000704072,-0.000434959,-0.0985812,0.00066371,0.011733,1917,1324,30.8387,-9.16555
700,-300,30.8258,8.71082,0.000156436,-0.00045246,0.000276771,0.000263437,-0.000559461,0.368907,0.00048524,0.0118822,1924,1324,30.8258,-8.71079
707,-300,30.8292,8.26257,-0.000506001,-0.000592611,0.000752986,0.000204924,-0.00130354,0.756674,0.00094477,0.00923257,1931,1324,30.8292,-8.26252
714,-300,30.8093,7.85144,-0.00135848,-0.000815837,0.00129784,0.000238737,-0.00241305,0.888442,0.0016939,0.0113338,1938,1324,30.8094,-7.85148
721,-300,30.8145,7.42273,-0.00244962,-0.00118321,0.00194751,0.000231446,-0.00386427,0.942575,0.00265669,0.0121631,1945,1324,30.8145,-7.42279
728,-300,30.8213,6.94812,-0.00391509,-0.00176488,0.00272771,9.1949e-05,-0.00577191,0.973121,0.00387896,0.0152913,1952,1324,30.8213,-6.94818
735,-300,30.6508,6.70374,-0.00569586,-0.00238843,0.00340022,-0.000261107,-0.00782319,1.01173,0.00513064,0.0312075,1959,1324,30.6508,-6.7037
742,-300,30.6305,6.30798,0,0,0,0,0,0,0,-1,1966,1324,30.6305,-6.30803
749,-300,27.4065,5.9718,0,0,0,0,0,0,0,-1,1973,1324,27.4065,-5.97181
756,-300,22.1423,3.45642,0,0,0,0,0,0,0,-1,1980,1324,22.1423,-3.45638
763,-300,22.6136,5.1571,0,0,0,0,0,0,0,-1,1987,1324,22.6136,-5.15706
770,-300,24.859,4.77979,0,0,0,0,0,0,0,-1,1994,1324,24.859,-4.77972
777,-300,0,0,0,0,0,0,0,0,0,-1,2001,1324,0,0
784,-300,0,0,0,0,0,0,0,0,0,-1,2008,1324,0,0
791,-300,0,0,0,0,0,0,0,0,0,-1,2015,1324,0,0
798,-300,0,0,0,0,0,0,0,0,0,-1,2022,1324,0,0
805,-300,0,0,0,0,0,0,0,0,0,-1,2029,1324,0,0
812,-300,0,0,0,0,0,0,0,0,0,-1,2036,1324,0,0
-700,-307,0,0,0,0,0,0,0,0,0,-1,524,1331,0,0
-693,-307,0,0,0,0,0,0,0,0,0,-1,531,1331,0,0
-686,-307,0,0,0,0,0,0,0,0,0,-1,538,1331,0,0
-679,-307,0,0,0,0,0,0,0,0,0,-1,545,1331,0,0
-672,-307,0,0,0,0,0,0,0,0,0,-1,552,1331,0,0
-665,-307,0,0,0,0,0,0,0,0,0,-1,559,1331,0,0
-658,-307,0,0,0,0,0,0,0,0,0,-1,566,1331,0,0
-651,-307,-20.2972,-0.0720215,0,0,0,0,0,0,0,-1,573,1331,-20.2973,0.0720287
-644,-307,-20.7615,0.556152,0,0,0,0,0,0,0,-1,580,1331,-20.7615,-0.556159
-637,-307,-21.0822,1.21277,0,0,0,0,0,0,0,-1,587,1331,-21.0821,-1.21273
-630,-307,-12.0005,0.767212,0,0,0,0,0,0,0,-1,594,1331,-12.0005,-0.767266
-623,-307,-12.2128,2.93811,0,0,0,0,0,0,0,-1,601,1331,-12.2128,-2.93813
-616,-307,-12.6612,2.08289,0,0,0,0,0,0,0,-1,608,1331,-12.6612,-2.08293
-609,-307,-12.2767,1.83228,0,0,0,0,0,0,0,-1,615,1331,-12.2768,-1.83224
-602,-307,-17.3074,3.94263,0,0,0,0,0,0,0,-1,622,1331,-17.3074,-3.94261
-595,-307,-17.408,4.55444,0.00562898,0.00649111,0.00505377,0.0111322,0.000987921,0.827943,0.00711504,0.0405362,629,1331,-17.4079,-4.55445
-588,-307,-17.3196,5.11353,0.0041304,0.00443441,0.00348804,0.00777375,0.000791052,0.807174,0.00493998,0.0205708,636,1331,-17.3196,-5.11356
-581,-307,-17.3112,5.59387,0.00323521,0.00301068,0.00240644,0.00553201,0.000713888,0.762089,0.00347458,0.0158815,643,1331,-17.3112,-5.5939
-574,-307,-17.343,6.0531,0.002727,0.00189781,0.00165924,0.00402266,0.000602155,0.66297,0.00250529,0.0133453,650,1331,-17.343,-6.05313
-567,-307,-17.3638,6.5321,0.00253696,0.00102339,0.00115372,0.00315995,0.000400396,0.495126,0.00198667,0.0127651,657,1331,-17.3638,-6.53207
-560,-307,-17.3552,7.02124,0.00265492,0.000318836,0.000858092,0.00293624,3.75182e-05,0.316799,0.00194511,0.0135604,664,1331,-17.3552,-7.02128
-553,-307,-17.3723,7.50049,0.00306238,-0.0002056,0.000761868,0.00323127,-0.000374486,0.218147,0.00228924,0.0111546,671,1331,-17.3723,-7.50048
-546,-307,-17.4083,7.97681,0.00380171,-0.00054667,0.000894275,0.00397844,-0.000723402,0.195111,0.00292341,0.0107839,678,1331,-17.4083,-7.97681
-539,-307,-17.4042,8.47852,0.00497438,-0.000840272,0.00127532,0.00524179,-0.00110769,0.20669,0.00391633,0.0156353,685,1331,-17.4042,-8.47857
-532,-307,-17.3768,8.96558,0,0,0,0,0,0,0,-1,692,1331,-17.3768,-8.96559
-525,-307,-13.2009,6.91309,0,0,0,0,0,0,0,-1,699,1331,-13.2009,-6.9131
-518,-307,-9.77777,-1.56653,0,0,0,0,0,0,0,-1,706,1331,-9.77777,1.56651
-511,-307,-12.5226,0.26709,0,0,0,0,0,0,0,-1,713,1331,-12.5226,-0.267038
-504,-307,-12.5913,-0.308105,0,0,0,0,0,0,0,-1,720,1331,-12.5913,0.308124
-497,-307,-13.8586,-0.115845,0,0,0,0,0,0,0,-1,727,1331,-13.8587,0.115861
-490,-307,-17.9429,0.982178,0,0,0,0,0,0,0,-1,734,1331,-17.9429,-0.982198
-483,-307,-18.1066,0.927612,0,0,0,0,0,0,0,-1,741,1331,-18.1066,-0.927609
-476,-307,-18.1288,1.1228,0,0,0,0,0,0,0,-1,748,1331,-18.1289,-1.12286
-469,-307,-18.2028,0.798584,0,0,0,0,0,0,0,-1,755,1331,-18.2027,-0.798546
-462,-307,0,0,0,0,0,0,0,0,0,-1,762,1331,0,0
-455,-307,0,0,0,0,0,0,0,0,0,-1,769,1331,0,0
-448,-307,0,0,0,0,0,0,0,0,0,-1,776,1331,0,0
-441,-307,0,0,0,0,0,0,0,0,0,-1,783,1331,0,0
-434,-307,0,0,0,0,0,0,0,0,0,-1,790,1331,0,0
-427,-307,0,0,0,0,0,0,0,0,0,-1,797,1331,0,0
-420,-307,0,0,0,0,0,0,0,0,0,-1,804,1331,0,0
-413,-307,0,0,0,0,0,0,0,0,0,-1,811,1331,0,0
-406,-307,0,0,0,0,0,0,0,0,0,-1,818,1331,0,0
-399,-307,0,0,0,0,0,0,0,0,0,-1,825,1331,0,0
-392,-307,0,0,0,0,0,0,0,0,0,-1,832,1331,0,0
-385,-307,0,0,0,0,0,0,0,0,0,-1,839,1331,0,0
-378,-307,0,0,0,0,0,0,0,0,0,-1,846,1331,0,0
-371,-307,0,0,0,0,0,0,0,0,0,-1,853,1331,0,0
-364,-307,0,0,0,0,0,0,0,0,0,-1,860,1331,0,0
-357,-307,0,0,0,0,0,0,0,0,0,-1,867,1331,0,0
-350,-307,0,0,0,0,0,0,0,0,0,-1,874,1331,0,0
-343,-307,0,0,0,0,0,0,0,0,0,-1,881,1331,0,0
-336,-307,0,0,0,0,0,0,0,0,0,-1,888,1331,0,0
-329,-307,0,0,0,0,0,0,0,0,0,-1,895,1331,0,0
-322,-307,0,0,0,0,0,0,0,0,0,-1,902,1331,0,0
-315,-307,0,0,0,0,0,0,0,0,0,-1,909,1331,0,0
-308,-307,0,0,0,0,0,0,0,0,0,-1,916,1331,0,0
-301,-307,0,0,0,0,0,0,0,0,0,-1,923,1331,0,0
-294,-307,0,0,0,0,0,0,0,0,0,-1,930,1331,0,0
-287,-307,0,0,0,0,0,0,0,0,0,-1,937,1331,0,0
-280,-307,0,0,0,0,0,0,0,0,0,-1,944,1331,0,0
-273,-307,0,0,0,0,0,0,0,0,0,-1,951,1331,0,0
-266,-307,0,0,0,0,0,0,0,0,0,-1,958,1331,0,0
-259,-307,0,0,0,0,0,0,0,0,0,-1,965,1331,0,0
-252,-307,0,0,0,0,0,0,0,0,0,-1,972,1331,0,0
-245,-307,0,0,0,0,0,0,0,0,0,-1,979,1331,0,0
-238,-307,0,0,0,0,0,0,0,0,0,-1,986,1331,0,0
-231,-307,0,0,0,0,0,0,0,0,0,-1,993,1331,0,0
-224,-307,0,0,0,0,0,0,0,0,0,-1,1000,1331,0,0
-217,-307,0,0,0,0,0,0,0,0,0,-1,1007,1331,0,0
-210,-307,0,0,0,0,0,0,0,0,0,-1,1014,1331,0,0
-203,-307,0,0,0,0,0,0,0,0,0,-1,1021,1331,0,0
-196,-307,0,0,0,0,0,0,0,0,0,-1,1028,1331,0,0
-189,-307,0,0,0,0,0,0,0,0,0,-1,1035,1331,0,0
-182,-307,0,0,0,0,0,0,0,0,0,-1,1042,1331,0,0
-175,-307,0,0,0,0,0,0,0,0,0,-1,1049,1331,0,0
-168,-307,0,0,0,0,0,0,0,0,0,-1,1056,1331,0,0
-161,-307,0,0,0,0,0,0,0,0,0,-1,1063,1331,0,0
-154,-307,0,0,0,0,0,0,0,0,0,-1,1070,1331,0,0
-147,-307,0,0,0,0,0,0,0,0,0,-1,1077,1331,0,0
-140,-307,0,0,0,0,0,0,0,0,0,-1,1084,1331,0,0
-133,-307,0,0,0,0,0,0,0,0,0,-1,1091,1331,0,0
-126,-307,0,0,0,0,0,0,0,0,0,-1,1098,1331,0,0
-119,-307,0,0,0,0,0,0,0,0,0,-1,1105,1331,0,0
-112,-307,0,0,0,0,0,0,0,0,0,-1,1112,1331,0,0
-105,-307,0,0,0,0,0,0,0,0,0,-1,1119,1331,0,0
-98,-307,0,0,0,0,0,0,0,0,0,-1,1126,1331,0,0
-91,-307,0,0,0,0,0,0,0,0,0,-1,1133,1331,0,0
-84,-307,0,0,0,0,0,0,0,0,0,-1,1140,1331,0,0
-77,-307,0,0,0,0,0,0,0,0,0,-1,1147,1331,0,0
-70,-307,0,0,0,0,0,0,0,0,0,-1,1154,1331,0,0
-63,-307,0,0,0,0,0,0,0,0,0,-1,1161,1331,0,0
-56,-307,0,0,0,0,0,0,0,0,0,-1,1168,1331,0,0
-49,-307,0,0,0,0,0,0,0,0,0,-1,1175,1331,0,0
-42,-307,0,0,0,0,0,0,0,0,0,-1,1182,1331,0,0
-35,-307,0,0,0,0,0,0,0,0,0,-1,1189,1331,0,0
-28,-307,0,0,0,0,0,0,0,0,0,-1,1196,1331,0,0
-21,-307,0,0,0,0,0,0,0,0,0,-1,1203,1331,0,0
-14,-307,0,0,0,0,0,0,0,0,0,-1,1210,1331,0,0
-7,-307,0,0,0,0,0,0,0,0,0,-1,1217,1331,0,0
0,-307,0,0,0,0,0,0,0,0,0,-1,1224,1331,0,0
7,-307,0,0,0,0,0,0,0,0,0,-1,1231,1331,0,0
14,-307,0,0,0,0,0,0,0,0,0,-1,1238,1331,0,0
21,-307,0,0,0,0,0,0,0,0,0,-1,1245,1331,0,0
28,-307,0,0,0,0,0,0,0,0,0,-1,1252,1331,0,0
35,-307,0,0,0,0,0,0,0,0,0,-1,1259,1331,0,0
42,-307,0,0,0,0,0,0,0,0,0,-1,1266,1331,0,0
49,-307,0,0,0,0,0,0,0,0,0,-1,1273,1331,0,0
56,-307,0,0,0,0,0,0,0,0,0,-1,1280,1331,0,0
63,-307,0,0,0,0,0,0,0,0,0,-1,1287,1331,0,0
70,-307,0,0,0,0,0,0,0,0,0,-1,1294,1331,0,0
77,-307,0,0,0,0,0,0,0,0,0,-1,1301,1331,0,0
84,-307,0,0,0,0,0,0,0,0,0,-1,1308,1331,0,0
91,-307,0,0,0,0,0,0,0,0,0,-1,1315,1331,0,0
98,-307,0,0,0,0,0,0,0,0,0,-1,1322,1331,0,0
105,-307,0,0,0,0,0,0,0,0,0,-1,1329,1331,0,0
112,-307,0,0,0,0,0,0,0,0,0,-1,1336,1331,0,0
119,-307,0,0,0,0,0,0,0,0,0,-1,1343,1331,0,0
126,-307,0,0,0,0,0,0,0,0,0,-1,1350,1331,0,0
133,-307,0,0,0,0,0,0,0,0,0,-1,1357,1331,0,0
140,-307,0,0,0,0,0,0,0,0,0,-1,1364,1331,0,0
147,-307,0,0,0,0,0,0,0,0,0,-1,1371,1331,0,0
154,-307,0,0,0,0,0,0,0,0,0,-1,1378,1331,0,0
161,-307,0,0,0,0,0,0,0,0,0,-1,1385,1331,0,0
168,-307,0,0,0,0,0,0,0,0,0,-1,1392,1331,0,0
175,-307,0,0,0,0,0,0,0,0,0,-1,1399,1331,0,0
182,-307,0,0,0,0,0,0,0,0,0,-1,1406,1331,0,0
189,-307,0,0,0,0,0,0,0,0,0,-1,1413,1331,0,0
196,-307,0,0,0,0,0,0,0,0,0,-1,1420,1331,0,0
203,-307,0,0,0,0,0,0,0,0,0,-1,1427,1331,0,0
210,-307,0,0,0,0,0,0,0,0,0,-1,1434,1331,0,0
217,-307,0,0,0,0,0,0,0,0,0,-1,1441,1331,0,0
224,-307,0,0,0,0,0,0,0,0,0,-1,1448,1331,0,0
231,-307,0,0,0,0,0,0,0,0,0,-1,1455,1331,0,0
238,-307,0,0,0,0,0,0,0,0,0,-1,1462,1331,0,0
245,-307,0,0,0,0,0,0,0,0,0,-1,1469,1331,0,0
252,-307,0,0,0,0,0,0,0,0,0,-1,1476,1331,0,0
259,-307,0,0,0,0,0,0,0,0,0,-1,1483,1331,0,0
266,-307,0,0,0,0,0,0,0,0,0,-1,1490,1331,0,0
273,-307,0,0,0,0,0,0,0,0,0,-1,1497,1331,0,0
280,-307,0,0,0,0,0,0,0,0,0,-1,1504,1331,0,0
287,-307,0,0,0,0,0,0,0,0,0,-1,1511,1331,0,0
294,-307,0,0,0,0,0,0,0,0,0,-1,1518,1331,0,0
301,-307,0,0,0,0,0,0,0,0,0,-1,1525,1331,0,0
308,-307,0,0,0,0,0,0,0,0,0,-1,1532,1331,0,0
315,-307,0,0,0,0,0,0,0,0,0,-1,1539,1331,0,0
322,-307,0,0,0,0,0,0,0,0,0,-1,1546,1331,0,0
329,-307,0,0,0,0,0,0,0,0,0,-1,1553,1331,0,0
336,-307,0,0,0,0,0,0,0,0,0,-1,1560,1331,0,0
343,-307,0,0,0,0,0,0,0,0,0,-1,1567,1331,0,0
350,-307,0,0,0,0,0,0,0,0,0,-1,1574,1331,0,0
357,-307,0,0,0,0,0,0,0,0,0,-1,1581,1331,0,0
364,-307,0,0,0,0,0,0,0,0,0,-1,1588,1331,0,0
371,-307,0,0,0,0,0,0,0,0,0,-1,1595,1331,0,0
378,-307,0,0,0,0,0,0,0,0,0,-1,1602,1331,0,0
385,-307,0,0,0,0,0,0,0,0,0,-1,1609,1331,0,0
392,-307,0,0,0,0,0,0,0,0,0,-1,1616,1331,0,0
399,-307,0,0,0,0,0,0,0,0,0,-1,1623,1331,0,0
406,-307,0,0,0,0,0,0,0,0,0,-1,1630,1331,0,0
413,-307,0,0,0,0,0,0,0,0,0,-1,1637,1331,0,0
420,-307,0,0,0,0,0,0,0,0,0,-1,1644,1331,0,0
427,-307,0,0,0,0,0,0,0,0,0,-1,1651,1331,0,0
434,-307,0,0,0,0,0,0,0,0,0,-1,1658,1331,0,0
441,-307,0,0,0,0,0,0,0,0,0,-1,1665,1331,0,0
448,-307,0,0,0,0,0,0,0,0,0,-1,1672,1331,0,0
455,-307,0,0,0,0,0,0,0,0,0,-1,1679,1331,0,0
462,-307,0,0,0,0,0,0,0,0,0,-1,1686,1331,0,0
469,-307,0,0,0,0,0,0,0,0,0,-1,1693,1331,0,0
476,-307,0,0,0,0,0,0,0,0,0,-1,1700,1331,0,0
483,-307,0,0,0,0,0,0,0,0,0,-1,1707,1331,0,0
490,-307,0,0,0,0,0,0,0,0,0,-1,1714,1331,0,0
497,-307,0,0,0,0,0,0,0,0,0,-1,1721,1331,0,0
504,-307,0,0,0,0,0,0,0,0,0,-1,1728,1331,0,0
511,-307,0,0,0,0,0,0,0,0,0,-1,1735,1331,0,0
518,-307,0,0,0,0,0,0,0,0,0,-1,1742,1331,0,0
525,-307,0,0,0,0,0,0,0,0,0,-1,1749,1331,0,0
532,-307,0,0,0,0,0,0,0,0,0,-1,1756,1331,0,0
539,-307,0,0,0,0,0,0,0,0,0,-1,1763,1331,0,0
546,-307,0,0,0,0,0,0,0,0,0,-1,1770,1331,0,0
553,-307,0,0,0,0,0,0,0,0,0,-1,1777,1331,0,0
560,-307,0,0,0,0,0,0,0,0,0,-1,1784,1331,0,0
567,-307,0,0,0,0,0,0,0,0,0,-1,1791,1331,0,0
574,-307,0,0,0,0,0,0,0,0,0,-1,1798,1331,0,0
581,-307,0,0,0,0,0,0,0,0,0,-1,1805,1331,0,0
588,-307,45.5188,2.79504,0,0,0,0,0,0,0,-1,1812,1331,45.5188,-2.79507
595,-307,45.1559,2.55737,0,0,0,0,0,0,0,-1,1819,1331,45.1559,-2.55742
602,-307,45.728,2.49048,0,0,0,0,0,0,0,-1,1826,1331,45.728,-2.49045
609,-307,45.4706,1.9668,0,0,0,0,0,0,0,-1,1833,1331,45.4706,-1.96685
616,-307,43.4891,2.37891,0,0,0,0,0,0,0,-1,1840,1331,43.4891,-2.37891
623,-307,42.6384,2.33337,0,0,0,0,0,0,0,-1,1847,1331,42.6385,-2.33341
630,-307,29.8116,1.51184,0,0,0,0,0,0,0,-1,1854,1331,29.8116,-1.51188
637,-307,24.6407,4.09106,0,0,0,0,0,0,0,-1,1861,1331,24.6407,-4.09103
644,-307,22.6885,5.80408,0,0,0,0,0,0,0,-1,1868,1331,22.6884,-5.80408
651,-307,17.5013,5.80078,0,0,0,0,0,0,0,-1,1875,1331,17.5014,-5.80072
658,-307,30.7645,11.4393,0,0,0,0,0,0,0,-1,1882,1331,30.7646,-11.4394
665,-307,30.5115,10.9127,0.00902965,-0.00121963,0.000822916,0.0090953,-0.00128528,0.0796105,0.00653423,0.0402182,1889,1331,30.5115,-10.9128
672,-307,30.4399,10.5035,0.00598129,-0.00115302,0.00029037,0.00599309,-0.00116482,0.040611,0.00443495,0.0143055,1896,1331,30.4399,-10.5036
679,-307,30.4255,10.0585,0.00292651,-0.00125592,-0.000451934,0.00297478,-0.0013042,-0.106419,0.00253245,0.0104805,1903,1331,30.4255,-10.0585
686,-307,30.411,9.62708,0.00111358,-0.00066358,-0.000432024,0.00121303,-0.000763038,-0.226272,0.0011507,0.0097079,1910,1331,30.411,-9.6271
693,-307,30.389,9.18237,0.000579645,-0.000461407,2.48887e-05,0.00058024,-0.000462002,0.0238891,0.000603028,0.0116621,1917,1331,30.389,-9.18238
700,-307,30.4001,8.70081,0.000124235,-0.000467064,0.000356114,0.000291431,-0.00063426,0.438952,0.000546529,0.0133612,1924,1331,30.4002,-8.70082
707,-307,30.4089,8.23828,-0.000452549,-0.000588906,0.000785517,0.000267742,-0.0013092,0.74211,0.000974386,0.0144632,1931,1331,30.4089,-8.23833
714,-307,30.3789,7.86584,-0.00121676,-0.000815257,0.00130195,0.000301323,-0.00233334,0.861892,0.00166511,0.0135935,1938,1331,30.3789,-7.86586
721,-307,30.3876,7.45874,-0.00223803,-0.00123353,0.00197464,0.000301732,-0.00377329,0.909932,0.0026219,0.0173582,1945,1331,30.3875,-7.45876
728,-307,30.3553,7.1438,-0.00367098,-0.00194659,0.00282352,0.00014345,-0.00576101,0.933582,0.00388937,0.0420222,1952,1331,30.3554,-7.14382
735,-307,30.3958,6.58679,0,0,0,0,0,0,0,-1,1959,1331,30.3958,-6.58685
742,-307,26.677,6.09192,0,0,0,0,0,0,0,-1,1966,1331,26.677,-6.0919
749,-307,26.7727,5.9032,0,0,0,0,0,0,0,-1,1973,1331,26.7727,-5.90323
756,-307,27.1556,5.74756,0,0,0,0,0,0,0,-1,1980,1331,27.1557,-5.7475
763,-307,18.7522,3.55298,0,0,0,0,0,0,0,-1,1987,1331,18.7522,-3.55301
770,-307,0,0,0,0,0,0,0,0,0,-1,1994,1331,0,0
777,-307,0,0,0,0,0,0,0,0,0,-1,2001,1331,0,0
784,-307,0,0,0,0,0,0,0,0,0,-1,2008,1331,0,0
791,-307,0,0,0,0,0,0,0,0,0,-1,2015,1331,0,0
798,-307,0,0,0,0,0,0,0,0,0,-1,2022,1331,0,0
805,-307,0,0,0,0,0,0,0,0,0,-1,2029,1331,0,0
812,-307,0,0,0,0,0,0,0,0,0,-1,2036,1331,0,0
-700,-314,0,0,0,0,0,0,0,0,0,-1,524,1338,0,0
-693,-314,0,0,0,0,0,0,0,0,0,-1,531,1338,0,0
-686,-314,0,0,0,0,0,0,0,0,0,-1,538,1338,0,0
-679,-314,0,0,0,0,0,0,0,0,0,-1,545,1338,0,0
-672,-314,0,0,0,0,0,0,0,0,0,-1,552,1338,0,0
-665,-314,0,0,0,0,0,0,0,0,0,-1,559,1338,0,0
-658,-314,0,0,0,0,0,0,0,0,0,-1,566,1338,0,0
-651,-314,0,0,0,0,0,0,0,0,0,-1,573,1338,0,0
-644,-314,-20.9896,-0.0299072,0,0,0,0,0,0,0,-1,580,1338,-20.9896,0.0299587
-637,-314,-18.8677,6.62646,0,0,0,0,0,0,0,-1,587,1338,-18.8677,-6.62651
-630,-314,-13.2771,2.98938,0,0,0,0,0,0,0,-1,594,1338,-13.2771,-2.98943
-623,-314,-13.3542,3.00903,0,0,0,0,0,0,0,-1,601,1338,-13.3542,-3.00907
-616,-314,-9.93311,1.15088,0,0,0,0,0,0,0,-1,608,1338,-9.93308,-1.15093
-609,-314,-9.4361,2.86292,0,0,0,0,0,0,0,-1,615,1338,-9.43612,-2.86286
-602,-314,-11.8027,2.42798,0,0,0,0,0,0,0,-1,622,1338,-11.8027,-2.42802
-595,-314,-17.0313,4.50037,0,0,0,0,0,0,0,-1,629,1338,-17.0313,-4.50034
-588,-314,-16.8721,5.04883,0.00457288,0.00446151,0.00358575,0.00810337,0.000931017,0.777634,0.0051202,0.0303313,636,1338,-16.8721,-5.04888
-581,-314,-16.8139,5.57507,0.00351386,0.00310269,0.00243953,0.00575646,0.000860102,0.743361,0.00358549,0.0132497,643,1338,-16.8139,-5.57509
-574,-314,-16.8612,6.04028,0.0029024,0.00203506,0.00168623,0.00420983,0.000727626,0.659535,0.0025982,0.0131472,650,1338,-16.8612,-6.04034
-567,-314,-16.8748,6.55017,0.00263676,0.00120598,0.00119711,0.00331595,0.000526791,0.516074,0.00205764,0.0140646,657,1338,-16.8748,-6.55015
-560,-314,-16.841,7.04468,0.0027048,0.000550009,0.00093889,0.00305649,0.000198316,0.358406,0.00197488,0.0153579,664,1338,-16.841,-7.04472
-553,-314,-16.8694,7.51611,0.00304352,3.22994e-05,0.000863796,0.00327371,-0.000197892,0.260435,0.00225134,0.018715,671,1338,-16.8694,-7.51614
-546,-314,-16.9355,8.00378,0.0037336,-0.00032804,0.00101966,0.00397521,-0.00056965,0.23266,0.002859,0.0190288,678,1338,-16.9355,-8.00381
-539,-314,-16.9242,8.49707,0.00481463,-0.000600416,0.00140455,0.00515726,-0.000943046,0.23927,0.00379181,0.0174653,685,1338,-16.9242,-8.49705
-532,-314,-16.8542,8.93872,0,0,0,0,0,0,0,-1,692,1338,-16.8543,-8.93869
-525,-314,-13.3017,7.50671,0,0,0,0,0,0,0,-1,699,1338,-13.3017,-7.50669
-518,-314,-8.52753,4.70032,0,0,0,0,0,0,0,-1,706,1338,-8.52755,-4.70034
-511,-314,-11.8597,0.384888,0,0,0,0,0,0,0,-1,713,1338,-11.8597,-0.384927
-504,-314,-11.4322,-0.187378,0,0,0,0,0,0,0,-1,720,1338,-11.4322,0.187381
-497,-314,-11.0047,-0.759644,0,0,0,0,0,0,0,-1,727,1338,-11.0047,0.759689
-490,-314,-18.5143,0.471069,0,0,0,0,0,0,0,-1,734,1338,-18.5143,-0.47103
-483,-314,-17.8528,0.577271,0,0,0,0,0,0,0,-1,741,1338,-17.8528,-0.577327
-476,-314,-17.714,0.665405,0,0,0,0,0,0,0,-1,748,1338,-17.714,-0.665388
-469,-314,-17.7246,0.794678,0,0,0,0,0,0,0,-1,755,1338,-17.7246,-0.794645
-462,-314,0,0,0,0,0,0,0,0,0,-1,762,1338,0,0
-455,-314,0,0,0,0,0,0,0,0,0,-1,769,1338,0,0
-448,-314,0,0,0,0,0,0,0,0,0,-1,776,1338,0,0
-441,-314,0,0,0,0,0,0,0,0,0,-1,783,1338,0,0
-434,-314,0,0,0,0,0,0,0,0,0,-1,790,1338,0,0
-427,-314,0,0,0,0,0,0,0,0,0,-1,797,1338,0,0
-420,-314,0,0,0,0,0,0,0,0,0,-1,804,1338,0,0
-413,-314,0,0,0,0,0,0,0,0,0,-1,811,1338,0,0
-406,-314,0,0,0,0,0,0,0,0,0,-1,818,1338,0,0
-399,-314,0,0,0,0,0,0,0,0,0,-1,825,1338,0,0
-392,-314,0,0,0,0,0,0,0,0,0,-1,832,1338,0,0
-385,-314,0,0,0,0,0,0,0,0,0,-1,839,1338,0,0
-378,-314,0,0,0,0,0,0,0,0,0,-1,846,1338,0,0
-371,-314,0,0,0,0,0,0,0,0,0,-1,853,1338,0,0
-364,-314,0,0,0,0,0,0,0,0,0,-1,860,1338,0,0
-357,-314,0,0,0,0,0,0,0,0,0,-1,867,1338,0,0
-350,-314,0,0,0,0,0,0,0,0,0,-1,874,1338,0,0
-343,-314,0,0,0,0,0,0,0,0,0,-1,881,1338,0,0
-336,-314,0,0,0,0,0,0,0,0,0,-1,888,1338,0,0
-329,-314,0,0,0,0,0,0,0,0,0,-1,895,1338,0,0
-322,-314,0,0,0,0,0,0,0,0,0,-1,902,1338,0,0
-315,-314,0,0,0,0,0,0,0,0,0,-1,909,1338,0,0
-308,-314,0,0,0,0,0,0,0,0,0,-1,916,1338,0,0
-301,-314,0,0,0,0,0,0,0,0,0,-1,923,1338,0,0
-294,-314,0,0,0,0,0,0,0,0,0,-1,930,1338,0,0
-287,-314,0,0,0,0,0,0,0,0,0,-1,937,1338,0,0
-280,-314,0,0,0,0,0,0,0,0,0,-1,944,1338,0,0
-273,-314,0,0,0,0,0,0,0,0,0,-1,951,1338,0,0
-266,-314,0,0,0,0,0,0,0,0,0,-1,958,1338,0,0
-259,-314,0,0,0,0,0,0,0,0,0,-1,965,1338,0,0
-252,-314,0,0,0,0,0,0,0,0,0,-1,972,1338,0,0
-245,-314,0,0,0,0,0,0,0,0,0,-1,979,1338,0,0
-238,-314,0,0,0,0,0,0,0,0,0,-1,986,1338,0,0
-231,-314,0,0,0,0,0,0,0,0,0,-1,993,1338,0,0
-224,-314,0,0,0,0,0,0,0,0,0,-1,1000,1338,0,0
-217,-314,0,0,0,0,0,0,0,0,0,-1,1007,1338,0,0
-210,-314,0,0,0,0,0,0,0,0,0,-1,1014,1338,0,0
-203,-314,0,0,0,0,0,0,0,0,0,-1,1021,1338,0,0
-196,-314,0,0,0,0,0,0,0,0,0,-1,1028,1338,0,0
-189,-314,0,0,0,0,0,0,0,0,0,-1,1035,1338,0,0
-182,-314,0,0,0,0,0,0,0,0,0,-1,1042,1338,0,0
-175,-314,0,0,0,0,0,0,0,0,0,-1,1049,1338,0,0
-168,-314,0,0,0,0,0,0,0,0,0,-1,1056,1338,0,0
-161,-314,0,0,0,0,0,0,0,0,0,-1,1063,1338,0,0
-154,-314,0,0,0,0,0,0,0,0,0,-1,1070,1338,0,0
-147,-314,0,0,0,0,0,0,0,0,0,-1,1077,1338,0,0
-140,-314,0,0,0,0,0,0,0,0,0,-1,1084,1338,0,0
-133,-314,0,0,0,0,0,0,0,0,0,-1,1091,1338,0,0
-126,-314,0,0,0,0,0,0,0,0,0,-1,1098,1338,0,0
-119,-314,0,0,0,0,0,0,0,0,0,-1,1105,1338,0,0
-112,-314,0,0,0,0,0,0,0,0,0,-1,1112,1338,0,0
-105,-314,0,0,0,0,0,0,0,0,0,-1,1119,1338,0,0
-98,-314,0,0,0,0,0,0,0,0,0,-1,1126,1338,0,0
-91,-314,0,0,0,0,0,0,0,0,0,-1,1133,1338,0,0
-84,-314,0,0,0,0,0,0,0,0,0,-1,1140,1338,0,0
-77,-314,0,0,0,0,0,0,0,0,0,-1,1147,1338,0,0
-70,-314,0,0,0,0,0,0,0,0,0,-1,1154,1338,0,0
-63,-314,0,0,0,0,0,0,0,0,0,-1,1161,1338,0,0
-56,-314,0,0,0,0,0,0,0,0,0,-1,1168,1338,0,0
-49,-314,0,0,0,0,0,0,0,0,0,-1,1175,1338,0,0
-42,-314,0,0,0,0,0,0,0,0,0,-1,1182,1338,0,0
-35,-314,0,0,0,0,0,0,0,0,0,-1,1189,1338,0,0
-28,-314,0,0,0,0,0,0,0,0,0,-1,1196,1338,0,0
-21,-314,0,0,0,0,0,0,0,0,0,-1,1203,1338,0,0
-14,-314,0,0,0,0,0,0,0,0,0,-1,1210,1338,0,0
-7,-314,0,0,0,0,0,0,0,0,0,-1,1217,1338,0,0
0,-314,0,0,0,0,0,0,0,0,0,-1,1224,1338,0,0
7,-314,0,0,0,0,0,0,0,0,0,-1,1231,1338,0,0
14,-314,0,0,0,0,0,0,0,0,0,-1,1238,1338,0,0
21,-314,0,0,0,0,0,0,0,0,0,-1,1245,1338,0,0
28,-314,0,0,0,0,0,0,0,0,0,-1,1252,1338,0,0
35,-314,0,0,0,0,0,0,0,0,0,-1,1259,1338,0,0
42,-314,0,0,0,0,0,0,0,0,0,-1,1266,1338,0,0
49,-314,0,0,0,0,0,0,0,0,0,-1,1273,1338,0,0
56,-314,0,0,0,0,0,0,0,0,0,-1,1280,1338,0,0
63,-314,0,0,0,0,0,0,0,0,0,-1,1287,1338,0,0
70,-314,0,0,0,0,0,0,0,0,0,-1,1294,1338,0,0
77,-314,0,0,0,0,0,0,0,0,0,-1,1301,1338,0,0
84,-314,0,0,0,0,0,0,0,0,0,-1,1308,1338,0,0
91,-314,0,0,0,0,0,0,0,0,0,-1,1315,1338,0,0
98,-314,0,0,0,0,0,0,0,0,0,-1,1322,1338,0,0
105,-314,0,0,0,0,0,0,0,0,0,-1,1329,1338,0,0
112,-314,0,0,0,0,0,0,0,0,0,-1,1336,1338,0,0
119,-314,0,0,0,0,0,0,0,0,0,-1,1343,1338,0,0
126,-314,0,0,0,0,0,0,0,0,0,-1,1350,1338,0,0
133,-314,0,0,0,0,0,0,0,0,0,-1,1357,1338,0,0
140,-314,0,0,0,0,0,0,0,0,0,-1,1364,1338,0,0
147,-314,0,0,0,0,0,0,0,0,0,-1,1371,1338,0,0
154,-314,0,0,0,0,0,0,0,0,0,-1,1378,1338,0,0
161,-314,0,0,0,0,0,0,0,0,0,-1,1385,1338,0,0
168,-314,0,0,0,0,0,0,0,0,0,-1,1392,1338,0,0
175,-314,0,0,0,0,0,0,0,0,0,-1,1399,1338,0,0
182,-314,0,0,0,0,0,0,0,0,0,-1,1406,1338,0,0
189,-314,0,0,0,0,0,0,0,0,0,-1,1413,1338,0,0
196,-314,0,0,0,0,0,0,0,0,0,-1,1420,1338,0,0
203,-314,0,0,0,0,0,0,0,0,0,-1,1427,1338,0,0
210,-314,0,0,0,0,0,0,0,0,0,-1,1434,1338,0,0
217,-314,0,0,0,0,0,0,0,0,0,-1,1441,1338,0,0
224,-314,0,0,0,0,0,0,0,0,0,-1,1448,1338,0,0
231,-314,0,0,0,0,0,0,0,0,0,-1,1455,1338,0,0
238,-314,0,0,0,0,0,0,0,0,0,-1,1462,1338,0,0
245,-314,0,0,0,0,0,0,0,0,0,-1,1469,1338,0,0
252,-314,0,0,0,0,0,0,0,0,0,-1,1476,1338,0,0
259,-314,0,0,0,0,0,0,0,0,0,-1,1483,1338,0,0
266,-314,0,0,0,0,0,0,0,0,0,-1,1490,1338,0,0
273,-314,0,0,0,0,0,0,0,0,0,-1,1497,1338,0,0
280,-314,0,0,0,0,0,0,0,0,0,-1,1504,1338,0,0
287,-314,0,0,0,0,0,0,0,0,0,-1,1511,1338,0,0
294,-314,0,0,0,0,0,0,0,0,0,-1,1518,1338,0,0
301,-314,0,0,0,0,0,0,0,0,0,-1,1525,1338,0,0
308,-314,0,0,0,0,0,0,0,0,0,-1,1532,1338,0,0
315,-314,0,0,0,0,0,0,0,0,0,-1,1539,1338,0,0
322,-314,0,0,0,0,0,0,0,0,0,-1,1546,1338,0,0
329,-314,0,0,0,0,0,0,0,0,0,-1,1553,1338,0,0
336,-314,0,0,0,0,0,0,0,0,0,-1,1560,1338,0,0
343,-314,0,0,0,0,0,0,0,0,0,-1,1567,1338,0,0
350,-314,0,0,0,0,0,0,0,0,0,-1,1574,1338,0,0
357,-314,0,0,0,0,0,0,0,0,0,-1,1581,1338,0,0
364,-314,0,0,0,0,0,0,0,0,0,-1,1588,1338,0,0
371,-314,0,0,0,0,0,0,0,0,0,-1,1595,1338,0,0
378,-314,0,0,0,0,0,0,0,0,0,-1,1602,1338,0,0
385,-314,0,0,0,0,0,0,0,0,0,-1,1609,1338,0,0
392,-314,0,0,0,0,0,0,0,0,0,-1,1616,1338,0,0
399,-314,0,0,0,0,0,0,0,0,0,-1,1623,1338,0,0
406,-314,0,0,0,0,0,0,0,0,0,-1,1630,1338,0,0
413,-314,0,0,0,0,0,0,0,0,0,-1,1637,1338,0,0
420,-314,0,0,0,0,0,0,0,0,0,-1,1644,1338,0,0
427,-314,0,0,0,0,0,0,0,0,0,-1,1651,1338,0,0
434,-314,0,0,0,0,0,0,0,0,0,-1,1658,1338,0,0
441,-314,0,0,0,0,0,0,0,0,0,-1,1665,1338,0,0
448,-314,0,0,0,0,0,0,0,0,0,-1,1672,1338,0,0
455,-314,0,0,0,0,0,0,0,0,0,-1,1679,1338,0,0
462,-314,0,0,0,0,0,0,0,0,0,-1,1686,1338,0,0
469,-314,0,0,0,0,0,0,0,0,0,-1,1693,1338,0,0
476,-314,0,0,0,0,0,0,0,0,0,-1,1700,1338,0,0
483,-314,0,0,0,0,0,0,0,0,0,-1,1707,1338,0,0
490,-314,0,0,0,0,0,0,0,0,0,-1,1714,1338,0,0
497,-314,0,0,0,0,0,0,0,0,0,-1,1721,1338,0,0
504,-314,0,0,0,0,0,0,0,0,0,-1,1728,1338,0,0
511,-314,0,0,0,0,0,0,0,0,0,-1,1735,1338,0,0
518,-314,0,0,0,0,0,0,0,0,0,-1,1742,1338,0,0
525,-314,0,0,0,0,0,0,0,0,0,-1,1749,1338,0,0
532,-314,0,0,0,0,0,0,0,0,0,-1,1756,1338,0,0
539,-314,0,0,0,0,0,0,0,0,0,-1,1763,1338,0,0
546,-314,0,0,0,0,0,0,0,0,0,-1,1770,1338,0,0
553,-314,0,0,0,0,0,0,0,0,0,-1,1777,1338,0,0
560,-314,0,0,0,0,0,0,0,0,0,-1,1784,1338,0,0
567,-314,0,0,0,0,0,0,0,0,0,-1,1791,1338,0,0
574,-314,0,0,0,0,0,0,0,0,0,-1,1798,1338,0,0
581,-314,45.1393,3.66577,0,0,0,0,0,0,0,-1,1805,1338,45.1393,-3.66579
588,-314,45.8807,2.73743,0,0,0,0,0,0,0,-1,1812,1338,45.8807,-2.73747
595,-314,45.4468,2.63135,0,0,0,0,0,0,0,-1,1819,1338,45.4468,-2.63133
602,-314,45.25,2.44275,0,0,0,0,0,0,0,-1,1826,1338,45.25,-2.4428
609,-314,44.451,2.61841,0,0,0,0,0,0,0,-1,1833,1338,44.4511,-2.61837
616,-314,43.7756,2.53015,0,0,0,0,0,0,0,-1,1840,1338,43.7756,-2.53015
623,-314,38.7728,2.71741,0,0,0,0,0,0,0,-1,1847,1338,38.7728,-2.71737
630,-314,29.4308,6.23206,0,0,0,0,0,0,0,-1,1854,1338,29.4308,-6.23202
637,-314,22.1349,5.16418,0,0,0,0,0,0,0,-1,1861,1338,22.1349,-5.16414
644,-314,18.7517,6.2605,0,0,0,0,0,0,0,-1,1868,1338,18.7517,-6.26053
651,-314,23.1317,8.005,0,0,0,0,0,0,0,-1,1875,1338,23.1317,-8.00506
658,-314,30.037,11.3899,0,0,0,0,0,0,0,-1,1882,1338,30.037,-11.39
665,-314,29.9866,10.9708,0.00728093,-0.000817608,0.00117508,0.00744799,-0.000984664,0.141219,0.00532399,0.0255001,1889,1338,29.9865,-10.9708
672,-314,30.0012,10.5553,0.00450747,-0.000853789,0.000491581,0.00455217,-0.00089849,0.0906838,0.00337439,0.012907,1896,1338,30.0013,-10.5553
679,-314,29.9849,10.1038,0.00216564,-0.000926558,-0.0001933,0.00217768,-0.000938595,-0.0621895,0.00184598,0.010026,1903,1338,29.9848,-10.1037
686,-314,29.9576,9.6554,0.000963196,-0.000540825,-0.000230383,0.000997694,-0.000575323,-0.148639,0.00091903,0.0115504,1910,1338,29.9576,-9.65544
693,-314,29.9573,9.17639,0.000626877,-0.000409353,4.43267e-05,0.00062877,-0.000411246,0.042673,0.000604815,0.0122384,1917,1338,29.9573,-9.17645
700,-314,29.9496,8.70654,0.000284226,-0.000408314,0.000327085,0.000414283,-0.000538371,0.378457,0.000551569,0.0144354,1924,1338,29.9496,-8.70653
707,-314,29.9613,8.25562,-0.000186212,-0.000506277,0.000707725,0.000379348,-0.00107184,0.674207,0.000869058,0.0142879,1931,1338,29.9613,-8.25563
714,-314,29.9343,7.85718,-0.000844147,-0.00073648,0.00119544,0.000406343,-0.00198697,0.807899,0.00147882,0.0126538,1938,1338,29.9344,-7.85712
721,-314,29.8986,7.46692,-0.00179394,-0.00121621,0.0019072,0.000423877,-0.00343403,0.860557,0.00244294,0.0251796,1945,1338,29.8985,-7.46697
728,-314,29.9351,7.06604,0,0,0,0,0,0,0,-1,1952,1338,29.9351,-7.06605
735,-314,26.3665,6.21582,0,0,0,0,0,0,0,-1,1959,1338,26.3664,-6.21581
742,-314,26.2235,6.0166,0,0,0,0,0,0,0,-1,1966,1338,26.2235,-6.01662
749,-314,26.2223,5.47046,0,0,0,0,0,0,0,-1,1973,1338,26.2223,-5.47041
756,-314,24.2521,5.93408,0,0,0,0,0,0,0,-1,1980,1338,24.252,-5.93413
763,-314,19.2207,4.07239,0,0,0,0,0,0,0,-1,1987,1338,19.2206,-4.07239
770,-314,0,0,0,0,0,0,0,0,0,-1,1994,1338,0,0
777,-314,0,0,0,0,0,0,0,0,0,-1,2001,1338,0,0
784,-314,0,0,0,0,0,0,0,0,0,-1,2008,1338,0,0
791,-314,0,0,0,0,0,0,0,0,0,-1,2015,1338,0,0
798,-314,0,0,0,0,0,0,0,0,0,-1,2022,1338,0,0
805,-314,0,0,0,0,0,0,0,0,0,-1,2029,1338,0,0
812,-314,0,0,0,0,0,0,0,0,0,-1,2036,1338,0,0
-700,-321,0,0,0,0,0,0,0,0,0,-1,524,1345,0,0
-693,-321,0,0,0,0,0,0,0,0,0,-1,531,1345,0,0
-686,-321,0,0,0,0,0,0,0,0,0,-1,538,1345,0,0
-679,-321,0,0,0,0,0,0,0,0,0,-1,545,1345,0,0
-672,-321,0,0,0,0,0,0,0,0,0,-1,552,1345,0,0
-665,-321,0,0,0,0,0,0,0,0,0,-1,559,1345,0,0
-658,-321,0,0,0,0,0,0,0,0,0,-1,566,1345,0,0
-651,-321,0,0,0,0,0,0,0,0,0,-1,573,1345,0,0
-644,-321,-17.2769,5.65454,0,0,0,0,0,0,0,-1,580,1345,-17.2768,-5.65454
-637,-321,-13.3991,3.59241,0,0,0,0,0,0,0,-1,587,1345,-13.3991,-3.59236
-630,-321,-13.2958,3.65039,0,0,0,0,0,0,0,-1,594,1345,-13.2958,-3.65042
-623,-321,-13.2242,3.14148,0,0,0,0,0,0,0,-1,601,1345,-13.2243,-3.14146
-616,-321,-11.6754,3.13794,0,0,0,0,0,0,0,-1,608,1345,-11.6754,-3.13789
-609,-321,-7.95209,1.14758,0,0,0,0,0,0,0,-1,615,1345,-7.95208,-1.14757
-602,-321,-8.85791,2.50049,0,0,0,0,0,0,0,-1,622,1345,-8.85791,-2.50048
-595,-321,-16.8505,4.40564,0,0,0,0,0,0,0,-1,629,1345,-16.8505,-4.4056
-588,-321,-16.4536,4.96313,0.00445764,0.00425591,0.00327884,0.00763717,0.00107638,0.770022,0.00477328,0.0448343,636,1345,-16.4536,-4.96312
-581,-321,-16.3554,5.5769,0.00330226,0.00300924,0.00214058,0.00530134,0.00101016,0.751229,0.00325026,0.0138256,643,1345,-16.3554,-5.57696
-574,-321,-16.3792,6.05664,0.002674,0.00202616,0.0014546,0.00384031,0.000859851,0.675841,0.00232716,0.0151282,650,1345,-16.3792,-6.05666
-567,-321,-16.3907,6.56848,0.00242909,0.00128431,0.00104673,0.00304971,0.000663683,0.535193,0.00185199,0.0213365,657,1345,-16.3908,-6.56848
-560,-321,-16.3766,7.12695,0.00254582,0.000719963,0.000879553,0.00290059,0.000365196,0.38339,0.00182422,0.0245853,664,1345,-16.3766,-7.12696
-553,-321,-16.3986,7.56506,0.00292817,0.000250757,0.000873588,0.00318799,-9.0641e-06,0.289087,0.00212836,0.027171,671,1345,-16.3986,-7.56503
-546,-321,-16.4181,8.01782,0.00366421,-7.90078e-05,0.00108125,0.00395408,-0.000368885,0.261935,0.00276723,0.0273969,678,1345,-16.4181,-8.01784
-539,-321,-16.4281,8.50671,0.00475004,-0.000303475,0.00148981,0.00515654,-0.00070998,0.266373,0.00369715,0.0240983,685,1345,-16.4281,-8.5067
-532,-321,-16.259,9.0011,0.00639097,-0.000360056,0.00218231,0.00703498,-0.00100407,0.28696,0.005058,0.0309348,692,1345,-16.259,-9.00107
-525,-321,-16.3514,9.52771,0,0,0,0,0,0,0,-1,699,1345,-16.3514,-9.52773
-518,-321,-10.3564,6.75696,0,0,0,0,0,0,0,-1,706,1345,-10.3564,-6.75694
-511,-321,-9.3302,5.29297,0,0,0,0,0,0,0,-1,713,1345,-9.33023,-5.29294
-504,-321,-10.4713,0.0145264,0,0,0,0,0,0,0,-1,720,1345,-10.4713,-0.0145296
-497,-321,-9.96771,0.313599,0,0,0,0,0,0,0,-1,727,1345,-9.96769,-0.313618
-490,-321,-10.7631,0.973511,0,0,0,0,0,0,0,-1,734,1345,-10.7631,-0.97353
-483,-321,-17.5908,0.2323,0,0,0,0,0,0,0,-1,741,1345,-17.5908,-0.232355
-476,-321,-17.2915,0.297363,0,0,0,0,0,0,0,-1,748,1345,-17.2915,-0.297342
-469,-321,-17.2441,0.478027,0,0,0,0,0,0,0,-1,755,1345,-17.2441,-0.477994
-462,-321,-17.1672,0.526489,0,0,0,0,0,0,0,-1,762,1345,-17.1672,-0.526533
-455,-321,0,0,0,0,0,0,0,0,0,-1,769,1345,0,0
-448,-321,0,0,0,0,0,0,0,0,0,-1,776,1345,0,0
-441,-321,0,0,0,0,0,0,0,0,0,-1,783,1345,0,0
-434,-321,0,0,0,0,0,0,0,0,0,-1,790,1345,0,0
-427,-321,0,0,0,0,0,0,0,0,0,-1,797,1345,0,0
-420,-321,0,0,0,0,0,0,0,0,0,-1,804,1345,0,0
-413,-321,0,0,0,0,0,0,0,0,0,-1,811,1345,0,0
-406,-321,0,0,0,0,0,0,0,0,0,-1,818,1345,0,0
-399,-321,0,0,0,0,0,0,0,0,0,-1,825,1345,0,0
-392,-321,0,0,0,0,0,0,0,0,0,-1,832,1345,0,0
-385,-321,0,0,0,0,0,0,0,0,0,-1,839,1345,0,0
-378,-321,0,0,0,0,0,0,0,0,0,-1,846,1345,0,0
-371,-321,0,0,0,0,0,0,0,0,0,-1,853,1345,0,0
-364,-321,0,0,0,0,0,0,0,0,0,-1,860,1345,0,0
-357,-321,0,0,0,0,0,0,0,0,0,-1,867,1345,0,0
-350,-321,0,0,0,0,0,0,0,0,0,-1,874,1345,0,0
-343,-321,0,0,0,0,0,0,0,0,0,-1,881,1345,0,0
-336,-321,0,0,0,0,0,0,0,0,0,-1,888,1345,0,0
-329,-321,0,0,0,0,0,0,0,0,0,-1,895,1345,0,0
-322,-321,0,0,0,0,0,0,0,0,0,-1,902,1345,0,0
-315,-321,0,0,0,0,0,0,0,0,0,-1,909,1345,0,0
-308,-321,0,0,0,0,0,0,0,0,0,-1,916,1345,0,0
-301,-321,0,0,0,0,0,0,0,0,0,-1,923,1345,0,0
-294,-321,0,0,0,0,0,0,0,0,0,-1,930,1345,0,0
-287,-321,0,0,0,0,0,0,0,0,0,-1,937,1345,0,0
-280,-321,0,0,0,0,0,0,0,0,0,-1,944,1345,0,0
-273,-321,0,0,0,0,0,0,0,0,0,-1,951,1345,0,0
-266,-321,0,0,0,0,0,0,0,0,0,-1,958,1345,0,0
-259,-321,0,0,0,0,0,0,0,0,0,-1,965,1345,0,0
-252,-321,0,0,0,0,0,0,0,0,0,-1,972,1345,0,0
-245,-321,0,0,0,0,0,0,0,0,0,-1,979,1345,0,0
-238,-321,0,0,0,0,0,0,0,0,0,-1,986,1345,0,0
-231,-321,0,0,0,0,0,0,0,0,0,-1,993,1345,0,0
-224,-321,0,0,0,0,0,0,0,0,0,-1,1000,1345,0,0
-217,-321,0,0,0,0,0,0,0,0,0,-1,1007,1345,0,0
-210,-321,0,0,0,0,0,0,0,0,0,-1,1014,1345,0,0
-203,-321,0,0,0,0,0,0,0,0,0,-1,1021,1345,0,0
-196,-321,0,0,0,0,0,0,0,0,0,-1,1028,1345,0,0
-189,-321,0,0,0,0,0,0,0,0,0,-1,1035,1345,0,0
-182,-321,0,0,0,0,0,0,0,0,0,-1,1042,1345,0,0
-175,-321,0,0,0,0,0,0,0,0,0,-1,1049,1345,0,0
-168,-321,0,0,0,0,0,0,0,0,0,-1,1056,1345,0,0
-161,-321,0,0,0,0,0,0,0,0,0,-1,1063,1345,0,0
-154,-321,0,0,0,0,0,0,0,0,0,-1,1070,1345,0,0
-147,-321,0,0,0,0,0,0,0,0,0,-1,1077,1345,0,0
-140,-321,0,0,0,0,0,0,0,0,0,-1,1084,1345,0,0
-133,-321,0,0,0,0,0,0,0,0,0,-1,1091,1345,0,0
-126,-321,0,0,0,0,0,0,0,0,0,-1,1098,1345,0,0
-119,-321,0,0,0,0,0,0,0,0,0,-1,1105,1345,0,0
-112,-321,0,0,0,0,0,0,0,0,0,-1,1112,1345,0,0
-105,-321,0,0,0,0,0,0,0,0,0,-1,1119,1345,0,0
-98,-321,0,0,0,0,0,0,0,0,0,-1,1126,1345,0,0
-91,-321,0,0,0,0,0,0,0,0,0,-1,1133,1345,0,0
-84,-321,0,0,0,0,0,0,0,0,0,-1,1140,1345,0,0
-77,-321,0,0,0,0,0,0,0,0,0,-1,1147,1345,0,0
-70,-321,0,0,0,0,0,0,0,0,0,-1,1154,1345,0,0
-63,-321,0,0,0,0,0,0,0,0,0,-1,1161,1345,0,0
-56,-321,0,0,0,0,0,0,0,0,0,-1,1168,1345,0,0
-49,-321,0,0,0,0,0,0,0,0,0,-1,1175,1345,0,0
-42,-321,0,0,0,0,0,0,0,0,0,-1,1182,1345,0,0
-35,-321,0,0,0,0,0,0,0,0,0,-1,1189,1345,0,0
-28,-321,0,0,0,0,0,0,0,0,0,-1,1196,1345,0,0
-21,-321,0,0,0,0,0,0,0,0,0,-1,1203,1345,0,0
-14,-321,0,0,0,0,0,0,0,0,0,-1,1210,1345,0,0
-7,-321,0,0,0,0,0,0,0,0,0,-1,1217,1345,0,0
0,-321,0,0,0,0,0,0,0,0,0,-1,1224,1345,0,0
7,-321,0,0,0,0,0,0,0,0,0,-1,1231,1345,0,0
14,-321,0,0,0,0,0,0,0,0,0,-1,1238,1345,0,0
21,-321,0,0,0,0,0,0,0,0,0,-1,1245,1345,0,0
28,-321,0,0,0,0,0,0,0,0,0,-1,1252,1345,0,0
35,-321,0,0,0,0,0,0,0,0,0,-1,1259,1345,0,0
42,-321,0,0,0,0,0,0,0,0,0,-1,1266,1345,0,0
49,-321,0,0,0,0,0,0,0,0,0,-1,1273,1345,0,0
56,-321,0,0,0,0,0,0,0,0,0,-1,1280,1345,0,0
63,-321,0,0,0,0,0,0,0,0,0,-1,1287,1345,0,0
70,-321,0,0,0,0,0,0,0,0,0,-1,1294,1345,0,0
77,-321,0,0,0,0,0,0,0,0,0,-1,1301,1345,0,0
84,-321,0,0,0,0,0,0,0,0,0,-1,1308,1345,0,0
91,-321,0,0,0,0,0,0,0,0,0,-1,1315,1345,0,0
98,-321,0,0,0,0,0,0,0,0,0,-1,1322,1345,0,0
105,-321,0,0,0,0,0,0,0,0,0,-1,1329,1345,0,0
112,-321,0,0,0,0,0,0,0,0,0,-1,1336,1345,0,0
119,-321,0,0,0,0,0,0,0,0,0,-1,1343,1345,0,0
126,-321,0,0,0,0,0,0,0,0,0,-1,1350,1345,0,0
133,-321,0,0,0,0,0,0,0,0,0,-1,1357,1345,0,0
140,-321,0,0,0,0,0,0,0,0,0,-1,1364,1345,0,0
147,-321,0,0,0,0,0,0,0,0,0,-1,1371,1345,0,0
154,-321,0,0,0,0,0,0,0,0,0,-1,1378,1345,0,0
161,-321,0,0,0,0,0,0,0,0,0,-1,1385,1345,0,0
168,-321,0,0,0,0,0,0,0,0,0,-1,1392,1345,0,0
175,-321,0,0,0,0,0,0,0,0,0,-1,1399,1345,0,0
182,-321,0,0,0,0,0,0,0,0,0,-1,1406,1345,0,0
189,-321,0,0,0,0,0,0,0,0,0,-1,1413,1345,0,0
196,-321,0,0,0,0,0,0,0,0,0,-1,1420,1345,0,0
203,-321,0,0,0,0,0,0,0,0,0,-1,1427,1345,0,0
210,-321,0,0,0,0,0,0,0,0,0,-1,1434,1345,0,0
217,-321,0,0,0,0,0,0,0,0,0,-1,1441,1345,0,0
224,-321,0,0,0,0,0,0,0,0,0,-1,1448,1345,0,0
231,-321,0,0,0,0,0,0,0,0,0,-1,1455,1345,0,0
238,-321,0,0,0,0,0,0,0,0,0,-1,1462,1345,0,0
245,-321,0,0,0,0,0,0,0,0,0,-1,1469,1345,0,0
252,-321,0,0,0,0,0,0,0,0,0,-1,1476,1345,0,0
259,-321,0,0,0,0,0,0,0,0,0,-1,1483,1345,0,0
266,-321,0,0,0,0,0,0,0,0,0,-1,1490,1345,0,0
273,-321,0,0,0,0,0,0,0,0,0,-1,1497,1345,0,0
280,-321,0,0,0,0,0,0,0,0,0,-1,1504,1345,0,0
287,-321,0,0,0,0,0,0,0,0,0,-1,1511,1345,0,0
294,-321,0,0,0,0,0,0,0,0,0,-1,1518,1345,0,0
301,-321,0,0,0,0,0,0,0,0,0,-1,1525,1345,0,0
308,-321,0,0,0,0,0,0,0,0,0,-1,1532,1345,0,0
315,-321,0,0,0,0,0,0,0,0,0,-1,1539,1345,0,0
322,-321,0,0,0,0,0,0,0,0,0,-1,1546,1345,0,0
329,-321,0,0,0,0,0,0,0,0,0,-1,1553,1345,0,0
336,-321,0,0,0,0,0,0,0,0,0,-1,1560,1345,0,0
343,-321,0,0,0,0,0,0,0,0,0,-1,1567,1345,0,0
350,-321,0,0,0,0,0,0,0,0,0,-1,1574,1345,0,0
357,-321,0,0,0,0,0,0,0,0,0,-1,1581,1345,0,0
364,-321,0,0,0,0,0,0,0,0,0,-1,1588,1345,0,0
371,-321,0,0,0,0,0,0,0,0,0,-1,1595,1345,0,0
378,-321,0,0,0,0,0,0,0,0,0,-1,1602,1345,0,0
385,-321,0,0,0,0,0,0,0,0,0,-1,1609,1345,0,0
392,-321,0,0,0,0,0,0,0,0,0,-1,1616,1345,0,0
399,-321,0,0,0,0,0,0,0,0,0,-1,1623,1345,0,0
406,-321,0,0,0,0,0,0,0,0,0,-1,1630,1345,0,0
413,-321,0,0,0,0,0,0,0,0,0,-1,1637,1345,0,0
420,-321,0,0,0,0,0,0,0,0,0,-1,1644,1345,0,0
427,-321,0,0,0,0,0,0,0,0,0,-1,1651,1345,0,0
434,-321,0,0,0,0,0,0,0,0,0,-1,1658,1345,0,0
441,-321,0,0,0,0,0,0,0,0,0,-1,1665,1345,0,0
448,-321,0,0,0,0,0,0,0,0,0,-1,1672,1345,0,0
455,-321,0,0,0,0,0,0,0,0,0,-1,1679,1345,0,0
462,-321,0,0,0,0,0,0,0,0,0,-1,1686,1345,0,0
469,-321,0,0,0,0,0,0,0,0,0,-1,1693,1345,0,0
476,-321,0,0,0,0,0,0,0,0,0,-1,1700,1345,0,0
483,-321,0,0,0,0,0,0,0,0,0,-1,1707,1345,0,0
490,-321,0,0,0,0,0,0,0,0,0,-1,1714,1345,0,0
497,-321,0,0,0,0,0,0,0,0,0,-1,1721,1345,0,0
504,-321,0,0,0,0,0,0,0,0,0,-1,1728,1345,0,0
511,-321,0,0,0,0,0,0,0,0,0,-1,1735,1345,0,0
518,-321,0,0,0,0,0,0,0,0,0,-1,1742,1345,0,0
525,-321,0,0,0,0,0,0,0,0,0,-1,1749,1345,0,0
532,-321,0,0,0,0,0,0,0,0,0,-1,1756,1345,0,0
539,-321,0,0,0,0,0,0,0,0,0,-1,1763,1345,0,0
546,-321,0,0,0,0,0,0,0,0,0,-1,1770,1345,0,0
553,-321,0,0,0,0,0,0,0,0,0,-1,1777,1345,0,0
560,-321,0,0,0,0,0,0,0,0,0,-1,1784,1345,0,0
567,-321,0,0,0,0,0,0,0,0,0,-1,1791,1345,0,0
574,-321,0,0,0,0,0,0,0,0,0,-1,1798,1345,0,0
581,-321,45.7966,3.81409,0,0,0,0,0,0,0,-1,1805,1345,45.7966,-3.81413
588,-321,45.7527,3.35864,0,0,0,0,0,0,0,-1,1812,1345,45.7526,-3.35862
595,-321,45.8491,2.94397,0,0,0,0,0,0,0,-1,1819,1345,45.8491,-2.94402
602,-321,45.6768,2.61536,0,0,0,0,0,0,0,-1,1826,1345,45.6768,-2.61534
609,-321,45.3872,2.36121,0,0,0,0,0,0,0,-1,1833,1345,45.3872,-2.36116
616,-321,37.8107,2.58704,0,0,0,0,0,0,0,-1,1840,1345,37.8106,-2.58705
623,-321,37.6854,3.68933,0,0,0,0,0,0,0,-1,1847,1345,37.6854,-3.68931
630,-321,23.6674,4.34106,0,0,0,0,0,0,0,-1,1854,1345,23.6674,-4.34112
637,-321,21.7925,6.79224,0,0,0,0,0,0,0,-1,1861,1345,21.7925,-6.7922
644,-321,16.8844,6.71973,0,0,0,0,0,0,0,-1,1868,1345,16.8844,-6.71971
651,-321,27.4924,10.0319,0,0,0,0,0,0,0,-1,1875,1345,27.4924,-10.0319
658,-321,29.4932,11.4063,0,0,0,0,0,0,0,-1,1882,1345,29.4931,-11.4063
665,-321,29.5381,11.0154,0.00448367,-0.000206038,0.00129779,0.00481886,-0.00054122,0.252748,0.00340734,0.0200695,1889,1345,29.5381,-11.0154
672,-321,29.5662,10.5651,0.00274157,-0.000417561,0.000519191,0.00282471,-0.0005007,0.158784,0.00207032,0.012921,1896,1345,29.5662,-10.565
679,-321,29.5419,10.1144,0.00143185,-0.000539802,-8.30081e-05,0.00143534,-0.000543291,-0.0420018,0.00118043,0.0107022,1903,1345,29.5419,-10.1143
686,-321,29.5,9.66516,0.000911781,-0.000366748,-0.000154075,0.000930086,-0.000385054,-0.118254,0.000780729,0.0117178,1910,1345,29.5,-9.66521
693,-321,29.5015,9.21399,0.000838117,-0.000294628,-1.80054e-06,0.00083812,-0.000294631,-0.00158953,0.000678622,0.0124978,1917,1345,29.5014,-9.21402
700,-321,29.5161,8.73669,0.000662702,-0.000288813,0.000242585,0.000720979,-0.00034709,0.235765,0.000629118,0.0136299,1924,1345,29.5161,-8.73672
707,-321,29.5085,8.28809,0.0003477,-0.000354137,0.000580171,0.000674824,-0.000681262,0.513408,0.00078294,0.0156003,1931,1345,29.5086,-8.2881
714,-321,29.4918,7.86096,-0.000154873,-0.000572654,0.00105099,0.000707784,-0.00143531,0.687299,0.00126086,0.0143488,1938,1345,29.4919,-7.86091
721,-321,29.4294,7.4032,-0.000988862,-0.00108374,0.00183264,0.000796952,-0.00286956,0.772458,0.00222675,0.0395379,1945,1345,29.4295,-7.40317
728,-321,29.4366,6.99365,0,0,0,0,0,0,0,-1,1952,1345,29.4367,-6.99367
735,-321,22.0081,5.65479,0,0,0,0,0,0,0,-1,1959,1345,22.008,-5.65481
742,-321,24.5398,5.05725,0,0,0,0,0,0,0,-1,1966,1345,24.5398,-5.05729
749,-321,24.0675,5.4458,0,0,0,0,0,0,0,-1,1973,1345,24.0675,-5.44581
756,-321,19.6251,4.98315,0,0,0,0,0,0,0,-1,1980,1345,19.6251,-4.98311
763,-321,19.6747,4.61438,0,0,0,0,0,0,0,-1,1987,1345,19.6747,-4.61436
770,-321,0,0,0,0,0,0,0,0,0,-1,1994,1345,0,0
777,-321,0,0,0,0,0,0,0,0,0,-1,2001,1345,0,0
784,-321,0,0,0,0,0,0,0,0,0,-1,2008,1345,0,0
791,-321,0,0,0,0,0,0,0,0,0,-1,2015,1345,0,0
798,-321,0,0,0,0,0,0,0,0,0,-1,2022,1345,0,0
805,-321,0,0,0,0,0,0,0,0,0,-1,2029,1345,0,0
812,-321,0,0,0,0,0,0,0,0,0,-1,2036,1345,0,0
-700,-328,0,0,0,0,0,0,0,0,0,-1,524,1352,0,0
-693,-328,0,0,0,0,0,0,0,0,0,-1,531,1352,0,0
-686,-328,0,0,0,0,0,0,0,0,0,-1,538,1352,0,0
-679,-328,0,0,0,0,0,0,0,0,0,-1,545,1352,0,0
-672,-328,0,0,0,0,0,0,0,0,0,-1,552,1352,0,0
-665,-328,0,0,0,0,0,0,0,0,0,-1,559,1352,0,0
-658,-328,0,0,0,0,0,0,0,0,0,-1,566,1352,0,0
-651,-328,0,0,0,0,0,0,0,0,0,-1,573,1352,0,0
-644,-328,0,0,0,0,0,0,0,0,0,-1,580,1352,0,0
-637,-328,-12.0695,1.02014,0,0,0,0,0,0,0,-1,587,1352,-12.0694,-1.02017
-630,-328,-13.3971,4.54578,0,0,0,0,0,0,0,-1,594,1352,-13.3971,-4.54572
-623,-328,-10.7739,4.55042,0,0,0,0,0,0,0,-1,601,1352,-10.7739,-4.55041
-616,-328,-8.22198,-0.25708,0,0,0,0,0,0,0,-1,608,1352,-8.22201,0.257067
-609,-328,-7.87439,0.192871,0,0,0,0,0,0,0,-1,615,1352,-7.87441,-0.192822
-602,-328,-7.63062,1.31665,0,0,0,0,0,0,0,-1,622,1352,-7.63064,-1.3166
-595,-328,-9.42639,2.93494,0,0,0,0,0,0,0,-1,629,1352,-9.42638,-2.93499
-588,-328,-16.0847,4.60938,0,0,0,0,0,0,0,-1,636,1352,-16.0847,-4.60942
-581,-328,-15.9031,5.53979,0.00244227,0.00324937,0.00179657,0.00468715,0.00100449,0.895876,0.00284958,0.0240936,643,1352,-15.9031,-5.53974
-574,-328,-15.8891,6.06836,0.00186209,0.00224392,0.00116223,0.00323081,0.000875201,0.866803,0.00192948,0.0149853,650,1352,-15.8891,-6.06836
-567,-328,-15.9089,6.58447,0.00172189,0.00149948,0.000833006,0.00245108,0.000770289,0.719039,0.00144731,0.0193353,657,1352,-15.9089,-6.58451
-560,-328,-15.928,7.11267,0.00197318,0.000925861,0.000744457,0.00235971,0.000539337,0.478891,0.00142773,0.025818,664,1352,-15.9281,-7.11263
-553,-328,-15.9158,7.59338,0.00249543,0.000453465,0.000821631,0.00278498,0.00016392,0.338813,0.0018045,0.028731,671,1352,-15.9158,-7.59343
-546,-328,-15.8915,8.04968,0.00335859,9.89489e-05,0.00108985,0.00368941,-0.000231868,0.294703,0.00254042,0.0287848,678,1352,-15.8915,-8.04967
-539,-328,-15.9232,8.51025,0.00451786,-0.000141699,0.00152985,0.00497524,-0.000599087,0.290518,0.00353349,0.0236215,685,1352,-15.9232,-8.51027
-532,-328,-15.9286,9.02283,0.00612126,-0.000251581,0.002204,0.00680923,-0.000939549,0.302562,0.00488289,0.0173891,692,1352,-15.9287,-9.02277
-525,-328,-15.9097,9.57617,0.00814956,-0.000406065,0.00302161,0.0091091,-0.0013656,0.307486,0.00657537,0.0277156,699,1352,-15.9097,-9.57619
-518,-328,-15.9824,10.1763,0,0,0,0,0,0,0,-1,706,1352,-15.9824,-10.1763
-511,-328,-9.39868,7.16113,0,0,0,0,0,0,0,-1,713,1352,-9.39869,-7.16113
-504,-328,-8.60626,-0.905762,0,0,0,0,0,0,0,-1,720,1352,-8.60623,0.905787
-497,-328,-9.29102,-0.0517578,0,0,0,0,0,0,0,-1,727,1352,-9.29104,0.0518175
-490,-328,-10.0663,0.882813,0,0,0,0,0,0,0,-1,734,1352,-10.0663,-0.882795
-483,-328,-10.8181,1.72375,0,0,0,0,0,0,0,-1,741,1352,-10.8181,-1.72374
-476,-328,-16.8951,-0.150757,0,0,0,0,0,0,0,-1,748,1352,-16.8951,0.150795
-469,-328,-16.8412,0.00158691,0,0,0,0,0,0,0,-1,755,1352,-16.8412,-0.00161515
-462,-328,-16.3546,-0.203491,0,0,0,0,0,0,0,-1,762,1352,-16.3545,0.203532
-455,-328,0,0,0,0,0,0,0,0,0,-1,769,1352,0,0
-448,-328,0,0,0,0,0,0,0,0,0,-1,776,1352,0,0
-441,-328,0,0,0,0,0,0,0,0,0,-1,783,1352,0,0
-434,-328,0,0,0,0,0,0,0,0,0,-1,790,1352,0,0
-427,-328,0,0,0,0,0,0,0,0,0,-1,797,1352,0,0
-420,-328,0,0,0,0,0,0,0,0,0,-1,804,1352,0,0
-413,-328,0,0,0,0,0,0,0,0,0,-1,811,1352,0,0
-406,-328,0,0,0,0,0,0,0,0,0,-1,818,1352,0,0
-399,-328,0,0,0,0,0,0,0,0,0,-1,825,1352,0,0
-392,-328,0,0,0,0,0,0,0,0,0,-1,832,1352,0,0
-385,-328,0,0,0,0,0,0,0,0,0,-1,839,1352,0,0
-378,-328,0,0,0,0,0,0,0,0,0,-1,846,1352,0,0
-371,-328,0,0,0,0,0,0,0,0,0,-1,853,1352,0,0
-364,-328,0,0,0,0,0,0,0,0,0,-1,860,1352,0,0
-357,-328,0,0,0,0,0,0,0,0,0,-1,867,1352,0,0
-350,-328,0,0,0,0,0,0,0,0,0,-1,874,1352,0,0
-343,-328,0,0,0,0,0,0,0,0,0,-1,881,1352,0,0
-336,-328,0,0,0,0,0,0,0,0,0,-1,888,1352,0,0
-329,-328,0,0,0,0,0,0,0,0,0,-1,895,1352,0,0
-322,-328,0,0,0,0,0,0,0,0,0,-1,902,1352,0,0
-315,-328,0,0,0,0,0,0,0,0,0,-1,909,1352,0,0
-308,-328,0,0,0,0,0,0,0,0,0,-1,916,1352,0,0
-301,-328,0,0,0,0,0,0,0,0,0,-1,923,1352,0,0
-294,-328,0,0,0,0,0,0,0,0,0,-1,930,1352,0,0
-287,-328,0,0,0,0,0,0,0,0,0,-1,937,1352,0,0
-280,-328,0,0,0,0,0,0,0,0,0,-1,944,1352,0,0
-273,-328,0,0,0,0,0,0,0,0,0,-1,951,1352,0,0
-266,-328,0,0,0,0,0,0,0,0,0,-1,958,1352,0,0
-259,-328,0,0,0,0,0,0,0,0,0,-1,965,1352,0,0
-252,-328,0,0,0,0,0,0,0,0,0,-1,972,1352,0,0
-245,-328,0,0,0,0,0,0,0,0,0,-1,979,1352,0,0
-238,-328,0,0,0,0,0,0,0,0,0,-1,986,1352,0,0
-231,-328,0,0,0,0,0,0,0,0,0,-1,993,1352,0,0
-224,-328,0,0,0,0,0,0,0,0,0,-1,1000,1352,0,0
-217,-328,0,0,0,0,0,0,0,0,0,-1,1007,1352,0,0
-210,-328,0,0,0,0,0,0,0,0,0,-1,1014,1352,0,0
-203,-328,0,0,0,0,0,0,0,0,0,-1,1021,1352,0,0
-196,-328,0,0,0,0,0,0,0,0,0,-1,1028,1352,0,0
-189,-328,0,0,0,0,0,0,0,0,0,-1,1035,1352,0,0
-182,-328,0,0,0,0,0,0,0,0,0,-1,1042,1352,0,0
-175,-328,0,0,0,0,0,0,0,0,0,-1,1049,1352,0,0
-168,-328,0,0,0,0,0,0,0,0,0,-1,1056,1352,0,0
-161,-328,0,0,0,0,0,0,0,0,0,-1,1063,1352,0,0
-154,-328,0,0,0,0,0,0,0,0,0,-1,1070,1352,0,0
-147,-328,0,0,0,0,0,0,0,0,0,-1,1077,1352,0,0
-140,-328,0,0,0,0,0,0,0,0,0,-1,1084,1352,0,0
-133,-328,0,0,0,0,0,0,0,0,0,-1,1091,1352,0,0
-126,-328,0,0,0,0,0,0,0,0,0,-1,1098,1352,0,0
-119,-328,0,0,0,0,0,0,0,0,0,-1,1105,1352,0,0
-112,-328,0,0,0,0,0,0,0,0,0,-1,1112,1352,0,0
-105,-328,0,0,0,0,0,0,0,0,0,-1,1119,1352,0,0
-98,-328,0,0,0,0,0,0,0,0,0,-1,1126,1352,0,0
-91,-328,0,0,0,0,0,0,0,0,0,-1,1133,1352,0,0
-84,-328,0,0,0,0,0,0,0,0,0,-1,1140,1352,0,0
-77,-328,0,0,0,0,0,0,0,0,0,-1,1147,1352,0,0
-70,-328,0,0,0,0,0,0,0,0,0,-1,1154,1352,0,0
-63,-328,0,0,0,0,0,0,0,0,0,-1,1161,1352,0,0
-56,-328,0,0,0,0,0,0,0,0,0,-1,1168,1352,0,0
-49,-328,0,0,0,0,0,0,0,0,0,-1,1175,1352,0,0
-42,-328,0,0,0,0,0,0,0,0,0,-1,1182,1352,0,0
-35,-328,0,0,0,0,0,0,0,0,0,-1,1189,1352,0,0
-28,-328,0,0,0,0,0,0,0,0,0,-1,1196,1352,0,0
-21,-328,0,0,0,0,0,0,0,0,0,-1,1203,1352,0,0
-14,-328,0,0,0,0,0,0,0,0,0,-1,1210,1352,0,0
-7,-328,0,0,0,0,0,0,0,0,0,-1,1217,1352,0,0
0,-328,0,0,0,0,0,0,0,0,0,-1,1224,1352,0,0
7,-328,0,0,0,0,0,0,0,0,0,-1,1231,1352,0,0
14,-328,0,0,0,0,0,0,0,0,0,-1,1238,1352,0,0
21,-328,0,0,0,0,0,0,0,0,0,-1,1245,1352,0,0
28,-328,0,0,0,0,0,0,0,0,0,-1,1252,1352,0,0
35,-328,0,0,0,0,0,0,0,0,0,-1,1259,1352,0,0
42,-328,0,0,0,0,0,0,0,0,0,-1,1266,1352,0,0
49,-328,0,0,0,0,0,0,0,0,0,-1,1273,1352,0,0
56,-328,0,0,0,0,0,0,0,0,0,-1,1280,1352,0,0
63,-328,0,0,0,0,0,0,0,0,0,-1,1287,1352,0,0
70,-328,0,0,0,0,0,0,0,0,0,-1,1294,1352,0,0
77,-328,0,0,0,0,0,0,0,0,0,-1,1301,1352,0,0
84,-328,0,0,0,0,0,0,0,0,0,-1,1308,1352,0,0
91,-328,0,0,0,0,0,0,0,0,0,-1,1315,1352,0,0
98,-328,0,0,0,0,0,0,0,0,0,-1,1322,1352,0,0
105,-328,0,0,0,0,0,0,0,0,0,-1,1329,1352,0,0
112,-328,0,0,0,0,0,0,0,0,0,-1,1336,1352,0,0
119,-328,0,0,0,0,0,0,0,0,0,-1,1343,1352,0,0
126,-328,0,0,0,0,0,0,0,0,0,-1,1350,1352,0,0
133,-328,0,0,0,0,0,0,0,0,0,-1,1357,1352,0,0
140,-328,0,0,0,0,0,0,0,0,0,-1,1364,1352,0,0
147,-328,0,0,0,0,0,0,0,0,0,-1,1371,1352,0,0
154,-328,0,0,0,0,0,0,0,0,0,-1,1378,1352,0,0
161,-328,0,0,0,0,0,0,0,0,0,-1,1385,1352,0,0
168,-328,0,0,0,0,0,0,0,0,0,-1,1392,1352,0,0
175,-328,0,0,0,0,0,0,0,0,0,-1,1399,1352,0,0
182,-328,0,0,0,0,0,0,0,0,0,-1,1406,1352,0,0
189,-328,0,0,0,0,0,0,0,0,0,-1,1413,1352,0,0
196,-328,0,0,0,0,0,0,0,0,0,-1,1420,1352,0,0
203,-328,0,0,0,0,0,0,0,0,0,-1,1427,1352,0,0
210,-328,0,0,0,0,0,0,0,0,0,-1,1434,1352,0,0
217,-328,0,0,0,0,0,0,0,0,0,-1,1441,1352,0,0
224,-328,0,0,0,0,0,0,0,0,0,-1,1448,1352,0,0
231,-328,0,0,0,0,0,0,0,0,0,-1,1455,1352,0,0
238,-328,0,0,0,0,0,0,0,0,0,-1,1462,1352,0,0
245,-328,0,0,0,0,0,0,0,0,0,-1,1469,1352,0,0
252,-328,0,0,0,0,0,0,0,0,0,-1,1476,1352,0,0
259,-328,0,0,0,0,0,0,0,0,0,-1,1483,1352,0,0
266,-328,0,0,0,0,0,0,0,0,0,-1,1490,1352,0,0
273,-328,0,0,0,0,0,0,0,0,0,-1,1497,1352,0,0
280,-328,0,0,0,0,0,0,0,0,0,-1,1504,1352,0,0
287,-328,0,0,0,0,0,0,0,0,0,-1,1511,1352,0,0
294,-328,0,0,0,0,0,0,0,0,0,-1,1518,1352,0,0
301,-328,0,0,0,0,0,0,0,0,0,-1,1525,1352,0,0
308,-328,0,0,0,0,0,0,0,0,0,-1,1532,1352,0,0
315,-328,0,0,0,0,0,0,0,0,0,-1,1539,1352,0,0
322,-328,0,0,0,0,0,0,0,0,0,-1,1546,1352,0,0
329,-328,0,0,0,0,0,0,0,0,0,-1,1553,1352,0,0
336,-328,0,0,0,0,0,0,0,0,0,-1,1560,1352,0,0
343,-328,0,0,0,0,0,0,0,0,0,-1,1567,1352,0,0
350,-328,0,0,0,0,0,0,0,0,0,-1,1574,1352,0,0
357,-328,0,0,0,0,0,0,0,0,0,-1,1581,1352,0,0
364,-328,0,0,0,0,0,0,0,0,0,-1,1588,1352,0,0
371,-328,0,0,0,0,0,0,0,0,0,-1,1595,1352,0,0
378,-328,0,0,0,0,0,0,0,0,0,-1,1602,1352,0,0
385,-328,0,0,0,0,0,0,0,0,0,-1,1609,1352,0,0
392,-328,0,0,0,0,0,0,0,0,0,-1,1616,1352,0,0
399,-328,0,0,0,0,0,0,0,0,0,-1,1623,1352,0,0
406,-328,0,0,0,0,0,0,0,0,0,-1,1630,1352,0,0
413,-328,0,0,0,0,0,0,0,0,0,-1,1637,1352,0,0
420,-328,0,0,0,0,0,0,0,0,0,-1,1644,1352,0,0
427,-328,0,0,0,0,0,0,0,0,0,-1,1651,1352,0,0
434,-328,0,0,0,0,0,0,0,0,0,-1,1658,1352,0,0
441,-328,0,0,0,0,0,0,0,0,0,-1,1665,1352,0,0
448,-328,0,0,0,0,0,0,0,0,0,-1,1672,1352,0,0
455,-328,0,0,0,0,0,0,0,0,0,-1,1679,1352,0,0
462,-328,0,0,0,0,0,0,0,0,0,-1,1686,1352,0,0
469,-328,0,0,0,0,0,0,0,0,0,-1,1693,1352,0,0
476,-328,0,0,0,0,0,0,0,0,0,-1,1700,1352,0,0
483,-328,0,0,0,0,0,0,0,0,0,-1,1707,1352,0,0
490,-328,0,0,0,0,0,0,0,0,0,-1,1714,1352,0,0
497,-328,0,0,0,0,0,0,0,0,0,-1,1721,1352,0,0
504,-328,0,0,0,0,0,0,0,0,0,-1,1728,1352,0,0
511,-328,0,0,0,0,0,0,0,0,0,-1,1735,1352,0,0
518,-328,0,0,0,0,0,0,0,0,0,-1,1742,1352,0,0
525,-328,0,0,0,0,0,0,0,0,0,-1,1749,1352,0,0
532,-328,0,0,0,0,0,0,0,0,0,-1,1756,1352,0,0
539,-328,0,0,0,0,0,0,0,0,0,-1,1763,1352,0,0
546,-328,0,0,0,0,0,0,0,0,0,-1,1770,1352,0,0
553,-328,0,0,0,0,0,0,0,0,0,-1,1777,1352,0,0
560,-328,0,0,0,0,0,0,0,0,0,-1,1784,1352,0,0
567,-328,0,0,0,0,0,0,0,0,0,-1,1791,1352,0,0
574,-328,45.8866,4.99207,0,0,0,0,0,0,0,-1,1798,1352,45.8866,-4.99202
581,-328,46.2646,4.19592,0,0,0,0,0,0,0,-1,1805,1352,46.2646,-4.19592
588,-328,46.3682,3.36157,0,0,0,0,0,0,0,-1,1812,1352,46.3682,-3.36156
595,-328,46.3262,2.86389,0,0,0,0,0,0,0,-1,1819,1352,46.3262,-2.86387
602,-328,46.1439,2.60876,0,0,0,0,0,0,0,-1,1826,1352,46.1439,-2.60881
609,-328,37.0468,1.17407,0,0,0,0,0,0,0,-1,1833,1352,37.0468,-1.17407
616,-328,36.999,2.42859,0,0,0,0,0,0,0,-1,1840,1352,36.999,-2.42862
623,-328,34.345,5.14722,0,0,0,0,0,0,0,-1,1847,1352,34.3449,-5.14718
630,-328,22.0211,5.026,0,0,0,0,0,0,0,-1,1854,1352,22.0212,-5.02603
637,-328,21.15,5.53699,0,0,0,0,0,0,0,-1,1861,1352,21.15,-5.53704
644,-328,16.9579,6.3396,0,0,0,0,0,0,0,-1,1868,1352,16.9579,-6.33959
651,-328,29.2781,11.8896,0,0,0,0,0,0,0,-1,1875,1352,29.278,-11.8896
658,-328,29.1127,11.468,0.00355829,0.00103418,0.000619942,0.00370233,0.000890139,0.228298,0.00223149,0.0408446,1882,1352,29.1127,-11.468
665,-328,29.1417,11.0073,0.00249318,-0.000104271,0.00040723,0.00255553,-0.00016662,0.151925,0.00176186,0.0144203,1889,1352,29.1418,-11.0073
672,-328,29.1239,10.5723,0.0017047,-0.00026976,6.5101e-05,0.00170684,-0.000271904,0.0329239,0.00123852,0.0114782,1896,1352,29.1239,-10.5722
679,-328,29.1128,10.1085,0.0011833,-0.000319603,-0.000174001,0.00120318,-0.000339486,-0.113772,0.000936033,0.0136853,1903,1352,29.1128,-10.1085
686,-328,29.0691,9.66406,0.0010477,-0.000264096,-0.000131452,0.00106074,-0.000277139,-0.0988977,0.000815395,0.0144854,1910,1352,29.0691,-9.66404
693,-328,29.0728,9.22949,0.00108052,-0.000223114,1.41213e-05,0.00108067,-0.000223267,0.0108306,0.000805252,0.0097952,1917,1352,29.0728,-9.22949
700,-328,29.0751,8.76074,0.00105174,-0.00020854,0.000226981,0.00109137,-0.000248174,0.17287,0.000822875,0.0137634,1924,1352,29.075,-8.76078
707,-328,29.0676,8.31689,0.000885532,-0.000227837,0.000521094,0.00109137,-0.000433672,0.376194,0.000907365,0.0159128,1931,1352,29.0676,-8.31691
714,-328,29.0577,7.87988,0.00056244,-0.000397108,0.000960059,0.00115593,-0.000990599,0.553681,0.00124052,0.0168056,1938,1352,29.0577,-7.8799
721,-328,29.0558,7.35107,0,0,0,0,0,0,0,-1,1945,1352,29.0558,-7.35112
728,-328,28.6813,6.93311,0,0,0,0,0,0,0,-1,1952,1352,28.6813,-6.93311
735,-328,20.8927,5.23523,0,0,0,0,0,0,0,-1,1959,1352,20.8927,-5.23528
742,-328,20.3547,4.11316,0,0,0,0,0,0,0,-1,1966,1352,20.3547,-4.11321
749,-328,20.0669,5.66321,0,0,0,0,0,0,0,-1,1973,1352,20.0669,-5.66319
756,-328,19.9543,5.50464,0,0,0,0,0,0,0,-1,1980,1352,19.9543,-5.50463
763,-328,0,0,0,0,0,0,0,0,0,-1,1987,1352,0,0
770,-328,0,0,0,0,0,0,0,0,0,-1,1994,1352,0,0
777,-328,0,0,0,0,0,0,0,0,0,-1,2001,1352,0,0
784,-328,0,0,0,0,0,0,0,0,0,-1,2008,1352,0,0
791,-328,0,0,0,0,0,0,0,0,0,-1,2015,1352,0,0
798,-328,0,0,0,0,0,0,0,0,0,-1,2022,1352,0,0
805,-328,0,0,0,0,0,0,0,0,0,-1,2029,1352,0,0
812,-328,0,0,0,0,0,0,0,0,0,-1,2036,1352,0,0
-700,-335,0,0,0,0,0,0,0,0,0,-1,524,1359,0,0
-693,-335,0,0,0,0,0,0,0,0,0,-1,531,1359,0,0
-686,-335,0,0,0,0,0,0,0,0,0,-1,538,1359,0,0
-679,-335,0,0,0,0,0,0,0,0,0,-1,545,1359,0,0
-672,-335,0,0,0,0,0,0,0,0,0,-1,552,1359,0,0
-665,-335,0,0,0,0,0,0,0,0,0,-1,559,1359,0,0
-658,-335,0,0,0,0,0,0,0,0,0,-1,566,1359,0,0
-651,-335,0,0,0,0,0,0,0,0,0,-1,573,1359,0,0
-644,-335,0,0,0,0,0,0,0,0,0,-1,580,1359,0,0
-637,-335,-9.64746,3.53809,0,0,0,0,0,0,0,-1,587,1359,-9.64744,-3.53803
-630,-335,-6.07397,-2.99902,0,0,0,0,0,0,0,-1,594,1359,-6.07397,2.99902
-623,-335,-8.43304,1.09509,0,0,0,0,0,0,0,-1,601,1359,-8.43301,-1.09507
-616,-335,-7.80927,-0.485352,0,0,0,0,0,0,0,-1,608,1359,-7.80926,0.485291
-609,-335,-7.12256,-2.03601,0,0,0,0,0,0,0,-1,615,1359,-7.12253,2.03601
-602,-335,-9.39935,2.25146,0,0,0,0,0,0,0,-1,622,1359,-9.39935,-2.25145
-595,-335,-9.54767,3.01917,0,0,0,0,0,0,0,-1,629,1359,-9.54768,-3.01911
-588,-335,-15.5154,4.86206,0,0,0,0,0,0,0,-1,636,1359,-15.5154,-4.86211
-581,-335,-15.3895,5.62109,0.00125353,0.00305482,0.00109918,0.00357522,0.000733132,1.12862,0.00218058,0.0389709,643,1359,-15.3895,-5.62107
-574,-335,-15.4006,6.05981,0.000901723,0.00214593,0.000654468,0.00242679,0.000620865,1.16542,0.00145573,0.0131433,650,1359,-15.4006,-6.05976
-567,-335,-15.4018,6.578,0.00094881,0.001484,0.000483919,0.00176938,0.000663427,1.03796,0.00103215,0.0159096,657,1359,-15.4018,-6.57796
-560,-335,-15.416,7.0415,0.00134895,0.000958989,0.000506749,0.00169694,0.000611005,0.601743,0.000992436,0.0236843,664,1359,-15.416,-7.04153
-553,-335,-15.4418,7.59363,0.00202651,0.000552146,0.00070139,0.00230687,0.00027179,0.380261,0.0014558,0.0281211,671,1359,-15.4418,-7.59366
-546,-335,-15.4468,8.09277,0.00296404,0.0002197,0.00102732,0.003306,-0.000122259,0.321329,0.00224586,0.0263153,678,1359,-15.4468,-8.0928
-539,-335,-15.4749,8.53198,0.00413276,2.63762e-06,0.00149274,0.00461579,-0.00048039,0.312951,0.00324918,0.0208803,685,1359,-15.4749,-8.53192
-532,-335,-15.504,9.06677,0.00565177,-0.000105683,0.00214542,0.00636329,-0.000817206,0.320232,0.00453919,0.0150342,692,1359,-15.5039,-9.0668
-525,-335,-15.4264,9.58459,0.00753539,-0.000202058,0.00293781,0.00852442,-0.00119108,0.324737,0.00611874,0.0114412,699,1359,-15.4264,-9.58465
-518,-335,-15.4292,10.0553,0.00985255,-7.11483e-05,0.00393485,0.0112234,-0.00144199,0.335236,0.00800633,0.0430857,706,1359,-15.4292,-10.0553
-511,-335,-15.4395,10.5188,0,0,0,0,0,0,0,-1,713,1359,-15.4394,-10.5188
-504,-335,-9.35767,5.99695,0,0,0,0,0,0,0,-1,720,1359,-9.35767,-5.99694
-497,-335,-8.75024,-0.650513,0,0,0,0,0,0,0,-1,727,1359,-8.75024,0.650521
-490,-335,-9.51971,0.417603,0,0,0,0,0,0,0,-1,734,1359,-9.51974,-0.41765
-483,-335,-10.2883,1.29224,0,0,0,0,0,0,0,-1,741,1359,-10.2883,-1.2922
-476,-335,-11.9938,-0.173462,0,0,0,0,0,0,0,-1,748,1359,-11.9938,0.173429
-469,-335,-12.8704,-0.204102,0,0,0,0,0,0,0,-1,755,1359,-12.8704,0.204117
-462,-335,-13.486,0.0218506,0,0,0,0,0,0,0,-1,762,1359,-13.4859,-0.0217908
-455,-335,-14.1504,0.549561,0,0,0,0,0,0,0,-1,769,1359,-14.1504,-0.549583
-448,-335,0,0,0,0,0,0,0,0,0,-1,776,1359,0,0
-441,-335,0,0,0,0,0,0,0,0,0,-1,783,1359,0,0
-434,-335,0,0,0,0,0,0,0,0,0,-1,790,1359,0,0
-427,-335,0,0,0,0,0,0,0,0,0,-1,797,1359,0,0
-420,-335,0,0,0,0,0,0,0,0,0,-1,804,1359,0,0
-413,-335,0,0,0,0,0,0,0,0,0,-1,811,1359,0,0
-406,-335,0,0,0,0,0,0,0,0,0,-1,818,1359,0,0
-399,-335,0,0,0,0,0,0,0,0,0,-1,825,1359,0,0
-392,-335,0,0,0,0,0,0,0,0,0,-1,832,1359,0,0
-385,-335,0,0,0,0,0,0,0,0,0,-1,839,1359,0,0
-378,-335,0,0,0,0,0,0,0,0,0,-1,846,1359,0,0
-371,-335,0,0,0,0,0,0,0,0,0,-1,853,1359,0,0
-364,-335,0,0,0,0,0,0,0,0,0,-1,860,1359,0,0
-357,-335,0,0,0,0,0,0,0,0,0,-1,867,1359,0,0
-350,-335,0,0,0,0,0,0,0,0,0,-1,874,1359,0,0
-343,-335,0,0,0,0,0,0,0,0,0,-1,881,1359,0,0
-336,-335,0,0,0,0,0,0,0,0,0,-1,888,1359,0,0
-329,-335,0,0,0,0,0,0,0,0,0,-1,895,1359,0,0
-322,-335,0,0,0,0,0,0,0,0,0,-1,902,1359,0,0
-315,-335,0,0,0,0,0,0,0,0,0,-1,909,1359,0,0
-308,-335,0,0,0,0,0,0,0,0,0,-1,916,1359,0,0
-301,-335,0,0,0,0,0,0,0,0,0,-1,923,1359,0,0
-294,-335,0,0,0,0,0,0,0,0,0,-1,930,1359,0,0
-287,-335,0,0,0,0,0,0,0,0,0,-1,937,1359,0,0
-280,-335,0,0,0,0,0,0,0,0,0,-1,944,1359,0,0
-273,-335,0,0,0,0,0,0,0,0,0,-1,951,1359,0,0
-266,-335,0,0,0,0,0,0,0,0,0,-1,958,1359,0,0
-259,-335,0,0,0,0,0,0,0,0,0,-1,965,1359,0,0
-252,-335,0,0,0,0,0,0,0,0,0,-1,972,1359,0,0
-245,-335,0,0,0,0,0,0,0,0,0,-1,979,1359,0,0
-238,-335,0,0,0,0,0,0,0,0,0,-1,986,1359,0,0
-231,-335,0,0,0,0,0,0,0,0,0,-1,993,1359,0,0
-224,-335,0,0,0,0,0,0,0,0,0,-1,1000,1359,0,0
-217,-335,0,0,0,0,0,0,0,0,0,-1,1007,1359,0,0
-210,-335,0,0,0,0,0,0,0,0,0,-1,1014,1359,0,0
-203,-335,0,0,0,0,0,0,0,0,0,-1,1021,1359,0,0
-196,-335,0,0,0,0,0,0,0,0,0,-1,1028,1359,0,0
-189,-335,0,0,0,0,0,0,0,0,0,-1,1035,1359,0,0
-182,-335,0,0,0,0,0,0,0,0,0,-1,1042,1359,0,0
-175,-335,0,0,0,0,0,0,0,0,0,-1,1049,1359,0,0
-168,-335,0,0,0,0,0,0,0,0,0,-1,1056,1359,0,0
-161,-335,0,0,0,0,0,0,0,0,0,-1,1063,1359,0,0
-154,-335,0,0,0,0,0,0,0,0,0,-1,1070,1359,0,0
-147,-335,0,0,0,0,0,0,0,0,0,-1,1077,1359,0,0
-140,-335,0,0,0,0,0,0,0,0,0,-1,1084,1359,0,0
-133,-335,0,0,0,0,0,0,0,0,0,-1,1091,1359,0,0
-126,-335,0,0,0,0,0,0,0,0,0,-1,1098,1359,0,0
-119,-335,0,0,0,0,0,0,0,0,0,-1,1105,1359,0,0
-112,-335,0,0,0,0,0,0,0,0,0,-1,1112,1359,0,0
-105,-335,0,0,0,0,0,0,0,0,0,-1,1119,1359,0,0
-98,-335,0,0,0,0,0,0,0,0,0,-1,1126,1359,0,0
-91,-335,0,0,0,0,0,0,0,0,0,-1,1133,1359,0,0
-84,-335,0,0,0,0,0,0,0,0,0,-1,1140,1359,0,0
-77,-335,0,0,0,0,0,0,0,0,0,-1,1147,1359,0,0
-70,-335,0,0,0,0,0,0,0,0,0,-1,1154,1359,0,0
-63,-335,0,0,0,0,0,0,0,0,0,-1,1161,1359,0,0
-56,-335,0,0,0,0,0,0,0,0,0,-1,1168,1359,0,0
-49,-335,0,0,0,0,0,0,0,0,0,-1,1175,1359,0,0
-42,-335,0,0,0,0,0,0,0,0,0,-1,1182,1359,0,0
-35,-335,0,0,0,0,0,0,0,0,0,-1,1189,1359,0,0
-28,-335,0,0,0,0,0,0,0,0,0,-1,1196,1359,0,0
-21,-335,0,0,0,0,0,0,0,0,0,-1,1203,1359,0,0
-14,-335,0,0,0,0,0,0,0,0,0,-1,1210,1359,0,0
-7,-335,0,0,0,0,0,0,0,0,0,-1,1217,1359,0,0
0,-335,0,0,0,0,0,0,0,0,0,-1,1224,1359,0,0
7,-335,0,0,0,0,0,0,0,0,0,-1,1231,1359,0,0
14,-335,0,0,0,0,0,0,0,0,0,-1,1238,1359,0,0
21,-335,0,0,0,0,0,0,0,0,0,-1,1245,1359,0,0
28,-335,0,0,0,0,0,0,0,0,0,-1,1252,1359,0,0
35,-335,0,0,0,0,0,0,0,0,0,-1,1259,1359,0,0
42,-335,0,0,0,0,0,0,0,0,0,-1,1266,1359,0,0
49,-335,0,0,0,0,0,0,0,0,0,-1,1273,1359,0,0
56,-335,0,0,0,0,0,0,0,0,0,-1,1280,1359,0,0
63,-335,0,0,0,0,0,0,0,0,0,-1,1287,1359,0,0
70,-335,0,0,0,0,0,0,0,0,0,-1,1294,1359,0,0
77,-335,0,0,0,0,0,0,0,0,0,-1,1301,1359,0,0
84,-335,0,0,0,0,0,0,0,0,0,-1,1308,1359,0,0
91,-335,0,0,0,0,0,0,0,0,0,-1,1315,1359,0,0
98,-335,0,0,0,0,0,0,0,0,0,-1,1322,1359,0,0
105,-335,0,0,0,0,0,0,0,0,0,-1,1329,1359,0,0
112,-335,0,0,0,0,0,0,0,0,0,-1,1336,1359,0,0
119,-335,0,0,0,0,0,0,0,0,0,-1,1343,1359,0,0
126,-335,0,0,0,0,0,0,0,0,0,-1,1350,1359,0,0
133,-335,0,0,0,0,0,0,0,0,0,-1,1357,1359,0,0
140,-335,0,0,0,0,0,0,0,0,0,-1,1364,1359,0,0
147,-335,0,0,0,0,0,0,0,0,0,-1,1371,1359,0,0
154,-335,0,0,0,0,0,0,0,0,0,-1,1378,1359,0,0
161,-335,0,0,0,0,0,0,0,0,0,-1,1385,1359,0,0
168,-335,0,0,0,0,0,0,0,0,0,-1,1392,1359,0,0
175,-335,0,0,0,0,0,0,0,0,0,-1,1399,1359,0,0
182,-335,0,0,0,0,0,0,0,0,0,-1,1406,1359,0,0
189,-335,0,0,0,0,0,0,0,0,0,-1,1413,1359,0,0
196,-335,0,0,0,0,0,0,0,0,0,-1,1420,1359,0,0
203,-335,0,0,0,0,0,0,0,0,0,-1,1427,1359,0,0
210,-335,0,0,0,0,0,0,0,0,0,-1,1434,1359,0,0
217,-335,0,0,0,0,0,0,0,0,0,-1,1441,1359,0,0
224,-335,0,0,0,0,0,0,0,0,0,-1,1448,1359,0,0
231,-335,0,0,0,0,0,0,0,0,0,-1,1455,1359,0,0
238,-335,0,0,0,0,0,0,0,0,0,-1,1462,1359,0,0
245,-335,0,0,0,0,0,0,0,0,0,-1,1469,1359,0,0
252,-335,0,0,0,0,0,0,0,0,0,-1,1476,1359,0,0
259,-335,0,0,0,0,0,0,0,0,0,-1,1483,1359,0,0
266,-335,0,0,0,0,0,0,0,0,0,-1,1490,1359,0,0
273,-335,0,0,0,0,0,0,0,0,0,-1,1497,1359,0,0
280,-335,0,0,0,0,0,0,0,0,0,-1,1504,1359,0,0
287,-335,0,0,0,0,0,0,0,0,0,-1,1511,1359,0,0
294,-335,0,0,0,0,0,0,0,0,0,-1,1518,1359,0,0
301,-335,0,0,0,0,0,0,0,0,0,-1,1525,1359,0,0
308,-335,0,0,0,0,0,0,0,0,0,-1,1532,1359,0,0
315,-335,0,0,0,0,0,0,0,0,0,-1,1539,1359,0,0
322,-335,0,0,0,0,0,0,0,0,0,-1,1546,1359,0,0
329,-335,0,0,0,0,0,0,0,0,0,-1,1553,1359,0,0
336,-335,0,0,0,0,0,0,0,0,0,-1,1560,1359,0,0
343,-335,0,0,0,0,0,0,0,0,0,-1,1567,1359,0,0
350,-335,0,0,0,0,0,0,0,0,0,-1,1574,1359,0,0
357,-335,0,0,0,0,0,0,0,0,0,-1,1581,1359,0,0
364,-335,0,0,0,0,0,0,0,0,0,-1,1588,1359,0,0
371,-335,0,0,0,0,0,0,0,0,0,-1,1595,1359,0,0
378,-335,0,0,0,0,0,0,0,0,0,-1,1602,1359,0,0
385,-335,0,0,0,0,0,0,0,0,0,-1,1609,1359,0,0
392,-335,0,0,0,0,0,0,0,0,0,-1,1616,1359,0,0
399,-335,0,0,0,0,0,0,0,0,0,-1,1623,1359,0,0
406,-335,0,0,0,0,0,0,0,0,0,-1,1630,1359,0,0
413,-335,0,0,0,0,0,0,0,0,0,-1,1637,1359,0,0
420,-335,0,0,0,0,0,0,0,0,0,-1,1644,1359,0,0
427,-335,0,0,0,0,0,0,0,0,0,-1,1651,1359,0,0
434,-335,0,0,0,0,0,0,0,0,0,-1,1658,1359,0,0
441,-335,0,0,0,0,0,0,0,0,0,-1,1665,1359,0,0
448,-335,0,0,0,0,0,0,0,0,0,-1,1672,1359,0,0
455,-335,0,0,0,0,0,0,0,0,0,-1,1679,1359,0,0
462,-335,0,0,0,0,0,0,0,0,0,-1,1686,1359,0,0
469,-335,0,0,0,0,0,0,0,0,0,-1,1693,1359,0,0
476,-335,0,0,0,0,0,0,0,0,0,-1,1700,1359,0,0
483,-335,0,0,0,0,0,0,0,0,0,-1,1707,1359,0,0
490,-335,0,0,0,0,0,0,0,0,0,-1,1714,1359,0,0
497,-335,0,0,0,0,0,0,0,0,0,-1,1721,1359,0,0
504,-335,0,0,0,0,0,0,0,0,0,-1,1728,1359,0,0
511,-335,0,0,0,0,0,0,0,0,0,-1,1735,1359,0,0
518,-335,0,0,0,0,0,0,0,0,0,-1,1742,1359,0,0
525,-335,0,0,0,0,0,0,0,0,0,-1,1749,1359,0,0
532,-335,0,0,0,0,0,0,0,0,0,-1,1756,1359,0,0
539,-335,0,0,0,0,0,0,0,0,0,-1,1763,1359,0,0
546,-335,0,0,0,0,0,0,0,0,0,-1,1770,1359,0,0
553,-335,0,0,0,0,0,0,0,0,0,-1,1777,1359,0,0
560,-335,0,0,0,0,0,0,0,0,0,-1,1784,1359,0,0
567,-335,0,0,0,0,0,0,0,0,0,-1,1791,1359,0,0
574,-335,45.6141,4.57593,0,0,0,0,0,0,0,-1,1798,1359,45.6142,-4.57591
581,-335,46.0271,4.09546,0,0,0,0,0,0,0,-1,1805,1359,46.0271,-4.0955
588,-335,46.7834,3.13647,0,0,0,0,0,0,0,-1,1812,1359,46.7835,-3.1365
595,-335,46.8069,2.72961,0,0,0,0,0,0,0,-1,1819,1359,46.8068,-2.72965
602,-335,36.5643,0.0861816,0,0,0,0,0,0,0,-1,1826,1359,36.5643,-0.0862283
609,-335,36.2933,0.993896,0,0,0,0,0,0,0,-1,1833,1359,36.2934,-0.993911
616,-335,34.6969,4.82666,0,0,0,0,0,0,0,-1,1840,1359,34.6969,-4.82667
623,-335,26.6051,6.54333,0,0,0,0,0,0,0,-1,1847,1359,26.6051,-6.54339
630,-335,19.1707,1.00952,0,0,0,0,0,0,0,-1,1854,1359,19.1707,-1.00953
637,-335,18.2009,6.65454,0,0,0,0,0,0,0,-1,1861,1359,18.2009,-6.6546
644,-335,28.1042,12.067,0,0,0,0,0,0,0,-1,1868,1359,28.1042,-12.067
651,-335,28.5026,12.1146,0,0,0,0,0,0,0,-1,1875,1359,28.5026,-12.1147
658,-335,28.6367,11.5421,0.000367767,0.000228427,-0.000741939,0.0010433,-0.000447106,-0.738584,0.000883137,0.0263538,1882,1359,28.6367,-11.5421
665,-335,28.6954,11.0192,0.000576587,-6.87553e-05,-0.000472507,0.000826087,-0.000318255,-0.485822,0.000682027,0.0146789,1889,1359,28.6955,-11.0192
672,-335,28.6775,10.5603,0.000827786,-0.000173748,-0.000338126,0.000931252,-0.000277213,-0.296949,0.000730976,0.0162592,1896,1359,28.6775,-10.5603
679,-335,28.6689,10.1331,0.00107819,-0.00018602,-0.000243894,0.00112361,-0.000231441,-0.184123,0.000836953,0.0145874,1903,1359,28.669,-10.133
686,-335,28.6667,9.67407,0.00129544,-0.000194523,-0.000124827,0.00130583,-0.000204908,-0.0830074,0.000946279,0.0126391,1910,1359,28.6668,-9.67402
693,-335,28.6362,9.23206,0.00149164,-0.000175031,-9.30294e-06,0.0014917,-0.000175082,-0.0055815,0.00105767,0.0100832,1917,1359,28.6363,-9.23211
700,-335,28.6047,8.79834,0.00163965,-0.000157612,0.000150375,0.00165214,-0.000170107,0.082901,0.00116229,0.0107471,1924,1359,28.6048,-8.79835
707,-335,28.5884,8.36609,0.00165674,-0.000123134,0.00037445,0.00173231,-0.000198703,0.199137,0.00122649,0.0143304,1931,1359,28.5884,-8.36604
714,-335,28.5991,7.83191,0.00157059,-0.000239488,0.000759517,0.00184706,-0.000515958,0.349098,0.00143463,0.0344471,1938,1359,28.5991,-7.83192
721,-335,28.5343,7.20898,0,0,0,0,0,0,0,-1,1945,1359,28.5342,-7.20893
728,-335,20.8126,5.21167,0,0,0,0,0,0,0,-1,1952,1359,20.8127,-5.21172
735,-335,20.2725,5.34729,0,0,0,0,0,0,0,-1,1959,1359,20.2724,-5.34734
742,-335,19.8624,4.72229,0,0,0,0,0,0,0,-1,1966,1359,19.8624,-4.72225
749,-335,20.5887,6.05322,0,0,0,0,0,0,0,-1,1973,1359,20.5887,-6.05322
756,-335,20.7832,6.00452,0,0,0,0,0,0,0,-1,1980,1359,20.7832,-6.00447
763,-335,0,0,0,0,0,0,0,0,0,-1,1987,1359,0,0
770,-335,0,0,0,0,0,0,0,0,0,-1,1994,1359,0,0
777,-335,0,0,0,0,0,0,0,0,0,-1,2001,1359,0,0
784,-335,0,0,0,0,0,0,0,0,0,-1,2008,1359,0,0
791,-335,0,0,0,0,0,0,0,0,0,-1,2015,1359,0,0
798,-335,0,0,0,0,0,0,0,0,0,-1,2022,1359,0,0
805,-335,0,0,0,0,0,0,0,0,0,-1,2029,1359,0,0
812,-335,0,0,0,0,0,0,0,0,0,-1,2036,1359,0,0
-700,-342,0,0,0,0,0,0,0,0,0,-1,524,1366,0,0
-693,-342,0,0,0,0,0,0,0,0,0,-1,531,1366,0,0
-686,-342,0,0,0,0,0,0,0,0,0,-1,538,1366,0,0
-679,-342,0,0,0,0,0,0,0,0,0,-1,545,1366,0,0
-672,-342,0,0,0,0,0,0,0,0,0,-1,552,1366,0,0
-665,-342,0,0,0,0,0,0,0,0,0,-1,559,1366,0,0
-658,-342,0,0,0,0,0,0,0,0,0,-1,566,1366,0,0
-651,-342,0,0,0,0,0,0,0,0,0,-1,573,1366,0,0
-644,-342,0,0,0,0,0,0,0,0,0,-1,580,1366,0,0
-637,-342,-8.67786,-4.58557,0,0,0,0,0,0,0,-1,587,1366,-8.67788,4.5856
-630,-342,-8.60132,2.71777,0,0,0,0,0,0,0,-1,594,1366,-8.60135,-2.71779
-623,-342,-8.41168,0.662476,0,0,0,0,0,0,0,-1,601,1366,-8.41168,-0.662442
-616,-342,-6.625,-1.28015,0,0,0,0,0,0,0,-1,608,1366,-6.62499,1.28011
-609,-342,-7.83154,0.674561,0,0,0,0,0,0,0,-1,615,1366,-7.83155,-0.674598
-602,-342,-9.65765,2.25195,0,0,0,0,0,0,0,-1,622,1366,-9.65767,-2.25192
-595,-342,-9.47687,3.00671,0,0,0,0,0,0,0,-1,629,1366,-9.47686,-3.00668
-588,-342,-9.78467,3.57727,0,0,0,0,0,0,0,-1,636,1366,-9.78468,-3.57723
-581,-342,-14.9431,5.47168,0,0,0,0,0,0,0,-1,643,1366,-14.9431,-5.47166
-574,-342,-14.9336,6.09851,-0.000130651,0.00219125,0.000124565,0.00219792,-0.000137314,1.51735,0.00151313,0.0149661,650,1366,-14.9336,-6.09847
-567,-342,-14.8887,6.60046,6.56912e-05,0.0015334,8.02154e-05,0.00153777,6.13201e-05,1.51636,0.00100536,0.0163301,657,1366,-14.8887,-6.60052
-560,-342,-14.9239,7.05408,0.000600177,0.000998327,0.000183976,0.00107032,0.000528184,1.1978,0.000617967,0.0240688,664,1366,-14.9239,-7.05404
-553,-342,-14.9386,7.55286,0.00141935,0.000604488,0.000463538,0.00162906,0.000394774,0.424865,0.000981287,0.0267044,671,1366,-14.9386,-7.55288
-546,-342,-14.921,8.05566,0.00245127,0.000296766,0.000849567,0.00274597,2.07219e-06,0.333888,0.00182995,0.0275744,678,1366,-14.921,-8.05569
-539,-342,-14.9666,8.55139,0.00366012,9.73678e-05,0.00134281,0.00410954,-0.000352052,0.322967,0.00286426,0.0232471,685,1366,-14.9666,-8.55133
-532,-342,-15.0123,9.09741,0.00512181,-6.51856e-07,0.00197382,0.00579413,-0.000672977,0.328295,0.00410551,0.0178328,692,1366,-15.0123,-9.09746
-525,-342,-14.9462,9.60706,0.00686721,-3.40559e-05,0.00272892,0.00781588,-0.000982726,0.334567,0.00556715,0.0123354,699,1366,-14.9462,-9.60702
-518,-342,-14.8835,10.1273,0.00894386,0.000144048,0.0036471,0.0102589,-0.00117098,0.346059,0.00726113,0.0280734,706,1366,-14.8835,-10.1273
-511,-342,-14.9018,10.6322,0,0,0,0,0,0,0,-1,713,1366,-14.9018,-10.6322
-504,-342,-8.95709,6.5719,0,0,0,0,0,0,0,-1,720,1366,-8.95707,-6.57192
-497,-342,-8.26587,-0.943604,0,0,0,0,0,0,0,-1,727,1366,-8.26586,0.943543
-490,-342,-9.07153,-0.0227051,0,0,0,0,0,0,0,-1,734,1366,-9.07155,0.0227087
-483,-342,-9.87726,0.898071,0,0,0,0,0,0,0,-1,741,1366,-9.87724,-0.898125
-476,-342,-11.6371,-0.736328,0,0,0,0,0,0,0,-1,748,1366,-11.6371,0.736281
-469,-342,-12.6245,-0.987549,0,0,0,0,0,0,0,-1,755,1366,-12.6245,0.987553
-462,-342,-13.0912,-0.533203,0,0,0,0,0,0,0,-1,762,1366,-13.0912,0.533224
-455,-342,-13.7612,0.122925,0,0,0,0,0,0,0,-1,769,1366,-13.7612,-0.122896
-448,-342,-14.5278,0.826904,0,0,0,0,0,0,0,-1,776,1366,-14.5277,-0.826861
-441,-342,0,0,0,0,0,0,0,0,0,-1,783,1366,0,0
-434,-342,0,0,0,0,0,0,0,0,0,-1,790,1366,0,0
-427,-342,0,0,0,0,0,0,0,0,0,-1,797,1366,0,0
-420,-342,0,0,0,0,0,0,0,0,0,-1,804,1366,0,0
-413,-342,0,0,0,0,0,0,0,0,0,-1,811,1366,0,0
-406,-342,0,0,0,0,0,0,0,0,0,-1,818,1366,0,0
-399,-342,0,0,0,0,0,0,0,0,0,-1,825,1366,0,0
-392,-342,0,0,0,0,0,0,0,0,0,-1,832,1366,0,0
-385,-342,0,0,0,0,0,0,0,0,0,-1,839,1366,0,0
-378,-342,0,0,0,0,0,0,0,0,0,-1,846,1366,0,0
-371,-342,0,0,0,0,0,0,0,0,0,-1,853,1366,0,0
-364,-342,0,0,0,0,0,0,0,0,0,-1,860,1366,0,0
-357,-342,0,0,0,0,0,0,0,0,0,-1,867,1366,0,0
-350,-342,0,0,0,0,0,0,0,0,0,-1,874,1366,0,0
-343,-342,0,0,0,0,0,0,0,0,0,-1,881,1366,0,0
-336,-342,0,0,0,0,0,0,0,0,0,-1,888,1366,0,0
-329,-342,0,0,0,0,0,0,0,0,0,-1,895,1366,0,0
-322,-342,0,0,0,0,0,0,0,0,0,-1,902,1366,0,0
-315,-342,0,0,0,0,0,0,0,0,0,-1,909,1366,0,0
-308,-342,0,0,0,0,0,0,0,0,0,-1,916,1366,0,0
-301,-342,0,0,0,0,0,0,0,0,0,-1,923,1366,0,0
-294,-342,0,0,0,0,0,0,0,0,0,-1,930,1366,0,0
-287,-342,0,0,0,0,0,0,0,0,0,-1,937,1366,0,0
-280,-342,0,0,0,0,0,0,0,0,0,-1,944,1366,0,0
-273,-342,0,0,0,0,0,0,0,0,0,-1,951,1366,0,0
-266,-342,0,0,0,0,0,0,0,0,0,-1,958,1366,0,0
-259,-342,0,0,0,0,0,0,0,0,0,-1,965,1366,0,0
-252,-342,0,0,0,0,0,0,0,0,0,-1,972,1366,0,0
-245,-342,0,0,0,0,0,0,0,0,0,-1,979,1366,0,0
-238,-342,0,0,0,0,0,0,0,0,0,-1,986,1366,0,0
-231,-342,0,0,0,0,0,0,0,0,0,-1,993,1366,0,0
-224,-342,0,0,0,0,0,0,0,0,0,-1,1000,1366,0,0
-217,-342,0,0,0,0,0,0,0,0,0,-1,1007,1366,0,0
-210,-342,0,0,0,0,0,0,0,0,0,-1,1014,1366,0,0
-203,-342,0,0,0,0,0,0,0,0,0,-1,1021,1366,0,0
-196,-342,0,0,0,0,0,0,0,0,0,-1,1028,1366,0,0
-189,-342,0,0,0,0,0,0,0,0,0,-1,1035,1366,0,0
-182,-342,0,0,0,0,0,0,0,0,0,-1,1042,1366,0,0
-175,-342,0,0,0,0,0,0,0,0,0,-1,1049,1366,0,0
-168,-342,0,0,0,0,0,0,0,0,0,-1,1056,1366,0,0
-161,-342,0,0,0,0,0,0,0,0,0,-1,1063,1366,0,0
-154,-342,0,0,0,0,0,0,0,0,0,-1,1070,1366,0,0
-147,-342,0,0,0,0,0,0,0,0,0,-1,1077,1366,0,0
-140,-342,0,0,0,0,0,0,0,0,0,-1,1084,1366,0,0
-133,-342,0,0,0,0,0,0,0,0,0,-1,1091,1366,0,0
-126,-342,0,0,0,0,0,0,0,0,0,-1,1098,1366,0,0
-119,-342,0,0,0,0,0,0,0,0,0,-1,1105,1366,0,0
-112,-342,0,0,0,0,0,0,0,0,0,-1,1112,1366,0,0
-105,-342,0,0,0,0,0,0,0,0,0,-1,1119,1366,0,0
-98,-342,0,0,0,0,0,0,0,0,0,-1,1126,1366,0,0
-91,-342,0,0,0,0,0,0,0,0,0,-1,1133,1366,0,0
-84,-342,0,0,0,0,0,0,0,0,0,-1,1140,1366,0,0
-77,-342,0,0,0,0,0,0,0,0,0,-1,1147,1366,0,0
-70,-342,0,0,0,0,0,0,0,0,0,-1,1154,1366,0,0
-63,-342,0,0,0,0,0,0,0,0,0,-1,1161,1366,0,0
-56,-342,0,0,0,0,0,0,0,0,0,-1,1168,1366,0,0
-49,-342,0,0,0,0,0,0,0,0,0,-1,1175,1366,0,0
-42,-342,0,0,0,0,0,0,0,0,0,-1,1182,1366,0,0
-35,-342,0,0,0,0,0,0,0,0,0,-1,1189,1366,0,0
-28,-342,0,0,0,0,0,0,0,0,0,-1,1196,1366,0,0
-21,-342,0,0,0,0,0,0,0,0,0,-1,1203,1366,0,0
-14,-342,0,0,0,0,0,0,0,0,0,-1,1210,1366,0,0
-7,-342,0,0,0,0,0,0,0,0,0,-1,1217,1366,0,0
0,-342,0,0,0,0,0,0,0,0,0,-1,1224,1366,0,0
7,-342,0,0,0,0,0,0,0,0,0,-1,1231,1366,0,0
14,-342,0,0,0,0,0,0,0,0,0,-1,1238,1366,0,0
21,-342,0,0,0,0,0,0,0,0,0,-1,1245,1366,0,0
28,-342,0,0,0,0,0,0,0,0,0,-1,1252,1366,0,0
35,-342,0,0,0,0,0,0,0,0,0,-1,1259,1366,0,0
42,-342,0,0,0,0,0,0,0,0,0,-1,1266,1366,0,0
49,-342,0,0,0,0,0,0,0,0,0,-1,1273,1366,0,0
56,-342,0,0,0,0,0,0,0,0,0,-1,1280,1366,0,0
63,-342,0,0,0,0,0,0,0,0,0,-1,1287,1366,0,0
70,-342,0,0,0,0,0,0,0,0,0,-1,1294,1366,0,0
77,-342,0,0,0,0,0,0,0,0,0,-1,1301,1366,0,0
84,-342,0,0,0,0,0,0,0,0,0,-1,1308,1366,0,0
91,-342,0,0,0,0,0,0,0,0,0,-1,1315,1366,0,0
98,-342,0,0,0,0,0,0,0,0,0,-1,1322,1366,0,0
105,-342,0,0,0,0,0,0,0,0,0,-1,1329,1366,0,0
112,-342,0,0,0,0,0,0,0,0,0,-1,1336,1366,0,0
119,-342,0,0,0,0,0,0,0,0,0,-1,1343,1366,0,0
126,-342,0,0,0,0,0,0,0,0,0,-1,1350,1366,0,0
133,-342,0,0,0,0,0,0,0,0,0,-1,1357,1366,0,0
140,-342,0,0,0,0,0,0,0,0,0,-1,1364,1366,0,0
147,-342,0,0,0,0,0,0,0,0,0,-1,1371,1366,0,0
154,-342,0,0,0,0,0,0,0,0,0,-1,1378,1366,0,0
161,-342,0,0,0,0,0,0,0,0,0,-1,1385,1366,0,0
168,-342,0,0,0,0,0,0,0,0,0,-1,1392,1366,0,0
175,-342,0,0,0,0,0,0,0,0,0,-1,1399,1366,0,0
182,-342,0,0,0,0,0,0,0,0,0,-1,1406,1366,0,0
189,-342,0,0,0,0,0,0,0,0,0,-1,1413,1366,0,0
196,-342,0,0,0,0,0,0,0,0,0,-1,1420,1366,0,0
203,-342,0,0,0,0,0,0,0,0,0,-1,1427,1366,0,0
210,-342,0,0,0,0,0,0,0,0,0,-1,1434,1366,0,0
217,-342,0,0,0,0,0,0,0,0,0,-1,1441,1366,0,0
224,-342,0,0,0,0,0,0,0,0,0,-1,1448,1366,0,0
231,-342,0,0,0,0,0,0,0,0,0,-1,1455,1366,0,0
238,-342,0,0,0,0,0,0,0,0,0,-1,1462,1366,0,0
245,-342,0,0,0,0,0,0,0,0,0,-1,1469,1366,0,0
252,-342,0,0,0,0,0,0,0,0,0,-1,1476,1366,0,0
259,-342,0,0,0,0,0,0,0,0,0,-1,1483,1366,0,0
266,-342,0,0,0,0,0,0,0,0,0,-1,1490,1366,0,0
273,-342,0,0,0,0,0,0,0,0,0,-1,1497,1366,0,0
280,-342,0,0,0,0,0,0,0,0,0,-1,1504,1366,0,0
287,-342,0,0,0,0,0,0,0,0,0,-1,1511,1366,0,0
294,-342,0,0,0,0,0,0,0,0,0,-1,1518,1366,0,0
301,-342,0,0,0,0,0,0,0,0,0,-1,1525,1366,0,0
308,-342,0,0,0,0,0,0,0,0,0,-1,1532,1366,0,0
315,-342,0,0,0,0,0,0,0,0,0,-1,1539,1366,0,0
322,-342,0,0,0,0,0,0,0,0,0,-1,1546,1366,0,0
329,-342,0,0,0,0,0,0,0,0,0,-1,1553,1366,0,0
336,-342,0,0,0,0,0,0,0,0,0,-1,1560,1366,0,0
343,-342,0,0,0,0,0,0,0,0,0,-1,1567,1366,0,0
350,-342,0,0,0,0,0,0,0,0,0,-1,1574,1366,0,0
357,-342,0,0,0,0,0,0,0,0,0,-1,1581,1366,0,0
364,-342,0,0,0,0,0,0,0,0,0,-1,1588,1366,0,0
371,-342,0,0,0,0,0,0,0,0,0,-1,1595,1366,0,0
378,-342,0,0,0,0,0,0,0,0,0,-1,1602,1366,0,0
385,-342,0,0,0,0,0,0,0,0,0,-1,1609,1366,0,0
392,-342,0,0,0,0,0,0,0,0,0,-1,1616,1366,0,0
399,-342,0,0,0,0,0,0,0,0,0,-1,1623,1366,0,0
406,-342,0,0,0,0,0,0,0,0,0,-1,1630,1366,0,0
413,-342,0,0,0,0,0,0,0,0,0,-1,1637,1366,0,0
420,-342,0,0,0,0,0,0,0,0,0,-1,1644,1366,0,0
427,-342,0,0,0,0,0,0,0,0,0,-1,1651,1366,0,0
434,-342,0,0,0,0,0,0,0,0,0,-1,1658,1366,0,0
441,-342,0,0,0,0,0,0,0,0,0,-1,1665,1366,0,0
448,-342,0,0,0,0,0,0,0,0,0,-1,1672,1366,0,0
455,-342,0,0,0,0,0,0,0,0,0,-1,1679,1366,0,0
462,-342,0,0,0,0,0,0,0,0,0,-1,1686,1366,0,0
469,-342,0,0,0,0,0,0,0,0,0,-1,1693,1366,0,0
476,-342,0,0,0,0,0,0,0,0,0,-1,1700,1366,0,0
483,-342,0,0,0,0,0,0,0,0,0,-1,1707,1366,0,0
490,-342,0,0,0,0,0,0,0,0,0,-1,1714,1366,0,0
497,-342,0,0,0,0,0,0,0,0,0,-1,1721,1366,0,0
504,-342,0,0,0,0,0,0,0,0,0,-1,1728,1366,0,0
511,-342,0,0,0,0,0,0,0,0,0,-1,1735,1366,0,0
518,-342,0,0,0,0,0,0,0,0,0,-1,1742,1366,0,0
525,-342,0,0,0,0,0,0,0,0,0,-1,1749,1366,0,0
532,-342,0,0,0,0,0,0,0,0,0,-1,1756,1366,0,0
539,-342,0,0,0,0,0,0,0,0,0,-1,1763,1366,0,0
546,-342,0,0,0,0,0,0,0,0,0,-1,1770,1366,0,0
553,-342,0,0,0,0,0,0,0,0,0,-1,1777,1366,0,0
560,-342,0,0,0,0,0,0,0,0,0,-1,1784,1366,0,0
567,-342,45.6378,3.95679,0,0,0,0,0,0,0,-1,1791,1366,45.6378,-3.95681
574,-342,45.4796,4.15137,0,0,0,0,0,0,0,-1,1798,1366,45.4797,-4.15142
581,-342,45.8685,3.68884,0,0,0,0,0,0,0,-1,1805,1366,45.8685,-3.6888
588,-342,47.1311,2.79675,0,0,0,0,0,0,0,-1,1812,1366,47.1311,-2.79675
595,-342,35.7993,0.709961,0,0,0,0,0,0,0,-1,1819,1366,35.7993,-0.709913
602,-342,36.3618,3.28723,0,0,0,0,0,0,0,-1,1826,1366,36.3619,-3.28719
609,-342,35.3777,4.14978,0,0,0,0,0,0,0,-1,1833,1366,35.3777,-4.14976
616,-342,34.199,5.8158,0,0,0,0,0,0,0,-1,1840,1366,34.199,-5.81579
623,-342,26.0299,6.86865,0,0,0,0,0,0,0,-1,1847,1366,26.0299,-6.86863
630,-342,17.3431,0.773071,0,0,0,0,0,0,0,-1,1854,1366,17.3432,-0.773095
637,-342,16.196,6.76172,0,0,0,0,0,0,0,-1,1861,1366,16.1961,-6.76174
644,-342,28.0646,12.4135,0,0,0,0,0,0,0,-1,1868,1366,28.0646,-12.4134
651,-342,28.2302,12.0176,-0.000129178,0.000709517,-0.00113395,0.00149918,-0.000918836,-0.962505,0.00140938,0.0426484,1875,1366,28.2302,-12.0176
658,-342,28.2522,11.5084,0.000100539,0.000308275,-0.000613468,0.000826606,-0.000417792,-0.869259,0.000731263,0.0197221,1882,1366,28.2522,-11.5084
665,-342,28.2274,11.0305,0.000430837,2.69637e-06,-0.000343984,0.000621922,-0.000188389,-0.507061,0.000489644,0.015975,1889,1366,28.2274,-11.0305
672,-342,28.21,10.608,0.000791641,-0.000147336,-0.000187652,0.000827754,-0.000183449,-0.190121,0.000622069,0.0129525,1896,1366,28.21,-10.6081
679,-342,28.1897,10.1716,0.00116316,-0.000237631,-8.04911e-05,0.00116777,-0.000242241,-0.05721,0.00087057,0.0130978,1903,1366,28.1897,-10.1716
686,-342,28.2047,9.74023,0.0015266,-0.00030808,2.14672e-05,0.00152685,-0.000308331,0.0116987,0.00113472,0.0118426,1910,1366,28.2047,-9.74027
693,-342,28.1816,9.27808,0.00188413,-0.00033895,0.000115878,0.00189015,-0.000344974,0.0519377,0.00138944,0.0120871,1917,1366,28.1816,-9.27806
700,-342,28.1594,8.82715,0.00221036,-0.000351438,0.00022451,0.00222989,-0.000370965,0.0867565,0.00162443,0.0139324,1924,1366,28.1594,-8.82719
707,-342,28.1395,8.33679,0.0024044,-0.000295043,0.000366108,0.00245317,-0.000343815,0.132437,0.00176127,0.0138314,1931,1366,28.1395,-8.33673
714,-342,28.1581,7.85071,0,0,0,0,0,0,0,-1,1938,1366,28.1581,-7.85073
721,-342,22.4666,6.08679,0,0,0,0,0,0,0,-1,1945,1366,22.4666,-6.08678
728,-342,19.8912,5.26636,0,0,0,0,0,0,0,-1,1952,1366,19.8913,-5.26636
735,-342,19.481,4.41968,0,0,0,0,0,0,0,-1,1959,1366,19.4809,-4.41962
742,-342,19.309,2.66943,0,0,0,0,0,0,0,-1,1966,1366,19.3089,-2.66948
749,-342,21.0934,6.47729,0,0,0,0,0,0,0,-1,1973,1366,21.0934,-6.4773
756,-342,0,0,0,0,0,0,0,0,0,-1,1980,1366,0,0
763,-342,0,0,0,0,0,0,0,0,0,-1,1987,1366,0,0
770,-342,0,0,0,0,0,0,0,0,0,-1,1994,1366,0,0
777,-342,0,0,0,0,0,0,0,0,0,-1,2001,1366,0,0
784,-342,0,0,0,0,0,0,0,0,0,-1,2008,1366,0,0
791,-342,0,0,0,0,0,0,0,0,0,-1,2015,1366,0,0
798,-342,0,0,0,0,0,0,0,0,0,-1,2022,1366,0,0
805,-342,0,0,0,0,0,0,0,0,0,-1,2029,1366,0,0
812,-342,0,0,0,0,0,0,0,0,0,-1,2036,1366,0,0
-700,-349,0,0,0,0,0,0,0,0,0,-1,524,1373,0,0
-693,-349,0,0,0,0,0,0,0,0,0,-1,531,1373,0,0
-686,-349,0,0,0,0,0,0,0,0,0,-1,538,1373,0,0
-679,-349,0,0,0,0,0,0,0,0,0,-1,545,1373,0,0
-672,-349,0,0,0,0,0,0,0,0,0,-1,552,1373,0,0
-665,-349,0,0,0,0,0,0,0,0,0,-1,559,1373,0,0
-658,-349,0,0,0,0,0,0,0,0,0,-1,566,1373,0,0
-651,-349,0,0,0,0,0,0,0,0,0,-1,573,1373,0,0
-644,-349,0,0,0,0,0,0,0,0,0,-1,580,1373,0,0
-637,-349,0,0,0,0,0,0,0,0,0,-1,587,1373,0,0
-630,-349,-7.64117,-5.06177,0,0,0,0,0,0,0,-1,594,1373,-7.64118,5.0618
-623,-349,-8.63507,0.51123,0,0,0,0,0,0,0,-1,601,1373,-8.63505,-0.511275
-616,-349,-5.2066,-0.188232,0,0,0,0,0,0,0,-1,608,1373,-5.20659,0.188211
-609,-349,-7.12073,1.37048,0,0,0,0,0,0,0,-1,615,1373,-7.12072,-1.37044
-602,-349,-9.00623,3.39587,0,0,0,0,0,0,0,-1,622,1373,-9.0062,-3.39591
-595,-349,-9.50568,2.96912,0,0,0,0,0,0,0,-1,629,1373,-9.50569,-2.96906
-588,-349,-8.60046,3.56042,0,0,0,0,0,0,0,-1,636,1373,-8.60046,-3.56047
-581,-349,-14.3307,5.58191,0,0,0,0,0,0,0,-1,643,1373,-14.3307,-5.58196
-574,-349,-14.384,6.05151,-0.00137831,0.00222496,-0.000617287,0.00232778,-0.00148113,-1.40575,0.00221711,0.0328398,650,1373,-14.384,-6.05153
-567,-349,-14.4155,6.60779,-0.000966977,0.00159212,-0.00044233,0.00166641,-0.00104128,-1.40438,0.00157711,0.0176198,657,1373,-14.4155,-6.60775
-560,-349,-14.412,7.08813,-0.000269584,0.00105411,-0.000220628,0.00108992,-0.000305389,-1.40991,0.000846964,0.0213271,664,1373,-14.412,-7.08816
-553,-349,-14.4157,7.5614,0.000712308,0.000686693,0.000167954,0.000867942,0.000531059,0.747344,0.00050527,0.0261602,671,1373,-14.4157,-7.56138
-546,-349,-14.4041,8.07507,0.00182985,0.000416255,0.000624559,0.00206625,0.000179846,0.361854,0.00132164,0.0294178,678,1373,-14.404,-8.07511
-539,-349,-14.4824,8.60181,0.00306274,0.000233536,0.0011413,0.00346574,-0.000169464,0.339437,0.002369,0.0241114,685,1373,-14.4824,-8.60176
-532,-349,-14.5133,9.11682,0.00445108,0.000141336,0.00173978,0.00506574,-0.000473324,0.339609,0.00354549,0.0170257,692,1373,-14.5133,-9.11677
-525,-349,-14.4734,9.62695,0.00602453,0.000138902,0.00243311,0.00690012,-0.000736684,0.345434,0.00486427,0.013181,699,1373,-14.4734,-9.62699
-518,-349,-14.4647,10.1693,0.0078059,0.000304693,0.0032354,0.00900856,-0.000897968,0.355892,0.00632631,0.0190652,706,1373,-14.4647,-10.1693
-511,-349,-14.4289,10.7113,0,0,0,0,0,0,0,-1,713,1373,-14.4289,-10.7113
-504,-349,-9.60516,7.88831,0,0,0,0,0,0,0,-1,720,1373,-9.60519,-7.88825
-497,-349,-7.9339,5.58789,0,0,0,0,0,0,0,-1,727,1373,-7.93388,-5.58785
-490,-349,-8.73969,-0.503784,0,0,0,0,0,0,0,-1,734,1373,-8.73966,0.503752
-483,-349,-5.66974,3.7395,0,0,0,0,0,0,0,-1,741,1373,-5.66975,-3.73949
-476,-349,-10.8496,1.15759,0,0,0,0,0,0,0,-1,748,1373,-10.8496,-1.15756
-469,-349,-12.3314,-1.74878,0,0,0,0,0,0,0,-1,755,1373,-12.3314,1.74882
-462,-349,-12.6559,-0.995361,0,0,0,0,0,0,0,-1,762,1373,-12.656,0.995351
-455,-349,-13.2897,-0.234253,0,0,0,0,0,0,0,-1,769,1373,-13.2897,0.234261
-448,-349,-14.045,0.712891,0,0,0,0,0,0,0,-1,776,1373,-14.045,-0.712838
-441,-349,0,0,0,0,0,0,0,0,0,-1,783,1373,0,0
-434,-349,0,0,0,0,0,0,0,0,0,-1,790,1373,0,0
-427,-349,0,0,0,0,0,0,0,0,0,-1,797,1373,0,0
-420,-349,0,0,0,0,0,0,0,0,0,-1,804,1373,0,0
-413,-349,0,0,0,0,0,0,0,0,0,-1,811,1373,0,0
-406,-349,0,0,0,0,0,0,0,0,0,-1,818,1373,0,0
-399,-349,0,0,0,0,0,0,0,0,0,-1,825,1373,0,0
-392,-349,0,0,0,0,0,0,0,0,0,-1,832,1373,0,0
-385,-349,0,0,0,0,0,0,0,0,0,-1,839,1373,0,0
-378,-349,0,0,0,0,0,0,0,0,0,-1,846,1373,0,0
-371,-349,0,0,0,0,0,0,0,0,0,-1,853,1373,0,0
-364,-349,0,0,0,0,0,0,0,0,0,-1,860,1373,0,0
-357,-349,0,0,0,0,0,0,0,0,0,-1,867,1373,0,0
-350,-349,0,0,0,0,0,0,0,0,0,-1,874,1373,0,0
-343,-349,0,0,0,0,0,0,0,0,0,-1,881,1373,0,0
-336,-349,0,0,0,0,0,0,0,0,0,-1,888,1373,0,0
-329,-349,0,0,0,0,0,0,0,0,0,-1,895,1373,0,0
-322,-349,0,0,0,0,0,0,0,0,0,-1,902,1373,0,0
-315,-349,0,0,0,0,0,0,0,0,0,-1,909,1373,0,0
-308,-349,0,0,0,0,0,0,0,0,0,-1,916,1373,0,0
-301,-349,0,0,0,0,0,0,0,0,0,-1,923,1373,0,0
-294,-349,0,0,0,0,0,0,0,0,0,-1,930,1373,0,0
-287,-349,0,0,0,0,0,0,0,0,0,-1,937,1373,0,0
-280,-349,0,0,0,0,0,0,0,0,0,-1,944,1373,0,0
-273,-349,0,0,0,0,0,0,0,0,0,-1,951,1373,0,0
-266,-349,0,0,0,0,0,0,0,0,0,-1,958,1373,0,0
-259,-349,0,0,0,0,0,0,0,0,0,-1,965,1373,0,0
-252,-349,0,0,0,0,0,0,0,0,0,-1,972,1373,0,0
-245,-349,0,0,0,0,0,0,0,0,0,-1,979,1373,0,0
-238,-349,0,0,0,0,0,0,0,0,0,-1,986,1373,0,0
-231,-349,0,0,0,0,0,0,0,0,0,-1,993,1373,0,0
-224,-349,0,0,0,0,0,0,0,0,0,-1,1000,1373,0,0
-217,-349,0,0,0,0,0,0,0,0,0,-1,1007,1373,0,0
-210,-349,0,0,0,0,0,0,0,0,0,-1,1014,1373,0,0
-203,-349,0,0,0,0,0,0,0,0,0,-1,1021,1373,0,0
-196,-349,0,0,0,0,0,0,0,0,0,-1,1028,1373,0,0
-189,-349,0,0,0,0,0,0,0,0,0,-1,1035,1373,0,0
-182,-349,0,0,0,0,0,0,0,0,0,-1,1042,1373,0,0
-175,-349,0,0,0,0,0,0,0,0,0,-1,1049,1373,0,0
-168,-349,0,0,0,0,0,0,0,0,0,-1,1056,1373,0,0
-161,-349,0,0,0,0,0,0,0,0,0,-1,1063,1373,0,0
-154,-349,0,0,0,0,0,0,0,0,0,-1,1070,1373,0,0
-147,-349,0,0,0,0,0,0,0,0,0,-1,1077,1373,0,0
-140,-349,0,0,0,0,0,0,0,0,0,-1,1084,1373,0,0
-133,-349,0,0,0,0,0,0,0,0,0,-1,1091,1373,0,0
-126,-349,0,0,0,0,0,0,0,0,0,-1,1098,1373,0,0
-119,-349,0,0,0,0,0,0,0,0,0,-1,1105,1373,0,0
-112,-349,0,0,0,0,0,0,0,0,0,-1,1112,1373,0,0
-105,-349,0,0,0,0,0,0,0,0,0,-1,1119,1373,0,0
-98,-349,0,0,0,0,0,0,0,0,0,-1,1126,1373,0,0
-91,-349,0,0,0,0,0,0,0,0,0,-1,1133,1373,0,0
-84,-349,0,0,0,0,0,0,0,0,0,-1,1140,1373,0,0
-77,-349,0,0,0,0,0,0,0,0,0,-1,1147,1373,0,0
-70,-349,0,0,0,0,0,0,0,0,0,-1,1154,1373,0,0
-63,-349,0,0,0,0,0,0,0,0,0,-1,1161,1373,0,0
-56,-349,0,0,0,0,0,0,0,0,0,-1,1168,1373,0,0
-49,-349,0,0,0,0,0,0,0,0,0,-1,1175,1373,0,0
-42,-349,0,0,0,0,0,0,0,0,0,-1,1182,1373,0,0
-35,-349,0,0,0,0,0,0,0,0,0,-1,1189,1373,0,0
-28,-349,0,0,0,0,0,0,0,0,0,-1,1196,1373,0,0
-21,-349,0,0,0,0,0,0,0,0,0,-1,1203,1373,0,0
-14,-349,0,0,0,0,0,0,0,0,0,-1,1210,1373,0,0
-7,-349,0,0,0,0,0,0,0,0,0,-1,1217,1373,0,0
0,-349,0,0,0,0,0,0,0,0,0,-1,1224,1373,0,0
7,-349,0,0,0,0,0,0,0,0,0,-1,1231,1373,0,0
14,-349,0,0,0,0,0,0,0,0,0,-1,1238,1373,0,0
21,-349,0,0,0,0,0,0,0,0,0,-1,1245,1373,0,0
28,-349,0,0,0,0,0,0,0,0,0,-1,1252,1373,0,0
35,-349,0,0,0,0,0,0,0,0,0,-1,1259,1373,0,0
42,-349,0,0,0,0,0,0,0,0,0,-1,1266,1373,0,0
49,-349,0,0,0,0,0,0,0,0,0,-1,1273,1373,0,0
56,-349,0,0,0,0,0,0,0,0,0,-1,1280,1373,0,0
63,-349,0,0,0,0,0,0,0,0,0,-1,1287,1373,0,0
70,-349,0,0,0,0,0,0,0,0,0,-1,1294,1373,0,0
77,-349,0,0,0,0,0,0,0,0,0,-1,1301,1373,0,0
84,-349,0,0,0,0,0,0,0,0,0,-1,1308,1373,0,0
91,-349,0,0,0,0,0,0,0,0,0,-1,1315,1373,0,0
98,-349,0,0,0,0,0,0,0,0,0,-1,1322,1373,0,0
105,-349,0,0,0,0,0,0,0,0,0,-1,1329,1373,0,0
112,-349,0,0,0,0,0,0,0,0,0,-1,1336,1373,0,0
119,-349,0,0,0,0,0,0,0,0,0,-1,1343,1373,0,0
126,-349,0,0,0,0,0,0,0,0,0,-1,1350,1373,0,0
133,-349,0,0,0,0,0,0,0,0,0,-1,1357,1373,0,0
140,-349,0,0,0,0,0,0,0,0,0,-1,1364,1373,0,0
147,-349,0,0,0,0,0,0,0,0,0,-1,1371,1373,0,0
154,-349,0,0,0,0,0,0,0,0,0,-1,1378,1373,0,0
161,-349,0,0,0,0,0,0,0,0,0,-1,1385,1373,0,0
168,-349,0,0,0,0,0,0,0,0,0,-1,1392,1373,0,0
175,-349,0,0,0,0,0,0,0,0,0,-1,1399,1373,0,0
182,-349,0,0,0,0,0,0,0,0,0,-1,1406,1373,0,0
189,-349,0,0,0,0,0,0,0,0,0,-1,1413,1373,0,0
196,-349,0,0,0,0,0,0,0,0,0,-1,1420,1373,0,0
203,-349,0,0,0,0,0,0,0,0,0,-1,1427,1373,0,0
210,-349,0,0,0,0,0,0,0,0,0,-1,1434,1373,0,0
217,-349,0,0,0,0,0,0,0,0,0,-1,1441,1373,0,0
224,-349,0,0,0,0,0,0,0,0,0,-1,1448,1373,0,0
231,-349,0,0,0,0,0,0,0,0,0,-1,1455,1373,0,0
238,-349,0,0,0,0,0,0,0,0,0,-1,1462,1373,0,0
245,-349,0,0,0,0,0,0,0,0,0,-1,1469,1373,0,0
252,-349,0,0,0,0,0,0,0,0,0,-1,1476,1373,0,0
259,-349,0,0,0,0,0,0,0,0,0,-1,1483,1373,0,0
266,-349,0,0,0,0,0,0,0,0,0,-1,1490,1373,0,0
273,-349,0,0,0,0,0,0,0,0,0,-1,1497,1373,0,0
280,-349,0,0,0,0,0,0,0,0,0,-1,1504,1373,0,0
287,-349,0,0,0,0,0,0,0,0,0,-1,1511,1373,0,0
294,-349,0,0,0,0,0,0,0,0,0,-1,1518,1373,0,0
301,-349,0,0,0,0,0,0,0,0,0,-1,1525,1373,0,0
308,-349,0,0,0,0,0,0,0,0,0,-1,1532,1373,0,0
315,-349,0,0,0,0,0,0,0,0,0,-1,1539,1373,0,0
322,-349,0,0,0,0,0,0,0,0,0,-1,1546,1373,0,0
329,-349,0,0,0,0,0,0,0,0,0,-1,1553,1373,0,0
336,-349,0,0,0,0,0,0,0,0,0,-1,1560,1373,0,0
343,-349,0,0,0,0,0,0,0,0,0,-1,1567,1373,0,0
350,-349,0,0,0,0,0,0,0,0,0,-1,1574,1373,0,0
357,-349,0,0,0,0,0,0,0,0,0,-1,1581,1373,0,0
364,-349,0,0,0,0,0,0,0,0,0,-1,1588,1373,0,0
371,-349,0,0,0,0,0,0,0,0,0,-1,1595,1373,0,0
378,-349,0,0,0,0,0,0,0,0,0,-1,1602,1373,0,0
385,-349,0,0,0,0,0,0,0,0,0,-1,1609,1373,0,0
392,-349,0,0,0,0,0,0,0,0,0,-1,1616,1373,0,0
399,-349,0,0,0,0,0,0,0,0,0,-1,1623,1373,0,0
406,-349,0,0,0,0,0,0,0,0,0,-1,1630,1373,0,0
413,-349,0,0,0,0,0,0,0,0,0,-1,1637,1373,0,0
420,-349,0,0,0,0,0,0,0,0,0,-1,1644,1373,0,0
427,-349,0,0,0,0,0,0,0,0,0,-1,1651,1373,0,0
434,-349,0,0,0,0,0,0,0,0,0,-1,1658,1373,0,0
441,-349,0,0,0,0,0,0,0,0,0,-1,1665,1373,0,0
448,-349,0,0,0,0,0,0,0,0,0,-1,1672,1373,0,0
455,-349,0,0,0,0,0,0,0,0,0,-1,1679,1373,0,0
462,-349,0,0,0,0,0,0,0,0,0,-1,1686,1373,0,0
469,-349,0,0,0,0,0,0,0,0,0,-1,1693,1373,0,0
476,-349,0,0,0,0,0,0,0,0,0,-1,1700,1373,0,0
483,-349,0,0,0,0,0,0,0,0,0,-1,1707,1373,0,0
490,-349,0,0,0,0,0,0,0,0,0,-1,1714,1373,0,0
497,-349,0,0,0,0,0,0,0,0,0,-1,1721,1373,0,0
504,-349,0,0,0,0,0,0,0,0,0,-1,1728,1373,0,0
511,-349,0,0,0,0,0,0,0,0,0,-1,1735,1373,0,0
518,-349,0,0,0,0,0,0,0,0,0,-1,1742,1373,0,0
525,-349,0,0,0,0,0,0,0,0,0,-1,1749,1373,0,0
532,-349,0,0,0,0,0,0,0,0,0,-1,1756,1373,0,0
539,-349,0,0,0,0,0,0,0,0,0,-1,1763,1373,0,0
546,-349,0,0,0,0,0,0,0,0,0,-1,1770,1373,0,0
553,-349,0,0,0,0,0,0,0,0,0,-1,1777,1373,0,0
560,-349,45.6893,3.53845,0,0,0,0,0,0,0,-1,1784,1373,45.6893,-3.5385
567,-349,45.6429,3.58057,0,0,0,0,0,0,0,-1,1791,1373,45.6429,-3.5806
574,-349,45.5089,3.73657,0,0,0,0,0,0,0,-1,1798,1373,45.5089,-3.73662
581,-349,45.1635,4.2511,0,0,0,0,0,0,0,-1,1805,1373,45.1635,-4.25111
588,-349,44.8121,5.06213,0,0,0,0,0,0,0,-1,1812,1373,44.8121,-5.06215
595,-349,44.4338,6.14099,0,0,0,0,0,0,0,-1,1819,1373,44.4338,-6.14095
602,-349,35.6641,3.26465,0,0,0,0,0,0,0,-1,1826,1373,35.6641,-3.26468
609,-349,34.7175,4.401,0,0,0,0,0,0,0,-1,1833,1373,34.7175,-4.40096
616,-349,27.1451,6.68274,0,0,0,0,0,0,0,-1,1840,1373,27.1451,-6.6828
623,-349,18.8478,2.75769,0,0,0,0,0,0,0,-1,1847,1373,18.8478,-2.75774
630,-349,15.4948,6.47644,0,0,0,0,0,0,0,-1,1854,1373,15.4947,-6.4765
637,-349,16.5161,6.92639,0,0,0,0,0,0,0,-1,1861,1373,16.5161,-6.92636
644,-349,27.8577,12.389,0,0,0,0,0,0,0,-1,1868,1373,27.8576,-12.389
651,-349,27.8883,11.9264,0.000135187,0.000742873,-0.00117579,0.00165344,-0.000775383,-0.91184,0.0014325,0.0333302,1875,1373,27.8883,-11.9264
658,-349,27.7972,11.4852,0.000332413,0.000371096,-0.000655879,0.00100792,-0.00030441,-0.800139,0.000793133,0.0244917,1882,1373,27.7973,-11.4852
665,-349,27.7662,11.0563,0.000627638,5.36377e-05,-0.000317367,0.000768529,-8.72537e-05,-0.417801,0.000543776,0.0192884,1889,1373,27.7662,-11.0563
672,-349,27.7366,10.6302,0.000966635,-0.000168743,-6.13072e-05,0.000969936,-0.000172043,-0.0537887,0.000710945,0.0148821,1896,1373,27.7366,-10.6303
679,-349,27.7216,10.208,0.00133502,-0.000370246,0.000151233,0.00134833,-0.000383555,0.087773,0.00105035,0.0152611,1903,1373,27.7216,-10.208
686,-349,27.7781,9.7688,0.00172426,-0.000555444,0.000341995,0.00177446,-0.000605644,0.145744,0.00142832,0.0159103,1910,1373,27.778,-9.76879
693,-349,27.7361,9.29626,0.00212743,-0.000710505,0.000514905,0.00221797,-0.000801039,0.174048,0.00180588,0.0181671,1917,1373,27.7361,-9.29631
700,-349,27.7129,8.84607,0.00252516,-0.000829328,0.000672256,0.00265487,-0.000959036,0.190602,0.00216171,0.0176224,1924,1373,27.7129,-8.84603
707,-349,27.7698,8.34546,0.00278699,-0.000842273,0.000825803,0.00296606,-0.00102134,0.213535,0.00239165,0.0344191,1931,1373,27.7697,-8.34544
714,-349,27.8773,7.74646,0,0,0,0,0,0,0,-1,1938,1373,27.8774,-7.74649
721,-349,19.6688,5.93604,0,0,0,0,0,0,0,-1,1945,1373,19.6688,-5.93606
728,-349,18.6333,3.73218,0,0,0,0,0,0,0,-1,1952,1373,18.6333,-3.73214
735,-349,18.1918,3.39954,0,0,0,0,0,0,0,-1,1959,1373,18.1918,-3.3995
742,-349,20.7345,2.07483,0,0,0,0,0,0,0,-1,1966,1373,20.7345,-2.07485
749,-349,21.9037,1.45789,0,0,0,0,0,0,0,-1,1973,1373,21.9037,-1.45788
756,-349,0,0,0,0,0,0,0,0,0,-1,1980,1373,0,0
763,-349,0,0,0,0,0,0,0,0,0,-1,1987,1373,0,0
770,-349,0,0,0,0,0,0,0,0,0,-1,1994,1373,0,0
777,-349,0,0,0,0,0,0,0,0,0,-1,2001,1373,0,0
784,-349,0,0,0,0,0,0,0,0,0,-1,2008,1373,0,0
791,-349,0,0,0,0,0,0,0,0,0,-1,2015,1373,0,0
798,-349,0,0,0,0,0,0,0,0,0,-1,2022,1373,0,0
805,-349,0,0,0,0,0,0,0,0,0,-1,2029,1373,0,0
812,-349,0,0,0,0,0,0,0,0,0,-1,2036,1373,0,0
-700,-356,0,0,0,0,0,0,0,0,0,-1,524,1380,0,0
-693,-356,0,0,0,0,0,0,0,0,0,-1,531,1380,0,0
-686,-356,0,0,0,0,0,0,0,0,0,-1,538,1380,0,0
-679,-356,0,0,0,0,0,0,0,0,0,-1,545,1380,0,0
-672,-356,0,0,0,0,0,0,0,0,0,-1,552,1380,0,0
-665,-356,0,0,0,0,0,0,0,0,0,-1,559,1380,0,0
-658,-356,0,0,0,0,0,0,0,0,0,-1,566,1380,0,0
-651,-356,0,0,0,0,0,0,0,0,0,-1,573,1380,0,0
-644,-356,0,0,0,0,0,0,0,0,0,-1,580,1380,0,0
-637,-356,0,0,0,0,0,0,0,0,0,-1,587,1380,0,0
-630,-356,-8.23126,-5.01917,0,0,0,0,0,0,0,-1,594,1380,-8.23124,5.0192
-623,-356,-0.263855,-0.675781,0,0,0,0,0,0,0,-1,601,1380,-0.263835,0.675841
-616,-356,-8.26532,-3.43945,0,0,0,0,0,0,0,-1,608,1380,-8.2653,3.43948
-609,-356,-4.88483,0.734497,0,0,0,0,0,0,0,-1,615,1380,-4.88485,-0.734532
-602,-356,-9.06635,2.4021,0,0,0,0,0,0,0,-1,622,1380,-9.06634,-2.40206
-595,-356,-8.45703,3.61853,0,0,0,0,0,0,0,-1,629,1380,-8.45706,-3.61848
-588,-356,-9.31738,4.14258,0,0,0,0,0,0,0,-1,636,1380,-9.31736,-4.14255
-581,-356,-13.5728,6.14539,0,0,0,0,0,0,0,-1,643,1380,-13.5728,-6.14538
-574,-356,-13.9927,6.06824,0,0,0,0,0,0,0,-1,650,1380,-13.9928,-6.06822
-567,-356,-13.965,6.58154,-0.00243026,0.00179935,-0.000959319,0.00200676,-0.00263768,-1.35787,0.0026897,0.0189295,657,1380,-13.965,-6.58154
-560,-356,-13.9052,7.10925,-0.00140551,0.00119446,-0.000636807,0.00134206,-0.0015531,-1.34305,0.001673,0.0180999,664,1380,-13.9051,-7.10928
-553,-356,-13.9163,7.6051,-0.000157177,0.000816386,-0.000152821,0.000839811,-0.000180602,-1.4187,0.000628781,0.0204364,671,1380,-13.9162,-7.60514
-546,-356,-13.9639,8.09875,0.00111141,0.000541817,0.00035537,0.00128203,0.000371206,0.447597,0.00076172,0.0233728,678,1380,-13.9639,-8.09872
-539,-356,-13.9793,8.60339,0.00240515,0.000358577,0.000889098,0.00273745,2.62785e-05,0.357672,0.00181627,0.0166469,685,1380,-13.9793,-8.60337
-532,-356,-13.9988,9.12366,0.00375413,0.000276312,0.00146991,0.00429216,-0.000261716,0.350881,0.00295255,0.0146058,692,1380,-13.9988,-9.12364
-525,-356,-13.9896,9.63,0.00519001,0.000291463,0.00211464,0.00597657,-0.000495104,0.356105,0.00415925,0.0130804,699,1380,-13.9896,-9.63001
-518,-356,-13.9804,10.1417,0.00673294,0.000442624,0.00283396,0.00782138,-0.000645814,0.366699,0.00544231,0.0129679,706,1380,-13.9804,-10.1417
-511,-356,-13.7437,10.7262,0.00778735,0.000916589,0.00336382,0.00915999,-0.000456057,0.387437,0.00626422,0.0476713,713,1380,-13.7437,-10.7262
-504,-356,-13.5015,11.4323,0,0,0,0,0,0,0,-1,720,1380,-13.5015,-11.4322
-497,-356,-5.68604,4.96387,0,0,0,0,0,0,0,-1,727,1380,-5.68605,-4.96385
-490,-356,-7.95288,5.5625,0,0,0,0,0,0,0,-1,734,1380,-7.95285,-5.56246
-483,-356,-7.2627,4.07446,0,0,0,0,0,0,0,-1,741,1380,-7.2627,-4.07441
-476,-356,-5.1936,4.16016,0,0,0,0,0,0,0,-1,748,1380,-5.1936,-4.16012
-469,-356,-10.0883,0.536011,0,0,0,0,0,0,0,-1,755,1380,-10.0883,-0.535989
-462,-356,-12.3481,-0.215698,0,0,0,0,0,0,0,-1,762,1380,-12.3481,0.215641
-455,-356,-13.1367,-0.264648,0,0,0,0,0,0,0,-1,769,1380,-13.1367,0.264647
-448,-356,-13.9116,-0.310181,0,0,0,0,0,0,0,-1,776,1380,-13.9115,0.310207
-441,-356,-13.1602,3.05603,0,0,0,0,0,0,0,-1,783,1380,-13.1602,-3.05609
-434,-356,0,0,0,0,0,0,0,0,0,-1,790,1380,0,0
-427,-356,0,0,0,0,0,0,0,0,0,-1,797,1380,0,0
-420,-356,0,0,0,0,0,0,0,0,0,-1,804,1380,0,0
-413,-356,0,0,0,0,0,0,0,0,0,-1,811,1380,0,0
-406,-356,0,0,0,0,0,0,0,0,0,-1,818,1380,0,0
-399,-356,0,0,0,0,0,0,0,0,0,-1,825,1380,0,0
-392,-356,0,0,0,0,0,0,0,0,0,-1,832,1380,0,0
-385,-356,0,0,0,0,0,0,0,0,0,-1,839,1380,0,0
-378,-356,0,0,0,0,0,0,0,0,0,-1,846,1380,0,0
-371,-356,0,0,0,0,0,0,0,0,0,-1,853,1380,0,0
-364,-356,0,0,0,0,0,0,0,0,0,-1,860,1380,0,0
-357,-356,0,0,0,0,0,0,0,0,0,-1,867,1380,0,0
-350,-356,0,0,0,0,0,0,0,0,0,-1,874,1380,0,0
-343,-356,0,0,0,0,0,0,0,0,0,-1,881,1380,0,0
-336,-356,0,0,0,0,0,0,0,0,0,-1,888,1380,0,0
-329,-356,0,0,0,0,0,0,0,0,0,-1,895,1380,0,0
-322,-356,0,0,0,0,0,0,0,0,0,-1,902,1380,0,0
-315,-356,0,0,0,0,0,0,0,0,0,-1,909,1380,0,0
-308,-356,0,0,0,0,0,0,0,0,0,-1,916,1380,0,0
-301,-356,0,0,0,0,0,0,0,0,0,-1,923,1380,0,0
-294,-356,0,0,0,0,0,0,0,0,0,-1,930,1380,0,0
-287,-356,0,0,0,0,0,0,0,0,0,-1,937,1380,0,0
-280,-356,0,0,0,0,0,0,0,0,0,-1,944,1380,0,0
-273,-356,0,0,0,0,0,0,0,0,0,-1,951,1380,0,0
-266,-356,0,0,0,0,0,0,0,0,0,-1,958,1380,0,0
-259,-356,0,0,0,0,0,0,0,0,0,-1,965,1380,0,0
-252,-356,0,0,0,0,0,0,0,0,0,-1,972,1380,0,0
-245,-356,0,0,0,0,0,0,0,0,0,-1,979,1380,0,0
-238,-356,0,0,0,0,0,0,0,0,0,-1,986,1380,0,0
-231,-356,0,0,0,0,0,0,0,0,0,-1,993,1380,0,0
-224,-356,0,0,0,0,0,0,0,0,0,-1,1000,1380,0,0
-217,-356,0,0,0,0,0,0,0,0,0,-1,1007,1380,0,0
-210,-356,0,0,0,0,0,0,0,0,0,-1,1014,1380,0,0
-203,-356,0,0,0,0,0,0,0,0,0,-1,1021,1380,0,0
-196,-356,0,0,0,0,0,0,0,0,0,-1,1028,1380,0,0
-189,-356,0,0,0,0,0,0,0,0,0,-1,1035,1380,0,0
-182,-356,0,0,0,0,0,0,0,0,0,-1,1042,1380,0,0
-175,-356,0,0,0,0,0,0,0,0,0,-1,1049,1380,0,0
-168,-356,0,0,0,0,0,0,0,0,0,-1,1056,1380,0,0
-161,-356,0,0,0,0,0,0,0,0,0,-1,1063,1380,0,0
-154,-356,0,0,0,0,0,0,0,0,0,-1,1070,1380,0,0
-147,-356,0,0,0,0,0,0,0,0,0,-1,1077,1380,0,0
-140,-356,0,0,0,0,0,0,0,0,0,-1,1084,1380,0,0
-133,-356,0,0,0,0,0,0,0,0,0,-1,1091,1380,0,0
-126,-356,0,0,0,0,0,0,0,0,0,-1,1098,1380,0,0
-119,-356,0,0,0,0,0,0,0,0,0,-1,1105,1380,0,0
-112,-356,0,0,0,0,0,0,0,0,0,-1,1112,1380,0,0
-105,-356,0,0,0,0,0,0,0,0,0,-1,1119,1380,0,0
-98,-356,0,0,0,0,0,0,0,0,0,-1,1126,1380,0,0
-91,-356,0,0,0,0,0,0,0,0,0,-1,1133,1380,0,0
-84,-356,0,0,0,0,0,0,0,0,0,-1,1140,1380,0,0
-77,-356,0,0,0,0,0,0,0,0,0,-1,1147,1380,0,0
-70,-356,0,0,0,0,0,0,0,0,0,-1,1154,1380,0,0
-63,-356,0,0,0,0,0,0,0,0,0,-1,1161,1380,0,0
-56,-356,0,0,0,0,0,0,0,0,0,-1,1168,1380,0,0
-49,-356,0,0,0,0,0,0,0,0,0,-1,1175,1380,0,0
-42,-356,0,0,0,0,0,0,0,0,0,-1,1182,1380,0,0
-35,-356,0,0,0,0,0,0,0,0,0,-1,1189,1380,0,0
-28,-356,0,0,0,0,0,0,0,0,0,-1,1196,1380,0,0
-21,-356,0,0,0,0,0,0,0,0,0,-1,1203,1380,0,0
-14,-356,0,0,0,0,0,0,0,0,0,-1,1210,1380,0,0
-7,-356,0,0,0,0,0,0,0,0,0,-1,1217,1380,0,0
0,-356,0,0,0,0,0,0,0,0,0,-1,1224,1380,0,0
7,-356,0,0,0,0,0,0,0,0,0,-1,1231,1380,0,0
14,-356,0,0,0,0,0,0,0,0,0,-1,1238,1380,0,0
21,-356,0,0,0,0,0,0,0,0,0,-1,1245,1380,0,0
28,-356,0,0,0,0,0,0,0,0,0,-1,1252,1380,0,0
35,-356,0,0,0,0,0,0,0,0,0,-1,1259,1380,0,0
42,-356,0,0,0,0,0,0,0,0,0,-1,1266,1380,0,0
49,-356,0,0,0,0,0,0,0,0,0,-1,1273,1380,0,0
56,-356,0,0,0,0,0,0,0,0,0,-1,1280,1380,0,0
63,-356,0,0,0,0,0,0,0,0,0,-1,1287,1380,0,0
70,-356,0,0,0,0,0,0,0,0,0,-1,1294,1380,0,0
77,-356,0,0,0,0,0,0,0,0,0,-1,1301,1380,0,0
84,-356,0,0,0,0,0,0,0,0,0,-1,1308,1380,0,0
91,-356,0,0,0,0,0,0,0,0,0,-1,1315,1380,0,0
98,-356,0,0,0,0,0,0,0,0,0,-1,1322,1380,0,0
105,-356,0,0,0,0,0,0,0,0,0,-1,1329,1380,0,0
112,-356,0,0,0,0,0,0,0,0,0,-1,1336,1380,0,0
119,-356,0,0,0,0,0,0,0,0,0,-1,1343,1380,0,0
126,-356,0,0,0,0,0,0,0,0,0,-1,1350,1380,0,0
133,-356,0,0,0,0,0,0,0,0,0,-1,1357,1380,0,0
140,-356,0,0,0,0,0,0,0,0,0,-1,1364,1380,0,0
147,-356,0,0,0,0,0,0,0,0,0,-1,1371,1380,0,0
154,-356,0,0,0,0,0,0,0,0,0,-1,1378,1380,0,0
161,-356,0,0,0,0,0,0,0,0,0,-1,1385,1380,0,0
168,-356,0,0,0,0,0,0,0,0,0,-1,1392,1380,0,0
175,-356,0,0,0,0,0,0,0,0,0,-1,1399,1380,0,0
182,-356,0,0,0,0,0,0,0,0,0,-1,1406,1380,0,0
189,-356,0,0,0,0,0,0,0,0,0,-1,1413,1380,0,0
196,-356,0,0,0,0,0,0,0,0,0,-1,1420,1380,0,0
203,-356,0,0,0,0,0,0,0,0,0,-1,1427,1380,0,0
210,-356,0,0,0,0,0,0,0,0,0,-1,1434,1380,0,0
217,-356,0,0,0,0,0,0,0,0,0,-1,1441,1380,0,0
224,-356,0,0,0,0,0,0,0,0,0,-1,1448,1380,0,0
231,-356,0,0,0,0,0,0,0,0,0,-1,1455,1380,0,0
238,-356,0,0,0,0,0,0,0,0,0,-1,1462,1380,0,0
245,-356,0,0,0,0,0,0,0,0,0,-1,1469,1380,0,0
252,-356,0,0,0,0,0,0,0,0,0,-1,1476,1380,0,0
259,-356,0,0,0,0,0,0,0,0,0,-1,1483,1380,0,0
266,-356,0,0,0,0,0,0,0,0,0,-1,1490,1380,0,0
273,-356,0,0,0,0,0,0,0,0,0,-1,1497,1380,0,0
280,-356,0,0,0,0,0,0,0,0,0,-1,1504,1380,0,0
287,-356,0,0,0,0,0,0,0,0,0,-1,1511,1380,0,0
294,-356,0,0,0,0,0,0,0,0,0,-1,1518,1380,0,0
301,-356,0,0,0,0,0,0,0,0,0,-1,1525,1380,0,0
308,-356,0,0,0,0,0,0,0,0,0,-1,1532,1380,0,0
315,-356,0,0,0,0,0,0,0,0,0,-1,1539,1380,0,0
322,-356,0,0,0,0,0,0,0,0,0,-1,1546,1380,0,0
329,-356,0,0,0,0,0,0,0,0,0,-1,1553,1380,0,0
336,-356,0,0,0,0,0,0,0,0,0,-1,1560,1380,0,0
343,-356,0,0,0,0,0,0,0,0,0,-1,1567,1380,0,0
350,-356,0,0,0,0,0,0,0,0,0,-1,1574,1380,0,0
357,-356,0,0,0,0,0,0,0,0,0,-1,1581,1380,0,0
364,-356,0,0,0,0,0,0,0,0,0,-1,1588,1380,0,0
371,-356,0,0,0,0,0,0,0,0,0,-1,1595,1380,0,0
378,-356,0,0,0,0,0,0,0,0,0,-1,1602,1380,0,0
385,-356,0,0,0,0,0,0,0,0,0,-1,1609,1380,0,0
392,-356,0,0,0,0,0,0,0,0,0,-1,1616,1380,0,0
399,-356,0,0,0,0,0,0,0,0,0,-1,1623,1380,0,0
406,-356,0,0,0,0,0,0,0,0,0,-1,1630,1380,0,0
413,-356,0,0,0,0,0,0,0,0,0,-1,1637,1380,0,0
420,-356,0,0,0,0,0,0,0,0,0,-1,1644,1380,0,0
427,-356,0,0,0,0,0,0,0,0,0,-1,1651,1380,0,0
434,-356,0,0,0,0,0,0,0,0,0,-1,1658,1380,0,0
441,-356,0,0,0,0,0,0,0,0,0,-1,1665,1380,0,0
448,-356,0,0,0,0,0,0,0,0,0,-1,1672,1380,0,0
455,-356,0,0,0,0,0,0,0,0,0,-1,1679,1380,0,0
462,-356,0,0,0,0,0,0,0,0,0,-1,1686,1380,0,0
469,-356,0,0,0,0,0,0,0,0,0,-1,1693,1380,0,0
476,-356,0,0,0,0,0,0,0,0,0,-1,1700,1380,0,0
483,-356,0,0,0,0,0,0,0,0,0,-1,1707,1380,0,0
490,-356,0,0,0,0,0,0,0,0,0,-1,1714,1380,0,0
497,-356,0,0,0,0,0,0,0,0,0,-1,1721,1380,0,0
504,-356,0,0,0,0,0,0,0,0,0,-1,1728,1380,0,0
511,-356,0,0,0,0,0,0,0,0,0,-1,1735,1380,0,0
518,-356,0,0,0,0,0,0,0,0,0,-1,1742,1380,0,0
525,-356,0,0,0,0,0,0,0,0,0,-1,1749,1380,0,0
532,-356,0,0,0,0,0,0,0,0,0,-1,1756,1380,0,0
539,-356,0,0,0,0,0,0,0,0,0,-1,1763,1380,0,0
546,-356,0,0,0,0,0,0,0,0,0,-1,1770,1380,0,0
553,-356,0,0,0,0,0,0,0,0,0,-1,1777,1380,0,0
560,-356,45.7938,3.65295,0,0,0,0,0,0,0,-1,1784,1380,45.7938,-3.65294
567,-356,45.6788,3.51428,0,0,0,0,0,0,0,-1,1791,1380,45.6788,-3.51422
574,-356,45.5742,3.39575,0,0,0,0,0,0,0,-1,1798,1380,45.5742,-3.39574
581,-356,45.6708,3.64172,0,0,0,0,0,0,0,-1,1805,1380,45.6707,-3.64175
588,-356,44.4739,4.87085,0,0,0,0,0,0,0,-1,1812,1380,44.4739,-4.87086
595,-356,32.0834,5.86084,0,0,0,0,0,0,0,-1,1819,1380,32.0834,-5.86079
602,-356,30.1604,6.07104,0,0,0,0,0,0,0,-1,1826,1380,30.1604,-6.07104
609,-356,28.3435,6.48901,0,0,0,0,0,0,0,-1,1833,1380,28.3435,-6.48899
616,-356,26.9358,6.80872,0,0,0,0,0,0,0,-1,1840,1380,26.9358,-6.80877
623,-356,16.1803,1.07532,0,0,0,0,0,0,0,-1,1847,1380,16.1803,-1.07529
630,-356,16.4138,6.91553,0,0,0,0,0,0,0,-1,1854,1380,16.4138,-6.9155
637,-356,24.8021,12.0151,0,0,0,0,0,0,0,-1,1861,1380,24.8022,-12.0151
644,-356,27.4016,12.4445,0,0,0,0,0,0,0,-1,1868,1380,27.4017,-12.4445
651,-356,27.3668,11.9359,0.000314033,0.00079434,-0.00115002,0.00172901,-0.000620639,-0.888332,0.00140598,0.0173606,1875,1380,27.3668,-11.9359
658,-356,27.317,11.4845,0.000458537,0.000412509,-0.000615818,0.00105177,-0.000180725,-0.766721,0.000768538,0.0137647,1882,1380,27.3171,-11.4845
665,-356,27.3048,11.0829,0.000714265,6.80213e-05,-0.000216975,0.000780355,1.93139e-06,-0.295669,0.000519594,0.0139794,1889,1380,27.3049,-11.0829
672,-356,27.2872,10.6764,0.00102825,-0.000239247,0.00013055,0.00104156,-0.000252553,0.101577,0.000792093,0.0154792,1896,1380,27.2873,-10.6765
679,-356,27.2871,10.2229,0.00142079,-0.000520946,0.0004187,0.00150723,-0.000607384,0.203582,0.00125718,0.0181444,1903,1380,27.2871,-10.223
686,-356,27.2899,9.73914,0.00189821,-0.000783097,0.000656059,0.00205013,-0.000935013,0.227549,0.0017631,0.0180867,1910,1380,27.2899,-9.7391
693,-356,27.2908,9.28528,0.0024255,-0.00102475,0.000862589,0.00262914,-0.00122838,0.23183,0.00227556,0.0151158,1917,1380,27.2908,-9.28522
700,-356,27.2976,8.83838,0.00302585,-0.00119799,0.00100795,0.00325405,-0.00142619,0.222649,0.00276998,0.0209584,1924,1380,27.2976,-8.83835
707,-356,27.423,8.2146,0,0,0,0,0,0,0,-1,1931,1380,27.4229,-8.21458
714,-356,19.6907,5.82129,0,0,0,0,0,0,0,-1,1938,1380,19.6907,-5.82132
721,-356,17.2948,4.1958,0,0,0,0,0,0,0,-1,1945,1380,17.2948,-4.19584
728,-356,19.1846,2.31519,0,0,0,0,0,0,0,-1,1952,1380,19.1846,-2.31514
735,-356,20.0731,2.50842,0,0,0,0,0,0,0,-1,1959,1380,20.0731,-2.50844
742,-356,21.0111,2.43762,0,0,0,0,0,0,0,-1,1966,1380,21.0112,-2.43762
749,-356,22.1411,1.83276,0,0,0,0,0,0,0,-1,1973,1380,22.1411,-1.83275
756,-356,0,0,0,0,0,0,0,0,0,-1,1980,1380,0,0
763,-356,0,0,0,0,0,0,0,0,0,-1,1987,1380,0,0
770,-356,0,0,0,0,0,0,0,0,0,-1,1994,1380,0,0
777,-356,0,0,0,0,0,0,0,0,0,-1,2001,1380,0,0
784,-356,0,0,0,0,0,0,0,0,0,-1,2008,1380,0,0
791,-356,0,0,0,0,0,0,0,0,0,-1,2015,1380,0,0
798,-356,0,0,0,0,0,0,0,0,0,-1,2022,1380,0,0
805,-356,0,0,0,0,0,0,0,0,0,-1,2029,1380,0,0
812,-356,0,0,0,0,0,0,0,0,0,-1,2036,1380,0,0
-700,-363,0,0,0,0,0,0,0,0,0,-1,524,1387,0,0
-693,-363,0,0,0,0,0,0,0,0,0,-1,531,1387,0,0
-686,-363,0,0,0,0,0,0,0,0,0,-1,538,1387,0,0
-679,-363,0,0,0,0,0,0,0,0,0,-1,545,1387,0,0
-672,-363,0,0,0,0,0,0,0,0,0,-1,552,1387,0,0
-665,-363,0,0,0,0,0,0,0,0,0,-1,559,1387,0,0
-658,-363,0,0,0,0,0,0,0,0,0,-1,566,1387,0,0
-651,-363,0,0,0,0,0,0,0,0,0,-1,573,1387,0,0
-644,-363,0,0,0,0,0,0,0,0,0,-1,580,1387,0,0
-637,-363,0,0,0,0,0,0,0,0,0,-1,587,1387,0,0
-630,-363,0,0,0,0,0,0,0,0,0,-1,594,1387,0,0
-623,-363,-9.67566,-5.91846,0,0,0,0,0,0,0,-1,601,1387,-9.67563,5.91847
-616,-363,-9.02985,-2.98083,0,0,0,0,0,0,0,-1,608,1387,-9.02987,2.98079
-609,-363,-4.90265,0.195679,0,0,0,0,0,0,0,-1,615,1387,-4.90263,-0.195721
-602,-363,-9.65009,3.5321,0,0,0,0,0,0,0,-1,622,1387,-9.65007,-3.53211
-595,-363,-8.00256,3.48853,0,0,0,0,0,0,0,-1,629,1387,-8.00256,-3.48855
-588,-363,-10.8846,4.49768,0,0,0,0,0,0,0,-1,636,1387,-10.8846,-4.49773
-581,-363,-11.7469,5.15161,0,0,0,0,0,0,0,-1,643,1387,-11.747,-5.15167
-574,-363,-13.3904,6.05457,0,0,0,0,0,0,0,-1,650,1387,-13.3904,-6.05458
-567,-363,-13.4602,6.65869,-0.00419347,0.00192315,-0.00154425,0.00229091,-0.00456123,-1.337,0.00402782,0.03794,657,1387,-13.4602,-6.65866
-560,-363,-13.4448,7.10425,-0.00273482,0.00123144,-0.00110661,0.0015193,-0.00302267,-1.31631,0.00266976,0.0130014,664,1387,-13.4448,-7.10431
-553,-363,-13.4479,7.64392,-0.00115838,0.000837973,-0.000522219,0.000966326,-0.00128674,-1.32979,0.00130518,0.0129355,671,1387,-13.448,-7.64395
-546,-363,-13.4564,8.12964,0.000294651,0.00056065,3.72945e-05,0.00056578,0.000289521,1.4341,0.000326683,0.0136141,678,1387,-13.4564,-8.12965
-539,-363,-13.4689,8.61401,0.00166817,0.0003849,0.000583265,0.00189365,0.000159417,0.368891,0.00121279,0.0160505,685,1387,-13.4689,-8.61405
-532,-363,-13.5068,9.14075,0.00300184,0.000324557,0.00114826,0.00342685,-0.000100452,0.354497,0.00231878,0.01318,692,1387,-13.5069,-9.1407
-525,-363,-13.4938,9.63428,0.00436622,0.000413732,0.00179207,0.00505775,-0.000277805,0.368281,0.00346815,0.0112191,699,1387,-13.4938,-9.63433
-518,-363,-13.4803,10.1252,0.00575816,0.000614795,0.00248714,0.0067641,-0.000391148,0.384344,0.00464527,0.00984325,706,1387,-13.4803,-10.1252
-511,-363,-13.4239,10.6688,0.00671841,0.00116217,0.00307267,0.00808266,-0.000202077,0.417849,0.00545705,0.0238684,713,1387,-13.4239,-10.6688
-504,-363,-13.3276,11.2635,0,0,0,0,0,0,0,-1,720,1387,-13.3277,-11.2636
-497,-363,-7.18842,7.29944,0,0,0,0,0,0,0,-1,727,1387,-7.18839,-7.29945
-490,-363,-5.42413,4.6958,0,0,0,0,0,0,0,-1,734,1387,-5.42412,-4.69583
-483,-363,-6.28375,4.1394,0,0,0,0,0,0,0,-1,741,1387,-6.28374,-4.13944
-476,-363,-5.83807,4.31018,0,0,0,0,0,0,0,-1,748,1387,-5.8381,-4.31013
-469,-363,-10.7125,0.697754,0,0,0,0,0,0,0,-1,755,1387,-10.7125,-0.697811
-462,-363,-9.55951,-0.0830078,0,0,0,0,0,0,0,-1,762,1387,-9.55949,0.0830163
-455,-363,-13.1008,-0.290894,0,0,0,0,0,0,0,-1,769,1387,-13.1008,0.290921
-448,-363,-11.7324,2.46606,0,0,0,0,0,0,0,-1,776,1387,-11.7324,-2.46605
-441,-363,-12.4464,2.5354,0,0,0,0,0,0,0,-1,783,1387,-12.4463,-2.53537
-434,-363,-13.6918,2.14661,0,0,0,0,0,0,0,-1,790,1387,-13.6918,-2.14662
-427,-363,0,0,0,0,0,0,0,0,0,-1,797,1387,0,0
-420,-363,0,0,0,0,0,0,0,0,0,-1,804,1387,0,0
-413,-363,0,0,0,0,0,0,0,0,0,-1,811,1387,0,0
-406,-363,0,0,0,0,0,0,0,0,0,-1,818,1387,0,0
-399,-363,0,0,0,0,0,0,0,0,0,-1,825,1387,0,0
-392,-363,0,0,0,0,0,0,0,0,0,-1,832,1387,0,0
-385,-363,0,0,0,0,0,0,0,0,0,-1,839,1387,0,0
-378,-363,0,0,0,0,0,0,0,0,0,-1,846,1387,0,0
-371,-363,0,0,0,0,0,0,0,0,0,-1,853,1387,0,0
-364,-363,0,0,0,0,0,0,0,0,0,-1,860,1387,0,0
-357,-363,0,0,0,0,0,0,0,0,0,-1,867,1387,0,0
-350,-363,0,0,0,0,0,0,0,0,0,-1,874,1387,0,0
-343,-363,0,0,0,0,0,0,0,0,0,-1,881,1387,0,0
-336,-363,0,0,0,0,0,0,0,0,0,-1,888,1387,0,0
-329,-363,0,0,0,0,0,0,0,0,0,-1,895,1387,0,0
-322,-363,0,0,0,0,0,0,0,0,0,-1,902,1387,0,0
-315,-363,0,0,0,0,0,0,0,0,0,-1,909,1387,0,0
-308,-363,0,0,0,0,0,0,0,0,0,-1,916,1387,0,0
-301,-363,0,0,0,0,0,0,0,0,0,-1,923,1387,0,0
-294,-363,0,0,0,0,0,0,0,0,0,-1,930,1387,0,0
-287,-363,0,0,0,0,0,0,0,0,0,-1,937,1387,0,0
-280,-363,0,0,0,0,0,0,0,0,0,-1,944,1387,0,0
-273,-363,0,0,0,0,0,0,0,0,0,-1,951,1387,0,0
-266,-363,0,0,0,0,0,0,0,0,0,-1,958,1387,0,0
-259,-363,0,0,0,0,0,0,0,0,0,-1,965,1387,0,0
-252,-363,0,0,0,0,0,0,0,0,0,-1,972,1387,0,0
-245,-363,0,0,0,0,0,0,0,0,0,-1,979,1387,0,0
-238,-363,0,0,0,0,0,0,0,0,0,-1,986,1387,0,0
-231,-363,0,0,0,0,0,0,0,0,0,-1,993,1387,0,0
-224,-363,0,0,0,0,0,0,0,0,0,-1,1000,1387,0,0
-217,-363,0,0,0,0,0,0,0,0,0,-1,1007,1387,0,0
-210,-363,0,0,0,0,0,0,0,0,0,-1,1014,1387,0,0
-203,-363,0,0,0,0,0,0,0,0,0,-1,1021,1387,0,0
-196,-363,0,0,0,0,0,0,0,0,0,-1,1028,1387,0,0
-189,-363,0,0,0,0,0,0,0,0,0,-1,1035,1387,0,0
-182,-363,0,0,0,0,0,0,0,0,0,-1,1042,1387,0,0
-175,-363,0,0,0,0,0,0,0,0,0,-1,1049,1387,0,0
-168,-363,0,0,0,0,0,0,0,0,0,-1,1056,1387,0,0
-161,-363,0,0,0,0,0,0,0,0,0,-1,1063,1387,0,0
-154,-363,0,0,0,0,0,0,0,0,0,-1,1070,1387,0,0
-147,-363,0,0,0,0,0,0,0,0,0,-1,1077,1387,0,0
-140,-363,0,0,0,0,0,0,0,0,0,-1,1084,1387,0,0
-133,-363,0,0,0,0,0,0,0,0,0,-1,1091,1387,0,0
-126,-363,0,0,0,0,0,0,0,0,0,-1,1098,1387,0,0
-119,-363,0,0,0,0,0,0,0,0,0,-1,1105,1387,0,0
-112,-363,0,0,0,0,0,0,0,0,0,-1,1112,1387,0,0
-105,-363,0,0,0,0,0,0,0,0,0,-1,1119,1387,0,0
-98,-363,0,0,0,0,0,0,0,0,0,-1,1126,1387,0,0
-91,-363,0,0,0,0,0,0,0,0,0,-1,1133,1387,0,0
-84,-363,0,0,0,0,0,0,0,0,0,-1,1140,1387,0,0
-77,-363,0,0,0,0,0,0,0,0,0,-1,1147,1387,0,0
-70,-363,0,0,0,0,0,0,0,0,0,-1,1154,1387,0,0
-63,-363,0,0,0,0,0,0,0,0,0,-1,1161,1387,0,0
-56,-363,0,0,0,0,0,0,0,0,0,-1,1168,1387,0,0
-49,-363,0,0,0,0,0,0,0,0,0,-1,1175,1387,0,0
-42,-363,0,0,0,0,0,0,0,0,0,-1,1182,1387,0,0
-35,-363,0,0,0,0,0,0,0,0,0,-1,1189,1387,0,0
-28,-363,0,0,0,0,0,0,0,0,0,-1,1196,1387,0,0
-21,-363,0,0,0,0,0,0,0,0,0,-1,1203,1387,0,0
-14,-363,0,0,0,0,0,0,0,0,0,-1,1210,1387,0,0
-7,-363,0,0,0,0,0,0,0,0,0,-1,1217,1387,0,0
0,-363,0,0,0,0,0,0,0,0,0,-1,1224,1387,0,0
7,-363,0,0,0,0,0,0,0,0,0,-1,1231,1387,0,0
14,-363,0,0,0,0,0,0,0,0,0,-1,1238,1387,0,0
21,-363,0,0,0,0,0,0,0,0,0,-1,1245,1387,0,0
28,-363,0,0,0,0,0,0,0,0,0,-1,1252,1387,0,0
35,-363,0,0,0,0,0,0,0,0,0,-1,1259,1387,0,0
42,-363,0,0,0,0,0,0,0,0,0,-1,1266,1387,0,0
49,-363,0,0,0,0,0,0,0,0,0,-1,1273,1387,0,0
56,-363,0,0,0,0,0,0,0,0,0,-1,1280,1387,0,0
63,-363,0,0,0,0,0,0,0,0,0,-1,1287,1387,0,0
70,-363,0,0,0,0,0,0,0,0,0,-1,1294,1387,0,0
77,-363,0,0,0,0,0,0,0,0,0,-1,1301,1387,0,0
84,-363,0,0,0,0,0,0,0,0,0,-1,1308,1387,0,0
91,-363,0,0,0,0,0,0,0,0,0,-1,1315,1387,0,0
98,-363,0,0,0,0,0,0,0,0,0,-1,1322,1387,0,0
105,-363,0,0,0,0,0,0,0,0,0,-1,1329,1387,0,0
112,-363,0,0,0,0,0,0,0,0,0,-1,1336,1387,0,0
119,-363,0,0,0,0,0,0,0,0,0,-1,1343,1387,0,0
126,-363,0,0,0,0,0,0,0,0,0,-1,1350,1387,0,0
133,-363,0,0,0,0,0,0,0,0,0,-1,1357,1387,0,0
140,-363,0,0,0,0,0,0,0,0,0,-1,1364,1387,0,0
147,-363,0,0,0,0,0,0,0,0,0,-1,1371,1387,0,0
154,-363,0,0,0,0,0,0,0,0,0,-1,1378,1387,0,0
161,-363,0,0,0,0,0,0,0,0,0,-1,1385,1387,0,0
168,-363,0,0,0,0,0,0,0,0,0,-1,1392,1387,0,0
175,-363,0,0,0,0,0,0,0,0,0,-1,1399,1387,0,0
182,-363,0,0,0,0,0,0,0,0,0,-1,1406,1387,0,0
189,-363,0,0,0,0,0,0,0,0,0,-1,1413,1387,0,0
196,-363,0,0,0,0,0,0,0,0,0,-1,1420,1387,0,0
203,-363,0,0,0,0,0,0,0,0,0,-1,1427,1387,0,0
210,-363,0,0,0,0,0,0,0,0,0,-1,1434,1387,0,0
217,-363,0,0,0,0,0,0,0,0,0,-1,1441,1387,0,0
224,-363,0,0,0,0,0,0,0,0,0,-1,1448,1387,0,0
231,-363,0,0,0,0,0,0,0,0,0,-1,1455,1387,0,0
238,-363,0,0,0,0,0,0,0,0,0,-1,1462,1387,0,0
245,-363,0,0,0,0,0,0,0,0,0,-1,1469,1387,0,0
252,-363,0,0,0,0,0,0,0,0,0,-1,1476,1387,0,0
259,-363,0,0,0,0,0,0,0,0,0,-1,1483,1387,0,0
266,-363,0,0,0,0,0,0,0,0,0,-1,1490,1387,0,0
273,-363,0,0,0,0,0,0,0,0,0,-1,1497,1387,0,0
280,-363,0,0,0,0,0,0,0,0,0,-1,1504,1387,0,0
287,-363,0,0,0,0,0,0,0,0,0,-1,1511,1387,0,0
294,-363,0,0,0,0,0,0,0,0,0,-1,1518,1387,0,0
301,-363,0,0,0,0,0,0,0,0,0,-1,1525,1387,0,0
308,-363,0,0,0,0,0,0,0,0,0,-1,1532,1387,0,0
315,-363,0,0,0,0,0,0,0,0,0,-1,1539,1387,0,0
322,-363,0,0,0,0,0,0,0,0,0,-1,1546,1387,0,0
329,-363,0,0,0,0,0,0,0,0,0,-1,1553,1387,0,0
336,-363,0,0,0,0,0,0,0,0,0,-1,1560,1387,0,0
343,-363,0,0,0,0,0,0,0,0,0,-1,1567,1387,0,0
350,-363,0,0,0,0,0,0,0,0,0,-1,1574,1387,0,0
357,-363,0,0,0,0,0,0,0,0,0,-1,1581,1387,0,0
364,-363,0,0,0,0,0,0,0,0,0,-1,1588,1387,0,0
371,-363,0,0,0,0,0,0,0,0,0,-1,1595,1387,0,0
378,-363,0,0,0,0,0,0,0,0,0,-1,1602,1387,0,0
385,-363,0,0,0,0,0,0,0,0,0,-1,1609,1387,0,0
392,-363,0,0,0,0,0,0,0,0,0,-1,1616,1387,0,0
399,-363,0,0,0,0,0,0,0,0,0,-1,1623,1387,0,0
406,-363,0,0,0,0,0,0,0,0,0,-1,1630,1387,0,0
413,-363,0,0,0,0,0,0,0,0,0,-1,1637,1387,0,0
420,-363,0,0,0,0,0,0,0,0,0,-1,1644,1387,0,0
427,-363,0,0,0,0,0,0,0,0,0,-1,1651,1387,0,0
434,-363,0,0,0,0,0,0,0,0,0,-1,1658,1387,0,0
441,-363,0,0,0,0,0,0,0,0,0,-1,1665,1387,0,0
448,-363,0,0,0,0,0,0,0,0,0,-1,1672,1387,0,0
455,-363,0,0,0,0,0,0,0,0,0,-1,1679,1387,0,0
462,-363,0,0,0,0,0,0,0,0,0,-1,1686,1387,0,0
469,-363,0,0,0,0,0,0,0,0,0,-1,1693,1387,0,0
476,-363,0,0,0,0,0,0,0,0,0,-1,1700,1387,0,0
483,-363,0,0,0,0,0,0,0,0,0,-1,1707,1387,0,0
490,-363,0,0,0,0,0,0,0,0,0,-1,1714,1387,0,0
497,-363,0,0,0,0,0,0,0,0,0,-1,1721,1387,0,0
504,-363,0,0,0,0,0,0,0,0,0,-1,1728,1387,0,0
511,-363,0,0,0,0,0,0,0,0,0,-1,1735,1387,0,0
518,-363,0,0,0,0,0,0,0,0,0,-1,1742,1387,0,0
525,-363,0,0,0,0,0,0,0,0,0,-1,1749,1387,0,0
532,-363,0,0,0,0,0,0,0,0,0,-1,1756,1387,0,0
539,-363,0,0,0,0,0,0,0,0,0,-1,1763,1387,0,0
546,-363,0,0,0,0,0,0,0,0,0,-1,1770,1387,0,0
553,-363,45.9076,3.64331,0,0,0,0,0,0,0,-1,1777,1387,45.9076,-3.64336
560,-363,45.9459,3.6875,0,0,0,0,0,0,0,-1,1784,1387,45.9459,-3.68756
567,-363,45.9266,3.32825,0,0,0,0,0,0,0,-1,1791,1387,45.9266,-3.32824
574,-363,45.7261,2.8075,0,0,0,0,0,0,0,-1,1798,1387,45.7261,-2.80754
581,-363,39.2413,1.97632,0,0,0,0,0,0,0,-1,1805,1387,39.2413,-1.97636
588,-363,32.5608,6.72131,0,0,0,0,0,0,0,-1,1812,1387,32.5608,-6.72131
595,-363,31.4688,6.95435,0,0,0,0,0,0,0,-1,1819,1387,31.4688,-6.95431
602,-363,25.7437,5.33667,0,0,0,0,0,0,0,-1,1826,1387,25.7437,-5.33667
609,-363,27.7048,7.06885,0,0,0,0,0,0,0,-1,1833,1387,27.7048,-7.06882
616,-363,16.229,1.08704,0,0,0,0,0,0,0,-1,1840,1387,16.229,-1.08706
623,-363,15.7283,7.16663,0,0,0,0,0,0,0,-1,1847,1387,15.7282,-7.16665
630,-363,18.3192,9.27844,0,0,0,0,0,0,0,-1,1854,1387,18.3192,-9.27843
637,-363,26.8365,13.0747,0,0,0,0,0,0,0,-1,1861,1387,26.8366,-13.0747
644,-363,26.8734,12.5007,0.000778995,0.00111643,-0.00163515,0.00259154,-0.000696115,-0.836808,0.00200052,0.0151266,1868,1387,26.8734,-12.5008
651,-363,26.879,11.9813,0.000517958,0.000761061,-0.00106865,0.00171505,-0.000436032,-0.842026,0.00131307,0.0106236,1875,1387,26.879,-11.9814
658,-363,26.8513,11.5222,0.000643921,0.0003673,-0.000538242,0.00106134,-5.01183e-05,-0.659636,0.000724843,0.0114468,1882,1387,26.8513,-11.5222
665,-363,26.8301,11.1156,0.000868854,-1.55348e-05,-8.23901e-05,0.000876464,-2.31449e-05,-0.0921044,0.000592175,0.0116302,1889,1387,26.83,-11.1156
672,-363,26.8447,10.6879,0.00117742,-0.000403458,0.000344224,0.00124912,-0.000475158,0.205359,0.0010284,0.0132069,1896,1387,26.8448,-10.6878
679,-363,26.8285,10.2343,0.00159038,-0.000765253,0.000716087,0.00179098,-0.000965853,0.273133,0.00161525,0.0152719,1903,1387,26.8285,-10.2342
686,-363,26.8165,9.75793,0.00209818,-0.00115146,0.00106042,0.0024136,-0.00146688,0.289112,0.00226251,0.0150839,1910,1387,26.8165,-9.75793
693,-363,26.8079,9.27588,0.00268863,-0.00153098,0.00136063,0.00308932,-0.00193167,0.286394,0.00292444,0.0130025,1917,1387,26.8078,-9.27582
700,-363,26.9453,8.79553,0.00340888,-0.00184531,0.00158341,0.00384916,-0.00228559,0.271209,0.00358005,0.0248764,1924,1387,26.9453,-8.79554
707,-363,27.1954,8.36487,0,0,0,0,0,0,0,-1,1931,1387,27.1954,-8.36482
714,-363,16.5782,5.3147,0,0,0,0,0,0,0,-1,1938,1387,16.5783,-5.31472
721,-363,14.4045,4.51685,0,0,0,0,0,0,0,-1,1945,1387,14.4045,-4.51685
728,-363,19.9756,0.853027,0,0,0,0,0,0,0,-1,1952,1387,19.9756,-0.853059
735,-363,21.4297,1.2981,0,0,0,0,0,0,0,-1,1959,1387,21.4297,-1.29811
742,-363,21.3621,2.79663,0,0,0,0,0,0,0,-1,1966,1387,21.362,-2.7966
749,-363,0,0,0,0,0,0,0,0,0,-1,1973,1387,0,0
756,-363,0,0,0,0,0,0,0,0,0,-1,1980,1387,0,0
763,-363,0,0,0,0,0,0,0,0,0,-1,1987,1387,0,0
770,-363,0,0,0,0,0,0,0,0,0,-1,1994,1387,0,0
777,-363,0,0,0,0,0,0,0,0,0,-1,2001,1387,0,0
784,-363,0,0,0,0,0,0,0,0,0,-1,2008,1387,0,0
791,-363,0,0,0,0,0,0,0,0,0,-1,2015,1387,0,0
798,-363,0,0,0,0,0,0,0,0,0,-1,2022,1387,0,0
805,-363,0,0,0,0,0,0,0,0,0,-1,2029,1387,0,0
812,-363,0,0,0,0,0,0,0,0,0,-1,2036,1387,0,0
-700,-370,0,0,0,0,0,0,0,0,0,-1,524,1394,0,0
-693,-370,0,0,0,0,0,0,0,0,0,-1,531,1394,0,0
-686,-370,0,0,0,0,0,0,0,0,0,-1,538,1394,0,0
-679,-370,0,0,0,0,0,0,0,0,0,-1,545,1394,0,0
-672,-370,0,0,0,0,0,0,0,0,0,-1,552,1394,0,0
-665,-370,0,0,0,0,0,0,0,0,0,-1,559,1394,0,0
-658,-370,0,0,0,0,0,0,0,0,0,-1,566,1394,0,0
-651,-370,0,0,0,0,0,0,0,0,0,-1,573,1394,0,0
-644,-370,0,0,0,0,0,0,0,0,0,-1,580,1394,0,0
-637,-370,0,0,0,0,0,0,0,0,0,-1,587,1394,0,0
-630,-370,0,0,0,0,0,0,0,0,0,-1,594,1394,0,0
-623,-370,-10.1758,-7.10486,0,0,0,0,0,0,0,-1,601,1394,-10.1758,7.10483
-616,-370,-8.85925,-1.61475,0,0,0,0,0,0,0,-1,608,1394,-8.85925,1.61476
-609,-370,-5.39325,0.0421143,0,0,0,0,0,0,0,-1,615,1394,-5.39328,-0.0421372
-602,-370,-12.3151,3.44592,0,0,0,0,0,0,0,-1,622,1394,-12.3151,-3.44595
-595,-370,-7.53284,5.44214,0,0,0,0,0,0,0,-1,629,1394,-7.53284,-5.44216
-588,-370,-11.2422,4.50598,0,0,0,0,0,0,0,-1,636,1394,-11.2422,-4.50596
-581,-370,-13.1575,5.84888,0,0,0,0,0,0,0,-1,643,1394,-13.1575,-5.84887
-574,-370,-12.4884,6.22375,0,0,0,0,0,0,0,-1,650,1394,-12.4884,-6.22381
-567,-370,-12.7429,6.74963,-0.00626075,0.00195373,-0.00222875,0.00251947,-0.00682649,-1.32221,0.00558362,0.0483686,657,1394,-12.7429,-6.74962
-560,-370,-12.9976,7.10205,-0.00431617,0.00118566,-0.00167692,0.00165648,-0.004787,-1.29708,0.00386372,0.0232016,664,1394,-12.9976,-7.102
-553,-370,-12.9469,7.64917,-0.00238512,0.000783876,-0.000992514,0.00106906,-0.00267031,-1.291,0.00222393,0.0105961,671,1394,-12.9469,-7.64917
-546,-370,-12.9295,8.13562,-0.000724514,0.000508248,-0.000376281,0.000614026,-0.000830291,-1.29676,0.000836987,0.0136231,678,1394,-12.9295,-8.13558
-539,-370,-12.938,8.65967,0.000750969,0.000344712,0.000190388,0.000826245,0.000269436,0.376516,0.000486555,0.018139,685,1394,-12.938,-8.65968
-532,-370,-12.9909,9.17725,0.00211356,0.000305509,0.000757482,0.00238896,3.01102e-05,0.348713,0.0015827,0.0203927,692,1394,-12.9909,-9.17729
-525,-370,-12.9998,9.65308,0.00344784,0.000443692,0.00140825,0.00400475,-0.000113211,0.376585,0.00270836,0.0154009,699,1394,-12.9998,-9.65304
-518,-370,-12.9907,10.1136,0.00476983,0.000745869,0.0021372,0.0056931,-0.000177403,0.407785,0.0038559,0.0111374,706,1394,-12.9907,-10.1136
-511,-370,-12.9669,10.6254,0.00576311,0.00136511,0.00282901,0.00714725,-1.90327e-05,0.455024,0.00477119,0.0138845,713,1394,-12.9669,-10.6253
-504,-370,-12.9362,11.1699,0,0,0,0,0,0,0,-1,720,1394,-12.9362,-11.1699
-497,-370,-12.3546,11.7982,0,0,0,0,0,0,0,-1,727,1394,-12.3546,-11.7983
-490,-370,-5.30695,4.5271,0,0,0,0,0,0,0,-1,734,1394,-5.30698,-4.52704
-483,-370,-6.02997,4.59253,0,0,0,0,0,0,0,-1,741,1394,-6.02994,-4.5925
-476,-370,-6.75293,4.65796,0,0,0,0,0,0,0,-1,748,1394,-6.7529,-4.65795
-469,-370,-10.584,1.14294,0,0,0,0,0,0,0,-1,755,1394,-10.584,-1.14293
-462,-370,-9.54462,0.387207,0,0,0,0,0,0,0,-1,762,1394,-9.5446,-0.387176
-455,-370,-8.50525,-0.36853,0,0,0,0,0,0,0,-1,769,1394,-8.50523,0.368582
-448,-370,-10.9543,2.28833,0,0,0,0,0,0,0,-1,776,1394,-10.9543,-2.28835
-441,-370,-11.8699,1.8313,0,0,0,0,0,0,0,-1,783,1394,-11.8699,-1.83127
-434,-370,-12.7855,1.37415,0,0,0,0,0,0,0,-1,790,1394,-12.7855,-1.37419
-427,-370,0,0,0,0,0,0,0,0,0,-1,797,1394,0,0
-420,-370,0,0,0,0,0,0,0,0,0,-1,804,1394,0,0
-413,-370,0,0,0,0,0,0,0,0,0,-1,811,1394,0,0
-406,-370,0,0,0,0,0,0,0,0,0,-1,818,1394,0,0
-399,-370,0,0,0,0,0,0,0,0,0,-1,825,1394,0,0
-392,-370,0,0,0,0,0,0,0,0,0,-1,832,1394,0,0
-385,-370,0,0,0,0,0,0,0,0,0,-1,839,1394,0,0
-378,-370,0,0,0,0,0,0,0,0,0,-1,846,1394,0,0
-371,-370,0,0,0,0,0,0,0,0,0,-1,853,1394,0,0
-364,-370,0,0,0,0,0,0,0,0,0,-1,860,1394,0,0
-357,-370,0,0,0,0,0,0,0,0,0,-1,867,1394,0,0
-350,-370,0,0,0,0,0,0,0,0,0,-1,874,1394,0,0
-343,-370,0,0,0,0,0,0,0,0,0,-1,881,1394,0,0
-336,-370,0,0,0,0,0,0,0,0,0,-1,888,1394,0,0
-329,-370,0,0,0,0,0,0,0,0,0,-1,895,1394,0,0
-322,-370,0,0,0,0,0,0,0,0,0,-1,902,1394,0,0
-315,-370,0,0,0,0,0,0,0,0,0,-1,909,1394,0,0
-308,-370,0,0,0,0,0,0,0,0,0,-1,916,1394,0,0
-301,-370,0,0,0,0,0,0,0,0,0,-1,923,1394,0,0
-294,-370,0,0,0,0,0,0,0,0,0,-1,930,1394,0,0
-287,-370,0,0,0,0,0,0,0,0,0,-1,937,1394,0,0
-280,-370,0,0,0,0,0,0,0,0,0,-1,944,1394,0,0
-273,-370,0,0,0,0,0,0,0,0,0,-1,951,1394,0,0
-266,-370,0,0,0,0,0,0,0,0,0,-1,958,1394,0,0
-259,-370,0,0,0,0,0,0,0,0,0,-1,965,1394,0,0
-252,-370,0,0,0,0,0,0,0,0,0,-1,972,1394,0,0
-245,-370,0,0,0,0,0,0,0,0,0,-1,979,1394,0,0
-238,-370,0,0,0,0,0,0,0,0,0,-1,986,1394,0,0
-231,-370,0,0,0,0,0,0,0,0,0,-1,993,1394,0,0
-224,-370,0,0,0,0,0,0,0,0,0,-1,1000,1394,0,0
-217,-370,0,0,0,0,0,0,0,0,0,-1,1007,1394,0,0
-210,-370,0,0,0,0,0,0,0,0,0,-1,1014,1394,0,0
-203,-370,0,0,0,0,0,0,0,0,0,-1,1021,1394,0,0
-196,-370,0,0,0,0,0,0,0,0,0,-1,1028,1394,0,0
-189,-370,0,0,0,0,0,0,0,0,0,-1,1035,1394,0,0
-182,-370,0,0,0,0,0,0,0,0,0,-1,1042,1394,0,0
-175,-370,0,0,0,0,0,0,0,0,0,-1,1049,1394,0,0
-168,-370,0,0,0,0,0,0,0,0,0,-1,1056,1394,0,0
-161,-370,0,0,0,0,0,0,0,0,0,-1,1063,1394,0,0
-154,-370,0,0,0,0,0,0,0,0,0,-1,1070,1394,0,0
-147,-370,0,0,0,0,0,0,0,0,0,-1,1077,1394,0,0
-140,-370,0,0,0,0,0,0,0,0,0,-1,1084,1394,0,0
-133,-370,0,0,0,0,0,0,0,0,0,-1,1091,1394,0,0
-126,-370,0,0,0,0,0,0,0,0,0,-1,1098,1394,0,0
-119,-370,0,0,0,0,0,0,0,0,0,-1,1105,1394,0,0
-112,-370,0,0,0,0,0,0,0,0,0,-1,1112,1394,0,0
-105,-370,0,0,0,0,0,0,0,0,0,-1,1119,1394,0,0
-98,-370,0,0,0,0,0,0,0,0,0,-1,1126,1394,0,0
-91,-370,0,0,0,0,0,0,0,0,0,-1,1133,1394,0,0
-84,-370,0,0,0,0,0,0,0,0,0,-1,1140,1394,0,0
-77,-370,0,0,0,0,0,0,0,0,0,-1,1147,1394,0,0
-70,-370,0,0,0,0,0,0,0,0,0,-1,1154,1394,0,0
-63,-370,0,0,0,0,0,0,0,0,0,-1,1161,1394,0,0
-56,-370,0,0,0,0,0,0,0,0,0,-1,1168,1394,0,0
-49,-370,0,0,0,0,0,0,0,0,0,-1,1175,1394,0,0
-42,-370,0,0,0,0,0,0,0,0,0,-1,1182,1394,0,0
-35,-370,0,0,0,0,0,0,0,0,0,-1,1189,1394,0,0
-28,-370,0,0,0,0,0,0,0,0,0,-1,1196,1394,0,0
-21,-370,0,0,0,0,0,0,0,0,0,-1,1203,1394,0,0
-14,-370,0,0,0,0,0,0,0,0,0,-1,1210,1394,0,0
-7,-370,0,0,0,0,0,0,0,0,0,-1,1217,1394,0,0
0,-370,0,0,0,0,0,0,0,0,0,-1,1224,1394,0,0
7,-370,0,0,0,0,0,0,0,0,0,-1,1231,1394,0,0
14,-370,0,0,0,0,0,0,0,0,0,-1,1238,1394,0,0
21,-370,0,0,0,0,0,0,0,0,0,-1,1245,1394,0,0
28,-370,0,0,0,0,0,0,0,0,0,-1,1252,1394,0,0
35,-370,0,0,0,0,0,0,0,0,0,-1,1259,1394,0,0
42,-370,0,0,0,0,0,0,0,0,0,-1,1266,1394,0,0
49,-370,0,0,0,0,0,0,0,0,0,-1,1273,1394,0,0
56,-370,0,0,0,0,0,0,0,0,0,-1,1280,1394,0,0
63,-370,0,0,0,0,0,0,0,0,0,-1,1287,1394,0,0
70,-370,0,0,0,0,0,0,0,0,0,-1,1294,1394,0,0
77,-370,0,0,0,0,0,0,0,0,0,-1,1301,1394,0,0
84,-370,0,0,0,0,0,0,0,0,0,-1,1308,1394,0,0
91,-370,0,0,0,0,0,0,0,0,0,-1,1315,1394,0,0
98,-370,0,0,0,0,0,0,0,0,0,-1,1322,1394,0,0
105,-370,0,0,0,0,0,0,0,0,0,-1,1329,1394,0,0
112,-370,0,0,0,0,0,0,0,0,0,-1,1336,1394,0,0
119,-370,0,0,0,0,0,0,0,0,0,-1,1343,1394,0,0
126,-370,0,0,0,0,0,0,0,0,0,-1,1350,1394,0,0
133,-370,0,0,0,0,0,0,0,0,0,-1,1357,1394,0,0
140,-370,0,0,0,0,0,0,0,0,0,-1,1364,1394,0,0
147,-370,0,0,0,0,0,0,0,0,0,-1,1371,1394,0,0
154,-370,0,0,0,0,0,0,0,0,0,-1,1378,1394,0,0
161,-370,0,0,0,0,0,0,0,0,0,-1,1385,1394,0,0
168,-370,0,0,0,0,0,0,0,0,0,-1,1392,1394,0,0
175,-370,0,0,0,0,0,0,0,0,0,-1,1399,1394,0,0
182,-370,0,0,0,0,0,0,0,0,0,-1,1406,1394,0,0
189,-370,0,0,0,0,0,0,0,0,0,-1,1413,1394,0,0
196,-370,0,0,0,0,0,0,0,0,0,-1,1420,1394,0,0
203,-370,0,0,0,0,0,0,0,0,0,-1,1427,1394,0,0
210,-370,0,0,0,0,0,0,0,0,0,-1,1434,1394,0,0
217,-370,0,0,0,0,0,0,0,0,0,-1,1441,1394,0,0
224,-370,0,0,0,0,0,0,0,0,0,-1,1448,1394,0,0
231,-370,0,0,0,0,0,0,0,0,0,-1,1455,1394,0,0
238,-370,0,0,0,0,0,0,0,0,0,-1,1462,1394,0,0
245,-370,0,0,0,0,0,0,0,0,0,-1,1469,1394,0,0
252,-370,0,0,0,0,0,0,0,0,0,-1,1476,1394,0,0
259,-370,0,0,0,0,0,0,0,0,0,-1,1483,1394,0,0
266,-370,0,0,0,0,0,0,0,0,0,-1,1490,1394,0,0
273,-370,0,0,0,0,0,0,0,0,0,-1,1497,1394,0,0
280,-370,0,0,0,0,0,0,0,0,0,-1,1504,1394,0,0
287,-370,0,0,0,0,0,0,0,0,0,-1,1511,1394,0,0
294,-370,0,0,0,0,0,0,0,0,0,-1,1518,1394,0,0
301,-370,0,0,0,0,0,0,0,0,0,-1,1525,1394,0,0
308,-370,0,0,0,0,0,0,0,0,0,-1,1532,1394,0,0
315,-370,0,0,0,0,0,0,0,0,0,-1,1539,1394,0,0
322,-370,0,0,0,0,0,0,0,0,0,-1,1546,1394,0,0
329,-370,0,0,0,0,0,0,0,0,0,-1,1553,1394,0,0
336,-370,0,0,0,0,0,0,0,0,0,-1,1560,1394,0,0
343,-370,0,0,0,0,0,0,0,0,0,-1,1567,1394,0,0
350,-370,0,0,0,0,0,0,0,0,0,-1,1574,1394,0,0
357,-370,0,0,0,0,0,0,0,0,0,-1,1581,1394,0,0
364,-370,0,0,0,0,0,0,0,0,0,-1,1588,1394,0,0
371,-370,0,0,0,0,0,0,0,0,0,-1,1595,1394,0,0
378,-370,0,0,0,0,0,0,0,0,0,-1,1602,1394,0,0
385,-370,0,0,0,0,0,0,0,0,0,-1,1609,1394,0,0
392,-370,0,0,0,0,0,0,0,0,0,-1,1616,1394,0,0
399,-370,0,0,0,0,0,0,0,0,0,-1,1623,1394,0,0
406,-370,0,0,0,0,0,0,0,0,0,-1,1630,1394,0,0
413,-370,0,0,0,0,0,0,0,0,0,-1,1637,1394,0,0
420,-370,0,0,0,0,0,0,0,0,0,-1,1644,1394,0,0
427,-370,0,0,0,0,0,0,0,0,0,-1,1651,1394,0,0
434,-370,0,0,0,0,0,0,0,0,0,-1,1658,1394,0,0
441,-370,0,0,0,0,0,0,0,0,0,-1,1665,1394,0,0
448,-370,0,0,0,0,0,0,0,0,0,-1,1672,1394,0,0
455,-370,0,0,0,0,0,0,0,0,0,-1,1679,1394,0,0
462,-370,0,0,0,0,0,0,0,0,0,-1,1686,1394,0,0
469,-370,0,0,0,0,0,0,0,0,0,-1,1693,1394,0,0
476,-370,0,0,0,0,0,0,0,0,0,-1,1700,1394,0,0
483,-370,0,0,0,0,0,0,0,0,0,-1,1707,1394,0,0
490,-370,0,0,0,0,0,0,0,0,0,-1,1714,1394,0,0
497,-370,0,0,0,0,0,0,0,0,0,-1,1721,1394,0,0
504,-370,0,0,0,0,0,0,0,0,0,-1,1728,1394,0,0
511,-370,0,0,0,0,0,0,0,0,0,-1,1735,1394,0,0
518,-370,0,0,0,0,0,0,0,0,0,-1,1742,1394,0,0
525,-370,0,0,0,0,0,0,0,0,0,-1,1749,1394,0,0
532,-370,0,0,0,0,0,0,0,0,0,-1,1756,1394,0,0
539,-370,0,0,0,0,0,0,0,0,0,-1,1763,1394,0,0
546,-370,27.4949,2.81201,0,0,0,0,0,0,0,-1,1770,1394,27.4948,-2.81198
553,-370,26.5985,1.99329,0,0,0,0,0,0,0,-1,1777,1394,26.5985,-1.99327
560,-370,46.0132,3.65686,0,0,0,0,0,0,0,-1,1784,1394,46.0132,-3.65689
567,-370,46.1089,3.11719,0,0,0,0,0,0,0,-1,1791,1394,46.1089,-3.1172
574,-370,38.8953,1.49353,0,0,0,0,0,0,0,-1,1798,1394,38.8952,-1.49348
581,-370,39.178,2.86145,0,0,0,0,0,0,0,-1,1805,1394,39.1779,-2.86145
588,-370,39.2102,4.27661,0,0,0,0,0,0,0,-1,1812,1394,39.2102,-4.27657
595,-370,25.793,4.5271,0,0,0,0,0,0,0,-1,1819,1394,25.793,-4.52711
602,-370,25.1077,5.34937,0,0,0,0,0,0,0,-1,1826,1394,25.1077,-5.34932
609,-370,16.712,0.993286,0,0,0,0,0,0,0,-1,1833,1394,16.7121,-0.99323
616,-370,16.7764,7.23315,0,0,0,0,0,0,0,-1,1840,1394,16.7764,-7.23313
623,-370,17.6625,8.94263,0,0,0,0,0,0,0,-1,1847,1394,17.6624,-8.94258
630,-370,20.9681,11.1785,0,0,0,0,0,0,0,-1,1854,1394,20.9681,-11.1784
637,-370,26.4323,12.955,0,0,0,0,0,0,0,-1,1861,1394,26.4322,-12.9549
644,-370,26.4478,12.4806,0.000745174,0.000842089,-0.00129419,0.00208873,-0.000501467,-0.80411,0.00158629,0.0134257,1868,1394,26.4478,-12.4806
651,-370,26.4351,12.0056,0.000580847,0.00054047,-0.000806015,0.00136693,-0.000245609,-0.772877,0.00100323,0.0121592,1875,1394,26.4351,-12.0057
658,-370,26.4044,11.5708,0.000693825,0.000185602,-0.000318372,0.000847063,3.23641e-05,-0.44859,0.000554235,0.0123434,1882,1394,26.4044,-11.5708
665,-370,26.3878,11.1359,0.000908334,-0.000213751,0.000167169,0.000932709,-0.000238126,0.144793,0.000714532,0.013227,1889,1394,26.3879,-11.1358
672,-370,26.3906,10.6755,0.00121839,-0.000665201,0.000658949,0.00142603,-0.000872836,0.305253,0.00134,0.014032,1896,1394,26.3906,-10.6756
679,-370,26.406,10.2031,0.00164009,-0.00113445,0.00113105,0.00204273,-0.00153709,0.342002,0.00207367,0.0136495,1903,1394,26.406,-10.2031
686,-370,26.3676,9.75159,0.00216154,-0.00169347,0.00161956,0.00275162,-0.00228356,0.3494,0.00291125,0.0141425,1910,1394,26.3676,-9.75157
693,-370,26.3389,9.27087,0.00279518,-0.00230312,0.00207609,0.00353363,-0.00304157,0.341738,0.00379974,0.0127583,1917,1394,26.3389,-9.27086
700,-370,26.5271,8.77478,0.00361798,-0.00293201,0.0024883,0.00445604,-0.00377007,0.324868,0.00475485,0.0329701,1924,1394,26.5272,-8.77481
707,-370,26.8712,8.21606,0,0,0,0,0,0,0,-1,1931,1394,26.8712,-8.21607
714,-370,16.9116,5.93018,0,0,0,0,0,0,0,-1,1938,1394,16.9116,-5.93014
721,-370,17.2007,4.69153,0,0,0,0,0,0,0,-1,1945,1394,17.2007,-4.69158
728,-370,20.5315,-0.313354,0,0,0,0,0,0,0,-1,1952,1394,20.5315,0.313332
735,-370,22.3652,0.233398,0,0,0,0,0,0,0,-1,1959,1394,22.3652,-0.233355
742,-370,24.1989,0.780029,0,0,0,0,0,0,0,-1,1966,1394,24.1989,-0.780041
749,-370,0,0,0,0,0,0,0,0,0,-1,1973,1394,0,0
756,-370,0,0,0,0,0,0,0,0,0,-1,1980,1394,0,0
763,-370,0,0,0,0,0,0,0,0,0,-1,1987,1394,0,0
770,-370,0,0,0,0,0,0,0,0,0,-1,1994,1394,0,0
777,-370,0,0,0,0,0,0,0,0,0,-1,2001,1394,0,0
784,-370,0,0,0,0,0,0,0,0,0,-1,2008,1394,0,0
791,-370,0,0,0,0,0,0,0,0,0,-1,2015,1394,0,0
798,-370,0,0,0,0,0,0,0,0,0,-1,2022,1394,0,0
805,-370,0,0,0,0,0,0,0,0,0,-1,2029,1394,0,0
812,-370,0,0,0,0,0,0,0,0,0,-1,2036,1394,0,0
-700,-377,0,0,0,0,0,0,0,0,0,-1,524,1401,0,0
-693,-377,0,0,0,0,0,0,0,0,0,-1,531,1401,0,0
-686,-377,0,0,0,0,0,0,0,0,0,-1,538,1401,0,0
-679,-377,0,0,0,0,0,0,0,0,0,-1,545,1401,0,0
-672,-377,0,0,0,0,0,0,0,0,0,-1,552,1401,0,0
-665,-377,0,0,0,0,0,0,0,0,0,-1,559,1401,0,0
-658,-377,0,0,0,0,0,0,0,0,0,-1,566,1401,0,0
-651,-377,0,0,0,0,0,0,0,0,0,-1,573,1401,0,0
-644,-377,0,0,0,0,0,0,0,0,0,-1,580,1401,0,0
-637,-377,0,0,0,0,0,0,0,0,0,-1,587,1401,0,0
-630,-377,0,0,0,0,0,0,0,0,0,-1,594,1401,0,0
-623,-377,0,0,0,0,0,0,0,0,0,-1,601,1401,0,0
-616,-377,-9.43915,-2.4906,0,0,0,0,0,0,0,-1,608,1401,-9.43915,2.49062
-609,-377,-7.2821,-1.35278,0,0,0,0,0,0,0,-1,615,1401,-7.28208,1.35279
-602,-377,-14.9736,3.98279,0,0,0,0,0,0,0,-1,622,1401,-14.9737,-3.98276
-595,-377,-6.9082,1.18201,0,0,0,0,0,0,0,-1,629,1401,-6.90822,-1.18204
-588,-377,-12.8003,3.44751,0,0,0,0,0,0,0,-1,636,1401,-12.8003,-3.44754
-581,-377,-12.6158,4.75378,0,0,0,0,0,0,0,-1,643,1401,-12.6159,-4.75383
-574,-377,-11.8776,6.06641,0,0,0,0,0,0,0,-1,650,1401,-11.8776,-6.06642
-567,-377,-12.1104,6.83411,-0.00834393,0.00208602,-0.00298344,0.00287911,-0.00913702,-1.31097,0.00724433,0.047117,657,1401,-12.1104,-6.83407
-560,-377,-12.5869,7.2207,-0.0058427,0.00120154,-0.00226542,0.0018672,-0.00650836,-1.28501,0.00507708,0.0454435,664,1401,-12.5868,-7.2207
-553,-377,-12.4466,7.63782,-0.00355727,0.000764559,-0.00146121,0.00121222,-0.00400493,-1.27351,0.00315269,0.0138089,671,1401,-12.4466,-7.63777
-546,-377,-12.4531,8.19421,-0.0017269,0.000466767,-0.000784883,0.000718668,-0.0019788,-1.26024,0.00161303,0.01554,678,1401,-12.4531,-8.19418
-539,-377,-12.4597,8.64075,-0.000198307,0.000295634,-0.000201966,0.0003677,-0.000270374,-1.22805,0.000369818,0.0208796,685,1401,-12.4597,-8.64075
-532,-377,-12.4861,9.12903,0.00114796,0.000256404,0.000359794,0.00127504,0.000129321,0.339532,0.000810368,0.0191394,692,1401,-12.4862,-9.12904
-525,-377,-12.4596,9.66418,0.00240966,0.000403663,0.000988472,0.00281488,-1.5581e-06,0.389052,0.00187711,0.0197029,699,1401,-12.4596,-9.66423
-518,-377,-12.5028,10.1532,0.00365092,0.000743844,0.00170583,0.0044385,-4.37384e-05,0.432542,0.00297369,0.0131034,706,1401,-12.5028,-10.1532
-511,-377,-12.4961,10.6476,0.0047642,0.00141126,0.00251958,0.00611409,6.13688e-05,0.491843,0.00405576,0.0111455,713,1401,-12.4961,-10.6476
-504,-377,-12.5308,11.1746,0.00602477,0.00216914,0.00361224,0.00819143,2.47732e-06,0.540281,0.00546013,0.0146209,720,1401,-12.5307,-11.1746
-497,-377,-12.5544,11.6893,0,0,0,0,0,0,0,-1,727,1401,-12.5544,-11.6893
-490,-377,-8.88409,10.1245,0,0,0,0,0,0,0,-1,734,1401,-8.8841,-10.1245
-483,-377,-5.6524,5.07324,0,0,0,0,0,0,0,-1,741,1401,-5.6524,-5.07325
-476,-377,-6.11682,5.10535,0,0,0,0,0,0,0,-1,748,1401,-6.11681,-5.10537
-469,-377,-10.3211,1.9281,0,0,0,0,0,0,0,-1,755,1401,-10.3211,-1.92808
-462,-377,-9.2204,1.0022,0,0,0,0,0,0,0,-1,762,1401,-9.22039,-1.00218
-455,-377,-8.11969,0.0762939,0,0,0,0,0,0,0,-1,769,1401,-8.11968,-0.0762759
-448,-377,-9.05334,0.877319,0,0,0,0,0,0,0,-1,776,1401,-9.05332,-0.877324
-441,-377,-11.212,0.763428,0,0,0,0,0,0,0,-1,783,1401,-11.212,-0.763415
-434,-377,-11.0984,0.996216,0,0,0,0,0,0,0,-1,790,1401,-11.0984,-0.996265
-427,-377,-11.1733,1.25732,0,0,0,0,0,0,0,-1,797,1401,-11.1733,-1.25732
-420,-377,0,0,0,0,0,0,0,0,0,-1,804,1401,0,0
-413,-377,0,0,0,0,0,0,0,0,0,-1,811,1401,0,0
-406,-377,0,0,0,0,0,0,0,0,0,-1,818,1401,0,0
-399,-377,0,0,0,0,0,0,0,0,0,-1,825,1401,0,0
-392,-377,0,0,0,0,0,0,0,0,0,-1,832,1401,0,0
-385,-377,0,0,0,0,0,0,0,0,0,-1,839,1401,0,0
-378,-377,0,0,0,0,0,0,0,0,0,-1,846,1401,0,0
-371,-377,0,0,0,0,0,0,0,0,0,-1,853,1401,0,0
-364,-377,0,0,0,0,0,0,0,0,0,-1,860,1401,0,0
-357,-377,0,0,0,0,0,0,0,0,0,-1,867,1401,0,0
-350,-377,0,0,0,0,0,0,0,0,0,-1,874,1401,0,0
-343,-377,0,0,0,0,0,0,0,0,0,-1,881,1401,0,0
-336,-377,0,0,0,0,0,0,0,0,0,-1,888,1401,0,0
-329,-377,0,0,0,0,0,0,0,0,0,-1,895,1401,0,0
-322,-377,0,0,0,0,0,0,0,0,0,-1,902,1401,0,0
-315,-377,0,0,0,0,0,0,0,0,0,-1,909,1401,0,0
-308,-377,0,0,0,0,0,0,0,0,0,-1,916,1401,0,0
-301,-377,0,0,0,0,0,0,0,0,0,-1,923,1401,0,0
-294,-377,0,0,0,0,0,0,0,0,0,-1,930,1401,0,0
-287,-377,0,0,0,0,0,0,0,0,0,-1,937,1401,0,0
-280,-377,0,0,0,0,0,0,0,0,0,-1,944,1401,0,0
-273,-377,0,0,0,0,0,0,0,0,0,-1,951,1401,0,0
-266,-377,0,0,0,0,0,0,0,0,0,-1,958,1401,0,0
-259,-377,0,0,0,0,0,0,0,0,0,-1,965,1401,0,0
-252,-377,0,0,0,0,0,0,0,0,0,-1,972,1401,0,0
-245,-377,0,0,0,0,0,0,0,0,0,-1,979,1401,0,0
-238,-377,0,0,0,0,0,0,0,0,0,-1,986,1401,0,0
-231,-377,0,0,0,0,0,0,0,0,0,-1,993,1401,0,0
-224,-377,0,0,0,0,0,0,0,0,0,-1,1000,1401,0,0
-217,-377,0,0,0,0,0,0,0,0,0,-1,1007,1401,0,0
-210,-377,0,0,0,0,0,0,0,0,0,-1,1014,1401,0,0
-203,-377,0,0,0,0,0,0,0,0,0,-1,1021,1401,0,0
-196,-377,0,0,0,0,0,0,0,0,0,-1,1028,1401,0,0
-189,-377,0,0,0,0,0,0,0,0,0,-1,1035,1401,0,0
-182,-377,0,0,0,0,0,0,0,0,0,-1,1042,1401,0,0
-175,-377,0,0,0,0,0,0,0,0,0,-1,1049,1401,0,0
-168,-377,0,0,0,0,0,0,0,0,0,-1,1056,1401,0,0
-161,-377,0,0,0,0,0,0,0,0,0,-1,1063,1401,0,0
-154,-377,0,0,0,0,0,0,0,0,0,-1,1070,1401,0,0
-147,-377,0,0,0,0,0,0,0,0,0,-1,1077,1401,0,0
-140,-377,0,0,0,0,0,0,0,0,0,-1,1084,1401,0,0
-133,-377,0,0,0,0,0,0,0,0,0,-1,1091,1401,0,0
-126,-377,0,0,0,0,0,0,0,0,0,-1,1098,1401,0,0
-119,-377,0,0,0,0,0,0,0,0,0,-1,1105,1401,0,0
-112,-377,0,0,0,0,0,0,0,0,0,-1,1112,1401,0,0
-105,-377,0,0,0,0,0,0,0,0,0,-1,1119,1401,0,0
-98,-377,0,0,0,0,0,0,0,0,0,-1,1126,1401,0,0
-91,-377,0,0,0,0,0,0,0,0,0,-1,1133,1401,0,0
-84,-377,0,0,0,0,0,0,0,0,0,-1,1140,1401,0,0
-77,-377,0,0,0,0,0,0,0,0,0,-1,1147,1401,0,0
-70,-377,0,0,0,0,0,0,0,0,0,-1,1154,1401,0,0
-63,-377,0,0,0,0,0,0,0,0,0,-1,1161,1401,0,0
-56,-377,0,0,0,0,0,0,0,0,0,-1,1168,1401,0,0
-49,-377,0,0,0,0,0,0,0,0,0,-1,1175,1401,0,0
-42,-377,0,0,0,0,0,0,0,0,0,-1,1182,1401,0,0
-35,-377,0,0,0,0,0,0,0,0,0,-1,1189,1401,0,0
-28,-377,0,0,0,0,0,0,0,0,0,-1,1196,1401,0,0
-21,-377,0,0,0,0,0,0,0,0,0,-1,1203,1401,0,0
-14,-377,0,0,0,0,0,0,0,0,0,-1,1210,1401,0,0
-7,-377,0,0,0,0,0,0,0,0,0,-1,1217,1401,0,0
0,-377,0,0,0,0,0,0,0,0,0,-1,1224,1401,0,0
7,-377,0,0,0,0,0,0,0,0,0,-1,1231,1401,0,0
14,-377,0,0,0,0,0,0,0,0,0,-1,1238,1401,0,0
21,-377,0,0,0,0,0,0,0,0,0,-1,1245,1401,0,0
28,-377,0,0,0,0,0,0,0,0,0,-1,1252,1401,0,0
35,-377,0,0,0,0,0,0,0,0,0,-1,1259,1401,0,0
42,-377,0,0,0,0,0,0,0,0,0,-1,1266,1401,0,0
49,-377,0,0,0,0,0,0,0,0,0,-1,1273,1401,0,0
56,-377,0,0,0,0,0,0,0,0,0,-1,1280,1401,0,0
63,-377,0,0,0,0,0,0,0,0,0,-1,1287,1401,0,0
70,-377,0,0,0,0,0,0,0,0,0,-1,1294,1401,0,0
77,-377,0,0,0,0,0,0,0,0,0,-1,1301,1401,0,0
84,-377,0,0,0,0,0,0,0,0,0,-1,1308,1401,0,0
91,-377,0,0,0,0,0,0,0,0,0,-1,1315,1401,0,0
98,-377,0,0,0,0,0,0,0,0,0,-1,1322,1401,0,0
105,-377,0,0,0,0,0,0,0,0,0,-1,1329,1401,0,0
112,-377,0,0,0,0,0,0,0,0,0,-1,1336,1401,0,0
119,-377,0,0,0,0,0,0,0,0,0,-1,1343,1401,0,0
126,-377,0,0,0,0,0,0,0,0,0,-1,1350,1401,0,0
133,-377,0,0,0,0,0,0,0,0,0,-1,1357,1401,0,0
140,-377,0,0,0,0,0,0,0,0,0,-1,1364,1401,0,0
147,-377,0,0,0,0,0,0,0,0,0,-1,1371,1401,0,0
154,-377,0,0,0,0,0,0,0,0,0,-1,1378,1401,0,0
161,-377,0,0,0,0,0,0,0,0,0,-1,1385,1401,0,0
168,-377,0,0,0,0,0,0,0,0,0,-1,1392,1401,0,0
175,-377,0,0,0,0,0,0,0,0,0,-1,1399,1401,0,0
182,-377,0,0,0,0,0,0,0,0,0,-1,1406,1401,0,0
189,-377,0,0,0,0,0,0,0,0,0,-1,1413,1401,0,0
196,-377,0,0,0,0,0,0,0,0,0,-1,1420,1401,0,0
203,-377,0,0,0,0,0,0,0,0,0,-1,1427,1401,0,0
210,-377,0,0,0,0,0,0,0,0,0,-1,1434,1401,0,0
217,-377,0,0,0,0,0,0,0,0,0,-1,1441,1401,0,0
224,-377,0,0,0,0,0,0,0,0,0,-1,1448,1401,0,0
231,-377,0,0,0,0,0,0,0,0,0,-1,1455,1401,0,0
238,-377,0,0,0,0,0,0,0,0,0,-1,1462,1401,0,0
245,-377,0,0,0,0,0,0,0,0,0,-1,1469,1401,0,0
252,-377,0,0,0,0,0,0,0,0,0,-1,1476,1401,0,0
259,-377,0,0,0,0,0,0,0,0,0,-1,1483,1401,0,0
266,-377,0,0,0,0,0,0,0,0,0,-1,1490,1401,0,0
273,-377,0,0,0,0,0,0,0,0,0,-1,1497,1401,0,0
280,-377,0,0,0,0,0,0,0,0,0,-1,1504,1401,0,0
287,-377,0,0,0,0,0,0,0,0,0,-1,1511,1401,0,0
294,-377,0,0,0,0,0,0,0,0,0,-1,1518,1401,0,0
301,-377,0,0,0,0,0,0,0,0,0,-1,1525,1401,0,0
308,-377,0,0,0,0,0,0,0,0,0,-1,1532,1401,0,0
315,-377,0,0,0,0,0,0,0,0,0,-1,1539,1401,0,0
322,-377,0,0,0,0,0,0,0,0,0,-1,1546,1401,0,0
329,-377,0,0,0,0,0,0,0,0,0,-1,1553,1401,0,0
336,-377,0,0,0,0,0,0,0,0,0,-1,1560,1401,0,0
343,-377,0,0,0,0,0,0,0,0,0,-1,1567,1401,0,0
350,-377,0,0,0,0,0,0,0,0,0,-1,1574,1401,0,0
357,-377,0,0,0,0,0,0,0,0,0,-1,1581,1401,0,0
364,-377,0,0,0,0,0,0,0,0,0,-1,1588,1401,0,0
371,-377,0,0,0,0,0,0,0,0,0,-1,1595,1401,0,0
378,-377,0,0,0,0,0,0,0,0,0,-1,1602,1401,0,0
385,-377,0,0,0,0,0,0,0,0,0,-1,1609,1401,0,0
392,-377,0,0,0,0,0,0,0,0,0,-1,1616,1401,0,0
399,-377,0,0,0,0,0,0,0,0,0,-1,1623,1401,0,0
406,-377,0,0,0,0,0,0,0,0,0,-1,1630,1401,0,0
413,-377,0,0,0,0,0,0,0,0,0,-1,1637,1401,0,0
420,-377,0,0,0,0,0,0,0,0,0,-1,1644,1401,0,0
427,-377,0,0,0,0,0,0,0,0,0,-1,1651,1401,0,0
434,-377,0,0,0,0,0,0,0,0,0,-1,1658,1401,0,0
441,-377,0,0,0,0,0,0,0,0,0,-1,1665,1401,0,0
448,-377,0,0,0,0,0,0,0,0,0,-1,1672,1401,0,0
455,-377,0,0,0,0,0,0,0,0,0,-1,1679,1401,0,0
462,-377,0,0,0,0,0,0,0,0,0,-1,1686,1401,0,0
469,-377,0,0,0,0,0,0,0,0,0,-1,1693,1401,0,0
476,-377,0,0,0,0,0,0,0,0,0,-1,1700,1401,0,0
483,-377,0,0,0,0,0,0,0,0,0,-1,1707,1401,0,0
490,-377,0,0,0,0,0,0,0,0,0,-1,1714,1401,0,0
497,-377,0,0,0,0,0,0,0,0,0,-1,1721,1401,0,0
504,-377,0,0,0,0,0,0,0,0,0,-1,1728,1401,0,0
511,-377,0,0,0,0,0,0,0,0,0,-1,1735,1401,0,0
518,-377,0,0,0,0,0,0,0,0,0,-1,1742,1401,0,0
525,-377,0,0,0,0,0,0,0,0,0,-1,1749,1401,0,0
532,-377,0,0,0,0,0,0,0,0,0,-1,1756,1401,0,0
539,-377,0,0,0,0,0,0,0,0,0,-1,1763,1401,0,0
546,-377,27.8485,2.34094,0,0,0,0,0,0,0,-1,1770,1401,27.8486,-2.34091
553,-377,27.2189,2.42493,0,0,0,0,0,0,0,-1,1777,1401,27.2188,-2.42498
560,-377,38.3577,-2.15015,0,0,0,0,0,0,0,-1,1784,1401,38.3576,2.1501
567,-377,38.4889,-0.285645,0,0,0,0,0,0,0,-1,1791,1401,38.4889,0.2857
574,-377,38.6221,1.61694,0,0,0,0,0,0,0,-1,1798,1401,38.6221,-1.61689
581,-377,39.1818,3.76367,0,0,0,0,0,0,0,-1,1805,1401,39.1818,-3.76366
588,-377,25.882,4.35217,0,0,0,0,0,0,0,-1,1812,1401,25.8819,-4.3522
595,-377,25.5392,5.11804,0,0,0,0,0,0,0,-1,1819,1401,25.5392,-5.11808
602,-377,24.816,5.79126,0,0,0,0,0,0,0,-1,1826,1401,24.816,-5.79124
609,-377,15.0223,4.76135,0,0,0,0,0,0,0,-1,1833,1401,15.0224,-4.76129
616,-377,14.1842,5.78992,0,0,0,0,0,0,0,-1,1840,1401,14.1842,-5.78987
623,-377,15.8248,8.76721,0,0,0,0,0,0,0,-1,1847,1401,15.8248,-8.76725
630,-377,25.6149,13.6855,0,0,0,0,0,0,0,-1,1854,1401,25.6149,-13.6855
637,-377,25.8959,12.9987,0.000963166,0.000434723,-0.00118794,0.00191592,-0.000518027,-0.67597,0.00148048,0.0309286,1861,1401,25.8959,-12.9987
644,-377,25.9866,12.4974,0.000774959,0.000513211,-0.000935908,0.0015891,-0.000300929,-0.715931,0.00117265,0.012931,1868,1401,25.9866,-12.4974
651,-377,25.9817,12.0264,0.000662311,0.000270597,-0.000502513,0.00100579,-7.28781e-05,-0.599577,0.00069609,0.0132073,1875,1401,25.9817,-12.0263
658,-377,25.9679,11.5731,0.000735774,-3.60317e-05,-4.50484e-05,0.000738395,-3.86521e-05,-0.0581046,0.00050564,0.0141116,1882,1401,25.9679,-11.5732
665,-377,25.9607,11.1075,0.000919992,-0.000438278,0.000462893,0.00106274,-0.000581028,0.299132,0.000962519,0.017196,1889,1401,25.9607,-11.1076
672,-377,25.948,10.6609,0.0012101,-0.000943797,0.00102181,0.00161771,-0.00135141,0.379566,0.00171651,0.016663,1896,1401,25.948,-10.6609
679,-377,25.9125,10.2211,0.00160985,-0.00152203,0.0016103,0.00229007,-0.00220225,0.399682,0.0025938,0.016195,1903,1401,25.9125,-10.2211
686,-377,25.8943,9.78455,0.00210116,-0.00227258,0.00228807,0.00307936,-0.00325078,0.404004,0.00365515,0.0148766,1910,1401,25.8942,-9.78456
693,-377,25.924,9.29053,0.00272684,-0.00315059,0.00297444,0.00396943,-0.00439318,0.39572,0.00483022,0.015011,1917,1401,25.9239,-9.29058
700,-377,25.8986,8.92395,0.00360126,-0.00417795,0.00370529,0.00508364,-0.00566033,0.380568,0.00620601,0.0466003,1924,1401,25.8985,-8.92397
707,-377,26.0693,8.45764,0,0,0,0,0,0,0,-1,1931,1401,26.0694,-8.45764
714,-377,16.5369,5.45959,0,0,0,0,0,0,0,-1,1938,1401,16.5369,-5.4596
721,-377,17.0913,5.42529,0,0,0,0,0,0,0,-1,1945,1401,17.0914,-5.42529
728,-377,14.5396,2.79724,0,0,0,0,0,0,0,-1,1952,1401,14.5396,-2.7972
735,-377,23.2977,-0.991089,0,0,0,0,0,0,0,-1,1959,1401,23.2978,0.991076
742,-377,0,0,0,0,0,0,0,0,0,-1,1966,1401,0,0
749,-377,0,0,0,0,0,0,0,0,0,-1,1973,1401,0,0
756,-377,0,0,0,0,0,0,0,0,0,-1,1980,1401,0,0
763,-377,0,0,0,0,0,0,0,0,0,-1,1987,1401,0,0
770,-377,0,0,0,0,0,0,0,0,0,-1,1994,1401,0,0
777,-377,0,0,0,0,0,0,0,0,0,-1,2001,1401,0,0
784,-377,0,0,0,0,0,0,0,0,0,-1,2008,1401,0,0
791,-377,0,0,0,0,0,0,0,0,0,-1,2015,1401,0,0
798,-377,0,0,0,0,0,0,0,0,0,-1,2022,1401,0,0
805,-377,0,0,0,0,0,0,0,0,0,-1,2029,1401,0,0
812,-377,0,0,0,0,0,0,0,0,0,-1,2036,1401,0,0
-700,-384,0,0,0,0,0,0,0,0,0,-1,524,1408,0,0
-693,-384,0,0,0,0,0,0,0,0,0,-1,531,1408,0,0
-686,-384,0,0,0,0,0,0,0,0,0,-1,538,1408,0,0
-679,-384,0,0,0,0,0,0,0,0,0,-1,545,1408,0,0
-672,-384,0,0,0,0,0,0,0,0,0,-1,552,1408,0,0
-665,-384,0,0,0,0,0,0,0,0,0,-1,559,1408,0,0
-658,-384,0,0,0,0,0,0,0,0,0,-1,566,1408,0,0
-651,-384,0,0,0,0,0,0,0,0,0,-1,573,1408,0,0
-644,-384,0,0,0,0,0,0,0,0,0,-1,580,1408,0,0
-637,-384,0,0,0,0,0,0,0,0,0,-1,587,1408,0,0
-630,-384,0,0,0,0,0,0,0,0,0,-1,594,1408,0,0
-623,-384,0,0,0,0,0,0,0,0,0,-1,601,1408,0,0
-616,-384,-10.019,-3.36646,0,0,0,0,0,0,0,-1,608,1408,-10.019,3.36648
-609,-384,-7.72357,-2.3418,0,0,0,0,0,0,0,-1,615,1408,-7.72358,2.34182
-602,-384,-11.7632,-2.85156,0,0,0,0,0,0,0,-1,622,1408,-11.7632,2.85157
-595,-384,-10.2217,2.8855,0,0,0,0,0,0,0,-1,629,1408,-10.2218,-2.88548
-588,-384,-12.1653,2.29041,0,0,0,0,0,0,0,-1,636,1408,-12.1654,-2.29038
-581,-384,-11.9297,3.60376,0,0,0,0,0,0,0,-1,643,1408,-11.9298,-3.6038
-574,-384,-11.7182,4.8562,0,0,0,0,0,0,0,-1,650,1408,-11.7182,-4.85619
-567,-384,-11.5403,6.23584,0,0,0,0,0,0,0,-1,657,1408,-11.5403,-6.23584
-560,-384,-12.0192,7.15125,0,0,0,0,0,0,0,-1,664,1408,-12.0192,-7.1512
-553,-384,-11.9717,7.66113,-0.00460848,0.000782197,-0.00177732,0.00131543,-0.00514172,-1.27932,0.00394018,0.0335789,671,1408,-11.9717,-7.66115
-546,-384,-11.9608,8.21887,-0.00258807,0.000428434,-0.0010919,0.000782191,-0.00294183,-1.25749,0.00226738,0.0149956,678,1408,-11.9608,-8.21886
-539,-384,-12.0128,8.66272,-0.000985803,0.000237977,-0.000528271,0.000434468,-0.00118229,-1.2147,0.000966149,0.0168356,685,1408,-12.0128,-8.66266
-532,-384,-11.9815,9.13257,0.000354395,0.000187464,-7.09815e-06,0.000354696,0.000187163,-0.0424196,0.000204888,0.020723,692,1408,-11.9815,-9.13258
-525,-384,-11.9716,9.68115,0.00157727,0.000342432,0.000582649,0.00180878,0.000110919,0.378217,0.00117064,0.0202729,699,1408,-11.9716,-9.68114
-518,-384,-12.009,10.1842,0.00275421,0.000706584,0.00126661,0.00335904,0.000101752,0.445504,0.00220623,0.0130406,706,1408,-12.009,-10.1842
-511,-384,-12.0256,10.6884,0.00390551,0.00137482,0.00211637,0.00510595,0.000174375,0.515966,0.00334735,0.0109591,713,1408,-12.0256,-10.6883
-504,-384,-12.0332,11.215,0.00511198,0.00220338,0.00315604,0.00713268,0.000182684,0.569499,0.00469541,0.0119014,720,1408,-12.0332,-11.215
-497,-384,-12.0497,11.7429,0,0,0,0,0,0,0,-1,727,1408,-12.0498,-11.7429
-490,-384,-11.3262,12.5491,0,0,0,0,0,0,0,-1,734,1408,-11.3263,-12.5491
-483,-384,-6.26471,7.61194,0,0,0,0,0,0,0,-1,741,1408,-6.26469,-7.61191
-476,-384,-6.02734,5.67761,0,0,0,0,0,0,0,-1,748,1408,-6.02736,-5.6776
-469,-384,-10.206,2.63721,0,0,0,0,0,0,0,-1,755,1408,-10.206,-2.6372
-462,-384,-9.04291,1.43542,0,0,0,0,0,0,0,-1,762,1408,-9.04293,-1.43545
-455,-384,-7.87988,0.233765,0,0,0,0,0,0,0,-1,769,1408,-7.87986,-0.233709
-448,-384,-9.35529,7.19226,0,0,0,0,0,0,0,-1,776,1408,-9.35531,-7.19226
-441,-384,-10.4697,1.79004,0,0,0,0,0,0,0,-1,783,1408,-10.4697,-1.79003
-434,-384,-10.6449,0.552246,0,0,0,0,0,0,0,-1,790,1408,-10.6449,-0.552216
-427,-384,-10.968,1.10583,0,0,0,0,0,0,0,-1,797,1408,-10.968,-1.10588
-420,-384,-12.5607,4.54858,0,0,0,0,0,0,0,-1,804,1408,-12.5607,-4.54859
-413,-384,0,0,0,0,0,0,0,0,0,-1,811,1408,0,0
-406,-384,0,0,0,0,0,0,0,0,0,-1,818,1408,0,0
-399,-384,0,0,0,0,0,0,0,0,0,-1,825,1408,0,0
-392,-384,0,0,0,0,0,0,0,0,0,-1,832,1408,0,0
-385,-384,0,0,0,0,0,0,0,0,0,-1,839,1408,0,0
-378,-384,0,0,0,0,0,0,0,0,0,-1,846,1408,0,0
-371,-384,0,0,0,0,0,0,0,0,0,-1,853,1408,0,0
-364,-384,0,0,0,0,0,0,0,0,0,-1,860,1408,0,0
-357,-384,0,0,0,0,0,0,0,0,0,-1,867,1408,0,0
-350,-384,0,0,0,0,0,0,0,0,0,-1,874,1408,0,0
-343,-384,0,0,0,0,0,0,0,0,0,-1,881,1408,0,0
-336,-384,0,0,0,0,0,0,0,0,0,-1,888,1408,0,0
-329,-384,0,0,0,0,0,0,0,0,0,-1,895,1408,0,0
-322,-384,0,0,0,0,0,0,0,0,0,-1,902,1408,0,0
-315,-384,0,0,0,0,0,0,0,0,0,-1,909,1408,0,0
-308,-384,0,0,0,0,0,0,0,0,0,-1,916,1408,0,0
-301,-384,0,0,0,0,0,0,0,0,0,-1,923,1408,0,0
-294,-384,0,0,0,0,0,0,0,0,0,-1,930,1408,0,0
-287,-384,0,0,0,0,0,0,0,0,0,-1,937,1408,0,0
-280,-384,0,0,0,0,0,0,0,0,0,-1,944,1408,0,0
-273,-384,0,0,0,0,0,0,0,0,0,-1,951,1408,0,0
-266,-384,0,0,0,0,0,0,0,0,0,-1,958,1408,0,0
-259,-384,0,0,0,0,0,0,0,0,0,-1,965,1408,0,0
-252,-384,0,0,0,0,0,0,0,0,0,-1,972,1408,0,0
-245,-384,0,0,0,0,0,0,0,0,0,-1,979,1408,0,0
-238,-384,0,0,0,0,0,0,0,0,0,-1,986,1408,0,0
-231,-384,0,0,0,0,0,0,0,0,0,-1,993,1408,0,0
-224,-384,0,0,0,0,0,0,0,0,0,-1,1000,1408,0,0
-217,-384,0,0,0,0,0,0,0,0,0,-1,1007,1408,0,0
-210,-384,0,0,0,0,0,0,0,0,0,-1,1014,1408,0,0
-203,-384,0,0,0,0,0,0,0,0,0,-1,1021,1408,0,0
-196,-384,0,0,0,0,0,0,0,0,0,-1,1028,1408,0,0
-189,-384,0,0,0,0,0,0,0,0,0,-1,1035,1408,0,0
-182,-384,0,0,0,0,0,0,0,0,0,-1,1042,1408,0,0
-175,-384,0,0,0,0,0,0,0,0,0,-1,1049,1408,0,0
-168,-384,0,0,0,0,0,0,0,0,0,-1,1056,1408,0,0
-161,-384,0,0,0,0,0,0,0,0,0,-1,1063,1408,0,0
-154,-384,0,0,0,0,0,0,0,0,0,-1,1070,1408,0,0
-147,-384,0,0,0,0,0,0,0,0,0,-1,1077,1408,0,0
-140,-384,0,0,0,0,0,0,0,0,0,-1,1084,1408,0,0
-133,-384,0,0,0,0,0,0,0,0,0,-1,1091,1408,0,0
-126,-384,0,0,0,0,0,0,0,0,0,-1,1098,1408,0,0
-119,-384,0,0,0,0,0,0,0,0,0,-1,1105,1408,0,0
-112,-384,0,0,0,0,0,0,0,0,0,-1,1112,1408,0,0
-105,-384,0,0,0,0,0,0,0,0,0,-1,1119,1408,0,0
-98,-384,0,0,0,0,0,0,0,0,0,-1,1126,1408,0,0
-91,-384,0,0,0,0,0,0,0,0,0,-1,1133,1408,0,0
-84,-384,0,0,0,0,0,0,0,0,0,-1,1140,1408,0,0
-77,-384,0,0,0,0,0,0,0,0,0,-1,1147,1408,0,0
-70,-384,0,0,0,0,0,0,0,0,0,-1,1154,1408,0,0
-63,-384,0,0,0,0,0,0,0,0,0,-1,1161,1408,0,0
-56,-384,0,0,0,0,0,0,0,0,0,-1,1168,1408,0,0
-49,-384,0,0,0,0,0,0,0,0,0,-1,1175,1408,0,0
-42,-384,0,0,0,0,0,0,0,0,0,-1,1182,1408,0,0
-35,-384,0,0,0,0,0,0,0,0,0,-1,1189,1408,0,0
-28,-384,0,0,0,0,0,0,0,0,0,-1,1196,1408,0,0
-21,-384,0,0,0,0,0,0,0,0,0,-1,1203,1408,0,0
-14,-384,0,0,0,0,0,0,0,0,0,-1,1210,1408,0,0
-7,-384,0,0,0,0,0,0,0,0,0,-1,1217,1408,0,0
0,-384,0,0,0,0,0,0,0,0,0,-1,1224,1408,0,0
7,-384,0,0,0,0,0,0,0,0,0,-1,1231,1408,0,0
14,-384,0,0,0,0,0,0,0,0,0,-1,1238,1408,0,0
21,-384,0,0,0,0,0,0,0,0,0,-1,1245,1408,0,0
28,-384,0,0,0,0,0,0,0,0,0,-1,1252,1408,0,0
35,-384,0,0,0,0,0,0,0,0,0,-1,1259,1408,0,0
42,-384,0,0,0,0,0,0,0,0,0,-1,1266,1408,0,0
49,-384,0,0,0,0,0,0,0,0,0,-1,1273,1408,0,0
56,-384,0,0,0,0,0,0,0,0,0,-1,1280,1408,0,0
63,-384,0,0,0,0,0,0,0,0,0,-1,1287,1408,0,0
70,-384,0,0,0,0,0,0,0,0,0,-1,1294,1408,0,0
77,-384,0,0,0,0,0,0,0,0,0,-1,1301,1408,0,0
84,-384,0,0,0,0,0,0,0,0,0,-1,1308,1408,0,0
91,-384,0,0,0,0,0,0,0,0,0,-1,1315,1408,0,0
98,-384,0,0,0,0,0,0,0,0,0,-1,1322,1408,0,0
105,-384,0,0,0,0,0,0,0,0,0,-1,1329,1408,0,0
112,-384,0,0,0,0,0,0,0,0,0,-1,1336,1408,0,0
119,-384,0,0,0,0,0,0,0,0,0,-1,1343,1408,0,0
126,-384,0,0,0,0,0,0,0,0,0,-1,1350,1408,0,0
133,-384,0,0,0,0,0,0,0,0,0,-1,1357,1408,0,0
140,-384,0,0,0,0,0,0,0,0,0,-1,1364,1408,0,0
147,-384,0,0,0,0,0,0,0,0,0,-1,1371,1408,0,0
154,-384,0,0,0,0,0,0,0,0,0,-1,1378,1408,0,0
161,-384,0,0,0,0,0,0,0,0,0,-1,1385,1408,0,0
168,-384,0,0,0,0,0,0,0,0,0,-1,1392,1408,0,0
175,-384,0,0,0,0,0,0,0,0,0,-1,1399,1408,0,0
182,-384,0,0,0,0,0,0,0,0,0,-1,1406,1408,0,0
189,-384,0,0,0,0,0,0,0,0,0,-1,1413,1408,0,0
196,-384,0,0,0,0,0,0,0,0,0,-1,1420,1408,0,0
203,-384,0,0,0,0,0,0,0,0,0,-1,1427,1408,0,0
210,-384,0,0,0,0,0,0,0,0,0,-1,1434,1408,0,0
217,-384,0,0,0,0,0,0,0,0,0,-1,1441,1408,0,0
224,-384,0,0,0,0,0,0,0,0,0,-1,1448,1408,0,0
231,-384,0,0,0,0,0,0,0,0,0,-1,1455,1408,0,0
238,-384,0,0,0,0,0,0,0,0,0,-1,1462,1408,0,0
245,-384,0,0,0,0,0,0,0,0,0,-1,1469,1408,0,0
252,-384,0,0,0,0,0,0,0,0,0,-1,1476,1408,0,0
259,-384,0,0,0,0,0,0,0,0,0,-1,1483,1408,0,0
266,-384,0,0,0,0,0,0,0,0,0,-1,1490,1408,0,0
273,-384,0,0,0,0,0,0,0,0,0,-1,1497,1408,0,0
280,-384,0,0,0,0,0,0,0,0,0,-1,1504,1408,0,0
287,-384,0,0,0,0,0,0,0,0,0,-1,1511,1408,0,0
294,-384,0,0,0,0,0,0,0,0,0,-1,1518,1408,0,0
301,-384,0,0,0,0,0,0,0,0,0,-1,1525,1408,0,0
308,-384,0,0,0,0,0,0,0,0,0,-1,1532,1408,0,0
315,-384,0,0,0,0,0,0,0,0,0,-1,1539,1408,0,0
322,-384,0,0,0,0,0,0,0,0,0,-1,1546,1408,0,0
329,-384,0,0,0,0,0,0,0,0,0,-1,1553,1408,0,0
336,-384,0,0,0,0,0,0,0,0,0,-1,1560,1408,0,0
343,-384,0,0,0,0,0,0,0,0,0,-1,1567,1408,0,0
350,-384,0,0,0,0,0,0,0,0,0,-1,1574,1408,0,0
357,-384,0,0,0,0,0,0,0,0,0,-1,1581,1408,0,0
364,-384,0,0,0,0,0,0,0,0,0,-1,1588,1408,0,0
371,-384,0,0,0,0,0,0,0,0,0,-1,1595,1408,0,0
378,-384,0,0,0,0,0,0,0,0,0,-1,1602,1408,0,0
385,-384,0,0,0,0,0,0,0,0,0,-1,1609,1408,0,0
392,-384,0,0,0,0,0,0,0,0,0,-1,1616,1408,0,0
399,-384,0,0,0,0,0,0,0,0,0,-1,1623,1408,0,0
406,-384,0,0,0,0,0,0,0,0,0,-1,1630,1408,0,0
413,-384,0,0,0,0,0,0,0,0,0,-1,1637,1408,0,0
420,-384,0,0,0,0,0,0,0,0,0,-1,1644,1408,0,0
427,-384,0,0,0,0,0,0,0,0,0,-1,1651,1408,0,0
434,-384,0,0,0,0,0,0,0,0,0,-1,1658,1408,0,0
441,-384,0,0,0,0,0,0,0,0,0,-1,1665,1408,0,0
448,-384,0,0,0,0,0,0,0,0,0,-1,1672,1408,0,0
455,-384,0,0,0,0,0,0,0,0,0,-1,1679,1408,0,0
462,-384,0,0,0,0,0,0,0,0,0,-1,1686,1408,0,0
469,-384,0,0,0,0,0,0,0,0,0,-1,1693,1408,0,0
476,-384,0,0,0,0,0,0,0,0,0,-1,1700,1408,0,0
483,-384,0,0,0,0,0,0,0,0,0,-1,1707,1408,0,0
490,-384,0,0,0,0,0,0,0,0,0,-1,1714,1408,0,0
497,-384,0,0,0,0,0,0,0,0,0,-1,1721,1408,0,0
504,-384,0,0,0,0,0,0,0,0,0,-1,1728,1408,0,0
511,-384,0,0,0,0,0,0,0,0,0,-1,1735,1408,0,0
518,-384,0,0,0,0,0,0,0,0,0,-1,1742,1408,0,0
525,-384,0,0,0,0,0,0,0,0,0,-1,1749,1408,0,0
532,-384,0,0,0,0,0,0,0,0,0,-1,1756,1408,0,0
539,-384,27.6886,2.85803,0,0,0,0,0,0,0,-1,1763,1408,27.6886,-2.85807
546,-384,27.5044,2.9425,0,0,0,0,0,0,0,-1,1770,1408,27.5044,-2.94255
553,-384,27.3052,2.78394,0,0,0,0,0,0,0,-1,1777,1408,27.3051,-2.78394
560,-384,26.833,3.19812,0,0,0,0,0,0,0,-1,1784,1408,26.833,-3.19816
567,-384,38.2566,0.109985,0,0,0,0,0,0,0,-1,1791,1408,38.2566,-0.110044
574,-384,38.4003,2.05945,0,0,0,0,0,0,0,-1,1798,1408,38.4003,-2.05949
581,-384,25.819,3.91846,0,0,0,0,0,0,0,-1,1805,1408,25.8189,-3.91848
588,-384,23.3721,4.25439,0,0,0,0,0,0,0,-1,1812,1408,23.3721,-4.25442
595,-384,24.981,5.59595,0,0,0,0,0,0,0,-1,1819,1408,24.981,-5.59598
602,-384,20.6605,4.17261,0,0,0,0,0,0,0,-1,1826,1408,20.6606,-4.17265
609,-384,14.158,5.49475,0,0,0,0,0,0,0,-1,1833,1408,14.158,-5.49474
616,-384,14.7997,7.6908,0,0,0,0,0,0,0,-1,1840,1408,14.7996,-7.69079
623,-384,16.4293,9.58899,0,0,0,0,0,0,0,-1,1847,1408,16.4294,-9.58901
630,-384,25.5216,13.5165,0,0,0,0,0,0,0,-1,1854,1408,25.5216,-13.5164
637,-384,25.5424,13.0039,0.00100069,0.000292385,-0.000902432,0.00161598,-0.000322898,-0.59841,0.00119953,0.0206115,1861,1408,25.5424,-13.0039
644,-384,25.4889,12.5386,0.000795418,0.000311378,-0.00065689,0.00125345,-0.000146658,-0.608898,0.000888566,0.0165471,1868,1408,25.4889,-12.5385
651,-384,25.4935,12.0255,0.000696601,7.07456e-05,-0.000245291,0.000781281,-1.39337e-05,-0.33241,0.00052556,0.0156485,1875,1408,25.4935,-12.0256
658,-384,25.4875,11.558,0.000727642,-0.000226871,0.000206875,0.00077055,-0.000269778,0.20451,0.000623398,0.0154547,1882,1408,25.4876,-11.558
665,-384,25.4879,11.1331,0.000867437,-0.000657506,0.000747651,0.00117283,-0.000962903,0.387792,0.00123505,0.0172388,1889,1408,25.488,-11.133
672,-384,25.4789,10.671,0.00110484,-0.00122184,0.00138256,0.00174839,-0.00186539,0.435646,0.00208678,0.01572,1896,1408,25.4789,-10.6711
679,-384,25.4524,10.2189,0.00143794,-0.00192508,0.00210884,0.00245359,-0.00294073,0.448832,0.00311865,0.0151647,1903,1408,25.4524,-10.2189
686,-384,25.4471,9.80457,0.00182236,-0.00288792,0.00301796,0.00329537,-0.00436094,0.454068,0.00443462,0.0126219,1910,1408,25.4471,-9.80456
693,-384,25.4756,9.34644,0.00232314,-0.0040592,0.00400056,0.00424939,-0.00598545,0.448736,0.00593736,0.0220271,1917,1408,25.4756,-9.34642
700,-384,25.5402,8.8855,0,0,0,0,0,0,0,-1,1924,1408,25.5401,-8.88548
707,-384,17.0566,6.62842,0,0,0,0,0,0,0,-1,1931,1408,17.0567,-6.62848
714,-384,16.038,5.0282,0,0,0,0,0,0,0,-1,1938,1408,16.038,-5.02819
721,-384,13.8843,2.8717,0,0,0,0,0,0,0,-1,1945,1408,13.8843,-2.87171
728,-384,15.4409,6.25745,0,0,0,0,0,0,0,-1,1952,1408,15.4409,-6.2574
735,-384,16.7598,6.71289,0,0,0,0,0,0,0,-1,1959,1408,16.7598,-6.71287
742,-384,0,0,0,0,0,0,0,0,0,-1,1966,1408,0,0
749,-384,0,0,0,0,0,0,0,0,0,-1,1973,1408,0,0
756,-384,0,0,0,0,0,0,0,0,0,-1,1980,1408,0,0
763,-384,0,0,0,0,0,0,0,0,0,-1,1987,1408,0,0
770,-384,0,0,0,0,0,0,0,0,0,-1,1994,1408,0,0
777,-384,0,0,0,0,0,0,0,0,0,-1,2001,1408,0,0
784,-384,0,0,0,0,0,0,0,0,0,-1,2008,1408,0,0
791,-384,0,0,0,0,0,0,0,0,0,-1,2015,1408,0,0
798,-384,0,0,0,0,0,0,0,0,0,-1,2022,1408,0,0
805,-384,0,0,0,0,0,0,0,0,0,-1,2029,1408,0,0
812,-384,0,0,0,0,0,0,0,0,0,-1,2036,1408,0,0
-700,-391,0,0,0,0,0,0,0,0,0,-1,524,1415,0,0
-693,-391,0,0,0,0,0,0,0,0,0,-1,531,1415,0,0
-686,-391,0,0,0,0,0,0,0,0,0,-1,538,1415,0,0
-679,-391,0,0,0,0,0,0,0,0,0,-1,545,1415,0,0
-672,-391,0,0,0,0,0,0,0,0,0,-1,552,1415,0,0
-665,-391,0,0,0,0,0,0,0,0,0,-1,559,1415,0,0
-658,-391,0,0,0,0,0,0,0,0,0,-1,566,1415,0,0
-651,-391,0,0,0,0,0,0,0,0,0,-1,573,1415,0,0
-644,-391,0,0,0,0,0,0,0,0,0,-1,580,1415,0,0
-637,-391,0,0,0,0,0,0,0,0,0,-1,587,1415,0,0
-630,-391,0,0,0,0,0,0,0,0,0,-1,594,1415,0,0
-623,-391,0,0,0,0,0,0,0,0,0,-1,601,1415,0,0
-616,-391,0,0,0,0,0,0,0,0,0,-1,608,1415,0,0
-609,-391,-7.71753,-3.69763,0,0,0,0,0,0,0,-1,615,1415,-7.71751,3.69759
-602,-391,-13.9493,-4.12805,0,0,0,0,0,0,0,-1,622,1415,-13.9493,4.12803
-595,-391,-10.8315,1.76172,0,0,0,0,0,0,0,-1,629,1415,-10.8315,-1.76171
-588,-391,-10.265,2.16431,0,0,0,0,0,0,0,-1,636,1415,-10.265,-2.16431
-581,-391,-11.3325,2.44836,0,0,0,0,0,0,0,-1,643,1415,-11.3325,-2.44842
-574,-391,-11.0599,3.94128,0,0,0,0,0,0,0,-1,650,1415,-11.0599,-3.94131
-567,-391,-10.4915,5.39685,0,0,0,0,0,0,0,-1,657,1415,-10.4915,-5.39685
-560,-391,-10.5807,6.62683,0,0,0,0,0,0,0,-1,664,1415,-10.5807,-6.62685
-553,-391,-11.5192,7.67236,0,0,0,0,0,0,0,-1,671,1415,-11.5192,-7.6724
-546,-391,-11.4713,8.20081,-0.00332355,0.000422032,-0.00138624,0.000879261,-0.00378078,-1.2522,0.00285904,0.0149049,678,1415,-11.4713,-8.20078
-539,-391,-11.4445,8.73596,-0.00165356,0.000203274,-0.000826549,0.000517895,-0.00196818,-1.20709,0.00151456,0.0139821,685,1415,-11.4445,-8.73591
-532,-391,-11.4503,9.22778,-0.000334774,0.0001321,-0.000329866,0.000302772,-0.000505447,-1.09333,0.00047149,0.0233301,692,1415,-11.4503,-9.2278
-525,-391,-11.4685,9.7373,0.000835173,0.000279252,0.000236471,0.000922151,0.000192273,0.35246,0.000561754,0.0223867,699,1415,-11.4685,-9.73728
-518,-391,-11.5174,10.2213,0.00194597,0.000662361,0.000916503,0.00242304,0.000185286,0.479943,0.00155728,0.0148427,706,1415,-11.5174,-10.2213
-511,-391,-11.5258,10.712,0.00313188,0.00130834,0.00180567,0.00424292,0.000197303,0.551598,0.00276519,0.0142998,713,1415,-11.5258,-10.712
-504,-391,-11.5314,11.2286,0.00432946,0.00219294,0.00285068,0.00630547,0.000216933,0.606128,0.00413324,0.0130815,720,1415,-11.5314,-11.2286
-497,-391,-11.5388,11.7209,0.00583501,0.00337305,0.00421436,0.00899449,0.000213568,0.643305,0.00592642,0.0132654,727,1415,-11.5388,-11.721
-490,-391,-11.4953,12.2289,0,0,0,0,0,0,0,-1,734,1415,-11.4953,-12.2289
-483,-391,-11.1018,12.9382,0,0,0,0,0,0,0,-1,741,1415,-11.1018,-12.9382
-476,-391,-6.05731,6.85303,0,0,0,0,0,0,0,-1,748,1415,-6.05728,-6.85304
-469,-391,-3.88953,5.0979,0,0,0,0,0,0,0,-1,755,1415,-3.88955,-5.09794
-462,-391,-8.67688,2.03125,0,0,0,0,0,0,0,-1,762,1415,-8.67685,-2.03121
-455,-391,-8.65576,6.46997,0,0,0,0,0,0,0,-1,769,1415,-8.65579,-6.46999
-448,-391,-8.39618,4.38403,0,0,0,0,0,0,0,-1,776,1415,-8.39617,-4.38405
-441,-391,-9.77704,2.5946,0,0,0,0,0,0,0,-1,783,1415,-9.77702,-2.5946
-434,-391,-11.5403,2.12878,0,0,0,0,0,0,0,-1,790,1415,-11.5403,-2.12881
-427,-391,-10.5311,2.50403,0,0,0,0,0,0,0,-1,797,1415,-10.5311,-2.504
-420,-391,-14.7087,1.24365,0,0,0,0,0,0,0,-1,804,1415,-14.7088,-1.24365
-413,-391,0,0,0,0,0,0,0,0,0,-1,811,1415,0,0
-406,-391,0,0,0,0,0,0,0,0,0,-1,818,1415,0,0
-399,-391,0,0,0,0,0,0,0,0,0,-1,825,1415,0,0
-392,-391,0,0,0,0,0,0,0,0,0,-1,832,1415,0,0
-385,-391,0,0,0,0,0,0,0,0,0,-1,839,1415,0,0
-378,-391,0,0,0,0,0,0,0,0,0,-1,846,1415,0,0
-371,-391,0,0,0,0,0,0,0,0,0,-1,853,1415,0,0
-364,-391,0,0,0,0,0,0,0,0,0,-1,860,1415,0,0
-357,-391,0,0,0,0,0,0,0,0,0,-1,867,1415,0,0
-350,-391,0,0,0,0,0,0,0,0,0,-1,874,1415,0,0
-343,-391,0,0,0,0,0,0,0,0,0,-1,881,1415,0,0
-336,-391,0,0,0,0,0,0,0,0,0,-1,888,1415,0,0
-329,-391,0,0,0,0,0,0,0,0,0,-1,895,1415,0,0
-322,-391,0,0,0,0,0,0,0,0,0,-1,902,1415,0,0
-315,-391,0,0,0,0,0,0,0,0,0,-1,909,1415,0,0
-308,-391,0,0,0,0,0,0,0,0,0,-1,916,1415,0,0
-301,-391,0,0,0,0,0,0,0,0,0,-1,923,1415,0,0
-294,-391,0,0,0,0,0,0,0,0,0,-1,930,1415,0,0
-287,-391,0,0,0,0,0,0,0,0,0,-1,937,1415,0,0
-280,-391,0,0,0,0,0,0,0,0,0,-1,944,1415,0,0
-273,-391,0,0,0,0,0,0,0,0,0,-1,951,1415,0,0
-266,-391,0,0,0,0,0,0,0,0,0,-1,958,1415,0,0
-259,-391,0,0,0,0,0,0,0,0,0,-1,965,1415,0,0
-252,-391,0,0,0,0,0,0,0,0,0,-1,972,1415,0,0
-245,-391,0,0,0,0,0,0,0,0,0,-1,979,1415,0,0
-238,-391,0,0,0,0,0,0,0,0,0,-1,986,1415,0,0
-231,-391,0,0,0,0,0,0,0,0,0,-1,993,1415,0,0
-224,-391,0,0,0,0,0,0,0,0,0,-1,1000,1415,0,0
-217,-391,0,0,0,0,0,0,0,0,0,-1,1007,1415,0,0
-210,-391,0,0,0,0,0,0,0,0,0,-1,1014,1415,0,0
-203,-391,0,0,0,0,0,0,0,0,0,-1,1021,1415,0,0
-196,-391,0,0,0,0,0,0,0,0,0,-1,1028,1415,0,0
-189,-391,0,0,0,0,0,0,0,0,0,-1,1035,1415,0,0
-182,-391,0,0,0,0,0,0,0,0,0,-1,1042,1415,0,0
-175,-391,0,0,0,0,0,0,0,0,0,-1,1049,1415,0,0
-168,-391,0,0,0,0,0,0,0,0,0,-1,1056,1415,0,0
-161,-391,0,0,0,0,0,0,0,0,0,-1,1063,1415,0,0
-154,-391,0,0,0,0,0,0,0,0,0,-1,1070,1415,0,0
-147,-391,0,0,0,0,0,0,0,0,0,-1,1077,1415,0,0
-140,-391,0,0,0,0,0,0,0,0,0,-1,1084,1415,0,0
-133,-391,0,0,0,0,0,0,0,0,0,-1,1091,1415,0,0
-126,-391,0,0,0,0,0,0,0,0,0,-1,1098,1415,0,0
-119,-391,0,0,0,0,0,0,0,0,0,-1,1105,1415,0,0
-112,-391,0,0,0,0,0,0,0,0,0,-1,1112,1415,0,0
-105,-391,0,0,0,0,0,0,0,0,0,-1,1119,1415,0,0
-98,-391,0,0,0,0,0,0,0,0,0,-1,1126,1415,0,0
-91,-391,0,0,0,0,0,0,0,0,0,-1,1133,1415,0,0
-84,-391,0,0,0,0,0,0,0,0,0,-1,1140,1415,0,0
-77,-391,0,0,0,0,0,0,0,0,0,-1,1147,1415,0,0
-70,-391,0,0,0,0,0,0,0,0,0,-1,1154,1415,0,0
-63,-391,0,0,0,0,0,0,0,0,0,-1,1161,1415,0,0
-56,-391,0,0,0,0,0,0,0,0,0,-1,1168,1415,0,0
-49,-391,0,0,0,0,0,0,0,0,0,-1,1175,1415,0,0
-42,-391,0,0,0,0,0,0,0,0,0,-1,1182,1415,0,0
-35,-391,0,0,0,0,0,0,0,0,0,-1,1189,1415,0,0
-28,-391,0,0,0,0,0,0,0,0,0,-1,1196,1415,0,0
-21,-391,0,0,0,0,0,0,0,0,0,-1,1203,1415,0,0
-14,-391,0,0,0,0,0,0,0,0,0,-1,1210,1415,0,0
-7,-391,0,0,0,0,0,0,0,0,0,-1,1217,1415,0,0
0,-391,0,0,0,0,0,0,0,0,0,-1,1224,1415,0,0
7,-391,0,0,0,0,0,0,0,0,0,-1,1231,1415,0,0
14,-391,0,0,0,0,0,0,0,0,0,-1,1238,1415,0,0
21,-391,0,0,0,0,0,0,0,0,0,-1,1245,1415,0,0
28,-391,0,0,0,0,0,0,0,0,0,-1,1252,1415,0,0
35,-391,0,0,0,0,0,0,0,0,0,-1,1259,1415,0,0
42,-391,0,0,0,0,0,0,0,0,0,-1,1266,1415,0,0
49,-391,0,0,0,0,0,0,0,0,0,-1,1273,1415,0,0
56,-391,0,0,0,0,0,0,0,0,0,-1,1280,1415,0,0
63,-391,0,0,0,0,0,0,0,0,0,-1,1287,1415,0,0
70,-391,0,0,0,0,0,0,0,0,0,-1,1294,1415,0,0
77,-391,0,0,0,0,0,0,0,0,0,-1,1301,1415,0,0
84,-391,0,0,0,0,0,0,0,0,0,-1,1308,1415,0,0
91,-391,0,0,0,0,0,0,0,0,0,-1,1315,1415,0,0
98,-391,0,0,0,0,0,0,0,0,0,-1,1322,1415,0,0
105,-391,0,0,0,0,0,0,0,0,0,-1,1329,1415,0,0
112,-391,0,0,0,0,0,0,0,0,0,-1,1336,1415,0,0
119,-391,0,0,0,0,0,0,0,0,0,-1,1343,1415,0,0
126,-391,0,0,0,0,0,0,0,0,0,-1,1350,1415,0,0
133,-391,0,0,0,0,0,0,0,0,0,-1,1357,1415,0,0
140,-391,0,0,0,0,0,0,0,0,0,-1,1364,1415,0,0
147,-391,0,0,0,0,0,0,0,0,0,-1,1371,1415,0,0
154,-391,0,0,0,0,0,0,0,0,0,-1,1378,1415,0,0
161,-391,0,0,0,0,0,0,0,0,0,-1,1385,1415,0,0
168,-391,0,0,0,0,0,0,0,0,0,-1,1392,1415,0,0
175,-391,0,0,0,0,0,0,0,0,0,-1,1399,1415,0,0
182,-391,0,0,0,0,0,0,0,0,0,-1,1406,1415,0,0
189,-391,0,0,0,0,0,0,0,0,0,-1,1413,1415,0,0
196,-391,0,0,0,0,0,0,0,0,0,-1,1420,1415,0,0
203,-391,0,0,0,0,0,0,0,0,0,-1,1427,1415,0,0
210,-391,0,0,0,0,0,0,0,0,0,-1,1434,1415,0,0
217,-391,0,0,0,0,0,0,0,0,0,-1,1441,1415,0,0
224,-391,0,0,0,0,0,0,0,0,0,-1,1448,1415,0,0
231,-391,0,0,0,0,0,0,0,0,0,-1,1455,1415,0,0
238,-391,0,0,0,0,0,0,0,0,0,-1,1462,1415,0,0
245,-391,0,0,0,0,0,0,0,0,0,-1,1469,1415,0,0
252,-391,0,0,0,0,0,0,0,0,0,-1,1476,1415,0,0
259,-391,0,0,0,0,0,0,0,0,0,-1,1483,1415,0,0
266,-391,0,0,0,0,0,0,0,0,0,-1,1490,1415,0,0
273,-391,0,0,0,0,0,0,0,0,0,-1,1497,1415,0,0
280,-391,0,0,0,0,0,0,0,0,0,-1,1504,1415,0,0
287,-391,0,0,0,0,0,0,0,0,0,-1,1511,1415,0,0
294,-391,0,0,0,0,0,0,0,0,0,-1,1518,1415,0,0
301,-391,0,0,0,0,0,0,0,0,0,-1,1525,1415,0,0
308,-391,0,0,0,0,0,0,0,0,0,-1,1532,1415,0,0
315,-391,0,0,0,0,0,0,0,0,0,-1,1539,1415,0,0
322,-391,0,0,0,0,0,0,0,0,0,-1,1546,1415,0,0
329,-391,0,0,0,0,0,0,0,0,0,-1,1553,1415,0,0
336,-391,0,0,0,0,0,0,0,0,0,-1,1560,1415,0,0
343,-391,0,0,0,0,0,0,0,0,0,-1,1567,1415,0,0
350,-391,0,0,0,0,0,0,0,0,0,-1,1574,1415,0,0
357,-391,0,0,0,0,0,0,0,0,0,-1,1581,1415,0,0
364,-391,0,0,0,0,0,0,0,0,0,-1,1588,1415,0,0
371,-391,0,0,0,0,0,0,0,0,0,-1,1595,1415,0,0
378,-391,0,0,0,0,0,0,0,0,0,-1,1602,1415,0,0
385,-391,0,0,0,0,0,0,0,0,0,-1,1609,1415,0,0
392,-391,0,0,0,0,0,0,0,0,0,-1,1616,1415,0,0
399,-391,0,0,0,0,0,0,0,0,0,-1,1623,1415,0,0
406,-391,0,0,0,0,0,0,0,0,0,-1,1630,1415,0,0
413,-391,0,0,0,0,0,0,0,0,0,-1,1637,1415,0,0
420,-391,0,0,0,0,0,0,0,0,0,-1,1644,1415,0,0
427,-391,0,0,0,0,0,0,0,0,0,-1,1651,1415,0,0
434,-391,0,0,0,0,0,0,0,0,0,-1,1658,1415,0,0
441,-391,0,0,0,0,0,0,0,0,0,-1,1665,1415,0,0
448,-391,0,0,0,0,0,0,0,0,0,-1,1672,1415,0,0
455,-391,0,0,0,0,0,0,0,0,0,-1,1679,1415,0,0
462,-391,0,0,0,0,0,0,0,0,0,-1,1686,1415,0,0
469,-391,0,0,0,0,0,0,0,0,0,-1,1693,1415,0,0
476,-391,0,0,0,0,0,0,0,0,0,-1,1700,1415,0,0
483,-391,0,0,0,0,0,0,0,0,0,-1,1707,1415,0,0
490,-391,0,0,0,0,0,0,0,0,0,-1,1714,1415,0,0
497,-391,0,0,0,0,0,0,0,0,0,-1,1721,1415,0,0
504,-391,0,0,0,0,0,0,0,0,0,-1,1728,1415,0,0
511,-391,0,0,0,0,0,0,0,0,0,-1,1735,1415,0,0
518,-391,0,0,0,0,0,0,0,0,0,-1,1742,1415,0,0
525,-391,0,0,0,0,0,0,0,0,0,-1,1749,1415,0,0
532,-391,28.5959,3.02356,0,0,0,0,0,0,0,-1,1756,1415,28.596,-3.02358
539,-391,27.5881,3.25012,0,0,0,0,0,0,0,-1,1763,1415,27.5882,-3.25016
546,-391,27.2837,3.28064,0,0,0,0,0,0,0,-1,1770,1415,27.2837,-3.28064
553,-391,32.5952,5.04553,0,0,0,0,0,0,0,-1,1777,1415,32.5952,-5.04551
560,-391,31.2947,5.67017,0,0,0,0,0,0,0,-1,1784,1415,31.2947,-5.67011
567,-391,30.1473,6.17603,0,0,0,0,0,0,0,-1,1791,1415,30.1473,-6.17602
574,-391,27.5656,5.6842,0,0,0,0,0,0,0,-1,1798,1415,27.5655,-5.68422
581,-391,25.8883,5.76123,0,0,0,0,0,0,0,-1,1805,1415,25.8883,-5.76124
588,-391,24.2717,5.47986,0,0,0,0,0,0,0,-1,1812,1415,24.2717,-5.47982
595,-391,22.8827,6.1991,0,0,0,0,0,0,0,-1,1819,1415,22.8827,-6.19909
602,-391,15.1635,5.69849,0,0,0,0,0,0,0,-1,1826,1415,15.1635,-5.69847
609,-391,14.8285,7.50476,0,0,0,0,0,0,0,-1,1833,1415,14.8285,-7.50479
616,-391,20.7952,12.0503,0,0,0,0,0,0,0,-1,1840,1415,20.7952,-12.0503
623,-391,24.9878,13.8929,0,0,0,0,0,0,0,-1,1847,1415,24.9878,-13.8929
630,-391,25.2068,13.3436,0.00138397,0.00036085,-0.000859663,0.00187277,-0.000127946,-0.517004,0.00129327,0.0368637,1854,1415,25.2067,-13.3437
637,-391,25.082,13.0002,0.00103516,0.000232972,-0.00065192,0.00139949,-0.000131359,-0.50962,0.00097972,0.0157766,1861,1415,25.0821,-13.0002
644,-391,25.0415,12.5377,0.000796018,0.000164097,-0.000390741,0.000982561,-2.24462e-05,-0.445411,0.000662649,0.0160604,1868,1415,25.0415,-12.5378
651,-391,25.0509,12.0714,0.00070729,-7.49387e-05,-1.34633e-05,0.000707521,-7.51704e-05,-0.0172047,0.00049863,0.0169698,1875,1415,25.051,-12.0715
658,-391,25.0338,11.6016,0.00071163,-0.000365275,0.000417926,0.000854788,-0.000508433,0.330018,0.000795479,0.017545,1882,1415,25.0339,-11.6016
665,-391,25.0264,11.1622,0.000814924,-0.000819376,0.000978475,0.00127259,-0.00127704,0.437501,0.00147203,0.0143861,1889,1415,25.0264,-11.1622
672,-391,25.0198,10.7012,0.000995146,-0.00143309,0.00167887,0.0018529,-0.00229085,0.472342,0.00239685,0.0124305,1896,1415,25.0198,-10.7011
679,-391,25.0012,10.2377,0.00124472,-0.00226877,0.0025496,0.00258419,-0.00360825,0.483736,0.00359147,0.0118924,1903,1415,25.0013,-10.2377
686,-391,25.0127,9.81812,0.00147873,-0.00347473,0.00372737,0.00347721,-0.00547321,0.492157,0.00521018,0.0140178,1910,1415,25.0128,-9.81808
693,-391,24.9834,9.49731,0.00177355,-0.00500236,0.00508196,0.00449334,-0.00772215,0.491398,0.00713427,0.0343822,1917,1415,24.9834,-9.49728
700,-391,25.0035,9.15698,0,0,0,0,0,0,0,-1,1924,1415,25.0035,-9.15698
707,-391,12.9524,5.96851,0,0,0,0,0,0,0,-1,1931,1415,12.9524,-5.96849
714,-391,15.6875,7.67896,0,0,0,0,0,0,0,-1,1938,1415,15.6875,-7.67893
721,-391,14.1808,8.08435,0,0,0,0,0,0,0,-1,1945,1415,14.1808,-8.08439
728,-391,13.8102,7.28174,0,0,0,0,0,0,0,-1,1952,1415,13.8102,-7.28174
735,-391,0,0,0,0,0,0,0,0,0,-1,1959,1415,0,0
742,-391,0,0,0,0,0,0,0,0,0,-1,1966,1415,0,0
749,-391,0,0,0,0,0,0,0,0,0,-1,1973,1415,0,0
756,-391,0,0,0,0,0,0,0,0,0,-1,1980,1415,0,0
763,-391,0,0,0,0,0,0,0,0,0,-1,1987,1415,0,0
770,-391,0,0,0,0,0,0,0,0,0,-1,1994,1415,0,0
777,-391,0,0,0,0,0,0,0,0,0,-1,2001,1415,0,0
784,-391,0,0,0,0,0,0,0,0,0,-1,2008,1415,0,0
791,-391,0,0,0,0,0,0,0,0,0,-1,2015,1415,0,0
798,-391,0,0,0,0,0,0,0,0,0,-1,2022,1415,0,0
805,-391,0,0,0,0,0,0,0,0,0,-1,2029,1415,0,0
812,-391,0,0,0,0,0,0,0,0,0,-1,2036,1415,0,0
-700,-398,0,0,0,0,0,0,0,0,0,-1,524,1422,0,0
-693,-398,0,0,0,0,0,0,0,0,0,-1,531,1422,0,0
-686,-398,0,0,0,0,0,0,0,0,0,-1,538,1422,0,0
-679,-398,0,0,0,0,0,0,0,0,0,-1,545,1422,0,0
-672,-398,0,0,0,0,0,0,0,0,0,-1,552,1422,0,0
-665,-398,0,0,0,0,0,0,0,0,0,-1,559,1422,0,0
-658,-398,0,0,0,0,0,0,0,0,0,-1,566,1422,0,0
-651,-398,0,0,0,0,0,0,0,0,0,-1,573,1422,0,0
-644,-398,0,0,0,0,0,0,0,0,0,-1,580,1422,0,0
-637,-398,0,0,0,0,0,0,0,0,0,-1,587,1422,0,0
-630,-398,0,0,0,0,0,0,0,0,0,-1,594,1422,0,0
-623,-398,0,0,0,0,0,0,0,0,0,-1,601,1422,0,0
-616,-398,0,0,0,0,0,0,0,0,0,-1,608,1422,0,0
-609,-398,-7.47125,-4.05322,0,0,0,0,0,0,0,-1,615,1422,-7.47128,4.05317
-602,-398,-4.58868,-2.77026,0,0,0,0,0,0,0,-1,622,1422,-4.58869,2.77023
-595,-398,-12.2224,-1.82007,0,0,0,0,0,0,0,-1,629,1422,-12.2224,1.82006
-588,-398,-10.6939,1.32336,0,0,0,0,0,0,0,-1,636,1422,-10.6939,-1.32337
-581,-398,-10.433,3.1123,0,0,0,0,0,0,0,-1,643,1422,-10.433,-3.11233
-574,-398,-11.4554,6.24683,0,0,0,0,0,0,0,-1,650,1422,-11.4554,-6.24677
-567,-398,-9.34833,4.58203,0,0,0,0,0,0,0,-1,657,1422,-9.34833,-4.58202
-560,-398,-10.3855,7.37732,0,0,0,0,0,0,0,-1,664,1422,-10.3855,-7.37728
-553,-398,-11.0266,7.59546,0,0,0,0,0,0,0,-1,671,1422,-11.0266,-7.5955
-546,-398,-10.9977,8.21411,-0.00396255,0.000404404,-0.00159568,0.000925328,-0.00448347,-1.25525,0.00334042,0.0245927,678,1422,-10.9977,-8.21406
-539,-398,-10.9235,8.78613,-0.00224837,0.000175226,-0.00104519,0.000563703,-0.00263685,-1.21494,0.00197283,0.0118454,685,1422,-10.9235,-8.7861
-532,-398,-10.9389,9.29053,-0.000977252,7.65472e-05,-0.000594785,0.00034425,-0.00124495,-1.14787,0.0009654,0.0197565,692,1422,-10.9389,-9.29048
-525,-398,-10.9666,9.76343,0.000117819,0.000193301,-8.38411e-05,0.000247504,6.36156e-05,-0.996888,0.000148414,0.0197629,699,1422,-10.9666,-9.76337
-518,-398,-10.9835,10.24,0.00115778,0.000560998,0.00055333,0.00148804,0.00023073,0.538118,0.000924765,0.0182939,706,1422,-10.9835,-10.2399
-511,-398,-11.0059,10.7094,0.00232592,0.00115998,0.00141772,0.00327585,0.000210054,0.590335,0.00211736,0.0145228,713,1422,-11.0059,-10.7094
-504,-398,-11.0245,11.2375,0.00347822,0.00204672,0.00241147,0.00527792,0.000247018,0.641134,0.00343923,0.0147434,720,1422,-11.0245,-11.2375
-497,-398,-11.0469,11.7261,0.00489825,0.00322052,0.00371561,0.00786851,0.000250262,0.674376,0.00516428,0.0101249,727,1422,-11.0468,-11.726
-490,-398,-11.046,12.2167,0.00679994,0.00483876,0.00544974,0.0113566,0.000282096,0.696384,0.00747881,0.0172005,734,1422,-11.046,-12.2167
-483,-398,-11.0144,12.7321,0,0,0,0,0,0,0,-1,741,1422,-11.0144,-12.7321
-476,-398,-8.64392,11.9448,0,0,0,0,0,0,0,-1,748,1422,-8.6439,-11.9448
-469,-398,-8.91699,10.6276,0,0,0,0,0,0,0,-1,755,1422,-8.91697,-10.6275
-462,-398,-9.59753,9.32532,0,0,0,0,0,0,0,-1,762,1422,-9.59753,-9.32531
-455,-398,-8.08331,6.75024,0,0,0,0,0,0,0,-1,769,1422,-8.08333,-6.75022
-448,-398,-7.4505,5.25293,0,0,0,0,0,0,0,-1,776,1422,-7.4505,-5.25291
-441,-398,-7.61639,3.32141,0,0,0,0,0,0,0,-1,783,1422,-7.61637,-3.32145
-434,-398,-10.7618,3.297,0,0,0,0,0,0,0,-1,790,1422,-10.7618,-3.29704
-427,-398,-11.9061,2.24939,0,0,0,0,0,0,0,-1,797,1422,-11.9061,-2.24941
-420,-398,-13.467,2.32788,0,0,0,0,0,0,0,-1,804,1422,-13.467,-2.32787
-413,-398,-14.7983,2.15515,0,0,0,0,0,0,0,-1,811,1422,-14.7983,-2.15516
-406,-398,0,0,0,0,0,0,0,0,0,-1,818,1422,0,0
-399,-398,0,0,0,0,0,0,0,0,0,-1,825,1422,0,0
-392,-398,0,0,0,0,0,0,0,0,0,-1,832,1422,0,0
-385,-398,0,0,0,0,0,0,0,0,0,-1,839,1422,0,0
-378,-398,0,0,0,0,0,0,0,0,0,-1,846,1422,0,0
-371,-398,0,0,0,0,0,0,0,0,0,-1,853,1422,0,0
-364,-398,0,0,0,0,0,0,0,0,0,-1,860,1422,0,0
-357,-398,0,0,0,0,0,0,0,0,0,-1,867,1422,0,0
-350,-398,0,0,0,0,0,0,0,0,0,-1,874,1422,0,0
-343,-398,0,0,0,0,0,0,0,0,0,-1,881,1422,0,0
-336,-398,0,0,0,0,0,0,0,0,0,-1,888,1422,0,0
-329,-398,0,0,0,0,0,0,0,0,0,-1,895,1422,0,0
-322,-398,0,0,0,0,0,0,0,0,0,-1,902,1422,0,0
-315,-398,0,0,0,0,0,0,0,0,0,-1,909,1422,0,0
-308,-398,0,0,0,0,0,0,0,0,0,-1,916,1422,0,0
-301,-398,0,0,0,0,0,0,0,0,0,-1,923,1422,0,0
-294,-398,0,0,0,0,0,0,0,0,0,-1,930,1422,0,0
-287,-398,0,0,0,0,0,0,0,0,0,-1,937,1422,0,0
-280,-398,0,0,0,0,0,0,0,0,0,-1,944,1422,0,0
-273,-398,0,0,0,0,0,0,0,0,0,-1,951,1422,0,0
-266,-398,0,0,0,0,0,0,0,0,0,-1,958,1422,0,0
-259,-398,0,0,0,0,0,0,0,0,0,-1,965,1422,0,0
-252,-398,0,0,0,0,0,0,0,0,0,-1,972,1422,0,0
-245,-398,0,0,0,0,0,0,0,0,0,-1,979,1422,0,0
-238,-398,0,0,0,0,0,0,0,0,0,-1,986,1422,0,0
-231,-398,0,0,0,0,0,0,0,0,0,-1,993,1422,0,0
-224,-398,0,0,0,0,0,0,0,0,0,-1,1000,1422,0,0
-217,-398,0,0,0,0,0,0,0,0,0,-1,1007,1422,0,0
-210,-398,0,0,0,0,0,0,0,0,0,-1,1014,1422,0,0
-203,-398,0,0,0,0,0,0,0,0,0,-1,1021,1422,0,0
-196,-398,0,0,0,0,0,0,0,0,0,-1,1028,1422,0,0
-189,-398,0,0,0,0,0,0,0,0,0,-1,1035,1422,0,0
-182,-398,0,0,0,0,0,0,0,0,0,-1,1042,1422,0,0
-175,-398,0,0,0,0,0,0,0,0,0,-1,1049,1422,0,0
-168,-398,0,0,0,0,0,0,0,0,0,-1,1056,1422,0,0
-161,-398,0,0,0,0,0,0,0,0,0,-1,1063,1422,0,0
-154,-398,0,0,0,0,0,0,0,0,0,-1,1070,1422,0,0
-147,-398,0,0,0,0,0,0,0,0,0,-1,1077,1422,0,0
-140,-398,0,0,0,0,0,0,0,0,0,-1,1084,1422,0,0
-133,-398,0,0,0,0,0,0,0,0,0,-1,1091,1422,0,0
-126,-398,0,0,0,0,0,0,0,0,0,-1,1098,1422,0,0
-119,-398,0,0,0,0,0,0,0,0,0,-1,1105,1422,0,0
-112,-398,0,0,0,0,0,0,0,0,0,-1,1112,1422,0,0
-105,-398,0,0,0,0,0,0,0,0,0,-1,1119,1422,0,0
-98,-398,0,0,0,0,0,0,0,0,0,-1,1126,1422,0,0
-91,-398,0,0,0,0,0,0,0,0,0,-1,1133,1422,0,0
-84,-398,0,0,0,0,0,0,0,0,0,-1,1140,1422,0,0
-77,-398,0,0,0,0,0,0,0,0,0,-1,1147,1422,0,0
-70,-398,0,0,0,0,0,0,0,0,0,-1,1154,1422,0,0
-63,-398,0,0,0,0,0,0,0,0,0,-1,1161,1422,0,0
-56,-398,0,0,0,0,0,0,0,0,0,-1,1168,1422,0,0
-49,-398,0,0,0,0,0,0,0,0,0,-1,1175,1422,0,0
-42,-398,0,0,0,0,0,0,0,0,0,-1,1182,1422,0,0
-35,-398,0,0,0,0,0,0,0,0,0,-1,1189,1422,0,0
-28,-398,0,0,0,0,0,0,0,0,0,-1,1196,1422,0,0
-21,-398,0,0,0,0,0,0,0,0,0,-1,1203,1422,0,0
-14,-398,0,0,0,0,0,0,0,0,0,-1,1210,1422,0,0
-7,-398,0,0,0,0,0,0,0,0,0,-1,1217,1422,0,0
0,-398,0,0,0,0,0,0,0,0,0,-1,1224,1422,0,0
7,-398,0,0,0,0,0,0,0,0,0,-1,1231,1422,0,0
14,-398,0,0,0,0,0,0,0,0,0,-1,1238,1422,0,0
21,-398,0,0,0,0,0,0,0,0,0,-1,1245,1422,0,0
28,-398,0,0,0,0,0,0,0,0,0,-1,1252,1422,0,0
35,-398,0,0,0,0,0,0,0,0,0,-1,1259,1422,0,0
42,-398,0,0,0,0,0,0,0,0,0,-1,1266,1422,0,0
49,-398,0,0,0,0,0,0,0,0,0,-1,1273,1422,0,0
56,-398,0,0,0,0,0,0,0,0,0,-1,1280,1422,0,0
63,-398,0,0,0,0,0,0,0,0,0,-1,1287,1422,0,0
70,-398,0,0,0,0,0,0,0,0,0,-1,1294,1422,0,0
77,-398,0,0,0,0,0,0,0,0,0,-1,1301,1422,0,0
84,-398,0,0,0,0,0,0,0,0,0,-1,1308,1422,0,0
91,-398,0,0,0,0,0,0,0,0,0,-1,1315,1422,0,0
98,-398,0,0,0,0,0,0,0,0,0,-1,1322,1422,0,0
105,-398,0,0,0,0,0,0,0,0,0,-1,1329,1422,0,0
112,-398,0,0,0,0,0,0,0,0,0,-1,1336,1422,0,0
119,-398,0,0,0,0,0,0,0,0,0,-1,1343,1422,0,0
126,-398,0,0,0,0,0,0,0,0,0,-1,1350,1422,0,0
133,-398,0,0,0,0,0,0,0,0,0,-1,1357,1422,0,0
140,-398,0,0,0,0,0,0,0,0,0,-1,1364,1422,0,0
147,-398,0,0,0,0,0,0,0,0,0,-1,1371,1422,0,0
154,-398,0,0,0,0,0,0,0,0,0,-1,1378,1422,0,0
161,-398,0,0,0,0,0,0,0,0,0,-1,1385,1422,0,0
168,-398,0,0,0,0,0,0,0,0,0,-1,1392,1422,0,0
175,-398,0,0,0,0,0,0,0,0,0,-1,1399,1422,0,0
182,-398,0,0,0,0,0,0,0,0,0,-1,1406,1422,0,0
189,-398,0,0,0,0,0,0,0,0,0,-1,1413,1422,0,0
196,-398,0,0,0,0,0,0,0,0,0,-1,1420,1422,0,0
203,-398,0,0,0,0,0,0,0,0,0,-1,1427,1422,0,0
210,-398,0,0,0,0,0,0,0,0,0,-1,1434,1422,0,0
217,-398,0,0,0,0,0,0,0,0,0,-1,1441,1422,0,0
224,-398,0,0,0,0,0,0,0,0,0,-1,1448,1422,0,0
231,-398,0,0,0,0,0,0,0,0,0,-1,1455,1422,0,0
238,-398,0,0,0,0,0,0,0,0,0,-1,1462,1422,0,0
245,-398,0,0,0,0,0,0,0,0,0,-1,1469,1422,0,0
252,-398,0,0,0,0,0,0,0,0,0,-1,1476,1422,0,0
259,-398,0,0,0,0,0,0,0,0,0,-1,1483,1422,0,0
266,-398,0,0,0,0,0,0,0,0,0,-1,1490,1422,0,0
273,-398,0,0,0,0,0,0,0,0,0,-1,1497,1422,0,0
280,-398,0,0,0,0,0,0,0,0,0,-1,1504,1422,0,0
287,-398,0,0,0,0,0,0,0,0,0,-1,1511,1422,0,0
294,-398,0,0,0,0,0,0,0,0,0,-1,1518,1422,0,0
301,-398,0,0,0,0,0,0,0,0,0,-1,1525,1422,0,0
308,-398,0,0,0,0,0,0,0,0,0,-1,1532,1422,0,0
315,-398,0,0,0,0,0,0,0,0,0,-1,1539,1422,0,0
322,-398,0,0,0,0,0,0,0,0,0,-1,1546,1422,0,0
329,-398,0,0,0,0,0,0,0,0,0,-1,1553,1422,0,0
336,-398,0,0,0,0,0,0,0,0,0,-1,1560,1422,0,0
343,-398,0,0,0,0,0,0,0,0,0,-1,1567,1422,0,0
350,-398,0,0,0,0,0,0,0,0,0,-1,1574,1422,0,0
357,-398,0,0,0,0,0,0,0,0,0,-1,1581,1422,0,0
364,-398,0,0,0,0,0,0,0,0,0,-1,1588,1422,0,0
371,-398,0,0,0,0,0,0,0,0,0,-1,1595,1422,0,0
378,-398,0,0,0,0,0,0,0,0,0,-1,1602,1422,0,0
385,-398,0,0,0,0,0,0,0,0,0,-1,1609,1422,0,0
392,-398,0,0,0,0,0,0,0,0,0,-1,1616,1422,0,0
399,-398,0,0,0,0,0,0,0,0,0,-1,1623,1422,0,0
406,-398,0,0,0,0,0,0,0,0,0,-1,1630,1422,0,0
413,-398,0,0,0,0,0,0,0,0,0,-1,1637,1422,0,0
420,-398,0,0,0,0,0,0,0,0,0,-1,1644,1422,0,0
427,-398,0,0,0,0,0,0,0,0,0,-1,1651,1422,0,0
434,-398,0,0,0,0,0,0,0,0,0,-1,1658,1422,0,0
441,-398,0,0,0,0,0,0,0,0,0,-1,1665,1422,0,0
448,-398,0,0,0,0,0,0,0,0,0,-1,1672,1422,0,0
455,-398,0,0,0,0,0,0,0,0,0,-1,1679,1422,0,0
462,-398,0,0,0,0,0,0,0,0,0,-1,1686,1422,0,0
469,-398,0,0,0,0,0,0,0,0,0,-1,1693,1422,0,0
476,-398,0,0,0,0,0,0,0,0,0,-1,1700,1422,0,0
483,-398,0,0,0,0,0,0,0,0,0,-1,1707,1422,0,0
490,-398,0,0,0,0,0,0,0,0,0,-1,1714,1422,0,0
497,-398,0,0,0,0,0,0,0,0,0,-1,1721,1422,0,0
504,-398,0,0,0,0,0,0,0,0,0,-1,1728,1422,0,0
511,-398,0,0,0,0,0,0,0,0,0,-1,1735,1422,0,0
518,-398,0,0,0,0,0,0,0,0,0,-1,1742,1422,0,0
525,-398,0,0,0,0,0,0,0,0,0,-1,1749,1422,0,0
532,-398,28.4558,3.84094,0,0,0,0,0,0,0,-1,1756,1422,28.4558,-3.8409
539,-398,27.0594,3.33887,0,0,0,0,0,0,0,-1,1763,1422,27.0595,-3.3389
546,-398,31.6873,5.58582,0,0,0,0,0,0,0,-1,1770,1422,31.6872,-5.58585
553,-398,30.4392,5.92383,0,0,0,0,0,0,0,-1,1777,1422,30.4392,-5.92386
560,-398,29.1621,6.30469,0,0,0,0,0,0,0,-1,1784,1422,29.1621,-6.30469
567,-398,27.8411,6.55029,0,0,0,0,0,0,0,-1,1791,1422,27.8411,-6.55033
574,-398,26.411,6.8916,0,0,0,0,0,0,0,-1,1798,1422,26.411,-6.8916
581,-398,24.75,7.11145,0,0,0,0,0,0,0,-1,1805,1422,24.7499,-7.11142
588,-398,23.1649,7.67969,0,0,0,0,0,0,0,-1,1812,1422,23.1649,-7.67975
595,-398,21.4253,7.86023,0,0,0,0,0,0,0,-1,1819,1422,21.4253,-7.86029
602,-398,19.6857,8.04077,0,0,0,0,0,0,0,-1,1826,1422,19.6856,-8.04083
609,-398,21.1835,13.2628,0,0,0,0,0,0,0,-1,1833,1422,21.1835,-13.2628
616,-398,24.2454,14.7324,0,0,0,0,0,0,0,-1,1840,1422,24.2454,-14.7324
623,-398,24.6284,13.9103,0.00220846,0.000601719,-0.00113916,0.00279903,1.11441e-05,-0.478284,0.00186232,0.0311501,1847,1422,24.6284,-13.9103
630,-398,24.6604,13.4216,0.00148222,0.000306115,-0.000726075,0.00182851,-4.01727e-05,-0.445022,0.00123261,0.0141468,1854,1422,24.6603,-13.4216
637,-398,24.6353,12.9918,0.00109621,0.000139338,-0.000479714,0.00129529,-5.97409e-05,-0.393367,0.000884111,0.0142529,1861,1422,24.6353,-12.9918
644,-398,24.568,12.5342,0.000855539,1.95223e-05,-0.00020628,0.000903667,-2.8605e-05,-0.22921,0.000612202,0.0201218,1868,1422,24.5679,-12.5342
651,-398,24.5985,12.1686,0.000788919,-0.000184547,0.000125795,0.000804912,-0.00020054,0.126457,0.000614462,0.0281528,1875,1422,24.5985,-12.1685
658,-398,24.6064,11.7018,0.000780277,-0.000436542,0.000525885,0.000976055,-0.00063232,0.356386,0.000935638,0.0239541,1882,1422,24.6064,-11.7018
665,-398,24.5762,11.191,0.000848881,-0.000864544,0.0010811,0.00137157,-0.00138723,0.45034,0.0015928,0.015643,1889,1422,24.5762,-11.1911
672,-398,24.5533,10.7308,0.00096075,-0.00147228,0.0018215,0.00193462,-0.00244615,0.490983,0.00253498,0.0129819,1896,1422,24.5533,-10.7309
679,-398,24.5344,10.2808,0.00110034,-0.00239665,0.00282066,0.00267049,-0.00396679,0.50794,0.00385632,0.0122798,1903,1422,24.5345,-10.2808
686,-398,24.5657,9.85303,0.00112146,-0.00380919,0.00427815,0.00359379,-0.00628152,0.524008,0.00577147,0.0192053,1910,1422,24.5657,-9.85298
693,-398,24.4076,9.71484,0.00108997,-0.00565774,0.00603824,0.004633,-0.00920076,0.53063,0.00813076,0.0499276,1917,1422,24.4076,-9.71487
700,-398,24.2488,9.66223,0,0,0,0,0,0,0,-1,1924,1422,24.2488,-9.66229
707,-398,10.9731,5.479,0,0,0,0,0,0,0,-1,1931,1422,10.9732,-5.47896
714,-398,11.7313,6.17346,0,0,0,0,0,0,0,-1,1938,1422,11.7313,-6.17348
721,-398,13.9371,8.05103,0,0,0,0,0,0,0,-1,1945,1422,13.9372,-8.05102
728,-398,14.786,7.0282,0,0,0,0,0,0,0,-1,1952,1422,14.786,-7.0282
735,-398,0,0,0,0,0,0,0,0,0,-1,1959,1422,0,0
742,-398,0,0,0,0,0,0,0,0,0,-1,1966,1422,0,0
749,-398,0,0,0,0,0,0,0,0,0,-1,1973,1422,0,0
756,-398,0,0,0,0,0,0,0,0,0,-1,1980,1422,0,0
763,-398,0,0,0,0,0,0,0,0,0,-1,1987,1422,0,0
770,-398,0,0,0,0,0,0,0,0,0,-1,1994,1422,0,0
777,-398,0,0,0,0,0,0,0,0,0,-1,2001,1422,0,0
784,-398,0,0,0,0,0,0,0,0,0,-1,2008,1422,0,0
791,-398,0,0,0,0,0,0,0,0,0,-1,2015,1422,0,0
798,-398,0,0,0,0,0,0,0,0,0,-1,2022,1422,0,0
805,-398,0,0,0,0,0,0,0,0,0,-1,2029,1422,0,0
812,-398,0,0,0,0,0,0,0,0,0,-1,2036,1422,0,0
-700,-405,0,0,0,0,0,0,0,0,0,-1,524,1429,0,0
-693,-405,0,0,0,0,0,0,0,0,0,-1,531,1429,0,0
-686,-405,0,0,0,0,0,0,0,0,0,-1,538,1429,0,0
-679,-405,0,0,0,0,0,0,0,0,0,-1,545,1429,0,0
-672,-405,0,0,0,0,0,0,0,0,0,-1,552,1429,0,0
-665,-405,0,0,0,0,0,0,0,0,0,-1,559,1429,0,0
-658,-405,0,0,0,0,0,0,0,0,0,-1,566,1429,0,0
-651,-405,0,0,0,0,0,0,0,0,0,-1,573,1429,0,0
-644,-405,0,0,0,0,0,0,0,0,0,-1,580,1429,0,0
-637,-405,0,0,0,0,0,0,0,0,0,-1,587,1429,0,0
-630,-405,0,0,0,0,0,0,0,0,0,-1,594,1429,0,0
-623,-405,0,0,0,0,0,0,0,0,0,-1,601,1429,0,0
-616,-405,0,0,0,0,0,0,0,0,0,-1,608,1429,0,0
-609,-405,0,0,0,0,0,0,0,0,0,-1,615,1429,0,0
-602,-405,-5.80988,-3.46594,0,0,0,0,0,0,0,-1,622,1429,-5.80987,3.46592
-595,-405,-9.35413,2.01477,0,0,0,0,0,0,0,-1,629,1429,-9.35411,-2.01476
-588,-405,-7.35693,0.507202,0,0,0,0,0,0,0,-1,636,1429,-7.35696,-0.507187
-581,-405,-10.1284,1.62927,0,0,0,0,0,0,0,-1,643,1429,-10.1284,-1.62922
-574,-405,-9.32074,3.05896,0,0,0,0,0,0,0,-1,650,1429,-9.32077,-3.0589
-567,-405,-10.358,6.85962,0,0,0,0,0,0,0,-1,657,1429,-10.358,-6.85962
-560,-405,-9.28674,7.20886,0,0,0,0,0,0,0,-1,664,1429,-9.28675,-7.20885
-553,-405,-10.5108,7.63953,0,0,0,0,0,0,0,-1,671,1429,-10.5108,-7.63951
-546,-405,-10.4924,8.1947,-0.00450732,0.000338409,-0.00181869,0.000945053,-0.00511396,-1.24884,0.00376408,0.0383528,678,1429,-10.4924,-8.19475
-539,-405,-10.4697,8.7384,-0.00272368,0.000119626,-0.00125901,0.00059697,-0.00320103,-1.2084,0.00235833,0.0118126,685,1429,-10.4697,-8.73845
-532,-405,-10.475,9.23743,-0.00148278,-4.05043e-06,-0.000849279,0.000382611,-0.00186944,-1.14356,0.00139148,0.0151114,692,1429,-10.475,-9.23742
-525,-405,-10.4876,9.75781,-0.000445628,6.62419e-05,-0.000397923,0.00028343,-0.000662816,-1.07118,0.000560761,0.0149891,699,1429,-10.4876,-9.75784
-518,-405,-10.4866,10.2556,0.000536648,0.000402041,0.000194439,0.000675103,0.000263586,0.618781,0.000392878,0.0160328,706,1429,-10.4865,-10.2556
-511,-405,-10.5156,10.7378,0.00166535,0.00095145,0.00101583,0.00238512,0.000231678,0.616443,0.00151876,0.0162675,713,1429,-10.5156,-10.7377
-504,-405,-10.5208,11.2305,0.00275472,0.00180909,0.00194745,0.00428593,0.000277881,0.666309,0.00276931,0.0167374,720,1429,-10.5208,-11.2304
-497,-405,-10.5187,11.7485,0.00408516,0.00293877,0.00317866,0.00674189,0.000282044,0.696194,0.00440359,0.0137926,727,1429,-10.5187,-11.7485
-490,-405,-10.5665,12.2467,0.00585672,0.0044953,0.00481817,0.010042,0.000309987,0.715223,0.00659379,0.0123932,734,1429,-10.5665,-12.2467
-483,-405,-10.4948,12.8052,0.00790495,0.00645794,0.00681953,0.0140393,0.000323644,0.732549,0.00925351,0.0213012,741,1429,-10.4948,-12.8051
-476,-405,-10.3454,13.5328,0,0,0,0,0,0,0,-1,748,1429,-10.3454,-13.5329
-469,-405,-9.65692,12.8171,0,0,0,0,0,0,0,-1,755,1429,-9.65691,-12.8172
-462,-405,-9.14862,11.3597,0,0,0,0,0,0,0,-1,762,1429,-9.14865,-11.3597
-455,-405,-9.021,9.51111,0,0,0,0,0,0,0,-1,769,1429,-9.021,-9.51109
-448,-405,-8.4649,6.82813,0,0,0,0,0,0,0,-1,776,1429,-8.46492,-6.82817
-441,-405,-6.6712,4.23767,0,0,0,0,0,0,0,-1,783,1429,-6.67121,-4.23764
-434,-405,-9.62549,3.94189,0,0,0,0,0,0,0,-1,790,1429,-9.62546,-3.94191
-427,-405,-10.9764,3.73926,0,0,0,0,0,0,0,-1,797,1429,-10.9764,-3.73923
-420,-405,-12.1187,3.68506,0,0,0,0,0,0,0,-1,804,1429,-12.1187,-3.68512
-413,-405,-13.5353,3.75659,0,0,0,0,0,0,0,-1,811,1429,-13.5353,-3.75655
-406,-405,-14.7374,3.99817,0,0,0,0,0,0,0,-1,818,1429,-14.7374,-3.99814
-399,-405,0,0,0,0,0,0,0,0,0,-1,825,1429,0,0
-392,-405,0,0,0,0,0,0,0,0,0,-1,832,1429,0,0
-385,-405,0,0,0,0,0,0,0,0,0,-1,839,1429,0,0
-378,-405,0,0,0,0,0,0,0,0,0,-1,846,1429,0,0
-371,-405,0,0,0,0,0,0,0,0,0,-1,853,1429,0,0
-364,-405,0,0,0,0,0,0,0,0,0,-1,860,1429,0,0
-357,-405,0,0,0,0,0,0,0,0,0,-1,867,1429,0,0
-350,-405,0,0,0,0,0,0,0,0,0,-1,874,1429,0,0
-343,-405,0,0,0,0,0,0,0,0,0,-1,881,1429,0,0
-336,-405,0,0,0,0,0,0,0,0,0,-1,888,1429,0,0
-329,-405,0,0,0,0,0,0,0,0,0,-1,895,1429,0,0
-322,-405,0,0,0,0,0,0,0,0,0,-1,902,1429,0,0
-315,-405,0,0,0,0,0,0,0,0,0,-1,909,1429,0,0
-308,-405,0,0,0,0,0,0,0,0,0,-1,916,1429,0,0
-301,-405,0,0,0,0,0,0,0,0,0,-1,923,1429,0,0
-294,-405,0,0,0,0,0,0,0,0,0,-1,930,1429,0,0
-287,-405,0,0,0,0,0,0,0,0,0,-1,937,1429,0,0
-280,-405,0,0,0,0,0,0,0,0,0,-1,944,1429,0,0
-273,-405,0,0,0,0,0,0,0,0,0,-1,951,1429,0,0
-266,-405,0,0,0,0,0,0,0,0,0,-1,958,1429,0,0
-259,-405,0,0,0,0,0,0,0,0,0,-1,965,1429,0,0
-252,-405,0,0,0,0,0,0,0,0,0,-1,972,1429,0,0
-245,-405,0,0,0,0,0,0,0,0,0,-1,979,1429,0,0
-238,-405,0,0,0,0,0,0,0,0,0,-1,986,1429,0,0
-231,-405,0,0,0,0,0,0,0,0,0,-1,993,1429,0,0
-224,-405,0,0,0,0,0,0,0,0,0,-1,1000,1429,0,0
-217,-405,0,0,0,0,0,0,0,0,0,-1,1007,1429,0,0
-210,-405,0,0,0,0,0,0,0,0,0,-1,1014,1429,0,0
-203,-405,0,0,0,0,0,0,0,0,0,-1,1021,1429,0,0
-196,-405,0,0,0,0,0,0,0,0,0,-1,1028,1429,0,0
-189,-405,0,0,0,0,0,0,0,0,0,-1,1035,1429,0,0
-182,-405,0,0,0,0,0,0,0,0,0,-1,1042,1429,0,0
-175,-405,0,0,0,0,0,0,0,0,0,-1,1049,1429,0,0
-168,-405,0,0,0,0,0,0,0,0,0,-1,1056,1429,0,0
-161,-405,0,0,0,0,0,0,0,0,0,-1,1063,1429,0,0
-154,-405,0,0,0,0,0,0,0,0,0,-1,1070,1429,0,0
-147,-405,0,0,0,0,0,0,0,0,0,-1,1077,1429,0,0
-140,-405,0,0,0,0,0,0,0,0,0,-1,1084,1429,0,0
-133,-405,0,0,0,0,0,0,0,0,0,-1,1091,1429,0,0
-126,-405,0,0,0,0,0,0,0,0,0,-1,1098,1429,0,0
-119,-405,0,0,0,0,0,0,0,0,0,-1,1105,1429,0,0
-112,-405,0,0,0,0,0,0,0,0,0,-1,1112,1429,0,0
-105,-405,0,0,0,0,0,0,0,0,0,-1,1119,1429,0,0
-98,-405,0,0,0,0,0,0,0,0,0,-1,1126,1429,0,0
-91,-405,0,0,0,0,0,0,0,0,0,-1,1133,1429,0,0
-84,-405,0,0,0,0,0,0,0,0,0,-1,1140,1429,0,0
-77,-405,0,0,0,0,0,0,0,0,0,-1,1147,1429,0,0
-70,-405,0,0,0,0,0,0,0,0,0,-1,1154,1429,0,0
-63,-405,0,0,0,0,0,0,0,0,0,-1,1161,1429,0,0
-56,-405,0,0,0,0,0,0,0,0,0,-1,1168,1429,0,0
-49,-405,0,0,0,0,0,0,0,0,0,-1,1175,1429,0,0
-42,-405,0,0,0,0,0,0,0,0,0,-1,1182,1429,0,0
-35,-405,0,0,0,0,0,0,0,0,0,-1,1189,1429,0,0
-28,-405,0,0,0,0,0,0,0,0,0,-1,1196,1429,0,0
-21,-405,0,0,0,0,0,0,0,0,0,-1,1203,1429,0,0
-14,-405,0,0,0,0,0,0,0,0,0,-1,1210,1429,0,0
-7,-405,0,0,0,0,0,0,0,0,0,-1,1217,1429,0,0
0,-405,0,0,0,0,0,0,0,0,0,-1,1224,1429,0,0
7,-405,0,0,0,0,0,0,0,0,0,-1,1231,1429,0,0
14,-405,0,0,0,0,0,0,0,0,0,-1,1238,1429,0,0
21,-405,0,0,0,0,0,0,0,0,0,-1,1245,1429,0,0
28,-405,0,0,0,0,0,0,0,0,0,-1,1252,1429,0,0
35,-405,0,0,0,0,0,0,0,0,0,-1,1259,1429,0,0
42,-405,0,0,0,0,0,0,0,0,0,-1,1266,1429,0,0
49,-405,0,0,0,0,0,0,0,0,0,-1,1273,1429,0,0
56,-405,0,0,0,0,0,0,0,0,0,-1,1280,1429,0,0
63,-405,0,0,0,0,0,0,0,0,0,-1,1287,1429,0,0
70,-405,0,0,0,0,0,0,0,0,0,-1,1294,1429,0,0
77,-405,0,0,0,0,0,0,0,0,0,-1,1301,1429,0,0
84,-405,0,0,0,0,0,0,0,0,0,-1,1308,1429,0,0
91,-405,0,0,0,0,0,0,0,0,0,-1,1315,1429,0,0
98,-405,0,0,0,0,0,0,0,0,0,-1,1322,1429,0,0
105,-405,0,0,0,0,0,0,0,0,0,-1,1329,1429,0,0
112,-405,0,0,0,0,0,0,0,0,0,-1,1336,1429,0,0
119,-405,0,0,0,0,0,0,0,0,0,-1,1343,1429,0,0
126,-405,0,0,0,0,0,0,0,0,0,-1,1350,1429,0,0
133,-405,0,0,0,0,0,0,0,0,0,-1,1357,1429,0,0
140,-405,0,0,0,0,0,0,0,0,0,-1,1364,1429,0,0
147,-405,0,0,0,0,0,0,0,0,0,-1,1371,1429,0,0
154,-405,0,0,0,0,0,0,0,0,0,-1,1378,1429,0,0
161,-405,0,0,0,0,0,0,0,0,0,-1,1385,1429,0,0
168,-405,0,0,0,0,0,0,0,0,0,-1,1392,1429,0,0
175,-405,0,0,0,0,0,0,0,0,0,-1,1399,1429,0,0
182,-405,0,0,0,0,0,0,0,0,0,-1,1406,1429,0,0
189,-405,0,0,0,0,0,0,0,0,0,-1,1413,1429,0,0
196,-405,0,0,0,0,0,0,0,0,0,-1,1420,1429,0,0
203,-405,0,0,0,0,0,0,0,0,0,-1,1427,1429,0,0
210,-405,0,0,0,0,0,0,0,0,0,-1,1434,1429,0,0
217,-405,0,0,0,0,0,0,0,0,0,-1,1441,1429,0,0
224,-405,0,0,0,0,0,0,0,0,0,-1,1448,1429,0,0
231,-405,0,0,0,0,0,0,0,0,0,-1,1455,1429,0,0
238,-405,0,0,0,0,0,0,0,0,0,-1,1462,1429,0,0
245,-405,0,0,0,0,0,0,0,0,0,-1,1469,1429,0,0
252,-405,0,0,0,0,0,0,0,0,0,-1,1476,1429,0,0
259,-405,0,0,0,0,0,0,0,0,0,-1,1483,1429,0,0
266,-405,0,0,0,0,0,0,0,0,0,-1,1490,1429,0,0
273,-405,0,0,0,0,0,0,0,0,0,-1,1497,1429,0,0
280,-405,0,0,0,0,0,0,0,0,0,-1,1504,1429,0,0
287,-405,0,0,0,0,0,0,0,0,0,-1,1511,1429,0,0
294,-405,0,0,0,0,0,0,0,0,0,-1,1518,1429,0,0
301,-405,0,0,0,0,0,0,0,0,0,-1,1525,1429,0,0
308,-405,0,0,0,0,0,0,0,0,0,-1,1532,1429,0,0
315,-405,0,0,0,0,0,0,0,0,0,-1,1539,1429,0,0
322,-405,0,0,0,0,0,0,0,0,0,-1,1546,1429,0,0
329,-405,0,0,0,0,0,0,0,0,0,-1,1553,1429,0,0
336,-405,0,0,0,0,0,0,0,0,0,-1,1560,1429,0,0
343,-405,0,0,0,0,0,0,0,0,0,-1,1567,1429,0,0
350,-405,0,0,0,0,0,0,0,0,0,-1,1574,1429,0,0
357,-405,0,0,0,0,0,0,0,0,0,-1,1581,1429,0,0
364,-405,0,0,0,0,0,0,0,0,0,-1,1588,1429,0,0
371,-405,0,0,0,0,0,0,0,0,0,-1,1595,1429,0,0
378,-405,0,0,0,0,0,0,0,0,0,-1,1602,1429,0,0
385,-405,0,0,0,0,0,0,0,0,0,-1,1609,1429,0,0
392,-405,0,0,0,0,0,0,0,0,0,-1,1616,1429,0,0
399,-405,0,0,0,0,0,0,0,0,0,-1,1623,1429,0,0
406,-405,0,0,0,0,0,0,0,0,0,-1,1630,1429,0,0
413,-405,0,0,0,0,0,0,0,0,0,-1,1637,1429,0,0
420,-405,0,0,0,0,0,0,0,0,0,-1,1644,1429,0,0
427,-405,0,0,0,0,0,0,0,0,0,-1,1651,1429,0,0
434,-405,0,0,0,0,0,0,0,0,0,-1,1658,1429,0,0
441,-405,0,0,0,0,0,0,0,0,0,-1,1665,1429,0,0
448,-405,0,0,0,0,0,0,0,0,0,-1,1672,1429,0,0
455,-405,0,0,0,0,0,0,0,0,0,-1,1679,1429,0,0
462,-405,0,0,0,0,0,0,0,0,0,-1,1686,1429,0,0
469,-405,0,0,0,0,0,0,0,0,0,-1,1693,1429,0,0
476,-405,0,0,0,0,0,0,0,0,0,-1,1700,1429,0,0
483,-405,0,0,0,0,0,0,0,0,0,-1,1707,1429,0,0
490,-405,0,0,0,0,0,0,0,0,0,-1,1714,1429,0,0
497,-405,0,0,0,0,0,0,0,0,0,-1,1721,1429,0,0
504,-405,0,0,0,0,0,0,0,0,0,-1,1728,1429,0,0
511,-405,0,0,0,0,0,0,0,0,0,-1,1735,1429,0,0
518,-405,0,0,0,0,0,0,0,0,0,-1,1742,1429,0,0
525,-405,31.1563,-1.40942,0,0,0,0,0,0,0,-1,1749,1429,31.1563,1.40937
532,-405,28.156,4.8783,0,0,0,0,0,0,0,-1,1756,1429,28.1561,-4.87833
539,-405,26.5133,3.02454,0,0,0,0,0,0,0,-1,1763,1429,26.5133,-3.0246
546,-405,29.5735,6.53052,0,0,0,0,0,0,0,-1,1770,1429,29.5735,-6.53049
553,-405,28.2911,6.70654,0,0,0,0,0,0,0,-1,1777,1429,28.2912,-6.70656
560,-405,26.9299,7.08472,0,0,0,0,0,0,0,-1,1784,1429,26.9299,-7.08469
567,-405,25.804,7.14661,0,0,0,0,0,0,0,-1,1791,1429,25.8039,-7.14665
574,-405,25.1151,8.07971,0,0,0,0,0,0,0,-1,1798,1429,25.1151,-8.07965
581,-405,23.5055,8.505,0,0,0,0,0,0,0,-1,1805,1429,23.5054,-8.50501
588,-405,21.7491,8.98254,0,0,0,0,0,0,0,-1,1812,1429,21.7491,-8.98254
595,-405,21.6327,10.7795,0,0,0,0,0,0,0,-1,1819,1429,21.6327,-10.7796
602,-405,21.6461,13.9199,0,0,0,0,0,0,0,-1,1826,1429,21.6461,-13.92
609,-405,23.8915,15.0747,0,0,0,0,0,0,0,-1,1833,1429,23.8915,-15.0747
616,-405,24.1061,14.5328,0.00329488,0.00137501,-0.00175494,0.00433527,0.000334624,-0.535134,0.00278535,0.0314766,1840,1429,24.1061,-14.5328
623,-405,24.1519,13.9806,0.0022956,0.000758715,-0.00115681,0.00291594,0.000138373,-0.492226,0.00189952,0.0123765,1847,1429,24.1518,-13.9805
630,-405,24.1749,13.4774,0.00167246,0.000397112,-0.000773152,0.00203698,3.25921e-05,-0.440566,0.00134725,0.0111941,1854,1429,24.1749,-13.4774
637,-405,24.172,12.9995,0.00127993,0.000166607,-0.000498581,0.00147057,-2.40299e-05,-0.365207,0.000988484,0.011483,1861,1429,24.172,-12.9995
644,-405,24.0979,12.5709,0.0010281,-2.525e-05,-0.000203265,0.00106596,-6.31131e-05,-0.184164,0.000732584,0.0293837,1868,1429,24.0979,-12.5709
651,-405,24.0774,12.2029,0.000950896,-0.000220321,0.000106502,0.000960501,-0.000229927,0.0899496,0.000729162,0.0339261,1875,1429,24.0773,-12.2029
658,-405,24.1099,11.7053,0.00090191,-0.000453135,0.000501236,0.00106717,-0.00061839,0.318473,0.000984586,0.0237688,1882,1429,24.1099,-11.7053
665,-405,24.0846,11.1952,0.000907201,-0.000854606,0.00106683,0.00140982,-0.00135722,0.440285,0.00159765,0.017731,1889,1429,24.0846,-11.1952
672,-405,24.0829,10.7262,0.000911253,-0.00143287,0.00185447,0.001933,-0.00245462,0.503582,0.00253915,0.0219104,1896,1429,24.0828,-10.7262
679,-405,24.1174,10.3153,0.000887861,-0.00242715,0.00299344,0.00265205,-0.00419134,0.532553,0.00398421,0.0213392,1903,1429,24.1175,-10.3153
686,-405,23.9952,9.91736,0.000608686,-0.00402529,0.00476514,0.00359028,-0.00700689,0.55911,0.00622337,0.03861,1910,1429,23.9953,-9.91737
693,-405,23.8735,9.92627,0,0,0,0,0,0,0,-1,1917,1429,23.8736,-9.92623
700,-405,9.1958,4.02026,0,0,0,0,0,0,0,-1,1924,1429,9.19579,-4.02025
707,-405,7.40308,3.83191,0,0,0,0,0,0,0,-1,1931,1429,7.40311,-3.83194
714,-405,7.33252,3.47388,0,0,0,0,0,0,0,-1,1938,1429,7.33255,-3.47383
721,-405,9.23523,0.993896,0,0,0,0,0,0,0,-1,1945,1429,9.23523,-0.993884
728,-405,0,0,0,0,0,0,0,0,0,-1,1952,1429,0,0
735,-405,0,0,0,0,0,0,0,0,0,-1,1959,1429,0,0
742,-405,0,0,0,0,0,0,0,0,0,-1,1966,1429,0,0
749,-405,0,0,0,0,0,0,0,0,0,-1,1973,1429,0,0
756,-405,0,0,0,0,0,0,0,0,0,-1,1980,1429,0,0
763,-405,0,0,0,0,0,0,0,0,0,-1,1987,1429,0,0
770,-405,0,0,0,0,0,0,0,0,0,-1,1994,1429,0,0
777,-405,0,0,0,0,0,0,0,0,0,-1,2001,1429,0,0
784,-405,0,0,0,0,0,0,0,0,0,-1,2008,1429,0,0
791,-405,0,0,0,0,0,0,0,0,0,-1,2015,1429,0,0
798,-405,0,0,0,0,0,0,0,0,0,-1,2022,1429,0,0
805,-405,0,0,0,0,0,0,0,0,0,-1,2029,1429,0,0
812,-405,0,0,0,0,0,0,0,0,0,-1,2036,1429,0,0
-700,-412,0,0,0,0,0,0,0,0,0,-1,524,1436,0,0
-693,-412,0,0,0,0,0,0,0,0,0,-1,531,1436,0,0
-686,-412,0,0,0,0,0,0,0,0,0,-1,538,1436,0,0
-679,-412,0,0,0,0,0,0,0,0,0,-1,545,1436,0,0
-672,-412,0,0,0,0,0,0,0,0,0,-1,552,1436,0,0
-665,-412,0,0,0,0,0,0,0,0,0,-1,559,1436,0,0
-658,-412,0,0,0,0,0,0,0,0,0,-1,566,1436,0,0
-651,-412,0,0,0,0,0,0,0,0,0,-1,573,1436,0,0
-644,-412,0,0,0,0,0,0,0,0,0,-1,580,1436,0,0
-637,-412,0,0,0,0,0,0,0,0,0,-1,587,1436,0,0
-630,-412,0,0,0,0,0,0,0,0,0,-1,594,1436,0,0
-623,-412,0,0,0,0,0,0,0,0,0,-1,601,1436,0,0
-616,-412,0,0,0,0,0,0,0,0,0,-1,608,1436,0,0
-609,-412,0,0,0,0,0,0,0,0,0,-1,615,1436,0,0
-602,-412,-3.72766,-3.50012,0,0,0,0,0,0,0,-1,622,1436,-3.72764,3.50017
-595,-412,-10.3706,0.65564,0,0,0,0,0,0,0,-1,629,1436,-10.3706,-0.655672
-588,-412,-8.17957,1.94934,0,0,0,0,0,0,0,-1,636,1436,-8.17956,-1.94939
-581,-412,-6.60065,-0.0554199,0,0,0,0,0,0,0,-1,643,1436,-6.60063,0.0554733
-574,-412,-8.34131,5.25012,0,0,0,0,0,0,0,-1,650,1436,-8.34129,-5.25012
-567,-412,-7.50354,3.65454,0,0,0,0,0,0,0,-1,657,1436,-7.50356,-3.65452
-560,-412,-8.52448,7.39014,0,0,0,0,0,0,0,-1,664,1436,-8.52447,-7.39019
-553,-412,-7.36761,6.54651,0,0,0,0,0,0,0,-1,671,1436,-7.36763,-6.54654
-546,-412,-9.97424,8.21777,0,0,0,0,0,0,0,-1,678,1436,-9.97427,-8.21776
-539,-412,-9.94531,8.69482,-0.00298643,0.0023452,-0.000511431,0.00239381,-0.00303505,-1.47602,0.00314163,0.022549,685,1436,-9.94531,-8.69484
-532,-412,-9.97498,9.27588,-0.00187022,0.00182964,-0.000283214,0.00185119,-0.00189177,-1.49484,0.00216104,0.0141201,692,1436,-9.97497,-9.27587
-525,-412,-9.99109,9.79285,-0.000973407,0.00143616,-6.07352e-05,0.00143769,-0.000974937,-1.54561,0.00140145,0.0155681,699,1436,-9.99106,-9.79288
-518,-412,-9.9931,10.2726,-0.00011267,0.00128683,0.000301357,0.00134897,-0.000174803,1.36747,0.000962882,0.0163221,706,1436,-9.99309,-10.2726
-511,-412,-10.0181,10.7563,0.000906946,0.00134994,0.000879165,0.00203508,0.000221804,0.9088,0.00128916,0.0194199,713,1436,-10.018,-10.7564
-504,-412,-10.0389,11.2289,0.00189883,0.00173608,0.00157001,0.00338958,0.000245338,0.759506,0.00218254,0.0183279,720,1436,-10.0389,-11.2289
-497,-412,-10.0396,11.7708,0.00311963,0.00240087,0.00254377,0.00532928,0.000191222,0.715223,0.00349086,0.014101,727,1436,-10.0396,-11.7708
-490,-412,-10.0713,12.2699,0.00471783,0.00350437,0.00388991,0.00804804,0.00017415,0.708034,0.00530826,0.0123603,734,1436,-10.0713,-12.2699
-483,-412,-10.0794,12.7343,0.00660633,0.00499774,0.00557394,0.0114337,0.000170368,0.713745,0.00756632,0.00953767,741,1436,-10.0794,-12.7343
-476,-412,-9.9364,13.4441,0.00891912,0.00707924,0.00775906,0.0158126,0.000185773,0.726392,0.0104803,0.0298077,748,1436,-9.93641,-13.444
-469,-412,-9.82416,14.2539,0,0,0,0,0,0,0,-1,755,1436,-9.82416,-14.2539
-462,-412,-8.94659,13.3385,0,0,0,0,0,0,0,-1,762,1436,-8.94657,-13.3385
-455,-412,-8.25006,11.2572,0,0,0,0,0,0,0,-1,769,1436,-8.25007,-11.2572
-448,-412,-7.38086,8.78186,0,0,0,0,0,0,0,-1,776,1436,-7.38088,-8.78183
-441,-412,-8.79523,9.05286,0,0,0,0,0,0,0,-1,783,1436,-8.79521,-9.0529
-434,-412,-10.6305,8.03577,0,0,0,0,0,0,0,-1,790,1436,-10.6305,-8.0358
-427,-412,-10.0004,5.15271,0,0,0,0,0,0,0,-1,797,1436,-10.0004,-5.15266
-420,-412,-10.4468,4.9043,0,0,0,0,0,0,0,-1,804,1436,-10.4468,-4.90429
-413,-412,-11.5704,4.97766,0,0,0,0,0,0,0,-1,811,1436,-11.5704,-4.97771
-406,-412,-13.1968,5.70093,0,0,0,0,0,0,0,-1,818,1436,-13.1968,-5.70096
-399,-412,-10.5506,0.771973,0,0,0,0,0,0,0,-1,825,1436,-10.5506,-0.771954
-392,-412,0,0,0,0,0,0,0,0,0,-1,832,1436,0,0
-385,-412,0,0,0,0,0,0,0,0,0,-1,839,1436,0,0
-378,-412,0,0,0,0,0,0,0,0,0,-1,846,1436,0,0
-371,-412,0,0,0,0,0,0,0,0,0,-1,853,1436,0,0
-364,-412,0,0,0,0,0,0,0,0,0,-1,860,1436,0,0
-357,-412,0,0,0,0,0,0,0,0,0,-1,867,1436,0,0
-350,-412,0,0,0,0,0,0,0,0,0,-1,874,1436,0,0
-343,-412,0,0,0,0,0,0,0,0,0,-1,881,1436,0,0
-336,-412,0,0,0,0,0,0,0,0,0,-1,888,1436,0,0
-329,-412,0,0,0,0,0,0,0,0,0,-1,895,1436,0,0
-322,-412,0,0,0,0,0,0,0,0,0,-1,902,1436,0,0
-315,-412,0,0,0,0,0,0,0,0,0,-1,909,1436,0,0
-308,-412,0,0,0,0,0,0,0,0,0,-1,916,1436,0,0
-301,-412,0,0,0,0,0,0,0,0,0,-1,923,1436,0,0
-294,-412,0,0,0,0,0,0,0,0,0,-1,930,1436,0,0
-287,-412,0,0,0,0,0,0,0,0,0,-1,937,1436,0,0
-280,-412,0,0,0,0,0,0,0,0,0,-1,944,1436,0,0
-273,-412,0,0,0,0,0,0,0,0,0,-1,951,1436,0,0
-266,-412,0,0,0,0,0,0,0,0,0,-1,958,1436,0,0
-259,-412,0,0,0,0,0,0,0,0,0,-1,965,1436,0,0
-252,-412,0,0,0,0,0,0,0,0,0,-1,972,1436,0,0
-245,-412,0,0,0,0,0,0,0,0,0,-1,979,1436,0,0
-238,-412,0,0,0,0,0,0,0,0,0,-1,986,1436,0,0
-231,-412,0,0,0,0,0,0,0,0,0,-1,993,1436,0,0
-224,-412,0,0,0,0,0,0,0,0,0,-1,1000,1436,0,0
-217,-412,0,0,0,0,0,0,0,0,0,-1,1007,1436,0,0
-210,-412,0,0,0,0,0,0,0,0,0,-1,1014,1436,0,0
-203,-412,0,0,0,0,0,0,0,0,0,-1,1021,1436,0,0
-196,-412,0,0,0,0,0,0,0,0,0,-1,1028,1436,0,0
-189,-412,0,0,0,0,0,0,0,0,0,-1,1035,1436,0,0
-182,-412,0,0,0,0,0,0,0,0,0,-1,1042,1436,0,0
-175,-412,0,0,0,0,0,0,0,0,0,-1,1049,1436,0,0
-168,-412,0,0,0,0,0,0,0,0,0,-1,1056,1436,0,0
-161,-412,0,0,0,0,0,0,0,0,0,-1,1063,1436,0,0
-154,-412,0,0,0,0,0,0,0,0,0,-1,1070,1436,0,0
-147,-412,0,0,0,0,0,0,0,0,0,-1,1077,1436,0,0
-140,-412,0,0,0,0,0,0,0,0,0,-1,1084,1436,0,0
-133,-412,0,0,0,0,0,0,0,0,0,-1,1091,1436,0,0
-126,-412,0,0,0,0,0,0,0,0,0,-1,1098,1436,0,0
-119,-412,0,0,0,0,0,0,0,0,0,-1,1105,1436,0,0
-112,-412,0,0,0,0,0,0,0,0,0,-1,1112,1436,0,0
-105,-412,0,0,0,0,0,0,0,0,0,-1,1119,1436,0,0
-98,-412,0,0,0,0,0,0,0,0,0,-1,1126,1436,0,0
-91,-412,0,0,0,0,0,0,0,0,0,-1,1133,1436,0,0
-84,-412,0,0,0,0,0,0,0,0,0,-1,1140,1436,0,0
-77,-412,0,0,0,0,0,0,0,0,0,-1,1147,1436,0,0
-70,-412,0,0,0,0,0,0,0,0,0,-1,1154,1436,0,0
-63,-412,0,0,0,0,0,0,0,0,0,-1,1161,1436,0,0
-56,-412,0,0,0,0,0,0,0,0,0,-1,1168,1436,0,0
-49,-412,0,0,0,0,0,0,0,0,0,-1,1175,1436,0,0
-42,-412,0,0,0,0,0,0,0,0,0,-1,1182,1436,0,0
-35,-412,0,0,0,0,0,0,0,0,0,-1,1189,1436,0,0
-28,-412,0,0,0,0,0,0,0,0,0,-1,1196,1436,0,0
-21,-412,0,0,0,0,0,0,0,0,0,-1,1203,1436,0,0
-14,-412,0,0,0,0,0,0,0,0,0,-1,1210,1436,0,0
-7,-412,0,0,0,0,0,0,0,0,0,-1,1217,1436,0,0
0,-412,0,0,0,0,0,0,0,0,0,-1,1224,1436,0,0
7,-412,0,0,0,0,0,0,0,0,0,-1,1231,1436,0,0
14,-412,0,0,0,0,0,0,0,0,0,-1,1238,1436,0,0
21,-412,0,0,0,0,0,0,0,0,0,-1,1245,1436,0,0
28,-412,0,0,0,0,0,0,0,0,0,-1,1252,1436,0,0
35,-412,0,0,0,0,0,0,0,0,0,-1,1259,1436,0,0
42,-412,0,0,0,0,0,0,0,0,0,-1,1266,1436,0,0
49,-412,0,0,0,0,0,0,0,0,0,-1,1273,1436,0,0
56,-412,0,0,0,0,0,0,0,0,0,-1,1280,1436,0,0
63,-412,0,0,0,0,0,0,0,0,0,-1,1287,1436,0,0
70,-412,0,0,0,0,0,0,0,0,0,-1,1294,1436,0,0
77,-412,0,0,0,0,0,0,0,0,0,-1,1301,1436,0,0
84,-412,0,0,0,0,0,0,0,0,0,-1,1308,1436,0,0
91,-412,0,0,0,0,0,0,0,0,0,-1,1315,1436,0,0
98,-412,0,0,0,0,0,0,0,0,0,-1,1322,1436,0,0
105,-412,0,0,0,0,0,0,0,0,0,-1,1329,1436,0,0
112,-412,0,0,0,0,0,0,0,0,0,-1,1336,1436,0,0
119,-412,0,0,0,0,0,0,0,0,0,-1,1343,1436,0,0
126,-412,0,0,0,0,0,0,0,0,0,-1,1350,1436,0,0
133,-412,0,0,0,0,0,0,0,0,0,-1,1357,1436,0,0
140,-412,0,0,0,0,0,0,0,0,0,-1,1364,1436,0,0
147,-412,0,0,0,0,0,0,0,0,0,-1,1371,1436,0,0
154,-412,0,0,0,0,0,0,0,0,0,-1,1378,1436,0,0
161,-412,0,0,0,0,0,0,0,0,0,-1,1385,1436,0,0
168,-412,0,0,0,0,0,0,0,0,0,-1,1392,1436,0,0
175,-412,0,0,0,0,0,0,0,0,0,-1,1399,1436,0,0
182,-412,0,0,0,0,0,0,0,0,0,-1,1406,1436,0,0
189,-412,0,0,0,0,0,0,0,0,0,-1,1413,1436,0,0
196,-412,0,0,0,0,0,0,0,0,0,-1,1420,1436,0,0
203,-412,0,0,0,0,0,0,0,0,0,-1,1427,1436,0,0
210,-412,0,0,0,0,0,0,0,0,0,-1,1434,1436,0,0
217,-412,0,0,0,0,0,0,0,0,0,-1,1441,1436,0,0
224,-412,0,0,0,0,0,0,0,0,0,-1,1448,1436,0,0
231,-412,0,0,0,0,0,0,0,0,0,-1,1455,1436,0,0
238,-412,0,0,0,0,0,0,0,0,0,-1,1462,1436,0,0
245,-412,0,0,0,0,0,0,0,0,0,-1,1469,1436,0,0
252,-412,0,0,0,0,0,0,0,0,0,-1,1476,1436,0,0
259,-412,0,0,0,0,0,0,0,0,0,-1,1483,1436,0,0
266,-412,0,0,0,0,0,0,0,0,0,-1,1490,1436,0,0
273,-412,0,0,0,0,0,0,0,0,0,-1,1497,1436,0,0
280,-412,0,0,0,0,0,0,0,0,0,-1,1504,1436,0,0
287,-412,0,0,0,0,0,0,0,0,0,-1,1511,1436,0,0
294,-412,0,0,0,0,0,0,0,0,0,-1,1518,1436,0,0
301,-412,0,0,0,0,0,0,0,0,0,-1,1525,1436,0,0
308,-412,0,0,0,0,0,0,0,0,0,-1,1532,1436,0,0
315,-412,0,0,0,0,0,0,0,0,0,-1,1539,1436,0,0
322,-412,0,0,0,0,0,0,0,0,0,-1,1546,1436,0,0
329,-412,0,0,0,0,0,0,0,0,0,-1,1553,1436,0,0
336,-412,0,0,0,0,0,0,0,0,0,-1,1560,1436,0,0
343,-412,0,0,0,0,0,0,0,0,0,-1,1567,1436,0,0
350,-412,0,0,0,0,0,0,0,0,0,-1,1574,1436,0,0
357,-412,0,0,0,0,0,0,0,0,0,-1,1581,1436,0,0
364,-412,0,0,0,0,0,0,0,0,0,-1,1588,1436,0,0
371,-412,0,0,0,0,0,0,0,0,0,-1,1595,1436,0,0
378,-412,0,0,0,0,0,0,0,0,0,-1,1602,1436,0,0
385,-412,0,0,0,0,0,0,0,0,0,-1,1609,1436,0,0
392,-412,0,0,0,0,0,0,0,0,0,-1,1616,1436,0,0
399,-412,0,0,0,0,0,0,0,0,0,-1,1623,1436,0,0
406,-412,0,0,0,0,0,0,0,0,0,-1,1630,1436,0,0
413,-412,0,0,0,0,0,0,0,0,0,-1,1637,1436,0,0
420,-412,0,0,0,0,0,0,0,0,0,-1,1644,1436,0,0
427,-412,0,0,0,0,0,0,0,0,0,-1,1651,1436,0,0
434,-412,0,0,0,0,0,0,0,0,0,-1,1658,1436,0,0
441,-412,0,0,0,0,0,0,0,0,0,-1,1665,1436,0,0
448,-412,0,0,0,0,0,0,0,0,0,-1,1672,1436,0,0
455,-412,0,0,0,0,0,0,0,0,0,-1,1679,1436,0,0
462,-412,0,0,0,0,0,0,0,0,0,-1,1686,1436,0,0
469,-412,0,0,0,0,0,0,0,0,0,-1,1693,1436,0,0
476,-412,0,0,0,0,0,0,0,0,0,-1,1700,1436,0,0
483,-412,0,0,0,0,0,0,0,0,0,-1,1707,1436,0,0
490,-412,0,0,0,0,0,0,0,0,0,-1,1714,1436,0,0
497,-412,0,0,0,0,0,0,0,0,0,-1,1721,1436,0,0
504,-412,0,0,0,0,0,0,0,0,0,-1,1728,1436,0,0
511,-412,0,0,0,0,0,0,0,0,0,-1,1735,1436,0,0
518,-412,30.1038,-2.43384,0,0,0,0,0,0,0,-1,1742,1436,30.1038,2.43383
525,-412,29.5283,-1.42493,0,0,0,0,0,0,0,-1,1749,1436,29.5283,1.42495
532,-412,28.8533,-0.386597,0,0,0,0,0,0,0,-1,1756,1436,28.8533,0.386632
539,-412,25.8654,2.74683,0,0,0,0,0,0,0,-1,1763,1436,25.8654,-2.74685
546,-412,25.4265,2.4342,0,0,0,0,0,0,0,-1,1770,1436,25.4265,-2.4342
553,-412,26.3595,7.49255,0,0,0,0,0,0,0,-1,1777,1436,26.3595,-7.4925
560,-412,24.9116,7.94324,0,0,0,0,0,0,0,-1,1784,1436,24.9116,-7.94327
567,-412,23.668,7.94531,0,0,0,0,0,0,0,-1,1791,1436,23.6679,-7.94534
574,-412,23.0142,9.17236,0,0,0,0,0,0,0,-1,1798,1436,23.0141,-9.17235
581,-412,22.2615,10.0349,0,0,0,0,0,0,0,-1,1805,1436,22.2615,-10.0349
588,-412,21.6893,10.8069,0,0,0,0,0,0,0,-1,1812,1436,21.6893,-10.8069
595,-412,21.5137,14.3157,0,0,0,0,0,0,0,-1,1819,1436,21.5137,-14.3157
602,-412,23.5045,15.4618,0,0,0,0,0,0,0,-1,1826,1436,23.5045,-15.4617
609,-412,23.6918,14.907,0.00414443,0.00244201,-0.00258343,0.00601326,0.000573168,-0.626255,0.0038321,0.0245698,1833,1436,23.6918,-14.9069
616,-412,23.7314,14.4144,0.00306474,0.00147825,-0.001742,0.00418561,0.00035739,-0.571746,0.00267923,0.0101947,1840,1436,23.7315,-14.4144
623,-412,23.699,13.9647,0.0022559,0.000909774,-0.00121127,0.00296854,0.000197127,-0.531807,0.0019167,0.00900282,1847,1436,23.699,-13.9647
630,-412,23.7017,13.4816,0.00174353,0.000515921,-0.000847602,0.00217624,8.32143e-05,-0.472017,0.0014239,0.0113986,1854,1436,23.7017,-13.4816
637,-412,23.71,13.0059,0.00138515,0.000246925,-0.000545523,0.00160438,2.7694e-05,-0.382119,0.00106048,0.0131487,1861,1436,23.7099,-13.0059
644,-412,23.7046,12.5754,0.00116135,3.02688e-06,-0.00023348,0.00120664,-4.22641e-05,-0.191603,0.000818876,0.0140646,1868,1436,23.7046,-12.5754
651,-412,23.709,12.1356,0.00111245,-0.000188447,5.58998e-05,0.00111485,-0.000190844,0.0428649,0.000814335,0.0255736,1875,1436,23.709,-12.1356
658,-412,23.6595,11.6666,0.00108934,-0.000411416,0.000429725,0.00120368,-0.000525753,0.260044,0.00102374,0.0173165,1882,1436,23.6596,-11.6666
665,-412,23.6162,11.1847,0.00109918,-0.000783541,0.000979717,0.0015165,-0.00120086,0.402681,0.00157239,0.020839,1889,1436,23.6162,-11.1847
672,-412,23.647,10.7394,0.00106798,-0.00131055,0.00176629,0.00200807,-0.00225064,0.489104,0.00246009,0.026431,1896,1436,23.647,-10.7394
679,-412,23.7185,10.318,0.000961546,-0.00235341,0.00297831,0.00271253,-0.00410439,0.531482,0.003963,0.0390715,1903,1436,23.7185,-10.318
686,-412,23.4933,9.89771,0,0,0,0,0,0,0,-1,1910,1436,23.4933,-9.89774
693,-412,11.9346,6.02344,0,0,0,0,0,0,0,-1,1917,1436,11.9346,-6.02343
700,-412,8.82764,5.8844,0,0,0,0,0,0,0,-1,1924,1436,8.82761,-5.88444
707,-412,6.59998,1.68994,0,0,0,0,0,0,0,-1,1931,1436,6.60002,-1.68995
714,-412,4.77283,-2.39832,0,0,0,0,0,0,0,-1,1938,1436,4.77288,2.39835
721,-412,0,0,0,0,0,0,0,0,0,-1,1945,1436,0,0
728,-412,0,0,0,0,0,0,0,0,0,-1,1952,1436,0,0
735,-412,0,0,0,0,0,0,0,0,0,-1,1959,1436,0,0
742,-412,0,0,0,0,0,0,0,0,0,-1,1966,1436,0,0
749,-412,0,0,0,0,0,0,0,0,0,-1,1973,1436,0,0
756,-412,0,0,0,0,0,0,0,0,0,-1,1980,1436,0,0
763,-412,0,0,0,0,0,0,0,0,0,-1,1987,1436,0,0
770,-412,0,0,0,0,0,0,0,0,0,-1,1994,1436,0,0
777,-412,0,0,0,0,0,0,0,0,0,-1,2001,1436,0,0
784,-412,0,0,0,0,0,0,0,0,0,-1,2008,1436,0,0
791,-412,0,0,0,0,0,0,0,0,0,-1,2015,1436,0,0
798,-412,0,0,0,0,0,0,0,0,0,-1,2022,1436,0,0
805,-412,0,0,0,0,0,0,0,0,0,-1,2029,1436,0,0
812,-412,0,0,0,0,0,0,0,0,0,-1,2036,1436,0,0
-700,-419,0,0,0,0,0,0,0,0,0,-1,524,1443,0,0
-693,-419,0,0,0,0,0,0,0,0,0,-1,531,1443,0,0
-686,-419,0,0,0,0,0,0,0,0,0,-1,538,1443,0,0
-679,-419,0,0,0,0,0,0,0,0,0,-1,545,1443,0,0
-672,-419,0,0,0,0,0,0,0,0,0,-1,552,1443,0,0
-665,-419,0,0,0,0,0,0,0,0,0,-1,559,1443,0,0
-658,-419,0,0,0,0,0,0,0,0,0,-1,566,1443,0,0
-651,-419,0,0,0,0,0,0,0,0,0,-1,573,1443,0,0
-644,-419,0,0,0,0,0,0,0,0,0,-1,580,1443,0,0
-637,-419,0,0,0,0,0,0,0,0,0,-1,587,1443,0,0
-630,-419,0,0,0,0,0,0,0,0,0,-1,594,1443,0,0
-623,-419,0,0,0,0,0,0,0,0,0,-1,601,1443,0,0
-616,-419,0,0,0,0,0,0,0,0,0,-1,608,1443,0,0
-609,-419,0,0,0,0,0,0,0,0,0,-1,615,1443,0,0
-602,-419,0,0,0,0,0,0,0,0,0,-1,622,1443,0,0
-595,-419,-11.4904,-0.622681,0,0,0,0,0,0,0,-1,629,1443,-11.4903,0.622714
-588,-419,-9.09369,0.742432,0,0,0,0,0,0,0,-1,636,1443,-9.09366,-0.742482
-581,-419,-6.39172,2.14673,0,0,0,0,0,0,0,-1,643,1443,-6.39175,-2.14668
-574,-419,-4.09772,3.54773,0,0,0,0,0,0,0,-1,650,1443,-4.09772,-3.54767
-567,-419,-6.14038,3.22498,0,0,0,0,0,0,0,-1,657,1443,-6.14037,-3.22497
-560,-419,-4.52814,5.22253,0,0,0,0,0,0,0,-1,664,1443,-4.52816,-5.22251
-553,-419,-5.08331,6.11829,0,0,0,0,0,0,0,-1,671,1443,-5.08331,-6.1183
-546,-419,-9.13574,8.33716,0,0,0,0,0,0,0,-1,678,1443,-9.13574,-8.33712
-539,-419,-9.2511,8.82056,-0.00341744,0.00393755,5.0807e-05,0.0039379,-0.0034178,1.56389,0.00425035,0.0479829,685,1443,-9.2511,-8.82059
-532,-419,-9.48907,9.28137,-0.00232333,0.00309401,0.000132192,0.00309724,-0.00232656,1.54641,0.00314195,0.0217768,692,1443,-9.48908,-9.28134
-525,-419,-9.46796,9.82239,-0.00147014,0.0023558,0.000184521,0.00236468,-0.00147901,1.52272,0.00223871,0.0134329,699,1443,-9.46798,-9.82233
-518,-419,-9.42755,10.296,-0.000640101,0.00189289,0.000396804,0.0019536,-0.000700808,1.41899,0.0015884,0.0169795,706,1443,-9.42756,-10.296
-511,-419,-9.46808,10.7749,0.000328034,0.00168777,0.000807894,0.00206379,-4.79936e-05,1.13518,0.00139214,0.019512,713,1443,-9.46807,-10.7748
-504,-419,-9.54468,11.2631,0.00128417,0.00184853,0.00136631,0.0029615,0.000171202,0.88723,0.00191981,0.019167,720,1443,-9.54468,-11.2631
-497,-419,-9.55109,11.7682,0.00245786,0.00231241,0.0021934,0.00457974,0.000190527,0.768826,0.00299167,0.0133443,727,1443,-9.5511,-11.7682
-490,-419,-9.55756,12.2727,0.00395205,0.00322106,0.00336122,0.00696758,0.000205527,0.731241,0.00457809,0.0111252,734,1443,-9.55755,-12.2727
-483,-419,-9.57635,12.756,0.00573429,0.00451756,0.00483918,0.0100032,0.000248654,0.722867,0.00658748,0.0092913,741,1443,-9.57638,-12.756
-476,-419,-9.56665,13.2925,0.00789623,0.00631186,0.00672724,0.0138778,0.000330323,0.726789,0.00914373,0.0133847,748,1443,-9.56665,-13.2925
-469,-419,-9.48859,13.9686,0.0107681,0.00872845,0.00921275,0.0190173,0.000479249,0.730274,0.0125215,0.0316915,755,1443,-9.48861,-13.9686
-462,-419,-9.31555,14.6311,0,0,0,0,0,0,0,-1,762,1443,-9.31552,-14.6312
-455,-419,-7.35645,11.9451,0,0,0,0,0,0,0,-1,769,1443,-7.35646,-11.9451
-448,-419,-7.49109,9.92444,0,0,0,0,0,0,0,-1,776,1443,-7.49109,-9.92442
-441,-419,-7.65527,8.75574,0,0,0,0,0,0,0,-1,783,1443,-7.65525,-8.75568
-434,-419,-11.3724,12.3643,0,0,0,0,0,0,0,-1,790,1443,-11.3724,-12.3643
-427,-419,-8.23193,7.89404,0,0,0,0,0,0,0,-1,797,1443,-8.23193,-7.89404
-420,-419,-8.74091,6.36597,0,0,0,0,0,0,0,-1,804,1443,-8.74089,-6.366
-413,-419,-9.88391,6.53955,0,0,0,0,0,0,0,-1,811,1443,-9.8839,-6.53955
-406,-419,-10.3372,2.75195,0,0,0,0,0,0,0,-1,818,1443,-10.3372,-2.75201
-399,-419,-11.5999,1.40002,0,0,0,0,0,0,0,-1,825,1443,-11.5999,-1.39998
-392,-419,0,0,0,0,0,0,0,0,0,-1,832,1443,0,0
-385,-419,0,0,0,0,0,0,0,0,0,-1,839,1443,0,0
-378,-419,0,0,0,0,0,0,0,0,0,-1,846,1443,0,0
-371,-419,0,0,0,0,0,0,0,0,0,-1,853,1443,0,0
-364,-419,0,0,0,0,0,0,0,0,0,-1,860,1443,0,0
-357,-419,0,0,0,0,0,0,0,0,0,-1,867,1443,0,0
-350,-419,0,0,0,0,0,0,0,0,0,-1,874,1443,0,0
-343,-419,0,0,0,0,0,0,0,0,0,-1,881,1443,0,0
-336,-419,0,0,0,0,0,0,0,0,0,-1,888,1443,0,0
-329,-419,0,0,0,0,0,0,0,0,0,-1,895,1443,0,0
-322,-419,0,0,0,0,0,0,0,0,0,-1,902,1443,0,0
-315,-419,0,0,0,0,0,0,0,0,0,-1,909,1443,0,0
-308,-419,0,0,0,0,0,0,0,0,0,-1,916,1443,0,0
-301,-419,0,0,0,0,0,0,0,0,0,-1,923,1443,0,0
-294,-419,0,0,0,0,0,0,0,0,0,-1,930,1443,0,0
-287,-419,0,0,0,0,0,0,0,0,0,-1,937,1443,0,0
-280,-419,0,0,0,0,0,0,0,0,0,-1,944,1443,0,0
-273,-419,0,0,0,0,0,0,0,0,0,-1,951,1443,0,0
-266,-419,0,0,0,0,0,0,0,0,0,-1,958,1443,0,0
-259,-419,0,0,0,0,0,0,0,0,0,-1,965,1443,0,0
-252,-419,0,0,0,0,0,0,0,0,0,-1,972,1443,0,0
-245,-419,0,0,0,0,0,0,0,0,0,-1,979,1443,0,0
-238,-419,0,0,0,0,0,0,0,0,0,-1,986,1443,0,0
-231,-419,0,0,0,0,0,0,0,0,0,-1,993,1443,0,0
-224,-419,0,0,0,0,0,0,0,0,0,-1,1000,1443,0,0
-217,-419,0,0,0,0,0,0,0,0,0,-1,1007,1443,0,0
-210,-419,0,0,0,0,0,0,0,0,0,-1,1014,1443,0,0
-203,-419,0,0,0,0,0,0,0,0,0,-1,1021,1443,0,0
-196,-419,0,0,0,0,0,0,0,0,0,-1,1028,1443,0,0
-189,-419,0,0,0,0,0,0,0,0,0,-1,1035,1443,0,0
-182,-419,0,0,0,0,0,0,0,0,0,-1,1042,1443,0,0
-175,-419,0,0,0,0,0,0,0,0,0,-1,1049,1443,0,0
-168,-419,0,0,0,0,0,0,0,0,0,-1,1056,1443,0,0
-161,-419,0,0,0,0,0,0,0,0,0,-1,1063,1443,0,0
-154,-419,0,0,0,0,0,0,0,0,0,-1,1070,1443,0,0
-147,-419,0,0,0,0,0,0,0,0,0,-1,1077,1443,0,0
-140,-419,0,0,0,0,0,0,0,0,0,-1,1084,1443,0,0
-133,-419,0,0,0,0,0,0,0,0,0,-1,1091,1443,0,0
-126,-419,0,0,0,0,0,0,0,0,0,-1,1098,1443,0,0
-119,-419,0,0,0,0,0,0,0,0,0,-1,1105,1443,0,0
-112,-419,0,0,0,0,0,0,0,0,0,-1,1112,1443,0,0
-105,-419,0,0,0,0,0,0,0,0,0,-1,1119,1443,0,0
-98,-419,0,0,0,0,0,0,0,0,0,-1,1126,1443,0,0
-91,-419,0,0,0,0,0,0,0,0,0,-1,1133,1443,0,0
-84,-419,0,0,0,0,0,0,0,0,0,-1,1140,1443,0,0
-77,-419,0,0,0,0,0,0,0,0,0,-1,1147,1443,0,0
-70,-419,0,0,0,0,0,0,0,0,0,-1,1154,1443,0,0
-63,-419,0,0,0,0,0,0,0,0,0,-1,1161,1443,0,0
-56,-419,0,0,0,0,0,0,0,0,0,-1,1168,1443,0,0
-49,-419,0,0,0,0,0,0,0,0,0,-1,1175,1443,0,0
-42,-419,0,0,0,0,0,0,0,0,0,-1,1182,1443,0,0
-35,-419,0,0,0,0,0,0,0,0,0,-1,1189,1443,0,0
-28,-419,0,0,0,0,0,0,0,0,0,-1,1196,1443,0,0
-21,-419,0,0,0,0,0,0,0,0,0,-1,1203,1443,0,0
-14,-419,0,0,0,0,0,0,0,0,0,-1,1210,1443,0,0
-7,-419,0,0,0,0,0,0,0,0,0,-1,1217,1443,0,0
0,-419,0,0,0,0,0,0,0,0,0,-1,1224,1443,0,0
7,-419,0,0,0,0,0,0,0,0,0,-1,1231,1443,0,0
14,-419,0,0,0,0,0,0,0,0,0,-1,1238,1443,0,0
21,-419,0,0,0,0,0,0,0,0,0,-1,1245,1443,0,0
28,-419,0,0,0,0,0,0,0,0,0,-1,1252,1443,0,0
35,-419,0,0,0,0,0,0,0,0,0,-1,1259,1443,0,0
42,-419,0,0,0,0,0,0,0,0,0,-1,1266,1443,0,0
49,-419,0,0,0,0,0,0,0,0,0,-1,1273,1443,0,0
56,-419,0,0,0,0,0,0,0,0,0,-1,1280,1443,0,0
63,-419,0,0,0,0,0,0,0,0,0,-1,1287,1443,0,0
70,-419,0,0,0,0,0,0,0,0,0,-1,1294,1443,0,0
77,-419,0,0,0,0,0,0,0,0,0,-1,1301,1443,0,0
84,-419,0,0,0,0,0,0,0,0,0,-1,1308,1443,0,0
91,-419,0,0,0,0,0,0,0,0,0,-1,1315,1443,0,0
98,-419,0,0,0,0,0,0,0,0,0,-1,1322,1443,0,0
105,-419,0,0,0,0,0,0,0,0,0,-1,1329,1443,0,0
112,-419,0,0,0,0,0,0,0,0,0,-1,1336,1443,0,0
119,-419,0,0,0,0,0,0,0,0,0,-1,1343,1443,0,0
126,-419,0,0,0,0,0,0,0,0,0,-1,1350,1443,0,0
133,-419,0,0,0,0,0,0,0,0,0,-1,1357,1443,0,0
140,-419,0,0,0,0,0,0,0,0,0,-1,1364,1443,0,0
147,-419,0,0,0,0,0,0,0,0,0,-1,1371,1443,0,0
154,-419,0,0,0,0,0,0,0,0,0,-1,1378,1443,0,0
161,-419,0,0,0,0,0,0,0,0,0,-1,1385,1443,0,0
168,-419,0,0,0,0,0,0,0,0,0,-1,1392,1443,0,0
175,-419,0,0,0,0,0,0,0,0,0,-1,1399,1443,0,0
182,-419,0,0,0,0,0,0,0,0,0,-1,1406,1443,0,0
189,-419,0,0,0,0,0,0,0,0,0,-1,1413,1443,0,0
196,-419,0,0,0,0,0,0,0,0,0,-1,1420,1443,0,0
203,-419,0,0,0,0,0,0,0,0,0,-1,1427,1443,0,0
210,-419,0,0,0,0,0,0,0,0,0,-1,1434,1443,0,0
217,-419,0,0,0,0,0,0,0,0,0,-1,1441,1443,0,0
224,-419,0,0,0,0,0,0,0,0,0,-1,1448,1443,0,0
231,-419,0,0,0,0,0,0,0,0,0,-1,1455,1443,0,0
238,-419,0,0,0,0,0,0,0,0,0,-1,1462,1443,0,0
245,-419,0,0,0,0,0,0,0,0,0,-1,1469,1443,0,0
252,-419,0,0,0,0,0,0,0,0,0,-1,1476,1443,0,0
259,-419,0,0,0,0,0,0,0,0,0,-1,1483,1443,0,0
266,-419,0,0,0,0,0,0,0,0,0,-1,1490,1443,0,0
273,-419,0,0,0,0,0,0,0,0,0,-1,1497,1443,0,0
280,-419,0,0,0,0,0,0,0,0,0,-1,1504,1443,0,0
287,-419,0,0,0,0,0,0,0,0,0,-1,1511,1443,0,0
294,-419,0,0,0,0,0,0,0,0,0,-1,1518,1443,0,0
301,-419,0,0,0,0,0,0,0,0,0,-1,1525,1443,0,0
308,-419,0,0,0,0,0,0,0,0,0,-1,1532,1443,0,0
315,-419,0,0,0,0,0,0,0,0,0,-1,1539,1443,0,0
322,-419,0,0,0,0,0,0,0,0,0,-1,1546,1443,0,0
329,-419,0,0,0,0,0,0,0,0,0,-1,1553,1443,0,0
336,-419,0,0,0,0,0,0,0,0,0,-1,1560,1443,0,0
343,-419,0,0,0,0,0,0,0,0,0,-1,1567,1443,0,0
350,-419,0,0,0,0,0,0,0,0,0,-1,1574,1443,0,0
357,-419,0,0,0,0,0,0,0,0,0,-1,1581,1443,0,0
364,-419,0,0,0,0,0,0,0,0,0,-1,1588,1443,0,0
371,-419,0,0,0,0,0,0,0,0,0,-1,1595,1443,0,0
378,-419,0,0,0,0,0,0,0,0,0,-1,1602,1443,0,0
385,-419,0,0,0,0,0,0,0,0,0,-1,1609,1443,0,0
392,-419,0,0,0,0,0,0,0,0,0,-1,1616,1443,0,0
399,-419,0,0,0,0,0,0,0,0,0,-1,1623,1443,0,0
406,-419,0,0,0,0,0,0,0,0,0,-1,1630,1443,0,0
413,-419,0,0,0,0,0,0,0,0,0,-1,1637,1443,0,0
420,-419,0,0,0,0,0,0,0,0,0,-1,1644,1443,0,0
427,-419,0,0,0,0,0,0,0,0,0,-1,1651,1443,0,0
434,-419,0,0,0,0,0,0,0,0,0,-1,1658,1443,0,0
441,-419,0,0,0,0,0,0,0,0,0,-1,1665,1443,0,0
448,-419,0,0,0,0,0,0,0,0,0,-1,1672,1443,0,0
455,-419,0,0,0,0,0,0,0,0,0,-1,1679,1443,0,0
462,-419,0,0,0,0,0,0,0,0,0,-1,1686,1443,0,0
469,-419,0,0,0,0,0,0,0,0,0,-1,1693,1443,0,0
476,-419,0,0,0,0,0,0,0,0,0,-1,1700,1443,0,0
483,-419,0,0,0,0,0,0,0,0,0,-1,1707,1443,0,0
490,-419,0,0,0,0,0,0,0,0,0,-1,1714,1443,0,0
497,-419,0,0,0,0,0,0,0,0,0,-1,1721,1443,0,0
504,-419,0,0,0,0,0,0,0,0,0,-1,1728,1443,0,0
511,-419,20.3005,3.7959,0,0,0,0,0,0,0,-1,1735,1443,20.3005,-3.79584
518,-419,21.3154,2.03027,0,0,0,0,0,0,0,-1,1742,1443,21.3155,-2.03029
525,-419,28.3439,-1.24475,0,0,0,0,0,0,0,-1,1749,1443,28.3438,1.24471
532,-419,27.5902,-0.272583,0,0,0,0,0,0,0,-1,1756,1443,27.5902,0.272526
539,-419,26.5278,1.60583,0,0,0,0,0,0,0,-1,1763,1443,26.5279,-1.60579
546,-419,24.9509,2.77539,0,0,0,0,0,0,0,-1,1770,1443,24.9509,-2.77537
553,-419,24.118,3.75525,0,0,0,0,0,0,0,-1,1777,1443,24.1181,-3.75526
560,-419,11.8199,8.26343,0,0,0,0,0,0,0,-1,1784,1443,11.82,-8.26341
567,-419,21.5143,8.74719,0,0,0,0,0,0,0,-1,1791,1443,21.5143,-8.74722
574,-419,19.5886,6.46155,0,0,0,0,0,0,0,-1,1798,1443,19.5886,-6.46157
581,-419,20.7926,11.4265,0,0,0,0,0,0,0,-1,1805,1443,20.7926,-11.4265
588,-419,19.4242,12.5363,0,0,0,0,0,0,0,-1,1812,1443,19.4242,-12.5362
595,-419,22.9375,16.0151,0,0,0,0,0,0,0,-1,1819,1443,22.9375,-16.0152
602,-419,23.2631,15.3221,0.00467104,0.00322474,-0.0032489,0.0072763,0.000619478,-0.675892,0.00465812,0.0308313,1826,1443,23.263,-15.3221
609,-419,23.2874,14.8802,0.00363645,0.00220784,-0.002331,0.00536014,0.000484161,-0.636722,0.00342347,0.0167746,1833,1443,23.2874,-14.8803
616,-419,23.2703,14.4354,0.00279251,0.00143362,-0.00163949,0.00388776,0.000338361,-0.588958,0.00248674,0.0120065,1840,1443,23.2702,-14.4354
623,-419,23.2571,13.97,0.00217079,0.00092867,-0.00115883,0.00286449,0.00023497,-0.539407,0.00183635,0.00994348,1847,1443,23.2571,-13.97
630,-419,23.2577,13.4982,0.00179098,0.000549695,-0.000825088,0.0022028,0.000137881,-0.462939,0.0014248,0.0118982,1854,1443,23.2577,-13.4981
637,-419,23.2522,13.0576,0.00151672,0.000290442,-0.000528555,0.00171309,9.40693e-05,-0.355723,0.00111203,0.0127342,1861,1443,23.2523,-13.0577
644,-419,23.2419,12.6185,0.00137032,5.22266e-05,-0.000238876,0.00141227,1.02707e-05,-0.173865,0.00093811,0.0117053,1868,1443,23.2419,-12.6185
651,-419,23.2258,12.1841,0.00138653,-9.93151e-05,-5.92546e-07,0.00138653,-9.93154e-05,-0.000398793,0.000959176,0.0117645,1875,1443,23.2259,-12.1841
658,-419,23.1871,11.6843,0.00144595,-0.000285788,0.000315696,0.00150171,-0.000341544,0.174811,0.00113229,0.0135611,1882,1443,23.1872,-11.6844
665,-419,23.1769,11.2183,0.00151709,-0.000591414,0.00080491,0.00178924,-0.000863558,0.326039,0.00156236,0.0207372,1889,1443,23.1769,-11.2182
672,-419,23.2166,10.7344,0.00150357,-0.00101543,0.0015298,0.00222564,-0.0017375,0.441001,0.0022939,0.0282557,1896,1443,23.2165,-10.7343
679,-419,23.2512,10.2169,0,0,0,0,0,0,0,-1,1903,1443,23.2513,-10.217
686,-419,17.4127,8.03076,0,0,0,0,0,0,0,-1,1910,1443,17.4127,-8.03071
693,-419,8.76086,5.60535,0,0,0,0,0,0,0,-1,1917,1443,8.76091,-5.6054
700,-419,11.0498,4.85156,0,0,0,0,0,0,0,-1,1924,1443,11.0498,-4.85153
707,-419,9.5752,1.80042,0,0,0,0,0,0,0,-1,1931,1443,9.57523,-1.80037
714,-419,5.77576,-1.25061,0,0,0,0,0,0,0,-1,1938,1443,5.7757,1.25056
721,-419,0,0,0,0,0,0,0,0,0,-1,1945,1443,0,0
728,-419,0,0,0,0,0,0,0,0,0,-1,1952,1443,0,0
735,-419,0,0,0,0,0,0,0,0,0,-1,1959,1443,0,0
742,-419,0,0,0,0,0,0,0,0,0,-1,1966,1443,0,0
749,-419,0,0,0,0,0,0,0,0,0,-1,1973,1443,0,0
756,-419,0,0,0,0,0,0,0,0,0,-1,1980,1443,0,0
763,-419,0,0,0,0,0,0,0,0,0,-1,1987,1443,0,0
770,-419,0,0,0,0,0,0,0,0,0,-1,1994,1443,0,0
777,-419,0,0,0,0,0,0,0,0,0,-1,2001,1443,0,0
784,-419,0,0,0,0,0,0,0,0,0,-1,2008,1443,0,0
791,-419,0,0,0,0,0,0,0,0,0,-1,2015,1443,0,0
798,-419,0,0,0,0,0,0,0,0,0,-1,2022,1443,0,0
805,-419,0,0,0,0,0,0,0,0,0,-1,2029,1443,0,0
812,-419,0,0,0,0,0,0,0,0,0,-1,2036,1443,0,0
-700,-426,0,0,0,0,0,0,0,0,0,-1,524,1450,0,0
-693,-426,0,0,0,0,0,0,0,0,0,-1,531,1450,0,0
-686,-426,0,0,0,0,0,0,0,0,0,-1,538,1450,0,0
-679,-426,0,0,0,0,0,0,0,0,0,-1,545,1450,0,0
-672,-426,0,0,0,0,0,0,0,0,0,-1,552,1450,0,0
-665,-426,0,0,0,0,0,0,0,0,0,-1,559,1450,0,0
-658,-426,0,0,0,0,0,0,0,0,0,-1,566,1450,0,0
-651,-426,0,0,0,0,0,0,0,0,0,-1,573,1450,0,0
-644,-426,0,0,0,0,0,0,0,0,0,-1,580,1450,0,0
-637,-426,0,0,0,0,0,0,0,0,0,-1,587,1450,0,0
-630,-426,0,0,0,0,0,0,0,0,0,-1,594,1450,0,0
-623,-426,0,0,0,0,0,0,0,0,0,-1,601,1450,0,0
-616,-426,0,0,0,0,0,0,0,0,0,-1,608,1450,0,0
-609,-426,0,0,0,0,0,0,0,0,0,-1,615,1450,0,0
-602,-426,0,0,0,0,0,0,0,0,0,-1,622,1450,0,0
-595,-426,0,0,0,0,0,0,0,0,0,-1,629,1450,0,0
-588,-426,-10.184,-0.554321,0,0,0,0,0,0,0,-1,636,1450,-10.184,0.554321
-581,-426,-7.3349,1.48157,0,0,0,0,0,0,0,-1,643,1450,-7.33491,-1.48152
-574,-426,-5.02856,2.89319,0,0,0,0,0,0,0,-1,650,1450,-5.02858,-2.89319
-567,-426,-3.04797,1.72644,0,0,0,0,0,0,0,-1,657,1450,-3.04797,-1.72639
-560,-426,-5.55682,3.44397,0,0,0,0,0,0,0,-1,664,1450,-5.55684,-3.44399
-553,-426,-4.67017,6.66614,0,0,0,0,0,0,0,-1,671,1450,-4.67015,-6.66619
-546,-426,-7.58752,8.28882,0,0,0,0,0,0,0,-1,678,1450,-7.58752,-8.28878
-539,-426,-8.69769,8.974,0,0,0,0,0,0,0,-1,685,1450,-8.69766,-8.974
-532,-426,-8.85742,9.3252,-0.00260418,0.00521882,0.00087951,0.00531648,-0.00270184,1.46021,0.00471071,0.0444831,692,1450,-8.85744,-9.32522
-525,-426,-9.00153,9.7854,-0.00186558,0.00397934,0.000709745,0.00406429,-0.00195053,1.45167,0.00354342,0.0185219,699,1450,-9.00153,-9.78544
-518,-426,-8.95233,10.3152,-0.00109936,0.00306442,0.000728775,0.00318829,-0.00122323,1.40243,0.00262987,0.0162596,706,1450,-8.95234,-10.3152
-511,-426,-8.9649,10.8127,-0.000230746,0.00246773,0.000925911,0.00275488,-0.000517893,1.27008,0.00203134,0.0161524,713,1450,-8.96492,-10.8127
-504,-426,-9.03674,11.3059,0.00068054,0.00228031,0.001319,0.00302301,-6.216e-05,1.05797,0.00203637,0.0159117,720,1450,-9.03677,-11.306
-497,-426,-9.05011,11.7958,0.00180976,0.00242886,0.00196642,0.00410995,0.000128674,0.863467,0.0026981,0.0127371,727,1450,-9.05011,-11.7958
-490,-426,-9.05225,12.2863,0.00321409,0.00303099,0.00293354,0.00605751,0.000187571,0.769799,0.00397729,0.0126763,734,1450,-9.05222,-12.2862
-483,-426,-9.07904,12.7886,0.00488774,0.00401937,0.00418492,0.00866094,0.000246168,0.733708,0.00569368,0.0124996,741,1450,-9.07903,-12.7886
-476,-426,-9.09412,13.285,0.00689778,0.0054462,0.00578485,0.0120022,0.000341787,0.722992,0.00789,0.0100363,748,1450,-9.09414,-13.2851
-469,-426,-9.10443,13.7698,0.00944013,0.00730919,0.00784567,0.0162924,0.000456969,0.717909,0.0107125,0.00954054,755,1450,-9.1044,-13.7697
-462,-426,-8.90991,14.4796,0.0128249,0.0111715,0.0110531,0.0230822,0.000914218,0.748071,0.0150926,0.0386591,762,1450,-8.9099,-14.4796
-455,-426,-8.68109,15.2843,0,0,0,0,0,0,0,-1,769,1450,-8.6811,-15.2843
-448,-426,-6.46545,10.1322,0,0,0,0,0,0,0,-1,776,1450,-6.46543,-10.1322
-441,-426,-10.9547,11.4747,0,0,0,0,0,0,0,-1,783,1450,-10.9546,-11.4748
-434,-426,-10.4998,13.6189,0,0,0,0,0,0,0,-1,790,1450,-10.4997,-13.6189
-427,-426,-9.36627,13.7396,0,0,0,0,0,0,0,-1,797,1450,-9.36628,-13.7396
-420,-426,-5.33765,7.95044,0,0,0,0,0,0,0,-1,804,1450,-5.33766,-7.95041
-413,-426,-10.1148,5.0415,0,0,0,0,0,0,0,-1,811,1450,-10.1148,-5.04152
-406,-426,-11.4199,3.6438,0,0,0,0,0,0,0,-1,818,1450,-11.4198,-3.64382
-399,-426,-12.7595,2.29004,0,0,0,0,0,0,0,-1,825,1450,-12.7595,-2.29003
-392,-426,-12.4147,0.537354,0,0,0,0,0,0,0,-1,832,1450,-12.4147,-0.53731
-385,-426,0,0,0,0,0,0,0,0,0,-1,839,1450,0,0
-378,-426,0,0,0,0,0,0,0,0,0,-1,846,1450,0,0
-371,-426,0,0,0,0,0,0,0,0,0,-1,853,1450,0,0
-364,-426,0,0,0,0,0,0,0,0,0,-1,860,1450,0,0
-357,-426,0,0,0,0,0,0,0,0,0,-1,867,1450,0,0
-350,-426,0,0,0,0,0,0,0,0,0,-1,874,1450,0,0
-343,-426,0,0,0,0,0,0,0,0,0,-1,881,1450,0,0
-336,-426,0,0,0,0,0,0,0,0,0,-1,888,1450,0,0
-329,-426,0,0,0,0,0,0,0,0,0,-1,895,1450,0,0
-322,-426,0,0,0,0,0,0,0,0,0,-1,902,1450,0,0
-315,-426,0,0,0,0,0,0,0,0,0,-1,909,1450,0,0
-308,-426,0,0,0,0,0,0,0,0,0,-1,916,1450,0,0
-301,-426,0,0,0,0,0,0,0,0,0,-1,923,1450,0,0
-294,-426,0,0,0,0,0,0,0,0,0,-1,930,1450,0,0
-287,-426,0,0,0,0,0,0,0,0,0,-1,937,1450,0,0
-280,-426,0,0,0,0,0,0,0,0,0,-1,944,1450,0,0
-273,-426,0,0,0,0,0,0,0,0,0,-1,951,1450,0,0
-266,-426,0,0,0,0,0,0,0,0,0,-1,958,1450,0,0
-259,-426,0,0,0,0,0,0,0,0,0,-1,965,1450,0,0
-252,-426,0,0,0,0,0,0,0,0,0,-1,972,1450,0,0
-245,-426,0,0,0,0,0,0,0,0,0,-1,979,1450,0,0
-238,-426,0,0,0,0,0,0,0,0,0,-1,986,1450,0,0
-231,-426,0,0,0,0,0,0,0,0,0,-1,993,1450,0,0
-224,-426,0,0,0,0,0,0,0,0,0,-1,1000,1450,0,0
-217,-426,0,0,0,0,0,0,0,0,0,-1,1007,1450,0,0
-210,-426,0,0,0,0,0,0,0,0,0,-1,1014,1450,0,0
-203,-426,0,0,0,0,0,0,0,0,0,-1,1021,1450,0,0
-196,-426,0,0,0,0,0,0,0,0,0,-1,1028,1450,0,0
-189,-426,0,0,0,0,0,0,0,0,0,-1,1035,1450,0,0
-182,-426,0,0,0,0,0,0,0,0,0,-1,1042,1450,0,0
-175,-426,0,0,0,0,0,0,0,0,0,-1,1049,1450,0,0
-168,-426,0,0,0,0,0,0,0,0,0,-1,1056,1450,0,0
-161,-426,0,0,0,0,0,0,0,0,0,-1,1063,1450,0,0
-154,-426,0,0,0,0,0,0,0,0,0,-1,1070,1450,0,0
-147,-426,0,0,0,0,0,0,0,0,0,-1,1077,1450,0,0
-140,-426,0,0,0,0,0,0,0,0,0,-1,1084,1450,0,0
-133,-426,0,0,0,0,0,0,0,0,0,-1,1091,1450,0,0
-126,-426,0,0,0,0,0,0,0,0,0,-1,1098,1450,0,0
-119,-426,0,0,0,0,0,0,0,0,0,-1,1105,1450,0,0
-112,-426,0,0,0,0,0,0,0,0,0,-1,1112,1450,0,0
-105,-426,0,0,0,0,0,0,0,0,0,-1,1119,1450,0,0
-98,-426,0,0,0,0,0,0,0,0,0,-1,1126,1450,0,0
-91,-426,0,0,0,0,0,0,0,0,0,-1,1133,1450,0,0
-84,-426,0,0,0,0,0,0,0,0,0,-1,1140,1450,0,0
-77,-426,0,0,0,0,0,0,0,0,0,-1,1147,1450,0,0
-70,-426,0,0,0,0,0,0,0,0,0,-1,1154,1450,0,0
-63,-426,0,0,0,0,0,0,0,0,0,-1,1161,1450,0,0
-56,-426,0,0,0,0,0,0,0,0,0,-1,1168,1450,0,0
-49,-426,0,0,0,0,0,0,0,0,0,-1,1175,1450,0,0
-42,-426,0,0,0,0,0,0,0,0,0,-1,1182,1450,0,0
-35,-426,0,0,0,0,0,0,0,0,0,-1,1189,1450,0,0
-28,-426,0,0,0,0,0,0,0,0,0,-1,1196,1450,0,0
-21,-426,0,0,0,0,0,0,0,0,0,-1,1203,1450,0,0
-14,-426,0,0,0,0,0,0,0,0,0,-1,1210,1450,0,0
-7,-426,0,0,0,0,0,0,0,0,0,-1,1217,1450,0,0
0,-426,0,0,0,0,0,0,0,0,0,-1,1224,1450,0,0
7,-426,0,0,0,0,0,0,0,0,0,-1,1231,1450,0,0
14,-426,0,0,0,0,0,0,0,0,0,-1,1238,1450,0,0
21,-426,0,0,0,0,0,0,0,0,0,-1,1245,1450,0,0
28,-426,0,0,0,0,0,0,0,0,0,-1,1252,1450,0,0
35,-426,0,0,0,0,0,0,0,0,0,-1,1259,1450,0,0
42,-426,0,0,0,0,0,0,0,0,0,-1,1266,1450,0,0
49,-426,0,0,0,0,0,0,0,0,0,-1,1273,1450,0,0
56,-426,0,0,0,0,0,0,0,0,0,-1,1280,1450,0,0
63,-426,0,0,0,0,0,0,0,0,0,-1,1287,1450,0,0
70,-426,0,0,0,0,0,0,0,0,0,-1,1294,1450,0,0
77,-426,0,0,0,0,0,0,0,0,0,-1,1301,1450,0,0
84,-426,0,0,0,0,0,0,0,0,0,-1,1308,1450,0,0
91,-426,0,0,0,0,0,0,0,0,0,-1,1315,1450,0,0
98,-426,0,0,0,0,0,0,0,0,0,-1,1322,1450,0,0
105,-426,0,0,0,0,0,0,0,0,0,-1,1329,1450,0,0
112,-426,0,0,0,0,0,0,0,0,0,-1,1336,1450,0,0
119,-426,0,0,0,0,0,0,0,0,0,-1,1343,1450,0,0
126,-426,0,0,0,0,0,0,0,0,0,-1,1350,1450,0,0
133,-426,0,0,0,0,0,0,0,0,0,-1,1357,1450,0,0
140,-426,0,0,0,0,0,0,0,0,0,-1,1364,1450,0,0
147,-426,0,0,0,0,0,0,0,0,0,-1,1371,1450,0,0
154,-426,0,0,0,0,0,0,0,0,0,-1,1378,1450,0,0
161,-426,0,0,0,0,0,0,0,0,0,-1,1385,1450,0,0
168,-426,0,0,0,0,0,0,0,0,0,-1,1392,1450,0,0
175,-426,0,0,0,0,0,0,0,0,0,-1,1399,1450,0,0
182,-426,0,0,0,0,0,0,0,0,0,-1,1406,1450,0,0
189,-426,0,0,0,0,0,0,0,0,0,-1,1413,1450,0,0
196,-426,0,0,0,0,0,0,0,0,0,-1,1420,1450,0,0
203,-426,0,0,0,0,0,0,0,0,0,-1,1427,1450,0,0
210,-426,0,0,0,0,0,0,0,0,0,-1,1434,1450,0,0
217,-426,0,0,0,0,0,0,0,0,0,-1,1441,1450,0,0
224,-426,0,0,0,0,0,0,0,0,0,-1,1448,1450,0,0
231,-426,0,0,0,0,0,0,0,0,0,-1,1455,1450,0,0
238,-426,0,0,0,0,0,0,0,0,0,-1,1462,1450,0,0
245,-426,0,0,0,0,0,0,0,0,0,-1,1469,1450,0,0
252,-426,0,0,0,0,0,0,0,0,0,-1,1476,1450,0,0
259,-426,0,0,0,0,0,0,0,0,0,-1,1483,1450,0,0
266,-426,0,0,0,0,0,0,0,0,0,-1,1490,1450,0,0
273,-426,0,0,0,0,0,0,0,0,0,-1,1497,1450,0,0
280,-426,0,0,0,0,0,0,0,0,0,-1,1504,1450,0,0
287,-426,0,0,0,0,0,0,0,0,0,-1,1511,1450,0,0
294,-426,0,0,0,0,0,0,0,0,0,-1,1518,1450,0,0
301,-426,0,0,0,0,0,0,0,0,0,-1,1525,1450,0,0
308,-426,0,0,0,0,0,0,0,0,0,-1,1532,1450,0,0
315,-426,0,0,0,0,0,0,0,0,0,-1,1539,1450,0,0
322,-426,0,0,0,0,0,0,0,0,0,-1,1546,1450,0,0
329,-426,0,0,0,0,0,0,0,0,0,-1,1553,1450,0,0
336,-426,0,0,0,0,0,0,0,0,0,-1,1560,1450,0,0
343,-426,0,0,0,0,0,0,0,0,0,-1,1567,1450,0,0
350,-426,0,0,0,0,0,0,0,0,0,-1,1574,1450,0,0
357,-426,0,0,0,0,0,0,0,0,0,-1,1581,1450,0,0
364,-426,0,0,0,0,0,0,0,0,0,-1,1588,1450,0,0
371,-426,0,0,0,0,0,0,0,0,0,-1,1595,1450,0,0
378,-426,0,0,0,0,0,0,0,0,0,-1,1602,1450,0,0
385,-426,0,0,0,0,0,0,0,0,0,-1,1609,1450,0,0
392,-426,0,0,0,0,0,0,0,0,0,-1,1616,1450,0,0
399,-426,0,0,0,0,0,0,0,0,0,-1,1623,1450,0,0
406,-426,0,0,0,0,0,0,0,0,0,-1,1630,1450,0,0
413,-426,0,0,0,0,0,0,0,0,0,-1,1637,1450,0,0
420,-426,0,0,0,0,0,0,0,0,0,-1,1644,1450,0,0
427,-426,0,0,0,0,0,0,0,0,0,-1,1651,1450,0,0
434,-426,0,0,0,0,0,0,0,0,0,-1,1658,1450,0,0
441,-426,0,0,0,0,0,0,0,0,0,-1,1665,1450,0,0
448,-426,0,0,0,0,0,0,0,0,0,-1,1672,1450,0,0
455,-426,0,0,0,0,0,0,0,0,0,-1,1679,1450,0,0
462,-426,0,0,0,0,0,0,0,0,0,-1,1686,1450,0,0
469,-426,0,0,0,0,0,0,0,0,0,-1,1693,1450,0,0
476,-426,0,0,0,0,0,0,0,0,0,-1,1700,1450,0,0
483,-426,0,0,0,0,0,0,0,0,0,-1,1707,1450,0,0
490,-426,0,0,0,0,0,0,0,0,0,-1,1714,1450,0,0
497,-426,0,0,0,0,0,0,0,0,0,-1,1721,1450,0,0
504,-426,20.6873,3.38367,0,0,0,0,0,0,0,-1,1728,1450,20.6873,-3.38361
511,-426,19.6676,3.53748,0,0,0,0,0,0,0,-1,1735,1450,19.6676,-3.53749
518,-426,18.6853,3.32288,0,0,0,0,0,0,0,-1,1742,1450,18.6853,-3.3229
525,-426,18.9552,2.71033,0,0,0,0,0,0,0,-1,1749,1450,18.9552,-2.71034
532,-426,19.4333,2.70764,0,0,0,0,0,0,0,-1,1756,1450,19.4334,-2.70764
539,-426,25.1482,2.56287,0,0,0,0,0,0,0,-1,1763,1450,25.1482,-2.56286
546,-426,24.1136,3.75659,0,0,0,0,0,0,0,-1,1770,1450,24.1136,-3.7566
553,-426,23.0791,4.95032,0,0,0,0,0,0,0,-1,1777,1450,23.0791,-4.95034
560,-426,12.9688,11.8289,0,0,0,0,0,0,0,-1,1784,1450,12.9688,-11.8288
567,-426,13.6388,11.5623,0,0,0,0,0,0,0,-1,1791,1450,13.6388,-11.5623
574,-426,14.3943,11.0286,0,0,0,0,0,0,0,-1,1798,1450,14.3942,-11.0285
581,-426,16.3879,11.4653,0,0,0,0,0,0,0,-1,1805,1450,16.3879,-11.4653
588,-426,18.1212,12.5547,0,0,0,0,0,0,0,-1,1812,1450,18.1212,-12.5547
595,-426,22.8623,16.0095,0,0,0,0,0,0,0,-1,1819,1450,22.8623,-16.0095
602,-426,22.7646,15.3822,0.00422314,0.00289341,-0.00287276,0.00650697,0.000609586,-0.671682,0.00414974,0.0295709,1826,1450,22.7647,-15.3823
609,-426,22.829,14.8887,0.00334046,0.00200413,-0.00209326,0.00486961,0.000474982,-0.63091,0.00310023,0.0131664,1833,1450,22.829,-14.8887
616,-426,22.8263,14.4464,0.00262915,0.00133798,-0.0015071,0.00362311,0.000344014,-0.58304,0.00230929,0.0144416,1840,1450,22.8263,-14.4464
623,-426,22.8171,13.9878,0.00215111,0.000870835,-0.00108602,0.00277162,0.000250328,-0.519091,0.00177021,0.0119424,1847,1450,22.8171,-13.9878
630,-426,22.817,13.5328,0.0018905,0.000506522,-0.000802475,0.00225814,0.000138882,-0.429596,0.00146134,0.0123913,1854,1450,22.817,-13.5328
637,-426,22.7977,13.0782,0.00170603,0.000266648,-0.000547184,0.00189042,8.22555e-05,-0.325032,0.00123377,0.0133553,1861,1450,22.7977,-13.0783
644,-426,22.7585,12.6267,0.00164312,5.87152e-05,-0.000314362,0.00170321,-1.37836e-06,-0.188881,0.00113593,0.0130831,1868,1450,22.7586,-12.6267
651,-426,22.7305,12.1803,0.00172306,-2.64031e-05,-0.000157767,0.00173718,-4.05167e-05,-0.089221,0.00117186,0.0120158,1875,1450,22.7305,-12.1803
658,-426,22.7378,11.6804,0.00187924,-0.000153177,7.27002e-05,0.00188183,-0.000155774,0.0357095,0.00130957,0.0120597,1882,1450,22.7378,-11.6805
665,-426,22.7478,11.1359,0.00202932,-0.00034667,0.000470446,0.00211908,-0.000436427,0.188526,0.00157844,0.0215456,1889,1450,22.7478,-11.1358
672,-426,22.8251,10.5999,0,0,0,0,0,0,0,-1,1896,1450,22.825,-10.5999
679,-426,17.1522,8.15784,0,0,0,0,0,0,0,-1,1903,1450,17.1522,-8.15784
686,-426,13.5326,8.03711,0,0,0,0,0,0,0,-1,1910,1450,13.5326,-8.03717
693,-426,11.8607,6.45215,0,0,0,0,0,0,0,-1,1917,1450,11.8607,-6.45215
700,-426,9.24304,2.95447,0,0,0,0,0,0,0,-1,1924,1450,9.24305,-2.95442
707,-426,8.44519,-1.21448,0,0,0,0,0,0,0,-1,1931,1450,8.44514,1.21454
714,-426,0,0,0,0,0,0,0,0,0,-1,1938,1450,0,0
721,-426,0,0,0,0,0,0,0,0,0,-1,1945,1450,0,0
728,-426,0,0,0,0,0,0,0,0,0,-1,1952,1450,0,0
735,-426,0,0,0,0,0,0,0,0,0,-1,1959,1450,0,0
742,-426,0,0,0,0,0,0,0,0,0,-1,1966,1450,0,0
749,-426,0,0,0,0,0,0,0,0,0,-1,1973,1450,0,0
756,-426,0,0,0,0,0,0,0,0,0,-1,1980,1450,0,0
763,-426,0,0,0,0,0,0,0,0,0,-1,1987,1450,0,0
770,-426,0,0,0,0,0,0,0,0,0,-1,1994,1450,0,0
777,-426,0,0,0,0,0,0,0,0,0,-1,2001,1450,0,0
784,-426,0,0,0,0,0,0,0,0,0,-1,2008,1450,0,0
791,-426,0,0,0,0,0,0,0,0,0,-1,2015,1450,0,0
798,-426,0,0,0,0,0,0,0,0,0,-1,2022,1450,0,0
805,-426,0,0,0,0,0,0,0,0,0,-1,2029,1450,0,0
812,-426,0,0,0,0,0,0,0,0,0,-1,2036,1450,0,0
-700,-433,0,0,0,0,0,0,0,0,0,-1,524,1457,0,0
-693,-433,0,0,0,0,0,0,0,0,0,-1,531,1457,0,0
-686,-433,0,0,0,0,0,0,0,0,0,-1,538,1457,0,0
-679,-433,0,0,0,0,0,0,0,0,0,-1,545,1457,0,0
-672,-433,0,0,0,0,0,0,0,0,0,-1,552,1457,0,0
-665,-433,0,0,0,0,0,0,0,0,0,-1,559,1457,0,0
-658,-433,0,0,0,0,0,0,0,0,0,-1,566,1457,0,0
-651,-433,0,0,0,0,0,0,0,0,0,-1,573,1457,0,0
-644,-433,0,0,0,0,0,0,0,0,0,-1,580,1457,0,0
-637,-433,0,0,0,0,0,0,0,0,0,-1,587,1457,0,0
-630,-433,0,0,0,0,0,0,0,0,0,-1,594,1457,0,0
-623,-433,0,0,0,0,0,0,0,0,0,-1,601,1457,0,0
-616,-433,0,0,0,0,0,0,0,0,0,-1,608,1457,0,0
-609,-433,0,0,0,0,0,0,0,0,0,-1,615,1457,0,0
-602,-433,0,0,0,0,0,0,0,0,0,-1,622,1457,0,0
-595,-433,0,0,0,0,0,0,0,0,0,-1,629,1457,0,0
-588,-433,-10.3756,-0.467041,0,0,0,0,0,0,0,-1,636,1457,-10.3756,0.467081
-581,-433,-8.12201,0.884033,0,0,0,0,0,0,0,-1,643,1457,-8.12204,-0.884056
-574,-433,-5.86847,2.23523,0,0,0,0,0,0,0,-1,650,1457,-5.86844,-2.23519
-567,-433,-5.42255,1.16833,0,0,0,0,0,0,0,-1,657,1457,-5.42254,-1.1683
-560,-433,-6.84027,1.86414,0,0,0,0,0,0,0,-1,664,1457,-6.84026,-1.86412
-553,-433,-5.74017,1.79163,0,0,0,0,0,0,0,-1,671,1457,-5.74015,-1.79166
-546,-433,-6.9668,8.25073,0,0,0,0,0,0,0,-1,678,1457,-6.96679,-8.25074
-539,-433,-7.3136,8.75659,0,0,0,0,0,0,0,-1,685,1457,-7.31362,-8.75659
-532,-433,-8.41272,9.21179,0,0,0,0,0,0,0,-1,692,1457,-8.41272,-9.21177
-525,-433,-8.45953,9.87952,-0.00178034,0.00671143,0.00198982,0.00715457,-0.00222348,1.35167,0.00565842,0.0363906,699,1457,-8.45953,-9.87955
-518,-433,-8.48944,10.3218,-0.00116418,0.00518999,0.00169036,0.00561168,-0.00158587,1.32632,0.00436681,0.0171659,706,1457,-8.48944,-10.3218
-511,-433,-8.51782,10.8236,-0.000492268,0.00407648,0.00155578,0.00455594,-0.000971734,1.27185,0.00340771,0.016217,713,1457,-8.51785,-10.8236
-504,-433,-8.54224,11.3273,0.000305587,0.00335353,0.00165472,0.00407913,-0.000420016,1.15754,0.00286969,0.0132733,720,1457,-8.54221,-11.3273
-497,-433,-8.54639,11.811,0.00131622,0.003017,0.00199935,0.0043393,-6.07921e-06,0.986475,0.00289489,0.0139363,727,1457,-8.54637,-11.811
-490,-433,-8.56183,12.2983,0.00256208,0.00315854,0.00265775,0.00553474,0.000185875,0.84127,0.00362946,0.0157505,734,1457,-8.56182,-12.2983
-483,-433,-8.58344,12.8171,0.00405233,0.00369691,0.00358622,0.00746524,0.000284001,0.760642,0.00488491,0.0171388,741,1457,-8.58342,-12.8172
-476,-433,-8.59003,13.316,0.00584034,0.00464398,0.0048411,0.0101201,0.000364247,0.723928,0.00662864,0.0116328,748,1457,-8.59005,-13.316
-469,-433,-8.6001,13.7993,0.0080282,0.00594165,0.00650954,0.0135775,0.000392308,0.70594,0.0089238,0.0100129,755,1457,-8.60012,-13.7994
-462,-433,-8.63562,14.3059,0.0108447,0.00875682,0.00905332,0.0189141,0.000687468,0.727996,0.0123866,0.0131687,762,1457,-8.63562,-14.306
-455,-433,-8.388,15.0337,0,0,0,0,0,0,0,-1,769,1457,-8.38799,-15.0336
-448,-433,-6.94812,14.5563,0,0,0,0,0,0,0,-1,776,1457,-6.94809,-14.5562
-441,-433,-9.97485,14.0258,0,0,0,0,0,0,0,-1,783,1457,-9.97488,-14.0257
-434,-433,-9.41205,14.2297,0,0,0,0,0,0,0,-1,790,1457,-9.41205,-14.2297
-427,-433,-8.67419,13.6827,0,0,0,0,0,0,0,-1,797,1457,-8.67422,-13.6827
-420,-433,-5.74658,9.49121,0,0,0,0,0,0,0,-1,804,1457,-5.7466,-9.49119
-413,-433,-3.63074,5.5813,0,0,0,0,0,0,0,-1,811,1457,-3.63072,-5.58129
-406,-433,-12.3472,4.69373,0,0,0,0,0,0,0,-1,818,1457,-12.3472,-4.69374
-399,-433,-12.055,2.83594,0,0,0,0,0,0,0,-1,825,1457,-12.055,-2.83594
-392,-433,-12.9772,1.6228,0,0,0,0,0,0,0,-1,832,1457,-12.9772,-1.62282
-385,-433,-13.7999,0.514771,0,0,0,0,0,0,0,-1,839,1457,-13.7999,-0.514788
-378,-433,0,0,0,0,0,0,0,0,0,-1,846,1457,0,0
-371,-433,0,0,0,0,0,0,0,0,0,-1,853,1457,0,0
-364,-433,0,0,0,0,0,0,0,0,0,-1,860,1457,0,0
-357,-433,0,0,0,0,0,0,0,0,0,-1,867,1457,0,0
-350,-433,0,0,0,0,0,0,0,0,0,-1,874,1457,0,0
-343,-433,0,0,0,0,0,0,0,0,0,-1,881,1457,0,0
-336,-433,0,0,0,0,0,0,0,0,0,-1,888,1457,0,0
-329,-433,0,0,0,0,0,0,0,0,0,-1,895,1457,0,0
-322,-433,0,0,0,0,0,0,0,0,0,-1,902,1457,0,0
-315,-433,0,0,0,0,0,0,0,0,0,-1,909,1457,0,0
-308,-433,0,0,0,0,0,0,0,0,0,-1,916,1457,0,0
-301,-433,0,0,0,0,0,0,0,0,0,-1,923,1457,0,0
-294,-433,0,0,0,0,0,0,0,0,0,-1,930,1457,0,0
-287,-433,0,0,0,0,0,0,0,0,0,-1,937,1457,0,0
-280,-433,0,0,0,0,0,0,0,0,0,-1,944,1457,0,0
-273,-433,0,0,0,0,0,0,0,0,0,-1,951,1457,0,0
-266,-433,0,0,0,0,0,0,0,0,0,-1,958,1457,0,0
-259,-433,0,0,0,0,0,0,0,0,0,-1,965,1457,0,0
-252,-433,0,0,0,0,0,0,0,0,0,-1,972,1457,0,0
-245,-433,0,0,0,0,0,0,0,0,0,-1,979,1457,0,0
-238,-433,0,0,0,0,0,0,0,0,0,-1,986,1457,0,0
-231,-433,0,0,0,0,0,0,0,0,0,-1,993,1457,0,0
-224,-433,0,0,0,0,0,0,0,0,0,-1,1000,1457,0,0
-217,-433,0,0,0,0,0,0,0,0,0,-1,1007,1457,0,0
-210,-433,0,0,0,0,0,0,0,0,0,-1,1014,1457,0,0
-203,-433,0,0,0,0,0,0,0,0,0,-1,1021,1457,0,0
-196,-433,0,0,0,0,0,0,0,0,0,-1,1028,1457,0,0
-189,-433,0,0,0,0,0,0,0,0,0,-1,1035,1457,0,0
-182,-433,0,0,0,0,0,0,0,0,0,-1,1042,1457,0,0
-175,-433,0,0,0,0,0,0,0,0,0,-1,1049,1457,0,0
-168,-433,0,0,0,0,0,0,0,0,0,-1,1056,1457,0,0
-161,-433,0,0,0,0,0,0,0,0,0,-1,1063,1457,0,0
-154,-433,0,0,0,0,0,0,0,0,0,-1,1070,1457,0,0
-147,-433,0,0,0,0,0,0,0,0,0,-1,1077,1457,0,0
-140,-433,0,0,0,0,0,0,0,0,0,-1,1084,1457,0,0
-133,-433,0,0,0,0,0,0,0,0,0,-1,1091,1457,0,0
-126,-433,0,0,0,0,0,0,0,0,0,-1,1098,1457,0,0
-119,-433,0,0,0,0,0,0,0,0,0,-1,1105,1457,0,0
-112,-433,0,0,0,0,0,0,0,0,0,-1,1112,1457,0,0
-105,-433,0,0,0,0,0,0,0,0,0,-1,1119,1457,0,0
-98,-433,0,0,0,0,0,0,0,0,0,-1,1126,1457,0,0
-91,-433,0,0,0,0,0,0,0,0,0,-1,1133,1457,0,0
-84,-433,0,0,0,0,0,0,0,0,0,-1,1140,1457,0,0
-77,-433,0,0,0,0,0,0,0,0,0,-1,1147,1457,0,0
-70,-433,0,0,0,0,0,0,0,0,0,-1,1154,1457,0,0
-63,-433,0,0,0,0,0,0,0,0,0,-1,1161,1457,0,0
-56,-433,0,0,0,0,0,0,0,0,0,-1,1168,1457,0,0
-49,-433,0,0,0,0,0,0,0,0,0,-1,1175,1457,0,0
-42,-433,0,0,0,0,0,0,0,0,0,-1,1182,1457,0,0
-35,-433,0,0,0,0,0,0,0,0,0,-1,1189,1457,0,0
-28,-433,0,0,0,0,0,0,0,0,0,-1,1196,1457,0,0
-21,-433,0,0,0,0,0,0,0,0,0,-1,1203,1457,0,0
-14,-433,0,0,0,0,0,0,0,0,0,-1,1210,1457,0,0
-7,-433,0,0,0,0,0,0,0,0,0,-1,1217,1457,0,0
0,-433,0,0,0,0,0,0,0,0,0,-1,1224,1457,0,0
7,-433,0,0,0,0,0,0,0,0,0,-1,1231,1457,0,0
14,-433,0,0,0,0,0,0,0,0,0,-1,1238,1457,0,0
21,-433,0,0,0,0,0,0,0,0,0,-1,1245,1457,0,0
28,-433,0,0,0,0,0,0,0,0,0,-1,1252,1457,0,0
35,-433,0,0,0,0,0,0,0,0,0,-1,1259,1457,0,0
42,-433,0,0,0,0,0,0,0,0,0,-1,1266,1457,0,0
49,-433,0,0,0,0,0,0,0,0,0,-1,1273,1457,0,0
56,-433,0,0,0,0,0,0,0,0,0,-1,1280,1457,0,0
63,-433,0,0,0,0,0,0,0,0,0,-1,1287,1457,0,0
70,-433,0,0,0,0,0,0,0,0,0,-1,1294,1457,0,0
77,-433,0,0,0,0,0,0,0,0,0,-1,1301,1457,0,0
84,-433,0,0,0,0,0,0,0,0,0,-1,1308,1457,0,0
91,-433,0,0,0,0,0,0,0,0,0,-1,1315,1457,0,0
98,-433,0,0,0,0,0,0,0,0,0,-1,1322,1457,0,0
105,-433,0,0,0,0,0,0,0,0,0,-1,1329,1457,0,0
112,-433,0,0,0,0,0,0,0,0,0,-1,1336,1457,0,0
119,-433,0,0,0,0,0,0,0,0,0,-1,1343,1457,0,0
126,-433,0,0,0,0,0,0,0,0,0,-1,1350,1457,0,0
133,-433,0,0,0,0,0,0,0,0,0,-1,1357,1457,0,0
140,-433,0,0,0,0,0,0,0,0,0,-1,1364,1457,0,0
147,-433,0,0,0,0,0,0,0,0,0,-1,1371,1457,0,0
154,-433,0,0,0,0,0,0,0,0,0,-1,1378,1457,0,0
161,-433,0,0,0,0,0,0,0,0,0,-1,1385,1457,0,0
168,-433,0,0,0,0,0,0,0,0,0,-1,1392,1457,0,0
175,-433,0,0,0,0,0,0,0,0,0,-1,1399,1457,0,0
182,-433,0,0,0,0,0,0,0,0,0,-1,1406,1457,0,0
189,-433,0,0,0,0,0,0,0,0,0,-1,1413,1457,0,0
196,-433,0,0,0,0,0,0,0,0,0,-1,1420,1457,0,0
203,-433,0,0,0,0,0,0,0,0,0,-1,1427,1457,0,0
210,-433,0,0,0,0,0,0,0,0,0,-1,1434,1457,0,0
217,-433,0,0,0,0,0,0,0,0,0,-1,1441,1457,0,0
224,-433,0,0,0,0,0,0,0,0,0,-1,1448,1457,0,0
231,-433,0,0,0,0,0,0,0,0,0,-1,1455,1457,0,0
238,-433,0,0,0,0,0,0,0,0,0,-1,1462,1457,0,0
245,-433,0,0,0,0,0,0,0,0,0,-1,1469,1457,0,0
252,-433,0,0,0,0,0,0,0,0,0,-1,1476,1457,0,0
259,-433,0,0,0,0,0,0,0,0,0,-1,1483,1457,0,0
266,-433,0,0,0,0,0,0,0,0,0,-1,1490,1457,0,0
273,-433,0,0,0,0,0,0,0,0,0,-1,1497,1457,0,0
280,-433,0,0,0,0,0,0,0,0,0,-1,1504,1457,0,0
287,-433,0,0,0,0,0,0,0,0,0,-1,1511,1457,0,0
294,-433,0,0,0,0,0,0,0,0,0,-1,1518,1457,0,0
301,-433,0,0,0,0,0,0,0,0,0,-1,1525,1457,0,0
308,-433,0,0,0,0,0,0,0,0,0,-1,1532,1457,0,0
315,-433,0,0,0,0,0,0,0,0,0,-1,1539,1457,0,0
322,-433,0,0,0,0,0,0,0,0,0,-1,1546,1457,0,0
329,-433,0,0,0,0,0,0,0,0,0,-1,1553,1457,0,0
336,-433,0,0,0,0,0,0,0,0,0,-1,1560,1457,0,0
343,-433,0,0,0,0,0,0,0,0,0,-1,1567,1457,0,0
350,-433,0,0,0,0,0,0,0,0,0,-1,1574,1457,0,0
357,-433,0,0,0,0,0,0,0,0,0,-1,1581,1457,0,0
364,-433,0,0,0,0,0,0,0,0,0,-1,1588,1457,0,0
371,-433,0,0,0,0,0,0,0,0,0,-1,1595,1457,0,0
378,-433,0,0,0,0,0,0,0,0,0,-1,1602,1457,0,0
385,-433,0,0,0,0,0,0,0,0,0,-1,1609,1457,0,0
392,-433,0,0,0,0,0,0,0,0,0,-1,1616,1457,0,0
399,-433,0,0,0,0,0,0,0,0,0,-1,1623,1457,0,0
406,-433,0,0,0,0,0,0,0,0,0,-1,1630,1457,0,0
413,-433,0,0,0,0,0,0,0,0,0,-1,1637,1457,0,0
420,-433,0,0,0,0,0,0,0,0,0,-1,1644,1457,0,0
427,-433,0,0,0,0,0,0,0,0,0,-1,1651,1457,0,0
434,-433,0,0,0,0,0,0,0,0,0,-1,1658,1457,0,0
441,-433,0,0,0,0,0,0,0,0,0,-1,1665,1457,0,0
448,-433,0,0,0,0,0,0,0,0,0,-1,1672,1457,0,0
455,-433,0,0,0,0,0,0,0,0,0,-1,1679,1457,0,0
462,-433,0,0,0,0,0,0,0,0,0,-1,1686,1457,0,0
469,-433,0,0,0,0,0,0,0,0,0,-1,1693,1457,0,0
476,-433,0,0,0,0,0,0,0,0,0,-1,1700,1457,0,0
483,-433,0,0,0,0,0,0,0,0,0,-1,1707,1457,0,0
490,-433,0,0,0,0,0,0,0,0,0,-1,1714,1457,0,0
497,-433,0,0,0,0,0,0,0,0,0,-1,1721,1457,0,0
504,-433,19.9058,3.03662,0,0,0,0,0,0,0,-1,1728,1457,19.9058,-3.03656
511,-433,19.0145,3.07837,0,0,0,0,0,0,0,-1,1735,1457,19.0146,-3.07834
518,-433,18.071,3.06433,0,0,0,0,0,0,0,-1,1742,1457,18.071,-3.06432
525,-433,17.2048,3.37085,0,0,0,0,0,0,0,-1,1749,1457,17.2049,-3.37083
532,-433,16.5637,3.36646,0,0,0,0,0,0,0,-1,1756,1457,16.5637,-3.36643
539,-433,15.9193,3.30396,0,0,0,0,0,0,0,-1,1763,1457,15.9193,-3.30394
546,-433,23.1903,4.81775,0,0,0,0,0,0,0,-1,1770,1457,23.1903,-4.81775
553,-433,13.9674,11.5781,0,0,0,0,0,0,0,-1,1777,1457,13.9674,-11.5781
560,-433,13.9855,11.7341,0,0,0,0,0,0,0,-1,1784,1457,13.9855,-11.7341
567,-433,13.9264,11.3364,0,0,0,0,0,0,0,-1,1791,1457,13.9263,-11.3364
574,-433,15.5305,12.3673,0,0,0,0,0,0,0,-1,1798,1457,15.5305,-12.3673
581,-433,16.6405,12.1898,0,0,0,0,0,0,0,-1,1805,1457,16.6405,-12.1898
588,-433,22.3623,16.62,0,0,0,0,0,0,0,-1,1812,1457,22.3623,-16.6199
595,-433,22.345,15.9108,0.00471922,0.00349582,-0.00338239,0.00754478,0.000670262,-0.695941,0.00482198,0.0384143,1819,1457,22.345,-15.9108
602,-433,22.3866,15.3954,0.00373709,0.0025427,-0.00250033,0.00571055,0.000569238,-0.668171,0.00363219,0.0240129,1826,1457,22.3866,-15.3954
609,-433,22.4019,14.8792,0.0029885,0.00175116,-0.00182833,0.00429999,0.000439661,-0.622255,0.00273193,0.0166697,1833,1457,22.4018,-14.8791
616,-433,22.4042,14.4686,0.00240405,0.00116084,-0.0013233,0.00324447,0.000320419,-0.565825,0.00206448,0.0140489,1840,1457,22.4042,-14.4686
623,-433,22.3622,13.9989,0.00206718,0.000723709,-0.000953962,0.00256218,0.000228709,-0.478644,0.00163722,0.0109874,1847,1457,22.3622,-13.9989
630,-433,22.3346,13.5454,0.0019423,0.00037003,-0.000713781,0.002218,9.43311e-05,-0.368598,0.00144825,0.0139469,1854,1457,22.3346,-13.5455
637,-433,22.3323,13.0869,0.00189292,0.000152962,-0.000512546,0.00203267,1.32049e-05,-0.266201,0.00135074,0.0154695,1861,1457,22.3322,-13.0869
644,-433,22.3123,12.645,0.00198754,-1.23618e-05,-0.00036305,0.0020514,-7.62283e-05,-0.174135,0.00139371,0.0162343,1868,1457,22.3123,-12.645
651,-433,22.288,12.1803,0.00225446,-9.93543e-06,-0.000332654,0.00230232,-5.77929e-05,-0.142885,0.0015545,0.0122253,1875,1457,22.2879,-12.1803
658,-433,22.2544,11.6732,0.00265111,-5.82124e-05,-0.000240378,0.00267227,-7.93739e-05,-0.0878084,0.00180855,0.0240481,1882,1457,22.2544,-11.6732
665,-433,22.3142,11.074,0,0,0,0,0,0,0,-1,1889,1457,22.3142,-11.074
672,-433,18.115,8.7207,0,0,0,0,0,0,0,-1,1896,1457,18.115,-8.72074
679,-433,17.2969,9.6355,0,0,0,0,0,0,0,-1,1903,1457,17.2968,-9.63548
686,-433,13.6356,8.61694,0,0,0,0,0,0,0,-1,1910,1457,13.6356,-8.61694
693,-433,13.4081,8.39624,0,0,0,0,0,0,0,-1,1917,1457,13.4081,-8.39624
700,-433,7.16809,-1.5166,0,0,0,0,0,0,0,-1,1924,1457,7.16806,1.51656
707,-433,8.68359,-2.82202,0,0,0,0,0,0,0,-1,1931,1457,8.68359,2.82197
714,-433,0,0,0,0,0,0,0,0,0,-1,1938,1457,0,0
721,-433,0,0,0,0,0,0,0,0,0,-1,1945,1457,0,0
728,-433,0,0,0,0,0,0,0,0,0,-1,1952,1457,0,0
735,-433,0,0,0,0,0,0,0,0,0,-1,1959,1457,0,0
742,-433,0,0,0,0,0,0,0,0,0,-1,1966,1457,0,0
749,-433,0,0,0,0,0,0,0,0,0,-1,1973,1457,0,0
756,-433,0,0,0,0,0,0,0,0,0,-1,1980,1457,0,0
763,-433,0,0,0,0,0,0,0,0,0,-1,1987,1457,0,0
770,-433,0,0,0,0,0,0,0,0,0,-1,1994,1457,0,0
777,-433,0,0,0,0,0,0,0,0,0,-1,2001,1457,0,0
784,-433,0,0,0,0,0,0,0,0,0,-1,2008,1457,0,0
791,-433,0,0,0,0,0,0,0,0,0,-1,2015,1457,0,0
798,-433,0,0,0,0,0,0,0,0,0,-1,2022,1457,0,0
805,-433,0,0,0,0,0,0,0,0,0,-1,2029,1457,0,0
812,-433,0,0,0,0,0,0,0,0,0,-1,2036,1457,0,0
-700,-440,0,0,0,0,0,0,0,0,0,-1,524,1464,0,0
-693,-440,0,0,0,0,0,0,0,0,0,-1,531,1464,0,0
-686,-440,0,0,0,0,0,0,0,0,0,-1,538,1464,0,0
-679,-440,0,0,0,0,0,0,0,0,0,-1,545,1464,0,0
-672,-440,0,0,0,0,0,0,0,0,0,-1,552,1464,0,0
-665,-440,0,0,0,0,0,0,0,0,0,-1,559,1464,0,0
-658,-440,0,0,0,0,0,0,0,0,0,-1,566,1464,0,0
-651,-440,0,0,0,0,0,0,0,0,0,-1,573,1464,0,0
-644,-440,0,0,0,0,0,0,0,0,0,-1,580,1464,0,0
-637,-440,0,0,0,0,0,0,0,0,0,-1,587,1464,0,0
-630,-440,0,0,0,0,0,0,0,0,0,-1,594,1464,0,0
-623,-440,0,0,0,0,0,0,0,0,0,-1,601,1464,0,0
-616,-440,0,0,0,0,0,0,0,0,0,-1,608,1464,0,0
-609,-440,0,0,0,0,0,0,0,0,0,-1,615,1464,0,0
-602,-440,0,0,0,0,0,0,0,0,0,-1,622,1464,0,0
-595,-440,0,0,0,0,0,0,0,0,0,-1,629,1464,0,0
-588,-440,0,0,0,0,0,0,0,0,0,-1,636,1464,0,0
-581,-440,-8.97278,0.254517,0,0,0,0,0,0,0,-1,643,1464,-8.97276,-0.254526
-574,-440,-7.00818,-0.918579,0,0,0,0,0,0,0,-1,650,1464,-7.00817,0.918538
-567,-440,-6.12152,-0.0766602,0,0,0,0,0,0,0,-1,657,1464,-6.12151,0.0767097
-560,-440,-5.46747,0.82251,0,0,0,0,0,0,0,-1,664,1464,-5.46748,-0.822551
-553,-440,-6.84729,0.0831299,0,0,0,0,0,0,0,-1,671,1464,-6.84732,-0.083136
-546,-440,-5.63446,-0.153198,0,0,0,0,0,0,0,-1,678,1464,-5.63447,0.153147
-539,-440,-6.80017,8.58252,0,0,0,0,0,0,0,-1,685,1464,-6.80015,-8.58257
-532,-440,-7.74701,9.25403,0,0,0,0,0,0,0,-1,692,1464,-7.74702,-9.25409
-525,-440,-8.03363,9.90186,-0.00228343,0.010215,0.00338739,0.011074,-0.00314245,1.32244,0.00862317,0.0410057,699,1464,-8.0336,-9.90181
-518,-440,-8.04865,10.2782,-0.00166486,0.0077998,0.00271927,0.00852543,-0.00239049,1.31002,0.00662579,0.0212307,706,1464,-8.04866,-10.2782
-511,-440,-8.02087,10.8242,-0.00102733,0.00594403,0.00223881,0.00660109,-0.00168438,1.28533,0.00505658,0.0159533,713,1464,-8.0209,-10.8243
-504,-440,-8.02734,11.3387,-0.000291629,0.00462461,0.00203728,0.00535912,-0.00102614,1.22477,0.00395937,0.0193194,720,1464,-8.02732,-11.3387
-497,-440,-8.05219,11.8253,0.000635876,0.00376636,0.00209691,0.0048178,-0.000415566,1.10601,0.00335897,0.0225773,727,1464,-8.05219,-11.8254
-490,-440,-8.07416,12.2671,0.00179253,0.00345711,0.00248134,0.00524202,7.61822e-06,0.947212,0.00349214,0.0223387,734,1464,-8.07418,-12.2671
-483,-440,-8.0918,12.7831,0.00318245,0.00358977,0.00314124,0.00653394,0.000238277,0.817769,0.00427875,0.019924,741,1464,-8.09181,-12.783
-476,-440,-8.09412,13.2966,0.00483915,0.00413885,0.00412119,0.00862504,0.000352967,0.743018,0.00563605,0.0140607,748,1464,-8.09412,-13.2967
-469,-440,-8.10968,13.8049,0.00679437,0.0050449,0.0054868,0.0114757,0.000363539,0.706351,0.00753223,0.012347,755,1464,-8.10968,-13.8049
-462,-440,-8.15131,14.2988,0.00922136,0.00706722,0.00750006,0.0157213,0.000567291,0.714082,0.010297,0.0153235,762,1464,-8.15133,-14.2988
-455,-440,-8.03003,14.8997,0.0121721,0.00892799,0.009847,0.0205297,0.000570327,0.703769,0.0135004,0.0336961,769,1464,-8.03005,-14.8996
-448,-440,-7.73541,15.8181,0,0,0,0,0,0,0,-1,776,1464,-7.73544,-15.8181
-441,-440,-7.28583,14.7465,0,0,0,0,0,0,0,-1,783,1464,-7.28584,-14.7464
-434,-440,-8.33636,14.5024,0,0,0,0,0,0,0,-1,790,1464,-8.33638,-14.5025
-427,-440,-8.28094,14.2512,0,0,0,0,0,0,0,-1,797,1464,-8.28094,-14.2512
-420,-440,-6.86603,8.09216,0,0,0,0,0,0,0,-1,804,1464,-6.86602,-8.09222
-413,-440,-3.46796,5.72278,0,0,0,0,0,0,0,-1,811,1464,-3.46797,-5.72276
-406,-440,-5.2887,5.20264,0,0,0,0,0,0,0,-1,818,1464,-5.2887,-5.20261
-399,-440,-12.7318,3.94421,0,0,0,0,0,0,0,-1,825,1464,-12.7318,-3.94419
-392,-440,-13.5565,2.51855,0,0,0,0,0,0,0,-1,832,1464,-13.5565,-2.51861
-385,-440,-14.6741,1.39795,0,0,0,0,0,0,0,-1,839,1464,-14.6741,-1.39801
-378,-440,-15.8063,0.293457,0,0,0,0,0,0,0,-1,846,1464,-15.8063,-0.293412
-371,-440,0,0,0,0,0,0,0,0,0,-1,853,1464,0,0
-364,-440,0,0,0,0,0,0,0,0,0,-1,860,1464,0,0
-357,-440,0,0,0,0,0,0,0,0,0,-1,867,1464,0,0
-350,-440,0,0,0,0,0,0,0,0,0,-1,874,1464,0,0
-343,-440,0,0,0,0,0,0,0,0,0,-1,881,1464,0,0
-336,-440,0,0,0,0,0,0,0,0,0,-1,888,1464,0,0
-329,-440,0,0,0,0,0,0,0,0,0,-1,895,1464,0,0
-322,-440,0,0,0,0,0,0,0,0,0,-1,902,1464,0,0
-315,-440,0,0,0,0,0,0,0,0,0,-1,909,1464,0,0
-308,-440,0,0,0,0,0,0,0,0,0,-1,916,1464,0,0
-301,-440,0,0,0,0,0,0,0,0,0,-1,923,1464,0,0
-294,-440,0,0,0,0,0,0,0,0,0,-1,930,1464,0,0
-287,-440,0,0,0,0,0,0,0,0,0,-1,937,1464,0,0
-280,-440,0,0,0,0,0,0,0,0,0,-1,944,1464,0,0
-273,-440,0,0,0,0,0,0,0,0,0,-1,951,1464,0,0
-266,-440,0,0,0,0,0,0,0,0,0,-1,958,1464,0,0
-259,-440,0,0,0,0,0,0,0,0,0,-1,965,1464,0,0
-252,-440,0,0,0,0,0,0,0,0,0,-1,972,1464,0,0
-245,-440,0,0,0,0,0,0,0,0,0,-1,979,1464,0,0
-238,-440,0,0,0,0,0,0,0,0,0,-1,986,1464,0,0
-231,-440,0,0,0,0,0,0,0,0,0,-1,993,1464,0,0
-224,-440,0,0,0,0,0,0,0,0,0,-1,1000,1464,0,0
-217,-440,0,0,0,0,0,0,0,0,0,-1,1007,1464,0,0
-210,-440,0,0,0,0,0,0,0,0,0,-1,1014,1464,0,0
-203,-440,0,0,0,0,0,0,0,0,0,-1,1021,1464,0,0
-196,-440,0,0,0,0,0,0,0,0,0,-1,1028,1464,0,0
-189,-440,0,0,0,0,0,0,0,0,0,-1,1035,1464,0,0
-182,-440,0,0,0,0,0,0,0,0,0,-1,1042,1464,0,0
-175,-440,0,0,0,0,0,0,0,0,0,-1,1049,1464,0,0
-168,-440,0,0,0,0,0,0,0,0,0,-1,1056,1464,0,0
-161,-440,0,0,0,0,0,0,0,0,0,-1,1063,1464,0,0
-154,-440,0,0,0,0,0,0,0,0,0,-1,1070,1464,0,0
-147,-440,0,0,0,0,0,0,0,0,0,-1,1077,1464,0,0
-140,-440,0,0,0,0,0,0,0,0,0,-1,1084,1464,0,0
-133,-440,0,0,0,0,0,0,0,0,0,-1,1091,1464,0,0
-126,-440,0,0,0,0,0,0,0,0,0,-1,1098,1464,0,0
-119,-440,0,0,0,0,0,0,0,0,0,-1,1105,1464,0,0
-112,-440,0,0,0,0,0,0,0,0,0,-1,1112,1464,0,0
-105,-440,0,0,0,0,0,0,0,0,0,-1,1119,1464,0,0
-98,-440,0,0,0,0,0,0,0,0,0,-1,1126,1464,0,0
-91,-440,0,0,0,0,0,0,0,0,0,-1,1133,1464,0,0
-84,-440,0,0,0,0,0,0,0,0,0,-1,1140,1464,0,0
-77,-440,0,0,0,0,0,0,0,0,0,-1,1147,1464,0,0
-70,-440,0,0,0,0,0,0,0,0,0,-1,1154,1464,0,0
-63,-440,0,0,0,0,0,0,0,0,0,-1,1161,1464,0,0
-56,-440,0,0,0,0,0,0,0,0,0,-1,1168,1464,0,0
-49,-440,0,0,0,0,0,0,0,0,0,-1,1175,1464,0,0
-42,-440,0,0,0,0,0,0,0,0,0,-1,1182,1464,0,0
-35,-440,0,0,0,0,0,0,0,0,0,-1,1189,1464,0,0
-28,-440,0,0,0,0,0,0,0,0,0,-1,1196,1464,0,0
-21,-440,0,0,0,0,0,0,0,0,0,-1,1203,1464,0,0
-14,-440,0,0,0,0,0,0,0,0,0,-1,1210,1464,0,0
-7,-440,0,0,0,0,0,0,0,0,0,-1,1217,1464,0,0
0,-440,0,0,0,0,0,0,0,0,0,-1,1224,1464,0,0
7,-440,0,0,0,0,0,0,0,0,0,-1,1231,1464,0,0
14,-440,0,0,0,0,0,0,0,0,0,-1,1238,1464,0,0
21,-440,0,0,0,0,0,0,0,0,0,-1,1245,1464,0,0
28,-440,0,0,0,0,0,0,0,0,0,-1,1252,1464,0,0
35,-440,0,0,0,0,0,0,0,0,0,-1,1259,1464,0,0
42,-440,0,0,0,0,0,0,0,0,0,-1,1266,1464,0,0
49,-440,0,0,0,0,0,0,0,0,0,-1,1273,1464,0,0
56,-440,0,0,0,0,0,0,0,0,0,-1,1280,1464,0,0
63,-440,0,0,0,0,0,0,0,0,0,-1,1287,1464,0,0
70,-440,0,0,0,0,0,0,0,0,0,-1,1294,1464,0,0
77,-440,0,0,0,0,0,0,0,0,0,-1,1301,1464,0,0
84,-440,0,0,0,0,0,0,0,0,0,-1,1308,1464,0,0
91,-440,0,0,0,0,0,0,0,0,0,-1,1315,1464,0,0
98,-440,0,0,0,0,0,0,0,0,0,-1,1322,1464,0,0
105,-440,0,0,0,0,0,0,0,0,0,-1,1329,1464,0,0
112,-440,0,0,0,0,0,0,0,0,0,-1,1336,1464,0,0
119,-440,0,0,0,0,0,0,0,0,0,-1,1343,1464,0,0
126,-440,0,0,0,0,0,0,0,0,0,-1,1350,1464,0,0
133,-440,0,0,0,0,0,0,0,0,0,-1,1357,1464,0,0
140,-440,0,0,0,0,0,0,0,0,0,-1,1364,1464,0,0
147,-440,0,0,0,0,0,0,0,0,0,-1,1371,1464,0,0
154,-440,0,0,0,0,0,0,0,0,0,-1,1378,1464,0,0
161,-440,0,0,0,0,0,0,0,0,0,-1,1385,1464,0,0
168,-440,0,0,0,0,0,0,0,0,0,-1,1392,1464,0,0
175,-440,0,0,0,0,0,0,0,0,0,-1,1399,1464,0,0
182,-440,0,0,0,0,0,0,0,0,0,-1,1406,1464,0,0
189,-440,0,0,0,0,0,0,0,0,0,-1,1413,1464,0,0
196,-440,0,0,0,0,0,0,0,0,0,-1,1420,1464,0,0
203,-440,0,0,0,0,0,0,0,0,0,-1,1427,1464,0,0
210,-440,0,0,0,0,0,0,0,0,0,-1,1434,1464,0,0
217,-440,0,0,0,0,0,0,0,0,0,-1,1441,1464,0,0
224,-440,0,0,0,0,0,0,0,0,0,-1,1448,1464,0,0
231,-440,0,0,0,0,0,0,0,0,0,-1,1455,1464,0,0
238,-440,0,0,0,0,0,0,0,0,0,-1,1462,1464,0,0
245,-440,0,0,0,0,0,0,0,0,0,-1,1469,1464,0,0
252,-440,0,0,0,0,0,0,0,0,0,-1,1476,1464,0,0
259,-440,0,0,0,0,0,0,0,0,0,-1,1483,1464,0,0
266,-440,0,0,0,0,0,0,0,0,0,-1,1490,1464,0,0
273,-440,0,0,0,0,0,0,0,0,0,-1,1497,1464,0,0
280,-440,0,0,0,0,0,0,0,0,0,-1,1504,1464,0,0
287,-440,0,0,0,0,0,0,0,0,0,-1,1511,1464,0,0
294,-440,0,0,0,0,0,0,0,0,0,-1,1518,1464,0,0
301,-440,0,0,0,0,0,0,0,0,0,-1,1525,1464,0,0
308,-440,0,0,0,0,0,0,0,0,0,-1,1532,1464,0,0
315,-440,0,0,0,0,0,0,0,0,0,-1,1539,1464,0,0
322,-440,0,0,0,0,0,0,0,0,0,-1,1546,1464,0,0
329,-440,0,0,0,0,0,0,0,0,0,-1,1553,1464,0,0
336,-440,0,0,0,0,0,0,0,0,0,-1,1560,1464,0,0
343,-440,0,0,0,0,0,0,0,0,0,-1,1567,1464,0,0
350,-440,0,0,0,0,0,0,0,0,0,-1,1574,1464,0,0
357,-440,0,0,0,0,0,0,0,0,0,-1,1581,1464,0,0
364,-440,0,0,0,0,0,0,0,0,0,-1,1588,1464,0,0
371,-440,0,0,0,0,0,0,0,0,0,-1,1595,1464,0,0
378,-440,0,0,0,0,0,0,0,0,0,-1,1602,1464,0,0
385,-440,0,0,0,0,0,0,0,0,0,-1,1609,1464,0,0
392,-440,0,0,0,0,0,0,0,0,0,-1,1616,1464,0,0
399,-440,0,0,0,0,0,0,0,0,0,-1,1623,1464,0,0
406,-440,0,0,0,0,0,0,0,0,0,-1,1630,1464,0,0
413,-440,0,0,0,0,0,0,0,0,0,-1,1637,1464,0,0
420,-440,0,0,0,0,0,0,0,0,0,-1,1644,1464,0,0
427,-440,0,0,0,0,0,0,0,0,0,-1,1651,1464,0,0
434,-440,0,0,0,0,0,0,0,0,0,-1,1658,1464,0,0
441,-440,0,0,0,0,0,0,0,0,0,-1,1665,1464,0,0
448,-440,0,0,0,0,0,0,0,0,0,-1,1672,1464,0,0
455,-440,0,0,0,0,0,0,0,0,0,-1,1679,1464,0,0
462,-440,0,0,0,0,0,0,0,0,0,-1,1686,1464,0,0
469,-440,0,0,0,0,0,0,0,0,0,-1,1693,1464,0,0
476,-440,0,0,0,0,0,0,0,0,0,-1,1700,1464,0,0
483,-440,0,0,0,0,0,0,0,0,0,-1,1707,1464,0,0
490,-440,0,0,0,0,0,0,0,0,0,-1,1714,1464,0,0
497,-440,16.965,-0.528442,0,0,0,0,0,0,0,-1,1721,1464,16.965,0.528492
504,-440,15.8052,0.670166,0,0,0,0,0,0,0,-1,1728,1464,15.8052,-0.670145
511,-440,17.5754,2.77832,0,0,0,0,0,0,0,-1,1735,1464,17.5754,-2.77826
518,-440,16.9017,3.07861,0,0,0,0,0,0,0,-1,1742,1464,16.9018,-3.07859
525,-440,18.4495,12.0867,0,0,0,0,0,0,0,-1,1749,1464,18.4495,-12.0867
532,-440,15.4319,3.64392,0,0,0,0,0,0,0,-1,1756,1464,15.4318,-3.64391
539,-440,14.8214,3.41321,0,0,0,0,0,0,0,-1,1763,1464,14.8214,-3.4132
546,-440,14.8651,10.7683,0,0,0,0,0,0,0,-1,1770,1464,14.8651,-10.7683
553,-440,15.1213,11.4121,0,0,0,0,0,0,0,-1,1777,1464,15.1213,-11.4121
560,-440,17.4325,12.5394,0,0,0,0,0,0,0,-1,1784,1464,17.4325,-12.5394
567,-440,16.9025,12.4249,0,0,0,0,0,0,0,-1,1791,1464,16.9025,-12.425
574,-440,19.2841,14.8679,0,0,0,0,0,0,0,-1,1798,1464,19.2841,-14.868
581,-440,21.5833,16.9777,0,0,0,0,0,0,0,-1,1805,1464,21.5833,-16.9777
588,-440,21.8043,16.3837,0.00530617,0.00352914,-0.00340315,0.00793488,0.000900423,-0.657706,0.00501679,0.049042,1812,1464,21.8043,-16.3837
595,-440,21.8822,15.8884,0.00414493,0.00290741,-0.00279529,0.00638912,0.000663217,-0.676475,0.00405646,0.0232321,1819,1464,21.8821,-15.8884
602,-440,21.9388,15.3696,0.00336169,0.00209482,-0.00211333,0.00493447,0.000522028,-0.639793,0.00313018,0.0198616,1826,1464,21.9388,-15.3697
609,-440,21.9197,14.9108,0.00274919,0.00141557,-0.00155085,0.0037705,0.000394257,-0.582364,0.0023931,0.0170381,1833,1464,21.9197,-14.9108
616,-440,21.8954,14.5049,0.00228852,0.000918253,-0.00113289,0.00292733,0.000279438,-0.51344,0.0018654,0.0178142,1840,1464,21.8954,-14.5049
623,-440,21.907,14.027,0.00207616,0.000531594,-0.00082217,0.00243188,0.000175876,-0.408338,0.00156592,0.0133946,1847,1464,21.9069,-14.0269
630,-440,21.8662,13.5428,0.00206756,0.000213856,-0.000627842,0.00226019,2.12255e-05,-0.297696,0.00149977,0.0116582,1854,1464,21.8662,-13.5429
637,-440,21.8649,13.1335,0.00214566,4.96041e-05,-0.000493726,0.00225613,-6.08705e-05,-0.220131,0.00152478,0.0166518,1861,1464,21.8649,-13.1335
644,-440,21.8752,12.6885,0.00237919,-3.90606e-05,-0.000439954,0.00245675,-0.000116615,-0.174485,0.00167805,0.0156452,1868,1464,21.8752,-12.6885
651,-440,21.8774,12.1722,0.00279983,4.0397e-05,-0.000504066,0.00288903,-4.87977e-05,-0.175137,0.00194249,0.019003,1875,1464,21.8774,-12.1722
658,-440,21.9377,11.6091,0,0,0,0,0,0,0,-1,1882,1464,21.9377,-11.6091
665,-440,21.4609,11.3298,0,0,0,0,0,0,0,-1,1889,1464,21.4609,-11.3298
672,-440,18.9385,9.6394,0,0,0,0,0,0,0,-1,1896,1464,18.9384,-9.63939
679,-440,16.9508,10.2336,0,0,0,0,0,0,0,-1,1903,1464,16.9508,-10.2337
686,-440,15.2556,8.44177,0,0,0,0,0,0,0,-1,1910,1464,15.2556,-8.44177
693,-440,9.88635,2.89795,0,0,0,0,0,0,0,-1,1917,1464,9.88638,-2.89798
700,-440,7.07825,-2.62061,0,0,0,0,0,0,0,-1,1924,1464,7.07829,2.62057
707,-440,0,0,0,0,0,0,0,0,0,-1,1931,1464,0,0
714,-440,0,0,0,0,0,0,0,0,0,-1,1938,1464,0,0
721,-440,0,0,0,0,0,0,0,0,0,-1,1945,1464,0,0
728,-440,0,0,0,0,0,0,0,0,0,-1,1952,1464,0,0
735,-440,0,0,0,0,0,0,0,0,0,-1,1959,1464,0,0
742,-440,0,0,0,0,0,0,0,0,0,-1,1966,1464,0,0
749,-440,0,0,0,0,0,0,0,0,0,-1,1973,1464,0,0
756,-440,0,0,0,0,0,0,0,0,0,-1,1980,1464,0,0
763,-440,0,0,0,0,0,0,0,0,0,-1,1987,1464,0,0
770,-440,0,0,0,0,0,0,0,0,0,-1,1994,1464,0,0
777,-440,0,0,0,0,0,0,0,0,0,-1,2001,1464,0,0
784,-440,0,0,0,0,0,0,0,0,0,-1,2008,1464,0,0
791,-440,0,0,0,0,0,0,0,0,0,-1,2015,1464,0,0
798,-440,0,0,0,0,0,0,0,0,0,-1,2022,1464,0,0
805,-440,0,0,0,0,0,0,0,0,0,-1,2029,1464,0,0
812,-440,0,0,0,0,0,0,0,0,0,-1,2036,1464,0,0
-700,-447,0,0,0,0,0,0,0,0,0,-1,524,1471,0,0
-693,-447,0,0,0,0,0,0,0,0,0,-1,531,1471,0,0
-686,-447,0,0,0,0,0,0,0,0,0,-1,538,1471,0,0
-679,-447,0,0,0,0,0,0,0,0,0,-1,545,1471,0,0
-672,-447,0,0,0,0,0,0,0,0,0,-1,552,1471,0,0
-665,-447,0,0,0,0,0,0,0,0,0,-1,559,1471,0,0
-658,-447,0,0,0,0,0,0,0,0,0,-1,566,1471,0,0
-651,-447,0,0,0,0,0,0,0,0,0,-1,573,1471,0,0
-644,-447,0,0,0,0,0,0,0,0,0,-1,580,1471,0,0
-637,-447,0,0,0,0,0,0,0,0,0,-1,587,1471,0,0
-630,-447,0,0,0,0,0,0,0,0,0,-1,594,1471,0,0
-623,-447,0,0,0,0,0,0,0,0,0,-1,601,1471,0,0
-616,-447,0,0,0,0,0,0,0,0,0,-1,608,1471,0,0
-609,-447,0,0,0,0,0,0,0,0,0,-1,615,1471,0,0
-602,-447,0,0,0,0,0,0,0,0,0,-1,622,1471,0,0
-595,-447,0,0,0,0,0,0,0,0,0,-1,629,1471,0,0
-588,-447,0,0,0,0,0,0,0,0,0,-1,636,1471,0,0
-581,-447,-7.06482,-1.50476,0,0,0,0,0,0,0,-1,643,1471,-7.0648,1.50474
-574,-447,-6.88092,-0.00585938,0,0,0,0,0,0,0,-1,650,1471,-6.88095,0.00589852
-567,-447,-6.8205,-1.32178,0,0,0,0,0,0,0,-1,657,1471,-6.82047,1.32172
-560,-447,-8.85748,2.80774,0,0,0,0,0,0,0,-1,664,1471,-8.85748,-2.80775
-553,-447,-7.60486,3.26794,0,0,0,0,0,0,0,-1,671,1471,-7.60487,-3.26799
-546,-447,-3.94501,1.8656,0,0,0,0,0,0,0,-1,678,1471,-3.945,-1.86554
-539,-447,-5.35492,4.50024,0,0,0,0,0,0,0,-1,685,1471,-5.35492,-4.50018
-532,-447,-6.12781,8.81091,0,0,0,0,0,0,0,-1,692,1471,-6.12781,-8.81094
-525,-447,-7.63348,10.104,0,0,0,0,0,0,0,-1,699,1471,-7.63347,-10.104
-518,-447,-7.53802,10.2777,-0.00217806,0.0105227,0.00413632,0.011751,-0.00340637,1.28213,0.00918253,0.0463811,706,1471,-7.53803,-10.2777
-511,-447,-7.53174,10.8098,-0.00159427,0.00767077,0.00319605,0.0086663,-0.0025898,1.26883,0.00680705,0.0207209,713,1471,-7.53172,-10.8098
-504,-447,-7.50909,11.3745,-0.00093726,0.00562626,0.00261468,0.00654051,-0.00185151,1.23442,0.005091,0.021178,720,1471,-7.50911,-11.3745
-497,-447,-7.59357,11.8708,-0.000114162,0.00420858,0.00232711,0.0052232,-0.00112879,1.15964,0.00391305,0.0248259,727,1471,-7.59359,-11.8709
-490,-447,-7.61707,12.3163,0.000953733,0.00348038,0.00240456,0.00493329,-0.00049917,1.02727,0.00346725,0.0235281,734,1471,-7.61707,-12.3163
-483,-447,-7.60498,12.8046,0.00225131,0.00331188,0.00278843,0.00562,-5.68114e-05,0.879362,0.00376575,0.0211905,741,1471,-7.60501,-12.8046
-476,-447,-7.60852,13.2974,0.00378972,0.00362703,0.00350099,0.00721031,0.000206436,0.773782,0.00473956,0.0143662,748,1471,-7.60851,-13.2974
-469,-447,-7.61713,13.8116,0.00556993,0.00434462,0.00458508,0.0095831,0.000331442,0.718982,0.00628117,0.0124451,755,1471,-7.6171,-13.8117
-462,-447,-7.64197,14.3203,0.0076994,0.00586229,0.0061317,0.012981,0.000580721,0.711049,0.00846705,0.0126761,762,1471,-7.64198,-14.3203
-455,-447,-7.68024,14.8121,0.0102468,0.00751205,0.00802907,0.0170241,0.000734759,0.701056,0.0111126,0.0191149,769,1471,-7.68026,-14.8122
-448,-447,-7.48993,15.4828,0.0133443,0.0100269,0.0107229,0.022536,0.00083513,0.708663,0.0147535,0.0406582,776,1471,-7.48991,-15.4828
-441,-447,-7.19098,16.2993,0,0,0,0,0,0,0,-1,783,1471,-7.191,-16.2993
-434,-447,-7.43402,15.6273,0,0,0,0,0,0,0,-1,790,1471,-7.43404,-15.6274
-427,-447,-7.21832,14.691,0,0,0,0,0,0,0,-1,797,1471,-7.21834,-14.6911
-420,-447,-8.0545,12.8055,0,0,0,0,0,0,0,-1,804,1471,-8.05452,-12.8055
-413,-447,-4.27393,6.59705,0,0,0,0,0,0,0,-1,811,1471,-4.27392,-6.59707
-406,-447,-1.04279,6.18591,0,0,0,0,0,0,0,-1,818,1471,-1.04276,-6.18586
-399,-447,0.0134888,0.687622,0,0,0,0,0,0,0,-1,825,1471,0.0134841,-0.68767
-392,-447,-14.0646,3.76147,0,0,0,0,0,0,0,-1,832,1471,-14.0646,-3.7615
-385,-447,-15.1695,2.61865,0,0,0,0,0,0,0,-1,839,1471,-15.1695,-2.61871
-378,-447,-15.9424,1.49316,0,0,0,0,0,0,0,-1,846,1471,-15.9424,-1.49313
-371,-447,-17.3655,0.73291,0,0,0,0,0,0,0,-1,853,1471,-17.3655,-0.732946
-364,-447,0,0,0,0,0,0,0,0,0,-1,860,1471,0,0
-357,-447,0,0,0,0,0,0,0,0,0,-1,867,1471,0,0
-350,-447,0,0,0,0,0,0,0,0,0,-1,874,1471,0,0
-343,-447,0,0,0,0,0,0,0,0,0,-1,881,1471,0,0
-336,-447,0,0,0,0,0,0,0,0,0,-1,888,1471,0,0
-329,-447,0,0,0,0,0,0,0,0,0,-1,895,1471,0,0
-322,-447,0,0,0,0,0,0,0,0,0,-1,902,1471,0,0
-315,-447,0,0,0,0,0,0,0,0,0,-1,909,1471,0,0
-308,-447,0,0,0,0,0,0,0,0,0,-1,916,1471,0,0
-301,-447,0,0,0,0,0,0,0,0,0,-1,923,1471,0,0
-294,-447,0,0,0,0,0,0,0,0,0,-1,930,1471,0,0
-287,-447,0,0,0,0,0,0,0,0,0,-1,937,1471,0,0
-280,-447,0,0,0,0,0,0,0,0,0,-1,944,1471,0,0
-273,-447,0,0,0,0,0,0,0,0,0,-1,951,1471,0,0
-266,-447,0,0,0,0,0,0,0,0,0,-1,958,1471,0,0
-259,-447,0,0,0,0,0,0,0,0,0,-1,965,1471,0,0
-252,-447,0,0,0,0,0,0,0,0,0,-1,972,1471,0,0
-245,-447,0,0,0,0,0,0,0,0,0,-1,979,1471,0,0
-238,-447,0,0,0,0,0,0,0,0,0,-1,986,1471,0,0
-231,-447,0,0,0,0,0,0,0,0,0,-1,993,1471,0,0
-224,-447,0,0,0,0,0,0,0,0,0,-1,1000,1471,0,0
-217,-447,0,0,0,0,0,0,0,0,0,-1,1007,1471,0,0
-210,-447,0,0,0,0,0,0,0,0,0,-1,1014,1471,0,0
-203,-447,0,0,0,0,0,0,0,0,0,-1,1021,1471,0,0
-196,-447,0,0,0,0,0,0,0,0,0,-1,1028,1471,0,0
-189,-447,0,0,0,0,0,0,0,0,0,-1,1035,1471,0,0
-182,-447,0,0,0,0,0,0,0,0,0,-1,1042,1471,0,0
-175,-447,0,0,0,0,0,0,0,0,0,-1,1049,1471,0,0
-168,-447,0,0,0,0,0,0,0,0,0,-1,1056,1471,0,0
-161,-447,0,0,0,0,0,0,0,0,0,-1,1063,1471,0,0
-154,-447,0,0,0,0,0,0,0,0,0,-1,1070,1471,0,0
-147,-447,0,0,0,0,0,0,0,0,0,-1,1077,1471,0,0
-140,-447,0,0,0,0,0,0,0,0,0,-1,1084,1471,0,0
-133,-447,0,0,0,0,0,0,0,0,0,-1,1091,1471,0,0
-126,-447,0,0,0,0,0,0,0,0,0,-1,1098,1471,0,0
-119,-447,0,0,0,0,0,0,0,0,0,-1,1105,1471,0,0
-112,-447,0,0,0,0,0,0,0,0,0,-1,1112,1471,0,0
-105,-447,0,0,0,0,0,0,0,0,0,-1,1119,1471,0,0
-98,-447,0,0,0,0,0,0,0,0,0,-1,1126,1471,0,0
-91,-447,0,0,0,0,0,0,0,0,0,-1,1133,1471,0,0
-84,-447,0,0,0,0,0,0,0,0,0,-1,1140,1471,0,0
-77,-447,0,0,0,0,0,0,0,0,0,-1,1147,1471,0,0
-70,-447,0,0,0,0,0,0,0,0,0,-1,1154,1471,0,0
-63,-447,0,0,0,0,0,0,0,0,0,-1,1161,1471,0,0
-56,-447,0,0,0,0,0,0,0,0,0,-1,1168,1471,0,0
-49,-447,0,0,0,0,0,0,0,0,0,-1,1175,1471,0,0
-42,-447,0,0,0,0,0,0,0,0,0,-1,1182,1471,0,0
-35,-447,0,0,0,0,0,0,0,0,0,-1,1189,1471,0,0
-28,-447,0,0,0,0,0,0,0,0,0,-1,1196,1471,0,0
-21,-447,0,0,0,0,0,0,0,0,0,-1,1203,1471,0,0
-14,-447,0,0,0,0,0,0,0,0,0,-1,1210,1471,0,0
-7,-447,0,0,0,0,0,0,0,0,0,-1,1217,1471,0,0
0,-447,0,0,0,0,0,0,0,0,0,-1,1224,1471,0,0
7,-447,0,0,0,0,0,0,0,0,0,-1,1231,1471,0,0
14,-447,0,0,0,0,0,0,0,0,0,-1,1238,1471,0,0
21,-447,0,0,0,0,0,0,0,0,0,-1,1245,1471,0,0
28,-447,0,0,0,0,0,0,0,0,0,-1,1252,1471,0,0
35,-447,0,0,0,0,0,0,0,0,0,-1,1259,1471,0,0
42,-447,0,0,0,0,0,0,0,0,0,-1,1266,1471,0,0
49,-447,0,0,0,0,0,0,0,0,0,-1,1273,1471,0,0
56,-447,0,0,0,0,0,0,0,0,0,-1,1280,1471,0,0
63,-447,0,0,0,0,0,0,0,0,0,-1,1287,1471,0,0
70,-447,0,0,0,0,0,0,0,0,0,-1,1294,1471,0,0
77,-447,0,0,0,0,0,0,0,0,0,-1,1301,1471,0,0
84,-447,0,0,0,0,0,0,0,0,0,-1,1308,1471,0,0
91,-447,0,0,0,0,0,0,0,0,0,-1,1315,1471,0,0
98,-447,0,0,0,0,0,0,0,0,0,-1,1322,1471,0,0
105,-447,0,0,0,0,0,0,0,0,0,-1,1329,1471,0,0
112,-447,0,0,0,0,0,0,0,0,0,-1,1336,1471,0,0
119,-447,0,0,0,0,0,0,0,0,0,-1,1343,1471,0,0
126,-447,0,0,0,0,0,0,0,0,0,-1,1350,1471,0,0
133,-447,0,0,0,0,0,0,0,0,0,-1,1357,1471,0,0
140,-447,0,0,0,0,0,0,0,0,0,-1,1364,1471,0,0
147,-447,0,0,0,0,0,0,0,0,0,-1,1371,1471,0,0
154,-447,0,0,0,0,0,0,0,0,0,-1,1378,1471,0,0
161,-447,0,0,0,0,0,0,0,0,0,-1,1385,1471,0,0
168,-447,0,0,0,0,0,0,0,0,0,-1,1392,1471,0,0
175,-447,0,0,0,0,0,0,0,0,0,-1,1399,1471,0,0
182,-447,0,0,0,0,0,0,0,0,0,-1,1406,1471,0,0
189,-447,0,0,0,0,0,0,0,0,0,-1,1413,1471,0,0
196,-447,0,0,0,0,0,0,0,0,0,-1,1420,1471,0,0
203,-447,0,0,0,0,0,0,0,0,0,-1,1427,1471,0,0
210,-447,0,0,0,0,0,0,0,0,0,-1,1434,1471,0,0
217,-447,0,0,0,0,0,0,0,0,0,-1,1441,1471,0,0
224,-447,0,0,0,0,0,0,0,0,0,-1,1448,1471,0,0
231,-447,0,0,0,0,0,0,0,0,0,-1,1455,1471,0,0
238,-447,0,0,0,0,0,0,0,0,0,-1,1462,1471,0,0
245,-447,0,0,0,0,0,0,0,0,0,-1,1469,1471,0,0
252,-447,0,0,0,0,0,0,0,0,0,-1,1476,1471,0,0
259,-447,0,0,0,0,0,0,0,0,0,-1,1483,1471,0,0
266,-447,0,0,0,0,0,0,0,0,0,-1,1490,1471,0,0
273,-447,0,0,0,0,0,0,0,0,0,-1,1497,1471,0,0
280,-447,0,0,0,0,0,0,0,0,0,-1,1504,1471,0,0
287,-447,0,0,0,0,0,0,0,0,0,-1,1511,1471,0,0
294,-447,0,0,0,0,0,0,0,0,0,-1,1518,1471,0,0
301,-447,0,0,0,0,0,0,0,0,0,-1,1525,1471,0,0
308,-447,0,0,0,0,0,0,0,0,0,-1,1532,1471,0,0
315,-447,0,0,0,0,0,0,0,0,0,-1,1539,1471,0,0
322,-447,0,0,0,0,0,0,0,0,0,-1,1546,1471,0,0
329,-447,0,0,0,0,0,0,0,0,0,-1,1553,1471,0,0
336,-447,0,0,0,0,0,0,0,0,0,-1,1560,1471,0,0
343,-447,0,0,0,0,0,0,0,0,0,-1,1567,1471,0,0
350,-447,0,0,0,0,0,0,0,0,0,-1,1574,1471,0,0
357,-447,0,0,0,0,0,0,0,0,0,-1,1581,1471,0,0
364,-447,0,0,0,0,0,0,0,0,0,-1,1588,1471,0,0
371,-447,0,0,0,0,0,0,0,0,0,-1,1595,1471,0,0
378,-447,0,0,0,0,0,0,0,0,0,-1,1602,1471,0,0
385,-447,0,0,0,0,0,0,0,0,0,-1,1609,1471,0,0
392,-447,0,0,0,0,0,0,0,0,0,-1,1616,1471,0,0
399,-447,0,0,0,0,0,0,0,0,0,-1,1623,1471,0,0
406,-447,0,0,0,0,0,0,0,0,0,-1,1630,1471,0,0
413,-447,0,0,0,0,0,0,0,0,0,-1,1637,1471,0,0
420,-447,0,0,0,0,0,0,0,0,0,-1,1644,1471,0,0
427,-447,0,0,0,0,0,0,0,0,0,-1,1651,1471,0,0
434,-447,0,0,0,0,0,0,0,0,0,-1,1658,1471,0,0
441,-447,0,0,0,0,0,0,0,0,0,-1,1665,1471,0,0
448,-447,0,0,0,0,0,0,0,0,0,-1,1672,1471,0,0
455,-447,0,0,0,0,0,0,0,0,0,-1,1679,1471,0,0
462,-447,0,0,0,0,0,0,0,0,0,-1,1686,1471,0,0
469,-447,0,0,0,0,0,0,0,0,0,-1,1693,1471,0,0
476,-447,0,0,0,0,0,0,0,0,0,-1,1700,1471,0,0
483,-447,0,0,0,0,0,0,0,0,0,-1,1707,1471,0,0
490,-447,18.2214,-0.810303,0,0,0,0,0,0,0,-1,1714,1471,18.2215,0.810307
497,-447,17.0237,0.352417,0,0,0,0,0,0,0,-1,1721,1471,17.0237,-0.352442
504,-447,15.8998,1.53479,0,0,0,0,0,0,0,-1,1728,1471,15.8997,-1.53478
511,-447,14.7201,2.76111,0,0,0,0,0,0,0,-1,1735,1471,14.7201,-2.76107
518,-447,17.7618,13.2864,0,0,0,0,0,0,0,-1,1742,1471,17.7619,-13.2863
525,-447,17.1191,11.9014,0,0,0,0,0,0,0,-1,1749,1471,17.1191,-11.9013
532,-447,16.3959,10.0455,0,0,0,0,0,0,0,-1,1756,1471,16.3959,-10.0456
539,-447,14.1699,10.0204,0,0,0,0,0,0,0,-1,1763,1471,14.1699,-10.0204
546,-447,16.3715,11.8046,0,0,0,0,0,0,0,-1,1770,1471,16.3714,-11.8046
553,-447,17.5106,13.4012,0,0,0,0,0,0,0,-1,1777,1471,17.5107,-13.4012
560,-447,17.0187,13.168,0,0,0,0,0,0,0,-1,1784,1471,17.0187,-13.168
567,-447,18.9286,15.1703,0,0,0,0,0,0,0,-1,1791,1471,18.9286,-15.1703
574,-447,21.3098,17.5052,0,0,0,0,0,0,0,-1,1798,1471,21.3098,-17.5053
581,-447,21.3795,16.952,0.00556943,0.00347461,-0.00318266,0.0078726,0.00117144,-0.626431,0.00490477,0.0347565,1805,1471,21.3795,-16.952
588,-447,21.4807,16.3346,0.00453101,0.00283127,-0.0027217,0.00653244,0.000829841,-0.634067,0.00410639,0.0207078,1812,1471,21.4807,-16.3346
595,-447,21.4753,15.851,0.00367077,0.0023531,-0.00230001,0.00540445,0.000619421,-0.645909,0.00341527,0.0135372,1819,1471,21.4754,-15.8509
602,-447,21.4562,15.3574,0.00303533,0.00166557,-0.00178311,0.00426057,0.000440332,-0.60204,0.00270557,0.0120476,1826,1471,21.4561,-15.3574
609,-447,21.4398,14.9031,0.00252916,0.00109404,-0.00132752,0.00332064,0.000302563,-0.537628,0.00212012,0.0128633,1833,1471,21.4398,-14.9031
616,-447,21.444,14.4667,0.00216906,0.000674759,-0.000987229,0.00265999,0.000183824,-0.461474,0.00171534,0.0140918,1840,1471,21.4439,-14.4667
623,-447,21.4598,14.0369,0.00205327,0.000333013,-0.000723095,0.00231683,6.94476e-05,-0.34953,0.00152194,0.0151282,1847,1471,21.4599,-14.0369
630,-447,21.4309,13.5696,0.00213275,5.88054e-05,-0.000555872,0.00227235,-8.0787e-05,-0.246036,0.00154253,0.00952213,1854,1471,21.4309,-13.5695
637,-447,21.4214,13.1187,0.00232765,-3.74625e-05,-0.000476278,0.00241996,-0.000129771,-0.191439,0.00165826,0.0106802,1861,1471,21.4213,-13.1186
644,-447,21.4264,12.6682,0.00270431,-2.20778e-05,-0.000519595,0.00279998,-0.000117745,-0.18208,0.00190711,0.0116908,1868,1471,21.4264,-12.6683
651,-447,21.4844,12.1812,0.00327916,0.00015433,-0.000665761,0.00341509,1.83991e-05,-0.201405,0.00227062,0.0454644,1875,1471,21.4843,-12.1812
658,-447,21.6779,11.6107,0,0,0,0,0,0,0,-1,1882,1471,21.6779,-11.6107
665,-447,18.4946,9.79919,0,0,0,0,0,0,0,-1,1889,1471,18.4946,-9.79922
672,-447,18.9784,9.66077,0,0,0,0,0,0,0,-1,1896,1471,18.9784,-9.66081
679,-447,14.844,7.4248,0,0,0,0,0,0,0,-1,1903,1471,14.844,-7.42477
686,-447,9.81079,4.30859,0,0,0,0,0,0,0,-1,1910,1471,9.8108,-4.30864
693,-447,10.48,2.08643,0,0,0,0,0,0,0,-1,1917,1471,10.48,-2.08642
700,-447,0,0,0,0,0,0,0,0,0,-1,1924,1471,0,0
707,-447,0,0,0,0,0,0,0,0,0,-1,1931,1471,0,0
714,-447,0,0,0,0,0,0,0,0,0,-1,1938,1471,0,0
721,-447,0,0,0,0,0,0,0,0,0,-1,1945,1471,0,0
728,-447,0,0,0,0,0,0,0,0,0,-1,1952,1471,0,0
735,-447,0,0,0,0,0,0,0,0,0,-1,1959,1471,0,0
742,-447,0,0,0,0,0,0,0,0,0,-1,1966,1471,0,0
749,-447,0,0,0,0,0,0,0,0,0,-1,1973,1471,0,0
756,-447,0,0,0,0,0,0,0,0,0,-1,1980,1471,0,0
763,-447,0,0,0,0,0,0,0,0,0,-1,1987,1471,0,0
770,-447,0,0,0,0,0,0,0,0,0,-1,1994,1471,0,0
777,-447,0,0,0,0,0,0,0,0,0,-1,2001,1471,0,0
784,-447,0,0,0,0,0,0,0,0,0,-1,2008,1471,0,0
791,-447,0,0,0,0,0,0,0,0,0,-1,2015,1471,0,0
798,-447,0,0,0,0,0,0,0,0,0,-1,2022,1471,0,0
805,-447,0,0,0,0,0,0,0,0,0,-1,2029,1471,0,0
812,-447,0,0,0,0,0,0,0,0,0,-1,2036,1471,0,0
-700,-454,0,0,0,0,0,0,0,0,0,-1,524,1478,0,0
-693,-454,0,0,0,0,0,0,0,0,0,-1,531,1478,0,0
-686,-454,0,0,0,0,0,0,0,0,0,-1,538,1478,0,0
-679,-454,0,0,0,0,0,0,0,0,0,-1,545,1478,0,0
-672,-454,0,0,0,0,0,0,0,0,0,-1,552,1478,0,0
-665,-454,0,0,0,0,0,0,0,0,0,-1,559,1478,0,0
-658,-454,0,0,0,0,0,0,0,0,0,-1,566,1478,0,0
-651,-454,0,0,0,0,0,0,0,0,0,-1,573,1478,0,0
-644,-454,0,0,0,0,0,0,0,0,0,-1,580,1478,0,0
-637,-454,0,0,0,0,0,0,0,0,0,-1,587,1478,0,0
-630,-454,0,0,0,0,0,0,0,0,0,-1,594,1478,0,0
-623,-454,0,0,0,0,0,0,0,0,0,-1,601,1478,0,0
-616,-454,0,0,0,0,0,0,0,0,0,-1,608,1478,0,0
-609,-454,0,0,0,0,0,0,0,0,0,-1,615,1478,0,0
-602,-454,0,0,0,0,0,0,0,0,0,-1,622,1478,0,0
-595,-454,0,0,0,0,0,0,0,0,0,-1,629,1478,0,0
-588,-454,0,0,0,0,0,0,0,0,0,-1,636,1478,0,0
-581,-454,0,0,0,0,0,0,0,0,0,-1,643,1478,0,0
-574,-454,-8.4881,-0.465942,0,0,0,0,0,0,0,-1,650,1478,-8.4881,0.465885
-567,-454,-8.10046,0.922974,0,0,0,0,0,0,0,-1,657,1478,-8.10047,-0.923034
-560,-454,-10.656,3.51172,0,0,0,0,0,0,0,-1,664,1478,-10.656,-3.51176
-553,-454,-9.01129,3.95251,0,0,0,0,0,0,0,-1,671,1478,-9.0113,-3.95256
-546,-454,-9.61896,6.05237,0,0,0,0,0,0,0,-1,678,1478,-9.61897,-6.05239
-539,-454,-7.72589,4.96533,0,0,0,0,0,0,0,-1,685,1478,-7.72592,-4.96532
-532,-454,-7.03931,7.59985,0,0,0,0,0,0,0,-1,692,1478,-7.03929,-7.59981
-525,-454,-5.78723,9.677,0,0,0,0,0,0,0,-1,699,1478,-5.78722,-9.67703
-518,-454,-6.94409,10.288,0,0,0,0,0,0,0,-1,706,1478,-6.94411,-10.288
-511,-454,-7.10864,10.7689,-0.0016375,0.00886659,0.0039961,0.010214,-0.00298491,1.24559,0.00799231,0.0379833,713,1478,-7.10866,-10.7689
-504,-454,-7.0542,11.3572,-0.00108765,0.00602577,0.00298545,0.00711267,-0.00217455,1.22165,0.00560894,0.0175986,720,1478,-7.05418,-11.3572
-497,-454,-7.08826,11.8793,-0.000431306,0.00406603,0.00234137,0.00506367,-0.00142895,1.168,0.00393945,0.019254,727,1478,-7.08826,-11.8793
-490,-454,-7.09827,12.3751,0.000466588,0.00298452,0.00213515,0.00420424,-0.00075313,1.05178,0.00308467,0.0174219,734,1478,-7.09824,-12.3752
-483,-454,-7.10986,12.859,0.0015723,0.00263465,0.0023059,0.00446977,-0.000262816,0.898601,0.0030712,0.0159178,741,1478,-7.10985,-12.859
-476,-454,-7.12976,13.3169,0.0028805,0.00285618,0.00283355,0.00570192,3.47646e-05,0.783252,0.00378974,0.0135682,748,1478,-7.12979,-13.3169
-469,-454,-7.13293,13.8168,0.00438757,0.00352049,0.00374165,0.00772071,0.00018734,0.727721,0.00508584,0.00979828,755,1478,-7.13296,-13.8168
-462,-454,-7.15356,14.3225,0.00613432,0.00470717,0.00496809,0.0104398,0.000401666,0.71407,0.00682993,0.0100043,762,1478,-7.15357,-14.3225
-455,-454,-7.18463,14.8031,0.00821456,0.00626938,0.00658678,0.0139002,0.000583776,0.712099,0.00907844,0.0107361,769,1478,-7.18461,-14.8031
-448,-454,-7.16022,15.3303,0.0107235,0.00851336,0.0088614,0.0185484,0.000688377,0.723366,0.0121427,0.0169001,776,1478,-7.16021,-15.3303
-441,-454,-6.88025,16.1045,0.0135735,0.0108714,0.0114523,0.0237542,0.000690715,0.726684,0.015611,0.0409046,783,1478,-6.88026,-16.1045
-434,-454,-6.46509,16.911,0,0,0,0,0,0,0,-1,790,1478,-6.46506,-16.911
-427,-454,-6.00183,15.8636,0,0,0,0,0,0,0,-1,797,1478,-6.00184,-15.8637
-420,-454,-6.28088,15.2135,0,0,0,0,0,0,0,-1,804,1478,-6.28087,-15.2135
-413,-454,-5.4408,13.674,0,0,0,0,0,0,0,-1,811,1478,-5.44079,-13.6739
-406,-454,-2.38208,10.0308,0,0,0,0,0,0,0,-1,818,1478,-2.38209,-10.0308
-399,-454,-1.21033,6.95447,0,0,0,0,0,0,0,-1,825,1478,-1.21035,-6.95452
-392,-454,0.0967407,0.985474,0,0,0,0,0,0,0,-1,832,1478,0.0967364,-0.985529
-385,-454,2.38629,3.297,0,0,0,0,0,0,0,-1,839,1478,2.38629,-3.29702
-378,-454,-15.9756,2.83997,0,0,0,0,0,0,0,-1,846,1478,-15.9756,-2.83994
-371,-454,-17.2753,2.01453,0,0,0,0,0,0,0,-1,853,1478,-17.2753,-2.01455
-364,-454,1.08124,0.819458,0,0,0,0,0,0,0,-1,860,1478,1.08124,-0.819513
-357,-454,0,0,0,0,0,0,0,0,0,-1,867,1478,0,0
-350,-454,0,0,0,0,0,0,0,0,0,-1,874,1478,0,0
-343,-454,0,0,0,0,0,0,0,0,0,-1,881,1478,0,0
-336,-454,0,0,0,0,0,0,0,0,0,-1,888,1478,0,0
-329,-454,0,0,0,0,0,0,0,0,0,-1,895,1478,0,0
-322,-454,0,0,0,0,0,0,0,0,0,-1,902,1478,0,0
-315,-454,0,0,0,0,0,0,0,0,0,-1,909,1478,0,0
-308,-454,0,0,0,0,0,0,0,0,0,-1,916,1478,0,0
-301,-454,0,0,0,0,0,0,0,0,0,-1,923,1478,0,0
-294,-454,0,0,0,0,0,0,0,0,0,-1,930,1478,0,0
-287,-454,0,0,0,0,0,0,0,0,0,-1,937,1478,0,0
-280,-454,0,0,0,0,0,0,0,0,0,-1,944,1478,0,0
-273,-454,0,0,0,0,0,0,0,0,0,-1,951,1478,0,0
-266,-454,0,0,0,0,0,0,0,0,0,-1,958,1478,0,0
-259,-454,0,0,0,0,0,0,0,0,0,-1,965,1478,0,0
-252,-454,0,0,0,0,0,0,0,0,0,-1,972,1478,0,0
-245,-454,0,0,0,0,0,0,0,0,0,-1,979,1478,0,0
-238,-454,0,0,0,0,0,0,0,0,0,-1,986,1478,0,0
-231,-454,0,0,0,0,0,0,0,0,0,-1,993,1478,0,0
-224,-454,0,0,0,0,0,0,0,0,0,-1,1000,1478,0,0
-217,-454,0,0,0,0,0,0,0,0,0,-1,1007,1478,0,0
-210,-454,0,0,0,0,0,0,0,0,0,-1,1014,1478,0,0
-203,-454,0,0,0,0,0,0,0,0,0,-1,1021,1478,0,0
-196,-454,0,0,0,0,0,0,0,0,0,-1,1028,1478,0,0
-189,-454,0,0,0,0,0,0,0,0,0,-1,1035,1478,0,0
-182,-454,0,0,0,0,0,0,0,0,0,-1,1042,1478,0,0
-175,-454,0,0,0,0,0,0,0,0,0,-1,1049,1478,0,0
-168,-454,0,0,0,0,0,0,0,0,0,-1,1056,1478,0,0
-161,-454,0,0,0,0,0,0,0,0,0,-1,1063,1478,0,0
-154,-454,0,0,0,0,0,0,0,0,0,-1,1070,1478,0,0
-147,-454,0,0,0,0,0,0,0,0,0,-1,1077,1478,0,0
-140,-454,0,0,0,0,0,0,0,0,0,-1,1084,1478,0,0
-133,-454,0,0,0,0,0,0,0,0,0,-1,1091,1478,0,0
-126,-454,0,0,0,0,0,0,0,0,0,-1,1098,1478,0,0
-119,-454,0,0,0,0,0,0,0,0,0,-1,1105,1478,0,0
-112,-454,0,0,0,0,0,0,0,0,0,-1,1112,1478,0,0
-105,-454,0,0,0,0,0,0,0,0,0,-1,1119,1478,0,0
-98,-454,0,0,0,0,0,0,0,0,0,-1,1126,1478,0,0
-91,-454,0,0,0,0,0,0,0,0,0,-1,1133,1478,0,0
-84,-454,0,0,0,0,0,0,0,0,0,-1,1140,1478,0,0
-77,-454,0,0,0,0,0,0,0,0,0,-1,1147,1478,0,0
-70,-454,0,0,0,0,0,0,0,0,0,-1,1154,1478,0,0
-63,-454,0,0,0,0,0,0,0,0,0,-1,1161,1478,0,0
-56,-454,0,0,0,0,0,0,0,0,0,-1,1168,1478,0,0
-49,-454,0,0,0,0,0,0,0,0,0,-1,1175,1478,0,0
-42,-454,0,0,0,0,0,0,0,0,0,-1,1182,1478,0,0
-35,-454,0,0,0,0,0,0,0,0,0,-1,1189,1478,0,0
-28,-454,0,0,0,0,0,0,0,0,0,-1,1196,1478,0,0
-21,-454,0,0,0,0,0,0,0,0,0,-1,1203,1478,0,0
-14,-454,0,0,0,0,0,0,0,0,0,-1,1210,1478,0,0
-7,-454,0,0,0,0,0,0,0,0,0,-1,1217,1478,0,0
0,-454,0,0,0,0,0,0,0,0,0,-1,1224,1478,0,0
7,-454,0,0,0,0,0,0,0,0,0,-1,1231,1478,0,0
14,-454,0,0,0,0,0,0,0,0,0,-1,1238,1478,0,0
21,-454,0,0,0,0,0,0,0,0,0,-1,1245,1478,0,0
28,-454,0,0,0,0,0,0,0,0,0,-1,1252,1478,0,0
35,-454,0,0,0,0,0,0,0,0,0,-1,1259,1478,0,0
42,-454,0,0,0,0,0,0,0,0,0,-1,1266,1478,0,0
49,-454,0,0,0,0,0,0,0,0,0,-1,1273,1478,0,0
56,-454,0,0,0,0,0,0,0,0,0,-1,1280,1478,0,0
63,-454,0,0,0,0,0,0,0,0,0,-1,1287,1478,0,0
70,-454,0,0,0,0,0,0,0,0,0,-1,1294,1478,0,0
77,-454,0,0,0,0,0,0,0,0,0,-1,1301,1478,0,0
84,-454,0,0,0,0,0,0,0,0,0,-1,1308,1478,0,0
91,-454,0,0,0,0,0,0,0,0,0,-1,1315,1478,0,0
98,-454,0,0,0,0,0,0,0,0,0,-1,1322,1478,0,0
105,-454,0,0,0,0,0,0,0,0,0,-1,1329,1478,0,0
112,-454,0,0,0,0,0,0,0,0,0,-1,1336,1478,0,0
119,-454,0,0,0,0,0,0,0,0,0,-1,1343,1478,0,0
126,-454,0,0,0,0,0,0,0,0,0,-1,1350,1478,0,0
133,-454,0,0,0,0,0,0,0,0,0,-1,1357,1478,0,0
140,-454,0,0,0,0,0,0,0,0,0,-1,1364,1478,0,0
147,-454,0,0,0,0,0,0,0,0,0,-1,1371,1478,0,0
154,-454,0,0,0,0,0,0,0,0,0,-1,1378,1478,0,0
161,-454,0,0,0,0,0,0,0,0,0,-1,1385,1478,0,0
168,-454,0,0,0,0,0,0,0,0,0,-1,1392,1478,0,0
175,-454,0,0,0,0,0,0,0,0,0,-1,1399,1478,0,0
182,-454,0,0,0,0,0,0,0,0,0,-1,1406,1478,0,0
189,-454,0,0,0,0,0,0,0,0,0,-1,1413,1478,0,0
196,-454,0,0,0,0,0,0,0,0,0,-1,1420,1478,0,0
203,-454,0,0,0,0,0,0,0,0,0,-1,1427,1478,0,0
210,-454,0,0,0,0,0,0,0,0,0,-1,1434,1478,0,0
217,-454,0,0,0,0,0,0,0,0,0,-1,1441,1478,0,0
224,-454,0,0,0,0,0,0,0,0,0,-1,1448,1478,0,0
231,-454,0,0,0,0,0,0,0,0,0,-1,1455,1478,0,0
238,-454,0,0,0,0,0,0,0,0,0,-1,1462,1478,0,0
245,-454,0,0,0,0,0,0,0,0,0,-1,1469,1478,0,0
252,-454,0,0,0,0,0,0,0,0,0,-1,1476,1478,0,0
259,-454,0,0,0,0,0,0,0,0,0,-1,1483,1478,0,0
266,-454,0,0,0,0,0,0,0,0,0,-1,1490,1478,0,0
273,-454,0,0,0,0,0,0,0,0,0,-1,1497,1478,0,0
280,-454,0,0,0,0,0,0,0,0,0,-1,1504,1478,0,0
287,-454,0,0,0,0,0,0,0,0,0,-1,1511,1478,0,0
294,-454,0,0,0,0,0,0,0,0,0,-1,1518,1478,0,0
301,-454,0,0,0,0,0,0,0,0,0,-1,1525,1478,0,0
308,-454,0,0,0,0,0,0,0,0,0,-1,1532,1478,0,0
315,-454,0,0,0,0,0,0,0,0,0,-1,1539,1478,0,0
322,-454,0,0,0,0,0,0,0,0,0,-1,1546,1478,0,0
329,-454,0,0,0,0,0,0,0,0,0,-1,1553,1478,0,0
336,-454,0,0,0,0,0,0,0,0,0,-1,1560,1478,0,0
343,-454,0,0,0,0,0,0,0,0,0,-1,1567,1478,0,0
350,-454,0,0,0,0,0,0,0,0,0,-1,1574,1478,0,0
357,-454,0,0,0,0,0,0,0,0,0,-1,1581,1478,0,0
364,-454,0,0,0,0,0,0,0,0,0,-1,1588,1478,0,0
371,-454,0,0,0,0,0,0,0,0,0,-1,1595,1478,0,0
378,-454,0,0,0,0,0,0,0,0,0,-1,1602,1478,0,0
385,-454,0,0,0,0,0,0,0,0,0,-1,1609,1478,0,0
392,-454,0,0,0,0,0,0,0,0,0,-1,1616,1478,0,0
399,-454,0,0,0,0,0,0,0,0,0,-1,1623,1478,0,0
406,-454,0,0,0,0,0,0,0,0,0,-1,1630,1478,0,0
413,-454,0,0,0,0,0,0,0,0,0,-1,1637,1478,0,0
420,-454,0,0,0,0,0,0,0,0,0,-1,1644,1478,0,0
427,-454,0,0,0,0,0,0,0,0,0,-1,1651,1478,0,0
434,-454,0,0,0,0,0,0,0,0,0,-1,1658,1478,0,0
441,-454,0,0,0,0,0,0,0,0,0,-1,1665,1478,0,0
448,-454,0,0,0,0,0,0,0,0,0,-1,1672,1478,0,0
455,-454,0,0,0,0,0,0,0,0,0,-1,1679,1478,0,0
462,-454,0,0,0,0,0,0,0,0,0,-1,1686,1478,0,0
469,-454,0,0,0,0,0,0,0,0,0,-1,1693,1478,0,0
476,-454,0,0,0,0,0,0,0,0,0,-1,1700,1478,0,0
483,-454,14.2399,3.97498,0,0,0,0,0,0,0,-1,1707,1478,14.2399,-3.97502
490,-454,18.1821,-0.175781,0,0,0,0,0,0,0,-1,1714,1478,18.1821,0.175822
497,-454,16.8854,1.01208,0,0,0,0,0,0,0,-1,1721,1478,16.8854,-1.01209
504,-454,15.587,2.05994,0,0,0,0,0,0,0,-1,1728,1478,15.5871,-2.05998
511,-454,17.0273,14.5258,0,0,0,0,0,0,0,-1,1735,1478,17.0273,-14.5258
518,-454,16.4158,13.1039,0,0,0,0,0,0,0,-1,1742,1478,16.4157,-13.1038
525,-454,15.7842,11.6628,0,0,0,0,0,0,0,-1,1749,1478,15.7841,-11.6629
532,-454,15.1094,10.2476,0,0,0,0,0,0,0,-1,1756,1478,15.1094,-10.2475
539,-454,13.7905,10.9373,0,0,0,0,0,0,0,-1,1763,1478,13.7906,-10.9372
546,-454,16.2002,13.2458,0,0,0,0,0,0,0,-1,1770,1478,16.2002,-13.2459
553,-454,15.6747,12.1868,0,0,0,0,0,0,0,-1,1777,1478,15.6747,-12.1868
560,-454,16.3895,14.0527,0,0,0,0,0,0,0,-1,1784,1478,16.3895,-14.0528
567,-454,21.1682,17.64,0,0,0,0,0,0,0,-1,1791,1478,21.1682,-17.64
574,-454,21.0513,17.277,0.00478452,0.00301886,-0.00223764,0.00630719,0.00149619,-0.597504,0.00380541,0.0313741,1798,1478,21.0513,-17.277
581,-454,21.0321,16.7889,0.00411893,0.00272006,-0.00213045,0.00566182,0.00117717,-0.62679,0.00344977,0.0191458,1805,1478,21.0321,-16.789
588,-454,21.0643,16.3025,0.00346571,0.00222334,-0.00191699,0.00485965,0.000829402,-0.628717,0.00300174,0.0133022,1812,1478,21.0643,-16.3025
595,-454,21.0206,15.8539,0.00300088,0.0018344,-0.00174359,0.00425619,0.00057909,-0.623995,0.00266548,0.0125602,1819,1478,21.0207,-15.8539
602,-454,21.0068,15.3842,0.00266917,0.0012513,-0.00148922,0.00360959,0.000310876,-0.563248,0.00230975,0.00923995,1826,1478,21.0068,-15.3842
609,-454,21.004,14.9391,0.00244942,0.000768468,-0.00126047,0.00312393,9.39609e-05,-0.491351,0.00205202,0.0101559,1833,1478,21.004,-14.9391
616,-454,21.0131,14.4963,0.00237243,0.000407502,-0.00111674,0.00287736,-9.74323e-05,-0.424639,0.00195153,0.0127228,1840,1478,21.0131,-14.4964
623,-454,21.0291,14.0514,0.00252978,9.92462e-05,-0.00101961,0.00290085,-0.000271827,-0.349037,0.00203058,0.0129474,1847,1478,21.0291,-14.0514
630,-454,20.9999,13.594,0.00286487,-0.00013045,-0.00098943,0.00316219,-0.000427771,-0.291913,0.00226423,0.0129819,1854,1478,20.9999,-13.594
637,-454,20.943,13.1539,0.00335627,-0.000146192,-0.00108121,0.00366315,-0.000453073,-0.276558,0.00260629,0.0114651,1861,1478,20.943,-13.154
644,-454,21.0226,12.6733,0.00409854,1.70817e-06,-0.00136116,0.00450955,-0.000409301,-0.293249,0.00315167,0.0232781,1868,1478,21.0226,-12.6733
651,-454,21.1598,12.0739,0,0,0,0,0,0,0,-1,1875,1478,21.1598,-12.0738
658,-454,17.2583,10.0765,0,0,0,0,0,0,0,-1,1882,1478,17.2583,-10.0765
665,-454,17.683,9.67566,0,0,0,0,0,0,0,-1,1889,1478,17.683,-9.67572
672,-454,16.5476,6.41931,0,0,0,0,0,0,0,-1,1896,1478,16.5476,-6.41929
679,-454,14.2161,5.45007,0,0,0,0,0,0,0,-1,1903,1478,14.2161,-5.45013
686,-454,10.3767,2.12842,0,0,0,0,0,0,0,-1,1910,1478,10.3767,-2.12839
693,-454,11.1857,1.48486,0,0,0,0,0,0,0,-1,1917,1478,11.1857,-1.48487
700,-454,0,0,0,0,0,0,0,0,0,-1,1924,1478,0,0
707,-454,0,0,0,0,0,0,0,0,0,-1,1931,1478,0,0
714,-454,0,0,0,0,0,0,0,0,0,-1,1938,1478,0,0
721,-454,0,0,0,0,0,0,0,0,0,-1,1945,1478,0,0
728,-454,0,0,0,0,0,0,0,0,0,-1,1952,1478,0,0
735,-454,0,0,0,0,0,0,0,0,0,-1,1959,1478,0,0
742,-454,0,0,0,0,0,0,0,0,0,-1,1966,1478,0,0
749,-454,0,0,0,0,0,0,0,0,0,-1,1973,1478,0,0
756,-454,0,0,0,0,0,0,0,0,0,-1,1980,1478,0,0
763,-454,0,0,0,0,0,0,0,0,0,-1,1987,1478,0,0
770,-454,0,0,0,0,0,0,0,0,0,-1,1994,1478,0,0
777,-454,0,0,0,0,0,0,0,0,0,-1,2001,1478,0,0
784,-454,0,0,0,0,0,0,0,0,0,-1,2008,1478,0,0
791,-454,0,0,0,0,0,0,0,0,0,-1,2015,1478,0,0
798,-454,0,0,0,0,0,0,0,0,0,-1,2022,1478,0,0
805,-454,0,0,0,0,0,0,0,0,0,-1,2029,1478,0,0
812,-454,0,0,0,0,0,0,0,0,0,-1,2036,1478,0,0
-700,-461,0,0,0,0,0,0,0,0,0,-1,524,1485,0,0
-693,-461,0,0,0,0,0,0,0,0,0,-1,531,1485,0,0
-686,-461,0,0,0,0,0,0,0,0,0,-1,538,1485,0,0
-679,-461,0,0,0,0,0,0,0,0,0,-1,545,1485,0,0
-672,-461,0,0,0,0,0,0,0,0,0,-1,552,1485,0,0
-665,-461,0,0,0,0,0,0,0,0,0,-1,559,1485,0,0
-658,-461,0,0,0,0,0,0,0,0,0,-1,566,1485,0,0
-651,-461,0,0,0,0,0,0,0,0,0,-1,573,1485,0,0
-644,-461,0,0,0,0,0,0,0,0,0,-1,580,1485,0,0
-637,-461,0,0,0,0,0,0,0,0,0,-1,587,1485,0,0
-630,-461,0,0,0,0,0,0,0,0,0,-1,594,1485,0,0
-623,-461,0,0,0,0,0,0,0,0,0,-1,601,1485,0,0
-616,-461,0,0,0,0,0,0,0,0,0,-1,608,1485,0,0
-609,-461,0,0,0,0,0,0,0,0,0,-1,615,1485,0,0
-602,-461,0,0,0,0,0,0,0,0,0,-1,622,1485,0,0
-595,-461,0,0,0,0,0,0,0,0,0,-1,629,1485,0,0
-588,-461,0,0,0,0,0,0,0,0,0,-1,636,1485,0,0
-581,-461,0,0,0,0,0,0,0,0,0,-1,643,1485,0,0
-574,-461,0,0,0,0,0,0,0,0,0,-1,650,1485,0,0
-567,-461,-9.69031,0.513306,0,0,0,0,0,0,0,-1,657,1485,-9.69032,-0.513305
-560,-461,-7.28815,1.54004,0,0,0,0,0,0,0,-1,664,1485,-7.28817,-1.54005
-553,-461,-11.9607,5.27783,0,0,0,0,0,0,0,-1,671,1485,-11.9607,-5.27778
-546,-461,-11.4215,4.44666,0,0,0,0,0,0,0,-1,678,1485,-11.4215,-4.4467
-539,-461,-9.36493,5.23438,0,0,0,0,0,0,0,-1,685,1485,-9.3649,-5.23432
-532,-461,-7.82898,6.78357,0,0,0,0,0,0,0,-1,692,1485,-7.829,-6.78363
-525,-461,-6.37878,8.75659,0,0,0,0,0,0,0,-1,699,1485,-6.3788,-8.75659
-518,-461,-6.40717,9.93628,-0.00125283,0.0155436,0.00635531,0.0176773,-0.00338646,1.24689,0.0130608,0.0493713,706,1485,-6.40719,-9.93624
-511,-461,-6.42798,10.9199,-0.00091922,0.0100909,0.00413938,0.0114735,-0.00230184,1.24843,0.00852054,0.0432537,713,1485,-6.42801,-10.9199
-504,-461,-6.62421,11.3187,-0.000590235,0.00637714,0.00264901,0.0072699,-0.001483,1.24573,0.00540913,0.0229072,720,1485,-6.62423,-11.3187
-497,-461,-6.57013,11.9103,-0.000209617,0.00385998,0.00167277,0.0044593,-0.000808934,1.22677,0.00327597,0.0110621,727,1485,-6.57011,-11.9102
-490,-461,-6.59259,12.3812,0.000412619,0.00241844,0.00125497,0.00302201,-0.000190955,1.12251,0.00208125,0.012486,734,1485,-6.59256,-12.3813
-483,-461,-6.61127,12.8643,0.00123742,0.00188544,0.00133182,0.00293209,0.000190766,0.904724,0.00189434,0.0120085,741,1485,-6.61129,-12.8643
-476,-461,-6.64014,13.3657,0.00223644,0.0019847,0.00181203,0.00392697,0.00029417,0.750722,0.00252564,0.0107619,748,1485,-6.64015,-13.3657
-469,-461,-6.66895,13.8514,0.00341712,0.00254461,0.00269552,0.00571145,0.000250269,0.705172,0.00372702,0.0124912,755,1485,-6.66896,-13.8514
-462,-461,-6.67114,14.3425,0.00476714,0.00339003,0.00379188,0.00793247,0.000224698,0.695583,0.00521503,0.0176129,762,1485,-6.67112,-14.3426
-455,-461,-6.69904,14.8315,0.00638631,0.00477979,0.00530052,0.0109441,0.000222007,0.710199,0.0072232,0.0210573,769,1485,-6.69904,-14.8316
-448,-461,-6.68518,15.3466,0.00836139,0.00662596,0.00731521,0.0148602,0.000127178,0.726365,0.00986466,0.0186683,776,1485,-6.68515,-15.3466
-441,-461,-6.61749,15.8663,0.0106196,0.00861032,0.00963348,0.0193007,-7.07721e-05,0.733443,0.0128908,0.0221359,783,1485,-6.61749,-15.8664
-434,-461,-6.5531,16.4222,0,0,0,0,0,0,0,-1,790,1485,-6.55312,-16.4222
-427,-461,-6.26385,16.9332,0,0,0,0,0,0,0,-1,797,1485,-6.26386,-16.9333
-420,-461,-5.70355,16.6116,0,0,0,0,0,0,0,-1,804,1485,-5.70353,-16.6115
-413,-461,-5.98798,16.0605,0,0,0,0,0,0,0,-1,811,1485,-5.98796,-16.0605
-406,-461,-5.52667,14.839,0,0,0,0,0,0,0,-1,818,1485,-5.52666,-14.839
-399,-461,-1.93439,9.82849,0,0,0,0,0,0,0,-1,825,1485,-1.9344,-9.82846
-392,-461,-0.357544,5.55225,0,0,0,0,0,0,0,-1,832,1485,-0.357536,-5.55228
-385,-461,1.71509,3.35254,0,0,0,0,0,0,0,-1,839,1485,1.71511,-3.35255
-378,-461,1.95996,3.01111,0,0,0,0,0,0,0,-1,846,1485,1.95993,-3.01111
-371,-461,0.702881,2.33459,0,0,0,0,0,0,0,-1,853,1485,0.702859,-2.33459
-364,-461,-1.93097,2.56458,0,0,0,0,0,0,0,-1,860,1485,-1.93095,-2.56456
-357,-461,-2.41516,3.49487,0,0,0,0,0,0,0,-1,867,1485,-2.41517,-3.49487
-350,-461,0,0,0,0,0,0,0,0,0,-1,874,1485,0,0
-343,-461,0,0,0,0,0,0,0,0,0,-1,881,1485,0,0
-336,-461,0,0,0,0,0,0,0,0,0,-1,888,1485,0,0
-329,-461,0,0,0,0,0,0,0,0,0,-1,895,1485,0,0
-322,-461,0,0,0,0,0,0,0,0,0,-1,902,1485,0,0
-315,-461,0,0,0,0,0,0,0,0,0,-1,909,1485,0,0
-308,-461,0,0,0,0,0,0,0,0,0,-1,916,1485,0,0
-301,-461,0,0,0,0,0,0,0,0,0,-1,923,1485,0,0
-294,-461,0,0,0,0,0,0,0,0,0,-1,930,1485,0,0
-287,-461,0,0,0,0,0,0,0,0,0,-1,937,1485,0,0
-280,-461,0,0,0,0,0,0,0,0,0,-1,944,1485,0,0
-273,-461,0,0,0,0,0,0,0,0,0,-1,951,1485,0,0
-266,-461,0,0,0,0,0,0,0,0,0,-1,958,1485,0,0
-259,-461,0,0,0,0,0,0,0,0,0,-1,965,1485,0,0
-252,-461,0,0,0,0,0,0,0,0,0,-1,972,1485,0,0
-245,-461,0,0,0,0,0,0,0,0,0,-1,979,1485,0,0
-238,-461,0,0,0,0,0,0,0,0,0,-1,986,1485,0,0
-231,-461,0,0,0,0,0,0,0,0,0,-1,993,1485,0,0
-224,-461,0,0,0,0,0,0,0,0,0,-1,1000,1485,0,0
-217,-461,0,0,0,0,0,0,0,0,0,-1,1007,1485,0,0
-210,-461,0,0,0,0,0,0,0,0,0,-1,1014,1485,0,0
-203,-461,0,0,0,0,0,0,0,0,0,-1,1021,1485,0,0
-196,-461,0,0,0,0,0,0,0,0,0,-1,1028,1485,0,0
-189,-461,0,0,0,0,0,0,0,0,0,-1,1035,1485,0,0
-182,-461,0,0,0,0,0,0,0,0,0,-1,1042,1485,0,0
-175,-461,0,0,0,0,0,0,0,0,0,-1,1049,1485,0,0
-168,-461,0,0,0,0,0,0,0,0,0,-1,1056,1485,0,0
-161,-461,0,0,0,0,0,0,0,0,0,-1,1063,1485,0,0
-154,-461,0,0,0,0,0,0,0,0,0,-1,1070,1485,0,0
-147,-461,0,0,0,0,0,0,0,0,0,-1,1077,1485,0,0
-140,-461,0,0,0,0,0,0,0,0,0,-1,1084,1485,0,0
-133,-461,0,0,0,0,0,0,0,0,0,-1,1091,1485,0,0
-126,-461,0,0,0,0,0,0,0,0,0,-1,1098,1485,0,0
-119,-461,0,0,0,0,0,0,0,0,0,-1,1105,1485,0,0
-112,-461,0,0,0,0,0,0,0,0,0,-1,1112,1485,0,0
-105,-461,0,0,0,0,0,0,0,0,0,-1,1119,1485,0,0
-98,-461,0,0,0,0,0,0,0,0,0,-1,1126,1485,0,0
-91,-461,0,0,0,0,0,0,0,0,0,-1,1133,1485,0,0
-84,-461,0,0,0,0,0,0,0,0,0,-1,1140,1485,0,0
-77,-461,0,0,0,0,0,0,0,0,0,-1,1147,1485,0,0
-70,-461,0,0,0,0,0,0,0,0,0,-1,1154,1485,0,0
-63,-461,0,0,0,0,0,0,0,0,0,-1,1161,1485,0,0
-56,-461,0,0,0,0,0,0,0,0,0,-1,1168,1485,0,0
-49,-461,0,0,0,0,0,0,0,0,0,-1,1175,1485,0,0
-42,-461,0,0,0,0,0,0,0,0,0,-1,1182,1485,0,0
-35,-461,0,0,0,0,0,0,0,0,0,-1,1189,1485,0,0
-28,-461,0,0,0,0,0,0,0,0,0,-1,1196,1485,0,0
-21,-461,0,0,0,0,0,0,0,0,0,-1,1203,1485,0,0
-14,-461,0,0,0,0,0,0,0,0,0,-1,1210,1485,0,0
-7,-461,0,0,0,0,0,0,0,0,0,-1,1217,1485,0,0
0,-461,0,0,0,0,0,0,0,0,0,-1,1224,1485,0,0
7,-461,0,0,0,0,0,0,0,0,0,-1,1231,1485,0,0
14,-461,0,0,0,0,0,0,0,0,0,-1,1238,1485,0,0
21,-461,0,0,0,0,0,0,0,0,0,-1,1245,1485,0,0
28,-461,0,0,0,0,0,0,0,0,0,-1,1252,1485,0,0
35,-461,0,0,0,0,0,0,0,0,0,-1,1259,1485,0,0
42,-461,0,0,0,0,0,0,0,0,0,-1,1266,1485,0,0
49,-461,0,0,0,0,0,0,0,0,0,-1,1273,1485,0,0
56,-461,0,0,0,0,0,0,0,0,0,-1,1280,1485,0,0
63,-461,0,0,0,0,0,0,0,0,0,-1,1287,1485,0,0
70,-461,0,0,0,0,0,0,0,0,0,-1,1294,1485,0,0
77,-461,0,0,0,0,0,0,0,0,0,-1,1301,1485,0,0
84,-461,0,0,0,0,0,0,0,0,0,-1,1308,1485,0,0
91,-461,0,0,0,0,0,0,0,0,0,-1,1315,1485,0,0
98,-461,0,0,0,0,0,0,0,0,0,-1,1322,1485,0,0
105,-461,0,0,0,0,0,0,0,0,0,-1,1329,1485,0,0
112,-461,0,0,0,0,0,0,0,0,0,-1,1336,1485,0,0
119,-461,0,0,0,0,0,0,0,0,0,-1,1343,1485,0,0
126,-461,0,0,0,0,0,0,0,0,0,-1,1350,1485,0,0
133,-461,0,0,0,0,0,0,0,0,0,-1,1357,1485,0,0
140,-461,0,0,0,0,0,0,0,0,0,-1,1364,1485,0,0
147,-461,0,0,0,0,0,0,0,0,0,-1,1371,1485,0,0
154,-461,0,0,0,0,0,0,0,0,0,-1,1378,1485,0,0
161,-461,0,0,0,0,0,0,0,0,0,-1,1385,1485,0,0
168,-461,0,0,0,0,0,0,0,0,0,-1,1392,1485,0,0
175,-461,0,0,0,0,0,0,0,0,0,-1,1399,1485,0,0
182,-461,0,0,0,0,0,0,0,0,0,-1,1406,1485,0,0
189,-461,0,0,0,0,0,0,0,0,0,-1,1413,1485,0,0
196,-461,0,0,0,0,0,0,0,0,0,-1,1420,1485,0,0
203,-461,0,0,0,0,0,0,0,0,0,-1,1427,1485,0,0
210,-461,0,0,0,0,0,0,0,0,0,-1,1434,1485,0,0
217,-461,0,0,0,0,0,0,0,0,0,-1,1441,1485,0,0
224,-461,0,0,0,0,0,0,0,0,0,-1,1448,1485,0,0
231,-461,0,0,0,0,0,0,0,0,0,-1,1455,1485,0,0
238,-461,0,0,0,0,0,0,0,0,0,-1,1462,1485,0,0
245,-461,0,0,0,0,0,0,0,0,0,-1,1469,1485,0,0
252,-461,0,0,0,0,0,0,0,0,0,-1,1476,1485,0,0
259,-461,0,0,0,0,0,0,0,0,0,-1,1483,1485,0,0
266,-461,0,0,0,0,0,0,0,0,0,-1,1490,1485,0,0
273,-461,0,0,0,0,0,0,0,0,0,-1,1497,1485,0,0
280,-461,0,0,0,0,0,0,0,0,0,-1,1504,1485,0,0
287,-461,0,0,0,0,0,0,0,0,0,-1,1511,1485,0,0
294,-461,0,0,0,0,0,0,0,0,0,-1,1518,1485,0,0
301,-461,0,0,0,0,0,0,0,0,0,-1,1525,1485,0,0
308,-461,0,0,0,0,0,0,0,0,0,-1,1532,1485,0,0
315,-461,0,0,0,0,0,0,0,0,0,-1,1539,1485,0,0
322,-461,0,0,0,0,0,0,0,0,0,-1,1546,1485,0,0
329,-461,0,0,0,0,0,0,0,0,0,-1,1553,1485,0,0
336,-461,0,0,0,0,0,0,0,0,0,-1,1560,1485,0,0
343,-461,0,0,0,0,0,0,0,0,0,-1,1567,1485,0,0
350,-461,0,0,0,0,0,0,0,0,0,-1,1574,1485,0,0
357,-461,0,0,0,0,0,0,0,0,0,-1,1581,1485,0,0
364,-461,0,0,0,0,0,0,0,0,0,-1,1588,1485,0,0
371,-461,0,0,0,0,0,0,0,0,0,-1,1595,1485,0,0
378,-461,0,0,0,0,0,0,0,0,0,-1,1602,1485,0,0
385,-461,0,0,0,0,0,0,0,0,0,-1,1609,1485,0,0
392,-461,0,0,0,0,0,0,0,0,0,-1,1616,1485,0,0
399,-461,0,0,0,0,0,0,0,0,0,-1,1623,1485,0,0
406,-461,0,0,0,0,0,0,0,0,0,-1,1630,1485,0,0
413,-461,0,0,0,0,0,0,0,0,0,-1,1637,1485,0,0
420,-461,0,0,0,0,0,0,0,0,0,-1,1644,1485,0,0
427,-461,0,0,0,0,0,0,0,0,0,-1,1651,1485,0,0
434,-461,0,0,0,0,0,0,0,0,0,-1,1658,1485,0,0
441,-461,0,0,0,0,0,0,0,0,0,-1,1665,1485,0,0
448,-461,0,0,0,0,0,0,0,0,0,-1,1672,1485,0,0
455,-461,0,0,0,0,0,0,0,0,0,-1,1679,1485,0,0
462,-461,0,0,0,0,0,0,0,0,0,-1,1686,1485,0,0
469,-461,0,0,0,0,0,0,0,0,0,-1,1693,1485,0,0
476,-461,14.1906,0.690552,0,0,0,0,0,0,0,-1,1700,1485,14.1906,-0.690525
483,-461,10.6361,3.09106,0,0,0,0,0,0,0,-1,1707,1485,10.6361,-3.091
490,-461,17.9972,0.665894,0,0,0,0,0,0,0,-1,1714,1485,17.9972,-0.665876
497,-461,16.6829,1.87732,0,0,0,0,0,0,0,-1,1721,1485,16.6828,-1.87736
504,-461,15.3884,3.09216,0,0,0,0,0,0,0,-1,1728,1485,15.3885,-3.09212
511,-461,15.4292,14.3512,0,0,0,0,0,0,0,-1,1735,1485,15.4292,-14.3512
518,-461,14.8081,10.0085,0,0,0,0,0,0,0,-1,1742,1485,14.8081,-10.0086
525,-461,14.0022,10.8033,0,0,0,0,0,0,0,-1,1749,1485,14.0022,-10.8033
532,-461,17.1704,14.077,0,0,0,0,0,0,0,-1,1756,1485,17.1704,-14.077
539,-461,17.0229,14.7386,0,0,0,0,0,0,0,-1,1763,1485,17.0229,-14.7387
546,-461,16.2106,14.1372,0,0,0,0,0,0,0,-1,1770,1485,16.2106,-14.1372
553,-461,20.2495,18.4575,0,0,0,0,0,0,0,-1,1777,1485,20.2495,-18.4576
560,-461,20.6027,18.1371,0,0,0,0,0,0,0,-1,1784,1485,20.6027,-18.1371
567,-461,20.6156,17.598,0.0043941,0.00253727,-0.0016564,0.00536453,0.00156683,-0.529963,0.00318523,0.0294492,1791,1485,20.6156,-17.598
574,-461,20.629,17.2227,0.0037729,0.00217876,-0.00152499,0.00469656,0.0012551,-0.544588,0.00280779,0.0246141,1798,1485,20.629,-17.2227
581,-461,20.6425,16.7626,0.00330383,0.00196838,-0.00153999,0.00431462,0.000957588,-0.580836,0.0026163,0.016273,1805,1485,20.6424,-16.7626
588,-461,20.6122,16.3198,0.00287911,0.0015905,-0.0014611,0.00383166,0.000637957,-0.577736,0.00237057,0.0109132,1812,1485,20.6121,-16.3199
595,-461,20.5741,15.8823,0.00266578,0.00129435,-0.00143017,0.00356613,0.000394004,-0.561857,0.00225758,0.00881402,1819,1485,20.5741,-15.8824
602,-461,20.5699,15.4192,0.00252331,0.000812537,-0.00133723,0.00325533,8.05123e-05,-0.500859,0.00214389,0.00898598,1826,1485,20.5699,-15.4192
609,-461,20.5624,14.9526,0.00247941,0.000417043,-0.00125002,0.00306868,-0.00017223,-0.440517,0.00210555,0.0103159,1833,1485,20.5624,-14.9526
616,-461,20.563,14.5072,0.00258806,0.000116687,-0.00122845,0.00309479,-0.00039004,-0.39123,0.00220474,0.012286,1840,1485,20.563,-14.5072
623,-461,20.5613,14.0826,0.00293436,-0.000150789,-0.00123945,0.00337062,-0.000587048,-0.338434,0.00246617,0.0147079,1847,1485,20.5613,-14.0826
630,-461,20.5286,13.6458,0.00347664,-0.000325551,-0.00130466,0.00388126,-0.000730167,-0.300725,0.00286211,0.0150474,1854,1485,20.5286,-13.6458
637,-461,20.4994,13.1943,0.00426718,-0.000239669,-0.00154186,0.00474419,-0.000716675,-0.300031,0.00342676,0.0140727,1861,1485,20.4993,-13.1944
644,-461,20.5814,12.8218,0.00534433,-1.54249e-05,-0.0019658,0.00598802,-0.000659117,-0.316442,0.00422888,0.0309412,1868,1485,20.5814,-12.8218
651,-461,20.7053,12.3993,0,0,0,0,0,0,0,-1,1875,1485,20.7053,-12.3993
658,-461,16.8987,10.1084,0,0,0,0,0,0,0,-1,1882,1485,16.8986,-10.1084
665,-461,17.2638,9.81384,0,0,0,0,0,0,0,-1,1889,1485,17.2638,-9.81385
672,-461,14.4877,6.89429,0,0,0,0,0,0,0,-1,1896,1485,14.4876,-6.89431
679,-461,10.0535,2.16321,0,0,0,0,0,0,0,-1,1903,1485,10.0535,-2.16317
686,-461,10.8195,1.84192,0,0,0,0,0,0,0,-1,1910,1485,10.8194,-1.84195
693,-461,0,0,0,0,0,0,0,0,0,-1,1917,1485,0,0
700,-461,0,0,0,0,0,0,0,0,0,-1,1924,1485,0,0
707,-461,0,0,0,0,0,0,0,0,0,-1,1931,1485,0,0
714,-461,0,0,0,0,0,0,0,0,0,-1,1938,1485,0,0
721,-461,0,0,0,0,0,0,0,0,0,-1,1945,1485,0,0
728,-461,0,0,0,0,0,0,0,0,0,-1,1952,1485,0,0
735,-461,0,0,0,0,0,0,0,0,0,-1,1959,1485,0,0
742,-461,0,0,0,0,0,0,0,0,0,-1,1966,1485,0,0
749,-461,0,0,0,0,0,0,0,0,0,-1,1973,1485,0,0
756,-461,0,0,0,0,0,0,0,0,0,-1,1980,1485,0,0
763,-461,0,0,0,0,0,0,0,0,0,-1,1987,1485,0,0
770,-461,0,0,0,0,0,0,0,0,0,-1,1994,1485,0,0
777,-461,0,0,0,0,0,0,0,0,0,-1,2001,1485,0,0
784,-461,0,0,0,0,0,0,0,0,0,-1,2008,1485,0,0
791,-461,0,0,0,0,0,0,0,0,0,-1,2015,1485,0,0
798,-461,0,0,0,0,0,0,0,0,0,-1,2022,1485,0,0
805,-461,0,0,0,0,0,0,0,0,0,-1,2029,1485,0,0
812,-461,0,0,0,0,0,0,0,0,0,-1,2036,1485,0,0
-700,-468,0,0,0,0,0,0,0,0,0,-1,524,1492,0,0
-693,-468,0,0,0,0,0,0,0,0,0,-1,531,1492,0,0
-686,-468,0,0,0,0,0,0,0,0,0,-1,538,1492,0,0
-679,-468,0,0,0,0,0,0,0,0,0,-1,545,1492,0,0
-672,-468,0,0,0,0,0,0,0,0,0,-1,552,1492,0,0
-665,-468,0,0,0,0,0,0,0,0,0,-1,559,1492,0,0
-658,-468,0,0,0,0,0,0,0,0,0,-1,566,1492,0,0
-651,-468,0,0,0,0,0,0,0,0,0,-1,573,1492,0,0
-644,-468,0,0,0,0,0,0,0,0,0,-1,580,1492,0,0
-637,-468,0,0,0,0,0,0,0,0,0,-1,587,1492,0,0
-630,-468,0,0,0,0,0,0,0,0,0,-1,594,1492,0,0
-623,-468,0,0,0,0,0,0,0,0,0,-1,601,1492,0,0
-616,-468,0,0,0,0,0,0,0,0,0,-1,608,1492,0,0
-609,-468,0,0,0,0,0,0,0,0,0,-1,615,1492,0,0
-602,-468,0,0,0,0,0,0,0,0,0,-1,622,1492,0,0
-595,-468,0,0,0,0,0,0,0,0,0,-1,629,1492,0,0
-588,-468,0,0,0,0,0,0,0,0,0,-1,636,1492,0,0
-581,-468,0,0,0,0,0,0,0,0,0,-1,643,1492,0,0
-574,-468,0,0,0,0,0,0,0,0,0,-1,650,1492,0,0
-567,-468,-11.2603,1.8042,0,0,0,0,0,0,0,-1,657,1492,-11.2603,-1.80424
-560,-468,-8.77441,2.23694,0,0,0,0,0,0,0,-1,664,1492,-8.77443,-2.23692
-553,-468,-5.94061,9.26318,0,0,0,0,0,0,0,-1,671,1492,-5.94062,-9.26322
-546,-468,-10.47,5.43237,0,0,0,0,0,0,0,-1,678,1492,-10.47,-5.4324
-539,-468,-10.2468,5.45203,0,0,0,0,0,0,0,-1,685,1492,-10.2468,-5.45197
-532,-468,-8.39795,6.02783,0,0,0,0,0,0,0,-1,692,1492,-8.39793,-6.02789
-525,-468,-6.59332,7.15405,0,0,0,0,0,0,0,-1,699,1492,-6.59331,-7.15411
-518,-468,-6.33588,8.65393,0,0,0,0,0,0,0,-1,706,1492,-6.33588,-8.65397
-511,-468,-5.64301,10.6146,0,0,0,0,0,0,0,-1,713,1492,-5.64303,-10.6146
-504,-468,-6.00928,11.3612,0.00171624,0.006737,0.000502558,0.00678681,0.00166643,1.47201,0.00408401,0.0346816,720,1492,-6.00929,-11.3612
-497,-468,-6.09564,11.8922,0.0014725,0.00363353,-0.000531706,0.00375727,0.00134876,-1.34215,0.00219784,0.0156614,727,1492,-6.09564,-11.8923
-490,-468,-6.08154,12.4203,0.0015049,0.001827,-0.000868492,0.00254925,0.000782652,-0.877073,0.00150791,0.00778987,734,1492,-6.08154,-12.4203
-483,-468,-6.11127,12.8984,0.00178468,0.00109418,-0.000601769,0.0021332,0.000745657,-0.524963,0.00125005,0.00808742,741,1492,-6.11125,-12.8984
-476,-468,-6.1438,13.3921,0.00224411,0.00105912,9.70146e-05,0.002252,0.00105123,0.0811492,0.00130115,0.00874029,748,1492,-6.1438,-13.3921
-469,-468,-6.15814,13.8879,0.00291466,0.00150314,0.00118205,0.00358561,0.000832186,0.516269,0.00216695,0.0129216,755,1492,-6.15813,-13.8879
-462,-468,-6.14417,14.3622,0.00374962,0.0020718,0.00237616,0.00543061,0.000390808,0.615702,0.00349742,0.0230609,762,1492,-6.14418,-14.3622
-455,-468,-6.18402,14.8131,0.00484757,0.00329337,0.0039489,0.00809511,4.58327e-05,0.688245,0.00538153,0.023486,769,1492,-6.18402,-14.8131
-448,-468,-6.19043,15.3193,0.0062851,0.00477925,0.00583863,0.0114192,-0.000354803,0.721274,0.00773375,0.0143349,776,1492,-6.19045,-15.3193
-441,-468,-6.19647,15.8046,0.00800333,0.00644935,0.00798588,0.0152499,-0.000797243,0.736903,0.0104425,0.0133509,783,1492,-6.19645,-15.8045
-434,-468,-6.16211,16.3528,0.010721,0.00710029,0.00996165,0.0190355,-0.00121417,0.695513,0.0131138,0.0192701,790,1492,-6.1621,-16.3528
-427,-468,-6.065,16.8717,0.0139094,0.00890581,0.0117593,0.0234301,-0.000614877,0.680585,0.015829,0.0346891,797,1492,-6.06499,-16.8717
-420,-468,-5.81067,17.3932,0,0,0,0,0,0,0,-1,804,1492,-5.8107,-17.3932
-413,-468,-5.30328,17.3519,0,0,0,0,0,0,0,-1,811,1492,-5.30329,-17.352
-406,-468,-2.2356,9.396,0,0,0,0,0,0,0,-1,818,1492,-2.2356,-9.396
-399,-468,-0.940369,8.1936,0,0,0,0,0,0,0,-1,825,1492,-0.940365,-8.19357
-392,-468,-0.35144,8.14673,0,0,0,0,0,0,0,-1,832,1492,-0.351449,-8.14674
-385,-468,0.465759,5.35864,0,0,0,0,0,0,0,-1,839,1492,0.465732,-5.35864
-378,-468,1.99835,3.25391,0,0,0,0,0,0,0,-1,846,1492,1.99837,-3.2539
-371,-468,-0.31842,3.1532,0,0,0,0,0,0,0,-1,853,1492,-0.318441,-3.15324
-364,-468,-0.966736,2.14563,0,0,0,0,0,0,0,-1,860,1492,-0.966735,-2.14557
-357,-468,-3.06787,3.22742,0,0,0,0,0,0,0,-1,867,1492,-3.06784,-3.2274
-350,-468,-3.18658,4.12659,0,0,0,0,0,0,0,-1,874,1492,-3.18659,-4.12658
-343,-468,0,0,0,0,0,0,0,0,0,-1,881,1492,0,0
-336,-468,0,0,0,0,0,0,0,0,0,-1,888,1492,0,0
-329,-468,0,0,0,0,0,0,0,0,0,-1,895,1492,0,0
-322,-468,0,0,0,0,0,0,0,0,0,-1,902,1492,0,0
-315,-468,0,0,0,0,0,0,0,0,0,-1,909,1492,0,0
-308,-468,0,0,0,0,0,0,0,0,0,-1,916,1492,0,0
-301,-468,0,0,0,0,0,0,0,0,0,-1,923,1492,0,0
-294,-468,0,0,0,0,0,0,0,0,0,-1,930,1492,0,0
-287,-468,0,0,0,0,0,0,0,0,0,-1,937,1492,0,0
-280,-468,0,0,0,0,0,0,0,0,0,-1,944,1492,0,0
-273,-468,0,0,0,0,0,0,0,0,0,-1,951,1492,0,0
-266,-468,0,0,0,0,0,0,0,0,0,-1,958,1492,0,0
-259,-468,0,0,0,0,0,0,0,0,0,-1,965,1492,0,0
-252,-468,0,0,0,0,0,0,0,0,0,-1,972,1492,0,0
-245,-468,0,0,0,0,0,0,0,0,0,-1,979,1492,0,0
-238,-468,0,0,0,0,0,0,0,0,0,-1,986,1492,0,0
-231,-468,0,0,0,0,0,0,0,0,0,-1,993,1492,0,0
-224,-468,0,0,0,0,0,0,0,0,0,-1,1000,1492,0,0
-217,-468,0,0,0,0,0,0,0,0,0,-1,1007,1492,0,0
-210,-468,0,0,0,0,0,0,0,0,0,-1,1014,1492,0,0
-203,-468,0,0,0,0,0,0,0,0,0,-1,1021,1492,0,0
-196,-468,0,0,0,0,0,0,0,0,0,-1,1028,1492,0,0
-189,-468,0,0,0,0,0,0,0,0,0,-1,1035,1492,0,0
-182,-468,0,0,0,0,0,0,0,0,0,-1,1042,1492,0,0
-175,-468,0,0,0,0,0,0,0,0,0,-1,1049,1492,0,0
-168,-468,0,0,0,0,0,0,0,0,0,-1,1056,1492,0,0
-161,-468,0,0,0,0,0,0,0,0,0,-1,1063,1492,0,0
-154,-468,0,0,0,0,0,0,0,0,0,-1,1070,1492,0,0
-147,-468,0,0,0,0,0,0,0,0,0,-1,1077,1492,0,0
-140,-468,0,0,0,0,0,0,0,0,0,-1,1084,1492,0,0
-133,-468,0,0,0,0,0,0,0,0,0,-1,1091,1492,0,0
-126,-468,0,0,0,0,0,0,0,0,0,-1,1098,1492,0,0
-119,-468,0,0,0,0,0,0,0,0,0,-1,1105,1492,0,0
-112,-468,0,0,0,0,0,0,0,0,0,-1,1112,1492,0,0
-105,-468,0,0,0,0,0,0,0,0,0,-1,1119,1492,0,0
-98,-468,0,0,0,0,0,0,0,0,0,-1,1126,1492,0,0
-91,-468,0,0,0,0,0,0,0,0,0,-1,1133,1492,0,0
-84,-468,0,0,0,0,0,0,0,0,0,-1,1140,1492,0,0
-77,-468,0,0,0,0,0,0,0,0,0,-1,1147,1492,0,0
-70,-468,0,0,0,0,0,0,0,0,0,-1,1154,1492,0,0
-63,-468,0,0,0,0,0,0,0,0,0,-1,1161,1492,0,0
-56,-468,0,0,0,0,0,0,0,0,0,-1,1168,1492,0,0
-49,-468,0,0,0,0,0,0,0,0,0,-1,1175,1492,0,0
-42,-468,0,0,0,0,0,0,0,0,0,-1,1182,1492,0,0
-35,-468,0,0,0,0,0,0,0,0,0,-1,1189,1492,0,0
-28,-468,0,0,0,0,0,0,0,0,0,-1,1196,1492,0,0
-21,-468,0,0,0,0,0,0,0,0,0,-1,1203,1492,0,0
-14,-468,0,0,0,0,0,0,0,0,0,-1,1210,1492,0,0
-7,-468,0,0,0,0,0,0,0,0,0,-1,1217,1492,0,0
0,-468,0,0,0,0,0,0,0,0,0,-1,1224,1492,0,0
7,-468,0,0,0,0,0,0,0,0,0,-1,1231,1492,0,0
14,-468,0,0,0,0,0,0,0,0,0,-1,1238,1492,0,0
21,-468,0,0,0,0,0,0,0,0,0,-1,1245,1492,0,0
28,-468,0,0,0,0,0,0,0,0,0,-1,1252,1492,0,0
35,-468,0,0,0,0,0,0,0,0,0,-1,1259,1492,0,0
42,-468,0,0,0,0,0,0,0,0,0,-1,1266,1492,0,0
49,-468,0,0,0,0,0,0,0,0,0,-1,1273,1492,0,0
56,-468,0,0,0,0,0,0,0,0,0,-1,1280,1492,0,0
63,-468,0,0,0,0,0,0,0,0,0,-1,1287,1492,0,0
70,-468,0,0,0,0,0,0,0,0,0,-1,1294,1492,0,0
77,-468,0,0,0,0,0,0,0,0,0,-1,1301,1492,0,0
84,-468,0,0,0,0,0,0,0,0,0,-1,1308,1492,0,0
91,-468,0,0,0,0,0,0,0,0,0,-1,1315,1492,0,0
98,-468,0,0,0,0,0,0,0,0,0,-1,1322,1492,0,0
105,-468,0,0,0,0,0,0,0,0,0,-1,1329,1492,0,0
112,-468,0,0,0,0,0,0,0,0,0,-1,1336,1492,0,0
119,-468,0,0,0,0,0,0,0,0,0,-1,1343,1492,0,0
126,-468,0,0,0,0,0,0,0,0,0,-1,1350,1492,0,0
133,-468,0,0,0,0,0,0,0,0,0,-1,1357,1492,0,0
140,-468,0,0,0,0,0,0,0,0,0,-1,1364,1492,0,0
147,-468,0,0,0,0,0,0,0,0,0,-1,1371,1492,0,0
154,-468,0,0,0,0,0,0,0,0,0,-1,1378,1492,0,0
161,-468,0,0,0,0,0,0,0,0,0,-1,1385,1492,0,0
168,-468,0,0,0,0,0,0,0,0,0,-1,1392,1492,0,0
175,-468,0,0,0,0,0,0,0,0,0,-1,1399,1492,0,0
182,-468,0,0,0,0,0,0,0,0,0,-1,1406,1492,0,0
189,-468,0,0,0,0,0,0,0,0,0,-1,1413,1492,0,0
196,-468,0,0,0,0,0,0,0,0,0,-1,1420,1492,0,0
203,-468,0,0,0,0,0,0,0,0,0,-1,1427,1492,0,0
210,-468,0,0,0,0,0,0,0,0,0,-1,1434,1492,0,0
217,-468,0,0,0,0,0,0,0,0,0,-1,1441,1492,0,0
224,-468,0,0,0,0,0,0,0,0,0,-1,1448,1492,0,0
231,-468,0,0,0,0,0,0,0,0,0,-1,1455,1492,0,0
238,-468,0,0,0,0,0,0,0,0,0,-1,1462,1492,0,0
245,-468,0,0,0,0,0,0,0,0,0,-1,1469,1492,0,0
252,-468,0,0,0,0,0,0,0,0,0,-1,1476,1492,0,0
259,-468,0,0,0,0,0,0,0,0,0,-1,1483,1492,0,0
266,-468,0,0,0,0,0,0,0,0,0,-1,1490,1492,0,0
273,-468,0,0,0,0,0,0,0,0,0,-1,1497,1492,0,0
280,-468,0,0,0,0,0,0,0,0,0,-1,1504,1492,0,0
287,-468,0,0,0,0,0,0,0,0,0,-1,1511,1492,0,0
294,-468,0,0,0,0,0,0,0,0,0,-1,1518,1492,0,0
301,-468,0,0,0,0,0,0,0,0,0,-1,1525,1492,0,0
308,-468,0,0,0,0,0,0,0,0,0,-1,1532,1492,0,0
315,-468,0,0,0,0,0,0,0,0,0,-1,1539,1492,0,0
322,-468,0,0,0,0,0,0,0,0,0,-1,1546,1492,0,0
329,-468,0,0,0,0,0,0,0,0,0,-1,1553,1492,0,0
336,-468,0,0,0,0,0,0,0,0,0,-1,1560,1492,0,0
343,-468,0,0,0,0,0,0,0,0,0,-1,1567,1492,0,0
350,-468,0,0,0,0,0,0,0,0,0,-1,1574,1492,0,0
357,-468,0,0,0,0,0,0,0,0,0,-1,1581,1492,0,0
364,-468,0,0,0,0,0,0,0,0,0,-1,1588,1492,0,0
371,-468,0,0,0,0,0,0,0,0,0,-1,1595,1492,0,0
378,-468,0,0,0,0,0,0,0,0,0,-1,1602,1492,0,0
385,-468,0,0,0,0,0,0,0,0,0,-1,1609,1492,0,0
392,-468,0,0,0,0,0,0,0,0,0,-1,1616,1492,0,0
399,-468,0,0,0,0,0,0,0,0,0,-1,1623,1492,0,0
406,-468,0,0,0,0,0,0,0,0,0,-1,1630,1492,0,0
413,-468,0,0,0,0,0,0,0,0,0,-1,1637,1492,0,0
420,-468,0,0,0,0,0,0,0,0,0,-1,1644,1492,0,0
427,-468,0,0,0,0,0,0,0,0,0,-1,1651,1492,0,0
434,-468,0,0,0,0,0,0,0,0,0,-1,1658,1492,0,0
441,-468,0,0,0,0,0,0,0,0,0,-1,1665,1492,0,0
448,-468,0,0,0,0,0,0,0,0,0,-1,1672,1492,0,0
455,-468,0,0,0,0,0,0,0,0,0,-1,1679,1492,0,0
462,-468,0,0,0,0,0,0,0,0,0,-1,1686,1492,0,0
469,-468,15.6879,1.2677,0,0,0,0,0,0,0,-1,1693,1492,15.6879,-1.26772
476,-468,14.9318,1.61865,0,0,0,0,0,0,0,-1,1700,1492,14.9318,-1.61869
483,-468,11.265,4.64795,0,0,0,0,0,0,0,-1,1707,1492,11.265,-4.64798
490,-468,12.1316,3.51624,0,0,0,0,0,0,0,-1,1714,1492,12.1316,-3.51628
497,-468,16.5355,3.14587,0,0,0,0,0,0,0,-1,1721,1492,16.5356,-3.14583
504,-468,15.0642,4.10437,0,0,0,0,0,0,0,-1,1728,1492,15.0643,-4.10431
511,-468,15.6877,9.4801,0,0,0,0,0,0,0,-1,1735,1492,15.6878,-9.48007
518,-468,13.759,11.0887,0,0,0,0,0,0,0,-1,1742,1492,13.759,-11.0887
525,-468,16.6531,14.2238,0,0,0,0,0,0,0,-1,1749,1492,16.653,-14.2237
532,-468,16.9696,15.9641,0,0,0,0,0,0,0,-1,1756,1492,16.9696,-15.9641
539,-468,20.1581,19.4572,0,0,0,0,0,0,0,-1,1763,1492,20.1581,-19.4572
546,-468,20.1104,18.9778,0,0,0,0,0,0,0,-1,1770,1492,20.1103,-18.9778
553,-468,20.2369,18.4843,0,0,0,0,0,0,0,-1,1777,1492,20.237,-18.4843
560,-468,20.173,18.1248,0.00436458,0.00140472,-0.00115705,0.0047632,0.00100609,-0.331782,0.00289889,0.0362187,1784,1492,20.1729,-18.1248
567,-468,20.1505,17.6906,0.0036969,0.00187887,-0.00121888,0.0043084,0.00126737,-0.465,0.00255675,0.0209678,1791,1492,20.1505,-17.6905
574,-468,20.1697,17.2039,0.0031752,0.00159155,-0.00114463,0.00377519,0.000991549,-0.482807,0.00225999,0.0162013,1798,1492,20.1697,-17.2039
581,-468,20.183,16.7656,0.0027846,0.00140646,-0.00120534,0.00348393,0.000707131,-0.525729,0.00212647,0.0164856,1805,1492,20.1829,-16.7656
588,-468,20.1575,16.324,0.00251084,0.00111015,-0.00123504,0.00323029,0.000390705,-0.527472,0.00203582,0.0127858,1812,1492,20.1574,-16.324
595,-468,20.1361,15.8893,0.00248761,0.000872589,-0.00132019,0.00322767,0.000132533,-0.510922,0.00210899,0.0100374,1819,1492,20.1362,-15.8893
602,-468,20.134,15.4413,0.00251517,0.00046886,-0.00137316,0.00320444,-0.000220418,-0.465217,0.00221343,0.00842681,1826,1492,20.1341,-15.4413
609,-468,20.1073,14.9786,0.00265247,0.000148853,-0.00143276,0.00330325,-0.000501923,-0.42635,0.00238713,0.00937891,1833,1492,20.1073,-14.9786
616,-468,20.0945,14.5273,0.00296383,-9.81713e-05,-0.00154619,0.00360875,-0.000743098,-0.395167,0.00268799,0.00988921,1840,1492,20.0945,-14.5273
623,-468,20.0883,14.088,0.00352045,-0.000324373,-0.00168498,0.00415437,-0.000958291,-0.359837,0.00313817,0.0110413,1847,1492,20.0883,-14.0881
630,-468,20.0803,13.6366,0.00427446,-0.000434876,-0.00186286,0.00492224,-0.00108266,-0.334656,0.00369563,0.0115269,1854,1492,20.0803,-13.6366
637,-468,20.0699,13.1794,0.00533267,-0.000248878,-0.00222974,0.00611403,-0.00103024,-0.337056,0.00445928,0.0146694,1861,1492,20.07,-13.1795
644,-468,20.1737,12.83,0.00670902,4.61818e-05,-0.00277033,0.00771039,-0.000955188,-0.34685,0.00548644,0.0413568,1868,1492,20.1737,-12.83
651,-468,20.4197,12.4613,0,0,0,0,0,0,0,-1,1875,1492,20.4196,-12.4612
658,-468,16.4969,10.0774,0,0,0,0,0,0,0,-1,1882,1492,16.497,-10.0774
665,-468,15.4673,8.59546,0,0,0,0,0,0,0,-1,1889,1492,15.4672,-8.59548
672,-468,9.96814,3.61133,0,0,0,0,0,0,0,-1,1896,1492,9.96817,-3.61139
679,-468,11.2191,1.91968,0,0,0,0,0,0,0,-1,1903,1492,11.2191,-1.91965
686,-468,11.9252,1.42285,0,0,0,0,0,0,0,-1,1910,1492,11.9252,-1.42291
693,-468,0,0,0,0,0,0,0,0,0,-1,1917,1492,0,0
700,-468,0,0,0,0,0,0,0,0,0,-1,1924,1492,0,0
707,-468,0,0,0,0,0,0,0,0,0,-1,1931,1492,0,0
714,-468,0,0,0,0,0,0,0,0,0,-1,1938,1492,0,0
721,-468,0,0,0,0,0,0,0,0,0,-1,1945,1492,0,0
728,-468,0,0,0,0,0,0,0,0,0,-1,1952,1492,0,0
735,-468,0,0,0,0,0,0,0,0,0,-1,1959,1492,0,0
742,-468,0,0,0,0,0,0,0,0,0,-1,1966,1492,0,0
749,-468,0,0,0,0,0,0,0,0,0,-1,1973,1492,0,0
756,-468,0,0,0,0,0,0,0,0,0,-1,1980,1492,0,0
763,-468,0,0,0,0,0,0,0,0,0,-1,1987,1492,0,0
770,-468,0,0,0,0,0,0,0,0,0,-1,1994,1492,0,0
777,-468,0,0,0,0,0,0,0,0,0,-1,2001,1492,0,0
784,-468,0,0,0,0,0,0,0,0,0,-1,2008,1492,0,0
791,-468,0,0,0,0,0,0,0,0,0,-1,2015,1492,0,0
798,-468,0,0,0,0,0,0,0,0,0,-1,2022,1492,0,0
805,-468,0,0,0,0,0,0,0,0,0,-1,2029,1492,0,0
812,-468,0,0,0,0,0,0,0,0,0,-1,2036,1492,0,0
-700,-475,0,0,0,0,0,0,0,0,0,-1,524,1499,0,0
-693,-475,0,0,0,0,0,0,0,0,0,-1,531,1499,0,0
-686,-475,0,0,0,0,0,0,0,0,0,-1,538,1499,0,0
-679,-475,0,0,0,0,0,0,0,0,0,-1,545,1499,0,0
-672,-475,0,0,0,0,0,0,0,0,0,-1,552,1499,0,0
-665,-475,0,0,0,0,0,0,0,0,0,-1,559,1499,0,0
-658,-475,0,0,0,0,0,0,0,0,0,-1,566,1499,0,0
-651,-475,0,0,0,0,0,0,0,0,0,-1,573,1499,0,0
-644,-475,0,0,0,0,0,0,0,0,0,-1,580,1499,0,0
-637,-475,0,0,0,0,0,0,0,0,0,-1,587,1499,0,0
-630,-475,0,0,0,0,0,0,0,0,0,-1,594,1499,0,0
-623,-475,0,0,0,0,0,0,0,0,0,-1,601,1499,0,0
-616,-475,0,0,0,0,0,0,0,0,0,-1,608,1499,0,0
-609,-475,0,0,0,0,0,0,0,0,0,-1,615,1499,0,0
-602,-475,0,0,0,0,0,0,0,0,0,-1,622,1499,0,0
-595,-475,0,0,0,0,0,0,0,0,0,-1,629,1499,0,0
-588,-475,0,0,0,0,0,0,0,0,0,-1,636,1499,0,0
-581,-475,0,0,0,0,0,0,0,0,0,-1,643,1499,0,0
-574,-475,0,0,0,0,0,0,0,0,0,-1,650,1499,0,0
-567,-475,0,0,0,0,0,0,0,0,0,-1,657,1499,0,0
-560,-475,-9.42731,9.29517,0,0,0,0,0,0,0,-1,664,1499,-9.42731,-9.29519
-553,-475,-8.15131,8.78369,0,0,0,0,0,0,0,-1,671,1499,-8.15131,-8.78367
-546,-475,-8.41254,8.20654,0,0,0,0,0,0,0,-1,678,1499,-8.41251,-8.20655
-539,-475,-4.7345,4.17419,0,0,0,0,0,0,0,-1,685,1499,-4.73449,-4.17418
-532,-475,-7.07379,4.25024,0,0,0,0,0,0,0,-1,692,1499,-7.07378,-4.2503
-525,-475,-6.13147,5.82166,0,0,0,0,0,0,0,-1,699,1499,-6.1315,-5.8216
-518,-475,-6.02887,7.59229,0,0,0,0,0,0,0,-1,706,1499,-6.02889,-7.59223
-511,-475,-5.57587,10.6755,0,0,0,0,0,0,0,-1,713,1499,-5.57587,-10.6755
-504,-475,-5.50128,11.4685,0.0041145,0.0064596,-0.000942524,0.00679145,0.00378264,-1.23226,0.00392952,0.041676,720,1499,-5.50126,-11.4685
-497,-475,-5.61432,11.9957,0.00320158,0.00275222,-0.00216585,0.00515437,0.000799432,-0.733714,0.0032032,0.0288583,727,1499,-5.61432,-11.9957
-490,-475,-5.62195,12.4214,0.00267579,0.000646204,-0.00253881,0.0043951,-0.00107311,-0.595269,0.00334564,0.0107159,734,1499,-5.62192,-12.4214
-483,-475,-5.63123,12.9464,0.00247279,-0.000192336,-0.00222046,0.00372985,-0.0014494,-0.51514,0.00308535,0.00867038,741,1499,-5.63124,-12.9465
-476,-475,-5.64484,13.4202,0.00249109,-0.000237169,-0.00144236,0.00311222,-0.000858295,-0.406632,0.00241236,0.00968332,748,1499,-5.64484,-13.4201
-469,-475,-5.64227,13.9103,0.00276307,0.000225357,-0.000295427,0.00279701,0.000191419,-0.114377,0.00180426,0.0119185,755,1499,-5.6423,-13.9103
-462,-475,-5.62799,14.3947,0.00320189,0.000713663,0.000895064,0.00349041,0.000425145,0.311827,0.00219897,0.0170784,762,1499,-5.62801,-14.3947
-455,-475,-5.66815,14.8618,0.00389041,0.00190053,0.00242885,0.00552021,0.000270738,0.591006,0.00359329,0.0152183,769,1499,-5.66818,-14.8618
-448,-475,-5.70972,15.3314,0.0049083,0.00320651,0.00413407,0.00827814,-0.00016333,0.683903,0.005574,0.0137443,776,1499,-5.70969,-15.3314
-441,-475,-5.72156,15.8158,0.006204,0.00472041,0.0060631,0.0115705,-0.000646107,0.724527,0.00793782,0.0164811,783,1499,-5.72156,-15.8158
-434,-475,-5.70844,16.2906,0.00831376,0.00556865,0.00783403,0.0148946,-0.00101215,0.698676,0.0102837,0.0109814,790,1499,-5.70841,-16.2906
-427,-475,-5.6507,16.8665,0.0108472,0.00744412,0.0094455,0.0187432,-0.000451879,0.696283,0.0126488,0.0250446,797,1499,-5.65068,-16.8665
-420,-475,-5.5304,17.4028,0.0135412,0.00922004,0.0119976,0.0235712,-0.000809975,0.696311,0.015991,0.043521,804,1499,-5.5304,-17.4029
-413,-475,-5.25458,18.0463,0,0,0,0,0,0,0,-1,811,1499,-5.25459,-18.0463
-406,-475,-2.56116,12.4956,0,0,0,0,0,0,0,-1,818,1499,-2.56116,-12.4956
-399,-475,-1.39667,6.1615,0,0,0,0,0,0,0,-1,825,1499,-1.39664,-6.16155
-392,-475,0.217163,8.61389,0,0,0,0,0,0,0,-1,832,1499,0.217167,-8.6139
-385,-475,1.18372,2.73999,0,0,0,0,0,0,0,-1,839,1499,1.18372,-2.73995
-378,-475,1.31409,2.90149,0,0,0,0,0,0,0,-1,846,1499,1.31411,-2.90151
-371,-475,2.3476,3.31116,0,0,0,0,0,0,0,-1,853,1499,2.34761,-3.31121
-364,-475,1.04462,9.05823,0,0,0,0,0,0,0,-1,860,1499,1.04461,-9.05825
-357,-475,-0.262756,7.97205,0,0,0,0,0,0,0,-1,867,1499,-0.262784,-7.97205
-350,-475,-2.77173,4.35486,0,0,0,0,0,0,0,-1,874,1499,-2.77175,-4.35491
-343,-475,-6.81641,-1.95203,0,0,0,0,0,0,0,-1,881,1499,-6.81643,1.95198
-336,-475,0,0,0,0,0,0,0,0,0,-1,888,1499,0,0
-329,-475,0,0,0,0,0,0,0,0,0,-1,895,1499,0,0
-322,-475,0,0,0,0,0,0,0,0,0,-1,902,1499,0,0
-315,-475,0,0,0,0,0,0,0,0,0,-1,909,1499,0,0
-308,-475,0,0,0,0,0,0,0,0,0,-1,916,1499,0,0
-301,-475,0,0,0,0,0,0,0,0,0,-1,923,1499,0,0
-294,-475,0,0,0,0,0,0,0,0,0,-1,930,1499,0,0
-287,-475,0,0,0,0,0,0,0,0,0,-1,937,1499,0,0
-280,-475,0,0,0,0,0,0,0,0,0,-1,944,1499,0,0
-273,-475,0,0,0,0,0,0,0,0,0,-1,951,1499,0,0
-266,-475,0,0,0,0,0,0,0,0,0,-1,958,1499,0,0
-259,-475,0,0,0,0,0,0,0,0,0,-1,965,1499,0,0
-252,-475,0,0,0,0,0,0,0,0,0,-1,972,1499,0,0
-245,-475,0,0,0,0,0,0,0,0,0,-1,979,1499,0,0
-238,-475,0,0,0,0,0,0,0,0,0,-1,986,1499,0,0
-231,-475,0,0,0,0,0,0,0,0,0,-1,993,1499,0,0
-224,-475,0,0,0,0,0,0,0,0,0,-1,1000,1499,0,0
-217,-475,0,0,0,0,0,0,0,0,0,-1,1007,1499,0,0
-210,-475,0,0,0,0,0,0,0,0,0,-1,1014,1499,0,0
-203,-475,0,0,0,0,0,0,0,0,0,-1,1021,1499,0,0
-196,-475,0,0,0,0,0,0,0,0,0,-1,1028,1499,0,0
-189,-475,0,0,0,0,0,0,0,0,0,-1,1035,1499,0,0
-182,-475,0,0,0,0,0,0,0,0,0,-1,1042,1499,0,0
-175,-475,0,0,0,0,0,0,0,0,0,-1,1049,1499,0,0
-168,-475,0,0,0,0,0,0,0,0,0,-1,1056,1499,0,0
-161,-475,0,0,0,0,0,0,0,0,0,-1,1063,1499,0,0
-154,-475,0,0,0,0,0,0,0,0,0,-1,1070,1499,0,0
-147,-475,0,0,0,0,0,0,0,0,0,-1,1077,1499,0,0
-140,-475,0,0,0,0,0,0,0,0,0,-1,1084,1499,0,0
-133,-475,0,0,0,0,0,0,0,0,0,-1,1091,1499,0,0
-126,-475,0,0,0,0,0,0,0,0,0,-1,1098,1499,0,0
-119,-475,0,0,0,0,0,0,0,0,0,-1,1105,1499,0,0
-112,-475,0,0,0,0,0,0,0,0,0,-1,1112,1499,0,0
-105,-475,0,0,0,0,0,0,0,0,0,-1,1119,1499,0,0
-98,-475,0,0,0,0,0,0,0,0,0,-1,1126,1499,0,0
-91,-475,0,0,0,0,0,0,0,0,0,-1,1133,1499,0,0
-84,-475,0,0,0,0,0,0,0,0,0,-1,1140,1499,0,0
-77,-475,0,0,0,0,0,0,0,0,0,-1,1147,1499,0,0
-70,-475,0,0,0,0,0,0,0,0,0,-1,1154,1499,0,0
-63,-475,0,0,0,0,0,0,0,0,0,-1,1161,1499,0,0
-56,-475,0,0,0,0,0,0,0,0,0,-1,1168,1499,0,0
-49,-475,0,0,0,0,0,0,0,0,0,-1,1175,1499,0,0
-42,-475,0,0,0,0,0,0,0,0,0,-1,1182,1499,0,0
-35,-475,0,0,0,0,0,0,0,0,0,-1,1189,1499,0,0
-28,-475,0,0,0,0,0,0,0,0,0,-1,1196,1499,0,0
-21,-475,0,0,0,0,0,0,0,0,0,-1,1203,1499,0,0
-14,-475,0,0,0,0,0,0,0,0,0,-1,1210,1499,0,0
-7,-475,0,0,0,0,0,0,0,0,0,-1,1217,1499,0,0
0,-475,0,0,0,0,0,0,0,0,0,-1,1224,1499,0,0
7,-475,0,0,0,0,0,0,0,0,0,-1,1231,1499,0,0
14,-475,0,0,0,0,0,0,0,0,0,-1,1238,1499,0,0
21,-475,0,0,0,0,0,0,0,0,0,-1,1245,1499,0,0
28,-475,0,0,0,0,0,0,0,0,0,-1,1252,1499,0,0
35,-475,0,0,0,0,0,0,0,0,0,-1,1259,1499,0,0
42,-475,0,0,0,0,0,0,0,0,0,-1,1266,1499,0,0
49,-475,0,0,0,0,0,0,0,0,0,-1,1273,1499,0,0
56,-475,0,0,0,0,0,0,0,0,0,-1,1280,1499,0,0
63,-475,0,0,0,0,0,0,0,0,0,-1,1287,1499,0,0
70,-475,0,0,0,0,0,0,0,0,0,-1,1294,1499,0,0
77,-475,0,0,0,0,0,0,0,0,0,-1,1301,1499,0,0
84,-475,0,0,0,0,0,0,0,0,0,-1,1308,1499,0,0
91,-475,0,0,0,0,0,0,0,0,0,-1,1315,1499,0,0
98,-475,0,0,0,0,0,0,0,0,0,-1,1322,1499,0,0
105,-475,0,0,0,0,0,0,0,0,0,-1,1329,1499,0,0
112,-475,0,0,0,0,0,0,0,0,0,-1,1336,1499,0,0
119,-475,0,0,0,0,0,0,0,0,0,-1,1343,1499,0,0
126,-475,0,0,0,0,0,0,0,0,0,-1,1350,1499,0,0
133,-475,0,0,0,0,0,0,0,0,0,-1,1357,1499,0,0
140,-475,0,0,0,0,0,0,0,0,0,-1,1364,1499,0,0
147,-475,0,0,0,0,0,0,0,0,0,-1,1371,1499,0,0
154,-475,0,0,0,0,0,0,0,0,0,-1,1378,1499,0,0
161,-475,0,0,0,0,0,0,0,0,0,-1,1385,1499,0,0
168,-475,0,0,0,0,0,0,0,0,0,-1,1392,1499,0,0
175,-475,0,0,0,0,0,0,0,0,0,-1,1399,1499,0,0
182,-475,0,0,0,0,0,0,0,0,0,-1,1406,1499,0,0
189,-475,0,0,0,0,0,0,0,0,0,-1,1413,1499,0,0
196,-475,0,0,0,0,0,0,0,0,0,-1,1420,1499,0,0
203,-475,0,0,0,0,0,0,0,0,0,-1,1427,1499,0,0
210,-475,0,0,0,0,0,0,0,0,0,-1,1434,1499,0,0
217,-475,0,0,0,0,0,0,0,0,0,-1,1441,1499,0,0
224,-475,0,0,0,0,0,0,0,0,0,-1,1448,1499,0,0
231,-475,0,0,0,0,0,0,0,0,0,-1,1455,1499,0,0
238,-475,0,0,0,0,0,0,0,0,0,-1,1462,1499,0,0
245,-475,0,0,0,0,0,0,0,0,0,-1,1469,1499,0,0
252,-475,0,0,0,0,0,0,0,0,0,-1,1476,1499,0,0
259,-475,0,0,0,0,0,0,0,0,0,-1,1483,1499,0,0
266,-475,0,0,0,0,0,0,0,0,0,-1,1490,1499,0,0
273,-475,0,0,0,0,0,0,0,0,0,-1,1497,1499,0,0
280,-475,0,0,0,0,0,0,0,0,0,-1,1504,1499,0,0
287,-475,0,0,0,0,0,0,0,0,0,-1,1511,1499,0,0
294,-475,0,0,0,0,0,0,0,0,0,-1,1518,1499,0,0
301,-475,0,0,0,0,0,0,0,0,0,-1,1525,1499,0,0
308,-475,0,0,0,0,0,0,0,0,0,-1,1532,1499,0,0
315,-475,0,0,0,0,0,0,0,0,0,-1,1539,1499,0,0
322,-475,0,0,0,0,0,0,0,0,0,-1,1546,1499,0,0
329,-475,0,0,0,0,0,0,0,0,0,-1,1553,1499,0,0
336,-475,0,0,0,0,0,0,0,0,0,-1,1560,1499,0,0
343,-475,0,0,0,0,0,0,0,0,0,-1,1567,1499,0,0
350,-475,0,0,0,0,0,0,0,0,0,-1,1574,1499,0,0
357,-475,0,0,0,0,0,0,0,0,0,-1,1581,1499,0,0
364,-475,0,0,0,0,0,0,0,0,0,-1,1588,1499,0,0
371,-475,0,0,0,0,0,0,0,0,0,-1,1595,1499,0,0
378,-475,0,0,0,0,0,0,0,0,0,-1,1602,1499,0,0
385,-475,0,0,0,0,0,0,0,0,0,-1,1609,1499,0,0
392,-475,0,0,0,0,0,0,0,0,0,-1,1616,1499,0,0
399,-475,0,0,0,0,0,0,0,0,0,-1,1623,1499,0,0
406,-475,0,0,0,0,0,0,0,0,0,-1,1630,1499,0,0
413,-475,0,0,0,0,0,0,0,0,0,-1,1637,1499,0,0
420,-475,0,0,0,0,0,0,0,0,0,-1,1644,1499,0,0
427,-475,0,0,0,0,0,0,0,0,0,-1,1651,1499,0,0
434,-475,0,0,0,0,0,0,0,0,0,-1,1658,1499,0,0
441,-475,0,0,0,0,0,0,0,0,0,-1,1665,1499,0,0
448,-475,0,0,0,0,0,0,0,0,0,-1,1672,1499,0,0
455,-475,0,0,0,0,0,0,0,0,0,-1,1679,1499,0,0
462,-475,12.6372,0.275391,0,0,0,0,0,0,0,-1,1686,1499,12.6372,-0.27536
469,-475,15.6437,2.28296,0,0,0,0,0,0,0,-1,1693,1499,15.6437,-2.28293
476,-475,15.3302,2.71436,0,0,0,0,0,0,0,-1,1700,1499,15.3303,-2.7143
483,-475,10.7461,5.91479,0,0,0,0,0,0,0,-1,1707,1499,10.7461,-5.91476
490,-475,11.9305,4.4364,0,0,0,0,0,0,0,-1,1714,1499,11.9305,-4.43644
497,-475,15.3451,4.3479,0,0,0,0,0,0,0,-1,1721,1499,15.3451,-4.34789
504,-475,16.9646,7.71265,0,0,0,0,0,0,0,-1,1728,1499,16.9646,-7.71265
511,-475,18.941,12.7572,0,0,0,0,0,0,0,-1,1735,1499,18.941,-12.7572
518,-475,17.0021,13.8564,0,0,0,0,0,0,0,-1,1742,1499,17.0021,-13.8564
525,-475,17.5637,15.2103,0,0,0,0,0,0,0,-1,1749,1499,17.5637,-15.2103
532,-475,19.6226,19.6184,0,0,0,0,0,0,0,-1,1756,1499,19.6225,-19.6184
539,-475,19.7275,19.3689,0.00444789,-0.000274628,-0.000442218,0.00448895,-0.00031568,-0.092568,0.00310321,0.0442955,1763,1499,19.7276,-19.3689
546,-475,19.7672,19.0521,0,0,0,0,0,0,0,-1,1770,1499,19.7673,-19.0521
553,-475,20.2244,18.5111,0,0,0,0,0,0,0,-1,1777,1499,20.2244,-18.5111
560,-475,19.6213,18.2212,0.00354266,0.00107028,-0.000933931,0.00385579,0.000757154,-0.323503,0.002359,0.0248475,1784,1499,19.6214,-18.2212
567,-475,19.7542,17.6605,0.00305085,0.00140704,-0.000978737,0.00350701,0.000950875,-0.436138,0.00209428,0.0156757,1791,1499,19.7541,-17.6605
574,-475,19.7086,17.2153,0.00270263,0.00119789,-0.000975843,0.00318246,0.000718053,-0.456997,0.0019274,0.0152917,1798,1499,19.7086,-17.2153
581,-475,19.6963,16.7937,0.00246013,0.00103396,-0.00108858,0.00304839,0.000445702,-0.495436,0.00190119,0.0126747,1805,1499,19.6962,-16.7937
588,-475,19.696,16.3429,0.00236197,0.000806586,-0.00122315,0.00303372,0.000134833,-0.50223,0.00197907,0.0104531,1812,1499,19.696,-16.3429
595,-475,19.6934,15.903,0.00252913,0.000610423,-0.00142231,0.00328539,-0.000145837,-0.488694,0.00224046,0.0108829,1819,1499,19.6933,-15.903
602,-475,19.6879,15.4629,0.00274302,0.000278152,-0.00163229,0.00355589,-0.000534717,-0.46204,0.00256746,0.0115811,1826,1499,19.6879,-15.4628
609,-475,19.66,15.014,0.0030807,2.44369e-05,-0.00186066,0.00396031,-0.000855176,-0.441605,0.00296664,0.011177,1833,1499,19.6601,-15.014
616,-475,19.6342,14.5654,0.00362776,-0.000187042,-0.00213862,0.00458599,-0.00114528,-0.421242,0.00350208,0.0115909,1840,1499,19.6341,-14.5654
623,-475,19.6278,14.0983,0.00442997,-0.0003965,-0.00244226,0.00545015,-0.00141668,-0.395688,0.00418634,0.0111552,1847,1499,19.6278,-14.0982
630,-475,19.6288,13.6415,0.00543819,-0.000459208,-0.0027737,0.00653773,-0.00155875,-0.377413,0.00496039,0.0131216,1854,1499,19.6288,-13.6415
637,-475,19.6538,13.1552,0.00680822,-0.00020121,-0.00329656,0.00811499,-0.00150797,-0.377401,0.00597641,0.0258402,1861,1499,19.6538,-13.1551
644,-475,19.6969,12.6908,0,0,0,0,0,0,0,-1,1868,1499,19.6968,-12.6908
651,-475,11.7965,7.57593,0,0,0,0,0,0,0,-1,1875,1499,11.7965,-7.5759
658,-475,14.6708,8.80322,0,0,0,0,0,0,0,-1,1882,1499,14.6708,-8.8032
665,-475,9.33435,5.43335,0,0,0,0,0,0,0,-1,1889,1499,9.33439,-5.43332
672,-475,9.38635,1.10474,0,0,0,0,0,0,0,-1,1896,1499,9.38629,-1.10475
679,-475,12.2594,1.31079,0,0,0,0,0,0,0,-1,1903,1499,12.2594,-1.31077
686,-475,0,0,0,0,0,0,0,0,0,-1,1910,1499,0,0
693,-475,0,0,0,0,0,0,0,0,0,-1,1917,1499,0,0
700,-475,0,0,0,0,0,0,0,0,0,-1,1924,1499,0,0
707,-475,0,0,0,0,0,0,0,0,0,-1,1931,1499,0,0
714,-475,0,0,0,0,0,0,0,0,0,-1,1938,1499,0,0
721,-475,0,0,0,0,0,0,0,0,0,-1,1945,1499,0,0
728,-475,0,0,0,0,0,0,0,0,0,-1,1952,1499,0,0
735,-475,0,0,0,0,0,0,0,0,0,-1,1959,1499,0,0
742,-475,0,0,0,0,0,0,0,0,0,-1,1966,1499,0,0
749,-475,0,0,0,0,0,0,0,0,0,-1,1973,1499,0,0
756,-475,0,0,0,0,0,0,0,0,0,-1,1980,1499,0,0
763,-475,0,0,0,0,0,0,0,0,0,-1,1987,1499,0,0
770,-475,0,0,0,0,0,0,0,0,0,-1,1994,1499,0,0
777,-475,0,0,0,0,0,0,0,0,0,-1,2001,1499,0,0
784,-475,0,0,0,0,0,0,0,0,0,-1,2008,1499,0,0
791,-475,0,0,0,0,0,0,0,0,0,-1,2015,1499,0,0
798,-475,0,0,0,0,0,0,0,0,0,-1,2022,1499,0,0
805,-475,0,0,0,0,0,0,0,0,0,-1,2029,1499,0,0
812,-475,0,0,0,0,0,0,0,0,0,-1,2036,1499,0,0
-700,-482,0,0,0,0,0,0,0,0,0,-1,524,1506,0,0
-693,-482,0,0,0,0,0,0,0,0,0,-1,531,1506,0,0
-686,-482,0,0,0,0,0,0,0,0,0,-1,538,1506,0,0
-679,-482,0,0,0,0,0,0,0,0,0,-1,545,1506,0,0
-672,-482,0,0,0,0,0,0,0,0,0,-1,552,1506,0,0
-665,-482,0,0,0,0,0,0,0,0,0,-1,559,1506,0,0
-658,-482,0,0,0,0,0,0,0,0,0,-1,566,1506,0,0
-651,-482,0,0,0,0,0,0,0,0,0,-1,573,1506,0,0
-644,-482,0,0,0,0,0,0,0,0,0,-1,580,1506,0,0
-637,-482,0,0,0,0,0,0,0,0,0,-1,587,1506,0,0
-630,-482,0,0,0,0,0,0,0,0,0,-1,594,1506,0,0
-623,-482,0,0,0,0,0,0,0,0,0,-1,601,1506,0,0
-616,-482,0,0,0,0,0,0,0,0,0,-1,608,1506,0,0
-609,-482,0,0,0,0,0,0,0,0,0,-1,615,1506,0,0
-602,-482,0,0,0,0,0,0,0,0,0,-1,622,1506,0,0
-595,-482,0,0,0,0,0,0,0,0,0,-1,629,1506,0,0
-588,-482,0,0,0,0,0,0,0,0,0,-1,636,1506,0,0
-581,-482,0,0,0,0,0,0,0,0,0,-1,643,1506,0,0
-574,-482,0,0,0,0,0,0,0,0,0,-1,650,1506,0,0
-567,-482,0,0,0,0,0,0,0,0,0,-1,657,1506,0,0
-560,-482,0,0,0,0,0,0,0,0,0,-1,664,1506,0,0
-553,-482,-9.06055,9.34314,0,0,0,0,0,0,0,-1,671,1506,-9.06056,-9.34312
-546,-482,-4.08624,8.34241,0,0,0,0,0,0,0,-1,678,1506,-4.08624,-8.3424
-539,-482,-4.29877,2.73499,0,0,0,0,0,0,0,-1,685,1506,-4.29879,-2.73494
-532,-482,-3.63611,4.23987,0,0,0,0,0,0,0,-1,692,1506,-3.63609,-4.23983
-525,-482,-6.19116,5.24927,0,0,0,0,0,0,0,-1,699,1506,-6.19117,-5.24927
-518,-482,-5.92957,6.39807,0,0,0,0,0,0,0,-1,706,1506,-5.92958,-6.39806
-511,-482,-5.21991,9.77795,0,0,0,0,0,0,0,-1,713,1506,-5.21991,-9.7779
-504,-482,-5.13074,10.9835,0.00758997,0.00556202,-0.00368013,0.0103933,0.00275873,-0.65097,0.00621676,0.0483156,720,1506,-5.13076,-10.9836
-497,-482,-5.02344,12.0183,0.00572693,0.00157231,-0.00472933,0.00881506,-0.00151582,-0.578463,0.0064417,0.0413178,727,1506,-5.02342,-12.0184
-490,-482,-5.16931,12.3984,0.00442652,-0.000587435,-0.00483595,0.00736668,-0.0035276,-0.546267,0.00641867,0.0265503,734,1506,-5.16929,-12.3984
-483,-482,-5.15283,12.9395,0.00360867,-0.00135494,-0.00421722,0.00602016,-0.00376643,-0.519441,0.00570001,0.00974799,741,1506,-5.15284,-12.9395
-476,-482,-5.16382,13.4286,0.00305465,-0.00133506,-0.00320046,0.00474056,-0.00302097,-0.484835,0.00451763,0.00969038,748,1506,-5.16384,-13.4286
-469,-482,-5.17542,13.9271,0.00284627,-0.000833712,-0.0018769,0.00363464,-0.00162209,-0.397664,0.00310823,0.0108008,755,1506,-5.17539,-13.9271
-462,-482,-5.17688,14.4063,0.00287047,-0.000388219,-0.000581568,0.00297115,-0.000488899,-0.171419,0.00216223,0.0117468,762,1506,-5.17687,-14.4063
-455,-482,-5.18915,14.8524,0.00317083,0.000717705,0.000974197,0.00351064,0.000377898,0.335612,0.00222518,0.0119151,769,1506,-5.18914,-14.8524
-448,-482,-5.20697,15.3546,0.00382797,0.00182197,0.00255665,0.00557132,7.86171e-05,0.598468,0.00368829,0.0133931,776,1506,-5.20697,-15.3546
-441,-482,-5.21423,15.8391,0.00479419,0.00313818,0.00431495,0.00835986,-0.000427487,0.690604,0.00572106,0.0135806,783,1506,-5.21422,-15.8391
-434,-482,-5.22357,16.3053,0.00639879,0.00412065,0.00593183,0.0112999,-0.000780486,0.690539,0.00780646,0.0158852,790,1506,-5.22354,-16.3053
-427,-482,-5.23633,16.8202,0.00843319,0.00586545,0.00736792,0.0146283,-0.000329623,0.699139,0.00986388,0.0187474,797,1506,-5.23633,-16.8202
-420,-482,-5.1524,17.5502,0.0106305,0.00756586,0.00950031,0.0187213,-0.000524904,0.70544,0.0126595,0.0434825,804,1506,-5.15243,-17.5501
-413,-482,-4.90582,18.2472,0,0,0,0,0,0,0,-1,811,1506,-4.90582,-18.2472
-406,-482,-2.51373,12.7556,0,0,0,0,0,0,0,-1,818,1506,-2.51376,-12.7556
-399,-482,-1.3822,9.22595,0,0,0,0,0,0,0,-1,825,1506,-1.38221,-9.22598
-392,-482,-1.06836,9.22729,0,0,0,0,0,0,0,-1,832,1506,-1.06835,-9.2273
-385,-482,0.0647583,8.90649,0,0,0,0,0,0,0,-1,839,1506,0.0647778,-8.90644
-378,-482,0.215698,5.96948,0,0,0,0,0,0,0,-1,846,1506,0.215681,-5.9695
-371,-482,-0.10907,8.10437,0,0,0,0,0,0,0,-1,853,1506,-0.109063,-8.10433
-364,-482,-0.154968,10.5032,0,0,0,0,0,0,0,-1,860,1506,-0.154976,-10.5032
-357,-482,2.14807,4.60144,0,0,0,0,0,0,0,-1,867,1506,2.14807,-4.60144
-350,-482,-7.5813,-1.45935,0,0,0,0,0,0,0,-1,874,1506,-7.58133,1.45937
-343,-482,-7.19983,-1.26416,0,0,0,0,0,0,0,-1,881,1506,-7.19981,1.26414
-336,-482,-6.78491,-1.18127,0,0,0,0,0,0,0,-1,888,1506,-6.78488,1.18125
-329,-482,0,0,0,0,0,0,0,0,0,-1,895,1506,0,0
-322,-482,0,0,0,0,0,0,0,0,0,-1,902,1506,0,0
-315,-482,0,0,0,0,0,0,0,0,0,-1,909,1506,0,0
-308,-482,0,0,0,0,0,0,0,0,0,-1,916,1506,0,0
-301,-482,0,0,0,0,0,0,0,0,0,-1,923,1506,0,0
-294,-482,0,0,0,0,0,0,0,0,0,-1,930,1506,0,0
-287,-482,0,0,0,0,0,0,0,0,0,-1,937,1506,0,0
-280,-482,0,0,0,0,0,0,0,0,0,-1,944,1506,0,0
-273,-482,0,0,0,0,0,0,0,0,0,-1,951,1506,0,0
-266,-482,0,0,0,0,0,0,0,0,0,-1,958,1506,0,0
-259,-482,0,0,0,0,0,0,0,0,0,-1,965,1506,0,0
-252,-482,0,0,0,0,0,0,0,0,0,-1,972,1506,0,0
-245,-482,0,0,0,0,0,0,0,0,0,-1,979,1506,0,0
-238,-482,0,0,0,0,0,0,0,0,0,-1,986,1506,0,0
-231,-482,0,0,0,0,0,0,0,0,0,-1,993,1506,0,0
-224,-482,0,0,0,0,0,0,0,0,0,-1,1000,1506,0,0
-217,-482,0,0,0,0,0,0,0,0,0,-1,1007,1506,0,0
-210,-482,0,0,0,0,0,0,0,0,0,-1,1014,1506,0,0
-203,-482,0,0,0,0,0,0,0,0,0,-1,1021,1506,0,0
-196,-482,0,0,0,0,0,0,0,0,0,-1,1028,1506,0,0
-189,-482,0,0,0,0,0,0,0,0,0,-1,1035,1506,0,0
-182,-482,0,0,0,0,0,0,0,0,0,-1,1042,1506,0,0
-175,-482,0,0,0,0,0,0,0,0,0,-1,1049,1506,0,0
-168,-482,0,0,0,0,0,0,0,0,0,-1,1056,1506,0,0
-161,-482,0,0,0,0,0,0,0,0,0,-1,1063,1506,0,0
-154,-482,0,0,0,0,0,0,0,0,0,-1,1070,1506,0,0
-147,-482,0,0,0,0,0,0,0,0,0,-1,1077,1506,0,0
-140,-482,0,0,0,0,0,0,0,0,0,-1,1084,1506,0,0
-133,-482,0,0,0,0,0,0,0,0,0,-1,1091,1506,0,0
-126,-482,0,0,0,0,0,0,0,0,0,-1,1098,1506,0,0
-119,-482,0,0,0,0,0,0,0,0,0,-1,1105,1506,0,0
-112,-482,0,0,0,0,0,0,0,0,0,-1,1112,1506,0,0
-105,-482,0,0,0,0,0,0,0,0,0,-1,1119,1506,0,0
-98,-482,0,0,0,0,0,0,0,0,0,-1,1126,1506,0,0
-91,-482,0,0,0,0,0,0,0,0,0,-1,1133,1506,0,0
-84,-482,0,0,0,0,0,0,0,0,0,-1,1140,1506,0,0
-77,-482,0,0,0,0,0,0,0,0,0,-1,1147,1506,0,0
-70,-482,0,0,0,0,0,0,0,0,0,-1,1154,1506,0,0
-63,-482,0,0,0,0,0,0,0,0,0,-1,1161,1506,0,0
-56,-482,0,0,0,0,0,0,0,0,0,-1,1168,1506,0,0
-49,-482,0,0,0,0,0,0,0,0,0,-1,1175,1506,0,0
-42,-482,0,0,0,0,0,0,0,0,0,-1,1182,1506,0,0
-35,-482,0,0,0,0,0,0,0,0,0,-1,1189,1506,0,0
-28,-482,0,0,0,0,0,0,0,0,0,-1,1196,1506,0,0
-21,-482,0,0,0,0,0,0,0,0,0,-1,1203,1506,0,0
-14,-482,0,0,0,0,0,0,0,0,0,-1,1210,1506,0,0
-7,-482,0,0,0,0,0,0,0,0,0,-1,1217,1506,0,0
0,-482,0,0,0,0,0,0,0,0,0,-1,1224,1506,0,0
7,-482,0,0,0,0,0,0,0,0,0,-1,1231,1506,0,0
14,-482,0,0,0,0,0,0,0,0,0,-1,1238,1506,0,0
21,-482,0,0,0,0,0,0,0,0,0,-1,1245,1506,0,0
28,-482,0,0,0,0,0,0,0,0,0,-1,1252,1506,0,0
35,-482,0,0,0,0,0,0,0,0,0,-1,1259,1506,0,0
42,-482,0,0,0,0,0,0,0,0,0,-1,1266,1506,0,0
49,-482,0,0,0,0,0,0,0,0,0,-1,1273,1506,0,0
56,-482,0,0,0,0,0,0,0,0,0,-1,1280,1506,0,0
63,-482,0,0,0,0,0,0,0,0,0,-1,1287,1506,0,0
70,-482,0,0,0,0,0,0,0,0,0,-1,1294,1506,0,0
77,-482,0,0,0,0,0,0,0,0,0,-1,1301,1506,0,0
84,-482,0,0,0,0,0,0,0,0,0,-1,1308,1506,0,0
91,-482,0,0,0,0,0,0,0,0,0,-1,1315,1506,0,0
98,-482,0,0,0,0,0,0,0,0,0,-1,1322,1506,0,0
105,-482,0,0,0,0,0,0,0,0,0,-1,1329,1506,0,0
112,-482,0,0,0,0,0,0,0,0,0,-1,1336,1506,0,0
119,-482,0,0,0,0,0,0,0,0,0,-1,1343,1506,0,0
126,-482,0,0,0,0,0,0,0,0,0,-1,1350,1506,0,0
133,-482,0,0,0,0,0,0,0,0,0,-1,1357,1506,0,0
140,-482,0,0,0,0,0,0,0,0,0,-1,1364,1506,0,0
147,-482,0,0,0,0,0,0,0,0,0,-1,1371,1506,0,0
154,-482,0,0,0,0,0,0,0,0,0,-1,1378,1506,0,0
161,-482,0,0,0,0,0,0,0,0,0,-1,1385,1506,0,0
168,-482,0,0,0,0,0,0,0,0,0,-1,1392,1506,0,0
175,-482,0,0,0,0,0,0,0,0,0,-1,1399,1506,0,0
182,-482,0,0,0,0,0,0,0,0,0,-1,1406,1506,0,0
189,-482,0,0,0,0,0,0,0,0,0,-1,1413,1506,0,0
196,-482,0,0,0,0,0,0,0,0,0,-1,1420,1506,0,0
203,-482,0,0,0,0,0,0,0,0,0,-1,1427,1506,0,0
210,-482,0,0,0,0,0,0,0,0,0,-1,1434,1506,0,0
217,-482,0,0,0,0,0,0,0,0,0,-1,1441,1506,0,0
224,-482,0,0,0,0,0,0,0,0,0,-1,1448,1506,0,0
231,-482,0,0,0,0,0,0,0,0,0,-1,1455,1506,0,0
238,-482,0,0,0,0,0,0,0,0,0,-1,1462,1506,0,0
245,-482,0,0,0,0,0,0,0,0,0,-1,1469,1506,0,0
252,-482,0,0,0,0,0,0,0,0,0,-1,1476,1506,0,0
259,-482,0,0,0,0,0,0,0,0,0,-1,1483,1506,0,0
266,-482,0,0,0,0,0,0,0,0,0,-1,1490,1506,0,0
273,-482,0,0,0,0,0,0,0,0,0,-1,1497,1506,0,0
280,-482,0,0,0,0,0,0,0,0,0,-1,1504,1506,0,0
287,-482,0,0,0,0,0,0,0,0,0,-1,1511,1506,0,0
294,-482,0,0,0,0,0,0,0,0,0,-1,1518,1506,0,0
301,-482,0,0,0,0,0,0,0,0,0,-1,1525,1506,0,0
308,-482,0,0,0,0,0,0,0,0,0,-1,1532,1506,0,0
315,-482,0,0,0,0,0,0,0,0,0,-1,1539,1506,0,0
322,-482,0,0,0,0,0,0,0,0,0,-1,1546,1506,0,0
329,-482,0,0,0,0,0,0,0,0,0,-1,1553,1506,0,0
336,-482,0,0,0,0,0,0,0,0,0,-1,1560,1506,0,0
343,-482,0,0,0,0,0,0,0,0,0,-1,1567,1506,0,0
350,-482,0,0,0,0,0,0,0,0,0,-1,1574,1506,0,0
357,-482,0,0,0,0,0,0,0,0,0,-1,1581,1506,0,0
364,-482,0,0,0,0,0,0,0,0,0,-1,1588,1506,0,0
371,-482,0,0,0,0,0,0,0,0,0,-1,1595,1506,0,0
378,-482,0,0,0,0,0,0,0,0,0,-1,1602,1506,0,0
385,-482,0,0,0,0,0,0,0,0,0,-1,1609,1506,0,0
392,-482,0,0,0,0,0,0,0,0,0,-1,1616,1506,0,0
399,-482,0,0,0,0,0,0,0,0,0,-1,1623,1506,0,0
406,-482,0,0,0,0,0,0,0,0,0,-1,1630,1506,0,0
413,-482,0,0,0,0,0,0,0,0,0,-1,1637,1506,0,0
420,-482,0,0,0,0,0,0,0,0,0,-1,1644,1506,0,0
427,-482,0,0,0,0,0,0,0,0,0,-1,1651,1506,0,0
434,-482,0,0,0,0,0,0,0,0,0,-1,1658,1506,0,0
441,-482,0,0,0,0,0,0,0,0,0,-1,1665,1506,0,0
448,-482,4.24146,1.55383,0,0,0,0,0,0,0,-1,1672,1506,4.24149,-1.55381
455,-482,12.4122,1.09729,0,0,0,0,0,0,0,-1,1679,1506,12.4122,-1.09734
462,-482,15.0673,3.13135,0,0,0,0,0,0,0,-1,1686,1506,15.0672,-3.13134
469,-482,15.3793,3.46301,0,0,0,0,0,0,0,-1,1693,1506,15.3793,-3.46307
476,-482,8.69751,9.18738,0,0,0,0,0,0,0,-1,1700,1506,8.69753,-9.18739
483,-482,10.0902,7.17432,0,0,0,0,0,0,0,-1,1707,1506,10.0902,-7.1743
490,-482,11.6289,5.4928,0,0,0,0,0,0,0,-1,1714,1506,11.6289,-5.49283
497,-482,15.9539,7.40222,0,0,0,0,0,0,0,-1,1721,1506,15.9538,-7.40219
504,-482,20.4233,12.006,0,0,0,0,0,0,0,-1,1728,1506,20.4233,-12.006
511,-482,18.4937,12.9175,0,0,0,0,0,0,0,-1,1735,1506,18.4936,-12.9174
518,-482,16.6002,13.9679,0,0,0,0,0,0,0,-1,1742,1506,16.6003,-13.9679
525,-482,18.495,15.9618,0,0,0,0,0,0,0,-1,1749,1506,18.495,-15.9618
532,-482,19.2125,19.8645,0,0,0,0,0,0,0,-1,1756,1506,19.2125,-19.8645
539,-482,19.366,19.4424,0,0,0,0,0,0,0,-1,1763,1506,19.3659,-19.4424
546,-482,19.2167,19.218,0,0,0,0,0,0,0,-1,1770,1506,19.2167,-19.218
553,-482,19.1576,18.6531,0,0,0,0,0,0,0,-1,1777,1506,19.1576,-18.653
560,-482,19.2235,18.1442,0.00294,0.000954072,-0.00078594,0.0032134,0.000680671,-0.334771,0.00195528,0.0150872,1784,1506,19.2235,-18.1441
567,-482,19.3124,17.672,0.00258039,0.00108941,-0.000824419,0.0029464,0.000723408,-0.417816,0.00177302,0.0155543,1791,1506,19.3123,-17.672
574,-482,19.2996,17.2435,0.00239424,0.000921405,-0.000915581,0.00283281,0.000482834,-0.446714,0.00174994,0.0146201,1798,1506,19.2995,-17.2435
581,-482,19.2633,16.8156,0.00230393,0.000750361,-0.00109636,0.0028708,0.000183495,-0.47719,0.00185573,0.0105854,1805,1506,19.2633,-16.8156
588,-482,19.2521,16.3612,0.00238952,0.000562337,-0.00135058,0.00310649,-0.000154631,-0.488028,0.00212441,0.0107154,1812,1506,19.2521,-16.3612
595,-482,19.24,15.9146,0.00275623,0.000387547,-0.0016846,0.00363115,-0.00048737,-0.479016,0.0025985,0.0169084,1819,1506,19.24,-15.9145
602,-482,19.2343,15.4825,0.00318619,0.000124045,-0.00208441,0.00424142,-0.000931183,-0.468633,0.00318373,0.0209615,1826,1506,19.2342,-15.4825
609,-482,19.2158,15.0244,0.00376429,-6.65616e-05,-0.00253082,0.00502281,-0.00132508,-0.461466,0.00386667,0.0160298,1833,1506,19.2158,-15.0244
616,-482,19.1793,14.5732,0.00461986,-0.000239346,-0.00303725,0.00607971,-0.0016992,-0.448048,0.00472256,0.0114161,1840,1506,19.1794,-14.5732
623,-482,19.1503,14.134,0.00575227,-0.000418547,-0.00359497,0.00740433,-0.0020706,-0.430764,0.00575202,0.0145829,1847,1506,19.1503,-14.1341
630,-482,19.1772,13.7159,0.0070895,-0.00041903,-0.00418452,0.00895704,-0.00228658,-0.419771,0.00686174,0.0284897,1854,1506,19.1772,-13.7159
637,-482,19.2443,13.1112,0,0,0,0,0,0,0,-1,1861,1506,19.2443,-13.1112
644,-482,17.5909,11.6163,0,0,0,0,0,0,0,-1,1868,1506,17.5909,-11.6163
651,-482,4.03845,7.05273,0,0,0,0,0,0,0,-1,1875,1506,4.03843,-7.05279
658,-482,10.0278,5.87903,0,0,0,0,0,0,0,-1,1882,1506,10.0279,-5.87902
665,-482,8.15198,3.22229,0,0,0,0,0,0,0,-1,1889,1506,8.15199,-3.22232
672,-482,9.87415,1.3147,0,0,0,0,0,0,0,-1,1896,1506,9.87416,-1.31473
679,-482,0,0,0,0,0,0,0,0,0,-1,1903,1506,0,0
686,-482,0,0,0,0,0,0,0,0,0,-1,1910,1506,0,0
693,-482,0,0,0,0,0,0,0,0,0,-1,1917,1506,0,0
700,-482,0,0,0,0,0,0,0,0,0,-1,1924,1506,0,0
707,-482,0,0,0,0,0,0,0,0,0,-1,1931,1506,0,0
714,-482,0,0,0,0,0,0,0,0,0,-1,1938,1506,0,0
721,-482,0,0,0,0,0,0,0,0,0,-1,1945,1506,0,0
728,-482,0,0,0,0,0,0,0,0,0,-1,1952,1506,0,0
735,-482,0,0,0,0,0,0,0,0,0,-1,1959,1506,0,0
742,-482,0,0,0,0,0,0,0,0,0,-1,1966,1506,0,0
749,-482,0,0,0,0,0,0,0,0,0,-1,1973,1506,0,0
756,-482,0,0,0,0,0,0,0,0,0,-1,1980,1506,0,0
763,-482,0,0,0,0,0,0,0,0,0,-1,1987,1506,0,0
770,-482,0,0,0,0,0,0,0,0,0,-1,1994,1506,0,0
777,-482,0,0,0,0,0,0,0,0,0,-1,2001,1506,0,0
784,-482,0,0,0,0,0,0,0,0,0,-1,2008,1506,0,0
791,-482,0,0,0,0,0,0,0,0,0,-1,2015,1506,0,0
798,-482,0,0,0,0,0,0,0,0,0,-1,2022,1506,0,0
805,-482,0,0,0,0,0,0,0,0,0,-1,2029,1506,0,0
812,-482,0,0,0,0,0,0,0,0,0,-1,2036,1506,0,0
-700,-489,0,0,0,0,0,0,0,0,0,-1,524,1513,0,0
-693,-489,0,0,0,0,0,0,0,0,0,-1,531,1513,0,0
-686,-489,0,0,0,0,0,0,0,0,0,-1,538,1513,0,0
-679,-489,0,0,0,0,0,0,0,0,0,-1,545,1513,0,0
-672,-489,0,0,0,0,0,0,0,0,0,-1,552,1513,0,0
-665,-489,0,0,0,0,0,0,0,0,0,-1,559,1513,0,0
-658,-489,0,0,0,0,0,0,0,0,0,-1,566,1513,0,0
-651,-489,0,0,0,0,0,0,0,0,0,-1,573,1513,0,0
-644,-489,0,0,0,0,0,0,0,0,0,-1,580,1513,0,0
-637,-489,0,0,0,0,0,0,0,0,0,-1,587,1513,0,0
-630,-489,0,0,0,0,0,0,0,0,0,-1,594,1513,0,0
-623,-489,0,0,0,0,0,0,0,0,0,-1,601,1513,0,0
-616,-489,0,0,0,0,0,0,0,0,0,-1,608,1513,0,0
-609,-489,0,0,0,0,0,0,0,0,0,-1,615,1513,0,0
-602,-489,0,0,0,0,0,0,0,0,0,-1,622,1513,0,0
-595,-489,0,0,0,0,0,0,0,0,0,-1,629,1513,0,0
-588,-489,0,0,0,0,0,0,0,0,0,-1,636,1513,0,0
-581,-489,0,0,0,0,0,0,0,0,0,-1,643,1513,0,0
-574,-489,0,0,0,0,0,0,0,0,0,-1,650,1513,0,0
-567,-489,0,0,0,0,0,0,0,0,0,-1,657,1513,0,0
-560,-489,0,0,0,0,0,0,0,0,0,-1,664,1513,0,0
-553,-489,-9.42206,8.5116,0,0,0,0,0,0,0,-1,671,1513,-9.42205,-8.51158
-546,-489,-7.80951,8.18506,0,0,0,0,0,0,0,-1,678,1513,-7.8095,-8.18503
-539,-489,-3.06879,2.82349,0,0,0,0,0,0,0,-1,685,1513,-3.06881,-2.82354
-532,-489,-3.14215,2.5835,0,0,0,0,0,0,0,-1,692,1513,-3.14213,-2.58353
-525,-489,-2.604,4.06274,0,0,0,0,0,0,0,-1,699,1513,-2.60399,-4.06274
-518,-489,-5.43774,7.48059,0,0,0,0,0,0,0,-1,706,1513,-5.43777,-7.48058
-511,-489,-5.18207,8.84167,0,0,0,0,0,0,0,-1,713,1513,-5.18205,-8.84166
-504,-489,-4.71851,10.6538,0,0,0,0,0,0,0,-1,720,1513,-4.71849,-10.6538
-497,-489,-4.3772,11.8002,0.00915478,-0.000430283,-0.00855479,0.014168,-0.0054435,-0.530072,0.0116902,0.0497748,727,1513,-4.37717,-11.8001
-490,-489,-4.5304,12.4803,0.00690299,-0.00223297,-0.00791182,0.0114708,-0.00680082,-0.523594,0.0106634,0.0352704,734,1513,-4.53038,-12.4804
-483,-489,-4.67926,12.8898,0.00534837,-0.00264628,-0.00664744,0.00910779,-0.0064057,-0.514699,0.00900189,0.0162087,741,1513,-4.67923,-12.8897
-476,-489,-4.68628,13.4154,0.00414753,-0.00235613,-0.00512797,0.00696781,-0.00517641,-0.502827,0.00703685,0.00948821,748,1513,-4.68627,-13.4154
-469,-489,-4.69995,13.912,0.00339483,-0.00168847,-0.00346144,0.00514754,-0.00344118,-0.468718,0.00499121,0.0101378,755,1513,-4.69996,-13.912
-462,-489,-4.70184,14.4041,0.00297829,-0.00116342,-0.00193194,0.00373955,-0.00192468,-0.375354,0.00332573,0.0151431,762,1513,-4.70183,-14.404
-455,-489,-4.7124,14.8752,0.00289189,-9.94177e-05,-0.000277809,0.00291747,-0.000125,-0.0918257,0.00198796,0.0191221,769,1513,-4.71239,-14.8753
-448,-489,-4.74255,15.3409,0.00320357,0.000846819,0.00125065,0.00374354,0.000306853,0.407572,0.00239996,0.0177101,776,1513,-4.74258,-15.3409
-441,-489,-4.72968,15.843,0.00386564,0.00197616,0.00288473,0.00595639,-0.000114595,0.627154,0.00400967,0.0153531,783,1513,-4.72965,-15.843
-434,-489,-4.77454,16.3245,0.00499148,0.0030799,0.00441993,0.00855778,-0.000486402,0.678915,0.00587404,0.0177483,790,1513,-4.77456,-16.3245
-427,-489,-4.80988,16.8312,0.00658988,0.00456943,0.00574406,0.0114119,-0.000252563,0.698352,0.00769348,0.0195918,797,1513,-4.80985,-16.8312
-420,-489,-4.82129,17.4272,0.0083859,0.00607073,0.00750408,0.0148212,-0.000364524,0.708871,0.0100045,0.0235626,804,1513,-4.82128,-17.4272
-413,-489,-4.80298,18.071,0,0,0,0,0,0,0,-1,811,1513,-4.80296,-18.0711
-406,-489,-3.10559,15.8143,0,0,0,0,0,0,0,-1,818,1513,-3.10556,-15.8143
-399,-489,-1.41241,9.10718,0,0,0,0,0,0,0,-1,825,1513,-1.41244,-9.10722
-392,-489,-1.0368,9.30469,0,0,0,0,0,0,0,-1,832,1513,-1.03682,-9.30466
-385,-489,-1.75165,10.6559,0,0,0,0,0,0,0,-1,839,1513,-1.75165,-10.6559
-378,-489,-0.401428,9.87048,0,0,0,0,0,0,0,-1,846,1513,-0.401415,-9.87047
-371,-489,-1.11633,10.6606,0,0,0,0,0,0,0,-1,853,1513,-1.11633,-10.6606
-364,-489,-0.503113,8.98486,0,0,0,0,0,0,0,-1,860,1513,-0.503097,-8.98482
-357,-489,-0.609924,10.9606,0,0,0,0,0,0,0,-1,867,1513,-0.609947,-10.9605
-350,-489,-7.94659,-0.358887,0,0,0,0,0,0,0,-1,874,1513,-7.94657,0.358912
-343,-489,-7.49323,-0.437866,0,0,0,0,0,0,0,-1,881,1513,-7.49322,0.437823
-336,-489,-7.02332,-0.53125,0,0,0,0,0,0,0,-1,888,1513,-7.0233,0.531295
-329,-489,-7.06403,0.747925,0,0,0,0,0,0,0,-1,895,1513,-7.064,-0.747885
-322,-489,0,0,0,0,0,0,0,0,0,-1,902,1513,0,0
-315,-489,0,0,0,0,0,0,0,0,0,-1,909,1513,0,0
-308,-489,0,0,0,0,0,0,0,0,0,-1,916,1513,0,0
-301,-489,0,0,0,0,0,0,0,0,0,-1,923,1513,0,0
-294,-489,0,0,0,0,0,0,0,0,0,-1,930,1513,0,0
-287,-489,0,0,0,0,0,0,0,0,0,-1,937,1513,0,0
-280,-489,0,0,0,0,0,0,0,0,0,-1,944,1513,0,0
-273,-489,0,0,0,0,0,0,0,0,0,-1,951,1513,0,0
-266,-489,0,0,0,0,0,0,0,0,0,-1,958,1513,0,0
-259,-489,0,0,0,0,0,0,0,0,0,-1,965,1513,0,0
-252,-489,0,0,0,0,0,0,0,0,0,-1,972,1513,0,0
-245,-489,0,0,0,0,0,0,0,0,0,-1,979,1513,0,0
-238,-489,0,0,0,0,0,0,0,0,0,-1,986,1513,0,0
-231,-489,0,0,0,0,0,0,0,0,0,-1,993,1513,0,0
-224,-489,0,0,0,0,0,0,0,0,0,-1,1000,1513,0,0
-217,-489,0,0,0,0,0,0,0,0,0,-1,1007,1513,0,0
-210,-489,0,0,0,0,0,0,0,0,0,-1,1014,1513,0,0
-203,-489,0,0,0,0,0,0,0,0,0,-1,1021,1513,0,0
-196,-489,0,0,0,0,0,0,0,0,0,-1,1028,1513,0,0
-189,-489,0,0,0,0,0,0,0,0,0,-1,1035,1513,0,0
-182,-489,0,0,0,0,0,0,0,0,0,-1,1042,1513,0,0
-175,-489,0,0,0,0,0,0,0,0,0,-1,1049,1513,0,0
-168,-489,0,0,0,0,0,0,0,0,0,-1,1056,1513,0,0
-161,-489,0,0,0,0,0,0,0,0,0,-1,1063,1513,0,0
-154,-489,0,0,0,0,0,0,0,0,0,-1,1070,1513,0,0
-147,-489,0,0,0,0,0,0,0,0,0,-1,1077,1513,0,0
-140,-489,0,0,0,0,0,0,0,0,0,-1,1084,1513,0,0
-133,-489,0,0,0,0,0,0,0,0,0,-1,1091,1513,0,0
-126,-489,0,0,0,0,0,0,0,0,0,-1,1098,1513,0,0
-119,-489,0,0,0,0,0,0,0,0,0,-1,1105,1513,0,0
-112,-489,0,0,0,0,0,0,0,0,0,-1,1112,1513,0,0
-105,-489,0,0,0,0,0,0,0,0,0,-1,1119,1513,0,0
-98,-489,0,0,0,0,0,0,0,0,0,-1,1126,1513,0,0
-91,-489,0,0,0,0,0,0,0,0,0,-1,1133,1513,0,0
-84,-489,0,0,0,0,0,0,0,0,0,-1,1140,1513,0,0
-77,-489,0,0,0,0,0,0,0,0,0,-1,1147,1513,0,0
-70,-489,0,0,0,0,0,0,0,0,0,-1,1154,1513,0,0
-63,-489,0,0,0,0,0,0,0,0,0,-1,1161,1513,0,0
-56,-489,0,0,0,0,0,0,0,0,0,-1,1168,1513,0,0
-49,-489,0,0,0,0,0,0,0,0,0,-1,1175,1513,0,0
-42,-489,0,0,0,0,0,0,0,0,0,-1,1182,1513,0,0
-35,-489,0,0,0,0,0,0,0,0,0,-1,1189,1513,0,0
-28,-489,0,0,0,0,0,0,0,0,0,-1,1196,1513,0,0
-21,-489,0,0,0,0,0,0,0,0,0,-1,1203,1513,0,0
-14,-489,0,0,0,0,0,0,0,0,0,-1,1210,1513,0,0
-7,-489,0,0,0,0,0,0,0,0,0,-1,1217,1513,0,0
0,-489,0,0,0,0,0,0,0,0,0,-1,1224,1513,0,0
7,-489,0,0,0,0,0,0,0,0,0,-1,1231,1513,0,0
14,-489,0,0,0,0,0,0,0,0,0,-1,1238,1513,0,0
21,-489,0,0,0,0,0,0,0,0,0,-1,1245,1513,0,0
28,-489,0,0,0,0,0,0,0,0,0,-1,1252,1513,0,0
35,-489,0,0,0,0,0,0,0,0,0,-1,1259,1513,0,0
42,-489,0,0,0,0,0,0,0,0,0,-1,1266,1513,0,0
49,-489,0,0,0,0,0,0,0,0,0,-1,1273,1513,0,0
56,-489,0,0,0,0,0,0,0,0,0,-1,1280,1513,0,0
63,-489,0,0,0,0,0,0,0,0,0,-1,1287,1513,0,0
70,-489,0,0,0,0,0,0,0,0,0,-1,1294,1513,0,0
77,-489,0,0,0,0,0,0,0,0,0,-1,1301,1513,0,0
84,-489,0,0,0,0,0,0,0,0,0,-1,1308,1513,0,0
91,-489,0,0,0,0,0,0,0,0,0,-1,1315,1513,0,0
98,-489,0,0,0,0,0,0,0,0,0,-1,1322,1513,0,0
105,-489,0,0,0,0,0,0,0,0,0,-1,1329,1513,0,0
112,-489,0,0,0,0,0,0,0,0,0,-1,1336,1513,0,0
119,-489,0,0,0,0,0,0,0,0,0,-1,1343,1513,0,0
126,-489,0,0,0,0,0,0,0,0,0,-1,1350,1513,0,0
133,-489,0,0,0,0,0,0,0,0,0,-1,1357,1513,0,0
140,-489,0,0,0,0,0,0,0,0,0,-1,1364,1513,0,0
147,-489,0,0,0,0,0,0,0,0,0,-1,1371,1513,0,0
154,-489,0,0,0,0,0,0,0,0,0,-1,1378,1513,0,0
161,-489,0,0,0,0,0,0,0,0,0,-1,1385,1513,0,0
168,-489,0,0,0,0,0,0,0,0,0,-1,1392,1513,0,0
175,-489,0,0,0,0,0,0,0,0,0,-1,1399,1513,0,0
182,-489,0,0,0,0,0,0,0,0,0,-1,1406,1513,0,0
189,-489,0,0,0,0,0,0,0,0,0,-1,1413,1513,0,0
196,-489,0,0,0,0,0,0,0,0,0,-1,1420,1513,0,0
203,-489,0,0,0,0,0,0,0,0,0,-1,1427,1513,0,0
210,-489,0,0,0,0,0,0,0,0,0,-1,1434,1513,0,0
217,-489,0,0,0,0,0,0,0,0,0,-1,1441,1513,0,0
224,-489,0,0,0,0,0,0,0,0,0,-1,1448,1513,0,0
231,-489,0,0,0,0,0,0,0,0,0,-1,1455,1513,0,0
238,-489,0,0,0,0,0,0,0,0,0,-1,1462,1513,0,0
245,-489,0,0,0,0,0,0,0,0,0,-1,1469,1513,0,0
252,-489,0,0,0,0,0,0,0,0,0,-1,1476,1513,0,0
259,-489,0,0,0,0,0,0,0,0,0,-1,1483,1513,0,0
266,-489,0,0,0,0,0,0,0,0,0,-1,1490,1513,0,0
273,-489,0,0,0,0,0,0,0,0,0,-1,1497,1513,0,0
280,-489,0,0,0,0,0,0,0,0,0,-1,1504,1513,0,0
287,-489,0,0,0,0,0,0,0,0,0,-1,1511,1513,0,0
294,-489,0,0,0,0,0,0,0,0,0,-1,1518,1513,0,0
301,-489,0,0,0,0,0,0,0,0,0,-1,1525,1513,0,0
308,-489,0,0,0,0,0,0,0,0,0,-1,1532,1513,0,0
315,-489,0,0,0,0,0,0,0,0,0,-1,1539,1513,0,0
322,-489,0,0,0,0,0,0,0,0,0,-1,1546,1513,0,0
329,-489,0,0,0,0,0,0,0,0,0,-1,1553,1513,0,0
336,-489,0,0,0,0,0,0,0,0,0,-1,1560,1513,0,0
343,-489,0,0,0,0,0,0,0,0,0,-1,1567,1513,0,0
350,-489,0,0,0,0,0,0,0,0,0,-1,1574,1513,0,0
357,-489,0,0,0,0,0,0,0,0,0,-1,1581,1513,0,0
364,-489,0,0,0,0,0,0,0,0,0,-1,1588,1513,0,0
371,-489,0,0,0,0,0,0,0,0,0,-1,1595,1513,0,0
378,-489,0,0,0,0,0,0,0,0,0,-1,1602,1513,0,0
385,-489,0,0,0,0,0,0,0,0,0,-1,1609,1513,0,0
392,-489,0,0,0,0,0,0,0,0,0,-1,1616,1513,0,0
399,-489,0,0,0,0,0,0,0,0,0,-1,1623,1513,0,0
406,-489,0,0,0,0,0,0,0,0,0,-1,1630,1513,0,0
413,-489,0,0,0,0,0,0,0,0,0,-1,1637,1513,0,0
420,-489,0,0,0,0,0,0,0,0,0,-1,1644,1513,0,0
427,-489,0,0,0,0,0,0,0,0,0,-1,1651,1513,0,0
434,-489,0,0,0,0,0,0,0,0,0,-1,1658,1513,0,0
441,-489,11.4602,2.56787,0,0,0,0,0,0,0,-1,1665,1513,11.4602,-2.56786
448,-489,12.4425,1.72351,0,0,0,0,0,0,0,-1,1672,1513,12.4425,-1.72349
455,-489,12.5575,1.37463,0,0,0,0,0,0,0,-1,1679,1513,12.5575,-1.37469
462,-489,14.9784,3.84888,0,0,0,0,0,0,0,-1,1686,1513,14.9784,-3.84892
469,-489,15.1367,4.53101,0,0,0,0,0,0,0,-1,1693,1513,15.1368,-4.531
476,-489,15.5536,5.09338,0,0,0,0,0,0,0,-1,1700,1513,15.5536,-5.09339
483,-489,8.96912,8.37805,0,0,0,0,0,0,0,-1,1707,1513,8.96909,-8.37809
490,-489,10.5366,7.49561,0,0,0,0,0,0,0,-1,1714,1513,10.5367,-7.49558
497,-489,14.6051,11.8397,0,0,0,0,0,0,0,-1,1721,1513,14.6051,-11.8397
504,-489,16.7527,14.1735,0,0,0,0,0,0,0,-1,1728,1513,16.7527,-14.1735
511,-489,17.83,17.7993,0,0,0,0,0,0,0,-1,1735,1513,17.83,-17.7993
518,-489,16.4751,14.3682,0,0,0,0,0,0,0,-1,1742,1513,16.4751,-14.3682
525,-489,17.2606,17.4949,0,0,0,0,0,0,0,-1,1749,1513,17.2606,-17.4949
532,-489,18.6436,19.9971,0,0,0,0,0,0,0,-1,1756,1513,18.6436,-19.9971
539,-489,18.9023,19.4154,0.00373913,0.00136115,-0.0012961,0.004309,0.000791284,-0.414237,0.0026486,0.0299096,1763,1513,18.9023,-19.4154
546,-489,18.8083,19.1465,0.00316307,0.00114909,-0.000957922,0.00354592,0.000766248,-0.380216,0.00215444,0.02026,1770,1513,18.8084,-19.1464
553,-489,18.8154,18.6106,0.002812,0.00106364,-0.000833964,0.003146,0.000729645,-0.380929,0.00190137,0.0177282,1777,1513,18.8155,-18.6106
560,-489,18.8229,18.1591,0.00252345,0.000948595,-0.000755992,0.00282762,0.000644434,-0.382516,0.0017112,0.0140335,1784,1513,18.8229,-18.1591
567,-489,18.8583,17.7168,0.00228864,0.000890945,-0.000776913,0.00263477,0.000544814,-0.419123,0.00160602,0.0154036,1791,1513,18.8582,-17.7168
574,-489,18.8434,17.2889,0.00224759,0.000743219,-0.000944509,0.00270283,0.000287977,-0.449134,0.00171398,0.0155696,1798,1513,18.8434,-17.2889
581,-489,18.8365,16.8379,0.00229965,0.00054056,-0.00117875,0.00289084,-5.06247e-05,-0.464876,0.00194432,0.0108427,1805,1513,18.8365,-16.8378
588,-489,18.8112,16.3947,0.00256096,0.000363015,-0.001545,0.00335797,-0.000433997,-0.47626,0.00239645,0.0127185,1812,1513,18.8111,-16.3947
595,-489,18.7875,15.9521,0.00312119,0.00018536,-0.00201803,0.00414871,-0.000842168,-0.470959,0.00308509,0.0204824,1819,1513,18.7875,-15.9522
602,-489,18.7869,15.5021,0.00378785,-1.82068e-05,-0.00262382,0.00512611,-0.00135647,-0.471649,0.00394802,0.0273472,1826,1513,18.7869,-15.5021
609,-489,18.7727,15.0502,0.00465764,-0.000154201,-0.00333808,0.00636647,-0.00186304,-0.47314,0.00498281,0.0182579,1833,1513,18.7727,-15.0502
616,-489,18.7578,14.5708,0.00591709,-0.000264739,-0.00417446,0.00802039,-0.00236804,-0.466722,0.00628673,0.0164358,1840,1513,18.7578,-14.5708
623,-489,18.7258,14.1285,0.00749494,-0.000356502,-0.00512524,0.0100252,-0.00288674,-0.45858,0.00782525,0.03226,1847,1513,18.7258,-14.1286
630,-489,18.8691,13.6583,0,0,0,0,0,0,0,-1,1854,1513,18.8691,-13.6583
637,-489,17.2048,11.8091,0,0,0,0,0,0,0,-1,1861,1513,17.2048,-11.8091
644,-489,9.67578,8.45874,0,0,0,0,0,0,0,-1,1868,1513,9.67576,-8.45879
651,-489,6.13818,6.85095,0,0,0,0,0,0,0,-1,1875,1513,6.13823,-6.85097
658,-489,5.43848,7.75513,0,0,0,0,0,0,0,-1,1882,1513,5.43844,-7.75509
665,-489,5.48438,8.59912,0,0,0,0,0,0,0,-1,1889,1513,5.48434,-8.59907
672,-489,0,0,0,0,0,0,0,0,0,-1,1896,1513,0,0
679,-489,0,0,0,0,0,0,0,0,0,-1,1903,1513,0,0
686,-489,0,0,0,0,0,0,0,0,0,-1,1910,1513,0,0
693,-489,0,0,0,0,0,0,0,0,0,-1,1917,1513,0,0
700,-489,0,0,0,0,0,0,0,0,0,-1,1924,1513,0,0
707,-489,0,0,0,0,0,0,0,0,0,-1,1931,1513,0,0
714,-489,0,0,0,0,0,0,0,0,0,-1,1938,1513,0,0
721,-489,0,0,0,0,0,0,0,0,0,-1,1945,1513,0,0
728,-489,0,0,0,0,0,0,0,0,0,-1,1952,1513,0,0
735,-489,0,0,0,0,0,0,0,0,0,-1,1959,1513,0,0
742,-489,0,0,0,0,0,0,0,0,0,-1,1966,1513,0,0
749,-489,0,0,0,0,0,0,0,0,0,-1,1973,1513,0,0
756,-489,0,0,0,0,0,0,0,0,0,-1,1980,1513,0,0
763,-489,0,0,0,0,0,0,0,0,0,-1,1987,1513,0,0
770,-489,0,0,0,0,0,0,0,0,0,-1,1994,1513,0,0
777,-489,0,0,0,0,0,0,0,0,0,-1,2001,1513,0,0
784,-489,0,0,0,0,0,0,0,0,0,-1,2008,1513,0,0
791,-489,0,0,0,0,0,0,0,0,0,-1,2015,1513,0,0
798,-489,0,0,0,0,0,0,0,0,0,-1,2022,1513,0,0
805,-489,0,0,0,0,0,0,0,0,0,-1,2029,1513,0,0
812,-489,0,0,0,0,0,0,0,0,0,-1,2036,1513,0,0
-700,-496,0,0,0,0,0,0,0,0,0,-1,524,1520,0,0
-693,-496,0,0,0,0,0,0,0,0,0,-1,531,1520,0,0
-686,-496,0,0,0,0,0,0,0,0,0,-1,538,1520,0,0
-679,-496,0,0,0,0,0,0,0,0,0,-1,545,1520,0,0
-672,-496,0,0,0,0,0,0,0,0,0,-1,552,1520,0,0
-665,-496,0,0,0,0,0,0,0,0,0,-1,559,1520,0,0
-658,-496,0,0,0,0,0,0,0,0,0,-1,566,1520,0,0
-651,-496,0,0,0,0,0,0,0,0,0,-1,573,1520,0,0
-644,-496,0,0,0,0,0,0,0,0,0,-1,580,1520,0,0
-637,-496,0,0,0,0,0,0,0,0,0,-1,587,1520,0,0
-630,-496,0,0,0,0,0,0,0,0,0,-1,594,1520,0,0
-623,-496,0,0,0,0,0,0,0,0,0,-1,601,1520,0,0
-616,-496,0,0,0,0,0,0,0,0,0,-1,608,1520,0,0
-609,-496,0,0,0,0,0,0,0,0,0,-1,615,1520,0,0
-602,-496,0,0,0,0,0,0,0,0,0,-1,622,1520,0,0
-595,-496,0,0,0,0,0,0,0,0,0,-1,629,1520,0,0
-588,-496,0,0,0,0,0,0,0,0,0,-1,636,1520,0,0
-581,-496,0,0,0,0,0,0,0,0,0,-1,643,1520,0,0
-574,-496,0,0,0,0,0,0,0,0,0,-1,650,1520,0,0
-567,-496,0,0,0,0,0,0,0,0,0,-1,657,1520,0,0
-560,-496,0,0,0,0,0,0,0,0,0,-1,664,1520,0,0
-553,-496,0,0,0,0,0,0,0,0,0,-1,671,1520,0,0
-546,-496,-8.09711,7.94836,0,0,0,0,0,0,0,-1,678,1520,-8.09712,-7.94842
-539,-496,-3.20129,1.16052,0,0,0,0,0,0,0,-1,685,1520,-3.20131,-1.16054
-532,-496,-2.98279,2.62146,0,0,0,0,0,0,0,-1,692,1520,-2.98278,-2.62151
-525,-496,-2.75201,4.08032,0,0,0,0,0,0,0,-1,699,1520,-2.75201,-4.08031
-518,-496,-2.6333,5.36072,0,0,0,0,0,0,0,-1,706,1520,-2.63328,-5.36077
-511,-496,-5.7644,7.94397,0,0,0,0,0,0,0,-1,713,1520,-5.76442,-7.94396
-504,-496,-4.77484,10.8552,0,0,0,0,0,0,0,-1,720,1520,-4.77487,-10.8552
-497,-496,-3.84875,11.655,0,0,0,0,0,0,0,-1,727,1520,-3.84878,-11.655
-490,-496,-3.96063,12.6598,0.0105405,-0.00401775,-0.0119121,0.0172214,-0.0106987,-0.511138,0.0162656,0.0414896,734,1520,-3.96066,-12.6597
-483,-496,-4.13306,13.0453,0.0079307,-0.00376546,-0.00963976,0.0133576,-0.00919236,-0.512746,0.013093,0.0267927,741,1520,-4.13305,-13.0452
-476,-496,-4.23499,13.4296,0.00584924,-0.00299942,-0.00735743,0.0100102,-0.00716034,-0.514695,0.0099588,0.0131189,748,1520,-4.23498,-13.4295
-469,-496,-4.23187,13.9338,0.00438409,-0.0020406,-0.00516752,0.00725635,-0.00491287,-0.507308,0.00706919,0.0101878,755,1520,-4.23186,-13.9339
-462,-496,-4.2251,14.4288,0.00342168,-0.00135923,-0.00327788,0.00508817,-0.00302572,-0.470348,0.00473473,0.0159582,762,1520,-4.22509,-14.4288
-455,-496,-4.23615,14.9041,0.00287886,-0.000336035,-0.00144515,0.00343297,-0.000890148,-0.36614,0.00263595,0.0219952,769,1520,-4.23614,-14.9041
-448,-496,-4.24744,15.3835,0.00279654,0.000442145,0.000102269,0.00280098,0.000437711,0.0433287,0.00173986,0.0201075,776,1520,-4.24745,-15.3836
-441,-496,-4.2431,15.8669,0.00312402,0.0013377,0.00166582,0.00412101,0.000340709,0.539318,0.00264111,0.0143924,783,1520,-4.24309,-15.867
-434,-496,-4.29095,16.3492,0.00376125,0.00246362,0.00318694,0.00636475,-0.000139878,0.684978,0.00429055,0.013429,790,1520,-4.29096,-16.3493
-427,-496,-4.32532,16.8497,0.00495419,0.00357349,0.00446212,0.00877905,-0.000251368,0.70865,0.00593826,0.0173398,797,1520,-4.32534,-16.8497
-420,-496,-4.32355,17.3138,0.00640977,0.00476205,0.00591383,0.0115569,-0.000385035,0.716188,0.00783607,0.0178758,804,1520,-4.32354,-17.3138
-413,-496,-4.26245,17.8325,0.00818229,0.00663922,0.00777757,0.0152265,-0.000404992,0.73596,0.0102887,0.027851,811,1520,-4.26246,-17.8325
-406,-496,-4.13788,18.5356,0,0,0,0,0,0,0,-1,818,1520,-4.13786,-18.5356
-399,-496,-3.80933,19.3104,0,0,0,0,0,0,0,-1,825,1520,-3.80934,-19.3104
-392,-496,-1.49786,12.387,0,0,0,0,0,0,0,-1,832,1520,-1.49788,-12.387
-385,-496,-1.72437,11.4985,0,0,0,0,0,0,0,-1,839,1520,-1.72436,-11.4985
-378,-496,-1.45532,14.0719,0,0,0,0,0,0,0,-1,846,1520,-1.45533,-14.0719
-371,-496,0.0877075,12.5299,0,0,0,0,0,0,0,-1,853,1520,0.0876896,-12.5299
-364,-496,0.0881348,10.6422,0,0,0,0,0,0,0,-1,860,1520,0.0881368,-10.6423
-357,-496,0.323792,7.56812,0,0,0,0,0,0,0,-1,867,1520,0.323782,-7.56806
-350,-496,2.1535,7.18945,0,0,0,0,0,0,0,-1,874,1520,2.15348,-7.1894
-343,-496,-7.56244,0.335327,0,0,0,0,0,0,0,-1,881,1520,-7.56242,-0.335322
-336,-496,-3.99249,6.02222,0,0,0,0,0,0,0,-1,888,1520,-3.99246,-6.0222
-329,-496,-6.93689,-0.100342,0,0,0,0,0,0,0,-1,895,1520,-6.93686,0.1003
-322,-496,-6.17505,0.494385,0,0,0,0,0,0,0,-1,902,1520,-6.17507,-0.49437
-315,-496,-7.2262,5.40344,0,0,0,0,0,0,0,-1,909,1520,-7.22621,-5.4035
-308,-496,0,0,0,0,0,0,0,0,0,-1,916,1520,0,0
-301,-496,0,0,0,0,0,0,0,0,0,-1,923,1520,0,0
-294,-496,0,0,0,0,0,0,0,0,0,-1,930,1520,0,0
-287,-496,0,0,0,0,0,0,0,0,0,-1,937,1520,0,0
-280,-496,0,0,0,0,0,0,0,0,0,-1,944,1520,0,0
-273,-496,0,0,0,0,0,0,0,0,0,-1,951,1520,0,0
-266,-496,0,0,0,0,0,0,0,0,0,-1,958,1520,0,0
-259,-496,0,0,0,0,0,0,0,0,0,-1,965,1520,0,0
-252,-496,0,0,0,0,0,0,0,0,0,-1,972,1520,0,0
-245,-496,0,0,0,0,0,0,0,0,0,-1,979,1520,0,0
-238,-496,0,0,0,0,0,0,0,0,0,-1,986,1520,0,0
-231,-496,0,0,0,0,0,0,0,0,0,-1,993,1520,0,0
-224,-496,0,0,0,0,0,0,0,0,0,-1,1000,1520,0,0
-217,-496,0,0,0,0,0,0,0,0,0,-1,1007,1520,0,0
-210,-496,0,0,0,0,0,0,0,0,0,-1,1014,1520,0,0
-203,-496,0,0,0,0,0,0,0,0,0,-1,1021,1520,0,0
-196,-496,0,0,0,0,0,0,0,0,0,-1,1028,1520,0,0
-189,-496,0,0,0,0,0,0,0,0,0,-1,1035,1520,0,0
-182,-496,0,0,0,0,0,0,0,0,0,-1,1042,1520,0,0
-175,-496,0,0,0,0,0,0,0,0,0,-1,1049,1520,0,0
-168,-496,0,0,0,0,0,0,0,0,0,-1,1056,1520,0,0
-161,-496,0,0,0,0,0,0,0,0,0,-1,1063,1520,0,0
-154,-496,0,0,0,0,0,0,0,0,0,-1,1070,1520,0,0
-147,-496,0,0,0,0,0,0,0,0,0,-1,1077,1520,0,0
-140,-496,0,0,0,0,0,0,0,0,0,-1,1084,1520,0,0
-133,-496,0,0,0,0,0,0,0,0,0,-1,1091,1520,0,0
-126,-496,0,0,0,0,0,0,0,0,0,-1,1098,1520,0,0
-119,-496,0,0,0,0,0,0,0,0,0,-1,1105,1520,0,0
-112,-496,0,0,0,0,0,0,0,0,0,-1,1112,1520,0,0
-105,-496,0,0,0,0,0,0,0,0,0,-1,1119,1520,0,0
-98,-496,0,0,0,0,0,0,0,0,0,-1,1126,1520,0,0
-91,-496,0,0,0,0,0,0,0,0,0,-1,1133,1520,0,0
-84,-496,0,0,0,0,0,0,0,0,0,-1,1140,1520,0,0
-77,-496,0,0,0,0,0,0,0,0,0,-1,1147,1520,0,0
-70,-496,0,0,0,0,0,0,0,0,0,-1,1154,1520,0,0
-63,-496,0,0,0,0,0,0,0,0,0,-1,1161,1520,0,0
-56,-496,0,0,0,0,0,0,0,0,0,-1,1168,1520,0,0
-49,-496,0,0,0,0,0,0,0,0,0,-1,1175,1520,0,0
-42,-496,0,0,0,0,0,0,0,0,0,-1,1182,1520,0,0
-35,-496,0,0,0,0,0,0,0,0,0,-1,1189,1520,0,0
-28,-496,0,0,0,0,0,0,0,0,0,-1,1196,1520,0,0
-21,-496,0,0,0,0,0,0,0,0,0,-1,1203,1520,0,0
-14,-496,0,0,0,0,0,0,0,0,0,-1,1210,1520,0,0
-7,-496,0,0,0,0,0,0,0,0,0,-1,1217,1520,0,0
0,-496,0,0,0,0,0,0,0,0,0,-1,1224,1520,0,0
7,-496,0,0,0,0,0,0,0,0,0,-1,1231,1520,0,0
14,-496,0,0,0,0,0,0,0,0,0,-1,1238,1520,0,0
21,-496,0,0,0,0,0,0,0,0,0,-1,1245,1520,0,0
28,-496,0,0,0,0,0,0,0,0,0,-1,1252,1520,0,0
35,-496,0,0,0,0,0,0,0,0,0,-1,1259,1520,0,0
42,-496,0,0,0,0,0,0,0,0,0,-1,1266,1520,0,0
49,-496,0,0,0,0,0,0,0,0,0,-1,1273,1520,0,0
56,-496,0,0,0,0,0,0,0,0,0,-1,1280,1520,0,0
63,-496,0,0,0,0,0,0,0,0,0,-1,1287,1520,0,0
70,-496,0,0,0,0,0,0,0,0,0,-1,1294,1520,0,0
77,-496,0,0,0,0,0,0,0,0,0,-1,1301,1520,0,0
84,-496,0,0,0,0,0,0,0,0,0,-1,1308,1520,0,0
91,-496,0,0,0,0,0,0,0,0,0,-1,1315,1520,0,0
98,-496,0,0,0,0,0,0,0,0,0,-1,1322,1520,0,0
105,-496,0,0,0,0,0,0,0,0,0,-1,1329,1520,0,0
112,-496,0,0,0,0,0,0,0,0,0,-1,1336,1520,0,0
119,-496,0,0,0,0,0,0,0,0,0,-1,1343,1520,0,0
126,-496,0,0,0,0,0,0,0,0,0,-1,1350,1520,0,0
133,-496,0,0,0,0,0,0,0,0,0,-1,1357,1520,0,0
140,-496,0,0,0,0,0,0,0,0,0,-1,1364,1520,0,0
147,-496,0,0,0,0,0,0,0,0,0,-1,1371,1520,0,0
154,-496,0,0,0,0,0,0,0,0,0,-1,1378,1520,0,0
161,-496,0,0,0,0,0,0,0,0,0,-1,1385,1520,0,0
168,-496,0,0,0,0,0,0,0,0,0,-1,1392,1520,0,0
175,-496,0,0,0,0,0,0,0,0,0,-1,1399,1520,0,0
182,-496,0,0,0,0,0,0,0,0,0,-1,1406,1520,0,0
189,-496,0,0,0,0,0,0,0,0,0,-1,1413,1520,0,0
196,-496,0,0,0,0,0,0,0,0,0,-1,1420,1520,0,0
203,-496,0,0,0,0,0,0,0,0,0,-1,1427,1520,0,0
210,-496,0,0,0,0,0,0,0,0,0,-1,1434,1520,0,0
217,-496,0,0,0,0,0,0,0,0,0,-1,1441,1520,0,0
224,-496,0,0,0,0,0,0,0,0,0,-1,1448,1520,0,0
231,-496,0,0,0,0,0,0,0,0,0,-1,1455,1520,0,0
238,-496,0,0,0,0,0,0,0,0,0,-1,1462,1520,0,0
245,-496,0,0,0,0,0,0,0,0,0,-1,1469,1520,0,0
252,-496,0,0,0,0,0,0,0,0,0,-1,1476,1520,0,0
259,-496,0,0,0,0,0,0,0,0,0,-1,1483,1520,0,0
266,-496,0,0,0,0,0,0,0,0,0,-1,1490,1520,0,0
273,-496,0,0,0,0,0,0,0,0,0,-1,1497,1520,0,0
280,-496,0,0,0,0,0,0,0,0,0,-1,1504,1520,0,0
287,-496,0,0,0,0,0,0,0,0,0,-1,1511,1520,0,0
294,-496,0,0,0,0,0,0,0,0,0,-1,1518,1520,0,0
301,-496,0,0,0,0,0,0,0,0,0,-1,1525,1520,0,0
308,-496,0,0,0,0,0,0,0,0,0,-1,1532,1520,0,0
315,-496,0,0,0,0,0,0,0,0,0,-1,1539,1520,0,0
322,-496,0,0,0,0,0,0,0,0,0,-1,1546,1520,0,0
329,-496,0,0,0,0,0,0,0,0,0,-1,1553,1520,0,0
336,-496,0,0,0,0,0,0,0,0,0,-1,1560,1520,0,0
343,-496,0,0,0,0,0,0,0,0,0,-1,1567,1520,0,0
350,-496,0,0,0,0,0,0,0,0,0,-1,1574,1520,0,0
357,-496,0,0,0,0,0,0,0,0,0,-1,1581,1520,0,0
364,-496,0,0,0,0,0,0,0,0,0,-1,1588,1520,0,0
371,-496,0,0,0,0,0,0,0,0,0,-1,1595,1520,0,0
378,-496,0,0,0,0,0,0,0,0,0,-1,1602,1520,0,0
385,-496,0,0,0,0,0,0,0,0,0,-1,1609,1520,0,0
392,-496,0,0,0,0,0,0,0,0,0,-1,1616,1520,0,0
399,-496,0,0,0,0,0,0,0,0,0,-1,1623,1520,0,0
406,-496,0,0,0,0,0,0,0,0,0,-1,1630,1520,0,0
413,-496,0,0,0,0,0,0,0,0,0,-1,1637,1520,0,0
420,-496,0,0,0,0,0,0,0,0,0,-1,1644,1520,0,0
427,-496,0,0,0,0,0,0,0,0,0,-1,1651,1520,0,0
434,-496,11.0457,3.37732,0,0,0,0,0,0,0,-1,1658,1520,11.0456,-3.37736
441,-496,11.788,2.75488,0,0,0,0,0,0,0,-1,1665,1520,11.7879,-2.75485
448,-496,12.2146,2.18494,0,0,0,0,0,0,0,-1,1672,1520,12.2146,-2.18489
455,-496,12.3489,1.65173,0,0,0,0,0,0,0,-1,1679,1520,12.3489,-1.65178
462,-496,12.1912,1.32361,0,0,0,0,0,0,0,-1,1686,1520,12.1911,-1.32357
469,-496,14.8138,5.77954,0,0,0,0,0,0,0,-1,1693,1520,14.8138,-5.77958
476,-496,15.2449,6.27942,0,0,0,0,0,0,0,-1,1700,1520,15.2449,-6.27936
483,-496,9.19812,6.88367,0,0,0,0,0,0,0,-1,1707,1520,9.19812,-6.88361
490,-496,10.2123,7.97144,0,0,0,0,0,0,0,-1,1714,1520,10.2122,-7.97145
497,-496,13.9297,12.2981,0,0,0,0,0,0,0,-1,1721,1520,13.9297,-12.2982
504,-496,16.3271,16.6501,0,0,0,0,0,0,0,-1,1728,1520,16.3272,-16.6502
511,-496,17.6753,18.0685,0,0,0,0,0,0,0,-1,1735,1520,17.6753,-18.0685
518,-496,17.0537,17.3118,0,0,0,0,0,0,0,-1,1742,1520,17.0538,-17.3118
525,-496,18.2721,19.3259,0,0,0,0,0,0,0,-1,1749,1520,18.2721,-19.3259
532,-496,18.2325,20.2527,0,0,0,0,0,0,0,-1,1756,1520,18.2325,-20.2527
539,-496,18.4121,19.5726,0.00330283,0.00172236,-0.00150212,0.00420989,0.000815293,-0.543252,0.00257817,0.0272126,1763,1520,18.4121,-19.5727
546,-496,18.3221,19.0795,0.00278301,0.0013491,-0.00106894,0.00335316,0.000778944,-0.489996,0.00202633,0.0137702,1770,1520,18.3221,-19.0794
553,-496,18.4091,18.577,0.00244054,0.00112981,-0.000861488,0.00286761,0.000702741,-0.46023,0.00172586,0.0151355,1777,1520,18.4091,-18.577
560,-496,18.4216,18.1569,0.00218582,0.000929715,-0.000745601,0.00253263,0.000582897,-0.435383,0.00153155,0.0144386,1784,1520,18.4216,-18.1568
567,-496,18.4094,17.7177,0.00209362,0.000725976,-0.000787095,0.00245245,0.000367143,-0.427746,0.00152737,0.0124301,1791,1520,18.4095,-17.7176
574,-496,18.4049,17.2815,0.00221935,0.000621053,-0.00106635,0.00275277,8.76356e-05,-0.463831,0.00180668,0.0123079,1798,1520,18.4049,-17.2815
581,-496,18.3842,16.8608,0.00244544,0.000414224,-0.00139034,0.00315161,-0.000291947,-0.469956,0.00220484,0.0128988,1805,1520,18.3842,-16.8609
588,-496,18.3689,16.4268,0.00291761,0.000264926,-0.0019071,0.00391424,-0.000731705,-0.481556,0.0028845,0.0156701,1812,1520,18.3689,-16.4267
595,-496,18.3516,15.9869,0.00371142,9.81661e-05,-0.00256851,0.00504504,-0.00123546,-0.478904,0.00384197,0.0176678,1819,1520,18.3515,-15.9869
602,-496,18.3503,15.5112,0.00467506,-1.70501e-05,-0.0034361,0.00648962,-0.00183162,-0.485866,0.00504894,0.018605,1826,1520,18.3504,-15.5113
609,-496,18.3505,15.0553,0.00591378,-7.06923e-05,-0.00449236,0.00831921,-0.00247612,-0.491603,0.00652992,0.0163236,1833,1520,18.3505,-15.0553
616,-496,18.3824,14.5033,0.00770784,-7.67788e-05,-0.00577543,0.0107801,-0.00314907,-0.488887,0.00843472,0.0312671,1840,1520,18.3825,-14.5032
623,-496,18.2695,14.137,0.00989143,-2.64011e-05,-0.00727979,0.0137408,-0.00387579,-0.486404,0.0106893,0.0489346,1847,1520,18.2696,-14.137
630,-496,18.374,13.7294,0,0,0,0,0,0,0,-1,1854,1520,18.3741,-13.7294
637,-496,14.6411,10.1016,0,0,0,0,0,0,0,-1,1861,1520,14.6411,-10.1016
644,-496,12.4537,10.087,0,0,0,0,0,0,0,-1,1868,1520,12.4537,-10.0871
651,-496,8.18506,5.47803,0,0,0,0,0,0,0,-1,1875,1520,8.18505,-5.47806
658,-496,7.79993,4.02563,0,0,0,0,0,0,0,-1,1882,1520,7.79997,-4.02568
665,-496,5.47583,7.90625,0,0,0,0,0,0,0,-1,1889,1520,5.47581,-7.90628
672,-496,0,0,0,0,0,0,0,0,0,-1,1896,1520,0,0
679,-496,0,0,0,0,0,0,0,0,0,-1,1903,1520,0,0
686,-496,0,0,0,0,0,0,0,0,0,-1,1910,1520,0,0
693,-496,0,0,0,0,0,0,0,0,0,-1,1917,1520,0,0
700,-496,0,0,0,0,0,0,0,0,0,-1,1924,1520,0,0
707,-496,0,0,0,0,0,0,0,0,0,-1,1931,1520,0,0
714,-496,0,0,0,0,0,0,0,0,0,-1,1938,1520,0,0
721,-496,0,0,0,0,0,0,0,0,0,-1,1945,1520,0,0
728,-496,0,0,0,0,0,0,0,0,0,-1,1952,1520,0,0
735,-496,0,0,0,0,0,0,0,0,0,-1,1959,1520,0,0
742,-496,0,0,0,0,0,0,0,0,0,-1,1966,1520,0,0
749,-496,0,0,0,0,0,0,0,0,0,-1,1973,1520,0,0
756,-496,0,0,0,0,0,0,0,0,0,-1,1980,1520,0,0
763,-496,0,0,0,0,0,0,0,0,0,-1,1987,1520,0,0
770,-496,0,0,0,0,0,0,0,0,0,-1,1994,1520,0,0
777,-496,0,0,0,0,0,0,0,0,0,-1,2001,1520,0,0
784,-496,0,0,0,0,0,0,0,0,0,-1,2008,1520,0,0
791,-496,0,0,0,0,0,0,0,0,0,-1,2015,1520,0,0
798,-496,0,0,0,0,0,0,0,0,0,-1,2022,1520,0,0
805,-496,0,0,0,0,0,0,0,0,0,-1,2029,1520,0,0
812,-496,0,0,0,0,0,0,0,0,0,-1,2036,1520,0,0
-700,-503,0,0,0,0,0,0,0,0,0,-1,524,1527,0,0
-693,-503,0,0,0,0,0,0,0,0,0,-1,531,1527,0,0
-686,-503,0,0,0,0,0,0,0,0,0,-1,538,1527,0,0
-679,-503,0,0,0,0,0,0,0,0,0,-1,545,1527,0,0
-672,-503,0,0,0,0,0,0,0,0,0,-1,552,1527,0,0
-665,-503,0,0,0,0,0,0,0,0,0,-1,559,1527,0,0
-658,-503,0,0,0,0,0,0,0,0,0,-1,566,1527,0,0
-651,-503,0,0,0,0,0,0,0,0,0,-1,573,1527,0,0
-644,-503,0,0,0,0,0,0,0,0,0,-1,580,1527,0,0
-637,-503,0,0,0,0,0,0,0,0,0,-1,587,1527,0,0
-630,-503,0,0,0,0,0,0,0,0,0,-1,594,1527,0,0
-623,-503,0,0,0,0,0,0,0,0,0,-1,601,1527,0,0
-616,-503,0,0,0,0,0,0,0,0,0,-1,608,1527,0,0
-609,-503,0,0,0,0,0,0,0,0,0,-1,615,1527,0,0
-602,-503,0,0,0,0,0,0,0,0,0,-1,622,1527,0,0
-595,-503,0,0,0,0,0,0,0,0,0,-1,629,1527,0,0
-588,-503,0,0,0,0,0,0,0,0,0,-1,636,1527,0,0
-581,-503,0,0,0,0,0,0,0,0,0,-1,643,1527,0,0
-574,-503,0,0,0,0,0,0,0,0,0,-1,650,1527,0,0
-567,-503,0,0,0,0,0,0,0,0,0,-1,657,1527,0,0
-560,-503,0,0,0,0,0,0,0,0,0,-1,664,1527,0,0
-553,-503,0,0,0,0,0,0,0,0,0,-1,671,1527,0,0
-546,-503,0,0,0,0,0,0,0,0,0,-1,678,1527,0,0
-539,-503,3.50177,4.26428,0,0,0,0,0,0,0,-1,685,1527,3.50177,-4.26424
-532,-503,-3.13196,1.05298,0,0,0,0,0,0,0,-1,692,1527,-3.13194,-1.05299
-525,-503,-2.94293,2.59314,0,0,0,0,0,0,0,-1,699,1527,-2.94296,-2.59314
-518,-503,-2.7395,4.05872,0,0,0,0,0,0,0,-1,706,1527,-2.73948,-4.05871
-511,-503,-1.60022,7.23877,0,0,0,0,0,0,0,-1,713,1527,-1.60023,-7.23872
-504,-503,-4.64294,10.7301,0,0,0,0,0,0,0,-1,720,1527,-4.64292,-10.7301
-497,-503,-4.37592,13.5675,0,0,0,0,0,0,0,-1,727,1527,-4.37592,-13.5675
-490,-503,-3.93268,13.4554,0.0154005,-0.00581693,-0.0167654,0.0246317,-0.0150482,-0.503314,0.0231309,0.0476631,734,1527,-3.93265,-13.4555
-483,-503,-3.64832,13.3605,0.0113481,-0.00458939,-0.0129806,0.0186108,-0.0118521,-0.510111,0.0177315,0.0454634,741,1527,-3.64829,-13.3605
-476,-503,-3.69806,13.5608,0.00812957,-0.00318283,-0.00960656,0.0136214,-0.00867466,-0.519332,0.0129778,0.0239739,748,1527,-3.69808,-13.5608
-469,-503,-3.7561,13.9686,0.00579679,-0.00186226,-0.00669442,0.00967962,-0.0057451,-0.525592,0.00900152,0.0112314,755,1527,-3.75608,-13.9686
-462,-503,-3.75098,14.4766,0.00420753,-0.000986749,-0.00432592,0.00665605,-0.00343527,-0.515053,0.00592431,0.0120731,762,1527,-3.75097,-14.4766
-455,-503,-3.74493,14.9795,0.00317144,-8.87115e-06,-0.00226174,0.00434607,-0.0011835,-0.479007,0.00336205,0.0190612,769,1527,-3.74494,-14.9795
-448,-503,-3.7478,15.4543,0.00267735,0.000597984,-0.000668343,0.00287363,0.000401696,-0.285661,0.00179689,0.0178252,776,1527,-3.74781,-15.4543
-441,-503,-3.74725,15.8938,0.00266676,0.00124278,0.000818009,0.00303924,0.000870305,0.427291,0.00180731,0.0132799,783,1527,-3.74725,-15.8938
-434,-503,-3.79486,16.3579,0.00283475,0.0023332,0.00231257,0.00491011,0.000257851,0.731389,0.00319093,0.0109968,790,1527,-3.79485,-16.3579
-427,-503,-3.84613,16.806,0.00366179,0.00302147,0.00349778,0.00685403,-0.000170771,0.73976,0.00462733,0.0167599,797,1527,-3.84612,-16.806
-420,-503,-3.81384,17.3082,0.00482357,0.00390111,0.0046107,0.00899606,-0.000271372,0.735547,0.00608985,0.0176795,804,1527,-3.81385,-17.3082
-413,-503,-3.81409,17.7889,0.00622646,0.00529686,0.00601101,0.0117906,-0.000267292,0.746813,0.007951,0.015658,811,1527,-3.81407,-17.7889
-406,-503,-3.8197,18.2584,0.00777792,0.00731845,0.0079361,0.0154876,-0.000391243,0.770928,0.0104579,0.0241012,818,1527,-3.81968,-18.2584
-399,-503,-3.69598,18.9221,0.00969457,0.0101197,0.0100162,0.0199255,-0.000111308,0.796007,0.013321,0.0393259,825,1527,-3.69601,-18.9221
-392,-503,-3.39252,19.7906,0,0,0,0,0,0,0,-1,832,1527,-3.3925,-19.7907
-385,-503,-2.00403,14.1218,0,0,0,0,0,0,0,-1,839,1527,-2.00403,-14.1218
-378,-503,-2.07043,13.8632,0,0,0,0,0,0,0,-1,846,1527,-2.07043,-13.8631
-371,-503,-1.67285,13.8081,0,0,0,0,0,0,0,-1,853,1527,-1.67285,-13.8081
-364,-503,0.181396,12.3768,0,0,0,0,0,0,0,-1,860,1527,0.18138,-12.3768
-357,-503,0.558533,9.25452,0,0,0,0,0,0,0,-1,867,1527,0.558542,-9.25446
-350,-503,0.219971,6.84827,0,0,0,0,0,0,0,-1,874,1527,0.21996,-6.84831
-343,-503,-3.5802,4.43274,0,0,0,0,0,0,0,-1,881,1527,-3.58018,-4.43276
-336,-503,-3.2384,6.40637,0,0,0,0,0,0,0,-1,888,1527,-3.2384,-6.40643
-329,-503,-1.70691,11.886,0,0,0,0,0,0,0,-1,895,1527,-1.70689,-11.886
-322,-503,-3.31317,8.81519,0,0,0,0,0,0,0,-1,902,1527,-3.31315,-8.81524
-315,-503,-3.90265,7.73853,0,0,0,0,0,0,0,-1,909,1527,-3.90264,-7.73854
-308,-503,-1.70264,7.35413,0,0,0,0,0,0,0,-1,916,1527,-1.70262,-7.35416
-301,-503,0,0,0,0,0,0,0,0,0,-1,923,1527,0,0
-294,-503,0,0,0,0,0,0,0,0,0,-1,930,1527,0,0
-287,-503,0,0,0,0,0,0,0,0,0,-1,937,1527,0,0
-280,-503,0,0,0,0,0,0,0,0,0,-1,944,1527,0,0
-273,-503,0,0,0,0,0,0,0,0,0,-1,951,1527,0,0
-266,-503,0,0,0,0,0,0,0,0,0,-1,958,1527,0,0
-259,-503,0,0,0,0,0,0,0,0,0,-1,965,1527,0,0
-252,-503,0,0,0,0,0,0,0,0,0,-1,972,1527,0,0
-245,-503,0,0,0,0,0,0,0,0,0,-1,979,1527,0,0
-238,-503,0,0,0,0,0,0,0,0,0,-1,986,1527,0,0
-231,-503,0,0,0,0,0,0,0,0,0,-1,993,1527,0,0
-224,-503,0,0,0,0,0,0,0,0,0,-1,1000,1527,0,0
-217,-503,0,0,0,0,0,0,0,0,0,-1,1007,1527,0,0
-210,-503,0,0,0,0,0,0,0,0,0,-1,1014,1527,0,0
-203,-503,0,0,0,0,0,0,0,0,0,-1,1021,1527,0,0
-196,-503,0,0,0,0,0,0,0,0,0,-1,1028,1527,0,0
-189,-503,0,0,0,0,0,0,0,0,0,-1,1035,1527,0,0
-182,-503,0,0,0,0,0,0,0,0,0,-1,1042,1527,0,0
-175,-503,0,0,0,0,0,0,0,0,0,-1,1049,1527,0,0
-168,-503,0,0,0,0,0,0,0,0,0,-1,1056,1527,0,0
-161,-503,0,0,0,0,0,0,0,0,0,-1,1063,1527,0,0
-154,-503,0,0,0,0,0,0,0,0,0,-1,1070,1527,0,0
-147,-503,0,0,0,0,0,0,0,0,0,-1,1077,1527,0,0
-140,-503,0,0,0,0,0,0,0,0,0,-1,1084,1527,0,0
-133,-503,0,0,0,0,0,0,0,0,0,-1,1091,1527,0,0
-126,-503,0,0,0,0,0,0,0,0,0,-1,1098,1527,0,0
-119,-503,0,0,0,0,0,0,0,0,0,-1,1105,1527,0,0
-112,-503,0,0,0,0,0,0,0,0,0,-1,1112,1527,0,0
-105,-503,0,0,0,0,0,0,0,0,0,-1,1119,1527,0,0
-98,-503,0,0,0,0,0,0,0,0,0,-1,1126,1527,0,0
-91,-503,0,0,0,0,0,0,0,0,0,-1,1133,1527,0,0
-84,-503,0,0,0,0,0,0,0,0,0,-1,1140,1527,0,0
-77,-503,0,0,0,0,0,0,0,0,0,-1,1147,1527,0,0
-70,-503,0,0,0,0,0,0,0,0,0,-1,1154,1527,0,0
-63,-503,0,0,0,0,0,0,0,0,0,-1,1161,1527,0,0
-56,-503,0,0,0,0,0,0,0,0,0,-1,1168,1527,0,0
-49,-503,0,0,0,0,0,0,0,0,0,-1,1175,1527,0,0
-42,-503,0,0,0,0,0,0,0,0,0,-1,1182,1527,0,0
-35,-503,0,0,0,0,0,0,0,0,0,-1,1189,1527,0,0
-28,-503,0,0,0,0,0,0,0,0,0,-1,1196,1527,0,0
-21,-503,0,0,0,0,0,0,0,0,0,-1,1203,1527,0,0
-14,-503,0,0,0,0,0,0,0,0,0,-1,1210,1527,0,0
-7,-503,0,0,0,0,0,0,0,0,0,-1,1217,1527,0,0
0,-503,0,0,0,0,0,0,0,0,0,-1,1224,1527,0,0
7,-503,0,0,0,0,0,0,0,0,0,-1,1231,1527,0,0
14,-503,0,0,0,0,0,0,0,0,0,-1,1238,1527,0,0
21,-503,0,0,0,0,0,0,0,0,0,-1,1245,1527,0,0
28,-503,0,0,0,0,0,0,0,0,0,-1,1252,1527,0,0
35,-503,0,0,0,0,0,0,0,0,0,-1,1259,1527,0,0
42,-503,0,0,0,0,0,0,0,0,0,-1,1266,1527,0,0
49,-503,0,0,0,0,0,0,0,0,0,-1,1273,1527,0,0
56,-503,0,0,0,0,0,0,0,0,0,-1,1280,1527,0,0
63,-503,0,0,0,0,0,0,0,0,0,-1,1287,1527,0,0
70,-503,0,0,0,0,0,0,0,0,0,-1,1294,1527,0,0
77,-503,0,0,0,0,0,0,0,0,0,-1,1301,1527,0,0
84,-503,0,0,0,0,0,0,0,0,0,-1,1308,1527,0,0
91,-503,0,0,0,0,0,0,0,0,0,-1,1315,1527,0,0
98,-503,0,0,0,0,0,0,0,0,0,-1,1322,1527,0,0
105,-503,0,0,0,0,0,0,0,0,0,-1,1329,1527,0,0
112,-503,0,0,0,0,0,0,0,0,0,-1,1336,1527,0,0
119,-503,0,0,0,0,0,0,0,0,0,-1,1343,1527,0,0
126,-503,0,0,0,0,0,0,0,0,0,-1,1350,1527,0,0
133,-503,0,0,0,0,0,0,0,0,0,-1,1357,1527,0,0
140,-503,0,0,0,0,0,0,0,0,0,-1,1364,1527,0,0
147,-503,0,0,0,0,0,0,0,0,0,-1,1371,1527,0,0
154,-503,0,0,0,0,0,0,0,0,0,-1,1378,1527,0,0
161,-503,0,0,0,0,0,0,0,0,0,-1,1385,1527,0,0
168,-503,0,0,0,0,0,0,0,0,0,-1,1392,1527,0,0
175,-503,0,0,0,0,0,0,0,0,0,-1,1399,1527,0,0
182,-503,0,0,0,0,0,0,0,0,0,-1,1406,1527,0,0
189,-503,0,0,0,0,0,0,0,0,0,-1,1413,1527,0,0
196,-503,0,0,0,0,0,0,0,0,0,-1,1420,1527,0,0
203,-503,0,0,0,0,0,0,0,0,0,-1,1427,1527,0,0
210,-503,0,0,0,0,0,0,0,0,0,-1,1434,1527,0,0
217,-503,0,0,0,0,0,0,0,0,0,-1,1441,1527,0,0
224,-503,0,0,0,0,0,0,0,0,0,-1,1448,1527,0,0
231,-503,0,0,0,0,0,0,0,0,0,-1,1455,1527,0,0
238,-503,0,0,0,0,0,0,0,0,0,-1,1462,1527,0,0
245,-503,0,0,0,0,0,0,0,0,0,-1,1469,1527,0,0
252,-503,0,0,0,0,0,0,0,0,0,-1,1476,1527,0,0
259,-503,0,0,0,0,0,0,0,0,0,-1,1483,1527,0,0
266,-503,0,0,0,0,0,0,0,0,0,-1,1490,1527,0,0
273,-503,0,0,0,0,0,0,0,0,0,-1,1497,1527,0,0
280,-503,0,0,0,0,0,0,0,0,0,-1,1504,1527,0,0
287,-503,0,0,0,0,0,0,0,0,0,-1,1511,1527,0,0
294,-503,0,0,0,0,0,0,0,0,0,-1,1518,1527,0,0
301,-503,0,0,0,0,0,0,0,0,0,-1,1525,1527,0,0
308,-503,0,0,0,0,0,0,0,0,0,-1,1532,1527,0,0
315,-503,0,0,0,0,0,0,0,0,0,-1,1539,1527,0,0
322,-503,0,0,0,0,0,0,0,0,0,-1,1546,1527,0,0
329,-503,0,0,0,0,0,0,0,0,0,-1,1553,1527,0,0
336,-503,0,0,0,0,0,0,0,0,0,-1,1560,1527,0,0
343,-503,0,0,0,0,0,0,0,0,0,-1,1567,1527,0,0
350,-503,0,0,0,0,0,0,0,0,0,-1,1574,1527,0,0
357,-503,0,0,0,0,0,0,0,0,0,-1,1581,1527,0,0
364,-503,0,0,0,0,0,0,0,0,0,-1,1588,1527,0,0
371,-503,0,0,0,0,0,0,0,0,0,-1,1595,1527,0,0
378,-503,0,0,0,0,0,0,0,0,0,-1,1602,1527,0,0
385,-503,0,0,0,0,0,0,0,0,0,-1,1609,1527,0,0
392,-503,0,0,0,0,0,0,0,0,0,-1,1616,1527,0,0
399,-503,0,0,0,0,0,0,0,0,0,-1,1623,1527,0,0
406,-503,0,0,0,0,0,0,0,0,0,-1,1630,1527,0,0
413,-503,0,0,0,0,0,0,0,0,0,-1,1637,1527,0,0
420,-503,0,0,0,0,0,0,0,0,0,-1,1644,1527,0,0
427,-503,10.5968,4.9856,0,0,0,0,0,0,0,-1,1651,1527,10.5969,-4.98563
434,-503,11.4329,3.97217,0,0,0,0,0,0,0,-1,1658,1527,11.4328,-3.97222
441,-503,12.0957,2.96509,0,0,0,0,0,0,0,-1,1665,1527,12.0957,-2.96512
448,-503,12.3259,2.53894,0,0,0,0,0,0,0,-1,1672,1527,12.326,-2.53895
455,-503,12.1669,2.18762,0,0,0,0,0,0,0,-1,1679,1527,12.1668,-2.18767
462,-503,11.59,2.60791,0,0,0,0,0,0,0,-1,1686,1527,11.5899,-2.60794
469,-503,11.1625,1.61853,0,0,0,0,0,0,0,-1,1693,1527,11.1625,-1.61856
476,-503,9.07703,5.81042,0,0,0,0,0,0,0,-1,1700,1527,9.07699,-5.81047
483,-503,9.74414,6.92432,0,0,0,0,0,0,0,-1,1707,1527,9.74417,-6.9243
490,-503,10.5033,10.1071,0,0,0,0,0,0,0,-1,1714,1527,10.5032,-10.107
497,-503,15.0057,17.9476,0,0,0,0,0,0,0,-1,1721,1527,15.0058,-17.9476
504,-503,16.4764,18.4486,0,0,0,0,0,0,0,-1,1728,1527,16.4764,-18.4486
511,-503,16.8276,18.3271,0,0,0,0,0,0,0,-1,1735,1527,16.8276,-18.3272
518,-503,17.2533,18.2738,0,0,0,0,0,0,0,-1,1742,1527,17.2533,-18.2738
525,-503,18.2903,20.5018,0,0,0,0,0,0,0,-1,1749,1527,18.2902,-20.5019
532,-503,17.9658,19.9854,0,0,0,0,0,0,0,-1,1756,1527,17.9658,-19.9854
539,-503,17.9441,19.5327,0.0028895,0.00195367,-0.00153195,0.00402341,0.000819768,-0.63718,0.00245507,0.018257,1763,1527,17.9441,-19.5327
546,-503,17.9391,19.0437,0.00243718,0.0014576,-0.00108888,0.00314135,0.000753427,-0.574049,0.00189373,0.0125383,1770,1527,17.9391,-19.0438
553,-503,17.9824,18.6167,0.00213143,0.00112253,-0.000846085,0.00261203,0.000641929,-0.516582,0.0015717,0.0135415,1777,1527,17.9824,-18.6168
560,-503,17.9884,18.1729,0.00192672,0.000840924,-0.000713129,0.00228009,0.000487556,-0.460055,0.00138642,0.0132396,1784,1527,17.9884,-18.1729
567,-503,17.976,17.7175,0.00197827,0.000506912,-0.00078551,0.00231881,0.000166372,-0.409071,0.00149351,0.0122048,1791,1527,17.976,-17.7176
574,-503,17.9635,17.296,0.00227999,0.000445568,-0.00118616,0.0028622,-0.000136634,-0.456285,0.00195527,0.0122229,1798,1527,17.9635,-17.296
581,-503,17.9152,16.8774,0.00270021,0.000255948,-0.00162274,0.00350956,-0.000553397,-0.462648,0.00254431,0.0136606,1805,1527,17.9152,-16.8774
588,-503,17.8947,16.449,0.00340896,0.00015939,-0.00231872,0.00461549,-0.00104715,-0.479792,0.00347898,0.0172745,1812,1527,17.8946,-16.449
595,-503,17.905,15.9894,0.00446717,2.83508e-05,-0.00322102,0.00615937,-0.00166385,-0.483732,0.00475883,0.0133318,1819,1527,17.9051,-15.9894
602,-503,17.9565,15.5032,0.00577672,4.35061e-05,-0.00442494,0.00818245,-0.00236223,-0.497974,0.00638962,0.0247478,1826,1527,17.9566,-15.5032
609,-503,18.0176,14.9254,0,0,0,0,0,0,0,-1,1833,1527,18.0176,-14.9254
616,-503,17.8026,14.8722,0.00997457,0.000303935,-0.00786418,0.014371,-0.00409252,-0.509763,0.011197,0.0447097,1840,1527,17.8026,-14.8722
623,-503,18.1025,13.8895,0.0129777,0.00055818,-0.0101802,0.0186926,-0.00515676,-0.511535,0.0144898,0.047116,1847,1527,18.1025,-13.8895
630,-503,18.6177,12.9442,0,0,0,0,0,0,0,-1,1854,1527,18.6176,-12.9442
637,-503,14.5564,9.20496,0,0,0,0,0,0,0,-1,1861,1527,14.5564,-9.2049
644,-503,11.4802,7.57214,0,0,0,0,0,0,0,-1,1868,1527,11.4802,-7.57215
651,-503,11.5718,6.5448,0,0,0,0,0,0,0,-1,1875,1527,11.5718,-6.54476
658,-503,8.25635,3.10498,0,0,0,0,0,0,0,-1,1882,1527,8.2563,-3.10493
665,-503,0,0,0,0,0,0,0,0,0,-1,1889,1527,0,0
672,-503,0,0,0,0,0,0,0,0,0,-1,1896,1527,0,0
679,-503,0,0,0,0,0,0,0,0,0,-1,1903,1527,0,0
686,-503,0,0,0,0,0,0,0,0,0,-1,1910,1527,0,0
693,-503,0,0,0,0,0,0,0,0,0,-1,1917,1527,0,0
700,-503,0,0,0,0,0,0,0,0,0,-1,1924,1527,0,0
707,-503,0,0,0,0,0,0,0,0,0,-1,1931,1527,0,0
714,-503,0,0,0,0,0,0,0,0,0,-1,1938,1527,0,0
721,-503,0,0,0,0,0,0,0,0,0,-1,1945,1527,0,0
728,-503,0,0,0,0,0,0,0,0,0,-1,1952,1527,0,0
735,-503,0,0,0,0,0,0,0,0,0,-1,1959,1527,0,0
742,-503,0,0,0,0,0,0,0,0,0,-1,1966,1527,0,0
749,-503,0,0,0,0,0,0,0,0,0,-1,1973,1527,0,0
756,-503,0,0,0,0,0,0,0,0,0,-1,1980,1527,0,0
763,-503,0,0,0,0,0,0,0,0,0,-1,1987,1527,0,0
770,-503,0,0,0,0,0,0,0,0,0,-1,1994,1527,0,0
777,-503,0,0,0,0,0,0,0,0,0,-1,2001,1527,0,0
784,-503,0,0,0,0,0,0,0,0,0,-1,2008,1527,0,0
791,-503,0,0,0,0,0,0,0,0,0,-1,2015,1527,0,0
798,-503,0,0,0,0,0,0,0,0,0,-1,2022,1527,0,0
805,-503,0,0,0,0,0,0,0,0,0,-1,2029,1527,0,0
812,-503,0,0,0,0,0,0,0,0,0,-1,2036,1527,0,0
-700,-510,0,0,0,0,0,0,0,0,0,-1,524,1534,0,0
-693,-510,0,0,0,0,0,0,0,0,0,-1,531,1534,0,0
-686,-510,0,0,0,0,0,0,0,0,0,-1,538,1534,0,0
-679,-510,0,0,0,0,0,0,0,0,0,-1,545,1534,0,0
-672,-510,0,0,0,0,0,0,0,0,0,-1,552,1534,0,0
-665,-510,0,0,0,0,0,0,0,0,0,-1,559,1534,0,0
-658,-510,0,0,0,0,0,0,0,0,0,-1,566,1534,0,0
-651,-510,0,0,0,0,0,0,0,0,0,-1,573,1534,0,0
-644,-510,0,0,0,0,0,0,0,0,0,-1,580,1534,0,0
-637,-510,0,0,0,0,0,0,0,0,0,-1,587,1534,0,0
-630,-510,0,0,0,0,0,0,0,0,0,-1,594,1534,0,0
-623,-510,0,0,0,0,0,0,0,0,0,-1,601,1534,0,0
-616,-510,0,0,0,0,0,0,0,0,0,-1,608,1534,0,0
-609,-510,0,0,0,0,0,0,0,0,0,-1,615,1534,0,0
-602,-510,0,0,0,0,0,0,0,0,0,-1,622,1534,0,0
-595,-510,0,0,0,0,0,0,0,0,0,-1,629,1534,0,0
-588,-510,0,0,0,0,0,0,0,0,0,-1,636,1534,0,0
-581,-510,0,0,0,0,0,0,0,0,0,-1,643,1534,0,0
-574,-510,0,0,0,0,0,0,0,0,0,-1,650,1534,0,0
-567,-510,0,0,0,0,0,0,0,0,0,-1,657,1534,0,0
-560,-510,0,0,0,0,0,0,0,0,0,-1,664,1534,0,0
-553,-510,0,0,0,0,0,0,0,0,0,-1,671,1534,0,0
-546,-510,0,0,0,0,0,0,0,0,0,-1,678,1534,0,0
-539,-510,0,0,0,0,0,0,0,0,0,-1,685,1534,0,0
-532,-510,-3.95129,4.52014,0,0,0,0,0,0,0,-1,692,1534,-3.95131,-4.5202
-525,-510,-2.77411,0.316772,0,0,0,0,0,0,0,-1,699,1534,-2.77409,-0.3168
-518,-510,-2.86847,2.71423,0,0,0,0,0,0,0,-1,706,1534,-2.86849,-2.71424
-511,-510,-2.28571,4.48083,0,0,0,0,0,0,0,-1,713,1534,-2.28571,-4.48086
-504,-510,-4.86731,10.8224,0,0,0,0,0,0,0,-1,720,1534,-4.8673,-10.8224
-497,-510,-4.13934,14.423,0,0,0,0,0,0,0,-1,727,1534,-4.13935,-14.4229
-490,-510,-3.62238,14.1642,0.0216368,-0.00724296,-0.0223367,0.0337946,-0.0194008,-0.498455,0.0310849,0.0443115,734,1534,-3.62237,-14.1642
-483,-510,-3.1983,13.8683,0.0156686,-0.00486662,-0.0165772,0.0249004,-0.0140984,-0.508124,0.0228021,0.0423075,741,1534,-3.1983,-13.8683
-476,-510,-3.11426,13.5668,0.0110068,-0.00279483,-0.0118688,0.0178351,-0.00962317,-0.522074,0.0160876,0.0368464,748,1534,-3.11425,-13.5668
-469,-510,-3.26733,13.9984,0.00761356,-0.0011631,-0.00811512,0.0124509,-0.00600042,-0.537537,0.0108677,0.0154463,755,1534,-3.26732,-13.9985
-462,-510,-3.28107,14.4867,0.00529327,-0.000160187,-0.00522384,0.00845922,-0.00332613,-0.544861,0.00701611,0.012019,762,1534,-3.28108,-14.4867
-455,-510,-3.29688,14.9884,0.00370639,0.000704873,-0.00291189,0.00548151,-0.00107025,-0.547457,0.00405841,0.0151392,769,1534,-3.29686,-14.9884
-448,-510,-3.27612,15.4552,0.0027637,0.00110753,-0.00125179,0.00343652,0.000434712,-0.493184,0.00216073,0.0138904,776,1534,-3.27611,-15.4553
-441,-510,-3.28143,15.9091,0.00239696,0.00148461,0.000171267,0.00242805,0.00145352,0.17958,0.0014109,0.0138469,783,1534,-3.28144,-15.9091
-434,-510,-3.33276,16.3696,0.00211139,0.00250575,0.00167096,0.00399113,0.000626015,0.844128,0.00247858,0.0143344,790,1534,-3.33279,-16.3696
-427,-510,-3.38013,16.796,0.00262003,0.00279923,0.00280293,0.00551398,-9.4733e-05,0.801376,0.00370797,0.0213807,797,1534,-3.38015,-16.7961
-420,-510,-3.36456,17.2942,0.00355209,0.00345373,0.00365885,0.00716209,-0.000156267,0.778678,0.00482766,0.0212402,804,1534,-3.36456,-17.2942
-413,-510,-3.35071,17.7992,0.00468499,0.00448964,0.004737,0.00932533,-0.000150692,0.77509,0.00626772,0.0113647,811,1534,-3.35068,-17.7992
-406,-510,-3.38782,18.2527,0.00592001,0.0061412,0.00623918,0.0122708,-0.00020956,0.79426,0.00825125,0.0108236,818,1534,-3.38781,-18.2526
-399,-510,-3.39685,18.7046,0.00739668,0.00853167,0.00785095,0.0158356,9.27402e-05,0.821477,0.0105263,0.0140977,825,1534,-3.39685,-18.7046
-392,-510,-3.23151,19.3744,0.00917451,0.0121145,0.00947853,0.0202364,0.00105267,0.86233,0.0131541,0.0403691,832,1534,-3.23151,-19.3744
-385,-510,-2.9386,20.0979,0,0,0,0,0,0,0,-1,839,1534,-2.93861,-20.0979
-378,-510,-1.78308,13.8044,0,0,0,0,0,0,0,-1,846,1534,-1.78309,-13.8044
-371,-510,-1.74982,13.8027,0,0,0,0,0,0,0,-1,853,1534,-1.74981,-13.8028
-364,-510,-1.3479,13.7771,0,0,0,0,0,0,0,-1,860,1534,-1.34791,-13.7771
-357,-510,-0.254395,8.89575,0,0,0,0,0,0,0,-1,867,1534,-0.254397,-8.89569
-350,-510,0.471191,6.06458,0,0,0,0,0,0,0,-1,874,1534,0.47118,-6.06453
-343,-510,-2.94617,5.00989,0,0,0,0,0,0,0,-1,881,1534,-2.94615,-5.00992
-336,-510,-1.85938,19.839,0,0,0,0,0,0,0,-1,888,1534,-1.85937,-19.839
-329,-510,-4.87781,20.6893,0,0,0,0,0,0,0,-1,895,1534,-4.87782,-20.6894
-322,-510,-0.251526,11.973,0,0,0,0,0,0,0,-1,902,1534,-0.251497,-11.9731
-315,-510,-1.73047,10.9796,0,0,0,0,0,0,0,-1,909,1534,-1.73049,-10.9796
-308,-510,-2.05328,9.72034,0,0,0,0,0,0,0,-1,916,1534,-2.05327,-9.72036
-301,-510,-1.85437,11.5869,0,0,0,0,0,0,0,-1,923,1534,-1.85437,-11.5869
-294,-510,0,0,0,0,0,0,0,0,0,-1,930,1534,0,0
-287,-510,0,0,0,0,0,0,0,0,0,-1,937,1534,0,0
-280,-510,0,0,0,0,0,0,0,0,0,-1,944,1534,0,0
-273,-510,0,0,0,0,0,0,0,0,0,-1,951,1534,0,0
-266,-510,0,0,0,0,0,0,0,0,0,-1,958,1534,0,0
-259,-510,0,0,0,0,0,0,0,0,0,-1,965,1534,0,0
-252,-510,0,0,0,0,0,0,0,0,0,-1,972,1534,0,0
-245,-510,0,0,0,0,0,0,0,0,0,-1,979,1534,0,0
-238,-510,0,0,0,0,0,0,0,0,0,-1,986,1534,0,0
-231,-510,0,0,0,0,0,0,0,0,0,-1,993,1534,0,0
-224,-510,0,0,0,0,0,0,0,0,0,-1,1000,1534,0,0
-217,-510,0,0,0,0,0,0,0,0,0,-1,1007,1534,0,0
-210,-510,0,0,0,0,0,0,0,0,0,-1,1014,1534,0,0
-203,-510,0,0,0,0,0,0,0,0,0,-1,1021,1534,0,0
-196,-510,0,0,0,0,0,0,0,0,0,-1,1028,1534,0,0
-189,-510,0,0,0,0,0,0,0,0,0,-1,1035,1534,0,0
-182,-510,0,0,0,0,0,0,0,0,0,-1,1042,1534,0,0
-175,-510,0,0,0,0,0,0,0,0,0,-1,1049,1534,0,0
-168,-510,0,0,0,0,0,0,0,0,0,-1,1056,1534,0,0
-161,-510,0,0,0,0,0,0,0,0,0,-1,1063,1534,0,0
-154,-510,0,0,0,0,0,0,0,0,0,-1,1070,1534,0,0
-147,-510,0,0,0,0,0,0,0,0,0,-1,1077,1534,0,0
-140,-510,0,0,0,0,0,0,0,0,0,-1,1084,1534,0,0
-133,-510,0,0,0,0,0,0,0,0,0,-1,1091,1534,0,0
-126,-510,0,0,0,0,0,0,0,0,0,-1,1098,1534,0,0
-119,-510,0,0,0,0,0,0,0,0,0,-1,1105,1534,0,0
-112,-510,0,0,0,0,0,0,0,0,0,-1,1112,1534,0,0
-105,-510,0,0,0,0,0,0,0,0,0,-1,1119,1534,0,0
-98,-510,0,0,0,0,0,0,0,0,0,-1,1126,1534,0,0
-91,-510,0,0,0,0,0,0,0,0,0,-1,1133,1534,0,0
-84,-510,0,0,0,0,0,0,0,0,0,-1,1140,1534,0,0
-77,-510,0,0,0,0,0,0,0,0,0,-1,1147,1534,0,0
-70,-510,0,0,0,0,0,0,0,0,0,-1,1154,1534,0,0
-63,-510,0,0,0,0,0,0,0,0,0,-1,1161,1534,0,0
-56,-510,0,0,0,0,0,0,0,0,0,-1,1168,1534,0,0
-49,-510,0,0,0,0,0,0,0,0,0,-1,1175,1534,0,0
-42,-510,0,0,0,0,0,0,0,0,0,-1,1182,1534,0,0
-35,-510,0,0,0,0,0,0,0,0,0,-1,1189,1534,0,0
-28,-510,0,0,0,0,0,0,0,0,0,-1,1196,1534,0,0
-21,-510,0,0,0,0,0,0,0,0,0,-1,1203,1534,0,0
-14,-510,0,0,0,0,0,0,0,0,0,-1,1210,1534,0,0
-7,-510,0,0,0,0,0,0,0,0,0,-1,1217,1534,0,0
0,-510,0,0,0,0,0,0,0,0,0,-1,1224,1534,0,0
7,-510,0,0,0,0,0,0,0,0,0,-1,1231,1534,0,0
14,-510,0,0,0,0,0,0,0,0,0,-1,1238,1534,0,0
21,-510,0,0,0,0,0,0,0,0,0,-1,1245,1534,0,0
28,-510,0,0,0,0,0,0,0,0,0,-1,1252,1534,0,0
35,-510,0,0,0,0,0,0,0,0,0,-1,1259,1534,0,0
42,-510,0,0,0,0,0,0,0,0,0,-1,1266,1534,0,0
49,-510,0,0,0,0,0,0,0,0,0,-1,1273,1534,0,0
56,-510,0,0,0,0,0,0,0,0,0,-1,1280,1534,0,0
63,-510,0,0,0,0,0,0,0,0,0,-1,1287,1534,0,0
70,-510,0,0,0,0,0,0,0,0,0,-1,1294,1534,0,0
77,-510,0,0,0,0,0,0,0,0,0,-1,1301,1534,0,0
84,-510,0,0,0,0,0,0,0,0,0,-1,1308,1534,0,0
91,-510,0,0,0,0,0,0,0,0,0,-1,1315,1534,0,0
98,-510,0,0,0,0,0,0,0,0,0,-1,1322,1534,0,0
105,-510,0,0,0,0,0,0,0,0,0,-1,1329,1534,0,0
112,-510,0,0,0,0,0,0,0,0,0,-1,1336,1534,0,0
119,-510,0,0,0,0,0,0,0,0,0,-1,1343,1534,0,0
126,-510,0,0,0,0,0,0,0,0,0,-1,1350,1534,0,0
133,-510,0,0,0,0,0,0,0,0,0,-1,1357,1534,0,0
140,-510,0,0,0,0,0,0,0,0,0,-1,1364,1534,0,0
147,-510,0,0,0,0,0,0,0,0,0,-1,1371,1534,0,0
154,-510,0,0,0,0,0,0,0,0,0,-1,1378,1534,0,0
161,-510,0,0,0,0,0,0,0,0,0,-1,1385,1534,0,0
168,-510,0,0,0,0,0,0,0,0,0,-1,1392,1534,0,0
175,-510,0,0,0,0,0,0,0,0,0,-1,1399,1534,0,0
182,-510,0,0,0,0,0,0,0,0,0,-1,1406,1534,0,0
189,-510,0,0,0,0,0,0,0,0,0,-1,1413,1534,0,0
196,-510,0,0,0,0,0,0,0,0,0,-1,1420,1534,0,0
203,-510,0,0,0,0,0,0,0,0,0,-1,1427,1534,0,0
210,-510,0,0,0,0,0,0,0,0,0,-1,1434,1534,0,0
217,-510,0,0,0,0,0,0,0,0,0,-1,1441,1534,0,0
224,-510,0,0,0,0,0,0,0,0,0,-1,1448,1534,0,0
231,-510,0,0,0,0,0,0,0,0,0,-1,1455,1534,0,0
238,-510,0,0,0,0,0,0,0,0,0,-1,1462,1534,0,0
245,-510,0,0,0,0,0,0,0,0,0,-1,1469,1534,0,0
252,-510,0,0,0,0,0,0,0,0,0,-1,1476,1534,0,0
259,-510,0,0,0,0,0,0,0,0,0,-1,1483,1534,0,0
266,-510,0,0,0,0,0,0,0,0,0,-1,1490,1534,0,0
273,-510,0,0,0,0,0,0,0,0,0,-1,1497,1534,0,0
280,-510,0,0,0,0,0,0,0,0,0,-1,1504,1534,0,0
287,-510,0,0,0,0,0,0,0,0,0,-1,1511,1534,0,0
294,-510,0,0,0,0,0,0,0,0,0,-1,1518,1534,0,0
301,-510,0,0,0,0,0,0,0,0,0,-1,1525,1534,0,0
308,-510,0,0,0,0,0,0,0,0,0,-1,1532,1534,0,0
315,-510,0,0,0,0,0,0,0,0,0,-1,1539,1534,0,0
322,-510,0,0,0,0,0,0,0,0,0,-1,1546,1534,0,0
329,-510,0,0,0,0,0,0,0,0,0,-1,1553,1534,0,0
336,-510,0,0,0,0,0,0,0,0,0,-1,1560,1534,0,0
343,-510,0,0,0,0,0,0,0,0,0,-1,1567,1534,0,0
350,-510,0,0,0,0,0,0,0,0,0,-1,1574,1534,0,0
357,-510,0,0,0,0,0,0,0,0,0,-1,1581,1534,0,0
364,-510,0,0,0,0,0,0,0,0,0,-1,1588,1534,0,0
371,-510,0,0,0,0,0,0,0,0,0,-1,1595,1534,0,0
378,-510,0,0,0,0,0,0,0,0,0,-1,1602,1534,0,0
385,-510,0,0,0,0,0,0,0,0,0,-1,1609,1534,0,0
392,-510,0,0,0,0,0,0,0,0,0,-1,1616,1534,0,0
399,-510,0,0,0,0,0,0,0,0,0,-1,1623,1534,0,0
406,-510,0,0,0,0,0,0,0,0,0,-1,1630,1534,0,0
413,-510,0,0,0,0,0,0,0,0,0,-1,1637,1534,0,0
420,-510,14.1888,6.71936,0,0,0,0,0,0,0,-1,1644,1534,14.1889,-6.71939
427,-510,10.2134,5.59485,0,0,0,0,0,0,0,-1,1651,1534,10.2134,-5.59485
434,-510,11.8219,4.07898,0,0,0,0,0,0,0,-1,1658,1534,11.8219,-4.07895
441,-510,12.6812,3.02991,0,0,0,0,0,0,0,-1,1665,1534,12.6811,-3.0299
448,-510,13.2379,2.2804,0,0,0,0,0,0,0,-1,1672,1534,13.2379,-2.28037
455,-510,9.76892,2.20642,0,0,0,0,0,0,0,-1,1679,1534,9.76894,-2.20647
462,-510,9.84692,2.49182,0,0,0,0,0,0,0,-1,1686,1534,9.84695,-2.49185
469,-510,16.6072,7.26941,0,0,0,0,0,0,0,-1,1693,1534,16.6072,-7.26945
476,-510,15.9199,7.8645,0,0,0,0,0,0,0,-1,1700,1534,15.9199,-7.86455
483,-510,13.0833,8.10938,0,0,0,0,0,0,0,-1,1707,1534,13.0833,-8.10932
490,-510,13.0841,15.3286,0,0,0,0,0,0,0,-1,1714,1534,13.0841,-15.3286
497,-510,15.5652,18.823,0,0,0,0,0,0,0,-1,1721,1534,15.5652,-18.823
504,-510,15.998,18.7478,0,0,0,0,0,0,0,-1,1728,1534,15.998,-18.7478
511,-510,15.9443,18.0476,0,0,0,0,0,0,0,-1,1735,1534,15.9443,-18.0476
518,-510,17.5665,21.3137,0,0,0,0,0,0,0,-1,1742,1534,17.5666,-21.3137
525,-510,17.2926,20.5656,0,0,0,0,0,0,0,-1,1749,1534,17.2925,-20.5655
532,-510,17.528,19.9698,0.00303119,0.00286512,-0.00211509,0.00506488,0.000831431,-0.765778,0.00313639,0.0202237,1756,1534,17.5279,-19.9699
539,-510,17.5699,19.4595,0.00255689,0.00205643,-0.00155526,0.00388192,0.000731401,-0.705635,0.00238187,0.0138076,1763,1534,17.57,-19.4595
546,-510,17.5149,19.0758,0.00220713,0.0014649,-0.00111506,0.00301122,0.000660817,-0.624753,0.00182748,0.0126287,1770,1534,17.5149,-19.0758
553,-510,17.5168,18.6333,0.00196263,0.00102631,-0.000841497,0.00245743,0.000531513,-0.531549,0.00149299,0.0133312,1777,1534,17.5168,-18.6333
560,-510,17.5159,18.1731,0.00182221,0.000664665,-0.00068417,0.00213958,0.000347298,-0.434329,0.00132587,0.0130064,1784,1534,17.5159,-18.173
567,-510,17.5142,17.736,0.0020043,0.000212719,-0.000770283,0.00228994,-7.29202e-05,-0.355105,0.0015515,0.0123188,1791,1534,17.5142,-17.7359
574,-510,17.5035,17.3053,0.00246025,0.000172772,-0.00126346,0.00302076,-0.000387743,-0.417547,0.00215475,0.013662,1798,1534,17.5036,-17.3053
581,-510,17.4675,16.9071,0.00306464,-8.73446e-06,-0.00180081,0.0038953,-0.000839391,-0.432186,0.0029172,0.0123601,1805,1534,17.4675,-16.9071
588,-510,17.4575,16.4667,0.00399676,-6.11943e-05,-0.00266042,0.00531362,-0.00137805,-0.459624,0.00408009,0.0128365,1812,1534,17.4575,-16.4666
595,-510,17.5874,15.8955,0.00529963,-0.000160005,-0.00379959,0.00724836,-0.00210873,-0.473897,0.00566746,0.0247915,1819,1534,17.5874,-15.8955
602,-510,17.6266,15.358,0,0,0,0,0,0,0,-1,1826,1534,17.6266,-15.3581
609,-510,17.2866,14.8556,0,0,0,0,0,0,0,-1,1833,1534,17.2866,-14.8556
616,-510,17.3503,15.0381,0,0,0,0,0,0,0,-1,1840,1534,17.3503,-15.0381
623,-510,17.7958,13.646,0,0,0,0,0,0,0,-1,1847,1534,17.7958,-13.646
630,-510,13.7461,9.30334,0,0,0,0,0,0,0,-1,1854,1534,13.7461,-9.30335
637,-510,11.0155,7.38464,0,0,0,0,0,0,0,-1,1861,1534,11.0155,-7.38463
644,-510,11.5809,7.17126,0,0,0,0,0,0,0,-1,1868,1534,11.5809,-7.17123
651,-510,8.70471,3.5061,0,0,0,0,0,0,0,-1,1875,1534,8.70475,-3.50611
658,-510,0,0,0,0,0,0,0,0,0,-1,1882,1534,0,0
665,-510,0,0,0,0,0,0,0,0,0,-1,1889,1534,0,0
672,-510,0,0,0,0,0,0,0,0,0,-1,1896,1534,0,0
679,-510,0,0,0,0,0,0,0,0,0,-1,1903,1534,0,0
686,-510,0,0,0,0,0,0,0,0,0,-1,1910,1534,0,0
693,-510,0,0,0,0,0,0,0,0,0,-1,1917,1534,0,0
700,-510,0,0,0,0,0,0,0,0,0,-1,1924,1534,0,0
707,-510,0,0,0,0,0,0,0,0,0,-1,1931,1534,0,0
714,-510,0,0,0,0,0,0,0,0,0,-1,1938,1534,0,0
721,-510,0,0,0,0,0,0,0,0,0,-1,1945,1534,0,0
728,-510,0,0,0,0,0,0,0,0,0,-1,1952,1534,0,0
735,-510,0,0,0,0,0,0,0,0,0,-1,1959,1534,0,0
742,-510,0,0,0,0,0,0,0,0,0,-1,1966,1534,0,0
749,-510,0,0,0,0,0,0,0,0,0,-1,1973,1534,0,0
756,-510,0,0,0,0,0,0,0,0,0,-1,1980,1534,0,0
763,-510,0,0,0,0,0,0,0,0,0,-1,1987,1534,0,0
770,-510,0,0,0,0,0,0,0,0,0,-1,1994,1534,0,0
777,-510,0,0,0,0,0,0,0,0,0,-1,2001,1534,0,0
784,-510,0,0,0,0,0,0,0,0,0,-1,2008,1534,0,0
791,-510,0,0,0,0,0,0,0,0,0,-1,2015,1534,0,0
798,-510,0,0,0,0,0,0,0,0,0,-1,2022,1534,0,0
805,-510,0,0,0,0,0,0,0,0,0,-1,2029,1534,0,0
812,-510,0,0,0,0,0,0,0,0,0,-1,2036,1534,0,0
-700,-517,0,0,0,0,0,0,0,0,0,-1,524,1541,0,0
-693,-517,0,0,0,0,0,0,0,0,0,-1,531,1541,0,0
-686,-517,0,0,0,0,0,0,0,0,0,-1,538,1541,0,0
-679,-517,0,0,0,0,0,0,0,0,0,-1,545,1541,0,0
-672,-517,0,0,0,0,0,0,0,0,0,-1,552,1541,0,0
-665,-517,0,0,0,0,0,0,0,0,0,-1,559,1541,0,0
-658,-517,0,0,0,0,0,0,0,0,0,-1,566,1541,0,0
-651,-517,0,0,0,0,0,0,0,0,0,-1,573,1541,0,0
-644,-517,0,0,0,0,0,0,0,0,0,-1,580,1541,0,0
-637,-517,0,0,0,0,0,0,0,0,0,-1,587,1541,0,0
-630,-517,0,0,0,0,0,0,0,0,0,-1,594,1541,0,0
-623,-517,0,0,0,0,0,0,0,0,0,-1,601,1541,0,0
-616,-517,0,0,0,0,0,0,0,0,0,-1,608,1541,0,0
-609,-517,0,0,0,0,0,0,0,0,0,-1,615,1541,0,0
-602,-517,0,0,0,0,0,0,0,0,0,-1,622,1541,0,0
-595,-517,0,0,0,0,0,0,0,0,0,-1,629,1541,0,0
-588,-517,0,0,0,0,0,0,0,0,0,-1,636,1541,0,0
-581,-517,0,0,0,0,0,0,0,0,0,-1,643,1541,0,0
-574,-517,0,0,0,0,0,0,0,0,0,-1,650,1541,0,0
-567,-517,0,0,0,0,0,0,0,0,0,-1,657,1541,0,0
-560,-517,0,0,0,0,0,0,0,0,0,-1,664,1541,0,0
-553,-517,0,0,0,0,0,0,0,0,0,-1,671,1541,0,0
-546,-517,0,0,0,0,0,0,0,0,0,-1,678,1541,0,0
-539,-517,0,0,0,0,0,0,0,0,0,-1,685,1541,0,0
-532,-517,0,0,0,0,0,0,0,0,0,-1,692,1541,0,0
-525,-517,-3.62903,4.3606,0,0,0,0,0,0,0,-1,699,1541,-3.62904,-4.36056
-518,-517,-1.664,2.27209,0,0,0,0,0,0,0,-1,706,1541,-1.66399,-2.27207
-511,-517,-0.999146,5.52063,0,0,0,0,0,0,0,-1,713,1541,-0.999126,-5.52059
-504,-517,-1.06946,8.67432,0,0,0,0,0,0,0,-1,720,1541,-1.06947,-8.6743
-497,-517,-4.09412,14.8816,0,0,0,0,0,0,0,-1,727,1541,-4.09412,-14.8816
-490,-517,-3.19373,14.8323,0.0292178,-0.00934716,-0.0291652,0.0448984,-0.0250278,-0.493313,0.0409117,0.0457881,734,1541,-3.19373,-14.8323
-483,-517,-2.40363,13.0504,0.020763,-0.00484878,-0.0205051,0.0321325,-0.0162183,-0.50627,0.0284149,0.0439805,741,1541,-2.40364,-13.0505
-476,-517,-2.56592,13.5127,0.0143618,-0.00168391,-0.0139815,0.0224587,-0.00978088,-0.524925,0.0190872,0.0454928,748,1541,-2.56592,-13.5127
-469,-517,-2.74084,14.0167,0.00976572,0.000399796,-0.00915951,0.01537,-0.00520446,-0.549088,0.0123525,0.0215393,755,1541,-2.74087,-14.0167
-462,-517,-2.82605,14.4827,0.00666793,0.00165032,-0.0055999,0.0102953,-0.00197708,-0.5748,0.00760869,0.0207796,762,1541,-2.82606,-14.4826
-455,-517,-2.82092,14.9868,0.00452804,0.00228806,-0.00304365,0.00665123,0.000164874,-0.609099,0.00438023,0.0151184,769,1541,-2.8209,-14.9868
-448,-517,-2.81744,15.4678,0.00315425,0.00238113,-0.00133304,0.00415565,0.00137974,-0.644276,0.00244398,0.0129907,776,1541,-2.81741,-15.4678
-441,-517,-2.83691,15.9354,0.00245867,0.00239313,2.66586e-06,0.00245878,0.00239302,0.0405845,0.00161771,0.0119841,783,1541,-2.8369,-15.9354
-434,-517,-2.85419,16.3878,0.001766,0.00319462,0.00147126,0.00411581,0.00084481,1.01139,0.00251011,0.0144418,790,1541,-2.85421,-16.3879
-427,-517,-2.8653,16.8491,0.00199289,0.00301136,0.00250484,0.00505821,-5.3955e-05,0.885682,0.00339027,0.013885,797,1541,-2.86531,-16.8492
-420,-517,-2.91547,17.3481,0.00271343,0.00337931,0.00309167,0.00615591,-6.31737e-05,0.839036,0.00412516,0.01972,804,1541,-2.91547,-17.3482
-413,-517,-2.92181,17.8005,0.00360632,0.00400323,0.00385851,0.00766838,-5.88337e-05,0.811092,0.00513197,0.0106719,811,1541,-2.9218,-17.8005
-406,-517,-2.93536,18.2675,0.00458541,0.00523947,0.00496147,0.00988468,-5.9797e-05,0.818308,0.00660981,0.0110497,818,1541,-2.93537,-18.2675
-399,-517,-2.93243,18.7395,0.00570759,0.00716529,0.00616537,0.0126447,0.000228137,0.844234,0.00835482,0.0114455,825,1541,-2.93246,-18.7395
-392,-517,-2.91827,19.2264,0.00705327,0.0101147,0.00737547,0.0161166,0.00105134,0.887715,0.0104117,0.0161914,832,1541,-2.9183,-19.2264
-385,-517,-2.81897,19.9465,0.00834951,0.0130201,0.00879202,0.0197817,0.00158791,0.915207,0.0126916,0.0348633,839,1541,-2.81895,-19.9465
-378,-517,-2.67328,20.7921,0,0,0,0,0,0,0,-1,846,1541,-2.6733,-20.7921
-371,-517,-1.37585,13.2646,0,0,0,0,0,0,0,-1,853,1541,-1.37586,-13.2647
-364,-517,-1.26245,12.6289,0,0,0,0,0,0,0,-1,860,1541,-1.26243,-12.6289
-357,-517,-1.23889,12.979,0,0,0,0,0,0,0,-1,867,1541,-1.23891,-12.979
-350,-517,0.722412,10.0829,0,0,0,0,0,0,0,-1,874,1541,0.722399,-10.0828
-343,-517,-2.89331,17.5468,0,0,0,0,0,0,0,-1,881,1541,-2.89334,-17.5468
-336,-517,-0.159058,21.6846,0,0,0,0,0,0,0,-1,888,1541,-0.159071,-21.6846
-329,-517,-0.463623,21.0862,0,0,0,0,0,0,0,-1,895,1541,-0.463643,-21.0862
-322,-517,-4.21246,19.5819,0,0,0,0,0,0,0,-1,902,1541,-4.21244,-19.5819
-315,-517,-0.987976,7.29749,0,0,0,0,0,0,0,-1,909,1541,-0.987993,-7.29743
-308,-517,3.27911,17.621,0,0,0,0,0,0,0,-1,916,1541,3.27913,-17.621
-301,-517,-1.69141,8.87488,0,0,0,0,0,0,0,-1,923,1541,-1.69141,-8.87485
-294,-517,-1.72583,9.92566,0,0,0,0,0,0,0,-1,930,1541,-1.72584,-9.92571
-287,-517,-3.09045,12.1472,0,0,0,0,0,0,0,-1,937,1541,-3.09043,-12.1472
-280,-517,0,0,0,0,0,0,0,0,0,-1,944,1541,0,0
-273,-517,0,0,0,0,0,0,0,0,0,-1,951,1541,0,0
-266,-517,0,0,0,0,0,0,0,0,0,-1,958,1541,0,0
-259,-517,0,0,0,0,0,0,0,0,0,-1,965,1541,0,0
-252,-517,0,0,0,0,0,0,0,0,0,-1,972,1541,0,0
-245,-517,0,0,0,0,0,0,0,0,0,-1,979,1541,0,0
-238,-517,0,0,0,0,0,0,0,0,0,-1,986,1541,0,0
-231,-517,0,0,0,0,0,0,0,0,0,-1,993,1541,0,0
-224,-517,0,0,0,0,0,0,0,0,0,-1,1000,1541,0,0
-217,-517,0,0,0,0,0,0,0,0,0,-1,1007,1541,0,0
-210,-517,0,0,0,0,0,0,0,0,0,-1,1014,1541,0,0
-203,-517,0,0,0,0,0,0,0,0,0,-1,1021,1541,0,0
-196,-517,0,0,0,0,0,0,0,0,0,-1,1028,1541,0,0
-189,-517,0,0,0,0,0,0,0,0,0,-1,1035,1541,0,0
-182,-517,0,0,0,0,0,0,0,0,0,-1,1042,1541,0,0
-175,-517,0,0,0,0,0,0,0,0,0,-1,1049,1541,0,0
-168,-517,0,0,0,0,0,0,0,0,0,-1,1056,1541,0,0
-161,-517,0,0,0,0,0,0,0,0,0,-1,1063,1541,0,0
-154,-517,0,0,0,0,0,0,0,0,0,-1,1070,1541,0,0
-147,-517,0,0,0,0,0,0,0,0,0,-1,1077,1541,0,0
-140,-517,0,0,0,0,0,0,0,0,0,-1,1084,1541,0,0
-133,-517,0,0,0,0,0,0,0,0,0,-1,1091,1541,0,0
-126,-517,0,0,0,0,0,0,0,0,0,-1,1098,1541,0,0
-119,-517,0,0,0,0,0,0,0,0,0,-1,1105,1541,0,0
-112,-517,0,0,0,0,0,0,0,0,0,-1,1112,1541,0,0
-105,-517,0,0,0,0,0,0,0,0,0,-1,1119,1541,0,0
-98,-517,0,0,0,0,0,0,0,0,0,-1,1126,1541,0,0
-91,-517,0,0,0,0,0,0,0,0,0,-1,1133,1541,0,0
-84,-517,0,0,0,0,0,0,0,0,0,-1,1140,1541,0,0
-77,-517,0,0,0,0,0,0,0,0,0,-1,1147,1541,0,0
-70,-517,0,0,0,0,0,0,0,0,0,-1,1154,1541,0,0
-63,-517,0,0,0,0,0,0,0,0,0,-1,1161,1541,0,0
-56,-517,0,0,0,0,0,0,0,0,0,-1,1168,1541,0,0
-49,-517,0,0,0,0,0,0,0,0,0,-1,1175,1541,0,0
-42,-517,0,0,0,0,0,0,0,0,0,-1,1182,1541,0,0
-35,-517,0,0,0,0,0,0,0,0,0,-1,1189,1541,0,0
-28,-517,0,0,0,0,0,0,0,0,0,-1,1196,1541,0,0
-21,-517,0,0,0,0,0,0,0,0,0,-1,1203,1541,0,0
-14,-517,0,0,0,0,0,0,0,0,0,-1,1210,1541,0,0
-7,-517,0,0,0,0,0,0,0,0,0,-1,1217,1541,0,0
0,-517,0,0,0,0,0,0,0,0,0,-1,1224,1541,0,0
7,-517,0,0,0,0,0,0,0,0,0,-1,1231,1541,0,0
14,-517,0,0,0,0,0,0,0,0,0,-1,1238,1541,0,0
21,-517,0,0,0,0,0,0,0,0,0,-1,1245,1541,0,0
28,-517,0,0,0,0,0,0,0,0,0,-1,1252,1541,0,0
35,-517,0,0,0,0,0,0,0,0,0,-1,1259,1541,0,0
42,-517,0,0,0,0,0,0,0,0,0,-1,1266,1541,0,0
49,-517,0,0,0,0,0,0,0,0,0,-1,1273,1541,0,0
56,-517,0,0,0,0,0,0,0,0,0,-1,1280,1541,0,0
63,-517,0,0,0,0,0,0,0,0,0,-1,1287,1541,0,0
70,-517,0,0,0,0,0,0,0,0,0,-1,1294,1541,0,0
77,-517,0,0,0,0,0,0,0,0,0,-1,1301,1541,0,0
84,-517,0,0,0,0,0,0,0,0,0,-1,1308,1541,0,0
91,-517,0,0,0,0,0,0,0,0,0,-1,1315,1541,0,0
98,-517,0,0,0,0,0,0,0,0,0,-1,1322,1541,0,0
105,-517,0,0,0,0,0,0,0,0,0,-1,1329,1541,0,0
112,-517,0,0,0,0,0,0,0,0,0,-1,1336,1541,0,0
119,-517,0,0,0,0,0,0,0,0,0,-1,1343,1541,0,0
126,-517,0,0,0,0,0,0,0,0,0,-1,1350,1541,0,0
133,-517,0,0,0,0,0,0,0,0,0,-1,1357,1541,0,0
140,-517,0,0,0,0,0,0,0,0,0,-1,1364,1541,0,0
147,-517,0,0,0,0,0,0,0,0,0,-1,1371,1541,0,0
154,-517,0,0,0,0,0,0,0,0,0,-1,1378,1541,0,0
161,-517,0,0,0,0,0,0,0,0,0,-1,1385,1541,0,0
168,-517,0,0,0,0,0,0,0,0,0,-1,1392,1541,0,0
175,-517,0,0,0,0,0,0,0,0,0,-1,1399,1541,0,0
182,-517,0,0,0,0,0,0,0,0,0,-1,1406,1541,0,0
189,-517,0,0,0,0,0,0,0,0,0,-1,1413,1541,0,0
196,-517,0,0,0,0,0,0,0,0,0,-1,1420,1541,0,0
203,-517,0,0,0,0,0,0,0,0,0,-1,1427,1541,0,0
210,-517,0,0,0,0,0,0,0,0,0,-1,1434,1541,0,0
217,-517,0,0,0,0,0,0,0,0,0,-1,1441,1541,0,0
224,-517,0,0,0,0,0,0,0,0,0,-1,1448,1541,0,0
231,-517,0,0,0,0,0,0,0,0,0,-1,1455,1541,0,0
238,-517,0,0,0,0,0,0,0,0,0,-1,1462,1541,0,0
245,-517,0,0,0,0,0,0,0,0,0,-1,1469,1541,0,0
252,-517,0,0,0,0,0,0,0,0,0,-1,1476,1541,0,0
259,-517,0,0,0,0,0,0,0,0,0,-1,1483,1541,0,0
266,-517,0,0,0,0,0,0,0,0,0,-1,1490,1541,0,0
273,-517,0,0,0,0,0,0,0,0,0,-1,1497,1541,0,0
280,-517,0,0,0,0,0,0,0,0,0,-1,1504,1541,0,0
287,-517,0,0,0,0,0,0,0,0,0,-1,1511,1541,0,0
294,-517,0,0,0,0,0,0,0,0,0,-1,1518,1541,0,0
301,-517,0,0,0,0,0,0,0,0,0,-1,1525,1541,0,0
308,-517,0,0,0,0,0,0,0,0,0,-1,1532,1541,0,0
315,-517,0,0,0,0,0,0,0,0,0,-1,1539,1541,0,0
322,-517,0,0,0,0,0,0,0,0,0,-1,1546,1541,0,0
329,-517,0,0,0,0,0,0,0,0,0,-1,1553,1541,0,0
336,-517,0,0,0,0,0,0,0,0,0,-1,1560,1541,0,0
343,-517,0,0,0,0,0,0,0,0,0,-1,1567,1541,0,0
350,-517,0,0,0,0,0,0,0,0,0,-1,1574,1541,0,0
357,-517,0,0,0,0,0,0,0,0,0,-1,1581,1541,0,0
364,-517,0,0,0,0,0,0,0,0,0,-1,1588,1541,0,0
371,-517,0,0,0,0,0,0,0,0,0,-1,1595,1541,0,0
378,-517,0,0,0,0,0,0,0,0,0,-1,1602,1541,0,0
385,-517,0,0,0,0,0,0,0,0,0,-1,1609,1541,0,0
392,-517,0,0,0,0,0,0,0,0,0,-1,1616,1541,0,0
399,-517,0,0,0,0,0,0,0,0,0,-1,1623,1541,0,0
406,-517,13.1395,7.01978,0,0,0,0,0,0,0,-1,1630,1541,13.1396,-7.01981
413,-517,12.8859,6.31592,0,0,0,0,0,0,0,-1,1637,1541,12.8858,-6.31588
420,-517,12.4789,6.20337,0,0,0,0,0,0,0,-1,1644,1541,12.4789,-6.20333
427,-517,11.647,4.66516,0,0,0,0,0,0,0,-1,1651,1541,11.647,-4.66519
434,-517,12.3719,3.92773,0,0,0,0,0,0,0,-1,1658,1541,12.3719,-3.92776
441,-517,13.146,3.14124,0,0,0,0,0,0,0,-1,1665,1541,13.146,-3.14121
448,-517,13.8861,2.36682,0,0,0,0,0,0,0,-1,1672,1541,13.8861,-2.36684
455,-517,13.6012,4.06335,0,0,0,0,0,0,0,-1,1679,1541,13.6012,-4.06335
462,-517,14.8956,7.0752,0,0,0,0,0,0,0,-1,1686,1541,14.8956,-7.07525
469,-517,13.6292,6.87744,0,0,0,0,0,0,0,-1,1693,1541,13.6292,-6.87739
476,-517,17.1632,14.1487,0,0,0,0,0,0,0,-1,1700,1541,17.1632,-14.1487
483,-517,16.5157,15.0776,0,0,0,0,0,0,0,-1,1707,1541,16.5157,-15.0777
490,-517,15.5439,18.0258,0,0,0,0,0,0,0,-1,1714,1541,15.5439,-18.0258
497,-517,16.0292,18.7786,0,0,0,0,0,0,0,-1,1721,1541,16.0291,-18.7786
504,-517,16.766,21.6943,0,0,0,0,0,0,0,-1,1728,1541,16.766,-21.6943
511,-517,16.9674,21.8491,0,0,0,0,0,0,0,-1,1735,1541,16.9674,-21.8491
518,-517,16.7997,20.8616,0,0,0,0,0,0,0,-1,1742,1541,16.7997,-20.8615
525,-517,16.9888,20.4087,0.0033895,0.00431091,-0.00303906,0.00692399,0.000776416,-0.860623,0.00438019,0.0215662,1749,1541,16.9888,-20.4087
532,-517,17.1393,19.8917,0.00273372,0.00308637,-0.00222381,0.00514083,0.000679255,-0.82496,0.00322474,0.0116362,1756,1541,17.1393,-19.8917
539,-517,17.1429,19.4578,0.00229673,0.00207175,-0.00157795,0.00376619,0.000602285,-0.749814,0.00233606,0.0126968,1763,1541,17.1429,-19.4578
546,-517,17.1337,19.0565,0.00195348,0.00130184,-0.00104875,0.00272585,0.000529466,-0.634787,0.00166898,0.0137762,1770,1541,17.1336,-19.0566
553,-517,17.106,18.6304,0.00168961,0.000675387,-0.000659097,0.0020141,0.00035089,-0.457497,0.0012424,0.017448,1777,1541,17.1059,-18.6303
560,-517,17.0802,18.1937,0.00155056,0.000155201,-0.000399168,0.00165668,4.90822e-05,-0.25984,0.00108846,0.0163079,1784,1541,17.0802,-18.1937
567,-517,17.0923,17.7828,0.00179689,-0.000469136,-0.000418936,0.00187186,-0.000544108,-0.177082,0.00146339,0.0130961,1791,1541,17.0923,-17.7829
574,-517,17.0759,17.3146,0.00235828,-0.000572039,-0.000923434,0.00262501,-0.000838764,-0.281187,0.00208656,0.0141404,1798,1541,17.0759,-17.3146
581,-517,17.0494,16.8645,0.00313003,-0.00080308,-0.00151369,0.00364512,-0.00131817,-0.328,0.00296868,0.0153115,1805,1541,17.0494,-16.8644
588,-517,17.0442,16.4419,0.00428982,-0.000865843,-0.00249802,0.00530159,-0.00187762,-0.384838,0.00429919,0.0163277,1812,1541,17.0442,-16.4419
595,-517,17.2983,15.7926,0,0,0,0,0,0,0,-1,1819,1541,17.2984,-15.7926
602,-517,15.8027,13.5498,0,0,0,0,0,0,0,-1,1826,1541,15.8027,-13.5498
609,-517,12.6417,10.8751,0,0,0,0,0,0,0,-1,1833,1541,12.6417,-10.8751
616,-517,14.205,10.3193,0,0,0,0,0,0,0,-1,1840,1541,14.205,-10.3194
623,-517,12.578,10.0779,0,0,0,0,0,0,0,-1,1847,1541,12.578,-10.0779
630,-517,11.7035,7.47815,0,0,0,0,0,0,0,-1,1854,1541,11.7035,-7.47812
637,-517,11.5172,5.79822,0,0,0,0,0,0,0,-1,1861,1541,11.5173,-5.79825
644,-517,11.4232,3.30579,0,0,0,0,0,0,0,-1,1868,1541,11.4232,-3.30574
651,-517,0,0,0,0,0,0,0,0,0,-1,1875,1541,0,0
658,-517,0,0,0,0,0,0,0,0,0,-1,1882,1541,0,0
665,-517,0,0,0,0,0,0,0,0,0,-1,1889,1541,0,0
672,-517,0,0,0,0,0,0,0,0,0,-1,1896,1541,0,0
679,-517,0,0,0,0,0,0,0,0,0,-1,1903,1541,0,0
686,-517,0,0,0,0,0,0,0,0,0,-1,1910,1541,0,0
693,-517,0,0,0,0,0,0,0,0,0,-1,1917,1541,0,0
700,-517,0,0,0,0,0,0,0,0,0,-1,1924,1541,0,0
707,-517,0,0,0,0,0,0,0,0,0,-1,1931,1541,0,0
714,-517,0,0,0,0,0,0,0,0,0,-1,1938,1541,0,0
721,-517,0,0,0,0,0,0,0,0,0,-1,1945,1541,0,0
728,-517,0,0,0,0,0,0,0,0,0,-1,1952,1541,0,0
735,-517,0,0,0,0,0,0,0,0,0,-1,1959,1541,0,0
742,-517,0,0,0,0,0,0,0,0,0,-1,1966,1541,0,0
749,-517,0,0,0,0,0,0,0,0,0,-1,1973,1541,0,0
756,-517,0,0,0,0,0,0,0,0,0,-1,1980,1541,0,0
763,-517,0,0,0,0,0,0,0,0,0,-1,1987,1541,0,0
770,-517,0,0,0,0,0,0,0,0,0,-1,1994,1541,0,0
777,-517,0,0,0,0,0,0,0,0,0,-1,2001,1541,0,0
784,-517,0,0,0,0,0,0,0,0,0,-1,2008,1541,0,0
791,-517,0,0,0,0,0,0,0,0,0,-1,2015,1541,0,0
798,-517,0,0,0,0,0,0,0,0,0,-1,2022,1541,0,0
805,-517,0,0,0,0,0,0,0,0,0,-1,2029,1541,0,0
812,-517,0,0,0,0,0,0,0,0,0,-1,2036,1541,0,0
-700,-524,0,0,0,0,0,0,0,0,0,-1,524,1548,0,0
-693,-524,0,0,0,0,0,0,0,0,0,-1,531,1548,0,0
-686,-524,0,0,0,0,0,0,0,0,0,-1,538,1548,0,0
-679,-524,0,0,0,0,0,0,0,0,0,-1,545,1548,0,0
-672,-524,0,0,0,0,0,0,0,0,0,-1,552,1548,0,0
-665,-524,0,0,0,0,0,0,0,0,0,-1,559,1548,0,0
-658,-524,0,0,0,0,0,0,0,0,0,-1,566,1548,0,0
-651,-524,0,0,0,0,0,0,0,0,0,-1,573,1548,0,0
-644,-524,0,0,0,0,0,0,0,0,0,-1,580,1548,0,0
-637,-524,0,0,0,0,0,0,0,0,0,-1,587,1548,0,0
-630,-524,0,0,0,0,0,0,0,0,0,-1,594,1548,0,0
-623,-524,0,0,0,0,0,0,0,0,0,-1,601,1548,0,0
-616,-524,0,0,0,0,0,0,0,0,0,-1,608,1548,0,0
-609,-524,0,0,0,0,0,0,0,0,0,-1,615,1548,0,0
-602,-524,0,0,0,0,0,0,0,0,0,-1,622,1548,0,0
-595,-524,0,0,0,0,0,0,0,0,0,-1,629,1548,0,0
-588,-524,0,0,0,0,0,0,0,0,0,-1,636,1548,0,0
-581,-524,0,0,0,0,0,0,0,0,0,-1,643,1548,0,0
-574,-524,0,0,0,0,0,0,0,0,0,-1,650,1548,0,0
-567,-524,0,0,0,0,0,0,0,0,0,-1,657,1548,0,0
-560,-524,0,0,0,0,0,0,0,0,0,-1,664,1548,0,0
-553,-524,0,0,0,0,0,0,0,0,0,-1,671,1548,0,0
-546,-524,0,0,0,0,0,0,0,0,0,-1,678,1548,0,0
-539,-524,0,0,0,0,0,0,0,0,0,-1,685,1548,0,0
-532,-524,0,0,0,0,0,0,0,0,0,-1,692,1548,0,0
-525,-524,-0.215515,3.97131,0,0,0,0,0,0,0,-1,699,1548,-0.215501,-3.97136
-518,-524,-0.806274,4.35632,0,0,0,0,0,0,0,-1,706,1548,-0.806259,-4.35633
-511,-524,-1.08301,4.29004,0,0,0,0,0,0,0,-1,713,1548,-1.08301,-4.29006
-504,-524,-1.28821,3.98145,0,0,0,0,0,0,0,-1,720,1548,-1.28822,-3.98151
-497,-524,-0.328491,8.63416,0,0,0,0,0,0,0,-1,727,1548,-0.328487,-8.63411
-490,-524,-2.95306,15.1987,0,0,0,0,0,0,0,-1,734,1548,-2.95305,-15.1987
-483,-524,-2.4574,13.3871,0,0,0,0,0,0,0,-1,741,1548,-2.45738,-13.3871
-476,-524,-2.47321,13.8064,0.0181983,0.00186811,-0.0150345,0.0271418,-0.00707544,-0.536637,0.020857,0.0477335,748,1548,-2.47321,-13.8064
-469,-524,-2.30139,14.2106,0.0122198,0.00385186,-0.00926035,0.0181975,-0.00212585,-0.573217,0.0128988,0.0403165,755,1548,-2.30137,-14.2106
-462,-524,-2.28241,14.6532,0.00826754,0.00477945,-0.00524352,0.0120494,0.000997543,-0.624848,0.00772196,0.0317631,762,1548,-2.28239,-14.6533
-455,-524,-2.38806,15.0273,0.00554293,0.00496071,-0.00254724,0.00781564,0.002688,-0.728502,0.00458505,0.0226876,769,1548,-2.38807,-15.0274
-448,-524,-2.35779,15.4901,0.00370428,0.00451993,-0.000881683,0.00508354,0.00314067,-1.00202,0.00296202,0.0127425,776,1548,-2.35776,-15.4902
-441,-524,-2.37079,15.9563,0.00265531,0.00398131,0.000273236,0.0040354,0.00260122,1.37534,0.00236209,0.0110051,783,1548,-2.3708,-15.9563
-434,-524,-2.36981,16.3921,0.00157991,0.00434848,0.0016129,0.00508968,0.000838709,1.14003,0.00315098,0.0129114,790,1548,-2.3698,-16.3921
-427,-524,-2.38458,16.8635,0.00153616,0.00358665,0.00246159,0.00522796,-0.000105155,0.982721,0.00352088,0.0133188,797,1548,-2.3846,-16.8635
-420,-524,-2.43286,17.363,0.00204072,0.0035865,0.00275373,0.00567375,-4.65258e-05,0.922213,0.0037981,0.0107502,804,1548,-2.43289,-17.363
-413,-524,-2.44366,17.8347,0.00270566,0.00375135,0.00321067,0.00648146,-2.44542e-05,0.866113,0.00432915,0.0100493,811,1548,-2.44365,-17.8348
-406,-524,-2.45813,18.2949,0.00347181,0.00453698,0.00393073,0.00797104,3.77451e-05,0.852734,0.00530149,0.0106427,818,1548,-2.45814,-18.2949
-399,-524,-2.46906,18.7548,0.00430313,0.00596536,0.00477137,0.00997746,0.000291029,0.871627,0.00655678,0.0093943,825,1548,-2.46903,-18.7548
-392,-524,-2.47772,19.2041,0.00530644,0.00827044,0.00562541,0.0126058,0.000971086,0.914195,0.00809959,0.0106761,832,1548,-2.47772,-19.2041
-385,-524,-2.49237,19.6859,0.00633505,0.0105659,0.00662116,0.0154014,0.00149959,0.940021,0.00980601,0.0148072,839,1548,-2.4924,-19.6859
-378,-524,-2.40076,20.4321,0.00740917,0.0131944,0.00753565,0.0183735,0.00223003,0.968654,0.0115775,0.0452645,846,1548,-2.40076,-20.4321
-371,-524,-2.29486,21.1342,0,0,0,0,0,0,0,-1,853,1548,-2.29489,-21.1341
-364,-524,-0.712097,14.9871,0,0,0,0,0,0,0,-1,860,1548,-0.712116,-14.9871
-357,-524,-1.34052,14.7448,0,0,0,0,0,0,0,-1,867,1548,-1.34054,-14.7447
-350,-524,-2.63245,12.7522,0,0,0,0,0,0,0,-1,874,1548,-2.63245,-12.7522
-343,-524,-0.587036,21.0325,0,0,0,0,0,0,0,-1,881,1548,-0.587023,-21.0324
-336,-524,-0.377808,21.7975,0,0,0,0,0,0,0,-1,888,1548,-0.377819,-21.7975
-329,-524,-0.16864,22.5625,0,0,0,0,0,0,0,-1,895,1548,-0.168615,-22.5625
-322,-524,-3.79669,23.8302,0,0,0,0,0,0,0,-1,902,1548,-3.7967,-23.8303
-315,-524,-1.90839,19.4824,0,0,0,0,0,0,0,-1,909,1548,-1.90838,-19.4824
-308,-524,-2.36938,19.3059,0,0,0,0,0,0,0,-1,916,1548,-2.3694,-19.3058
-301,-524,2.72394,17.7618,0,0,0,0,0,0,0,-1,923,1548,2.72396,-17.7619
-294,-524,-1.52515,9.05408,0,0,0,0,0,0,0,-1,930,1548,-1.52512,-9.05411
-287,-524,-0.962219,10.3199,0,0,0,0,0,0,0,-1,937,1548,-0.962241,-10.32
-280,-524,-1.36255,10.3859,0,0,0,0,0,0,0,-1,944,1548,-1.36253,-10.3859
-273,-524,0,0,0,0,0,0,0,0,0,-1,951,1548,0,0
-266,-524,0,0,0,0,0,0,0,0,0,-1,958,1548,0,0
-259,-524,0,0,0,0,0,0,0,0,0,-1,965,1548,0,0
-252,-524,0,0,0,0,0,0,0,0,0,-1,972,1548,0,0
-245,-524,0,0,0,0,0,0,0,0,0,-1,979,1548,0,0
-238,-524,0,0,0,0,0,0,0,0,0,-1,986,1548,0,0
-231,-524,0,0,0,0,0,0,0,0,0,-1,993,1548,0,0
-224,-524,0,0,0,0,0,0,0,0,0,-1,1000,1548,0,0
-217,-524,0,0,0,0,0,0,0,0,0,-1,1007,1548,0,0
-210,-524,0,0,0,0,0,0,0,0,0,-1,1014,1548,0,0
-203,-524,0,0,0,0,0,0,0,0,0,-1,1021,1548,0,0
-196,-524,0,0,0,0,0,0,0,0,0,-1,1028,1548,0,0
-189,-524,0,0,0,0,0,0,0,0,0,-1,1035,1548,0,0
-182,-524,0,0,0,0,0,0,0,0,0,-1,1042,1548,0,0
-175,-524,0,0,0,0,0,0,0,0,0,-1,1049,1548,0,0
-168,-524,0,0,0,0,0,0,0,0,0,-1,1056,1548,0,0
-161,-524,0,0,0,0,0,0,0,0,0,-1,1063,1548,0,0
-154,-524,0,0,0,0,0,0,0,0,0,-1,1070,1548,0,0
-147,-524,0,0,0,0,0,0,0,0,0,-1,1077,1548,0,0
-140,-524,0,0,0,0,0,0,0,0,0,-1,1084,1548,0,0
-133,-524,0,0,0,0,0,0,0,0,0,-1,1091,1548,0,0
-126,-524,0,0,0,0,0,0,0,0,0,-1,1098,1548,0,0
-119,-524,0,0,0,0,0,0,0,0,0,-1,1105,1548,0,0
-112,-524,0,0,0,0,0,0,0,0,0,-1,1112,1548,0,0
-105,-524,0,0,0,0,0,0,0,0,0,-1,1119,1548,0,0
-98,-524,0,0,0,0,0,0,0,0,0,-1,1126,1548,0,0
-91,-524,0,0,0,0,0,0,0,0,0,-1,1133,1548,0,0
-84,-524,0,0,0,0,0,0,0,0,0,-1,1140,1548,0,0
-77,-524,0,0,0,0,0,0,0,0,0,-1,1147,1548,0,0
-70,-524,0,0,0,0,0,0,0,0,0,-1,1154,1548,0,0
-63,-524,0,0,0,0,0,0,0,0,0,-1,1161,1548,0,0
-56,-524,0,0,0,0,0,0,0,0,0,-1,1168,1548,0,0
-49,-524,0,0,0,0,0,0,0,0,0,-1,1175,1548,0,0
-42,-524,0,0,0,0,0,0,0,0,0,-1,1182,1548,0,0
-35,-524,0,0,0,0,0,0,0,0,0,-1,1189,1548,0,0
-28,-524,0,0,0,0,0,0,0,0,0,-1,1196,1548,0,0
-21,-524,0,0,0,0,0,0,0,0,0,-1,1203,1548,0,0
-14,-524,0,0,0,0,0,0,0,0,0,-1,1210,1548,0,0
-7,-524,0,0,0,0,0,0,0,0,0,-1,1217,1548,0,0
0,-524,0,0,0,0,0,0,0,0,0,-1,1224,1548,0,0
7,-524,0,0,0,0,0,0,0,0,0,-1,1231,1548,0,0
14,-524,0,0,0,0,0,0,0,0,0,-1,1238,1548,0,0
21,-524,0,0,0,0,0,0,0,0,0,-1,1245,1548,0,0
28,-524,0,0,0,0,0,0,0,0,0,-1,1252,1548,0,0
35,-524,0,0,0,0,0,0,0,0,0,-1,1259,1548,0,0
42,-524,0,0,0,0,0,0,0,0,0,-1,1266,1548,0,0
49,-524,0,0,0,0,0,0,0,0,0,-1,1273,1548,0,0
56,-524,0,0,0,0,0,0,0,0,0,-1,1280,1548,0,0
63,-524,0,0,0,0,0,0,0,0,0,-1,1287,1548,0,0
70,-524,0,0,0,0,0,0,0,0,0,-1,1294,1548,0,0
77,-524,0,0,0,0,0,0,0,0,0,-1,1301,1548,0,0
84,-524,0,0,0,0,0,0,0,0,0,-1,1308,1548,0,0
91,-524,0,0,0,0,0,0,0,0,0,-1,1315,1548,0,0
98,-524,0,0,0,0,0,0,0,0,0,-1,1322,1548,0,0
105,-524,0,0,0,0,0,0,0,0,0,-1,1329,1548,0,0
112,-524,0,0,0,0,0,0,0,0,0,-1,1336,1548,0,0
119,-524,0,0,0,0,0,0,0,0,0,-1,1343,1548,0,0
126,-524,0,0,0,0,0,0,0,0,0,-1,1350,1548,0,0
133,-524,0,0,0,0,0,0,0,0,0,-1,1357,1548,0,0
140,-524,0,0,0,0,0,0,0,0,0,-1,1364,1548,0,0
147,-524,0,0,0,0,0,0,0,0,0,-1,1371,1548,0,0
154,-524,0,0,0,0,0,0,0,0,0,-1,1378,1548,0,0
161,-524,0,0,0,0,0,0,0,0,0,-1,1385,1548,0,0
168,-524,0,0,0,0,0,0,0,0,0,-1,1392,1548,0,0
175,-524,0,0,0,0,0,0,0,0,0,-1,1399,1548,0,0
182,-524,0,0,0,0,0,0,0,0,0,-1,1406,1548,0,0
189,-524,0,0,0,0,0,0,0,0,0,-1,1413,1548,0,0
196,-524,0,0,0,0,0,0,0,0,0,-1,1420,1548,0,0
203,-524,0,0,0,0,0,0,0,0,0,-1,1427,1548,0,0
210,-524,0,0,0,0,0,0,0,0,0,-1,1434,1548,0,0
217,-524,0,0,0,0,0,0,0,0,0,-1,1441,1548,0,0
224,-524,0,0,0,0,0,0,0,0,0,-1,1448,1548,0,0
231,-524,0,0,0,0,0,0,0,0,0,-1,1455,1548,0,0
238,-524,0,0,0,0,0,0,0,0,0,-1,1462,1548,0,0
245,-524,0,0,0,0,0,0,0,0,0,-1,1469,1548,0,0
252,-524,0,0,0,0,0,0,0,0,0,-1,1476,1548,0,0
259,-524,0,0,0,0,0,0,0,0,0,-1,1483,1548,0,0
266,-524,0,0,0,0,0,0,0,0,0,-1,1490,1548,0,0
273,-524,0,0,0,0,0,0,0,0,0,-1,1497,1548,0,0
280,-524,0,0,0,0,0,0,0,0,0,-1,1504,1548,0,0
287,-524,0,0,0,0,0,0,0,0,0,-1,1511,1548,0,0
294,-524,0,0,0,0,0,0,0,0,0,-1,1518,1548,0,0
301,-524,0,0,0,0,0,0,0,0,0,-1,1525,1548,0,0
308,-524,0,0,0,0,0,0,0,0,0,-1,1532,1548,0,0
315,-524,0,0,0,0,0,0,0,0,0,-1,1539,1548,0,0
322,-524,0,0,0,0,0,0,0,0,0,-1,1546,1548,0,0
329,-524,0,0,0,0,0,0,0,0,0,-1,1553,1548,0,0
336,-524,0,0,0,0,0,0,0,0,0,-1,1560,1548,0,0
343,-524,0,0,0,0,0,0,0,0,0,-1,1567,1548,0,0
350,-524,0,0,0,0,0,0,0,0,0,-1,1574,1548,0,0
357,-524,0,0,0,0,0,0,0,0,0,-1,1581,1548,0,0
364,-524,0,0,0,0,0,0,0,0,0,-1,1588,1548,0,0
371,-524,0,0,0,0,0,0,0,0,0,-1,1595,1548,0,0
378,-524,0,0,0,0,0,0,0,0,0,-1,1602,1548,0,0
385,-524,0,0,0,0,0,0,0,0,0,-1,1609,1548,0,0
392,-524,0,0,0,0,0,0,0,0,0,-1,1616,1548,0,0
399,-524,8.81848,5.05774,0,0,0,0,0,0,0,-1,1623,1548,8.81843,-5.05769
406,-524,8.64294,6.06799,0,0,0,0,0,0,0,-1,1630,1548,8.6429,-6.06805
413,-524,11.677,6.41858,0,0,0,0,0,0,0,-1,1637,1548,11.677,-6.41864
420,-524,11.4913,6.36401,0,0,0,0,0,0,0,-1,1644,1548,11.4913,-6.36402
427,-524,7.68335,6.17249,0,0,0,0,0,0,0,-1,1651,1548,7.68341,-6.17245
434,-524,10.432,11.6801,0,0,0,0,0,0,0,-1,1658,1548,10.432,-11.68
441,-524,8.78552,4.12305,0,0,0,0,0,0,0,-1,1665,1548,8.78553,-4.12301
448,-524,14.1854,4.78674,0,0,0,0,0,0,0,-1,1672,1548,14.1854,-4.78674
455,-524,12.4784,3.65576,0,0,0,0,0,0,0,-1,1679,1548,12.4784,-3.65572
462,-524,14.7551,9.29395,0,0,0,0,0,0,0,-1,1686,1548,14.7552,-9.29397
469,-524,16.3314,14.3779,0,0,0,0,0,0,0,-1,1693,1548,16.3314,-14.3779
476,-524,15.9106,15.1875,0,0,0,0,0,0,0,-1,1700,1548,15.9107,-15.1876
483,-524,15.2776,16.2268,0,0,0,0,0,0,0,-1,1707,1548,15.2776,-16.2269
490,-524,15.2563,18.5848,0,0,0,0,0,0,0,-1,1714,1548,15.2564,-18.5848
497,-524,16.8641,21.897,0,0,0,0,0,0,0,-1,1721,1548,16.8641,-21.897
504,-524,16.5636,21.5647,0,0,0,0,0,0,0,-1,1728,1548,16.5636,-21.5647
511,-524,16.2631,21.2325,0,0,0,0,0,0,0,-1,1735,1548,16.2631,-21.2325
518,-524,16.7346,20.7885,0.00385298,0.00588309,-0.0039177,0.0089151,0.000820971,-0.912158,0.00568952,0.0242745,1742,1548,16.7346,-20.7884
525,-524,16.7235,20.3646,0.00307542,0.00419455,-0.00290625,0.00659461,0.000675361,-0.880504,0.00418947,0.015097,1749,1548,16.7235,-20.3646
532,-524,16.7,19.9094,0.00236925,0.00284253,-0.00201804,0.00463776,0.000574023,-0.843762,0.00291937,0.0104064,1756,1548,16.7,-19.9095
539,-524,16.6982,19.4709,0.00189506,0.00165581,-0.00127469,0.00305572,0.000495146,-0.738613,0.0018938,0.0109592,1763,1548,16.6983,-19.471
546,-524,16.7014,19.0614,0.00148991,0.00069781,-0.000625532,0.00183423,0.000353492,-0.503181,0.00112368,0.0146153,1770,1548,16.7014,-19.0614
553,-524,16.6895,18.66,0.0011581,-0.000133235,-9.74358e-05,0.00116541,-0.000140546,-0.0748884,0.000827776,0.0236422,1777,1548,16.6895,-18.6601
560,-524,16.694,18.1793,0.000985549,-0.000831328,0.000282871,0.00102857,-0.00087435,0.150933,0.00109985,0.0319674,1784,1548,16.6939,-18.1793
567,-524,16.6387,17.7632,0.00125375,-0.00163509,0.000358712,0.00129762,-0.00167897,0.121709,0.00172323,0.0181267,1791,1548,16.6387,-17.7631
574,-524,16.6227,17.3185,0.00188838,-0.00185293,-0.000113432,0.00189182,-0.00185637,-0.0302817,0.00216405,0.0131021,1798,1548,16.6226,-17.3184
581,-524,16.6337,16.8718,0.00282578,-0.00216585,-0.00074234,0.00293384,-0.00227391,-0.144551,0.00301473,0.014332,1805,1548,16.6337,-16.8718
588,-524,16.6918,16.4431,0.00423167,-0.0022761,-0.00183694,0.00471437,-0.00275881,-0.256968,0.00436361,0.027088,1812,1548,16.6918,-16.4431
595,-524,16.7697,15.811,0,0,0,0,0,0,0,-1,1819,1548,16.7696,-15.811
602,-524,13.837,12.0682,0,0,0,0,0,0,0,-1,1826,1548,13.837,-12.0683
609,-524,13.0056,10.5138,0,0,0,0,0,0,0,-1,1833,1548,13.0056,-10.5138
616,-524,11.6941,8.65515,0,0,0,0,0,0,0,-1,1840,1548,11.6941,-8.65514
623,-524,9.38452,5.15356,0,0,0,0,0,0,0,-1,1847,1548,9.38456,-5.15359
630,-524,11.0541,3.57434,0,0,0,0,0,0,0,-1,1854,1548,11.0541,-3.57438
637,-524,11.6067,3.20728,0,0,0,0,0,0,0,-1,1861,1548,11.6067,-3.20724
644,-524,12.2134,0.727173,0,0,0,0,0,0,0,-1,1868,1548,12.2134,-0.727222
651,-524,0,0,0,0,0,0,0,0,0,-1,1875,1548,0,0
658,-524,0,0,0,0,0,0,0,0,0,-1,1882,1548,0,0
665,-524,0,0,0,0,0,0,0,0,0,-1,1889,1548,0,0
672,-524,0,0,0,0,0,0,0,0,0,-1,1896,1548,0,0
679,-524,0,0,0,0,0,0,0,0,0,-1,1903,1548,0,0
686,-524,0,0,0,0,0,0,0,0,0,-1,1910,1548,0,0
693,-524,0,0,0,0,0,0,0,0,0,-1,1917,1548,0,0
700,-524,0,0,0,0,0,0,0,0,0,-1,1924,1548,0,0
707,-524,0,0,0,0,0,0,0,0,0,-1,1931,1548,0,0
714,-524,0,0,0,0,0,0,0,0,0,-1,1938,1548,0,0
721,-524,0,0,0,0,0,0,0,0,0,-1,1945,1548,0,0
728,-524,0,0,0,0,0,0,0,0,0,-1,1952,1548,0,0
735,-524,0,0,0,0,0,0,0,0,0,-1,1959,1548,0,0
742,-524,0,0,0,0,0,0,0,0,0,-1,1966,1548,0,0
749,-524,0,0,0,0,0,0,0,0,0,-1,1973,1548,0,0
756,-524,0,0,0,0,0,0,0,0,0,-1,1980,1548,0,0
763,-524,0,0,0,0,0,0,0,0,0,-1,1987,1548,0,0
770,-524,0,0,0,0,0,0,0,0,0,-1,1994,1548,0,0
777,-524,0,0,0,0,0,0,0,0,0,-1,2001,1548,0,0
784,-524,0,0,0,0,0,0,0,0,0,-1,2008,1548,0,0
791,-524,0,0,0,0,0,0,0,0,0,-1,2015,1548,0,0
798,-524,0,0,0,0,0,0,0,0,0,-1,2022,1548,0,0
805,-524,0,0,0,0,0,0,0,0,0,-1,2029,1548,0,0
812,-524,0,0,0,0,0,0,0,0,0,-1,2036,1548,0,0
-700,-531,0,0,0,0,0,0,0,0,0,-1,524,1555,0,0
-693,-531,0,0,0,0,0,0,0,0,0,-1,531,1555,0,0
-686,-531,0,0,0,0,0,0,0,0,0,-1,538,1555,0,0
-679,-531,0,0,0,0,0,0,0,0,0,-1,545,1555,0,0
-672,-531,0,0,0,0,0,0,0,0,0,-1,552,1555,0,0
-665,-531,0,0,0,0,0,0,0,0,0,-1,559,1555,0,0
-658,-531,0,0,0,0,0,0,0,0,0,-1,566,1555,0,0
-651,-531,0,0,0,0,0,0,0,0,0,-1,573,1555,0,0
-644,-531,0,0,0,0,0,0,0,0,0,-1,580,1555,0,0
-637,-531,0,0,0,0,0,0,0,0,0,-1,587,1555,0,0
-630,-531,0,0,0,0,0,0,0,0,0,-1,594,1555,0,0
-623,-531,0,0,0,0,0,0,0,0,0,-1,601,1555,0,0
-616,-531,0,0,0,0,0,0,0,0,0,-1,608,1555,0,0
-609,-531,0,0,0,0,0,0,0,0,0,-1,615,1555,0,0
-602,-531,0,0,0,0,0,0,0,0,0,-1,622,1555,0,0
-595,-531,0,0,0,0,0,0,0,0,0,-1,629,1555,0,0
-588,-531,0,0,0,0,0,0,0,0,0,-1,636,1555,0,0
-581,-531,0,0,0,0,0,0,0,0,0,-1,643,1555,0,0
-574,-531,0,0,0,0,0,0,0,0,0,-1,650,1555,0,0
-567,-531,0,0,0,0,0,0,0,0,0,-1,657,1555,0,0
-560,-531,0,0,0,0,0,0,0,0,0,-1,664,1555,0,0
-553,-531,0,0,0,0,0,0,0,0,0,-1,671,1555,0,0
-546,-531,0,0,0,0,0,0,0,0,0,-1,678,1555,0,0
-539,-531,0,0,0,0,0,0,0,0,0,-1,685,1555,0,0
-532,-531,0,0,0,0,0,0,0,0,0,-1,692,1555,0,0
-525,-531,0,0,0,0,0,0,0,0,0,-1,699,1555,0,0
-518,-531,-1.63983,4.03821,0,0,0,0,0,0,0,-1,706,1555,-1.63982,-4.03821
-511,-531,-2.9682,8.07483,0,0,0,0,0,0,0,-1,713,1555,-2.9682,-8.07479
-504,-531,-2.95978,0.557861,0,0,0,0,0,0,0,-1,720,1555,-2.95978,-0.557917
-497,-531,-2.46039,8.07422,0,0,0,0,0,0,0,-1,727,1555,-2.46039,-8.07423
-490,-531,-0.423462,7.92065,0,0,0,0,0,0,0,-1,734,1555,-0.42344,-7.92066
-483,-531,-1.30933,11.4504,0,0,0,0,0,0,0,-1,741,1555,-1.30932,-11.4504
-476,-531,-2.39917,14.2305,0,0,0,0,0,0,0,-1,748,1555,-2.39919,-14.2305
-469,-531,-1.71423,13.8612,0.0150114,0.00920684,-0.00817091,0.0207802,0.00343809,-0.614748,0.0128615,0.0423491,755,1555,-1.71424,-13.8612
-462,-531,-1.70239,14.7258,0.0101273,0.00947636,-0.00386603,0.0136815,0.00592211,-0.743404,0.00792274,0.0400848,762,1555,-1.70238,-14.7258
-455,-531,-1.92047,15.2126,0.00678918,0.00890325,-0.00121297,0.00945514,0.00623729,-1.1438,0.00555094,0.0355299,769,1555,-1.92046,-15.2127
-448,-531,-1.84076,15.4902,0.00445932,0.00764061,0.000197958,0.00765288,0.00444705,1.50889,0.00443772,0.0167024,776,1555,-1.84074,-15.4902
-441,-531,-1.91217,15.9528,0.00303587,0.00631852,0.000998017,0.00659813,0.00275626,1.29764,0.00382658,0.0117567,783,1555,-1.91216,-15.9528
-434,-531,-1.92236,16.4463,0.00160036,0.00600929,0.00205757,0.00682033,0.00078932,1.19532,0.00430795,0.0112984,790,1555,-1.92239,-16.4463
-427,-531,-1.92841,16.9164,0.00128397,0.00455712,0.00260604,0.00599786,-0.000156764,1.06577,0.00405184,0.0138665,797,1555,-1.92838,-16.9164
-420,-531,-1.96558,17.3949,0.00155122,0.00409787,0.00256712,0.00569011,-4.10217e-05,1.01562,0.00380716,0.0130528,804,1555,-1.96556,-17.3949
-413,-531,-1.98053,17.8595,0.00198605,0.00376187,0.00271282,0.00572839,1.95259e-05,0.943554,0.00381244,0.0105254,811,1555,-1.98051,-17.8595
-406,-531,-1.9881,18.3068,0.002561,0.00407276,0.0030795,0.0064878,0.000145968,0.905747,0.00427737,0.0106858,818,1555,-1.98812,-18.3067
-399,-531,-1.98193,18.774,0.00314072,0.00498822,0.00362478,0.00780511,0.000323833,0.910164,0.00509889,0.0118459,825,1555,-1.98193,-18.7741
-392,-531,-1.99554,19.2327,0.00386368,0.00666167,0.00420378,0.00969313,0.000832222,0.946031,0.00620331,0.0163959,832,1555,-1.99557,-19.2327
-385,-531,-2.03748,19.6812,0.00469146,0.00842728,0.00489379,0.0117975,0.00132122,0.967709,0.00746369,0.0150623,839,1555,-2.03747,-19.6811
-378,-531,-2.0506,20.0812,0.00558335,0.0105484,0.00554867,0.0141446,0.00198716,0.995746,0.00884208,0.0164634,846,1555,-2.05061,-20.0812
-371,-531,-1.96228,20.6649,0.00649564,0.0128176,0.00608477,0.0165135,0.00279979,1.02496,0.0102046,0.0324404,853,1555,-1.96228,-20.6649
-364,-531,-1.73029,21.549,0,0,0,0,0,0,0,-1,860,1555,-1.7303,-21.549
-357,-531,-1.92706,21.7196,0,0,0,0,0,0,0,-1,867,1555,-1.92707,-21.7196
-350,-531,-2.42444,22.6058,0,0,0,0,0,0,0,-1,874,1555,-2.42443,-22.6058
-343,-531,-2.30487,23.1394,0,0,0,0,0,0,0,-1,881,1555,-2.30485,-23.1394
-336,-531,-2.1424,23.7484,0,0,0,0,0,0,0,-1,888,1555,-2.14242,-23.7484
-329,-531,-0.350342,22.8196,0,0,0,0,0,0,0,-1,895,1555,-0.350339,-22.8196
-322,-531,-0.392944,23.2938,0,0,0,0,0,0,0,-1,902,1555,-0.392955,-23.2939
-315,-531,-3.1756,23.0961,0,0,0,0,0,0,0,-1,909,1555,-3.17559,-23.096
-308,-531,-1.66455,19.0624,0,0,0,0,0,0,0,-1,916,1555,-1.66455,-19.0623
-301,-531,-2.02405,18.8912,0,0,0,0,0,0,0,-1,923,1555,-2.02407,-18.8913
-294,-531,-1.3244,8.1825,0,0,0,0,0,0,0,-1,930,1555,-1.3244,-8.18251
-287,-531,-1.78192,10.1661,0,0,0,0,0,0,0,-1,937,1555,-1.78192,-10.1661
-280,-531,-2.14508,10.3945,0,0,0,0,0,0,0,-1,944,1555,-2.14506,-10.3945
-273,-531,-2.50818,10.6229,0,0,0,0,0,0,0,-1,951,1555,-2.5082,-10.6229
-266,-531,-4.97742,17.9215,0,0,0,0,0,0,0,-1,958,1555,-4.97744,-17.9215
-259,-531,0,0,0,0,0,0,0,0,0,-1,965,1555,0,0
-252,-531,0,0,0,0,0,0,0,0,0,-1,972,1555,0,0
-245,-531,0,0,0,0,0,0,0,0,0,-1,979,1555,0,0
-238,-531,0,0,0,0,0,0,0,0,0,-1,986,1555,0,0
-231,-531,0,0,0,0,0,0,0,0,0,-1,993,1555,0,0
-224,-531,0,0,0,0,0,0,0,0,0,-1,1000,1555,0,0
-217,-531,0,0,0,0,0,0,0,0,0,-1,1007,1555,0,0
-210,-531,0,0,0,0,0,0,0,0,0,-1,1014,1555,0,0
-203,-531,0,0,0,0,0,0,0,0,0,-1,1021,1555,0,0
-196,-531,0,0,0,0,0,0,0,0,0,-1,1028,1555,0,0
-189,-531,0,0,0,0,0,0,0,0,0,-1,1035,1555,0,0
-182,-531,0,0,0,0,0,0,0,0,0,-1,1042,1555,0,0
-175,-531,0,0,0,0,0,0,0,0,0,-1,1049,1555,0,0
-168,-531,0,0,0,0,0,0,0,0,0,-1,1056,1555,0,0
-161,-531,0,0,0,0,0,0,0,0,0,-1,1063,1555,0,0
-154,-531,0,0,0,0,0,0,0,0,0,-1,1070,1555,0,0
-147,-531,0,0,0,0,0,0,0,0,0,-1,1077,1555,0,0
-140,-531,0,0,0,0,0,0,0,0,0,-1,1084,1555,0,0
-133,-531,0,0,0,0,0,0,0,0,0,-1,1091,1555,0,0
-126,-531,0,0,0,0,0,0,0,0,0,-1,1098,1555,0,0
-119,-531,0,0,0,0,0,0,0,0,0,-1,1105,1555,0,0
-112,-531,0,0,0,0,0,0,0,0,0,-1,1112,1555,0,0
-105,-531,0,0,0,0,0,0,0,0,0,-1,1119,1555,0,0
-98,-531,0,0,0,0,0,0,0,0,0,-1,1126,1555,0,0
-91,-531,0,0,0,0,0,0,0,0,0,-1,1133,1555,0,0
-84,-531,0,0,0,0,0,0,0,0,0,-1,1140,1555,0,0
-77,-531,0,0,0,0,0,0,0,0,0,-1,1147,1555,0,0
-70,-531,0,0,0,0,0,0,0,0,0,-1,1154,1555,0,0
-63,-531,0,0,0,0,0,0,0,0,0,-1,1161,1555,0,0
-56,-531,0,0,0,0,0,0,0,0,0,-1,1168,1555,0,0
-49,-531,0,0,0,0,0,0,0,0,0,-1,1175,1555,0,0
-42,-531,0,0,0,0,0,0,0,0,0,-1,1182,1555,0,0
-35,-531,0,0,0,0,0,0,0,0,0,-1,1189,1555,0,0
-28,-531,0,0,0,0,0,0,0,0,0,-1,1196,1555,0,0
-21,-531,0,0,0,0,0,0,0,0,0,-1,1203,1555,0,0
-14,-531,0,0,0,0,0,0,0,0,0,-1,1210,1555,0,0
-7,-531,0,0,0,0,0,0,0,0,0,-1,1217,1555,0,0
0,-531,0,0,0,0,0,0,0,0,0,-1,1224,1555,0,0
7,-531,0,0,0,0,0,0,0,0,0,-1,1231,1555,0,0
14,-531,0,0,0,0,0,0,0,0,0,-1,1238,1555,0,0
21,-531,0,0,0,0,0,0,0,0,0,-1,1245,1555,0,0
28,-531,0,0,0,0,0,0,0,0,0,-1,1252,1555,0,0
35,-531,0,0,0,0,0,0,0,0,0,-1,1259,1555,0,0
42,-531,0,0,0,0,0,0,0,0,0,-1,1266,1555,0,0
49,-531,0,0,0,0,0,0,0,0,0,-1,1273,1555,0,0
56,-531,0,0,0,0,0,0,0,0,0,-1,1280,1555,0,0
63,-531,0,0,0,0,0,0,0,0,0,-1,1287,1555,0,0
70,-531,0,0,0,0,0,0,0,0,0,-1,1294,1555,0,0
77,-531,0,0,0,0,0,0,0,0,0,-1,1301,1555,0,0
84,-531,0,0,0,0,0,0,0,0,0,-1,1308,1555,0,0
91,-531,0,0,0,0,0,0,0,0,0,-1,1315,1555,0,0
98,-531,0,0,0,0,0,0,0,0,0,-1,1322,1555,0,0
105,-531,0,0,0,0,0,0,0,0,0,-1,1329,1555,0,0
112,-531,0,0,0,0,0,0,0,0,0,-1,1336,1555,0,0
119,-531,0,0,0,0,0,0,0,0,0,-1,1343,1555,0,0
126,-531,0,0,0,0,0,0,0,0,0,-1,1350,1555,0,0
133,-531,0,0,0,0,0,0,0,0,0,-1,1357,1555,0,0
140,-531,0,0,0,0,0,0,0,0,0,-1,1364,1555,0,0
147,-531,0,0,0,0,0,0,0,0,0,-1,1371,1555,0,0
154,-531,0,0,0,0,0,0,0,0,0,-1,1378,1555,0,0
161,-531,0,0,0,0,0,0,0,0,0,-1,1385,1555,0,0
168,-531,0,0,0,0,0,0,0,0,0,-1,1392,1555,0,0
175,-531,0,0,0,0,0,0,0,0,0,-1,1399,1555,0,0
182,-531,0,0,0,0,0,0,0,0,0,-1,1406,1555,0,0
189,-531,0,0,0,0,0,0,0,0,0,-1,1413,1555,0,0
196,-531,0,0,0,0,0,0,0,0,0,-1,1420,1555,0,0
203,-531,0,0,0,0,0,0,0,0,0,-1,1427,1555,0,0
210,-531,0,0,0,0,0,0,0,0,0,-1,1434,1555,0,0
217,-531,0,0,0,0,0,0,0,0,0,-1,1441,1555,0,0
224,-531,0,0,0,0,0,0,0,0,0,-1,1448,1555,0,0
231,-531,0,0,0,0,0,0,0,0,0,-1,1455,1555,0,0
238,-531,0,0,0,0,0,0,0,0,0,-1,1462,1555,0,0
245,-531,0,0,0,0,0,0,0,0,0,-1,1469,1555,0,0
252,-531,0,0,0,0,0,0,0,0,0,-1,1476,1555,0,0
259,-531,0,0,0,0,0,0,0,0,0,-1,1483,1555,0,0
266,-531,0,0,0,0,0,0,0,0,0,-1,1490,1555,0,0
273,-531,0,0,0,0,0,0,0,0,0,-1,1497,1555,0,0
280,-531,0,0,0,0,0,0,0,0,0,-1,1504,1555,0,0
287,-531,0,0,0,0,0,0,0,0,0,-1,1511,1555,0,0
294,-531,0,0,0,0,0,0,0,0,0,-1,1518,1555,0,0
301,-531,0,0,0,0,0,0,0,0,0,-1,1525,1555,0,0
308,-531,0,0,0,0,0,0,0,0,0,-1,1532,1555,0,0
315,-531,0,0,0,0,0,0,0,0,0,-1,1539,1555,0,0
322,-531,0,0,0,0,0,0,0,0,0,-1,1546,1555,0,0
329,-531,0,0,0,0,0,0,0,0,0,-1,1553,1555,0,0
336,-531,0,0,0,0,0,0,0,0,0,-1,1560,1555,0,0
343,-531,0,0,0,0,0,0,0,0,0,-1,1567,1555,0,0
350,-531,0,0,0,0,0,0,0,0,0,-1,1574,1555,0,0
357,-531,0,0,0,0,0,0,0,0,0,-1,1581,1555,0,0
364,-531,0,0,0,0,0,0,0,0,0,-1,1588,1555,0,0
371,-531,0,0,0,0,0,0,0,0,0,-1,1595,1555,0,0
378,-531,0,0,0,0,0,0,0,0,0,-1,1602,1555,0,0
385,-531,3.48169,1.78625,0,0,0,0,0,0,0,-1,1609,1555,3.48165,-1.78624
392,-531,10.8781,9.09204,0,0,0,0,0,0,0,-1,1616,1555,10.8781,-9.09205
399,-531,8.26306,5.29602,0,0,0,0,0,0,0,-1,1623,1555,8.26302,-5.29607
406,-531,8.26147,5.42712,0,0,0,0,0,0,0,-1,1630,1555,8.26145,-5.42716
413,-531,8.20618,5.75012,0,0,0,0,0,0,0,-1,1637,1555,8.20619,-5.75017
420,-531,7.64868,7.09558,0,0,0,0,0,0,0,-1,1644,1555,7.64867,-7.09564
427,-531,9.93054,11.8412,0,0,0,0,0,0,0,-1,1651,1555,9.93059,-11.8412
434,-531,10.244,11.7072,0,0,0,0,0,0,0,-1,1658,1555,10.244,-11.7071
441,-531,11.4528,12.9397,0,0,0,0,0,0,0,-1,1665,1555,11.4528,-12.9397
448,-531,11.928,18.8029,0,0,0,0,0,0,0,-1,1672,1555,11.928,-18.8028
455,-531,14.4877,9.67065,0,0,0,0,0,0,0,-1,1679,1555,14.4876,-9.67066
462,-531,13.5253,12.2002,0,0,0,0,0,0,0,-1,1686,1555,13.5252,-12.2002
469,-531,15.5087,15.7894,0,0,0,0,0,0,0,-1,1693,1555,15.5086,-15.7895
476,-531,14.6582,16.2264,0,0,0,0,0,0,0,-1,1700,1555,14.6582,-16.2264
483,-531,14.755,18.5994,0,0,0,0,0,0,0,-1,1707,1555,14.7551,-18.5994
490,-531,15.4741,22.5215,0,0,0,0,0,0,0,-1,1714,1555,15.4741,-22.5214
497,-531,16.0696,22.3392,0,0,0,0,0,0,0,-1,1721,1555,16.0696,-22.3392
504,-531,16.1772,21.7196,0.00423624,0.00895815,-0.00532866,0.0124255,0.000768924,-0.993935,0.0080396,0.0298581,1728,1555,16.1773,-21.7196
511,-531,16.2692,21.2288,0.003749,0.0070978,-0.00436384,0.0100974,0.000749352,-0.968586,0.00649627,0.0151228,1735,1555,16.2691,-21.2288
518,-531,16.2998,20.8137,0.00307993,0.00518395,-0.00327883,0.00757541,0.000688476,-0.940635,0.00483714,0.0148669,1742,1555,16.2999,-20.8138
525,-531,16.2954,20.3717,0.00235104,0.00349957,-0.00229844,0.0052944,0.000556209,-0.907817,0.00335958,0.0143854,1749,1555,16.2954,-20.3717
532,-531,16.3015,19.9097,0.00168815,0.00209724,-0.00141535,0.00332275,0.000462638,-0.857161,0.00207819,0.0111214,1756,1555,16.3015,-19.9097
539,-531,16.2832,19.491,0.00125263,0.000815043,-0.000648524,0.00171827,0.0003494,-0.622708,0.00104864,0.0125392,1763,1555,16.2832,-19.491
546,-531,16.2426,19.0759,0.000854149,-0.000287198,6.68403e-05,0.00085805,-0.000291099,0.058297,0.000689852,0.0157821,1770,1555,16.2426,-19.0759
553,-531,16.2644,18.6982,0.000524652,-0.00129069,0.000688372,0.000756157,-0.0015222,0.324426,0.00133996,0.0309255,1777,1555,16.2644,-18.6983
560,-531,16.2898,18.2557,0.000383153,-0.00215096,0.00115614,0.000831347,-0.00259916,0.369827,0.0020664,0.0343335,1784,1555,16.2898,-18.2557
567,-531,16.1752,17.7729,0.000710822,-0.00312264,0.00132124,0.00112208,-0.0035339,0.301761,0.00280577,0.0204905,1791,1555,16.1751,-17.773
574,-531,16.1703,17.3326,0.00144733,-0.00349124,0.000903482,0.00160743,-0.00365133,0.175379,0.00311165,0.0142618,1798,1555,16.1702,-17.3326
581,-531,16.2057,16.8943,0.0025953,-0.00390373,0.000237959,0.002604,-0.00391243,0.0365493,0.00378746,0.0180529,1805,1555,16.2057,-16.8943
588,-531,16.2515,16.3553,0.00431188,-0.00409814,-0.00095006,0.00441787,-0.00420413,-0.111102,0.00497842,0.0327509,1812,1555,16.2514,-16.3553
595,-531,16.2434,15.7296,0,0,0,0,0,0,0,-1,1819,1555,16.2433,-15.7296
602,-531,13.701,11.8346,0,0,0,0,0,0,0,-1,1826,1555,13.701,-11.8347
609,-531,10.9072,8.50903,0,0,0,0,0,0,0,-1,1833,1555,10.9073,-8.50902
616,-531,10.5723,7.17859,0,0,0,0,0,0,0,-1,1840,1555,10.5723,-7.17855
623,-531,10.0674,5.08984,0,0,0,0,0,0,0,-1,1847,1555,10.0674,-5.08981
630,-531,11.672,3.18909,0,0,0,0,0,0,0,-1,1854,1555,11.672,-3.18904
637,-531,13.2546,1.38965,0,0,0,0,0,0,0,-1,1861,1555,13.2547,-1.3896
644,-531,0,0,0,0,0,0,0,0,0,-1,1868,1555,0,0
651,-531,0,0,0,0,0,0,0,0,0,-1,1875,1555,0,0
658,-531,0,0,0,0,0,0,0,0,0,-1,1882,1555,0,0
665,-531,0,0,0,0,0,0,0,0,0,-1,1889,1555,0,0
672,-531,0,0,0,0,0,0,0,0,0,-1,1896,1555,0,0
679,-531,0,0,0,0,0,0,0,0,0,-1,1903,1555,0,0
686,-531,0,0,0,0,0,0,0,0,0,-1,1910,1555,0,0
693,-531,0,0,0,0,0,0,0,0,0,-1,1917,1555,0,0
700,-531,0,0,0,0,0,0,0,0,0,-1,1924,1555,0,0
707,-531,0,0,0,0,0,0,0,0,0,-1,1931,1555,0,0
714,-531,0,0,0,0,0,0,0,0,0,-1,1938,1555,0,0
721,-531,0,0,0,0,0,0,0,0,0,-1,1945,1555,0,0
728,-531,0,0,0,0,0,0,0,0,0,-1,1952,1555,0,0
735,-531,0,0,0,0,0,0,0,0,0,-1,1959,1555,0,0
742,-531,0,0,0,0,0,0,0,0,0,-1,1966,1555,0,0
749,-531,0,0,0,0,0,0,0,0,0,-1,1973,1555,0,0
756,-531,0,0,0,0,0,0,0,0,0,-1,1980,1555,0,0
763,-531,0,0,0,0,0,0,0,0,0,-1,1987,1555,0,0
770,-531,0,0,0,0,0,0,0,0,0,-1,1994,1555,0,0
777,-531,0,0,0,0,0,0,0,0,0,-1,2001,1555,0,0
784,-531,0,0,0,0,0,0,0,0,0,-1,2008,1555,0,0
791,-531,0,0,0,0,0,0,0,0,0,-1,2015,1555,0,0
798,-531,0,0,0,0,0,0,0,0,0,-1,2022,1555,0,0
805,-531,0,0,0,0,0,0,0,0,0,-1,2029,1555,0,0
812,-531,0,0,0,0,0,0,0,0,0,-1,2036,1555,0,0
-700,-538,0,0,0,0,0,0,0,0,0,-1,524,1562,0,0
-693,-538,0,0,0,0,0,0,0,0,0,-1,531,1562,0,0
-686,-538,0,0,0,0,0,0,0,0,0,-1,538,1562,0,0
-679,-538,0,0,0,0,0,0,0,0,0,-1,545,1562,0,0
-672,-538,0,0,0,0,0,0,0,0,0,-1,552,1562,0,0
-665,-538,0,0,0,0,0,0,0,0,0,-1,559,1562,0,0
-658,-538,0,0,0,0,0,0,0,0,0,-1,566,1562,0,0
-651,-538,0,0,0,0,0,0,0,0,0,-1,573,1562,0,0
-644,-538,0,0,0,0,0,0,0,0,0,-1,580,1562,0,0
-637,-538,0,0,0,0,0,0,0,0,0,-1,587,1562,0,0
-630,-538,0,0,0,0,0,0,0,0,0,-1,594,1562,0,0
-623,-538,0,0,0,0,0,0,0,0,0,-1,601,1562,0,0
-616,-538,0,0,0,0,0,0,0,0,0,-1,608,1562,0,0
-609,-538,0,0,0,0,0,0,0,0,0,-1,615,1562,0,0
-602,-538,0,0,0,0,0,0,0,0,0,-1,622,1562,0,0
-595,-538,0,0,0,0,0,0,0,0,0,-1,629,1562,0,0
-588,-538,0,0,0,0,0,0,0,0,0,-1,636,1562,0,0
-581,-538,0,0,0,0,0,0,0,0,0,-1,643,1562,0,0
-574,-538,0,0,0,0,0,0,0,0,0,-1,650,1562,0,0
-567,-538,0,0,0,0,0,0,0,0,0,-1,657,1562,0,0
-560,-538,0,0,0,0,0,0,0,0,0,-1,664,1562,0,0
-553,-538,0,0,0,0,0,0,0,0,0,-1,671,1562,0,0
-546,-538,0,0,0,0,0,0,0,0,0,-1,678,1562,0,0
-539,-538,0,0,0,0,0,0,0,0,0,-1,685,1562,0,0
-532,-538,0,0,0,0,0,0,0,0,0,-1,692,1562,0,0
-525,-538,0,0,0,0,0,0,0,0,0,-1,699,1562,0,0
-518,-538,0,0,0,0,0,0,0,0,0,-1,706,1562,0,0
-511,-538,-2.6582,-1.54321,0,0,0,0,0,0,0,-1,713,1562,-2.65821,1.54327
-504,-538,-2.66455,-0.71167,0,0,0,0,0,0,0,-1,720,1562,-2.66456,0.711667
-497,-538,-0.763855,6.77747,0,0,0,0,0,0,0,-1,727,1562,-0.76385,-6.77743
-490,-538,-2.70453,8.01465,0,0,0,0,0,0,0,-1,734,1562,-2.70451,-8.0147
-483,-538,-0.933533,7.84644,0,0,0,0,0,0,0,-1,741,1562,-0.933548,-7.84638
-476,-538,-1.89648,11.1104,0,0,0,0,0,0,0,-1,748,1562,-1.89646,-11.1104
-469,-538,-1.32233,13.7604,0,0,0,0,0,0,0,-1,755,1562,-1.32235,-13.7603
-462,-538,-1.34918,14.3694,0.0121073,0.0163252,-0.00102722,0.0165621,0.0118705,-1.34417,0.00985701,0.043136,762,1562,-1.34917,-14.3693
-455,-538,-1.45862,15.3794,0.00818098,0.0144714,0.00125903,0.014714,0.00793834,1.38041,0.00850399,0.0399551,769,1562,-1.45859,-15.3794
-448,-538,-1.33649,15.5912,0.00532863,0.0118845,0.00203721,0.012466,0.00474715,1.29276,0.00726509,0.019118,776,1562,-1.33648,-15.5911
-441,-538,-1.41974,16.0448,0.00346921,0.00940349,0.00222166,0.0101431,0.00272964,1.24944,0.00606064,0.0203898,783,1562,-1.41973,-16.0448
-434,-538,-1.48737,16.4543,0.00166392,0.00808519,0.00279283,0.00912991,0.000619194,1.21284,0.00589107,0.011969,790,1562,-1.48736,-16.4544
-427,-538,-1.49951,16.9498,0.00106636,0.00577823,0.00290666,0.00716383,-0.000319249,1.12596,0.00488578,0.0136215,797,1562,-1.4995,-16.9498
-420,-538,-1.52765,17.4285,0.00108609,0.00473013,0.0024838,0.00598854,-0.000172312,1.10185,0.00405102,0.0184888,804,1562,-1.52764,-17.4285
-413,-538,-1.55487,17.875,0.00130697,0.0038339,0.00230096,0.00519547,-5.45899e-05,1.03648,0.00348198,0.0181341,811,1562,-1.55487,-17.875
-406,-538,-1.52832,18.3024,0.00173342,0.00363393,0.00233114,0.00520105,0.0001663,0.978934,0.00341329,0.0139984,818,1562,-1.5283,-18.3024
-399,-538,-1.53082,18.7811,0.00213895,0.00402481,0.00263024,0.00587603,0.000287732,0.95751,0.00382505,0.0127271,825,1562,-1.53084,-18.7811
-392,-538,-1.53424,19.2445,0.00268701,0.00509329,0.00299533,0.00711808,0.000662223,0.976371,0.00454077,0.0141898,832,1562,-1.53423,-19.2445
-385,-538,-1.56793,19.6887,0.00342003,0.00641189,0.00346694,0.00869187,0.00114005,0.989073,0.00545442,0.0121127,839,1562,-1.56796,-19.6887
-378,-538,-1.58655,20.1295,0.00423597,0.00812067,0.00395698,0.0105863,0.00177033,1.01356,0.0065477,0.0097268,846,1562,-1.58654,-20.1296
-371,-538,-1.61884,20.5581,0.00505562,0.00986561,0.00434897,0.0124303,0.00249095,1.03797,0.00759395,0.0129495,853,1562,-1.61882,-20.5581
-364,-538,-1.55103,21.0833,0.00591297,0.0118598,0.00466444,0.0144179,0.00335482,1.06915,0.00871173,0.0169489,860,1562,-1.55102,-21.0832
-357,-538,-1.51532,21.613,0.00680274,0.0140938,0.00483635,0.0165046,0.00439185,1.10835,0.0098704,0.0368719,867,1562,-1.51533,-21.6131
-350,-538,-1.7121,22.1068,0.00777325,0.0165943,0.00495388,0.0188165,0.00555099,1.14912,0.0111639,0.0456675,874,1562,-1.71207,-22.1068
-343,-538,-1.67755,22.6744,0.00860297,0.0193636,0.00474956,0.02116,0.00680651,1.20919,0.0124731,0.0463975,881,1562,-1.67752,-22.6745
-336,-538,-1.57953,23.1694,0,0,0,0,0,0,0,-1,888,1562,-1.5795,-23.1695
-329,-538,-1.58911,23.5409,0,0,0,0,0,0,0,-1,895,1562,-1.58911,-23.5409
-322,-538,-1.9845,22.4153,0,0,0,0,0,0,0,-1,902,1562,-1.98452,-22.4153
-315,-538,-2.25354,22.3262,0,0,0,0,0,0,0,-1,909,1562,-2.25351,-22.3262
-308,-538,-2.52136,21.9954,0,0,0,0,0,0,0,-1,916,1562,-2.52134,-21.9954
-301,-538,-0.452393,18.5101,0,0,0,0,0,0,0,-1,923,1562,-0.452367,-18.5102
-294,-538,1.23138,14.0757,0,0,0,0,0,0,0,-1,930,1562,1.23137,-14.0757
-287,-538,-2.60419,10.2361,0,0,0,0,0,0,0,-1,937,1562,-2.6042,-10.2361
-280,-538,-2.93475,10.5106,0,0,0,0,0,0,0,-1,944,1562,-2.93475,-10.5106
-273,-538,-3.26532,10.785,0,0,0,0,0,0,0,-1,951,1562,-3.26531,-10.785
-266,-538,-5.03412,15.9951,0,0,0,0,0,0,0,-1,958,1562,-5.03409,-15.9951
-259,-538,-5.89642,16.5184,0,0,0,0,0,0,0,-1,965,1562,-5.89644,-16.5184
-252,-538,0,0,0,0,0,0,0,0,0,-1,972,1562,0,0
-245,-538,0,0,0,0,0,0,0,0,0,-1,979,1562,0,0
-238,-538,0,0,0,0,0,0,0,0,0,-1,986,1562,0,0
-231,-538,0,0,0,0,0,0,0,0,0,-1,993,1562,0,0
-224,-538,0,0,0,0,0,0,0,0,0,-1,1000,1562,0,0
-217,-538,0,0,0,0,0,0,0,0,0,-1,1007,1562,0,0
-210,-538,0,0,0,0,0,0,0,0,0,-1,1014,1562,0,0
-203,-538,0,0,0,0,0,0,0,0,0,-1,1021,1562,0,0
-196,-538,0,0,0,0,0,0,0,0,0,-1,1028,1562,0,0
-189,-538,0,0,0,0,0,0,0,0,0,-1,1035,1562,0,0
-182,-538,0,0,0,0,0,0,0,0,0,-1,1042,1562,0,0
-175,-538,0,0,0,0,0,0,0,0,0,-1,1049,1562,0,0
-168,-538,0,0,0,0,0,0,0,0,0,-1,1056,1562,0,0
-161,-538,0,0,0,0,0,0,0,0,0,-1,1063,1562,0,0
-154,-538,0,0,0,0,0,0,0,0,0,-1,1070,1562,0,0
-147,-538,0,0,0,0,0,0,0,0,0,-1,1077,1562,0,0
-140,-538,0,0,0,0,0,0,0,0,0,-1,1084,1562,0,0
-133,-538,0,0,0,0,0,0,0,0,0,-1,1091,1562,0,0
-126,-538,0,0,0,0,0,0,0,0,0,-1,1098,1562,0,0
-119,-538,0,0,0,0,0,0,0,0,0,-1,1105,1562,0,0
-112,-538,0,0,0,0,0,0,0,0,0,-1,1112,1562,0,0
-105,-538,0,0,0,0,0,0,0,0,0,-1,1119,1562,0,0
-98,-538,0,0,0,0,0,0,0,0,0,-1,1126,1562,0,0
-91,-538,0,0,0,0,0,0,0,0,0,-1,1133,1562,0,0
-84,-538,0,0,0,0,0,0,0,0,0,-1,1140,1562,0,0
-77,-538,0,0,0,0,0,0,0,0,0,-1,1147,1562,0,0
-70,-538,0,0,0,0,0,0,0,0,0,-1,1154,1562,0,0
-63,-538,0,0,0,0,0,0,0,0,0,-1,1161,1562,0,0
-56,-538,0,0,0,0,0,0,0,0,0,-1,1168,1562,0,0
-49,-538,0,0,0,0,0,0,0,0,0,-1,1175,1562,0,0
-42,-538,0,0,0,0,0,0,0,0,0,-1,1182,1562,0,0
-35,-538,0,0,0,0,0,0,0,0,0,-1,1189,1562,0,0
-28,-538,0,0,0,0,0,0,0,0,0,-1,1196,1562,0,0
-21,-538,0,0,0,0,0,0,0,0,0,-1,1203,1562,0,0
-14,-538,0,0,0,0,0,0,0,0,0,-1,1210,1562,0,0
-7,-538,0,0,0,0,0,0,0,0,0,-1,1217,1562,0,0
0,-538,0,0,0,0,0,0,0,0,0,-1,1224,1562,0,0
7,-538,0,0,0,0,0,0,0,0,0,-1,1231,1562,0,0
14,-538,0,0,0,0,0,0,0,0,0,-1,1238,1562,0,0
21,-538,0,0,0,0,0,0,0,0,0,-1,1245,1562,0,0
28,-538,0,0,0,0,0,0,0,0,0,-1,1252,1562,0,0
35,-538,0,0,0,0,0,0,0,0,0,-1,1259,1562,0,0
42,-538,0,0,0,0,0,0,0,0,0,-1,1266,1562,0,0
49,-538,0,0,0,0,0,0,0,0,0,-1,1273,1562,0,0
56,-538,0,0,0,0,0,0,0,0,0,-1,1280,1562,0,0
63,-538,0,0,0,0,0,0,0,0,0,-1,1287,1562,0,0
70,-538,0,0,0,0,0,0,0,0,0,-1,1294,1562,0,0
77,-538,0,0,0,0,0,0,0,0,0,-1,1301,1562,0,0
84,-538,0,0,0,0,0,0,0,0,0,-1,1308,1562,0,0
91,-538,0,0,0,0,0,0,0,0,0,-1,1315,1562,0,0
98,-538,0,0,0,0,0,0,0,0,0,-1,1322,1562,0,0
105,-538,0,0,0,0,0,0,0,0,0,-1,1329,1562,0,0
112,-538,0,0,0,0,0,0,0,0,0,-1,1336,1562,0,0
119,-538,0,0,0,0,0,0,0,0,0,-1,1343,1562,0,0
126,-538,0,0,0,0,0,0,0,0,0,-1,1350,1562,0,0
133,-538,0,0,0,0,0,0,0,0,0,-1,1357,1562,0,0
140,-538,0,0,0,0,0,0,0,0,0,-1,1364,1562,0,0
147,-538,0,0,0,0,0,0,0,0,0,-1,1371,1562,0,0
154,-538,0,0,0,0,0,0,0,0,0,-1,1378,1562,0,0
161,-538,0,0,0,0,0,0,0,0,0,-1,1385,1562,0,0
168,-538,0,0,0,0,0,0,0,0,0,-1,1392,1562,0,0
175,-538,0,0,0,0,0,0,0,0,0,-1,1399,1562,0,0
182,-538,0,0,0,0,0,0,0,0,0,-1,1406,1562,0,0
189,-538,0,0,0,0,0,0,0,0,0,-1,1413,1562,0,0
196,-538,0,0,0,0,0,0,0,0,0,-1,1420,1562,0,0
203,-538,0,0,0,0,0,0,0,0,0,-1,1427,1562,0,0
210,-538,0,0,0,0,0,0,0,0,0,-1,1434,1562,0,0
217,-538,0,0,0,0,0,0,0,0,0,-1,1441,1562,0,0
224,-538,0,0,0,0,0,0,0,0,0,-1,1448,1562,0,0
231,-538,0,0,0,0,0,0,0,0,0,-1,1455,1562,0,0
238,-538,0,0,0,0,0,0,0,0,0,-1,1462,1562,0,0
245,-538,0,0,0,0,0,0,0,0,0,-1,1469,1562,0,0
252,-538,0,0,0,0,0,0,0,0,0,-1,1476,1562,0,0
259,-538,0,0,0,0,0,0,0,0,0,-1,1483,1562,0,0
266,-538,0,0,0,0,0,0,0,0,0,-1,1490,1562,0,0
273,-538,0,0,0,0,0,0,0,0,0,-1,1497,1562,0,0
280,-538,0,0,0,0,0,0,0,0,0,-1,1504,1562,0,0
287,-538,0,0,0,0,0,0,0,0,0,-1,1511,1562,0,0
294,-538,0,0,0,0,0,0,0,0,0,-1,1518,1562,0,0
301,-538,0,0,0,0,0,0,0,0,0,-1,1525,1562,0,0
308,-538,0,0,0,0,0,0,0,0,0,-1,1532,1562,0,0
315,-538,0,0,0,0,0,0,0,0,0,-1,1539,1562,0,0
322,-538,0,0,0,0,0,0,0,0,0,-1,1546,1562,0,0
329,-538,0,0,0,0,0,0,0,0,0,-1,1553,1562,0,0
336,-538,0,0,0,0,0,0,0,0,0,-1,1560,1562,0,0
343,-538,0,0,0,0,0,0,0,0,0,-1,1567,1562,0,0
350,-538,0,0,0,0,0,0,0,0,0,-1,1574,1562,0,0
357,-538,0,0,0,0,0,0,0,0,0,-1,1581,1562,0,0
364,-538,0,0,0,0,0,0,0,0,0,-1,1588,1562,0,0
371,-538,0,0,0,0,0,0,0,0,0,-1,1595,1562,0,0
378,-538,9.65479,5.82434,0,0,0,0,0,0,0,-1,1602,1562,9.6548,-5.82439
385,-538,10.5449,7.9502,0,0,0,0,0,0,0,-1,1609,1562,10.5449,-7.95014
392,-538,8.20361,7.07214,0,0,0,0,0,0,0,-1,1616,1562,8.20362,-7.07211
399,-538,7.85425,4.70508,0,0,0,0,0,0,0,-1,1623,1562,7.85425,-4.70512
406,-538,7.77734,4.96094,0,0,0,0,0,0,0,-1,1630,1562,7.77729,-4.96097
413,-538,13.0446,13.1765,0,0,0,0,0,0,0,-1,1637,1562,13.0446,-13.1765
420,-538,9.96216,12.7653,0,0,0,0,0,0,0,-1,1644,1562,9.96221,-12.7653
427,-538,10.1732,14.5863,0,0,0,0,0,0,0,-1,1651,1562,10.1732,-14.5863
434,-538,9.64331,14.7745,0,0,0,0,0,0,0,-1,1658,1562,9.64326,-14.7746
441,-538,11.5039,20.5195,0,0,0,0,0,0,0,-1,1665,1562,11.5039,-20.5195
448,-538,12.8766,22.4932,0,0,0,0,0,0,0,-1,1672,1562,12.8766,-22.4932
455,-538,12.5693,17.4128,0,0,0,0,0,0,0,-1,1679,1562,12.5694,-17.4128
462,-538,12.1389,17.017,0,0,0,0,0,0,0,-1,1686,1562,12.1389,-17.017
469,-538,14.3802,16.6945,0,0,0,0,0,0,0,-1,1693,1562,14.3803,-16.6945
476,-538,13.724,19.0608,0,0,0,0,0,0,0,-1,1700,1562,13.724,-19.0608
483,-538,15.6787,23.2842,0,0,0,0,0,0,0,-1,1707,1562,15.6787,-23.2841
490,-538,15.6711,22.6826,0,0,0,0,0,0,0,-1,1714,1562,15.6711,-22.6826
497,-538,15.855,22.0619,0,0,0,0,0,0,0,-1,1721,1562,15.855,-22.0618
504,-538,15.869,21.6167,0.0035733,0.0075687,-0.0043254,0.0103354,0.000806561,-1.00173,0.0066378,0.0143826,1728,1562,15.869,-21.6166
511,-538,15.8495,21.2036,0.00302936,0.00579029,-0.00342109,0.00809894,0.000720717,-0.977165,0.0051758,0.0105688,1735,1562,15.8495,-21.2036
518,-538,15.8541,20.7943,0.00233578,0.00397185,-0.0024085,0.00569744,0.000610182,-0.949108,0.00361212,0.0114389,1742,1562,15.8541,-20.7944
525,-538,15.851,20.349,0.00162335,0.00234443,-0.00146525,0.00349285,0.000474931,-0.906032,0.00218751,0.0117305,1749,1562,15.851,-20.349
532,-538,15.8679,19.9172,0.000972563,0.000932555,-0.000584695,0.0015376,0.000367522,-0.768299,0.000927164,0.0131878,1756,1562,15.8679,-19.9172
539,-538,15.8484,19.5225,0.000525835,-0.000414701,0.000219981,0.000574743,-0.000463609,0.21877,0.000600637,0.0164073,1763,1562,15.8484,-19.5225
546,-538,15.8025,19.1075,8.45827e-05,-0.00165642,0.00102282,0.000557184,-0.00212902,0.432837,0.001637,0.0171497,1770,1562,15.8025,-19.1076
553,-538,15.8485,18.6691,-0.00028458,-0.00284003,0.00176232,0.00061447,-0.00373909,0.471736,0.00272077,0.0269206,1777,1562,15.8485,-18.669
560,-538,15.8282,18.2914,-0.000441166,-0.00389154,0.00235729,0.000754792,-0.00508749,0.469506,0.00366923,0.0302412,1784,1562,15.8283,-18.2913
567,-538,15.7196,17.818,-0.000122944,-0.00506712,0.00267451,0.00104697,-0.00623704,0.412354,0.00454737,0.0230281,1791,1562,15.7196,-17.818
574,-538,15.7206,17.3403,0.000632641,-0.00567201,0.00239903,0.00144169,-0.00648106,0.325263,0.00487289,0.0219217,1798,1562,15.7206,-17.3403
581,-538,15.7582,16.9098,0.00192974,-0.00626044,0.00176684,0.00229464,-0.00662533,0.203662,0.00534844,0.0287204,1805,1562,15.7582,-16.9098
588,-538,15.7495,16.5077,0.00390804,-0.00664182,0.000593962,0.00394138,-0.00667515,0.0560644,0.00619682,0.0478251,1812,1562,15.7495,-16.5077
595,-538,15.8131,15.9309,0,0,0,0,0,0,0,-1,1819,1562,15.8131,-15.931
602,-538,10.314,8.94238,0,0,0,0,0,0,0,-1,1826,1562,10.314,-8.94238
609,-538,10.1046,7.05713,0,0,0,0,0,0,0,-1,1833,1562,10.1046,-7.05719
616,-538,9.92249,5.43506,0,0,0,0,0,0,0,-1,1840,1562,9.92254,-5.43507
623,-538,11.1711,4.31604,0,0,0,0,0,0,0,-1,1847,1562,11.1711,-4.316
630,-538,12.6112,2.61633,0,0,0,0,0,0,0,-1,1854,1562,12.6112,-2.61637
637,-538,0,0,0,0,0,0,0,0,0,-1,1861,1562,0,0
644,-538,0,0,0,0,0,0,0,0,0,-1,1868,1562,0,0
651,-538,0,0,0,0,0,0,0,0,0,-1,1875,1562,0,0
658,-538,0,0,0,0,0,0,0,0,0,-1,1882,1562,0,0
665,-538,0,0,0,0,0,0,0,0,0,-1,1889,1562,0,0
672,-538,0,0,0,0,0,0,0,0,0,-1,1896,1562,0,0
679,-538,0,0,0,0,0,0,0,0,0,-1,1903,1562,0,0
686,-538,0,0,0,0,0,0,0,0,0,-1,1910,1562,0,0
693,-538,0,0,0,0,0,0,0,0,0,-1,1917,1562,0,0
700,-538,0,0,0,0,0,0,0,0,0,-1,1924,1562,0,0
707,-538,0,0,0,0,0,0,0,0,0,-1,1931,1562,0,0
714,-538,0,0,0,0,0,0,0,0,0,-1,1938,1562,0,0
721,-538,0,0,0,0,0,0,0,0,0,-1,1945,1562,0,0
728,-538,0,0,0,0,0,0,0,0,0,-1,1952,1562,0,0
735,-538,0,0,0,0,0,0,0,0,0,-1,1959,1562,0,0
742,-538,0,0,0,0,0,0,0,0,0,-1,1966,1562,0,0
749,-538,0,0,0,0,0,0,0,0,0,-1,1973,1562,0,0
756,-538,0,0,0,0,0,0,0,0,0,-1,1980,1562,0,0
763,-538,0,0,0,0,0,0,0,0,0,-1,1987,1562,0,0
770,-538,0,0,0,0,0,0,0,0,0,-1,1994,1562,0,0
777,-538,0,0,0,0,0,0,0,0,0,-1,2001,1562,0,0
784,-538,0,0,0,0,0,0,0,0,0,-1,2008,1562,0,0
791,-538,0,0,0,0,0,0,0,0,0,-1,2015,1562,0,0
798,-538,0,0,0,0,0,0,0,0,0,-1,2022,1562,0,0
805,-538,0,0,0,0,0,0,0,0,0,-1,2029,1562,0,0
812,-538,0,0,0,0,0,0,0,0,0,-1,2036,1562,0,0
-700,-545,0,0,0,0,0,0,0,0,0,-1,524,1569,0,0
-693,-545,0,0,0,0,0,0,0,0,0,-1,531,1569,0,0
-686,-545,0,0,0,0,0,0,0,0,0,-1,538,1569,0,0
-679,-545,0,0,0,0,0,0,0,0,0,-1,545,1569,0,0
-672,-545,0,0,0,0,0,0,0,0,0,-1,552,1569,0,0
-665,-545,0,0,0,0,0,0,0,0,0,-1,559,1569,0,0
-658,-545,0,0,0,0,0,0,0,0,0,-1,566,1569,0,0
-651,-545,0,0,0,0,0,0,0,0,0,-1,573,1569,0,0
-644,-545,0,0,0,0,0,0,0,0,0,-1,580,1569,0,0
-637,-545,0,0,0,0,0,0,0,0,0,-1,587,1569,0,0
-630,-545,0,0,0,0,0,0,0,0,0,-1,594,1569,0,0
-623,-545,0,0,0,0,0,0,0,0,0,-1,601,1569,0,0
-616,-545,0,0,0,0,0,0,0,0,0,-1,608,1569,0,0
-609,-545,0,0,0,0,0,0,0,0,0,-1,615,1569,0,0
-602,-545,0,0,0,0,0,0,0,0,0,-1,622,1569,0,0
-595,-545,0,0,0,0,0,0,0,0,0,-1,629,1569,0,0
-588,-545,0,0,0,0,0,0,0,0,0,-1,636,1569,0,0
-581,-545,0,0,0,0,0,0,0,0,0,-1,643,1569,0,0
-574,-545,0,0,0,0,0,0,0,0,0,-1,650,1569,0,0
-567,-545,0,0,0,0,0,0,0,0,0,-1,657,1569,0,0
-560,-545,0,0,0,0,0,0,0,0,0,-1,664,1569,0,0
-553,-545,0,0,0,0,0,0,0,0,0,-1,671,1569,0,0
-546,-545,0,0,0,0,0,0,0,0,0,-1,678,1569,0,0
-539,-545,0,0,0,0,0,0,0,0,0,-1,685,1569,0,0
-532,-545,0,0,0,0,0,0,0,0,0,-1,692,1569,0,0
-525,-545,0,0,0,0,0,0,0,0,0,-1,699,1569,0,0
-518,-545,0,0,0,0,0,0,0,0,0,-1,706,1569,0,0
-511,-545,0,0,0,0,0,0,0,0,0,-1,713,1569,0,0
-504,-545,-3.55237,-2.5354,0,0,0,0,0,0,0,-1,720,1569,-3.55236,2.53545
-497,-545,2.26575,5.69214,0,0,0,0,0,0,0,-1,727,1569,2.26573,-5.6922
-490,-545,-2.17334,7.81396,0,0,0,0,0,0,0,-1,734,1569,-2.17334,-7.81399
-483,-545,-1.88336,5.8446,0,0,0,0,0,0,0,-1,741,1569,-1.88334,-5.84466
-476,-545,-1.13147,6.5741,0,0,0,0,0,0,0,-1,748,1569,-1.13149,-6.57405
-469,-545,-1.47662,10.9404,0,0,0,0,0,0,0,-1,755,1569,-1.47659,-10.9405
-462,-545,-1.14856,14.0205,0,0,0,0,0,0,0,-1,762,1569,-1.14856,-14.0205
-455,-545,-1.03314,14.804,0.00963318,0.0221127,0.00507892,0.0239185,0.00782744,1.2292,0.0140814,0.0457599,769,1569,-1.03315,-14.804
-448,-545,-0.856079,15.4965,0.00626934,0.0174557,0.00470801,0.0191734,0.00455163,1.22096,0.0115675,0.0307099,776,1569,-0.856099,-15.4964
-441,-545,-0.833008,16.1226,0.00394984,0.0132499,0.00397243,0.0147157,0.00248408,1.21731,0.00909621,0.0244923,783,1569,-0.833023,-16.1225
-434,-545,-1.0614,16.514,0.00178696,0.0105516,0.00384894,0.0120019,0.000336688,1.21045,0.00789141,0.0217637,790,1569,-1.06137,-16.514
-427,-545,-1.05444,16.97,0.000908674,0.00719409,0.00342122,0.00869696,-0.000594189,1.1569,0.00600584,0.018831,797,1569,-1.05446,-16.97
-420,-545,-1.05206,17.4351,0.000693088,0.00543524,0.00259368,0.0065783,-0.000449973,1.15569,0.00454296,0.0242813,804,1569,-1.05205,-17.4351
-413,-545,-1.07074,17.8739,0.000711887,0.00393606,0.00208589,0.00496021,-0.000312263,1.11438,0.00341565,0.0230866,811,1569,-1.07075,-17.8739
-406,-545,-1.06537,18.3163,0.00100017,0.00321195,0.00180233,0.00422063,-8.50763e-06,1.06057,0.00281659,0.0172321,818,1569,-1.06536,-18.3163
-399,-545,-1.06946,18.7737,0.00124937,0.00309917,0.00188787,0.00427653,7.20106e-05,1.01317,0.00282733,0.011918,825,1569,-1.06948,-18.7737
-392,-545,-1.10071,19.226,0.0016454,0.00362971,0.00207434,0.00493696,0.000338154,1.00847,0.00318458,0.0114709,832,1569,-1.10074,-19.226
-385,-545,-1.11841,19.6782,0.00229061,0.00461005,0.00237853,0.00609653,0.00080414,1.01223,0.00382459,0.00936655,839,1569,-1.11843,-19.6782
-378,-545,-1.14642,20.146,0.00304022,0.00601028,0.00275333,0.00765353,0.00139697,1.03272,0.00470632,0.0110441,846,1569,-1.14641,-20.146
-371,-545,-1.16687,20.6215,0.00378825,0.00737963,0.0030525,0.00912545,0.00204243,1.05127,0.00553001,0.0145716,853,1569,-1.16686,-20.6214
-364,-545,-1.15912,21.0326,0.00459645,0.00899741,0.00333448,0.010792,0.00280183,1.07706,0.00646636,0.010175,860,1569,-1.15914,-21.0326
-357,-545,-1.08008,21.5583,0.00546066,0.0107854,0.00353545,0.0125488,0.00369724,1.10813,0.00744601,0.0160038,867,1569,-1.08008,-21.5584
-350,-545,-1.03009,22.0476,0.00644478,0.012734,0.00374657,0.0144807,0.00469803,1.13453,0.00853053,0.0234396,874,1569,-1.03009,-22.0476
-343,-545,-1.03912,22.4008,0.00740662,0.0149518,0.00383961,0.016562,0.00579636,1.17369,0.0097045,0.038855,881,1569,-1.03915,-22.4007
-336,-545,-1.02435,22.7157,0,0,0,0,0,0,0,-1,888,1569,-1.02438,-22.7157
-329,-545,-1.08557,22.7101,0,0,0,0,0,0,0,-1,895,1569,-1.08557,-22.71
-322,-545,-0.992737,21.5034,0,0,0,0,0,0,0,-1,902,1569,-0.992735,-21.5034
-315,-545,-1.29688,21.5935,0,0,0,0,0,0,0,-1,909,1569,-1.2969,-21.5935
-308,-545,-1.54358,21.4457,0,0,0,0,0,0,0,-1,916,1569,-1.54357,-21.4457
-301,-545,1.52191,17.5009,0,0,0,0,0,0,0,-1,923,1569,1.52192,-17.5008
-294,-545,-2.69287,8.42102,0,0,0,0,0,0,0,-1,930,1569,-2.69287,-8.42097
-287,-545,-3.47784,9.96021,0,0,0,0,0,0,0,-1,937,1569,-3.47785,-9.96021
-280,-545,-3.7879,10.5448,0,0,0,0,0,0,0,-1,944,1569,-3.78793,-10.5448
-273,-545,-5.10333,12.864,0,0,0,0,0,0,0,-1,951,1569,-5.10331,-12.864
-266,-545,-5.78955,13.3704,0,0,0,0,0,0,0,-1,958,1569,-5.78952,-13.3703
-259,-545,-6.32184,13.8101,0,0,0,0,0,0,0,-1,965,1569,-6.32182,-13.81
-252,-545,0.369263,7.54053,0,0,0,0,0,0,0,-1,972,1569,0.369276,-7.54056
-245,-545,-0.236633,6.65564,0,0,0,0,0,0,0,-1,979,1569,-0.236605,-6.65566
-238,-545,0,0,0,0,0,0,0,0,0,-1,986,1569,0,0
-231,-545,0,0,0,0,0,0,0,0,0,-1,993,1569,0,0
-224,-545,0,0,0,0,0,0,0,0,0,-1,1000,1569,0,0
-217,-545,0,0,0,0,0,0,0,0,0,-1,1007,1569,0,0
-210,-545,0,0,0,0,0,0,0,0,0,-1,1014,1569,0,0
-203,-545,0,0,0,0,0,0,0,0,0,-1,1021,1569,0,0
-196,-545,0,0,0,0,0,0,0,0,0,-1,1028,1569,0,0
-189,-545,0,0,0,0,0,0,0,0,0,-1,1035,1569,0,0
-182,-545,0,0,0,0,0,0,0,0,0,-1,1042,1569,0,0
-175,-545,0,0,0,0,0,0,0,0,0,-1,1049,1569,0,0
-168,-545,0,0,0,0,0,0,0,0,0,-1,1056,1569,0,0
-161,-545,0,0,0,0,0,0,0,0,0,-1,1063,1569,0,0
-154,-545,0,0,0,0,0,0,0,0,0,-1,1070,1569,0,0
-147,-545,0,0,0,0,0,0,0,0,0,-1,1077,1569,0,0
-140,-545,0,0,0,0,0,0,0,0,0,-1,1084,1569,0,0
-133,-545,0,0,0,0,0,0,0,0,0,-1,1091,1569,0,0
-126,-545,0,0,0,0,0,0,0,0,0,-1,1098,1569,0,0
-119,-545,0,0,0,0,0,0,0,0,0,-1,1105,1569,0,0
-112,-545,0,0,0,0,0,0,0,0,0,-1,1112,1569,0,0
-105,-545,0,0,0,0,0,0,0,0,0,-1,1119,1569,0,0
-98,-545,0,0,0,0,0,0,0,0,0,-1,1126,1569,0,0
-91,-545,0,0,0,0,0,0,0,0,0,-1,1133,1569,0,0
-84,-545,0,0,0,0,0,0,0,0,0,-1,1140,1569,0,0
-77,-545,0,0,0,0,0,0,0,0,0,-1,1147,1569,0,0
-70,-545,0,0,0,0,0,0,0,0,0,-1,1154,1569,0,0
-63,-545,0,0,0,0,0,0,0,0,0,-1,1161,1569,0,0
-56,-545,0,0,0,0,0,0,0,0,0,-1,1168,1569,0,0
-49,-545,0,0,0,0,0,0,0,0,0,-1,1175,1569,0,0
-42,-545,0,0,0,0,0,0,0,0,0,-1,1182,1569,0,0
-35,-545,0,0,0,0,0,0,0,0,0,-1,1189,1569,0,0
-28,-545,0,0,0,0,0,0,0,0,0,-1,1196,1569,0,0
-21,-545,0,0,0,0,0,0,0,0,0,-1,1203,1569,0,0
-14,-545,0,0,0,0,0,0,0,0,0,-1,1210,1569,0,0
-7,-545,0,0,0,0,0,0,0,0,0,-1,1217,1569,0,0
0,-545,0,0,0,0,0,0,0,0,0,-1,1224,1569,0,0
7,-545,0,0,0,0,0,0,0,0,0,-1,1231,1569,0,0
14,-545,0,0,0,0,0,0,0,0,0,-1,1238,1569,0,0
21,-545,0,0,0,0,0,0,0,0,0,-1,1245,1569,0,0
28,-545,0,0,0,0,0,0,0,0,0,-1,1252,1569,0,0
35,-545,0,0,0,0,0,0,0,0,0,-1,1259,1569,0,0
42,-545,0,0,0,0,0,0,0,0,0,-1,1266,1569,0,0
49,-545,0,0,0,0,0,0,0,0,0,-1,1273,1569,0,0
56,-545,0,0,0,0,0,0,0,0,0,-1,1280,1569,0,0
63,-545,0,0,0,0,0,0,0,0,0,-1,1287,1569,0,0
70,-545,0,0,0,0,0,0,0,0,0,-1,1294,1569,0,0
77,-545,0,0,0,0,0,0,0,0,0,-1,1301,1569,0,0
84,-545,0,0,0,0,0,0,0,0,0,-1,1308,1569,0,0
91,-545,0,0,0,0,0,0,0,0,0,-1,1315,1569,0,0
98,-545,0,0,0,0,0,0,0,0,0,-1,1322,1569,0,0
105,-545,0,0,0,0,0,0,0,0,0,-1,1329,1569,0,0
112,-545,0,0,0,0,0,0,0,0,0,-1,1336,1569,0,0
119,-545,0,0,0,0,0,0,0,0,0,-1,1343,1569,0,0
126,-545,0,0,0,0,0,0,0,0,0,-1,1350,1569,0,0
133,-545,0,0,0,0,0,0,0,0,0,-1,1357,1569,0,0
140,-545,0,0,0,0,0,0,0,0,0,-1,1364,1569,0,0
147,-545,0,0,0,0,0,0,0,0,0,-1,1371,1569,0,0
154,-545,0,0,0,0,0,0,0,0,0,-1,1378,1569,0,0
161,-545,0,0,0,0,0,0,0,0,0,-1,1385,1569,0,0
168,-545,0,0,0,0,0,0,0,0,0,-1,1392,1569,0,0
175,-545,0,0,0,0,0,0,0,0,0,-1,1399,1569,0,0
182,-545,0,0,0,0,0,0,0,0,0,-1,1406,1569,0,0
189,-545,0,0,0,0,0,0,0,0,0,-1,1413,1569,0,0
196,-545,0,0,0,0,0,0,0,0,0,-1,1420,1569,0,0
203,-545,0,0,0,0,0,0,0,0,0,-1,1427,1569,0,0
210,-545,0,0,0,0,0,0,0,0,0,-1,1434,1569,0,0
217,-545,0,0,0,0,0,0,0,0,0,-1,1441,1569,0,0
224,-545,0,0,0,0,0,0,0,0,0,-1,1448,1569,0,0
231,-545,0,0,0,0,0,0,0,0,0,-1,1455,1569,0,0
238,-545,0,0,0,0,0,0,0,0,0,-1,1462,1569,0,0
245,-545,0,0,0,0,0,0,0,0,0,-1,1469,1569,0,0
252,-545,0,0,0,0,0,0,0,0,0,-1,1476,1569,0,0
259,-545,0,0,0,0,0,0,0,0,0,-1,1483,1569,0,0
266,-545,0,0,0,0,0,0,0,0,0,-1,1490,1569,0,0
273,-545,0,0,0,0,0,0,0,0,0,-1,1497,1569,0,0
280,-545,0,0,0,0,0,0,0,0,0,-1,1504,1569,0,0
287,-545,0,0,0,0,0,0,0,0,0,-1,1511,1569,0,0
294,-545,0,0,0,0,0,0,0,0,0,-1,1518,1569,0,0
301,-545,0,0,0,0,0,0,0,0,0,-1,1525,1569,0,0
308,-545,0,0,0,0,0,0,0,0,0,-1,1532,1569,0,0
315,-545,0,0,0,0,0,0,0,0,0,-1,1539,1569,0,0
322,-545,0,0,0,0,0,0,0,0,0,-1,1546,1569,0,0
329,-545,0,0,0,0,0,0,0,0,0,-1,1553,1569,0,0
336,-545,0,0,0,0,0,0,0,0,0,-1,1560,1569,0,0
343,-545,0,0,0,0,0,0,0,0,0,-1,1567,1569,0,0
350,-545,0,0,0,0,0,0,0,0,0,-1,1574,1569,0,0
357,-545,0,0,0,0,0,0,0,0,0,-1,1581,1569,0,0
364,-545,7.19495,4.88098,0,0,0,0,0,0,0,-1,1588,1569,7.19497,-4.88095
371,-545,7.82324,3.84302,0,0,0,0,0,0,0,-1,1595,1569,7.82324,-3.84307
378,-545,7.65674,5.52673,0,0,0,0,0,0,0,-1,1602,1569,7.6567,-5.52667
385,-545,8.58447,1.16125,0,0,0,0,0,0,0,-1,1609,1569,8.5845,-1.1612
392,-545,12.5654,3.89526,0,0,0,0,0,0,0,-1,1616,1569,12.5655,-3.89532
399,-545,11.5869,5.6333,0,0,0,0,0,0,0,-1,1623,1569,11.5869,-5.63326
406,-545,11.234,6.36414,0,0,0,0,0,0,0,-1,1630,1569,11.234,-6.3641
413,-545,12.1521,13.4817,0,0,0,0,0,0,0,-1,1637,1569,12.1521,-13.4817
420,-545,11.1954,13.6047,0,0,0,0,0,0,0,-1,1644,1569,11.1954,-13.6047
427,-545,9.61072,14.9135,0,0,0,0,0,0,0,-1,1651,1569,9.61076,-14.9134
434,-545,13.1598,23.9921,0,0,0,0,0,0,0,-1,1658,1569,13.1598,-23.992
441,-545,12.2833,22.2238,0,0,0,0,0,0,0,-1,1665,1569,12.2833,-22.2237
448,-545,13.0082,21.941,0,0,0,0,0,0,0,-1,1672,1569,13.0082,-21.941
455,-545,13.733,21.6583,0,0,0,0,0,0,0,-1,1679,1569,13.733,-21.6583
462,-545,12.449,20.7413,0,0,0,0,0,0,0,-1,1686,1569,12.4489,-20.7413
469,-545,12.7837,17.7919,0,0,0,0,0,0,0,-1,1693,1569,12.7837,-17.7919
476,-545,15.3746,23.8733,0,0,0,0,0,0,0,-1,1700,1569,15.3746,-23.8733
483,-545,15.5314,22.973,0.00443494,0.0138963,-0.00685736,0.0174965,0.000834798,-1.08735,0.0113962,0.0452936,1707,1569,15.5314,-22.973
490,-545,15.4226,22.5052,0.00383993,0.0107348,-0.00541047,0.0137028,0.000871923,-1.06905,0.0088589,0.0241887,1714,1569,15.4226,-22.5052
497,-545,15.4052,22.0742,0.00327638,0.00824321,-0.00423774,0.0106716,0.000847998,-1.05044,0.00684925,0.0211643,1721,1569,15.4052,-22.0742
504,-545,15.5071,21.6309,0.00293069,0.00621641,-0.00345298,0.00839743,0.000749674,-1.00744,0.00536588,0.0161201,1728,1569,15.5071,-21.6308
511,-545,15.485,21.1982,0.00237182,0.00450038,-0.00258013,0.00622712,0.000645079,-0.981012,0.00395397,0.0116271,1735,1569,15.485,-21.1982
518,-545,15.4617,20.791,0.00167618,0.0027509,-0.00161015,0.00391099,0.000516089,-0.946453,0.00245346,0.0135606,1742,1569,15.4616,-20.791
525,-545,15.4308,20.3492,0.000972044,0.00114314,-0.000663185,0.00172627,0.000388913,-0.849542,0.0010456,0.0137822,1749,1569,15.4308,-20.3492
532,-545,15.4192,19.9192,0.000306527,-0.000330615,0.000274565,0.000408519,-0.000432607,0.35567,0.000485691,0.0136912,1756,1569,15.4192,-19.9192
539,-545,15.3942,19.5403,-0.000207752,-0.00181172,0.00119877,0.000432561,-0.00245203,0.490588,0.00179632,0.0169715,1763,1569,15.3942,-19.5403
546,-545,15.3594,19.1095,-0.000764814,-0.00328855,0.00219011,0.000500947,-0.00455431,0.524043,0.00321622,0.0183653,1770,1569,15.3593,-19.1095
553,-545,15.405,18.6389,-0.00126475,-0.00477362,0.00316736,0.000601619,-0.00663999,0.532478,0.00464022,0.0257502,1777,1569,15.405,-18.6389
560,-545,15.4125,18.1493,-0.00155768,-0.00617753,0.00404025,0.000786358,-0.00852157,0.525712,0.00596048,0.0280429,1784,1569,15.4124,-18.1493
567,-545,15.392,17.6394,0,0,0,0,0,0,0,-1,1791,1569,15.392,-17.6394
574,-545,15.4291,17.2048,0,0,0,0,0,0,0,-1,1798,1569,15.429,-17.2048
581,-545,15.4202,16.8092,0,0,0,0,0,0,0,-1,1805,1569,15.4202,-16.8092
588,-545,15.3796,16.5597,0,0,0,0,0,0,0,-1,1812,1569,15.3796,-16.5597
595,-545,10.2859,9.11218,0,0,0,0,0,0,0,-1,1819,1569,10.2858,-9.11215
602,-545,8.82117,6.32214,0,0,0,0,0,0,0,-1,1826,1569,8.82121,-6.32217
609,-545,10.2406,5.22351,0,0,0,0,0,0,0,-1,1833,1569,10.2406,-5.22353
616,-545,11.701,3.93188,0,0,0,0,0,0,0,-1,1840,1569,11.701,-3.93191
623,-545,13.2139,2.32043,0,0,0,0,0,0,0,-1,1847,1569,13.2139,-2.32042
630,-545,0,0,0,0,0,0,0,0,0,-1,1854,1569,0,0
637,-545,0,0,0,0,0,0,0,0,0,-1,1861,1569,0,0
644,-545,0,0,0,0,0,0,0,0,0,-1,1868,1569,0,0
651,-545,0,0,0,0,0,0,0,0,0,-1,1875,1569,0,0
658,-545,0,0,0,0,0,0,0,0,0,-1,1882,1569,0,0
665,-545,0,0,0,0,0,0,0,0,0,-1,1889,1569,0,0
672,-545,0,0,0,0,0,0,0,0,0,-1,1896,1569,0,0
679,-545,0,0,0,0,0,0,0,0,0,-1,1903,1569,0,0
686,-545,0,0,0,0,0,0,0,0,0,-1,1910,1569,0,0
693,-545,0,0,0,0,0,0,0,0,0,-1,1917,1569,0,0
700,-545,0,0,0,0,0,0,0,0,0,-1,1924,1569,0,0
707,-545,0,0,0,0,0,0,0,0,0,-1,1931,1569,0,0
714,-545,0,0,0,0,0,0,0,0,0,-1,1938,1569,0,0
721,-545,0,0,0,0,0,0,0,0,0,-1,1945,1569,0,0
728,-545,0,0,0,0,0,0,0,0,0,-1,1952,1569,0,0
735,-545,0,0,0,0,0,0,0,0,0,-1,1959,1569,0,0
742,-545,0,0,0,0,0,0,0,0,0,-1,1966,1569,0,0
749,-545,0,0,0,0,0,0,0,0,0,-1,1973,1569,0,0
756,-545,0,0,0,0,0,0,0,0,0,-1,1980,1569,0,0
763,-545,0,0,0,0,0,0,0,0,0,-1,1987,1569,0,0
770,-545,0,0,0,0,0,0,0,0,0,-1,1994,1569,0,0
777,-545,0,0,0,0,0,0,0,0,0,-1,2001,1569,0,0
784,-545,0,0,0,0,0,0,0,0,0,-1,2008,1569,0,0
791,-545,0,0,0,0,0,0,0,0,0,-1,2015,1569,0,0
798,-545,0,0,0,0,0,0,0,0,0,-1,2022,1569,0,0
805,-545,0,0,0,0,0,0,0,0,0,-1,2029,1569,0,0
812,-545,0,0,0,0,0,0,0,0,0,-1,2036,1569,0,0
-700,-552,0,0,0,0,0,0,0,0,0,-1,524,1576,0,0
-693,-552,0,0,0,0,0,0,0,0,0,-1,531,1576,0,0
-686,-552,0,0,0,0,0,0,0,0,0,-1,538,1576,0,0
-679,-552,0,0,0,0,0,0,0,0,0,-1,545,1576,0,0
-672,-552,0,0,0,0,0,0,0,0,0,-1,552,1576,0,0
-665,-552,0,0,0,0,0,0,0,0,0,-1,559,1576,0,0
-658,-552,0,0,0,0,0,0,0,0,0,-1,566,1576,0,0
-651,-552,0,0,0,0,0,0,0,0,0,-1,573,1576,0,0
-644,-552,0,0,0,0,0,0,0,0,0,-1,580,1576,0,0
-637,-552,0,0,0,0,0,0,0,0,0,-1,587,1576,0,0
-630,-552,0,0,0,0,0,0,0,0,0,-1,594,1576,0,0
-623,-552,0,0,0,0,0,0,0,0,0,-1,601,1576,0,0
-616,-552,0,0,0,0,0,0,0,0,0,-1,608,1576,0,0
-609,-552,0,0,0,0,0,0,0,0,0,-1,615,1576,0,0
-602,-552,0,0,0,0,0,0,0,0,0,-1,622,1576,0,0
-595,-552,0,0,0,0,0,0,0,0,0,-1,629,1576,0,0
-588,-552,0,0,0,0,0,0,0,0,0,-1,636,1576,0,0
-581,-552,0,0,0,0,0,0,0,0,0,-1,643,1576,0,0
-574,-552,0,0,0,0,0,0,0,0,0,-1,650,1576,0,0
-567,-552,0,0,0,0,0,0,0,0,0,-1,657,1576,0,0
-560,-552,0,0,0,0,0,0,0,0,0,-1,664,1576,0,0
-553,-552,0,0,0,0,0,0,0,0,0,-1,671,1576,0,0
-546,-552,0,0,0,0,0,0,0,0,0,-1,678,1576,0,0
-539,-552,0,0,0,0,0,0,0,0,0,-1,685,1576,0,0
-532,-552,0,0,0,0,0,0,0,0,0,-1,692,1576,0,0
-525,-552,0,0,0,0,0,0,0,0,0,-1,699,1576,0,0
-518,-552,0,0,0,0,0,0,0,0,0,-1,706,1576,0,0
-511,-552,0,0,0,0,0,0,0,0,0,-1,713,1576,0,0
-504,-552,0,0,0,0,0,0,0,0,0,-1,720,1576,0,0
-497,-552,1.51282,3.96924,0,0,0,0,0,0,0,-1,727,1576,1.5128,-3.96924
-490,-552,-3.82312,6.32104,0,0,0,0,0,0,0,-1,734,1576,-3.82314,-6.3211
-483,-552,-3.50586,6.47986,0,0,0,0,0,0,0,-1,741,1576,-3.50587,-6.47983
-476,-552,-1.95129,4.43054,0,0,0,0,0,0,0,-1,748,1576,-1.95128,-4.43054
-469,-552,-1.40491,7.9895,0,0,0,0,0,0,0,-1,755,1576,-1.40491,-7.98947
-462,-552,-1.99573,11.4446,0,0,0,0,0,0,0,-1,762,1576,-1.99571,-11.4445
-455,-552,-0.424683,14.0929,0,0,0,0,0,0,0,-1,769,1576,-0.424664,-14.0929
-448,-552,-0.356445,14.9489,0.00744381,0.0244705,0.00807138,0.0276885,0.00422582,1.19142,0.017224,0.0461165,776,1576,-0.356423,-14.9489
-441,-552,-0.331177,15.8912,0.00459565,0.0179867,0.00608229,0.0203368,0.00224549,1.20207,0.0128748,0.0416734,783,1576,-0.33115,-15.8912
-434,-552,-0.425598,16.7225,0,0,0,0,0,0,0,-1,790,1576,-0.425603,-16.7225
-427,-552,-0.625244,16.8954,0.00072083,0.0089136,0.00404109,0.0105714,-0.000936983,1.18149,0.00737979,0.02814,797,1576,-0.625271,-16.8954
-420,-552,-0.592529,17.434,0.000237511,0.00635405,0.00280132,0.00744312,-0.000851555,1.20001,0.00526892,0.0221968,804,1576,-0.59255,-17.434
-413,-552,-0.589966,17.8707,4.42047e-05,0.00424702,0.00199336,0.00504205,-0.00075083,1.19129,0.00363757,0.0168276,811,1576,-0.589992,-17.8708
-406,-552,-0.592957,18.335,0.00019719,0.00300692,0.00143927,0.0036133,-0.000409198,1.17205,0.00255621,0.0127565,818,1576,-0.592961,-18.335
-399,-552,-0.644653,18.7654,0.000316039,0.00241752,0.0013557,0.003082,-0.000348443,1.11507,0.00218012,0.0140542,825,1576,-0.644657,-18.7653
-392,-552,-0.687012,19.209,0.00059903,0.00246122,0.00140285,0.00321385,-0.000153602,1.07838,0.00219556,0.0153924,832,1576,-0.687015,-19.209
-385,-552,-0.681091,19.6753,0.00118751,0.00315749,0.00157898,0.00403352,0.000311488,1.06427,0.00259143,0.0139608,839,1576,-0.681114,-19.6753
-378,-552,-0.684937,20.1294,0.00190495,0.00427441,0.00186505,0.00529921,0.00088016,1.06836,0.00327903,0.0150787,846,1576,-0.684932,-20.1294
-371,-552,-0.710266,20.6035,0.00262767,0.00532321,0.00209703,0.00646823,0.00148264,1.07101,0.00391272,0.0184691,853,1576,-0.710282,-20.6035
-364,-552,-0.704346,21.0358,0.00343036,0.00659415,0.00235019,0.00784523,0.00217928,1.08162,0.00467618,0.014183,860,1576,-0.704344,-21.0358
-357,-552,-0.680298,21.4698,0.00429846,0.0079818,0.00257804,0.00930842,0.00297185,1.09555,0.00549,0.00976317,867,1576,-0.680327,-21.4699
-350,-552,-0.670227,21.9333,0.00529749,0.00944594,0.00284766,0.0108947,0.00384871,1.10016,0.00637972,0.011237,874,1576,-0.670213,-21.9334
-343,-552,-0.685974,22.3444,0.00632692,0.0111428,0.00311839,0.0126747,0.00479499,1.11417,0.00738965,0.0155879,881,1576,-0.685961,-22.3444
-336,-552,-0.635925,22.6949,0.00748221,0.0129017,0.00352154,0.0146353,0.00574854,1.11332,0.00851422,0.0292027,888,1576,-0.635909,-22.695
-329,-552,-0.486877,23.1768,0,0,0,0,0,0,0,-1,895,1576,-0.486847,-23.1768
-322,-552,-0.509277,23.9327,0,0,0,0,0,0,0,-1,902,1576,-0.509305,-23.9327
-315,-552,0.342224,24.4038,0,0,0,0,0,0,0,-1,909,1576,0.342234,-24.4038
-308,-552,1.48743,24.9044,0,0,0,0,0,0,0,-1,916,1576,1.48745,-24.9045
-301,-552,1.39453,18.4995,0,0,0,0,0,0,0,-1,923,1576,1.3945,-18.4995
-294,-552,0.842163,13.7863,0,0,0,0,0,0,0,-1,930,1576,0.842149,-13.7863
-287,-552,-0.663757,13.3474,0,0,0,0,0,0,0,-1,937,1576,-0.663744,-13.3474
-280,-552,-5.47241,8.96765,0,0,0,0,0,0,0,-1,944,1576,-5.47239,-8.96766
-273,-552,1.64587,10.6685,0,0,0,0,0,0,0,-1,951,1576,1.6459,-10.6685
-266,-552,-1.32678,8.05688,0,0,0,0,0,0,0,-1,958,1576,-1.32677,-8.05683
-259,-552,-5.54321,8.31213,0,0,0,0,0,0,0,-1,965,1576,-5.54324,-8.31214
-252,-552,-1.93445,7.81543,0,0,0,0,0,0,0,-1,972,1576,-1.93445,-7.81546
-245,-552,-2.53613,6.92212,0,0,0,0,0,0,0,-1,979,1576,-2.53614,-6.92216
-238,-552,-6.5365,2.81885,0,0,0,0,0,0,0,-1,986,1576,-6.53649,-2.8188
-231,-552,-4.32239,4.34583,0,0,0,0,0,0,0,-1,993,1576,-4.32239,-4.34587
-224,-552,0,0,0,0,0,0,0,0,0,-1,1000,1576,0,0
-217,-552,0,0,0,0,0,0,0,0,0,-1,1007,1576,0,0
-210,-552,0,0,0,0,0,0,0,0,0,-1,1014,1576,0,0
-203,-552,0,0,0,0,0,0,0,0,0,-1,1021,1576,0,0
-196,-552,0,0,0,0,0,0,0,0,0,-1,1028,1576,0,0
-189,-552,0,0,0,0,0,0,0,0,0,-1,1035,1576,0,0
-182,-552,0,0,0,0,0,0,0,0,0,-1,1042,1576,0,0
-175,-552,0,0,0,0,0,0,0,0,0,-1,1049,1576,0,0
-168,-552,0,0,0,0,0,0,0,0,0,-1,1056,1576,0,0
-161,-552,0,0,0,0,0,0,0,0,0,-1,1063,1576,0,0
-154,-552,0,0,0,0,0,0,0,0,0,-1,1070,1576,0,0
-147,-552,0,0,0,0,0,0,0,0,0,-1,1077,1576,0,0
-140,-552,0,0,0,0,0,0,0,0,0,-1,1084,1576,0,0
-133,-552,0,0,0,0,0,0,0,0,0,-1,1091,1576,0,0
-126,-552,0,0,0,0,0,0,0,0,0,-1,1098,1576,0,0
-119,-552,0,0,0,0,0,0,0,0,0,-1,1105,1576,0,0
-112,-552,0,0,0,0,0,0,0,0,0,-1,1112,1576,0,0
-105,-552,0,0,0,0,0,0,0,0,0,-1,1119,1576,0,0
-98,-552,0,0,0,0,0,0,0,0,0,-1,1126,1576,0,0
-91,-552,0,0,0,0,0,0,0,0,0,-1,1133,1576,0,0
-84,-552,0,0,0,0,0,0,0,0,0,-1,1140,1576,0,0
-77,-552,0,0,0,0,0,0,0,0,0,-1,1147,1576,0,0
-70,-552,0,0,0,0,0,0,0,0,0,-1,1154,1576,0,0
-63,-552,0,0,0,0,0,0,0,0,0,-1,1161,1576,0,0
-56,-552,0,0,0,0,0,0,0,0,0,-1,1168,1576,0,0
-49,-552,0,0,0,0,0,0,0,0,0,-1,1175,1576,0,0
-42,-552,0,0,0,0,0,0,0,0,0,-1,1182,1576,0,0
-35,-552,0,0,0,0,0,0,0,0,0,-1,1189,1576,0,0
-28,-552,0,0,0,0,0,0,0,0,0,-1,1196,1576,0,0
-21,-552,0,0,0,0,0,0,0,0,0,-1,1203,1576,0,0
-14,-552,0,0,0,0,0,0,0,0,0,-1,1210,1576,0,0
-7,-552,0,0,0,0,0,0,0,0,0,-1,1217,1576,0,0
0,-552,0,0,0,0,0,0,0,0,0,-1,1224,1576,0,0
7,-552,0,0,0,0,0,0,0,0,0,-1,1231,1576,0,0
14,-552,0,0,0,0,0,0,0,0,0,-1,1238,1576,0,0
21,-552,0,0,0,0,0,0,0,0,0,-1,1245,1576,0,0
28,-552,0,0,0,0,0,0,0,0,0,-1,1252,1576,0,0
35,-552,0,0,0,0,0,0,0,0,0,-1,1259,1576,0,0
42,-552,0,0,0,0,0,0,0,0,0,-1,1266,1576,0,0
49,-552,0,0,0,0,0,0,0,0,0,-1,1273,1576,0,0
56,-552,0,0,0,0,0,0,0,0,0,-1,1280,1576,0,0
63,-552,0,0,0,0,0,0,0,0,0,-1,1287,1576,0,0
70,-552,0,0,0,0,0,0,0,0,0,-1,1294,1576,0,0
77,-552,0,0,0,0,0,0,0,0,0,-1,1301,1576,0,0
84,-552,0,0,0,0,0,0,0,0,0,-1,1308,1576,0,0
91,-552,0,0,0,0,0,0,0,0,0,-1,1315,1576,0,0
98,-552,0,0,0,0,0,0,0,0,0,-1,1322,1576,0,0
105,-552,0,0,0,0,0,0,0,0,0,-1,1329,1576,0,0
112,-552,0,0,0,0,0,0,0,0,0,-1,1336,1576,0,0
119,-552,0,0,0,0,0,0,0,0,0,-1,1343,1576,0,0
126,-552,0,0,0,0,0,0,0,0,0,-1,1350,1576,0,0
133,-552,0,0,0,0,0,0,0,0,0,-1,1357,1576,0,0
140,-552,0,0,0,0,0,0,0,0,0,-1,1364,1576,0,0
147,-552,0,0,0,0,0,0,0,0,0,-1,1371,1576,0,0
154,-552,0,0,0,0,0,0,0,0,0,-1,1378,1576,0,0
161,-552,0,0,0,0,0,0,0,0,0,-1,1385,1576,0,0
168,-552,0,0,0,0,0,0,0,0,0,-1,1392,1576,0,0
175,-552,0,0,0,0,0,0,0,0,0,-1,1399,1576,0,0
182,-552,0,0,0,0,0,0,0,0,0,-1,1406,1576,0,0
189,-552,0,0,0,0,0,0,0,0,0,-1,1413,1576,0,0
196,-552,0,0,0,0,0,0,0,0,0,-1,1420,1576,0,0
203,-552,0,0,0,0,0,0,0,0,0,-1,1427,1576,0,0
210,-552,0,0,0,0,0,0,0,0,0,-1,1434,1576,0,0
217,-552,0,0,0,0,0,0,0,0,0,-1,1441,1576,0,0
224,-552,0,0,0,0,0,0,0,0,0,-1,1448,1576,0,0
231,-552,0,0,0,0,0,0,0,0,0,-1,1455,1576,0,0
238,-552,0,0,0,0,0,0,0,0,0,-1,1462,1576,0,0
245,-552,0,0,0,0,0,0,0,0,0,-1,1469,1576,0,0
252,-552,0,0,0,0,0,0,0,0,0,-1,1476,1576,0,0
259,-552,0,0,0,0,0,0,0,0,0,-1,1483,1576,0,0
266,-552,0,0,0,0,0,0,0,0,0,-1,1490,1576,0,0
273,-552,0,0,0,0,0,0,0,0,0,-1,1497,1576,0,0
280,-552,0,0,0,0,0,0,0,0,0,-1,1504,1576,0,0
287,-552,0,0,0,0,0,0,0,0,0,-1,1511,1576,0,0
294,-552,0,0,0,0,0,0,0,0,0,-1,1518,1576,0,0
301,-552,0,0,0,0,0,0,0,0,0,-1,1525,1576,0,0
308,-552,0,0,0,0,0,0,0,0,0,-1,1532,1576,0,0
315,-552,0,0,0,0,0,0,0,0,0,-1,1539,1576,0,0
322,-552,0,0,0,0,0,0,0,0,0,-1,1546,1576,0,0
329,-552,0,0,0,0,0,0,0,0,0,-1,1553,1576,0,0
336,-552,0,0,0,0,0,0,0,0,0,-1,1560,1576,0,0
343,-552,0,0,0,0,0,0,0,0,0,-1,1567,1576,0,0
350,-552,4.97876,4.09888,0,0,0,0,0,0,0,-1,1574,1576,4.97875,-4.09883
357,-552,5.18469,4.10706,0,0,0,0,0,0,0,-1,1581,1576,5.1847,-4.10702
364,-552,5.80872,5.07031,0,0,0,0,0,0,0,-1,1588,1576,5.80874,-5.07037
371,-552,7.10657,5.64783,0,0,0,0,0,0,0,-1,1595,1576,7.10651,-5.64786
378,-552,6.44446,4.91492,0,0,0,0,0,0,0,-1,1602,1576,6.44448,-4.91496
385,-552,12.8276,3.16504,0,0,0,0,0,0,0,-1,1609,1576,12.8276,-3.16503
392,-552,12.1301,4.3363,0,0,0,0,0,0,0,-1,1616,1576,12.1302,-4.33631
399,-552,11.3486,5.6012,0,0,0,0,0,0,0,-1,1623,1576,11.3486,-5.60115
406,-552,10.7863,6.42542,0,0,0,0,0,0,0,-1,1630,1576,10.7863,-6.42536
413,-552,8.39307,10.365,0,0,0,0,0,0,0,-1,1637,1576,8.3931,-10.365
420,-552,10.2306,12.7225,0,0,0,0,0,0,0,-1,1644,1576,10.2305,-12.7226
427,-552,9.73267,14.783,0,0,0,0,0,0,0,-1,1651,1576,9.73269,-14.783
434,-552,12.0377,20.1364,0,0,0,0,0,0,0,-1,1658,1576,12.0377,-20.1364
441,-552,12.4963,21.5277,0,0,0,0,0,0,0,-1,1665,1576,12.4964,-21.5277
448,-552,12.9141,21.5482,0,0,0,0,0,0,0,-1,1672,1576,12.9141,-21.5482
455,-552,13.3318,21.5687,0,0,0,0,0,0,0,-1,1679,1576,13.3317,-21.5687
462,-552,12.745,20.5947,0,0,0,0,0,0,0,-1,1686,1576,12.745,-20.5947
469,-552,14.5868,24.0905,0,0,0,0,0,0,0,-1,1693,1576,14.5868,-24.0905
476,-552,14.9014,23.5444,0,0,0,0,0,0,0,-1,1700,1576,14.9014,-23.5445
483,-552,15.1217,22.8181,0.00374979,0.0115455,-0.00547171,0.0143657,0.00092954,-1.09489,0.00928285,0.028983,1707,1576,15.1217,-22.8181
490,-552,15.0812,22.4414,0.00324688,0.00889475,-0.0042919,0.0112084,0.000933208,-1.07638,0.00718145,0.0148326,1714,1576,15.0811,-22.4414
497,-552,15.1084,22.0159,0.00270025,0.00672108,-0.00329325,0.00856907,0.000852264,-1.05944,0.00545088,0.023356,1721,1576,15.1084,-22.0159
504,-552,15.1038,21.6191,0.00226075,0.00479734,-0.00250372,0.00633568,0.000722413,-1.01984,0.00400476,0.0240113,1728,1576,15.1038,-21.6192
511,-552,15.1096,21.1797,0.00164331,0.00310033,-0.00161839,0.00414662,0.000597022,-0.996885,0.00258846,0.016627,1735,1576,15.1096,-21.1796
518,-552,15.073,20.7686,0.000911303,0.00137932,-0.000658813,0.00184445,0.000446174,-0.956048,0.00111118,0.0151042,1742,1576,15.073,-20.7685
525,-552,15.0162,20.363,0.000172285,-0.000255308,0.000317815,0.000341522,-0.000424545,0.489312,0.000443154,0.0154729,1749,1576,15.0163,-20.3631
532,-552,15.0018,19.9341,-0.000549321,-0.00184326,0.00133876,0.000290603,-0.00268319,0.560315,0.00189311,0.0152034,1756,1576,15.0018,-19.934
539,-552,14.9814,19.5409,-0.00118576,-0.0035178,0.00241848,0.000333115,-0.00503668,0.560774,0.00347415,0.0179766,1763,1576,14.9815,-19.5409
546,-552,14.9598,19.1201,-0.00190835,-0.00530238,0.00363733,0.000408368,-0.0076191,0.567131,0.00522085,0.0213126,1770,1576,14.9598,-19.1201
553,-552,14.9908,18.6378,-0.00258653,-0.00717769,0.00490709,0.000535382,-0.0102996,0.566616,0.00705164,0.024648,1777,1576,14.9908,-18.6378
560,-552,14.9758,18.2806,-0.00308496,-0.00906774,0.00614662,0.000759541,-0.0129122,0.558934,0.00887218,0.0449792,1784,1576,14.9759,-18.2806
567,-552,15.0028,17.6278,0,0,0,0,0,0,0,-1,1791,1576,15.0028,-17.6277
574,-552,12.8835,14.8463,0,0,0,0,0,0,0,-1,1798,1576,12.8836,-14.8463
581,-552,9.74841,9.98645,0,0,0,0,0,0,0,-1,1805,1576,9.74847,-9.9864
588,-552,10.5619,9.34924,0,0,0,0,0,0,0,-1,1812,1576,10.5619,-9.34921
595,-552,5.36194,6.62744,0,0,0,0,0,0,0,-1,1819,1576,5.36193,-6.62742
602,-552,10.6863,4.31616,0,0,0,0,0,0,0,-1,1826,1576,10.6862,-4.31619
609,-552,12.146,3.18286,0,0,0,0,0,0,0,-1,1833,1576,12.1459,-3.18281
616,-552,13.8762,2.08167,0,0,0,0,0,0,0,-1,1840,1576,13.8763,-2.08167
623,-552,0,0,0,0,0,0,0,0,0,-1,1847,1576,0,0
630,-552,0,0,0,0,0,0,0,0,0,-1,1854,1576,0,0
637,-552,0,0,0,0,0,0,0,0,0,-1,1861,1576,0,0
644,-552,0,0,0,0,0,0,0,0,0,-1,1868,1576,0,0
651,-552,0,0,0,0,0,0,0,0,0,-1,1875,1576,0,0
658,-552,0,0,0,0,0,0,0,0,0,-1,1882,1576,0,0
665,-552,0,0,0,0,0,0,0,0,0,-1,1889,1576,0,0
672,-552,0,0,0,0,0,0,0,0,0,-1,1896,1576,0,0
679,-552,0,0,0,0,0,0,0,0,0,-1,1903,1576,0,0
686,-552,0,0,0,0,0,0,0,0,0,-1,1910,1576,0,0
693,-552,0,0,0,0,0,0,0,0,0,-1,1917,1576,0,0
700,-552,0,0,0,0,0,0,0,0,0,-1,1924,1576,0,0
707,-552,0,0,0,0,0,0,0,0,0,-1,1931,1576,0,0
714,-552,0,0,0,0,0,0,0,0,0,-1,1938,1576,0,0
721,-552,0,0,0,0,0,0,0,0,0,-1,1945,1576,0,0
728,-552,0,0,0,0,0,0,0,0,0,-1,1952,1576,0,0
735,-552,0,0,0,0,0,0,0,0,0,-1,1959,1576,0,0
742,-552,0,0,0,0,0,0,0,0,0,-1,1966,1576,0,0
749,-552,0,0,0,0,0,0,0,0,0,-1,1973,1576,0,0
756,-552,0,0,0,0,0,0,0,0,0,-1,1980,1576,0,0
763,-552,0,0,0,0,0,0,0,0,0,-1,1987,1576,0,0
770,-552,0,0,0,0,0,0,0,0,0,-1,1994,1576,0,0
777,-552,0,0,0,0,0,0,0,0,0,-1,2001,1576,0,0
784,-552,0,0,0,0,0,0,0,0,0,-1,2008,1576,0,0
791,-552,0,0,0,0,0,0,0,0,0,-1,2015,1576,0,0
798,-552,0,0,0,0,0,0,0,0,0,-1,2022,1576,0,0
805,-552,0,0,0,0,0,0,0,0,0,-1,2029,1576,0,0
812,-552,0,0,0,0,0,0,0,0,0,-1,2036,1576,0,0
-700,-559,0,0,0,0,0,0,0,0,0,-1,524,1583,0,0
-693,-559,0,0,0,0,0,0,0,0,0,-1,531,1583,0,0
-686,-559,0,0,0,0,0,0,0,0,0,-1,538,1583,0,0
-679,-559,0,0,0,0,0,0,0,0,0,-1,545,1583,0,0
-672,-559,0,0,0,0,0,0,0,0,0,-1,552,1583,0,0
-665,-559,0,0,0,0,0,0,0,0,0,-1,559,1583,0,0
-658,-559,0,0,0,0,0,0,0,0,0,-1,566,1583,0,0
-651,-559,0,0,0,0,0,0,0,0,0,-1,573,1583,0,0
-644,-559,0,0,0,0,0,0,0,0,0,-1,580,1583,0,0
-637,-559,0,0,0,0,0,0,0,0,0,-1,587,1583,0,0
-630,-559,0,0,0,0,0,0,0,0,0,-1,594,1583,0,0
-623,-559,0,0,0,0,0,0,0,0,0,-1,601,1583,0,0
-616,-559,0,0,0,0,0,0,0,0,0,-1,608,1583,0,0
-609,-559,0,0,0,0,0,0,0,0,0,-1,615,1583,0,0
-602,-559,0,0,0,0,0,0,0,0,0,-1,622,1583,0,0
-595,-559,0,0,0,0,0,0,0,0,0,-1,629,1583,0,0
-588,-559,0,0,0,0,0,0,0,0,0,-1,636,1583,0,0
-581,-559,0,0,0,0,0,0,0,0,0,-1,643,1583,0,0
-574,-559,0,0,0,0,0,0,0,0,0,-1,650,1583,0,0
-567,-559,0,0,0,0,0,0,0,0,0,-1,657,1583,0,0
-560,-559,0,0,0,0,0,0,0,0,0,-1,664,1583,0,0
-553,-559,0,0,0,0,0,0,0,0,0,-1,671,1583,0,0
-546,-559,0,0,0,0,0,0,0,0,0,-1,678,1583,0,0
-539,-559,0,0,0,0,0,0,0,0,0,-1,685,1583,0,0
-532,-559,0,0,0,0,0,0,0,0,0,-1,692,1583,0,0
-525,-559,0,0,0,0,0,0,0,0,0,-1,699,1583,0,0
-518,-559,0,0,0,0,0,0,0,0,0,-1,706,1583,0,0
-511,-559,0,0,0,0,0,0,0,0,0,-1,713,1583,0,0
-504,-559,0,0,0,0,0,0,0,0,0,-1,720,1583,0,0
-497,-559,0,0,0,0,0,0,0,0,0,-1,727,1583,0,0
-490,-559,-5.49835,4.47424,0,0,0,0,0,0,0,-1,734,1583,-5.49833,-4.4743
-483,-559,-5.24078,4.74561,0,0,0,0,0,0,0,-1,741,1583,-5.24079,-4.74563
-476,-559,-4.98022,4.99316,0,0,0,0,0,0,0,-1,748,1583,-4.98024,-4.99321
-469,-559,-4.6424,5.38062,0,0,0,0,0,0,0,-1,755,1583,-4.64237,-5.38058
-462,-559,-0.161865,6.49438,0,0,0,0,0,0,0,-1,762,1583,-0.161835,-6.49444
-455,-559,1.08826,7.02527,0,0,0,0,0,0,0,-1,769,1583,1.08823,-7.02529
-448,-559,0.107056,14.579,0,0,0,0,0,0,0,-1,776,1583,0.107069,-14.5789
-441,-559,0.113281,15.5858,0,0,0,0,0,0,0,-1,783,1583,0.113256,-15.5858
-434,-559,0.423584,16.548,0,0,0,0,0,0,0,-1,790,1583,0.423613,-16.548
-427,-559,-0.118713,16.7523,0,0,0,0,0,0,0,-1,797,1583,-0.118701,-16.7524
-420,-559,-0.213074,17.4259,-0.00017958,0.00748092,0.00314702,0.00860795,-0.0013066,1.2269,0.00622008,0.0407125,804,1583,-0.213049,-17.4259
-413,-559,-0.161499,17.8866,-0.000617836,0.00467305,0.00201172,0.00535106,-0.00129585,1.24572,0.0040687,0.0155257,811,1583,-0.161482,-17.8866
-406,-559,-0.157104,18.3506,-0.00061497,0.00289295,0.00118367,0.00325499,-0.000977009,1.27397,0.00255862,0.00914299,818,1583,-0.157126,-18.3505
-399,-559,-0.182495,18.8086,-0.000621204,0.00183361,0.000940273,0.00215238,-0.000939966,1.24395,0.00183053,0.0132253,825,1583,-0.182468,-18.8086
-392,-559,-0.253174,19.2295,-0.000434652,0.00144144,0.000869516,0.00178245,-0.000775663,1.19705,0.00151458,0.0168452,832,1583,-0.253151,-19.2294
-385,-559,-0.249451,19.6877,0.00010345,0.00191943,0.000951555,0.0023267,-0.000303818,1.16639,0.00166169,0.017045,839,1583,-0.249434,-19.6878
-378,-559,-0.222412,20.1522,0.000792633,0.00281462,0.00117875,0.00335654,0.00025071,1.13987,0.00215898,0.0150544,846,1583,-0.222436,-20.1523
-371,-559,-0.251465,20.6204,0.00150529,0.00364295,0.00137472,0.00431545,0.000832781,1.11583,0.00264347,0.0205172,853,1583,-0.251453,-20.6203
-364,-559,-0.243225,21.05,0.00231087,0.0046708,0.00161686,0.00549247,0.00148919,1.10062,0.00327994,0.0187304,860,1583,-0.243242,-21.05
-357,-559,-0.252136,21.4758,0.0031838,0.00579384,0.00186044,0.00676134,0.00221631,1.09125,0.00398009,0.0124425,867,1583,-0.252131,-21.4759
-350,-559,-0.259827,21.8728,0.00420329,0.00692812,0.00215046,0.00811141,0.00301999,1.06776,0.00473375,0.0102953,874,1583,-0.259853,-21.8728
-343,-559,-0.254028,22.3105,0.0052827,0.00828884,0.00251663,0.00971709,0.00385445,1.0546,0.00564996,0.0107196,881,1583,-0.254058,-22.3106
-336,-559,-0.301819,22.7101,0.00643354,0.00963005,0.00295515,0.0113915,0.00467213,1.03329,0.00661217,0.0194498,888,1583,-0.301842,-22.71
-329,-559,-0.200562,23.3461,0.00767265,0.0111126,0.00369219,0.0134658,0.00531948,1.00337,0.00783138,0.0331083,895,1583,-0.200586,-23.346
-322,-559,-0.0432739,24.0856,0,0,0,0,0,0,0,-1,902,1583,-0.0432967,-24.0855
-315,-559,0.245972,24.1453,0,0,0,0,0,0,0,-1,909,1583,0.245943,-24.1452
-308,-559,0.0997314,24.8551,0,0,0,0,0,0,0,-1,916,1583,0.0997394,-24.8551
-301,-559,1.97064,24.717,0,0,0,0,0,0,0,-1,923,1583,1.97066,-24.717
-294,-559,0.945129,18.5165,0,0,0,0,0,0,0,-1,930,1583,0.945117,-18.5165
-287,-559,-0.11792,15.4912,0,0,0,0,0,0,0,-1,937,1583,-0.117939,-15.4912
-280,-559,0.191467,13.5093,0,0,0,0,0,0,0,-1,944,1583,0.191441,-13.5093
-273,-559,2.12836,10.3059,0,0,0,0,0,0,0,-1,951,1583,2.12839,-10.3059
-266,-559,-0.597046,6.68933,0,0,0,0,0,0,0,-1,958,1583,-0.597031,-6.68937
-259,-559,-7.00311,8.62756,0,0,0,0,0,0,0,-1,965,1583,-7.00312,-8.6275
-252,-559,-9.4483,2.87805,0,0,0,0,0,0,0,-1,972,1583,-9.44829,-2.87805
-245,-559,-4.80804,7.1803,0,0,0,0,0,0,0,-1,979,1583,-4.80804,-7.18027
-238,-559,-8.45764,2.54858,0,0,0,0,0,0,0,-1,986,1583,-8.45763,-2.54862
-231,-559,-5.86914,4.34021,0,0,0,0,0,0,0,-1,993,1583,-5.86914,-4.34019
-224,-559,-3.30505,6.22864,0,0,0,0,0,0,0,-1,1000,1583,-3.30505,-6.22859
-217,-559,0,0,0,0,0,0,0,0,0,-1,1007,1583,0,0
-210,-559,0,0,0,0,0,0,0,0,0,-1,1014,1583,0,0
-203,-559,0,0,0,0,0,0,0,0,0,-1,1021,1583,0,0
-196,-559,0,0,0,0,0,0,0,0,0,-1,1028,1583,0,0
-189,-559,0,0,0,0,0,0,0,0,0,-1,1035,1583,0,0
-182,-559,0,0,0,0,0,0,0,0,0,-1,1042,1583,0,0
-175,-559,0,0,0,0,0,0,0,0,0,-1,1049,1583,0,0
-168,-559,0,0,0,0,0,0,0,0,0,-1,1056,1583,0,0
-161,-559,0,0,0,0,0,0,0,0,0,-1,1063,1583,0,0
-154,-559,0,0,0,0,0,0,0,0,0,-1,1070,1583,0,0
-147,-559,0,0,0,0,0,0,0,0,0,-1,1077,1583,0,0
-140,-559,0,0,0,0,0,0,0,0,0,-1,1084,1583,0,0
-133,-559,0,0,0,0,0,0,0,0,0,-1,1091,1583,0,0
-126,-559,0,0,0,0,0,0,0,0,0,-1,1098,1583,0,0
-119,-559,0,0,0,0,0,0,0,0,0,-1,1105,1583,0,0
-112,-559,0,0,0,0,0,0,0,0,0,-1,1112,1583,0,0
-105,-559,0,0,0,0,0,0,0,0,0,-1,1119,1583,0,0
-98,-559,0,0,0,0,0,0,0,0,0,-1,1126,1583,0,0
-91,-559,0,0,0,0,0,0,0,0,0,-1,1133,1583,0,0
-84,-559,0,0,0,0,0,0,0,0,0,-1,1140,1583,0,0
-77,-559,0,0,0,0,0,0,0,0,0,-1,1147,1583,0,0
-70,-559,0,0,0,0,0,0,0,0,0,-1,1154,1583,0,0
-63,-559,0,0,0,0,0,0,0,0,0,-1,1161,1583,0,0
-56,-559,0,0,0,0,0,0,0,0,0,-1,1168,1583,0,0
-49,-559,0,0,0,0,0,0,0,0,0,-1,1175,1583,0,0
-42,-559,0,0,0,0,0,0,0,0,0,-1,1182,1583,0,0
-35,-559,0,0,0,0,0,0,0,0,0,-1,1189,1583,0,0
-28,-559,0,0,0,0,0,0,0,0,0,-1,1196,1583,0,0
-21,-559,0,0,0,0,0,0,0,0,0,-1,1203,1583,0,0
-14,-559,0,0,0,0,0,0,0,0,0,-1,1210,1583,0,0
-7,-559,0,0,0,0,0,0,0,0,0,-1,1217,1583,0,0
0,-559,0,0,0,0,0,0,0,0,0,-1,1224,1583,0,0
7,-559,0,0,0,0,0,0,0,0,0,-1,1231,1583,0,0
14,-559,0,0,0,0,0,0,0,0,0,-1,1238,1583,0,0
21,-559,0,0,0,0,0,0,0,0,0,-1,1245,1583,0,0
28,-559,0,0,0,0,0,0,0,0,0,-1,1252,1583,0,0
35,-559,0,0,0,0,0,0,0,0,0,-1,1259,1583,0,0
42,-559,0,0,0,0,0,0,0,0,0,-1,1266,1583,0,0
49,-559,0,0,0,0,0,0,0,0,0,-1,1273,1583,0,0
56,-559,0,0,0,0,0,0,0,0,0,-1,1280,1583,0,0
63,-559,0,0,0,0,0,0,0,0,0,-1,1287,1583,0,0
70,-559,0,0,0,0,0,0,0,0,0,-1,1294,1583,0,0
77,-559,0,0,0,0,0,0,0,0,0,-1,1301,1583,0,0
84,-559,0,0,0,0,0,0,0,0,0,-1,1308,1583,0,0
91,-559,0,0,0,0,0,0,0,0,0,-1,1315,1583,0,0
98,-559,0,0,0,0,0,0,0,0,0,-1,1322,1583,0,0
105,-559,0,0,0,0,0,0,0,0,0,-1,1329,1583,0,0
112,-559,0,0,0,0,0,0,0,0,0,-1,1336,1583,0,0
119,-559,0,0,0,0,0,0,0,0,0,-1,1343,1583,0,0
126,-559,0,0,0,0,0,0,0,0,0,-1,1350,1583,0,0
133,-559,0,0,0,0,0,0,0,0,0,-1,1357,1583,0,0
140,-559,0,0,0,0,0,0,0,0,0,-1,1364,1583,0,0
147,-559,0,0,0,0,0,0,0,0,0,-1,1371,1583,0,0
154,-559,0,0,0,0,0,0,0,0,0,-1,1378,1583,0,0
161,-559,0,0,0,0,0,0,0,0,0,-1,1385,1583,0,0
168,-559,0,0,0,0,0,0,0,0,0,-1,1392,1583,0,0
175,-559,0,0,0,0,0,0,0,0,0,-1,1399,1583,0,0
182,-559,0,0,0,0,0,0,0,0,0,-1,1406,1583,0,0
189,-559,0,0,0,0,0,0,0,0,0,-1,1413,1583,0,0
196,-559,0,0,0,0,0,0,0,0,0,-1,1420,1583,0,0
203,-559,0,0,0,0,0,0,0,0,0,-1,1427,1583,0,0
210,-559,0,0,0,0,0,0,0,0,0,-1,1434,1583,0,0
217,-559,0,0,0,0,0,0,0,0,0,-1,1441,1583,0,0
224,-559,0,0,0,0,0,0,0,0,0,-1,1448,1583,0,0
231,-559,0,0,0,0,0,0,0,0,0,-1,1455,1583,0,0
238,-559,0,0,0,0,0,0,0,0,0,-1,1462,1583,0,0
245,-559,0,0,0,0,0,0,0,0,0,-1,1469,1583,0,0
252,-559,0,0,0,0,0,0,0,0,0,-1,1476,1583,0,0
259,-559,0,0,0,0,0,0,0,0,0,-1,1483,1583,0,0
266,-559,0,0,0,0,0,0,0,0,0,-1,1490,1583,0,0
273,-559,0,0,0,0,0,0,0,0,0,-1,1497,1583,0,0
280,-559,0,0,0,0,0,0,0,0,0,-1,1504,1583,0,0
287,-559,0,0,0,0,0,0,0,0,0,-1,1511,1583,0,0
294,-559,0,0,0,0,0,0,0,0,0,-1,1518,1583,0,0
301,-559,0,0,0,0,0,0,0,0,0,-1,1525,1583,0,0
308,-559,0,0,0,0,0,0,0,0,0,-1,1532,1583,0,0
315,-559,0,0,0,0,0,0,0,0,0,-1,1539,1583,0,0
322,-559,0,0,0,0,0,0,0,0,0,-1,1546,1583,0,0
329,-559,0,0,0,0,0,0,0,0,0,-1,1553,1583,0,0
336,-559,5.97668,3.09827,0,0,0,0,0,0,0,-1,1560,1583,5.97667,-3.09824
343,-559,5.44824,2.88696,0,0,0,0,0,0,0,-1,1567,1583,5.44819,-2.88693
350,-559,4.69775,3.27051,0,0,0,0,0,0,0,-1,1574,1583,4.69771,-3.27048
357,-559,3.88025,3.60999,0,0,0,0,0,0,0,-1,1581,1583,3.88027,-3.60998
364,-559,5.00928,5.32605,0,0,0,0,0,0,0,-1,1588,1583,5.00928,-5.32607
371,-559,1.84436,2.52441,0,0,0,0,0,0,0,-1,1595,1583,1.84441,-2.52447
378,-559,6.34753,1.53137,0,0,0,0,0,0,0,-1,1602,1583,6.34752,-1.53139
385,-559,6.95911,1.48181,0,0,0,0,0,0,0,-1,1609,1583,6.95916,-1.48175
392,-559,11.6949,4.77734,0,0,0,0,0,0,0,-1,1616,1583,11.6949,-4.77731
399,-559,11.1104,5.56909,0,0,0,0,0,0,0,-1,1623,1583,11.1103,-5.56905
406,-559,10.3385,6.48657,0,0,0,0,0,0,0,-1,1630,1583,10.3385,-6.48661
413,-559,9.76147,6.97571,0,0,0,0,0,0,0,-1,1637,1583,9.76143,-6.97574
420,-559,7.77124,10.5851,0,0,0,0,0,0,0,-1,1644,1583,7.77128,-10.585
427,-559,10.1022,12.5565,0,0,0,0,0,0,0,-1,1651,1583,10.1021,-12.5565
434,-559,9.62769,14.6309,0,0,0,0,0,0,0,-1,1658,1583,9.62771,-14.6309
441,-559,12.6149,21.3678,0,0,0,0,0,0,0,-1,1665,1583,12.6149,-21.3678
448,-559,13.7046,22.6677,0,0,0,0,0,0,0,-1,1672,1583,13.7046,-22.6677
455,-559,13.9427,23.0509,0,0,0,0,0,0,0,-1,1679,1583,13.9427,-23.0509
462,-559,14.4294,24.5184,0,0,0,0,0,0,0,-1,1686,1583,14.4295,-24.5184
469,-559,14.5039,23.8948,0.00352031,0.0147224,-0.00611815,0.0174161,0.00082657,-1.15605,0.0113453,0.0395175,1693,1583,14.5039,-23.8947
476,-559,14.5847,23.3611,0.0034644,0.0118366,-0.00524537,0.0143615,0.000939507,-1.12217,0.00927701,0.0187334,1700,1583,14.5848,-23.3611
483,-559,14.6782,22.8546,0.00328705,0.00934392,-0.00438258,0.0116426,0.000988341,-1.08773,0.00745418,0.0136053,1707,1583,14.6783,-22.8546
490,-559,14.6565,22.4469,0.00274506,0.00708222,-0.00337317,0.00892376,0.000903522,-1.07108,0.00567204,0.0158051,1714,1583,14.6565,-22.4469
497,-559,14.6451,22.037,0.00211965,0.00519324,-0.00248082,0.0065747,0.000738187,-1.0627,0.00415897,0.0190293,1721,1583,14.6451,-22.037
504,-559,14.6514,21.6373,0.00151261,0.00336087,-0.00164108,0.00432013,0.00055335,-1.04183,0.0027145,0.0230656,1728,1583,14.6514,-21.6374
511,-559,14.6411,21.197,0.00077309,0.00167759,-0.000696539,0.00205582,0.000394859,-1.07333,0.00125972,0.020102,1735,1583,14.6412,-21.1971
518,-559,14.6544,20.7809,-4.57462e-05,-2.42009e-05,0.000301408,0.000266627,-0.000336574,0.803261,0.000349038,0.0139102,1742,1583,14.6545,-20.7809
525,-559,14.6205,20.3707,-0.000864232,-0.00170944,0.0013583,0.000135686,-0.00270935,0.634582,0.00185312,0.0132171,1749,1583,14.6204,-20.3707
532,-559,14.5898,19.9591,-0.00167788,-0.00345144,0.00252123,0.000107969,-0.0052373,0.616293,0.00352807,0.0140015,1756,1583,14.5899,-19.9592
539,-559,14.5718,19.5514,-0.00248096,-0.00538141,0.00383212,0.000166162,-0.00802854,0.604507,0.0054086,0.0177469,1763,1583,14.5718,-19.5513
546,-559,14.5553,19.1185,-0.00341396,-0.00756499,0.005368,0.0002658,-0.0112447,0.600927,0.00758665,0.0162179,1770,1583,14.5553,-19.1185
553,-559,14.6277,18.6541,-0.00431882,-0.0099459,0.00704314,0.000451959,-0.0147167,0.595372,0.00996519,0.0206667,1777,1583,14.6277,-18.654
560,-559,14.6271,18.4174,-0.00507567,-0.0124999,0.00879608,0.000759523,-0.0183351,0.585727,0.0124843,0.040442,1784,1583,14.6271,-18.4174
567,-559,14.5785,18.021,0,0,0,0,0,0,0,-1,1791,1583,14.5785,-18.021
574,-559,10.5109,10.7317,0,0,0,0,0,0,0,-1,1798,1583,10.5108,-10.7317
581,-559,5.97095,5.96179,0,0,0,0,0,0,0,-1,1805,1583,5.97093,-5.96181
588,-559,5.79102,5.89954,0,0,0,0,0,0,0,-1,1812,1583,5.79098,-5.89949
595,-559,5.79089,6.24231,0,0,0,0,0,0,0,-1,1819,1583,5.7909,-6.24227
602,-559,12.478,2.35669,0,0,0,0,0,0,0,-1,1826,1583,12.4781,-2.35675
609,-559,14.0479,1.22681,0,0,0,0,0,0,0,-1,1833,1583,14.0479,-1.22681
616,-559,0,0,0,0,0,0,0,0,0,-1,1840,1583,0,0
623,-559,0,0,0,0,0,0,0,0,0,-1,1847,1583,0,0
630,-559,0,0,0,0,0,0,0,0,0,-1,1854,1583,0,0
637,-559,0,0,0,0,0,0,0,0,0,-1,1861,1583,0,0
644,-559,0,0,0,0,0,0,0,0,0,-1,1868,1583,0,0
651,-559,0,0,0,0,0,0,0,0,0,-1,1875,1583,0,0
658,-559,0,0,0,0,0,0,0,0,0,-1,1882,1583,0,0
665,-559,0,0,0,0,0,0,0,0,0,-1,1889,1583,0,0
672,-559,0,0,0,0,0,0,0,0,0,-1,1896,1583,0,0
679,-559,0,0,0,0,0,0,0,0,0,-1,1903,1583,0,0
686,-559,0,0,0,0,0,0,0,0,0,-1,1910,1583,0,0
693,-559,0,0,0,0,0,0,0,0,0,-1,1917,1583,0,0
700,-559,0,0,0,0,0,0,0,0,0,-1,1924,1583,0,0
707,-559,0,0,0,0,0,0,0,0,0,-1,1931,1583,0,0
714,-559,0,0,0,0,0,0,0,0,0,-1,1938,1583,0,0
721,-559,0,0,0,0,0,0,0,0,0,-1,1945,1583,0,0
728,-559,0,0,0,0,0,0,0,0,0,-1,1952,1583,0,0
735,-559,0,0,0,0,0,0,0,0,0,-1,1959,1583,0,0
742,-559,0,0,0,0,0,0,0,0,0,-1,1966,1583,0,0
749,-559,0,0,0,0,0,0,0,0,0,-1,1973,1583,0,0
756,-559,0,0,0,0,0,0,0,0,0,-1,1980,1583,0,0
763,-559,0,0,0,0,0,0,0,0,0,-1,1987,1583,0,0
770,-559,0,0,0,0,0,0,0,0,0,-1,1994,1583,0,0
777,-559,0,0,0,0,0,0,0,0,0,-1,2001,1583,0,0
784,-559,0,0,0,0,0,0,0,0,0,-1,2008,1583,0,0
791,-559,0,0,0,0,0,0,0,0,0,-1,2015,1583,0,0
798,-559,0,0,0,0,0,0,0,0,0,-1,2022,1583,0,0
805,-559,0,0,0,0,0,0,0,0,0,-1,2029,1583,0,0
812,-559,0,0,0,0,0,0,0,0,0,-1,2036,1583,0,0
-700,-566,0,0,0,0,0,0,0,0,0,-1,524,1590,0,0
-693,-566,0,0,0,0,0,0,0,0,0,-1,531,1590,0,0
-686,-566,0,0,0,0,0,0,0,0,0,-1,538,1590,0,0
-679,-566,0,0,0,0,0,0,0,0,0,-1,545,1590,0,0
-672,-566,0,0,0,0,0,0,0,0,0,-1,552,1590,0,0
-665,-566,0,0,0,0,0,0,0,0,0,-1,559,1590,0,0
-658,-566,0,0,0,0,0,0,0,0,0,-1,566,1590,0,0
-651,-566,0,0,0,0,0,0,0,0,0,-1,573,1590,0,0
-644,-566,0,0,0,0,0,0,0,0,0,-1,580,1590,0,0
-637,-566,0,0,0,0,0,0,0,0,0,-1,587,1590,0,0
-630,-566,0,0,0,0,0,0,0,0,0,-1,594,1590,0,0
-623,-566,0,0,0,0,0,0,0,0,0,-1,601,1590,0,0
-616,-566,0,0,0,0,0,0,0,0,0,-1,608,1590,0,0
-609,-566,0,0,0,0,0,0,0,0,0,-1,615,1590,0,0
-602,-566,0,0,0,0,0,0,0,0,0,-1,622,1590,0,0
-595,-566,0,0,0,0,0,0,0,0,0,-1,629,1590,0,0
-588,-566,0,0,0,0,0,0,0,0,0,-1,636,1590,0,0
-581,-566,0,0,0,0,0,0,0,0,0,-1,643,1590,0,0
-574,-566,0,0,0,0,0,0,0,0,0,-1,650,1590,0,0
-567,-566,0,0,0,0,0,0,0,0,0,-1,657,1590,0,0
-560,-566,0,0,0,0,0,0,0,0,0,-1,664,1590,0,0
-553,-566,0,0,0,0,0,0,0,0,0,-1,671,1590,0,0
-546,-566,0,0,0,0,0,0,0,0,0,-1,678,1590,0,0
-539,-566,0,0,0,0,0,0,0,0,0,-1,685,1590,0,0
-532,-566,0,0,0,0,0,0,0,0,0,-1,692,1590,0,0
-525,-566,0,0,0,0,0,0,0,0,0,-1,699,1590,0,0
-518,-566,0,0,0,0,0,0,0,0,0,-1,706,1590,0,0
-511,-566,0,0,0,0,0,0,0,0,0,-1,713,1590,0,0
-504,-566,0,0,0,0,0,0,0,0,0,-1,720,1590,0,0
-497,-566,0,0,0,0,0,0,0,0,0,-1,727,1590,0,0
-490,-566,0,0,0,0,0,0,0,0,0,-1,734,1590,0,0
-483,-566,-7.17084,2.78613,0,0,0,0,0,0,0,-1,741,1590,-7.17083,-2.78618
-476,-566,-7.13971,2.87183,0,0,0,0,0,0,0,-1,748,1590,-7.13971,-2.87184
-469,-566,-6.43829,3.2998,0,0,0,0,0,0,0,-1,755,1590,-6.43829,-3.2998
-462,-566,-0.459106,3.89343,0,0,0,0,0,0,0,-1,762,1590,-0.459095,-3.89341
-455,-566,0.280212,4.74023,0,0,0,0,0,0,0,-1,769,1590,0.280207,-4.74023
-448,-566,0.436951,5.51306,0,0,0,0,0,0,0,-1,776,1590,0.436971,-5.51301
-441,-566,-0.440735,12.4063,0,0,0,0,0,0,0,-1,783,1590,-0.440753,-12.4062
-434,-566,0.848999,16.6404,0,0,0,0,0,0,0,-1,790,1590,0.848998,-16.6404
-427,-566,-0.0559082,16.3832,0,0,0,0,0,0,0,-1,797,1590,-0.0559087,-16.3831
-420,-566,0.145874,17.3711,0,0,0,0,0,0,0,-1,804,1590,0.145863,-17.3711
-413,-566,0.271606,17.9031,-0.00137903,0.00516587,0.00210219,0.00578291,-0.00199607,1.28529,0.00466521,0.0255192,811,1590,0.271584,-17.9031
-406,-566,0.282104,18.3595,-0.00151762,0.00285969,0.00101642,0.0030842,-0.00174212,1.35341,0.00282216,0.0111095,818,1590,0.282082,-18.3595
-399,-566,0.265991,18.8215,-0.00162497,0.00137112,0.00063246,0.00149916,-0.00175301,1.37105,0.00187955,0.0102319,825,1590,0.265998,-18.8215
-392,-566,0.243408,19.2684,-0.00149748,0.000604548,0.000467396,0.00070379,-0.00159672,1.36157,0.00136114,0.0128712,832,1590,0.243425,-19.2685
-385,-566,0.251831,19.7344,-0.00098717,0.000907372,0.000482785,0.00102331,-0.0011031,1.33512,0.00122797,0.0154904,839,1590,0.251815,-19.7344
-378,-566,0.23407,20.2032,-0.000309127,0.0016033,0.000669039,0.00181412,-0.000519943,1.26554,0.00141494,0.0158512,846,1590,0.234044,-20.2032
-371,-566,0.170471,20.6523,0.000412956,0.00225558,0.000847681,0.00258621,8.23183e-05,1.1989,0.00169737,0.0207174,853,1590,0.170491,-20.6524
-364,-566,0.15033,21.0887,0.00123079,0.0030924,0.00109136,0.00359598,0.000727211,1.13848,0.00219544,0.0213071,860,1590,0.150301,-21.0887
-357,-566,0.127808,21.4646,0.00211297,0.00402436,0.00135297,0.00472513,0.0014122,1.09289,0.00280066,0.0191795,867,1590,0.1278,-21.4646
-350,-566,0.123718,21.8601,0.00313312,0.00494089,0.00165025,0.00591858,0.00215543,1.03595,0.00345886,0.0227523,874,1590,0.123725,-21.8602
-343,-566,0.174805,22.2764,0.00421611,0.00606143,0.00205944,0.00739545,0.00288209,0.995999,0.00430425,0.0252874,881,1590,0.174795,-22.2764
-336,-566,0.102356,22.719,0.00535603,0.00715914,0.0025211,0.00893504,0.00358013,0.957115,0.00519246,0.0255337,888,1590,0.102331,-22.719
-329,-566,0.167175,23.093,0.00650396,0.00834616,0.00319972,0.0107547,0.0040954,0.925543,0.00626778,0.0215858,895,1590,0.167193,-23.093
-322,-566,0.2547,23.6505,0.00763753,0.00961071,0.00411277,0.0128536,0.00439467,0.903116,0.00754366,0.0305973,902,1590,0.254689,-23.6505
-315,-566,0.352295,24.3428,0,0,0,0,0,0,0,-1,909,1590,0.352317,-24.3427
-308,-566,0.645569,24.8159,0,0,0,0,0,0,0,-1,916,1590,0.645562,-24.8159
-301,-566,1.28174,25.5448,0,0,0,0,0,0,0,-1,923,1590,1.28171,-25.5448
-294,-566,0.741455,25.3229,0,0,0,0,0,0,0,-1,930,1590,0.741475,-25.3229
-287,-566,1.25391,23.4589,0,0,0,0,0,0,0,-1,937,1590,1.2539,-23.4589
-280,-566,1.59406,17.8762,0,0,0,0,0,0,0,-1,944,1590,1.59405,-17.8762
-273,-566,0.49762,11.2427,0,0,0,0,0,0,0,-1,951,1590,0.497591,-11.2426
-266,-566,0.392151,6.90295,0,0,0,0,0,0,0,-1,958,1590,0.392151,-6.90294
-259,-566,0.343628,6.47437,0,0,0,0,0,0,0,-1,965,1590,0.34363,-6.47438
-252,-566,-7.68311,1.01343,0,0,0,0,0,0,0,-1,972,1590,-7.68308,-1.01348
-245,-566,-11.1835,1.97522,0,0,0,0,0,0,0,-1,979,1590,-11.1835,-1.97527
-238,-566,-10.4883,2.40491,0,0,0,0,0,0,0,-1,986,1590,-10.4883,-2.40487
-231,-566,-7.41827,4.22803,0,0,0,0,0,0,0,-1,993,1590,-7.41827,-4.22803
-224,-566,-4.67188,6.30859,0,0,0,0,0,0,0,-1,1000,1590,-4.67185,-6.30853
-217,-566,-2.82867,7.52527,0,0,0,0,0,0,0,-1,1007,1590,-2.82869,-7.52531
-210,-566,-1.03436,8.67737,0,0,0,0,0,0,0,-1,1014,1590,-1.03439,-8.67733
-203,-566,0,0,0,0,0,0,0,0,0,-1,1021,1590,0,0
-196,-566,0,0,0,0,0,0,0,0,0,-1,1028,1590,0,0
-189,-566,0,0,0,0,0,0,0,0,0,-1,1035,1590,0,0
-182,-566,0,0,0,0,0,0,0,0,0,-1,1042,1590,0,0
-175,-566,0,0,0,0,0,0,0,0,0,-1,1049,1590,0,0
-168,-566,0,0,0,0,0,0,0,0,0,-1,1056,1590,0,0
-161,-566,0,0,0,0,0,0,0,0,0,-1,1063,1590,0,0
-154,-566,0,0,0,0,0,0,0,0,0,-1,1070,1590,0,0
-147,-566,0,0,0,0,0,0,0,0,0,-1,1077,1590,0,0
-140,-566,0,0,0,0,0,0,0,0,0,-1,1084,1590,0,0
-133,-566,0,0,0,0,0,0,0,0,0,-1,1091,1590,0,0
-126,-566,0,0,0,0,0,0,0,0,0,-1,1098,1590,0,0
-119,-566,0,0,0,0,0,0,0,0,0,-1,1105,1590,0,0
-112,-566,0,0,0,0,0,0,0,0,0,-1,1112,1590,0,0
-105,-566,0,0,0,0,0,0,0,0,0,-1,1119,1590,0,0
-98,-566,0,0,0,0,0,0,0,0,0,-1,1126,1590,0,0
-91,-566,0,0,0,0,0,0,0,0,0,-1,1133,1590,0,0
-84,-566,0,0,0,0,0,0,0,0,0,-1,1140,1590,0,0
-77,-566,0,0,0,0,0,0,0,0,0,-1,1147,1590,0,0
-70,-566,0,0,0,0,0,0,0,0,0,-1,1154,1590,0,0
-63,-566,0,0,0,0,0,0,0,0,0,-1,1161,1590,0,0
-56,-566,0,0,0,0,0,0,0,0,0,-1,1168,1590,0,0
-49,-566,0,0,0,0,0,0,0,0,0,-1,1175,1590,0,0
-42,-566,0,0,0,0,0,0,0,0,0,-1,1182,1590,0,0
-35,-566,0,0,0,0,0,0,0,0,0,-1,1189,1590,0,0
-28,-566,0,0,0,0,0,0,0,0,0,-1,1196,1590,0,0
-21,-566,0,0,0,0,0,0,0,0,0,-1,1203,1590,0,0
-14,-566,0,0,0,0,0,0,0,0,0,-1,1210,1590,0,0
-7,-566,0,0,0,0,0,0,0,0,0,-1,1217,1590,0,0
0,-566,0,0,0,0,0,0,0,0,0,-1,1224,1590,0,0
7,-566,0,0,0,0,0,0,0,0,0,-1,1231,1590,0,0
14,-566,0,0,0,0,0,0,0,0,0,-1,1238,1590,0,0
21,-566,0,0,0,0,0,0,0,0,0,-1,1245,1590,0,0
28,-566,0,0,0,0,0,0,0,0,0,-1,1252,1590,0,0
35,-566,0,0,0,0,0,0,0,0,0,-1,1259,1590,0,0
42,-566,0,0,0,0,0,0,0,0,0,-1,1266,1590,0,0
49,-566,0,0,0,0,0,0,0,0,0,-1,1273,1590,0,0
56,-566,0,0,0,0,0,0,0,0,0,-1,1280,1590,0,0
63,-566,0,0,0,0,0,0,0,0,0,-1,1287,1590,0,0
70,-566,0,0,0,0,0,0,0,0,0,-1,1294,1590,0,0
77,-566,0,0,0,0,0,0,0,0,0,-1,1301,1590,0,0
84,-566,0,0,0,0,0,0,0,0,0,-1,1308,1590,0,0
91,-566,0,0,0,0,0,0,0,0,0,-1,1315,1590,0,0
98,-566,0,0,0,0,0,0,0,0,0,-1,1322,1590,0,0
105,-566,0,0,0,0,0,0,0,0,0,-1,1329,1590,0,0
112,-566,0,0,0,0,0,0,0,0,0,-1,1336,1590,0,0
119,-566,0,0,0,0,0,0,0,0,0,-1,1343,1590,0,0
126,-566,0,0,0,0,0,0,0,0,0,-1,1350,1590,0,0
133,-566,0,0,0,0,0,0,0,0,0,-1,1357,1590,0,0
140,-566,0,0,0,0,0,0,0,0,0,-1,1364,1590,0,0
147,-566,0,0,0,0,0,0,0,0,0,-1,1371,1590,0,0
154,-566,0,0,0,0,0,0,0,0,0,-1,1378,1590,0,0
161,-566,0,0,0,0,0,0,0,0,0,-1,1385,1590,0,0
168,-566,0,0,0,0,0,0,0,0,0,-1,1392,1590,0,0
175,-566,0,0,0,0,0,0,0,0,0,-1,1399,1590,0,0
182,-566,0,0,0,0,0,0,0,0,0,-1,1406,1590,0,0
189,-566,0,0,0,0,0,0,0,0,0,-1,1413,1590,0,0
196,-566,0,0,0,0,0,0,0,0,0,-1,1420,1590,0,0
203,-566,0,0,0,0,0,0,0,0,0,-1,1427,1590,0,0
210,-566,0,0,0,0,0,0,0,0,0,-1,1434,1590,0,0
217,-566,0,0,0,0,0,0,0,0,0,-1,1441,1590,0,0
224,-566,0,0,0,0,0,0,0,0,0,-1,1448,1590,0,0
231,-566,0,0,0,0,0,0,0,0,0,-1,1455,1590,0,0
238,-566,0,0,0,0,0,0,0,0,0,-1,1462,1590,0,0
245,-566,0,0,0,0,0,0,0,0,0,-1,1469,1590,0,0
252,-566,0,0,0,0,0,0,0,0,0,-1,1476,1590,0,0
259,-566,0,0,0,0,0,0,0,0,0,-1,1483,1590,0,0
266,-566,0,0,0,0,0,0,0,0,0,-1,1490,1590,0,0
273,-566,0,0,0,0,0,0,0,0,0,-1,1497,1590,0,0
280,-566,0,0,0,0,0,0,0,0,0,-1,1504,1590,0,0
287,-566,0,0,0,0,0,0,0,0,0,-1,1511,1590,0,0
294,-566,0,0,0,0,0,0,0,0,0,-1,1518,1590,0,0
301,-566,0,0,0,0,0,0,0,0,0,-1,1525,1590,0,0
308,-566,0,0,0,0,0,0,0,0,0,-1,1532,1590,0,0
315,-566,0,0,0,0,0,0,0,0,0,-1,1539,1590,0,0
322,-566,6.07983,4.44873,0,0,0,0,0,0,0,-1,1546,1590,6.07983,-4.44873
329,-566,5.77026,3.47534,0,0,0,0,0,0,0,-1,1553,1590,5.77026,-3.47535
336,-566,5.41138,2.62915,0,0,0,0,0,0,0,-1,1560,1590,5.41138,-2.62909
343,-566,4.81873,1.79089,0,0,0,0,0,0,0,-1,1567,1590,4.81878,-1.79095
350,-566,4.41663,2.44214,0,0,0,0,0,0,0,-1,1574,1590,4.41666,-2.44214
357,-566,6.34058,5.18579,0,0,0,0,0,0,0,-1,1581,1590,6.34059,-5.1858
364,-566,6.06262,4.20251,0,0,0,0,0,0,0,-1,1588,1590,6.06259,-4.20246
371,-566,5.78455,3.21912,0,0,0,0,0,0,0,-1,1595,1590,5.7846,-3.21912
378,-566,5.7439,0.695557,0,0,0,0,0,0,0,-1,1602,1590,5.74392,-0.695531
385,-566,5.67615,-0.573975,0,0,0,0,0,0,0,-1,1609,1590,5.67612,0.573956
392,-566,5.78638,1.82434,0,0,0,0,0,0,0,-1,1616,1590,5.78637,-1.82439
399,-566,5.36621,1.7373,0,0,0,0,0,0,0,-1,1623,1590,5.36627,-1.7373
406,-566,4.30359,5.26868,0,0,0,0,0,0,0,-1,1630,1590,4.30364,-5.26867
413,-566,4.27124,5.79492,0,0,0,0,0,0,0,-1,1637,1590,4.27123,-5.7949
420,-566,7.19812,8.25146,0,0,0,0,0,0,0,-1,1644,1590,7.19817,-8.25149
427,-566,10.455,10.6842,0,0,0,0,0,0,0,-1,1651,1590,10.455,-10.6842
434,-566,9.18567,14.3304,0,0,0,0,0,0,0,-1,1658,1590,9.18571,-14.3305
441,-566,14.7419,25.7504,0,0,0,0,0,0,0,-1,1665,1590,14.7419,-25.7503
448,-566,14.3262,25.5132,0,0,0,0,0,0,0,-1,1672,1590,14.3262,-25.5132
455,-566,13.9819,24.8958,0,0,0,0,0,0,0,-1,1679,1590,13.982,-24.8958
462,-566,14.1101,24.2758,0.00281115,0.0139748,-0.00528737,0.0160815,0.000704474,-1.19164,0.010494,0.0318975,1686,1590,14.1101,-24.2757
469,-566,14.1846,23.6555,0.00290757,0.0116952,-0.00479094,0.0138021,0.000800715,-1.15649,0.00894643,0.0162447,1693,1590,14.1845,-23.6555
476,-566,14.2301,23.2397,0.00278916,0.00938726,-0.00410196,0.0113522,0.000824199,-1.12407,0.00730892,0.0106289,1700,1590,14.2301,-23.2397
483,-566,14.238,22.8394,0.00254802,0.00731125,-0.00338521,0.00906869,0.000790583,-1.09195,0.00580025,0.0105871,1707,1590,14.238,-22.8394
490,-566,14.2244,22.4276,0.00203095,0.00536788,-0.00251389,0.0067166,0.000682232,-1.07837,0.00426853,0.0115754,1714,1590,14.2243,-22.4276
497,-566,14.2467,22.0298,0.00140221,0.0037101,-0.00171342,0.00462192,0.000490388,-1.08175,0.00293152,0.0150014,1721,1590,14.2466,-22.0298
504,-566,14.2532,21.6597,0.000699883,0.00195511,-0.000829591,0.00236775,0.000287246,-1.10923,0.001492,0.0193535,1728,1590,14.2532,-21.6597
511,-566,14.2159,21.2338,-0.000108698,0.000280497,0.000168112,0.000343057,-0.000171258,1.21454,0.000302411,0.0189917,1735,1590,14.216,-21.2338
518,-566,14.2198,20.833,-0.000981403,-0.0014079,0.0012122,3.61644e-05,-0.00242547,0.69833,0.00162917,0.012059,1742,1590,14.2198,-20.833
525,-566,14.1871,20.4011,-0.00187521,-0.00316116,0.00237072,-6.18214e-05,-0.00497455,0.652976,0.00329596,0.012159,1749,1590,14.1871,-20.4011
532,-566,14.1597,19.9728,-0.00280656,-0.00509511,0.00371885,-5.99234e-05,-0.00784175,0.636147,0.00520797,0.0138157,1756,1590,14.1596,-19.9728
539,-566,14.1624,19.5389,-0.00384994,-0.00735226,0.00533884,1.75992e-05,-0.0112198,0.626925,0.00748574,0.0171261,1763,1590,14.1623,-19.5389
546,-566,14.2324,19.0603,-0.00511127,-0.0100469,0.00730812,0.000134475,-0.0152926,0.62257,0.0102402,0.0206713,1770,1590,14.2325,-19.0603
553,-566,14.2291,18.8167,-0.00637337,-0.0130599,0.00952113,0.000374424,-0.0198077,0.616553,0.0133317,0.0342836,1777,1590,14.2291,-18.8166
560,-566,13.9855,18.7609,-0.00761052,-0.0165075,0.012015,0.000753033,-0.0248711,0.6081,0.0168374,0.0435621,1784,1590,13.9854,-18.7609
567,-566,13.9099,18.6405,0,0,0,0,0,0,0,-1,1791,1590,13.9099,-18.6405
574,-566,7.99548,3.14514,0,0,0,0,0,0,0,-1,1798,1590,7.99543,-3.14511
581,-566,2.54102,5.1311,0,0,0,0,0,0,0,-1,1805,1590,2.54099,-5.13111
588,-566,-1.91321,8.39197,0,0,0,0,0,0,0,-1,1812,1590,-1.91316,-8.39199
595,-566,9.0271,4.66467,0,0,0,0,0,0,0,-1,1819,1590,9.02705,-4.66468
602,-566,9.953,3.54895,0,0,0,0,0,0,0,-1,1826,1590,9.953,-3.54898
609,-566,0,0,0,0,0,0,0,0,0,-1,1833,1590,0,0
616,-566,0,0,0,0,0,0,0,0,0,-1,1840,1590,0,0
623,-566,0,0,0,0,0,0,0,0,0,-1,1847,1590,0,0
630,-566,0,0,0,0,0,0,0,0,0,-1,1854,1590,0,0
637,-566,0,0,0,0,0,0,0,0,0,-1,1861,1590,0,0
644,-566,0,0,0,0,0,0,0,0,0,-1,1868,1590,0,0
651,-566,0,0,0,0,0,0,0,0,0,-1,1875,1590,0,0
658,-566,0,0,0,0,0,0,0,0,0,-1,1882,1590,0,0
665,-566,0,0,0,0,0,0,0,0,0,-1,1889,1590,0,0
672,-566,0,0,0,0,0,0,0,0,0,-1,1896,1590,0,0
679,-566,0,0,0,0,0,0,0,0,0,-1,1903,1590,0,0
686,-566,0,0,0,0,0,0,0,0,0,-1,1910,1590,0,0
693,-566,0,0,0,0,0,0,0,0,0,-1,1917,1590,0,0
700,-566,0,0,0,0,0,0,0,0,0,-1,1924,1590,0,0
707,-566,0,0,0,0,0,0,0,0,0,-1,1931,1590,0,0
714,-566,0,0,0,0,0,0,0,0,0,-1,1938,1590,0,0
721,-566,0,0,0,0,0,0,0,0,0,-1,1945,1590,0,0
728,-566,0,0,0,0,0,0,0,0,0,-1,1952,1590,0,0
735,-566,0,0,0,0,0,0,0,0,0,-1,1959,1590,0,0
742,-566,0,0,0,0,0,0,0,0,0,-1,1966,1590,0,0
749,-566,0,0,0,0,0,0,0,0,0,-1,1973,1590,0,0
756,-566,0,0,0,0,0,0,0,0,0,-1,1980,1590,0,0
763,-566,0,0,0,0,0,0,0,0,0,-1,1987,1590,0,0
770,-566,0,0,0,0,0,0,0,0,0,-1,1994,1590,0,0
777,-566,0,0,0,0,0,0,0,0,0,-1,2001,1590,0,0
784,-566,0,0,0,0,0,0,0,0,0,-1,2008,1590,0,0
791,-566,0,0,0,0,0,0,0,0,0,-1,2015,1590,0,0
798,-566,0,0,0,0,0,0,0,0,0,-1,2022,1590,0,0
805,-566,0,0,0,0,0,0,0,0,0,-1,2029,1590,0,0
812,-566,0,0,0,0,0,0,0,0,0,-1,2036,1590,0,0
-700,-573,0,0,0,0,0,0,0,0,0,-1,524,1597,0,0
-693,-573,0,0,0,0,0,0,0,0,0,-1,531,1597,0,0
-686,-573,0,0,0,0,0,0,0,0,0,-1,538,1597,0,0
-679,-573,0,0,0,0,0,0,0,0,0,-1,545,1597,0,0
-672,-573,0,0,0,0,0,0,0,0,0,-1,552,1597,0,0
-665,-573,0,0,0,0,0,0,0,0,0,-1,559,1597,0,0
-658,-573,0,0,0,0,0,0,0,0,0,-1,566,1597,0,0
-651,-573,0,0,0,0,0,0,0,0,0,-1,573,1597,0,0
-644,-573,0,0,0,0,0,0,0,0,0,-1,580,1597,0,0
-637,-573,0,0,0,0,0,0,0,0,0,-1,587,1597,0,0
-630,-573,0,0,0,0,0,0,0,0,0,-1,594,1597,0,0
-623,-573,0,0,0,0,0,0,0,0,0,-1,601,1597,0,0
-616,-573,0,0,0,0,0,0,0,0,0,-1,608,1597,0,0
-609,-573,0,0,0,0,0,0,0,0,0,-1,615,1597,0,0
-602,-573,0,0,0,0,0,0,0,0,0,-1,622,1597,0,0
-595,-573,0,0,0,0,0,0,0,0,0,-1,629,1597,0,0
-588,-573,0,0,0,0,0,0,0,0,0,-1,636,1597,0,0
-581,-573,0,0,0,0,0,0,0,0,0,-1,643,1597,0,0
-574,-573,0,0,0,0,0,0,0,0,0,-1,650,1597,0,0
-567,-573,0,0,0,0,0,0,0,0,0,-1,657,1597,0,0
-560,-573,0,0,0,0,0,0,0,0,0,-1,664,1597,0,0
-553,-573,0,0,0,0,0,0,0,0,0,-1,671,1597,0,0
-546,-573,0,0,0,0,0,0,0,0,0,-1,678,1597,0,0
-539,-573,0,0,0,0,0,0,0,0,0,-1,685,1597,0,0
-532,-573,0,0,0,0,0,0,0,0,0,-1,692,1597,0,0
-525,-573,0,0,0,0,0,0,0,0,0,-1,699,1597,0,0
-518,-573,0,0,0,0,0,0,0,0,0,-1,706,1597,0,0
-511,-573,0,0,0,0,0,0,0,0,0,-1,713,1597,0,0
-504,-573,0,0,0,0,0,0,0,0,0,-1,720,1597,0,0
-497,-573,0,0,0,0,0,0,0,0,0,-1,727,1597,0,0
-490,-573,0,0,0,0,0,0,0,0,0,-1,734,1597,0,0
-483,-573,0,0,0,0,0,0,0,0,0,-1,741,1597,0,0
-476,-573,-9.3327,0.972778,0,0,0,0,0,0,0,-1,748,1597,-9.33268,-0.972776
-469,-573,-1.41681,1.13379,0,0,0,0,0,0,0,-1,755,1597,-1.41681,-1.13382
-462,-573,-0.748535,2.02588,0,0,0,0,0,0,0,-1,762,1597,-0.748533,-2.02584
-455,-573,-0.112976,2.70703,0,0,0,0,0,0,0,-1,769,1597,-0.112988,-2.70697
-448,-573,-1.26172,3.33252,0,0,0,0,0,0,0,-1,776,1597,-1.26173,-3.33248
-441,-573,0.108582,5.06726,0,0,0,0,0,0,0,-1,783,1597,0.108584,-5.06721
-434,-573,1.61768,7.05444,0,0,0,0,0,0,0,-1,790,1597,1.61767,-7.05446
-427,-573,-0.425781,16.5232,0,0,0,0,0,0,0,-1,797,1597,-0.425804,-16.5231
-420,-573,1.18213,16.9377,0,0,0,0,0,0,0,-1,804,1597,1.18214,-16.9378
-413,-573,0.645813,17.7048,0,0,0,0,0,0,0,-1,811,1597,0.645829,-17.7048
-406,-573,0.712524,18.3145,-0.00265493,0.00291662,0.000947631,0.00307339,-0.00281169,1.40685,0.00339887,0.0272784,818,1597,0.712523,-18.3144
-399,-573,0.684387,18.8375,-0.00279092,0.00103409,0.000447944,0.00108584,-0.00284268,1.45576,0.00234251,0.0127821,825,1597,0.684366,-18.8376
-392,-573,0.704224,19.2997,-0.00263869,-5.1323e-05,0.000213573,-3.3812e-05,-0.0026562,1.48899,0.00175964,0.0113508,832,1597,0.704252,-19.2997
-385,-573,0.700012,19.745,-0.00209962,0.000106993,0.000182666,0.000122012,-0.00211464,1.48876,0.00145214,0.0144695,839,1597,0.70004,-19.745
-378,-573,0.675293,20.1934,-0.0013946,0.000614103,0.000331231,0.000667312,-0.00144781,1.41151,0.00124857,0.0163889,846,1597,0.675272,-20.1934
-371,-573,0.655518,20.6437,-0.000636431,0.00112131,0.000491792,0.00124955,-0.000764672,1.31571,0.00117409,0.0165742,853,1597,0.655517,-20.6437
-364,-573,0.586731,21.0673,0.000204391,0.00179462,0.000722216,0.00207366,-7.46462e-05,1.2021,0.00140798,0.018854,860,1597,0.586745,-21.0673
-357,-573,0.561829,21.4711,0.00109886,0.00256941,0.000980558,0.00305974,0.000608523,1.1071,0.00187028,0.023113,867,1597,0.561853,-21.4711
-350,-573,0.587219,21.8956,0.00210834,0.00331958,0.00126286,0.00411452,0.00131339,1.00898,0.00242673,0.0194781,874,1597,0.587215,-21.8956
-343,-573,0.599731,22.3372,0.00315888,0.00424539,0.00167063,0.00545888,0.0019454,0.942596,0.00319473,0.0215334,881,1597,0.59974,-22.3372
-336,-573,0.587158,22.7845,0.0042363,0.00516502,0.00209516,0.00684666,0.00255466,0.894453,0.00399512,0.0165699,888,1597,0.587184,-22.7845
-329,-573,0.590942,23.1742,0.00529882,0.00615537,0.00270478,0.00846558,0.00298862,0.863916,0.00495748,0.0171213,895,1597,0.590923,-23.1742
-322,-573,0.626282,23.632,0.00627903,0.00722508,0.00345986,0.0102441,0.00326001,0.853336,0.0060433,0.0151957,902,1597,0.626289,-23.6319
-315,-573,0.753235,24.2271,0.00718803,0.0088112,0.00422039,0.0122973,0.0037019,0.880389,0.00728484,0.0353613,909,1597,0.75321,-24.2271
-308,-573,1.05542,24.8896,0,0,0,0,0,0,0,-1,916,1597,1.0554,-24.8897
-301,-573,0.903625,25.0864,0,0,0,0,0,0,0,-1,923,1597,0.903627,-25.0864
-294,-573,1.00702,24.802,0,0,0,0,0,0,0,-1,930,1597,1.00701,-24.802
-287,-573,0.895996,26.8125,0,0,0,0,0,0,0,-1,937,1597,0.89602,-26.8125
-280,-573,1.19684,26.4906,0,0,0,0,0,0,0,-1,944,1597,1.19685,-26.4906
-273,-573,2.24805,25.4375,0,0,0,0,0,0,0,-1,951,1597,2.24803,-25.4374
-266,-573,1.31116,7.1814,0,0,0,0,0,0,0,-1,958,1597,1.31118,-7.18142
-259,-573,1.2514,6.70959,0,0,0,0,0,0,0,-1,965,1597,1.25137,-6.70965
-252,-573,2.07874,5.27161,0,0,0,0,0,0,0,-1,972,1597,2.07875,-5.27157
-245,-573,-10.2592,1.09827,0,0,0,0,0,0,0,-1,979,1597,-10.2592,-1.09823
-238,-573,-11.5463,4.44141,0,0,0,0,0,0,0,-1,986,1597,-11.5463,-4.44146
-231,-573,-9.23431,4.14539,0,0,0,0,0,0,0,-1,993,1597,-9.23431,-4.14534
-224,-573,-6.70044,7.40857,0,0,0,0,0,0,0,-1,1000,1597,-6.70045,-7.40851
-217,-573,-4.25824,8.59119,0,0,0,0,0,0,0,-1,1007,1597,-4.25824,-8.59122
-210,-573,-2.39661,9.73914,0,0,0,0,0,0,0,-1,1014,1597,-2.39658,-9.73915
-203,-573,-0.557373,10.9005,0,0,0,0,0,0,0,-1,1021,1597,-0.557387,-10.9006
-196,-573,-1.65344,9.02246,0,0,0,0,0,0,0,-1,1028,1597,-1.65349,-9.02241
-189,-573,-6.12915,6.66882,0,0,0,0,0,0,0,-1,1035,1597,-6.12913,-6.66884
-182,-573,0,0,0,0,0,0,0,0,0,-1,1042,1597,0,0
-175,-573,0,0,0,0,0,0,0,0,0,-1,1049,1597,0,0
-168,-573,0,0,0,0,0,0,0,0,0,-1,1056,1597,0,0
-161,-573,0,0,0,0,0,0,0,0,0,-1,1063,1597,0,0
-154,-573,0,0,0,0,0,0,0,0,0,-1,1070,1597,0,0
-147,-573,0,0,0,0,0,0,0,0,0,-1,1077,1597,0,0
-140,-573,0,0,0,0,0,0,0,0,0,-1,1084,1597,0,0
-133,-573,0,0,0,0,0,0,0,0,0,-1,1091,1597,0,0
-126,-573,0,0,0,0,0,0,0,0,0,-1,1098,1597,0,0
-119,-573,0,0,0,0,0,0,0,0,0,-1,1105,1597,0,0
-112,-573,0,0,0,0,0,0,0,0,0,-1,1112,1597,0,0
-105,-573,0,0,0,0,0,0,0,0,0,-1,1119,1597,0,0
-98,-573,0,0,0,0,0,0,0,0,0,-1,1126,1597,0,0
-91,-573,0,0,0,0,0,0,0,0,0,-1,1133,1597,0,0
-84,-573,0,0,0,0,0,0,0,0,0,-1,1140,1597,0,0
-77,-573,0,0,0,0,0,0,0,0,0,-1,1147,1597,0,0
-70,-573,0,0,0,0,0,0,0,0,0,-1,1154,1597,0,0
-63,-573,0,0,0,0,0,0,0,0,0,-1,1161,1597,0,0
-56,-573,0,0,0,0,0,0,0,0,0,-1,1168,1597,0,0
-49,-573,0,0,0,0,0,0,0,0,0,-1,1175,1597,0,0
-42,-573,0,0,0,0,0,0,0,0,0,-1,1182,1597,0,0
-35,-573,0,0,0,0,0,0,0,0,0,-1,1189,1597,0,0
-28,-573,0,0,0,0,0,0,0,0,0,-1,1196,1597,0,0
-21,-573,0,0,0,0,0,0,0,0,0,-1,1203,1597,0,0
-14,-573,0,0,0,0,0,0,0,0,0,-1,1210,1597,0,0
-7,-573,0,0,0,0,0,0,0,0,0,-1,1217,1597,0,0
0,-573,0,0,0,0,0,0,0,0,0,-1,1224,1597,0,0
7,-573,0,0,0,0,0,0,0,0,0,-1,1231,1597,0,0
14,-573,0,0,0,0,0,0,0,0,0,-1,1238,1597,0,0
21,-573,0,0,0,0,0,0,0,0,0,-1,1245,1597,0,0
28,-573,0,0,0,0,0,0,0,0,0,-1,1252,1597,0,0
35,-573,0,0,0,0,0,0,0,0,0,-1,1259,1597,0,0
42,-573,0,0,0,0,0,0,0,0,0,-1,1266,1597,0,0
49,-573,0,0,0,0,0,0,0,0,0,-1,1273,1597,0,0
56,-573,0,0,0,0,0,0,0,0,0,-1,1280,1597,0,0
63,-573,0,0,0,0,0,0,0,0,0,-1,1287,1597,0,0
70,-573,0,0,0,0,0,0,0,0,0,-1,1294,1597,0,0
77,-573,0,0,0,0,0,0,0,0,0,-1,1301,1597,0,0
84,-573,0,0,0,0,0,0,0,0,0,-1,1308,1597,0,0
91,-573,0,0,0,0,0,0,0,0,0,-1,1315,1597,0,0
98,-573,0,0,0,0,0,0,0,0,0,-1,1322,1597,0,0
105,-573,0,0,0,0,0,0,0,0,0,-1,1329,1597,0,0
112,-573,0,0,0,0,0,0,0,0,0,-1,1336,1597,0,0
119,-573,0,0,0,0,0,0,0,0,0,-1,1343,1597,0,0
126,-573,0,0,0,0,0,0,0,0,0,-1,1350,1597,0,0
133,-573,0,0,0,0,0,0,0,0,0,-1,1357,1597,0,0
140,-573,0,0,0,0,0,0,0,0,0,-1,1364,1597,0,0
147,-573,0,0,0,0,0,0,0,0,0,-1,1371,1597,0,0
154,-573,0,0,0,0,0,0,0,0,0,-1,1378,1597,0,0
161,-573,0,0,0,0,0,0,0,0,0,-1,1385,1597,0,0
168,-573,0,0,0,0,0,0,0,0,0,-1,1392,1597,0,0
175,-573,0,0,0,0,0,0,0,0,0,-1,1399,1597,0,0
182,-573,0,0,0,0,0,0,0,0,0,-1,1406,1597,0,0
189,-573,0,0,0,0,0,0,0,0,0,-1,1413,1597,0,0
196,-573,0,0,0,0,0,0,0,0,0,-1,1420,1597,0,0
203,-573,0,0,0,0,0,0,0,0,0,-1,1427,1597,0,0
210,-573,0,0,0,0,0,0,0,0,0,-1,1434,1597,0,0
217,-573,0,0,0,0,0,0,0,0,0,-1,1441,1597,0,0
224,-573,0,0,0,0,0,0,0,0,0,-1,1448,1597,0,0
231,-573,0,0,0,0,0,0,0,0,0,-1,1455,1597,0,0
238,-573,0,0,0,0,0,0,0,0,0,-1,1462,1597,0,0
245,-573,0,0,0,0,0,0,0,0,0,-1,1469,1597,0,0
252,-573,0,0,0,0,0,0,0,0,0,-1,1476,1597,0,0
259,-573,0,0,0,0,0,0,0,0,0,-1,1483,1597,0,0
266,-573,0,0,0,0,0,0,0,0,0,-1,1490,1597,0,0
273,-573,0,0,0,0,0,0,0,0,0,-1,1497,1597,0,0
280,-573,0,0,0,0,0,0,0,0,0,-1,1504,1597,0,0
287,-573,0,0,0,0,0,0,0,0,0,-1,1511,1597,0,0
294,-573,0,0,0,0,0,0,0,0,0,-1,1518,1597,0,0
301,-573,0,0,0,0,0,0,0,0,0,-1,1525,1597,0,0
308,-573,5.93042,9.71143,0,0,0,0,0,0,0,-1,1532,1597,5.93046,-9.71144
315,-573,4.34204,11.719,0,0,0,0,0,0,0,-1,1539,1597,4.34205,-11.719
322,-573,10.3269,7.77563,0,0,0,0,0,0,0,-1,1546,1597,10.327,-7.77565
329,-573,4.99573,3.80273,0,0,0,0,0,0,0,-1,1553,1597,4.9957,-3.80273
336,-573,4.85693,2.53455,0,0,0,0,0,0,0,-1,1560,1597,4.8569,-2.53459
343,-573,5.5946,2.15894,0,0,0,0,0,0,0,-1,1567,1597,5.59456,-2.1589
350,-573,2.53748,1.56433,0,0,0,0,0,0,0,-1,1574,1597,2.53753,-1.5643
357,-573,7.40247,4.03613,0,0,0,0,0,0,0,-1,1581,1597,7.40244,-4.03614
364,-573,7.14551,3.02087,0,0,0,0,0,0,0,-1,1588,1597,7.14556,-3.02084
371,-573,6.88867,2.00549,0,0,0,0,0,0,0,-1,1595,1597,6.88868,-2.00553
378,-573,8.62012,6.09106,0,0,0,0,0,0,0,-1,1602,1597,8.62012,-6.09103
385,-573,6.54346,-0.951904,0,0,0,0,0,0,0,-1,1609,1597,6.54349,0.951901
392,-573,6.41833,-2.18225,0,0,0,0,0,0,0,-1,1616,1597,6.41831,2.18228
399,-573,4.26282,4.73657,0,0,0,0,0,0,0,-1,1623,1597,4.26285,-4.73652
406,-573,6.82715,10.823,0,0,0,0,0,0,0,-1,1630,1597,6.82719,-10.823
413,-573,8.90552,13.1737,0,0,0,0,0,0,0,-1,1637,1597,8.90553,-13.1737
420,-573,13.7928,23.4659,0,0,0,0,0,0,0,-1,1644,1597,13.7928,-23.466
427,-573,14.0878,26.1815,0,0,0,0,0,0,0,-1,1651,1597,14.0878,-26.1815
434,-573,13.7064,26.0203,0,0,0,0,0,0,0,-1,1658,1597,13.7064,-26.0203
441,-573,13.6775,25.5394,0,0,0,0,0,0,0,-1,1665,1597,13.6774,-25.5394
448,-573,13.7725,25.0751,0.00186877,0.0142658,-0.00416005,0.0155324,0.000602196,-1.27525,0.0101602,0.0408244,1672,1597,13.7725,-25.0751
455,-573,13.7233,24.5555,0.00199259,0.0125461,-0.0040974,0.0139501,0.000588561,-1.24067,0.00911022,0.0293247,1679,1597,13.7233,-24.5556
462,-573,13.8217,23.9836,0.00215926,0.0107908,-0.00401357,0.0123686,0.000581428,-1.19623,0.00805895,0.0206341,1686,1597,13.8217,-23.9836
469,-573,13.828,23.5983,0.00223736,0.00900904,-0.00367314,0.0106188,0.000627616,-1.15776,0.00687953,0.0145341,1693,1597,13.828,-23.5983
476,-573,13.8359,23.2391,0.00206325,0.00713513,-0.0031001,0.00860438,0.000593997,-1.12821,0.00554886,0.0140121,1700,1597,13.8359,-23.2392
483,-573,13.8691,22.8606,0.00176328,0.0053958,-0.00248912,0.00666086,0.000498222,-1.10058,0.00428417,0.0122039,1707,1597,13.8691,-22.8606
490,-573,13.8599,22.432,0.00125666,0.0037302,-0.00172874,0.00461902,0.000367843,-1.0959,0.00296435,0.0120815,1714,1597,13.8599,-22.432
497,-573,13.8506,22.0126,0.000613232,0.00228031,-0.00100109,0.00274945,0.000144093,-1.13256,0.00178687,0.0187238,1721,1597,13.8506,-22.0126
504,-573,13.8378,21.624,-0.000183569,0.000620682,-7.63994e-05,0.000627875,-0.000190762,-1.47692,0.000494589,0.0186591,1728,1597,13.8377,-21.624
511,-573,13.8164,21.1987,-0.00106183,-0.00102809,0.000969641,-7.5173e-05,-0.00201475,0.794095,0.00131882,0.0191917,1735,1597,13.8163,-21.1987
518,-573,13.8088,20.8195,-0.00198958,-0.00269416,0.00206376,-0.000248259,-0.00443548,0.700862,0.0028778,0.0142856,1742,1597,13.8089,-20.8194
525,-573,13.7821,20.4327,-0.00296377,-0.00452227,0.00333894,-0.000314356,-0.00717169,0.670758,0.00467986,0.0173412,1749,1597,13.7821,-20.4328
532,-573,13.7616,20.0032,-0.00402439,-0.00667545,0.00490747,-0.000266585,-0.0104333,0.653494,0.00686837,0.0155968,1756,1597,13.7616,-20.0032
539,-573,13.743,19.5789,-0.00531173,-0.00933524,0.00689174,-0.000144127,-0.0145028,0.64339,0.00962088,0.0221312,1763,1597,13.7431,-19.5789
546,-573,13.8141,19.2341,-0.00689247,-0.0126217,0.00934408,1.62506e-05,-0.0195304,0.636662,0.0130257,0.0396404,1770,1597,13.8141,-19.2342
553,-573,13.4323,19.2783,-0.00853838,-0.0164255,0.0122143,0.00035316,-0.025317,0.629248,0.016997,0.0486224,1777,1597,13.4323,-19.2783
560,-573,13.054,19.2495,0,0,0,0,0,0,0,-1,1784,1597,13.0539,-19.2495
567,-573,11.6273,18.1356,0,0,0,0,0,0,0,-1,1791,1597,11.6274,-18.1356
574,-573,0.83374,5.7041,0,0,0,0,0,0,0,-1,1798,1597,0.833718,-5.70405
581,-573,-0.224854,7.41602,0,0,0,0,0,0,0,-1,1805,1597,-0.224904,-7.41596
588,-573,-0.134033,7.67065,0,0,0,0,0,0,0,-1,1812,1597,-0.134037,-7.67063
595,-573,-0.0825195,8.35083,0,0,0,0,0,0,0,-1,1819,1597,-0.0824684,-8.35088
602,-573,0,0,0,0,0,0,0,0,0,-1,1826,1597,0,0
609,-573,0,0,0,0,0,0,0,0,0,-1,1833,1597,0,0
616,-573,0,0,0,0,0,0,0,0,0,-1,1840,1597,0,0
623,-573,0,0,0,0,0,0,0,0,0,-1,1847,1597,0,0
630,-573,0,0,0,0,0,0,0,0,0,-1,1854,1597,0,0
637,-573,0,0,0,0,0,0,0,0,0,-1,1861,1597,0,0
644,-573,0,0,0,0,0,0,0,0,0,-1,1868,1597,0,0
651,-573,0,0,0,0,0,0,0,0,0,-1,1875,1597,0,0
658,-573,0,0,0,0,0,0,0,0,0,-1,1882,1597,0,0
665,-573,0,0,0,0,0,0,0,0,0,-1,1889,1597,0,0
672,-573,0,0,0,0,0,0,0,0,0,-1,1896,1597,0,0
679,-573,0,0,0,0,0,0,0,0,0,-1,1903,1597,0,0
686,-573,0,0,0,0,0,0,0,0,0,-1,1910,1597,0,0
693,-573,0,0,0,0,0,0,0,0,0,-1,1917,1597,0,0
700,-573,0,0,0,0,0,0,0,0,0,-1,1924,1597,0,0
707,-573,0,0,0,0,0,0,0,0,0,-1,1931,1597,0,0
714,-573,0,0,0,0,0,0,0,0,0,-1,1938,1597,0,0
721,-573,0,0,0,0,0,0,0,0,0,-1,1945,1597,0,0
728,-573,0,0,0,0,0,0,0,0,0,-1,1952,1597,0,0
735,-573,0,0,0,0,0,0,0,0,0,-1,1959,1597,0,0
742,-573,0,0,0,0,0,0,0,0,0,-1,1966,1597,0,0
749,-573,0,0,0,0,0,0,0,0,0,-1,1973,1597,0,0
756,-573,0,0,0,0,0,0,0,0,0,-1,1980,1597,0,0
763,-573,0,0,0,0,0,0,0,0,0,-1,1987,1597,0,0
770,-573,0,0,0,0,0,0,0,0,0,-1,1994,1597,0,0
777,-573,0,0,0,0,0,0,0,0,0,-1,2001,1597,0,0
784,-573,0,0,0,0,0,0,0,0,0,-1,2008,1597,0,0
791,-573,0,0,0,0,0,0,0,0,0,-1,2015,1597,0,0
798,-573,0,0,0,0,0,0,0,0,0,-1,2022,1597,0,0
805,-573,0,0,0,0,0,0,0,0,0,-1,2029,1597,0,0
812,-573,0,0,0,0,0,0,0,0,0,-1,2036,1597,0,0
-700,-580,0,0,0,0,0,0,0,0,0,-1,524,1604,0,0
-693,-580,0,0,0,0,0,0,0,0,0,-1,531,1604,0,0
-686,-580,0,0,0,0,0,0,0,0,0,-1,538,1604,0,0
-679,-580,0,0,0,0,0,0,0,0,0,-1,545,1604,0,0
-672,-580,0,0,0,0,0,0,0,0,0,-1,552,1604,0,0
-665,-580,0,0,0,0,0,0,0,0,0,-1,559,1604,0,0
-658,-580,0,0,0,0,0,0,0,0,0,-1,566,1604,0,0
-651,-580,0,0,0,0,0,0,0,0,0,-1,573,1604,0,0
-644,-580,0,0,0,0,0,0,0,0,0,-1,580,1604,0,0
-637,-580,0,0,0,0,0,0,0,0,0,-1,587,1604,0,0
-630,-580,0,0,0,0,0,0,0,0,0,-1,594,1604,0,0
-623,-580,0,0,0,0,0,0,0,0,0,-1,601,1604,0,0
-616,-580,0,0,0,0,0,0,0,0,0,-1,608,1604,0,0
-609,-580,0,0,0,0,0,0,0,0,0,-1,615,1604,0,0
-602,-580,0,0,0,0,0,0,0,0,0,-1,622,1604,0,0
-595,-580,0,0,0,0,0,0,0,0,0,-1,629,1604,0,0
-588,-580,0,0,0,0,0,0,0,0,0,-1,636,1604,0,0
-581,-580,0,0,0,0,0,0,0,0,0,-1,643,1604,0,0
-574,-580,0,0,0,0,0,0,0,0,0,-1,650,1604,0,0
-567,-580,0,0,0,0,0,0,0,0,0,-1,657,1604,0,0
-560,-580,0,0,0,0,0,0,0,0,0,-1,664,1604,0,0
-553,-580,0,0,0,0,0,0,0,0,0,-1,671,1604,0,0
-546,-580,0,0,0,0,0,0,0,0,0,-1,678,1604,0,0
-539,-580,0,0,0,0,0,0,0,0,0,-1,685,1604,0,0
-532,-580,0,0,0,0,0,0,0,0,0,-1,692,1604,0,0
-525,-580,0,0,0,0,0,0,0,0,0,-1,699,1604,0,0
-518,-580,0,0,0,0,0,0,0,0,0,-1,706,1604,0,0
-511,-580,0,0,0,0,0,0,0,0,0,-1,713,1604,0,0
-504,-580,0,0,0,0,0,0,0,0,0,-1,720,1604,0,0
-497,-580,0,0,0,0,0,0,0,0,0,-1,727,1604,0,0
-490,-580,0,0,0,0,0,0,0,0,0,-1,734,1604,0,0
-483,-580,0,0,0,0,0,0,0,0,0,-1,741,1604,0,0
-476,-580,0,0,0,0,0,0,0,0,0,-1,748,1604,0,0
-469,-580,-1.69189,-0.38916,0,0,0,0,0,0,0,-1,755,1604,-1.69192,0.389188
-462,-580,-0.859863,0.675293,0,0,0,0,0,0,0,-1,762,1604,-0.859834,-0.675245
-455,-580,-0.730164,0.651978,0,0,0,0,0,0,0,-1,769,1604,-0.730153,-0.651957
-448,-580,-3.31891,2.07544,0,0,0,0,0,0,0,-1,776,1604,-3.3189,-2.07539
-441,-580,-1.63843,3.9469,0,0,0,0,0,0,0,-1,783,1604,-1.63842,-3.94695
-434,-580,0.23291,5.97876,0,0,0,0,0,0,0,-1,790,1604,0.232901,-5.97878
-427,-580,1.62756,8.05493,0,0,0,0,0,0,0,-1,797,1604,1.62758,-8.05488
-420,-580,0.986572,11.2383,0,0,0,0,0,0,0,-1,804,1604,0.986544,-11.2382
-413,-580,1.45398,16.9237,0,0,0,0,0,0,0,-1,811,1604,1.45398,-16.9238
-406,-580,1.1438,18.3569,0,0,0,0,0,0,0,-1,818,1604,1.14378,-18.3569
-399,-580,1.1416,18.8516,-0.00423987,0.000879242,0.000353142,0.000903488,-0.00426412,1.50224,0.00318689,0.0281462,825,1604,1.1416,-18.8515
-392,-580,1.125,19.3167,-0.00395775,-0.000481711,8.51723e-05,-0.000479625,-0.00395984,1.54631,0.00249543,0.0146656,832,1604,1.12501,-19.3166
-385,-580,1.13116,19.7578,-0.00331567,-0.000449222,3.92039e-05,-0.000448685,-0.00331621,1.55712,0.00207746,0.0125681,839,1604,1.13116,-19.7578
-378,-580,1.11102,20.2021,-0.00253699,-0.000128483,0.000154974,-0.000118552,-0.00254692,1.5068,0.00165984,0.0161856,846,1604,1.11104,-20.2022
-371,-580,1.07611,20.6656,-0.00171427,0.000253246,0.000291005,0.000295384,-0.00175641,1.42699,0.00128081,0.0144372,853,1604,1.0761,-20.6657
-364,-580,1.02997,21.0975,-0.000834086,0.000776586,0.000489684,0.000913776,-0.000971277,1.29764,0.0010885,0.0196821,860,1604,1.02998,-21.0975
-357,-580,1.0542,21.4712,8.33258e-05,0.00140872,0.000723153,0.0017269,-0.000234853,1.1563,0.00123701,0.0142166,867,1604,1.05419,-21.4712
-350,-580,1.07092,21.9224,0.00108575,0.00202358,0.000969512,0.00263162,0.000477706,1.01064,0.00161884,0.0118619,874,1604,1.07093,-21.9224
-343,-580,1.05389,22.3662,0.0021085,0.00278689,0.00134997,0.00383963,0.00105576,0.908482,0.00229043,0.0123782,881,1604,1.05387,-22.3662
-336,-580,1.0318,22.7542,0.0031288,0.00356248,0.00170626,0.00506562,0.00162566,0.848601,0.00298651,0.0207493,888,1604,1.0318,-22.7541
-329,-580,1.04108,23.1755,0.00411774,0.0043737,0.00220929,0.00645872,0.00203273,0.81433,0.00381332,0.017956,895,1604,1.04105,-23.1755
-322,-580,1.03577,23.6377,0.00498847,0.00532469,0.00283462,0.00799618,0.00231698,0.815016,0.00475069,0.0188162,902,1604,1.03575,-23.6377
-315,-580,1.06622,24.0652,0.00575336,0.00661842,0.00342717,0.00964025,0.00273153,0.84817,0.00573733,0.0202932,909,1604,1.0662,-24.0652
-308,-580,1.12329,24.5859,0.00650728,0.00770001,0.00407001,0.0112171,0.00299017,0.858144,0.00670733,0.0298578,916,1604,1.12329,-24.5859
-301,-580,1.2218,24.8591,0.00738264,0.00881182,0.00494746,0.013096,0.00309843,0.85712,0.007903,0.0289002,923,1604,1.22181,-24.8592
-294,-580,1.18585,25.2827,0,0,0,0,0,0,0,-1,930,1604,1.18586,-25.2828
-287,-580,1.11658,26.2299,0,0,0,0,0,0,0,-1,937,1604,1.11657,-26.2299
-280,-580,1.17102,27.4113,0,0,0,0,0,0,0,-1,944,1604,1.17101,-27.4112
-273,-580,1.48401,27.6056,0,0,0,0,0,0,0,-1,951,1604,1.48401,-27.6056
-266,-580,1.71777,25.6515,0,0,0,0,0,0,0,-1,958,1604,1.71775,-25.6515
-259,-580,1.31091,9.11536,0,0,0,0,0,0,0,-1,965,1604,1.31092,-9.11539
-252,-580,1.07629,7.74097,0,0,0,0,0,0,0,-1,972,1604,1.07627,-7.74101
-245,-580,3.80304,9.16028,0,0,0,0,0,0,0,-1,979,1604,3.80306,-9.16034
-238,-580,-10.3588,1.57556,0,0,0,0,0,0,0,-1,986,1604,-10.3588,-1.5755
-231,-580,-10.576,6.43787,0,0,0,0,0,0,0,-1,993,1604,-10.576,-6.43783
-224,-580,-8.27435,7.58972,0,0,0,0,0,0,0,-1,1000,1604,-8.27435,-7.5897
-217,-580,-5.85632,9.51221,0,0,0,0,0,0,0,-1,1007,1604,-5.85632,-9.5122
-210,-580,-3.6684,11.1569,0,0,0,0,0,0,0,-1,1014,1604,-3.66839,-11.1569
-203,-580,-1.92474,12.7845,0,0,0,0,0,0,0,-1,1021,1604,-1.92477,-12.7845
-196,-580,-2.28552,10.3289,0,0,0,0,0,0,0,-1,1028,1604,-2.28552,-10.3288
-189,-580,-4.58252,7.59058,0,0,0,0,0,0,0,-1,1035,1604,-4.58256,-7.59057
-182,-580,-5.45874,7.65942,0,0,0,0,0,0,0,-1,1042,1604,-5.45876,-7.65939
-175,-580,-6.38977,7.55005,0,0,0,0,0,0,0,-1,1049,1604,-6.38981,-7.5501
-168,-580,0,0,0,0,0,0,0,0,0,-1,1056,1604,0,0
-161,-580,0,0,0,0,0,0,0,0,0,-1,1063,1604,0,0
-154,-580,0,0,0,0,0,0,0,0,0,-1,1070,1604,0,0
-147,-580,0,0,0,0,0,0,0,0,0,-1,1077,1604,0,0
-140,-580,0,0,0,0,0,0,0,0,0,-1,1084,1604,0,0
-133,-580,0,0,0,0,0,0,0,0,0,-1,1091,1604,0,0
-126,-580,0,0,0,0,0,0,0,0,0,-1,1098,1604,0,0
-119,-580,0,0,0,0,0,0,0,0,0,-1,1105,1604,0,0
-112,-580,0,0,0,0,0,0,0,0,0,-1,1112,1604,0,0
-105,-580,0,0,0,0,0,0,0,0,0,-1,1119,1604,0,0
-98,-580,0,0,0,0,0,0,0,0,0,-1,1126,1604,0,0
-91,-580,0,0,0,0,0,0,0,0,0,-1,1133,1604,0,0
-84,-580,0,0,0,0,0,0,0,0,0,-1,1140,1604,0,0
-77,-580,0,0,0,0,0,0,0,0,0,-1,1147,1604,0,0
-70,-580,0,0,0,0,0,0,0,0,0,-1,1154,1604,0,0
-63,-580,0,0,0,0,0,0,0,0,0,-1,1161,1604,0,0
-56,-580,0,0,0,0,0,0,0,0,0,-1,1168,1604,0,0
-49,-580,0,0,0,0,0,0,0,0,0,-1,1175,1604,0,0
-42,-580,0,0,0,0,0,0,0,0,0,-1,1182,1604,0,0
-35,-580,0,0,0,0,0,0,0,0,0,-1,1189,1604,0,0
-28,-580,0,0,0,0,0,0,0,0,0,-1,1196,1604,0,0
-21,-580,0,0,0,0,0,0,0,0,0,-1,1203,1604,0,0
-14,-580,0,0,0,0,0,0,0,0,0,-1,1210,1604,0,0
-7,-580,0,0,0,0,0,0,0,0,0,-1,1217,1604,0,0
0,-580,0,0,0,0,0,0,0,0,0,-1,1224,1604,0,0
7,-580,0,0,0,0,0,0,0,0,0,-1,1231,1604,0,0
14,-580,0,0,0,0,0,0,0,0,0,-1,1238,1604,0,0
21,-580,0,0,0,0,0,0,0,0,0,-1,1245,1604,0,0
28,-580,0,0,0,0,0,0,0,0,0,-1,1252,1604,0,0
35,-580,0,0,0,0,0,0,0,0,0,-1,1259,1604,0,0
42,-580,0,0,0,0,0,0,0,0,0,-1,1266,1604,0,0
49,-580,0,0,0,0,0,0,0,0,0,-1,1273,1604,0,0
56,-580,0,0,0,0,0,0,0,0,0,-1,1280,1604,0,0
63,-580,0,0,0,0,0,0,0,0,0,-1,1287,1604,0,0
70,-580,0,0,0,0,0,0,0,0,0,-1,1294,1604,0,0
77,-580,0,0,0,0,0,0,0,0,0,-1,1301,1604,0,0
84,-580,0,0,0,0,0,0,0,0,0,-1,1308,1604,0,0
91,-580,0,0,0,0,0,0,0,0,0,-1,1315,1604,0,0
98,-580,0,0,0,0,0,0,0,0,0,-1,1322,1604,0,0
105,-580,0,0,0,0,0,0,0,0,0,-1,1329,1604,0,0
112,-580,0,0,0,0,0,0,0,0,0,-1,1336,1604,0,0
119,-580,0,0,0,0,0,0,0,0,0,-1,1343,1604,0,0
126,-580,0,0,0,0,0,0,0,0,0,-1,1350,1604,0,0
133,-580,0,0,0,0,0,0,0,0,0,-1,1357,1604,0,0
140,-580,0,0,0,0,0,0,0,0,0,-1,1364,1604,0,0
147,-580,0,0,0,0,0,0,0,0,0,-1,1371,1604,0,0
154,-580,0,0,0,0,0,0,0,0,0,-1,1378,1604,0,0
161,-580,0,0,0,0,0,0,0,0,0,-1,1385,1604,0,0
168,-580,0,0,0,0,0,0,0,0,0,-1,1392,1604,0,0
175,-580,0,0,0,0,0,0,0,0,0,-1,1399,1604,0,0
182,-580,0,0,0,0,0,0,0,0,0,-1,1406,1604,0,0
189,-580,0,0,0,0,0,0,0,0,0,-1,1413,1604,0,0
196,-580,0,0,0,0,0,0,0,0,0,-1,1420,1604,0,0
203,-580,0,0,0,0,0,0,0,0,0,-1,1427,1604,0,0
210,-580,0,0,0,0,0,0,0,0,0,-1,1434,1604,0,0
217,-580,0,0,0,0,0,0,0,0,0,-1,1441,1604,0,0
224,-580,0,0,0,0,0,0,0,0,0,-1,1448,1604,0,0
231,-580,0,0,0,0,0,0,0,0,0,-1,1455,1604,0,0
238,-580,0,0,0,0,0,0,0,0,0,-1,1462,1604,0,0
245,-580,0,0,0,0,0,0,0,0,0,-1,1469,1604,0,0
252,-580,0,0,0,0,0,0,0,0,0,-1,1476,1604,0,0
259,-580,0,0,0,0,0,0,0,0,0,-1,1483,1604,0,0
266,-580,0,0,0,0,0,0,0,0,0,-1,1490,1604,0,0
273,-580,0,0,0,0,0,0,0,0,0,-1,1497,1604,0,0
280,-580,0,0,0,0,0,0,0,0,0,-1,1504,1604,0,0
287,-580,0,0,0,0,0,0,0,0,0,-1,1511,1604,0,0
294,-580,4.0437,0.177368,0,0,0,0,0,0,0,-1,1518,1604,4.04369,-0.177371
301,-580,7.55164,8.05798,0,0,0,0,0,0,0,-1,1525,1604,7.55158,-8.05802
308,-580,5.9126,9.99341,0,0,0,0,0,0,0,-1,1532,1604,5.91255,-9.99337
315,-580,4.27356,11.9287,0,0,0,0,0,0,0,-1,1539,1604,4.27352,-11.9287
322,-580,10.2366,7.50281,0,0,0,0,0,0,0,-1,1546,1604,10.2366,-7.50282
329,-580,10.5962,8.69641,0,0,0,0,0,0,0,-1,1553,1604,10.5962,-8.69642
336,-580,3.66431,1.58862,0,0,0,0,0,0,0,-1,1560,1604,3.6643,-1.58864
343,-580,3.32227,1.39636,0,0,0,0,0,0,0,-1,1567,1604,3.32222,-1.39633
350,-580,8.71277,4.0564,0,0,0,0,0,0,0,-1,1574,1604,8.71271,-4.05638
357,-580,8.52332,3.08154,0,0,0,0,0,0,0,-1,1581,1604,8.52332,-3.08157
364,-580,8.25818,2.07605,0,0,0,0,0,0,0,-1,1588,1604,8.25812,-2.07608
371,-580,7.42114,7.14282,0,0,0,0,0,0,0,-1,1595,1604,7.42119,-7.14281
378,-580,7.9718,6.6731,0,0,0,0,0,0,0,-1,1602,1604,7.9718,-6.67307
385,-580,8.52246,6.20337,0,0,0,0,0,0,0,-1,1609,1604,8.52241,-6.20334
392,-580,13.9806,27.8215,0,0,0,0,0,0,0,-1,1616,1604,13.9806,-27.8215
399,-580,13.967,27.3584,0,0,0,0,0,0,0,-1,1623,1604,13.967,-27.3585
406,-580,13.7732,27.1508,0,0,0,0,0,0,0,-1,1630,1604,13.7732,-27.1507
413,-580,13.9204,26.4867,0,0,0,0,0,0,0,-1,1637,1604,13.9204,-26.4866
420,-580,13.4943,26.4327,0,0,0,0,0,0,0,-1,1644,1604,13.4943,-26.4328
427,-580,13.6008,26.0548,0.00156602,0.0140299,-0.00222926,0.0144166,0.0011793,-1.39903,0.00924307,0.0414089,1651,1604,13.6008,-26.0548
434,-580,13.4241,25.7042,0.00141515,0.0128073,-0.00251311,0.0133371,0.000885395,-1.36304,0.00861143,0.0294474,1658,1604,13.424,-25.7042
441,-580,13.3687,25.2091,0.00143768,0.0117078,-0.00282497,0.0124336,0.000711916,-1.31932,0.00806224,0.0166696,1665,1604,13.3687,-25.2091
448,-580,13.412,24.764,0.00154249,0.0106344,-0.00294709,0.0115061,0.000670781,-1.28321,0.00745718,0.0150012,1672,1604,13.412,-24.7641
455,-580,13.4442,24.3948,0.00153472,0.00932939,-0.00296634,0.0103298,0.000534265,-1.24551,0.00671556,0.0200235,1679,1604,13.4442,-24.3948
462,-580,13.3998,24.007,0.00158189,0.00795289,-0.00295137,0.00910997,0.000424812,-1.19716,0.00593678,0.0226721,1686,1604,13.3998,-24.007
469,-580,13.4056,23.6079,0.00161112,0.00657559,-0.00273078,0.0077837,0.000403011,-1.15428,0.00506015,0.0189365,1693,1604,13.4056,-23.6079
476,-580,13.4347,23.2333,0.00140262,0.0050679,-0.00227198,0.00615424,0.000316276,-1.12478,0.00400157,0.0142765,1700,1604,13.4347,-23.2333
483,-580,13.4478,22.8605,0.00104344,0.00362777,-0.00174909,0.00451023,0.000160972,-1.10353,0.00295462,0.0132745,1707,1604,13.4478,-22.8605
490,-580,13.4214,22.4716,0.000524874,0.00221488,-0.00108211,0.00274283,-3.07569e-06,-1.11689,0.00182958,0.0166935,1714,1604,13.4214,-22.4715
497,-580,13.4138,22.0459,-0.000152083,0.000954441,-0.000412378,0.00109122,-0.00028886,-1.25053,0.000840478,0.0131288,1721,1604,13.4138,-22.0459
504,-580,13.4016,21.6377,-0.00105752,-0.000592816,0.000552756,-0.000225561,-0.00142477,0.98436,0.000884302,0.0171596,1728,1604,13.4016,-21.6377
511,-580,13.4014,21.2373,-0.00203086,-0.00219867,0.00164968,-0.000462946,-0.00376658,0.75999,0.00237185,0.0184968,1735,1604,13.4014,-21.2373
518,-580,13.4049,20.8262,-0.00305013,-0.00383935,0.00280965,-0.00060752,-0.00628196,0.71563,0.00400087,0.0166142,1742,1604,13.4049,-20.8262
525,-580,13.376,20.4465,-0.00417135,-0.00575609,0.00423098,-0.000659182,-0.00926826,0.692832,0.00597125,0.0173082,1749,1604,13.376,-20.4465
532,-580,13.343,20.0552,-0.00545208,-0.00816655,0.00609214,-0.000567819,-0.0130508,0.675796,0.00851758,0.0187929,1756,1604,13.343,-20.0552
539,-580,13.3313,19.7144,-0.00714114,-0.0113243,0.00854086,-0.000439483,-0.018026,0.665316,0.0118735,0.0300514,1763,1604,13.3313,-19.7144
546,-580,13.6003,19.2316,0,0,0,0,0,0,0,-1,1770,1604,13.6003,-19.2315
553,-580,12.5281,19.6013,0,0,0,0,0,0,0,-1,1777,1604,12.5281,-19.6013
560,-580,10.9452,18.1364,0,0,0,0,0,0,0,-1,1784,1604,10.9452,-18.1363
567,-580,3.87708,4.0647,0,0,0,0,0,0,0,-1,1791,1604,3.87711,-4.06471
574,-580,2.31653,5.62952,0,0,0,0,0,0,0,-1,1798,1604,2.31654,-5.62947
581,-580,1.60876,6.67664,0,0,0,0,0,0,0,-1,1805,1604,1.60873,-6.67667
588,-580,1.38684,7.14441,0,0,0,0,0,0,0,-1,1812,1604,1.38689,-7.14443
595,-580,0,0,0,0,0,0,0,0,0,-1,1819,1604,0,0
602,-580,0,0,0,0,0,0,0,0,0,-1,1826,1604,0,0
609,-580,0,0,0,0,0,0,0,0,0,-1,1833,1604,0,0
616,-580,0,0,0,0,0,0,0,0,0,-1,1840,1604,0,0
623,-580,0,0,0,0,0,0,0,0,0,-1,1847,1604,0,0
630,-580,0,0,0,0,0,0,0,0,0,-1,1854,1604,0,0
637,-580,0,0,0,0,0,0,0,0,0,-1,1861,1604,0,0
644,-580,0,0,0,0,0,0,0,0,0,-1,1868,1604,0,0
651,-580,0,0,0,0,0,0,0,0,0,-1,1875,1604,0,0
658,-580,0,0,0,0,0,0,0,0,0,-1,1882,1604,0,0
665,-580,0,0,0,0,0,0,0,0,0,-1,1889,1604,0,0
672,-580,0,0,0,0,0,0,0,0,0,-1,1896,1604,0,0
679,-580,0,0,0,0,0,0,0,0,0,-1,1903,1604,0,0
686,-580,0,0,0,0,0,0,0,0,0,-1,1910,1604,0,0
693,-580,0,0,0,0,0,0,0,0,0,-1,1917,1604,0,0
700,-580,0,0,0,0,0,0,0,0,0,-1,1924,1604,0,0
707,-580,0,0,0,0,0,0,0,0,0,-1,1931,1604,0,0
714,-580,0,0,0,0,0,0,0,0,0,-1,1938,1604,0,0
721,-580,0,0,0,0,0,0,0,0,0,-1,1945,1604,0,0
728,-580,0,0,0,0,0,0,0,0,0,-1,1952,1604,0,0
735,-580,0,0,0,0,0,0,0,0,0,-1,1959,1604,0,0
742,-580,0,0,0,0,0,0,0,0,0,-1,1966,1604,0,0
749,-580,0,0,0,0,0,0,0,0,0,-1,1973,1604,0,0
756,-580,0,0,0,0,0,0,0,0,0,-1,1980,1604,0,0
763,-580,0,0,0,0,0,0,0,0,0,-1,1987,1604,0,0
770,-580,0,0,0,0,0,0,0,0,0,-1,1994,1604,0,0
777,-580,0,0,0,0,0,0,0,0,0,-1,2001,1604,0,0
784,-580,0,0,0,0,0,0,0,0,0,-1,2008,1604,0,0
791,-580,0,0,0,0,0,0,0,0,0,-1,2015,1604,0,0
798,-580,0,0,0,0,0,0,0,0,0,-1,2022,1604,0,0
805,-580,0,0,0,0,0,0,0,0,0,-1,2029,1604,0,0
812,-580,0,0,0,0,0,0,0,0,0,-1,2036,1604,0,0
-700,-587,0,0,0,0,0,0,0,0,0,-1,524,1611,0,0
-693,-587,0,0,0,0,0,0,0,0,0,-1,531,1611,0,0
-686,-587,0,0,0,0,0,0,0,0,0,-1,538,1611,0,0
-679,-587,0,0,0,0,0,0,0,0,0,-1,545,1611,0,0
-672,-587,0,0,0,0,0,0,0,0,0,-1,552,1611,0,0
-665,-587,0,0,0,0,0,0,0,0,0,-1,559,1611,0,0
-658,-587,0,0,0,0,0,0,0,0,0,-1,566,1611,0,0
-651,-587,0,0,0,0,0,0,0,0,0,-1,573,1611,0,0
-644,-587,0,0,0,0,0,0,0,0,0,-1,580,1611,0,0
-637,-587,0,0,0,0,0,0,0,0,0,-1,587,1611,0,0
-630,-587,0,0,0,0,0,0,0,0,0,-1,594,1611,0,0
-623,-587,0,0,0,0,0,0,0,0,0,-1,601,1611,0,0
-616,-587,0,0,0,0,0,0,0,0,0,-1,608,1611,0,0
-609,-587,0,0,0,0,0,0,0,0,0,-1,615,1611,0,0
-602,-587,0,0,0,0,0,0,0,0,0,-1,622,1611,0,0
-595,-587,0,0,0,0,0,0,0,0,0,-1,629,1611,0,0
-588,-587,0,0,0,0,0,0,0,0,0,-1,636,1611,0,0
-581,-587,0,0,0,0,0,0,0,0,0,-1,643,1611,0,0
-574,-587,0,0,0,0,0,0,0,0,0,-1,650,1611,0,0
-567,-587,0,0,0,0,0,0,0,0,0,-1,657,1611,0,0
-560,-587,0,0,0,0,0,0,0,0,0,-1,664,1611,0,0
-553,-587,0,0,0,0,0,0,0,0,0,-1,671,1611,0,0
-546,-587,0,0,0,0,0,0,0,0,0,-1,678,1611,0,0
-539,-587,0,0,0,0,0,0,0,0,0,-1,685,1611,0,0
-532,-587,0,0,0,0,0,0,0,0,0,-1,692,1611,0,0
-525,-587,0,0,0,0,0,0,0,0,0,-1,699,1611,0,0
-518,-587,0,0,0,0,0,0,0,0,0,-1,706,1611,0,0
-511,-587,0,0,0,0,0,0,0,0,0,-1,713,1611,0,0
-504,-587,0,0,0,0,0,0,0,0,0,-1,720,1611,0,0
-497,-587,0,0,0,0,0,0,0,0,0,-1,727,1611,0,0
-490,-587,0,0,0,0,0,0,0,0,0,-1,734,1611,0,0
-483,-587,0,0,0,0,0,0,0,0,0,-1,741,1611,0,0
-476,-587,0,0,0,0,0,0,0,0,0,-1,748,1611,0,0
-469,-587,0,0,0,0,0,0,0,0,0,-1,755,1611,0,0
-462,-587,-0.714355,-0.418457,0,0,0,0,0,0,0,-1,762,1611,-0.714359,0.418483
-455,-587,-0.619812,-0.522461,0,0,0,0,0,0,0,-1,769,1611,-0.619802,0.522515
-448,-587,-0.461731,-0.686523,0,0,0,0,0,0,0,-1,776,1611,-0.461739,0.686559
-441,-587,-3.56555,2.72253,0,0,0,0,0,0,0,-1,783,1611,-3.56555,-2.72259
-434,-587,-1.77319,4.76318,0,0,0,0,0,0,0,-1,790,1611,-1.77318,-4.76323
-427,-587,0.0346069,6.92944,0,0,0,0,0,0,0,-1,797,1611,0.034587,-6.92941
-420,-587,-0.647156,10.1157,0,0,0,0,0,0,0,-1,804,1611,-0.647128,-10.1158
-413,-587,2.13971,10.3901,0,0,0,0,0,0,0,-1,811,1611,2.13971,-10.3902
-406,-587,2.0946,18.2915,0,0,0,0,0,0,0,-1,818,1611,2.09463,-18.2915
-399,-587,1.83099,18.8434,-0.00609728,0.00064915,0.000147484,0.000652372,-0.0061005,1.54895,0.00430098,0.0479453,825,1611,1.83101,-18.8434
-392,-587,1.67615,19.2411,-0.00553812,-0.000848337,-5.43998e-05,-0.000847706,-0.00553875,-1.5592,0.00344488,0.037594,832,1611,1.67615,-19.2411
-385,-587,1.48126,19.7255,-0.00466257,-0.000846061,-2.69853e-05,-0.00084587,-0.00466276,-1.56373,0.00286843,0.0193151,839,1611,1.48124,-19.7254
-378,-587,1.46851,20.2209,-0.00372677,-0.000656633,9.77203e-05,-0.000653526,-0.00372987,1.53901,0.0022999,0.0140828,846,1611,1.46853,-20.221
-371,-587,1.44971,20.7026,-0.0027892,-0.000355178,0.000222886,-0.000334936,-0.00280944,1.48023,0.0017719,0.0146634,853,1611,1.4497,-20.7027
-364,-587,1.47272,21.1132,-0.00184016,4.39374e-05,0.00038652,0.000120149,-0.00191637,1.37612,0.00131946,0.0175928,860,1611,1.4727,-21.1131
-357,-587,1.48627,21.4766,-0.000880963,0.00055342,0.000584936,0.000761708,-0.00108925,1.22871,0.00107422,0.0159131,867,1611,1.48624,-21.4766
-350,-587,1.46277,21.9342,0.000119923,0.00106013,0.000782514,0.0015029,-0.000322839,1.05589,0.00112509,0.0102435,874,1611,1.46276,-21.9342
-343,-587,1.44171,22.3586,0.00111717,0.0016834,0.00111612,0.00255176,0.000248813,0.909607,0.0016246,0.0133231,881,1611,1.4417,-22.3586
-336,-587,1.42468,22.7637,0.00208352,0.00234974,0.0013926,0.00361557,0.000817681,0.833045,0.00218933,0.0130129,888,1611,1.42469,-22.7637
-329,-587,1.41833,23.1888,0.00299835,0.00301208,0.0017715,0.00477673,0.0012337,0.787336,0.00286326,0.0148508,895,1611,1.41834,-23.1888
-322,-587,1.42981,23.6243,0.0037575,0.0038427,0.00225019,0.00605069,0.00154951,0.794864,0.00362928,0.017847,902,1611,1.42984,-23.6243
-315,-587,1.41968,24.0299,0.00440312,0.00491917,0.00271658,0.00738995,0.00193234,0.832746,0.00442545,0.0150636,909,1611,1.41967,-24.0299
-308,-587,1.42303,24.4347,0.00502592,0.0057877,0.00319392,0.00862336,0.00219026,0.844745,0.00517568,0.0149522,916,1611,1.42306,-24.4347
-301,-587,1.492,24.8525,0.00572007,0.00669039,0.00386266,0.0100982,0.00231223,0.847872,0.00610906,0.0152885,923,1611,1.49203,-24.8526
-294,-587,1.56281,25.3147,0.00656485,0.00799814,0.00504173,0.0123739,0.00218909,0.855997,0.00762504,0.027694,930,1611,1.5628,-25.3147
-287,-587,1.55707,25.7455,0,0,0,0,0,0,0,-1,937,1611,1.55707,-25.7455
-280,-587,1.86444,26.5508,0,0,0,0,0,0,0,-1,944,1611,1.86446,-26.5508
-273,-587,1.6192,27.0049,0,0,0,0,0,0,0,-1,951,1611,1.6192,-27.0049
-266,-587,1.50543,27.5073,0,0,0,0,0,0,0,-1,958,1611,1.50543,-27.5073
-259,-587,0.317444,23.6786,0,0,0,0,0,0,0,-1,965,1611,0.317428,-23.6785
-252,-587,1.30188,10.3103,0,0,0,0,0,0,0,-1,972,1611,1.30188,-10.3104
-245,-587,1.9494,25.2325,0,0,0,0,0,0,0,-1,979,1611,1.94942,-25.2326
-238,-587,2.87799,9.53821,0,0,0,0,0,0,0,-1,986,1611,2.87797,-9.53823
-231,-587,2.49548,9.14465,0,0,0,0,0,0,0,-1,993,1611,2.49551,-9.14468
-224,-587,-9.72528,9.21069,0,0,0,0,0,0,0,-1,1000,1611,-9.72529,-9.21072
-217,-587,-7.07495,10.7847,0,0,0,0,0,0,0,-1,1007,1611,-7.07495,-10.7847
-210,-587,-4.72308,12.5889,0,0,0,0,0,0,0,-1,1014,1611,-4.72307,-12.5888
-203,-587,-3.2583,13.7289,0,0,0,0,0,0,0,-1,1021,1611,-3.25828,-13.7289
-196,-587,-1.953,14.8145,0,0,0,0,0,0,0,-1,1028,1611,-1.95302,-14.8144
-189,-587,-3.04138,8.66638,0,0,0,0,0,0,0,-1,1035,1611,-3.04136,-8.66635
-182,-587,-3.97095,9.7146,0,0,0,0,0,0,0,-1,1042,1611,-3.97093,-9.71461
-175,-587,-4.80969,8.37878,0,0,0,0,0,0,0,-1,1049,1611,-4.80964,-8.37883
-168,-587,-5.91394,8.72546,0,0,0,0,0,0,0,-1,1056,1611,-5.91398,-8.72542
-161,-587,-7.06946,8.88501,0,0,0,0,0,0,0,-1,1063,1611,-7.06947,-8.885
-154,-587,-2.24731,6.56519,0,0,0,0,0,0,0,-1,1070,1611,-2.24728,-6.56517
-147,-587,0,0,0,0,0,0,0,0,0,-1,1077,1611,0,0
-140,-587,0,0,0,0,0,0,0,0,0,-1,1084,1611,0,0
-133,-587,0,0,0,0,0,0,0,0,0,-1,1091,1611,0,0
-126,-587,0,0,0,0,0,0,0,0,0,-1,1098,1611,0,0
-119,-587,0,0,0,0,0,0,0,0,0,-1,1105,1611,0,0
-112,-587,0,0,0,0,0,0,0,0,0,-1,1112,1611,0,0
-105,-587,0,0,0,0,0,0,0,0,0,-1,1119,1611,0,0
-98,-587,0,0,0,0,0,0,0,0,0,-1,1126,1611,0,0
-91,-587,0,0,0,0,0,0,0,0,0,-1,1133,1611,0,0
-84,-587,0,0,0,0,0,0,0,0,0,-1,1140,1611,0,0
-77,-587,0,0,0,0,0,0,0,0,0,-1,1147,1611,0,0
-70,-587,0,0,0,0,0,0,0,0,0,-1,1154,1611,0,0
-63,-587,0,0,0,0,0,0,0,0,0,-1,1161,1611,0,0
-56,-587,0,0,0,0,0,0,0,0,0,-1,1168,1611,0,0
-49,-587,0,0,0,0,0,0,0,0,0,-1,1175,1611,0,0
-42,-587,0,0,0,0,0,0,0,0,0,-1,1182,1611,0,0
-35,-587,0,0,0,0,0,0,0,0,0,-1,1189,1611,0,0
-28,-587,0,0,0,0,0,0,0,0,0,-1,1196,1611,0,0
-21,-587,0,0,0,0,0,0,0,0,0,-1,1203,1611,0,0
-14,-587,0,0,0,0,0,0,0,0,0,-1,1210,1611,0,0
-7,-587,0,0,0,0,0,0,0,0,0,-1,1217,1611,0,0
0,-587,0,0,0,0,0,0,0,0,0,-1,1224,1611,0,0
7,-587,0,0,0,0,0,0,0,0,0,-1,1231,1611,0,0
14,-587,0,0,0,0,0,0,0,0,0,-1,1238,1611,0,0
21,-587,0,0,0,0,0,0,0,0,0,-1,1245,1611,0,0
28,-587,0,0,0,0,0,0,0,0,0,-1,1252,1611,0,0
35,-587,0,0,0,0,0,0,0,0,0,-1,1259,1611,0,0
42,-587,0,0,0,0,0,0,0,0,0,-1,1266,1611,0,0
49,-587,0,0,0,0,0,0,0,0,0,-1,1273,1611,0,0
56,-587,0,0,0,0,0,0,0,0,0,-1,1280,1611,0,0
63,-587,0,0,0,0,0,0,0,0,0,-1,1287,1611,0,0
70,-587,0,0,0,0,0,0,0,0,0,-1,1294,1611,0,0
77,-587,0,0,0,0,0,0,0,0,0,-1,1301,1611,0,0
84,-587,0,0,0,0,0,0,0,0,0,-1,1308,1611,0,0
91,-587,0,0,0,0,0,0,0,0,0,-1,1315,1611,0,0
98,-587,0,0,0,0,0,0,0,0,0,-1,1322,1611,0,0
105,-587,0,0,0,0,0,0,0,0,0,-1,1329,1611,0,0
112,-587,0,0,0,0,0,0,0,0,0,-1,1336,1611,0,0
119,-587,0,0,0,0,0,0,0,0,0,-1,1343,1611,0,0
126,-587,0,0,0,0,0,0,0,0,0,-1,1350,1611,0,0
133,-587,0,0,0,0,0,0,0,0,0,-1,1357,1611,0,0
140,-587,0,0,0,0,0,0,0,0,0,-1,1364,1611,0,0
147,-587,0,0,0,0,0,0,0,0,0,-1,1371,1611,0,0
154,-587,0,0,0,0,0,0,0,0,0,-1,1378,1611,0,0
161,-587,0,0,0,0,0,0,0,0,0,-1,1385,1611,0,0
168,-587,0,0,0,0,0,0,0,0,0,-1,1392,1611,0,0
175,-587,0,0,0,0,0,0,0,0,0,-1,1399,1611,0,0
182,-587,0,0,0,0,0,0,0,0,0,-1,1406,1611,0,0
189,-587,0,0,0,0,0,0,0,0,0,-1,1413,1611,0,0
196,-587,0,0,0,0,0,0,0,0,0,-1,1420,1611,0,0
203,-587,0,0,0,0,0,0,0,0,0,-1,1427,1611,0,0
210,-587,0,0,0,0,0,0,0,0,0,-1,1434,1611,0,0
217,-587,0,0,0,0,0,0,0,0,0,-1,1441,1611,0,0
224,-587,0,0,0,0,0,0,0,0,0,-1,1448,1611,0,0
231,-587,0,0,0,0,0,0,0,0,0,-1,1455,1611,0,0
238,-587,0,0,0,0,0,0,0,0,0,-1,1462,1611,0,0
245,-587,0,0,0,0,0,0,0,0,0,-1,1469,1611,0,0
252,-587,0,0,0,0,0,0,0,0,0,-1,1476,1611,0,0
259,-587,0,0,0,0,0,0,0,0,0,-1,1483,1611,0,0
266,-587,0,0,0,0,0,0,0,0,0,-1,1490,1611,0,0
273,-587,10.2936,6.35083,0,0,0,0,0,0,0,-1,1497,1611,10.2936,-6.35087
280,-587,2.09204,1.1217,0,0,0,0,0,0,0,-1,1504,1611,2.092,-1.12176
287,-587,3.2865,0.671509,0,0,0,0,0,0,0,-1,1511,1611,3.28656,-0.671538
294,-587,4.24646,1.58765,0,0,0,0,0,0,0,-1,1518,1611,4.24648,-1.58761
301,-587,7.60474,8.37085,0,0,0,0,0,0,0,-1,1525,1611,7.60478,-8.37084
308,-587,5.99316,10.2291,0,0,0,0,0,0,0,-1,1532,1611,5.99315,-10.2291
315,-587,4.34558,12.3289,0,0,0,0,0,0,0,-1,1539,1611,4.34556,-12.3288
322,-587,10.4526,6.38245,0,0,0,0,0,0,0,-1,1546,1611,10.4526,-6.38245
329,-587,10.7738,8.42444,0,0,0,0,0,0,0,-1,1553,1611,10.7738,-8.42438
336,-587,7.5531,5.96619,0,0,0,0,0,0,0,-1,1560,1611,7.55311,-5.96617
343,-587,9.57495,4.38391,0,0,0,0,0,0,0,-1,1567,1611,9.57494,-4.38397
350,-587,9.50378,3.45093,0,0,0,0,0,0,0,-1,1574,1611,9.50376,-3.4509
357,-587,9.40027,2.50806,0,0,0,0,0,0,0,-1,1581,1611,9.40022,-2.50803
364,-587,9.26477,1.34131,0,0,0,0,0,0,0,-1,1588,1611,9.26479,-1.34126
371,-587,6.98926,7.87561,0,0,0,0,0,0,0,-1,1595,1611,6.98928,-7.87564
378,-587,9.25146,13.8358,0,0,0,0,0,0,0,-1,1602,1611,9.2515,-13.8359
385,-587,13.4821,28.1548,0,0,0,0,0,0,0,-1,1609,1611,13.482,-28.1548
392,-587,13.4513,27.7311,0,0,0,0,0,0,0,-1,1616,1611,13.4513,-27.7311
399,-587,12.9716,27.5098,0,0,0,0,0,0,0,-1,1623,1611,12.9715,-27.5098
406,-587,13.2455,27.1018,0.00328941,0.0130565,-0.000249842,0.0130629,0.00328302,-1.54524,0.00784665,0.0439992,1630,1611,13.2454,-27.1018
413,-587,13.3015,26.634,0.00237695,0.0120598,-0.000603745,0.0120973,0.00233946,-1.50876,0.00740922,0.0357557,1637,1611,13.3015,-26.6341
420,-587,13.109,26.3662,0.00184453,0.0111637,-0.00102899,0.0112759,0.00173226,-1.46212,0.00701156,0.0302833,1644,1611,13.109,-26.3662
427,-587,13.0881,25.9984,0.00157445,0.0104211,-0.00140987,0.0106404,0.0013552,-1.41652,0.00668779,0.0223269,1651,1611,13.0881,-25.9984
434,-587,13.0737,25.5271,0.00135186,0.00936168,-0.00165336,0.00968954,0.001024,-1.37504,0.00614686,0.016229,1658,1611,13.0737,-25.5271
441,-587,13.0844,25.0771,0.00128289,0.00849706,-0.00194331,0.00898723,0.000792714,-1.32371,0.00574551,0.0189436,1665,1611,13.0843,-25.0771
448,-587,13.0753,24.7653,0.00126769,0.00765795,-0.00207157,0.00827074,0.000654901,-1.28319,0.00530901,0.0152265,1672,1611,13.0753,-24.7652
455,-587,13.0604,24.4227,0.00113929,0.0066568,-0.0021257,0.00738076,0.000415319,-1.24254,0.00478808,0.0145179,1679,1611,13.0604,-24.4228
462,-587,13.0383,24.0446,0.0010566,0.00557551,-0.00213498,0.00642464,0.000207474,-1.19226,0.00421564,0.018997,1686,1611,13.0383,-24.0445
469,-587,13.0386,23.6494,0.00100685,0.00449137,-0.00197906,0.0053858,0.000112414,-1.14632,0.00355365,0.0160483,1693,1611,13.0385,-23.6494
476,-587,13.0446,23.2634,0.000741887,0.00327281,-0.00160273,0.00404944,-3.4743e-05,-1.11957,0.00271128,0.00996548,1700,1611,13.0445,-23.2634
483,-587,13.0189,22.8759,0.000303081,0.00207148,-0.0011402,0.00263015,-0.000255588,-1.1152,0.00184454,0.0133197,1707,1611,13.0189,-22.8759
490,-587,13.0037,22.4629,-0.000254938,0.00086683,-0.00054477,0.00108784,-0.000475953,-1.18538,0.000925611,0.0163933,1714,1611,13.0036,-22.4629
497,-587,12.9998,22.0526,-0.000983557,-0.00023901,8.31258e-05,-0.000229842,-0.000992725,1.46095,0.000600059,0.0123145,1721,1611,12.9998,-22.0526
504,-587,12.9763,21.6844,-0.00199812,-0.00166833,0.0010775,-0.000743179,-0.00292327,0.861325,0.0017544,0.0118877,1728,1611,12.9763,-21.6844
511,-587,12.9686,21.2781,-0.00306882,-0.00321822,0.00221173,-0.000930523,-0.00535651,0.768517,0.0033048,0.0147402,1735,1611,12.9686,-21.278
518,-587,12.9917,20.8572,-0.00418789,-0.00481177,0.0034434,-0.00104233,-0.00795733,0.740226,0.00499384,0.0144171,1742,1611,12.9917,-20.8572
525,-587,12.9976,20.505,-0.00547289,-0.00679231,0.00503681,-0.00105277,-0.0112124,0.72028,0.00714991,0.0172866,1749,1611,12.9975,-20.505
532,-587,12.8945,20.0928,-0.00701972,-0.00945196,0.00725732,-0.000877332,-0.0155944,0.702384,0.0101165,0.0299693,1756,1611,12.8946,-20.0928
539,-587,12.9576,19.766,0,0,0,0,0,0,0,-1,1763,1611,12.9576,-19.766
546,-587,14.3149,19.1855,0,0,0,0,0,0,0,-1,1770,1611,14.3149,-19.1855
553,-587,7.5813,8.45068,0,0,0,0,0,0,0,-1,1777,1611,7.58125,-8.45068
560,-587,4.21179,5.23547,0,0,0,0,0,0,0,-1,1784,1611,4.21185,-5.23553
567,-587,4.03711,5.46387,0,0,0,0,0,0,0,-1,1791,1611,4.03715,-5.46382
574,-587,3.83142,5.68884,0,0,0,0,0,0,0,-1,1798,1611,3.83141,-5.68881
581,-587,3.47168,6.00977,0,0,0,0,0,0,0,-1,1805,1611,3.47167,-6.00983
588,-587,0,0,0,0,0,0,0,0,0,-1,1812,1611,0,0
595,-587,0,0,0,0,0,0,0,0,0,-1,1819,1611,0,0
602,-587,0,0,0,0,0,0,0,0,0,-1,1826,1611,0,0
609,-587,0,0,0,0,0,0,0,0,0,-1,1833,1611,0,0
616,-587,0,0,0,0,0,0,0,0,0,-1,1840,1611,0,0
623,-587,0,0,0,0,0,0,0,0,0,-1,1847,1611,0,0
630,-587,0,0,0,0,0,0,0,0,0,-1,1854,1611,0,0
637,-587,0,0,0,0,0,0,0,0,0,-1,1861,1611,0,0
644,-587,0,0,0,0,0,0,0,0,0,-1,1868,1611,0,0
651,-587,0,0,0,0,0,0,0,0,0,-1,1875,1611,0,0
658,-587,0,0,0,0,0,0,0,0,0,-1,1882,1611,0,0
665,-587,0,0,0,0,0,0,0,0,0,-1,1889,1611,0,0
672,-587,0,0,0,0,0,0,0,0,0,-1,1896,1611,0,0
679,-587,0,0,0,0,0,0,0,0,0,-1,1903,1611,0,0
686,-587,0,0,0,0,0,0,0,0,0,-1,1910,1611,0,0
693,-587,0,0,0,0,0,0,0,0,0,-1,1917,1611,0,0
700,-587,0,0,0,0,0,0,0,0,0,-1,1924,1611,0,0
707,-587,0,0,0,0,0,0,0,0,0,-1,1931,1611,0,0
714,-587,0,0,0,0,0,0,0,0,0,-1,1938,1611,0,0
721,-587,0,0,0,0,0,0,0,0,0,-1,1945,1611,0,0
728,-587,0,0,0,0,0,0,0,0,0,-1,1952,1611,0,0
735,-587,0,0,0,0,0,0,0,0,0,-1,1959,1611,0,0
742,-587,0,0,0,0,0,0,0,0,0,-1,1966,1611,0,0
749,-587,0,0,0,0,0,0,0,0,0,-1,1973,1611,0,0
756,-587,0,0,0,0,0,0,0,0,0,-1,1980,1611,0,0
763,-587,0,0,0,0,0,0,0,0,0,-1,1987,1611,0,0
770,-587,0,0,0,0,0,0,0,0,0,-1,1994,1611,0,0
777,-587,0,0,0,0,0,0,0,0,0,-1,2001,1611,0,0
784,-587,0,0,0,0,0,0,0,0,0,-1,2008,1611,0,0
791,-587,0,0,0,0,0,0,0,0,0,-1,2015,1611,0,0
798,-587,0,0,0,0,0,0,0,0,0,-1,2022,1611,0,0
805,-587,0,0,0,0,0,0,0,0,0,-1,2029,1611,0,0
812,-587,0,0,0,0,0,0,0,0,0,-1,2036,1611,0,0
-700,-594,0,0,0,0,0,0,0,0,0,-1,524,1618,0,0
-693,-594,0,0,0,0,0,0,0,0,0,-1,531,1618,0,0
-686,-594,0,0,0,0,0,0,0,0,0,-1,538,1618,0,0
-679,-594,0,0,0,0,0,0,0,0,0,-1,545,1618,0,0
-672,-594,0,0,0,0,0,0,0,0,0,-1,552,1618,0,0
-665,-594,0,0,0,0,0,0,0,0,0,-1,559,1618,0,0
-658,-594,0,0,0,0,0,0,0,0,0,-1,566,1618,0,0
-651,-594,0,0,0,0,0,0,0,0,0,-1,573,1618,0,0
-644,-594,0,0,0,0,0,0,0,0,0,-1,580,1618,0,0
-637,-594,0,0,0,0,0,0,0,0,0,-1,587,1618,0,0
-630,-594,0,0,0,0,0,0,0,0,0,-1,594,1618,0,0
-623,-594,0,0,0,0,0,0,0,0,0,-1,601,1618,0,0
-616,-594,0,0,0,0,0,0,0,0,0,-1,608,1618,0,0
-609,-594,0,0,0,0,0,0,0,0,0,-1,615,1618,0,0
-602,-594,0,0,0,0,0,0,0,0,0,-1,622,1618,0,0
-595,-594,0,0,0,0,0,0,0,0,0,-1,629,1618,0,0
-588,-594,0,0,0,0,0,0,0,0,0,-1,636,1618,0,0
-581,-594,0,0,0,0,0,0,0,0,0,-1,643,1618,0,0
-574,-594,0,0,0,0,0,0,0,0,0,-1,650,1618,0,0
-567,-594,0,0,0,0,0,0,0,0,0,-1,657,1618,0,0
-560,-594,0,0,0,0,0,0,0,0,0,-1,664,1618,0,0
-553,-594,0,0,0,0,0,0,0,0,0,-1,671,1618,0,0
-546,-594,0,0,0,0,0,0,0,0,0,-1,678,1618,0,0
-539,-594,0,0,0,0,0,0,0,0,0,-1,685,1618,0,0
-532,-594,0,0,0,0,0,0,0,0,0,-1,692,1618,0,0
-525,-594,0,0,0,0,0,0,0,0,0,-1,699,1618,0,0
-518,-594,0,0,0,0,0,0,0,0,0,-1,706,1618,0,0
-511,-594,0,0,0,0,0,0,0,0,0,-1,713,1618,0,0
-504,-594,0,0,0,0,0,0,0,0,0,-1,720,1618,0,0
-497,-594,0,0,0,0,0,0,0,0,0,-1,727,1618,0,0
-490,-594,0,0,0,0,0,0,0,0,0,-1,734,1618,0,0
-483,-594,0,0,0,0,0,0,0,0,0,-1,741,1618,0,0
-476,-594,0,0,0,0,0,0,0,0,0,-1,748,1618,0,0
-469,-594,0,0,0,0,0,0,0,0,0,-1,755,1618,0,0
-462,-594,0,0,0,0,0,0,0,0,0,-1,762,1618,0,0
-455,-594,-0.509216,-1.58411,0,0,0,0,0,0,0,-1,769,1618,-0.509245,1.58415
-448,-594,-7.71887,-0.0559082,0,0,0,0,0,0,0,-1,776,1618,-7.71885,0.055939
-441,-594,-5.78473,1.18298,0,0,0,0,0,0,0,-1,783,1618,-5.78474,-1.18295
-434,-594,-3.93628,3.06213,0,0,0,0,0,0,0,-1,790,1618,-3.93631,-3.06208
-427,-594,-3.97693,6.77759,0,0,0,0,0,0,0,-1,797,1618,-3.97695,-6.77764
-420,-594,-2.53046,7.71606,0,0,0,0,0,0,0,-1,804,1618,-2.53047,-7.71609
-413,-594,-0.860413,8.00391,0,0,0,0,0,0,0,-1,811,1618,-0.860423,-8.00389
-406,-594,2.45746,13.6218,0,0,0,0,0,0,0,-1,818,1618,2.45747,-13.6218
-399,-594,2.19391,18.9768,0,0,0,0,0,0,0,-1,825,1618,2.1939,-18.9768
-392,-594,2.13727,19.3995,-0.0076869,-0.00105151,-0.000252455,-0.00104192,-0.0076965,-1.53282,0.00482136,0.0472638,832,1618,2.13729,-19.3995
-385,-594,2.02789,19.8596,-0.00639355,-0.00100831,-9.73438e-05,-0.00100655,-0.00639531,-1.55273,0.00397078,0.0320494,839,1618,2.02792,-19.8596
-378,-594,1.87231,20.2217,-0.0051544,-0.000955657,4.49749e-05,-0.000955175,-0.00515488,1.56009,0.00316659,0.0149708,846,1618,1.8723,-20.2217
-371,-594,1.90186,20.7025,-0.0040111,-0.000742839,0.000152335,-0.000735754,-0.00401819,1.52432,0.00247034,0.0117496,853,1618,1.90185,-20.7026
-364,-594,1.90942,21.1211,-0.00293037,-0.000492201,0.000271564,-0.000462321,-0.00296026,1.46121,0.00183887,0.00990397,860,1618,1.9094,-21.1211
-357,-594,1.89075,21.5415,-0.00187344,-0.000125707,0.000436996,-2.25333e-05,-0.00197662,1.33894,0.0013103,0.00958211,867,1618,1.89074,-21.5415
-350,-594,1.86719,21.9822,-0.000833998,0.000256687,0.000594576,0.00051814,-0.00109545,1.15652,0.000951275,0.0139426,874,1618,1.86716,-21.9822
-343,-594,1.84204,22.4191,0.000174621,0.000730222,0.000889764,0.00138454,-0.000479701,0.936712,0.00111778,0.0170191,881,1618,1.84202,-22.4191
-336,-594,1.82269,22.8267,0.00112499,0.00129597,0.00111037,0.00232413,9.68265e-05,0.823819,0.00151817,0.0145544,888,1618,1.8227,-22.8266
-329,-594,1.8338,23.2336,0.00200674,0.00183555,0.00139915,0.00332291,0.000519376,0.75485,0.00206405,0.0148579,895,1618,1.83381,-23.2337
-322,-594,1.86365,23.6602,0.002695,0.00255854,0.00176931,0.0043974,0.000856143,0.766127,0.00269199,0.0172584,902,1618,1.86366,-23.6602
-315,-594,1.87012,24.046,0.00325922,0.00346177,0.00214273,0.00550561,0.00121537,0.809013,0.00333983,0.0169055,909,1618,1.87012,-24.0461
-308,-594,1.85602,24.428,0.00380606,0.00419915,0.00251403,0.0065243,0.00148091,0.824409,0.00394956,0.0143718,916,1618,1.85602,-24.428
-301,-594,1.83643,24.8164,0.00437188,0.00496621,0.00302874,0.00771233,0.00162577,0.834299,0.00469442,0.0112099,923,1618,1.8364,-24.8164
-294,-594,1.86005,25.1941,0.00504293,0.00610655,0.00389427,0.00950515,0.00164433,0.853259,0.00586599,0.0138296,930,1618,1.86003,-25.1941
-287,-594,1.81024,25.577,0.00561699,0.00739478,0.00469466,0.0112839,0.00172781,0.878962,0.00701795,0.0248289,937,1618,1.81023,-25.577
-280,-594,1.94891,26.014,0.00626527,0.00888234,0.0056096,0.013334,0.00181361,0.899983,0.0083507,0.0305813,944,1618,1.94893,-26.0141
-273,-594,1.91748,26.5343,0.00685152,0.00997783,0.00646699,0.0150679,0.00176145,0.90398,0.00951264,0.0382015,951,1618,1.91749,-26.5343
-266,-594,1.83221,27.0316,0.00742447,0.0115781,0.0074589,0.0172439,0.00175864,0.921175,0.0109569,0.0443814,958,1618,1.83224,-27.0317
-259,-594,1.82983,27.3995,0,0,0,0,0,0,0,-1,965,1618,1.82986,-27.3995
-252,-594,2.05377,27.5135,0,0,0,0,0,0,0,-1,972,1618,2.05379,-27.5136
-245,-594,2.30872,28.1147,0,0,0,0,0,0,0,-1,979,1618,2.30873,-28.1148
-238,-594,2.10962,25.5623,0,0,0,0,0,0,0,-1,986,1618,2.10965,-25.5622
-231,-594,1.93774,9.35388,0,0,0,0,0,0,0,-1,993,1618,1.93776,-9.35393
-224,-594,1.81824,8.62744,0,0,0,0,0,0,0,-1,1000,1618,1.81822,-8.62745
-217,-594,-8.24066,12.0752,0,0,0,0,0,0,0,-1,1007,1618,-8.24068,-12.0751
-210,-594,-5.61438,14.2119,0,0,0,0,0,0,0,-1,1014,1618,-5.6144,-14.212
-203,-594,-3.94507,15.5768,0,0,0,0,0,0,0,-1,1021,1618,-3.94506,-15.5768
-196,-594,2.78613,10.5815,0,0,0,0,0,0,0,-1,1028,1618,2.78612,-10.5815
-189,-594,2.60913,9.48865,0,0,0,0,0,0,0,-1,1035,1618,2.6091,-9.48871
-182,-594,1.2395,9.38806,0,0,0,0,0,0,0,-1,1042,1618,1.23951,-9.38804
-175,-594,0.234863,8.73792,0,0,0,0,0,0,0,-1,1049,1618,0.234812,-8.73786
-168,-594,-0.495483,8.46289,0,0,0,0,0,0,0,-1,1056,1618,-0.495513,-8.46285
-161,-594,-1.39734,8.28699,0,0,0,0,0,0,0,-1,1063,1618,-1.39729,-8.28699
-154,-594,-0.000854492,7.68445,0,0,0,0,0,0,0,-1,1070,1618,-0.000805755,-7.6845
-147,-594,0.348267,9.3385,0,0,0,0,0,0,0,-1,1077,1618,0.348237,-9.33849
-140,-594,0.675171,11.5884,0,0,0,0,0,0,0,-1,1084,1618,0.675204,-11.5884
-133,-594,0,0,0,0,0,0,0,0,0,-1,1091,1618,0,0
-126,-594,0,0,0,0,0,0,0,0,0,-1,1098,1618,0,0
-119,-594,0,0,0,0,0,0,0,0,0,-1,1105,1618,0,0
-112,-594,0,0,0,0,0,0,0,0,0,-1,1112,1618,0,0
-105,-594,0,0,0,0,0,0,0,0,0,-1,1119,1618,0,0
-98,-594,0,0,0,0,0,0,0,0,0,-1,1126,1618,0,0
-91,-594,0,0,0,0,0,0,0,0,0,-1,1133,1618,0,0
-84,-594,0,0,0,0,0,0,0,0,0,-1,1140,1618,0,0
-77,-594,0,0,0,0,0,0,0,0,0,-1,1147,1618,0,0
-70,-594,0,0,0,0,0,0,0,0,0,-1,1154,1618,0,0
-63,-594,0,0,0,0,0,0,0,0,0,-1,1161,1618,0,0
-56,-594,0,0,0,0,0,0,0,0,0,-1,1168,1618,0,0
-49,-594,0,0,0,0,0,0,0,0,0,-1,1175,1618,0,0
-42,-594,0,0,0,0,0,0,0,0,0,-1,1182,1618,0,0
-35,-594,0,0,0,0,0,0,0,0,0,-1,1189,1618,0,0
-28,-594,0,0,0,0,0,0,0,0,0,-1,1196,1618,0,0
-21,-594,0,0,0,0,0,0,0,0,0,-1,1203,1618,0,0
-14,-594,0,0,0,0,0,0,0,0,0,-1,1210,1618,0,0
-7,-594,0,0,0,0,0,0,0,0,0,-1,1217,1618,0,0
0,-594,0,0,0,0,0,0,0,0,0,-1,1224,1618,0,0
7,-594,0,0,0,0,0,0,0,0,0,-1,1231,1618,0,0
14,-594,0,0,0,0,0,0,0,0,0,-1,1238,1618,0,0
21,-594,0,0,0,0,0,0,0,0,0,-1,1245,1618,0,0
28,-594,0,0,0,0,0,0,0,0,0,-1,1252,1618,0,0
35,-594,0,0,0,0,0,0,0,0,0,-1,1259,1618,0,0
42,-594,0,0,0,0,0,0,0,0,0,-1,1266,1618,0,0
49,-594,0,0,0,0,0,0,0,0,0,-1,1273,1618,0,0
56,-594,0,0,0,0,0,0,0,0,0,-1,1280,1618,0,0
63,-594,0,0,0,0,0,0,0,0,0,-1,1287,1618,0,0
70,-594,0,0,0,0,0,0,0,0,0,-1,1294,1618,0,0
77,-594,0,0,0,0,0,0,0,0,0,-1,1301,1618,0,0
84,-594,0,0,0,0,0,0,0,0,0,-1,1308,1618,0,0
91,-594,0,0,0,0,0,0,0,0,0,-1,1315,1618,0,0
98,-594,0,0,0,0,0,0,0,0,0,-1,1322,1618,0,0
105,-594,0,0,0,0,0,0,0,0,0,-1,1329,1618,0,0
112,-594,0,0,0,0,0,0,0,0,0,-1,1336,1618,0,0
119,-594,0,0,0,0,0,0,0,0,0,-1,1343,1618,0,0
126,-594,0,0,0,0,0,0,0,0,0,-1,1350,1618,0,0
133,-594,0,0,0,0,0,0,0,0,0,-1,1357,1618,0,0
140,-594,0,0,0,0,0,0,0,0,0,-1,1364,1618,0,0
147,-594,0,0,0,0,0,0,0,0,0,-1,1371,1618,0,0
154,-594,0,0,0,0,0,0,0,0,0,-1,1378,1618,0,0
161,-594,0,0,0,0,0,0,0,0,0,-1,1385,1618,0,0
168,-594,0,0,0,0,0,0,0,0,0,-1,1392,1618,0,0
175,-594,0,0,0,0,0,0,0,0,0,-1,1399,1618,0,0
182,-594,0,0,0,0,0,0,0,0,0,-1,1406,1618,0,0
189,-594,0,0,0,0,0,0,0,0,0,-1,1413,1618,0,0
196,-594,0,0,0,0,0,0,0,0,0,-1,1420,1618,0,0
203,-594,0,0,0,0,0,0,0,0,0,-1,1427,1618,0,0
210,-594,0,0,0,0,0,0,0,0,0,-1,1434,1618,0,0
217,-594,0,0,0,0,0,0,0,0,0,-1,1441,1618,0,0
224,-594,0,0,0,0,0,0,0,0,0,-1,1448,1618,0,0
231,-594,0,0,0,0,0,0,0,0,0,-1,1455,1618,0,0
238,-594,0,0,0,0,0,0,0,0,0,-1,1462,1618,0,0
245,-594,0,0,0,0,0,0,0,0,0,-1,1469,1618,0,0
252,-594,3.03674,1.20996,0,0,0,0,0,0,0,-1,1476,1618,3.0368,-1.20999
259,-594,4.79834,1.53113,0,0,0,0,0,0,0,-1,1483,1618,4.79837,-1.53118
266,-594,3.71606,2.68152,0,0,0,0,0,0,0,-1,1490,1618,3.71609,-2.68149
273,-594,9.7655,6.33557,0,0,0,0,0,0,0,-1,1497,1618,9.76555,-6.33554
280,-594,3.13281,0.911255,0,0,0,0,0,0,0,-1,1504,1618,3.13277,-0.911207
287,-594,4.42749,1.51563,0,0,0,0,0,0,0,-1,1511,1618,4.42747,-1.51564
294,-594,5.36475,3.34937,0,0,0,0,0,0,0,-1,1518,1618,5.36475,-3.3494
301,-594,7.97144,9.04333,0,0,0,0,0,0,0,-1,1525,1618,7.9714,-9.04328
308,-594,6.30347,10.4633,0,0,0,0,0,0,0,-1,1532,1618,6.30351,-10.4633
315,-594,4.62012,11.934,0,0,0,0,0,0,0,-1,1539,1618,4.62006,-11.934
322,-594,2.91528,13.3134,0,0,0,0,0,0,0,-1,1546,1618,2.91523,-13.3133
329,-594,4.19861,9.77258,0,0,0,0,0,0,0,-1,1553,1618,4.19865,-9.77264
336,-594,10.1353,4.66528,0,0,0,0,0,0,0,-1,1560,1618,10.1353,-4.66533
343,-594,10.5729,3.71228,0,0,0,0,0,0,0,-1,1567,1618,10.5729,-3.71232
350,-594,10.219,2.98792,0,0,0,0,0,0,0,-1,1574,1618,10.219,-2.98797
357,-594,9.83154,1.96326,0,0,0,0,0,0,0,-1,1581,1618,9.8315,-1.96321
364,-594,9.74939,0.700562,0,0,0,0,0,0,0,-1,1588,1618,9.74939,-0.700615
371,-594,8.54297,14.3988,0,0,0,0,0,0,0,-1,1595,1618,8.54296,-14.3989
378,-594,8.9137,16.3073,0,0,0,0,0,0,0,-1,1602,1618,8.91369,-16.3072
385,-594,11.3333,26.4623,0,0,0,0,0,0,0,-1,1609,1618,11.3333,-26.4623
392,-594,12.1274,27.7899,0,0,0,0,0,0,0,-1,1616,1618,12.1275,-27.7899
399,-594,12.5382,27.4191,0.00458517,0.0125909,-0.000712897,0.0126539,0.00452219,-1.48267,0.00740417,0.0397197,1623,1618,12.5382,-27.4191
406,-594,12.7263,27.0928,0.00331543,0.0107942,-0.000451442,0.0108213,0.00328828,-1.51072,0.0064059,0.0249733,1630,1618,12.7264,-27.0928
413,-594,12.7073,26.718,0.00245679,0.00960103,-0.00055484,0.00964386,0.00241396,-1.49375,0.00579469,0.0181653,1637,1618,12.7073,-26.718
420,-594,12.7068,26.3247,0.0018575,0.00853423,-0.000713163,0.00860955,0.00178217,-1.46556,0.00524751,0.0146611,1644,1618,12.7067,-26.3247
427,-594,12.7258,25.9565,0.00148111,0.00777694,-0.000936559,0.00791331,0.00134475,-1.42621,0.00488933,0.0121862,1651,1618,12.7258,-25.9565
434,-594,12.6931,25.5729,0.00122467,0.00681282,-0.00112252,0.00702988,0.00100762,-1.37979,0.00438943,0.0165878,1658,1618,12.6931,-25.5729
441,-594,12.6792,25.1683,0.00111049,0.00607937,-0.00137163,0.00643285,0.000757004,-1.31857,0.00405983,0.0144057,1665,1618,12.6792,-25.1683
448,-594,12.7002,24.7904,0.00103934,0.00537118,-0.00149037,0.00583441,0.000576112,-1.26945,0.0037125,0.015919,1672,1618,12.7002,-24.7904
455,-594,12.679,24.4235,0.0008812,0.00455919,-0.0015685,0.00513724,0.000303149,-1.2177,0.00332838,0.0125021,1679,1618,12.679,-24.4234
462,-594,12.6742,24.046,0.000736822,0.00366475,-0.00157694,0.00435251,4.90593e-05,-1.15953,0.00288546,0.0145084,1686,1618,12.6742,-24.046
469,-594,12.6775,23.6777,0.000648663,0.00277028,-0.00145587,0.00351083,-9.18841e-05,-1.10024,0.00237177,0.0124582,1693,1618,12.6775,-23.6777
476,-594,12.6613,23.3004,0.000358365,0.00176141,-0.0011371,0.00239598,-0.000276201,-1.06179,0.00169689,0.0114437,1700,1618,12.6613,-23.3004
483,-594,12.6582,22.8979,-0.000146657,0.000739723,-0.000714226,0.00113709,-0.000544024,-1.06308,0.000990519,0.0154233,1707,1618,12.6582,-22.8979
490,-594,12.6401,22.4813,-0.000767903,-0.000299671,-0.00017037,-0.000244242,-0.000823332,-1.25625,0.000488279,0.0137408,1714,1618,12.6401,-22.4813
497,-594,12.6077,22.0712,-0.00158229,-0.00128368,0.000437385,-0.000970819,-0.00189515,0.949878,0.00109428,0.0102219,1721,1618,12.6076,-22.0711
504,-594,12.6099,21.6766,-0.00274437,-0.00259378,0.00146836,-0.00119879,-0.00413936,0.811016,0.00245938,0.0106615,1728,1618,12.6099,-21.6767
511,-594,12.6089,21.2446,-0.0040041,-0.00408813,0.00264285,-0.00140293,-0.0066893,0.777451,0.00407324,0.0147648,1735,1618,12.6089,-21.2447
518,-594,12.5659,20.8297,-0.0053676,-0.00565086,0.00396279,-0.0015439,-0.00947455,0.767536,0.00586981,0.0196892,1742,1618,12.566,-20.8297
525,-594,12.5859,20.4761,-0.00699608,-0.00768818,0.00577012,-0.00156165,-0.0131226,0.755447,0.00827711,0.0327152,1749,1618,12.5859,-20.4761
532,-594,12.39,20.0945,0,0,0,0,0,0,0,-1,1756,1618,12.3901,-20.0944
539,-594,13.1698,19.3477,0,0,0,0,0,0,0,-1,1763,1618,13.1698,-19.3476
546,-594,7.48645,8.54785,0,0,0,0,0,0,0,-1,1770,1618,7.48639,-8.54789
553,-594,3.69714,5.68762,0,0,0,0,0,0,0,-1,1777,1618,3.69715,-5.68764
560,-594,6.06616,4.44482,0,0,0,0,0,0,0,-1,1784,1618,6.06621,-4.44477
567,-594,5.97266,4.73303,0,0,0,0,0,0,0,-1,1791,1618,5.97271,-4.73309
574,-594,5.9906,4.96326,0,0,0,0,0,0,0,-1,1798,1618,5.99065,-4.96326
581,-594,0,0,0,0,0,0,0,0,0,-1,1805,1618,0,0
588,-594,0,0,0,0,0,0,0,0,0,-1,1812,1618,0,0
595,-594,0,0,0,0,0,0,0,0,0,-1,1819,1618,0,0
602,-594,0,0,0,0,0,0,0,0,0,-1,1826,1618,0,0
609,-594,0,0,0,0,0,0,0,0,0,-1,1833,1618,0,0
616,-594,0,0,0,0,0,0,0,0,0,-1,1840,1618,0,0
623,-594,0,0,0,0,0,0,0,0,0,-1,1847,1618,0,0
630,-594,0,0,0,0,0,0,0,0,0,-1,1854,1618,0,0
637,-594,0,0,0,0,0,0,0,0,0,-1,1861,1618,0,0
644,-594,0,0,0,0,0,0,0,0,0,-1,1868,1618,0,0
651,-594,0,0,0,0,0,0,0,0,0,-1,1875,1618,0,0
658,-594,0,0,0,0,0,0,0,0,0,-1,1882,1618,0,0
665,-594,0,0,0,0,0,0,0,0,0,-1,1889,1618,0,0
672,-594,0,0,0,0,0,0,0,0,0,-1,1896,1618,0,0
679,-594,0,0,0,0,0,0,0,0,0,-1,1903,1618,0,0
686,-594,0,0,0,0,0,0,0,0,0,-1,1910,1618,0,0
693,-594,0,0,0,0,0,0,0,0,0,-1,1917,1618,0,0
700,-594,0,0,0,0,0,0,0,0,0,-1,1924,1618,0,0
707,-594,0,0,0,0,0,0,0,0,0,-1,1931,1618,0,0
714,-594,0,0,0,0,0,0,0,0,0,-1,1938,1618,0,0
721,-594,0,0,0,0,0,0,0,0,0,-1,1945,1618,0,0
728,-594,0,0,0,0,0,0,0,0,0,-1,1952,1618,0,0
735,-594,0,0,0,0,0,0,0,0,0,-1,1959,1618,0,0
742,-594,0,0,0,0,0,0,0,0,0,-1,1966,1618,0,0
749,-594,0,0,0,0,0,0,0,0,0,-1,1973,1618,0,0
756,-594,0,0,0,0,0,0,0,0,0,-1,1980,1618,0,0
763,-594,0,0,0,0,0,0,0,0,0,-1,1987,1618,0,0
770,-594,0,0,0,0,0,0,0,0,0,-1,1994,1618,0,0
777,-594,0,0,0,0,0,0,0,0,0,-1,2001,1618,0,0
784,-594,0,0,0,0,0,0,0,0,0,-1,2008,1618,0,0
791,-594,0,0,0,0,0,0,0,0,0,-1,2015,1618,0,0
798,-594,0,0,0,0,0,0,0,0,0,-1,2022,1618,0,0
805,-594,0,0,0,0,0,0,0,0,0,-1,2029,1618,0,0
812,-594,0,0,0,0,0,0,0,0,0,-1,2036,1618,0,0
-700,-601,0,0,0,0,0,0,0,0,0,-1,524,1625,0,0
-693,-601,0,0,0,0,0,0,0,0,0,-1,531,1625,0,0
-686,-601,0,0,0,0,0,0,0,0,0,-1,538,1625,0,0
-679,-601,0,0,0,0,0,0,0,0,0,-1,545,1625,0,0
-672,-601,0,0,0,0,0,0,0,0,0,-1,552,1625,0,0
-665,-601,0,0,0,0,0,0,0,0,0,-1,559,1625,0,0
-658,-601,0,0,0,0,0,0,0,0,0,-1,566,1625,0,0
-651,-601,0,0,0,0,0,0,0,0,0,-1,573,1625,0,0
-644,-601,0,0,0,0,0,0,0,0,0,-1,580,1625,0,0
-637,-601,0,0,0,0,0,0,0,0,0,-1,587,1625,0,0
-630,-601,0,0,0,0,0,0,0,0,0,-1,594,1625,0,0
-623,-601,0,0,0,0,0,0,0,0,0,-1,601,1625,0,0
-616,-601,0,0,0,0,0,0,0,0,0,-1,608,1625,0,0
-609,-601,0,0,0,0,0,0,0,0,0,-1,615,1625,0,0
-602,-601,0,0,0,0,0,0,0,0,0,-1,622,1625,0,0
-595,-601,0,0,0,0,0,0,0,0,0,-1,629,1625,0,0
-588,-601,0,0,0,0,0,0,0,0,0,-1,636,1625,0,0
-581,-601,0,0,0,0,0,0,0,0,0,-1,643,1625,0,0
-574,-601,0,0,0,0,0,0,0,0,0,-1,650,1625,0,0
-567,-601,0,0,0,0,0,0,0,0,0,-1,657,1625,0,0
-560,-601,0,0,0,0,0,0,0,0,0,-1,664,1625,0,0
-553,-601,0,0,0,0,0,0,0,0,0,-1,671,1625,0,0
-546,-601,0,0,0,0,0,0,0,0,0,-1,678,1625,0,0
-539,-601,0,0,0,0,0,0,0,0,0,-1,685,1625,0,0
-532,-601,0,0,0,0,0,0,0,0,0,-1,692,1625,0,0
-525,-601,0,0,0,0,0,0,0,0,0,-1,699,1625,0,0
-518,-601,0,0,0,0,0,0,0,0,0,-1,706,1625,0,0
-511,-601,0,0,0,0,0,0,0,0,0,-1,713,1625,0,0
-504,-601,0,0,0,0,0,0,0,0,0,-1,720,1625,0,0
-497,-601,0,0,0,0,0,0,0,0,0,-1,727,1625,0,0
-490,-601,0,0,0,0,0,0,0,0,0,-1,734,1625,0,0
-483,-601,0,0,0,0,0,0,0,0,0,-1,741,1625,0,0
-476,-601,0,0,0,0,0,0,0,0,0,-1,748,1625,0,0
-469,-601,0,0,0,0,0,0,0,0,0,-1,755,1625,0,0
-462,-601,0,0,0,0,0,0,0,0,0,-1,762,1625,0,0
-455,-601,0,0,0,0,0,0,0,0,0,-1,769,1625,0,0
-448,-601,-7.07623,2.7616,0,0,0,0,0,0,0,-1,776,1625,-7.07626,-2.76161
-441,-601,-6.06689,3.33447,0,0,0,0,0,0,0,-1,783,1625,-6.06691,-3.33448
-434,-601,-5.02655,3.8468,0,0,0,0,0,0,0,-1,790,1625,-5.02657,-3.84674
-427,-601,-5.78601,4.2406,0,0,0,0,0,0,0,-1,797,1625,-5.786,-4.24058
-420,-601,-5.5191,5.60364,0,0,0,0,0,0,0,-1,804,1625,-5.51907,-5.60368
-413,-601,-4.30756,5.86047,0,0,0,0,0,0,0,-1,811,1625,-4.30757,-5.86046
-406,-601,-1.67493,7.20422,0,0,0,0,0,0,0,-1,818,1625,-1.67493,-7.20428
-399,-601,1.40094,15.3108,0,0,0,0,0,0,0,-1,825,1625,1.40096,-15.3107
-392,-601,2.56104,19.5203,0,0,0,0,0,0,0,-1,832,1625,2.56103,-19.5203
-385,-601,2.51111,19.8136,-0.00825561,-0.00100484,-0.000173058,-0.00100071,-0.00825974,-1.54695,0.00520509,0.0461278,839,1625,2.5111,-19.8136
-378,-601,2.33472,20.3446,-0.00664773,-0.00107938,-4.6226e-06,-0.00107938,-0.00664773,-1.56997,0.00411944,0.040277,846,1625,2.33474,-20.3446
-371,-601,2.32593,20.6687,-0.00531085,-0.000966511,3.48269e-05,-0.000966232,-0.00531112,1.56278,0.00326666,0.0222508,853,1625,2.32593,-20.6686
-364,-601,2.33148,21.1062,-0.00412302,-0.000833108,0.000107836,-0.000829577,-0.00412655,1.53807,0.00252043,0.0121829,860,1625,2.3315,-21.1063
-357,-601,2.30084,21.5555,-0.00297889,-0.000588729,0.00024871,-0.000563124,-0.00300449,1.46821,0.00184417,0.00959651,867,1625,2.30086,-21.5556
-350,-601,2.30927,22.0182,-0.00190678,-0.00030429,0.000378499,-0.000219389,-0.00199168,1.35014,0.00126104,0.0194432,874,1625,2.30925,-22.0181
-343,-601,2.26532,22.4669,-0.000883353,3.98502e-05,0.000637348,0.000365197,-0.0012087,1.09881,0.000951195,0.0231942,881,1625,2.26532,-22.4669
-336,-601,2.22186,22.8958,6.62328e-05,0.000531875,0.00081314,0.00114487,-0.000546761,0.924829,0.000996804,0.0197788,888,1625,2.22186,-22.8958
-329,-601,2.23444,23.28,0.000942981,0.000973273,0.00102382,0.00198206,-6.58056e-05,0.792794,0.00134385,0.0163222,895,1625,2.23446,-23.28
-322,-601,2.24866,23.6707,0.0016038,0.00160211,0.00130252,0.00290548,0.000300431,0.785072,0.00184501,0.0134884,902,1625,2.24866,-23.6707
-315,-601,2.26746,24.0276,0.00213644,0.00234312,0.00159324,0.00383637,0.000643193,0.817783,0.00237242,0.0129892,909,1625,2.26747,-24.0276
-308,-601,2.24146,24.4204,0.00266253,0.00297215,0.00186957,0.0046933,0.000941372,0.826706,0.00286707,0.0117248,916,1625,2.24148,-24.4204
-301,-601,2.23077,24.8159,0.00319731,0.00362929,0.00225879,0.00568239,0.00114421,0.833065,0.00347032,0.0100684,923,1625,2.2308,-24.816
-294,-601,2.2262,25.2047,0.00380584,0.00462058,0.0029063,0.00714792,0.0012785,0.855029,0.00440145,0.0101462,930,1625,2.22622,-25.2047
-287,-601,2.20538,25.6156,0.0043096,0.00573347,0.00345916,0.0085532,0.00148987,0.886887,0.0052761,0.0104357,937,1625,2.20541,-25.6156
-280,-601,2.22083,26.0201,0.00489574,0.00691491,0.00412558,0.0101526,0.00165801,0.905397,0.00628903,0.0154618,944,1625,2.22083,-26.0201
-273,-601,2.22382,26.4425,0.00546696,0.00782577,0.00476725,0.0115573,0.00173539,0.906662,0.00719652,0.0169424,951,1625,2.22384,-26.4425
-266,-601,2.26904,26.8375,0.00599499,0.00906274,0.00547584,0.0132155,0.00184225,0.921957,0.00826497,0.0200286,958,1625,2.26906,-26.8376
-259,-601,2.29004,27.0957,0.0066828,0.0102606,0.00633193,0.0150515,0.00189192,0.92307,0.00946691,0.0289775,965,1625,2.29003,-27.0956
-252,-601,2.32996,27.5093,0.00770466,0.0115948,0.00737766,0.0172795,0.00201999,0.914288,0.0109089,0.0425129,972,1625,2.32993,-27.5093
-245,-601,2.47791,28.2216,0.0088734,0.01305,0.0085507,0.0197637,0.00215969,0.905167,0.0125182,0.0442543,979,1625,2.47791,-28.2216
-238,-601,2.66321,29.0281,0,0,0,0,0,0,0,-1,986,1625,2.6632,-29.0281
-231,-601,2.66772,13.7051,0,0,0,0,0,0,0,-1,993,1625,2.6677,-13.7051
-224,-601,-0.0305176,9.13684,0,0,0,0,0,0,0,-1,1000,1625,-0.030498,-9.13681
-217,-601,3.39429,10.3898,0,0,0,0,0,0,0,-1,1007,1625,3.39431,-10.3898
-210,-601,-6.53699,15.7931,0,0,0,0,0,0,0,-1,1014,1625,-6.53697,-15.7931
-203,-601,2.69348,15.9099,0,0,0,0,0,0,0,-1,1021,1625,2.69351,-15.91
-196,-601,2.66992,16.1815,0,0,0,0,0,0,0,-1,1028,1625,2.66995,-16.1815
-189,-601,2.849,16.6105,0,0,0,0,0,0,0,-1,1035,1625,2.84902,-16.6104
-182,-601,1.82153,13.9752,0,0,0,0,0,0,0,-1,1042,1625,1.82155,-13.9752
-175,-601,0.544922,9.28687,0,0,0,0,0,0,0,-1,1049,1625,0.544879,-9.28685
-168,-601,-0.247559,8.97461,0,0,0,0,0,0,0,-1,1056,1625,-0.247598,-8.97466
-161,-601,-1.16833,8.80078,0,0,0,0,0,0,0,-1,1063,1625,-1.16837,-8.80081
-154,-601,1.12756,7.94861,0,0,0,0,0,0,0,-1,1070,1625,1.12762,-7.94855
-147,-601,1.35352,9.55432,0,0,0,0,0,0,0,-1,1077,1625,1.35351,-9.55429
-140,-601,1.72437,11.1498,0,0,0,0,0,0,0,-1,1084,1625,1.72432,-11.1498
-133,-601,2.13281,12.8347,0,0,0,0,0,0,0,-1,1091,1625,2.13287,-12.8348
-126,-601,3.09534,15.427,0,0,0,0,0,0,0,-1,1098,1625,3.0953,-15.4271
-119,-601,1.22485,9.43457,0,0,0,0,0,0,0,-1,1105,1625,1.22489,-9.43456
-112,-601,0,0,0,0,0,0,0,0,0,-1,1112,1625,0,0
-105,-601,0,0,0,0,0,0,0,0,0,-1,1119,1625,0,0
-98,-601,0,0,0,0,0,0,0,0,0,-1,1126,1625,0,0
-91,-601,0,0,0,0,0,0,0,0,0,-1,1133,1625,0,0
-84,-601,0,0,0,0,0,0,0,0,0,-1,1140,1625,0,0
-77,-601,0,0,0,0,0,0,0,0,0,-1,1147,1625,0,0
-70,-601,0,0,0,0,0,0,0,0,0,-1,1154,1625,0,0
-63,-601,0,0,0,0,0,0,0,0,0,-1,1161,1625,0,0
-56,-601,0,0,0,0,0,0,0,0,0,-1,1168,1625,0,0
-49,-601,0,0,0,0,0,0,0,0,0,-1,1175,1625,0,0
-42,-601,0,0,0,0,0,0,0,0,0,-1,1182,1625,0,0
-35,-601,0,0,0,0,0,0,0,0,0,-1,1189,1625,0,0
-28,-601,0,0,0,0,0,0,0,0,0,-1,1196,1625,0,0
-21,-601,0,0,0,0,0,0,0,0,0,-1,1203,1625,0,0
-14,-601,0,0,0,0,0,0,0,0,0,-1,1210,1625,0,0
-7,-601,0,0,0,0,0,0,0,0,0,-1,1217,1625,0,0
0,-601,0,0,0,0,0,0,0,0,0,-1,1224,1625,0,0
7,-601,0,0,0,0,0,0,0,0,0,-1,1231,1625,0,0
14,-601,0,0,0,0,0,0,0,0,0,-1,1238,1625,0,0
21,-601,0,0,0,0,0,0,0,0,0,-1,1245,1625,0,0
28,-601,0,0,0,0,0,0,0,0,0,-1,1252,1625,0,0
35,-601,0,0,0,0,0,0,0,0,0,-1,1259,1625,0,0
42,-601,0,0,0,0,0,0,0,0,0,-1,1266,1625,0,0
49,-601,0,0,0,0,0,0,0,0,0,-1,1273,1625,0,0
56,-601,0,0,0,0,0,0,0,0,0,-1,1280,1625,0,0
63,-601,0,0,0,0,0,0,0,0,0,-1,1287,1625,0,0
70,-601,0,0,0,0,0,0,0,0,0,-1,1294,1625,0,0
77,-601,0,0,0,0,0,0,0,0,0,-1,1301,1625,0,0
84,-601,0,0,0,0,0,0,0,0,0,-1,1308,1625,0,0
91,-601,0,0,0,0,0,0,0,0,0,-1,1315,1625,0,0
98,-601,0,0,0,0,0,0,0,0,0,-1,1322,1625,0,0
105,-601,0,0,0,0,0,0,0,0,0,-1,1329,1625,0,0
112,-601,0,0,0,0,0,0,0,0,0,-1,1336,1625,0,0
119,-601,0,0,0,0,0,0,0,0,0,-1,1343,1625,0,0
126,-601,0,0,0,0,0,0,0,0,0,-1,1350,1625,0,0
133,-601,0,0,0,0,0,0,0,0,0,-1,1357,1625,0,0
140,-601,0,0,0,0,0,0,0,0,0,-1,1364,1625,0,0
147,-601,0,0,0,0,0,0,0,0,0,-1,1371,1625,0,0
154,-601,0,0,0,0,0,0,0,0,0,-1,1378,1625,0,0
161,-601,0,0,0,0,0,0,0,0,0,-1,1385,1625,0,0
168,-601,0,0,0,0,0,0,0,0,0,-1,1392,1625,0,0
175,-601,0,0,0,0,0,0,0,0,0,-1,1399,1625,0,0
182,-601,0,0,0,0,0,0,0,0,0,-1,1406,1625,0,0
189,-601,0,0,0,0,0,0,0,0,0,-1,1413,1625,0,0
196,-601,0,0,0,0,0,0,0,0,0,-1,1420,1625,0,0
203,-601,0,0,0,0,0,0,0,0,0,-1,1427,1625,0,0
210,-601,0,0,0,0,0,0,0,0,0,-1,1434,1625,0,0
217,-601,0,0,0,0,0,0,0,0,0,-1,1441,1625,0,0
224,-601,0,0,0,0,0,0,0,0,0,-1,1448,1625,0,0
231,-601,-0.0371094,0.525879,0,0,0,0,0,0,0,-1,1455,1625,-0.0371518,-0.525824
238,-601,2.03369,-1.32861,0,0,0,0,0,0,0,-1,1462,1625,2.03364,1.32858
245,-601,2.71375,2.44983,0,0,0,0,0,0,0,-1,1469,1625,2.71371,-2.44979
252,-601,4.66943,2.28381,0,0,0,0,0,0,0,-1,1476,1625,4.66947,-2.28376
259,-601,6.42712,2.61987,0,0,0,0,0,0,0,-1,1483,1625,6.42711,-2.61985
266,-601,6.75317,1.68701,0,0,0,0,0,0,0,-1,1490,1625,6.75323,-1.687
273,-601,5.4314,2.92053,0,0,0,0,0,0,0,-1,1497,1625,5.43144,-2.92051
280,-601,4.64722,1.17786,0,0,0,0,0,0,0,-1,1504,1625,4.64722,-1.1779
287,-601,5.32532,2.6217,0,0,0,0,0,0,0,-1,1511,1625,5.32535,-2.62171
294,-601,5.97693,4.22693,0,0,0,0,0,0,0,-1,1518,1625,5.97697,-4.22694
301,-601,7.28162,9.50024,0,0,0,0,0,0,0,-1,1525,1625,7.28162,-9.50025
308,-601,6.53528,10.3927,0,0,0,0,0,0,0,-1,1532,1625,6.53529,-10.3927
315,-601,4.88013,11.7184,0,0,0,0,0,0,0,-1,1539,1625,4.88015,-11.7184
322,-601,3.38098,12.7864,0,0,0,0,0,0,0,-1,1546,1625,3.38104,-12.7864
329,-601,1.8772,13.8768,0,0,0,0,0,0,0,-1,1553,1625,1.87716,-13.8768
336,-601,4.67847,9.53308,0,0,0,0,0,0,0,-1,1560,1625,4.67848,-9.53309
343,-601,11.1404,3.14575,0,0,0,0,0,0,0,-1,1567,1625,11.1404,-3.1458
350,-601,10.9462,2.37769,0,0,0,0,0,0,0,-1,1574,1625,10.9461,-2.37764
357,-601,10.7518,1.6095,0,0,0,0,0,0,0,-1,1581,1625,10.7518,-1.60948
364,-601,5.33643,9.74426,0,0,0,0,0,0,0,-1,1588,1625,5.33637,-9.74429
371,-601,8.46387,16.2725,0,0,0,0,0,0,0,-1,1595,1625,8.46385,-16.2725
378,-601,12.2914,28.9816,0,0,0,0,0,0,0,-1,1602,1625,12.2914,-28.9816
385,-601,12.3732,28.3734,0,0,0,0,0,0,0,-1,1609,1625,12.3732,-28.3734
392,-601,12.1378,27.7423,0.0053398,0.0122691,-0.00158953,0.0126164,0.00499257,-1.35573,0.00733668,0.0419341,1616,1625,12.1378,-27.7423
399,-601,12.2511,27.3474,0.00411736,0.01033,-0.000856451,0.0104459,0.00400145,-1.43628,0.00608568,0.0213197,1623,1625,12.2511,-27.3474
406,-601,12.344,26.9938,0.00313043,0.00875987,-0.000560613,0.00881516,0.00307515,-1.4725,0.00516637,0.0129014,1630,1625,12.344,-26.9938
413,-601,12.326,26.6376,0.0023939,0.00759764,-0.000528628,0.0076508,0.00234074,-1.47057,0.00452673,0.0115069,1637,1625,12.326,-26.6376
420,-601,12.3237,26.2716,0.00182396,0.00651043,-0.000535479,0.00657084,0.00176355,-1.45846,0.003927,0.0104404,1644,1625,12.3238,-26.2716
427,-601,12.3362,25.9307,0.00142773,0.00576205,-0.000671055,0.00586357,0.00132621,-1.42065,0.00355052,0.0146077,1651,1625,12.3362,-25.9306
434,-601,12.3225,25.5485,0.00115849,0.00484935,-0.000804841,0.00501722,0.000990615,-1.36517,0.00306839,0.015256,1658,1625,12.3226,-25.5485
441,-601,12.3123,25.153,0.00100704,0.00417422,-0.00100665,0.00446709,0.000714169,-1.28768,0.00277086,0.0158169,1665,1625,12.3123,-25.153
448,-601,12.3269,24.7957,0.000878964,0.00351187,-0.00110166,0.00391202,0.000478822,-1.2224,0.00246396,0.0142764,1672,1625,12.3268,-24.7956
455,-601,12.3319,24.4127,0.000674773,0.00278486,-0.0011792,0.0033121,0.000147529,-1.15034,0.00216057,0.013483,1679,1625,12.3319,-24.4127
462,-601,12.3162,24.0437,0.000444171,0.00198061,-0.00115634,0.00260065,-0.000175878,-1.0786,0.00179527,0.0123301,1686,1625,12.3162,-24.0437
469,-601,12.3011,23.6995,0.000273201,0.00118706,-0.00103641,0.0018628,-0.000402539,-0.993018,0.00139553,0.0118144,1693,1625,12.3012,-23.6995
476,-601,12.2665,23.3091,-8.75009e-05,0.000323466,-0.000747138,0.000892863,-0.000656897,-0.919594,0.000898205,0.0132523,1700,1625,12.2664,-23.3091
483,-601,12.2465,22.9032,-0.000699112,-0.000553481,-0.000347132,-0.00027161,-0.000980984,-0.888781,0.000584867,0.0167621,1707,1625,12.2465,-22.9032
490,-601,12.2445,22.5052,-0.00143552,-0.00143474,0.000153248,-0.00128188,-0.00158838,0.78666,0.00097298,0.012903,1714,1625,12.2445,-22.5052
497,-601,12.2388,22.1127,-0.00238191,-0.00226928,0.000730738,-0.00159269,-0.0030585,0.823854,0.00176633,0.0111328,1721,1625,12.2388,-22.1127
504,-601,12.2742,21.6919,-0.00372934,-0.0033795,0.00177244,-0.00177338,-0.00533547,0.834583,0.00313761,0.0203341,1728,1625,12.2741,-21.6919
511,-601,12.1746,21.3519,-0.00523907,-0.00469562,0.00295456,-0.00200032,-0.00793437,0.831254,0.00476488,0.0323132,1735,1625,12.1745,-21.352
518,-601,12.1102,20.8441,-0.00696637,-0.00616145,0.00433117,-0.00221407,-0.0109137,0.831726,0.0066616,0.0406706,1742,1625,12.1102,-20.8441
525,-601,12.1256,20.3523,0,0,0,0,0,0,0,-1,1749,1625,12.1256,-20.3523
532,-601,12.4133,19.2037,0,0,0,0,0,0,0,-1,1756,1625,12.4133,-19.2038
539,-601,7.77112,11.4299,0,0,0,0,0,0,0,-1,1763,1625,7.77116,-11.4299
546,-601,6.56873,3.62354,0,0,0,0,0,0,0,-1,1770,1625,6.56867,-3.62352
553,-601,7.03015,4.25049,0,0,0,0,0,0,0,-1,1777,1625,7.03011,-4.25048
560,-601,7.50745,4.83374,0,0,0,0,0,0,0,-1,1784,1625,7.50744,-4.83376
567,-601,7.82043,3.83301,0,0,0,0,0,0,0,-1,1791,1625,7.82041,-3.83303
574,-601,0,0,0,0,0,0,0,0,0,-1,1798,1625,0,0
581,-601,0,0,0,0,0,0,0,0,0,-1,1805,1625,0,0
588,-601,0,0,0,0,0,0,0,0,0,-1,1812,1625,0,0
595,-601,0,0,0,0,0,0,0,0,0,-1,1819,1625,0,0
602,-601,0,0,0,0,0,0,0,0,0,-1,1826,1625,0,0
609,-601,0,0,0,0,0,0,0,0,0,-1,1833,1625,0,0
616,-601,0,0,0,0,0,0,0,0,0,-1,1840,1625,0,0
623,-601,0,0,0,0,0,0,0,0,0,-1,1847,1625,0,0
630,-601,0,0,0,0,0,0,0,0,0,-1,1854,1625,0,0
637,-601,0,0,0,0,0,0,0,0,0,-1,1861,1625,0,0
644,-601,0,0,0,0,0,0,0,0,0,-1,1868,1625,0,0
651,-601,0,0,0,0,0,0,0,0,0,-1,1875,1625,0,0
658,-601,0,0,0,0,0,0,0,0,0,-1,1882,1625,0,0
665,-601,0,0,0,0,0,0,0,0,0,-1,1889,1625,0,0
672,-601,0,0,0,0,0,0,0,0,0,-1,1896,1625,0,0
679,-601,0,0,0,0,0,0,0,0,0,-1,1903,1625,0,0
686,-601,0,0,0,0,0,0,0,0,0,-1,1910,1625,0,0
693,-601,0,0,0,0,0,0,0,0,0,-1,1917,1625,0,0
700,-601,0,0,0,0,0,0,0,0,0,-1,1924,1625,0,0
707,-601,0,0,0,0,0,0,0,0,0,-1,1931,1625,0,0
714,-601,0,0,0,0,0,0,0,0,0,-1,1938,1625,0,0
721,-601,0,0,0,0,0,0,0,0,0,-1,1945,1625,0,0
728,-601,0,0,0,0,0,0,0,0,0,-1,1952,1625,0,0
735,-601,0,0,0,0,0,0,0,0,0,-1,1959,1625,0,0
742,-601,0,0,0,0,0,0,0,0,0,-1,1966,1625,0,0
749,-601,0,0,0,0,0,0,0,0,0,-1,1973,1625,0,0
756,-601,0,0,0,0,0,0,0,0,0,-1,1980,1625,0,0
763,-601,0,0,0,0,0,0,0,0,0,-1,1987,1625,0,0
770,-601,0,0,0,0,0,0,0,0,0,-1,1994,1625,0,0
777,-601,0,0,0,0,0,0,0,0,0,-1,2001,1625,0,0
784,-601,0,0,0,0,0,0,0,0,0,-1,2008,1625,0,0
791,-601,0,0,0,0,0,0,0,0,0,-1,2015,1625,0,0
798,-601,0,0,0,0,0,0,0,0,0,-1,2022,1625,0,0
805,-601,0,0,0,0,0,0,0,0,0,-1,2029,1625,0,0
812,-601,0,0,0,0,0,0,0,0,0,-1,2036,1625,0,0
-700,-608,0,0,0,0,0,0,0,0,0,-1,524,1632,0,0
-693,-608,0,0,0,0,0,0,0,0,0,-1,531,1632,0,0
-686,-608,0,0,0,0,0,0,0,0,0,-1,538,1632,0,0
-679,-608,0,0,0,0,0,0,0,0,0,-1,545,1632,0,0
-672,-608,0,0,0,0,0,0,0,0,0,-1,552,1632,0,0
-665,-608,0,0,0,0,0,0,0,0,0,-1,559,1632,0,0
-658,-608,0,0,0,0,0,0,0,0,0,-1,566,1632,0,0
-651,-608,0,0,0,0,0,0,0,0,0,-1,573,1632,0,0
-644,-608,0,0,0,0,0,0,0,0,0,-1,580,1632,0,0
-637,-608,0,0,0,0,0,0,0,0,0,-1,587,1632,0,0
-630,-608,0,0,0,0,0,0,0,0,0,-1,594,1632,0,0
-623,-608,0,0,0,0,0,0,0,0,0,-1,601,1632,0,0
-616,-608,0,0,0,0,0,0,0,0,0,-1,608,1632,0,0
-609,-608,0,0,0,0,0,0,0,0,0,-1,615,1632,0,0
-602,-608,0,0,0,0,0,0,0,0,0,-1,622,1632,0,0
-595,-608,0,0,0,0,0,0,0,0,0,-1,629,1632,0,0
-588,-608,0,0,0,0,0,0,0,0,0,-1,636,1632,0,0
-581,-608,0,0,0,0,0,0,0,0,0,-1,643,1632,0,0
-574,-608,0,0,0,0,0,0,0,0,0,-1,650,1632,0,0
-567,-608,0,0,0,0,0,0,0,0,0,-1,657,1632,0,0
-560,-608,0,0,0,0,0,0,0,0,0,-1,664,1632,0,0
-553,-608,0,0,0,0,0,0,0,0,0,-1,671,1632,0,0
-546,-608,0,0,0,0,0,0,0,0,0,-1,678,1632,0,0
-539,-608,0,0,0,0,0,0,0,0,0,-1,685,1632,0,0
-532,-608,0,0,0,0,0,0,0,0,0,-1,692,1632,0,0
-525,-608,0,0,0,0,0,0,0,0,0,-1,699,1632,0,0
-518,-608,0,0,0,0,0,0,0,0,0,-1,706,1632,0,0
-511,-608,0,0,0,0,0,0,0,0,0,-1,713,1632,0,0
-504,-608,0,0,0,0,0,0,0,0,0,-1,720,1632,0,0
-497,-608,0,0,0,0,0,0,0,0,0,-1,727,1632,0,0
-490,-608,0,0,0,0,0,0,0,0,0,-1,734,1632,0,0
-483,-608,0,0,0,0,0,0,0,0,0,-1,741,1632,0,0
-476,-608,0,0,0,0,0,0,0,0,0,-1,748,1632,0,0
-469,-608,0,0,0,0,0,0,0,0,0,-1,755,1632,0,0
-462,-608,0,0,0,0,0,0,0,0,0,-1,762,1632,0,0
-455,-608,0,0,0,0,0,0,0,0,0,-1,769,1632,0,0
-448,-608,0,0,0,0,0,0,0,0,0,-1,776,1632,0,0
-441,-608,-7.34601,2.78052,0,0,0,0,0,0,0,-1,783,1632,-7.346,-2.78056
-434,-608,-6.34558,3.27405,0,0,0,0,0,0,0,-1,790,1632,-6.34555,-3.27406
-427,-608,-7.74335,4.17688,0,0,0,0,0,0,0,-1,797,1632,-7.74334,-4.17693
-420,-608,-6.82794,4.34839,0,0,0,0,0,0,0,-1,804,1632,-6.82794,-4.34838
-413,-608,-5.41919,5.66138,0,0,0,0,0,0,0,-1,811,1632,-5.41917,-5.66133
-406,-608,-4.79681,4.98999,0,0,0,0,0,0,0,-1,818,1632,-4.79684,-4.98997
-399,-608,-2.60645,6.34167,0,0,0,0,0,0,0,-1,825,1632,-2.60643,-6.34169
-392,-608,2.08356,15.437,0,0,0,0,0,0,0,-1,832,1632,2.08354,-15.437
-385,-608,3.02655,19.7634,0,0,0,0,0,0,0,-1,839,1632,3.02658,-19.7634
-378,-608,2.76776,20.3704,0,0,0,0,0,0,0,-1,846,1632,2.76777,-20.3704
-371,-608,2.71069,20.5139,0,0,0,0,0,0,0,-1,853,1632,2.7107,-20.5139
-364,-608,2.8009,20.9871,-0.00576396,-0.00114539,-0.000164251,-0.00113956,-0.0057698,-1.53529,0.00352856,0.0298659,860,1632,2.80093,-20.9871
-357,-608,2.72644,21.4924,-0.00445773,-0.00099122,-2.68182e-05,-0.000991013,-0.00445794,-1.56306,0.00270288,0.0202998,867,1632,2.72643,-21.4924
-350,-608,2.73077,21.9441,-0.00331149,-0.000757624,8.86719e-05,-0.000754549,-0.00331456,1.53613,0.00200607,0.0192931,874,1632,2.7308,-21.9441
-343,-608,2.68951,22.4038,-0.00223294,-0.000498744,0.000316091,-0.000442927,-0.00228875,1.39601,0.00140172,0.0241939,881,1632,2.6895,-22.4038
-336,-608,2.66589,22.8937,-0.0012365,-4.42974e-05,0.000461636,0.000113554,-0.00139435,1.24132,0.000969636,0.0163407,888,1632,2.66592,-22.8937
-329,-608,2.63623,23.2981,-0.000309866,0.000332377,0.000618909,0.000708513,-0.000686001,1.02471,0.000805158,0.014569,895,1632,2.63625,-23.298
-322,-608,2.62225,23.6675,0.000391523,0.000885664,0.000837353,0.00151164,-0.000234449,0.928858,0.00109431,0.0148247,902,1632,2.62225,-23.6674
-315,-608,2.64832,24.0444,0.000963627,0.00148979,0.00107989,0.00233818,0.000115237,0.90488,0.00152183,0.0134378,909,1632,2.64832,-24.0445
-308,-608,2.62488,24.4508,0.00152978,0.00202927,0.00129748,0.00310083,0.000458223,0.880478,0.00193267,0.0140941,916,1632,2.62488,-24.4508
-301,-608,2.61487,24.8307,0.00208475,0.00258744,0.0016005,0.00395621,0.000715974,0.863282,0.00243417,0.0110986,923,1632,2.61489,-24.8307
-294,-608,2.62256,25.188,0.00268467,0.00343404,0.00210636,0.00519879,0.000919928,0.873419,0.00320355,0.0106502,930,1632,2.62257,-25.1879
-287,-608,2.60962,25.5985,0.00318346,0.00436856,0.00251514,0.00636001,0.00119201,0.901086,0.00390381,0.00999784,937,1632,2.60964,-25.5986
-280,-608,2.60095,25.9723,0.00373684,0.0053178,0.00300277,0.0076324,0.00142225,0.914103,0.00468668,0.00783135,944,1632,2.60094,-25.9723
-273,-608,2.58539,26.3513,0.00428424,0.00608031,0.00348873,0.00878473,0.00157982,0.911369,0.00540736,0.00926661,951,1632,2.58536,-26.3514
-266,-608,2.62616,26.7598,0.00471616,0.0070596,0.00398253,0.0100392,0.00173656,0.928469,0.00619561,0.0104802,958,1632,2.62615,-26.7597
-259,-608,2.68835,27.136,0.00530608,0.00807137,0.00461458,0.011506,0.00187145,0.930954,0.0071292,0.0137594,965,1632,2.68835,-27.136
-252,-608,2.72217,27.4967,0.0061965,0.00915358,0.00534518,0.0132209,0.00212914,0.92033,0.00819694,0.0261005,972,1632,2.72214,-27.4967
-245,-608,2.77533,28.0817,0.00717092,0.010271,0.00614672,0.0150601,0.00238181,0.90891,0.00934784,0.0376097,979,1632,2.7753,-28.0816
-238,-608,2.88348,28.635,0,0,0,0,0,0,0,-1,986,1632,2.88347,-28.635
-231,-608,3.26025,27.5262,0,0,0,0,0,0,0,-1,993,1632,3.26023,-27.5263
-224,-608,2.51642,15.3452,0,0,0,0,0,0,0,-1,1000,1632,2.5164,-15.3452
-217,-608,1.04419,12.8451,0,0,0,0,0,0,0,-1,1007,1632,1.04418,-12.8451
-210,-608,2.75903,15.9414,0,0,0,0,0,0,0,-1,1014,1632,2.75903,-15.9414
-203,-608,2.76776,16.217,0,0,0,0,0,0,0,-1,1021,1632,2.76773,-16.217
-196,-608,1.53955,18.6058,0,0,0,0,0,0,0,-1,1028,1632,1.53959,-18.6058
-189,-608,1.37634,19.119,0,0,0,0,0,0,0,-1,1035,1632,1.37634,-19.1191
-182,-608,2.89221,16.7092,0,0,0,0,0,0,0,-1,1042,1632,2.89224,-16.7093
-175,-608,0.219116,15.1643,0,0,0,0,0,0,0,-1,1049,1632,0.219173,-15.1644
-168,-608,0.000366211,9.48645,0,0,0,0,0,0,0,-1,1056,1632,0.000317105,-9.48648
-161,-608,2.27832,15.4423,0,0,0,0,0,0,0,-1,1063,1632,2.27826,-15.4423
-154,-608,1.3999,16.4037,0,0,0,0,0,0,0,-1,1070,1632,1.39987,-16.4037
-147,-608,2.4386,9.50317,0,0,0,0,0,0,0,-1,1077,1632,2.43858,-9.50313
-140,-608,2.60132,10.8401,0,0,0,0,0,0,0,-1,1084,1632,2.60134,-10.8401
-133,-608,3.2312,12.4738,0,0,0,0,0,0,0,-1,1091,1632,3.23116,-12.4738
-126,-608,3.76465,13.9644,0,0,0,0,0,0,0,-1,1098,1632,3.76466,-13.9644
-119,-608,4.28906,15.4196,0,0,0,0,0,0,0,-1,1105,1632,4.28911,-15.4195
-112,-608,0.745117,10.5587,0,0,0,0,0,0,0,-1,1112,1632,0.745145,-10.5587
-105,-608,-0.252319,1.42419,0,0,0,0,0,0,0,-1,1119,1632,-0.252331,-1.42418
-98,-608,-2.8595,3.0863,0,0,0,0,0,0,0,-1,1126,1632,-2.85948,-3.08625
-91,-608,-3.71948,1.73608,0,0,0,0,0,0,0,-1,1133,1632,-3.7195,-1.73607
-84,-608,0,0,0,0,0,0,0,0,0,-1,1140,1632,0,0
-77,-608,0,0,0,0,0,0,0,0,0,-1,1147,1632,0,0
-70,-608,0,0,0,0,0,0,0,0,0,-1,1154,1632,0,0
-63,-608,0,0,0,0,0,0,0,0,0,-1,1161,1632,0,0
-56,-608,0,0,0,0,0,0,0,0,0,-1,1168,1632,0,0
-49,-608,0,0,0,0,0,0,0,0,0,-1,1175,1632,0,0
-42,-608,0,0,0,0,0,0,0,0,0,-1,1182,1632,0,0
-35,-608,0,0,0,0,0,0,0,0,0,-1,1189,1632,0,0
-28,-608,0,0,0,0,0,0,0,0,0,-1,1196,1632,0,0
-21,-608,0,0,0,0,0,0,0,0,0,-1,1203,1632,0,0
-14,-608,0,0,0,0,0,0,0,0,0,-1,1210,1632,0,0
-7,-608,0,0,0,0,0,0,0,0,0,-1,1217,1632,0,0
0,-608,0,0,0,0,0,0,0,0,0,-1,1224,1632,0,0
7,-608,0,0,0,0,0,0,0,0,0,-1,1231,1632,0,0
14,-608,0,0,0,0,0,0,0,0,0,-1,1238,1632,0,0
21,-608,0,0,0,0,0,0,0,0,0,-1,1245,1632,0,0
28,-608,0,0,0,0,0,0,0,0,0,-1,1252,1632,0,0
35,-608,0,0,0,0,0,0,0,0,0,-1,1259,1632,0,0
42,-608,0,0,0,0,0,0,0,0,0,-1,1266,1632,0,0
49,-608,0,0,0,0,0,0,0,0,0,-1,1273,1632,0,0
56,-608,0,0,0,0,0,0,0,0,0,-1,1280,1632,0,0
63,-608,0,0,0,0,0,0,0,0,0,-1,1287,1632,0,0
70,-608,0,0,0,0,0,0,0,0,0,-1,1294,1632,0,0
77,-608,0,0,0,0,0,0,0,0,0,-1,1301,1632,0,0
84,-608,0,0,0,0,0,0,0,0,0,-1,1308,1632,0,0
91,-608,0,0,0,0,0,0,0,0,0,-1,1315,1632,0,0
98,-608,0,0,0,0,0,0,0,0,0,-1,1322,1632,0,0
105,-608,0,0,0,0,0,0,0,0,0,-1,1329,1632,0,0
112,-608,0,0,0,0,0,0,0,0,0,-1,1336,1632,0,0
119,-608,0,0,0,0,0,0,0,0,0,-1,1343,1632,0,0
126,-608,0,0,0,0,0,0,0,0,0,-1,1350,1632,0,0
133,-608,0,0,0,0,0,0,0,0,0,-1,1357,1632,0,0
140,-608,0,0,0,0,0,0,0,0,0,-1,1364,1632,0,0
147,-608,0,0,0,0,0,0,0,0,0,-1,1371,1632,0,0
154,-608,0,0,0,0,0,0,0,0,0,-1,1378,1632,0,0
161,-608,0,0,0,0,0,0,0,0,0,-1,1385,1632,0,0
168,-608,0,0,0,0,0,0,0,0,0,-1,1392,1632,0,0
175,-608,0,0,0,0,0,0,0,0,0,-1,1399,1632,0,0
182,-608,0,0,0,0,0,0,0,0,0,-1,1406,1632,0,0
189,-608,0,0,0,0,0,0,0,0,0,-1,1413,1632,0,0
196,-608,0,0,0,0,0,0,0,0,0,-1,1420,1632,0,0
203,-608,0,0,0,0,0,0,0,0,0,-1,1427,1632,0,0
210,-608,5.7157,-0.333008,0,0,0,0,0,0,0,-1,1434,1632,5.71566,0.333004
217,-608,4.49402,-0.831787,0,0,0,0,0,0,0,-1,1441,1632,4.49396,0.831738
224,-608,4.18018,-1.11792,0,0,0,0,0,0,0,-1,1448,1632,4.1802,1.11796
231,-608,0.361816,0.825195,0,0,0,0,0,0,0,-1,1455,1632,0.36185,-0.825226
238,-608,2.85388,-0.28833,0,0,0,0,0,0,0,-1,1462,1632,2.85391,0.288282
245,-608,3.87537,4.02173,0,0,0,0,0,0,0,-1,1469,1632,3.87538,-4.02168
252,-608,5.66956,3.5282,0,0,0,0,0,0,0,-1,1476,1632,5.6696,-3.52815
259,-608,7.47437,3.07178,0,0,0,0,0,0,0,-1,1483,1632,7.4744,-3.07172
266,-608,9.46936,2.34766,0,0,0,0,0,0,0,-1,1490,1632,9.46932,-2.34764
273,-608,6.03003,3.34241,0,0,0,0,0,0,0,-1,1497,1632,6.02997,-3.34245
280,-608,5.72461,2.0769,0,0,0,0,0,0,0,-1,1504,1632,5.72457,-2.07688
287,-608,6.20581,3.59338,0,0,0,0,0,0,0,-1,1511,1632,6.20585,-3.59341
294,-608,6.94922,5.17151,0,0,0,0,0,0,0,-1,1518,1632,6.94925,-5.17151
301,-608,7.60083,6.68018,0,0,0,0,0,0,0,-1,1525,1632,7.60086,-6.68013
308,-608,7.64746,9.93848,0,0,0,0,0,0,0,-1,1532,1632,7.64745,-9.93842
315,-608,5.30688,11.2054,0,0,0,0,0,0,0,-1,1539,1632,5.30694,-11.2054
322,-608,5.32617,13.7581,0,0,0,0,0,0,0,-1,1546,1632,5.32613,-13.758
329,-608,7.12231,13.9607,0,0,0,0,0,0,0,-1,1553,1632,7.12231,-13.9607
336,-608,5.48633,7.82446,0,0,0,0,0,0,0,-1,1560,1632,5.48634,-7.82446
343,-608,5.47192,5.61047,0,0,0,0,0,0,0,-1,1567,1632,5.47192,-5.61045
350,-608,11.6957,1.71387,0,0,0,0,0,0,0,-1,1574,1632,11.6957,-1.71388
357,-608,3.77002,5.10046,0,0,0,0,0,0,0,-1,1581,1632,3.77002,-5.10043
364,-608,5.6925,11.2163,0,0,0,0,0,0,0,-1,1588,1632,5.69255,-11.2163
371,-608,12.0344,29.1047,0,0,0,0,0,0,0,-1,1595,1632,12.0345,-29.1048
378,-608,11.9229,28.6843,0.00630713,0.0141356,-0.00277966,0.0150222,0.00542055,-1.26205,0.00878431,0.042821,1602,1632,11.9229,-28.6844
385,-608,11.9709,28.1509,0.00523521,0.0118131,-0.00199938,0.0123731,0.00467517,-1.29769,0.00721435,0.0369267,1609,1632,11.971,-28.1508
392,-608,11.903,27.7002,0.00437205,0.00989301,-0.00141999,0.0102368,0.00402824,-1.33325,0.00595475,0.0228434,1616,1632,11.9029,-27.7002
399,-608,11.9409,27.3134,0.00342476,0.00822367,-0.000814176,0.00835804,0.00329039,-1.40723,0.00486175,0.011662,1623,1632,11.9409,-27.3133
406,-608,11.9711,26.952,0.00265507,0.00686629,-0.000548297,0.0069365,0.00258485,-1.44343,0.00404786,0.009681,1630,1632,11.971,-26.952
413,-608,11.9637,26.6176,0.00206448,0.00581279,-0.000474792,0.005872,0.00200527,-1.44674,0.00344651,0.00993837,1637,1632,11.9637,-26.6176
420,-608,11.9331,26.2683,0.00158822,0.00478936,-0.000421888,0.00484403,0.00153356,-1.44193,0.00285873,0.0177465,1644,1632,11.933,-26.2683
427,-608,11.9418,25.8992,0.00125253,0.00409541,-0.000527356,0.00419008,0.00115785,-1.39317,0.00249853,0.0195047,1651,1632,11.9417,-25.8992
434,-608,11.9335,25.5334,0.00101522,0.00327626,-0.000643596,0.00344662,0.000844858,-1.31203,0.00207429,0.0152628,1658,1632,11.9335,-25.5335
441,-608,11.941,25.1663,0.000873317,0.00267212,-0.000823301,0.00299204,0.000553395,-1.20017,0.00183821,0.0130605,1665,1632,11.941,-25.1663
448,-608,11.9657,24.8301,0.00074858,0.00206445,-0.000918113,0.00253604,0.000276999,-1.09629,0.00160634,0.0150663,1672,1632,11.9658,-24.8301
455,-608,11.9904,24.4358,0.000555893,0.00141784,-0.00100672,0.00208196,-0.000108223,-0.987644,0.00142542,0.01216,1679,1632,11.9903,-24.4358
462,-608,11.9646,24.0537,0.0002817,0.000698569,-0.000961488,0.00147396,-0.000493687,-0.892138,0.00118208,0.0115241,1686,1632,11.9646,-24.0537
469,-608,11.9276,23.6963,5.24443e-05,-1.47665e-05,-0.00084058,0.000860091,-0.000822413,-0.765419,0.000971475,0.00857519,1693,1632,11.9276,-23.6963
476,-608,11.8972,23.3168,-0.000360915,-0.00076425,-0.000569367,4.14441e-05,-0.00116661,-0.615194,0.000791916,0.00893716,1700,1632,11.8972,-23.3167
483,-608,11.8845,22.9119,-0.00107294,-0.00154319,-0.000172403,-0.0010165,-0.00159962,-0.316344,0.000934771,0.0086357,1707,1632,11.8846,-22.9119
490,-608,11.8916,22.5256,-0.00195407,-0.00232068,0.000325352,-0.00176393,-0.00251081,0.52886,0.00148873,0.00953631,1714,1632,11.8916,-22.5256
497,-608,11.9044,22.1211,-0.00305176,-0.0030548,0.000922873,-0.0021304,-0.00397615,0.784574,0.00229759,0.0203429,1721,1632,11.9044,-22.121
504,-608,11.8134,21.7419,-0.00460873,-0.00399385,0.0020256,-0.00225249,-0.00635009,0.860712,0.00371745,0.0465253,1728,1632,11.8134,-21.7419
511,-608,11.5216,21.3949,-0.00644207,-0.00512965,0.00326427,-0.00245629,-0.00911543,0.88459,0.00544607,0.0477916,1735,1632,11.5216,-21.3949
518,-608,11.2915,21.014,0,0,0,0,0,0,0,-1,1742,1632,11.2915,-21.014
525,-608,11.2109,16.2579,0,0,0,0,0,0,0,-1,1749,1632,11.2109,-16.2579
532,-608,8.27917,11.6693,0,0,0,0,0,0,0,-1,1756,1632,8.27919,-11.6694
539,-608,9.40796,1.43457,0,0,0,0,0,0,0,-1,1763,1632,9.40801,-1.43463
546,-608,9.94031,2.1134,0,0,0,0,0,0,0,-1,1770,1632,9.94031,-2.11346
553,-608,10.363,2.81335,0,0,0,0,0,0,0,-1,1777,1632,10.3631,-2.81333
560,-608,9.23999,4.5636,0,0,0,0,0,0,0,-1,1784,1632,9.24,-4.56354
567,-608,0,0,0,0,0,0,0,0,0,-1,1791,1632,0,0
574,-608,0,0,0,0,0,0,0,0,0,-1,1798,1632,0,0
581,-608,0,0,0,0,0,0,0,0,0,-1,1805,1632,0,0
588,-608,0,0,0,0,0,0,0,0,0,-1,1812,1632,0,0
595,-608,0,0,0,0,0,0,0,0,0,-1,1819,1632,0,0
602,-608,0,0,0,0,0,0,0,0,0,-1,1826,1632,0,0
609,-608,0,0,0,0,0,0,0,0,0,-1,1833,1632,0,0
616,-608,0,0,0,0,0,0,0,0,0,-1,1840,1632,0,0
623,-608,0,0,0,0,0,0,0,0,0,-1,1847,1632,0,0
630,-608,0,0,0,0,0,0,0,0,0,-1,1854,1632,0,0
637,-608,0,0,0,0,0,0,0,0,0,-1,1861,1632,0,0
644,-608,0,0,0,0,0,0,0,0,0,-1,1868,1632,0,0
651,-608,0,0,0,0,0,0,0,0,0,-1,1875,1632,0,0
658,-608,0,0,0,0,0,0,0,0,0,-1,1882,1632,0,0
665,-608,0,0,0,0,0,0,0,0,0,-1,1889,1632,0,0
672,-608,0,0,0,0,0,0,0,0,0,-1,1896,1632,0,0
679,-608,0,0,0,0,0,0,0,0,0,-1,1903,1632,0,0
686,-608,0,0,0,0,0,0,0,0,0,-1,1910,1632,0,0
693,-608,0,0,0,0,0,0,0,0,0,-1,1917,1632,0,0
700,-608,0,0,0,0,0,0,0,0,0,-1,1924,1632,0,0
707,-608,0,0,0,0,0,0,0,0,0,-1,1931,1632,0,0
714,-608,0,0,0,0,0,0,0,0,0,-1,1938,1632,0,0
721,-608,0,0,0,0,0,0,0,0,0,-1,1945,1632,0,0
728,-608,0,0,0,0,0,0,0,0,0,-1,1952,1632,0,0
735,-608,0,0,0,0,0,0,0,0,0,-1,1959,1632,0,0
742,-608,0,0,0,0,0,0,0,0,0,-1,1966,1632,0,0
749,-608,0,0,0,0,0,0,0,0,0,-1,1973,1632,0,0
756,-608,0,0,0,0,0,0,0,0,0,-1,1980,1632,0,0
763,-608,0,0,0,0,0,0,0,0,0,-1,1987,1632,0,0
770,-608,0,0,0,0,0,0,0,0,0,-1,1994,1632,0,0
777,-608,0,0,0,0,0,0,0,0,0,-1,2001,1632,0,0
784,-608,0,0,0,0,0,0,0,0,0,-1,2008,1632,0,0
791,-608,0,0,0,0,0,0,0,0,0,-1,2015,1632,0,0
798,-608,0,0,0,0,0,0,0,0,0,-1,2022,1632,0,0
805,-608,0,0,0,0,0,0,0,0,0,-1,2029,1632,0,0
812,-608,0,0,0,0,0,0,0,0,0,-1,2036,1632,0,0
-700,-615,0,0,0,0,0,0,0,0,0,-1,524,1639,0,0
-693,-615,0,0,0,0,0,0,0,0,0,-1,531,1639,0,0
-686,-615,0,0,0,0,0,0,0,0,0,-1,538,1639,0,0
-679,-615,0,0,0,0,0,0,0,0,0,-1,545,1639,0,0
-672,-615,0,0,0,0,0,0,0,0,0,-1,552,1639,0,0
-665,-615,0,0,0,0,0,0,0,0,0,-1,559,1639,0,0
-658,-615,0,0,0,0,0,0,0,0,0,-1,566,1639,0,0
-651,-615,0,0,0,0,0,0,0,0,0,-1,573,1639,0,0
-644,-615,0,0,0,0,0,0,0,0,0,-1,580,1639,0,0
-637,-615,0,0,0,0,0,0,0,0,0,-1,587,1639,0,0
-630,-615,0,0,0,0,0,0,0,0,0,-1,594,1639,0,0
-623,-615,0,0,0,0,0,0,0,0,0,-1,601,1639,0,0
-616,-615,0,0,0,0,0,0,0,0,0,-1,608,1639,0,0
-609,-615,0,0,0,0,0,0,0,0,0,-1,615,1639,0,0
-602,-615,0,0,0,0,0,0,0,0,0,-1,622,1639,0,0
-595,-615,0,0,0,0,0,0,0,0,0,-1,629,1639,0,0
-588,-615,0,0,0,0,0,0,0,0,0,-1,636,1639,0,0
-581,-615,0,0,0,0,0,0,0,0,0,-1,643,1639,0,0
-574,-615,0,0,0,0,0,0,0,0,0,-1,650,1639,0,0
-567,-615,0,0,0,0,0,0,0,0,0,-1,657,1639,0,0
-560,-615,0,0,0,0,0,0,0,0,0,-1,664,1639,0,0
-553,-615,0,0,0,0,0,0,0,0,0,-1,671,1639,0,0
-546,-615,0,0,0,0,0,0,0,0,0,-1,678,1639,0,0
-539,-615,0,0,0,0,0,0,0,0,0,-1,685,1639,0,0
-532,-615,0,0,0,0,0,0,0,0,0,-1,692,1639,0,0
-525,-615,0,0,0,0,0,0,0,0,0,-1,699,1639,0,0
-518,-615,0,0,0,0,0,0,0,0,0,-1,706,1639,0,0
-511,-615,0,0,0,0,0,0,0,0,0,-1,713,1639,0,0
-504,-615,0,0,0,0,0,0,0,0,0,-1,720,1639,0,0
-497,-615,0,0,0,0,0,0,0,0,0,-1,727,1639,0,0
-490,-615,0,0,0,0,0,0,0,0,0,-1,734,1639,0,0
-483,-615,0,0,0,0,0,0,0,0,0,-1,741,1639,0,0
-476,-615,0,0,0,0,0,0,0,0,0,-1,748,1639,0,0
-469,-615,0,0,0,0,0,0,0,0,0,-1,755,1639,0,0
-462,-615,0,0,0,0,0,0,0,0,0,-1,762,1639,0,0
-455,-615,0,0,0,0,0,0,0,0,0,-1,769,1639,0,0
-448,-615,0,0,0,0,0,0,0,0,0,-1,776,1639,0,0
-441,-615,0,0,0,0,0,0,0,0,0,-1,783,1639,0,0
-434,-615,-7.64508,2.98596,0,0,0,0,0,0,0,-1,790,1639,-7.64505,-2.98594
-427,-615,-9.0011,2.89404,0,0,0,0,0,0,0,-1,797,1639,-9.00107,-2.89399
-420,-615,-8.07568,3.0752,0,0,0,0,0,0,0,-1,804,1639,-8.07569,-3.07514
-413,-615,-7.09149,3.396,0,0,0,0,0,0,0,-1,811,1639,-7.09147,-3.39599
-406,-615,-6.21368,3.7312,0,0,0,0,0,0,0,-1,818,1639,-6.21366,-3.73114
-399,-615,-4.84875,3.91907,0,0,0,0,0,0,0,-1,825,1639,-4.84877,-3.91901
-392,-615,1.7395,13.3127,0,0,0,0,0,0,0,-1,832,1639,1.73953,-13.3128
-385,-615,3.42297,14.9401,0,0,0,0,0,0,0,-1,839,1639,3.42296,-14.94
-378,-615,2.54102,17.2609,0,0,0,0,0,0,0,-1,846,1639,2.54099,-17.2608
-371,-615,3.11975,20.5988,0,0,0,0,0,0,0,-1,853,1639,3.11974,-20.5988
-364,-615,3.0708,21.2262,0,0,0,0,0,0,0,-1,860,1639,3.07083,-21.2262
-357,-615,3.09869,21.5004,0,0,0,0,0,0,0,-1,867,1639,3.09872,-21.5004
-350,-615,3.14587,21.9921,-0.00462552,-0.00110446,-0.000129668,-0.00109969,-0.00463029,-1.53404,0.0027934,0.0326519,874,1639,3.14584,-21.9921
-343,-615,3.08496,22.3944,-0.00346243,-0.000939082,3.91545e-05,-0.000938475,-0.00346304,1.55528,0.00206811,0.0195923,881,1639,3.08498,-22.3944
-336,-615,3.07288,22.8488,-0.00242628,-0.000548523,0.000125531,-0.000540169,-0.00243463,1.50434,0.00147635,0.0104624,888,1639,3.07288,-22.8487
-329,-615,3.04816,23.2615,-0.00147235,-0.000272567,0.000211274,-0.00023645,-0.00150847,1.40149,0.000936829,0.0103911,895,1639,3.04815,-23.2615
-322,-615,3.04462,23.6794,-0.000751315,0.000178939,0.000371206,0.000308907,-0.000881282,1.23401,0.000713151,0.0112718,902,1639,3.04465,-23.6795
-315,-615,3.05743,24.1018,-0.00016082,0.000644139,0.000576837,0.00094503,-0.000461711,1.09,0.000828007,0.0133708,909,1639,3.05742,-24.1018
-308,-615,3.0094,24.4922,0.000428712,0.00110994,0.000765399,0.0016071,-6.84401e-05,0.994749,0.00109492,0.0206925,916,1639,3.00938,-24.4922
-301,-615,3.01318,24.8403,0.000997492,0.00159283,0.00102071,0.00235839,0.000231932,0.927278,0.00150093,0.0129037,923,1639,3.01318,-24.8403
-294,-615,3.01605,25.2145,0.00160157,0.00231919,0.00143581,0.00344034,0.000480411,0.907841,0.00215138,0.0100413,930,1639,3.01606,-25.2145
-287,-615,2.98254,25.6062,0.00211666,0.00312627,0.00176942,0.00446148,0.000781445,0.924355,0.00275109,0.00760451,937,1639,2.98252,-25.6062
-280,-615,2.98407,25.9736,0.00266199,0.00393289,0.00215948,0.00554848,0.0010464,0.92849,0.00340422,0.00861865,944,1639,2.98409,-25.9736
-273,-615,2.97919,26.3483,0.00320947,0.00462728,0.00255777,0.00657257,0.00126419,0.920584,0.00402701,0.0106179,951,1639,2.97916,-26.3482
-266,-615,2.97839,26.7206,0.00366364,0.00545042,0.00293298,0.00762305,0.001491,0.933235,0.00466515,0.0114924,958,1639,2.97841,-26.7206
-259,-615,3.01276,27.0823,0.00420851,0.00629545,0.00336952,0.00877937,0.00172458,0.935555,0.00537115,0.0124418,965,1639,3.01273,-27.0823
-252,-615,3.02747,27.472,0.00493828,0.00720359,0.00382964,0.0100646,0.00207731,0.92918,0.00613563,0.0147557,972,1639,3.02745,-27.472
-245,-615,3.07446,27.9254,0.00572316,0.00810076,0.00432642,0.0113987,0.00242519,0.919478,0.00693361,0.0215661,979,1639,3.07447,-27.9254
-238,-615,3.03302,28.3674,0.00660892,0.00875259,0.00468477,0.0124866,0.00287494,0.897858,0.00755077,0.0319826,986,1639,3.03301,-28.3674
-231,-615,3.26923,28.7211,0,0,0,0,0,0,0,-1,993,1639,3.26921,-28.7211
-224,-615,3.362,28.6975,0,0,0,0,0,0,0,-1,1000,1639,3.36199,-28.6975
-217,-615,3.99097,27.3737,0,0,0,0,0,0,0,-1,1007,1639,3.99096,-27.3736
-210,-615,2.48901,18.9324,0,0,0,0,0,0,0,-1,1014,1639,2.48902,-18.9323
-203,-615,2.13684,18.6173,0,0,0,0,0,0,0,-1,1021,1639,2.13683,-18.6173
-196,-615,4.27161,21.3264,0,0,0,0,0,0,0,-1,1028,1639,4.27165,-21.3264
-189,-615,1.8269,19.6761,0,0,0,0,0,0,0,-1,1035,1639,1.82691,-19.6761
-182,-615,1.63489,20.2278,0,0,0,0,0,0,0,-1,1042,1639,1.63492,-20.2277
-175,-615,-0.609985,13.8434,0,0,0,0,0,0,0,-1,1049,1639,-0.610016,-13.8434
-168,-615,3.85754,15.472,0,0,0,0,0,0,0,-1,1056,1639,3.85757,-15.472
-161,-615,2.44141,28.2932,0,0,0,0,0,0,0,-1,1063,1639,2.44135,-28.2933
-154,-615,2.42737,24.3593,0,0,0,0,0,0,0,-1,1070,1639,2.42742,-24.3593
-147,-615,1.52502,17.3442,0,0,0,0,0,0,0,-1,1077,1639,1.52501,-17.3442
-140,-615,3.73401,10.2349,0,0,0,0,0,0,0,-1,1084,1639,3.73402,-10.2348
-133,-615,2.6178,17.45,0,0,0,0,0,0,0,-1,1091,1639,2.61776,-17.4499
-126,-615,4.43408,12.5017,0,0,0,0,0,0,0,-1,1098,1639,4.43403,-12.5018
-119,-615,4.82983,13.9279,0,0,0,0,0,0,0,-1,1105,1639,4.82986,-13.9278
-112,-615,3.65698,14.4874,0,0,0,0,0,0,0,-1,1112,1639,3.65695,-14.4875
-105,-615,0.958496,2.45398,0,0,0,0,0,0,0,-1,1119,1639,0.958452,-2.45398
-98,-615,-0.647705,2.12109,0,0,0,0,0,0,0,-1,1126,1639,-0.647756,-2.12105
-91,-615,-3.07983,2.97375,0,0,0,0,0,0,0,-1,1133,1639,-3.07989,-2.97376
-84,-615,-2.46509,0.703247,0,0,0,0,0,0,0,-1,1140,1639,-2.46505,-0.703273
-77,-615,-3.17859,1.23755,0,0,0,0,0,0,0,-1,1147,1639,-3.17865,-1.23752
-70,-615,-4.03943,1.43335,0,0,0,0,0,0,0,-1,1154,1639,-4.03942,-1.43339
-63,-615,-4.8877,1.45544,0,0,0,0,0,0,0,-1,1161,1639,-4.88766,-1.45549
-56,-615,0,0,0,0,0,0,0,0,0,-1,1168,1639,0,0
-49,-615,0,0,0,0,0,0,0,0,0,-1,1175,1639,0,0
-42,-615,0,0,0,0,0,0,0,0,0,-1,1182,1639,0,0
-35,-615,0,0,0,0,0,0,0,0,0,-1,1189,1639,0,0
-28,-615,0,0,0,0,0,0,0,0,0,-1,1196,1639,0,0
-21,-615,0,0,0,0,0,0,0,0,0,-1,1203,1639,0,0
-14,-615,0,0,0,0,0,0,0,0,0,-1,1210,1639,0,0
-7,-615,0,0,0,0,0,0,0,0,0,-1,1217,1639,0,0
0,-615,0,0,0,0,0,0,0,0,0,-1,1224,1639,0,0
7,-615,0,0,0,0,0,0,0,0,0,-1,1231,1639,0,0
14,-615,0,0,0,0,0,0,0,0,0,-1,1238,1639,0,0
21,-615,0,0,0,0,0,0,0,0,0,-1,1245,1639,0,0
28,-615,0,0,0,0,0,0,0,0,0,-1,1252,1639,0,0
35,-615,0,0,0,0,0,0,0,0,0,-1,1259,1639,0,0
42,-615,0,0,0,0,0,0,0,0,0,-1,1266,1639,0,0
49,-615,0,0,0,0,0,0,0,0,0,-1,1273,1639,0,0
56,-615,0,0,0,0,0,0,0,0,0,-1,1280,1639,0,0
63,-615,0,0,0,0,0,0,0,0,0,-1,1287,1639,0,0
70,-615,0,0,0,0,0,0,0,0,0,-1,1294,1639,0,0
77,-615,0,0,0,0,0,0,0,0,0,-1,1301,1639,0,0
84,-615,0,0,0,0,0,0,0,0,0,-1,1308,1639,0,0
91,-615,0,0,0,0,0,0,0,0,0,-1,1315,1639,0,0
98,-615,0,0,0,0,0,0,0,0,0,-1,1322,1639,0,0
105,-615,0,0,0,0,0,0,0,0,0,-1,1329,1639,0,0
112,-615,0,0,0,0,0,0,0,0,0,-1,1336,1639,0,0
119,-615,0,0,0,0,0,0,0,0,0,-1,1343,1639,0,0
126,-615,0,0,0,0,0,0,0,0,0,-1,1350,1639,0,0
133,-615,0,0,0,0,0,0,0,0,0,-1,1357,1639,0,0
140,-615,0,0,0,0,0,0,0,0,0,-1,1364,1639,0,0
147,-615,0,0,0,0,0,0,0,0,0,-1,1371,1639,0,0
154,-615,0,0,0,0,0,0,0,0,0,-1,1378,1639,0,0
161,-615,0,0,0,0,0,0,0,0,0,-1,1385,1639,0,0
168,-615,0,0,0,0,0,0,0,0,0,-1,1392,1639,0,0
175,-615,5.39648,-2.00879,0,0,0,0,0,0,0,-1,1399,1639,5.3965,2.00881
182,-615,5.65393,-1.51025,0,0,0,0,0,0,0,-1,1406,1639,5.65388,1.51028
189,-615,5.58972,-1.35608,0,0,0,0,0,0,0,-1,1413,1639,5.58967,1.35607
196,-615,5.49915,-0.693604,0,0,0,0,0,0,0,-1,1420,1639,5.4991,0.693602
203,-615,5.33411,-0.226685,0,0,0,0,0,0,0,-1,1427,1639,5.33414,0.226689
210,-615,5.60278,0.108276,0,0,0,0,0,0,0,-1,1434,1639,5.60284,-0.10831
217,-615,6.26331,-0.307373,0,0,0,0,0,0,0,-1,1441,1639,6.26331,0.307372
224,-615,5.45422,-0.333984,0,0,0,0,0,0,0,-1,1448,1639,5.45422,0.333992
231,-615,4.92542,1.80298,0,0,0,0,0,0,0,-1,1455,1639,4.92537,-1.80297
238,-615,4.76355,1.96729,0,0,0,0,0,0,0,-1,1462,1639,4.76357,-1.96734
245,-615,4.08643,3.15906,0,0,0,0,0,0,0,-1,1469,1639,4.08638,-3.159
252,-615,6.37805,3.73889,0,0,0,0,0,0,0,-1,1476,1639,6.37806,-3.73891
259,-615,8.35974,3.16443,0,0,0,0,0,0,0,-1,1483,1639,8.35975,-3.16444
266,-615,10.3414,2.58997,0,0,0,0,0,0,0,-1,1490,1639,10.3414,-2.58996
273,-615,6.57043,1.84766,0,0,0,0,0,0,0,-1,1497,1639,6.5704,-1.84771
280,-615,7.10449,3.23438,0,0,0,0,0,0,0,-1,1504,1639,7.10447,-3.23435
287,-615,7.35779,4.68542,0,0,0,0,0,0,0,-1,1511,1639,7.35776,-4.68546
294,-615,7.63733,6.29114,0,0,0,0,0,0,0,-1,1518,1639,7.63735,-6.29109
301,-615,8.47925,11.452,0,0,0,0,0,0,0,-1,1525,1639,8.47922,-11.452
308,-615,6.8114,10.9059,0,0,0,0,0,0,0,-1,1532,1639,6.81137,-10.9058
315,-615,5.1427,14.7251,0,0,0,0,0,0,0,-1,1539,1639,5.14269,-14.7251
322,-615,7.17981,17.6864,0,0,0,0,0,0,0,-1,1546,1639,7.17985,-17.6864
329,-615,7.62134,20.4354,0,0,0,0,0,0,0,-1,1553,1639,7.62139,-20.4354
336,-615,6.45007,14.1138,0,0,0,0,0,0,0,-1,1560,1639,6.45011,-14.1138
343,-615,2.40491,6.50134,0,0,0,0,0,0,0,-1,1567,1639,2.40489,-6.50137
350,-615,6.4458,15.4594,0,0,0,0,0,0,0,-1,1574,1639,6.44578,-15.4593
357,-615,10.077,27.4594,0,0,0,0,0,0,0,-1,1581,1639,10.0771,-27.4594
364,-615,11.4816,29.6279,0,0,0,0,0,0,0,-1,1588,1639,11.4816,-29.6279
371,-615,11.6483,28.6934,0,0,0,0,0,0,0,-1,1595,1639,11.6483,-28.6933
378,-615,11.5829,28.3284,0.00497751,0.0112897,-0.00222021,0.0119924,0.00427482,-1.26427,0.0070183,0.0221239,1602,1639,11.5829,-28.3284
385,-615,11.5612,27.9839,0.00419853,0.00948217,-0.00169044,0.00997672,0.00370398,-1.28618,0.00582336,0.0121202,1609,1639,11.5612,-27.9839
392,-615,11.5842,27.6494,0.00355624,0.00792878,-0.00127825,0.00827504,0.00320999,-1.30626,0.00481745,0.0106508,1616,1639,11.5842,-27.6494
399,-615,11.5895,27.3076,0.00280197,0.00646279,-0.000787788,0.00662512,0.00263964,-1.36758,0.00385123,0.0116571,1623,1639,11.5895,-27.3076
406,-615,11.5923,26.9751,0.00218846,0.00525335,-0.000555767,0.00535102,0.00209079,-1.39684,0.00311391,0.0116533,1630,1639,11.5923,-26.9751
413,-615,11.6077,26.6475,0.00171555,0.00428575,-0.00046577,0.00436755,0.00163374,-1.39694,0.00254813,0.0125867,1637,1639,11.6077,-26.6475
420,-615,11.5973,26.2936,0.00131982,0.00330501,-0.000375463,0.00337365,0.00125118,-1.38998,0.00196931,0.013606,1644,1639,11.5973,-26.2936
427,-615,11.5916,25.9158,0.00104277,0.00263542,-0.000459742,0.0027586,0.000919586,-1.30901,0.0016219,0.015208,1651,1639,11.5916,-25.9158
434,-615,11.6001,25.5409,0.000830148,0.00188908,-0.000552008,0.0021245,0.00059473,-1.16768,0.00126556,0.0143315,1658,1639,11.6001,-25.5409
441,-615,11.5994,25.1694,0.000703524,0.00132994,-0.000704772,0.00178797,0.000245499,-0.994498,0.00111916,0.0144765,1665,1639,11.5993,-25.1695
448,-615,11.593,24.8207,0.000598099,0.000762087,-0.000799838,0.00148412,-0.000123937,-0.836476,0.00103321,0.0153267,1672,1639,11.5931,-24.8206
455,-615,11.6031,24.4563,0.000441662,0.000188652,-0.00090163,0.00122562,-0.000595304,-0.7157,0.0010721,0.0146751,1679,1639,11.6032,-24.4564
462,-615,11.577,24.0741,0.000165869,-0.000434262,-0.000850732,0.000767903,-0.0010363,-0.615852,0.00104549,0.0148522,1686,1639,11.5771,-24.0741
469,-615,11.549,23.7047,-7.50724e-05,-0.00103093,-0.000755509,0.000340984,-0.00144699,-0.503378,0.00109614,0.0123086,1693,1639,11.5489,-23.7047
476,-615,11.5293,23.3289,-0.000481635,-0.00163896,-0.000536225,-0.000271381,-0.00184921,-0.373677,0.00115304,0.0111128,1700,1639,11.5292,-23.3288
483,-615,11.5453,22.9032,-0.00121631,-0.00228393,-0.000181525,-0.00118629,-0.00231395,-0.163893,0.0013361,0.0172887,1707,1639,11.5453,-22.9032
490,-615,11.5493,22.5306,-0.00217572,-0.00292078,0.000276777,-0.00208416,-0.00301235,0.319492,0.00178135,0.0257491,1714,1639,11.5493,-22.5306
497,-615,11.4816,22.2319,-0.00337475,-0.00353151,0.000871529,-0.00257809,-0.00432818,0.740551,0.00251407,0.0376382,1721,1639,11.4816,-22.2319
504,-615,11.5105,21.8203,0,0,0,0,0,0,0,-1,1728,1639,11.5105,-21.8203
511,-615,10.9191,21.3752,0,0,0,0,0,0,0,-1,1735,1639,10.919,-21.3753
518,-615,13.2416,9.81812,0,0,0,0,0,0,0,-1,1742,1639,13.2416,-9.81813
525,-615,4.37524,3.90491,0,0,0,0,0,0,0,-1,1749,1639,4.37518,-3.90495
532,-615,7.3645,0.848145,0,0,0,0,0,0,0,-1,1756,1639,7.36451,-0.848093
539,-615,12.8112,-0.0476074,0,0,0,0,0,0,0,-1,1763,1639,12.8111,0.0475553
546,-615,8.33813,2.94556,0,0,0,0,0,0,0,-1,1770,1639,8.33813,-2.9455
553,-615,5.82532,-2.04199,0,0,0,0,0,0,0,-1,1777,1639,5.82534,2.04195
560,-615,0,0,0,0,0,0,0,0,0,-1,1784,1639,0,0
567,-615,0,0,0,0,0,0,0,0,0,-1,1791,1639,0,0
574,-615,0,0,0,0,0,0,0,0,0,-1,1798,1639,0,0
581,-615,0,0,0,0,0,0,0,0,0,-1,1805,1639,0,0
588,-615,0,0,0,0,0,0,0,0,0,-1,1812,1639,0,0
595,-615,0,0,0,0,0,0,0,0,0,-1,1819,1639,0,0
602,-615,0,0,0,0,0,0,0,0,0,-1,1826,1639,0,0
609,-615,0,0,0,0,0,0,0,0,0,-1,1833,1639,0,0
616,-615,0,0,0,0,0,0,0,0,0,-1,1840,1639,0,0
623,-615,0,0,0,0,0,0,0,0,0,-1,1847,1639,0,0
630,-615,0,0,0,0,0,0,0,0,0,-1,1854,1639,0,0
637,-615,0,0,0,0,0,0,0,0,0,-1,1861,1639,0,0
644,-615,0,0,0,0,0,0,0,0,0,-1,1868,1639,0,0
651,-615,0,0,0,0,0,0,0,0,0,-1,1875,1639,0,0
658,-615,0,0,0,0,0,0,0,0,0,-1,1882,1639,0,0
665,-615,0,0,0,0,0,0,0,0,0,-1,1889,1639,0,0
672,-615,0,0,0,0,0,0,0,0,0,-1,1896,1639,0,0
679,-615,0,0,0,0,0,0,0,0,0,-1,1903,1639,0,0
686,-615,0,0,0,0,0,0,0,0,0,-1,1910,1639,0,0
693,-615,0,0,0,0,0,0,0,0,0,-1,1917,1639,0,0
700,-615,0,0,0,0,0,0,0,0,0,-1,1924,1639,0,0
707,-615,0,0,0,0,0,0,0,0,0,-1,1931,1639,0,0
714,-615,0,0,0,0,0,0,0,0,0,-1,1938,1639,0,0
721,-615,0,0,0,0,0,0,0,0,0,-1,1945,1639,0,0
728,-615,0,0,0,0,0,0,0,0,0,-1,1952,1639,0,0
735,-615,0,0,0,0,0,0,0,0,0,-1,1959,1639,0,0
742,-615,0,0,0,0,0,0,0,0,0,-1,1966,1639,0,0
749,-615,0,0,0,0,0,0,0,0,0,-1,1973,1639,0,0
756,-615,0,0,0,0,0,0,0,0,0,-1,1980,1639,0,0
763,-615,0,0,0,0,0,0,0,0,0,-1,1987,1639,0,0
770,-615,0,0,0,0,0,0,0,0,0,-1,1994,1639,0,0
777,-615,0,0,0,0,0,0,0,0,0,-1,2001,1639,0,0
784,-615,0,0,0,0,0,0,0,0,0,-1,2008,1639,0,0
791,-615,0,0,0,0,0,0,0,0,0,-1,2015,1639,0,0
798,-615,0,0,0,0,0,0,0,0,0,-1,2022,1639,0,0
805,-615,0,0,0,0,0,0,0,0,0,-1,2029,1639,0,0
812,-615,0,0,0,0,0,0,0,0,0,-1,2036,1639,0,0
-700,-622,0,0,0,0,0,0,0,0,0,-1,524,1646,0,0
-693,-622,0,0,0,0,0,0,0,0,0,-1,531,1646,0,0
-686,-622,0,0,0,0,0,0,0,0,0,-1,538,1646,0,0
-679,-622,0,0,0,0,0,0,0,0,0,-1,545,1646,0,0
-672,-622,0,0,0,0,0,0,0,0,0,-1,552,1646,0,0
-665,-622,0,0,0,0,0,0,0,0,0,-1,559,1646,0,0
-658,-622,0,0,0,0,0,0,0,0,0,-1,566,1646,0,0
-651,-622,0,0,0,0,0,0,0,0,0,-1,573,1646,0,0
-644,-622,0,0,0,0,0,0,0,0,0,-1,580,1646,0,0
-637,-622,0,0,0,0,0,0,0,0,0,-1,587,1646,0,0
-630,-622,0,0,0,0,0,0,0,0,0,-1,594,1646,0,0
-623,-622,0,0,0,0,0,0,0,0,0,-1,601,1646,0,0
-616,-622,0,0,0,0,0,0,0,0,0,-1,608,1646,0,0
-609,-622,0,0,0,0,0,0,0,0,0,-1,615,1646,0,0
-602,-622,0,0,0,0,0,0,0,0,0,-1,622,1646,0,0
-595,-622,0,0,0,0,0,0,0,0,0,-1,629,1646,0,0
-588,-622,0,0,0,0,0,0,0,0,0,-1,636,1646,0,0
-581,-622,0,0,0,0,0,0,0,0,0,-1,643,1646,0,0
-574,-622,0,0,0,0,0,0,0,0,0,-1,650,1646,0,0
-567,-622,0,0,0,0,0,0,0,0,0,-1,657,1646,0,0
-560,-622,0,0,0,0,0,0,0,0,0,-1,664,1646,0,0
-553,-622,0,0,0,0,0,0,0,0,0,-1,671,1646,0,0
-546,-622,0,0,0,0,0,0,0,0,0,-1,678,1646,0,0
-539,-622,0,0,0,0,0,0,0,0,0,-1,685,1646,0,0
-532,-622,0,0,0,0,0,0,0,0,0,-1,692,1646,0,0
-525,-622,0,0,0,0,0,0,0,0,0,-1,699,1646,0,0
-518,-622,0,0,0,0,0,0,0,0,0,-1,706,1646,0,0
-511,-622,0,0,0,0,0,0,0,0,0,-1,713,1646,0,0
-504,-622,0,0,0,0,0,0,0,0,0,-1,720,1646,0,0
-497,-622,0,0,0,0,0,0,0,0,0,-1,727,1646,0,0
-490,-622,0,0,0,0,0,0,0,0,0,-1,734,1646,0,0
-483,-622,0,0,0,0,0,0,0,0,0,-1,741,1646,0,0
-476,-622,0,0,0,0,0,0,0,0,0,-1,748,1646,0,0
-469,-622,0,0,0,0,0,0,0,0,0,-1,755,1646,0,0
-462,-622,0,0,0,0,0,0,0,0,0,-1,762,1646,0,0
-455,-622,0,0,0,0,0,0,0,0,0,-1,769,1646,0,0
-448,-622,0,0,0,0,0,0,0,0,0,-1,776,1646,0,0
-441,-622,0,0,0,0,0,0,0,0,0,-1,783,1646,0,0
-434,-622,0,0,0,0,0,0,0,0,0,-1,790,1646,0,0
-427,-622,-7.62891,3.48096,0,0,0,0,0,0,0,-1,797,1646,-7.62892,-3.48092
-420,-622,-9.35791,1.77185,0,0,0,0,0,0,0,-1,804,1646,-9.35789,-1.77183
-413,-622,-8.46075,1.96777,0,0,0,0,0,0,0,-1,811,1646,-8.46074,-1.96774
-406,-622,-4.44318,2.16858,0,0,0,0,0,0,0,-1,818,1646,-4.44315,-2.16859
-399,-622,-7.06976,1.51001,0,0,0,0,0,0,0,-1,825,1646,-7.06976,-1.51005
-392,-622,3.89551,5.85376,0,0,0,0,0,0,0,-1,832,1646,3.8955,-5.85379
-385,-622,2.00543,14.0448,0,0,0,0,0,0,0,-1,839,1646,2.00544,-14.0448
-378,-622,1.49036,15.3436,0,0,0,0,0,0,0,-1,846,1646,1.49033,-15.3436
-371,-622,3.3562,19.241,0,0,0,0,0,0,0,-1,853,1646,3.35619,-19.241
-364,-622,3.12598,21.1699,0,0,0,0,0,0,0,-1,860,1646,3.12599,-21.17
-357,-622,3.62994,21.5828,0,0,0,0,0,0,0,-1,867,1646,3.62994,-21.5827
-350,-622,3.57007,22.0784,0,0,0,0,0,0,0,-1,874,1646,3.57009,-22.0784
-343,-622,3.47699,22.4443,-0.00483725,-0.00144804,-0.000327376,-0.00141671,-0.00486858,-1.47538,0.00289158,0.0255367,881,1646,3.47698,-22.4443
-336,-622,3.46503,22.8707,-0.00376572,-0.00104634,-0.000221906,-0.00102836,-0.00378371,-1.48991,0.0022591,0.00980288,888,1646,3.465,-22.8707
-329,-622,3.43408,23.2654,-0.00279254,-0.000843601,-0.000137485,-0.00083395,-0.00280219,-1.50072,0.00166144,0.00884562,895,1646,3.43411,-23.2653
-322,-622,3.42731,23.6832,-0.00203254,-0.000446618,1.62459e-05,-0.000446452,-0.0020327,1.56055,0.00123355,0.0103383,902,1646,3.42728,-23.6833
-315,-622,3.42493,24.0963,-0.00139726,-9.1937e-05,0.000220402,-5.5727e-05,-0.00143347,1.40796,0.000937621,0.0138039,909,1646,3.4249,-24.0963
-308,-622,3.41431,24.4751,-0.000763772,0.000315824,0.000408883,0.000453202,-0.00090115,1.24666,0.000796064,0.0145712,916,1646,3.41429,-24.4752
-301,-622,3.40295,24.8429,-0.000150278,0.000729437,0.000638867,0.00106522,-0.000486066,1.08688,0.000916208,0.0135679,923,1646,3.40293,-24.8429
-294,-622,3.38324,25.229,0.000493132,0.00133073,0.000981256,0.00197882,-0.000154961,0.987094,0.00137378,0.010571,930,1646,3.38322,-25.229
-287,-622,3.36932,25.6042,0.00106275,0.00200951,0.00125918,0.00288135,0.000190911,0.965196,0.00186053,0.00830564,937,1646,3.36933,-25.6043
-280,-622,3.35901,25.974,0.00163054,0.00268826,0.00156031,0.0038069,0.0005119,0.948793,0.00238568,0.00885858,944,1646,3.359,-25.974
-273,-622,3.37781,26.3336,0.00219671,0.00329473,0.00187168,0.00469626,0.000795178,0.928059,0.00290232,0.0133765,951,1646,3.37779,-26.3337
-266,-622,3.35681,26.7098,0.00272287,0.00399528,0.00216744,0.00561795,0.00110019,0.928152,0.00343776,0.0133537,958,1646,3.35684,-26.7098
-259,-622,3.35742,27.0958,0.00326332,0.00469236,0.00244634,0.0065264,0.00142928,0.927484,0.0039614,0.0126731,965,1646,3.35744,-27.0959
-252,-622,3.36536,27.4408,0.00389032,0.00545578,0.00270718,0.00749111,0.00185499,0.926126,0.0045049,0.0132355,972,1646,3.36536,-27.4408
-245,-622,3.40021,27.7899,0.00455486,0.00618599,0.00299473,0.00847423,0.00226662,0.91834,0.00506589,0.0102711,979,1646,3.40018,-27.7899
-238,-622,3.39191,28.1312,0.00528633,0.00671955,0.00316774,0.00925072,0.00275516,0.896636,0.0054845,0.0129273,986,1646,3.39193,-28.1312
-231,-622,3.4693,28.5664,0.00602776,0.00693309,0.0033978,0.00990825,0.0030526,0.85162,0.00585931,0.0219218,993,1646,3.46928,-28.5664
-224,-622,3.5708,28.767,0.00667751,0.00738499,0.00354137,0.0105902,0.00347225,0.835177,0.00623387,0.0372908,1000,1646,3.5708,-28.767
-217,-622,3.66425,29.28,0,0,0,0,0,0,0,-1,1007,1646,3.66424,-29.28
-210,-622,3.87927,28.0903,0,0,0,0,0,0,0,-1,1014,1646,3.87925,-28.0903
-203,-622,4.21375,20.9574,0,0,0,0,0,0,0,-1,1021,1646,4.21375,-20.9574
-196,-622,4.18518,21.2491,0,0,0,0,0,0,0,-1,1028,1646,4.18521,-21.2491
-189,-622,4.98254,25.8979,0,0,0,0,0,0,0,-1,1035,1646,4.98255,-25.8979
-182,-622,2.21411,20.6752,0,0,0,0,0,0,0,-1,1042,1646,2.21416,-20.6751
-175,-622,2.56091,11.0195,0,0,0,0,0,0,0,-1,1049,1646,2.56095,-11.0195
-168,-622,3.31055,28.6663,0,0,0,0,0,0,0,-1,1056,1646,3.31055,-28.6663
-161,-622,3.46545,31.1064,0,0,0,0,0,0,0,-1,1063,1646,3.46549,-31.1064
-154,-622,3.02039,29.4987,0,0,0,0,0,0,0,-1,1070,1646,3.02035,-29.4986
-147,-622,3.7146,25.5477,0,0,0,0,0,0,0,-1,1077,1646,3.71464,-25.5478
-140,-622,3.27515,16.0353,0,0,0,0,0,0,0,-1,1084,1646,3.27519,-16.0353
-133,-622,3.09644,17.677,0,0,0,0,0,0,0,-1,1091,1646,3.09638,-17.677
-126,-622,3.5061,19.5251,0,0,0,0,0,0,0,-1,1098,1646,3.50616,-19.5252
-119,-622,4.06384,13.1715,0,0,0,0,0,0,0,-1,1105,1646,4.06379,-13.1716
-112,-622,4.33276,14.6605,0,0,0,0,0,0,0,-1,1112,1646,4.33281,-14.6605
-105,-622,0.306519,4.38159,0,0,0,0,0,0,0,-1,1119,1646,0.306536,-4.38159
-98,-622,-0.510376,3.5033,0,0,0,0,0,0,0,-1,1126,1646,-0.510393,-3.50324
-91,-622,-1.146,0.975952,0,0,0,0,0,0,0,-1,1133,1646,-1.14599,-0.97597
-84,-622,-2.04895,1.31787,0,0,0,0,0,0,0,-1,1140,1646,-2.0489,-1.31781
-77,-622,-1.80627,0.332275,0,0,0,0,0,0,0,-1,1147,1646,-1.80622,-0.33223
-70,-622,-3.65588,2.28149,0,0,0,0,0,0,0,-1,1154,1646,-3.65589,-2.28155
-63,-622,-2.49683,1.27087,0,0,0,0,0,0,0,-1,1161,1646,-2.49679,-1.27093
-56,-622,-2.44238,-0.575562,0,0,0,0,0,0,0,-1,1168,1646,-2.44242,0.575508
-49,-622,-2.41089,1.38818,0,0,0,0,0,0,0,-1,1175,1646,-2.41088,-1.38815
-42,-622,-2.71497,2.85242,0,0,0,0,0,0,0,-1,1182,1646,-2.71491,-2.85247
-35,-622,-3.0177,4.25842,0,0,0,0,0,0,0,-1,1189,1646,-3.01773,-4.25838
-28,-622,-0.896606,0.678833,0,0,0,0,0,0,0,-1,1196,1646,-0.89661,-0.678835
-21,-622,3.69312,26.7708,0,0,0,0,0,0,0,-1,1203,1646,3.69309,-26.7708
-14,-622,6.56531,33.7877,0,0,0,0,0,0,0,-1,1210,1646,6.56534,-33.7877
-7,-622,7.04504,33.5298,0,0,0,0,0,0,0,-1,1217,1646,7.04507,-33.5297
0,-622,0,0,0,0,0,0,0,0,0,-1,1224,1646,0,0
7,-622,0,0,0,0,0,0,0,0,0,-1,1231,1646,0,0
14,-622,0,0,0,0,0,0,0,0,0,-1,1238,1646,0,0
21,-622,0,0,0,0,0,0,0,0,0,-1,1245,1646,0,0
28,-622,0,0,0,0,0,0,0,0,0,-1,1252,1646,0,0
35,-622,0,0,0,0,0,0,0,0,0,-1,1259,1646,0,0
42,-622,0,0,0,0,0,0,0,0,0,-1,1266,1646,0,0
49,-622,0,0,0,0,0,0,0,0,0,-1,1273,1646,0,0
56,-622,0,0,0,0,0,0,0,0,0,-1,1280,1646,0,0
63,-622,0,0,0,0,0,0,0,0,0,-1,1287,1646,0,0
70,-622,0,0,0,0,0,0,0,0,0,-1,1294,1646,0,0
77,-622,0,0,0,0,0,0,0,0,0,-1,1301,1646,0,0
84,-622,0,0,0,0,0,0,0,0,0,-1,1308,1646,0,0
91,-622,0,0,0,0,0,0,0,0,0,-1,1315,1646,0,0
98,-622,0,0,0,0,0,0,0,0,0,-1,1322,1646,0,0
105,-622,0,0,0,0,0,0,0,0,0,-1,1329,1646,0,0
112,-622,0,0,0,0,0,0,0,0,0,-1,1336,1646,0,0
119,-622,0,0,0,0,0,0,0,0,0,-1,1343,1646,0,0
126,-622,8.98962,35.1265,0,0,0,0,0,0,0,-1,1350,1646,8.98961,-35.1264
133,-622,8.46594,33.9927,0,0,0,0,0,0,0,-1,1357,1646,8.46598,-33.9926
140,-622,-1.91199,40.0955,0,0,0,0,0,0,0,-1,1364,1646,-1.91204,-40.0955
147,-622,3.25427,44.0051,0,0,0,0,0,0,0,-1,1371,1646,3.25426,-44.0051
154,-622,3.51294,45.2302,0,0,0,0,0,0,0,-1,1378,1646,3.51298,-45.2303
161,-622,10.6884,6.46448,0,0,0,0,0,0,0,-1,1385,1646,10.6883,-6.46442
168,-622,12.2402,5.18091,0,0,0,0,0,0,0,-1,1392,1646,12.2403,-5.1809
175,-622,5.64355,-1.77075,0,0,0,0,0,0,0,-1,1399,1646,5.64351,1.77077
182,-622,5.88586,-1.32251,0,0,0,0,0,0,0,-1,1406,1646,5.88587,1.32256
189,-622,5.97986,-1.18005,0,0,0,0,0,0,0,-1,1413,1646,5.97986,1.18003
196,-622,5.85022,-0.244507,0,0,0,0,0,0,0,-1,1420,1646,5.85026,0.244478
203,-622,5.25159,0.138794,0,0,0,0,0,0,0,-1,1427,1646,5.25162,-0.138822
210,-622,6.66833,0.0397949,0,0,0,0,0,0,0,-1,1434,1646,6.6684,-0.0398278
217,-622,6.12061,0.0506592,0,0,0,0,0,0,0,-1,1441,1646,6.12058,-0.0507181
224,-622,5.57275,0.0616455,0,0,0,0,0,0,0,-1,1448,1646,5.57276,-0.0616084
231,-622,5.31348,1.3949,0,0,0,0,0,0,0,-1,1455,1646,5.31342,-1.39495
238,-622,3.76477,2.90686,0,0,0,0,0,0,0,-1,1462,1646,3.7648,-2.90686
245,-622,5.13794,2.67993,0,0,0,0,0,0,0,-1,1469,1646,5.13796,-2.67992
252,-622,6.66528,2.53992,0,0,0,0,0,0,0,-1,1476,1646,6.66522,-2.53991
259,-622,8.93787,3.31458,0,0,0,0,0,0,0,-1,1483,1646,8.93791,-3.31454
266,-622,5.72644,3.11926,0,0,0,0,0,0,0,-1,1490,1646,5.72647,-3.1192
273,-622,7.28076,3.61218,0,0,0,0,0,0,0,-1,1497,1646,7.28071,-3.61212
280,-622,8.43127,4.4447,0,0,0,0,0,0,0,-1,1504,1646,8.43123,-4.44467
287,-622,8.60315,5.94617,0,0,0,0,0,0,0,-1,1511,1646,8.60319,-5.94622
294,-622,7.62756,11.5143,0,0,0,0,0,0,0,-1,1518,1646,7.62762,-11.5143
301,-622,7.36548,11.6569,0,0,0,0,0,0,0,-1,1525,1646,7.36549,-11.6569
308,-622,7.10339,11.7994,0,0,0,0,0,0,0,-1,1532,1646,7.10335,-11.7995
315,-622,8.28687,16.5842,0,0,0,0,0,0,0,-1,1539,1646,8.28689,-16.5843
322,-622,7.43689,20.5786,0,0,0,0,0,0,0,-1,1546,1646,7.43685,-20.5786
329,-622,9.76477,26.4202,0,0,0,0,0,0,0,-1,1553,1646,9.7648,-26.4202
336,-622,10.4526,28.8552,0,0,0,0,0,0,0,-1,1560,1646,10.4526,-28.8552
343,-622,10.7522,30.2819,0,0,0,0,0,0,0,-1,1567,1646,10.7522,-30.2818
350,-622,11.2212,29.7626,0,0,0,0,0,0,0,-1,1574,1646,11.2212,-29.7625
357,-622,11.3324,29.2666,0,0,0,0,0,0,0,-1,1581,1646,11.3324,-29.2666
364,-622,11.1873,29.2185,0.00570833,0.0116327,-0.0029699,0.0128651,0.0044759,-1.17745,0.00754135,0.0407578,1588,1646,11.1873,-29.2185
371,-622,11.2318,28.6516,0.00474054,0.0102485,-0.0022929,0.011078,0.00391098,-1.22365,0.00648734,0.0239803,1595,1646,11.2318,-28.6516
378,-622,11.2274,28.299,0.00393585,0.00891696,-0.00180057,0.00949966,0.00335315,-1.25781,0.00556311,0.0111594,1602,1646,11.2275,-28.2989
385,-622,11.2103,27.9772,0.00335205,0.00743796,-0.00143967,0.00789427,0.00289574,-1.26386,0.00461134,0.00945407,1609,1646,11.2103,-27.9772
392,-622,11.2245,27.6477,0.00284792,0.00609838,-0.00113284,0.00645424,0.00249207,-1.26643,0.00375844,0.0110083,1616,1646,11.2245,-27.6477
399,-622,11.2345,27.295,0.00221901,0.00475224,-0.000726387,0.00494575,0.00202551,-1.31045,0.00287096,0.0112804,1623,1646,11.2345,-27.2951
406,-622,11.2175,26.9501,0.00170735,0.00362429,-0.000511859,0.0037524,0.00157924,-1.32554,0.00217548,0.0137035,1630,1646,11.2176,-26.9501
413,-622,11.2332,26.6173,0.00131305,0.00270064,-0.000393457,0.00280444,0.00120925,-1.31285,0.00162425,0.0161761,1637,1646,11.2331,-26.6173
420,-622,11.2388,26.2749,0.000993482,0.00179197,-0.000291607,0.00188712,0.000898327,-1.25538,0.00108995,0.0164876,1644,1646,11.2388,-26.2748
427,-622,11.2466,25.9163,0.00079017,0.0011682,-0.000380609,0.00140415,0.000554228,-1.01587,0.000816654,0.0129445,1651,1646,11.2466,-25.9162
434,-622,11.2545,25.5439,0.000619836,0.000516348,-0.000465741,0.0010367,9.94849e-05,-0.730075,0.000660473,0.0138023,1658,1646,11.2546,-25.544
441,-622,11.2275,25.1832,0.000532199,3.00292e-05,-0.000610895,0.000941597,-0.000379368,-0.590417,0.000785348,0.0153597,1665,1646,11.2276,-25.1832
448,-622,11.2087,24.838,0.000480753,-0.000461755,-0.000728486,0.000877124,-0.000858125,-0.498303,0.00100187,0.0139858,1672,1646,11.2088,-24.838
455,-622,11.1987,24.452,0.000403737,-0.000912692,-0.000870022,0.000836478,-0.00134543,-0.461558,0.0012711,0.015451,1679,1646,11.1987,-24.452
462,-622,11.2083,24.0844,0.000190251,-0.00137392,-0.00086397,0.000573542,-0.00175721,-0.417552,0.00140231,0.0171483,1686,1646,11.2083,-24.0844
469,-622,11.1848,23.7354,5.54774e-06,-0.0017895,-0.000853308,0.000346443,-0.0021304,-0.380075,0.00154872,0.018409,1693,1646,11.1849,-23.7353
476,-622,11.2167,23.3656,-0.00033704,-0.00222914,-0.000722259,-9.28517e-05,-0.00247333,-0.326026,0.00161882,0.0208993,1700,1646,11.2167,-23.3656
483,-622,11.269,23.0767,0,0,0,0,0,0,0,-1,1707,1646,11.2691,-23.0766
490,-622,11.2114,22.547,0,0,0,0,0,0,0,-1,1714,1646,11.2114,-22.547
497,-622,11.3741,22.0913,0,0,0,0,0,0,0,-1,1721,1646,11.3741,-22.0913
504,-622,10.8306,19.8021,0,0,0,0,0,0,0,-1,1728,1646,10.8306,-19.8022
511,-622,5.29004,4.14587,0,0,0,0,0,0,0,-1,1735,1646,5.29008,-4.14589
518,-622,5.6001,1.55359,0,0,0,0,0,0,0,-1,1742,1646,5.60015,-1.5536
525,-622,5.83093,2.01807,0,0,0,0,0,0,0,-1,1749,1646,5.83097,-2.01802
532,-622,5.44202,0.57373,0,0,0,0,0,0,0,-1,1756,1646,5.44196,-0.573705
539,-622,9.32129,1.06116,0,0,0,0,0,0,0,-1,1763,1646,9.32131,-1.0612
546,-622,6.50977,-3.45618,0,0,0,0,0,0,0,-1,1770,1646,6.50981,3.4562
553,-622,0,0,0,0,0,0,0,0,0,-1,1777,1646,0,0
560,-622,0,0,0,0,0,0,0,0,0,-1,1784,1646,0,0
567,-622,0,0,0,0,0,0,0,0,0,-1,1791,1646,0,0
574,-622,0,0,0,0,0,0,0,0,0,-1,1798,1646,0,0
581,-622,0,0,0,0,0,0,0,0,0,-1,1805,1646,0,0
588,-622,0,0,0,0,0,0,0,0,0,-1,1812,1646,0,0
595,-622,0,0,0,0,0,0,0,0,0,-1,1819,1646,0,0
602,-622,0,0,0,0,0,0,0,0,0,-1,1826,1646,0,0
609,-622,0,0,0,0,0,0,0,0,0,-1,1833,1646,0,0
616,-622,0,0,0,0,0,0,0,0,0,-1,1840,1646,0,0
623,-622,0,0,0,0,0,0,0,0,0,-1,1847,1646,0,0
630,-622,0,0,0,0,0,0,0,0,0,-1,1854,1646,0,0
637,-622,0,0,0,0,0,0,0,0,0,-1,1861,1646,0,0
644,-622,0,0,0,0,0,0,0,0,0,-1,1868,1646,0,0
651,-622,0,0,0,0,0,0,0,0,0,-1,1875,1646,0,0
658,-622,0,0,0,0,0,0,0,0,0,-1,1882,1646,0,0
665,-622,0,0,0,0,0,0,0,0,0,-1,1889,1646,0,0
672,-622,0,0,0,0,0,0,0,0,0,-1,1896,1646,0,0
679,-622,0,0,0,0,0,0,0,0,0,-1,1903,1646,0,0
686,-622,0,0,0,0,0,0,0,0,0,-1,1910,1646,0,0
693,-622,0,0,0,0,0,0,0,0,0,-1,1917,1646,0,0
700,-622,0,0,0,0,0,0,0,0,0,-1,1924,1646,0,0
707,-622,0,0,0,0,0,0,0,0,0,-1,1931,1646,0,0
714,-622,0,0,0,0,0,0,0,0,0,-1,1938,1646,0,0
721,-622,0,0,0,0,0,0,0,0,0,-1,1945,1646,0,0
728,-622,0,0,0,0,0,0,0,0,0,-1,1952,1646,0,0
735,-622,0,0,0,0,0,0,0,0,0,-1,1959,1646,0,0
742,-622,0,0,0,0,0,0,0,0,0,-1,1966,1646,0,0
749,-622,0,0,0,0,0,0,0,0,0,-1,1973,1646,0,0
756,-622,0,0,0,0,0,0,0,0,0,-1,1980,1646,0,0
763,-622,0,0,0,0,0,0,0,0,0,-1,1987,1646,0,0
770,-622,0,0,0,0,0,0,0,0,0,-1,1994,1646,0,0
777,-622,0,0,0,0,0,0,0,0,0,-1,2001,1646,0,0
784,-622,0,0,0,0,0,0,0,0,0,-1,2008,1646,0,0
791,-622,0,0,0,0,0,0,0,0,0,-1,2015,1646,0,0
798,-622,0,0,0,0,0,0,0,0,0,-1,2022,1646,0,0
805,-622,0,0,0,0,0,0,0,0,0,-1,2029,1646,0,0
812,-622,0,0,0,0,0,0,0,0,0,-1,2036,1646,0,0
-700,-629,0,0,0,0,0,0,0,0,0,-1,524,1653,0,0
-693,-629,0,0,0,0,0,0,0,0,0,-1,531,1653,0,0
-686,-629,0,0,0,0,0,0,0,0,0,-1,538,1653,0,0
-679,-629,0,0,0,0,0,0,0,0,0,-1,545,1653,0,0
-672,-629,0,0,0,0,0,0,0,0,0,-1,552,1653,0,0
-665,-629,0,0,0,0,0,0,0,0,0,-1,559,1653,0,0
-658,-629,0,0,0,0,0,0,0,0,0,-1,566,1653,0,0
-651,-629,0,0,0,0,0,0,0,0,0,-1,573,1653,0,0
-644,-629,0,0,0,0,0,0,0,0,0,-1,580,1653,0,0
-637,-629,0,0,0,0,0,0,0,0,0,-1,587,1653,0,0
-630,-629,0,0,0,0,0,0,0,0,0,-1,594,1653,0,0
-623,-629,0,0,0,0,0,0,0,0,0,-1,601,1653,0,0
-616,-629,0,0,0,0,0,0,0,0,0,-1,608,1653,0,0
-609,-629,0,0,0,0,0,0,0,0,0,-1,615,1653,0,0
-602,-629,0,0,0,0,0,0,0,0,0,-1,622,1653,0,0
-595,-629,0,0,0,0,0,0,0,0,0,-1,629,1653,0,0
-588,-629,0,0,0,0,0,0,0,0,0,-1,636,1653,0,0
-581,-629,0,0,0,0,0,0,0,0,0,-1,643,1653,0,0
-574,-629,0,0,0,0,0,0,0,0,0,-1,650,1653,0,0
-567,-629,0,0,0,0,0,0,0,0,0,-1,657,1653,0,0
-560,-629,0,0,0,0,0,0,0,0,0,-1,664,1653,0,0
-553,-629,0,0,0,0,0,0,0,0,0,-1,671,1653,0,0
-546,-629,0,0,0,0,0,0,0,0,0,-1,678,1653,0,0
-539,-629,0,0,0,0,0,0,0,0,0,-1,685,1653,0,0
-532,-629,0,0,0,0,0,0,0,0,0,-1,692,1653,0,0
-525,-629,0,0,0,0,0,0,0,0,0,-1,699,1653,0,0
-518,-629,0,0,0,0,0,0,0,0,0,-1,706,1653,0,0
-511,-629,0,0,0,0,0,0,0,0,0,-1,713,1653,0,0
-504,-629,0,0,0,0,0,0,0,0,0,-1,720,1653,0,0
-497,-629,0,0,0,0,0,0,0,0,0,-1,727,1653,0,0
-490,-629,0,0,0,0,0,0,0,0,0,-1,734,1653,0,0
-483,-629,0,0,0,0,0,0,0,0,0,-1,741,1653,0,0
-476,-629,0,0,0,0,0,0,0,0,0,-1,748,1653,0,0
-469,-629,0,0,0,0,0,0,0,0,0,-1,755,1653,0,0
-462,-629,0,0,0,0,0,0,0,0,0,-1,762,1653,0,0
-455,-629,0,0,0,0,0,0,0,0,0,-1,769,1653,0,0
-448,-629,0,0,0,0,0,0,0,0,0,-1,776,1653,0,0
-441,-629,0,0,0,0,0,0,0,0,0,-1,783,1653,0,0
-434,-629,0,0,0,0,0,0,0,0,0,-1,790,1653,0,0
-427,-629,0,0,0,0,0,0,0,0,0,-1,797,1653,0,0
-420,-629,-3.87103,3.37634,0,0,0,0,0,0,0,-1,804,1653,-3.87101,-3.37633
-413,-629,-5.69751,1.33582,0,0,0,0,0,0,0,-1,811,1653,-5.69754,-1.3358
-406,-629,2.85406,6.01501,0,0,0,0,0,0,0,-1,818,1653,2.85405,-6.01507
-399,-629,-0.455627,10.8687,0,0,0,0,0,0,0,-1,825,1653,-0.455625,-10.8687
-392,-629,1.15369,11.1295,0,0,0,0,0,0,0,-1,832,1653,1.1537,-11.1295
-385,-629,1.81976,11.6935,0,0,0,0,0,0,0,-1,839,1653,1.81975,-11.6935
-378,-629,2.19452,14.7941,0,0,0,0,0,0,0,-1,846,1653,2.19451,-14.7941
-371,-629,3.60114,14.7299,0,0,0,0,0,0,0,-1,853,1653,3.60113,-14.7299
-364,-629,3.34198,19.8982,0,0,0,0,0,0,0,-1,860,1653,3.34201,-19.8981
-357,-629,4.38782,16.3444,0,0,0,0,0,0,0,-1,867,1653,4.38783,-16.3443
-350,-629,3.95764,22.0126,0,0,0,0,0,0,0,-1,874,1653,3.95766,-22.0126
-343,-629,3.90643,22.483,-0.00643214,-0.00202506,-0.000793782,-0.00188644,-0.00657075,-1.39792,0.00390658,0.0426976,881,1653,3.90645,-22.483
-336,-629,3.84033,22.8789,-0.00527756,-0.00156267,-0.00063259,-0.0014579,-0.00538233,-1.40667,0.00321441,0.0197105,888,1653,3.84035,-22.8789
-329,-629,3.84961,23.2849,-0.00424298,-0.00144491,-0.000568317,-0.00133388,-0.004354,-1.37787,0.00257586,0.012098,895,1653,3.84963,-23.2849
-322,-629,3.82208,23.6807,-0.00336923,-0.00104666,-0.000408769,-0.000976821,-0.00343908,-1.40157,0.00204636,0.0119914,902,1653,3.82208,-23.6806
-315,-629,3.78491,24.0907,-0.00261627,-0.00077304,-0.000189192,-0.000753822,-0.00263549,-1.46956,0.00156735,0.0153592,909,1653,3.78492,-24.0907
-308,-629,3.77887,24.4823,-0.00188783,-0.000393421,7.31148e-06,-0.000393385,-0.00188786,1.5659,0.00115009,0.0125574,916,1653,3.7789,-24.4823
-301,-629,3.78333,24.8694,-0.00118526,-2.55846e-05,0.000226657,1.71412e-05,-0.00122799,1.38448,0.00082443,0.0113524,923,1653,3.78332,-24.8693
-294,-629,3.77271,25.2428,-0.000475352,0.000471204,0.000520243,0.000701236,-0.000705384,1.15448,0.000812114,0.0127683,930,1653,3.77269,-25.2428
-287,-629,3.76135,25.6129,0.000161785,0.0010421,0.000773432,0.00149185,-0.000287966,1.04409,0.00110316,0.0102728,937,1653,3.76134,-25.613
-280,-629,3.74811,25.9833,0.000749712,0.00162015,0.00102988,0.00230299,6.68725e-05,0.985314,0.00151353,0.0100889,944,1653,3.74809,-25.9833
-273,-629,3.7431,26.3394,0.00131115,0.00215257,0.00130237,0.0031005,0.000363223,0.941626,0.00195719,0.0127856,951,1653,3.7431,-26.3394
-266,-629,3.73199,26.713,0.00188378,0.00275466,0.00158046,0.00395857,0.000679875,0.919821,0.00244415,0.0132811,958,1653,3.732,-26.7131
-259,-629,3.73456,27.1083,0.00239582,0.00331475,0.00178704,0.00470045,0.00101012,0.911228,0.00285708,0.0150114,965,1653,3.73457,-27.1083
-252,-629,3.73206,27.4567,0.00289504,0.00393246,0.00194297,0.00542477,0.00140273,0.91584,0.00325141,0.0116268,972,1653,3.73204,-27.4567
-245,-629,3.74402,27.8026,0.00342822,0.00450879,0.0021244,0.00616054,0.00177648,0.90992,0.00366145,0.00786206,979,1653,3.74399,-27.8026
-238,-629,3.74451,28.1454,0.00401908,0.00492787,0.00221447,0.00673409,0.00221286,0.886591,0.00396334,0.010449,986,1653,3.74453,-28.1454
-231,-629,3.72827,28.5007,0.00462527,0.00508343,0.00235515,0.00722062,0.00248808,0.833879,0.00423543,0.0138328,993,1653,3.72825,-28.5008
-224,-629,3.83301,28.9336,0.00514856,0.00545102,0.00238905,0.00769363,0.00290595,0.817007,0.00448598,0.0170888,1000,1653,3.833,-28.9336
-217,-629,3.78082,29.2046,0.00569414,0.00599781,0.00231496,0.00816591,0.00352605,0.818145,0.00472919,0.0323457,1007,1653,3.78081,-29.2046
-210,-629,3.91571,29.6854,0,0,0,0,0,0,0,-1,1014,1653,3.91573,-29.6854
-203,-629,3.76514,30.4904,0,0,0,0,0,0,0,-1,1021,1653,3.76513,-30.4903
-196,-629,4.32202,30.3998,0,0,0,0,0,0,0,-1,1028,1653,4.32198,-30.3998
-189,-629,4.20239,30.5009,0,0,0,0,0,0,0,-1,1035,1653,4.20236,-30.5009
-182,-629,4.29395,30.7404,0,0,0,0,0,0,0,-1,1042,1653,4.29398,-30.7403
-175,-629,3.29102,19.1411,0,0,0,0,0,0,0,-1,1049,1653,3.29096,-19.1411
-168,-629,3.69653,30.903,0,0,0,0,0,0,0,-1,1056,1653,3.6965,-30.9029
-161,-629,3.78369,31.1376,0,0,0,0,0,0,0,-1,1063,1653,3.78364,-31.1375
-154,-629,3.87708,31.2505,0,0,0,0,0,0,0,-1,1070,1653,3.87706,-31.2505
-147,-629,4.46606,30.7166,0,0,0,0,0,0,0,-1,1077,1653,4.46604,-30.7166
-140,-629,2.34851,19.2911,0,0,0,0,0,0,0,-1,1084,1653,2.34853,-19.2911
-133,-629,3.41248,17.6686,0,0,0,0,0,0,0,-1,1091,1653,3.41243,-17.6686
-126,-629,4.01025,19.5328,0,0,0,0,0,0,0,-1,1098,1653,4.01022,-19.5328
-119,-629,4.94177,13.5525,0,0,0,0,0,0,0,-1,1105,1653,4.94172,-13.5525
-112,-629,5.63123,15.9187,0,0,0,0,0,0,0,-1,1112,1653,5.63118,-15.9187
-105,-629,2.15881,4.38342,0,0,0,0,0,0,0,-1,1119,1653,2.15878,-4.38347
-98,-629,0.825806,4.19385,0,0,0,0,0,0,0,-1,1126,1653,0.825779,-4.1939
-91,-629,-0.452271,3.64465,0,0,0,0,0,0,0,-1,1133,1653,-0.452278,-3.6446
-84,-629,-2.6084,0.466797,0,0,0,0,0,0,0,-1,1140,1653,-2.6084,-0.466786
-77,-629,-3.50903,2.10706,0,0,0,0,0,0,0,-1,1147,1653,-3.509,-2.10707
-70,-629,-1.20886,2.52502,0,0,0,0,0,0,0,-1,1154,1653,-1.20886,-2.525
-63,-629,-0.960693,4.30212,0,0,0,0,0,0,0,-1,1161,1653,-0.960691,-4.30215
-56,-629,-1.31934,5.64343,0,0,0,0,0,0,0,-1,1168,1653,-1.31928,-5.6434
-49,-629,-2.15662,2.57458,0,0,0,0,0,0,0,-1,1175,1653,-2.15656,-2.57459
-42,-629,-2.46326,3.91467,0,0,0,0,0,0,0,-1,1182,1653,-2.4633,-3.91466
-35,-629,-2.67261,5.24292,0,0,0,0,0,0,0,-1,1189,1653,-2.67257,-5.24298
-28,-629,-0.402954,-0.866577,0,0,0,0,0,0,0,-1,1196,1653,-0.402943,0.866612
-21,-629,3.45508,27.0596,0,0,0,0,0,0,0,-1,1203,1653,3.45508,-27.0596
-14,-629,6.39856,34.7141,0,0,0,0,0,0,0,-1,1210,1653,6.39855,-34.7141
-7,-629,7.27307,36.6951,0,0,0,0,0,0,0,-1,1217,1653,7.27302,-36.695
0,-629,6.53174,37.8445,0.0161865,0.126168,0.0710755,0.161042,-0.0186877,1.11465,0.114102,0.0490659,1224,1653,6.53177,-37.8445
7,-629,6.47705,39.2869,0.0172559,0.162257,0.0613178,0.18471,-0.00519721,1.21978,0.124908,0.0461106,1231,1653,6.47703,-39.2869
14,-629,6.34106,40.5996,0.014249,0.185182,0.0482871,0.197879,0.00155146,1.31366,0.131405,0.0444261,1238,1653,6.34102,-40.5997
21,-629,6.22449,41.9032,0.00770494,0.196837,0.032403,0.202234,0.00230752,1.40574,0.13406,0.0465354,1245,1653,6.22448,-41.9032
28,-629,6.37817,43.1198,-0.00166466,0.19923,0.0154741,0.200414,-0.00284957,1.49437,0.13457,0.0470742,1252,1653,6.37812,-43.1198
35,-629,6.40173,44.4155,-0.0123568,0.194327,-0.00165784,0.19434,-0.0123701,-1.56278,0.133874,0.0464695,1259,1653,6.40179,-44.4155
42,-629,6.38867,45.7441,0,0,0,0,0,0,0,-1,1266,1653,6.38867,-45.7441
49,-629,4.39673,38.0081,0,0,0,0,0,0,0,-1,1273,1653,4.3967,-38.008
56,-629,4.02332,40.189,0,0,0,0,0,0,0,-1,1280,1653,4.02333,-40.189
63,-629,3.48157,40.0126,-0.0558708,0.139076,-0.0638845,0.158146,-0.0749404,-1.28071,0.137401,0.0474327,1287,1653,3.48159,-40.0126
70,-629,2.96912,39.8828,-0.0648011,0.117871,-0.0766844,0.145794,-0.0927243,-1.22159,0.13884,0.0446193,1294,1653,2.96914,-39.8828
77,-629,2.36841,39.7593,-0.0721701,0.100302,-0.0859608,0.135827,-0.107696,-1.1789,0.14091,0.0447154,1301,1653,2.36835,-39.7593
84,-629,1.92432,39.6873,-0.0767543,0.0844314,-0.0912473,0.125581,-0.117904,-1.14714,0.1406,0.0441487,1308,1653,1.92431,-39.6873
91,-629,1.4469,39.2916,-0.0773078,0.0715625,-0.0965259,0.11902,-0.124765,-1.11385,0.140763,0.0461578,1315,1653,1.44692,-39.2916
98,-629,0.942627,38.8911,-0.0721458,0.0719672,-0.0953132,0.119396,-0.119575,-1.10906,0.13797,0.0494627,1322,1653,0.942577,-38.8911
105,-629,0.439819,38.6947,0,0,0,0,0,0,0,-1,1329,1653,0.43979,-38.6947
112,-629,9.14673,37.5078,0,0,0,0,0,0,0,-1,1336,1653,9.14673,-37.5078
119,-629,8.79944,36.569,0,0,0,0,0,0,0,-1,1343,1653,8.79944,-36.5689
126,-629,8.70886,35.4353,0,0,0,0,0,0,0,-1,1350,1653,8.70892,-35.4353
133,-629,-0.908813,39.876,0,0,0,0,0,0,0,-1,1357,1653,-0.908766,-39.8759
140,-629,-1.25037,39.3657,0,0,0,0,0,0,0,-1,1364,1653,-1.25034,-39.3657
147,-629,-1.099,39.7644,0,0,0,0,0,0,0,-1,1371,1653,-1.09899,-39.7644
154,-629,10.6113,33.5126,0,0,0,0,0,0,0,-1,1378,1653,10.6113,-33.5126
161,-629,10.5461,6.83752,0,0,0,0,0,0,0,-1,1385,1653,10.5461,-6.83758
168,-629,12.0059,5.56348,0,0,0,0,0,0,0,-1,1392,1653,12.0059,-5.56352
175,-629,5.84485,-1.78845,0,0,0,0,0,0,0,-1,1399,1653,5.84479,1.7884
182,-629,5.99036,-1.27783,0,0,0,0,0,0,0,-1,1406,1653,5.99041,1.27778
189,-629,5.97668,-0.748535,0,0,0,0,0,0,0,-1,1413,1653,5.97671,0.748544
196,-629,4.52869,9.24695,0,0,0,0,0,0,0,-1,1420,1653,4.52869,-9.2469
203,-629,3.75085,6.88037,0,0,0,0,0,0,0,-1,1427,1653,3.75087,-6.88032
210,-629,3.5907,6.52637,0,0,0,0,0,0,0,-1,1434,1653,3.59067,-6.52642
217,-629,2.4585,4.84448,0,0,0,0,0,0,0,-1,1441,1653,2.45855,-4.84448
224,-629,1.31982,3.68481,0,0,0,0,0,0,0,-1,1448,1653,1.31986,-3.68487
231,-629,3.63025,1.73499,0,0,0,0,0,0,0,-1,1455,1653,3.6303,-1.735
238,-629,4.26428,2.11255,0,0,0,0,0,0,0,-1,1462,1653,4.26429,-2.11253
245,-629,5.61816,1.95361,0,0,0,0,0,0,0,-1,1469,1653,5.61815,-1.95359
252,-629,7.27136,2.18982,0,0,0,0,0,0,0,-1,1476,1653,7.27131,-2.18985
259,-629,8.67334,2.18628,0,0,0,0,0,0,0,-1,1483,1653,8.6733,-2.18633
266,-629,6.86475,3.72058,0,0,0,0,0,0,0,-1,1490,1653,6.86479,-3.72063
273,-629,7.9021,3.8717,0,0,0,0,0,0,0,-1,1497,1653,7.90205,-3.87171
280,-629,9.70837,4.39087,0,0,0,0,0,0,0,-1,1504,1653,9.7084,-4.39082
287,-629,9.82947,7.19348,0,0,0,0,0,0,0,-1,1511,1653,9.8295,-7.19347
294,-629,6.56555,11.6359,0,0,0,0,0,0,0,-1,1518,1653,6.5656,-11.6358
301,-629,6.93835,15.6102,0,0,0,0,0,0,0,-1,1525,1653,6.93835,-15.6103
308,-629,6.08264,12.1423,0,0,0,0,0,0,0,-1,1532,1653,6.08263,-12.1423
315,-629,6.82043,18.2764,0,0,0,0,0,0,0,-1,1539,1653,6.82049,-18.2764
322,-629,10.3922,29.9829,0,0,0,0,0,0,0,-1,1546,1653,10.3922,-29.9829
329,-629,10.9738,30.8184,0,0,0,0,0,0,0,-1,1553,1653,10.9738,-30.8183
336,-629,10.9287,30.2296,0,0,0,0,0,0,0,-1,1560,1653,10.9288,-30.2296
343,-629,10.6404,30.0769,0.00624244,0.0105988,-0.00326832,0.0123482,0.00449298,-1.07932,0.00721682,0.0481373,1567,1653,10.6404,-30.0769
350,-629,10.8624,29.6641,0.00589476,0.0100886,-0.00302295,0.0116707,0.00431265,-1.08863,0.00681412,0.0298681,1574,1653,10.8624,-29.6641
357,-629,10.9294,29.2498,0.00523598,0.00963641,-0.00260022,0.0108424,0.00403001,-1.13653,0.00632818,0.0172567,1581,1653,10.9294,-29.2497
364,-629,10.9009,28.9156,0.00442307,0.00885,-0.00219355,0.0097528,0.00352027,-1.18036,0.0057029,0.0140741,1588,1653,10.9009,-28.9156
371,-629,10.8895,28.6063,0.00365615,0.00777419,-0.00172214,0.00839944,0.00303089,-1.22253,0.00491162,0.0110152,1595,1653,10.8896,-28.6063
378,-629,10.8911,28.287,0.00303043,0.00668862,-0.00138587,0.00715435,0.0025647,-1.2466,0.00418535,0.0102443,1602,1653,10.8911,-28.287
385,-629,10.8917,27.9683,0.00259089,0.00539185,-0.00113771,0.00579574,0.002187,-1.22968,0.00337956,0.0120159,1609,1653,10.8917,-27.9682
392,-629,10.8888,27.6427,0.00218759,0.0041412,-0.000901513,0.00449364,0.00183515,-1.19813,0.00260888,0.0110006,1616,1653,10.8888,-27.6427
399,-629,10.8966,27.2942,0.00166078,0.00281836,-0.000561917,0.00304626,0.00143288,-1.18549,0.00175979,0.0111979,1623,1653,10.8966,-27.2941
406,-629,10.8998,26.9554,0.0012245,0.00169814,-0.000357214,0.00188991,0.00103273,-1.07812,0.00109271,0.0133956,1630,1653,10.8998,-26.9554
413,-629,10.8926,26.6106,0.000900045,0.000813385,-0.000241506,0.00110208,0.000611353,-0.696635,0.000637554,0.0217953,1637,1653,10.8926,-26.6106
420,-629,10.8732,26.2893,0.000656751,2.92306e-06,-0.000166353,0.000696642,-3.69682e-05,-0.235355,0.000477229,0.0214108,1644,1653,10.8731,-26.2893
427,-629,10.9017,25.9415,0.000532483,-0.00054168,-0.000291038,0.000606269,-0.000615467,-0.248297,0.000705376,0.0134339,1651,1653,10.9017,-25.9415
434,-629,10.8801,25.5856,0.000412174,-0.00104711,-0.000401106,0.000515157,-0.0011501,-0.251317,0.000984454,0.0112253,1658,1653,10.8801,-25.5856
441,-629,10.8523,25.2285,0.000376464,-0.00138776,-0.000575363,0.000547521,-0.00155882,-0.28898,0.00126195,0.015408,1665,1653,10.8523,-25.2285
448,-629,10.8497,24.8501,0.000400304,-0.00172216,-0.000754718,0.000641305,-0.00196316,-0.309092,0.00156692,0.0148334,1672,1653,10.8497,-24.8501
455,-629,10.8412,24.448,0.000441899,-0.00192691,-0.000975679,0.000792019,-0.00227703,-0.344535,0.00183976,0.0146554,1679,1653,10.8411,-24.448
462,-629,10.8547,24.1074,0.000348478,-0.00208349,-0.00106057,0.000746006,-0.00248102,-0.358618,0.00195082,0.0182916,1686,1653,10.8548,-24.1074
469,-629,10.8214,23.7303,0.000270446,-0.00222518,-0.00116027,0.000726526,-0.00268126,-0.374529,0.00207258,0.020288,1693,1653,10.8215,-23.7303
476,-629,10.9012,23.4396,4.9982e-05,-0.00247258,-0.00114468,0.000491967,-0.00291457,-0.368486,0.00212609,0.0314929,1700,1653,10.9012,-23.4396
483,-629,10.729,22.7208,0,0,0,0,0,0,0,-1,1707,1653,10.729,-22.7208
490,-629,10.5817,21.9137,0,0,0,0,0,0,0,-1,1714,1653,10.5816,-21.9137
497,-629,10.3662,19.8605,0,0,0,0,0,0,0,-1,1721,1653,10.3662,-19.8605
504,-629,7.89453,15.5316,0,0,0,0,0,0,0,-1,1728,1653,7.89447,-15.5316
511,-629,6.29138,3.40295,0,0,0,0,0,0,0,-1,1735,1653,6.29137,-3.403
518,-629,5.84387,1.41858,0,0,0,0,0,0,0,-1,1742,1653,5.84391,-1.4186
525,-629,6.4729,1.02319,0,0,0,0,0,0,0,-1,1749,1653,6.47284,-1.02316
532,-629,6.86511,0.903687,0,0,0,0,0,0,0,-1,1756,1653,6.86514,-0.903691
539,-629,6.60803,0.746704,0,0,0,0,0,0,0,-1,1763,1653,6.60809,-0.746691
546,-629,0,0,0,0,0,0,0,0,0,-1,1770,1653,0,0
553,-629,0,0,0,0,0,0,0,0,0,-1,1777,1653,0,0
560,-629,0,0,0,0,0,0,0,0,0,-1,1784,1653,0,0
567,-629,0,0,0,0,0,0,0,0,0,-1,1791,1653,0,0
574,-629,0,0,0,0,0,0,0,0,0,-1,1798,1653,0,0
581,-629,0,0,0,0,0,0,0,0,0,-1,1805,1653,0,0
588,-629,0,0,0,0,0,0,0,0,0,-1,1812,1653,0,0
595,-629,0,0,0,0,0,0,0,0,0,-1,1819,1653,0,0
602,-629,0,0,0,0,0,0,0,0,0,-1,1826,1653,0,0
609,-629,0,0,0,0,0,0,0,0,0,-1,1833,1653,0,0
616,-629,0,0,0,0,0,0,0,0,0,-1,1840,1653,0,0
623,-629,0,0,0,0,0,0,0,0,0,-1,1847,1653,0,0
630,-629,0,0,0,0,0,0,0,0,0,-1,1854,1653,0,0
637,-629,0,0,0,0,0,0,0,0,0,-1,1861,1653,0,0
644,-629,0,0,0,0,0,0,0,0,0,-1,1868,1653,0,0
651,-629,0,0,0,0,0,0,0,0,0,-1,1875,1653,0,0
658,-629,0,0,0,0,0,0,0,0,0,-1,1882,1653,0,0
665,-629,0,0,0,0,0,0,0,0,0,-1,1889,1653,0,0
672,-629,0,0,0,0,0,0,0,0,0,-1,1896,1653,0,0
679,-629,0,0,0,0,0,0,0,0,0,-1,1903,1653,0,0
686,-629,0,0,0,0,0,0,0,0,0,-1,1910,1653,0,0
693,-629,0,0,0,0,0,0,0,0,0,-1,1917,1653,0,0
700,-629,0,0,0,0,0,0,0,0,0,-1,1924,1653,0,0
707,-629,0,0,0,0,0,0,0,0,0,-1,1931,1653,0,0
714,-629,0,0,0,0,0,0,0,0,0,-1,1938,1653,0,0
721,-629,0,0,0,0,0,0,0,0,0,-1,1945,1653,0,0
728,-629,0,0,0,0,0,0,0,0,0,-1,1952,1653,0,0
735,-629,0,0,0,0,0,0,0,0,0,-1,1959,1653,0,0
742,-629,0,0,0,0,0,0,0,0,0,-1,1966,1653,0,0
749,-629,0,0,0,0,0,0,0,0,0,-1,1973,1653,0,0
756,-629,0,0,0,0,0,0,0,0,0,-1,1980,1653,0,0
763,-629,0,0,0,0,0,0,0,0,0,-1,1987,1653,0,0
770,-629,0,0,0,0,0,0,0,0,0,-1,1994,1653,0,0
777,-629,0,0,0,0,0,0,0,0,0,-1,2001,1653,0,0
784,-629,0,0,0,0,0,0,0,0,0,-1,2008,1653,0,0
791,-629,0,0,0,0,0,0,0,0,0,-1,2015,1653,0,0
798,-629,0,0,0,0,0,0,0,0,0,-1,2022,1653,0,0
805,-629,0,0,0,0,0,0,0,0,0,-1,2029,1653,0,0
812,-629,0,0,0,0,0,0,0,0,0,-1,2036,1653,0,0
-700,-636,0,0,0,0,0,0,0,0,0,-1,524,1660,0,0
-693,-636,0,0,0,0,0,0,0,0,0,-1,531,1660,0,0
-686,-636,0,0,0,0,0,0,0,0,0,-1,538,1660,0,0
-679,-636,0,0,0,0,0,0,0,0,0,-1,545,1660,0,0
-672,-636,0,0,0,0,0,0,0,0,0,-1,552,1660,0,0
-665,-636,0,0,0,0,0,0,0,0,0,-1,559,1660,0,0
-658,-636,0,0,0,0,0,0,0,0,0,-1,566,1660,0,0
-651,-636,0,0,0,0,0,0,0,0,0,-1,573,1660,0,0
-644,-636,0,0,0,0,0,0,0,0,0,-1,580,1660,0,0
-637,-636,0,0,0,0,0,0,0,0,0,-1,587,1660,0,0
-630,-636,0,0,0,0,0,0,0,0,0,-1,594,1660,0,0
-623,-636,0,0,0,0,0,0,0,0,0,-1,601,1660,0,0
-616,-636,0,0,0,0,0,0,0,0,0,-1,608,1660,0,0
-609,-636,0,0,0,0,0,0,0,0,0,-1,615,1660,0,0
-602,-636,0,0,0,0,0,0,0,0,0,-1,622,1660,0,0
-595,-636,0,0,0,0,0,0,0,0,0,-1,629,1660,0,0
-588,-636,0,0,0,0,0,0,0,0,0,-1,636,1660,0,0
-581,-636,0,0,0,0,0,0,0,0,0,-1,643,1660,0,0
-574,-636,0,0,0,0,0,0,0,0,0,-1,650,1660,0,0
-567,-636,0,0,0,0,0,0,0,0,0,-1,657,1660,0,0
-560,-636,0,0,0,0,0,0,0,0,0,-1,664,1660,0,0
-553,-636,0,0,0,0,0,0,0,0,0,-1,671,1660,0,0
-546,-636,0,0,0,0,0,0,0,0,0,-1,678,1660,0,0
-539,-636,0,0,0,0,0,0,0,0,0,-1,685,1660,0,0
-532,-636,0,0,0,0,0,0,0,0,0,-1,692,1660,0,0
-525,-636,0,0,0,0,0,0,0,0,0,-1,699,1660,0,0
-518,-636,0,0,0,0,0,0,0,0,0,-1,706,1660,0,0
-511,-636,0,0,0,0,0,0,0,0,0,-1,713,1660,0,0
-504,-636,0,0,0,0,0,0,0,0,0,-1,720,1660,0,0
-497,-636,0,0,0,0,0,0,0,0,0,-1,727,1660,0,0
-490,-636,0,0,0,0,0,0,0,0,0,-1,734,1660,0,0
-483,-636,0,0,0,0,0,0,0,0,0,-1,741,1660,0,0
-476,-636,0,0,0,0,0,0,0,0,0,-1,748,1660,0,0
-469,-636,0,0,0,0,0,0,0,0,0,-1,755,1660,0,0
-462,-636,0,0,0,0,0,0,0,0,0,-1,762,1660,0,0
-455,-636,0,0,0,0,0,0,0,0,0,-1,769,1660,0,0
-448,-636,0,0,0,0,0,0,0,0,0,-1,776,1660,0,0
-441,-636,0,0,0,0,0,0,0,0,0,-1,783,1660,0,0
-434,-636,0,0,0,0,0,0,0,0,0,-1,790,1660,0,0
-427,-636,0,0,0,0,0,0,0,0,0,-1,797,1660,0,0
-420,-636,0,0,0,0,0,0,0,0,0,-1,804,1660,0,0
-413,-636,0,0,0,0,0,0,0,0,0,-1,811,1660,0,0
-406,-636,-0.591125,10.6943,0,0,0,0,0,0,0,-1,818,1660,-0.59115,-10.6943
-399,-636,0.0766602,11.2408,0,0,0,0,0,0,0,-1,825,1660,0.076685,-11.2409
-392,-636,0.75946,11.9233,0,0,0,0,0,0,0,-1,832,1660,0.759481,-11.9233
-385,-636,1.68878,12.517,0,0,0,0,0,0,0,-1,839,1660,1.6888,-12.5169
-378,-636,2.22107,13.0013,0,0,0,0,0,0,0,-1,846,1660,2.22107,-13.0014
-371,-636,2.52185,11.9684,0,0,0,0,0,0,0,-1,853,1660,2.52184,-11.9684
-364,-636,4.51947,14.8503,0,0,0,0,0,0,0,-1,860,1660,4.51949,-14.8504
-357,-636,4.55682,15.8809,0,0,0,0,0,0,0,-1,867,1660,4.55681,-15.8808
-350,-636,2.63104,14.4946,0,0,0,0,0,0,0,-1,874,1660,2.63102,-14.4946
-343,-636,4.23047,22.5491,0,0,0,0,0,0,0,-1,881,1660,4.23047,-22.549
-336,-636,4.21295,22.902,-0.00721158,-0.00202407,-0.00123233,-0.00174621,-0.00748944,-1.34903,0.00452464,0.0334465,888,1660,4.21298,-22.9019
-329,-636,4.23999,23.2946,-0.00601025,-0.00200607,-0.00109022,-0.00172848,-0.00628784,-1.32148,0.00375092,0.0199813,895,1660,4.24001,-23.2946
-322,-636,4.21912,23.6956,-0.00493253,-0.00163296,-0.00084747,-0.00142802,-0.00513747,-1.33353,0.00306206,0.0119712,902,1660,4.21913,-23.6955
-315,-636,4.16278,24.0798,-0.00397956,-0.00142791,-0.000577579,-0.00130326,-0.00410421,-1.35824,0.00242158,0.0125025,909,1660,4.16277,-24.0799
-308,-636,4.14984,24.4781,-0.0031003,-0.00104488,-0.000348209,-0.000987492,-0.00315769,-1.40746,0.00186523,0.0118514,916,1660,4.14986,-24.4782
-301,-636,4.15546,24.8804,-0.00227449,-0.000697722,-0.000115508,-0.000689305,-0.00228291,-1.49806,0.00135207,0.0115146,923,1660,4.15547,-24.8804
-294,-636,4.13452,25.2769,-0.00147392,-0.000269612,0.000147831,-0.000251731,-0.0014918,1.45043,0.000922147,0.0147886,930,1660,4.1345,-25.2769
-287,-636,4.13177,25.6354,-0.000752166,0.000228527,0.000379518,0.00035824,-0.000881879,1.24146,0.000736952,0.0126621,937,1660,4.13176,-25.6353
-280,-636,4.13794,25.9865,-0.000127824,0.000739757,0.000594668,0.00104204,-0.000430107,1.10051,0.000874078,0.0114649,944,1660,4.13793,-25.9865
-273,-636,4.12073,26.347,0.000448405,0.00124109,0.000833889,0.00176804,-7.8539e-05,1.00724,0.00120572,0.0116461,951,1660,4.1207,-26.3471
-266,-636,4.11194,26.7292,0.00109382,0.00178748,0.00110473,0.00259854,0.000282756,0.937501,0.00164622,0.0132231,958,1660,4.11192,-26.7293
-259,-636,4.12335,27.125,0.00160321,0.00224011,0.00124913,0.00321074,0.000632573,0.910207,0.0019639,0.0146699,965,1660,4.12335,-27.125
-252,-636,4.10791,27.472,0.0020313,0.0027594,0.00134103,0.00378492,0.00100579,0.917938,0.00226376,0.0112583,972,1660,4.1079,-27.4721
-245,-636,4.10175,27.8235,0.00249716,0.00322208,0.00146011,0.00436404,0.00135519,0.90706,0.00257917,0.00977068,979,1660,4.10176,-27.8235
-238,-636,4.11438,28.1714,0.00300912,0.00355718,0.00151692,0.00482463,0.00174168,0.874759,0.00282115,0.0110971,986,1660,4.11441,-28.1714
-231,-636,4.12433,28.5182,0.00354158,0.00368214,0.00162164,0.00523502,0.0019887,0.807054,0.00305137,0.0104619,993,1660,4.12435,-28.5182
-224,-636,4.12659,28.8243,0.00399165,0.00403637,0.00164604,0.00566021,0.00236782,0.79219,0.00328242,0.00887483,1000,1660,4.1266,-28.8244
-217,-636,4.11096,29.1838,0.00442513,0.00449683,0.00156835,0.00602974,0.00289223,0.796827,0.00348223,0.0169513,1007,1660,4.11098,-29.1839
-210,-636,4.11383,29.51,0.00503117,0.00406405,0.00103073,0.00568613,0.00340908,0.566069,0.0033045,0.0284548,1014,1660,4.11385,-29.51
-203,-636,4.10449,29.9076,0.00578486,0.00343128,0.000338333,0.00583253,0.00338361,0.139977,0.0033818,0.0338824,1021,1660,4.10451,-29.9076
-196,-636,4.33228,30.1538,0.00631569,0.00299828,-0.000378903,0.00635841,0.00295555,-0.11229,0.00367406,0.0349541,1028,1660,4.33233,-30.1539
-189,-636,4.33191,30.3992,0.00672542,0.00212947,-0.00155728,0.00720338,0.00165151,-0.297792,0.00435735,0.0325788,1035,1660,4.33191,-30.3991
-182,-636,4.43677,30.6149,0.00757921,0.00137122,-0.00251432,0.00846979,0.000480643,-0.340413,0.00549332,0.0467142,1042,1660,4.43674,-30.6148
-175,-636,4.4812,30.7527,0,0,0,0,0,0,0,-1,1049,1660,4.48118,-30.7527
-168,-636,4.01172,30.9697,0,0,0,0,0,0,0,-1,1056,1660,4.01177,-30.9697
-161,-636,4.09448,31.163,0.0104557,0.00129454,-0.00512588,0.0127494,-0.000999212,-0.42076,0.0088515,0.0450757,1063,1660,4.09444,-31.163
-154,-636,4.22021,31.3291,0.0117375,0.00228644,-0.00582161,0.0145101,-0.000486146,-0.444474,0.00983944,0.0480452,1070,1660,4.22023,-31.3291
-147,-636,4.32129,31.4845,0,0,0,0,0,0,0,-1,1077,1660,4.32127,-31.4845
-140,-636,3.4729,27.1271,0,0,0,0,0,0,0,-1,1084,1660,3.47287,-27.1271
-133,-636,4.68311,18.0922,0,0,0,0,0,0,0,-1,1091,1660,4.68316,-18.0921
-126,-636,3.79028,18.2225,0,0,0,0,0,0,0,-1,1098,1660,3.79025,-18.2226
-119,-636,1.8667,13.8916,0,0,0,0,0,0,0,-1,1105,1660,1.86668,-13.8916
-112,-636,-1.24963,9.7998,0,0,0,0,0,0,0,-1,1112,1660,-1.24968,-9.79978
-105,-636,3.51624,4.72791,0,0,0,0,0,0,0,-1,1119,1660,3.51618,-4.7279
-98,-636,1.54504,5.11914,0,0,0,0,0,0,0,-1,1126,1660,1.54503,-5.11912
-91,-636,-1.87964,-2.25012,0,0,0,0,0,0,0,-1,1133,1660,-1.87966,2.25016
-84,-636,-2.84143,0.133667,0,0,0,0,0,0,0,-1,1140,1660,-2.84144,-0.133701
-77,-636,-3.57349,2.45935,0,0,0,0,0,0,0,-1,1147,1660,-3.57345,-2.45939
-70,-636,-4.23682,4.82312,0,0,0,0,0,0,0,-1,1154,1660,-4.23681,-4.82307
-63,-636,-2.21033,6.97168,0,0,0,0,0,0,0,-1,1161,1660,-2.21034,-6.97165
-56,-636,-2.51917,8.80359,0,0,0,0,0,0,0,-1,1168,1660,-2.51916,-8.80361
-49,-636,-3.13,10.4113,0,0,0,0,0,0,0,-1,1175,1660,-3.12996,-10.4112
-42,-636,-2.27771,4.90173,0,0,0,0,0,0,0,-1,1182,1660,-2.27775,-4.90173
-35,-636,-2.27698,5.89685,0,0,0,0,0,0,0,-1,1189,1660,-2.27695,-5.89686
-28,-636,-1.70654,4.83936,0,0,0,0,0,0,0,-1,1196,1660,-1.70656,-4.8393
-21,-636,4.24683,27.7834,0,0,0,0,0,0,0,-1,1203,1660,4.24687,-27.7835
-14,-636,7.86108,34.8347,0,0,0,0,0,0,0,-1,1210,1660,7.86109,-34.8347
-7,-636,7.58716,36.0835,0,0,0,0,0,0,0,-1,1217,1660,7.58718,-36.0834
0,-636,7.30127,37.3163,0.0162849,0.122511,0.0587484,0.148597,-0.00980031,1.15293,0.102488,0.046505,1224,1660,7.30133,-37.3163
7,-636,6.84875,38.6382,0.0169513,0.151688,0.0505184,0.168525,0.00011389,1.24908,0.112312,0.0456723,1231,1660,6.84876,-38.6382
14,-636,6.72534,39.9709,0.0143674,0.170828,0.0394641,0.180219,0.00497695,1.33719,0.118522,0.0445178,1238,1660,6.72539,-39.9709
21,-636,6.75122,41.228,0.00898455,0.1804,0.0261366,0.184296,0.00508793,1.4228,0.121204,0.0446751,1245,1660,6.75116,-41.228
28,-636,6.60852,42.4989,0.00111576,0.181997,0.0119882,0.182788,0.000324674,1.5049,0.121751,0.046162,1252,1660,6.60849,-42.4989
35,-636,6.3269,43.7817,-0.00827267,0.177011,-0.00251841,0.177045,-0.00830691,-1.55721,0.120894,0.0440499,1259,1660,6.32691,-43.7817
42,-636,6.40771,37.6549,0,0,0,0,0,0,0,-1,1266,1660,6.40767,-37.6549
49,-636,5.75818,37.7749,-0.0286919,0.154177,-0.0295703,0.15884,-0.0333546,-1.4144,0.118586,0.0471919,1273,1660,5.75821,-37.775
56,-636,5.38843,38.149,-0.0383876,0.141735,-0.0420197,0.151055,-0.0477078,-1.35252,0.119815,0.0458126,1280,1660,5.38843,-38.149
63,-636,5.37976,39.401,-0.0479943,0.126833,-0.0545701,0.142468,-0.0636294,-1.29176,0.121858,0.046024,1287,1660,5.3798,-39.401
70,-636,4.62537,39.89,-0.0570318,0.107544,-0.0660057,0.130746,-0.0802334,-1.23278,0.122967,0.0446155,1294,1660,4.62542,-39.89
77,-636,3.74963,39.1815,-0.0652875,0.0929758,-0.0744313,0.12248,-0.0947921,-1.1934,0.125781,0.045908,1301,1660,3.74969,-39.1815
84,-636,3.01953,38.7698,-0.0714148,0.0786478,-0.0794378,0.112887,-0.105654,-1.16384,0.126198,0.0440189,1308,1660,3.01957,-38.7698
91,-636,2.57153,38.4904,-0.0737899,0.0680768,-0.0843601,0.107362,-0.113075,-1.13497,0.127284,0.0446206,1315,1660,2.57159,-38.4904
98,-636,2.09583,38.2994,-0.0714265,0.0685468,-0.0845847,0.108345,-0.111225,-1.13102,0.126772,0.0492884,1322,1660,2.0958,-38.2994
105,-636,1.61914,38.2607,-0.0684446,0.0697621,-0.0840862,0.109497,-0.10818,-1.12935,0.125676,0.0494501,1329,1660,1.61908,-38.2608
112,-636,1.14844,38.913,0,0,0,0,0,0,0,-1,1336,1660,1.1485,-38.913
119,-636,0.727539,38.9296,0,0,0,0,0,0,0,-1,1343,1660,0.727573,-38.9295
126,-636,0.30957,39.0037,0,0,0,0,0,0,0,-1,1350,1660,0.309584,-39.0037
133,-636,-0.111206,39.0065,-0.0408952,0.0902302,-0.0691483,0.119956,-0.0706213,-1.16479,0.111252,0.0489397,1357,1660,-0.111263,-39.0065
140,-636,-0.492676,38.735,-0.0311198,0.100336,-0.0611962,0.124414,-0.055198,-1.19594,0.106235,0.0462144,1364,1660,-0.492622,-38.735
147,-636,-0.416138,38.6543,-0.0189286,0.113326,-0.0500935,0.130158,-0.0357602,-1.24665,0.100829,0.045263,1371,1660,-0.41619,-38.6543
154,-636,-0.222412,38.6807,0,0,0,0,0,0,0,-1,1378,1660,-0.222416,-38.6806
161,-636,10.2961,7.13025,0,0,0,0,0,0,0,-1,1385,1660,10.2961,-7.13021
168,-636,11.7659,5.83899,0,0,0,0,0,0,0,-1,1392,1660,11.7658,-5.83899
175,-636,5.94592,-1.72888,0,0,0,0,0,0,0,-1,1399,1660,5.94598,1.72886
182,-636,5.93994,-1.11938,0,0,0,0,0,0,0,-1,1406,1660,5.93998,1.11936
189,-636,5.32544,11.9595,0,0,0,0,0,0,0,-1,1413,1660,5.32542,-11.9595
196,-636,5.3623,9.38025,0,0,0,0,0,0,0,-1,1420,1660,5.36225,-9.38027
203,-636,5.18542,9.02429,0,0,0,0,0,0,0,-1,1427,1660,5.18547,-9.0243
210,-636,4.09167,7.17041,0,0,0,0,0,0,0,-1,1434,1660,4.09173,-7.17041
217,-636,2.94897,5.28992,0,0,0,0,0,0,0,-1,1441,1660,2.94899,-5.28991
224,-636,1.49194,3.63916,0,0,0,0,0,0,0,-1,1448,1660,1.49197,-3.63918
231,-636,0.17749,2.24854,0,0,0,0,0,0,0,-1,1455,1660,0.177501,-2.24855
238,-636,-0.764648,1.00598,0,0,0,0,0,0,0,-1,1462,1660,-0.764704,-1.00595
245,-636,6.21204,1.18005,0,0,0,0,0,0,0,-1,1469,1660,6.21206,-1.18001
252,-636,7.70251,0.865723,0,0,0,0,0,0,0,-1,1476,1660,7.7025,-0.865692
259,-636,9.03601,0.787231,0,0,0,0,0,0,0,-1,1483,1660,9.03598,-0.787243
266,-636,10.1071,3.24109,0,0,0,0,0,0,0,-1,1490,1660,10.1071,-3.24103
273,-636,8.48535,5.02466,0,0,0,0,0,0,0,-1,1497,1660,8.48533,-5.02472
280,-636,11.908,32.0698,0,0,0,0,0,0,0,-1,1504,1660,11.9079,-32.0698
287,-636,6.08606,11.49,0,0,0,0,0,0,0,-1,1511,1660,6.08606,-11.49
294,-636,6.69592,15.9669,0,0,0,0,0,0,0,-1,1518,1660,6.69595,-15.9669
301,-636,8.25903,23.0582,0,0,0,0,0,0,0,-1,1525,1660,8.25903,-23.0583
308,-636,10.1711,31.7991,0,0,0,0,0,0,0,-1,1532,1660,10.1712,-31.7991
315,-636,10.2887,31.4,0,0,0,0,0,0,0,-1,1539,1660,10.2887,-31.4
322,-636,10.6434,30.8921,0,0,0,0,0,0,0,-1,1546,1660,10.6435,-30.8921
329,-636,10.5962,30.4486,0.00583537,0.00738199,-0.00227179,0.00900848,0.00420888,-0.949445,0.00520477,0.0374193,1553,1660,10.5962,-30.4486
336,-636,10.5599,30.1145,0.00537286,0.0075998,-0.002136,0.00889512,0.00407753,-1.02566,0.00514152,0.0254295,1560,1660,10.56,-30.1145
343,-636,10.5242,29.9087,0.00487861,0.00744198,-0.00208615,0.00860871,0.00371187,-1.06086,0.00498591,0.0217272,1567,1660,10.5242,-29.9087
350,-636,10.516,29.5697,0.00455659,0.00710949,-0.00198788,0.00819546,0.00347062,-1.0708,0.00475008,0.0128685,1574,1660,10.516,-29.5697
357,-636,10.5546,29.2247,0.00401765,0.00681095,-0.00176314,0.00766358,0.00316501,-1.12036,0.00444685,0.0111827,1581,1660,10.5545,-29.2247
364,-636,10.5657,28.921,0.00337405,0.00621095,-0.00153236,0.00688059,0.00270441,-1.15881,0.00400269,0.0113594,1588,1660,10.5657,-28.921
371,-636,10.58,28.6173,0.00274055,0.00532805,-0.00120768,0.00580413,0.00226447,-1.19529,0.00337787,0.00956933,1595,1660,10.58,-28.6173
378,-636,10.5864,28.2938,0.00225551,0.00441484,-0.000993017,0.00480206,0.00186829,-1.19899,0.00279513,0.00939182,1602,1660,10.5864,-28.2938
385,-636,10.5913,27.9641,0.00193175,0.00326836,-0.00083127,0.00366666,0.00153346,-1.12397,0.00212636,0.0140426,1609,1660,10.5914,-27.9641
392,-636,10.576,27.6331,0.00160673,0.00210564,-0.000645321,0.00254804,0.00116433,-0.969833,0.00147293,0.0162778,1616,1660,10.576,-27.633
399,-636,10.5599,27.2999,0.00116017,0.000867382,-0.000380984,0.00142192,0.000605634,-0.60197,0.000823942,0.0128237,1623,1660,10.56,-27.3
406,-636,10.5752,26.9897,0.0007868,-0.000196906,-0.000207723,0.000828865,-0.000238971,-0.199803,0.000647113,0.0134862,1630,1660,10.5752,-26.9898
413,-636,10.587,26.6323,0.000523914,-0.000994848,-0.000112399,0.000532187,-0.00100312,-0.0734737,0.000900203,0.0208943,1637,1660,10.587,-26.6323
420,-636,10.5623,26.2767,0.000340509,-0.00166851,-7.76934e-05,0.00034351,-0.00167151,-0.0385955,0.00124474,0.0220908,1644,1660,10.5622,-26.2767
427,-636,10.5424,25.9596,0.000280285,-0.00211202,-0.000242716,0.000304662,-0.0021364,-0.100098,0.00153592,0.0132334,1651,1660,10.5424,-25.9596
434,-636,10.5233,25.6005,0.000197092,-0.00245477,-0.000390977,0.000253535,-0.00251121,-0.143372,0.00176473,0.0115941,1658,1660,10.5233,-25.6005
441,-636,10.514,25.2266,0.000202174,-0.00263311,-0.000611189,0.000328313,-0.00275925,-0.203526,0.00195813,0.0120696,1665,1660,10.514,-25.2266
448,-636,10.5431,24.8851,0.000286723,-0.00280422,-0.00085737,0.000508612,-0.00302611,-0.253246,0.00220657,0.0147911,1672,1660,10.5431,-24.8851
455,-636,10.4878,24.5209,0.000445802,-0.00276725,-0.00115859,0.000819996,-0.00314145,-0.312398,0.0024145,0.0167609,1679,1660,10.4878,-24.5208
462,-636,10.4844,24.1383,0.000505469,-0.00262209,-0.00134455,0.00100402,-0.00312064,-0.355081,0.0024837,0.0215829,1686,1660,10.4844,-24.1383
469,-636,10.4558,23.7356,0.00058746,-0.00248154,-0.00156688,0.00124609,-0.00314017,-0.397919,0.00260992,0.0297033,1693,1660,10.4558,-23.7356
476,-636,10.4836,23.3351,0.000560735,-0.00257561,-0.00166361,0.00127878,-0.00329365,-0.407461,0.00272399,0.0460858,1700,1660,10.4836,-23.3351
483,-636,10.5769,22.934,0,0,0,0,0,0,0,-1,1707,1660,10.577,-22.934
490,-636,11.0208,21.9213,0,0,0,0,0,0,0,-1,1714,1660,11.0208,-21.9213
497,-636,9.55579,18.0111,0,0,0,0,0,0,0,-1,1721,1660,9.55574,-18.0111
504,-636,6.26428,19.4268,0,0,0,0,0,0,0,-1,1728,1660,6.26433,-19.4268
511,-636,5.65466,9.23218,0,0,0,0,0,0,0,-1,1735,1660,5.65461,-9.23216
518,-636,6.72791,1.07605,0,0,0,0,0,0,0,-1,1742,1660,6.7279,-1.0761
525,-636,7.04309,0.93335,0,0,0,0,0,0,0,-1,1749,1660,7.04308,-0.933298
532,-636,0,0,0,0,0,0,0,0,0,-1,1756,1660,0,0
539,-636,0,0,0,0,0,0,0,0,0,-1,1763,1660,0,0
546,-636,0,0,0,0,0,0,0,0,0,-1,1770,1660,0,0
553,-636,0,0,0,0,0,0,0,0,0,-1,1777,1660,0,0
560,-636,0,0,0,0,0,0,0,0,0,-1,1784,1660,0,0
567,-636,0,0,0,0,0,0,0,0,0,-1,1791,1660,0,0
574,-636,0,0,0,0,0,0,0,0,0,-1,1798,1660,0,0
581,-636,0,0,0,0,0,0,0,0,0,-1,1805,1660,0,0
588,-636,0,0,0,0,0,0,0,0,0,-1,1812,1660,0,0
595,-636,0,0,0,0,0,0,0,0,0,-1,1819,1660,0,0
602,-636,0,0,0,0,0,0,0,0,0,-1,1826,1660,0,0
609,-636,0,0,0,0,0,0,0,0,0,-1,1833,1660,0,0
616,-636,0,0,0,0,0,0,0,0,0,-1,1840,1660,0,0
623,-636,0,0,0,0,0,0,0,0,0,-1,1847,1660,0,0
630,-636,0,0,0,0,0,0,0,0,0,-1,1854,1660,0,0
637,-636,0,0,0,0,0,0,0,0,0,-1,1861,1660,0,0
644,-636,0,0,0,0,0,0,0,0,0,-1,1868,1660,0,0
651,-636,0,0,0,0,0,0,0,0,0,-1,1875,1660,0,0
658,-636,0,0,0,0,0,0,0,0,0,-1,1882,1660,0,0
665,-636,0,0,0,0,0,0,0,0,0,-1,1889,1660,0,0
672,-636,0,0,0,0,0,0,0,0,0,-1,1896,1660,0,0
679,-636,0,0,0,0,0,0,0,0,0,-1,1903,1660,0,0
686,-636,0,0,0,0,0,0,0,0,0,-1,1910,1660,0,0
693,-636,0,0,0,0,0,0,0,0,0,-1,1917,1660,0,0
700,-636,0,0,0,0,0,0,0,0,0,-1,1924,1660,0,0
707,-636,0,0,0,0,0,0,0,0,0,-1,1931,1660,0,0
714,-636,0,0,0,0,0,0,0,0,0,-1,1938,1660,0,0
721,-636,0,0,0,0,0,0,0,0,0,-1,1945,1660,0,0
728,-636,0,0,0,0,0,0,0,0,0,-1,1952,1660,0,0
735,-636,0,0,0,0,0,0,0,0,0,-1,1959,1660,0,0
742,-636,0,0,0,0,0,0,0,0,0,-1,1966,1660,0,0
749,-636,0,0,0,0,0,0,0,0,0,-1,1973,1660,0,0
756,-636,0,0,0,0,0,0,0,0,0,-1,1980,1660,0,0
763,-636,0,0,0,0,0,0,0,0,0,-1,1987,1660,0,0
770,-636,0,0,0,0,0,0,0,0,0,-1,1994,1660,0,0
777,-636,0,0,0,0,0,0,0,0,0,-1,2001,1660,0,0
784,-636,0,0,0,0,0,0,0,0,0,-1,2008,1660,0,0
791,-636,0,0,0,0,0,0,0,0,0,-1,2015,1660,0,0
798,-636,0,0,0,0,0,0,0,0,0,-1,2022,1660,0,0
805,-636,0,0,0,0,0,0,0,0,0,-1,2029,1660,0,0
812,-636,0,0,0,0,0,0,0,0,0,-1,2036,1660,0,0
-700,-643,0,0,0,0,0,0,0,0,0,-1,524,1667,0,0
-693,-643,0,0,0,0,0,0,0,0,0,-1,531,1667,0,0
-686,-643,0,0,0,0,0,0,0,0,0,-1,538,1667,0,0
-679,-643,0,0,0,0,0,0,0,0,0,-1,545,1667,0,0
-672,-643,0,0,0,0,0,0,0,0,0,-1,552,1667,0,0
-665,-643,0,0,0,0,0,0,0,0,0,-1,559,1667,0,0
-658,-643,0,0,0,0,0,0,0,0,0,-1,566,1667,0,0
-651,-643,0,0,0,0,0,0,0,0,0,-1,573,1667,0,0
-644,-643,0,0,0,0,0,0,0,0,0,-1,580,1667,0,0
-637,-643,0,0,0,0,0,0,0,0,0,-1,587,1667,0,0
-630,-643,0,0,0,0,0,0,0,0,0,-1,594,1667,0,0
-623,-643,0,0,0,0,0,0,0,0,0,-1,601,1667,0,0
-616,-643,0,0,0,0,0,0,0,0,0,-1,608,1667,0,0
-609,-643,0,0,0,0,0,0,0,0,0,-1,615,1667,0,0
-602,-643,0,0,0,0,0,0,0,0,0,-1,622,1667,0,0
-595,-643,0,0,0,0,0,0,0,0,0,-1,629,1667,0,0
-588,-643,0,0,0,0,0,0,0,0,0,-1,636,1667,0,0
-581,-643,0,0,0,0,0,0,0,0,0,-1,643,1667,0,0
-574,-643,0,0,0,0,0,0,0,0,0,-1,650,1667,0,0
-567,-643,0,0,0,0,0,0,0,0,0,-1,657,1667,0,0
-560,-643,0,0,0,0,0,0,0,0,0,-1,664,1667,0,0
-553,-643,0,0,0,0,0,0,0,0,0,-1,671,1667,0,0
-546,-643,0,0,0,0,0,0,0,0,0,-1,678,1667,0,0
-539,-643,0,0,0,0,0,0,0,0,0,-1,685,1667,0,0
-532,-643,0,0,0,0,0,0,0,0,0,-1,692,1667,0,0
-525,-643,0,0,0,0,0,0,0,0,0,-1,699,1667,0,0
-518,-643,0,0,0,0,0,0,0,0,0,-1,706,1667,0,0
-511,-643,0,0,0,0,0,0,0,0,0,-1,713,1667,0,0
-504,-643,0,0,0,0,0,0,0,0,0,-1,720,1667,0,0
-497,-643,0,0,0,0,0,0,0,0,0,-1,727,1667,0,0
-490,-643,0,0,0,0,0,0,0,0,0,-1,734,1667,0,0
-483,-643,0,0,0,0,0,0,0,0,0,-1,741,1667,0,0
-476,-643,0,0,0,0,0,0,0,0,0,-1,748,1667,0,0
-469,-643,0,0,0,0,0,0,0,0,0,-1,755,1667,0,0
-462,-643,0,0,0,0,0,0,0,0,0,-1,762,1667,0,0
-455,-643,0,0,0,0,0,0,0,0,0,-1,769,1667,0,0
-448,-643,0,0,0,0,0,0,0,0,0,-1,776,1667,0,0
-441,-643,0,0,0,0,0,0,0,0,0,-1,783,1667,0,0
-434,-643,0,0,0,0,0,0,0,0,0,-1,790,1667,0,0
-427,-643,0,0,0,0,0,0,0,0,0,-1,797,1667,0,0
-420,-643,0,0,0,0,0,0,0,0,0,-1,804,1667,0,0
-413,-643,0,0,0,0,0,0,0,0,0,-1,811,1667,0,0
-406,-643,0,0,0,0,0,0,0,0,0,-1,818,1667,0,0
-399,-643,0.589417,11.6465,0,0,0,0,0,0,0,-1,825,1667,0.58939,-11.6465
-392,-643,0.865295,12.6523,0,0,0,0,0,0,0,-1,832,1667,0.865315,-12.6523
-385,-643,1.72968,13.2692,0,0,0,0,0,0,0,-1,839,1667,1.72967,-13.2692
-378,-643,2.66522,13.8193,0,0,0,0,0,0,0,-1,846,1667,2.66524,-13.8193
-371,-643,0.466125,3.35095,0,0,0,0,0,0,0,-1,853,1667,0.466148,-3.351
-364,-643,1.69513,9.922,0,0,0,0,0,0,0,-1,860,1667,1.69511,-9.92205
-357,-643,1.14227,10.8429,0,0,0,0,0,0,0,-1,867,1667,1.14228,-10.8429
-350,-643,2.50061,9.96948,0,0,0,0,0,0,0,-1,874,1667,2.50059,-9.96954
-343,-643,2.61505,6.17407,0,0,0,0,0,0,0,-1,881,1667,2.61504,-6.17412
-336,-643,4.57507,22.96,0,0,0,0,0,0,0,-1,888,1667,4.57509,-22.9599
-329,-643,4.67029,23.4116,-0.00830069,-0.00264271,-0.00172067,-0.00216053,-0.00878287,-1.29757,0.0052844,0.0411095,895,1667,4.67031,-23.4116
-322,-643,4.66406,23.7725,-0.00684391,-0.00222068,-0.00132438,-0.00186817,-0.00719641,-1.31066,0.00431196,0.0260132,902,1667,4.66407,-23.7725
-315,-643,4.55676,24.0959,-0.00555634,-0.00205252,-0.000960829,-0.00180633,-0.00580252,-1.31997,0.00342869,0.0171522,909,1667,4.55676,-24.0959
-308,-643,4.52979,24.4613,-0.0044385,-0.00166015,-0.000671719,-0.00150628,-0.00459238,-1.3456,0.0027032,0.013355,916,1667,4.52976,-24.4613
-301,-643,4.52698,24.863,-0.00342557,-0.00133632,-0.000408428,-0.00125932,-0.00350258,-1.38444,0.00204864,0.0143834,923,1667,4.52699,-24.863
-294,-643,4.50623,25.2603,-0.00246494,-0.000951206,-0.000147157,-0.000937033,-0.00247911,-1.47478,0.00144546,0.01263,930,1667,4.50621,-25.2603
-287,-643,4.50598,25.6422,-0.00161095,-0.000509187,7.9654e-05,-0.000503458,-0.00161668,1.499,0.000955264,0.00992169,937,1667,4.506,-25.6422
-280,-643,4.50677,26.0078,-0.000925934,-5.27195e-05,0.000265283,2.1556e-05,-0.00100021,1.2978,0.000674107,0.013032,944,1667,4.50678,-26.0078
-273,-643,4.48566,26.3663,-0.00032086,0.000449992,0.000486578,0.0006853,-0.000556168,1.12036,0.000718053,0.0116357,951,1667,4.48567,-26.3663
-266,-643,4.46075,26.7411,0.000414623,0.000982799,0.000768623,0.00151815,-0.000120733,0.962415,0.00105465,0.0116421,958,1667,4.46076,-26.7411
-259,-643,4.46411,27.1182,0.000926109,0.00136959,0.000864071,0.00203992,0.000255781,0.911,0.00128321,0.0114687,965,1667,4.46411,-27.1181
-252,-643,4.45331,27.4753,0.00128422,0.00183953,0.000912498,0.00251568,0.000608067,0.933088,0.00151565,0.0126272,972,1667,4.45331,-27.4754
-245,-643,4.4483,27.826,0.00168062,0.00225787,0.000994075,0.00300437,0.000934117,0.926687,0.00177544,0.0110971,979,1667,4.44828,-27.826
-238,-643,4.48004,28.1588,0.00211788,0.00256363,0.00103194,0.00339649,0.00128502,0.891754,0.00198022,0.01378,986,1667,4.48007,-28.1589
-231,-643,4.45819,28.5081,0.00258035,0.0026937,0.00110652,0.00374499,0.00152905,0.810985,0.00217426,0.0103908,993,1667,4.45821,-28.5081
-224,-643,4.44098,28.8081,0.00296527,0.00305043,0.00112229,0.00413095,0.00188475,0.804359,0.00238805,0.00870033,1000,1667,4.44095,-28.8081
-217,-643,4.44696,29.0973,0.00330745,0.003415,0.00103903,0.00440164,0.00232081,0.811251,0.00254255,0.00832417,1007,1667,4.44699,-29.0973
-210,-643,4.46521,29.4524,0.00379042,0.00314163,0.000603672,0.00415134,0.00278071,0.53885,0.00244243,0.0116145,1014,1667,4.46522,-29.4523
-203,-643,4.47046,29.8419,0.00441397,0.00267093,6.60837e-05,0.00441647,0.00266843,0.0378406,0.00256824,0.0160037,1021,1667,4.47041,-29.8419
-196,-643,4.4696,30.1541,0.0048563,0.00240491,-0.000436733,0.00493179,0.00232942,-0.171144,0.00284882,0.0163378,1028,1667,4.46961,-30.154
-189,-643,4.57324,30.4073,0.00521041,0.00201332,-0.00118776,0.00560337,0.00162036,-0.31951,0.00332959,0.0155974,1035,1667,4.57321,-30.4074
-182,-643,4.63721,30.7155,0.00588013,0.00176715,-0.00185179,0.006591,0.00105628,-0.366536,0.00408765,0.0226646,1042,1667,4.63715,-30.7155
-175,-643,4.60242,31.1941,0.00672427,0.00190327,-0.00230275,0.00764741,0.000980126,-0.381271,0.004805,0.0324061,1049,1667,4.60236,-31.194
-168,-643,4.65771,31.4336,0.00732585,0.00249597,-0.00288224,0.00867113,0.00115069,-0.436694,0.00543792,0.0352825,1056,1667,4.65773,-31.4336
-161,-643,4.47327,31.2893,0.00830725,0.00307329,-0.00333673,0.00993083,0.00144971,-0.452852,0.00619413,0.039549,1063,1667,4.47328,-31.2893
-154,-643,4.57312,31.4584,0.00936048,0.00456722,-0.00367502,0.0113513,0.00257641,-0.496459,0.00687165,0.0462448,1070,1667,4.57315,-31.4583
-147,-643,4.63904,31.6104,0,0,0,0,0,0,0,-1,1077,1667,4.63901,-31.6103
-140,-643,4.30322,22.9166,0,0,0,0,0,0,0,-1,1084,1667,4.30327,-22.9167
-133,-643,3.66748,21.6034,0,0,0,0,0,0,0,-1,1091,1667,3.66743,-21.6034
-126,-643,3.13904,17.689,0,0,0,0,0,0,0,-1,1098,1667,3.13909,-17.689
-119,-643,3.76282,14.1458,0,0,0,0,0,0,0,-1,1105,1667,3.76283,-14.1458
-112,-643,3.81458,16.2069,0,0,0,0,0,0,0,-1,1112,1667,3.81463,-16.2069
-105,-643,-2.23413,10.0996,0,0,0,0,0,0,0,-1,1119,1667,-2.23415,-10.0996
-98,-643,3.11035,4.68066,0,0,0,0,0,0,0,-1,1126,1667,3.11041,-4.68071
-91,-643,-1.74146,-2.5885,0,0,0,0,0,0,0,-1,1133,1667,-1.74146,2.58856
-84,-643,-3.07446,-0.199341,0,0,0,0,0,0,0,-1,1140,1667,-3.07449,0.199383
-77,-643,-3.63794,2.81165,0,0,0,0,0,0,0,-1,1147,1667,-3.63791,-2.8117
-70,-643,-3.36938,4.45203,0,0,0,0,0,0,0,-1,1154,1667,-3.36941,-4.452
-63,-643,-3.67822,6.26855,0,0,0,0,0,0,0,-1,1161,1667,-3.67823,-6.26856
-56,-643,-3.95142,8.1073,0,0,0,0,0,0,0,-1,1168,1667,-3.95139,-8.10732
-49,-643,-4.23535,9.90552,0,0,0,0,0,0,0,-1,1175,1667,-4.23537,-9.90557
-42,-643,-4.25195,10.7059,0,0,0,0,0,0,0,-1,1182,1667,-4.25192,-10.706
-35,-643,-4.10986,11.6588,0,0,0,0,0,0,0,-1,1189,1667,-4.10982,-11.6589
-28,-643,-1.38513,5.604,0,0,0,0,0,0,0,-1,1196,1667,-1.3851,-5.60403
-21,-643,1.61011,23.1276,0,0,0,0,0,0,0,-1,1203,1667,1.61011,-23.1275
-14,-643,6.61646,30.8655,0,0,0,0,0,0,0,-1,1210,1667,6.61651,-30.8655
-7,-643,7.7677,36.2965,0,0,0,0,0,0,0,-1,1217,1667,7.76768,-36.2965
0,-643,7.79053,36.8149,0,0,0,0,0,0,0,-1,1224,1667,7.79055,-36.815
7,-643,7.87561,37.8693,0,0,0,0,0,0,0,-1,1231,1667,7.87561,-37.8693
14,-643,7.29492,39.5057,0,0,0,0,0,0,0,-1,1238,1667,7.29497,-39.5057
21,-643,7.22009,40.5811,0,0,0,0,0,0,0,-1,1245,1667,7.22004,-40.581
28,-643,6.86255,41.9324,0.0029619,0.159421,0.00992888,0.160048,0.00233433,1.50767,0.105929,0.0432721,1252,1667,6.86251,-41.9323
35,-643,7.09351,37.3416,-0.00499833,0.155117,-0.00195364,0.155141,-0.00502216,-1.5586,0.105141,0.0443707,1259,1667,7.09352,-37.3415
42,-643,6.9447,37.4916,-0.0136545,0.146795,-0.0131944,0.147873,-0.0147323,-1.48929,0.103842,0.0469984,1266,1667,6.94471,-37.4916
49,-643,6.71582,37.6624,-0.0227056,0.135806,-0.0241674,0.139408,-0.0263083,-1.42281,0.102836,0.0446121,1273,1667,6.7158,-37.6624
56,-643,6.33691,38.0562,-0.0312384,0.125403,-0.0345593,0.132689,-0.0385242,-1.36302,0.103714,0.0448351,1280,1667,6.33692,-38.0562
63,-643,5.94568,38.3779,-0.0399797,0.113473,-0.0450768,0.125735,-0.0522413,-1.30521,0.105634,0.0452683,1287,1667,5.94565,-38.3779
70,-643,5.55457,38.1105,0,0,0,0,0,0,0,-1,1294,1667,5.55462,-38.1104
77,-643,4.82581,38.5536,-0.0568314,0.085658,-0.0627744,0.109368,-0.0805416,-1.20966,0.110065,0.0474416,1301,1667,4.82584,-38.5535
84,-643,4.09973,38.5272,-0.0635842,0.0734642,-0.0675209,0.101141,-0.091261,-1.18178,0.111132,0.0448351,1308,1667,4.09976,-38.5273
91,-643,3.58179,38.2466,-0.0669687,0.0647304,-0.0720722,0.0965055,-0.0987438,-1.15555,0.11273,0.0455343,1315,1667,3.58177,-38.2466
98,-643,3.00659,38.1342,-0.0664186,0.0645142,-0.0731394,0.097207,-0.0991114,-1.15045,0.113346,0.0481555,1322,1667,3.00654,-38.1342
105,-643,2.48157,38.1104,-0.0650301,0.0654557,-0.073603,0.0985695,-0.0981439,-1.14803,0.113573,0.0470259,1329,1667,2.48154,-38.1103
112,-643,1.91455,38.2344,-0.0621263,0.0675986,-0.0728215,0.100256,-0.0947836,-1.14923,0.112621,0.0452663,1336,1667,1.91455,-38.2344
119,-643,1.5072,38.1979,-0.0571569,0.0704263,-0.0702087,0.101496,-0.0882264,-1.15417,0.109625,0.0457369,1343,1667,1.50722,-38.1979
126,-643,1.07471,38.1843,0,0,0,0,0,0,0,-1,1350,1667,1.07465,-38.1844
133,-643,0.655518,38.0836,-0.0407932,0.0799176,-0.0599284,0.104616,-0.0654918,-1.17987,0.0990741,0.0482151,1357,1667,0.655498,-38.0837
140,-643,0.286255,37.9158,-0.0307934,0.0871546,-0.0520638,0.106848,-0.0504869,-1.20917,0.0927598,0.0437992,1364,1667,0.28629,-37.9157
147,-643,0.0620117,37.9667,-0.0196525,0.0959419,-0.0429479,0.110152,-0.0338625,-1.25127,0.0869486,0.0433087,1371,1667,0.0619953,-37.9667
154,-643,-0.217041,38.1711,0,0,0,0,0,0,0,-1,1378,1667,-0.217005,-38.1712
161,-643,5.57935,26.2754,0,0,0,0,0,0,0,-1,1385,1667,5.57931,-26.2754
168,-643,10.5563,10.9818,0,0,0,0,0,0,0,-1,1392,1667,10.5562,-10.9819
175,-643,5.88525,-1.1698,0,0,0,0,0,0,0,-1,1399,1667,5.88526,1.16977
182,-643,5.80945,-0.418701,0,0,0,0,0,0,0,-1,1406,1667,5.80949,0.418712
189,-643,5.42297,12.9208,0,0,0,0,0,0,0,-1,1413,1667,5.42298,-12.9208
196,-643,5.51953,11.2415,0,0,0,0,0,0,0,-1,1420,1667,5.51948,-11.2414
203,-643,5.60828,9.82153,0,0,0,0,0,0,0,-1,1427,1667,5.60833,-9.82148
210,-643,4.73218,7.58728,0,0,0,0,0,0,0,-1,1434,1667,4.73222,-7.58728
217,-643,3.8031,5.28955,0,0,0,0,0,0,0,-1,1441,1667,3.80305,-5.28955
224,-643,2.96436,2.97095,0,0,0,0,0,0,0,-1,1448,1667,2.96432,-2.97095
231,-643,2.13403,1.08472,0,0,0,0,0,0,0,-1,1455,1667,2.13403,-1.08467
238,-643,1.18152,-0.261963,0,0,0,0,0,0,0,-1,1462,1667,1.18152,0.26192
245,-643,-0.157471,-1.79016,0,0,0,0,0,0,0,-1,1469,1667,-0.157517,1.7901
252,-643,8.08789,0.0202637,0,0,0,0,0,0,0,-1,1476,1667,8.08791,-0.0203056
259,-643,9.02979,-0.46936,0,0,0,0,0,0,0,-1,1483,1667,9.02974,0.46933
266,-643,4.55066,5.17554,0,0,0,0,0,0,0,-1,1490,1667,4.55063,-5.17556
273,-643,10.74,31.432,0,0,0,0,0,0,0,-1,1497,1667,10.7399,-31.4319
280,-643,10.582,31.9558,0,0,0,0,0,0,0,-1,1504,1667,10.582,-31.9559
287,-643,9.47559,31.0104,0,0,0,0,0,0,0,-1,1511,1667,9.47554,-31.0104
294,-643,10.3204,31.8489,0,0,0,0,0,0,0,-1,1518,1667,10.3205,-31.8489
301,-643,10.0341,31.5408,0,0,0,0,0,0,0,-1,1525,1667,10.0341,-31.5407
308,-643,10.11,31.2887,0,0,0,0,0,0,0,-1,1532,1667,10.11,-31.2887
315,-643,10.0664,31.0565,0.00483177,0.00493653,-0.00154984,0.00643487,0.00333343,-0.802291,0.00371598,0.0422096,1539,1667,10.0664,-31.0565
322,-643,10.2147,30.5908,0.00462543,0.00491501,-0.00140758,0.00618523,0.00335522,-0.83665,0.00357533,0.0284615,1546,1667,10.2147,-30.5908
329,-643,10.251,30.3416,0.00434957,0.00519559,-0.00136955,0.00620596,0.00333919,-0.935185,0.00358647,0.0187733,1553,1667,10.251,-30.3416
336,-643,10.1687,30.1484,0.00400321,0.00530107,-0.00130891,0.00611308,0.0031912,-1.01553,0.00353053,0.0134015,1560,1667,10.1687,-30.1484
343,-643,10.1866,29.8845,0.0036135,0.00516598,-0.00129794,0.00590209,0.0028774,-1.05489,0.00340792,0.0128193,1567,1667,10.1866,-29.8846
350,-643,10.2457,29.5331,0.00335175,0.00484416,-0.00127676,0.00557679,0.00261913,-1.04985,0.00322174,0.0124943,1574,1667,10.2457,-29.533
357,-643,10.245,29.2241,0.00293758,0.00453807,-0.00116948,0.0051549,0.00232075,-1.08545,0.0029811,0.0111494,1581,1667,10.245,-29.2241
364,-643,10.2396,28.923,0.00247245,0.00397623,-0.0010568,0.00452132,0.00192736,-1.09459,0.00261983,0.00989055,1588,1667,10.2396,-28.923
371,-643,10.2524,28.6332,0.00199981,0.0031641,-0.000841157,0.00360491,0.001559,-1.08809,0.00208761,0.00798651,1595,1667,10.2525,-28.6332
378,-643,10.2637,28.3307,0.00162953,0.00230946,-0.000695518,0.00274365,0.00119534,-1.01272,0.00158841,0.00986159,1602,1667,10.2637,-28.3307
385,-643,10.2874,27.9927,0.00139255,0.0012432,-0.000590318,0.0019129,0.000722853,-0.722486,0.00111534,0.0159641,1609,1667,10.2874,-27.9927
392,-643,10.2565,27.6456,0.00112242,0.000110146,-0.000437987,0.00128562,-5.30508e-05,-0.35667,0.000875297,0.0176793,1616,1667,10.2565,-27.6456
399,-643,10.2175,27.3224,0.000734385,-0.00108216,-0.000230084,0.000763075,-0.00111085,-0.124051,0.0010881,0.0155947,1623,1667,10.2176,-27.3223
406,-643,10.2349,27.001,0.000391862,-0.00213708,-6.94289e-05,0.000393766,-0.00213899,-0.0274261,0.00157375,0.0133518,1630,1667,10.2348,-27.001
413,-643,10.2565,26.6312,0.000153749,-0.00290424,2.76537e-05,0.000153999,-0.00290448,0.00904214,0.00198964,0.0182081,1637,1667,10.2564,-26.6312
420,-643,10.2391,26.2795,-9.50905e-06,-0.0034926,3.88677e-05,-9.07539e-06,-0.00349304,0.0111571,0.00232567,0.0179211,1644,1667,10.2392,-26.2795
427,-643,10.1991,25.9688,-4.17583e-05,-0.00389179,-0.000138582,-3.67764e-05,-0.00389677,-0.0359331,0.00258568,0.0153825,1651,1667,10.1991,-25.9687
434,-643,10.1932,25.6161,-8.99372e-05,-0.00411728,-0.000307796,-6.65493e-05,-0.00414067,-0.0758395,0.00273853,0.0160422,1658,1667,10.1933,-25.6161
441,-643,10.2014,25.2415,-3.53559e-05,-0.00418214,-0.000561874,3.94275e-05,-0.00425693,-0.132318,0.00285119,0.0160343,1665,1667,10.2014,-25.2415
448,-643,10.1085,24.8763,0.000134707,-0.00423765,-0.000873223,0.000302651,-0.00440559,-0.190007,0.00304297,0.0222597,1672,1667,10.1085,-24.8764
455,-643,10.0077,24.4086,0.00046129,-0.00397809,-0.00125679,0.000792396,-0.00430919,-0.257599,0.00317011,0.0301788,1679,1667,10.0076,-24.4086
462,-643,10.1167,24.0674,0.000737418,-0.00351966,-0.00157634,0.00125756,-0.0040398,-0.318721,0.00319596,0.0426011,1686,1667,10.1167,-24.0674
469,-643,10.1989,23.705,0.00110348,-0.00305718,-0.00201541,0.00191964,-0.00387334,-0.384774,0.00340739,0.0495963,1693,1667,10.1989,-23.705
476,-643,10.3339,23.3977,0.00145584,-0.00313561,-0.00229118,0.00240355,-0.00408331,-0.392203,0.00378681,0.0479337,1700,1667,10.3338,-23.3977
483,-643,10.7327,23.3079,0,0,0,0,0,0,0,-1,1707,1667,10.7326,-23.3078
490,-643,10.6475,22.152,0,0,0,0,0,0,0,-1,1714,1667,10.6475,-22.1519
497,-643,11.2279,21.8638,0,0,0,0,0,0,0,-1,1721,1667,11.2279,-21.8637
504,-643,8.05591,19.0656,0,0,0,0,0,0,0,-1,1728,1667,8.0559,-19.0655
511,-643,7.74719,18.1564,0,0,0,0,0,0,0,-1,1735,1667,7.74724,-18.1563
518,-643,7.40564,0.922607,0,0,0,0,0,0,0,-1,1742,1667,7.4057,-0.922598
525,-643,0,0,0,0,0,0,0,0,0,-1,1749,1667,0,0
532,-643,0,0,0,0,0,0,0,0,0,-1,1756,1667,0,0
539,-643,0,0,0,0,0,0,0,0,0,-1,1763,1667,0,0
546,-643,0,0,0,0,0,0,0,0,0,-1,1770,1667,0,0
553,-643,0,0,0,0,0,0,0,0,0,-1,1777,1667,0,0
560,-643,0,0,0,0,0,0,0,0,0,-1,1784,1667,0,0
567,-643,0,0,0,0,0,0,0,0,0,-1,1791,1667,0,0
574,-643,0,0,0,0,0,0,0,0,0,-1,1798,1667,0,0
581,-643,0,0,0,0,0,0,0,0,0,-1,1805,1667,0,0
588,-643,0,0,0,0,0,0,0,0,0,-1,1812,1667,0,0
595,-643,0,0,0,0,0,0,0,0,0,-1,1819,1667,0,0
602,-643,0,0,0,0,0,0,0,0,0,-1,1826,1667,0,0
609,-643,0,0,0,0,0,0,0,0,0,-1,1833,1667,0,0
616,-643,0,0,0,0,0,0,0,0,0,-1,1840,1667,0,0
623,-643,0,0,0,0,0,0,0,0,0,-1,1847,1667,0,0
630,-643,0,0,0,0,0,0,0,0,0,-1,1854,1667,0,0
637,-643,0,0,0,0,0,0,0,0,0,-1,1861,1667,0,0
644,-643,0,0,0,0,0,0,0,0,0,-1,1868,1667,0,0
651,-643,0,0,0,0,0,0,0,0,0,-1,1875,1667,0,0
658,-643,0,0,0,0,0,0,0,0,0,-1,1882,1667,0,0
665,-643,0,0,0,0,0,0,0,0,0,-1,1889,1667,0,0
672,-643,0,0,0,0,0,0,0,0,0,-1,1896,1667,0,0
679,-643,0,0,0,0,0,0,0,0,0,-1,1903,1667,0,0
686,-643,0,0,0,0,0,0,0,0,0,-1,1910,1667,0,0
693,-643,0,0,0,0,0,0,0,0,0,-1,1917,1667,0,0
700,-643,0,0,0,0,0,0,0,0,0,-1,1924,1667,0,0
707,-643,0,0,0,0,0,0,0,0,0,-1,1931,1667,0,0
714,-643,0,0,0,0,0,0,0,0,0,-1,1938,1667,0,0
721,-643,0,0,0,0,0,0,0,0,0,-1,1945,1667,0,0
728,-643,0,0,0,0,0,0,0,0,0,-1,1952,1667,0,0
735,-643,0,0,0,0,0,0,0,0,0,-1,1959,1667,0,0
742,-643,0,0,0,0,0,0,0,0,0,-1,1966,1667,0,0
749,-643,0,0,0,0,0,0,0,0,0,-1,1973,1667,0,0
756,-643,0,0,0,0,0,0,0,0,0,-1,1980,1667,0,0
763,-643,0,0,0,0,0,0,0,0,0,-1,1987,1667,0,0
770,-643,0,0,0,0,0,0,0,0,0,-1,1994,1667,0,0
777,-643,0,0,0,0,0,0,0,0,0,-1,2001,1667,0,0
784,-643,0,0,0,0,0,0,0,0,0,-1,2008,1667,0,0
791,-643,0,0,0,0,0,0,0,0,0,-1,2015,1667,0,0
798,-643,0,0,0,0,0,0,0,0,0,-1,2022,1667,0,0
805,-643,0,0,0,0,0,0,0,0,0,-1,2029,1667,0,0
812,-643,0,0,0,0,0,0,0,0,0,-1,2036,1667,0,0
-700,-650,0,0,0,0,0,0,0,0,0,-1,524,1674,0,0
-693,-650,0,0,0,0,0,0,0,0,0,-1,531,1674,0,0
-686,-650,0,0,0,0,0,0,0,0,0,-1,538,1674,0,0
-679,-650,0,0,0,0,0,0,0,0,0,-1,545,1674,0,0
-672,-650,0,0,0,0,0,0,0,0,0,-1,552,1674,0,0
-665,-650,0,0,0,0,0,0,0,0,0,-1,559,1674,0,0
-658,-650,0,0,0,0,0,0,0,0,0,-1,566,1674,0,0
-651,-650,0,0,0,0,0,0,0,0,0,-1,573,1674,0,0
-644,-650,0,0,0,0,0,0,0,0,0,-1,580,1674,0,0
-637,-650,0,0,0,0,0,0,0,0,0,-1,587,1674,0,0
-630,-650,0,0,0,0,0,0,0,0,0,-1,594,1674,0,0
-623,-650,0,0,0,0,0,0,0,0,0,-1,601,1674,0,0
-616,-650,0,0,0,0,0,0,0,0,0,-1,608,1674,0,0
-609,-650,0,0,0,0,0,0,0,0,0,-1,615,1674,0,0
-602,-650,0,0,0,0,0,0,0,0,0,-1,622,1674,0,0
-595,-650,0,0,0,0,0,0,0,0,0,-1,629,1674,0,0
-588,-650,0,0,0,0,0,0,0,0,0,-1,636,1674,0,0
-581,-650,0,0,0,0,0,0,0,0,0,-1,643,1674,0,0
-574,-650,0,0,0,0,0,0,0,0,0,-1,650,1674,0,0
-567,-650,0,0,0,0,0,0,0,0,0,-1,657,1674,0,0
-560,-650,0,0,0,0,0,0,0,0,0,-1,664,1674,0,0
-553,-650,0,0,0,0,0,0,0,0,0,-1,671,1674,0,0
-546,-650,0,0,0,0,0,0,0,0,0,-1,678,1674,0,0
-539,-650,0,0,0,0,0,0,0,0,0,-1,685,1674,0,0
-532,-650,0,0,0,0,0,0,0,0,0,-1,692,1674,0,0
-525,-650,0,0,0,0,0,0,0,0,0,-1,699,1674,0,0
-518,-650,0,0,0,0,0,0,0,0,0,-1,706,1674,0,0
-511,-650,0,0,0,0,0,0,0,0,0,-1,713,1674,0,0
-504,-650,0,0,0,0,0,0,0,0,0,-1,720,1674,0,0
-497,-650,0,0,0,0,0,0,0,0,0,-1,727,1674,0,0
-490,-650,0,0,0,0,0,0,0,0,0,-1,734,1674,0,0
-483,-650,0,0,0,0,0,0,0,0,0,-1,741,1674,0,0
-476,-650,0,0,0,0,0,0,0,0,0,-1,748,1674,0,0
-469,-650,0,0,0,0,0,0,0,0,0,-1,755,1674,0,0
-462,-650,0,0,0,0,0,0,0,0,0,-1,762,1674,0,0
-455,-650,0,0,0,0,0,0,0,0,0,-1,769,1674,0,0
-448,-650,0,0,0,0,0,0,0,0,0,-1,776,1674,0,0
-441,-650,0,0,0,0,0,0,0,0,0,-1,783,1674,0,0
-434,-650,0,0,0,0,0,0,0,0,0,-1,790,1674,0,0
-427,-650,0,0,0,0,0,0,0,0,0,-1,797,1674,0,0
-420,-650,0,0,0,0,0,0,0,0,0,-1,804,1674,0,0
-413,-650,0,0,0,0,0,0,0,0,0,-1,811,1674,0,0
-406,-650,0,0,0,0,0,0,0,0,0,-1,818,1674,0,0
-399,-650,0,0,0,0,0,0,0,0,0,-1,825,1674,0,0
-392,-650,5.44415,6.85669,0,0,0,0,0,0,0,-1,832,1674,5.44414,-6.85674
-385,-650,1.74451,14.0183,0,0,0,0,0,0,0,-1,839,1674,1.74453,-14.0183
-378,-650,0.997986,4.11108,0,0,0,0,0,0,0,-1,846,1674,0.998006,-4.11113
-371,-650,-1.80096,3.78625,0,0,0,0,0,0,0,-1,853,1674,-1.80094,-3.78625
-364,-650,-2.95679,2.57507,0,0,0,0,0,0,0,-1,860,1674,-2.95681,-2.57506
-357,-650,1.97833,10.8362,0,0,0,0,0,0,0,-1,867,1674,1.97835,-10.8362
-350,-650,-5.30243,0.159912,0,0,0,0,0,0,0,-1,874,1674,-5.30244,-0.159866
-343,-650,-6.21338,-1.4425,0,0,0,0,0,0,0,-1,881,1674,-6.21341,1.44248
-336,-650,5.54797,19.9131,0,0,0,0,0,0,0,-1,888,1674,5.54798,-19.9131
-329,-650,5.1076,23.5262,0,0,0,0,0,0,0,-1,895,1674,5.10762,-23.5263
-322,-650,5.14008,23.879,-0.00942639,-0.00301651,-0.00194652,-0.0024717,-0.0099712,-1.29789,0.00599586,0.0432717,902,1674,5.14009,-23.879
-315,-650,5.02063,24.1274,-0.00760951,-0.0027316,-0.00139445,-0.00236111,-0.00798,-1.31111,0.0047335,0.038847,909,1674,5.02064,-24.1274
-308,-650,4.91492,24.402,-0.00607948,-0.00225636,-0.000993659,-0.00201352,-0.00632231,-1.33111,0.00372951,0.0242965,916,1674,4.91491,-24.4019
-301,-650,4.92426,24.8823,-0.00474531,-0.00191184,-0.000670596,-0.00176115,-0.004896,-1.34975,0.00286356,0.0138479,923,1674,4.92427,-24.8823
-294,-650,4.8855,25.2667,-0.00353085,-0.00154082,-0.000402019,-0.00146268,-0.003609,-1.37881,0.00209608,0.010765,930,1674,4.88549,-25.2667
-287,-650,4.86444,25.6553,-0.00248104,-0.00113369,-0.00017959,-0.00111016,-0.00250457,-1.44053,0.00144911,0.0124826,937,1674,4.86444,-25.6553
-280,-650,4.849,26.0077,-0.00168696,-0.000715,-2.32907e-05,-0.000714442,-0.00168751,-1.54685,0.000978093,0.0136711,944,1674,4.84902,-26.0077
-273,-650,4.83447,26.3794,-0.000995112,-0.000187992,0.000196206,-0.000142823,-0.00104028,1.34453,0.000651155,0.0130078,951,1674,4.83445,-26.3793
-266,-650,4.78564,26.7517,-0.000128812,0.000350713,0.000506116,0.000670986,-0.000449085,1.0066,0.00065089,0.010843,958,1674,4.78567,-26.7518
-259,-650,4.79724,27.0933,0.000409981,0.000684225,0.000572355,0.00113565,-4.14489e-05,0.90297,0.00077129,0.0137243,965,1674,4.79722,-27.0932
-252,-650,4.79266,27.4552,0.000721723,0.00110358,0.000613595,0.00155527,0.000270038,0.936232,0.000959581,0.0127527,972,1674,4.79268,-27.4552
-245,-650,4.80725,27.8079,0.00106588,0.00149823,0.000690037,0.00200516,0.000558949,0.937194,0.00119486,0.0116585,979,1674,4.80726,-27.8078
-238,-650,4.802,28.178,0.00143473,0.00178587,0.00073993,0.00237077,0.000849826,0.901883,0.00138693,0.0129689,986,1674,4.80202,-28.178
-231,-650,4.76599,28.5223,0.00183706,0.00193699,0.000815373,0.00270393,0.00107012,0.816,0.00157238,0.0178201,993,1674,4.76602,-28.5223
-224,-650,4.75598,28.84,0.00215692,0.00231027,0.000851226,0.00308827,0.00137892,0.830316,0.00178641,0.0146804,1000,1674,4.75597,-28.8399
-217,-650,4.76764,29.1375,0.00238942,0.0025877,0.000775967,0.00327083,0.00170628,0.848936,0.00188901,0.00964154,1007,1674,4.76765,-29.1374
-210,-650,4.81244,29.4414,0.00273384,0.00244851,0.000429251,0.00304351,0.00213884,0.624963,0.00180469,0.00958259,1014,1674,4.81247,-29.4413
-203,-650,4.83301,29.7617,0.00323135,0.00210051,4.56238e-06,0.00323137,0.00210049,0.00403441,0.00189342,0.0148392,1021,1674,4.83302,-29.7617
-196,-650,4.81824,30.0684,0.00358551,0.00194747,-0.000373161,0.00366652,0.00186647,-0.213758,0.00211698,0.0138598,1028,1674,4.81829,-30.0683
-189,-650,4.80676,30.3597,0.00386273,0.00180976,-0.000892742,0.00419663,0.00147586,-0.357913,0.00245821,0.0113425,1035,1674,4.80677,-30.3598
-182,-650,4.8761,30.6984,0.00440055,0.00184893,-0.0013662,0.00499402,0.00125546,-0.409799,0.00299975,0.0104601,1042,1674,4.87612,-30.6984
-175,-650,4.88574,30.9767,0.00517404,0.00223123,-0.0015888,0.00586812,0.00153715,-0.41187,0.00351363,0.0148858,1049,1674,4.88578,-30.9767
-168,-650,4.86975,31.2671,0.00574837,0.00301782,-0.00190845,0.00672961,0.00203658,-0.47491,0.00398497,0.0176997,1056,1674,4.8697,-31.267
-161,-650,4.89832,31.5243,0.00656067,0.00384296,-0.00213461,0.00773223,0.00267139,-0.501956,0.0045347,0.025992,1063,1674,4.89831,-31.5242
-154,-650,4.96606,31.7263,0.00742779,0.0054755,-0.00228292,0.0089345,0.00396878,-0.583369,0.00516903,0.0325098,1070,1674,4.96611,-31.7263
-147,-650,5.08606,31.9485,0,0,0,0,0,0,0,-1,1077,1674,5.08601,-31.9485
-140,-650,4.71497,32.833,0,0,0,0,0,0,0,-1,1084,1674,4.71501,-32.8331
-133,-650,4.58545,33.1974,0,0,0,0,0,0,0,-1,1091,1674,4.58549,-33.1974
-126,-650,5.14429,33.5928,0,0,0,0,0,0,0,-1,1098,1674,5.14427,-33.5928
-119,-650,5.16663,20.6232,0,0,0,0,0,0,0,-1,1105,1674,5.16665,-20.6232
-112,-650,3.86292,14.4513,0,0,0,0,0,0,0,-1,1112,1674,3.8629,-14.4513
-105,-650,4.9259,12.0626,0,0,0,0,0,0,0,-1,1119,1674,4.92591,-12.0626
-98,-650,3.3761,6.78003,0,0,0,0,0,0,0,-1,1126,1674,3.37611,-6.78009
-91,-650,3.66809,7.04443,0,0,0,0,0,0,0,-1,1133,1674,3.66806,-7.04439
-84,-650,-3.82666,-1.59521,0,0,0,0,0,0,0,-1,1140,1674,-3.82661,1.59517
-77,-650,-4.70557,1.90198,0,0,0,0,0,0,0,-1,1147,1674,-4.7056,-1.90194
-70,-650,-4.88171,3.81653,0,0,0,0,0,0,0,-1,1154,1674,-4.88176,-3.81651
-63,-650,-5.14612,5.56543,0,0,0,0,0,0,0,-1,1161,1674,-5.14612,-5.56547
-56,-650,-5.38367,7.41101,0,0,0,0,0,0,0,-1,1168,1674,-5.38361,-7.41102
-49,-650,-5.11316,8.23706,0,0,0,0,0,0,0,-1,1175,1674,-5.11317,-8.23708
-42,-650,-4.99487,9.6792,0,0,0,0,0,0,0,-1,1182,1674,-4.99484,-9.67921
-35,-650,-4.77771,11.3369,0,0,0,0,0,0,0,-1,1189,1674,-4.77769,-11.3369
-28,-650,-4.1936,13.1501,0,0,0,0,0,0,0,-1,1196,1674,-4.19358,-13.1501
-21,-650,14.001,37.6479,0,0,0,0,0,0,0,-1,1203,1674,14.0009,-37.6479
-14,-650,7.31604,35.6565,0,0,0,0,0,0,0,-1,1210,1674,7.31601,-35.6565
-7,-650,7.42188,36.2064,0.014533,0.0795827,0.0427202,0.10075,-0.00663462,1.11076,0.0694841,0.0478552,1217,1674,7.42184,-36.2064
0,-650,7.91663,36.5583,0.0138034,0.100709,0.0380074,0.114986,-0.000473354,1.21147,0.0768157,0.0425092,1224,1674,7.91666,-36.5584
7,-650,8.38123,36.4657,0.0138755,0.116895,0.0333788,0.126764,0.00400608,1.28331,0.0832064,0.0427785,1231,1674,8.38119,-36.4657
14,-650,8.00635,39.6444,0.0122805,0.128758,0.0266642,0.134572,0.00646669,1.35612,0.0876384,0.0393972,1238,1674,8.00634,-39.6444
21,-650,8.43005,34.8273,0,0,0,0,0,0,0,-1,1245,1674,8.43007,-34.8273
28,-650,8.71375,35.1421,0.00419751,0.135711,0.00905528,0.136331,0.00357693,1.50237,0.0897191,0.0463713,1252,1674,8.71381,-35.142
35,-650,7.76477,37.1653,-0.00228715,0.132379,-0.000461046,0.13238,-0.00228872,-1.56737,0.0890264,0.0460345,1259,1674,7.76476,-37.1653
42,-650,7.51489,37.385,-0.00948269,0.126027,-0.00949823,0.126689,-0.0101452,-1.50116,0.0880364,0.0453691,1266,1674,7.51489,-37.385
49,-650,7.30676,37.5767,-0.0171499,0.117155,-0.0186147,0.119687,-0.0196821,-1.43559,0.0870968,0.0433245,1273,1674,7.30681,-37.5767
56,-650,6.86572,37.8083,-0.0244383,0.108983,-0.0273208,0.11436,-0.0298161,-1.37644,0.0878814,0.0442507,1280,1674,6.86571,-37.8084
63,-650,6.45874,37.8455,-0.0321481,0.0998725,-0.0362016,0.109148,-0.0414234,-1.31998,0.0898156,0.0459295,1287,1674,6.45875,-37.8455
70,-650,6.15796,37.7958,-0.0398834,0.0867563,-0.0450366,0.101139,-0.0542662,-1.26168,0.0910735,0.0477049,1294,1674,6.15795,-37.7957
77,-650,5.63074,37.9862,-0.0478221,0.0778915,-0.0519387,0.0965737,-0.0665042,-1.22551,0.0946851,0.044179,1301,1674,5.63072,-37.9862
84,-650,5.10596,38.1372,-0.0546298,0.0678618,-0.0564249,0.0898916,-0.0766595,-1.19857,0.0962594,0.0457287,1308,1674,5.10594,-38.1371
91,-650,4.66565,38.0852,-0.0584963,0.0606328,-0.0605963,0.0860379,-0.0839014,-1.1738,0.0981171,0.0478327,1315,1674,4.6657,-38.0852
98,-650,4.11035,38.1862,-0.0591722,0.0597026,-0.0621484,0.0862607,-0.0857302,-1.16695,0.0992992,0.0471954,1322,1674,4.11035,-38.1861
105,-650,3.70862,38.5431,-0.0589148,0.060073,-0.0631962,0.0873736,-0.0862154,-1.16301,0.100222,0.0455976,1329,1674,3.70868,-38.5431
112,-650,3.4447,38.9193,-0.0569339,0.0610645,-0.0627127,0.0881686,-0.0840381,-1.16285,0.0994331,0.04589,1336,1674,3.44471,-38.9193
119,-650,3.20105,39.2297,-0.0530383,0.0625114,-0.0605728,0.0884444,-0.0789712,-1.16628,0.096709,0.0476319,1343,1674,3.20109,-39.2298
126,-650,2.9541,39.4819,0,0,0,0,0,0,0,-1,1350,1674,2.95411,-39.4819
133,-650,1.38098,37.123,0,0,0,0,0,0,0,-1,1357,1674,1.38101,-37.1231
140,-650,1.10156,36.9427,0,0,0,0,0,0,0,-1,1364,1674,1.10162,-36.9427
147,-650,0.450073,37.1123,0,0,0,0,0,0,0,-1,1371,1674,0.450065,-37.1123
154,-650,0.0505371,37.3229,0,0,0,0,0,0,0,-1,1378,1674,0.0505848,-37.3229
161,-650,4.09106,30.3021,0,0,0,0,0,0,0,-1,1385,1674,4.09104,-30.3021
168,-650,11.2113,7.87231,0,0,0,0,0,0,0,-1,1392,1674,11.2113,-7.87236
175,-650,5.62537,-0.230713,0,0,0,0,0,0,0,-1,1399,1674,5.62538,0.230745
182,-650,5.56006,0.421631,0,0,0,0,0,0,0,-1,1406,1674,5.56,-0.421652
189,-650,4.81543,11.0654,0,0,0,0,0,0,0,-1,1413,1674,4.81542,-11.0654
196,-650,5.39575,11.9077,0,0,0,0,0,0,0,-1,1420,1674,5.39575,-11.9078
203,-650,3.93628,11.8215,0,0,0,0,0,0,0,-1,1427,1674,3.93624,-11.8216
210,-650,5.40955,8.08594,0,0,0,0,0,0,0,-1,1434,1674,5.40958,-8.086
217,-650,5.12451,4.69739,0,0,0,0,0,0,0,-1,1441,1674,5.12451,-4.69738
224,-650,4.79041,1.45813,0,0,0,0,0,0,0,-1,1448,1674,4.79046,-1.45816
231,-650,4.04102,-0.642212,0,0,0,0,0,0,0,-1,1455,1674,4.04101,0.642209
238,-650,3.23022,-1.43396,0,0,0,0,0,0,0,-1,1462,1674,3.23023,1.43394
245,-650,1.65894,-2.55042,0,0,0,0,0,0,0,-1,1469,1674,1.65889,2.55036
252,-650,8.75342,0.355103,0,0,0,0,0,0,0,-1,1476,1674,8.75337,-0.355147
259,-650,5.61255,3.17566,0,0,0,0,0,0,0,-1,1483,1674,5.61257,-3.17572
266,-650,4.00403,6.10229,0,0,0,0,0,0,0,-1,1490,1674,4.00401,-6.10225
273,-650,11.1305,32.4307,0,0,0,0,0,0,0,-1,1497,1674,11.1305,-32.4306
280,-650,10.2489,32.2045,0,0,0,0,0,0,0,-1,1504,1674,10.2488,-32.2045
287,-650,9.36719,31.9784,0,0,0,0,0,0,0,-1,1511,1674,9.36718,-31.9784
294,-650,9.88525,31.9124,0.00374069,0.0033432,-0.001059,0.00461943,0.00246446,-0.692643,0.00266902,0.0440006,1518,1674,9.88525,-31.9124
301,-650,9.79602,31.5399,0.00393106,0.00330324,-0.00102421,0.00468838,0.00254592,-0.636697,0.00271018,0.0347416,1525,1674,9.79602,-31.5399
308,-650,9.85327,31.251,0.00389582,0.0032347,-0.00092809,0.00455046,0.00258006,-0.614317,0.00263506,0.0213346,1532,1674,9.8533,-31.251
315,-650,9.86157,31.002,0.00376613,0.00345502,-0.000949309,0.00457255,0.00264861,-0.704189,0.00265099,0.0170027,1539,1674,9.86155,-31.0019
322,-650,9.87927,30.7225,0.00354429,0.00345015,-0.000868974,0.00436747,0.00262697,-0.758343,0.00253881,0.0138523,1546,1674,9.87924,-30.7226
329,-650,9.91541,30.3923,0.00330343,0.00357093,-0.000862248,0.00430974,0.00256462,-0.862346,0.00250318,0.0161549,1553,1674,9.91545,-30.3924
336,-650,9.90686,30.1322,0.00301679,0.00358989,-0.000832883,0.00418414,0.00242254,-0.951079,0.00242574,0.013967,1560,1674,9.90684,-30.1322
343,-650,9.9198,29.8624,0.00268739,0.00343771,-0.000832309,0.00397551,0.0021496,-0.997137,0.00229779,0.0138653,1567,1674,9.91978,-29.8624
350,-650,9.93689,29.562,0.00242837,0.00306795,-0.000839023,0.00364606,0.00185026,-0.967471,0.00210513,0.0156038,1574,1674,9.93694,-29.5621
357,-650,9.92542,29.2423,0.00207024,0.00264375,-0.000776874,0.0031851,0.00152889,-0.962199,0.00183941,0.0131222,1581,1674,9.92547,-29.2423
364,-650,9.92419,28.9298,0.00169045,0.00197593,-0.000695449,0.00254313,0.00112324,-0.886615,0.00147161,0.00932958,1588,1674,9.92422,-28.9298
371,-650,9.91846,28.6333,0.00129892,0.00111657,-0.000528327,0.00174388,0.000671611,-0.699951,0.00101565,0.0111611,1595,1674,9.91852,-28.6333
378,-650,9.90613,28.326,0.000993366,0.000208629,-0.000402726,0.00116326,3.87332e-05,-0.399212,0.000762925,0.0126299,1602,1674,9.90615,-28.3261
385,-650,9.92493,28.0027,0.00080908,-0.000876411,-0.000314628,0.000865896,-0.000933227,-0.178656,0.00103897,0.0139191,1609,1674,9.9249,-28.0027
392,-650,9.922,27.6812,0.000575492,-0.0020773,-0.000164481,0.000585651,-0.00208746,-0.0616883,0.00162248,0.018091,1616,1674,9.92197,-27.6812
399,-650,9.90039,27.3452,0.000247521,-0.00330926,1.16271e-05,0.000247559,-0.0033093,0.00326894,0.00229318,0.0170162,1623,1674,9.90038,-27.3452
406,-650,9.88757,27.0026,-4.4793e-05,-0.004421,0.000179763,-3.74212e-05,-0.00442837,0.0409852,0.00293986,0.015095,1630,1674,9.88754,-27.0025
413,-650,9.89587,26.6368,-0.000229939,-0.00520309,0.000288971,-0.000213204,-0.00521983,0.0578467,0.00341104,0.0157509,1637,1674,9.89583,-26.6368
420,-650,9.89294,26.3,-0.000345086,-0.00576258,0.000287208,-0.000329901,-0.00577777,0.0528176,0.00374672,0.0162653,1644,1674,9.89297,-26.3
427,-650,9.85681,25.9846,-0.000316186,-0.00617114,0.000104813,-0.000314311,-0.00617302,0.0178939,0.00401468,0.0150437,1651,1674,9.85676,-25.9846
434,-650,9.8385,25.6577,-0.000295964,-0.00632327,-8.68514e-05,-0.000294712,-0.00632452,-0.0144057,0.00412162,0.0173835,1658,1674,9.83852,-25.6577
441,-650,9.79846,25.3497,-0.000154882,-0.00630116,-0.000390571,-0.000130163,-0.00632588,-0.0632071,0.00417454,0.0293986,1665,1674,9.7984,-25.3497
448,-650,9.71472,25.0188,0.000133301,-0.00625945,-0.000787213,0.000228813,-0.00635496,-0.120739,0.00431493,0.0455948,1672,1674,9.71474,-25.0188
455,-650,9.58264,24.6277,0.000602449,-0.00573873,-0.00127117,0.00084778,-0.00598406,-0.190652,0.00429991,0.0464777,1679,1674,9.58267,-24.6276
462,-650,9.51038,24.3414,0,0,0,0,0,0,0,-1,1686,1674,9.5104,-24.3415
469,-650,9.76282,23.6644,0,0,0,0,0,0,0,-1,1693,1674,9.76284,-23.6645
476,-650,9.81689,23.1567,0,0,0,0,0,0,0,-1,1700,1674,9.81686,-23.1567
483,-650,9.58289,22.5995,0,0,0,0,0,0,0,-1,1707,1674,9.58287,-22.5995
490,-650,10.2742,22.3826,0,0,0,0,0,0,0,-1,1714,1674,10.2742,-22.3826
497,-650,10.4985,20.1362,0,0,0,0,0,0,0,-1,1721,1674,10.4986,-20.1362
504,-650,9.69458,18.7721,0,0,0,0,0,0,0,-1,1728,1674,9.6946,-18.772
511,-650,9.37158,17.7506,0,0,0,0,0,0,0,-1,1735,1674,9.37159,-17.7506
518,-650,0,0,0,0,0,0,0,0,0,-1,1742,1674,0,0
525,-650,0,0,0,0,0,0,0,0,0,-1,1749,1674,0,0
532,-650,0,0,0,0,0,0,0,0,0,-1,1756,1674,0,0
539,-650,0,0,0,0,0,0,0,0,0,-1,1763,1674,0,0
546,-650,0,0,0,0,0,0,0,0,0,-1,1770,1674,0,0
553,-650,0,0,0,0,0,0,0,0,0,-1,1777,1674,0,0
560,-650,0,0,0,0,0,0,0,0,0,-1,1784,1674,0,0
567,-650,0,0,0,0,0,0,0,0,0,-1,1791,1674,0,0
574,-650,0,0,0,0,0,0,0,0,0,-1,1798,1674,0,0
581,-650,0,0,0,0,0,0,0,0,0,-1,1805,1674,0,0
588,-650,0,0,0,0,0,0,0,0,0,-1,1812,1674,0,0
595,-650,0,0,0,0,0,0,0,0,0,-1,1819,1674,0,0
602,-650,0,0,0,0,0,0,0,0,0,-1,1826,1674,0,0
609,-650,0,0,0,0,0,0,0,0,0,-1,1833,1674,0,0
616,-650,0,0,0,0,0,0,0,0,0,-1,1840,1674,0,0
623,-650,0,0,0,0,0,0,0,0,0,-1,1847,1674,0,0
630,-650,0,0,0,0,0,0,0,0,0,-1,1854,1674,0,0
637,-650,0,0,0,0,0,0,0,0,0,-1,1861,1674,0,0
644,-650,0,0,0,0,0,0,0,0,0,-1,1868,1674,0,0
651,-650,0,0,0,0,0,0,0,0,0,-1,1875,1674,0,0
658,-650,0,0,0,0,0,0,0,0,0,-1,1882,1674,0,0
665,-650,0,0,0,0,0,0,0,0,0,-1,1889,1674,0,0
672,-650,0,0,0,0,0,0,0,0,0,-1,1896,1674,0,0
679,-650,0,0,0,0,0,0,0,0,0,-1,1903,1674,0,0
686,-650,0,0,0,0,0,0,0,0,0,-1,1910,1674,0,0
693,-650,0,0,0,0,0,0,0,0,0,-1,1917,1674,0,0
700,-650,0,0,0,0,0,0,0,0,0,-1,1924,1674,0,0
707,-650,0,0,0,0,0,0,0,0,0,-1,1931,1674,0,0
714,-650,0,0,0,0,0,0,0,0,0,-1,1938,1674,0,0
721,-650,0,0,0,0,0,0,0,0,0,-1,1945,1674,0,0
728,-650,0,0,0,0,0,0,0,0,0,-1,1952,1674,0,0
735,-650,0,0,0,0,0,0,0,0,0,-1,1959,1674,0,0
742,-650,0,0,0,0,0,0,0,0,0,-1,1966,1674,0,0
749,-650,0,0,0,0,0,0,0,0,0,-1,1973,1674,0,0
756,-650,0,0,0,0,0,0,0,0,0,-1,1980,1674,0,0
763,-650,0,0,0,0,0,0,0,0,0,-1,1987,1674,0,0
770,-650,0,0,0,0,0,0,0,0,0,-1,1994,1674,0,0
777,-650,0,0,0,0,0,0,0,0,0,-1,2001,1674,0,0
784,-650,0,0,0,0,0,0,0,0,0,-1,2008,1674,0,0
791,-650,0,0,0,0,0,0,0,0,0,-1,2015,1674,0,0
798,-650,0,0,0,0,0,0,0,0,0,-1,2022,1674,0,0
805,-650,0,0,0,0,0,0,0,0,0,-1,2029,1674,0,0
812,-650,0,0,0,0,0,0,0,0,0,-1,2036,1674,0,0
-700,-657,0,0,0,0,0,0,0,0,0,-1,524,1681,0,0
-693,-657,0,0,0,0,0,0,0,0,0,-1,531,1681,0,0
-686,-657,0,0,0,0,0,0,0,0,0,-1,538,1681,0,0
-679,-657,0,0,0,0,0,0,0,0,0,-1,545,1681,0,0
-672,-657,0,0,0,0,0,0,0,0,0,-1,552,1681,0,0
-665,-657,0,0,0,0,0,0,0,0,0,-1,559,1681,0,0
-658,-657,0,0,0,0,0,0,0,0,0,-1,566,1681,0,0
-651,-657,0,0,0,0,0,0,0,0,0,-1,573,1681,0,0
-644,-657,0,0,0,0,0,0,0,0,0,-1,580,1681,0,0
-637,-657,0,0,0,0,0,0,0,0,0,-1,587,1681,0,0
-630,-657,0,0,0,0,0,0,0,0,0,-1,594,1681,0,0
-623,-657,0,0,0,0,0,0,0,0,0,-1,601,1681,0,0
-616,-657,0,0,0,0,0,0,0,0,0,-1,608,1681,0,0
-609,-657,0,0,0,0,0,0,0,0,0,-1,615,1681,0,0
-602,-657,0,0,0,0,0,0,0,0,0,-1,622,1681,0,0
-595,-657,0,0,0,0,0,0,0,0,0,-1,629,1681,0,0
-588,-657,0,0,0,0,0,0,0,0,0,-1,636,1681,0,0
-581,-657,0,0,0,0,0,0,0,0,0,-1,643,1681,0,0
-574,-657,0,0,0,0,0,0,0,0,0,-1,650,1681,0,0
-567,-657,0,0,0,0,0,0,0,0,0,-1,657,1681,0,0
-560,-657,0,0,0,0,0,0,0,0,0,-1,664,1681,0,0
-553,-657,0,0,0,0,0,0,0,0,0,-1,671,1681,0,0
-546,-657,0,0,0,0,0,0,0,0,0,-1,678,1681,0,0
-539,-657,0,0,0,0,0,0,0,0,0,-1,685,1681,0,0
-532,-657,0,0,0,0,0,0,0,0,0,-1,692,1681,0,0
-525,-657,0,0,0,0,0,0,0,0,0,-1,699,1681,0,0
-518,-657,0,0,0,0,0,0,0,0,0,-1,706,1681,0,0
-511,-657,0,0,0,0,0,0,0,0,0,-1,713,1681,0,0
-504,-657,0,0,0,0,0,0,0,0,0,-1,720,1681,0,0
-497,-657,0,0,0,0,0,0,0,0,0,-1,727,1681,0,0
-490,-657,0,0,0,0,0,0,0,0,0,-1,734,1681,0,0
-483,-657,0,0,0,0,0,0,0,0,0,-1,741,1681,0,0
-476,-657,0,0,0,0,0,0,0,0,0,-1,748,1681,0,0
-469,-657,0,0,0,0,0,0,0,0,0,-1,755,1681,0,0
-462,-657,0,0,0,0,0,0,0,0,0,-1,762,1681,0,0
-455,-657,0,0,0,0,0,0,0,0,0,-1,769,1681,0,0
-448,-657,0,0,0,0,0,0,0,0,0,-1,776,1681,0,0
-441,-657,0,0,0,0,0,0,0,0,0,-1,783,1681,0,0
-434,-657,0,0,0,0,0,0,0,0,0,-1,790,1681,0,0
-427,-657,0,0,0,0,0,0,0,0,0,-1,797,1681,0,0
-420,-657,0,0,0,0,0,0,0,0,0,-1,804,1681,0,0
-413,-657,0,0,0,0,0,0,0,0,0,-1,811,1681,0,0
-406,-657,0,0,0,0,0,0,0,0,0,-1,818,1681,0,0
-399,-657,0,0,0,0,0,0,0,0,0,-1,825,1681,0,0
-392,-657,0,0,0,0,0,0,0,0,0,-1,832,1681,0,0
-385,-657,1.09814,6.18896,0,0,0,0,0,0,0,-1,839,1681,1.09814,-6.18894
-378,-657,0.31488,4.46753,0,0,0,0,0,0,0,-1,846,1681,0.31487,-4.46755
-371,-657,-0.519043,2.69421,0,0,0,0,0,0,0,-1,853,1681,-0.519064,-2.69422
-364,-657,-3.42017,4.18323,0,0,0,0,0,0,0,-1,860,1681,-3.42019,-4.18319
-357,-657,-4.41913,2.97168,0,0,0,0,0,0,0,-1,867,1681,-4.41913,-2.97165
-350,-657,-5.42291,1.70276,0,0,0,0,0,0,0,-1,874,1681,-5.42291,-1.70277
-343,-657,-6.51294,0.397339,0,0,0,0,0,0,0,-1,881,1681,-6.51295,-0.397335
-336,-657,4.4566,20.7173,0,0,0,0,0,0,0,-1,888,1681,4.45662,-20.7173
-329,-657,5.66595,23.6484,0,0,0,0,0,0,0,-1,895,1681,5.66595,-23.6485
-322,-657,5.59778,23.9735,-0.0128037,-0.00404582,-0.0028397,-0.00320566,-0.0136438,-1.28314,0.00823794,0.0472637,902,1681,5.59778,-23.9735
-315,-657,5.0838,23.9894,-0.0101409,-0.00354773,-0.00206398,-0.00295491,-0.0107337,-1.2911,0.0064023,0.0429465,909,1681,5.08379,-23.9893
-308,-657,5.20276,24.426,-0.00802597,-0.00292305,-0.00152104,-0.00250407,-0.00844495,-1.30201,0.00500847,0.0410332,916,1681,5.20273,-24.4261
-301,-657,5.29272,24.8998,-0.00622478,-0.00249681,-0.00106578,-0.00221362,-0.00650796,-1.31109,0.00382085,0.0340391,923,1681,5.29271,-24.8998
-294,-657,5.26324,25.3361,-0.00463707,-0.00204289,-0.000695629,-0.00186813,-0.00481183,-1.32466,0.00280115,0.0211946,930,1681,5.26323,-25.3361
-287,-657,5.22791,25.6887,-0.00333621,-0.00161602,-0.000436845,-0.00151144,-0.00344079,-1.33582,0.00199142,0.0142034,937,1681,5.22792,-25.6887
-280,-657,5.19189,26.0201,-0.00240939,-0.0011958,-0.000278113,-0.0011351,-0.00247009,-1.35592,0.00142766,0.013433,944,1681,5.19189,-26.0201
-273,-657,5.17865,26.3845,-0.00163346,-0.000616045,-4.02315e-05,-0.000614457,-0.00163505,-1.53134,0.000953653,0.00980678,951,1681,5.17866,-26.3846
-266,-657,5.13116,26.7352,-0.000638212,-3.94511e-05,0.000335398,0.000110746,-0.00078841,1.14976,0.000566144,0.0140662,958,1681,5.13115,-26.7352
-259,-657,5.14502,27.0942,-0.000115859,0.000249602,0.00040121,0.000507734,-0.00037399,0.999086,0.000511012,0.0185631,965,1681,5.14501,-27.0942
-252,-657,5.13507,27.459,7.90462e-05,0.000566602,0.000495366,0.000874925,-0.000229277,1.01406,0.000672858,0.0134573,972,1681,5.13507,-27.459
-245,-657,5.16235,27.8286,0.000343889,0.000911782,0.000591935,0.00128435,-2.86798e-05,1.00903,0.000865952,0.0155547,979,1681,5.16234,-27.8286
-238,-657,5.17468,28.2009,0.000625784,0.00115552,0.000675181,0.00161593,0.000165378,0.972322,0.00102661,0.0211539,986,1681,5.17466,-28.2009
-231,-657,5.16907,28.5175,0.00096809,0.00131077,0.000774126,0.00193229,0.00034657,0.894311,0.00118962,0.0219954,993,1681,5.16907,-28.5175
-224,-657,5.12921,28.8202,0.00124728,0.00169545,0.00084168,0.00234236,0.000600365,0.915499,0.00140489,0.0169475,1000,1681,5.12923,-28.8202
-217,-657,5.10675,29.1709,0.00143161,0.00187652,0.000772824,0.00245827,0.000849862,0.925534,0.00144163,0.00994523,1007,1681,5.10674,-29.171
-210,-657,5.13019,29.4817,0.00172251,0.00182452,0.00050371,0.0022798,0.00126723,0.835852,0.00131898,0.0109178,1014,1681,5.13021,-29.4817
-203,-657,5.12573,29.7898,0.00216159,0.00157723,0.000165998,0.00220545,0.00153337,0.258329,0.00130528,0.0140119,1021,1681,5.1257,-29.7897
-196,-657,5.13477,30.0814,0.0025051,0.00151605,-0.000137186,0.00252378,0.00149738,-0.135302,0.00146554,0.0134831,1028,1681,5.13479,-30.0815
-189,-657,5.13635,30.371,0.002788,0.0015396,-0.000517706,0.00297475,0.00135284,-0.346203,0.00171981,0.00920512,1035,1681,5.13631,-30.3709
-182,-657,5.14941,30.6534,0.00326744,0.00173112,-0.0008948,0.00367858,0.00131998,-0.430701,0.00215186,0.0076394,1042,1681,5.1494,-30.6535
-175,-657,5.16089,30.9446,0.00399169,0.00222786,-0.00101304,0.00445291,0.00176664,-0.427242,0.0025891,0.0103106,1049,1681,5.16085,-30.9446
-168,-657,5.13318,31.2443,0.00452327,0.00305309,-0.001216,0.0052091,0.00236726,-0.513533,0.00301163,0.0120625,1056,1681,5.13324,-31.2443
-161,-657,5.14282,31.5273,0.00521184,0.00393252,-0.00132629,0.00604466,0.0030997,-0.560708,0.00349027,0.0117302,1063,1681,5.14288,-31.5274
-154,-657,5.21289,31.7896,0.00591924,0.00550561,-0.00137966,0.0071075,0.00431735,-0.711,0.00413498,0.0126629,1070,1681,5.21288,-31.7896
-147,-657,5.22791,32.0615,0.00661734,0.0074405,-0.00127994,0.0083734,0.00568443,-0.940957,0.00493642,0.0237563,1077,1681,5.22787,-32.0615
-140,-657,5.13,32.5233,0.00744288,0.0100049,-0.00112522,0.0104289,0.00701886,-1.21042,0.00614012,0.0444353,1084,1681,5.13006,-32.5234
-133,-657,5.02515,32.908,0.00828083,0.0129776,-0.000869862,0.0131335,0.00812491,-1.39342,0.00765344,0.0492853,1091,1681,5.02509,-32.9079
-126,-657,5.43713,33.3457,0.00915994,0.0165526,-0.000625094,0.0166051,0.00910746,-1.48703,0.00960196,0.0491454,1098,1681,5.43708,-33.3457
-119,-657,5.68091,33.7421,0,0,0,0,0,0,0,-1,1105,1681,5.68093,-33.7421
-112,-657,4.6051,21.3439,0,0,0,0,0,0,0,-1,1112,1681,4.60512,-21.3438
-105,-657,3.82434,14.4906,0,0,0,0,0,0,0,-1,1119,1681,3.8244,-14.4906
-98,-657,3.78662,8.16785,0,0,0,0,0,0,0,-1,1126,1681,3.78663,-8.16786
-91,-657,3.6521,16.6017,0,0,0,0,0,0,0,-1,1133,1681,3.65215,-16.6017
-84,-657,4.08008,10.4579,0,0,0,0,0,0,0,-1,1140,1681,4.08006,-10.4579
-77,-657,-5.29846,0.396606,0,0,0,0,0,0,0,-1,1147,1681,-5.29842,-0.396573
-70,-657,-4.14893,2.14575,0,0,0,0,0,0,0,-1,1154,1681,-4.14893,-2.1458
-63,-657,-4.1239,3.177,0,0,0,0,0,0,0,-1,1161,1681,-4.12391,-3.17698
-56,-657,-6.40576,5.73987,0,0,0,0,0,0,0,-1,1168,1681,-6.40577,-5.7399
-49,-657,-5.98462,7.54053,0,0,0,0,0,0,0,-1,1175,1681,-5.98466,-7.5405
-42,-657,-5.71948,9.28955,0,0,0,0,0,0,0,-1,1182,1681,-5.71951,-9.2895
-35,-657,-5.44556,11.015,0,0,0,0,0,0,0,-1,1189,1681,-5.44555,-11.015
-28,-657,-1.3446,8.92847,0,0,0,0,0,0,0,-1,1196,1681,-1.34459,-8.92848
-21,-657,7.21143,36.6631,0,0,0,0,0,0,0,-1,1203,1681,7.21142,-36.6631
-14,-657,7.24304,36.5482,0.0149295,0.0626125,0.0342694,0.080518,-0.00297593,1.08932,0.0546976,0.0437827,1210,1681,7.24302,-36.5482
-7,-657,7.25366,36.4623,0.0127529,0.0736635,0.0333038,0.0883377,-0.00192129,1.15577,0.0595426,0.0415874,1217,1681,7.2536,-36.4622
0,-657,7.50159,36.4429,0.0119522,0.0870269,0.0301468,0.097634,0.00134517,1.23248,0.0646456,0.04479,1224,1681,7.50154,-36.4429
7,-657,7.95081,36.2517,0.011853,0.0979995,0.0269309,0.105726,0.00412686,1.29141,0.0691492,0.0454609,1231,1681,7.95077,-36.2518
14,-657,8.35425,36.0225,0.0107492,0.106748,0.0220507,0.111571,0.00592651,1.35548,0.0724856,0.0433201,1238,1681,8.3543,-36.0225
21,-657,8.00806,34.968,0.00869167,0.111363,0.0158264,0.113747,0.00630745,1.42127,0.0738188,0.044659,1245,1681,8.008,-34.9681
28,-657,8.22253,35.1771,0.00497938,0.112214,0.00864259,0.112907,0.0042873,1.49089,0.0738834,0.044064,1252,1681,8.22252,-35.1771
35,-657,8.52295,34.9348,-9.8651e-05,0.109968,0.00119138,0.109981,-0.000111546,1.55997,0.0733581,0.0423335,1259,1681,8.52294,-34.9348
42,-657,8.83252,34.1531,-0.00590631,0.105553,-0.00601653,0.105876,-0.00623014,-1.51702,0.07275,0.0458709,1266,1681,8.8325,-34.153
49,-657,8.13477,37.3962,0,0,0,0,0,0,0,-1,1273,1681,8.13477,-37.3963
56,-657,7.46021,37.6104,-0.018269,0.0928534,-0.0207968,0.096618,-0.0220336,-1.39172,0.0728754,0.0431162,1280,1681,7.46025,-37.6104
63,-657,7.04053,37.5811,-0.0249001,0.0862423,-0.0282894,0.0930285,-0.0316863,-1.33536,0.0748512,0.0482338,1287,1681,7.04051,-37.581
70,-657,6.7876,37.511,-0.0317141,0.076098,-0.0359824,0.0870039,-0.0426201,-1.27651,0.0762868,0.0456528,1294,1681,6.78759,-37.511
77,-657,6.41223,37.53,-0.0389774,0.0695406,-0.0421529,0.0839905,-0.0534273,-1.24055,0.0799896,0.0418002,1301,1681,6.41229,-37.5301
84,-657,5.80945,37.7903,-0.045471,0.0615735,-0.0463221,0.0788353,-0.0627327,-1.21409,0.0819103,0.043669,1308,1681,5.80942,-37.7903
91,-657,5.23792,38.26,-0.0494462,0.0556498,-0.0500658,0.0756819,-0.0694783,-1.19019,0.0838338,0.0451479,1315,1681,5.2379,-38.2601
98,-657,4.93225,39.0592,-0.0508944,0.0541541,-0.0518279,0.0754196,-0.0721599,-1.18143,0.085212,0.0429516,1322,1681,4.93224,-39.0591
105,-657,4.73596,37.3192,-0.0514309,0.0539516,-0.0531953,0.0761343,-0.0736136,-1.17572,0.0864611,0.0452405,1329,1681,4.73596,-37.3193
112,-657,4.52979,37.6451,-0.0502366,0.0539419,-0.0529037,0.0760961,-0.0723908,-1.17422,0.0857378,0.0479637,1336,1681,4.52977,-37.6451
119,-657,4.31702,37.9561,0,0,0,0,0,0,0,-1,1343,1681,4.31705,-37.956
126,-657,2.16138,36.7114,0,0,0,0,0,0,0,-1,1350,1681,2.16132,-36.7115
133,-657,2.11694,36.2751,0,0,0,0,0,0,0,-1,1357,1681,2.11694,-36.2751
140,-657,2.07251,35.8387,0,0,0,0,0,0,0,-1,1364,1681,2.07256,-35.8388
147,-657,0.727051,36.2312,0,0,0,0,0,0,0,-1,1371,1681,0.726997,-36.2312
154,-657,7.35938,36.8209,0,0,0,0,0,0,0,-1,1378,1681,7.35935,-36.821
161,-657,4.2926,24.9226,0,0,0,0,0,0,0,-1,1385,1681,4.29264,-24.9226
168,-657,5.21643,0.70105,0,0,0,0,0,0,0,-1,1392,1681,5.21648,-0.7011
175,-657,5.52771,0.649048,0,0,0,0,0,0,0,-1,1399,1681,5.52774,-0.649019
182,-657,5.73999,1.02612,0,0,0,0,0,0,0,-1,1406,1681,5.73995,-1.02611
189,-657,5.92126,1.44116,0,0,0,0,0,0,0,-1,1413,1681,5.92126,-1.44115
196,-657,4.92834,9.59021,0,0,0,0,0,0,0,-1,1420,1681,4.9284,-9.59018
203,-657,6.26343,5.16492,0,0,0,0,0,0,0,-1,1427,1681,6.26345,-5.16488
210,-657,3.9856,5.28088,0,0,0,0,0,0,0,-1,1434,1681,3.98555,-5.28084
217,-657,3.95178,5.2843,0,0,0,0,0,0,0,-1,1441,1681,3.95174,-5.28431
224,-657,6.66736,-0.250244,0,0,0,0,0,0,0,-1,1448,1681,6.66737,0.250229
231,-657,6.85498,-1.70752,0,0,0,0,0,0,0,-1,1455,1681,6.855,1.70758
238,-657,5.34143,-2.89819,0,0,0,0,0,0,0,-1,1462,1681,5.34143,2.89813
245,-657,8.66003,-0.102783,0,0,0,0,0,0,0,-1,1469,1681,8.66,0.102824
252,-657,4.78955,0.623779,0,0,0,0,0,0,0,-1,1476,1681,4.7895,-0.623826
259,-657,2.61523,4.31909,0,0,0,0,0,0,0,-1,1483,1681,2.61523,-4.31908
266,-657,5.35437,11.4742,0,0,0,0,0,0,0,-1,1490,1681,5.35441,-11.4742
273,-657,10.1791,32.7115,0,0,0,0,0,0,0,-1,1497,1681,10.1791,-32.7116
280,-657,9.69812,32.4646,0,0,0,0,0,0,0,-1,1504,1681,9.69808,-32.4646
287,-657,9.4259,31.9761,0,0,0,0,0,0,0,-1,1511,1681,9.42585,-31.9761
294,-657,9.56128,31.7855,0.00319933,0.0019207,-0.000413395,0.00332134,0.00179869,-0.286999,0.00191979,0.0296572,1518,1681,9.56133,-31.7855
301,-657,9.5437,31.5331,0.00321889,0.00194657,-0.000479276,0.00337923,0.00178624,-0.322833,0.00195206,0.0179663,1525,1681,9.54372,-31.5331
308,-657,9.56323,31.2745,0.00310068,0.00196477,-0.00050323,0.00329155,0.0017739,-0.362524,0.0019023,0.0129996,1532,1681,9.56326,-31.2745
315,-657,9.57898,30.9919,0.00292818,0.00215463,-0.000566215,0.00322711,0.0018557,-0.485755,0.00187015,0.011167,1539,1681,9.57899,-30.9919
322,-657,9.60791,30.6978,0.00269243,0.00221319,-0.000555076,0.0030574,0.00184822,-0.581638,0.00177799,0.0132071,1546,1681,9.60793,-30.6977
329,-657,9.61694,30.4166,0.00245703,0.0023023,-0.000588658,0.00297339,0.00178595,-0.72006,0.00172824,0.0192602,1553,1681,9.61692,-30.4167
336,-657,9.62427,30.131,0.00219248,0.00230675,-0.000586962,0.00283935,0.00165988,-0.833915,0.0016471,0.0170468,1560,1681,9.62422,-30.131
343,-657,9.65234,29.8566,0.00188666,0.00217215,-0.000588241,0.00263472,0.00142409,-0.904428,0.00152282,0.0137085,1567,1681,9.65239,-29.8566
350,-657,9.6311,29.5809,0.00163976,0.0017621,-0.000597606,0.00230166,0.0011002,-0.836398,0.00132929,0.015197,1574,1681,9.63107,-29.581
357,-657,9.61487,29.2556,0.00132809,0.00119018,-0.000532159,0.00179574,0.000722526,-0.720967,0.00104334,0.0151431,1581,1681,9.61486,-29.2556
364,-657,9.63855,28.938,0.001018,0.000344465,-0.00043019,0.00122756,0.000134902,-0.453307,0.000777317,0.0112153,1588,1681,9.63858,-28.938
371,-657,9.61694,28.6472,0.0007081,-0.000647537,-0.000273409,0.000761165,-0.000700602,-0.191702,0.000844193,0.0148926,1595,1681,9.61695,-28.6472
378,-657,9.58032,28.3372,0.000465732,-0.00172785,-0.000127612,0.000473131,-0.00173525,-0.0579144,0.00134263,0.0147577,1602,1681,9.58034,-28.3371
385,-657,9.5675,28.0094,0.00033171,-0.00295724,-1.30118e-05,0.000331761,-0.00295729,-0.00395614,0.0020909,0.0127982,1609,1681,9.56746,-28.0093
392,-657,9.57336,27.6937,0.000142911,-0.00437978,0.000163451,0.00014881,-0.00438568,0.0360775,0.00297463,0.0129709,1616,1681,9.57336,-27.6937
399,-657,9.58801,27.3524,-0.000115681,-0.00580216,0.000318332,-9.79162e-05,-0.00581992,0.0557484,0.00384772,0.0126639,1623,1681,9.58806,-27.3525
406,-657,9.57251,27.0137,-0.000359627,-0.0070773,0.000503504,-0.000322098,-0.00711482,0.0743982,0.00463958,0.0138281,1630,1681,9.57247,-27.0137
413,-657,9.57019,26.6333,-0.000497753,-0.0079878,0.000633235,-0.000444594,-0.00804096,0.0837514,0.00521876,0.0146144,1637,1681,9.5702,-26.6332
420,-657,9.58862,26.2635,-0.000577561,-0.00861646,0.000626527,-0.000529025,-0.008665,0.0773147,0.00560865,0.017221,1644,1681,9.58868,-26.2636
427,-657,9.53906,25.9081,-0.000507451,-0.00912072,0.000461865,-0.000482755,-0.00914542,0.0534183,0.00594257,0.0219573,1651,1681,9.53907,-25.9081
434,-657,9.62805,25.5883,-0.000414954,-0.00926752,0.000250173,-0.000407889,-0.00927459,0.0282299,0.00605168,0.0296603,1658,1681,9.62805,-25.5883
441,-657,9.82947,25.2911,0,0,0,0,0,0,0,-1,1665,1681,9.82946,-25.2911
448,-657,9.33118,25.174,0,0,0,0,0,0,0,-1,1672,1681,9.33119,-25.174
455,-657,9.20898,24.8159,0,0,0,0,0,0,0,-1,1679,1681,9.20903,-24.8159
462,-657,6.51733,15.4801,0,0,0,0,0,0,0,-1,1686,1681,6.51737,-15.4801
469,-657,9.70483,21.9269,0,0,0,0,0,0,0,-1,1693,1681,9.70488,-21.9269
476,-657,8.9519,20.5712,0,0,0,0,0,0,0,-1,1700,1681,8.95194,-20.5712
483,-657,10.0663,21.8628,0,0,0,0,0,0,0,-1,1707,1681,10.0663,-21.8628
490,-657,11.6039,21.2185,0,0,0,0,0,0,0,-1,1714,1681,11.6038,-21.2185
497,-657,9.20862,17.8127,0,0,0,0,0,0,0,-1,1721,1681,9.2086,-17.8127
504,-657,0,0,0,0,0,0,0,0,0,-1,1728,1681,0,0
511,-657,0,0,0,0,0,0,0,0,0,-1,1735,1681,0,0
518,-657,0,0,0,0,0,0,0,0,0,-1,1742,1681,0,0
525,-657,0,0,0,0,0,0,0,0,0,-1,1749,1681,0,0
532,-657,0,0,0,0,0,0,0,0,0,-1,1756,1681,0,0
539,-657,0,0,0,0,0,0,0,0,0,-1,1763,1681,0,0
546,-657,0,0,0,0,0,0,0,0,0,-1,1770,1681,0,0
553,-657,0,0,0,0,0,0,0,0,0,-1,1777,1681,0,0
560,-657,0,0,0,0,0,0,0,0,0,-1,1784,1681,0,0
567,-657,0,0,0,0,0,0,0,0,0,-1,1791,1681,0,0
574,-657,0,0,0,0,0,0,0,0,0,-1,1798,1681,0,0
581,-657,0,0,0,0,0,0,0,0,0,-1,1805,1681,0,0
588,-657,0,0,0,0,0,0,0,0,0,-1,1812,1681,0,0
595,-657,0,0,0,0,0,0,0,0,0,-1,1819,1681,0,0
602,-657,0,0,0,0,0,0,0,0,0,-1,1826,1681,0,0
609,-657,0,0,0,0,0,0,0,0,0,-1,1833,1681,0,0
616,-657,0,0,0,0,0,0,0,0,0,-1,1840,1681,0,0
623,-657,0,0,0,0,0,0,0,0,0,-1,1847,1681,0,0
630,-657,0,0,0,0,0,0,0,0,0,-1,1854,1681,0,0
637,-657,0,0,0,0,0,0,0,0,0,-1,1861,1681,0,0
644,-657,0,0,0,0,0,0,0,0,0,-1,1868,1681,0,0
651,-657,0,0,0,0,0,0,0,0,0,-1,1875,1681,0,0
658,-657,0,0,0,0,0,0,0,0,0,-1,1882,1681,0,0
665,-657,0,0,0,0,0,0,0,0,0,-1,1889,1681,0,0
672,-657,0,0,0,0,0,0,0,0,0,-1,1896,1681,0,0
679,-657,0,0,0,0,0,0,0,0,0,-1,1903,1681,0,0
686,-657,0,0,0,0,0,0,0,0,0,-1,1910,1681,0,0
693,-657,0,0,0,0,0,0,0,0,0,-1,1917,1681,0,0
700,-657,0,0,0,0,0,0,0,0,0,-1,1924,1681,0,0
707,-657,0,0,0,0,0,0,0,0,0,-1,1931,1681,0,0
714,-657,0,0,0,0,0,0,0,0,0,-1,1938,1681,0,0
721,-657,0,0,0,0,0,0,0,0,0,-1,1945,1681,0,0
728,-657,0,0,0,0,0,0,0,0,0,-1,1952,1681,0,0
735,-657,0,0,0,0,0,0,0,0,0,-1,1959,1681,0,0
742,-657,0,0,0,0,0,0,0,0,0,-1,1966,1681,0,0
749,-657,0,0,0,0,0,0,0,0,0,-1,1973,1681,0,0
756,-657,0,0,0,0,0,0,0,0,0,-1,1980,1681,0,0
763,-657,0,0,0,0,0,0,0,0,0,-1,1987,1681,0,0
770,-657,0,0,0,0,0,0,0,0,0,-1,1994,1681,0,0
777,-657,0,0,0,0,0,0,0,0,0,-1,2001,1681,0,0
784,-657,0,0,0,0,0,0,0,0,0,-1,2008,1681,0,0
791,-657,0,0,0,0,0,0,0,0,0,-1,2015,1681,0,0
798,-657,0,0,0,0,0,0,0,0,0,-1,2022,1681,0,0
805,-657,0,0,0,0,0,0,0,0,0,-1,2029,1681,0,0
812,-657,0,0,0,0,0,0,0,0,0,-1,2036,1681,0,0
-700,-664,0,0,0,0,0,0,0,0,0,-1,524,1688,0,0
-693,-664,0,0,0,0,0,0,0,0,0,-1,531,1688,0,0
-686,-664,0,0,0,0,0,0,0,0,0,-1,538,1688,0,0
-679,-664,0,0,0,0,0,0,0,0,0,-1,545,1688,0,0
-672,-664,0,0,0,0,0,0,0,0,0,-1,552,1688,0,0
-665,-664,0,0,0,0,0,0,0,0,0,-1,559,1688,0,0
-658,-664,0,0,0,0,0,0,0,0,0,-1,566,1688,0,0
-651,-664,0,0,0,0,0,0,0,0,0,-1,573,1688,0,0
-644,-664,0,0,0,0,0,0,0,0,0,-1,580,1688,0,0
-637,-664,0,0,0,0,0,0,0,0,0,-1,587,1688,0,0
-630,-664,0,0,0,0,0,0,0,0,0,-1,594,1688,0,0
-623,-664,0,0,0,0,0,0,0,0,0,-1,601,1688,0,0
-616,-664,0,0,0,0,0,0,0,0,0,-1,608,1688,0,0
-609,-664,0,0,0,0,0,0,0,0,0,-1,615,1688,0,0
-602,-664,0,0,0,0,0,0,0,0,0,-1,622,1688,0,0
-595,-664,0,0,0,0,0,0,0,0,0,-1,629,1688,0,0
-588,-664,0,0,0,0,0,0,0,0,0,-1,636,1688,0,0
-581,-664,0,0,0,0,0,0,0,0,0,-1,643,1688,0,0
-574,-664,0,0,0,0,0,0,0,0,0,-1,650,1688,0,0
-567,-664,0,0,0,0,0,0,0,0,0,-1,657,1688,0,0
-560,-664,0,0,0,0,0,0,0,0,0,-1,664,1688,0,0
-553,-664,0,0,0,0,0,0,0,0,0,-1,671,1688,0,0
-546,-664,0,0,0,0,0,0,0,0,0,-1,678,1688,0,0
-539,-664,0,0,0,0,0,0,0,0,0,-1,685,1688,0,0
-532,-664,0,0,0,0,0,0,0,0,0,-1,692,1688,0,0
-525,-664,0,0,0,0,0,0,0,0,0,-1,699,1688,0,0
-518,-664,0,0,0,0,0,0,0,0,0,-1,706,1688,0,0
-511,-664,0,0,0,0,0,0,0,0,0,-1,713,1688,0,0
-504,-664,0,0,0,0,0,0,0,0,0,-1,720,1688,0,0
-497,-664,0,0,0,0,0,0,0,0,0,-1,727,1688,0,0
-490,-664,0,0,0,0,0,0,0,0,0,-1,734,1688,0,0
-483,-664,0,0,0,0,0,0,0,0,0,-1,741,1688,0,0
-476,-664,0,0,0,0,0,0,0,0,0,-1,748,1688,0,0
-469,-664,0,0,0,0,0,0,0,0,0,-1,755,1688,0,0
-462,-664,0,0,0,0,0,0,0,0,0,-1,762,1688,0,0
-455,-664,0,0,0,0,0,0,0,0,0,-1,769,1688,0,0
-448,-664,0,0,0,0,0,0,0,0,0,-1,776,1688,0,0
-441,-664,0,0,0,0,0,0,0,0,0,-1,783,1688,0,0
-434,-664,0,0,0,0,0,0,0,0,0,-1,790,1688,0,0
-427,-664,0,0,0,0,0,0,0,0,0,-1,797,1688,0,0
-420,-664,0,0,0,0,0,0,0,0,0,-1,804,1688,0,0
-413,-664,0,0,0,0,0,0,0,0,0,-1,811,1688,0,0
-406,-664,0,0,0,0,0,0,0,0,0,-1,818,1688,0,0
-399,-664,0,0,0,0,0,0,0,0,0,-1,825,1688,0,0
-392,-664,0,0,0,0,0,0,0,0,0,-1,832,1688,0,0
-385,-664,0,0,0,0,0,0,0,0,0,-1,839,1688,0,0
-378,-664,0,0,0,0,0,0,0,0,0,-1,846,1688,0,0
-371,-664,-1.61676,5.92737,0,0,0,0,0,0,0,-1,853,1688,-1.61675,-5.92735
-364,-664,-3.901,5.87024,0,0,0,0,0,0,0,-1,860,1688,-3.90097,-5.87027
-357,-664,-4.81012,4.53479,0,0,0,0,0,0,0,-1,867,1688,-4.81012,-4.5348
-350,-664,-5.7193,3.19934,0,0,0,0,0,0,0,-1,874,1688,-5.71927,-3.19932
-343,-664,2.96515,14.8083,0,0,0,0,0,0,0,-1,881,1688,2.96517,-14.8083
-336,-664,2.79852,15.5814,0,0,0,0,0,0,0,-1,888,1688,2.79853,-15.5814
-329,-664,6.211,21.8523,0,0,0,0,0,0,0,-1,895,1688,6.21101,-21.8523
-322,-664,4.88092,22.7327,0,0,0,0,0,0,0,-1,902,1688,4.88094,-22.7326
-315,-664,5.2428,23.9108,0,0,0,0,0,0,0,-1,909,1688,5.24279,-23.9107
-308,-664,5.44904,24.3663,0,0,0,0,0,0,0,-1,916,1688,5.44902,-24.3664
-301,-664,5.62012,24.8147,0,0,0,0,0,0,0,-1,923,1688,5.62014,-24.8148
-294,-664,5.6488,25.311,-0.00581869,-0.00242033,-0.00112578,-0.00208122,-0.0061578,-1.27822,0.00361689,0.0479527,930,1688,5.64879,-25.311
-287,-664,5.66174,25.764,-0.00417779,-0.00190972,-0.000780031,-0.00166735,-0.00442016,-1.26954,0.0025775,0.0338331,937,1688,5.66172,-25.764
-280,-664,5.5343,26.0623,-0.00305979,-0.001447,-0.000576728,-0.00126199,-0.00324481,-1.26037,0.00188874,0.0210479,944,1688,5.53432,-26.0622
-273,-664,5.53094,26.3888,-0.0021512,-0.000776409,-0.000271998,-0.000724551,-0.00220306,-1.3824,0.00129653,0.0152926,951,1688,5.53093,-26.3888
-266,-664,5.47247,26.7479,-0.00100496,-0.000144432,0.000202558,-9.91368e-05,-0.00105026,1.3508,0.000669578,0.0210509,958,1688,5.47249,-26.7479
-259,-664,5.46002,27.124,-0.000481752,0.000111209,0.000301004,0.000237226,-0.00060777,1.17431,0.000503251,0.0187111,965,1688,5.46004,-27.124
-252,-664,5.48834,27.4895,-0.000299495,0.000200909,0.00053281,0.000539339,-0.000637925,1.00491,0.000680487,0.0167454,972,1688,5.48836,-27.4895
-245,-664,5.47278,27.8639,-7.50385e-05,0.000447375,0.000694006,0.000927702,-0.000555366,0.965386,0.000865198,0.0205472,979,1688,5.47275,-27.8639
-238,-664,5.51819,28.2092,0.000127767,0.00059894,0.000844063,0.00123968,-0.000512971,0.92149,0.00104048,0.0231289,986,1688,5.51822,-28.2092
-231,-664,5.52979,28.4877,0.000416726,0.000698336,0.00100209,0.00156947,-0.000454405,0.855197,0.00122617,0.0196365,993,1688,5.5298,-28.4876
-224,-664,5.46661,28.8259,0.000662213,0.0010335,0.00112959,0.0019926,-0.000296891,0.866842,0.00143762,0.0140686,1000,1688,5.46662,-28.826
-217,-664,5.43018,29.176,0.000776312,0.00106861,0.00108628,0.00201853,-0.000173607,0.852267,0.00140713,0.0100178,1007,1688,5.43021,-29.176
-210,-664,5.43884,29.5034,0.000970938,0.0010525,0.000915732,0.00192836,9.50774e-05,0.807649,0.00125508,0.0113882,1014,1688,5.43885,-29.5034
-203,-664,5.43298,29.7965,0.00131018,0.00088948,0.000656532,0.00178924,0.000410425,0.630366,0.00108228,0.0143816,1021,1688,5.43299,-29.7965
-196,-664,5.44263,30.0643,0.00158421,0.000910197,0.000382426,0.00175693,0.000737476,0.424223,0.00101871,0.0138221,1028,1688,5.4426,-30.0643
-189,-664,5.43848,30.3767,0.00181194,0.0010412,4.48178e-05,0.00181454,0.0010386,0.0578888,0.00105128,0.00881233,1035,1688,5.43848,-30.3767
-182,-664,5.44666,30.6543,0.00221668,0.00134558,-0.000295759,0.00230761,0.00125465,-0.298262,0.00133399,0.00880564,1042,1688,5.44671,-30.6543
-175,-664,5.44971,30.906,0.00286414,0.00192513,-0.000398854,0.00301068,0.00177858,-0.352109,0.00174774,0.0135398,1049,1688,5.44969,-30.9061
-168,-664,5.4458,31.1921,0.00333997,0.00276391,-0.00057874,0.0036984,0.00240549,-0.554499,0.00216724,0.0148706,1056,1688,5.44578,-31.1921
-161,-664,5.43237,31.49,0.00390276,0.00363553,-0.000684522,0.00446659,0.00307171,-0.689012,0.00263867,0.0104806,1063,1688,5.43238,-31.49
-154,-664,5.48486,31.7616,0.00450578,0.00510997,-0.000744968,0.00561177,0.00400398,-0.978025,0.00333696,0.0103076,1070,1688,5.48484,-31.7617
-147,-664,5.50073,32.0206,0.00514911,0.0067514,-0.000679687,0.00700088,0.00489964,-1.21902,0.0041482,0.014712,1077,1688,5.50077,-32.0206
-140,-664,5.52063,32.3075,0.00579234,0.0088295,-0.000592219,0.00894089,0.00568095,-1.38488,0.00522473,0.0186771,1084,1688,5.52059,-32.3075
-133,-664,5.47327,32.6536,0.00638812,0.0111837,-0.000471256,0.0112296,0.00634225,-1.47376,0.00650153,0.0220302,1091,1688,5.47328,-32.6535
-126,-664,5.58508,33.1603,0.00703591,0.0139128,-0.000350625,0.0139306,0.00701808,-1.51999,0.00804291,0.0359206,1098,1688,5.58508,-33.1603
-119,-664,5.47046,33.4873,0.00782792,0.0163461,-0.000243368,0.0163531,0.00782097,-1.54226,0.00944442,0.0463413,1105,1688,5.47052,-33.4873
-112,-664,5.29285,33.8846,0,0,0,0,0,0,0,-1,1112,1688,5.29285,-33.8846
-105,-664,4.48108,21.4276,0,0,0,0,0,0,0,-1,1119,1688,4.48104,-21.4276
-98,-664,4.98584,19.8645,0,0,0,0,0,0,0,-1,1126,1688,4.98586,-19.8645
-91,-664,5.41931,25.6302,0,0,0,0,0,0,0,-1,1133,1688,5.41932,-25.6302
-84,-664,3.48389,16.6913,0,0,0,0,0,0,0,-1,1140,1688,3.4839,-16.6913
-77,-664,4.52014,11.2122,0,0,0,0,0,0,0,-1,1147,1688,4.5202,-11.2122
-70,-664,4.20374,8.24524,0,0,0,0,0,0,0,-1,1154,1688,4.20379,-8.24519
-63,-664,-4.677,2.40503,0,0,0,0,0,0,0,-1,1161,1688,-4.67702,-2.40498
-56,-664,-4.66504,3.32727,0,0,0,0,0,0,0,-1,1168,1688,-4.6651,-3.32724
-49,-664,-2.54297,3.31848,0,0,0,0,0,0,0,-1,1175,1688,-2.54297,-3.31852
-42,-664,-0.359253,4.38684,0,0,0,0,0,0,0,-1,1182,1688,-0.359261,-4.38685
-35,-664,-0.705566,3.55017,0,0,0,0,0,0,0,-1,1189,1688,-0.705567,-3.55023
-28,-664,-1.54236,10.2538,0,0,0,0,0,0,0,-1,1196,1688,-1.54236,-10.2538
-21,-664,7.22827,35.951,0,0,0,0,0,0,0,-1,1203,1688,7.22821,-35.9511
-14,-664,7.54614,36.0199,0,0,0,0,0,0,0,-1,1210,1688,7.54615,-36.0199
-7,-664,7.45239,35.9814,0,0,0,0,0,0,0,-1,1217,1688,7.45238,-35.9815
0,-664,7.31226,36.0969,0.0100349,0.0721413,0.0237114,0.080159,0.00201723,1.24473,0.0527798,0.0495417,1224,1688,7.31228,-36.0969
7,-664,7.33899,35.9189,0.00986827,0.0794117,0.0215953,0.085572,0.00370799,1.29292,0.0558531,0.0460292,1231,1688,7.33904,-35.9189
14,-664,7.11646,35.4491,0.0092004,0.0857746,0.0182268,0.0898917,0.00508329,1.34864,0.0583073,0.0429412,1238,1688,7.11651,-35.4492
21,-664,7.32825,35.3239,0.00797595,0.0893146,0.0137622,0.09158,0.00571053,1.40765,0.0592417,0.0440922,1245,1688,7.32827,-35.3239
28,-664,7.71362,35.1658,0.00540366,0.0902548,0.00837611,0.0910738,0.00458472,1.47333,0.0592468,0.0445341,1252,1688,7.71362,-35.1658
35,-664,7.7489,34.6671,0.00159321,0.0890682,0.00268256,0.0891503,0.00151102,1.54017,0.0589363,0.0445546,1259,1688,7.74894,-34.6671
42,-664,7.7655,33.7976,-0.00295288,0.0863898,-0.00300621,0.0864908,-0.00305392,-1.5372,0.058705,0.04571,1266,1688,7.76552,-33.7977
49,-664,7.81763,33.0267,0,0,0,0,0,0,0,-1,1273,1688,7.81763,-33.0268
56,-664,8.36731,37.1426,0,0,0,0,0,0,0,-1,1280,1688,8.36727,-37.1425
63,-664,7.51025,37.3712,0,0,0,0,0,0,0,-1,1287,1688,7.51023,-37.3712
70,-664,7.49988,37.394,-0.024284,0.0655995,-0.0280371,0.0736279,-0.0323125,-1.29191,0.062696,0.0466822,1294,1688,7.49986,-37.3941
77,-664,7.54712,37.3763,-0.0306939,0.0609145,-0.0334662,0.0718379,-0.0416172,-1.2553,0.0662734,0.0429175,1301,1688,7.54708,-37.3764
84,-664,6.52869,37.6832,-0.0366177,0.0547789,-0.0372529,0.0680392,-0.0498779,-1.22883,0.0683481,0.0454162,1308,1688,6.52868,-37.6832
91,-664,5.86438,38.0488,-0.0404263,0.0499693,-0.0405324,0.0654816,-0.0559386,-1.20528,0.0701741,0.04502,1315,1688,5.86437,-38.0489
98,-664,5.26343,38.4235,0,0,0,0,0,0,0,-1,1322,1688,5.26339,-38.4234
105,-664,5.57104,36.1152,-0.0433134,0.0473551,-0.0438005,0.0650579,-0.0610162,-1.1867,0.0728014,0.0493004,1329,1688,5.57108,-36.1152
112,-664,4.99658,36.3984,-0.0427169,0.0465295,-0.0436042,0.0642967,-0.0604841,-1.18387,0.0720534,0.045668,1336,1688,4.99657,-36.3985
119,-664,4.15857,36.8171,-0.0408418,0.0458415,-0.0422348,0.0630165,-0.0580169,-1.18456,0.0698986,0.0480881,1343,1688,4.15852,-36.8171
126,-664,3.36816,37.1887,0,0,0,0,0,0,0,-1,1350,1688,3.36819,-37.1888
133,-664,3.16626,35.6071,0,0,0,0,0,0,0,-1,1357,1688,3.16624,-35.6071
140,-664,9.20569,34.5194,0,0,0,0,0,0,0,-1,1364,1688,9.20574,-34.5194
147,-664,8.82471,36.4098,0,0,0,0,0,0,0,-1,1371,1688,8.82468,-36.4098
154,-664,4.76721,26.2594,0,0,0,0,0,0,0,-1,1378,1688,4.76723,-26.2594
161,-664,4.60132,1.56238,0,0,0,0,0,0,0,-1,1385,1688,4.60134,-1.56233
168,-664,5.172,1.25488,0,0,0,0,0,0,0,-1,1392,1688,5.17203,-1.25484
175,-664,5.58313,1.16467,0,0,0,0,0,0,0,-1,1399,1688,5.58317,-1.16466
182,-664,5.74268,1.41113,0,0,0,0,0,0,0,-1,1406,1688,5.74263,-1.41115
189,-664,5.87744,1.87061,0,0,0,0,0,0,0,-1,1413,1688,5.87745,-1.87065
196,-664,6.7594,5.97473,0,0,0,0,0,0,0,-1,1420,1688,6.75943,-5.97478
203,-664,5.38452,5.22034,0,0,0,0,0,0,0,-1,1427,1688,5.38453,-5.2203
210,-664,5.25549,6.45715,0,0,0,0,0,0,0,-1,1434,1688,5.25549,-6.45721
217,-664,5.72009,6.73975,0,0,0,0,0,0,0,-1,1441,1688,5.72014,-6.73972
224,-664,5.05725,7.42908,0,0,0,0,0,0,0,-1,1448,1688,5.05723,-7.42912
231,-664,5.13318,7.60864,0,0,0,0,0,0,0,-1,1455,1688,5.13313,-7.60862
238,-664,4.23193,6.45471,0,0,0,0,0,0,0,-1,1462,1688,4.23197,-6.45476
245,-664,4.42004,6.80896,0,0,0,0,0,0,0,-1,1469,1688,4.4201,-6.80901
252,-664,3.67346,6.85461,0,0,0,0,0,0,0,-1,1476,1688,3.6734,-6.85462
259,-664,4.55823,11.7435,0,0,0,0,0,0,0,-1,1483,1688,4.55826,-11.7435
266,-664,8.99524,32.2935,0,0,0,0,0,0,0,-1,1490,1688,8.99523,-32.2935
273,-664,9.16125,32.3573,0,0,0,0,0,0,0,-1,1497,1688,9.1612,-32.3573
280,-664,9.21667,32.2184,0.002892,0.00113444,0.000298529,0.00294133,0.00108512,0.163738,0.00171752,0.0298135,1504,1688,9.2167,-32.2184
287,-664,9.21814,31.9645,0.0025396,0.000908723,0.000308617,0.00259605,0.000852276,0.180904,0.001528,0.0215917,1511,1688,9.21811,-31.9645
294,-664,9.25098,31.7412,0.0024884,0.00100683,3.01059e-05,0.00248901,0.00100622,0.020309,0.00144579,0.0154947,1518,1688,9.25099,-31.7413
301,-664,9.28748,31.507,0.00243818,0.00113758,-0.000153035,0.00245594,0.00111981,-0.115562,0.00141977,0.0112862,1525,1688,9.28751,-31.507
308,-664,9.31665,31.2419,0.00230239,0.00124568,-0.000304933,0.00238407,0.001164,-0.261719,0.00137657,0.0110705,1532,1688,9.31664,-31.242
315,-664,9.31775,30.9768,0.00214059,0.00143475,-0.000443383,0.00235437,0.00122098,-0.449257,0.00135961,0.0113345,1539,1688,9.31772,-30.9767
322,-664,9.34485,30.7067,0.00193327,0.00152729,-0.000516602,0.00228533,0.00117523,-0.598201,0.00131961,0.0147845,1546,1688,9.34483,-30.7066
329,-664,9.3479,30.4498,0.00172034,0.00153926,-0.000583054,0.00221984,0.00103976,-0.708371,0.00128248,0.0173229,1553,1688,9.34785,-30.4498
336,-664,9.33301,30.1444,0.00148819,0.00145777,-0.000592796,0.00206597,0.000879993,-0.772572,0.00119714,0.0142801,1560,1688,9.333,-30.1444
343,-664,9.33398,29.8649,0.00123211,0.00125408,-0.000587553,0.00183075,0.000655438,-0.794748,0.00107109,0.0114298,1567,1688,9.33398,-29.8649
350,-664,9.32288,29.5784,0.00101471,0.000719204,-0.000572864,0.00145857,0.000275345,-0.659189,0.000894831,0.0132984,1574,1688,9.32283,-29.5784
357,-664,9.33032,29.2437,0.000751131,-7.73962e-05,-0.000466938,0.000961083,-0.000287348,-0.422551,0.000754959,0.0139227,1581,1688,9.33029,-29.2436
364,-664,9.3407,28.9198,0.000509014,-0.00116311,-0.000307037,0.00056361,-0.0012177,-0.175976,0.0010513,0.0117862,1588,1688,9.34069,-28.9198
371,-664,9.31409,28.6483,0.000277852,-0.00234884,-0.000117297,0.000283079,-0.00235407,-0.0445375,0.00167175,0.0140303,1595,1688,9.31409,-28.6483
378,-664,9.28345,28.3459,8.25794e-05,-0.00369002,8.60015e-05,8.45389e-05,-0.00369198,0.0227805,0.00248998,0.0136142,1602,1688,9.28347,-28.3459
385,-664,9.27673,28.0295,-1.89723e-05,-0.0051238,0.000240483,-7.66851e-06,-0.00513511,0.0469703,0.00342085,0.0140303,1609,1688,9.27676,-28.0295
392,-664,9.22498,27.7244,-0.000186377,-0.00683757,0.000459667,-0.000154759,-0.00686919,0.0686753,0.00452875,0.0163196,1616,1688,9.22499,-27.7244
399,-664,9.24792,27.3672,-0.00039639,-0.00854668,0.000616014,-0.000350094,-0.00859298,0.0750139,0.00561559,0.013542,1623,1688,9.24787,-27.3672
406,-664,9.2583,27.021,-0.000613544,-0.0101126,0.000840941,-0.000539672,-0.0101865,0.0876205,0.00661846,0.0133998,1630,1688,9.25825,-27.021
413,-664,9.27673,26.6333,-0.000732654,-0.0113038,0.00101663,-0.000635772,-0.0114007,0.0950098,0.00739768,0.0162264,1637,1688,9.27673,-26.6333
420,-664,9.29187,26.3245,-0.000818791,-0.0121942,0.00104191,-0.000724147,-0.0122889,0.0905884,0.00796218,0.0381797,1644,1688,9.29189,-26.3245
427,-664,9.31091,25.7745,0,0,0,0,0,0,0,-1,1651,1688,9.31087,-25.7746
434,-664,9.45325,25.4254,0,0,0,0,0,0,0,-1,1658,1688,9.45326,-25.4254
441,-664,9.39575,25.2755,0,0,0,0,0,0,0,-1,1665,1688,9.39569,-25.2755
448,-664,7.27502,19.7417,0,0,0,0,0,0,0,-1,1672,1688,7.27505,-19.7417
455,-664,7.53198,11.3838,0,0,0,0,0,0,0,-1,1679,1688,7.53195,-11.3838
462,-664,4.3147,4.25439,0,0,0,0,0,0,0,-1,1686,1688,4.31467,-4.25435
469,-664,6.05469,7.49341,0,0,0,0,0,0,0,-1,1693,1688,6.05474,-7.49339
476,-664,10.2377,22.7128,0,0,0,0,0,0,0,-1,1700,1688,10.2377,-22.7128
483,-664,8.41895,10.9768,0,0,0,0,0,0,0,-1,1707,1688,8.41897,-10.9769
490,-664,3.90771,13.2842,0,0,0,0,0,0,0,-1,1714,1688,3.90776,-13.2841
497,-664,0,0,0,0,0,0,0,0,0,-1,1721,1688,0,0
504,-664,0,0,0,0,0,0,0,0,0,-1,1728,1688,0,0
511,-664,0,0,0,0,0,0,0,0,0,-1,1735,1688,0,0
518,-664,0,0,0,0,0,0,0,0,0,-1,1742,1688,0,0
525,-664,0,0,0,0,0,0,0,0,0,-1,1749,1688,0,0
532,-664,0,0,0,0,0,0,0,0,0,-1,1756,1688,0,0
539,-664,0,0,0,0,0,0,0,0,0,-1,1763,1688,0,0
546,-664,0,0,0,0,0,0,0,0,0,-1,1770,1688,0,0
553,-664,0,0,0,0,0,0,0,0,0,-1,1777,1688,0,0
560,-664,0,0,0,0,0,0,0,0,0,-1,1784,1688,0,0
567,-664,0,0,0,0,0,0,0,0,0,-1,1791,1688,0,0
574,-664,0,0,0,0,0,0,0,0,0,-1,1798,1688,0,0
581,-664,0,0,0,0,0,0,0,0,0,-1,1805,1688,0,0
588,-664,0,0,0,0,0,0,0,0,0,-1,1812,1688,0,0
595,-664,0,0,0,0,0,0,0,0,0,-1,1819,1688,0,0
602,-664,0,0,0,0,0,0,0,0,0,-1,1826,1688,0,0
609,-664,0,0,0,0,0,0,0,0,0,-1,1833,1688,0,0
616,-664,0,0,0,0,0,0,0,0,0,-1,1840,1688,0,0
623,-664,0,0,0,0,0,0,0,0,0,-1,1847,1688,0,0
630,-664,0,0,0,0,0,0,0,0,0,-1,1854,1688,0,0
637,-664,0,0,0,0,0,0,0,0,0,-1,1861,1688,0,0
644,-664,0,0,0,0,0,0,0,0,0,-1,1868,1688,0,0
651,-664,0,0,0,0,0,0,0,0,0,-1,1875,1688,0,0
658,-664,0,0,0,0,0,0,0,0,0,-1,1882,1688,0,0
665,-664,0,0,0,0,0,0,0,0,0,-1,1889,1688,0,0
672,-664,0,0,0,0,0,0,0,0,0,-1,1896,1688,0,0
679,-664,0,0,0,0,0,0,0,0,0,-1,1903,1688,0,0
686,-664,0,0,0,0,0,0,0,0,0,-1,1910,1688,0,0
693,-664,0,0,0,0,0,0,0,0,0,-1,1917,1688,0,0
700,-664,0,0,0,0,0,0,0,0,0,-1,1924,1688,0,0
707,-664,0,0,0,0,0,0,0,0,0,-1,1931,1688,0,0
714,-664,0,0,0,0,0,0,0,0,0,-1,1938,1688,0,0
721,-664,0,0,0,0,0,0,0,0,0,-1,1945,1688,0,0
728,-664,0,0,0,0,0,0,0,0,0,-1,1952,1688,0,0
735,-664,0,0,0,0,0,0,0,0,0,-1,1959,1688,0,0
742,-664,0,0,0,0,0,0,0,0,0,-1,1966,1688,0,0
749,-664,0,0,0,0,0,0,0,0,0,-1,1973,1688,0,0
756,-664,0,0,0,0,0,0,0,0,0,-1,1980,1688,0,0
763,-664,0,0,0,0,0,0,0,0,0,-1,1987,1688,0,0
770,-664,0,0,0,0,0,0,0,0,0,-1,1994,1688,0,0
777,-664,0,0,0,0,0,0,0,0,0,-1,2001,1688,0,0
784,-664,0,0,0,0,0,0,0,0,0,-1,2008,1688,0,0
791,-664,0,0,0,0,0,0,0,0,0,-1,2015,1688,0,0
798,-664,0,0,0,0,0,0,0,0,0,-1,2022,1688,0,0
805,-664,0,0,0,0,0,0,0,0,0,-1,2029,1688,0,0
812,-664,0,0,0,0,0,0,0,0,0,-1,2036,1688,0,0
-700,-671,0,0,0,0,0,0,0,0,0,-1,524,1695,0,0
-693,-671,0,0,0,0,0,0,0,0,0,-1,531,1695,0,0
-686,-671,0,0,0,0,0,0,0,0,0,-1,538,1695,0,0
-679,-671,0,0,0,0,0,0,0,0,0,-1,545,1695,0,0
-672,-671,0,0,0,0,0,0,0,0,0,-1,552,1695,0,0
-665,-671,0,0,0,0,0,0,0,0,0,-1,559,1695,0,0
-658,-671,0,0,0,0,0,0,0,0,0,-1,566,1695,0,0
-651,-671,0,0,0,0,0,0,0,0,0,-1,573,1695,0,0
-644,-671,0,0,0,0,0,0,0,0,0,-1,580,1695,0,0
-637,-671,0,0,0,0,0,0,0,0,0,-1,587,1695,0,0
-630,-671,0,0,0,0,0,0,0,0,0,-1,594,1695,0,0
-623,-671,0,0,0,0,0,0,0,0,0,-1,601,1695,0,0
-616,-671,0,0,0,0,0,0,0,0,0,-1,608,1695,0,0
-609,-671,0,0,0,0,0,0,0,0,0,-1,615,1695,0,0
-602,-671,0,0,0,0,0,0,0,0,0,-1,622,1695,0,0
-595,-671,0,0,0,0,0,0,0,0,0,-1,629,1695,0,0
-588,-671,0,0,0,0,0,0,0,0,0,-1,636,1695,0,0
-581,-671,0,0,0,0,0,0,0,0,0,-1,643,1695,0,0
-574,-671,0,0,0,0,0,0,0,0,0,-1,650,1695,0,0
-567,-671,0,0,0,0,0,0,0,0,0,-1,657,1695,0,0
-560,-671,0,0,0,0,0,0,0,0,0,-1,664,1695,0,0
-553,-671,0,0,0,0,0,0,0,0,0,-1,671,1695,0,0
-546,-671,0,0,0,0,0,0,0,0,0,-1,678,1695,0,0
-539,-671,0,0,0,0,0,0,0,0,0,-1,685,1695,0,0
-532,-671,0,0,0,0,0,0,0,0,0,-1,692,1695,0,0
-525,-671,0,0,0,0,0,0,0,0,0,-1,699,1695,0,0
-518,-671,0,0,0,0,0,0,0,0,0,-1,706,1695,0,0
-511,-671,0,0,0,0,0,0,0,0,0,-1,713,1695,0,0
-504,-671,0,0,0,0,0,0,0,0,0,-1,720,1695,0,0
-497,-671,0,0,0,0,0,0,0,0,0,-1,727,1695,0,0
-490,-671,0,0,0,0,0,0,0,0,0,-1,734,1695,0,0
-483,-671,0,0,0,0,0,0,0,0,0,-1,741,1695,0,0
-476,-671,0,0,0,0,0,0,0,0,0,-1,748,1695,0,0
-469,-671,0,0,0,0,0,0,0,0,0,-1,755,1695,0,0
-462,-671,0,0,0,0,0,0,0,0,0,-1,762,1695,0,0
-455,-671,0,0,0,0,0,0,0,0,0,-1,769,1695,0,0
-448,-671,0,0,0,0,0,0,0,0,0,-1,776,1695,0,0
-441,-671,0,0,0,0,0,0,0,0,0,-1,783,1695,0,0
-434,-671,0,0,0,0,0,0,0,0,0,-1,790,1695,0,0
-427,-671,0,0,0,0,0,0,0,0,0,-1,797,1695,0,0
-420,-671,0,0,0,0,0,0,0,0,0,-1,804,1695,0,0
-413,-671,0,0,0,0,0,0,0,0,0,-1,811,1695,0,0
-406,-671,0,0,0,0,0,0,0,0,0,-1,818,1695,0,0
-399,-671,0,0,0,0,0,0,0,0,0,-1,825,1695,0,0
-392,-671,0,0,0,0,0,0,0,0,0,-1,832,1695,0,0
-385,-671,0,0,0,0,0,0,0,0,0,-1,839,1695,0,0
-378,-671,0,0,0,0,0,0,0,0,0,-1,846,1695,0,0
-371,-671,0,0,0,0,0,0,0,0,0,-1,853,1695,0,0
-364,-671,-4.18738,7.51416,0,0,0,0,0,0,0,-1,860,1695,-4.18739,-7.51419
-357,-671,-5.02393,6.07129,0,0,0,0,0,0,0,-1,867,1695,-5.0239,-6.07135
-350,-671,-5.72333,4.58386,0,0,0,0,0,0,0,-1,874,1695,-5.72333,-4.58386
-343,-671,-6.4884,3.11353,0,0,0,0,0,0,0,-1,881,1695,-6.48839,-3.11349
-336,-671,2.55884,15.6338,0,0,0,0,0,0,0,-1,888,1695,2.55886,-15.6338
-329,-671,2.71729,16.1058,0,0,0,0,0,0,0,-1,895,1695,2.71729,-16.1058
-322,-671,7.14117,22.0459,0,0,0,0,0,0,0,-1,902,1695,7.1412,-22.0459
-315,-671,5.69305,23.7419,0,0,0,0,0,0,0,-1,909,1695,5.69306,-23.742
-308,-671,5.76251,23.4701,0,0,0,0,0,0,0,-1,916,1695,5.76252,-23.4701
-301,-671,8.0578,23.4189,0,0,0,0,0,0,0,-1,923,1695,8.05783,-23.419
-294,-671,6.01135,25.2225,0,0,0,0,0,0,0,-1,930,1695,6.01132,-25.2225
-287,-671,6.11462,25.8035,-0.00507883,-0.00185143,-0.00132161,-0.0013793,-0.00555096,-1.22769,0.00333727,0.0482551,937,1695,6.11461,-25.8034
-280,-671,5.90417,26.3665,-0.00369241,-0.00131005,-0.00101337,-0.000937313,-0.00406515,-1.21834,0.00245797,0.0396871,944,1695,5.90419,-26.3665
-273,-671,5.78125,26.5349,-0.00258605,-0.000520178,-0.000567933,-0.000374341,-0.00273189,-1.31944,0.00171019,0.0328841,951,1695,5.78123,-26.5349
-266,-671,5.90356,26.8373,-0.00125718,0.000176124,7.30843e-05,0.000179841,-0.0012609,1.51998,0.000906511,0.0246377,958,1695,5.90357,-26.8372
-259,-671,5.77649,27.1672,-0.000532168,7.06557e-05,0.000364443,0.000242179,-0.000703692,1.13091,0.000567354,0.0225303,965,1695,5.77652,-27.1672
-252,-671,5.79248,27.4946,-0.000167491,-0.000400126,0.000915428,0.00063898,-0.0012066,0.722205,0.00108221,0.0168018,972,1695,5.79246,-27.4947
-245,-671,5.78369,27.8807,0.000115122,-0.000433974,0.00122888,0.00109975,-0.0014186,0.675497,0.00145785,0.0196137,979,1695,5.78368,-27.8808
-238,-671,5.8056,28.2189,0.000318061,-0.000535759,0.00150724,0.00145768,-0.00167538,0.647393,0.00181033,0.0195058,986,1695,5.80561,-28.2189
-231,-671,5.80377,28.5186,0.000649393,-0.00064278,0.00176565,0.00188345,-0.00187684,0.610005,0.002171,0.0140659,993,1695,5.80378,-28.5185
-224,-671,5.7558,28.8398,0.000940442,-0.000480607,0.00197216,0.00232617,-0.00186633,0.612498,0.00242539,0.011544,1000,1695,5.7558,-28.8399
-217,-671,5.73883,29.1632,0.000993093,-0.000659143,0.00197602,0.00230874,-0.00197479,0.587405,0.0024756,0.0107799,1007,1695,5.7388,-29.1632
-210,-671,5.74634,29.4978,0.00106743,-0.000676688,0.00189158,0.0022783,-0.00188755,0.569407,0.00240868,0.0104177,1014,1695,5.74637,-29.4978
-203,-671,5.72363,29.7745,0.00127351,-0.000738401,0.00166754,0.00221503,-0.00167992,0.513993,0.00225581,0.0186668,1021,1695,5.72368,-29.7745
-196,-671,5.73303,30.0709,0.00140379,-0.000576799,0.0013579,0.00209414,-0.00126715,0.470344,0.00196013,0.0158205,1028,1695,5.73309,-30.0709
-189,-671,5.73792,30.4121,0.00148613,-0.000274696,0.000973697,0.00191843,-0.000706995,0.417834,0.00156866,0.0114362,1035,1695,5.73786,-30.4121
-182,-671,5.72559,30.6902,0.00171502,0.000234724,0.000591141,0.00192211,2.76305e-05,0.336967,0.0012723,0.00949339,1042,1695,5.72553,-30.6902
-175,-671,5.72278,30.9384,0.00217655,0.000975951,0.000404044,0.00229986,0.000852641,0.296211,0.00134254,0.0133256,1049,1695,5.72282,-30.9383
-168,-671,5.71497,31.2053,0.0024972,0.00190343,0.000147887,0.00253199,0.00186864,0.231076,0.00151605,0.0147637,1056,1695,5.71501,-31.2053
-161,-671,5.70691,31.5016,0.00285707,0.00284453,-5.22964e-05,0.00290347,0.00279813,-0.725754,0.00190151,0.00976765,1063,1695,5.70688,-31.5015
-154,-671,5.73828,31.754,0.00331445,0.00427505,-0.000202657,0.00431606,0.00327345,-1.37116,0.00260046,0.00866933,1070,1695,5.73824,-31.754
-147,-671,5.7644,32.0128,0.00384038,0.00578144,-0.000274723,0.00581957,0.00380225,-1.43287,0.0034122,0.0100241,1077,1695,5.76445,-32.0128
-140,-671,5.79858,32.2596,0.00432311,0.00748486,-0.000295174,0.00751218,0.00429579,-1.4785,0.00435206,0.0122801,1084,1695,5.79862,-32.2597
-133,-671,5.80579,32.498,0.00476433,0.00930873,-0.000313802,0.00933029,0.00474277,-1.50218,0.0053871,0.0167081,1091,1695,5.8058,-32.4981
-126,-671,5.82239,32.7784,0.00529708,0.0113333,-0.000322624,0.0113504,0.00527989,-1.51755,0.00655848,0.0237764,1098,1695,5.82235,-32.7784
-119,-671,5.87891,33.2341,0.00595797,0.0130579,-0.000332429,0.0130735,0.00594244,-1.52411,0.00755836,0.0408677,1105,1695,5.87894,-33.2342
-112,-671,6.00769,33.5024,0,0,0,0,0,0,0,-1,1112,1695,6.00765,-33.5025
-105,-671,6.1792,33.613,0,0,0,0,0,0,0,-1,1119,1695,6.17924,-33.613
-98,-671,5.75732,33.9375,0,0,0,0,0,0,0,-1,1126,1695,5.75728,-33.9375
-91,-671,5.89795,31.6277,0,0,0,0,0,0,0,-1,1133,1695,5.89796,-31.6277
-84,-671,5.4209,26.2415,0,0,0,0,0,0,0,-1,1140,1695,5.42096,-26.2414
-77,-671,4.31763,16.489,0,0,0,0,0,0,0,-1,1147,1695,4.31757,-16.489
-70,-671,3.06067,10.7737,0,0,0,0,0,0,0,-1,1154,1695,3.0607,-10.7737
-63,-671,2.94592,6.90198,0,0,0,0,0,0,0,-1,1161,1695,2.94594,-6.90198
-56,-671,-3.07678,2.87976,0,0,0,0,0,0,0,-1,1168,1695,-3.07675,-2.87979
-49,-671,-1.05957,4.76917,0,0,0,0,0,0,0,-1,1175,1695,-1.05958,-4.76921
-42,-671,0.539307,3.7865,0,0,0,0,0,0,0,-1,1182,1695,0.539266,-3.78648
-35,-671,-0.272461,0.347534,0,0,0,0,0,0,0,-1,1189,1695,-0.272434,-0.347569
-28,-671,-10.4878,17.2009,0,0,0,0,0,0,0,-1,1196,1695,-10.4878,-17.2009
-21,-671,7.16602,35.8138,0,0,0,0,0,0,0,-1,1203,1695,7.16603,-35.8139
-14,-671,7.3562,35.8175,0.00984713,0.0479277,0.0199537,0.0564679,0.00130698,1.16639,0.0372173,0.0426219,1210,1695,7.35618,-35.8175
-7,-671,7.3783,35.7461,0.00866147,0.0523274,0.0194157,0.0597117,0.00127717,1.20736,0.039389,0.0473485,1217,1695,7.3783,-35.7461
0,-671,7.31274,35.7903,0.00821882,0.0573156,0.0184837,0.0634962,0.00203822,1.2481,0.041668,0.0465545,1224,1695,7.31276,-35.7902
7,-671,6.60938,35.7249,0.00805312,0.0621396,0.0171934,0.0671424,0.00305032,1.28764,0.0437803,0.0415031,1231,1695,6.60938,-35.7249
14,-671,6.15466,35.6826,0.00774072,0.0667794,0.0150042,0.0703738,0.00414636,1.33567,0.0455966,0.0416133,1238,1695,6.15466,-35.6826
21,-671,5.77197,35.6462,0.00716197,0.0695559,0.0119406,0.0717629,0.00495492,1.38802,0.0462788,0.0465602,1245,1695,5.77198,-35.6463
28,-671,7.22681,35.1469,0.00552811,0.0706464,0.00803983,0.0716243,0.00455016,1.44975,0.0463074,0.0468643,1252,1695,7.22684,-35.1468
35,-671,7.09473,34.6079,0.00280558,0.0703815,0.00380719,0.0705953,0.00259176,1.51469,0.0462239,0.0469382,1259,1695,7.09474,-34.6079
42,-671,6.97485,34.1488,-0.000631442,0.0691416,-0.000617629,0.0691471,-0.000636913,-1.56195,0.0463118,0.0460617,1266,1695,6.97484,-34.1488
49,-671,8.10693,36.4473,-0.0044861,0.0662404,-0.00547134,0.0666612,-0.00490686,-1.49405,0.0461634,0.0433371,1273,1695,8.10698,-36.4472
56,-671,9.21692,36.6239,0,0,0,0,0,0,0,-1,1280,1695,9.21691,-36.6239
63,-671,7.25623,37.714,0,0,0,0,0,0,0,-1,1287,1695,7.25624,-37.714
70,-671,7.54041,37.4733,-0.0177584,0.0555422,-0.021218,0.061241,-0.0234572,-1.3084,0.0504964,0.0467459,1294,1695,7.54044,-37.4733
77,-671,7.52222,37.2844,-0.0232154,0.0522965,-0.0258918,0.0603215,-0.0312404,-1.27024,0.0537448,0.0443532,1301,1695,7.52226,-37.2845
84,-671,7.56543,37.1671,-0.0283977,0.0477015,-0.0292324,0.0576342,-0.0383304,-1.24325,0.0557776,0.048536,1308,1695,7.56546,-37.1671
91,-671,6.71167,37.8293,-0.0318387,0.0438298,-0.0320238,0.0555633,-0.0435722,-1.21959,0.0573753,0.0478859,1315,1695,6.71165,-37.8293
98,-671,6.09009,38.141,0,0,0,0,0,0,0,-1,1322,1695,6.09004,-38.141
105,-671,7.65479,36.3304,0,0,0,0,0,0,0,-1,1329,1695,7.65483,-36.3305
112,-671,7.95813,35.687,-0.0348318,0.0391141,-0.0349757,0.0530361,-0.0487538,-1.19197,0.0587858,0.0420826,1336,1695,7.95815,-35.687
119,-671,5.08069,35.4084,-0.033682,0.0377348,-0.0338502,0.0512293,-0.0471765,-1.19145,0.0568307,0.0463432,1343,1695,5.08069,-35.4084
126,-671,4.2356,35.843,0,0,0,0,0,0,0,-1,1350,1695,4.23554,-35.8431
133,-671,8.58716,34.5654,0,0,0,0,0,0,0,-1,1357,1695,8.58712,-34.5654
140,-671,8.84534,34.7587,0,0,0,0,0,0,0,-1,1364,1695,8.84534,-34.7587
147,-671,9.10352,34.9519,0,0,0,0,0,0,0,-1,1371,1695,9.10356,-34.952
154,-671,8.33594,35.5099,0,0,0,0,0,0,0,-1,1378,1695,8.33599,-35.5098
161,-671,4.49292,4.91272,0,0,0,0,0,0,0,-1,1385,1695,4.49297,-4.91273
168,-671,5.17639,6.1416,0,0,0,0,0,0,0,-1,1392,1695,5.1764,-6.14164
175,-671,5.6731,1.64685,0,0,0,0,0,0,0,-1,1399,1695,5.67313,-1.64691
182,-671,5.56812,1.71692,0,0,0,0,0,0,0,-1,1406,1695,5.56809,-1.71686
189,-671,6.98315,6.36169,0,0,0,0,0,0,0,-1,1413,1695,6.98312,-6.36175
196,-671,5.38123,5.69775,0,0,0,0,0,0,0,-1,1420,1695,5.38125,-5.69769
203,-671,5.95117,8.11658,0,0,0,0,0,0,0,-1,1427,1695,5.9512,-8.11662
210,-671,4.73596,8.39624,0,0,0,0,0,0,0,-1,1434,1695,4.736,-8.39618
217,-671,5.37097,11.863,0,0,0,0,0,0,0,-1,1441,1695,5.37094,-11.863
224,-671,5.08167,13.6694,0,0,0,0,0,0,0,-1,1448,1695,5.08165,-13.6695
231,-671,5.66663,15.3348,0,0,0,0,0,0,0,-1,1455,1695,5.66667,-15.3349
238,-671,6.32959,16.2036,0,0,0,0,0,0,0,-1,1462,1695,6.32961,-16.2037
245,-671,9.09692,31.6698,0,0,0,0,0,0,0,-1,1469,1695,9.09694,-31.6698
252,-671,8.87866,32.8911,0,0,0,0,0,0,0,-1,1476,1695,8.87867,-32.8911
259,-671,8.92297,32.9669,0,0,0,0,0,0,0,-1,1483,1695,8.92303,-32.9669
266,-671,8.91956,32.6575,0.00240825,0.000115279,0.000537097,0.00252782,-4.29305e-06,0.219055,0.00168665,0.0373295,1490,1695,8.9195,-32.6575
273,-671,8.97693,32.4771,0.00226944,3.79782e-05,0.000510337,0.00238062,-7.31971e-05,0.214496,0.00161203,0.0122043,1497,1695,8.97697,-32.4771
280,-671,8.99353,32.2566,0.00204188,0.000254794,0.000452513,0.00214993,0.000146745,0.234387,0.00138696,0.00889468,1504,1695,8.99349,-32.2566
287,-671,9.00403,31.9518,0.00180468,0.000284091,0.000349083,0.00188099,0.000207781,0.215215,0.00119079,0.0103735,1511,1695,9.00406,-31.9518
294,-671,8.99829,31.6859,0.00178588,0.000545494,3.93826e-05,0.00178713,0.000544244,0.0317076,0.00105776,0.0107331,1518,1695,8.99825,-31.6859
301,-671,9.01831,31.4745,0.00176675,0.000800013,-0.000232647,0.00181982,0.00074694,-0.22429,0.00105628,0.0102219,1525,1695,9.01828,-31.4745
308,-671,9.04724,31.2512,0.00167693,0.00098643,-0.000472713,0.00191705,0.000746313,-0.469992,0.00111581,0.0114321,1532,1695,9.04727,-31.2512
315,-671,9.052,30.976,0.00156717,0.00117809,-0.00066205,0.00206267,0.000682587,-0.642498,0.00121336,0.0132618,1539,1695,9.05202,-30.976
322,-671,9.05823,30.7087,0.00141188,0.00127436,-0.000791239,0.00213734,0.000548902,-0.742056,0.00128172,0.015859,1546,1695,9.05817,-30.7088
329,-671,9.03638,30.4614,0.00123081,0.00124425,-0.000879649,0.0021172,0.000357855,-0.78922,0.0013086,0.0141934,1553,1695,9.03632,-30.4614
336,-671,9.03821,30.1501,0.00101793,0.00107606,-0.000886768,0.00193424,0.00015975,-0.801779,0.00123968,0.0106424,1560,1695,9.03824,-30.1502
343,-671,9.0437,29.8488,0.000779571,0.000769664,-0.000866571,0.0016412,-9.1968e-05,-0.78254,0.00112604,0.0105213,1567,1695,9.04364,-29.8488
350,-671,9.04065,29.5796,0.000559153,7.49185e-05,-0.000807861,0.0011604,-0.000526327,-0.639807,0.000996504,0.0109052,1574,1695,9.04061,-29.5795
357,-671,9.0415,29.2336,0.000311273,-0.000981182,-0.000634807,0.000570909,-0.00124082,-0.388242,0.00106957,0.0109062,1581,1695,9.04153,-29.2337
364,-671,9.02319,28.9282,0.000100725,-0.00234678,-0.000378076,0.000157797,-0.00240386,-0.149823,0.00165768,0.0132498,1588,1695,9.02317,-28.9282
371,-671,8.98779,28.6715,-7.90278e-05,-0.00380228,-9.01454e-05,-7.68466e-05,-0.00380446,-0.0241926,0.00251109,0.0147087,1595,1695,8.98776,-28.6715
378,-671,8.98804,28.3605,-0.000234235,-0.00550549,0.000205754,-0.000226216,-0.00551351,0.0389542,0.00360264,0.0126566,1602,1695,8.98807,-28.3605
385,-671,8.98315,28.0319,-0.000320544,-0.00728925,0.000461499,-0.000290114,-0.00731968,0.0658412,0.00478602,0.0148886,1609,1695,8.98318,-28.0318
392,-671,8.91418,27.7494,-0.00047839,-0.00948784,0.000791188,-0.000409437,-0.00955679,0.0869309,0.00623919,0.0192001,1616,1695,8.91417,-27.7494
399,-671,8.90515,27.373,-0.000645555,-0.0117156,0.00102456,-0.000551528,-0.0118097,0.0915168,0.00769585,0.0163196,1623,1695,8.90514,-27.3731
406,-671,8.94348,27.0461,-0.000837824,-0.0137993,0.00137308,-0.000693963,-0.0139431,0.104391,0.00907296,0.027011,1630,1695,8.9435,-27.0461
413,-671,8.89709,26.9469,-0.000942455,-0.0155238,0.00167766,-0.000751922,-0.0157144,0.113086,0.0102348,0.0427323,1637,1695,8.89713,-26.947
420,-671,8.9668,26.8401,0,0,0,0,0,0,0,-1,1644,1695,8.96678,-26.8401
427,-671,9.31738,21.7188,0,0,0,0,0,0,0,-1,1651,1695,9.31735,-21.7187
434,-671,9.66528,26.177,0,0,0,0,0,0,0,-1,1658,1695,9.66528,-26.177
441,-671,8.34961,20.6522,0,0,0,0,0,0,0,-1,1665,1695,8.34964,-20.6522
448,-671,7.44873,20.2306,0,0,0,0,0,0,0,-1,1672,1695,7.44872,-20.2306
455,-671,6.62805,19.8612,0,0,0,0,0,0,0,-1,1679,1695,6.62811,-19.8612
462,-671,5.86255,4.47961,0,0,0,0,0,0,0,-1,1686,1695,5.8625,-4.4796
469,-671,3.71301,3.76978,0,0,0,0,0,0,0,-1,1693,1695,3.71297,-3.76974
476,-671,3.75574,3.18848,0,0,0,0,0,0,0,-1,1700,1695,3.7558,-3.18847
483,-671,7.81824,12.1041,0,0,0,0,0,0,0,-1,1707,1695,7.81826,-12.1041
490,-671,0,0,0,0,0,0,0,0,0,-1,1714,1695,0,0
497,-671,0,0,0,0,0,0,0,0,0,-1,1721,1695,0,0
504,-671,0,0,0,0,0,0,0,0,0,-1,1728,1695,0,0
511,-671,0,0,0,0,0,0,0,0,0,-1,1735,1695,0,0
518,-671,0,0,0,0,0,0,0,0,0,-1,1742,1695,0,0
525,-671,0,0,0,0,0,0,0,0,0,-1,1749,1695,0,0
532,-671,0,0,0,0,0,0,0,0,0,-1,1756,1695,0,0
539,-671,0,0,0,0,0,0,0,0,0,-1,1763,1695,0,0
546,-671,0,0,0,0,0,0,0,0,0,-1,1770,1695,0,0
553,-671,0,0,0,0,0,0,0,0,0,-1,1777,1695,0,0
560,-671,0,0,0,0,0,0,0,0,0,-1,1784,1695,0,0
567,-671,0,0,0,0,0,0,0,0,0,-1,1791,1695,0,0
574,-671,0,0,0,0,0,0,0,0,0,-1,1798,1695,0,0
581,-671,0,0,0,0,0,0,0,0,0,-1,1805,1695,0,0
588,-671,0,0,0,0,0,0,0,0,0,-1,1812,1695,0,0
595,-671,0,0,0,0,0,0,0,0,0,-1,1819,1695,0,0
602,-671,0,0,0,0,0,0,0,0,0,-1,1826,1695,0,0
609,-671,0,0,0,0,0,0,0,0,0,-1,1833,1695,0,0
616,-671,0,0,0,0,0,0,0,0,0,-1,1840,1695,0,0
623,-671,0,0,0,0,0,0,0,0,0,-1,1847,1695,0,0
630,-671,0,0,0,0,0,0,0,0,0,-1,1854,1695,0,0
637,-671,0,0,0,0,0,0,0,0,0,-1,1861,1695,0,0
644,-671,0,0,0,0,0,0,0,0,0,-1,1868,1695,0,0
651,-671,0,0,0,0,0,0,0,0,0,-1,1875,1695,0,0
658,-671,0,0,0,0,0,0,0,0,0,-1,1882,1695,0,0
665,-671,0,0,0,0,0,0,0,0,0,-1,1889,1695,0,0
672,-671,0,0,0,0,0,0,0,0,0,-1,1896,1695,0,0
679,-671,0,0,0,0,0,0,0,0,0,-1,1903,1695,0,0
686,-671,0,0,0,0,0,0,0,0,0,-1,1910,1695,0,0
693,-671,0,0,0,0,0,0,0,0,0,-1,1917,1695,0,0
700,-671,0,0,0,0,0,0,0,0,0,-1,1924,1695,0,0
707,-671,0,0,0,0,0,0,0,0,0,-1,1931,1695,0,0
714,-671,0,0,0,0,0,0,0,0,0,-1,1938,1695,0,0
721,-671,0,0,0,0,0,0,0,0,0,-1,1945,1695,0,0
728,-671,0,0,0,0,0,0,0,0,0,-1,1952,1695,0,0
735,-671,0,0,0,0,0,0,0,0,0,-1,1959,1695,0,0
742,-671,0,0,0,0,0,0,0,0,0,-1,1966,1695,0,0
749,-671,0,0,0,0,0,0,0,0,0,-1,1973,1695,0,0
756,-671,0,0,0,0,0,0,0,0,0,-1,1980,1695,0,0
763,-671,0,0,0,0,0,0,0,0,0,-1,1987,1695,0,0
770,-671,0,0,0,0,0,0,0,0,0,-1,1994,1695,0,0
777,-671,0,0,0,0,0,0,0,0,0,-1,2001,1695,0,0
784,-671,0,0,0,0,0,0,0,0,0,-1,2008,1695,0,0
791,-671,0,0,0,0,0,0,0,0,0,-1,2015,1695,0,0
798,-671,0,0,0,0,0,0,0,0,0,-1,2022,1695,0,0
805,-671,0,0,0,0,0,0,0,0,0,-1,2029,1695,0,0
812,-671,0,0,0,0,0,0,0,0,0,-1,2036,1695,0,0
-700,-678,0,0,0,0,0,0,0,0,0,-1,524,1702,0,0
-693,-678,0,0,0,0,0,0,0,0,0,-1,531,1702,0,0
-686,-678,0,0,0,0,0,0,0,0,0,-1,538,1702,0,0
-679,-678,0,0,0,0,0,0,0,0,0,-1,545,1702,0,0
-672,-678,0,0,0,0,0,0,0,0,0,-1,552,1702,0,0
-665,-678,0,0,0,0,0,0,0,0,0,-1,559,1702,0,0
-658,-678,0,0,0,0,0,0,0,0,0,-1,566,1702,0,0
-651,-678,0,0,0,0,0,0,0,0,0,-1,573,1702,0,0
-644,-678,0,0,0,0,0,0,0,0,0,-1,580,1702,0,0
-637,-678,0,0,0,0,0,0,0,0,0,-1,587,1702,0,0
-630,-678,0,0,0,0,0,0,0,0,0,-1,594,1702,0,0
-623,-678,0,0,0,0,0,0,0,0,0,-1,601,1702,0,0
-616,-678,0,0,0,0,0,0,0,0,0,-1,608,1702,0,0
-609,-678,0,0,0,0,0,0,0,0,0,-1,615,1702,0,0
-602,-678,0,0,0,0,0,0,0,0,0,-1,622,1702,0,0
-595,-678,0,0,0,0,0,0,0,0,0,-1,629,1702,0,0
-588,-678,0,0,0,0,0,0,0,0,0,-1,636,1702,0,0
-581,-678,0,0,0,0,0,0,0,0,0,-1,643,1702,0,0
-574,-678,0,0,0,0,0,0,0,0,0,-1,650,1702,0,0
-567,-678,0,0,0,0,0,0,0,0,0,-1,657,1702,0,0
-560,-678,0,0,0,0,0,0,0,0,0,-1,664,1702,0,0
-553,-678,0,0,0,0,0,0,0,0,0,-1,671,1702,0,0
-546,-678,0,0,0,0,0,0,0,0,0,-1,678,1702,0,0
-539,-678,0,0,0,0,0,0,0,0,0,-1,685,1702,0,0
-532,-678,0,0,0,0,0,0,0,0,0,-1,692,1702,0,0
-525,-678,0,0,0,0,0,0,0,0,0,-1,699,1702,0,0
-518,-678,0,0,0,0,0,0,0,0,0,-1,706,1702,0,0
-511,-678,0,0,0,0,0,0,0,0,0,-1,713,1702,0,0
-504,-678,0,0,0,0,0,0,0,0,0,-1,720,1702,0,0
-497,-678,0,0,0,0,0,0,0,0,0,-1,727,1702,0,0
-490,-678,0,0,0,0,0,0,0,0,0,-1,734,1702,0,0
-483,-678,0,0,0,0,0,0,0,0,0,-1,741,1702,0,0
-476,-678,0,0,0,0,0,0,0,0,0,-1,748,1702,0,0
-469,-678,0,0,0,0,0,0,0,0,0,-1,755,1702,0,0
-462,-678,0,0,0,0,0,0,0,0,0,-1,762,1702,0,0
-455,-678,0,0,0,0,0,0,0,0,0,-1,769,1702,0,0
-448,-678,0,0,0,0,0,0,0,0,0,-1,776,1702,0,0
-441,-678,0,0,0,0,0,0,0,0,0,-1,783,1702,0,0
-434,-678,0,0,0,0,0,0,0,0,0,-1,790,1702,0,0
-427,-678,0,0,0,0,0,0,0,0,0,-1,797,1702,0,0
-420,-678,0,0,0,0,0,0,0,0,0,-1,804,1702,0,0
-413,-678,0,0,0,0,0,0,0,0,0,-1,811,1702,0,0
-406,-678,0,0,0,0,0,0,0,0,0,-1,818,1702,0,0
-399,-678,0,0,0,0,0,0,0,0,0,-1,825,1702,0,0
-392,-678,0,0,0,0,0,0,0,0,0,-1,832,1702,0,0
-385,-678,0,0,0,0,0,0,0,0,0,-1,839,1702,0,0
-378,-678,0,0,0,0,0,0,0,0,0,-1,846,1702,0,0
-371,-678,0,0,0,0,0,0,0,0,0,-1,853,1702,0,0
-364,-678,0,0,0,0,0,0,0,0,0,-1,860,1702,0,0
-357,-678,0,0,0,0,0,0,0,0,0,-1,867,1702,0,0
-350,-678,-5.79944,6.11865,0,0,0,0,0,0,0,-1,874,1702,-5.79942,-6.11864
-343,-678,-6.44891,4.52759,0,0,0,0,0,0,0,-1,881,1702,-6.4489,-4.52758
-336,-678,-6.91888,2.99438,0,0,0,0,0,0,0,-1,888,1702,-6.9189,-2.99435
-329,-678,-7.14575,1.29761,0,0,0,0,0,0,0,-1,895,1702,-7.14577,-1.29755
-322,-678,3.78455,20.3917,0,0,0,0,0,0,0,-1,902,1702,3.78457,-20.3917
-315,-678,4.74176,22.3245,0,0,0,0,0,0,0,-1,909,1702,4.74178,-22.3244
-308,-678,8.02203,23.7128,0,0,0,0,0,0,0,-1,916,1702,8.02202,-23.7127
-301,-678,7.6629,24.095,0,0,0,0,0,0,0,-1,923,1702,7.66288,-24.0949
-294,-678,7.15601,24.7834,0,0,0,0,0,0,0,-1,930,1702,7.15603,-24.7835
-287,-678,6.54749,25.8763,0,0,0,0,0,0,0,-1,937,1702,6.54748,-25.8763
-280,-678,5.96765,26.6245,-0.00416952,-0.00080732,-0.00178472,-3.66182e-05,-0.00494022,-1.16315,0.00328134,0.0493252,944,1702,5.96764,-26.6245
-273,-678,5.9248,26.274,-0.00277805,6.94812e-05,-0.00110185,0.000446043,-0.00315462,-1.24149,0.00226644,0.0419481,951,1702,5.92483,-26.274
-266,-678,6.17365,26.8514,-0.0012477,0.000852397,-0.000178826,0.000867515,-0.00126281,-1.48645,0.00123698,0.0366047,958,1702,6.17366,-26.8514
-259,-678,6.12732,27.1799,-0.000121289,-0.000157335,0.000508515,0.000369522,-0.000648146,0.767685,0.000594846,0.0239005,965,1702,6.1273,-27.1799
-252,-678,6.14337,27.5007,0.000603088,-0.0016797,0.00162026,0.00144362,-0.00252023,0.478544,0.0023165,0.017322,972,1702,6.14339,-27.5008
-245,-678,6.12555,27.8702,0.000983479,-0.00216951,0.00217948,0.00209686,-0.0032829,0.472289,0.00313107,0.0179949,979,1702,6.12552,-27.8703
-238,-678,6.1015,28.1997,0.00118947,-0.00263915,0.00263674,0.00253353,-0.00398321,0.471412,0.00379334,0.0146986,986,1702,6.10148,-28.1997
-231,-678,6.08136,28.5194,0.0015445,-0.00302161,0.00301914,0.00304662,-0.00452373,0.461672,0.00439839,0.0122276,993,1702,6.08134,-28.5194
-224,-678,6.05231,28.833,0.00185711,-0.00306106,0.00331362,0.00352442,-0.00472838,0.466181,0.00478163,0.0128329,1000,1702,6.05228,-28.833
-217,-678,6.04706,29.1722,0.00187003,-0.00346242,0.00342452,0.00354386,-0.00513626,0.45463,0.0050395,0.0129255,1007,1702,6.04707,-29.1723
-210,-678,6.03613,29.5214,0.00185112,-0.00348827,0.00342193,0.00352157,-0.00515872,0.454131,0.00504119,0.0128322,1014,1702,6.03613,-29.5213
-203,-678,6.00977,29.7894,0.00191791,-0.00341511,0.00321365,0.00342727,-0.00492447,0.43909,0.00484763,0.0176141,1021,1702,6.00982,-29.7895
-196,-678,6.005,30.0791,0.00189998,-0.00305598,0.00284816,0.00319723,-0.00435324,0.427395,0.00437627,0.0177114,1028,1702,6.00502,-30.0791
-189,-678,6.01062,30.4071,0.00183518,-0.00250158,0.00238926,0.00289332,-0.00355972,0.416912,0.00373228,0.0103089,1035,1702,6.01059,-30.4071
-182,-678,6.01416,30.7131,0.00187641,-0.00171825,0.00192352,0.00271162,-0.00255347,0.409649,0.00304026,0.0100589,1042,1702,6.01421,-30.7131
-175,-678,5.9928,30.99,0.00211497,-0.000720543,0.0016065,0.00283984,-0.00144542,0.423863,0.00251738,0.0109056,1049,1702,5.99278,-30.99
-168,-678,5.97925,31.2449,0.00224114,0.000364752,0.00121419,0.00283737,-0.000231485,0.456467,0.00197327,0.010372,1056,1702,5.97924,-31.2448
-161,-678,5.98376,31.5002,0.00236199,0.00144919,0.000855397,0.00287513,0.000936048,0.540333,0.00169329,0.00916912,1063,1702,5.98373,-31.5002
-154,-678,5.99792,31.7529,0.00257541,0.00297193,0.000528191,0.00333785,0.0022095,0.964938,0.00196051,0.00839819,1070,1702,5.99791,-31.753
-147,-678,6.00952,32.0094,0.00288275,0.00447583,0.000223931,0.00450671,0.00285187,1.43377,0.00263237,0.00996177,1077,1702,6.00954,-32.0094
-140,-678,6.03271,32.2711,0.00318554,0.00588975,5.38792e-05,0.00589082,0.00318447,1.55088,0.0034048,0.0115805,1084,1702,6.03276,-32.2711
-133,-678,6.06641,32.5109,0.00346349,0.00730987,-0.00012325,0.00731382,0.00345955,-1.5388,0.00422468,0.0129297,1091,1702,6.06642,-32.5109
-126,-678,6.06042,32.7729,0.00380218,0.00880626,-0.000287234,0.00882269,0.00378575,-1.51365,0.00511083,0.0114706,1098,1702,6.06038,-32.773
-119,-678,6.08459,33.2,0.00423714,0.0100227,-0.000412975,0.010052,0.00420781,-1.49989,0.0058291,0.0282409,1105,1702,6.08454,-33.1999
-112,-678,5.83667,33.7604,0,0,0,0,0,0,0,-1,1112,1702,5.83669,-33.7604
-105,-678,6.1084,33.7156,0.00479114,0.0118164,-0.000356062,0.0118344,0.00477314,-1.52029,0.00687503,0.0447072,1119,1702,6.10845,-33.7155
-98,-678,6.11084,33.7188,0.00488532,0.0127011,-0.000442484,0.012726,0.00486035,-1.51442,0.00741536,0.0261001,1126,1702,6.11087,-33.7188
-91,-678,6.23792,33.7877,0,0,0,0,0,0,0,-1,1133,1702,6.23796,-33.7877
-84,-678,6.34399,34.167,0,0,0,0,0,0,0,-1,1140,1702,6.34396,-34.1669
-77,-678,5.95154,29.1879,0,0,0,0,0,0,0,-1,1147,1702,5.95156,-29.1878
-70,-678,4.75891,19.6552,0,0,0,0,0,0,0,-1,1154,1702,4.75895,-19.6551
-63,-678,3.41687,11.0365,0,0,0,0,0,0,0,-1,1161,1702,3.41682,-11.0365
-56,-678,1.72388,6.13159,0,0,0,0,0,0,0,-1,1168,1702,1.72388,-6.13157
-49,-678,-0.241699,5.29895,0,0,0,0,0,0,0,-1,1175,1702,-0.241682,-5.29897
-42,-678,0.297119,3.90649,0,0,0,0,0,0,0,-1,1182,1702,0.297139,-3.90655
-35,-678,0.498413,3.64038,0,0,0,0,0,0,0,-1,1189,1702,0.498471,-3.64038
-28,-678,0.132446,3.55994,0,0,0,0,0,0,0,-1,1196,1702,0.132432,-3.55993
-21,-678,6.54285,35.4023,0,0,0,0,0,0,0,-1,1203,1702,6.5428,-35.4024
-14,-678,6.94141,35.6559,0.00749286,0.0374704,0.0146803,0.043462,0.00150131,1.1833,0.0284874,0.0395449,1210,1702,6.94135,-35.6559
-7,-678,7.27771,35.5834,0.00680994,0.0405554,0.0144462,0.0458949,0.00147048,1.21676,0.0301184,0.0429608,1217,1702,7.27766,-35.5834
0,-678,7.27197,35.6257,0.00659821,0.043623,0.0142252,0.0484573,0.00176395,1.2432,0.0317332,0.0440834,1224,1702,7.27192,-35.6258
7,-678,6.86414,35.8829,0.00647194,0.0469206,0.0135327,0.0510306,0.00236198,1.27594,0.033261,0.0445722,1231,1702,6.86411,-35.883
14,-678,5.14148,35.8387,0.0064243,0.0503568,0.0122186,0.0535264,0.00325473,1.31698,0.0346503,0.0469665,1238,1702,5.14151,-35.8387
21,-678,7.37537,37.0302,0,0,0,0,0,0,0,-1,1245,1702,7.37537,-37.0301
28,-678,7.26721,35.499,0.00539138,0.0538119,0.00751546,0.0549516,0.00425171,1.4203,0.0353026,0.0431154,1252,1702,7.26718,-35.4991
35,-678,7.64978,35.4369,0.0035565,0.0542463,0.0044714,0.0546377,0.0031651,1.48348,0.0354173,0.0440838,1259,1702,7.64973,-35.4369
42,-678,8.01135,35.3643,0,0,0,0,0,0,0,-1,1266,1702,8.01135,-35.3642
49,-678,7.77686,36.2689,-0.00178075,0.0525592,-0.00266735,0.0526898,-0.00191137,-1.52187,0.0357807,0.0453836,1273,1702,7.7768,-36.2689
56,-678,7.08337,37.3645,-0.0047068,0.0513083,-0.00662541,0.0520813,-0.00547978,-1.45465,0.0366841,0.0496347,1280,1702,7.08343,-37.3645
63,-678,7.37207,37.2874,-0.00831358,0.0496828,-0.0108734,0.0516544,-0.0102852,-1.39142,0.0383275,0.0495412,1287,1702,7.37202,-37.2873
70,-678,7.55994,37.1432,-0.0122355,0.0460623,-0.0155058,0.0499299,-0.0161031,-1.32636,0.0397566,0.0456392,1294,1702,7.55999,-37.1432
77,-678,7.98511,37.1266,-0.0167083,0.043861,-0.019424,0.0495548,-0.0224022,-1.28565,0.0425189,0.0429347,1301,1702,7.98509,-37.1266
84,-678,8.39319,36.8538,-0.021052,0.0405055,-0.0222743,0.0477199,-0.0282664,-1.25757,0.0443473,0.04509,1308,1702,8.39316,-36.8538
91,-678,8.6438,36.3,-0.0239948,0.0374232,-0.0245758,0.0460463,-0.0326179,-1.23334,0.0456368,0.0444641,1315,1702,8.64384,-36.3001
98,-678,7.63757,36.0472,0,0,0,0,0,0,0,-1,1322,1702,7.63762,-36.0472
105,-678,7.39795,36.1804,-0.0270835,0.0337959,-0.0273721,0.0442928,-0.0375805,-1.2046,0.0473225,0.0426616,1329,1702,7.39793,-36.1804
112,-678,7.62646,35.8201,-0.0270365,0.031937,-0.0271578,0.0425378,-0.0376373,-1.19864,0.046318,0.0430755,1336,1702,7.62643,-35.82
119,-678,7.68652,35.6001,-0.0263612,0.0301041,-0.0261828,0.0403762,-0.0366333,-1.19692,0.044479,0.0426397,1343,1702,7.68651,-35.6002
126,-678,8.18799,34.9425,0,0,0,0,0,0,0,-1,1350,1702,8.18795,-34.9425
133,-678,8.25854,35.0974,0,0,0,0,0,0,0,-1,1357,1702,8.25861,-35.0974
140,-678,8.44995,35.0085,-0.0192587,0.027728,-0.0196683,0.0348741,-0.0264048,-1.22229,0.0354919,0.0490369,1364,1702,8.4499,-35.0085
147,-678,8.70715,35.2733,-0.0163371,0.0279293,-0.0174147,0.033959,-0.0223669,-1.23747,0.0327485,0.0440487,1371,1702,8.70718,-35.2734
154,-678,8.87097,35.63,0,0,0,0,0,0,0,-1,1378,1702,8.87095,-35.63
161,-678,8.81226,34.8624,0,0,0,0,0,0,0,-1,1385,1702,8.81229,-34.8624
168,-678,4.21863,5.25781,0,0,0,0,0,0,0,-1,1392,1702,4.21865,-5.25781
175,-678,5.21899,5.9635,0,0,0,0,0,0,0,-1,1399,1702,5.21894,-5.96346
182,-678,7.31262,6.75122,0,0,0,0,0,0,0,-1,1406,1702,7.3126,-6.75123
189,-678,5.96021,6.36853,0,0,0,0,0,0,0,-1,1413,1702,5.96018,-6.36851
196,-678,5.01599,8.15771,0,0,0,0,0,0,0,-1,1420,1702,5.01596,-8.15767
203,-678,4.64771,13.0559,0,0,0,0,0,0,0,-1,1427,1702,4.64766,-13.0559
210,-678,5.6532,18.5957,0,0,0,0,0,0,0,-1,1434,1702,5.65318,-18.5958
217,-678,6.88049,23.4835,0,0,0,0,0,0,0,-1,1441,1702,6.88047,-23.4835
224,-678,8.521,32.0977,0,0,0,0,0,0,0,-1,1448,1702,8.52098,-32.0977
231,-678,8.49622,33.8456,0,0,0,0,0,0,0,-1,1455,1702,8.49619,-33.8456
238,-678,8.61987,33.6077,0,0,0,0,0,0,0,-1,1462,1702,8.61988,-33.6077
245,-678,8.68713,33.3478,0,0,0,0,0,0,0,-1,1469,1702,8.68708,-33.3478
252,-678,8.70776,33.1437,0.00217024,-0.000725884,0.000494315,0.00225229,-0.00080793,0.16448,0.00183124,0.0289772,1476,1702,8.70776,-33.1437
259,-678,8.73193,32.9465,0.00176334,-0.00066784,0.000442697,0.00184144,-0.000745942,0.174626,0.00153781,0.01701,1483,1702,8.73192,-32.9466
266,-678,8.73853,32.7178,0.00161088,-0.000442475,0.000330393,0.00166273,-0.000494327,0.155671,0.00130486,0.011476,1490,1702,8.73854,-32.7178
273,-678,8.75171,32.5063,0.00156527,-0.000322146,0.000261936,0.00160094,-0.000357823,0.135373,0.00120442,0.0112922,1497,1702,8.75165,-32.5064
280,-678,8.74976,32.2699,0.00148918,-1.72131e-06,0.000162712,0.00150673,-1.92726e-05,0.107452,0.00101097,0.0118629,1504,1702,8.74981,-32.2699
287,-678,8.76709,31.9919,0.0013928,0.000233861,1.78516e-05,0.00139307,0.000233586,0.0153986,0.000861475,0.0115056,1511,1702,8.7671,-31.992
294,-678,8.75806,31.7306,0.00143117,0.000640033,-0.000272739,0.00151608,0.000555122,-0.301817,0.000885703,0.0117249,1518,1702,8.75811,-31.7306
301,-678,8.7511,31.4899,0.00143769,0.000987193,-0.000570923,0.00182619,0.000598689,-0.597507,0.00107498,0.0113184,1525,1702,8.75116,-31.4899
308,-678,8.77075,31.2489,0.00135964,0.00120776,-0.000840323,0.00212745,0.000439952,-0.740338,0.00129677,0.0134568,1532,1702,8.77074,-31.2489
315,-678,8.7644,30.9713,0.00125301,0.00135275,-0.00103075,0.00233483,0.000270928,-0.809572,0.00147457,0.0154306,1539,1702,8.76439,-30.9713
322,-678,8.74011,30.7262,0.00110628,0.00140631,-0.00118588,0.00245163,6.09624e-05,-0.848313,0.00161448,0.0191508,1546,1702,8.74005,-30.7262
329,-678,8.74219,30.4417,0.000908794,0.00132552,-0.00127597,0.00241003,-0.000175718,-0.866332,0.00166835,0.0160919,1553,1702,8.74221,-30.4416
336,-678,8.74902,30.1414,0.000680587,0.0010473,-0.00126846,0.00214559,-0.000417703,-0.857176,0.00158805,0.012602,1560,1702,8.74905,-30.1414
343,-678,8.74487,29.8577,0.000415165,0.000569171,-0.00125037,0.00174491,-0.000760576,-0.816151,0.00148329,0.011977,1567,1702,8.74483,-29.8577
350,-678,8.74731,29.5754,0.000159947,-0.000308062,-0.00114754,0.0010971,-0.00124522,-0.684818,0.00135324,0.0117953,1574,1702,8.74731,-29.5754
357,-678,8.73962,29.2719,-6.41399e-05,-0.0016122,-0.00090548,0.000353055,-0.0020294,-0.431753,0.00148467,0.00958536,1581,1702,8.73967,-29.2718
364,-678,8.72083,28.965,-0.000231829,-0.00326262,-0.000555935,-0.000133072,-0.00336138,-0.175807,0.0021979,0.0114808,1588,1702,8.72083,-28.965
371,-678,8.68945,28.6735,-0.00034666,-0.00502793,-0.000172393,-0.00034032,-0.00503427,-0.0367599,0.00324868,0.0121503,1595,1702,8.68951,-28.6735
378,-678,8.66943,28.3499,-0.000456088,-0.00720459,0.000228166,-0.000448382,-0.0072123,0.0337584,0.00466593,0.0130941,1602,1702,8.66944,-28.3498
385,-678,8.66028,28.0342,-0.000520621,-0.00948431,0.000599572,-0.000480694,-0.00952424,0.0664941,0.00619548,0.0149876,1609,1702,8.66024,-28.0341
392,-678,8.66162,27.7827,-0.000658019,-0.0123981,0.00105704,-0.000563604,-0.0124925,0.0890827,0.00814694,0.0274895,1616,1702,8.66162,-27.7827
399,-678,8.65991,27.6746,-0.000768789,-0.0154521,0.00139477,-0.000637472,-0.0155834,0.093872,0.0101831,0.0375468,1623,1702,8.6599,-27.6745
406,-678,8.57141,27.5531,-0.00092558,-0.0183684,0.00192687,-0.000715259,-0.0185788,0.108721,0.0121544,0.0464172,1630,1702,8.57136,-27.5531
413,-678,8.57556,27.2102,-0.00101315,-0.0209974,0.0024353,-0.000720663,-0.0212899,0.11953,0.0139593,0.0468388,1637,1702,8.57561,-27.2102
420,-678,8.57288,26.9114,0,0,0,0,0,0,0,-1,1644,1702,8.57291,-26.9114
427,-678,4.57483,10.1555,0,0,0,0,0,0,0,-1,1651,1702,4.57485,-10.1555
434,-678,9.48169,21.6665,0,0,0,0,0,0,0,-1,1658,1702,9.48169,-21.6665
441,-678,8.64539,21.1864,0,0,0,0,0,0,0,-1,1665,1702,8.64536,-21.1865
448,-678,7.62244,20.7195,0,0,0,0,0,0,0,-1,1672,1702,7.6224,-20.7195
455,-678,5.44678,5.54297,0,0,0,0,0,0,0,-1,1679,1702,5.44676,-5.54294
462,-678,3.86792,2.87402,0,0,0,0,0,0,0,-1,1686,1702,3.86796,-2.87406
469,-678,2.26587,1.98755,0,0,0,0,0,0,0,-1,1693,1702,2.26592,-1.98755
476,-678,0,0,0,0,0,0,0,0,0,-1,1700,1702,0,0
483,-678,0,0,0,0,0,0,0,0,0,-1,1707,1702,0,0
490,-678,0,0,0,0,0,0,0,0,0,-1,1714,1702,0,0
497,-678,0,0,0,0,0,0,0,0,0,-1,1721,1702,0,0
504,-678,0,0,0,0,0,0,0,0,0,-1,1728,1702,0,0
511,-678,0,0,0,0,0,0,0,0,0,-1,1735,1702,0,0
518,-678,0,0,0,0,0,0,0,0,0,-1,1742,1702,0,0
525,-678,0,0,0,0,0,0,0,0,0,-1,1749,1702,0,0
532,-678,0,0,0,0,0,0,0,0,0,-1,1756,1702,0,0
539,-678,0,0,0,0,0,0,0,0,0,-1,1763,1702,0,0
546,-678,0,0,0,0,0,0,0,0,0,-1,1770,1702,0,0
553,-678,0,0,0,0,0,0,0,0,0,-1,1777,1702,0,0
560,-678,0,0,0,0,0,0,0,0,0,-1,1784,1702,0,0
567,-678,0,0,0,0,0,0,0,0,0,-1,1791,1702,0,0
574,-678,0,0,0,0,0,0,0,0,0,-1,1798,1702,0,0
581,-678,0,0,0,0,0,0,0,0,0,-1,1805,1702,0,0
588,-678,0,0,0,0,0,0,0,0,0,-1,1812,1702,0,0
595,-678,0,0,0,0,0,0,0,0,0,-1,1819,1702,0,0
602,-678,0,0,0,0,0,0,0,0,0,-1,1826,1702,0,0
609,-678,0,0,0,0,0,0,0,0,0,-1,1833,1702,0,0
616,-678,0,0,0,0,0,0,0,0,0,-1,1840,1702,0,0
623,-678,0,0,0,0,0,0,0,0,0,-1,1847,1702,0,0
630,-678,0,0,0,0,0,0,0,0,0,-1,1854,1702,0,0
637,-678,0,0,0,0,0,0,0,0,0,-1,1861,1702,0,0
644,-678,0,0,0,0,0,0,0,0,0,-1,1868,1702,0,0
651,-678,0,0,0,0,0,0,0,0,0,-1,1875,1702,0,0
658,-678,0,0,0,0,0,0,0,0,0,-1,1882,1702,0,0
665,-678,0,0,0,0,0,0,0,0,0,-1,1889,1702,0,0
672,-678,0,0,0,0,0,0,0,0,0,-1,1896,1702,0,0
679,-678,0,0,0,0,0,0,0,0,0,-1,1903,1702,0,0
686,-678,0,0,0,0,0,0,0,0,0,-1,1910,1702,0,0
693,-678,0,0,0,0,0,0,0,0,0,-1,1917,1702,0,0
700,-678,0,0,0,0,0,0,0,0,0,-1,1924,1702,0,0
707,-678,0,0,0,0,0,0,0,0,0,-1,1931,1702,0,0
714,-678,0,0,0,0,0,0,0,0,0,-1,1938,1702,0,0
721,-678,0,0,0,0,0,0,0,0,0,-1,1945,1702,0,0
728,-678,0,0,0,0,0,0,0,0,0,-1,1952,1702,0,0
735,-678,0,0,0,0,0,0,0,0,0,-1,1959,1702,0,0
742,-678,0,0,0,0,0,0,0,0,0,-1,1966,1702,0,0
749,-678,0,0,0,0,0,0,0,0,0,-1,1973,1702,0,0
756,-678,0,0,0,0,0,0,0,0,0,-1,1980,1702,0,0
763,-678,0,0,0,0,0,0,0,0,0,-1,1987,1702,0,0
770,-678,0,0,0,0,0,0,0,0,0,-1,1994,1702,0,0
777,-678,0,0,0,0,0,0,0,0,0,-1,2001,1702,0,0
784,-678,0,0,0,0,0,0,0,0,0,-1,2008,1702,0,0
791,-678,0,0,0,0,0,0,0,0,0,-1,2015,1702,0,0
798,-678,0,0,0,0,0,0,0,0,0,-1,2022,1702,0,0
805,-678,0,0,0,0,0,0,0,0,0,-1,2029,1702,0,0
812,-678,0,0,0,0,0,0,0,0,0,-1,2036,1702,0,0
-700,-685,0,0,0,0,0,0,0,0,0,-1,524,1709,0,0
-693,-685,0,0,0,0,0,0,0,0,0,-1,531,1709,0,0
-686,-685,0,0,0,0,0,0,0,0,0,-1,538,1709,0,0
-679,-685,0,0,0,0,0,0,0,0,0,-1,545,1709,0,0
-672,-685,0,0,0,0,0,0,0,0,0,-1,552,1709,0,0
-665,-685,0,0,0,0,0,0,0,0,0,-1,559,1709,0,0
-658,-685,0,0,0,0,0,0,0,0,0,-1,566,1709,0,0
-651,-685,0,0,0,0,0,0,0,0,0,-1,573,1709,0,0
-644,-685,0,0,0,0,0,0,0,0,0,-1,580,1709,0,0
-637,-685,0,0,0,0,0,0,0,0,0,-1,587,1709,0,0
-630,-685,0,0,0,0,0,0,0,0,0,-1,594,1709,0,0
-623,-685,0,0,0,0,0,0,0,0,0,-1,601,1709,0,0
-616,-685,0,0,0,0,0,0,0,0,0,-1,608,1709,0,0
-609,-685,0,0,0,0,0,0,0,0,0,-1,615,1709,0,0
-602,-685,0,0,0,0,0,0,0,0,0,-1,622,1709,0,0
-595,-685,0,0,0,0,0,0,0,0,0,-1,629,1709,0,0
-588,-685,0,0,0,0,0,0,0,0,0,-1,636,1709,0,0
-581,-685,0,0,0,0,0,0,0,0,0,-1,643,1709,0,0
-574,-685,0,0,0,0,0,0,0,0,0,-1,650,1709,0,0
-567,-685,0,0,0,0,0,0,0,0,0,-1,657,1709,0,0
-560,-685,0,0,0,0,0,0,0,0,0,-1,664,1709,0,0
-553,-685,0,0,0,0,0,0,0,0,0,-1,671,1709,0,0
-546,-685,0,0,0,0,0,0,0,0,0,-1,678,1709,0,0
-539,-685,0,0,0,0,0,0,0,0,0,-1,685,1709,0,0
-532,-685,0,0,0,0,0,0,0,0,0,-1,692,1709,0,0
-525,-685,0,0,0,0,0,0,0,0,0,-1,699,1709,0,0
-518,-685,0,0,0,0,0,0,0,0,0,-1,706,1709,0,0
-511,-685,0,0,0,0,0,0,0,0,0,-1,713,1709,0,0
-504,-685,0,0,0,0,0,0,0,0,0,-1,720,1709,0,0
-497,-685,0,0,0,0,0,0,0,0,0,-1,727,1709,0,0
-490,-685,0,0,0,0,0,0,0,0,0,-1,734,1709,0,0
-483,-685,0,0,0,0,0,0,0,0,0,-1,741,1709,0,0
-476,-685,0,0,0,0,0,0,0,0,0,-1,748,1709,0,0
-469,-685,0,0,0,0,0,0,0,0,0,-1,755,1709,0,0
-462,-685,0,0,0,0,0,0,0,0,0,-1,762,1709,0,0
-455,-685,0,0,0,0,0,0,0,0,0,-1,769,1709,0,0
-448,-685,0,0,0,0,0,0,0,0,0,-1,776,1709,0,0
-441,-685,0,0,0,0,0,0,0,0,0,-1,783,1709,0,0
-434,-685,0,0,0,0,0,0,0,0,0,-1,790,1709,0,0
-427,-685,0,0,0,0,0,0,0,0,0,-1,797,1709,0,0
-420,-685,0,0,0,0,0,0,0,0,0,-1,804,1709,0,0
-413,-685,0,0,0,0,0,0,0,0,0,-1,811,1709,0,0
-406,-685,0,0,0,0,0,0,0,0,0,-1,818,1709,0,0
-399,-685,0,0,0,0,0,0,0,0,0,-1,825,1709,0,0
-392,-685,0,0,0,0,0,0,0,0,0,-1,832,1709,0,0
-385,-685,0,0,0,0,0,0,0,0,0,-1,839,1709,0,0
-378,-685,0,0,0,0,0,0,0,0,0,-1,846,1709,0,0
-371,-685,0,0,0,0,0,0,0,0,0,-1,853,1709,0,0
-364,-685,0,0,0,0,0,0,0,0,0,-1,860,1709,0,0
-357,-685,0,0,0,0,0,0,0,0,0,-1,867,1709,0,0
-350,-685,0,0,0,0,0,0,0,0,0,-1,874,1709,0,0
-343,-685,-5.98505,6.56335,0,0,0,0,0,0,0,-1,881,1709,-5.98505,-6.56329
-336,-685,-6.51312,5.10571,0,0,0,0,0,0,0,-1,888,1709,-6.51311,-5.10575
-329,-685,-6.81384,3.34106,0,0,0,0,0,0,0,-1,895,1709,-6.81385,-3.341
-322,-685,3.83191,16.7219,0,0,0,0,0,0,0,-1,902,1709,3.8319,-16.7219
-315,-685,5.15784,21.4388,0,0,0,0,0,0,0,-1,909,1709,5.15783,-21.4389
-308,-685,6.36969,21.0303,0,0,0,0,0,0,0,-1,916,1709,6.36968,-21.0302
-301,-685,7.26794,24.7709,0,0,0,0,0,0,0,-1,923,1709,7.26793,-24.7709
-294,-685,7.401,25.0553,0,0,0,0,0,0,0,-1,930,1709,7.40102,-25.0552
-287,-685,6.53857,25.5372,0,0,0,0,0,0,0,-1,937,1709,6.53858,-25.5373
-280,-685,6.17596,26.9083,0,0,0,0,0,0,0,-1,944,1709,6.17595,-26.9083
-273,-685,6.39685,26.3489,0,0,0,0,0,0,0,-1,951,1709,6.39687,-26.3489
-266,-685,6.59796,26.8097,-0.00106383,0.00191193,-0.000564054,0.00201526,-0.00116716,-1.38962,0.00185899,0.0472656,958,1709,6.59793,-26.8097
-259,-685,6.60809,27.0262,0.000852652,-0.00133447,0.000755089,0.00108801,-0.00156983,0.302156,0.00154289,0.0436967,965,1709,6.60807,-27.0262
-252,-685,6.53625,27.4728,0.00220735,-0.0045596,0.00269036,0.0031466,-0.00549885,0.335888,0.00505266,0.0357974,972,1709,6.53624,-27.4728
-245,-685,6.49146,27.8829,0.00274925,-0.00569329,0.00354933,0.00404312,-0.00698717,0.34957,0.00644351,0.0333793,979,1709,6.49143,-27.8829
-238,-685,6.46027,28.2191,0.00297001,-0.00659562,0.00419046,0.00454607,-0.00817167,0.35974,0.00744138,0.0254272,986,1709,6.46027,-28.2191
-231,-685,6.41656,28.5585,0.00334798,-0.0072487,0.00468375,0.00512141,-0.00902213,0.361953,0.00826864,0.0164325,993,1709,6.41654,-28.5585
-224,-685,6.36884,28.8386,0.0036711,-0.00744954,0.00504505,0.00561876,-0.0093972,0.368426,0.00876048,0.0148331,1000,1709,6.36881,-28.8386
-217,-685,6.35748,29.1871,0.00359157,-0.00794164,0.00521563,0.00560035,-0.00995042,0.367635,0.00909458,0.0114464,1007,1709,6.35746,-29.1871
-210,-685,6.3501,29.5181,0.00341269,-0.00783528,0.00525032,0.00548253,-0.00990512,0.375525,0.00900555,0.0148331,1014,1709,6.35009,-29.518
-203,-685,6.33142,29.8047,0.00327786,-0.00747697,0.0050147,0.00525325,-0.00945236,0.375255,0.00860489,0.0158998,1021,1709,6.33148,-29.8047
-196,-685,6.30908,30.1029,0.00304025,-0.00675812,0.00456313,0.00483615,-0.00855402,0.374949,0.00782952,0.0137727,1028,1709,6.30905,-30.1029
-189,-685,6.31628,30.3896,0.00274875,-0.00579134,0.00399849,0.0043286,-0.00737119,0.376284,0.00683059,0.00921169,1035,1709,6.31632,-30.3897
-182,-685,6.29565,30.6923,0.00249952,-0.0045629,0.00340894,0.0038765,-0.00593988,0.383891,0.00570907,0.013517,1042,1709,6.29569,-30.6923
-175,-685,6.27795,30.9686,0.00242782,-0.00314393,0.00293103,0.00368571,-0.00440182,0.405391,0.00467543,0.0132415,1049,1709,6.27793,-30.9686
-168,-685,6.26758,31.2388,0.0022946,-0.00174722,0.00238345,0.00339858,-0.0028512,0.433763,0.00361292,0.0102403,1056,1709,6.26762,-31.2388
-161,-685,6.27478,31.5192,0.00214614,-0.000418492,0.00185656,0.00312018,-0.00139253,0.483171,0.0026683,0.011611,1063,1709,6.27473,-31.5191
-154,-685,6.28662,31.7722,0.00206839,0.00137541,0.00134909,0.00311477,0.000329025,0.659699,0.00197599,0.010414,1070,1709,6.28658,-31.7723
-147,-685,6.27405,32.017,0.00213872,0.00302671,0.000801372,0.00349887,0.00166657,1.03837,0.00202083,0.00908639,1077,1709,6.27409,-32.0169
-140,-685,6.27112,32.2614,0.00233366,0.00424081,0.000527695,0.00437709,0.00219739,1.31808,0.00252712,0.0117757,1084,1709,6.27117,-32.2613
-133,-685,6.30249,32.5132,0.00252976,0.0054009,0.000257436,0.0054238,0.00250686,1.48208,0.00313441,0.01119,1091,1709,6.30254,-32.5132
-126,-685,6.31006,32.7628,0.00275682,0.00656755,2.99054e-06,0.00656755,0.00275682,1.57001,0.00380802,0.00928734,1098,1709,6.31002,-32.7629
-119,-685,6.34387,32.9866,0.00304369,0.00748695,-0.000179353,0.00749418,0.00303646,-1.53052,0.00435263,0.0126488,1105,1709,6.34393,-32.9865
-112,-685,6.34448,33.1949,0.00329595,0.00806258,-0.000278814,0.00807884,0.0032797,-1.51257,0.00469174,0.0128042,1112,1709,6.34446,-33.1949
-105,-685,6.3147,33.3979,0.00346307,0.00845115,-0.000313674,0.0084708,0.00344342,-1.50824,0.00491903,0.01306,1119,1709,6.31469,-33.3979
-98,-685,6.38684,33.5691,0.00359768,0.00867436,-0.000419625,0.00870881,0.00356323,-1.48888,0.00505562,0.0174291,1126,1709,6.38686,-33.5691
-91,-685,6.38623,33.7178,0.00385839,0.0081928,-0.000667864,0.00829337,0.00375781,-1.42133,0.0047952,0.0250833,1133,1709,6.38619,-33.7178
-84,-685,6.38794,33.8884,0.00428463,0.00751204,-0.000892824,0.00774257,0.00405411,-1.31812,0.00447183,0.0432592,1140,1709,6.38798,-33.8884
-77,-685,6.43469,34.2136,0,0,0,0,0,0,0,-1,1147,1709,6.43469,-34.2136
-70,-685,6.53735,34.5819,0,0,0,0,0,0,0,-1,1154,1709,6.53733,-34.5819
-63,-685,6.03015,29.7728,0,0,0,0,0,0,0,-1,1161,1709,6.0302,-29.7728
-56,-685,3.93909,15.8704,0,0,0,0,0,0,0,-1,1168,1709,3.93905,-15.8704
-49,-685,3.07471,9.86011,0,0,0,0,0,0,0,-1,1175,1709,3.07467,-9.86009
-42,-685,2.70618,7.54504,0,0,0,0,0,0,0,-1,1182,1709,2.7062,-7.54504
-35,-685,2.95264,7.91516,0,0,0,0,0,0,0,-1,1189,1709,2.95262,-7.91517
-28,-685,6.72095,35.384,0,0,0,0,0,0,0,-1,1196,1709,6.72095,-35.3841
-21,-685,6.74402,35.3542,0.006191,0.0240705,0.00993575,0.0284963,0.00176518,1.15174,0.0184373,0.0490444,1203,1709,6.74407,-35.3542
-14,-685,6.91895,35.4048,0.00564523,0.0277575,0.00978927,0.0314685,0.00193424,1.20845,0.0203649,0.029422,1210,1709,6.91895,-35.4048
-7,-685,6.96094,35.6193,0.00533251,0.0302675,0.00980173,0.0336592,0.00194086,1.23767,0.0218213,0.0401783,1217,1709,6.96092,-35.6193
0,-685,7.08118,35.6427,0.00528409,0.0323527,0.0100475,0.0356745,0.00196224,1.25149,0.0231567,0.0429921,1224,1709,7.08117,-35.6427
7,-685,7.1925,35.7805,0.00517113,0.0348223,0.00973608,0.0377334,0.00226005,1.28026,0.0244371,0.0419957,1231,1709,7.19245,-35.7805
14,-685,7.21875,36.3024,0.00531102,0.0375002,0.00909962,0.0398945,0.00291673,1.31351,0.0256794,0.0430465,1238,1709,7.21871,-36.3024
21,-685,7.30981,36.4178,0.00551773,0.0394149,0.00798378,0.0412012,0.00373145,1.35068,0.026312,0.0379506,1245,1709,7.30977,-36.4179
28,-685,7.28076,36.3724,0.00515216,0.0406812,0.00631386,0.0417699,0.00406348,1.40005,0.0265958,0.0412712,1252,1709,7.28081,-36.3724
35,-685,7.43347,36.3901,0.00403311,0.0415043,0.00436003,0.0420049,0.00353248,1.45647,0.0269032,0.0446307,1259,1709,7.43351,-36.3901
42,-685,7.67114,36.5836,0.00233547,0.041969,0.00202788,0.0420725,0.00223199,1.51981,0.0273347,0.0490576,1266,1709,7.6711,-36.5836
49,-685,7.53284,36.2999,0.00036768,0.041306,-0.000613219,0.0413152,0.000358494,-1.55582,0.0274248,0.0497139,1273,1709,7.53289,-36.2999
56,-685,7.38794,36.2574,-0.00174922,0.0407737,-0.00354119,0.0410666,-0.0020421,-1.48828,0.0280832,0.0457148,1280,1709,7.38791,-36.2574
63,-685,7.30151,36.4104,-0.0045279,0.0398788,-0.00678997,0.0408938,-0.00554292,-1.42241,0.0292855,0.0447221,1287,1709,7.30155,-36.4104
70,-685,7.54016,36.5023,-0.00761679,0.0373583,-0.0104444,0.0396654,-0.00992391,-1.35339,0.0302982,0.043902,1294,1709,7.54012,-36.5024
77,-685,7.75098,36.4452,0,0,0,0,0,0,0,-1,1301,1709,7.75093,-36.4451
84,-685,7.79773,36.3397,-0.0147125,0.0332233,-0.0158295,0.0379788,-0.019468,-1.27895,0.033736,0.0480784,1308,1709,7.79777,-36.3397
91,-685,7.72949,36.3293,-0.0171332,0.0306933,-0.017637,0.0364938,-0.0229337,-1.25306,0.034607,0.0456886,1315,1709,7.72951,-36.3293
98,-685,7.68066,35.9031,-0.0187739,0.0284458,-0.0189091,0.0350846,-0.0254127,-1.23315,0.0350766,0.0402551,1322,1709,7.68064,-35.9031
105,-685,7.4679,35.9386,-0.019882,0.0269814,-0.0201592,0.0344598,-0.0273605,-1.21556,0.0357704,0.0436906,1329,1709,7.46792,-35.9386
112,-685,7.36609,35.8069,-0.0198674,0.0249148,-0.0199495,0.0325128,-0.0274654,-1.2069,0.0346692,0.0450926,1336,1709,7.36607,-35.8069
119,-685,7.81567,35.5643,-0.0194479,0.0228642,-0.0191499,0.0302441,-0.0268277,-1.20296,0.0329701,0.0397503,1343,1709,7.81562,-35.5644
126,-685,8.04114,35.1586,-0.0183808,0.0214404,-0.017704,0.0281731,-0.0251135,-1.2074,0.0307819,0.0438151,1350,1709,8.04117,-35.1586
133,-685,8.08838,35.2577,-0.0164628,0.0201208,-0.0157203,0.0259479,-0.0222898,-1.21583,0.0278767,0.0477813,1357,1709,8.08842,-35.2577
140,-685,8.15295,35.2898,-0.0140641,0.0190597,-0.01363,0.0239471,-0.0189516,-1.2265,0.0248235,0.0472046,1364,1709,8.15292,-35.2897
147,-685,8.20898,35.4636,-0.0115435,0.0182342,-0.0115499,0.0221888,-0.0154982,-1.24091,0.0218726,0.0476282,1371,1709,8.20893,-35.4637
154,-685,8.00989,35.6189,0,0,0,0,0,0,0,-1,1378,1709,8.0099,-35.6188
161,-685,8.28516,35.4104,0,0,0,0,0,0,0,-1,1385,1709,8.2852,-35.4104
168,-685,4.37524,10.8778,0,0,0,0,0,0,0,-1,1392,1709,4.37525,-10.8778
175,-685,3.97522,8.94324,0,0,0,0,0,0,0,-1,1399,1709,3.97519,-8.94328
182,-685,3.98218,9.19739,0,0,0,0,0,0,0,-1,1406,1709,3.98221,-9.1974
189,-685,4.53479,15.2343,0,0,0,0,0,0,0,-1,1413,1709,4.53474,-15.2343
196,-685,8.30603,34.8591,0,0,0,0,0,0,0,-1,1420,1709,8.30606,-34.8591
203,-685,8.33655,34.5034,0,0,0,0,0,0,0,-1,1427,1709,8.33651,-34.5034
210,-685,8.4823,34.2819,0,0,0,0,0,0,0,-1,1434,1709,8.48231,-34.2819
217,-685,8.39551,34.0109,0,0,0,0,0,0,0,-1,1441,1709,8.39549,-34.0109
224,-685,8.31421,33.8652,0,0,0,0,0,0,0,-1,1448,1709,8.31426,-33.8652
231,-685,8.427,33.7815,0.00323315,-0.000538847,0.00119585,0.00358032,-0.000886018,0.282547,0.00273056,0.0333735,1455,1709,8.42698,-33.7814
238,-685,8.50171,33.516,0.00246965,-0.00106597,0.000573007,0.0025602,-0.00115652,0.156724,0.00219627,0.018867,1462,1709,8.50168,-33.516
245,-685,8.47205,33.3224,0.00157007,-0.00102288,0.000249854,0.00159392,-0.00104674,0.095192,0.00153546,0.0203647,1469,1709,8.47204,-33.3223
252,-685,8.48804,33.1523,0.00113878,-0.000933582,5.66036e-05,0.00114032,-0.000935127,0.0272865,0.00120021,0.0145671,1476,1709,8.48799,-33.1523
259,-685,8.4939,32.9628,0.000899418,-0.000744847,-1.84881e-05,0.000899626,-0.000745055,-0.0112421,0.000950954,0.0106167,1483,1709,8.49392,-32.9627
266,-685,8.50562,32.7173,0.000908524,-0.000403305,-9.56907e-05,0.000915467,-0.000410248,-0.0724335,0.00078371,0.0122347,1490,1709,8.5056,-32.7173
273,-685,8.50793,32.4885,0.00107668,-5.45504e-05,-0.000120298,0.00108933,-6.72016e-05,-0.104781,0.000749628,0.0150906,1497,1709,8.50795,-32.4886
280,-685,8.50183,32.2513,0.00127773,0.000403998,-0.000163921,0.00130747,0.000374257,-0.179482,0.000777523,0.0165919,1504,1709,8.50177,-32.2513
287,-685,8.5188,32.0195,0.00145408,0.000850156,-0.000268367,0.0015561,0.000748136,-0.363279,0.000898639,0.0128107,1511,1709,8.51879,-32.0195
294,-685,8.51953,31.7686,0.00165186,0.00138805,-0.000476698,0.00201456,0.00102534,-0.650424,0.00116317,0.0109845,1518,1709,8.51955,-31.7686
301,-685,8.50525,31.505,0.00174922,0.00179411,-0.000759938,0.00253194,0.0010114,-0.800162,0.00147163,0.0125178,1525,1709,8.50523,-31.505
308,-685,8.51367,31.2449,0.00170083,0.00197863,-0.00104683,0.00289573,0.000783728,-0.851358,0.00172949,0.0137953,1532,1709,8.5137,-31.2449
315,-685,8.52002,30.989,0.0015879,0.00208707,-0.001281,0.00314257,0.000532403,-0.88161,0.00194206,0.0127539,1539,1709,8.52003,-30.989
322,-685,8.49414,30.7122,0.00142027,0.0020814,-0.00152039,0.00330675,0.000194924,-0.892442,0.00214248,0.0210587,1546,1709,8.49417,-30.7121
329,-685,8.47937,30.4445,0.00113951,0.00192438,-0.00167074,0.00324815,-0.00018426,-0.90075,0.00222939,0.0207093,1553,1709,8.47941,-30.4445
336,-685,8.48669,30.1478,0.000825652,0.0015156,-0.00171292,0.00291794,-0.00057669,-0.884766,0.0021633,0.0136728,1560,1709,8.48674,-30.1479
343,-685,8.46655,29.8514,0.000371582,0.000763352,-0.00183532,0.00241321,-0.00127827,-0.838562,0.00216459,0.0116612,1567,1709,8.46661,-29.8515
350,-685,8.45752,29.5601,-6.29303e-05,-0.000314996,-0.00176031,0.00157585,-0.00195378,-0.749661,0.00204172,0.0119355,1574,1709,8.45757,-29.56
357,-685,8.44592,29.2855,-0.000237722,-0.00186654,-0.00143974,0.000601988,-0.00270625,-0.528003,0.00203473,0.0101963,1581,1709,8.4459,-29.2855
364,-685,8.41968,28.9952,-0.00033609,-0.00382343,-0.000967298,-8.57564e-05,-0.00407377,-0.253241,0.00268772,0.0097431,1588,1709,8.41967,-28.9952
371,-685,8.42249,28.6897,-0.000358984,-0.0059826,-0.000422082,-0.00032748,-0.00601411,-0.074499,0.00390482,0.0158616,1595,1709,8.42244,-28.6897
378,-685,8.38489,28.3838,-0.000404375,-0.00881828,0.000146181,-0.000401837,-0.00882082,0.0173668,0.00575128,0.0214408,1602,1709,8.3849,-28.3837
385,-685,8.32654,28.15,-0.00043943,-0.0118221,0.000703009,-0.000396176,-0.0118654,0.0614499,0.00778157,0.0368454,1609,1709,8.32655,-28.15
392,-685,8.58875,28.2656,0,0,0,0,0,0,0,-1,1616,1709,8.58873,-28.2656
399,-685,8.4447,28.0844,0,0,0,0,0,0,0,-1,1623,1709,8.44472,-28.0843
406,-685,8.29297,28.0724,0,0,0,0,0,0,0,-1,1630,1709,8.29297,-28.0724
413,-685,8.39111,27.5587,0,0,0,0,0,0,0,-1,1637,1709,8.39108,-27.5587
420,-685,4.84631,10.3781,0,0,0,0,0,0,0,-1,1644,1709,4.84634,-10.378
427,-685,6.05151,9.21155,0,0,0,0,0,0,0,-1,1651,1709,6.05156,-9.21156
434,-685,4.87769,8.91418,0,0,0,0,0,0,0,-1,1658,1709,4.87768,-8.91413
441,-685,5.62,8.75549,0,0,0,0,0,0,0,-1,1665,1709,5.61996,-8.75545
448,-685,6.4043,8.58972,0,0,0,0,0,0,0,-1,1672,1709,6.40435,-8.58971
455,-685,2.31958,4.09802,0,0,0,0,0,0,0,-1,1679,1709,2.31957,-4.09803
462,-685,0,0,0,0,0,0,0,0,0,-1,1686,1709,0,0
469,-685,0,0,0,0,0,0,0,0,0,-1,1693,1709,0,0
476,-685,0,0,0,0,0,0,0,0,0,-1,1700,1709,0,0
483,-685,0,0,0,0,0,0,0,0,0,-1,1707,1709,0,0
490,-685,0,0,0,0,0,0,0,0,0,-1,1714,1709,0,0
497,-685,0,0,0,0,0,0,0,0,0,-1,1721,1709,0,0
504,-685,0,0,0,0,0,0,0,0,0,-1,1728,1709,0,0
511,-685,0,0,0,0,0,0,0,0,0,-1,1735,1709,0,0
518,-685,0,0,0,0,0,0,0,0,0,-1,1742,1709,0,0
525,-685,0,0,0,0,0,0,0,0,0,-1,1749,1709,0,0
532,-685,0,0,0,0,0,0,0,0,0,-1,1756,1709,0,0
539,-685,0,0,0,0,0,0,0,0,0,-1,1763,1709,0,0
546,-685,0,0,0,0,0,0,0,0,0,-1,1770,1709,0,0
553,-685,0,0,0,0,0,0,0,0,0,-1,1777,1709,0,0
560,-685,0,0,0,0,0,0,0,0,0,-1,1784,1709,0,0
567,-685,0,0,0,0,0,0,0,0,0,-1,1791,1709,0,0
574,-685,0,0,0,0,0,0,0,0,0,-1,1798,1709,0,0
581,-685,0,0,0,0,0,0,0,0,0,-1,1805,1709,0,0
588,-685,0,0,0,0,0,0,0,0,0,-1,1812,1709,0,0
595,-685,0,0,0,0,0,0,0,0,0,-1,1819,1709,0,0
602,-685,0,0,0,0,0,0,0,0,0,-1,1826,1709,0,0
609,-685,0,0,0,0,0,0,0,0,0,-1,1833,1709,0,0
616,-685,0,0,0,0,0,0,0,0,0,-1,1840,1709,0,0
623,-685,0,0,0,0,0,0,0,0,0,-1,1847,1709,0,0
630,-685,0,0,0,0,0,0,0,0,0,-1,1854,1709,0,0
637,-685,0,0,0,0,0,0,0,0,0,-1,1861,1709,0,0
644,-685,0,0,0,0,0,0,0,0,0,-1,1868,1709,0,0
651,-685,0,0,0,0,0,0,0,0,0,-1,1875,1709,0,0
658,-685,0,0,0,0,0,0,0,0,0,-1,1882,1709,0,0
665,-685,0,0,0,0,0,0,0,0,0,-1,1889,1709,0,0
672,-685,0,0,0,0,0,0,0,0,0,-1,1896,1709,0,0
679,-685,0,0,0,0,0,0,0,0,0,-1,1903,1709,0,0
686,-685,0,0,0,0,0,0,0,0,0,-1,1910,1709,0,0
693,-685,0,0,0,0,0,0,0,0,0,-1,1917,1709,0,0
700,-685,0,0,0,0,0,0,0,0,0,-1,1924,1709,0,0
707,-685,0,0,0,0,0,0,0,0,0,-1,1931,1709,0,0
714,-685,0,0,0,0,0,0,0,0,0,-1,1938,1709,0,0
721,-685,0,0,0,0,0,0,0,0,0,-1,1945,1709,0,0
728,-685,0,0,0,0,0,0,0,0,0,-1,1952,1709,0,0
735,-685,0,0,0,0,0,0,0,0,0,-1,1959,1709,0,0
742,-685,0,0,0,0,0,0,0,0,0,-1,1966,1709,0,0
749,-685,0,0,0,0,0,0,0,0,0,-1,1973,1709,0,0
756,-685,0,0,0,0,0,0,0,0,0,-1,1980,1709,0,0
763,-685,0,0,0,0,0,0,0,0,0,-1,1987,1709,0,0
770,-685,0,0,0,0,0,0,0,0,0,-1,1994,1709,0,0
777,-685,0,0,0,0,0,0,0,0,0,-1,2001,1709,0,0
784,-685,0,0,0,0,0,0,0,0,0,-1,2008,1709,0,0
791,-685,0,0,0,0,0,0,0,0,0,-1,2015,1709,0,0
798,-685,0,0,0,0,0,0,0,0,0,-1,2022,1709,0,0
805,-685,0,0,0,0,0,0,0,0,0,-1,2029,1709,0,0
812,-685,0,0,0,0,0,0,0,0,0,-1,2036,1709,0,0
-700,-692,0,0,0,0,0,0,0,0,0,-1,524,1716,0,0
-693,-692,0,0,0,0,0,0,0,0,0,-1,531,1716,0,0
-686,-692,0,0,0,0,0,0,0,0,0,-1,538,1716,0,0
-679,-692,0,0,0,0,0,0,0,0,0,-1,545,1716,0,0
-672,-692,0,0,0,0,0,0,0,0,0,-1,552,1716,0,0
-665,-692,0,0,0,0,0,0,0,0,0,-1,559,1716,0,0
-658,-692,0,0,0,0,0,0,0,0,0,-1,566,1716,0,0
-651,-692,0,0,0,0,0,0,0,0,0,-1,573,1716,0,0
-644,-692,0,0,0,0,0,0,0,0,0,-1,580,1716,0,0
-637,-692,0,0,0,0,0,0,0,0,0,-1,587,1716,0,0
-630,-692,0,0,0,0,0,0,0,0,0,-1,594,1716,0,0
-623,-692,0,0,0,0,0,0,0,0,0,-1,601,1716,0,0
-616,-692,0,0,0,0,0,0,0,0,0,-1,608,1716,0,0
-609,-692,0,0,0,0,0,0,0,0,0,-1,615,1716,0,0
-602,-692,0,0,0,0,0,0,0,0,0,-1,622,1716,0,0
-595,-692,0,0,0,0,0,0,0,0,0,-1,629,1716,0,0
-588,-692,0,0,0,0,0,0,0,0,0,-1,636,1716,0,0
-581,-692,0,0,0,0,0,0,0,0,0,-1,643,1716,0,0
-574,-692,0,0,0,0,0,0,0,0,0,-1,650,1716,0,0
-567,-692,0,0,0,0,0,0,0,0,0,-1,657,1716,0,0
-560,-692,0,0,0,0,0,0,0,0,0,-1,664,1716,0,0
-553,-692,0,0,0,0,0,0,0,0,0,-1,671,1716,0,0
-546,-692,0,0,0,0,0,0,0,0,0,-1,678,1716,0,0
-539,-692,0,0,0,0,0,0,0,0,0,-1,685,1716,0,0
-532,-692,0,0,0,0,0,0,0,0,0,-1,692,1716,0,0
-525,-692,0,0,0,0,0,0,0,0,0,-1,699,1716,0,0
-518,-692,0,0,0,0,0,0,0,0,0,-1,706,1716,0,0
-511,-692,0,0,0,0,0,0,0,0,0,-1,713,1716,0,0
-504,-692,0,0,0,0,0,0,0,0,0,-1,720,1716,0,0
-497,-692,0,0,0,0,0,0,0,0,0,-1,727,1716,0,0
-490,-692,0,0,0,0,0,0,0,0,0,-1,734,1716,0,0
-483,-692,0,0,0,0,0,0,0,0,0,-1,741,1716,0,0
-476,-692,0,0,0,0,0,0,0,0,0,-1,748,1716,0,0
-469,-692,0,0,0,0,0,0,0,0,0,-1,755,1716,0,0
-462,-692,0,0,0,0,0,0,0,0,0,-1,762,1716,0,0
-455,-692,0,0,0,0,0,0,0,0,0,-1,769,1716,0,0
-448,-692,0,0,0,0,0,0,0,0,0,-1,776,1716,0,0
-441,-692,0,0,0,0,0,0,0,0,0,-1,783,1716,0,0
-434,-692,0,0,0,0,0,0,0,0,0,-1,790,1716,0,0
-427,-692,0,0,0,0,0,0,0,0,0,-1,797,1716,0,0
-420,-692,0,0,0,0,0,0,0,0,0,-1,804,1716,0,0
-413,-692,0,0,0,0,0,0,0,0,0,-1,811,1716,0,0
-406,-692,0,0,0,0,0,0,0,0,0,-1,818,1716,0,0
-399,-692,0,0,0,0,0,0,0,0,0,-1,825,1716,0,0
-392,-692,0,0,0,0,0,0,0,0,0,-1,832,1716,0,0
-385,-692,0,0,0,0,0,0,0,0,0,-1,839,1716,0,0
-378,-692,0,0,0,0,0,0,0,0,0,-1,846,1716,0,0
-371,-692,0,0,0,0,0,0,0,0,0,-1,853,1716,0,0
-364,-692,0,0,0,0,0,0,0,0,0,-1,860,1716,0,0
-357,-692,0,0,0,0,0,0,0,0,0,-1,867,1716,0,0
-350,-692,0,0,0,0,0,0,0,0,0,-1,874,1716,0,0
-343,-692,0,0,0,0,0,0,0,0,0,-1,881,1716,0,0
-336,-692,0,0,0,0,0,0,0,0,0,-1,888,1716,0,0
-329,-692,3.03107,4.10266,0,0,0,0,0,0,0,-1,895,1716,3.03105,-4.10267
-322,-692,4.43713,18.5242,0,0,0,0,0,0,0,-1,902,1716,4.43711,-18.5241
-315,-692,5.38965,17.975,0,0,0,0,0,0,0,-1,909,1716,5.38963,-17.975
-308,-692,5.86938,17.4392,0,0,0,0,0,0,0,-1,916,1716,5.86937,-17.4392
-301,-692,8.65558,20.7662,0,0,0,0,0,0,0,-1,923,1716,8.65556,-20.7663
-294,-692,6.66138,19.0796,0,0,0,0,0,0,0,-1,930,1716,6.66141,-19.0796
-287,-692,6.81342,25.6943,0,0,0,0,0,0,0,-1,937,1716,6.8134,-25.6943
-280,-692,6.59174,25.3119,0,0,0,0,0,0,0,-1,944,1716,6.59175,-25.3118
-273,-692,7.05988,25.9797,0,0,0,0,0,0,0,-1,951,1716,7.05987,-25.9798
-266,-692,7.14465,26.8445,0,0,0,0,0,0,0,-1,958,1716,7.14462,-26.8445
-259,-692,7.12402,26.88,0,0,0,0,0,0,0,-1,965,1716,7.12402,-26.88
-252,-692,6.9364,27.4548,0,0,0,0,0,0,0,-1,972,1716,6.9364,-27.4548
-245,-692,6.77545,27.7546,0.00581398,-0.0107493,0.00563454,0.007549,-0.0124844,0.298712,0.0116827,0.0457623,979,1716,6.77546,-27.7546
-238,-692,6.85986,28.2085,0.00600705,-0.0121197,0.00649006,0.00809113,-0.0142037,0.310717,0.0130322,0.0431792,986,1716,6.85988,-28.2085
-231,-692,6.82166,28.6448,0.00635716,-0.0130358,0.007094,0.00867512,-0.0153537,0.315813,0.0140505,0.0366119,993,1716,6.82168,-28.6448
-224,-692,6.69147,28.8826,0.00659186,-0.0133214,0.00748968,0.00909436,-0.0158239,0.322463,0.0145604,0.018269,1000,1716,6.69144,-28.8825
-217,-692,6.63562,29.1664,0.00629082,-0.0137708,0.00769209,0.00890064,-0.0163806,0.327099,0.0148075,0.0122358,1007,1716,6.63561,-29.1664
-210,-692,6.64099,29.4851,0.00583275,-0.0133971,0.00769532,0.00853304,-0.0160974,0.337477,0.0144422,0.0133741,1014,1716,6.64096,-29.4851
-203,-692,6.63562,29.7872,0.00537683,-0.0125953,0.00735325,0.00800195,-0.0152204,0.342899,0.0136216,0.0154417,1021,1716,6.63557,-29.7872
-196,-692,6.61145,30.1073,0.00480527,-0.0113596,0.00674655,0.00725097,-0.0138053,0.347777,0.0123516,0.0172208,1028,1716,6.61151,-30.1073
-189,-692,6.5769,30.3818,0.00418617,-0.00981909,0.00601219,0.00641301,-0.0120459,0.354722,0.0108214,0.00888691,1035,1716,6.57687,-30.3818
-182,-692,6.5553,30.6758,0.00356306,-0.00800525,0.0052381,0.00558237,-0.0100246,0.367949,0.00913152,0.0130784,1042,1716,6.55535,-30.6757
-175,-692,6.52783,30.9708,0.00310696,-0.00605062,0.00454599,0.0049804,-0.00792406,0.390902,0.00751473,0.0138947,1049,1716,6.52778,-30.9708
-168,-692,6.54932,31.2482,0.0026524,-0.00424201,0.00380046,0.00433615,-0.00592576,0.41705,0.00594836,0.0112509,1056,1716,6.54936,-31.2481
-161,-692,6.56592,31.5391,0.00220276,-0.00258378,0.00308134,0.00371108,-0.0040921,0.455213,0.00450696,0.013613,1063,1716,6.56596,-31.5391
-154,-692,6.54895,31.807,0.00177044,-0.000370737,0.00236951,0.00329999,-0.00190029,0.573215,0.00303842,0.0140946,1070,1716,6.54895,-31.807
-147,-692,6.52893,32.0343,0.0015388,0.00158465,0.00154047,0.00310237,2.10805e-05,0.792839,0.00206126,0.0129559,1077,1716,6.52894,-32.0344
-140,-692,6.53113,32.2802,0.00161824,0.00268596,0.00115884,0.003428,0.000876203,1.00125,0.00205646,0.0100549,1084,1716,6.53108,-32.2801
-133,-692,6.5415,32.5209,0.00173106,0.0036925,0.000789407,0.00397074,0.00145282,1.23193,0.00231983,0.00985515,1091,1716,6.54147,-32.5208
-126,-692,6.54395,32.7494,0.0018403,0.00467354,0.000431753,0.00473788,0.00177597,1.42288,0.00276383,0.00812807,1098,1716,6.54398,-32.7494
-119,-692,6.56458,32.9904,0.00197904,0.00547612,0.000174128,0.00548476,0.00197039,1.52117,0.00320818,0.0112782,1105,1716,6.56459,-32.9904
-112,-692,6.54712,33.1879,0.00214072,0.00598304,-4.29248e-05,0.00598352,0.00214024,-1.55963,0.00350092,0.0109226,1112,1716,6.54706,-33.1878
-105,-692,6.57996,33.3857,0.00230194,0.00621178,-0.000190461,0.00622104,0.00229269,-1.52224,0.00363286,0.0154066,1119,1716,6.5799,-33.3857
-98,-692,6.60779,33.5667,0.00247034,0.00623016,-0.000320914,0.00625736,0.00244315,-1.48626,0.00364148,0.018296,1126,1716,6.60774,-33.5667
-91,-692,6.58643,33.7627,0.00271332,0.00587587,-0.000489956,0.00595004,0.00263916,-1.42056,0.00344255,0.0198122,1133,1716,6.5864,-33.7627
-84,-692,6.60144,33.95,0.00305171,0.00536886,-0.000646831,0.00553719,0.00288337,-1.3162,0.00319781,0.0215834,1140,1716,6.60139,-33.9499
-77,-692,6.61975,34.1877,0.00324137,0.00482172,-0.00101168,0.00531524,0.00274785,-1.11694,0.00306934,0.0177137,1147,1716,6.61974,-34.1877
-70,-692,6.69019,34.4664,0.00351899,0.00408866,-0.0018232,0.00564914,0.00195851,-0.862885,0.00331225,0.0331663,1154,1716,6.69022,-34.4664
-63,-692,6.76404,34.7164,0,0,0,0,0,0,0,-1,1161,1716,6.76401,-34.7164
-56,-692,6.66248,34.6128,0,0,0,0,0,0,0,-1,1168,1716,6.66245,-34.6128
-49,-692,6.69421,34.8362,0,0,0,0,0,0,0,-1,1175,1716,6.69425,-34.8361
-42,-692,6.75073,35.0984,0,0,0,0,0,0,0,-1,1182,1716,6.75071,-35.0984
-35,-692,6.82446,35.2412,0,0,0,0,0,0,0,-1,1189,1716,6.82449,-35.2412
-28,-692,6.82849,35.3284,0.00461462,0.0132192,0.0062191,0.0164791,0.0013547,1.08799,0.0105635,0.045869,1196,1716,6.82847,-35.3284
-21,-692,6.90515,35.2721,0.00484355,0.0162351,0.00615712,0.0189269,0.00215171,1.15865,0.0119654,0.0315309,1203,1716,6.90521,-35.2721
-14,-692,6.95068,35.3629,0.00458293,0.0181688,0.00606285,0.0204809,0.0022708,1.20646,0.0129635,0.0164484,1210,1716,6.95063,-35.3629
-7,-692,6.96997,35.5111,0.00448602,0.0200621,0.00627652,0.0222764,0.00227164,1.23163,0.0141546,0.0148841,1217,1716,6.97,-35.5112
0,-692,6.99597,35.5879,0.00456212,0.0214887,0.0068321,0.0239022,0.0021486,1.23122,0.0152691,0.0177306,1224,1716,6.99602,-35.5879
7,-692,7.03748,35.6597,0.00450131,0.0233835,0.00681685,0.0255873,0.0022975,1.25811,0.0163463,0.0233442,1231,1716,7.03748,-35.6597
14,-692,7.14624,35.8969,0.00474952,0.0254219,0.00658581,0.0273417,0.0028297,1.28715,0.0173616,0.0267066,1238,1716,7.14626,-35.8968
21,-692,7.23694,35.9834,0.00515961,0.0270248,0.00606635,0.0285951,0.00358932,1.3175,0.0179868,0.0282389,1245,1716,7.23698,-35.9834
28,-692,7.20984,35.8661,0.00517808,0.028274,0.00514408,0.0293679,0.00408417,1.36126,0.0183692,0.0310854,1252,1716,7.20984,-35.866
35,-692,7.23633,35.9564,0.00459359,0.0294042,0.00398598,0.0300289,0.00396894,1.41535,0.0188362,0.0286573,1259,1716,7.23628,-35.9564
42,-692,7.36096,36.1327,0.00352169,0.030379,0.00243898,0.0305987,0.003302,1.48096,0.0193924,0.024148,1266,1716,7.36096,-36.1327
49,-692,7.42578,36.129,0.00225822,0.0304669,0.000669064,0.0304828,0.00224236,1.5471,0.0196171,0.027069,1273,1716,7.42576,-36.129
56,-692,7.33301,36.0376,0.000804107,0.0306856,-0.00140115,0.0307512,0.000738551,-1.52404,0.0202591,0.0345367,1280,1716,7.33302,-36.0376
63,-692,7.32385,36.0575,-0.00127138,0.0305436,-0.00381516,0.0309947,-0.00172248,-1.4531,0.0212606,0.0345392,1287,1716,7.32387,-36.0574
70,-692,7.4613,36.1671,-0.00362587,0.0290839,-0.00662183,0.0303736,-0.00491556,-1.37844,0.0220708,0.0296605,1294,1716,7.46135,-36.1671
77,-692,7.58923,36.2083,-0.00637619,0.0281387,-0.00900208,0.0303455,-0.00858299,-1.33039,0.0236171,0.0357519,1301,1716,7.58924,-36.2082
84,-692,7.62341,36.1382,-0.00917711,0.0263471,-0.0107336,0.0293384,-0.0121684,-1.29901,0.0246379,0.04557,1308,1716,7.6234,-36.1382
91,-692,7.65039,36.0651,-0.0111433,0.0245824,-0.0120732,0.0282798,-0.0148407,-1.27362,0.0252954,0.0395231,1315,1716,7.65034,-36.065
98,-692,7.6991,35.9337,-0.0125828,0.0223309,-0.0131103,0.0267057,-0.0169576,-1.24872,0.0254176,0.0295682,1322,1716,7.69906,-35.9337
105,-692,7.60693,35.9426,-0.0135527,0.0206828,-0.0141486,0.0257732,-0.0186431,-1.22544,0.0257536,0.0383077,1329,1716,7.60693,-35.9426
112,-692,7.62134,35.8451,-0.0135715,0.0183671,-0.01386,0.0235429,-0.0187474,-1.21339,0.0244686,0.0405597,1336,1716,7.62133,-35.8451
119,-692,7.76587,35.701,-0.0133775,0.0160672,-0.0130913,0.0210458,-0.0183562,-1.20739,0.0227664,0.0333425,1343,1716,7.76585,-35.7011
126,-692,7.80701,35.6298,-0.0127326,0.0141304,-0.0118252,0.0185942,-0.0171964,-1.20985,0.020669,0.032357,1350,1716,7.80698,-35.6298
133,-692,7.88586,35.5549,-0.0113177,0.0122853,-0.010011,0.0159595,-0.0149918,-1.21905,0.0178726,0.0246395,1357,1716,7.88581,-35.555
140,-692,7.93359,35.5649,-0.00939696,0.01046,-0.00807563,0.0133296,-0.0122665,-1.22937,0.0147822,0.0302346,1364,1716,7.93362,-35.5649
147,-692,7.96838,35.5701,-0.00724541,0.00871303,-0.00604972,0.0107471,-0.00927953,-1.24644,0.0115728,0.0365767,1371,1716,7.96842,-35.57
154,-692,7.90796,35.4614,-0.00527003,0.0084645,-0.00401467,0.00955191,-0.00635744,-1.30628,0.00924679,0.0313171,1378,1716,7.90801,-35.4614
161,-692,8.08313,35.3356,-0.00324304,0.00586424,-0.00171211,0.00617547,-0.00355427,-1.39098,0.00568501,0.0388437,1385,1716,8.08311,-35.3356
168,-692,8.2467,35.2666,0,0,0,0,0,0,0,-1,1392,1716,8.2467,-35.2666
175,-692,8.12537,35.0081,0,0,0,0,0,0,0,-1,1399,1716,8.12534,-35.008
182,-692,8.11133,34.8549,0,0,0,0,0,0,0,-1,1406,1716,8.11132,-34.8548
189,-692,8.13354,34.7354,0,0,0,0,0,0,0,-1,1413,1716,8.13358,-34.7353
196,-692,8.15027,34.6002,0.00439869,0.0011498,0.00297893,0.00616731,-0.000618814,0.53578,0.00433256,0.0373937,1420,1716,8.15028,-34.6002
203,-692,8.17932,34.4481,0.00393962,0.000258954,0.00152209,0.00448751,-0.000288932,0.345516,0.00309249,0.0240014,1427,1716,8.17932,-34.4481
210,-692,8.23926,34.2941,0.00345363,-0.000142815,0.00149019,0.00399085,-0.000680031,0.345999,0.00291381,0.0188124,1434,1716,8.23929,-34.294
217,-692,8.22119,34.1084,0.00287505,-0.000394919,0.00115313,0.00324078,-0.000760653,0.307131,0.00245369,0.0163303,1441,1716,8.22119,-34.1084
224,-692,8.19922,33.9287,0.00258229,-0.000255499,0.000981554,0.00288871,-0.00056192,0.302592,0.00213787,0.0126924,1448,1716,8.19921,-33.9287
231,-692,8.22107,33.7393,0.00230916,-0.000157235,0.000738216,0.00251323,-0.000361306,0.269702,0.001808,0.0113911,1455,1716,8.22105,-33.7392
238,-692,8.26086,33.495,0.00176453,-0.000445739,0.000305962,0.0018061,-0.000487311,0.135045,0.00139517,0.0172642,1462,1716,8.2609,-33.495
245,-692,8.25195,33.2953,0.00120983,-0.000352688,9.03806e-05,0.00121504,-0.000357898,0.0575871,0.000952019,0.0205268,1469,1716,8.25192,-33.2953
252,-692,8.2793,33.1267,0.000991553,-0.000192398,-2.56605e-05,0.000992109,-0.000192954,-0.02166,0.000734225,0.0188737,1476,1716,8.27927,-33.1268
259,-692,8.26709,32.9589,0.000948439,5.32849e-05,-7.09821e-05,0.000954033,4.76913e-05,-0.078641,0.000620736,0.0100121,1483,1716,8.26714,-32.9588
266,-692,8.2561,32.739,0.0011018,0.000431222,-0.000148255,0.00113311,0.000399907,-0.208163,0.00066357,0.00997108,1490,1716,8.25608,-32.739
273,-692,8.25549,32.4868,0.0014044,0.000900358,-0.000200074,0.00147416,0.000830597,-0.335498,0.000853388,0.0150705,1497,1716,8.25547,-32.4868
280,-692,8.27295,32.2334,0.00174988,0.00139649,-0.000288042,0.0019111,0.00123527,-0.510283,0.00111902,0.0141555,1504,1716,8.27299,-32.2334
287,-692,8.27649,32.02,0.00205151,0.00196211,-0.00046516,0.00247411,0.00153951,-0.737497,0.00144259,0.0112491,1511,1716,8.27644,-32.02
294,-692,8.2677,31.7911,0.00231198,0.00258552,-0.00072774,0.00318923,0.00170827,-0.878281,0.00184286,0.010588,1518,1716,8.26775,-31.7911
301,-692,8.2793,31.5297,0.00242335,0.00301874,-0.00109674,0.00385747,0.00158462,-0.917922,0.00223889,0.0123404,1525,1716,8.27924,-31.5297
308,-692,8.25342,31.2823,0.00234292,0.00315627,-0.00147297,0.00427767,0.00122152,-0.920089,0.0025443,0.0156496,1532,1716,8.25339,-31.2823
315,-692,8.26111,31.0294,0.00218248,0.00324113,-0.00179947,0.00458751,0.000836101,-0.928441,0.00282124,0.0150254,1539,1716,8.26114,-31.0294
322,-692,8.20288,30.7067,0.00197086,0.00319433,-0.00214912,0.00481708,0.000348113,-0.924053,0.00310187,0.0200481,1546,1716,8.20292,-30.7067
329,-692,8.17932,30.4301,0.00159046,0.00298522,-0.00236641,0.00475487,-0.000179188,-0.928692,0.0032313,0.0187679,1553,1716,8.17931,-30.43
336,-692,8.19067,30.1553,0.00117125,0.00245961,-0.00245354,0.00435212,-0.000721269,-0.913776,0.00316931,0.0125734,1560,1716,8.19067,-30.1552
343,-692,8.18823,29.8788,0.000493122,0.0014086,-0.00270364,0.00369297,-0.00179125,-0.869256,0.00322915,0.0128415,1567,1716,8.18828,-29.8788
350,-692,8.18481,29.58,-0.000185667,8.86411e-05,-0.00263037,0.00258543,-0.00268245,-0.811446,0.00304159,0.0144376,1574,1716,8.18478,-29.5799
357,-692,8.15625,29.2561,-0.000363849,-0.00176917,-0.00218377,0.00122753,-0.00336054,-0.629747,0.00274269,0.0182225,1581,1716,8.15627,-29.2562
364,-692,8.18774,28.9462,-0.000430641,-0.00412174,-0.00152255,0.000116344,-0.00466872,-0.344896,0.00315198,0.023877,1588,1716,8.1878,-28.9462
371,-692,8.32617,28.7272,-0.000388082,-0.00684126,-0.000704018,-0.000312169,-0.00691717,-0.107413,0.00451099,0.0376201,1595,1716,8.32615,-28.7272
378,-692,8.11389,28.4843,0,0,0,0,0,0,0,-1,1602,1716,8.11393,-28.4842
385,-692,7.99524,28.3175,0,0,0,0,0,0,0,-1,1609,1716,7.99523,-28.3175
392,-692,8.08691,27.7007,0,0,0,0,0,0,0,-1,1616,1716,8.08692,-27.7007
399,-692,8.24841,28.3582,0,0,0,0,0,0,0,-1,1623,1716,8.24839,-28.3582
406,-692,7.84009,28.0695,0,0,0,0,0,0,0,-1,1630,1716,7.8401,-28.0694
413,-692,4.25085,10.5685,0,0,0,0,0,0,0,-1,1637,1716,4.2508,-10.5685
420,-692,5.48901,10.4845,0,0,0,0,0,0,0,-1,1644,1716,5.48906,-10.4845
427,-692,3.79578,8.60339,0,0,0,0,0,0,0,-1,1651,1716,3.79577,-8.6034
434,-692,4.78516,8.64636,0,0,0,0,0,0,0,-1,1658,1716,4.78512,-8.64634
441,-692,5.8208,8.74036,0,0,0,0,0,0,0,-1,1665,1716,5.82084,-8.7404
448,-692,6.73792,8.51013,0,0,0,0,0,0,0,-1,1672,1716,6.73793,-8.5101
455,-692,0,0,0,0,0,0,0,0,0,-1,1679,1716,0,0
462,-692,0,0,0,0,0,0,0,0,0,-1,1686,1716,0,0
469,-692,0,0,0,0,0,0,0,0,0,-1,1693,1716,0,0
476,-692,0,0,0,0,0,0,0,0,0,-1,1700,1716,0,0
483,-692,0,0,0,0,0,0,0,0,0,-1,1707,1716,0,0
490,-692,0,0,0,0,0,0,0,0,0,-1,1714,1716,0,0
497,-692,0,0,0,0,0,0,0,0,0,-1,1721,1716,0,0
504,-692,0,0,0,0,0,0,0,0,0,-1,1728,1716,0,0
511,-692,0,0,0,0,0,0,0,0,0,-1,1735,1716,0,0
518,-692,0,0,0,0,0,0,0,0,0,-1,1742,1716,0,0
525,-692,0,0,0,0,0,0,0,0,0,-1,1749,1716,0,0
532,-692,0,0,0,0,0,0,0,0,0,-1,1756,1716,0,0
539,-692,0,0,0,0,0,0,0,0,0,-1,1763,1716,0,0
546,-692,0,0,0,0,0,0,0,0,0,-1,1770,1716,0,0
553,-692,0,0,0,0,0,0,0,0,0,-1,1777,1716,0,0
560,-692,0,0,0,0,0,0,0,0,0,-1,1784,1716,0,0
567,-692,0,0,0,0,0,0,0,0,0,-1,1791,1716,0,0
574,-692,0,0,0,0,0,0,0,0,0,-1,1798,1716,0,0
581,-692,0,0,0,0,0,0,0,0,0,-1,1805,1716,0,0
588,-692,0,0,0,0,0,0,0,0,0,-1,1812,1716,0,0
595,-692,0,0,0,0,0,0,0,0,0,-1,1819,1716,0,0
602,-692,0,0,0,0,0,0,0,0,0,-1,1826,1716,0,0
609,-692,0,0,0,0,0,0,0,0,0,-1,1833,1716,0,0
616,-692,0,0,0,0,0,0,0,0,0,-1,1840,1716,0,0
623,-692,0,0,0,0,0,0,0,0,0,-1,1847,1716,0,0
630,-692,0,0,0,0,0,0,0,0,0,-1,1854,1716,0,0
637,-692,0,0,0,0,0,0,0,0,0,-1,1861,1716,0,0
644,-692,0,0,0,0,0,0,0,0,0,-1,1868,1716,0,0
651,-692,0,0,0,0,0,0,0,0,0,-1,1875,1716,0,0
658,-692,0,0,0,0,0,0,0,0,0,-1,1882,1716,0,0
665,-692,0,0,0,0,0,0,0,0,0,-1,1889,1716,0,0
672,-692,0,0,0,0,0,0,0,0,0,-1,1896,1716,0,0
679,-692,0,0,0,0,0,0,0,0,0,-1,1903,1716,0,0
686,-692,0,0,0,0,0,0,0,0,0,-1,1910,1716,0,0
693,-692,0,0,0,0,0,0,0,0,0,-1,1917,1716,0,0
700,-692,0,0,0,0,0,0,0,0,0,-1,1924,1716,0,0
707,-692,0,0,0,0,0,0,0,0,0,-1,1931,1716,0,0
714,-692,0,0,0,0,0,0,0,0,0,-1,1938,1716,0,0
721,-692,0,0,0,0,0,0,0,0,0,-1,1945,1716,0,0
728,-692,0,0,0,0,0,0,0,0,0,-1,1952,1716,0,0
735,-692,0,0,0,0,0,0,0,0,0,-1,1959,1716,0,0
742,-692,0,0,0,0,0,0,0,0,0,-1,1966,1716,0,0
749,-692,0,0,0,0,0,0,0,0,0,-1,1973,1716,0,0
756,-692,0,0,0,0,0,0,0,0,0,-1,1980,1716,0,0
763,-692,0,0,0,0,0,0,0,0,0,-1,1987,1716,0,0
770,-692,0,0,0,0,0,0,0,0,0,-1,1994,1716,0,0
777,-692,0,0,0,0,0,0,0,0,0,-1,2001,1716,0,0
784,-692,0,0,0,0,0,0,0,0,0,-1,2008,1716,0,0
791,-692,0,0,0,0,0,0,0,0,0,-1,2015,1716,0,0
798,-692,0,0,0,0,0,0,0,0,0,-1,2022,1716,0,0
805,-692,0,0,0,0,0,0,0,0,0,-1,2029,1716,0,0
812,-692,0,0,0,0,0,0,0,0,0,-1,2036,1716,0,0
-700,-699,0,0,0,0,0,0,0,0,0,-1,524,1723,0,0
-693,-699,0,0,0,0,0,0,0,0,0,-1,531,1723,0,0
-686,-699,0,0,0,0,0,0,0,0,0,-1,538,1723,0,0
-679,-699,0,0,0,0,0,0,0,0,0,-1,545,1723,0,0
-672,-699,0,0,0,0,0,0,0,0,0,-1,552,1723,0,0
-665,-699,0,0,0,0,0,0,0,0,0,-1,559,1723,0,0
-658,-699,0,0,0,0,0,0,0,0,0,-1,566,1723,0,0
-651,-699,0,0,0,0,0,0,0,0,0,-1,573,1723,0,0
-644,-699,0,0,0,0,0,0,0,0,0,-1,580,1723,0,0
-637,-699,0,0,0,0,0,0,0,0,0,-1,587,1723,0,0
-630,-699,0,0,0,0,0,0,0,0,0,-1,594,1723,0,0
-623,-699,0,0,0,0,0,0,0,0,0,-1,601,1723,0,0
-616,-699,0,0,0,0,0,0,0,0,0,-1,608,1723,0,0
-609,-699,0,0,0,0,0,0,0,0,0,-1,615,1723,0,0
-602,-699,0,0,0,0,0,0,0,0,0,-1,622,1723,0,0
-595,-699,0,0,0,0,0,0,0,0,0,-1,629,1723,0,0
-588,-699,0,0,0,0,0,0,0,0,0,-1,636,1723,0,0
-581,-699,0,0,0,0,0,0,0,0,0,-1,643,1723,0,0
-574,-699,0,0,0,0,0,0,0,0,0,-1,650,1723,0,0
-567,-699,0,0,0,0,0,0,0,0,0,-1,657,1723,0,0
-560,-699,0,0,0,0,0,0,0,0,0,-1,664,1723,0,0
-553,-699,0,0,0,0,0,0,0,0,0,-1,671,1723,0,0
-546,-699,0,0,0,0,0,0,0,0,0,-1,678,1723,0,0
-539,-699,0,0,0,0,0,0,0,0,0,-1,685,1723,0,0
-532,-699,0,0,0,0,0,0,0,0,0,-1,692,1723,0,0
-525,-699,0,0,0,0,0,0,0,0,0,-1,699,1723,0,0
-518,-699,0,0,0,0,0,0,0,0,0,-1,706,1723,0,0
-511,-699,0,0,0,0,0,0,0,0,0,-1,713,1723,0,0
-504,-699,0,0,0,0,0,0,0,0,0,-1,720,1723,0,0
-497,-699,0,0,0,0,0,0,0,0,0,-1,727,1723,0,0
-490,-699,0,0,0,0,0,0,0,0,0,-1,734,1723,0,0
-483,-699,0,0,0,0,0,0,0,0,0,-1,741,1723,0,0
-476,-699,0,0,0,0,0,0,0,0,0,-1,748,1723,0,0
-469,-699,0,0,0,0,0,0,0,0,0,-1,755,1723,0,0
-462,-699,0,0,0,0,0,0,0,0,0,-1,762,1723,0,0
-455,-699,0,0,0,0,0,0,0,0,0,-1,769,1723,0,0
-448,-699,0,0,0,0,0,0,0,0,0,-1,776,1723,0,0
-441,-699,0,0,0,0,0,0,0,0,0,-1,783,1723,0,0
-434,-699,0,0,0,0,0,0,0,0,0,-1,790,1723,0,0
-427,-699,0,0,0,0,0,0,0,0,0,-1,797,1723,0,0
-420,-699,0,0,0,0,0,0,0,0,0,-1,804,1723,0,0
-413,-699,0,0,0,0,0,0,0,0,0,-1,811,1723,0,0
-406,-699,0,0,0,0,0,0,0,0,0,-1,818,1723,0,0
-399,-699,0,0,0,0,0,0,0,0,0,-1,825,1723,0,0
-392,-699,0,0,0,0,0,0,0,0,0,-1,832,1723,0,0
-385,-699,0,0,0,0,0,0,0,0,0,-1,839,1723,0,0
-378,-699,0,0,0,0,0,0,0,0,0,-1,846,1723,0,0
-371,-699,0,0,0,0,0,0,0,0,0,-1,853,1723,0,0
-364,-699,0,0,0,0,0,0,0,0,0,-1,860,1723,0,0
-357,-699,0,0,0,0,0,0,0,0,0,-1,867,1723,0,0
-350,-699,0,0,0,0,0,0,0,0,0,-1,874,1723,0,0
-343,-699,0,0,0,0,0,0,0,0,0,-1,881,1723,0,0
-336,-699,0,0,0,0,0,0,0,0,0,-1,888,1723,0,0
-329,-699,0,0,0,0,0,0,0,0,0,-1,895,1723,0,0
-322,-699,0,0,0,0,0,0,0,0,0,-1,902,1723,0,0
-315,-699,6.20001,19.5193,0,0,0,0,0,0,0,-1,909,1723,6.20001,-19.5193
-308,-699,6.98151,18.9218,0,0,0,0,0,0,0,-1,916,1723,6.98151,-18.9217
-301,-699,4.72729,12.8752,0,0,0,0,0,0,0,-1,923,1723,4.72732,-12.8752
-294,-699,6.90332,19.8601,0,0,0,0,0,0,0,-1,930,1723,6.90332,-19.8601
-287,-699,7.09802,22.7235,0,0,0,0,0,0,0,-1,937,1723,7.09805,-22.7235
-280,-699,7.50189,27.2051,0,0,0,0,0,0,0,-1,944,1723,7.50189,-27.2051
-273,-699,7.69263,25.8022,0,0,0,0,0,0,0,-1,951,1723,7.69265,-25.8023
-266,-699,6.81915,20.8951,0,0,0,0,0,0,0,-1,958,1723,6.81914,-20.8952
-259,-699,5.39758,14.5466,0,0,0,0,0,0,0,-1,965,1723,5.39759,-14.5466
-252,-699,7.30695,26.8383,0,0,0,0,0,0,0,-1,972,1723,7.30697,-26.8382
-245,-699,7.15454,27.7045,0,0,0,0,0,0,0,-1,979,1723,7.15454,-27.7045
-238,-699,7.20831,28.2709,0,0,0,0,0,0,0,-1,986,1723,7.20831,-28.2709
-231,-699,7.21582,28.7512,0,0,0,0,0,0,0,-1,993,1723,7.21584,-28.7512
-224,-699,6.79138,28.7904,0.0113161,-0.0222378,0.0108528,0.0145204,-0.0254421,0.287092,0.0233578,0.0406945,1000,1723,6.79141,-28.7904
-217,-699,6.91675,29.1361,0.0106492,-0.0223624,0.0110525,0.014008,-0.0257211,0.29502,0.0232675,0.0278011,1007,1723,6.91676,-29.1361
-210,-699,6.90918,29.5155,0.00976671,-0.0214726,0.0109437,0.013219,-0.0249249,0.305576,0.0223654,0.0184502,1014,1723,6.90921,-29.5155
-203,-699,6.8999,29.7845,0.00885809,-0.0199607,0.0104192,0.0122304,-0.0233331,0.313025,0.0208635,0.0204249,1021,1723,6.89987,-29.7846
-196,-699,6.89746,30.0715,0.00780585,-0.0179169,0.00958553,0.010985,-0.021096,0.320242,0.0188261,0.0165901,1028,1723,6.8975,-30.0715
-189,-699,6.8501,30.3989,0.00671058,-0.0154908,0.00860496,0.0096552,-0.0184354,0.329709,0.0164801,0.00885066,1035,1723,6.8501,-30.399
-182,-699,6.81055,30.6843,0.00555058,-0.0127968,0.00755686,0.00826229,-0.0155085,0.344529,0.013935,0.0118158,1042,1723,6.81055,-30.6844
-175,-699,6.80945,30.9956,0.00455916,-0.0100436,0.00656914,0.00707938,-0.0125639,0.366328,0.0114874,0.0136454,1049,1723,6.80947,-30.9956
-168,-699,6.8302,31.2709,0.00365718,-0.00760128,0.00554903,0.00593238,-0.00987647,0.389112,0.00922144,0.0144834,1056,1723,6.8302,-31.2708
-161,-699,6.82227,31.5323,0.00281091,-0.00542729,0.00457513,0.004848,-0.00746439,0.418901,0.00716186,0.0127587,1063,1723,6.82227,-31.5323
-154,-699,6.78955,31.7968,0.00189915,-0.00254246,0.00360203,0.00390996,-0.00455327,0.509151,0.00489096,0.0124823,1070,1723,6.78952,-31.7967
-147,-699,6.76477,32.0344,0.00124985,-7.59751e-05,0.00242524,0.00310114,-0.00192727,0.651988,0.00292941,0.0139458,1077,1723,6.76473,-32.0345
-140,-699,6.76514,32.28,0.00118168,0.00103298,0.00190453,0.00301331,-0.000798654,0.765889,0.00232135,0.00963798,1084,1723,6.76517,-32.28
-133,-699,6.77356,32.5334,0.0011889,0.00201678,0.00142265,0.00308449,0.000121189,0.926972,0.00201715,0.00914917,1091,1723,6.77356,-32.5334
-126,-699,6.78479,32.7478,0.00114334,0.00295876,0.000949656,0.00336474,0.000737354,1.16681,0.00204224,0.0119046,1098,1723,6.78483,-32.7478
-119,-699,6.81274,32.9797,0.00110787,0.0037652,0.000603702,0.00389593,0.000977145,1.35756,0.00234058,0.0168538,1105,1723,6.81273,-32.9798
-112,-699,6.7771,33.2036,0.00115542,0.00433186,0.000232876,0.00434884,0.00113844,1.498,0.00260406,0.011811,1112,1723,6.7771,-33.2036
-105,-699,6.78064,33.4027,0.00127285,0.00456685,-9.75281e-06,0.00456688,0.00127282,-1.56784,0.00272141,0.0118394,1119,1723,6.78059,-33.4028
-98,-699,6.81348,33.6179,0.00144177,0.00453923,-0.000134199,0.00454504,0.00143597,-1.52758,0.00268269,0.0140266,1126,1723,6.81347,-33.618
-91,-699,6.81628,33.8053,0.00166399,0.00431802,-0.000243805,0.00434023,0.00164178,-1.47995,0.00253047,0.0188149,1133,1723,6.81624,-33.8053
-84,-699,6.81213,33.9891,0.00193006,0.00395057,-0.000351455,0.00400995,0.00187067,-1.4034,0.00231688,0.022931,1140,1723,6.81207,-33.9892
-77,-699,6.81714,34.1648,0.00215876,0.00359861,-0.000596241,0.00381346,0.00194392,-1.22495,0.00220184,0.0159063,1147,1723,6.81717,-34.1648
-70,-699,6.84155,34.3613,0.00247149,0.00314227,-0.0011007,0.00395754,0.00165621,-0.933283,0.00229499,0.0166733,1154,1723,6.84155,-34.3613
-63,-699,6.86108,34.5287,0.0033246,0.0038301,-0.000845492,0.00445981,0.00269489,-0.930638,0.00259347,0.0140435,1161,1723,6.86111,-34.5287
-56,-699,6.83398,34.6534,0.00420504,0.00409687,-5.44046e-05,0.00422767,0.00407425,-0.394176,0.00276872,0.0100102,1168,1723,6.83398,-34.6534
-49,-699,6.86914,34.8317,0.00441105,0.00463349,0.000769147,0.00529942,0.00374513,0.857201,0.00314557,0.0219004,1175,1723,6.86917,-34.8316
-42,-699,6.91907,35.0128,0.0038575,0.0052929,0.00191642,0.0066216,0.0025288,0.964565,0.00385836,0.0265624,1182,1723,6.91908,-35.0129
-35,-699,6.92139,35.135,0.00305207,0.00817439,0.00296187,0.00952887,0.0016976,1.14188,0.00586913,0.0243315,1189,1723,6.92136,-35.1351
-28,-699,6.97046,35.2349,0.00317071,0.00894968,0.0039128,0.0109243,0.00119612,1.10344,0.00691868,0.0197439,1196,1723,6.97041,-35.2349
-21,-699,6.99231,35.27,0.0030987,0.0100349,0.00457695,0.0123093,0.000824301,1.10961,0.00794567,0.0136877,1203,1723,6.99225,-35.27
-14,-699,6.99402,35.3734,0.00284686,0.010578,0.0049943,0.0130279,0.000396917,1.11474,0.00855604,0.0116323,1210,1723,6.99399,-35.3735
-7,-699,7.01892,35.4895,0.00280324,0.011668,0.00555492,0.0143421,0.000129065,1.12213,0.0095187,0.0083882,1217,1723,7.01891,-35.4895
0,-699,7.06885,35.5781,0.00284939,0.0123912,0.0064506,0.0156435,-0.000402907,1.10381,0.0105659,0.0093877,1224,1723,7.06881,-35.5782
7,-699,7.1084,35.6681,0.00279796,0.0135817,0.00687484,0.0169269,-0.000547195,1.11794,0.0114713,0.0147665,1231,1723,7.10845,-35.6681
14,-699,7.15894,35.7609,0.00306886,0.0149101,0.00711643,0.0182468,-0.000267796,1.13236,0.0122548,0.0171212,1238,1723,7.15891,-35.7609
21,-699,7.17834,35.7953,0.00351872,0.016112,0.00703589,0.0192574,0.000373355,1.1504,0.0127156,0.0172088,1245,1723,7.17832,-35.7953
28,-699,7.20361,35.8046,0.00379178,0.0171914,0.00659901,0.0198955,0.00108763,1.18189,0.0129164,0.0170444,1252,1723,7.20364,-35.8046
35,-699,7.28723,35.8944,0.00365792,0.0184549,0.00586925,0.0205003,0.0016126,1.23547,0.0131623,0.0145531,1259,1723,7.28718,-35.8944
42,-699,7.32446,35.9547,0.00316914,0.0197592,0.00470975,0.021003,0.00192534,1.3126,0.0134064,0.01282,1266,1723,7.32447,-35.9547
49,-699,7.34399,35.9771,0.00256969,0.0204345,0.00333698,0.0210375,0.00196673,1.39203,0.0134176,0.0136102,1273,1723,7.34398,-35.977
56,-699,7.36816,35.9902,0.00182034,0.0213113,0.00161021,0.0214434,0.00168821,1.48892,0.0137674,0.0144865,1280,1723,7.36818,-35.9903
63,-699,7.42053,35.975,0.000538119,0.021954,-0.000447061,0.0219634,0.000528792,-1.54993,0.0144692,0.0126617,1287,1723,7.42059,-35.975
70,-699,7.45093,35.9742,-0.00101615,0.021625,-0.00281214,0.021969,-0.0013602,-1.44906,0.0151198,0.0107837,1294,1723,7.45092,-35.9743
77,-699,7.46521,35.9886,-0.00291103,0.021381,-0.00484442,0.0223114,-0.00384148,-1.38104,0.0163063,0.0112989,1301,1723,7.46527,-35.9886
84,-699,7.4917,35.9574,-0.00479286,0.0206798,-0.00650254,0.0222438,-0.00635678,-1.33477,0.0173409,0.0140493,1308,1723,7.4917,-35.9574
91,-699,7.57593,35.9272,-0.00616607,0.0196217,-0.00759242,0.021691,-0.00823538,-1.30471,0.0178507,0.0127228,1315,1723,7.57597,-35.9272
98,-699,7.62109,35.9307,-0.00724201,0.0175792,-0.0082974,0.0200974,-0.00976023,-1.27614,0.0175793,0.0107198,1322,1723,7.62107,-35.9306
105,-699,7.6272,35.8949,-0.00794174,0.0160114,-0.0090149,0.019025,-0.0109554,-1.24818,0.017517,0.0153498,1329,1723,7.62725,-35.8949
112,-699,7.66626,35.8064,-0.00787617,0.0137745,-0.00860982,0.0167809,-0.0108826,-1.23485,0.016092,0.0205492,1336,1723,7.66627,-35.8064
119,-699,7.68848,35.7643,-0.00767475,0.0115037,-0.00781108,0.0142824,-0.0104535,-1.22902,0.0143382,0.0158828,1343,1723,7.68843,-35.7643
126,-699,7.72754,35.7024,-0.0071217,0.00940332,-0.00664299,0.0117426,-0.009461,-1.23221,0.0122655,0.0173437,1350,1723,7.72755,-35.7023
133,-699,7.78088,35.6299,-0.00596267,0.00737432,-0.00503392,0.00906102,-0.00764937,-1.24749,0.00965921,0.0152525,1357,1723,7.78085,-35.6299
140,-699,7.84863,35.5542,-0.00437295,0.00523324,-0.00339904,0.00631429,-0.005454,-1.26287,0.00680047,0.01782,1364,1723,7.8486,-35.5542
147,-699,7.84094,35.4832,-0.00261659,0.00315139,-0.00173346,0.00363226,-0.00309746,-1.3002,0.00388949,0.0154599,1371,1723,7.84096,-35.4832
154,-699,7.83228,35.3773,-0.00111268,0.00255047,-0.000260434,0.00256889,-0.0011311,-1.50017,0.00218929,0.0148133,1378,1723,7.83233,-35.3773
161,-699,7.87952,35.2594,0.000323886,0.000390551,0.00132765,0.00168528,-0.000970847,0.797949,0.0015519,0.0106657,1385,1723,7.87954,-35.2594
168,-699,7.90601,35.1494,0.00292281,-0.00188143,0.00295209,0.00432661,-0.00328522,0.443879,0.00440838,0.0121973,1392,1723,7.90599,-35.1494
175,-699,7.93591,35.0262,0.00541186,-0.00326448,0.00492346,0.00763572,-0.00548833,0.424255,0.00761091,0.0142776,1399,1723,7.93596,-35.0263
182,-699,7.95728,34.8881,0.00482244,-0.00171019,0.00409092,0.00679105,-0.0036788,0.448506,0.00613315,0.0145571,1406,1723,7.95724,-34.8881
189,-699,7.96472,34.7528,0.00421208,-0.000691864,0.00318382,0.00577868,-0.00225846,0.457267,0.00478631,0.016177,1413,1723,7.96471,-34.7528
196,-699,7.97266,34.6018,0.00339119,0.00029802,0.00205498,0.00441654,-0.000727333,0.462815,0.00321435,0.0158795,1420,1723,7.97264,-34.6018
203,-699,7.98218,34.4407,0.00277311,0.000465912,0.000887845,0.00307521,0.000163813,0.327973,0.00199778,0.0134854,1427,1723,7.9822,-34.4406
210,-699,8.01746,34.2903,0.00240037,0.000227589,0.000834158,0.00268367,-5.57156e-05,0.327406,0.00180797,0.0132146,1434,1723,8.01746,-34.2903
217,-699,8.04407,34.1351,0.00193924,0.000103866,0.000570427,0.00210208,-5.89725e-05,0.278072,0.00142145,0.0132849,1441,1723,8.04408,-34.1351
224,-699,8.05725,33.9397,0.00167813,0.000232051,0.000406084,0.00178436,0.000125819,0.255866,0.00114993,0.0146776,1448,1723,8.05721,-33.9397
231,-699,8.05713,33.7518,0.00142959,0.000324416,0.000218716,0.0014713,0.000282706,0.188442,0.000901531,0.0124636,1455,1723,8.05714,-33.7519
238,-699,8.03992,33.5298,0.00115678,0.000321681,7.46165e-06,0.00115684,0.000321614,0.00893414,0.000689497,0.0114288,1462,1723,8.03996,-33.5298
245,-699,8.04297,33.3256,0.000994776,0.000551701,-6.91362e-05,0.00100531,0.000541164,-0.151249,0.000580985,0.0129918,1469,1723,8.04298,-33.3256
252,-699,8.04028,33.1542,0.00103092,0.000835985,-8.4119e-05,0.0010622,0.000804704,-0.356014,0.000639811,0.0107395,1476,1723,8.04028,-33.1542
259,-699,8.03052,32.9648,0.00124079,0.00118811,-6.87081e-05,0.00128804,0.00114087,-0.602364,0.000814082,0.010807,1483,1723,8.03047,-32.9649
266,-699,8.02783,32.7467,0.00160107,0.00165216,-0.00012367,0.0017529,0.00150033,-0.887261,0.00109417,0.0121273,1490,1723,8.02789,-32.7467
273,-699,8.03259,32.5002,0.00210161,0.00228724,-0.000184677,0.00240111,0.00198774,-1.01825,0.00148229,0.0117834,1497,1723,8.03258,-32.5002
280,-699,8.05225,32.244,0.00264612,0.0028872,-0.000306075,0.00309561,0.0024377,-0.972987,0.00188315,0.0116003,1504,1723,8.05223,-32.2441
287,-699,8.0387,32.0089,0.00312302,0.00361341,-0.000551738,0.00397199,0.00276445,-0.994495,0.00235122,0.00988102,1511,1723,8.03871,-32.0089
294,-699,8.02344,31.7838,0.0034845,0.00437222,-0.000887142,0.00492035,0.00293638,-1.01735,0.00285845,0.0100132,1518,1723,8.02342,-31.7838
301,-699,8.02612,31.5533,0.00364556,0.00487126,-0.00136904,0.00575836,0.00275846,-0.995847,0.00332557,0.0112602,1525,1723,8.02611,-31.5534
308,-699,8.01941,31.3168,0.00356,0.00497949,-0.00187292,0.00627263,0.00226686,-0.966513,0.0036676,0.0164549,1532,1723,8.01945,-31.3167
315,-699,7.99695,31.0343,0.00336802,0.00505893,-0.0023401,0.00670162,0.00172533,-0.958747,0.00401807,0.0191867,1539,1723,7.997,-31.0344
322,-699,7.94617,30.7312,0.00312791,0.00497747,-0.0028593,0.00705782,0.00104755,-0.941803,0.00439782,0.0198752,1546,1723,7.94614,-30.7312
329,-699,7.90942,30.4578,0.00264185,0.00469599,-0.0032005,0.00703018,0.000307653,-0.940662,0.00458768,0.0174461,1553,1723,7.90944,-30.4577
336,-699,7.90356,30.2072,0.00210176,0.00400657,-0.00338671,0.00657224,-0.000463915,-0.922467,0.00454404,0.0192463,1560,1723,7.90353,-30.2071
343,-699,7.93958,29.9331,0.0010848,0.0024772,-0.00388615,0.00572902,-0.00216702,-0.874032,0.00471086,0.0249231,1567,1723,7.93953,-29.9331
350,-699,7.95483,29.6356,9.22664e-06,0.000795958,-0.00387255,0.00429507,-0.00348988,-0.836014,0.00450265,0.0333514,1574,1723,7.95489,-29.6356
357,-699,7.88135,29.364,-0.000157629,-0.00145807,-0.00325336,0.00250985,-0.00412555,-0.686767,0.00386862,0.0372892,1581,1723,7.88136,-29.364
364,-699,7.88794,29.0289,-0.00017925,-0.00430635,-0.002319,0.000861388,-0.00534699,-0.42181,0.00388376,0.0405243,1588,1723,7.88795,-29.029
371,-699,8.23657,28.8757,0,0,0,0,0,0,0,-1,1595,1723,8.23657,-28.8757
378,-699,7.3009,26.9484,0,0,0,0,0,0,0,-1,1602,1723,7.30092,-26.9483
385,-699,6.32727,24.7136,0,0,0,0,0,0,0,-1,1609,1723,6.32725,-24.7136
392,-699,7.63953,27.578,0,0,0,0,0,0,0,-1,1616,1723,7.63956,-27.578
399,-699,7.28809,29.0607,0,0,0,0,0,0,0,-1,1623,1723,7.28812,-29.0606
406,-699,5.50757,21.6672,0,0,0,0,0,0,0,-1,1630,1723,5.50755,-21.6672
413,-699,9.31396,23.2781,0,0,0,0,0,0,0,-1,1637,1723,9.31396,-23.278
420,-699,2.15076,7.65527,0,0,0,0,0,0,0,-1,1644,1723,2.15079,-7.65522
427,-699,3.36328,8.2428,0,0,0,0,0,0,0,-1,1651,1723,3.36332,-8.24283
434,-699,4.66455,8.90222,0,0,0,0,0,0,0,-1,1658,1723,4.66456,-8.90223
441,-699,0,0,0,0,0,0,0,0,0,-1,1665,1723,0,0
448,-699,0,0,0,0,0,0,0,0,0,-1,1672,1723,0,0
455,-699,0,0,0,0,0,0,0,0,0,-1,1679,1723,0,0
462,-699,0,0,0,0,0,0,0,0,0,-1,1686,1723,0,0
469,-699,0,0,0,0,0,0,0,0,0,-1,1693,1723,0,0
476,-699,0,0,0,0,0,0,0,0,0,-1,1700,1723,0,0
483,-699,0,0,0,0,0,0,0,0,0,-1,1707,1723,0,0
490,-699,0,0,0,0,0,0,0,0,0,-1,1714,1723,0,0
497,-699,0,0,0,0,0,0,0,0,0,-1,1721,1723,0,0
504,-699,0,0,0,0,0,0,0,0,0,-1,1728,1723,0,0
511,-699,0,0,0,0,0,0,0,0,0,-1,1735,1723,0,0
518,-699,0,0,0,0,0,0,0,0,0,-1,1742,1723,0,0
525,-699,0,0,0,0,0,0,0,0,0,-1,1749,1723,0,0
532,-699,0,0,0,0,0,0,0,0,0,-1,1756,1723,0,0
539,-699,0,0,0,0,0,0,0,0,0,-1,1763,1723,0,0
546,-699,0,0,0,0,0,0,0,0,0,-1,1770,1723,0,0
553,-699,0,0,0,0,0,0,0,0,0,-1,1777,1723,0,0
560,-699,0,0,0,0,0,0,0,0,0,-1,1784,1723,0,0
567,-699,0,0,0,0,0,0,0,0,0,-1,1791,1723,0,0
574,-699,0,0,0,0,0,0,0,0,0,-1,1798,1723,0,0
581,-699,0,0,0,0,0,0,0,0,0,-1,1805,1723,0,0
588,-699,0,0,0,0,0,0,0,0,0,-1,1812,1723,0,0
595,-699,0,0,0,0,0,0,0,0,0,-1,1819,1723,0,0
602,-699,0,0,0,0,0,0,0,0,0,-1,1826,1723,0,0
609,-699,0,0,0,0,0,0,0,0,0,-1,1833,1723,0,0
616,-699,0,0,0,0,0,0,0,0,0,-1,1840,1723,0,0
623,-699,0,0,0,0,0,0,0,0,0,-1,1847,1723,0,0
630,-699,0,0,0,0,0,0,0,0,0,-1,1854,1723,0,0
637,-699,0,0,0,0,0,0,0,0,0,-1,1861,1723,0,0
644,-699,0,0,0,0,0,0,0,0,0,-1,1868,1723,0,0
651,-699,0,0,0,0,0,0,0,0,0,-1,1875,1723,0,0
658,-699,0,0,0,0,0,0,0,0,0,-1,1882,1723,0,0
665,-699,0,0,0,0,0,0,0,0,0,-1,1889,1723,0,0
672,-699,0,0,0,0,0,0,0,0,0,-1,1896,1723,0,0
679,-699,0,0,0,0,0,0,0,0,0,-1,1903,1723,0,0
686,-699,0,0,0,0,0,0,0,0,0,-1,1910,1723,0,0
693,-699,0,0,0,0,0,0,0,0,0,-1,1917,1723,0,0
700,-699,0,0,0,0,0,0,0,0,0,-1,1924,1723,0,0
707,-699,0,0,0,0,0,0,0,0,0,-1,1931,1723,0,0
714,-699,0,0,0,0,0,0,0,0,0,-1,1938,1723,0,0
721,-699,0,0,0,0,0,0,0,0,0,-1,1945,1723,0,0
728,-699,0,0,0,0,0,0,0,0,0,-1,1952,1723,0,0
735,-699,0,0,0,0,0,0,0,0,0,-1,1959,1723,0,0
742,-699,0,0,0,0,0,0,0,0,0,-1,1966,1723,0,0
749,-699,0,0,0,0,0,0,0,0,0,-1,1973,1723,0,0
756,-699,0,0,0,0,0,0,0,0,0,-1,1980,1723,0,0
763,-699,0,0,0,0,0,0,0,0,0,-1,1987,1723,0,0
770,-699,0,0,0,0,0,0,0,0,0,-1,1994,1723,0,0
777,-699,0,0,0,0,0,0,0,0,0,-1,2001,1723,0,0
784,-699,0,0,0,0,0,0,0,0,0,-1,2008,1723,0,0
791,-699,0,0,0,0,0,0,0,0,0,-1,2015,1723,0,0
798,-699,0,0,0,0,0,0,0,0,0,-1,2022,1723,0,0
805,-699,0,0,0,0,0,0,0,0,0,-1,2029,1723,0,0
812,-699,0,0,0,0,0,0,0,0,0,-1,2036,1723,0,0
-700,-706,0,0,0,0,0,0,0,0,0,-1,524,1730,0,0
-693,-706,0,0,0,0,0,0,0,0,0,-1,531,1730,0,0
-686,-706,0,0,0,0,0,0,0,0,0,-1,538,1730,0,0
-679,-706,0,0,0,0,0,0,0,0,0,-1,545,1730,0,0
-672,-706,0,0,0,0,0,0,0,0,0,-1,552,1730,0,0
-665,-706,0,0,0,0,0,0,0,0,0,-1,559,1730,0,0
-658,-706,0,0,0,0,0,0,0,0,0,-1,566,1730,0,0
-651,-706,0,0,0,0,0,0,0,0,0,-1,573,1730,0,0
-644,-706,0,0,0,0,0,0,0,0,0,-1,580,1730,0,0
-637,-706,0,0,0,0,0,0,0,0,0,-1,587,1730,0,0
-630,-706,0,0,0,0,0,0,0,0,0,-1,594,1730,0,0
-623,-706,0,0,0,0,0,0,0,0,0,-1,601,1730,0,0
-616,-706,0,0,0,0,0,0,0,0,0,-1,608,1730,0,0
-609,-706,0,0,0,0,0,0,0,0,0,-1,615,1730,0,0
-602,-706,0,0,0,0,0,0,0,0,0,-1,622,1730,0,0
-595,-706,0,0,0,0,0,0,0,0,0,-1,629,1730,0,0
-588,-706,0,0,0,0,0,0,0,0,0,-1,636,1730,0,0
-581,-706,0,0,0,0,0,0,0,0,0,-1,643,1730,0,0
-574,-706,0,0,0,0,0,0,0,0,0,-1,650,1730,0,0
-567,-706,0,0,0,0,0,0,0,0,0,-1,657,1730,0,0
-560,-706,0,0,0,0,0,0,0,0,0,-1,664,1730,0,0
-553,-706,0,0,0,0,0,0,0,0,0,-1,671,1730,0,0
-546,-706,0,0,0,0,0,0,0,0,0,-1,678,1730,0,0
-539,-706,0,0,0,0,0,0,0,0,0,-1,685,1730,0,0
-532,-706,0,0,0,0,0,0,0,0,0,-1,692,1730,0,0
-525,-706,0,0,0,0,0,0,0,0,0,-1,699,1730,0,0
-518,-706,0,0,0,0,0,0,0,0,0,-1,706,1730,0,0
-511,-706,0,0,0,0,0,0,0,0,0,-1,713,1730,0,0
-504,-706,0,0,0,0,0,0,0,0,0,-1,720,1730,0,0
-497,-706,0,0,0,0,0,0,0,0,0,-1,727,1730,0,0
-490,-706,0,0,0,0,0,0,0,0,0,-1,734,1730,0,0
-483,-706,0,0,0,0,0,0,0,0,0,-1,741,1730,0,0
-476,-706,0,0,0,0,0,0,0,0,0,-1,748,1730,0,0
-469,-706,0,0,0,0,0,0,0,0,0,-1,755,1730,0,0
-462,-706,0,0,0,0,0,0,0,0,0,-1,762,1730,0,0
-455,-706,0,0,0,0,0,0,0,0,0,-1,769,1730,0,0
-448,-706,0,0,0,0,0,0,0,0,0,-1,776,1730,0,0
-441,-706,0,0,0,0,0,0,0,0,0,-1,783,1730,0,0
-434,-706,0,0,0,0,0,0,0,0,0,-1,790,1730,0,0
-427,-706,0,0,0,0,0,0,0,0,0,-1,797,1730,0,0
-420,-706,0,0,0,0,0,0,0,0,0,-1,804,1730,0,0
-413,-706,0,0,0,0,0,0,0,0,0,-1,811,1730,0,0
-406,-706,0,0,0,0,0,0,0,0,0,-1,818,1730,0,0
-399,-706,0,0,0,0,0,0,0,0,0,-1,825,1730,0,0
-392,-706,0,0,0,0,0,0,0,0,0,-1,832,1730,0,0
-385,-706,0,0,0,0,0,0,0,0,0,-1,839,1730,0,0
-378,-706,0,0,0,0,0,0,0,0,0,-1,846,1730,0,0
-371,-706,0,0,0,0,0,0,0,0,0,-1,853,1730,0,0
-364,-706,0,0,0,0,0,0,0,0,0,-1,860,1730,0,0
-357,-706,0,0,0,0,0,0,0,0,0,-1,867,1730,0,0
-350,-706,0,0,0,0,0,0,0,0,0,-1,874,1730,0,0
-343,-706,0,0,0,0,0,0,0,0,0,-1,881,1730,0,0
-336,-706,0,0,0,0,0,0,0,0,0,-1,888,1730,0,0
-329,-706,0,0,0,0,0,0,0,0,0,-1,895,1730,0,0
-322,-706,0,0,0,0,0,0,0,0,0,-1,902,1730,0,0
-315,-706,0,0,0,0,0,0,0,0,0,-1,909,1730,0,0
-308,-706,5.08191,14.6245,0,0,0,0,0,0,0,-1,916,1730,5.08188,-14.6245
-301,-706,7.45007,21.1975,0,0,0,0,0,0,0,-1,923,1730,7.45005,-21.1976
-294,-706,11.8603,21.026,0,0,0,0,0,0,0,-1,930,1730,11.8603,-21.026
-287,-706,10.3292,20.8425,0,0,0,0,0,0,0,-1,937,1730,10.3292,-20.8425
-280,-706,7.9162,21.8951,0,0,0,0,0,0,0,-1,944,1730,7.9162,-21.8952
-273,-706,7.38953,20.6355,0,0,0,0,0,0,0,-1,951,1730,7.38955,-20.6355
-266,-706,9.66724,22.8231,0,0,0,0,0,0,0,-1,958,1730,9.66722,-22.8231
-259,-706,3.47852,20.7363,0,0,0,0,0,0,0,-1,965,1730,3.47851,-20.7364
-252,-706,3.84259,20.1979,0,0,0,0,0,0,0,-1,972,1730,3.84256,-20.1979
-245,-706,4.698,19.2992,0,0,0,0,0,0,0,-1,979,1730,4.69799,-19.2991
-238,-706,7.07745,28.6687,0,0,0,0,0,0,0,-1,986,1730,7.07745,-28.6687
-231,-706,7.55292,28.7523,0,0,0,0,0,0,0,-1,993,1730,7.55293,-28.7524
-224,-706,6.94977,28.693,0,0,0,0,0,0,0,-1,1000,1730,6.94979,-28.693
-217,-706,7.18384,29.067,0.0170901,-0.0346807,0.0152995,0.0212734,-0.038864,0.266906,0.035212,0.0478209,1007,1730,7.18382,-29.0671
-210,-706,7.24231,29.5935,0.0156213,-0.03288,0.0150552,0.0199146,-0.0371733,0.277793,0.033458,0.0398185,1014,1730,7.24233,-29.5935
-203,-706,6.83765,30.0284,0.0140834,-0.0302745,0.0143123,0.0183004,-0.0344916,0.286535,0.0309536,0.0300646,1021,1730,6.83766,-30.0284
-196,-706,7.12769,30.1716,0,0,0,0,0,0,0,-1,1028,1730,7.1277,-30.1716
-189,-706,7.11987,30.4028,0.0105632,-0.0232534,0.0119165,0.0143405,-0.0270307,0.306961,0.0242574,0.0169405,1035,1730,7.11985,-30.4029
-182,-706,7.05969,30.7117,0.00862723,-0.0192538,0.0105027,0.0121408,-0.0227673,0.322834,0.0204631,0.0132346,1042,1730,7.05969,-30.7116
-175,-706,7.08252,30.9958,0.00687526,-0.0153184,0.00912631,0.0101461,-0.0185892,0.344134,0.0168273,0.0145022,1049,1730,7.08252,-30.9959
-168,-706,7.09143,31.2638,0.00533206,-0.0119068,0.00773699,0.00829519,-0.0148699,0.36575,0.0135528,0.0159154,1056,1730,7.09147,-31.2638
-161,-706,7.06213,31.533,0.00393513,-0.00894697,0.00642179,0.00658949,-0.0116013,0.39195,0.0106345,0.0134419,1063,1730,7.06214,-31.5329
-154,-706,7.0365,31.806,0.00236662,-0.00505607,0.00511009,0.0049709,-0.00766035,0.471326,0.00734755,0.0124855,1070,1730,7.03645,-31.806
-147,-706,7.00684,32.0342,0.00115465,-0.00183725,0.0034945,0.00345993,-0.00414254,0.583157,0.00439518,0.0116435,1077,1730,7.00686,-32.0342
-140,-706,7.00671,32.2914,0.000895776,-0.000596697,0.00278051,0.00302844,-0.00272936,0.654297,0.00332577,0.0104984,1084,1730,7.00676,-32.2914
-133,-706,7.02295,32.5385,0.000762918,0.000490393,0.00215205,0.00278302,-0.00152971,0.753782,0.00252476,0.00804482,1091,1730,7.02289,-32.5385
-126,-706,7.03369,32.7721,0.000540748,0.0015199,0.00153401,0.00264056,-0.000579917,0.939863,0.00198216,0.0129045,1098,1730,7.03366,-32.7721
-119,-706,7.01941,32.9885,0.000320774,0.00241906,0.00107801,0.00287418,-0.000134347,1.17131,0.00196243,0.0182977,1105,1730,7.01943,-32.9886
-112,-706,7.00256,33.2146,0.000258115,0.00315055,0.000532712,0.00324554,0.000163123,1.39433,0.00211142,0.0126586,1112,1730,7.00262,-33.2146
-105,-706,6.99707,33.4332,0.000330572,0.00352492,0.000220816,0.00354011,0.00031538,1.5021,0.00226229,0.00893572,1119,1730,6.99709,-33.4333
-98,-706,7.01538,33.6304,0.000477502,0.00355271,0.000116248,0.0035571,0.000473114,1.53307,0.00223048,0.010307,1126,1730,7.01532,-33.6304
-91,-706,7.01611,33.8323,0.000675891,0.00346132,4.75338e-05,0.00346213,0.00067508,1.55374,0.00211921,0.0132424,1133,1730,7.01613,-33.8322
-84,-706,6.99768,33.9884,0.000880771,0.0031918,-2.89898e-05,0.00319216,0.000880408,-1.55825,0.00190375,0.0158466,1140,1730,6.9977,-33.9884
-77,-706,7.01086,34.142,0.00114182,0.00296871,-0.000180331,0.00298634,0.00112419,-1.47334,0.00174162,0.0151146,1147,1730,7.01083,-34.142
-70,-706,7.01074,34.356,0.00143765,0.00265267,-0.000487319,0.00282398,0.00126635,-1.23277,0.00163331,0.0172392,1154,1730,7.01072,-34.3559
-63,-706,6.98706,34.5288,0.00199964,0.00290918,-0.000376688,0.00304493,0.00186389,-1.22492,0.00177267,0.0132449,1161,1730,6.98704,-34.5288
-56,-706,7.0094,34.6727,0.00250643,0.00316972,-3.87624e-05,0.00317198,0.00250417,-1.51262,0.00193094,0.0124854,1168,1730,7.00936,-34.6727
-49,-706,7.0354,34.8192,0.00260961,0.00344054,0.000358804,0.00357403,0.00247612,1.21462,0.00211399,0.0121867,1175,1730,7.0354,-34.8192
-42,-706,7.06653,34.9731,0.00221498,0.00378915,0.000825492,0.00414266,0.00186147,1.16619,0.00239585,0.0166877,1182,1730,7.0665,-34.9732
-35,-706,7.06628,35.1028,0.00160973,0.00470565,0.00102336,0.00501334,0.00130204,1.27873,0.0030038,0.0149998,1189,1730,7.06634,-35.1027
-28,-706,7.07983,35.1971,0.00161898,0.00514947,0.00153009,0.00572031,0.00104815,1.21372,0.00351662,0.00942143,1196,1730,7.0798,-35.1972
-21,-706,7.099,35.2889,0.00160686,0.00517515,0.00176725,0.00590225,0.000879762,1.18048,0.00367683,0.0101875,1203,1730,7.099,-35.2889
-14,-706,7.11194,35.3876,0.00151941,0.00510922,0.00196544,0.00597602,0.000652612,1.15544,0.00378527,0.0103398,1210,1730,7.11197,-35.3876
-7,-706,7.13171,35.4995,0.00159408,0.00541891,0.00237675,0.00655711,0.000455875,1.12418,0.00422765,0.00859913,1217,1730,7.13175,-35.4995
0,-706,7.17957,35.5898,0.0017385,0.00559355,0.00308081,0.00730013,3.19167e-05,1.06493,0.00485615,0.011033,1224,1730,7.17953,-35.5899
7,-706,7.19409,35.6726,0.00184847,0.0062025,0.00347154,0.00812317,-7.21943e-05,1.06545,0.00543967,0.0126787,1231,1730,7.1941,-35.6727
14,-706,7.20776,35.7615,0.00225993,0.00699077,0.00380101,0.00910228,0.000148423,1.06373,0.00601932,0.0138216,1238,1730,7.20774,-35.7615
21,-706,7.2312,35.8022,0.00285474,0.00788885,0.00398689,0.0100868,0.000656835,1.06697,0.0065166,0.0125586,1245,1730,7.23123,-35.8023
28,-706,7.255,35.8442,0.00334337,0.0088111,0.00396093,0.01089,0.00126444,1.08746,0.0068774,0.0130432,1252,1730,7.25502,-35.8443
35,-706,7.31226,35.9019,0.0035312,0.0100869,0.00375368,0.0117925,0.00182565,1.14432,0.00732931,0.0146186,1259,1730,7.31228,-35.9018
42,-706,7.35413,35.954,0.00344229,0.0115312,0.00319396,0.0126402,0.0023332,1.23658,0.00776681,0.0118507,1266,1730,7.35414,-35.954
49,-706,7.36304,35.9833,0.00328077,0.0125564,0.00250561,0.0131899,0.00264721,1.32313,0.00805716,0.0129571,1273,1730,7.36298,-35.9833
56,-706,7.39111,35.9939,0.00295491,0.0137799,0.00151222,0.0139872,0.00274763,1.43457,0.00855727,0.0124452,1280,1730,7.39115,-35.9939
63,-706,7.42114,35.9777,0.00215855,0.0148174,0.000255409,0.0148226,0.0021534,1.55063,0.00924788,0.0110196,1287,1730,7.42109,-35.9777
70,-706,7.42993,35.9674,0.00109978,0.0154269,-0.00121021,0.0155284,0.000998275,-1.48712,0.0100361,0.0117439,1294,1730,7.42998,-35.9675
77,-706,7.44568,35.9752,-0.000269928,0.0154933,-0.00263115,0.0159208,-0.000697515,-1.4097,0.0108539,0.0104724,1301,1730,7.44566,-35.9752
84,-706,7.47717,35.9718,-0.00169231,0.0154342,-0.00369086,0.0161957,-0.00245385,-1.36732,0.0117012,0.0091967,1308,1730,7.47721,-35.9718
91,-706,7.54541,35.9574,-0.0027243,0.0146788,-0.00442377,0.0157388,-0.00378424,-1.33563,0.0119553,0.0101049,1315,1730,7.54542,-35.9573
98,-706,7.54688,35.9473,-0.003522,0.0130986,-0.00492186,0.0144467,-0.00487016,-1.30344,0.0116005,0.013211,1322,1730,7.54693,-35.9473
105,-706,7.55493,35.9202,-0.00403096,0.0117011,-0.005425,0.0133905,-0.00572029,-1.26892,0.011326,0.0156195,1329,1730,7.55492,-35.9201
112,-706,7.58521,35.8793,-0.00396232,0.00974854,-0.00504813,0.0114067,-0.00562044,-1.25344,0.010018,0.0147688,1336,1730,7.5852,-35.8793
119,-706,7.60596,35.8374,-0.0038192,0.00780557,-0.00439718,0.00928147,-0.0052951,-1.24697,0.00852004,0.0127679,1343,1730,7.6059,-35.8374
126,-706,7.61584,35.7432,-0.00342161,0.00601428,-0.00349724,0.00716913,-0.00457646,-1.25185,0.00683616,0.0144899,1350,1730,7.61581,-35.7431
133,-706,7.66028,35.6556,-0.00261334,0.00440283,-0.00232125,0.00510127,-0.00331178,-1.27852,0.00489377,0.0124661,1357,1730,7.66026,-35.6556
140,-706,7.7229,35.5555,-0.00153637,0.00276946,-0.00120876,0.00308558,-0.00185249,-1.315,0.00288048,0.0127931,1364,1730,7.7229,-35.5555
147,-706,7.76575,35.4281,-0.000415912,0.00125754,-0.000144009,0.00126984,-0.000428214,-1.48558,0.00101972,0.0226095,1371,1730,7.76572,-35.4281
154,-706,7.76111,35.3528,0.000457903,0.000846279,0.000649453,0.00132995,-2.57723e-05,0.930669,0.000895351,0.0211924,1378,1730,7.76112,-35.3528
161,-706,7.73596,35.283,0.00121409,-0.000192011,0.00144012,0.00211361,-0.00109153,0.558321,0.00188159,0.0109791,1385,1730,7.73597,-35.283
168,-706,7.7627,35.1548,0.00247703,-0.00111952,0.00212697,0.00346404,-0.00210653,0.434472,0.00324784,0.0106755,1392,1730,7.76275,-35.1548
175,-706,7.79431,35.0265,0.00351043,-0.00174094,0.00284497,0.00475619,-0.0029867,0.412731,0.0045091,0.0103978,1399,1730,7.79426,-35.0265
182,-706,7.79858,34.8929,0.00305837,-0.000689389,0.0022718,0.0041294,-0.00176042,0.440545,0.00349098,0.0107588,1406,1730,7.79855,-34.8929
189,-706,7.79785,34.7468,0.00260301,-2.59832e-05,0.00166339,0.0034086,-0.000831574,0.451014,0.0025944,0.0144793,1413,1730,7.79785,-34.7468
196,-706,7.80627,34.576,0.00205674,0.000593632,0.000943413,0.002519,0.000131369,0.455608,0.0016373,0.0129413,1420,1730,7.80624,-34.5761
203,-706,7.81494,34.4199,0.00166925,0.0007902,0.00024014,0.00173057,0.000728876,0.250023,0.00100328,0.0135439,1427,1730,7.81493,-34.4199
210,-706,7.83447,34.281,0.00139845,0.000732033,0.000145891,0.00142899,0.000701495,0.206346,0.000825074,0.0124036,1434,1730,7.83449,-34.281
217,-706,7.84399,34.1388,0.00104216,0.000729058,-6.49805e-05,0.00105511,0.000716107,-0.19672,0.000622,0.0128165,1441,1730,7.84394,-34.1387
224,-706,7.84583,33.9409,0.000817457,0.000848187,-0.000223041,0.00105639,0.000609253,-0.819788,0.000612297,0.0181283,1448,1730,7.84577,-33.941
231,-706,7.85596,33.7344,0.000589905,0.000927533,-0.000362258,0.00115838,0.000359058,-1.00344,0.000684703,0.0147428,1455,1730,7.85593,-33.7343
238,-706,7.84583,33.5386,0.000648269,0.00126153,-0.000317875,0.00139656,0.000513235,-1.16909,0.000815688,0.0101432,1462,1730,7.84579,-33.5386
245,-706,7.84436,33.3329,0.000953814,0.001683,-0.000215882,0.00174212,0.000894693,-1.30349,0.00100594,0.0124557,1469,1730,7.84437,-33.3329
252,-706,7.83997,33.1523,0.00130084,0.00213796,-9.43868e-05,0.00214847,0.00129033,-1.4599,0.00124876,0.0112121,1476,1730,7.83995,-33.1523
259,-706,7.83704,32.952,0.00183301,0.00264864,2.19292e-05,0.00264923,0.00183243,1.54394,0.00156655,0.0122679,1483,1730,7.83704,-32.9521
266,-706,7.82727,32.7407,0.00251436,0.00327526,-3.55688e-06,0.00327527,0.00251435,-1.56612,0.00197925,0.0124506,1490,1730,7.82722,-32.7408
273,-706,7.81335,32.5028,0.00332453,0.00412717,-4.63074e-05,0.00412983,0.00332187,-1.51336,0.00252732,0.0120048,1497,1730,7.81338,-32.5028
280,-706,7.82385,32.2563,0.00416659,0.00490743,-0.000171764,0.00494532,0.00412871,-1.3537,0.0030612,0.0101173,1504,1730,7.8239,-32.2563
287,-706,7.80627,32.0101,0.00491593,0.00586998,-0.000475149,0.00606624,0.00471966,-1.17908,0.0036784,0.0106452,1511,1730,7.80629,-32.0102
294,-706,7.79834,31.7906,0.00546617,0.00684492,-0.000893181,0.00728382,0.00502727,-1.11406,0.00430554,0.0103092,1518,1730,7.79835,-31.7906
301,-706,7.78296,31.5527,0.00574664,0.00748831,-0.00151207,0.00836239,0.00487257,-1.04666,0.00484998,0.00997768,1525,1730,7.78298,-31.5527
308,-706,7.78479,31.2993,0.00569622,0.00762833,-0.00218652,0.00905269,0.00427185,-0.993415,0.00522933,0.0128471,1532,1730,7.78481,-31.2994
315,-706,7.74194,31.0433,0.00547985,0.00776864,-0.00285344,0.00969862,0.00354988,-0.976107,0.00566611,0.0208935,1539,1730,7.74191,-31.0433
322,-706,7.67627,30.8273,0.00520189,0.00770202,-0.00361997,0.0102817,0.00262222,-0.95165,0.00616904,0.0284804,1546,1730,7.6763,-30.8272
329,-706,7.72095,30.4506,0.00454912,0.0073511,-0.00416442,0.0103439,0.00155635,-0.947661,0.00644013,0.0289229,1553,1730,7.72096,-30.4505
336,-706,7.61646,29.9929,0.00380435,0.0064562,-0.00452919,0.00984956,0.00041099,-0.927795,0.00643375,0.0408004,1560,1730,7.61644,-29.9929
343,-706,7.56812,29.7339,0.00219882,0.00420227,-0.00548986,0.00878105,-0.00237996,-0.875639,0.00678788,0.0409178,1567,1730,7.56815,-29.7339
350,-706,7.72217,29.5012,0,0,0,0,0,0,0,-1,1574,1730,7.72222,-29.5013
357,-706,7.5144,29.6874,0,0,0,0,0,0,0,-1,1581,1730,7.51442,-29.6874
364,-706,7.51514,29.2518,0,0,0,0,0,0,0,-1,1588,1730,7.51519,-29.2518
371,-706,6.27881,24.0759,0,0,0,0,0,0,0,-1,1595,1730,6.27883,-24.0759
378,-706,4.80444,25.0989,0,0,0,0,0,0,0,-1,1602,1730,4.80445,-25.0989
385,-706,5.55212,24.9753,0,0,0,0,0,0,0,-1,1609,1730,5.55214,-24.9753
392,-706,6.2998,24.8518,0,0,0,0,0,0,0,-1,1616,1730,6.29983,-24.8518
399,-706,3.9502,25.5428,0,0,0,0,0,0,0,-1,1623,1730,3.95019,-25.5428
406,-706,6.04211,18.8085,0,0,0,0,0,0,0,-1,1630,1730,6.04216,-18.8085
413,-706,6.23413,20.7725,0,0,0,0,0,0,0,-1,1637,1730,6.23413,-20.7725
420,-706,6.51294,21.9171,0,0,0,0,0,0,0,-1,1644,1730,6.51292,-21.9171
427,-706,0,0,0,0,0,0,0,0,0,-1,1651,1730,0,0
434,-706,0,0,0,0,0,0,0,0,0,-1,1658,1730,0,0
441,-706,0,0,0,0,0,0,0,0,0,-1,1665,1730,0,0
448,-706,0,0,0,0,0,0,0,0,0,-1,1672,1730,0,0
455,-706,0,0,0,0,0,0,0,0,0,-1,1679,1730,0,0
462,-706,0,0,0,0,0,0,0,0,0,-1,1686,1730,0,0
469,-706,0,0,0,0,0,0,0,0,0,-1,1693,1730,0,0
476,-706,0,0,0,0,0,0,0,0,0,-1,1700,1730,0,0
483,-706,0,0,0,0,0,0,0,0,0,-1,1707,1730,0,0
490,-706,0,0,0,0,0,0,0,0,0,-1,1714,1730,0,0
497,-706,0,0,0,0,0,0,0,0,0,-1,1721,1730,0,0
504,-706,0,0,0,0,0,0,0,0,0,-1,1728,1730,0,0
511,-706,0,0,0,0,0,0,0,0,0,-1,1735,1730,0,0
518,-706,0,0,0,0,0,0,0,0,0,-1,1742,1730,0,0
525,-706,0,0,0,0,0,0,0,0,0,-1,1749,1730,0,0
532,-706,0,0,0,0,0,0,0,0,0,-1,1756,1730,0,0
539,-706,0,0,0,0,0,0,0,0,0,-1,1763,1730,0,0
546,-706,0,0,0,0,0,0,0,0,0,-1,1770,1730,0,0
553,-706,0,0,0,0,0,0,0,0,0,-1,1777,1730,0,0
560,-706,0,0,0,0,0,0,0,0,0,-1,1784,1730,0,0
567,-706,0,0,0,0,0,0,0,0,0,-1,1791,1730,0,0
574,-706,0,0,0,0,0,0,0,0,0,-1,1798,1730,0,0
581,-706,0,0,0,0,0,0,0,0,0,-1,1805,1730,0,0
588,-706,0,0,0,0,0,0,0,0,0,-1,1812,1730,0,0
595,-706,0,0,0,0,0,0,0,0,0,-1,1819,1730,0,0
602,-706,0,0,0,0,0,0,0,0,0,-1,1826,1730,0,0
609,-706,0,0,0,0,0,0,0,0,0,-1,1833,1730,0,0
616,-706,0,0,0,0,0,0,0,0,0,-1,1840,1730,0,0
623,-706,0,0,0,0,0,0,0,0,0,-1,1847,1730,0,0
630,-706,0,0,0,0,0,0,0,0,0,-1,1854,1730,0,0
637,-706,0,0,0,0,0,0,0,0,0,-1,1861,1730,0,0
644,-706,0,0,0,0,0,0,0,0,0,-1,1868,1730,0,0
651,-706,0,0,0,0,0,0,0,0,0,-1,1875,1730,0,0
658,-706,0,0,0,0,0,0,0,0,0,-1,1882,1730,0,0
665,-706,0,0,0,0,0,0,0,0,0,-1,1889,1730,0,0
672,-706,0,0,0,0,0,0,0,0,0,-1,1896,1730,0,0
679,-706,0,0,0,0,0,0,0,0,0,-1,1903,1730,0,0
686,-706,0,0,0,0,0,0,0,0,0,-1,1910,1730,0,0
693,-706,0,0,0,0,0,0,0,0,0,-1,1917,1730,0,0
700,-706,0,0,0,0,0,0,0,0,0,-1,1924,1730,0,0
707,-706,0,0,0,0,0,0,0,0,0,-1,1931,1730,0,0
714,-706,0,0,0,0,0,0,0,0,0,-1,1938,1730,0,0
721,-706,0,0,0,0,0,0,0,0,0,-1,1945,1730,0,0
728,-706,0,0,0,0,0,0,0,0,0,-1,1952,1730,0,0
735,-706,0,0,0,0,0,0,0,0,0,-1,1959,1730,0,0
742,-706,0,0,0,0,0,0,0,0,0,-1,1966,1730,0,0
749,-706,0,0,0,0,0,0,0,0,0,-1,1973,1730,0,0
756,-706,0,0,0,0,0,0,0,0,0,-1,1980,1730,0,0
763,-706,0,0,0,0,0,0,0,0,0,-1,1987,1730,0,0
770,-706,0,0,0,0,0,0,0,0,0,-1,1994,1730,0,0
777,-706,0,0,0,0,0,0,0,0,0,-1,2001,1730,0,0
784,-706,0,0,0,0,0,0,0,0,0,-1,2008,1730,0,0
791,-706,0,0,0,0,0,0,0,0,0,-1,2015,1730,0,0
798,-706,0,0,0,0,0,0,0,0,0,-1,2022,1730,0,0
805,-706,0,0,0,0,0,0,0,0,0,-1,2029,1730,0,0
812,-706,0,0,0,0,0,0,0,0,0,-1,2036,1730,0,0
-700,-713,0,0,0,0,0,0,0,0,0,-1,524,1737,0,0
-693,-713,0,0,0,0,0,0,0,0,0,-1,531,1737,0,0
-686,-713,0,0,0,0,0,0,0,0,0,-1,538,1737,0,0
-679,-713,0,0,0,0,0,0,0,0,0,-1,545,1737,0,0
-672,-713,0,0,0,0,0,0,0,0,0,-1,552,1737,0,0
-665,-713,0,0,0,0,0,0,0,0,0,-1,559,1737,0,0
-658,-713,0,0,0,0,0,0,0,0,0,-1,566,1737,0,0
-651,-713,0,0,0,0,0,0,0,0,0,-1,573,1737,0,0
-644,-713,0,0,0,0,0,0,0,0,0,-1,580,1737,0,0
-637,-713,0,0,0,0,0,0,0,0,0,-1,587,1737,0,0
-630,-713,0,0,0,0,0,0,0,0,0,-1,594,1737,0,0
-623,-713,0,0,0,0,0,0,0,0,0,-1,601,1737,0,0
-616,-713,0,0,0,0,0,0,0,0,0,-1,608,1737,0,0
-609,-713,0,0,0,0,0,0,0,0,0,-1,615,1737,0,0
-602,-713,0,0,0,0,0,0,0,0,0,-1,622,1737,0,0
-595,-713,0,0,0,0,0,0,0,0,0,-1,629,1737,0,0
-588,-713,0,0,0,0,0,0,0,0,0,-1,636,1737,0,0
-581,-713,0,0,0,0,0,0,0,0,0,-1,643,1737,0,0
-574,-713,0,0,0,0,0,0,0,0,0,-1,650,1737,0,0
-567,-713,0,0,0,0,0,0,0,0,0,-1,657,1737,0,0
-560,-713,0,0,0,0,0,0,0,0,0,-1,664,1737,0,0
-553,-713,0,0,0,0,0,0,0,0,0,-1,671,1737,0,0
-546,-713,0,0,0,0,0,0,0,0,0,-1,678,1737,0,0
-539,-713,0,0,0,0,0,0,0,0,0,-1,685,1737,0,0
-532,-713,0,0,0,0,0,0,0,0,0,-1,692,1737,0,0
-525,-713,0,0,0,0,0,0,0,0,0,-1,699,1737,0,0
-518,-713,0,0,0,0,0,0,0,0,0,-1,706,1737,0,0
-511,-713,0,0,0,0,0,0,0,0,0,-1,713,1737,0,0
-504,-713,0,0,0,0,0,0,0,0,0,-1,720,1737,0,0
-497,-713,0,0,0,0,0,0,0,0,0,-1,727,1737,0,0
-490,-713,0,0,0,0,0,0,0,0,0,-1,734,1737,0,0
-483,-713,0,0,0,0,0,0,0,0,0,-1,741,1737,0,0
-476,-713,0,0,0,0,0,0,0,0,0,-1,748,1737,0,0
-469,-713,0,0,0,0,0,0,0,0,0,-1,755,1737,0,0
-462,-713,0,0,0,0,0,0,0,0,0,-1,762,1737,0,0
-455,-713,0,0,0,0,0,0,0,0,0,-1,769,1737,0,0
-448,-713,0,0,0,0,0,0,0,0,0,-1,776,1737,0,0
-441,-713,0,0,0,0,0,0,0,0,0,-1,783,1737,0,0
-434,-713,0,0,0,0,0,0,0,0,0,-1,790,1737,0,0
-427,-713,0,0,0,0,0,0,0,0,0,-1,797,1737,0,0
-420,-713,0,0,0,0,0,0,0,0,0,-1,804,1737,0,0
-413,-713,0,0,0,0,0,0,0,0,0,-1,811,1737,0,0
-406,-713,0,0,0,0,0,0,0,0,0,-1,818,1737,0,0
-399,-713,0,0,0,0,0,0,0,0,0,-1,825,1737,0,0
-392,-713,0,0,0,0,0,0,0,0,0,-1,832,1737,0,0
-385,-713,0,0,0,0,0,0,0,0,0,-1,839,1737,0,0
-378,-713,0,0,0,0,0,0,0,0,0,-1,846,1737,0,0
-371,-713,0,0,0,0,0,0,0,0,0,-1,853,1737,0,0
-364,-713,0,0,0,0,0,0,0,0,0,-1,860,1737,0,0
-357,-713,0,0,0,0,0,0,0,0,0,-1,867,1737,0,0
-350,-713,0,0,0,0,0,0,0,0,0,-1,874,1737,0,0
-343,-713,0,0,0,0,0,0,0,0,0,-1,881,1737,0,0
-336,-713,0,0,0,0,0,0,0,0,0,-1,888,1737,0,0
-329,-713,0,0,0,0,0,0,0,0,0,-1,895,1737,0,0
-322,-713,0,0,0,0,0,0,0,0,0,-1,902,1737,0,0
-315,-713,0,0,0,0,0,0,0,0,0,-1,909,1737,0,0
-308,-713,0,0,0,0,0,0,0,0,0,-1,916,1737,0,0
-301,-713,0,0,0,0,0,0,0,0,0,-1,923,1737,0,0
-294,-713,7.17883,22.0453,0,0,0,0,0,0,0,-1,930,1737,7.17881,-22.0453
-287,-713,11.8916,21.5834,0,0,0,0,0,0,0,-1,937,1737,11.8916,-21.5833
-280,-713,10.2786,21.3551,0,0,0,0,0,0,0,-1,944,1737,10.2787,-21.3551
-273,-713,11.1981,23.8683,0,0,0,0,0,0,0,-1,951,1737,11.198,-23.8683
-266,-713,3.17981,19.8851,0,0,0,0,0,0,0,-1,958,1737,3.17983,-19.8851
-259,-713,3.5921,19.6868,0,0,0,0,0,0,0,-1,965,1737,3.59207,-19.6868
-252,-713,4.55469,20.5758,0,0,0,0,0,0,0,-1,972,1737,4.55466,-20.5758
-245,-713,3.89014,25.9825,0,0,0,0,0,0,0,-1,979,1737,3.89013,-25.9826
-238,-713,6.62506,30.5463,0,0,0,0,0,0,0,-1,986,1737,6.62509,-30.5462
-231,-713,7.10999,28.2686,0,0,0,0,0,0,0,-1,993,1737,7.10999,-28.2685
-224,-713,7.59491,25.9907,0,0,0,0,0,0,0,-1,1000,1737,7.59488,-25.9908
-217,-713,7.47192,28.9248,0,0,0,0,0,0,0,-1,1007,1737,7.47193,-28.9248
-210,-713,7.57275,29.6378,0,0,0,0,0,0,0,-1,1014,1737,7.57273,-29.6379
-203,-713,6.37415,30.6792,0.0213416,-0.0442227,0.0190275,0.0264635,-0.0493446,0.26295,0.0444274,0.042934,1021,1737,6.37417,-30.6792
-196,-713,6.73816,30.8665,0,0,0,0,0,0,0,-1,1028,1737,6.73811,-30.8664
-189,-713,7.41541,30.3519,0.0160598,-0.0337125,0.0160754,0.0208003,-0.038453,0.286764,0.0347123,0.041194,1035,1737,7.41544,-30.3519
-182,-713,7.26184,30.6368,0.0131087,-0.0278666,0.0142465,0.0175752,-0.032333,0.303805,0.0292314,0.0261887,1042,1737,7.26178,-30.6369
-175,-713,7.3418,30.8672,0.0103871,-0.0222383,0.0124418,0.0145903,-0.0264415,0.325791,0.0240169,0.0272394,1049,1737,7.34177,-30.8672
-168,-713,7.4834,31.1075,0.00796434,-0.0173718,0.0105949,0.0118109,-0.0212184,0.348258,0.0193256,0.0382392,1056,1737,7.48346,-31.1075
-161,-713,7.34631,31.5037,0.00582105,-0.0132235,0.00884896,0.00929792,-0.0167004,0.374382,0.0152116,0.018587,1063,1737,7.34629,-31.5037
-154,-713,7.27295,31.8054,0.00337306,-0.00784421,0.00712287,0.0068304,-0.0113016,0.451889,0.0105741,0.0125939,1070,1737,7.27289,-31.8054
-147,-713,7.24292,32.0883,0.00140763,-0.00355119,0.00495113,0.00446547,-0.00660903,0.553264,0.00643367,0.0183115,1077,1737,7.2429,-32.0883
-140,-713,7.26086,32.3284,0.000881197,-0.00205497,0.00394871,0.0036259,-0.00479967,0.607422,0.00488021,0.0177409,1084,1737,7.26085,-32.3284
-133,-713,7.2428,32.5388,0.000538816,-0.000753229,0.00310013,0.00305952,-0.00327394,0.682676,0.00365732,0.0107179,1091,1737,7.24275,-32.5388
-126,-713,7.24097,32.7635,8.36192e-05,0.000458957,0.00227954,0.00255854,-0.00201596,0.826469,0.00264728,0.0160618,1098,1737,7.24095,-32.7635
-119,-713,7.23022,32.9503,-0.000355046,0.00152317,0.0016646,0.0024953,-0.00132717,1.04222,0.00224099,0.0261525,1105,1737,7.23027,-32.9503
-112,-713,7.21667,33.2223,-0.000558685,0.00249971,0.00088838,0.00273903,-0.000798008,1.30765,0.00214216,0.0136445,1112,1737,7.21672,-33.2223
-105,-713,7.21716,33.4349,-0.000564462,0.00308654,0.00049443,0.00315232,-0.000630234,1.43855,0.00234008,0.0105243,1119,1737,7.21712,-33.4349
-98,-713,7.20996,33.6169,-0.000460059,0.00321053,0.00040212,0.00325407,-0.000503596,1.46295,0.00235526,0.00955908,1126,1737,7.20991,-33.6169
-91,-713,7.18726,33.8101,-0.000292724,0.0032331,0.000356516,0.00326879,-0.000328412,1.47103,0.0022965,0.00958374,1133,1737,7.18728,-33.81
-84,-713,7.17883,33.9832,-0.000145011,0.00301534,0.00029458,0.00304256,-0.000172235,1.47864,0.00208815,0.00903708,1140,1737,7.17887,-33.9832
-77,-713,7.19324,34.1649,0.00015238,0.00285744,0.000213456,0.00287418,0.00013564,1.49253,0.00187255,0.0116224,1147,1737,7.19319,-34.165
-70,-713,7.18445,34.3458,0.000429412,0.00257338,3.82392e-05,0.00257406,0.00042873,1.55297,0.00159249,0.0144253,1154,1737,7.18447,-34.3458
-63,-713,7.15198,34.5204,0.00074091,0.00241117,5.39032e-05,0.0024129,0.000739172,1.53857,0.0014275,0.0134338,1161,1737,7.15198,-34.5203
-56,-713,7.16675,34.6652,0.00112105,0.00239903,0.000182285,0.00242452,0.00109556,1.43185,0.00140196,0.0127698,1168,1737,7.16671,-34.6652
-49,-713,7.16248,34.7939,0.00129969,0.00232849,0.00036126,0.00244268,0.00118551,1.26467,0.00141048,0.0142698,1175,1737,7.16246,-34.7939
-42,-713,7.18738,34.9476,0.00119261,0.00234838,0.000601849,0.00260486,0.000936127,1.16794,0.00152362,0.0172549,1182,1737,7.18742,-34.9477
-35,-713,7.20801,35.0656,0.000955815,0.00250033,0.000727216,0.00278884,0.000667306,1.19311,0.00168152,0.014146,1189,1737,7.20798,-35.0655
-28,-713,7.2113,35.1888,0.000956446,0.00274124,0.00099383,0.00318454,0.000513153,1.15124,0.00197433,0.0118847,1196,1737,7.2113,-35.1889
-21,-713,7.20007,35.2938,0.000879211,0.0027409,0.00115487,0.00329336,0.000326751,1.1246,0.00209516,0.00874015,1203,1737,7.20012,-35.2938
-14,-713,7.20789,35.3899,0.000785006,0.00254025,0.00135853,0.00327998,4.52729e-05,1.07218,0.00217172,0.0103292,1210,1737,7.20786,-35.3899
-7,-713,7.24561,35.5048,0.000785036,0.00252356,0.00172924,0.00358973,-0.000281131,1.01829,0.00249215,0.00949891,1217,1737,7.2456,-35.5047
0,-713,7.27454,35.5952,0.000818624,0.00251025,0.0022888,0.00410452,-0.000775643,0.962388,0.00302819,0.0136876,1224,1737,7.2746,-35.5952
7,-713,7.28357,35.6641,0.000867065,0.00279938,0.00266254,0.00466564,-0.000999195,0.959446,0.00349148,0.0167774,1231,1737,7.28356,-35.6641
14,-713,7.28418,35.7468,0.00117116,0.00323634,0.00300286,0.00537919,-0.000971692,0.950999,0.00395006,0.0127361,1238,1737,7.28418,-35.7468
21,-713,7.28943,35.8037,0.00166218,0.00382058,0.00325617,0.00617173,-0.000688976,0.945418,0.00436232,0.0115503,1245,1737,7.28947,-35.8036
28,-713,7.27625,35.8453,0.00212915,0.00446487,0.00336766,0.00686142,-0.000267399,0.952302,0.00466597,0.0124355,1252,1737,7.27623,-35.8453
35,-713,7.31189,35.9039,0.00244726,0.00547151,0.00332465,0.00761175,0.000307019,0.998827,0.00497532,0.0117369,1259,1737,7.31188,-35.9039
42,-713,7.36938,35.9603,0.00258225,0.00670149,0.00296336,0.00825068,0.00103306,1.08909,0.00519048,0.0107782,1266,1737,7.36938,-35.9603
49,-713,7.39001,35.9613,0.00265693,0.0076926,0.00255535,0.00876214,0.00158738,1.1744,0.00539078,0.0111289,1273,1737,7.39006,-35.9613
56,-713,7.40442,35.9789,0.00263092,0.00877008,0.0019385,0.00933094,0.00207006,1.28916,0.00565827,0.0116392,1280,1737,7.40444,-35.9788
63,-713,7.39856,35.9998,0.00226529,0.00966677,0.00106013,0.00981562,0.00211643,1.4313,0.00596477,0.0118785,1287,1737,7.39853,-35.9998
70,-713,7.4176,35.9994,0.00163929,0.0104105,3.72181e-06,0.0104105,0.00163929,1.57037,0.00646356,0.0119473,1294,1737,7.41759,-35.9993
77,-713,7.44226,35.9979,0.000758803,0.0104324,-0.000972183,0.0105291,0.000662067,-1.47162,0.00680945,0.0116373,1301,1737,7.44227,-35.9979
84,-713,7.46497,36.0049,-0.000181354,0.0103652,-0.00169664,0.0106315,-0.000447574,-1.41516,0.00724144,0.0123564,1308,1737,7.46499,-36.0048
91,-713,7.48865,35.9872,-0.000876871,0.00980205,-0.00222139,0.0102457,-0.00132053,-1.37367,0.00731051,0.0125917,1315,1737,7.48865,-35.9872
98,-713,7.51062,35.9423,-0.00143516,0.00858466,-0.00257205,0.00920633,-0.00205683,-1.33364,0.00692573,0.0115547,1322,1737,7.51058,-35.9423
105,-713,7.51672,35.9014,-0.00180431,0.00733448,-0.0028879,0.00817057,-0.00264041,-1.28898,0.00650824,0.0132855,1329,1737,7.51675,-35.9014
112,-713,7.53625,35.8761,-0.00179266,0.0056861,-0.00259849,0.0065003,-0.00260687,-1.26715,0.00541582,0.0139269,1336,1737,7.53626,-35.8761
119,-713,7.5437,35.8344,-0.00173302,0.00408068,-0.00213404,0.00477992,-0.00243226,-1.25416,0.00423685,0.0143904,1343,1737,7.54367,-35.8343
126,-713,7.53918,35.7581,-0.00148243,0.00265352,-0.00152354,0.00315414,-0.00198305,-1.25332,0.00299154,0.0140184,1350,1737,7.53922,-35.7581
133,-713,7.56067,35.6625,-0.000984514,0.00150273,-0.000773673,0.00172374,-0.00120553,-1.29254,0.00170002,0.0126757,1357,1737,7.56072,-35.6625
140,-713,7.60742,35.557,-0.000340891,0.000456607,-9.4776e-05,0.000467716,-0.000352,-1.45412,0.000474832,0.0139295,1364,1737,7.6074,-35.557
147,-713,7.6355,35.4379,0.000306961,-0.000377101,0.000508139,0.000577458,-0.000647598,0.489175,0.000707673,0.0152377,1371,1737,7.63547,-35.4379
154,-713,7.60278,35.3702,0.000779974,-0.000496579,0.000818444,0.0011796,-0.000896208,0.454227,0.00120219,0.0149452,1378,1737,7.60275,-35.3702
161,-713,7.61121,35.2832,0.00110355,-0.000674262,0.00106187,0.00159946,-0.00117017,0.436914,0.00160544,0.0106421,1385,1737,7.6112,-35.2832
168,-713,7.62634,35.16,0.00155293,-0.000722643,0.00124343,0.00210057,-0.00127029,0.414867,0.00196575,0.0099489,1392,1737,7.62637,-35.16
175,-713,7.66882,35.0266,0.0018485,-0.000706049,0.0013705,0.00244464,-0.00130219,0.410296,0.0021965,0.0131896,1399,1737,7.66879,-35.0266
182,-713,7.6637,34.9077,0.00151472,1.68948e-05,0.000924988,0.00195596,-0.00042435,0.445101,0.00146604,0.0117971,1406,1737,7.66371,-34.9077
189,-713,7.65112,34.7595,0.00120138,0.000465926,0.000480071,0.00143838,0.000228929,0.458572,0.00089245,0.0118551,1413,1737,7.65106,-34.7595
196,-713,7.66821,34.6028,0.00085123,0.000884687,3.61166e-06,0.000885072,0.000850844,1.46448,0.000578976,0.0138915,1420,1737,7.66821,-34.6027
203,-713,7.66272,34.4534,0.000620162,0.001217,-0.000418159,0.0014323,0.000404859,-1.09531,0.000852584,0.0184388,1427,1737,7.66267,-34.4534
210,-713,7.66101,34.2827,0.000442004,0.00137152,-0.000578547,0.00164887,0.00016466,-1.12378,0.00104867,0.0147029,1434,1737,7.66102,-34.2827
217,-713,7.67505,34.1222,0.000177606,0.00148537,-0.000752412,0.00182832,-0.000165351,-1.14312,0.00127757,0.0113885,1441,1737,7.67506,-34.1222
224,-713,7.66101,33.9479,-6.33525e-06,0.00160493,-0.000906562,0.0020121,-0.000413509,-1.14866,0.00149838,0.0121789,1448,1737,7.661,-33.9479
231,-713,7.66724,33.7587,-0.000213881,0.00167143,-0.00100508,0.00210673,-0.000649187,-1.16208,0.00166366,0.0117361,1455,1737,7.6672,-33.7587
238,-713,7.65784,33.5533,0.000240925,0.00239723,-0.000666204,0.00258646,5.17019e-05,-1.29405,0.00170733,0.00903902,1462,1737,7.65788,-33.5533
245,-713,7.67126,33.3514,0.00107793,0.00309689,-0.000353953,0.00315714,0.00101767,-1.40218,0.00186074,0.0112946,1469,1737,7.67129,-33.3514
252,-713,7.66577,33.1458,0.00179806,0.00379117,-6.33265e-05,0.00379318,0.00179605,-1.53907,0.00219102,0.0113253,1476,1737,7.66582,-33.1458
259,-713,7.65161,32.932,0.00274671,0.00453827,0.000208808,0.00456229,0.0027227,1.45629,0.00265044,0.0114048,1483,1737,7.65158,-32.932
266,-713,7.62134,32.7347,0.00386773,0.0054217,0.000269384,0.00546707,0.00382235,1.40393,0.0032388,0.0101646,1490,1737,7.62139,-32.7347
273,-713,7.59814,32.5214,0.00512638,0.00658167,0.000307207,0.00664386,0.00506419,1.37105,0.00400783,0.00865553,1497,1737,7.59821,-32.5213
280,-713,7.57898,32.2865,0.00641805,0.00764045,0.000235756,0.00768435,0.00637416,1.38673,0.00474683,0.00972533,1504,1737,7.57899,-32.2866
287,-713,7.55554,32.0526,0.00760222,0.00894222,-8.92135e-05,0.00894813,0.00759631,-1.50461,0.00556977,0.0112874,1511,1737,7.55556,-32.0526
294,-713,7.55493,31.843,0.00849112,0.0102338,-0.000576059,0.010407,0.00831791,-1.27871,0.00635709,0.0178345,1518,1737,7.55494,-31.843
301,-713,7.5835,31.6061,0.00902328,0.0111126,-0.00133445,0.0117627,0.00837323,-1.1175,0.00699143,0.0216115,1525,1737,7.58345,-31.6061
308,-713,7.62805,31.3362,0.00911647,0.0113596,-0.00221101,0.0127172,0.00775883,-1.02012,0.00740141,0.02352,1532,1737,7.628,-31.3362
315,-713,7.52869,31.0376,0.0089499,0.0116588,-0.00313711,0.0137213,0.00688733,-0.989184,0.00792204,0.029781,1539,1737,7.52872,-31.0376
322,-713,7.58069,30.5955,0.00869451,0.0117038,-0.00424154,0.0146997,0.00569866,-0.955846,0.00855796,0.0401607,1546,1737,7.58073,-30.5955
329,-713,7.62073,30.3627,0,0,0,0,0,0,0,-1,1553,1737,7.62071,-30.3627
336,-713,7.52747,29.8861,0,0,0,0,0,0,0,-1,1560,1737,7.52745,-29.8861
343,-713,6.98242,29.6519,0,0,0,0,0,0,0,-1,1567,1737,6.98246,-29.6518
350,-713,7.4397,29.1586,0,0,0,0,0,0,0,-1,1574,1737,7.43976,-29.1585
357,-713,7.04224,30.0194,0,0,0,0,0,0,0,-1,1581,1737,7.0422,-30.0194
364,-713,7.35474,20.9537,0,0,0,0,0,0,0,-1,1588,1737,7.35472,-20.9537
371,-713,3.07507,25.4108,0,0,0,0,0,0,0,-1,1595,1737,3.07502,-25.4107
378,-713,4.21838,25.306,0,0,0,0,0,0,0,-1,1602,1737,4.21837,-25.306
385,-713,5.078,25.3104,0,0,0,0,0,0,0,-1,1609,1737,5.07795,-25.3104
392,-713,5.92114,25.3118,0,0,0,0,0,0,0,-1,1616,1737,5.92112,-25.3118
399,-713,3.14368,25.2808,0,0,0,0,0,0,0,-1,1623,1737,3.14369,-25.2808
406,-713,1.82678,26.7354,0,0,0,0,0,0,0,-1,1630,1737,1.82679,-26.7354
413,-713,3.24731,18.2787,0,0,0,0,0,0,0,-1,1637,1737,3.24726,-18.2787
420,-713,0,0,0,0,0,0,0,0,0,-1,1644,1737,0,0
427,-713,0,0,0,0,0,0,0,0,0,-1,1651,1737,0,0
434,-713,0,0,0,0,0,0,0,0,0,-1,1658,1737,0,0
441,-713,0,0,0,0,0,0,0,0,0,-1,1665,1737,0,0
448,-713,0,0,0,0,0,0,0,0,0,-1,1672,1737,0,0
455,-713,0,0,0,0,0,0,0,0,0,-1,1679,1737,0,0
462,-713,0,0,0,0,0,0,0,0,0,-1,1686,1737,0,0
469,-713,0,0,0,0,0,0,0,0,0,-1,1693,1737,0,0
476,-713,0,0,0,0,0,0,0,0,0,-1,1700,1737,0,0
483,-713,0,0,0,0,0,0,0,0,0,-1,1707,1737,0,0
490,-713,0,0,0,0,0,0,0,0,0,-1,1714,1737,0,0
497,-713,0,0,0,0,0,0,0,0,0,-1,1721,1737,0,0
504,-713,0,0,0,0,0,0,0,0,0,-1,1728,1737,0,0
511,-713,0,0,0,0,0,0,0,0,0,-1,1735,1737,0,0
518,-713,0,0,0,0,0,0,0,0,0,-1,1742,1737,0,0
525,-713,0,0,0,0,0,0,0,0,0,-1,1749,1737,0,0
532,-713,0,0,0,0,0,0,0,0,0,-1,1756,1737,0,0
539,-713,0,0,0,0,0,0,0,0,0,-1,1763,1737,0,0
546,-713,0,0,0,0,0,0,0,0,0,-1,1770,1737,0,0
553,-713,0,0,0,0,0,0,0,0,0,-1,1777,1737,0,0
560,-713,0,0,0,0,0,0,0,0,0,-1,1784,1737,0,0
567,-713,0,0,0,0,0,0,0,0,0,-1,1791,1737,0,0
574,-713,0,0,0,0,0,0,0,0,0,-1,1798,1737,0,0
581,-713,0,0,0,0,0,0,0,0,0,-1,1805,1737,0,0
588,-713,0,0,0,0,0,0,0,0,0,-1,1812,1737,0,0
595,-713,0,0,0,0,0,0,0,0,0,-1,1819,1737,0,0
602,-713,0,0,0,0,0,0,0,0,0,-1,1826,1737,0,0
609,-713,0,0,0,0,0,0,0,0,0,-1,1833,1737,0,0
616,-713,0,0,0,0,0,0,0,0,0,-1,1840,1737,0,0
623,-713,0,0,0,0,0,0,0,0,0,-1,1847,1737,0,0
630,-713,0,0,0,0,0,0,0,0,0,-1,1854,1737,0,0
637,-713,0,0,0,0,0,0,0,0,0,-1,1861,1737,0,0
644,-713,0,0,0,0,0,0,0,0,0,-1,1868,1737,0,0
651,-713,0,0,0,0,0,0,0,0,0,-1,1875,1737,0,0
658,-713,0,0,0,0,0,0,0,0,0,-1,1882,1737,0,0
665,-713,0,0,0,0,0,0,0,0,0,-1,1889,1737,0,0
672,-713,0,0,0,0,0,0,0,0,0,-1,1896,1737,0,0
679,-713,0,0,0,0,0,0,0,0,0,-1,1903,1737,0,0
686,-713,0,0,0,0,0,0,0,0,0,-1,1910,1737,0,0
693,-713,0,0,0,0,0,0,0,0,0,-1,1917,1737,0,0
700,-713,0,0,0,0,0,0,0,0,0,-1,1924,1737,0,0
707,-713,0,0,0,0,0,0,0,0,0,-1,1931,1737,0,0
714,-713,0,0,0,0,0,0,0,0,0,-1,1938,1737,0,0
721,-713,0,0,0,0,0,0,0,0,0,-1,1945,1737,0,0
728,-713,0,0,0,0,0,0,0,0,0,-1,1952,1737,0,0
735,-713,0,0,0,0,0,0,0,0,0,-1,1959,1737,0,0
742,-713,0,0,0,0,0,0,0,0,0,-1,1966,1737,0,0
749,-713,0,0,0,0,0,0,0,0,0,-1,1973,1737,0,0
756,-713,0,0,0,0,0,0,0,0,0,-1,1980,1737,0,0
763,-713,0,0,0,0,0,0,0,0,0,-1,1987,1737,0,0
770,-713,0,0,0,0,0,0,0,0,0,-1,1994,1737,0,0
777,-713,0,0,0,0,0,0,0,0,0,-1,2001,1737,0,0
784,-713,0,0,0,0,0,0,0,0,0,-1,2008,1737,0,0
791,-713,0,0,0,0,0,0,0,0,0,-1,2015,1737,0,0
798,-713,0,0,0,0,0,0,0,0,0,-1,2022,1737,0,0
805,-713,0,0,0,0,0,0,0,0,0,-1,2029,1737,0,0
812,-713,0,0,0,0,0,0,0,0,0,-1,2036,1737,0,0
-700,-720,0,0,0,0,0,0,0,0,0,-1,524,1744,0,0
-693,-720,0,0,0,0,0,0,0,0,0,-1,531,1744,0,0
-686,-720,0,0,0,0,0,0,0,0,0,-1,538,1744,0,0
-679,-720,0,0,0,0,0,0,0,0,0,-1,545,1744,0,0
-672,-720,0,0,0,0,0,0,0,0,0,-1,552,1744,0,0
-665,-720,0,0,0,0,0,0,0,0,0,-1,559,1744,0,0
-658,-720,0,0,0,0,0,0,0,0,0,-1,566,1744,0,0
-651,-720,0,0,0,0,0,0,0,0,0,-1,573,1744,0,0
-644,-720,0,0,0,0,0,0,0,0,0,-1,580,1744,0,0
-637,-720,0,0,0,0,0,0,0,0,0,-1,587,1744,0,0
-630,-720,0,0,0,0,0,0,0,0,0,-1,594,1744,0,0
-623,-720,0,0,0,0,0,0,0,0,0,-1,601,1744,0,0
-616,-720,0,0,0,0,0,0,0,0,0,-1,608,1744,0,0
-609,-720,0,0,0,0,0,0,0,0,0,-1,615,1744,0,0
-602,-720,0,0,0,0,0,0,0,0,0,-1,622,1744,0,0
-595,-720,0,0,0,0,0,0,0,0,0,-1,629,1744,0,0
-588,-720,0,0,0,0,0,0,0,0,0,-1,636,1744,0,0
-581,-720,0,0,0,0,0,0,0,0,0,-1,643,1744,0,0
-574,-720,0,0,0,0,0,0,0,0,0,-1,650,1744,0,0
-567,-720,0,0,0,0,0,0,0,0,0,-1,657,1744,0,0
-560,-720,0,0,0,0,0,0,0,0,0,-1,664,1744,0,0
-553,-720,0,0,0,0,0,0,0,0,0,-1,671,1744,0,0
-546,-720,0,0,0,0,0,0,0,0,0,-1,678,1744,0,0
-539,-720,0,0,0,0,0,0,0,0,0,-1,685,1744,0,0
-532,-720,0,0,0,0,0,0,0,0,0,-1,692,1744,0,0
-525,-720,0,0,0,0,0,0,0,0,0,-1,699,1744,0,0
-518,-720,0,0,0,0,0,0,0,0,0,-1,706,1744,0,0
-511,-720,0,0,0,0,0,0,0,0,0,-1,713,1744,0,0
-504,-720,0,0,0,0,0,0,0,0,0,-1,720,1744,0,0
-497,-720,0,0,0,0,0,0,0,0,0,-1,727,1744,0,0
-490,-720,0,0,0,0,0,0,0,0,0,-1,734,1744,0,0
-483,-720,0,0,0,0,0,0,0,0,0,-1,741,1744,0,0
-476,-720,0,0,0,0,0,0,0,0,0,-1,748,1744,0,0
-469,-720,0,0,0,0,0,0,0,0,0,-1,755,1744,0,0
-462,-720,0,0,0,0,0,0,0,0,0,-1,762,1744,0,0
-455,-720,0,0,0,0,0,0,0,0,0,-1,769,1744,0,0
-448,-720,0,0,0,0,0,0,0,0,0,-1,776,1744,0,0
-441,-720,0,0,0,0,0,0,0,0,0,-1,783,1744,0,0
-434,-720,0,0,0,0,0,0,0,0,0,-1,790,1744,0,0
-427,-720,0,0,0,0,0,0,0,0,0,-1,797,1744,0,0
-420,-720,0,0,0,0,0,0,0,0,0,-1,804,1744,0,0
-413,-720,0,0,0,0,0,0,0,0,0,-1,811,1744,0,0
-406,-720,0,0,0,0,0,0,0,0,0,-1,818,1744,0,0
-399,-720,0,0,0,0,0,0,0,0,0,-1,825,1744,0,0
-392,-720,0,0,0,0,0,0,0,0,0,-1,832,1744,0,0
-385,-720,0,0,0,0,0,0,0,0,0,-1,839,1744,0,0
-378,-720,0,0,0,0,0,0,0,0,0,-1,846,1744,0,0
-371,-720,0,0,0,0,0,0,0,0,0,-1,853,1744,0,0
-364,-720,0,0,0,0,0,0,0,0,0,-1,860,1744,0,0
-357,-720,0,0,0,0,0,0,0,0,0,-1,867,1744,0,0
-350,-720,0,0,0,0,0,0,0,0,0,-1,874,1744,0,0
-343,-720,0,0,0,0,0,0,0,0,0,-1,881,1744,0,0
-336,-720,0,0,0,0,0,0,0,0,0,-1,888,1744,0,0
-329,-720,0,0,0,0,0,0,0,0,0,-1,895,1744,0,0
-322,-720,0,0,0,0,0,0,0,0,0,-1,902,1744,0,0
-315,-720,0,0,0,0,0,0,0,0,0,-1,909,1744,0,0
-308,-720,0,0,0,0,0,0,0,0,0,-1,916,1744,0,0
-301,-720,0,0,0,0,0,0,0,0,0,-1,923,1744,0,0
-294,-720,0,0,0,0,0,0,0,0,0,-1,930,1744,0,0
-287,-720,0,0,0,0,0,0,0,0,0,-1,937,1744,0,0
-280,-720,6.46796,22.6417,0,0,0,0,0,0,0,-1,944,1744,6.46793,-22.6417
-273,-720,8.54633,13.262,0,0,0,0,0,0,0,-1,951,1744,8.54636,-13.2619
-266,-720,7.28027,13.3165,0,0,0,0,0,0,0,-1,958,1744,7.28026,-13.3166
-259,-720,3.70563,18.6372,0,0,0,0,0,0,0,-1,965,1744,3.70564,-18.6372
-252,-720,4.00989,18.5059,0,0,0,0,0,0,0,-1,972,1744,4.00988,-18.5058
-245,-720,4.63318,20.3199,0,0,0,0,0,0,0,-1,979,1744,4.6332,-20.32
-238,-720,5.02216,24.1455,0,0,0,0,0,0,0,-1,986,1744,5.02217,-24.1455
-231,-720,7.35455,28.3225,0,0,0,0,0,0,0,-1,993,1744,7.35453,-28.3225
-224,-720,7.65991,19.4061,0,0,0,0,0,0,0,-1,1000,1744,7.6599,-19.4061
-217,-720,4.77637,30.7196,0,0,0,0,0,0,0,-1,1007,1744,4.77636,-30.7197
-210,-720,5.35944,31.1256,0.0341108,-0.0684412,0.0255907,0.0401419,-0.0744724,0.231454,0.0671548,0.0481556,1014,1744,5.35942,-31.1256
-203,-720,5.94409,31.496,0.0308663,-0.0623197,0.0244774,0.0369046,-0.068358,0.241859,0.0616711,0.0450794,1021,1744,5.94404,-31.4959
-196,-720,6.53052,31.92,0,0,0,0,0,0,0,-1,1028,1744,6.53055,-31.92
-189,-720,7.74292,30.3838,0,0,0,0,0,0,0,-1,1035,1744,7.7429,-30.3838
-182,-720,7.31653,30.7609,0.0193121,-0.0392106,0.0188286,0.0248465,-0.044745,0.285882,0.0407225,0.0454352,1042,1744,7.31658,-30.7608
-175,-720,7.52625,31.1063,0.0153177,-0.031286,0.0166005,0.0206262,-0.0365945,0.309504,0.0334624,0.0451002,1049,1744,7.52622,-31.1063
-168,-720,7.81763,31.2234,0.0117285,-0.0243461,0.0142491,0.0166778,-0.0292954,0.3343,0.0268738,0.0467153,1056,1744,7.81762,-31.2234
-161,-720,7.34033,31.527,0.00856876,-0.0184455,0.0119934,0.013125,-0.0230018,0.363054,0.021116,0.0404321,1063,1744,7.3403,-31.527
-154,-720,7.55627,31.8961,0.00491053,-0.0108721,0.00978868,0.00959264,-0.0155543,0.446152,0.0146539,0.0310337,1070,1744,7.55633,-31.8961
-147,-720,7.48401,32.2053,0.00189876,-0.00501335,0.00692305,0.00618046,-0.00929505,0.553891,0.00899491,0.0272969,1077,1744,7.48397,-32.2053
-140,-720,7.49548,32.411,0.00103461,-0.00305308,0.00552304,0.00487985,-0.00689832,0.608183,0.00683333,0.02122,1084,1744,7.4955,-32.411
-133,-720,7.45776,32.5609,0.000427997,-0.00137173,0.00436693,0.00398681,-0.00493055,0.683789,0.00515804,0.0145356,1091,1744,7.45777,-32.5609
-126,-720,7.4375,32.7667,-0.000291455,0.000140471,0.00327326,0.00320489,-0.00335587,0.818339,0.00378819,0.01295,1098,1744,7.43745,-32.7667
-119,-720,7.42322,32.9689,-0.000952161,0.00144045,0.0024345,0.0029567,-0.00246841,1.01377,0.00313641,0.014704,1105,1744,7.42316,-32.9689
-112,-720,7.39783,33.2091,-0.00130161,0.00271962,0.00136392,0.00313858,-0.00172057,1.27277,0.00284497,0.0143905,1112,1744,7.39788,-33.2091
-105,-720,7.38318,33.4215,-0.00139784,0.00352859,0.000869169,0.00367744,-0.00154669,1.40119,0.00309865,0.013422,1119,1744,7.38319,-33.4215
-98,-720,7.39148,33.6036,-0.00133622,0.00371194,0.000770261,0.00382685,-0.00145113,1.4227,0.00314846,0.00995476,1126,1744,7.39143,-33.6037
-91,-720,7.3656,33.8071,-0.00119392,0.00378633,0.000724048,0.00388946,-0.00129705,1.42931,0.00311663,0.00886335,1133,1744,7.36558,-33.8072
-84,-720,7.35486,34.0012,-0.00107911,0.00350835,0.000653907,0.00359974,-0.0011705,1.43194,0.00287067,0.00983357,1140,1744,7.35485,-34.0012
-77,-720,7.36145,34.2131,-0.00074895,0.00327109,0.000615476,0.00336321,-0.00084107,1.42223,0.00256881,0.0124298,1147,1744,7.3615,-34.2132
-70,-720,7.34583,34.364,-0.000551679,0.0028579,0.000488676,0.00292656,-0.000620335,1.43121,0.00218734,0.0117144,1154,1744,7.34582,-34.364
-63,-720,7.30371,34.5067,-0.000476184,0.00242972,0.000398791,0.00248346,-0.000529918,1.43686,0.00185765,0.0109185,1161,1744,7.30367,-34.5067
-56,-720,7.30823,34.6566,-0.000215042,0.00207867,0.000384286,0.00214134,-0.000277712,1.40914,0.00152856,0.0118688,1168,1744,7.30823,-34.6566
-49,-720,7.2937,34.7887,7.0438e-05,0.00171351,0.000367238,0.00179186,-7.9067e-06,1.36061,0.00119722,0.0179225,1175,1744,7.29369,-34.7887
-42,-720,7.31543,34.9275,0.000295501,0.00152001,0.000424446,0.00165275,0.000162766,1.26771,0.00105178,0.0203315,1182,1744,7.31541,-34.9274
-35,-720,7.34851,35.048,0.000470175,0.00152306,0.000437866,0.00168136,0.000311878,1.2239,0.00103277,0.0179045,1189,1744,7.34849,-35.048
-28,-720,7.33179,35.1829,0.000539447,0.00160488,0.000447994,0.00176821,0.000376113,1.22118,0.00107558,0.0108139,1196,1744,7.33175,-35.1828
-21,-720,7.31995,35.3256,0.000501803,0.001632,0.000528376,0.00184054,0.000293262,1.19488,0.0011419,0.00902595,1203,1744,7.31997,-35.3256
-14,-720,7.30603,35.4119,0.000499663,0.00150971,0.000662382,0.00183763,0.00017174,1.1111,0.00117204,0.0113181,1210,1744,7.30599,-35.4119
-7,-720,7.32788,35.522,0.000559119,0.00144055,0.000868181,0.00197347,2.61962e-05,1.02026,0.001307,0.0124358,1217,1744,7.32787,-35.5219
0,-720,7.34631,35.6246,0.000618832,0.00135601,0.00119496,0.00223794,-0.000263097,0.934994,0.00158694,0.012683,1224,1744,7.34635,-35.6246
7,-720,7.3551,35.6876,0.000691926,0.00144143,0.0014201,0.00253539,-0.000402038,0.914402,0.00183898,0.0153924,1231,1744,7.35505,-35.6876
14,-720,7.36548,35.7504,0.000940015,0.00163875,0.00164627,0.00297231,-0.000393548,0.889955,0.0021249,0.0150502,1238,1744,7.36552,-35.7503
21,-720,7.35376,35.8135,0.00130978,0.00196714,0.00183304,0.00350074,-0.00022381,0.87411,0.00241189,0.0121045,1245,1744,7.35374,-35.8134
28,-720,7.3429,35.8798,0.00167646,0.00236466,0.00194009,0.00399093,5.01876e-05,0.873167,0.00264405,0.0118588,1252,1744,7.34286,-35.8797
35,-720,7.35547,35.9293,0.00198968,0.00303303,0.00195122,0.00453111,0.000491602,0.916022,0.00287094,0.0113291,1259,1744,7.3555,-35.9293
42,-720,7.37207,35.953,0.00219904,0.0038921,0.00172446,0.0049666,0.00112454,1.01357,0.00300715,0.0110576,1266,1744,7.37204,-35.9529
49,-720,7.38232,35.9528,0.00231084,0.00465827,0.00142542,0.00533102,0.00163809,1.12983,0.00315316,0.0118284,1273,1744,7.38238,-35.9528
56,-720,7.39319,35.9843,0.00238735,0.00540874,0.00102477,0.00572352,0.00207257,1.27278,0.0033461,0.0106753,1280,1744,7.39318,-35.9843
63,-720,7.40308,36.014,0.00228329,0.00592408,0.000484228,0.00598738,0.00221998,1.44081,0.00349508,0.0121284,1287,1744,7.4031,-36.0141
70,-720,7.43237,36.0106,0.00203444,0.00631798,-0.000146708,0.006323,0.00202942,-1.5366,0.00372778,0.0127958,1294,1744,7.43235,-36.0106
77,-720,7.45056,36.0029,0.00158022,0.0062183,-0.000716317,0.00632641,0.00147211,-1.421,0.00382259,0.0143685,1301,1744,7.45051,-36.0029
84,-720,7.4469,35.9906,0.00102855,0.0060593,-0.00114245,0.00630659,0.000781258,-1.35763,0.00396968,0.0141585,1308,1744,7.44687,-35.9906
91,-720,7.44238,35.9734,0.000618959,0.005521,-0.00142219,0.00590373,0.00023623,-1.30791,0.00385949,0.0133182,1315,1744,7.44238,-35.9734
98,-720,7.44287,35.9402,0.000276577,0.00450996,-0.00154254,0.0050124,-0.000225858,-1.25591,0.00341937,0.0118726,1322,1744,7.44292,-35.9402
105,-720,7.45813,35.8999,5.21516e-05,0.00348759,-0.00161537,0.00412784,-0.000588093,-1.19345,0.00296741,0.0114666,1329,1744,7.45809,-35.9
112,-720,7.47266,35.8599,2.77277e-05,0.00223561,-0.00129791,0.00283557,-0.000572227,-1.13781,0.00210718,0.0112028,1336,1744,7.47265,-35.8599
119,-720,7.47888,35.8173,-2.05191e-05,0.00103712,-0.000903302,0.00155501,-0.000538411,-1.05022,0.00125524,0.0110792,1343,1744,7.47884,-35.8173
126,-720,7.49744,35.7445,2.88495e-05,4.77807e-05,-0.000429884,0.000468303,-0.000391673,-0.796406,0.000497164,0.0111378,1350,1744,7.49749,-35.7445
133,-720,7.50195,35.6667,0.000155194,-0.000610681,7.4787e-05,0.000162429,-0.000617915,0.0964352,0.000475427,0.0126271,1357,1744,7.50193,-35.6667
140,-720,7.51477,35.5918,0.000326494,-0.00105935,0.000486455,0.0004802,-0.00121306,0.306044,0.00100766,0.0200661,1364,1744,7.51474,-35.5918
147,-720,7.5304,35.4883,0.000494174,-0.0012657,0.000792192,0.000798237,-0.00156977,0.366485,0.00139115,0.0218183,1371,1744,7.53034,-35.4883
154,-720,7.51416,35.3727,0.00057834,-0.00109145,0.000882709,0.000958445,-0.00147156,0.406614,0.00141335,0.0144437,1378,1744,7.5142,-35.3727
161,-720,7.52795,35.2559,0.000532677,-0.00082096,0.000831413,0.000927927,-0.00121621,0.443771,0.00124164,0.00991928,1385,1744,7.52795,-35.2558
168,-720,7.52808,35.1499,0.000454758,-0.000437617,0.000658595,0.000804077,-0.000786936,0.487671,0.00091859,0.00965558,1392,1744,7.52803,-35.1499
175,-720,7.54736,35.0286,0.000316437,-4.29455e-05,0.000321253,0.000504839,-0.000231347,0.530403,0.000434704,0.0156983,1399,1744,7.5474,-35.0285
182,-720,7.55042,34.9004,0.000108667,0.000495133,-8.50048e-05,0.000513004,9.07961e-05,-1.36358,0.000316114,0.0154108,1406,1744,7.55045,-34.9004
189,-720,7.53613,34.7665,-4.92859e-05,0.000844145,-0.000459388,0.0010382,-0.000243345,-1.17111,0.000785911,0.0126129,1413,1744,7.53614,-34.7665
196,-720,7.54175,34.6199,-0.00025494,0.00118954,-0.000812191,0.00155417,-0.000619569,-1.14882,0.0012931,0.0148375,1420,1744,7.54171,-34.6199
203,-720,7.52197,34.4475,-0.000379231,0.00174493,-0.00108714,0.00220268,-0.000836983,-1.17227,0.00181303,0.0178596,1427,1744,7.52197,-34.4475
210,-720,7.49255,34.2822,-0.000473465,0.00213993,-0.00133688,0.00270265,-0.00103618,-1.17239,0.00222894,0.0149818,1434,1744,7.49251,-34.2823
217,-720,7.47595,34.109,-0.000659261,0.00237623,-0.0014914,0.00298635,-0.00126938,-1.18247,0.00252283,0.0131023,1441,1744,7.47591,-34.109
224,-720,7.47717,33.9231,-0.000798662,0.0025131,-0.00164554,0.00319169,-0.00147725,-1.17966,0.00275552,0.00969868,1448,1744,7.47719,-33.9231
231,-720,7.48218,33.7424,-0.000986484,0.0025736,-0.00171284,0.00326386,-0.00167674,-1.18772,0.0029011,0.00976074,1455,1744,7.48218,-33.7424
238,-720,7.4751,33.5503,-6.49601e-05,0.00375321,-0.00103913,0.0040177,-0.000329444,-1.32156,0.00279476,0.00868629,1462,1744,7.4751,-33.5503
245,-720,7.46838,33.3599,0.00140039,0.00479116,-0.000470014,0.00485511,0.00133644,-1.43558,0.00289594,0.0111944,1469,1744,7.46834,-33.3599
252,-720,7.4552,33.1431,0.00257972,0.0057927,4.00909e-05,0.0057932,0.00257922,1.55832,0.00335139,0.0110056,1476,1744,7.45525,-33.143
259,-720,7.44751,32.9365,0.00406599,0.0068667,0.000539608,0.00696707,0.00396562,1.3869,0.00403526,0.0096188,1483,1744,7.44749,-32.9365
266,-720,7.41553,32.734,0.00578911,0.00811742,0.000772048,0.00835016,0.00555637,1.278,0.00490813,0.00791105,1490,1744,7.41552,-32.734
273,-720,7.38196,32.5277,0.00769385,0.0097118,0.000987066,0.0101143,0.00729133,1.18358,0.00602646,0.0135051,1497,1744,7.38197,-32.5277
280,-720,7.28674,32.2988,0.00966593,0.0111966,0.00106467,0.0117424,0.00912005,1.09702,0.00711708,0.0209306,1504,1744,7.28675,-32.2988
287,-720,7.22632,31.9969,0.0115519,0.0130028,0.000790128,0.01335,0.0112047,1.15676,0.00827808,0.0365202,1511,1744,7.22638,-31.9969
294,-720,7.39929,31.6669,0.0130443,0.014785,0.000277864,0.0148283,0.013001,1.41628,0.00933621,0.039056,1518,1744,7.39924,-31.6669
301,-720,7.48352,31.4601,0.0140758,0.01607,-0.000605263,0.0162394,0.0139064,-1.29802,0.0101385,0.0404166,1525,1744,7.4835,-31.4601
308,-720,7.62183,31.3151,0.014535,0.0165755,-0.00171436,0.0175502,0.0135603,-1.05381,0.010623,0.0384312,1532,1744,7.62179,-31.315
315,-720,7.72046,30.9867,0.0145859,0.017213,-0.0029713,0.0191482,0.0126508,-0.99352,0.0112439,0.0424163,1539,1744,7.7204,-30.9867
322,-720,7.73132,30.7731,0,0,0,0,0,0,0,-1,1546,1744,7.73131,-30.7731
329,-720,7.79773,28.8168,0,0,0,0,0,0,0,-1,1553,1744,7.79771,-28.8167
336,-720,6.14148,26.5682,0,0,0,0,0,0,0,-1,1560,1744,6.14151,-26.5683
343,-720,6.78552,21.3625,0,0,0,0,0,0,0,-1,1567,1744,6.78551,-21.3625
350,-720,4.0741,11.1836,0,0,0,0,0,0,0,-1,1574,1744,4.07412,-11.1836
357,-720,6.90833,21.4504,0,0,0,0,0,0,0,-1,1581,1744,6.90827,-21.4505
364,-720,5.83777,24.1599,0,0,0,0,0,0,0,-1,1588,1744,5.83773,-24.1599
371,-720,5.46997,23.6176,0,0,0,0,0,0,0,-1,1595,1744,5.47001,-23.6176
378,-720,3.88257,25.5404,0,0,0,0,0,0,0,-1,1602,1744,3.88262,-25.5404
385,-720,4.63611,25.6746,0,0,0,0,0,0,0,-1,1609,1744,4.63612,-25.6746
392,-720,3.49377,23.5042,0,0,0,0,0,0,0,-1,1616,1744,3.4938,-23.5042
399,-720,2.37317,24.7166,0,0,0,0,0,0,0,-1,1623,1744,2.37317,-24.7166
406,-720,0,0,0,0,0,0,0,0,0,-1,1630,1744,0,0
413,-720,0,0,0,0,0,0,0,0,0,-1,1637,1744,0,0
420,-720,0,0,0,0,0,0,0,0,0,-1,1644,1744,0,0
427,-720,0,0,0,0,0,0,0,0,0,-1,1651,1744,0,0
434,-720,0,0,0,0,0,0,0,0,0,-1,1658,1744,0,0
441,-720,0,0,0,0,0,0,0,0,0,-1,1665,1744,0,0
448,-720,0,0,0,0,0,0,0,0,0,-1,1672,1744,0,0
455,-720,0,0,0,0,0,0,0,0,0,-1,1679,1744,0,0
462,-720,0,0,0,0,0,0,0,0,0,-1,1686,1744,0,0
469,-720,0,0,0,0,0,0,0,0,0,-1,1693,1744,0,0
476,-720,0,0,0,0,0,0,0,0,0,-1,1700,1744,0,0
483,-720,0,0,0,0,0,0,0,0,0,-1,1707,1744,0,0
490,-720,0,0,0,0,0,0,0,0,0,-1,1714,1744,0,0
497,-720,0,0,0,0,0,0,0,0,0,-1,1721,1744,0,0
504,-720,0,0,0,0,0,0,0,0,0,-1,1728,1744,0,0
511,-720,0,0,0,0,0,0,0,0,0,-1,1735,1744,0,0
518,-720,0,0,0,0,0,0,0,0,0,-1,1742,1744,0,0
525,-720,0,0,0,0,0,0,0,0,0,-1,1749,1744,0,0
532,-720,0,0,0,0,0,0,0,0,0,-1,1756,1744,0,0
539,-720,0,0,0,0,0,0,0,0,0,-1,1763,1744,0,0
546,-720,0,0,0,0,0,0,0,0,0,-1,1770,1744,0,0
553,-720,0,0,0,0,0,0,0,0,0,-1,1777,1744,0,0
560,-720,0,0,0,0,0,0,0,0,0,-1,1784,1744,0,0
567,-720,0,0,0,0,0,0,0,0,0,-1,1791,1744,0,0
574,-720,0,0,0,0,0,0,0,0,0,-1,1798,1744,0,0
581,-720,0,0,0,0,0,0,0,0,0,-1,1805,1744,0,0
588,-720,0,0,0,0,0,0,0,0,0,-1,1812,1744,0,0
595,-720,0,0,0,0,0,0,0,0,0,-1,1819,1744,0,0
602,-720,0,0,0,0,0,0,0,0,0,-1,1826,1744,0,0
609,-720,0,0,0,0,0,0,0,0,0,-1,1833,1744,0,0
616,-720,0,0,0,0,0,0,0,0,0,-1,1840,1744,0,0
623,-720,0,0,0,0,0,0,0,0,0,-1,1847,1744,0,0
630,-720,0,0,0,0,0,0,0,0,0,-1,1854,1744,0,0
637,-720,0,0,0,0,0,0,0,0,0,-1,1861,1744,0,0
644,-720,0,0,0,0,0,0,0,0,0,-1,1868,1744,0,0
651,-720,0,0,0,0,0,0,0,0,0,-1,1875,1744,0,0
658,-720,0,0,0,0,0,0,0,0,0,-1,1882,1744,0,0
665,-720,0,0,0,0,0,0,0,0,0,-1,1889,1744,0,0
672,-720,0,0,0,0,0,0,0,0,0,-1,1896,1744,0,0
679,-720,0,0,0,0,0,0,0,0,0,-1,1903,1744,0,0
686,-720,0,0,0,0,0,0,0,0,0,-1,1910,1744,0,0
693,-720,0,0,0,0,0,0,0,0,0,-1,1917,1744,0,0
700,-720,0,0,0,0,0,0,0,0,0,-1,1924,1744,0,0
707,-720,0,0,0,0,0,0,0,0,0,-1,1931,1744,0,0
714,-720,0,0,0,0,0,0,0,0,0,-1,1938,1744,0,0
721,-720,0,0,0,0,0,0,0,0,0,-1,1945,1744,0,0
728,-720,0,0,0,0,0,0,0,0,0,-1,1952,1744,0,0
735,-720,0,0,0,0,0,0,0,0,0,-1,1959,1744,0,0
742,-720,0,0,0,0,0,0,0,0,0,-1,1966,1744,0,0
749,-720,0,0,0,0,0,0,0,0,0,-1,1973,1744,0,0
756,-720,0,0,0,0,0,0,0,0,0,-1,1980,1744,0,0
763,-720,0,0,0,0,0,0,0,0,0,-1,1987,1744,0,0
770,-720,0,0,0,0,0,0,0,0,0,-1,1994,1744,0,0
777,-720,0,0,0,0,0,0,0,0,0,-1,2001,1744,0,0
784,-720,0,0,0,0,0,0,0,0,0,-1,2008,1744,0,0
791,-720,0,0,0,0,0,0,0,0,0,-1,2015,1744,0,0
798,-720,0,0,0,0,0,0,0,0,0,-1,2022,1744,0,0
805,-720,0,0,0,0,0,0,0,0,0,-1,2029,1744,0,0
812,-720,0,0,0,0,0,0,0,0,0,-1,2036,1744,0,0
-700,-727,0,0,0,0,0,0,0,0,0,-1,524,1751,0,0
-693,-727,0,0,0,0,0,0,0,0,0,-1,531,1751,0,0
-686,-727,0,0,0,0,0,0,0,0,0,-1,538,1751,0,0
-679,-727,0,0,0,0,0,0,0,0,0,-1,545,1751,0,0
-672,-727,0,0,0,0,0,0,0,0,0,-1,552,1751,0,0
-665,-727,0,0,0,0,0,0,0,0,0,-1,559,1751,0,0
-658,-727,0,0,0,0,0,0,0,0,0,-1,566,1751,0,0
-651,-727,0,0,0,0,0,0,0,0,0,-1,573,1751,0,0
-644,-727,0,0,0,0,0,0,0,0,0,-1,580,1751,0,0
-637,-727,0,0,0,0,0,0,0,0,0,-1,587,1751,0,0
-630,-727,0,0,0,0,0,0,0,0,0,-1,594,1751,0,0
-623,-727,0,0,0,0,0,0,0,0,0,-1,601,1751,0,0
-616,-727,0,0,0,0,0,0,0,0,0,-1,608,1751,0,0
-609,-727,0,0,0,0,0,0,0,0,0,-1,615,1751,0,0
-602,-727,0,0,0,0,0,0,0,0,0,-1,622,1751,0,0
-595,-727,0,0,0,0,0,0,0,0,0,-1,629,1751,0,0
-588,-727,0,0,0,0,0,0,0,0,0,-1,636,1751,0,0
-581,-727,0,0,0,0,0,0,0,0,0,-1,643,1751,0,0
-574,-727,0,0,0,0,0,0,0,0,0,-1,650,1751,0,0
-567,-727,0,0,0,0,0,0,0,0,0,-1,657,1751,0,0
-560,-727,0,0,0,0,0,0,0,0,0,-1,664,1751,0,0
-553,-727,0,0,0,0,0,0,0,0,0,-1,671,1751,0,0
-546,-727,0,0,0,0,0,0,0,0,0,-1,678,1751,0,0
-539,-727,0,0,0,0,0,0,0,0,0,-1,685,1751,0,0
-532,-727,0,0,0,0,0,0,0,0,0,-1,692,1751,0,0
-525,-727,0,0,0,0,0,0,0,0,0,-1,699,1751,0,0
-518,-727,0,0,0,0,0,0,0,0,0,-1,706,1751,0,0
-511,-727,0,0,0,0,0,0,0,0,0,-1,713,1751,0,0
-504,-727,0,0,0,0,0,0,0,0,0,-1,720,1751,0,0
-497,-727,0,0,0,0,0,0,0,0,0,-1,727,1751,0,0
-490,-727,0,0,0,0,0,0,0,0,0,-1,734,1751,0,0
-483,-727,0,0,0,0,0,0,0,0,0,-1,741,1751,0,0
-476,-727,0,0,0,0,0,0,0,0,0,-1,748,1751,0,0
-469,-727,0,0,0,0,0,0,0,0,0,-1,755,1751,0,0
-462,-727,0,0,0,0,0,0,0,0,0,-1,762,1751,0,0
-455,-727,0,0,0,0,0,0,0,0,0,-1,769,1751,0,0
-448,-727,0,0,0,0,0,0,0,0,0,-1,776,1751,0,0
-441,-727,0,0,0,0,0,0,0,0,0,-1,783,1751,0,0
-434,-727,0,0,0,0,0,0,0,0,0,-1,790,1751,0,0
-427,-727,0,0,0,0,0,0,0,0,0,-1,797,1751,0,0
-420,-727,0,0,0,0,0,0,0,0,0,-1,804,1751,0,0
-413,-727,0,0,0,0,0,0,0,0,0,-1,811,1751,0,0
-406,-727,0,0,0,0,0,0,0,0,0,-1,818,1751,0,0
-399,-727,0,0,0,0,0,0,0,0,0,-1,825,1751,0,0
-392,-727,0,0,0,0,0,0,0,0,0,-1,832,1751,0,0
-385,-727,0,0,0,0,0,0,0,0,0,-1,839,1751,0,0
-378,-727,0,0,0,0,0,0,0,0,0,-1,846,1751,0,0
-371,-727,0,0,0,0,0,0,0,0,0,-1,853,1751,0,0
-364,-727,0,0,0,0,0,0,0,0,0,-1,860,1751,0,0
-357,-727,0,0,0,0,0,0,0,0,0,-1,867,1751,0,0
-350,-727,0,0,0,0,0,0,0,0,0,-1,874,1751,0,0
-343,-727,0,0,0,0,0,0,0,0,0,-1,881,1751,0,0
-336,-727,0,0,0,0,0,0,0,0,0,-1,888,1751,0,0
-329,-727,0,0,0,0,0,0,0,0,0,-1,895,1751,0,0
-322,-727,0,0,0,0,0,0,0,0,0,-1,902,1751,0,0
-315,-727,0,0,0,0,0,0,0,0,0,-1,909,1751,0,0
-308,-727,0,0,0,0,0,0,0,0,0,-1,916,1751,0,0
-301,-727,0,0,0,0,0,0,0,0,0,-1,923,1751,0,0
-294,-727,0,0,0,0,0,0,0,0,0,-1,930,1751,0,0
-287,-727,0,0,0,0,0,0,0,0,0,-1,937,1751,0,0
-280,-727,0,0,0,0,0,0,0,0,0,-1,944,1751,0,0
-273,-727,0,0,0,0,0,0,0,0,0,-1,951,1751,0,0
-266,-727,4.24805,7.61145,0,0,0,0,0,0,0,-1,958,1751,4.24802,-7.6115
-259,-727,3.65228,5.4082,0,0,0,0,0,0,0,-1,965,1751,3.65229,-5.40818
-252,-727,6.35193,19.5046,0,0,0,0,0,0,0,-1,972,1751,6.35193,-19.5046
-245,-727,6.6543,20.9005,0,0,0,0,0,0,0,-1,979,1751,6.65433,-20.9005
-238,-727,4.31769,18.0181,0,0,0,0,0,0,0,-1,986,1751,4.31766,-18.018
-231,-727,6.50403,21.7985,0,0,0,0,0,0,0,-1,993,1751,6.50403,-21.7985
-224,-727,7.89355,29.2025,0,0,0,0,0,0,0,-1,1000,1751,7.89356,-29.2026
-217,-727,4.66821,31.8496,0,0,0,0,0,0,0,-1,1007,1751,4.66824,-31.8496
-210,-727,5.05951,32.1201,0.0469375,-0.0933573,0.031696,0.053766,-0.100186,0.212195,0.0902209,0.0464595,1014,1751,5.0595,-32.1201
-203,-727,5.51245,32.3544,0.0427643,-0.0849932,0.0305369,0.0496881,-0.091917,0.222965,0.0829587,0.0459073,1021,1751,5.51242,-32.3544
-196,-727,6.16858,32.8782,0,0,0,0,0,0,0,-1,1028,1751,6.16862,-32.8782
-189,-727,7.86157,29.6465,0,0,0,0,0,0,0,-1,1035,1751,7.86159,-29.6465
-182,-727,7.66699,30.9133,0,0,0,0,0,0,0,-1,1042,1751,7.667,-30.9133
-175,-727,6.67578,31.39,0,0,0,0,0,0,0,-1,1049,1751,6.67577,-31.39
-168,-727,6.96582,31.6591,0.0170625,-0.033608,0.0188207,0.0232882,-0.0398337,0.319461,0.0368584,0.0497378,1056,1751,6.96584,-31.6591
-161,-727,7.24231,31.871,0.0125703,-0.0252642,0.015955,0.0184003,-0.0310941,0.350327,0.0288872,0.044925,1063,1751,7.24235,-31.8709
-154,-727,7.82166,31.8932,0,0,0,0,0,0,0,-1,1070,1751,7.8217,-31.8932
-147,-727,7.84302,32.2445,0,0,0,0,0,0,0,-1,1077,1751,7.84303,-32.2445
-140,-727,7.62354,32.1825,0.00155636,-0.00387105,0.00749929,0.00681783,-0.00913253,0.611797,0.00924121,0.0345219,1084,1751,7.62359,-32.1825
-133,-727,7.69373,32.4524,0.000554164,-0.00157224,0.00591075,0.00549657,-0.00651465,0.696411,0.00694298,0.0237533,1091,1751,7.69375,-32.4524
-126,-727,7.59668,32.7183,-0.000516353,0.000405696,0.00445376,0.00442223,-0.00453288,0.836971,0.00517037,0.015487,1098,1751,7.59666,-32.7183
-119,-727,7.59595,33.0079,-0.00144385,0.00204419,0.00331494,0.00404589,-0.00344555,1.02756,0.00432981,0.0120787,1105,1751,7.59591,-33.008
-112,-727,7.59253,33.1925,-0.0019803,0.00369926,0.00189302,0.00427238,-0.00255342,1.27682,0.00398231,0.0135896,1112,1751,7.59247,-33.1925
-105,-727,7.54187,33.4089,-0.00220396,0.00474197,0.00128958,0.00497366,-0.00243565,1.39303,0.00436062,0.0142691,1119,1751,7.54182,-33.4089
-98,-727,7.56055,33.6152,-0.0021992,0.00494878,0.00117018,0.00513547,-0.00238589,1.41259,0.00443813,0.0108915,1126,1751,7.56059,-33.6152
-91,-727,7.55334,33.797,-0.00209082,0.00501493,0.00111034,0.00518439,-0.00226028,1.41935,0.00440731,0.00977322,1133,1751,7.55329,-33.797
-84,-727,7.51941,33.9908,-0.00200376,0.00459725,0.0010199,0.00475124,-0.00215775,1.42094,0.00408151,0.0106348,1140,1751,7.51945,-33.9909
-77,-727,7.50879,34.1936,-0.00161931,0.00416618,0.00100442,0.0043356,-0.00178873,1.4037,0.00363637,0.0123768,1147,1751,7.50877,-34.1936
-70,-727,7.49951,34.3673,-0.00149083,0.0034768,0.000880947,0.0036284,-0.00164243,1.40038,0.00311428,0.0132608,1154,1751,7.49949,-34.3673
-63,-727,7.46924,34.5194,-0.00164059,0.00274452,0.000760415,0.00287264,-0.00176871,1.40388,0.00270483,0.0105008,1161,1751,7.46926,-34.5195
-56,-727,7.45483,34.662,-0.00150281,0.0020805,0.000680529,0.00220539,-0.0016277,1.3893,0.0022214,0.0101284,1168,1751,7.45487,-34.662
-49,-727,7.45264,34.8147,-0.00120561,0.00145304,0.000500781,0.00154424,-0.0012968,1.39066,0.00164235,0.0135438,1175,1751,7.4526,-34.8147
-42,-727,7.45557,34.954,-0.000813629,0.00109152,0.000419045,0.00117962,-0.000901726,1.36358,0.00120523,0.0170124,1182,1751,7.45562,-34.954
-35,-727,7.45056,35.0587,-0.000325259,0.000984561,0.00038682,0.00109027,-0.000430965,1.30404,0.000905362,0.0152394,1189,1751,7.45054,-35.0587
-28,-727,7.43579,35.1841,-4.97866e-05,0.000797493,0.000152888,0.000824236,-7.65304e-05,1.39762,0.000576696,0.00915087,1196,1751,7.43585,-35.1841
-21,-727,7.43359,35.3226,9.40685e-05,0.00071386,7.45571e-05,0.000722703,8.52259e-05,1.45275,0.000456055,0.0102021,1203,1751,7.4336,-35.3227
-14,-727,7.42883,35.4199,0.000239982,0.000584345,9.34706e-05,0.00060808,0.000216247,1.32212,0.000355921,0.0118357,1210,1751,7.42884,-35.4199
-7,-727,7.42383,35.5355,0.00047795,0.000367808,0.000100005,0.000537045,0.000308714,0.533714,0.000311218,0.0156097,1217,1751,7.42385,-35.5355
0,-727,7.41809,35.6497,0.000637212,0.00012816,0.000120686,0.000664375,0.000100997,0.221381,0.000413384,0.0150344,1224,1751,7.41813,-35.6496
7,-727,7.41772,35.7094,0.000729186,7.79981e-07,0.000118639,0.000748022,-1.80563e-05,0.157455,0.000504808,0.014121,1231,1751,7.41777,-35.7094
14,-727,7.43384,35.7703,0.000893234,-2.86469e-05,0.000147419,0.000916234,-5.1647e-05,0.154771,0.000628746,0.014149,1238,1751,7.4339,-35.7702
21,-727,7.41797,35.8339,0.00110479,6.0042e-05,0.000170228,0.00113183,3.30053e-05,0.157511,0.000743796,0.0125658,1245,1751,7.418,-35.8339
28,-727,7.42432,35.8853,0.0012812,0.000247069,0.00018098,0.00131196,0.000216311,0.168343,0.000812196,0.0110342,1252,1751,7.42427,-35.8853
35,-727,7.44263,35.9236,0.0014568,0.000622997,0.00016968,0.00149001,0.000589789,0.193264,0.000866457,0.011666,1259,1751,7.4426,-35.9235
42,-727,7.42114,35.9357,0.001603,0.00111542,3.31514e-05,0.00160524,0.00111317,0.0675767,0.000949631,0.0122089,1266,1751,7.42119,-35.9356
49,-727,7.40271,35.9496,0.00163443,0.00166841,-0.000174275,0.00182652,0.00147632,-0.833986,0.00111936,0.0114345,1273,1751,7.40271,-35.9496
56,-727,7.39905,36.0026,0.00164354,0.00222453,-0.000384771,0.00241615,0.00145192,-1.10874,0.00140441,0.0100703,1280,1751,7.39902,-36.0025
63,-727,7.40845,36.0123,0.00169256,0.00251229,-0.00064885,0.00286988,0.00133497,-1.06709,0.00165827,0.0117794,1287,1751,7.4085,-36.0124
70,-727,7.42969,35.9938,0.00169837,0.00280849,-0.000861678,0.00327841,0.00122845,-1.07153,0.0019125,0.0140061,1294,1751,7.4297,-35.9937
77,-727,7.43884,36.0387,0.00150456,0.00286,-0.000994169,0.00338547,0.000979085,-1.08457,0.00201167,0.0159773,1301,1751,7.43885,-36.0387
84,-727,7.43396,35.9968,0.00122695,0.00288001,-0.001115,0.00344142,0.000665546,-1.10435,0.00210775,0.0158502,1308,1751,7.43401,-35.9969
91,-727,7.42139,35.9418,0.0010126,0.00259603,-0.00116967,0.00321673,0.000391895,-1.08292,0.00202653,0.0157069,1315,1751,7.4214,-35.9418
98,-727,7.40833,35.9266,0.000793372,0.00201199,-0.00105158,0.00261804,0.000187328,-1.04797,0.00168639,0.0132177,1322,1751,7.40833,-35.9266
105,-727,7.42651,35.9033,0.000664593,0.00141296,-0.000866955,0.00198304,9.45193e-05,-0.989126,0.00129167,0.0130916,1329,1751,7.42655,-35.9033
112,-727,7.44531,35.8568,0.000578441,0.000608875,-0.000537876,0.00113175,5.55663e-05,-0.79954,0.000736676,0.011614,1336,1751,7.44535,-35.8568
119,-727,7.43933,35.7981,0.000406575,-0.000195846,-0.000200247,0.000467064,-0.000256335,-0.293357,0.00042352,0.00864246,1343,1751,7.43935,-35.7981
126,-727,7.45984,35.714,0.000222637,-0.000821801,0.000175795,0.000251432,-0.000850596,0.162358,0.000666866,0.0100076,1350,1751,7.45987,-35.714
133,-727,7.46155,35.6572,1.36759e-05,-0.0011739,0.000509206,0.000202112,-0.00136234,0.354432,0.000982549,0.0149169,1357,1751,7.46154,-35.6572
140,-727,7.44946,35.614,-0.000208917,-0.0012847,0.000746052,0.000172931,-0.00166655,0.473063,0.00117293,0.0224564,1364,1751,7.44943,-35.6141
147,-727,7.44434,35.5194,-0.00043426,-0.00117473,0.000864096,0.000135578,-0.00174457,0.582998,0.00121077,0.019795,1371,1751,7.44428,-35.5194
154,-727,7.42981,35.3636,-0.000670497,-0.000964639,0.00082869,2.40708e-05,-0.00165921,0.697576,0.00111425,0.0123962,1378,1751,7.42985,-35.3637
161,-727,7.43677,35.2476,-0.000926639,-0.000599088,0.000586645,-0.000153787,-0.00137194,0.921519,0.000867918,0.00987299,1385,1751,7.43675,-35.2476
168,-727,7.42529,35.15,-0.00113294,-3.92319e-05,0.000266917,2.2432e-05,-0.00119461,1.34376,0.000803987,0.0124402,1392,1751,7.42534,-35.15
175,-727,7.44629,35.0358,-0.00120369,0.000335639,-0.000358766,0.000415148,-0.0012832,-1.3527,0.00102234,0.0176944,1399,1751,7.4463,-35.0357
182,-727,7.44727,34.8987,-0.00118193,0.000780506,-0.000805258,0.00106863,-0.00147006,-1.22719,0.00147181,0.019301,1406,1751,7.44729,-34.8986
189,-727,7.3916,34.7466,-0.00117068,0.00112962,-0.0011871,0.00163237,-0.00167342,-1.17019,0.00190865,0.0116724,1413,1751,7.39161,-34.7465
196,-727,7.39172,34.6128,-0.00127307,0.00150681,-0.00151967,0.00217632,-0.00194258,-1.15582,0.00237933,0.0136367,1420,1751,7.39171,-34.6128
203,-727,7.36365,34.4362,-0.0013322,0.00235575,-0.00175751,0.00305914,-0.00203559,-1.1901,0.00296117,0.0176547,1427,1751,7.36363,-34.4361
210,-727,7.33984,34.2677,-0.00135096,0.00303076,-0.00212635,0.00389297,-0.00221317,-1.18557,0.00356957,0.0166414,1434,1751,7.33986,-34.2677
217,-727,7.31433,34.1138,-0.00146693,0.0033975,-0.00228476,0.00430232,-0.00237175,-1.19372,0.00390664,0.0120819,1441,1751,7.31433,-34.1138
224,-727,7.30005,33.9088,-0.00155387,0.00357492,-0.00244699,0.00455509,-0.00253403,-1.18981,0.00414798,0.0126348,1448,1751,7.30005,-33.9088
231,-727,7.29968,33.7305,-0.00171615,0.00364435,-0.00249827,0.00462813,-0.00269992,-1.19566,0.00427939,0.00987419,1455,1751,7.29965,-33.7305
238,-727,7.29956,33.5417,-0.000246897,0.00534365,-0.00145317,0.00569882,-0.000602062,-1.33109,0.00401497,0.00997781,1462,1751,7.29958,-33.5418
245,-727,7.27563,33.3547,0.00196879,0.00676635,-0.000579512,0.00683535,0.00189978,-1.45227,0.00407407,0.00995898,1469,1751,7.27566,-33.3547
252,-727,7.24597,33.1451,0.0037307,0.00814789,0.000217506,0.00815857,0.00372001,1.52171,0.00471644,0.0110166,1476,1751,7.24596,-33.1451
259,-727,7.25476,32.9299,0.00593456,0.0096586,0.00104965,0.00993408,0.00565908,1.31414,0.00575397,0.0144456,1483,1751,7.25482,-32.9299
266,-727,7.26648,32.7643,0.008507,0.0114197,0.00159149,0.0121206,0.00780608,1.15594,0.00709397,0.0200449,1490,1751,7.26646,-32.7643
273,-727,7.29272,32.6019,0.0113611,0.0136171,0.00214443,0.0149121,0.0100661,1.02753,0.00878358,0.0378393,1497,1751,7.29275,-32.602
280,-727,7.11035,32.4568,0,0,0,0,0,0,0,-1,1504,1751,7.1103,-32.4567
287,-727,6.87817,31.671,0.0173759,0.0182846,0.00245145,0.0203235,0.0153371,0.877036,0.0122305,0.0496244,1511,1751,6.87814,-31.671
294,-727,7.09229,31.3595,0.019887,0.0208068,0.00202162,0.0224202,0.0182736,0.897229,0.0137742,0.0497834,1518,1751,7.09229,-31.3595
301,-727,7.27954,31.4471,0,0,0,0,0,0,0,-1,1525,1751,7.27956,-31.4471
308,-727,7.70166,31.5308,0,0,0,0,0,0,0,-1,1532,1751,7.70166,-31.5307
315,-727,7.87524,30.9866,0,0,0,0,0,0,0,-1,1539,1751,7.87529,-30.9865
322,-727,5.75818,18.2477,0,0,0,0,0,0,0,-1,1546,1751,5.75815,-18.2477
329,-727,6.61853,11.6267,0,0,0,0,0,0,0,-1,1553,1751,6.61859,-11.6267
336,-727,5.55823,20.2439,0,0,0,0,0,0,0,-1,1560,1751,5.55829,-20.2438
343,-727,2.41699,8.72095,0,0,0,0,0,0,0,-1,1567,1751,2.41702,-8.72098
350,-727,3.89783,7.50195,0,0,0,0,0,0,0,-1,1574,1751,3.89782,-7.50193
357,-727,4.48462,10.2948,0,0,0,0,0,0,0,-1,1581,1751,4.48464,-10.2948
364,-727,6.96729,17.2365,0,0,0,0,0,0,0,-1,1588,1751,6.96732,-17.2365
371,-727,5.04565,23.2227,0,0,0,0,0,0,0,-1,1595,1751,5.04564,-23.2227
378,-727,4.56726,23.0574,0,0,0,0,0,0,0,-1,1602,1751,4.56727,-23.0574
385,-727,3.52307,22.6431,0,0,0,0,0,0,0,-1,1609,1751,3.52303,-22.643
392,-727,0,0,0,0,0,0,0,0,0,-1,1616,1751,0,0
399,-727,0,0,0,0,0,0,0,0,0,-1,1623,1751,0,0
406,-727,0,0,0,0,0,0,0,0,0,-1,1630,1751,0,0
413,-727,0,0,0,0,0,0,0,0,0,-1,1637,1751,0,0
420,-727,0,0,0,0,0,0,0,0,0,-1,1644,1751,0,0
427,-727,0,0,0,0,0,0,0,0,0,-1,1651,1751,0,0
434,-727,0,0,0,0,0,0,0,0,0,-1,1658,1751,0,0
441,-727,0,0,0,0,0,0,0,0,0,-1,1665,1751,0,0
448,-727,0,0,0,0,0,0,0,0,0,-1,1672,1751,0,0
455,-727,0,0,0,0,0,0,0,0,0,-1,1679,1751,0,0
462,-727,0,0,0,0,0,0,0,0,0,-1,1686,1751,0,0
469,-727,0,0,0,0,0,0,0,0,0,-1,1693,1751,0,0
476,-727,0,0,0,0,0,0,0,0,0,-1,1700,1751,0,0
483,-727,0,0,0,0,0,0,0,0,0,-1,1707,1751,0,0
490,-727,0,0,0,0,0,0,0,0,0,-1,1714,1751,0,0
497,-727,0,0,0,0,0,0,0,0,0,-1,1721,1751,0,0
504,-727,0,0,0,0,0,0,0,0,0,-1,1728,1751,0,0
511,-727,0,0,0,0,0,0,0,0,0,-1,1735,1751,0,0
518,-727,0,0,0,0,0,0,0,0,0,-1,1742,1751,0,0
525,-727,0,0,0,0,0,0,0,0,0,-1,1749,1751,0,0
532,-727,0,0,0,0,0,0,0,0,0,-1,1756,1751,0,0
539,-727,0,0,0,0,0,0,0,0,0,-1,1763,1751,0,0
546,-727,0,0,0,0,0,0,0,0,0,-1,1770,1751,0,0
553,-727,0,0,0,0,0,0,0,0,0,-1,1777,1751,0,0
560,-727,0,0,0,0,0,0,0,0,0,-1,1784,1751,0,0
567,-727,0,0,0,0,0,0,0,0,0,-1,1791,1751,0,0
574,-727,0,0,0,0,0,0,0,0,0,-1,1798,1751,0,0
581,-727,0,0,0,0,0,0,0,0,0,-1,1805,1751,0,0
588,-727,0,0,0,0,0,0,0,0,0,-1,1812,1751,0,0
595,-727,0,0,0,0,0,0,0,0,0,-1,1819,1751,0,0
602,-727,0,0,0,0,0,0,0,0,0,-1,1826,1751,0,0
609,-727,0,0,0,0,0,0,0,0,0,-1,1833,1751,0,0
616,-727,0,0,0,0,0,0,0,0,0,-1,1840,1751,0,0
623,-727,0,0,0,0,0,0,0,0,0,-1,1847,1751,0,0
630,-727,0,0,0,0,0,0,0,0,0,-1,1854,1751,0,0
637,-727,0,0,0,0,0,0,0,0,0,-1,1861,1751,0,0
644,-727,0,0,0,0,0,0,0,0,0,-1,1868,1751,0,0
651,-727,0,0,0,0,0,0,0,0,0,-1,1875,1751,0,0
658,-727,0,0,0,0,0,0,0,0,0,-1,1882,1751,0,0
665,-727,0,0,0,0,0,0,0,0,0,-1,1889,1751,0,0
672,-727,0,0,0,0,0,0,0,0,0,-1,1896,1751,0,0
679,-727,0,0,0,0,0,0,0,0,0,-1,1903,1751,0,0
686,-727,0,0,0,0,0,0,0,0,0,-1,1910,1751,0,0
693,-727,0,0,0,0,0,0,0,0,0,-1,1917,1751,0,0
700,-727,0,0,0,0,0,0,0,0,0,-1,1924,1751,0,0
707,-727,0,0,0,0,0,0,0,0,0,-1,1931,1751,0,0
714,-727,0,0,0,0,0,0,0,0,0,-1,1938,1751,0,0
721,-727,0,0,0,0,0,0,0,0,0,-1,1945,1751,0,0
728,-727,0,0,0,0,0,0,0,0,0,-1,1952,1751,0,0
735,-727,0,0,0,0,0,0,0,0,0,-1,1959,1751,0,0
742,-727,0,0,0,0,0,0,0,0,0,-1,1966,1751,0,0
749,-727,0,0,0,0,0,0,0,0,0,-1,1973,1751,0,0
756,-727,0,0,0,0,0,0,0,0,0,-1,1980,1751,0,0
763,-727,0,0,0,0,0,0,0,0,0,-1,1987,1751,0,0
770,-727,0,0,0,0,0,0,0,0,0,-1,1994,1751,0,0
777,-727,0,0,0,0,0,0,0,0,0,-1,2001,1751,0,0
784,-727,0,0,0,0,0,0,0,0,0,-1,2008,1751,0,0
791,-727,0,0,0,0,0,0,0,0,0,-1,2015,1751,0,0
798,-727,0,0,0,0,0,0,0,0,0,-1,2022,1751,0,0
805,-727,0,0,0,0,0,0,0,0,0,-1,2029,1751,0,0
812,-727,0,0,0,0,0,0,0,0,0,-1,2036,1751,0,0
-700,-734,0,0,0,0,0,0,0,0,0,-1,524,1758,0,0
-693,-734,0,0,0,0,0,0,0,0,0,-1,531,1758,0,0
-686,-734,0,0,0,0,0,0,0,0,0,-1,538,1758,0,0
-679,-734,0,0,0,0,0,0,0,0,0,-1,545,1758,0,0
-672,-734,0,0,0,0,0,0,0,0,0,-1,552,1758,0,0
-665,-734,0,0,0,0,0,0,0,0,0,-1,559,1758,0,0
-658,-734,0,0,0,0,0,0,0,0,0,-1,566,1758,0,0
-651,-734,0,0,0,0,0,0,0,0,0,-1,573,1758,0,0
-644,-734,0,0,0,0,0,0,0,0,0,-1,580,1758,0,0
-637,-734,0,0,0,0,0,0,0,0,0,-1,587,1758,0,0
-630,-734,0,0,0,0,0,0,0,0,0,-1,594,1758,0,0
-623,-734,0,0,0,0,0,0,0,0,0,-1,601,1758,0,0
-616,-734,0,0,0,0,0,0,0,0,0,-1,608,1758,0,0
-609,-734,0,0,0,0,0,0,0,0,0,-1,615,1758,0,0
-602,-734,0,0,0,0,0,0,0,0,0,-1,622,1758,0,0
-595,-734,0,0,0,0,0,0,0,0,0,-1,629,1758,0,0
-588,-734,0,0,0,0,0,0,0,0,0,-1,636,1758,0,0
-581,-734,0,0,0,0,0,0,0,0,0,-1,643,1758,0,0
-574,-734,0,0,0,0,0,0,0,0,0,-1,650,1758,0,0
-567,-734,0,0,0,0,0,0,0,0,0,-1,657,1758,0,0
-560,-734,0,0,0,0,0,0,0,0,0,-1,664,1758,0,0
-553,-734,0,0,0,0,0,0,0,0,0,-1,671,1758,0,0
-546,-734,0,0,0,0,0,0,0,0,0,-1,678,1758,0,0
-539,-734,0,0,0,0,0,0,0,0,0,-1,685,1758,0,0
-532,-734,0,0,0,0,0,0,0,0,0,-1,692,1758,0,0
-525,-734,0,0,0,0,0,0,0,0,0,-1,699,1758,0,0
-518,-734,0,0,0,0,0,0,0,0,0,-1,706,1758,0,0
-511,-734,0,0,0,0,0,0,0,0,0,-1,713,1758,0,0
-504,-734,0,0,0,0,0,0,0,0,0,-1,720,1758,0,0
-497,-734,0,0,0,0,0,0,0,0,0,-1,727,1758,0,0
-490,-734,0,0,0,0,0,0,0,0,0,-1,734,1758,0,0
-483,-734,0,0,0,0,0,0,0,0,0,-1,741,1758,0,0
-476,-734,0,0,0,0,0,0,0,0,0,-1,748,1758,0,0
-469,-734,0,0,0,0,0,0,0,0,0,-1,755,1758,0,0
-462,-734,0,0,0,0,0,0,0,0,0,-1,762,1758,0,0
-455,-734,0,0,0,0,0,0,0,0,0,-1,769,1758,0,0
-448,-734,0,0,0,0,0,0,0,0,0,-1,776,1758,0,0
-441,-734,0,0,0,0,0,0,0,0,0,-1,783,1758,0,0
-434,-734,0,0,0,0,0,0,0,0,0,-1,790,1758,0,0
-427,-734,0,0,0,0,0,0,0,0,0,-1,797,1758,0,0
-420,-734,0,0,0,0,0,0,0,0,0,-1,804,1758,0,0
-413,-734,0,0,0,0,0,0,0,0,0,-1,811,1758,0,0
-406,-734,0,0,0,0,0,0,0,0,0,-1,818,1758,0,0
-399,-734,0,0,0,0,0,0,0,0,0,-1,825,1758,0,0
-392,-734,0,0,0,0,0,0,0,0,0,-1,832,1758,0,0
-385,-734,0,0,0,0,0,0,0,0,0,-1,839,1758,0,0
-378,-734,0,0,0,0,0,0,0,0,0,-1,846,1758,0,0
-371,-734,0,0,0,0,0,0,0,0,0,-1,853,1758,0,0
-364,-734,0,0,0,0,0,0,0,0,0,-1,860,1758,0,0
-357,-734,0,0,0,0,0,0,0,0,0,-1,867,1758,0,0
-350,-734,0,0,0,0,0,0,0,0,0,-1,874,1758,0,0
-343,-734,0,0,0,0,0,0,0,0,0,-1,881,1758,0,0
-336,-734,0,0,0,0,0,0,0,0,0,-1,888,1758,0,0
-329,-734,0,0,0,0,0,0,0,0,0,-1,895,1758,0,0
-322,-734,0,0,0,0,0,0,0,0,0,-1,902,1758,0,0
-315,-734,0,0,0,0,0,0,0,0,0,-1,909,1758,0,0
-308,-734,0,0,0,0,0,0,0,0,0,-1,916,1758,0,0
-301,-734,0,0,0,0,0,0,0,0,0,-1,923,1758,0,0
-294,-734,0,0,0,0,0,0,0,0,0,-1,930,1758,0,0
-287,-734,0,0,0,0,0,0,0,0,0,-1,937,1758,0,0
-280,-734,0,0,0,0,0,0,0,0,0,-1,944,1758,0,0
-273,-734,0,0,0,0,0,0,0,0,0,-1,951,1758,0,0
-266,-734,0,0,0,0,0,0,0,0,0,-1,958,1758,0,0
-259,-734,0,0,0,0,0,0,0,0,0,-1,965,1758,0,0
-252,-734,6.93439,18.351,0,0,0,0,0,0,0,-1,972,1758,6.93438,-18.3509
-245,-734,6.95746,19.5341,0,0,0,0,0,0,0,-1,979,1758,6.95746,-19.5341
-238,-734,6.216,17.1718,0,0,0,0,0,0,0,-1,986,1758,6.216,-17.1717
-231,-734,7.25604,16.8156,0,0,0,0,0,0,0,-1,993,1758,7.25602,-16.8156
-224,-734,3.8869,32.9818,0,0,0,0,0,0,0,-1,1000,1758,3.88689,-32.9818
-217,-734,4.49084,32.9758,0,0,0,0,0,0,0,-1,1007,1758,4.49084,-32.9758
-210,-734,4.90692,33.2808,0.0619299,-0.122813,0.0377119,0.0693316,-0.130214,0.193806,0.116982,0.0466306,1014,1758,4.90692,-33.2808
-203,-734,5.19104,33.1826,0.0569661,-0.112116,0.0367093,0.0645921,-0.119742,0.204826,0.108002,0.0452885,1021,1758,5.19104,-33.1827
-196,-734,5.69165,33.9451,0,0,0,0,0,0,0,-1,1028,1758,5.69166,-33.945
-189,-734,8.22449,30.4427,0,0,0,0,0,0,0,-1,1035,1758,8.22453,-30.4428
-182,-734,8.14197,31.3351,0,0,0,0,0,0,0,-1,1042,1758,8.14194,-31.3351
-175,-734,7.3667,26.2832,0,0,0,0,0,0,0,-1,1049,1758,7.3667,-26.2832
-168,-734,7.05383,32.0808,0,0,0,0,0,0,0,-1,1056,1758,7.05377,-32.0809
-161,-734,7.32874,32.3751,0,0,0,0,0,0,0,-1,1063,1758,7.32872,-32.3751
-154,-734,8.03125,31.9331,0,0,0,0,0,0,0,-1,1070,1758,8.03122,-31.9331
-147,-734,8.15723,32.0387,0,0,0,0,0,0,0,-1,1077,1758,8.15719,-32.0387
-140,-734,7.94104,32.198,0,0,0,0,0,0,0,-1,1084,1758,7.94107,-32.198
-133,-734,7.88306,32.4698,0.000821569,-0.00115258,0.00770153,0.00759903,-0.00793003,0.721663,0.00896639,0.0475643,1091,1758,7.88302,-32.4698
-126,-734,7.73645,32.6711,-0.000711082,0.00153093,0.00571566,0.00623448,-0.00541463,0.882234,0.00673117,0.040746,1098,1758,7.7365,-32.6711
-119,-734,7.82117,32.9573,-0.00195134,0.00366264,0.0041426,0.00585968,-0.00414838,1.08316,0.00580624,0.0400179,1105,1758,7.82117,-32.9572
-112,-734,7.83228,33.1681,-0.00271719,0.00581739,0.00227708,0.00638692,-0.00328672,1.32571,0.00567988,0.0344312,1112,1758,7.83223,-33.1681
-105,-734,7.76514,33.3778,-0.00310131,0.00713463,0.00154616,0.00736308,-0.00332976,1.4241,0.00631821,0.0272946,1119,1758,7.76514,-33.3779
-98,-734,7.79492,33.4963,-0.0031546,0.00733808,0.00138484,0.00751778,-0.00333429,1.44176,0.00641875,0.0271023,1126,1758,7.7949,-33.4963
-91,-734,7.78589,33.6406,-0.00307847,0.00732406,0.00129645,0.0074832,-0.00323761,1.44866,0.00634939,0.0354921,1133,1758,7.78583,-33.6406
-84,-734,7.68945,33.8655,-0.00299495,0.00664344,0.00118585,0.0067872,-0.00313871,1.45016,0.00585835,0.0402988,1140,1758,7.68941,-33.8654
-77,-734,7.6582,34.1813,0,0,0,0,0,0,0,-1,1147,1758,7.65816,-34.1813
-70,-734,7.66724,34.3754,0,0,0,0,0,0,0,-1,1154,1758,7.6672,-34.3754
-63,-734,7.59143,34.3943,-0.0026726,0.00349923,0.00102123,0.00366381,-0.00283719,1.411,0.00376346,0.0254948,1161,1758,7.59148,-34.3942
-56,-734,7.58423,34.6088,-0.00256548,0.00246804,0.00100823,0.00266248,-0.00275992,1.38028,0.0031308,0.0163024,1168,1758,7.5842,-34.6088
-49,-734,7.58704,34.8219,-0.00205242,0.00166397,0.000705943,0.00179355,-0.002182,1.38926,0.00229893,0.0131534,1175,1758,7.58706,-34.8219
-42,-734,7.56433,34.9641,-0.00158647,0.001284,0.000501111,0.00136897,-0.00167143,1.40284,0.00175827,0.0143834,1182,1758,7.56436,-34.9642
-35,-734,7.55408,35.0641,-0.00113761,0.00113708,0.000380522,0.00119905,-0.00119958,1.40936,0.00138485,0.0142233,1189,1758,7.55408,-35.0641
-28,-734,7.5614,35.1859,-0.000680689,0.00120649,-0.000163713,0.00122059,-0.000694786,-1.4849,0.00111965,0.00993026,1196,1758,7.56138,-35.1859
-21,-734,7.60693,35.3109,-0.000278024,0.000921011,-0.000423099,0.00105527,-0.000412287,-1.26352,0.000873984,0.015218,1203,1758,7.60688,-35.3109
-14,-734,7.55237,35.4348,0.000104669,0.000768957,-0.000487895,0.00102703,-0.000153408,-1.08425,0.000741137,0.0158681,1210,1758,7.55235,-35.4348
-7,-734,7.51843,35.5394,0.000643321,0.000444987,-0.00056506,0.00111785,-2.9542e-05,-0.698534,0.000755273,0.018124,1217,1758,7.51848,-35.5395
0,-734,7.49243,35.6351,0.00111633,8.26915e-05,-0.000641654,0.00142341,-0.000224397,-0.446372,0.00103191,0.0172657,1224,1758,7.49246,-35.6351
7,-734,7.48132,35.7098,0.00143672,-0.000281321,-0.000726637,0.00170283,-0.00054743,-0.351052,0.00135507,0.0125831,1231,1758,7.48135,-35.7099
14,-734,7.48413,35.7728,0.0017241,-0.000642954,-0.000759038,0.00194659,-0.000865441,-0.28513,0.00166304,0.0129429,1238,1758,7.48409,-35.7728
21,-734,7.46448,35.8298,0.0019356,-0.000953146,-0.00080719,0.00214585,-0.00116339,-0.254806,0.00193846,0.0119775,1245,1758,7.46444,-35.8298
28,-734,7.45862,35.8752,0.00202422,-0.00117681,-0.000831596,0.00222736,-0.00137996,-0.239595,0.00210176,0.0114431,1252,1758,7.45859,-35.8752
35,-734,7.47424,35.9282,0.00205043,-0.00128955,-0.000860461,0.00225907,-0.00149819,-0.237886,0.00218403,0.0138565,1259,1758,7.47424,-35.9282
42,-734,7.47363,35.9482,0.00201709,-0.00128884,-0.000954418,0.00227284,-0.00154459,-0.261818,0.00221732,0.0123347,1266,1758,7.47363,-35.9483
49,-734,7.44519,35.962,0.00184048,-0.00105063,-0.0011473,0.00224044,-0.00145059,-0.335437,0.00214722,0.0105351,1273,1758,7.44518,-35.9621
56,-734,7.42969,36.0105,0.0015763,-0.000751752,-0.00126906,0.00213433,-0.00130978,-0.414271,0.00200736,0.00968038,1280,1758,7.42973,-36.0105
63,-734,7.41138,36.0154,0.00123621,-0.000643093,-0.00148196,0.00205131,-0.0014582,-0.502855,0.00203584,0.0122457,1287,1758,7.41136,-36.0153
70,-734,7.38586,36.0249,0.000828641,-0.000255035,-0.00152417,0.00190442,-0.00133081,-0.614616,0.00187762,0.0134037,1294,1758,7.3858,-36.0249
77,-734,7.39478,36.077,0.000286123,-3.2364e-05,-0.00145305,0.00158863,-0.00133487,-0.73082,0.00169001,0.0182157,1301,1758,7.39479,-36.077
84,-734,7.40601,36.0164,-0.000281361,0.000418492,-0.00143521,0.00154582,-0.00140869,-0.904973,0.0017064,0.0164037,1308,1758,7.40602,-36.0163
91,-734,7.40918,35.9672,-0.000765671,0.000570672,-0.0014329,0.00148353,-0.00167853,-1.00356,0.00182677,0.0164058,1315,1758,7.40917,-35.9672
98,-734,7.39441,35.9448,-0.00129313,0.000520174,-0.00127967,0.00118182,-0.00195478,-1.0936,0.00182915,0.0124281,1322,1758,7.39436,-35.9448
105,-734,7.40723,35.9048,-0.00170232,0.000355968,-0.00100046,0.000762112,-0.00210847,-1.18516,0.00171702,0.0140844,1329,1758,7.4072,-35.9048
112,-734,7.43054,35.8387,-0.00194428,-2.8805e-05,-0.000665935,0.000179961,-0.00215305,-1.26701,0.00149896,0.0127687,1336,1758,7.4305,-35.8387
119,-734,7.40308,35.7667,-0.00219831,-0.000542164,-0.000377606,-0.000460132,-0.00228034,-1.35688,0.00139243,0.0129572,1343,1758,7.40305,-35.7668
126,-734,7.40613,35.6873,-0.0024211,-0.00096785,-5.36176e-05,-0.000965874,-0.00242308,-1.53397,0.00140852,0.0148795,1350,1758,7.40617,-35.6872
133,-734,7.37854,35.6079,-0.00263463,-0.00120616,0.000205339,-0.00117723,-0.00266356,1.43082,0.00154126,0.0148826,1357,1758,7.37857,-35.6079
140,-734,7.35779,35.5438,-0.00282621,-0.00121425,0.00040171,-0.00111969,-0.00292077,1.33961,0.00170153,0.0201292,1364,1758,7.3578,-35.5439
147,-734,7.3468,35.4436,-0.00298319,-0.00107556,0.000522867,-0.000941648,-0.0031171,1.32007,0.00184605,0.0140819,1371,1758,7.34679,-35.4436
154,-734,7.33557,35.3655,-0.00312134,-0.000968176,0.000533063,-0.000843431,-0.00324609,1.34092,0.00194486,0.00956275,1378,1758,7.33561,-35.3654
161,-734,7.32654,35.2672,-0.00322681,-0.000640983,0.000285738,-0.000609785,-0.00325801,1.46204,0.00199998,0.00887783,1385,1758,7.32653,-35.2673
168,-734,7.29883,35.1554,-0.00312048,8.17697e-05,4.03843e-05,8.22789e-05,-0.00312099,1.55819,0.00210862,0.0138701,1392,1758,7.2988,-35.1554
175,-734,7.30823,35.0402,-0.00278395,0.000361149,-0.000594324,0.00046971,-0.00289251,-1.39013,0.00210247,0.0169599,1399,1758,7.30819,-35.0401
182,-734,7.31433,34.8929,-0.00223138,0.00074673,-0.00104283,0.00107558,-0.00256023,-1.26532,0.00215668,0.0156417,1406,1758,7.31432,-34.893
189,-734,7.26086,34.7423,-0.00203538,0.00120518,-0.00152221,0.00180806,-0.00263827,-1.1937,0.00258196,0.0119787,1413,1758,7.26088,-34.7423
196,-734,7.23083,34.6057,-0.00214053,0.00178254,-0.00201522,0.00263326,-0.00299124,-1.17135,0.0032495,0.0142836,1420,1758,7.2308,-34.6058
203,-734,7.24658,34.4213,-0.0022414,0.00302576,-0.00241775,0.00396727,-0.00318291,-1.19945,0.00413643,0.0193088,1427,1758,7.24663,-34.4213
210,-734,7.24683,34.2321,-0.0021948,0.00403467,-0.00294534,0.00520673,-0.00336686,-1.19207,0.00498781,0.026021,1434,1758,7.24679,-34.232
217,-734,7.18628,34.0585,-0.00226009,0.00456515,-0.00313987,0.00578986,-0.00348479,-1.1989,0.00540957,0.0256597,1441,1758,7.18627,-34.0585
224,-734,7.25989,33.7726,-0.00229788,0.00483741,-0.00332548,0.00614695,-0.00360742,-1.19566,0.00569495,0.0275154,1448,1758,7.25984,-33.7726
231,-734,7.1842,33.6941,-0.0024316,0.00496298,-0.00337757,0.00627347,-0.00374209,-1.20068,0.00584373,0.0228502,1455,1758,7.18424,-33.6941
238,-734,7.10449,33.5703,-0.000328021,0.0072637,-0.00191692,0.00772027,-0.000784589,-1.33698,0.00542731,0.0202261,1462,1758,7.10443,-33.5703
245,-734,7.12268,33.2941,0.00278203,0.00912812,-0.000675945,0.00919932,0.00271083,-1.46585,0.00545846,0.0250375,1469,1758,7.12266,-33.2941
252,-734,7.12915,33.0596,0.00529263,0.0109936,0.000505914,0.0110381,0.00524808,1.48297,0.00637544,0.0287921,1476,1758,7.1291,-33.0596
259,-734,7.20715,32.9706,0.00847404,0.0131086,0.00183296,0.0137459,0.00783674,1.23618,0.00796217,0.0380086,1483,1758,7.2071,-32.9705
266,-734,7.09082,32.8192,0.0122605,0.0155951,0.0029037,0.0172761,0.0105794,1.04601,0.010058,0.0481842,1490,1758,7.09079,-32.8192
273,-734,7.02991,32.7755,0,0,0,0,0,0,0,-1,1497,1758,7.02996,-32.7755
280,-734,6.1217,31.1287,0,0,0,0,0,0,0,-1,1504,1758,6.12168,-31.1286
287,-734,6.04236,31.0729,0.0258636,0.0253607,0.00535152,0.0309696,0.0202547,0.761921,0.0181609,0.0481415,1511,1758,6.04239,-31.0729
294,-734,6.75146,31.1674,0.0300417,0.028989,0.00520043,0.0347424,0.0242884,0.734962,0.0205818,0.047805,1518,1758,6.75148,-31.1673
301,-734,7.1051,29.3831,0,0,0,0,0,0,0,-1,1525,1758,7.10507,-29.383
308,-734,9.00854,5.43774,0,0,0,0,0,0,0,-1,1532,1758,9.00857,-5.4377
315,-734,5.3158,17.4298,0,0,0,0,0,0,0,-1,1539,1758,5.31581,-17.4299
322,-734,9.85913,7.48096,0,0,0,0,0,0,0,-1,1546,1758,9.85916,-7.48098
329,-734,5.45972,12.4125,0,0,0,0,0,0,0,-1,1553,1758,5.45969,-12.4125
336,-734,5.92188,13.8751,0,0,0,0,0,0,0,-1,1560,1758,5.92183,-13.8751
343,-734,5.54968,5.14221,0,0,0,0,0,0,0,-1,1567,1758,5.54973,-5.14225
350,-734,5.07397,6.73242,0,0,0,0,0,0,0,-1,1574,1758,5.07402,-6.73243
357,-734,5.05542,7.19189,0,0,0,0,0,0,0,-1,1581,1758,5.05541,-7.19184
364,-734,4.43896,10.4904,0,0,0,0,0,0,0,-1,1588,1758,4.43893,-10.4904
371,-734,7.36975,17.4751,0,0,0,0,0,0,0,-1,1595,1758,7.36972,-17.4752
378,-734,0,0,0,0,0,0,0,0,0,-1,1602,1758,0,0
385,-734,0,0,0,0,0,0,0,0,0,-1,1609,1758,0,0
392,-734,0,0,0,0,0,0,0,0,0,-1,1616,1758,0,0
399,-734,0,0,0,0,0,0,0,0,0,-1,1623,1758,0,0
406,-734,0,0,0,0,0,0,0,0,0,-1,1630,1758,0,0
413,-734,0,0,0,0,0,0,0,0,0,-1,1637,1758,0,0
420,-734,0,0,0,0,0,0,0,0,0,-1,1644,1758,0,0
427,-734,0,0,0,0,0,0,0,0,0,-1,1651,1758,0,0
434,-734,0,0,0,0,0,0,0,0,0,-1,1658,1758,0,0
441,-734,0,0,0,0,0,0,0,0,0,-1,1665,1758,0,0
448,-734,0,0,0,0,0,0,0,0,0,-1,1672,1758,0,0
455,-734,0,0,0,0,0,0,0,0,0,-1,1679,1758,0,0
462,-734,0,0,0,0,0,0,0,0,0,-1,1686,1758,0,0
469,-734,0,0,0,0,0,0,0,0,0,-1,1693,1758,0,0
476,-734,0,0,0,0,0,0,0,0,0,-1,1700,1758,0,0
483,-734,0,0,0,0,0,0,0,0,0,-1,1707,1758,0,0
490,-734,0,0,0,0,0,0,0,0,0,-1,1714,1758,0,0
497,-734,0,0,0,0,0,0,0,0,0,-1,1721,1758,0,0
504,-734,0,0,0,0,0,0,0,0,0,-1,1728,1758,0,0
511,-734,0,0,0,0,0,0,0,0,0,-1,1735,1758,0,0
518,-734,0,0,0,0,0,0,0,0,0,-1,1742,1758,0,0
525,-734,0,0,0,0,0,0,0,0,0,-1,1749,1758,0,0
532,-734,0,0,0,0,0,0,0,0,0,-1,1756,1758,0,0
539,-734,0,0,0,0,0,0,0,0,0,-1,1763,1758,0,0
546,-734,0,0,0,0,0,0,0,0,0,-1,1770,1758,0,0
553,-734,0,0,0,0,0,0,0,0,0,-1,1777,1758,0,0
560,-734,0,0,0,0,0,0,0,0,0,-1,1784,1758,0,0
567,-734,0,0,0,0,0,0,0,0,0,-1,1791,1758,0,0
574,-734,0,0,0,0,0,0,0,0,0,-1,1798,1758,0,0
581,-734,0,0,0,0,0,0,0,0,0,-1,1805,1758,0,0
588,-734,0,0,0,0,0,0,0,0,0,-1,1812,1758,0,0
595,-734,0,0,0,0,0,0,0,0,0,-1,1819,1758,0,0
602,-734,0,0,0,0,0,0,0,0,0,-1,1826,1758,0,0
609,-734,0,0,0,0,0,0,0,0,0,-1,1833,1758,0,0
616,-734,0,0,0,0,0,0,0,0,0,-1,1840,1758,0,0
623,-734,0,0,0,0,0,0,0,0,0,-1,1847,1758,0,0
630,-734,0,0,0,0,0,0,0,0,0,-1,1854,1758,0,0
637,-734,0,0,0,0,0,0,0,0,0,-1,1861,1758,0,0
644,-734,0,0,0,0,0,0,0,0,0,-1,1868,1758,0,0
651,-734,0,0,0,0,0,0,0,0,0,-1,1875,1758,0,0
658,-734,0,0,0,0,0,0,0,0,0,-1,1882,1758,0,0
665,-734,0,0,0,0,0,0,0,0,0,-1,1889,1758,0,0
672,-734,0,0,0,0,0,0,0,0,0,-1,1896,1758,0,0
679,-734,0,0,0,0,0,0,0,0,0,-1,1903,1758,0,0
686,-734,0,0,0,0,0,0,0,0,0,-1,1910,1758,0,0
693,-734,0,0,0,0,0,0,0,0,0,-1,1917,1758,0,0
700,-734,0,0,0,0,0,0,0,0,0,-1,1924,1758,0,0
707,-734,0,0,0,0,0,0,0,0,0,-1,1931,1758,0,0
714,-734,0,0,0,0,0,0,0,0,0,-1,1938,1758,0,0
721,-734,0,0,0,0,0,0,0,0,0,-1,1945,1758,0,0
728,-734,0,0,0,0,0,0,0,0,0,-1,1952,1758,0,0
735,-734,0,0,0,0,0,0,0,0,0,-1,1959,1758,0,0
742,-734,0,0,0,0,0,0,0,0,0,-1,1966,1758,0,0
749,-734,0,0,0,0,0,0,0,0,0,-1,1973,1758,0,0
756,-734,0,0,0,0,0,0,0,0,0,-1,1980,1758,0,0
763,-734,0,0,0,0,0,0,0,0,0,-1,1987,1758,0,0
770,-734,0,0,0,0,0,0,0,0,0,-1,1994,1758,0,0
777,-734,0,0,0,0,0,0,0,0,0,-1,2001,1758,0,0
784,-734,0,0,0,0,0,0,0,0,0,-1,2008,1758,0,0
791,-734,0,0,0,0,0,0,0,0,0,-1,2015,1758,0,0
798,-734,0,0,0,0,0,0,0,0,0,-1,2022,1758,0,0
805,-734,0,0,0,0,0,0,0,0,0,-1,2029,1758,0,0
812,-734,0,0,0,0,0,0,0,0,0,-1,2036,1758,0,0
-700,-741,0,0,0,0,0,0,0,0,0,-1,524,1765,0,0
-693,-741,0,0,0,0,0,0,0,0,0,-1,531,1765,0,0
-686,-741,0,0,0,0,0,0,0,0,0,-1,538,1765,0,0
-679,-741,0,0,0,0,0,0,0,0,0,-1,545,1765,0,0
-672,-741,0,0,0,0,0,0,0,0,0,-1,552,1765,0,0
-665,-741,0,0,0,0,0,0,0,0,0,-1,559,1765,0,0
-658,-741,0,0,0,0,0,0,0,0,0,-1,566,1765,0,0
-651,-741,0,0,0,0,0,0,0,0,0,-1,573,1765,0,0
-644,-741,0,0,0,0,0,0,0,0,0,-1,580,1765,0,0
-637,-741,0,0,0,0,0,0,0,0,0,-1,587,1765,0,0
-630,-741,0,0,0,0,0,0,0,0,0,-1,594,1765,0,0
-623,-741,0,0,0,0,0,0,0,0,0,-1,601,1765,0,0
-616,-741,0,0,0,0,0,0,0,0,0,-1,608,1765,0,0
-609,-741,0,0,0,0,0,0,0,0,0,-1,615,1765,0,0
-602,-741,0,0,0,0,0,0,0,0,0,-1,622,1765,0,0
-595,-741,0,0,0,0,0,0,0,0,0,-1,629,1765,0,0
-588,-741,0,0,0,0,0,0,0,0,0,-1,636,1765,0,0
-581,-741,0,0,0,0,0,0,0,0,0,-1,643,1765,0,0
-574,-741,0,0,0,0,0,0,0,0,0,-1,650,1765,0,0
-567,-741,0,0,0,0,0,0,0,0,0,-1,657,1765,0,0
-560,-741,0,0,0,0,0,0,0,0,0,-1,664,1765,0,0
-553,-741,0,0,0,0,0,0,0,0,0,-1,671,1765,0,0
-546,-741,0,0,0,0,0,0,0,0,0,-1,678,1765,0,0
-539,-741,0,0,0,0,0,0,0,0,0,-1,685,1765,0,0
-532,-741,0,0,0,0,0,0,0,0,0,-1,692,1765,0,0
-525,-741,0,0,0,0,0,0,0,0,0,-1,699,1765,0,0
-518,-741,0,0,0,0,0,0,0,0,0,-1,706,1765,0,0
-511,-741,0,0,0,0,0,0,0,0,0,-1,713,1765,0,0
-504,-741,0,0,0,0,0,0,0,0,0,-1,720,1765,0,0
-497,-741,0,0,0,0,0,0,0,0,0,-1,727,1765,0,0
-490,-741,0,0,0,0,0,0,0,0,0,-1,734,1765,0,0
-483,-741,0,0,0,0,0,0,0,0,0,-1,741,1765,0,0
-476,-741,0,0,0,0,0,0,0,0,0,-1,748,1765,0,0
-469,-741,0,0,0,0,0,0,0,0,0,-1,755,1765,0,0
-462,-741,0,0,0,0,0,0,0,0,0,-1,762,1765,0,0
-455,-741,0,0,0,0,0,0,0,0,0,-1,769,1765,0,0
-448,-741,0,0,0,0,0,0,0,0,0,-1,776,1765,0,0
-441,-741,0,0,0,0,0,0,0,0,0,-1,783,1765,0,0
-434,-741,0,0,0,0,0,0,0,0,0,-1,790,1765,0,0
-427,-741,0,0,0,0,0,0,0,0,0,-1,797,1765,0,0
-420,-741,0,0,0,0,0,0,0,0,0,-1,804,1765,0,0
-413,-741,0,0,0,0,0,0,0,0,0,-1,811,1765,0,0
-406,-741,0,0,0,0,0,0,0,0,0,-1,818,1765,0,0
-399,-741,0,0,0,0,0,0,0,0,0,-1,825,1765,0,0
-392,-741,0,0,0,0,0,0,0,0,0,-1,832,1765,0,0
-385,-741,0,0,0,0,0,0,0,0,0,-1,839,1765,0,0
-378,-741,0,0,0,0,0,0,0,0,0,-1,846,1765,0,0
-371,-741,0,0,0,0,0,0,0,0,0,-1,853,1765,0,0
-364,-741,0,0,0,0,0,0,0,0,0,-1,860,1765,0,0
-357,-741,0,0,0,0,0,0,0,0,0,-1,867,1765,0,0
-350,-741,0,0,0,0,0,0,0,0,0,-1,874,1765,0,0
-343,-741,0,0,0,0,0,0,0,0,0,-1,881,1765,0,0
-336,-741,0,0,0,0,0,0,0,0,0,-1,888,1765,0,0
-329,-741,0,0,0,0,0,0,0,0,0,-1,895,1765,0,0
-322,-741,0,0,0,0,0,0,0,0,0,-1,902,1765,0,0
-315,-741,0,0,0,0,0,0,0,0,0,-1,909,1765,0,0
-308,-741,0,0,0,0,0,0,0,0,0,-1,916,1765,0,0
-301,-741,0,0,0,0,0,0,0,0,0,-1,923,1765,0,0
-294,-741,0,0,0,0,0,0,0,0,0,-1,930,1765,0,0
-287,-741,0,0,0,0,0,0,0,0,0,-1,937,1765,0,0
-280,-741,0,0,0,0,0,0,0,0,0,-1,944,1765,0,0
-273,-741,0,0,0,0,0,0,0,0,0,-1,951,1765,0,0
-266,-741,0,0,0,0,0,0,0,0,0,-1,958,1765,0,0
-259,-741,0,0,0,0,0,0,0,0,0,-1,965,1765,0,0
-252,-741,0,0,0,0,0,0,0,0,0,-1,972,1765,0,0
-245,-741,0,0,0,0,0,0,0,0,0,-1,979,1765,0,0
-238,-741,4.71777,14.9655,0,0,0,0,0,0,0,-1,986,1765,4.71776,-14.9654
-231,-741,6.49927,15.5663,0,0,0,0,0,0,0,-1,993,1765,6.49927,-15.5663
-224,-741,6.26501,16.5385,0,0,0,0,0,0,0,-1,1000,1765,6.26501,-16.5384
-217,-741,4.33527,34.0656,0,0,0,0,0,0,0,-1,1007,1765,4.33525,-34.0655
-210,-741,4.74048,34.3195,0,0,0,0,0,0,0,-1,1014,1765,4.7405,-34.3194
-203,-741,4.63757,33.5281,0,0,0,0,0,0,0,-1,1021,1765,4.63754,-33.5281
-196,-741,5.0509,34.1676,0,0,0,0,0,0,0,-1,1028,1765,5.05086,-34.1676
-189,-741,7.14319,22.3441,0,0,0,0,0,0,0,-1,1035,1765,7.1432,-22.3441
-182,-741,7.4458,23.6536,0,0,0,0,0,0,0,-1,1042,1765,7.44582,-23.6536
-175,-741,7.26477,24.616,0,0,0,0,0,0,0,-1,1049,1765,7.26471,-24.616
-168,-741,5.4801,16.3933,0,0,0,0,0,0,0,-1,1056,1765,5.4801,-16.3933
-161,-741,3.73047,14.4974,0,0,0,0,0,0,0,-1,1063,1765,3.73043,-14.4974
-154,-741,2.46143,9.75415,0,0,0,0,0,0,0,-1,1070,1765,2.46145,-9.75416
-147,-741,8.53247,32.455,0,0,0,0,0,0,0,-1,1077,1765,8.53249,-32.4549
-140,-741,8.56543,32.2886,0,0,0,0,0,0,0,-1,1084,1765,8.56541,-32.2886
-133,-741,8.13525,32.6749,0,0,0,0,0,0,0,-1,1091,1765,8.13522,-32.6749
-126,-741,7.90796,32.7439,0,0,0,0,0,0,0,-1,1098,1765,7.90796,-32.7439
-119,-741,8.05371,32.9685,0,0,0,0,0,0,0,-1,1105,1765,8.05366,-32.9685
-112,-741,8.07727,33.1283,0,0,0,0,0,0,0,-1,1112,1765,8.07733,-33.1283
-105,-741,8.00171,33.3092,0,0,0,0,0,0,0,-1,1119,1765,8.00173,-33.3092
-98,-741,8.02271,33.4126,0,0,0,0,0,0,0,-1,1126,1765,8.02266,-33.4126
-91,-741,7.91895,33.4514,0,0,0,0,0,0,0,-1,1133,1765,7.9189,-33.4514
-84,-741,7.68115,33.3341,0,0,0,0,0,0,0,-1,1140,1765,7.68114,-33.3341
-77,-741,7.66589,31.6727,0,0,0,0,0,0,0,-1,1147,1765,7.66584,-31.6727
-70,-741,7.5437,32.0275,0,0,0,0,0,0,0,-1,1154,1765,7.5437,-32.0275
-63,-741,7.61169,34.1569,0,0,0,0,0,0,0,-1,1161,1765,7.61168,-34.1569
-56,-741,7.73132,34.4951,0,0,0,0,0,0,0,-1,1168,1765,7.73133,-34.4951
-49,-741,7.72314,34.8599,0,0,0,0,0,0,0,-1,1175,1765,7.72311,-34.8599
-42,-741,7.65149,34.981,0,0,0,0,0,0,0,-1,1182,1765,7.65155,-34.981
-35,-741,7.67517,35.0714,-0.000792943,0.00225986,0.000358445,0.00230138,-0.000834465,1.45547,0.00187535,0.0241903,1189,1765,7.67513,-35.0714
-28,-741,7.68689,35.2003,-1.64595e-05,0.00406817,-9.03647e-05,0.00407016,-1.84579e-05,-1.54869,0.00271962,0.0143899,1196,1765,7.68694,-35.2003
-21,-741,7.71838,35.3048,0.00067568,0.00352107,-7.40785e-05,0.003523,0.000673753,-1.54479,0.00215941,0.0183512,1203,1765,7.71839,-35.3048
-14,-741,7.65247,35.4379,0.00112971,0.00337405,-7.17721e-05,0.00337634,0.00112742,-1.53886,0.00198485,0.0182196,1210,1765,7.65249,-35.4379
-7,-741,7.61389,35.5123,0.00178073,0.00294573,-8.83797e-05,0.0029524,0.00177406,-1.49551,0.0017161,0.0157554,1217,1765,7.6139,-35.5123
0,-741,7.57092,35.6016,0.00236761,0.00233624,-0.000122206,0.00247513,0.00222872,-0.721573,0.00157439,0.0154367,1224,1765,7.57095,-35.6016
7,-741,7.53088,35.6782,0.00288586,0.00168813,-0.000263942,0.00294144,0.00163255,-0.207563,0.00170167,0.0169985,1231,1765,7.53094,-35.6782
14,-741,7.53613,35.7565,0.0034034,0.00093111,-0.000393082,0.00346439,0.000870116,-0.15394,0.0020811,0.0163015,1238,1765,7.53619,-35.7565
21,-741,7.52551,35.8083,0.00383582,0.00014968,-0.000649028,0.00394676,3.87426e-05,-0.169292,0.00261835,0.0134058,1245,1765,7.5255,-35.8083
28,-741,7.49524,35.8777,0.00417409,-0.00054521,-0.000980104,0.00436954,-0.000740663,-0.196839,0.00318872,0.0136975,1252,1765,7.49524,-35.8777
35,-741,7.50513,35.9139,0.00439773,-0.00115945,-0.00133616,0.0047023,-0.00146402,-0.224116,0.00372017,0.0146053,1259,1765,7.50514,-35.9139
42,-741,7.49866,35.9404,0.004371,-0.0014685,-0.00145238,0.00471229,-0.00180978,-0.230796,0.00388783,0.0150979,1266,1765,7.49865,-35.9404
49,-741,7.46814,35.9673,0.004084,-0.00146382,-0.00153999,0.00448281,-0.00186263,-0.253403,0.00376621,0.00999953,1273,1765,7.46809,-35.9673
56,-741,7.44543,35.9921,0.00373859,-0.00129854,-0.00163199,0.00422112,-0.00178107,-0.287479,0.00355954,0.0097862,1280,1765,7.44547,-35.9921
63,-741,7.4082,36.0157,0.00301095,-0.00133981,-0.00175655,0.0036316,-0.00196045,-0.33964,0.00327627,0.0142762,1287,1765,7.40815,-36.0157
70,-741,7.39246,36.0402,0.00202495,-0.000944364,-0.00160227,0.00272466,-0.00164408,-0.41174,0.00254788,0.0168545,1294,1765,7.39241,-36.0401
77,-741,7.38354,36.052,0.000740709,-0.000975207,-0.00133663,0.00147104,-0.00170554,-0.500075,0.00183567,0.0142974,1301,1765,7.38358,-36.052
84,-741,7.36755,36.026,-0.000576961,-9.3684e-05,-0.00111834,0.000808826,-0.00147947,-0.891797,0.00133993,0.0157358,1308,1765,7.36754,-36.026
91,-741,7.35425,35.9949,-0.0017287,0.000317653,-0.000793519,0.000589298,-0.00200035,-1.24097,0.00156737,0.0124943,1315,1765,7.35427,-35.9949
98,-741,7.35242,35.9398,-0.00294073,0.000502652,-0.000408463,0.000550442,-0.00298852,-1.45433,0.00219892,0.00986146,1322,1765,7.35236,-35.9398
105,-741,7.35461,35.88,-0.00395277,0.000464394,3.09929e-06,0.000464396,-0.00395277,1.57009,0.00280284,0.0100399,1329,1765,7.35456,-35.88
112,-741,7.37634,35.8116,-0.00475336,7.57436e-05,0.000398358,0.000108384,-0.004786,1.48904,0.0032274,0.0102935,1336,1765,7.37637,-35.8117
119,-741,7.35254,35.7349,-0.00541779,-0.000495782,0.000593378,-0.000425257,-0.00548831,1.4525,0.00352568,0.0129565,1343,1765,7.35257,-35.7349
126,-741,7.32861,35.6567,-0.00592566,-0.00101181,0.000783067,-0.000890036,-0.00604744,1.41653,0.00377013,0.0181413,1350,1765,7.32856,-35.6568
133,-741,7.3009,35.6012,-0.00630807,-0.00137172,0.000879302,-0.00121977,-0.00646002,1.39968,0.00396316,0.0153451,1357,1765,7.30085,-35.6012
140,-741,7.255,35.516,-0.00640954,-0.00151422,0.000822593,-0.00137969,-0.00654407,1.40869,0.00398327,0.0121411,1364,1765,7.25502,-35.516
147,-741,7.25378,35.4387,-0.00632078,-0.00164585,0.000428769,-0.00160685,-0.00635978,1.48009,0.00381864,0.0106232,1371,1765,7.25375,-35.4387
154,-741,7.2406,35.3757,-0.00615603,-0.00168421,4.02897e-05,-0.00168385,-0.0061564,1.56179,0.00367394,0.00866671,1378,1765,7.24061,-35.3758
161,-741,7.21948,35.2762,-0.00604844,-0.00145999,-0.000114005,-0.00145716,-0.00605127,-1.54597,0.00364683,0.0104255,1385,1765,7.21946,-35.2763
168,-741,7.20764,35.1648,-0.00553678,-0.000523311,-0.000126855,-0.000520104,-0.00553999,-1.54551,0.00353274,0.0250484,1392,1765,7.20768,-35.1648
175,-741,7.19043,35.0778,0,0,0,0,0,0,0,-1,1399,1765,7.19048,-35.0777
182,-741,7.17773,34.9023,0,0,0,0,0,0,0,-1,1406,1765,7.17774,-34.9023
189,-741,7.10754,34.7788,0,0,0,0,0,0,0,-1,1413,1765,7.1075,-34.7788
196,-741,7.07166,34.6248,0,0,0,0,0,0,0,-1,1420,1765,7.07168,-34.6247
203,-741,7.09912,34.3726,0,0,0,0,0,0,0,-1,1427,1765,7.09908,-34.3726
210,-741,7.073,34.046,0,0,0,0,0,0,0,-1,1434,1765,7.07298,-34.046
217,-741,7.24805,33.8323,0,0,0,0,0,0,0,-1,1441,1765,7.24802,-33.8323
224,-741,7.38501,33.4303,0,0,0,0,0,0,0,-1,1448,1765,7.38506,-33.4303
231,-741,7.06189,33.637,0,0,0,0,0,0,0,-1,1455,1765,7.06187,-33.637
238,-741,6.90308,33.5804,0,0,0,0,0,0,0,-1,1462,1765,6.90303,-33.5804
245,-741,6.96191,33.1598,0,0,0,0,0,0,0,-1,1469,1765,6.96186,-33.1598
252,-741,7.0708,32.443,0,0,0,0,0,0,0,-1,1476,1765,7.07085,-32.4429
259,-741,7.11609,33.0925,0,0,0,0,0,0,0,-1,1483,1765,7.11614,-33.0926
266,-741,6.86035,32.9791,0,0,0,0,0,0,0,-1,1490,1765,6.86034,-32.9791
273,-741,17.0328,7.54468,0,0,0,0,0,0,0,-1,1497,1765,17.0328,-7.54474
280,-741,16.2363,9.84546,0,0,0,0,0,0,0,-1,1504,1765,16.2363,-9.84547
287,-741,5.02234,30.7096,0,0,0,0,0,0,0,-1,1511,1765,5.02235,-30.7096
294,-741,6.61523,31.2589,0,0,0,0,0,0,0,-1,1518,1765,6.61522,-31.2589
301,-741,11.036,7.02612,0,0,0,0,0,0,0,-1,1525,1765,11.036,-7.02617
308,-741,10.4718,6.09814,0,0,0,0,0,0,0,-1,1532,1765,10.4718,-6.0981
315,-741,9.70715,6.86963,0,0,0,0,0,0,0,-1,1539,1765,9.70712,-6.86963
322,-741,9.21252,8.54858,0,0,0,0,0,0,0,-1,1546,1765,9.21251,-8.54858
329,-741,8.5603,10.1146,0,0,0,0,0,0,0,-1,1553,1765,8.56033,-10.1146
336,-741,4.74475,14.6453,0,0,0,0,0,0,0,-1,1560,1765,4.7447,-14.6452
343,-741,5.42297,5.93701,0,0,0,0,0,0,0,-1,1567,1765,5.42296,-5.937
350,-741,4.90369,5.44666,0,0,0,0,0,0,0,-1,1574,1765,4.90368,-5.44664
357,-741,4.02063,5.16626,0,0,0,0,0,0,0,-1,1581,1765,4.02058,-5.1662
364,-741,0,0,0,0,0,0,0,0,0,-1,1588,1765,0,0
371,-741,0,0,0,0,0,0,0,0,0,-1,1595,1765,0,0
378,-741,0,0,0,0,0,0,0,0,0,-1,1602,1765,0,0
385,-741,0,0,0,0,0,0,0,0,0,-1,1609,1765,0,0
392,-741,0,0,0,0,0,0,0,0,0,-1,1616,1765,0,0
399,-741,0,0,0,0,0,0,0,0,0,-1,1623,1765,0,0
406,-741,0,0,0,0,0,0,0,0,0,-1,1630,1765,0,0
413,-741,0,0,0,0,0,0,0,0,0,-1,1637,1765,0,0
420,-741,0,0,0,0,0,0,0,0,0,-1,1644,1765,0,0
427,-741,0,0,0,0,0,0,0,0,0,-1,1651,1765,0,0
434,-741,0,0,0,0,0,0,0,0,0,-1,1658,1765,0,0
441,-741,0,0,0,0,0,0,0,0,0,-1,1665,1765,0,0
448,-741,0,0,0,0,0,0,0,0,0,-1,1672,1765,0,0
455,-741,0,0,0,0,0,0,0,0,0,-1,1679,1765,0,0
462,-741,0,0,0,0,0,0,0,0,0,-1,1686,1765,0,0
469,-741,0,0,0,0,0,0,0,0,0,-1,1693,1765,0,0
476,-741,0,0,0,0,0,0,0,0,0,-1,1700,1765,0,0
483,-741,0,0,0,0,0,0,0,0,0,-1,1707,1765,0,0
490,-741,0,0,0,0,0,0,0,0,0,-1,1714,1765,0,0
497,-741,0,0,0,0,0,0,0,0,0,-1,1721,1765,0,0
504,-741,0,0,0,0,0,0,0,0,0,-1,1728,1765,0,0
511,-741,0,0,0,0,0,0,0,0,0,-1,1735,1765,0,0
518,-741,0,0,0,0,0,0,0,0,0,-1,1742,1765,0,0
525,-741,0,0,0,0,0,0,0,0,0,-1,1749,1765,0,0
532,-741,0,0,0,0,0,0,0,0,0,-1,1756,1765,0,0
539,-741,0,0,0,0,0,0,0,0,0,-1,1763,1765,0,0
546,-741,0,0,0,0,0,0,0,0,0,-1,1770,1765,0,0
553,-741,0,0,0,0,0,0,0,0,0,-1,1777,1765,0,0
560,-741,0,0,0,0,0,0,0,0,0,-1,1784,1765,0,0
567,-741,0,0,0,0,0,0,0,0,0,-1,1791,1765,0,0
574,-741,0,0,0,0,0,0,0,0,0,-1,1798,1765,0,0
581,-741,0,0,0,0,0,0,0,0,0,-1,1805,1765,0,0
588,-741,0,0,0,0,0,0,0,0,0,-1,1812,1765,0,0
595,-741,0,0,0,0,0,0,0,0,0,-1,1819,1765,0,0
602,-741,0,0,0,0,0,0,0,0,0,-1,1826,1765,0,0
609,-741,0,0,0,0,0,0,0,0,0,-1,1833,1765,0,0
616,-741,0,0,0,0,0,0,0,0,0,-1,1840,1765,0,0
623,-741,0,0,0,0,0,0,0,0,0,-1,1847,1765,0,0
630,-741,0,0,0,0,0,0,0,0,0,-1,1854,1765,0,0
637,-741,0,0,0,0,0,0,0,0,0,-1,1861,1765,0,0
644,-741,0,0,0,0,0,0,0,0,0,-1,1868,1765,0,0
651,-741,0,0,0,0,0,0,0,0,0,-1,1875,1765,0,0
658,-741,0,0,0,0,0,0,0,0,0,-1,1882,1765,0,0
665,-741,0,0,0,0,0,0,0,0,0,-1,1889,1765,0,0
672,-741,0,0,0,0,0,0,0,0,0,-1,1896,1765,0,0
679,-741,0,0,0,0,0,0,0,0,0,-1,1903,1765,0,0
686,-741,0,0,0,0,0,0,0,0,0,-1,1910,1765,0,0
693,-741,0,0,0,0,0,0,0,0,0,-1,1917,1765,0,0
700,-741,0,0,0,0,0,0,0,0,0,-1,1924,1765,0,0
707,-741,0,0,0,0,0,0,0,0,0,-1,1931,1765,0,0
714,-741,0,0,0,0,0,0,0,0,0,-1,1938,1765,0,0
721,-741,0,0,0,0,0,0,0,0,0,-1,1945,1765,0,0
728,-741,0,0,0,0,0,0,0,0,0,-1,1952,1765,0,0
735,-741,0,0,0,0,0,0,0,0,0,-1,1959,1765,0,0
742,-741,0,0,0,0,0,0,0,0,0,-1,1966,1765,0,0
749,-741,0,0,0,0,0,0,0,0,0,-1,1973,1765,0,0
756,-741,0,0,0,0,0,0,0,0,0,-1,1980,1765,0,0
763,-741,0,0,0,0,0,0,0,0,0,-1,1987,1765,0,0
770,-741,0,0,0,0,0,0,0,0,0,-1,1994,1765,0,0
777,-741,0,0,0,0,0,0,0,0,0,-1,2001,1765,0,0
784,-741,0,0,0,0,0,0,0,0,0,-1,2008,1765,0,0
791,-741,0,0,0,0,0,0,0,0,0,-1,2015,1765,0,0
798,-741,0,0,0,0,0,0,0,0,0,-1,2022,1765,0,0
805,-741,0,0,0,0,0,0,0,0,0,-1,2029,1765,0,0
812,-741,0,0,0,0,0,0,0,0,0,-1,2036,1765,0,0
-700,-748,0,0,0,0,0,0,0,0,0,-1,524,1772,0,0
-693,-748,0,0,0,0,0,0,0,0,0,-1,531,1772,0,0
-686,-748,0,0,0,0,0,0,0,0,0,-1,538,1772,0,0
-679,-748,0,0,0,0,0,0,0,0,0,-1,545,1772,0,0
-672,-748,0,0,0,0,0,0,0,0,0,-1,552,1772,0,0
-665,-748,0,0,0,0,0,0,0,0,0,-1,559,1772,0,0
-658,-748,0,0,0,0,0,0,0,0,0,-1,566,1772,0,0
-651,-748,0,0,0,0,0,0,0,0,0,-1,573,1772,0,0
-644,-748,0,0,0,0,0,0,0,0,0,-1,580,1772,0,0
-637,-748,0,0,0,0,0,0,0,0,0,-1,587,1772,0,0
-630,-748,0,0,0,0,0,0,0,0,0,-1,594,1772,0,0
-623,-748,0,0,0,0,0,0,0,0,0,-1,601,1772,0,0
-616,-748,0,0,0,0,0,0,0,0,0,-1,608,1772,0,0
-609,-748,0,0,0,0,0,0,0,0,0,-1,615,1772,0,0
-602,-748,0,0,0,0,0,0,0,0,0,-1,622,1772,0,0
-595,-748,0,0,0,0,0,0,0,0,0,-1,629,1772,0,0
-588,-748,0,0,0,0,0,0,0,0,0,-1,636,1772,0,0
-581,-748,0,0,0,0,0,0,0,0,0,-1,643,1772,0,0
-574,-748,0,0,0,0,0,0,0,0,0,-1,650,1772,0,0
-567,-748,0,0,0,0,0,0,0,0,0,-1,657,1772,0,0
-560,-748,0,0,0,0,0,0,0,0,0,-1,664,1772,0,0
-553,-748,0,0,0,0,0,0,0,0,0,-1,671,1772,0,0
-546,-748,0,0,0,0,0,0,0,0,0,-1,678,1772,0,0
-539,-748,0,0,0,0,0,0,0,0,0,-1,685,1772,0,0
-532,-748,0,0,0,0,0,0,0,0,0,-1,692,1772,0,0
-525,-748,0,0,0,0,0,0,0,0,0,-1,699,1772,0,0
-518,-748,0,0,0,0,0,0,0,0,0,-1,706,1772,0,0
-511,-748,0,0,0,0,0,0,0,0,0,-1,713,1772,0,0
-504,-748,0,0,0,0,0,0,0,0,0,-1,720,1772,0,0
-497,-748,0,0,0,0,0,0,0,0,0,-1,727,1772,0,0
-490,-748,0,0,0,0,0,0,0,0,0,-1,734,1772,0,0
-483,-748,0,0,0,0,0,0,0,0,0,-1,741,1772,0,0
-476,-748,0,0,0,0,0,0,0,0,0,-1,748,1772,0,0
-469,-748,0,0,0,0,0,0,0,0,0,-1,755,1772,0,0
-462,-748,0,0,0,0,0,0,0,0,0,-1,762,1772,0,0
-455,-748,0,0,0,0,0,0,0,0,0,-1,769,1772,0,0
-448,-748,0,0,0,0,0,0,0,0,0,-1,776,1772,0,0
-441,-748,0,0,0,0,0,0,0,0,0,-1,783,1772,0,0
-434,-748,0,0,0,0,0,0,0,0,0,-1,790,1772,0,0
-427,-748,0,0,0,0,0,0,0,0,0,-1,797,1772,0,0
-420,-748,0,0,0,0,0,0,0,0,0,-1,804,1772,0,0
-413,-748,0,0,0,0,0,0,0,0,0,-1,811,1772,0,0
-406,-748,0,0,0,0,0,0,0,0,0,-1,818,1772,0,0
-399,-748,0,0,0,0,0,0,0,0,0,-1,825,1772,0,0
-392,-748,0,0,0,0,0,0,0,0,0,-1,832,1772,0,0
-385,-748,0,0,0,0,0,0,0,0,0,-1,839,1772,0,0
-378,-748,0,0,0,0,0,0,0,0,0,-1,846,1772,0,0
-371,-748,0,0,0,0,0,0,0,0,0,-1,853,1772,0,0
-364,-748,0,0,0,0,0,0,0,0,0,-1,860,1772,0,0
-357,-748,0,0,0,0,0,0,0,0,0,-1,867,1772,0,0
-350,-748,0,0,0,0,0,0,0,0,0,-1,874,1772,0,0
-343,-748,0,0,0,0,0,0,0,0,0,-1,881,1772,0,0
-336,-748,0,0,0,0,0,0,0,0,0,-1,888,1772,0,0
-329,-748,0,0,0,0,0,0,0,0,0,-1,895,1772,0,0
-322,-748,0,0,0,0,0,0,0,0,0,-1,902,1772,0,0
-315,-748,0,0,0,0,0,0,0,0,0,-1,909,1772,0,0
-308,-748,0,0,0,0,0,0,0,0,0,-1,916,1772,0,0
-301,-748,0,0,0,0,0,0,0,0,0,-1,923,1772,0,0
-294,-748,0,0,0,0,0,0,0,0,0,-1,930,1772,0,0
-287,-748,0,0,0,0,0,0,0,0,0,-1,937,1772,0,0
-280,-748,0,0,0,0,0,0,0,0,0,-1,944,1772,0,0
-273,-748,0,0,0,0,0,0,0,0,0,-1,951,1772,0,0
-266,-748,0,0,0,0,0,0,0,0,0,-1,958,1772,0,0
-259,-748,0,0,0,0,0,0,0,0,0,-1,965,1772,0,0
-252,-748,0,0,0,0,0,0,0,0,0,-1,972,1772,0,0
-245,-748,0,0,0,0,0,0,0,0,0,-1,979,1772,0,0
-238,-748,0,0,0,0,0,0,0,0,0,-1,986,1772,0,0
-231,-748,0,0,0,0,0,0,0,0,0,-1,993,1772,0,0
-224,-748,0,0,0,0,0,0,0,0,0,-1,1000,1772,0,0
-217,-748,6.45807,16.5496,0,0,0,0,0,0,0,-1,1007,1772,6.45805,-16.5495
-210,-748,8.08215,31.9536,0,0,0,0,0,0,0,-1,1014,1772,8.08215,-31.9537
-203,-748,4.06995,33.8441,0,0,0,0,0,0,0,-1,1021,1772,4.0699,-33.8441
-196,-748,5.15344,22.8755,0,0,0,0,0,0,0,-1,1028,1772,5.15342,-22.8754
-189,-748,7.13208,21.4095,0,0,0,0,0,0,0,-1,1035,1772,7.13211,-21.4095
-182,-748,3.94958,20.8662,0,0,0,0,0,0,0,-1,1042,1772,3.94959,-20.8662
-175,-748,3.56726,19.4518,0,0,0,0,0,0,0,-1,1049,1772,3.5673,-19.4518
-168,-748,3.04858,18.0109,0,0,0,0,0,0,0,-1,1056,1772,3.04853,-18.0108
-161,-748,3.50562,13.2729,0,0,0,0,0,0,0,-1,1063,1772,3.5056,-13.2729
-154,-748,-3.38562,10.6989,0,0,0,0,0,0,0,-1,1070,1772,-3.38564,-10.6989
-147,-748,-6.38733,11.0702,0,0,0,0,0,0,0,-1,1077,1772,-6.38731,-11.0702
-140,-748,7.42126,23.8113,0,0,0,0,0,0,0,-1,1084,1772,7.42133,-23.8113
-133,-748,7.44727,22.0308,0,0,0,0,0,0,0,-1,1091,1772,7.44728,-22.0308
-126,-748,5.98035,22.6067,0,0,0,0,0,0,0,-1,1098,1772,5.9803,-22.6067
-119,-748,6.63342,26.309,0,0,0,0,0,0,0,-1,1105,1772,6.6334,-26.3089
-112,-748,6.91333,24.923,0,0,0,0,0,0,0,-1,1112,1772,6.91339,-24.923
-105,-748,6.83313,25.0537,0,0,0,0,0,0,0,-1,1119,1772,6.83311,-25.0537
-98,-748,8.13623,30.8743,0,0,0,0,0,0,0,-1,1126,1772,8.13628,-30.8742
-91,-748,4.85352,15.3033,0,0,0,0,0,0,0,-1,1133,1772,4.85351,-15.3033
-84,-748,-0.192017,7.26196,0,0,0,0,0,0,0,-1,1140,1772,-0.192047,-7.26201
-77,-748,4.42615,13.5537,0,0,0,0,0,0,0,-1,1147,1772,4.4261,-13.5538
-70,-748,4.46191,13.7446,0,0,0,0,0,0,0,-1,1154,1772,4.4619,-13.7446
-63,-748,4.49768,13.9355,0,0,0,0,0,0,0,-1,1161,1772,4.49769,-13.9355
-56,-748,3.05762,7.87817,0,0,0,0,0,0,0,-1,1168,1772,3.05768,-7.87822
-49,-748,3.04102,7.82471,0,0,0,0,0,0,0,-1,1175,1772,3.04096,-7.82468
-42,-748,0.793457,14.9474,0,0,0,0,0,0,0,-1,1182,1772,0.793413,-14.9474
-35,-748,7.82739,35.0261,0,0,0,0,0,0,0,-1,1189,1772,7.82736,-35.0261
-28,-748,7.80383,35.2416,0.00108224,0.00761691,-0.000202797,0.00762319,0.00107595,-1.5398,0.00476415,0.0493985,1196,1772,7.80378,-35.2415
-21,-748,7.79688,35.3677,0.00199839,0.00671951,-2.88331e-05,0.00671969,0.00199821,-1.56469,0.0039844,0.0234999,1203,1772,7.79684,-35.3677
-14,-748,7.71045,35.4142,0.00249914,0.00651998,-5.9191e-06,0.00651999,0.00249913,-1.56932,0.00379834,0.0162301,1210,1772,7.7104,-35.4142
-7,-748,7.6864,35.4958,0.00325469,0.00582408,-1.64711e-05,0.00582418,0.00325459,-1.56439,0.00337034,0.0152661,1217,1772,7.68637,-35.4958
0,-748,7.65698,35.5676,0.00409862,0.00480865,-0.000149751,0.00483894,0.00406833,-1.37121,0.00300224,0.0155791,1224,1772,7.65693,-35.5676
7,-748,7.63257,35.6531,0.00492706,0.00372693,-0.000496688,0.00510595,0.00354804,-0.34571,0.00302164,0.0145603,1231,1772,7.6326,-35.6531
14,-748,7.59351,35.7393,0.00584697,0.00249908,-0.000873598,0.00606122,0.00228484,-0.240499,0.00353459,0.0160731,1238,1772,7.59345,-35.7393
21,-748,7.58496,35.7994,0.00674307,0.00125493,-0.00150245,0.00712746,0.000870541,-0.250471,0.00448968,0.0122322,1245,1772,7.58501,-35.7994
28,-748,7.55579,35.8539,0.00762009,0.000173266,-0.00231593,0.00828158,-0.000488219,-0.278216,0.00569078,0.0125346,1252,1772,7.5558,-35.8539
35,-748,7.53772,35.8892,0.00843518,-0.000727126,-0.00322042,0.00945386,-0.0017458,-0.306359,0.0069579,0.0127867,1259,1772,7.53772,-35.8892
42,-748,7.53088,35.9327,0.00876029,-0.00105796,-0.00343311,0.00984164,-0.00213931,-0.305139,0.00737831,0.0127797,1266,1772,7.53089,-35.9328
49,-748,7.50293,35.942,0.00856965,-0.00105917,-0.00343326,0.00966842,-0.00215795,-0.309739,0.00727245,0.0101731,1273,1772,7.50294,-35.942
56,-748,7.46326,35.9878,0.00843603,-0.000764097,-0.00356221,0.00965403,-0.0019821,-0.329462,0.0071884,0.0104365,1280,1772,7.46327,-35.9878
63,-748,7.42371,35.9939,0.0075367,-0.000807528,-0.00359508,0.00887196,-0.00214279,-0.355622,0.00674335,0.0120898,1287,1772,7.42371,-35.9939
70,-748,7.40479,36.0072,0.00608568,-0.00035166,-0.00316491,0.00738105,-0.00164702,-0.388488,0.00555175,0.0137052,1294,1772,7.40484,-36.0072
77,-748,7.39343,36.0129,0.0040992,-0.000542783,-0.00255143,0.00522739,-0.00167097,-0.416329,0.00415545,0.0125418,1301,1772,7.39346,-36.013
84,-748,7.34375,36.0261,0.00199995,0.00060724,-0.00194097,0.0033657,-0.000758515,-0.613167,0.00253476,0.0134523,1308,1772,7.34369,-36.0261
91,-748,7.32227,35.9916,-8.76003e-05,0.0010678,-0.00111663,0.00174731,-0.000767119,-1.02412,0.00148802,0.0111699,1315,1772,7.32233,-35.9916
98,-748,7.30725,35.9318,-0.00230462,0.00123157,-0.000278709,0.00125341,-0.00232646,-1.49262,0.00209756,0.0105189,1322,1772,7.30722,-35.9318
105,-748,7.30518,35.8684,-0.00439993,0.0010518,0.000543038,0.00110537,-0.00445349,1.47248,0.00339792,0.0114267,1329,1772,7.30516,-35.8685
112,-748,7.32214,35.8026,-0.0062091,0.0003919,0.00125946,0.000624039,-0.00644124,1.38853,0.00451656,0.0144545,1336,1772,7.32211,-35.8026
119,-748,7.30322,35.7477,-0.00776664,-0.000469809,0.00160264,-0.000133329,-0.00810312,1.36385,0.00535819,0.0125989,1343,1772,7.30325,-35.7477
126,-748,7.27271,35.705,-0.00903135,-0.00124616,0.00187186,-0.000819483,-0.00945803,1.34668,0.00605072,0.0138889,1350,1772,7.27267,-35.705
133,-748,7.19983,35.6279,-0.0100132,-0.0018496,0.00197254,-0.00139797,-0.0104648,1.34572,0.0065604,0.00912404,1357,1772,7.19977,-35.628
140,-748,7.16467,35.5526,-0.010454,-0.00222042,0.00181125,-0.00183959,-0.0108349,1.36356,0.00669483,0.0125312,1364,1772,7.16464,-35.5526
147,-748,7.16296,35.4594,-0.0103508,-0.00275698,0.000715188,-0.00269021,-0.0104176,1.47771,0.00624457,0.0139585,1371,1772,7.16293,-35.4593
154,-748,7.14282,35.371,-0.00980631,-0.00280851,-0.000422112,-0.00278314,-0.00983168,-1.51077,0.00585168,0.0121584,1378,1772,7.14278,-35.3709
161,-748,7.12231,35.2914,-0.00945133,-0.00256315,-0.00051449,-0.00252493,-0.00948955,-1.49665,0.00567514,0.0184917,1385,1772,7.12237,-35.2914
168,-748,7.11047,35.2173,0,0,0,0,0,0,0,-1,1392,1772,7.11047,-35.2173
175,-748,11.6235,16.8242,0,0,0,0,0,0,0,-1,1399,1772,11.6236,-16.8242
182,-748,7.62476,10.3058,0,0,0,0,0,0,0,-1,1406,1772,7.62476,-10.3058
189,-748,6.15857,6.95898,0,0,0,0,0,0,0,-1,1413,1772,6.15862,-6.95896
196,-748,3.9425,8.46021,0,0,0,0,0,0,0,-1,1420,1772,3.9425,-8.46026
203,-748,3.9668,12.9835,0,0,0,0,0,0,0,-1,1427,1772,3.96678,-12.9836
210,-748,4.71472,16.8318,0,0,0,0,0,0,0,-1,1434,1772,4.71471,-16.8317
217,-748,5.38452,21.5551,0,0,0,0,0,0,0,-1,1441,1772,5.38455,-21.555
224,-748,6.14258,25.2345,0,0,0,0,0,0,0,-1,1448,1772,6.14263,-25.2345
231,-748,6.46045,29.7867,0,0,0,0,0,0,0,-1,1455,1772,6.46049,-29.7867
238,-748,7.41565,32.8574,0,0,0,0,0,0,0,-1,1462,1772,7.41562,-32.8574
245,-748,7.84912,32.0914,0,0,0,0,0,0,0,-1,1469,1772,7.84914,-32.0914
252,-748,6.99731,31.8843,0,0,0,0,0,0,0,-1,1476,1772,6.99732,-31.8843
259,-748,6.88977,32.6669,0,0,0,0,0,0,0,-1,1483,1772,6.88981,-32.6668
266,-748,17.9011,7.59448,0,0,0,0,0,0,0,-1,1490,1772,17.9011,-7.59452
273,-748,16.4131,7.57129,0,0,0,0,0,0,0,-1,1497,1772,16.413,-7.57125
280,-748,15.2177,7.24829,0,0,0,0,0,0,0,-1,1504,1772,15.2176,-7.24833
287,-748,14.161,8.32813,0,0,0,0,0,0,0,-1,1511,1772,14.161,-8.32808
294,-748,12.2117,7.453,0,0,0,0,0,0,0,-1,1518,1772,12.2116,-7.45297
301,-748,11.7134,7.3595,0,0,0,0,0,0,0,-1,1525,1772,11.7133,-7.35949
308,-748,9.92456,7.80225,0,0,0,0,0,0,0,-1,1532,1772,9.92453,-7.80224
315,-748,8.91541,8.29773,0,0,0,0,0,0,0,-1,1539,1772,8.91544,-8.29773
322,-748,7.83618,8.87122,0,0,0,0,0,0,0,-1,1546,1772,7.83613,-8.87124
329,-748,3.48315,14.6533,0,0,0,0,0,0,0,-1,1553,1772,3.48316,-14.6534
336,-748,3.76001,15.8163,0,0,0,0,0,0,0,-1,1560,1772,3.75995,-15.8163
343,-748,0,0,0,0,0,0,0,0,0,-1,1567,1772,0,0
350,-748,0,0,0,0,0,0,0,0,0,-1,1574,1772,0,0
357,-748,0,0,0,0,0,0,0,0,0,-1,1581,1772,0,0
364,-748,0,0,0,0,0,0,0,0,0,-1,1588,1772,0,0
371,-748,0,0,0,0,0,0,0,0,0,-1,1595,1772,0,0
378,-748,0,0,0,0,0,0,0,0,0,-1,1602,1772,0,0
385,-748,0,0,0,0,0,0,0,0,0,-1,1609,1772,0,0
392,-748,0,0,0,0,0,0,0,0,0,-1,1616,1772,0,0
399,-748,0,0,0,0,0,0,0,0,0,-1,1623,1772,0,0
406,-748,0,0,0,0,0,0,0,0,0,-1,1630,1772,0,0
413,-748,0,0,0,0,0,0,0,0,0,-1,1637,1772,0,0
420,-748,0,0,0,0,0,0,0,0,0,-1,1644,1772,0,0
427,-748,0,0,0,0,0,0,0,0,0,-1,1651,1772,0,0
434,-748,0,0,0,0,0,0,0,0,0,-1,1658,1772,0,0
441,-748,0,0,0,0,0,0,0,0,0,-1,1665,1772,0,0
448,-748,0,0,0,0,0,0,0,0,0,-1,1672,1772,0,0
455,-748,0,0,0,0,0,0,0,0,0,-1,1679,1772,0,0
462,-748,0,0,0,0,0,0,0,0,0,-1,1686,1772,0,0
469,-748,0,0,0,0,0,0,0,0,0,-1,1693,1772,0,0
476,-748,0,0,0,0,0,0,0,0,0,-1,1700,1772,0,0
483,-748,0,0,0,0,0,0,0,0,0,-1,1707,1772,0,0
490,-748,0,0,0,0,0,0,0,0,0,-1,1714,1772,0,0
497,-748,0,0,0,0,0,0,0,0,0,-1,1721,1772,0,0
504,-748,0,0,0,0,0,0,0,0,0,-1,1728,1772,0,0
511,-748,0,0,0,0,0,0,0,0,0,-1,1735,1772,0,0
518,-748,0,0,0,0,0,0,0,0,0,-1,1742,1772,0,0
525,-748,0,0,0,0,0,0,0,0,0,-1,1749,1772,0,0
532,-748,0,0,0,0,0,0,0,0,0,-1,1756,1772,0,0
539,-748,0,0,0,0,0,0,0,0,0,-1,1763,1772,0,0
546,-748,0,0,0,0,0,0,0,0,0,-1,1770,1772,0,0
553,-748,0,0,0,0,0,0,0,0,0,-1,1777,1772,0,0
560,-748,0,0,0,0,0,0,0,0,0,-1,1784,1772,0,0
567,-748,0,0,0,0,0,0,0,0,0,-1,1791,1772,0,0
574,-748,0,0,0,0,0,0,0,0,0,-1,1798,1772,0,0
581,-748,0,0,0,0,0,0,0,0,0,-1,1805,1772,0,0
588,-748,0,0,0,0,0,0,0,0,0,-1,1812,1772,0,0
595,-748,0,0,0,0,0,0,0,0,0,-1,1819,1772,0,0
602,-748,0,0,0,0,0,0,0,0,0,-1,1826,1772,0,0
609,-748,0,0,0,0,0,0,0,0,0,-1,1833,1772,0,0
616,-748,0,0,0,0,0,0,0,0,0,-1,1840,1772,0,0
623,-748,0,0,0,0,0,0,0,0,0,-1,1847,1772,0,0
630,-748,0,0,0,0,0,0,0,0,0,-1,1854,1772,0,0
637,-748,0,0,0,0,0,0,0,0,0,-1,1861,1772,0,0
644,-748,0,0,0,0,0,0,0,0,0,-1,1868,1772,0,0
651,-748,0,0,0,0,0,0,0,0,0,-1,1875,1772,0,0
658,-748,0,0,0,0,0,0,0,0,0,-1,1882,1772,0,0
665,-748,0,0,0,0,0,0,0,0,0,-1,1889,1772,0,0
672,-748,0,0,0,0,0,0,0,0,0,-1,1896,1772,0,0
679,-748,0,0,0,0,0,0,0,0,0,-1,1903,1772,0,0
686,-748,0,0,0,0,0,0,0,0,0,-1,1910,1772,0,0
693,-748,0,0,0,0,0,0,0,0,0,-1,1917,1772,0,0
700,-748,0,0,0,0,0,0,0,0,0,-1,1924,1772,0,0
707,-748,0,0,0,0,0,0,0,0,0,-1,1931,1772,0,0
714,-748,0,0,0,0,0,0,0,0,0,-1,1938,1772,0,0
721,-748,0,0,0,0,0,0,0,0,0,-1,1945,1772,0,0
728,-748,0,0,0,0,0,0,0,0,0,-1,1952,1772,0,0
735,-748,0,0,0,0,0,0,0,0,0,-1,1959,1772,0,0
742,-748,0,0,0,0,0,0,0,0,0,-1,1966,1772,0,0
749,-748,0,0,0,0,0,0,0,0,0,-1,1973,1772,0,0
756,-748,0,0,0,0,0,0,0,0,0,-1,1980,1772,0,0
763,-748,0,0,0,0,0,0,0,0,0,-1,1987,1772,0,0
770,-748,0,0,0,0,0,0,0,0,0,-1,1994,1772,0,0
777,-748,0,0,0,0,0,0,0,0,0,-1,2001,1772,0,0
784,-748,0,0,0,0,0,0,0,0,0,-1,2008,1772,0,0
791,-748,0,0,0,0,0,0,0,0,0,-1,2015,1772,0,0
798,-748,0,0,0,0,0,0,0,0,0,-1,2022,1772,0,0
805,-748,0,0,0,0,0,0,0,0,0,-1,2029,1772,0,0
812,-748,0,0,0,0,0,0,0,0,0,-1,2036,1772,0,0
-700,-755,0,0,0,0,0,0,0,0,0,-1,524,1779,0,0
-693,-755,0,0,0,0,0,0,0,0,0,-1,531,1779,0,0
-686,-755,0,0,0,0,0,0,0,0,0,-1,538,1779,0,0
-679,-755,0,0,0,0,0,0,0,0,0,-1,545,1779,0,0
-672,-755,0,0,0,0,0,0,0,0,0,-1,552,1779,0,0
-665,-755,0,0,0,0,0,0,0,0,0,-1,559,1779,0,0
-658,-755,0,0,0,0,0,0,0,0,0,-1,566,1779,0,0
-651,-755,0,0,0,0,0,0,0,0,0,-1,573,1779,0,0
-644,-755,0,0,0,0,0,0,0,0,0,-1,580,1779,0,0
-637,-755,0,0,0,0,0,0,0,0,0,-1,587,1779,0,0
-630,-755,0,0,0,0,0,0,0,0,0,-1,594,1779,0,0
-623,-755,0,0,0,0,0,0,0,0,0,-1,601,1779,0,0
-616,-755,0,0,0,0,0,0,0,0,0,-1,608,1779,0,0
-609,-755,0,0,0,0,0,0,0,0,0,-1,615,1779,0,0
-602,-755,0,0,0,0,0,0,0,0,0,-1,622,1779,0,0
-595,-755,0,0,0,0,0,0,0,0,0,-1,629,1779,0,0
-588,-755,0,0,0,0,0,0,0,0,0,-1,636,1779,0,0
-581,-755,0,0,0,0,0,0,0,0,0,-1,643,1779,0,0
-574,-755,0,0,0,0,0,0,0,0,0,-1,650,1779,0,0
-567,-755,0,0,0,0,0,0,0,0,0,-1,657,1779,0,0
-560,-755,0,0,0,0,0,0,0,0,0,-1,664,1779,0,0
-553,-755,0,0,0,0,0,0,0,0,0,-1,671,1779,0,0
-546,-755,0,0,0,0,0,0,0,0,0,-1,678,1779,0,0
-539,-755,0,0,0,0,0,0,0,0,0,-1,685,1779,0,0
-532,-755,0,0,0,0,0,0,0,0,0,-1,692,1779,0,0
-525,-755,0,0,0,0,0,0,0,0,0,-1,699,1779,0,0
-518,-755,0,0,0,0,0,0,0,0,0,-1,706,1779,0,0
-511,-755,0,0,0,0,0,0,0,0,0,-1,713,1779,0,0
-504,-755,0,0,0,0,0,0,0,0,0,-1,720,1779,0,0
-497,-755,0,0,0,0,0,0,0,0,0,-1,727,1779,0,0
-490,-755,0,0,0,0,0,0,0,0,0,-1,734,1779,0,0
-483,-755,0,0,0,0,0,0,0,0,0,-1,741,1779,0,0
-476,-755,0,0,0,0,0,0,0,0,0,-1,748,1779,0,0
-469,-755,0,0,0,0,0,0,0,0,0,-1,755,1779,0,0
-462,-755,0,0,0,0,0,0,0,0,0,-1,762,1779,0,0
-455,-755,0,0,0,0,0,0,0,0,0,-1,769,1779,0,0
-448,-755,0,0,0,0,0,0,0,0,0,-1,776,1779,0,0
-441,-755,0,0,0,0,0,0,0,0,0,-1,783,1779,0,0
-434,-755,0,0,0,0,0,0,0,0,0,-1,790,1779,0,0
-427,-755,0,0,0,0,0,0,0,0,0,-1,797,1779,0,0
-420,-755,0,0,0,0,0,0,0,0,0,-1,804,1779,0,0
-413,-755,0,0,0,0,0,0,0,0,0,-1,811,1779,0,0
-406,-755,0,0,0,0,0,0,0,0,0,-1,818,1779,0,0
-399,-755,0,0,0,0,0,0,0,0,0,-1,825,1779,0,0
-392,-755,0,0,0,0,0,0,0,0,0,-1,832,1779,0,0
-385,-755,0,0,0,0,0,0,0,0,0,-1,839,1779,0,0
-378,-755,0,0,0,0,0,0,0,0,0,-1,846,1779,0,0
-371,-755,0,0,0,0,0,0,0,0,0,-1,853,1779,0,0
-364,-755,0,0,0,0,0,0,0,0,0,-1,860,1779,0,0
-357,-755,0,0,0,0,0,0,0,0,0,-1,867,1779,0,0
-350,-755,0,0,0,0,0,0,0,0,0,-1,874,1779,0,0
-343,-755,0,0,0,0,0,0,0,0,0,-1,881,1779,0,0
-336,-755,0,0,0,0,0,0,0,0,0,-1,888,1779,0,0
-329,-755,0,0,0,0,0,0,0,0,0,-1,895,1779,0,0
-322,-755,0,0,0,0,0,0,0,0,0,-1,902,1779,0,0
-315,-755,0,0,0,0,0,0,0,0,0,-1,909,1779,0,0
-308,-755,0,0,0,0,0,0,0,0,0,-1,916,1779,0,0
-301,-755,0,0,0,0,0,0,0,0,0,-1,923,1779,0,0
-294,-755,0,0,0,0,0,0,0,0,0,-1,930,1779,0,0
-287,-755,0,0,0,0,0,0,0,0,0,-1,937,1779,0,0
-280,-755,0,0,0,0,0,0,0,0,0,-1,944,1779,0,0
-273,-755,0,0,0,0,0,0,0,0,0,-1,951,1779,0,0
-266,-755,0,0,0,0,0,0,0,0,0,-1,958,1779,0,0
-259,-755,0,0,0,0,0,0,0,0,0,-1,965,1779,0,0
-252,-755,0,0,0,0,0,0,0,0,0,-1,972,1779,0,0
-245,-755,0,0,0,0,0,0,0,0,0,-1,979,1779,0,0
-238,-755,0,0,0,0,0,0,0,0,0,-1,986,1779,0,0
-231,-755,0,0,0,0,0,0,0,0,0,-1,993,1779,0,0
-224,-755,0,0,0,0,0,0,0,0,0,-1,1000,1779,0,0
-217,-755,0,0,0,0,0,0,0,0,0,-1,1007,1779,0,0
-210,-755,0,0,0,0,0,0,0,0,0,-1,1014,1779,0,0
-203,-755,5.47998,25.527,0,0,0,0,0,0,0,-1,1021,1779,5.47993,-25.527
-196,-755,5.18445,23.9307,0,0,0,0,0,0,0,-1,1028,1779,5.1844,-23.9306
-189,-755,4.8175,22.4788,0,0,0,0,0,0,0,-1,1035,1779,4.81745,-22.4788
-182,-755,4.021,20.8032,0,0,0,0,0,0,0,-1,1042,1779,4.02094,-20.8032
-175,-755,3.79993,18.8242,0,0,0,0,0,0,0,-1,1049,1779,3.79995,-18.8242
-168,-755,3.14294,16.9865,0,0,0,0,0,0,0,-1,1056,1779,3.14291,-16.9864
-161,-755,-2.85889,11.5868,0,0,0,0,0,0,0,-1,1063,1779,-2.85887,-11.5868
-154,-755,-5.39026,8.51416,0,0,0,0,0,0,0,-1,1070,1779,-5.3903,-8.51417
-147,-755,-6.45593,10.2422,0,0,0,0,0,0,0,-1,1077,1779,-6.45594,-10.2422
-140,-755,1.33521,21.3856,0,0,0,0,0,0,0,-1,1084,1779,1.33522,-21.3857
-133,-755,2.89417,21.0964,0,0,0,0,0,0,0,-1,1091,1779,2.89422,-21.0964
-126,-755,3.26404,20.9304,0,0,0,0,0,0,0,-1,1098,1779,3.26399,-20.9305
-119,-755,5.17761,21.9325,0,0,0,0,0,0,0,-1,1105,1779,5.17761,-21.9325
-112,-755,5.40247,24.5646,0,0,0,0,0,0,0,-1,1112,1779,5.40244,-24.5646
-105,-755,7.01294,20.1539,0,0,0,0,0,0,0,-1,1119,1779,7.01295,-20.154
-98,-755,5.50708,16.9628,0,0,0,0,0,0,0,-1,1126,1779,5.5071,-16.9628
-91,-755,5.51025,12.0438,0,0,0,0,0,0,0,-1,1133,1779,5.51022,-12.0439
-84,-755,0.169312,8.66443,0,0,0,0,0,0,0,-1,1140,1779,0.16932,-8.66446
-77,-755,-0.0491943,6.87439,0,0,0,0,0,0,0,-1,1147,1779,-0.0491385,-6.87443
-70,-755,4.5686,13.2169,0,0,0,0,0,0,0,-1,1154,1779,4.56865,-13.2169
-63,-755,-1.36316,7.3147,0,0,0,0,0,0,0,-1,1161,1779,-1.36312,-7.31473
-56,-755,0.0483398,5.06079,0,0,0,0,0,0,0,-1,1168,1779,0.0483138,-5.06084
-49,-755,-1.32263,5.33716,0,0,0,0,0,0,0,-1,1175,1779,-1.32264,-5.33718
-42,-755,-2.03613,4.01672,0,0,0,0,0,0,0,-1,1182,1779,-2.0361,-4.01671
-35,-755,-2.72498,2.37476,0,0,0,0,0,0,0,-1,1189,1779,-2.72502,-2.37473
-28,-755,7.79822,35.329,0,0,0,0,0,0,0,-1,1196,1779,7.79821,-35.329
-21,-755,7.80493,35.5162,0,0,0,0,0,0,0,-1,1203,1779,7.80492,-35.5163
-14,-755,7.78613,35.4293,0.00497251,0.0113722,8.88815e-05,0.0113735,0.00497128,1.55691,0.00658377,0.033275,1210,1779,7.78613,-35.4293
-7,-755,7.70581,35.4906,0.00576212,0.0105146,0.000159076,0.0105199,0.0057568,1.53737,0.00608268,0.0232745,1217,1779,7.70584,-35.4906
0,-755,7.72058,35.5784,0.00699681,0.00920344,-4.48983e-05,0.00920435,0.0069959,-1.55046,0.00554857,0.0148659,1224,1779,7.72058,-35.5783
7,-755,7.72021,35.6475,0.00834464,0.00773452,-0.000615771,0.00872677,0.00735238,-0.555411,0.00541814,0.0129077,1231,1779,7.72026,-35.6475
14,-755,7.69031,35.7438,0.00999001,0.00604509,-0.00132997,0.0103965,0.0056386,-0.296625,0.0060096,0.0115656,1238,1779,7.69033,-35.7437
21,-755,7.63354,35.8401,0.0117185,0.00430296,-0.00251971,0.0124937,0.00352782,-0.298443,0.00743749,0.0155732,1245,1779,7.63357,-35.8401
28,-755,7.60718,35.8544,0.0134551,0.00278843,-0.00405272,0.0148202,0.00142333,-0.324899,0.00944153,0.0187455,1252,1779,7.60717,-35.8543
35,-755,7.58154,35.9148,0.0151923,0.00154215,-0.00577839,0.0173099,-0.000575444,-0.35127,0.0117365,0.0187387,1259,1779,7.58151,-35.9148
42,-755,7.54724,35.9327,0.0160686,0.00107061,-0.00632582,0.0183803,-0.00124116,-0.350371,0.0126875,0.0128803,1266,1779,7.54723,-35.9328
49,-755,7.55249,35.9315,0.0161572,0.000937274,-0.00648728,0.018547,-0.00145258,-0.352964,0.0128762,0.00910157,1273,1779,7.55249,-35.9315
56,-755,7.48352,35.9733,0.016422,0.00124793,-0.00690428,0.0190932,-0.00142331,-0.369159,0.0132288,0.00918581,1280,1779,7.48357,-35.9732
63,-755,7.45496,35.9747,0.0153608,0.00107121,-0.00703198,0.0182408,-0.00180881,-0.388721,0.0128061,0.00943457,1287,1779,7.455,-35.9747
70,-755,7.44202,35.9803,0.0133267,0.00142761,-0.00643681,0.0161424,-0.0013881,-0.412359,0.0112529,0.0124006,1294,1779,7.44199,-35.9804
77,-755,7.39648,35.9639,0.0104475,0.000854972,-0.00554778,0.0129849,-0.00168238,-0.428961,0.00926841,0.0113857,1301,1779,7.3965,-35.9638
84,-755,7.37341,35.9633,0.00733626,0.00212477,-0.00456086,0.00998327,-0.000522234,-0.525864,0.00683624,0.0116526,1308,1779,7.37336,-35.9633
91,-755,7.33325,35.9271,0.00389812,0.00244434,-0.00311664,0.00637151,-2.90531e-05,-0.670832,0.00425739,0.0121902,1315,1779,7.33323,-35.9272
98,-755,7.27271,35.9114,0.000217016,0.00239581,-0.00166529,0.00329639,-0.000683555,-1.07505,0.00245734,0.0131508,1322,1779,7.27276,-35.9113
105,-755,7.30652,35.9041,-0.00350327,0.00188224,-0.000221429,0.00189133,-0.00351235,-1.52977,0.00316626,0.0166111,1329,1779,7.30649,-35.904
112,-755,7.29114,35.8203,-0.00692428,0.000768165,0.00107069,0.000914411,-0.00707052,1.43505,0.00504618,0.022258,1336,1779,7.29115,-35.8203
119,-755,7.2406,35.7301,-0.0100415,-0.00055177,0.0018274,-0.000212039,-0.0103812,1.38698,0.00685124,0.0215987,1343,1779,7.24059,-35.7301
126,-755,7.17029,35.7621,-0.0126499,-0.00168533,0.00243745,-0.00116789,-0.0131673,1.36162,0.00841596,0.0237314,1350,1779,7.17031,-35.7621
133,-755,7.08435,35.671,-0.0146825,-0.00258643,0.00276351,-0.00198498,-0.0152839,1.3565,0.00959629,0.0249178,1357,1779,7.08438,-35.671
140,-755,6.96704,35.6027,-0.0158565,-0.00317846,0.00265661,-0.00264429,-0.0163906,1.37237,0.010161,0.0325299,1364,1779,6.96698,-35.6027
147,-755,7.06396,35.5005,-0.0157823,-0.00403001,0.000690717,-0.00398956,-0.0158228,1.51229,0.00950208,0.0344657,1371,1779,7.06398,-35.5005
154,-755,7.03662,35.4623,-0.0149415,-0.00396134,-0.00146057,-0.00377038,-0.0151325,-1.44079,0.00909584,0.0349186,1378,1779,7.03657,-35.4623
161,-755,7.04419,35.328,0,0,0,0,0,0,0,-1,1385,1779,7.04418,-35.3279
168,-755,3.98181,7.35901,0,0,0,0,0,0,0,-1,1392,1779,3.98184,-7.35904
175,-755,8.17065,1.34363,0,0,0,0,0,0,0,-1,1399,1779,8.1706,-1.34368
182,-755,8.09216,2.96924,0,0,0,0,0,0,0,-1,1406,1779,8.09213,-2.9693
189,-755,8.04419,4.68042,0,0,0,0,0,0,0,-1,1413,1779,8.04419,-4.68046
196,-755,7.74841,7.4541,0,0,0,0,0,0,0,-1,1420,1779,7.74842,-7.45405
203,-755,4.80554,6.88696,0,0,0,0,0,0,0,-1,1427,1779,4.80554,-6.88697
210,-755,25.1694,7.35693,0,0,0,0,0,0,0,-1,1434,1779,25.1694,-7.35688
217,-755,5.01648,16.411,0,0,0,0,0,0,0,-1,1441,1779,5.01646,-16.411
224,-755,5.18103,22.6283,0,0,0,0,0,0,0,-1,1448,1779,5.18101,-22.6283
231,-755,5.7489,30.15,0,0,0,0,0,0,0,-1,1455,1779,5.74885,-30.15
238,-755,6.56323,29.2726,0,0,0,0,0,0,0,-1,1462,1779,6.56327,-29.2726
245,-755,5.76453,29.2085,0,0,0,0,0,0,0,-1,1469,1779,5.76455,-29.2085
252,-755,5.57678,29.0841,0,0,0,0,0,0,0,-1,1476,1779,5.57682,-29.0841
259,-755,5.37292,29.1577,0,0,0,0,0,0,0,-1,1483,1779,5.37293,-29.1577
266,-755,17.255,7.86096,0,0,0,0,0,0,0,-1,1490,1779,17.255,-7.86092
273,-755,15.7932,7.59778,0,0,0,0,0,0,0,-1,1497,1779,15.7932,-7.59777
280,-755,14.6255,7.34802,0,0,0,0,0,0,0,-1,1504,1779,14.6254,-7.34806
287,-755,13.8279,7.83105,0,0,0,0,0,0,0,-1,1511,1779,13.8279,-7.83104
294,-755,12.5695,7.96814,0,0,0,0,0,0,0,-1,1518,1779,12.5694,-7.9682
301,-755,11.2659,8.27087,0,0,0,0,0,0,0,-1,1525,1779,11.2658,-8.27087
308,-755,9.94434,8.55811,0,0,0,0,0,0,0,-1,1532,1779,9.94428,-8.55806
315,-755,8.64502,9.04492,0,0,0,0,0,0,0,-1,1539,1779,8.64497,-9.04488
322,-755,0,0,0,0,0,0,0,0,0,-1,1546,1779,0,0
329,-755,0,0,0,0,0,0,0,0,0,-1,1553,1779,0,0
336,-755,0,0,0,0,0,0,0,0,0,-1,1560,1779,0,0
343,-755,0,0,0,0,0,0,0,0,0,-1,1567,1779,0,0
350,-755,0,0,0,0,0,0,0,0,0,-1,1574,1779,0,0
357,-755,0,0,0,0,0,0,0,0,0,-1,1581,1779,0,0
364,-755,0,0,0,0,0,0,0,0,0,-1,1588,1779,0,0
371,-755,0,0,0,0,0,0,0,0,0,-1,1595,1779,0,0
378,-755,0,0,0,0,0,0,0,0,0,-1,1602,1779,0,0
385,-755,0,0,0,0,0,0,0,0,0,-1,1609,1779,0,0
392,-755,0,0,0,0,0,0,0,0,0,-1,1616,1779,0,0
399,-755,0,0,0,0,0,0,0,0,0,-1,1623,1779,0,0
406,-755,0,0,0,0,0,0,0,0,0,-1,1630,1779,0,0
413,-755,0,0,0,0,0,0,0,0,0,-1,1637,1779,0,0
420,-755,0,0,0,0,0,0,0,0,0,-1,1644,1779,0,0
427,-755,0,0,0,0,0,0,0,0,0,-1,1651,1779,0,0
434,-755,0,0,0,0,0,0,0,0,0,-1,1658,1779,0,0
441,-755,0,0,0,0,0,0,0,0,0,-1,1665,1779,0,0
448,-755,0,0,0,0,0,0,0,0,0,-1,1672,1779,0,0
455,-755,0,0,0,0,0,0,0,0,0,-1,1679,1779,0,0
462,-755,0,0,0,0,0,0,0,0,0,-1,1686,1779,0,0
469,-755,0,0,0,0,0,0,0,0,0,-1,1693,1779,0,0
476,-755,0,0,0,0,0,0,0,0,0,-1,1700,1779,0,0
483,-755,0,0,0,0,0,0,0,0,0,-1,1707,1779,0,0
490,-755,0,0,0,0,0,0,0,0,0,-1,1714,1779,0,0
497,-755,0,0,0,0,0,0,0,0,0,-1,1721,1779,0,0
504,-755,0,0,0,0,0,0,0,0,0,-1,1728,1779,0,0
511,-755,0,0,0,0,0,0,0,0,0,-1,1735,1779,0,0
518,-755,0,0,0,0,0,0,0,0,0,-1,1742,1779,0,0
525,-755,0,0,0,0,0,0,0,0,0,-1,1749,1779,0,0
532,-755,0,0,0,0,0,0,0,0,0,-1,1756,1779,0,0
539,-755,0,0,0,0,0,0,0,0,0,-1,1763,1779,0,0
546,-755,0,0,0,0,0,0,0,0,0,-1,1770,1779,0,0
553,-755,0,0,0,0,0,0,0,0,0,-1,1777,1779,0,0
560,-755,0,0,0,0,0,0,0,0,0,-1,1784,1779,0,0
567,-755,0,0,0,0,0,0,0,0,0,-1,1791,1779,0,0
574,-755,0,0,0,0,0,0,0,0,0,-1,1798,1779,0,0
581,-755,0,0,0,0,0,0,0,0,0,-1,1805,1779,0,0
588,-755,0,0,0,0,0,0,0,0,0,-1,1812,1779,0,0
595,-755,0,0,0,0,0,0,0,0,0,-1,1819,1779,0,0
602,-755,0,0,0,0,0,0,0,0,0,-1,1826,1779,0,0
609,-755,0,0,0,0,0,0,0,0,0,-1,1833,1779,0,0
616,-755,0,0,0,0,0,0,0,0,0,-1,1840,1779,0,0
623,-755,0,0,0,0,0,0,0,0,0,-1,1847,1779,0,0
630,-755,0,0,0,0,0,0,0,0,0,-1,1854,1779,0,0
637,-755,0,0,0,0,0,0,0,0,0,-1,1861,1779,0,0
644,-755,0,0,0,0,0,0,0,0,0,-1,1868,1779,0,0
651,-755,0,0,0,0,0,0,0,0,0,-1,1875,1779,0,0
658,-755,0,0,0,0,0,0,0,0,0,-1,1882,1779,0,0
665,-755,0,0,0,0,0,0,0,0,0,-1,1889,1779,0,0
672,-755,0,0,0,0,0,0,0,0,0,-1,1896,1779,0,0
679,-755,0,0,0,0,0,0,0,0,0,-1,1903,1779,0,0
686,-755,0,0,0,0,0,0,0,0,0,-1,1910,1779,0,0
693,-755,0,0,0,0,0,0,0,0,0,-1,1917,1779,0,0
700,-755,0,0,0,0,0,0,0,0,0,-1,1924,1779,0,0
707,-755,0,0,0,0,0,0,0,0,0,-1,1931,1779,0,0
714,-755,0,0,0,0,0,0,0,0,0,-1,1938,1779,0,0
721,-755,0,0,0,0,0,0,0,0,0,-1,1945,1779,0,0
728,-755,0,0,0,0,0,0,0,0,0,-1,1952,1779,0,0
735,-755,0,0,0,0,0,0,0,0,0,-1,1959,1779,0,0
742,-755,0,0,0,0,0,0,0,0,0,-1,1966,1779,0,0
749,-755,0,0,0,0,0,0,0,0,0,-1,1973,1779,0,0
756,-755,0,0,0,0,0,0,0,0,0,-1,1980,1779,0,0
763,-755,0,0,0,0,0,0,0,0,0,-1,1987,1779,0,0
770,-755,0,0,0,0,0,0,0,0,0,-1,1994,1779,0,0
777,-755,0,0,0,0,0,0,0,0,0,-1,2001,1779,0,0
784,-755,0,0,0,0,0,0,0,0,0,-1,2008,1779,0,0
791,-755,0,0,0,0,0,0,0,0,0,-1,2015,1779,0,0
798,-755,0,0,0,0,0,0,0,0,0,-1,2022,1779,0,0
805,-755,0,0,0,0,0,0,0,0,0,-1,2029,1779,0,0
812,-755,0,0,0,0,0,0,0,0,0,-1,2036,1779,0,0
-700,-762,0,0,0,0,0,0,0,0,0,-1,524,1786,0,0
-693,-762,0,0,0,0,0,0,0,0,0,-1,531,1786,0,0
-686,-762,0,0,0,0,0,0,0,0,0,-1,538,1786,0,0
-679,-762,0,0,0,0,0,0,0,0,0,-1,545,1786,0,0
-672,-762,0,0,0,0,0,0,0,0,0,-1,552,1786,0,0
-665,-762,0,0,0,0,0,0,0,0,0,-1,559,1786,0,0
-658,-762,0,0,0,0,0,0,0,0,0,-1,566,1786,0,0
-651,-762,0,0,0,0,0,0,0,0,0,-1,573,1786,0,0
-644,-762,0,0,0,0,0,0,0,0,0,-1,580,1786,0,0
-637,-762,0,0,0,0,0,0,0,0,0,-1,587,1786,0,0
-630,-762,0,0,0,0,0,0,0,0,0,-1,594,1786,0,0
-623,-762,0,0,0,0,0,0,0,0,0,-1,601,1786,0,0
-616,-762,0,0,0,0,0,0,0,0,0,-1,608,1786,0,0
-609,-762,0,0,0,0,0,0,0,0,0,-1,615,1786,0,0
-602,-762,0,0,0,0,0,0,0,0,0,-1,622,1786,0,0
-595,-762,0,0,0,0,0,0,0,0,0,-1,629,1786,0,0
-588,-762,0,0,0,0,0,0,0,0,0,-1,636,1786,0,0
-581,-762,0,0,0,0,0,0,0,0,0,-1,643,1786,0,0
-574,-762,0,0,0,0,0,0,0,0,0,-1,650,1786,0,0
-567,-762,0,0,0,0,0,0,0,0,0,-1,657,1786,0,0
-560,-762,0,0,0,0,0,0,0,0,0,-1,664,1786,0,0
-553,-762,0,0,0,0,0,0,0,0,0,-1,671,1786,0,0
-546,-762,0,0,0,0,0,0,0,0,0,-1,678,1786,0,0
-539,-762,0,0,0,0,0,0,0,0,0,-1,685,1786,0,0
-532,-762,0,0,0,0,0,0,0,0,0,-1,692,1786,0,0
-525,-762,0,0,0,0,0,0,0,0,0,-1,699,1786,0,0
-518,-762,0,0,0,0,0,0,0,0,0,-1,706,1786,0,0
-511,-762,0,0,0,0,0,0,0,0,0,-1,713,1786,0,0
-504,-762,0,0,0,0,0,0,0,0,0,-1,720,1786,0,0
-497,-762,0,0,0,0,0,0,0,0,0,-1,727,1786,0,0
-490,-762,0,0,0,0,0,0,0,0,0,-1,734,1786,0,0
-483,-762,0,0,0,0,0,0,0,0,0,-1,741,1786,0,0
-476,-762,0,0,0,0,0,0,0,0,0,-1,748,1786,0,0
-469,-762,0,0,0,0,0,0,0,0,0,-1,755,1786,0,0
-462,-762,0,0,0,0,0,0,0,0,0,-1,762,1786,0,0
-455,-762,0,0,0,0,0,0,0,0,0,-1,769,1786,0,0
-448,-762,0,0,0,0,0,0,0,0,0,-1,776,1786,0,0
-441,-762,0,0,0,0,0,0,0,0,0,-1,783,1786,0,0
-434,-762,0,0,0,0,0,0,0,0,0,-1,790,1786,0,0
-427,-762,0,0,0,0,0,0,0,0,0,-1,797,1786,0,0
-420,-762,0,0,0,0,0,0,0,0,0,-1,804,1786,0,0
-413,-762,0,0,0,0,0,0,0,0,0,-1,811,1786,0,0
-406,-762,0,0,0,0,0,0,0,0,0,-1,818,1786,0,0
-399,-762,0,0,0,0,0,0,0,0,0,-1,825,1786,0,0
-392,-762,0,0,0,0,0,0,0,0,0,-1,832,1786,0,0
-385,-762,0,0,0,0,0,0,0,0,0,-1,839,1786,0,0
-378,-762,0,0,0,0,0,0,0,0,0,-1,846,1786,0,0
-371,-762,0,0,0,0,0,0,0,0,0,-1,853,1786,0,0
-364,-762,0,0,0,0,0,0,0,0,0,-1,860,1786,0,0
-357,-762,0,0,0,0,0,0,0,0,0,-1,867,1786,0,0
-350,-762,0,0,0,0,0,0,0,0,0,-1,874,1786,0,0
-343,-762,0,0,0,0,0,0,0,0,0,-1,881,1786,0,0
-336,-762,0,0,0,0,0,0,0,0,0,-1,888,1786,0,0
-329,-762,0,0,0,0,0,0,0,0,0,-1,895,1786,0,0
-322,-762,0,0,0,0,0,0,0,0,0,-1,902,1786,0,0
-315,-762,0,0,0,0,0,0,0,0,0,-1,909,1786,0,0
-308,-762,0,0,0,0,0,0,0,0,0,-1,916,1786,0,0
-301,-762,0,0,0,0,0,0,0,0,0,-1,923,1786,0,0
-294,-762,0,0,0,0,0,0,0,0,0,-1,930,1786,0,0
-287,-762,0,0,0,0,0,0,0,0,0,-1,937,1786,0,0
-280,-762,0,0,0,0,0,0,0,0,0,-1,944,1786,0,0
-273,-762,0,0,0,0,0,0,0,0,0,-1,951,1786,0,0
-266,-762,0,0,0,0,0,0,0,0,0,-1,958,1786,0,0
-259,-762,0,0,0,0,0,0,0,0,0,-1,965,1786,0,0
-252,-762,0,0,0,0,0,0,0,0,0,-1,972,1786,0,0
-245,-762,0,0,0,0,0,0,0,0,0,-1,979,1786,0,0
-238,-762,0,0,0,0,0,0,0,0,0,-1,986,1786,0,0
-231,-762,0,0,0,0,0,0,0,0,0,-1,993,1786,0,0
-224,-762,0,0,0,0,0,0,0,0,0,-1,1000,1786,0,0
-217,-762,0,0,0,0,0,0,0,0,0,-1,1007,1786,0,0
-210,-762,0,0,0,0,0,0,0,0,0,-1,1014,1786,0,0
-203,-762,0,0,0,0,0,0,0,0,0,-1,1021,1786,0,0
-196,-762,0,0,0,0,0,0,0,0,0,-1,1028,1786,0,0
-189,-762,0,0,0,0,0,0,0,0,0,-1,1035,1786,0,0
-182,-762,4.44226,13.2462,0,0,0,0,0,0,0,-1,1042,1786,4.44227,-13.2462
-175,-762,4.3219,18.3975,0,0,0,0,0,0,0,-1,1049,1786,4.32192,-18.3974
-168,-762,-2.08618,13.0768,0,0,0,0,0,0,0,-1,1056,1786,-2.08623,-13.0768
-161,-762,-3.29077,11.9508,0,0,0,0,0,0,0,-1,1063,1786,-3.29076,-11.9508
-154,-762,-4.55823,11.1176,0,0,0,0,0,0,0,-1,1070,1786,-4.55828,-11.1175
-147,-762,-6.52454,9.41418,0,0,0,0,0,0,0,-1,1077,1786,-6.52458,-9.41419
-140,-762,4.99792,5.28589,0,0,0,0,0,0,0,-1,1084,1786,4.99793,-5.28587
-133,-762,0.689819,19.2172,0,0,0,0,0,0,0,-1,1091,1786,0.689867,-19.2171
-126,-762,1.48743,19.9288,0,0,0,0,0,0,0,-1,1098,1786,1.48738,-19.9289
-119,-762,2.65637,20.208,0,0,0,0,0,0,0,-1,1105,1786,2.65632,-20.208
-112,-762,6.84705,25.5554,0,0,0,0,0,0,0,-1,1112,1786,6.84706,-25.5554
-105,-762,5.57947,21.618,0,0,0,0,0,0,0,-1,1119,1786,5.57948,-21.618
-98,-762,5.0636,17.9901,0,0,0,0,0,0,0,-1,1126,1786,5.06361,-17.9901
-91,-762,4.54773,14.3622,0,0,0,0,0,0,0,-1,1133,1786,4.54774,-14.3622
-84,-762,3.96375,10.4547,0,0,0,0,0,0,0,-1,1140,1786,3.96371,-10.4548
-77,-762,0.305054,8.49365,0,0,0,0,0,0,0,-1,1147,1786,0.305008,-8.49362
-70,-762,0.183716,6.74622,0,0,0,0,0,0,0,-1,1154,1786,0.183696,-6.74621
-63,-762,-0.883057,9.08813,0,0,0,0,0,0,0,-1,1161,1786,-0.88311,-9.08808
-56,-762,-0.578979,5.10254,0,0,0,0,0,0,0,-1,1168,1786,-0.578951,-5.10249
-49,-762,-2.04541,3.66321,0,0,0,0,0,0,0,-1,1175,1786,-2.0454,-3.66319
-42,-762,-2.23462,3.474,0,0,0,0,0,0,0,-1,1182,1786,-2.23459,-3.47399
-35,-762,-3.28992,1.68164,0,0,0,0,0,0,0,-1,1189,1786,-3.28998,-1.68164
-28,-762,-3.75378,1.37769,0,0,0,0,0,0,0,-1,1196,1786,-3.75373,-1.37767
-21,-762,8.27515,33.7308,0,0,0,0,0,0,0,-1,1203,1786,8.27517,-33.7308
-14,-762,7.85303,35.4005,0,0,0,0,0,0,0,-1,1210,1786,7.85305,-35.4006
-7,-762,7.65894,35.5015,0,0,0,0,0,0,0,-1,1217,1786,7.65889,-35.5014
0,-762,7.72607,35.6913,0.011008,0.0159109,0.000343445,0.0159348,0.010984,1.5012,0.00941723,0.036671,1224,1786,7.72612,-35.6913
7,-762,7.7854,35.7185,0.0128944,0.0139398,-0.000420338,0.0140878,0.0127463,-1.23215,0.00897819,0.0216787,1231,1786,7.78539,-35.7185
14,-762,7.78455,35.9031,0.0152871,0.0115972,-0.00150493,0.015823,0.0110613,-0.342126,0.00937365,0.0359641,1238,1786,7.78453,-35.903
21,-762,7.83594,35.8918,0.017889,0.00913748,-0.00333031,0.0190121,0.0080143,-0.325279,0.0110216,0.0422666,1245,1786,7.83596,-35.8918
28,-762,7.80383,35.8872,0.0205248,0.00694408,-0.00570125,0.0226008,0.00486802,-0.349216,0.0137352,0.0414732,1252,1786,7.8038,-35.8872
35,-762,7.47363,36.0853,0.0231784,0.00510942,-0.00837067,0.0264602,0.00182765,-0.373638,0.0170636,0.0439681,1259,1786,7.47359,-36.0854
42,-762,7.57239,36.0054,0.0244994,0.0043426,-0.00918018,0.0280537,0.000788322,-0.369396,0.0184453,0.0452754,1266,1786,7.57242,-36.0053
49,-762,7.58337,35.9967,0.0246554,0.00387345,-0.00932119,0.0282235,0.000305301,-0.365591,0.0187147,0.0358831,1273,1786,7.58335,-35.9967
56,-762,7.57947,35.9913,0.0251636,0.00404817,-0.00990545,0.0290829,0.000128894,-0.376767,0.0193458,0.0251602,1280,1786,7.57945,-35.9913
63,-762,7.52917,36.0096,0.0236822,0.00358002,-0.00998662,0.0278,-0.00053777,-0.39109,0.0187152,0.0224078,1287,1786,7.52922,-36.0096
70,-762,7.48938,36.0189,0.0208105,0.00371033,-0.00907696,0.0247302,-0.000209351,-0.40764,0.016557,0.0224962,1294,1786,7.48938,-36.019
77,-762,7.39954,35.9023,0.0167906,0.00251513,-0.0077969,0.0202236,-0.000917792,-0.414753,0.0137985,0.0301689,1301,1786,7.39948,-35.9023
84,-762,7.42078,35.9038,0.0124288,0.00393302,-0.00630336,0.015782,0.000579791,-0.488898,0.0103335,0.0369623,1308,1786,7.42083,-35.9038
91,-762,7.42371,35.9291,0.00738138,0.00405705,-0.00408928,0.0101334,0.00130503,-0.592362,0.00636534,0.0459185,1315,1786,7.42376,-35.9291
98,-762,7.25562,35.975,0.00199461,0.00371801,-0.00194385,0.00498259,0.000730027,-0.994029,0.00310711,0.0475053,1322,1786,7.25556,-35.975
105,-762,7.22839,35.8464,-0.00352569,0.00278765,0.000114815,0.00278974,-0.00352778,1.55262,0.00365571,0.045076,1329,1786,7.22844,-35.8464
112,-762,7.19592,35.6304,0,0,0,0,0,0,0,-1,1336,1786,7.19593,-35.6304
119,-762,7.16724,35.6107,-0.0136305,-0.000750159,0.00295062,-0.000106404,-0.0142742,1.35599,0.00948088,0.0458386,1343,1786,7.1672,-35.6107
126,-762,7.04053,35.9281,-0.0177725,-0.00228875,0.00368284,-0.00145742,-0.0186038,1.34879,0.0119464,0.0486784,1350,1786,7.04049,-35.9281
133,-762,6.82336,35.7957,-0.0210439,-0.00348984,0.00398975,-0.00262558,-0.0219082,1.35747,0.0138137,0.0485473,1357,1786,6.82333,-35.7957
140,-762,6.35425,35.2961,0,0,0,0,0,0,0,-1,1364,1786,6.35421,-35.2962
147,-762,6.9104,35.3146,0,0,0,0,0,0,0,-1,1371,1786,6.9104,-35.3146
154,-762,7.46655,35.333,0,0,0,0,0,0,0,-1,1378,1786,7.46658,-35.333
161,-762,8.65051,34.8102,0,0,0,0,0,0,0,-1,1385,1786,8.65054,-34.8101
168,-762,8.19287,0.880615,0,0,0,0,0,0,0,-1,1392,1786,8.19291,-0.880603
175,-762,8.33997,1.95947,0,0,0,0,0,0,0,-1,1399,1786,8.33997,-1.95942
182,-762,8.28418,3.56482,0,0,0,0,0,0,0,-1,1406,1786,8.28415,-3.56485
189,-762,8.21179,5.23389,0,0,0,0,0,0,0,-1,1413,1786,8.21183,-5.23383
196,-762,8.05969,6.95483,0,0,0,0,0,0,0,-1,1420,1786,8.05972,-6.9548
203,-762,24.0077,7.10425,0,0,0,0,0,0,0,-1,1427,1786,24.0077,-7.10426
210,-762,23.8073,7.6499,0,0,0,0,0,0,0,-1,1434,1786,23.8073,-7.64987
217,-762,23.3193,8.24426,0,0,0,0,0,0,0,-1,1441,1786,23.3194,-8.2442
224,-762,2.65149,20.6106,0,0,0,0,0,0,0,-1,1448,1786,2.65153,-20.6106
231,-762,5.46655,23.521,0,0,0,0,0,0,0,-1,1455,1786,5.46653,-23.521
238,-762,5.35632,29.7203,0,0,0,0,0,0,0,-1,1462,1786,5.35629,-29.7203
245,-762,5.84509,28.6954,0,0,0,0,0,0,0,-1,1469,1786,5.84509,-28.6954
252,-762,5.82837,27.7246,0,0,0,0,0,0,0,-1,1476,1786,5.82839,-27.7247
259,-762,10.7311,18.3031,0,0,0,0,0,0,0,-1,1483,1786,10.7311,-18.3031
266,-762,16.451,7.67773,0,0,0,0,0,0,0,-1,1490,1786,16.4511,-7.67773
273,-762,15.287,7.5304,0,0,0,0,0,0,0,-1,1497,1786,15.2869,-7.53044
280,-762,14.1501,7.38379,0,0,0,0,0,0,0,-1,1504,1786,14.1502,-7.38376
287,-762,12.6891,7.99133,0,0,0,0,0,0,0,-1,1511,1786,12.6891,-7.99135
294,-762,12.6959,8.30371,0,0,0,0,0,0,0,-1,1518,1786,12.6959,-8.30368
301,-762,11.4222,8.84143,0,0,0,0,0,0,0,-1,1525,1786,11.4223,-8.84149
308,-762,0,0,0,0,0,0,0,0,0,-1,1532,1786,0,0
315,-762,0,0,0,0,0,0,0,0,0,-1,1539,1786,0,0
322,-762,0,0,0,0,0,0,0,0,0,-1,1546,1786,0,0
329,-762,0,0,0,0,0,0,0,0,0,-1,1553,1786,0,0
336,-762,0,0,0,0,0,0,0,0,0,-1,1560,1786,0,0
343,-762,0,0,0,0,0,0,0,0,0,-1,1567,1786,0,0
350,-762,0,0,0,0,0,0,0,0,0,-1,1574,1786,0,0
357,-762,0,0,0,0,0,0,0,0,0,-1,1581,1786,0,0
364,-762,0,0,0,0,0,0,0,0,0,-1,1588,1786,0,0
371,-762,0,0,0,0,0,0,0,0,0,-1,1595,1786,0,0
378,-762,0,0,0,0,0,0,0,0,0,-1,1602,1786,0,0
385,-762,0,0,0,0,0,0,0,0,0,-1,1609,1786,0,0
392,-762,0,0,0,0,0,0,0,0,0,-1,1616,1786,0,0
399,-762,0,0,0,0,0,0,0,0,0,-1,1623,1786,0,0
406,-762,0,0,0,0,0,0,0,0,0,-1,1630,1786,0,0
413,-762,0,0,0,0,0,0,0,0,0,-1,1637,1786,0,0
420,-762,0,0,0,0,0,0,0,0,0,-1,1644,1786,0,0
427,-762,0,0,0,0,0,0,0,0,0,-1,1651,1786,0,0
434,-762,0,0,0,0,0,0,0,0,0,-1,1658,1786,0,0
441,-762,0,0,0,0,0,0,0,0,0,-1,1665,1786,0,0
448,-762,0,0,0,0,0,0,0,0,0,-1,1672,1786,0,0
455,-762,0,0,0,0,0,0,0,0,0,-1,1679,1786,0,0
462,-762,0,0,0,0,0,0,0,0,0,-1,1686,1786,0,0
469,-762,0,0,0,0,0,0,0,0,0,-1,1693,1786,0,0
476,-762,0,0,0,0,0,0,0,0,0,-1,1700,1786,0,0
483,-762,0,0,0,0,0,0,0,0,0,-1,1707,1786,0,0
490,-762,0,0,0,0,0,0,0,0,0,-1,1714,1786,0,0
497,-762,0,0,0,0,0,0,0,0,0,-1,1721,1786,0,0
504,-762,0,0,0,0,0,0,0,0,0,-1,1728,1786,0,0
511,-762,0,0,0,0,0,0,0,0,0,-1,1735,1786,0,0
518,-762,0,0,0,0,0,0,0,0,0,-1,1742,1786,0,0
525,-762,0,0,0,0,0,0,0,0,0,-1,1749,1786,0,0
532,-762,0,0,0,0,0,0,0,0,0,-1,1756,1786,0,0
539,-762,0,0,0,0,0,0,0,0,0,-1,1763,1786,0,0
546,-762,0,0,0,0,0,0,0,0,0,-1,1770,1786,0,0
553,-762,0,0,0,0,0,0,0,0,0,-1,1777,1786,0,0
560,-762,0,0,0,0,0,0,0,0,0,-1,1784,1786,0,0
567,-762,0,0,0,0,0,0,0,0,0,-1,1791,1786,0,0
574,-762,0,0,0,0,0,0,0,0,0,-1,1798,1786,0,0
581,-762,0,0,0,0,0,0,0,0,0,-1,1805,1786,0,0
588,-762,0,0,0,0,0,0,0,0,0,-1,1812,1786,0,0
595,-762,0,0,0,0,0,0,0,0,0,-1,1819,1786,0,0
602,-762,0,0,0,0,0,0,0,0,0,-1,1826,1786,0,0
609,-762,0,0,0,0,0,0,0,0,0,-1,1833,1786,0,0
616,-762,0,0,0,0,0,0,0,0,0,-1,1840,1786,0,0
623,-762,0,0,0,0,0,0,0,0,0,-1,1847,1786,0,0
630,-762,0,0,0,0,0,0,0,0,0,-1,1854,1786,0,0
637,-762,0,0,0,0,0,0,0,0,0,-1,1861,1786,0,0
644,-762,0,0,0,0,0,0,0,0,0,-1,1868,1786,0,0
651,-762,0,0,0,0,0,0,0,0,0,-1,1875,1786,0,0
658,-762,0,0,0,0,0,0,0,0,0,-1,1882,1786,0,0
665,-762,0,0,0,0,0,0,0,0,0,-1,1889,1786,0,0
672,-762,0,0,0,0,0,0,0,0,0,-1,1896,1786,0,0
679,-762,0,0,0,0,0,0,0,0,0,-1,1903,1786,0,0
686,-762,0,0,0,0,0,0,0,0,0,-1,1910,1786,0,0
693,-762,0,0,0,0,0,0,0,0,0,-1,1917,1786,0,0
700,-762,0,0,0,0,0,0,0,0,0,-1,1924,1786,0,0
707,-762,0,0,0,0,0,0,0,0,0,-1,1931,1786,0,0
714,-762,0,0,0,0,0,0,0,0,0,-1,1938,1786,0,0
721,-762,0,0,0,0,0,0,0,0,0,-1,1945,1786,0,0
728,-762,0,0,0,0,0,0,0,0,0,-1,1952,1786,0,0
735,-762,0,0,0,0,0,0,0,0,0,-1,1959,1786,0,0
742,-762,0,0,0,0,0,0,0,0,0,-1,1966,1786,0,0
749,-762,0,0,0,0,0,0,0,0,0,-1,1973,1786,0,0
756,-762,0,0,0,0,0,0,0,0,0,-1,1980,1786,0,0
763,-762,0,0,0,0,0,0,0,0,0,-1,1987,1786,0,0
770,-762,0,0,0,0,0,0,0,0,0,-1,1994,1786,0,0
777,-762,0,0,0,0,0,0,0,0,0,-1,2001,1786,0,0
784,-762,0,0,0,0,0,0,0,0,0,-1,2008,1786,0,0
791,-762,0,0,0,0,0,0,0,0,0,-1,2015,1786,0,0
798,-762,0,0,0,0,0,0,0,0,0,-1,2022,1786,0,0
805,-762,0,0,0,0,0,0,0,0,0,-1,2029,1786,0,0
812,-762,0,0,0,0,0,0,0,0,0,-1,2036,1786,0,0
-700,-769,0,0,0,0,0,0,0,0,0,-1,524,1793,0,0
-693,-769,0,0,0,0,0,0,0,0,0,-1,531,1793,0,0
-686,-769,0,0,0,0,0,0,0,0,0,-1,538,1793,0,0
-679,-769,0,0,0,0,0,0,0,0,0,-1,545,1793,0,0
-672,-769,0,0,0,0,0,0,0,0,0,-1,552,1793,0,0
-665,-769,0,0,0,0,0,0,0,0,0,-1,559,1793,0,0
-658,-769,0,0,0,0,0,0,0,0,0,-1,566,1793,0,0
-651,-769,0,0,0,0,0,0,0,0,0,-1,573,1793,0,0
-644,-769,0,0,0,0,0,0,0,0,0,-1,580,1793,0,0
-637,-769,0,0,0,0,0,0,0,0,0,-1,587,1793,0,0
-630,-769,0,0,0,0,0,0,0,0,0,-1,594,1793,0,0
-623,-769,0,0,0,0,0,0,0,0,0,-1,601,1793,0,0
-616,-769,0,0,0,0,0,0,0,0,0,-1,608,1793,0,0
-609,-769,0,0,0,0,0,0,0,0,0,-1,615,1793,0,0
-602,-769,0,0,0,0,0,0,0,0,0,-1,622,1793,0,0
-595,-769,0,0,0,0,0,0,0,0,0,-1,629,1793,0,0
-588,-769,0,0,0,0,0,0,0,0,0,-1,636,1793,0,0
-581,-769,0,0,0,0,0,0,0,0,0,-1,643,1793,0,0
-574,-769,0,0,0,0,0,0,0,0,0,-1,650,1793,0,0
-567,-769,0,0,0,0,0,0,0,0,0,-1,657,1793,0,0
-560,-769,0,0,0,0,0,0,0,0,0,-1,664,1793,0,0
-553,-769,0,0,0,0,0,0,0,0,0,-1,671,1793,0,0
-546,-769,0,0,0,0,0,0,0,0,0,-1,678,1793,0,0
-539,-769,0,0,0,0,0,0,0,0,0,-1,685,1793,0,0
-532,-769,0,0,0,0,0,0,0,0,0,-1,692,1793,0,0
-525,-769,0,0,0,0,0,0,0,0,0,-1,699,1793,0,0
-518,-769,0,0,0,0,0,0,0,0,0,-1,706,1793,0,0
-511,-769,0,0,0,0,0,0,0,0,0,-1,713,1793,0,0
-504,-769,0,0,0,0,0,0,0,0,0,-1,720,1793,0,0
-497,-769,0,0,0,0,0,0,0,0,0,-1,727,1793,0,0
-490,-769,0,0,0,0,0,0,0,0,0,-1,734,1793,0,0
-483,-769,0,0,0,0,0,0,0,0,0,-1,741,1793,0,0
-476,-769,0,0,0,0,0,0,0,0,0,-1,748,1793,0,0
-469,-769,0,0,0,0,0,0,0,0,0,-1,755,1793,0,0
-462,-769,0,0,0,0,0,0,0,0,0,-1,762,1793,0,0
-455,-769,0,0,0,0,0,0,0,0,0,-1,769,1793,0,0
-448,-769,0,0,0,0,0,0,0,0,0,-1,776,1793,0,0
-441,-769,0,0,0,0,0,0,0,0,0,-1,783,1793,0,0
-434,-769,0,0,0,0,0,0,0,0,0,-1,790,1793,0,0
-427,-769,0,0,0,0,0,0,0,0,0,-1,797,1793,0,0
-420,-769,0,0,0,0,0,0,0,0,0,-1,804,1793,0,0
-413,-769,0,0,0,0,0,0,0,0,0,-1,811,1793,0,0
-406,-769,0,0,0,0,0,0,0,0,0,-1,818,1793,0,0
-399,-769,0,0,0,0,0,0,0,0,0,-1,825,1793,0,0
-392,-769,0,0,0,0,0,0,0,0,0,-1,832,1793,0,0
-385,-769,0,0,0,0,0,0,0,0,0,-1,839,1793,0,0
-378,-769,0,0,0,0,0,0,0,0,0,-1,846,1793,0,0
-371,-769,0,0,0,0,0,0,0,0,0,-1,853,1793,0,0
-364,-769,0,0,0,0,0,0,0,0,0,-1,860,1793,0,0
-357,-769,0,0,0,0,0,0,0,0,0,-1,867,1793,0,0
-350,-769,0,0,0,0,0,0,0,0,0,-1,874,1793,0,0
-343,-769,0,0,0,0,0,0,0,0,0,-1,881,1793,0,0
-336,-769,0,0,0,0,0,0,0,0,0,-1,888,1793,0,0
-329,-769,0,0,0,0,0,0,0,0,0,-1,895,1793,0,0
-322,-769,0,0,0,0,0,0,0,0,0,-1,902,1793,0,0
-315,-769,0,0,0,0,0,0,0,0,0,-1,909,1793,0,0
-308,-769,0,0,0,0,0,0,0,0,0,-1,916,1793,0,0
-301,-769,0,0,0,0,0,0,0,0,0,-1,923,1793,0,0
-294,-769,0,0,0,0,0,0,0,0,0,-1,930,1793,0,0
-287,-769,0,0,0,0,0,0,0,0,0,-1,937,1793,0,0
-280,-769,0,0,0,0,0,0,0,0,0,-1,944,1793,0,0
-273,-769,0,0,0,0,0,0,0,0,0,-1,951,1793,0,0
-266,-769,0,0,0,0,0,0,0,0,0,-1,958,1793,0,0
-259,-769,0,0,0,0,0,0,0,0,0,-1,965,1793,0,0
-252,-769,0,0,0,0,0,0,0,0,0,-1,972,1793,0,0
-245,-769,0,0,0,0,0,0,0,0,0,-1,979,1793,0,0
-238,-769,0,0,0,0,0,0,0,0,0,-1,986,1793,0,0
-231,-769,0,0,0,0,0,0,0,0,0,-1,993,1793,0,0
-224,-769,0,0,0,0,0,0,0,0,0,-1,1000,1793,0,0
-217,-769,0,0,0,0,0,0,0,0,0,-1,1007,1793,0,0
-210,-769,0,0,0,0,0,0,0,0,0,-1,1014,1793,0,0
-203,-769,0,0,0,0,0,0,0,0,0,-1,1021,1793,0,0
-196,-769,0,0,0,0,0,0,0,0,0,-1,1028,1793,0,0
-189,-769,0,0,0,0,0,0,0,0,0,-1,1035,1793,0,0
-182,-769,0,0,0,0,0,0,0,0,0,-1,1042,1793,0,0
-175,-769,0,0,0,0,0,0,0,0,0,-1,1049,1793,0,0
-168,-769,0,0,0,0,0,0,0,0,0,-1,1056,1793,0,0
-161,-769,-3.61145,12.4761,0,0,0,0,0,0,0,-1,1063,1793,-3.6114,-12.476
-154,-769,-0.813232,5.32874,0,0,0,0,0,0,0,-1,1070,1793,-0.813269,-5.32872
-147,-769,4.26587,4.7002,0,0,0,0,0,0,0,-1,1077,1793,4.26593,-4.70022
-140,-769,4.10376,5.28589,0,0,0,0,0,0,0,-1,1084,1793,4.10371,-5.28584
-133,-769,6.422,8.21777,0,0,0,0,0,0,0,-1,1091,1793,6.42198,-8.21773
-126,-769,-0.352295,19.326,0,0,0,0,0,0,0,-1,1098,1793,-0.352235,-19.326
-119,-769,6.01685,16.2577,0,0,0,0,0,0,0,-1,1105,1793,6.01689,-16.2576
-112,-769,5.76416,27.2615,0,0,0,0,0,0,0,-1,1112,1793,5.7642,-27.2615
-105,-769,4.97009,22.8479,0,0,0,0,0,0,0,-1,1119,1793,4.97006,-22.8479
-98,-769,4.69373,18.9142,0,0,0,0,0,0,0,-1,1126,1793,4.69376,-18.9142
-91,-769,4.41748,14.9805,0,0,0,0,0,0,0,-1,1133,1793,4.41746,-14.9805
-84,-769,3.2207,12.4565,0,0,0,0,0,0,0,-1,1140,1793,3.22066,-12.4565
-77,-769,2.48816,8.98486,0,0,0,0,0,0,0,-1,1147,1793,2.48815,-8.98489
-70,-769,1.04944,11.9852,0,0,0,0,0,0,0,-1,1154,1793,1.04947,-11.9852
-63,-769,-2.39709,9.60339,0,0,0,0,0,0,0,-1,1161,1793,-2.39706,-9.6034
-56,-769,-5.84363,7.22156,0,0,0,0,0,0,0,-1,1168,1793,-5.84359,-7.22157
-49,-769,-2.41443,3.95471,0,0,0,0,0,0,0,-1,1175,1793,-2.41446,-3.95471
-42,-769,-3.1991,2.64941,0,0,0,0,0,0,0,-1,1182,1793,-3.19914,-2.64944
-35,-769,-3.50183,1.73389,0,0,0,0,0,0,0,-1,1189,1793,-3.50189,-1.7339
-28,-769,-3.96985,1.14075,0,0,0,0,0,0,0,-1,1196,1793,-3.96985,-1.14078
-21,-769,7.97278,33.8591,0,0,0,0,0,0,0,-1,1203,1793,7.97275,-33.8592
-14,-769,7.97534,33.5166,0,0,0,0,0,0,0,-1,1210,1793,7.97537,-33.5166
-7,-769,7.78235,35.9327,0,0,0,0,0,0,0,-1,1217,1793,7.78239,-35.9328
0,-769,7.74841,35.7073,0.0162472,0.0255557,0.00112397,0.0256895,0.0161135,1.45232,0.0149911,0.0494394,1224,1793,7.74844,-35.7072
7,-769,7.73047,35.4668,0.0188689,0.0230105,0.000138947,0.0230151,0.0188643,1.5373,0.014164,0.0450668,1231,1793,7.73051,-35.4668
14,-769,7.75891,35.3676,0.0222806,0.0198741,-0.00146203,0.0229708,0.0191838,-0.441095,0.0142206,0.0430266,1238,1793,7.75892,-35.3675
21,-769,7.66895,35.2394,0,0,0,0,0,0,0,-1,1245,1793,7.6689,-35.2393
28,-769,6.75317,36.6534,0.0299217,0.0134067,-0.00768513,0.0329446,0.0103838,-0.374756,0.0194488,0.0432928,1252,1793,6.75314,-36.6534
35,-769,7.2063,36.5471,0.033746,0.0107536,-0.0116185,0.0385946,0.00590498,-0.395345,0.0240047,0.0472326,1259,1793,7.20628,-36.5471
42,-769,7.5957,36.4904,0.0356282,0.00949421,-0.0128094,0.0408595,0.00426291,-0.387722,0.0259357,0.0470765,1266,1793,7.59564,-36.4904
49,-769,7.94543,36.6443,0.0358525,0.0084271,-0.0129428,0.040996,0.00328363,-0.378262,0.0263045,0.0440935,1273,1793,7.94549,-36.6443
56,-769,7.96667,36.4701,0.0366454,0.00827362,-0.0137458,0.0422126,0.00270641,-0.384821,0.0272844,0.0460058,1280,1793,7.96665,-36.4701
63,-769,7.80676,36.4363,0,0,0,0,0,0,0,-1,1287,1793,7.80681,-36.4362
70,-769,7.5199,35.8846,0.0308044,0.00710482,-0.0124426,0.036137,0.00177222,-0.404897,0.0235229,0.0406379,1294,1793,7.51995,-35.8846
77,-769,7.40393,35.7871,0.0254398,0.00507182,-0.0106724,0.0300075,0.000504057,-0.404406,0.0198391,0.0473395,1301,1793,7.40391,-35.7871
84,-769,7.53455,35.9298,0,0,0,0,0,0,0,-1,1308,1793,7.53449,-35.9298
91,-769,7.49902,35.9009,0.0124481,0.00628913,-0.00523843,0.0154451,0.00329206,-0.519676,0.00939369,0.0466738,1315,1793,7.49904,-35.9009
98,-769,7.70923,35.6166,0.00489048,0.00549257,-0.00216793,0.00738025,0.00300279,-0.854388,0.00428556,0.0464833,1322,1793,7.70918,-35.6166
105,-769,7.69287,35.5861,0,0,0,0,0,0,0,-1,1329,1793,7.69291,-35.586
112,-769,7.00305,35.2697,-0.0105752,0.00157974,0.00310513,0.00232704,-0.0113225,1.33462,0.00843173,0.045445,1336,1793,7.00308,-35.2696
119,-769,7.14746,35.4121,-0.0178132,-0.000900438,0.00444919,0.000198581,-0.0189122,1.32863,0.0126749,0.0453929,1343,1793,7.14741,-35.4121
126,-769,6.89417,36.0428,0,0,0,0,0,0,0,-1,1350,1793,6.89414,-36.0429
133,-769,6.66003,35.8517,0,0,0,0,0,0,0,-1,1357,1793,6.66006,-35.8516
140,-769,5.50537,34.2649,0,0,0,0,0,0,0,-1,1364,1793,5.50536,-34.2649
147,-769,6.72046,35.2328,0,0,0,0,0,0,0,-1,1371,1793,6.72045,-35.2328
154,-769,7.76904,34.4832,0,0,0,0,0,0,0,-1,1378,1793,7.7691,-34.4832
161,-769,6.57019,1.53223,0,0,0,0,0,0,0,-1,1385,1793,6.57019,-1.53226
168,-769,8.27637,0.756958,0,0,0,0,0,0,0,-1,1392,1793,8.27639,-0.756944
175,-769,8.47144,2.41174,0,0,0,0,0,0,0,-1,1399,1793,8.47147,-2.4118
182,-769,8.41479,4.05994,0,0,0,0,0,0,0,-1,1406,1793,8.41479,-4.05997
189,-769,8.25049,5.68433,0,0,0,0,0,0,0,-1,1413,1793,8.25054,-5.68428
196,-769,7.97729,7.42847,0,0,0,0,0,0,0,-1,1420,1793,7.9773,-7.42848
203,-769,22.0977,6.73889,0,0,0,0,0,0,0,-1,1427,1793,22.0977,-6.7389
210,-769,22.1115,7.77246,0,0,0,0,0,0,0,-1,1434,1793,22.1115,-7.77248
217,-769,22.4723,8.79102,0,0,0,0,0,0,0,-1,1441,1793,22.4723,-8.79099
224,-769,22.1348,9.35278,0,0,0,0,0,0,0,-1,1448,1793,22.1348,-9.35283
231,-769,3.13318,19.7184,0,0,0,0,0,0,0,-1,1455,1793,3.13323,-19.7184
238,-769,5.74512,18.6597,0,0,0,0,0,0,0,-1,1462,1793,5.74512,-18.6596
245,-769,5.80798,22.87,0,0,0,0,0,0,0,-1,1469,1793,5.80796,-22.87
252,-769,8.39099,20.3199,0,0,0,0,0,0,0,-1,1476,1793,8.39098,-20.3199
259,-769,10.974,17.7698,0,0,0,0,0,0,0,-1,1483,1793,10.974,-17.7698
266,-769,15.8488,7.3905,0,0,0,0,0,0,0,-1,1490,1793,15.8488,-7.39046
273,-769,14.8075,7.56152,0,0,0,0,0,0,0,-1,1497,1793,14.8075,-7.56152
280,-769,13.6519,7.43054,0,0,0,0,0,0,0,-1,1504,1793,13.6518,-7.43058
287,-769,0,0,0,0,0,0,0,0,0,-1,1511,1793,0,0
294,-769,0,0,0,0,0,0,0,0,0,-1,1518,1793,0,0
301,-769,0,0,0,0,0,0,0,0,0,-1,1525,1793,0,0
308,-769,0,0,0,0,0,0,0,0,0,-1,1532,1793,0,0
315,-769,0,0,0,0,0,0,0,0,0,-1,1539,1793,0,0
322,-769,0,0,0,0,0,0,0,0,0,-1,1546,1793,0,0
329,-769,0,0,0,0,0,0,0,0,0,-1,1553,1793,0,0
336,-769,0,0,0,0,0,0,0,0,0,-1,1560,1793,0,0
343,-769,0,0,0,0,0,0,0,0,0,-1,1567,1793,0,0
350,-769,0,0,0,0,0,0,0,0,0,-1,1574,1793,0,0
357,-769,0,0,0,0,0,0,0,0,0,-1,1581,1793,0,0
364,-769,0,0,0,0,0,0,0,0,0,-1,1588,1793,0,0
371,-769,0,0,0,0,0,0,0,0,0,-1,1595,1793,0,0
378,-769,0,0,0,0,0,0,0,0,0,-1,1602,1793,0,0
385,-769,0,0,0,0,0,0,0,0,0,-1,1609,1793,0,0
392,-769,0,0,0,0,0,0,0,0,0,-1,1616,1793,0,0
399,-769,0,0,0,0,0,0,0,0,0,-1,1623,1793,0,0
406,-769,0,0,0,0,0,0,0,0,0,-1,1630,1793,0,0
413,-769,0,0,0,0,0,0,0,0,0,-1,1637,1793,0,0
420,-769,0,0,0,0,0,0,0,0,0,-1,1644,1793,0,0
427,-769,0,0,0,0,0,0,0,0,0,-1,1651,1793,0,0
434,-769,0,0,0,0,0,0,0,0,0,-1,1658,1793,0,0
441,-769,0,0,0,0,0,0,0,0,0,-1,1665,1793,0,0
448,-769,0,0,0,0,0,0,0,0,0,-1,1672,1793,0,0
455,-769,0,0,0,0,0,0,0,0,0,-1,1679,1793,0,0
462,-769,0,0,0,0,0,0,0,0,0,-1,1686,1793,0,0
469,-769,0,0,0,0,0,0,0,0,0,-1,1693,1793,0,0
476,-769,0,0,0,0,0,0,0,0,0,-1,1700,1793,0,0
483,-769,0,0,0,0,0,0,0,0,0,-1,1707,1793,0,0
490,-769,0,0,0,0,0,0,0,0,0,-1,1714,1793,0,0
497,-769,0,0,0,0,0,0,0,0,0,-1,1721,1793,0,0
504,-769,0,0,0,0,0,0,0,0,0,-1,1728,1793,0,0
511,-769,0,0,0,0,0,0,0,0,0,-1,1735,1793,0,0
518,-769,0,0,0,0,0,0,0,0,0,-1,1742,1793,0,0
525,-769,0,0,0,0,0,0,0,0,0,-1,1749,1793,0,0
532,-769,0,0,0,0,0,0,0,0,0,-1,1756,1793,0,0
539,-769,0,0,0,0,0,0,0,0,0,-1,1763,1793,0,0
546,-769,0,0,0,0,0,0,0,0,0,-1,1770,1793,0,0
553,-769,0,0,0,0,0,0,0,0,0,-1,1777,1793,0,0
560,-769,0,0,0,0,0,0,0,0,0,-1,1784,1793,0,0
567,-769,0,0,0,0,0,0,0,0,0,-1,1791,1793,0,0
574,-769,0,0,0,0,0,0,0,0,0,-1,1798,1793,0,0
581,-769,0,0,0,0,0,0,0,0,0,-1,1805,1793,0,0
588,-769,0,0,0,0,0,0,0,0,0,-1,1812,1793,0,0
595,-769,0,0,0,0,0,0,0,0,0,-1,1819,1793,0,0
602,-769,0,0,0,0,0,0,0,0,0,-1,1826,1793,0,0
609,-769,0,0,0,0,0,0,0,0,0,-1,1833,1793,0,0
616,-769,0,0,0,0,0,0,0,0,0,-1,1840,1793,0,0
623,-769,0,0,0,0,0,0,0,0,0,-1,1847,1793,0,0
630,-769,0,0,0,0,0,0,0,0,0,-1,1854,1793,0,0
637,-769,0,0,0,0,0,0,0,0,0,-1,1861,1793,0,0
644,-769,0,0,0,0,0,0,0,0,0,-1,1868,1793,0,0
651,-769,0,0,0,0,0,0,0,0,0,-1,1875,1793,0,0
658,-769,0,0,0,0,0,0,0,0,0,-1,1882,1793,0,0
665,-769,0,0,0,0,0,0,0,0,0,-1,1889,1793,0,0
672,-769,0,0,0,0,0,0,0,0,0,-1,1896,1793,0,0
679,-769,0,0,0,0,0,0,0,0,0,-1,1903,1793,0,0
686,-769,0,0,0,0,0,0,0,0,0,-1,1910,1793,0,0
693,-769,0,0,0,0,0,0,0,0,0,-1,1917,1793,0,0
700,-769,0,0,0,0,0,0,0,0,0,-1,1924,1793,0,0
707,-769,0,0,0,0,0,0,0,0,0,-1,1931,1793,0,0
714,-769,0,0,0,0,0,0,0,0,0,-1,1938,1793,0,0
721,-769,0,0,0,0,0,0,0,0,0,-1,1945,1793,0,0
728,-769,0,0,0,0,0,0,0,0,0,-1,1952,1793,0,0
735,-769,0,0,0,0,0,0,0,0,0,-1,1959,1793,0,0
742,-769,0,0,0,0,0,0,0,0,0,-1,1966,1793,0,0
749,-769,0,0,0,0,0,0,0,0,0,-1,1973,1793,0,0
756,-769,0,0,0,0,0,0,0,0,0,-1,1980,1793,0,0
763,-769,0,0,0,0,0,0,0,0,0,-1,1987,1793,0,0
770,-769,0,0,0,0,0,0,0,0,0,-1,1994,1793,0,0
777,-769,0,0,0,0,0,0,0,0,0,-1,2001,1793,0,0
784,-769,0,0,0,0,0,0,0,0,0,-1,2008,1793,0,0
791,-769,0,0,0,0,0,0,0,0,0,-1,2015,1793,0,0
798,-769,0,0,0,0,0,0,0,0,0,-1,2022,1793,0,0
805,-769,0,0,0,0,0,0,0,0,0,-1,2029,1793,0,0
812,-769,0,0,0,0,0,0,0,0,0,-1,2036,1793,0,0
-700,-776,0,0,0,0,0,0,0,0,0,-1,524,1800,0,0
-693,-776,0,0,0,0,0,0,0,0,0,-1,531,1800,0,0
-686,-776,0,0,0,0,0,0,0,0,0,-1,538,1800,0,0
-679,-776,0,0,0,0,0,0,0,0,0,-1,545,1800,0,0
-672,-776,0,0,0,0,0,0,0,0,0,-1,552,1800,0,0
-665,-776,0,0,0,0,0,0,0,0,0,-1,559,1800,0,0
-658,-776,0,0,0,0,0,0,0,0,0,-1,566,1800,0,0
-651,-776,0,0,0,0,0,0,0,0,0,-1,573,1800,0,0
-644,-776,0,0,0,0,0,0,0,0,0,-1,580,1800,0,0
-637,-776,0,0,0,0,0,0,0,0,0,-1,587,1800,0,0
-630,-776,0,0,0,0,0,0,0,0,0,-1,594,1800,0,0
-623,-776,0,0,0,0,0,0,0,0,0,-1,601,1800,0,0
-616,-776,0,0,0,0,0,0,0,0,0,-1,608,1800,0,0
-609,-776,0,0,0,0,0,0,0,0,0,-1,615,1800,0,0
-602,-776,0,0,0,0,0,0,0,0,0,-1,622,1800,0,0
-595,-776,0,0,0,0,0,0,0,0,0,-1,629,1800,0,0
-588,-776,0,0,0,0,0,0,0,0,0,-1,636,1800,0,0
-581,-776,0,0,0,0,0,0,0,0,0,-1,643,1800,0,0
-574,-776,0,0,0,0,0,0,0,0,0,-1,650,1800,0,0
-567,-776,0,0,0,0,0,0,0,0,0,-1,657,1800,0,0
-560,-776,0,0,0,0,0,0,0,0,0,-1,664,1800,0,0
-553,-776,0,0,0,0,0,0,0,0,0,-1,671,1800,0,0
-546,-776,0,0,0,0,0,0,0,0,0,-1,678,1800,0,0
-539,-776,0,0,0,0,0,0,0,0,0,-1,685,1800,0,0
-532,-776,0,0,0,0,0,0,0,0,0,-1,692,1800,0,0
-525,-776,0,0,0,0,0,0,0,0,0,-1,699,1800,0,0
-518,-776,0,0,0,0,0,0,0,0,0,-1,706,1800,0,0
-511,-776,0,0,0,0,0,0,0,0,0,-1,713,1800,0,0
-504,-776,0,0,0,0,0,0,0,0,0,-1,720,1800,0,0
-497,-776,0,0,0,0,0,0,0,0,0,-1,727,1800,0,0
-490,-776,0,0,0,0,0,0,0,0,0,-1,734,1800,0,0
-483,-776,0,0,0,0,0,0,0,0,0,-1,741,1800,0,0
-476,-776,0,0,0,0,0,0,0,0,0,-1,748,1800,0,0
-469,-776,0,0,0,0,0,0,0,0,0,-1,755,1800,0,0
-462,-776,0,0,0,0,0,0,0,0,0,-1,762,1800,0,0
-455,-776,0,0,0,0,0,0,0,0,0,-1,769,1800,0,0
-448,-776,0,0,0,0,0,0,0,0,0,-1,776,1800,0,0
-441,-776,0,0,0,0,0,0,0,0,0,-1,783,1800,0,0
-434,-776,0,0,0,0,0,0,0,0,0,-1,790,1800,0,0
-427,-776,0,0,0,0,0,0,0,0,0,-1,797,1800,0,0
-420,-776,0,0,0,0,0,0,0,0,0,-1,804,1800,0,0
-413,-776,0,0,0,0,0,0,0,0,0,-1,811,1800,0,0
-406,-776,0,0,0,0,0,0,0,0,0,-1,818,1800,0,0
-399,-776,0,0,0,0,0,0,0,0,0,-1,825,1800,0,0
-392,-776,0,0,0,0,0,0,0,0,0,-1,832,1800,0,0
-385,-776,0,0,0,0,0,0,0,0,0,-1,839,1800,0,0
-378,-776,0,0,0,0,0,0,0,0,0,-1,846,1800,0,0
-371,-776,0,0,0,0,0,0,0,0,0,-1,853,1800,0,0
-364,-776,0,0,0,0,0,0,0,0,0,-1,860,1800,0,0
-357,-776,0,0,0,0,0,0,0,0,0,-1,867,1800,0,0
-350,-776,0,0,0,0,0,0,0,0,0,-1,874,1800,0,0
-343,-776,0,0,0,0,0,0,0,0,0,-1,881,1800,0,0
-336,-776,0,0,0,0,0,0,0,0,0,-1,888,1800,0,0
-329,-776,0,0,0,0,0,0,0,0,0,-1,895,1800,0,0
-322,-776,0,0,0,0,0,0,0,0,0,-1,902,1800,0,0
-315,-776,0,0,0,0,0,0,0,0,0,-1,909,1800,0,0
-308,-776,0,0,0,0,0,0,0,0,0,-1,916,1800,0,0
-301,-776,0,0,0,0,0,0,0,0,0,-1,923,1800,0,0
-294,-776,0,0,0,0,0,0,0,0,0,-1,930,1800,0,0
-287,-776,0,0,0,0,0,0,0,0,0,-1,937,1800,0,0
-280,-776,0,0,0,0,0,0,0,0,0,-1,944,1800,0,0
-273,-776,0,0,0,0,0,0,0,0,0,-1,951,1800,0,0
-266,-776,0,0,0,0,0,0,0,0,0,-1,958,1800,0,0
-259,-776,0,0,0,0,0,0,0,0,0,-1,965,1800,0,0
-252,-776,0,0,0,0,0,0,0,0,0,-1,972,1800,0,0
-245,-776,0,0,0,0,0,0,0,0,0,-1,979,1800,0,0
-238,-776,0,0,0,0,0,0,0,0,0,-1,986,1800,0,0
-231,-776,0,0,0,0,0,0,0,0,0,-1,993,1800,0,0
-224,-776,0,0,0,0,0,0,0,0,0,-1,1000,1800,0,0
-217,-776,0,0,0,0,0,0,0,0,0,-1,1007,1800,0,0
-210,-776,0,0,0,0,0,0,0,0,0,-1,1014,1800,0,0
-203,-776,0,0,0,0,0,0,0,0,0,-1,1021,1800,0,0
-196,-776,0,0,0,0,0,0,0,0,0,-1,1028,1800,0,0
-189,-776,0,0,0,0,0,0,0,0,0,-1,1035,1800,0,0
-182,-776,0,0,0,0,0,0,0,0,0,-1,1042,1800,0,0
-175,-776,0,0,0,0,0,0,0,0,0,-1,1049,1800,0,0
-168,-776,0,0,0,0,0,0,0,0,0,-1,1056,1800,0,0
-161,-776,0,0,0,0,0,0,0,0,0,-1,1063,1800,0,0
-154,-776,0,0,0,0,0,0,0,0,0,-1,1070,1800,0,0
-147,-776,0,0,0,0,0,0,0,0,0,-1,1077,1800,0,0
-140,-776,2.98499,5.20911,0,0,0,0,0,0,0,-1,1084,1800,2.98493,-5.2091
-133,-776,6.72363,9.35828,0,0,0,0,0,0,0,-1,1091,1800,6.72358,-9.35824
-126,-776,6.55029,13.7832,0,0,0,0,0,0,0,-1,1098,1800,6.55029,-13.7832
-119,-776,5.72107,13.7787,0,0,0,0,0,0,0,-1,1105,1800,5.72106,-13.7787
-112,-776,6.84998,20.4421,0,0,0,0,0,0,0,-1,1112,1800,6.84993,-20.4421
-105,-776,4.46863,24.6742,0,0,0,0,0,0,0,-1,1119,1800,4.46868,-24.6742
-98,-776,4.31616,19.7659,0,0,0,0,0,0,0,-1,1126,1800,4.31619,-19.7659
-91,-776,3.30225,18.134,0,0,0,0,0,0,0,-1,1133,1800,3.30222,-18.134
-84,-776,2.67932,14.3162,0,0,0,0,0,0,0,-1,1140,1800,2.67926,-14.3161
-77,-776,0.580078,11.1272,0,0,0,0,0,0,0,-1,1147,1800,0.58002,-11.1272
-70,-776,-0.562866,12.3163,0,0,0,0,0,0,0,-1,1154,1800,-0.562897,-12.3163
-63,-776,-3.96106,9.97656,0,0,0,0,0,0,0,-1,1161,1800,-3.961,-9.97654
-56,-776,-7.35913,7.63672,0,0,0,0,0,0,0,-1,1168,1800,-7.3591,-7.63676
-49,-776,-7.62952,3.1908,0,0,0,0,0,0,0,-1,1175,1800,-7.62955,-3.19076
-42,-776,-3.41272,3.0249,0,0,0,0,0,0,0,-1,1182,1800,-3.41269,-3.02488
-35,-776,-3.71753,1.63635,0,0,0,0,0,0,0,-1,1189,1800,-3.71755,-1.63631
-28,-776,-4.03979,0.716064,0,0,0,0,0,0,0,-1,1196,1800,-4.03977,-0.716055
-21,-776,3.09473,39.1016,0,0,0,0,0,0,0,-1,1203,1800,3.09474,-39.1015
-14,-776,10.9791,36.7169,0,0,0,0,0,0,0,-1,1210,1800,10.9792,-36.717
-7,-776,7.28992,35.1909,0,0,0,0,0,0,0,-1,1217,1800,7.28997,-35.1909
0,-776,7.77063,35.4822,0,0,0,0,0,0,0,-1,1224,1800,7.7706,-35.4822
7,-776,7.75708,35.2013,0,0,0,0,0,0,0,-1,1231,1800,7.75708,-35.2013
14,-776,7.89209,35.1166,0,0,0,0,0,0,0,-1,1238,1800,7.8921,-35.1166
21,-776,7.28528,37.2266,0.0363947,0.0269295,-0.00494868,0.0385095,0.0248147,-0.403855,0.0225403,0.0440344,1245,1800,7.28531,-37.2266
28,-776,7.42029,36.9471,0.0417222,0.0226735,-0.00994408,0.0459673,0.0184284,-0.403477,0.0267124,0.0438561,1252,1800,7.42023,-36.9472
35,-776,7.32129,36.8448,0,0,0,0,0,0,0,-1,1259,1800,7.32133,-36.8448
42,-776,7.70923,36.8499,0.0494813,0.016858,-0.0172171,0.0568867,0.00945261,-0.406198,0.0351992,0.0446009,1266,1800,7.7092,-36.8499
49,-776,8.27759,37.1189,0.0497941,0.0148431,-0.0174266,0.0569982,0.00763908,-0.391999,0.0357257,0.0411044,1273,1800,8.27756,-37.1188
56,-776,8.20679,36.7853,0,0,0,0,0,0,0,-1,1280,1800,8.20679,-36.7853
63,-776,7.20837,36.4438,0,0,0,0,0,0,0,-1,1287,1800,7.20836,-36.4438
70,-776,7.92639,35.699,0,0,0,0,0,0,0,-1,1294,1800,7.92634,-35.6989
77,-776,7.49097,35.5396,0,0,0,0,0,0,0,-1,1301,1800,7.491,-35.5396
84,-776,8.02771,35.4716,0,0,0,0,0,0,0,-1,1308,1800,8.02775,-35.4716
91,-776,7.60669,35.8734,0,0,0,0,0,0,0,-1,1315,1800,7.60668,-35.8734
98,-776,7.83276,35.5449,0,0,0,0,0,0,0,-1,1322,1800,7.83276,-35.5449
105,-776,7.28052,36.168,0,0,0,0,0,0,0,-1,1329,1800,7.2805,-36.1679
112,-776,7.08337,35.866,-0.0123698,0.00222462,0.0046305,0.00356979,-0.013715,1.28808,0.0105368,0.0448445,1336,1800,7.08333,-35.866
119,-776,6.88708,35.4573,-0.0226497,-0.00095072,0.00630038,0.00074595,-0.0243464,1.30774,0.0164852,0.0417446,1343,1800,6.88709,-35.4572
126,-776,6.4657,34.9933,-0.0317304,-0.00340521,0.00696497,-0.00178523,-0.0333504,1.34227,0.0216631,0.044984,1350,1800,6.46572,-34.9933
133,-776,6.0658,34.5636,0,0,0,0,0,0,0,-1,1357,1800,6.06579,-34.5636
140,-776,4.97791,33.8979,0,0,0,0,0,0,0,-1,1364,1800,4.97796,-33.898
147,-776,4.38184,33.3923,0,0,0,0,0,0,0,-1,1371,1800,4.38185,-33.3923
154,-776,38.4338,21.854,0,0,0,0,0,0,0,-1,1378,1800,38.4339,-21.854
161,-776,6.50293,1.1731,0,0,0,0,0,0,0,-1,1385,1800,6.5029,-1.17313
168,-776,8.44971,1.22913,0,0,0,0,0,0,0,-1,1392,1800,8.44974,-1.22915
175,-776,8.61523,2.87061,0,0,0,0,0,0,0,-1,1399,1800,8.6152,-2.87063
182,-776,8.54065,4.60645,0,0,0,0,0,0,0,-1,1406,1800,8.5407,-4.60643
189,-776,8.35303,6.28223,0,0,0,0,0,0,0,-1,1413,1800,8.35297,-6.28225
196,-776,8.0387,8.21704,0,0,0,0,0,0,0,-1,1420,1800,8.03865,-8.217
203,-776,7.91736,9.79919,0,0,0,0,0,0,0,-1,1427,1800,7.91735,-9.79922
210,-776,20.2479,7.85718,0,0,0,0,0,0,0,-1,1434,1800,20.248,-7.85719
217,-776,21.5171,9.3418,0,0,0,0,0,0,0,-1,1441,1800,21.5171,-9.34182
224,-776,3.09253,14.9313,0,0,0,0,0,0,0,-1,1448,1800,3.09254,-14.9313
231,-776,20.8671,9.21057,0,0,0,0,0,0,0,-1,1455,1800,20.867,-9.21054
238,-776,20.7511,9.05847,0,0,0,0,0,0,0,-1,1462,1800,20.7511,-9.05848
245,-776,3.80823,15.4108,0,0,0,0,0,0,0,-1,1469,1800,3.80826,-15.4108
252,-776,8.57837,20.2009,0,0,0,0,0,0,0,-1,1476,1800,8.57841,-20.2009
259,-776,14.1882,7.69055,0,0,0,0,0,0,0,-1,1483,1800,14.1882,-7.69061
266,-776,0,0,0,0,0,0,0,0,0,-1,1490,1800,0,0
273,-776,0,0,0,0,0,0,0,0,0,-1,1497,1800,0,0
280,-776,0,0,0,0,0,0,0,0,0,-1,1504,1800,0,0
287,-776,0,0,0,0,0,0,0,0,0,-1,1511,1800,0,0
294,-776,0,0,0,0,0,0,0,0,0,-1,1518,1800,0,0
301,-776,0,0,0,0,0,0,0,0,0,-1,1525,1800,0,0
308,-776,0,0,0,0,0,0,0,0,0,-1,1532,1800,0,0
315,-776,0,0,0,0,0,0,0,0,0,-1,1539,1800,0,0
322,-776,0,0,0,0,0,0,0,0,0,-1,1546,1800,0,0
329,-776,0,0,0,0,0,0,0,0,0,-1,1553,1800,0,0
336,-776,0,0,0,0,0,0,0,0,0,-1,1560,1800,0,0
343,-776,0,0,0,0,0,0,0,0,0,-1,1567,1800,0,0
350,-776,0,0,0,0,0,0,0,0,0,-1,1574,1800,0,0
357,-776,0,0,0,0,0,0,0,0,0,-1,1581,1800,0,0
364,-776,0,0,0,0,0,0,0,0,0,-1,1588,1800,0,0
371,-776,0,0,0,0,0,0,0,0,0,-1,1595,1800,0,0
378,-776,0,0,0,0,0,0,0,0,0,-1,1602,1800,0,0
385,-776,0,0,0,0,0,0,0,0,0,-1,1609,1800,0,0
392,-776,0,0,0,0,0,0,0,0,0,-1,1616,1800,0,0
399,-776,0,0,0,0,0,0,0,0,0,-1,1623,1800,0,0
406,-776,0,0,0,0,0,0,0,0,0,-1,1630,1800,0,0
413,-776,0,0,0,0,0,0,0,0,0,-1,1637,1800,0,0
420,-776,0,0,0,0,0,0,0,0,0,-1,1644,1800,0,0
427,-776,0,0,0,0,0,0,0,0,0,-1,1651,1800,0,0
434,-776,0,0,0,0,0,0,0,0,0,-1,1658,1800,0,0
441,-776,0,0,0,0,0,0,0,0,0,-1,1665,1800,0,0
448,-776,0,0,0,0,0,0,0,0,0,-1,1672,1800,0,0
455,-776,0,0,0,0,0,0,0,0,0,-1,1679,1800,0,0
462,-776,0,0,0,0,0,0,0,0,0,-1,1686,1800,0,0
469,-776,0,0,0,0,0,0,0,0,0,-1,1693,1800,0,0
476,-776,0,0,0,0,0,0,0,0,0,-1,1700,1800,0,0
483,-776,0,0,0,0,0,0,0,0,0,-1,1707,1800,0,0
490,-776,0,0,0,0,0,0,0,0,0,-1,1714,1800,0,0
497,-776,0,0,0,0,0,0,0,0,0,-1,1721,1800,0,0
504,-776,0,0,0,0,0,0,0,0,0,-1,1728,1800,0,0
511,-776,0,0,0,0,0,0,0,0,0,-1,1735,1800,0,0
518,-776,0,0,0,0,0,0,0,0,0,-1,1742,1800,0,0
525,-776,0,0,0,0,0,0,0,0,0,-1,1749,1800,0,0
532,-776,0,0,0,0,0,0,0,0,0,-1,1756,1800,0,0
539,-776,0,0,0,0,0,0,0,0,0,-1,1763,1800,0,0
546,-776,0,0,0,0,0,0,0,0,0,-1,1770,1800,0,0
553,-776,0,0,0,0,0,0,0,0,0,-1,1777,1800,0,0
560,-776,0,0,0,0,0,0,0,0,0,-1,1784,1800,0,0
567,-776,0,0,0,0,0,0,0,0,0,-1,1791,1800,0,0
574,-776,0,0,0,0,0,0,0,0,0,-1,1798,1800,0,0
581,-776,0,0,0,0,0,0,0,0,0,-1,1805,1800,0,0
588,-776,0,0,0,0,0,0,0,0,0,-1,1812,1800,0,0
595,-776,0,0,0,0,0,0,0,0,0,-1,1819,1800,0,0
602,-776,0,0,0,0,0,0,0,0,0,-1,1826,1800,0,0
609,-776,0,0,0,0,0,0,0,0,0,-1,1833,1800,0,0
616,-776,0,0,0,0,0,0,0,0,0,-1,1840,1800,0,0
623,-776,0,0,0,0,0,0,0,0,0,-1,1847,1800,0,0
630,-776,0,0,0,0,0,0,0,0,0,-1,1854,1800,0,0
637,-776,0,0,0,0,0,0,0,0,0,-1,1861,1800,0,0
644,-776,0,0,0,0,0,0,0,0,0,-1,1868,1800,0,0
651,-776,0,0,0,0,0,0,0,0,0,-1,1875,1800,0,0
658,-776,0,0,0,0,0,0,0,0,0,-1,1882,1800,0,0
665,-776,0,0,0,0,0,0,0,0,0,-1,1889,1800,0,0
672,-776,0,0,0,0,0,0,0,0,0,-1,1896,1800,0,0
679,-776,0,0,0,0,0,0,0,0,0,-1,1903,1800,0,0
686,-776,0,0,0,0,0,0,0,0,0,-1,1910,1800,0,0
693,-776,0,0,0,0,0,0,0,0,0,-1,1917,1800,0,0
700,-776,0,0,0,0,0,0,0,0,0,-1,1924,1800,0,0
707,-776,0,0,0,0,0,0,0,0,0,-1,1931,1800,0,0
714,-776,0,0,0,0,0,0,0,0,0,-1,1938,1800,0,0
721,-776,0,0,0,0,0,0,0,0,0,-1,1945,1800,0,0
728,-776,0,0,0,0,0,0,0,0,0,-1,1952,1800,0,0
735,-776,0,0,0,0,0,0,0,0,0,-1,1959,1800,0,0
742,-776,0,0,0,0,0,0,0,0,0,-1,1966,1800,0,0
749,-776,0,0,0,0,0,0,0,0,0,-1,1973,1800,0,0
756,-776,0,0,0,0,0,0,0,0,0,-1,1980,1800,0,0
763,-776,0,0,0,0,0,0,0,0,0,-1,1987,1800,0,0
770,-776,0,0,0,0,0,0,0,0,0,-1,1994,1800,0,0
777,-776,0,0,0,0,0,0,0,0,0,-1,2001,1800,0,0
784,-776,0,0,0,0,0,0,0,0,0,-1,2008,1800,0,0
791,-776,0,0,0,0,0,0,0,0,0,-1,2015,1800,0,0
798,-776,0,0,0,0,0,0,0,0,0,-1,2022,1800,0,0
805,-776,0,0,0,0,0,0,0,0,0,-1,2029,1800,0,0
812,-776,0,0,0,0,0,0,0,0,0,-1,2036,1800,0,0
-700,-783,0,0,0,0,0,0,0,0,0,-1,524,1807,0,0
-693,-783,0,0,0,0,0,0,0,0,0,-1,531,1807,0,0
-686,-783,0,0,0,0,0,0,0,0,0,-1,538,1807,0,0
-679,-783,0,0,0,0,0,0,0,0,0,-1,545,1807,0,0
-672,-783,0,0,0,0,0,0,0,0,0,-1,552,1807,0,0
-665,-783,0,0,0,0,0,0,0,0,0,-1,559,1807,0,0
-658,-783,0,0,0,0,0,0,0,0,0,-1,566,1807,0,0
-651,-783,0,0,0,0,0,0,0,0,0,-1,573,1807,0,0
-644,-783,0,0,0,0,0,0,0,0,0,-1,580,1807,0,0
-637,-783,0,0,0,0,0,0,0,0,0,-1,587,1807,0,0
-630,-783,0,0,0,0,0,0,0,0,0,-1,594,1807,0,0
-623,-783,0,0,0,0,0,0,0,0,0,-1,601,1807,0,0
-616,-783,0,0,0,0,0,0,0,0,0,-1,608,1807,0,0
-609,-783,0,0,0,0,0,0,0,0,0,-1,615,1807,0,0
-602,-783,0,0,0,0,0,0,0,0,0,-1,622,1807,0,0
-595,-783,0,0,0,0,0,0,0,0,0,-1,629,1807,0,0
-588,-783,0,0,0,0,0,0,0,0,0,-1,636,1807,0,0
-581,-783,0,0,0,0,0,0,0,0,0,-1,643,1807,0,0
-574,-783,0,0,0,0,0,0,0,0,0,-1,650,1807,0,0
-567,-783,0,0,0,0,0,0,0,0,0,-1,657,1807,0,0
-560,-783,0,0,0,0,0,0,0,0,0,-1,664,1807,0,0
-553,-783,0,0,0,0,0,0,0,0,0,-1,671,1807,0,0
-546,-783,0,0,0,0,0,0,0,0,0,-1,678,1807,0,0
-539,-783,0,0,0,0,0,0,0,0,0,-1,685,1807,0,0
-532,-783,0,0,0,0,0,0,0,0,0,-1,692,1807,0,0
-525,-783,0,0,0,0,0,0,0,0,0,-1,699,1807,0,0
-518,-783,0,0,0,0,0,0,0,0,0,-1,706,1807,0,0
-511,-783,0,0,0,0,0,0,0,0,0,-1,713,1807,0,0
-504,-783,0,0,0,0,0,0,0,0,0,-1,720,1807,0,0
-497,-783,0,0,0,0,0,0,0,0,0,-1,727,1807,0,0
-490,-783,0,0,0,0,0,0,0,0,0,-1,734,1807,0,0
-483,-783,0,0,0,0,0,0,0,0,0,-1,741,1807,0,0
-476,-783,0,0,0,0,0,0,0,0,0,-1,748,1807,0,0
-469,-783,0,0,0,0,0,0,0,0,0,-1,755,1807,0,0
-462,-783,0,0,0,0,0,0,0,0,0,-1,762,1807,0,0
-455,-783,0,0,0,0,0,0,0,0,0,-1,769,1807,0,0
-448,-783,0,0,0,0,0,0,0,0,0,-1,776,1807,0,0
-441,-783,0,0,0,0,0,0,0,0,0,-1,783,1807,0,0
-434,-783,0,0,0,0,0,0,0,0,0,-1,790,1807,0,0
-427,-783,0,0,0,0,0,0,0,0,0,-1,797,1807,0,0
-420,-783,0,0,0,0,0,0,0,0,0,-1,804,1807,0,0
-413,-783,0,0,0,0,0,0,0,0,0,-1,811,1807,0,0
-406,-783,0,0,0,0,0,0,0,0,0,-1,818,1807,0,0
-399,-783,0,0,0,0,0,0,0,0,0,-1,825,1807,0,0
-392,-783,0,0,0,0,0,0,0,0,0,-1,832,1807,0,0
-385,-783,0,0,0,0,0,0,0,0,0,-1,839,1807,0,0
-378,-783,0,0,0,0,0,0,0,0,0,-1,846,1807,0,0
-371,-783,0,0,0,0,0,0,0,0,0,-1,853,1807,0,0
-364,-783,0,0,0,0,0,0,0,0,0,-1,860,1807,0,0
-357,-783,0,0,0,0,0,0,0,0,0,-1,867,1807,0,0
-350,-783,0,0,0,0,0,0,0,0,0,-1,874,1807,0,0
-343,-783,0,0,0,0,0,0,0,0,0,-1,881,1807,0,0
-336,-783,0,0,0,0,0,0,0,0,0,-1,888,1807,0,0
-329,-783,0,0,0,0,0,0,0,0,0,-1,895,1807,0,0
-322,-783,0,0,0,0,0,0,0,0,0,-1,902,1807,0,0
-315,-783,0,0,0,0,0,0,0,0,0,-1,909,1807,0,0
-308,-783,0,0,0,0,0,0,0,0,0,-1,916,1807,0,0
-301,-783,0,0,0,0,0,0,0,0,0,-1,923,1807,0,0
-294,-783,0,0,0,0,0,0,0,0,0,-1,930,1807,0,0
-287,-783,0,0,0,0,0,0,0,0,0,-1,937,1807,0,0
-280,-783,0,0,0,0,0,0,0,0,0,-1,944,1807,0,0
-273,-783,0,0,0,0,0,0,0,0,0,-1,951,1807,0,0
-266,-783,0,0,0,0,0,0,0,0,0,-1,958,1807,0,0
-259,-783,0,0,0,0,0,0,0,0,0,-1,965,1807,0,0
-252,-783,0,0,0,0,0,0,0,0,0,-1,972,1807,0,0
-245,-783,0,0,0,0,0,0,0,0,0,-1,979,1807,0,0
-238,-783,0,0,0,0,0,0,0,0,0,-1,986,1807,0,0
-231,-783,0,0,0,0,0,0,0,0,0,-1,993,1807,0,0
-224,-783,0,0,0,0,0,0,0,0,0,-1,1000,1807,0,0
-217,-783,0,0,0,0,0,0,0,0,0,-1,1007,1807,0,0
-210,-783,0,0,0,0,0,0,0,0,0,-1,1014,1807,0,0
-203,-783,0,0,0,0,0,0,0,0,0,-1,1021,1807,0,0
-196,-783,0,0,0,0,0,0,0,0,0,-1,1028,1807,0,0
-189,-783,0,0,0,0,0,0,0,0,0,-1,1035,1807,0,0
-182,-783,0,0,0,0,0,0,0,0,0,-1,1042,1807,0,0
-175,-783,0,0,0,0,0,0,0,0,0,-1,1049,1807,0,0
-168,-783,0,0,0,0,0,0,0,0,0,-1,1056,1807,0,0
-161,-783,0,0,0,0,0,0,0,0,0,-1,1063,1807,0,0
-154,-783,0,0,0,0,0,0,0,0,0,-1,1070,1807,0,0
-147,-783,0,0,0,0,0,0,0,0,0,-1,1077,1807,0,0
-140,-783,0,0,0,0,0,0,0,0,0,-1,1084,1807,0,0
-133,-783,0,0,0,0,0,0,0,0,0,-1,1091,1807,0,0
-126,-783,0,0,0,0,0,0,0,0,0,-1,1098,1807,0,0
-119,-783,0,0,0,0,0,0,0,0,0,-1,1105,1807,0,0
-112,-783,5.33936,14.7699,0,0,0,0,0,0,0,-1,1112,1807,5.33931,-14.7699
-105,-783,6.44263,21.2224,0,0,0,0,0,0,0,-1,1119,1807,6.44263,-21.2224
-98,-783,5.54773,20.5695,0,0,0,0,0,0,0,-1,1126,1807,5.54772,-20.5695
-91,-783,2.6106,20.2491,0,0,0,0,0,0,0,-1,1133,1807,2.61056,-20.2492
-84,-783,-0.0491943,14.5743,0,0,0,0,0,0,0,-1,1140,1807,-0.0491562,-14.5743
-77,-783,0.332764,12.7788,0,0,0,0,0,0,0,-1,1147,1807,0.332743,-12.7788
-70,-783,-1.93176,5.12817,0,0,0,0,0,0,0,-1,1154,1807,-1.93171,-5.12813
-63,-783,-5.31702,10.54,0,0,0,0,0,0,0,-1,1161,1807,-5.31703,-10.54
-56,-783,-6.26135,6.9679,0,0,0,0,0,0,0,-1,1168,1807,-6.26136,-6.96785
-49,-783,-3.17688,4.59705,0,0,0,0,0,0,0,-1,1175,1807,-3.17685,-4.5971
-42,-783,-3.72876,3.1405,0,0,0,0,0,0,0,-1,1182,1807,-3.72874,-3.14055
-35,-783,-3.97046,1.59399,0,0,0,0,0,0,0,-1,1189,1807,-3.97041,-1.59401
-28,-783,-4.12195,0.270386,0,0,0,0,0,0,0,-1,1196,1807,-4.12197,-0.270408
-21,-783,11.986,37.0266,0,0,0,0,0,0,0,-1,1203,1807,11.986,-37.0266
-14,-783,7.02966,35.166,0,0,0,0,0,0,0,-1,1210,1807,7.02963,-35.166
-7,-783,7.2793,35.0701,0,0,0,0,0,0,0,-1,1217,1807,7.27927,-35.0701
0,-783,7.50391,34.9916,0.0299196,0.0552965,0.00450045,0.056071,0.0291451,1.40037,0.032381,0.0483477,1224,1807,7.50388,-34.9915
7,-783,7.7688,34.9346,0.0349693,0.0516724,0.00302967,0.0522049,0.0344368,1.39679,0.0306484,0.0476019,1231,1807,7.76877,-34.9345
14,-783,8.01221,34.8655,0,0,0,0,0,0,0,-1,1238,1807,8.01218,-34.8654
21,-783,7.83887,37.6238,0.0488067,0.0409435,-0.00554013,0.0516685,0.0380816,-0.476807,0.030928,0.0452348,1245,1807,7.83888,-37.6238
28,-783,7.82715,37.4351,0.0558867,0.0352135,-0.0123505,0.0616554,0.0294448,-0.436969,0.0356087,0.0469767,1252,1807,7.82717,-37.435
35,-783,7.51306,37.2384,0,0,0,0,0,0,0,-1,1259,1807,7.51305,-37.2383
42,-783,7.88586,37.0483,0,0,0,0,0,0,0,-1,1266,1807,7.88592,-37.0484
49,-783,8.25879,36.8584,0,0,0,0,0,0,0,-1,1273,1807,8.25879,-36.8584
56,-783,6.61255,37.3219,0,0,0,0,0,0,0,-1,1280,1807,6.61252,-37.3219
63,-783,7.41284,36.1179,0,0,0,0,0,0,0,-1,1287,1807,7.41286,-36.1179
70,-783,8.16467,35.3519,0,0,0,0,0,0,0,-1,1294,1807,8.16469,-35.3519
77,-783,8.93262,34.4121,0,0,0,0,0,0,0,-1,1301,1807,8.93264,-34.4121
84,-783,9.46313,33.8961,0,0,0,0,0,0,0,-1,1308,1807,9.46316,-33.8961
91,-783,10.1984,32.776,0,0,0,0,0,0,0,-1,1315,1807,10.1984,-32.776
98,-783,7.99695,36.6617,0,0,0,0,0,0,0,-1,1322,1807,7.99689,-36.6618
105,-783,7.7002,36.6969,0,0,0,0,0,0,0,-1,1329,1807,7.7002,-36.6968
112,-783,7.12476,36.1235,-0.0142179,0.00299344,0.00649827,0.00517132,-0.0163958,1.24741,0.0130018,0.0459558,1336,1807,7.1248,-36.1235
119,-783,6.5376,35.5156,-0.0282448,-0.000927656,0.0084485,0.00147409,-0.0306465,1.29382,0.0209397,0.0423331,1343,1807,6.53755,-35.5156
126,-783,5.9176,34.9089,-0.040875,-0.00387999,0.00865438,-0.00195555,-0.0427995,1.35199,0.027904,0.046323,1350,1807,5.91763,-34.909
133,-783,5.20703,34.2208,0,0,0,0,0,0,0,-1,1357,1807,5.20702,-34.2208
140,-783,4.60925,33.5499,0,0,0,0,0,0,0,-1,1364,1807,4.60926,-33.55
147,-783,4.01941,32.9166,0,0,0,0,0,0,0,-1,1371,1807,4.01944,-32.9166
154,-783,38.2109,17.545,0,0,0,0,0,0,0,-1,1378,1807,38.2109,-17.545
161,-783,39.5087,17.5449,0,0,0,0,0,0,0,-1,1385,1807,39.5087,-17.545
168,-783,8.62561,1.79944,0,0,0,0,0,0,0,-1,1392,1807,8.62561,-1.79946
175,-783,8.78699,3.40857,0,0,0,0,0,0,0,-1,1399,1807,8.78697,-3.40854
182,-783,8.70984,5.14661,0,0,0,0,0,0,0,-1,1406,1807,8.70989,-5.14666
189,-783,8.55762,6.79871,0,0,0,0,0,0,0,-1,1413,1807,8.55766,-6.79872
196,-783,8.25488,8.66626,0,0,0,0,0,0,0,-1,1420,1807,8.25492,-8.66628
203,-783,7.86755,10.5735,0,0,0,0,0,0,0,-1,1427,1807,7.8676,-10.5734
210,-783,5.6969,8.99231,0,0,0,0,0,0,0,-1,1434,1807,5.69693,-8.99234
217,-783,5.28503,3.80872,0,0,0,0,0,0,0,-1,1441,1807,5.285,-3.80868
224,-783,3.22571,6.62903,0,0,0,0,0,0,0,-1,1448,1807,3.2257,-6.62907
231,-783,4.27942,4.56262,0,0,0,0,0,0,0,-1,1455,1807,4.27948,-4.56267
238,-783,0,0,0,0,0,0,0,0,0,-1,1462,1807,0,0
245,-783,0,0,0,0,0,0,0,0,0,-1,1469,1807,0,0
252,-783,0,0,0,0,0,0,0,0,0,-1,1476,1807,0,0
259,-783,0,0,0,0,0,0,0,0,0,-1,1483,1807,0,0
266,-783,0,0,0,0,0,0,0,0,0,-1,1490,1807,0,0
273,-783,0,0,0,0,0,0,0,0,0,-1,1497,1807,0,0
280,-783,0,0,0,0,0,0,0,0,0,-1,1504,1807,0,0
287,-783,0,0,0,0,0,0,0,0,0,-1,1511,1807,0,0
294,-783,0,0,0,0,0,0,0,0,0,-1,1518,1807,0,0
301,-783,0,0,0,0,0,0,0,0,0,-1,1525,1807,0,0
308,-783,0,0,0,0,0,0,0,0,0,-1,1532,1807,0,0
315,-783,0,0,0,0,0,0,0,0,0,-1,1539,1807,0,0
322,-783,0,0,0,0,0,0,0,0,0,-1,1546,1807,0,0
329,-783,0,0,0,0,0,0,0,0,0,-1,1553,1807,0,0
336,-783,0,0,0,0,0,0,0,0,0,-1,1560,1807,0,0
343,-783,0,0,0,0,0,0,0,0,0,-1,1567,1807,0,0
350,-783,0,0,0,0,0,0,0,0,0,-1,1574,1807,0,0
357,-783,0,0,0,0,0,0,0,0,0,-1,1581,1807,0,0
364,-783,0,0,0,0,0,0,0,0,0,-1,1588,1807,0,0
371,-783,0,0,0,0,0,0,0,0,0,-1,1595,1807,0,0
378,-783,0,0,0,0,0,0,0,0,0,-1,1602,1807,0,0
385,-783,0,0,0,0,0,0,0,0,0,-1,1609,1807,0,0
392,-783,0,0,0,0,0,0,0,0,0,-1,1616,1807,0,0
399,-783,0,0,0,0,0,0,0,0,0,-1,1623,1807,0,0
406,-783,0,0,0,0,0,0,0,0,0,-1,1630,1807,0,0
413,-783,0,0,0,0,0,0,0,0,0,-1,1637,1807,0,0
420,-783,0,0,0,0,0,0,0,0,0,-1,1644,1807,0,0
427,-783,0,0,0,0,0,0,0,0,0,-1,1651,1807,0,0
434,-783,0,0,0,0,0,0,0,0,0,-1,1658,1807,0,0
441,-783,0,0,0,0,0,0,0,0,0,-1,1665,1807,0,0
448,-783,0,0,0,0,0,0,0,0,0,-1,1672,1807,0,0
455,-783,0,0,0,0,0,0,0,0,0,-1,1679,1807,0,0
462,-783,0,0,0,0,0,0,0,0,0,-1,1686,1807,0,0
469,-783,0,0,0,0,0,0,0,0,0,-1,1693,1807,0,0
476,-783,0,0,0,0,0,0,0,0,0,-1,1700,1807,0,0
483,-783,0,0,0,0,0,0,0,0,0,-1,1707,1807,0,0
490,-783,0,0,0,0,0,0,0,0,0,-1,1714,1807,0,0
497,-783,0,0,0,0,0,0,0,0,0,-1,1721,1807,0,0
504,-783,0,0,0,0,0,0,0,0,0,-1,1728,1807,0,0
511,-783,0,0,0,0,0,0,0,0,0,-1,1735,1807,0,0
518,-783,0,0,0,0,0,0,0,0,0,-1,1742,1807,0,0
525,-783,0,0,0,0,0,0,0,0,0,-1,1749,1807,0,0
532,-783,0,0,0,0,0,0,0,0,0,-1,1756,1807,0,0
539,-783,0,0,0,0,0,0,0,0,0,-1,1763,1807,0,0
546,-783,0,0,0,0,0,0,0,0,0,-1,1770,1807,0,0
553,-783,0,0,0,0,0,0,0,0,0,-1,1777,1807,0,0
560,-783,0,0,0,0,0,0,0,0,0,-1,1784,1807,0,0
567,-783,0,0,0,0,0,0,0,0,0,-1,1791,1807,0,0
574,-783,0,0,0,0,0,0,0,0,0,-1,1798,1807,0,0
581,-783,0,0,0,0,0,0,0,0,0,-1,1805,1807,0,0
588,-783,0,0,0,0,0,0,0,0,0,-1,1812,1807,0,0
595,-783,0,0,0,0,0,0,0,0,0,-1,1819,1807,0,0
602,-783,0,0,0,0,0,0,0,0,0,-1,1826,1807,0,0
609,-783,0,0,0,0,0,0,0,0,0,-1,1833,1807,0,0
616,-783,0,0,0,0,0,0,0,0,0,-1,1840,1807,0,0
623,-783,0,0,0,0,0,0,0,0,0,-1,1847,1807,0,0
630,-783,0,0,0,0,0,0,0,0,0,-1,1854,1807,0,0
637,-783,0,0,0,0,0,0,0,0,0,-1,1861,1807,0,0
644,-783,0,0,0,0,0,0,0,0,0,-1,1868,1807,0,0
651,-783,0,0,0,0,0,0,0,0,0,-1,1875,1807,0,0
658,-783,0,0,0,0,0,0,0,0,0,-1,1882,1807,0,0
665,-783,0,0,0,0,0,0,0,0,0,-1,1889,1807,0,0
672,-783,0,0,0,0,0,0,0,0,0,-1,1896,1807,0,0
679,-783,0,0,0,0,0,0,0,0,0,-1,1903,1807,0,0
686,-783,0,0,0,0,0,0,0,0,0,-1,1910,1807,0,0
693,-783,0,0,0,0,0,0,0,0,0,-1,1917,1807,0,0
700,-783,0,0,0,0,0,0,0,0,0,-1,1924,1807,0,0
707,-783,0,0,0,0,0,0,0,0,0,-1,1931,1807,0,0
714,-783,0,0,0,0,0,0,0,0,0,-1,1938,1807,0,0
721,-783,0,0,0,0,0,0,0,0,0,-1,1945,1807,0,0
728,-783,0,0,0,0,0,0,0,0,0,-1,1952,1807,0,0
735,-783,0,0,0,0,0,0,0,0,0,-1,1959,1807,0,0
742,-783,0,0,0,0,0,0,0,0,0,-1,1966,1807,0,0
749,-783,0,0,0,0,0,0,0,0,0,-1,1973,1807,0,0
756,-783,0,0,0,0,0,0,0,0,0,-1,1980,1807,0,0
763,-783,0,0,0,0,0,0,0,0,0,-1,1987,1807,0,0
770,-783,0,0,0,0,0,0,0,0,0,-1,1994,1807,0,0
777,-783,0,0,0,0,0,0,0,0,0,-1,2001,1807,0,0
784,-783,0,0,0,0,0,0,0,0,0,-1,2008,1807,0,0
791,-783,0,0,0,0,0,0,0,0,0,-1,2015,1807,0,0
798,-783,0,0,0,0,0,0,0,0,0,-1,2022,1807,0,0
805,-783,0,0,0,0,0,0,0,0,0,-1,2029,1807,0,0
812,-783,0,0,0,0,0,0,0,0,0,-1,2036,1807,0,0
-700,-790,0,0,0,0,0,0,0,0,0,-1,524,1814,0,0
-693,-790,0,0,0,0,0,0,0,0,0,-1,531,1814,0,0
-686,-790,0,0,0,0,0,0,0,0,0,-1,538,1814,0,0
-679,-790,0,0,0,0,0,0,0,0,0,-1,545,1814,0,0
-672,-790,0,0,0,0,0,0,0,0,0,-1,552,1814,0,0
-665,-790,0,0,0,0,0,0,0,0,0,-1,559,1814,0,0
-658,-790,0,0,0,0,0,0,0,0,0,-1,566,1814,0,0
-651,-790,0,0,0,0,0,0,0,0,0,-1,573,1814,0,0
-644,-790,0,0,0,0,0,0,0,0,0,-1,580,1814,0,0
-637,-790,0,0,0,0,0,0,0,0,0,-1,587,1814,0,0
-630,-790,0,0,0,0,0,0,0,0,0,-1,594,1814,0,0
-623,-790,0,0,0,0,0,0,0,0,0,-1,601,1814,0,0
-616,-790,0,0,0,0,0,0,0,0,0,-1,608,1814,0,0
-609,-790,0,0,0,0,0,0,0,0,0,-1,615,1814,0,0
-602,-790,0,0,0,0,0,0,0,0,0,-1,622,1814,0,0
-595,-790,0,0,0,0,0,0,0,0,0,-1,629,1814,0,0
-588,-790,0,0,0,0,0,0,0,0,0,-1,636,1814,0,0
-581,-790,0,0,0,0,0,0,0,0,0,-1,643,1814,0,0
-574,-790,0,0,0,0,0,0,0,0,0,-1,650,1814,0,0
-567,-790,0,0,0,0,0,0,0,0,0,-1,657,1814,0,0
-560,-790,0,0,0,0,0,0,0,0,0,-1,664,1814,0,0
-553,-790,0,0,0,0,0,0,0,0,0,-1,671,1814,0,0
-546,-790,0,0,0,0,0,0,0,0,0,-1,678,1814,0,0
-539,-790,0,0,0,0,0,0,0,0,0,-1,685,1814,0,0
-532,-790,0,0,0,0,0,0,0,0,0,-1,692,1814,0,0
-525,-790,0,0,0,0,0,0,0,0,0,-1,699,1814,0,0
-518,-790,0,0,0,0,0,0,0,0,0,-1,706,1814,0,0
-511,-790,0,0,0,0,0,0,0,0,0,-1,713,1814,0,0
-504,-790,0,0,0,0,0,0,0,0,0,-1,720,1814,0,0
-497,-790,0,0,0,0,0,0,0,0,0,-1,727,1814,0,0
-490,-790,0,0,0,0,0,0,0,0,0,-1,734,1814,0,0
-483,-790,0,0,0,0,0,0,0,0,0,-1,741,1814,0,0
-476,-790,0,0,0,0,0,0,0,0,0,-1,748,1814,0,0
-469,-790,0,0,0,0,0,0,0,0,0,-1,755,1814,0,0
-462,-790,0,0,0,0,0,0,0,0,0,-1,762,1814,0,0
-455,-790,0,0,0,0,0,0,0,0,0,-1,769,1814,0,0
-448,-790,0,0,0,0,0,0,0,0,0,-1,776,1814,0,0
-441,-790,0,0,0,0,0,0,0,0,0,-1,783,1814,0,0
-434,-790,0,0,0,0,0,0,0,0,0,-1,790,1814,0,0
-427,-790,0,0,0,0,0,0,0,0,0,-1,797,1814,0,0
-420,-790,0,0,0,0,0,0,0,0,0,-1,804,1814,0,0
-413,-790,0,0,0,0,0,0,0,0,0,-1,811,1814,0,0
-406,-790,0,0,0,0,0,0,0,0,0,-1,818,1814,0,0
-399,-790,0,0,0,0,0,0,0,0,0,-1,825,1814,0,0
-392,-790,0,0,0,0,0,0,0,0,0,-1,832,1814,0,0
-385,-790,0,0,0,0,0,0,0,0,0,-1,839,1814,0,0
-378,-790,0,0,0,0,0,0,0,0,0,-1,846,1814,0,0
-371,-790,0,0,0,0,0,0,0,0,0,-1,853,1814,0,0
-364,-790,0,0,0,0,0,0,0,0,0,-1,860,1814,0,0
-357,-790,0,0,0,0,0,0,0,0,0,-1,867,1814,0,0
-350,-790,0,0,0,0,0,0,0,0,0,-1,874,1814,0,0
-343,-790,0,0,0,0,0,0,0,0,0,-1,881,1814,0,0
-336,-790,0,0,0,0,0,0,0,0,0,-1,888,1814,0,0
-329,-790,0,0,0,0,0,0,0,0,0,-1,895,1814,0,0
-322,-790,0,0,0,0,0,0,0,0,0,-1,902,1814,0,0
-315,-790,0,0,0,0,0,0,0,0,0,-1,909,1814,0,0
-308,-790,0,0,0,0,0,0,0,0,0,-1,916,1814,0,0
-301,-790,0,0,0,0,0,0,0,0,0,-1,923,1814,0,0
-294,-790,0,0,0,0,0,0,0,0,0,-1,930,1814,0,0
-287,-790,0,0,0,0,0,0,0,0,0,-1,937,1814,0,0
-280,-790,0,0,0,0,0,0,0,0,0,-1,944,1814,0,0
-273,-790,0,0,0,0,0,0,0,0,0,-1,951,1814,0,0
-266,-790,0,0,0,0,0,0,0,0,0,-1,958,1814,0,0
-259,-790,0,0,0,0,0,0,0,0,0,-1,965,1814,0,0
-252,-790,0,0,0,0,0,0,0,0,0,-1,972,1814,0,0
-245,-790,0,0,0,0,0,0,0,0,0,-1,979,1814,0,0
-238,-790,0,0,0,0,0,0,0,0,0,-1,986,1814,0,0
-231,-790,0,0,0,0,0,0,0,0,0,-1,993,1814,0,0
-224,-790,0,0,0,0,0,0,0,0,0,-1,1000,1814,0,0
-217,-790,0,0,0,0,0,0,0,0,0,-1,1007,1814,0,0
-210,-790,0,0,0,0,0,0,0,0,0,-1,1014,1814,0,0
-203,-790,0,0,0,0,0,0,0,0,0,-1,1021,1814,0,0
-196,-790,0,0,0,0,0,0,0,0,0,-1,1028,1814,0,0
-189,-790,0,0,0,0,0,0,0,0,0,-1,1035,1814,0,0
-182,-790,0,0,0,0,0,0,0,0,0,-1,1042,1814,0,0
-175,-790,0,0,0,0,0,0,0,0,0,-1,1049,1814,0,0
-168,-790,0,0,0,0,0,0,0,0,0,-1,1056,1814,0,0
-161,-790,0,0,0,0,0,0,0,0,0,-1,1063,1814,0,0
-154,-790,0,0,0,0,0,0,0,0,0,-1,1070,1814,0,0
-147,-790,0,0,0,0,0,0,0,0,0,-1,1077,1814,0,0
-140,-790,0,0,0,0,0,0,0,0,0,-1,1084,1814,0,0
-133,-790,0,0,0,0,0,0,0,0,0,-1,1091,1814,0,0
-126,-790,0,0,0,0,0,0,0,0,0,-1,1098,1814,0,0
-119,-790,0,0,0,0,0,0,0,0,0,-1,1105,1814,0,0
-112,-790,0,0,0,0,0,0,0,0,0,-1,1112,1814,0,0
-105,-790,0,0,0,0,0,0,0,0,0,-1,1119,1814,0,0
-98,-790,0,0,0,0,0,0,0,0,0,-1,1126,1814,0,0
-91,-790,0,0,0,0,0,0,0,0,0,-1,1133,1814,0,0
-84,-790,0,0,0,0,0,0,0,0,0,-1,1140,1814,0,0
-77,-790,-0.969238,5.30847,0,0,0,0,0,0,0,-1,1147,1814,-0.969277,-5.3085
-70,-790,-1.23169,4.98914,0,0,0,0,0,0,0,-1,1154,1814,-1.23163,-4.98916
-63,-790,-1.69128,4.32263,0,0,0,0,0,0,0,-1,1161,1814,-1.69128,-4.32258
-56,-790,-2.24756,3.75305,0,0,0,0,0,0,0,-1,1168,1814,-2.24758,-3.75302
-49,-790,-3.11011,3.35779,0,0,0,0,0,0,0,-1,1175,1814,-3.11006,-3.35781
-42,-790,0.593262,1.19165,0,0,0,0,0,0,0,-1,1182,1814,0.593225,-1.19165
-35,-790,0.307129,-0.20105,0,0,0,0,0,0,0,-1,1189,1814,0.307178,0.201006
-28,-790,-2.78467,0.785156,0,0,0,0,0,0,0,-1,1196,1814,-2.78471,-0.785183
-21,-790,12.1554,36.9773,0,0,0,0,0,0,0,-1,1203,1814,12.1553,-36.9773
-14,-790,11.3674,36.8364,0,0,0,0,0,0,0,-1,1210,1814,11.3675,-36.8365
-7,-790,7.26855,34.9493,0,0,0,0,0,0,0,-1,1217,1814,7.26856,-34.9493
0,-790,7.59473,34.7714,0.0379583,0.0762319,0.00758651,0.0776808,0.0365094,1.38208,0.044876,0.0492294,1224,1814,7.59469,-34.7713
7,-790,7.7395,34.7698,0.0450016,0.0723558,0.00585826,0.0735576,0.0437998,1.36845,0.0427257,0.0476345,1231,1814,7.73954,-34.7698
14,-790,7.97534,34.7051,0.0536141,0.0665286,0.00146686,0.0666931,0.0534496,1.45911,0.040771,0.0474573,1238,1814,7.97536,-34.705
21,-790,8.24133,34.6335,0.0632713,0.0591819,-0.00572258,0.0673035,0.0551497,-0.613816,0.0414165,0.0465952,1245,1814,8.24132,-34.6336
28,-790,8.23413,37.9004,0.072297,0.0516086,-0.0146634,0.0798977,0.0440079,-0.478213,0.0462083,0.0467878,1252,1814,8.23418,-37.9003
35,-790,7.74927,37.3486,0,0,0,0,0,0,0,-1,1259,1814,7.74931,-37.3486
42,-790,8.12622,37.1403,0,0,0,0,0,0,0,-1,1266,1814,8.12625,-37.1403
49,-790,8.50317,36.9319,0,0,0,0,0,0,0,-1,1273,1814,8.50318,-36.9319
56,-790,6.72156,36.9994,0.0876605,0.0309511,-0.0315291,0.101709,0.0169021,-0.419179,0.0629334,0.049085,1280,1814,6.72153,-36.9993
63,-790,7.44031,36.0732,0.0843742,0.0276768,-0.0314228,0.0983462,0.0137048,-0.418392,0.0615069,0.046471,1287,1814,7.44036,-36.0732
70,-790,8.20496,35.0867,0.0770191,0.0251065,-0.0284803,0.0895967,0.0125289,-0.415866,0.0560237,0.0437798,1294,1814,8.20493,-35.0866
77,-790,9.00317,34.0699,0.0665363,0.019646,-0.0244279,0.0769497,0.0092326,-0.402962,0.048516,0.0464215,1301,1814,9.00321,-34.07
84,-790,9.80664,33.0768,0,0,0,0,0,0,0,-1,1308,1814,9.80666,-33.0768
91,-790,10.7961,32.4449,0.037902,0.0174026,-0.0101179,0.0420547,0.0132499,-0.389466,0.0248277,0.0466848,1315,1814,10.7962,-32.4449
98,-790,7.91309,36.8672,0.0206861,0.0138996,-0.00242203,0.0214619,0.0131239,-0.309957,0.0124933,0.0496125,1322,1814,7.91306,-36.8672
105,-790,7.37598,36.7708,0,0,0,0,0,0,0,-1,1329,1814,7.37596,-36.7707
112,-790,6.79346,36.2345,-0.0162506,0.00388016,0.00875439,0.00715462,-0.0195251,1.21287,0.0159459,0.0485426,1336,1814,6.7935,-36.2345
119,-790,6.23157,35.589,-0.0347866,-0.000793058,0.010864,0.00238233,-0.037962,1.28643,0.0261383,0.0448677,1343,1814,6.23163,-35.589
126,-790,5.78186,34.7681,-0.0518811,-0.00426697,0.0100205,-0.00224407,-0.053904,1.3716,0.0352118,0.0484165,1350,1814,5.78188,-34.7681
133,-790,5.37915,34.0099,0,0,0,0,0,0,0,-1,1357,1814,5.37916,-34.0099
140,-790,4.27246,33.3467,0,0,0,0,0,0,0,-1,1364,1814,4.27243,-33.3466
147,-790,6.26111,38.0739,0,0,0,0,0,0,0,-1,1371,1814,6.26106,-38.0739
154,-790,40.215,13.2396,0,0,0,0,0,0,0,-1,1378,1814,40.2149,-13.2396
161,-790,39.3429,13.0336,0,0,0,0,0,0,0,-1,1385,1814,39.3429,-13.0336
168,-790,7.04077,2.23279,0,0,0,0,0,0,0,-1,1392,1814,7.04082,-2.23275
175,-790,9.03918,3.98535,0,0,0,0,0,0,0,-1,1399,1814,9.0392,-3.98535
182,-790,8.96997,5.67896,0,0,0,0,0,0,0,-1,1406,1814,8.97001,-5.6789
189,-790,8.59729,6.86975,0,0,0,0,0,0,0,-1,1413,1814,8.59728,-6.86972
196,-790,8.21924,9.29053,0,0,0,0,0,0,0,-1,1420,1814,8.21924,-9.29048
203,-790,0,0,0,0,0,0,0,0,0,-1,1427,1814,0,0
210,-790,0,0,0,0,0,0,0,0,0,-1,1434,1814,0,0
217,-790,0,0,0,0,0,0,0,0,0,-1,1441,1814,0,0
224,-790,0,0,0,0,0,0,0,0,0,-1,1448,1814,0,0
231,-790,0,0,0,0,0,0,0,0,0,-1,1455,1814,0,0
238,-790,0,0,0,0,0,0,0,0,0,-1,1462,1814,0,0
245,-790,0,0,0,0,0,0,0,0,0,-1,1469,1814,0,0
252,-790,0,0,0,0,0,0,0,0,0,-1,1476,1814,0,0
259,-790,0,0,0,0,0,0,0,0,0,-1,1483,1814,0,0
266,-790,0,0,0,0,0,0,0,0,0,-1,1490,1814,0,0
273,-790,0,0,0,0,0,0,0,0,0,-1,1497,1814,0,0
280,-790,0,0,0,0,0,0,0,0,0,-1,1504,1814,0,0
287,-790,0,0,0,0,0,0,0,0,0,-1,1511,1814,0,0
294,-790,0,0,0,0,0,0,0,0,0,-1,1518,1814,0,0
301,-790,0,0,0,0,0,0,0,0,0,-1,1525,1814,0,0
308,-790,0,0,0,0,0,0,0,0,0,-1,1532,1814,0,0
315,-790,0,0,0,0,0,0,0,0,0,-1,1539,1814,0,0
322,-790,0,0,0,0,0,0,0,0,0,-1,1546,1814,0,0
329,-790,0,0,0,0,0,0,0,0,0,-1,1553,1814,0,0
336,-790,0,0,0,0,0,0,0,0,0,-1,1560,1814,0,0
343,-790,0,0,0,0,0,0,0,0,0,-1,1567,1814,0,0
350,-790,0,0,0,0,0,0,0,0,0,-1,1574,1814,0,0
357,-790,0,0,0,0,0,0,0,0,0,-1,1581,1814,0,0
364,-790,0,0,0,0,0,0,0,0,0,-1,1588,1814,0,0
371,-790,0,0,0,0,0,0,0,0,0,-1,1595,1814,0,0
378,-790,0,0,0,0,0,0,0,0,0,-1,1602,1814,0,0
385,-790,0,0,0,0,0,0,0,0,0,-1,1609,1814,0,0
392,-790,0,0,0,0,0,0,0,0,0,-1,1616,1814,0,0
399,-790,0,0,0,0,0,0,0,0,0,-1,1623,1814,0,0
406,-790,0,0,0,0,0,0,0,0,0,-1,1630,1814,0,0
413,-790,0,0,0,0,0,0,0,0,0,-1,1637,1814,0,0
420,-790,0,0,0,0,0,0,0,0,0,-1,1644,1814,0,0
427,-790,0,0,0,0,0,0,0,0,0,-1,1651,1814,0,0
434,-790,0,0,0,0,0,0,0,0,0,-1,1658,1814,0,0
441,-790,0,0,0,0,0,0,0,0,0,-1,1665,1814,0,0
448,-790,0,0,0,0,0,0,0,0,0,-1,1672,1814,0,0
455,-790,0,0,0,0,0,0,0,0,0,-1,1679,1814,0,0
462,-790,0,0,0,0,0,0,0,0,0,-1,1686,1814,0,0
469,-790,0,0,0,0,0,0,0,0,0,-1,1693,1814,0,0
476,-790,0,0,0,0,0,0,0,0,0,-1,1700,1814,0,0
483,-790,0,0,0,0,0,0,0,0,0,-1,1707,1814,0,0
490,-790,0,0,0,0,0,0,0,0,0,-1,1714,1814,0,0
497,-790,0,0,0,0,0,0,0,0,0,-1,1721,1814,0,0
504,-790,0,0,0,0,0,0,0,0,0,-1,1728,1814,0,0
511,-790,0,0,0,0,0,0,0,0,0,-1,1735,1814,0,0
518,-790,0,0,0,0,0,0,0,0,0,-1,1742,1814,0,0
525,-790,0,0,0,0,0,0,0,0,0,-1,1749,1814,0,0
532,-790,0,0,0,0,0,0,0,0,0,-1,1756,1814,0,0
539,-790,0,0,0,0,0,0,0,0,0,-1,1763,1814,0,0
546,-790,0,0,0,0,0,0,0,0,0,-1,1770,1814,0,0
553,-790,0,0,0,0,0,0,0,0,0,-1,1777,1814,0,0
560,-790,0,0,0,0,0,0,0,0,0,-1,1784,1814,0,0
567,-790,0,0,0,0,0,0,0,0,0,-1,1791,1814,0,0
574,-790,0,0,0,0,0,0,0,0,0,-1,1798,1814,0,0
581,-790,0,0,0,0,0,0,0,0,0,-1,1805,1814,0,0
588,-790,0,0,0,0,0,0,0,0,0,-1,1812,1814,0,0
595,-790,0,0,0,0,0,0,0,0,0,-1,1819,1814,0,0
602,-790,0,0,0,0,0,0,0,0,0,-1,1826,1814,0,0
609,-790,0,0,0,0,0,0,0,0,0,-1,1833,1814,0,0
616,-790,0,0,0,0,0,0,0,0,0,-1,1840,1814,0,0
623,-790,0,0,0,0,0,0,0,0,0,-1,1847,1814,0,0
630,-790,0,0,0,0,0,0,0,0,0,-1,1854,1814,0,0
637,-790,0,0,0,0,0,0,0,0,0,-1,1861,1814,0,0
644,-790,0,0,0,0,0,0,0,0,0,-1,1868,1814,0,0
651,-790,0,0,0,0,0,0,0,0,0,-1,1875,1814,0,0
658,-790,0,0,0,0,0,0,0,0,0,-1,1882,1814,0,0
665,-790,0,0,0,0,0,0,0,0,0,-1,1889,1814,0,0
672,-790,0,0,0,0,0,0,0,0,0,-1,1896,1814,0,0
679,-790,0,0,0,0,0,0,0,0,0,-1,1903,1814,0,0
686,-790,0,0,0,0,0,0,0,0,0,-1,1910,1814,0,0
693,-790,0,0,0,0,0,0,0,0,0,-1,1917,1814,0,0
700,-790,0,0,0,0,0,0,0,0,0,-1,1924,1814,0,0
707,-790,0,0,0,0,0,0,0,0,0,-1,1931,1814,0,0
714,-790,0,0,0,0,0,0,0,0,0,-1,1938,1814,0,0
721,-790,0,0,0,0,0,0,0,0,0,-1,1945,1814,0,0
728,-790,0,0,0,0,0,0,0,0,0,-1,1952,1814,0,0
735,-790,0,0,0,0,0,0,0,0,0,-1,1959,1814,0,0
742,-790,0,0,0,0,0,0,0,0,0,-1,1966,1814,0,0
749,-790,0,0,0,0,0,0,0,0,0,-1,1973,1814,0,0
756,-790,0,0,0,0,0,0,0,0,0,-1,1980,1814,0,0
763,-790,0,0,0,0,0,0,0,0,0,-1,1987,1814,0,0
770,-790,0,0,0,0,0,0,0,0,0,-1,1994,1814,0,0
777,-790,0,0,0,0,0,0,0,0,0,-1,2001,1814,0,0
784,-790,0,0,0,0,0,0,0,0,0,-1,2008,1814,0,0
791,-790,0,0,0,0,0,0,0,0,0,-1,2015,1814,0,0
798,-790,0,0,0,0,0,0,0,0,0,-1,2022,1814,0,0
805,-790,0,0,0,0,0,0,0,0,0,-1,2029,1814,0,0
812,-790,0,0,0,0,0,0,0,0,0,-1,2036,1814,0,0
-700,-797,0,0,0,0,0,0,0,0,0,-1,524,1821,0,0
-693,-797,0,0,0,0,0,0,0,0,0,-1,531,1821,0,0
-686,-797,0,0,0,0,0,0,0,0,0,-1,538,1821,0,0
-679,-797,0,0,0,0,0,0,0,0,0,-1,545,1821,0,0
-672,-797,0,0,0,0,0,0,0,0,0,-1,552,1821,0,0
-665,-797,0,0,0,0,0,0,0,0,0,-1,559,1821,0,0
-658,-797,0,0,0,0,0,0,0,0,0,-1,566,1821,0,0
-651,-797,0,0,0,0,0,0,0,0,0,-1,573,1821,0,0
-644,-797,0,0,0,0,0,0,0,0,0,-1,580,1821,0,0
-637,-797,0,0,0,0,0,0,0,0,0,-1,587,1821,0,0
-630,-797,0,0,0,0,0,0,0,0,0,-1,594,1821,0,0
-623,-797,0,0,0,0,0,0,0,0,0,-1,601,1821,0,0
-616,-797,0,0,0,0,0,0,0,0,0,-1,608,1821,0,0
-609,-797,0,0,0,0,0,0,0,0,0,-1,615,1821,0,0
-602,-797,0,0,0,0,0,0,0,0,0,-1,622,1821,0,0
-595,-797,0,0,0,0,0,0,0,0,0,-1,629,1821,0,0
-588,-797,0,0,0,0,0,0,0,0,0,-1,636,1821,0,0
-581,-797,0,0,0,0,0,0,0,0,0,-1,643,1821,0,0
-574,-797,0,0,0,0,0,0,0,0,0,-1,650,1821,0,0
-567,-797,0,0,0,0,0,0,0,0,0,-1,657,1821,0,0
-560,-797,0,0,0,0,0,0,0,0,0,-1,664,1821,0,0
-553,-797,0,0,0,0,0,0,0,0,0,-1,671,1821,0,0
-546,-797,0,0,0,0,0,0,0,0,0,-1,678,1821,0,0
-539,-797,0,0,0,0,0,0,0,0,0,-1,685,1821,0,0
-532,-797,0,0,0,0,0,0,0,0,0,-1,692,1821,0,0
-525,-797,0,0,0,0,0,0,0,0,0,-1,699,1821,0,0
-518,-797,0,0,0,0,0,0,0,0,0,-1,706,1821,0,0
-511,-797,0,0,0,0,0,0,0,0,0,-1,713,1821,0,0
-504,-797,0,0,0,0,0,0,0,0,0,-1,720,1821,0,0
-497,-797,0,0,0,0,0,0,0,0,0,-1,727,1821,0,0
-490,-797,0,0,0,0,0,0,0,0,0,-1,734,1821,0,0
-483,-797,0,0,0,0,0,0,0,0,0,-1,741,1821,0,0
-476,-797,0,0,0,0,0,0,0,0,0,-1,748,1821,0,0
-469,-797,0,0,0,0,0,0,0,0,0,-1,755,1821,0,0
-462,-797,0,0,0,0,0,0,0,0,0,-1,762,1821,0,0
-455,-797,0,0,0,0,0,0,0,0,0,-1,769,1821,0,0
-448,-797,0,0,0,0,0,0,0,0,0,-1,776,1821,0,0
-441,-797,0,0,0,0,0,0,0,0,0,-1,783,1821,0,0
-434,-797,0,0,0,0,0,0,0,0,0,-1,790,1821,0,0
-427,-797,0,0,0,0,0,0,0,0,0,-1,797,1821,0,0
-420,-797,0,0,0,0,0,0,0,0,0,-1,804,1821,0,0
-413,-797,0,0,0,0,0,0,0,0,0,-1,811,1821,0,0
-406,-797,0,0,0,0,0,0,0,0,0,-1,818,1821,0,0
-399,-797,0,0,0,0,0,0,0,0,0,-1,825,1821,0,0
-392,-797,0,0,0,0,0,0,0,0,0,-1,832,1821,0,0
-385,-797,0,0,0,0,0,0,0,0,0,-1,839,1821,0,0
-378,-797,0,0,0,0,0,0,0,0,0,-1,846,1821,0,0
-371,-797,0,0,0,0,0,0,0,0,0,-1,853,1821,0,0
-364,-797,0,0,0,0,0,0,0,0,0,-1,860,1821,0,0
-357,-797,0,0,0,0,0,0,0,0,0,-1,867,1821,0,0
-350,-797,0,0,0,0,0,0,0,0,0,-1,874,1821,0,0
-343,-797,0,0,0,0,0,0,0,0,0,-1,881,1821,0,0
-336,-797,0,0,0,0,0,0,0,0,0,-1,888,1821,0,0
-329,-797,0,0,0,0,0,0,0,0,0,-1,895,1821,0,0
-322,-797,0,0,0,0,0,0,0,0,0,-1,902,1821,0,0
-315,-797,0,0,0,0,0,0,0,0,0,-1,909,1821,0,0
-308,-797,0,0,0,0,0,0,0,0,0,-1,916,1821,0,0
-301,-797,0,0,0,0,0,0,0,0,0,-1,923,1821,0,0
-294,-797,0,0,0,0,0,0,0,0,0,-1,930,1821,0,0
-287,-797,0,0,0,0,0,0,0,0,0,-1,937,1821,0,0
-280,-797,0,0,0,0,0,0,0,0,0,-1,944,1821,0,0
-273,-797,0,0,0,0,0,0,0,0,0,-1,951,1821,0,0
-266,-797,0,0,0,0,0,0,0,0,0,-1,958,1821,0,0
-259,-797,0,0,0,0,0,0,0,0,0,-1,965,1821,0,0
-252,-797,0,0,0,0,0,0,0,0,0,-1,972,1821,0,0
-245,-797,0,0,0,0,0,0,0,0,0,-1,979,1821,0,0
-238,-797,0,0,0,0,0,0,0,0,0,-1,986,1821,0,0
-231,-797,0,0,0,0,0,0,0,0,0,-1,993,1821,0,0
-224,-797,0,0,0,0,0,0,0,0,0,-1,1000,1821,0,0
-217,-797,0,0,0,0,0,0,0,0,0,-1,1007,1821,0,0
-210,-797,0,0,0,0,0,0,0,0,0,-1,1014,1821,0,0
-203,-797,0,0,0,0,0,0,0,0,0,-1,1021,1821,0,0
-196,-797,0,0,0,0,0,0,0,0,0,-1,1028,1821,0,0
-189,-797,0,0,0,0,0,0,0,0,0,-1,1035,1821,0,0
-182,-797,0,0,0,0,0,0,0,0,0,-1,1042,1821,0,0
-175,-797,0,0,0,0,0,0,0,0,0,-1,1049,1821,0,0
-168,-797,0,0,0,0,0,0,0,0,0,-1,1056,1821,0,0
-161,-797,0,0,0,0,0,0,0,0,0,-1,1063,1821,0,0
-154,-797,0,0,0,0,0,0,0,0,0,-1,1070,1821,0,0
-147,-797,0,0,0,0,0,0,0,0,0,-1,1077,1821,0,0
-140,-797,0,0,0,0,0,0,0,0,0,-1,1084,1821,0,0
-133,-797,0,0,0,0,0,0,0,0,0,-1,1091,1821,0,0
-126,-797,0,0,0,0,0,0,0,0,0,-1,1098,1821,0,0
-119,-797,0,0,0,0,0,0,0,0,0,-1,1105,1821,0,0
-112,-797,0,0,0,0,0,0,0,0,0,-1,1112,1821,0,0
-105,-797,0,0,0,0,0,0,0,0,0,-1,1119,1821,0,0
-98,-797,0,0,0,0,0,0,0,0,0,-1,1126,1821,0,0
-91,-797,0,0,0,0,0,0,0,0,0,-1,1133,1821,0,0
-84,-797,0,0,0,0,0,0,0,0,0,-1,1140,1821,0,0
-77,-797,0,0,0,0,0,0,0,0,0,-1,1147,1821,0,0
-70,-797,0,0,0,0,0,0,0,0,0,-1,1154,1821,0,0
-63,-797,0,0,0,0,0,0,0,0,0,-1,1161,1821,0,0
-56,-797,0,0,0,0,0,0,0,0,0,-1,1168,1821,0,0
-49,-797,0,0,0,0,0,0,0,0,0,-1,1175,1821,0,0
-42,-797,0.579834,0.692871,0,0,0,0,0,0,0,-1,1182,1821,0.579856,-0.692816
-35,-797,-0.185425,5.55396,0,0,0,0,0,0,0,-1,1189,1821,-0.18542,-5.55396
-28,-797,-0.310181,4.71509,0,0,0,0,0,0,0,-1,1196,1821,-0.310228,-4.71503
-21,-797,6.22522,29.062,0,0,0,0,0,0,0,-1,1203,1821,6.22523,-29.062
-14,-797,11.6418,36.8258,0,0,0,0,0,0,0,-1,1210,1821,11.6418,-36.8258
-7,-797,10.775,36.7013,0,0,0,0,0,0,0,-1,1217,1821,10.775,-36.7013
0,-797,7.7146,34.785,0,0,0,0,0,0,0,-1,1224,1821,7.71458,-34.785
7,-797,7.74597,34.5991,0,0,0,0,0,0,0,-1,1231,1821,7.74599,-34.5992
14,-797,7.94873,34.5282,0,0,0,0,0,0,0,-1,1238,1821,7.94874,-34.5282
21,-797,8.15796,34.4028,0,0,0,0,0,0,0,-1,1245,1821,8.15791,-34.4028
28,-797,8.72644,38.3978,0,0,0,0,0,0,0,-1,1252,1821,8.72649,-38.3979
35,-797,8.50146,38.1089,0,0,0,0,0,0,0,-1,1259,1821,8.50141,-38.1089
42,-797,8.36035,37.2665,0,0,0,0,0,0,0,-1,1266,1821,8.3603,-37.2664
49,-797,6.19116,37.3121,0.108247,0.0478294,-0.0371927,0.125953,0.0301229,-0.444324,0.075946,0.0466028,1273,1821,6.1912,-37.3122
56,-797,6.90479,36.5016,0.110547,0.0426439,-0.0403403,0.129322,0.0238694,-0.43559,0.0794622,0.0461755,1280,1821,6.90474,-36.5015
63,-797,7.52649,35.7188,0.10727,0.038089,-0.0404487,0.125902,0.0194573,-0.431654,0.0782591,0.0435791,1287,1821,7.52653,-35.7188
70,-797,8.42432,34.8944,0.0987013,0.0342067,-0.0368079,0.11539,0.0175182,-0.425672,0.071803,0.0442928,1294,1821,8.42429,-34.8944
77,-797,9.39026,34.0182,0.0860739,0.027465,-0.0315188,0.0998065,0.0137324,-0.410894,0.0624654,0.0433095,1301,1821,9.39027,-34.0182
84,-797,10.3384,32.8951,0.0701112,0.0266135,-0.0233713,0.0802877,0.016437,-0.410671,0.0489744,0.0451069,1308,1821,10.3383,-32.8952
91,-797,11.2639,31.8489,0.0502598,0.0228482,-0.0124455,0.0550672,0.0180408,-0.36862,0.0324168,0.0483184,1315,1821,11.2639,-31.8489
98,-797,7.84937,37.1071,0.0286022,0.0178768,-0.00234731,0.0290934,0.0173856,-0.206294,0.0169034,0.0475713,1322,1821,7.84931,-37.1071
105,-797,7.14233,36.5394,0,0,0,0,0,0,0,-1,1329,1821,7.14237,-36.5394
112,-797,6.46448,36.207,0,0,0,0,0,0,0,-1,1336,1821,6.46447,-36.207
119,-797,5.95227,35.6696,0,0,0,0,0,0,0,-1,1343,1821,5.95232,-35.6695
126,-797,5.53882,34.9569,0,0,0,0,0,0,0,-1,1350,1821,5.53884,-34.957
133,-797,5.14014,34.2015,0,0,0,0,0,0,0,-1,1357,1821,5.14008,-34.2015
140,-797,5.78687,32.4373,0,0,0,0,0,0,0,-1,1364,1821,5.78683,-32.4372
147,-797,6.724,31.4224,0,0,0,0,0,0,0,-1,1371,1821,6.72403,-31.4224
154,-797,40.2623,8.88733,0,0,0,0,0,0,0,-1,1378,1821,40.2623,-8.88731
161,-797,42.2798,8.17371,0,0,0,0,0,0,0,-1,1385,1821,42.2798,-8.17367
168,-797,0,0,0,0,0,0,0,0,0,-1,1392,1821,0,0
175,-797,0,0,0,0,0,0,0,0,0,-1,1399,1821,0,0
182,-797,0,0,0,0,0,0,0,0,0,-1,1406,1821,0,0
189,-797,0,0,0,0,0,0,0,0,0,-1,1413,1821,0,0
196,-797,0,0,0,0,0,0,0,0,0,-1,1420,1821,0,0
203,-797,0,0,0,0,0,0,0,0,0,-1,1427,1821,0,0
210,-797,0,0,0,0,0,0,0,0,0,-1,1434,1821,0,0
217,-797,0,0,0,0,0,0,0,0,0,-1,1441,1821,0,0
224,-797,0,0,0,0,0,0,0,0,0,-1,1448,1821,0,0
231,-797,0,0,0,0,0,0,0,0,0,-1,1455,1821,0,0
238,-797,0,0,0,0,0,0,0,0,0,-1,1462,1821,0,0
245,-797,0,0,0,0,0,0,0,0,0,-1,1469,1821,0,0
252,-797,0,0,0,0,0,0,0,0,0,-1,1476,1821,0,0
259,-797,0,0,0,0,0,0,0,0,0,-1,1483,1821,0,0
266,-797,0,0,0,0,0,0,0,0,0,-1,1490,1821,0,0
273,-797,0,0,0,0,0,0,0,0,0,-1,1497,1821,0,0
280,-797,0,0,0,0,0,0,0,0,0,-1,1504,1821,0,0
287,-797,0,0,0,0,0,0,0,0,0,-1,1511,1821,0,0
294,-797,0,0,0,0,0,0,0,0,0,-1,1518,1821,0,0
301,-797,0,0,0,0,0,0,0,0,0,-1,1525,1821,0,0
308,-797,0,0,0,0,0,0,0,0,0,-1,1532,1821,0,0
315,-797,0,0,0,0,0,0,0,0,0,-1,1539,1821,0,0
322,-797,0,0,0,0,0,0,0,0,0,-1,1546,1821,0,0
329,-797,0,0,0,0,0,0,0,0,0,-1,1553,1821,0,0
336,-797,0,0,0,0,0,0,0,0,0,-1,1560,1821,0,0
343,-797,0,0,0,0,0,0,0,0,0,-1,1567,1821,0,0
350,-797,0,0,0,0,0,0,0,0,0,-1,1574,1821,0,0
357,-797,0,0,0,0,0,0,0,0,0,-1,1581,1821,0,0
364,-797,0,0,0,0,0,0,0,0,0,-1,1588,1821,0,0
371,-797,0,0,0,0,0,0,0,0,0,-1,1595,1821,0,0
378,-797,0,0,0,0,0,0,0,0,0,-1,1602,1821,0,0
385,-797,0,0,0,0,0,0,0,0,0,-1,1609,1821,0,0
392,-797,0,0,0,0,0,0,0,0,0,-1,1616,1821,0,0
399,-797,0,0,0,0,0,0,0,0,0,-1,1623,1821,0,0
406,-797,0,0,0,0,0,0,0,0,0,-1,1630,1821,0,0
413,-797,0,0,0,0,0,0,0,0,0,-1,1637,1821,0,0
420,-797,0,0,0,0,0,0,0,0,0,-1,1644,1821,0,0
427,-797,0,0,0,0,0,0,0,0,0,-1,1651,1821,0,0
434,-797,0,0,0,0,0,0,0,0,0,-1,1658,1821,0,0
441,-797,0,0,0,0,0,0,0,0,0,-1,1665,1821,0,0
448,-797,0,0,0,0,0,0,0,0,0,-1,1672,1821,0,0
455,-797,0,0,0,0,0,0,0,0,0,-1,1679,1821,0,0
462,-797,0,0,0,0,0,0,0,0,0,-1,1686,1821,0,0
469,-797,0,0,0,0,0,0,0,0,0,-1,1693,1821,0,0
476,-797,0,0,0,0,0,0,0,0,0,-1,1700,1821,0,0
483,-797,0,0,0,0,0,0,0,0,0,-1,1707,1821,0,0
490,-797,0,0,0,0,0,0,0,0,0,-1,1714,1821,0,0
497,-797,0,0,0,0,0,0,0,0,0,-1,1721,1821,0,0
504,-797,0,0,0,0,0,0,0,0,0,-1,1728,1821,0,0
511,-797,0,0,0,0,0,0,0,0,0,-1,1735,1821,0,0
518,-797,0,0,0,0,0,0,0,0,0,-1,1742,1821,0,0
525,-797,0,0,0,0,0,0,0,0,0,-1,1749,1821,0,0
532,-797,0,0,0,0,0,0,0,0,0,-1,1756,1821,0,0
539,-797,0,0,0,0,0,0,0,0,0,-1,1763,1821,0,0
546,-797,0,0,0,0,0,0,0,0,0,-1,1770,1821,0,0
553,-797,0,0,0,0,0,0,0,0,0,-1,1777,1821,0,0
560,-797,0,0,0,0,0,0,0,0,0,-1,1784,1821,0,0
567,-797,0,0,0,0,0,0,0,0,0,-1,1791,1821,0,0
574,-797,0,0,0,0,0,0,0,0,0,-1,1798,1821,0,0
581,-797,0,0,0,0,0,0,0,0,0,-1,1805,1821,0,0
588,-797,0,0,0,0,0,0,0,0,0,-1,1812,1821,0,0
595,-797,0,0,0,0,0,0,0,0,0,-1,1819,1821,0,0
602,-797,0,0,0,0,0,0,0,0,0,-1,1826,1821,0,0
609,-797,0,0,0,0,0,0,0,0,0,-1,1833,1821,0,0
616,-797,0,0,0,0,0,0,0,0,0,-1,1840,1821,0,0
623,-797,0,0,0,0,0,0,0,0,0,-1,1847,1821,0,0
630,-797,0,0,0,0,0,0,0,0,0,-1,1854,1821,0,0
637,-797,0,0,0,0,0,0,0,0,0,-1,1861,1821,0,0
644,-797,0,0,0,0,0,0,0,0,0,-1,1868,1821,0,0
651,-797,0,0,0,0,0,0,0,0,0,-1,1875,1821,0,0
658,-797,0,0,0,0,0,0,0,0,0,-1,1882,1821,0,0
665,-797,0,0,0,0,0,0,0,0,0,-1,1889,1821,0,0
672,-797,0,0,0,0,0,0,0,0,0,-1,1896,1821,0,0
679,-797,0,0,0,0,0,0,0,0,0,-1,1903,1821,0,0
686,-797,0,0,0,0,0,0,0,0,0,-1,1910,1821,0,0
693,-797,0,0,0,0,0,0,0,0,0,-1,1917,1821,0,0
700,-797,0,0,0,0,0,0,0,0,0,-1,1924,1821,0,0
707,-797,0,0,0,0,0,0,0,0,0,-1,1931,1821,0,0
714,-797,0,0,0,0,0,0,0,0,0,-1,1938,1821,0,0
721,-797,0,0,0,0,0,0,0,0,0,-1,1945,1821,0,0
728,-797,0,0,0,0,0,0,0,0,0,-1,1952,1821,0,0
735,-797,0,0,0,0,0,0,0,0,0,-1,1959,1821,0,0
742,-797,0,0,0,0,0,0,0,0,0,-1,1966,1821,0,0
749,-797,0,0,0,0,0,0,0,0,0,-1,1973,1821,0,0
756,-797,0,0,0,0,0,0,0,0,0,-1,1980,1821,0,0
763,-797,0,0,0,0,0,0,0,0,0,-1,1987,1821,0,0
770,-797,0,0,0,0,0,0,0,0,0,-1,1994,1821,0,0
777,-797,0,0,0,0,0,0,0,0,0,-1,2001,1821,0,0
784,-797,0,0,0,0,0,0,0,0,0,-1,2008,1821,0,0
791,-797,0,0,0,0,0,0,0,0,0,-1,2015,1821,0,0
798,-797,0,0,0,0,0,0,0,0,0,-1,2022,1821,0,0
805,-797,0,0,0,0,0,0,0,0,0,-1,2029,1821,0,0
812,-797,0,0,0,0,0,0,0,0,0,-1,2036,1821,0,0
-700,-804,0,0,0,0,0,0,0,0,0,-1,524,1828,0,0
-693,-804,0,0,0,0,0,0,0,0,0,-1,531,1828,0,0
-686,-804,0,0,0,0,0,0,0,0,0,-1,538,1828,0,0
-679,-804,0,0,0,0,0,0,0,0,0,-1,545,1828,0,0
-672,-804,0,0,0,0,0,0,0,0,0,-1,552,1828,0,0
-665,-804,0,0,0,0,0,0,0,0,0,-1,559,1828,0,0
-658,-804,0,0,0,0,0,0,0,0,0,-1,566,1828,0,0
-651,-804,0,0,0,0,0,0,0,0,0,-1,573,1828,0,0
-644,-804,0,0,0,0,0,0,0,0,0,-1,580,1828,0,0
-637,-804,0,0,0,0,0,0,0,0,0,-1,587,1828,0,0
-630,-804,0,0,0,0,0,0,0,0,0,-1,594,1828,0,0
-623,-804,0,0,0,0,0,0,0,0,0,-1,601,1828,0,0
-616,-804,0,0,0,0,0,0,0,0,0,-1,608,1828,0,0
-609,-804,0,0,0,0,0,0,0,0,0,-1,615,1828,0,0
-602,-804,0,0,0,0,0,0,0,0,0,-1,622,1828,0,0
-595,-804,0,0,0,0,0,0,0,0,0,-1,629,1828,0,0
-588,-804,0,0,0,0,0,0,0,0,0,-1,636,1828,0,0
-581,-804,0,0,0,0,0,0,0,0,0,-1,643,1828,0,0
-574,-804,0,0,0,0,0,0,0,0,0,-1,650,1828,0,0
-567,-804,0,0,0,0,0,0,0,0,0,-1,657,1828,0,0
-560,-804,0,0,0,0,0,0,0,0,0,-1,664,1828,0,0
-553,-804,0,0,0,0,0,0,0,0,0,-1,671,1828,0,0
-546,-804,0,0,0,0,0,0,0,0,0,-1,678,1828,0,0
-539,-804,0,0,0,0,0,0,0,0,0,-1,685,1828,0,0
-532,-804,0,0,0,0,0,0,0,0,0,-1,692,1828,0,0
-525,-804,0,0,0,0,0,0,0,0,0,-1,699,1828,0,0
-518,-804,0,0,0,0,0,0,0,0,0,-1,706,1828,0,0
-511,-804,0,0,0,0,0,0,0,0,0,-1,713,1828,0,0
-504,-804,0,0,0,0,0,0,0,0,0,-1,720,1828,0,0
-497,-804,0,0,0,0,0,0,0,0,0,-1,727,1828,0,0
-490,-804,0,0,0,0,0,0,0,0,0,-1,734,1828,0,0
-483,-804,0,0,0,0,0,0,0,0,0,-1,741,1828,0,0
-476,-804,0,0,0,0,0,0,0,0,0,-1,748,1828,0,0
-469,-804,0,0,0,0,0,0,0,0,0,-1,755,1828,0,0
-462,-804,0,0,0,0,0,0,0,0,0,-1,762,1828,0,0
-455,-804,0,0,0,0,0,0,0,0,0,-1,769,1828,0,0
-448,-804,0,0,0,0,0,0,0,0,0,-1,776,1828,0,0
-441,-804,0,0,0,0,0,0,0,0,0,-1,783,1828,0,0
-434,-804,0,0,0,0,0,0,0,0,0,-1,790,1828,0,0
-427,-804,0,0,0,0,0,0,0,0,0,-1,797,1828,0,0
-420,-804,0,0,0,0,0,0,0,0,0,-1,804,1828,0,0
-413,-804,0,0,0,0,0,0,0,0,0,-1,811,1828,0,0
-406,-804,0,0,0,0,0,0,0,0,0,-1,818,1828,0,0
-399,-804,0,0,0,0,0,0,0,0,0,-1,825,1828,0,0
-392,-804,0,0,0,0,0,0,0,0,0,-1,832,1828,0,0
-385,-804,0,0,0,0,0,0,0,0,0,-1,839,1828,0,0
-378,-804,0,0,0,0,0,0,0,0,0,-1,846,1828,0,0
-371,-804,0,0,0,0,0,0,0,0,0,-1,853,1828,0,0
-364,-804,0,0,0,0,0,0,0,0,0,-1,860,1828,0,0
-357,-804,0,0,0,0,0,0,0,0,0,-1,867,1828,0,0
-350,-804,0,0,0,0,0,0,0,0,0,-1,874,1828,0,0
-343,-804,0,0,0,0,0,0,0,0,0,-1,881,1828,0,0
-336,-804,0,0,0,0,0,0,0,0,0,-1,888,1828,0,0
-329,-804,0,0,0,0,0,0,0,0,0,-1,895,1828,0,0
-322,-804,0,0,0,0,0,0,0,0,0,-1,902,1828,0,0
-315,-804,0,0,0,0,0,0,0,0,0,-1,909,1828,0,0
-308,-804,0,0,0,0,0,0,0,0,0,-1,916,1828,0,0
-301,-804,0,0,0,0,0,0,0,0,0,-1,923,1828,0,0
-294,-804,0,0,0,0,0,0,0,0,0,-1,930,1828,0,0
-287,-804,0,0,0,0,0,0,0,0,0,-1,937,1828,0,0
-280,-804,0,0,0,0,0,0,0,0,0,-1,944,1828,0,0
-273,-804,0,0,0,0,0,0,0,0,0,-1,951,1828,0,0
-266,-804,0,0,0,0,0,0,0,0,0,-1,958,1828,0,0
-259,-804,0,0,0,0,0,0,0,0,0,-1,965,1828,0,0
-252,-804,0,0,0,0,0,0,0,0,0,-1,972,1828,0,0
-245,-804,0,0,0,0,0,0,0,0,0,-1,979,1828,0,0
-238,-804,0,0,0,0,0,0,0,0,0,-1,986,1828,0,0
-231,-804,0,0,0,0,0,0,0,0,0,-1,993,1828,0,0
-224,-804,0,0,0,0,0,0,0,0,0,-1,1000,1828,0,0
-217,-804,0,0,0,0,0,0,0,0,0,-1,1007,1828,0,0
-210,-804,0,0,0,0,0,0,0,0,0,-1,1014,1828,0,0
-203,-804,0,0,0,0,0,0,0,0,0,-1,1021,1828,0,0
-196,-804,0,0,0,0,0,0,0,0,0,-1,1028,1828,0,0
-189,-804,0,0,0,0,0,0,0,0,0,-1,1035,1828,0,0
-182,-804,0,0,0,0,0,0,0,0,0,-1,1042,1828,0,0
-175,-804,0,0,0,0,0,0,0,0,0,-1,1049,1828,0,0
-168,-804,0,0,0,0,0,0,0,0,0,-1,1056,1828,0,0
-161,-804,0,0,0,0,0,0,0,0,0,-1,1063,1828,0,0
-154,-804,0,0,0,0,0,0,0,0,0,-1,1070,1828,0,0
-147,-804,0,0,0,0,0,0,0,0,0,-1,1077,1828,0,0
-140,-804,0,0,0,0,0,0,0,0,0,-1,1084,1828,0,0
-133,-804,0,0,0,0,0,0,0,0,0,-1,1091,1828,0,0
-126,-804,0,0,0,0,0,0,0,0,0,-1,1098,1828,0,0
-119,-804,0,0,0,0,0,0,0,0,0,-1,1105,1828,0,0
-112,-804,0,0,0,0,0,0,0,0,0,-1,1112,1828,0,0
-105,-804,0,0,0,0,0,0,0,0,0,-1,1119,1828,0,0
-98,-804,0,0,0,0,0,0,0,0,0,-1,1126,1828,0,0
-91,-804,0,0,0,0,0,0,0,0,0,-1,1133,1828,0,0
-84,-804,0,0,0,0,0,0,0,0,0,-1,1140,1828,0,0
-77,-804,0,0,0,0,0,0,0,0,0,-1,1147,1828,0,0
-70,-804,0,0,0,0,0,0,0,0,0,-1,1154,1828,0,0
-63,-804,0,0,0,0,0,0,0,0,0,-1,1161,1828,0,0
-56,-804,0,0,0,0,0,0,0,0,0,-1,1168,1828,0,0
-49,-804,0,0,0,0,0,0,0,0,0,-1,1175,1828,0,0
-42,-804,0,0,0,0,0,0,0,0,0,-1,1182,1828,0,0
-35,-804,0,0,0,0,0,0,0,0,0,-1,1189,1828,0,0
-28,-804,0,0,0,0,0,0,0,0,0,-1,1196,1828,0,0
-21,-804,0,0,0,0,0,0,0,0,0,-1,1203,1828,0,0
-14,-804,0,0,0,0,0,0,0,0,0,-1,1210,1828,0,0
-7,-804,0,0,0,0,0,0,0,0,0,-1,1217,1828,0,0
0,-804,0,0,0,0,0,0,0,0,0,-1,1224,1828,0,0
7,-804,0,0,0,0,0,0,0,0,0,-1,1231,1828,0,0
14,-804,0,0,0,0,0,0,0,0,0,-1,1238,1828,0,0
21,-804,0,0,0,0,0,0,0,0,0,-1,1245,1828,0,0
28,-804,0,0,0,0,0,0,0,0,0,-1,1252,1828,0,0
35,-804,4.41138,38.2446,0,0,0,0,0,0,0,-1,1259,1828,4.41136,-38.2446
42,-804,5.19666,37.6482,0,0,0,0,0,0,0,-1,1266,1828,5.19667,-37.6482
49,-804,5.99231,36.9698,0.133849,0.0655568,-0.0468426,0.15767,0.0417359,-0.47045,0.0943309,0.0459946,1273,1828,5.99231,-36.9699
56,-804,6.78638,36.171,0.137078,0.0576081,-0.0516132,0.16248,0.0322064,-0.457352,0.0993402,0.0462025,1280,1828,6.78633,-36.171
63,-804,7.63623,35.3597,0.134424,0.0513262,-0.0522684,0.159645,0.0261046,-0.449583,0.098884,0.047902,1287,1828,7.63622,-35.3598
70,-804,9.12927,34.761,0.124707,0.0456307,-0.0478193,0.147217,0.0231208,-0.439957,0.0914173,0.0496698,1294,1828,9.12928,-34.761
77,-804,10.0204,33.8224,0.109594,0.0376856,-0.0408216,0.128037,0.0192421,-0.424356,0.0797221,0.0470931,1301,1828,10.0203,-33.8223
84,-804,10.8762,32.7605,0.0895429,0.0350121,-0.0295521,0.102486,0.0220689,-0.412811,0.0622849,0.047536,1308,1828,10.8763,-32.7605
91,-804,0,0,0,0,0,0,0,0,0,-1,1315,1828,0,0
98,-804,0,0,0,0,0,0,0,0,0,-1,1322,1828,0,0
105,-804,0,0,0,0,0,0,0,0,0,-1,1329,1828,0,0
112,-804,0,0,0,0,0,0,0,0,0,-1,1336,1828,0,0
119,-804,0,0,0,0,0,0,0,0,0,-1,1343,1828,0,0
126,-804,0,0,0,0,0,0,0,0,0,-1,1350,1828,0,0
133,-804,0,0,0,0,0,0,0,0,0,-1,1357,1828,0,0
140,-804,0,0,0,0,0,0,0,0,0,-1,1364,1828,0,0
147,-804,0,0,0,0,0,0,0,0,0,-1,1371,1828,0,0
154,-804,0,0,0,0,0,0,0,0,0,-1,1378,1828,0,0
161,-804,0,0,0,0,0,0,0,0,0,-1,1385,1828,0,0
168,-804,0,0,0,0,0,0,0,0,0,-1,1392,1828,0,0
175,-804,0,0,0,0,0,0,0,0,0,-1,1399,1828,0,0
182,-804,0,0,0,0,0,0,0,0,0,-1,1406,1828,0,0
189,-804,0,0,0,0,0,0,0,0,0,-1,1413,1828,0,0
196,-804,0,0,0,0,0,0,0,0,0,-1,1420,1828,0,0
203,-804,0,0,0,0,0,0,0,0,0,-1,1427,1828,0,0
210,-804,0,0,0,0,0,0,0,0,0,-1,1434,1828,0,0
217,-804,0,0,0,0,0,0,0,0,0,-1,1441,1828,0,0
224,-804,0,0,0,0,0,0,0,0,0,-1,1448,1828,0,0
231,-804,0,0,0,0,0,0,0,0,0,-1,1455,1828,0,0
238,-804,0,0,0,0,0,0,0,0,0,-1,1462,1828,0,0
245,-804,0,0,0,0,0,0,0,0,0,-1,1469,1828,0,0
252,-804,0,0,0,0,0,0,0,0,0,-1,1476,1828,0,0
259,-804,0,0,0,0,0,0,0,0,0,-1,1483,1828,0,0
266,-804,0,0,0,0,0,0,0,0,0,-1,1490,1828,0,0
273,-804,0,0,0,0,0,0,0,0,0,-1,1497,1828,0,0
280,-804,0,0,0,0,0,0,0,0,0,-1,1504,1828,0,0
287,-804,0,0,0,0,0,0,0,0,0,-1,1511,1828,0,0
294,-804,0,0,0,0,0,0,0,0,0,-1,1518,1828,0,0
301,-804,0,0,0,0,0,0,0,0,0,-1,1525,1828,0,0
308,-804,0,0,0,0,0,0,0,0,0,-1,1532,1828,0,0
315,-804,0,0,0,0,0,0,0,0,0,-1,1539,1828,0,0
322,-804,0,0,0,0,0,0,0,0,0,-1,1546,1828,0,0
329,-804,0,0,0,0,0,0,0,0,0,-1,1553,1828,0,0
336,-804,0,0,0,0,0,0,0,0,0,-1,1560,1828,0,0
343,-804,0,0,0,0,0,0,0,0,0,-1,1567,1828,0,0
350,-804,0,0,0,0,0,0,0,0,0,-1,1574,1828,0,0
357,-804,0,0,0,0,0,0,0,0,0,-1,1581,1828,0,0
364,-804,0,0,0,0,0,0,0,0,0,-1,1588,1828,0,0
371,-804,0,0,0,0,0,0,0,0,0,-1,1595,1828,0,0
378,-804,0,0,0,0,0,0,0,0,0,-1,1602,1828,0,0
385,-804,0,0,0,0,0,0,0,0,0,-1,1609,1828,0,0
392,-804,0,0,0,0,0,0,0,0,0,-1,1616,1828,0,0
399,-804,0,0,0,0,0,0,0,0,0,-1,1623,1828,0,0
406,-804,0,0,0,0,0,0,0,0,0,-1,1630,1828,0,0
413,-804,0,0,0,0,0,0,0,0,0,-1,1637,1828,0,0
420,-804,0,0,0,0,0,0,0,0,0,-1,1644,1828,0,0
427,-804,0,0,0,0,0,0,0,0,0,-1,1651,1828,0,0
434,-804,0,0,0,0,0,0,0,0,0,-1,1658,1828,0,0
441,-804,0,0,0,0,0,0,0,0,0,-1,1665,1828,0,0
448,-804,0,0,0,0,0,0,0,0,0,-1,1672,1828,0,0
455,-804,0,0,0,0,0,0,0,0,0,-1,1679,1828,0,0
462,-804,0,0,0,0,0,0,0,0,0,-1,1686,1828,0,0
469,-804,0,0,0,0,0,0,0,0,0,-1,1693,1828,0,0
476,-804,0,0,0,0,0,0,0,0,0,-1,1700,1828,0,0
483,-804,0,0,0,0,0,0,0,0,0,-1,1707,1828,0,0
490,-804,0,0,0,0,0,0,0,0,0,-1,1714,1828,0,0
497,-804,0,0,0,0,0,0,0,0,0,-1,1721,1828,0,0
504,-804,0,0,0,0,0,0,0,0,0,-1,1728,1828,0,0
511,-804,0,0,0,0,0,0,0,0,0,-1,1735,1828,0,0
518,-804,0,0,0,0,0,0,0,0,0,-1,1742,1828,0,0
525,-804,0,0,0,0,0,0,0,0,0,-1,1749,1828,0,0
532,-804,0,0,0,0,0,0,0,0,0,-1,1756,1828,0,0
539,-804,0,0,0,0,0,0,0,0,0,-1,1763,1828,0,0
546,-804,0,0,0,0,0,0,0,0,0,-1,1770,1828,0,0
553,-804,0,0,0,0,0,0,0,0,0,-1,1777,1828,0,0
560,-804,0,0,0,0,0,0,0,0,0,-1,1784,1828,0,0
567,-804,0,0,0,0,0,0,0,0,0,-1,1791,1828,0,0
574,-804,0,0,0,0,0,0,0,0,0,-1,1798,1828,0,0
581,-804,0,0,0,0,0,0,0,0,0,-1,1805,1828,0,0
588,-804,0,0,0,0,0,0,0,0,0,-1,1812,1828,0,0
595,-804,0,0,0,0,0,0,0,0,0,-1,1819,1828,0,0
602,-804,0,0,0,0,0,0,0,0,0,-1,1826,1828,0,0
609,-804,0,0,0,0,0,0,0,0,0,-1,1833,1828,0,0
616,-804,0,0,0,0,0,0,0,0,0,-1,1840,1828,0,0
623,-804,0,0,0,0,0,0,0,0,0,-1,1847,1828,0,0
630,-804,0,0,0,0,0,0,0,0,0,-1,1854,1828,0,0
637,-804,0,0,0,0,0,0,0,0,0,-1,1861,1828,0,0
644,-804,0,0,0,0,0,0,0,0,0,-1,1868,1828,0,0
651,-804,0,0,0,0,0,0,0,0,0,-1,1875,1828,0,0
658,-804,0,0,0,0,0,0,0,0,0,-1,1882,1828,0,0
665,-804,0,0,0,0,0,0,0,0,0,-1,1889,1828,0,0
672,-804,0,0,0,0,0,0,0,0,0,-1,1896,1828,0,0
679,-804,0,0,0,0,0,0,0,0,0,-1,1903,1828,0,0
686,-804,0,0,0,0,0,0,0,0,0,-1,1910,1828,0,0
693,-804,0,0,0,0,0,0,0,0,0,-1,1917,1828,0,0
700,-804,0,0,0,0,0,0,0,0,0,-1,1924,1828,0,0
707,-804,0,0,0,0,0,0,0,0,0,-1,1931,1828,0,0
714,-804,0,0,0,0,0,0,0,0,0,-1,1938,1828,0,0
721,-804,0,0,0,0,0,0,0,0,0,-1,1945,1828,0,0
728,-804,0,0,0,0,0,0,0,0,0,-1,1952,1828,0,0
735,-804,0,0,0,0,0,0,0,0,0,-1,1959,1828,0,0
742,-804,0,0,0,0,0,0,0,0,0,-1,1966,1828,0,0
749,-804,0,0,0,0,0,0,0,0,0,-1,1973,1828,0,0
756,-804,0,0,0,0,0,0,0,0,0,-1,1980,1828,0,0
763,-804,0,0,0,0,0,0,0,0,0,-1,1987,1828,0,0
770,-804,0,0,0,0,0,0,0,0,0,-1,1994,1828,0,0
777,-804,0,0,0,0,0,0,0,0,0,-1,2001,1828,0,0
784,-804,0,0,0,0,0,0,0,0,0,-1,2008,1828,0,0
791,-804,0,0,0,0,0,0,0,0,0,-1,2015,1828,0,0
798,-804,0,0,0,0,0,0,0,0,0,-1,2022,1828,0,0
805,-804,0,0,0,0,0,0,0,0,0,-1,2029,1828,0,0
812,-804,0,0,0,0,0,0,0,0,0,-1,2036,1828,0,0

