 "x_c",  "y_c",  "u_c",  "v_c",  "exx",  "eyy",  "exy",  "e1",  "e2",  "gamma",  "e_vonmises",  "sigma",  "x",  "y",  "u",  "v"
-700,715,0,0,0,0,0,0,0,0,0,-1,524,309,0,0
-693,715,0,0,0,0,0,0,0,0,0,-1,531,309,0,0
-686,715,0,0,0,0,0,0,0,0,0,-1,538,309,0,0
-679,715,0,0,0,0,0,0,0,0,0,-1,545,309,0,0
-672,715,0,0,0,0,0,0,0,0,0,-1,552,309,0,0
-665,715,0,0,0,0,0,0,0,0,0,-1,559,309,0,0
-658,715,0,0,0,0,0,0,0,0,0,-1,566,309,0,0
-651,715,0,0,0,0,0,0,0,0,0,-1,573,309,0,0
-644,715,0,0,0,0,0,0,0,0,0,-1,580,309,0,0
-637,715,0,0,0,0,0,0,0,0,0,-1,587,309,0,0
-630,715,0,0,0,0,0,0,0,0,0,-1,594,309,0,0
-623,715,0,0,0,0,0,0,0,0,0,-1,601,309,0,0
-616,715,0,0,0,0,0,0,0,0,0,-1,608,309,0,0
-609,715,0,0,0,0,0,0,0,0,0,-1,615,309,0,0
-602,715,0,0,0,0,0,0,0,0,0,-1,622,309,0,0
-595,715,0,0,0,0,0,0,0,0,0,-1,629,309,0,0
-588,715,0,0,0,0,0,0,0,0,0,-1,636,309,0,0
-581,715,0,0,0,0,0,0,0,0,0,-1,643,309,0,0
-574,715,0,0,0,0,0,0,0,0,0,-1,650,309,0,0
-567,715,0,0,0,0,0,0,0,0,0,-1,657,309,0,0
-560,715,0,0,0,0,0,0,0,0,0,-1,664,309,0,0
-553,715,0,0,0,0,0,0,0,0,0,-1,671,309,0,0
-546,715,0,0,0,0,0,0,0,0,0,-1,678,309,0,0
-539,715,0,0,0,0,0,0,0,0,0,-1,685,309,0,0
-532,715,0,0,0,0,0,0,0,0,0,-1,692,309,0,0
-525,715,0,0,0,0,0,0,0,0,0,-1,699,309,0,0
-518,715,0,0,0,0,0,0,0,0,0,-1,706,309,0,0
-511,715,0,0,0,0,0,0,0,0,0,-1,713,309,0,0
-504,715,0,0,0,0,0,0,0,0,0,-1,720,309,0,0
-497,715,0,0,0,0,0,0,0,0,0,-1,727,309,0,0
-490,715,0,0,0,0,0,0,0,0,0,-1,734,309,0,0
-483,715,0,0,0,0,0,0,0,0,0,-1,741,309,0,0
-476,715,0,0,0,0,0,0,0,0,0,-1,748,309,0,0
-469,715,0,0,0,0,0,0,0,0,0,-1,755,309,0,0
-462,715,0,0,0,0,0,0,0,0,0,-1,762,309,0,0
-455,715,0,0,0,0,0,0,0,0,0,-1,769,309,0,0
-448,715,0,0,0,0,0,0,0,0,0,-1,776,309,0,0
-441,715,0,0,0,0,0,0,0,0,0,-1,783,309,0,0
-434,715,0,0,0,0,0,0,0,0,0,-1,790,309,0,0
-427,715,0,0,0,0,0,0,0,0,0,-1,797,309,0,0
-420,715,0,0,0,0,0,0,0,0,0,-1,804,309,0,0
-413,715,0,0,0,0,0,0,0,0,0,-1,811,309,0,0
-406,715,0,0,0,0,0,0,0,0,0,-1,818,309,0,0
-399,715,0,0,0,0,0,0,0,0,0,-1,825,309,0,0
-392,715,0,0,0,0,0,0,0,0,0,-1,832,309,0,0
-385,715,0,0,0,0,0,0,0,0,0,-1,839,309,0,0
-378,715,0,0,0,0,0,0,0,0,0,-1,846,309,0,0
-371,715,0,0,0,0,0,0,0,0,0,-1,853,309,0,0
-364,715,0,0,0,0,0,0,0,0,0,-1,860,309,0,0
-357,715,0,0,0,0,0,0,0,0,0,-1,867,309,0,0
-350,715,0,0,0,0,0,0,0,0,0,-1,874,309,0,0
-343,715,0,0,0,0,0,0,0,0,0,-1,881,309,0,0
-336,715,0,0,0,0,0,0,0,0,0,-1,888,309,0,0
-329,715,0,0,0,0,0,0,0,0,0,-1,895,309,0,0
-322,715,0,0,0,0,0,0,0,0,0,-1,902,309,0,0
-315,715,0,0,0,0,0,0,0,0,0,-1,909,309,0,0
-308,715,0,0,0,0,0,0,0,0,0,-1,916,309,0,0
-301,715,0,0,0,0,0,0,0,0,0,-1,923,309,0,0
-294,715,0,0,0,0,0,0,0,0,0,-1,930,309,0,0
-287,715,0,0,0,0,0,0,0,0,0,-1,937,309,0,0
-280,715,0,0,0,0,0,0,0,0,0,-1,944,309,0,0
-273,715,0,0,0,0,0,0,0,0,0,-1,951,309,0,0
-266,715,0,0,0,0,0,0,0,0,0,-1,958,309,0,0
-259,715,0,0,0,0,0,0,0,0,0,-1,965,309,0,0
-252,715,0,0,0,0,0,0,0,0,0,-1,972,309,0,0
-245,715,0,0,0,0,0,0,0,0,0,-1,979,309,0,0
-238,715,0,0,0,0,0,0,0,0,0,-1,986,309,0,0
-231,715,0,0,0,0,0,0,0,0,0,-1,993,309,0,0
-224,715,0,0,0,0,0,0,0,0,0,-1,1000,309,0,0
-217,715,0,0,0,0,0,0,0,0,0,-1,1007,309,0,0
-210,715,0,0,0,0,0,0,0,0,0,-1,1014,309,0,0
-203,715,0,0,0,0,0,0,0,0,0,-1,1021,309,0,0
-196,715,0,0,0,0,0,0,0,0,0,-1,1028,309,0,0
-189,715,0,0,0,0,0,0,0,0,0,-1,1035,309,0,0
-182,715,0,0,0,0,0,0,0,0,0,-1,1042,309,0,0
-175,715,0,0,0,0,0,0,0,0,0,-1,1049,309,0,0
-168,715,0,0,0,0,0,0,0,0,0,-1,1056,309,0,0
-161,715,0,0,0,0,0,0,0,0,0,-1,1063,309,0,0
-154,715,0,0,0,0,0,0,0,0,0,-1,1070,309,0,0
-147,715,0,0,0,0,0,0,0,0,0,-1,1077,309,0,0
-140,715,0,0,0,0,0,0,0,0,0,-1,1084,309,0,0
-133,715,0,0,0,0,0,0,0,0,0,-1,1091,309,0,0
-126,715,0,0,0,0,0,0,0,0,0,-1,1098,309,0,0
-119,715,0,0,0,0,0,0,0,0,0,-1,1105,309,0,0
-112,715,0,0,0,0,0,0,0,0,0,-1,1112,309,0,0
-105,715,0,0,0,0,0,0,0,0,0,-1,1119,309,0,0
-98,715,0,0,0,0,0,0,0,0,0,-1,1126,309,0,0
-91,715,0,0,0,0,0,0,0,0,0,-1,1133,309,0,0
-84,715,0,0,0,0,0,0,0,0,0,-1,1140,309,0,0
-77,715,0,0,0,0,0,0,0,0,0,-1,1147,309,0,0
-70,715,0,0,0,0,0,0,0,0,0,-1,1154,309,0,0
-63,715,0,0,0,0,0,0,0,0,0,-1,1161,309,0,0
-56,715,0,0,0,0,0,0,0,0,0,-1,1168,309,0,0
-49,715,0,0,0,0,0,0,0,0,0,-1,1175,309,0,0
-42,715,0,0,0,0,0,0,0,0,0,-1,1182,309,0,0
-35,715,0,0,0,0,0,0,0,0,0,-1,1189,309,0,0
-28,715,0,0,0,0,0,0,0,0,0,-1,1196,309,0,0
-21,715,0,0,0,0,0,0,0,0,0,-1,1203,309,0,0
-14,715,0,0,0,0,0,0,0,0,0,-1,1210,309,0,0
-7,715,0,0,0,0,0,0,0,0,0,-1,1217,309,0,0
0,715,0,0,0,0,0,0,0,0,0,-1,1224,309,0,0
7,715,0,0,0,0,0,0,0,0,0,-1,1231,309,0,0
14,715,0,0,0,0,0,0,0,0,0,-1,1238,309,0,0
21,715,0,0,0,0,0,0,0,0,0,-1,1245,309,0,0
28,715,0,0,0,0,0,0,0,0,0,-1,1252,309,0,0
35,715,0,0,0,0,0,0,0,0,0,-1,1259,309,0,0
42,715,0,0,0,0,0,0,0,0,0,-1,1266,309,0,0
49,715,0,0,0,0,0,0,0,0,0,-1,1273,309,0,0
56,715,0,0,0,0,0,0,0,0,0,-1,1280,309,0,0
63,715,3.36707,-13.1369,0.0550876,0.0176425,0.00366659,0.0554433,0.0172868,0.0966952,0.0327574,0.0445755,1287,309,3.36709,13.1369
70,715,3.33484,-13.1899,0.0526534,0.0158219,0.0036606,0.0530137,0.0154616,0.098109,0.0314808,0.0459333,1294,309,3.33479,13.1899
77,715,0,0,0,0,0,0,0,0,0,-1,1301,309,0,0
84,715,0,0,0,0,0,0,0,0,0,-1,1308,309,0,0
91,715,0,0,0,0,0,0,0,0,0,-1,1315,309,0,0
98,715,0,0,0,0,0,0,0,0,0,-1,1322,309,0,0
105,715,0,0,0,0,0,0,0,0,0,-1,1329,309,0,0
112,715,0,0,0,0,0,0,0,0,0,-1,1336,309,0,0
119,715,0,0,0,0,0,0,0,0,0,-1,1343,309,0,0
126,715,0,0,0,0,0,0,0,0,0,-1,1350,309,0,0
133,715,0,0,0,0,0,0,0,0,0,-1,1357,309,0,0
140,715,0,0,0,0,0,0,0,0,0,-1,1364,309,0,0
147,715,0,0,0,0,0,0,0,0,0,-1,1371,309,0,0
154,715,0,0,0,0,0,0,0,0,0,-1,1378,309,0,0
161,715,0,0,0,0,0,0,0,0,0,-1,1385,309,0,0
168,715,0,0,0,0,0,0,0,0,0,-1,1392,309,0,0
175,715,0,0,0,0,0,0,0,0,0,-1,1399,309,0,0
182,715,0,0,0,0,0,0,0,0,0,-1,1406,309,0,0
189,715,0,0,0,0,0,0,0,0,0,-1,1413,309,0,0
196,715,0,0,0,0,0,0,0,0,0,-1,1420,309,0,0
203,715,0,0,0,0,0,0,0,0,0,-1,1427,309,0,0
210,715,0,0,0,0,0,0,0,0,0,-1,1434,309,0,0
217,715,0,0,0,0,0,0,0,0,0,-1,1441,309,0,0
224,715,0,0,0,0,0,0,0,0,0,-1,1448,309,0,0
231,715,0,0,0,0,0,0,0,0,0,-1,1455,309,0,0
238,715,0,0,0,0,0,0,0,0,0,-1,1462,309,0,0
245,715,0,0,0,0,0,0,0,0,0,-1,1469,309,0,0
252,715,0,0,0,0,0,0,0,0,0,-1,1476,309,0,0
259,715,0,0,0,0,0,0,0,0,0,-1,1483,309,0,0
266,715,0,0,0,0,0,0,0,0,0,-1,1490,309,0,0
273,715,0,0,0,0,0,0,0,0,0,-1,1497,309,0,0
280,715,0,0,0,0,0,0,0,0,0,-1,1504,309,0,0
287,715,0,0,0,0,0,0,0,0,0,-1,1511,309,0,0
294,715,0,0,0,0,0,0,0,0,0,-1,1518,309,0,0
301,715,0,0,0,0,0,0,0,0,0,-1,1525,309,0,0
308,715,0,0,0,0,0,0,0,0,0,-1,1532,309,0,0
315,715,0,0,0,0,0,0,0,0,0,-1,1539,309,0,0
322,715,0,0,0,0,0,0,0,0,0,-1,1546,309,0,0
329,715,0,0,0,0,0,0,0,0,0,-1,1553,309,0,0
336,715,0,0,0,0,0,0,0,0,0,-1,1560,309,0,0
343,715,0,0,0,0,0,0,0,0,0,-1,1567,309,0,0
350,715,0,0,0,0,0,0,0,0,0,-1,1574,309,0,0
357,715,0,0,0,0,0,0,0,0,0,-1,1581,309,0,0
364,715,0,0,0,0,0,0,0,0,0,-1,1588,309,0,0
371,715,0,0,0,0,0,0,0,0,0,-1,1595,309,0,0
378,715,0,0,0,0,0,0,0,0,0,-1,1602,309,0,0
385,715,0,0,0,0,0,0,0,0,0,-1,1609,309,0,0
392,715,0,0,0,0,0,0,0,0,0,-1,1616,309,0,0
399,715,0,0,0,0,0,0,0,0,0,-1,1623,309,0,0
406,715,0,0,0,0,0,0,0,0,0,-1,1630,309,0,0
413,715,0,0,0,0,0,0,0,0,0,-1,1637,309,0,0
420,715,0,0,0,0,0,0,0,0,0,-1,1644,309,0,0
427,715,0,0,0,0,0,0,0,0,0,-1,1651,309,0,0
434,715,0,0,0,0,0,0,0,0,0,-1,1658,309,0,0
441,715,0,0,0,0,0,0,0,0,0,-1,1665,309,0,0
448,715,0,0,0,0,0,0,0,0,0,-1,1672,309,0,0
455,715,0,0,0,0,0,0,0,0,0,-1,1679,309,0,0
462,715,0,0,0,0,0,0,0,0,0,-1,1686,309,0,0
469,715,0,0,0,0,0,0,0,0,0,-1,1693,309,0,0
476,715,0,0,0,0,0,0,0,0,0,-1,1700,309,0,0
483,715,0,0,0,0,0,0,0,0,0,-1,1707,309,0,0
490,715,0,0,0,0,0,0,0,0,0,-1,1714,309,0,0
497,715,0,0,0,0,0,0,0,0,0,-1,1721,309,0,0
504,715,0,0,0,0,0,0,0,0,0,-1,1728,309,0,0
511,715,0,0,0,0,0,0,0,0,0,-1,1735,309,0,0
518,715,0,0,0,0,0,0,0,0,0,-1,1742,309,0,0
525,715,0,0,0,0,0,0,0,0,0,-1,1749,309,0,0
532,715,0,0,0,0,0,0,0,0,0,-1,1756,309,0,0
539,715,0,0,0,0,0,0,0,0,0,-1,1763,309,0,0
546,715,0,0,0,0,0,0,0,0,0,-1,1770,309,0,0
553,715,0,0,0,0,0,0,0,0,0,-1,1777,309,0,0
560,715,0,0,0,0,0,0,0,0,0,-1,1784,309,0,0
567,715,0,0,0,0,0,0,0,0,0,-1,1791,309,0,0
574,715,0,0,0,0,0,0,0,0,0,-1,1798,309,0,0
581,715,0,0,0,0,0,0,0,0,0,-1,1805,309,0,0
588,715,0,0,0,0,0,0,0,0,0,-1,1812,309,0,0
595,715,0,0,0,0,0,0,0,0,0,-1,1819,309,0,0
602,715,0,0,0,0,0,0,0,0,0,-1,1826,309,0,0
609,715,0,0,0,0,0,0,0,0,0,-1,1833,309,0,0
616,715,0,0,0,0,0,0,0,0,0,-1,1840,309,0,0
623,715,0,0,0,0,0,0,0,0,0,-1,1847,309,0,0
630,715,0,0,0,0,0,0,0,0,0,-1,1854,309,0,0
637,715,0,0,0,0,0,0,0,0,0,-1,1861,309,0,0
644,715,0,0,0,0,0,0,0,0,0,-1,1868,309,0,0
651,715,0,0,0,0,0,0,0,0,0,-1,1875,309,0,0
658,715,0,0,0,0,0,0,0,0,0,-1,1882,309,0,0
665,715,0,0,0,0,0,0,0,0,0,-1,1889,309,0,0
672,715,0,0,0,0,0,0,0,0,0,-1,1896,309,0,0
679,715,0,0,0,0,0,0,0,0,0,-1,1903,309,0,0
686,715,0,0,0,0,0,0,0,0,0,-1,1910,309,0,0
693,715,0,0,0,0,0,0,0,0,0,-1,1917,309,0,0
700,715,0,0,0,0,0,0,0,0,0,-1,1924,309,0,0
707,715,0,0,0,0,0,0,0,0,0,-1,1931,309,0,0
714,715,0,0,0,0,0,0,0,0,0,-1,1938,309,0,0
721,715,0,0,0,0,0,0,0,0,0,-1,1945,309,0,0
728,715,0,0,0,0,0,0,0,0,0,-1,1952,309,0,0
735,715,0,0,0,0,0,0,0,0,0,-1,1959,309,0,0
742,715,0,0,0,0,0,0,0,0,0,-1,1966,309,0,0
749,715,0,0,0,0,0,0,0,0,0,-1,1973,309,0,0
756,715,0,0,0,0,0,0,0,0,0,-1,1980,309,0,0
763,715,0,0,0,0,0,0,0,0,0,-1,1987,309,0,0
770,715,0,0,0,0,0,0,0,0,0,-1,1994,309,0,0
777,715,0,0,0,0,0,0,0,0,0,-1,2001,309,0,0
784,715,0,0,0,0,0,0,0,0,0,-1,2008,309,0,0
791,715,0,0,0,0,0,0,0,0,0,-1,2015,309,0,0
798,715,0,0,0,0,0,0,0,0,0,-1,2022,309,0,0
805,715,0,0,0,0,0,0,0,0,0,-1,2029,309,0,0
812,715,0,0,0,0,0,0,0,0,0,-1,2036,309,0,0
-700,708,0,0,0,0,0,0,0,0,0,-1,524,316,0,0
-693,708,0,0,0,0,0,0,0,0,0,-1,531,316,0,0
-686,708,0,0,0,0,0,0,0,0,0,-1,538,316,0,0
-679,708,0,0,0,0,0,0,0,0,0,-1,545,316,0,0
-672,708,0,0,0,0,0,0,0,0,0,-1,552,316,0,0
-665,708,0,0,0,0,0,0,0,0,0,-1,559,316,0,0
-658,708,0,0,0,0,0,0,0,0,0,-1,566,316,0,0
-651,708,0,0,0,0,0,0,0,0,0,-1,573,316,0,0
-644,708,0,0,0,0,0,0,0,0,0,-1,580,316,0,0
-637,708,0,0,0,0,0,0,0,0,0,-1,587,316,0,0
-630,708,0,0,0,0,0,0,0,0,0,-1,594,316,0,0
-623,708,0,0,0,0,0,0,0,0,0,-1,601,316,0,0
-616,708,0,0,0,0,0,0,0,0,0,-1,608,316,0,0
-609,708,0,0,0,0,0,0,0,0,0,-1,615,316,0,0
-602,708,0,0,0,0,0,0,0,0,0,-1,622,316,0,0
-595,708,0,0,0,0,0,0,0,0,0,-1,629,316,0,0
-588,708,0,0,0,0,0,0,0,0,0,-1,636,316,0,0
-581,708,0,0,0,0,0,0,0,0,0,-1,643,316,0,0
-574,708,0,0,0,0,0,0,0,0,0,-1,650,316,0,0
-567,708,0,0,0,0,0,0,0,0,0,-1,657,316,0,0
-560,708,0,0,0,0,0,0,0,0,0,-1,664,316,0,0
-553,708,0,0,0,0,0,0,0,0,0,-1,671,316,0,0
-546,708,0,0,0,0,0,0,0,0,0,-1,678,316,0,0
-539,708,0,0,0,0,0,0,0,0,0,-1,685,316,0,0
-532,708,0,0,0,0,0,0,0,0,0,-1,692,316,0,0
-525,708,0,0,0,0,0,0,0,0,0,-1,699,316,0,0
-518,708,0,0,0,0,0,0,0,0,0,-1,706,316,0,0
-511,708,0,0,0,0,0,0,0,0,0,-1,713,316,0,0
-504,708,0,0,0,0,0,0,0,0,0,-1,720,316,0,0
-497,708,0,0,0,0,0,0,0,0,0,-1,727,316,0,0
-490,708,0,0,0,0,0,0,0,0,0,-1,734,316,0,0
-483,708,0,0,0,0,0,0,0,0,0,-1,741,316,0,0
-476,708,0,0,0,0,0,0,0,0,0,-1,748,316,0,0
-469,708,0,0,0,0,0,0,0,0,0,-1,755,316,0,0
-462,708,0,0,0,0,0,0,0,0,0,-1,762,316,0,0
-455,708,0,0,0,0,0,0,0,0,0,-1,769,316,0,0
-448,708,0,0,0,0,0,0,0,0,0,-1,776,316,0,0
-441,708,0,0,0,0,0,0,0,0,0,-1,783,316,0,0
-434,708,0,0,0,0,0,0,0,0,0,-1,790,316,0,0
-427,708,0,0,0,0,0,0,0,0,0,-1,797,316,0,0
-420,708,0,0,0,0,0,0,0,0,0,-1,804,316,0,0
-413,708,0,0,0,0,0,0,0,0,0,-1,811,316,0,0
-406,708,0,0,0,0,0,0,0,0,0,-1,818,316,0,0
-399,708,0,0,0,0,0,0,0,0,0,-1,825,316,0,0
-392,708,0,0,0,0,0,0,0,0,0,-1,832,316,0,0
-385,708,0,0,0,0,0,0,0,0,0,-1,839,316,0,0
-378,708,0,0,0,0,0,0,0,0,0,-1,846,316,0,0
-371,708,0,0,0,0,0,0,0,0,0,-1,853,316,0,0
-364,708,0,0,0,0,0,0,0,0,0,-1,860,316,0,0
-357,708,0,0,0,0,0,0,0,0,0,-1,867,316,0,0
-350,708,0,0,0,0,0,0,0,0,0,-1,874,316,0,0
-343,708,0,0,0,0,0,0,0,0,0,-1,881,316,0,0
-336,708,0,0,0,0,0,0,0,0,0,-1,888,316,0,0
-329,708,0,0,0,0,0,0,0,0,0,-1,895,316,0,0
-322,708,0,0,0,0,0,0,0,0,0,-1,902,316,0,0
-315,708,0,0,0,0,0,0,0,0,0,-1,909,316,0,0
-308,708,0,0,0,0,0,0,0,0,0,-1,916,316,0,0
-301,708,0,0,0,0,0,0,0,0,0,-1,923,316,0,0
-294,708,0,0,0,0,0,0,0,0,0,-1,930,316,0,0
-287,708,0,0,0,0,0,0,0,0,0,-1,937,316,0,0
-280,708,0,0,0,0,0,0,0,0,0,-1,944,316,0,0
-273,708,0,0,0,0,0,0,0,0,0,-1,951,316,0,0
-266,708,0,0,0,0,0,0,0,0,0,-1,958,316,0,0
-259,708,0,0,0,0,0,0,0,0,0,-1,965,316,0,0
-252,708,0,0,0,0,0,0,0,0,0,-1,972,316,0,0
-245,708,0,0,0,0,0,0,0,0,0,-1,979,316,0,0
-238,708,0,0,0,0,0,0,0,0,0,-1,986,316,0,0
-231,708,0,0,0,0,0,0,0,0,0,-1,993,316,0,0
-224,708,0,0,0,0,0,0,0,0,0,-1,1000,316,0,0
-217,708,0,0,0,0,0,0,0,0,0,-1,1007,316,0,0
-210,708,0,0,0,0,0,0,0,0,0,-1,1014,316,0,0
-203,708,0,0,0,0,0,0,0,0,0,-1,1021,316,0,0
-196,708,0,0,0,0,0,0,0,0,0,-1,1028,316,0,0
-189,708,0,0,0,0,0,0,0,0,0,-1,1035,316,0,0
-182,708,0,0,0,0,0,0,0,0,0,-1,1042,316,0,0
-175,708,0,0,0,0,0,0,0,0,0,-1,1049,316,0,0
-168,708,0,0,0,0,0,0,0,0,0,-1,1056,316,0,0
-161,708,0,0,0,0,0,0,0,0,0,-1,1063,316,0,0
-154,708,0,0,0,0,0,0,0,0,0,-1,1070,316,0,0
-147,708,0,0,0,0,0,0,0,0,0,-1,1077,316,0,0
-140,708,0,0,0,0,0,0,0,0,0,-1,1084,316,0,0
-133,708,0,0,0,0,0,0,0,0,0,-1,1091,316,0,0
-126,708,0,0,0,0,0,0,0,0,0,-1,1098,316,0,0
-119,708,0,0,0,0,0,0,0,0,0,-1,1105,316,0,0
-112,708,0,0,0,0,0,0,0,0,0,-1,1112,316,0,0
-105,708,0,0,0,0,0,0,0,0,0,-1,1119,316,0,0
-98,708,0,0,0,0,0,0,0,0,0,-1,1126,316,0,0
-91,708,0,0,0,0,0,0,0,0,0,-1,1133,316,0,0
-84,708,0,0,0,0,0,0,0,0,0,-1,1140,316,0,0
-77,708,0,0,0,0,0,0,0,0,0,-1,1147,316,0,0
-70,708,0,0,0,0,0,0,0,0,0,-1,1154,316,0,0
-63,708,0,0,0,0,0,0,0,0,0,-1,1161,316,0,0
-56,708,0,0,0,0,0,0,0,0,0,-1,1168,316,0,0
-49,708,0,0,0,0,0,0,0,0,0,-1,1175,316,0,0
-42,708,0,0,0,0,0,0,0,0,0,-1,1182,316,0,0
-35,708,-2.71204,-6.31558,0,0,0,0,0,0,0,-1,1189,316,-2.712,6.3156
-28,708,-2.92371,-5.53253,0,0,0,0,0,0,0,-1,1196,316,-2.92375,5.53254
-21,708,-5.32227,-7.36841,0,0,0,0,0,0,0,-1,1203,316,-5.32232,7.3684
-14,708,1.37219,-12.5604,0,0,0,0,0,0,0,-1,1210,316,1.37224,12.5604
-7,708,2.60779,-12.6124,0,0,0,0,0,0,0,-1,1217,316,2.60781,12.6124
0,708,1.85681,-13.0324,0,0,0,0,0,0,0,-1,1224,316,1.85681,13.0324
7,708,2.65186,-13.7177,0.0635176,-0.0374863,-0.0110834,0.0647195,-0.0386882,-0.10802,0.0603298,0.0479423,1231,316,2.65184,13.7177
14,708,2.9541,-13.8127,0.0645691,-0.028195,-0.00902362,0.0654387,-0.0290646,-0.0960748,0.0558924,0.0450957,1238,316,2.95406,13.8127
21,708,3.24219,-13.931,0,0,0,0,0,0,0,-1,1245,316,3.24215,13.931
28,708,3.42139,-13.9597,0,0,0,0,0,0,0,-1,1252,316,3.42144,13.9597
35,708,0.66687,-13.4155,0.0602557,-0.00221603,-0.00231085,0.0603411,-0.00230139,-0.0369231,0.0410161,0.0424403,1259,316,0.66687,13.4155
42,708,3.53137,-13.3199,0.055699,0.00492485,-0.000395463,0.0557021,0.00492177,-0.00778803,0.0356077,0.0432596,1266,316,3.53139,13.3199
49,708,3.32837,-13.2032,0.050006,0.00922592,0.000610699,0.0500151,0.00921678,0.014971,0.0307353,0.0447821,1273,316,3.32835,13.2032
56,708,3.2854,-13.2679,0.0460069,0.0116931,0.00165884,0.0460869,0.0116131,0.0481936,0.0276779,0.0440766,1280,316,3.28542,13.2679
63,708,3.14136,-13.2245,0.0438933,0.0124902,0.00232017,0.0440638,0.0123197,0.0733527,0.0262512,0.0457484,1287,316,3.14137,13.2245
70,708,3.03943,-13.3719,0.0428039,0.010192,0.00297865,0.0430737,0.0099222,0.0903403,0.0260462,0.0464282,1294,316,3.03944,13.372
77,708,2.94421,-13.5139,0,0,0,0,0,0,0,-1,1301,316,2.94418,13.514
84,708,3.66248,-13.8505,0,0,0,0,0,0,0,-1,1308,316,3.66244,13.8505
91,708,3.67017,-14.0609,0,0,0,0,0,0,0,-1,1315,316,3.67021,14.0609
98,708,1.46436,-14.7725,0,0,0,0,0,0,0,-1,1322,316,1.4644,14.7724
105,708,2.29382,-14.5798,0.0312759,-0.0108653,0.00621157,0.0321724,-0.0117618,0.143338,0.026262,0.0442905,1329,316,2.29378,14.5798
112,708,3.1228,-14.4145,0.0310153,-0.0140997,0.00849975,0.0325635,-0.015648,0.180175,0.0284003,0.0440712,1336,316,3.12277,14.4145
119,708,3.89844,-14.2131,0.0288738,-0.0134283,0.0107307,0.0314401,-0.0159946,0.234749,0.0278662,0.0471896,1343,316,3.89844,14.2131
126,708,4.71582,-13.9982,0,0,0,0,0,0,0,-1,1350,316,4.71583,13.9982
133,708,3.5791,-12.3409,0,0,0,0,0,0,0,-1,1357,316,3.57906,12.341
140,708,3.52209,-12.6024,-0.00312219,0.00132181,0.0191231,0.0183516,-0.020152,0.843236,0.0222382,0.0497569,1364,316,3.52214,12.6024
147,708,3.49329,-12.8955,0,0,0,0,0,0,0,-1,1371,316,3.49324,12.8955
154,708,0,0,0,0,0,0,0,0,0,-1,1378,316,0,0
161,708,0,0,0,0,0,0,0,0,0,-1,1385,316,0,0
168,708,0,0,0,0,0,0,0,0,0,-1,1392,316,0,0
175,708,0,0,0,0,0,0,0,0,0,-1,1399,316,0,0
182,708,0,0,0,0,0,0,0,0,0,-1,1406,316,0,0
189,708,0,0,0,0,0,0,0,0,0,-1,1413,316,0,0
196,708,0,0,0,0,0,0,0,0,0,-1,1420,316,0,0
203,708,0,0,0,0,0,0,0,0,0,-1,1427,316,0,0
210,708,0,0,0,0,0,0,0,0,0,-1,1434,316,0,0
217,708,0,0,0,0,0,0,0,0,0,-1,1441,316,0,0
224,708,0,0,0,0,0,0,0,0,0,-1,1448,316,0,0
231,708,0,0,0,0,0,0,0,0,0,-1,1455,316,0,0
238,708,0,0,0,0,0,0,0,0,0,-1,1462,316,0,0
245,708,0,0,0,0,0,0,0,0,0,-1,1469,316,0,0
252,708,0,0,0,0,0,0,0,0,0,-1,1476,316,0,0
259,708,0,0,0,0,0,0,0,0,0,-1,1483,316,0,0
266,708,0,0,0,0,0,0,0,0,0,-1,1490,316,0,0
273,708,0,0,0,0,0,0,0,0,0,-1,1497,316,0,0
280,708,0,0,0,0,0,0,0,0,0,-1,1504,316,0,0
287,708,0,0,0,0,0,0,0,0,0,-1,1511,316,0,0
294,708,0,0,0,0,0,0,0,0,0,-1,1518,316,0,0
301,708,0,0,0,0,0,0,0,0,0,-1,1525,316,0,0
308,708,0,0,0,0,0,0,0,0,0,-1,1532,316,0,0
315,708,0,0,0,0,0,0,0,0,0,-1,1539,316,0,0
322,708,0,0,0,0,0,0,0,0,0,-1,1546,316,0,0
329,708,0,0,0,0,0,0,0,0,0,-1,1553,316,0,0
336,708,0,0,0,0,0,0,0,0,0,-1,1560,316,0,0
343,708,0,0,0,0,0,0,0,0,0,-1,1567,316,0,0
350,708,0,0,0,0,0,0,0,0,0,-1,1574,316,0,0
357,708,0,0,0,0,0,0,0,0,0,-1,1581,316,0,0
364,708,0,0,0,0,0,0,0,0,0,-1,1588,316,0,0
371,708,0,0,0,0,0,0,0,0,0,-1,1595,316,0,0
378,708,0,0,0,0,0,0,0,0,0,-1,1602,316,0,0
385,708,0,0,0,0,0,0,0,0,0,-1,1609,316,0,0
392,708,0,0,0,0,0,0,0,0,0,-1,1616,316,0,0
399,708,0,0,0,0,0,0,0,0,0,-1,1623,316,0,0
406,708,0,0,0,0,0,0,0,0,0,-1,1630,316,0,0
413,708,0,0,0,0,0,0,0,0,0,-1,1637,316,0,0
420,708,0,0,0,0,0,0,0,0,0,-1,1644,316,0,0
427,708,0,0,0,0,0,0,0,0,0,-1,1651,316,0,0
434,708,0,0,0,0,0,0,0,0,0,-1,1658,316,0,0
441,708,0,0,0,0,0,0,0,0,0,-1,1665,316,0,0
448,708,0,0,0,0,0,0,0,0,0,-1,1672,316,0,0
455,708,0,0,0,0,0,0,0,0,0,-1,1679,316,0,0
462,708,0,0,0,0,0,0,0,0,0,-1,1686,316,0,0
469,708,0,0,0,0,0,0,0,0,0,-1,1693,316,0,0
476,708,0,0,0,0,0,0,0,0,0,-1,1700,316,0,0
483,708,0,0,0,0,0,0,0,0,0,-1,1707,316,0,0
490,708,0,0,0,0,0,0,0,0,0,-1,1714,316,0,0
497,708,0,0,0,0,0,0,0,0,0,-1,1721,316,0,0
504,708,0,0,0,0,0,0,0,0,0,-1,1728,316,0,0
511,708,0,0,0,0,0,0,0,0,0,-1,1735,316,0,0
518,708,0,0,0,0,0,0,0,0,0,-1,1742,316,0,0
525,708,0,0,0,0,0,0,0,0,0,-1,1749,316,0,0
532,708,0,0,0,0,0,0,0,0,0,-1,1756,316,0,0
539,708,0,0,0,0,0,0,0,0,0,-1,1763,316,0,0
546,708,0,0,0,0,0,0,0,0,0,-1,1770,316,0,0
553,708,0,0,0,0,0,0,0,0,0,-1,1777,316,0,0
560,708,0,0,0,0,0,0,0,0,0,-1,1784,316,0,0
567,708,0,0,0,0,0,0,0,0,0,-1,1791,316,0,0
574,708,0,0,0,0,0,0,0,0,0,-1,1798,316,0,0
581,708,0,0,0,0,0,0,0,0,0,-1,1805,316,0,0
588,708,0,0,0,0,0,0,0,0,0,-1,1812,316,0,0
595,708,0,0,0,0,0,0,0,0,0,-1,1819,316,0,0
602,708,0,0,0,0,0,0,0,0,0,-1,1826,316,0,0
609,708,0,0,0,0,0,0,0,0,0,-1,1833,316,0,0
616,708,0,0,0,0,0,0,0,0,0,-1,1840,316,0,0
623,708,0,0,0,0,0,0,0,0,0,-1,1847,316,0,0
630,708,0,0,0,0,0,0,0,0,0,-1,1854,316,0,0
637,708,0,0,0,0,0,0,0,0,0,-1,1861,316,0,0
644,708,0,0,0,0,0,0,0,0,0,-1,1868,316,0,0
651,708,0,0,0,0,0,0,0,0,0,-1,1875,316,0,0
658,708,0,0,0,0,0,0,0,0,0,-1,1882,316,0,0
665,708,0,0,0,0,0,0,0,0,0,-1,1889,316,0,0
672,708,0,0,0,0,0,0,0,0,0,-1,1896,316,0,0
679,708,0,0,0,0,0,0,0,0,0,-1,1903,316,0,0
686,708,0,0,0,0,0,0,0,0,0,-1,1910,316,0,0
693,708,0,0,0,0,0,0,0,0,0,-1,1917,316,0,0
700,708,0,0,0,0,0,0,0,0,0,-1,1924,316,0,0
707,708,0,0,0,0,0,0,0,0,0,-1,1931,316,0,0
714,708,0,0,0,0,0,0,0,0,0,-1,1938,316,0,0
721,708,0,0,0,0,0,0,0,0,0,-1,1945,316,0,0
728,708,0,0,0,0,0,0,0,0,0,-1,1952,316,0,0
735,708,0,0,0,0,0,0,0,0,0,-1,1959,316,0,0
742,708,0,0,0,0,0,0,0,0,0,-1,1966,316,0,0
749,708,0,0,0,0,0,0,0,0,0,-1,1973,316,0,0
756,708,0,0,0,0,0,0,0,0,0,-1,1980,316,0,0
763,708,0,0,0,0,0,0,0,0,0,-1,1987,316,0,0
770,708,0,0,0,0,0,0,0,0,0,-1,1994,316,0,0
777,708,0,0,0,0,0,0,0,0,0,-1,2001,316,0,0
784,708,0,0,0,0,0,0,0,0,0,-1,2008,316,0,0
791,708,0,0,0,0,0,0,0,0,0,-1,2015,316,0,0
798,708,0,0,0,0,0,0,0,0,0,-1,2022,316,0,0
805,708,0,0,0,0,0,0,0,0,0,-1,2029,316,0,0
812,708,0,0,0,0,0,0,0,0,0,-1,2036,316,0,0
-700,701,0,0,0,0,0,0,0,0,0,-1,524,323,0,0
-693,701,0,0,0,0,0,0,0,0,0,-1,531,323,0,0
-686,701,0,0,0,0,0,0,0,0,0,-1,538,323,0,0
-679,701,0,0,0,0,0,0,0,0,0,-1,545,323,0,0
-672,701,0,0,0,0,0,0,0,0,0,-1,552,323,0,0
-665,701,0,0,0,0,0,0,0,0,0,-1,559,323,0,0
-658,701,0,0,0,0,0,0,0,0,0,-1,566,323,0,0
-651,701,0,0,0,0,0,0,0,0,0,-1,573,323,0,0
-644,701,0,0,0,0,0,0,0,0,0,-1,580,323,0,0
-637,701,0,0,0,0,0,0,0,0,0,-1,587,323,0,0
-630,701,0,0,0,0,0,0,0,0,0,-1,594,323,0,0
-623,701,0,0,0,0,0,0,0,0,0,-1,601,323,0,0
-616,701,0,0,0,0,0,0,0,0,0,-1,608,323,0,0
-609,701,0,0,0,0,0,0,0,0,0,-1,615,323,0,0
-602,701,0,0,0,0,0,0,0,0,0,-1,622,323,0,0
-595,701,0,0,0,0,0,0,0,0,0,-1,629,323,0,0
-588,701,0,0,0,0,0,0,0,0,0,-1,636,323,0,0
-581,701,0,0,0,0,0,0,0,0,0,-1,643,323,0,0
-574,701,0,0,0,0,0,0,0,0,0,-1,650,323,0,0
-567,701,0,0,0,0,0,0,0,0,0,-1,657,323,0,0
-560,701,0,0,0,0,0,0,0,0,0,-1,664,323,0,0
-553,701,0,0,0,0,0,0,0,0,0,-1,671,323,0,0
-546,701,0,0,0,0,0,0,0,0,0,-1,678,323,0,0
-539,701,0,0,0,0,0,0,0,0,0,-1,685,323,0,0
-532,701,0,0,0,0,0,0,0,0,0,-1,692,323,0,0
-525,701,0,0,0,0,0,0,0,0,0,-1,699,323,0,0
-518,701,0,0,0,0,0,0,0,0,0,-1,706,323,0,0
-511,701,0,0,0,0,0,0,0,0,0,-1,713,323,0,0
-504,701,0,0,0,0,0,0,0,0,0,-1,720,323,0,0
-497,701,0,0,0,0,0,0,0,0,0,-1,727,323,0,0
-490,701,0,0,0,0,0,0,0,0,0,-1,734,323,0,0
-483,701,0,0,0,0,0,0,0,0,0,-1,741,323,0,0
-476,701,0,0,0,0,0,0,0,0,0,-1,748,323,0,0
-469,701,0,0,0,0,0,0,0,0,0,-1,755,323,0,0
-462,701,0,0,0,0,0,0,0,0,0,-1,762,323,0,0
-455,701,0,0,0,0,0,0,0,0,0,-1,769,323,0,0
-448,701,0,0,0,0,0,0,0,0,0,-1,776,323,0,0
-441,701,0,0,0,0,0,0,0,0,0,-1,783,323,0,0
-434,701,0,0,0,0,0,0,0,0,0,-1,790,323,0,0
-427,701,0,0,0,0,0,0,0,0,0,-1,797,323,0,0
-420,701,0,0,0,0,0,0,0,0,0,-1,804,323,0,0
-413,701,0,0,0,0,0,0,0,0,0,-1,811,323,0,0
-406,701,0,0,0,0,0,0,0,0,0,-1,818,323,0,0
-399,701,0,0,0,0,0,0,0,0,0,-1,825,323,0,0
-392,701,0,0,0,0,0,0,0,0,0,-1,832,323,0,0
-385,701,0,0,0,0,0,0,0,0,0,-1,839,323,0,0
-378,701,0,0,0,0,0,0,0,0,0,-1,846,323,0,0
-371,701,0,0,0,0,0,0,0,0,0,-1,853,323,0,0
-364,701,0,0,0,0,0,0,0,0,0,-1,860,323,0,0
-357,701,0,0,0,0,0,0,0,0,0,-1,867,323,0,0
-350,701,0,0,0,0,0,0,0,0,0,-1,874,323,0,0
-343,701,0,0,0,0,0,0,0,0,0,-1,881,323,0,0
-336,701,0,0,0,0,0,0,0,0,0,-1,888,323,0,0
-329,701,0,0,0,0,0,0,0,0,0,-1,895,323,0,0
-322,701,0,0,0,0,0,0,0,0,0,-1,902,323,0,0
-315,701,0,0,0,0,0,0,0,0,0,-1,909,323,0,0
-308,701,0,0,0,0,0,0,0,0,0,-1,916,323,0,0
-301,701,0,0,0,0,0,0,0,0,0,-1,923,323,0,0
-294,701,0,0,0,0,0,0,0,0,0,-1,930,323,0,0
-287,701,0,0,0,0,0,0,0,0,0,-1,937,323,0,0
-280,701,0,0,0,0,0,0,0,0,0,-1,944,323,0,0
-273,701,0,0,0,0,0,0,0,0,0,-1,951,323,0,0
-266,701,0,0,0,0,0,0,0,0,0,-1,958,323,0,0
-259,701,0,0,0,0,0,0,0,0,0,-1,965,323,0,0
-252,701,0,0,0,0,0,0,0,0,0,-1,972,323,0,0
-245,701,0,0,0,0,0,0,0,0,0,-1,979,323,0,0
-238,701,0,0,0,0,0,0,0,0,0,-1,986,323,0,0
-231,701,0,0,0,0,0,0,0,0,0,-1,993,323,0,0
-224,701,0,0,0,0,0,0,0,0,0,-1,1000,323,0,0
-217,701,0,0,0,0,0,0,0,0,0,-1,1007,323,0,0
-210,701,0,0,0,0,0,0,0,0,0,-1,1014,323,0,0
-203,701,0,0,0,0,0,0,0,0,0,-1,1021,323,0,0
-196,701,0,0,0,0,0,0,0,0,0,-1,1028,323,0,0
-189,701,0,0,0,0,0,0,0,0,0,-1,1035,323,0,0
-182,701,0,0,0,0,0,0,0,0,0,-1,1042,323,0,0
-175,701,0,0,0,0,0,0,0,0,0,-1,1049,323,0,0
-168,701,0,0,0,0,0,0,0,0,0,-1,1056,323,0,0
-161,701,0,0,0,0,0,0,0,0,0,-1,1063,323,0,0
-154,701,0,0,0,0,0,0,0,0,0,-1,1070,323,0,0
-147,701,0,0,0,0,0,0,0,0,0,-1,1077,323,0,0
-140,701,0,0,0,0,0,0,0,0,0,-1,1084,323,0,0
-133,701,0,0,0,0,0,0,0,0,0,-1,1091,323,0,0
-126,701,0,0,0,0,0,0,0,0,0,-1,1098,323,0,0
-119,701,0,0,0,0,0,0,0,0,0,-1,1105,323,0,0
-112,701,0,0,0,0,0,0,0,0,0,-1,1112,323,0,0
-105,701,0,0,0,0,0,0,0,0,0,-1,1119,323,0,0
-98,701,0,0,0,0,0,0,0,0,0,-1,1126,323,0,0
-91,701,0,0,0,0,0,0,0,0,0,-1,1133,323,0,0
-84,701,0,0,0,0,0,0,0,0,0,-1,1140,323,0,0
-77,701,0,0,0,0,0,0,0,0,0,-1,1147,323,0,0
-70,701,-2.36731,-1.49271,0,0,0,0,0,0,0,-1,1154,323,-2.36729,1.4927
-63,701,-2.479,-0.295959,0,0,0,0,0,0,0,-1,1161,323,-2.47895,0.295961
-56,701,-0.420166,-0.101776,0,0,0,0,0,0,0,-1,1168,323,-0.420119,0.101777
-49,701,-1.09021,-0.155762,0,0,0,0,0,0,0,-1,1175,323,-1.09024,0.155768
-42,701,-0.210327,-0.299133,0,0,0,0,0,0,0,-1,1182,323,-0.210379,0.29914
-35,701,-2.9635,-7.98676,0,0,0,0,0,0,0,-1,1189,323,-2.9635,7.98676
-28,701,-6.64417,-5.4917,0,0,0,0,0,0,0,-1,1196,323,-6.64411,5.4917
-21,701,1.08557,-12.5659,0,0,0,0,0,0,0,-1,1203,323,1.08558,12.5658
-14,701,1.70959,-12.5006,0,0,0,0,0,0,0,-1,1210,323,1.70959,12.5006
-7,701,2.33362,-12.4354,0,0,0,0,0,0,0,-1,1217,323,2.3336,12.4354
0,701,2.08142,-12.6877,0.046315,-0.031542,-0.0124888,0.0482693,-0.0334962,-0.155221,0.0474635,0.0494464,1224,323,2.08136,12.6877
7,701,2.27502,-13.0193,0.0478513,-0.0247047,-0.0117806,0.0497161,-0.0265695,-0.156995,0.0447142,0.0456989,1231,323,2.27497,13.0194
14,701,2.52185,-13.177,0.0481102,-0.0181407,-0.00997773,0.0495802,-0.0196108,-0.146283,0.0411776,0.0478144,1238,323,2.52183,13.177
21,701,2.73303,-13.3149,0,0,0,0,0,0,0,-1,1245,323,2.73305,13.3149
28,701,1.61877,-13.0103,0.0465182,-0.0052745,-0.00573199,0.0471449,-0.00590129,-0.108916,0.0335704,0.0465002,1252,323,1.61876,13.0103
35,701,1.19812,-13.0724,0.0448357,-0.000250204,-0.00347848,0.0451025,-0.000517,-0.0765486,0.0302421,0.0413805,1259,323,1.19814,13.0724
42,701,0.974121,-13.0348,0.0415548,0.00480956,-0.00154243,0.0416195,0.00474493,-0.041878,0.0263077,0.042141,1266,323,0.974113,13.0348
49,701,3.55566,-13.6629,0.0375573,0.0076295,-0.00036674,0.0375618,0.007625,-0.0122517,0.0229262,0.043861,1273,323,3.55571,13.6629
56,701,3.44287,-13.9853,0.0350964,0.00897431,0.000895054,0.0351271,0.00894368,0.0342107,0.0210791,0.0416175,1280,323,3.44289,13.9852
63,701,3.26001,-13.0321,0.0342479,0.00884922,0.00182167,0.0343779,0.00871923,0.0712371,0.0206357,0.0420628,1287,323,3.26004,13.0321
70,701,3.12854,-13.3881,0.0340232,0.00639528,0.00279755,0.0343036,0.00611485,0.0999071,0.0211278,0.0449522,1294,323,3.1285,13.3881
77,701,3.04309,-13.4545,0.0315738,0.00155159,0.0036096,0.0320017,0.0011237,0.117991,0.02097,0.0467306,1301,323,3.04312,13.4545
84,701,3.37512,-13.5446,0.029892,-0.00133357,0.00384052,0.0303574,-0.00179899,0.120599,0.0208638,0.0467043,1308,323,3.37508,13.5446
91,701,3.36389,-13.7783,0,0,0,0,0,0,0,-1,1315,323,3.36388,13.7783
98,701,2.12952,-14.862,0.0239407,-0.00727366,0.00383568,0.0244052,-0.00773809,0.120494,0.0193717,0.0464773,1322,323,2.12956,14.862
105,701,2.45764,-14.7459,0.022156,-0.0102117,0.00590965,0.0232012,-0.0112569,0.175057,0.0202889,0.0444681,1329,323,2.4576,14.7459
112,701,3.0116,-14.3273,0.0206278,-0.012399,0.00746904,0.0222384,-0.0140096,0.212383,0.0211068,0.0426691,1336,323,3.01161,14.3273
119,701,3.74976,-13.7682,0.017385,-0.0114709,0.00908357,0.0200063,-0.0140922,0.280944,0.0197852,0.0408571,1343,323,3.74971,13.7682
126,701,3.98254,-13.11,0.0113393,-0.00923211,0.0110244,0.0161312,-0.014024,0.410025,0.0174243,0.0448189,1350,323,3.98252,13.1101
133,701,4.45227,-12.6951,0,0,0,0,0,0,0,-1,1357,323,4.45232,12.6951
140,701,2.87878,-12.8667,0,0,0,0,0,0,0,-1,1364,323,2.87878,12.8667
147,701,2.59497,-13.1842,0,0,0,0,0,0,0,-1,1371,323,2.59496,13.1842
154,701,2.18579,-12.7114,0,0,0,0,0,0,0,-1,1378,323,2.18576,12.7114
161,701,2.11853,-12.0428,0,0,0,0,0,0,0,-1,1385,323,2.11854,12.0428
168,701,6.88513,-0.0237427,0,0,0,0,0,0,0,-1,1392,323,6.88517,0.0237498
175,701,6.94556,0.0693054,0,0,0,0,0,0,0,-1,1399,323,6.94555,-0.0692958
182,701,8.80652,5.42807,0,0,0,0,0,0,0,-1,1406,323,8.8065,-5.42808
189,701,8.58081,4.24493,0,0,0,0,0,0,0,-1,1413,323,8.58082,-4.24494
196,701,0,0,0,0,0,0,0,0,0,-1,1420,323,0,0
203,701,0,0,0,0,0,0,0,0,0,-1,1427,323,0,0
210,701,0,0,0,0,0,0,0,0,0,-1,1434,323,0,0
217,701,0,0,0,0,0,0,0,0,0,-1,1441,323,0,0
224,701,0,0,0,0,0,0,0,0,0,-1,1448,323,0,0
231,701,0,0,0,0,0,0,0,0,0,-1,1455,323,0,0
238,701,0,0,0,0,0,0,0,0,0,-1,1462,323,0,0
245,701,0,0,0,0,0,0,0,0,0,-1,1469,323,0,0
252,701,0,0,0,0,0,0,0,0,0,-1,1476,323,0,0
259,701,0,0,0,0,0,0,0,0,0,-1,1483,323,0,0
266,701,0,0,0,0,0,0,0,0,0,-1,1490,323,0,0
273,701,0,0,0,0,0,0,0,0,0,-1,1497,323,0,0
280,701,0,0,0,0,0,0,0,0,0,-1,1504,323,0,0
287,701,0,0,0,0,0,0,0,0,0,-1,1511,323,0,0
294,701,0,0,0,0,0,0,0,0,0,-1,1518,323,0,0
301,701,0,0,0,0,0,0,0,0,0,-1,1525,323,0,0
308,701,0,0,0,0,0,0,0,0,0,-1,1532,323,0,0
315,701,0,0,0,0,0,0,0,0,0,-1,1539,323,0,0
322,701,0,0,0,0,0,0,0,0,0,-1,1546,323,0,0
329,701,0,0,0,0,0,0,0,0,0,-1,1553,323,0,0
336,701,0,0,0,0,0,0,0,0,0,-1,1560,323,0,0
343,701,0,0,0,0,0,0,0,0,0,-1,1567,323,0,0
350,701,0,0,0,0,0,0,0,0,0,-1,1574,323,0,0
357,701,0,0,0,0,0,0,0,0,0,-1,1581,323,0,0
364,701,0,0,0,0,0,0,0,0,0,-1,1588,323,0,0
371,701,0,0,0,0,0,0,0,0,0,-1,1595,323,0,0
378,701,0,0,0,0,0,0,0,0,0,-1,1602,323,0,0
385,701,0,0,0,0,0,0,0,0,0,-1,1609,323,0,0
392,701,0,0,0,0,0,0,0,0,0,-1,1616,323,0,0
399,701,0,0,0,0,0,0,0,0,0,-1,1623,323,0,0
406,701,0,0,0,0,0,0,0,0,0,-1,1630,323,0,0
413,701,0,0,0,0,0,0,0,0,0,-1,1637,323,0,0
420,701,0,0,0,0,0,0,0,0,0,-1,1644,323,0,0
427,701,0,0,0,0,0,0,0,0,0,-1,1651,323,0,0
434,701,0,0,0,0,0,0,0,0,0,-1,1658,323,0,0
441,701,0,0,0,0,0,0,0,0,0,-1,1665,323,0,0
448,701,0,0,0,0,0,0,0,0,0,-1,1672,323,0,0
455,701,0,0,0,0,0,0,0,0,0,-1,1679,323,0,0
462,701,0,0,0,0,0,0,0,0,0,-1,1686,323,0,0
469,701,0,0,0,0,0,0,0,0,0,-1,1693,323,0,0
476,701,0,0,0,0,0,0,0,0,0,-1,1700,323,0,0
483,701,0,0,0,0,0,0,0,0,0,-1,1707,323,0,0
490,701,0,0,0,0,0,0,0,0,0,-1,1714,323,0,0
497,701,0,0,0,0,0,0,0,0,0,-1,1721,323,0,0
504,701,0,0,0,0,0,0,0,0,0,-1,1728,323,0,0
511,701,0,0,0,0,0,0,0,0,0,-1,1735,323,0,0
518,701,0,0,0,0,0,0,0,0,0,-1,1742,323,0,0
525,701,0,0,0,0,0,0,0,0,0,-1,1749,323,0,0
532,701,0,0,0,0,0,0,0,0,0,-1,1756,323,0,0
539,701,0,0,0,0,0,0,0,0,0,-1,1763,323,0,0
546,701,0,0,0,0,0,0,0,0,0,-1,1770,323,0,0
553,701,0,0,0,0,0,0,0,0,0,-1,1777,323,0,0
560,701,0,0,0,0,0,0,0,0,0,-1,1784,323,0,0
567,701,0,0,0,0,0,0,0,0,0,-1,1791,323,0,0
574,701,0,0,0,0,0,0,0,0,0,-1,1798,323,0,0
581,701,0,0,0,0,0,0,0,0,0,-1,1805,323,0,0
588,701,0,0,0,0,0,0,0,0,0,-1,1812,323,0,0
595,701,0,0,0,0,0,0,0,0,0,-1,1819,323,0,0
602,701,0,0,0,0,0,0,0,0,0,-1,1826,323,0,0
609,701,0,0,0,0,0,0,0,0,0,-1,1833,323,0,0
616,701,0,0,0,0,0,0,0,0,0,-1,1840,323,0,0
623,701,0,0,0,0,0,0,0,0,0,-1,1847,323,0,0
630,701,0,0,0,0,0,0,0,0,0,-1,1854,323,0,0
637,701,0,0,0,0,0,0,0,0,0,-1,1861,323,0,0
644,701,0,0,0,0,0,0,0,0,0,-1,1868,323,0,0
651,701,0,0,0,0,0,0,0,0,0,-1,1875,323,0,0
658,701,0,0,0,0,0,0,0,0,0,-1,1882,323,0,0
665,701,0,0,0,0,0,0,0,0,0,-1,1889,323,0,0
672,701,0,0,0,0,0,0,0,0,0,-1,1896,323,0,0
679,701,0,0,0,0,0,0,0,0,0,-1,1903,323,0,0
686,701,0,0,0,0,0,0,0,0,0,-1,1910,323,0,0
693,701,0,0,0,0,0,0,0,0,0,-1,1917,323,0,0
700,701,0,0,0,0,0,0,0,0,0,-1,1924,323,0,0
707,701,0,0,0,0,0,0,0,0,0,-1,1931,323,0,0
714,701,0,0,0,0,0,0,0,0,0,-1,1938,323,0,0
721,701,0,0,0,0,0,0,0,0,0,-1,1945,323,0,0
728,701,0,0,0,0,0,0,0,0,0,-1,1952,323,0,0
735,701,0,0,0,0,0,0,0,0,0,-1,1959,323,0,0
742,701,0,0,0,0,0,0,0,0,0,-1,1966,323,0,0
749,701,0,0,0,0,0,0,0,0,0,-1,1973,323,0,0
756,701,0,0,0,0,0,0,0,0,0,-1,1980,323,0,0
763,701,0,0,0,0,0,0,0,0,0,-1,1987,323,0,0
770,701,0,0,0,0,0,0,0,0,0,-1,1994,323,0,0
777,701,0,0,0,0,0,0,0,0,0,-1,2001,323,0,0
784,701,0,0,0,0,0,0,0,0,0,-1,2008,323,0,0
791,701,0,0,0,0,0,0,0,0,0,-1,2015,323,0,0
798,701,0,0,0,0,0,0,0,0,0,-1,2022,323,0,0
805,701,0,0,0,0,0,0,0,0,0,-1,2029,323,0,0
812,701,0,0,0,0,0,0,0,0,0,-1,2036,323,0,0
-700,694,0,0,0,0,0,0,0,0,0,-1,524,330,0,0
-693,694,0,0,0,0,0,0,0,0,0,-1,531,330,0,0
-686,694,0,0,0,0,0,0,0,0,0,-1,538,330,0,0
-679,694,0,0,0,0,0,0,0,0,0,-1,545,330,0,0
-672,694,0,0,0,0,0,0,0,0,0,-1,552,330,0,0
-665,694,0,0,0,0,0,0,0,0,0,-1,559,330,0,0
-658,694,0,0,0,0,0,0,0,0,0,-1,566,330,0,0
-651,694,0,0,0,0,0,0,0,0,0,-1,573,330,0,0
-644,694,0,0,0,0,0,0,0,0,0,-1,580,330,0,0
-637,694,0,0,0,0,0,0,0,0,0,-1,587,330,0,0
-630,694,0,0,0,0,0,0,0,0,0,-1,594,330,0,0
-623,694,0,0,0,0,0,0,0,0,0,-1,601,330,0,0
-616,694,0,0,0,0,0,0,0,0,0,-1,608,330,0,0
-609,694,0,0,0,0,0,0,0,0,0,-1,615,330,0,0
-602,694,0,0,0,0,0,0,0,0,0,-1,622,330,0,0
-595,694,0,0,0,0,0,0,0,0,0,-1,629,330,0,0
-588,694,0,0,0,0,0,0,0,0,0,-1,636,330,0,0
-581,694,0,0,0,0,0,0,0,0,0,-1,643,330,0,0
-574,694,0,0,0,0,0,0,0,0,0,-1,650,330,0,0
-567,694,0,0,0,0,0,0,0,0,0,-1,657,330,0,0
-560,694,0,0,0,0,0,0,0,0,0,-1,664,330,0,0
-553,694,0,0,0,0,0,0,0,0,0,-1,671,330,0,0
-546,694,0,0,0,0,0,0,0,0,0,-1,678,330,0,0
-539,694,0,0,0,0,0,0,0,0,0,-1,685,330,0,0
-532,694,0,0,0,0,0,0,0,0,0,-1,692,330,0,0
-525,694,0,0,0,0,0,0,0,0,0,-1,699,330,0,0
-518,694,0,0,0,0,0,0,0,0,0,-1,706,330,0,0
-511,694,0,0,0,0,0,0,0,0,0,-1,713,330,0,0
-504,694,0,0,0,0,0,0,0,0,0,-1,720,330,0,0
-497,694,0,0,0,0,0,0,0,0,0,-1,727,330,0,0
-490,694,0,0,0,0,0,0,0,0,0,-1,734,330,0,0
-483,694,0,0,0,0,0,0,0,0,0,-1,741,330,0,0
-476,694,0,0,0,0,0,0,0,0,0,-1,748,330,0,0
-469,694,0,0,0,0,0,0,0,0,0,-1,755,330,0,0
-462,694,0,0,0,0,0,0,0,0,0,-1,762,330,0,0
-455,694,0,0,0,0,0,0,0,0,0,-1,769,330,0,0
-448,694,0,0,0,0,0,0,0,0,0,-1,776,330,0,0
-441,694,0,0,0,0,0,0,0,0,0,-1,783,330,0,0
-434,694,0,0,0,0,0,0,0,0,0,-1,790,330,0,0
-427,694,0,0,0,0,0,0,0,0,0,-1,797,330,0,0
-420,694,0,0,0,0,0,0,0,0,0,-1,804,330,0,0
-413,694,0,0,0,0,0,0,0,0,0,-1,811,330,0,0
-406,694,0,0,0,0,0,0,0,0,0,-1,818,330,0,0
-399,694,0,0,0,0,0,0,0,0,0,-1,825,330,0,0
-392,694,0,0,0,0,0,0,0,0,0,-1,832,330,0,0
-385,694,0,0,0,0,0,0,0,0,0,-1,839,330,0,0
-378,694,0,0,0,0,0,0,0,0,0,-1,846,330,0,0
-371,694,0,0,0,0,0,0,0,0,0,-1,853,330,0,0
-364,694,0,0,0,0,0,0,0,0,0,-1,860,330,0,0
-357,694,0,0,0,0,0,0,0,0,0,-1,867,330,0,0
-350,694,0,0,0,0,0,0,0,0,0,-1,874,330,0,0
-343,694,0,0,0,0,0,0,0,0,0,-1,881,330,0,0
-336,694,0,0,0,0,0,0,0,0,0,-1,888,330,0,0
-329,694,0,0,0,0,0,0,0,0,0,-1,895,330,0,0
-322,694,0,0,0,0,0,0,0,0,0,-1,902,330,0,0
-315,694,0,0,0,0,0,0,0,0,0,-1,909,330,0,0
-308,694,0,0,0,0,0,0,0,0,0,-1,916,330,0,0
-301,694,0,0,0,0,0,0,0,0,0,-1,923,330,0,0
-294,694,0,0,0,0,0,0,0,0,0,-1,930,330,0,0
-287,694,0,0,0,0,0,0,0,0,0,-1,937,330,0,0
-280,694,0,0,0,0,0,0,0,0,0,-1,944,330,0,0
-273,694,0,0,0,0,0,0,0,0,0,-1,951,330,0,0
-266,694,0,0,0,0,0,0,0,0,0,-1,958,330,0,0
-259,694,0,0,0,0,0,0,0,0,0,-1,965,330,0,0
-252,694,0,0,0,0,0,0,0,0,0,-1,972,330,0,0
-245,694,0,0,0,0,0,0,0,0,0,-1,979,330,0,0
-238,694,0,0,0,0,0,0,0,0,0,-1,986,330,0,0
-231,694,0,0,0,0,0,0,0,0,0,-1,993,330,0,0
-224,694,0,0,0,0,0,0,0,0,0,-1,1000,330,0,0
-217,694,0,0,0,0,0,0,0,0,0,-1,1007,330,0,0
-210,694,0,0,0,0,0,0,0,0,0,-1,1014,330,0,0
-203,694,0,0,0,0,0,0,0,0,0,-1,1021,330,0,0
-196,694,0,0,0,0,0,0,0,0,0,-1,1028,330,0,0
-189,694,0,0,0,0,0,0,0,0,0,-1,1035,330,0,0
-182,694,0,0,0,0,0,0,0,0,0,-1,1042,330,0,0
-175,694,0,0,0,0,0,0,0,0,0,-1,1049,330,0,0
-168,694,0,0,0,0,0,0,0,0,0,-1,1056,330,0,0
-161,694,0,0,0,0,0,0,0,0,0,-1,1063,330,0,0
-154,694,0,0,0,0,0,0,0,0,0,-1,1070,330,0,0
-147,694,0,0,0,0,0,0,0,0,0,-1,1077,330,0,0
-140,694,0,0,0,0,0,0,0,0,0,-1,1084,330,0,0
-133,694,0,0,0,0,0,0,0,0,0,-1,1091,330,0,0
-126,694,0,0,0,0,0,0,0,0,0,-1,1098,330,0,0
-119,694,0,0,0,0,0,0,0,0,0,-1,1105,330,0,0
-112,694,0,0,0,0,0,0,0,0,0,-1,1112,330,0,0
-105,694,-1.35962,-7.57141,0,0,0,0,0,0,0,-1,1119,330,-1.3596,7.57142
-98,694,1.34875,-10.1051,0,0,0,0,0,0,0,-1,1126,330,1.34874,10.1051
-91,694,1.35474,-9.22229,0,0,0,0,0,0,0,-1,1133,330,1.35476,9.22229
-84,694,-4.39136,-4.62332,0,0,0,0,0,0,0,-1,1140,330,-4.3914,4.62331
-77,694,-4.93396,-10.2672,0,0,0,0,0,0,0,-1,1147,330,-4.9339,10.2672
-70,694,-6.49402,-10.0714,0,0,0,0,0,0,0,-1,1154,330,-6.49399,10.0714
-63,694,-5.80835,-4.75275,0,0,0,0,0,0,0,-1,1161,330,-5.80834,4.75274
-56,694,-6.50623,-0.649139,0,0,0,0,0,0,0,-1,1168,330,-6.5062,0.649126
-49,694,-1.11426,0.0341797,0,0,0,0,0,0,0,-1,1175,330,-1.11424,-0.0341846
-42,694,-0.346313,-0.709595,0,0,0,0,0,0,0,-1,1182,330,-0.346298,0.709581
-35,694,-0.459106,-1.24713,0,0,0,0,0,0,0,-1,1189,330,-0.459142,1.24714
-28,694,-6.48413,-3.95972,0,0,0,0,0,0,0,-1,1196,330,-6.48414,3.9597
-21,694,1.40002,-12.3884,0,0,0,0,0,0,0,-1,1203,330,1.40006,12.3884
-14,694,1.81763,-12.4058,0.0353247,-0.0275209,-0.0119982,0.0375375,-0.0297336,-0.182374,0.038926,0.0483963,1210,330,1.8176,12.4058
-7,694,2.25708,-12.3985,0.0354272,-0.0241337,-0.0116641,0.03763,-0.0263365,-0.186653,0.0371224,0.0451849,1217,330,2.2571,12.3985
0,694,2.34167,-12.3737,0.0355306,-0.0203317,-0.0116636,0.0378681,-0.0226692,-0.197787,0.0353165,0.0439769,1224,330,2.34164,12.3738
7,694,2.22876,-12.4823,0.0358278,-0.0154546,-0.0109799,0.0380798,-0.0177066,-0.202295,0.0329164,0.0450502,1231,330,2.22875,12.4823
14,694,2.21875,-12.5765,0.0355091,-0.0109052,-0.00945568,0.0373615,-0.0127577,-0.193455,0.0300761,0.0476905,1238,330,2.2188,12.5765
21,694,2.16602,-12.6633,0.0346264,-0.0062553,-0.00769464,0.0360267,-0.0076556,-0.180014,0.0269348,0.0497514,1245,330,2.16604,12.6633
28,694,2.09485,-12.471,0.0339803,-0.00214602,-0.00573538,0.0348689,-0.0030347,-0.153725,0.0243207,0.0477183,1252,330,2.09481,12.471
35,694,2.91125,-13.8362,0.0328284,0.00107864,-0.00358574,0.0332283,0.000678716,-0.111074,0.0219295,0.0480649,1259,330,2.91127,13.8362
42,694,1.38635,-12.772,0.0304562,0.00454776,-0.00176478,0.0305758,0.00442811,-0.0676992,0.0190799,0.0454762,1266,330,1.38635,12.772
49,694,2.85815,-13.3901,0,0,0,0,0,0,0,-1,1273,330,2.85816,13.3901
56,694,3.04199,-13.1677,0,0,0,0,0,0,0,-1,1280,330,3.04202,13.1677
63,694,3.00366,-12.9958,0.0261285,0.00624016,0.00172514,0.026277,0.00609163,0.0858864,0.0158818,0.0418556,1287,330,3.0037,12.9959
70,694,3.06775,-13.2638,0.0264372,0.00381979,0.0028126,0.0267817,0.00347528,0.121882,0.0168162,0.0443589,1294,330,3.06779,13.2638
77,694,3.22229,-13.3411,0.0245342,-4.92055e-05,0.00385686,0.0251251,-0.000640102,0.152024,0.0169674,0.0479428,1301,330,3.22224,13.341
84,694,3.41858,-13.3232,0.0228663,-0.00227339,0.00406763,0.023508,-0.00291515,0.156484,0.0167286,0.0469615,1308,330,3.41855,13.3232
91,694,3.02246,-14.0799,0.01979,-0.00470275,0.00535606,0.02091,-0.00582279,0.206146,0.0162329,0.0452026,1315,330,3.02245,14.0799
98,694,2.54517,-14.3151,0.0177832,-0.0070207,0.0041162,0.0184484,-0.00768594,0.16023,0.0155093,0.0454997,1322,330,2.54516,14.3151
105,694,2.42078,-14.256,0.0155869,-0.00912253,0.00557846,0.0167879,-0.0103236,0.212061,0.0158004,0.0447734,1329,330,2.42083,14.256
112,694,2.74341,-14.0651,0.013607,-0.0105877,0.00659769,0.0152892,-0.0122699,0.249646,0.015943,0.0440626,1336,330,2.74339,14.0651
119,694,3.46509,-13.8418,0,0,0,0,0,0,0,-1,1343,330,3.46513,13.8418
126,694,4.63794,-12.2428,0.00498059,-0.00761879,0.00906585,0.00972063,-0.0123588,0.481757,0.0127779,0.044655,1350,330,4.6379,12.2428
133,694,2.57593,-13.2282,-0.00246138,-0.00382293,0.0102581,0.00713848,-0.0134228,0.752264,0.0120545,0.047934,1357,330,2.5759,13.2282
140,694,2.4436,-13.1046,-0.00995414,0.000367438,0.0115,0.00781153,-0.0173982,0.996312,0.0149015,0.0469604,1364,330,2.44359,13.1046
147,694,2.09338,-13.187,-0.0169843,0.00444477,0.0122809,0.0100282,-0.0225677,1.14409,0.0192778,0.0443556,1371,330,2.09336,13.187
154,694,1.82581,-12.8891,-0.0230244,0.00783437,0.0129292,0.0125353,-0.0277253,1.22207,0.0237895,0.0473627,1378,330,1.82585,12.8891
161,694,1.87231,-12.4088,0,0,0,0,0,0,0,-1,1385,330,1.87227,12.4088
168,694,6.77161,1.01288,0,0,0,0,0,0,0,-1,1392,330,6.77156,-1.01287
175,694,6.72839,0.473175,0,0,0,0,0,0,0,-1,1399,330,6.72838,-0.473182
182,694,8.29028,5.75238,0,0,0,0,0,0,0,-1,1406,330,8.29034,-5.75237
189,694,7.9801,4.46118,0,0,0,0,0,0,0,-1,1413,330,7.9801,-4.46118
196,694,7.39331,3.32632,0,0,0,0,0,0,0,-1,1420,330,7.39329,-3.32633
203,694,7.04492,2.20529,0,0,0,0,0,0,0,-1,1427,330,7.04496,-2.20529
210,694,6.44714,0.646912,0,0,0,0,0,0,0,-1,1434,330,6.44717,-0.646903
217,694,7.12061,-0.644958,0,0,0,0,0,0,0,-1,1441,330,7.12059,0.644961
224,694,6.74011,-1.70544,0,0,0,0,0,0,0,-1,1448,330,6.74013,1.70546
231,694,0,0,0,0,0,0,0,0,0,-1,1455,330,0,0
238,694,0,0,0,0,0,0,0,0,0,-1,1462,330,0,0
245,694,0,0,0,0,0,0,0,0,0,-1,1469,330,0,0
252,694,0,0,0,0,0,0,0,0,0,-1,1476,330,0,0
259,694,0,0,0,0,0,0,0,0,0,-1,1483,330,0,0
266,694,0,0,0,0,0,0,0,0,0,-1,1490,330,0,0
273,694,0,0,0,0,0,0,0,0,0,-1,1497,330,0,0
280,694,0,0,0,0,0,0,0,0,0,-1,1504,330,0,0
287,694,0,0,0,0,0,0,0,0,0,-1,1511,330,0,0
294,694,0,0,0,0,0,0,0,0,0,-1,1518,330,0,0
301,694,0,0,0,0,0,0,0,0,0,-1,1525,330,0,0
308,694,0,0,0,0,0,0,0,0,0,-1,1532,330,0,0
315,694,0,0,0,0,0,0,0,0,0,-1,1539,330,0,0
322,694,0,0,0,0,0,0,0,0,0,-1,1546,330,0,0
329,694,0,0,0,0,0,0,0,0,0,-1,1553,330,0,0
336,694,0,0,0,0,0,0,0,0,0,-1,1560,330,0,0
343,694,0,0,0,0,0,0,0,0,0,-1,1567,330,0,0
350,694,0,0,0,0,0,0,0,0,0,-1,1574,330,0,0
357,694,0,0,0,0,0,0,0,0,0,-1,1581,330,0,0
364,694,0,0,0,0,0,0,0,0,0,-1,1588,330,0,0
371,694,0,0,0,0,0,0,0,0,0,-1,1595,330,0,0
378,694,0,0,0,0,0,0,0,0,0,-1,1602,330,0,0
385,694,0,0,0,0,0,0,0,0,0,-1,1609,330,0,0
392,694,0,0,0,0,0,0,0,0,0,-1,1616,330,0,0
399,694,0,0,0,0,0,0,0,0,0,-1,1623,330,0,0
406,694,0,0,0,0,0,0,0,0,0,-1,1630,330,0,0
413,694,0,0,0,0,0,0,0,0,0,-1,1637,330,0,0
420,694,0,0,0,0,0,0,0,0,0,-1,1644,330,0,0
427,694,0,0,0,0,0,0,0,0,0,-1,1651,330,0,0
434,694,0,0,0,0,0,0,0,0,0,-1,1658,330,0,0
441,694,0,0,0,0,0,0,0,0,0,-1,1665,330,0,0
448,694,0,0,0,0,0,0,0,0,0,-1,1672,330,0,0
455,694,0,0,0,0,0,0,0,0,0,-1,1679,330,0,0
462,694,0,0,0,0,0,0,0,0,0,-1,1686,330,0,0
469,694,0,0,0,0,0,0,0,0,0,-1,1693,330,0,0
476,694,0,0,0,0,0,0,0,0,0,-1,1700,330,0,0
483,694,0,0,0,0,0,0,0,0,0,-1,1707,330,0,0
490,694,0,0,0,0,0,0,0,0,0,-1,1714,330,0,0
497,694,0,0,0,0,0,0,0,0,0,-1,1721,330,0,0
504,694,0,0,0,0,0,0,0,0,0,-1,1728,330,0,0
511,694,0,0,0,0,0,0,0,0,0,-1,1735,330,0,0
518,694,0,0,0,0,0,0,0,0,0,-1,1742,330,0,0
525,694,0,0,0,0,0,0,0,0,0,-1,1749,330,0,0
532,694,0,0,0,0,0,0,0,0,0,-1,1756,330,0,0
539,694,0,0,0,0,0,0,0,0,0,-1,1763,330,0,0
546,694,0,0,0,0,0,0,0,0,0,-1,1770,330,0,0
553,694,0,0,0,0,0,0,0,0,0,-1,1777,330,0,0
560,694,0,0,0,0,0,0,0,0,0,-1,1784,330,0,0
567,694,0,0,0,0,0,0,0,0,0,-1,1791,330,0,0
574,694,0,0,0,0,0,0,0,0,0,-1,1798,330,0,0
581,694,0,0,0,0,0,0,0,0,0,-1,1805,330,0,0
588,694,0,0,0,0,0,0,0,0,0,-1,1812,330,0,0
595,694,0,0,0,0,0,0,0,0,0,-1,1819,330,0,0
602,694,0,0,0,0,0,0,0,0,0,-1,1826,330,0,0
609,694,0,0,0,0,0,0,0,0,0,-1,1833,330,0,0
616,694,0,0,0,0,0,0,0,0,0,-1,1840,330,0,0
623,694,0,0,0,0,0,0,0,0,0,-1,1847,330,0,0
630,694,0,0,0,0,0,0,0,0,0,-1,1854,330,0,0
637,694,0,0,0,0,0,0,0,0,0,-1,1861,330,0,0
644,694,0,0,0,0,0,0,0,0,0,-1,1868,330,0,0
651,694,0,0,0,0,0,0,0,0,0,-1,1875,330,0,0
658,694,0,0,0,0,0,0,0,0,0,-1,1882,330,0,0
665,694,0,0,0,0,0,0,0,0,0,-1,1889,330,0,0
672,694,0,0,0,0,0,0,0,0,0,-1,1896,330,0,0
679,694,0,0,0,0,0,0,0,0,0,-1,1903,330,0,0
686,694,0,0,0,0,0,0,0,0,0,-1,1910,330,0,0
693,694,0,0,0,0,0,0,0,0,0,-1,1917,330,0,0
700,694,0,0,0,0,0,0,0,0,0,-1,1924,330,0,0
707,694,0,0,0,0,0,0,0,0,0,-1,1931,330,0,0
714,694,0,0,0,0,0,0,0,0,0,-1,1938,330,0,0
721,694,0,0,0,0,0,0,0,0,0,-1,1945,330,0,0
728,694,0,0,0,0,0,0,0,0,0,-1,1952,330,0,0
735,694,0,0,0,0,0,0,0,0,0,-1,1959,330,0,0
742,694,0,0,0,0,0,0,0,0,0,-1,1966,330,0,0
749,694,0,0,0,0,0,0,0,0,0,-1,1973,330,0,0
756,694,0,0,0,0,0,0,0,0,0,-1,1980,330,0,0
763,694,0,0,0,0,0,0,0,0,0,-1,1987,330,0,0
770,694,0,0,0,0,0,0,0,0,0,-1,1994,330,0,0
777,694,0,0,0,0,0,0,0,0,0,-1,2001,330,0,0
784,694,0,0,0,0,0,0,0,0,0,-1,2008,330,0,0
791,694,0,0,0,0,0,0,0,0,0,-1,2015,330,0,0
798,694,0,0,0,0,0,0,0,0,0,-1,2022,330,0,0
805,694,0,0,0,0,0,0,0,0,0,-1,2029,330,0,0
812,694,0,0,0,0,0,0,0,0,0,-1,2036,330,0,0
-700,687,0,0,0,0,0,0,0,0,0,-1,524,337,0,0
-693,687,0,0,0,0,0,0,0,0,0,-1,531,337,0,0
-686,687,0,0,0,0,0,0,0,0,0,-1,538,337,0,0
-679,687,0,0,0,0,0,0,0,0,0,-1,545,337,0,0
-672,687,0,0,0,0,0,0,0,0,0,-1,552,337,0,0
-665,687,0,0,0,0,0,0,0,0,0,-1,559,337,0,0
-658,687,0,0,0,0,0,0,0,0,0,-1,566,337,0,0
-651,687,0,0,0,0,0,0,0,0,0,-1,573,337,0,0
-644,687,0,0,0,0,0,0,0,0,0,-1,580,337,0,0
-637,687,0,0,0,0,0,0,0,0,0,-1,587,337,0,0
-630,687,0,0,0,0,0,0,0,0,0,-1,594,337,0,0
-623,687,0,0,0,0,0,0,0,0,0,-1,601,337,0,0
-616,687,0,0,0,0,0,0,0,0,0,-1,608,337,0,0
-609,687,0,0,0,0,0,0,0,0,0,-1,615,337,0,0
-602,687,0,0,0,0,0,0,0,0,0,-1,622,337,0,0
-595,687,0,0,0,0,0,0,0,0,0,-1,629,337,0,0
-588,687,0,0,0,0,0,0,0,0,0,-1,636,337,0,0
-581,687,0,0,0,0,0,0,0,0,0,-1,643,337,0,0
-574,687,0,0,0,0,0,0,0,0,0,-1,650,337,0,0
-567,687,0,0,0,0,0,0,0,0,0,-1,657,337,0,0
-560,687,0,0,0,0,0,0,0,0,0,-1,664,337,0,0
-553,687,0,0,0,0,0,0,0,0,0,-1,671,337,0,0
-546,687,0,0,0,0,0,0,0,0,0,-1,678,337,0,0
-539,687,0,0,0,0,0,0,0,0,0,-1,685,337,0,0
-532,687,0,0,0,0,0,0,0,0,0,-1,692,337,0,0
-525,687,0,0,0,0,0,0,0,0,0,-1,699,337,0,0
-518,687,0,0,0,0,0,0,0,0,0,-1,706,337,0,0
-511,687,0,0,0,0,0,0,0,0,0,-1,713,337,0,0
-504,687,0,0,0,0,0,0,0,0,0,-1,720,337,0,0
-497,687,0,0,0,0,0,0,0,0,0,-1,727,337,0,0
-490,687,0,0,0,0,0,0,0,0,0,-1,734,337,0,0
-483,687,0,0,0,0,0,0,0,0,0,-1,741,337,0,0
-476,687,0,0,0,0,0,0,0,0,0,-1,748,337,0,0
-469,687,0,0,0,0,0,0,0,0,0,-1,755,337,0,0
-462,687,0,0,0,0,0,0,0,0,0,-1,762,337,0,0
-455,687,0,0,0,0,0,0,0,0,0,-1,769,337,0,0
-448,687,0,0,0,0,0,0,0,0,0,-1,776,337,0,0
-441,687,0,0,0,0,0,0,0,0,0,-1,783,337,0,0
-434,687,0,0,0,0,0,0,0,0,0,-1,790,337,0,0
-427,687,0,0,0,0,0,0,0,0,0,-1,797,337,0,0
-420,687,0,0,0,0,0,0,0,0,0,-1,804,337,0,0
-413,687,0,0,0,0,0,0,0,0,0,-1,811,337,0,0
-406,687,0,0,0,0,0,0,0,0,0,-1,818,337,0,0
-399,687,0,0,0,0,0,0,0,0,0,-1,825,337,0,0
-392,687,0,0,0,0,0,0,0,0,0,-1,832,337,0,0
-385,687,0,0,0,0,0,0,0,0,0,-1,839,337,0,0
-378,687,0,0,0,0,0,0,0,0,0,-1,846,337,0,0
-371,687,0,0,0,0,0,0,0,0,0,-1,853,337,0,0
-364,687,0,0,0,0,0,0,0,0,0,-1,860,337,0,0
-357,687,0,0,0,0,0,0,0,0,0,-1,867,337,0,0
-350,687,0,0,0,0,0,0,0,0,0,-1,874,337,0,0
-343,687,0,0,0,0,0,0,0,0,0,-1,881,337,0,0
-336,687,0,0,0,0,0,0,0,0,0,-1,888,337,0,0
-329,687,0,0,0,0,0,0,0,0,0,-1,895,337,0,0
-322,687,0,0,0,0,0,0,0,0,0,-1,902,337,0,0
-315,687,0,0,0,0,0,0,0,0,0,-1,909,337,0,0
-308,687,0,0,0,0,0,0,0,0,0,-1,916,337,0,0
-301,687,0,0,0,0,0,0,0,0,0,-1,923,337,0,0
-294,687,0,0,0,0,0,0,0,0,0,-1,930,337,0,0
-287,687,0,0,0,0,0,0,0,0,0,-1,937,337,0,0
-280,687,0,0,0,0,0,0,0,0,0,-1,944,337,0,0
-273,687,0,0,0,0,0,0,0,0,0,-1,951,337,0,0
-266,687,0,0,0,0,0,0,0,0,0,-1,958,337,0,0
-259,687,0,0,0,0,0,0,0,0,0,-1,965,337,0,0
-252,687,0,0,0,0,0,0,0,0,0,-1,972,337,0,0
-245,687,0,0,0,0,0,0,0,0,0,-1,979,337,0,0
-238,687,0,0,0,0,0,0,0,0,0,-1,986,337,0,0
-231,687,0,0,0,0,0,0,0,0,0,-1,993,337,0,0
-224,687,0,0,0,0,0,0,0,0,0,-1,1000,337,0,0
-217,687,0,0,0,0,0,0,0,0,0,-1,1007,337,0,0
-210,687,0,0,0,0,0,0,0,0,0,-1,1014,337,0,0
-203,687,0,0,0,0,0,0,0,0,0,-1,1021,337,0,0
-196,687,0,0,0,0,0,0,0,0,0,-1,1028,337,0,0
-189,687,0,0,0,0,0,0,0,0,0,-1,1035,337,0,0
-182,687,0,0,0,0,0,0,0,0,0,-1,1042,337,0,0
-175,687,0,0,0,0,0,0,0,0,0,-1,1049,337,0,0
-168,687,0,0,0,0,0,0,0,0,0,-1,1056,337,0,0
-161,687,0,0,0,0,0,0,0,0,0,-1,1063,337,0,0
-154,687,0,0,0,0,0,0,0,0,0,-1,1070,337,0,0
-147,687,0,0,0,0,0,0,0,0,0,-1,1077,337,0,0
-140,687,0,0,0,0,0,0,0,0,0,-1,1084,337,0,0
-133,687,3.94824,-12.1252,0,0,0,0,0,0,0,-1,1091,337,3.94828,12.1252
-126,687,4.90063,-11.4611,0,0,0,0,0,0,0,-1,1098,337,4.90064,11.4611
-119,687,2.34839,-14.2607,0,0,0,0,0,0,0,-1,1105,337,2.3484,14.2607
-112,687,4.97925,-16.3433,0,0,0,0,0,0,0,-1,1112,337,4.97921,16.3433
-105,687,5.18494,-14.7532,0,0,0,0,0,0,0,-1,1119,337,5.18497,14.7532
-98,687,5.27942,-13.1133,0,0,0,0,0,0,0,-1,1126,337,5.27944,13.1133
-91,687,2.28162,-7.72437,0,0,0,0,0,0,0,-1,1133,337,2.28167,7.72437
-84,687,-0.867676,-5.7392,0,0,0,0,0,0,0,-1,1140,337,-0.867619,5.73919
-77,687,-3.63806,-12.9185,0,0,0,0,0,0,0,-1,1147,337,-3.6381,12.9185
-70,687,-6.24756,-13.2618,0,0,0,0,0,0,0,-1,1154,337,-6.24752,13.2618
-63,687,-8.37585,-12.8959,0,0,0,0,0,0,0,-1,1161,337,-8.3758,12.8959
-56,687,-10.7112,-8.02322,0,0,0,0,0,0,0,-1,1168,337,-10.7112,8.02323
-49,687,-7.44934,-0.550262,0,0,0,0,0,0,0,-1,1175,337,-7.44938,0.550261
-42,687,-4.2019,-0.405609,0,0,0,0,0,0,0,-1,1182,337,-4.20192,0.405614
-35,687,-4.42273,-0.688171,0,0,0,0,0,0,0,-1,1189,337,-4.42276,0.688178
-28,687,-1.14038,-1.39072,0,0,0,0,0,0,0,-1,1196,337,-1.14035,1.3907
-21,687,1.73071,-12.3558,0,0,0,0,0,0,0,-1,1203,337,1.73066,12.3558
-14,687,2.11365,-12.3855,0.0274402,-0.0173801,-0.0110143,0.0300007,-0.0199405,-0.228407,0.0290279,0.0451626,1210,337,2.11368,12.3855
-7,687,2.3772,-12.1567,0.0271038,-0.0149815,-0.0102222,0.0294553,-0.017333,-0.226105,0.0273138,0.0452645,1217,337,2.37715,12.1567
0,687,2.66492,-13.9799,0,0,0,0,0,0,0,-1,1224,337,2.66495,13.9798
7,687,3.07483,-12.8698,0.0264265,-0.00886907,-0.00947501,0.0288092,-0.0112518,-0.246363,0.0238582,0.0483112,1231,337,3.07483,12.8698
14,687,2.44275,-12.2501,0.0257873,-0.00581101,-0.00821282,0.0277945,-0.00781814,-0.239691,0.0216123,0.0481009,1238,337,2.4427,12.2501
21,687,3.0437,-13.6197,0.02492,-0.00272601,-0.00674917,0.0264797,-0.00428568,-0.227104,0.0192414,0.0498617,1245,337,3.04369,13.6197
28,687,2.87878,-13.7568,0,0,0,0,0,0,0,-1,1252,337,2.87884,13.7568
35,687,2.90112,-13.5659,0,0,0,0,0,0,0,-1,1259,337,2.90108,13.566
42,687,2.67126,-13.8243,0,0,0,0,0,0,0,-1,1266,337,2.67123,13.8243
49,687,2.77161,-13.4812,0.0199023,0.00519341,-0.000385636,0.0199124,0.00518331,-0.0261939,0.0119286,0.0474848,1273,337,2.77161,13.4812
56,687,3.02844,-13.3115,0.0191,0.00530504,0.000811506,0.0191476,0.00525747,0.058557,0.0114232,0.0426769,1280,337,3.02849,13.3115
63,687,3.16345,-13.2489,0.0194285,0.00433523,0.00178093,0.0196358,0.00412794,0.115874,0.0119545,0.0404923,1287,337,3.16345,13.2489
70,687,3.12415,-13.3385,0.0200328,0.0020797,0.00284715,0.0204735,0.00163899,0.153569,0.0131368,0.0422734,1294,337,3.12417,13.3385
77,687,3.20093,-13.2755,0.0186249,-0.000940799,0.00395222,0.0193931,-0.00170898,0.191973,0.0135344,0.0456942,1301,337,3.20098,13.2755
84,687,3.10339,-13.0561,0,0,0,0,0,0,0,-1,1308,337,3.1034,13.0561
91,687,3.43665,-15.009,0,0,0,0,0,0,0,-1,1315,337,3.43665,15.009
98,687,1.86328,-14.0364,0,0,0,0,0,0,0,-1,1322,337,1.86332,14.0364
105,687,2.2146,-13.8899,0.0108066,-0.00786557,0.0051517,0.0121337,-0.00919262,0.252114,0.0123517,0.0458323,1329,337,2.21463,13.8899
112,687,2.62415,-13.7671,0.0088077,-0.00883444,0.00577398,0.0105294,-0.0105561,0.289789,0.0121737,0.0443825,1336,337,2.62417,13.7671
119,687,3.05933,-13.7108,0.00576757,-0.00801054,0.0065091,0.00835625,-0.0105992,0.378524,0.0109695,0.0442492,1343,337,3.05929,13.7108
126,687,2.92334,-13.7332,0.0014781,-0.0063175,0.00739917,0.00594335,-0.0107827,0.542974,0.00979063,0.0444444,1350,337,2.92337,13.7332
133,687,2.55066,-13.5721,-0.004091,-0.00343403,0.00814103,0.00438514,-0.0119102,0.805562,0.00973675,0.0474495,1357,337,2.55067,13.5721
140,687,2.19897,-13.3692,-0.0094969,-0.000229873,0.00887287,0.00514647,-0.0148732,1.02603,0.0120045,0.0495164,1364,337,2.19901,13.3692
147,687,1.80005,-13.0155,-0.0142981,0.00253877,0.00946525,0.00678766,-0.018547,1.14886,0.0151431,0.0455678,1371,337,1.8001,13.0155
154,687,1.67017,-12.8329,-0.0183285,0.00519869,0.0099506,0.00884278,-0.0219726,1.21975,0.0183217,0.0475984,1378,337,1.67012,12.8329
161,687,1.80078,-12.469,0,0,0,0,0,0,0,-1,1385,337,1.80076,12.469
168,687,6.66968,1.37039,0,0,0,0,0,0,0,-1,1392,337,6.6697,-1.37039
175,687,6.64075,0.771606,0,0,0,0,0,0,0,-1,1399,337,6.64073,-0.771595
182,687,6.67249,0.289917,0,0,0,0,0,0,0,-1,1406,337,6.67247,-0.289916
189,687,7.76062,4.53635,0,0,0,0,0,0,0,-1,1413,337,7.76064,-4.53636
196,687,6.99048,3.2966,0,0,0,0,0,0,0,-1,1420,337,6.99046,-3.2966
203,687,6.36499,2.1445,0,0,0,0,0,0,0,-1,1427,337,6.36499,-2.14451
210,687,6.68066,0.674652,0,0,0,0,0,0,0,-1,1434,337,6.68062,-0.674655
217,687,5.99683,-0.630493,0,0,0,0,0,0,0,-1,1441,337,5.99684,0.630497
224,687,5.52917,0.524902,0,0,0,0,0,0,0,-1,1448,337,5.5292,-0.524915
231,687,5.85583,-1.73651,0,0,0,0,0,0,0,-1,1455,337,5.85577,1.73651
238,687,5.96582,-2.96774,0,0,0,0,0,0,0,-1,1462,337,5.96577,2.96773
245,687,1.28259,2.32211,0,0,0,0,0,0,0,-1,1469,337,1.28258,-2.32211
252,687,1.97278,3.88422,0,0,0,0,0,0,0,-1,1476,337,1.97281,-3.88421
259,687,0,0,0,0,0,0,0,0,0,-1,1483,337,0,0
266,687,0,0,0,0,0,0,0,0,0,-1,1490,337,0,0
273,687,0,0,0,0,0,0,0,0,0,-1,1497,337,0,0
280,687,0,0,0,0,0,0,0,0,0,-1,1504,337,0,0
287,687,0,0,0,0,0,0,0,0,0,-1,1511,337,0,0
294,687,0,0,0,0,0,0,0,0,0,-1,1518,337,0,0
301,687,0,0,0,0,0,0,0,0,0,-1,1525,337,0,0
308,687,0,0,0,0,0,0,0,0,0,-1,1532,337,0,0
315,687,0,0,0,0,0,0,0,0,0,-1,1539,337,0,0
322,687,0,0,0,0,0,0,0,0,0,-1,1546,337,0,0
329,687,0,0,0,0,0,0,0,0,0,-1,1553,337,0,0
336,687,0,0,0,0,0,0,0,0,0,-1,1560,337,0,0
343,687,0,0,0,0,0,0,0,0,0,-1,1567,337,0,0
350,687,0,0,0,0,0,0,0,0,0,-1,1574,337,0,0
357,687,0,0,0,0,0,0,0,0,0,-1,1581,337,0,0
364,687,0,0,0,0,0,0,0,0,0,-1,1588,337,0,0
371,687,0,0,0,0,0,0,0,0,0,-1,1595,337,0,0
378,687,0,0,0,0,0,0,0,0,0,-1,1602,337,0,0
385,687,0,0,0,0,0,0,0,0,0,-1,1609,337,0,0
392,687,0,0,0,0,0,0,0,0,0,-1,1616,337,0,0
399,687,0,0,0,0,0,0,0,0,0,-1,1623,337,0,0
406,687,0,0,0,0,0,0,0,0,0,-1,1630,337,0,0
413,687,0,0,0,0,0,0,0,0,0,-1,1637,337,0,0
420,687,0,0,0,0,0,0,0,0,0,-1,1644,337,0,0
427,687,0,0,0,0,0,0,0,0,0,-1,1651,337,0,0
434,687,0,0,0,0,0,0,0,0,0,-1,1658,337,0,0
441,687,0,0,0,0,0,0,0,0,0,-1,1665,337,0,0
448,687,0,0,0,0,0,0,0,0,0,-1,1672,337,0,0
455,687,0,0,0,0,0,0,0,0,0,-1,1679,337,0,0
462,687,0,0,0,0,0,0,0,0,0,-1,1686,337,0,0
469,687,0,0,0,0,0,0,0,0,0,-1,1693,337,0,0
476,687,0,0,0,0,0,0,0,0,0,-1,1700,337,0,0
483,687,0,0,0,0,0,0,0,0,0,-1,1707,337,0,0
490,687,0,0,0,0,0,0,0,0,0,-1,1714,337,0,0
497,687,0,0,0,0,0,0,0,0,0,-1,1721,337,0,0
504,687,0,0,0,0,0,0,0,0,0,-1,1728,337,0,0
511,687,0,0,0,0,0,0,0,0,0,-1,1735,337,0,0
518,687,0,0,0,0,0,0,0,0,0,-1,1742,337,0,0
525,687,0,0,0,0,0,0,0,0,0,-1,1749,337,0,0
532,687,0,0,0,0,0,0,0,0,0,-1,1756,337,0,0
539,687,0,0,0,0,0,0,0,0,0,-1,1763,337,0,0
546,687,0,0,0,0,0,0,0,0,0,-1,1770,337,0,0
553,687,0,0,0,0,0,0,0,0,0,-1,1777,337,0,0
560,687,0,0,0,0,0,0,0,0,0,-1,1784,337,0,0
567,687,0,0,0,0,0,0,0,0,0,-1,1791,337,0,0
574,687,0,0,0,0,0,0,0,0,0,-1,1798,337,0,0
581,687,0,0,0,0,0,0,0,0,0,-1,1805,337,0,0
588,687,0,0,0,0,0,0,0,0,0,-1,1812,337,0,0
595,687,0,0,0,0,0,0,0,0,0,-1,1819,337,0,0
602,687,0,0,0,0,0,0,0,0,0,-1,1826,337,0,0
609,687,0,0,0,0,0,0,0,0,0,-1,1833,337,0,0
616,687,0,0,0,0,0,0,0,0,0,-1,1840,337,0,0
623,687,0,0,0,0,0,0,0,0,0,-1,1847,337,0,0
630,687,0,0,0,0,0,0,0,0,0,-1,1854,337,0,0
637,687,0,0,0,0,0,0,0,0,0,-1,1861,337,0,0
644,687,0,0,0,0,0,0,0,0,0,-1,1868,337,0,0
651,687,0,0,0,0,0,0,0,0,0,-1,1875,337,0,0
658,687,0,0,0,0,0,0,0,0,0,-1,1882,337,0,0
665,687,0,0,0,0,0,0,0,0,0,-1,1889,337,0,0
672,687,0,0,0,0,0,0,0,0,0,-1,1896,337,0,0
679,687,0,0,0,0,0,0,0,0,0,-1,1903,337,0,0
686,687,0,0,0,0,0,0,0,0,0,-1,1910,337,0,0
693,687,0,0,0,0,0,0,0,0,0,-1,1917,337,0,0
700,687,0,0,0,0,0,0,0,0,0,-1,1924,337,0,0
707,687,0,0,0,0,0,0,0,0,0,-1,1931,337,0,0
714,687,0,0,0,0,0,0,0,0,0,-1,1938,337,0,0
721,687,0,0,0,0,0,0,0,0,0,-1,1945,337,0,0
728,687,0,0,0,0,0,0,0,0,0,-1,1952,337,0,0
735,687,0,0,0,0,0,0,0,0,0,-1,1959,337,0,0
742,687,0,0,0,0,0,0,0,0,0,-1,1966,337,0,0
749,687,0,0,0,0,0,0,0,0,0,-1,1973,337,0,0
756,687,0,0,0,0,0,0,0,0,0,-1,1980,337,0,0
763,687,0,0,0,0,0,0,0,0,0,-1,1987,337,0,0
770,687,0,0,0,0,0,0,0,0,0,-1,1994,337,0,0
777,687,0,0,0,0,0,0,0,0,0,-1,2001,337,0,0
784,687,0,0,0,0,0,0,0,0,0,-1,2008,337,0,0
791,687,0,0,0,0,0,0,0,0,0,-1,2015,337,0,0
798,687,0,0,0,0,0,0,0,0,0,-1,2022,337,0,0
805,687,0,0,0,0,0,0,0,0,0,-1,2029,337,0,0
812,687,0,0,0,0,0,0,0,0,0,-1,2036,337,0,0
-700,680,0,0,0,0,0,0,0,0,0,-1,524,344,0,0
-693,680,0,0,0,0,0,0,0,0,0,-1,531,344,0,0
-686,680,0,0,0,0,0,0,0,0,0,-1,538,344,0,0
-679,680,0,0,0,0,0,0,0,0,0,-1,545,344,0,0
-672,680,0,0,0,0,0,0,0,0,0,-1,552,344,0,0
-665,680,0,0,0,0,0,0,0,0,0,-1,559,344,0,0
-658,680,0,0,0,0,0,0,0,0,0,-1,566,344,0,0
-651,680,0,0,0,0,0,0,0,0,0,-1,573,344,0,0
-644,680,0,0,0,0,0,0,0,0,0,-1,580,344,0,0
-637,680,0,0,0,0,0,0,0,0,0,-1,587,344,0,0
-630,680,0,0,0,0,0,0,0,0,0,-1,594,344,0,0
-623,680,0,0,0,0,0,0,0,0,0,-1,601,344,0,0
-616,680,0,0,0,0,0,0,0,0,0,-1,608,344,0,0
-609,680,0,0,0,0,0,0,0,0,0,-1,615,344,0,0
-602,680,0,0,0,0,0,0,0,0,0,-1,622,344,0,0
-595,680,0,0,0,0,0,0,0,0,0,-1,629,344,0,0
-588,680,0,0,0,0,0,0,0,0,0,-1,636,344,0,0
-581,680,0,0,0,0,0,0,0,0,0,-1,643,344,0,0
-574,680,0,0,0,0,0,0,0,0,0,-1,650,344,0,0
-567,680,0,0,0,0,0,0,0,0,0,-1,657,344,0,0
-560,680,0,0,0,0,0,0,0,0,0,-1,664,344,0,0
-553,680,0,0,0,0,0,0,0,0,0,-1,671,344,0,0
-546,680,0,0,0,0,0,0,0,0,0,-1,678,344,0,0
-539,680,0,0,0,0,0,0,0,0,0,-1,685,344,0,0
-532,680,0,0,0,0,0,0,0,0,0,-1,692,344,0,0
-525,680,0,0,0,0,0,0,0,0,0,-1,699,344,0,0
-518,680,0,0,0,0,0,0,0,0,0,-1,706,344,0,0
-511,680,0,0,0,0,0,0,0,0,0,-1,713,344,0,0
-504,680,0,0,0,0,0,0,0,0,0,-1,720,344,0,0
-497,680,0,0,0,0,0,0,0,0,0,-1,727,344,0,0
-490,680,0,0,0,0,0,0,0,0,0,-1,734,344,0,0
-483,680,0,0,0,0,0,0,0,0,0,-1,741,344,0,0
-476,680,0,0,0,0,0,0,0,0,0,-1,748,344,0,0
-469,680,0,0,0,0,0,0,0,0,0,-1,755,344,0,0
-462,680,0,0,0,0,0,0,0,0,0,-1,762,344,0,0
-455,680,0,0,0,0,0,0,0,0,0,-1,769,344,0,0
-448,680,0,0,0,0,0,0,0,0,0,-1,776,344,0,0
-441,680,0,0,0,0,0,0,0,0,0,-1,783,344,0,0
-434,680,0,0,0,0,0,0,0,0,0,-1,790,344,0,0
-427,680,0,0,0,0,0,0,0,0,0,-1,797,344,0,0
-420,680,0,0,0,0,0,0,0,0,0,-1,804,344,0,0
-413,680,0,0,0,0,0,0,0,0,0,-1,811,344,0,0
-406,680,0,0,0,0,0,0,0,0,0,-1,818,344,0,0
-399,680,0,0,0,0,0,0,0,0,0,-1,825,344,0,0
-392,680,0,0,0,0,0,0,0,0,0,-1,832,344,0,0
-385,680,0,0,0,0,0,0,0,0,0,-1,839,344,0,0
-378,680,0,0,0,0,0,0,0,0,0,-1,846,344,0,0
-371,680,0,0,0,0,0,0,0,0,0,-1,853,344,0,0
-364,680,0,0,0,0,0,0,0,0,0,-1,860,344,0,0
-357,680,0,0,0,0,0,0,0,0,0,-1,867,344,0,0
-350,680,0,0,0,0,0,0,0,0,0,-1,874,344,0,0
-343,680,0,0,0,0,0,0,0,0,0,-1,881,344,0,0
-336,680,0,0,0,0,0,0,0,0,0,-1,888,344,0,0
-329,680,0,0,0,0,0,0,0,0,0,-1,895,344,0,0
-322,680,0,0,0,0,0,0,0,0,0,-1,902,344,0,0
-315,680,0,0,0,0,0,0,0,0,0,-1,909,344,0,0
-308,680,0,0,0,0,0,0,0,0,0,-1,916,344,0,0
-301,680,0,0,0,0,0,0,0,0,0,-1,923,344,0,0
-294,680,0,0,0,0,0,0,0,0,0,-1,930,344,0,0
-287,680,0,0,0,0,0,0,0,0,0,-1,937,344,0,0
-280,680,0,0,0,0,0,0,0,0,0,-1,944,344,0,0
-273,680,0,0,0,0,0,0,0,0,0,-1,951,344,0,0
-266,680,0,0,0,0,0,0,0,0,0,-1,958,344,0,0
-259,680,0,0,0,0,0,0,0,0,0,-1,965,344,0,0
-252,680,0,0,0,0,0,0,0,0,0,-1,972,344,0,0
-245,680,0,0,0,0,0,0,0,0,0,-1,979,344,0,0
-238,680,0,0,0,0,0,0,0,0,0,-1,986,344,0,0
-231,680,0,0,0,0,0,0,0,0,0,-1,993,344,0,0
-224,680,0,0,0,0,0,0,0,0,0,-1,1000,344,0,0
-217,680,0,0,0,0,0,0,0,0,0,-1,1007,344,0,0
-210,680,0,0,0,0,0,0,0,0,0,-1,1014,344,0,0
-203,680,0,0,0,0,0,0,0,0,0,-1,1021,344,0,0
-196,680,0,0,0,0,0,0,0,0,0,-1,1028,344,0,0
-189,680,0,0,0,0,0,0,0,0,0,-1,1035,344,0,0
-182,680,0,0,0,0,0,0,0,0,0,-1,1042,344,0,0
-175,680,0,0,0,0,0,0,0,0,0,-1,1049,344,0,0
-168,680,0,0,0,0,0,0,0,0,0,-1,1056,344,0,0
-161,680,0,0,0,0,0,0,0,0,0,-1,1063,344,0,0
-154,680,2.93018,-16.3629,0,0,0,0,0,0,0,-1,1070,344,2.93013,16.3629
-147,680,3.67163,-17.456,0,0,0,0,0,0,0,-1,1077,344,3.67165,17.456
-140,680,5.20984,-17.8335,0,0,0,0,0,0,0,-1,1084,344,5.20978,17.8335
-133,680,4.31287,-11.7563,0,0,0,0,0,0,0,-1,1091,344,4.31291,11.7563
-126,680,5.39258,-10.8755,0,0,0,0,0,0,0,-1,1098,344,5.39259,10.8755
-119,680,4.16895,-15.9802,0,0,0,0,0,0,0,-1,1105,344,4.16891,15.9802
-112,680,4.07593,-15.1262,0,0,0,0,0,0,0,-1,1112,344,4.07599,15.1262
-105,680,4.23413,-14.1487,0,0,0,0,0,0,0,-1,1119,344,4.23415,14.1487
-98,680,4.38269,-13.0401,0,0,0,0,0,0,0,-1,1126,344,4.38271,13.0401
-91,680,3.62317,-12.39,0,0,0,0,0,0,0,-1,1133,344,3.62319,12.3899
-84,680,1.92285,-8.71033,0,0,0,0,0,0,0,-1,1140,344,1.92286,8.71034
-77,680,-0.118652,-5.75586,0,0,0,0,0,0,0,-1,1147,344,-0.118628,5.75586
-70,680,-4.04382,-16.124,0,0,0,0,0,0,0,-1,1154,344,-4.04388,16.124
-63,680,-5.41333,-13.0013,0,0,0,0,0,0,0,-1,1161,344,-5.41332,13.0013
-56,680,-6.96912,-8.83356,0,0,0,0,0,0,0,-1,1168,344,-6.96907,8.83354
-49,680,-6.7677,-2.24063,0,0,0,0,0,0,0,-1,1175,344,-6.76772,2.24063
-42,680,-1.02368,0.618805,0,0,0,0,0,0,0,-1,1182,344,-1.0237,-0.618797
-35,680,-0.947876,-0.942719,0,0,0,0,0,0,0,-1,1189,344,-0.947842,0.942731
-28,680,-1.46118,-1.10574,0,0,0,0,0,0,0,-1,1196,344,-1.4612,1.10575
-21,680,2.06995,-12.3642,0,0,0,0,0,0,0,-1,1203,344,2.07,12.3642
-14,680,2.20813,-12.5894,0,0,0,0,0,0,0,-1,1210,344,2.20812,12.5894
-7,680,2.56836,-13.4342,0,0,0,0,0,0,0,-1,1217,344,2.56834,13.4342
0,680,2.60852,-13.5488,0.0196541,-0.00662803,-0.00830041,0.022056,-0.00902995,-0.28168,0.0184652,0.0467669,1224,344,2.60855,13.5488
7,680,3.04895,-12.9324,0.0190591,-0.00435199,-0.00769435,0.0213615,-0.0066544,-0.290753,0.0169016,0.0451466,1231,344,3.04891,12.9324
14,680,3.72852,-12.1749,0.0183176,-0.00237873,-0.0066728,0.0202825,-0.0043436,-0.286366,0.0151781,0.0428357,1238,344,3.72854,12.1749
21,680,2.86975,-13.3958,0.0175239,-0.000418986,-0.00549389,0.0190724,-0.0019675,-0.274735,0.0134189,0.0460785,1245,344,2.86977,13.3958
28,680,2.82214,-13.6025,0.0170186,0.00122313,-0.0041167,0.0180271,0.000214605,-0.240252,0.0119472,0.0432268,1252,344,2.82213,13.6025
35,680,2.75452,-13.512,0.0164651,0.00229036,-0.00246012,0.0168799,0.00187553,-0.16705,0.0106831,0.0439154,1259,344,2.75457,13.512
42,680,2.62866,-13.5272,0.0152148,0.00367628,-0.00106195,0.0153117,0.00357936,-0.0910162,0.00924851,0.0463809,1266,344,2.6287,13.5272
49,680,2.63672,-13.4767,0.0139036,0.00422421,-6.15904e-05,0.013904,0.00422382,-0.00636271,0.00823092,0.040398,1273,344,2.63667,13.4767
56,680,2.73767,-13.384,0.0135034,0.00404857,0.000982156,0.0136043,0.00394763,0.102422,0.00808171,0.0367147,1280,344,2.73764,13.384
63,680,2.76331,-13.363,0.0140259,0.00297484,0.00184603,0.0143261,0.00267462,0.161216,0.00879579,0.0361719,1287,344,2.76327,13.363
70,680,3.01392,-13.4727,0.0147533,0.000968857,0.00281134,0.0153046,0.000417534,0.193649,0.0100668,0.0374672,1294,344,3.01388,13.4727
77,680,3.24146,-13.5685,0.0137656,-0.00133172,0.00386998,0.0146998,-0.00226592,0.236866,0.010636,0.0405505,1301,344,3.24151,13.5685
84,680,3.60474,-13.6011,0.0124936,-0.00265018,0.00399681,0.0134837,-0.0036403,0.242839,0.0104168,0.0447386,1308,344,3.60468,13.6011
91,680,3.90955,-13.7038,0,0,0,0,0,0,0,-1,1315,344,3.9096,13.7038
98,680,1.93811,-13.9499,0,0,0,0,0,0,0,-1,1322,344,1.93815,13.9499
105,680,2.26111,-13.7691,0.00733989,-0.00654552,0.00464751,0.00875185,-0.00795748,0.294949,0.00965077,0.0423068,1329,344,2.26113,13.7691
112,680,2.61804,-13.5816,0.00554846,-0.00717794,0.00499243,0.00727319,-0.00890267,0.332634,0.00935492,0.0445501,1336,344,2.61806,13.5816
119,680,3.14331,-13.3766,0.00300668,-0.00651099,0.00544052,0.00547597,-0.00898028,0.426068,0.00842766,0.0442629,1343,344,3.14333,13.3766
126,680,3.54053,-13.4131,-0.000335642,-0.00517534,0.00599285,0.00370747,-0.00921845,0.593514,0.00768555,0.0458157,1350,344,3.54053,13.4131
133,680,2.5564,-13.9362,-0.00443055,-0.0030304,0.00641435,0.00272196,-0.0101829,0.839754,0.00785475,0.043944,1357,344,2.55635,13.9362
140,680,2.21167,-13.7965,0,0,0,0,0,0,0,-1,1364,344,2.21167,13.7965
147,680,1.58508,-12.8009,-0.0115034,0.0012481,0.00720933,0.00449652,-0.0147518,1.14746,0.0116269,0.0441146,1371,344,1.58511,12.8009
154,680,1.74231,-12.9389,-0.0141922,0.00333163,0.00752381,0.00611869,-0.0169793,1.21604,0.0138183,0.0470123,1378,344,1.74231,12.9389
161,680,1.83545,-12.9141,0,0,0,0,0,0,0,-1,1385,344,1.83546,12.9141
168,680,6.85046,1.69257,0,0,0,0,0,0,0,-1,1392,344,6.85045,-1.69257
175,680,6.66541,0.942078,0,0,0,0,0,0,0,-1,1399,344,6.66538,-0.942088
182,680,6.52917,0.532379,0,0,0,0,0,0,0,-1,1406,344,6.52922,-0.532385
189,680,7.55884,4.77695,0,0,0,0,0,0,0,-1,1413,344,7.55886,-4.77694
196,680,6.55627,3.35254,0,0,0,0,0,0,0,-1,1420,344,6.55622,-3.35255
203,680,5.7334,1.90753,0,0,0,0,0,0,0,-1,1427,344,5.73341,-1.90754
210,680,5.27515,0.493622,0,0,0,0,0,0,0,-1,1434,344,5.27514,-0.493632
217,680,3.96936,1.3656,0,0,0,0,0,0,0,-1,1441,344,3.96942,-1.36559
224,680,3.9491,-0.640228,0,0,0,0,0,0,0,-1,1448,344,3.94908,0.64024
231,680,4.24866,-1.96881,0,0,0,0,0,0,0,-1,1455,344,4.2486,1.96882
238,680,4.29333,-3.23984,0,0,0,0,0,0,0,-1,1462,344,4.29332,3.23984
245,680,2.44397,0.985382,0,0,0,0,0,0,0,-1,1469,344,2.44402,-0.985394
252,680,3.07349,2.18951,0,0,0,0,0,0,0,-1,1476,344,3.0735,-2.18952
259,680,2.82971,1.30682,0,0,0,0,0,0,0,-1,1483,344,2.82972,-1.30684
266,680,2.67554,1.44067,0,0,0,0,0,0,0,-1,1490,344,2.67551,-1.44066
273,680,2.46411,1.54666,0,0,0,0,0,0,0,-1,1497,344,2.46407,-1.54666
280,680,0,0,0,0,0,0,0,0,0,-1,1504,344,0,0
287,680,0,0,0,0,0,0,0,0,0,-1,1511,344,0,0
294,680,0,0,0,0,0,0,0,0,0,-1,1518,344,0,0
301,680,0,0,0,0,0,0,0,0,0,-1,1525,344,0,0
308,680,0,0,0,0,0,0,0,0,0,-1,1532,344,0,0
315,680,0,0,0,0,0,0,0,0,0,-1,1539,344,0,0
322,680,0,0,0,0,0,0,0,0,0,-1,1546,344,0,0
329,680,0,0,0,0,0,0,0,0,0,-1,1553,344,0,0
336,680,0,0,0,0,0,0,0,0,0,-1,1560,344,0,0
343,680,0,0,0,0,0,0,0,0,0,-1,1567,344,0,0
350,680,0,0,0,0,0,0,0,0,0,-1,1574,344,0,0
357,680,0,0,0,0,0,0,0,0,0,-1,1581,344,0,0
364,680,0,0,0,0,0,0,0,0,0,-1,1588,344,0,0
371,680,0,0,0,0,0,0,0,0,0,-1,1595,344,0,0
378,680,0,0,0,0,0,0,0,0,0,-1,1602,344,0,0
385,680,0,0,0,0,0,0,0,0,0,-1,1609,344,0,0
392,680,0,0,0,0,0,0,0,0,0,-1,1616,344,0,0
399,680,0,0,0,0,0,0,0,0,0,-1,1623,344,0,0
406,680,0,0,0,0,0,0,0,0,0,-1,1630,344,0,0
413,680,0,0,0,0,0,0,0,0,0,-1,1637,344,0,0
420,680,0,0,0,0,0,0,0,0,0,-1,1644,344,0,0
427,680,0,0,0,0,0,0,0,0,0,-1,1651,344,0,0
434,680,0,0,0,0,0,0,0,0,0,-1,1658,344,0,0
441,680,0,0,0,0,0,0,0,0,0,-1,1665,344,0,0
448,680,0,0,0,0,0,0,0,0,0,-1,1672,344,0,0
455,680,0,0,0,0,0,0,0,0,0,-1,1679,344,0,0
462,680,0,0,0,0,0,0,0,0,0,-1,1686,344,0,0
469,680,0,0,0,0,0,0,0,0,0,-1,1693,344,0,0
476,680,0,0,0,0,0,0,0,0,0,-1,1700,344,0,0
483,680,0,0,0,0,0,0,0,0,0,-1,1707,344,0,0
490,680,0,0,0,0,0,0,0,0,0,-1,1714,344,0,0
497,680,0,0,0,0,0,0,0,0,0,-1,1721,344,0,0
504,680,0,0,0,0,0,0,0,0,0,-1,1728,344,0,0
511,680,0,0,0,0,0,0,0,0,0,-1,1735,344,0,0
518,680,0,0,0,0,0,0,0,0,0,-1,1742,344,0,0
525,680,0,0,0,0,0,0,0,0,0,-1,1749,344,0,0
532,680,0,0,0,0,0,0,0,0,0,-1,1756,344,0,0
539,680,0,0,0,0,0,0,0,0,0,-1,1763,344,0,0
546,680,0,0,0,0,0,0,0,0,0,-1,1770,344,0,0
553,680,0,0,0,0,0,0,0,0,0,-1,1777,344,0,0
560,680,0,0,0,0,0,0,0,0,0,-1,1784,344,0,0
567,680,0,0,0,0,0,0,0,0,0,-1,1791,344,0,0
574,680,0,0,0,0,0,0,0,0,0,-1,1798,344,0,0
581,680,0,0,0,0,0,0,0,0,0,-1,1805,344,0,0
588,680,0,0,0,0,0,0,0,0,0,-1,1812,344,0,0
595,680,0,0,0,0,0,0,0,0,0,-1,1819,344,0,0
602,680,0,0,0,0,0,0,0,0,0,-1,1826,344,0,0
609,680,0,0,0,0,0,0,0,0,0,-1,1833,344,0,0
616,680,0,0,0,0,0,0,0,0,0,-1,1840,344,0,0
623,680,0,0,0,0,0,0,0,0,0,-1,1847,344,0,0
630,680,0,0,0,0,0,0,0,0,0,-1,1854,344,0,0
637,680,0,0,0,0,0,0,0,0,0,-1,1861,344,0,0
644,680,0,0,0,0,0,0,0,0,0,-1,1868,344,0,0
651,680,0,0,0,0,0,0,0,0,0,-1,1875,344,0,0
658,680,0,0,0,0,0,0,0,0,0,-1,1882,344,0,0
665,680,0,0,0,0,0,0,0,0,0,-1,1889,344,0,0
672,680,0,0,0,0,0,0,0,0,0,-1,1896,344,0,0
679,680,0,0,0,0,0,0,0,0,0,-1,1903,344,0,0
686,680,0,0,0,0,0,0,0,0,0,-1,1910,344,0,0
693,680,0,0,0,0,0,0,0,0,0,-1,1917,344,0,0
700,680,0,0,0,0,0,0,0,0,0,-1,1924,344,0,0
707,680,0,0,0,0,0,0,0,0,0,-1,1931,344,0,0
714,680,0,0,0,0,0,0,0,0,0,-1,1938,344,0,0
721,680,0,0,0,0,0,0,0,0,0,-1,1945,344,0,0
728,680,0,0,0,0,0,0,0,0,0,-1,1952,344,0,0
735,680,0,0,0,0,0,0,0,0,0,-1,1959,344,0,0
742,680,0,0,0,0,0,0,0,0,0,-1,1966,344,0,0
749,680,0,0,0,0,0,0,0,0,0,-1,1973,344,0,0
756,680,0,0,0,0,0,0,0,0,0,-1,1980,344,0,0
763,680,0,0,0,0,0,0,0,0,0,-1,1987,344,0,0
770,680,0,0,0,0,0,0,0,0,0,-1,1994,344,0,0
777,680,0,0,0,0,0,0,0,0,0,-1,2001,344,0,0
784,680,0,0,0,0,0,0,0,0,0,-1,2008,344,0,0
791,680,0,0,0,0,0,0,0,0,0,-1,2015,344,0,0
798,680,0,0,0,0,0,0,0,0,0,-1,2022,344,0,0
805,680,0,0,0,0,0,0,0,0,0,-1,2029,344,0,0
812,680,0,0,0,0,0,0,0,0,0,-1,2036,344,0,0
-700,673,0,0,0,0,0,0,0,0,0,-1,524,351,0,0
-693,673,0,0,0,0,0,0,0,0,0,-1,531,351,0,0
-686,673,0,0,0,0,0,0,0,0,0,-1,538,351,0,0
-679,673,0,0,0,0,0,0,0,0,0,-1,545,351,0,0
-672,673,0,0,0,0,0,0,0,0,0,-1,552,351,0,0
-665,673,0,0,0,0,0,0,0,0,0,-1,559,351,0,0
-658,673,0,0,0,0,0,0,0,0,0,-1,566,351,0,0
-651,673,0,0,0,0,0,0,0,0,0,-1,573,351,0,0
-644,673,0,0,0,0,0,0,0,0,0,-1,580,351,0,0
-637,673,0,0,0,0,0,0,0,0,0,-1,587,351,0,0
-630,673,0,0,0,0,0,0,0,0,0,-1,594,351,0,0
-623,673,0,0,0,0,0,0,0,0,0,-1,601,351,0,0
-616,673,0,0,0,0,0,0,0,0,0,-1,608,351,0,0
-609,673,0,0,0,0,0,0,0,0,0,-1,615,351,0,0
-602,673,0,0,0,0,0,0,0,0,0,-1,622,351,0,0
-595,673,0,0,0,0,0,0,0,0,0,-1,629,351,0,0
-588,673,0,0,0,0,0,0,0,0,0,-1,636,351,0,0
-581,673,0,0,0,0,0,0,0,0,0,-1,643,351,0,0
-574,673,0,0,0,0,0,0,0,0,0,-1,650,351,0,0
-567,673,0,0,0,0,0,0,0,0,0,-1,657,351,0,0
-560,673,0,0,0,0,0,0,0,0,0,-1,664,351,0,0
-553,673,0,0,0,0,0,0,0,0,0,-1,671,351,0,0
-546,673,0,0,0,0,0,0,0,0,0,-1,678,351,0,0
-539,673,0,0,0,0,0,0,0,0,0,-1,685,351,0,0
-532,673,0,0,0,0,0,0,0,0,0,-1,692,351,0,0
-525,673,0,0,0,0,0,0,0,0,0,-1,699,351,0,0
-518,673,0,0,0,0,0,0,0,0,0,-1,706,351,0,0
-511,673,0,0,0,0,0,0,0,0,0,-1,713,351,0,0
-504,673,0,0,0,0,0,0,0,0,0,-1,720,351,0,0
-497,673,0,0,0,0,0,0,0,0,0,-1,727,351,0,0
-490,673,0,0,0,0,0,0,0,0,0,-1,734,351,0,0
-483,673,0,0,0,0,0,0,0,0,0,-1,741,351,0,0
-476,673,0,0,0,0,0,0,0,0,0,-1,748,351,0,0
-469,673,0,0,0,0,0,0,0,0,0,-1,755,351,0,0
-462,673,0,0,0,0,0,0,0,0,0,-1,762,351,0,0
-455,673,0,0,0,0,0,0,0,0,0,-1,769,351,0,0
-448,673,0,0,0,0,0,0,0,0,0,-1,776,351,0,0
-441,673,0,0,0,0,0,0,0,0,0,-1,783,351,0,0
-434,673,0,0,0,0,0,0,0,0,0,-1,790,351,0,0
-427,673,0,0,0,0,0,0,0,0,0,-1,797,351,0,0
-420,673,0,0,0,0,0,0,0,0,0,-1,804,351,0,0
-413,673,0,0,0,0,0,0,0,0,0,-1,811,351,0,0
-406,673,0,0,0,0,0,0,0,0,0,-1,818,351,0,0
-399,673,0,0,0,0,0,0,0,0,0,-1,825,351,0,0
-392,673,0,0,0,0,0,0,0,0,0,-1,832,351,0,0
-385,673,0,0,0,0,0,0,0,0,0,-1,839,351,0,0
-378,673,0,0,0,0,0,0,0,0,0,-1,846,351,0,0
-371,673,0,0,0,0,0,0,0,0,0,-1,853,351,0,0
-364,673,0,0,0,0,0,0,0,0,0,-1,860,351,0,0
-357,673,0,0,0,0,0,0,0,0,0,-1,867,351,0,0
-350,673,0,0,0,0,0,0,0,0,0,-1,874,351,0,0
-343,673,0,0,0,0,0,0,0,0,0,-1,881,351,0,0
-336,673,0,0,0,0,0,0,0,0,0,-1,888,351,0,0
-329,673,0,0,0,0,0,0,0,0,0,-1,895,351,0,0
-322,673,0,0,0,0,0,0,0,0,0,-1,902,351,0,0
-315,673,0,0,0,0,0,0,0,0,0,-1,909,351,0,0
-308,673,0,0,0,0,0,0,0,0,0,-1,916,351,0,0
-301,673,0,0,0,0,0,0,0,0,0,-1,923,351,0,0
-294,673,0,0,0,0,0,0,0,0,0,-1,930,351,0,0
-287,673,0,0,0,0,0,0,0,0,0,-1,937,351,0,0
-280,673,0,0,0,0,0,0,0,0,0,-1,944,351,0,0
-273,673,0,0,0,0,0,0,0,0,0,-1,951,351,0,0
-266,673,0,0,0,0,0,0,0,0,0,-1,958,351,0,0
-259,673,0,0,0,0,0,0,0,0,0,-1,965,351,0,0
-252,673,0,0,0,0,0,0,0,0,0,-1,972,351,0,0
-245,673,0,0,0,0,0,0,0,0,0,-1,979,351,0,0
-238,673,0,0,0,0,0,0,0,0,0,-1,986,351,0,0
-231,673,0,0,0,0,0,0,0,0,0,-1,993,351,0,0
-224,673,0,0,0,0,0,0,0,0,0,-1,1000,351,0,0
-217,673,0,0,0,0,0,0,0,0,0,-1,1007,351,0,0
-210,673,0,0,0,0,0,0,0,0,0,-1,1014,351,0,0
-203,673,0,0,0,0,0,0,0,0,0,-1,1021,351,0,0
-196,673,0,0,0,0,0,0,0,0,0,-1,1028,351,0,0
-189,673,0,0,0,0,0,0,0,0,0,-1,1035,351,0,0
-182,673,0,0,0,0,0,0,0,0,0,-1,1042,351,0,0
-175,673,0.0117188,-12.6462,0,0,0,0,0,0,0,-1,1049,351,0.0117447,12.6462
-168,673,0.9375,-13.6093,0,0,0,0,0,0,0,-1,1056,351,0.937509,13.6093
-161,673,2.07959,-14.7435,0,0,0,0,0,0,0,-1,1063,351,2.07955,14.7435
-154,673,3.1676,-15.8547,0.100284,-0.0978777,-0.0341264,0.105997,-0.10359,-0.165852,0.121008,0.0456725,1070,351,3.16758,15.8547
-147,673,4.38293,-16.4111,0,0,0,0,0,0,0,-1,1077,351,4.38293,16.4111
-140,673,5.70911,-16.5766,0,0,0,0,0,0,0,-1,1084,351,5.70908,16.5766
-133,673,4.42725,-11.1406,0,0,0,0,0,0,0,-1,1091,351,4.42727,11.1406
-126,673,3.34668,-12.8099,0,0,0,0,0,0,0,-1,1098,351,3.34663,12.8099
-119,673,2.58777,-11.3328,0,0,0,0,0,0,0,-1,1105,351,2.58774,11.3328
-112,673,2.60461,-11.0803,0,0,0,0,0,0,0,-1,1112,351,2.60463,11.0803
-105,673,2.75195,-11.0742,0,0,0,0,0,0,0,-1,1119,351,2.75194,11.0742
-98,673,3.54297,-12.862,0,0,0,0,0,0,0,-1,1126,351,3.54302,12.862
-91,673,3.29199,-12.3748,0,0,0,0,0,0,0,-1,1133,351,3.29202,12.3748
-84,673,3.01379,-11.8322,0,0,0,0,0,0,0,-1,1140,351,3.01379,11.8322
-77,673,1.60266,-8.87473,0,0,0,0,0,0,0,-1,1147,351,1.60268,8.87474
-70,673,1.88684,-4.7381,0,0,0,0,0,0,0,-1,1154,351,1.88682,4.73809
-63,673,1.11719,-2.95016,0,0,0,0,0,0,0,-1,1161,351,1.11724,2.95016
-56,673,-6.18872,-9.52338,0,0,0,0,0,0,0,-1,1168,351,-6.18874,9.52336
-49,673,-0.926758,-0.115448,0,0,0,0,0,0,0,-1,1175,351,-0.926732,0.115444
-42,673,-1.15015,0.289917,0,0,0,0,0,0,0,-1,1182,351,-1.15017,-0.289932
-35,673,-0.919556,-1.00711,0,0,0,0,0,0,0,-1,1189,351,-0.919514,1.00711
-28,673,1.03564,-2.58228,0,0,0,0,0,0,0,-1,1196,351,1.0356,2.58229
-21,673,2.73254,-13.1287,0,0,0,0,0,0,0,-1,1203,351,2.73255,13.1287
-14,673,2.43579,-12.9278,0.0147811,-0.00498231,-0.00746592,0.0172844,-0.0074856,-0.323516,0.0146692,0.045784,1210,351,2.43584,12.9278
-7,673,2.6145,-13.3908,0.0143504,-0.00407356,-0.00664651,0.0164979,-0.00622101,-0.312507,0.0135567,0.0414083,1217,351,2.61448,13.3908
0,673,2.8822,-13.2549,0.0139787,-0.00291859,-0.00644843,0.0161584,-0.0050983,-0.325963,0.0128144,0.0428037,1224,351,2.88225,13.2549
7,673,2.9104,-13.2071,0.013375,-0.00146294,-0.00591771,0.015446,-0.00353399,-0.336652,0.0116553,0.0419895,1231,351,2.91046,13.2071
14,673,2.97034,-13.23,0.0126795,-0.00025068,-0.00511288,0.0144569,-0.00202809,-0.334566,0.0103802,0.03593,1238,351,2.97034,13.23
21,673,2.75122,-13.391,0.012006,0.000934367,-0.00419111,0.0134136,-0.000473205,-0.324011,0.00910423,0.0243306,1245,351,2.7512,13.391
28,673,2.73071,-13.4141,0.0115884,0.00187992,-0.00309842,0.012493,0.000975358,-0.284049,0.00802332,0.0165104,1252,351,2.73066,13.4141
35,673,2.72473,-13.4333,0.0112038,0.00238146,-0.00173577,0.011533,0.00205224,-0.187443,0.00710408,0.0231398,1259,351,2.72474,13.4333
42,673,2.65002,-13.419,0.0102922,0.00315582,-0.000579836,0.010339,0.00310902,-0.0805466,0.00612525,0.0277583,1266,351,2.64999,13.419
49,673,2.61816,-13.3987,0.00939689,0.00339214,0.000262809,0.00940837,0.00338066,0.0436556,0.00550312,0.0165821,1273,351,2.61821,13.3987
56,673,2.59656,-13.3864,0.00922578,0.00307242,0.00112226,0.00942407,0.00287413,0.174884,0.00557725,0.0132505,1280,351,2.5966,13.3864
63,673,2.61646,-13.3402,0.00979135,0.00202385,0.00184577,0.0102076,0.00160756,0.221828,0.00633757,0.016449,1287,351,2.61644,13.3402
70,673,2.62354,-13.3241,0.0105196,0.000311747,0.00266684,0.0111744,-0.000342977,0.240744,0.0075665,0.0257299,1294,351,2.62351,13.3241
77,673,2.62756,-13.3097,0.00986828,-0.00139648,0.00361158,0.0109267,-0.00245493,0.285088,0.00822583,0.0341705,1301,351,2.62762,13.3097
84,673,2.59131,-13.243,0.00885233,-0.00240407,0.00370067,0.00995998,-0.00351172,0.290823,0.00806942,0.0381839,1308,351,2.5913,13.2431
91,673,2.46216,-13.3699,0.00759311,-0.00364818,0.00420973,0.00899482,-0.00504989,0.321423,0.00821465,0.0425889,1315,351,2.46219,13.3699
98,673,2.40674,-13.4716,0.00645778,-0.00456603,0.00369296,0.00758056,-0.0056888,0.295152,0.00768698,0.0429807,1322,351,2.4067,13.4716
105,673,2.31055,-13.3923,0.00485574,-0.00527066,0.00407286,0.00629056,-0.00670547,0.338711,0.00750454,0.0387965,1329,351,2.31053,13.3923
112,673,2.36646,-13.2605,0.00337391,-0.00567576,0.00423802,0.00504866,-0.00735052,0.37634,0.00719967,0.0409833,1336,351,2.36647,13.2605
119,673,3.33521,-13.362,0,0,0,0,0,0,0,-1,1343,351,3.33515,13.362
126,673,2.66125,-13.4308,-0.00114154,-0.00414763,0.00480563,0.00239061,-0.00767979,0.633834,0.00607558,0.0382084,1350,351,2.66129,13.4309
133,673,2.55872,-13.5596,-0.00409406,-0.00257784,0.00501335,0.0017344,-0.00840629,0.860439,0.0062629,0.0395434,1357,351,2.55869,13.5596
140,673,2.49951,-13.624,0,0,0,0,0,0,0,-1,1364,351,2.49953,13.624
147,673,2.59155,-13.532,0,0,0,0,0,0,0,-1,1371,351,2.5916,13.532
154,673,1.56555,-12.9361,0,0,0,0,0,0,0,-1,1378,351,1.56556,12.9361
161,673,2.37378,-12.7897,0,0,0,0,0,0,0,-1,1385,351,2.37375,12.7897
168,673,6.87061,1.83954,0,0,0,0,0,0,0,-1,1392,351,6.87063,-1.83953
175,673,6.6228,1.1459,0,0,0,0,0,0,0,-1,1399,351,6.62276,-1.14591
182,673,6.37244,0.796112,0,0,0,0,0,0,0,-1,1406,351,6.3724,-0.796102
189,673,6.12097,0.265472,0,0,0,0,0,0,0,-1,1413,351,6.121,-0.265482
196,673,6.02173,3.12717,0,0,0,0,0,0,0,-1,1420,351,6.02176,-3.12717
203,673,5.04456,1.6351,0,0,0,0,0,0,0,-1,1427,351,5.04455,-1.63509
210,673,4.79224,0.447479,0,0,0,0,0,0,0,-1,1434,351,4.79229,-0.447469
217,673,2.01648,0.972687,0,0,0,0,0,0,0,-1,1441,351,2.01644,-0.972691
224,673,2.3689,-1.80539,0,0,0,0,0,0,0,-1,1448,351,2.36896,1.80539
231,673,2.65857,-2.18497,0,0,0,0,0,0,0,-1,1455,351,2.65852,2.18496
238,673,3.24146,-1.01593,0,0,0,0,0,0,0,-1,1462,351,3.24142,1.01593
245,673,3.5376,-0.190399,0,0,0,0,0,0,0,-1,1469,351,3.53759,0.1904
252,673,3.80518,0.55603,0,0,0,0,0,0,0,-1,1476,351,3.80519,-0.556022
259,673,3.88562,1.29617,0,0,0,0,0,0,0,-1,1483,351,3.88562,-1.29618
266,673,4.22424,2.04834,0,0,0,0,0,0,0,-1,1490,351,4.22429,-2.04834
273,673,6.07886,0.385895,0,0,0,0,0,0,0,-1,1497,351,6.0789,-0.385906
280,673,6.97534,-0.0820007,0,0,0,0,0,0,0,-1,1504,351,6.97536,0.0820122
287,673,7.66968,-0.348541,0,0,0,0,0,0,0,-1,1511,351,7.66969,0.348534
294,673,8.20996,0.28537,0,0,0,0,0,0,0,-1,1518,351,8.20993,-0.28536
301,673,0,0,0,0,0,0,0,0,0,-1,1525,351,0,0
308,673,0,0,0,0,0,0,0,0,0,-1,1532,351,0,0
315,673,0,0,0,0,0,0,0,0,0,-1,1539,351,0,0
322,673,0,0,0,0,0,0,0,0,0,-1,1546,351,0,0
329,673,0,0,0,0,0,0,0,0,0,-1,1553,351,0,0
336,673,0,0,0,0,0,0,0,0,0,-1,1560,351,0,0
343,673,0,0,0,0,0,0,0,0,0,-1,1567,351,0,0
350,673,0,0,0,0,0,0,0,0,0,-1,1574,351,0,0
357,673,0,0,0,0,0,0,0,0,0,-1,1581,351,0,0
364,673,0,0,0,0,0,0,0,0,0,-1,1588,351,0,0
371,673,0,0,0,0,0,0,0,0,0,-1,1595,351,0,0
378,673,0,0,0,0,0,0,0,0,0,-1,1602,351,0,0
385,673,0,0,0,0,0,0,0,0,0,-1,1609,351,0,0
392,673,0,0,0,0,0,0,0,0,0,-1,1616,351,0,0
399,673,0,0,0,0,0,0,0,0,0,-1,1623,351,0,0
406,673,0,0,0,0,0,0,0,0,0,-1,1630,351,0,0
413,673,0,0,0,0,0,0,0,0,0,-1,1637,351,0,0
420,673,0,0,0,0,0,0,0,0,0,-1,1644,351,0,0
427,673,0,0,0,0,0,0,0,0,0,-1,1651,351,0,0
434,673,0,0,0,0,0,0,0,0,0,-1,1658,351,0,0
441,673,0,0,0,0,0,0,0,0,0,-1,1665,351,0,0
448,673,0,0,0,0,0,0,0,0,0,-1,1672,351,0,0
455,673,0,0,0,0,0,0,0,0,0,-1,1679,351,0,0
462,673,0,0,0,0,0,0,0,0,0,-1,1686,351,0,0
469,673,0,0,0,0,0,0,0,0,0,-1,1693,351,0,0
476,673,0,0,0,0,0,0,0,0,0,-1,1700,351,0,0
483,673,0,0,0,0,0,0,0,0,0,-1,1707,351,0,0
490,673,0,0,0,0,0,0,0,0,0,-1,1714,351,0,0
497,673,0,0,0,0,0,0,0,0,0,-1,1721,351,0,0
504,673,0,0,0,0,0,0,0,0,0,-1,1728,351,0,0
511,673,0,0,0,0,0,0,0,0,0,-1,1735,351,0,0
518,673,0,0,0,0,0,0,0,0,0,-1,1742,351,0,0
525,673,0,0,0,0,0,0,0,0,0,-1,1749,351,0,0
532,673,0,0,0,0,0,0,0,0,0,-1,1756,351,0,0
539,673,0,0,0,0,0,0,0,0,0,-1,1763,351,0,0
546,673,0,0,0,0,0,0,0,0,0,-1,1770,351,0,0
553,673,0,0,0,0,0,0,0,0,0,-1,1777,351,0,0
560,673,0,0,0,0,0,0,0,0,0,-1,1784,351,0,0
567,673,0,0,0,0,0,0,0,0,0,-1,1791,351,0,0
574,673,0,0,0,0,0,0,0,0,0,-1,1798,351,0,0
581,673,0,0,0,0,0,0,0,0,0,-1,1805,351,0,0
588,673,0,0,0,0,0,0,0,0,0,-1,1812,351,0,0
595,673,0,0,0,0,0,0,0,0,0,-1,1819,351,0,0
602,673,0,0,0,0,0,0,0,0,0,-1,1826,351,0,0
609,673,0,0,0,0,0,0,0,0,0,-1,1833,351,0,0
616,673,0,0,0,0,0,0,0,0,0,-1,1840,351,0,0
623,673,0,0,0,0,0,0,0,0,0,-1,1847,351,0,0
630,673,0,0,0,0,0,0,0,0,0,-1,1854,351,0,0
637,673,0,0,0,0,0,0,0,0,0,-1,1861,351,0,0
644,673,0,0,0,0,0,0,0,0,0,-1,1868,351,0,0
651,673,0,0,0,0,0,0,0,0,0,-1,1875,351,0,0
658,673,0,0,0,0,0,0,0,0,0,-1,1882,351,0,0
665,673,0,0,0,0,0,0,0,0,0,-1,1889,351,0,0
672,673,0,0,0,0,0,0,0,0,0,-1,1896,351,0,0
679,673,0,0,0,0,0,0,0,0,0,-1,1903,351,0,0
686,673,0,0,0,0,0,0,0,0,0,-1,1910,351,0,0
693,673,0,0,0,0,0,0,0,0,0,-1,1917,351,0,0
700,673,0,0,0,0,0,0,0,0,0,-1,1924,351,0,0
707,673,0,0,0,0,0,0,0,0,0,-1,1931,351,0,0
714,673,0,0,0,0,0,0,0,0,0,-1,1938,351,0,0
721,673,0,0,0,0,0,0,0,0,0,-1,1945,351,0,0
728,673,0,0,0,0,0,0,0,0,0,-1,1952,351,0,0
735,673,0,0,0,0,0,0,0,0,0,-1,1959,351,0,0
742,673,0,0,0,0,0,0,0,0,0,-1,1966,351,0,0
749,673,0,0,0,0,0,0,0,0,0,-1,1973,351,0,0
756,673,0,0,0,0,0,0,0,0,0,-1,1980,351,0,0
763,673,0,0,0,0,0,0,0,0,0,-1,1987,351,0,0
770,673,0,0,0,0,0,0,0,0,0,-1,1994,351,0,0
777,673,0,0,0,0,0,0,0,0,0,-1,2001,351,0,0
784,673,0,0,0,0,0,0,0,0,0,-1,2008,351,0,0
791,673,0,0,0,0,0,0,0,0,0,-1,2015,351,0,0
798,673,0,0,0,0,0,0,0,0,0,-1,2022,351,0,0
805,673,0,0,0,0,0,0,0,0,0,-1,2029,351,0,0
812,673,0,0,0,0,0,0,0,0,0,-1,2036,351,0,0
-700,666,0,0,0,0,0,0,0,0,0,-1,524,358,0,0
-693,666,0,0,0,0,0,0,0,0,0,-1,531,358,0,0
-686,666,0,0,0,0,0,0,0,0,0,-1,538,358,0,0
-679,666,0,0,0,0,0,0,0,0,0,-1,545,358,0,0
-672,666,0,0,0,0,0,0,0,0,0,-1,552,358,0,0
-665,666,0,0,0,0,0,0,0,0,0,-1,559,358,0,0
-658,666,0,0,0,0,0,0,0,0,0,-1,566,358,0,0
-651,666,0,0,0,0,0,0,0,0,0,-1,573,358,0,0
-644,666,0,0,0,0,0,0,0,0,0,-1,580,358,0,0
-637,666,0,0,0,0,0,0,0,0,0,-1,587,358,0,0
-630,666,0,0,0,0,0,0,0,0,0,-1,594,358,0,0
-623,666,0,0,0,0,0,0,0,0,0,-1,601,358,0,0
-616,666,0,0,0,0,0,0,0,0,0,-1,608,358,0,0
-609,666,0,0,0,0,0,0,0,0,0,-1,615,358,0,0
-602,666,0,0,0,0,0,0,0,0,0,-1,622,358,0,0
-595,666,0,0,0,0,0,0,0,0,0,-1,629,358,0,0
-588,666,0,0,0,0,0,0,0,0,0,-1,636,358,0,0
-581,666,0,0,0,0,0,0,0,0,0,-1,643,358,0,0
-574,666,0,0,0,0,0,0,0,0,0,-1,650,358,0,0
-567,666,0,0,0,0,0,0,0,0,0,-1,657,358,0,0
-560,666,0,0,0,0,0,0,0,0,0,-1,664,358,0,0
-553,666,0,0,0,0,0,0,0,0,0,-1,671,358,0,0
-546,666,0,0,0,0,0,0,0,0,0,-1,678,358,0,0
-539,666,0,0,0,0,0,0,0,0,0,-1,685,358,0,0
-532,666,0,0,0,0,0,0,0,0,0,-1,692,358,0,0
-525,666,0,0,0,0,0,0,0,0,0,-1,699,358,0,0
-518,666,0,0,0,0,0,0,0,0,0,-1,706,358,0,0
-511,666,0,0,0,0,0,0,0,0,0,-1,713,358,0,0
-504,666,0,0,0,0,0,0,0,0,0,-1,720,358,0,0
-497,666,0,0,0,0,0,0,0,0,0,-1,727,358,0,0
-490,666,0,0,0,0,0,0,0,0,0,-1,734,358,0,0
-483,666,0,0,0,0,0,0,0,0,0,-1,741,358,0,0
-476,666,0,0,0,0,0,0,0,0,0,-1,748,358,0,0
-469,666,0,0,0,0,0,0,0,0,0,-1,755,358,0,0
-462,666,0,0,0,0,0,0,0,0,0,-1,762,358,0,0
-455,666,0,0,0,0,0,0,0,0,0,-1,769,358,0,0
-448,666,0,0,0,0,0,0,0,0,0,-1,776,358,0,0
-441,666,0,0,0,0,0,0,0,0,0,-1,783,358,0,0
-434,666,0,0,0,0,0,0,0,0,0,-1,790,358,0,0
-427,666,0,0,0,0,0,0,0,0,0,-1,797,358,0,0
-420,666,0,0,0,0,0,0,0,0,0,-1,804,358,0,0
-413,666,0,0,0,0,0,0,0,0,0,-1,811,358,0,0
-406,666,0,0,0,0,0,0,0,0,0,-1,818,358,0,0
-399,666,0,0,0,0,0,0,0,0,0,-1,825,358,0,0
-392,666,0,0,0,0,0,0,0,0,0,-1,832,358,0,0
-385,666,0,0,0,0,0,0,0,0,0,-1,839,358,0,0
-378,666,0,0,0,0,0,0,0,0,0,-1,846,358,0,0
-371,666,0,0,0,0,0,0,0,0,0,-1,853,358,0,0
-364,666,0,0,0,0,0,0,0,0,0,-1,860,358,0,0
-357,666,0,0,0,0,0,0,0,0,0,-1,867,358,0,0
-350,666,0,0,0,0,0,0,0,0,0,-1,874,358,0,0
-343,666,0,0,0,0,0,0,0,0,0,-1,881,358,0,0
-336,666,0,0,0,0,0,0,0,0,0,-1,888,358,0,0
-329,666,0,0,0,0,0,0,0,0,0,-1,895,358,0,0
-322,666,0,0,0,0,0,0,0,0,0,-1,902,358,0,0
-315,666,0,0,0,0,0,0,0,0,0,-1,909,358,0,0
-308,666,0,0,0,0,0,0,0,0,0,-1,916,358,0,0
-301,666,0,0,0,0,0,0,0,0,0,-1,923,358,0,0
-294,666,0,0,0,0,0,0,0,0,0,-1,930,358,0,0
-287,666,0,0,0,0,0,0,0,0,0,-1,937,358,0,0
-280,666,0,0,0,0,0,0,0,0,0,-1,944,358,0,0
-273,666,0,0,0,0,0,0,0,0,0,-1,951,358,0,0
-266,666,0,0,0,0,0,0,0,0,0,-1,958,358,0,0
-259,666,0,0,0,0,0,0,0,0,0,-1,965,358,0,0
-252,666,0,0,0,0,0,0,0,0,0,-1,972,358,0,0
-245,666,0,0,0,0,0,0,0,0,0,-1,979,358,0,0
-238,666,0,0,0,0,0,0,0,0,0,-1,986,358,0,0
-231,666,0,0,0,0,0,0,0,0,0,-1,993,358,0,0
-224,666,0,0,0,0,0,0,0,0,0,-1,1000,358,0,0
-217,666,0,0,0,0,0,0,0,0,0,-1,1007,358,0,0
-210,666,0,0,0,0,0,0,0,0,0,-1,1014,358,0,0
-203,666,0,0,0,0,0,0,0,0,0,-1,1021,358,0,0
-196,666,1.68958,-9.41406,0,0,0,0,0,0,0,-1,1028,358,1.68961,9.41406
-189,666,5.26538,-13.977,0,0,0,0,0,0,0,-1,1035,358,5.26541,13.977
-182,666,6.17688,-12.7998,0,0,0,0,0,0,0,-1,1042,358,6.17688,12.7998
-175,666,1.07922,-14.7207,0,0,0,0,0,0,0,-1,1049,358,1.07921,14.7207
-168,666,1.52307,-14.8425,0,0,0,0,0,0,0,-1,1056,358,1.52308,14.8425
-161,666,2.2666,-15.1104,0,0,0,0,0,0,0,-1,1063,358,2.26666,15.1104
-154,666,3.35693,-15.1993,0,0,0,0,0,0,0,-1,1070,358,3.35698,15.1993
-147,666,3.96851,-15.5034,0,0,0,0,0,0,0,-1,1077,358,3.96852,15.5035
-140,666,4.33569,-14.0707,0,0,0,0,0,0,0,-1,1084,358,4.33569,14.0707
-133,666,3.95398,-11.0686,0,0,0,0,0,0,0,-1,1091,358,3.95392,11.0686
-126,666,3.12463,-11.4328,0,0,0,0,0,0,0,-1,1098,358,3.12468,11.4328
-119,666,2.51831,-11.4109,0,0,0,0,0,0,0,-1,1105,358,2.51825,11.4109
-112,666,2.67371,-11.446,0.0152304,0.0279936,-0.012127,0.0353157,0.00790836,-1.0276,0.0214004,0.0417834,1112,358,2.67372,11.446
-105,666,2.80615,-11.5275,0.0111761,0.0311509,-0.0113165,0.0362569,0.00607006,-1.14694,0.0224235,0.0444851,1119,358,2.80614,11.5275
-98,666,2.95117,-11.4716,0,0,0,0,0,0,0,-1,1126,358,2.95118,11.4716
-91,666,3.02173,-12.4632,0,0,0,0,0,0,0,-1,1133,358,3.02172,12.4632
-84,666,2.94739,-12.1922,0,0,0,0,0,0,0,-1,1140,358,2.94741,12.1922
-77,666,0.964722,-10.3601,0,0,0,0,0,0,0,-1,1147,358,0.964669,10.3601
-70,666,2.05957,-6.51086,0,0,0,0,0,0,0,-1,1154,358,2.05959,6.51088
-63,666,1.47485,-3.79593,0,0,0,0,0,0,0,-1,1161,358,1.47481,3.79593
-56,666,0.424683,-2.04132,0,0,0,0,0,0,0,-1,1168,358,0.424665,2.04132
-49,666,0.754395,-2.23169,0,0,0,0,0,0,0,-1,1175,358,0.754383,2.23169
-42,666,1.34473,-3.53897,0,0,0,0,0,0,0,-1,1182,358,1.34476,3.53896
-35,666,2.5061,-13.3902,0,0,0,0,0,0,0,-1,1189,358,2.50611,13.3902
-28,666,2.75293,-13.2888,0,0,0,0,0,0,0,-1,1196,358,2.75288,13.2888
-21,666,2.73267,-13.2051,0.0100936,-0.00248333,-0.00524168,0.0119917,-0.00438144,-0.34743,0.00978749,0.0338353,1203,358,2.73263,13.2051
-14,666,2.7395,-13.2658,0.0102089,-0.00183882,-0.00556931,0.0123889,-0.00401888,-0.373105,0.00987538,0.0264435,1210,358,2.73954,13.2658
-7,666,2.75073,-13.2972,0.00987693,-0.00134911,-0.00493644,0.0117388,-0.00321101,-0.360676,0.00908734,0.0182482,1217,358,2.75071,13.2972
0,666,2.77515,-13.3063,0.00961384,-0.00066677,-0.00474948,0.0114721,-0.00252506,-0.372951,0.00861403,0.0120661,1224,358,2.77512,13.3063
7,666,2.74072,-13.3367,0.00911668,0.000219655,-0.00431581,0.0108662,-0.00152985,-0.385129,0.00780422,0.014969,1231,358,2.74068,13.3367
14,666,2.71143,-13.3821,0.00854497,0.000922523,-0.00370592,0.0100497,-0.000582194,-0.385695,0.00690205,0.0147731,1238,358,2.71146,13.3821
21,666,2.68677,-13.4087,0.00801242,0.00159771,-0.0030096,0.00920334,0.000406793,-0.3768,0.00600456,0.0114501,1245,358,2.68682,13.4087
28,666,2.67358,-13.4189,0.00768743,0.00208993,-0.00217494,0.00843316,0.0013442,-0.330315,0.00523192,0.0114904,1252,358,2.67361,13.4189
35,666,2.66541,-13.4109,0.00742113,0.00224761,-0.00109954,0.00764512,0.00202362,-0.200962,0.00457394,0.0108531,1259,358,2.66537,13.4108
42,666,2.63757,-13.4178,0.00675848,0.00261416,-0.000179453,0.00676623,0.0026064,-0.0431933,0.00394066,0.012223,1266,358,2.63763,13.4178
49,666,2.61206,-13.4165,0.00614507,0.00266244,0.000496794,0.00621455,0.00259295,0.138957,0.00360432,0.0100185,1273,358,2.61202,13.4165
56,666,2.59045,-13.4121,0.00608733,0.0022922,0.0011671,0.00641751,0.00196202,0.275707,0.00379723,0.0112753,1280,358,2.59041,13.4121
63,666,2.57092,-13.4058,0.00660519,0.00134823,0.00173896,0.00712836,0.000825062,0.292238,0.00450249,0.01294,1287,358,2.57095,13.4058
70,666,2.55176,-13.3752,0.00725827,-5.51805e-05,0.00239804,0.00797444,-0.00077135,0.290216,0.00559118,0.0132213,1294,358,2.55171,13.3752
77,666,2.55945,-13.3661,0.00685844,-0.00128861,0.00319371,0.00796115,-0.00239132,0.33246,0.00625872,0.0159203,1301,358,2.55946,13.3661
84,666,2.51379,-13.3669,0.00608645,-0.0020495,0.00325317,0.00722727,-0.00319032,0.33728,0.00616329,0.0216148,1308,358,2.51377,13.367
91,666,2.51599,-13.343,0.00521548,-0.00298808,0.00360064,0.00657165,-0.00434425,0.360214,0.00634588,0.0212536,1315,358,2.51603,13.343
98,666,2.47144,-13.301,0.00437009,-0.00364072,0.00322306,0.00550584,-0.00477646,0.338794,0.00594146,0.0180144,1322,358,2.47145,13.301
105,666,2.41541,-13.229,0.0031251,-0.00411573,0.00343242,0.00449356,-0.0054842,0.379374,0.00577012,0.0184189,1329,358,2.4154,13.229
112,666,2.44409,-13.2107,0.00197179,-0.00436771,0.00349182,0.00351798,-0.0059139,0.416854,0.00550376,0.0232529,1336,358,2.44413,13.2107
119,666,2.4585,-13.1559,0.000467885,-0.00399203,0.00361576,0.00248604,-0.00601018,0.509083,0.005044,0.0252607,1343,358,2.45846,13.1559
126,666,2.44629,-13.0584,0,0,0,0,0,0,0,-1,1350,358,2.44634,13.0584
133,666,2.44214,-13.0324,0,0,0,0,0,0,0,-1,1357,358,2.44211,13.0324
140,666,2.3761,-13.0569,0,0,0,0,0,0,0,-1,1364,358,2.37605,13.0569
147,666,2.34338,-12.9452,-0.00660625,2.57861e-05,0.00404492,0.00194019,-0.00852065,1.12875,0.00642556,0.018568,1371,358,2.34344,12.9452
154,666,2.35535,-12.854,-0.00771397,0.00124446,0.00412842,0.00285682,-0.00932633,1.19846,0.0073571,0.01843,1378,358,2.35534,12.854
161,666,2.3811,-12.7963,-0.00896541,0.0015799,0.00415476,0.00302014,-0.0104056,1.23711,0.00813293,0.0245179,1385,358,2.38105,12.7963
168,666,2.39758,-12.7835,0,0,0,0,0,0,0,-1,1392,358,2.39762,12.7835
175,666,2.54358,-12.9043,0,0,0,0,0,0,0,-1,1399,358,2.54355,12.9043
182,666,2.60876,-5.17068,0,0,0,0,0,0,0,-1,1406,358,2.6088,5.17068
189,666,2.46973,-5.49979,0,0,0,0,0,0,0,-1,1413,358,2.46975,5.49979
196,666,2.32458,-5.23651,0,0,0,0,0,0,0,-1,1420,358,2.32461,5.23653
203,666,2.28064,-3.88004,0,0,0,0,0,0,0,-1,1427,358,2.28059,3.88003
210,666,3.02576,-5.83548,0,0,0,0,0,0,0,-1,1434,358,3.02581,5.83547
217,666,2.30444,-5.36011,0,0,0,0,0,0,0,-1,1441,358,2.30447,5.3601
224,666,1.82324,-6.03101,0,0,0,0,0,0,0,-1,1448,358,1.82322,6.031
231,666,2.29797,-10.1093,0,0,0,0,0,0,0,-1,1455,358,2.29801,10.1093
238,666,2.52429,-6.10568,0,0,0,0,0,0,0,-1,1462,358,2.52423,6.10567
245,666,4.53345,-1.38205,0,0,0,0,0,0,0,-1,1469,358,4.53349,1.38204
252,666,4.77405,-0.246979,0,0,0,0,0,0,0,-1,1476,358,4.77405,0.246993
259,666,4.83655,1.14087,0,0,0,0,0,0,0,-1,1483,358,4.83652,-1.14087
266,666,6.14148,0.749512,0,0,0,0,0,0,0,-1,1490,358,6.14144,-0.749519
273,666,2.61304,-1.53772,0,0,0,0,0,0,0,-1,1497,358,2.613,1.53773
280,666,8.70898,-0.836975,0,0,0,0,0,0,0,-1,1504,358,8.70894,0.836988
287,666,2.27039,-4.09058,0,0,0,0,0,0,0,-1,1511,358,2.27042,4.09059
294,666,9.87,-1.10745,0,0,0,0,0,0,0,-1,1518,358,9.87,1.10745
301,666,3.61511,-3.23752,0,0,0,0,0,0,0,-1,1525,358,3.61511,3.23753
308,666,1.08496,-1.87576,0,0,0,0,0,0,0,-1,1532,358,1.08491,1.87575
315,666,1.76294,-0.284027,0,0,0,0,0,0,0,-1,1539,358,1.76291,0.284016
322,666,0,0,0,0,0,0,0,0,0,-1,1546,358,0,0
329,666,0,0,0,0,0,0,0,0,0,-1,1553,358,0,0
336,666,0,0,0,0,0,0,0,0,0,-1,1560,358,0,0
343,666,0,0,0,0,0,0,0,0,0,-1,1567,358,0,0
350,666,0,0,0,0,0,0,0,0,0,-1,1574,358,0,0
357,666,0,0,0,0,0,0,0,0,0,-1,1581,358,0,0
364,666,0,0,0,0,0,0,0,0,0,-1,1588,358,0,0
371,666,0,0,0,0,0,0,0,0,0,-1,1595,358,0,0
378,666,0,0,0,0,0,0,0,0,0,-1,1602,358,0,0
385,666,0,0,0,0,0,0,0,0,0,-1,1609,358,0,0
392,666,0,0,0,0,0,0,0,0,0,-1,1616,358,0,0
399,666,0,0,0,0,0,0,0,0,0,-1,1623,358,0,0
406,666,0,0,0,0,0,0,0,0,0,-1,1630,358,0,0
413,666,0,0,0,0,0,0,0,0,0,-1,1637,358,0,0
420,666,0,0,0,0,0,0,0,0,0,-1,1644,358,0,0
427,666,0,0,0,0,0,0,0,0,0,-1,1651,358,0,0
434,666,0,0,0,0,0,0,0,0,0,-1,1658,358,0,0
441,666,0,0,0,0,0,0,0,0,0,-1,1665,358,0,0
448,666,0,0,0,0,0,0,0,0,0,-1,1672,358,0,0
455,666,0,0,0,0,0,0,0,0,0,-1,1679,358,0,0
462,666,0,0,0,0,0,0,0,0,0,-1,1686,358,0,0
469,666,0,0,0,0,0,0,0,0,0,-1,1693,358,0,0
476,666,0,0,0,0,0,0,0,0,0,-1,1700,358,0,0
483,666,0,0,0,0,0,0,0,0,0,-1,1707,358,0,0
490,666,0,0,0,0,0,0,0,0,0,-1,1714,358,0,0
497,666,0,0,0,0,0,0,0,0,0,-1,1721,358,0,0
504,666,0,0,0,0,0,0,0,0,0,-1,1728,358,0,0
511,666,0,0,0,0,0,0,0,0,0,-1,1735,358,0,0
518,666,0,0,0,0,0,0,0,0,0,-1,1742,358,0,0
525,666,0,0,0,0,0,0,0,0,0,-1,1749,358,0,0
532,666,0,0,0,0,0,0,0,0,0,-1,1756,358,0,0
539,666,0,0,0,0,0,0,0,0,0,-1,1763,358,0,0
546,666,0,0,0,0,0,0,0,0,0,-1,1770,358,0,0
553,666,0,0,0,0,0,0,0,0,0,-1,1777,358,0,0
560,666,0,0,0,0,0,0,0,0,0,-1,1784,358,0,0
567,666,0,0,0,0,0,0,0,0,0,-1,1791,358,0,0
574,666,0,0,0,0,0,0,0,0,0,-1,1798,358,0,0
581,666,0,0,0,0,0,0,0,0,0,-1,1805,358,0,0
588,666,0,0,0,0,0,0,0,0,0,-1,1812,358,0,0
595,666,0,0,0,0,0,0,0,0,0,-1,1819,358,0,0
602,666,0,0,0,0,0,0,0,0,0,-1,1826,358,0,0
609,666,0,0,0,0,0,0,0,0,0,-1,1833,358,0,0
616,666,0,0,0,0,0,0,0,0,0,-1,1840,358,0,0
623,666,0,0,0,0,0,0,0,0,0,-1,1847,358,0,0
630,666,0,0,0,0,0,0,0,0,0,-1,1854,358,0,0
637,666,0,0,0,0,0,0,0,0,0,-1,1861,358,0,0
644,666,0,0,0,0,0,0,0,0,0,-1,1868,358,0,0
651,666,0,0,0,0,0,0,0,0,0,-1,1875,358,0,0
658,666,0,0,0,0,0,0,0,0,0,-1,1882,358,0,0
665,666,0,0,0,0,0,0,0,0,0,-1,1889,358,0,0
672,666,0,0,0,0,0,0,0,0,0,-1,1896,358,0,0
679,666,0,0,0,0,0,0,0,0,0,-1,1903,358,0,0
686,666,0,0,0,0,0,0,0,0,0,-1,1910,358,0,0
693,666,0,0,0,0,0,0,0,0,0,-1,1917,358,0,0
700,666,0,0,0,0,0,0,0,0,0,-1,1924,358,0,0
707,666,0,0,0,0,0,0,0,0,0,-1,1931,358,0,0
714,666,0,0,0,0,0,0,0,0,0,-1,1938,358,0,0
721,666,0,0,0,0,0,0,0,0,0,-1,1945,358,0,0
728,666,0,0,0,0,0,0,0,0,0,-1,1952,358,0,0
735,666,0,0,0,0,0,0,0,0,0,-1,1959,358,0,0
742,666,0,0,0,0,0,0,0,0,0,-1,1966,358,0,0
749,666,0,0,0,0,0,0,0,0,0,-1,1973,358,0,0
756,666,0,0,0,0,0,0,0,0,0,-1,1980,358,0,0
763,666,0,0,0,0,0,0,0,0,0,-1,1987,358,0,0
770,666,0,0,0,0,0,0,0,0,0,-1,1994,358,0,0
777,666,0,0,0,0,0,0,0,0,0,-1,2001,358,0,0
784,666,0,0,0,0,0,0,0,0,0,-1,2008,358,0,0
791,666,0,0,0,0,0,0,0,0,0,-1,2015,358,0,0
798,666,0,0,0,0,0,0,0,0,0,-1,2022,358,0,0
805,666,0,0,0,0,0,0,0,0,0,-1,2029,358,0,0
812,666,0,0,0,0,0,0,0,0,0,-1,2036,358,0,0
-700,659,0,0,0,0,0,0,0,0,0,-1,524,365,0,0
-693,659,0,0,0,0,0,0,0,0,0,-1,531,365,0,0
-686,659,0,0,0,0,0,0,0,0,0,-1,538,365,0,0
-679,659,0,0,0,0,0,0,0,0,0,-1,545,365,0,0
-672,659,0,0,0,0,0,0,0,0,0,-1,552,365,0,0
-665,659,0,0,0,0,0,0,0,0,0,-1,559,365,0,0
-658,659,0,0,0,0,0,0,0,0,0,-1,566,365,0,0
-651,659,0,0,0,0,0,0,0,0,0,-1,573,365,0,0
-644,659,0,0,0,0,0,0,0,0,0,-1,580,365,0,0
-637,659,0,0,0,0,0,0,0,0,0,-1,587,365,0,0
-630,659,0,0,0,0,0,0,0,0,0,-1,594,365,0,0
-623,659,0,0,0,0,0,0,0,0,0,-1,601,365,0,0
-616,659,0,0,0,0,0,0,0,0,0,-1,608,365,0,0
-609,659,0,0,0,0,0,0,0,0,0,-1,615,365,0,0
-602,659,0,0,0,0,0,0,0,0,0,-1,622,365,0,0
-595,659,0,0,0,0,0,0,0,0,0,-1,629,365,0,0
-588,659,0,0,0,0,0,0,0,0,0,-1,636,365,0,0
-581,659,0,0,0,0,0,0,0,0,0,-1,643,365,0,0
-574,659,0,0,0,0,0,0,0,0,0,-1,650,365,0,0
-567,659,0,0,0,0,0,0,0,0,0,-1,657,365,0,0
-560,659,0,0,0,0,0,0,0,0,0,-1,664,365,0,0
-553,659,0,0,0,0,0,0,0,0,0,-1,671,365,0,0
-546,659,0,0,0,0,0,0,0,0,0,-1,678,365,0,0
-539,659,0,0,0,0,0,0,0,0,0,-1,685,365,0,0
-532,659,0,0,0,0,0,0,0,0,0,-1,692,365,0,0
-525,659,0,0,0,0,0,0,0,0,0,-1,699,365,0,0
-518,659,0,0,0,0,0,0,0,0,0,-1,706,365,0,0
-511,659,0,0,0,0,0,0,0,0,0,-1,713,365,0,0
-504,659,0,0,0,0,0,0,0,0,0,-1,720,365,0,0
-497,659,0,0,0,0,0,0,0,0,0,-1,727,365,0,0
-490,659,0,0,0,0,0,0,0,0,0,-1,734,365,0,0
-483,659,0,0,0,0,0,0,0,0,0,-1,741,365,0,0
-476,659,0,0,0,0,0,0,0,0,0,-1,748,365,0,0
-469,659,0,0,0,0,0,0,0,0,0,-1,755,365,0,0
-462,659,0,0,0,0,0,0,0,0,0,-1,762,365,0,0
-455,659,0,0,0,0,0,0,0,0,0,-1,769,365,0,0
-448,659,0,0,0,0,0,0,0,0,0,-1,776,365,0,0
-441,659,0,0,0,0,0,0,0,0,0,-1,783,365,0,0
-434,659,0,0,0,0,0,0,0,0,0,-1,790,365,0,0
-427,659,0,0,0,0,0,0,0,0,0,-1,797,365,0,0
-420,659,0,0,0,0,0,0,0,0,0,-1,804,365,0,0
-413,659,0,0,0,0,0,0,0,0,0,-1,811,365,0,0
-406,659,0,0,0,0,0,0,0,0,0,-1,818,365,0,0
-399,659,0,0,0,0,0,0,0,0,0,-1,825,365,0,0
-392,659,0,0,0,0,0,0,0,0,0,-1,832,365,0,0
-385,659,0,0,0,0,0,0,0,0,0,-1,839,365,0,0
-378,659,0,0,0,0,0,0,0,0,0,-1,846,365,0,0
-371,659,0,0,0,0,0,0,0,0,0,-1,853,365,0,0
-364,659,0,0,0,0,0,0,0,0,0,-1,860,365,0,0
-357,659,0,0,0,0,0,0,0,0,0,-1,867,365,0,0
-350,659,0,0,0,0,0,0,0,0,0,-1,874,365,0,0
-343,659,0,0,0,0,0,0,0,0,0,-1,881,365,0,0
-336,659,0,0,0,0,0,0,0,0,0,-1,888,365,0,0
-329,659,0,0,0,0,0,0,0,0,0,-1,895,365,0,0
-322,659,0,0,0,0,0,0,0,0,0,-1,902,365,0,0
-315,659,0,0,0,0,0,0,0,0,0,-1,909,365,0,0
-308,659,0,0,0,0,0,0,0,0,0,-1,916,365,0,0
-301,659,0,0,0,0,0,0,0,0,0,-1,923,365,0,0
-294,659,0,0,0,0,0,0,0,0,0,-1,930,365,0,0
-287,659,0,0,0,0,0,0,0,0,0,-1,937,365,0,0
-280,659,0,0,0,0,0,0,0,0,0,-1,944,365,0,0
-273,659,0,0,0,0,0,0,0,0,0,-1,951,365,0,0
-266,659,0,0,0,0,0,0,0,0,0,-1,958,365,0,0
-259,659,0,0,0,0,0,0,0,0,0,-1,965,365,0,0
-252,659,0,0,0,0,0,0,0,0,0,-1,972,365,0,0
-245,659,0,0,0,0,0,0,0,0,0,-1,979,365,0,0
-238,659,0,0,0,0,0,0,0,0,0,-1,986,365,0,0
-231,659,0,0,0,0,0,0,0,0,0,-1,993,365,0,0
-224,659,0,0,0,0,0,0,0,0,0,-1,1000,365,0,0
-217,659,1.57928,-8.48126,0,0,0,0,0,0,0,-1,1007,365,1.57926,8.48126
-210,659,2.00287,-9.36227,0,0,0,0,0,0,0,-1,1014,365,2.00284,9.36228
-203,659,2.23798,-10.0347,0,0,0,0,0,0,0,-1,1021,365,2.23795,10.0347
-196,659,3.26367,-12.3659,0,0,0,0,0,0,0,-1,1028,365,3.26361,12.3659
-189,659,4.08716,-12.5415,0,0,0,0,0,0,0,-1,1035,365,4.08715,12.5415
-182,659,1.23779,-13.8358,0,0,0,0,0,0,0,-1,1042,365,1.23778,13.8358
-175,659,1.42932,-13.6959,0.0710612,-0.108211,-0.0245592,0.0743648,-0.111514,-0.133713,0.108029,0.0442634,1049,365,1.4293,13.6959
-168,659,1.83704,-13.8517,0.0655011,-0.0960888,-0.0220893,0.0684663,-0.099054,-0.133439,0.0972538,0.0437371,1056,365,1.83705,13.8517
-161,659,2.33862,-14.0818,0,0,0,0,0,0,0,-1,1063,365,2.33862,14.0818
-154,659,3.05579,-14.1869,0.0504301,-0.0594736,-0.0180718,0.0533254,-0.062369,-0.158863,0.0668642,0.0495157,1070,365,3.05577,14.1869
-147,659,3.40405,-14.2679,0,0,0,0,0,0,0,-1,1077,365,3.40402,14.2679
-140,659,3.60938,-13.819,0,0,0,0,0,0,0,-1,1084,365,3.60939,13.819
-133,659,3.62842,-11.3606,0,0,0,0,0,0,0,-1,1091,365,3.62844,11.3606
-126,659,2.97656,-11.8371,0,0,0,0,0,0,0,-1,1098,365,2.9766,11.8371
-119,659,2.73987,-11.9745,0,0,0,0,0,0,0,-1,1105,365,2.73983,11.9745
-112,659,2.73608,-11.8184,0.00861297,0.0213395,-0.00847333,0.0255729,0.00437961,-1.10746,0.0157925,0.0379783,1112,365,2.73611,11.8184
-105,659,2.88977,-12.136,0.00600916,0.0233725,-0.00801028,0.0265034,0.0028783,-1.1982,0.0167919,0.040272,1119,365,2.88983,12.136
-98,659,2.93799,-12.4029,0.00178152,0.0257437,-0.00690351,0.0275903,-6.50836e-05,-1.30943,0.0184153,0.0414338,1126,365,2.93805,12.4029
-91,659,2.94421,-12.4924,0.00178693,0.0230577,-0.00609157,0.0246787,0.000165944,-1.31072,0.0163974,0.0421252,1133,365,2.94419,12.4924
-84,659,2.9856,-12.494,0,0,0,0,0,0,0,-1,1140,365,2.98554,12.494
-77,659,2.79089,-12.3463,0,0,0,0,0,0,0,-1,1147,365,2.79089,12.3463
-70,659,2.76355,-12.1276,0,0,0,0,0,0,0,-1,1154,365,2.76357,12.1276
-63,659,2.11267,-9.7796,0,0,0,0,0,0,0,-1,1161,365,2.11266,9.7796
-56,659,2.11182,-9.91541,0,0,0,0,0,0,0,-1,1168,365,2.11178,9.91541
-49,659,2.77087,-12.985,0,0,0,0,0,0,0,-1,1175,365,2.77089,12.985
-42,659,2.78137,-13.1204,0,0,0,0,0,0,0,-1,1182,365,2.78138,13.1204
-35,659,2.70117,-13.2565,0.00625309,-0.000560477,-0.00276445,0.00723361,-0.00154099,-0.340843,0.00540973,0.0441167,1189,365,2.70115,13.2565
-28,659,2.75488,-13.2349,0.00661254,-8.14743e-05,-0.00349564,0.00810516,-0.00157409,-0.403558,0.0059974,0.0166129,1196,365,2.7549,13.2349
-21,659,2.73792,-13.2552,0.00664172,-0.000442168,-0.00366538,0.00819687,-0.00199732,-0.401261,0.00623787,0.0113723,1203,365,2.73788,13.2553
-14,659,2.69897,-13.3011,0.0067741,-7.53134e-05,-0.00389003,0.00853215,-0.00183336,-0.424464,0.00638753,0.00879451,1210,365,2.69897,13.3011
-7,659,2.68958,-13.3361,0.0065693,0.000147839,-0.00345805,0.00807735,-0.00136021,-0.411234,0.00589089,0.00889896,1217,365,2.68952,13.3361
0,659,2.68799,-13.3516,0.00642127,0.00050471,-0.00331576,0.0079066,-0.000980622,-0.421157,0.0056265,0.0082763,1224,365,2.68799,13.3516
7,659,2.67383,-13.3737,0.00606916,0.000998412,-0.00299748,0.00745972,-0.000392157,-0.434363,0.00510889,0.00762996,1231,365,2.67378,13.3737
14,659,2.67615,-13.3983,0.00566149,0.00135355,-0.002578,0.00686693,0.000148105,-0.437384,0.00452939,0.00997126,1238,365,2.6762,13.3983
21,659,2.65454,-13.4182,0.0052873,0.00168086,-0.00209373,0.00624729,0.000720876,-0.429905,0.00394658,0.0112789,1245,365,2.65454,13.4182
28,659,2.63879,-13.4313,0.00506388,0.00188373,-0.00148868,0.00565199,0.00129561,-0.376238,0.00341896,0.0107572,1252,365,2.63876,13.4313
35,659,2.64197,-13.4325,0.00489661,0.00184146,-0.000677298,0.00504003,0.00169804,-0.208668,0.00296101,0.0110157,1259,365,2.64194,13.4325
42,659,2.62756,-13.4298,0.00443168,0.00195083,2.35347e-05,0.0044319,0.00195061,0.00948541,0.00256487,0.0115101,1266,365,2.62755,13.4298
49,659,2.60583,-13.4451,0.00401785,0.00189102,0.000538645,0.00414649,0.00176238,0.234426,0.00240293,0.0109962,1273,365,2.60589,13.4451
56,659,2.56897,-13.4322,0.0040139,0.00152372,0.00103247,0.00438629,0.00115133,0.346157,0.00262594,0.0139314,1280,365,2.56899,13.4322
63,659,2.5636,-13.4274,0.00444787,0.000722492,0.00145925,0.0049514,0.000218956,0.332272,0.00323042,0.0154528,1287,365,2.56365,13.4274
70,659,2.55444,-13.4039,0.00498898,-0.00038468,0.00196418,0.00563037,-0.00102607,0.315627,0.00413823,0.016817,1294,365,2.55445,13.4039
77,659,2.51965,-13.3777,0.00475107,-0.00124643,0.0026071,0.00572592,-0.00222128,0.357823,0.0047347,0.0165176,1301,365,2.51966,13.3777
84,659,2.54504,-13.3728,0.00417553,-0.0017939,0.0026439,0.00517814,-0.0027965,0.362461,0.0046721,0.0120768,1308,365,2.545,13.3728
91,659,2.53711,-13.3585,0.0035726,-0.00246535,0.00287126,0.00471996,-0.00361272,0.380163,0.00482501,0.0109421,1315,365,2.53708,13.3585
98,659,2.51062,-13.3223,0.00295184,-0.00290555,0.00259376,0.00393529,-0.003889,0.362411,0.00451738,0.00804542,1322,365,2.5106,13.3223
105,659,2.5061,-13.2704,0.00201332,-0.00320813,0.00269836,0.0031572,-0.00435201,0.400952,0.0043537,0.00930601,1329,365,2.50616,13.2704
112,659,2.50732,-13.2211,0.00115096,-0.00334443,0.00270696,0.00242176,-0.00461522,0.438914,0.00412807,0.0114523,1336,365,2.5073,13.2211
119,659,2.5083,-13.1811,6.08899e-05,-0.00305073,0.0027646,0.0016774,-0.00466723,0.529105,0.00379623,0.0126749,1343,365,2.5083,13.1811
126,659,2.48706,-13.1295,-0.00121927,-0.00249178,0.00284113,0.00105597,-0.00476703,0.675243,0.00358227,0.0130367,1350,365,2.48702,13.1295
133,659,2.44836,-13.0798,-0.00264333,-0.00170595,0.00284705,0.000710728,-0.00506001,0.866978,0.00363349,0.0118567,1357,365,2.44842,13.0798
140,659,2.41711,-13.0173,-0.00385644,-0.00076504,0.00277792,0.000868256,-0.00548973,1.03928,0.00398093,0.00876014,1364,365,2.41712,13.0173
147,659,2.39758,-12.9442,-0.00466268,-0.000207558,0.00291829,0.00123618,-0.00610642,1.11138,0.00453947,0.00781989,1371,365,2.39754,12.9442
154,659,2.3877,-12.8546,-0.00532594,0.000702036,0.0029483,0.00190428,-0.00652818,1.18361,0.00510663,0.00893243,1378,365,2.38768,12.8546
161,659,2.39307,-12.8089,-0.00618605,0.00100607,0.00292436,0.00204504,-0.00722502,1.22942,0.0056237,0.00943672,1385,365,2.39309,12.8089
168,659,2.4104,-12.7727,-0.00712888,0.00145922,0.00280061,0.00229179,-0.00796146,1.28183,0.00621408,0.0170455,1392,365,2.4104,12.7727
175,659,2.42126,-12.7188,-0.00760302,0.00206305,0.00289597,0.00286428,-0.00840424,1.30088,0.00676289,0.0417599,1399,365,2.42122,12.7188
182,659,2.30029,-12.595,0,0,0,0,0,0,0,-1,1406,365,2.30024,12.595
189,659,2.38281,-12.4241,0,0,0,0,0,0,0,-1,1413,365,2.38277,12.4241
196,659,2.3562,-11.9105,0,0,0,0,0,0,0,-1,1420,365,2.35617,11.9105
203,659,2.38623,-12.2163,0,0,0,0,0,0,0,-1,1427,365,2.38617,12.2163
210,659,2.28931,-12.3549,0,0,0,0,0,0,0,-1,1434,365,2.28928,12.355
217,659,2.34802,-11.7446,0,0,0,0,0,0,0,-1,1441,365,2.34801,11.7446
224,659,2.20935,-11.9357,0,0,0,0,0,0,0,-1,1448,365,2.2093,11.9357
231,659,2.28455,-11.895,0,0,0,0,0,0,0,-1,1455,365,2.28459,11.895
238,659,2.59875,-11.8893,0,0,0,0,0,0,0,-1,1462,365,2.59873,11.8893
245,659,2.3573,-12.0292,0,0,0,0,0,0,0,-1,1469,365,2.35733,12.0292
252,659,1.8584,-12.4492,0,0,0,0,0,0,0,-1,1476,365,1.85838,12.4492
259,659,2.33069,-3.36703,0,0,0,0,0,0,0,-1,1483,365,2.33073,3.36702
266,659,1.7439,-10.8216,0,0,0,0,0,0,0,-1,1490,365,1.74389,10.8216
273,659,2.03857,-10.8503,0,0,0,0,0,0,0,-1,1497,365,2.03853,10.8503
280,659,1.70947,-9.4129,0,0,0,0,0,0,0,-1,1504,365,1.70952,9.4129
287,659,3.03662,-10.7155,0,0,0,0,0,0,0,-1,1511,365,3.03656,10.7154
294,659,3.79797,-10.4218,0,0,0,0,0,0,0,-1,1518,365,3.79793,10.4218
301,659,0.770874,-5.72247,0,0,0,0,0,0,0,-1,1525,365,0.770867,5.72248
308,659,1.84546,-4.83203,0,0,0,0,0,0,0,-1,1532,365,1.84545,4.83203
315,659,2.02905,-3.83633,0,0,0,0,0,0,0,-1,1539,365,2.0291,3.83632
322,659,0.382813,-2.2424,0,0,0,0,0,0,0,-1,1546,365,0.382801,2.2424
329,659,0.604004,-1.75998,0,0,0,0,0,0,0,-1,1553,365,0.603966,1.75998
336,659,2.09851,-1.17941,0,0,0,0,0,0,0,-1,1560,365,2.09857,1.17942
343,659,0,0,0,0,0,0,0,0,0,-1,1567,365,0,0
350,659,0,0,0,0,0,0,0,0,0,-1,1574,365,0,0
357,659,0,0,0,0,0,0,0,0,0,-1,1581,365,0,0
364,659,0,0,0,0,0,0,0,0,0,-1,1588,365,0,0
371,659,0,0,0,0,0,0,0,0,0,-1,1595,365,0,0
378,659,0,0,0,0,0,0,0,0,0,-1,1602,365,0,0
385,659,0,0,0,0,0,0,0,0,0,-1,1609,365,0,0
392,659,0,0,0,0,0,0,0,0,0,-1,1616,365,0,0
399,659,0,0,0,0,0,0,0,0,0,-1,1623,365,0,0
406,659,0,0,0,0,0,0,0,0,0,-1,1630,365,0,0
413,659,0,0,0,0,0,0,0,0,0,-1,1637,365,0,0
420,659,0,0,0,0,0,0,0,0,0,-1,1644,365,0,0
427,659,0,0,0,0,0,0,0,0,0,-1,1651,365,0,0
434,659,0,0,0,0,0,0,0,0,0,-1,1658,365,0,0
441,659,0,0,0,0,0,0,0,0,0,-1,1665,365,0,0
448,659,0,0,0,0,0,0,0,0,0,-1,1672,365,0,0
455,659,0,0,0,0,0,0,0,0,0,-1,1679,365,0,0
462,659,0,0,0,0,0,0,0,0,0,-1,1686,365,0,0
469,659,0,0,0,0,0,0,0,0,0,-1,1693,365,0,0
476,659,0,0,0,0,0,0,0,0,0,-1,1700,365,0,0
483,659,0,0,0,0,0,0,0,0,0,-1,1707,365,0,0
490,659,0,0,0,0,0,0,0,0,0,-1,1714,365,0,0
497,659,0,0,0,0,0,0,0,0,0,-1,1721,365,0,0
504,659,0,0,0,0,0,0,0,0,0,-1,1728,365,0,0
511,659,0,0,0,0,0,0,0,0,0,-1,1735,365,0,0
518,659,0,0,0,0,0,0,0,0,0,-1,1742,365,0,0
525,659,0,0,0,0,0,0,0,0,0,-1,1749,365,0,0
532,659,0,0,0,0,0,0,0,0,0,-1,1756,365,0,0
539,659,0,0,0,0,0,0,0,0,0,-1,1763,365,0,0
546,659,0,0,0,0,0,0,0,0,0,-1,1770,365,0,0
553,659,0,0,0,0,0,0,0,0,0,-1,1777,365,0,0
560,659,0,0,0,0,0,0,0,0,0,-1,1784,365,0,0
567,659,0,0,0,0,0,0,0,0,0,-1,1791,365,0,0
574,659,0,0,0,0,0,0,0,0,0,-1,1798,365,0,0
581,659,0,0,0,0,0,0,0,0,0,-1,1805,365,0,0
588,659,0,0,0,0,0,0,0,0,0,-1,1812,365,0,0
595,659,0,0,0,0,0,0,0,0,0,-1,1819,365,0,0
602,659,0,0,0,0,0,0,0,0,0,-1,1826,365,0,0
609,659,0,0,0,0,0,0,0,0,0,-1,1833,365,0,0
616,659,0,0,0,0,0,0,0,0,0,-1,1840,365,0,0
623,659,0,0,0,0,0,0,0,0,0,-1,1847,365,0,0
630,659,0,0,0,0,0,0,0,0,0,-1,1854,365,0,0
637,659,0,0,0,0,0,0,0,0,0,-1,1861,365,0,0
644,659,0,0,0,0,0,0,0,0,0,-1,1868,365,0,0
651,659,0,0,0,0,0,0,0,0,0,-1,1875,365,0,0
658,659,0,0,0,0,0,0,0,0,0,-1,1882,365,0,0
665,659,0,0,0,0,0,0,0,0,0,-1,1889,365,0,0
672,659,0,0,0,0,0,0,0,0,0,-1,1896,365,0,0
679,659,0,0,0,0,0,0,0,0,0,-1,1903,365,0,0
686,659,0,0,0,0,0,0,0,0,0,-1,1910,365,0,0
693,659,0,0,0,0,0,0,0,0,0,-1,1917,365,0,0
700,659,0,0,0,0,0,0,0,0,0,-1,1924,365,0,0
707,659,0,0,0,0,0,0,0,0,0,-1,1931,365,0,0
714,659,0,0,0,0,0,0,0,0,0,-1,1938,365,0,0
721,659,0,0,0,0,0,0,0,0,0,-1,1945,365,0,0
728,659,0,0,0,0,0,0,0,0,0,-1,1952,365,0,0
735,659,0,0,0,0,0,0,0,0,0,-1,1959,365,0,0
742,659,0,0,0,0,0,0,0,0,0,-1,1966,365,0,0
749,659,0,0,0,0,0,0,0,0,0,-1,1973,365,0,0
756,659,0,0,0,0,0,0,0,0,0,-1,1980,365,0,0
763,659,0,0,0,0,0,0,0,0,0,-1,1987,365,0,0
770,659,0,0,0,0,0,0,0,0,0,-1,1994,365,0,0
777,659,0,0,0,0,0,0,0,0,0,-1,2001,365,0,0
784,659,0,0,0,0,0,0,0,0,0,-1,2008,365,0,0
791,659,0,0,0,0,0,0,0,0,0,-1,2015,365,0,0
798,659,0,0,0,0,0,0,0,0,0,-1,2022,365,0,0
805,659,0,0,0,0,0,0,0,0,0,-1,2029,365,0,0
812,659,0,0,0,0,0,0,0,0,0,-1,2036,365,0,0
-700,652,0,0,0,0,0,0,0,0,0,-1,524,372,0,0
-693,652,0,0,0,0,0,0,0,0,0,-1,531,372,0,0
-686,652,0,0,0,0,0,0,0,0,0,-1,538,372,0,0
-679,652,0,0,0,0,0,0,0,0,0,-1,545,372,0,0
-672,652,0,0,0,0,0,0,0,0,0,-1,552,372,0,0
-665,652,0,0,0,0,0,0,0,0,0,-1,559,372,0,0
-658,652,0,0,0,0,0,0,0,0,0,-1,566,372,0,0
-651,652,0,0,0,0,0,0,0,0,0,-1,573,372,0,0
-644,652,0,0,0,0,0,0,0,0,0,-1,580,372,0,0
-637,652,0,0,0,0,0,0,0,0,0,-1,587,372,0,0
-630,652,0,0,0,0,0,0,0,0,0,-1,594,372,0,0
-623,652,0,0,0,0,0,0,0,0,0,-1,601,372,0,0
-616,652,0,0,0,0,0,0,0,0,0,-1,608,372,0,0
-609,652,0,0,0,0,0,0,0,0,0,-1,615,372,0,0
-602,652,0,0,0,0,0,0,0,0,0,-1,622,372,0,0
-595,652,0,0,0,0,0,0,0,0,0,-1,629,372,0,0
-588,652,0,0,0,0,0,0,0,0,0,-1,636,372,0,0
-581,652,0,0,0,0,0,0,0,0,0,-1,643,372,0,0
-574,652,0,0,0,0,0,0,0,0,0,-1,650,372,0,0
-567,652,0,0,0,0,0,0,0,0,0,-1,657,372,0,0
-560,652,0,0,0,0,0,0,0,0,0,-1,664,372,0,0
-553,652,0,0,0,0,0,0,0,0,0,-1,671,372,0,0
-546,652,0,0,0,0,0,0,0,0,0,-1,678,372,0,0
-539,652,0,0,0,0,0,0,0,0,0,-1,685,372,0,0
-532,652,0,0,0,0,0,0,0,0,0,-1,692,372,0,0
-525,652,0,0,0,0,0,0,0,0,0,-1,699,372,0,0
-518,652,0,0,0,0,0,0,0,0,0,-1,706,372,0,0
-511,652,0,0,0,0,0,0,0,0,0,-1,713,372,0,0
-504,652,0,0,0,0,0,0,0,0,0,-1,720,372,0,0
-497,652,0,0,0,0,0,0,0,0,0,-1,727,372,0,0
-490,652,0,0,0,0,0,0,0,0,0,-1,734,372,0,0
-483,652,0,0,0,0,0,0,0,0,0,-1,741,372,0,0
-476,652,0,0,0,0,0,0,0,0,0,-1,748,372,0,0
-469,652,0,0,0,0,0,0,0,0,0,-1,755,372,0,0
-462,652,0,0,0,0,0,0,0,0,0,-1,762,372,0,0
-455,652,0,0,0,0,0,0,0,0,0,-1,769,372,0,0
-448,652,0,0,0,0,0,0,0,0,0,-1,776,372,0,0
-441,652,0,0,0,0,0,0,0,0,0,-1,783,372,0,0
-434,652,0,0,0,0,0,0,0,0,0,-1,790,372,0,0
-427,652,0,0,0,0,0,0,0,0,0,-1,797,372,0,0
-420,652,0,0,0,0,0,0,0,0,0,-1,804,372,0,0
-413,652,0,0,0,0,0,0,0,0,0,-1,811,372,0,0
-406,652,0,0,0,0,0,0,0,0,0,-1,818,372,0,0
-399,652,0,0,0,0,0,0,0,0,0,-1,825,372,0,0
-392,652,0,0,0,0,0,0,0,0,0,-1,832,372,0,0
-385,652,0,0,0,0,0,0,0,0,0,-1,839,372,0,0
-378,652,0,0,0,0,0,0,0,0,0,-1,846,372,0,0
-371,652,0,0,0,0,0,0,0,0,0,-1,853,372,0,0
-364,652,0,0,0,0,0,0,0,0,0,-1,860,372,0,0
-357,652,0,0,0,0,0,0,0,0,0,-1,867,372,0,0
-350,652,0,0,0,0,0,0,0,0,0,-1,874,372,0,0
-343,652,0,0,0,0,0,0,0,0,0,-1,881,372,0,0
-336,652,0,0,0,0,0,0,0,0,0,-1,888,372,0,0
-329,652,0,0,0,0,0,0,0,0,0,-1,895,372,0,0
-322,652,0,0,0,0,0,0,0,0,0,-1,902,372,0,0
-315,652,0,0,0,0,0,0,0,0,0,-1,909,372,0,0
-308,652,0,0,0,0,0,0,0,0,0,-1,916,372,0,0
-301,652,0,0,0,0,0,0,0,0,0,-1,923,372,0,0
-294,652,0,0,0,0,0,0,0,0,0,-1,930,372,0,0
-287,652,0,0,0,0,0,0,0,0,0,-1,937,372,0,0
-280,652,0,0,0,0,0,0,0,0,0,-1,944,372,0,0
-273,652,0,0,0,0,0,0,0,0,0,-1,951,372,0,0
-266,652,0,0,0,0,0,0,0,0,0,-1,958,372,0,0
-259,652,0,0,0,0,0,0,0,0,0,-1,965,372,0,0
-252,652,0,0,0,0,0,0,0,0,0,-1,972,372,0,0
-245,652,0,0,0,0,0,0,0,0,0,-1,979,372,0,0
-238,652,0,0,0,0,0,0,0,0,0,-1,986,372,0,0
-231,652,-3.1214,-6.93527,0,0,0,0,0,0,0,-1,993,372,-3.1214,6.93528
-224,652,-3.74396,-5.71695,0,0,0,0,0,0,0,-1,1000,372,-3.74397,5.71694
-217,652,3.08069,-9.83069,0,0,0,0,0,0,0,-1,1007,372,3.08068,9.83069
-210,652,3.51178,-10.4496,0,0,0,0,0,0,0,-1,1014,372,3.51181,10.4496
-203,652,2.26929,-12.32,0,0,0,0,0,0,0,-1,1021,372,2.26929,12.32
-196,652,2.8833,-11.9591,0,0,0,0,0,0,0,-1,1028,372,2.88328,11.9591
-189,652,3.7583,-11.691,0,0,0,0,0,0,0,-1,1035,372,3.75831,11.691
-182,652,1.33374,-12.6816,0,0,0,0,0,0,0,-1,1042,372,1.33379,12.6816
-175,652,1.74902,-12.5601,0.049969,-0.0796395,-0.0176344,0.0523255,-0.081996,-0.132842,0.0781786,0.043391,1049,372,1.74905,12.5601
-168,652,2.24512,-12.7752,0.0456317,-0.0707471,-0.0158104,0.0477414,-0.0728567,-0.13265,0.0701288,0.0420004,1056,372,2.24515,12.7752
-161,652,3.19446,-12.4819,0,0,0,0,0,0,0,-1,1063,372,3.19447,12.4819
-154,652,2.7915,-13.38,0,0,0,0,0,0,0,-1,1070,372,2.79154,13.38
-147,652,3.11292,-11.7458,0,0,0,0,0,0,0,-1,1077,372,3.11297,11.7458
-140,652,2.80042,-11.8802,0,0,0,0,0,0,0,-1,1084,372,2.80041,11.8802
-133,652,3.21838,-11.5731,0.0170929,-0.00802759,-0.0088442,0.0198943,-0.010829,-0.306751,0.0179936,0.0396186,1091,372,3.21836,11.5731
-126,652,2.94385,-11.9185,0.0124179,0.000861654,-0.00791418,0.0164388,-0.00315925,-0.470077,0.01215,0.0367054,1098,372,2.94381,11.9186
-119,652,2.79126,-12.0619,0.00822003,0.00970166,-0.00690626,0.0159067,0.00201497,-0.838827,0.0100007,0.0325889,1105,372,2.79126,12.0619
-112,652,2.89233,-12.2246,0.00459935,0.0159644,-0.00584536,0.0184341,0.00212961,-1.17103,0.0116446,0.0244703,1112,372,2.89232,12.2246
-105,652,2.84424,-12.306,0.00296127,0.01731,-0.00560152,0.0192378,0.00103352,-1.23934,0.0124949,0.0214174,1119,372,2.84424,12.306
-98,652,2.83374,-12.435,0.000426626,0.0185173,-0.00488205,0.0197507,-0.00080678,-1.32333,0.0134441,0.0237279,1126,372,2.83376,12.435
-91,652,2.87402,-12.5224,0.000557151,0.0165567,-0.00430421,0.0176411,-0.000527273,-1.32399,0.0119404,0.0227407,1133,372,2.87404,12.5224
-84,652,2.86621,-12.6379,0.00048072,0.0139974,-0.00363092,0.014911,-0.00043289,-1.32429,0.010088,0.0222969,1140,372,2.8662,12.6379
-77,652,2.78516,-12.6984,0.000372096,0.0111573,-0.00299092,0.0119312,-0.000401806,-1.3176,0.0080914,0.0275579,1147,372,2.78514,12.6984
-70,652,2.77625,-12.8264,0,0,0,0,0,0,0,-1,1154,372,2.77619,12.8264
-63,652,2.79907,-12.9171,0,0,0,0,0,0,0,-1,1161,372,2.7991,12.9171
-56,652,2.77063,-12.9804,0,0,0,0,0,0,0,-1,1168,372,2.77059,12.9804
-49,652,2.75073,-13.0296,0.00254032,0.00127358,-0.00210405,0.00410426,-0.000290366,-0.6392,0.00283792,0.0311168,1175,372,2.75071,13.0296
-42,652,2.71912,-13.0968,0.00310151,0.00109533,-0.00170994,0.00408086,0.000115976,-0.520137,0.00268275,0.0106099,1182,372,2.71909,13.0968
-35,652,2.72083,-13.155,0.00351888,0.0010411,-0.00190717,0.00455423,5.74952e-06,-0.497353,0.00303424,0.00888732,1189,372,2.72083,13.155
-28,652,2.71191,-13.2015,0.00386283,0.00133194,-0.00242361,0.00533148,-0.000136707,-0.5448,0.00360075,0.00742958,1196,372,2.71186,13.2015
-21,652,2.6875,-13.2458,0.00403713,0.00100159,-0.00253828,0.0054768,-0.000438084,-0.515942,0.00380565,0.00764765,1203,372,2.68747,13.2458
-14,652,2.67859,-13.2961,0.00384139,0.00117545,-0.00267834,0.00550014,-0.000483291,-0.554501,0.00383801,0.00879375,1210,372,2.6786,13.2961
-7,652,2.6698,-13.3507,0.00352612,0.00118779,-0.00258847,0.00519722,-0.000483307,-0.573272,0.00363664,0.0116735,1217,372,2.66978,13.3507
0,652,2.64319,-13.3768,0.0033431,0.00125844,-0.00256643,0.00507079,-0.000469251,-0.592504,0.00354731,0.0123832,1224,372,2.64319,13.3768
7,652,2.63538,-13.3811,0.00297752,0.00138008,-0.00241643,0.00472381,-0.00036621,-0.625782,0.0032781,0.0128152,1231,372,2.63535,13.3811
14,652,2.64172,-13.4104,0.00255972,0.00143219,-0.00218816,0.00425557,-0.000263666,-0.659319,0.0029289,0.0107842,1238,372,2.64178,13.4104
21,652,2.64026,-13.4322,0.00218723,0.00146304,-0.00188657,0.00374614,-9.58702e-05,-0.690585,0.00252999,0.0101238,1245,372,2.64026,13.4322
28,652,2.63147,-13.4563,0.00198856,0.00141722,-0.0014668,0.00319725,0.000208539,-0.689223,0.0020655,0.00964478,1252,372,2.6315,13.4563
35,652,2.61963,-13.4629,0.00188792,0.00120428,-0.000855241,0.00246712,0.000625084,-0.595284,0.00148103,0.00987077,1259,372,2.61967,13.4629
42,652,2.60022,-13.4561,0.00159662,0.00110764,-0.000305014,0.00174304,0.000961225,-0.447552,0.00100812,0.010788,1266,372,2.60018,13.4561
49,652,2.61426,-13.4641,0.00142546,0.000955781,0.000125128,0.00145671,0.000924525,0.244782,0.00085114,0.0128132,1273,372,2.61425,13.4641
56,652,2.59338,-13.4529,0.00154398,0.00058816,0.000540466,0.00178753,0.000344612,0.423374,0.00109504,0.0144224,1280,372,2.5934,13.4529
63,652,2.55603,-13.4395,0.00199884,-0.000102778,0.000911287,0.00233895,-0.000442883,0.357204,0.00172597,0.0178919,1287,372,2.556,13.4394
70,652,2.57849,-13.3999,0.00251528,-0.000946855,0.00133706,0.00297152,-0.0014031,0.328839,0.00257923,0.0164017,1294,372,2.57845,13.3999
77,652,2.54553,-13.3846,0.00247539,-0.00150168,0.00187772,0.00322184,-0.00224813,0.378372,0.00317472,0.0153808,1301,372,2.54548,13.3846
84,652,2.55408,-13.3913,0.0021101,-0.00183708,0.00192171,0.00289115,-0.00261812,0.38604,0.00318208,0.0132493,1308,372,2.55409,13.3913
91,652,2.52515,-13.3978,0.00186801,-0.00230816,0.00204168,0.00270029,-0.00314044,0.38708,0.00337534,0.016674,1315,372,2.5251,13.3978
98,652,2.53723,-13.328,0.00140922,-0.00256616,0.00191287,0.00218015,-0.00333709,0.38311,0.00320864,0.0134054,1322,372,2.53725,13.328
105,652,2.54529,-13.2679,0.000606273,-0.00272029,0.0019121,0.00147729,-0.0035913,0.42744,0.00301,0.0110552,1329,372,2.5453,13.2679
112,652,2.52637,-13.2311,-0.000102535,-0.0027392,0.00186364,0.00086193,-0.00370366,0.477562,0.00280098,0.0100039,1336,372,2.52632,13.2311
119,652,2.51501,-13.185,-0.000905855,-0.002539,0.00185969,0.000308639,-0.0037535,0.578525,0.0026113,0.0106722,1343,372,2.51499,13.185
126,652,2.48669,-13.1387,-0.00178715,-0.00214009,0.00186377,-9.15105e-05,-0.00383573,0.738196,0.0025272,0.0121545,1350,372,2.48665,13.1387
133,652,2.46887,-13.0885,-0.00272385,-0.00158741,0.00182916,-0.000240241,-0.00407101,0.935995,0.00263758,0.0124455,1357,372,2.46883,13.0885
140,652,2.46509,-13.011,-0.00344291,-0.000890068,0.00174196,-6.93416e-06,-0.00432604,1.10158,0.00288172,0.00970895,1364,372,2.46505,13.011
147,652,2.45776,-12.9432,-0.00380596,-0.000469601,0.00185365,0.000355982,-0.00463155,1.15179,0.00321294,0.00930768,1371,372,2.45776,12.9432
154,652,2.45056,-12.8694,-0.00407334,0.000258206,0.00187142,0.000954734,-0.00476987,1.21449,0.00354132,0.00892149,1378,372,2.45059,12.8694
161,652,2.44849,-12.8109,-0.00443494,0.000580079,0.00184643,0.00118656,-0.00504141,1.25344,0.00381842,0.00928653,1385,372,2.44847,12.811
168,652,2.44189,-12.7399,-0.00485042,0.000959452,0.00178059,0.00146174,-0.00535271,1.29585,0.00414259,0.0100719,1392,372,2.4419,12.7399
175,652,2.43201,-12.6425,-0.00485265,0.00130802,0.00191586,0.00185522,-0.00539984,1.29259,0.00435216,0.0109857,1399,372,2.43202,12.6425
182,652,2.39111,-12.5894,-0.00336533,0.000966208,0.00203882,0.00177489,-0.00417401,1.19319,0.00352647,0.0161777,1406,372,2.39115,12.5894
189,652,2.41907,-12.494,-0.00155693,0.000887442,0.00269491,0.00262436,-0.00329384,0.998285,0.00342415,0.0240843,1413,372,2.41911,12.494
196,652,2.38257,-12.3521,0,0,0,0,0,0,0,-1,1420,372,2.38254,12.352
203,652,2.401,-12.4603,0,0,0,0,0,0,0,-1,1427,372,2.40104,12.4603
210,652,2.33142,-12.3819,-0.00161618,-0.00103912,0.00239957,0.00108921,-0.0037445,0.845232,0.00292774,0.0401837,1434,372,2.33139,12.3819
217,652,2.3739,-12.0206,-0.00177713,-0.000708801,0.0019837,0.00081139,-0.00329733,0.916918,0.00251273,0.0386419,1441,372,2.37391,12.0206
224,652,2.33325,-11.8743,-0.00163706,-0.000391504,0.00154599,0.00065243,-0.002681,0.976872,0.00203989,0.0314165,1448,372,2.33327,11.8743
231,652,2.34338,-11.7538,-0.000825103,0.000174324,0.00131118,0.00107779,-0.00172857,0.967459,0.00163471,0.0347793,1455,372,2.34339,11.7538
238,652,2.45825,-11.6953,0.00246709,0.000378062,0.00157201,0.00330996,-0.000464812,0.492168,0.00237678,0.039492,1462,372,2.45826,11.6953
245,652,2.35144,-11.6823,0.00481454,0.000950871,0.00148535,0.00531956,0.000445851,0.327738,0.00340749,0.0398691,1469,372,2.35148,11.6823
252,652,2.104,-11.7684,0.00822357,0.00179681,0.00173933,0.00866411,0.00135627,0.248061,0.00538126,0.0446328,1476,372,2.10396,11.7684
259,652,2.02844,-10.8202,0,0,0,0,0,0,0,-1,1483,372,2.02847,10.8202
266,652,2.05957,-10.8681,0.017507,0.00488241,-0.00221938,0.0178858,0.00450361,-0.169048,0.0107421,0.0483826,1490,372,2.05961,10.8681
273,652,2.20801,-10.89,0.0229356,0.00615694,-0.00386285,0.0237822,0.00531033,-0.215754,0.0144145,0.0487687,1497,372,2.20797,10.89
280,652,2.28015,-10.942,0,0,0,0,0,0,0,-1,1504,372,2.2802,10.9419
287,652,3.11133,-10.5877,0.034134,0.0102188,-0.00862468,0.0369198,0.00743297,-0.312431,0.0225477,0.0494891,1511,372,3.1113,10.5877
294,652,3.75793,-10.4029,0,0,0,0,0,0,0,-1,1518,372,3.75799,10.4029
301,652,4.28174,-10.16,0,0,0,0,0,0,0,-1,1525,372,4.28171,10.16
308,652,4.83911,-4.33557,0.0469248,0.0186306,-0.022423,0.0592906,0.00626483,-0.503976,0.0376131,0.0435401,1532,372,4.83913,4.33556
315,652,5.06287,-3.37262,0,0,0,0,0,0,0,-1,1539,372,5.06288,3.37263
322,652,5.31433,-2.42712,0,0,0,0,0,0,0,-1,1546,372,5.31435,2.42712
329,652,4.35828,-2.34665,0,0,0,0,0,0,0,-1,1553,372,4.35832,2.34665
336,652,4.60815,-2.13776,0,0,0,0,0,0,0,-1,1560,372,4.6082,2.13775
343,652,4.18225,-6.7092,0,0,0,0,0,0,0,-1,1567,372,4.18231,6.70921
350,652,4.64563,-7.2074,0,0,0,0,0,0,0,-1,1574,372,4.6456,7.2074
357,652,0,0,0,0,0,0,0,0,0,-1,1581,372,0,0
364,652,0,0,0,0,0,0,0,0,0,-1,1588,372,0,0
371,652,0,0,0,0,0,0,0,0,0,-1,1595,372,0,0
378,652,0,0,0,0,0,0,0,0,0,-1,1602,372,0,0
385,652,0,0,0,0,0,0,0,0,0,-1,1609,372,0,0
392,652,0,0,0,0,0,0,0,0,0,-1,1616,372,0,0
399,652,0,0,0,0,0,0,0,0,0,-1,1623,372,0,0
406,652,0,0,0,0,0,0,0,0,0,-1,1630,372,0,0
413,652,0,0,0,0,0,0,0,0,0,-1,1637,372,0,0
420,652,0,0,0,0,0,0,0,0,0,-1,1644,372,0,0
427,652,0,0,0,0,0,0,0,0,0,-1,1651,372,0,0
434,652,0,0,0,0,0,0,0,0,0,-1,1658,372,0,0
441,652,0,0,0,0,0,0,0,0,0,-1,1665,372,0,0
448,652,0,0,0,0,0,0,0,0,0,-1,1672,372,0,0
455,652,0,0,0,0,0,0,0,0,0,-1,1679,372,0,0
462,652,0,0,0,0,0,0,0,0,0,-1,1686,372,0,0
469,652,0,0,0,0,0,0,0,0,0,-1,1693,372,0,0
476,652,0,0,0,0,0,0,0,0,0,-1,1700,372,0,0
483,652,0,0,0,0,0,0,0,0,0,-1,1707,372,0,0
490,652,0,0,0,0,0,0,0,0,0,-1,1714,372,0,0
497,652,0,0,0,0,0,0,0,0,0,-1,1721,372,0,0
504,652,0,0,0,0,0,0,0,0,0,-1,1728,372,0,0
511,652,0,0,0,0,0,0,0,0,0,-1,1735,372,0,0
518,652,0,0,0,0,0,0,0,0,0,-1,1742,372,0,0
525,652,0,0,0,0,0,0,0,0,0,-1,1749,372,0,0
532,652,0,0,0,0,0,0,0,0,0,-1,1756,372,0,0
539,652,0,0,0,0,0,0,0,0,0,-1,1763,372,0,0
546,652,0,0,0,0,0,0,0,0,0,-1,1770,372,0,0
553,652,0,0,0,0,0,0,0,0,0,-1,1777,372,0,0
560,652,0,0,0,0,0,0,0,0,0,-1,1784,372,0,0
567,652,0,0,0,0,0,0,0,0,0,-1,1791,372,0,0
574,652,0,0,0,0,0,0,0,0,0,-1,1798,372,0,0
581,652,0,0,0,0,0,0,0,0,0,-1,1805,372,0,0
588,652,0,0,0,0,0,0,0,0,0,-1,1812,372,0,0
595,652,0,0,0,0,0,0,0,0,0,-1,1819,372,0,0
602,652,0,0,0,0,0,0,0,0,0,-1,1826,372,0,0
609,652,0,0,0,0,0,0,0,0,0,-1,1833,372,0,0
616,652,0,0,0,0,0,0,0,0,0,-1,1840,372,0,0
623,652,0,0,0,0,0,0,0,0,0,-1,1847,372,0,0
630,652,0,0,0,0,0,0,0,0,0,-1,1854,372,0,0
637,652,0,0,0,0,0,0,0,0,0,-1,1861,372,0,0
644,652,0,0,0,0,0,0,0,0,0,-1,1868,372,0,0
651,652,0,0,0,0,0,0,0,0,0,-1,1875,372,0,0
658,652,0,0,0,0,0,0,0,0,0,-1,1882,372,0,0
665,652,0,0,0,0,0,0,0,0,0,-1,1889,372,0,0
672,652,0,0,0,0,0,0,0,0,0,-1,1896,372,0,0
679,652,0,0,0,0,0,0,0,0,0,-1,1903,372,0,0
686,652,0,0,0,0,0,0,0,0,0,-1,1910,372,0,0
693,652,0,0,0,0,0,0,0,0,0,-1,1917,372,0,0
700,652,0,0,0,0,0,0,0,0,0,-1,1924,372,0,0
707,652,0,0,0,0,0,0,0,0,0,-1,1931,372,0,0
714,652,0,0,0,0,0,0,0,0,0,-1,1938,372,0,0
721,652,0,0,0,0,0,0,0,0,0,-1,1945,372,0,0
728,652,0,0,0,0,0,0,0,0,0,-1,1952,372,0,0
735,652,0,0,0,0,0,0,0,0,0,-1,1959,372,0,0
742,652,0,0,0,0,0,0,0,0,0,-1,1966,372,0,0
749,652,0,0,0,0,0,0,0,0,0,-1,1973,372,0,0
756,652,0,0,0,0,0,0,0,0,0,-1,1980,372,0,0
763,652,0,0,0,0,0,0,0,0,0,-1,1987,372,0,0
770,652,0,0,0,0,0,0,0,0,0,-1,1994,372,0,0
777,652,0,0,0,0,0,0,0,0,0,-1,2001,372,0,0
784,652,0,0,0,0,0,0,0,0,0,-1,2008,372,0,0
791,652,0,0,0,0,0,0,0,0,0,-1,2015,372,0,0
798,652,0,0,0,0,0,0,0,0,0,-1,2022,372,0,0
805,652,0,0,0,0,0,0,0,0,0,-1,2029,372,0,0
812,652,0,0,0,0,0,0,0,0,0,-1,2036,372,0,0
-700,645,0,0,0,0,0,0,0,0,0,-1,524,379,0,0
-693,645,0,0,0,0,0,0,0,0,0,-1,531,379,0,0
-686,645,0,0,0,0,0,0,0,0,0,-1,538,379,0,0
-679,645,0,0,0,0,0,0,0,0,0,-1,545,379,0,0
-672,645,0,0,0,0,0,0,0,0,0,-1,552,379,0,0
-665,645,0,0,0,0,0,0,0,0,0,-1,559,379,0,0
-658,645,0,0,0,0,0,0,0,0,0,-1,566,379,0,0
-651,645,0,0,0,0,0,0,0,0,0,-1,573,379,0,0
-644,645,0,0,0,0,0,0,0,0,0,-1,580,379,0,0
-637,645,0,0,0,0,0,0,0,0,0,-1,587,379,0,0
-630,645,0,0,0,0,0,0,0,0,0,-1,594,379,0,0
-623,645,0,0,0,0,0,0,0,0,0,-1,601,379,0,0
-616,645,0,0,0,0,0,0,0,0,0,-1,608,379,0,0
-609,645,0,0,0,0,0,0,0,0,0,-1,615,379,0,0
-602,645,0,0,0,0,0,0,0,0,0,-1,622,379,0,0
-595,645,0,0,0,0,0,0,0,0,0,-1,629,379,0,0
-588,645,0,0,0,0,0,0,0,0,0,-1,636,379,0,0
-581,645,0,0,0,0,0,0,0,0,0,-1,643,379,0,0
-574,645,0,0,0,0,0,0,0,0,0,-1,650,379,0,0
-567,645,0,0,0,0,0,0,0,0,0,-1,657,379,0,0
-560,645,0,0,0,0,0,0,0,0,0,-1,664,379,0,0
-553,645,0,0,0,0,0,0,0,0,0,-1,671,379,0,0
-546,645,0,0,0,0,0,0,0,0,0,-1,678,379,0,0
-539,645,0,0,0,0,0,0,0,0,0,-1,685,379,0,0
-532,645,0,0,0,0,0,0,0,0,0,-1,692,379,0,0
-525,645,0,0,0,0,0,0,0,0,0,-1,699,379,0,0
-518,645,0,0,0,0,0,0,0,0,0,-1,706,379,0,0
-511,645,0,0,0,0,0,0,0,0,0,-1,713,379,0,0
-504,645,0,0,0,0,0,0,0,0,0,-1,720,379,0,0
-497,645,0,0,0,0,0,0,0,0,0,-1,727,379,0,0
-490,645,0,0,0,0,0,0,0,0,0,-1,734,379,0,0
-483,645,0,0,0,0,0,0,0,0,0,-1,741,379,0,0
-476,645,0,0,0,0,0,0,0,0,0,-1,748,379,0,0
-469,645,0,0,0,0,0,0,0,0,0,-1,755,379,0,0
-462,645,0,0,0,0,0,0,0,0,0,-1,762,379,0,0
-455,645,0,0,0,0,0,0,0,0,0,-1,769,379,0,0
-448,645,0,0,0,0,0,0,0,0,0,-1,776,379,0,0
-441,645,0,0,0,0,0,0,0,0,0,-1,783,379,0,0
-434,645,0,0,0,0,0,0,0,0,0,-1,790,379,0,0
-427,645,0,0,0,0,0,0,0,0,0,-1,797,379,0,0
-420,645,0,0,0,0,0,0,0,0,0,-1,804,379,0,0
-413,645,0,0,0,0,0,0,0,0,0,-1,811,379,0,0
-406,645,0,0,0,0,0,0,0,0,0,-1,818,379,0,0
-399,645,0,0,0,0,0,0,0,0,0,-1,825,379,0,0
-392,645,0,0,0,0,0,0,0,0,0,-1,832,379,0,0
-385,645,0,0,0,0,0,0,0,0,0,-1,839,379,0,0
-378,645,0,0,0,0,0,0,0,0,0,-1,846,379,0,0
-371,645,0,0,0,0,0,0,0,0,0,-1,853,379,0,0
-364,645,0,0,0,0,0,0,0,0,0,-1,860,379,0,0
-357,645,0,0,0,0,0,0,0,0,0,-1,867,379,0,0
-350,645,0,0,0,0,0,0,0,0,0,-1,874,379,0,0
-343,645,0,0,0,0,0,0,0,0,0,-1,881,379,0,0
-336,645,0,0,0,0,0,0,0,0,0,-1,888,379,0,0
-329,645,0,0,0,0,0,0,0,0,0,-1,895,379,0,0
-322,645,0,0,0,0,0,0,0,0,0,-1,902,379,0,0
-315,645,0,0,0,0,0,0,0,0,0,-1,909,379,0,0
-308,645,0,0,0,0,0,0,0,0,0,-1,916,379,0,0
-301,645,0,0,0,0,0,0,0,0,0,-1,923,379,0,0
-294,645,0,0,0,0,0,0,0,0,0,-1,930,379,0,0
-287,645,0,0,0,0,0,0,0,0,0,-1,937,379,0,0
-280,645,0,0,0,0,0,0,0,0,0,-1,944,379,0,0
-273,645,0,0,0,0,0,0,0,0,0,-1,951,379,0,0
-266,645,0,0,0,0,0,0,0,0,0,-1,958,379,0,0
-259,645,0,0,0,0,0,0,0,0,0,-1,965,379,0,0
-252,645,10.0122,-9.04193,0,0,0,0,0,0,0,-1,972,379,10.0122,9.04192
-245,645,-3.15631,-11.1812,0,0,0,0,0,0,0,-1,979,379,-3.15633,11.1812
-238,645,-2.591,-10.3983,0,0,0,0,0,0,0,-1,986,379,-2.59098,10.3983
-231,645,-1.71124,-10.0034,0,0,0,0,0,0,0,-1,993,379,-1.71127,10.0033
-224,645,-2.58899,-7.38031,0,0,0,0,0,0,0,-1,1000,379,-2.58896,7.38031
-217,645,-3.33527,-5.9166,0,0,0,0,0,0,0,-1,1007,379,-3.33529,5.91658
-210,645,0.728638,-13.0316,0,0,0,0,0,0,0,-1,1014,379,0.728654,13.0316
-203,645,1.53198,-12.3115,0,0,0,0,0,0,0,-1,1021,379,1.53198,12.3115
-196,645,2.30298,-11.7168,0,0,0,0,0,0,0,-1,1028,379,2.30292,11.7168
-189,645,3.14294,-11.3177,0,0,0,0,0,0,0,-1,1035,379,3.14296,11.3178
-182,645,3.91882,-10.224,0,0,0,0,0,0,0,-1,1042,379,3.91878,10.224
-175,645,2.92468,-11.5233,0,0,0,0,0,0,0,-1,1049,379,2.92471,11.5233
-168,645,2.41772,-12.0934,0.0306663,-0.0500677,-0.0110668,0.0321559,-0.0515572,-0.133789,0.0487625,0.0430611,1056,379,2.41775,12.0934
-161,645,2.92151,-12.0233,0.0268621,-0.0408611,-0.009941,0.0282912,-0.0422901,-0.142777,0.0410164,0.0438406,1063,379,2.92157,12.0232
-154,645,3.0282,-11.5068,0,0,0,0,0,0,0,-1,1070,379,3.02823,11.5068
-147,645,2.98462,-11.6782,0.0184885,-0.0215301,-0.0078579,0.0199762,-0.0230177,-0.187104,0.0248432,0.0405126,1077,379,2.98457,11.6782
-140,645,2.80261,-11.8324,0.0143693,-0.0128771,-0.00686613,0.0160018,-0.0145096,-0.233422,0.0176228,0.0352577,1084,379,2.80256,11.8324
-133,645,2.83691,-11.9518,0.0106615,-0.00521546,-0.00604826,0.0127031,-0.00725701,-0.325534,0.0116661,0.0295567,1091,379,2.83686,11.9518
-126,645,2.85767,-12.0486,0.00749608,0.00106708,-0.00540682,0.0105718,-0.00200863,-0.517205,0.00780405,0.0238359,1098,379,2.85766,12.0486
-119,645,2.83557,-12.1614,0.00469348,0.00730166,-0.00475272,0.010926,0.00106918,-0.919297,0.00695502,0.0163781,1105,379,2.83558,12.1614
-112,645,2.82056,-12.3109,0.00225699,0.0117297,-0.00400215,0.0131942,0.000792514,-1.22001,0.0085442,0.0112045,1112,379,2.82056,12.3109
-105,645,2.78284,-12.417,0.00124338,0.0126327,-0.00388171,0.0138298,4.62458e-05,-1.27165,0.00920451,0.0112769,1119,379,2.78279,12.417
-98,645,2.75256,-12.4973,-0.000217771,0.013163,-0.00342075,0.0139868,-0.00104156,-1.33448,0.00969038,0.0128699,1126,379,2.75256,12.4973
-91,645,2.75684,-12.586,-3.33122e-05,0.0117367,-0.00301246,0.0124629,-0.000759525,-1.33424,0.00857303,0.0130579,1133,379,2.75685,12.586
-84,645,2.74829,-12.6772,-6.9109e-06,0.00992869,-0.00251052,0.010527,-0.000605236,-1.33683,0.0072282,0.012016,1140,379,2.74825,12.6772
-77,645,2.71948,-12.7766,-1.06612e-05,0.00788401,-0.00205682,0.00838774,-0.000514388,-1.33062,0.00577094,0.0106717,1147,379,2.71945,12.7766
-70,645,2.7196,-12.8609,-0.000120076,0.0062858,-0.00160522,0.00666553,-0.000499811,-1.3385,0.00461931,0.0102427,1154,379,2.71957,12.8609
-63,645,2.71399,-12.9206,0.000322468,0.00535424,-0.00175385,0.00590523,-0.000228515,-1.2664,0.00401516,0.0111172,1161,379,2.71399,12.9206
-56,645,2.70496,-12.9643,0.000617007,0.00326087,-0.00151614,0.00395046,-7.25746e-05,-1.14394,0.00265816,0.0125573,1168,379,2.70493,12.9643
-49,645,2.69238,-13.0231,0.00114259,0.00136747,-0.00123806,0.00249818,1.18776e-05,-0.830685,0.00166151,0.0106063,1175,379,2.69236,13.0231
-42,645,2.67944,-13.0977,0.00158543,0.00140771,-0.000946694,0.00244742,0.000545711,-0.738603,0.00148355,0.00992562,1182,379,2.67943,13.0977
-35,645,2.67725,-13.1633,0.00190512,0.00153143,-0.00104493,0.00277979,0.000656774,-0.696928,0.00167768,0.00986162,1189,379,2.67726,13.1633
-28,645,2.65833,-13.226,0.00219467,0.00161776,-0.00136889,0.00330516,0.000507267,-0.681557,0.00205532,0.00815395,1196,379,2.65827,13.226
-21,645,2.64502,-13.2478,0.00245538,0.00135468,-0.00142956,0.00343687,0.000373189,-0.601653,0.00217754,0.00974517,1203,379,2.645,13.2478
-14,645,2.65259,-13.2843,0.00247192,0.00136363,-0.00150433,0.00352092,0.000314628,-0.608926,0.00224975,0.00914357,1210,379,2.65261,13.2843
-7,645,2.65076,-13.3568,0.00225076,0.00131857,-0.00152956,0.00338367,0.000185662,-0.637507,0.00219651,0.0130253,1217,379,2.65077,13.3568
0,645,2.61328,-13.3922,0.00205793,0.00128058,-0.00153196,0.00324975,8.87549e-05,-0.661165,0.00213753,0.0259948,1224,379,2.61323,13.3922
7,645,2.61096,-13.3864,0.00179645,0.00122873,-0.00146742,0.00300722,1.79645e-05,-0.689857,0.00199885,0.0171323,1231,379,2.61101,13.3864
14,645,2.62561,-13.3994,0.00146306,0.00115097,-0.00134656,0.00266258,-4.85553e-05,-0.727715,0.00179146,0.015636,1238,379,2.62559,13.3994
21,645,2.60889,-13.4321,0.00116116,0.00115028,-0.00118251,0.00233824,-2.67961e-05,-0.783097,0.00156784,0.0103876,1245,379,2.60889,13.4321
28,645,2.60522,-13.4557,0.00101055,0.00108264,-0.000905647,0.00195296,0.000140234,-0.805289,0.00125784,0.00895723,1252,379,2.60529,13.4557
35,645,2.59717,-13.4705,0.000936627,0.000921515,-0.000461943,0.00139108,0.000467066,-0.77722,0.000817454,0.00849585,1259,379,2.59723,13.4705
42,645,2.59424,-13.4783,0.00072765,0.000811577,-6.927e-05,0.000850603,0.000688624,-1.05773,0.000521529,0.00880136,1266,379,2.59422,13.4783
49,645,2.62524,-13.4675,0.000609795,0.000753866,0.000262815,0.000954339,0.000409322,0.919159,0.000552841,0.0118011,1273,379,2.62529,13.4675
56,645,2.62622,-13.4541,0.00070647,0.000508787,0.000547718,0.00116419,5.10633e-05,0.696129,0.00075968,0.011749,1280,379,2.62621,13.4541
63,645,2.60132,-13.4546,0.0010374,2.55727e-05,0.000806305,0.00148336,-0.000420395,0.505221,0.00115483,0.0115888,1287,379,2.6013,13.4546
70,645,2.58716,-13.4291,0.00140548,-0.000595806,0.00109667,0.00188941,-0.00107974,0.415576,0.00173535,0.015364,1294,379,2.5872,13.4291
77,645,2.57263,-13.4097,0.0013911,-0.00094978,0.00149491,0.00211927,-0.00167794,0.45327,0.00219725,0.0177982,1301,379,2.57265,13.4097
84,645,2.58386,-13.3935,0.00111222,-0.00120744,0.00147078,0.00182547,-0.00192068,0.451529,0.00216307,0.0134516,1308,379,2.58389,13.3935
91,645,2.53906,-13.3871,0.0008915,-0.00152346,0.00149374,0.00160477,-0.00223673,0.445489,0.00222787,0.015253,1315,379,2.53907,13.3871
98,645,2.56323,-13.3307,0.000589009,-0.00178003,0.00140556,0.00124261,-0.00243363,0.435267,0.00215929,0.0135131,1322,379,2.5632,13.3306
105,645,2.57483,-13.2738,2.66124e-05,-0.00194824,0.00132909,0.000694932,-0.00261656,0.465917,0.00201634,0.010226,1329,379,2.57478,13.2738
112,645,2.547,-13.2403,-0.000556723,-0.00199434,0.00126314,0.000177814,-0.00272887,0.526717,0.00188132,0.00878458,1336,379,2.54697,13.2403
119,645,2.54907,-13.1932,-0.00114913,-0.00192384,0.00122371,-0.000252933,-0.00282003,0.632115,0.00180164,0.00870305,1343,379,2.54902,13.1932
126,645,2.53772,-13.1433,-0.00175279,-0.00173161,0.00118181,-0.000560345,-0.00292406,0.789878,0.00179204,0.0110336,1350,379,2.53772,13.1433
133,645,2.53748,-13.0736,-0.00235441,-0.00134959,0.00109578,-0.000646528,-0.00305747,1.00035,0.00186063,0.0123237,1357,379,2.53747,13.0736
140,645,2.53333,-12.9948,-0.0027241,-0.000830445,0.00098825,-0.000408653,-0.00314589,1.1674,0.00197518,0.0122779,1364,379,2.53338,12.9948
147,645,2.52222,-12.9427,-0.00281037,-0.000452638,0.00106873,-4.03069e-05,-0.0032227,1.20258,0.00213516,0.0131661,1371,379,2.52227,12.9427
154,645,2.52197,-12.8846,-0.0027902,0.000114878,0.00105458,0.000457335,-0.00313265,1.25681,0.00225638,0.0116202,1378,379,2.52199,12.8846
161,645,2.51428,-12.8123,-0.00285241,0.000427687,0.00105469,0.000737545,-0.00316227,1.28505,0.00239223,0.0136695,1385,379,2.51427,12.8123
168,645,2.50256,-12.7267,-0.00294195,0.000755979,0.00105693,0.00103675,-0.00322272,1.31115,0.00256489,0.0163726,1392,379,2.50259,12.7267
175,645,2.52661,-12.6461,-0.00280283,0.000958701,0.00119867,0.0013082,-0.00315234,1.28709,0.00264764,0.0139994,1399,379,2.52666,12.6461
182,645,2.50903,-12.579,-0.00181229,0.000648996,0.00125006,0.00117253,-0.00233582,1.17418,0.00206233,0.00973107,1406,379,2.509,12.579
189,645,2.4928,-12.4699,-0.000754796,0.000734241,0.00169208,0.00183835,-0.00185891,0.992653,0.00213463,0.0110018,1413,379,2.49276,12.4699
196,645,2.46497,-12.3952,-0.000647205,0.000400114,0.00173783,0.00169147,-0.00193856,0.931736,0.00209741,0.0115501,1420,379,2.46502,12.3952
203,645,2.43909,-12.2841,-0.00093954,-0.000296841,0.00170308,0.00111494,-0.00235132,0.878646,0.00204324,0.0106465,1427,379,2.43913,12.2841
210,645,2.45129,-12.1823,-0.0012264,-0.000487083,0.00175565,0.0009374,-0.00265088,0.889159,0.00214899,0.013784,1434,379,2.45131,12.1823
217,645,2.44678,-12.0905,-0.00138623,-0.000180744,0.00147913,0.000813739,-0.00238071,0.978874,0.00191685,0.0130544,1441,379,2.44677,12.0906
224,645,2.42029,-11.954,-0.00131144,0.000129973,0.00121452,0.000821528,-0.002003,1.05318,0.00167762,0.0118876,1448,379,2.42025,11.954
231,645,2.40442,-11.8002,-0.000629193,0.00064335,0.00115732,0.00132777,-0.00131361,1.03674,0.00152501,0.0131686,1455,379,2.40446,11.8002
238,645,2.39038,-11.686,0.00192054,0.000936489,0.00155627,0.00306071,-0.000203686,0.632292,0.00211165,0.0107775,1462,379,2.39038,11.686
245,645,2.39148,-11.5588,0.00367771,0.00148001,0.0016561,0.00456636,0.000591362,0.492489,0.00286752,0.0114878,1469,379,2.3915,11.5588
252,645,2.41223,-11.3839,0.00613958,0.00223895,0.00201026,0.00699014,0.00138839,0.400266,0.00427315,0.0174267,1476,379,2.41228,11.3839
259,645,2.37012,-11.2055,0.0093558,0.00338599,0.000403297,0.00938292,0.00335887,0.0671494,0.0054896,0.0272093,1483,379,2.37016,11.2055
266,645,2.34155,-11.0558,0.0127142,0.00474767,-0.000247305,0.0127219,0.00474,-0.0310031,0.00742405,0.0256871,1490,379,2.34151,11.0558
273,645,2.33594,-10.9395,0.0165303,0.00577484,-0.0010942,0.0166405,0.00566465,-0.100364,0.00976913,0.0259837,1497,379,2.33592,10.9395
280,645,2.51245,-10.6922,0.0206878,0.00750177,-0.00189089,0.0209536,0.00723597,-0.139653,0.012289,0.0465291,1504,379,2.51241,10.6922
287,645,3.17151,-10.4961,0.0243699,0.00908208,-0.00347098,0.025121,0.00833093,-0.213123,0.0147752,0.0494054,1511,379,3.17151,10.4961
294,645,3.76416,-10.3552,0,0,0,0,0,0,0,-1,1518,379,3.76416,10.3552
301,645,7.27271,-4.60092,0,0,0,0,0,0,0,-1,1525,379,7.27267,4.60094
308,645,7.99756,-3.75702,0,0,0,0,0,0,0,-1,1532,379,7.99753,3.75702
315,645,8.72241,-2.91312,0,0,0,0,0,0,0,-1,1539,379,8.72239,2.91311
322,645,2.86023,-9.90695,0,0,0,0,0,0,0,-1,1546,379,2.86021,9.90694
329,645,2.08398,-8.24109,0,0,0,0,0,0,0,-1,1553,379,2.084,8.24109
336,645,0.61792,-6.51047,0,0,0,0,0,0,0,-1,1560,379,0.617879,6.51047
343,645,3.48962,-5.22675,0,0,0,0,0,0,0,-1,1567,379,3.48959,5.22675
350,645,3.93213,-5.72198,0,0,0,0,0,0,0,-1,1574,379,3.9321,5.72198
357,645,1.63928,-6.465,0,0,0,0,0,0,0,-1,1581,379,1.63926,6.46499
364,645,-0.0794678,-3.22021,0,0,0,0,0,0,0,-1,1588,379,-0.0794987,3.22021
371,645,0,0,0,0,0,0,0,0,0,-1,1595,379,0,0
378,645,0,0,0,0,0,0,0,0,0,-1,1602,379,0,0
385,645,0,0,0,0,0,0,0,0,0,-1,1609,379,0,0
392,645,0,0,0,0,0,0,0,0,0,-1,1616,379,0,0
399,645,0,0,0,0,0,0,0,0,0,-1,1623,379,0,0
406,645,0,0,0,0,0,0,0,0,0,-1,1630,379,0,0
413,645,0,0,0,0,0,0,0,0,0,-1,1637,379,0,0
420,645,0,0,0,0,0,0,0,0,0,-1,1644,379,0,0
427,645,0,0,0,0,0,0,0,0,0,-1,1651,379,0,0
434,645,0,0,0,0,0,0,0,0,0,-1,1658,379,0,0
441,645,0,0,0,0,0,0,0,0,0,-1,1665,379,0,0
448,645,0,0,0,0,0,0,0,0,0,-1,1672,379,0,0
455,645,0,0,0,0,0,0,0,0,0,-1,1679,379,0,0
462,645,0,0,0,0,0,0,0,0,0,-1,1686,379,0,0
469,645,0,0,0,0,0,0,0,0,0,-1,1693,379,0,0
476,645,0,0,0,0,0,0,0,0,0,-1,1700,379,0,0
483,645,0,0,0,0,0,0,0,0,0,-1,1707,379,0,0
490,645,0,0,0,0,0,0,0,0,0,-1,1714,379,0,0
497,645,0,0,0,0,0,0,0,0,0,-1,1721,379,0,0
504,645,0,0,0,0,0,0,0,0,0,-1,1728,379,0,0
511,645,0,0,0,0,0,0,0,0,0,-1,1735,379,0,0
518,645,0,0,0,0,0,0,0,0,0,-1,1742,379,0,0
525,645,0,0,0,0,0,0,0,0,0,-1,1749,379,0,0
532,645,0,0,0,0,0,0,0,0,0,-1,1756,379,0,0
539,645,0,0,0,0,0,0,0,0,0,-1,1763,379,0,0
546,645,0,0,0,0,0,0,0,0,0,-1,1770,379,0,0
553,645,0,0,0,0,0,0,0,0,0,-1,1777,379,0,0
560,645,0,0,0,0,0,0,0,0,0,-1,1784,379,0,0
567,645,0,0,0,0,0,0,0,0,0,-1,1791,379,0,0
574,645,0,0,0,0,0,0,0,0,0,-1,1798,379,0,0
581,645,0,0,0,0,0,0,0,0,0,-1,1805,379,0,0
588,645,0,0,0,0,0,0,0,0,0,-1,1812,379,0,0
595,645,0,0,0,0,0,0,0,0,0,-1,1819,379,0,0
602,645,0,0,0,0,0,0,0,0,0,-1,1826,379,0,0
609,645,0,0,0,0,0,0,0,0,0,-1,1833,379,0,0
616,645,0,0,0,0,0,0,0,0,0,-1,1840,379,0,0
623,645,0,0,0,0,0,0,0,0,0,-1,1847,379,0,0
630,645,0,0,0,0,0,0,0,0,0,-1,1854,379,0,0
637,645,0,0,0,0,0,0,0,0,0,-1,1861,379,0,0
644,645,0,0,0,0,0,0,0,0,0,-1,1868,379,0,0
651,645,0,0,0,0,0,0,0,0,0,-1,1875,379,0,0
658,645,0,0,0,0,0,0,0,0,0,-1,1882,379,0,0
665,645,0,0,0,0,0,0,0,0,0,-1,1889,379,0,0
672,645,0,0,0,0,0,0,0,0,0,-1,1896,379,0,0
679,645,0,0,0,0,0,0,0,0,0,-1,1903,379,0,0
686,645,0,0,0,0,0,0,0,0,0,-1,1910,379,0,0
693,645,0,0,0,0,0,0,0,0,0,-1,1917,379,0,0
700,645,0,0,0,0,0,0,0,0,0,-1,1924,379,0,0
707,645,0,0,0,0,0,0,0,0,0,-1,1931,379,0,0
714,645,0,0,0,0,0,0,0,0,0,-1,1938,379,0,0
721,645,0,0,0,0,0,0,0,0,0,-1,1945,379,0,0
728,645,0,0,0,0,0,0,0,0,0,-1,1952,379,0,0
735,645,0,0,0,0,0,0,0,0,0,-1,1959,379,0,0
742,645,0,0,0,0,0,0,0,0,0,-1,1966,379,0,0
749,645,0,0,0,0,0,0,0,0,0,-1,1973,379,0,0
756,645,0,0,0,0,0,0,0,0,0,-1,1980,379,0,0
763,645,0,0,0,0,0,0,0,0,0,-1,1987,379,0,0
770,645,0,0,0,0,0,0,0,0,0,-1,1994,379,0,0
777,645,0,0,0,0,0,0,0,0,0,-1,2001,379,0,0
784,645,0,0,0,0,0,0,0,0,0,-1,2008,379,0,0
791,645,0,0,0,0,0,0,0,0,0,-1,2015,379,0,0
798,645,0,0,0,0,0,0,0,0,0,-1,2022,379,0,0
805,645,0,0,0,0,0,0,0,0,0,-1,2029,379,0,0
812,645,0,0,0,0,0,0,0,0,0,-1,2036,379,0,0
-700,638,0,0,0,0,0,0,0,0,0,-1,524,386,0,0
-693,638,0,0,0,0,0,0,0,0,0,-1,531,386,0,0
-686,638,0,0,0,0,0,0,0,0,0,-1,538,386,0,0
-679,638,0,0,0,0,0,0,0,0,0,-1,545,386,0,0
-672,638,0,0,0,0,0,0,0,0,0,-1,552,386,0,0
-665,638,0,0,0,0,0,0,0,0,0,-1,559,386,0,0
-658,638,0,0,0,0,0,0,0,0,0,-1,566,386,0,0
-651,638,0,0,0,0,0,0,0,0,0,-1,573,386,0,0
-644,638,0,0,0,0,0,0,0,0,0,-1,580,386,0,0
-637,638,0,0,0,0,0,0,0,0,0,-1,587,386,0,0
-630,638,0,0,0,0,0,0,0,0,0,-1,594,386,0,0
-623,638,0,0,0,0,0,0,0,0,0,-1,601,386,0,0
-616,638,0,0,0,0,0,0,0,0,0,-1,608,386,0,0
-609,638,0,0,0,0,0,0,0,0,0,-1,615,386,0,0
-602,638,0,0,0,0,0,0,0,0,0,-1,622,386,0,0
-595,638,0,0,0,0,0,0,0,0,0,-1,629,386,0,0
-588,638,0,0,0,0,0,0,0,0,0,-1,636,386,0,0
-581,638,0,0,0,0,0,0,0,0,0,-1,643,386,0,0
-574,638,0,0,0,0,0,0,0,0,0,-1,650,386,0,0
-567,638,0,0,0,0,0,0,0,0,0,-1,657,386,0,0
-560,638,0,0,0,0,0,0,0,0,0,-1,664,386,0,0
-553,638,0,0,0,0,0,0,0,0,0,-1,671,386,0,0
-546,638,0,0,0,0,0,0,0,0,0,-1,678,386,0,0
-539,638,0,0,0,0,0,0,0,0,0,-1,685,386,0,0
-532,638,0,0,0,0,0,0,0,0,0,-1,692,386,0,0
-525,638,0,0,0,0,0,0,0,0,0,-1,699,386,0,0
-518,638,0,0,0,0,0,0,0,0,0,-1,706,386,0,0
-511,638,0,0,0,0,0,0,0,0,0,-1,713,386,0,0
-504,638,0,0,0,0,0,0,0,0,0,-1,720,386,0,0
-497,638,0,0,0,0,0,0,0,0,0,-1,727,386,0,0
-490,638,0,0,0,0,0,0,0,0,0,-1,734,386,0,0
-483,638,0,0,0,0,0,0,0,0,0,-1,741,386,0,0
-476,638,0,0,0,0,0,0,0,0,0,-1,748,386,0,0
-469,638,0,0,0,0,0,0,0,0,0,-1,755,386,0,0
-462,638,0,0,0,0,0,0,0,0,0,-1,762,386,0,0
-455,638,0,0,0,0,0,0,0,0,0,-1,769,386,0,0
-448,638,0,0,0,0,0,0,0,0,0,-1,776,386,0,0
-441,638,0,0,0,0,0,0,0,0,0,-1,783,386,0,0
-434,638,0,0,0,0,0,0,0,0,0,-1,790,386,0,0
-427,638,0,0,0,0,0,0,0,0,0,-1,797,386,0,0
-420,638,0,0,0,0,0,0,0,0,0,-1,804,386,0,0
-413,638,0,0,0,0,0,0,0,0,0,-1,811,386,0,0
-406,638,0,0,0,0,0,0,0,0,0,-1,818,386,0,0
-399,638,0,0,0,0,0,0,0,0,0,-1,825,386,0,0
-392,638,0,0,0,0,0,0,0,0,0,-1,832,386,0,0
-385,638,0,0,0,0,0,0,0,0,0,-1,839,386,0,0
-378,638,0,0,0,0,0,0,0,0,0,-1,846,386,0,0
-371,638,0,0,0,0,0,0,0,0,0,-1,853,386,0,0
-364,638,0,0,0,0,0,0,0,0,0,-1,860,386,0,0
-357,638,0,0,0,0,0,0,0,0,0,-1,867,386,0,0
-350,638,0,0,0,0,0,0,0,0,0,-1,874,386,0,0
-343,638,0,0,0,0,0,0,0,0,0,-1,881,386,0,0
-336,638,0,0,0,0,0,0,0,0,0,-1,888,386,0,0
-329,638,0,0,0,0,0,0,0,0,0,-1,895,386,0,0
-322,638,0,0,0,0,0,0,0,0,0,-1,902,386,0,0
-315,638,0,0,0,0,0,0,0,0,0,-1,909,386,0,0
-308,638,0,0,0,0,0,0,0,0,0,-1,916,386,0,0
-301,638,0,0,0,0,0,0,0,0,0,-1,923,386,0,0
-294,638,0,0,0,0,0,0,0,0,0,-1,930,386,0,0
-287,638,0,0,0,0,0,0,0,0,0,-1,937,386,0,0
-280,638,0,0,0,0,0,0,0,0,0,-1,944,386,0,0
-273,638,0,0,0,0,0,0,0,0,0,-1,951,386,0,0
-266,638,0.603821,-10.3962,0,0,0,0,0,0,0,-1,958,386,0.603829,10.3962
-259,638,9.24457,-8.64029,0,0,0,0,0,0,0,-1,965,386,9.24457,8.64028
-252,638,8.62463,-8.76974,0,0,0,0,0,0,0,-1,972,386,8.62463,8.76974
-245,638,7.86023,-9.08749,0,0,0,0,0,0,0,-1,979,386,7.86023,9.08748
-238,638,3.05347,-9.05939,0,0,0,0,0,0,0,-1,986,386,3.05344,9.05939
-231,638,-0.0879517,-10.0367,0,0,0,0,0,0,0,-1,993,386,-0.0879783,10.0367
-224,638,-0.990479,-9.01202,0,0,0,0,0,0,0,-1,1000,386,-0.990463,9.01204
-217,638,-0.470337,-14.8554,0,0,0,0,0,0,0,-1,1007,386,-0.470331,14.8554
-210,638,0.0127563,-13.7673,0,0,0,0,0,0,0,-1,1014,386,0.0127578,13.7673
-203,638,0.749573,-12.3973,0,0,0,0,0,0,0,-1,1021,386,0.749547,12.3973
-196,638,1.76477,-11.535,0,0,0,0,0,0,0,-1,1028,386,1.76474,11.535
-189,638,2.26318,-10.9475,0,0,0,0,0,0,0,-1,1035,386,2.26324,10.9475
-182,638,3.00122,-11.6255,0,0,0,0,0,0,0,-1,1042,386,3.00121,11.6256
-175,638,2.88586,-11.5058,0.0219184,-0.0380236,-0.00851381,0.0231042,-0.0392094,-0.138389,0.0363751,0.0397729,1049,386,2.88584,11.5058
-168,638,2.7511,-11.3881,0.0198045,-0.034025,-0.0076196,0.0208623,-0.0350827,-0.137941,0.0326458,0.0312023,1056,386,2.75107,11.3881
-161,638,2.76392,-11.479,0.0172845,-0.0278403,-0.00684605,0.0183002,-0.028856,-0.147299,0.0274521,0.0268052,1063,386,2.76392,11.479
-154,638,2.82861,-11.594,0.0145827,-0.0208558,-0.00615209,0.0156203,-0.0218935,-0.167088,0.0217593,0.0208774,1070,386,2.82865,11.594
-147,638,2.83606,-11.732,0.0116893,-0.0145568,-0.00539408,0.0127547,-0.0156221,-0.194993,0.0164112,0.0168263,1077,386,2.83606,11.732
-140,638,2.77747,-11.8657,0.00893075,-0.00854934,-0.00469048,0.0101098,-0.00972842,-0.246274,0.0114543,0.0134196,1084,386,2.77748,11.8657
-133,638,2.75586,-12.0145,0.00647986,-0.00324108,-0.00411469,0.00798765,-0.00474888,-0.351248,0.00743227,0.0109706,1091,386,2.75583,12.0145
-126,638,2.73804,-12.1041,0.00441155,0.00110745,-0.00368697,0.00679968,-0.00128067,-0.574771,0.00501482,0.0128479,1098,386,2.73804,12.1041
-119,638,2.71667,-12.2043,0.00258459,0.00544489,-0.00328028,0.00759323,0.000436259,-0.990967,0.00492318,0.0138423,1105,386,2.71663,12.2044
-112,638,2.72375,-12.3119,0.000987043,0.00852743,-0.0027613,0.00943047,8.39978e-05,-1.25472,0.00625917,0.0127952,1112,386,2.72376,12.3119
-105,638,2.69385,-12.4269,0.00038866,0.00913179,-0.00270793,0.00990255,-0.000382097,-1.2935,0.00673268,0.0156885,1119,386,2.69388,12.4269
-98,638,2.6908,-12.5283,-0.000395589,0.00928105,-0.00242488,0.00985469,-0.000969237,-1.3385,0.00691555,0.0158488,1126,386,2.69085,12.5283
-91,638,2.65991,-12.624,-0.000200312,0.00824691,-0.00214642,0.00876102,-0.000714423,-1.33571,0.0060928,0.0124702,1133,386,2.65987,12.624
-84,638,2.63049,-12.7037,-0.00012253,0.00696645,-0.00177476,0.00738594,-0.000542027,-1.33869,0.00511422,0.0138011,1140,386,2.63048,12.7038
-77,638,2.64038,-12.7818,-7.56061e-05,0.00551012,-0.00144659,0.00586253,-0.000428011,-1.33184,0.00405855,0.0109519,1147,386,2.64041,12.7818
-70,638,2.65576,-12.8561,-8.59574e-05,0.00437666,-0.00110293,0.00463437,-0.000343662,-1.34126,0.00321027,0.00988213,1154,386,2.6558,12.8561
-63,638,2.63965,-12.9211,2.06882e-05,0.00366595,-0.00106786,0.00395573,-0.000269098,-1.30581,0.00273128,0.0108628,1161,386,2.63964,12.9211
-56,638,2.62292,-12.9966,7.6907e-05,0.00234842,-0.000859521,0.00263699,-0.000211668,-1.24688,0.00183263,0.0150927,1168,386,2.62291,12.9966
-49,638,2.62585,-13.0692,0.000384825,0.00119286,-0.000618089,0.00152726,5.04214e-05,-1.07487,0.00100179,0.0133081,1175,386,2.62582,13.0692
-42,638,2.62708,-13.1158,0.000692471,0.00110737,-0.000379487,0.00133241,0.000467434,-1.03554,0.000780598,0.0119594,1182,386,2.62709,13.1158
-35,638,2.63208,-13.1772,0.000926344,0.00115488,-0.00040078,0.00145736,0.000623861,-0.924271,0.000844307,0.0102409,1189,386,2.63206,13.1772
-28,638,2.63354,-13.2352,0.00116862,0.00097328,-0.000543393,0.00162305,0.000518848,-0.696479,0.000957166,0.00978007,1196,386,2.63352,13.2352
-21,638,2.60718,-13.2473,0.0013855,0.00073714,-0.000553277,0.00170258,0.000420066,-0.520393,0.00102416,0.0114018,1203,386,2.6072,13.2473
-14,638,2.60095,-13.2798,0.00148426,0.000633894,-0.000603281,0.00179713,0.000321019,-0.478434,0.00110671,0.0117268,1210,386,2.60092,13.2798
-7,638,2.59119,-13.3827,0.001509,0.00057826,-0.00069169,0.0018773,0.000209961,-0.48928,0.00118775,0.017582,1217,386,2.59124,13.3827
0,638,2.62305,-13.4365,0.00149161,0.000494145,-0.000725752,0.00187348,0.000112281,-0.484358,0.00121329,0.0320569,1224,386,2.62301,13.4365
7,638,2.60803,-13.4249,0.00143249,0.000336913,-0.000679964,0.00175787,1.15322e-05,-0.446321,0.00116809,0.0248698,1231,386,2.60802,13.4249
14,638,2.59045,-13.3745,0.00130393,9.01562e-05,-0.000598855,0.00154965,-0.000155564,-0.389368,0.00108867,0.0137483,1238,386,2.5904,13.3744
21,638,2.58447,-13.421,0.00119249,9.44224e-05,-0.000529089,0.00140593,-0.000119022,-0.383451,0.000979377,0.0114237,1245,386,2.58449,13.421
28,638,2.58582,-13.4465,0.00120314,4.91715e-06,-0.000342007,0.00129389,-8.58287e-05,-0.259357,0.000892577,0.00896018,1252,386,2.58576,13.4465
35,638,2.58911,-13.4691,0.0013171,-9.57024e-05,1.95654e-06,0.0013171,-9.57052e-05,0.00138486,0.000911645,0.00986788,1259,386,2.58914,13.4691
42,638,2.60791,-13.4747,0.0013598,-0.000243185,0.000316549,0.00142004,-0.000303431,0.188073,0.00106238,0.0095753,1266,386,2.60791,13.4747
49,638,2.6311,-13.4444,0.00144014,-0.000219497,0.000613301,0.00164218,-0.00042154,0.318238,0.00125905,0.00871221,1273,386,2.63114,13.4444
56,638,2.62964,-13.4408,0.00158066,-0.000315047,0.000828976,0.00189202,-0.00062641,0.359297,0.00151398,0.0116487,1280,386,2.62967,13.4408
63,638,2.62195,-13.4599,0.00184897,-0.000532029,0.00101612,0.00222366,-0.000906713,0.353269,0.00185987,0.0137658,1287,386,2.62192,13.4599
70,638,2.59192,-13.4474,0.00209119,-0.000917126,0.00121916,0.00252323,-0.00134916,0.340562,0.00226972,0.017656,1294,386,2.59196,13.4474
77,638,2.59216,-13.4125,0.00223609,-0.00112099,0.00142365,0.00275852,-0.00164342,0.351709,0.0025685,0.0176897,1301,386,2.59214,13.4125
84,638,2.6283,-13.3712,0.00218195,-0.00129993,0.0012959,0.00261131,-0.0017293,0.319943,0.00252324,0.0124587,1308,386,2.62829,13.3713
91,638,2.60205,-13.3509,0.00199598,-0.00151644,0.00126388,0.00240349,-0.00192394,0.311901,0.00250355,0.0126059,1315,386,2.60204,13.3509
98,638,2.59778,-13.3322,0.00173072,-0.00183199,0.0012046,0.00209978,-0.00220105,0.297296,0.00248332,0.0122064,1322,386,2.59784,13.3322
105,638,2.58813,-13.2912,0.00139964,-0.00205089,0.00103573,0.00168666,-0.0023379,0.270331,0.0023337,0.00984199,1329,386,2.58814,13.2912
112,638,2.58606,-13.2516,0.00103267,-0.00219397,0.000906698,0.00126999,-0.0024313,0.256008,0.00217172,0.00907982,1336,386,2.5861,13.2516
119,638,2.60059,-13.2188,0.000697524,-0.00225371,0.000818694,0.000909421,-0.00246561,0.253266,0.00201644,0.0115443,1343,386,2.60064,13.2188
126,638,2.60889,-13.1683,0.000331619,-0.00235721,0.000753325,0.000528292,-0.00255389,0.255372,0.00190329,0.0148901,1350,386,2.60887,13.1683
133,638,2.60657,-13.0823,-7.03516e-05,-0.00219752,0.000632341,0.000103427,-0.00237129,0.268197,0.00161644,0.0151577,1357,386,2.60652,13.0823
140,638,2.60474,-13.002,-0.000353804,-0.00188535,0.000492583,-0.000209057,-0.0020301,0.285807,0.00128938,0.0161991,1364,386,2.60478,13.002
147,638,2.61401,-12.9531,-0.000429205,-0.00151358,0.000510011,-0.000227028,-0.00171576,0.377414,0.00107617,0.0181526,1371,386,2.61402,12.9531
154,638,2.61816,-12.9049,-0.000444178,-0.00108089,0.000467213,-0.000197168,-0.0013279,0.486335,0.00082741,0.0160076,1378,386,2.61814,12.9049
161,638,2.58752,-12.8152,-0.000510515,-0.000760853,0.000472899,-0.000146501,-0.00112487,0.656023,0.000706162,0.0187971,1385,386,2.58751,12.8152
168,638,2.58752,-12.7268,-0.000620609,-0.000367949,0.000483734,5.67874e-06,-0.000994238,0.913123,0.000664726,0.0236231,1392,386,2.58754,12.7268
175,638,2.62292,-12.6582,-0.000675163,-2.34435e-05,0.000565457,0.000303327,-0.00100193,1.04679,0.000788752,0.0186353,1399,386,2.62295,12.6582
182,638,2.59961,-12.5817,-0.000435346,7.92419e-05,0.000543397,0.00042318,-0.000779284,1.00651,0.000704318,0.0123058,1406,386,2.59966,12.5817
189,638,2.56067,-12.4847,-6.76498e-05,0.000341557,0.00083212,0.000993859,-0.000719952,0.905948,0.000993673,0.0111505,1413,386,2.5607,12.4847
196,638,2.57471,-12.3989,-0.000172271,0.000282551,0.00100612,0.00108664,-0.000976357,0.896545,0.00119164,0.0144896,1420,386,2.57475,12.3989
203,638,2.5564,-12.3218,-0.000511237,-0.000164205,0.00110579,0.000781595,-0.00145704,0.863222,0.00131194,0.0198422,1427,386,2.55644,12.3218
210,638,2.53931,-12.2114,-0.000820605,-0.000190008,0.00123504,0.000769347,-0.00177996,0.910376,0.0015099,0.0165693,1434,386,2.53931,12.2114
217,638,2.53247,-12.1167,-0.000987308,0.000105747,0.00107731,0.00076723,-0.00164879,1.02014,0.00142551,0.0122644,1441,386,2.5325,12.1167
224,638,2.52661,-11.9746,-0.000977017,0.000381283,0.000949886,0.000869835,-0.00146557,1.09575,0.00136289,0.010272,1448,386,2.52661,11.9746
231,638,2.505,-11.83,-0.000444173,0.000815941,0.00100309,0.00137043,-0.000998664,1.06582,0.0013734,0.0112731,1455,386,2.50504,11.83
238,638,2.50085,-11.7043,0.00147276,0.00112848,0.00143956,0.00275043,-0.000149189,0.725892,0.00188532,0.01192,1462,386,2.50086,11.7043
245,638,2.49475,-11.5777,0.00277075,0.00161366,0.00163072,0.00392252,0.000461895,0.614935,0.00247545,0.0133819,1469,386,2.49477,11.5777
252,638,2.48682,-11.4513,0.00453435,0.00226698,0.00200703,0.00570575,0.00109558,0.528309,0.00349634,0.015207,1476,386,2.48681,11.4513
259,638,2.47668,-11.3251,0.00680579,0.00318791,0.00108483,0.00710614,0.00288755,0.270101,0.00412666,0.0147563,1483,386,2.47666,11.3251
266,638,2.44519,-11.1843,0.00910196,0.00423089,0.000806703,0.00923208,0.00410077,0.159925,0.0053412,0.0113351,1490,386,2.44525,11.1843
273,638,2.44617,-11.0506,0.0117269,0.00501858,0.00042763,0.0117541,0.00499143,0.063404,0.00681185,0.0110092,1497,386,2.44618,11.0506
280,638,2.50854,-10.8215,0.0146155,0.00637589,0.000205093,0.0146206,0.00637078,0.0248706,0.00846442,0.0224462,1504,386,2.50849,10.8215
287,638,2.94568,-10.3795,0.017088,0.00756913,-0.000557453,0.0171205,0.00753659,-0.0582974,0.00990806,0.0393691,1511,386,2.94564,10.3795
294,638,3.23218,-10.0163,0,0,0,0,0,0,0,-1,1518,386,3.23222,10.0163
301,638,2.5918,-10.2452,0,0,0,0,0,0,0,-1,1525,386,2.59179,10.2452
308,638,2.4917,-9.99762,0,0,0,0,0,0,0,-1,1532,386,2.49173,9.99761
315,638,2.33093,-10.0519,0,0,0,0,0,0,0,-1,1539,386,2.33091,10.0519
322,638,2.29468,-9.94553,0,0,0,0,0,0,0,-1,1546,386,2.29464,9.94551
329,638,2.87781,-9.30051,0,0,0,0,0,0,0,-1,1553,386,2.87775,9.3005
336,638,2.02441,-6.86432,0,0,0,0,0,0,0,-1,1560,386,2.0244,6.86431
343,638,1.04028,-10.3387,0,0,0,0,0,0,0,-1,1567,386,1.04031,10.3387
350,638,2.3783,-11.33,0,0,0,0,0,0,0,-1,1574,386,2.37831,11.33
357,638,0.130371,-3.02618,0,0,0,0,0,0,0,-1,1581,386,0.130345,3.0262
364,638,3.78149,-6.45215,0,0,0,0,0,0,0,-1,1588,386,3.78155,6.45216
371,638,4.18604,-6.71164,0,0,0,0,0,0,0,-1,1595,386,4.18598,6.71164
378,638,4.59045,-6.97113,0,0,0,0,0,0,0,-1,1602,386,4.5904,6.97112
385,638,0,0,0,0,0,0,0,0,0,-1,1609,386,0,0
392,638,0,0,0,0,0,0,0,0,0,-1,1616,386,0,0
399,638,0,0,0,0,0,0,0,0,0,-1,1623,386,0,0
406,638,0,0,0,0,0,0,0,0,0,-1,1630,386,0,0
413,638,0,0,0,0,0,0,0,0,0,-1,1637,386,0,0
420,638,0,0,0,0,0,0,0,0,0,-1,1644,386,0,0
427,638,0,0,0,0,0,0,0,0,0,-1,1651,386,0,0
434,638,0,0,0,0,0,0,0,0,0,-1,1658,386,0,0
441,638,0,0,0,0,0,0,0,0,0,-1,1665,386,0,0
448,638,0,0,0,0,0,0,0,0,0,-1,1672,386,0,0
455,638,0,0,0,0,0,0,0,0,0,-1,1679,386,0,0
462,638,0,0,0,0,0,0,0,0,0,-1,1686,386,0,0
469,638,0,0,0,0,0,0,0,0,0,-1,1693,386,0,0
476,638,0,0,0,0,0,0,0,0,0,-1,1700,386,0,0
483,638,0,0,0,0,0,0,0,0,0,-1,1707,386,0,0
490,638,0,0,0,0,0,0,0,0,0,-1,1714,386,0,0
497,638,0,0,0,0,0,0,0,0,0,-1,1721,386,0,0
504,638,0,0,0,0,0,0,0,0,0,-1,1728,386,0,0
511,638,0,0,0,0,0,0,0,0,0,-1,1735,386,0,0
518,638,0,0,0,0,0,0,0,0,0,-1,1742,386,0,0
525,638,0,0,0,0,0,0,0,0,0,-1,1749,386,0,0
532,638,0,0,0,0,0,0,0,0,0,-1,1756,386,0,0
539,638,0,0,0,0,0,0,0,0,0,-1,1763,386,0,0
546,638,0,0,0,0,0,0,0,0,0,-1,1770,386,0,0
553,638,0,0,0,0,0,0,0,0,0,-1,1777,386,0,0
560,638,0,0,0,0,0,0,0,0,0,-1,1784,386,0,0
567,638,0,0,0,0,0,0,0,0,0,-1,1791,386,0,0
574,638,0,0,0,0,0,0,0,0,0,-1,1798,386,0,0
581,638,0,0,0,0,0,0,0,0,0,-1,1805,386,0,0
588,638,0,0,0,0,0,0,0,0,0,-1,1812,386,0,0
595,638,0,0,0,0,0,0,0,0,0,-1,1819,386,0,0
602,638,0,0,0,0,0,0,0,0,0,-1,1826,386,0,0
609,638,0,0,0,0,0,0,0,0,0,-1,1833,386,0,0
616,638,0,0,0,0,0,0,0,0,0,-1,1840,386,0,0
623,638,0,0,0,0,0,0,0,0,0,-1,1847,386,0,0
630,638,0,0,0,0,0,0,0,0,0,-1,1854,386,0,0
637,638,0,0,0,0,0,0,0,0,0,-1,1861,386,0,0
644,638,0,0,0,0,0,0,0,0,0,-1,1868,386,0,0
651,638,0,0,0,0,0,0,0,0,0,-1,1875,386,0,0
658,638,0,0,0,0,0,0,0,0,0,-1,1882,386,0,0
665,638,0,0,0,0,0,0,0,0,0,-1,1889,386,0,0
672,638,0,0,0,0,0,0,0,0,0,-1,1896,386,0,0
679,638,0,0,0,0,0,0,0,0,0,-1,1903,386,0,0
686,638,0,0,0,0,0,0,0,0,0,-1,1910,386,0,0
693,638,0,0,0,0,0,0,0,0,0,-1,1917,386,0,0
700,638,0,0,0,0,0,0,0,0,0,-1,1924,386,0,0
707,638,0,0,0,0,0,0,0,0,0,-1,1931,386,0,0
714,638,0,0,0,0,0,0,0,0,0,-1,1938,386,0,0
721,638,0,0,0,0,0,0,0,0,0,-1,1945,386,0,0
728,638,0,0,0,0,0,0,0,0,0,-1,1952,386,0,0
735,638,0,0,0,0,0,0,0,0,0,-1,1959,386,0,0
742,638,0,0,0,0,0,0,0,0,0,-1,1966,386,0,0
749,638,0,0,0,0,0,0,0,0,0,-1,1973,386,0,0
756,638,0,0,0,0,0,0,0,0,0,-1,1980,386,0,0
763,638,0,0,0,0,0,0,0,0,0,-1,1987,386,0,0
770,638,0,0,0,0,0,0,0,0,0,-1,1994,386,0,0
777,638,0,0,0,0,0,0,0,0,0,-1,2001,386,0,0
784,638,0,0,0,0,0,0,0,0,0,-1,2008,386,0,0
791,638,0,0,0,0,0,0,0,0,0,-1,2015,386,0,0
798,638,0,0,0,0,0,0,0,0,0,-1,2022,386,0,0
805,638,0,0,0,0,0,0,0,0,0,-1,2029,386,0,0
812,638,0,0,0,0,0,0,0,0,0,-1,2036,386,0,0
-700,631,0,0,0,0,0,0,0,0,0,-1,524,393,0,0
-693,631,0,0,0,0,0,0,0,0,0,-1,531,393,0,0
-686,631,0,0,0,0,0,0,0,0,0,-1,538,393,0,0
-679,631,0,0,0,0,0,0,0,0,0,-1,545,393,0,0
-672,631,0,0,0,0,0,0,0,0,0,-1,552,393,0,0
-665,631,0,0,0,0,0,0,0,0,0,-1,559,393,0,0
-658,631,0,0,0,0,0,0,0,0,0,-1,566,393,0,0
-651,631,0,0,0,0,0,0,0,0,0,-1,573,393,0,0
-644,631,0,0,0,0,0,0,0,0,0,-1,580,393,0,0
-637,631,0,0,0,0,0,0,0,0,0,-1,587,393,0,0
-630,631,0,0,0,0,0,0,0,0,0,-1,594,393,0,0
-623,631,0,0,0,0,0,0,0,0,0,-1,601,393,0,0
-616,631,0,0,0,0,0,0,0,0,0,-1,608,393,0,0
-609,631,0,0,0,0,0,0,0,0,0,-1,615,393,0,0
-602,631,0,0,0,0,0,0,0,0,0,-1,622,393,0,0
-595,631,0,0,0,0,0,0,0,0,0,-1,629,393,0,0
-588,631,0,0,0,0,0,0,0,0,0,-1,636,393,0,0
-581,631,0,0,0,0,0,0,0,0,0,-1,643,393,0,0
-574,631,0,0,0,0,0,0,0,0,0,-1,650,393,0,0
-567,631,0,0,0,0,0,0,0,0,0,-1,657,393,0,0
-560,631,0,0,0,0,0,0,0,0,0,-1,664,393,0,0
-553,631,0,0,0,0,0,0,0,0,0,-1,671,393,0,0
-546,631,0,0,0,0,0,0,0,0,0,-1,678,393,0,0
-539,631,0,0,0,0,0,0,0,0,0,-1,685,393,0,0
-532,631,0,0,0,0,0,0,0,0,0,-1,692,393,0,0
-525,631,0,0,0,0,0,0,0,0,0,-1,699,393,0,0
-518,631,0,0,0,0,0,0,0,0,0,-1,706,393,0,0
-511,631,0,0,0,0,0,0,0,0,0,-1,713,393,0,0
-504,631,0,0,0,0,0,0,0,0,0,-1,720,393,0,0
-497,631,0,0,0,0,0,0,0,0,0,-1,727,393,0,0
-490,631,0,0,0,0,0,0,0,0,0,-1,734,393,0,0
-483,631,0,0,0,0,0,0,0,0,0,-1,741,393,0,0
-476,631,0,0,0,0,0,0,0,0,0,-1,748,393,0,0
-469,631,0,0,0,0,0,0,0,0,0,-1,755,393,0,0
-462,631,0,0,0,0,0,0,0,0,0,-1,762,393,0,0
-455,631,0,0,0,0,0,0,0,0,0,-1,769,393,0,0
-448,631,0,0,0,0,0,0,0,0,0,-1,776,393,0,0
-441,631,0,0,0,0,0,0,0,0,0,-1,783,393,0,0
-434,631,0,0,0,0,0,0,0,0,0,-1,790,393,0,0
-427,631,0,0,0,0,0,0,0,0,0,-1,797,393,0,0
-420,631,0,0,0,0,0,0,0,0,0,-1,804,393,0,0
-413,631,0,0,0,0,0,0,0,0,0,-1,811,393,0,0
-406,631,0,0,0,0,0,0,0,0,0,-1,818,393,0,0
-399,631,0,0,0,0,0,0,0,0,0,-1,825,393,0,0
-392,631,0,0,0,0,0,0,0,0,0,-1,832,393,0,0
-385,631,0,0,0,0,0,0,0,0,0,-1,839,393,0,0
-378,631,0,0,0,0,0,0,0,0,0,-1,846,393,0,0
-371,631,0,0,0,0,0,0,0,0,0,-1,853,393,0,0
-364,631,0,0,0,0,0,0,0,0,0,-1,860,393,0,0
-357,631,0,0,0,0,0,0,0,0,0,-1,867,393,0,0
-350,631,0,0,0,0,0,0,0,0,0,-1,874,393,0,0
-343,631,0,0,0,0,0,0,0,0,0,-1,881,393,0,0
-336,631,0,0,0,0,0,0,0,0,0,-1,888,393,0,0
-329,631,0,0,0,0,0,0,0,0,0,-1,895,393,0,0
-322,631,0,0,0,0,0,0,0,0,0,-1,902,393,0,0
-315,631,0,0,0,0,0,0,0,0,0,-1,909,393,0,0
-308,631,0,0,0,0,0,0,0,0,0,-1,916,393,0,0
-301,631,0,0,0,0,0,0,0,0,0,-1,923,393,0,0
-294,631,0,0,0,0,0,0,0,0,0,-1,930,393,0,0
-287,631,0,0,0,0,0,0,0,0,0,-1,937,393,0,0
-280,631,1.38763,-14.3453,0,0,0,0,0,0,0,-1,944,393,1.38762,14.3453
-273,631,2.6192,-11.8094,0,0,0,0,0,0,0,-1,951,393,2.61918,11.8094
-266,631,0.616394,-9.4404,0,0,0,0,0,0,0,-1,958,393,0.616411,9.4404
-259,631,2.33258,-10.2035,0,0,0,0,0,0,0,-1,965,393,2.33256,10.2035
-252,631,1.69513,-10.2877,0,0,0,0,0,0,0,-1,972,393,1.69513,10.2877
-245,631,3.28119,-8.41373,0,0,0,0,0,0,0,-1,979,393,3.28122,8.41373
-238,631,3.02991,-9.08221,0,0,0,0,0,0,0,-1,986,393,3.02993,9.08221
-231,631,2.77863,-9.7507,0,0,0,0,0,0,0,-1,993,393,2.77864,9.7507
-224,631,0.539063,-9.05594,0,0,0,0,0,0,0,-1,1000,393,0.539048,9.05593
-217,631,2.8056,-11.3224,0,0,0,0,0,0,0,-1,1007,393,2.80559,11.3224
-210,631,2.76654,-10.7263,0,0,0,0,0,0,0,-1,1014,393,2.76654,10.7263
-203,631,2.65253,-10.4085,0,0,0,0,0,0,0,-1,1021,393,2.65254,10.4085
-196,631,2.50134,-10.6552,0,0,0,0,0,0,0,-1,1028,393,2.5013,10.6552
-189,631,2.25488,-10.907,0,0,0,0,0,0,0,-1,1035,393,2.25489,10.907
-182,631,2.32483,-10.9955,0,0,0,0,0,0,0,-1,1042,393,2.32489,10.9954
-175,631,2.71448,-11.3142,0.013599,-0.024546,-0.00577963,0.0144555,-0.0254025,-0.147119,0.0232995,0.0305893,1049,393,2.7145,11.3142
-168,631,2.69385,-11.4034,0.0122726,-0.0221284,-0.00517665,0.0130347,-0.0228905,-0.146168,0.021,0.0167595,1056,393,2.69391,11.4034
-161,631,2.67627,-11.5265,0.0107124,-0.0182062,-0.00465503,0.0114432,-0.018937,-0.155731,0.017717,0.00880404,1063,393,2.67623,11.5265
-154,631,2.6637,-11.6482,0.00903334,-0.0136249,-0.00418545,0.00978176,-0.0143733,-0.176944,0.0140297,0.00853277,1070,393,2.66369,11.6481
-147,631,2.66406,-11.7696,0.00718711,-0.0094889,-0.00365329,0.00795234,-0.0102541,-0.206478,0.0105395,0.00946073,1077,393,2.66405,11.7696
-140,631,2.64758,-11.905,0.00543518,-0.00548882,-0.00315373,0.00628028,-0.00633392,-0.261816,0.00728283,0.00955781,1084,393,2.64764,11.905
-133,631,2.62878,-12.0259,0.00388782,-0.00193115,-0.00275212,0.00498324,-0.00302657,-0.378805,0.00467024,0.0086645,1091,393,2.62874,12.0259
-126,631,2.63867,-12.1172,0.00256812,0.00102495,-0.00246016,0.00437485,-0.00078178,-0.63344,0.00320906,0.0130788,1098,393,2.63873,12.1172
-119,631,2.62952,-12.2077,0.00140998,0.00399577,-0.00221191,0.00526492,0.000140824,-1.04988,0.00346396,0.0154244,1105,393,2.6295,12.2077
-112,631,2.62122,-12.3083,0.000402856,0.00609607,-0.00185514,0.00664722,-0.000148291,-1.28201,0.00448173,0.0136566,1112,393,2.62119,12.3083
-105,631,2.61694,-12.4275,7.99311e-05,0.00649398,-0.00182586,0.00697732,-0.000403404,-1.31202,0.00479168,0.0182868,1119,393,2.61694,12.4275
-98,631,2.60046,-12.5421,-0.00027949,0.00644542,-0.00165475,0.00683054,-0.000664606,-1.34213,0.00479062,0.0161524,1126,393,2.60042,12.5422
-91,631,2.57129,-12.6365,-8.92055e-05,0.00570416,-0.0014694,0.00605554,-0.000440583,-1.33607,0.00419161,0.0166444,1133,393,2.57124,12.6365
-84,631,2.578,-12.7113,1.88689e-05,0.00479667,-0.00119762,0.00508006,-0.000264522,-1.33844,0.00347823,0.0153415,1140,393,2.57796,12.7113
-77,631,2.57874,-12.7674,9.60357e-05,0.00378077,-0.000957612,0.00401478,-0.000137973,-1.33113,0.00272368,0.0100129,1147,393,2.57877,12.7674
-70,631,2.57556,-12.8301,0.000155317,0.00296097,-0.000691794,0.00312227,-5.98619e-06,-1.34172,0.00208351,0.00998368,1154,393,2.57558,12.8301
-63,631,2.56458,-12.9159,0.000197438,0.00237104,-0.000597191,0.00252431,4.4169e-05,-1.31957,0.00166835,0.0109897,1161,393,2.56453,12.9159
-56,631,2.5575,-13.0215,0.000207186,0.00151065,-0.000430217,0.00163984,7.79948e-05,-1.27907,0.00106818,0.0128626,1168,393,2.55755,13.0215
-49,631,2.5603,-13.0827,0.000395886,0.000731011,-0.000250651,0.00086495,0.000261948,-1.08004,0.000512156,0.011252,1175,393,2.56026,13.0827
-42,631,2.56104,-13.132,0.000629511,0.000352653,-0.000179269,0.000717577,0.000264588,-0.456623,0.000419026,0.00913797,1182,393,2.56104,13.132
-35,631,2.57275,-13.1769,0.000805322,0.00013362,-0.000227477,0.000875109,6.38333e-05,-0.297669,0.000563335,0.00967089,1189,393,2.57277,13.1769
-28,631,2.5719,-13.2141,0.0009524,-0.000172593,-0.000278336,0.0010175,-0.00023769,-0.229748,0.00076989,0.012425,1196,393,2.57193,13.2141
-21,631,2.55701,-13.264,0.00117784,-0.000471927,-0.000342782,0.00124622,-0.000540314,-0.196921,0.00105796,0.0114256,1203,393,2.55705,13.264
-14,631,2.53613,-13.3192,0.00133084,-0.000663161,-0.000468908,0.0014356,-0.000767925,-0.219811,0.00129153,0.0138844,1210,393,2.53608,13.3192
-7,631,2.51807,-13.3946,0.00142485,-0.000748038,-0.000626385,0.00159249,-0.000915675,-0.261497,0.00146556,0.0218221,1217,393,2.51812,13.3946
0,631,2.5498,-13.4331,0.00144803,-0.000893894,-0.000663265,0.00162283,-0.00106869,-0.257684,0.00156489,0.0233996,1224,393,2.54982,13.4331
7,631,2.5614,-13.3859,0.00149749,-0.00117896,-0.000559558,0.00160976,-0.00129124,-0.19802,0.00167826,0.0191604,1231,393,2.56136,13.3859
14,631,2.56165,-13.402,0.00150539,-0.00165502,-0.000454804,0.00156954,-0.00171917,-0.140119,0.00189939,0.0115422,1238,393,2.56162,13.402
21,631,2.58459,-13.4373,0.00148635,-0.00174555,-0.000394655,0.00153385,-0.00179305,-0.119768,0.00192273,0.0135359,1245,393,2.58465,13.4373
28,631,2.61426,-13.4427,0.00160018,-0.00192075,-0.000191126,0.00161052,-0.00193109,-0.054071,0.00204755,0.0149968,1252,393,2.6142,13.4427
35,631,2.62524,-13.4446,0.00187478,-0.00200916,0.000155037,0.00188096,-0.00201534,0.0398331,0.00224997,0.0131901,1259,393,2.62524,13.4446
42,631,2.63123,-13.4584,0.00210741,-0.00214158,0.00045846,0.00215632,-0.00219048,0.106269,0.00250965,0.0116394,1266,393,2.63119,13.4584
49,631,2.63086,-13.4432,0.0023565,-0.00205749,0.000762062,0.00248436,-0.00218536,0.166238,0.0026979,0.0110528,1273,393,2.63091,13.4432
56,631,2.62878,-13.4462,0.00258108,-0.00194396,0.000958957,0.00277591,-0.0021388,0.200446,0.00284545,0.0127667,1280,393,2.62879,13.4462
63,631,2.62085,-13.4699,0.00285433,-0.00178756,0.00113671,0.00311774,-0.00205097,0.227711,0.00300527,0.0148113,1287,393,2.62081,13.4699
70,631,2.61963,-13.4408,0.00310505,-0.00177186,0.00122937,0.00339742,-0.00206423,0.233485,0.00318444,0.0150306,1294,393,2.61965,13.4408
77,631,2.62622,-13.4266,0.00342052,-0.00169518,0.00114864,0.00366659,-0.00194125,0.211037,0.00328837,0.015423,1301,393,2.62628,13.4266
84,631,2.62793,-13.4066,0.00346874,-0.00154231,0.000881351,0.00361924,-0.0016928,0.169122,0.00313341,0.0121441,1308,393,2.62793,13.4066
91,631,2.62244,-13.3694,0.00327736,-0.0014681,0.000712123,0.00338192,-0.00157266,0.145787,0.00292341,0.013673,1315,393,2.62244,13.3694
98,631,2.60938,-13.347,0.00301176,-0.00162337,0.000546454,0.00307531,-0.00168692,0.115779,0.00278816,0.0127907,1322,393,2.60942,13.3469
105,631,2.60974,-13.3057,0.00272733,-0.00174164,0.000223978,0.00273853,-0.00175283,0.0499516,0.00261382,0.0113494,1329,393,2.60977,13.3057
112,631,2.63342,-13.2528,0.0023286,-0.00187582,-2.21465e-05,0.00232872,-0.00187594,-0.00526723,0.00243225,0.0110169,1336,393,2.63344,13.2528
119,631,2.63037,-13.2269,0.00198912,-0.00199177,-0.000154607,0.00199511,-0.00199776,-0.0387595,0.00230529,0.0120652,1343,393,2.63032,13.2269
126,631,2.63538,-13.1702,0.00166125,-0.00235628,-0.000224074,0.00167371,-0.00236874,-0.0555444,0.00234538,0.0166635,1350,393,2.63536,13.1702
133,631,2.65442,-13.1013,0.00125111,-0.00249726,-0.000339599,0.00128163,-0.00252778,-0.0896267,0.00223824,0.0170859,1357,393,2.65447,13.1013
140,631,2.66333,-13.0343,0.000889758,-0.00250084,-0.000441037,0.000946188,-0.00255727,-0.127256,0.0020928,0.0181353,1364,393,2.66333,13.0343
147,631,2.65649,-12.9778,0.000729639,-0.00236449,-0.000371287,0.000773569,-0.00240842,-0.11777,0.00191624,0.0214317,1371,393,2.65645,12.9778
154,631,2.64063,-12.911,0.00062019,-0.00214275,-0.000344928,0.0006626,-0.00218516,-0.12234,0.0017207,0.0207954,1378,393,2.64062,12.911
161,631,2.66199,-12.8088,0.000514591,-0.00192098,-0.000251526,0.000540295,-0.00194669,-0.10184,0.00151045,0.0237295,1385,393,2.66203,12.8088
168,631,2.70483,-12.7122,0.000379611,-0.00155662,-0.000153604,0.000391721,-0.00156873,-0.0786755,0.00119793,0.0276303,1392,393,2.70487,12.7122
175,631,2.69263,-12.6706,0.000290709,-0.00118876,-3.44869e-05,0.000291513,-0.00118956,-0.0232935,0.000905982,0.0201614,1399,393,2.69266,12.6706
182,631,2.66284,-12.5939,0.000241093,-0.000829857,8.22272e-05,0.000247369,-0.000836133,0.0761846,0.000655623,0.0112702,1406,393,2.66282,12.5939
189,631,2.65649,-12.4889,0.000278842,-0.000499521,0.00034022,0.000406585,-0.000627265,0.359186,0.000601409,0.0107743,1413,393,2.65648,12.4889
196,631,2.66858,-12.4121,0.00017781,-0.000312816,0.000476854,0.000468751,-0.000603757,0.547831,0.000620846,0.0122442,1420,393,2.66861,12.4121
203,631,2.68604,-12.3276,-0.000103263,-0.000379263,0.000554836,0.000330477,-0.000813003,0.66351,0.000679499,0.0141185,1427,393,2.68605,12.3276
210,631,2.66187,-12.2186,-0.000392459,-0.000214246,0.000724506,0.000426612,-0.00103332,0.846586,0.000866812,0.0153605,1434,393,2.66192,12.2186
217,631,2.63416,-12.1222,-0.0005509,0.000119673,0.000674904,0.000537986,-0.000969213,1.01594,0.000881974,0.0157088,1441,393,2.63414,12.1222
224,631,2.62231,-11.9949,-0.00060505,0.000391638,0.000660365,0.000720596,-0.000934009,1.10863,0.000957931,0.0126911,1448,393,2.62233,11.9949
231,631,2.61987,-11.8427,-0.000227526,0.000786779,0.00078718,0.00121603,-0.000656779,1.07156,0.00109722,0.0112704,1455,393,2.61983,11.8427
238,631,2.60852,-11.6797,0.00115527,0.00112862,0.00121107,0.00235309,-6.92037e-05,0.779897,0.0015923,0.0160326,1462,393,2.60854,11.6797
245,631,2.61572,-11.5705,0.00209446,0.00158163,0.00144791,0.00330848,0.000367608,0.697761,0.0020939,0.0175363,1469,393,2.61576,11.5705
252,631,2.61304,-11.4752,0.00333873,0.00215305,0.00181583,0.00465605,0.000835727,0.627611,0.00286636,0.017266,1476,393,2.61298,11.4751
259,631,2.59058,-11.3348,0.00491635,0.00289234,0.00133886,0.00558265,0.00222604,0.461774,0.0032451,0.01316,1483,393,2.59052,11.3348
266,631,2.59607,-11.2026,0.00645798,0.00367196,0.00127629,0.00695426,0.00317569,0.370849,0.00402007,0.0111382,1490,393,2.59602,11.2026
273,631,2.59155,-11.049,0.00821183,0.00426047,0.00117302,0.00853382,0.00393848,0.267897,0.00493187,0.0127311,1497,393,2.59158,11.0489
280,631,2.57813,-10.92,0.0101797,0.00530128,0.00124499,0.0104791,0.00500192,0.235968,0.00605217,0.0121019,1504,393,2.57811,10.92
287,631,2.60132,-10.7448,0.0117917,0.00614724,0.000933829,0.0119422,0.00599675,0.159772,0.00689484,0.0147121,1511,393,2.60127,10.7448
294,631,2.60767,-10.531,0.013209,0.00719582,0.000406027,0.0132362,0.00716853,0.0671173,0.00765075,0.0192117,1518,393,2.60771,10.531
301,631,2.6073,-10.3155,0.0143899,0.00834744,-0.000220967,0.014398,0.00833937,-0.0365039,0.00834738,0.0270092,1525,393,2.60734,10.3155
308,631,2.59961,-10.1292,0.0153303,0.00979389,-0.000795685,0.0154424,0.00968181,-0.139947,0.00901095,0.0319776,1532,393,2.59962,10.1292
315,631,2.50671,-10.0727,0.0156474,0.0107435,-0.00149679,0.0160682,0.0103227,-0.27403,0.00940161,0.0351724,1539,393,2.50674,10.0727
322,631,2.44812,-9.91226,0.0159362,0.0117369,-0.00179938,0.0166017,0.0110714,-0.354272,0.00976136,0.0408549,1546,393,2.44814,9.91225
329,631,2.75232,-9.36832,0.0161741,0.0131817,-0.00188897,0.0170876,0.0122682,-0.450454,0.0101732,0.0492324,1553,393,2.7523,9.36831
336,631,2.88452,-8.63602,0,0,0,0,0,0,0,-1,1560,393,2.88457,8.63603
343,631,2.39612,-6.96481,0,0,0,0,0,0,0,-1,1567,393,2.39608,6.96482
350,631,2.1344,-9.23401,0,0,0,0,0,0,0,-1,1574,393,2.13439,9.23401
357,631,2.6449,-9.60303,0,0,0,0,0,0,0,-1,1581,393,2.64491,9.60304
364,631,3.39136,-5.7594,0,0,0,0,0,0,0,-1,1588,393,3.39137,5.75939
371,631,3.72839,-6.0574,0,0,0,0,0,0,0,-1,1595,393,3.72845,6.05742
378,631,4.06555,-6.35544,0,0,0,0,0,0,0,-1,1602,393,4.06553,6.35544
385,631,3.90442,-3.58298,0,0,0,0,0,0,0,-1,1609,393,3.90437,3.58299
392,631,0.352295,-2.21301,0,0,0,0,0,0,0,-1,1616,393,0.352345,2.213
399,631,0,0,0,0,0,0,0,0,0,-1,1623,393,0,0
406,631,0,0,0,0,0,0,0,0,0,-1,1630,393,0,0
413,631,0,0,0,0,0,0,0,0,0,-1,1637,393,0,0
420,631,0,0,0,0,0,0,0,0,0,-1,1644,393,0,0
427,631,0,0,0,0,0,0,0,0,0,-1,1651,393,0,0
434,631,0,0,0,0,0,0,0,0,0,-1,1658,393,0,0
441,631,0,0,0,0,0,0,0,0,0,-1,1665,393,0,0
448,631,0,0,0,0,0,0,0,0,0,-1,1672,393,0,0
455,631,0,0,0,0,0,0,0,0,0,-1,1679,393,0,0
462,631,0,0,0,0,0,0,0,0,0,-1,1686,393,0,0
469,631,0,0,0,0,0,0,0,0,0,-1,1693,393,0,0
476,631,0,0,0,0,0,0,0,0,0,-1,1700,393,0,0
483,631,0,0,0,0,0,0,0,0,0,-1,1707,393,0,0
490,631,0,0,0,0,0,0,0,0,0,-1,1714,393,0,0
497,631,0,0,0,0,0,0,0,0,0,-1,1721,393,0,0
504,631,0,0,0,0,0,0,0,0,0,-1,1728,393,0,0
511,631,0,0,0,0,0,0,0,0,0,-1,1735,393,0,0
518,631,0,0,0,0,0,0,0,0,0,-1,1742,393,0,0
525,631,0,0,0,0,0,0,0,0,0,-1,1749,393,0,0
532,631,0,0,0,0,0,0,0,0,0,-1,1756,393,0,0
539,631,0,0,0,0,0,0,0,0,0,-1,1763,393,0,0
546,631,0,0,0,0,0,0,0,0,0,-1,1770,393,0,0
553,631,0,0,0,0,0,0,0,0,0,-1,1777,393,0,0
560,631,0,0,0,0,0,0,0,0,0,-1,1784,393,0,0
567,631,0,0,0,0,0,0,0,0,0,-1,1791,393,0,0
574,631,0,0,0,0,0,0,0,0,0,-1,1798,393,0,0
581,631,0,0,0,0,0,0,0,0,0,-1,1805,393,0,0
588,631,0,0,0,0,0,0,0,0,0,-1,1812,393,0,0
595,631,0,0,0,0,0,0,0,0,0,-1,1819,393,0,0
602,631,0,0,0,0,0,0,0,0,0,-1,1826,393,0,0
609,631,0,0,0,0,0,0,0,0,0,-1,1833,393,0,0
616,631,0,0,0,0,0,0,0,0,0,-1,1840,393,0,0
623,631,0,0,0,0,0,0,0,0,0,-1,1847,393,0,0
630,631,0,0,0,0,0,0,0,0,0,-1,1854,393,0,0
637,631,0,0,0,0,0,0,0,0,0,-1,1861,393,0,0
644,631,0,0,0,0,0,0,0,0,0,-1,1868,393,0,0
651,631,0,0,0,0,0,0,0,0,0,-1,1875,393,0,0
658,631,0,0,0,0,0,0,0,0,0,-1,1882,393,0,0
665,631,0,0,0,0,0,0,0,0,0,-1,1889,393,0,0
672,631,0,0,0,0,0,0,0,0,0,-1,1896,393,0,0
679,631,0,0,0,0,0,0,0,0,0,-1,1903,393,0,0
686,631,0,0,0,0,0,0,0,0,0,-1,1910,393,0,0
693,631,0,0,0,0,0,0,0,0,0,-1,1917,393,0,0
700,631,0,0,0,0,0,0,0,0,0,-1,1924,393,0,0
707,631,0,0,0,0,0,0,0,0,0,-1,1931,393,0,0
714,631,0,0,0,0,0,0,0,0,0,-1,1938,393,0,0
721,631,0,0,0,0,0,0,0,0,0,-1,1945,393,0,0
728,631,0,0,0,0,0,0,0,0,0,-1,1952,393,0,0
735,631,0,0,0,0,0,0,0,0,0,-1,1959,393,0,0
742,631,0,0,0,0,0,0,0,0,0,-1,1966,393,0,0
749,631,0,0,0,0,0,0,0,0,0,-1,1973,393,0,0
756,631,0,0,0,0,0,0,0,0,0,-1,1980,393,0,0
763,631,0,0,0,0,0,0,0,0,0,-1,1987,393,0,0
770,631,0,0,0,0,0,0,0,0,0,-1,1994,393,0,0
777,631,0,0,0,0,0,0,0,0,0,-1,2001,393,0,0
784,631,0,0,0,0,0,0,0,0,0,-1,2008,393,0,0
791,631,0,0,0,0,0,0,0,0,0,-1,2015,393,0,0
798,631,0,0,0,0,0,0,0,0,0,-1,2022,393,0,0
805,631,0,0,0,0,0,0,0,0,0,-1,2029,393,0,0
812,631,0,0,0,0,0,0,0,0,0,-1,2036,393,0,0
-700,624,0,0,0,0,0,0,0,0,0,-1,524,400,0,0
-693,624,0,0,0,0,0,0,0,0,0,-1,531,400,0,0
-686,624,0,0,0,0,0,0,0,0,0,-1,538,400,0,0
-679,624,0,0,0,0,0,0,0,0,0,-1,545,400,0,0
-672,624,0,0,0,0,0,0,0,0,0,-1,552,400,0,0
-665,624,0,0,0,0,0,0,0,0,0,-1,559,400,0,0
-658,624,0,0,0,0,0,0,0,0,0,-1,566,400,0,0
-651,624,0,0,0,0,0,0,0,0,0,-1,573,400,0,0
-644,624,0,0,0,0,0,0,0,0,0,-1,580,400,0,0
-637,624,0,0,0,0,0,0,0,0,0,-1,587,400,0,0
-630,624,0,0,0,0,0,0,0,0,0,-1,594,400,0,0
-623,624,0,0,0,0,0,0,0,0,0,-1,601,400,0,0
-616,624,0,0,0,0,0,0,0,0,0,-1,608,400,0,0
-609,624,0,0,0,0,0,0,0,0,0,-1,615,400,0,0
-602,624,0,0,0,0,0,0,0,0,0,-1,622,400,0,0
-595,624,0,0,0,0,0,0,0,0,0,-1,629,400,0,0
-588,624,0,0,0,0,0,0,0,0,0,-1,636,400,0,0
-581,624,0,0,0,0,0,0,0,0,0,-1,643,400,0,0
-574,624,0,0,0,0,0,0,0,0,0,-1,650,400,0,0
-567,624,0,0,0,0,0,0,0,0,0,-1,657,400,0,0
-560,624,0,0,0,0,0,0,0,0,0,-1,664,400,0,0
-553,624,0,0,0,0,0,0,0,0,0,-1,671,400,0,0
-546,624,0,0,0,0,0,0,0,0,0,-1,678,400,0,0
-539,624,0,0,0,0,0,0,0,0,0,-1,685,400,0,0
-532,624,0,0,0,0,0,0,0,0,0,-1,692,400,0,0
-525,624,0,0,0,0,0,0,0,0,0,-1,699,400,0,0
-518,624,0,0,0,0,0,0,0,0,0,-1,706,400,0,0
-511,624,0,0,0,0,0,0,0,0,0,-1,713,400,0,0
-504,624,0,0,0,0,0,0,0,0,0,-1,720,400,0,0
-497,624,0,0,0,0,0,0,0,0,0,-1,727,400,0,0
-490,624,0,0,0,0,0,0,0,0,0,-1,734,400,0,0
-483,624,0,0,0,0,0,0,0,0,0,-1,741,400,0,0
-476,624,0,0,0,0,0,0,0,0,0,-1,748,400,0,0
-469,624,0,0,0,0,0,0,0,0,0,-1,755,400,0,0
-462,624,0,0,0,0,0,0,0,0,0,-1,762,400,0,0
-455,624,0,0,0,0,0,0,0,0,0,-1,769,400,0,0
-448,624,0,0,0,0,0,0,0,0,0,-1,776,400,0,0
-441,624,0,0,0,0,0,0,0,0,0,-1,783,400,0,0
-434,624,0,0,0,0,0,0,0,0,0,-1,790,400,0,0
-427,624,0,0,0,0,0,0,0,0,0,-1,797,400,0,0
-420,624,0,0,0,0,0,0,0,0,0,-1,804,400,0,0
-413,624,0,0,0,0,0,0,0,0,0,-1,811,400,0,0
-406,624,0,0,0,0,0,0,0,0,0,-1,818,400,0,0
-399,624,0,0,0,0,0,0,0,0,0,-1,825,400,0,0
-392,624,0,0,0,0,0,0,0,0,0,-1,832,400,0,0
-385,624,0,0,0,0,0,0,0,0,0,-1,839,400,0,0
-378,624,0,0,0,0,0,0,0,0,0,-1,846,400,0,0
-371,624,0,0,0,0,0,0,0,0,0,-1,853,400,0,0
-364,624,0,0,0,0,0,0,0,0,0,-1,860,400,0,0
-357,624,0,0,0,0,0,0,0,0,0,-1,867,400,0,0
-350,624,0,0,0,0,0,0,0,0,0,-1,874,400,0,0
-343,624,0,0,0,0,0,0,0,0,0,-1,881,400,0,0
-336,624,0,0,0,0,0,0,0,0,0,-1,888,400,0,0
-329,624,0,0,0,0,0,0,0,0,0,-1,895,400,0,0
-322,624,0,0,0,0,0,0,0,0,0,-1,902,400,0,0
-315,624,0,0,0,0,0,0,0,0,0,-1,909,400,0,0
-308,624,0,0,0,0,0,0,0,0,0,-1,916,400,0,0
-301,624,0,0,0,0,0,0,0,0,0,-1,923,400,0,0
-294,624,-0.912903,-12.9461,0,0,0,0,0,0,0,-1,930,400,-0.912926,12.9461
-287,624,0.12146,-15.0862,0,0,0,0,0,0,0,-1,937,400,0.121451,15.0862
-280,624,1.44836,-13.0475,0,0,0,0,0,0,0,-1,944,400,1.44835,13.0475
-273,624,2.56573,-11.0646,0,0,0,0,0,0,0,-1,951,400,2.56571,11.0646
-266,624,2.61993,-9.22894,0,0,0,0,0,0,0,-1,958,400,2.61992,9.22893
-259,624,2.33655,-9.63861,-0.0124613,-0.00960101,-0.0162715,0.00530312,-0.0273654,-0.829232,0.0202442,0.0428209,965,400,2.33654,9.63861
-252,624,1.87445,-10.0717,-0.0123689,-0.00851873,-0.0146058,0.00428836,-0.025176,-0.850921,0.0183809,0.0417483,972,400,1.87447,10.0717
-245,624,1.42847,-10.5612,0,0,0,0,0,0,0,-1,979,400,1.42844,10.5612
-238,624,3.12366,-9.20386,0,0,0,0,0,0,0,-1,986,400,3.12368,9.20387
-231,624,2.45801,-9.7988,0,0,0,0,0,0,0,-1,993,400,2.458,9.7988
-224,624,2.67108,-9.97665,0,0,0,0,0,0,0,-1,1000,400,2.6711,9.97666
-217,624,2.91315,-10.1198,0,0,0,0,0,0,0,-1,1007,400,2.91314,10.1198
-210,624,2.65137,-10.6517,0.00361749,-0.013169,-0.00666865,0.0059442,-0.0154957,-0.335697,0.0127813,0.0466474,1014,400,2.65136,10.6517
-203,624,2.58856,-10.5529,0.00725115,-0.015442,-0.0059238,0.00870443,-0.0168953,-0.240577,0.0150301,0.0397029,1021,400,2.58857,10.5529
-196,624,2.54688,-10.7257,0.00862442,-0.0158299,-0.00449339,0.00942392,-0.0166294,-0.176086,0.0152325,0.035959,1028,400,2.54682,10.7257
-189,624,2.47852,-10.8966,0.00872949,-0.0163587,-0.00450125,0.00951264,-0.0171419,-0.172261,0.0155977,0.0335324,1035,400,2.47856,10.8966
-182,624,2.48145,-11.1036,0.00856696,-0.0157862,-0.00428818,0.00929998,-0.0165192,-0.169302,0.0150997,0.0279296,1042,400,2.48141,11.1036
-175,624,2.61023,-11.2532,0.00809468,-0.0151491,-0.00387832,0.00872472,-0.0157791,-0.161044,0.0143414,0.0177427,1049,400,2.61026,11.2532
-168,624,2.5968,-11.3992,0.00731732,-0.0138175,-0.00347863,0.00787515,-0.0143753,-0.159006,0.0130278,0.0120589,1056,400,2.59676,11.3992
-161,624,2.55945,-11.5333,0.00640227,-0.0114853,-0.00312873,0.00693373,-0.0120168,-0.168258,0.0110715,0.0104437,1063,400,2.5595,11.5333
-154,624,2.55103,-11.6574,0.00542945,-0.00863045,-0.00280359,0.00596788,-0.00916887,-0.189739,0.0088041,0.00969141,1070,400,2.55103,11.6574
-147,624,2.5509,-11.7823,0.00431143,-0.00605922,-0.00241824,0.0048476,-0.00659538,-0.218189,0.00663225,0.0103676,1077,400,2.55089,11.7823
-140,624,2.53418,-11.9138,0.00324352,-0.00352619,-0.00203813,0.00380977,-0.00409244,-0.270993,0.00456332,0.00953496,1084,400,2.5342,11.9138
-133,624,2.51514,-12.026,0.00230559,-0.0012374,-0.00174598,0.00302139,-0.0019532,-0.389072,0.00289407,0.0111244,1091,400,2.51515,12.026
-126,624,2.52234,-12.1142,0.00148732,0.00070285,-0.00153342,0.00267788,-0.000487711,-0.660188,0.00196807,0.0132441,1098,400,2.52233,12.1142
-119,624,2.52295,-12.2156,0.00078532,0.00266249,-0.00137784,0.00339106,5.67533e-05,-1.0844,0.00224203,0.0152974,1105,400,2.52292,12.2156
-112,624,2.50061,-12.3067,0.000201028,0.00401836,-0.00113333,0.00432948,-0.000110089,-1.30288,0.00292371,0.0169871,1112,400,2.50063,12.3067
-105,624,2.5105,-12.4194,7.40771e-05,0.00425627,-0.00110799,0.00453168,-0.000201327,-1.32717,0.00309041,0.0121303,1119,400,2.51049,12.4194
-98,624,2.49365,-12.5309,-1.93781e-05,0.00412175,-0.00100706,0.00435367,-0.000251292,-1.34445,0.00298973,0.0126153,1126,400,2.49363,12.5309
-91,624,2.48401,-12.6147,0.000156666,0.00362568,-0.00088945,0.00384044,-5.80919e-05,-1.33388,0.00257988,0.0175815,1133,400,2.48401,12.6147
-84,624,2.51233,-12.7083,0.000276038,0.00302039,-0.000693725,0.00318579,0.000110644,-1.33675,0.00208795,0.0159925,1140,400,2.51235,12.7083
-77,624,2.51233,-12.786,0.000370352,0.00237761,-0.00051308,0.00250116,0.000246806,-1.3345,0.00159156,0.0122256,1147,400,2.51236,12.786
-70,624,2.49353,-12.8427,0.000507627,0.00180597,-0.000309855,0.00187612,0.00043747,-1.34813,0.00113343,0.0118996,1154,400,2.49358,12.8427
-63,624,2.48059,-12.9204,0.000668504,0.00143236,-0.000215141,0.00148879,0.000612078,-1.3143,0.000864068,0.0126913,1161,400,2.48054,12.9204
-56,624,2.50562,-13.0086,0.000836552,0.000953672,-7.40803e-05,0.000989543,0.000800681,-1.11986,0.000606622,0.0111246,1168,400,2.50558,13.0086
-49,624,2.51904,-13.0671,0.0010432,0.000438601,5.2979e-05,0.0010478,0.000433994,0.0867463,0.000607912,0.00987232,1175,400,2.51909,13.0671
-42,624,2.51672,-13.1221,0.00122265,-0.000199952,-4.25171e-05,0.00122392,-0.000201222,-0.0298512,0.000890633,0.00962626,1182,400,2.51669,13.1221
-35,624,2.51428,-13.1698,0.00142283,-0.000643499,-0.000246373,0.0014518,-0.000672468,-0.117047,0.00125366,0.0142244,1189,400,2.51428,13.1698
-28,624,2.48328,-13.2157,0.00129135,-0.00115708,-5.96461e-05,0.0012928,-0.00115853,-0.0243417,0.00141599,0.0192654,1196,400,2.48329,13.2157
-21,624,2.5011,-13.2649,0.00114682,-0.000969541,0.00022894,0.0011713,-0.000994023,0.106534,0.00125155,0.0142025,1203,400,2.50115,13.2649
-14,624,2.52209,-13.3034,0.001045,-0.00104314,0.00026653,0.00107848,-0.00107662,0.124971,0.00124425,0.0148916,1210,400,2.52207,13.3034
-7,624,2.46753,-13.3166,0.000834191,-0.000922374,0.000322342,0.000891474,-0.000979658,0.175875,0.0010807,0.0199186,1217,400,2.4675,13.3166
0,624,2.50842,-13.3594,0.000510348,-0.000954678,0.000639631,0.000750308,-0.00119464,0.358905,0.00113264,0.0199176,1224,400,2.50848,13.3594
7,624,2.53638,-13.3746,0.00050021,-0.00121592,0.00117904,0.00110037,-0.00181608,0.47084,0.00170063,0.0140282,1231,400,2.53638,13.3746
14,624,2.55872,-13.4284,0.000798227,-0.00185487,0.00163243,0.00157514,-0.00263178,0.444202,0.00245427,0.0120339,1238,400,2.55877,13.4284
21,624,2.57153,-13.4296,0.000944663,-0.00194211,0.00187141,0.00186465,-0.0028621,0.456906,0.00274917,0.0130045,1245,400,2.5715,13.4296
28,624,2.58655,-13.4357,0.00137431,-0.00220317,0.00222168,0.00243784,-0.0032667,0.446468,0.00330509,0.0119228,1252,400,2.58651,13.4357
35,624,2.62268,-13.4406,0.0021124,-0.00237223,0.0025641,0.00327634,-0.00353617,0.426123,0.00393416,0.0143158,1259,400,2.62267,13.4406
42,624,2.6405,-13.4509,0.00286775,-0.00269124,0.00276817,0.00401106,-0.00383454,0.391678,0.00453004,0.0163398,1266,400,2.64049,13.4509
49,624,2.63855,-13.4541,0.00366231,-0.00271797,0.00285311,0.00475203,-0.00380769,0.364843,0.00495197,0.0182151,1273,400,2.63858,13.4541
56,624,2.64148,-13.4468,0.00439868,-0.00254064,0.00276378,0.0053649,-0.00350686,0.336319,0.00515942,0.017273,1280,400,2.64148,13.4468
63,624,2.65186,-13.4469,0.0050768,-0.00213246,0.00268032,0.0059641,-0.00301977,0.319689,0.00527887,0.0132475,1287,400,2.65188,13.4469
70,624,2.63708,-13.4535,0.0055154,-0.00188357,0.00243206,0.00624323,-0.0026114,0.290782,0.00525361,0.0127533,1294,400,2.63704,13.4535
77,624,2.63721,-13.4299,0.00613429,-0.00156093,0.00178878,0.00652977,-0.00195641,0.21759,0.00513118,0.0138914,1301,400,2.63717,13.4299
84,624,2.63721,-13.4153,0.0063662,-0.00146213,0.0010514,0.00650495,-0.00160088,0.13121,0.00495719,0.0116345,1308,400,2.63716,13.4153
91,624,2.64014,-13.3817,0.0059405,-0.000985867,0.000743397,0.00601939,-0.00106476,0.105724,0.00441089,0.0115656,1315,400,2.64013,13.3817
98,624,2.64465,-13.3576,0.00537814,-0.00100273,0.00050976,0.0054186,-0.0010432,0.0792191,0.00400568,0.0127148,1322,400,2.64465,13.3576
105,624,2.65369,-13.3046,0.00486388,-0.00101551,5.48409e-05,0.00486439,-0.00101602,0.00932657,0.00362932,0.0147546,1329,400,2.65367,13.3046
112,624,2.67676,-13.2485,0.00411932,-0.0011656,-0.000282809,0.00413441,-0.00118069,-0.0533097,0.00322275,0.0139043,1336,400,2.67678,13.2485
119,624,2.66138,-13.1976,0.00340688,-0.00138156,-0.000397676,0.00343968,-0.00141437,-0.0822978,0.00288265,0.0135351,1343,400,2.66136,13.1976
126,624,2.71582,-13.1353,0.00296723,-0.00215433,-0.000384664,0.00299596,-0.00218306,-0.0745494,0.00300236,0.016222,1350,400,2.71586,13.1354
133,624,2.73376,-13.0783,0.00237772,-0.00269963,-0.000460228,0.0024191,-0.00274101,-0.0896695,0.00298112,0.0169585,1357,400,2.73382,13.0783
140,624,2.71008,-13.0354,0.00178872,-0.00311525,-0.000529346,0.00184521,-0.00317173,-0.106311,0.00293009,0.0166463,1364,400,2.71005,13.0354
147,624,2.66638,-13.0042,0.00140388,-0.00330072,-0.000467078,0.00144981,-0.00334665,-0.0980062,0.0028405,0.0205772,1371,400,2.66633,13.0042
154,624,2.67371,-12.9535,0.00109053,-0.00339178,-0.000467459,0.00113876,-0.00344002,-0.102816,0.0027526,0.0234465,1378,400,2.67366,12.9535
161,624,2.71912,-12.8352,0.000844069,-0.00336512,-0.00039397,0.000880626,-0.00340167,-0.0925268,0.0026113,0.0220803,1385,400,2.71918,12.8352
168,624,2.76379,-12.7285,0.000619508,-0.00309732,-0.00031746,0.000646428,-0.00312424,-0.0845949,0.00232841,0.0213285,1392,400,2.7638,12.7285
175,624,2.76807,-12.6863,0.000522373,-0.00266588,-0.000242851,0.000540765,-0.00268427,-0.0755896,0.00199436,0.0162227,1399,400,2.7681,12.6863
182,624,2.7561,-12.6047,0.000267157,-0.00215233,-9.47781e-05,0.000270864,-0.00215604,-0.039093,0.00153563,0.0106557,1406,400,2.75608,12.6047
189,624,2.75964,-12.5074,0.000187608,-0.00176248,9.26911e-05,0.000192004,-0.00176687,0.0473894,0.00124685,0.0105638,1413,400,2.75967,12.5074
196,624,2.76062,-12.4173,0.000325122,-0.00130353,5.74215e-05,0.000327144,-0.00130555,0.0351987,0.000997463,0.0116993,1420,400,2.76056,12.4173
203,624,2.77283,-12.3135,0.000279936,-0.000818445,-1.07469e-05,0.000280041,-0.00081855,-0.00978303,0.000659183,0.0145096,1427,400,2.77287,12.3135
210,624,2.78479,-12.2031,9.72869e-05,-0.000412085,0.000179481,0.000154175,-0.000468972,0.306941,0.000374764,0.0170817,1434,400,2.78483,12.2031
217,624,2.75781,-12.1009,-4.27393e-05,2.11161e-05,0.000214916,0.000206463,-0.000228087,0.859138,0.000250991,0.0183639,1441,400,2.75783,12.1009
224,624,2.74194,-12.001,-0.000154389,0.0003432,0.000296736,0.000481641,-0.000292829,1.13427,0.000451548,0.0147896,1448,400,2.74194,12.001
231,624,2.74744,-11.8792,7.00546e-05,0.000737456,0.000473547,0.000983067,-0.000175557,1.09233,0.000721056,0.0117357,1455,400,2.74749,11.8792
238,624,2.73096,-11.7286,0.00099123,0.00112014,0.000862623,0.00192071,0.000190659,0.82269,0.00122189,0.0167092,1462,400,2.73096,11.7286
245,624,2.73218,-11.6118,0.00164301,0.00156504,0.00111908,0.00272378,0.00048427,0.767987,0.00167789,0.0175629,1469,400,2.73222,11.6118
252,624,2.74609,-11.4767,0.00249376,0.00208006,0.00146163,0.00376311,0.000810713,0.715104,0.00228691,0.0126754,1476,400,2.74605,11.4767
259,624,2.73242,-11.3424,0.00355907,0.0026805,0.00127835,0.00447151,0.00176807,0.619901,0.00260038,0.00903459,1483,400,2.7324,11.3424
266,624,2.74402,-11.1971,0.00457833,0.00326678,0.00133607,0.00541089,0.00243423,0.557258,0.0031292,0.0117218,1490,400,2.74401,11.1972
273,624,2.73511,-11.0468,0.00573968,0.00371671,0.00138264,0.00644132,0.00301508,0.4696,0.00372142,0.0148441,1497,400,2.73512,11.0468
280,624,2.71313,-10.9297,0.00704978,0.00451407,0.00159792,0.00782173,0.00374212,0.450034,0.00451728,0.0143198,1504,400,2.71319,10.9297
287,624,2.71057,-10.7895,0.00808306,0.00511406,0.00153916,0.00873696,0.00446016,0.401738,0.00504466,0.0110734,1511,400,2.71051,10.7895
294,624,2.68542,-10.6022,0.00897559,0.00584302,0.00134768,0.00947558,0.00534303,0.355259,0.00548559,0.00939721,1518,400,2.68545,10.6022
301,624,2.6687,-10.4442,0.00966557,0.00660747,0.00110624,0.0100238,0.00624926,0.313156,0.00584573,0.0104951,1525,400,2.66875,10.4442
308,624,2.68323,-10.2717,0.0101922,0.00758493,0.000934244,0.0104924,0.00728473,0.310906,0.00620836,0.0132787,1532,400,2.68324,10.2717
315,624,2.66968,-10.1034,0.0103083,0.00821882,0.000692607,0.0105171,0.0080101,0.292709,0.00634306,0.0153477,1539,400,2.66963,10.1034
322,624,2.63062,-9.96094,0.0103788,0.00887636,0.0007236,0.0106706,0.00858454,0.383335,0.00653041,0.0225159,1546,400,2.63057,9.96093
329,624,2.80444,-9.728,0.010466,0.00987378,0.000932703,0.0111485,0.00919132,0.631687,0.00687345,0.0381856,1553,400,2.80448,9.72798
336,624,2.92859,-9.42041,0,0,0,0,0,0,0,-1,1560,400,2.92855,9.42043
343,624,2.4281,-8.51022,0,0,0,0,0,0,0,-1,1567,400,2.42807,8.51023
350,624,1.99194,-7.29742,0,0,0,0,0,0,0,-1,1574,400,1.99198,7.29741
357,624,2.64075,-3.13092,0,0,0,0,0,0,0,-1,1581,400,2.64076,3.13091
364,624,3.16565,-4.9458,0,0,0,0,0,0,0,-1,1588,400,3.16564,4.94579
371,624,3.37561,-5.23529,0,0,0,0,0,0,0,-1,1595,400,3.37563,5.23529
378,624,1.50439,-5.22165,0,0,0,0,0,0,0,-1,1602,400,1.50438,5.22164
385,624,0.724731,-2.43875,0,0,0,0,0,0,0,-1,1609,400,0.724746,2.43875
392,624,4.26819,-5.14236,0,0,0,0,0,0,0,-1,1616,400,4.26818,5.14236
399,624,3.86841,-2.36917,0,0,0,0,0,0,0,-1,1623,400,3.86838,2.36916
406,624,4.35376,-2.6962,0,0,0,0,0,0,0,-1,1630,400,4.35373,2.69619
413,624,0,0,0,0,0,0,0,0,0,-1,1637,400,0,0
420,624,0,0,0,0,0,0,0,0,0,-1,1644,400,0,0
427,624,0,0,0,0,0,0,0,0,0,-1,1651,400,0,0
434,624,0,0,0,0,0,0,0,0,0,-1,1658,400,0,0
441,624,0,0,0,0,0,0,0,0,0,-1,1665,400,0,0
448,624,0,0,0,0,0,0,0,0,0,-1,1672,400,0,0
455,624,0,0,0,0,0,0,0,0,0,-1,1679,400,0,0
462,624,0,0,0,0,0,0,0,0,0,-1,1686,400,0,0
469,624,0,0,0,0,0,0,0,0,0,-1,1693,400,0,0
476,624,0,0,0,0,0,0,0,0,0,-1,1700,400,0,0
483,624,0,0,0,0,0,0,0,0,0,-1,1707,400,0,0
490,624,0,0,0,0,0,0,0,0,0,-1,1714,400,0,0
497,624,0,0,0,0,0,0,0,0,0,-1,1721,400,0,0
504,624,0,0,0,0,0,0,0,0,0,-1,1728,400,0,0
511,624,0,0,0,0,0,0,0,0,0,-1,1735,400,0,0
518,624,0,0,0,0,0,0,0,0,0,-1,1742,400,0,0
525,624,0,0,0,0,0,0,0,0,0,-1,1749,400,0,0
532,624,0,0,0,0,0,0,0,0,0,-1,1756,400,0,0
539,624,0,0,0,0,0,0,0,0,0,-1,1763,400,0,0
546,624,0,0,0,0,0,0,0,0,0,-1,1770,400,0,0
553,624,0,0,0,0,0,0,0,0,0,-1,1777,400,0,0
560,624,0,0,0,0,0,0,0,0,0,-1,1784,400,0,0
567,624,0,0,0,0,0,0,0,0,0,-1,1791,400,0,0
574,624,0,0,0,0,0,0,0,0,0,-1,1798,400,0,0
581,624,0,0,0,0,0,0,0,0,0,-1,1805,400,0,0
588,624,0,0,0,0,0,0,0,0,0,-1,1812,400,0,0
595,624,0,0,0,0,0,0,0,0,0,-1,1819,400,0,0
602,624,0,0,0,0,0,0,0,0,0,-1,1826,400,0,0
609,624,0,0,0,0,0,0,0,0,0,-1,1833,400,0,0
616,624,0,0,0,0,0,0,0,0,0,-1,1840,400,0,0
623,624,0,0,0,0,0,0,0,0,0,-1,1847,400,0,0
630,624,0,0,0,0,0,0,0,0,0,-1,1854,400,0,0
637,624,0,0,0,0,0,0,0,0,0,-1,1861,400,0,0
644,624,0,0,0,0,0,0,0,0,0,-1,1868,400,0,0
651,624,0,0,0,0,0,0,0,0,0,-1,1875,400,0,0
658,624,0,0,0,0,0,0,0,0,0,-1,1882,400,0,0
665,624,0,0,0,0,0,0,0,0,0,-1,1889,400,0,0
672,624,0,0,0,0,0,0,0,0,0,-1,1896,400,0,0
679,624,0,0,0,0,0,0,0,0,0,-1,1903,400,0,0
686,624,0,0,0,0,0,0,0,0,0,-1,1910,400,0,0
693,624,0,0,0,0,0,0,0,0,0,-1,1917,400,0,0
700,624,0,0,0,0,0,0,0,0,0,-1,1924,400,0,0
707,624,0,0,0,0,0,0,0,0,0,-1,1931,400,0,0
714,624,0,0,0,0,0,0,0,0,0,-1,1938,400,0,0
721,624,0,0,0,0,0,0,0,0,0,-1,1945,400,0,0
728,624,0,0,0,0,0,0,0,0,0,-1,1952,400,0,0
735,624,0,0,0,0,0,0,0,0,0,-1,1959,400,0,0
742,624,0,0,0,0,0,0,0,0,0,-1,1966,400,0,0
749,624,0,0,0,0,0,0,0,0,0,-1,1973,400,0,0
756,624,0,0,0,0,0,0,0,0,0,-1,1980,400,0,0
763,624,0,0,0,0,0,0,0,0,0,-1,1987,400,0,0
770,624,0,0,0,0,0,0,0,0,0,-1,1994,400,0,0
777,624,0,0,0,0,0,0,0,0,0,-1,2001,400,0,0
784,624,0,0,0,0,0,0,0,0,0,-1,2008,400,0,0
791,624,0,0,0,0,0,0,0,0,0,-1,2015,400,0,0
798,624,0,0,0,0,0,0,0,0,0,-1,2022,400,0,0
805,624,0,0,0,0,0,0,0,0,0,-1,2029,400,0,0
812,624,0,0,0,0,0,0,0,0,0,-1,2036,400,0,0
-700,617,0,0,0,0,0,0,0,0,0,-1,524,407,0,0
-693,617,0,0,0,0,0,0,0,0,0,-1,531,407,0,0
-686,617,0,0,0,0,0,0,0,0,0,-1,538,407,0,0
-679,617,0,0,0,0,0,0,0,0,0,-1,545,407,0,0
-672,617,0,0,0,0,0,0,0,0,0,-1,552,407,0,0
-665,617,0,0,0,0,0,0,0,0,0,-1,559,407,0,0
-658,617,0,0,0,0,0,0,0,0,0,-1,566,407,0,0
-651,617,0,0,0,0,0,0,0,0,0,-1,573,407,0,0
-644,617,0,0,0,0,0,0,0,0,0,-1,580,407,0,0
-637,617,0,0,0,0,0,0,0,0,0,-1,587,407,0,0
-630,617,0,0,0,0,0,0,0,0,0,-1,594,407,0,0
-623,617,0,0,0,0,0,0,0,0,0,-1,601,407,0,0
-616,617,0,0,0,0,0,0,0,0,0,-1,608,407,0,0
-609,617,0,0,0,0,0,0,0,0,0,-1,615,407,0,0
-602,617,0,0,0,0,0,0,0,0,0,-1,622,407,0,0
-595,617,0,0,0,0,0,0,0,0,0,-1,629,407,0,0
-588,617,0,0,0,0,0,0,0,0,0,-1,636,407,0,0
-581,617,0,0,0,0,0,0,0,0,0,-1,643,407,0,0
-574,617,0,0,0,0,0,0,0,0,0,-1,650,407,0,0
-567,617,0,0,0,0,0,0,0,0,0,-1,657,407,0,0
-560,617,0,0,0,0,0,0,0,0,0,-1,664,407,0,0
-553,617,0,0,0,0,0,0,0,0,0,-1,671,407,0,0
-546,617,0,0,0,0,0,0,0,0,0,-1,678,407,0,0
-539,617,0,0,0,0,0,0,0,0,0,-1,685,407,0,0
-532,617,0,0,0,0,0,0,0,0,0,-1,692,407,0,0
-525,617,0,0,0,0,0,0,0,0,0,-1,699,407,0,0
-518,617,0,0,0,0,0,0,0,0,0,-1,706,407,0,0
-511,617,0,0,0,0,0,0,0,0,0,-1,713,407,0,0
-504,617,0,0,0,0,0,0,0,0,0,-1,720,407,0,0
-497,617,0,0,0,0,0,0,0,0,0,-1,727,407,0,0
-490,617,0,0,0,0,0,0,0,0,0,-1,734,407,0,0
-483,617,0,0,0,0,0,0,0,0,0,-1,741,407,0,0
-476,617,0,0,0,0,0,0,0,0,0,-1,748,407,0,0
-469,617,0,0,0,0,0,0,0,0,0,-1,755,407,0,0
-462,617,0,0,0,0,0,0,0,0,0,-1,762,407,0,0
-455,617,0,0,0,0,0,0,0,0,0,-1,769,407,0,0
-448,617,0,0,0,0,0,0,0,0,0,-1,776,407,0,0
-441,617,0,0,0,0,0,0,0,0,0,-1,783,407,0,0
-434,617,0,0,0,0,0,0,0,0,0,-1,790,407,0,0
-427,617,0,0,0,0,0,0,0,0,0,-1,797,407,0,0
-420,617,0,0,0,0,0,0,0,0,0,-1,804,407,0,0
-413,617,0,0,0,0,0,0,0,0,0,-1,811,407,0,0
-406,617,0,0,0,0,0,0,0,0,0,-1,818,407,0,0
-399,617,0,0,0,0,0,0,0,0,0,-1,825,407,0,0
-392,617,0,0,0,0,0,0,0,0,0,-1,832,407,0,0
-385,617,0,0,0,0,0,0,0,0,0,-1,839,407,0,0
-378,617,0,0,0,0,0,0,0,0,0,-1,846,407,0,0
-371,617,0,0,0,0,0,0,0,0,0,-1,853,407,0,0
-364,617,0,0,0,0,0,0,0,0,0,-1,860,407,0,0
-357,617,0,0,0,0,0,0,0,0,0,-1,867,407,0,0
-350,617,0,0,0,0,0,0,0,0,0,-1,874,407,0,0
-343,617,0,0,0,0,0,0,0,0,0,-1,881,407,0,0
-336,617,0,0,0,0,0,0,0,0,0,-1,888,407,0,0
-329,617,0,0,0,0,0,0,0,0,0,-1,895,407,0,0
-322,617,0,0,0,0,0,0,0,0,0,-1,902,407,0,0
-315,617,0,0,0,0,0,0,0,0,0,-1,909,407,0,0
-308,617,0,0,0,0,0,0,0,0,0,-1,916,407,0,0
-301,617,-1.61346,-11.4687,0,0,0,0,0,0,0,-1,923,407,-1.61344,11.4687
-294,617,-0.867493,-11.1655,0,0,0,0,0,0,0,-1,930,407,-0.867487,11.1655
-287,617,-0.212524,-10.7744,0,0,0,0,0,0,0,-1,937,407,-0.212541,10.7743
-280,617,2.19739,-11.6377,0,0,0,0,0,0,0,-1,944,407,2.19737,11.6377
-273,617,2.36188,-10.5736,0,0,0,0,0,0,0,-1,951,407,2.36188,10.5736
-266,617,2.00537,-8.98315,0,0,0,0,0,0,0,-1,958,407,2.00539,8.98315
-259,617,2.03473,-9.50534,-0.00656525,-0.00534416,-0.0114793,0.00554085,-0.0174503,-0.811966,0.0138548,0.0424289,965,407,2.0347,9.50533
-252,617,2.08514,-9.93616,-0.00732894,-0.00494742,-0.0103446,0.00427468,-0.016551,-0.842701,0.012701,0.0446914,972,407,2.08514,9.93614
-245,617,2.56726,-10.0143,0,0,0,0,0,0,0,-1,979,407,2.56726,10.0142
-238,617,2.58887,-10.3685,0,0,0,0,0,0,0,-1,986,407,2.58886,10.3685
-231,617,2.34253,-9.93945,-0.00595338,-0.00191767,-0.00692102,0.00327365,-0.0111447,-0.927244,0.00872812,0.0432408,993,407,2.34251,9.93946
-224,617,2.49493,-10.0693,-0.00345268,-0.00348329,-0.00575312,0.00228516,-0.00922112,-0.784068,0.00703397,0.0432053,1000,407,2.49494,10.0693
-217,617,2.65887,-10.2363,-0.000628683,-0.00570545,-0.00543181,0.0028286,-0.00916272,-0.566817,0.00723799,0.0375784,1007,407,2.65888,10.2363
-210,617,2.53571,-10.5647,0.00130893,-0.00685168,-0.00469248,0.00344701,-0.00898976,-0.427534,0.00741426,0.023562,1014,407,2.53572,10.5647
-203,617,2.53937,-10.6901,0.00330289,-0.00837426,-0.00398058,0.00453071,-0.00960209,-0.299194,0.00833285,0.0175009,1021,407,2.53937,10.6901
-196,617,2.53516,-10.8156,0.00421159,-0.00864677,-0.00284373,0.00481243,-0.00924761,-0.208223,0.00825109,0.0147522,1028,407,2.53512,10.8155
-189,617,2.50195,-10.9544,0.00428298,-0.00915551,-0.00284213,0.00485935,-0.00973187,-0.200081,0.00857939,0.0121455,1035,407,2.50198,10.9544
-182,617,2.49121,-11.0961,0.00425023,-0.00894129,-0.00271906,0.00478871,-0.00947976,-0.195509,0.008385,0.0131028,1042,407,2.49121,11.0961
-175,617,2.49402,-11.2347,0.00401856,-0.00875437,-0.00243008,0.00446526,-0.00920108,-0.181794,0.00804663,0.0128022,1049,407,2.49402,11.2347
-168,617,2.45874,-11.3871,0.00357156,-0.00809136,-0.00216458,0.00396034,-0.00848014,-0.177713,0.00733882,0.0103962,1056,407,2.45872,11.3871
-161,617,2.4303,-11.5505,0.00309176,-0.00680793,-0.00194132,0.00345884,-0.00717501,-0.186882,0.00626318,0.0112892,1063,407,2.43028,11.5505
-154,617,2.42603,-11.6817,0.00261423,-0.00511189,-0.00171558,0.00297804,-0.0054757,-0.208968,0.00495127,0.0112471,1070,407,2.42599,11.6817
-147,617,2.43787,-11.7823,0.00204767,-0.00364074,-0.00143173,0.0023877,-0.00398077,-0.233176,0.00371499,0.0147257,1077,407,2.43784,11.7823
-140,617,2.43262,-11.9222,0.00152703,-0.00219715,-0.0011281,0.00184209,-0.00251221,-0.272345,0.00252387,0.0110245,1084,407,2.43261,11.9222
-133,617,2.41797,-12.0266,0.00110587,-0.000897038,-0.000907951,0.00145619,-0.00124735,-0.368233,0.00156244,0.0127308,1091,407,2.41802,12.0266
-126,617,2.40283,-12.1213,0.000733794,0.000211431,-0.0007382,0.00125565,-0.000310429,-0.615366,0.000957503,0.0127689,1098,407,2.40286,12.1213
-119,617,2.39441,-12.2334,0.00043513,0.00133835,-0.000626424,0.00165898,0.000114497,-1.09772,0.00106987,0.0131566,1105,407,2.39437,12.2334
-112,617,2.38928,-12.3326,0.000233548,0.002061,-0.000451733,0.00216657,0.000127981,-1.34122,0.00140366,0.0151981,1112,407,2.38929,12.3326
-105,617,2.38013,-12.423,0.000309222,0.00212258,-0.000410896,0.00221134,0.000220461,-1.35805,0.00140651,0.0153347,1119,407,2.38011,12.423
-98,617,2.40784,-12.5267,0.000440926,0.00191454,-0.000355827,0.00199596,0.000359505,-1.34585,0.00122846,0.0129448,1126,407,2.40788,12.5267
-91,617,2.41687,-12.6235,0.000597302,0.00162281,-0.000286854,0.00169759,0.000522517,-1.31577,0.00100395,0.0182261,1133,407,2.41692,12.6235
-84,617,2.43298,-12.7248,0.000719115,0.00127669,-0.000151795,0.00131533,0.000680469,-1.3215,0.000759561,0.0179238,1140,407,2.43302,12.7248
-77,617,2.43726,-12.8027,0.000814527,0.000980405,-2.24323e-05,0.000983385,0.000811547,-1.43872,0.00060648,0.0136705,1147,407,2.43722,12.8027
-70,617,2.43018,-12.8702,0.00102067,0.000631547,0.000127498,0.00105872,0.000593493,0.290049,0.000612747,0.0134927,1154,407,2.43018,12.8702
-63,617,2.42456,-12.9322,0.00130058,0.00218411,-0.000561958,0.00245715,0.00102753,-1.11851,0.00142495,0.0144325,1161,407,2.42451,12.9322
-56,617,2.45776,-12.9994,0.00163645,0.00455447,-0.00155547,0.00522811,0.000962812,-1.1621,0.00321292,0.0113224,1168,407,2.45773,12.9994
-49,617,2.47009,-13.0578,0.00197844,0.0057911,-0.00220676,0.00680091,0.000968627,-1.14164,0.00424804,0.00938344,1175,407,2.47008,13.0578
-42,617,2.46899,-13.1364,0.00454283,0.00845681,-0.00560612,0.0124377,0.000561941,-0.953326,0.00811097,0.011158,1182,407,2.46903,13.1364
-35,617,2.47388,-13.1874,0.00636105,0.00947311,-0.00748222,0.0155594,0.000274782,-0.887919,0.0102826,0.0163192,1189,407,2.47389,13.1874
-28,617,2.43909,-13.2218,0.0065828,0.00975668,-0.00812169,0.016445,-0.000105537,-0.88188,0.0109987,0.0190346,1196,407,2.43906,13.2218
-21,617,2.48682,-13.2508,0.00670978,0.0112149,-0.00843017,0.0176882,0.000236399,-0.915948,0.0117142,0.0141159,1203,407,2.48685,13.2508
-14,617,2.48389,-13.2597,0.00698662,0.0112853,-0.00898425,0.0183737,-0.000101798,-0.902809,0.0122832,0.0152534,1210,407,2.48384,13.2597
-7,617,2.43115,-13.2677,0.00702067,0.0111709,-0.00916092,0.0184888,-0.000297228,-0.896777,0.0124261,0.0186088,1217,407,2.43121,13.2677
0,617,2.48145,-13.2983,0.00653933,0.0101418,-0.00843455,0.0169653,-0.000284182,-0.890594,0.0114061,0.0165657,1224,407,2.4815,13.2983
7,617,2.5387,-13.3799,0.00668543,0.00832426,-0.00702215,0.0145746,0.000435042,-0.843481,0.00957471,0.0111939,1231,407,2.5387,13.3799
14,617,2.5415,-13.4213,0.00700309,0.00573697,-0.00534481,0.0117522,0.000987864,-0.726451,0.00752715,0.0129686,1238,407,2.54146,13.4213
21,617,2.54333,-13.418,0.00678212,0.0038759,-0.0038056,0.0094026,0.00125542,-0.603023,0.00589466,0.0122803,1245,407,2.54331,13.418
28,617,2.56274,-13.4438,0.00693594,0.00188889,-0.00211092,0.00770242,0.00112241,-0.3483,0.00480472,0.0101635,1252,407,2.5627,13.4438
35,617,2.59949,-13.4565,0.00739424,0.000258807,-0.000368735,0.00741324,0.000239803,-0.0514937,0.0048642,0.0124162,1259,407,2.59945,13.4565
42,617,2.62927,-13.4446,0.00801888,-0.00184118,0.00125602,0.00817636,-0.00199866,0.124731,0.00622502,0.0194578,1266,407,2.62926,13.4447
49,617,2.62805,-13.4549,0.00867067,-0.00317455,0.0025375,0.00919137,-0.00369525,0.202392,0.00766233,0.0194978,1273,407,2.6281,13.4549
56,617,2.62622,-13.4385,0.00933535,-0.00311463,0.00313742,0.0100813,-0.00386057,0.233423,0.00831214,0.0132746,1280,407,2.62617,13.4385
63,617,2.63855,-13.4429,0.00929316,-0.00321479,0.00442827,0.0107022,-0.00462383,0.308062,0.00907749,0.0095465,1287,407,2.63858,13.4429
70,617,2.62561,-13.4472,0.00960687,-0.00246046,0.00437108,0.0110238,-0.0038774,0.313474,0.00892692,0.0147302,1294,407,2.62558,13.4472
77,617,2.65491,-13.4089,0.0106478,-0.0015773,0.00346424,0.0115612,-0.00249071,0.257803,0.00865798,0.0127338,1301,407,2.6549,13.4089
84,617,2.68445,-13.3912,0.0110354,-0.00130918,0.00250274,0.0115235,-0.00179729,0.192611,0.00834618,0.0100419,1308,407,2.68445,13.3912
91,617,2.69812,-13.3686,0.0102235,-0.000251146,0.00202266,0.0106005,-0.000628155,0.184278,0.0072854,0.00974036,1315,407,2.69808,13.3686
98,617,2.72412,-13.3389,0.00909637,-9.66933e-05,0.00159891,0.00936653,-0.000366846,0.16738,0.00637016,0.011134,1322,407,2.72413,13.3389
105,617,2.71936,-13.2898,0.00808831,-5.73208e-06,0.000856399,0.00817793,-9.53525e-05,0.104268,0.00548402,0.0130427,1329,407,2.71937,13.2898
112,617,2.72156,-13.2419,0.00654441,-0.000178468,0.000267196,0.00655501,-0.000189071,0.0396609,0.00443438,0.014844,1336,407,2.72157,13.2419
119,617,2.73853,-13.1836,0.00517917,-0.000572757,-7.88868e-05,0.00518026,-0.000573839,-0.0137114,0.00365981,0.0168329,1343,407,2.7385,13.1836
126,617,2.76733,-13.1292,0.00436812,-0.00190353,-0.00021168,0.00437526,-0.00191067,-0.0337007,0.003721,0.0187576,1350,407,2.76739,13.1292
133,617,2.78894,-13.0663,0.00328369,-0.0030515,-0.000429663,0.0033127,-0.00308051,-0.0674103,0.00369193,0.0172601,1357,407,2.78894,13.0664
140,617,2.79175,-13.0265,0.00220149,-0.00407497,-0.000694257,0.00227736,-0.00415085,-0.10886,0.0037635,0.0150334,1364,407,2.79178,13.0265
147,617,2.74121,-13.0146,0.00135315,-0.00474179,-0.000733724,0.00144023,-0.00482887,-0.118134,0.00379162,0.0182226,1371,407,2.7412,13.0146
154,617,2.75134,-12.9636,0.000666431,-0.00525518,-0.00082422,0.000779012,-0.00536776,-0.135751,0.00386444,0.021189,1378,407,2.7513,12.9636
161,617,2.75488,-12.876,9.65957e-05,-0.00559527,-0.000825242,0.00021383,-0.0057125,-0.141116,0.00388158,0.0212939,1385,407,2.7549,12.876
168,617,2.78723,-12.796,-0.000316829,-0.00554282,-0.00085713,-0.00017984,-0.00567981,-0.158483,0.00372804,0.0193354,1392,407,2.78722,12.796
175,617,2.82764,-12.7175,-0.000410744,-0.00495243,-0.000873855,-0.00024841,-0.00511477,-0.183674,0.00333013,0.0166096,1399,407,2.82758,12.7175
182,617,2.86145,-12.6152,-0.000728718,-0.00418795,-0.000649859,-0.000610663,-0.00430601,-0.179703,0.00269032,0.0114981,1406,407,2.86147,12.6152
189,617,2.85095,-12.5159,-0.000573558,-0.00360848,-0.000398948,-0.000521992,-0.00366005,-0.128544,0.00228599,0.0110797,1413,407,2.85101,12.5159
196,617,2.84302,-12.4242,0.000187395,-0.00264765,-0.000545685,0.000288801,-0.00274905,-0.183736,0.00193616,0.0146544,1420,407,2.84305,12.4242
203,617,2.86206,-12.3026,0.000597769,-0.00148182,-0.000690886,0.000806372,-0.00169043,-0.293231,0.00147134,0.0152626,1427,407,2.86206,12.3026
210,617,2.87122,-12.2071,0.000618306,-0.000776974,-0.000388779,0.000719321,-0.000877989,-0.254207,0.000923723,0.0146437,1434,407,2.87128,12.2071
217,617,2.86084,-12.0924,0.000505456,-0.000189493,-0.000283127,0.000606199,-0.000290237,-0.341854,0.000528165,0.0181391,1441,407,2.86083,12.0924
224,617,2.85474,-11.9973,0.000339873,0.000220306,-0.000114324,0.000409101,0.000151078,-0.544487,0.000238869,0.0175272,1448,407,2.85473,11.9973
231,617,2.88586,-11.8966,0.000418306,0.000643701,0.000102642,0.000683438,0.00037857,1.20143,0.000395347,0.0137034,1455,407,2.88583,11.8966
238,617,2.87256,-11.7754,0.000938903,0.00107248,0.000442538,0.00145324,0.000558141,0.860291,0.000846512,0.0144772,1462,407,2.8726,11.7754
245,617,2.87915,-11.6534,0.00134839,0.00152501,0.000700889,0.00214313,0.00073027,0.848066,0.00125808,0.0125208,1469,407,2.87909,11.6534
252,617,2.87878,-11.4799,0.00187894,0.00199635,0.00100623,0.00294559,0.000929703,0.814537,0.00173875,0.0133409,1476,407,2.87874,11.4799
259,617,2.84985,-11.3418,0.00253952,0.00247669,0.00101835,0.00352694,0.00148927,0.769979,0.00204447,0.0110999,1483,407,2.84983,11.3418
266,617,2.86707,-11.2046,0.00317156,0.00290099,0.00114155,0.00418581,0.00188674,0.726418,0.00242058,0.0124576,1490,407,2.86707,11.2046
273,617,2.86182,-11.0555,0.00390471,0.00323791,0.00126845,0.00488284,0.00225977,0.656884,0.00282171,0.0136614,1497,407,2.86184,11.0555
280,617,2.84241,-10.9279,0.00473922,0.00382198,0.00153571,0.00588333,0.00267787,0.640296,0.00340129,0.0132844,1504,407,2.84244,10.9279
287,617,2.83838,-10.7774,0.00539836,0.00422447,0.00161052,0.00652555,0.00309728,0.610655,0.00376915,0.0125792,1511,407,2.83838,10.7774
294,617,2.8269,-10.6118,0.00597386,0.00469276,0.00159823,0.00705513,0.0036115,0.594805,0.00407366,0.00972834,1518,407,2.82691,10.6118
301,617,2.81689,-10.4556,0.00637952,0.00515541,0.00155654,0.00744001,0.00409492,0.598075,0.00430276,0.00777103,1525,407,2.81695,10.4556
308,617,2.81409,-10.2928,0.00667843,0.0057847,0.00158205,0.00787552,0.00458761,0.647754,0.00456752,0.00798899,1532,407,2.81414,10.2928
315,617,2.81165,-10.1181,0.00670725,0.00619177,0.00156628,0.00803685,0.00486217,0.703852,0.00467405,0.00888941,1539,407,2.8117,10.1181
322,617,2.79517,-9.94351,0.00668572,0.00661811,0.00172113,0.00837338,0.00493045,0.775579,0.00485974,0.0110296,1546,407,2.7952,9.94351
329,617,2.78088,-9.77881,0.0066768,0.00726022,0.00201562,0.00900512,0.00493189,0.857262,0.00520698,0.0120742,1553,407,2.78092,9.77882
336,617,2.77869,-9.57935,0.00628597,0.00765651,0.00226077,0.00933358,0.0046089,0.932553,0.00538888,0.0277447,1560,407,2.77869,9.57936
343,617,2.75085,-9.25821,0,0,0,0,0,0,0,-1,1567,407,2.75089,9.2582
350,617,2.86865,-9.1723,0,0,0,0,0,0,0,-1,1574,407,2.86869,9.1723
357,617,2.1748,-7.16504,0,0,0,0,0,0,0,-1,1581,407,2.1748,7.16505
364,617,2.30127,-7.60257,0,0,0,0,0,0,0,-1,1588,407,2.30125,7.60258
371,617,2.60266,-6.20667,0,0,0,0,0,0,0,-1,1595,407,2.60261,6.20668
378,617,2.27588,-7.47134,0,0,0,0,0,0,0,-1,1602,407,2.27582,7.47136
385,617,1.37012,-5.41284,0,0,0,0,0,0,0,-1,1609,407,1.37016,5.41286
392,617,3.40723,-2.54929,0,0,0,0,0,0,0,-1,1616,407,3.40725,2.54929
399,617,3.25,-2.14835,0,0,0,0,0,0,0,-1,1623,407,3.25006,2.14836
406,617,3.02429,-3.19577,0,0,0,0,0,0,0,-1,1630,407,3.02431,3.19577
413,617,2.92786,-3.80649,0,0,0,0,0,0,0,-1,1637,407,2.92788,3.8065
420,617,3.42737,-4.47391,0,0,0,0,0,0,0,-1,1644,407,3.42737,4.47391
427,617,0,0,0,0,0,0,0,0,0,-1,1651,407,0,0
434,617,0,0,0,0,0,0,0,0,0,-1,1658,407,0,0
441,617,0,0,0,0,0,0,0,0,0,-1,1665,407,0,0
448,617,0,0,0,0,0,0,0,0,0,-1,1672,407,0,0
455,617,0,0,0,0,0,0,0,0,0,-1,1679,407,0,0
462,617,0,0,0,0,0,0,0,0,0,-1,1686,407,0,0
469,617,0,0,0,0,0,0,0,0,0,-1,1693,407,0,0
476,617,0,0,0,0,0,0,0,0,0,-1,1700,407,0,0
483,617,0,0,0,0,0,0,0,0,0,-1,1707,407,0,0
490,617,0,0,0,0,0,0,0,0,0,-1,1714,407,0,0
497,617,0,0,0,0,0,0,0,0,0,-1,1721,407,0,0
504,617,0,0,0,0,0,0,0,0,0,-1,1728,407,0,0
511,617,0,0,0,0,0,0,0,0,0,-1,1735,407,0,0
518,617,0,0,0,0,0,0,0,0,0,-1,1742,407,0,0
525,617,0,0,0,0,0,0,0,0,0,-1,1749,407,0,0
532,617,0,0,0,0,0,0,0,0,0,-1,1756,407,0,0
539,617,0,0,0,0,0,0,0,0,0,-1,1763,407,0,0
546,617,0,0,0,0,0,0,0,0,0,-1,1770,407,0,0
553,617,0,0,0,0,0,0,0,0,0,-1,1777,407,0,0
560,617,0,0,0,0,0,0,0,0,0,-1,1784,407,0,0
567,617,0,0,0,0,0,0,0,0,0,-1,1791,407,0,0
574,617,0,0,0,0,0,0,0,0,0,-1,1798,407,0,0
581,617,0,0,0,0,0,0,0,0,0,-1,1805,407,0,0
588,617,0,0,0,0,0,0,0,0,0,-1,1812,407,0,0
595,617,0,0,0,0,0,0,0,0,0,-1,1819,407,0,0
602,617,0,0,0,0,0,0,0,0,0,-1,1826,407,0,0
609,617,0,0,0,0,0,0,0,0,0,-1,1833,407,0,0
616,617,0,0,0,0,0,0,0,0,0,-1,1840,407,0,0
623,617,0,0,0,0,0,0,0,0,0,-1,1847,407,0,0
630,617,0,0,0,0,0,0,0,0,0,-1,1854,407,0,0
637,617,0,0,0,0,0,0,0,0,0,-1,1861,407,0,0
644,617,0,0,0,0,0,0,0,0,0,-1,1868,407,0,0
651,617,0,0,0,0,0,0,0,0,0,-1,1875,407,0,0
658,617,0,0,0,0,0,0,0,0,0,-1,1882,407,0,0
665,617,0,0,0,0,0,0,0,0,0,-1,1889,407,0,0
672,617,0,0,0,0,0,0,0,0,0,-1,1896,407,0,0
679,617,0,0,0,0,0,0,0,0,0,-1,1903,407,0,0
686,617,0,0,0,0,0,0,0,0,0,-1,1910,407,0,0
693,617,0,0,0,0,0,0,0,0,0,-1,1917,407,0,0
700,617,0,0,0,0,0,0,0,0,0,-1,1924,407,0,0
707,617,0,0,0,0,0,0,0,0,0,-1,1931,407,0,0
714,617,0,0,0,0,0,0,0,0,0,-1,1938,407,0,0
721,617,0,0,0,0,0,0,0,0,0,-1,1945,407,0,0
728,617,0,0,0,0,0,0,0,0,0,-1,1952,407,0,0
735,617,0,0,0,0,0,0,0,0,0,-1,1959,407,0,0
742,617,0,0,0,0,0,0,0,0,0,-1,1966,407,0,0
749,617,0,0,0,0,0,0,0,0,0,-1,1973,407,0,0
756,617,0,0,0,0,0,0,0,0,0,-1,1980,407,0,0
763,617,0,0,0,0,0,0,0,0,0,-1,1987,407,0,0
770,617,0,0,0,0,0,0,0,0,0,-1,1994,407,0,0
777,617,0,0,0,0,0,0,0,0,0,-1,2001,407,0,0
784,617,0,0,0,0,0,0,0,0,0,-1,2008,407,0,0
791,617,0,0,0,0,0,0,0,0,0,-1,2015,407,0,0
798,617,0,0,0,0,0,0,0,0,0,-1,2022,407,0,0
805,617,0,0,0,0,0,0,0,0,0,-1,2029,407,0,0
812,617,0,0,0,0,0,0,0,0,0,-1,2036,407,0,0
-700,610,0,0,0,0,0,0,0,0,0,-1,524,414,0,0
-693,610,0,0,0,0,0,0,0,0,0,-1,531,414,0,0
-686,610,0,0,0,0,0,0,0,0,0,-1,538,414,0,0
-679,610,0,0,0,0,0,0,0,0,0,-1,545,414,0,0
-672,610,0,0,0,0,0,0,0,0,0,-1,552,414,0,0
-665,610,0,0,0,0,0,0,0,0,0,-1,559,414,0,0
-658,610,0,0,0,0,0,0,0,0,0,-1,566,414,0,0
-651,610,0,0,0,0,0,0,0,0,0,-1,573,414,0,0
-644,610,0,0,0,0,0,0,0,0,0,-1,580,414,0,0
-637,610,0,0,0,0,0,0,0,0,0,-1,587,414,0,0
-630,610,0,0,0,0,0,0,0,0,0,-1,594,414,0,0
-623,610,0,0,0,0,0,0,0,0,0,-1,601,414,0,0
-616,610,0,0,0,0,0,0,0,0,0,-1,608,414,0,0
-609,610,0,0,0,0,0,0,0,0,0,-1,615,414,0,0
-602,610,0,0,0,0,0,0,0,0,0,-1,622,414,0,0
-595,610,0,0,0,0,0,0,0,0,0,-1,629,414,0,0
-588,610,0,0,0,0,0,0,0,0,0,-1,636,414,0,0
-581,610,0,0,0,0,0,0,0,0,0,-1,643,414,0,0
-574,610,0,0,0,0,0,0,0,0,0,-1,650,414,0,0
-567,610,0,0,0,0,0,0,0,0,0,-1,657,414,0,0
-560,610,0,0,0,0,0,0,0,0,0,-1,664,414,0,0
-553,610,0,0,0,0,0,0,0,0,0,-1,671,414,0,0
-546,610,0,0,0,0,0,0,0,0,0,-1,678,414,0,0
-539,610,0,0,0,0,0,0,0,0,0,-1,685,414,0,0
-532,610,0,0,0,0,0,0,0,0,0,-1,692,414,0,0
-525,610,0,0,0,0,0,0,0,0,0,-1,699,414,0,0
-518,610,0,0,0,0,0,0,0,0,0,-1,706,414,0,0
-511,610,0,0,0,0,0,0,0,0,0,-1,713,414,0,0
-504,610,0,0,0,0,0,0,0,0,0,-1,720,414,0,0
-497,610,0,0,0,0,0,0,0,0,0,-1,727,414,0,0
-490,610,0,0,0,0,0,0,0,0,0,-1,734,414,0,0
-483,610,0,0,0,0,0,0,0,0,0,-1,741,414,0,0
-476,610,0,0,0,0,0,0,0,0,0,-1,748,414,0,0
-469,610,0,0,0,0,0,0,0,0,0,-1,755,414,0,0
-462,610,0,0,0,0,0,0,0,0,0,-1,762,414,0,0
-455,610,0,0,0,0,0,0,0,0,0,-1,769,414,0,0
-448,610,0,0,0,0,0,0,0,0,0,-1,776,414,0,0
-441,610,0,0,0,0,0,0,0,0,0,-1,783,414,0,0
-434,610,0,0,0,0,0,0,0,0,0,-1,790,414,0,0
-427,610,0,0,0,0,0,0,0,0,0,-1,797,414,0,0
-420,610,0,0,0,0,0,0,0,0,0,-1,804,414,0,0
-413,610,0,0,0,0,0,0,0,0,0,-1,811,414,0,0
-406,610,0,0,0,0,0,0,0,0,0,-1,818,414,0,0
-399,610,0,0,0,0,0,0,0,0,0,-1,825,414,0,0
-392,610,0,0,0,0,0,0,0,0,0,-1,832,414,0,0
-385,610,0,0,0,0,0,0,0,0,0,-1,839,414,0,0
-378,610,0,0,0,0,0,0,0,0,0,-1,846,414,0,0
-371,610,0,0,0,0,0,0,0,0,0,-1,853,414,0,0
-364,610,0,0,0,0,0,0,0,0,0,-1,860,414,0,0
-357,610,0,0,0,0,0,0,0,0,0,-1,867,414,0,0
-350,610,0,0,0,0,0,0,0,0,0,-1,874,414,0,0
-343,610,0,0,0,0,0,0,0,0,0,-1,881,414,0,0
-336,610,0,0,0,0,0,0,0,0,0,-1,888,414,0,0
-329,610,0,0,0,0,0,0,0,0,0,-1,895,414,0,0
-322,610,0,0,0,0,0,0,0,0,0,-1,902,414,0,0
-315,610,5.57825,-7.69159,0,0,0,0,0,0,0,-1,909,414,5.57823,7.69159
-308,610,5.54938,-7.44653,0,0,0,0,0,0,0,-1,916,414,5.54937,7.44653
-301,610,-1.54291,-9.7341,0,0,0,0,0,0,0,-1,923,414,-1.54293,9.73409
-294,610,-1.43835,-9.29047,0,0,0,0,0,0,0,-1,930,414,-1.43836,9.29047
-287,610,2.08557,-11.9136,0,0,0,0,0,0,0,-1,937,414,2.08555,11.9136
-280,610,2.25854,-11.0924,0,0,0,0,0,0,0,-1,944,414,2.25856,11.0924
-273,610,2.44586,-10.2559,0,0,0,0,0,0,0,-1,951,414,2.44589,10.2559
-266,610,2.6048,-9.41223,0,0,0,0,0,0,0,-1,958,414,2.60478,9.41223
-259,610,2.58582,-8.88818,0,0,0,0,0,0,0,-1,965,414,2.58583,8.88819
-252,610,2.35846,-9.76242,-0.00411263,-0.00252956,-0.00723731,0.00395937,-0.0106016,-0.839866,0.00869343,0.0496036,972,414,2.35846,9.76242
-245,610,2.44861,-9.85272,-0.00443497,-0.00213321,-0.00628311,0.00310355,-0.00967173,-0.875979,0.0076939,0.0486032,979,414,2.44862,9.85273
-238,610,2.52203,-10.1032,-0.00472953,-0.00147818,-0.005553,0.00268222,-0.00888993,-0.927797,0.00699428,0.0408056,986,414,2.52202,10.1032
-231,610,2.34674,-9.97388,-0.00439551,-0.00118441,-0.00494657,0.00241065,-0.00799057,-0.942323,0.00628659,0.031282,993,414,2.34672,9.97388
-224,610,2.3454,-10.1759,-0.00287752,-0.00167939,-0.00412643,0.00189123,-0.00644815,-0.857483,0.00504867,0.0232382,1000,414,2.34541,10.1759
-217,610,2.39648,-10.3716,-0.001146,-0.00266567,-0.00386133,0.00202955,-0.00584121,-0.688249,0.00471847,0.0154146,1007,414,2.39646,10.3716
-210,610,2.38165,-10.5381,0.000144615,-0.00329007,-0.00334749,0.00218958,-0.00533504,-0.548392,0.00446907,0.0102601,1014,414,2.38165,10.5381
-203,610,2.37555,-10.69,0.00154774,-0.0043425,-0.00279867,0.00266541,-0.00546017,-0.379953,0.00478291,0.0124496,1021,414,2.37552,10.69
-196,610,2.3833,-10.8589,0.00221911,-0.00445871,-0.00193872,0.00274116,-0.00498076,-0.263033,0.00452032,0.0124512,1028,414,2.38336,10.8589
-189,610,2.37952,-10.977,0.00233201,-0.00484201,-0.00194997,0.00282777,-0.00533778,-0.248966,0.00478805,0.00977802,1035,414,2.37953,10.977
-182,610,2.35425,-11.1205,0.00242844,-0.00477924,-0.00190196,0.00289954,-0.00525033,-0.242804,0.00477013,0.0111007,1042,414,2.35423,11.1205
-175,610,2.33545,-11.2608,0.00238486,-0.00480379,-0.0017138,0.00277253,-0.00519146,-0.222461,0.00466818,0.0119892,1049,414,2.33545,11.2608
-168,610,2.31641,-11.3926,0.00217566,-0.00457473,-0.0015362,0.00250881,-0.00490789,-0.213562,0.00435607,0.0108372,1056,414,2.31637,11.3926
-161,610,2.2998,-11.5746,0.00194112,-0.00404476,-0.00138662,0.00224672,-0.00435036,-0.216929,0.00387284,0.0107167,1063,414,2.2998,11.5746
-154,610,2.29419,-11.6901,0.00170383,-0.00318718,-0.00120706,0.0019855,-0.00346885,-0.22925,0.00318765,0.0134561,1070,414,2.29423,11.6901
-147,610,2.31653,-11.7723,0.00140206,-0.00247647,-0.000965567,0.00162915,-0.00270356,-0.230984,0.002527,0.0150816,1077,414,2.31656,11.7723
-140,610,2.32446,-11.912,0.00112293,-0.00180541,-0.000671482,0.00126957,-0.00195204,-0.214995,0.00187386,0.0115539,1084,414,2.32452,11.912
-133,610,2.31799,-12.0248,0.000922216,-0.00121808,-0.000458371,0.00101625,-0.00131212,-0.202342,0.0013479,0.0121651,1091,414,2.31795,12.0248
-126,610,2.31335,-12.1271,0.000724842,-0.000708596,-0.00027164,0.000774592,-0.000758346,-0.181139,0.000885058,0.010732,1098,414,2.31336,12.1271
-119,610,2.2998,-12.2391,0.000599518,-0.000192695,-0.000133675,0.000621466,-0.000214643,-0.162736,0.000501414,0.00951794,1105,414,2.29986,12.2391
-112,610,2.29248,-12.3393,0.000572982,9.05457e-05,4.70508e-05,0.000577528,8.59998e-05,0.0963181,0.000359795,0.0177848,1112,414,2.29247,12.3393
-105,610,2.28247,-12.422,0.000724127,8.99143e-05,0.000166307,0.000765091,4.89503e-05,0.241508,0.000494552,0.0181999,1119,414,2.28242,12.422
-98,610,2.3103,-12.5354,0.000912446,-4.13691e-05,0.000255482,0.000976567,-0.00010549,0.245901,0.000688906,0.0127016,1126,414,2.31031,12.5354
-91,610,2.33704,-12.6298,0.0010826,-7.52324e-05,0.000279269,0.00114644,-0.000139072,0.224735,0.000814614,0.0135665,1133,414,2.33709,12.6298
-84,610,2.34436,-12.7172,0.00122913,-0.000131415,0.000359381,0.00131822,-0.00022051,0.243012,0.000960791,0.0143996,1140,414,2.34437,12.7172
-77,610,2.3512,-12.812,0.00134353,-7.75426e-05,0.000447887,0.00147292,-0.000206925,0.281218,0.00105769,0.011168,1147,414,2.3512,12.812
-70,610,2.36035,-12.8912,0.00164,-0.000245605,0.000563633,0.00179563,-0.000401237,0.269411,0.00135084,0.0124476,1154,414,2.36031,12.8912
-63,610,2.36975,-12.9531,0.00210169,0.00821792,-0.00329794,0.00965741,0.000662198,-1.15924,0.00622928,0.0117814,1161,414,2.36975,12.9531
-56,610,2.38538,-12.9964,0.00263253,0.0175507,-0.00740193,0.0206,-0.000416782,-1.18002,0.0138744,0.0103383,1168,414,2.3854,12.9964
-49,610,2.40112,-13.0585,0.00311994,0.0236348,-0.0103479,0.0279477,-0.00119296,-1.1759,0.0190419,0.010685,1175,414,2.40108,13.0585
-42,610,2.40942,-13.1344,0.00728537,0.0324622,-0.0180513,0.041881,-0.00213339,-1.08988,0.0286583,0.0140216,1182,414,2.40948,13.1344
-35,610,2.41406,-13.186,0.00968309,0.0358463,-0.0217807,0.0481719,-0.00264253,-1.05583,0.0330307,0.0146702,1189,414,2.41405,13.186
-28,610,2.41455,-13.2266,0.00962141,0.0372197,-0.023018,0.0502579,-0.00341681,-1.05542,0.0347003,0.0124307,1196,414,2.4146,13.2266
-21,610,2.4386,-13.2511,0.00923407,0.0386599,-0.0229591,0.0512158,-0.00332186,-1.07035,0.0353033,0.0107483,1203,414,2.43857,13.2511
-14,610,2.44055,-13.2812,0.00906364,0.0369032,-0.0228539,0.0497428,-0.00377594,-1.05893,0.0344895,0.0124491,1210,414,2.4406,13.2812
-7,610,2.4408,-13.301,0.00868604,0.0344102,-0.0219486,0.0469877,-0.00389146,-1.05043,0.0326996,0.0143219,1217,414,2.44084,13.301
0,610,2.47559,-13.334,0.00765939,0.0300893,-0.0195468,0.0414099,-0.00366123,-1.04584,0.0289044,0.0108767,1224,414,2.47557,13.334
7,610,2.49817,-13.3854,0.00753168,0.0243265,-0.0161109,0.0340971,-0.00223892,-1.02564,0.0235133,0.0108542,1231,414,2.49811,13.3854
14,610,2.53479,-13.4072,0.00776019,0.0176974,-0.0122576,0.0259552,-0.000497579,-0.977952,0.0174717,0.0131527,1238,414,2.53485,13.4072
21,610,2.57068,-13.4142,0.00733896,0.0123815,-0.00874788,0.0189642,0.000756265,-0.925703,0.0123984,0.0123762,1245,414,2.57069,13.4142
28,610,2.58594,-13.4502,0.00750081,0.00731543,-0.00528739,0.0126963,0.00211992,-0.776634,0.00785354,0.0119403,1252,414,2.58599,13.4502
35,610,2.6239,-13.4435,0.00815914,0.00322885,-0.00199701,0.00886653,0.00252146,-0.340434,0.00527537,0.0153852,1259,414,2.62393,13.4435
42,610,2.61096,-13.4386,0.00912786,-0.00214202,0.00146594,0.00931542,-0.00232959,0.127255,0.00711509,0.0154046,1266,414,2.61094,13.4386
49,610,2.61389,-13.4592,0.0102337,-0.00518953,0.00385939,0.0111455,-0.00610136,0.23201,0.0100985,0.0151153,1273,414,2.61386,13.4592
56,610,2.65295,-13.4329,0.0114293,-0.00526212,0.00488274,0.0127527,-0.00658554,0.264681,0.0113526,0.0127952,1280,414,2.65294,13.4329
63,610,2.65308,-13.4102,0.0116437,-0.00593271,0.00708451,0.0141437,-0.00843267,0.339236,0.0131727,0.0154937,1287,414,2.65306,13.4102
70,610,2.65942,-13.4062,0.0124428,-0.00455742,0.00705553,0.0149895,-0.00710413,0.346399,0.0130238,0.0225301,1294,414,2.6594,13.4062
77,610,2.68286,-13.3916,0.0141724,-0.00297319,0.00576656,0.0159314,-0.00473219,0.296069,0.0125006,0.0274999,1301,414,2.68283,13.3916
84,610,2.73657,-13.3475,0.0151204,-0.00228291,0.00440864,0.0161735,-0.00333599,0.234474,0.0120493,0.0297276,1308,414,2.73663,13.3475
91,610,2.78345,-13.3328,0.0140859,-0.000450384,0.00365542,0.0149533,-0.00131784,0.232998,0.0104359,0.0260238,1315,414,2.78348,13.3328
98,610,2.84192,-13.3279,0.0123113,-9.27892e-05,0.00292547,0.0129666,-0.000748132,0.220374,0.00890428,0.0241259,1322,414,2.84188,13.3279
105,610,2.8186,-13.2871,0.0108071,0.000177296,0.00178368,0.0110984,-0.000114023,0.161895,0.00743722,0.018328,1329,414,2.81863,13.2871
112,610,2.7843,-13.2469,0.00846,8.12624e-05,0.00085317,0.00854599,-4.72926e-06,0.100452,0.00569891,0.0112379,1336,414,2.78435,13.247
119,610,2.77185,-13.1917,0.0062237,-0.000483226,0.000164658,0.00622774,-0.000487265,0.0245307,0.00432341,0.015707,1343,414,2.7719,13.1917
126,610,2.78064,-13.1279,0.00479192,-0.00248734,-0.000198625,0.00479734,-0.00249276,-0.0272594,0.00427847,0.0231536,1350,414,2.78065,13.1279
133,610,2.85657,-13.0749,0.00293017,-0.00436898,-0.000590944,0.0029777,-0.00441652,-0.0802641,0.00429591,0.0193735,1357,414,2.85655,13.0749
140,610,2.86853,-13.0355,0.00109563,-0.00609391,-0.00105733,0.0012479,-0.00624618,-0.143032,0.00463641,0.0145298,1364,414,2.86855,13.0355
147,610,2.84265,-12.9642,-0.000398776,-0.00731416,-0.00120049,-0.000196304,-0.00751663,-0.167086,0.00494695,0.0161114,1371,414,2.8427,12.9642
154,610,2.81763,-12.8974,-0.00158689,-0.00827974,-0.00138292,-0.0013124,-0.00855423,-0.195939,0.00531959,0.0219818,1378,414,2.81758,12.8974
161,610,2.81506,-12.841,-0.00251195,-0.00896494,-0.00144777,-0.00220202,-0.00927487,-0.210891,0.00559558,0.0255859,1385,414,2.81502,12.841
168,610,2.87488,-12.772,-0.00306741,-0.00910876,-0.00157637,-0.00268082,-0.00949534,-0.24049,0.00565265,0.0248081,1392,414,2.87486,12.772
175,610,2.93164,-12.6971,-0.00302142,-0.00833598,-0.00167128,-0.00253954,-0.00881786,-0.280715,0.00524131,0.0206367,1399,414,2.93166,12.6971
182,610,2.96326,-12.602,-0.00322689,-0.00724882,-0.00137008,-0.00280453,-0.00767119,-0.299034,0.00448199,0.0148298,1406,414,2.96325,12.602
189,610,2.95898,-12.5011,-0.00251852,-0.00628687,-0.00100407,-0.00226768,-0.00653771,-0.244809,0.0038331,0.0132678,1413,414,2.95895,12.5011
196,610,2.96021,-12.4143,-0.000512298,-0.00450051,-0.00121083,-0.000173473,-0.00483933,-0.27285,0.00316998,0.0131963,1420,414,2.96024,12.4143
203,610,2.96631,-12.2975,0.000894733,-0.00236305,-0.00144563,0.00144371,-0.00291203,-0.362931,0.00256197,0.0144423,1427,414,2.96626,12.2974
210,610,2.95886,-12.2126,0.00117372,-0.00129552,-0.000999747,0.00152774,-0.00164955,-0.340332,0.00183486,0.0110915,1434,414,2.95889,12.2126
217,610,2.94373,-12.0878,0.00110258,-0.000490855,-0.000838022,0.00146217,-0.000850441,-0.405329,0.00135067,0.0162406,1441,414,2.94374,12.0878
224,610,2.95764,-11.979,0.000887087,4.92009e-05,-0.000587269,0.00118953,-0.000253243,-0.475575,0.000889533,0.019672,1448,414,2.95768,11.979
231,610,2.99207,-11.8894,0.000830471,0.000536502,-0.000333586,0.00104802,0.000318955,-0.577885,0.000620325,0.0149792,1455,414,2.9921,11.8894
238,610,2.99658,-11.7681,0.00101252,0.00102927,-4.1598e-05,0.00106333,0.000978462,-0.884753,0.000682358,0.0105079,1462,414,2.99656,11.7681
245,610,2.9928,-11.6333,0.00122173,0.00151184,0.000216079,0.00162703,0.00110653,1.081,0.000959465,0.0120067,1469,414,2.99285,11.6333
252,610,2.97754,-11.4811,0.00147584,0.00195532,0.000481889,0.00225381,0.00117735,1.01622,0.00130167,0.01341,1476,414,2.97755,11.4811
259,610,2.97083,-11.3422,0.00179984,0.00233501,0.000620266,0.00274295,0.0013919,0.98904,0.0015837,0.0115516,1483,414,2.97084,11.3422
266,610,2.99463,-11.2137,0.0021316,0.00262633,0.0007761,0.00319353,0.0015644,0.939672,0.00184391,0.0117335,1490,414,2.99469,11.2136
273,610,2.9884,-11.0736,0.00254227,0.00286135,0.000936953,0.00365225,0.00175137,0.869725,0.00210922,0.00964709,1497,414,2.98843,11.0736
280,610,2.97766,-10.9226,0.00301508,0.00325258,0.00120168,0.00434136,0.00192629,0.834649,0.00251178,0.00976187,1504,414,2.97763,10.9226
287,610,2.9679,-10.7588,0.00342654,0.00348968,0.00133806,0.00479654,0.00211968,0.797194,0.0027755,0.0129061,1511,414,2.96784,10.7588
294,610,2.97449,-10.6042,0.00381403,0.00373707,0.00141118,0.00518725,0.00236385,0.771768,0.00299878,0.0107643,1518,414,2.97453,10.6041
301,610,2.96802,-10.4613,0.00406855,0.00395992,0.00146368,0.00547893,0.00254955,0.766852,0.00316579,0.010209,1525,414,2.968,10.4613
308,610,2.97351,-10.295,0.00426677,0.00433629,0.00157668,0.00587859,0.00272446,0.79642,0.00339703,0.0119418,1532,414,2.9735,10.295
315,610,2.9718,-10.138,0.00429178,0.00459157,0.001664,0.00611242,0.00277094,0.830317,0.00353413,0.0125917,1539,414,2.97176,10.138
322,610,2.95068,-9.95721,0.00426606,0.00487915,0.0018515,0.00644931,0.0026959,0.867437,0.00374016,0.0118762,1546,414,2.95071,9.95722
329,610,2.92957,-9.77261,0.00425053,0.00531417,0.00214947,0.00699663,0.00256806,0.906673,0.00408684,0.0111802,1553,414,2.9296,9.77262
336,610,2.93982,-9.57413,0.00398475,0.00559759,0.00241698,0.00733913,0.00224321,0.946415,0.00434263,0.012059,1560,414,2.93983,9.57413
343,610,2.94861,-9.38568,0.00323444,0.00597595,0.00255212,0.00750214,0.00170825,1.03184,0.00454042,0.0245827,1567,414,2.94856,9.38569
350,610,2.92456,-9.27588,0.00344443,0.0063639,0.00317566,0.00839926,0.00140908,1.00083,0.00519392,0.0489996,1574,414,2.92461,9.27587
357,610,2.98755,-8.89566,0,0,0,0,0,0,0,-1,1581,414,2.98753,8.89566
364,610,3.03064,-8.74655,0,0,0,0,0,0,0,-1,1588,414,3.03065,8.74656
371,610,2.97424,-8.44043,0,0,0,0,0,0,0,-1,1595,414,2.97428,8.44043
378,610,3.15979,-8.19522,0,0,0,0,0,0,0,-1,1602,414,3.15975,8.19521
385,610,3.04224,-8.11713,0,0,0,0,0,0,0,-1,1609,414,3.04229,8.11713
392,610,2.54626,0.0437622,0,0,0,0,0,0,0,-1,1616,414,2.54632,-0.0437683
399,610,3.03833,-2.82547,0,0,0,0,0,0,0,-1,1623,414,3.03827,2.82546
406,610,2.91687,-2.9166,0,0,0,0,0,0,0,-1,1630,414,2.91688,2.91659
413,610,3.01929,-3.20306,0,0,0,0,0,0,0,-1,1637,414,3.01929,3.20306
420,610,4.78149,-3.64041,0,0,0,0,0,0,0,-1,1644,414,4.78152,3.64042
427,610,5.20764,-4.67545,0,0,0,0,0,0,0,-1,1651,414,5.20759,4.67545
434,610,5.39233,-5.45441,0,0,0,0,0,0,0,-1,1658,414,5.39228,5.4544
441,610,0,0,0,0,0,0,0,0,0,-1,1665,414,0,0
448,610,0,0,0,0,0,0,0,0,0,-1,1672,414,0,0
455,610,0,0,0,0,0,0,0,0,0,-1,1679,414,0,0
462,610,0,0,0,0,0,0,0,0,0,-1,1686,414,0,0
469,610,0,0,0,0,0,0,0,0,0,-1,1693,414,0,0
476,610,0,0,0,0,0,0,0,0,0,-1,1700,414,0,0
483,610,0,0,0,0,0,0,0,0,0,-1,1707,414,0,0
490,610,0,0,0,0,0,0,0,0,0,-1,1714,414,0,0
497,610,0,0,0,0,0,0,0,0,0,-1,1721,414,0,0
504,610,0,0,0,0,0,0,0,0,0,-1,1728,414,0,0
511,610,0,0,0,0,0,0,0,0,0,-1,1735,414,0,0
518,610,0,0,0,0,0,0,0,0,0,-1,1742,414,0,0
525,610,0,0,0,0,0,0,0,0,0,-1,1749,414,0,0
532,610,0,0,0,0,0,0,0,0,0,-1,1756,414,0,0
539,610,0,0,0,0,0,0,0,0,0,-1,1763,414,0,0
546,610,0,0,0,0,0,0,0,0,0,-1,1770,414,0,0
553,610,0,0,0,0,0,0,0,0,0,-1,1777,414,0,0
560,610,0,0,0,0,0,0,0,0,0,-1,1784,414,0,0
567,610,0,0,0,0,0,0,0,0,0,-1,1791,414,0,0
574,610,0,0,0,0,0,0,0,0,0,-1,1798,414,0,0
581,610,0,0,0,0,0,0,0,0,0,-1,1805,414,0,0
588,610,0,0,0,0,0,0,0,0,0,-1,1812,414,0,0
595,610,0,0,0,0,0,0,0,0,0,-1,1819,414,0,0
602,610,0,0,0,0,0,0,0,0,0,-1,1826,414,0,0
609,610,0,0,0,0,0,0,0,0,0,-1,1833,414,0,0
616,610,0,0,0,0,0,0,0,0,0,-1,1840,414,0,0
623,610,0,0,0,0,0,0,0,0,0,-1,1847,414,0,0
630,610,0,0,0,0,0,0,0,0,0,-1,1854,414,0,0
637,610,0,0,0,0,0,0,0,0,0,-1,1861,414,0,0
644,610,0,0,0,0,0,0,0,0,0,-1,1868,414,0,0
651,610,0,0,0,0,0,0,0,0,0,-1,1875,414,0,0
658,610,0,0,0,0,0,0,0,0,0,-1,1882,414,0,0
665,610,0,0,0,0,0,0,0,0,0,-1,1889,414,0,0
672,610,0,0,0,0,0,0,0,0,0,-1,1896,414,0,0
679,610,0,0,0,0,0,0,0,0,0,-1,1903,414,0,0
686,610,0,0,0,0,0,0,0,0,0,-1,1910,414,0,0
693,610,0,0,0,0,0,0,0,0,0,-1,1917,414,0,0
700,610,0,0,0,0,0,0,0,0,0,-1,1924,414,0,0
707,610,0,0,0,0,0,0,0,0,0,-1,1931,414,0,0
714,610,0,0,0,0,0,0,0,0,0,-1,1938,414,0,0
721,610,0,0,0,0,0,0,0,0,0,-1,1945,414,0,0
728,610,0,0,0,0,0,0,0,0,0,-1,1952,414,0,0
735,610,0,0,0,0,0,0,0,0,0,-1,1959,414,0,0
742,610,0,0,0,0,0,0,0,0,0,-1,1966,414,0,0
749,610,0,0,0,0,0,0,0,0,0,-1,1973,414,0,0
756,610,0,0,0,0,0,0,0,0,0,-1,1980,414,0,0
763,610,0,0,0,0,0,0,0,0,0,-1,1987,414,0,0
770,610,0,0,0,0,0,0,0,0,0,-1,1994,414,0,0
777,610,0,0,0,0,0,0,0,0,0,-1,2001,414,0,0
784,610,0,0,0,0,0,0,0,0,0,-1,2008,414,0,0
791,610,0,0,0,0,0,0,0,0,0,-1,2015,414,0,0
798,610,0,0,0,0,0,0,0,0,0,-1,2022,414,0,0
805,610,0,0,0,0,0,0,0,0,0,-1,2029,414,0,0
812,610,0,0,0,0,0,0,0,0,0,-1,2036,414,0,0
-700,603,0,0,0,0,0,0,0,0,0,-1,524,421,0,0
-693,603,0,0,0,0,0,0,0,0,0,-1,531,421,0,0
-686,603,0,0,0,0,0,0,0,0,0,-1,538,421,0,0
-679,603,0,0,0,0,0,0,0,0,0,-1,545,421,0,0
-672,603,0,0,0,0,0,0,0,0,0,-1,552,421,0,0
-665,603,0,0,0,0,0,0,0,0,0,-1,559,421,0,0
-658,603,0,0,0,0,0,0,0,0,0,-1,566,421,0,0
-651,603,0,0,0,0,0,0,0,0,0,-1,573,421,0,0
-644,603,0,0,0,0,0,0,0,0,0,-1,580,421,0,0
-637,603,0,0,0,0,0,0,0,0,0,-1,587,421,0,0
-630,603,0,0,0,0,0,0,0,0,0,-1,594,421,0,0
-623,603,0,0,0,0,0,0,0,0,0,-1,601,421,0,0
-616,603,0,0,0,0,0,0,0,0,0,-1,608,421,0,0
-609,603,0,0,0,0,0,0,0,0,0,-1,615,421,0,0
-602,603,0,0,0,0,0,0,0,0,0,-1,622,421,0,0
-595,603,0,0,0,0,0,0,0,0,0,-1,629,421,0,0
-588,603,0,0,0,0,0,0,0,0,0,-1,636,421,0,0
-581,603,0,0,0,0,0,0,0,0,0,-1,643,421,0,0
-574,603,0,0,0,0,0,0,0,0,0,-1,650,421,0,0
-567,603,0,0,0,0,0,0,0,0,0,-1,657,421,0,0
-560,603,0,0,0,0,0,0,0,0,0,-1,664,421,0,0
-553,603,0,0,0,0,0,0,0,0,0,-1,671,421,0,0
-546,603,0,0,0,0,0,0,0,0,0,-1,678,421,0,0
-539,603,0,0,0,0,0,0,0,0,0,-1,685,421,0,0
-532,603,0,0,0,0,0,0,0,0,0,-1,692,421,0,0
-525,603,0,0,0,0,0,0,0,0,0,-1,699,421,0,0
-518,603,0,0,0,0,0,0,0,0,0,-1,706,421,0,0
-511,603,0,0,0,0,0,0,0,0,0,-1,713,421,0,0
-504,603,0,0,0,0,0,0,0,0,0,-1,720,421,0,0
-497,603,0,0,0,0,0,0,0,0,0,-1,727,421,0,0
-490,603,0,0,0,0,0,0,0,0,0,-1,734,421,0,0
-483,603,0,0,0,0,0,0,0,0,0,-1,741,421,0,0
-476,603,0,0,0,0,0,0,0,0,0,-1,748,421,0,0
-469,603,0,0,0,0,0,0,0,0,0,-1,755,421,0,0
-462,603,0,0,0,0,0,0,0,0,0,-1,762,421,0,0
-455,603,0,0,0,0,0,0,0,0,0,-1,769,421,0,0
-448,603,0,0,0,0,0,0,0,0,0,-1,776,421,0,0
-441,603,0,0,0,0,0,0,0,0,0,-1,783,421,0,0
-434,603,0,0,0,0,0,0,0,0,0,-1,790,421,0,0
-427,603,0,0,0,0,0,0,0,0,0,-1,797,421,0,0
-420,603,0,0,0,0,0,0,0,0,0,-1,804,421,0,0
-413,603,0,0,0,0,0,0,0,0,0,-1,811,421,0,0
-406,603,0,0,0,0,0,0,0,0,0,-1,818,421,0,0
-399,603,0,0,0,0,0,0,0,0,0,-1,825,421,0,0
-392,603,0,0,0,0,0,0,0,0,0,-1,832,421,0,0
-385,603,0,0,0,0,0,0,0,0,0,-1,839,421,0,0
-378,603,0,0,0,0,0,0,0,0,0,-1,846,421,0,0
-371,603,0,0,0,0,0,0,0,0,0,-1,853,421,0,0
-364,603,0,0,0,0,0,0,0,0,0,-1,860,421,0,0
-357,603,0,0,0,0,0,0,0,0,0,-1,867,421,0,0
-350,603,0,0,0,0,0,0,0,0,0,-1,874,421,0,0
-343,603,0,0,0,0,0,0,0,0,0,-1,881,421,0,0
-336,603,0,0,0,0,0,0,0,0,0,-1,888,421,0,0
-329,603,4.6095,-8.85309,0,0,0,0,0,0,0,-1,895,421,4.60952,8.8531
-322,603,4.4209,-8.48056,0,0,0,0,0,0,0,-1,902,421,4.42093,8.48056
-315,603,3.94946,-8.08862,0,0,0,0,0,0,0,-1,909,421,3.94948,8.08863
-308,603,3.67664,-7.59,0,0,0,0,0,0,0,-1,916,421,3.67665,7.58999
-301,603,3.6507,-10.1701,0,0,0,0,0,0,0,-1,923,421,3.65069,10.1701
-294,603,1.09991,-8.50955,0,0,0,0,0,0,0,-1,930,421,1.09993,8.50957
-287,603,1.867,-7.47754,0,0,0,0,0,0,0,-1,937,421,1.86699,7.47752
-280,603,2.36859,-10.5789,0,0,0,0,0,0,0,-1,944,421,2.36858,10.5789
-273,603,2.52875,-9.82742,0,0,0,0,0,0,0,-1,951,421,2.52873,9.82742
-266,603,3.22083,-8.2157,0,0,0,0,0,0,0,-1,958,421,3.2208,8.21571
-259,603,2.76312,-8.79398,-0.000905288,-0.000781086,-0.0055636,0.00472076,-0.00640713,-0.790979,0.00644923,0.0447067,965,421,2.76314,8.79399
-252,603,2.37067,-9.54422,-0.00211019,-0.00098604,-0.00503183,0.00351501,-0.00661124,-0.84102,0.00593679,0.0431898,972,421,2.37068,9.54423
-245,603,2.3161,-9.7388,-0.00266355,-0.000876327,-0.00432788,0.00264924,-0.00618911,-0.887206,0.00523747,0.0317597,979,421,2.31608,9.73881
-238,603,2.33423,-9.81067,-0.00322188,-0.000597168,-0.00383884,0.00214744,-0.00596649,-0.950102,0.00485447,0.018364,986,421,2.33423,9.81067
-231,603,2.29663,-10.0144,-0.0032233,-0.000656767,-0.00349305,0.00178128,-0.00566135,-0.961433,0.00448743,0.0122257,993,421,2.29661,10.0144
-224,603,2.24023,-10.2205,-0.00236234,-0.000492085,-0.00288651,0.00160699,-0.00446141,-0.942046,0.00363049,0.012965,1000,421,2.24025,10.2205
-217,603,2.22614,-10.3608,-0.00136068,-0.000609947,-0.0026222,0.00166362,-0.00363424,-0.85649,0.00312846,0.0121513,1007,421,2.22613,10.3608
-210,603,2.24249,-10.5282,-0.000509008,-0.000832274,-0.00225586,0.001591,-0.00293229,-0.749634,0.00264952,0.0102808,1014,421,2.24251,10.5282
-203,603,2.24017,-10.6899,0.000407941,-0.00133762,-0.00185041,0.00158108,-0.00251075,-0.565035,0.00238266,0.0164191,1021,421,2.24019,10.6899
-196,603,2.25684,-10.8804,0.000858818,-0.00123044,-0.0011761,0.00138723,-0.00175885,-0.422266,0.00182061,0.0164634,1028,421,2.2568,10.8804
-189,603,2.24634,-11.0021,0.00094456,-0.00141522,-0.00115821,0.00141803,-0.00188869,-0.388063,0.00191557,0.0131355,1035,421,2.24628,11.0021
-182,603,2.21594,-11.1529,0.00108105,-0.00136944,-0.0011276,0.00152095,-0.00180934,-0.371959,0.00192515,0.0107548,1042,421,2.216,11.1529
-175,603,2.20142,-11.2939,0.00113319,-0.00147836,-0.000992779,0.00146774,-0.00181291,-0.32503,0.00189757,0.0110424,1049,421,2.20141,11.2939
-168,603,2.20459,-11.3909,0.00108423,-0.00156691,-0.000860296,0.00133893,-0.0018216,-0.287837,0.00183181,0.0129537,1056,421,2.20461,11.3909
-161,603,2.18604,-11.5423,0.0010367,-0.00162179,-0.000753825,0.00123558,-0.00182066,-0.257941,0.00177527,0.0124298,1063,421,2.186,11.5423
-154,603,2.17346,-11.6878,0.00100439,-0.0014233,-0.00061422,0.00115094,-0.00156986,-0.234223,0.00157705,0.0125183,1070,421,2.17343,11.6878
-147,603,2.18884,-11.7793,0.000943546,-0.00137443,-0.000415993,0.00101594,-0.00144682,-0.172303,0.00142911,0.0133962,1077,421,2.18889,11.7793
-140,603,2.22327,-11.8924,0.000893991,-0.0013912,-0.000136437,0.000902108,-0.00139932,-0.0594235,0.00133903,0.0111421,1084,421,2.22332,11.8924
-133,603,2.2074,-12.0106,0.000907898,-0.00147301,5.88917e-05,0.000909354,-0.00147446,0.0247148,0.00138913,0.0114084,1091,421,2.20745,12.0106
-126,603,2.20911,-12.1141,0.000885411,-0.0015472,0.000232843,0.000907497,-0.00156929,0.0945732,0.00144689,0.0101402,1098,421,2.20905,12.1141
-119,603,2.21655,-12.2227,0.000929031,-0.00160367,0.000383807,0.000985916,-0.00166055,0.147141,0.0015444,0.010284,1105,421,2.21651,12.2227
-112,603,2.21167,-12.3328,0.00106298,-0.00170465,0.000588189,0.00118279,-0.00182447,0.200956,0.00174937,0.0156346,1112,421,2.21172,12.3328
-105,603,2.21252,-12.4467,0.00129774,-0.00177792,0.000776835,0.00148281,-0.00196299,0.233879,0.00199587,0.015508,1119,421,2.21251,12.4467
-98,603,2.22205,-12.5315,0.00152935,-0.00180506,0.000882846,0.00174868,-0.00202439,0.243498,0.00218032,0.01172,1126,421,2.22209,12.5315
-91,603,2.23743,-12.6241,0.00172883,-0.00160774,0.000850811,0.00193326,-0.00181217,0.235805,0.0021628,0.00806269,1133,421,2.23744,12.6241
-84,603,2.25073,-12.7076,0.00190455,-0.00140274,0.000866355,0.00211776,-0.00161594,0.241294,0.00216213,0.00849899,1140,421,2.25077,12.7076
-77,603,2.26904,-12.8113,0.0020371,-0.00103768,0.000910509,0.0022865,-0.00128708,0.267348,0.00208993,0.010919,1147,421,2.26909,12.8113
-70,603,2.29834,-12.9442,0.00244253,-0.00110465,0.00101457,0.00271221,-0.00137434,0.259804,0.00240115,0.0270112,1154,421,2.2983,12.9442
-63,603,2.32239,-13.0756,0,0,0,0,0,0,0,-1,1161,421,2.32241,13.0756
-56,603,2.29431,-13.0031,0,0,0,0,0,0,0,-1,1168,421,2.29433,13.0032
-49,603,2.35205,-13.0536,0,0,0,0,0,0,0,-1,1175,421,2.35202,13.0536
-42,603,2.36084,-13.1038,0,0,0,0,0,0,0,-1,1182,421,2.36083,13.1038
-35,603,2.25818,-13.1347,0.0155049,0.0665821,-0.0391846,0.0878159,-0.00572887,-1.0742,0.0605439,0.0413727,1189,421,2.25824,13.1347
-28,603,2.29944,-13.194,0.015258,0.0686275,-0.0408865,0.0907668,-0.00688124,-1.07452,0.0629305,0.024363,1196,421,2.29939,13.194
-21,603,2.36194,-13.2251,0.0144493,0.0696644,-0.0401463,0.0907796,-0.00666586,-1.0866,0.0628596,0.0194811,1203,421,2.36193,13.2251
-14,603,2.39417,-13.2472,0.0139632,0.0652052,-0.038985,0.0862346,-0.00706625,-1.07611,0.0599841,0.0208173,1210,421,2.39413,13.2472
-7,603,2.4198,-13.2735,0.0132068,0.0596595,-0.0366386,0.0798135,-0.00694714,-1.0679,0.0556694,0.0229308,1217,421,2.41985,13.2735
0,603,2.47839,-13.3504,0.0114964,0.0516261,-0.0322297,0.0695264,-0.00640382,-1.06382,0.0486263,0.025347,1224,421,2.47837,13.3504
7,603,2.50879,-13.3659,0.0109137,0.0412704,-0.0262544,0.0564182,-0.00423409,-1.04749,0.0391,0.030435,1231,421,2.50878,13.3659
14,603,2.59338,-13.3326,0.0108405,0.0301029,-0.0197618,0.0424555,-0.0015121,-1.01214,0.0288209,0.0291439,1238,421,2.59334,13.3326
21,603,2.63843,-13.3518,0.00989127,0.0210089,-0.0138941,0.0304149,0.000485196,-0.975687,0.0201168,0.0223432,1245,421,2.63845,13.3518
28,603,2.70923,-13.3337,0.00976555,0.0125617,-0.00832691,0.0196071,0.00272018,-0.868572,0.0122656,0.0252143,1252,421,2.70921,13.3337
35,603,2.68103,-13.3296,0.010307,0.00584656,-0.00324534,0.0120146,0.004139,-0.484353,0.00704755,0.0345711,1259,421,2.68106,13.3296
42,603,2.65576,-13.399,0.0113373,-0.00267321,0.00209281,0.0116432,-0.00297914,0.145154,0.00892256,0.0294194,1266,421,2.65578,13.399
49,603,2.67224,-13.4522,0.0126321,-0.00756512,0.00571118,0.0141352,-0.00906821,0.257349,0.0135025,0.0157616,1273,421,2.67228,13.4522
56,603,2.67847,-13.3698,0.0141722,-0.00788446,0.00725756,0.016346,-0.0100583,0.291019,0.0153879,0.0276612,1280,421,2.67845,13.3697
63,603,2.65601,-13.2398,0.0144205,-0.00903518,0.01047,0.018414,-0.0130287,0.364396,0.018242,0.03631,1287,421,2.65602,13.2398
70,603,2.49182,-13.283,0.0157586,-0.00689046,0.0103538,0.0197784,-0.0109102,0.370324,0.0179629,0.0402075,1294,421,2.49185,13.283
77,603,2.59851,-13.5057,0.0185321,-0.00434153,0.00849258,0.0213404,-0.00714988,0.319363,0.0171155,0.0440717,1301,421,2.59851,13.5057
84,603,2.84412,-13.3949,0.0204351,-0.00304342,0.00654284,0.0221353,-0.00474361,0.254233,0.016566,0.0459868,1308,421,2.84407,13.3949
91,603,2.91223,-13.2826,0.019599,-7.41159e-05,0.00535871,0.0209639,-0.00143906,0.249412,0.0144795,0.0472308,1315,421,2.91219,13.2826
98,603,2.98877,-13.2771,0.0176429,0.000874036,0.00415684,0.0186168,-9.98471e-05,0.230133,0.0124446,0.0486259,1322,421,2.98878,13.2771
105,603,3.09839,-13.2336,0.0160443,0.00162556,0.00248014,0.016459,0.00121088,0.165667,0.0105921,0.0398547,1329,421,3.09844,13.2336
112,603,2.96716,-13.201,0.0133323,0.0019766,0.00106716,0.0134317,0.00187718,0.0928914,0.00839899,0.0298784,1336,421,2.96721,13.201
119,603,2.8866,-13.1731,0.0105603,0.00144379,-7.53099e-05,0.0105609,0.00144317,-0.0082601,0.00661225,0.0308587,1343,421,2.88661,13.1731
126,603,2.92676,-13.1287,0.00870498,-0.00116138,-0.000758439,0.00876294,-0.00121934,-0.0762741,0.00628794,0.037367,1350,421,2.92672,13.1287
133,603,2.99744,-13.0791,0.00599728,-0.00387047,-0.00134772,0.00617803,-0.00405122,-0.133325,0.00594826,0.033319,1357,421,2.99741,13.0791
140,603,3.01526,-12.9967,0.00329477,-0.00640544,-0.00200821,0.00369409,-0.00680476,-0.196282,0.00614956,0.0204652,1364,421,3.0153,12.9967
147,603,2.95593,-12.935,0.000833525,-0.00838692,-0.00224098,0.00134933,-0.00890272,-0.226228,0.00643227,0.0165929,1371,421,2.95594,12.935
154,603,2.89685,-12.8597,-0.00125008,-0.0100223,-0.00248516,-0.000594965,-0.0106774,-0.257748,0.00692848,0.0265455,1378,421,2.89687,12.8597
161,603,2.88391,-12.8062,-0.00301613,-0.0113444,-0.00258193,-0.00228064,-0.0120799,-0.277511,0.00741099,0.0299517,1385,421,2.88392,12.8062
168,603,2.97974,-12.7112,-0.00446158,-0.0121803,-0.00278202,-0.00356339,-0.0130785,-0.31229,0.00780716,0.0274451,1392,421,2.97977,12.7112
175,603,3.1106,-12.6398,-0.00500841,-0.011714,-0.0028718,-0.00394663,-0.0127758,-0.354137,0.00755354,0.0298982,1399,421,3.11061,12.6398
182,603,3.16589,-12.5757,-0.00584763,-0.0106738,-0.00237714,-0.00487342,-0.011648,-0.388948,0.00675477,0.0356505,1406,421,3.1659,12.5758
189,603,3.13818,-12.4434,-0.00510543,-0.0095886,-0.00171957,-0.00452183,-0.0101722,-0.327185,0.00588495,0.030881,1413,421,3.13816,12.4434
196,603,3.07922,-12.3426,-0.00158898,-0.00680728,-0.00198399,-0.000920338,-0.00747592,-0.325061,0.00470725,0.0231218,1420,421,3.07927,12.3426
203,603,3.06787,-12.2764,0.00107596,-0.00349009,-0.00232968,0.00205477,-0.0044689,-0.397756,0.00385145,0.0131532,1427,421,3.06782,12.2764
210,603,3.06763,-12.2156,0.00177641,-0.00196313,-0.00167538,0.00241721,-0.00260393,-0.365311,0.00289962,0.0108944,1434,421,3.06764,12.2156
217,603,3.05334,-12.0851,0.00176208,-0.000867796,-0.00147148,0.00242054,-0.00152626,-0.42076,0.0022981,0.0130952,1441,421,3.05339,12.085
224,603,3.06311,-11.9887,0.00149978,-0.000147745,-0.00113898,0.00208167,-0.000729635,-0.472319,0.00168452,0.0162033,1448,421,3.06313,11.9887
231,603,3.09399,-11.8827,0.00132088,0.00044235,-0.000845728,0.00183461,-7.13867e-05,-0.545879,0.00124755,0.013214,1455,421,3.09394,11.8827
238,603,3.09509,-11.7419,0.00122086,0.00102124,-0.000593829,0.00172321,0.000518891,-0.702139,0.00102079,0.0100463,1462,421,3.09511,11.7419
245,603,3.10193,-11.6214,0.0012627,0.00155796,-0.000334599,0.00177605,0.00104461,-0.993157,0.0010307,0.0116522,1469,421,3.10197,11.6214
252,603,3.11096,-11.4927,0.00128831,0.00199168,-0.000100033,0.00200563,0.00127436,-1.43224,0.00117202,0.0100388,1476,421,3.11091,11.4927
259,603,3.10693,-11.3589,0.00134219,0.00228947,0.000120275,0.0023045,0.00132716,1.44646,0.0013356,0.00982221,1483,421,3.10691,11.3589
266,603,3.10413,-11.2257,0.00144241,0.00246889,0.000293603,0.00254693,0.00136437,1.31099,0.00147172,0.0114477,1490,421,3.10408,11.2257
273,603,3.11646,-11.0739,0.00158391,0.00258603,0.00045069,0.0027589,0.00141104,1.20453,0.00159299,0.0104218,1497,421,3.1164,11.0739
280,603,3.12976,-10.9018,0.00175106,0.00278631,0.000679227,0.00312267,0.0014147,1.11099,0.00180552,0.011547,1504,421,3.12975,10.9018
287,603,3.13513,-10.7479,0.00197471,0.00286821,0.00083521,0.00336865,0.00147427,1.03099,0.00194992,0.0112284,1511,421,3.13511,10.7478
294,603,3.12549,-10.6112,0.00223018,0.00291295,0.000940802,0.00357239,0.00157074,0.959443,0.00206752,0.00963446,1518,421,3.12546,10.6112
301,603,3.11292,-10.4536,0.00238835,0.00293348,0.00103223,0.00372852,0.00159331,0.914478,0.00216023,0.0117258,1525,421,3.11289,10.4536
308,603,3.13391,-10.2875,0.00253763,0.00312436,0.00118215,0.00404901,0.00161299,0.907023,0.00235374,0.0173986,1532,421,3.13387,10.2875
315,603,3.12573,-10.1417,0.00259117,0.0032844,0.00132089,0.00430339,0.00157218,0.913709,0.00251442,0.0152168,1539,421,3.12569,10.1417
322,603,3.11255,-9.96875,0.00260336,0.0034994,0.00152148,0.00463745,0.00146531,0.928583,0.00273722,0.0136296,1546,421,3.11254,9.96875
329,603,3.09375,-9.77216,0.00263108,0.00382561,0.00181725,0.00514123,0.00131546,0.944169,0.00308398,0.0103147,1553,421,3.09379,9.77216
336,603,3.10034,-9.59967,0.00250583,0.00407817,0.00211301,0.00554653,0.00103747,0.963494,0.00340496,0.00936526,1560,421,3.10037,9.59966
343,603,3.12305,-9.42331,0.00211208,0.0043483,0.00232902,0.0058137,0.000646685,1.00919,0.00367923,0.0117533,1567,421,3.12307,9.42331
350,603,3.10242,-9.23184,0.00226276,0.00466407,0.00283173,0.00653917,0.000387655,0.98591,0.00423615,0.0206432,1574,421,3.10237,9.23184
357,603,3.09814,-9.00815,0.0023376,0.00495741,0.00333852,0.00723381,6.12042e-05,0.97235,0.00480227,0.025,1581,421,3.09817,9.00816
364,603,3.08923,-8.78796,0.00228777,0.00523159,0.00440845,0.00840736,-0.000887997,0.946521,0.00592314,0.0244972,1588,421,3.08919,8.78795
371,603,3.07263,-8.56226,0.00244732,0.00566665,0.00491994,0.00923355,-0.00111958,0.943496,0.00656081,0.0272376,1595,421,3.07264,8.56227
378,603,3.18457,-8.3595,0.00217791,0.00592924,0.00517807,0.00956089,-0.00145374,0.959163,0.00690967,0.0351277,1602,421,3.18459,8.35951
385,603,3.18555,-8.17892,0.00152259,0.00527786,0.00483265,0.00858482,-0.00178437,0.970688,0.00640144,0.0461104,1609,421,3.18555,8.17893
392,603,3.29712,-8.00604,0,0,0,0,0,0,0,-1,1616,421,3.29709,8.00605
399,603,2.38013,-5.37076,0,0,0,0,0,0,0,-1,1623,421,2.38016,5.37075
406,603,3.01917,-2.37219,0,0,0,0,0,0,0,-1,1630,421,3.01915,2.37219
413,603,2.38928,-2.41275,0,0,0,0,0,0,0,-1,1637,421,2.38926,2.41274
420,603,2.74866,-2.30066,0,0,0,0,0,0,0,-1,1644,421,2.74867,2.30065
427,603,7.11548,-3.35352,0,0,0,0,0,0,0,-1,1651,421,7.11549,3.35351
434,603,7.32153,-4.50525,0,0,0,0,0,0,0,-1,1658,421,7.32149,4.50525
441,603,3.18213,-0.250946,0,0,0,0,0,0,0,-1,1665,421,3.18212,0.250944
448,603,2.95667,-0.066925,0,0,0,0,0,0,0,-1,1672,421,2.95662,0.0669226
455,603,0,0,0,0,0,0,0,0,0,-1,1679,421,0,0
462,603,0,0,0,0,0,0,0,0,0,-1,1686,421,0,0
469,603,0,0,0,0,0,0,0,0,0,-1,1693,421,0,0
476,603,0,0,0,0,0,0,0,0,0,-1,1700,421,0,0
483,603,0,0,0,0,0,0,0,0,0,-1,1707,421,0,0
490,603,0,0,0,0,0,0,0,0,0,-1,1714,421,0,0
497,603,0,0,0,0,0,0,0,0,0,-1,1721,421,0,0
504,603,0,0,0,0,0,0,0,0,0,-1,1728,421,0,0
511,603,0,0,0,0,0,0,0,0,0,-1,1735,421,0,0
518,603,0,0,0,0,0,0,0,0,0,-1,1742,421,0,0
525,603,0,0,0,0,0,0,0,0,0,-1,1749,421,0,0
532,603,0,0,0,0,0,0,0,0,0,-1,1756,421,0,0
539,603,0,0,0,0,0,0,0,0,0,-1,1763,421,0,0
546,603,0,0,0,0,0,0,0,0,0,-1,1770,421,0,0
553,603,0,0,0,0,0,0,0,0,0,-1,1777,421,0,0
560,603,0,0,0,0,0,0,0,0,0,-1,1784,421,0,0
567,603,0,0,0,0,0,0,0,0,0,-1,1791,421,0,0
574,603,0,0,0,0,0,0,0,0,0,-1,1798,421,0,0
581,603,0,0,0,0,0,0,0,0,0,-1,1805,421,0,0
588,603,0,0,0,0,0,0,0,0,0,-1,1812,421,0,0
595,603,0,0,0,0,0,0,0,0,0,-1,1819,421,0,0
602,603,0,0,0,0,0,0,0,0,0,-1,1826,421,0,0
609,603,0,0,0,0,0,0,0,0,0,-1,1833,421,0,0
616,603,0,0,0,0,0,0,0,0,0,-1,1840,421,0,0
623,603,0,0,0,0,0,0,0,0,0,-1,1847,421,0,0
630,603,0,0,0,0,0,0,0,0,0,-1,1854,421,0,0
637,603,0,0,0,0,0,0,0,0,0,-1,1861,421,0,0
644,603,0,0,0,0,0,0,0,0,0,-1,1868,421,0,0
651,603,0,0,0,0,0,0,0,0,0,-1,1875,421,0,0
658,603,0,0,0,0,0,0,0,0,0,-1,1882,421,0,0
665,603,0,0,0,0,0,0,0,0,0,-1,1889,421,0,0
672,603,0,0,0,0,0,0,0,0,0,-1,1896,421,0,0
679,603,0,0,0,0,0,0,0,0,0,-1,1903,421,0,0
686,603,0,0,0,0,0,0,0,0,0,-1,1910,421,0,0
693,603,0,0,0,0,0,0,0,0,0,-1,1917,421,0,0
700,603,0,0,0,0,0,0,0,0,0,-1,1924,421,0,0
707,603,0,0,0,0,0,0,0,0,0,-1,1931,421,0,0
714,603,0,0,0,0,0,0,0,0,0,-1,1938,421,0,0
721,603,0,0,0,0,0,0,0,0,0,-1,1945,421,0,0
728,603,0,0,0,0,0,0,0,0,0,-1,1952,421,0,0
735,603,0,0,0,0,0,0,0,0,0,-1,1959,421,0,0
742,603,0,0,0,0,0,0,0,0,0,-1,1966,421,0,0
749,603,0,0,0,0,0,0,0,0,0,-1,1973,421,0,0
756,603,0,0,0,0,0,0,0,0,0,-1,1980,421,0,0
763,603,0,0,0,0,0,0,0,0,0,-1,1987,421,0,0
770,603,0,0,0,0,0,0,0,0,0,-1,1994,421,0,0
777,603,0,0,0,0,0,0,0,0,0,-1,2001,421,0,0
784,603,0,0,0,0,0,0,0,0,0,-1,2008,421,0,0
791,603,0,0,0,0,0,0,0,0,0,-1,2015,421,0,0
798,603,0,0,0,0,0,0,0,0,0,-1,2022,421,0,0
805,603,0,0,0,0,0,0,0,0,0,-1,2029,421,0,0
812,603,0,0,0,0,0,0,0,0,0,-1,2036,421,0,0
-700,596,0,0,0,0,0,0,0,0,0,-1,524,428,0,0
-693,596,0,0,0,0,0,0,0,0,0,-1,531,428,0,0
-686,596,0,0,0,0,0,0,0,0,0,-1,538,428,0,0
-679,596,0,0,0,0,0,0,0,0,0,-1,545,428,0,0
-672,596,0,0,0,0,0,0,0,0,0,-1,552,428,0,0
-665,596,0,0,0,0,0,0,0,0,0,-1,559,428,0,0
-658,596,0,0,0,0,0,0,0,0,0,-1,566,428,0,0
-651,596,0,0,0,0,0,0,0,0,0,-1,573,428,0,0
-644,596,0,0,0,0,0,0,0,0,0,-1,580,428,0,0
-637,596,0,0,0,0,0,0,0,0,0,-1,587,428,0,0
-630,596,0,0,0,0,0,0,0,0,0,-1,594,428,0,0
-623,596,0,0,0,0,0,0,0,0,0,-1,601,428,0,0
-616,596,0,0,0,0,0,0,0,0,0,-1,608,428,0,0
-609,596,0,0,0,0,0,0,0,0,0,-1,615,428,0,0
-602,596,0,0,0,0,0,0,0,0,0,-1,622,428,0,0
-595,596,0,0,0,0,0,0,0,0,0,-1,629,428,0,0
-588,596,0,0,0,0,0,0,0,0,0,-1,636,428,0,0
-581,596,0,0,0,0,0,0,0,0,0,-1,643,428,0,0
-574,596,0,0,0,0,0,0,0,0,0,-1,650,428,0,0
-567,596,0,0,0,0,0,0,0,0,0,-1,657,428,0,0
-560,596,0,0,0,0,0,0,0,0,0,-1,664,428,0,0
-553,596,0,0,0,0,0,0,0,0,0,-1,671,428,0,0
-546,596,0,0,0,0,0,0,0,0,0,-1,678,428,0,0
-539,596,0,0,0,0,0,0,0,0,0,-1,685,428,0,0
-532,596,0,0,0,0,0,0,0,0,0,-1,692,428,0,0
-525,596,0,0,0,0,0,0,0,0,0,-1,699,428,0,0
-518,596,0,0,0,0,0,0,0,0,0,-1,706,428,0,0
-511,596,0,0,0,0,0,0,0,0,0,-1,713,428,0,0
-504,596,0,0,0,0,0,0,0,0,0,-1,720,428,0,0
-497,596,0,0,0,0,0,0,0,0,0,-1,727,428,0,0
-490,596,0,0,0,0,0,0,0,0,0,-1,734,428,0,0
-483,596,0,0,0,0,0,0,0,0,0,-1,741,428,0,0
-476,596,0,0,0,0,0,0,0,0,0,-1,748,428,0,0
-469,596,0,0,0,0,0,0,0,0,0,-1,755,428,0,0
-462,596,0,0,0,0,0,0,0,0,0,-1,762,428,0,0
-455,596,0,0,0,0,0,0,0,0,0,-1,769,428,0,0
-448,596,0,0,0,0,0,0,0,0,0,-1,776,428,0,0
-441,596,0,0,0,0,0,0,0,0,0,-1,783,428,0,0
-434,596,0,0,0,0,0,0,0,0,0,-1,790,428,0,0
-427,596,0,0,0,0,0,0,0,0,0,-1,797,428,0,0
-420,596,0,0,0,0,0,0,0,0,0,-1,804,428,0,0
-413,596,0,0,0,0,0,0,0,0,0,-1,811,428,0,0
-406,596,0,0,0,0,0,0,0,0,0,-1,818,428,0,0
-399,596,0,0,0,0,0,0,0,0,0,-1,825,428,0,0
-392,596,0,0,0,0,0,0,0,0,0,-1,832,428,0,0
-385,596,0,0,0,0,0,0,0,0,0,-1,839,428,0,0
-378,596,0,0,0,0,0,0,0,0,0,-1,846,428,0,0
-371,596,0,0,0,0,0,0,0,0,0,-1,853,428,0,0
-364,596,0,0,0,0,0,0,0,0,0,-1,860,428,0,0
-357,596,0,0,0,0,0,0,0,0,0,-1,867,428,0,0
-350,596,0,0,0,0,0,0,0,0,0,-1,874,428,0,0
-343,596,0,0,0,0,0,0,0,0,0,-1,881,428,0,0
-336,596,1.89813,-9.66019,0,0,0,0,0,0,0,-1,888,428,1.89813,9.6602
-329,596,1.54865,-9.16202,0,0,0,0,0,0,0,-1,895,428,1.54866,9.16203
-322,596,2.35809,-9.06784,0,0,0,0,0,0,0,-1,902,428,2.35812,9.06783
-315,596,2.46185,-8.86038,0,0,0,0,0,0,0,-1,909,428,2.46188,8.86039
-308,596,2.35461,-8.94577,0,0,0,0,0,0,0,-1,916,428,2.35461,8.94578
-301,596,0.921631,-8.5614,0,0,0,0,0,0,0,-1,923,428,0.921649,8.56139
-294,596,1.19397,-8.26801,0.0106633,-0.000852699,-0.00630038,0.0134405,-0.00362987,-0.415173,0.010384,0.0441246,930,428,1.19397,8.26801
-287,596,1.75458,-7.82715,0.00832083,-0.000311312,-0.00591394,0.0113262,-0.00331666,-0.47017,0.0088656,0.0490821,937,428,1.7546,7.82715
-280,596,2.16547,-8.81622,0,0,0,0,0,0,0,-1,944,428,2.16546,8.81621
-273,596,2.39331,-9.21082,0.00394308,0.000243769,-0.00514477,0.00756059,-0.00337374,-0.612832,0.00646537,0.043356,951,428,2.3933,9.21081
-266,596,2.37488,-9.28983,0.00193785,0.000157397,-0.00451079,0.00564542,-0.00355017,-0.687973,0.00535482,0.03903,958,428,2.37486,9.28981
-259,596,2.15759,-9.3006,0.000217039,0.000150777,-0.00390211,0.00408616,-0.00371835,-0.781153,0.0045076,0.0340868,965,428,2.1576,9.3006
-252,596,2.1441,-9.52832,-0.0008884,-0.000143671,-0.0035414,0.00304489,-0.00407696,-0.837779,0.00412617,0.016932,972,428,2.1441,9.52831
-245,596,2.13507,-9.7063,-0.00151553,-0.000232556,-0.00300026,0.00219403,-0.00394212,-0.890718,0.00359031,0.0124056,979,428,2.13507,9.7063
-238,596,2.14032,-9.86893,-0.00215774,-0.000202025,-0.00264722,0.00164217,-0.00400193,-0.96232,0.00335222,0.0112341,986,428,2.14031,9.86894
-231,596,2.11639,-10.0451,-0.00229874,-0.000442238,-0.00240416,0.00120664,-0.00394762,-0.969633,0.00311292,0.0126727,993,428,2.11639,10.0451
-224,596,2.07825,-10.2216,-0.00175608,-8.29302e-05,-0.00190995,0.00116563,-0.00300464,-0.991817,0.00248452,0.0132711,1000,428,2.07825,10.2217
-217,596,2.0733,-10.3692,-0.00110674,0.000167125,-0.00165343,0.00130206,-0.00224167,-0.969247,0.00206981,0.014027,1007,428,2.07333,10.3692
-210,596,2.09863,-10.5369,-0.000476386,0.000194837,-0.00137307,0.00127272,-0.00155427,-0.90526,0.00163486,0.0114169,1014,428,2.09863,10.5369
-203,596,2.07758,-10.6713,0.000216214,-2.53054e-05,-0.0010518,0.00115416,-0.000963255,-0.728242,0.00122415,0.0137324,1021,428,2.07758,10.6713
-196,596,2.09241,-10.8507,0.000576156,0.000239834,-0.000534113,0.000967955,-0.000151964,-0.632889,0.000701466,0.0136019,1028,428,2.09246,10.8507
-189,596,2.08313,-10.9989,0.000701029,0.000251769,-0.000509634,0.00103334,-8.05442e-05,-0.577824,0.000717252,0.0109759,1035,428,2.08313,10.9989
-182,596,2.07776,-11.1477,0.000920464,0.000311143,-0.00051809,0.00121683,1.47749e-05,-0.519607,0.000806341,0.0115927,1042,428,2.07774,11.1477
-175,596,2.08386,-11.292,0.0010664,0.000183226,-0.000456441,0.00125991,-1.02753e-05,-0.400968,0.000843383,0.0140966,1049,428,2.08386,11.292
-168,596,2.09961,-11.3856,0.00112981,-0.000142774,-0.000368755,0.00122894,-0.000241906,-0.262619,0.000910701,0.0164149,1056,428,2.09966,11.3856
-161,596,2.09619,-11.5143,0.00119936,-0.000628347,-0.000319492,0.0012536,-0.000682587,-0.168164,0.00113394,0.0148365,1063,428,2.09623,11.5142
-154,596,2.07141,-11.6545,0.00126983,-0.00088282,-0.000238326,0.0012959,-0.00090889,-0.108955,0.00127946,0.0126955,1070,428,2.07143,11.6545
-147,596,2.09473,-11.7576,0.00131742,-0.00129118,-8.67408e-05,0.00132031,-0.00129406,-0.0332029,0.00150943,0.0126617,1077,428,2.09473,11.7576
-140,596,2.10754,-11.8788,0.00133771,-0.00178628,0.000199146,0.00135035,-0.00179893,0.0634053,0.00182438,0.0124493,1084,428,2.10755,11.8788
-133,596,2.09338,-12.0253,0.00139878,-0.00239368,0.000393036,0.00143909,-0.00243399,0.102189,0.00226058,0.0128916,1091,428,2.09344,12.0253
-126,596,2.10803,-12.1262,0.00144792,-0.00286681,0.000590361,0.00152724,-0.00294613,0.133555,0.00262565,0.0103257,1098,428,2.108,12.1262
-119,596,2.11475,-12.2343,0.00152986,-0.00328075,0.000811148,0.00166295,-0.00341384,0.162628,0.00298863,0.0137808,1105,428,2.11479,12.2343
-112,596,2.10278,-12.3435,0.00168404,-0.00361528,0.00110373,0.00190473,-0.00383597,0.197348,0.00337633,0.0157336,1112,428,2.10274,12.3435
-105,596,2.11951,-12.4385,0.00192075,-0.00374852,0.00141116,0.00225258,-0.00408035,0.230954,0.00370673,0.0150115,1119,428,2.11952,12.4385
-98,596,2.14319,-12.5223,0.00213341,-0.0036975,0.0015982,0.00254273,-0.00410682,0.250724,0.00387436,0.00927044,1126,428,2.14324,12.5223
-91,596,2.16431,-12.6212,0.00231028,-0.00327043,0.00155667,0.00271513,-0.00367528,0.254435,0.00370336,0.00940964,1133,428,2.16436,12.6212
-84,596,2.20789,-12.7724,0.00247155,-0.00282261,0.00155683,0.00289543,-0.00324649,0.265823,0.00354796,0.0164644,1140,428,2.20786,12.7724
-77,596,2.2113,-12.9131,0.00263391,-0.0022378,0.00159702,0.00311077,-0.00271466,0.290162,0.0033659,0.0402691,1147,428,2.21129,12.9131
-70,596,2.22681,-13.044,0,0,0,0,0,0,0,-1,1154,428,2.22681,13.044
-63,596,1.95569,-12.2758,0,0,0,0,0,0,0,-1,1161,428,1.95563,12.2759
-56,596,1.60107,-10.5827,0,0,0,0,0,0,0,-1,1168,428,1.60108,10.5827
-49,596,1.59473,-10.0393,0,0,0,0,0,0,0,-1,1175,428,1.59472,10.0393
-42,596,1.99585,-6.6246,0,0,0,0,0,0,0,-1,1182,428,1.99586,6.62459
-35,596,1.92603,-13,0,0,0,0,0,0,0,-1,1189,428,1.92599,13
-28,596,2.17419,-13.1439,0,0,0,0,0,0,0,-1,1196,428,2.17415,13.1439
-21,596,2.19055,-13.0557,0.021319,0.11634,-0.0656196,0.149843,-0.0121839,-1.09873,0.104195,0.0487127,1203,428,2.19053,13.0557
-14,596,2.30481,-13.1211,0.0204295,0.107071,-0.0624387,0.139745,-0.012245,-1.08868,0.0975019,0.0453504,1210,428,2.30476,13.1211
-7,596,2.31128,-13.1509,0,0,0,0,0,0,0,-1,1217,428,2.31132,13.1509
0,596,2.47681,-13.3688,0,0,0,0,0,0,0,-1,1224,428,2.47687,13.3688
7,596,2.95227,-12.938,0.015359,0.0659824,-0.0408463,0.0887238,-0.00738238,-1.06278,0.0617572,0.0446648,1231,428,2.9523,12.938
14,596,2.74023,-13.1645,0.0148543,0.0485893,-0.0307275,0.0667745,-0.00333089,-1.03641,0.0456671,0.0451638,1238,428,2.74021,13.1645
21,596,2.7207,-13.2416,0.0132464,0.0341957,-0.0215964,0.0477237,-0.000281489,-1.01119,0.03191,0.0449093,1245,428,2.72076,13.2416
28,596,2.87146,-13.2061,0.0127615,0.0210023,-0.0130937,0.0306086,0.00315518,-0.937837,0.0194396,0.0470365,1252,428,2.87151,13.2061
35,596,2.47351,-14.8145,0,0,0,0,0,0,0,-1,1259,428,2.4735,14.8145
42,596,2.77869,-13.3771,0,0,0,0,0,0,0,-1,1266,428,2.77864,13.3771
49,596,3.01013,-15.2661,0,0,0,0,0,0,0,-1,1273,428,3.01016,15.2661
56,596,2.91052,-12.8307,0,0,0,0,0,0,0,-1,1280,428,2.91051,12.8307
63,596,3.27051,-15.7329,0,0,0,0,0,0,0,-1,1287,428,3.27054,15.7329
70,596,2.38245,-13.3104,0.0203867,-0.00908345,0.0143006,0.0261853,-0.014882,0.385218,0.0240077,0.0440171,1294,428,2.38243,13.3104
77,596,2.51599,-13.6768,0.0245895,-0.0052674,0.0116696,0.0286094,-0.00928728,0.331743,0.0228079,0.0459948,1301,428,2.51602,13.6768
84,596,2.93579,-13.4514,0.027855,-0.00322956,0.00891925,0.0302324,-0.00560697,0.260492,0.0222606,0.0466763,1308,428,2.93578,13.4514
91,596,3.00989,-13.244,0,0,0,0,0,0,0,-1,1315,428,3.00984,13.244
98,596,3.0094,-13.3185,0.0252352,0.00288816,0.00530043,0.0264287,0.00169471,0.221468,0.0170823,0.0469671,1322,428,3.00935,13.3185
105,596,3.01868,-13.1254,0.0235879,0.00425159,0.00295487,0.0240294,0.00381012,0.148307,0.0149127,0.0469911,1329,428,3.01873,13.1254
112,596,3.09753,-12.795,0.020504,0.0051232,0.000952342,0.0205628,0.00506446,0.0616037,0.0123709,0.0425109,1336,428,3.09755,12.795
119,596,2.9939,-12.7657,0.0171655,0.00460743,-0.000770646,0.0172126,0.00456032,-0.0610612,0.0102973,0.0452457,1343,428,2.99391,12.7657
126,596,2.98645,-12.7345,0.0147939,0.00132488,-0.00187379,0.0150497,0.00106905,-0.135687,0.00969645,0.0449344,1350,428,2.98651,12.7345
133,596,3.13892,-13.0735,0.0109855,-0.00240677,-0.00272136,0.0115174,-0.00293864,-0.193009,0.00882248,0.0459147,1357,428,3.1389,13.0736
140,596,3.29517,-12.9193,0.00717215,-0.0059088,-0.00360697,0.00810082,-0.00683746,-0.251991,0.00863489,0.0423894,1364,428,3.29517,12.9193
147,596,3.08325,-12.7778,0.0034555,-0.00880831,-0.00397085,0.00462894,-0.00998174,-0.287333,0.00862211,0.037417,1371,428,3.0832,12.7778
154,596,2.97705,-12.7088,0.000193132,-0.0112023,-0.00429414,0.00163009,-0.0126393,-0.322919,0.00901879,0.0433253,1378,428,2.97701,12.7088
161,596,2.94861,-12.6126,-0.00266809,-0.0131903,-0.00444107,-0.00104427,-0.0148141,-0.350538,0.00954706,0.0474022,1385,428,2.94866,12.6126
168,596,3.10583,-12.5806,0,0,0,0,0,0,0,-1,1392,428,3.10582,12.5806
175,596,3.28992,-12.4692,0,0,0,0,0,0,0,-1,1399,428,3.28991,12.4692
182,596,3.33801,-12.5264,0,0,0,0,0,0,0,-1,1406,428,3.33803,12.5264
189,596,3.28735,-12.4006,0,0,0,0,0,0,0,-1,1413,428,3.28741,12.4006
196,596,3.21423,-12.1871,0,0,0,0,0,0,0,-1,1420,428,3.21428,12.1871
203,596,3.16016,-12.2858,0,0,0,0,0,0,0,-1,1427,428,3.1601,12.2858
210,596,3.19263,-12.256,0.00243536,-0.00308324,-0.00244818,0.00336487,-0.00401275,-0.362862,0.00426494,0.0412087,1434,428,3.19268,12.256
217,596,3.1709,-12.0965,0.00251316,-0.00154235,-0.00228362,0.00353937,-0.00256856,-0.422337,0.00354123,0.0143062,1441,428,3.17087,12.0965
224,596,3.19934,-12.0145,0.00220908,-0.000525893,-0.00189778,0.00318074,-0.00149755,-0.473198,0.00275867,0.0108522,1448,428,3.19936,12.0145
231,596,3.22559,-11.8826,0.00189579,0.000259249,-0.00156535,0.00284384,-0.000688798,-0.544561,0.00216237,0.0105959,1455,428,3.22554,11.8826
238,596,3.21899,-11.7294,0.00161857,0.000976142,-0.00133798,0.00267335,-7.86402e-05,-0.66759,0.00180902,0.0127283,1462,428,3.21893,11.7294
245,596,3.22986,-11.6098,0.00152569,0.00162385,-0.00105319,0.0026291,0.000520439,-0.808682,0.00160759,0.0124902,1469,428,3.22982,11.6098
252,596,3.25989,-11.4811,0.00135002,0.00208958,-0.000815787,0.00261548,0.000824119,-0.998188,0.00154409,0.00963329,1476,428,3.25991,11.4811
259,596,3.255,-11.3595,0.0011829,0.00234868,-0.000568961,0.00258033,0.000951249,-1.18414,0.00150679,0.0081667,1483,428,3.25506,11.3595
266,596,3.23523,-11.2193,0.00108666,0.00245252,-0.000345218,0.00253482,0.00100437,-1.33678,0.00147395,0.00986589,1490,428,3.23522,11.2193
273,596,3.24622,-11.0668,0.000988896,0.00247971,-0.000148185,0.0024943,0.000974309,-1.47268,0.00145152,0.0119817,1497,428,3.24623,11.0668
280,596,3.27441,-10.9174,0.000863061,0.00252247,9.90379e-05,0.00252836,0.000857171,1.51139,0.00148476,0.0123453,1504,428,3.27441,10.9174
287,596,3.29053,-10.7681,0.000897945,0.0024692,0.000334542,0.00253746,0.000829682,1.36951,0.00149396,0.0109516,1511,428,3.29053,10.7681
294,596,3.26941,-10.6228,0.00100561,0.00233008,0.000538515,0.00252139,0.000814294,1.22943,0.00148584,0.00891805,1518,428,3.26946,10.6228
301,596,3.26904,-10.4542,0.00103961,0.00216396,0.000732465,0.00252512,0.000678451,1.1127,0.00150899,0.0104257,1525,428,3.26909,10.4542
308,596,3.29053,-10.2873,0.00111266,0.00216737,0.000968642,0.00274291,0.000537124,1.03467,0.00167846,0.0165643,1532,428,3.29051,10.2873
315,596,3.27722,-10.1314,0.00118345,0.00223523,0.00119846,0.00301811,0.000400574,0.99215,0.00189273,0.0159153,1539,428,3.27719,10.1314
322,596,3.27319,-9.94736,0.00123639,0.00238137,0.0014263,0.00334578,0.000271974,0.976246,0.00214562,0.0129422,1546,428,3.2732,9.94736
329,596,3.26685,-9.77493,0.00131274,0.00260316,0.00170778,0.00378355,0.00013235,0.966012,0.00247943,0.00993162,1553,428,3.26681,9.77494
336,596,3.26245,-9.61612,0.00130183,0.00282472,0.00199881,0.0042022,-7.56613e-05,0.967386,0.00282703,0.00894685,1560,428,3.26243,9.61612
343,596,3.28638,-9.4425,0.00121272,0.00301076,0.00222504,0.00451154,-0.00028806,0.977394,0.00310817,0.0116429,1567,428,3.28633,9.4425
350,596,3.28247,-9.24457,0.00134203,0.00327641,0.00259549,0.00507906,-0.000460618,0.963749,0.00354956,0.0123872,1574,428,3.28253,9.24457
357,596,3.24634,-9.05429,0.00141093,0.00353577,0.00295604,0.00561452,-0.000667817,0.957912,0.00398432,0.00940804,1581,428,3.24639,9.0543
364,596,3.23401,-8.84045,0.00144475,0.00382165,0.00332659,0.00616571,-0.000899305,0.956961,0.0044407,0.00872956,1588,428,3.234,8.84046
371,596,3.23328,-8.63797,0.00151558,0.00415864,0.00372845,0.00679285,-0.00111862,0.955712,0.0049438,0.00969205,1595,428,3.23324,8.63797
378,596,3.24182,-8.45813,0.0013056,0.0043455,0.00392727,0.00703669,-0.0013856,0.970033,0.00521472,0.0136,1602,428,3.24182,8.45814
385,596,3.29199,-8.20383,0.000938152,0.00396234,0.00370914,0.00645576,-0.00155527,0.978947,0.00490515,0.0252942,1609,428,3.29205,8.20383
392,596,3.32703,-8.00031,0.00137233,0.00390401,0.00376363,0.00660897,-0.00133263,0.947623,0.00491084,0.0376033,1616,428,3.32704,8.00029
399,596,3.32532,-7.76959,0,0,0,0,0,0,0,-1,1623,428,3.32527,7.76959
406,596,2.42261,-6.35526,0,0,0,0,0,0,0,-1,1630,428,2.42257,6.35526
413,596,3.39124,-2.63528,0,0,0,0,0,0,0,-1,1637,428,3.39122,2.6353
420,596,2.6344,-3.06308,0,0,0,0,0,0,0,-1,1644,428,2.63439,3.06308
427,596,2.99329,-1.90512,0,0,0,0,0,0,0,-1,1651,428,2.99327,1.90512
434,596,3.80896,-0.253998,0,0,0,0,0,0,0,-1,1658,428,3.80902,0.254004
441,596,3.86401,-0.131622,0,0,0,0,0,0,0,-1,1665,428,3.86406,0.131613
448,596,1.0769,0.0083313,0,0,0,0,0,0,0,-1,1672,428,1.07684,-0.00832231
455,596,2.00769,-1.43329,0,0,0,0,0,0,0,-1,1679,428,2.00765,1.4333
462,596,0,0,0,0,0,0,0,0,0,-1,1686,428,0,0
469,596,0,0,0,0,0,0,0,0,0,-1,1693,428,0,0
476,596,0,0,0,0,0,0,0,0,0,-1,1700,428,0,0
483,596,0,0,0,0,0,0,0,0,0,-1,1707,428,0,0
490,596,0,0,0,0,0,0,0,0,0,-1,1714,428,0,0
497,596,0,0,0,0,0,0,0,0,0,-1,1721,428,0,0
504,596,0,0,0,0,0,0,0,0,0,-1,1728,428,0,0
511,596,0,0,0,0,0,0,0,0,0,-1,1735,428,0,0
518,596,0,0,0,0,0,0,0,0,0,-1,1742,428,0,0
525,596,0,0,0,0,0,0,0,0,0,-1,1749,428,0,0
532,596,0,0,0,0,0,0,0,0,0,-1,1756,428,0,0
539,596,0,0,0,0,0,0,0,0,0,-1,1763,428,0,0
546,596,0,0,0,0,0,0,0,0,0,-1,1770,428,0,0
553,596,0,0,0,0,0,0,0,0,0,-1,1777,428,0,0
560,596,0,0,0,0,0,0,0,0,0,-1,1784,428,0,0
567,596,0,0,0,0,0,0,0,0,0,-1,1791,428,0,0
574,596,0,0,0,0,0,0,0,0,0,-1,1798,428,0,0
581,596,0,0,0,0,0,0,0,0,0,-1,1805,428,0,0
588,596,0,0,0,0,0,0,0,0,0,-1,1812,428,0,0
595,596,0,0,0,0,0,0,0,0,0,-1,1819,428,0,0
602,596,0,0,0,0,0,0,0,0,0,-1,1826,428,0,0
609,596,0,0,0,0,0,0,0,0,0,-1,1833,428,0,0
616,596,0,0,0,0,0,0,0,0,0,-1,1840,428,0,0
623,596,0,0,0,0,0,0,0,0,0,-1,1847,428,0,0
630,596,0,0,0,0,0,0,0,0,0,-1,1854,428,0,0
637,596,0,0,0,0,0,0,0,0,0,-1,1861,428,0,0
644,596,0,0,0,0,0,0,0,0,0,-1,1868,428,0,0
651,596,0,0,0,0,0,0,0,0,0,-1,1875,428,0,0
658,596,0,0,0,0,0,0,0,0,0,-1,1882,428,0,0
665,596,0,0,0,0,0,0,0,0,0,-1,1889,428,0,0
672,596,0,0,0,0,0,0,0,0,0,-1,1896,428,0,0
679,596,0,0,0,0,0,0,0,0,0,-1,1903,428,0,0
686,596,0,0,0,0,0,0,0,0,0,-1,1910,428,0,0
693,596,0,0,0,0,0,0,0,0,0,-1,1917,428,0,0
700,596,0,0,0,0,0,0,0,0,0,-1,1924,428,0,0
707,596,0,0,0,0,0,0,0,0,0,-1,1931,428,0,0
714,596,0,0,0,0,0,0,0,0,0,-1,1938,428,0,0
721,596,0,0,0,0,0,0,0,0,0,-1,1945,428,0,0
728,596,0,0,0,0,0,0,0,0,0,-1,1952,428,0,0
735,596,0,0,0,0,0,0,0,0,0,-1,1959,428,0,0
742,596,0,0,0,0,0,0,0,0,0,-1,1966,428,0,0
749,596,0,0,0,0,0,0,0,0,0,-1,1973,428,0,0
756,596,0,0,0,0,0,0,0,0,0,-1,1980,428,0,0
763,596,0,0,0,0,0,0,0,0,0,-1,1987,428,0,0
770,596,0,0,0,0,0,0,0,0,0,-1,1994,428,0,0
777,596,0,0,0,0,0,0,0,0,0,-1,2001,428,0,0
784,596,0,0,0,0,0,0,0,0,0,-1,2008,428,0,0
791,596,0,0,0,0,0,0,0,0,0,-1,2015,428,0,0
798,596,0,0,0,0,0,0,0,0,0,-1,2022,428,0,0
805,596,0,0,0,0,0,0,0,0,0,-1,2029,428,0,0
812,596,0,0,0,0,0,0,0,0,0,-1,2036,428,0,0
-700,589,0,0,0,0,0,0,0,0,0,-1,524,435,0,0
-693,589,0,0,0,0,0,0,0,0,0,-1,531,435,0,0
-686,589,0,0,0,0,0,0,0,0,0,-1,538,435,0,0
-679,589,0,0,0,0,0,0,0,0,0,-1,545,435,0,0
-672,589,0,0,0,0,0,0,0,0,0,-1,552,435,0,0
-665,589,0,0,0,0,0,0,0,0,0,-1,559,435,0,0
-658,589,0,0,0,0,0,0,0,0,0,-1,566,435,0,0
-651,589,0,0,0,0,0,0,0,0,0,-1,573,435,0,0
-644,589,0,0,0,0,0,0,0,0,0,-1,580,435,0,0
-637,589,0,0,0,0,0,0,0,0,0,-1,587,435,0,0
-630,589,0,0,0,0,0,0,0,0,0,-1,594,435,0,0
-623,589,0,0,0,0,0,0,0,0,0,-1,601,435,0,0
-616,589,0,0,0,0,0,0,0,0,0,-1,608,435,0,0
-609,589,0,0,0,0,0,0,0,0,0,-1,615,435,0,0
-602,589,0,0,0,0,0,0,0,0,0,-1,622,435,0,0
-595,589,0,0,0,0,0,0,0,0,0,-1,629,435,0,0
-588,589,0,0,0,0,0,0,0,0,0,-1,636,435,0,0
-581,589,0,0,0,0,0,0,0,0,0,-1,643,435,0,0
-574,589,0,0,0,0,0,0,0,0,0,-1,650,435,0,0
-567,589,0,0,0,0,0,0,0,0,0,-1,657,435,0,0
-560,589,0,0,0,0,0,0,0,0,0,-1,664,435,0,0
-553,589,0,0,0,0,0,0,0,0,0,-1,671,435,0,0
-546,589,0,0,0,0,0,0,0,0,0,-1,678,435,0,0
-539,589,0,0,0,0,0,0,0,0,0,-1,685,435,0,0
-532,589,0,0,0,0,0,0,0,0,0,-1,692,435,0,0
-525,589,0,0,0,0,0,0,0,0,0,-1,699,435,0,0
-518,589,0,0,0,0,0,0,0,0,0,-1,706,435,0,0
-511,589,0,0,0,0,0,0,0,0,0,-1,713,435,0,0
-504,589,0,0,0,0,0,0,0,0,0,-1,720,435,0,0
-497,589,0,0,0,0,0,0,0,0,0,-1,727,435,0,0
-490,589,0,0,0,0,0,0,0,0,0,-1,734,435,0,0
-483,589,0,0,0,0,0,0,0,0,0,-1,741,435,0,0
-476,589,0,0,0,0,0,0,0,0,0,-1,748,435,0,0
-469,589,0,0,0,0,0,0,0,0,0,-1,755,435,0,0
-462,589,0,0,0,0,0,0,0,0,0,-1,762,435,0,0
-455,589,0,0,0,0,0,0,0,0,0,-1,769,435,0,0
-448,589,0,0,0,0,0,0,0,0,0,-1,776,435,0,0
-441,589,0,0,0,0,0,0,0,0,0,-1,783,435,0,0
-434,589,0,0,0,0,0,0,0,0,0,-1,790,435,0,0
-427,589,0,0,0,0,0,0,0,0,0,-1,797,435,0,0
-420,589,0,0,0,0,0,0,0,0,0,-1,804,435,0,0
-413,589,0,0,0,0,0,0,0,0,0,-1,811,435,0,0
-406,589,0,0,0,0,0,0,0,0,0,-1,818,435,0,0
-399,589,0,0,0,0,0,0,0,0,0,-1,825,435,0,0
-392,589,0,0,0,0,0,0,0,0,0,-1,832,435,0,0
-385,589,0,0,0,0,0,0,0,0,0,-1,839,435,0,0
-378,589,0,0,0,0,0,0,0,0,0,-1,846,435,0,0
-371,589,0,0,0,0,0,0,0,0,0,-1,853,435,0,0
-364,589,0,0,0,0,0,0,0,0,0,-1,860,435,0,0
-357,589,0,0,0,0,0,0,0,0,0,-1,867,435,0,0
-350,589,-0.262695,-13.5742,0,0,0,0,0,0,0,-1,874,435,-0.262715,13.5742
-343,589,0.187195,-13.2853,0,0,0,0,0,0,0,-1,881,435,0.187181,13.2853
-336,589,0.677856,-12.7685,0,0,0,0,0,0,0,-1,888,435,0.677838,12.7685
-329,589,0.0882568,-9.79782,0,0,0,0,0,0,0,-1,895,435,0.0882795,9.79781
-322,589,2.35541,-7.75186,0,0,0,0,0,0,0,-1,902,435,2.35544,7.75185
-315,589,2.09955,-8.87552,0,0,0,0,0,0,0,-1,909,435,2.09957,8.87551
-308,589,1.19409,-7.92889,0,0,0,0,0,0,0,-1,916,435,1.19411,7.92888
-301,589,1.30957,-8.17319,0.00884718,-0.00210853,-0.00427846,0.01032,-0.00358137,-0.331538,0.00833436,0.0498918,923,435,1.30955,8.17319
-294,589,1.37238,-8.21616,0.00785504,-0.00105519,-0.00475962,0.00991928,-0.00311943,-0.409216,0.00786174,0.0438731,930,435,1.37235,8.21616
-287,589,1.68121,-8.27692,0.00651067,-0.000227551,-0.0045201,0.00877913,-0.00249601,-0.465135,0.00683832,0.0405083,937,435,1.68124,8.27691
-280,589,2.01239,-8.76508,0.00494561,0.00025772,-0.00414874,0.00736675,-0.00216343,-0.528263,0.00576915,0.0305815,944,435,2.01242,8.76507
-273,589,2.02698,-8.98413,0.00363216,0.000579617,-0.00381884,0.00621843,-0.00200666,-0.595288,0.00495194,0.0176025,951,435,2.02695,8.98413
-266,589,2.02856,-9.15494,0.00214069,0.000560872,-0.00325868,0.00470384,-0.00200227,-0.666491,0.00397512,0.0166842,958,435,2.02856,9.15493
-259,589,2.00824,-9.32956,0.000779974,0.000627834,-0.00275122,0.00345617,-0.00204836,-0.771577,0.0032125,0.0154439,965,435,2.00827,9.32957
-252,589,1.9809,-9.53784,-0.000134557,0.00031138,-0.0024741,0.00257254,-0.00239572,-0.830337,0.00286903,0.00960376,972,435,1.98089,9.53785
-245,589,1.97681,-9.711,-0.000696893,0.000130766,-0.0020302,0.00178889,-0.00235501,-0.885939,0.00239991,0.00967031,979,435,1.97679,9.71099
-238,589,1.97687,-9.89941,-0.00125115,0.000107079,-0.00173446,0.00129064,-0.00243471,-0.971996,0.00218438,0.0133869,986,435,1.97687,9.89941
-231,589,1.95905,-10.0496,-0.00139458,-0.000138134,-0.00151094,0.000869982,-0.0024027,-0.982417,0.00195734,0.0146354,993,435,1.95905,10.0496
-224,589,1.92987,-10.2324,-0.00091243,0.000198361,-0.0010947,0.000870492,-0.00158456,-1.02015,0.00143727,0.0142523,1000,435,1.92986,10.2324
-217,589,1.93597,-10.3938,-0.000373911,0.00059788,-0.000851596,0.00109245,-0.00086848,-1.04465,0.0011346,0.0152431,1007,435,1.93597,10.3938
-210,589,1.95032,-10.5381,0.000148753,0.000826065,-0.000640479,0.00121191,-0.000237092,-1.02859,0.000897471,0.0138261,1014,435,1.95034,10.5382
-203,589,1.93292,-10.6835,0.000743299,0.000840567,-0.000404664,0.00119951,0.000384357,-0.845203,0.000707268,0.00972004,1021,435,1.93291,10.6835
-196,589,1.93274,-10.8428,0.00109852,0.00121665,-3.71809e-05,0.00122738,0.00108779,-1.28989,0.000775922,0.0118171,1028,435,1.93278,10.8428
-189,589,1.91699,-11.0007,0.00128485,0.00139325,-3.00995e-05,0.00140104,0.00127705,-1.31733,0.000895563,0.0155208,1035,435,1.917,11.0007
-182,589,1.93359,-11.1343,0.00154388,0.00152306,-9.03347e-05,0.0016244,0.00144254,-0.728015,0.00102769,0.0124103,1042,435,1.93358,11.1343
-175,589,1.94763,-11.2662,0.00171375,0.00142816,-0.000115858,0.00175484,0.00138707,-0.340813,0.00106861,0.0162933,1049,435,1.94766,11.2662
-168,589,1.97217,-11.3969,0.00182266,0.000916231,-6.93184e-05,0.00182793,0.00091096,-0.0758862,0.00105536,0.0141088,1056,435,1.97212,11.3969
-161,589,1.97046,-11.5147,0.00193572,5.65194e-05,-7.0655e-05,0.00193838,5.38666e-05,-0.0375278,0.00127467,0.0126265,1063,435,1.97045,11.5148
-154,589,1.95496,-11.6379,0.00201592,-0.000573588,-3.18913e-05,0.00201631,-0.000573981,-0.0123131,0.00157089,0.012029,1070,435,1.95494,11.6379
-147,589,1.96326,-11.7686,0.00207274,-0.00141513,9.45456e-05,0.0020753,-0.00141769,0.0270805,0.00202856,0.0121666,1077,435,1.96322,11.7686
-140,589,1.98096,-11.9053,0.00205969,-0.0024074,0.000409128,0.00209685,-0.00244456,0.090583,0.00262455,0.0125056,1084,435,1.98098,11.9053
-133,589,1.98279,-12.0297,0.00207461,-0.00359906,0.000639399,0.00214578,-0.00367022,0.110844,0.0033961,0.011525,1091,435,1.9828,12.0297
-126,589,2.00708,-12.1389,0.00215704,-0.00450072,0.000914337,0.00228033,-0.00462401,0.134029,0.00406205,0.00984978,1098,435,2.00704,12.1389
-119,589,2.02234,-12.2386,0.00225475,-0.00534662,0.00128029,0.00246459,-0.00555646,0.16246,0.00474425,0.0175512,1105,435,2.02228,12.2386
-112,589,2.00195,-12.3511,0.00237838,-0.00598206,0.00176913,0.00273733,-0.00634101,0.200178,0.00537727,0.0185988,1112,435,2.0019,12.3511
-105,589,2.01111,-12.4647,0.00255743,-0.00624105,0.00228628,0.00311606,-0.00679967,0.239641,0.00585505,0.016717,1119,435,2.01113,12.4647
-98,589,2.04309,-12.5456,0.00277656,-0.00626188,0.00266684,0.00350476,-0.00699008,0.266558,0.00616957,0.0167904,1126,435,2.04312,12.5456
-91,589,2.12073,-12.6251,0.00299484,-0.00567658,0.00267941,0.00375596,-0.00643769,0.27677,0.00595281,0.0226841,1133,435,2.12077,12.6251
-84,589,2.18005,-12.7933,0.00316575,-0.00503977,0.00273502,0.00399381,-0.00586783,0.293988,0.00572779,0.0378332,1140,435,2.18,12.7933
-77,589,2.23462,-13.0868,0,0,0,0,0,0,0,-1,1147,435,2.23462,13.0868
-70,589,1.48267,-9.90961,0,0,0,0,0,0,0,-1,1154,435,1.48264,9.9096
-63,589,0.880127,-5.50586,0,0,0,0,0,0,0,-1,1161,435,0.880186,5.50587
-56,589,-2.78052,-7.28082,0,0,0,0,0,0,0,-1,1168,435,-2.78053,7.28082
-49,589,-0.525757,-2.76703,0,0,0,0,0,0,0,-1,1175,435,-0.525771,2.76702
-42,589,-2.7738,-2.87921,0,0,0,0,0,0,0,-1,1182,435,-2.77383,2.87922
-35,589,-2.55225,-3.27551,0,0,0,0,0,0,0,-1,1189,435,-2.55223,3.27552
-28,589,-0.0632324,-3.42938,0,0,0,0,0,0,0,-1,1196,435,-0.063241,3.42938
-21,589,2.03931,-12.8662,0,0,0,0,0,0,0,-1,1203,435,2.03928,12.8662
-14,589,2.2207,-13.0023,0,0,0,0,0,0,0,-1,1210,435,2.22073,13.0023
-7,589,2.42603,-12.8573,0,0,0,0,0,0,0,-1,1217,435,2.42604,12.8573
0,589,2.70984,-12.4398,0,0,0,0,0,0,0,-1,1224,435,2.70989,12.4398
7,589,2.71582,-12.7681,0.020783,0.0995224,-0.0606475,0.132458,-0.0121528,-1.07329,0.0926226,0.0478153,1231,435,2.71583,12.7681
14,589,2.71399,-13.2241,0.0195505,0.073779,-0.0457283,0.0998273,-0.00649779,-1.05301,0.0688198,0.0486692,1238,435,2.71394,13.2241
21,589,2.56555,-13.5691,0.0170296,0.0521844,-0.032234,0.0713221,-0.00210802,-1.03501,0.0482661,0.0450983,1245,435,2.56555,13.5691
28,589,2.34338,-13.6994,0.0159656,0.0325406,-0.0198108,0.0457275,0.00277865,-0.983502,0.0296023,0.0478392,1252,435,2.34341,13.6994
35,589,2.3573,-14.1641,0,0,0,0,0,0,0,-1,1259,435,2.35729,14.1641
42,589,2.37817,-14.3726,0,0,0,0,0,0,0,-1,1266,435,2.37814,14.3725
49,589,2.84229,-14.7222,0.0189497,-0.0122476,0.00979717,0.0217712,-0.0150691,0.280405,0.0213868,0.0470501,1273,435,2.84234,14.7222
56,589,3.0238,-14.8498,0.0214343,-0.0135067,0.013115,0.0258092,-0.0178815,0.321972,0.0253629,0.0463006,1280,435,3.02378,14.8498
63,589,3.22302,-14.9511,0.0218265,-0.0163557,0.019434,0.0299779,-0.024507,0.397149,0.0315097,0.0448277,1287,435,3.22308,14.9511
70,589,3.31934,-14.9554,0.0248521,-0.0119088,0.0190687,0.0329566,-0.0200134,0.401888,0.0308851,0.0451297,1294,435,3.31938,14.9554
77,589,2.01953,-13.3088,0,0,0,0,0,0,0,-1,1301,435,2.01956,13.3088
84,589,2.20142,-13.4634,0.0355177,-0.00369778,0.0121277,0.0389652,-0.0071453,0.276962,0.0286571,0.0434352,1308,435,2.20144,13.4634
91,589,2.55859,-13.6134,0.0354675,0.00240599,0.00973715,0.0381221,-0.000248611,0.266158,0.025498,0.0409733,1315,435,2.55865,13.6134
98,589,2.76257,-13.4277,0.0330392,0.00501125,0.00714665,0.0347563,0.00329417,0.235794,0.0221546,0.0439116,1322,435,2.76252,13.4277
105,589,2.75647,-13.2344,0,0,0,0,0,0,0,-1,1329,435,2.75652,13.2344
112,589,3.16968,-12.4749,0,0,0,0,0,0,0,-1,1336,435,3.16974,12.4749
119,589,3.09802,-11.966,0.0235517,0.00815401,-0.00109108,0.0236287,0.00807708,-0.0703911,0.0138677,0.042688,1343,435,3.09801,11.966
126,589,2.67444,-11.9334,0.020396,0.00396356,-0.0027708,0.0208506,0.00350894,-0.162629,0.0128909,0.0448085,1350,435,2.67445,11.9334
133,589,3.50244,-13.2683,0.0150336,-0.00118792,-0.00399795,0.0159654,-0.00211973,-0.228984,0.011416,0.0480841,1357,435,3.50244,13.2683
140,589,2.99548,-12.9439,0.00965609,-0.00602214,-0.00521544,0.0112325,-0.00759857,-0.293531,0.0109394,0.0445738,1364,435,2.99551,12.9439
147,589,2.32422,-12.1633,0.00424659,-0.0101398,-0.00582427,0.0063089,-0.0122021,-0.340312,0.0108663,0.0446154,1371,435,2.32428,12.1633
154,589,3.13049,-12.4591,-0.000558243,-0.0134611,-0.00631831,0.00202038,-0.0160398,-0.387486,0.0114263,0.0450257,1378,435,3.13049,12.4591
161,589,3.02429,-12.4363,-0.00462733,-0.0160635,-0.00660148,-0.00161179,-0.019079,-0.428492,0.0122176,0.0476279,1385,435,3.02428,12.4363
168,589,3.10864,-12.358,0,0,0,0,0,0,0,-1,1392,435,3.10866,12.358
175,589,8.66992,-7.65527,0,0,0,0,0,0,0,-1,1399,435,8.66994,7.65528
182,589,3.8136,-2.45389,0,0,0,0,0,0,0,-1,1406,435,3.81363,2.4539
189,589,3.69983,-3.68149,0,0,0,0,0,0,0,-1,1413,435,3.69987,3.68147
196,589,3.31055,-5.31677,0,0,0,0,0,0,0,-1,1420,435,3.31059,5.31678
203,589,2.72559,-8.84338,0,0,0,0,0,0,0,-1,1427,435,2.72558,8.84338
210,589,3.18262,-12.3306,0,0,0,0,0,0,0,-1,1434,435,3.18261,12.3306
217,589,3.30383,-12.0133,0.0034737,-0.00220323,-0.00324492,0.00494643,-0.00367595,-0.426056,0.00499611,0.0352311,1441,435,3.30386,12.0133
224,589,3.3125,-11.9893,0.00313671,-0.000786006,-0.00273498,0.00454092,-0.00219021,-0.47433,0.00396443,0.0207418,1448,435,3.31252,11.9893
231,589,3.34399,-11.8988,0.00279404,0.00027233,-0.00231543,0.00416965,-0.00110328,-0.536076,0.00321133,0.0189608,1455,435,3.344,11.8988
238,589,3.34058,-11.7784,0.00244993,0.001125,-0.00209357,0.00398335,-0.00040842,-0.632168,0.00280165,0.0212927,1462,435,3.34054,11.7784
245,589,3.34155,-11.5682,0.00224048,0.00189352,-0.00179122,0.0038666,0.000267404,-0.737123,0.00249338,0.0196386,1469,435,3.34153,11.5683
252,589,3.38086,-11.4453,0.0018607,0.00237196,-0.00157052,0.00370752,0.00052514,-0.866075,0.00231656,0.0128892,1476,435,3.38089,11.4453
259,589,3.39624,-11.356,0.00148049,0.00256459,-0.00133415,0.0034626,0.000582481,-0.978357,0.00214082,0.00899295,1483,435,3.39627,11.356
266,589,3.39453,-11.2094,0.00120826,0.00258612,-0.00111917,0.0032114,0.000582968,-1.06129,0.0019755,0.00903771,1490,435,3.39455,11.2094
273,589,3.40588,-11.0734,0.000881743,0.00247631,-0.000971094,0.00293549,0.00042257,-1.12911,0.00183245,0.0113411,1497,435,3.40585,11.0734
280,589,3.42603,-10.9472,0.000474855,0.00234406,-0.000794186,0.00263592,0.000182994,-1.21862,0.00169957,0.012313,1504,435,3.426,10.9472
287,589,3.44141,-10.8092,0.000329902,0.00215557,-0.000593408,0.0023315,0.000153976,-1.28258,0.00150564,0.0109747,1511,435,3.44145,10.8092
294,589,3.42871,-10.6354,0.000302333,0.0018426,-0.000429674,0.00195435,0.000190579,-1.31634,0.00124425,0.00995675,1518,435,3.42875,10.6354
301,589,3.43103,-10.4579,0.000236942,0.00151512,-0.000265594,0.00156812,0.000183951,-1.37386,0.000989807,0.0107091,1525,435,3.43102,10.4579
308,589,3.44727,-10.2937,0.000239412,0.00136167,-6.81014e-05,0.00136578,0.000235295,-1.51041,0.000843107,0.0107631,1532,435,3.44726,10.2937
315,589,3.44788,-10.1173,0.000298845,0.00134127,0.000142873,0.00136049,0.000279618,1.43702,0.000829648,0.0107897,1539,435,3.44784,10.1173
322,589,3.46497,-9.93903,0.000367709,0.0014232,0.00037125,0.0015407,0.00025021,1.26427,0.000954725,0.0115753,1546,435,3.46499,9.93902
329,589,3.4646,-9.776,0.000475333,0.00157101,0.000655751,0.00187765,0.000168691,1.13339,0.0011995,0.010421,1553,435,3.46464,9.77601
336,589,3.44971,-9.6199,0.00058346,0.00179558,0.00099239,0.00235234,2.6701e-05,1.05953,0.0015594,0.00972306,1560,435,3.44965,9.61991
343,589,3.44055,-9.44763,0.000667,0.00196782,0.00129851,0.0027697,-0.000134886,1.01758,0.00189303,0.0105323,1567,435,3.44052,9.44762
350,589,3.43506,-9.26291,0.00080631,0.00222517,0.00167565,0.00333538,-0.000303905,0.985645,0.0023315,0.0158593,1574,435,3.43508,9.26291
357,589,3.42358,-9.05493,0.000910363,0.00249497,0.00204854,0.00389909,-0.000493751,0.969921,0.00277864,0.0131328,1581,435,3.42354,9.05493
364,589,3.42786,-8.84317,0.000968624,0.00279822,0.00241085,0.004462,-0.000695156,0.966731,0.00323141,0.0102206,1588,435,3.42784,8.84318
371,589,3.41919,-8.64795,0.00103461,0.0031095,0.00277158,0.00503144,-0.000887325,0.964484,0.00368584,0.0106867,1595,435,3.41917,8.64794
378,589,3.41052,-8.45639,0.000908378,0.00329496,0.00296827,0.00530082,-0.00109748,0.97652,0.00395085,0.0120092,1602,435,3.41053,8.4564
385,589,3.42871,-8.25,0.000723762,0.0030809,0.00284308,0.00498002,-0.00117535,0.981887,0.00377332,0.0148461,1609,435,3.42875,8.25001
392,589,3.42981,-8.0065,0.00105802,0.00294562,0.00283062,0.00498564,-0.000981991,0.946315,0.00369484,0.0169624,1616,435,3.42983,8.00651
399,589,3.43982,-7.7811,0.00141545,0.00262596,0.00278825,0.00487389,-0.000832483,0.892276,0.00355935,0.0229198,1623,435,3.43977,7.7811
406,589,3.44763,-7.56897,0,0,0,0,0,0,0,-1,1630,435,3.44765,7.56897
413,589,3.24597,-7.3212,0,0,0,0,0,0,0,-1,1637,435,3.24597,7.3212
420,589,2.79724,-5.79956,0,0,0,0,0,0,0,-1,1644,435,2.7973,5.79955
427,589,2.87976,-5.28177,0,0,0,0,0,0,0,-1,1651,435,2.87972,5.28177
434,589,2.52734,-2.73029,0,0,0,0,0,0,0,-1,1658,435,2.52736,2.73029
441,589,3.17639,-2.02435,0,0,0,0,0,0,0,-1,1665,435,3.17643,2.02435
448,589,0.453735,-3.2868,0,0,0,0,0,0,0,-1,1672,435,0.453701,3.28681
455,589,0.664307,-3.46848,0,0,0,0,0,0,0,-1,1679,435,0.66425,3.46846
462,589,3.46716,-4.41891,0,0,0,0,0,0,0,-1,1686,435,3.4672,4.41891
469,589,0.0238037,-3.81497,0,0,0,0,0,0,0,-1,1693,435,0.0237965,3.81498
476,589,0,0,0,0,0,0,0,0,0,-1,1700,435,0,0
483,589,0,0,0,0,0,0,0,0,0,-1,1707,435,0,0
490,589,0,0,0,0,0,0,0,0,0,-1,1714,435,0,0
497,589,0,0,0,0,0,0,0,0,0,-1,1721,435,0,0
504,589,0,0,0,0,0,0,0,0,0,-1,1728,435,0,0
511,589,0,0,0,0,0,0,0,0,0,-1,1735,435,0,0
518,589,0,0,0,0,0,0,0,0,0,-1,1742,435,0,0
525,589,0,0,0,0,0,0,0,0,0,-1,1749,435,0,0
532,589,0,0,0,0,0,0,0,0,0,-1,1756,435,0,0
539,589,0,0,0,0,0,0,0,0,0,-1,1763,435,0,0
546,589,0,0,0,0,0,0,0,0,0,-1,1770,435,0,0
553,589,0,0,0,0,0,0,0,0,0,-1,1777,435,0,0
560,589,0,0,0,0,0,0,0,0,0,-1,1784,435,0,0
567,589,0,0,0,0,0,0,0,0,0,-1,1791,435,0,0
574,589,0,0,0,0,0,0,0,0,0,-1,1798,435,0,0
581,589,0,0,0,0,0,0,0,0,0,-1,1805,435,0,0
588,589,0,0,0,0,0,0,0,0,0,-1,1812,435,0,0
595,589,0,0,0,0,0,0,0,0,0,-1,1819,435,0,0
602,589,0,0,0,0,0,0,0,0,0,-1,1826,435,0,0
609,589,0,0,0,0,0,0,0,0,0,-1,1833,435,0,0
616,589,0,0,0,0,0,0,0,0,0,-1,1840,435,0,0
623,589,0,0,0,0,0,0,0,0,0,-1,1847,435,0,0
630,589,0,0,0,0,0,0,0,0,0,-1,1854,435,0,0
637,589,0,0,0,0,0,0,0,0,0,-1,1861,435,0,0
644,589,0,0,0,0,0,0,0,0,0,-1,1868,435,0,0
651,589,0,0,0,0,0,0,0,0,0,-1,1875,435,0,0
658,589,0,0,0,0,0,0,0,0,0,-1,1882,435,0,0
665,589,0,0,0,0,0,0,0,0,0,-1,1889,435,0,0
672,589,0,0,0,0,0,0,0,0,0,-1,1896,435,0,0
679,589,0,0,0,0,0,0,0,0,0,-1,1903,435,0,0
686,589,0,0,0,0,0,0,0,0,0,-1,1910,435,0,0
693,589,0,0,0,0,0,0,0,0,0,-1,1917,435,0,0
700,589,0,0,0,0,0,0,0,0,0,-1,1924,435,0,0
707,589,0,0,0,0,0,0,0,0,0,-1,1931,435,0,0
714,589,0,0,0,0,0,0,0,0,0,-1,1938,435,0,0
721,589,0,0,0,0,0,0,0,0,0,-1,1945,435,0,0
728,589,0,0,0,0,0,0,0,0,0,-1,1952,435,0,0
735,589,0,0,0,0,0,0,0,0,0,-1,1959,435,0,0
742,589,0,0,0,0,0,0,0,0,0,-1,1966,435,0,0
749,589,0,0,0,0,0,0,0,0,0,-1,1973,435,0,0
756,589,0,0,0,0,0,0,0,0,0,-1,1980,435,0,0
763,589,0,0,0,0,0,0,0,0,0,-1,1987,435,0,0
770,589,0,0,0,0,0,0,0,0,0,-1,1994,435,0,0
777,589,0,0,0,0,0,0,0,0,0,-1,2001,435,0,0
784,589,0,0,0,0,0,0,0,0,0,-1,2008,435,0,0
791,589,0,0,0,0,0,0,0,0,0,-1,2015,435,0,0
798,589,0,0,0,0,0,0,0,0,0,-1,2022,435,0,0
805,589,0,0,0,0,0,0,0,0,0,-1,2029,435,0,0
812,589,0,0,0,0,0,0,0,0,0,-1,2036,435,0,0
-700,582,0,0,0,0,0,0,0,0,0,-1,524,442,0,0
-693,582,0,0,0,0,0,0,0,0,0,-1,531,442,0,0
-686,582,0,0,0,0,0,0,0,0,0,-1,538,442,0,0
-679,582,0,0,0,0,0,0,0,0,0,-1,545,442,0,0
-672,582,0,0,0,0,0,0,0,0,0,-1,552,442,0,0
-665,582,0,0,0,0,0,0,0,0,0,-1,559,442,0,0
-658,582,0,0,0,0,0,0,0,0,0,-1,566,442,0,0
-651,582,0,0,0,0,0,0,0,0,0,-1,573,442,0,0
-644,582,0,0,0,0,0,0,0,0,0,-1,580,442,0,0
-637,582,0,0,0,0,0,0,0,0,0,-1,587,442,0,0
-630,582,0,0,0,0,0,0,0,0,0,-1,594,442,0,0
-623,582,0,0,0,0,0,0,0,0,0,-1,601,442,0,0
-616,582,0,0,0,0,0,0,0,0,0,-1,608,442,0,0
-609,582,0,0,0,0,0,0,0,0,0,-1,615,442,0,0
-602,582,0,0,0,0,0,0,0,0,0,-1,622,442,0,0
-595,582,0,0,0,0,0,0,0,0,0,-1,629,442,0,0
-588,582,0,0,0,0,0,0,0,0,0,-1,636,442,0,0
-581,582,0,0,0,0,0,0,0,0,0,-1,643,442,0,0
-574,582,0,0,0,0,0,0,0,0,0,-1,650,442,0,0
-567,582,0,0,0,0,0,0,0,0,0,-1,657,442,0,0
-560,582,0,0,0,0,0,0,0,0,0,-1,664,442,0,0
-553,582,0,0,0,0,0,0,0,0,0,-1,671,442,0,0
-546,582,0,0,0,0,0,0,0,0,0,-1,678,442,0,0
-539,582,0,0,0,0,0,0,0,0,0,-1,685,442,0,0
-532,582,0,0,0,0,0,0,0,0,0,-1,692,442,0,0
-525,582,0,0,0,0,0,0,0,0,0,-1,699,442,0,0
-518,582,0,0,0,0,0,0,0,0,0,-1,706,442,0,0
-511,582,0,0,0,0,0,0,0,0,0,-1,713,442,0,0
-504,582,0,0,0,0,0,0,0,0,0,-1,720,442,0,0
-497,582,0,0,0,0,0,0,0,0,0,-1,727,442,0,0
-490,582,0,0,0,0,0,0,0,0,0,-1,734,442,0,0
-483,582,0,0,0,0,0,0,0,0,0,-1,741,442,0,0
-476,582,0,0,0,0,0,0,0,0,0,-1,748,442,0,0
-469,582,0,0,0,0,0,0,0,0,0,-1,755,442,0,0
-462,582,0,0,0,0,0,0,0,0,0,-1,762,442,0,0
-455,582,0,0,0,0,0,0,0,0,0,-1,769,442,0,0
-448,582,0,0,0,0,0,0,0,0,0,-1,776,442,0,0
-441,582,0,0,0,0,0,0,0,0,0,-1,783,442,0,0
-434,582,0,0,0,0,0,0,0,0,0,-1,790,442,0,0
-427,582,0,0,0,0,0,0,0,0,0,-1,797,442,0,0
-420,582,0,0,0,0,0,0,0,0,0,-1,804,442,0,0
-413,582,0,0,0,0,0,0,0,0,0,-1,811,442,0,0
-406,582,0,0,0,0,0,0,0,0,0,-1,818,442,0,0
-399,582,0,0,0,0,0,0,0,0,0,-1,825,442,0,0
-392,582,0,0,0,0,0,0,0,0,0,-1,832,442,0,0
-385,582,0,0,0,0,0,0,0,0,0,-1,839,442,0,0
-378,582,0,0,0,0,0,0,0,0,0,-1,846,442,0,0
-371,582,0,0,0,0,0,0,0,0,0,-1,853,442,0,0
-364,582,0,0,0,0,0,0,0,0,0,-1,860,442,0,0
-357,582,6.4043,-4.18127,0,0,0,0,0,0,0,-1,867,442,6.40427,4.18126
-350,582,-1.12933,-15.713,0,0,0,0,0,0,0,-1,874,442,-1.12935,15.713
-343,582,-0.551086,-15.4312,0,0,0,0,0,0,0,-1,881,442,-0.5511,15.4311
-336,582,0.0556641,-4.78558,0,0,0,0,0,0,0,-1,888,442,0.0556634,4.78559
-329,582,2.53162,-7.58139,0,0,0,0,0,0,0,-1,895,442,2.5316,7.5814
-322,582,1.97375,-7.84216,0.00664662,-0.00243903,0.00190045,0.00702812,-0.00282052,0.198108,0.00585654,0.0491479,902,442,1.97374,7.84218
-315,582,1.89203,-8.49643,0.00617284,-0.00377217,0.000542822,0.00620238,-0.00380171,0.0543671,0.00583103,0.0481588,909,442,1.89202,8.49642
-308,582,1.39825,-7.89236,0,0,0,0,0,0,0,-1,916,442,1.39825,7.89237
-301,582,1.50275,-8.16278,0.00576741,-0.00239739,-0.00295381,0.00672396,-0.00335394,-0.313178,0.00592592,0.04483,923,442,1.50277,8.16279
-294,582,1.56708,-8.35681,0.00536976,-0.00126411,-0.00356818,0.00692458,-0.00281892,-0.410937,0.00578949,0.0398358,930,442,1.56707,8.35682
-287,582,1.74573,-8.55392,0.00473833,-0.000290627,-0.00349174,0.00652673,-0.00207903,-0.473346,0.00518502,0.0326287,937,442,1.74572,8.55392
-280,582,1.86823,-8.74826,0.00385788,0.00026654,-0.00318748,0.00572069,-0.00159627,-0.52888,0.00444253,0.0154329,944,442,1.86821,8.74826
-273,582,1.84973,-8.93124,0.00307448,0.000635866,-0.00288126,0.00498381,-0.00127346,-0.585232,0.00381848,0.00970829,951,442,1.84975,8.93124
-266,582,1.84253,-9.13391,0.00202807,0.000678354,-0.00237678,0.00382395,-0.00111753,-0.64707,0.0029922,0.00993863,958,442,1.84255,9.13391
-259,582,1.82452,-9.34949,0.00100357,0.000804707,-0.00193971,0.00284639,-0.00103811,-0.75979,0.00232231,0.0087678,965,442,1.8245,9.34948
-252,582,1.79968,-9.53729,0.000294305,0.000541701,-0.00170351,0.002126,-0.00128999,-0.821641,0.00199181,0.00799708,972,442,1.79969,9.53729
-245,582,1.81323,-9.71552,-0.000154928,0.00037129,-0.0013194,0.00145355,-0.00123719,-0.883815,0.00155518,0.0107738,979,442,1.81325,9.71551
-238,582,1.81909,-9.8703,-0.000566705,0.000397249,-0.00104635,0.00106729,-0.00123675,-1.00123,0.00133144,0.0146673,986,442,1.81908,9.8703
-231,582,1.80859,-10.0376,-0.000667296,0.000221706,-0.000806943,0.000698475,-0.00114407,-1.03714,0.00107411,0.0125962,993,442,1.80858,10.0376
-224,582,1.80609,-10.2241,-0.00021692,0.000573001,-0.000428955,0.000761133,-0.000405051,-1.15748,0.000683679,0.0110067,1000,442,1.80607,10.2241
-217,582,1.7981,-10.3952,0.000330062,0.00101769,-0.000176298,0.00106025,0.000287496,-1.33389,0.000633149,0.0130819,1007,442,1.79812,10.3952
-210,582,1.80316,-10.5182,0.000886401,0.00132445,1.27916e-05,0.00132482,0.000886028,1.54163,0.000779278,0.0126428,1014,442,1.80317,10.5181
-203,582,1.80933,-10.6925,0.00148293,0.00151825,0.000184605,0.00168604,0.00131514,0.83309,0.00102305,0.00945627,1021,442,1.80932,10.6925
-196,582,1.80164,-10.8658,0.00190427,0.00194357,0.000437533,0.00236189,0.00148594,0.807839,0.00137871,0.0144227,1028,442,1.80166,10.8658
-189,582,1.76917,-11.015,0.00220252,0.00221207,0.000424153,0.00263147,0.00178311,0.791026,0.0015509,0.0204925,1035,442,1.76912,11.015
-182,582,1.76074,-11.1458,0.00255387,0.00239722,0.000321659,0.0028066,0.00214449,0.665974,0.00169406,0.0139861,1042,442,1.76075,11.1458
-175,582,1.80005,-11.2575,0.00276389,0.00232922,0.000214137,0.00285166,0.00224145,0.388992,0.00173387,0.012949,1049,442,1.80002,11.2575
-168,582,1.81201,-11.3953,0.00295,0.0016437,0.000243731,0.002994,0.0015997,0.178579,0.00172994,0.0114246,1056,442,1.81199,11.3953
-161,582,1.81726,-11.5343,0.00312377,0.000396146,0.000206011,0.00313925,0.000380675,0.074961,0.00197819,0.0119969,1063,442,1.8173,11.5343
-154,582,1.81567,-11.6516,0.00315403,-0.000577935,0.000195439,0.00316424,-0.000588142,0.0521788,0.00233041,0.0116538,1070,442,1.81569,11.6516
-147,582,1.83154,-11.7727,0.0031551,-0.0018347,0.000292788,0.00317222,-0.00185182,0.0584101,0.00293383,0.0122614,1077,442,1.83153,11.7727
-140,582,1.84119,-11.8864,0.0030388,-0.00334043,0.000650247,0.0031044,-0.00340604,0.100554,0.00376015,0.0127487,1084,442,1.84121,11.8864
-133,582,1.86829,-12.0007,0.00292144,-0.00524797,0.000943366,0.00302896,-0.00535549,0.113486,0.00490249,0.0147255,1091,442,1.86823,12.0007
-126,582,1.89587,-12.1008,0.00299338,-0.00672842,0.0013262,0.00317104,-0.00690609,0.133174,0.00594975,0.0125088,1098,442,1.8959,12.1008
-119,582,1.9032,-12.1849,0.0030913,-0.00817942,0.00187427,0.00339481,-0.00848293,0.160541,0.00706424,0.0164056,1105,442,1.90319,12.1849
-112,582,1.84253,-12.3498,0.00318371,-0.0093065,0.0026783,0.0037338,-0.00985659,0.202569,0.0081075,0.0246679,1112,442,1.84258,12.3498
-105,582,1.79553,-12.5054,0.00331211,-0.00990265,0.00354835,0.00420462,-0.0107952,0.246415,0.00893442,0.0317744,1119,442,1.79555,12.5054
-98,582,1.8855,-12.6085,0.00351792,-0.0102504,0.00425268,0.00472554,-0.011458,0.276684,0.00960931,0.0348342,1126,442,1.88549,12.6085
-91,582,1.75964,-12.6297,0.00375186,-0.0096324,0.0043794,0.00505746,-0.010938,0.289734,0.00944072,0.037075,1133,442,1.75959,12.6297
-84,582,1.91943,-12.7274,0,0,0,0,0,0,0,-1,1140,442,1.91938,12.7274
-77,582,2.30212,-11.4907,0,0,0,0,0,0,0,-1,1147,442,2.30207,11.4907
-70,582,1.49255,-6.36548,0,0,0,0,0,0,0,-1,1154,442,1.49251,6.36549
-63,582,-4.62915,-4.0347,0,0,0,0,0,0,0,-1,1161,442,-4.6292,4.03471
-56,582,-5.81714,-5.24149,0,0,0,0,0,0,0,-1,1168,442,-5.81718,5.24149
-49,582,-3.88672,-10.1064,0,0,0,0,0,0,0,-1,1175,442,-3.88678,10.1064
-42,582,-0.948975,1.13968,0,0,0,0,0,0,0,-1,1182,442,-0.949003,-1.13969
-35,582,-2.58435,-3.86911,0,0,0,0,0,0,0,-1,1189,442,-2.58437,3.86912
-28,582,-0.825317,-3.45941,0,0,0,0,0,0,0,-1,1196,442,-0.825377,3.45942
-21,582,1.13599,-12.3673,0,0,0,0,0,0,0,-1,1203,442,1.13603,12.3673
-14,582,1.31189,-12.301,0,0,0,0,0,0,0,-1,1210,442,1.31187,12.301
-7,582,1.64893,-12.182,0,0,0,0,0,0,0,-1,1217,442,1.64895,12.182
0,582,2.23499,-12.4929,0,0,0,0,0,0,0,-1,1224,442,2.23498,12.4929
7,582,2.30603,-12.5969,0.0270701,0.14301,-0.0863778,0.189067,-0.0189871,-1.08094,0.132827,0.0477961,1231,442,2.30607,12.5969
14,582,2.60352,-13.1906,0.0247505,0.106567,-0.0654256,0.142821,-0.0115034,-1.06479,0.0992706,0.0485506,1238,442,2.60346,13.1906
21,582,2.49097,-13.6477,0,0,0,0,0,0,0,-1,1245,442,2.49102,13.6477
28,582,2.16309,-13.3157,0,0,0,0,0,0,0,-1,1252,442,2.16313,13.3157
35,582,1.82507,-13.2674,0,0,0,0,0,0,0,-1,1259,442,1.82505,13.2674
42,582,2.24609,-13.8205,0,0,0,0,0,0,0,-1,1266,442,2.24603,13.8205
49,582,2.23987,-14.0995,0.0214397,-0.0152524,0.0118152,0.0249151,-0.0187278,0.286079,0.0252815,0.0437084,1273,442,2.23989,14.0996
56,582,2.04285,-13.9887,0.024399,-0.0172873,0.0164704,0.0301211,-0.0230093,0.33437,0.0307663,0.0438535,1280,442,2.04286,13.9887
63,582,3.21204,-14.029,0.0248875,-0.0212716,0.0247978,0.0356842,-0.0320682,0.410636,0.0391355,0.0419855,1287,442,3.21203,14.029
70,582,3.22485,-14.0626,0.0290759,-0.0152403,0.0242855,0.0397929,-0.0259572,0.415586,0.0382399,0.0464079,1294,442,3.22489,14.0626
77,582,1.9303,-13.865,0,0,0,0,0,0,0,-1,1301,442,1.93036,13.865
84,582,2.16455,-13.7592,0.0437977,-0.0041011,0.0156123,0.0484371,-0.00874049,0.288851,0.0355648,0.0494115,1308,442,2.16458,13.7592
91,582,2.46509,-13.6937,0.0445816,0.00396322,0.0124901,0.048115,0.000429893,0.275687,0.0319343,0.0451967,1315,442,2.46503,13.6937
98,582,2.66418,-13.5632,0.0421243,0.00771311,0.00898909,0.044331,0.00550644,0.240723,0.0279002,0.043709,1322,442,2.66413,13.5632
105,582,2.8407,-13.3556,0.0404457,0.0107249,0.00501339,0.0412685,0.00990205,0.162688,0.0248775,0.0417865,1329,442,2.84074,13.3556
112,582,3.23572,-13.0694,0.036642,0.0132717,0.00156753,0.0367466,0.013167,0.0666758,0.0214977,0.0422207,1336,442,3.23575,13.0694
119,582,3.62439,-12.8554,0.0318324,0.0128761,-0.00182262,0.032006,0.0127025,-0.094989,0.0186092,0.044023,1343,442,3.62433,12.8554
126,582,4.36011,-12.715,0.0277629,0.00768055,-0.00425215,0.0286261,0.00681732,-0.200288,0.0172662,0.0440403,1350,442,4.36007,12.715
133,582,3.66357,-13.498,0,0,0,0,0,0,0,-1,1357,442,3.66357,13.498
140,582,2.25732,-12.6935,0,0,0,0,0,0,0,-1,1364,442,2.25732,12.6934
147,582,3.95471,-12.6233,0,0,0,0,0,0,0,-1,1371,442,3.95467,12.6233
154,582,3.6731,-12.3459,0,0,0,0,0,0,0,-1,1378,442,3.6731,12.3459
161,582,3.39148,-12.0685,0,0,0,0,0,0,0,-1,1385,442,3.39153,12.0685
168,582,12.3975,-11.5795,0,0,0,0,0,0,0,-1,1392,442,12.3974,11.5795
175,582,6.50549,-2.00424,0,0,0,0,0,0,0,-1,1399,442,6.50546,2.00425
182,582,5.18958,-2.18652,0,0,0,0,0,0,0,-1,1406,442,5.1896,2.18652
189,582,6.19751,-0.880951,0,0,0,0,0,0,0,-1,1413,442,6.19754,0.88096
196,582,4.87354,-2.22327,0,0,0,0,0,0,0,-1,1420,442,4.87348,2.22325
203,582,3.11401,-4.48257,0,0,0,0,0,0,0,-1,1427,442,3.11404,4.48259
210,582,2.93115,-11.0731,0,0,0,0,0,0,0,-1,1434,442,2.93113,11.0731
217,582,3.24438,-11.6543,0,0,0,0,0,0,0,-1,1441,442,3.24435,11.6543
224,582,3.34827,-11.6877,0.00428046,-0.000749413,-0.00387964,0.006389,-0.00285795,-0.49783,0.00546694,0.04074,1448,442,3.34824,11.6877
231,582,3.48779,-11.7628,0.00394041,0.00067402,-0.00325513,0.00594908,-0.00133466,-0.552883,0.00447774,0.0430922,1455,442,3.48782,11.7628
238,582,3.45007,-11.8169,0.00361756,0.00175254,-0.00285115,0.00568483,-0.000314719,-0.627349,0.00389903,0.0422987,1462,442,3.45011,11.8169
245,582,3.49182,-11.8088,0.00330762,0.00265994,-0.00245653,0.00546156,0.000505998,-0.719862,0.00348464,0.0406547,1469,442,3.49184,11.8088
252,582,3.58447,-11.592,0.00270459,0.00312193,-0.00219893,0.00512206,0.000704448,-0.832705,0.0032058,0.0268983,1476,442,3.58442,11.592
259,582,3.5094,-11.4586,0.00211096,0.00320279,-0.00192839,0.00466105,0.000652699,-0.923337,0.00291427,0.0206575,1483,442,3.50939,11.4586
266,582,3.50391,-11.3127,0.00167914,0.00310464,-0.00169746,0.00423292,0.000550864,-0.984166,0.00265742,0.0155261,1490,442,3.50391,11.3127
273,582,3.56262,-11.1125,0.00112376,0.00276538,-0.00161873,0.00375952,0.000129624,-1.02004,0.00246427,0.0135938,1497,442,3.56262,11.1125
280,582,3.56934,-10.9678,0.00044382,0.00239846,-0.00152773,0.00323473,-0.000392447,-1.06996,0.0022985,0.0111611,1504,442,3.56933,10.9678
287,582,3.60217,-10.7976,0.000134633,0.00202485,-0.00138757,0.0027586,-0.000599118,-1.08437,0.00206791,0.0109647,1511,442,3.60221,10.7976
294,582,3.59924,-10.6279,-1.91998e-05,0.00150671,-0.00129323,0.00224528,-0.000757762,-1.0519,0.00180331,0.00925832,1518,442,3.59928,10.6279
301,582,3.59863,-10.455,-0.000186459,0.00100462,-0.00118256,0.00173313,-0.000914972,-1.01866,0.00155302,0.0102466,1525,442,3.59864,10.455
308,582,3.6134,-10.291,-0.000263139,0.000698181,-0.00103607,0.00135966,-0.000924619,-1.00258,0.00132678,0.0131991,1532,442,3.61344,10.291
315,582,3.60913,-10.1286,-0.000273878,0.000567719,-0.000871639,0.00111482,-0.000820978,-1.01028,0.00112192,0.0136592,1539,442,3.60916,10.1286
322,582,3.61414,-9.94705,-0.000241716,0.000580483,-0.000638896,0.000929115,-0.000590347,-1.07128,0.0008845,0.0107195,1546,442,3.61418,9.94704
329,582,3.62146,-9.7854,-0.000147928,0.000659606,-0.000347698,0.000788682,-0.000277004,-1.21534,0.000638477,0.0104843,1553,442,3.62144,9.78541
336,582,3.61938,-9.61829,-1.30063e-06,0.000880683,2.54409e-05,0.000881416,-2.03389e-06,1.54198,0.00058829,0.0113107,1560,442,3.61943,9.6183
343,582,3.61011,-9.42474,0.000144661,0.00106476,0.000397547,0.00121273,-3.31108e-06,1.21447,0.000809591,0.012667,1567,442,3.61005,9.42474
350,582,3.61206,-9.23181,0.000302297,0.00130286,0.00078223,0.00173111,-0.00012595,1.0699,0.00119826,0.0153131,1574,442,3.61209,9.2318
357,582,3.60632,-9.02856,0.000452582,0.00156338,0.00116949,0.00230265,-0.000286694,1.00708,0.00163905,0.0134408,1581,442,3.60638,9.02856
364,582,3.60291,-8.84119,0.000551002,0.00186202,0.00153297,0.00287375,-0.000460724,0.987438,0.00208643,0.0105479,1588,442,3.60286,8.84118
371,582,3.5929,-8.66113,0.000640661,0.00214692,0.0018768,0.00341606,-0.000628479,0.976205,0.0025132,0.0146965,1595,442,3.59294,8.66115
378,582,3.57434,-8.46982,0.000600463,0.00234251,0.00209373,0.00373917,-0.000796198,0.982516,0.00279622,0.0148408,1602,442,3.57439,8.46981
385,582,3.58618,-8.25366,0.000540831,0.00223512,0.00204462,0.00360114,-0.000825195,0.981797,0.00271791,0.00996063,1609,442,3.58624,8.25365
392,582,3.57556,-8.02405,0.000822288,0.00208414,0.00202614,0.00357532,-0.000668887,0.936336,0.00263496,0.00927805,1616,442,3.57556,8.02406
399,582,3.55164,-7.83017,0.0011108,0.00178067,0.00198641,0.00346018,-0.000568707,0.868919,0.00251786,0.0132624,1623,442,3.55169,7.83016
406,582,3.53894,-7.59375,0.00136033,0.00143491,0.00188513,0.00328312,-0.000487877,0.795288,0.00236818,0.0210834,1630,442,3.539,7.59376
413,582,3.5072,-7.35373,0.00148298,0.000824866,0.0015583,0.00274658,-0.000438738,0.681345,0.00199346,0.038941,1637,442,3.50716,7.35372
420,582,3.52808,-7.03302,0,0,0,0,0,0,0,-1,1644,442,3.52807,7.03303
427,582,3.40149,-6.99704,0,0,0,0,0,0,0,-1,1651,442,3.40148,6.99705
434,582,3.21191,-6.81113,0,0,0,0,0,0,0,-1,1658,442,3.21193,6.81112
441,582,3.39233,-6.61795,0,0,0,0,0,0,0,-1,1665,442,3.39228,6.61795
448,582,1.52722,-2.85928,0,0,0,0,0,0,0,-1,1672,442,1.52724,2.85927
455,582,3.6698,-4.4032,0,0,0,0,0,0,0,-1,1679,442,3.66983,4.40319
462,582,1.38074,-3.94418,0,0,0,0,0,0,0,-1,1686,442,1.38074,3.94419
469,582,3.09082,-5.32462,0,0,0,0,0,0,0,-1,1693,442,3.09082,5.32462
476,582,3.29077,-5.6059,0,0,0,0,0,0,0,-1,1700,442,3.2908,5.60591
483,582,0,0,0,0,0,0,0,0,0,-1,1707,442,0,0
490,582,0,0,0,0,0,0,0,0,0,-1,1714,442,0,0
497,582,0,0,0,0,0,0,0,0,0,-1,1721,442,0,0
504,582,0,0,0,0,0,0,0,0,0,-1,1728,442,0,0
511,582,0,0,0,0,0,0,0,0,0,-1,1735,442,0,0
518,582,0,0,0,0,0,0,0,0,0,-1,1742,442,0,0
525,582,0,0,0,0,0,0,0,0,0,-1,1749,442,0,0
532,582,0,0,0,0,0,0,0,0,0,-1,1756,442,0,0
539,582,0,0,0,0,0,0,0,0,0,-1,1763,442,0,0
546,582,0,0,0,0,0,0,0,0,0,-1,1770,442,0,0
553,582,0,0,0,0,0,0,0,0,0,-1,1777,442,0,0
560,582,0,0,0,0,0,0,0,0,0,-1,1784,442,0,0
567,582,0,0,0,0,0,0,0,0,0,-1,1791,442,0,0
574,582,0,0,0,0,0,0,0,0,0,-1,1798,442,0,0
581,582,0,0,0,0,0,0,0,0,0,-1,1805,442,0,0
588,582,0,0,0,0,0,0,0,0,0,-1,1812,442,0,0
595,582,0,0,0,0,0,0,0,0,0,-1,1819,442,0,0
602,582,0,0,0,0,0,0,0,0,0,-1,1826,442,0,0
609,582,0,0,0,0,0,0,0,0,0,-1,1833,442,0,0
616,582,0,0,0,0,0,0,0,0,0,-1,1840,442,0,0
623,582,0,0,0,0,0,0,0,0,0,-1,1847,442,0,0
630,582,0,0,0,0,0,0,0,0,0,-1,1854,442,0,0
637,582,0,0,0,0,0,0,0,0,0,-1,1861,442,0,0
644,582,0,0,0,0,0,0,0,0,0,-1,1868,442,0,0
651,582,0,0,0,0,0,0,0,0,0,-1,1875,442,0,0
658,582,0,0,0,0,0,0,0,0,0,-1,1882,442,0,0
665,582,0,0,0,0,0,0,0,0,0,-1,1889,442,0,0
672,582,0,0,0,0,0,0,0,0,0,-1,1896,442,0,0
679,582,0,0,0,0,0,0,0,0,0,-1,1903,442,0,0
686,582,0,0,0,0,0,0,0,0,0,-1,1910,442,0,0
693,582,0,0,0,0,0,0,0,0,0,-1,1917,442,0,0
700,582,0,0,0,0,0,0,0,0,0,-1,1924,442,0,0
707,582,0,0,0,0,0,0,0,0,0,-1,1931,442,0,0
714,582,0,0,0,0,0,0,0,0,0,-1,1938,442,0,0
721,582,0,0,0,0,0,0,0,0,0,-1,1945,442,0,0
728,582,0,0,0,0,0,0,0,0,0,-1,1952,442,0,0
735,582,0,0,0,0,0,0,0,0,0,-1,1959,442,0,0
742,582,0,0,0,0,0,0,0,0,0,-1,1966,442,0,0
749,582,0,0,0,0,0,0,0,0,0,-1,1973,442,0,0
756,582,0,0,0,0,0,0,0,0,0,-1,1980,442,0,0
763,582,0,0,0,0,0,0,0,0,0,-1,1987,442,0,0
770,582,0,0,0,0,0,0,0,0,0,-1,1994,442,0,0
777,582,0,0,0,0,0,0,0,0,0,-1,2001,442,0,0
784,582,0,0,0,0,0,0,0,0,0,-1,2008,442,0,0
791,582,0,0,0,0,0,0,0,0,0,-1,2015,442,0,0
798,582,0,0,0,0,0,0,0,0,0,-1,2022,442,0,0
805,582,0,0,0,0,0,0,0,0,0,-1,2029,442,0,0
812,582,0,0,0,0,0,0,0,0,0,-1,2036,442,0,0
-700,575,0,0,0,0,0,0,0,0,0,-1,524,449,0,0
-693,575,0,0,0,0,0,0,0,0,0,-1,531,449,0,0
-686,575,0,0,0,0,0,0,0,0,0,-1,538,449,0,0
-679,575,0,0,0,0,0,0,0,0,0,-1,545,449,0,0
-672,575,0,0,0,0,0,0,0,0,0,-1,552,449,0,0
-665,575,0,0,0,0,0,0,0,0,0,-1,559,449,0,0
-658,575,0,0,0,0,0,0,0,0,0,-1,566,449,0,0
-651,575,0,0,0,0,0,0,0,0,0,-1,573,449,0,0
-644,575,0,0,0,0,0,0,0,0,0,-1,580,449,0,0
-637,575,0,0,0,0,0,0,0,0,0,-1,587,449,0,0
-630,575,0,0,0,0,0,0,0,0,0,-1,594,449,0,0
-623,575,0,0,0,0,0,0,0,0,0,-1,601,449,0,0
-616,575,0,0,0,0,0,0,0,0,0,-1,608,449,0,0
-609,575,0,0,0,0,0,0,0,0,0,-1,615,449,0,0
-602,575,0,0,0,0,0,0,0,0,0,-1,622,449,0,0
-595,575,0,0,0,0,0,0,0,0,0,-1,629,449,0,0
-588,575,0,0,0,0,0,0,0,0,0,-1,636,449,0,0
-581,575,0,0,0,0,0,0,0,0,0,-1,643,449,0,0
-574,575,0,0,0,0,0,0,0,0,0,-1,650,449,0,0
-567,575,0,0,0,0,0,0,0,0,0,-1,657,449,0,0
-560,575,0,0,0,0,0,0,0,0,0,-1,664,449,0,0
-553,575,0,0,0,0,0,0,0,0,0,-1,671,449,0,0
-546,575,0,0,0,0,0,0,0,0,0,-1,678,449,0,0
-539,575,0,0,0,0,0,0,0,0,0,-1,685,449,0,0
-532,575,0,0,0,0,0,0,0,0,0,-1,692,449,0,0
-525,575,0,0,0,0,0,0,0,0,0,-1,699,449,0,0
-518,575,0,0,0,0,0,0,0,0,0,-1,706,449,0,0
-511,575,0,0,0,0,0,0,0,0,0,-1,713,449,0,0
-504,575,0,0,0,0,0,0,0,0,0,-1,720,449,0,0
-497,575,0,0,0,0,0,0,0,0,0,-1,727,449,0,0
-490,575,0,0,0,0,0,0,0,0,0,-1,734,449,0,0
-483,575,0,0,0,0,0,0,0,0,0,-1,741,449,0,0
-476,575,0,0,0,0,0,0,0,0,0,-1,748,449,0,0
-469,575,0,0,0,0,0,0,0,0,0,-1,755,449,0,0
-462,575,0,0,0,0,0,0,0,0,0,-1,762,449,0,0
-455,575,0,0,0,0,0,0,0,0,0,-1,769,449,0,0
-448,575,0,0,0,0,0,0,0,0,0,-1,776,449,0,0
-441,575,0,0,0,0,0,0,0,0,0,-1,783,449,0,0
-434,575,0,0,0,0,0,0,0,0,0,-1,790,449,0,0
-427,575,0,0,0,0,0,0,0,0,0,-1,797,449,0,0
-420,575,0,0,0,0,0,0,0,0,0,-1,804,449,0,0
-413,575,0,0,0,0,0,0,0,0,0,-1,811,449,0,0
-406,575,0,0,0,0,0,0,0,0,0,-1,818,449,0,0
-399,575,0,0,0,0,0,0,0,0,0,-1,825,449,0,0
-392,575,0,0,0,0,0,0,0,0,0,-1,832,449,0,0
-385,575,0,0,0,0,0,0,0,0,0,-1,839,449,0,0
-378,575,0,0,0,0,0,0,0,0,0,-1,846,449,0,0
-371,575,0.56897,-3.52304,0,0,0,0,0,0,0,-1,853,449,0.568955,3.52306
-364,575,1.49805,-4.67191,0,0,0,0,0,0,0,-1,860,449,1.49803,4.6719
-357,575,2.87567,-6.9155,0,0,0,0,0,0,0,-1,867,449,2.87569,6.91548
-350,575,2.76715,-7.23752,0,0,0,0,0,0,0,-1,874,449,2.76717,7.2375
-343,575,0.124512,-6.51617,0,0,0,0,0,0,0,-1,881,449,0.124497,6.51618
-336,575,2.31653,-7.94482,0,0,0,0,0,0,0,-1,888,449,2.31655,7.94481
-329,575,1.98291,-7.68817,0.00603284,-0.000820531,0.00408569,0.0079386,-0.0027263,0.436448,0.00639781,0.0470215,895,449,1.98292,7.68819
-322,575,1.6748,-7.8446,0.00353843,-0.00272403,0.0028682,0.00465352,-0.00383912,0.370792,0.00491074,0.0474301,902,449,1.67481,7.84461
-315,575,1.81921,-8.15421,0.00292451,-0.00384242,0.00142978,0.0032142,-0.00413212,0.199909,0.00425242,0.0464149,909,449,1.81922,8.15422
-308,575,1.69385,-8.07767,0.00339629,-0.00255496,-0.00019963,0.00340297,-0.00256165,-0.033494,0.00345508,0.0429682,916,449,1.69382,8.07767
-301,575,1.72058,-8.20428,0.00345452,-0.00250591,-0.00191835,0.00401856,-0.00306995,-0.285965,0.00410475,0.0315105,923,449,1.72057,8.2043
-294,575,1.70361,-8.40131,0.00340914,-0.00140936,-0.00261344,0.00455441,-0.00255462,-0.413015,0.00415818,0.0230754,930,449,1.70361,8.4013
-287,575,1.69464,-8.58136,0.00324865,-0.000423266,-0.00266626,0.00464992,-0.00182454,-0.483885,0.00385485,0.0168076,937,449,1.69462,8.58138
-280,575,1.69177,-8.76797,0.00285482,0.000138191,-0.00243049,0.0042808,-0.00128779,-0.530587,0.00336627,0.0126916,944,449,1.69178,8.76797
-273,575,1.67743,-8.9437,0.00243437,0.000512157,-0.00216998,0.00384656,-0.00090003,-0.576926,0.00291113,0.0110873,951,449,1.67743,8.94368
-266,575,1.65845,-9.14087,0.00171443,0.000614986,-0.00172329,0.00297355,-0.000644132,-0.631002,0.00222833,0.0125615,958,449,1.65844,9.14086
-259,575,1.64374,-9.35364,0.000976879,0.000771972,-0.00133466,0.00221301,-0.000464158,-0.747091,0.00165194,0.0121576,965,449,1.64375,9.35363
-252,575,1.62909,-9.54965,0.000472844,0.00057996,-0.00110547,0.00163317,-0.000580365,-0.809603,0.00132529,0.0113933,972,449,1.62911,9.54966
-245,575,1.6496,-9.72867,0.000177132,0.000463271,-0.000751431,0.00108513,-0.000444728,-0.87947,0.000908694,0.013612,979,449,1.64961,9.72868
-238,575,1.64368,-9.88687,-2.78705e-05,0.000605829,-0.000469054,0.000855023,-0.000277065,-1.08245,0.000681412,0.0127713,986,449,1.64365,9.88686
-231,575,1.62726,-10.0404,-8.00441e-06,0.000568863,-0.000175538,0.00061808,-5.72211e-05,-1.29744,0.000432391,0.0118217,993,449,1.62726,10.0404
-224,575,1.62378,-10.194,0.000467478,0.000973338,0.000237526,0.00106738,0.000373432,1.1938,0.000625447,0.0126613,1000,449,1.62376,10.194
-217,575,1.63049,-10.3583,0.001073,0.00146973,0.000547781,0.00185396,0.000688774,0.959115,0.0010821,0.0107187,1007,449,1.63047,10.3583
-210,575,1.65698,-10.5265,0.00172054,0.00185978,0.000762425,0.00255576,0.00102456,0.830928,0.0014852,0.00887443,1014,449,1.657,10.5265
-203,575,1.66895,-10.6945,0.00238303,0.00227414,0.000910394,0.00324061,0.00141657,0.75553,0.00187589,0.0109107,1021,449,1.66895,10.6945
-196,575,1.67993,-10.8638,0.00292576,0.00279462,0.00109625,0.0039584,0.00176198,0.755527,0.00228997,0.0140213,1028,449,1.67999,10.8638
-189,575,1.65259,-11.0092,0.00337167,0.00319183,0.00106438,0.00434992,0.00221358,0.743257,0.00251156,0.0151056,1035,449,1.65259,11.0092
-182,575,1.6377,-11.1383,0.00386325,0.00348586,0.000919254,0.00461298,0.00273614,0.68417,0.00267866,0.0133187,1042,449,1.63769,11.1383
-175,575,1.67322,-11.2584,0.00412525,0.00348259,0.000712012,0.00458508,0.00302276,0.573434,0.00269159,0.0117677,1049,449,1.67317,11.2584
-168,575,1.66687,-11.3986,0.00439784,0.00264164,0.00070363,0.00464497,0.00239451,0.33777,0.00268221,0.0105361,1056,449,1.66687,11.3986
-161,575,1.67285,-11.545,0.00465116,0.000979876,0.000609263,0.00474963,0.000881407,0.160233,0.00291734,0.0137319,1063,449,1.67281,11.545
-154,575,1.67761,-11.6609,0.00463862,-0.000368697,0.000516568,0.00469135,-0.000421432,0.101735,0.00327709,0.0162739,1070,449,1.67758,11.6609
-147,575,1.71326,-11.7325,0.00457552,-0.00214275,0.000552654,0.00462067,-0.00218791,0.081531,0.00401371,0.0171344,1077,449,1.71328,11.7325
-140,575,1.68347,-11.8221,0.00431202,-0.00434533,0.000943204,0.00441359,-0.00444689,0.107272,0.00511561,0.0275205,1084,449,1.68351,11.8221
-133,575,1.82434,-11.9676,0.00397597,-0.00732343,0.00131136,0.00412617,-0.00747362,0.114036,0.00678946,0.0371874,1091,449,1.82437,11.9676
-126,575,1.77722,-11.9608,0.00405054,-0.00965769,0.00184364,0.00429417,-0.00990131,0.131382,0.00840618,0.0414861,1098,449,1.77724,11.9608
-119,575,1.60815,-11.9361,0.00415228,-0.0120254,0.0026529,0.00457621,-0.0124493,0.158459,0.010174,0.0368941,1105,449,1.60814,11.9361
-112,575,1.70129,-12.2374,0.00420232,-0.0140367,0.00393464,0.00501492,-0.0148493,0.203662,0.0119279,0.039978,1112,449,1.70131,12.2374
-105,575,1.69739,-12.493,0,0,0,0,0,0,0,-1,1119,449,1.69737,12.493
-98,575,1.74792,-12.6424,0,0,0,0,0,0,0,-1,1126,449,1.74797,12.6424
-91,575,1.40698,-12.5211,0,0,0,0,0,0,0,-1,1133,449,1.407,12.5211
-84,575,1.16553,-11.9056,0,0,0,0,0,0,0,-1,1140,449,1.16558,11.9056
-77,575,0.205078,-11.2584,0,0,0,0,0,0,0,-1,1147,449,0.205117,11.2584
-70,575,-4.2467,-1.78738,0,0,0,0,0,0,0,-1,1154,449,-4.24674,1.78739
-63,575,-4.52209,-3.48798,0,0,0,0,0,0,0,-1,1161,449,-4.5221,3.48796
-56,575,-5.5968,-5.4928,0,0,0,0,0,0,0,-1,1168,449,-5.59683,5.49281
-49,575,-5.96863,-7.17612,0,0,0,0,0,0,0,-1,1175,449,-5.96868,7.1761
-42,575,-0.830322,0.773499,0,0,0,0,0,0,0,-1,1182,449,-0.83038,-0.77351
-35,575,-0.62085,0.205139,0,0,0,0,0,0,0,-1,1189,449,-0.620855,-0.205126
-28,575,0.49292,-3.87988,0,0,0,0,0,0,0,-1,1196,449,0.492941,3.87989
-21,575,1.146,-12.8181,0,0,0,0,0,0,0,-1,1203,449,1.14602,12.8181
-14,575,1.47229,-12.6021,0.0484971,0.340288,-0.189196,0.433308,-0.0445228,-1.11384,0.304799,0.049737,1210,449,1.47229,12.6021
-7,575,1.73352,-12.3568,0.045535,0.29602,-0.169354,0.381411,-0.0398562,-1.10378,0.268547,0.0470328,1217,449,1.7335,12.3567
0,575,2.05298,-12.3486,0,0,0,0,0,0,0,-1,1224,449,2.05293,12.3486
7,575,2.36023,-12.2473,0,0,0,0,0,0,0,-1,1231,449,2.36019,12.2473
14,575,2.68481,-13.0461,0,0,0,0,0,0,0,-1,1238,449,2.68486,13.0461
21,575,6.06567,-17.1872,0.0249297,0.105087,-0.0645828,0.141016,-0.0109998,-1.0631,0.0978836,0.0462176,1245,449,6.0657,17.1872
28,575,2.18506,-13.108,0.0218368,0.0664574,-0.0409629,0.0907916,-0.00249743,-1.03476,0.0613772,0.0449607,1252,449,2.18507,13.108
35,575,1.64209,-13.8843,0,0,0,0,0,0,0,-1,1259,449,1.6421,13.8843
42,575,1.49158,-13.8036,0,0,0,0,0,0,0,-1,1266,449,1.49157,13.8036
49,575,1.33679,-13.7048,0.0227081,-0.0189268,0.0135403,0.0267243,-0.0229429,0.288339,0.028703,0.0430857,1273,449,1.33674,13.7048
56,575,1.03235,-13.6874,0.0260758,-0.021988,0.0199088,0.0332512,-0.0291633,0.34592,0.0360608,0.0417974,1280,449,1.0323,13.6874
63,575,3.18762,-13.0559,0.0268808,-0.0271135,0.0303932,0.0405357,-0.0407684,0.422252,0.046941,0.0431194,1287,449,3.18758,13.0559
70,575,3.16174,-13.1907,0,0,0,0,0,0,0,-1,1294,449,3.16176,13.1907
77,575,3.45056,-11.9194,0,0,0,0,0,0,0,-1,1301,449,3.45053,11.9194
84,575,2.32605,-13.9132,0,0,0,0,0,0,0,-1,1308,449,2.32605,13.9132
91,575,2.6012,-13.9912,0,0,0,0,0,0,0,-1,1315,449,2.60124,13.9912
98,575,2.7627,-13.8472,0.0525013,0.0109569,0.0105252,0.0550156,0.00844256,0.234495,0.0342119,0.041575,1322,449,2.76274,13.8472
105,575,3.06482,-13.8286,0.0513063,0.0151303,0.00557212,0.0521451,0.0142915,0.149416,0.0311136,0.0397978,1329,449,3.06477,13.8286
112,575,3.48328,-13.6324,0.0477297,0.0190071,0.00126611,0.0477854,0.0189514,0.0439671,0.0277849,0.0430963,1336,449,3.48325,13.6324
119,575,3.95325,-12.9281,0.0425134,0.0188758,-0.00322108,0.0429445,0.0184447,-0.133038,0.024876,0.0428351,1343,449,3.95319,12.9281
126,575,4.35559,-12.1856,0.0374261,0.0126141,-0.00657104,0.0390589,0.0109813,-0.243549,0.0232596,0.0463219,1350,449,4.35564,12.1856
133,575,4.72791,-11.4264,0,0,0,0,0,0,0,-1,1357,449,4.72787,11.4264
140,575,5.10571,-10.6217,0,0,0,0,0,0,0,-1,1364,449,5.10566,10.6217
147,575,4.3595,-12.6875,0.00662422,-0.012488,-0.0123252,0.0126639,-0.0185277,-0.45564,0.0181143,0.0481157,1371,449,4.35946,12.6875
154,575,3.90149,-12.5173,-0.00310548,-0.0182923,-0.0133265,0.00463914,-0.026037,-0.52644,0.0190932,0.0486811,1378,449,3.90153,12.5173
161,575,3.44409,-12.3485,0,0,0,0,0,0,0,-1,1385,449,3.44408,12.3485
168,575,9.2522,-0.307129,0,0,0,0,0,0,0,-1,1392,449,9.25225,0.307127
175,575,4.32617,1.93634,0,0,0,0,0,0,0,-1,1399,449,4.32612,-1.93634
182,575,6.3147,-2.88345,0,0,0,0,0,0,0,-1,1406,449,6.31466,2.88346
189,575,6.10449,-1.30817,0,0,0,0,0,0,0,-1,1413,449,6.10455,1.30817
196,575,5.79895,0.818359,0,0,0,0,0,0,0,-1,1420,449,5.79895,-0.81837
203,575,3.29724,-1.46378,0,0,0,0,0,0,0,-1,1427,449,3.29722,1.46377
210,575,2.32739,-7.74503,0,0,0,0,0,0,0,-1,1434,449,2.32741,7.74502
217,575,3.33618,-11.5521,0,0,0,0,0,0,0,-1,1441,449,3.3362,11.5521
224,575,3.45129,-11.8393,0,0,0,0,0,0,0,-1,1448,449,3.45135,11.8393
231,575,3.66443,-11.7656,0,0,0,0,0,0,0,-1,1455,449,3.6644,11.7656
238,575,3.74329,-11.9789,0,0,0,0,0,0,0,-1,1462,449,3.74331,11.9789
245,575,3.76941,-12.1863,0,0,0,0,0,0,0,-1,1469,449,3.76944,12.1863
252,575,3.78967,-11.897,0,0,0,0,0,0,0,-1,1476,449,3.78964,11.897
259,575,3.64478,-11.7256,0,0,0,0,0,0,0,-1,1483,449,3.64473,11.7256
266,575,3.48608,-11.5544,0,0,0,0,0,0,0,-1,1490,449,3.48606,11.5544
273,575,3.7688,-11.2029,0.00111262,0.00353408,-0.0023268,0.0049463,-0.0002996,-1.02529,0.0034018,0.0430736,1497,449,3.76879,11.2029
280,575,3.82556,-10.8846,0.000287574,0.00298399,-0.00220923,0.0042239,-0.000952338,-1.05936,0.00318126,0.0275352,1504,449,3.82554,10.8846
287,575,3.74438,-10.8235,-9.27002e-05,0.00237032,-0.00207986,0.00355592,-0.0012783,-1.0527,0.00289246,0.0155439,1511,449,3.74442,10.8235
294,575,3.76758,-10.6344,-0.000284749,0.00158181,-0.00202562,0.00287881,-0.00158175,-1.00127,0.00261135,0.0106408,1518,449,3.76759,10.6344
301,575,3.77209,-10.4644,-0.000486684,0.000837537,-0.00195753,0.0022419,-0.00189105,-0.948477,0.00238902,0.0100931,1525,449,3.77211,10.4644
308,575,3.776,-10.2963,-0.000614895,0.000288546,-0.00187883,0.00176919,-0.00209554,-0.903373,0.00223395,0.0112698,1532,449,3.77596,10.2963
315,575,3.77405,-10.1366,-0.000687209,-2.72985e-05,-0.00178112,0.00145417,-0.00216867,-0.876986,0.00210516,0.010762,1539,449,3.77411,10.1366
322,575,3.78113,-9.96628,-0.000701392,-0.000146026,-0.00156828,0.00116897,-0.00201638,-0.873021,0.00186063,0.00945373,1546,449,3.78116,9.96627
329,575,3.78308,-9.80209,-0.000650757,-0.000181774,-0.00130088,0.000905579,-0.00173811,-0.874569,0.00155136,0.0104106,1553,449,3.7831,9.8021
336,575,3.78638,-9.63028,-0.000523754,-4.19629e-06,-0.000930709,0.000702308,-0.00123026,-0.921494,0.00112956,0.0123759,1560,449,3.78633,9.63028
343,575,3.8103,-9.42056,-0.00039603,0.000150159,-0.000547515,0.000488909,-0.00073478,-1.01674,0.000711235,0.0117916,1567,449,3.81034,9.42057
350,575,3.80945,-9.21375,-0.000233362,0.000355552,-0.00015473,0.000393731,-0.000271541,-1.32889,0.000386248,0.0108476,1574,449,3.8095,9.21376
357,575,3.79883,-9.03445,-4.56097e-05,0.0006074,0.000255278,0.000695349,-0.000133559,1.23901,0.000513904,0.0101879,1581,449,3.79882,9.03445
364,575,3.7832,-8.87201,8.35907e-05,0.00091364,0.000634022,0.00125639,-0.000259164,1.0752,0.000936021,0.0100654,1588,449,3.78321,8.87201
371,575,3.76343,-8.68246,0.000196093,0.00119836,0.00098671,0.0018039,-0.000409451,1.02036,0.00135979,0.0184378,1595,449,3.76348,8.68248
378,575,3.78259,-8.46817,0.000247765,0.00144828,0.00126386,0.00224719,-0.000551139,1.0071,0.00171167,0.0167512,1602,449,3.78256,8.46816
385,575,3.77478,-8.24966,0.000306097,0.00148421,0.00132602,0.00234612,-0.000555816,0.994421,0.00177854,0.010406,1609,449,3.77476,8.24967
392,575,3.76929,-8.02472,0.000553496,0.00137892,0.00134869,0.00237663,-0.000444215,0.933879,0.00175137,0.00916058,1616,449,3.76933,8.02472
399,575,3.74768,-7.84869,0.000807092,0.0011411,0.0013544,0.00233875,-0.00039056,0.846741,0.00170434,0.0100789,1623,449,3.74773,7.84869
406,575,3.74915,-7.64539,0.00100676,0.000861342,0.00132138,0.00225743,-0.00038933,0.757914,0.00165011,0.0112457,1630,449,3.74911,7.6454
413,575,3.7478,-7.42123,0.00109961,0.00043635,0.00113576,0.00195117,-0.000415209,0.643352,0.00145901,0.012153,1637,449,3.74784,7.42124
420,575,3.72461,-7.19925,0.00124857,0.000222137,0.000131342,0.00126511,0.000205597,0.125271,0.000783911,0.0135438,1644,449,3.72463,7.19926
427,575,3.66589,-7.02438,0.00158063,-6.64313e-05,-0.00131088,0.00230519,-0.000790997,-0.50494,0.00185748,0.0191151,1651,449,3.66591,7.02437
434,575,3.58521,-6.87372,0.00192813,-0.000416045,-0.00269115,0.00369136,-0.00217928,-0.580019,0.00342668,0.0300994,1658,449,3.58518,6.87372
441,575,3.77002,-6.67899,0.00229948,-0.00049562,-0.00449866,0.00561268,-0.00380881,-0.634795,0.00547263,0.0485284,1665,449,3.76998,6.67898
448,575,4.00134,-6.45657,0,0,0,0,0,0,0,-1,1672,449,4.00137,6.45656
455,575,2.88135,-4.53244,0,0,0,0,0,0,0,-1,1679,449,2.8814,4.53243
462,575,3.47034,-5.37469,0,0,0,0,0,0,0,-1,1686,449,3.47036,5.37468
469,575,3.44885,-5.39935,0.00326674,0.00221014,-0.014779,0.0175269,-0.01205,-0.767533,0.0171735,0.0486772,1693,449,3.44881,5.39936
476,575,3.4259,-5.44141,0.00321081,0.00338973,-0.0183006,0.0216011,-0.0150005,-0.787842,0.0212462,0.0480956,1700,449,3.42594,5.44139
483,575,3.41174,-5.47421,0,0,0,0,0,0,0,-1,1707,449,3.41175,5.4742
490,575,1.55469,-5.33722,0,0,0,0,0,0,0,-1,1714,449,1.55467,5.33722
497,575,0,0,0,0,0,0,0,0,0,-1,1721,449,0,0
504,575,0,0,0,0,0,0,0,0,0,-1,1728,449,0,0
511,575,0,0,0,0,0,0,0,0,0,-1,1735,449,0,0
518,575,0,0,0,0,0,0,0,0,0,-1,1742,449,0,0
525,575,0,0,0,0,0,0,0,0,0,-1,1749,449,0,0
532,575,0,0,0,0,0,0,0,0,0,-1,1756,449,0,0
539,575,0,0,0,0,0,0,0,0,0,-1,1763,449,0,0
546,575,0,0,0,0,0,0,0,0,0,-1,1770,449,0,0
553,575,0,0,0,0,0,0,0,0,0,-1,1777,449,0,0
560,575,0,0,0,0,0,0,0,0,0,-1,1784,449,0,0
567,575,0,0,0,0,0,0,0,0,0,-1,1791,449,0,0
574,575,0,0,0,0,0,0,0,0,0,-1,1798,449,0,0
581,575,0,0,0,0,0,0,0,0,0,-1,1805,449,0,0
588,575,0,0,0,0,0,0,0,0,0,-1,1812,449,0,0
595,575,0,0,0,0,0,0,0,0,0,-1,1819,449,0,0
602,575,0,0,0,0,0,0,0,0,0,-1,1826,449,0,0
609,575,0,0,0,0,0,0,0,0,0,-1,1833,449,0,0
616,575,0,0,0,0,0,0,0,0,0,-1,1840,449,0,0
623,575,0,0,0,0,0,0,0,0,0,-1,1847,449,0,0
630,575,0,0,0,0,0,0,0,0,0,-1,1854,449,0,0
637,575,0,0,0,0,0,0,0,0,0,-1,1861,449,0,0
644,575,0,0,0,0,0,0,0,0,0,-1,1868,449,0,0
651,575,0,0,0,0,0,0,0,0,0,-1,1875,449,0,0
658,575,0,0,0,0,0,0,0,0,0,-1,1882,449,0,0
665,575,0,0,0,0,0,0,0,0,0,-1,1889,449,0,0
672,575,0,0,0,0,0,0,0,0,0,-1,1896,449,0,0
679,575,0,0,0,0,0,0,0,0,0,-1,1903,449,0,0
686,575,0,0,0,0,0,0,0,0,0,-1,1910,449,0,0
693,575,0,0,0,0,0,0,0,0,0,-1,1917,449,0,0
700,575,0,0,0,0,0,0,0,0,0,-1,1924,449,0,0
707,575,0,0,0,0,0,0,0,0,0,-1,1931,449,0,0
714,575,0,0,0,0,0,0,0,0,0,-1,1938,449,0,0
721,575,0,0,0,0,0,0,0,0,0,-1,1945,449,0,0
728,575,0,0,0,0,0,0,0,0,0,-1,1952,449,0,0
735,575,0,0,0,0,0,0,0,0,0,-1,1959,449,0,0
742,575,0,0,0,0,0,0,0,0,0,-1,1966,449,0,0
749,575,0,0,0,0,0,0,0,0,0,-1,1973,449,0,0
756,575,0,0,0,0,0,0,0,0,0,-1,1980,449,0,0
763,575,0,0,0,0,0,0,0,0,0,-1,1987,449,0,0
770,575,0,0,0,0,0,0,0,0,0,-1,1994,449,0,0
777,575,0,0,0,0,0,0,0,0,0,-1,2001,449,0,0
784,575,0,0,0,0,0,0,0,0,0,-1,2008,449,0,0
791,575,0,0,0,0,0,0,0,0,0,-1,2015,449,0,0
798,575,0,0,0,0,0,0,0,0,0,-1,2022,449,0,0
805,575,0,0,0,0,0,0,0,0,0,-1,2029,449,0,0
812,575,0,0,0,0,0,0,0,0,0,-1,2036,449,0,0
-700,568,0,0,0,0,0,0,0,0,0,-1,524,456,0,0
-693,568,0,0,0,0,0,0,0,0,0,-1,531,456,0,0
-686,568,0,0,0,0,0,0,0,0,0,-1,538,456,0,0
-679,568,0,0,0,0,0,0,0,0,0,-1,545,456,0,0
-672,568,0,0,0,0,0,0,0,0,0,-1,552,456,0,0
-665,568,0,0,0,0,0,0,0,0,0,-1,559,456,0,0
-658,568,0,0,0,0,0,0,0,0,0,-1,566,456,0,0
-651,568,0,0,0,0,0,0,0,0,0,-1,573,456,0,0
-644,568,0,0,0,0,0,0,0,0,0,-1,580,456,0,0
-637,568,0,0,0,0,0,0,0,0,0,-1,587,456,0,0
-630,568,0,0,0,0,0,0,0,0,0,-1,594,456,0,0
-623,568,0,0,0,0,0,0,0,0,0,-1,601,456,0,0
-616,568,0,0,0,0,0,0,0,0,0,-1,608,456,0,0
-609,568,0,0,0,0,0,0,0,0,0,-1,615,456,0,0
-602,568,0,0,0,0,0,0,0,0,0,-1,622,456,0,0
-595,568,0,0,0,0,0,0,0,0,0,-1,629,456,0,0
-588,568,0,0,0,0,0,0,0,0,0,-1,636,456,0,0
-581,568,0,0,0,0,0,0,0,0,0,-1,643,456,0,0
-574,568,0,0,0,0,0,0,0,0,0,-1,650,456,0,0
-567,568,0,0,0,0,0,0,0,0,0,-1,657,456,0,0
-560,568,0,0,0,0,0,0,0,0,0,-1,664,456,0,0
-553,568,0,0,0,0,0,0,0,0,0,-1,671,456,0,0
-546,568,0,0,0,0,0,0,0,0,0,-1,678,456,0,0
-539,568,0,0,0,0,0,0,0,0,0,-1,685,456,0,0
-532,568,0,0,0,0,0,0,0,0,0,-1,692,456,0,0
-525,568,0,0,0,0,0,0,0,0,0,-1,699,456,0,0
-518,568,0,0,0,0,0,0,0,0,0,-1,706,456,0,0
-511,568,0,0,0,0,0,0,0,0,0,-1,713,456,0,0
-504,568,0,0,0,0,0,0,0,0,0,-1,720,456,0,0
-497,568,0,0,0,0,0,0,0,0,0,-1,727,456,0,0
-490,568,0,0,0,0,0,0,0,0,0,-1,734,456,0,0
-483,568,0,0,0,0,0,0,0,0,0,-1,741,456,0,0
-476,568,0,0,0,0,0,0,0,0,0,-1,748,456,0,0
-469,568,0,0,0,0,0,0,0,0,0,-1,755,456,0,0
-462,568,0,0,0,0,0,0,0,0,0,-1,762,456,0,0
-455,568,0,0,0,0,0,0,0,0,0,-1,769,456,0,0
-448,568,0,0,0,0,0,0,0,0,0,-1,776,456,0,0
-441,568,0,0,0,0,0,0,0,0,0,-1,783,456,0,0
-434,568,0,0,0,0,0,0,0,0,0,-1,790,456,0,0
-427,568,0,0,0,0,0,0,0,0,0,-1,797,456,0,0
-420,568,0,0,0,0,0,0,0,0,0,-1,804,456,0,0
-413,568,0,0,0,0,0,0,0,0,0,-1,811,456,0,0
-406,568,0,0,0,0,0,0,0,0,0,-1,818,456,0,0
-399,568,0,0,0,0,0,0,0,0,0,-1,825,456,0,0
-392,568,0,0,0,0,0,0,0,0,0,-1,832,456,0,0
-385,568,0,0,0,0,0,0,0,0,0,-1,839,456,0,0
-378,568,0.321777,-7.29929,0,0,0,0,0,0,0,-1,846,456,0.321806,7.29927
-371,568,1.09595,-7.46707,0,0,0,0,0,0,0,-1,853,456,1.09597,7.46707
-364,568,2.24109,-7.00473,0,0,0,0,0,0,0,-1,860,456,2.24108,7.00473
-357,568,2.29712,-7.2334,0.0274868,0.0179324,0.00805514,0.0320748,0.0133444,0.517746,0.0186052,0.0448302,867,456,2.29713,7.23341
-350,568,2.29572,-7.38388,0.0172877,0.0105803,0.00861308,0.023177,0.00469107,0.599743,0.0141493,0.0474044,874,456,2.29573,7.38389
-343,568,2.34821,-7.31775,0,0,0,0,0,0,0,-1,881,456,2.34818,7.31775
-336,568,1.76801,-7.48425,0,0,0,0,0,0,0,-1,888,456,1.76802,7.48425
-329,568,1.66248,-7.51868,0.00406784,-0.00105536,0.00438982,0.00658878,-0.00357631,0.521287,0.0059541,0.0440997,895,456,1.66246,7.51869
-322,568,1.56818,-7.65295,0.00171495,-0.00258101,0.00325958,0.00347064,-0.00433671,0.494069,0.00451681,0.0420526,902,456,1.5682,7.65295
-315,568,1.61169,-7.88416,0.00101286,-0.00351075,0.00192789,0.00172301,-0.0042209,0.352934,0.00353129,0.0377701,909,456,1.61171,7.88416
-308,568,1.5636,-8.03876,0.00167875,-0.00252637,0.000397614,0.00171602,-0.00256364,0.0934509,0.00248696,0.0253307,916,456,1.56361,8.03875
-301,568,1.57721,-8.20624,0.00207138,-0.00233503,-0.00106403,0.00231486,-0.00257851,-0.224956,0.00282656,0.0144631,923,456,1.5772,8.20623
-294,568,1.53815,-8.38266,0.00225719,-0.00134814,-0.00175593,0.00297105,-0.002062,-0.386132,0.00292159,0.0116381,930,456,1.53812,8.38266
-287,568,1.51129,-8.5907,0.00240054,-0.000441121,-0.00188394,0.00333936,-0.00137995,-0.462313,0.00280189,0.0105565,937,456,1.51129,8.59071
-280,568,1.50629,-8.78381,0.00234776,8.17941e-05,-0.00170041,0.00325807,-0.000828518,-0.491524,0.00249451,0.0102651,944,456,1.5063,8.78381
-273,568,1.50977,-8.9567,0.00217214,0.000428164,-0.00148067,0.00301851,-0.000418208,-0.519285,0.00216525,0.011277,951,456,1.50974,8.9567
-266,568,1.48413,-9.15039,0.00168207,0.000572935,-0.00109104,0.00235139,-9.63883e-05,-0.550268,0.00160069,0.011226,958,456,1.48412,9.1504
-259,568,1.4668,-9.35873,0.00115976,0.000742996,-0.000760971,0.00174036,0.000162391,-0.651757,0.00111008,0.012187,965,456,1.46679,9.35875
-252,568,1.45911,-9.54742,0.000806396,0.000625626,-0.000546337,0.00126977,0.000162248,-0.703421,0.000797951,0.0121218,972,456,1.4591,9.54741
-245,568,1.47382,-9.70877,0.000636632,0.000589698,-0.000227012,0.000841387,0.000384943,-0.733895,0.000486359,0.0133485,979,456,1.4738,9.70878
-238,568,1.47925,-9.87744,0.000620739,0.000898795,6.46344e-05,0.000913085,0.000606449,1.35321,0.000536559,0.0120745,986,456,1.47927,9.87744
-231,568,1.45135,-10.037,0.000744866,0.00104675,0.000417805,0.00134004,0.000451573,0.95874,0.000787261,0.0110479,993,456,1.45133,10.037
-224,568,1.44623,-10.1907,0.00123862,0.00154329,0.000892918,0.00229677,0.000485132,0.869886,0.00139782,0.012484,1000,456,1.44622,10.1907
-217,568,1.47443,-10.3499,0.00190654,0.00215456,0.00129006,0.00332656,0.000734534,0.833314,0.00201793,0.0104086,1007,456,1.4744,10.3499
-210,568,1.48517,-10.5224,0.00266158,0.00268776,0.00155797,0.00423269,0.00111665,0.789598,0.002533,0.0101406,1014,456,1.48515,10.5224
-203,568,1.49573,-10.6973,0.00342811,0.00339578,0.00171625,0.00512827,0.00169561,0.780689,0.00301689,0.0093407,1021,456,1.49574,10.6973
-196,568,1.5282,-10.84,0.00415083,0.00410745,0.00188736,0.00601663,0.00224166,0.779652,0.0035111,0.0126289,1028,456,1.52819,10.84
-189,568,1.49243,-10.9708,0.00479877,0.00472076,0.00185454,0.00661472,0.00290481,0.774882,0.00382843,0.0128975,1035,456,1.4924,10.9708
-182,568,1.50342,-11.1116,0.00549523,0.00521947,0.00166863,0.00703167,0.00368304,0.744176,0.00406127,0.0141782,1042,456,1.50345,11.1116
-175,568,1.54358,-11.264,0.00586951,0.00535785,0.00133932,0.00697722,0.00425014,0.691026,0.00406016,0.0122718,1049,456,1.54361,11.264
-168,568,1.53943,-11.3969,0.00631164,0.00438218,0.00127605,0.0069466,0.00374722,0.461724,0.00401477,0.0153322,1056,456,1.5394,11.3969
-161,568,1.5332,-11.5122,0.00673422,0.0021998,0.00110216,0.00698792,0.0019461,0.226246,0.00416435,0.0240985,1063,456,1.53325,11.5122
-154,568,1.61011,-11.749,0.00670242,0.000377082,0.000863635,0.00681821,0.000261285,0.133286,0.00446093,0.0343353,1070,456,1.61007,11.749
-147,568,1.73181,-11.862,0.00656985,-0.00216246,0.000796578,0.00664192,-0.00223453,0.0902295,0.00533124,0.0415023,1077,456,1.73184,11.862
-140,568,1.67297,-11.9039,0.00609296,-0.00540903,0.00122712,0.00622242,-0.00553849,0.105111,0.00679399,0.045748,1084,456,1.67295,11.9039
-133,568,1.77405,-11.7273,0,0,0,0,0,0,0,-1,1091,456,1.77401,11.7273
-126,568,1.61914,-11.7099,0,0,0,0,0,0,0,-1,1098,456,1.61919,11.7099
-119,568,1.14148,-11.4809,0.00554322,-0.0173725,0.00363176,0.00610502,-0.0179343,0.153475,0.0144284,0.0491049,1105,456,1.14143,11.4809
-112,568,1.2981,-11.5815,0.00555786,-0.020779,0.00563288,0.00671203,-0.0219332,0.202101,0.0172991,0.0475081,1112,456,1.29809,11.5816
-105,568,1.65088,-11.8353,0,0,0,0,0,0,0,-1,1119,456,1.65091,11.8353
-98,568,0.930664,-12.1578,0,0,0,0,0,0,0,-1,1126,456,0.930642,12.1578
-91,568,1.11621,-11.1853,0,0,0,0,0,0,0,-1,1133,456,1.11626,11.1853
-84,568,0.461792,-9.7959,0,0,0,0,0,0,0,-1,1140,456,0.461793,9.7959
-77,568,-1.13806,-8.57822,0,0,0,0,0,0,0,-1,1147,456,-1.13807,8.57821
-70,568,-4.09766,-1.42911,0,0,0,0,0,0,0,-1,1154,456,-4.09767,1.4291
-63,568,-5.92273,-3.70752,0,0,0,0,0,0,0,-1,1161,456,-5.92272,3.70751
-56,568,-5.24158,-6.01385,0,0,0,0,0,0,0,-1,1168,456,-5.24161,6.01386
-49,568,-5.24365,-8.33557,0,0,0,0,0,0,0,-1,1175,456,-5.24371,8.33557
-42,568,-0.664795,0.521973,0,0,0,0,0,0,0,-1,1182,456,-0.664829,-0.521984
-35,568,-0.153076,-1.67731,0,0,0,0,0,0,0,-1,1189,456,-0.153068,1.67731
-28,568,1.25439,-4.48798,0,0,0,0,0,0,0,-1,1196,456,1.2544,4.48797
-21,568,1.57764,-12.9899,0,0,0,0,0,0,0,-1,1203,456,1.57765,12.9899
-14,568,1.80322,-12.8782,0.0598655,0.463392,-0.254376,0.586306,-0.0630485,-1.12068,0.413492,0.0455496,1210,456,1.80325,12.8782
-7,568,1.85266,-12.5573,0.0565125,0.400162,-0.226484,0.512624,-0.0559493,-1.10991,0.361844,0.0467027,1217,456,1.85266,12.5572
0,568,2.22913,-12.0482,0,0,0,0,0,0,0,-1,1224,456,2.22908,12.0482
7,568,2.6438,-11.6622,0.0410478,0.264296,-0.158522,0.346552,-0.0412076,-1.09215,0.245924,0.0443844,1231,456,2.6438,11.6622
14,568,7.08179,-16.1939,0.0352205,0.198552,-0.121723,0.263467,-0.0296945,-1.08087,0.186333,0.0450234,1238,456,7.08181,16.1939
21,568,5.95374,-15.861,0.0281468,0.141362,-0.087624,0.189073,-0.0195642,-1.07219,0.133051,0.0456681,1245,456,5.95376,15.861
28,568,4.93274,-15.7242,0.0234756,0.0897896,-0.0566253,0.122251,-0.00898609,-1.05026,0.0846554,0.0416953,1252,456,4.93275,15.7242
35,568,4.21729,-15.3807,0.0207687,0.0493753,-0.0302864,0.068566,0.00157791,-1.00601,0.0451939,0.0424658,1259,456,4.21735,15.3807
42,568,0.72168,-13.4445,0,0,0,0,0,0,0,-1,1266,456,0.721684,13.4445
49,568,0.579956,-13.3746,0,0,0,0,0,0,0,-1,1273,456,0.579956,13.3746
56,568,0.447998,-13.2888,0.0254287,-0.0279636,0.0232373,0.0341254,-0.0366604,0.35812,0.0408769,0.0437621,1280,456,0.448049,13.2888
63,568,2.81567,-12.4541,0.0270169,-0.034021,0.0358368,0.043569,-0.0505731,0.432685,0.0544031,0.0444299,1287,456,2.81571,12.4541
70,568,2.69824,-11.9557,0.03491,-0.0234399,0.0345984,0.0509924,-0.0395223,0.435118,0.0523984,0.0434712,1294,456,2.69821,11.9557
77,568,2.50989,-11.8617,0,0,0,0,0,0,0,-1,1301,456,2.50986,11.8617
84,568,2.18896,-11.5302,0.0608521,-0.00463759,0.0220036,0.0675583,-0.0113437,0.295833,0.0492575,0.0447258,1308,456,2.18895,11.5302
91,568,1.84106,-11.1447,0,0,0,0,0,0,0,-1,1315,456,1.84104,11.1447
98,568,2.82043,-14.108,0,0,0,0,0,0,0,-1,1322,456,2.82048,14.108
105,568,3.16663,-14.8799,0.0640622,0.0202511,0.00531318,0.0646974,0.019616,0.118977,0.0383054,0.0444067,1329,456,3.16668,14.8799
112,568,3.79614,-14.6342,0.0614004,0.0258732,9.78372e-05,0.0614006,0.025873,0.00275385,0.0355955,0.0469099,1336,456,3.7961,14.6342
119,568,4.1239,-12.5303,0.0562519,0.0262488,-0.00562284,0.0572711,0.0252296,-0.179305,0.0331433,0.0449983,1343,456,4.12386,12.5303
126,568,4.42102,-11.9733,0.0501041,0.0189259,-0.0100459,0.0530606,0.0159694,-0.286222,0.0314332,0.0493694,1350,456,4.42102,11.9733
133,568,4.77563,-11.2629,0,0,0,0,0,0,0,-1,1357,456,4.77567,11.2629
140,568,5.91235,-12.7185,0.023147,-0.003626,-0.0156595,0.030362,-0.0108409,-0.431748,0.0246624,0.048701,1364,456,5.91235,12.7185
147,568,4.75366,-12.2228,0.00858765,-0.0135984,-0.0175785,0.0182806,-0.0232914,-0.503926,0.0240597,0.0450018,1371,456,4.75361,12.2228
154,568,4.24646,-12.3321,-0.0050998,-0.0212392,-0.0190015,0.00747454,-0.0338136,-0.584595,0.0254031,0.0460345,1378,456,4.24648,12.3321
161,568,3.90186,-12.5037,0,0,0,0,0,0,0,-1,1385,456,3.9018,12.5037
168,568,9.09583,-0.563782,0,0,0,0,0,0,0,-1,1392,456,9.09586,0.563788
175,568,10.5151,0.747498,0,0,0,0,0,0,0,-1,1399,456,10.5152,-0.747501
182,568,6.35095,-3.63361,0,0,0,0,0,0,0,-1,1406,456,6.35093,3.63359
189,568,6.17493,-1.70911,0,0,0,0,0,0,0,-1,1413,456,6.17497,1.70911
196,568,6.04724,0.200836,0,0,0,0,0,0,0,-1,1420,456,6.04724,-0.200835
203,568,5.9281,2.08649,0,0,0,0,0,0,0,-1,1427,456,5.92812,-2.08648
210,568,1.46216,-2.50446,0,0,0,0,0,0,0,-1,1434,456,1.46219,2.50446
217,568,2.62366,-7.86703,0,0,0,0,0,0,0,-1,1441,456,2.62365,7.86704
224,568,3.43494,-12.1555,0,0,0,0,0,0,0,-1,1448,456,3.43492,12.1555
231,568,4.38245,-9.3205,0,0,0,0,0,0,0,-1,1455,456,4.38244,9.32048
238,568,3.88123,-9.43616,0,0,0,0,0,0,0,-1,1462,456,3.88117,9.43617
245,568,3.34387,-10.6774,0,0,0,0,0,0,0,-1,1469,456,3.34389,10.6774
252,568,3.56946,-9.28928,0,0,0,0,0,0,0,-1,1476,456,3.56948,9.28928
259,568,3.38843,-8.73068,0,0,0,0,0,0,0,-1,1483,456,3.38842,8.73068
266,568,3.104,-9.16876,0,0,0,0,0,0,0,-1,1490,456,3.10397,9.16876
273,568,3.82031,-11.4485,0,0,0,0,0,0,0,-1,1497,456,3.82029,11.4485
280,568,3.8689,-11.1103,0,0,0,0,0,0,0,-1,1504,456,3.86892,11.1103
287,568,4.00354,-10.7977,-0.000559888,0.00275272,-0.00298634,0.00451132,-0.00231849,-1.03859,0.00401037,0.0418552,1511,456,4.00357,10.7977
294,568,4.01111,-10.6554,-0.000741526,0.00172397,-0.00292323,0.00366375,-0.00268131,-0.984937,0.00367792,0.0272089,1518,456,4.01107,10.6554
301,568,3.98657,-10.4806,-0.00092187,0.000782021,-0.00284803,0.0029028,-0.00304265,-0.93073,0.00343292,0.0204009,1525,456,3.98652,10.4806
308,568,3.9624,-10.289,-0.00106262,1.23658e-06,-0.00280714,0.0023264,-0.00338778,-0.879034,0.003318,0.0127022,1532,456,3.96237,10.289
315,568,3.94861,-10.1274,-0.00117741,-0.000483845,-0.00275239,0.00194352,-0.00360477,-0.848065,0.00325082,0.00803621,1539,456,3.94864,10.1274
322,568,3.95789,-9.96893,-0.00120177,-0.000708107,-0.00251779,0.00157492,-0.0034848,-0.834259,0.0029898,0.00926632,1546,456,3.95786,9.96894
329,568,3.96875,-9.79962,-0.00115361,-0.000842643,-0.00223975,0.00124701,-0.00324327,-0.820053,0.0026765,0.0105957,1553,456,3.96877,9.79961
336,568,3.97827,-9.61658,-0.00102334,-0.000820628,-0.00183486,0.000915674,-0.00275964,-0.81299,0.00220917,0.0114012,1560,456,3.97833,9.61659
343,568,4.01025,-9.41898,-0.000912601,-0.000791411,-0.0014625,0.000611749,-0.00231576,-0.806103,0.00178309,0.0106728,1567,456,4.01023,9.41896
350,568,4.01172,-9.24197,-0.000752025,-0.000692324,-0.0010828,0.000361035,-0.00180538,-0.799179,0.00134024,0.00941187,1574,456,4.01169,9.24198
357,568,3.99878,-9.05991,-0.000527458,-0.000511656,-0.000661783,0.000142273,-0.00118139,-0.791367,0.000839046,0.00842713,1581,456,3.99881,9.0599
364,568,3.9834,-8.88614,-0.000363045,-0.000237243,-0.000266872,-2.5959e-05,-0.000574328,-0.901134,0.000374533,0.0103951,1588,456,3.98343,8.88613
371,568,3.96631,-8.6651,-0.000220031,4.52963e-05,0.000101831,7.98727e-05,-0.000254608,1.24346,0.000201705,0.0195473,1595,456,3.96634,8.66511
378,568,3.98877,-8.45142,-9.33132e-05,0.000374256,0.000436794,0.000635895,-0.000354952,1.03111,0.00057968,0.0190711,1602,456,3.98871,8.4514
385,568,3.98157,-8.24649,3.42285e-05,0.00055546,0.000589834,0.00093969,-0.000350001,0.993424,0.000770111,0.00916575,1609,456,3.9816,8.2465
392,568,3.97314,-8.03641,0.000278308,0.000603395,0.000698347,0.00115787,-0.000276162,0.89974,0.000878553,0.0101604,1616,456,3.97319,8.0364
399,568,3.97546,-7.87869,0.000534549,0.000548476,0.000798798,0.00134034,-0.000257316,0.789757,0.000990537,0.016901,1623,456,3.97545,7.87871
406,568,3.97559,-7.63516,0.00073541,0.000465193,0.000886165,0.00149671,-0.000296104,0.709749,0.00110975,0.0153559,1630,456,3.97554,7.63518
413,568,3.97046,-7.40308,0.000855138,0.000318869,0.000879524,0.00150649,-0.000332484,0.637442,0.00113156,0.0116257,1637,456,3.9704,7.40308
420,568,3.97083,-7.17892,0.00103035,0.000242869,0.000238655,0.00109703,0.000176188,0.272453,0.000680275,0.00996112,1644,456,3.97083,7.17892
427,568,3.94409,-6.95892,0.00134385,1.62208e-05,-0.000750962,0.00168233,-0.000322259,-0.42346,0.00124298,0.0118983,1651,456,3.94413,6.95891
434,568,3.93591,-6.76422,0.00165038,-0.000258488,-0.00165782,0.00260887,-0.00121699,-0.524212,0.00225706,0.0159956,1658,456,3.93586,6.76421
441,568,3.96216,-6.62741,0.00198677,-0.000494403,-0.0028704,0.0038732,-0.00238083,-0.581421,0.00364488,0.0243449,1665,456,3.96219,6.62741
448,568,4.0719,-6.37241,0.00229109,-0.000470797,-0.00441386,0.00553499,-0.00371469,-0.633789,0.00537467,0.0430521,1672,456,4.07192,6.3724
455,568,4.11401,-6.08871,0,0,0,0,0,0,0,-1,1679,456,4.11401,6.08872
462,568,3.95984,-5.52881,0,0,0,0,0,0,0,-1,1686,456,3.95982,5.5288
469,568,3.75305,-5.45099,0.00319246,0.000711776,-0.0105634,0.0125881,-0.00868386,-0.726956,0.0123501,0.0440103,1693,456,3.753,5.45099
476,568,3.79272,-5.53955,0.00339417,0.0011711,-0.0133621,0.0156909,-0.0111257,-0.743901,0.0155572,0.0471812,1700,456,3.79276,5.53956
483,568,3.79456,-5.51337,0,0,0,0,0,0,0,-1,1707,456,3.7946,5.51336
490,568,2.37109,-4.57193,0,0,0,0,0,0,0,-1,1714,456,2.37115,4.57194
497,568,6.58289,-3.47745,0,0,0,0,0,0,0,-1,1721,456,6.58294,3.47744
504,568,0,0,0,0,0,0,0,0,0,-1,1728,456,0,0
511,568,0,0,0,0,0,0,0,0,0,-1,1735,456,0,0
518,568,0,0,0,0,0,0,0,0,0,-1,1742,456,0,0
525,568,0,0,0,0,0,0,0,0,0,-1,1749,456,0,0
532,568,0,0,0,0,0,0,0,0,0,-1,1756,456,0,0
539,568,0,0,0,0,0,0,0,0,0,-1,1763,456,0,0
546,568,0,0,0,0,0,0,0,0,0,-1,1770,456,0,0
553,568,0,0,0,0,0,0,0,0,0,-1,1777,456,0,0
560,568,0,0,0,0,0,0,0,0,0,-1,1784,456,0,0
567,568,0,0,0,0,0,0,0,0,0,-1,1791,456,0,0
574,568,0,0,0,0,0,0,0,0,0,-1,1798,456,0,0
581,568,0,0,0,0,0,0,0,0,0,-1,1805,456,0,0
588,568,0,0,0,0,0,0,0,0,0,-1,1812,456,0,0
595,568,0,0,0,0,0,0,0,0,0,-1,1819,456,0,0
602,568,0,0,0,0,0,0,0,0,0,-1,1826,456,0,0
609,568,0,0,0,0,0,0,0,0,0,-1,1833,456,0,0
616,568,0,0,0,0,0,0,0,0,0,-1,1840,456,0,0
623,568,0,0,0,0,0,0,0,0,0,-1,1847,456,0,0
630,568,0,0,0,0,0,0,0,0,0,-1,1854,456,0,0
637,568,0,0,0,0,0,0,0,0,0,-1,1861,456,0,0
644,568,0,0,0,0,0,0,0,0,0,-1,1868,456,0,0
651,568,0,0,0,0,0,0,0,0,0,-1,1875,456,0,0
658,568,0,0,0,0,0,0,0,0,0,-1,1882,456,0,0
665,568,0,0,0,0,0,0,0,0,0,-1,1889,456,0,0
672,568,0,0,0,0,0,0,0,0,0,-1,1896,456,0,0
679,568,0,0,0,0,0,0,0,0,0,-1,1903,456,0,0
686,568,0,0,0,0,0,0,0,0,0,-1,1910,456,0,0
693,568,0,0,0,0,0,0,0,0,0,-1,1917,456,0,0
700,568,0,0,0,0,0,0,0,0,0,-1,1924,456,0,0
707,568,0,0,0,0,0,0,0,0,0,-1,1931,456,0,0
714,568,0,0,0,0,0,0,0,0,0,-1,1938,456,0,0
721,568,0,0,0,0,0,0,0,0,0,-1,1945,456,0,0
728,568,0,0,0,0,0,0,0,0,0,-1,1952,456,0,0
735,568,0,0,0,0,0,0,0,0,0,-1,1959,456,0,0
742,568,0,0,0,0,0,0,0,0,0,-1,1966,456,0,0
749,568,0,0,0,0,0,0,0,0,0,-1,1973,456,0,0
756,568,0,0,0,0,0,0,0,0,0,-1,1980,456,0,0
763,568,0,0,0,0,0,0,0,0,0,-1,1987,456,0,0
770,568,0,0,0,0,0,0,0,0,0,-1,1994,456,0,0
777,568,0,0,0,0,0,0,0,0,0,-1,2001,456,0,0
784,568,0,0,0,0,0,0,0,0,0,-1,2008,456,0,0
791,568,0,0,0,0,0,0,0,0,0,-1,2015,456,0,0
798,568,0,0,0,0,0,0,0,0,0,-1,2022,456,0,0
805,568,0,0,0,0,0,0,0,0,0,-1,2029,456,0,0
812,568,0,0,0,0,0,0,0,0,0,-1,2036,456,0,0
-700,561,0,0,0,0,0,0,0,0,0,-1,524,463,0,0
-693,561,0,0,0,0,0,0,0,0,0,-1,531,463,0,0
-686,561,0,0,0,0,0,0,0,0,0,-1,538,463,0,0
-679,561,0,0,0,0,0,0,0,0,0,-1,545,463,0,0
-672,561,0,0,0,0,0,0,0,0,0,-1,552,463,0,0
-665,561,0,0,0,0,0,0,0,0,0,-1,559,463,0,0
-658,561,0,0,0,0,0,0,0,0,0,-1,566,463,0,0
-651,561,0,0,0,0,0,0,0,0,0,-1,573,463,0,0
-644,561,0,0,0,0,0,0,0,0,0,-1,580,463,0,0
-637,561,0,0,0,0,0,0,0,0,0,-1,587,463,0,0
-630,561,0,0,0,0,0,0,0,0,0,-1,594,463,0,0
-623,561,0,0,0,0,0,0,0,0,0,-1,601,463,0,0
-616,561,0,0,0,0,0,0,0,0,0,-1,608,463,0,0
-609,561,0,0,0,0,0,0,0,0,0,-1,615,463,0,0
-602,561,0,0,0,0,0,0,0,0,0,-1,622,463,0,0
-595,561,0,0,0,0,0,0,0,0,0,-1,629,463,0,0
-588,561,0,0,0,0,0,0,0,0,0,-1,636,463,0,0
-581,561,0,0,0,0,0,0,0,0,0,-1,643,463,0,0
-574,561,0,0,0,0,0,0,0,0,0,-1,650,463,0,0
-567,561,0,0,0,0,0,0,0,0,0,-1,657,463,0,0
-560,561,0,0,0,0,0,0,0,0,0,-1,664,463,0,0
-553,561,0,0,0,0,0,0,0,0,0,-1,671,463,0,0
-546,561,0,0,0,0,0,0,0,0,0,-1,678,463,0,0
-539,561,0,0,0,0,0,0,0,0,0,-1,685,463,0,0
-532,561,0,0,0,0,0,0,0,0,0,-1,692,463,0,0
-525,561,0,0,0,0,0,0,0,0,0,-1,699,463,0,0
-518,561,0,0,0,0,0,0,0,0,0,-1,706,463,0,0
-511,561,0,0,0,0,0,0,0,0,0,-1,713,463,0,0
-504,561,0,0,0,0,0,0,0,0,0,-1,720,463,0,0
-497,561,0,0,0,0,0,0,0,0,0,-1,727,463,0,0
-490,561,0,0,0,0,0,0,0,0,0,-1,734,463,0,0
-483,561,0,0,0,0,0,0,0,0,0,-1,741,463,0,0
-476,561,0,0,0,0,0,0,0,0,0,-1,748,463,0,0
-469,561,0,0,0,0,0,0,0,0,0,-1,755,463,0,0
-462,561,0,0,0,0,0,0,0,0,0,-1,762,463,0,0
-455,561,0,0,0,0,0,0,0,0,0,-1,769,463,0,0
-448,561,0,0,0,0,0,0,0,0,0,-1,776,463,0,0
-441,561,0,0,0,0,0,0,0,0,0,-1,783,463,0,0
-434,561,0,0,0,0,0,0,0,0,0,-1,790,463,0,0
-427,561,0,0,0,0,0,0,0,0,0,-1,797,463,0,0
-420,561,0,0,0,0,0,0,0,0,0,-1,804,463,0,0
-413,561,0,0,0,0,0,0,0,0,0,-1,811,463,0,0
-406,561,0,0,0,0,0,0,0,0,0,-1,818,463,0,0
-399,561,0,0,0,0,0,0,0,0,0,-1,825,463,0,0
-392,561,-0.498413,-4.28265,0,0,0,0,0,0,0,-1,832,463,-0.49843,4.28265
-385,561,0.273926,-7.0257,0,0,0,0,0,0,0,-1,839,463,0.27391,7.02569
-378,561,0.495178,-7.37878,0.0672248,0.0385797,-0.0122772,0.0717666,0.0340379,-0.354327,0.0414527,0.0415592,846,463,0.495164,7.37879
-371,561,1.06299,-7.56818,0.0502844,0.0307302,-0.00303737,0.0507454,0.0302693,-0.150604,0.0294792,0.0453908,853,463,1.06297,7.56817
-364,561,1.45264,-7.57684,0,0,0,0,0,0,0,-1,860,463,1.45264,7.57684
-357,561,1.61707,-7.68085,0.0241843,0.0150914,0.00599087,0.0271585,0.0121172,0.460814,0.0157102,0.0476749,867,463,1.61707,7.68086
-350,561,1.82501,-7.53015,0.0151818,0.00885607,0.00703207,0.0197296,0.0043083,0.574065,0.011978,0.044642,874,463,1.825,7.53016
-343,561,1.96057,-7.36368,0.00906851,0.00401517,0.0067074,0.0137094,-0.00062567,0.605269,0.0093551,0.0446524,881,463,1.96057,7.36369
-336,561,1.63385,-7.27713,0.00522221,0.00107238,0.00562944,0.00914695,-0.00285236,0.608832,0.00723857,0.0470138,888,463,1.63385,7.27714
-329,561,1.43695,-7.4249,0.0028049,-0.00103328,0.00415054,0.00545855,-0.00368693,0.568851,0.00531306,0.035234,895,463,1.43698,7.42489
-322,561,1.29181,-7.58414,0.000665327,-0.00224029,0.00321028,0.00273624,-0.00431119,0.572913,0.00410256,0.0277567,902,463,1.29179,7.58413
-315,561,1.35529,-7.73776,-5.20198e-05,-0.00299211,0.00209258,0.00103526,-0.0040794,0.479196,0.00312243,0.0194522,909,463,1.35532,7.73775
-308,561,1.37207,-7.95535,0.000525961,-0.00229853,0.000770002,0.000722237,-0.0024948,0.249588,0.00194907,0.0138648,916,463,1.3721,7.95535
-301,561,1.36902,-8.18591,0.000939251,-0.00207366,-0.000455706,0.00100667,-0.00214107,-0.146876,0.00185627,0.011415,923,463,1.36901,8.18592
-294,561,1.33386,-8.37747,0.00119597,-0.00124342,-0.00109775,0.00161722,-0.00166467,-0.366413,0.00189487,0.010229,930,463,1.33386,8.37748
-287,561,1.31024,-8.5751,0.00146519,-0.000488056,-0.00126268,0.00208486,-0.00110773,-0.456227,0.0018718,0.00883174,937,463,1.31023,8.57511
-280,561,1.30383,-8.763,0.00158989,-6.18745e-05,-0.0011156,0.00215205,-0.00062403,-0.466765,0.00168176,0.0109165,944,463,1.30385,8.763
-273,561,1.31189,-8.97031,0.00152459,0.000198357,-0.000934435,0.00200729,-0.000284341,-0.476813,0.00144235,0.0136172,951,463,1.31188,8.97029
-266,561,1.31421,-9.1564,0.00117545,0.000340573,-0.000602741,0.00149119,2.48339e-05,-0.482537,0.000985955,0.00931432,958,463,1.31422,9.15639
-259,561,1.28326,-9.34201,0.000828241,0.000480857,-0.000310977,0.00101075,0.000298353,-0.530711,0.000599652,0.00986075,965,463,1.28324,9.34202
-252,561,1.27808,-9.52124,0.000628409,0.00045441,-9.37916e-05,0.000669339,0.000413481,-0.411474,0.000389998,0.0135665,972,463,1.27808,9.52125
-245,561,1.28687,-9.69543,0.000623861,0.000546811,0.000201044,0.000790038,0.000380634,0.690734,0.000456229,0.0157993,979,463,1.28688,9.69544
-238,561,1.30066,-9.87604,0.000868663,0.00110732,0.000512047,0.00151376,0.000462223,0.899875,0.000895773,0.0127684,986,463,1.30069,9.87605
-231,561,1.29468,-10.0449,0.00118828,0.00153209,0.000936551,0.00231238,0.000407986,0.876163,0.00142519,0.0107525,993,463,1.2947,10.0449
-224,561,1.29773,-10.206,0.00180472,0.00222913,0.00149972,0.00353158,0.000502273,0.85568,0.00220611,0.0103618,1000,463,1.2977,10.206
-217,561,1.32428,-10.3609,0.00264212,0.00310633,0.00201201,0.00489957,0.000848868,0.842825,0.00302341,0.010462,1007,463,1.32426,10.3609
-210,561,1.32935,-10.528,0.00363536,0.00392774,0.00236821,0.00615427,0.00140883,0.816224,0.00372317,0.0116207,1014,463,1.32934,10.528
-203,561,1.3537,-10.6972,0.00464368,0.00508996,0.00257547,0.00745194,0.0022817,0.82861,0.0044088,0.013208,1021,463,1.35372,10.6972
-196,561,1.35706,-10.8303,0.00567455,0.006168,0.00279549,0.00872763,0.00311492,0.829413,0.00510722,0.0139629,1028,463,1.35707,10.8303
-189,561,1.31079,-10.9652,0.00664401,0.00715817,0.00278388,0.00969681,0.00410537,0.83144,0.00562033,0.0163552,1035,463,1.31078,10.9652
-182,561,1.33948,-11.1328,0.00766879,0.00802428,0.00257713,0.0104298,0.00526328,0.819829,0.00602173,0.0184564,1042,463,1.33948,11.1328
-175,561,1.37866,-11.282,0.00819252,0.0083889,0.00213292,0.0104259,0.00615553,0.8084,0.0060521,0.0267704,1049,463,1.37866,11.2821
-168,561,1.44482,-11.4114,0.00885309,0.00727682,0.00203866,0.0102507,0.00587926,0.60095,0.00593952,0.0381707,1056,463,1.44485,11.4114
-161,561,1.69543,-11.5084,0.00953769,0.00441869,0.00180139,0.0101081,0.00384833,0.306638,0.00589098,0.0427662,1063,463,1.69543,11.5084
-154,561,1.6814,-11.9636,0.00950376,0.00201163,0.00141831,0.00976327,0.00175212,0.180968,0.00601054,0.0463136,1070,463,1.68139,11.9636
-147,561,2.06982,-11.7977,0,0,0,0,0,0,0,-1,1077,463,2.0698,11.7977
-140,561,1.83484,-11.9931,0,0,0,0,0,0,0,-1,1084,463,1.83488,11.9931
-133,561,1.59998,-12.1885,0,0,0,0,0,0,0,-1,1091,463,1.59996,12.1885
-126,561,0.453491,-10.7643,0,0,0,0,0,0,0,-1,1098,463,0.453469,10.7643
-119,561,0.756592,-10.9505,0,0,0,0,0,0,0,-1,1105,463,0.756547,10.9505
-112,561,1.05957,-11.1366,0,0,0,0,0,0,0,-1,1112,463,1.05963,11.1366
-105,561,1.13269,-10.9895,0,0,0,0,0,0,0,-1,1119,463,1.1327,10.9895
-98,561,1.5387,-7.54352,0,0,0,0,0,0,0,-1,1126,463,1.53871,7.54351
-91,561,1.29553,-6.57968,0,0,0,0,0,0,0,-1,1133,463,1.29549,6.5797
-84,561,1.23364,-5.84555,0,0,0,0,0,0,0,-1,1140,463,1.23363,5.84556
-77,561,-2.36023,1.00204,0,0,0,0,0,0,0,-1,1147,463,-2.3602,-1.00205
-70,561,-3.90015,-1.41541,0,0,0,0,0,0,0,-1,1154,463,-3.90009,1.4154
-63,561,-6.95691,-4.02756,0,0,0,0,0,0,0,-1,1161,463,-6.95696,4.02756
-56,561,-5.37988,-6.66855,0,0,0,0,0,0,0,-1,1168,463,-5.37988,6.66854
-49,561,-5.7439,-9.11029,0,0,0,0,0,0,0,-1,1175,463,-5.74387,9.1103
-42,561,-1.72644,-5.63065,0,0,0,0,0,0,0,-1,1182,463,-1.72648,5.63064
-35,561,-1.65674,-4.87994,0,0,0,0,0,0,0,-1,1189,463,-1.6567,4.87993
-28,561,-1.91418,-3.86896,0,0,0,0,0,0,0,-1,1196,463,-1.91414,3.86895
-21,561,10.9413,-16.1349,0,0,0,0,0,0,0,-1,1203,463,10.9413,16.135
-14,561,10.7742,-15.725,0.0713349,0.617341,-0.33455,0.776142,-0.0874659,-1.12762,0.548911,0.0447217,1210,463,10.7742,15.725
-7,561,10.8099,-15.472,0.0676416,0.52952,-0.296591,0.674479,-0.0773167,-1.11619,0.477516,0.0464257,1217,463,10.81,15.472
0,561,9.42444,-15.4712,0,0,0,0,0,0,0,-1,1224,463,9.42439,15.4712
7,561,8.23242,-15.5477,0.0472711,0.345037,-0.206982,0.45112,-0.0588116,-1.09718,0.322145,0.0431431,1231,463,8.23237,15.5477
14,561,7.05493,-15.6097,0.0388706,0.260249,-0.160412,0.344454,-0.0453351,-1.0874,0.246144,0.0375072,1238,463,7.05492,15.6097
21,561,5.59912,-15.202,0,0,0,0,0,0,0,-1,1245,463,5.5991,15.202
28,561,5.04272,-14.6638,0.0228238,0.118478,-0.0771135,0.161392,-0.02009,-1.06298,0.114879,0.0446973,1252,463,5.0427,14.6638
35,561,4.47595,-14.1138,0.0181976,0.0648347,-0.0430139,0.0904442,-0.00741192,-1.03378,0.0629125,0.0445183,1259,463,4.47591,14.1138
42,561,3.87256,-13.5899,0,0,0,0,0,0,0,-1,1266,463,3.87256,13.5899
49,561,3.28748,-13.1006,0,0,0,0,0,0,0,-1,1273,463,3.28754,13.1005
56,561,2.64404,-12.4286,0.0207096,-0.035839,0.026095,0.0309111,-0.0460404,0.372668,0.0447133,0.0416866,1280,463,2.64408,12.4286
63,561,2.1637,-12.0584,0.0240237,-0.0422627,0.040453,0.0431769,-0.0614159,0.442198,0.060692,0.0446703,1287,463,2.16365,12.0584
70,561,2.0127,-11.7825,0.035036,-0.0284251,0.0384167,0.0531318,-0.046521,0.440214,0.0575768,0.0451117,1294,463,2.01267,11.7825
77,561,2.34229,-11.2845,0,0,0,0,0,0,0,-1,1301,463,2.34231,11.2845
84,561,1.25085,-11.8007,0,0,0,0,0,0,0,-1,1308,463,1.25082,11.8007
91,561,0.953003,-15.9552,0,0,0,0,0,0,0,-1,1315,463,0.953046,15.9552
98,561,2.14539,-16.0812,0,0,0,0,0,0,0,-1,1322,463,2.14541,16.0812
105,561,3.14417,-15.9184,0,0,0,0,0,0,0,-1,1329,463,3.14412,15.9184
112,561,3.86108,-15.5521,0,0,0,0,0,0,0,-1,1336,463,3.86104,15.5521
119,561,4.18494,-12.422,0,0,0,0,0,0,0,-1,1343,463,4.18495,12.422
126,561,4.53577,-11.7728,0,0,0,0,0,0,0,-1,1350,463,4.53573,11.7728
133,561,6.05103,-12.5948,0,0,0,0,0,0,0,-1,1357,463,6.05103,12.5948
140,561,6.82117,-11.8131,0.0312404,-0.00150792,-0.022066,0.0423439,-0.0126114,-0.4662,0.0332404,0.0463983,1364,463,6.82117,11.8131
147,561,5.46753,-11.5013,0.0114407,-0.0145829,-0.0246699,0.0263199,-0.0294622,-0.542721,0.0322228,0.0429266,1371,463,5.46754,11.5013
154,561,4.68115,-12.1867,0,0,0,0,0,0,0,-1,1378,463,4.68114,12.1867
161,561,-1.6925,-16.7049,0,0,0,0,0,0,0,-1,1385,463,-1.69252,16.7049
168,561,-1.68591,-18.2095,0,0,0,0,0,0,0,-1,1392,463,-1.68589,18.2095
175,561,10.4185,0.276398,0,0,0,0,0,0,0,-1,1399,463,10.4185,-0.276394
182,561,6.45703,-4.02127,0,0,0,0,0,0,0,-1,1406,463,6.45704,4.02127
189,561,6.50854,-2.08685,0,0,0,0,0,0,0,-1,1413,463,6.50851,2.08686
196,561,6.44775,-0.27182,0,0,0,0,0,0,0,-1,1420,463,6.44773,0.271814
203,561,6.18591,1.1301,0,0,0,0,0,0,0,-1,1427,463,6.18592,-1.13009
210,561,5.68713,2.68427,0,0,0,0,0,0,0,-1,1434,463,5.6871,-2.68425
217,561,3.61743,-7.33582,0,0,0,0,0,0,0,-1,1441,463,3.61738,7.33581
224,561,4.27466,-8.59171,0,0,0,0,0,0,0,-1,1448,463,4.27466,8.59171
231,561,4.93188,-9.8476,0,0,0,0,0,0,0,-1,1455,463,4.93193,9.84761
238,561,2.18018,-5.18359,0,0,0,0,0,0,0,-1,1462,463,2.18023,5.18359
245,561,3.07568,-3.50238,0,0,0,0,0,0,0,-1,1469,463,3.0757,3.50238
252,561,3.47412,-3.71109,0,0,0,0,0,0,0,-1,1476,463,3.47413,3.71109
259,561,3.42212,-3.2334,0,0,0,0,0,0,0,-1,1483,463,3.42214,3.2334
266,561,4.44373,-5.90027,0,0,0,0,0,0,0,-1,1490,463,4.44372,5.90026
273,561,2.59485,-3.65268,0,0,0,0,0,0,0,-1,1497,463,2.5948,3.65268
280,561,3.10767,-6.38235,0,0,0,0,0,0,0,-1,1504,463,3.10766,6.38235
287,561,4.3208,-10.7091,0,0,0,0,0,0,0,-1,1511,463,4.32081,10.7091
294,561,4.3252,-10.6101,0,0,0,0,0,0,0,-1,1518,463,4.32515,10.6101
301,561,4.27722,-10.491,-0.00179841,0.00043674,-0.0039761,0.00344934,-0.00481101,-0.9224,0.00479066,0.0417269,1525,463,4.2772,10.491
308,561,4.16833,-10.3037,-0.0018926,-0.000556943,-0.00396227,0.00279338,-0.00524293,-0.868887,0.00471106,0.0324786,1532,463,4.16833,10.3037
315,561,4.11536,-10.1674,-0.0020169,-0.00116642,-0.00394244,0.00237364,-0.00555696,-0.839122,0.00470008,0.0226505,1539,463,4.11539,10.1674
322,561,4.14502,-10.005,-0.00198599,-0.00142535,-0.00364331,0.00194841,-0.00535975,-0.823793,0.00436991,0.0234057,1546,463,4.14501,10.005
329,561,4.15649,-9.80106,-0.00186653,-0.00159895,-0.0033145,0.00158445,-0.00504994,-0.80557,0.00400076,0.0154537,1553,463,4.15654,9.80107
336,561,4.18347,-9.60861,-0.00167328,-0.00168418,-0.00284655,0.00116783,-0.00452529,-0.784441,0.00347223,0.0112422,1560,463,4.18352,9.60861
343,561,4.18726,-9.42114,-0.00153559,-0.00174134,-0.00245949,0.000823177,-0.00410011,-0.764497,0.00304511,0.00977504,1567,463,4.18722,9.42115
350,561,4.17615,-9.2399,-0.00139407,-0.00178459,-0.00213055,0.000550147,-0.0037288,-0.739702,0.00268808,0.00913422,1574,463,4.1762,9.2399
357,561,4.1792,-9.05319,-0.00115813,-0.0017018,-0.00173296,0.000324188,-0.00318412,-0.707601,0.00223865,0.00909857,1581,463,4.17914,9.05318
364,561,4.18774,-8.8725,-0.000967893,-0.00146723,-0.00132674,0.000132471,-0.00256759,-0.692396,0.00175755,0.00858856,1588,463,4.18772,8.87251
371,561,4.16296,-8.6694,-0.000792194,-0.00120138,-0.000940761,-3.40372e-05,-0.00195954,-0.678326,0.00129516,0.01541,1595,463,4.16292,8.6694
378,561,4.17737,-8.45291,-0.000602413,-0.000822473,-0.000544676,-0.000156765,-0.00126812,-0.685735,0.000798307,0.0119167,1602,463,4.17734,8.45292
385,561,4.1958,-8.23203,-0.000429167,-0.0005578,-0.000305105,-0.000181673,-0.000805294,-0.681518,0.000487717,0.00951544,1609,463,4.19576,8.23204
392,561,4.19934,-8.01294,-0.000176156,-0.000394978,-0.000101906,-0.000136049,-0.000435085,-0.37495,0.000257004,0.0126587,1616,463,4.19936,8.01295
399,561,4.18347,-7.82321,0.000109587,-0.00030669,0.000102447,0.000133433,-0.000330536,0.228697,0.000275812,0.0193522,1623,463,4.18342,7.82321
406,561,4.20313,-7.60818,0.000357711,-0.000228217,0.000316716,0.000496183,-0.000366689,0.412168,0.000500046,0.0175747,1630,463,4.20308,7.60818
413,561,4.19482,-7.38446,0.000554958,-0.000146049,0.000483524,0.000801655,-0.000392746,0.471779,0.00070293,0.0161006,1637,463,4.19482,7.38445
420,561,4.16968,-7.18823,0.000797391,-7.32782e-05,0.000162162,0.000826613,-0.0001025,0.178289,0.000588227,0.0128512,1644,463,4.1697,7.18823
427,561,4.17004,-6.95493,0.00112269,-0.00017651,-0.000452885,0.00126498,-0.000318797,-0.304414,0.000967256,0.0101176,1651,463,4.17007,6.95492
434,561,4.177,-6.72543,0.00142636,-0.000327479,-0.00098823,0.00187065,-0.000771765,-0.422503,0.00156896,0.0114001,1658,463,4.177,6.72542
441,561,4.18335,-6.52878,0.00176099,-0.000493012,-0.00174406,0.0027105,-0.00144252,-0.49855,0.00243471,0.014864,1665,463,4.18339,6.52879
448,561,4.18848,-6.31693,0.00206723,-0.000516294,-0.00273616,0.00380122,-0.00225029,-0.564856,0.00353188,0.0201128,1672,463,4.18851,6.31692
455,561,4.25562,-6.03906,0.00233592,-0.000504791,-0.00402759,0.00518626,-0.00335514,-0.615879,0.00496901,0.0360535,1679,463,4.25566,6.03906
462,561,4.15515,-5.71024,0.00266927,-0.000398066,-0.00553636,0.00688046,-0.00460925,-0.650277,0.00667665,0.0357982,1686,463,4.15512,5.71024
469,561,4.04663,-5.54642,0.00302478,-0.000305628,-0.00730205,0.00884909,-0.00612994,-0.673292,0.00869551,0.0235453,1693,463,4.04664,5.54641
476,561,4.02026,-5.4696,0.00339867,-0.00030034,-0.00941607,0.0111452,-0.00804682,-0.688423,0.0111285,0.0431388,1700,463,4.02029,5.46961
483,561,3.98438,-5.38614,0,0,0,0,0,0,0,-1,1707,463,3.98435,5.38614
490,561,6.13135,-2.58374,0,0,0,0,0,0,0,-1,1714,463,6.13139,2.58373
497,561,7.30652,-2.46649,0,0,0,0,0,0,0,-1,1721,463,7.30649,2.4665
504,561,6.45044,-2.35263,0,0,0,0,0,0,0,-1,1728,463,6.4504,2.35263
511,561,0,0,0,0,0,0,0,0,0,-1,1735,463,0,0
518,561,0,0,0,0,0,0,0,0,0,-1,1742,463,0,0
525,561,0,0,0,0,0,0,0,0,0,-1,1749,463,0,0
532,561,0,0,0,0,0,0,0,0,0,-1,1756,463,0,0
539,561,0,0,0,0,0,0,0,0,0,-1,1763,463,0,0
546,561,0,0,0,0,0,0,0,0,0,-1,1770,463,0,0
553,561,0,0,0,0,0,0,0,0,0,-1,1777,463,0,0
560,561,0,0,0,0,0,0,0,0,0,-1,1784,463,0,0
567,561,0,0,0,0,0,0,0,0,0,-1,1791,463,0,0
574,561,0,0,0,0,0,0,0,0,0,-1,1798,463,0,0
581,561,0,0,0,0,0,0,0,0,0,-1,1805,463,0,0
588,561,0,0,0,0,0,0,0,0,0,-1,1812,463,0,0
595,561,0,0,0,0,0,0,0,0,0,-1,1819,463,0,0
602,561,0,0,0,0,0,0,0,0,0,-1,1826,463,0,0
609,561,0,0,0,0,0,0,0,0,0,-1,1833,463,0,0
616,561,0,0,0,0,0,0,0,0,0,-1,1840,463,0,0
623,561,0,0,0,0,0,0,0,0,0,-1,1847,463,0,0
630,561,0,0,0,0,0,0,0,0,0,-1,1854,463,0,0
637,561,0,0,0,0,0,0,0,0,0,-1,1861,463,0,0
644,561,0,0,0,0,0,0,0,0,0,-1,1868,463,0,0
651,561,0,0,0,0,0,0,0,0,0,-1,1875,463,0,0
658,561,0,0,0,0,0,0,0,0,0,-1,1882,463,0,0
665,561,0,0,0,0,0,0,0,0,0,-1,1889,463,0,0
672,561,0,0,0,0,0,0,0,0,0,-1,1896,463,0,0
679,561,0,0,0,0,0,0,0,0,0,-1,1903,463,0,0
686,561,0,0,0,0,0,0,0,0,0,-1,1910,463,0,0
693,561,0,0,0,0,0,0,0,0,0,-1,1917,463,0,0
700,561,0,0,0,0,0,0,0,0,0,-1,1924,463,0,0
707,561,0,0,0,0,0,0,0,0,0,-1,1931,463,0,0
714,561,0,0,0,0,0,0,0,0,0,-1,1938,463,0,0
721,561,0,0,0,0,0,0,0,0,0,-1,1945,463,0,0
728,561,0,0,0,0,0,0,0,0,0,-1,1952,463,0,0
735,561,0,0,0,0,0,0,0,0,0,-1,1959,463,0,0
742,561,0,0,0,0,0,0,0,0,0,-1,1966,463,0,0
749,561,0,0,0,0,0,0,0,0,0,-1,1973,463,0,0
756,561,0,0,0,0,0,0,0,0,0,-1,1980,463,0,0
763,561,0,0,0,0,0,0,0,0,0,-1,1987,463,0,0
770,561,0,0,0,0,0,0,0,0,0,-1,1994,463,0,0
777,561,0,0,0,0,0,0,0,0,0,-1,2001,463,0,0
784,561,0,0,0,0,0,0,0,0,0,-1,2008,463,0,0
791,561,0,0,0,0,0,0,0,0,0,-1,2015,463,0,0
798,561,0,0,0,0,0,0,0,0,0,-1,2022,463,0,0
805,561,0,0,0,0,0,0,0,0,0,-1,2029,463,0,0
812,561,0,0,0,0,0,0,0,0,0,-1,2036,463,0,0
-700,554,0,0,0,0,0,0,0,0,0,-1,524,470,0,0
-693,554,0,0,0,0,0,0,0,0,0,-1,531,470,0,0
-686,554,0,0,0,0,0,0,0,0,0,-1,538,470,0,0
-679,554,0,0,0,0,0,0,0,0,0,-1,545,470,0,0
-672,554,0,0,0,0,0,0,0,0,0,-1,552,470,0,0
-665,554,0,0,0,0,0,0,0,0,0,-1,559,470,0,0
-658,554,0,0,0,0,0,0,0,0,0,-1,566,470,0,0
-651,554,0,0,0,0,0,0,0,0,0,-1,573,470,0,0
-644,554,0,0,0,0,0,0,0,0,0,-1,580,470,0,0
-637,554,0,0,0,0,0,0,0,0,0,-1,587,470,0,0
-630,554,0,0,0,0,0,0,0,0,0,-1,594,470,0,0
-623,554,0,0,0,0,0,0,0,0,0,-1,601,470,0,0
-616,554,0,0,0,0,0,0,0,0,0,-1,608,470,0,0
-609,554,0,0,0,0,0,0,0,0,0,-1,615,470,0,0
-602,554,0,0,0,0,0,0,0,0,0,-1,622,470,0,0
-595,554,0,0,0,0,0,0,0,0,0,-1,629,470,0,0
-588,554,0,0,0,0,0,0,0,0,0,-1,636,470,0,0
-581,554,0,0,0,0,0,0,0,0,0,-1,643,470,0,0
-574,554,0,0,0,0,0,0,0,0,0,-1,650,470,0,0
-567,554,0,0,0,0,0,0,0,0,0,-1,657,470,0,0
-560,554,0,0,0,0,0,0,0,0,0,-1,664,470,0,0
-553,554,0,0,0,0,0,0,0,0,0,-1,671,470,0,0
-546,554,0,0,0,0,0,0,0,0,0,-1,678,470,0,0
-539,554,0,0,0,0,0,0,0,0,0,-1,685,470,0,0
-532,554,0,0,0,0,0,0,0,0,0,-1,692,470,0,0
-525,554,0,0,0,0,0,0,0,0,0,-1,699,470,0,0
-518,554,0,0,0,0,0,0,0,0,0,-1,706,470,0,0
-511,554,0,0,0,0,0,0,0,0,0,-1,713,470,0,0
-504,554,0,0,0,0,0,0,0,0,0,-1,720,470,0,0
-497,554,0,0,0,0,0,0,0,0,0,-1,727,470,0,0
-490,554,0,0,0,0,0,0,0,0,0,-1,734,470,0,0
-483,554,0,0,0,0,0,0,0,0,0,-1,741,470,0,0
-476,554,0,0,0,0,0,0,0,0,0,-1,748,470,0,0
-469,554,0,0,0,0,0,0,0,0,0,-1,755,470,0,0
-462,554,0,0,0,0,0,0,0,0,0,-1,762,470,0,0
-455,554,0,0,0,0,0,0,0,0,0,-1,769,470,0,0
-448,554,0,0,0,0,0,0,0,0,0,-1,776,470,0,0
-441,554,0,0,0,0,0,0,0,0,0,-1,783,470,0,0
-434,554,0,0,0,0,0,0,0,0,0,-1,790,470,0,0
-427,554,0,0,0,0,0,0,0,0,0,-1,797,470,0,0
-420,554,0,0,0,0,0,0,0,0,0,-1,804,470,0,0
-413,554,0,0,0,0,0,0,0,0,0,-1,811,470,0,0
-406,554,0,0,0,0,0,0,0,0,0,-1,818,470,0,0
-399,554,1.22241,-4.88776,0,0,0,0,0,0,0,-1,825,470,1.2224,4.88775
-392,554,-0.667969,-3.71759,0,0,0,0,0,0,0,-1,832,470,-0.667998,3.71759
-385,554,0.376343,-6.9808,0,0,0,0,0,0,0,-1,839,470,0.376336,6.98082
-378,554,0.642395,-7.45447,0.0544946,0.0318119,-0.0109438,0.0589137,0.0273928,-0.383779,0.0340417,0.0489459,846,470,0.642421,7.45448
-371,554,1.24487,-7.94312,0.0410873,0.0250679,-0.0036179,0.0418665,0.0242887,-0.212128,0.0242749,0.0488183,853,470,1.24484,7.94311
-364,554,1.04883,-7.68756,0,0,0,0,0,0,0,-1,860,470,1.0488,7.68757
-357,554,1.24969,-7.43643,0,0,0,0,0,0,0,-1,867,470,1.24968,7.43644
-350,554,1.38678,-7.39581,0.0125712,0.00710998,0.0053416,0.0158396,0.00384151,0.549117,0.00954063,0.0478769,874,470,1.38676,7.39582
-343,554,1.57532,-7.20663,0.00744639,0.00323731,0.00536512,0.011105,-0.000421276,0.598489,0.00754767,0.041468,881,470,1.5753,7.20662
-336,554,1.34436,-7.12094,0.00410811,0.000798251,0.0046729,0.00741048,-0.00250412,0.615213,0.00595324,0.0320426,888,470,1.34437,7.12093
-329,554,1.19568,-7.34515,0.00200979,-0.000908906,0.00363306,0.00446565,-0.00336476,0.594418,0.00453575,0.0159135,895,470,1.19567,7.34516
-322,554,1.15509,-7.57291,0.000168532,-0.001871,0.00290979,0.00223208,-0.00393455,0.616856,0.00360525,0.0101211,902,470,1.15507,7.57291
-315,554,1.16577,-7.77899,-0.000503367,-0.00245007,0.00201967,0.000765258,-0.0037187,0.560851,0.00276968,0.0101995,909,470,1.16577,7.77899
-308,554,1.16235,-7.98611,-3.16274e-05,-0.00198864,0.000937728,0.000345155,-0.00236543,0.38206,0.0017037,0.0120556,916,470,1.16236,7.98612
-301,554,1.15601,-8.1817,0.000348086,-0.00175609,-7.44856e-05,0.000350719,-0.00175872,-0.03534,0.00130519,0.012673,923,470,1.15598,8.1817
-294,554,1.12183,-8.36795,0.000612128,-0.00107991,-0.000629126,0.000820409,-0.00128819,-0.319706,0.00122734,0.0106036,930,470,1.12182,8.36796
-287,554,1.10834,-8.5675,0.000915638,-0.000484123,-0.000802729,0.00128075,-0.000849234,-0.426869,0.00123813,0.0104454,937,470,1.10836,8.5675
-280,554,1.11072,-8.76596,0.00114247,-0.000170584,-0.000691515,0.00143948,-0.000467587,-0.405673,0.00114771,0.0105972,944,470,1.11075,8.76597
-273,554,1.12433,-8.97159,0.00112854,-6.56325e-06,-0.000551894,0.00135263,-0.000230657,-0.385706,0.000987661,0.0141799,951,470,1.12433,8.97159
-266,554,1.12482,-9.15781,0.000866189,0.000139631,-0.000280494,0.000961875,4.39452e-05,-0.328753,0.000627115,0.0118817,958,470,1.12481,9.15781
-259,554,1.09515,-9.30777,0.000647937,0.000238102,-2.75745e-05,0.000649784,0.000236255,-0.0668802,0.000379778,0.0112752,965,470,1.09513,9.30778
-252,554,1.09644,-9.49637,0.000563651,0.000314451,0.000204303,0.000678352,0.00019975,0.511572,0.000402525,0.0142983,972,470,1.09642,9.49638
-245,554,1.10773,-9.68616,0.000700781,0.000569091,0.000493929,0.00113323,0.000136637,0.719134,0.000714314,0.0162086,979,470,1.1077,9.68615
-238,554,1.12988,-9.86356,0.00119349,0.00144147,0.000845365,0.00217189,0.000463072,0.858215,0.00132091,0.0113061,986,470,1.12987,9.86356
-231,554,1.1416,-10.0339,0.00170203,0.00220413,0.00136617,0.00334213,0.00056404,0.876265,0.0020659,0.00960879,993,470,1.14159,10.0339
-224,554,1.15289,-10.1934,0.00245191,0.00319089,0.0020596,0.00491388,0.000728923,0.874153,0.00306201,0.00925248,1000,470,1.15291,10.1934
-217,554,1.17212,-10.3546,0.00348183,0.00445409,0.00274326,0.00675396,0.00118197,0.873092,0.00416494,0.00956375,1007,470,1.1721,10.3546
-210,554,1.19775,-10.5401,0.00475561,0.00571327,0.00325305,0.00852254,0.00194634,0.85847,0.00515683,0.0132177,1014,470,1.19776,10.5401
-203,554,1.23395,-10.7096,0.00607482,0.00750828,0.00358058,0.0104432,0.00313994,0.884179,0.00618701,0.0212273,1021,470,1.23394,10.7096
-196,554,1.19348,-10.781,0.00750578,0.00916323,0.00392825,0.0123492,0.00431979,0.889357,0.00723626,0.0270786,1028,470,1.19351,10.781
-189,554,0.869141,-11.0251,0,0,0,0,0,0,0,-1,1035,470,0.869104,11.0251
-182,554,0.744141,-11.0999,0.0104159,0.0122477,0.00380644,0.0152469,0.00741674,0.903464,0.00880389,0.0412719,1042,470,0.744165,11.1
-175,554,0.808838,-11.2336,0.0112333,0.0129602,0.00326614,0.0154751,0.0087184,0.914627,0.00895845,0.047807,1049,470,0.808779,11.2336
-168,554,1.35046,-11.4219,0,0,0,0,0,0,0,-1,1056,470,1.35043,11.4219
-161,554,1.81787,-11.4557,0,0,0,0,0,0,0,-1,1063,470,1.81782,11.4558
-154,554,1.79285,-12.1335,0,0,0,0,0,0,0,-1,1070,470,1.79279,12.1335
-147,554,2.2323,-11.8846,0,0,0,0,0,0,0,-1,1077,470,2.23228,11.8846
-140,554,1.8894,-12.0389,0,0,0,0,0,0,0,-1,1084,470,1.88936,12.0389
-133,554,1.05115,-10.659,0,0,0,0,0,0,0,-1,1091,470,1.05113,10.659
-126,554,-0.195923,-8.76236,0,0,0,0,0,0,0,-1,1098,470,-0.195888,8.76235
-119,554,0.361694,-10.4571,0,0,0,0,0,0,0,-1,1105,470,0.361651,10.4571
-112,554,0.944214,-10.2726,0,0,0,0,0,0,0,-1,1112,470,0.944204,10.2726
-105,554,2.82129,-9.46112,0,0,0,0,0,0,0,-1,1119,470,2.82127,9.46112
-98,554,1.51929,-7.3624,0,0,0,0,0,0,0,-1,1126,470,1.51928,7.36241
-91,554,1.41089,-6.5864,0,0,0,0,0,0,0,-1,1133,470,1.41093,6.58638
-84,554,1.62305,-5.87186,0,0,0,0,0,0,0,-1,1140,470,1.62299,5.87186
-77,554,-2.56958,1.33258,0,0,0,0,0,0,0,-1,1147,470,-2.56959,-1.33257
-70,554,-3.68164,-1.18332,0,0,0,0,0,0,0,-1,1154,470,-3.68158,1.18331
-63,554,-4.86853,-3.88708,0,0,0,0,0,0,0,-1,1161,470,-4.86853,3.88708
-56,554,-5.69958,-6.45422,0,0,0,0,0,0,0,-1,1168,470,-5.69955,6.45422
-49,554,-6.23645,-8.8569,0,0,0,0,0,0,0,-1,1175,470,-6.23643,8.85689
-42,554,-6.62524,-11.5382,0,0,0,0,0,0,0,-1,1182,470,-6.62522,11.5382
-35,554,-2.40173,-4.59482,0,0,0,0,0,0,0,-1,1189,470,-2.40169,4.59481
-28,554,-0.760132,-1.65555,0,0,0,0,0,0,0,-1,1196,470,-0.760095,1.65556
-21,554,6.67249,-10.1976,0,0,0,0,0,0,0,-1,1203,470,6.67249,10.1976
-14,554,10.7109,-14.7352,0,0,0,0,0,0,0,-1,1210,470,10.711,14.7352
-7,554,10.5144,-14.7876,0,0,0,0,0,0,0,-1,1217,470,10.5144,14.7876
0,554,9.31885,-14.8671,0,0,0,0,0,0,0,-1,1224,470,9.31889,14.8671
7,554,8.11475,-14.9477,0,0,0,0,0,0,0,-1,1231,470,8.11477,14.9477
14,554,5.76538,-14.6209,0,0,0,0,0,0,0,-1,1238,470,5.76542,14.6209
21,554,5.25281,-14.2045,0,0,0,0,0,0,0,-1,1245,470,5.25285,14.2045
28,554,4.80615,-13.7168,0,0,0,0,0,0,0,-1,1252,470,4.80611,13.7168
35,554,4.28931,-12.9973,0,0,0,0,0,0,0,-1,1259,470,4.2893,12.9973
42,554,3.63733,-12.4662,0,0,0,0,0,0,0,-1,1266,470,3.63733,12.4662
49,554,2.39722,-11.1007,0,0,0,0,0,0,0,-1,1273,470,2.39718,11.1007
56,554,1.92896,-11.2674,0.008423,-0.0471132,0.0275821,0.0197936,-0.0584839,0.391019,0.0469977,0.046013,1280,470,1.92893,11.2674
63,554,1.46191,-11.4706,0.0154044,-0.0525795,0.0427709,0.0360458,-0.0732209,0.449634,0.0642907,0.0445371,1287,470,1.46197,11.4706
70,554,1.29016,-11.7129,0.0312672,-0.0343827,0.0394805,0.0497861,-0.0529016,0.438594,0.0592959,0.0439678,1294,470,1.29015,11.7129
77,554,1.73975,-11.1351,0,0,0,0,0,0,0,-1,1301,470,1.73974,11.1351
84,554,-0.178467,-11.9218,0,0,0,0,0,0,0,-1,1308,470,-0.178437,11.9218
91,554,-0.960449,-11.92,0,0,0,0,0,0,0,-1,1315,470,-0.960446,11.9201
98,554,2.13464,-17.2272,0,0,0,0,0,0,0,-1,1322,470,2.13469,17.2272
105,554,3.13647,-17.0279,0,0,0,0,0,0,0,-1,1329,470,3.13645,17.0279
112,554,3.36121,-13.0123,0.099204,0.0432139,-0.00724926,0.100127,0.0422906,-0.126691,0.0580404,0.0439549,1336,470,3.3612,13.0123
119,554,4.28564,-12.8547,0.0968765,0.0458907,-0.0155902,0.101266,0.0415015,-0.274435,0.0587819,0.0425568,1343,470,4.28569,12.8547
126,554,5.401,-12.9833,0.0891146,0.0371009,-0.0224978,0.0974954,0.0287202,-0.356589,0.0578508,0.043132,1350,470,5.40099,12.9833
133,554,6.51453,-13.0587,0.0679283,0.0198689,-0.0271197,0.0801326,0.00766455,-0.422868,0.051059,0.0449342,1357,470,6.51453,13.0587
140,554,7.65149,-13.1069,0,0,0,0,0,0,0,-1,1364,470,7.65145,13.1069
147,554,6.15051,-10.9108,0,0,0,0,0,0,0,-1,1371,470,6.15052,10.9108
154,554,4.24512,-10.6183,0,0,0,0,0,0,0,-1,1378,470,4.24506,10.6184
161,554,-1.74866,-15.3942,0,0,0,0,0,0,0,-1,1385,470,-1.74866,15.3942
168,554,-1.89685,-16.8844,0,0,0,0,0,0,0,-1,1392,470,-1.89688,16.8844
175,554,10.663,0.286957,0,0,0,0,0,0,0,-1,1399,470,10.663,-0.286966
182,554,6.71106,-4.50217,0,0,0,0,0,0,0,-1,1406,470,6.71107,4.50215
189,554,6.90479,-2.50348,0,0,0,0,0,0,0,-1,1413,470,6.90477,2.50348
196,554,6.96216,-0.740906,0,0,0,0,0,0,0,-1,1420,470,6.96214,0.740912
203,554,6.43518,0.414154,0,0,0,0,0,0,0,-1,1427,470,6.43523,-0.414141
210,554,6.21167,1.96707,0,0,0,0,0,0,0,-1,1434,470,6.21165,-1.96706
217,554,5.64551,3.4989,0,0,0,0,0,0,0,-1,1441,470,5.64555,-3.49891
224,554,4.85144,-8.85172,0,0,0,0,0,0,0,-1,1448,470,4.85146,8.85173
231,554,3.25073,-5.29642,0,0,0,0,0,0,0,-1,1455,470,3.25078,5.29642
238,554,4.28625,-3.25253,0,0,0,0,0,0,0,-1,1462,470,4.28622,3.25252
245,554,4.0752,-2.90033,0,0,0,0,0,0,0,-1,1469,470,4.07515,2.90032
252,554,3.52112,-0.934998,0,0,0,0,0,0,0,-1,1476,470,3.52113,0.934996
259,554,3.96448,-2.16425,0,0,0,0,0,0,0,-1,1483,470,3.96446,2.16424
266,554,3.0592,-2.71716,0,0,0,0,0,0,0,-1,1490,470,3.05923,2.71718
273,554,2.58521,-3.06876,0,0,0,0,0,0,0,-1,1497,470,2.58524,3.06874
280,554,2.83301,-0.991699,0,0,0,0,0,0,0,-1,1504,470,2.83303,0.991704
287,554,3.54126,-4.12277,0,0,0,0,0,0,0,-1,1511,470,3.54123,4.12277
294,554,3.62036,-8.50146,0,0,0,0,0,0,0,-1,1518,470,3.62031,8.50145
301,554,4.52405,-10.3814,0,0,0,0,0,0,0,-1,1525,470,4.52405,10.3814
308,554,4.38416,-10.3832,0,0,0,0,0,0,0,-1,1532,470,4.38413,10.3832
315,554,4.43384,-9.98334,0,0,0,0,0,0,0,-1,1539,470,4.43389,9.98333
322,554,4.50684,-9.81335,-0.00319227,-0.0024159,-0.00514509,0.00235563,-0.0079638,-0.82305,0.00624432,0.0482944,1546,470,4.50682,9.81337
329,554,4.36816,-9.71747,-0.00293511,-0.00258359,-0.00469072,0.00193466,-0.00745336,-0.804124,0.00572383,0.027367,1553,470,4.3681,9.71746
336,554,4.3634,-9.58411,-0.00262342,-0.0028236,-0.00408072,0.00135844,-0.00680546,-0.773137,0.00505105,0.0121508,1560,470,4.36339,9.58412
343,554,4.35706,-9.41574,-0.00242166,-0.00298209,-0.00364234,0.000951235,-0.00635498,-0.747007,0.00458673,0.0102606,1567,470,4.35708,9.41573
350,554,4.37219,-9.22409,-0.00225578,-0.00315109,-0.00332102,0.000647612,-0.00605449,-0.718405,0.0042686,0.00981541,1574,470,4.37216,9.22409
357,554,4.38098,-9.04282,-0.00196205,-0.00313819,-0.00289879,0.000407723,-0.00550796,-0.685323,0.00381515,0.0108868,1581,470,4.38097,9.04282
364,554,4.38049,-8.86383,-0.0017056,-0.00291673,-0.00244281,0.000205591,-0.00482792,-0.663899,0.00328928,0.00841467,1588,470,4.3805,8.86382
371,554,4.37744,-8.66428,-0.00146908,-0.00262284,-0.00200286,3.83228e-05,-0.00413025,-0.64518,0.00276636,0.00801715,1595,470,4.37745,8.66429
378,554,4.38428,-8.44559,-0.00119437,-0.00216106,-0.00152304,-7.98228e-05,-0.00327561,-0.631748,0.00215763,0.00987967,1602,470,4.38422,8.44558
385,554,4.40918,-8.23083,-0.000964897,-0.00178799,-0.00119451,-0.000113023,-0.00263987,-0.619501,0.00172347,0.0092546,1609,470,4.40914,8.23082
392,554,4.40112,-8.03165,-0.000704697,-0.00148685,-0.000905021,-0.000109872,-0.00208168,-0.581455,0.00135265,0.0120573,1616,470,4.40112,8.03165
399,554,4.40308,-7.80417,-0.000403248,-0.00124386,-0.000627397,-6.83827e-05,-0.00157873,-0.490272,0.00103045,0.0170429,1623,470,4.40313,7.80418
406,554,4.41992,-7.60458,-0.00012546,-0.00100464,-0.000334774,-1.24986e-05,-0.0011176,-0.325428,0.000740938,0.0158037,1630,470,4.41991,7.6046
413,554,4.39746,-7.38403,0.000130615,-0.000715779,-5.26809e-05,0.000133882,-0.000719046,-0.061923,0.000529661,0.0155386,1637,470,4.39743,7.38404
420,554,4.3689,-7.19861,0.000425384,-0.000499556,-0.000128371,0.00044287,-0.000517042,-0.135381,0.000554756,0.0163726,1644,470,4.36892,7.19861
427,554,4.38831,-6.9747,0.000756786,-0.000472215,-0.000453626,0.000906084,-0.000621512,-0.317954,0.000887044,0.0111586,1651,470,4.38827,6.9747
434,554,4.37085,-6.74734,0.0010614,-0.000507091,-0.000720105,0.00134186,-0.000787548,-0.371394,0.00124322,0.00994774,1658,470,4.3709,6.74735
441,554,4.37439,-6.51465,0.00140502,-0.000588372,-0.00114344,0.00192518,-0.00110853,-0.42693,0.00177255,0.0108901,1665,470,4.3744,6.51466
448,554,4.38977,-6.27438,0.00172375,-0.000622207,-0.00172397,0.00263595,-0.0015344,-0.486675,0.00243559,0.0133194,1672,470,4.38974,6.27438
455,554,4.37195,-6.03479,0.00201444,-0.000686614,-0.00255515,0.00355402,-0.00222619,-0.542285,0.00336643,0.0144704,1679,470,4.37199,6.0348
462,554,4.33228,-5.80545,0.0023883,-0.000775527,-0.00359934,0.00473801,-0.00312524,-0.578354,0.00457157,0.0161643,1686,470,4.3323,5.80546
469,554,4.33533,-5.59048,0.00277999,-0.00097502,-0.0048477,0.00610106,-0.00429609,-0.600644,0.00603287,0.0221185,1693,470,4.33531,5.59048
476,554,4.42834,-5.3241,0.0031108,-0.00124005,-0.0063754,0.00767171,-0.00580096,-0.620982,0.0078034,0.0490409,1700,470,4.4284,5.3241
483,554,4.51392,-5.05783,0,0,0,0,0,0,0,-1,1707,470,4.51388,5.05784
490,554,7.31543,-3.51794,0,0,0,0,0,0,0,-1,1714,470,7.3154,3.51794
497,554,7.9751,-2.43454,0,0,0,0,0,0,0,-1,1721,470,7.97505,2.43453
504,554,2.13257,-3.81628,0,0,0,0,0,0,0,-1,1728,470,2.1326,3.8163
511,554,1.31396,-4.02713,0,0,0,0,0,0,0,-1,1735,470,1.31398,4.02712
518,554,-1.15686,-2.436,0,0,0,0,0,0,0,-1,1742,470,-1.15691,2.43599
525,554,0,0,0,0,0,0,0,0,0,-1,1749,470,0,0
532,554,0,0,0,0,0,0,0,0,0,-1,1756,470,0,0
539,554,0,0,0,0,0,0,0,0,0,-1,1763,470,0,0
546,554,0,0,0,0,0,0,0,0,0,-1,1770,470,0,0
553,554,0,0,0,0,0,0,0,0,0,-1,1777,470,0,0
560,554,0,0,0,0,0,0,0,0,0,-1,1784,470,0,0
567,554,0,0,0,0,0,0,0,0,0,-1,1791,470,0,0
574,554,0,0,0,0,0,0,0,0,0,-1,1798,470,0,0
581,554,0,0,0,0,0,0,0,0,0,-1,1805,470,0,0
588,554,0,0,0,0,0,0,0,0,0,-1,1812,470,0,0
595,554,0,0,0,0,0,0,0,0,0,-1,1819,470,0,0
602,554,0,0,0,0,0,0,0,0,0,-1,1826,470,0,0
609,554,0,0,0,0,0,0,0,0,0,-1,1833,470,0,0
616,554,0,0,0,0,0,0,0,0,0,-1,1840,470,0,0
623,554,0,0,0,0,0,0,0,0,0,-1,1847,470,0,0
630,554,0,0,0,0,0,0,0,0,0,-1,1854,470,0,0
637,554,0,0,0,0,0,0,0,0,0,-1,1861,470,0,0
644,554,0,0,0,0,0,0,0,0,0,-1,1868,470,0,0
651,554,0,0,0,0,0,0,0,0,0,-1,1875,470,0,0
658,554,0,0,0,0,0,0,0,0,0,-1,1882,470,0,0
665,554,0,0,0,0,0,0,0,0,0,-1,1889,470,0,0
672,554,0,0,0,0,0,0,0,0,0,-1,1896,470,0,0
679,554,0,0,0,0,0,0,0,0,0,-1,1903,470,0,0
686,554,0,0,0,0,0,0,0,0,0,-1,1910,470,0,0
693,554,0,0,0,0,0,0,0,0,0,-1,1917,470,0,0
700,554,0,0,0,0,0,0,0,0,0,-1,1924,470,0,0
707,554,0,0,0,0,0,0,0,0,0,-1,1931,470,0,0
714,554,0,0,0,0,0,0,0,0,0,-1,1938,470,0,0
721,554,0,0,0,0,0,0,0,0,0,-1,1945,470,0,0
728,554,0,0,0,0,0,0,0,0,0,-1,1952,470,0,0
735,554,0,0,0,0,0,0,0,0,0,-1,1959,470,0,0
742,554,0,0,0,0,0,0,0,0,0,-1,1966,470,0,0
749,554,0,0,0,0,0,0,0,0,0,-1,1973,470,0,0
756,554,0,0,0,0,0,0,0,0,0,-1,1980,470,0,0
763,554,0,0,0,0,0,0,0,0,0,-1,1987,470,0,0
770,554,0,0,0,0,0,0,0,0,0,-1,1994,470,0,0
777,554,0,0,0,0,0,0,0,0,0,-1,2001,470,0,0
784,554,0,0,0,0,0,0,0,0,0,-1,2008,470,0,0
791,554,0,0,0,0,0,0,0,0,0,-1,2015,470,0,0
798,554,0,0,0,0,0,0,0,0,0,-1,2022,470,0,0
805,554,0,0,0,0,0,0,0,0,0,-1,2029,470,0,0
812,554,0,0,0,0,0,0,0,0,0,-1,2036,470,0,0
-700,547,0,0,0,0,0,0,0,0,0,-1,524,477,0,0
-693,547,0,0,0,0,0,0,0,0,0,-1,531,477,0,0
-686,547,0,0,0,0,0,0,0,0,0,-1,538,477,0,0
-679,547,0,0,0,0,0,0,0,0,0,-1,545,477,0,0
-672,547,0,0,0,0,0,0,0,0,0,-1,552,477,0,0
-665,547,0,0,0,0,0,0,0,0,0,-1,559,477,0,0
-658,547,0,0,0,0,0,0,0,0,0,-1,566,477,0,0
-651,547,0,0,0,0,0,0,0,0,0,-1,573,477,0,0
-644,547,0,0,0,0,0,0,0,0,0,-1,580,477,0,0
-637,547,0,0,0,0,0,0,0,0,0,-1,587,477,0,0
-630,547,0,0,0,0,0,0,0,0,0,-1,594,477,0,0
-623,547,0,0,0,0,0,0,0,0,0,-1,601,477,0,0
-616,547,0,0,0,0,0,0,0,0,0,-1,608,477,0,0
-609,547,0,0,0,0,0,0,0,0,0,-1,615,477,0,0
-602,547,0,0,0,0,0,0,0,0,0,-1,622,477,0,0
-595,547,0,0,0,0,0,0,0,0,0,-1,629,477,0,0
-588,547,0,0,0,0,0,0,0,0,0,-1,636,477,0,0
-581,547,0,0,0,0,0,0,0,0,0,-1,643,477,0,0
-574,547,0,0,0,0,0,0,0,0,0,-1,650,477,0,0
-567,547,0,0,0,0,0,0,0,0,0,-1,657,477,0,0
-560,547,0,0,0,0,0,0,0,0,0,-1,664,477,0,0
-553,547,0,0,0,0,0,0,0,0,0,-1,671,477,0,0
-546,547,0,0,0,0,0,0,0,0,0,-1,678,477,0,0
-539,547,0,0,0,0,0,0,0,0,0,-1,685,477,0,0
-532,547,0,0,0,0,0,0,0,0,0,-1,692,477,0,0
-525,547,0,0,0,0,0,0,0,0,0,-1,699,477,0,0
-518,547,0,0,0,0,0,0,0,0,0,-1,706,477,0,0
-511,547,0,0,0,0,0,0,0,0,0,-1,713,477,0,0
-504,547,0,0,0,0,0,0,0,0,0,-1,720,477,0,0
-497,547,0,0,0,0,0,0,0,0,0,-1,727,477,0,0
-490,547,0,0,0,0,0,0,0,0,0,-1,734,477,0,0
-483,547,0,0,0,0,0,0,0,0,0,-1,741,477,0,0
-476,547,0,0,0,0,0,0,0,0,0,-1,748,477,0,0
-469,547,0,0,0,0,0,0,0,0,0,-1,755,477,0,0
-462,547,0,0,0,0,0,0,0,0,0,-1,762,477,0,0
-455,547,0,0,0,0,0,0,0,0,0,-1,769,477,0,0
-448,547,0,0,0,0,0,0,0,0,0,-1,776,477,0,0
-441,547,0,0,0,0,0,0,0,0,0,-1,783,477,0,0
-434,547,0,0,0,0,0,0,0,0,0,-1,790,477,0,0
-427,547,0,0,0,0,0,0,0,0,0,-1,797,477,0,0
-420,547,0,0,0,0,0,0,0,0,0,-1,804,477,0,0
-413,547,0,0,0,0,0,0,0,0,0,-1,811,477,0,0
-406,547,-1.9129,-4.21432,0,0,0,0,0,0,0,-1,818,477,-1.91292,4.21433
-399,547,-3.53412,0.451965,0,0,0,0,0,0,0,-1,825,477,-3.53412,-0.451962
-392,547,-3.37329,1.82104,0,0,0,0,0,0,0,-1,832,477,-3.37327,-1.82105
-385,547,-0.308533,-4.51331,0,0,0,0,0,0,0,-1,839,477,-0.308519,4.51331
-378,547,0.832397,-7.59033,0,0,0,0,0,0,0,-1,846,477,0.832371,7.59032
-371,547,1.20789,-8.06766,0,0,0,0,0,0,0,-1,853,477,1.20791,8.06765
-364,547,0.271729,-4.58582,0,0,0,0,0,0,0,-1,860,477,0.271753,4.5858
-357,547,1.13318,-6.4292,0,0,0,0,0,0,0,-1,867,477,1.1332,6.4292
-350,547,1.00977,-6.65125,0,0,0,0,0,0,0,-1,874,477,1.00977,6.65124
-343,547,1.00818,-6.90253,0.00592772,0.0025265,0.00402182,0.0085937,-0.000139481,0.585376,0.00577619,0.0358474,881,477,1.00815,6.90251
-336,547,1.00226,-7.13123,0.00319661,0.000585871,0.00362568,0.00574476,-0.00196227,0.612605,0.00462484,0.0152118,888,477,1.00228,7.13123
-329,547,0.97583,-7.34286,0.00147129,-0.000759731,0.00294402,0.00350405,-0.0027925,0.604303,0.00364304,0.0083485,895,477,0.975823,7.34285
-322,547,0.961487,-7.57599,-2.32802e-05,-0.00150187,0.002418,0.00176592,-0.00329107,0.637038,0.00296358,0.0103132,902,477,0.961474,7.576
-315,547,0.948975,-7.80038,-0.000591088,-0.00190261,0.00174856,0.000620629,-0.00311433,0.606,0.00231104,0.0103206,909,477,0.949004,7.80039
-308,547,0.961609,-7.98462,-0.000178507,-0.00164445,0.000927414,0.000270615,-0.00209357,0.450987,0.00149411,0.0110921,916,477,0.961618,7.98461
-301,547,0.949463,-8.1832,0.000196502,-0.00143112,0.0001572,0.000211545,-0.00144616,0.0954075,0.00104181,0.0102124,923,477,0.949488,8.18319
-294,547,0.91626,-8.37601,0.000479544,-0.00093391,-0.000260212,0.000525927,-0.000980292,-0.176395,0.000882706,0.00881816,930,477,0.916252,8.37602
-287,547,0.917114,-8.57309,0.000781359,-0.000558824,-0.000383382,0.000883281,-0.000660746,-0.259839,0.000894525,0.0104071,937,477,0.917088,8.5731
-280,547,0.935242,-8.77002,0.00105241,-0.000392301,-0.000272411,0.00110207,-0.000441959,-0.180312,0.000918202,0.0118547,944,477,0.935265,8.77002
-273,547,0.937073,-8.95938,0.00103391,-0.000352571,-0.000160099,0.00105215,-0.000370818,-0.113482,0.000852367,0.0118548,951,477,0.937073,8.95938
-266,547,0.934143,-9.14801,0.00079123,-0.000217609,6.38451e-05,0.000795254,-0.000221633,0.0629511,0.000617452,0.0119622,958,477,0.93412,9.14802
-259,547,0.91571,-9.32681,0.000622712,-0.000168343,0.000282398,0.000713178,-0.000258809,0.310023,0.000581256,0.0113499,965,477,0.915706,9.32682
-252,547,0.928955,-9.5188,0.000561528,2.25731e-05,0.00052827,0.000885083,-0.000300982,0.549546,0.000711916,0.0114813,972,477,0.928973,9.5188
-245,547,0.949219,-9.69479,0.000757768,0.000500498,0.000805699,0.00144504,-0.00018677,0.706238,0.00103127,0.0124042,979,477,0.949246,9.69479
-238,547,0.960693,-9.85641,0.00143074,0.00178416,0.00118915,0.00280966,0.000405242,0.859158,0.0017537,0.00829272,986,477,0.960677,9.85641
-231,547,0.9776,-10.0319,0.00207327,0.00301498,0.00179421,0.00439909,0.000689164,0.91372,0.00273213,0.00771843,993,477,0.977616,10.0319
-224,547,0.989014,-10.1855,0.00293465,0.0044562,0.00262461,0.00642807,0.000962781,0.926463,0.00400323,0.00968891,1000,477,0.989017,10.1856
-217,547,0.998657,-10.3699,0.0041706,0.00633046,0.00350488,0.00891802,0.00158305,0.934844,0.00549422,0.0134209,1007,477,0.998666,10.3699
-210,547,1.01129,-10.5238,0.00579851,0.00826179,0.00420879,0.0114154,0.00264486,0.927742,0.00689977,0.0235874,1014,477,1.01127,10.5238
-203,547,1.11755,-10.4312,0.00759066,0.0108389,0.00472569,0.0142118,0.00421778,0.950914,0.00842804,0.0357421,1021,477,1.11754,10.4312
-196,547,1.18188,-10.3851,0.00963424,0.0133623,0.00529335,0.0171103,0.00588632,0.954692,0.0100376,0.0434651,1028,477,1.18189,10.3851
-189,547,1.5835,-10.4572,0.0116698,0.0158289,0.00548085,0.0196114,0.00788724,0.966717,0.0113947,0.045915,1035,477,1.5835,10.4572
-182,547,0.0980225,-11.14,0,0,0,0,0,0,0,-1,1042,477,0.0979649,11.14
-175,547,0.149902,-11.3664,0,0,0,0,0,0,0,-1,1049,477,0.149873,11.3664
-168,547,1.12463,-8.66785,0,0,0,0,0,0,0,-1,1056,477,1.12461,8.66786
-161,547,-0.866577,-10.5763,0,0,0,0,0,0,0,-1,1063,477,-0.866574,10.5763
-154,547,1.34363,-11.1508,0,0,0,0,0,0,0,-1,1070,477,1.34368,11.1507
-147,547,2.24561,-12.1978,0,0,0,0,0,0,0,-1,1077,477,2.24557,12.1978
-140,547,0.928467,-10.8473,0,0,0,0,0,0,0,-1,1084,477,0.928422,10.8473
-133,547,3.49597,-11.0495,0,0,0,0,0,0,0,-1,1091,477,3.49598,11.0495
-126,547,0.784302,-9.76431,0,0,0,0,0,0,0,-1,1098,477,0.78428,9.76432
-119,547,-0.531006,-10.0229,0,0,0,0,0,0,0,-1,1105,477,-0.530984,10.0229
-112,547,4.36194,-9.23029,0,0,0,0,0,0,0,-1,1112,477,4.36195,9.23029
-105,547,4.448,-9.17819,0,0,0,0,0,0,0,-1,1119,477,4.44799,9.1782
-98,547,1.50391,-7.20621,0,0,0,0,0,0,0,-1,1126,477,1.50395,7.20621
-91,547,1.37805,-7.12024,0,0,0,0,0,0,0,-1,1133,477,1.37804,7.12025
-84,547,1.94202,-6.66241,0,0,0,0,0,0,0,-1,1140,477,1.94201,6.66241
-77,547,-2.28357,1.8588,0,0,0,0,0,0,0,-1,1147,477,-2.28356,-1.85879
-70,547,-3.70178,-0.874908,0,0,0,0,0,0,0,-1,1154,477,-3.70182,0.874918
-63,547,-5.12012,-3.60861,0,0,0,0,0,0,0,-1,1161,477,-5.12009,3.60862
-56,547,-6.01917,-6.2399,0,0,0,0,0,0,0,-1,1168,477,-6.01921,6.23991
-49,547,-6.729,-8.60349,0,0,0,0,0,0,0,-1,1175,477,-6.72899,8.60348
-42,547,-2.41736,-5.53012,0,0,0,0,0,0,0,-1,1182,477,-2.41734,5.53011
-35,547,-2.96838,-4.45734,0,0,0,0,0,0,0,-1,1189,477,-2.96839,4.45734
-28,547,-0.869141,-1.29901,0,0,0,0,0,0,0,-1,1196,477,-0.869135,1.29901
-21,547,7.02197,-10.6903,0,0,0,0,0,0,0,-1,1203,477,7.02195,10.6903
-14,547,11.5408,-14.3576,0,0,0,0,0,0,0,-1,1210,477,11.5408,14.3576
-7,547,10.4785,-14.3481,0,0,0,0,0,0,0,-1,1217,477,10.4785,14.3481
0,547,9.19397,-14.4309,0,0,0,0,0,0,0,-1,1224,477,9.19399,14.4309
7,547,8.01172,-14.3112,0,0,0,0,0,0,0,-1,1231,477,8.01175,14.3112
14,547,0,0,0,0,0,0,0,0,0,-1,1238,477,0,0
21,547,0,0,0,0,0,0,0,0,0,-1,1245,477,0,0
28,547,0,0,0,0,0,0,0,0,0,-1,1252,477,0,0
35,547,0,0,0,0,0,0,0,0,0,-1,1259,477,0,0
42,547,0,0,0,0,0,0,0,0,0,-1,1266,477,0,0
49,547,0,0,0,0,0,0,0,0,0,-1,1273,477,0,0
56,547,0,0,0,0,0,0,0,0,0,-1,1280,477,0,0
63,547,0,0,0,0,0,0,0,0,0,-1,1287,477,0,0
70,547,0,0,0,0,0,0,0,0,0,-1,1294,477,0,0
77,547,0,0,0,0,0,0,0,0,0,-1,1301,477,0,0
84,547,0,0,0,0,0,0,0,0,0,-1,1308,477,0,0
91,547,0,0,0,0,0,0,0,0,0,-1,1315,477,0,0
98,547,0,0,0,0,0,0,0,0,0,-1,1322,477,0,0
105,547,2.52356,-13.3981,0,0,0,0,0,0,0,-1,1329,477,2.52359,13.3981
112,547,3.67456,-13.3969,0.125591,0.0526488,-0.0156252,0.128797,0.0494426,-0.202385,0.0750265,0.0428356,1336,477,3.67462,13.3969
119,547,4.92212,-13.4282,0.127281,0.0576466,-0.025143,0.13541,0.0495172,-0.312717,0.0791139,0.041659,1343,477,4.92216,13.4282
126,547,5.9248,-13.3458,0.119956,0.0492271,-0.033401,0.133236,0.0359471,-0.378427,0.0795948,0.0460866,1350,477,5.92485,13.3458
133,547,7.04468,-13.4944,0.0939757,0.0290164,-0.0388139,0.112107,0.0108853,-0.437006,0.0713866,0.0448176,1357,477,7.04474,13.4944
140,547,8.95569,-10.1595,0,0,0,0,0,0,0,-1,1364,477,8.95563,10.1595
147,547,6.56653,-9.85162,0,0,0,0,0,0,0,-1,1371,477,6.56648,9.85162
154,547,4.16003,-9.53561,0,0,0,0,0,0,0,-1,1378,477,4.16008,9.53562
161,547,1.75159,-9.24216,0,0,0,0,0,0,0,-1,1385,477,1.75159,9.24217
168,547,-6.75854,-16.465,0,0,0,0,0,0,0,-1,1392,477,-6.75852,16.465
175,547,3.35034,-0.26532,0,0,0,0,0,0,0,-1,1399,477,3.3503,0.265306
182,547,4.26038,3.72672,0,0,0,0,0,0,0,-1,1406,477,4.26039,-3.7267
189,547,3.40454,1.28671,0,0,0,0,0,0,0,-1,1413,477,3.40457,-1.28673
196,547,3.53931,1.87793,0,0,0,0,0,0,0,-1,1420,477,3.53928,-1.87794
203,547,6.49414,-0.425842,0,0,0,0,0,0,0,-1,1427,477,6.4941,0.425844
210,547,4.82092,0.53595,0,0,0,0,0,0,0,-1,1434,477,4.82096,-0.535942
217,547,4.68579,0.480072,0,0,0,0,0,0,0,-1,1441,477,4.68577,-0.480069
224,547,4.55615,0.739807,0,0,0,0,0,0,0,-1,1448,477,4.55613,-0.73981
231,547,5.90869,-3.57721,0,0,0,0,0,0,0,-1,1455,477,5.90871,3.57722
238,547,5.50049,-3.15356,0,0,0,0,0,0,0,-1,1462,477,5.50045,3.15356
245,547,5.13708,-2.65213,0,0,0,0,0,0,0,-1,1469,477,5.13708,2.65212
252,547,3.73511,-0.645233,0,0,0,0,0,0,0,-1,1476,477,3.73515,0.645237
259,547,5.86816,-3.20816,0,0,0,0,0,0,0,-1,1483,477,5.86815,3.20816
266,547,5.40222,-2.45731,0,0,0,0,0,0,0,-1,1490,477,5.40221,2.45732
273,547,3.05737,0.495789,0,0,0,0,0,0,0,-1,1497,477,3.05742,-0.49578
280,547,2.0885,1.47797,0,0,0,0,0,0,0,-1,1504,477,2.08848,-1.47795
287,547,2.31177,-2.21716,0,0,0,0,0,0,0,-1,1511,477,2.31174,2.21717
294,547,2.4823,-3.03659,0,0,0,0,0,0,0,-1,1518,477,2.48229,3.0366
301,547,4.72119,-3.93454,0,0,0,0,0,0,0,-1,1525,477,4.72119,3.93453
308,547,4.07471,-5.42175,0,0,0,0,0,0,0,-1,1532,477,4.07468,5.42174
315,547,3.58496,-6.62112,0,0,0,0,0,0,0,-1,1539,477,3.58497,6.62113
322,547,4.85254,-9.75201,0,0,0,0,0,0,0,-1,1546,477,4.85256,9.75203
329,547,4.49548,-9.68579,0,0,0,0,0,0,0,-1,1553,477,4.49542,9.6858
336,547,4.56665,-9.56992,-0.00398431,-0.00422703,-0.00551525,0.00141092,-0.00962225,-0.774398,0.00693316,0.0323083,1560,477,4.56663,9.56991
343,547,4.58569,-9.47159,-0.00366378,-0.00455206,-0.00501335,0.000925061,-0.0091409,-0.741217,0.00642453,0.0260419,1567,477,4.58573,9.47159
350,547,4.61218,-9.28857,-0.00346281,-0.00491781,-0.00473416,0.000599417,-0.00898004,-0.70916,0.00619617,0.0208617,1574,477,4.61217,9.28858
357,547,4.58362,-9.07901,-0.00308595,-0.00499401,-0.00429369,0.000358426,-0.00843839,-0.676078,0.00574879,0.0148733,1581,477,4.58364,9.07902
364,547,4.57373,-8.86383,-0.00272243,-0.00476527,-0.00376911,0.000161214,-0.00764891,-0.653078,0.00515385,0.0102488,1588,477,4.57371,8.86384
371,547,4.58569,-8.64526,-0.00238425,-0.0044176,-0.00325965,1.35957e-05,-0.00681545,-0.634231,0.00454817,0.00882815,1595,477,4.58574,8.64527
378,547,4.60022,-8.45212,-0.00198733,-0.00383414,-0.00268143,-7.47587e-05,-0.00574671,-0.619572,0.00380647,0.0100793,1602,477,4.6002,8.45212
385,547,4.60742,-8.25186,-0.00167653,-0.00331237,-0.00225329,-9.72985e-05,-0.0048916,-0.611299,0.00322912,0.0106735,1609,477,4.6074,8.25187
392,547,4.5946,-8.0332,-0.00138571,-0.00282189,-0.00186403,-0.000106236,-0.00410136,-0.601541,0.00269953,0.0112395,1616,477,4.59458,8.03319
399,547,4.59729,-7.80655,-0.00104299,-0.0023779,-0.00149703,-7.13584e-05,-0.00334952,-0.575698,0.00220961,0.0132164,1623,477,4.59728,7.80656
406,547,4.62744,-7.5885,-0.000706532,-0.00192819,-0.00111099,-4.95214e-05,-0.0025852,-0.534051,0.0017072,0.013063,1630,477,4.62744,7.5885
413,547,4.61621,-7.37518,-0.000369228,-0.00140292,-0.000706762,-1.04929e-05,-0.00176165,-0.46969,0.00117095,0.0128445,1637,477,4.61618,7.37518
420,547,4.59814,-7.18936,-5.80865e-06,-0.0010061,-0.000547884,0.000235884,-0.00124779,-0.41546,0.000920615,0.014961,1644,477,4.59813,7.18937
427,547,4.61255,-6.97028,0.000345566,-0.000812748,-0.000614807,0.000611045,-0.00107823,-0.407624,0.000987656,0.0138968,1651,477,4.6126,6.97027
434,547,4.58093,-6.75,0.00066653,-0.000706778,-0.000650351,0.00092563,-0.000965878,-0.379126,0.00109214,0.00922345,1658,477,4.58091,6.75
441,547,4.57629,-6.5209,0.00102707,-0.000676154,-0.000806944,0.00134866,-0.000997743,-0.379236,0.00135974,0.00969593,1665,477,4.57625,6.5209
448,547,4.58594,-6.28757,0.00136355,-0.000688308,-0.00106794,0.00181851,-0.00114327,-0.402731,0.00172473,0.011156,1672,477,4.58594,6.28757
455,547,4.58582,-6.04541,0.00167851,-0.000778426,-0.00153976,0.00241981,-0.00151973,-0.448691,0.0022942,0.0107957,1679,477,4.58576,6.04541
462,547,4.55408,-5.8075,0.00207713,-0.000980206,-0.00222334,0.00324662,-0.0021497,-0.484236,0.00313695,0.0101602,1686,477,4.5541,5.80749
469,547,4.55823,-5.58014,0.0024761,-0.0013631,-0.00307268,0.00417952,-0.00306651,-0.506195,0.00419991,0.0185243,1693,477,4.55821,5.58013
476,547,4.70166,-5.23419,0.00275898,-0.00179513,-0.00413151,0.00519937,-0.00423553,-0.533538,0.00545671,0.0445356,1700,477,4.70168,5.23419
483,547,4.87,-4.80722,0,0,0,0,0,0,0,-1,1707,477,4.87004,4.80722
490,547,3.65271,-3.71707,0,0,0,0,0,0,0,-1,1714,477,3.65277,3.71708
497,547,2.55481,-3.81421,0,0,0,0,0,0,0,-1,1721,477,2.55476,3.8142
504,547,4.01953,-2.22714,0,0,0,0,0,0,0,-1,1728,477,4.0195,2.22713
511,547,4.82495,-1.45642,0,0,0,0,0,0,0,-1,1735,477,4.82495,1.45641
518,547,4.69446,-3.75436,0,0,0,0,0,0,0,-1,1742,477,4.69445,3.75438
525,547,0.781616,-3.76355,0,0,0,0,0,0,0,-1,1749,477,0.781645,3.76354
532,547,0,0,0,0,0,0,0,0,0,-1,1756,477,0,0
539,547,0,0,0,0,0,0,0,0,0,-1,1763,477,0,0
546,547,0,0,0,0,0,0,0,0,0,-1,1770,477,0,0
553,547,0,0,0,0,0,0,0,0,0,-1,1777,477,0,0
560,547,0,0,0,0,0,0,0,0,0,-1,1784,477,0,0
567,547,0,0,0,0,0,0,0,0,0,-1,1791,477,0,0
574,547,0,0,0,0,0,0,0,0,0,-1,1798,477,0,0
581,547,0,0,0,0,0,0,0,0,0,-1,1805,477,0,0
588,547,0,0,0,0,0,0,0,0,0,-1,1812,477,0,0
595,547,0,0,0,0,0,0,0,0,0,-1,1819,477,0,0
602,547,0,0,0,0,0,0,0,0,0,-1,1826,477,0,0
609,547,0,0,0,0,0,0,0,0,0,-1,1833,477,0,0
616,547,0,0,0,0,0,0,0,0,0,-1,1840,477,0,0
623,547,0,0,0,0,0,0,0,0,0,-1,1847,477,0,0
630,547,0,0,0,0,0,0,0,0,0,-1,1854,477,0,0
637,547,0,0,0,0,0,0,0,0,0,-1,1861,477,0,0
644,547,0,0,0,0,0,0,0,0,0,-1,1868,477,0,0
651,547,0,0,0,0,0,0,0,0,0,-1,1875,477,0,0
658,547,0,0,0,0,0,0,0,0,0,-1,1882,477,0,0
665,547,0,0,0,0,0,0,0,0,0,-1,1889,477,0,0
672,547,0,0,0,0,0,0,0,0,0,-1,1896,477,0,0
679,547,0,0,0,0,0,0,0,0,0,-1,1903,477,0,0
686,547,0,0,0,0,0,0,0,0,0,-1,1910,477,0,0
693,547,0,0,0,0,0,0,0,0,0,-1,1917,477,0,0
700,547,0,0,0,0,0,0,0,0,0,-1,1924,477,0,0
707,547,0,0,0,0,0,0,0,0,0,-1,1931,477,0,0
714,547,0,0,0,0,0,0,0,0,0,-1,1938,477,0,0
721,547,0,0,0,0,0,0,0,0,0,-1,1945,477,0,0
728,547,0,0,0,0,0,0,0,0,0,-1,1952,477,0,0
735,547,0,0,0,0,0,0,0,0,0,-1,1959,477,0,0
742,547,0,0,0,0,0,0,0,0,0,-1,1966,477,0,0
749,547,0,0,0,0,0,0,0,0,0,-1,1973,477,0,0
756,547,0,0,0,0,0,0,0,0,0,-1,1980,477,0,0
763,547,0,0,0,0,0,0,0,0,0,-1,1987,477,0,0
770,547,0,0,0,0,0,0,0,0,0,-1,1994,477,0,0
777,547,0,0,0,0,0,0,0,0,0,-1,2001,477,0,0
784,547,0,0,0,0,0,0,0,0,0,-1,2008,477,0,0
791,547,0,0,0,0,0,0,0,0,0,-1,2015,477,0,0
798,547,0,0,0,0,0,0,0,0,0,-1,2022,477,0,0
805,547,0,0,0,0,0,0,0,0,0,-1,2029,477,0,0
812,547,0,0,0,0,0,0,0,0,0,-1,2036,477,0,0
-700,540,0,0,0,0,0,0,0,0,0,-1,524,484,0,0
-693,540,0,0,0,0,0,0,0,0,0,-1,531,484,0,0
-686,540,0,0,0,0,0,0,0,0,0,-1,538,484,0,0
-679,540,0,0,0,0,0,0,0,0,0,-1,545,484,0,0
-672,540,0,0,0,0,0,0,0,0,0,-1,552,484,0,0
-665,540,0,0,0,0,0,0,0,0,0,-1,559,484,0,0
-658,540,0,0,0,0,0,0,0,0,0,-1,566,484,0,0
-651,540,0,0,0,0,0,0,0,0,0,-1,573,484,0,0
-644,540,0,0,0,0,0,0,0,0,0,-1,580,484,0,0
-637,540,0,0,0,0,0,0,0,0,0,-1,587,484,0,0
-630,540,0,0,0,0,0,0,0,0,0,-1,594,484,0,0
-623,540,0,0,0,0,0,0,0,0,0,-1,601,484,0,0
-616,540,0,0,0,0,0,0,0,0,0,-1,608,484,0,0
-609,540,0,0,0,0,0,0,0,0,0,-1,615,484,0,0
-602,540,0,0,0,0,0,0,0,0,0,-1,622,484,0,0
-595,540,0,0,0,0,0,0,0,0,0,-1,629,484,0,0
-588,540,0,0,0,0,0,0,0,0,0,-1,636,484,0,0
-581,540,0,0,0,0,0,0,0,0,0,-1,643,484,0,0
-574,540,0,0,0,0,0,0,0,0,0,-1,650,484,0,0
-567,540,0,0,0,0,0,0,0,0,0,-1,657,484,0,0
-560,540,0,0,0,0,0,0,0,0,0,-1,664,484,0,0
-553,540,0,0,0,0,0,0,0,0,0,-1,671,484,0,0
-546,540,0,0,0,0,0,0,0,0,0,-1,678,484,0,0
-539,540,0,0,0,0,0,0,0,0,0,-1,685,484,0,0
-532,540,0,0,0,0,0,0,0,0,0,-1,692,484,0,0
-525,540,0,0,0,0,0,0,0,0,0,-1,699,484,0,0
-518,540,0,0,0,0,0,0,0,0,0,-1,706,484,0,0
-511,540,0,0,0,0,0,0,0,0,0,-1,713,484,0,0
-504,540,0,0,0,0,0,0,0,0,0,-1,720,484,0,0
-497,540,0,0,0,0,0,0,0,0,0,-1,727,484,0,0
-490,540,0,0,0,0,0,0,0,0,0,-1,734,484,0,0
-483,540,0,0,0,0,0,0,0,0,0,-1,741,484,0,0
-476,540,0,0,0,0,0,0,0,0,0,-1,748,484,0,0
-469,540,0,0,0,0,0,0,0,0,0,-1,755,484,0,0
-462,540,0,0,0,0,0,0,0,0,0,-1,762,484,0,0
-455,540,0,0,0,0,0,0,0,0,0,-1,769,484,0,0
-448,540,0,0,0,0,0,0,0,0,0,-1,776,484,0,0
-441,540,0,0,0,0,0,0,0,0,0,-1,783,484,0,0
-434,540,0,0,0,0,0,0,0,0,0,-1,790,484,0,0
-427,540,0,0,0,0,0,0,0,0,0,-1,797,484,0,0
-420,540,0.50824,-4.86896,0,0,0,0,0,0,0,-1,804,484,0.508247,4.86897
-413,540,-2.80725,-0.0874329,0,0,0,0,0,0,0,-1,811,484,-2.80723,0.0874207
-406,540,-3.07605,0.0525513,0,0,0,0,0,0,0,-1,818,484,-3.07607,-0.0525456
-399,540,-3.17102,-0.438995,0,0,0,0,0,0,0,-1,825,484,-3.17104,0.439004
-392,540,-3.39374,0.737396,0,0,0,0,0,0,0,-1,832,484,-3.39375,-0.737408
-385,540,-3.64734,2.07758,0,0,0,0,0,0,0,-1,839,484,-3.64734,-2.07757
-378,540,-3.828,-3.2016,0,0,0,0,0,0,0,-1,846,484,-3.82798,3.20159
-371,540,-0.0177002,-4.21246,0,0,0,0,0,0,0,-1,853,484,-0.0176722,4.21247
-364,540,0.742126,-5.71033,0,0,0,0,0,0,0,-1,860,484,0.742119,5.71031
-357,540,0.956848,-6.65509,0,0,0,0,0,0,0,-1,867,484,0.956858,6.6551
-350,540,0.73645,-6.77579,0.0075978,0.00419366,0.00250898,0.00892757,0.00286389,0.487361,0.00526353,0.0309816,874,484,0.736442,6.77578
-343,540,0.779541,-6.92636,0.00445908,0.00189526,0.00280111,0.00625767,9.66613e-05,0.570802,0.00413994,0.0136159,881,484,0.779534,6.92636
-336,540,0.784912,-7.15445,0.00227869,0.000364968,0.00257669,0.00407045,-0.0014268,0.607614,0.0032939,0.0117025,888,484,0.784892,7.15444
-329,540,0.757019,-7.32999,0.000918895,-0.000673122,0.00213887,0.00240508,-0.00215931,0.607258,0.00263653,0.00954688,895,484,0.756993,7.33
-322,540,0.745911,-7.5466,-0.000230082,-0.00122281,0.00173187,0.00107515,-0.00252804,0.645836,0.00213593,0.0140041,902,484,0.745913,7.54662
-315,540,0.742798,-7.79984,-0.000651906,-0.00145006,0.00121134,0.000224406,-0.00232637,0.626273,0.00163087,0.0128112,909,484,0.74278,7.79985
-308,540,0.75769,-7.98309,-0.000287891,-0.00128021,0.000587941,-1.47334e-05,-0.00155337,0.434929,0.0010307,0.0117566,916,484,0.757678,7.98311
-301,540,0.73761,-8.15952,8.87136e-05,-0.00106306,2.16726e-05,8.91213e-05,-0.00106347,0.0188079,0.000740474,0.0110632,923,484,0.737589,8.15952
-294,540,0.732178,-8.36621,0.000414049,-0.000703609,-0.000239473,0.000463198,-0.000752758,-0.202427,0.000708636,0.010058,930,484,0.732197,8.3662
-287,540,0.744507,-8.57364,0.000725371,-0.000524747,-0.000259456,0.00077708,-0.000576457,-0.196724,0.000784322,0.00791071,937,484,0.744532,8.57365
-280,540,0.747253,-8.77332,0.00104513,-0.000480188,-8.79318e-05,0.00105019,-0.00048524,-0.0573946,0.00090626,0.00897445,944,484,0.747232,8.77331
-273,540,0.753357,-8.96234,0.0010206,-0.000556748,6.51305e-05,0.00102328,-0.000559433,0.0411977,0.00092677,0.0112883,951,484,0.753363,8.96234
-266,540,0.755005,-9.15619,0.000786431,-0.000452035,0.000324265,0.000866195,-0.000531799,0.241196,0.000814793,0.012794,958,484,0.755018,9.15619
-259,540,0.748657,-9.35693,0.000644853,-0.000473802,0.000591733,0.000899771,-0.000728719,0.406772,0.000941936,0.0124335,965,484,0.748638,9.35694
-252,540,0.762512,-9.5383,0.000555179,-0.00020283,0.000941728,0.00119131,-0.000838959,0.594087,0.00117804,0.0114885,972,484,0.762494,9.53829
-245,540,0.773987,-9.69849,0.000783108,0.00051965,0.00126561,0.00192382,-0.000621066,0.733543,0.00153212,0.0112444,979,484,0.773967,9.69849
-238,540,0.775879,-9.85281,0.00156578,0.00228718,0.00171001,0.00367412,0.000178845,0.889341,0.00239203,0.00887452,986,484,0.775863,9.85282
-231,540,0.778503,-10.024,0.00226588,0.00403936,0.00239462,0.00570615,0.000599084,0.962722,0.00362096,0.010656,993,484,0.778495,10.024
-224,540,0.785156,-10.203,0.00325932,0.00611226,0.00339802,0.00837108,0.0010005,0.984125,0.00527892,0.0156614,1000,484,0.785162,10.203
-217,540,0.709045,-10.4644,0.00474432,0.00889659,0.00448546,0.0117631,0.00187782,1.00215,0.00729711,0.026425,1007,484,0.709072,10.4644
-210,540,0.765808,-10.5797,0.00684917,0.0118016,0.00538761,0.0152548,0.00339598,1.00081,0.00924812,0.043792,1014,484,0.765826,10.5797
-203,540,0.834778,-10.7837,0.00924767,0.0154607,0.00610892,0.0192076,0.00550077,1.02062,0.0114219,0.0477264,1021,484,0.834764,10.7837
-196,540,1.04041,-10.888,0.012104,0.0192289,0.00695886,0.0234842,0.00784875,1.02197,0.0138048,0.0465623,1028,484,1.04042,10.888
-189,540,1.34717,-10.918,0.015058,0.0230069,0.00736021,0.0273972,0.0106677,1.03296,0.0159463,0.0457504,1035,484,1.34716,10.918
-182,540,1.60608,-10.996,0,0,0,0,0,0,0,-1,1042,484,1.60609,10.996
-175,540,1.73413,-10.728,0,0,0,0,0,0,0,-1,1049,484,1.73414,10.728
-168,540,1.18164,-7.65347,0,0,0,0,0,0,0,-1,1056,484,1.18163,7.65347
-161,540,-1.31653,-9.93869,0,0,0,0,0,0,0,-1,1063,484,-1.31651,9.93868
-154,540,0.81665,-10.381,0,0,0,0,0,0,0,-1,1070,484,0.816696,10.3809
-147,540,0.852905,-10.892,0,0,0,0,0,0,0,-1,1077,484,0.852844,10.892
-140,540,0.889038,-11.403,0,0,0,0,0,0,0,-1,1084,484,0.888992,11.403
-133,540,0.733276,-8.80582,0,0,0,0,0,0,0,-1,1091,484,0.733219,8.80582
-126,540,1.06201,-9.57385,0,0,0,0,0,0,0,-1,1098,484,1.06204,9.57385
-119,540,6.18579,-10.4846,0,0,0,0,0,0,0,-1,1105,484,6.18582,10.4846
-112,540,5.8468,-9.65106,0,0,0,0,0,0,0,-1,1112,484,5.84681,9.65106
-105,540,5.50781,-8.81754,0,0,0,0,0,0,0,-1,1119,484,5.5078,8.81753
-98,540,0.73877,-3.08093,0,0,0,0,0,0,0,-1,1126,484,0.738754,3.08092
-91,540,1.56519,-7.48666,0,0,0,0,0,0,0,-1,1133,484,1.56514,7.48667
-84,540,-0.945923,4.43073,0,0,0,0,0,0,0,-1,1140,484,-0.945891,-4.43074
-77,540,-2.28894,2.14368,0,0,0,0,0,0,0,-1,1147,484,-2.28894,-2.14368
-70,540,-3.75244,-0.452576,0,0,0,0,0,0,0,-1,1154,484,-3.75244,0.452576
-63,540,-5.26257,-3.04767,0,0,0,0,0,0,0,-1,1161,484,-5.26262,3.04766
-56,540,-5.19055,-6.12595,0,0,0,0,0,0,0,-1,1168,484,-5.19057,6.12595
-49,540,-5.63867,-8.52298,0,0,0,0,0,0,0,-1,1175,484,-5.63871,8.52298
-42,540,0,0,0,0,0,0,0,0,0,-1,1182,484,0,0
-35,540,0,0,0,0,0,0,0,0,0,-1,1189,484,0,0
-28,540,0,0,0,0,0,0,0,0,0,-1,1196,484,0,0
-21,540,0,0,0,0,0,0,0,0,0,-1,1203,484,0,0
-14,540,0,0,0,0,0,0,0,0,0,-1,1210,484,0,0
-7,540,0,0,0,0,0,0,0,0,0,-1,1217,484,0,0
0,540,0,0,0,0,0,0,0,0,0,-1,1224,484,0,0
7,540,0,0,0,0,0,0,0,0,0,-1,1231,484,0,0
14,540,0,0,0,0,0,0,0,0,0,-1,1238,484,0,0
21,540,0,0,0,0,0,0,0,0,0,-1,1245,484,0,0
28,540,0,0,0,0,0,0,0,0,0,-1,1252,484,0,0
35,540,0,0,0,0,0,0,0,0,0,-1,1259,484,0,0
42,540,0,0,0,0,0,0,0,0,0,-1,1266,484,0,0
49,540,0,0,0,0,0,0,0,0,0,-1,1273,484,0,0
56,540,0,0,0,0,0,0,0,0,0,-1,1280,484,0,0
63,540,0,0,0,0,0,0,0,0,0,-1,1287,484,0,0
70,540,0,0,0,0,0,0,0,0,0,-1,1294,484,0,0
77,540,0,0,0,0,0,0,0,0,0,-1,1301,484,0,0
84,540,0,0,0,0,0,0,0,0,0,-1,1308,484,0,0
91,540,0,0,0,0,0,0,0,0,0,-1,1315,484,0,0
98,540,0,0,0,0,0,0,0,0,0,-1,1322,484,0,0
105,540,0,0,0,0,0,0,0,0,0,-1,1329,484,0,0
112,540,0,0,0,0,0,0,0,0,0,-1,1336,484,0,0
119,540,0,0,0,0,0,0,0,0,0,-1,1343,484,0,0
126,540,0,0,0,0,0,0,0,0,0,-1,1350,484,0,0
133,540,0,0,0,0,0,0,0,0,0,-1,1357,484,0,0
140,540,0,0,0,0,0,0,0,0,0,-1,1364,484,0,0
147,540,0,0,0,0,0,0,0,0,0,-1,1371,484,0,0
154,540,0,0,0,0,0,0,0,0,0,-1,1378,484,0,0
161,540,0,0,0,0,0,0,0,0,0,-1,1385,484,0,0
168,540,3.05078,-0.0010376,0,0,0,0,0,0,0,-1,1392,484,3.05084,0.00102554
175,540,3.37708,0.617035,0,0,0,0,0,0,0,-1,1399,484,3.37707,-0.617046
182,540,3.32678,1.23267,0,0,0,0,0,0,0,-1,1406,484,3.32678,-1.23266
189,540,3.5813,2.15619,0,0,0,0,0,0,0,-1,1413,484,3.58129,-2.1562
196,540,1.84448,-0.801483,0,0,0,0,0,0,0,-1,1420,484,1.84446,0.80148
203,540,4.14648,0.702087,0,0,0,0,0,0,0,-1,1427,484,4.14645,-0.702089
210,540,4.50671,-0.56076,0,0,0,0,0,0,0,-1,1434,484,4.50667,0.560771
217,540,5.00452,-0.278717,0,0,0,0,0,0,0,-1,1441,484,5.00452,0.278709
224,540,6.44458,-2.83527,0,0,0,0,0,0,0,-1,1448,484,6.44457,2.83525
231,540,6.9231,-3.10504,0,0,0,0,0,0,0,-1,1455,484,6.92307,3.10505
238,540,6.4823,-2.58365,0,0,0,0,0,0,0,-1,1462,484,6.48225,2.58363
245,540,6.02087,-1.97916,0,0,0,0,0,0,0,-1,1469,484,6.02088,1.97915
252,540,6.50647,-3.56006,0,0,0,0,0,0,0,-1,1476,484,6.50649,3.56006
259,540,6.01941,-2.798,0,0,0,0,0,0,0,-1,1483,484,6.01941,2.79801
266,540,5.5332,-2.02853,0,0,0,0,0,0,0,-1,1490,484,5.53323,2.02855
273,540,5.06787,-1.28137,0,0,0,0,0,0,0,-1,1497,484,5.06786,1.28136
280,540,1.62903,-2.14609,0,0,0,0,0,0,0,-1,1504,484,1.62906,2.1461
287,540,1.97156,-2.45053,0,0,0,0,0,0,0,-1,1511,484,1.97159,2.45053
294,540,2.44165,-2.6185,0,0,0,0,0,0,0,-1,1518,484,2.44167,2.6185
301,540,4.36169,-2.54272,0,0,0,0,0,0,0,-1,1525,484,4.36165,2.54272
308,540,4.2019,-4.30469,0,0,0,0,0,0,0,-1,1532,484,4.20193,4.3047
315,540,4.45923,-5.32101,0,0,0,0,0,0,0,-1,1539,484,4.45923,5.32103
322,540,4.71655,-6.33737,0,0,0,0,0,0,0,-1,1546,484,4.71653,6.33736
329,540,4.97974,-9.45551,0,0,0,0,0,0,0,-1,1553,484,4.97971,9.45549
336,540,4.77405,-9.65942,0,0,0,0,0,0,0,-1,1560,484,4.774,9.65942
343,540,4.80835,-9.59952,0,0,0,0,0,0,0,-1,1567,484,4.80841,9.59951
350,540,4.82617,-9.42447,0,0,0,0,0,0,0,-1,1574,484,4.8262,9.42447
357,540,4.93958,-8.88376,-0.00468873,-0.00758767,-0.00603745,7.08085e-05,-0.0123472,-0.667588,0.00825517,0.0396035,1581,484,4.93963,8.88377
364,540,4.77893,-8.81003,-0.00413968,-0.00726953,-0.00539798,-8.43578e-05,-0.0113249,-0.644312,0.00752194,0.0223043,1588,484,4.77895,8.81004
371,540,4.76965,-8.64627,-0.00363034,-0.00676778,-0.004775,-0.000172975,-0.0102251,-0.626689,0.00675984,0.0149799,1595,484,4.76971,8.64626
378,540,4.80139,-8.43918,-0.00305536,-0.00597282,-0.00406492,-0.000195352,-0.00883283,-0.613126,0.00582453,0.0118028,1602,484,4.80144,8.43919
385,540,4.81104,-8.2493,-0.00264772,-0.00520756,-0.00352451,-0.000177925,-0.00767735,-0.611228,0.00505997,0.014083,1609,484,4.81107,8.24929
392,540,4.79541,-8.03778,-0.00230623,-0.00442458,-0.00301394,-0.000170766,-0.00656004,-0.616426,0.00431756,0.0131538,1616,484,4.79536,8.03778
399,540,4.78186,-7.82959,-0.00189267,-0.00370211,-0.00253362,-0.000107078,-0.0054877,-0.613912,0.0036233,0.0170351,1623,484,4.78188,7.82959
406,540,4.82336,-7.61865,-0.00146757,-0.00297654,-0.00203885,-4.80819e-05,-0.00439603,-0.608184,0.00291479,0.0178066,1630,484,4.82332,7.61865
413,540,4.82312,-7.38425,-0.00102579,-0.00217945,-0.00150247,6.77141e-06,-0.00321201,-0.602114,0.0021436,0.0130727,1637,484,4.82313,7.38426
420,540,4.82153,-7.15848,-0.000571323,-0.00156889,-0.00111779,0.000153922,-0.00229414,-0.575544,0.00158323,0.011326,1644,484,4.82158,7.15847
427,540,4.81567,-6.95361,-0.000183984,-0.00118746,-0.000950046,0.000388674,-0.00176012,-0.542453,0.00132215,0.012271,1651,484,4.81562,6.9536
434,540,4.78967,-6.74799,0.000173351,-0.000930535,-0.000787463,0.000583042,-0.00134023,-0.479729,0.00113872,0.0147905,1658,484,4.78969,6.74797
441,540,4.81604,-6.49796,0.000579474,-0.00076095,-0.000726012,0.00089733,-0.00107881,-0.412671,0.00114253,0.0182858,1665,484,4.81602,6.49796
448,540,4.81702,-6.28967,0.000960901,-0.000720204,-0.000726014,0.00123103,-0.000990338,-0.356207,0.00128502,0.0118859,1672,484,4.81704,6.28969
455,540,4.80029,-6.04727,0.00132187,-0.000792455,-0.00091032,0.0016598,-0.00113038,-0.355451,0.00162055,0.0103236,1679,484,4.80027,6.04727
462,540,4.77283,-5.80136,0.00174979,-0.00104284,-0.00131373,0.00227066,-0.00156371,-0.377467,0.00222628,0.00968221,1686,484,4.77277,5.80135
469,540,4.76001,-5.58942,0.00215148,-0.00152484,-0.00186435,0.00293145,-0.00230481,-0.396236,0.00303036,0.0130241,1693,484,4.75999,5.58942
476,540,4.76086,-5.42587,0.00240599,-0.00203398,-0.0025724,0.00358388,-0.00321187,-0.429401,0.00392549,0.0216528,1700,484,4.76082,5.42586
483,540,4.83667,-5.22766,0.00258356,-0.00244089,-0.00343703,0.00432861,-0.00418595,-0.469807,0.00491611,0.0365348,1707,484,4.83667,5.22765
490,540,5.02881,-4.94766,0,0,0,0,0,0,0,-1,1714,484,5.0288,4.94765
497,540,4.27393,-2.67752,0,0,0,0,0,0,0,-1,1721,484,4.27395,2.67751
504,540,4.74207,-4.03241,0,0,0,0,0,0,0,-1,1728,484,4.74201,4.0324
511,540,4.91089,-3.47696,0,0,0,0,0,0,0,-1,1735,484,4.91087,3.47697
518,540,4.854,-3.87787,0,0,0,0,0,0,0,-1,1742,484,4.85401,3.87788
525,540,6.24841,-3.39841,0,0,0,0,0,0,0,-1,1749,484,6.24847,3.39839
532,540,2.84265,-1.07925,0,0,0,0,0,0,0,-1,1756,484,2.84269,1.07927
539,540,0,0,0,0,0,0,0,0,0,-1,1763,484,0,0
546,540,0,0,0,0,0,0,0,0,0,-1,1770,484,0,0
553,540,0,0,0,0,0,0,0,0,0,-1,1777,484,0,0
560,540,0,0,0,0,0,0,0,0,0,-1,1784,484,0,0
567,540,0,0,0,0,0,0,0,0,0,-1,1791,484,0,0
574,540,0,0,0,0,0,0,0,0,0,-1,1798,484,0,0
581,540,0,0,0,0,0,0,0,0,0,-1,1805,484,0,0
588,540,0,0,0,0,0,0,0,0,0,-1,1812,484,0,0
595,540,0,0,0,0,0,0,0,0,0,-1,1819,484,0,0
602,540,0,0,0,0,0,0,0,0,0,-1,1826,484,0,0
609,540,0,0,0,0,0,0,0,0,0,-1,1833,484,0,0
616,540,0,0,0,0,0,0,0,0,0,-1,1840,484,0,0
623,540,0,0,0,0,0,0,0,0,0,-1,1847,484,0,0
630,540,0,0,0,0,0,0,0,0,0,-1,1854,484,0,0
637,540,0,0,0,0,0,0,0,0,0,-1,1861,484,0,0
644,540,0,0,0,0,0,0,0,0,0,-1,1868,484,0,0
651,540,0,0,0,0,0,0,0,0,0,-1,1875,484,0,0
658,540,0,0,0,0,0,0,0,0,0,-1,1882,484,0,0
665,540,0,0,0,0,0,0,0,0,0,-1,1889,484,0,0
672,540,0,0,0,0,0,0,0,0,0,-1,1896,484,0,0
679,540,0,0,0,0,0,0,0,0,0,-1,1903,484,0,0
686,540,0,0,0,0,0,0,0,0,0,-1,1910,484,0,0
693,540,0,0,0,0,0,0,0,0,0,-1,1917,484,0,0
700,540,0,0,0,0,0,0,0,0,0,-1,1924,484,0,0
707,540,0,0,0,0,0,0,0,0,0,-1,1931,484,0,0
714,540,0,0,0,0,0,0,0,0,0,-1,1938,484,0,0
721,540,0,0,0,0,0,0,0,0,0,-1,1945,484,0,0
728,540,0,0,0,0,0,0,0,0,0,-1,1952,484,0,0
735,540,0,0,0,0,0,0,0,0,0,-1,1959,484,0,0
742,540,0,0,0,0,0,0,0,0,0,-1,1966,484,0,0
749,540,0,0,0,0,0,0,0,0,0,-1,1973,484,0,0
756,540,0,0,0,0,0,0,0,0,0,-1,1980,484,0,0
763,540,0,0,0,0,0,0,0,0,0,-1,1987,484,0,0
770,540,0,0,0,0,0,0,0,0,0,-1,1994,484,0,0
777,540,0,0,0,0,0,0,0,0,0,-1,2001,484,0,0
784,540,0,0,0,0,0,0,0,0,0,-1,2008,484,0,0
791,540,0,0,0,0,0,0,0,0,0,-1,2015,484,0,0
798,540,0,0,0,0,0,0,0,0,0,-1,2022,484,0,0
805,540,0,0,0,0,0,0,0,0,0,-1,2029,484,0,0
812,540,0,0,0,0,0,0,0,0,0,-1,2036,484,0,0
-700,533,0,0,0,0,0,0,0,0,0,-1,524,491,0,0
-693,533,0,0,0,0,0,0,0,0,0,-1,531,491,0,0
-686,533,0,0,0,0,0,0,0,0,0,-1,538,491,0,0
-679,533,0,0,0,0,0,0,0,0,0,-1,545,491,0,0
-672,533,0,0,0,0,0,0,0,0,0,-1,552,491,0,0
-665,533,0,0,0,0,0,0,0,0,0,-1,559,491,0,0
-658,533,0,0,0,0,0,0,0,0,0,-1,566,491,0,0
-651,533,0,0,0,0,0,0,0,0,0,-1,573,491,0,0
-644,533,0,0,0,0,0,0,0,0,0,-1,580,491,0,0
-637,533,0,0,0,0,0,0,0,0,0,-1,587,491,0,0
-630,533,0,0,0,0,0,0,0,0,0,-1,594,491,0,0
-623,533,0,0,0,0,0,0,0,0,0,-1,601,491,0,0
-616,533,0,0,0,0,0,0,0,0,0,-1,608,491,0,0
-609,533,0,0,0,0,0,0,0,0,0,-1,615,491,0,0
-602,533,0,0,0,0,0,0,0,0,0,-1,622,491,0,0
-595,533,0,0,0,0,0,0,0,0,0,-1,629,491,0,0
-588,533,0,0,0,0,0,0,0,0,0,-1,636,491,0,0
-581,533,0,0,0,0,0,0,0,0,0,-1,643,491,0,0
-574,533,0,0,0,0,0,0,0,0,0,-1,650,491,0,0
-567,533,0,0,0,0,0,0,0,0,0,-1,657,491,0,0
-560,533,0,0,0,0,0,0,0,0,0,-1,664,491,0,0
-553,533,0,0,0,0,0,0,0,0,0,-1,671,491,0,0
-546,533,0,0,0,0,0,0,0,0,0,-1,678,491,0,0
-539,533,0,0,0,0,0,0,0,0,0,-1,685,491,0,0
-532,533,0,0,0,0,0,0,0,0,0,-1,692,491,0,0
-525,533,0,0,0,0,0,0,0,0,0,-1,699,491,0,0
-518,533,0,0,0,0,0,0,0,0,0,-1,706,491,0,0
-511,533,0,0,0,0,0,0,0,0,0,-1,713,491,0,0
-504,533,0,0,0,0,0,0,0,0,0,-1,720,491,0,0
-497,533,0,0,0,0,0,0,0,0,0,-1,727,491,0,0
-490,533,0,0,0,0,0,0,0,0,0,-1,734,491,0,0
-483,533,0,0,0,0,0,0,0,0,0,-1,741,491,0,0
-476,533,0,0,0,0,0,0,0,0,0,-1,748,491,0,0
-469,533,0,0,0,0,0,0,0,0,0,-1,755,491,0,0
-462,533,0,0,0,0,0,0,0,0,0,-1,762,491,0,0
-455,533,0,0,0,0,0,0,0,0,0,-1,769,491,0,0
-448,533,0,0,0,0,0,0,0,0,0,-1,776,491,0,0
-441,533,0,0,0,0,0,0,0,0,0,-1,783,491,0,0
-434,533,0,0,0,0,0,0,0,0,0,-1,790,491,0,0
-427,533,-1.82031,-0.947235,0,0,0,0,0,0,0,-1,797,491,-1.82033,0.947223
-420,533,-2.23145,-1.00183,0,0,0,0,0,0,0,-1,804,491,-2.23147,1.00182
-413,533,-2.5105,-1.17044,0,0,0,0,0,0,0,-1,811,491,-2.51047,1.17043
-406,533,-2.77142,-1.09973,0,0,0,0,0,0,0,-1,818,491,-2.77141,1.09973
-399,533,-2.93634,-1.02002,0,0,0,0,0,0,0,-1,825,491,-2.93633,1.02003
-392,533,-3.13538,-0.855316,0,0,0,0,0,0,0,-1,832,491,-3.1354,0.855305
-385,533,0.109924,-4.41916,0,0,0,0,0,0,0,-1,839,491,0.109918,4.41915
-378,533,-0.761414,-5.15549,0,0,0,0,0,0,0,-1,846,491,-0.761387,5.15549
-371,533,0.594849,-5.36398,0,0,0,0,0,0,0,-1,853,491,0.59487,5.36398
-364,533,0.627319,-5.99579,0.0124423,0.00806094,-0.00085904,0.0126047,0.00789853,-0.186853,0.00735473,0.0414476,860,491,0.627303,5.99578
-357,533,0.62207,-6.5491,0.00855867,0.00531993,0.000670654,0.00869206,0.00518655,0.19632,0.00504955,0.0273769,867,491,0.622057,6.54909
-350,533,0.589783,-6.69635,0.00555829,0.00309744,0.00148237,0.00625436,0.00240138,0.439003,0.00364323,0.0119127,874,491,0.5898,6.69635
-343,533,0.61969,-6.92825,0.00330641,0.00139729,0.00179729,0.0043869,0.000316805,0.541285,0.00282493,0.0103172,881,491,0.619708,6.92826
-336,533,0.581665,-7.14999,0.00171236,0.000260536,0.00171395,0.00284779,-0.000874893,0.585086,0.00224765,0.0147907,888,491,0.58164,7.15
-329,533,0.556335,-7.34988,0.000731831,-0.000492242,0.00146591,0.00170834,-0.00146876,0.587642,0.00183604,0.0141329,895,491,0.556306,7.34989
-322,533,0.556213,-7.53867,-3.75864e-05,-0.000873885,0.0011708,0.000787494,-0.00169897,0.613884,0.00146736,0.011493,902,491,0.556193,7.53866
-315,533,0.547668,-7.793,-0.000269991,-0.000942459,0.000797867,0.000259595,-0.00147205,0.585982,0.00107836,0.0123634,909,491,0.547674,7.793
-308,533,0.558838,-7.9892,8.22767e-05,-0.000799298,0.000374877,0.000220131,-0.000937153,0.352384,0.00070962,0.0117053,916,491,0.55884,7.98919
-301,533,0.538025,-8.17172,0.000480914,-0.000573899,1.44666e-05,0.000481112,-0.000574097,0.0137114,0.000610014,0.0123266,923,491,0.538034,8.17173
-294,533,0.548462,-8.37021,0.000855408,-0.00034174,-8.31192e-05,0.000861151,-0.000347484,-0.0689898,0.000718505,0.0109035,930,491,0.548433,8.3702
-287,533,0.562012,-8.56995,0.00115594,-0.00035559,3.27026e-06,0.00115594,-0.000355597,0.00216354,0.000912556,0.0087698,937,491,0.562042,8.56995
-280,533,0.561646,-8.76779,0.00148405,-0.000443603,0.000217427,0.00150827,-0.000467823,0.110937,0.00119245,0.00841888,944,491,0.561628,8.7678
-273,533,0.550293,-8.96573,0.00140141,-0.000671426,0.000387511,0.00147149,-0.000741501,0.178901,0.00130063,0.0117228,951,491,0.550301,8.96572
-266,533,0.557739,-9.15045,0.00110231,-0.000637216,0.000662849,0.0013261,-0.000861005,0.325601,0.00127221,0.011487,958,491,0.557766,9.15046
-259,533,0.567688,-9.34201,0.000937028,-0.00076386,0.000924043,0.00134241,-0.00116925,0.413425,0.00145126,0.0117571,965,491,0.567683,9.342
-252,533,0.580994,-9.52054,0.000748603,-0.0004434,0.00133642,0.0016159,-0.0013107,0.57565,0.00169273,0.0131328,972,491,0.580979,9.52054
-245,533,0.651184,-9.67383,0.00092298,0.000539284,0.00169363,0.0024356,-0.000973333,0.729001,0.0020276,0.0176469,979,491,0.651166,9.67383
-238,533,0.627991,-9.75458,0.00174599,0.00284617,0.0022016,0.00456536,2.68039e-05,0.907821,0.00303468,0.0200657,986,491,0.627988,9.75458
-231,533,0.639526,-10.0302,0,0,0,0,0,0,0,-1,993,491,0.639517,10.0302
-224,533,0.573669,-10.196,0.00342379,0.00806898,0.00416454,0.0105148,0.000977963,1.03977,0.00670769,0.0371806,1000,491,0.573644,10.196
-217,533,0.317932,-10.6459,0.00512445,0.0121125,0.00546437,0.0151044,0.00213252,1.06985,0.00943941,0.0442683,1007,491,0.317953,10.6459
-210,533,0.543396,-10.637,0,0,0,0,0,0,0,-1,1014,491,0.543408,10.637
-203,533,0.553711,-11.1061,0,0,0,0,0,0,0,-1,1021,491,0.5537,11.1061
-196,533,0.665649,-11.4052,0,0,0,0,0,0,0,-1,1028,491,0.665613,11.4052
-189,533,0.963623,-11.4574,0,0,0,0,0,0,0,-1,1035,491,0.963591,11.4574
-182,533,1.26123,-11.4969,0,0,0,0,0,0,0,-1,1042,491,1.26128,11.4969
-175,533,0.937744,-7.36966,0,0,0,0,0,0,0,-1,1049,491,0.937769,7.36965
-168,533,2.64807,-2.7543,0,0,0,0,0,0,0,-1,1056,491,2.64812,2.7543
-161,533,1.91833,-1.76553,0,0,0,0,0,0,0,-1,1063,491,1.91836,1.76554
-154,533,-1.24805,-5.92294,0,0,0,0,0,0,0,-1,1070,491,-1.24806,5.92295
-147,533,0.212036,-10.6896,0,0,0,0,0,0,0,-1,1077,491,0.212037,10.6896
-140,533,0.481812,-8.27359,0,0,0,0,0,0,0,-1,1084,491,0.481827,8.2736
-133,533,1.23474,-8.92532,0,0,0,0,0,0,0,-1,1091,491,1.2347,8.92532
-126,533,2.89612,-2.59003,0,0,0,0,0,0,0,-1,1098,491,2.89608,2.59003
-119,533,3.00842,-12.8239,0,0,0,0,0,0,0,-1,1105,491,3.00841,12.8239
-112,533,7.05884,-10.21,0,0,0,0,0,0,0,-1,1112,491,7.0588,10.21
-105,533,3.84839,1.12769,0,0,0,0,0,0,0,-1,1119,491,3.84843,-1.12769
-98,533,-1.39392,-5.16367,0,0,0,0,0,0,0,-1,1126,491,-1.39394,5.16367
-91,533,0.367432,4.49753,0,0,0,0,0,0,0,-1,1133,491,0.367468,-4.49754
-84,533,-0.88623,3.03604,0,0,0,0,0,0,0,-1,1140,491,-0.886288,-3.03605
-77,533,0,0,0,0,0,0,0,0,0,-1,1147,491,0,0
-70,533,0,0,0,0,0,0,0,0,0,-1,1154,491,0,0
-63,533,0,0,0,0,0,0,0,0,0,-1,1161,491,0,0
-56,533,0,0,0,0,0,0,0,0,0,-1,1168,491,0,0
-49,533,0,0,0,0,0,0,0,0,0,-1,1175,491,0,0
-42,533,0,0,0,0,0,0,0,0,0,-1,1182,491,0,0
-35,533,0,0,0,0,0,0,0,0,0,-1,1189,491,0,0
-28,533,0,0,0,0,0,0,0,0,0,-1,1196,491,0,0
-21,533,0,0,0,0,0,0,0,0,0,-1,1203,491,0,0
-14,533,0,0,0,0,0,0,0,0,0,-1,1210,491,0,0
-7,533,0,0,0,0,0,0,0,0,0,-1,1217,491,0,0
0,533,0,0,0,0,0,0,0,0,0,-1,1224,491,0,0
7,533,0,0,0,0,0,0,0,0,0,-1,1231,491,0,0
14,533,0,0,0,0,0,0,0,0,0,-1,1238,491,0,0
21,533,0,0,0,0,0,0,0,0,0,-1,1245,491,0,0
28,533,0,0,0,0,0,0,0,0,0,-1,1252,491,0,0
35,533,0,0,0,0,0,0,0,0,0,-1,1259,491,0,0
42,533,0,0,0,0,0,0,0,0,0,-1,1266,491,0,0
49,533,0,0,0,0,0,0,0,0,0,-1,1273,491,0,0
56,533,0,0,0,0,0,0,0,0,0,-1,1280,491,0,0
63,533,0,0,0,0,0,0,0,0,0,-1,1287,491,0,0
70,533,0,0,0,0,0,0,0,0,0,-1,1294,491,0,0
77,533,0,0,0,0,0,0,0,0,0,-1,1301,491,0,0
84,533,0,0,0,0,0,0,0,0,0,-1,1308,491,0,0
91,533,0,0,0,0,0,0,0,0,0,-1,1315,491,0,0
98,533,0,0,0,0,0,0,0,0,0,-1,1322,491,0,0
105,533,0,0,0,0,0,0,0,0,0,-1,1329,491,0,0
112,533,0,0,0,0,0,0,0,0,0,-1,1336,491,0,0
119,533,0,0,0,0,0,0,0,0,0,-1,1343,491,0,0
126,533,0,0,0,0,0,0,0,0,0,-1,1350,491,0,0
133,533,0,0,0,0,0,0,0,0,0,-1,1357,491,0,0
140,533,0,0,0,0,0,0,0,0,0,-1,1364,491,0,0
147,533,0,0,0,0,0,0,0,0,0,-1,1371,491,0,0
154,533,0,0,0,0,0,0,0,0,0,-1,1378,491,0,0
161,533,0,0,0,0,0,0,0,0,0,-1,1385,491,0,0
168,533,0,0,0,0,0,0,0,0,0,-1,1392,491,0,0
175,533,0,0,0,0,0,0,0,0,0,-1,1399,491,0,0
182,533,0,0,0,0,0,0,0,0,0,-1,1406,491,0,0
189,533,0,0,0,0,0,0,0,0,0,-1,1413,491,0,0
196,533,0,0,0,0,0,0,0,0,0,-1,1420,491,0,0
203,533,3.7887,1.16193,0,0,0,0,0,0,0,-1,1427,491,3.78872,-1.16193
210,533,5.09558,-0.216034,0,0,0,0,0,0,0,-1,1434,491,5.09559,0.216028
217,533,6.91614,-2.46814,0,0,0,0,0,0,0,-1,1441,491,6.91618,2.46814
224,533,7.23621,-2.1857,0,0,0,0,0,0,0,-1,1448,491,7.23621,2.1857
231,533,7.23474,-1.92282,0,0,0,0,0,0,0,-1,1455,491,7.2347,1.92282
238,533,7.23535,-1.67258,0,0,0,0,0,0,0,-1,1462,491,7.23539,1.67258
245,533,6.86682,-1.2301,0,0,0,0,0,0,0,-1,1469,491,6.86686,1.23011
252,533,6.63354,-3.07825,0,0,0,0,0,0,0,-1,1476,491,6.6335,3.07824
259,533,6.16431,-2.35037,0,0,0,0,0,0,0,-1,1483,491,6.1643,2.35037
266,533,5.68884,-1.6214,0,0,0,0,0,0,0,-1,1490,491,5.68885,1.6214
273,533,5.21399,-0.864227,0,0,0,0,0,0,0,-1,1497,491,5.21403,0.864227
280,533,1.41089,-1.97946,0,0,0,0,0,0,0,-1,1504,491,1.41087,1.97946
287,533,1.6814,-2.44443,0,0,0,0,0,0,0,-1,1511,491,1.6814,2.44444
294,533,2.2384,-2.57626,0,0,0,0,0,0,0,-1,1518,491,2.23839,2.57625
301,533,3.39941,-4.0817,0,0,0,0,0,0,0,-1,1525,491,3.3994,4.08171
308,533,4.13733,-4.14752,0,0,0,0,0,0,0,-1,1532,491,4.13727,4.14752
315,533,4.80762,-5.29349,0,0,0,0,0,0,0,-1,1539,491,4.80762,5.29347
322,533,5.47803,-6.43942,0,0,0,0,0,0,0,-1,1546,491,5.47798,6.43943
329,533,3.88477,-3.86301,0,0,0,0,0,0,0,-1,1553,491,3.88475,3.86299
336,533,5.12036,-9.38559,0,0,0,0,0,0,0,-1,1560,491,5.12036,9.38559
343,533,5.87952,-6.38858,0,0,0,0,0,0,0,-1,1567,491,5.87953,6.38857
350,533,5.62915,-8.02426,0,0,0,0,0,0,0,-1,1574,491,5.6291,8.02426
357,533,5.24756,-8.68027,0,0,0,0,0,0,0,-1,1581,491,5.24757,8.68028
364,533,5.15527,-8.71167,-0.00620532,-0.0108471,-0.00749671,-0.000678445,-0.0163739,-0.635284,0.010697,0.0437149,1588,491,5.15533,8.71167
371,533,4.91333,-8.65256,-0.00540484,-0.00998602,-0.00668623,-0.000627723,-0.0147631,-0.620372,0.00963967,0.0350897,1595,491,4.91329,8.65254
378,533,4.93713,-8.41833,-0.00454624,-0.00879832,-0.00578088,-0.00051284,-0.0128317,-0.609189,0.00838875,0.0252401,1602,491,4.93719,8.41833
385,533,5.01208,-8.20764,-0.00394979,-0.00763206,-0.00507366,-0.00039354,-0.0111883,-0.611346,0.00733121,0.0230122,1609,491,5.01214,8.20763
392,533,5.00061,-8.05164,-0.00348098,-0.00642804,-0.00439793,-0.000316289,-0.00959273,-0.62375,0.00629237,0.0147898,1616,491,5.00064,8.05163
399,533,5.005,-7.86237,-0.0029162,-0.00531601,-0.00375855,-0.00017067,-0.00806154,-0.630888,0.00531838,0.0129975,1623,491,5.00502,7.86238
406,533,5.03052,-7.63962,-0.00233273,-0.00422657,-0.00313053,-9.04058e-06,-0.00655025,-0.638533,0.00436382,0.0152389,1630,491,5.03058,7.63963
413,533,5.02295,-7.38351,-0.00173521,-0.00309685,-0.00243879,0.000116011,-0.00494807,-0.649283,0.00333806,0.0124777,1637,491,5.02294,7.38351
420,533,5.01379,-7.14951,-0.00115651,-0.00222259,-0.00182555,0.000212231,-0.00359133,-0.643353,0.00246801,0.0109998,1644,491,5.01382,7.1495
427,533,5.04089,-6.93112,-0.000711629,-0.00161328,-0.00143503,0.000341722,-0.00266663,-0.6332,0.00190192,0.0123666,1651,491,5.04092,6.93112
434,533,5.02014,-6.72418,-0.000308153,-0.00117426,-0.0010964,0.000437618,-0.00192003,-0.597314,0.0014481,0.0132071,1658,491,5.02011,6.72417
441,533,5.03662,-6.48856,0.0001426,-0.000829745,-0.000853304,0.000638513,-0.00132566,-0.526457,0.00115691,0.0153277,1665,491,5.03661,6.48856
448,533,5.05042,-6.28311,0.000565016,-0.000704105,-0.000642039,0.000833163,-0.000972252,-0.395628,0.00104339,0.0157939,1672,491,5.05036,6.28312
455,533,5.01648,-6.05438,0.000964463,-0.000717408,-0.000589354,0.00115042,-0.000903366,-0.305642,0.00118861,0.0151709,1679,491,5.01646,6.05439
462,533,4.99683,-5.789,0.00139646,-0.000968227,-0.00077911,0.00163008,-0.00120185,-0.291322,0.00164123,0.0136839,1686,491,4.99679,5.789
469,533,5.00842,-5.5737,0.0017668,-0.00149047,-0.00111566,0.00211229,-0.00183595,-0.300304,0.00228138,0.00910168,1693,491,5.00845,5.57369
476,533,5.02026,-5.33167,0.00196239,-0.00202228,-0.00157629,0.00251055,-0.00257044,-0.33467,0.00293358,0.0112885,1700,491,5.02029,5.33165
483,533,5.04358,-5.08276,0.00207508,-0.00239572,-0.0021512,0.00294204,-0.00326269,-0.383102,0.00358389,0.0194288,1707,491,5.04353,5.08276
490,533,5.10632,-5.0029,0.00202909,-0.00312267,-0.00297473,0.00338821,-0.00448179,-0.428566,0.00455834,0.0430492,1714,491,5.10637,5.00288
497,533,5.21399,-4.9346,0,0,0,0,0,0,0,-1,1721,491,5.21393,4.93461
504,533,4.87292,-4.2262,0,0,0,0,0,0,0,-1,1728,491,4.87299,4.22618
511,533,5.11353,-3.76663,0,0,0,0,0,0,0,-1,1735,491,5.11349,3.76663
518,533,5.06519,-3.09314,0,0,0,0,0,0,0,-1,1742,491,5.06514,3.09315
525,533,5.00793,-3.79895,0,0,0,0,0,0,0,-1,1749,491,5.00799,3.79896
532,533,3.24243,0.0737,0,0,0,0,0,0,0,-1,1756,491,3.24239,-0.0737072
539,533,3.61609,1.62427,0,0,0,0,0,0,0,-1,1763,491,3.61606,-1.62426
546,533,3.59607,1.65799,0,0,0,0,0,0,0,-1,1770,491,3.59605,-1.658
553,533,0,0,0,0,0,0,0,0,0,-1,1777,491,0,0
560,533,0,0,0,0,0,0,0,0,0,-1,1784,491,0,0
567,533,0,0,0,0,0,0,0,0,0,-1,1791,491,0,0
574,533,0,0,0,0,0,0,0,0,0,-1,1798,491,0,0
581,533,0,0,0,0,0,0,0,0,0,-1,1805,491,0,0
588,533,0,0,0,0,0,0,0,0,0,-1,1812,491,0,0
595,533,0,0,0,0,0,0,0,0,0,-1,1819,491,0,0
602,533,0,0,0,0,0,0,0,0,0,-1,1826,491,0,0
609,533,0,0,0,0,0,0,0,0,0,-1,1833,491,0,0
616,533,0,0,0,0,0,0,0,0,0,-1,1840,491,0,0
623,533,0,0,0,0,0,0,0,0,0,-1,1847,491,0,0
630,533,0,0,0,0,0,0,0,0,0,-1,1854,491,0,0
637,533,0,0,0,0,0,0,0,0,0,-1,1861,491,0,0
644,533,0,0,0,0,0,0,0,0,0,-1,1868,491,0,0
651,533,0,0,0,0,0,0,0,0,0,-1,1875,491,0,0
658,533,0,0,0,0,0,0,0,0,0,-1,1882,491,0,0
665,533,0,0,0,0,0,0,0,0,0,-1,1889,491,0,0
672,533,0,0,0,0,0,0,0,0,0,-1,1896,491,0,0
679,533,0,0,0,0,0,0,0,0,0,-1,1903,491,0,0
686,533,0,0,0,0,0,0,0,0,0,-1,1910,491,0,0
693,533,0,0,0,0,0,0,0,0,0,-1,1917,491,0,0
700,533,0,0,0,0,0,0,0,0,0,-1,1924,491,0,0
707,533,0,0,0,0,0,0,0,0,0,-1,1931,491,0,0
714,533,0,0,0,0,0,0,0,0,0,-1,1938,491,0,0
721,533,0,0,0,0,0,0,0,0,0,-1,1945,491,0,0
728,533,0,0,0,0,0,0,0,0,0,-1,1952,491,0,0
735,533,0,0,0,0,0,0,0,0,0,-1,1959,491,0,0
742,533,0,0,0,0,0,0,0,0,0,-1,1966,491,0,0
749,533,0,0,0,0,0,0,0,0,0,-1,1973,491,0,0
756,533,0,0,0,0,0,0,0,0,0,-1,1980,491,0,0
763,533,0,0,0,0,0,0,0,0,0,-1,1987,491,0,0
770,533,0,0,0,0,0,0,0,0,0,-1,1994,491,0,0
777,533,0,0,0,0,0,0,0,0,0,-1,2001,491,0,0
784,533,0,0,0,0,0,0,0,0,0,-1,2008,491,0,0
791,533,0,0,0,0,0,0,0,0,0,-1,2015,491,0,0
798,533,0,0,0,0,0,0,0,0,0,-1,2022,491,0,0
805,533,0,0,0,0,0,0,0,0,0,-1,2029,491,0,0
812,533,0,0,0,0,0,0,0,0,0,-1,2036,491,0,0
-700,526,0,0,0,0,0,0,0,0,0,-1,524,498,0,0
-693,526,0,0,0,0,0,0,0,0,0,-1,531,498,0,0
-686,526,0,0,0,0,0,0,0,0,0,-1,538,498,0,0
-679,526,0,0,0,0,0,0,0,0,0,-1,545,498,0,0
-672,526,0,0,0,0,0,0,0,0,0,-1,552,498,0,0
-665,526,0,0,0,0,0,0,0,0,0,-1,559,498,0,0
-658,526,0,0,0,0,0,0,0,0,0,-1,566,498,0,0
-651,526,0,0,0,0,0,0,0,0,0,-1,573,498,0,0
-644,526,0,0,0,0,0,0,0,0,0,-1,580,498,0,0
-637,526,0,0,0,0,0,0,0,0,0,-1,587,498,0,0
-630,526,0,0,0,0,0,0,0,0,0,-1,594,498,0,0
-623,526,0,0,0,0,0,0,0,0,0,-1,601,498,0,0
-616,526,0,0,0,0,0,0,0,0,0,-1,608,498,0,0
-609,526,0,0,0,0,0,0,0,0,0,-1,615,498,0,0
-602,526,0,0,0,0,0,0,0,0,0,-1,622,498,0,0
-595,526,0,0,0,0,0,0,0,0,0,-1,629,498,0,0
-588,526,0,0,0,0,0,0,0,0,0,-1,636,498,0,0
-581,526,0,0,0,0,0,0,0,0,0,-1,643,498,0,0
-574,526,0,0,0,0,0,0,0,0,0,-1,650,498,0,0
-567,526,0,0,0,0,0,0,0,0,0,-1,657,498,0,0
-560,526,0,0,0,0,0,0,0,0,0,-1,664,498,0,0
-553,526,0,0,0,0,0,0,0,0,0,-1,671,498,0,0
-546,526,0,0,0,0,0,0,0,0,0,-1,678,498,0,0
-539,526,0,0,0,0,0,0,0,0,0,-1,685,498,0,0
-532,526,0,0,0,0,0,0,0,0,0,-1,692,498,0,0
-525,526,0,0,0,0,0,0,0,0,0,-1,699,498,0,0
-518,526,0,0,0,0,0,0,0,0,0,-1,706,498,0,0
-511,526,0,0,0,0,0,0,0,0,0,-1,713,498,0,0
-504,526,0,0,0,0,0,0,0,0,0,-1,720,498,0,0
-497,526,0,0,0,0,0,0,0,0,0,-1,727,498,0,0
-490,526,0,0,0,0,0,0,0,0,0,-1,734,498,0,0
-483,526,0,0,0,0,0,0,0,0,0,-1,741,498,0,0
-476,526,0,0,0,0,0,0,0,0,0,-1,748,498,0,0
-469,526,0,0,0,0,0,0,0,0,0,-1,755,498,0,0
-462,526,0,0,0,0,0,0,0,0,0,-1,762,498,0,0
-455,526,0,0,0,0,0,0,0,0,0,-1,769,498,0,0
-448,526,0,0,0,0,0,0,0,0,0,-1,776,498,0,0
-441,526,0,0,0,0,0,0,0,0,0,-1,783,498,0,0
-434,526,-1.01361,-1.88202,0,0,0,0,0,0,0,-1,790,498,-1.01362,1.88203
-427,526,-1.38489,-2.00546,0,0,0,0,0,0,0,-1,797,498,-1.38489,2.00547
-420,526,-1.79395,-2.09637,0,0,0,0,0,0,0,-1,804,498,-1.79397,2.09639
-413,526,-2.15332,-2.18826,0,0,0,0,0,0,0,-1,811,498,-2.15331,2.18826
-406,526,-2.4693,-2.20227,0,0,0,0,0,0,0,-1,818,498,-2.4693,2.20226
-399,526,-2.71814,-2.1713,0,0,0,0,0,0,0,-1,825,498,-2.71811,2.17129
-392,526,-0.0762939,-4.91406,0,0,0,0,0,0,0,-1,832,498,-0.0762724,4.91406
-385,526,0.0541992,-5.11221,0,0,0,0,0,0,0,-1,839,498,0.0542149,5.11221
-378,526,0.232788,-5.85303,0,0,0,0,0,0,0,-1,846,498,0.232781,5.85303
-371,526,0.292664,-6.08826,0.0116808,0.00820406,-0.00264305,0.0131059,0.00677893,-0.494512,0.00756818,0.0427122,853,498,0.292653,6.08827
-364,526,0.435608,-6.32034,0.00859835,0.00586661,-0.00102865,0.00894237,0.0055226,-0.322744,0.00521024,0.0238717,860,498,0.435607,6.32035
-357,526,0.35321,-6.47202,0.00600396,0.00392697,0.000134664,0.00601265,0.00391828,0.0644765,0.00352424,0.0165997,867,498,0.353226,6.47202
-350,526,0.391296,-6.68854,0.003995,0.00235371,0.00078898,0.00431275,0.00203596,0.382865,0.00249126,0.0126391,874,498,0.391298,6.68854
-343,526,0.388794,-6.91644,0.00247912,0.00115834,0.00107897,0.00308375,0.000553706,0.51078,0.00189838,0.0157731,881,498,0.388796,6.91645
-336,526,0.352844,-7.13922,0.00140815,0.000386463,0.00105249,0.00206722,-0.000272607,0.559462,0.00147742,0.0148213,888,498,0.352816,7.13921
-329,526,0.341919,-7.34409,0.000787013,-0.000106262,0.000889575,0.00133578,-0.000655028,0.552743,0.00117158,0.0154667,895,498,0.341938,7.3441
-322,526,0.353943,-7.55945,0.000378617,-0.000349962,0.000630788,0.00074275,-0.000714095,0.523537,0.000841164,0.0100386,902,498,0.353914,7.55943
-315,526,0.354614,-7.78427,0.000356821,-0.000295433,0.000317429,0.000485798,-0.00042441,0.385942,0.000525907,0.00846404,909,498,0.354607,7.78428
-308,526,0.356262,-7.99271,0.000742205,-0.00016747,-3.3628e-06,0.000742217,-0.000167483,-0.00369664,0.000559065,0.0084092,916,498,0.356253,7.99271
-301,526,0.342468,-8.18793,0.00119568,4.03756e-05,-0.000241803,0.00124425,-8.19174e-06,-0.198217,0.000832241,0.00983634,923,498,0.342441,8.18793
-294,526,0.350586,-8.3819,0.00165041,0.000130552,-0.000228959,0.00168415,9.68092e-05,-0.14632,0.00109193,0.00934386,930,498,0.350584,8.38191
-287,526,0.356873,-8.57471,0.00194791,-9.67718e-05,-5.34352e-05,0.00194931,-9.81673e-05,-0.02611,0.00133347,0.00928185,937,498,0.356872,8.57471
-280,526,0.352356,-8.76202,0.00226443,-0.000355143,0.000209452,0.00228107,-0.000371784,0.0792851,0.00165859,0.0122685,944,498,0.352344,8.76202
-273,526,0.349121,-8.9613,0.00209607,-0.000810158,0.000428182,0.00215784,-0.00087193,0.143278,0.00180099,0.0102279,951,498,0.349106,8.9613
-266,526,0.349426,-9.1452,0.00170391,-0.000858744,0.00075196,0.00190826,-0.0010631,0.265351,0.00173849,0.00948042,958,498,0.349424,9.14522
-259,526,0.383179,-9.3154,0.00146501,-0.00104607,0.00107582,0.00186288,-0.00144395,0.354231,0.0019143,0.0159522,965,498,0.383152,9.31541
-252,526,0.410278,-9.48132,0.00107659,-0.000712453,0.00160059,0.00201566,-0.00165152,0.530585,0.00212073,0.0319555,972,498,0.410302,9.48131
-245,526,0.416748,-9.60281,0.00108605,0.000557455,0.00206522,0.00290382,-0.00126031,0.721756,0.00246579,0.0389855,979,498,0.416766,9.6028
-238,526,0.434326,-9.64178,0.00184864,0.00345922,0.00269474,0.00546642,-0.000158559,0.930593,0.00369826,0.0381014,986,498,0.43434,9.6418
-231,526,0.197449,-9.88583,0,0,0,0,0,0,0,-1,993,498,0.19742,9.88583
-224,526,0.259216,-10.2617,0,0,0,0,0,0,0,-1,1000,498,0.259221,10.2617
-217,526,-0.0574341,-10.7351,0,0,0,0,0,0,0,-1,1007,498,-0.0574062,10.7351
-210,526,0.171021,-8.39801,0,0,0,0,0,0,0,-1,1014,498,0.170997,8.398
-203,526,0.771362,-9.25351,0,0,0,0,0,0,0,-1,1021,498,0.771371,9.25351
-196,526,0.310059,-11.8698,0,0,0,0,0,0,0,-1,1028,498,0.310043,11.8698
-189,526,0.401245,-5.96826,0,0,0,0,0,0,0,-1,1035,498,0.401197,5.96826
-182,526,1.7323,-2.99405,0,0,0,0,0,0,0,-1,1042,498,1.73226,2.99404
-175,526,2.27637,-2.07983,0,0,0,0,0,0,0,-1,1049,498,2.27639,2.07984
-168,526,2.12036,-1.66049,0,0,0,0,0,0,0,-1,1056,498,2.12035,1.66048
-161,526,2.09082,-1.20572,0,0,0,0,0,0,0,-1,1063,498,2.09086,1.2057
-154,526,-1.3446,-5.37799,0,0,0,0,0,0,0,-1,1070,498,-1.34457,5.37799
-147,526,-0.472656,-6.64996,0,0,0,0,0,0,0,-1,1077,498,-0.472659,6.64997
-140,526,0.422852,-8.03339,0,0,0,0,0,0,0,-1,1084,498,0.422844,8.0334
-133,526,1.09583,-9.2215,0,0,0,0,0,0,0,-1,1091,498,1.09581,9.2215
-126,526,3.42529,-2.36053,0,0,0,0,0,0,0,-1,1098,498,3.42523,2.36052
-119,526,2.7771,-0.764099,0,0,0,0,0,0,0,-1,1105,498,2.7771,0.764107
-112,526,2.57715,-1.1893,0,0,0,0,0,0,0,-1,1112,498,2.57718,1.1893
-105,526,0,0,0,0,0,0,0,0,0,-1,1119,498,0,0
-98,526,0,0,0,0,0,0,0,0,0,-1,1126,498,0,0
-91,526,0,0,0,0,0,0,0,0,0,-1,1133,498,0,0
-84,526,0,0,0,0,0,0,0,0,0,-1,1140,498,0,0
-77,526,0,0,0,0,0,0,0,0,0,-1,1147,498,0,0
-70,526,0,0,0,0,0,0,0,0,0,-1,1154,498,0,0
-63,526,0,0,0,0,0,0,0,0,0,-1,1161,498,0,0
-56,526,0,0,0,0,0,0,0,0,0,-1,1168,498,0,0
-49,526,0,0,0,0,0,0,0,0,0,-1,1175,498,0,0
-42,526,0,0,0,0,0,0,0,0,0,-1,1182,498,0,0
-35,526,0,0,0,0,0,0,0,0,0,-1,1189,498,0,0
-28,526,0,0,0,0,0,0,0,0,0,-1,1196,498,0,0
-21,526,0,0,0,0,0,0,0,0,0,-1,1203,498,0,0
-14,526,0,0,0,0,0,0,0,0,0,-1,1210,498,0,0
-7,526,0,0,0,0,0,0,0,0,0,-1,1217,498,0,0
0,526,0,0,0,0,0,0,0,0,0,-1,1224,498,0,0
7,526,0,0,0,0,0,0,0,0,0,-1,1231,498,0,0
14,526,0,0,0,0,0,0,0,0,0,-1,1238,498,0,0
21,526,0,0,0,0,0,0,0,0,0,-1,1245,498,0,0
28,526,0,0,0,0,0,0,0,0,0,-1,1252,498,0,0
35,526,0,0,0,0,0,0,0,0,0,-1,1259,498,0,0
42,526,0,0,0,0,0,0,0,0,0,-1,1266,498,0,0
49,526,0,0,0,0,0,0,0,0,0,-1,1273,498,0,0
56,526,0,0,0,0,0,0,0,0,0,-1,1280,498,0,0
63,526,0,0,0,0,0,0,0,0,0,-1,1287,498,0,0
70,526,0,0,0,0,0,0,0,0,0,-1,1294,498,0,0
77,526,0,0,0,0,0,0,0,0,0,-1,1301,498,0,0
84,526,0,0,0,0,0,0,0,0,0,-1,1308,498,0,0
91,526,0,0,0,0,0,0,0,0,0,-1,1315,498,0,0
98,526,0,0,0,0,0,0,0,0,0,-1,1322,498,0,0
105,526,0,0,0,0,0,0,0,0,0,-1,1329,498,0,0
112,526,0,0,0,0,0,0,0,0,0,-1,1336,498,0,0
119,526,0,0,0,0,0,0,0,0,0,-1,1343,498,0,0
126,526,0,0,0,0,0,0,0,0,0,-1,1350,498,0,0
133,526,0,0,0,0,0,0,0,0,0,-1,1357,498,0,0
140,526,0,0,0,0,0,0,0,0,0,-1,1364,498,0,0
147,526,0,0,0,0,0,0,0,0,0,-1,1371,498,0,0
154,526,0,0,0,0,0,0,0,0,0,-1,1378,498,0,0
161,526,0,0,0,0,0,0,0,0,0,-1,1385,498,0,0
168,526,0,0,0,0,0,0,0,0,0,-1,1392,498,0,0
175,526,0,0,0,0,0,0,0,0,0,-1,1399,498,0,0
182,526,0,0,0,0,0,0,0,0,0,-1,1406,498,0,0
189,526,0,0,0,0,0,0,0,0,0,-1,1413,498,0,0
196,526,0,0,0,0,0,0,0,0,0,-1,1420,498,0,0
203,526,0,0,0,0,0,0,0,0,0,-1,1427,498,0,0
210,526,0,0,0,0,0,0,0,0,0,-1,1434,498,0,0
217,526,0,0,0,0,0,0,0,0,0,-1,1441,498,0,0
224,526,0,0,0,0,0,0,0,0,0,-1,1448,498,0,0
231,526,7.93237,-1.30618,0,0,0,0,0,0,0,-1,1455,498,7.93238,1.30618
238,526,7.97717,-1.08197,0,0,0,0,0,0,0,-1,1462,498,7.97723,1.08196
245,526,7.2793,-0.792938,0,0,0,0,0,0,0,-1,1469,498,7.27931,0.792926
252,526,6.73523,-2.23608,0,0,0,0,0,0,0,-1,1476,498,6.73525,2.23608
259,526,6.22949,-1.84967,0,0,0,0,0,0,0,-1,1483,498,6.22953,1.84968
266,526,5.72375,-1.46329,0,0,0,0,0,0,0,-1,1490,498,5.72381,1.46328
273,526,4.33984,0.49173,0,0,0,0,0,0,0,-1,1497,498,4.33979,-0.491727
280,526,1.4585,-1.59897,0,0,0,0,0,0,0,-1,1504,498,1.45846,1.59895
287,526,1.46411,-2.40134,0,0,0,0,0,0,0,-1,1511,498,1.46406,2.40133
294,526,5.57471,-4.59085,0,0,0,0,0,0,0,-1,1518,498,5.57466,4.59084
301,526,4.42786,-3.99677,0,0,0,0,0,0,0,-1,1525,498,4.42788,3.99676
308,526,5.79529,-4.19366,0,0,0,0,0,0,0,-1,1532,498,5.79528,4.19368
315,526,5.09851,-5.20068,0,0,0,0,0,0,0,-1,1539,498,5.09851,5.20068
322,526,5.50708,-4.72348,0,0,0,0,0,0,0,-1,1546,498,5.50713,4.72347
329,526,3.88672,-4.345,0,0,0,0,0,0,0,-1,1553,498,3.88674,4.34501
336,526,4.97876,-2.23828,0,0,0,0,0,0,0,-1,1560,498,4.97877,2.23828
343,526,3.31665,-2.69696,0,0,0,0,0,0,0,-1,1567,498,3.31667,2.69696
350,526,6.06287,-6.12015,0,0,0,0,0,0,0,-1,1574,498,6.06286,6.12014
357,526,5.79736,-7.7854,0,0,0,0,0,0,0,-1,1581,498,5.79734,7.78539
364,526,5.47083,-8.84402,0,0,0,0,0,0,0,-1,1588,498,5.47079,8.84402
371,526,5.05884,-9.0159,0,0,0,0,0,0,0,-1,1595,498,5.05882,9.01591
378,526,5.00134,-8.71643,0,0,0,0,0,0,0,-1,1602,498,5.00134,8.71645
385,526,5.13098,-8.33005,0,0,0,0,0,0,0,-1,1609,498,5.13096,8.33004
392,526,5.24817,-8.06622,-0.00509985,-0.00892011,-0.00615456,-0.000565815,-0.0134541,-0.634931,0.0087869,0.0304244,1616,498,5.24819,8.06621
399,526,5.19678,-7.84457,-0.00426914,-0.0072676,-0.00526938,-0.000289858,-0.0112469,-0.646802,0.00740319,0.0173095,1623,498,5.19675,7.84456
406,526,5.24707,-7.61179,-0.00346376,-0.00568702,-0.00446633,2.72021e-05,-0.00917798,-0.663431,0.00612774,0.0127634,1630,498,5.24711,7.61178
413,526,5.2384,-7.38919,-0.00266532,-0.00413578,-0.00357131,0.000245656,-0.00704675,-0.683881,0.00478183,0.0126015,1637,498,5.23841,7.38918
420,526,5.22583,-7.17758,-0.00192615,-0.00294077,-0.00270795,0.000321599,-0.00518852,-0.6928,0.00357104,0.0129161,1644,498,5.22581,7.17758
427,526,5.25183,-6.94302,-0.00139715,-0.00206087,-0.00209353,0.000390656,-0.00384867,-0.706794,0.00270542,0.0137262,1651,498,5.25182,6.94303
434,526,5.25244,-6.7012,-0.000931794,-0.00140589,-0.00158347,0.00043227,-0.00276995,-0.711099,0.00200631,0.0126779,1658,498,5.25248,6.70121
441,526,5.24207,-6.48285,-0.000424675,-0.000854081,-0.00117569,0.000555751,-0.00183451,-0.695084,0.00144435,0.0113284,1665,498,5.24201,6.48285
448,526,5.24915,-6.27655,5.74816e-05,-0.000617669,-0.000781676,0.00057136,-0.00113155,-0.581564,0.00100075,0.0105346,1672,498,5.24919,6.27654
455,526,5.22107,-6.04855,0.000522114,-0.000545717,-0.000526157,0.000737804,-0.000761406,-0.38904,0.000865605,0.013319,1679,498,5.2211,6.04854
462,526,5.23755,-5.79532,0.000985295,-0.000762047,-0.000536552,0.0011369,-0.000913651,-0.275374,0.00118622,0.0098406,1686,498,5.23759,5.79532
469,526,5.24915,-5.55887,0.00135629,-0.00128016,-0.000706688,0.00153377,-0.00145764,-0.24605,0.00172728,0.00742916,1693,498,5.24912,5.55888
476,526,5.24792,-5.31638,0.00154076,-0.00180428,-0.000985071,0.00180929,-0.00207281,-0.266137,0.00224305,0.00956932,1700,498,5.24798,5.31639
483,526,5.26404,-5.05261,0.00163975,-0.0021308,-0.00135615,0.00207685,-0.0025679,-0.311794,0.00268663,0.0114003,1707,498,5.264,5.05263
490,526,5.33093,-4.77484,0.00160584,-0.0027914,-0.00193878,0.00233856,-0.00352412,-0.361339,0.00340781,0.0215706,1714,498,5.33096,4.77483
497,526,5.23242,-4.63727,0.00136897,-0.00340311,-0.00251603,0.00245043,-0.00448458,-0.405955,0.00406094,0.0269363,1721,498,5.23237,4.63726
504,526,5.12402,-4.3429,0.00108291,-0.00404343,-0.0032291,0.00264247,-0.00560299,-0.449932,0.00486173,0.0294212,1728,498,5.124,4.34289
511,526,5.20728,-4.15259,0.000679077,-0.0046184,-0.00418042,0.00297925,-0.00691857,-0.503016,0.00586343,0.0383173,1735,498,5.20733,4.1526
518,526,5.32678,-3.92557,0,0,0,0,0,0,0,-1,1742,498,5.32677,3.92556
525,526,5.19897,-3.81149,0,0,0,0,0,0,0,-1,1749,498,5.19899,3.81149
532,526,3.54285,-2.81274,0,0,0,0,0,0,0,-1,1756,498,3.54284,2.81273
539,526,3.29407,0.932312,0,0,0,0,0,0,0,-1,1763,498,3.2941,-0.93232
546,526,3.36731,1.07721,0,0,0,0,0,0,0,-1,1770,498,3.36735,-1.07719
553,526,3.40796,1.37137,0,0,0,0,0,0,0,-1,1777,498,3.40792,-1.37138
560,526,0,0,0,0,0,0,0,0,0,-1,1784,498,0,0
567,526,0,0,0,0,0,0,0,0,0,-1,1791,498,0,0
574,526,0,0,0,0,0,0,0,0,0,-1,1798,498,0,0
581,526,0,0,0,0,0,0,0,0,0,-1,1805,498,0,0
588,526,0,0,0,0,0,0,0,0,0,-1,1812,498,0,0
595,526,0,0,0,0,0,0,0,0,0,-1,1819,498,0,0
602,526,0,0,0,0,0,0,0,0,0,-1,1826,498,0,0
609,526,0,0,0,0,0,0,0,0,0,-1,1833,498,0,0
616,526,0,0,0,0,0,0,0,0,0,-1,1840,498,0,0
623,526,0,0,0,0,0,0,0,0,0,-1,1847,498,0,0
630,526,0,0,0,0,0,0,0,0,0,-1,1854,498,0,0
637,526,0,0,0,0,0,0,0,0,0,-1,1861,498,0,0
644,526,0,0,0,0,0,0,0,0,0,-1,1868,498,0,0
651,526,0,0,0,0,0,0,0,0,0,-1,1875,498,0,0
658,526,0,0,0,0,0,0,0,0,0,-1,1882,498,0,0
665,526,0,0,0,0,0,0,0,0,0,-1,1889,498,0,0
672,526,0,0,0,0,0,0,0,0,0,-1,1896,498,0,0
679,526,0,0,0,0,0,0,0,0,0,-1,1903,498,0,0
686,526,0,0,0,0,0,0,0,0,0,-1,1910,498,0,0
693,526,0,0,0,0,0,0,0,0,0,-1,1917,498,0,0
700,526,0,0,0,0,0,0,0,0,0,-1,1924,498,0,0
707,526,0,0,0,0,0,0,0,0,0,-1,1931,498,0,0
714,526,0,0,0,0,0,0,0,0,0,-1,1938,498,0,0
721,526,0,0,0,0,0,0,0,0,0,-1,1945,498,0,0
728,526,0,0,0,0,0,0,0,0,0,-1,1952,498,0,0
735,526,0,0,0,0,0,0,0,0,0,-1,1959,498,0,0
742,526,0,0,0,0,0,0,0,0,0,-1,1966,498,0,0
749,526,0,0,0,0,0,0,0,0,0,-1,1973,498,0,0
756,526,0,0,0,0,0,0,0,0,0,-1,1980,498,0,0
763,526,0,0,0,0,0,0,0,0,0,-1,1987,498,0,0
770,526,0,0,0,0,0,0,0,0,0,-1,1994,498,0,0
777,526,0,0,0,0,0,0,0,0,0,-1,2001,498,0,0
784,526,0,0,0,0,0,0,0,0,0,-1,2008,498,0,0
791,526,0,0,0,0,0,0,0,0,0,-1,2015,498,0,0
798,526,0,0,0,0,0,0,0,0,0,-1,2022,498,0,0
805,526,0,0,0,0,0,0,0,0,0,-1,2029,498,0,0
812,526,0,0,0,0,0,0,0,0,0,-1,2036,498,0,0
-700,519,0,0,0,0,0,0,0,0,0,-1,524,505,0,0
-693,519,0,0,0,0,0,0,0,0,0,-1,531,505,0,0
-686,519,0,0,0,0,0,0,0,0,0,-1,538,505,0,0
-679,519,0,0,0,0,0,0,0,0,0,-1,545,505,0,0
-672,519,0,0,0,0,0,0,0,0,0,-1,552,505,0,0
-665,519,0,0,0,0,0,0,0,0,0,-1,559,505,0,0
-658,519,0,0,0,0,0,0,0,0,0,-1,566,505,0,0
-651,519,0,0,0,0,0,0,0,0,0,-1,573,505,0,0
-644,519,0,0,0,0,0,0,0,0,0,-1,580,505,0,0
-637,519,0,0,0,0,0,0,0,0,0,-1,587,505,0,0
-630,519,0,0,0,0,0,0,0,0,0,-1,594,505,0,0
-623,519,0,0,0,0,0,0,0,0,0,-1,601,505,0,0
-616,519,0,0,0,0,0,0,0,0,0,-1,608,505,0,0
-609,519,0,0,0,0,0,0,0,0,0,-1,615,505,0,0
-602,519,0,0,0,0,0,0,0,0,0,-1,622,505,0,0
-595,519,0,0,0,0,0,0,0,0,0,-1,629,505,0,0
-588,519,0,0,0,0,0,0,0,0,0,-1,636,505,0,0
-581,519,0,0,0,0,0,0,0,0,0,-1,643,505,0,0
-574,519,0,0,0,0,0,0,0,0,0,-1,650,505,0,0
-567,519,0,0,0,0,0,0,0,0,0,-1,657,505,0,0
-560,519,0,0,0,0,0,0,0,0,0,-1,664,505,0,0
-553,519,0,0,0,0,0,0,0,0,0,-1,671,505,0,0
-546,519,0,0,0,0,0,0,0,0,0,-1,678,505,0,0
-539,519,0,0,0,0,0,0,0,0,0,-1,685,505,0,0
-532,519,0,0,0,0,0,0,0,0,0,-1,692,505,0,0
-525,519,0,0,0,0,0,0,0,0,0,-1,699,505,0,0
-518,519,0,0,0,0,0,0,0,0,0,-1,706,505,0,0
-511,519,0,0,0,0,0,0,0,0,0,-1,713,505,0,0
-504,519,0,0,0,0,0,0,0,0,0,-1,720,505,0,0
-497,519,0,0,0,0,0,0,0,0,0,-1,727,505,0,0
-490,519,0,0,0,0,0,0,0,0,0,-1,734,505,0,0
-483,519,0,0,0,0,0,0,0,0,0,-1,741,505,0,0
-476,519,0,0,0,0,0,0,0,0,0,-1,748,505,0,0
-469,519,0,0,0,0,0,0,0,0,0,-1,755,505,0,0
-462,519,0,0,0,0,0,0,0,0,0,-1,762,505,0,0
-455,519,0,0,0,0,0,0,0,0,0,-1,769,505,0,0
-448,519,0,0,0,0,0,0,0,0,0,-1,776,505,0,0
-441,519,1.64478,-2.70544,0,0,0,0,0,0,0,-1,783,505,1.64479,2.70544
-434,519,1.67749,-2.85846,0,0,0,0,0,0,0,-1,790,505,1.67747,2.85846
-427,519,-0.949463,-3.06372,0,0,0,0,0,0,0,-1,797,505,-0.949445,3.06371
-420,519,-1.28473,-4.05075,0,0,0,0,0,0,0,-1,804,505,-1.28475,4.05074
-413,519,-1.82922,-3.40952,0,0,0,0,0,0,0,-1,811,505,-1.82921,3.40951
-406,519,-2.14984,-3.47256,0,0,0,0,0,0,0,-1,818,505,-2.14987,3.47256
-399,519,-0.0453491,-5.24426,0,0,0,0,0,0,0,-1,825,505,-0.0453416,5.24427
-392,519,-0.0825806,-5.20297,0,0,0,0,0,0,0,-1,832,505,-0.0826059,5.20297
-385,519,0.0134888,-5.3222,0.0132395,0.0109901,-0.00639553,0.0186085,0.00562112,-0.69836,0.0110206,0.0441058,839,505,0.0134992,5.32221
-378,519,0.132385,-5.65689,0.0102324,0.0083864,-0.00417636,0.0135865,0.00503227,-0.676643,0.00793156,0.0336521,846,505,0.132385,5.65689
-371,519,0.184692,-5.99908,0.00778126,0.00600374,-0.00242177,0.00947221,0.0043128,-0.609535,0.00547606,0.0199719,853,505,0.184662,5.99908
-364,519,0.142517,-6.23242,0.00583369,0.00434462,-0.00125121,0.00654512,0.00363318,-0.517011,0.00378647,0.0124859,860,505,0.142503,6.23244
-357,519,0.159302,-6.46786,0.00420897,0.00299012,-0.000405258,0.00433141,0.00286768,-0.29342,0.00254415,0.0100922,867,505,0.159272,6.46787
-350,519,0.184265,-6.69504,0.00295443,0.00188431,6.83628e-05,0.00295878,0.00187996,0.0635391,0.001729,0.0127533,874,505,0.184276,6.69504
-343,519,0.182983,-6.90799,0.00201843,0.00106306,0.00027575,0.00209231,0.000989186,0.261767,0.00120859,0.0151096,881,505,0.18299,6.90799
-336,519,0.144043,-7.12708,0.00137973,0.0005661,0.000238325,0.0014444,0.000501431,0.264968,0.000846812,0.0138258,888,505,0.144021,7.12708
-329,519,0.140015,-7.3316,0.00106634,0.000271661,9.69416e-05,0.001078,0.000260006,0.11965,0.00064958,0.0123633,895,505,0.140021,7.33163
-322,519,0.151123,-7.55493,0.000973119,0.000119418,-0.000161133,0.00100252,9.00174e-05,-0.180477,0.000640452,0.0104292,902,505,0.151127,7.55491
-315,519,0.153687,-7.78735,0.0011484,0.000252567,-0.000439931,0.00132831,7.26556e-05,-0.388202,0.000862344,0.00865287,909,505,0.153692,7.78738
-308,519,0.148193,-7.99579,0.00157387,0.000373914,-0.000669981,0.00187325,7.45315e-05,-0.420233,0.00122474,0.00756263,916,505,0.14817,7.99581
-301,519,0.136047,-8.19012,0.00207968,0.000544159,-0.000777316,0.00240447,0.000219364,-0.395792,0.00153509,0.0116339,923,505,0.13607,8.19015
-294,519,0.142822,-8.37457,0.00261127,0.000484226,-0.000620257,0.00277892,0.00031657,-0.263992,0.00175663,0.0143757,930,505,0.14283,8.37455
-287,519,0.13208,-8.58252,0.00288585,5.00298e-05,-0.000297872,0.0029168,1.90792e-05,-0.103534,0.00193821,0.0103715,937,505,0.132054,8.5825
-280,519,0.142883,-8.78027,0.00316902,-0.000398332,7.29789e-05,0.00317051,-0.000399825,0.0204461,0.00225877,0.0147022,944,505,0.142905,8.78025
-273,519,0.182434,-9.00092,0.0029338,-0.00107988,0.000375438,0.00296861,-0.0011147,0.0924707,0.00243715,0.021538,951,505,0.182435,9.0009
-266,519,0.129272,-9.20648,0.00240251,-0.00122656,0.00080167,0.00257171,-0.00139576,0.208009,0.00232392,0.0285459,958,505,0.129286,9.20647
-259,519,0.185303,-9.34406,0.00202634,-0.00143964,0.00118709,0.00239392,-0.00180723,0.300292,0.00243341,0.0445798,965,505,0.185311,9.34406
-252,519,0.299683,-9.42908,0,0,0,0,0,0,0,-1,972,505,0.299665,9.42906
-245,519,0.135803,-9.56036,0,0,0,0,0,0,0,-1,979,505,0.135813,9.56039
-238,519,0.246582,-9.50781,0,0,0,0,0,0,0,-1,986,505,0.246595,9.5078
-231,519,-0.24469,-9.74146,0,0,0,0,0,0,0,-1,993,505,-0.244676,9.74148
-224,519,-0.0494995,-7.97394,0,0,0,0,0,0,0,-1,1000,505,-0.0495123,7.97392
-217,519,-2.97125,-4.84393,0,0,0,0,0,0,0,-1,1007,505,-2.97128,4.84393
-210,519,-2.14398,-4.74774,0,0,0,0,0,0,0,-1,1014,505,-2.14397,4.74775
-203,519,-0.513611,-5.39017,0,0,0,0,0,0,0,-1,1021,505,-0.513585,5.39017
-196,519,-0.374023,-5.41635,0,0,0,0,0,0,0,-1,1028,505,-0.374047,5.41635
-189,519,-0.234497,-5.44254,0,0,0,0,0,0,0,-1,1035,505,-0.234508,5.44253
-182,519,2.76697,-1.19659,0,0,0,0,0,0,0,-1,1042,505,2.76696,1.19661
-175,519,2.31323,-0.960938,0,0,0,0,0,0,0,-1,1049,505,2.31319,0.960941
-168,519,2.01074,-0.721405,0,0,0,0,0,0,0,-1,1056,505,2.01072,0.721407
-161,519,2.32056,-0.522339,0,0,0,0,0,0,0,-1,1063,505,2.32057,0.522328
-154,519,2.55566,0.116669,0,0,0,0,0,0,0,-1,1070,505,2.55563,-0.116661
-147,519,-0.55127,-6.14001,0,0,0,0,0,0,0,-1,1077,505,-0.551252,6.14001
-140,519,0.240601,-7.53503,0,0,0,0,0,0,0,-1,1084,505,0.240653,7.53501
-133,519,2.70911,-4.4516,0,0,0,0,0,0,0,-1,1091,505,2.70915,4.45161
-126,519,0,0,0,0,0,0,0,0,0,-1,1098,505,0,0
-119,519,0,0,0,0,0,0,0,0,0,-1,1105,505,0,0
-112,519,0,0,0,0,0,0,0,0,0,-1,1112,505,0,0
-105,519,0,0,0,0,0,0,0,0,0,-1,1119,505,0,0
-98,519,0,0,0,0,0,0,0,0,0,-1,1126,505,0,0
-91,519,0,0,0,0,0,0,0,0,0,-1,1133,505,0,0
-84,519,0,0,0,0,0,0,0,0,0,-1,1140,505,0,0
-77,519,0,0,0,0,0,0,0,0,0,-1,1147,505,0,0
-70,519,0,0,0,0,0,0,0,0,0,-1,1154,505,0,0
-63,519,0,0,0,0,0,0,0,0,0,-1,1161,505,0,0
-56,519,0,0,0,0,0,0,0,0,0,-1,1168,505,0,0
-49,519,0,0,0,0,0,0,0,0,0,-1,1175,505,0,0
-42,519,0,0,0,0,0,0,0,0,0,-1,1182,505,0,0
-35,519,0,0,0,0,0,0,0,0,0,-1,1189,505,0,0
-28,519,0,0,0,0,0,0,0,0,0,-1,1196,505,0,0
-21,519,0,0,0,0,0,0,0,0,0,-1,1203,505,0,0
-14,519,0,0,0,0,0,0,0,0,0,-1,1210,505,0,0
-7,519,0,0,0,0,0,0,0,0,0,-1,1217,505,0,0
0,519,0,0,0,0,0,0,0,0,0,-1,1224,505,0,0
7,519,0,0,0,0,0,0,0,0,0,-1,1231,505,0,0
14,519,0,0,0,0,0,0,0,0,0,-1,1238,505,0,0
21,519,0,0,0,0,0,0,0,0,0,-1,1245,505,0,0
28,519,0,0,0,0,0,0,0,0,0,-1,1252,505,0,0
35,519,0,0,0,0,0,0,0,0,0,-1,1259,505,0,0
42,519,0,0,0,0,0,0,0,0,0,-1,1266,505,0,0
49,519,0,0,0,0,0,0,0,0,0,-1,1273,505,0,0
56,519,0,0,0,0,0,0,0,0,0,-1,1280,505,0,0
63,519,0,0,0,0,0,0,0,0,0,-1,1287,505,0,0
70,519,0,0,0,0,0,0,0,0,0,-1,1294,505,0,0
77,519,0,0,0,0,0,0,0,0,0,-1,1301,505,0,0
84,519,0,0,0,0,0,0,0,0,0,-1,1308,505,0,0
91,519,0,0,0,0,0,0,0,0,0,-1,1315,505,0,0
98,519,0,0,0,0,0,0,0,0,0,-1,1322,505,0,0
105,519,0,0,0,0,0,0,0,0,0,-1,1329,505,0,0
112,519,0,0,0,0,0,0,0,0,0,-1,1336,505,0,0
119,519,0,0,0,0,0,0,0,0,0,-1,1343,505,0,0
126,519,0,0,0,0,0,0,0,0,0,-1,1350,505,0,0
133,519,0,0,0,0,0,0,0,0,0,-1,1357,505,0,0
140,519,0,0,0,0,0,0,0,0,0,-1,1364,505,0,0
147,519,0,0,0,0,0,0,0,0,0,-1,1371,505,0,0
154,519,0,0,0,0,0,0,0,0,0,-1,1378,505,0,0
161,519,0,0,0,0,0,0,0,0,0,-1,1385,505,0,0
168,519,0,0,0,0,0,0,0,0,0,-1,1392,505,0,0
175,519,0,0,0,0,0,0,0,0,0,-1,1399,505,0,0
182,519,0,0,0,0,0,0,0,0,0,-1,1406,505,0,0
189,519,0,0,0,0,0,0,0,0,0,-1,1413,505,0,0
196,519,0,0,0,0,0,0,0,0,0,-1,1420,505,0,0
203,519,0,0,0,0,0,0,0,0,0,-1,1427,505,0,0
210,519,0,0,0,0,0,0,0,0,0,-1,1434,505,0,0
217,519,0,0,0,0,0,0,0,0,0,-1,1441,505,0,0
224,519,0,0,0,0,0,0,0,0,0,-1,1448,505,0,0
231,519,0,0,0,0,0,0,0,0,0,-1,1455,505,0,0
238,519,0,0,0,0,0,0,0,0,0,-1,1462,505,0,0
245,519,0,0,0,0,0,0,0,0,0,-1,1469,505,0,0
252,519,5.26208,0.0938416,0,0,0,0,0,0,0,-1,1476,505,5.26207,-0.0938493
259,519,6.14246,-1.36441,0,0,0,0,0,0,0,-1,1483,505,6.14241,1.36441
266,519,5.31909,-0.400787,0,0,0,0,0,0,0,-1,1490,505,5.31912,0.400773
273,519,4.02393,0.325531,0,0,0,0,0,0,0,-1,1497,505,4.0239,-0.325522
280,519,4.68848,0.53006,0,0,0,0,0,0,0,-1,1504,505,4.68842,-0.530073
287,519,7.9519,-3.80801,0,0,0,0,0,0,0,-1,1511,505,7.95193,3.808
294,519,6.92273,-3.38889,0,0,0,0,0,0,0,-1,1518,505,6.92268,3.38888
301,519,5.35669,-2.92661,0,0,0,0,0,0,0,-1,1525,505,5.35675,2.9266
308,519,7.37549,-5.64529,0,0,0,0,0,0,0,-1,1532,505,7.3755,5.64529
315,519,6.30029,-4.53754,0,0,0,0,0,0,0,-1,1539,505,6.30024,4.53753
322,519,5.84302,-5.45117,0,0,0,0,0,0,0,-1,1546,505,5.84303,5.45116
329,519,4.92407,0.62384,0,0,0,0,0,0,0,-1,1553,505,4.92403,-0.623832
336,519,3.10095,-0.329285,0,0,0,0,0,0,0,-1,1560,505,3.1009,0.329283
343,519,2.49146,-2.31119,0,0,0,0,0,0,0,-1,1567,505,2.49145,2.31119
350,519,3.47729,-2.22516,0,0,0,0,0,0,0,-1,1574,505,3.47726,2.22515
357,519,4.51917,-4.51691,0,0,0,0,0,0,0,-1,1581,505,4.51914,4.51691
364,519,3.54626,-7.20673,0,0,0,0,0,0,0,-1,1588,505,3.54622,7.20675
371,519,5.349,-8.20068,0,0,0,0,0,0,0,-1,1595,505,5.34898,8.20068
378,519,5.52307,-8.1026,0,0,0,0,0,0,0,-1,1602,505,5.52311,8.10259
385,519,5.69641,-7.81488,-0.00850584,-0.0151829,-0.0100758,-0.00122989,-0.0224588,-0.62542,0.0145799,0.0469409,1609,505,5.69645,7.81489
392,519,5.65381,-7.74744,-0.00731777,-0.0124138,-0.00869566,-0.000804517,-0.0189271,-0.642876,0.0123586,0.0456292,1616,505,5.65379,7.74743
399,519,5.51355,-7.75696,-0.00605076,-0.00990708,-0.00736968,-0.000361173,-0.0155967,-0.657449,0.0102795,0.0367768,1623,505,5.51353,7.75694
406,519,5.46301,-7.62476,-0.00488695,-0.00758897,-0.00623512,0.000141847,-0.0126178,-0.678709,0.00845953,0.0225678,1630,505,5.46306,7.62478
413,519,5.50281,-7.41431,-0.0037956,-0.00544168,-0.00500358,0.000452182,-0.00968946,-0.703883,0.00661552,0.0137675,1637,505,5.50277,7.41433
420,519,5.47107,-7.18921,-0.00284372,-0.00379796,-0.00381825,0.000527101,-0.00716878,-0.723242,0.00496423,0.0148995,1644,505,5.47112,7.18919
427,519,5.48474,-6.97195,-0.00216753,-0.00255611,-0.00291643,0.000561076,-0.00528472,-0.752138,0.00372429,0.0139638,1651,505,5.48471,6.97195
434,519,5.49194,-6.72461,-0.00159605,-0.00162035,-0.00217126,0.000563095,-0.00377949,-0.782601,0.00272681,0.0128611,1658,505,5.4919,6.72461
441,519,5.46069,-6.49219,-0.00100374,-0.000825831,-0.00156155,0.000649295,-0.00247886,-0.81385,0.00190623,0.0121125,1665,505,5.46071,6.4922
448,519,5.45923,-6.27563,-0.000432834,-0.000464009,-0.000963858,0.000515562,-0.00141241,-0.777313,0.00115256,0.00981844,1672,505,5.45927,6.27562
455,519,5.44385,-6.05057,0.000120578,-0.000299302,-0.000496637,0.000449826,-0.00062855,-0.585428,0.000625444,0.0111123,1679,505,5.44389,6.05055
462,519,5.47131,-5.81732,0.000624196,-0.000479584,-0.000327893,0.000714253,-0.000569641,-0.268045,0.000742823,0.0101463,1686,505,5.47135,5.81731
469,519,5.48743,-5.56918,0.000997613,-0.000987527,-0.00034703,0.00105653,-0.00104644,-0.168171,0.00121416,0.0105032,1693,505,5.48748,5.56917
476,519,5.48816,-5.31622,0.00116656,-0.00150233,-0.000475426,0.00124872,-0.00158449,-0.171126,0.00163958,0.0131158,1700,505,5.48819,5.31623
483,519,5.47925,-5.0553,0.00123709,-0.00180285,-0.000702093,0.00139141,-0.00195717,-0.216358,0.00194248,0.0140439,1707,505,5.47929,5.0553
490,519,5.47705,-4.79877,0.00119681,-0.00241535,-0.00112895,0.00152063,-0.00273916,-0.27933,0.00249271,0.0117295,1714,505,5.47705,4.79878
497,519,5.46704,-4.58926,0.00096129,-0.00296552,-0.00154371,0.00149548,-0.00349971,-0.333147,0.00296035,0.013374,1721,505,5.46708,4.58925
504,519,5.43188,-4.34195,0.000623197,-0.00347345,-0.00207624,0.00149144,-0.0043417,-0.396083,0.00349922,0.0133202,1728,505,5.43189,4.34194
511,519,5.47034,-4.10709,0.000145495,-0.00386398,-0.00280857,0.00159141,-0.0053099,-0.475436,0.00417282,0.0185354,1735,505,5.47033,4.10709
518,519,5.53552,-4.02441,-0.000481978,-0.00411998,-0.00348433,0.00162958,-0.00623154,-0.544832,0.00479084,0.0425124,1742,505,5.5355,4.02441
525,519,5.66357,-3.91843,0,0,0,0,0,0,0,-1,1749,505,5.66363,3.91842
532,519,3.5155,-2.86511,0,0,0,0,0,0,0,-1,1756,505,3.51554,2.8651
539,519,3.30005,0.0229797,0,0,0,0,0,0,0,-1,1763,505,3.30008,-0.0229869
546,519,4.62024,-2.89774,0,0,0,0,0,0,0,-1,1770,505,4.62023,2.89775
553,519,4.14136,0.0667419,0,0,0,0,0,0,0,-1,1777,505,4.14141,-0.0667503
560,519,3.77856,0.279724,0,0,0,0,0,0,0,-1,1784,505,3.77861,-0.279731
567,519,0,0,0,0,0,0,0,0,0,-1,1791,505,0,0
574,519,0,0,0,0,0,0,0,0,0,-1,1798,505,0,0
581,519,0,0,0,0,0,0,0,0,0,-1,1805,505,0,0
588,519,0,0,0,0,0,0,0,0,0,-1,1812,505,0,0
595,519,0,0,0,0,0,0,0,0,0,-1,1819,505,0,0
602,519,0,0,0,0,0,0,0,0,0,-1,1826,505,0,0
609,519,0,0,0,0,0,0,0,0,0,-1,1833,505,0,0
616,519,0,0,0,0,0,0,0,0,0,-1,1840,505,0,0
623,519,0,0,0,0,0,0,0,0,0,-1,1847,505,0,0
630,519,0,0,0,0,0,0,0,0,0,-1,1854,505,0,0
637,519,0,0,0,0,0,0,0,0,0,-1,1861,505,0,0
644,519,0,0,0,0,0,0,0,0,0,-1,1868,505,0,0
651,519,0,0,0,0,0,0,0,0,0,-1,1875,505,0,0
658,519,0,0,0,0,0,0,0,0,0,-1,1882,505,0,0
665,519,0,0,0,0,0,0,0,0,0,-1,1889,505,0,0
672,519,0,0,0,0,0,0,0,0,0,-1,1896,505,0,0
679,519,0,0,0,0,0,0,0,0,0,-1,1903,505,0,0
686,519,0,0,0,0,0,0,0,0,0,-1,1910,505,0,0
693,519,0,0,0,0,0,0,0,0,0,-1,1917,505,0,0
700,519,0,0,0,0,0,0,0,0,0,-1,1924,505,0,0
707,519,0,0,0,0,0,0,0,0,0,-1,1931,505,0,0
714,519,0,0,0,0,0,0,0,0,0,-1,1938,505,0,0
721,519,0,0,0,0,0,0,0,0,0,-1,1945,505,0,0
728,519,0,0,0,0,0,0,0,0,0,-1,1952,505,0,0
735,519,0,0,0,0,0,0,0,0,0,-1,1959,505,0,0
742,519,0,0,0,0,0,0,0,0,0,-1,1966,505,0,0
749,519,0,0,0,0,0,0,0,0,0,-1,1973,505,0,0
756,519,0,0,0,0,0,0,0,0,0,-1,1980,505,0,0
763,519,0,0,0,0,0,0,0,0,0,-1,1987,505,0,0
770,519,0,0,0,0,0,0,0,0,0,-1,1994,505,0,0
777,519,0,0,0,0,0,0,0,0,0,-1,2001,505,0,0
784,519,0,0,0,0,0,0,0,0,0,-1,2008,505,0,0
791,519,0,0,0,0,0,0,0,0,0,-1,2015,505,0,0
798,519,0,0,0,0,0,0,0,0,0,-1,2022,505,0,0
805,519,0,0,0,0,0,0,0,0,0,-1,2029,505,0,0
812,519,0,0,0,0,0,0,0,0,0,-1,2036,505,0,0
-700,512,0,0,0,0,0,0,0,0,0,-1,524,512,0,0
-693,512,0,0,0,0,0,0,0,0,0,-1,531,512,0,0
-686,512,0,0,0,0,0,0,0,0,0,-1,538,512,0,0
-679,512,0,0,0,0,0,0,0,0,0,-1,545,512,0,0
-672,512,0,0,0,0,0,0,0,0,0,-1,552,512,0,0
-665,512,0,0,0,0,0,0,0,0,0,-1,559,512,0,0
-658,512,0,0,0,0,0,0,0,0,0,-1,566,512,0,0
-651,512,0,0,0,0,0,0,0,0,0,-1,573,512,0,0
-644,512,0,0,0,0,0,0,0,0,0,-1,580,512,0,0
-637,512,0,0,0,0,0,0,0,0,0,-1,587,512,0,0
-630,512,0,0,0,0,0,0,0,0,0,-1,594,512,0,0
-623,512,0,0,0,0,0,0,0,0,0,-1,601,512,0,0
-616,512,0,0,0,0,0,0,0,0,0,-1,608,512,0,0
-609,512,0,0,0,0,0,0,0,0,0,-1,615,512,0,0
-602,512,0,0,0,0,0,0,0,0,0,-1,622,512,0,0
-595,512,0,0,0,0,0,0,0,0,0,-1,629,512,0,0
-588,512,0,0,0,0,0,0,0,0,0,-1,636,512,0,0
-581,512,0,0,0,0,0,0,0,0,0,-1,643,512,0,0
-574,512,0,0,0,0,0,0,0,0,0,-1,650,512,0,0
-567,512,0,0,0,0,0,0,0,0,0,-1,657,512,0,0
-560,512,0,0,0,0,0,0,0,0,0,-1,664,512,0,0
-553,512,0,0,0,0,0,0,0,0,0,-1,671,512,0,0
-546,512,0,0,0,0,0,0,0,0,0,-1,678,512,0,0
-539,512,0,0,0,0,0,0,0,0,0,-1,685,512,0,0
-532,512,0,0,0,0,0,0,0,0,0,-1,692,512,0,0
-525,512,0,0,0,0,0,0,0,0,0,-1,699,512,0,0
-518,512,0,0,0,0,0,0,0,0,0,-1,706,512,0,0
-511,512,0,0,0,0,0,0,0,0,0,-1,713,512,0,0
-504,512,0,0,0,0,0,0,0,0,0,-1,720,512,0,0
-497,512,0,0,0,0,0,0,0,0,0,-1,727,512,0,0
-490,512,0,0,0,0,0,0,0,0,0,-1,734,512,0,0
-483,512,0,0,0,0,0,0,0,0,0,-1,741,512,0,0
-476,512,0,0,0,0,0,0,0,0,0,-1,748,512,0,0
-469,512,0,0,0,0,0,0,0,0,0,-1,755,512,0,0
-462,512,0,0,0,0,0,0,0,0,0,-1,762,512,0,0
-455,512,0,0,0,0,0,0,0,0,0,-1,769,512,0,0
-448,512,1.15979,-3.66168,0,0,0,0,0,0,0,-1,776,512,1.15981,3.6617
-441,512,0.877319,-3.48383,0,0,0,0,0,0,0,-1,783,512,0.877305,3.48386
-434,512,0.756165,-3.5448,0,0,0,0,0,0,0,-1,790,512,0.756189,3.54483
-427,512,-1.63092,-4.28064,0,0,0,0,0,0,0,-1,797,512,-1.63092,4.28064
-420,512,-1.33789,-4.37897,0,0,0,0,0,0,0,-1,804,512,-1.33789,4.37896
-413,512,-1.47351,-4.59778,0,0,0,0,0,0,0,-1,811,512,-1.47354,4.59779
-406,512,-0.0492554,-4.52802,0,0,0,0,0,0,0,-1,818,512,-0.0492735,4.528
-399,512,-0.0355225,-5.01105,0,0,0,0,0,0,0,-1,825,512,-0.0355267,5.01104
-392,512,-0.0889282,-5.49188,0,0,0,0,0,0,0,-1,832,512,-0.0889394,5.49188
-385,512,-0.022522,-5.52142,0.0084726,0.00792053,-0.0054866,0.0136901,0.00270303,-0.760264,0.00837245,0.0168894,839,512,-0.022494,5.52143
-378,512,-0.0462646,-5.75366,0.00657045,0.0059096,-0.00380557,0.0100599,0.00242014,-0.742093,0.0060631,0.0137952,846,512,-0.046292,5.75367
-371,512,-0.0535889,-5.995,0.00503936,0.00402002,-0.00246774,0.00704952,0.00200986,-0.683563,0.00419347,0.0113294,853,512,-0.0536031,5.99501
-364,512,-0.0527344,-6.24432,0.00388825,0.00282452,-0.00160241,0.00504476,0.00166802,-0.62516,0.00296776,0.00871456,860,512,-0.0527561,6.24435
-357,512,-0.0501099,-6.46289,0.00295852,0.00189566,-0.000973828,0.00353649,0.0013177,-0.535626,0.00206377,0.0105107,867,512,-0.0500887,6.46292
-350,512,-0.0354004,-6.69019,0.00226074,0.00114934,-0.000630992,0.00254584,0.000864231,-0.424379,0.00149488,0.011862,874,512,-0.0354152,6.69018
-343,512,-0.0493774,-6.91357,0.00176745,0.000643995,-0.00048833,0.00195004,0.000461409,-0.357806,0.00117677,0.0115917,881,512,-0.0493595,6.91357
-336,512,-0.072876,-7.11426,0.00147592,0.000405521,-0.000535662,0.00169793,0.000183507,-0.392915,0.00107602,0.0109542,888,512,-0.0728576,7.11423
-329,512,-0.0670166,-7.32977,0.00143342,0.000334922,-0.000676471,0.00175554,1.28002e-05,-0.44441,0.00116612,0.0116888,895,512,-0.0670165,7.32977
-322,512,-0.0714722,-7.56622,0.00163217,0.00031135,-0.000950195,0.00212891,-0.000185398,-0.481709,0.00148494,0.0106601,902,512,-0.0714839,7.56622
-315,512,-0.0621948,-7.78632,0.00321333,0.000803486,-0.00216,0.00448175,-0.000464936,-0.530979,0.00315426,0.0110037,909,512,-0.0622201,7.78634
-308,512,-0.0610962,-7.98035,0.00462041,0.00116993,-0.00305151,0.00640062,-0.000610274,-0.528114,0.00448437,0.0108565,916,512,-0.0611145,7.98038
-301,512,-0.0629272,-8.1875,0.00659894,0.00156428,-0.00419245,0.00897176,-0.000808538,-0.515025,0.0062681,0.0138561,923,512,-0.0628994,8.18752
-294,512,-0.0578613,-8.37347,0.00922663,0.00182323,-0.00554915,0.0121954,-0.00114557,-0.491256,0.00853781,0.0143785,930,512,-0.0578892,8.37346
-287,512,-0.130371,-8.52869,0.0122256,0.00194198,-0.00730128,0.0160139,-0.00184631,-0.478617,0.0113416,0.0202075,937,512,-0.130342,8.52869
-280,512,-0.0160522,-8.78705,0.0160911,0.0021009,-0.00969891,0.0210543,-0.00286227,-0.472983,0.0150811,0.0283615,944,512,-0.0160258,8.78707
-273,512,0.114319,-8.85547,0.0200541,0.0021456,-0.0126996,0.0266388,-0.00443903,-0.478333,0.0194088,0.0485188,951,512,0.114295,8.85549
-266,512,-0.0286865,-9.16528,0,0,0,0,0,0,0,-1,958,512,-0.0286755,9.16528
-259,512,-0.0788574,-9.52765,0,0,0,0,0,0,0,-1,965,512,-0.0788472,9.52764
-252,512,1.45941,-3.43475,0,0,0,0,0,0,0,-1,972,512,1.45938,3.43475
-245,512,4.12927,-11.272,0,0,0,0,0,0,0,-1,979,512,4.1293,11.272
-238,512,0.227051,-8.92969,0,0,0,0,0,0,0,-1,986,512,0.227073,8.92968
-231,512,-2.54437,-10.169,0,0,0,0,0,0,0,-1,993,512,-2.54439,10.169
-224,512,-4.84601,-7.52783,0,0,0,0,0,0,0,-1,1000,512,-4.84602,7.52786
-217,512,-7.37274,-3.89563,0,0,0,0,0,0,0,-1,1007,512,-7.37274,3.89561
-210,512,-3.76642,-1.94702,0,0,0,0,0,0,0,-1,1014,512,-3.76641,1.94702
-203,512,-2.48328,-5.19061,0,0,0,0,0,0,0,-1,1021,512,-2.48328,5.19059
-196,512,-1.14929,-4.63202,0,0,0,0,0,0,0,-1,1028,512,-1.14934,4.632
-189,512,0.197998,4.55505,0,0,0,0,0,0,0,-1,1035,512,0.197996,-4.55506
-182,512,2.73938,0.0778503,0,0,0,0,0,0,0,-1,1042,512,2.73944,-0.077852
-175,512,2.29565,0.209808,0,0,0,0,0,0,0,-1,1049,512,2.29565,-0.209813
-168,512,2.09399,-0.302856,0,0,0,0,0,0,0,-1,1056,512,2.09403,0.302826
-161,512,2.76636,0.0921021,0,0,0,0,0,0,0,-1,1063,512,2.76633,-0.0921104
-154,512,3.41382,0.466187,0,0,0,0,0,0,0,-1,1070,512,3.41382,-0.466178
-147,512,0,0,0,0,0,0,0,0,0,-1,1077,512,0,0
-140,512,0,0,0,0,0,0,0,0,0,-1,1084,512,0,0
-133,512,0,0,0,0,0,0,0,0,0,-1,1091,512,0,0
-126,512,0,0,0,0,0,0,0,0,0,-1,1098,512,0,0
-119,512,0,0,0,0,0,0,0,0,0,-1,1105,512,0,0
-112,512,0,0,0,0,0,0,0,0,0,-1,1112,512,0,0
-105,512,0,0,0,0,0,0,0,0,0,-1,1119,512,0,0
-98,512,0,0,0,0,0,0,0,0,0,-1,1126,512,0,0
-91,512,0,0,0,0,0,0,0,0,0,-1,1133,512,0,0
-84,512,0,0,0,0,0,0,0,0,0,-1,1140,512,0,0
-77,512,0,0,0,0,0,0,0,0,0,-1,1147,512,0,0
-70,512,0,0,0,0,0,0,0,0,0,-1,1154,512,0,0
-63,512,0,0,0,0,0,0,0,0,0,-1,1161,512,0,0
-56,512,0,0,0,0,0,0,0,0,0,-1,1168,512,0,0
-49,512,0,0,0,0,0,0,0,0,0,-1,1175,512,0,0
-42,512,0,0,0,0,0,0,0,0,0,-1,1182,512,0,0
-35,512,0,0,0,0,0,0,0,0,0,-1,1189,512,0,0
-28,512,0,0,0,0,0,0,0,0,0,-1,1196,512,0,0
-21,512,0,0,0,0,0,0,0,0,0,-1,1203,512,0,0
-14,512,0,0,0,0,0,0,0,0,0,-1,1210,512,0,0
-7,512,0,0,0,0,0,0,0,0,0,-1,1217,512,0,0
0,512,0,0,0,0,0,0,0,0,0,-1,1224,512,0,0
7,512,0,0,0,0,0,0,0,0,0,-1,1231,512,0,0
14,512,0,0,0,0,0,0,0,0,0,-1,1238,512,0,0
21,512,0,0,0,0,0,0,0,0,0,-1,1245,512,0,0
28,512,0,0,0,0,0,0,0,0,0,-1,1252,512,0,0
35,512,0,0,0,0,0,0,0,0,0,-1,1259,512,0,0
42,512,0,0,0,0,0,0,0,0,0,-1,1266,512,0,0
49,512,0,0,0,0,0,0,0,0,0,-1,1273,512,0,0
56,512,0,0,0,0,0,0,0,0,0,-1,1280,512,0,0
63,512,0,0,0,0,0,0,0,0,0,-1,1287,512,0,0
70,512,0,0,0,0,0,0,0,0,0,-1,1294,512,0,0
77,512,0,0,0,0,0,0,0,0,0,-1,1301,512,0,0
84,512,0,0,0,0,0,0,0,0,0,-1,1308,512,0,0
91,512,0,0,0,0,0,0,0,0,0,-1,1315,512,0,0
98,512,0,0,0,0,0,0,0,0,0,-1,1322,512,0,0
105,512,0,0,0,0,0,0,0,0,0,-1,1329,512,0,0
112,512,0,0,0,0,0,0,0,0,0,-1,1336,512,0,0
119,512,0,0,0,0,0,0,0,0,0,-1,1343,512,0,0
126,512,0,0,0,0,0,0,0,0,0,-1,1350,512,0,0
133,512,0,0,0,0,0,0,0,0,0,-1,1357,512,0,0
140,512,0,0,0,0,0,0,0,0,0,-1,1364,512,0,0
147,512,0,0,0,0,0,0,0,0,0,-1,1371,512,0,0
154,512,0,0,0,0,0,0,0,0,0,-1,1378,512,0,0
161,512,0,0,0,0,0,0,0,0,0,-1,1385,512,0,0
168,512,0,0,0,0,0,0,0,0,0,-1,1392,512,0,0
175,512,0,0,0,0,0,0,0,0,0,-1,1399,512,0,0
182,512,0,0,0,0,0,0,0,0,0,-1,1406,512,0,0
189,512,0,0,0,0,0,0,0,0,0,-1,1413,512,0,0
196,512,0,0,0,0,0,0,0,0,0,-1,1420,512,0,0
203,512,0,0,0,0,0,0,0,0,0,-1,1427,512,0,0
210,512,0,0,0,0,0,0,0,0,0,-1,1434,512,0,0
217,512,0,0,0,0,0,0,0,0,0,-1,1441,512,0,0
224,512,0,0,0,0,0,0,0,0,0,-1,1448,512,0,0
231,512,0,0,0,0,0,0,0,0,0,-1,1455,512,0,0
238,512,0,0,0,0,0,0,0,0,0,-1,1462,512,0,0
245,512,0,0,0,0,0,0,0,0,0,-1,1469,512,0,0
252,512,0,0,0,0,0,0,0,0,0,-1,1476,512,0,0
259,512,0,0,0,0,0,0,0,0,0,-1,1483,512,0,0
266,512,0,0,0,0,0,0,0,0,0,-1,1490,512,0,0
273,512,4.00745,0.618622,0,0,0,0,0,0,0,-1,1497,512,4.00747,-0.618611
280,512,4.49609,0.649841,0,0,0,0,0,0,0,-1,1504,512,4.49612,-0.649834
287,512,4.77234,0.458069,0,0,0,0,0,0,0,-1,1511,512,4.77233,-0.458083
294,512,8.54956,-2.36273,0,0,0,0,0,0,0,-1,1518,512,8.54952,2.36274
301,512,6.302,-1.69092,0,0,0,0,0,0,0,-1,1525,512,6.30196,1.69093
308,512,8.2439,-6.22754,0,0,0,0,0,0,0,-1,1532,512,8.24394,6.22757
315,512,7.53687,-6.04211,0,0,0,0,0,0,0,-1,1539,512,7.53691,6.04211
322,512,6.82983,-5.85663,0,0,0,0,0,0,0,-1,1546,512,6.82988,5.85666
329,512,4.38147,-0.329651,0,0,0,0,0,0,0,-1,1553,512,4.38144,0.329662
336,512,4.41467,-0.741455,0,0,0,0,0,0,0,-1,1560,512,4.41467,0.741442
343,512,4.44727,-1.21667,0,0,0,0,0,0,0,-1,1567,512,4.44732,1.21666
350,512,4.55469,-1.65082,0,0,0,0,0,0,0,-1,1574,512,4.5547,1.65083
357,512,5.79993,-2.67456,0,0,0,0,0,0,0,-1,1581,512,5.79991,2.67454
364,512,5.18298,-6.80133,0,0,0,0,0,0,0,-1,1588,512,5.18296,6.80132
371,512,5.28467,-7.69269,0,0,0,0,0,0,0,-1,1595,512,5.28464,7.69269
378,512,5.58667,-7.75049,0,0,0,0,0,0,0,-1,1602,512,5.58663,7.7505
385,512,5.68518,-7.31604,0,0,0,0,0,0,0,-1,1609,512,5.68518,7.31602
392,512,5.88123,-7.38702,0,0,0,0,0,0,0,-1,1616,512,5.88117,7.38705
399,512,6.09241,-7.40125,-0.00832786,-0.0134286,-0.0100453,-0.000514225,-0.0212422,-0.661082,0.0139932,0.0491782,1623,512,6.09238,7.40123
406,512,5.83997,-7.45917,-0.00666328,-0.0100455,-0.00844833,0.000261525,-0.0169703,-0.686617,0.0114017,0.0404571,1630,512,5.83998,7.45919
413,512,5.68579,-7.46661,-0.00518174,-0.00707821,-0.00676776,0.00070389,-0.0129638,-0.715796,0.00888649,0.0327774,1637,512,5.6858,7.4666
420,512,5.75269,-7.20953,-0.00394547,-0.00484112,-0.00522917,0.000855012,-0.00964161,-0.742683,0.00673087,0.018184,1644,512,5.75273,7.20956
427,512,5.74573,-6.96375,-0.00307463,-0.0031451,-0.00402998,0.000920265,-0.00714,-0.781027,0.00509453,0.0144187,1651,512,5.74579,6.96374
434,512,5.72632,-6.7348,-0.0023316,-0.00182464,-0.00299456,0.000927148,-0.00508339,-0.827621,0.00373652,0.0112773,1658,512,5.72635,6.73483
441,512,5.68665,-6.49738,-0.00161058,-0.000726317,-0.00216304,0.00103931,-0.00337621,-0.886211,0.00266566,0.0126861,1665,512,5.68664,6.49739
448,512,5.66626,-6.25891,-0.000922647,-0.000191321,-0.00136143,0.000852696,-0.00196666,-0.916596,0.00166957,0.00902586,1672,512,5.66621,6.2589
455,512,5.68713,-6.03333,-0.000262684,0.000103645,-0.000685168,0.000629708,-0.000788747,-0.916008,0.00082066,0.00848311,1679,512,5.68719,6.03334
462,512,5.7074,-5.79944,0.000284778,-4.25308e-06,-0.000344908,0.000514222,-0.000233698,-0.587011,0.00044182,0.00904805,1686,512,5.7074,5.79944
469,512,5.69836,-5.54279,0.000662963,-0.000460141,-0.000230547,0.000708447,-0.000505625,-0.194785,0.000704198,0.0107752,1693,512,5.69837,5.54276
476,512,5.69128,-5.29584,0.00082623,-0.000931556,-0.000240094,0.000858434,-0.00096376,-0.133336,0.00105263,0.0140061,1700,512,5.69132,5.29585
483,512,5.70251,-5.04272,0.000877429,-0.00119377,-0.000364428,0.000939679,-0.00125603,-0.169183,0.00127207,0.0124576,1707,512,5.70254,5.04272
490,512,5.70544,-4.80347,0.000821367,-0.00174045,-0.000684242,0.000992669,-0.00191175,-0.24531,0.00170462,0.00959236,1714,512,5.7055,4.80349
497,512,5.71094,-4.56458,0.000557588,-0.00224404,-0.00101443,0.000886325,-0.00257277,-0.313383,0.00207472,0.0109126,1721,512,5.71095,4.56457
504,512,5.69116,-4.29382,0.000176297,-0.00265633,-0.00144155,0.000780877,-0.00326091,-0.397114,0.00247563,0.0111157,1728,512,5.69118,4.29384
511,512,5.69202,-4.02081,-0.000363195,-0.00293428,-0.00203672,0.000759758,-0.00405724,-0.503882,0.00299042,0.0118543,1735,512,5.692,4.02082
518,512,5.74121,-3.81573,-0.00106822,-0.00307487,-0.00262471,0.000738392,-0.00488148,-0.602838,0.00352632,0.0221004,1742,512,5.74123,3.81574
525,512,5.36426,-3.40845,0,0,0,0,0,0,0,-1,1749,512,5.36425,3.40843
532,512,5.22998,-2.68848,0,0,0,0,0,0,0,-1,1756,512,5.22993,2.68849
539,512,4.39929,-3.11737,0,0,0,0,0,0,0,-1,1763,512,4.3993,3.11735
546,512,2.77551,-0.66449,0,0,0,0,0,0,0,-1,1770,512,2.77548,0.664503
553,512,3.927,-0.448853,0,0,0,0,0,0,0,-1,1777,512,3.92704,0.448843
560,512,3.55762,-0.201233,0,0,0,0,0,0,0,-1,1784,512,3.55768,0.201259
567,512,3.09045,0.191193,0,0,0,0,0,0,0,-1,1791,512,3.09045,-0.191203
574,512,0,0,0,0,0,0,0,0,0,-1,1798,512,0,0
581,512,0,0,0,0,0,0,0,0,0,-1,1805,512,0,0
588,512,0,0,0,0,0,0,0,0,0,-1,1812,512,0,0
595,512,0,0,0,0,0,0,0,0,0,-1,1819,512,0,0
602,512,0,0,0,0,0,0,0,0,0,-1,1826,512,0,0
609,512,0,0,0,0,0,0,0,0,0,-1,1833,512,0,0
616,512,0,0,0,0,0,0,0,0,0,-1,1840,512,0,0
623,512,0,0,0,0,0,0,0,0,0,-1,1847,512,0,0
630,512,0,0,0,0,0,0,0,0,0,-1,1854,512,0,0
637,512,0,0,0,0,0,0,0,0,0,-1,1861,512,0,0
644,512,0,0,0,0,0,0,0,0,0,-1,1868,512,0,0
651,512,0,0,0,0,0,0,0,0,0,-1,1875,512,0,0
658,512,0,0,0,0,0,0,0,0,0,-1,1882,512,0,0
665,512,0,0,0,0,0,0,0,0,0,-1,1889,512,0,0
672,512,0,0,0,0,0,0,0,0,0,-1,1896,512,0,0
679,512,0,0,0,0,0,0,0,0,0,-1,1903,512,0,0
686,512,0,0,0,0,0,0,0,0,0,-1,1910,512,0,0
693,512,0,0,0,0,0,0,0,0,0,-1,1917,512,0,0
700,512,0,0,0,0,0,0,0,0,0,-1,1924,512,0,0
707,512,0,0,0,0,0,0,0,0,0,-1,1931,512,0,0
714,512,0,0,0,0,0,0,0,0,0,-1,1938,512,0,0
721,512,0,0,0,0,0,0,0,0,0,-1,1945,512,0,0
728,512,0,0,0,0,0,0,0,0,0,-1,1952,512,0,0
735,512,0,0,0,0,0,0,0,0,0,-1,1959,512,0,0
742,512,0,0,0,0,0,0,0,0,0,-1,1966,512,0,0
749,512,0,0,0,0,0,0,0,0,0,-1,1973,512,0,0
756,512,0,0,0,0,0,0,0,0,0,-1,1980,512,0,0
763,512,0,0,0,0,0,0,0,0,0,-1,1987,512,0,0
770,512,0,0,0,0,0,0,0,0,0,-1,1994,512,0,0
777,512,0,0,0,0,0,0,0,0,0,-1,2001,512,0,0
784,512,0,0,0,0,0,0,0,0,0,-1,2008,512,0,0
791,512,0,0,0,0,0,0,0,0,0,-1,2015,512,0,0
798,512,0,0,0,0,0,0,0,0,0,-1,2022,512,0,0
805,512,0,0,0,0,0,0,0,0,0,-1,2029,512,0,0
812,512,0,0,0,0,0,0,0,0,0,-1,2036,512,0,0
-700,505,0,0,0,0,0,0,0,0,0,-1,524,519,0,0
-693,505,0,0,0,0,0,0,0,0,0,-1,531,519,0,0
-686,505,0,0,0,0,0,0,0,0,0,-1,538,519,0,0
-679,505,0,0,0,0,0,0,0,0,0,-1,545,519,0,0
-672,505,0,0,0,0,0,0,0,0,0,-1,552,519,0,0
-665,505,0,0,0,0,0,0,0,0,0,-1,559,519,0,0
-658,505,0,0,0,0,0,0,0,0,0,-1,566,519,0,0
-651,505,0,0,0,0,0,0,0,0,0,-1,573,519,0,0
-644,505,0,0,0,0,0,0,0,0,0,-1,580,519,0,0
-637,505,0,0,0,0,0,0,0,0,0,-1,587,519,0,0
-630,505,0,0,0,0,0,0,0,0,0,-1,594,519,0,0
-623,505,0,0,0,0,0,0,0,0,0,-1,601,519,0,0
-616,505,0,0,0,0,0,0,0,0,0,-1,608,519,0,0
-609,505,0,0,0,0,0,0,0,0,0,-1,615,519,0,0
-602,505,0,0,0,0,0,0,0,0,0,-1,622,519,0,0
-595,505,0,0,0,0,0,0,0,0,0,-1,629,519,0,0
-588,505,0,0,0,0,0,0,0,0,0,-1,636,519,0,0
-581,505,0,0,0,0,0,0,0,0,0,-1,643,519,0,0
-574,505,0,0,0,0,0,0,0,0,0,-1,650,519,0,0
-567,505,0,0,0,0,0,0,0,0,0,-1,657,519,0,0
-560,505,0,0,0,0,0,0,0,0,0,-1,664,519,0,0
-553,505,0,0,0,0,0,0,0,0,0,-1,671,519,0,0
-546,505,0,0,0,0,0,0,0,0,0,-1,678,519,0,0
-539,505,0,0,0,0,0,0,0,0,0,-1,685,519,0,0
-532,505,0,0,0,0,0,0,0,0,0,-1,692,519,0,0
-525,505,0,0,0,0,0,0,0,0,0,-1,699,519,0,0
-518,505,0,0,0,0,0,0,0,0,0,-1,706,519,0,0
-511,505,0,0,0,0,0,0,0,0,0,-1,713,519,0,0
-504,505,0,0,0,0,0,0,0,0,0,-1,720,519,0,0
-497,505,0,0,0,0,0,0,0,0,0,-1,727,519,0,0
-490,505,0,0,0,0,0,0,0,0,0,-1,734,519,0,0
-483,505,0,0,0,0,0,0,0,0,0,-1,741,519,0,0
-476,505,0,0,0,0,0,0,0,0,0,-1,748,519,0,0
-469,505,0,0,0,0,0,0,0,0,0,-1,755,519,0,0
-462,505,0,0,0,0,0,0,0,0,0,-1,762,519,0,0
-455,505,0.12384,-4.06439,0,0,0,0,0,0,0,-1,769,519,0.123847,4.06437
-448,505,-8.69983,4.69598,0,0,0,0,0,0,0,-1,776,519,-8.69984,-4.69598
-441,505,-6.83331,2.30151,0,0,0,0,0,0,0,-1,783,519,-6.83334,-2.30154
-434,505,-0.144592,-3.50854,0,0,0,0,0,0,0,-1,790,519,-0.144573,3.50856
-427,505,-1.66138,-4.58167,0,0,0,0,0,0,0,-1,797,519,-1.66135,4.58165
-420,505,-1.37573,-4.68701,0,0,0,0,0,0,0,-1,804,519,-1.37573,4.68702
-413,505,-0.188721,-4.82477,0,0,0,0,0,0,0,-1,811,519,-0.188748,4.82478
-406,505,-0.155884,-4.54169,0,0,0,0,0,0,0,-1,818,519,-0.15588,4.54172
-399,505,-0.157166,-4.92218,0.031757,0.0223387,-0.0271117,0.0545654,-0.000469778,-0.699409,0.0365346,0.0399305,825,519,-0.157177,4.9222
-392,505,-0.178589,-5.28516,0.0128006,0.0100352,-0.011715,0.0232142,-0.000378476,-0.726656,0.0156039,0.0198772,832,519,-0.178586,5.28515
-385,505,-0.235168,-5.54163,0.00388361,0.00575349,-0.00471199,0.00962239,1.47033e-05,-0.883335,0.00641003,0.00909415,839,519,-0.23515,5.54163
-378,505,-0.261658,-5.78046,0.00299573,0.00414379,-0.00345482,0.00707195,6.75726e-05,-0.867722,0.00469227,0.0113089,846,519,-0.261652,5.78048
-371,505,-0.263611,-6.02106,0.00237954,0.00255992,-0.00245664,0.00492802,1.14399e-05,-0.803746,0.00328154,0.0142408,853,519,-0.263588,6.02107
-364,505,-0.269104,-6.24579,0.0020705,0.00161645,-0.00183017,0.00368768,-7.21309e-07,-0.723691,0.00245869,0.0141561,860,519,-0.269107,6.24581
-357,505,-0.253723,-6.45569,0.00191086,0.000918377,-0.00137202,0.00287362,-4.4386e-05,-0.611874,0.00193072,0.0118207,867,519,-0.253719,6.4557
-350,505,-0.278931,-6.67517,0.00186905,0.000355203,-0.00112211,0.00246567,-0.000241414,-0.488678,0.00172987,0.0118011,874,519,-0.27893,6.67517
-343,505,-0.296448,-6.90161,0.00191148,9.37194e-06,-0.00101524,0.00235155,-0.000430693,-0.409014,0.00172923,0.00885375,881,519,-0.296436,6.9016
-336,505,-0.295654,-7.10553,0.00203686,-0.000102329,-0.00104646,0.00246363,-0.000529103,-0.387234,0.00184426,0.0095592,888,519,-0.295657,7.10551
-329,505,-0.282715,-7.32684,0.00230704,-3.09376e-05,-0.00117105,0.0027927,-0.000516605,-0.393139,0.00205576,0.0125744,895,519,-0.282696,7.32684
-322,505,-0.295166,-7.56641,0.0027573,1.92072e-05,-0.00142813,0.0033666,-0.000590087,-0.403258,0.00246475,0.0152952,902,519,-0.295171,7.5664
-315,505,-0.292236,-7.77783,0.0056519,0.000802861,-0.00355335,0.00752908,-0.00107432,-0.486018,0.00541315,0.0139627,909,519,-0.292233,7.77782
-308,505,-0.28125,-7.96503,0.00807339,0.00146538,-0.00518422,0.010917,-0.00137818,-0.501693,0.00777817,0.0122798,916,519,-0.281222,7.96503
-301,505,-0.252075,-8.18933,0.0115524,0.00210431,-0.00756101,0.0157438,-0.00208711,-0.506174,0.0112563,0.0176482,923,519,-0.252093,8.18932
-294,505,-0.258911,-8.36615,0,0,0,0,0,0,0,-1,930,519,-0.258909,8.36615
-287,505,-0.346008,-8.46619,0,0,0,0,0,0,0,-1,937,519,-0.346014,8.4662
-280,505,-0.174255,-8.98956,0,0,0,0,0,0,0,-1,944,519,-0.174243,8.98959
-273,505,0.0221558,-8.98077,0,0,0,0,0,0,0,-1,951,519,0.0221316,8.98074
-266,505,-0.036377,-9.07922,0,0,0,0,0,0,0,-1,958,519,-0.0364055,9.0792
-259,505,0.10321,-6.69824,0,0,0,0,0,0,0,-1,965,519,0.103235,6.69826
-252,505,6.82312,-15.6972,0,0,0,0,0,0,0,-1,972,519,6.82314,15.6972
-245,505,4.26727,-12.9861,0,0,0,0,0,0,0,-1,979,519,4.2673,12.9861
-238,505,1.67432,-11.2307,0,0,0,0,0,0,0,-1,986,519,1.67429,11.2307
-231,505,-0.958435,-8.3075,0,0,0,0,0,0,0,-1,993,519,-0.958421,8.30751
-224,505,-3.69653,-5.12732,0,0,0,0,0,0,0,-1,1000,519,-3.69653,5.12733
-217,505,-6.34302,-1.65533,0,0,0,0,0,0,0,-1,1007,519,-6.34299,1.65535
-210,505,-3.06128,-0.396301,0,0,0,0,0,0,0,-1,1014,519,-3.06129,0.396294
-203,505,-4.26465,2.03607,0,0,0,0,0,0,0,-1,1021,519,-4.26462,-2.03606
-196,505,-5.47595,4.27295,0,0,0,0,0,0,0,-1,1028,519,-5.47597,-4.27292
-189,505,1.51526,5.56207,0,0,0,0,0,0,0,-1,1035,519,1.51523,-5.56209
-182,505,2.97815,7.5097,0,0,0,0,0,0,0,-1,1042,519,2.97812,-7.5097
-175,505,-2.38416,-2.17548,0,0,0,0,0,0,0,-1,1049,519,-2.38411,2.1755
-168,505,0,0,0,0,0,0,0,0,0,-1,1056,519,0,0
-161,505,0,0,0,0,0,0,0,0,0,-1,1063,519,0,0
-154,505,0,0,0,0,0,0,0,0,0,-1,1070,519,0,0
-147,505,0,0,0,0,0,0,0,0,0,-1,1077,519,0,0
-140,505,0,0,0,0,0,0,0,0,0,-1,1084,519,0,0
-133,505,0,0,0,0,0,0,0,0,0,-1,1091,519,0,0
-126,505,0,0,0,0,0,0,0,0,0,-1,1098,519,0,0
-119,505,0,0,0,0,0,0,0,0,0,-1,1105,519,0,0
-112,505,0,0,0,0,0,0,0,0,0,-1,1112,519,0,0
-105,505,0,0,0,0,0,0,0,0,0,-1,1119,519,0,0
-98,505,0,0,0,0,0,0,0,0,0,-1,1126,519,0,0
-91,505,0,0,0,0,0,0,0,0,0,-1,1133,519,0,0
-84,505,0,0,0,0,0,0,0,0,0,-1,1140,519,0,0
-77,505,0,0,0,0,0,0,0,0,0,-1,1147,519,0,0
-70,505,0,0,0,0,0,0,0,0,0,-1,1154,519,0,0
-63,505,0,0,0,0,0,0,0,0,0,-1,1161,519,0,0
-56,505,0,0,0,0,0,0,0,0,0,-1,1168,519,0,0
-49,505,0,0,0,0,0,0,0,0,0,-1,1175,519,0,0
-42,505,0,0,0,0,0,0,0,0,0,-1,1182,519,0,0
-35,505,0,0,0,0,0,0,0,0,0,-1,1189,519,0,0
-28,505,0,0,0,0,0,0,0,0,0,-1,1196,519,0,0
-21,505,0,0,0,0,0,0,0,0,0,-1,1203,519,0,0
-14,505,0,0,0,0,0,0,0,0,0,-1,1210,519,0,0
-7,505,0,0,0,0,0,0,0,0,0,-1,1217,519,0,0
0,505,0,0,0,0,0,0,0,0,0,-1,1224,519,0,0
7,505,0,0,0,0,0,0,0,0,0,-1,1231,519,0,0
14,505,0,0,0,0,0,0,0,0,0,-1,1238,519,0,0
21,505,0,0,0,0,0,0,0,0,0,-1,1245,519,0,0
28,505,0,0,0,0,0,0,0,0,0,-1,1252,519,0,0
35,505,0,0,0,0,0,0,0,0,0,-1,1259,519,0,0
42,505,0,0,0,0,0,0,0,0,0,-1,1266,519,0,0
49,505,0,0,0,0,0,0,0,0,0,-1,1273,519,0,0
56,505,0,0,0,0,0,0,0,0,0,-1,1280,519,0,0
63,505,0,0,0,0,0,0,0,0,0,-1,1287,519,0,0
70,505,0,0,0,0,0,0,0,0,0,-1,1294,519,0,0
77,505,0,0,0,0,0,0,0,0,0,-1,1301,519,0,0
84,505,0,0,0,0,0,0,0,0,0,-1,1308,519,0,0
91,505,0,0,0,0,0,0,0,0,0,-1,1315,519,0,0
98,505,0,0,0,0,0,0,0,0,0,-1,1322,519,0,0
105,505,0,0,0,0,0,0,0,0,0,-1,1329,519,0,0
112,505,0,0,0,0,0,0,0,0,0,-1,1336,519,0,0
119,505,0,0,0,0,0,0,0,0,0,-1,1343,519,0,0
126,505,0,0,0,0,0,0,0,0,0,-1,1350,519,0,0
133,505,0,0,0,0,0,0,0,0,0,-1,1357,519,0,0
140,505,0,0,0,0,0,0,0,0,0,-1,1364,519,0,0
147,505,0,0,0,0,0,0,0,0,0,-1,1371,519,0,0
154,505,0,0,0,0,0,0,0,0,0,-1,1378,519,0,0
161,505,0,0,0,0,0,0,0,0,0,-1,1385,519,0,0
168,505,0,0,0,0,0,0,0,0,0,-1,1392,519,0,0
175,505,0,0,0,0,0,0,0,0,0,-1,1399,519,0,0
182,505,0,0,0,0,0,0,0,0,0,-1,1406,519,0,0
189,505,0,0,0,0,0,0,0,0,0,-1,1413,519,0,0
196,505,0,0,0,0,0,0,0,0,0,-1,1420,519,0,0
203,505,0,0,0,0,0,0,0,0,0,-1,1427,519,0,0
210,505,0,0,0,0,0,0,0,0,0,-1,1434,519,0,0
217,505,0,0,0,0,0,0,0,0,0,-1,1441,519,0,0
224,505,0,0,0,0,0,0,0,0,0,-1,1448,519,0,0
231,505,0,0,0,0,0,0,0,0,0,-1,1455,519,0,0
238,505,0,0,0,0,0,0,0,0,0,-1,1462,519,0,0
245,505,0,0,0,0,0,0,0,0,0,-1,1469,519,0,0
252,505,0,0,0,0,0,0,0,0,0,-1,1476,519,0,0
259,505,0,0,0,0,0,0,0,0,0,-1,1483,519,0,0
266,505,0,0,0,0,0,0,0,0,0,-1,1490,519,0,0
273,505,0,0,0,0,0,0,0,0,0,-1,1497,519,0,0
280,505,0,0,0,0,0,0,0,0,0,-1,1504,519,0,0
287,505,4.39478,0.499512,0,0,0,0,0,0,0,-1,1511,519,4.39476,-0.499506
294,505,4.88867,0.0822754,0,0,0,0,0,0,0,-1,1518,519,4.88871,-0.0822748
301,505,4.82153,-0.0704346,0,0,0,0,0,0,0,-1,1525,519,4.82156,0.0704312
308,505,4.67761,-0.29187,0,0,0,0,0,0,0,-1,1532,519,4.67762,0.291845
315,505,8.44055,-6.54352,0,0,0,0,0,0,0,-1,1539,519,8.44059,6.54349
322,505,4.78955,-0.594116,0,0,0,0,0,0,0,-1,1546,519,4.78957,0.594096
329,505,5.16321,0.434631,0,0,0,0,0,0,0,-1,1553,519,5.16316,-0.434614
336,505,4.94495,-0.920471,0,0,0,0,0,0,0,-1,1560,519,4.945,0.920495
343,505,5.01855,-1.4823,0,0,0,0,0,0,0,-1,1567,519,5.01851,1.48227
350,505,5.33154,-1.77838,0,0,0,0,0,0,0,-1,1574,519,5.33152,1.77838
357,505,5.56567,-1.9425,0,0,0,0,0,0,0,-1,1581,519,5.56562,1.94248
364,505,5.85205,-2.6579,0,0,0,0,0,0,0,-1,1588,519,5.85211,2.65788
371,505,5.88477,-7.00922,0,0,0,0,0,0,0,-1,1595,519,5.88473,7.00924
378,505,5.44104,-7.10162,0,0,0,0,0,0,0,-1,1602,519,5.44099,7.10162
385,505,5.71021,-6.69141,0,0,0,0,0,0,0,-1,1609,519,5.71018,6.69143
392,505,6.49414,-6.92596,0,0,0,0,0,0,0,-1,1616,519,6.4941,6.92598
399,505,6.85974,-7.42059,0,0,0,0,0,0,0,-1,1623,519,6.85977,7.42057
406,505,6.39758,-7.23938,0,0,0,0,0,0,0,-1,1630,519,6.39756,7.23939
413,505,5.9353,-7.05823,0,0,0,0,0,0,0,-1,1637,519,5.93534,7.05822
420,505,6.02551,-7.24078,-0.00546015,-0.00598698,-0.00686494,0.00114643,-0.0125936,-0.766222,0.00880277,0.0373566,1644,519,6.02554,7.24079
427,505,5.96899,-6.96161,-0.00429759,-0.00378019,-0.00533474,0.00130212,-0.00937989,-0.809626,0.00672943,0.0145427,1651,519,5.96894,6.96161
434,505,5.95398,-6.73444,-0.0032928,-0.00201815,-0.00398703,0.00138218,-0.00669312,-0.864652,0.00498707,0.010517,1658,519,5.95394,6.73444
441,505,5.94104,-6.47675,-0.00236344,-0.000592039,-0.00293541,0.00158838,-0.00454386,-0.931919,0.00367496,0.0110578,1665,519,5.94109,6.47676
448,505,5.93994,-6.24597,-0.00148768,0.000132543,-0.00194489,0.0014293,-0.00278443,-0.982737,0.00247438,0.0102678,1672,519,5.93992,6.24595
455,505,5.9491,-6.01624,-0.000658998,0.000558067,-0.00108192,0.00119085,-0.00129178,-1.04158,0.00143374,0.00982939,1679,519,5.94904,6.01624
462,505,5.93665,-5.77362,-1.66681e-05,0.000530672,-0.000595528,0.000912402,-0.000398398,-1.00078,0.000775943,0.0101374,1686,519,5.93665,5.7736
469,505,5.92712,-5.52576,0.000415908,0.00015265,-0.00036885,0.000675912,-0.000107354,-0.61401,0.000490326,0.0102898,1693,519,5.92713,5.52578
476,505,5.92334,-5.28345,0.000632318,-0.000256475,-0.000276912,0.000711532,-0.00033569,-0.278623,0.000617457,0.0109946,1700,519,5.92336,5.28345
483,505,5.94263,-5.04962,0.000722981,-0.000479648,-0.000303604,0.000795279,-0.000551946,-0.23378,0.000782039,0.0120367,1707,519,5.94261,5.04962
490,505,5.94263,-4.80872,0.000709217,-0.000945699,-0.000503152,0.000850185,-0.00108667,-0.273166,0.00112102,0.0112958,1714,519,5.94267,4.8087
497,505,5.94177,-4.55444,0.000471822,-0.001405,-0.000745351,0.000731811,-0.00166499,-0.335618,0.00141832,0.011481,1721,519,5.9418,4.55442
504,505,5.93091,-4.28351,0.00010389,-0.00174031,-0.0010723,0.000596035,-0.00223245,-0.430283,0.00172172,0.0118377,1728,519,5.93087,4.28353
511,505,5.93604,-4.04462,-0.0004054,-0.0019402,-0.00151111,0.000521999,-0.0028676,-0.550448,0.00210739,0.012977,1735,519,5.93609,4.04463
518,505,5.99805,-3.82288,-0.00109142,-0.00200881,-0.00199489,0.000496833,-0.00359707,-0.672395,0.00257965,0.025986,1742,519,5.99805,3.82286
525,505,5.70398,-3.59613,-0.00188817,-0.00197973,-0.00252565,0.000592117,-0.00446001,-0.776336,0.00318909,0.0366191,1749,519,5.704,3.59611
532,505,5.59985,-3.10699,-0.00272053,-0.00165715,-0.0029829,0.00084108,-0.00521876,-0.873595,0.00379076,0.0439355,1756,519,5.59988,3.10698
539,505,5.57788,-2.70459,0,0,0,0,0,0,0,-1,1763,519,5.57789,2.70461
546,505,4.69727,-1.47705,0,0,0,0,0,0,0,-1,1770,519,4.69723,1.47703
553,505,2.82837,0.162659,0,0,0,0,0,0,0,-1,1777,519,2.82841,-0.162672
560,505,3.66223,-0.479797,0,0,0,0,0,0,0,-1,1784,519,3.66219,0.47982
567,505,4.65271,-0.950256,0,0,0,0,0,0,0,-1,1791,519,4.65274,0.95028
574,505,5.54443,-1.19977,0,0,0,0,0,0,0,-1,1798,519,5.54443,1.19974
581,505,0,0,0,0,0,0,0,0,0,-1,1805,519,0,0
588,505,0,0,0,0,0,0,0,0,0,-1,1812,519,0,0
595,505,0,0,0,0,0,0,0,0,0,-1,1819,519,0,0
602,505,0,0,0,0,0,0,0,0,0,-1,1826,519,0,0
609,505,0,0,0,0,0,0,0,0,0,-1,1833,519,0,0
616,505,0,0,0,0,0,0,0,0,0,-1,1840,519,0,0
623,505,0,0,0,0,0,0,0,0,0,-1,1847,519,0,0
630,505,0,0,0,0,0,0,0,0,0,-1,1854,519,0,0
637,505,0,0,0,0,0,0,0,0,0,-1,1861,519,0,0
644,505,0,0,0,0,0,0,0,0,0,-1,1868,519,0,0
651,505,0,0,0,0,0,0,0,0,0,-1,1875,519,0,0
658,505,0,0,0,0,0,0,0,0,0,-1,1882,519,0,0
665,505,0,0,0,0,0,0,0,0,0,-1,1889,519,0,0
672,505,0,0,0,0,0,0,0,0,0,-1,1896,519,0,0
679,505,0,0,0,0,0,0,0,0,0,-1,1903,519,0,0
686,505,0,0,0,0,0,0,0,0,0,-1,1910,519,0,0
693,505,0,0,0,0,0,0,0,0,0,-1,1917,519,0,0
700,505,0,0,0,0,0,0,0,0,0,-1,1924,519,0,0
707,505,0,0,0,0,0,0,0,0,0,-1,1931,519,0,0
714,505,0,0,0,0,0,0,0,0,0,-1,1938,519,0,0
721,505,0,0,0,0,0,0,0,0,0,-1,1945,519,0,0
728,505,0,0,0,0,0,0,0,0,0,-1,1952,519,0,0
735,505,0,0,0,0,0,0,0,0,0,-1,1959,519,0,0
742,505,0,0,0,0,0,0,0,0,0,-1,1966,519,0,0
749,505,0,0,0,0,0,0,0,0,0,-1,1973,519,0,0
756,505,0,0,0,0,0,0,0,0,0,-1,1980,519,0,0
763,505,0,0,0,0,0,0,0,0,0,-1,1987,519,0,0
770,505,0,0,0,0,0,0,0,0,0,-1,1994,519,0,0
777,505,0,0,0,0,0,0,0,0,0,-1,2001,519,0,0
784,505,0,0,0,0,0,0,0,0,0,-1,2008,519,0,0
791,505,0,0,0,0,0,0,0,0,0,-1,2015,519,0,0
798,505,0,0,0,0,0,0,0,0,0,-1,2022,519,0,0
805,505,0,0,0,0,0,0,0,0,0,-1,2029,519,0,0
812,505,0,0,0,0,0,0,0,0,0,-1,2036,519,0,0
-700,498,0,0,0,0,0,0,0,0,0,-1,524,526,0,0
-693,498,0,0,0,0,0,0,0,0,0,-1,531,526,0,0
-686,498,0,0,0,0,0,0,0,0,0,-1,538,526,0,0
-679,498,0,0,0,0,0,0,0,0,0,-1,545,526,0,0
-672,498,0,0,0,0,0,0,0,0,0,-1,552,526,0,0
-665,498,0,0,0,0,0,0,0,0,0,-1,559,526,0,0
-658,498,0,0,0,0,0,0,0,0,0,-1,566,526,0,0
-651,498,0,0,0,0,0,0,0,0,0,-1,573,526,0,0
-644,498,0,0,0,0,0,0,0,0,0,-1,580,526,0,0
-637,498,0,0,0,0,0,0,0,0,0,-1,587,526,0,0
-630,498,0,0,0,0,0,0,0,0,0,-1,594,526,0,0
-623,498,0,0,0,0,0,0,0,0,0,-1,601,526,0,0
-616,498,0,0,0,0,0,0,0,0,0,-1,608,526,0,0
-609,498,0,0,0,0,0,0,0,0,0,-1,615,526,0,0
-602,498,0,0,0,0,0,0,0,0,0,-1,622,526,0,0
-595,498,0,0,0,0,0,0,0,0,0,-1,629,526,0,0
-588,498,0,0,0,0,0,0,0,0,0,-1,636,526,0,0
-581,498,0,0,0,0,0,0,0,0,0,-1,643,526,0,0
-574,498,0,0,0,0,0,0,0,0,0,-1,650,526,0,0
-567,498,0,0,0,0,0,0,0,0,0,-1,657,526,0,0
-560,498,0,0,0,0,0,0,0,0,0,-1,664,526,0,0
-553,498,0,0,0,0,0,0,0,0,0,-1,671,526,0,0
-546,498,0,0,0,0,0,0,0,0,0,-1,678,526,0,0
-539,498,0,0,0,0,0,0,0,0,0,-1,685,526,0,0
-532,498,0,0,0,0,0,0,0,0,0,-1,692,526,0,0
-525,498,0,0,0,0,0,0,0,0,0,-1,699,526,0,0
-518,498,0,0,0,0,0,0,0,0,0,-1,706,526,0,0
-511,498,0,0,0,0,0,0,0,0,0,-1,713,526,0,0
-504,498,0,0,0,0,0,0,0,0,0,-1,720,526,0,0
-497,498,0,0,0,0,0,0,0,0,0,-1,727,526,0,0
-490,498,0,0,0,0,0,0,0,0,0,-1,734,526,0,0
-483,498,0,0,0,0,0,0,0,0,0,-1,741,526,0,0
-476,498,0,0,0,0,0,0,0,0,0,-1,748,526,0,0
-469,498,0,0,0,0,0,0,0,0,0,-1,755,526,0,0
-462,498,-0.642761,-3.18683,0,0,0,0,0,0,0,-1,762,526,-0.642769,3.18684
-455,498,-9.23761,5.4342,0,0,0,0,0,0,0,-1,769,526,-9.23759,-5.4342
-448,498,-7.53302,3.61194,0.249408,0.213697,-0.197572,0.429929,0.0331753,-0.740333,0.276226,0.0437449,776,526,-7.533,-3.61193
-441,498,-5.77063,1.55023,0.210707,0.178456,-0.167818,0.363172,0.0259908,-0.7375,0.233933,0.0458619,783,526,-5.77061,-1.55021
-434,498,-3.99854,-0.286499,0,0,0,0,0,0,0,-1,790,526,-3.99855,0.286512
-427,498,-0.936523,-4.0929,0,0,0,0,0,0,0,-1,797,526,-0.936499,4.09287
-420,498,-1.62524,-4.38037,0,0,0,0,0,0,0,-1,804,526,-1.62527,4.38039
-413,498,-0.443359,-4.41876,0,0,0,0,0,0,0,-1,811,526,-0.44333,4.41876
-406,498,-0.400757,-4.73444,0.0445447,0.0352552,-0.0382007,0.0783819,0.00141795,-0.724901,0.0517884,0.0426772,818,526,-0.40077,4.73446
-399,498,-0.403503,-5.02954,0.0235474,0.0178086,-0.0212307,0.0421017,-0.000745712,-0.718228,0.0283197,0.0239305,825,526,-0.403527,5.02954
-392,498,-0.455811,-5.30719,0.00835447,0.00770445,-0.00886863,0.016904,-0.000845119,-0.767083,0.0115614,0.0123699,832,526,-0.455831,5.3072
-385,498,-0.477539,-5.53705,0.00139691,0.00422246,-0.00328089,0.00638182,-0.000762451,-0.988704,0.00453014,0.00896794,839,526,-0.477524,5.53707
-378,498,-0.485962,-5.76141,0.00108747,0.00296773,-0.00242854,0.00463176,-0.000576559,-0.970074,0.00329688,0.0106777,846,526,-0.485936,5.76139
-371,498,-0.472656,-6.00616,0.00102477,0.00165285,-0.00179056,0.0031567,-0.000479079,-0.872208,0.002281,0.0159772,853,526,-0.472649,6.00615
-364,498,-0.487366,-6.24457,0.00125252,0.00089003,-0.00145534,0.00253786,-0.000395306,-0.723447,0.0018379,0.0154646,860,526,-0.487343,6.24458
-357,498,-0.483887,-6.4574,0.00161746,0.000346343,-0.00125773,0.00239109,-0.000427286,-0.551449,0.00175393,0.0110554,867,526,-0.483911,6.45738
-350,498,-0.500183,-6.67505,0.00204765,-0.000109459,-0.00120875,0.00258908,-0.000650888,-0.421128,0.00197902,0.0115576,874,526,-0.500177,6.67503
-343,498,-0.502014,-6.89063,0.0024944,-0.000374392,-0.00125739,0.00296749,-0.000847485,-0.359867,0.00231316,0.0114935,881,526,-0.501985,6.89064
-336,498,-0.506958,-7.11353,0.00295251,-0.000448928,-0.00138762,0.00344678,-0.000943189,-0.342181,0.0026684,0.0139775,888,526,-0.506953,7.11354
-329,498,-0.498779,-7.32153,0.00350537,-0.000306308,-0.00159914,0.0040874,-0.000888336,-0.349059,0.00306427,0.0178929,895,526,-0.498768,7.32154
-322,498,-0.486694,-7.55023,0.00413446,-0.000243381,-0.00187902,0.00483035,-0.000939267,-0.354682,0.00357469,0.0190135,902,526,-0.486683,7.55026
-315,498,-0.514282,-7.7749,0.00922704,0.00096348,-0.00570132,0.0121363,-0.00194581,-0.471841,0.0088114,0.016966,909,526,-0.514261,7.77493
-308,498,-0.497864,-7.99133,0.0135472,0.00210842,-0.0088228,0.0183422,-0.00268663,-0.497826,0.013215,0.0178294,916,526,-0.497855,7.99132
-301,498,-0.455994,-8.24554,0,0,0,0,0,0,0,-1,923,526,-0.455987,8.24552
-294,498,-0.442749,-8.26361,0,0,0,0,0,0,0,-1,930,526,-0.442763,8.2636
-287,498,-0.220825,-8.51526,0,0,0,0,0,0,0,-1,937,526,-0.220826,8.51525
-280,498,-0.341614,-8.66608,0,0,0,0,0,0,0,-1,944,526,-0.341589,8.66606
-273,498,-0.988892,-8.62921,0,0,0,0,0,0,0,-1,951,526,-0.988906,8.62922
-266,498,0.362488,-6.33545,0,0,0,0,0,0,0,-1,958,526,0.362478,6.33547
-259,498,10.9454,-17.3615,0,0,0,0,0,0,0,-1,965,526,10.9454,17.3614
-252,498,8.56586,-14.6886,0,0,0,0,0,0,0,-1,972,526,8.56584,14.6886
-245,498,5.97382,-11.928,0,0,0,0,0,0,0,-1,979,526,5.97381,11.928
-238,498,3.31403,-9.40442,0,0,0,0,0,0,0,-1,986,526,3.31405,9.40443
-231,498,0.675598,-6.60547,0,0,0,0,0,0,0,-1,993,526,0.675587,6.60545
-224,498,-2.11243,-4.76312,0,0,0,0,0,0,0,-1,1000,526,-2.11245,4.76314
-217,498,-3.82239,-1.42841,0,0,0,0,0,0,0,-1,1007,526,-3.82241,1.42843
-210,498,-1.80591,-0.358215,0,0,0,0,0,0,0,-1,1014,526,-1.8059,0.3582
-203,498,-3.17316,1.06641,0,0,0,0,0,0,0,-1,1021,526,-3.17313,-1.0664
-196,498,-0.103271,5.40527,0,0,0,0,0,0,0,-1,1028,526,-0.103285,-5.40528
-189,498,3.00256,6.47137,0,0,0,0,0,0,0,-1,1035,526,3.00256,-6.47139
-182,498,0,0,0,0,0,0,0,0,0,-1,1042,526,0,0
-175,498,0,0,0,0,0,0,0,0,0,-1,1049,526,0,0
-168,498,0,0,0,0,0,0,0,0,0,-1,1056,526,0,0
-161,498,0,0,0,0,0,0,0,0,0,-1,1063,526,0,0
-154,498,0,0,0,0,0,0,0,0,0,-1,1070,526,0,0
-147,498,0,0,0,0,0,0,0,0,0,-1,1077,526,0,0
-140,498,0,0,0,0,0,0,0,0,0,-1,1084,526,0,0
-133,498,0,0,0,0,0,0,0,0,0,-1,1091,526,0,0
-126,498,0,0,0,0,0,0,0,0,0,-1,1098,526,0,0
-119,498,0,0,0,0,0,0,0,0,0,-1,1105,526,0,0
-112,498,0,0,0,0,0,0,0,0,0,-1,1112,526,0,0
-105,498,0,0,0,0,0,0,0,0,0,-1,1119,526,0,0
-98,498,0,0,0,0,0,0,0,0,0,-1,1126,526,0,0
-91,498,0,0,0,0,0,0,0,0,0,-1,1133,526,0,0
-84,498,0,0,0,0,0,0,0,0,0,-1,1140,526,0,0
-77,498,0,0,0,0,0,0,0,0,0,-1,1147,526,0,0
-70,498,0,0,0,0,0,0,0,0,0,-1,1154,526,0,0
-63,498,0,0,0,0,0,0,0,0,0,-1,1161,526,0,0
-56,498,0,0,0,0,0,0,0,0,0,-1,1168,526,0,0
-49,498,0,0,0,0,0,0,0,0,0,-1,1175,526,0,0
-42,498,0,0,0,0,0,0,0,0,0,-1,1182,526,0,0
-35,498,0,0,0,0,0,0,0,0,0,-1,1189,526,0,0
-28,498,0,0,0,0,0,0,0,0,0,-1,1196,526,0,0
-21,498,0,0,0,0,0,0,0,0,0,-1,1203,526,0,0
-14,498,0,0,0,0,0,0,0,0,0,-1,1210,526,0,0
-7,498,0,0,0,0,0,0,0,0,0,-1,1217,526,0,0
0,498,0,0,0,0,0,0,0,0,0,-1,1224,526,0,0
7,498,0,0,0,0,0,0,0,0,0,-1,1231,526,0,0
14,498,0,0,0,0,0,0,0,0,0,-1,1238,526,0,0
21,498,0,0,0,0,0,0,0,0,0,-1,1245,526,0,0
28,498,0,0,0,0,0,0,0,0,0,-1,1252,526,0,0
35,498,0,0,0,0,0,0,0,0,0,-1,1259,526,0,0
42,498,0,0,0,0,0,0,0,0,0,-1,1266,526,0,0
49,498,0,0,0,0,0,0,0,0,0,-1,1273,526,0,0
56,498,0,0,0,0,0,0,0,0,0,-1,1280,526,0,0
63,498,0,0,0,0,0,0,0,0,0,-1,1287,526,0,0
70,498,0,0,0,0,0,0,0,0,0,-1,1294,526,0,0
77,498,0,0,0,0,0,0,0,0,0,-1,1301,526,0,0
84,498,0,0,0,0,0,0,0,0,0,-1,1308,526,0,0
91,498,0,0,0,0,0,0,0,0,0,-1,1315,526,0,0
98,498,0,0,0,0,0,0,0,0,0,-1,1322,526,0,0
105,498,0,0,0,0,0,0,0,0,0,-1,1329,526,0,0
112,498,0,0,0,0,0,0,0,0,0,-1,1336,526,0,0
119,498,0,0,0,0,0,0,0,0,0,-1,1343,526,0,0
126,498,0,0,0,0,0,0,0,0,0,-1,1350,526,0,0
133,498,0,0,0,0,0,0,0,0,0,-1,1357,526,0,0
140,498,0,0,0,0,0,0,0,0,0,-1,1364,526,0,0
147,498,0,0,0,0,0,0,0,0,0,-1,1371,526,0,0
154,498,0,0,0,0,0,0,0,0,0,-1,1378,526,0,0
161,498,0,0,0,0,0,0,0,0,0,-1,1385,526,0,0
168,498,0,0,0,0,0,0,0,0,0,-1,1392,526,0,0
175,498,0,0,0,0,0,0,0,0,0,-1,1399,526,0,0
182,498,0,0,0,0,0,0,0,0,0,-1,1406,526,0,0
189,498,0,0,0,0,0,0,0,0,0,-1,1413,526,0,0
196,498,0,0,0,0,0,0,0,0,0,-1,1420,526,0,0
203,498,0,0,0,0,0,0,0,0,0,-1,1427,526,0,0
210,498,0,0,0,0,0,0,0,0,0,-1,1434,526,0,0
217,498,0,0,0,0,0,0,0,0,0,-1,1441,526,0,0
224,498,0,0,0,0,0,0,0,0,0,-1,1448,526,0,0
231,498,0,0,0,0,0,0,0,0,0,-1,1455,526,0,0
238,498,0,0,0,0,0,0,0,0,0,-1,1462,526,0,0
245,498,0,0,0,0,0,0,0,0,0,-1,1469,526,0,0
252,498,0,0,0,0,0,0,0,0,0,-1,1476,526,0,0
259,498,0,0,0,0,0,0,0,0,0,-1,1483,526,0,0
266,498,0,0,0,0,0,0,0,0,0,-1,1490,526,0,0
273,498,0,0,0,0,0,0,0,0,0,-1,1497,526,0,0
280,498,0,0,0,0,0,0,0,0,0,-1,1504,526,0,0
287,498,0,0,0,0,0,0,0,0,0,-1,1511,526,0,0
294,498,0,0,0,0,0,0,0,0,0,-1,1518,526,0,0
301,498,0,0,0,0,0,0,0,0,0,-1,1525,526,0,0
308,498,4.77942,-0.293884,0,0,0,0,0,0,0,-1,1532,526,4.77939,0.293899
315,498,4.56091,-0.564148,0,0,0,0,0,0,0,-1,1539,526,4.56097,0.564142
322,498,4.52344,-0.447266,0,0,0,0,0,0,0,-1,1546,526,4.52341,0.447295
329,498,4.63232,-0.156982,0,0,0,0,0,0,0,-1,1553,526,4.63238,0.156991
336,498,5.22644,0.0925903,0,0,0,0,0,0,0,-1,1560,526,5.22648,-0.0926188
343,498,6.22607,-1.67615,0,0,0,0,0,0,0,-1,1567,526,6.22605,1.67617
350,498,6.19373,-1.59906,0,0,0,0,0,0,0,-1,1574,526,6.19367,1.59906
357,498,6.21472,-1.58929,0,0,0,0,0,0,0,-1,1581,526,6.21476,1.58927
364,498,5.73547,-1.2019,0,0,0,0,0,0,0,-1,1588,526,5.73547,1.20192
371,498,3.27087,-4.55334,0,0,0,0,0,0,0,-1,1595,526,3.27089,4.55332
378,498,8.42944,-4.70624,0,0,0,0,0,0,0,-1,1602,526,8.42942,4.70624
385,498,4.7793,-5.15314,0,0,0,0,0,0,0,-1,1609,526,4.77935,5.15311
392,498,7.33289,-5.40631,0,0,0,0,0,0,0,-1,1616,526,7.33284,5.40631
399,498,6.71655,-5.92999,0,0,0,0,0,0,0,-1,1623,526,6.71654,5.93
406,498,6.89001,-7.08813,0,0,0,0,0,0,0,-1,1630,526,6.88997,7.08812
413,498,5.46252,-6.42645,0,0,0,0,0,0,0,-1,1637,526,5.46258,6.42648
420,498,6.33337,-7.1626,0,0,0,0,0,0,0,-1,1644,526,6.33333,7.16261
427,498,6.26611,-6.92407,-0.00572471,-0.00437195,-0.00683985,0.00182488,-0.0119215,-0.834682,0.00862061,0.0402614,1651,526,6.2661,6.92407
434,498,6.24927,-6.70618,-0.00436638,-0.0020914,-0.0050875,0.00198423,-0.00844201,-0.895382,0.00639289,0.0185712,1658,526,6.24925,6.70619
441,498,6.1947,-6.46649,-0.00317854,-0.000317499,-0.00376602,0.00228054,-0.00577659,-0.966906,0.00479553,0.010293,1665,526,6.19468,6.4665
448,498,6.19666,-6.24133,-0.00208495,0.000595609,-0.00256623,0.00215048,-0.00363982,-1.02605,0.00337969,0.00973979,1672,526,6.19667,6.24132
455,498,6.19299,-6.00299,-0.00106021,0.0011385,-0.00150152,0.0019001,-0.00182181,-1.10139,0.002149,0.0129911,1679,526,6.19303,6.003
462,498,6.18127,-5.76263,-0.000319043,0.00118192,-0.000859792,0.0015727,-0.000709817,-1.14421,0.00134883,0.0155357,1686,526,6.18123,5.76263
469,498,6.1665,-5.52191,0.000172234,0.000883082,-0.000518874,0.00115659,-0.000101274,-1.08569,0.00080694,0.0130273,1693,526,6.16647,5.5219
476,498,6.17712,-5.27826,0.000452311,0.000523403,-0.000328102,0.000817879,0.000157835,-0.839357,0.000500998,0.00966904,1700,526,6.17715,5.27825
483,498,6.18982,-5.03058,0.000587453,0.000300744,-0.000261231,0.000742079,0.000146119,-0.534451,0.000453921,0.00849249,1707,526,6.18981,5.0306
490,498,6.18933,-4.80365,0.000619262,-0.000108502,-0.000344326,0.000756349,-0.000245589,-0.378896,0.000603003,0.010418,1714,526,6.18933,4.80365
497,498,6.19507,-4.56409,0.000414304,-0.000551675,-0.000513243,0.000636081,-0.000773453,-0.407878,0.000815082,0.0115062,1721,526,6.19502,4.56411
504,498,6.18994,-4.30676,6.33125e-05,-0.000851138,-0.000759827,0.000492875,-0.0012807,-0.514546,0.00105711,0.0134996,1728,526,6.18999,4.30676
511,498,6.18958,-4.06079,-0.000402275,-0.00103261,-0.00107078,0.000398756,-0.00183364,-0.642272,0.00137476,0.0150648,1735,526,6.18952,4.06078
518,498,6.23206,-3.78864,-0.00103464,-0.00111414,-0.00146455,0.000390699,-0.00253949,-0.771831,0.00183712,0.0173312,1742,526,6.23207,3.78866
525,498,6.1189,-3.54553,-0.00174255,-0.00113409,-0.00192238,0.000507982,-0.00338463,-0.863875,0.00244341,0.0295343,1749,526,6.11892,3.54554
532,498,5.96729,-3.39734,-0.00244468,-0.00092991,-0.00229541,0.000729841,-0.00410443,-0.944752,0.00300921,0.0406637,1756,526,5.96734,3.39735
539,498,5.97424,-3.21838,-0.00303024,-0.000244518,-0.0024799,0.00120691,-0.00448167,-1.04127,0.00346095,0.04823,1763,526,5.97419,3.21839
546,498,5.9375,-3.06799,0,0,0,0,0,0,0,-1,1770,526,5.93748,3.068
553,498,6.43225,-1.42072,0,0,0,0,0,0,0,-1,1777,526,6.43231,1.4207
560,498,3.69385,-0.615112,0,0,0,0,0,0,0,-1,1784,526,3.69381,0.615118
567,498,5.12695,-0.581604,0,0,0,0,0,0,0,-1,1791,526,5.12699,0.58159
574,498,3.88,0.0286255,0,0,0,0,0,0,0,-1,1798,526,3.87999,-0.0286535
581,498,10.8722,2.58551,0,0,0,0,0,0,0,-1,1805,526,10.8723,-2.58551
588,498,0,0,0,0,0,0,0,0,0,-1,1812,526,0,0
595,498,0,0,0,0,0,0,0,0,0,-1,1819,526,0,0
602,498,0,0,0,0,0,0,0,0,0,-1,1826,526,0,0
609,498,0,0,0,0,0,0,0,0,0,-1,1833,526,0,0
616,498,0,0,0,0,0,0,0,0,0,-1,1840,526,0,0
623,498,0,0,0,0,0,0,0,0,0,-1,1847,526,0,0
630,498,0,0,0,0,0,0,0,0,0,-1,1854,526,0,0
637,498,0,0,0,0,0,0,0,0,0,-1,1861,526,0,0
644,498,0,0,0,0,0,0,0,0,0,-1,1868,526,0,0
651,498,0,0,0,0,0,0,0,0,0,-1,1875,526,0,0
658,498,0,0,0,0,0,0,0,0,0,-1,1882,526,0,0
665,498,0,0,0,0,0,0,0,0,0,-1,1889,526,0,0
672,498,0,0,0,0,0,0,0,0,0,-1,1896,526,0,0
679,498,0,0,0,0,0,0,0,0,0,-1,1903,526,0,0
686,498,0,0,0,0,0,0,0,0,0,-1,1910,526,0,0
693,498,0,0,0,0,0,0,0,0,0,-1,1917,526,0,0
700,498,0,0,0,0,0,0,0,0,0,-1,1924,526,0,0
707,498,0,0,0,0,0,0,0,0,0,-1,1931,526,0,0
714,498,0,0,0,0,0,0,0,0,0,-1,1938,526,0,0
721,498,0,0,0,0,0,0,0,0,0,-1,1945,526,0,0
728,498,0,0,0,0,0,0,0,0,0,-1,1952,526,0,0
735,498,0,0,0,0,0,0,0,0,0,-1,1959,526,0,0
742,498,0,0,0,0,0,0,0,0,0,-1,1966,526,0,0
749,498,0,0,0,0,0,0,0,0,0,-1,1973,526,0,0
756,498,0,0,0,0,0,0,0,0,0,-1,1980,526,0,0
763,498,0,0,0,0,0,0,0,0,0,-1,1987,526,0,0
770,498,0,0,0,0,0,0,0,0,0,-1,1994,526,0,0
777,498,0,0,0,0,0,0,0,0,0,-1,2001,526,0,0
784,498,0,0,0,0,0,0,0,0,0,-1,2008,526,0,0
791,498,0,0,0,0,0,0,0,0,0,-1,2015,526,0,0
798,498,0,0,0,0,0,0,0,0,0,-1,2022,526,0,0
805,498,0,0,0,0,0,0,0,0,0,-1,2029,526,0,0
812,498,0,0,0,0,0,0,0,0,0,-1,2036,526,0,0
-700,491,0,0,0,0,0,0,0,0,0,-1,524,533,0,0
-693,491,0,0,0,0,0,0,0,0,0,-1,531,533,0,0
-686,491,0,0,0,0,0,0,0,0,0,-1,538,533,0,0
-679,491,0,0,0,0,0,0,0,0,0,-1,545,533,0,0
-672,491,0,0,0,0,0,0,0,0,0,-1,552,533,0,0
-665,491,0,0,0,0,0,0,0,0,0,-1,559,533,0,0
-658,491,0,0,0,0,0,0,0,0,0,-1,566,533,0,0
-651,491,0,0,0,0,0,0,0,0,0,-1,573,533,0,0
-644,491,0,0,0,0,0,0,0,0,0,-1,580,533,0,0
-637,491,0,0,0,0,0,0,0,0,0,-1,587,533,0,0
-630,491,0,0,0,0,0,0,0,0,0,-1,594,533,0,0
-623,491,0,0,0,0,0,0,0,0,0,-1,601,533,0,0
-616,491,0,0,0,0,0,0,0,0,0,-1,608,533,0,0
-609,491,0,0,0,0,0,0,0,0,0,-1,615,533,0,0
-602,491,0,0,0,0,0,0,0,0,0,-1,622,533,0,0
-595,491,0,0,0,0,0,0,0,0,0,-1,629,533,0,0
-588,491,0,0,0,0,0,0,0,0,0,-1,636,533,0,0
-581,491,0,0,0,0,0,0,0,0,0,-1,643,533,0,0
-574,491,0,0,0,0,0,0,0,0,0,-1,650,533,0,0
-567,491,0,0,0,0,0,0,0,0,0,-1,657,533,0,0
-560,491,0,0,0,0,0,0,0,0,0,-1,664,533,0,0
-553,491,0,0,0,0,0,0,0,0,0,-1,671,533,0,0
-546,491,0,0,0,0,0,0,0,0,0,-1,678,533,0,0
-539,491,0,0,0,0,0,0,0,0,0,-1,685,533,0,0
-532,491,0,0,0,0,0,0,0,0,0,-1,692,533,0,0
-525,491,0,0,0,0,0,0,0,0,0,-1,699,533,0,0
-518,491,0,0,0,0,0,0,0,0,0,-1,706,533,0,0
-511,491,0,0,0,0,0,0,0,0,0,-1,713,533,0,0
-504,491,0,0,0,0,0,0,0,0,0,-1,720,533,0,0
-497,491,0,0,0,0,0,0,0,0,0,-1,727,533,0,0
-490,491,0,0,0,0,0,0,0,0,0,-1,734,533,0,0
-483,491,0,0,0,0,0,0,0,0,0,-1,741,533,0,0
-476,491,0,0,0,0,0,0,0,0,0,-1,748,533,0,0
-469,491,-5.85913,4.55011,0,0,0,0,0,0,0,-1,755,533,-5.8591,-4.55009
-462,491,-9.93713,4.90381,0,0,0,0,0,0,0,-1,762,533,-9.93716,-4.9038
-455,491,-8.03961,3.86096,0.230702,0.221333,-0.180041,0.406119,0.0459159,-0.772392,0.256813,0.0434601,769,533,-8.03964,-3.86097
-448,491,-6.47961,2.47772,0.201507,0.188473,-0.15893,0.354054,0.0359257,-0.764906,0.225019,0.043205,776,533,-6.47959,-2.47774
-441,491,-4.97974,0.87384,0.170513,0.15598,-0.135632,0.299073,0.0274204,-0.758636,0.190899,0.0447236,783,533,-4.97975,-0.87385
-434,491,-3.24835,-0.961914,0,0,0,0,0,0,0,-1,790,533,-3.24835,0.961933
-427,491,-1.14362,-3.10339,0,0,0,0,0,0,0,-1,797,533,-1.14363,3.10339
-420,491,-0.897827,-4.19708,0,0,0,0,0,0,0,-1,804,533,-0.897809,4.19711
-413,491,-0.759094,-4.54095,0.0561094,0.0494047,-0.0476437,0.100519,0.00499555,-0.750275,0.0654108,0.0406319,811,533,-0.75912,4.54094
-406,491,-0.665039,-4.82678,0.0348068,0.0280814,-0.0299552,0.0615874,0.00130076,-0.729503,0.0406316,0.0227162,818,533,-0.665018,4.82675
-399,491,-0.688354,-5.05981,0.018215,0.0139001,-0.0164315,0.0326301,-0.000515047,-0.720122,0.0219271,0.0109928,825,533,-0.688324,5.05984
-392,491,-0.713196,-5.30341,0.00661023,0.00585757,-0.00687808,0.0131223,-0.000654464,-0.758068,0.00897429,0.00970558,832,533,-0.713188,5.3034
-385,491,-0.721558,-5.52966,0.00137048,0.00306055,-0.002559,0.00491043,-0.000479397,-0.944872,0.00344456,0.0095307,839,533,-0.721536,5.52966
-378,491,-0.721008,-5.7533,0.00123596,0.00200368,-0.00189934,0.00355756,-0.000317923,-0.885107,0.00248447,0.0133424,846,533,-0.721007,5.75329
-371,491,-0.708984,-5.99237,0.00134265,0.000830463,-0.00143276,0.00254203,-0.000368914,-0.696962,0.00183009,0.0138289,853,533,-0.708989,5.99235
-364,491,-0.698303,-6.23291,0.00172418,0.000106184,-0.00121483,0.00237474,-0.00054437,-0.49165,0.00179238,0.0132225,860,533,-0.698284,6.23291
-357,491,-0.713806,-6.4566,0.00227001,-0.000410608,-0.00114574,0.00269299,-0.000833579,-0.353647,0.00212831,0.012052,867,533,-0.713786,6.4566
-350,491,-0.720398,-6.66193,0.0028777,-0.000855973,-0.00120731,0.00323407,-0.00121235,-0.287031,0.00265413,0.0148306,874,533,-0.720398,6.66195
-343,491,-0.702332,-6.8642,0.00349544,-0.00110865,-0.00137204,0.0038733,-0.00148651,-0.26874,0.00319513,0.0224099,881,533,-0.70236,6.8642
-336,491,-0.718689,-7.07446,0.00412175,-0.00119219,-0.00161101,0.00457201,-0.00164244,-0.272532,0.00371843,0.0219118,888,533,-0.718704,7.07446
-329,491,-0.74115,-7.29218,0.00487733,-0.00100076,-0.00196543,0.00547395,-0.00159738,-0.294715,0.00428224,0.0225597,895,533,-0.741154,7.29219
-322,491,-0.724426,-7.53101,0.00573279,-0.000911121,-0.00237397,0.00649386,-0.00167219,-0.310239,0.0049811,0.0220541,902,533,-0.724457,7.53101
-315,491,-0.754272,-7.75372,0.0145982,0.00112072,-0.00918686,0.0192528,-0.00353392,-0.468964,0.0141609,0.0193546,909,533,-0.754242,7.7537
-308,491,-0.617798,-8.06085,0.022288,0.00311435,-0.0150017,0.0305046,-0.00510217,-0.501079,0.0222331,0.0450426,916,533,-0.617823,8.06087
-301,491,-0.266235,-8.44495,0,0,0,0,0,0,0,-1,923,533,-0.266247,8.44497
-294,491,-0.777283,-8.60913,0,0,0,0,0,0,0,-1,930,533,-0.777288,8.6091
-287,491,-0.26123,-8.69055,0,0,0,0,0,0,0,-1,937,533,-0.261204,8.69053
-280,491,0.2948,-5.99219,0,0,0,0,0,0,0,-1,944,533,0.294811,5.99221
-273,491,0.369995,-5.33691,0,0,0,0,0,0,0,-1,951,533,0.369985,5.33693
-266,491,1.1167,-5.0321,0,0,0,0,0,0,0,-1,958,533,1.11668,5.0321
-259,491,12.0862,-16.9615,0,0,0,0,0,0,0,-1,965,533,12.0862,16.9615
-252,491,9.72443,-13.8417,0,0,0,0,0,0,0,-1,972,533,9.72444,13.8418
-245,491,7.36926,-10.7169,0,0,0,0,0,0,0,-1,979,533,7.36924,10.7169
-238,491,4.84167,-7.53986,0,0,0,0,0,0,0,-1,986,533,4.84169,7.53984
-231,491,2.15582,-5.05225,0,0,0,0,0,0,0,-1,993,533,2.1558,5.05223
-224,491,-0.429749,-3.09216,0,0,0,0,0,0,0,-1,1000,533,-0.429743,3.09215
-217,491,-2.92743,-1.0766,0,0,0,0,0,0,0,-1,1007,533,-2.92743,1.07659
-210,491,-0.92395,0.374512,0,0,0,0,0,0,0,-1,1014,533,-0.923959,-0.374531
-203,491,0.417419,4.77161,0,0,0,0,0,0,0,-1,1021,533,0.417446,-4.77162
-196,491,0,0,0,0,0,0,0,0,0,-1,1028,533,0,0
-189,491,0,0,0,0,0,0,0,0,0,-1,1035,533,0,0
-182,491,0,0,0,0,0,0,0,0,0,-1,1042,533,0,0
-175,491,0,0,0,0,0,0,0,0,0,-1,1049,533,0,0
-168,491,0,0,0,0,0,0,0,0,0,-1,1056,533,0,0
-161,491,0,0,0,0,0,0,0,0,0,-1,1063,533,0,0
-154,491,0,0,0,0,0,0,0,0,0,-1,1070,533,0,0
-147,491,0,0,0,0,0,0,0,0,0,-1,1077,533,0,0
-140,491,0,0,0,0,0,0,0,0,0,-1,1084,533,0,0
-133,491,0,0,0,0,0,0,0,0,0,-1,1091,533,0,0
-126,491,0,0,0,0,0,0,0,0,0,-1,1098,533,0,0
-119,491,0,0,0,0,0,0,0,0,0,-1,1105,533,0,0
-112,491,0,0,0,0,0,0,0,0,0,-1,1112,533,0,0
-105,491,0,0,0,0,0,0,0,0,0,-1,1119,533,0,0
-98,491,0,0,0,0,0,0,0,0,0,-1,1126,533,0,0
-91,491,0,0,0,0,0,0,0,0,0,-1,1133,533,0,0
-84,491,0,0,0,0,0,0,0,0,0,-1,1140,533,0,0
-77,491,0,0,0,0,0,0,0,0,0,-1,1147,533,0,0
-70,491,0,0,0,0,0,0,0,0,0,-1,1154,533,0,0
-63,491,0,0,0,0,0,0,0,0,0,-1,1161,533,0,0
-56,491,0,0,0,0,0,0,0,0,0,-1,1168,533,0,0
-49,491,0,0,0,0,0,0,0,0,0,-1,1175,533,0,0
-42,491,0,0,0,0,0,0,0,0,0,-1,1182,533,0,0
-35,491,0,0,0,0,0,0,0,0,0,-1,1189,533,0,0
-28,491,0,0,0,0,0,0,0,0,0,-1,1196,533,0,0
-21,491,0,0,0,0,0,0,0,0,0,-1,1203,533,0,0
-14,491,0,0,0,0,0,0,0,0,0,-1,1210,533,0,0
-7,491,0,0,0,0,0,0,0,0,0,-1,1217,533,0,0
0,491,0,0,0,0,0,0,0,0,0,-1,1224,533,0,0
7,491,0,0,0,0,0,0,0,0,0,-1,1231,533,0,0
14,491,0,0,0,0,0,0,0,0,0,-1,1238,533,0,0
21,491,0,0,0,0,0,0,0,0,0,-1,1245,533,0,0
28,491,0,0,0,0,0,0,0,0,0,-1,1252,533,0,0
35,491,0,0,0,0,0,0,0,0,0,-1,1259,533,0,0
42,491,0,0,0,0,0,0,0,0,0,-1,1266,533,0,0
49,491,0,0,0,0,0,0,0,0,0,-1,1273,533,0,0
56,491,0,0,0,0,0,0,0,0,0,-1,1280,533,0,0
63,491,0,0,0,0,0,0,0,0,0,-1,1287,533,0,0
70,491,0,0,0,0,0,0,0,0,0,-1,1294,533,0,0
77,491,0,0,0,0,0,0,0,0,0,-1,1301,533,0,0
84,491,0,0,0,0,0,0,0,0,0,-1,1308,533,0,0
91,491,0,0,0,0,0,0,0,0,0,-1,1315,533,0,0
98,491,0,0,0,0,0,0,0,0,0,-1,1322,533,0,0
105,491,0,0,0,0,0,0,0,0,0,-1,1329,533,0,0
112,491,0,0,0,0,0,0,0,0,0,-1,1336,533,0,0
119,491,0,0,0,0,0,0,0,0,0,-1,1343,533,0,0
126,491,0,0,0,0,0,0,0,0,0,-1,1350,533,0,0
133,491,0,0,0,0,0,0,0,0,0,-1,1357,533,0,0
140,491,0,0,0,0,0,0,0,0,0,-1,1364,533,0,0
147,491,0,0,0,0,0,0,0,0,0,-1,1371,533,0,0
154,491,0,0,0,0,0,0,0,0,0,-1,1378,533,0,0
161,491,0,0,0,0,0,0,0,0,0,-1,1385,533,0,0
168,491,0,0,0,0,0,0,0,0,0,-1,1392,533,0,0
175,491,0,0,0,0,0,0,0,0,0,-1,1399,533,0,0
182,491,0,0,0,0,0,0,0,0,0,-1,1406,533,0,0
189,491,0,0,0,0,0,0,0,0,0,-1,1413,533,0,0
196,491,0,0,0,0,0,0,0,0,0,-1,1420,533,0,0
203,491,0,0,0,0,0,0,0,0,0,-1,1427,533,0,0
210,491,0,0,0,0,0,0,0,0,0,-1,1434,533,0,0
217,491,0,0,0,0,0,0,0,0,0,-1,1441,533,0,0
224,491,0,0,0,0,0,0,0,0,0,-1,1448,533,0,0
231,491,0,0,0,0,0,0,0,0,0,-1,1455,533,0,0
238,491,0,0,0,0,0,0,0,0,0,-1,1462,533,0,0
245,491,0,0,0,0,0,0,0,0,0,-1,1469,533,0,0
252,491,0,0,0,0,0,0,0,0,0,-1,1476,533,0,0
259,491,0,0,0,0,0,0,0,0,0,-1,1483,533,0,0
266,491,0,0,0,0,0,0,0,0,0,-1,1490,533,0,0
273,491,0,0,0,0,0,0,0,0,0,-1,1497,533,0,0
280,491,0,0,0,0,0,0,0,0,0,-1,1504,533,0,0
287,491,0,0,0,0,0,0,0,0,0,-1,1511,533,0,0
294,491,0,0,0,0,0,0,0,0,0,-1,1518,533,0,0
301,491,0,0,0,0,0,0,0,0,0,-1,1525,533,0,0
308,491,0,0,0,0,0,0,0,0,0,-1,1532,533,0,0
315,491,0,0,0,0,0,0,0,0,0,-1,1539,533,0,0
322,491,4.26331,-0.734314,0,0,0,0,0,0,0,-1,1546,533,4.26326,0.734324
329,491,4.25354,-0.783752,0,0,0,0,0,0,0,-1,1553,533,4.25359,0.783734
336,491,4.81604,-0.722107,0,0,0,0,0,0,0,-1,1560,533,4.81605,0.722115
343,491,6.14478,-1.44281,0,0,0,0,0,0,0,-1,1567,533,6.14474,1.44281
350,491,6.36353,-1.30792,0,0,0,0,0,0,0,-1,1574,533,6.36352,1.3079
357,491,6.69482,-1.06018,0,0,0,0,0,0,0,-1,1581,533,6.69489,1.06018
364,491,8.01086,-1.69604,0,0,0,0,0,0,0,-1,1588,533,8.01087,1.69607
371,491,8.2135,-0.539307,0,0,0,0,0,0,0,-1,1595,533,8.21348,0.53929
378,491,13.3589,2.17267,0,0,0,0,0,0,0,-1,1602,533,13.3589,-2.17264
385,491,8.08228,-4.95471,0,0,0,0,0,0,0,-1,1609,533,8.08227,4.95474
392,491,2.88721,-4.30988,0,0,0,0,0,0,0,-1,1616,533,2.88716,4.30986
399,491,6.95227,-5.10754,0,0,0,0,0,0,0,-1,1623,533,6.95226,5.10756
406,491,6.74927,-5.9259,0,0,0,0,0,0,0,-1,1630,533,6.74927,5.92591
413,491,5.31848,-3.7124,0,0,0,0,0,0,0,-1,1637,533,5.31849,3.7124
420,491,4.86389,-3.95892,0,0,0,0,0,0,0,-1,1644,533,4.86387,3.95893
427,491,6.65649,-6.76416,0,0,0,0,0,0,0,-1,1651,533,6.65649,6.76413
434,491,6.60034,-6.62897,-0.00551375,-0.00190402,-0.00621821,0.00276597,-0.0101837,-0.926644,0.00787477,0.0413838,1658,533,6.60039,6.62897
441,491,6.44861,-6.51648,-0.00398733,0.000225617,-0.00455988,0.00314206,-0.00690377,-1.00178,0.00593396,0.0232377,1665,533,6.44861,6.51645
448,491,6.43701,-6.23596,-0.00262726,0.00131859,-0.00312213,0.00303892,-0.00434759,-1.06718,0.00428685,0.0125618,1672,533,6.43701,6.23596
455,491,6.4469,-6.00085,-0.00138203,0.00193546,-0.00185029,0.00276167,-0.00220824,-1.15083,0.0028753,0.0112863,1679,533,6.44692,6.00082
462,491,6.44348,-5.77545,-0.000513152,0.0020018,-0.00104139,0.00237704,-0.000888386,-1.22496,0.0019495,0.0147797,1686,533,6.44353,5.77545
469,491,6.40991,-5.52692,6.25016e-05,0.00174257,-0.000588358,0.00192812,-0.000123048,-1.2653,0.00132833,0.0140272,1693,533,6.40993,5.52691
476,491,6.43408,-5.27216,0.000430325,0.00138253,-0.00030611,0.00147245,0.00034041,-1.2851,0.000890131,0.0101979,1700,533,6.43402,5.27216
483,491,6.42737,-5.00891,0.000626431,0.00109119,-0.000156418,0.00113893,0.000578692,-1.27457,0.000657592,0.0117742,1707,533,6.42733,5.00893
490,491,6.44055,-4.80048,0.000713575,0.000692702,-0.000138051,0.000841583,0.000564694,-0.747671,0.000495268,0.0103117,1714,533,6.44052,4.80047
497,491,6.45898,-4.58136,0.000547807,0.000217576,-0.000257278,0.000688396,7.69869e-05,-0.500111,0.000435542,0.0111581,1721,533,6.45893,4.58134
504,491,6.45288,-4.32721,0.000221746,-9.98297e-05,-0.000445977,0.000535034,-0.000413118,-0.612386,0.000548922,0.012913,1728,533,6.45285,4.32723
511,491,6.4364,-4.06213,-0.000189911,-0.000318589,-0.000655187,0.000404089,-0.000912589,-0.736456,0.000778852,0.0117726,1735,533,6.43643,4.06211
518,491,6.42065,-3.802,-0.000768405,-0.000466896,-0.000982877,0.000376721,-0.00161202,-0.861496,0.0012198,0.00930212,1742,533,6.4207,3.80203
525,491,6.42139,-3.5368,-0.00140647,-0.000562655,-0.00138042,0.000458895,-0.00242802,-0.933708,0.00179135,0.00951703,1749,533,6.42136,3.53682
532,491,6.45544,-3.31256,-0.00202054,-0.00044797,-0.00168047,0.000621067,-0.00308958,-1.00422,0.00229493,0.0178455,1756,533,6.45541,3.31254
539,491,6.43079,-3.14624,-0.00255072,-3.20308e-05,-0.00185042,0.000946929,-0.00352968,-1.08418,0.00272418,0.02707,1763,533,6.43084,3.14623
546,491,6.41919,-2.79779,-0.00296532,0.000481243,-0.00195977,0.00136763,-0.00385171,-1.14604,0.00312509,0.0392346,1770,533,6.4192,2.7978
553,491,6.45215,-2.23633,0,0,0,0,0,0,0,-1,1777,533,6.4522,2.23634
560,491,6.34412,-1.01343,0,0,0,0,0,0,0,-1,1784,533,6.34407,1.0134
567,491,5.67651,-1.3562,0,0,0,0,0,0,0,-1,1791,533,5.67649,1.3562
574,491,8.0719,1.58325,0,0,0,0,0,0,0,-1,1798,533,8.07195,-1.58326
581,491,9.44812,1.60931,0,0,0,0,0,0,0,-1,1805,533,9.44808,-1.60933
588,491,11.0497,1.54962,0,0,0,0,0,0,0,-1,1812,533,11.0496,-1.54963
595,491,0,0,0,0,0,0,0,0,0,-1,1819,533,0,0
602,491,0,0,0,0,0,0,0,0,0,-1,1826,533,0,0
609,491,0,0,0,0,0,0,0,0,0,-1,1833,533,0,0
616,491,0,0,0,0,0,0,0,0,0,-1,1840,533,0,0
623,491,0,0,0,0,0,0,0,0,0,-1,1847,533,0,0
630,491,0,0,0,0,0,0,0,0,0,-1,1854,533,0,0
637,491,0,0,0,0,0,0,0,0,0,-1,1861,533,0,0
644,491,0,0,0,0,0,0,0,0,0,-1,1868,533,0,0
651,491,0,0,0,0,0,0,0,0,0,-1,1875,533,0,0
658,491,0,0,0,0,0,0,0,0,0,-1,1882,533,0,0
665,491,0,0,0,0,0,0,0,0,0,-1,1889,533,0,0
672,491,0,0,0,0,0,0,0,0,0,-1,1896,533,0,0
679,491,0,0,0,0,0,0,0,0,0,-1,1903,533,0,0
686,491,0,0,0,0,0,0,0,0,0,-1,1910,533,0,0
693,491,0,0,0,0,0,0,0,0,0,-1,1917,533,0,0
700,491,0,0,0,0,0,0,0,0,0,-1,1924,533,0,0
707,491,0,0,0,0,0,0,0,0,0,-1,1931,533,0,0
714,491,0,0,0,0,0,0,0,0,0,-1,1938,533,0,0
721,491,0,0,0,0,0,0,0,0,0,-1,1945,533,0,0
728,491,0,0,0,0,0,0,0,0,0,-1,1952,533,0,0
735,491,0,0,0,0,0,0,0,0,0,-1,1959,533,0,0
742,491,0,0,0,0,0,0,0,0,0,-1,1966,533,0,0
749,491,0,0,0,0,0,0,0,0,0,-1,1973,533,0,0
756,491,0,0,0,0,0,0,0,0,0,-1,1980,533,0,0
763,491,0,0,0,0,0,0,0,0,0,-1,1987,533,0,0
770,491,0,0,0,0,0,0,0,0,0,-1,1994,533,0,0
777,491,0,0,0,0,0,0,0,0,0,-1,2001,533,0,0
784,491,0,0,0,0,0,0,0,0,0,-1,2008,533,0,0
791,491,0,0,0,0,0,0,0,0,0,-1,2015,533,0,0
798,491,0,0,0,0,0,0,0,0,0,-1,2022,533,0,0
805,491,0,0,0,0,0,0,0,0,0,-1,2029,533,0,0
812,491,0,0,0,0,0,0,0,0,0,-1,2036,533,0,0
-700,484,0,0,0,0,0,0,0,0,0,-1,524,540,0,0
-693,484,0,0,0,0,0,0,0,0,0,-1,531,540,0,0
-686,484,0,0,0,0,0,0,0,0,0,-1,538,540,0,0
-679,484,0,0,0,0,0,0,0,0,0,-1,545,540,0,0
-672,484,0,0,0,0,0,0,0,0,0,-1,552,540,0,0
-665,484,0,0,0,0,0,0,0,0,0,-1,559,540,0,0
-658,484,0,0,0,0,0,0,0,0,0,-1,566,540,0,0
-651,484,0,0,0,0,0,0,0,0,0,-1,573,540,0,0
-644,484,0,0,0,0,0,0,0,0,0,-1,580,540,0,0
-637,484,0,0,0,0,0,0,0,0,0,-1,587,540,0,0
-630,484,0,0,0,0,0,0,0,0,0,-1,594,540,0,0
-623,484,0,0,0,0,0,0,0,0,0,-1,601,540,0,0
-616,484,0,0,0,0,0,0,0,0,0,-1,608,540,0,0
-609,484,0,0,0,0,0,0,0,0,0,-1,615,540,0,0
-602,484,0,0,0,0,0,0,0,0,0,-1,622,540,0,0
-595,484,0,0,0,0,0,0,0,0,0,-1,629,540,0,0
-588,484,0,0,0,0,0,0,0,0,0,-1,636,540,0,0
-581,484,0,0,0,0,0,0,0,0,0,-1,643,540,0,0
-574,484,0,0,0,0,0,0,0,0,0,-1,650,540,0,0
-567,484,0,0,0,0,0,0,0,0,0,-1,657,540,0,0
-560,484,0,0,0,0,0,0,0,0,0,-1,664,540,0,0
-553,484,0,0,0,0,0,0,0,0,0,-1,671,540,0,0
-546,484,0,0,0,0,0,0,0,0,0,-1,678,540,0,0
-539,484,0,0,0,0,0,0,0,0,0,-1,685,540,0,0
-532,484,0,0,0,0,0,0,0,0,0,-1,692,540,0,0
-525,484,0,0,0,0,0,0,0,0,0,-1,699,540,0,0
-518,484,0,0,0,0,0,0,0,0,0,-1,706,540,0,0
-511,484,0,0,0,0,0,0,0,0,0,-1,713,540,0,0
-504,484,0,0,0,0,0,0,0,0,0,-1,720,540,0,0
-497,484,0,0,0,0,0,0,0,0,0,-1,727,540,0,0
-490,484,0,0,0,0,0,0,0,0,0,-1,734,540,0,0
-483,484,0,0,0,0,0,0,0,0,0,-1,741,540,0,0
-476,484,-8.46552,1.44702,0,0,0,0,0,0,0,-1,748,540,-8.46554,-1.44702
-469,484,-7.82343,1.70355,0,0,0,0,0,0,0,-1,755,540,-7.82345,-1.70355
-462,484,-8.36987,3.08612,0.205205,0.216792,-0.154958,0.366064,0.0559324,-0.804085,0.2277,0.0469887,762,540,-8.36988,-3.0861
-455,484,-6.77197,2.07092,0.186336,0.190242,-0.14383,0.332132,0.0444461,-0.792188,0.208194,0.0454186,769,540,-6.77197,-2.07094
-448,484,-5.09277,0.928589,0.162543,0.161269,-0.127387,0.289295,0.0345172,-0.782899,0.182449,0.0464069,776,540,-5.09279,-0.928591
-441,484,-3.39404,-0.489868,0,0,0,0,0,0,0,-1,783,540,-3.39407,0.489893
-434,484,-1.26459,-3.19092,0,0,0,0,0,0,0,-1,790,540,-1.26458,3.19095
-427,484,-1.11938,-3.59149,0.0861641,0.0805171,-0.070286,0.153683,0.0129979,-0.765323,0.0984094,0.044419,797,540,-1.1194,3.59152
-420,484,-0.910095,-4.21686,0.063345,0.0585604,-0.0527459,0.113753,0.00815259,-0.762736,0.073269,0.0337224,804,540,-0.910122,4.21689
-413,484,-0.868835,-4.50781,0.0434561,0.0395676,-0.0371115,0.0786742,0.00434947,-0.759227,0.0510614,0.0206241,811,540,-0.86885,4.50779
-406,484,-0.869507,-4.82648,0.0265978,0.0219185,-0.0229717,0.0473487,0.0011676,-0.734649,0.0311839,0.0132836,818,540,-0.869495,4.8265
-399,484,-0.923035,-5.09357,0.0137905,0.0106029,-0.0124088,0.0247074,-0.000314087,-0.721527,0.0165773,0.016102,825,540,-0.923048,5.09358
-392,484,-0.935608,-5.30078,0.00520288,0.00420626,-0.00517484,0.00990335,-0.000494211,-0.737399,0.00677298,0.0180344,832,540,-0.935608,5.30078
-385,484,-0.941284,-5.52649,0.00141288,0.00187648,-0.00189193,0.00355076,-0.000261397,-0.846354,0.00245894,0.0131813,839,540,-0.941259,5.52651
-378,484,-0.953064,-5.77179,0.00141359,0.000849835,-0.00134667,0.00250757,-0.000244137,-0.68223,0.00175875,0.01384,846,540,-0.953067,5.77178
-371,484,-0.946472,-5.98322,0.00166205,-0.000313238,-0.000981778,0.00206701,-0.000718192,-0.39121,0.00166971,0.0148961,853,540,-0.94649,5.98319
-364,484,-0.937073,-6.20258,0.00218127,-0.00112356,-0.000822982,0.00237488,-0.00131716,-0.231042,0.00216056,0.0112474,860,540,-0.937102,6.20258
-357,484,-0.948364,-6.44574,0.00290485,-0.00172727,-0.000838705,0.00305203,-0.00187445,-0.173718,0.00287126,0.0124065,867,540,-0.948385,6.44572
-350,484,-0.94635,-6.65253,0.00370816,-0.00225389,-0.000985345,0.00386679,-0.00241252,-0.159617,0.00365763,0.0142467,874,540,-0.946373,6.65251
-343,484,-0.913513,-6.86829,0.00453914,-0.00256677,-0.00126072,0.00475618,-0.00278382,-0.170488,0.00440259,0.0206175,881,540,-0.913524,6.86828
-336,484,-0.914368,-7.07428,0.00539637,-0.00271399,-0.00162145,0.00570852,-0.00302614,-0.190187,0.00512161,0.0234608,888,540,-0.914372,7.07431
-329,484,-0.945801,-7.25281,0.00644124,-0.00252557,-0.00215551,0.00693249,-0.00301681,-0.224075,0.00589065,0.029586,895,540,-0.945797,7.25281
-322,484,-0.815552,-7.61151,0.00765248,-0.00241642,-0.00275825,0.00835856,-0.0031225,-0.250605,0.00685452,0.0384711,902,540,-0.815566,7.61152
-315,484,-0.770996,-7.89728,0,0,0,0,0,0,0,-1,909,540,-0.771012,7.89726
-308,484,-0.492859,-8.05756,0,0,0,0,0,0,0,-1,916,540,-0.492851,8.05754
-301,484,-1.33453,-6.52667,0,0,0,0,0,0,0,-1,923,540,-1.33454,6.5267
-294,484,-1.61224,-8.17059,0,0,0,0,0,0,0,-1,930,540,-1.61227,8.17058
-287,484,-0.715759,-5.62103,0,0,0,0,0,0,0,-1,937,540,-0.715772,5.62105
-280,484,2.66742,-1.6795,0,0,0,0,0,0,0,-1,944,540,2.6674,1.67949
-273,484,2.53125,-2.22296,0,0,0,0,0,0,0,-1,951,540,2.53128,2.22295
-266,484,2.6778,-2.72058,0,0,0,0,0,0,0,-1,958,540,2.6778,2.72061
-259,484,2.41718,-2.59894,0,0,0,0,0,0,0,-1,965,540,2.41717,2.59892
-252,484,10.6069,-11.696,0,0,0,0,0,0,0,-1,972,540,10.6069,11.696
-245,484,8.0415,-9.22931,0,0,0,0,0,0,0,-1,979,540,8.0415,9.2293
-238,484,5.56836,-6.82672,0,0,0,0,0,0,0,-1,986,540,5.56834,6.82672
-231,484,3.39185,-3.8576,0,0,0,0,0,0,0,-1,993,540,3.39183,3.85763
-224,484,1.14313,-1.21228,0,0,0,0,0,0,0,-1,1000,540,1.14312,1.21226
-217,484,-0.745056,1.17358,0,0,0,0,0,0,0,-1,1007,540,-0.745043,-1.17359
-210,484,0,0,0,0,0,0,0,0,0,-1,1014,540,0,0
-203,484,0,0,0,0,0,0,0,0,0,-1,1021,540,0,0
-196,484,0,0,0,0,0,0,0,0,0,-1,1028,540,0,0
-189,484,0,0,0,0,0,0,0,0,0,-1,1035,540,0,0
-182,484,0,0,0,0,0,0,0,0,0,-1,1042,540,0,0
-175,484,0,0,0,0,0,0,0,0,0,-1,1049,540,0,0
-168,484,0,0,0,0,0,0,0,0,0,-1,1056,540,0,0
-161,484,0,0,0,0,0,0,0,0,0,-1,1063,540,0,0
-154,484,0,0,0,0,0,0,0,0,0,-1,1070,540,0,0
-147,484,0,0,0,0,0,0,0,0,0,-1,1077,540,0,0
-140,484,0,0,0,0,0,0,0,0,0,-1,1084,540,0,0
-133,484,0,0,0,0,0,0,0,0,0,-1,1091,540,0,0
-126,484,0,0,0,0,0,0,0,0,0,-1,1098,540,0,0
-119,484,0,0,0,0,0,0,0,0,0,-1,1105,540,0,0
-112,484,0,0,0,0,0,0,0,0,0,-1,1112,540,0,0
-105,484,0,0,0,0,0,0,0,0,0,-1,1119,540,0,0
-98,484,0,0,0,0,0,0,0,0,0,-1,1126,540,0,0
-91,484,0,0,0,0,0,0,0,0,0,-1,1133,540,0,0
-84,484,0,0,0,0,0,0,0,0,0,-1,1140,540,0,0
-77,484,0,0,0,0,0,0,0,0,0,-1,1147,540,0,0
-70,484,0,0,0,0,0,0,0,0,0,-1,1154,540,0,0
-63,484,0,0,0,0,0,0,0,0,0,-1,1161,540,0,0
-56,484,0,0,0,0,0,0,0,0,0,-1,1168,540,0,0
-49,484,0,0,0,0,0,0,0,0,0,-1,1175,540,0,0
-42,484,0,0,0,0,0,0,0,0,0,-1,1182,540,0,0
-35,484,0,0,0,0,0,0,0,0,0,-1,1189,540,0,0
-28,484,0,0,0,0,0,0,0,0,0,-1,1196,540,0,0
-21,484,0,0,0,0,0,0,0,0,0,-1,1203,540,0,0
-14,484,0,0,0,0,0,0,0,0,0,-1,1210,540,0,0
-7,484,0,0,0,0,0,0,0,0,0,-1,1217,540,0,0
0,484,0,0,0,0,0,0,0,0,0,-1,1224,540,0,0
7,484,0,0,0,0,0,0,0,0,0,-1,1231,540,0,0
14,484,0,0,0,0,0,0,0,0,0,-1,1238,540,0,0
21,484,0,0,0,0,0,0,0,0,0,-1,1245,540,0,0
28,484,0,0,0,0,0,0,0,0,0,-1,1252,540,0,0
35,484,0,0,0,0,0,0,0,0,0,-1,1259,540,0,0
42,484,0,0,0,0,0,0,0,0,0,-1,1266,540,0,0
49,484,0,0,0,0,0,0,0,0,0,-1,1273,540,0,0
56,484,0,0,0,0,0,0,0,0,0,-1,1280,540,0,0
63,484,0,0,0,0,0,0,0,0,0,-1,1287,540,0,0
70,484,0,0,0,0,0,0,0,0,0,-1,1294,540,0,0
77,484,0,0,0,0,0,0,0,0,0,-1,1301,540,0,0
84,484,0,0,0,0,0,0,0,0,0,-1,1308,540,0,0
91,484,0,0,0,0,0,0,0,0,0,-1,1315,540,0,0
98,484,0,0,0,0,0,0,0,0,0,-1,1322,540,0,0
105,484,0,0,0,0,0,0,0,0,0,-1,1329,540,0,0
112,484,0,0,0,0,0,0,0,0,0,-1,1336,540,0,0
119,484,0,0,0,0,0,0,0,0,0,-1,1343,540,0,0
126,484,0,0,0,0,0,0,0,0,0,-1,1350,540,0,0
133,484,0,0,0,0,0,0,0,0,0,-1,1357,540,0,0
140,484,0,0,0,0,0,0,0,0,0,-1,1364,540,0,0
147,484,0,0,0,0,0,0,0,0,0,-1,1371,540,0,0
154,484,0,0,0,0,0,0,0,0,0,-1,1378,540,0,0
161,484,0,0,0,0,0,0,0,0,0,-1,1385,540,0,0
168,484,0,0,0,0,0,0,0,0,0,-1,1392,540,0,0
175,484,0,0,0,0,0,0,0,0,0,-1,1399,540,0,0
182,484,0,0,0,0,0,0,0,0,0,-1,1406,540,0,0
189,484,0,0,0,0,0,0,0,0,0,-1,1413,540,0,0
196,484,0,0,0,0,0,0,0,0,0,-1,1420,540,0,0
203,484,0,0,0,0,0,0,0,0,0,-1,1427,540,0,0
210,484,0,0,0,0,0,0,0,0,0,-1,1434,540,0,0
217,484,0,0,0,0,0,0,0,0,0,-1,1441,540,0,0
224,484,0,0,0,0,0,0,0,0,0,-1,1448,540,0,0
231,484,0,0,0,0,0,0,0,0,0,-1,1455,540,0,0
238,484,0,0,0,0,0,0,0,0,0,-1,1462,540,0,0
245,484,0,0,0,0,0,0,0,0,0,-1,1469,540,0,0
252,484,0,0,0,0,0,0,0,0,0,-1,1476,540,0,0
259,484,0,0,0,0,0,0,0,0,0,-1,1483,540,0,0
266,484,0,0,0,0,0,0,0,0,0,-1,1490,540,0,0
273,484,0,0,0,0,0,0,0,0,0,-1,1497,540,0,0
280,484,0,0,0,0,0,0,0,0,0,-1,1504,540,0,0
287,484,0,0,0,0,0,0,0,0,0,-1,1511,540,0,0
294,484,0,0,0,0,0,0,0,0,0,-1,1518,540,0,0
301,484,0,0,0,0,0,0,0,0,0,-1,1525,540,0,0
308,484,0,0,0,0,0,0,0,0,0,-1,1532,540,0,0
315,484,0,0,0,0,0,0,0,0,0,-1,1539,540,0,0
322,484,0,0,0,0,0,0,0,0,0,-1,1546,540,0,0
329,484,0,0,0,0,0,0,0,0,0,-1,1553,540,0,0
336,484,4.38708,-1.64136,0,0,0,0,0,0,0,-1,1560,540,4.38704,1.64138
343,484,7.57996,-1.05457,0,0,0,0,0,0,0,-1,1567,540,7.57995,1.05454
350,484,8.10425,-1.18878,0,0,0,0,0,0,0,-1,1574,540,8.1043,1.18877
357,484,7.74902,-3.80286,0,0,0,0,0,0,0,-1,1581,540,7.74901,3.80287
364,484,6.31262,-3.87213,0,0,0,0,0,0,0,-1,1588,540,6.31263,3.87215
371,484,7.21008,0.973511,0,0,0,0,0,0,0,-1,1595,540,7.21014,-0.973541
378,484,11.0563,1.5014,0,0,0,0,0,0,0,-1,1602,540,11.0563,-1.5014
385,484,14.3469,2.5545,0,0,0,0,0,0,0,-1,1609,540,14.3469,-2.55453
392,484,7.39453,-4.95026,0,0,0,0,0,0,0,-1,1616,540,7.39448,4.95023
399,484,7.14417,-2.5639,0,0,0,0,0,0,0,-1,1623,540,7.14417,2.56391
406,484,7.88953,-2.47321,0,0,0,0,0,0,0,-1,1630,540,7.88954,2.47323
413,484,4.4895,-1.08673,0,0,0,0,0,0,0,-1,1637,540,4.48952,1.08674
420,484,4.50012,-2.11255,0,0,0,0,0,0,0,-1,1644,540,4.50012,2.11256
427,484,5.28601,-3.54053,0,0,0,0,0,0,0,-1,1651,540,5.28599,3.54051
434,484,7.06665,-6.55029,0,0,0,0,0,0,0,-1,1658,540,7.06659,6.55029
441,484,6.76404,-6.56793,0,0,0,0,0,0,0,-1,1665,540,6.7641,6.56792
448,484,6.64954,-6.20013,-0.00322301,0.00222794,-0.00373791,0.0041285,-0.00512356,-1.10041,0.00535197,0.0384521,1672,540,6.64957,6.20013
455,484,6.66846,-6.00781,-0.00167442,0.00288698,-0.00219244,0.00376988,-0.00255733,-1.18796,0.00367531,0.0191647,1679,540,6.66848,6.00781
462,484,6.69836,-5.79407,-0.00062289,0.00294911,-0.00116561,0.00329582,-0.000969599,-1.28168,0.00258183,0.0140299,1686,540,6.69833,5.79408
469,484,6.7002,-5.54694,8.40059e-05,0.00270881,-0.000562528,0.00282429,-3.14702e-05,-1.36833,0.00189344,0.015595,1693,540,6.70025,5.54694
476,484,6.68982,-5.27411,0.000577745,0.00232876,-0.000159034,0.00234309,0.000563418,-1.48095,0.00141223,0.0150544,1700,540,6.68985,5.27411
483,484,6.68323,-5.02814,0.000852822,0.0019243,8.52251e-05,0.00193104,0.000846086,1.49192,0.00111773,0.0119403,1707,540,6.6832,5.02817
490,484,6.69128,-4.8075,0.000998204,0.00151247,0.000202304,0.00158252,0.000928161,1.23749,0.000918214,0.0118571,1714,540,6.69125,4.80752
497,484,6.69995,-4.57849,0.000865211,0.000978183,0.000114752,0.0010496,0.000793796,1.01411,0.000631964,0.0135057,1721,540,6.69992,4.57849
504,484,6.70203,-4.33588,0.000553517,0.00060397,-4.21127e-05,0.000627834,0.000529653,-1.05525,0.000389971,0.0162181,1728,540,6.70201,4.33586
511,484,6.70264,-4.07019,0.000185854,0.000307781,-0.000184642,0.000441263,5.23716e-05,-0.94485,0.000278365,0.0172367,1735,540,6.7026,4.07021
518,484,6.6897,-3.80475,-0.000349623,6.59695e-05,-0.000481062,0.000382196,-0.00066585,-0.989271,0.000612432,0.0137792,1742,540,6.68966,3.80472
525,484,6.68945,-3.54572,-0.000946349,-0.000120923,-0.000858826,0.000419209,-0.00148648,-1.00938,0.00115634,0.0121309,1749,540,6.68945,3.54571
532,484,6.71643,-3.29816,-0.00151271,-0.00011192,-0.00114219,0.000527521,-0.00215215,-1.06043,0.00163915,0.0135173,1756,540,6.71644,3.29816
539,484,6.68933,-3.00928,-0.00199166,6.29187e-05,-0.00133041,0.000716497,-0.00264524,-1.11416,0.00204461,0.021269,1763,540,6.68928,3.00927
546,484,6.59705,-2.7926,-0.00236977,0.000390447,-0.00143904,0.00100421,-0.00298353,-1.16765,0.00239499,0.023696,1770,540,6.59701,2.7926
553,484,6.60034,-2.39172,-0.00267954,0.00072594,-0.00161139,0.00136753,-0.00332113,-1.19188,0.00278423,0.0365385,1777,540,6.60033,2.39174
560,484,6.6333,-1.99292,0,0,0,0,0,0,0,-1,1784,540,6.63328,1.9929
567,484,7.69409,-0.932739,0,0,0,0,0,0,0,-1,1791,540,7.69412,0.932758
574,484,5.74463,1.50922,0,0,0,0,0,0,0,-1,1798,540,5.74463,-1.50924
581,484,10.34,2.9491,0,0,0,0,0,0,0,-1,1805,540,10.34,-2.94912
588,484,10.6669,2.88568,0,0,0,0,0,0,0,-1,1812,540,10.6669,-2.88567
595,484,10.7233,1.04767,0,0,0,0,0,0,0,-1,1819,540,10.7233,-1.04766
602,484,0,0,0,0,0,0,0,0,0,-1,1826,540,0,0
609,484,0,0,0,0,0,0,0,0,0,-1,1833,540,0,0
616,484,0,0,0,0,0,0,0,0,0,-1,1840,540,0,0
623,484,0,0,0,0,0,0,0,0,0,-1,1847,540,0,0
630,484,0,0,0,0,0,0,0,0,0,-1,1854,540,0,0
637,484,0,0,0,0,0,0,0,0,0,-1,1861,540,0,0
644,484,0,0,0,0,0,0,0,0,0,-1,1868,540,0,0
651,484,0,0,0,0,0,0,0,0,0,-1,1875,540,0,0
658,484,0,0,0,0,0,0,0,0,0,-1,1882,540,0,0
665,484,0,0,0,0,0,0,0,0,0,-1,1889,540,0,0
672,484,0,0,0,0,0,0,0,0,0,-1,1896,540,0,0
679,484,0,0,0,0,0,0,0,0,0,-1,1903,540,0,0
686,484,0,0,0,0,0,0,0,0,0,-1,1910,540,0,0
693,484,0,0,0,0,0,0,0,0,0,-1,1917,540,0,0
700,484,0,0,0,0,0,0,0,0,0,-1,1924,540,0,0
707,484,0,0,0,0,0,0,0,0,0,-1,1931,540,0,0
714,484,0,0,0,0,0,0,0,0,0,-1,1938,540,0,0
721,484,0,0,0,0,0,0,0,0,0,-1,1945,540,0,0
728,484,0,0,0,0,0,0,0,0,0,-1,1952,540,0,0
735,484,0,0,0,0,0,0,0,0,0,-1,1959,540,0,0
742,484,0,0,0,0,0,0,0,0,0,-1,1966,540,0,0
749,484,0,0,0,0,0,0,0,0,0,-1,1973,540,0,0
756,484,0,0,0,0,0,0,0,0,0,-1,1980,540,0,0
763,484,0,0,0,0,0,0,0,0,0,-1,1987,540,0,0
770,484,0,0,0,0,0,0,0,0,0,-1,1994,540,0,0
777,484,0,0,0,0,0,0,0,0,0,-1,2001,540,0,0
784,484,0,0,0,0,0,0,0,0,0,-1,2008,540,0,0
791,484,0,0,0,0,0,0,0,0,0,-1,2015,540,0,0
798,484,0,0,0,0,0,0,0,0,0,-1,2022,540,0,0
805,484,0,0,0,0,0,0,0,0,0,-1,2029,540,0,0
812,484,0,0,0,0,0,0,0,0,0,-1,2036,540,0,0
-700,477,0,0,0,0,0,0,0,0,0,-1,524,547,0,0
-693,477,0,0,0,0,0,0,0,0,0,-1,531,547,0,0
-686,477,0,0,0,0,0,0,0,0,0,-1,538,547,0,0
-679,477,0,0,0,0,0,0,0,0,0,-1,545,547,0,0
-672,477,0,0,0,0,0,0,0,0,0,-1,552,547,0,0
-665,477,0,0,0,0,0,0,0,0,0,-1,559,547,0,0
-658,477,0,0,0,0,0,0,0,0,0,-1,566,547,0,0
-651,477,0,0,0,0,0,0,0,0,0,-1,573,547,0,0
-644,477,0,0,0,0,0,0,0,0,0,-1,580,547,0,0
-637,477,0,0,0,0,0,0,0,0,0,-1,587,547,0,0
-630,477,0,0,0,0,0,0,0,0,0,-1,594,547,0,0
-623,477,0,0,0,0,0,0,0,0,0,-1,601,547,0,0
-616,477,0,0,0,0,0,0,0,0,0,-1,608,547,0,0
-609,477,0,0,0,0,0,0,0,0,0,-1,615,547,0,0
-602,477,0,0,0,0,0,0,0,0,0,-1,622,547,0,0
-595,477,0,0,0,0,0,0,0,0,0,-1,629,547,0,0
-588,477,0,0,0,0,0,0,0,0,0,-1,636,547,0,0
-581,477,0,0,0,0,0,0,0,0,0,-1,643,547,0,0
-574,477,0,0,0,0,0,0,0,0,0,-1,650,547,0,0
-567,477,0,0,0,0,0,0,0,0,0,-1,657,547,0,0
-560,477,0,0,0,0,0,0,0,0,0,-1,664,547,0,0
-553,477,0,0,0,0,0,0,0,0,0,-1,671,547,0,0
-546,477,0,0,0,0,0,0,0,0,0,-1,678,547,0,0
-539,477,0,0,0,0,0,0,0,0,0,-1,685,547,0,0
-532,477,0,0,0,0,0,0,0,0,0,-1,692,547,0,0
-525,477,0,0,0,0,0,0,0,0,0,-1,699,547,0,0
-518,477,0,0,0,0,0,0,0,0,0,-1,706,547,0,0
-511,477,0,0,0,0,0,0,0,0,0,-1,713,547,0,0
-504,477,0,0,0,0,0,0,0,0,0,-1,720,547,0,0
-497,477,0,0,0,0,0,0,0,0,0,-1,727,547,0,0
-490,477,0,0,0,0,0,0,0,0,0,-1,734,547,0,0
-483,477,-8.65143,0.118408,0.183477,0.212947,-0.108727,0.307933,0.0884905,-0.852749,0.183066,0.0439935,741,547,-8.65141,-0.118398
-476,477,-7.96857,0.303589,0.18793,0.212844,-0.12447,0.325478,0.0752957,-0.835274,0.19675,0.0461076,748,547,-7.96857,-0.303598
-469,477,-7.26617,0.525085,0.181909,0.201507,-0.128639,0.32072,0.0626963,-0.823413,0.196281,0.0484763,755,547,-7.2662,-0.525111
-462,477,-6.65143,1.06042,0.169388,0.182854,-0.124939,0.301241,0.0510009,-0.812316,0.186171,0.0476942,762,547,-6.65143,-1.06043
-455,477,-5.31757,0.429016,0.151888,0.159642,-0.115254,0.271085,0.0404457,-0.802212,0.168864,0.0474088,769,547,-5.31756,-0.42902
-448,477,-3.77142,-0.38324,0,0,0,0,0,0,0,-1,776,547,-3.77141,0.38322
-441,477,-1.36279,-3.50616,0,0,0,0,0,0,0,-1,783,547,-1.36279,3.50618
-434,477,-1.38019,-3.82574,0.0869176,0.0852237,-0.0693061,0.155382,0.0167594,-0.779288,0.098478,0.0416915,790,547,-1.38021,3.82572
-427,477,-1.11902,-4.06659,0.0670522,0.0646343,-0.0546542,0.120511,0.0111757,-0.77434,0.0768865,0.0226189,797,547,-1.11899,4.06658
-420,477,-1.14557,-4.22797,0.048522,0.0464142,-0.0405602,0.088042,0.00689421,-0.77241,0.0565369,0.0186308,804,547,-1.14555,4.22796
-413,477,-1.11713,-4.51801,0.0329012,0.0308566,-0.0282528,0.0601502,0.00360758,-0.767314,0.0389533,0.0155476,811,547,-1.11711,4.51801
-406,477,-1.13025,-4.80725,0.0198241,0.0165184,-0.017114,0.0353649,0.000977626,-0.737259,0.0232576,0.0111701,818,547,-1.13022,4.80727
-399,477,-1.13605,-5.08722,0.0101905,0.00758431,-0.00897285,0.0179544,-0.000179587,-0.71329,0.0120299,0.0185195,825,547,-1.13602,5.08719
-392,477,-1.1604,-5.31567,0.00407594,0.00245996,-0.00356317,0.00692158,-0.000385679,-0.673902,0.00474817,0.0173167,832,547,-1.16038,5.31565
-385,477,-1.16962,-5.51227,0.00150781,0.000411129,-0.00107042,0.00216217,-0.00024323,-0.548693,0.00152898,0.014962,839,547,-1.16964,5.51228
-378,477,-1.18188,-5.76337,0.00167124,-0.000699517,-0.000572017,0.00180204,-0.000830317,-0.2248,0.00155392,0.0132463,846,547,-1.18186,5.76338
-371,477,-1.18225,-5.96918,0.00209664,-0.00194081,-0.000262662,0.00211366,-0.00195783,-0.0646931,0.00235125,0.0127575,853,547,-1.18225,5.96917
-364,477,-1.19373,-6.17871,0.00279388,-0.00292182,-0.000138244,0.00279722,-0.00292517,-0.0241679,0.0033041,0.0125763,860,547,-1.1937,6.17874
-357,477,-1.19244,-6.4234,0.00373362,-0.0036965,-0.000232099,0.00374086,-0.00370374,-0.031197,0.00429816,0.0104603,867,547,-1.19245,6.4234
-350,477,-1.18109,-6.64923,0.00477999,-0.00438371,-0.000480645,0.00480514,-0.00440885,-0.0522599,0.00532134,0.00959503,874,547,-1.1811,6.64921
-343,477,-1.12988,-6.89343,0.00587986,-0.00483773,-0.000906351,0.00595596,-0.00491383,-0.0837739,0.00628529,0.0171609,881,547,-1.12986,6.89345
-336,477,-1.07153,-7.14453,0.00703305,-0.00512318,-0.00145059,0.00720375,-0.00529388,-0.117138,0.00724354,0.0281644,888,547,-1.07152,7.14451
-329,477,-1.01276,-7.48419,0.00846411,-0.00503048,-0.00226598,0.00883444,-0.00540082,-0.162001,0.00829804,0.0495866,895,547,-1.01275,7.48419
-322,477,-1.05792,-7.86493,0,0,0,0,0,0,0,-1,902,547,-1.05792,7.86495
-315,477,-1.44391,-7.70148,0,0,0,0,0,0,0,-1,909,547,-1.44389,7.70149
-308,477,-1.30127,-6.55188,0,0,0,0,0,0,0,-1,916,547,-1.30128,6.55185
-301,477,-1.21185,-6.28351,0,0,0,0,0,0,0,-1,923,547,-1.21184,6.28352
-294,477,-0.352905,3.27142,0,0,0,0,0,0,0,-1,930,547,-0.35292,-3.27144
-287,477,3.54364,2.15399,0,0,0,0,0,0,0,-1,937,547,3.54362,-2.15396
-280,477,1.97308,-0.954163,0,0,0,0,0,0,0,-1,944,547,1.9731,0.954178
-273,477,2.11621,-3.76709,0,0,0,0,0,0,0,-1,951,547,2.11619,3.76706
-266,477,2.04669,-3.42389,0,0,0,0,0,0,0,-1,958,547,2.04671,3.42391
-259,477,-1.33478,-3.41205,0,0,0,0,0,0,0,-1,965,547,-1.3348,3.41206
-252,477,0.597168,-5.32922,0,0,0,0,0,0,0,-1,972,547,0.597144,5.32924
-245,477,2.27161,-7.02875,0,0,0,0,0,0,0,-1,979,547,2.27158,7.02873
-238,477,7.29095,-4.50336,0,0,0,0,0,0,0,-1,986,547,7.29093,4.50335
-231,477,4.88141,-2.23413,0,0,0,0,0,0,0,-1,993,547,4.88143,2.23413
-224,477,0,0,0,0,0,0,0,0,0,-1,1000,547,0,0
-217,477,0,0,0,0,0,0,0,0,0,-1,1007,547,0,0
-210,477,0,0,0,0,0,0,0,0,0,-1,1014,547,0,0
-203,477,0,0,0,0,0,0,0,0,0,-1,1021,547,0,0
-196,477,0,0,0,0,0,0,0,0,0,-1,1028,547,0,0
-189,477,0,0,0,0,0,0,0,0,0,-1,1035,547,0,0
-182,477,0,0,0,0,0,0,0,0,0,-1,1042,547,0,0
-175,477,0,0,0,0,0,0,0,0,0,-1,1049,547,0,0
-168,477,0,0,0,0,0,0,0,0,0,-1,1056,547,0,0
-161,477,0,0,0,0,0,0,0,0,0,-1,1063,547,0,0
-154,477,0,0,0,0,0,0,0,0,0,-1,1070,547,0,0
-147,477,0,0,0,0,0,0,0,0,0,-1,1077,547,0,0
-140,477,0,0,0,0,0,0,0,0,0,-1,1084,547,0,0
-133,477,0,0,0,0,0,0,0,0,0,-1,1091,547,0,0
-126,477,0,0,0,0,0,0,0,0,0,-1,1098,547,0,0
-119,477,0,0,0,0,0,0,0,0,0,-1,1105,547,0,0
-112,477,0,0,0,0,0,0,0,0,0,-1,1112,547,0,0
-105,477,0,0,0,0,0,0,0,0,0,-1,1119,547,0,0
-98,477,0,0,0,0,0,0,0,0,0,-1,1126,547,0,0
-91,477,0,0,0,0,0,0,0,0,0,-1,1133,547,0,0
-84,477,0,0,0,0,0,0,0,0,0,-1,1140,547,0,0
-77,477,0,0,0,0,0,0,0,0,0,-1,1147,547,0,0
-70,477,0,0,0,0,0,0,0,0,0,-1,1154,547,0,0
-63,477,0,0,0,0,0,0,0,0,0,-1,1161,547,0,0
-56,477,0,0,0,0,0,0,0,0,0,-1,1168,547,0,0
-49,477,0,0,0,0,0,0,0,0,0,-1,1175,547,0,0
-42,477,0,0,0,0,0,0,0,0,0,-1,1182,547,0,0
-35,477,0,0,0,0,0,0,0,0,0,-1,1189,547,0,0
-28,477,0,0,0,0,0,0,0,0,0,-1,1196,547,0,0
-21,477,0,0,0,0,0,0,0,0,0,-1,1203,547,0,0
-14,477,0,0,0,0,0,0,0,0,0,-1,1210,547,0,0
-7,477,0,0,0,0,0,0,0,0,0,-1,1217,547,0,0
0,477,0,0,0,0,0,0,0,0,0,-1,1224,547,0,0
7,477,0,0,0,0,0,0,0,0,0,-1,1231,547,0,0
14,477,0,0,0,0,0,0,0,0,0,-1,1238,547,0,0
21,477,0,0,0,0,0,0,0,0,0,-1,1245,547,0,0
28,477,0,0,0,0,0,0,0,0,0,-1,1252,547,0,0
35,477,0,0,0,0,0,0,0,0,0,-1,1259,547,0,0
42,477,0,0,0,0,0,0,0,0,0,-1,1266,547,0,0
49,477,0,0,0,0,0,0,0,0,0,-1,1273,547,0,0
56,477,0,0,0,0,0,0,0,0,0,-1,1280,547,0,0
63,477,0,0,0,0,0,0,0,0,0,-1,1287,547,0,0
70,477,0,0,0,0,0,0,0,0,0,-1,1294,547,0,0
77,477,0,0,0,0,0,0,0,0,0,-1,1301,547,0,0
84,477,0,0,0,0,0,0,0,0,0,-1,1308,547,0,0
91,477,0,0,0,0,0,0,0,0,0,-1,1315,547,0,0
98,477,0,0,0,0,0,0,0,0,0,-1,1322,547,0,0
105,477,0,0,0,0,0,0,0,0,0,-1,1329,547,0,0
112,477,0,0,0,0,0,0,0,0,0,-1,1336,547,0,0
119,477,0,0,0,0,0,0,0,0,0,-1,1343,547,0,0
126,477,0,0,0,0,0,0,0,0,0,-1,1350,547,0,0
133,477,0,0,0,0,0,0,0,0,0,-1,1357,547,0,0
140,477,0,0,0,0,0,0,0,0,0,-1,1364,547,0,0
147,477,0,0,0,0,0,0,0,0,0,-1,1371,547,0,0
154,477,0,0,0,0,0,0,0,0,0,-1,1378,547,0,0
161,477,0,0,0,0,0,0,0,0,0,-1,1385,547,0,0
168,477,0,0,0,0,0,0,0,0,0,-1,1392,547,0,0
175,477,0,0,0,0,0,0,0,0,0,-1,1399,547,0,0
182,477,0,0,0,0,0,0,0,0,0,-1,1406,547,0,0
189,477,0,0,0,0,0,0,0,0,0,-1,1413,547,0,0
196,477,0,0,0,0,0,0,0,0,0,-1,1420,547,0,0
203,477,0,0,0,0,0,0,0,0,0,-1,1427,547,0,0
210,477,0,0,0,0,0,0,0,0,0,-1,1434,547,0,0
217,477,0,0,0,0,0,0,0,0,0,-1,1441,547,0,0
224,477,0,0,0,0,0,0,0,0,0,-1,1448,547,0,0
231,477,0,0,0,0,0,0,0,0,0,-1,1455,547,0,0
238,477,0,0,0,0,0,0,0,0,0,-1,1462,547,0,0
245,477,0,0,0,0,0,0,0,0,0,-1,1469,547,0,0
252,477,0,0,0,0,0,0,0,0,0,-1,1476,547,0,0
259,477,0,0,0,0,0,0,0,0,0,-1,1483,547,0,0
266,477,0,0,0,0,0,0,0,0,0,-1,1490,547,0,0
273,477,0,0,0,0,0,0,0,0,0,-1,1497,547,0,0
280,477,0,0,0,0,0,0,0,0,0,-1,1504,547,0,0
287,477,0,0,0,0,0,0,0,0,0,-1,1511,547,0,0
294,477,0,0,0,0,0,0,0,0,0,-1,1518,547,0,0
301,477,0,0,0,0,0,0,0,0,0,-1,1525,547,0,0
308,477,0,0,0,0,0,0,0,0,0,-1,1532,547,0,0
315,477,0,0,0,0,0,0,0,0,0,-1,1539,547,0,0
322,477,0,0,0,0,0,0,0,0,0,-1,1546,547,0,0
329,477,0,0,0,0,0,0,0,0,0,-1,1553,547,0,0
336,477,0,0,0,0,0,0,0,0,0,-1,1560,547,0,0
343,477,0,0,0,0,0,0,0,0,0,-1,1567,547,0,0
350,477,1.7699,-3.32275,0,0,0,0,0,0,0,-1,1574,547,1.7699,3.32272
357,477,3.073,-4.83313,0,0,0,0,0,0,0,-1,1581,547,3.07303,4.83316
364,477,4.30127,-4.22864,0,0,0,0,0,0,0,-1,1588,547,4.30125,4.22865
371,477,4.57703,0.283264,0,0,0,0,0,0,0,-1,1595,547,4.57706,-0.283262
378,477,8.57947,1.05969,0,0,0,0,0,0,0,-1,1602,547,8.5795,-1.05972
385,477,12.3726,2.02356,0,0,0,0,0,0,0,-1,1609,547,12.3725,-2.02355
392,477,16.4678,2.76843,0,0,0,0,0,0,0,-1,1616,547,16.4678,-2.76845
399,477,8.00037,-2.29523,0,0,0,0,0,0,0,-1,1623,547,8.00031,2.2952
406,477,4.82495,2.7475,0,0,0,0,0,0,0,-1,1630,547,4.825,-2.74752
413,477,4.88171,-0.336426,0,0,0,0,0,0,0,-1,1637,547,4.88169,0.336398
420,477,3.34875,0.102722,0,0,0,0,0,0,0,-1,1644,547,3.34871,-0.1027
427,477,1.66772,-0.373108,0,0,0,0,0,0,0,-1,1651,547,1.66768,0.373104
434,477,3.76978,-2.30798,0,0,0,0,0,0,0,-1,1658,547,3.76974,2.30801
441,477,4.05444,-2.80402,0,0,0,0,0,0,0,-1,1665,547,4.05444,2.804
448,477,6.85706,-6.20441,0,0,0,0,0,0,0,-1,1672,547,6.85708,6.20439
455,477,7.11377,-6.03607,-0.00183215,0.00380181,-0.00253085,0.00477173,-0.00280206,-1.20482,0.00442174,0.0480567,1679,547,7.11378,6.0361
462,477,6.97339,-5.88574,-0.000570765,0.00383708,-0.00123879,0.00416137,-0.000895059,-1.31476,0.00311575,0.0340565,1686,547,6.97334,5.88572
469,477,6.96533,-5.54889,0.000282636,0.00361919,-0.000466216,0.00368311,0.000218716,-1.43454,0.00238584,0.0218688,1693,547,6.96539,5.54886
476,477,6.94031,-5.30725,0.000927633,0.0032358,0.000102017,0.0032403,0.000923133,1.52671,0.00192764,0.0169314,1700,547,6.94037,5.30723
483,477,6.94165,-5.05432,0.00128917,0.00271337,0.000460653,0.00284937,0.00115316,1.2837,0.00165502,0.0114668,1707,547,6.94159,5.05431
490,477,6.92151,-4.80322,0.00148252,0.00229647,0.000673804,0.00267667,0.00110232,1.05707,0.00155336,0.0109823,1714,547,6.92146,4.80322
497,477,6.92883,-4.54559,0.00136344,0.00170843,0.000603698,0.00216379,0.000908078,0.924553,0.00125463,0.0128431,1721,547,6.92888,4.5456
504,477,6.94153,-4.3197,0.00104752,0.00126622,0.000457754,0.0016275,0.000686235,0.902644,0.000943477,0.0172486,1728,547,6.9415,4.31969
511,477,7.00366,-4.08582,0.000701757,0.000876826,0.000348394,0.00114851,0.000430069,0.908476,0.000670026,0.0209931,1735,547,7.00368,4.08579
518,477,6.9895,-3.80731,0.000183118,0.000537504,5.0332e-05,0.000544513,0.000176109,1.43241,0.000320843,0.0180105,1742,547,6.98954,3.8073
525,477,6.96497,-3.54321,-0.000405153,0.000260596,-0.000336681,0.000401177,-0.000545733,-1.17525,0.000548818,0.014928,1749,547,6.96498,3.54321
532,477,6.94312,-3.31482,-0.000970242,0.000152375,-0.000647431,0.000447941,-0.00126581,-1.14253,0.0010263,0.017291,1756,547,6.94306,3.31481
539,477,6.92383,-3.00085,-0.0014593,0.000136358,-0.000898191,0.000539893,-0.00186284,-1.14854,0.00145562,0.0168717,1763,547,6.92383,3.00084
546,477,6.9104,-2.75055,-0.0018411,0.000288873,-0.00105521,0.000723107,-0.00227533,-1.1804,0.00180682,0.0193392,1770,547,6.91037,2.75053
553,477,6.88672,-2.45996,-0.00218467,0.000449792,-0.00127208,0.000963759,-0.00269863,-1.18682,0.00219214,0.0201165,1777,547,6.88667,2.45994
560,477,6.92212,-2.0755,-0.00243494,0.0005491,-0.00146352,0.00114706,-0.0030329,-1.18292,0.00249382,0.0390558,1784,547,6.92213,2.07553
567,477,6.99609,-1.8526,0,0,0,0,0,0,0,-1,1791,547,6.99606,1.85258
574,477,6.82593,-0.916992,0,0,0,0,0,0,0,-1,1798,547,6.82598,0.916977
581,477,9.29321,-0.557007,0,0,0,0,0,0,0,-1,1805,547,9.29324,0.55703
588,477,9.75195,0.422729,0,0,0,0,0,0,0,-1,1812,547,9.75198,-0.42273
595,477,9.89172,1.21326,0,0,0,0,0,0,0,-1,1819,547,9.89174,-1.21328
602,477,6.5271,-0.964417,0,0,0,0,0,0,0,-1,1826,547,6.52706,0.964427
609,477,0,0,0,0,0,0,0,0,0,-1,1833,547,0,0
616,477,0,0,0,0,0,0,0,0,0,-1,1840,547,0,0
623,477,0,0,0,0,0,0,0,0,0,-1,1847,547,0,0
630,477,0,0,0,0,0,0,0,0,0,-1,1854,547,0,0
637,477,0,0,0,0,0,0,0,0,0,-1,1861,547,0,0
644,477,0,0,0,0,0,0,0,0,0,-1,1868,547,0,0
651,477,0,0,0,0,0,0,0,0,0,-1,1875,547,0,0
658,477,0,0,0,0,0,0,0,0,0,-1,1882,547,0,0
665,477,0,0,0,0,0,0,0,0,0,-1,1889,547,0,0
672,477,0,0,0,0,0,0,0,0,0,-1,1896,547,0,0
679,477,0,0,0,0,0,0,0,0,0,-1,1903,547,0,0
686,477,0,0,0,0,0,0,0,0,0,-1,1910,547,0,0
693,477,0,0,0,0,0,0,0,0,0,-1,1917,547,0,0
700,477,0,0,0,0,0,0,0,0,0,-1,1924,547,0,0
707,477,0,0,0,0,0,0,0,0,0,-1,1931,547,0,0
714,477,0,0,0,0,0,0,0,0,0,-1,1938,547,0,0
721,477,0,0,0,0,0,0,0,0,0,-1,1945,547,0,0
728,477,0,0,0,0,0,0,0,0,0,-1,1952,547,0,0
735,477,0,0,0,0,0,0,0,0,0,-1,1959,547,0,0
742,477,0,0,0,0,0,0,0,0,0,-1,1966,547,0,0
749,477,0,0,0,0,0,0,0,0,0,-1,1973,547,0,0
756,477,0,0,0,0,0,0,0,0,0,-1,1980,547,0,0
763,477,0,0,0,0,0,0,0,0,0,-1,1987,547,0,0
770,477,0,0,0,0,0,0,0,0,0,-1,1994,547,0,0
777,477,0,0,0,0,0,0,0,0,0,-1,2001,547,0,0
784,477,0,0,0,0,0,0,0,0,0,-1,2008,547,0,0
791,477,0,0,0,0,0,0,0,0,0,-1,2015,547,0,0
798,477,0,0,0,0,0,0,0,0,0,-1,2022,547,0,0
805,477,0,0,0,0,0,0,0,0,0,-1,2029,547,0,0
812,477,0,0,0,0,0,0,0,0,0,-1,2036,547,0,0
-700,470,0,0,0,0,0,0,0,0,0,-1,524,554,0,0
-693,470,0,0,0,0,0,0,0,0,0,-1,531,554,0,0
-686,470,0,0,0,0,0,0,0,0,0,-1,538,554,0,0
-679,470,0,0,0,0,0,0,0,0,0,-1,545,554,0,0
-672,470,0,0,0,0,0,0,0,0,0,-1,552,554,0,0
-665,470,0,0,0,0,0,0,0,0,0,-1,559,554,0,0
-658,470,0,0,0,0,0,0,0,0,0,-1,566,554,0,0
-651,470,0,0,0,0,0,0,0,0,0,-1,573,554,0,0
-644,470,0,0,0,0,0,0,0,0,0,-1,580,554,0,0
-637,470,0,0,0,0,0,0,0,0,0,-1,587,554,0,0
-630,470,0,0,0,0,0,0,0,0,0,-1,594,554,0,0
-623,470,0,0,0,0,0,0,0,0,0,-1,601,554,0,0
-616,470,0,0,0,0,0,0,0,0,0,-1,608,554,0,0
-609,470,0,0,0,0,0,0,0,0,0,-1,615,554,0,0
-602,470,0,0,0,0,0,0,0,0,0,-1,622,554,0,0
-595,470,0,0,0,0,0,0,0,0,0,-1,629,554,0,0
-588,470,0,0,0,0,0,0,0,0,0,-1,636,554,0,0
-581,470,0,0,0,0,0,0,0,0,0,-1,643,554,0,0
-574,470,0,0,0,0,0,0,0,0,0,-1,650,554,0,0
-567,470,0,0,0,0,0,0,0,0,0,-1,657,554,0,0
-560,470,0,0,0,0,0,0,0,0,0,-1,664,554,0,0
-553,470,0,0,0,0,0,0,0,0,0,-1,671,554,0,0
-546,470,0,0,0,0,0,0,0,0,0,-1,678,554,0,0
-539,470,0,0,0,0,0,0,0,0,0,-1,685,554,0,0
-532,470,0,0,0,0,0,0,0,0,0,-1,692,554,0,0
-525,470,0,0,0,0,0,0,0,0,0,-1,699,554,0,0
-518,470,0,0,0,0,0,0,0,0,0,-1,706,554,0,0
-511,470,0,0,0,0,0,0,0,0,0,-1,713,554,0,0
-504,470,0,0,0,0,0,0,0,0,0,-1,720,554,0,0
-497,470,0,0,0,0,0,0,0,0,0,-1,727,554,0,0
-490,470,-8.75464,-0.825745,0,0,0,0,0,0,0,-1,734,554,-8.75464,0.825717
-483,470,-7.98273,-0.603271,0.163443,0.180908,-0.0940894,0.266669,0.0776818,-0.831672,0.158369,0.0431528,741,554,-7.98272,0.603276
-476,470,-7.24121,-0.427368,0.162482,0.179182,-0.104567,0.275732,0.0659325,-0.82524,0.16626,0.0477214,748,554,-7.24121,0.427339
-469,470,-6.23016,-0.651855,0.153544,0.168106,-0.105794,0.266869,0.0547806,-0.819756,0.162755,0.0497885,755,554,-6.23014,0.651829
-462,470,-4.87915,-1.03705,0.140031,0.151203,-0.100999,0.24677,0.0444641,-0.813024,0.151877,0.04863,762,554,-4.87914,1.03702
-455,470,-3.55457,-1.53186,0,0,0,0,0,0,0,-1,769,554,-3.55456,1.53187
-448,470,-1.37714,-2.96539,0,0,0,0,0,0,0,-1,776,554,-1.37713,2.96539
-441,470,-1.4704,-3.5108,0.0857236,0.0875245,-0.0667433,0.153373,0.0198747,-0.792143,0.09631,0.04674,783,554,-1.4704,3.51081
-434,470,-1.30914,-3.86749,0.0672949,0.067472,-0.0532751,0.120659,0.0141082,-0.786229,0.0761731,0.0256554,790,554,-1.30917,3.86749
-427,470,-1.3833,-4.06616,0.051051,0.0503839,-0.0414635,0.0921822,0.00925262,-0.781376,0.0586145,0.013173,797,554,-1.3833,4.06617
-420,470,-1.35901,-4.30145,0.0362967,0.0356997,-0.0303496,0.0663493,0.00564707,-0.780481,0.0424758,0.0127841,804,554,-1.35904,4.30147
-413,470,-1.35486,-4.54016,0.0242155,0.023287,-0.0208274,0.0445838,0.00291865,-0.774255,0.028799,0.0128254,811,554,-1.35484,4.54016
-406,470,-1.38727,-4.78894,0.0142889,0.0118863,-0.0122035,0.0253501,0.000825169,-0.736337,0.0166319,0.010202,818,554,-1.38725,4.78896
-399,470,-1.35089,-5.05682,0.00725081,0.0049447,-0.00603552,0.0122424,-4.69182e-05,-0.691013,0.00817731,0.0136751,825,554,-1.35086,5.05682
-392,470,-1.38263,-5.30005,0.00310205,0.000826637,-0.00205672,0.00431476,-0.00038608,-0.532764,0.00301346,0.0144335,832,554,-1.38265,5.30006
-385,470,-1.38245,-5.50427,0.00151849,-0.00103786,-0.000170263,0.00152978,-0.00104915,-0.0662139,0.00149754,0.0109906,839,554,-1.38244,5.50426
-378,470,-1.38641,-5.7583,0.00184015,-0.00227854,0.000320497,0.00186494,-0.00230333,0.077196,0.00241099,0.0154003,846,554,-1.38644,5.75827
-371,470,-1.40448,-5.97192,0.00245698,-0.00365444,0.000615559,0.00251836,-0.00371582,0.0993926,0.00362137,0.0127548,853,554,-1.40448,5.97194
-364,470,-1.3996,-6.1861,0.00336699,-0.00489861,0.000749179,0.00343434,-0.00496596,0.0896645,0.00487672,0.0128089,860,554,-1.39959,6.18612
-357,470,-1.41113,-6.41248,0.00457446,-0.00598071,0.000632187,0.00461219,-0.00601844,0.0596096,0.00615547,0.0131682,867,554,-1.4111,6.41248
-350,470,-1.39209,-6.65308,0.00594146,-0.00700433,0.000343545,0.00595057,-0.00701344,0.0265123,0.00749315,0.00953725,874,554,-1.39208,6.6531
-343,470,-1.30792,-6.89801,0.00742332,-0.00781186,-0.000170301,0.00742523,-0.00781377,-0.0111762,0.00879919,0.0210464,881,554,-1.30791,6.89804
-336,470,-1.18219,-7.26373,0,0,0,0,0,0,0,-1,888,554,-1.18218,7.26374
-329,470,-1.2312,-7.41663,0,0,0,0,0,0,0,-1,895,554,-1.23122,7.41663
-322,470,-1.52979,-6.97113,0,0,0,0,0,0,0,-1,902,554,-1.52977,6.97114
-315,470,-1.38586,-7.2218,0,0,0,0,0,0,0,-1,909,554,-1.38584,7.22178
-308,470,-1.39368,-6.68152,0,0,0,0,0,0,0,-1,916,554,-1.39369,6.68149
-301,470,-0.0340576,3.34888,0,0,0,0,0,0,0,-1,923,554,-0.0340496,-3.3489
-294,470,-1.18378,3.22266,0,0,0,0,0,0,0,-1,930,554,-1.18376,-3.22268
-287,470,-2.15454,3.2204,0,0,0,0,0,0,0,-1,937,554,-2.15452,-3.22037
-280,470,-3.00537,3.099,0,0,0,0,0,0,0,-1,944,554,-3.00536,-3.09898
-273,470,1.05981,-2.39728,0,0,0,0,0,0,0,-1,951,554,1.05983,2.39727
-266,470,-7.90967,0.244934,0,0,0,0,0,0,0,-1,958,554,-7.90967,-0.244946
-259,470,-5.44653,-2.17249,0,0,0,0,0,0,0,-1,965,554,-5.44653,2.17252
-252,470,-0.369019,-4.24976,0,0,0,0,0,0,0,-1,972,554,-0.36901,4.24977
-245,470,1.33221,-6.81122,0,0,0,0,0,0,0,-1,979,554,1.33223,6.8112
-238,470,0,0,0,0,0,0,0,0,0,-1,986,554,0,0
-231,470,0,0,0,0,0,0,0,0,0,-1,993,554,0,0
-224,470,0,0,0,0,0,0,0,0,0,-1,1000,554,0,0
-217,470,0,0,0,0,0,0,0,0,0,-1,1007,554,0,0
-210,470,0,0,0,0,0,0,0,0,0,-1,1014,554,0,0
-203,470,0,0,0,0,0,0,0,0,0,-1,1021,554,0,0
-196,470,0,0,0,0,0,0,0,0,0,-1,1028,554,0,0
-189,470,0,0,0,0,0,0,0,0,0,-1,1035,554,0,0
-182,470,0,0,0,0,0,0,0,0,0,-1,1042,554,0,0
-175,470,0,0,0,0,0,0,0,0,0,-1,1049,554,0,0
-168,470,0,0,0,0,0,0,0,0,0,-1,1056,554,0,0
-161,470,0,0,0,0,0,0,0,0,0,-1,1063,554,0,0
-154,470,0,0,0,0,0,0,0,0,0,-1,1070,554,0,0
-147,470,0,0,0,0,0,0,0,0,0,-1,1077,554,0,0
-140,470,0,0,0,0,0,0,0,0,0,-1,1084,554,0,0
-133,470,0,0,0,0,0,0,0,0,0,-1,1091,554,0,0
-126,470,0,0,0,0,0,0,0,0,0,-1,1098,554,0,0
-119,470,0,0,0,0,0,0,0,0,0,-1,1105,554,0,0
-112,470,0,0,0,0,0,0,0,0,0,-1,1112,554,0,0
-105,470,0,0,0,0,0,0,0,0,0,-1,1119,554,0,0
-98,470,0,0,0,0,0,0,0,0,0,-1,1126,554,0,0
-91,470,0,0,0,0,0,0,0,0,0,-1,1133,554,0,0
-84,470,0,0,0,0,0,0,0,0,0,-1,1140,554,0,0
-77,470,0,0,0,0,0,0,0,0,0,-1,1147,554,0,0
-70,470,0,0,0,0,0,0,0,0,0,-1,1154,554,0,0
-63,470,0,0,0,0,0,0,0,0,0,-1,1161,554,0,0
-56,470,0,0,0,0,0,0,0,0,0,-1,1168,554,0,0
-49,470,0,0,0,0,0,0,0,0,0,-1,1175,554,0,0
-42,470,0,0,0,0,0,0,0,0,0,-1,1182,554,0,0
-35,470,0,0,0,0,0,0,0,0,0,-1,1189,554,0,0
-28,470,0,0,0,0,0,0,0,0,0,-1,1196,554,0,0
-21,470,0,0,0,0,0,0,0,0,0,-1,1203,554,0,0
-14,470,0,0,0,0,0,0,0,0,0,-1,1210,554,0,0
-7,470,0,0,0,0,0,0,0,0,0,-1,1217,554,0,0
0,470,0,0,0,0,0,0,0,0,0,-1,1224,554,0,0
7,470,0,0,0,0,0,0,0,0,0,-1,1231,554,0,0
14,470,0,0,0,0,0,0,0,0,0,-1,1238,554,0,0
21,470,0,0,0,0,0,0,0,0,0,-1,1245,554,0,0
28,470,0,0,0,0,0,0,0,0,0,-1,1252,554,0,0
35,470,0,0,0,0,0,0,0,0,0,-1,1259,554,0,0
42,470,0,0,0,0,0,0,0,0,0,-1,1266,554,0,0
49,470,0,0,0,0,0,0,0,0,0,-1,1273,554,0,0
56,470,0,0,0,0,0,0,0,0,0,-1,1280,554,0,0
63,470,0,0,0,0,0,0,0,0,0,-1,1287,554,0,0
70,470,0,0,0,0,0,0,0,0,0,-1,1294,554,0,0
77,470,0,0,0,0,0,0,0,0,0,-1,1301,554,0,0
84,470,0,0,0,0,0,0,0,0,0,-1,1308,554,0,0
91,470,0,0,0,0,0,0,0,0,0,-1,1315,554,0,0
98,470,0,0,0,0,0,0,0,0,0,-1,1322,554,0,0
105,470,0,0,0,0,0,0,0,0,0,-1,1329,554,0,0
112,470,0,0,0,0,0,0,0,0,0,-1,1336,554,0,0
119,470,0,0,0,0,0,0,0,0,0,-1,1343,554,0,0
126,470,0,0,0,0,0,0,0,0,0,-1,1350,554,0,0
133,470,0,0,0,0,0,0,0,0,0,-1,1357,554,0,0
140,470,0,0,0,0,0,0,0,0,0,-1,1364,554,0,0
147,470,0,0,0,0,0,0,0,0,0,-1,1371,554,0,0
154,470,0,0,0,0,0,0,0,0,0,-1,1378,554,0,0
161,470,0,0,0,0,0,0,0,0,0,-1,1385,554,0,0
168,470,0,0,0,0,0,0,0,0,0,-1,1392,554,0,0
175,470,0,0,0,0,0,0,0,0,0,-1,1399,554,0,0
182,470,0,0,0,0,0,0,0,0,0,-1,1406,554,0,0
189,470,0,0,0,0,0,0,0,0,0,-1,1413,554,0,0
196,470,0,0,0,0,0,0,0,0,0,-1,1420,554,0,0
203,470,0,0,0,0,0,0,0,0,0,-1,1427,554,0,0
210,470,0,0,0,0,0,0,0,0,0,-1,1434,554,0,0
217,470,0,0,0,0,0,0,0,0,0,-1,1441,554,0,0
224,470,0,0,0,0,0,0,0,0,0,-1,1448,554,0,0
231,470,0,0,0,0,0,0,0,0,0,-1,1455,554,0,0
238,470,0,0,0,0,0,0,0,0,0,-1,1462,554,0,0
245,470,0,0,0,0,0,0,0,0,0,-1,1469,554,0,0
252,470,0,0,0,0,0,0,0,0,0,-1,1476,554,0,0
259,470,0,0,0,0,0,0,0,0,0,-1,1483,554,0,0
266,470,0,0,0,0,0,0,0,0,0,-1,1490,554,0,0
273,470,0,0,0,0,0,0,0,0,0,-1,1497,554,0,0
280,470,0,0,0,0,0,0,0,0,0,-1,1504,554,0,0
287,470,0,0,0,0,0,0,0,0,0,-1,1511,554,0,0
294,470,0,0,0,0,0,0,0,0,0,-1,1518,554,0,0
301,470,0,0,0,0,0,0,0,0,0,-1,1525,554,0,0
308,470,0,0,0,0,0,0,0,0,0,-1,1532,554,0,0
315,470,0,0,0,0,0,0,0,0,0,-1,1539,554,0,0
322,470,0,0,0,0,0,0,0,0,0,-1,1546,554,0,0
329,470,0,0,0,0,0,0,0,0,0,-1,1553,554,0,0
336,470,0,0,0,0,0,0,0,0,0,-1,1560,554,0,0
343,470,0,0,0,0,0,0,0,0,0,-1,1567,554,0,0
350,470,0,0,0,0,0,0,0,0,0,-1,1574,554,0,0
357,470,0,0,0,0,0,0,0,0,0,-1,1581,554,0,0
364,470,1.33423,0.293335,0,0,0,0,0,0,0,-1,1588,554,1.33422,-0.293348
371,470,2.22498,-0.0305176,0,0,0,0,0,0,0,-1,1595,554,2.22494,0.0305046
378,470,6.27051,0.710083,0,0,0,0,0,0,0,-1,1602,554,6.27054,-0.710093
385,470,10.3657,1.47296,0,0,0,0,0,0,0,-1,1609,554,10.3657,-1.47299
392,470,15.3881,3.01935,0,0,0,0,0,0,0,-1,1616,554,15.388,-3.01937
399,470,18.4479,2.93793,0,0,0,0,0,0,0,-1,1623,554,18.4479,-2.93792
406,470,15.1896,1.36676,0,0,0,0,0,0,0,-1,1630,554,15.1896,-1.36679
413,470,6.55383,1.99207,0,0,0,0,0,0,0,-1,1637,554,6.5538,-1.99208
420,470,4.47095,0.845703,0,0,0,0,0,0,0,-1,1644,554,4.47098,-0.845718
427,470,3.51038,1.19684,0,0,0,0,0,0,0,-1,1651,554,3.51039,-1.19684
434,470,3.31775,-1.37427,0,0,0,0,0,0,0,-1,1658,554,3.31781,1.37426
441,470,2.55457,-2.05902,0,0,0,0,0,0,0,-1,1665,554,2.55461,2.05904
448,470,3.27258,-2.64032,0,0,0,0,0,0,0,-1,1672,554,3.27257,2.64029
455,470,7.63464,-6.15411,0,0,0,0,0,0,0,-1,1679,554,7.63466,6.1541
462,470,7.28845,-5.9303,0,0,0,0,0,0,0,-1,1686,554,7.2885,5.93031
469,470,7.1084,-5.6709,0,0,0,0,0,0,0,-1,1693,554,7.10844,5.67088
476,470,7.13159,-5.31976,0.00141727,0.00425012,0.00055167,0.00435376,0.00131363,1.38509,0.00257868,0.030987,1700,554,7.1316,5.31975
483,470,7.20374,-5.06427,0.00191366,0.00350825,0.000991438,0.00398321,0.0014387,1.12404,0.00232906,0.0145343,1707,554,7.20367,5.06426
490,470,7.17664,-4.80432,0.00216352,0.00304629,0.00125327,0.00393363,0.00127618,0.95471,0.00231728,0.0112518,1714,554,7.17658,4.80435
497,470,7.1853,-4.53833,0.00204135,0.00236585,0.00114792,0.00336293,0.00104427,0.855603,0.00198751,0.0115532,1721,554,7.18536,4.53835
504,470,7.22632,-4.31665,0.00169907,0.00182603,0.000970604,0.00273523,0.000789871,0.818052,0.00162548,0.0177257,1728,554,7.22628,4.31663
511,470,7.27039,-4.07532,0.00134854,0.00132982,0.000857177,0.00219641,0.000481954,0.779939,0.00133299,0.0246913,1735,554,7.27037,4.07532
518,470,7.27136,-3.81323,0.000820631,0.000900865,0.000540698,0.00140293,0.000318564,0.822428,0.000849255,0.0238763,1742,554,7.27137,3.81321
525,470,7.20886,-3.52704,0.000214152,0.00055717,0.000145903,0.000610834,0.000160488,1.21835,0.000365661,0.014573,1749,554,7.2088,3.52703
532,470,7.17786,-3.24347,-0.000377565,0.000360325,-0.000192176,0.000407375,-0.000424615,-1.33069,0.000480384,0.0132229,1756,554,7.17783,3.24348
539,470,7.16821,-2.98236,-0.000903796,0.00020056,-0.000495398,0.000390217,-0.00109345,-1.20517,0.000888093,0.0162423,1763,554,7.16817,2.98234
546,470,7.1853,-2.74182,-0.00132097,0.000239192,-0.000682709,0.000495749,-0.00157753,-1.21133,0.00125014,0.0142556,1770,554,7.18525,2.74182
553,470,7.19995,-2.4884,-0.00171431,0.000256614,-0.000931123,0.000626927,-0.00208462,-1.19227,0.00163918,0.01156,1777,554,7.19996,2.48842
560,470,7.20349,-2.19312,-0.00203233,0.000250712,-0.00116419,0.000739657,-0.00252127,-1.17318,0.00197414,0.0160851,1784,554,7.20344,2.19311
567,470,7.16187,-1.92554,-0.00227636,0.000221572,-0.00136826,0.000825185,-0.00287998,-1.15532,0.00224615,0.0196154,1791,554,7.1618,1.92551
574,470,7.24536,-1.52533,0,0,0,0,0,0,0,-1,1798,554,7.24532,1.52532
581,470,8.24646,-4.06317,0,0,0,0,0,0,0,-1,1805,554,8.24648,4.06318
588,470,11.1803,1.74927,0,0,0,0,0,0,0,-1,1812,554,11.1803,-1.74926
595,470,4.72192,3.44116,0,0,0,0,0,0,0,-1,1819,554,4.72191,-3.44116
602,470,14.4307,2.76141,0,0,0,0,0,0,0,-1,1826,554,14.4306,-2.76139
609,470,20.9181,4.41058,0,0,0,0,0,0,0,-1,1833,554,20.9181,-4.4106
616,470,0,0,0,0,0,0,0,0,0,-1,1840,554,0,0
623,470,0,0,0,0,0,0,0,0,0,-1,1847,554,0,0
630,470,0,0,0,0,0,0,0,0,0,-1,1854,554,0,0
637,470,0,0,0,0,0,0,0,0,0,-1,1861,554,0,0
644,470,0,0,0,0,0,0,0,0,0,-1,1868,554,0,0
651,470,0,0,0,0,0,0,0,0,0,-1,1875,554,0,0
658,470,0,0,0,0,0,0,0,0,0,-1,1882,554,0,0
665,470,0,0,0,0,0,0,0,0,0,-1,1889,554,0,0
672,470,0,0,0,0,0,0,0,0,0,-1,1896,554,0,0
679,470,0,0,0,0,0,0,0,0,0,-1,1903,554,0,0
686,470,0,0,0,0,0,0,0,0,0,-1,1910,554,0,0
693,470,0,0,0,0,0,0,0,0,0,-1,1917,554,0,0
700,470,0,0,0,0,0,0,0,0,0,-1,1924,554,0,0
707,470,0,0,0,0,0,0,0,0,0,-1,1931,554,0,0
714,470,0,0,0,0,0,0,0,0,0,-1,1938,554,0,0
721,470,0,0,0,0,0,0,0,0,0,-1,1945,554,0,0
728,470,0,0,0,0,0,0,0,0,0,-1,1952,554,0,0
735,470,0,0,0,0,0,0,0,0,0,-1,1959,554,0,0
742,470,0,0,0,0,0,0,0,0,0,-1,1966,554,0,0
749,470,0,0,0,0,0,0,0,0,0,-1,1973,554,0,0
756,470,0,0,0,0,0,0,0,0,0,-1,1980,554,0,0
763,470,0,0,0,0,0,0,0,0,0,-1,1987,554,0,0
770,470,0,0,0,0,0,0,0,0,0,-1,1994,554,0,0
777,470,0,0,0,0,0,0,0,0,0,-1,2001,554,0,0
784,470,0,0,0,0,0,0,0,0,0,-1,2008,554,0,0
791,470,0,0,0,0,0,0,0,0,0,-1,2015,554,0,0
798,470,0,0,0,0,0,0,0,0,0,-1,2022,554,0,0
805,470,0,0,0,0,0,0,0,0,0,-1,2029,554,0,0
812,470,0,0,0,0,0,0,0,0,0,-1,2036,554,0,0
-700,463,0,0,0,0,0,0,0,0,0,-1,524,561,0,0
-693,463,0,0,0,0,0,0,0,0,0,-1,531,561,0,0
-686,463,0,0,0,0,0,0,0,0,0,-1,538,561,0,0
-679,463,0,0,0,0,0,0,0,0,0,-1,545,561,0,0
-672,463,0,0,0,0,0,0,0,0,0,-1,552,561,0,0
-665,463,0,0,0,0,0,0,0,0,0,-1,559,561,0,0
-658,463,0,0,0,0,0,0,0,0,0,-1,566,561,0,0
-651,463,0,0,0,0,0,0,0,0,0,-1,573,561,0,0
-644,463,0,0,0,0,0,0,0,0,0,-1,580,561,0,0
-637,463,0,0,0,0,0,0,0,0,0,-1,587,561,0,0
-630,463,0,0,0,0,0,0,0,0,0,-1,594,561,0,0
-623,463,0,0,0,0,0,0,0,0,0,-1,601,561,0,0
-616,463,0,0,0,0,0,0,0,0,0,-1,608,561,0,0
-609,463,0,0,0,0,0,0,0,0,0,-1,615,561,0,0
-602,463,0,0,0,0,0,0,0,0,0,-1,622,561,0,0
-595,463,0,0,0,0,0,0,0,0,0,-1,629,561,0,0
-588,463,0,0,0,0,0,0,0,0,0,-1,636,561,0,0
-581,463,0,0,0,0,0,0,0,0,0,-1,643,561,0,0
-574,463,0,0,0,0,0,0,0,0,0,-1,650,561,0,0
-567,463,0,0,0,0,0,0,0,0,0,-1,657,561,0,0
-560,463,0,0,0,0,0,0,0,0,0,-1,664,561,0,0
-553,463,0,0,0,0,0,0,0,0,0,-1,671,561,0,0
-546,463,0,0,0,0,0,0,0,0,0,-1,678,561,0,0
-539,463,0,0,0,0,0,0,0,0,0,-1,685,561,0,0
-532,463,0,0,0,0,0,0,0,0,0,-1,692,561,0,0
-525,463,0,0,0,0,0,0,0,0,0,-1,699,561,0,0
-518,463,0,0,0,0,0,0,0,0,0,-1,706,561,0,0
-511,463,0,0,0,0,0,0,0,0,0,-1,713,561,0,0
-504,463,0,0,0,0,0,0,0,0,0,-1,720,561,0,0
-497,463,-11.5931,1.22791,0,0,0,0,0,0,0,-1,727,561,-11.5931,-1.2279
-490,463,-7.96594,-1.6192,0,0,0,0,0,0,0,-1,734,561,-7.96596,1.61923
-483,463,-7.30029,-1.27533,0,0,0,0,0,0,0,-1,741,561,-7.30026,1.27533
-476,463,-6.8407,-1.11157,0,0,0,0,0,0,0,-1,748,561,-6.84072,1.11158
-469,463,-5.14545,-2.138,0,0,0,0,0,0,0,-1,755,561,-5.14546,2.13799
-462,463,-3.13672,-3.07977,0,0,0,0,0,0,0,-1,762,561,-3.13672,3.07974
-455,463,-1.41656,-2.82056,0,0,0,0,0,0,0,-1,769,561,-1.41657,2.82056
-448,463,-1.49817,-3.14465,0.0821849,0.0857137,-0.0617985,0.145773,0.0221256,-0.79967,0.0907107,0.0473039,776,561,-1.49818,3.14463
-441,463,-1.49023,-3.53839,0.0660258,0.0679161,-0.0507523,0.117732,0.0162099,-0.794709,0.0736815,0.0328598,783,561,-1.49021,3.53839
-434,463,-1.60016,-3.82245,0.0510138,0.0517122,-0.0399593,0.0913238,0.0114022,-0.789767,0.0574601,0.0137407,790,561,-1.60017,3.82243
-427,463,-1.60779,-4.05823,0.0380124,0.0379903,-0.0306081,0.0686095,0.00739327,-0.785218,0.0434852,0.00971927,797,561,-1.60781,4.05825
-420,463,-1.58984,-4.29376,0.0264175,0.0264131,-0.021955,0.0483703,0.00446026,-0.785348,0.0308677,0.0102963,804,561,-1.58984,4.29376
-413,463,-1.59985,-4.54651,0.0172128,0.0167041,-0.0146898,0.0316504,0.00226646,-0.776742,0.0203868,0.00913067,811,561,-1.59986,4.5465
-406,463,-1.62909,-4.79401,0.00984083,0.007797,-0.00812426,0.0170072,0.000630638,-0.722834,0.0111339,0.00854805,818,561,-1.6291,4.79402
-399,463,-1.60699,-5.03345,0.00484803,0.00242178,-0.00352458,0.00736242,-9.26016e-05,-0.619654,0.00493943,0.0101477,825,561,-1.60702,5.03345
-392,463,-1.61334,-5.27551,0.00218353,-0.00098375,-0.000632176,0.00230504,-0.00110527,-0.189905,0.00200915,0.0100791,832,561,-1.61336,5.2755
-385,463,-1.62274,-5.52051,0.00134364,-0.00279208,0.000799056,0.00149265,-0.00294109,0.184371,0.00260496,0.0104957,839,561,-1.62274,5.52053
-378,463,-1.62335,-5.75806,0.00180326,-0.00423265,0.00129506,0.0020694,-0.00449879,0.202677,0.00387764,0.0113176,846,561,-1.62336,5.75806
-371,463,-1.6322,-5.99921,0.00261123,-0.0058129,0.00159487,0.00290306,-0.00610474,0.180981,0.00530903,0.0104638,853,561,-1.6322,5.9992
-364,463,-1.61438,-6.20471,0.00375952,-0.00740794,0.00175449,0.00402868,-0.0076771,0.152223,0.00686688,0.0129455,860,561,-1.61436,6.2047
-357,463,-1.62616,-6.41028,0.00527862,-0.00892514,0.00163609,0.00546464,-0.00911116,0.113212,0.00850267,0.0163354,867,561,-1.62615,6.41031
-350,463,-1.58667,-6.68787,0.00704992,-0.0104527,0.0013224,0.00714927,-0.010552,0.0749874,0.0102826,0.0182988,874,561,-1.58668,6.68789
-343,463,-1.44238,-6.77429,0.00905976,-0.0118228,0.000732184,0.0090854,-0.0118485,0.0350047,0.0121212,0.0329039,881,561,-1.4424,6.77428
-336,463,-1.07684,-6.54541,0,0,0,0,0,0,0,-1,888,561,-1.07683,6.54538
-329,463,-1.11029,-7.44928,0,0,0,0,0,0,0,-1,895,561,-1.1103,7.44929
-322,463,-0.922302,-7.66071,0,0,0,0,0,0,0,-1,902,561,-0.922288,7.66072
-315,463,-0.944763,-5.96234,0,0,0,0,0,0,0,-1,909,561,-0.94479,5.96237
-308,463,-1.1535,-3.17889,0,0,0,0,0,0,0,-1,916,561,-1.15352,3.17889
-301,463,-1.50366,-3.15338,0,0,0,0,0,0,0,-1,923,561,-1.50364,3.15341
-294,463,-2.35889,-3.93463,0,0,0,0,0,0,0,-1,930,561,-2.35886,3.93465
-287,463,-2.80322,2.73999,0,0,0,0,0,0,0,-1,937,561,-2.80322,-2.74
-280,463,-3.29858,2.24219,0,0,0,0,0,0,0,-1,944,561,-3.29859,-2.24221
-273,463,-8.64832,2.01697,0,0,0,0,0,0,0,-1,951,561,-8.64832,-2.017
-266,463,-6.08765,-0.527527,0.476641,0.104299,-0.37674,0.710699,-0.129759,-0.555915,0.522451,0.0479883,958,561,-6.08762,0.527502
-259,463,-3.59802,-3.10669,0,0,0,0,0,0,0,-1,965,561,-3.59802,3.10667
-252,463,0,0,0,0,0,0,0,0,0,-1,972,561,0,0
-245,463,0,0,0,0,0,0,0,0,0,-1,979,561,0,0
-238,463,0,0,0,0,0,0,0,0,0,-1,986,561,0,0
-231,463,0,0,0,0,0,0,0,0,0,-1,993,561,0,0
-224,463,0,0,0,0,0,0,0,0,0,-1,1000,561,0,0
-217,463,0,0,0,0,0,0,0,0,0,-1,1007,561,0,0
-210,463,0,0,0,0,0,0,0,0,0,-1,1014,561,0,0
-203,463,0,0,0,0,0,0,0,0,0,-1,1021,561,0,0
-196,463,0,0,0,0,0,0,0,0,0,-1,1028,561,0,0
-189,463,0,0,0,0,0,0,0,0,0,-1,1035,561,0,0
-182,463,0,0,0,0,0,0,0,0,0,-1,1042,561,0,0
-175,463,0,0,0,0,0,0,0,0,0,-1,1049,561,0,0
-168,463,0,0,0,0,0,0,0,0,0,-1,1056,561,0,0
-161,463,0,0,0,0,0,0,0,0,0,-1,1063,561,0,0
-154,463,0,0,0,0,0,0,0,0,0,-1,1070,561,0,0
-147,463,0,0,0,0,0,0,0,0,0,-1,1077,561,0,0
-140,463,0,0,0,0,0,0,0,0,0,-1,1084,561,0,0
-133,463,0,0,0,0,0,0,0,0,0,-1,1091,561,0,0
-126,463,0,0,0,0,0,0,0,0,0,-1,1098,561,0,0
-119,463,0,0,0,0,0,0,0,0,0,-1,1105,561,0,0
-112,463,0,0,0,0,0,0,0,0,0,-1,1112,561,0,0
-105,463,0,0,0,0,0,0,0,0,0,-1,1119,561,0,0
-98,463,0,0,0,0,0,0,0,0,0,-1,1126,561,0,0
-91,463,0,0,0,0,0,0,0,0,0,-1,1133,561,0,0
-84,463,0,0,0,0,0,0,0,0,0,-1,1140,561,0,0
-77,463,0,0,0,0,0,0,0,0,0,-1,1147,561,0,0
-70,463,0,0,0,0,0,0,0,0,0,-1,1154,561,0,0
-63,463,0,0,0,0,0,0,0,0,0,-1,1161,561,0,0
-56,463,0,0,0,0,0,0,0,0,0,-1,1168,561,0,0
-49,463,0,0,0,0,0,0,0,0,0,-1,1175,561,0,0
-42,463,0,0,0,0,0,0,0,0,0,-1,1182,561,0,0
-35,463,0,0,0,0,0,0,0,0,0,-1,1189,561,0,0
-28,463,0,0,0,0,0,0,0,0,0,-1,1196,561,0,0
-21,463,0,0,0,0,0,0,0,0,0,-1,1203,561,0,0
-14,463,0,0,0,0,0,0,0,0,0,-1,1210,561,0,0
-7,463,0,0,0,0,0,0,0,0,0,-1,1217,561,0,0
0,463,0,0,0,0,0,0,0,0,0,-1,1224,561,0,0
7,463,0,0,0,0,0,0,0,0,0,-1,1231,561,0,0
14,463,0,0,0,0,0,0,0,0,0,-1,1238,561,0,0
21,463,0,0,0,0,0,0,0,0,0,-1,1245,561,0,0
28,463,0,0,0,0,0,0,0,0,0,-1,1252,561,0,0
35,463,0,0,0,0,0,0,0,0,0,-1,1259,561,0,0
42,463,0,0,0,0,0,0,0,0,0,-1,1266,561,0,0
49,463,0,0,0,0,0,0,0,0,0,-1,1273,561,0,0
56,463,0,0,0,0,0,0,0,0,0,-1,1280,561,0,0
63,463,0,0,0,0,0,0,0,0,0,-1,1287,561,0,0
70,463,0,0,0,0,0,0,0,0,0,-1,1294,561,0,0
77,463,0,0,0,0,0,0,0,0,0,-1,1301,561,0,0
84,463,0,0,0,0,0,0,0,0,0,-1,1308,561,0,0
91,463,0,0,0,0,0,0,0,0,0,-1,1315,561,0,0
98,463,0,0,0,0,0,0,0,0,0,-1,1322,561,0,0
105,463,0,0,0,0,0,0,0,0,0,-1,1329,561,0,0
112,463,0,0,0,0,0,0,0,0,0,-1,1336,561,0,0
119,463,0,0,0,0,0,0,0,0,0,-1,1343,561,0,0
126,463,0,0,0,0,0,0,0,0,0,-1,1350,561,0,0
133,463,0,0,0,0,0,0,0,0,0,-1,1357,561,0,0
140,463,0,0,0,0,0,0,0,0,0,-1,1364,561,0,0
147,463,0,0,0,0,0,0,0,0,0,-1,1371,561,0,0
154,463,0,0,0,0,0,0,0,0,0,-1,1378,561,0,0
161,463,0,0,0,0,0,0,0,0,0,-1,1385,561,0,0
168,463,0,0,0,0,0,0,0,0,0,-1,1392,561,0,0
175,463,0,0,0,0,0,0,0,0,0,-1,1399,561,0,0
182,463,0,0,0,0,0,0,0,0,0,-1,1406,561,0,0
189,463,0,0,0,0,0,0,0,0,0,-1,1413,561,0,0
196,463,0,0,0,0,0,0,0,0,0,-1,1420,561,0,0
203,463,0,0,0,0,0,0,0,0,0,-1,1427,561,0,0
210,463,0,0,0,0,0,0,0,0,0,-1,1434,561,0,0
217,463,0,0,0,0,0,0,0,0,0,-1,1441,561,0,0
224,463,0,0,0,0,0,0,0,0,0,-1,1448,561,0,0
231,463,0,0,0,0,0,0,0,0,0,-1,1455,561,0,0
238,463,0,0,0,0,0,0,0,0,0,-1,1462,561,0,0
245,463,0,0,0,0,0,0,0,0,0,-1,1469,561,0,0
252,463,0,0,0,0,0,0,0,0,0,-1,1476,561,0,0
259,463,0,0,0,0,0,0,0,0,0,-1,1483,561,0,0
266,463,0,0,0,0,0,0,0,0,0,-1,1490,561,0,0
273,463,0,0,0,0,0,0,0,0,0,-1,1497,561,0,0
280,463,0,0,0,0,0,0,0,0,0,-1,1504,561,0,0
287,463,0,0,0,0,0,0,0,0,0,-1,1511,561,0,0
294,463,0,0,0,0,0,0,0,0,0,-1,1518,561,0,0
301,463,0,0,0,0,0,0,0,0,0,-1,1525,561,0,0
308,463,0,0,0,0,0,0,0,0,0,-1,1532,561,0,0
315,463,0,0,0,0,0,0,0,0,0,-1,1539,561,0,0
322,463,0,0,0,0,0,0,0,0,0,-1,1546,561,0,0
329,463,0,0,0,0,0,0,0,0,0,-1,1553,561,0,0
336,463,0,0,0,0,0,0,0,0,0,-1,1560,561,0,0
343,463,0,0,0,0,0,0,0,0,0,-1,1567,561,0,0
350,463,0,0,0,0,0,0,0,0,0,-1,1574,561,0,0
357,463,0,0,0,0,0,0,0,0,0,-1,1581,561,0,0
364,463,0,0,0,0,0,0,0,0,0,-1,1588,561,0,0
371,463,1.75842,0.152588,0,0,0,0,0,0,0,-1,1595,561,1.75844,-0.152558
378,463,4.30493,0.169861,0,0,0,0,0,0,0,-1,1602,561,4.30489,-0.169877
385,463,8.49524,1.90533,0,0,0,0,0,0,0,-1,1609,561,8.49529,-1.90533
392,463,13.4452,2.6582,0,0,0,0,0,0,0,-1,1616,561,13.4452,-2.65821
399,463,18.395,3.41107,0,0,0,0,0,0,0,-1,1623,561,18.395,-3.41109
406,463,7.28088,1.38538,0,0,0,0,0,0,0,-1,1630,561,7.28091,-1.38537
413,463,8.05847,1.82239,0,0,0,0,0,0,0,-1,1637,561,8.05851,-1.82241
420,463,8.849,2.26611,0,0,0,0,0,0,0,-1,1644,561,8.84899,-2.26613
427,463,5.12207,1.69183,0,0,0,0,0,0,0,-1,1651,561,5.12206,-1.69184
434,463,4.59814,1.81995,0,0,0,0,0,0,0,-1,1658,561,4.59812,-1.81994
441,463,1.76392,-5.99225,0,0,0,0,0,0,0,-1,1665,561,1.7639,5.99225
448,463,2.49939,-4.30536,0,0,0,0,0,0,0,-1,1672,561,2.49941,4.30536
455,463,4.40295,-3.02557,0,0,0,0,0,0,0,-1,1679,561,4.40299,3.02558
462,463,5.38293,-4.06445,0,0,0,0,0,0,0,-1,1686,561,5.38289,4.06444
469,463,5.94373,-4.50647,0,0,0,0,0,0,0,-1,1693,561,5.94368,4.50646
476,463,7.05835,-5.5672,0,0,0,0,0,0,0,-1,1700,561,7.05841,5.5672
483,463,7.31653,-5.23322,0.0028165,0.00425452,0.00170749,0.00538821,0.0016828,0.984676,0.0031831,0.0385814,1707,561,7.31647,5.23321
490,463,7.44287,-4.82867,0.00307,0.00377579,0.00198176,0.00543583,0.00140996,0.87351,0.00325726,0.0187036,1714,561,7.44281,4.82869
497,463,7.45166,-4.53333,0.00288506,0.00300308,0.00179953,0.00474456,0.00114357,0.801788,0.00285913,0.0116516,1721,561,7.45171,4.53334
504,463,7.46924,-4.29083,0.00245926,0.0023683,0.00155553,0.00396998,0.000857585,0.770784,0.00241215,0.0155586,1728,561,7.46926,4.29081
511,463,7.48279,-4.05005,0.00205668,0.00177463,0.00140775,0.00333046,0.000500859,0.735476,0.00207361,0.0224426,1735,561,7.48277,4.05006
518,463,7.51038,-3.7879,0.00148801,0.0012806,0.00105992,0.00244928,0.000319329,0.736633,0.00153751,0.0230366,1742,561,7.51032,3.78789
525,463,7.46252,-3.53094,0.000844796,0.000904875,0.000655498,0.00153102,0.00021865,0.808296,0.000956168,0.018206,1749,561,7.46248,3.53096
532,463,7.45593,-3.26923,0.000217571,0.000643574,0.000282749,0.000784573,7.65718e-05,1.10821,0.000499485,0.0159488,1756,561,7.45587,3.26924
539,463,7.44336,-2.99249,-0.000348665,0.000371819,-7.82986e-05,0.00038023,-0.000357076,-1.46379,0.000425754,0.0159881,1763,561,7.44331,2.99252
546,463,7.44153,-2.75812,-0.000790458,0.000324915,-0.000305908,0.000403306,-0.000868848,-1.31994,0.000750693,0.0122729,1770,561,7.44152,2.75812
553,463,7.4375,-2.46606,-0.00119675,0.000219888,-0.000593447,0.000435634,-0.00141249,-1.2221,0.00111559,0.0104224,1777,561,7.4375,2.46608
560,463,7.45593,-2.14917,-0.0015523,0.000119916,-0.000871994,0.000491884,-0.00192427,-1.16759,0.00147442,0.0120987,1784,561,7.45594,2.14915
567,463,7.39709,-1.91394,-0.00182645,-7.085e-06,-0.00112509,0.000530075,-0.00236361,-1.12536,0.00177895,0.0182308,1791,561,7.39709,1.91393
574,463,7.33496,-1.88611,-0.00209301,-0.000123003,-0.00138389,0.000590633,-0.00280664,-1.09469,0.0020959,0.0498576,1798,561,7.33494,1.88608
581,463,7.47339,-1.84552,0,0,0,0,0,0,0,-1,1805,561,7.47344,1.84551
588,463,1.97424,2.16016,0,0,0,0,0,0,0,-1,1812,561,1.97422,-2.16013
595,463,9.98657,2.99854,0,0,0,0,0,0,0,-1,1819,561,9.98662,-2.99856
602,463,17.2202,4.91302,0,0,0,0,0,0,0,-1,1826,561,17.2202,-4.91305
609,463,17.96,4.03131,0,0,0,0,0,0,0,-1,1833,561,17.96,-4.03132
616,463,20.8352,3.15131,0,0,0,0,0,0,0,-1,1840,561,20.8352,-3.1513
623,463,0,0,0,0,0,0,0,0,0,-1,1847,561,0,0
630,463,0,0,0,0,0,0,0,0,0,-1,1854,561,0,0
637,463,0,0,0,0,0,0,0,0,0,-1,1861,561,0,0
644,463,0,0,0,0,0,0,0,0,0,-1,1868,561,0,0
651,463,0,0,0,0,0,0,0,0,0,-1,1875,561,0,0
658,463,0,0,0,0,0,0,0,0,0,-1,1882,561,0,0
665,463,0,0,0,0,0,0,0,0,0,-1,1889,561,0,0
672,463,0,0,0,0,0,0,0,0,0,-1,1896,561,0,0
679,463,0,0,0,0,0,0,0,0,0,-1,1903,561,0,0
686,463,0,0,0,0,0,0,0,0,0,-1,1910,561,0,0
693,463,0,0,0,0,0,0,0,0,0,-1,1917,561,0,0
700,463,0,0,0,0,0,0,0,0,0,-1,1924,561,0,0
707,463,0,0,0,0,0,0,0,0,0,-1,1931,561,0,0
714,463,0,0,0,0,0,0,0,0,0,-1,1938,561,0,0
721,463,0,0,0,0,0,0,0,0,0,-1,1945,561,0,0
728,463,0,0,0,0,0,0,0,0,0,-1,1952,561,0,0
735,463,0,0,0,0,0,0,0,0,0,-1,1959,561,0,0
742,463,0,0,0,0,0,0,0,0,0,-1,1966,561,0,0
749,463,0,0,0,0,0,0,0,0,0,-1,1973,561,0,0
756,463,0,0,0,0,0,0,0,0,0,-1,1980,561,0,0
763,463,0,0,0,0,0,0,0,0,0,-1,1987,561,0,0
770,463,0,0,0,0,0,0,0,0,0,-1,1994,561,0,0
777,463,0,0,0,0,0,0,0,0,0,-1,2001,561,0,0
784,463,0,0,0,0,0,0,0,0,0,-1,2008,561,0,0
791,463,0,0,0,0,0,0,0,0,0,-1,2015,561,0,0
798,463,0,0,0,0,0,0,0,0,0,-1,2022,561,0,0
805,463,0,0,0,0,0,0,0,0,0,-1,2029,561,0,0
812,463,0,0,0,0,0,0,0,0,0,-1,2036,561,0,0
-700,456,0,0,0,0,0,0,0,0,0,-1,524,568,0,0
-693,456,0,0,0,0,0,0,0,0,0,-1,531,568,0,0
-686,456,0,0,0,0,0,0,0,0,0,-1,538,568,0,0
-679,456,0,0,0,0,0,0,0,0,0,-1,545,568,0,0
-672,456,0,0,0,0,0,0,0,0,0,-1,552,568,0,0
-665,456,0,0,0,0,0,0,0,0,0,-1,559,568,0,0
-658,456,0,0,0,0,0,0,0,0,0,-1,566,568,0,0
-651,456,0,0,0,0,0,0,0,0,0,-1,573,568,0,0
-644,456,0,0,0,0,0,0,0,0,0,-1,580,568,0,0
-637,456,0,0,0,0,0,0,0,0,0,-1,587,568,0,0
-630,456,0,0,0,0,0,0,0,0,0,-1,594,568,0,0
-623,456,0,0,0,0,0,0,0,0,0,-1,601,568,0,0
-616,456,0,0,0,0,0,0,0,0,0,-1,608,568,0,0
-609,456,0,0,0,0,0,0,0,0,0,-1,615,568,0,0
-602,456,0,0,0,0,0,0,0,0,0,-1,622,568,0,0
-595,456,0,0,0,0,0,0,0,0,0,-1,629,568,0,0
-588,456,0,0,0,0,0,0,0,0,0,-1,636,568,0,0
-581,456,0,0,0,0,0,0,0,0,0,-1,643,568,0,0
-574,456,0,0,0,0,0,0,0,0,0,-1,650,568,0,0
-567,456,0,0,0,0,0,0,0,0,0,-1,657,568,0,0
-560,456,0,0,0,0,0,0,0,0,0,-1,664,568,0,0
-553,456,0,0,0,0,0,0,0,0,0,-1,671,568,0,0
-546,456,0,0,0,0,0,0,0,0,0,-1,678,568,0,0
-539,456,0,0,0,0,0,0,0,0,0,-1,685,568,0,0
-532,456,0,0,0,0,0,0,0,0,0,-1,692,568,0,0
-525,456,0,0,0,0,0,0,0,0,0,-1,699,568,0,0
-518,456,0,0,0,0,0,0,0,0,0,-1,706,568,0,0
-511,456,0,0,0,0,0,0,0,0,0,-1,713,568,0,0
-504,456,-13.3015,0.873108,0,0,0,0,0,0,0,-1,720,568,-13.3015,-0.873114
-497,456,-8.65094,-2.38385,0,0,0,0,0,0,0,-1,727,568,-8.65095,2.38387
-490,456,-7.60706,-2.29663,0,0,0,0,0,0,0,-1,734,568,-7.60707,2.2966
-483,456,-6.44977,-2.14655,0,0,0,0,0,0,0,-1,741,568,-6.44978,2.14653
-476,456,-5.2099,-1.96356,0,0,0,0,0,0,0,-1,748,568,-5.20988,1.96356
-469,456,-2.81238,-3.51501,0,0,0,0,0,0,0,-1,755,568,-2.81237,3.51501
-462,456,-2.53406,-3.711,0,0,0,0,0,0,0,-1,762,568,-2.53405,3.71102
-455,456,-1.76599,-2.83728,0,0,0,0,0,0,0,-1,769,568,-1.76597,2.83731
-448,456,-1.73999,-3.21802,0.0629902,0.0648011,-0.0464754,0.11038,0.0174114,-0.795138,0.0685242,0.0360631,776,568,-1.74002,3.21804
-441,456,-1.79285,-3.57764,0.0496566,0.0507085,-0.0375436,0.0877299,0.0126352,-0.792403,0.0547629,0.0164364,783,568,-1.79282,3.57766
-434,456,-1.84473,-3.83655,0.0377371,0.0380846,-0.0290987,0.0670101,0.00881162,-0.788384,0.0420451,0.00948753,790,568,-1.8447,3.83654
-427,456,-1.85168,-4.06458,0.0275494,0.0273857,-0.0218051,0.0492728,0.00566232,-0.783522,0.0311332,0.00813965,797,568,-1.85171,4.06457
-420,456,-1.84637,-4.29822,0.0185934,0.0184488,-0.0151475,0.0336687,0.00337345,-0.783011,0.0214101,0.00878404,804,568,-1.8464,4.29822
-413,456,-1.8476,-4.54883,0.0117418,0.0109741,-0.00967458,0.0210402,0.0016758,-0.76557,0.0135029,0.00840613,811,568,-1.84762,4.54884
-406,456,-1.8739,-4.78973,0.00648464,0.0041401,-0.00476934,0.0102237,0.000401077,-0.664891,0.00668609,0.00856741,818,568,-1.87391,4.78972
-399,456,-1.87531,-5.02289,0.00314747,-4.18667e-05,-0.00138908,0.00366763,-0.000562031,-0.358302,0.00265236,0.0101082,825,568,-1.8753,5.02287
-392,456,-1.85913,-5.25934,0.00164082,-0.00299005,0.000706974,0.00174634,-0.00309557,0.14817,0.00283143,0.00941264,832,568,-1.85913,5.25936
-385,456,-1.85815,-5.50085,0.00138429,-0.00489642,0.0018377,0.00188248,-0.0053946,0.264728,0.00436148,0.00927032,839,568,-1.85814,5.50087
-378,456,-1.86487,-5.74652,0.00195733,-0.00666145,0.00240308,0.00258207,-0.00728619,0.254344,0.00590928,0.0106273,846,568,-1.86489,5.7465
-371,456,-1.86359,-5.99243,0.00291632,-0.00857937,0.00278695,0.00355634,-0.00921939,0.225735,0.00761379,0.0109382,853,568,-1.86359,5.99243
-364,456,-1.84937,-6.20288,0.00425559,-0.0106751,0.00305952,0.00485821,-0.0112777,0.194476,0.00955865,0.0141694,860,568,-1.84934,6.20287
-357,456,-1.81097,-6.42316,0.00603613,-0.0128131,0.00303783,0.00651362,-0.0132906,0.155907,0.011655,0.0176729,867,568,-1.81097,6.42317
-350,456,-1.59076,-6.45178,0.00817345,-0.0150897,0.00278172,0.00850145,-0.0154177,0.117371,0.0140009,0.0335266,874,568,-1.59074,6.45181
-343,456,-1.32605,-6.19562,0.0107253,-0.0173109,0.00224207,0.0109035,-0.0174891,0.0792986,0.0165388,0.0414673,881,568,-1.32605,6.1956
-336,456,-1.08655,-5.99347,0,0,0,0,0,0,0,-1,888,568,-1.08656,5.99347
-329,456,-0.785461,-5.83447,0,0,0,0,0,0,0,-1,895,568,-0.785433,5.8345
-322,456,-0.662537,-7.66632,0,0,0,0,0,0,0,-1,902,568,-0.662564,7.66633
-315,456,-0.675476,-3.38397,0,0,0,0,0,0,0,-1,909,568,-0.675473,3.38399
-308,456,-1.1618,-3.15314,0,0,0,0,0,0,0,-1,916,568,-1.16178,3.15314
-301,456,-1.83551,-3.26447,0,0,0,0,0,0,0,-1,923,568,-1.8355,3.26449
-294,456,-2.93414,-3.35449,0,0,0,0,0,0,0,-1,930,568,-2.93413,3.35451
-287,456,-3.7569,-3.53101,0,0,0,0,0,0,0,-1,937,568,-3.75692,3.53101
-280,456,-3.58478,1.37744,0,0,0,0,0,0,0,-1,944,568,-3.58476,-1.37746
-273,456,-6.85974,1.23102,0,0,0,0,0,0,0,-1,951,568,-6.85975,-1.23104
-266,456,-4.13538,-0.988892,0,0,0,0,0,0,0,-1,958,568,-4.13536,0.98889
-259,456,0,0,0,0,0,0,0,0,0,-1,965,568,0,0
-252,456,0,0,0,0,0,0,0,0,0,-1,972,568,0,0
-245,456,0,0,0,0,0,0,0,0,0,-1,979,568,0,0
-238,456,0,0,0,0,0,0,0,0,0,-1,986,568,0,0
-231,456,0,0,0,0,0,0,0,0,0,-1,993,568,0,0
-224,456,0,0,0,0,0,0,0,0,0,-1,1000,568,0,0
-217,456,0,0,0,0,0,0,0,0,0,-1,1007,568,0,0
-210,456,0,0,0,0,0,0,0,0,0,-1,1014,568,0,0
-203,456,0,0,0,0,0,0,0,0,0,-1,1021,568,0,0
-196,456,0,0,0,0,0,0,0,0,0,-1,1028,568,0,0
-189,456,0,0,0,0,0,0,0,0,0,-1,1035,568,0,0
-182,456,0,0,0,0,0,0,0,0,0,-1,1042,568,0,0
-175,456,0,0,0,0,0,0,0,0,0,-1,1049,568,0,0
-168,456,0,0,0,0,0,0,0,0,0,-1,1056,568,0,0
-161,456,0,0,0,0,0,0,0,0,0,-1,1063,568,0,0
-154,456,0,0,0,0,0,0,0,0,0,-1,1070,568,0,0
-147,456,0,0,0,0,0,0,0,0,0,-1,1077,568,0,0
-140,456,0,0,0,0,0,0,0,0,0,-1,1084,568,0,0
-133,456,0,0,0,0,0,0,0,0,0,-1,1091,568,0,0
-126,456,0,0,0,0,0,0,0,0,0,-1,1098,568,0,0
-119,456,0,0,0,0,0,0,0,0,0,-1,1105,568,0,0
-112,456,0,0,0,0,0,0,0,0,0,-1,1112,568,0,0
-105,456,0,0,0,0,0,0,0,0,0,-1,1119,568,0,0
-98,456,0,0,0,0,0,0,0,0,0,-1,1126,568,0,0
-91,456,0,0,0,0,0,0,0,0,0,-1,1133,568,0,0
-84,456,0,0,0,0,0,0,0,0,0,-1,1140,568,0,0
-77,456,0,0,0,0,0,0,0,0,0,-1,1147,568,0,0
-70,456,0,0,0,0,0,0,0,0,0,-1,1154,568,0,0
-63,456,0,0,0,0,0,0,0,0,0,-1,1161,568,0,0
-56,456,0,0,0,0,0,0,0,0,0,-1,1168,568,0,0
-49,456,0,0,0,0,0,0,0,0,0,-1,1175,568,0,0
-42,456,0,0,0,0,0,0,0,0,0,-1,1182,568,0,0
-35,456,0,0,0,0,0,0,0,0,0,-1,1189,568,0,0
-28,456,0,0,0,0,0,0,0,0,0,-1,1196,568,0,0
-21,456,0,0,0,0,0,0,0,0,0,-1,1203,568,0,0
-14,456,0,0,0,0,0,0,0,0,0,-1,1210,568,0,0
-7,456,0,0,0,0,0,0,0,0,0,-1,1217,568,0,0
0,456,0,0,0,0,0,0,0,0,0,-1,1224,568,0,0
7,456,0,0,0,0,0,0,0,0,0,-1,1231,568,0,0
14,456,0,0,0,0,0,0,0,0,0,-1,1238,568,0,0
21,456,0,0,0,0,0,0,0,0,0,-1,1245,568,0,0
28,456,0,0,0,0,0,0,0,0,0,-1,1252,568,0,0
35,456,0,0,0,0,0,0,0,0,0,-1,1259,568,0,0
42,456,0,0,0,0,0,0,0,0,0,-1,1266,568,0,0
49,456,0,0,0,0,0,0,0,0,0,-1,1273,568,0,0
56,456,0,0,0,0,0,0,0,0,0,-1,1280,568,0,0
63,456,0,0,0,0,0,0,0,0,0,-1,1287,568,0,0
70,456,0,0,0,0,0,0,0,0,0,-1,1294,568,0,0
77,456,0,0,0,0,0,0,0,0,0,-1,1301,568,0,0
84,456,0,0,0,0,0,0,0,0,0,-1,1308,568,0,0
91,456,0,0,0,0,0,0,0,0,0,-1,1315,568,0,0
98,456,0,0,0,0,0,0,0,0,0,-1,1322,568,0,0
105,456,0,0,0,0,0,0,0,0,0,-1,1329,568,0,0
112,456,0,0,0,0,0,0,0,0,0,-1,1336,568,0,0
119,456,0,0,0,0,0,0,0,0,0,-1,1343,568,0,0
126,456,0,0,0,0,0,0,0,0,0,-1,1350,568,0,0
133,456,0,0,0,0,0,0,0,0,0,-1,1357,568,0,0
140,456,0,0,0,0,0,0,0,0,0,-1,1364,568,0,0
147,456,0,0,0,0,0,0,0,0,0,-1,1371,568,0,0
154,456,0,0,0,0,0,0,0,0,0,-1,1378,568,0,0
161,456,0,0,0,0,0,0,0,0,0,-1,1385,568,0,0
168,456,0,0,0,0,0,0,0,0,0,-1,1392,568,0,0
175,456,0,0,0,0,0,0,0,0,0,-1,1399,568,0,0
182,456,0,0,0,0,0,0,0,0,0,-1,1406,568,0,0
189,456,0,0,0,0,0,0,0,0,0,-1,1413,568,0,0
196,456,0,0,0,0,0,0,0,0,0,-1,1420,568,0,0
203,456,0,0,0,0,0,0,0,0,0,-1,1427,568,0,0
210,456,0,0,0,0,0,0,0,0,0,-1,1434,568,0,0
217,456,0,0,0,0,0,0,0,0,0,-1,1441,568,0,0
224,456,0,0,0,0,0,0,0,0,0,-1,1448,568,0,0
231,456,0,0,0,0,0,0,0,0,0,-1,1455,568,0,0
238,456,0,0,0,0,0,0,0,0,0,-1,1462,568,0,0
245,456,0,0,0,0,0,0,0,0,0,-1,1469,568,0,0
252,456,0,0,0,0,0,0,0,0,0,-1,1476,568,0,0
259,456,0,0,0,0,0,0,0,0,0,-1,1483,568,0,0
266,456,0,0,0,0,0,0,0,0,0,-1,1490,568,0,0
273,456,0,0,0,0,0,0,0,0,0,-1,1497,568,0,0
280,456,0,0,0,0,0,0,0,0,0,-1,1504,568,0,0
287,456,0,0,0,0,0,0,0,0,0,-1,1511,568,0,0
294,456,0,0,0,0,0,0,0,0,0,-1,1518,568,0,0
301,456,0,0,0,0,0,0,0,0,0,-1,1525,568,0,0
308,456,0,0,0,0,0,0,0,0,0,-1,1532,568,0,0
315,456,0,0,0,0,0,0,0,0,0,-1,1539,568,0,0
322,456,0,0,0,0,0,0,0,0,0,-1,1546,568,0,0
329,456,0,0,0,0,0,0,0,0,0,-1,1553,568,0,0
336,456,0,0,0,0,0,0,0,0,0,-1,1560,568,0,0
343,456,0,0,0,0,0,0,0,0,0,-1,1567,568,0,0
350,456,0,0,0,0,0,0,0,0,0,-1,1574,568,0,0
357,456,0,0,0,0,0,0,0,0,0,-1,1581,568,0,0
364,456,0,0,0,0,0,0,0,0,0,-1,1588,568,0,0
371,456,0,0,0,0,0,0,0,0,0,-1,1595,568,0,0
378,456,0,0,0,0,0,0,0,0,0,-1,1602,568,0,0
385,456,5.66284,0.660645,0,0,0,0,0,0,0,-1,1609,568,5.66285,-0.660615
392,456,11.5023,2.29706,0,0,0,0,0,0,0,-1,1616,568,11.5023,-2.29705
399,456,16.0734,3.72198,0,0,0,0,0,0,0,-1,1623,568,16.0734,-3.72199
406,456,19.7911,4.22485,0,0,0,0,0,0,0,-1,1630,568,19.7911,-4.22487
413,456,9.55115,1.49933,0,0,0,0,0,0,0,-1,1637,568,9.55119,-1.49933
420,456,6.33875,1.88824,0,0,0,0,0,0,0,-1,1644,568,6.33876,-1.88827
427,456,6.21375,2.02905,0,0,0,0,0,0,0,-1,1651,568,6.21372,-2.02904
434,456,3.0719,-4.86285,0,0,0,0,0,0,0,-1,1658,568,3.07184,4.86287
441,456,2.90344,-4.70459,0,0,0,0,0,0,0,-1,1665,568,2.90346,4.7046
448,456,3.06995,-4.93689,0,0,0,0,0,0,0,-1,1672,568,3.06991,4.93687
455,456,3.46582,-3.43701,0,0,0,0,0,0,0,-1,1679,568,3.46585,3.43698
462,456,4.68445,-4.45831,0,0,0,0,0,0,0,-1,1686,568,4.68439,4.45833
469,456,4.93201,-2.289,0,0,0,0,0,0,0,-1,1693,568,4.93197,2.28903
476,456,4.8363,-2.79364,0,0,0,0,0,0,0,-1,1700,568,4.83636,2.79363
483,456,7.28381,-5.60815,0,0,0,0,0,0,0,-1,1707,568,7.28377,5.60815
490,456,7.6355,-4.95911,0,0,0,0,0,0,0,-1,1714,568,7.63546,4.95911
497,456,7.74329,-4.62073,0.00388529,0.00370324,0.00259641,0.00639227,0.00119626,0.767876,0.00392402,0.0356592,1721,568,7.74335,4.62072
504,456,7.70081,-4.28821,0.00332596,0.00291813,0.00221029,0.00534171,0.000902368,0.7394,0.00330172,0.0113029,1728,568,7.7008,4.28819
511,456,7.7207,-4.02954,0.0028384,0.00217601,0.00196435,0.00449929,0.000515129,0.701882,0.00284341,0.0139549,1735,568,7.72074,4.02953
518,456,7.73193,-3.76447,0.00220716,0.00158944,0.0015476,0.00347642,0.000320188,0.686905,0.0022186,0.0165157,1742,568,7.73193,3.76449
525,456,7.72009,-3.52344,0.00151237,0.00117729,0.00111707,0.0024744,0.000215263,0.710962,0.00158273,0.0157049,1749,568,7.72012,3.52344
532,456,7.71582,-3.2605,0.000842403,0.000849203,0.000698708,0.00154452,0.000147086,0.787831,0.000984321,0.0151793,1756,568,7.71588,3.2605
539,456,7.70471,-2.98444,0.000234371,0.00048997,0.000282043,0.000671817,5.25247e-05,0.998121,0.000431437,0.0169506,1763,568,7.70468,2.98443
546,456,7.68542,-2.72339,-0.00023596,0.000381989,1.82427e-05,0.000382527,-0.000236498,1.54131,0.000360694,0.0179403,1770,568,7.68543,2.72337
553,456,7.68176,-2.42542,-0.000654361,0.000209457,-0.000284785,0.000294895,-0.000739799,-1.27933,0.000615514,0.0122202,1777,568,7.68173,2.4254
560,456,7.70471,-2.16949,-0.001034,7.35968e-05,-0.000566576,0.000312074,-0.00127248,-1.1724,0.000969239,0.00997667,1784,568,7.70471,2.16951
567,456,7.71472,-1.89954,-0.00131625,-4.41419e-05,-0.000790989,0.000334806,-0.0016952,-1.12402,0.00125669,0.0133931,1791,568,7.71476,1.89954
574,456,7.66492,-1.77899,-0.00154299,-0.00015645,-0.000997153,0.00036475,-0.00206419,-1.08916,0.00151244,0.0383307,1798,568,7.66493,1.77902
581,456,7.66772,-1.64886,0,0,0,0,0,0,0,-1,1805,568,7.66776,1.64884
588,456,5.23901,-0.0901489,0,0,0,0,0,0,0,-1,1812,568,5.23906,0.0901656
595,456,6.90063,3.14886,0,0,0,0,0,0,0,-1,1819,568,6.90066,-3.14887
602,456,12.3827,4.21948,0,0,0,0,0,0,0,-1,1826,568,12.3827,-4.21951
609,456,14.9966,3.5708,0,0,0,0,0,0,0,-1,1833,568,14.9966,-3.57083
616,456,17.7407,2.6579,0,0,0,0,0,0,0,-1,1840,568,17.7408,-2.6579
623,456,20.6838,1.7121,0,0,0,0,0,0,0,-1,1847,568,20.6838,-1.71208
630,456,0,0,0,0,0,0,0,0,0,-1,1854,568,0,0
637,456,0,0,0,0,0,0,0,0,0,-1,1861,568,0,0
644,456,0,0,0,0,0,0,0,0,0,-1,1868,568,0,0
651,456,0,0,0,0,0,0,0,0,0,-1,1875,568,0,0
658,456,0,0,0,0,0,0,0,0,0,-1,1882,568,0,0
665,456,0,0,0,0,0,0,0,0,0,-1,1889,568,0,0
672,456,0,0,0,0,0,0,0,0,0,-1,1896,568,0,0
679,456,0,0,0,0,0,0,0,0,0,-1,1903,568,0,0
686,456,0,0,0,0,0,0,0,0,0,-1,1910,568,0,0
693,456,0,0,0,0,0,0,0,0,0,-1,1917,568,0,0
700,456,0,0,0,0,0,0,0,0,0,-1,1924,568,0,0
707,456,0,0,0,0,0,0,0,0,0,-1,1931,568,0,0
714,456,0,0,0,0,0,0,0,0,0,-1,1938,568,0,0
721,456,0,0,0,0,0,0,0,0,0,-1,1945,568,0,0
728,456,0,0,0,0,0,0,0,0,0,-1,1952,568,0,0
735,456,0,0,0,0,0,0,0,0,0,-1,1959,568,0,0
742,456,0,0,0,0,0,0,0,0,0,-1,1966,568,0,0
749,456,0,0,0,0,0,0,0,0,0,-1,1973,568,0,0
756,456,0,0,0,0,0,0,0,0,0,-1,1980,568,0,0
763,456,0,0,0,0,0,0,0,0,0,-1,1987,568,0,0
770,456,0,0,0,0,0,0,0,0,0,-1,1994,568,0,0
777,456,0,0,0,0,0,0,0,0,0,-1,2001,568,0,0
784,456,0,0,0,0,0,0,0,0,0,-1,2008,568,0,0
791,456,0,0,0,0,0,0,0,0,0,-1,2015,568,0,0
798,456,0,0,0,0,0,0,0,0,0,-1,2022,568,0,0
805,456,0,0,0,0,0,0,0,0,0,-1,2029,568,0,0
812,456,0,0,0,0,0,0,0,0,0,-1,2036,568,0,0
-700,449,0,0,0,0,0,0,0,0,0,-1,524,575,0,0
-693,449,0,0,0,0,0,0,0,0,0,-1,531,575,0,0
-686,449,0,0,0,0,0,0,0,0,0,-1,538,575,0,0
-679,449,0,0,0,0,0,0,0,0,0,-1,545,575,0,0
-672,449,0,0,0,0,0,0,0,0,0,-1,552,575,0,0
-665,449,0,0,0,0,0,0,0,0,0,-1,559,575,0,0
-658,449,0,0,0,0,0,0,0,0,0,-1,566,575,0,0
-651,449,0,0,0,0,0,0,0,0,0,-1,573,575,0,0
-644,449,0,0,0,0,0,0,0,0,0,-1,580,575,0,0
-637,449,0,0,0,0,0,0,0,0,0,-1,587,575,0,0
-630,449,0,0,0,0,0,0,0,0,0,-1,594,575,0,0
-623,449,0,0,0,0,0,0,0,0,0,-1,601,575,0,0
-616,449,0,0,0,0,0,0,0,0,0,-1,608,575,0,0
-609,449,0,0,0,0,0,0,0,0,0,-1,615,575,0,0
-602,449,0,0,0,0,0,0,0,0,0,-1,622,575,0,0
-595,449,0,0,0,0,0,0,0,0,0,-1,629,575,0,0
-588,449,0,0,0,0,0,0,0,0,0,-1,636,575,0,0
-581,449,0,0,0,0,0,0,0,0,0,-1,643,575,0,0
-574,449,0,0,0,0,0,0,0,0,0,-1,650,575,0,0
-567,449,0,0,0,0,0,0,0,0,0,-1,657,575,0,0
-560,449,0,0,0,0,0,0,0,0,0,-1,664,575,0,0
-553,449,0,0,0,0,0,0,0,0,0,-1,671,575,0,0
-546,449,0,0,0,0,0,0,0,0,0,-1,678,575,0,0
-539,449,0,0,0,0,0,0,0,0,0,-1,685,575,0,0
-532,449,0,0,0,0,0,0,0,0,0,-1,692,575,0,0
-525,449,0,0,0,0,0,0,0,0,0,-1,699,575,0,0
-518,449,0,0,0,0,0,0,0,0,0,-1,706,575,0,0
-511,449,-0.941345,-4.4519,0,0,0,0,0,0,0,-1,713,575,-0.941356,4.45191
-504,449,-14.1078,0.318237,0,0,0,0,0,0,0,-1,720,575,-14.1078,-0.318231
-497,449,-5.80096,1.13574,0,0,0,0,0,0,0,-1,727,575,-5.80098,-1.13577
-490,449,-7.85406,-3.01788,0,0,0,0,0,0,0,-1,734,575,-7.85409,3.01788
-483,449,-6.14349,-2.40863,0,0,0,0,0,0,0,-1,741,575,-6.14349,2.40865
-476,449,-4.43286,-1.79944,0,0,0,0,0,0,0,-1,748,575,-4.43288,1.79943
-469,449,-2.38068,-2.56067,0,0,0,0,0,0,0,-1,755,575,-2.38068,2.56065
-462,449,-2.10724,-3.07135,0,0,0,0,0,0,0,-1,762,575,-2.10725,3.07134
-455,449,-2.2063,-3.00024,0,0,0,0,0,0,0,-1,769,575,-2.20629,3.00024
-448,449,-2.06964,-3.31378,0.046998,0.0468792,-0.0338753,0.080814,0.0130632,-0.784521,0.0500926,0.0247992,776,575,-2.06964,3.31376
-441,449,-2.06317,-3.62006,0.0364856,0.0362848,-0.0269421,0.0633275,0.00944293,-0.783534,0.0394492,0.0145373,783,575,-2.06319,3.62006
-434,449,-2.10449,-3.83966,0.0273239,0.0268313,-0.0204686,0.0475477,0.00660747,-0.779382,0.0297417,0.011656,790,575,-2.10449,3.83965
-427,449,-2.11615,-4.07544,0.0195804,0.0187508,-0.01484,0.0340114,0.00431975,-0.771427,0.0213803,0.0118546,797,575,-2.11616,4.07543
-420,449,-2.0921,-4.30389,0.0128249,0.0119754,-0.00972166,0.0221311,0.00266923,-0.763566,0.0139497,0.0122995,804,575,-2.09212,4.30388
-413,449,-2.09045,-4.54858,0.00787462,0.00628003,-0.0055844,0.0127184,0.0014363,-0.714491,0.008043,0.0097868,811,575,-2.09043,4.54861
-406,449,-2.12091,-4.79651,0.00431769,0.00108859,-0.00191752,0.00520986,0.000196419,-0.435482,0.00340965,0.0092165,818,575,-2.12089,4.79653
-399,449,-2.12982,-5.03577,0.00226433,-0.00224968,0.000615369,0.00234671,-0.00233206,0.133089,0.0027013,0.00914843,825,575,-2.12983,5.03576
-392,449,-2.09698,-5.25977,0.00160499,-0.0049635,0.00222164,0.00228584,-0.00564435,0.297374,0.00471337,0.00980797,832,575,-2.09698,5.25976
-385,449,-2.08508,-5.48535,0.00176742,-0.00710296,0.00322972,0.00281876,-0.0081543,0.314702,0.00658021,0.0104643,839,575,-2.08506,5.48533
-378,449,-2.09662,-5.72601,0.00242231,-0.00932556,0.00394513,0.00362419,-0.0105274,0.295717,0.0084883,0.0097964,846,575,-2.09661,5.72599
-371,449,-2.09064,-5.96747,0.00348693,-0.0117676,0.00450907,0.00472007,-0.0130008,0.266953,0.0105969,0.0101484,853,575,-2.09065,5.96746
-364,449,-2.07031,-6.2121,0.00497834,-0.0146058,0.00499294,0.00617782,-0.0158053,0.235767,0.0130914,0.0180469,860,575,-2.07032,6.21208
-357,449,-1.92957,-6.37451,0.00701972,-0.0176922,0.00516951,0.00805755,-0.01873,0.198126,0.0158697,0.0328959,867,575,-1.92955,6.37452
-350,449,-1.70105,-6.5575,0,0,0,0,0,0,0,-1,874,575,-1.70107,6.55747
-343,449,-1.47931,-5.40509,0,0,0,0,0,0,0,-1,881,575,-1.47932,5.40507
-336,449,-1.09631,-5.44153,0,0,0,0,0,0,0,-1,888,575,-1.09629,5.44155
-329,449,-0.733398,-7.78937,0,0,0,0,0,0,0,-1,895,575,-0.733398,7.78937
-322,449,-0.628845,-3.16669,0,0,0,0,0,0,0,-1,902,575,-0.628861,3.16667
-315,449,-0.540344,-3.21918,0,0,0,0,0,0,0,-1,909,575,-0.540336,3.21917
-308,449,-1.04413,-2.99341,0,0,0,0,0,0,0,-1,916,575,-1.04415,2.99338
-301,449,-1.58691,-2.80725,0,0,0,0,0,0,0,-1,923,575,-1.58692,2.80728
-294,449,-3.71118,-2.76086,0,0,0,0,0,0,0,-1,930,575,-3.71119,2.76087
-287,449,-4.4082,-2.69525,0,0,0,0,0,0,0,-1,937,575,-4.40822,2.69526
-280,449,-5.09955,-2.96295,0,0,0,0,0,0,0,-1,944,575,-5.09953,2.96297
-273,449,0,0,0,0,0,0,0,0,0,-1,951,575,0,0
-266,449,0,0,0,0,0,0,0,0,0,-1,958,575,0,0
-259,449,0,0,0,0,0,0,0,0,0,-1,965,575,0,0
-252,449,0,0,0,0,0,0,0,0,0,-1,972,575,0,0
-245,449,0,0,0,0,0,0,0,0,0,-1,979,575,0,0
-238,449,0,0,0,0,0,0,0,0,0,-1,986,575,0,0
-231,449,0,0,0,0,0,0,0,0,0,-1,993,575,0,0
-224,449,0,0,0,0,0,0,0,0,0,-1,1000,575,0,0
-217,449,0,0,0,0,0,0,0,0,0,-1,1007,575,0,0
-210,449,0,0,0,0,0,0,0,0,0,-1,1014,575,0,0
-203,449,0,0,0,0,0,0,0,0,0,-1,1021,575,0,0
-196,449,0,0,0,0,0,0,0,0,0,-1,1028,575,0,0
-189,449,0,0,0,0,0,0,0,0,0,-1,1035,575,0,0
-182,449,0,0,0,0,0,0,0,0,0,-1,1042,575,0,0
-175,449,0,0,0,0,0,0,0,0,0,-1,1049,575,0,0
-168,449,0,0,0,0,0,0,0,0,0,-1,1056,575,0,0
-161,449,0,0,0,0,0,0,0,0,0,-1,1063,575,0,0
-154,449,0,0,0,0,0,0,0,0,0,-1,1070,575,0,0
-147,449,0,0,0,0,0,0,0,0,0,-1,1077,575,0,0
-140,449,0,0,0,0,0,0,0,0,0,-1,1084,575,0,0
-133,449,0,0,0,0,0,0,0,0,0,-1,1091,575,0,0
-126,449,0,0,0,0,0,0,0,0,0,-1,1098,575,0,0
-119,449,0,0,0,0,0,0,0,0,0,-1,1105,575,0,0
-112,449,0,0,0,0,0,0,0,0,0,-1,1112,575,0,0
-105,449,0,0,0,0,0,0,0,0,0,-1,1119,575,0,0
-98,449,0,0,0,0,0,0,0,0,0,-1,1126,575,0,0
-91,449,0,0,0,0,0,0,0,0,0,-1,1133,575,0,0
-84,449,0,0,0,0,0,0,0,0,0,-1,1140,575,0,0
-77,449,0,0,0,0,0,0,0,0,0,-1,1147,575,0,0
-70,449,0,0,0,0,0,0,0,0,0,-1,1154,575,0,0
-63,449,0,0,0,0,0,0,0,0,0,-1,1161,575,0,0
-56,449,0,0,0,0,0,0,0,0,0,-1,1168,575,0,0
-49,449,0,0,0,0,0,0,0,0,0,-1,1175,575,0,0
-42,449,0,0,0,0,0,0,0,0,0,-1,1182,575,0,0
-35,449,0,0,0,0,0,0,0,0,0,-1,1189,575,0,0
-28,449,0,0,0,0,0,0,0,0,0,-1,1196,575,0,0
-21,449,0,0,0,0,0,0,0,0,0,-1,1203,575,0,0
-14,449,0,0,0,0,0,0,0,0,0,-1,1210,575,0,0
-7,449,0,0,0,0,0,0,0,0,0,-1,1217,575,0,0
0,449,0,0,0,0,0,0,0,0,0,-1,1224,575,0,0
7,449,0,0,0,0,0,0,0,0,0,-1,1231,575,0,0
14,449,0,0,0,0,0,0,0,0,0,-1,1238,575,0,0
21,449,0,0,0,0,0,0,0,0,0,-1,1245,575,0,0
28,449,0,0,0,0,0,0,0,0,0,-1,1252,575,0,0
35,449,0,0,0,0,0,0,0,0,0,-1,1259,575,0,0
42,449,0,0,0,0,0,0,0,0,0,-1,1266,575,0,0
49,449,0,0,0,0,0,0,0,0,0,-1,1273,575,0,0
56,449,0,0,0,0,0,0,0,0,0,-1,1280,575,0,0
63,449,0,0,0,0,0,0,0,0,0,-1,1287,575,0,0
70,449,0,0,0,0,0,0,0,0,0,-1,1294,575,0,0
77,449,0,0,0,0,0,0,0,0,0,-1,1301,575,0,0
84,449,0,0,0,0,0,0,0,0,0,-1,1308,575,0,0
91,449,0,0,0,0,0,0,0,0,0,-1,1315,575,0,0
98,449,0,0,0,0,0,0,0,0,0,-1,1322,575,0,0
105,449,0,0,0,0,0,0,0,0,0,-1,1329,575,0,0
112,449,0,0,0,0,0,0,0,0,0,-1,1336,575,0,0
119,449,0,0,0,0,0,0,0,0,0,-1,1343,575,0,0
126,449,0,0,0,0,0,0,0,0,0,-1,1350,575,0,0
133,449,0,0,0,0,0,0,0,0,0,-1,1357,575,0,0
140,449,0,0,0,0,0,0,0,0,0,-1,1364,575,0,0
147,449,0,0,0,0,0,0,0,0,0,-1,1371,575,0,0
154,449,0,0,0,0,0,0,0,0,0,-1,1378,575,0,0
161,449,0,0,0,0,0,0,0,0,0,-1,1385,575,0,0
168,449,0,0,0,0,0,0,0,0,0,-1,1392,575,0,0
175,449,0,0,0,0,0,0,0,0,0,-1,1399,575,0,0
182,449,0,0,0,0,0,0,0,0,0,-1,1406,575,0,0
189,449,0,0,0,0,0,0,0,0,0,-1,1413,575,0,0
196,449,0,0,0,0,0,0,0,0,0,-1,1420,575,0,0
203,449,0,0,0,0,0,0,0,0,0,-1,1427,575,0,0
210,449,0,0,0,0,0,0,0,0,0,-1,1434,575,0,0
217,449,0,0,0,0,0,0,0,0,0,-1,1441,575,0,0
224,449,0,0,0,0,0,0,0,0,0,-1,1448,575,0,0
231,449,0,0,0,0,0,0,0,0,0,-1,1455,575,0,0
238,449,0,0,0,0,0,0,0,0,0,-1,1462,575,0,0
245,449,0,0,0,0,0,0,0,0,0,-1,1469,575,0,0
252,449,0,0,0,0,0,0,0,0,0,-1,1476,575,0,0
259,449,0,0,0,0,0,0,0,0,0,-1,1483,575,0,0
266,449,0,0,0,0,0,0,0,0,0,-1,1490,575,0,0
273,449,0,0,0,0,0,0,0,0,0,-1,1497,575,0,0
280,449,0,0,0,0,0,0,0,0,0,-1,1504,575,0,0
287,449,0,0,0,0,0,0,0,0,0,-1,1511,575,0,0
294,449,0,0,0,0,0,0,0,0,0,-1,1518,575,0,0
301,449,0,0,0,0,0,0,0,0,0,-1,1525,575,0,0
308,449,0,0,0,0,0,0,0,0,0,-1,1532,575,0,0
315,449,0,0,0,0,0,0,0,0,0,-1,1539,575,0,0
322,449,0,0,0,0,0,0,0,0,0,-1,1546,575,0,0
329,449,0,0,0,0,0,0,0,0,0,-1,1553,575,0,0
336,449,0,0,0,0,0,0,0,0,0,-1,1560,575,0,0
343,449,0,0,0,0,0,0,0,0,0,-1,1567,575,0,0
350,449,0,0,0,0,0,0,0,0,0,-1,1574,575,0,0
357,449,0,0,0,0,0,0,0,0,0,-1,1581,575,0,0
364,449,0,0,0,0,0,0,0,0,0,-1,1588,575,0,0
371,449,0,0,0,0,0,0,0,0,0,-1,1595,575,0,0
378,449,0,0,0,0,0,0,0,0,0,-1,1602,575,0,0
385,449,0,0,0,0,0,0,0,0,0,-1,1609,575,0,0
392,449,7.95471,3.66217,0,0,0,0,0,0,0,-1,1616,575,7.95471,-3.66218
399,449,16.817,5.88226,0,0,0,0,0,0,0,-1,1623,575,16.817,-5.88224
406,449,16.9824,4.24963,0,0,0,0,0,0,0,-1,1630,575,16.9824,-4.24963
413,449,17.1477,2.617,0,0,0,0,0,0,0,-1,1637,575,17.1477,-2.61702
420,449,4.70264,2.21893,0,0,0,0,0,0,0,-1,1644,575,4.70263,-2.21894
427,449,8.96924,-4.53351,0,0,0,0,0,0,0,-1,1651,575,8.96925,4.53353
434,449,4.12927,-7.06952,0,0,0,0,0,0,0,-1,1658,575,4.12932,7.06952
441,449,3.89856,-6.06458,0,0,0,0,0,0,0,-1,1665,575,3.89855,6.06459
448,449,4.03198,-5.18207,0,0,0,0,0,0,0,-1,1672,575,4.03197,5.18207
455,449,4.21948,-4.09467,0,0,0,0,0,0,0,-1,1679,575,4.21952,4.09465
462,449,4.23181,-2.96924,0,0,0,0,0,0,0,-1,1686,575,4.23185,2.96926
469,449,4.51672,-2.95135,0,0,0,0,0,0,0,-1,1693,575,4.51672,2.95135
476,449,4.71838,-1.86688,0,0,0,0,0,0,0,-1,1700,575,4.71842,1.86689
483,449,4.87878,-1.73126,0,0,0,0,0,0,0,-1,1707,575,4.87875,1.73128
490,449,5.73279,-2.74573,0,0,0,0,0,0,0,-1,1714,575,5.73282,2.74575
497,449,7.96912,-4.81201,0,0,0,0,0,0,0,-1,1721,575,7.96916,4.81202
504,449,7.90845,-4.29871,0.00396111,0.00383259,0.00299186,0.0068894,0.000904298,0.77466,0.00432314,0.0390998,1728,575,7.90844,4.29873
511,449,7.97546,-4.02301,0.00343435,0.00280678,0.00259042,0.00572992,0.000511213,0.725125,0.00366146,0.0107751,1735,575,7.97551,4.02299
518,449,7.98718,-3.77039,0.00279813,0.00202293,0.00207179,0.00451827,0.000302799,0.692925,0.00291649,0.0133636,1742,575,7.98724,3.77036
525,449,7.97461,-3.51691,0.00210167,0.0015064,0.00159326,0.00342486,0.000183211,0.693058,0.00222468,0.0123981,1749,575,7.97467,3.51688
532,449,7.95325,-3.24915,0.00142996,0.00105427,0.00110842,0.00236635,0.00011789,0.701461,0.00153977,0.00983568,1756,575,7.95324,3.24912
539,449,7.92505,-2.96051,0.000814515,0.000582258,0.000625407,0.00133448,6.22888e-05,0.693601,0.000869637,0.0116096,1763,575,7.92503,2.96052
546,449,7.94177,-2.72461,0.000337625,0.000383658,0.000309323,0.00067082,5.04633e-05,0.822535,0.000431377,0.0193063,1770,575,7.94179,2.7246
553,449,7.95032,-2.46429,-7.63941e-05,0.000143556,-1.42143e-05,0.00014447,-7.73089e-05,-1.50653,0.000129987,0.014838,1777,575,7.95028,2.46431
560,449,7.98804,-2.19507,-0.000467177,-2.32179e-05,-0.000304696,0.000131784,-0.000622179,-1.10021,0.000464981,0.0130622,1784,575,7.98809,2.19509
567,449,7.96704,-1.93304,-0.000733117,-0.000131869,-0.000512429,0.00016161,-0.0010266,-1.05068,0.00074414,0.00942297,1791,575,7.96709,1.93303
574,449,7.96533,-1.63635,-0.00086175,-0.000198275,-0.000630222,0.000182187,-0.00124221,-1.02766,0.000895073,0.019078,1798,575,7.96536,1.63635
581,449,7.92505,-1.36005,-0.000900752,-0.000153813,-0.000578131,0.000160987,-0.00121555,-1.07218,0.000869015,0.0462969,1805,575,7.92502,1.36004
588,449,8.00208,-1.20026,0,0,0,0,0,0,0,-1,1812,575,8.00213,1.20026
595,449,8.19763,-0.459839,0,0,0,0,0,0,0,-1,1819,575,8.19762,0.459838
602,449,9.46167,4.17444,0,0,0,0,0,0,0,-1,1826,575,9.46164,-4.17442
609,449,12.2028,3.18652,0,0,0,0,0,0,0,-1,1833,575,12.2027,-3.18655
616,449,14.9438,2.19867,0,0,0,0,0,0,0,-1,1840,575,14.9438,-2.19867
623,449,9.83789,-0.0820313,0,0,0,0,0,0,0,-1,1847,575,9.83794,0.0820443
630,449,8.90686,4.99329,0,0,0,0,0,0,0,-1,1854,575,8.90685,-4.99327
637,449,0,0,0,0,0,0,0,0,0,-1,1861,575,0,0
644,449,0,0,0,0,0,0,0,0,0,-1,1868,575,0,0
651,449,0,0,0,0,0,0,0,0,0,-1,1875,575,0,0
658,449,0,0,0,0,0,0,0,0,0,-1,1882,575,0,0
665,449,0,0,0,0,0,0,0,0,0,-1,1889,575,0,0
672,449,0,0,0,0,0,0,0,0,0,-1,1896,575,0,0
679,449,0,0,0,0,0,0,0,0,0,-1,1903,575,0,0
686,449,0,0,0,0,0,0,0,0,0,-1,1910,575,0,0
693,449,0,0,0,0,0,0,0,0,0,-1,1917,575,0,0
700,449,0,0,0,0,0,0,0,0,0,-1,1924,575,0,0
707,449,0,0,0,0,0,0,0,0,0,-1,1931,575,0,0
714,449,0,0,0,0,0,0,0,0,0,-1,1938,575,0,0
721,449,0,0,0,0,0,0,0,0,0,-1,1945,575,0,0
728,449,0,0,0,0,0,0,0,0,0,-1,1952,575,0,0
735,449,0,0,0,0,0,0,0,0,0,-1,1959,575,0,0
742,449,0,0,0,0,0,0,0,0,0,-1,1966,575,0,0
749,449,0,0,0,0,0,0,0,0,0,-1,1973,575,0,0
756,449,0,0,0,0,0,0,0,0,0,-1,1980,575,0,0
763,449,0,0,0,0,0,0,0,0,0,-1,1987,575,0,0
770,449,0,0,0,0,0,0,0,0,0,-1,1994,575,0,0
777,449,0,0,0,0,0,0,0,0,0,-1,2001,575,0,0
784,449,0,0,0,0,0,0,0,0,0,-1,2008,575,0,0
791,449,0,0,0,0,0,0,0,0,0,-1,2015,575,0,0
798,449,0,0,0,0,0,0,0,0,0,-1,2022,575,0,0
805,449,0,0,0,0,0,0,0,0,0,-1,2029,575,0,0
812,449,0,0,0,0,0,0,0,0,0,-1,2036,575,0,0
-700,442,0,0,0,0,0,0,0,0,0,-1,524,582,0,0
-693,442,0,0,0,0,0,0,0,0,0,-1,531,582,0,0
-686,442,0,0,0,0,0,0,0,0,0,-1,538,582,0,0
-679,442,0,0,0,0,0,0,0,0,0,-1,545,582,0,0
-672,442,0,0,0,0,0,0,0,0,0,-1,552,582,0,0
-665,442,0,0,0,0,0,0,0,0,0,-1,559,582,0,0
-658,442,0,0,0,0,0,0,0,0,0,-1,566,582,0,0
-651,442,0,0,0,0,0,0,0,0,0,-1,573,582,0,0
-644,442,0,0,0,0,0,0,0,0,0,-1,580,582,0,0
-637,442,0,0,0,0,0,0,0,0,0,-1,587,582,0,0
-630,442,0,0,0,0,0,0,0,0,0,-1,594,582,0,0
-623,442,0,0,0,0,0,0,0,0,0,-1,601,582,0,0
-616,442,0,0,0,0,0,0,0,0,0,-1,608,582,0,0
-609,442,0,0,0,0,0,0,0,0,0,-1,615,582,0,0
-602,442,0,0,0,0,0,0,0,0,0,-1,622,582,0,0
-595,442,0,0,0,0,0,0,0,0,0,-1,629,582,0,0
-588,442,0,0,0,0,0,0,0,0,0,-1,636,582,0,0
-581,442,0,0,0,0,0,0,0,0,0,-1,643,582,0,0
-574,442,0,0,0,0,0,0,0,0,0,-1,650,582,0,0
-567,442,0,0,0,0,0,0,0,0,0,-1,657,582,0,0
-560,442,0,0,0,0,0,0,0,0,0,-1,664,582,0,0
-553,442,0,0,0,0,0,0,0,0,0,-1,671,582,0,0
-546,442,0,0,0,0,0,0,0,0,0,-1,678,582,0,0
-539,442,0,0,0,0,0,0,0,0,0,-1,685,582,0,0
-532,442,0,0,0,0,0,0,0,0,0,-1,692,582,0,0
-525,442,0,0,0,0,0,0,0,0,0,-1,699,582,0,0
-518,442,-0.493774,-5.72943,0,0,0,0,0,0,0,-1,706,582,-0.493791,5.72946
-511,442,-1.68738,-5.91357,0,0,0,0,0,0,0,-1,713,582,-1.68736,5.91359
-504,442,-3.20807,-6.34082,0,0,0,0,0,0,0,-1,720,582,-3.2081,6.34083
-497,442,-13.6886,-0.250122,0,0,0,0,0,0,0,-1,727,582,-13.6886,0.250143
-490,442,-7.30066,-3.28326,0,0,0,0,0,0,0,-1,734,582,-7.30064,3.28329
-483,442,-5.604,-2.63538,0,0,0,0,0,0,0,-1,741,582,-5.604,2.63537
-476,442,-2.79602,-2.28821,0,0,0,0,0,0,0,-1,748,582,-2.79602,2.28822
-469,442,-2.54736,-2.54956,0.0620698,0.0580618,-0.0389199,0.0990373,0.0210943,-0.759676,0.0602374,0.049394,755,582,-2.54734,2.54956
-462,442,-2.30762,-2.97473,0.0516362,0.0492368,-0.0336365,0.0840944,0.0167786,-0.767572,0.0513914,0.0361694,762,582,-2.30761,2.97474
-455,442,-2.37311,-3.13989,0.0414993,0.0402968,-0.0280526,0.0689571,0.012839,-0.774684,0.0423456,0.0264749,769,582,-2.37309,3.13987
-448,442,-2.31439,-3.34161,0.0324059,0.0320132,-0.0225401,0.0547506,0.00966858,-0.781042,0.0337425,0.0146395,776,582,-2.31441,3.34161
-441,442,-2.3219,-3.58179,0.0245075,0.0243067,-0.0174345,0.0418419,0.0069723,-0.782518,0.0258854,0.0144085,783,582,-2.32192,3.58176
-434,442,-2.3363,-3.8205,0.0177991,0.0174164,-0.0127186,0.0303278,0.00488765,-0.777877,0.0188023,0.0121849,790,582,-2.33628,3.8205
-427,442,-2.36237,-4.06616,0.0122373,0.0114509,-0.00858234,0.0204354,0.00325273,-0.762505,0.0126792,0.0124673,797,582,-2.36234,4.06619
-420,442,-2.33716,-4.30725,0.00743843,0.00636964,-0.00482679,0.0117603,0.00204775,-0.730265,0.00725461,0.0129646,804,582,-2.33716,4.30724
-413,442,-2.32892,-4.55072,0.00417714,0.00206675,-0.00186614,0.00526575,0.000978137,-0.528087,0.00323414,0.010326,811,582,-2.32889,4.55073
-406,442,-2.34216,-4.79602,0.00213806,-0.00182354,0.000705351,0.00225989,-0.00194538,0.171047,0.00243018,0.00911503,818,582,-2.34219,4.79603
-399,442,-2.3399,-5.04224,0.00122134,-0.00455526,0.00250704,0.00215764,-0.00549155,0.357426,0.00455394,0.00881336,825,582,-2.3399,5.04222
-392,442,-2.33954,-5.26538,0.00126425,-0.0071952,0.00375923,0.00269336,-0.00862431,0.363286,0.00682678,0.0112747,832,582,-2.33952,5.26539
-385,442,-2.32269,-5.47839,0.00166999,-0.00971939,0.0048165,0.00343373,-0.0114831,0.351022,0.00902054,0.0128352,839,582,-2.32267,5.47842
-378,442,-2.31213,-5.71088,0.00237405,-0.0125548,0.00579115,0.00435711,-0.0145379,0.329915,0.0114247,0.0120395,846,582,-2.31216,5.71087
-371,442,-2.3136,-5.98438,0.00353121,-0.0157338,0.00667943,0.00562048,-0.0178231,0.30315,0.0141331,0.0216799,853,582,-2.31357,5.9844
-364,442,-2.32623,-6.27039,0.00521918,-0.0195647,0.007531,0.00732814,-0.0216737,0.273043,0.0174136,0.0353553,860,582,-2.32624,6.27036
-357,442,-2.31366,-6.57007,0,0,0,0,0,0,0,-1,867,582,-2.31364,6.57004
-350,442,-1.76355,-5.98529,0,0,0,0,0,0,0,-1,874,582,-1.76352,5.98531
-343,442,-1.4599,-4.63605,0,0,0,0,0,0,0,-1,881,582,-1.4599,4.63607
-336,442,-1.4054,-2.64313,0,0,0,0,0,0,0,-1,888,582,-1.40539,2.64315
-329,442,-0.952576,-2.76923,0,0,0,0,0,0,0,-1,895,582,-0.952571,2.7692
-322,442,-0.972534,-2.63208,0,0,0,0,0,0,0,-1,902,582,-0.972512,2.6321
-315,442,-0.445557,-2.89764,0,0,0,0,0,0,0,-1,909,582,-0.445582,2.89765
-308,442,-0.654175,-3.07831,0,0,0,0,0,0,0,-1,916,582,-0.654145,3.07832
-301,442,-1.37427,-2.41455,0,0,0,0,0,0,0,-1,923,582,-1.37425,2.41453
-294,442,-2.99963,-2.07855,0,0,0,0,0,0,0,-1,930,582,-2.99964,2.07857
-287,442,-5.62799,-2.76422,0,0,0,0,0,0,0,-1,937,582,-5.628,2.76424
-280,442,0,0,0,0,0,0,0,0,0,-1,944,582,0,0
-273,442,0,0,0,0,0,0,0,0,0,-1,951,582,0,0
-266,442,0,0,0,0,0,0,0,0,0,-1,958,582,0,0
-259,442,0,0,0,0,0,0,0,0,0,-1,965,582,0,0
-252,442,0,0,0,0,0,0,0,0,0,-1,972,582,0,0
-245,442,0,0,0,0,0,0,0,0,0,-1,979,582,0,0
-238,442,0,0,0,0,0,0,0,0,0,-1,986,582,0,0
-231,442,0,0,0,0,0,0,0,0,0,-1,993,582,0,0
-224,442,0,0,0,0,0,0,0,0,0,-1,1000,582,0,0
-217,442,0,0,0,0,0,0,0,0,0,-1,1007,582,0,0
-210,442,0,0,0,0,0,0,0,0,0,-1,1014,582,0,0
-203,442,0,0,0,0,0,0,0,0,0,-1,1021,582,0,0
-196,442,0,0,0,0,0,0,0,0,0,-1,1028,582,0,0
-189,442,0,0,0,0,0,0,0,0,0,-1,1035,582,0,0
-182,442,0,0,0,0,0,0,0,0,0,-1,1042,582,0,0
-175,442,0,0,0,0,0,0,0,0,0,-1,1049,582,0,0
-168,442,0,0,0,0,0,0,0,0,0,-1,1056,582,0,0
-161,442,0,0,0,0,0,0,0,0,0,-1,1063,582,0,0
-154,442,0,0,0,0,0,0,0,0,0,-1,1070,582,0,0
-147,442,0,0,0,0,0,0,0,0,0,-1,1077,582,0,0
-140,442,0,0,0,0,0,0,0,0,0,-1,1084,582,0,0
-133,442,0,0,0,0,0,0,0,0,0,-1,1091,582,0,0
-126,442,0,0,0,0,0,0,0,0,0,-1,1098,582,0,0
-119,442,0,0,0,0,0,0,0,0,0,-1,1105,582,0,0
-112,442,0,0,0,0,0,0,0,0,0,-1,1112,582,0,0
-105,442,0,0,0,0,0,0,0,0,0,-1,1119,582,0,0
-98,442,0,0,0,0,0,0,0,0,0,-1,1126,582,0,0
-91,442,0,0,0,0,0,0,0,0,0,-1,1133,582,0,0
-84,442,0,0,0,0,0,0,0,0,0,-1,1140,582,0,0
-77,442,0,0,0,0,0,0,0,0,0,-1,1147,582,0,0
-70,442,0,0,0,0,0,0,0,0,0,-1,1154,582,0,0
-63,442,0,0,0,0,0,0,0,0,0,-1,1161,582,0,0
-56,442,0,0,0,0,0,0,0,0,0,-1,1168,582,0,0
-49,442,0,0,0,0,0,0,0,0,0,-1,1175,582,0,0
-42,442,0,0,0,0,0,0,0,0,0,-1,1182,582,0,0
-35,442,0,0,0,0,0,0,0,0,0,-1,1189,582,0,0
-28,442,0,0,0,0,0,0,0,0,0,-1,1196,582,0,0
-21,442,0,0,0,0,0,0,0,0,0,-1,1203,582,0,0
-14,442,0,0,0,0,0,0,0,0,0,-1,1210,582,0,0
-7,442,0,0,0,0,0,0,0,0,0,-1,1217,582,0,0
0,442,0,0,0,0,0,0,0,0,0,-1,1224,582,0,0
7,442,0,0,0,0,0,0,0,0,0,-1,1231,582,0,0
14,442,0,0,0,0,0,0,0,0,0,-1,1238,582,0,0
21,442,0,0,0,0,0,0,0,0,0,-1,1245,582,0,0
28,442,0,0,0,0,0,0,0,0,0,-1,1252,582,0,0
35,442,0,0,0,0,0,0,0,0,0,-1,1259,582,0,0
42,442,0,0,0,0,0,0,0,0,0,-1,1266,582,0,0
49,442,0,0,0,0,0,0,0,0,0,-1,1273,582,0,0
56,442,0,0,0,0,0,0,0,0,0,-1,1280,582,0,0
63,442,0,0,0,0,0,0,0,0,0,-1,1287,582,0,0
70,442,0,0,0,0,0,0,0,0,0,-1,1294,582,0,0
77,442,0,0,0,0,0,0,0,0,0,-1,1301,582,0,0
84,442,0,0,0,0,0,0,0,0,0,-1,1308,582,0,0
91,442,0,0,0,0,0,0,0,0,0,-1,1315,582,0,0
98,442,0,0,0,0,0,0,0,0,0,-1,1322,582,0,0
105,442,0,0,0,0,0,0,0,0,0,-1,1329,582,0,0
112,442,0,0,0,0,0,0,0,0,0,-1,1336,582,0,0
119,442,0,0,0,0,0,0,0,0,0,-1,1343,582,0,0
126,442,0,0,0,0,0,0,0,0,0,-1,1350,582,0,0
133,442,0,0,0,0,0,0,0,0,0,-1,1357,582,0,0
140,442,0,0,0,0,0,0,0,0,0,-1,1364,582,0,0
147,442,0,0,0,0,0,0,0,0,0,-1,1371,582,0,0
154,442,0,0,0,0,0,0,0,0,0,-1,1378,582,0,0
161,442,0,0,0,0,0,0,0,0,0,-1,1385,582,0,0
168,442,0,0,0,0,0,0,0,0,0,-1,1392,582,0,0
175,442,0,0,0,0,0,0,0,0,0,-1,1399,582,0,0
182,442,0,0,0,0,0,0,0,0,0,-1,1406,582,0,0
189,442,0,0,0,0,0,0,0,0,0,-1,1413,582,0,0
196,442,0,0,0,0,0,0,0,0,0,-1,1420,582,0,0
203,442,0,0,0,0,0,0,0,0,0,-1,1427,582,0,0
210,442,0,0,0,0,0,0,0,0,0,-1,1434,582,0,0
217,442,0,0,0,0,0,0,0,0,0,-1,1441,582,0,0
224,442,0,0,0,0,0,0,0,0,0,-1,1448,582,0,0
231,442,0,0,0,0,0,0,0,0,0,-1,1455,582,0,0
238,442,0,0,0,0,0,0,0,0,0,-1,1462,582,0,0
245,442,0,0,0,0,0,0,0,0,0,-1,1469,582,0,0
252,442,0,0,0,0,0,0,0,0,0,-1,1476,582,0,0
259,442,0,0,0,0,0,0,0,0,0,-1,1483,582,0,0
266,442,0,0,0,0,0,0,0,0,0,-1,1490,582,0,0
273,442,0,0,0,0,0,0,0,0,0,-1,1497,582,0,0
280,442,0,0,0,0,0,0,0,0,0,-1,1504,582,0,0
287,442,0,0,0,0,0,0,0,0,0,-1,1511,582,0,0
294,442,0,0,0,0,0,0,0,0,0,-1,1518,582,0,0
301,442,0,0,0,0,0,0,0,0,0,-1,1525,582,0,0
308,442,0,0,0,0,0,0,0,0,0,-1,1532,582,0,0
315,442,0,0,0,0,0,0,0,0,0,-1,1539,582,0,0
322,442,0,0,0,0,0,0,0,0,0,-1,1546,582,0,0
329,442,0,0,0,0,0,0,0,0,0,-1,1553,582,0,0
336,442,0,0,0,0,0,0,0,0,0,-1,1560,582,0,0
343,442,0,0,0,0,0,0,0,0,0,-1,1567,582,0,0
350,442,0,0,0,0,0,0,0,0,0,-1,1574,582,0,0
357,442,0,0,0,0,0,0,0,0,0,-1,1581,582,0,0
364,442,0,0,0,0,0,0,0,0,0,-1,1588,582,0,0
371,442,0,0,0,0,0,0,0,0,0,-1,1595,582,0,0
378,442,0,0,0,0,0,0,0,0,0,-1,1602,582,0,0
385,442,0,0,0,0,0,0,0,0,0,-1,1609,582,0,0
392,442,0,0,0,0,0,0,0,0,0,-1,1616,582,0,0
399,442,0,0,0,0,0,0,0,0,0,-1,1623,582,0,0
406,442,14.1736,4.27441,0,0,0,0,0,0,0,-1,1630,582,14.1736,-4.27439
413,442,3.66699,2.87408,0,0,0,0,0,0,0,-1,1637,582,3.66703,-2.87408
420,442,4.69055,3.09448,0,0,0,0,0,0,0,-1,1644,582,4.69054,-3.0945
427,442,2.44519,-1.35358,0,0,0,0,0,0,0,-1,1651,582,2.44514,1.35361
434,442,8.45898,-3.86719,0,0,0,0,0,0,0,-1,1658,582,8.45904,3.86719
441,442,4.89368,-7.42456,0,0,0,0,0,0,0,-1,1665,582,4.89365,7.42457
448,442,4.7749,-5.88562,0,0,0,0,0,0,0,-1,1672,582,4.7749,5.8856
455,442,4.87024,-4.60687,0,0,0,0,0,0,0,-1,1679,582,4.87019,4.60686
462,442,5.02307,-3.72821,0,0,0,0,0,0,0,-1,1686,582,5.02311,3.7282
469,442,5.12976,-2.98834,0,0,0,0,0,0,0,-1,1693,582,5.12971,2.98834
476,442,5.4624,1.76947,0,0,0,0,0,0,0,-1,1700,582,5.46234,-1.76944
483,442,5.98486,1.87042,0,0,0,0,0,0,0,-1,1707,582,5.98492,-1.87045
490,442,5.04407,-2.35834,0,0,0,0,0,0,0,-1,1714,582,5.04411,2.35837
497,442,6.20984,-3.07831,0,0,0,0,0,0,0,-1,1721,582,6.2098,3.07833
504,442,8.0293,-4.29767,0,0,0,0,0,0,0,-1,1728,582,8.02934,4.29769
511,442,8.1676,-4.04456,0.00409537,0.00338053,0.0030009,0.00676006,0.000715843,0.726125,0.00428805,0.0248223,1735,582,8.1676,4.04458
518,442,8.23486,-3.75391,0.00340177,0.00240495,0.00245602,0.00540944,0.00039728,0.685291,0.00348143,0.0119092,1742,582,8.23485,3.75388
525,442,8.22119,-3.50421,0.00266476,0.00181683,0.00200057,0.00428579,0.000195795,0.680982,0.00279422,0.0109927,1749,582,8.22115,3.50418
532,442,8.23132,-3.24152,0.0019543,0.00127163,0.00150641,0.00315756,6.83616e-05,0.673986,0.00208263,0.0100709,1756,582,8.2313,3.24152
539,442,8.22156,-2.97284,0.00130223,0.000735668,0.0010065,0.00206456,-2.66588e-05,0.648221,0.00138534,0.0105817,1763,582,8.22157,2.97284
546,442,8.22559,-2.73907,0.000790758,0.000474255,0.000663195,0.00131432,-4.93085e-05,0.668279,0.000893104,0.0137798,1770,582,8.22563,2.73908
553,442,8.21582,-2.48529,0.000357684,0.000208773,0.000338628,0.000629945,-6.34885e-05,0.677183,0.000442647,0.0156149,1777,582,8.21584,2.48531
560,442,8.22876,-2.21124,-5.55867e-05,4.35397e-05,4.84306e-05,6.32732e-05,-7.53202e-05,1.18388,8.01176e-05,0.0142683,1784,582,8.22875,2.21126
567,442,8.22363,-1.93719,-0.000333199,-3.67475e-05,-0.00014853,2.4865e-05,-0.000394812,-1.17758,0.000271875,0.00993896,1791,582,8.22357,1.93717
574,442,8.2052,-1.64783,-0.000419679,-4.34252e-05,-0.000212847,5.25178e-05,-0.000515622,-1.14731,0.000362524,0.0117716,1798,582,8.20523,1.64782
581,442,8.22949,-1.3443,-0.000378555,9.68181e-05,-0.000121346,0.000126002,-0.000407739,-1.33478,0.000322148,0.0180564,1805,582,8.22949,1.34431
588,442,8.19006,-1.18237,-8.45664e-05,0.000358494,0.000175922,0.000419849,-0.000145922,1.23522,0.00033917,0.0279419,1812,582,8.1901,1.18239
595,442,8.23853,-0.759644,0.000476442,0.000987274,0.000709746,0.00148616,-2.24474e-05,0.958118,0.000998342,0.0429766,1819,582,8.23853,0.75962
602,442,8.35449,-0.20874,0,0,0,0,0,0,0,-1,1826,582,8.35452,0.208759
609,442,9.38428,2.86908,0,0,0,0,0,0,0,-1,1833,582,9.38429,-2.86906
616,442,7.16003,-1.18372,0,0,0,0,0,0,0,-1,1840,582,7.16,1.18373
623,442,9.23828,0.326721,0,0,0,0,0,0,0,-1,1847,582,9.23829,-0.326727
630,442,7.74304,2.3924,0,0,0,0,0,0,0,-1,1854,582,7.7431,-2.39238
637,442,5.87805,1.84027,0,0,0,0,0,0,0,-1,1861,582,5.87807,-1.84025
644,442,0,0,0,0,0,0,0,0,0,-1,1868,582,0,0
651,442,0,0,0,0,0,0,0,0,0,-1,1875,582,0,0
658,442,0,0,0,0,0,0,0,0,0,-1,1882,582,0,0
665,442,0,0,0,0,0,0,0,0,0,-1,1889,582,0,0
672,442,0,0,0,0,0,0,0,0,0,-1,1896,582,0,0
679,442,0,0,0,0,0,0,0,0,0,-1,1903,582,0,0
686,442,0,0,0,0,0,0,0,0,0,-1,1910,582,0,0
693,442,0,0,0,0,0,0,0,0,0,-1,1917,582,0,0
700,442,0,0,0,0,0,0,0,0,0,-1,1924,582,0,0
707,442,0,0,0,0,0,0,0,0,0,-1,1931,582,0,0
714,442,0,0,0,0,0,0,0,0,0,-1,1938,582,0,0
721,442,0,0,0,0,0,0,0,0,0,-1,1945,582,0,0
728,442,0,0,0,0,0,0,0,0,0,-1,1952,582,0,0
735,442,0,0,0,0,0,0,0,0,0,-1,1959,582,0,0
742,442,0,0,0,0,0,0,0,0,0,-1,1966,582,0,0
749,442,0,0,0,0,0,0,0,0,0,-1,1973,582,0,0
756,442,0,0,0,0,0,0,0,0,0,-1,1980,582,0,0
763,442,0,0,0,0,0,0,0,0,0,-1,1987,582,0,0
770,442,0,0,0,0,0,0,0,0,0,-1,1994,582,0,0
777,442,0,0,0,0,0,0,0,0,0,-1,2001,582,0,0
784,442,0,0,0,0,0,0,0,0,0,-1,2008,582,0,0
791,442,0,0,0,0,0,0,0,0,0,-1,2015,582,0,0
798,442,0,0,0,0,0,0,0,0,0,-1,2022,582,0,0
805,442,0,0,0,0,0,0,0,0,0,-1,2029,582,0,0
812,442,0,0,0,0,0,0,0,0,0,-1,2036,582,0,0
-700,435,0,0,0,0,0,0,0,0,0,-1,524,589,0,0
-693,435,0,0,0,0,0,0,0,0,0,-1,531,589,0,0
-686,435,0,0,0,0,0,0,0,0,0,-1,538,589,0,0
-679,435,0,0,0,0,0,0,0,0,0,-1,545,589,0,0
-672,435,0,0,0,0,0,0,0,0,0,-1,552,589,0,0
-665,435,0,0,0,0,0,0,0,0,0,-1,559,589,0,0
-658,435,0,0,0,0,0,0,0,0,0,-1,566,589,0,0
-651,435,0,0,0,0,0,0,0,0,0,-1,573,589,0,0
-644,435,0,0,0,0,0,0,0,0,0,-1,580,589,0,0
-637,435,0,0,0,0,0,0,0,0,0,-1,587,589,0,0
-630,435,0,0,0,0,0,0,0,0,0,-1,594,589,0,0
-623,435,0,0,0,0,0,0,0,0,0,-1,601,589,0,0
-616,435,0,0,0,0,0,0,0,0,0,-1,608,589,0,0
-609,435,0,0,0,0,0,0,0,0,0,-1,615,589,0,0
-602,435,0,0,0,0,0,0,0,0,0,-1,622,589,0,0
-595,435,0,0,0,0,0,0,0,0,0,-1,629,589,0,0
-588,435,0,0,0,0,0,0,0,0,0,-1,636,589,0,0
-581,435,0,0,0,0,0,0,0,0,0,-1,643,589,0,0
-574,435,0,0,0,0,0,0,0,0,0,-1,650,589,0,0
-567,435,0,0,0,0,0,0,0,0,0,-1,657,589,0,0
-560,435,0,0,0,0,0,0,0,0,0,-1,664,589,0,0
-553,435,0,0,0,0,0,0,0,0,0,-1,671,589,0,0
-546,435,0,0,0,0,0,0,0,0,0,-1,678,589,0,0
-539,435,0,0,0,0,0,0,0,0,0,-1,685,589,0,0
-532,435,0,0,0,0,0,0,0,0,0,-1,692,589,0,0
-525,435,-10.0776,10.0547,0,0,0,0,0,0,0,-1,699,589,-10.0776,-10.0547
-518,435,-0.928711,-4.91492,0,0,0,0,0,0,0,-1,706,589,-0.928723,4.91489
-511,435,-2.43555,-5.38599,0,0,0,0,0,0,0,-1,713,589,-2.43553,5.38597
-504,435,-3.89355,-5.72308,0,0,0,0,0,0,0,-1,720,589,-3.89353,5.72309
-497,435,-5.18701,-5.97711,0,0,0,0,0,0,0,-1,727,589,-5.18703,5.97714
-490,435,-6.48621,-3.1344,0,0,0,0,0,0,0,-1,734,589,-6.4862,3.13439
-483,435,-5.33392,-2.60278,0,0,0,0,0,0,0,-1,741,589,-5.33394,2.60281
-476,435,-3.88647,-2.28467,0.0519758,0.0425573,-0.0292945,0.0769371,0.017596,-0.705702,0.0465482,0.0475311,748,589,-3.88647,2.28469
-469,435,-2.60333,-2.49585,0.043658,0.0369993,-0.0256484,0.0661923,0.0144651,-0.720855,0.0401839,0.0298816,755,589,-2.60334,2.49585
-462,435,-2.52179,-2.85321,0.0354076,0.0308627,-0.0215623,0.0548168,0.0114534,-0.732897,0.0333881,0.01517,762,589,-2.52182,2.85324
-455,435,-2.58441,-3.07788,0.0275877,0.0247335,-0.01742,0.043639,0.00868223,-0.744527,0.0266738,0.0135549,769,589,-2.58443,3.07787
-448,435,-2.57153,-3.33948,0.0209188,0.019265,-0.0135074,0.0336246,0.00655921,-0.754826,0.0205814,0.013454,776,589,-2.57155,3.33946
-441,435,-2.58167,-3.57263,0.0153253,0.0141176,-0.010023,0.0247625,0.00468028,-0.755311,0.0151905,0.0119713,783,589,-2.58166,3.57262
-434,435,-2.58569,-3.79956,0.0106985,0.00947807,-0.00677651,0.0168922,0.00328437,-0.740495,0.010342,0.011602,790,589,-2.58566,3.79958
-427,435,-2.58875,-4.05865,0.00697638,0.00536281,-0.00385727,0.0101103,0.00222886,-0.682304,0.00613377,0.00915273,797,589,-2.58876,4.05868
-420,435,-2.58228,-4.30371,0.00380182,0.00170271,-0.00117088,0.00432469,0.00117984,-0.419993,0.00258134,0.00975937,804,589,-2.58225,4.30373
-413,435,-2.58093,-4.54724,0.00189649,-0.00146444,0.000918069,0.00213091,-0.00169887,0.250006,0.00221581,0.0100072,811,589,-2.58092,4.54726
-406,435,-2.57495,-4.79559,0.00104131,-0.00433557,0.00270254,0.00216488,-0.00545914,0.394007,0.00453663,0.0104114,818,589,-2.57497,4.79557
-399,435,-2.56879,-5.02826,0.000930496,-0.00673592,0.00407787,0.00269394,-0.00849937,0.408157,0.00674597,0.00924864,825,589,-2.56882,5.02828
-392,435,-2.58032,-5.26636,0.00131497,-0.00960071,0.0053187,0.00347793,-0.0117637,0.386244,0.00922299,0.0106809,832,589,-2.58032,5.26636
-385,435,-2.55939,-5.49133,0.00173262,-0.0127447,0.00666879,0.00433627,-0.0153483,0.372223,0.011943,0.0127509,839,589,-2.55937,5.49133
-378,435,-2.54712,-5.72052,0.00245491,-0.0164246,0.00803638,0.00541243,-0.0193821,0.352634,0.0150534,0.0189772,846,589,-2.54711,5.72052
-371,435,-2.63019,-5.93445,0.00367629,-0.0206378,0.00940362,0.00688875,-0.0238503,0.32919,0.018626,0.0386334,853,589,-2.63017,5.93442
-364,435,-2.74792,-5.9411,0.00552048,-0.0258612,0.0108248,0.00889216,-0.0292329,0.301952,0.0230321,0.0482522,860,589,-2.7479,5.94111
-357,435,-2.7998,-6.13318,0,0,0,0,0,0,0,-1,867,589,-2.7998,6.13317
-350,435,-0.86676,-3.69836,0,0,0,0,0,0,0,-1,874,589,-0.866784,3.69834
-343,435,-1.60706,-2.36835,0,0,0,0,0,0,0,-1,881,589,-1.60706,2.36838
-336,435,-2.07263,-1.94012,0,0,0,0,0,0,0,-1,888,589,-2.07265,1.94014
-329,435,-2.55963,-1.5517,0,0,0,0,0,0,0,-1,895,589,-2.5596,1.55168
-322,435,-3.08545,-1.55255,0,0,0,0,0,0,0,-1,902,589,-3.08544,1.55254
-315,435,-0.404297,-2.63763,0,0,0,0,0,0,0,-1,909,589,-0.404276,2.63761
-308,435,-1.70056,-1.90369,0,0,0,0,0,0,0,-1,916,589,-1.70056,1.90367
-301,435,-1.25232,-2.05511,0,0,0,0,0,0,0,-1,923,589,-1.25234,2.05514
-294,435,-1.79974,-1.97321,0,0,0,0,0,0,0,-1,930,589,-1.79973,1.97322
-287,435,0,0,0,0,0,0,0,0,0,-1,937,589,0,0
-280,435,0,0,0,0,0,0,0,0,0,-1,944,589,0,0
-273,435,0,0,0,0,0,0,0,0,0,-1,951,589,0,0
-266,435,0,0,0,0,0,0,0,0,0,-1,958,589,0,0
-259,435,0,0,0,0,0,0,0,0,0,-1,965,589,0,0
-252,435,0,0,0,0,0,0,0,0,0,-1,972,589,0,0
-245,435,0,0,0,0,0,0,0,0,0,-1,979,589,0,0
-238,435,0,0,0,0,0,0,0,0,0,-1,986,589,0,0
-231,435,0,0,0,0,0,0,0,0,0,-1,993,589,0,0
-224,435,0,0,0,0,0,0,0,0,0,-1,1000,589,0,0
-217,435,0,0,0,0,0,0,0,0,0,-1,1007,589,0,0
-210,435,0,0,0,0,0,0,0,0,0,-1,1014,589,0,0
-203,435,0,0,0,0,0,0,0,0,0,-1,1021,589,0,0
-196,435,0,0,0,0,0,0,0,0,0,-1,1028,589,0,0
-189,435,0,0,0,0,0,0,0,0,0,-1,1035,589,0,0
-182,435,0,0,0,0,0,0,0,0,0,-1,1042,589,0,0
-175,435,0,0,0,0,0,0,0,0,0,-1,1049,589,0,0
-168,435,0,0,0,0,0,0,0,0,0,-1,1056,589,0,0
-161,435,0,0,0,0,0,0,0,0,0,-1,1063,589,0,0
-154,435,0,0,0,0,0,0,0,0,0,-1,1070,589,0,0
-147,435,0,0,0,0,0,0,0,0,0,-1,1077,589,0,0
-140,435,0,0,0,0,0,0,0,0,0,-1,1084,589,0,0
-133,435,0,0,0,0,0,0,0,0,0,-1,1091,589,0,0
-126,435,0,0,0,0,0,0,0,0,0,-1,1098,589,0,0
-119,435,0,0,0,0,0,0,0,0,0,-1,1105,589,0,0
-112,435,0,0,0,0,0,0,0,0,0,-1,1112,589,0,0
-105,435,0,0,0,0,0,0,0,0,0,-1,1119,589,0,0
-98,435,0,0,0,0,0,0,0,0,0,-1,1126,589,0,0
-91,435,0,0,0,0,0,0,0,0,0,-1,1133,589,0,0
-84,435,0,0,0,0,0,0,0,0,0,-1,1140,589,0,0
-77,435,0,0,0,0,0,0,0,0,0,-1,1147,589,0,0
-70,435,0,0,0,0,0,0,0,0,0,-1,1154,589,0,0
-63,435,0,0,0,0,0,0,0,0,0,-1,1161,589,0,0
-56,435,0,0,0,0,0,0,0,0,0,-1,1168,589,0,0
-49,435,0,0,0,0,0,0,0,0,0,-1,1175,589,0,0
-42,435,0,0,0,0,0,0,0,0,0,-1,1182,589,0,0
-35,435,0,0,0,0,0,0,0,0,0,-1,1189,589,0,0
-28,435,0,0,0,0,0,0,0,0,0,-1,1196,589,0,0
-21,435,0,0,0,0,0,0,0,0,0,-1,1203,589,0,0
-14,435,0,0,0,0,0,0,0,0,0,-1,1210,589,0,0
-7,435,0,0,0,0,0,0,0,0,0,-1,1217,589,0,0
0,435,0,0,0,0,0,0,0,0,0,-1,1224,589,0,0
7,435,0,0,0,0,0,0,0,0,0,-1,1231,589,0,0
14,435,0,0,0,0,0,0,0,0,0,-1,1238,589,0,0
21,435,0,0,0,0,0,0,0,0,0,-1,1245,589,0,0
28,435,0,0,0,0,0,0,0,0,0,-1,1252,589,0,0
35,435,0,0,0,0,0,0,0,0,0,-1,1259,589,0,0
42,435,0,0,0,0,0,0,0,0,0,-1,1266,589,0,0
49,435,0,0,0,0,0,0,0,0,0,-1,1273,589,0,0
56,435,0,0,0,0,0,0,0,0,0,-1,1280,589,0,0
63,435,0,0,0,0,0,0,0,0,0,-1,1287,589,0,0
70,435,0,0,0,0,0,0,0,0,0,-1,1294,589,0,0
77,435,0,0,0,0,0,0,0,0,0,-1,1301,589,0,0
84,435,0,0,0,0,0,0,0,0,0,-1,1308,589,0,0
91,435,0,0,0,0,0,0,0,0,0,-1,1315,589,0,0
98,435,0,0,0,0,0,0,0,0,0,-1,1322,589,0,0
105,435,0,0,0,0,0,0,0,0,0,-1,1329,589,0,0
112,435,0,0,0,0,0,0,0,0,0,-1,1336,589,0,0
119,435,0,0,0,0,0,0,0,0,0,-1,1343,589,0,0
126,435,0,0,0,0,0,0,0,0,0,-1,1350,589,0,0
133,435,0,0,0,0,0,0,0,0,0,-1,1357,589,0,0
140,435,0,0,0,0,0,0,0,0,0,-1,1364,589,0,0
147,435,0,0,0,0,0,0,0,0,0,-1,1371,589,0,0
154,435,0,0,0,0,0,0,0,0,0,-1,1378,589,0,0
161,435,0,0,0,0,0,0,0,0,0,-1,1385,589,0,0
168,435,0,0,0,0,0,0,0,0,0,-1,1392,589,0,0
175,435,0,0,0,0,0,0,0,0,0,-1,1399,589,0,0
182,435,0,0,0,0,0,0,0,0,0,-1,1406,589,0,0
189,435,0,0,0,0,0,0,0,0,0,-1,1413,589,0,0
196,435,0,0,0,0,0,0,0,0,0,-1,1420,589,0,0
203,435,0,0,0,0,0,0,0,0,0,-1,1427,589,0,0
210,435,0,0,0,0,0,0,0,0,0,-1,1434,589,0,0
217,435,0,0,0,0,0,0,0,0,0,-1,1441,589,0,0
224,435,0,0,0,0,0,0,0,0,0,-1,1448,589,0,0
231,435,0,0,0,0,0,0,0,0,0,-1,1455,589,0,0
238,435,0,0,0,0,0,0,0,0,0,-1,1462,589,0,0
245,435,0,0,0,0,0,0,0,0,0,-1,1469,589,0,0
252,435,0,0,0,0,0,0,0,0,0,-1,1476,589,0,0
259,435,0,0,0,0,0,0,0,0,0,-1,1483,589,0,0
266,435,0,0,0,0,0,0,0,0,0,-1,1490,589,0,0
273,435,0,0,0,0,0,0,0,0,0,-1,1497,589,0,0
280,435,0,0,0,0,0,0,0,0,0,-1,1504,589,0,0
287,435,0,0,0,0,0,0,0,0,0,-1,1511,589,0,0
294,435,0,0,0,0,0,0,0,0,0,-1,1518,589,0,0
301,435,0,0,0,0,0,0,0,0,0,-1,1525,589,0,0
308,435,0,0,0,0,0,0,0,0,0,-1,1532,589,0,0
315,435,0,0,0,0,0,0,0,0,0,-1,1539,589,0,0
322,435,0,0,0,0,0,0,0,0,0,-1,1546,589,0,0
329,435,0,0,0,0,0,0,0,0,0,-1,1553,589,0,0
336,435,0,0,0,0,0,0,0,0,0,-1,1560,589,0,0
343,435,0,0,0,0,0,0,0,0,0,-1,1567,589,0,0
350,435,0,0,0,0,0,0,0,0,0,-1,1574,589,0,0
357,435,0,0,0,0,0,0,0,0,0,-1,1581,589,0,0
364,435,0,0,0,0,0,0,0,0,0,-1,1588,589,0,0
371,435,0,0,0,0,0,0,0,0,0,-1,1595,589,0,0
378,435,0,0,0,0,0,0,0,0,0,-1,1602,589,0,0
385,435,0,0,0,0,0,0,0,0,0,-1,1609,589,0,0
392,435,0,0,0,0,0,0,0,0,0,-1,1616,589,0,0
399,435,0,0,0,0,0,0,0,0,0,-1,1623,589,0,0
406,435,0,0,0,0,0,0,0,0,0,-1,1630,589,0,0
413,435,3.62073,3.42682,0,0,0,0,0,0,0,-1,1637,589,3.62069,-3.4268
420,435,3.6062,3.71564,0,0,0,0,0,0,0,-1,1644,589,3.60616,-3.71562
427,435,3.11963,0.640198,0,0,0,0,0,0,0,-1,1651,589,3.11967,-0.640192
434,435,2.72107,-1.34802,0,0,0,0,0,0,0,-1,1658,589,2.7211,1.34803
441,435,7.33191,-1.57452,0,0,0,0,0,0,0,-1,1665,589,7.33193,1.57452
448,435,7.4585,-0.00292969,0,0,0,0,0,0,0,-1,1672,589,7.45848,0.00294131
455,435,5.49915,-5.047,0,0,0,0,0,0,0,-1,1679,589,5.49914,5.04703
462,435,5.60669,-4.71466,0,0,0,0,0,0,0,-1,1686,589,5.60675,4.71469
469,435,5.87708,1.22351,0,0,0,0,0,0,0,-1,1693,589,5.87703,-1.22351
476,435,6.14136,1.37714,0,0,0,0,0,0,0,-1,1700,589,6.14138,-1.37712
483,435,6.49243,1.36169,0,0,0,0,0,0,0,-1,1707,589,6.49242,-1.36171
490,435,4.38391,-1.36218,0,0,0,0,0,0,0,-1,1714,589,4.38389,1.3622
497,435,7.23499,-3.64551,0,0,0,0,0,0,0,-1,1721,589,7.23495,3.64551
504,435,7.31189,-3.75909,0,0,0,0,0,0,0,-1,1728,589,7.31184,3.75911
511,435,8.38623,-4.14386,0,0,0,0,0,0,0,-1,1735,589,8.38624,4.14388
518,435,8.48181,-3.77832,0.00404903,0.00249021,0.00278868,0.00616517,0.000374071,0.64913,0.00399127,0.0192686,1742,589,8.48185,3.77835
525,435,8.48877,-3.50305,0.0032011,0.00187622,0.00228294,0.00491577,0.000161548,0.644192,0.00322468,0.0122814,1749,589,8.48871,3.50304
532,435,8.5061,-3.24426,0.00240013,0.00127313,0.001721,0.00364753,2.57286e-05,0.627186,0.00242315,0.0130775,1756,589,8.50612,3.24426
539,435,8.51453,-2.98511,0.00167995,0.000722587,0.00116528,0.00246103,-5.84958e-05,0.590513,0.00166053,0.0144871,1763,589,8.51455,2.98511
546,435,8.49365,-2.7215,0.00111533,0.000427203,0.000766871,0.00161178,-6.92527e-05,0.57453,0.00109833,0.0141471,1770,589,8.4937,2.7215
553,435,8.48035,-2.46466,0.000659486,0.000177168,0.000437493,0.000917885,-8.12309e-05,0.533505,0.000640719,0.01078,1777,589,8.48039,2.46464
560,435,8.47351,-2.19324,0.000237794,4.66097e-05,0.000162597,0.000330817,-4.64135e-05,0.519658,0.000237532,0.00915961,1784,589,8.47346,2.19323
567,435,8.48755,-1.92004,-3.62611e-05,2.38164e-05,2.28123e-06,2.39029e-05,-3.63476e-05,1.5329,3.50321e-05,0.00827518,1791,589,8.48752,1.92006
574,435,8.46094,-1.6582,-7.51733e-05,9.67763e-05,6.57859e-06,9.70277e-05,-7.54246e-05,1.53261,9.98254e-05,0.00926781,1798,589,8.46093,1.65823
581,435,8.44934,-1.40485,2.668e-05,0.000332191,0.000162079,0.000402155,-4.32838e-05,1.16329,0.000283634,0.0157179,1805,589,8.44929,1.40485
588,435,8.4613,-1.14496,0.00032822,0.000697483,0.000508059,0.00105342,-2.77156e-05,0.959682,0.000711697,0.0216571,1812,589,8.46131,1.14495
595,435,8.40723,-0.874939,0.000902273,0.00136952,0.00109994,0.00226037,1.14151e-05,0.89004,0.00150312,0.0240505,1819,589,8.40728,0.874915
602,435,8.4231,-0.636841,0.00162145,0.0022629,0.0019398,0.00390831,-2.39555e-05,0.867326,0.00261356,0.0436889,1826,589,8.42315,0.636827
609,435,8.45593,-0.440735,0,0,0,0,0,0,0,-1,1833,589,8.45596,0.440712
616,435,5.05151,-2.75269,0,0,0,0,0,0,0,-1,1840,589,5.05157,2.7527
623,435,11.7588,3.9704,0,0,0,0,0,0,0,-1,1847,589,11.7587,-3.97043
630,435,4.72742,-0.87561,0,0,0,0,0,0,0,-1,1854,589,4.7274,0.875636
637,435,5.05286,1.48792,0,0,0,0,0,0,0,-1,1861,589,5.05291,-1.48792
644,435,0,0,0,0,0,0,0,0,0,-1,1868,589,0,0
651,435,0,0,0,0,0,0,0,0,0,-1,1875,589,0,0
658,435,0,0,0,0,0,0,0,0,0,-1,1882,589,0,0
665,435,0,0,0,0,0,0,0,0,0,-1,1889,589,0,0
672,435,0,0,0,0,0,0,0,0,0,-1,1896,589,0,0
679,435,0,0,0,0,0,0,0,0,0,-1,1903,589,0,0
686,435,0,0,0,0,0,0,0,0,0,-1,1910,589,0,0
693,435,0,0,0,0,0,0,0,0,0,-1,1917,589,0,0
700,435,0,0,0,0,0,0,0,0,0,-1,1924,589,0,0
707,435,0,0,0,0,0,0,0,0,0,-1,1931,589,0,0
714,435,0,0,0,0,0,0,0,0,0,-1,1938,589,0,0
721,435,0,0,0,0,0,0,0,0,0,-1,1945,589,0,0
728,435,0,0,0,0,0,0,0,0,0,-1,1952,589,0,0
735,435,0,0,0,0,0,0,0,0,0,-1,1959,589,0,0
742,435,0,0,0,0,0,0,0,0,0,-1,1966,589,0,0
749,435,0,0,0,0,0,0,0,0,0,-1,1973,589,0,0
756,435,0,0,0,0,0,0,0,0,0,-1,1980,589,0,0
763,435,0,0,0,0,0,0,0,0,0,-1,1987,589,0,0
770,435,0,0,0,0,0,0,0,0,0,-1,1994,589,0,0
777,435,0,0,0,0,0,0,0,0,0,-1,2001,589,0,0
784,435,0,0,0,0,0,0,0,0,0,-1,2008,589,0,0
791,435,0,0,0,0,0,0,0,0,0,-1,2015,589,0,0
798,435,0,0,0,0,0,0,0,0,0,-1,2022,589,0,0
805,435,0,0,0,0,0,0,0,0,0,-1,2029,589,0,0
812,435,0,0,0,0,0,0,0,0,0,-1,2036,589,0,0
-700,428,0,0,0,0,0,0,0,0,0,-1,524,596,0,0
-693,428,0,0,0,0,0,0,0,0,0,-1,531,596,0,0
-686,428,0,0,0,0,0,0,0,0,0,-1,538,596,0,0
-679,428,0,0,0,0,0,0,0,0,0,-1,545,596,0,0
-672,428,0,0,0,0,0,0,0,0,0,-1,552,596,0,0
-665,428,0,0,0,0,0,0,0,0,0,-1,559,596,0,0
-658,428,0,0,0,0,0,0,0,0,0,-1,566,596,0,0
-651,428,0,0,0,0,0,0,0,0,0,-1,573,596,0,0
-644,428,0,0,0,0,0,0,0,0,0,-1,580,596,0,0
-637,428,0,0,0,0,0,0,0,0,0,-1,587,596,0,0
-630,428,0,0,0,0,0,0,0,0,0,-1,594,596,0,0
-623,428,0,0,0,0,0,0,0,0,0,-1,601,596,0,0
-616,428,0,0,0,0,0,0,0,0,0,-1,608,596,0,0
-609,428,0,0,0,0,0,0,0,0,0,-1,615,596,0,0
-602,428,0,0,0,0,0,0,0,0,0,-1,622,596,0,0
-595,428,0,0,0,0,0,0,0,0,0,-1,629,596,0,0
-588,428,0,0,0,0,0,0,0,0,0,-1,636,596,0,0
-581,428,0,0,0,0,0,0,0,0,0,-1,643,596,0,0
-574,428,0,0,0,0,0,0,0,0,0,-1,650,596,0,0
-567,428,0,0,0,0,0,0,0,0,0,-1,657,596,0,0
-560,428,0,0,0,0,0,0,0,0,0,-1,664,596,0,0
-553,428,0,0,0,0,0,0,0,0,0,-1,671,596,0,0
-546,428,0,0,0,0,0,0,0,0,0,-1,678,596,0,0
-539,428,0,0,0,0,0,0,0,0,0,-1,685,596,0,0
-532,428,0,0,0,0,0,0,0,0,0,-1,692,596,0,0
-525,428,-9.59918,7.58618,0,0,0,0,0,0,0,-1,699,596,-9.59918,-7.5862
-518,428,-9.69434,5.60547,0,0,0,0,0,0,0,-1,706,596,-9.69436,-5.60549
-511,428,-3.32758,-4.85852,0,0,0,0,0,0,0,-1,713,596,-3.32759,4.85853
-504,428,-4.19916,-4.97797,0,0,0,0,0,0,0,-1,720,596,-4.19918,4.97795
-497,428,-2.85516,-3.52179,0,0,0,0,0,0,0,-1,727,596,-2.85517,3.52181
-490,428,-3.466,-1.2525,0,0,0,0,0,0,0,-1,734,596,-3.46599,1.2525
-483,428,-3.7699,-1.79871,0,0,0,0,0,0,0,-1,741,596,-3.76989,1.79871
-476,428,-3.27435,-2.1673,0.0335774,0.0214733,-0.0167829,0.045366,0.00968459,-0.612351,0.0275884,0.041318,748,596,-3.27437,2.16731
-469,428,-2.75769,-2.55969,0.0277484,0.0185255,-0.0144382,0.0382937,0.00798014,-0.630822,0.0233286,0.019608,755,596,-2.75767,2.5597
-462,428,-2.78766,-2.7934,0.0220564,0.0152081,-0.0118766,0.0309927,0.00627187,-0.645051,0.0189209,0.0164711,762,596,-2.78767,2.7934
-455,428,-2.82117,-3.0556,0.0167321,0.0118816,-0.00930085,0.0239187,0.00469503,-0.65786,0.0146341,0.0121724,769,596,-2.82118,3.05562
-448,428,-2.81824,-3.31799,0.0124541,0.00905002,-0.00692489,0.017883,0.00362105,-0.664895,0.0109171,0.0115427,776,596,-2.81826,3.31797
-441,428,-2.82031,-3.58246,0.00892545,0.00617234,-0.0048495,0.01259,0.00250781,-0.647108,0.00769483,0.0137725,783,596,-2.82034,3.58244
-434,428,-2.82678,-3.83783,0.00603718,0.00344758,-0.00276804,0.00779828,0.00168648,-0.566632,0.00473783,0.0097477,790,596,-2.82678,3.83784
-427,428,-2.80652,-4.06995,0.00380193,0.00085144,-0.000757166,0.00398489,0.000668478,-0.237095,0.00246418,0.00973137,797,596,-2.80654,4.06998
-420,428,-2.80371,-4.28369,0.00192228,-0.00172854,0.0011782,0.00226949,-0.00207575,0.286584,0.00250956,0.0108935,804,596,-2.80369,4.28369
-413,428,-2.81,-4.51929,0.00103286,-0.004096,0.00273414,0.00221701,-0.00528015,0.408708,0.00444728,0.0131143,811,596,-2.81,4.5193
-406,428,-2.81903,-4.77429,0.000964138,-0.0063531,0.00411047,0.00280838,-0.00819734,0.421746,0.00660319,0.0152938,818,596,-2.81903,4.7743
-399,428,-2.81421,-5.02057,0.00120872,-0.00884847,0.00546632,0.0036076,-0.0112473,0.413541,0.0089466,0.0137231,825,596,-2.81418,5.02055
-392,428,-2.78662,-5.26721,0.00160645,-0.0122537,0.00700833,0.00453248,-0.0151797,0.395506,0.0119214,0.0133278,832,596,-2.78665,5.26718
-385,428,-2.80237,-5.49231,0.00203631,-0.0162,0.00874029,0.00554881,-0.0197125,0.382121,0.0153298,0.0211248,839,596,-2.80238,5.49228
-378,428,-2.85303,-5.50916,0.00271585,-0.0210274,0.0106665,0.00680385,-0.0251154,0.365989,0.0194132,0.0375501,846,596,-2.85303,5.50913
-371,428,-2.83044,-5.17169,0.00381542,-0.0267765,0.0128051,0.00846781,-0.0314289,0.348495,0.0242726,0.0466115,853,596,-2.83041,5.17168
-364,428,-2.8504,-5.11713,0,0,0,0,0,0,0,-1,860,596,-2.85043,5.11711
-357,428,-3.20996,-4.70966,0,0,0,0,0,0,0,-1,867,596,-3.20997,4.70965
-350,428,-1.62793,-3.94055,0,0,0,0,0,0,0,-1,874,596,-1.62794,3.94055
-343,428,-0.0567017,-4.80994,0,0,0,0,0,0,0,-1,881,596,-0.0567096,4.80996
-336,428,-3.29175,-1.39569,0,0,0,0,0,0,0,-1,888,596,-3.29172,1.39568
-329,428,-3.71564,-0.791321,0,0,0,0,0,0,0,-1,895,596,-3.71564,0.791299
-322,428,-5.52863,-3.59827,0,0,0,0,0,0,0,-1,902,596,-5.52865,3.59829
-315,428,-4.57172,-1.22052,0,0,0,0,0,0,0,-1,909,596,-4.57171,1.22052
-308,428,-5.26538,-1.1521,0,0,0,0,0,0,0,-1,916,596,-5.26539,1.15209
-301,428,0,0,0,0,0,0,0,0,0,-1,923,596,0,0
-294,428,0,0,0,0,0,0,0,0,0,-1,930,596,0,0
-287,428,0,0,0,0,0,0,0,0,0,-1,937,596,0,0
-280,428,0,0,0,0,0,0,0,0,0,-1,944,596,0,0
-273,428,0,0,0,0,0,0,0,0,0,-1,951,596,0,0
-266,428,0,0,0,0,0,0,0,0,0,-1,958,596,0,0
-259,428,0,0,0,0,0,0,0,0,0,-1,965,596,0,0
-252,428,0,0,0,0,0,0,0,0,0,-1,972,596,0,0
-245,428,0,0,0,0,0,0,0,0,0,-1,979,596,0,0
-238,428,0,0,0,0,0,0,0,0,0,-1,986,596,0,0
-231,428,0,0,0,0,0,0,0,0,0,-1,993,596,0,0
-224,428,0,0,0,0,0,0,0,0,0,-1,1000,596,0,0
-217,428,0,0,0,0,0,0,0,0,0,-1,1007,596,0,0
-210,428,0,0,0,0,0,0,0,0,0,-1,1014,596,0,0
-203,428,0,0,0,0,0,0,0,0,0,-1,1021,596,0,0
-196,428,0,0,0,0,0,0,0,0,0,-1,1028,596,0,0
-189,428,0,0,0,0,0,0,0,0,0,-1,1035,596,0,0
-182,428,0,0,0,0,0,0,0,0,0,-1,1042,596,0,0
-175,428,0,0,0,0,0,0,0,0,0,-1,1049,596,0,0
-168,428,0,0,0,0,0,0,0,0,0,-1,1056,596,0,0
-161,428,0,0,0,0,0,0,0,0,0,-1,1063,596,0,0
-154,428,0,0,0,0,0,0,0,0,0,-1,1070,596,0,0
-147,428,0,0,0,0,0,0,0,0,0,-1,1077,596,0,0
-140,428,0,0,0,0,0,0,0,0,0,-1,1084,596,0,0
-133,428,0,0,0,0,0,0,0,0,0,-1,1091,596,0,0
-126,428,0,0,0,0,0,0,0,0,0,-1,1098,596,0,0
-119,428,0,0,0,0,0,0,0,0,0,-1,1105,596,0,0
-112,428,0,0,0,0,0,0,0,0,0,-1,1112,596,0,0
-105,428,0,0,0,0,0,0,0,0,0,-1,1119,596,0,0
-98,428,0,0,0,0,0,0,0,0,0,-1,1126,596,0,0
-91,428,0,0,0,0,0,0,0,0,0,-1,1133,596,0,0
-84,428,0,0,0,0,0,0,0,0,0,-1,1140,596,0,0
-77,428,0,0,0,0,0,0,0,0,0,-1,1147,596,0,0
-70,428,0,0,0,0,0,0,0,0,0,-1,1154,596,0,0
-63,428,0,0,0,0,0,0,0,0,0,-1,1161,596,0,0
-56,428,0,0,0,0,0,0,0,0,0,-1,1168,596,0,0
-49,428,0,0,0,0,0,0,0,0,0,-1,1175,596,0,0
-42,428,0,0,0,0,0,0,0,0,0,-1,1182,596,0,0
-35,428,0,0,0,0,0,0,0,0,0,-1,1189,596,0,0
-28,428,0,0,0,0,0,0,0,0,0,-1,1196,596,0,0
-21,428,0,0,0,0,0,0,0,0,0,-1,1203,596,0,0
-14,428,0,0,0,0,0,0,0,0,0,-1,1210,596,0,0
-7,428,0,0,0,0,0,0,0,0,0,-1,1217,596,0,0
0,428,0,0,0,0,0,0,0,0,0,-1,1224,596,0,0
7,428,0,0,0,0,0,0,0,0,0,-1,1231,596,0,0
14,428,0,0,0,0,0,0,0,0,0,-1,1238,596,0,0
21,428,0,0,0,0,0,0,0,0,0,-1,1245,596,0,0
28,428,0,0,0,0,0,0,0,0,0,-1,1252,596,0,0
35,428,0,0,0,0,0,0,0,0,0,-1,1259,596,0,0
42,428,0,0,0,0,0,0,0,0,0,-1,1266,596,0,0
49,428,0,0,0,0,0,0,0,0,0,-1,1273,596,0,0
56,428,0,0,0,0,0,0,0,0,0,-1,1280,596,0,0
63,428,0,0,0,0,0,0,0,0,0,-1,1287,596,0,0
70,428,0,0,0,0,0,0,0,0,0,-1,1294,596,0,0
77,428,0,0,0,0,0,0,0,0,0,-1,1301,596,0,0
84,428,0,0,0,0,0,0,0,0,0,-1,1308,596,0,0
91,428,0,0,0,0,0,0,0,0,0,-1,1315,596,0,0
98,428,0,0,0,0,0,0,0,0,0,-1,1322,596,0,0
105,428,0,0,0,0,0,0,0,0,0,-1,1329,596,0,0
112,428,0,0,0,0,0,0,0,0,0,-1,1336,596,0,0
119,428,0,0,0,0,0,0,0,0,0,-1,1343,596,0,0
126,428,0,0,0,0,0,0,0,0,0,-1,1350,596,0,0
133,428,0,0,0,0,0,0,0,0,0,-1,1357,596,0,0
140,428,0,0,0,0,0,0,0,0,0,-1,1364,596,0,0
147,428,0,0,0,0,0,0,0,0,0,-1,1371,596,0,0
154,428,0,0,0,0,0,0,0,0,0,-1,1378,596,0,0
161,428,0,0,0,0,0,0,0,0,0,-1,1385,596,0,0
168,428,0,0,0,0,0,0,0,0,0,-1,1392,596,0,0
175,428,0,0,0,0,0,0,0,0,0,-1,1399,596,0,0
182,428,0,0,0,0,0,0,0,0,0,-1,1406,596,0,0
189,428,0,0,0,0,0,0,0,0,0,-1,1413,596,0,0
196,428,0,0,0,0,0,0,0,0,0,-1,1420,596,0,0
203,428,0,0,0,0,0,0,0,0,0,-1,1427,596,0,0
210,428,0,0,0,0,0,0,0,0,0,-1,1434,596,0,0
217,428,0,0,0,0,0,0,0,0,0,-1,1441,596,0,0
224,428,0,0,0,0,0,0,0,0,0,-1,1448,596,0,0
231,428,0,0,0,0,0,0,0,0,0,-1,1455,596,0,0
238,428,0,0,0,0,0,0,0,0,0,-1,1462,596,0,0
245,428,0,0,0,0,0,0,0,0,0,-1,1469,596,0,0
252,428,0,0,0,0,0,0,0,0,0,-1,1476,596,0,0
259,428,0,0,0,0,0,0,0,0,0,-1,1483,596,0,0
266,428,0,0,0,0,0,0,0,0,0,-1,1490,596,0,0
273,428,0,0,0,0,0,0,0,0,0,-1,1497,596,0,0
280,428,0,0,0,0,0,0,0,0,0,-1,1504,596,0,0
287,428,0,0,0,0,0,0,0,0,0,-1,1511,596,0,0
294,428,0,0,0,0,0,0,0,0,0,-1,1518,596,0,0
301,428,0,0,0,0,0,0,0,0,0,-1,1525,596,0,0
308,428,0,0,0,0,0,0,0,0,0,-1,1532,596,0,0
315,428,0,0,0,0,0,0,0,0,0,-1,1539,596,0,0
322,428,0,0,0,0,0,0,0,0,0,-1,1546,596,0,0
329,428,0,0,0,0,0,0,0,0,0,-1,1553,596,0,0
336,428,0,0,0,0,0,0,0,0,0,-1,1560,596,0,0
343,428,0,0,0,0,0,0,0,0,0,-1,1567,596,0,0
350,428,0,0,0,0,0,0,0,0,0,-1,1574,596,0,0
357,428,0,0,0,0,0,0,0,0,0,-1,1581,596,0,0
364,428,0,0,0,0,0,0,0,0,0,-1,1588,596,0,0
371,428,0,0,0,0,0,0,0,0,0,-1,1595,596,0,0
378,428,0,0,0,0,0,0,0,0,0,-1,1602,596,0,0
385,428,0,0,0,0,0,0,0,0,0,-1,1609,596,0,0
392,428,0,0,0,0,0,0,0,0,0,-1,1616,596,0,0
399,428,0,0,0,0,0,0,0,0,0,-1,1623,596,0,0
406,428,0,0,0,0,0,0,0,0,0,-1,1630,596,0,0
413,428,0,0,0,0,0,0,0,0,0,-1,1637,596,0,0
420,428,2.95886,0.551819,0,0,0,0,0,0,0,-1,1644,596,2.9589,-0.551797
427,428,3.19385,0.384705,0,0,0,0,0,0,0,-1,1651,596,3.19383,-0.384692
434,428,8.18152,1.80432,0,0,0,0,0,0,0,-1,1658,596,8.18148,-1.80434
441,428,8.17993,0.607483,0,0,0,0,0,0,0,-1,1665,596,8.17997,-0.607513
448,428,7.84338,-0.385986,0,0,0,0,0,0,0,-1,1672,596,7.84336,0.385978
455,428,6.64038,2.1123,0,0,0,0,0,0,0,-1,1679,596,6.64037,-2.11229
462,428,4.84106,4.12341,0,0,0,0,0,0,0,-1,1686,596,4.84107,-4.12339
469,428,7.83789,3.10083,0,0,0,0,0,0,0,-1,1693,596,7.83785,-3.10086
476,428,7.61255,1.73956,0,0,0,0,0,0,0,-1,1700,596,7.61252,-1.73958
483,428,7.22766,1.05121,0,0,0,0,0,0,0,-1,1707,596,7.2277,-1.05121
490,428,5.4071,-3.2793,0,0,0,0,0,0,0,-1,1714,596,5.40707,3.27929
497,428,7.84106,-3.65491,0,0,0,0,0,0,0,-1,1721,596,7.84107,3.65491
504,428,6.92139,-2.83356,0,0,0,0,0,0,0,-1,1728,596,6.92137,2.83353
511,428,7.88501,-3.78723,0,0,0,0,0,0,0,-1,1735,596,7.88502,3.78722
518,428,8.69653,-3.85138,0,0,0,0,0,0,0,-1,1742,596,8.69654,3.85137
525,428,8.66296,-3.57031,0.0035156,0.00230901,0.00271681,0.00569529,0.000129325,0.676141,0.00375449,0.0358548,1749,596,8.66295,3.57029
532,428,8.72656,-3.21783,0.00262891,0.00160286,0.00202824,0.004208,2.37729e-05,0.661526,0.00279744,0.0177361,1756,596,8.72651,3.21781
539,428,8.78162,-2.96478,0.00185554,0.000993913,0.00137226,0.00286302,-1.35734e-05,0.633299,0.00191322,0.0195537,1763,596,8.78163,2.96476
546,428,8.76099,-2.71716,0.00125669,0.000594518,0.000877255,0.00186326,-1.20482e-05,0.604955,0.00124621,0.0154975,1770,596,8.76097,2.71716
553,428,8.73499,-2.45941,0.000802532,0.000291694,0.000508854,0.00111647,-2.22477e-05,0.552795,0.000751842,0.0109906,1777,596,8.73501,2.45938
560,428,8.75793,-2.17584,0.000403697,0.000114109,0.000218222,0.000520793,-2.98617e-06,0.492489,0.000348195,0.011389,1784,596,8.7579,2.17582
567,428,8.75867,-1.92377,0.000164959,5.52676e-05,6.14525e-05,0.000192481,2.77454e-05,0.421074,0.000120145,0.0107341,1791,596,8.75865,1.92378
574,428,8.73145,-1.67487,0.000188705,0.000104225,9.28114e-05,0.000248436,4.44932e-05,0.571848,0.000152965,0.0125053,1798,596,8.7314,1.67484
581,428,8.71375,-1.39001,0.000358822,0.000314784,0.000272732,0.000610422,6.31836e-05,0.745118,0.000387607,0.0107782,1805,596,8.71379,1.38999
588,428,8.72229,-1.1156,0.000689002,0.000662994,0.000639654,0.00131578,3.62115e-05,0.775235,0.000865372,0.0153616,1812,596,8.72224,1.11558
595,428,8.69861,-0.844421,0.00126174,0.00126541,0.00122983,0.00249341,3.37472e-05,0.786144,0.00165114,0.0101085,1819,596,8.69855,0.844432
602,428,8.69055,-0.578918,0.00199945,0.00209034,0.00205941,0.00410481,-1.50197e-05,0.796429,0.00274156,0.0205765,1826,596,8.69058,0.578921
609,428,8.70142,-0.265015,0,0,0,0,0,0,0,-1,1833,596,8.70142,0.26502
616,428,5.88977,-0.239319,0,0,0,0,0,0,0,-1,1840,596,5.88983,0.239293
623,428,8.10767,1.20917,0,0,0,0,0,0,0,-1,1847,596,8.10763,-1.20919
630,428,4.94434,0.773193,0,0,0,0,0,0,0,-1,1854,596,4.9443,-0.773171
637,428,3.95435,1.90857,0,0,0,0,0,0,0,-1,1861,596,3.95439,-1.90858
644,428,5.75476,0.888977,0,0,0,0,0,0,0,-1,1868,596,5.75472,-0.888955
651,428,0,0,0,0,0,0,0,0,0,-1,1875,596,0,0
658,428,0,0,0,0,0,0,0,0,0,-1,1882,596,0,0
665,428,0,0,0,0,0,0,0,0,0,-1,1889,596,0,0
672,428,0,0,0,0,0,0,0,0,0,-1,1896,596,0,0
679,428,0,0,0,0,0,0,0,0,0,-1,1903,596,0,0
686,428,0,0,0,0,0,0,0,0,0,-1,1910,596,0,0
693,428,0,0,0,0,0,0,0,0,0,-1,1917,596,0,0
700,428,0,0,0,0,0,0,0,0,0,-1,1924,596,0,0
707,428,0,0,0,0,0,0,0,0,0,-1,1931,596,0,0
714,428,0,0,0,0,0,0,0,0,0,-1,1938,596,0,0
721,428,0,0,0,0,0,0,0,0,0,-1,1945,596,0,0
728,428,0,0,0,0,0,0,0,0,0,-1,1952,596,0,0
735,428,0,0,0,0,0,0,0,0,0,-1,1959,596,0,0
742,428,0,0,0,0,0,0,0,0,0,-1,1966,596,0,0
749,428,0,0,0,0,0,0,0,0,0,-1,1973,596,0,0
756,428,0,0,0,0,0,0,0,0,0,-1,1980,596,0,0
763,428,0,0,0,0,0,0,0,0,0,-1,1987,596,0,0
770,428,0,0,0,0,0,0,0,0,0,-1,1994,596,0,0
777,428,0,0,0,0,0,0,0,0,0,-1,2001,596,0,0
784,428,0,0,0,0,0,0,0,0,0,-1,2008,596,0,0
791,428,0,0,0,0,0,0,0,0,0,-1,2015,596,0,0
798,428,0,0,0,0,0,0,0,0,0,-1,2022,596,0,0
805,428,0,0,0,0,0,0,0,0,0,-1,2029,596,0,0
812,428,0,0,0,0,0,0,0,0,0,-1,2036,596,0,0
-700,421,0,0,0,0,0,0,0,0,0,-1,524,603,0,0
-693,421,0,0,0,0,0,0,0,0,0,-1,531,603,0,0
-686,421,0,0,0,0,0,0,0,0,0,-1,538,603,0,0
-679,421,0,0,0,0,0,0,0,0,0,-1,545,603,0,0
-672,421,0,0,0,0,0,0,0,0,0,-1,552,603,0,0
-665,421,0,0,0,0,0,0,0,0,0,-1,559,603,0,0
-658,421,0,0,0,0,0,0,0,0,0,-1,566,603,0,0
-651,421,0,0,0,0,0,0,0,0,0,-1,573,603,0,0
-644,421,0,0,0,0,0,0,0,0,0,-1,580,603,0,0
-637,421,0,0,0,0,0,0,0,0,0,-1,587,603,0,0
-630,421,0,0,0,0,0,0,0,0,0,-1,594,603,0,0
-623,421,0,0,0,0,0,0,0,0,0,-1,601,603,0,0
-616,421,0,0,0,0,0,0,0,0,0,-1,608,603,0,0
-609,421,0,0,0,0,0,0,0,0,0,-1,615,603,0,0
-602,421,0,0,0,0,0,0,0,0,0,-1,622,603,0,0
-595,421,0,0,0,0,0,0,0,0,0,-1,629,603,0,0
-588,421,0,0,0,0,0,0,0,0,0,-1,636,603,0,0
-581,421,0,0,0,0,0,0,0,0,0,-1,643,603,0,0
-574,421,0,0,0,0,0,0,0,0,0,-1,650,603,0,0
-567,421,0,0,0,0,0,0,0,0,0,-1,657,603,0,0
-560,421,0,0,0,0,0,0,0,0,0,-1,664,603,0,0
-553,421,0,0,0,0,0,0,0,0,0,-1,671,603,0,0
-546,421,0,0,0,0,0,0,0,0,0,-1,678,603,0,0
-539,421,0,0,0,0,0,0,0,0,0,-1,685,603,0,0
-532,421,-8.97382,6.95636,0,0,0,0,0,0,0,-1,692,603,-8.97384,-6.95634
-525,421,-9.2019,5.10803,0,0,0,0,0,0,0,-1,699,603,-9.20192,-5.10806
-518,421,-9.54236,3.41217,0,0,0,0,0,0,0,-1,706,603,-9.54234,-3.41218
-511,421,-2.75134,-5.12311,0,0,0,0,0,0,0,-1,713,603,-2.75136,5.12308
-504,421,-4.97272,-4.38385,0,0,0,0,0,0,0,-1,720,603,-4.9727,4.38383
-497,421,-3.29065,-1.39111,0,0,0,0,0,0,0,-1,727,603,-3.29068,1.39111
-490,421,-3.29352,-1.63409,0,0,0,0,0,0,0,-1,734,603,-3.29355,1.63412
-483,421,-3.23029,-2.04303,0.0238326,0.00455117,-0.0102795,0.0282848,9.89465e-05,-0.408727,0.0188236,0.0414277,741,603,-3.2303,2.04301
-476,421,-3.04706,-2.35754,0.0204103,0.00488228,-0.00920716,0.0246901,0.000602556,-0.435114,0.0162629,0.0239077,748,603,-3.04705,2.35756
-469,421,-3.05981,-2.5639,0.0168058,0.00455646,-0.0077927,0.0205926,0.000769633,-0.452341,0.0134792,0.0177786,755,603,-3.05983,2.5639
-462,421,-3.06873,-2.83606,0.0132571,0.00395486,-0.00634603,0.016474,0.000738003,-0.469159,0.0107451,0.0181252,762,603,-3.06874,2.83608
-455,421,-3.07562,-3.07843,0.00991853,0.00313095,-0.00485084,0.0124449,0.00060456,-0.48016,0.00810261,0.0185347,769,603,-3.07563,3.07845
-448,421,-3.08551,-3.30524,0.00744175,0.00244687,-0.00345161,0.00920469,0.000683933,-0.472217,0.00592166,0.0181412,776,603,-3.0855,3.30522
-441,421,-3.06366,-3.5849,0.00536173,0.00126635,-0.00220724,0.00632484,0.000303232,-0.411439,0.00411921,0.0139491,783,603,-3.06366,3.58492
-434,421,-3.05933,-3.84821,0.00362474,-0.000122099,-0.000738855,0.00376518,-0.000262533,-0.18783,0.00260205,0.00996324,790,603,-3.05935,3.8482
-427,421,-3.0506,-4.07416,0.00238084,-0.00172578,0.000840322,0.00254613,-0.00189108,0.194229,0.00257111,0.00972815,797,603,-3.05058,4.07416
-420,421,-3.04279,-4.28619,0.00140204,-0.00374124,0.00244256,0.00237715,-0.00471635,0.379831,0.004169,0.0119225,804,603,-3.04277,4.28621
-413,421,-3.04895,-4.52039,0.00115588,-0.00583029,0.00387707,0.00288135,-0.00755576,0.418726,0.00622405,0.0139811,811,603,-3.04895,4.52038
-406,421,-3.08521,-4.78174,0.00144916,-0.00813019,0.00530562,0.00380725,-0.0104883,0.418231,0.00854871,0.0180378,818,603,-3.0852,4.78174
-399,421,-3.04584,-5.06232,0.0017505,-0.0111848,0.00700273,0.00481536,-0.0142497,0.41255,0.0114476,0.0175887,825,603,-3.04583,5.06233
-392,421,-3.07819,-5.25653,0.0021962,-0.0152807,0.00898702,0.00599278,-0.0190773,0.399711,0.015117,0.020698,832,603,-3.07817,5.25654
-385,421,-3.19452,-5.46631,0.00261988,-0.0202885,0.0113033,0.007258,-0.0249266,0.389383,0.0194928,0.0399559,839,603,-3.1945,5.46628
-378,421,-3.18512,-5.15784,0.00312876,-0.0265557,0.0140393,0.00871674,-0.0321437,0.378802,0.0248496,0.0494807,846,603,-3.18514,5.15783
-371,421,-2.90875,-4.93396,0,0,0,0,0,0,0,-1,853,603,-2.90874,4.93394
-364,421,-5.06079,-5.61859,0,0,0,0,0,0,0,-1,860,603,-5.0608,5.61861
-357,421,-5.57581,-5.5918,0,0,0,0,0,0,0,-1,867,603,-5.5758,5.59181
-350,421,-5.38019,-3.75024,0,0,0,0,0,0,0,-1,874,603,-5.38017,3.75026
-343,421,-6.22797,-2.57123,0,0,0,0,0,0,0,-1,881,603,-6.22798,2.57121
-336,421,-6.22882,-2.59369,0,0,0,0,0,0,0,-1,888,603,-6.22883,2.5937
-329,421,-4.50134,-1.49469,0,0,0,0,0,0,0,-1,895,603,-4.50137,1.49468
-322,421,-6.30377,-0.285339,0,0,0,0,0,0,0,-1,902,603,-6.30379,0.285355
-315,421,-4.47821,-1.26733,0,0,0,0,0,0,0,-1,909,603,-4.47824,1.26732
-308,421,0,0,0,0,0,0,0,0,0,-1,916,603,0,0
-301,421,0,0,0,0,0,0,0,0,0,-1,923,603,0,0
-294,421,0,0,0,0,0,0,0,0,0,-1,930,603,0,0
-287,421,0,0,0,0,0,0,0,0,0,-1,937,603,0,0
-280,421,0,0,0,0,0,0,0,0,0,-1,944,603,0,0
-273,421,0,0,0,0,0,0,0,0,0,-1,951,603,0,0
-266,421,0,0,0,0,0,0,0,0,0,-1,958,603,0,0
-259,421,0,0,0,0,0,0,0,0,0,-1,965,603,0,0
-252,421,0,0,0,0,0,0,0,0,0,-1,972,603,0,0
-245,421,0,0,0,0,0,0,0,0,0,-1,979,603,0,0
-238,421,0,0,0,0,0,0,0,0,0,-1,986,603,0,0
-231,421,0,0,0,0,0,0,0,0,0,-1,993,603,0,0
-224,421,0,0,0,0,0,0,0,0,0,-1,1000,603,0,0
-217,421,0,0,0,0,0,0,0,0,0,-1,1007,603,0,0
-210,421,0,0,0,0,0,0,0,0,0,-1,1014,603,0,0
-203,421,0,0,0,0,0,0,0,0,0,-1,1021,603,0,0
-196,421,0,0,0,0,0,0,0,0,0,-1,1028,603,0,0
-189,421,0,0,0,0,0,0,0,0,0,-1,1035,603,0,0
-182,421,0,0,0,0,0,0,0,0,0,-1,1042,603,0,0
-175,421,0,0,0,0,0,0,0,0,0,-1,1049,603,0,0
-168,421,0,0,0,0,0,0,0,0,0,-1,1056,603,0,0
-161,421,0,0,0,0,0,0,0,0,0,-1,1063,603,0,0
-154,421,0,0,0,0,0,0,0,0,0,-1,1070,603,0,0
-147,421,0,0,0,0,0,0,0,0,0,-1,1077,603,0,0
-140,421,0,0,0,0,0,0,0,0,0,-1,1084,603,0,0
-133,421,0,0,0,0,0,0,0,0,0,-1,1091,603,0,0
-126,421,0,0,0,0,0,0,0,0,0,-1,1098,603,0,0
-119,421,0,0,0,0,0,0,0,0,0,-1,1105,603,0,0
-112,421,0,0,0,0,0,0,0,0,0,-1,1112,603,0,0
-105,421,0,0,0,0,0,0,0,0,0,-1,1119,603,0,0
-98,421,0,0,0,0,0,0,0,0,0,-1,1126,603,0,0
-91,421,0,0,0,0,0,0,0,0,0,-1,1133,603,0,0
-84,421,0,0,0,0,0,0,0,0,0,-1,1140,603,0,0
-77,421,0,0,0,0,0,0,0,0,0,-1,1147,603,0,0
-70,421,0,0,0,0,0,0,0,0,0,-1,1154,603,0,0
-63,421,0,0,0,0,0,0,0,0,0,-1,1161,603,0,0
-56,421,0,0,0,0,0,0,0,0,0,-1,1168,603,0,0
-49,421,0,0,0,0,0,0,0,0,0,-1,1175,603,0,0
-42,421,0,0,0,0,0,0,0,0,0,-1,1182,603,0,0
-35,421,0,0,0,0,0,0,0,0,0,-1,1189,603,0,0
-28,421,0,0,0,0,0,0,0,0,0,-1,1196,603,0,0
-21,421,0,0,0,0,0,0,0,0,0,-1,1203,603,0,0
-14,421,0,0,0,0,0,0,0,0,0,-1,1210,603,0,0
-7,421,0,0,0,0,0,0,0,0,0,-1,1217,603,0,0
0,421,0,0,0,0,0,0,0,0,0,-1,1224,603,0,0
7,421,0,0,0,0,0,0,0,0,0,-1,1231,603,0,0
14,421,0,0,0,0,0,0,0,0,0,-1,1238,603,0,0
21,421,0,0,0,0,0,0,0,0,0,-1,1245,603,0,0
28,421,0,0,0,0,0,0,0,0,0,-1,1252,603,0,0
35,421,0,0,0,0,0,0,0,0,0,-1,1259,603,0,0
42,421,0,0,0,0,0,0,0,0,0,-1,1266,603,0,0
49,421,0,0,0,0,0,0,0,0,0,-1,1273,603,0,0
56,421,0,0,0,0,0,0,0,0,0,-1,1280,603,0,0
63,421,0,0,0,0,0,0,0,0,0,-1,1287,603,0,0
70,421,0,0,0,0,0,0,0,0,0,-1,1294,603,0,0
77,421,0,0,0,0,0,0,0,0,0,-1,1301,603,0,0
84,421,0,0,0,0,0,0,0,0,0,-1,1308,603,0,0
91,421,0,0,0,0,0,0,0,0,0,-1,1315,603,0,0
98,421,0,0,0,0,0,0,0,0,0,-1,1322,603,0,0
105,421,0,0,0,0,0,0,0,0,0,-1,1329,603,0,0
112,421,0,0,0,0,0,0,0,0,0,-1,1336,603,0,0
119,421,0,0,0,0,0,0,0,0,0,-1,1343,603,0,0
126,421,0,0,0,0,0,0,0,0,0,-1,1350,603,0,0
133,421,0,0,0,0,0,0,0,0,0,-1,1357,603,0,0
140,421,0,0,0,0,0,0,0,0,0,-1,1364,603,0,0
147,421,0,0,0,0,0,0,0,0,0,-1,1371,603,0,0
154,421,0,0,0,0,0,0,0,0,0,-1,1378,603,0,0
161,421,0,0,0,0,0,0,0,0,0,-1,1385,603,0,0
168,421,0,0,0,0,0,0,0,0,0,-1,1392,603,0,0
175,421,0,0,0,0,0,0,0,0,0,-1,1399,603,0,0
182,421,0,0,0,0,0,0,0,0,0,-1,1406,603,0,0
189,421,0,0,0,0,0,0,0,0,0,-1,1413,603,0,0
196,421,0,0,0,0,0,0,0,0,0,-1,1420,603,0,0
203,421,0,0,0,0,0,0,0,0,0,-1,1427,603,0,0
210,421,0,0,0,0,0,0,0,0,0,-1,1434,603,0,0
217,421,0,0,0,0,0,0,0,0,0,-1,1441,603,0,0
224,421,0,0,0,0,0,0,0,0,0,-1,1448,603,0,0
231,421,0,0,0,0,0,0,0,0,0,-1,1455,603,0,0
238,421,0,0,0,0,0,0,0,0,0,-1,1462,603,0,0
245,421,0,0,0,0,0,0,0,0,0,-1,1469,603,0,0
252,421,0,0,0,0,0,0,0,0,0,-1,1476,603,0,0
259,421,0,0,0,0,0,0,0,0,0,-1,1483,603,0,0
266,421,0,0,0,0,0,0,0,0,0,-1,1490,603,0,0
273,421,0,0,0,0,0,0,0,0,0,-1,1497,603,0,0
280,421,0,0,0,0,0,0,0,0,0,-1,1504,603,0,0
287,421,0,0,0,0,0,0,0,0,0,-1,1511,603,0,0
294,421,0,0,0,0,0,0,0,0,0,-1,1518,603,0,0
301,421,0,0,0,0,0,0,0,0,0,-1,1525,603,0,0
308,421,0,0,0,0,0,0,0,0,0,-1,1532,603,0,0
315,421,0,0,0,0,0,0,0,0,0,-1,1539,603,0,0
322,421,0,0,0,0,0,0,0,0,0,-1,1546,603,0,0
329,421,0,0,0,0,0,0,0,0,0,-1,1553,603,0,0
336,421,0,0,0,0,0,0,0,0,0,-1,1560,603,0,0
343,421,0,0,0,0,0,0,0,0,0,-1,1567,603,0,0
350,421,0,0,0,0,0,0,0,0,0,-1,1574,603,0,0
357,421,0,0,0,0,0,0,0,0,0,-1,1581,603,0,0
364,421,0,0,0,0,0,0,0,0,0,-1,1588,603,0,0
371,421,0,0,0,0,0,0,0,0,0,-1,1595,603,0,0
378,421,0,0,0,0,0,0,0,0,0,-1,1602,603,0,0
385,421,0,0,0,0,0,0,0,0,0,-1,1609,603,0,0
392,421,0,0,0,0,0,0,0,0,0,-1,1616,603,0,0
399,421,0,0,0,0,0,0,0,0,0,-1,1623,603,0,0
406,421,0,0,0,0,0,0,0,0,0,-1,1630,603,0,0
413,421,0,0,0,0,0,0,0,0,0,-1,1637,603,0,0
420,421,0,0,0,0,0,0,0,0,0,-1,1644,603,0,0
427,421,0,0,0,0,0,0,0,0,0,-1,1651,603,0,0
434,421,3.68176,-0.0327759,0,0,0,0,0,0,0,-1,1658,603,3.6818,0.0328037
441,421,8.06689,0.527832,0,0,0,0,0,0,0,-1,1665,603,8.06693,-0.527851
448,421,6.93921,0.802246,0,0,0,0,0,0,0,-1,1672,603,6.93923,-0.802251
455,421,7.29456,2.14825,0,0,0,0,0,0,0,-1,1679,603,7.29461,-2.14827
462,421,7.86902,3.53174,0,0,0,0,0,0,0,-1,1686,603,7.869,-3.53173
469,421,8.06604,2.81213,0,0,0,0,0,0,0,-1,1693,603,8.06606,-2.81212
476,421,8.26306,2.09253,0,0,0,0,0,0,0,-1,1700,603,8.26312,-2.09251
483,421,8.05322,0.798096,0,0,0,0,0,0,0,-1,1707,603,8.05323,-0.7981
490,421,7.51233,0.213074,0,0,0,0,0,0,0,-1,1714,603,7.51235,-0.213043
497,421,7.49634,-2.86688,0,0,0,0,0,0,0,-1,1721,603,7.4963,2.86688
504,421,6.90491,-2.18671,0,0,0,0,0,0,0,-1,1728,603,6.90491,2.18669
511,421,6.31348,-1.50653,0,0,0,0,0,0,0,-1,1735,603,6.31353,1.5065
518,421,6.27588,-2.49878,0,0,0,0,0,0,0,-1,1742,603,6.2759,2.4988
525,421,8.79199,-3.64539,0,0,0,0,0,0,0,-1,1749,603,8.79201,3.64538
532,421,8.93347,-3.25403,0.00293089,0.00253973,0.00266578,0.00540825,6.23693e-05,0.748779,0.00358489,0.0340615,1756,603,8.93344,3.25404
539,421,9.03723,-2.93744,0.00207427,0.00180366,0.00187871,0.00382254,5.53845e-05,0.749449,0.0025301,0.0208974,1763,603,9.03721,2.93743
546,421,9.02197,-2.70758,0.00142004,0.00121703,0.00124996,0.00257261,6.44645e-05,0.744884,0.001694,0.0128739,1770,603,9.02202,2.70758
553,421,9.00684,-2.44128,0.000947108,0.000784253,0.000799041,0.00166886,6.25016e-05,0.73462,0.00109234,0.0122216,1777,603,9.00685,2.44128
560,421,9.02539,-2.16779,0.000546406,0.000475546,0.000439901,0.000952301,6.96512e-05,0.745215,0.000612971,0.0144595,1784,603,9.02534,2.16776
567,421,9.02393,-1.93518,0.000308441,0.000287765,0.000223477,0.000521818,7.4387e-05,0.762285,0.000325925,0.016874,1791,603,9.02389,1.9352
574,421,9.01367,-1.66528,0.000343708,0.000221289,0.000207957,0.000499276,6.57206e-05,0.642271,0.00031325,0.0185462,1798,603,9.01369,1.66531
581,421,9.00354,-1.36139,0.00052747,0.000314993,0.000334841,0.000772522,6.99412e-05,0.631781,0.000493356,0.0156254,1805,603,9.0035,1.36136
588,421,8.99646,-1.12231,0.0008457,0.000547828,0.00064065,0.0013545,3.90303e-05,0.671189,0.000890274,0.0116184,1812,603,8.99642,1.1223
595,421,9.00269,-0.849548,0.00140719,0.00100692,0.00115347,0.00237775,3.63498e-05,0.699499,0.00157319,0.0150564,1819,603,9.00271,0.849552
602,421,8.98242,-0.60968,0.00216146,0.00170878,0.00188315,0.00383182,3.84188e-05,0.725589,0.00254184,0.015837,1826,603,8.98237,0.609709
609,421,8.92908,-0.339233,0,0,0,0,0,0,0,-1,1833,603,8.92909,0.339243
616,421,9.17456,0.0328369,0,0,0,0,0,0,0,-1,1840,603,9.17453,-0.0328378
623,421,6.19885,0.376648,0,0,0,0,0,0,0,-1,1847,603,6.19881,-0.376624
630,421,6.54993,0.778748,0,0,0,0,0,0,0,-1,1854,603,6.54991,-0.778744
637,421,3.74512,1.65405,0,0,0,0,0,0,0,-1,1861,603,3.74517,-1.65407
644,421,3.58081,0.354675,0,0,0,0,0,0,0,-1,1868,603,3.58082,-0.354704
651,421,3.28687,3.66351,0,0,0,0,0,0,0,-1,1875,603,3.28688,-3.66353
658,421,0,0,0,0,0,0,0,0,0,-1,1882,603,0,0
665,421,0,0,0,0,0,0,0,0,0,-1,1889,603,0,0
672,421,0,0,0,0,0,0,0,0,0,-1,1896,603,0,0
679,421,0,0,0,0,0,0,0,0,0,-1,1903,603,0,0
686,421,0,0,0,0,0,0,0,0,0,-1,1910,603,0,0
693,421,0,0,0,0,0,0,0,0,0,-1,1917,603,0,0
700,421,0,0,0,0,0,0,0,0,0,-1,1924,603,0,0
707,421,0,0,0,0,0,0,0,0,0,-1,1931,603,0,0
714,421,0,0,0,0,0,0,0,0,0,-1,1938,603,0,0
721,421,0,0,0,0,0,0,0,0,0,-1,1945,603,0,0
728,421,0,0,0,0,0,0,0,0,0,-1,1952,603,0,0
735,421,0,0,0,0,0,0,0,0,0,-1,1959,603,0,0
742,421,0,0,0,0,0,0,0,0,0,-1,1966,603,0,0
749,421,0,0,0,0,0,0,0,0,0,-1,1973,603,0,0
756,421,0,0,0,0,0,0,0,0,0,-1,1980,603,0,0
763,421,0,0,0,0,0,0,0,0,0,-1,1987,603,0,0
770,421,0,0,0,0,0,0,0,0,0,-1,1994,603,0,0
777,421,0,0,0,0,0,0,0,0,0,-1,2001,603,0,0
784,421,0,0,0,0,0,0,0,0,0,-1,2008,603,0,0
791,421,0,0,0,0,0,0,0,0,0,-1,2015,603,0,0
798,421,0,0,0,0,0,0,0,0,0,-1,2022,603,0,0
805,421,0,0,0,0,0,0,0,0,0,-1,2029,603,0,0
812,421,0,0,0,0,0,0,0,0,0,-1,2036,603,0,0
-700,414,0,0,0,0,0,0,0,0,0,-1,524,610,0,0
-693,414,0,0,0,0,0,0,0,0,0,-1,531,610,0,0
-686,414,0,0,0,0,0,0,0,0,0,-1,538,610,0,0
-679,414,0,0,0,0,0,0,0,0,0,-1,545,610,0,0
-672,414,0,0,0,0,0,0,0,0,0,-1,552,610,0,0
-665,414,0,0,0,0,0,0,0,0,0,-1,559,610,0,0
-658,414,0,0,0,0,0,0,0,0,0,-1,566,610,0,0
-651,414,0,0,0,0,0,0,0,0,0,-1,573,610,0,0
-644,414,0,0,0,0,0,0,0,0,0,-1,580,610,0,0
-637,414,0,0,0,0,0,0,0,0,0,-1,587,610,0,0
-630,414,0,0,0,0,0,0,0,0,0,-1,594,610,0,0
-623,414,0,0,0,0,0,0,0,0,0,-1,601,610,0,0
-616,414,0,0,0,0,0,0,0,0,0,-1,608,610,0,0
-609,414,0,0,0,0,0,0,0,0,0,-1,615,610,0,0
-602,414,0,0,0,0,0,0,0,0,0,-1,622,610,0,0
-595,414,0,0,0,0,0,0,0,0,0,-1,629,610,0,0
-588,414,0,0,0,0,0,0,0,0,0,-1,636,610,0,0
-581,414,0,0,0,0,0,0,0,0,0,-1,643,610,0,0
-574,414,0,0,0,0,0,0,0,0,0,-1,650,610,0,0
-567,414,0,0,0,0,0,0,0,0,0,-1,657,610,0,0
-560,414,0,0,0,0,0,0,0,0,0,-1,664,610,0,0
-553,414,0,0,0,0,0,0,0,0,0,-1,671,610,0,0
-546,414,0,0,0,0,0,0,0,0,0,-1,678,610,0,0
-539,414,-7.50146,5.65619,0,0,0,0,0,0,0,-1,685,610,-7.50149,-5.65617
-532,414,-8.15204,4.01605,0,0,0,0,0,0,0,-1,692,610,-8.15206,-4.01606
-525,414,-8.80328,2.42987,0,0,0,0,0,0,0,-1,699,610,-8.8033,-2.42985
-518,414,-3.92554,-4.91833,0,0,0,0,0,0,0,-1,706,610,-3.92551,4.91833
-511,414,-2.77478,-4.28168,0,0,0,0,0,0,0,-1,713,610,-2.77479,4.28166
-504,414,-1.62408,-3.64496,0,0,0,0,0,0,0,-1,720,610,-1.62406,3.64499
-497,414,-3.01422,-2.2616,0,0,0,0,0,0,0,-1,727,610,-3.01422,2.26159
-490,414,-3.30084,-1.73499,0.0116295,-0.00950037,-0.00338026,0.0121571,-0.010028,-0.154829,0.0128282,0.0379679,734,610,-3.30082,1.73498
-483,414,-3.26147,-2.06348,0.0108942,-0.00661831,-0.00346265,0.011554,-0.0072781,-0.188288,0.0109657,0.0169788,741,610,-3.26149,2.0635
-476,414,-3.29877,-2.32538,0.0098046,-0.00441441,-0.00340614,0.0105784,-0.00518823,-0.223393,0.0092785,0.011709,748,610,-3.29876,2.3254
-469,414,-3.32336,-2.56805,0.00838815,-0.00298017,-0.00301198,0.00913685,-0.00372887,-0.243636,0.00764364,0.0116511,755,610,-3.32334,2.56808
-462,414,-3.34796,-2.86047,0.00678088,-0.00182198,-0.00258173,0.00749619,-0.00253729,-0.270284,0.00602405,0.0208202,762,610,-3.34799,2.86049
-455,414,-3.34344,-3.11877,0.00516549,-0.00108568,-0.00197002,0.00573453,-0.00165472,-0.281196,0.0044777,0.0244469,769,610,-3.34348,3.1188
-448,414,-3.33759,-3.31775,0.00415911,-0.000568441,-0.00130445,0.00449516,-0.000904483,-0.252131,0.00333935,0.0233887,776,610,-3.33757,3.31776
-441,414,-3.30023,-3.57172,0.00316375,-0.000888326,-0.000630392,0.00325956,-0.000984132,-0.150825,0.00256481,0.0160104,783,610,-3.30026,3.5717
-434,414,-3.31152,-3.83667,0.00224976,-0.0016407,0.000462334,0.00230395,-0.00169489,0.116673,0.00231764,0.00929748,790,610,-3.31152,3.83669
-427,414,-3.30652,-4.07306,0.00168809,-0.00287726,0.00181754,0.0023233,-0.00351247,0.33622,0.00339252,0.0102278,797,610,-3.30652,4.07307
-420,414,-3.30084,-4.29541,0.00140125,-0.00484115,0.00326544,0.00279724,-0.00623714,0.40399,0.00534055,0.0107358,804,610,-3.30083,4.29543
-413,414,-3.30719,-4.55194,0.00159126,-0.00714531,0.00480387,0.00371598,-0.00927003,0.416426,0.00772267,0.0109321,811,610,-3.30719,4.55194
-406,414,-3.30035,-4.84778,0.00201105,-0.0100549,0.00657145,0.00489887,-0.0129427,0.414046,0.0106441,0.0163993,818,610,-3.30034,4.84775
-399,414,-3.31586,-5.01923,0.00244843,-0.0137956,0.0086857,0.00621794,-0.0175651,0.409461,0.0142426,0.0244501,825,610,-3.31588,5.01921
-392,414,-3.41498,-5.16205,0.00304679,-0.018799,0.0112628,0.00781339,-0.0235656,0.400359,0.0188622,0.0302725,832,610,-3.415,5.16203
-385,414,-3.60394,-5.32251,0.00354997,-0.0250336,0.0143135,0.00948519,-0.0309688,0.393079,0.0244293,0.0424885,839,610,-3.60392,5.32252
-378,414,-3.65533,-4.84644,0,0,0,0,0,0,0,-1,846,610,-3.65532,4.84646
-371,414,-4.03845,-6.16486,0,0,0,0,0,0,0,-1,853,610,-4.03847,6.16486
-364,414,-4.2124,-6.60828,0,0,0,0,0,0,0,-1,860,610,-4.2124,6.60826
-357,414,-5.95874,-2.51605,0,0,0,0,0,0,0,-1,867,610,-5.95872,2.51603
-350,414,-6.4502,-2.41821,0,0,0,0,0,0,0,-1,874,610,-6.45021,2.41822
-343,414,-6.80249,-2.32117,0,0,0,0,0,0,0,-1,881,610,-6.80252,2.32116
-336,414,-7.11017,-2.52026,0,0,0,0,0,0,0,-1,888,610,-7.11016,2.52026
-329,414,-7.59747,-2.70313,0,0,0,0,0,0,0,-1,895,610,-7.59747,2.70315
-322,414,-4.42236,-1.29163,0,0,0,0,0,0,0,-1,902,610,-4.42238,1.2916
-315,414,0,0,0,0,0,0,0,0,0,-1,909,610,0,0
-308,414,0,0,0,0,0,0,0,0,0,-1,916,610,0,0
-301,414,0,0,0,0,0,0,0,0,0,-1,923,610,0,0
-294,414,0,0,0,0,0,0,0,0,0,-1,930,610,0,0
-287,414,0,0,0,0,0,0,0,0,0,-1,937,610,0,0
-280,414,0,0,0,0,0,0,0,0,0,-1,944,610,0,0
-273,414,0,0,0,0,0,0,0,0,0,-1,951,610,0,0
-266,414,0,0,0,0,0,0,0,0,0,-1,958,610,0,0
-259,414,0,0,0,0,0,0,0,0,0,-1,965,610,0,0
-252,414,0,0,0,0,0,0,0,0,0,-1,972,610,0,0
-245,414,0,0,0,0,0,0,0,0,0,-1,979,610,0,0
-238,414,0,0,0,0,0,0,0,0,0,-1,986,610,0,0
-231,414,0,0,0,0,0,0,0,0,0,-1,993,610,0,0
-224,414,0,0,0,0,0,0,0,0,0,-1,1000,610,0,0
-217,414,0,0,0,0,0,0,0,0,0,-1,1007,610,0,0
-210,414,0,0,0,0,0,0,0,0,0,-1,1014,610,0,0
-203,414,0,0,0,0,0,0,0,0,0,-1,1021,610,0,0
-196,414,0,0,0,0,0,0,0,0,0,-1,1028,610,0,0
-189,414,0,0,0,0,0,0,0,0,0,-1,1035,610,0,0
-182,414,0,0,0,0,0,0,0,0,0,-1,1042,610,0,0
-175,414,0,0,0,0,0,0,0,0,0,-1,1049,610,0,0
-168,414,0,0,0,0,0,0,0,0,0,-1,1056,610,0,0
-161,414,0,0,0,0,0,0,0,0,0,-1,1063,610,0,0
-154,414,0,0,0,0,0,0,0,0,0,-1,1070,610,0,0
-147,414,0,0,0,0,0,0,0,0,0,-1,1077,610,0,0
-140,414,0,0,0,0,0,0,0,0,0,-1,1084,610,0,0
-133,414,0,0,0,0,0,0,0,0,0,-1,1091,610,0,0
-126,414,0,0,0,0,0,0,0,0,0,-1,1098,610,0,0
-119,414,0,0,0,0,0,0,0,0,0,-1,1105,610,0,0
-112,414,0,0,0,0,0,0,0,0,0,-1,1112,610,0,0
-105,414,0,0,0,0,0,0,0,0,0,-1,1119,610,0,0
-98,414,0,0,0,0,0,0,0,0,0,-1,1126,610,0,0
-91,414,0,0,0,0,0,0,0,0,0,-1,1133,610,0,0
-84,414,0,0,0,0,0,0,0,0,0,-1,1140,610,0,0
-77,414,0,0,0,0,0,0,0,0,0,-1,1147,610,0,0
-70,414,0,0,0,0,0,0,0,0,0,-1,1154,610,0,0
-63,414,0,0,0,0,0,0,0,0,0,-1,1161,610,0,0
-56,414,0,0,0,0,0,0,0,0,0,-1,1168,610,0,0
-49,414,0,0,0,0,0,0,0,0,0,-1,1175,610,0,0
-42,414,0,0,0,0,0,0,0,0,0,-1,1182,610,0,0
-35,414,0,0,0,0,0,0,0,0,0,-1,1189,610,0,0
-28,414,0,0,0,0,0,0,0,0,0,-1,1196,610,0,0
-21,414,0,0,0,0,0,0,0,0,0,-1,1203,610,0,0
-14,414,0,0,0,0,0,0,0,0,0,-1,1210,610,0,0
-7,414,0,0,0,0,0,0,0,0,0,-1,1217,610,0,0
0,414,0,0,0,0,0,0,0,0,0,-1,1224,610,0,0
7,414,0,0,0,0,0,0,0,0,0,-1,1231,610,0,0
14,414,0,0,0,0,0,0,0,0,0,-1,1238,610,0,0
21,414,0,0,0,0,0,0,0,0,0,-1,1245,610,0,0
28,414,0,0,0,0,0,0,0,0,0,-1,1252,610,0,0
35,414,0,0,0,0,0,0,0,0,0,-1,1259,610,0,0
42,414,0,0,0,0,0,0,0,0,0,-1,1266,610,0,0
49,414,0,0,0,0,0,0,0,0,0,-1,1273,610,0,0
56,414,0,0,0,0,0,0,0,0,0,-1,1280,610,0,0
63,414,0,0,0,0,0,0,0,0,0,-1,1287,610,0,0
70,414,0,0,0,0,0,0,0,0,0,-1,1294,610,0,0
77,414,0,0,0,0,0,0,0,0,0,-1,1301,610,0,0
84,414,0,0,0,0,0,0,0,0,0,-1,1308,610,0,0
91,414,0,0,0,0,0,0,0,0,0,-1,1315,610,0,0
98,414,0,0,0,0,0,0,0,0,0,-1,1322,610,0,0
105,414,0,0,0,0,0,0,0,0,0,-1,1329,610,0,0
112,414,0,0,0,0,0,0,0,0,0,-1,1336,610,0,0
119,414,0,0,0,0,0,0,0,0,0,-1,1343,610,0,0
126,414,0,0,0,0,0,0,0,0,0,-1,1350,610,0,0
133,414,0,0,0,0,0,0,0,0,0,-1,1357,610,0,0
140,414,0,0,0,0,0,0,0,0,0,-1,1364,610,0,0
147,414,0,0,0,0,0,0,0,0,0,-1,1371,610,0,0
154,414,0,0,0,0,0,0,0,0,0,-1,1378,610,0,0
161,414,0,0,0,0,0,0,0,0,0,-1,1385,610,0,0
168,414,0,0,0,0,0,0,0,0,0,-1,1392,610,0,0
175,414,0,0,0,0,0,0,0,0,0,-1,1399,610,0,0
182,414,0,0,0,0,0,0,0,0,0,-1,1406,610,0,0
189,414,0,0,0,0,0,0,0,0,0,-1,1413,610,0,0
196,414,0,0,0,0,0,0,0,0,0,-1,1420,610,0,0
203,414,0,0,0,0,0,0,0,0,0,-1,1427,610,0,0
210,414,0,0,0,0,0,0,0,0,0,-1,1434,610,0,0
217,414,0,0,0,0,0,0,0,0,0,-1,1441,610,0,0
224,414,0,0,0,0,0,0,0,0,0,-1,1448,610,0,0
231,414,0,0,0,0,0,0,0,0,0,-1,1455,610,0,0
238,414,0,0,0,0,0,0,0,0,0,-1,1462,610,0,0
245,414,0,0,0,0,0,0,0,0,0,-1,1469,610,0,0
252,414,0,0,0,0,0,0,0,0,0,-1,1476,610,0,0
259,414,0,0,0,0,0,0,0,0,0,-1,1483,610,0,0
266,414,0,0,0,0,0,0,0,0,0,-1,1490,610,0,0
273,414,0,0,0,0,0,0,0,0,0,-1,1497,610,0,0
280,414,0,0,0,0,0,0,0,0,0,-1,1504,610,0,0
287,414,0,0,0,0,0,0,0,0,0,-1,1511,610,0,0
294,414,0,0,0,0,0,0,0,0,0,-1,1518,610,0,0
301,414,0,0,0,0,0,0,0,0,0,-1,1525,610,0,0
308,414,0,0,0,0,0,0,0,0,0,-1,1532,610,0,0
315,414,0,0,0,0,0,0,0,0,0,-1,1539,610,0,0
322,414,0,0,0,0,0,0,0,0,0,-1,1546,610,0,0
329,414,0,0,0,0,0,0,0,0,0,-1,1553,610,0,0
336,414,0,0,0,0,0,0,0,0,0,-1,1560,610,0,0
343,414,0,0,0,0,0,0,0,0,0,-1,1567,610,0,0
350,414,0,0,0,0,0,0,0,0,0,-1,1574,610,0,0
357,414,0,0,0,0,0,0,0,0,0,-1,1581,610,0,0
364,414,0,0,0,0,0,0,0,0,0,-1,1588,610,0,0
371,414,0,0,0,0,0,0,0,0,0,-1,1595,610,0,0
378,414,0,0,0,0,0,0,0,0,0,-1,1602,610,0,0
385,414,0,0,0,0,0,0,0,0,0,-1,1609,610,0,0
392,414,0,0,0,0,0,0,0,0,0,-1,1616,610,0,0
399,414,0,0,0,0,0,0,0,0,0,-1,1623,610,0,0
406,414,0,0,0,0,0,0,0,0,0,-1,1630,610,0,0
413,414,0,0,0,0,0,0,0,0,0,-1,1637,610,0,0
420,414,0,0,0,0,0,0,0,0,0,-1,1644,610,0,0
427,414,0,0,0,0,0,0,0,0,0,-1,1651,610,0,0
434,414,0,0,0,0,0,0,0,0,0,-1,1658,610,0,0
441,414,7.84375,0.584412,0,0,0,0,0,0,0,-1,1665,610,7.84379,-0.584394
448,414,7.40808,1.25446,0,0,0,0,0,0,0,-1,1672,610,7.40807,-1.25446
455,414,6.3512,1.73846,0,0,0,0,0,0,0,-1,1679,610,6.3512,-1.73847
462,414,8.18103,3.22113,0,0,0,0,0,0,0,-1,1686,610,8.18108,-3.22112
469,414,8.38513,2.49579,0,0,0,0,0,0,0,-1,1693,610,8.38516,-2.49576
476,414,8.64099,1.71161,0,0,0,0,0,0,0,-1,1700,610,8.64097,-1.71164
483,414,8.62744,0.687622,0,0,0,0,0,0,0,-1,1707,610,8.62749,-0.687615
490,414,8.38831,-0.0302734,0,0,0,0,0,0,0,-1,1714,610,8.38835,0.0302913
497,414,4.71094,-0.110046,0,0,0,0,0,0,0,-1,1721,610,4.71089,0.110024
504,414,7.19568,-1.43835,0,0,0,0,0,0,0,-1,1728,610,7.19563,1.43836
511,414,5.94153,-1.28772,0,0,0,0,0,0,0,-1,1735,610,5.94151,1.28769
518,414,4.53381,-0.0996704,0,0,0,0,0,0,0,-1,1742,610,4.53378,0.0996819
525,414,6.18811,-1.64056,0,0,0,0,0,0,0,-1,1749,610,6.18814,1.64055
532,414,9.19275,-3.4715,0,0,0,0,0,0,0,-1,1756,610,9.1928,3.47149
539,414,9.25269,-3.05457,0.00193861,0.00244833,0.00212969,0.00433835,4.85852e-05,0.84495,0.00287617,0.0397658,1763,610,9.25267,3.05458
546,414,9.27625,-2.71198,0.00124759,0.001705,0.00139277,0.00288772,6.48719e-05,0.866776,0.00190389,0.0130977,1770,610,9.2763,2.71197
553,414,9.27673,-2.44855,0.000787512,0.00119009,0.00089772,0.00190881,6.87907e-05,0.895685,0.00125024,0.012195,1777,610,9.27674,2.44855
560,414,9.29224,-2.15759,0.000422511,0.000807412,0.000515714,0.00116541,6.45088e-05,0.963982,0.000756357,0.0144081,1784,610,9.2922,2.15762
567,414,9.3031,-1.87366,0.000227268,0.000547016,0.000286707,0.000715411,5.88732e-05,1.03974,0.000458578,0.0234807,1791,610,9.30305,1.87366
574,414,9.28064,-1.62897,0.000314811,0.000425782,0.000268204,0.00064418,9.64128e-05,0.887399,0.000401196,0.020794,1798,610,9.28066,1.62897
581,414,9.28015,-1.362,0.00056443,0.000468495,0.00039474,0.000914106,0.000118818,0.724936,0.000573913,0.0160425,1805,610,9.2802,1.36203
588,414,9.27087,-1.11835,0.000938785,0.000649374,0.00069045,0.00149953,8.86285e-05,0.682102,0.000971493,0.0163273,1812,610,9.27082,1.11833
595,414,9.27368,-0.808472,0.00156237,0.00103214,0.00117359,0.00250041,9.40964e-05,0.674313,0.00163648,0.0215911,1819,610,9.2737,0.808494
602,414,9.26575,-0.563049,0.00232046,0.00166605,0.00183749,0.00385965,0.000126863,0.697287,0.00253187,0.0229933,1826,610,9.26573,0.563055
609,414,9.27222,-0.324768,0,0,0,0,0,0,0,-1,1833,610,9.27217,0.324752
616,414,9.30603,-0.296509,0,0,0,0,0,0,0,-1,1840,610,9.306,0.296517
623,414,9.6969,0.0378418,0,0,0,0,0,0,0,-1,1847,610,9.69685,-0.0378644
630,414,5.47144,0.499329,0,0,0,0,0,0,0,-1,1854,610,5.47142,-0.499303
637,414,6.57898,2.38019,0,0,0,0,0,0,0,-1,1861,610,6.579,-2.38019
644,414,5.87073,1.51422,0,0,0,0,0,0,0,-1,1868,610,5.87076,-1.51424
651,414,3.6377,0.820557,0,0,0,0,0,0,0,-1,1875,610,3.6377,-0.820543
658,414,2.29761,3.87323,0,0,0,0,0,0,0,-1,1882,610,2.29758,-3.87325
665,414,0,0,0,0,0,0,0,0,0,-1,1889,610,0,0
672,414,0,0,0,0,0,0,0,0,0,-1,1896,610,0,0
679,414,0,0,0,0,0,0,0,0,0,-1,1903,610,0,0
686,414,0,0,0,0,0,0,0,0,0,-1,1910,610,0,0
693,414,0,0,0,0,0,0,0,0,0,-1,1917,610,0,0
700,414,0,0,0,0,0,0,0,0,0,-1,1924,610,0,0
707,414,0,0,0,0,0,0,0,0,0,-1,1931,610,0,0
714,414,0,0,0,0,0,0,0,0,0,-1,1938,610,0,0
721,414,0,0,0,0,0,0,0,0,0,-1,1945,610,0,0
728,414,0,0,0,0,0,0,0,0,0,-1,1952,610,0,0
735,414,0,0,0,0,0,0,0,0,0,-1,1959,610,0,0
742,414,0,0,0,0,0,0,0,0,0,-1,1966,610,0,0
749,414,0,0,0,0,0,0,0,0,0,-1,1973,610,0,0
756,414,0,0,0,0,0,0,0,0,0,-1,1980,610,0,0
763,414,0,0,0,0,0,0,0,0,0,-1,1987,610,0,0
770,414,0,0,0,0,0,0,0,0,0,-1,1994,610,0,0
777,414,0,0,0,0,0,0,0,0,0,-1,2001,610,0,0
784,414,0,0,0,0,0,0,0,0,0,-1,2008,610,0,0
791,414,0,0,0,0,0,0,0,0,0,-1,2015,610,0,0
798,414,0,0,0,0,0,0,0,0,0,-1,2022,610,0,0
805,414,0,0,0,0,0,0,0,0,0,-1,2029,610,0,0
812,414,0,0,0,0,0,0,0,0,0,-1,2036,610,0,0
-700,407,0,0,0,0,0,0,0,0,0,-1,524,617,0,0
-693,407,0,0,0,0,0,0,0,0,0,-1,531,617,0,0
-686,407,0,0,0,0,0,0,0,0,0,-1,538,617,0,0
-679,407,0,0,0,0,0,0,0,0,0,-1,545,617,0,0
-672,407,0,0,0,0,0,0,0,0,0,-1,552,617,0,0
-665,407,0,0,0,0,0,0,0,0,0,-1,559,617,0,0
-658,407,0,0,0,0,0,0,0,0,0,-1,566,617,0,0
-651,407,0,0,0,0,0,0,0,0,0,-1,573,617,0,0
-644,407,0,0,0,0,0,0,0,0,0,-1,580,617,0,0
-637,407,0,0,0,0,0,0,0,0,0,-1,587,617,0,0
-630,407,0,0,0,0,0,0,0,0,0,-1,594,617,0,0
-623,407,0,0,0,0,0,0,0,0,0,-1,601,617,0,0
-616,407,0,0,0,0,0,0,0,0,0,-1,608,617,0,0
-609,407,0,0,0,0,0,0,0,0,0,-1,615,617,0,0
-602,407,0,0,0,0,0,0,0,0,0,-1,622,617,0,0
-595,407,0,0,0,0,0,0,0,0,0,-1,629,617,0,0
-588,407,0,0,0,0,0,0,0,0,0,-1,636,617,0,0
-581,407,0,0,0,0,0,0,0,0,0,-1,643,617,0,0
-574,407,0,0,0,0,0,0,0,0,0,-1,650,617,0,0
-567,407,0,0,0,0,0,0,0,0,0,-1,657,617,0,0
-560,407,0,0,0,0,0,0,0,0,0,-1,664,617,0,0
-553,407,0,0,0,0,0,0,0,0,0,-1,671,617,0,0
-546,407,-8.54517,-0.658142,0,0,0,0,0,0,0,-1,678,617,-8.54515,0.658112
-539,407,-6.09442,-1.01154,0,0,0,0,0,0,0,-1,685,617,-6.09441,1.01155
-532,407,-7.75665,1.62152,0,0,0,0,0,0,0,-1,692,617,-7.75667,-1.62154
-525,407,-4.53937,-5.61676,0,0,0,0,0,0,0,-1,699,617,-4.53938,5.61677
-518,407,-3.72192,-4.58167,0,0,0,0,0,0,0,-1,706,617,-3.72193,4.58169
-511,407,-2.87604,-3.50256,0,0,0,0,0,0,0,-1,713,617,-2.87606,3.50259
-504,407,-3.30597,-2.26941,0,0,0,0,0,0,0,-1,720,617,-3.30599,2.26941
-497,407,-3.36023,-2.07733,0.00672868,-0.0104997,-0.00189177,0.00693396,-0.010705,-0.10809,0.0102611,0.0412457,727,617,-3.36025,2.07734
-490,407,-3.50488,-1.85034,0.00702456,-0.00786415,-0.00200841,0.00729073,-0.00813031,-0.131758,0.00890774,0.0214876,734,617,-3.50486,1.85031
-483,407,-3.51776,-2.0614,0.00685066,-0.00578042,-0.00203416,0.00717017,-0.00609993,-0.155798,0.0076698,0.0117171,741,617,-3.51778,2.06143
-476,407,-3.53699,-2.30383,0.00642838,-0.00398273,-0.00208104,0.00682894,-0.00438329,-0.190156,0.00652451,0.00934385,748,617,-3.53696,2.30382
-469,407,-3.55261,-2.54462,0.00568056,-0.00283429,-0.00188668,0.00607987,-0.0032336,-0.208572,0.0054602,0.0117864,755,617,-3.55259,2.5446
-462,407,-3.55255,-2.82086,0.0046475,-0.00178762,-0.00165994,0.00505045,-0.00219057,-0.238143,0.00428791,0.0193683,762,617,-3.55256,2.82088
-455,407,-3.55585,-3.1059,0.00360354,-0.00108567,-0.00118829,0.00388747,-0.0013696,-0.234544,0.00314908,0.0214081,769,617,-3.55585,3.10589
-448,407,-3.52551,-3.32635,0.00311789,-0.000711267,-0.000634258,0.00322022,-0.000813591,-0.15995,0.00246321,0.0182631,776,617,-3.5255,3.32635
-441,407,-3.54004,-3.53516,0.00243531,-0.00120232,-1.7747e-05,0.0024354,-0.00120241,-0.00487857,0.00214012,0.0138319,783,617,-3.54006,3.53515
-434,407,-3.55212,-3.79138,0.00176539,-0.00207121,0.00108109,0.00204905,-0.00235487,0.256599,0.00254465,0.0098004,790,617,-3.55213,3.79136
-427,407,-3.54315,-4.05328,0.00145,-0.00351182,0.00249303,0.0024862,-0.00454802,0.393917,0.00411895,0.0104466,797,617,-3.54317,4.05327
-420,407,-3.53192,-4.28741,0.00163072,-0.00578375,0.00397415,0.00335832,-0.00751135,0.410066,0.00642648,0.0109422,804,617,-3.5319,4.28741
-413,407,-3.53052,-4.54492,0.00218981,-0.00852666,0.00575792,0.00469696,-0.0110338,0.410669,0.00932456,0.0117217,811,617,-3.53049,4.54493
-406,407,-3.5589,-4.71198,0.00281059,-0.0120821,0.00791746,0.0062332,-0.0155047,0.408026,0.0129253,0.0223932,818,617,-3.55889,4.71198
-399,407,-3.42834,-4.72791,0.00344613,-0.0166516,0.0105747,0.00798509,-0.0211906,0.405445,0.0174102,0.0375101,825,617,-3.42835,4.72793
-392,407,-3.32739,-4.73969,0.00428426,-0.0226452,0.0138907,0.0101651,-0.0285261,0.400485,0.0231616,0.0469506,832,617,-3.32742,4.7397
-385,407,-3.41937,-4.86621,0,0,0,0,0,0,0,-1,839,617,-3.41935,4.86621
-378,407,-4.3089,-5.33673,0,0,0,0,0,0,0,-1,846,617,-4.3089,5.33672
-371,407,-4.39404,-5.7431,0,0,0,0,0,0,0,-1,853,617,-4.39405,5.74309
-364,407,-6.26666,-1.91302,0,0,0,0,0,0,0,-1,860,617,-6.26669,1.91305
-357,407,-6.64447,-1.83337,0,0,0,0,0,0,0,-1,867,617,-6.64446,1.8334
-350,407,-7.03351,-1.77551,0,0,0,0,0,0,0,-1,874,617,-7.03349,1.77551
-343,407,-7.40967,-1.95026,0,0,0,0,0,0,0,-1,881,617,-7.40969,1.95026
-336,407,-8.10229,-2.40662,0,0,0,0,0,0,0,-1,888,617,-8.10229,2.40664
-329,407,-8.81232,-2.76331,0,0,0,0,0,0,0,-1,895,617,-8.81235,2.76331
-322,407,0,0,0,0,0,0,0,0,0,-1,902,617,0,0
-315,407,0,0,0,0,0,0,0,0,0,-1,909,617,0,0
-308,407,0,0,0,0,0,0,0,0,0,-1,916,617,0,0
-301,407,0,0,0,0,0,0,0,0,0,-1,923,617,0,0
-294,407,0,0,0,0,0,0,0,0,0,-1,930,617,0,0
-287,407,0,0,0,0,0,0,0,0,0,-1,937,617,0,0
-280,407,0,0,0,0,0,0,0,0,0,-1,944,617,0,0
-273,407,0,0,0,0,0,0,0,0,0,-1,951,617,0,0
-266,407,0,0,0,0,0,0,0,0,0,-1,958,617,0,0
-259,407,0,0,0,0,0,0,0,0,0,-1,965,617,0,0
-252,407,0,0,0,0,0,0,0,0,0,-1,972,617,0,0
-245,407,0,0,0,0,0,0,0,0,0,-1,979,617,0,0
-238,407,0,0,0,0,0,0,0,0,0,-1,986,617,0,0
-231,407,0,0,0,0,0,0,0,0,0,-1,993,617,0,0
-224,407,0,0,0,0,0,0,0,0,0,-1,1000,617,0,0
-217,407,0,0,0,0,0,0,0,0,0,-1,1007,617,0,0
-210,407,0,0,0,0,0,0,0,0,0,-1,1014,617,0,0
-203,407,0,0,0,0,0,0,0,0,0,-1,1021,617,0,0
-196,407,0,0,0,0,0,0,0,0,0,-1,1028,617,0,0
-189,407,0,0,0,0,0,0,0,0,0,-1,1035,617,0,0
-182,407,0,0,0,0,0,0,0,0,0,-1,1042,617,0,0
-175,407,0,0,0,0,0,0,0,0,0,-1,1049,617,0,0
-168,407,0,0,0,0,0,0,0,0,0,-1,1056,617,0,0
-161,407,0,0,0,0,0,0,0,0,0,-1,1063,617,0,0
-154,407,0,0,0,0,0,0,0,0,0,-1,1070,617,0,0
-147,407,0,0,0,0,0,0,0,0,0,-1,1077,617,0,0
-140,407,0,0,0,0,0,0,0,0,0,-1,1084,617,0,0
-133,407,0,0,0,0,0,0,0,0,0,-1,1091,617,0,0
-126,407,0,0,0,0,0,0,0,0,0,-1,1098,617,0,0
-119,407,0,0,0,0,0,0,0,0,0,-1,1105,617,0,0
-112,407,0,0,0,0,0,0,0,0,0,-1,1112,617,0,0
-105,407,0,0,0,0,0,0,0,0,0,-1,1119,617,0,0
-98,407,0,0,0,0,0,0,0,0,0,-1,1126,617,0,0
-91,407,0,0,0,0,0,0,0,0,0,-1,1133,617,0,0
-84,407,0,0,0,0,0,0,0,0,0,-1,1140,617,0,0
-77,407,0,0,0,0,0,0,0,0,0,-1,1147,617,0,0
-70,407,0,0,0,0,0,0,0,0,0,-1,1154,617,0,0
-63,407,0,0,0,0,0,0,0,0,0,-1,1161,617,0,0
-56,407,0,0,0,0,0,0,0,0,0,-1,1168,617,0,0
-49,407,0,0,0,0,0,0,0,0,0,-1,1175,617,0,0
-42,407,0,0,0,0,0,0,0,0,0,-1,1182,617,0,0
-35,407,0,0,0,0,0,0,0,0,0,-1,1189,617,0,0
-28,407,0,0,0,0,0,0,0,0,0,-1,1196,617,0,0
-21,407,0,0,0,0,0,0,0,0,0,-1,1203,617,0,0
-14,407,0,0,0,0,0,0,0,0,0,-1,1210,617,0,0
-7,407,0,0,0,0,0,0,0,0,0,-1,1217,617,0,0
0,407,0,0,0,0,0,0,0,0,0,-1,1224,617,0,0
7,407,0,0,0,0,0,0,0,0,0,-1,1231,617,0,0
14,407,0,0,0,0,0,0,0,0,0,-1,1238,617,0,0
21,407,0,0,0,0,0,0,0,0,0,-1,1245,617,0,0
28,407,0,0,0,0,0,0,0,0,0,-1,1252,617,0,0
35,407,0,0,0,0,0,0,0,0,0,-1,1259,617,0,0
42,407,0,0,0,0,0,0,0,0,0,-1,1266,617,0,0
49,407,0,0,0,0,0,0,0,0,0,-1,1273,617,0,0
56,407,0,0,0,0,0,0,0,0,0,-1,1280,617,0,0
63,407,0,0,0,0,0,0,0,0,0,-1,1287,617,0,0
70,407,0,0,0,0,0,0,0,0,0,-1,1294,617,0,0
77,407,0,0,0,0,0,0,0,0,0,-1,1301,617,0,0
84,407,0,0,0,0,0,0,0,0,0,-1,1308,617,0,0
91,407,0,0,0,0,0,0,0,0,0,-1,1315,617,0,0
98,407,0,0,0,0,0,0,0,0,0,-1,1322,617,0,0
105,407,0,0,0,0,0,0,0,0,0,-1,1329,617,0,0
112,407,0,0,0,0,0,0,0,0,0,-1,1336,617,0,0
119,407,0,0,0,0,0,0,0,0,0,-1,1343,617,0,0
126,407,0,0,0,0,0,0,0,0,0,-1,1350,617,0,0
133,407,0,0,0,0,0,0,0,0,0,-1,1357,617,0,0
140,407,0,0,0,0,0,0,0,0,0,-1,1364,617,0,0
147,407,0,0,0,0,0,0,0,0,0,-1,1371,617,0,0
154,407,0,0,0,0,0,0,0,0,0,-1,1378,617,0,0
161,407,0,0,0,0,0,0,0,0,0,-1,1385,617,0,0
168,407,0,0,0,0,0,0,0,0,0,-1,1392,617,0,0
175,407,0,0,0,0,0,0,0,0,0,-1,1399,617,0,0
182,407,0,0,0,0,0,0,0,0,0,-1,1406,617,0,0
189,407,0,0,0,0,0,0,0,0,0,-1,1413,617,0,0
196,407,0,0,0,0,0,0,0,0,0,-1,1420,617,0,0
203,407,0,0,0,0,0,0,0,0,0,-1,1427,617,0,0
210,407,0,0,0,0,0,0,0,0,0,-1,1434,617,0,0
217,407,0,0,0,0,0,0,0,0,0,-1,1441,617,0,0
224,407,0,0,0,0,0,0,0,0,0,-1,1448,617,0,0
231,407,0,0,0,0,0,0,0,0,0,-1,1455,617,0,0
238,407,0,0,0,0,0,0,0,0,0,-1,1462,617,0,0
245,407,0,0,0,0,0,0,0,0,0,-1,1469,617,0,0
252,407,0,0,0,0,0,0,0,0,0,-1,1476,617,0,0
259,407,0,0,0,0,0,0,0,0,0,-1,1483,617,0,0
266,407,0,0,0,0,0,0,0,0,0,-1,1490,617,0,0
273,407,0,0,0,0,0,0,0,0,0,-1,1497,617,0,0
280,407,0,0,0,0,0,0,0,0,0,-1,1504,617,0,0
287,407,0,0,0,0,0,0,0,0,0,-1,1511,617,0,0
294,407,0,0,0,0,0,0,0,0,0,-1,1518,617,0,0
301,407,0,0,0,0,0,0,0,0,0,-1,1525,617,0,0
308,407,0,0,0,0,0,0,0,0,0,-1,1532,617,0,0
315,407,0,0,0,0,0,0,0,0,0,-1,1539,617,0,0
322,407,0,0,0,0,0,0,0,0,0,-1,1546,617,0,0
329,407,0,0,0,0,0,0,0,0,0,-1,1553,617,0,0
336,407,0,0,0,0,0,0,0,0,0,-1,1560,617,0,0
343,407,0,0,0,0,0,0,0,0,0,-1,1567,617,0,0
350,407,0,0,0,0,0,0,0,0,0,-1,1574,617,0,0
357,407,0,0,0,0,0,0,0,0,0,-1,1581,617,0,0
364,407,0,0,0,0,0,0,0,0,0,-1,1588,617,0,0
371,407,0,0,0,0,0,0,0,0,0,-1,1595,617,0,0
378,407,0,0,0,0,0,0,0,0,0,-1,1602,617,0,0
385,407,0,0,0,0,0,0,0,0,0,-1,1609,617,0,0
392,407,0,0,0,0,0,0,0,0,0,-1,1616,617,0,0
399,407,0,0,0,0,0,0,0,0,0,-1,1623,617,0,0
406,407,0,0,0,0,0,0,0,0,0,-1,1630,617,0,0
413,407,0,0,0,0,0,0,0,0,0,-1,1637,617,0,0
420,407,0,0,0,0,0,0,0,0,0,-1,1644,617,0,0
427,407,0,0,0,0,0,0,0,0,0,-1,1651,617,0,0
434,407,0,0,0,0,0,0,0,0,0,-1,1658,617,0,0
441,407,0,0,0,0,0,0,0,0,0,-1,1665,617,0,0
448,407,7.02893,2.13843,0,0,0,0,0,0,0,-1,1672,617,7.02899,-2.13844
455,407,7.55237,2.29242,0,0,0,0,0,0,0,-1,1679,617,7.55236,-2.29244
462,407,8.2926,2.46173,0,0,0,0,0,0,0,-1,1686,617,8.29261,-2.46174
469,407,8.71509,2.22681,0,0,0,0,0,0,0,-1,1693,617,8.71511,-2.22681
476,407,8.89917,1.47766,0,0,0,0,0,0,0,-1,1700,617,8.89914,-1.47768
483,407,9.02612,0.682983,0,0,0,0,0,0,0,-1,1707,617,9.02608,-0.683004
490,407,9.12659,0.000671387,0,0,0,0,0,0,0,-1,1714,617,9.12653,-0.000675931
497,407,7.76819,0.855835,0,0,0,0,0,0,0,-1,1721,617,7.7682,-0.855865
504,407,4.69336,0.160706,0,0,0,0,0,0,0,-1,1728,617,4.69337,-0.1607
511,407,4.07104,-0.00140381,0,0,0,0,0,0,0,-1,1735,617,4.07109,0.00141425
518,407,6.09534,1.9411,0,0,0,0,0,0,0,-1,1742,617,6.09532,-1.94113
525,407,5.72534,-1.35986,0,0,0,0,0,0,0,-1,1749,617,5.72529,1.35988
532,407,7.31763,-2.34937,0,0,0,0,0,0,0,-1,1756,617,7.31766,2.34937
539,407,9.427,-3.16144,0,0,0,0,0,0,0,-1,1763,617,9.42705,3.16141
546,407,9.5321,-2.70959,0.000821692,0.00204399,0.00139637,0.0029571,-9.141e-05,0.991676,0.00200256,0.0143737,1770,617,9.53214,2.7096
553,407,9.51855,-2.43945,0.000409045,0.00146008,0.00089083,0.00196885,-9.97228e-05,1.05189,0.00134704,0.013982,1777,617,9.51861,2.43948
560,407,9.547,-2.13727,0.000104593,0.00101341,0.000512638,0.00124404,-0.000126042,1.14803,0.000874409,0.0150104,1784,617,9.54705,2.13728
567,407,9.56628,-1.87878,-3.07572e-05,0.000695182,0.000290943,0.000797395,-0.00013297,1.23295,0.000581015,0.0274004,1791,617,9.56624,1.87877
574,407,9.51819,-1.63385,0.000112482,0.000544713,0.00028116,0.00068322,-2.60245e-05,1.11307,0.000464398,0.0238868,1798,617,9.51822,1.63384
581,407,9.50623,-1.35425,0.000429168,0.000578277,0.000419612,0.000929906,7.75392e-05,0.873318,0.000595775,0.0156991,1805,617,9.50623,1.35426
588,407,9.52576,-1.12018,0.000865043,0.000763453,0.000718437,0.00153448,9.40179e-05,0.750106,0.000993131,0.011399,1812,617,9.52578,1.12017
595,407,9.54785,-0.836914,0.00154429,0.00113539,0.0011846,0.00254195,0.000137726,0.699943,0.00165064,0.0217731,1819,617,9.5478,0.836892
602,407,9.53308,-0.56012,0.00230817,0.00176466,0.00181107,0.00386776,0.000205067,0.710928,0.00251294,0.0187952,1826,617,9.53311,0.560105
609,407,9.52576,-0.271301,0.00290122,0.00230674,0.00241453,0.00503674,0.00017122,0.724153,0.00330223,0.0157627,1833,617,9.52575,0.271329
616,407,9.56628,0.09552,0.00343738,0.00359245,0.00324411,0.00675995,0.000269876,0.797347,0.00441943,0.0259614,1840,617,9.56632,-0.0955267
623,407,9.77161,0.538818,0,0,0,0,0,0,0,-1,1847,617,9.77164,-0.538811
630,407,7.06177,0.814575,0,0,0,0,0,0,0,-1,1854,617,7.06178,-0.814579
637,407,6.27808,1.17114,0,0,0,0,0,0,0,-1,1861,617,6.27803,-1.17116
644,407,5.09766,2.27747,0,0,0,0,0,0,0,-1,1868,617,5.09764,-2.27746
651,407,7.37524,0.0513916,0,0,0,0,0,0,0,-1,1875,617,7.3752,-0.0513923
658,407,3.76685,0.594177,0,0,0,0,0,0,0,-1,1882,617,3.76683,-0.594184
665,407,5.76123,0.375061,0,0,0,0,0,0,0,-1,1889,617,5.76118,-0.37509
672,407,0,0,0,0,0,0,0,0,0,-1,1896,617,0,0
679,407,0,0,0,0,0,0,0,0,0,-1,1903,617,0,0
686,407,0,0,0,0,0,0,0,0,0,-1,1910,617,0,0
693,407,0,0,0,0,0,0,0,0,0,-1,1917,617,0,0
700,407,0,0,0,0,0,0,0,0,0,-1,1924,617,0,0
707,407,0,0,0,0,0,0,0,0,0,-1,1931,617,0,0
714,407,0,0,0,0,0,0,0,0,0,-1,1938,617,0,0
721,407,0,0,0,0,0,0,0,0,0,-1,1945,617,0,0
728,407,0,0,0,0,0,0,0,0,0,-1,1952,617,0,0
735,407,0,0,0,0,0,0,0,0,0,-1,1959,617,0,0
742,407,0,0,0,0,0,0,0,0,0,-1,1966,617,0,0
749,407,0,0,0,0,0,0,0,0,0,-1,1973,617,0,0
756,407,0,0,0,0,0,0,0,0,0,-1,1980,617,0,0
763,407,0,0,0,0,0,0,0,0,0,-1,1987,617,0,0
770,407,0,0,0,0,0,0,0,0,0,-1,1994,617,0,0
777,407,0,0,0,0,0,0,0,0,0,-1,2001,617,0,0
784,407,0,0,0,0,0,0,0,0,0,-1,2008,617,0,0
791,407,0,0,0,0,0,0,0,0,0,-1,2015,617,0,0
798,407,0,0,0,0,0,0,0,0,0,-1,2022,617,0,0
805,407,0,0,0,0,0,0,0,0,0,-1,2029,617,0,0
812,407,0,0,0,0,0,0,0,0,0,-1,2036,617,0,0
-700,400,0,0,0,0,0,0,0,0,0,-1,524,624,0,0
-693,400,0,0,0,0,0,0,0,0,0,-1,531,624,0,0
-686,400,0,0,0,0,0,0,0,0,0,-1,538,624,0,0
-679,400,0,0,0,0,0,0,0,0,0,-1,545,624,0,0
-672,400,0,0,0,0,0,0,0,0,0,-1,552,624,0,0
-665,400,0,0,0,0,0,0,0,0,0,-1,559,624,0,0
-658,400,0,0,0,0,0,0,0,0,0,-1,566,624,0,0
-651,400,0,0,0,0,0,0,0,0,0,-1,573,624,0,0
-644,400,0,0,0,0,0,0,0,0,0,-1,580,624,0,0
-637,400,0,0,0,0,0,0,0,0,0,-1,587,624,0,0
-630,400,0,0,0,0,0,0,0,0,0,-1,594,624,0,0
-623,400,0,0,0,0,0,0,0,0,0,-1,601,624,0,0
-616,400,0,0,0,0,0,0,0,0,0,-1,608,624,0,0
-609,400,0,0,0,0,0,0,0,0,0,-1,615,624,0,0
-602,400,0,0,0,0,0,0,0,0,0,-1,622,624,0,0
-595,400,0,0,0,0,0,0,0,0,0,-1,629,624,0,0
-588,400,0,0,0,0,0,0,0,0,0,-1,636,624,0,0
-581,400,0,0,0,0,0,0,0,0,0,-1,643,624,0,0
-574,400,0,0,0,0,0,0,0,0,0,-1,650,624,0,0
-567,400,0,0,0,0,0,0,0,0,0,-1,657,624,0,0
-560,400,0,0,0,0,0,0,0,0,0,-1,664,624,0,0
-553,400,0,0,0,0,0,0,0,0,0,-1,671,624,0,0
-546,400,-8.41174,-1.4599,0,0,0,0,0,0,0,-1,678,624,-8.41173,1.45989
-539,400,-5.69104,-1.7337,0,0,0,0,0,0,0,-1,685,624,-5.69103,1.7337
-532,400,-3.03632,-2.03912,0,0,0,0,0,0,0,-1,692,624,-3.03632,2.03909
-525,400,-0.330627,-2.44366,0,0,0,0,0,0,0,-1,699,624,-0.330601,2.44365
-518,400,-2.77826,-0.674927,0,0,0,0,0,0,0,-1,706,624,-2.77825,0.674942
-511,400,-3.49084,-2.45331,0,0,0,0,0,0,0,-1,713,624,-3.49086,2.45333
-504,400,-3.5047,-2.03723,0.00291239,-0.00963184,-0.00190407,0.00319503,-0.00991448,-0.147367,0.00789324,0.0488285,720,624,-3.50469,2.03725
-497,400,-3.70227,-1.72198,0.00346565,-0.00804381,-0.0012488,0.00359959,-0.00817775,-0.106845,0.00696879,0.0319147,727,624,-3.70226,1.722
-490,400,-3.76147,-1.79242,0.00388144,-0.00630762,-0.00116156,0.00401218,-0.00643837,-0.112085,0.00608758,0.0158221,734,624,-3.7615,1.79239
-483,400,-3.77441,-2.03143,0.0039617,-0.00483994,-0.0011232,0.00410277,-0.00498101,-0.124946,0.00525269,0.0143601,741,624,-3.77444,2.03141
-476,400,-3.78564,-2.2749,0.00395633,-0.00338973,-0.00122375,0.00415482,-0.00358822,-0.160803,0.00447444,0.0128936,748,624,-3.78563,2.27489
-469,400,-3.78766,-2.54193,0.00366477,-0.00248603,-0.0011602,0.00387634,-0.0026976,-0.180372,0.00381575,0.0141339,755,624,-3.78767,2.54192
-462,400,-3.77972,-2.82513,0.00302443,-0.00156487,-0.00107649,0.00326439,-0.00180483,-0.219324,0.00296688,0.0194979,762,624,-3.77973,2.82516
-455,400,-3.78052,-3.07349,0.00240425,-0.000906774,-0.000706803,0.00254882,-0.00105134,-0.201756,0.00213765,0.0200392,769,624,-3.78049,3.07347
-448,400,-3.78528,-3.30249,0.00230221,-0.000707186,-0.000212766,0.00231718,-0.000722154,-0.0702347,0.00183354,0.015327,776,624,-3.78525,3.30252
-441,400,-3.78851,-3.53149,0.00184334,-0.00137204,0.000406,0.00189381,-0.00142251,0.123682,0.00192111,0.014533,783,624,-3.7885,3.53152
-434,400,-3.80731,-3.78101,0.00136958,-0.00233814,0.00154385,0.00192825,-0.0028968,0.347205,0.00280439,0.010818,790,624,-3.80732,3.78103
-427,400,-3.79755,-4.02051,0.00127718,-0.00396487,0.00303653,0.00266743,-0.00535511,0.429354,0.00471766,0.0096529,797,624,-3.79757,4.0205
-420,400,-3.75067,-4.29468,0.00193266,-0.00652939,0.00457806,0.00393543,-0.00853216,0.412387,0.00735944,0.0125308,804,624,-3.75065,4.29469
-413,400,-3.82257,-4.52753,0.00290982,-0.00972838,0.00666178,0.00577279,-0.0125913,0.405896,0.0108434,0.027287,811,624,-3.82256,4.52755
-406,400,-4.23596,-4.7558,0.00380308,-0.0139948,0.00929914,0.00777525,-0.0179669,0.403693,0.0152456,0.0369172,818,624,-4.23597,4.75579
-399,400,-3.45233,-4.50659,0.00474226,-0.0195371,0.0126441,0.0101309,-0.0249258,0.402873,0.0208322,0.0498916,825,624,-3.45234,4.50657
-392,400,-3.26208,-4.62573,0,0,0,0,0,0,0,-1,832,624,-3.26208,4.62576
-385,400,-3.68738,-5.04205,0,0,0,0,0,0,0,-1,839,624,-3.68736,5.04207
-378,400,-6.84064,-1.28662,0,0,0,0,0,0,0,-1,846,624,-6.84062,1.28662
-371,400,-6.98865,-1.2572,0,0,0,0,0,0,0,-1,853,624,-6.98865,1.25721
-364,400,-6.97247,-1.24133,0,0,0,0,0,0,0,-1,860,624,-6.97249,1.24135
-357,400,-7.18329,-1.23218,0,0,0,0,0,0,0,-1,867,624,-7.18327,1.2322
-350,400,-7.40186,-1.19409,0,0,0,0,0,0,0,-1,874,624,-7.40187,1.19407
-343,400,-8.09357,-1.51147,0,0,0,0,0,0,0,-1,881,624,-8.09355,1.51148
-336,400,0,0,0,0,0,0,0,0,0,-1,888,624,0,0
-329,400,0,0,0,0,0,0,0,0,0,-1,895,624,0,0
-322,400,0,0,0,0,0,0,0,0,0,-1,902,624,0,0
-315,400,0,0,0,0,0,0,0,0,0,-1,909,624,0,0
-308,400,0,0,0,0,0,0,0,0,0,-1,916,624,0,0
-301,400,0,0,0,0,0,0,0,0,0,-1,923,624,0,0
-294,400,0,0,0,0,0,0,0,0,0,-1,930,624,0,0
-287,400,0,0,0,0,0,0,0,0,0,-1,937,624,0,0
-280,400,0,0,0,0,0,0,0,0,0,-1,944,624,0,0
-273,400,0,0,0,0,0,0,0,0,0,-1,951,624,0,0
-266,400,0,0,0,0,0,0,0,0,0,-1,958,624,0,0
-259,400,0,0,0,0,0,0,0,0,0,-1,965,624,0,0
-252,400,0,0,0,0,0,0,0,0,0,-1,972,624,0,0
-245,400,0,0,0,0,0,0,0,0,0,-1,979,624,0,0
-238,400,0,0,0,0,0,0,0,0,0,-1,986,624,0,0
-231,400,0,0,0,0,0,0,0,0,0,-1,993,624,0,0
-224,400,0,0,0,0,0,0,0,0,0,-1,1000,624,0,0
-217,400,0,0,0,0,0,0,0,0,0,-1,1007,624,0,0
-210,400,0,0,0,0,0,0,0,0,0,-1,1014,624,0,0
-203,400,0,0,0,0,0,0,0,0,0,-1,1021,624,0,0
-196,400,0,0,0,0,0,0,0,0,0,-1,1028,624,0,0
-189,400,0,0,0,0,0,0,0,0,0,-1,1035,624,0,0
-182,400,0,0,0,0,0,0,0,0,0,-1,1042,624,0,0
-175,400,0,0,0,0,0,0,0,0,0,-1,1049,624,0,0
-168,400,0,0,0,0,0,0,0,0,0,-1,1056,624,0,0
-161,400,0,0,0,0,0,0,0,0,0,-1,1063,624,0,0
-154,400,0,0,0,0,0,0,0,0,0,-1,1070,624,0,0
-147,400,0,0,0,0,0,0,0,0,0,-1,1077,624,0,0
-140,400,0,0,0,0,0,0,0,0,0,-1,1084,624,0,0
-133,400,0,0,0,0,0,0,0,0,0,-1,1091,624,0,0
-126,400,0,0,0,0,0,0,0,0,0,-1,1098,624,0,0
-119,400,0,0,0,0,0,0,0,0,0,-1,1105,624,0,0
-112,400,0,0,0,0,0,0,0,0,0,-1,1112,624,0,0
-105,400,0,0,0,0,0,0,0,0,0,-1,1119,624,0,0
-98,400,0,0,0,0,0,0,0,0,0,-1,1126,624,0,0
-91,400,0,0,0,0,0,0,0,0,0,-1,1133,624,0,0
-84,400,0,0,0,0,0,0,0,0,0,-1,1140,624,0,0
-77,400,0,0,0,0,0,0,0,0,0,-1,1147,624,0,0
-70,400,0,0,0,0,0,0,0,0,0,-1,1154,624,0,0
-63,400,0,0,0,0,0,0,0,0,0,-1,1161,624,0,0
-56,400,0,0,0,0,0,0,0,0,0,-1,1168,624,0,0
-49,400,0,0,0,0,0,0,0,0,0,-1,1175,624,0,0
-42,400,0,0,0,0,0,0,0,0,0,-1,1182,624,0,0
-35,400,0,0,0,0,0,0,0,0,0,-1,1189,624,0,0
-28,400,0,0,0,0,0,0,0,0,0,-1,1196,624,0,0
-21,400,0,0,0,0,0,0,0,0,0,-1,1203,624,0,0
-14,400,0,0,0,0,0,0,0,0,0,-1,1210,624,0,0
-7,400,0,0,0,0,0,0,0,0,0,-1,1217,624,0,0
0,400,0,0,0,0,0,0,0,0,0,-1,1224,624,0,0
7,400,0,0,0,0,0,0,0,0,0,-1,1231,624,0,0
14,400,0,0,0,0,0,0,0,0,0,-1,1238,624,0,0
21,400,0,0,0,0,0,0,0,0,0,-1,1245,624,0,0
28,400,0,0,0,0,0,0,0,0,0,-1,1252,624,0,0
35,400,0,0,0,0,0,0,0,0,0,-1,1259,624,0,0
42,400,0,0,0,0,0,0,0,0,0,-1,1266,624,0,0
49,400,0,0,0,0,0,0,0,0,0,-1,1273,624,0,0
56,400,0,0,0,0,0,0,0,0,0,-1,1280,624,0,0
63,400,0,0,0,0,0,0,0,0,0,-1,1287,624,0,0
70,400,0,0,0,0,0,0,0,0,0,-1,1294,624,0,0
77,400,0,0,0,0,0,0,0,0,0,-1,1301,624,0,0
84,400,0,0,0,0,0,0,0,0,0,-1,1308,624,0,0
91,400,0,0,0,0,0,0,0,0,0,-1,1315,624,0,0
98,400,0,0,0,0,0,0,0,0,0,-1,1322,624,0,0
105,400,0,0,0,0,0,0,0,0,0,-1,1329,624,0,0
112,400,0,0,0,0,0,0,0,0,0,-1,1336,624,0,0
119,400,0,0,0,0,0,0,0,0,0,-1,1343,624,0,0
126,400,0,0,0,0,0,0,0,0,0,-1,1350,624,0,0
133,400,0,0,0,0,0,0,0,0,0,-1,1357,624,0,0
140,400,0,0,0,0,0,0,0,0,0,-1,1364,624,0,0
147,400,0,0,0,0,0,0,0,0,0,-1,1371,624,0,0
154,400,0,0,0,0,0,0,0,0,0,-1,1378,624,0,0
161,400,0,0,0,0,0,0,0,0,0,-1,1385,624,0,0
168,400,0,0,0,0,0,0,0,0,0,-1,1392,624,0,0
175,400,0,0,0,0,0,0,0,0,0,-1,1399,624,0,0
182,400,0,0,0,0,0,0,0,0,0,-1,1406,624,0,0
189,400,0,0,0,0,0,0,0,0,0,-1,1413,624,0,0
196,400,0,0,0,0,0,0,0,0,0,-1,1420,624,0,0
203,400,0,0,0,0,0,0,0,0,0,-1,1427,624,0,0
210,400,0,0,0,0,0,0,0,0,0,-1,1434,624,0,0
217,400,0,0,0,0,0,0,0,0,0,-1,1441,624,0,0
224,400,0,0,0,0,0,0,0,0,0,-1,1448,624,0,0
231,400,0,0,0,0,0,0,0,0,0,-1,1455,624,0,0
238,400,0,0,0,0,0,0,0,0,0,-1,1462,624,0,0
245,400,0,0,0,0,0,0,0,0,0,-1,1469,624,0,0
252,400,0,0,0,0,0,0,0,0,0,-1,1476,624,0,0
259,400,0,0,0,0,0,0,0,0,0,-1,1483,624,0,0
266,400,0,0,0,0,0,0,0,0,0,-1,1490,624,0,0
273,400,0,0,0,0,0,0,0,0,0,-1,1497,624,0,0
280,400,0,0,0,0,0,0,0,0,0,-1,1504,624,0,0
287,400,0,0,0,0,0,0,0,0,0,-1,1511,624,0,0
294,400,0,0,0,0,0,0,0,0,0,-1,1518,624,0,0
301,400,0,0,0,0,0,0,0,0,0,-1,1525,624,0,0
308,400,0,0,0,0,0,0,0,0,0,-1,1532,624,0,0
315,400,0,0,0,0,0,0,0,0,0,-1,1539,624,0,0
322,400,0,0,0,0,0,0,0,0,0,-1,1546,624,0,0
329,400,0,0,0,0,0,0,0,0,0,-1,1553,624,0,0
336,400,0,0,0,0,0,0,0,0,0,-1,1560,624,0,0
343,400,0,0,0,0,0,0,0,0,0,-1,1567,624,0,0
350,400,0,0,0,0,0,0,0,0,0,-1,1574,624,0,0
357,400,0,0,0,0,0,0,0,0,0,-1,1581,624,0,0
364,400,0,0,0,0,0,0,0,0,0,-1,1588,624,0,0
371,400,0,0,0,0,0,0,0,0,0,-1,1595,624,0,0
378,400,0,0,0,0,0,0,0,0,0,-1,1602,624,0,0
385,400,0,0,0,0,0,0,0,0,0,-1,1609,624,0,0
392,400,0,0,0,0,0,0,0,0,0,-1,1616,624,0,0
399,400,0,0,0,0,0,0,0,0,0,-1,1623,624,0,0
406,400,0,0,0,0,0,0,0,0,0,-1,1630,624,0,0
413,400,0,0,0,0,0,0,0,0,0,-1,1637,624,0,0
420,400,0,0,0,0,0,0,0,0,0,-1,1644,624,0,0
427,400,0,0,0,0,0,0,0,0,0,-1,1651,624,0,0
434,400,0,0,0,0,0,0,0,0,0,-1,1658,624,0,0
441,400,0,0,0,0,0,0,0,0,0,-1,1665,624,0,0
448,400,0,0,0,0,0,0,0,0,0,-1,1672,624,0,0
455,400,8.91309,2.75885,0,0,0,0,0,0,0,-1,1679,624,8.91312,-2.75885
462,400,8.90356,2.37878,0,0,0,0,0,0,0,-1,1686,624,8.90353,-2.37878
469,400,9.14429,1.76849,0,0,0,0,0,0,0,-1,1693,624,9.14432,-1.76847
476,400,9.23254,1.25995,0,0,0,0,0,0,0,-1,1700,624,9.23252,-1.25994
483,400,9.59766,0.562439,0,0,0,0,0,0,0,-1,1707,624,9.59771,-0.56242
490,400,9.92578,-0.213745,0,0,0,0,0,0,0,-1,1714,624,9.92579,0.21376
497,400,9.19141,0.175232,0,0,0,0,0,0,0,-1,1721,624,9.19138,-0.175209
504,400,9.23438,0.00823975,0,0,0,0,0,0,0,-1,1728,624,9.23436,-0.00823766
511,400,6.16687,3.3501,0,0,0,0,0,0,0,-1,1735,624,6.16682,-3.35007
518,400,6.55237,1.74994,0,0,0,0,0,0,0,-1,1742,624,6.55236,-1.74993
525,400,6.99731,1.08783,0,0,0,0,0,0,0,-1,1749,624,6.99736,-1.08785
532,400,6.96582,-1.74982,0,0,0,0,0,0,0,-1,1756,624,6.96585,1.74983
539,400,9.91052,-2.96527,0,0,0,0,0,0,0,-1,1763,624,9.91057,2.96528
546,400,9.86145,-2.73462,-0.000163394,0.00218262,0.00102013,0.00256416,-0.000544929,1.2129,0.00191708,0.0259919,1770,624,9.86151,2.73462
553,400,9.76904,-2.41656,-0.000551637,0.001486,0.000475752,0.00159161,-0.000657243,1.35236,0.00133521,0.0156157,1777,624,9.76906,2.41655
560,400,9.79126,-2.11383,-0.00079137,0.000937324,7.65263e-05,0.000940706,-0.000794751,1.52664,0.00100315,0.0129825,1784,624,9.79129,2.11386
567,400,9.83105,-1.88031,-0.000848839,0.000539242,-0.000152182,0.00055573,-0.000865328,-1.46287,0.000826913,0.016077,1791,624,9.83101,1.8803
574,400,9.79431,-1.62329,-0.000619305,0.000360331,-0.000150691,0.000382987,-0.000641961,-1.42157,0.000598017,0.018932,1798,624,9.79433,1.6233
581,400,9.76501,-1.33966,-0.000177164,0.000402061,3.1703e-05,0.000403791,-0.000178894,1.51628,0.000344665,0.0172916,1805,624,9.76497,1.33964
588,400,9.79175,-1.07813,0.000399403,0.000626509,0.000391157,0.000920261,0.000105651,0.926665,0.000581499,0.0137495,1812,624,9.79178,1.07813
595,400,9.81201,-0.844971,0.00121139,0.00104094,0.000917065,0.00204718,0.000205152,0.739065,0.00130181,0.0133895,1819,624,9.81205,0.844972
602,400,9.82214,-0.572937,0.00207503,0.00171806,0.00159617,0.00350266,0.000290427,0.72972,0.00224457,0.0133466,1826,624,9.82209,0.572959
609,400,9.78125,-0.273193,0.00262196,0.00234214,0.00219887,0.00468537,0.000278736,0.753627,0.00303493,0.0134306,1833,624,9.7812,0.273168
616,400,9.76819,0.000366211,0.00302963,0.00346219,0.00289092,0.0061449,0.00034691,0.822735,0.003986,0.0159212,1840,624,9.76814,-0.000389252
623,400,9.99133,0.377319,0.00337028,0.00460375,0.00361076,0.00765007,0.000323963,0.869984,0.00499556,0.0400807,1847,624,9.99139,-0.377328
630,400,10.2943,0.706604,0,0,0,0,0,0,0,-1,1854,624,10.2943,-0.706602
637,400,6.92896,1.01917,0,0,0,0,0,0,0,-1,1861,624,6.92899,-1.01918
644,400,8.65381,1.4599,0,0,0,0,0,0,0,-1,1868,624,8.65379,-1.45991
651,400,7.90601,0.424072,0,0,0,0,0,0,0,-1,1875,624,7.90598,-0.424097
658,400,8.69031,1.0484,0,0,0,0,0,0,0,-1,1882,624,8.6903,-1.0484
665,400,5.98438,0.522522,0,0,0,0,0,0,0,-1,1889,624,5.98442,-0.522552
672,400,0,0,0,0,0,0,0,0,0,-1,1896,624,0,0
679,400,0,0,0,0,0,0,0,0,0,-1,1903,624,0,0
686,400,0,0,0,0,0,0,0,0,0,-1,1910,624,0,0
693,400,0,0,0,0,0,0,0,0,0,-1,1917,624,0,0
700,400,0,0,0,0,0,0,0,0,0,-1,1924,624,0,0
707,400,0,0,0,0,0,0,0,0,0,-1,1931,624,0,0
714,400,0,0,0,0,0,0,0,0,0,-1,1938,624,0,0
721,400,0,0,0,0,0,0,0,0,0,-1,1945,624,0,0
728,400,0,0,0,0,0,0,0,0,0,-1,1952,624,0,0
735,400,0,0,0,0,0,0,0,0,0,-1,1959,624,0,0
742,400,0,0,0,0,0,0,0,0,0,-1,1966,624,0,0
749,400,0,0,0,0,0,0,0,0,0,-1,1973,624,0,0
756,400,0,0,0,0,0,0,0,0,0,-1,1980,624,0,0
763,400,0,0,0,0,0,0,0,0,0,-1,1987,624,0,0
770,400,0,0,0,0,0,0,0,0,0,-1,1994,624,0,0
777,400,0,0,0,0,0,0,0,0,0,-1,2001,624,0,0
784,400,0,0,0,0,0,0,0,0,0,-1,2008,624,0,0
791,400,0,0,0,0,0,0,0,0,0,-1,2015,624,0,0
798,400,0,0,0,0,0,0,0,0,0,-1,2022,624,0,0
805,400,0,0,0,0,0,0,0,0,0,-1,2029,624,0,0
812,400,0,0,0,0,0,0,0,0,0,-1,2036,624,0,0
-700,393,0,0,0,0,0,0,0,0,0,-1,524,631,0,0
-693,393,0,0,0,0,0,0,0,0,0,-1,531,631,0,0
-686,393,0,0,0,0,0,0,0,0,0,-1,538,631,0,0
-679,393,0,0,0,0,0,0,0,0,0,-1,545,631,0,0
-672,393,0,0,0,0,0,0,0,0,0,-1,552,631,0,0
-665,393,0,0,0,0,0,0,0,0,0,-1,559,631,0,0
-658,393,0,0,0,0,0,0,0,0,0,-1,566,631,0,0
-651,393,0,0,0,0,0,0,0,0,0,-1,573,631,0,0
-644,393,0,0,0,0,0,0,0,0,0,-1,580,631,0,0
-637,393,0,0,0,0,0,0,0,0,0,-1,587,631,0,0
-630,393,0,0,0,0,0,0,0,0,0,-1,594,631,0,0
-623,393,0,0,0,0,0,0,0,0,0,-1,601,631,0,0
-616,393,0,0,0,0,0,0,0,0,0,-1,608,631,0,0
-609,393,0,0,0,0,0,0,0,0,0,-1,615,631,0,0
-602,393,0,0,0,0,0,0,0,0,0,-1,622,631,0,0
-595,393,0,0,0,0,0,0,0,0,0,-1,629,631,0,0
-588,393,0,0,0,0,0,0,0,0,0,-1,636,631,0,0
-581,393,0,0,0,0,0,0,0,0,0,-1,643,631,0,0
-574,393,0,0,0,0,0,0,0,0,0,-1,650,631,0,0
-567,393,0,0,0,0,0,0,0,0,0,-1,657,631,0,0
-560,393,0,0,0,0,0,0,0,0,0,-1,664,631,0,0
-553,393,-2.35107,3.92633,0,0,0,0,0,0,0,-1,671,631,-2.35108,-3.92634
-546,393,-1.78778,2.4856,0,0,0,0,0,0,0,-1,678,631,-1.78778,-2.48557
-539,393,-5.2113,-2.20245,0,0,0,0,0,0,0,-1,685,631,-5.21128,2.20247
-532,393,-2.83643,-2.01624,0,0,0,0,0,0,0,-1,692,631,-2.83642,2.01626
-525,393,-4.12323,0.471191,0,0,0,0,0,0,0,-1,699,631,-4.12323,-0.47119
-518,393,-3.78778,-0.330444,0,0,0,0,0,0,0,-1,706,631,-3.78778,0.330463
-511,393,-3.3161,-1.20508,0,0,0,0,0,0,0,-1,713,631,-3.31609,1.2051
-504,393,-3.67615,-1.39508,0.00102508,-0.0071933,-0.00177864,0.0013935,-0.00756172,-0.204248,0.00556412,0.0485016,720,631,-3.67613,1.3951
-497,393,-4.04486,-1.492,0.00148635,-0.00615056,-0.00095422,0.00160377,-0.00626798,-0.122441,0.00480334,0.0242651,727,631,-4.04484,1.49199
-490,393,-4.03748,-1.79388,0.001924,-0.00474435,-0.000739754,0.00200507,-0.00482543,-0.109167,0.0040541,0.0139507,734,631,-4.0375,1.79387
-483,393,-4.02496,-2.01416,0.00211673,-0.00374408,-0.000641122,0.00218604,-0.00381339,-0.107695,0.00350599,0.0188311,741,631,-4.02494,2.01414
-476,393,-4.01349,-2.24579,0.00231736,-0.00260909,-0.000753357,0.00242999,-0.00272172,-0.148404,0.00297593,0.0156322,748,631,-4.01352,2.24582
-469,393,-4.0354,-2.52167,0.00228433,-0.00193581,-0.000760817,0.0024173,-0.00206878,-0.173028,0.00259264,0.0126952,755,631,-4.03541,2.52164
-462,393,-4.04059,-2.8172,0.0018795,-0.00115324,-0.000764014,0.0020611,-0.00133484,-0.233359,0.00197553,0.0148039,762,631,-4.04058,2.81722
-455,393,-4.05487,-3.08282,0.00154384,-0.000564332,-0.00045902,0.00163945,-0.00065994,-0.205351,0.00136712,0.0138413,769,631,-4.05487,3.08282
-448,393,-4.04913,-3.32141,0.00169059,-0.00058371,2.10053e-05,0.00169078,-0.000583904,0.00923488,0.00136413,0.0138214,776,631,-4.04916,3.32139
-441,393,-4.04449,-3.54852,0.00137921,-0.0014345,0.000691989,0.00154018,-0.00159547,0.228561,0.00181047,0.0125331,783,631,-4.04448,3.54852
-434,393,-4.05597,-3.76709,0.00106916,-0.00249352,0.00189139,0.001886,-0.00331036,0.407678,0.00303746,0.0105828,790,631,-4.056,3.76709
-427,393,-4.00891,-4.02087,0.00118987,-0.00429935,0.00347857,0.00287621,-0.00598569,0.451398,0.00522035,0.0157586,797,631,-4.00892,4.02089
-420,393,-3.98932,-4.2627,0.00231811,-0.00714903,0.00510511,0.0045465,-0.00937742,0.411572,0.00819867,0.0313472,804,631,-3.9893,4.26272
-413,393,-4.315,-4.35828,0.00376794,-0.0108354,0.00751627,0.00694524,-0.0140127,0.39994,0.0123273,0.0457205,811,631,-4.31501,4.35829
-406,393,-4.89465,-4.97614,0,0,0,0,0,0,0,-1,818,631,-4.89467,4.97614
-399,393,-3.5332,-4.28491,0,0,0,0,0,0,0,-1,825,631,-3.53323,4.28494
-392,393,-2.08063,-3.02386,0,0,0,0,0,0,0,-1,832,631,-2.08063,3.02384
-385,393,-3.16931,-0.624756,0,0,0,0,0,0,0,-1,839,631,-3.16928,0.624764
-378,393,-7.33081,-0.872314,0,0,0,0,0,0,0,-1,846,631,-7.33081,0.872325
-371,393,-7.47858,-0.811096,0,0,0,0,0,0,0,-1,853,631,-7.47859,0.811075
-364,393,-7.64917,-0.662415,0,0,0,0,0,0,0,-1,860,631,-7.64917,0.662406
-357,393,-8.09686,-0.726013,0,0,0,0,0,0,0,-1,867,631,-8.09689,0.726029
-350,393,-8.38788,-0.511841,0,0,0,0,0,0,0,-1,874,631,-8.38785,0.511811
-343,393,0,0,0,0,0,0,0,0,0,-1,881,631,0,0
-336,393,0,0,0,0,0,0,0,0,0,-1,888,631,0,0
-329,393,0,0,0,0,0,0,0,0,0,-1,895,631,0,0
-322,393,0,0,0,0,0,0,0,0,0,-1,902,631,0,0
-315,393,0,0,0,0,0,0,0,0,0,-1,909,631,0,0
-308,393,0,0,0,0,0,0,0,0,0,-1,916,631,0,0
-301,393,0,0,0,0,0,0,0,0,0,-1,923,631,0,0
-294,393,0,0,0,0,0,0,0,0,0,-1,930,631,0,0
-287,393,0,0,0,0,0,0,0,0,0,-1,937,631,0,0
-280,393,0,0,0,0,0,0,0,0,0,-1,944,631,0,0
-273,393,0,0,0,0,0,0,0,0,0,-1,951,631,0,0
-266,393,0,0,0,0,0,0,0,0,0,-1,958,631,0,0
-259,393,0,0,0,0,0,0,0,0,0,-1,965,631,0,0
-252,393,0,0,0,0,0,0,0,0,0,-1,972,631,0,0
-245,393,0,0,0,0,0,0,0,0,0,-1,979,631,0,0
-238,393,0,0,0,0,0,0,0,0,0,-1,986,631,0,0
-231,393,0,0,0,0,0,0,0,0,0,-1,993,631,0,0
-224,393,0,0,0,0,0,0,0,0,0,-1,1000,631,0,0
-217,393,0,0,0,0,0,0,0,0,0,-1,1007,631,0,0
-210,393,0,0,0,0,0,0,0,0,0,-1,1014,631,0,0
-203,393,0,0,0,0,0,0,0,0,0,-1,1021,631,0,0
-196,393,0,0,0,0,0,0,0,0,0,-1,1028,631,0,0
-189,393,0,0,0,0,0,0,0,0,0,-1,1035,631,0,0
-182,393,0,0,0,0,0,0,0,0,0,-1,1042,631,0,0
-175,393,0,0,0,0,0,0,0,0,0,-1,1049,631,0,0
-168,393,0,0,0,0,0,0,0,0,0,-1,1056,631,0,0
-161,393,0,0,0,0,0,0,0,0,0,-1,1063,631,0,0
-154,393,0,0,0,0,0,0,0,0,0,-1,1070,631,0,0
-147,393,0,0,0,0,0,0,0,0,0,-1,1077,631,0,0
-140,393,0,0,0,0,0,0,0,0,0,-1,1084,631,0,0
-133,393,0,0,0,0,0,0,0,0,0,-1,1091,631,0,0
-126,393,0,0,0,0,0,0,0,0,0,-1,1098,631,0,0
-119,393,0,0,0,0,0,0,0,0,0,-1,1105,631,0,0
-112,393,0,0,0,0,0,0,0,0,0,-1,1112,631,0,0
-105,393,0,0,0,0,0,0,0,0,0,-1,1119,631,0,0
-98,393,0,0,0,0,0,0,0,0,0,-1,1126,631,0,0
-91,393,0,0,0,0,0,0,0,0,0,-1,1133,631,0,0
-84,393,0,0,0,0,0,0,0,0,0,-1,1140,631,0,0
-77,393,0,0,0,0,0,0,0,0,0,-1,1147,631,0,0
-70,393,0,0,0,0,0,0,0,0,0,-1,1154,631,0,0
-63,393,0,0,0,0,0,0,0,0,0,-1,1161,631,0,0
-56,393,0,0,0,0,0,0,0,0,0,-1,1168,631,0,0
-49,393,0,0,0,0,0,0,0,0,0,-1,1175,631,0,0
-42,393,0,0,0,0,0,0,0,0,0,-1,1182,631,0,0
-35,393,0,0,0,0,0,0,0,0,0,-1,1189,631,0,0
-28,393,0,0,0,0,0,0,0,0,0,-1,1196,631,0,0
-21,393,0,0,0,0,0,0,0,0,0,-1,1203,631,0,0
-14,393,0,0,0,0,0,0,0,0,0,-1,1210,631,0,0
-7,393,0,0,0,0,0,0,0,0,0,-1,1217,631,0,0
0,393,0,0,0,0,0,0,0,0,0,-1,1224,631,0,0
7,393,0,0,0,0,0,0,0,0,0,-1,1231,631,0,0
14,393,0,0,0,0,0,0,0,0,0,-1,1238,631,0,0
21,393,0,0,0,0,0,0,0,0,0,-1,1245,631,0,0
28,393,0,0,0,0,0,0,0,0,0,-1,1252,631,0,0
35,393,0,0,0,0,0,0,0,0,0,-1,1259,631,0,0
42,393,0,0,0,0,0,0,0,0,0,-1,1266,631,0,0
49,393,0,0,0,0,0,0,0,0,0,-1,1273,631,0,0
56,393,0,0,0,0,0,0,0,0,0,-1,1280,631,0,0
63,393,0,0,0,0,0,0,0,0,0,-1,1287,631,0,0
70,393,0,0,0,0,0,0,0,0,0,-1,1294,631,0,0
77,393,0,0,0,0,0,0,0,0,0,-1,1301,631,0,0
84,393,0,0,0,0,0,0,0,0,0,-1,1308,631,0,0
91,393,0,0,0,0,0,0,0,0,0,-1,1315,631,0,0
98,393,0,0,0,0,0,0,0,0,0,-1,1322,631,0,0
105,393,0,0,0,0,0,0,0,0,0,-1,1329,631,0,0
112,393,0,0,0,0,0,0,0,0,0,-1,1336,631,0,0
119,393,0,0,0,0,0,0,0,0,0,-1,1343,631,0,0
126,393,0,0,0,0,0,0,0,0,0,-1,1350,631,0,0
133,393,0,0,0,0,0,0,0,0,0,-1,1357,631,0,0
140,393,0,0,0,0,0,0,0,0,0,-1,1364,631,0,0
147,393,0,0,0,0,0,0,0,0,0,-1,1371,631,0,0
154,393,0,0,0,0,0,0,0,0,0,-1,1378,631,0,0
161,393,0,0,0,0,0,0,0,0,0,-1,1385,631,0,0
168,393,0,0,0,0,0,0,0,0,0,-1,1392,631,0,0
175,393,0,0,0,0,0,0,0,0,0,-1,1399,631,0,0
182,393,0,0,0,0,0,0,0,0,0,-1,1406,631,0,0
189,393,0,0,0,0,0,0,0,0,0,-1,1413,631,0,0
196,393,0,0,0,0,0,0,0,0,0,-1,1420,631,0,0
203,393,0,0,0,0,0,0,0,0,0,-1,1427,631,0,0
210,393,0,0,0,0,0,0,0,0,0,-1,1434,631,0,0
217,393,0,0,0,0,0,0,0,0,0,-1,1441,631,0,0
224,393,0,0,0,0,0,0,0,0,0,-1,1448,631,0,0
231,393,0,0,0,0,0,0,0,0,0,-1,1455,631,0,0
238,393,0,0,0,0,0,0,0,0,0,-1,1462,631,0,0
245,393,0,0,0,0,0,0,0,0,0,-1,1469,631,0,0
252,393,0,0,0,0,0,0,0,0,0,-1,1476,631,0,0
259,393,0,0,0,0,0,0,0,0,0,-1,1483,631,0,0
266,393,0,0,0,0,0,0,0,0,0,-1,1490,631,0,0
273,393,0,0,0,0,0,0,0,0,0,-1,1497,631,0,0
280,393,0,0,0,0,0,0,0,0,0,-1,1504,631,0,0
287,393,0,0,0,0,0,0,0,0,0,-1,1511,631,0,0
294,393,0,0,0,0,0,0,0,0,0,-1,1518,631,0,0
301,393,0,0,0,0,0,0,0,0,0,-1,1525,631,0,0
308,393,0,0,0,0,0,0,0,0,0,-1,1532,631,0,0
315,393,0,0,0,0,0,0,0,0,0,-1,1539,631,0,0
322,393,0,0,0,0,0,0,0,0,0,-1,1546,631,0,0
329,393,0,0,0,0,0,0,0,0,0,-1,1553,631,0,0
336,393,0,0,0,0,0,0,0,0,0,-1,1560,631,0,0
343,393,0,0,0,0,0,0,0,0,0,-1,1567,631,0,0
350,393,0,0,0,0,0,0,0,0,0,-1,1574,631,0,0
357,393,0,0,0,0,0,0,0,0,0,-1,1581,631,0,0
364,393,0,0,0,0,0,0,0,0,0,-1,1588,631,0,0
371,393,0,0,0,0,0,0,0,0,0,-1,1595,631,0,0
378,393,0,0,0,0,0,0,0,0,0,-1,1602,631,0,0
385,393,0,0,0,0,0,0,0,0,0,-1,1609,631,0,0
392,393,0,0,0,0,0,0,0,0,0,-1,1616,631,0,0
399,393,0,0,0,0,0,0,0,0,0,-1,1623,631,0,0
406,393,0,0,0,0,0,0,0,0,0,-1,1630,631,0,0
413,393,0,0,0,0,0,0,0,0,0,-1,1637,631,0,0
420,393,0,0,0,0,0,0,0,0,0,-1,1644,631,0,0
427,393,0,0,0,0,0,0,0,0,0,-1,1651,631,0,0
434,393,0,0,0,0,0,0,0,0,0,-1,1658,631,0,0
441,393,0,0,0,0,0,0,0,0,0,-1,1665,631,0,0
448,393,0,0,0,0,0,0,0,0,0,-1,1672,631,0,0
455,393,0,0,0,0,0,0,0,0,0,-1,1679,631,0,0
462,393,8.51099,1.89502,0,0,0,0,0,0,0,-1,1686,631,8.51103,-1.89504
469,393,9.39465,1.51703,0,0,0,0,0,0,0,-1,1693,631,9.39465,-1.51703
476,393,9.95569,1.185,0,0,0,0,0,0,0,-1,1700,631,9.95575,-1.18497
483,393,10.5267,0.887329,0,0,0,0,0,0,0,-1,1707,631,10.5267,-0.887321
490,393,10.9303,0.761414,0,0,0,0,0,0,0,-1,1714,631,10.9303,-0.761386
497,393,8.32153,1.88104,0,0,0,0,0,0,0,-1,1721,631,8.32148,-1.88103
504,393,9.46985,1.78711,0,0,0,0,0,0,0,-1,1728,631,9.46986,-1.78713
511,393,9.66565,-0.375977,0,0,0,0,0,0,0,-1,1735,631,9.66571,0.375949
518,393,7.01599,1.62482,0,0,0,0,0,0,0,-1,1742,631,7.01597,-1.62483
525,393,7.88245,-1.13422,0,0,0,0,0,0,0,-1,1749,631,7.88246,1.13423
532,393,7.06335,-1.18103,0,0,0,0,0,0,0,-1,1756,631,7.06332,1.18101
539,393,9.91626,-2.46301,0,0,0,0,0,0,0,-1,1763,631,9.91625,2.46302
546,393,10.168,-2.7594,0,0,0,0,0,0,0,-1,1770,631,10.1679,2.75939
553,393,10.0676,-2.4035,-0.00164668,0.00188211,0.000263718,0.00190171,-0.00166628,1.49661,0.00206147,0.0229233,1777,631,10.0676,2.40352
560,393,10.0779,-2.14966,-0.00178449,0.00114082,-0.000219398,0.00115719,-0.00180085,-1.49635,0.00172125,0.0139292,1784,631,10.0779,2.14963
567,393,10.0667,-1.8645,-0.00175682,0.000579539,-0.00050929,0.00068573,-0.00186301,-1.36523,0.00152294,0.0135323,1791,631,10.0667,1.8645
574,393,10.0734,-1.60748,-0.00145515,0.000290804,-0.00055666,0.000453181,-0.00161753,-1.28697,0.00125695,0.0152096,1798,631,10.0733,1.60746
581,393,10.0575,-1.33795,-0.000914602,0.000253806,-0.000388661,0.00037128,-0.00103208,-1.27727,0.000839634,0.0145522,1805,631,10.0575,1.33793
588,393,10.058,-1.07477,-0.000237421,0.000432499,-3.22701e-05,0.00043405,-0.000238972,-1.52277,0.000393973,0.0162954,1812,631,10.0579,1.07477
595,393,10.0774,-0.822876,0.0006461,0.000806043,0.00048216,0.00121482,0.000237324,0.867581,0.000743505,0.0143143,1819,631,10.0774,0.822887
602,393,10.0734,-0.562378,0.00153816,0.00144121,0.00113471,0.00262543,0.000353937,0.764051,0.00164505,0.0159685,1826,631,10.0734,0.562361
609,393,10.0542,-0.277527,0.00200582,0.00206121,0.00167834,0.00371208,0.000354946,0.793648,0.0023653,0.0147032,1833,631,10.0542,0.277509
616,393,10.0432,0.00231934,0.00228838,0.00294959,0.00218472,0.00482858,0.000409397,0.860492,0.00309164,0.0141984,1840,631,10.0432,-0.00233461
623,393,10.0687,0.299866,0.00248815,0.00395785,0.00266923,0.00599154,0.000454466,0.919722,0.00385182,0.0206834,1847,631,10.0687,-0.299869
630,393,10.2126,0.652527,0.00218166,0.0049271,0.00282721,0.00669723,0.000411534,1.0114,0.00433416,0.0416508,1854,631,10.2126,-0.65254
637,393,10.2751,1.07501,0,0,0,0,0,0,0,-1,1861,631,10.2752,-1.07499
644,393,8.97583,1.30585,0,0,0,0,0,0,0,-1,1868,631,8.97586,-1.30584
651,393,9.58679,0.726563,0,0,0,0,0,0,0,-1,1875,631,9.58684,-0.726583
658,393,9.21338,1.50836,0,0,0,0,0,0,0,-1,1882,631,9.21338,-1.50834
665,393,6.1001,2.32129,0,0,0,0,0,0,0,-1,1889,631,6.10012,-2.3213
672,393,7.14575,2.43225,0,0,0,0,0,0,0,-1,1896,631,7.14572,-2.43222
679,393,0,0,0,0,0,0,0,0,0,-1,1903,631,0,0
686,393,0,0,0,0,0,0,0,0,0,-1,1910,631,0,0
693,393,0,0,0,0,0,0,0,0,0,-1,1917,631,0,0
700,393,0,0,0,0,0,0,0,0,0,-1,1924,631,0,0
707,393,0,0,0,0,0,0,0,0,0,-1,1931,631,0,0
714,393,0,0,0,0,0,0,0,0,0,-1,1938,631,0,0
721,393,0,0,0,0,0,0,0,0,0,-1,1945,631,0,0
728,393,0,0,0,0,0,0,0,0,0,-1,1952,631,0,0
735,393,0,0,0,0,0,0,0,0,0,-1,1959,631,0,0
742,393,0,0,0,0,0,0,0,0,0,-1,1966,631,0,0
749,393,0,0,0,0,0,0,0,0,0,-1,1973,631,0,0
756,393,0,0,0,0,0,0,0,0,0,-1,1980,631,0,0
763,393,0,0,0,0,0,0,0,0,0,-1,1987,631,0,0
770,393,0,0,0,0,0,0,0,0,0,-1,1994,631,0,0
777,393,0,0,0,0,0,0,0,0,0,-1,2001,631,0,0
784,393,0,0,0,0,0,0,0,0,0,-1,2008,631,0,0
791,393,0,0,0,0,0,0,0,0,0,-1,2015,631,0,0
798,393,0,0,0,0,0,0,0,0,0,-1,2022,631,0,0
805,393,0,0,0,0,0,0,0,0,0,-1,2029,631,0,0
812,393,0,0,0,0,0,0,0,0,0,-1,2036,631,0,0
-700,386,0,0,0,0,0,0,0,0,0,-1,524,638,0,0
-693,386,0,0,0,0,0,0,0,0,0,-1,531,638,0,0
-686,386,0,0,0,0,0,0,0,0,0,-1,538,638,0,0
-679,386,0,0,0,0,0,0,0,0,0,-1,545,638,0,0
-672,386,0,0,0,0,0,0,0,0,0,-1,552,638,0,0
-665,386,0,0,0,0,0,0,0,0,0,-1,559,638,0,0
-658,386,0,0,0,0,0,0,0,0,0,-1,566,638,0,0
-651,386,0,0,0,0,0,0,0,0,0,-1,573,638,0,0
-644,386,0,0,0,0,0,0,0,0,0,-1,580,638,0,0
-637,386,0,0,0,0,0,0,0,0,0,-1,587,638,0,0
-630,386,0,0,0,0,0,0,0,0,0,-1,594,638,0,0
-623,386,0,0,0,0,0,0,0,0,0,-1,601,638,0,0
-616,386,0,0,0,0,0,0,0,0,0,-1,608,638,0,0
-609,386,0,0,0,0,0,0,0,0,0,-1,615,638,0,0
-602,386,0,0,0,0,0,0,0,0,0,-1,622,638,0,0
-595,386,0,0,0,0,0,0,0,0,0,-1,629,638,0,0
-588,386,0,0,0,0,0,0,0,0,0,-1,636,638,0,0
-581,386,0,0,0,0,0,0,0,0,0,-1,643,638,0,0
-574,386,0,0,0,0,0,0,0,0,0,-1,650,638,0,0
-567,386,0,0,0,0,0,0,0,0,0,-1,657,638,0,0
-560,386,-3.05145,4.98737,0,0,0,0,0,0,0,-1,664,638,-3.05144,-4.98737
-553,386,-2.34491,3.22894,0,0,0,0,0,0,0,-1,671,638,-2.34489,-3.22893
-546,386,-1.78668,1.72827,0,0,0,0,0,0,0,-1,678,638,-1.78668,-1.72829
-539,386,-0.879456,-2.90009,0,0,0,0,0,0,0,-1,685,638,-0.879442,2.90008
-532,386,-4.83362,1.61053,0,0,0,0,0,0,0,-1,692,638,-4.83361,-1.61051
-525,386,-4.17273,-0.159973,0,0,0,0,0,0,0,-1,699,638,-4.1727,0.159978
-518,386,-4.21503,-0.867981,0,0,0,0,0,0,0,-1,706,638,-4.21506,0.867981
-511,386,-4.07745,-1.09015,0,0,0,0,0,0,0,-1,713,638,-4.07747,1.09013
-504,386,-4.19629,-1.37659,0,0,0,0,0,0,0,-1,720,638,-4.1963,1.3766
-497,386,-4.30121,-1.56732,0.000411471,-0.00416779,-0.00101859,0.000627818,-0.00438413,-0.209289,0.00315293,0.0125341,727,638,-4.3012,1.56732
-490,386,-4.29779,-1.81604,0.000770175,-0.00321592,-0.000584415,0.000854092,-0.00329984,-0.142616,0.00253305,0.0123297,734,638,-4.29777,1.81603
-483,386,-4.28119,-2.06531,0.00100553,-0.0026204,-0.000387517,0.00104648,-0.00266135,-0.105289,0.00220736,0.0164743,741,638,-4.28122,2.06531
-476,386,-4.25708,-2.29761,0.00132542,-0.00179323,-0.000487207,0.00139976,-0.00186757,-0.151418,0.00189283,0.0152379,748,638,-4.25706,2.29759
-469,386,-4.27258,-2.52911,0.00146736,-0.00133193,-0.000551541,0.00157211,-0.00143668,-0.187687,0.00173771,0.0117329,755,638,-4.27261,2.5291
-462,386,-4.27783,-2.80701,0.00123998,-0.000698561,-0.000631045,0.0014273,-0.000885882,-0.288557,0.00134765,0.0106576,762,638,-4.27784,2.80703
-455,386,-4.29309,-3.07843,0.00111811,-0.000206617,-0.000390882,0.00122484,-0.000313354,-0.266566,0.000938615,0.0111381,769,638,-4.29306,3.07843
-448,386,-4.28442,-3.32281,0.00142737,-0.000486506,8.11557e-05,0.00143081,-0.000489941,0.0423026,0.00115244,0.0117759,776,638,-4.28442,3.3228
-441,386,-4.29114,-3.54254,0.00122185,-0.0015518,0.000823596,0.00144797,-0.00177792,0.267951,0.00186571,0.0119758,783,638,-4.29115,3.54254
-434,386,-4.26855,-3.80859,0.00106089,-0.00273953,0.00209794,0.00199126,-0.0036699,0.417407,0.00331602,0.0202073,790,638,-4.26853,3.80861
-427,386,-4.1864,-4.06793,0,0,0,0,0,0,0,-1,797,638,-4.18642,4.06796
-420,386,-4.39514,-3.87988,0,0,0,0,0,0,0,-1,804,638,-4.39517,3.87989
-413,386,-4.56091,-4.32489,0,0,0,0,0,0,0,-1,811,638,-4.5609,4.32489
-406,386,-4.51135,-4.10999,0,0,0,0,0,0,0,-1,818,638,-4.51135,4.10996
-399,386,-3.57117,-3.42126,0,0,0,0,0,0,0,-1,825,638,-3.57116,3.42129
-392,386,-4.00977,0.403625,0,0,0,0,0,0,0,-1,832,638,-4.0098,-0.403616
-385,386,-3.2406,-0.118469,0,0,0,0,0,0,0,-1,839,638,-3.24058,0.118485
-378,386,-2.55243,-1.22748,0,0,0,0,0,0,0,-1,846,638,-2.55243,1.22748
-371,386,-7.95807,-0.330261,0,0,0,0,0,0,0,-1,853,638,-7.95806,0.330284
-364,386,-8.90637,-0.665955,0,0,0,0,0,0,0,-1,860,638,-8.90635,0.665951
-357,386,-9.10364,-0.388733,0,0,0,0,0,0,0,-1,867,638,-9.10364,0.388744
-350,386,0,0,0,0,0,0,0,0,0,-1,874,638,0,0
-343,386,0,0,0,0,0,0,0,0,0,-1,881,638,0,0
-336,386,0,0,0,0,0,0,0,0,0,-1,888,638,0,0
-329,386,0,0,0,0,0,0,0,0,0,-1,895,638,0,0
-322,386,0,0,0,0,0,0,0,0,0,-1,902,638,0,0
-315,386,0,0,0,0,0,0,0,0,0,-1,909,638,0,0
-308,386,0,0,0,0,0,0,0,0,0,-1,916,638,0,0
-301,386,0,0,0,0,0,0,0,0,0,-1,923,638,0,0
-294,386,0,0,0,0,0,0,0,0,0,-1,930,638,0,0
-287,386,0,0,0,0,0,0,0,0,0,-1,937,638,0,0
-280,386,0,0,0,0,0,0,0,0,0,-1,944,638,0,0
-273,386,0,0,0,0,0,0,0,0,0,-1,951,638,0,0
-266,386,0,0,0,0,0,0,0,0,0,-1,958,638,0,0
-259,386,0,0,0,0,0,0,0,0,0,-1,965,638,0,0
-252,386,0,0,0,0,0,0,0,0,0,-1,972,638,0,0
-245,386,0,0,0,0,0,0,0,0,0,-1,979,638,0,0
-238,386,0,0,0,0,0,0,0,0,0,-1,986,638,0,0
-231,386,0,0,0,0,0,0,0,0,0,-1,993,638,0,0
-224,386,0,0,0,0,0,0,0,0,0,-1,1000,638,0,0
-217,386,0,0,0,0,0,0,0,0,0,-1,1007,638,0,0
-210,386,0,0,0,0,0,0,0,0,0,-1,1014,638,0,0
-203,386,0,0,0,0,0,0,0,0,0,-1,1021,638,0,0
-196,386,0,0,0,0,0,0,0,0,0,-1,1028,638,0,0
-189,386,0,0,0,0,0,0,0,0,0,-1,1035,638,0,0
-182,386,0,0,0,0,0,0,0,0,0,-1,1042,638,0,0
-175,386,0,0,0,0,0,0,0,0,0,-1,1049,638,0,0
-168,386,0,0,0,0,0,0,0,0,0,-1,1056,638,0,0
-161,386,0,0,0,0,0,0,0,0,0,-1,1063,638,0,0
-154,386,0,0,0,0,0,0,0,0,0,-1,1070,638,0,0
-147,386,0,0,0,0,0,0,0,0,0,-1,1077,638,0,0
-140,386,0,0,0,0,0,0,0,0,0,-1,1084,638,0,0
-133,386,0,0,0,0,0,0,0,0,0,-1,1091,638,0,0
-126,386,0,0,0,0,0,0,0,0,0,-1,1098,638,0,0
-119,386,0,0,0,0,0,0,0,0,0,-1,1105,638,0,0
-112,386,0,0,0,0,0,0,0,0,0,-1,1112,638,0,0
-105,386,0,0,0,0,0,0,0,0,0,-1,1119,638,0,0
-98,386,0,0,0,0,0,0,0,0,0,-1,1126,638,0,0
-91,386,0,0,0,0,0,0,0,0,0,-1,1133,638,0,0
-84,386,0,0,0,0,0,0,0,0,0,-1,1140,638,0,0
-77,386,0,0,0,0,0,0,0,0,0,-1,1147,638,0,0
-70,386,0,0,0,0,0,0,0,0,0,-1,1154,638,0,0
-63,386,0,0,0,0,0,0,0,0,0,-1,1161,638,0,0
-56,386,0,0,0,0,0,0,0,0,0,-1,1168,638,0,0
-49,386,0,0,0,0,0,0,0,0,0,-1,1175,638,0,0
-42,386,0,0,0,0,0,0,0,0,0,-1,1182,638,0,0
-35,386,0,0,0,0,0,0,0,0,0,-1,1189,638,0,0
-28,386,0,0,0,0,0,0,0,0,0,-1,1196,638,0,0
-21,386,0,0,0,0,0,0,0,0,0,-1,1203,638,0,0
-14,386,0,0,0,0,0,0,0,0,0,-1,1210,638,0,0
-7,386,0,0,0,0,0,0,0,0,0,-1,1217,638,0,0
0,386,0,0,0,0,0,0,0,0,0,-1,1224,638,0,0
7,386,0,0,0,0,0,0,0,0,0,-1,1231,638,0,0
14,386,0,0,0,0,0,0,0,0,0,-1,1238,638,0,0
21,386,0,0,0,0,0,0,0,0,0,-1,1245,638,0,0
28,386,0,0,0,0,0,0,0,0,0,-1,1252,638,0,0
35,386,0,0,0,0,0,0,0,0,0,-1,1259,638,0,0
42,386,0,0,0,0,0,0,0,0,0,-1,1266,638,0,0
49,386,0,0,0,0,0,0,0,0,0,-1,1273,638,0,0
56,386,0,0,0,0,0,0,0,0,0,-1,1280,638,0,0
63,386,0,0,0,0,0,0,0,0,0,-1,1287,638,0,0
70,386,0,0,0,0,0,0,0,0,0,-1,1294,638,0,0
77,386,0,0,0,0,0,0,0,0,0,-1,1301,638,0,0
84,386,0,0,0,0,0,0,0,0,0,-1,1308,638,0,0
91,386,0,0,0,0,0,0,0,0,0,-1,1315,638,0,0
98,386,0,0,0,0,0,0,0,0,0,-1,1322,638,0,0
105,386,0,0,0,0,0,0,0,0,0,-1,1329,638,0,0
112,386,0,0,0,0,0,0,0,0,0,-1,1336,638,0,0
119,386,0,0,0,0,0,0,0,0,0,-1,1343,638,0,0
126,386,0,0,0,0,0,0,0,0,0,-1,1350,638,0,0
133,386,0,0,0,0,0,0,0,0,0,-1,1357,638,0,0
140,386,0,0,0,0,0,0,0,0,0,-1,1364,638,0,0
147,386,0,0,0,0,0,0,0,0,0,-1,1371,638,0,0
154,386,0,0,0,0,0,0,0,0,0,-1,1378,638,0,0
161,386,0,0,0,0,0,0,0,0,0,-1,1385,638,0,0
168,386,0,0,0,0,0,0,0,0,0,-1,1392,638,0,0
175,386,0,0,0,0,0,0,0,0,0,-1,1399,638,0,0
182,386,0,0,0,0,0,0,0,0,0,-1,1406,638,0,0
189,386,0,0,0,0,0,0,0,0,0,-1,1413,638,0,0
196,386,0,0,0,0,0,0,0,0,0,-1,1420,638,0,0
203,386,0,0,0,0,0,0,0,0,0,-1,1427,638,0,0
210,386,0,0,0,0,0,0,0,0,0,-1,1434,638,0,0
217,386,0,0,0,0,0,0,0,0,0,-1,1441,638,0,0
224,386,0,0,0,0,0,0,0,0,0,-1,1448,638,0,0
231,386,0,0,0,0,0,0,0,0,0,-1,1455,638,0,0
238,386,0,0,0,0,0,0,0,0,0,-1,1462,638,0,0
245,386,0,0,0,0,0,0,0,0,0,-1,1469,638,0,0
252,386,0,0,0,0,0,0,0,0,0,-1,1476,638,0,0
259,386,0,0,0,0,0,0,0,0,0,-1,1483,638,0,0
266,386,0,0,0,0,0,0,0,0,0,-1,1490,638,0,0
273,386,0,0,0,0,0,0,0,0,0,-1,1497,638,0,0
280,386,0,0,0,0,0,0,0,0,0,-1,1504,638,0,0
287,386,0,0,0,0,0,0,0,0,0,-1,1511,638,0,0
294,386,0,0,0,0,0,0,0,0,0,-1,1518,638,0,0
301,386,0,0,0,0,0,0,0,0,0,-1,1525,638,0,0
308,386,0,0,0,0,0,0,0,0,0,-1,1532,638,0,0
315,386,0,0,0,0,0,0,0,0,0,-1,1539,638,0,0
322,386,0,0,0,0,0,0,0,0,0,-1,1546,638,0,0
329,386,0,0,0,0,0,0,0,0,0,-1,1553,638,0,0
336,386,0,0,0,0,0,0,0,0,0,-1,1560,638,0,0
343,386,0,0,0,0,0,0,0,0,0,-1,1567,638,0,0
350,386,0,0,0,0,0,0,0,0,0,-1,1574,638,0,0
357,386,0,0,0,0,0,0,0,0,0,-1,1581,638,0,0
364,386,0,0,0,0,0,0,0,0,0,-1,1588,638,0,0
371,386,0,0,0,0,0,0,0,0,0,-1,1595,638,0,0
378,386,0,0,0,0,0,0,0,0,0,-1,1602,638,0,0
385,386,0,0,0,0,0,0,0,0,0,-1,1609,638,0,0
392,386,0,0,0,0,0,0,0,0,0,-1,1616,638,0,0
399,386,0,0,0,0,0,0,0,0,0,-1,1623,638,0,0
406,386,0,0,0,0,0,0,0,0,0,-1,1630,638,0,0
413,386,0,0,0,0,0,0,0,0,0,-1,1637,638,0,0
420,386,0,0,0,0,0,0,0,0,0,-1,1644,638,0,0
427,386,0,0,0,0,0,0,0,0,0,-1,1651,638,0,0
434,386,0,0,0,0,0,0,0,0,0,-1,1658,638,0,0
441,386,0,0,0,0,0,0,0,0,0,-1,1665,638,0,0
448,386,0,0,0,0,0,0,0,0,0,-1,1672,638,0,0
455,386,0,0,0,0,0,0,0,0,0,-1,1679,638,0,0
462,386,0,0,0,0,0,0,0,0,0,-1,1686,638,0,0
469,386,9.84692,1.55804,0,0,0,0,0,0,0,-1,1693,638,9.84691,-1.55807
476,386,10.6145,0.986511,0,0,0,0,0,0,0,-1,1700,638,10.6145,-0.986529
483,386,11.4113,0.732971,0,0,0,0,0,0,0,-1,1707,638,11.4112,-0.732958
490,386,7.79785,1.79572,0,0,0,0,0,0,0,-1,1714,638,7.79788,-1.7957
497,386,8.96362,1.77081,0,0,0,0,0,0,0,-1,1721,638,8.96357,-1.77081
504,386,10.0555,1.69427,0,0,0,0,0,0,0,-1,1728,638,10.0555,-1.69426
511,386,11.2172,1.534,0,0,0,0,0,0,0,-1,1735,638,11.2172,-1.53398
518,386,7.41553,1.75238,0,0,0,0,0,0,0,-1,1742,638,7.41547,-1.75238
525,386,8.82422,-1.1449,0,0,0,0,0,0,0,-1,1749,638,8.82426,1.14492
532,386,10.6432,0.617371,0,0,0,0,0,0,0,-1,1756,638,10.6432,-0.617359
539,386,9.62061,-0.393616,0,0,0,0,0,0,0,-1,1763,638,9.62059,0.393634
546,386,10.1086,-2.24622,0,0,0,0,0,0,0,-1,1770,638,10.1086,2.24622
553,386,10.369,-2.16895,-0.00317287,0.00246635,6.85419e-05,0.00246718,-0.0031737,1.55864,0.00326527,0.04541,1777,638,10.369,2.16895
560,386,10.401,-2.06689,-0.00316137,0.00142616,-0.000548298,0.00149078,-0.00322599,-1.45348,0.00278398,0.0300014,1784,638,10.4011,2.0669
567,386,10.324,-1.84357,-0.00299633,0.000619453,-0.000929044,0.000844194,-0.00322107,-1.33345,0.0024772,0.0193817,1791,638,10.324,1.84355
574,386,10.3419,-1.57977,-0.00258373,0.000164032,-0.00104324,0.000515232,-0.00293493,-1.24607,0.00214905,0.0136283,1798,638,10.342,1.5798
581,386,10.3175,-1.34247,-0.00190602,8.2375e-06,-0.000895133,0.000361589,-0.00225937,-1.19483,0.00164012,0.0136951,1805,638,10.3175,1.34246
588,386,10.3273,-1.09851,-0.00109136,0.000120612,-0.000542233,0.00032779,-0.00129854,-1.20583,0.000993154,0.0127225,1812,638,10.3273,1.0985
595,386,10.3212,-0.830627,-0.00011627,0.000442173,-4.0635e-05,0.000445114,-0.000119211,-1.49854,0.000343447,0.0137024,1819,638,10.3211,0.830617
602,386,10.3085,-0.576538,0.000817336,0.0010216,0.000578668,0.00150708,0.000331856,0.872745,0.000914399,0.0154312,1826,638,10.3085,0.576514
609,386,10.3307,-0.29834,0.00124343,0.00162094,0.0010606,0.00250946,0.000354919,0.87346,0.00156811,0.0142296,1833,638,10.3307,0.298331
616,386,10.3398,-0.0130615,0.00144267,0.00228139,0.00139184,0.00331567,0.000408386,0.931723,0.00208768,0.0112091,1840,638,10.3399,0.0130376
623,386,10.3208,0.26593,0.00150655,0.00314282,0.00167744,0.00419101,0.000458366,1.01229,0.00265444,0.00964161,1847,638,10.3208,-0.265945
630,386,10.3987,0.524963,0.00107688,0.00387526,0.00168595,0.004667,0.000285139,1.13176,0.00302077,0.0199585,1854,638,10.3987,-0.524951
637,386,10.3492,0.810242,-0.00063884,0.00390591,0.000922699,0.0040861,-0.000819028,1.37794,0.00303415,0.0399075,1861,638,10.3493,-0.810231
644,386,10.2996,1.17963,0,0,0,0,0,0,0,-1,1868,638,10.2996,-1.17962
651,386,9.3866,1.31097,0,0,0,0,0,0,0,-1,1875,638,9.3866,-1.31095
658,386,9.91907,0.689819,0,0,0,0,0,0,0,-1,1882,638,9.91904,-0.689819
665,386,6.33167,1.78601,0,0,0,0,0,0,0,-1,1889,638,6.33171,-1.78601
672,386,7.23352,2.14435,0,0,0,0,0,0,0,-1,1896,638,7.23353,-2.14433
679,386,8.07764,2.57104,0,0,0,0,0,0,0,-1,1903,638,8.07758,-2.57103
686,386,0,0,0,0,0,0,0,0,0,-1,1910,638,0,0
693,386,0,0,0,0,0,0,0,0,0,-1,1917,638,0,0
700,386,0,0,0,0,0,0,0,0,0,-1,1924,638,0,0
707,386,0,0,0,0,0,0,0,0,0,-1,1931,638,0,0
714,386,0,0,0,0,0,0,0,0,0,-1,1938,638,0,0
721,386,0,0,0,0,0,0,0,0,0,-1,1945,638,0,0
728,386,0,0,0,0,0,0,0,0,0,-1,1952,638,0,0
735,386,0,0,0,0,0,0,0,0,0,-1,1959,638,0,0
742,386,0,0,0,0,0,0,0,0,0,-1,1966,638,0,0
749,386,0,0,0,0,0,0,0,0,0,-1,1973,638,0,0
756,386,0,0,0,0,0,0,0,0,0,-1,1980,638,0,0
763,386,0,0,0,0,0,0,0,0,0,-1,1987,638,0,0
770,386,0,0,0,0,0,0,0,0,0,-1,1994,638,0,0
777,386,0,0,0,0,0,0,0,0,0,-1,2001,638,0,0
784,386,0,0,0,0,0,0,0,0,0,-1,2008,638,0,0
791,386,0,0,0,0,0,0,0,0,0,-1,2015,638,0,0
798,386,0,0,0,0,0,0,0,0,0,-1,2022,638,0,0
805,386,0,0,0,0,0,0,0,0,0,-1,2029,638,0,0
812,386,0,0,0,0,0,0,0,0,0,-1,2036,638,0,0
-700,379,0,0,0,0,0,0,0,0,0,-1,524,645,0,0
-693,379,0,0,0,0,0,0,0,0,0,-1,531,645,0,0
-686,379,0,0,0,0,0,0,0,0,0,-1,538,645,0,0
-679,379,0,0,0,0,0,0,0,0,0,-1,545,645,0,0
-672,379,0,0,0,0,0,0,0,0,0,-1,552,645,0,0
-665,379,0,0,0,0,0,0,0,0,0,-1,559,645,0,0
-658,379,0,0,0,0,0,0,0,0,0,-1,566,645,0,0
-651,379,0,0,0,0,0,0,0,0,0,-1,573,645,0,0
-644,379,0,0,0,0,0,0,0,0,0,-1,580,645,0,0
-637,379,0,0,0,0,0,0,0,0,0,-1,587,645,0,0
-630,379,0,0,0,0,0,0,0,0,0,-1,594,645,0,0
-623,379,0,0,0,0,0,0,0,0,0,-1,601,645,0,0
-616,379,0,0,0,0,0,0,0,0,0,-1,608,645,0,0
-609,379,0,0,0,0,0,0,0,0,0,-1,615,645,0,0
-602,379,0,0,0,0,0,0,0,0,0,-1,622,645,0,0
-595,379,0,0,0,0,0,0,0,0,0,-1,629,645,0,0
-588,379,0,0,0,0,0,0,0,0,0,-1,636,645,0,0
-581,379,0,0,0,0,0,0,0,0,0,-1,643,645,0,0
-574,379,0,0,0,0,0,0,0,0,0,-1,650,645,0,0
-567,379,-3.6662,4.6087,0,0,0,0,0,0,0,-1,657,645,-3.66618,-4.60868
-560,379,-3.35614,4.00958,0,0,0,0,0,0,0,-1,664,645,-3.35615,-4.0096
-553,379,-2.80804,2.62805,0,0,0,0,0,0,0,-1,671,645,-2.80804,-2.62805
-546,379,-2.1358,-1.87762,0,0,0,0,0,0,0,-1,678,645,-2.13579,1.87765
-539,379,-0.71698,-2.19427,0,0,0,0,0,0,0,-1,685,645,-0.716959,2.19427
-532,379,-4.15576,0.072876,0,0,0,0,0,0,0,-1,692,645,-4.15576,-0.0729009
-525,379,-4.51788,-0.224976,0,0,0,0,0,0,0,-1,699,645,-4.51786,0.224965
-518,379,-4.44373,-0.781311,-0.00166521,0.00465186,-0.00477323,0.00721696,-0.00423032,-1.07768,0.00668365,0.0479583,706,645,-4.44375,0.78132
-511,379,-4.3811,-1.15527,-0.00113621,0.000979841,-0.00330314,0.00339027,-0.00354663,-0.940389,0.00400536,0.0323393,713,645,-4.38109,1.15527
-504,379,-4.47369,-1.35004,-0.001016,-0.00177697,-0.00202764,0.000666545,-0.00345952,-0.692653,0.00255764,0.0176663,720,645,-4.47372,1.35005
-497,379,-4.52783,-1.55743,-0.000859234,-0.00246609,-0.000911818,-0.00044738,-0.00287794,-0.424254,0.00178825,0.0110021,727,645,-4.52781,1.55742
-490,379,-4.52545,-1.80493,-0.000499033,-0.00195943,-0.000403433,-0.000394996,-0.00206346,-0.25238,0.00126471,0.0110053,734,645,-4.52546,1.80495
-483,379,-4.52515,-2.06403,-0.000132532,-0.00170416,-0.000180487,-0.000112071,-0.00172462,-0.112883,0.00111427,0.012161,741,645,-4.52513,2.06401
-476,379,-4.50165,-2.28815,0.000411031,-0.00115016,-0.000298881,0.000466294,-0.00120542,-0.182834,0.000996114,0.0123628,748,645,-4.50163,2.28816
-469,379,-4.51587,-2.51843,0.000876166,-0.000844301,-0.000465261,0.000993925,-0.00096206,-0.247897,0.00112934,0.0118296,755,645,-4.51586,2.51845
-462,379,-4.5415,-2.79169,0.00101903,-0.000340737,-0.000668054,0.00129232,-0.000614027,-0.388312,0.00112361,0.00868726,762,645,-4.5415,2.79168
-455,379,-4.54572,-3.03101,0.00130379,6.22063e-05,-0.000545471,0.00150939,-0.000143392,-0.360452,0.0010573,0.00892168,769,645,-4.54574,3.03099
-448,379,-4.51239,-3.27576,0.00195282,-0.000479245,-0.000131233,0.00195988,-0.000486306,-0.0537516,0.00149529,0.0114515,776,645,-4.51238,3.27578
-441,379,-4.50311,-3.55957,0.00205136,-0.00173923,0.000647353,0.00215886,-0.00184674,0.164567,0.00231497,0.0158221,783,645,-4.50314,3.55955
-434,379,-4.37329,-3.88104,0.00222894,-0.00304119,0.00196519,0.00288105,-0.0036933,0.320398,0.00380535,0.049757,790,645,-4.37328,3.88107
-427,379,-4.16113,-4.13452,0,0,0,0,0,0,0,-1,797,645,-4.16116,4.1345
-420,379,-4.63953,-3.46869,0,0,0,0,0,0,0,-1,804,645,-4.63953,3.46872
-413,379,-4.62543,-3.7912,0,0,0,0,0,0,0,-1,811,645,-4.62541,3.79123
-406,379,-4.64063,-4.38489,0,0,0,0,0,0,0,-1,818,645,-4.64065,4.3849
-399,379,-2.93536,-1.40118,0,0,0,0,0,0,0,-1,825,645,-2.93534,1.40119
-392,379,-4.16711,-0.466003,0,0,0,0,0,0,0,-1,832,645,-4.16714,0.465992
-385,379,-3.51862,0.441101,0,0,0,0,0,0,0,-1,839,645,-3.51859,-0.441072
-378,379,-5.3504,0.212219,0,0,0,0,0,0,0,-1,846,645,-5.35038,-0.212241
-371,379,-4.32092,-0.186707,0,0,0,0,0,0,0,-1,853,645,-4.3209,0.186707
-364,379,-3.40887,-0.549805,0,0,0,0,0,0,0,-1,860,645,-3.4089,0.549802
-357,379,0,0,0,0,0,0,0,0,0,-1,867,645,0,0
-350,379,0,0,0,0,0,0,0,0,0,-1,874,645,0,0
-343,379,0,0,0,0,0,0,0,0,0,-1,881,645,0,0
-336,379,0,0,0,0,0,0,0,0,0,-1,888,645,0,0
-329,379,0,0,0,0,0,0,0,0,0,-1,895,645,0,0
-322,379,0,0,0,0,0,0,0,0,0,-1,902,645,0,0
-315,379,0,0,0,0,0,0,0,0,0,-1,909,645,0,0
-308,379,0,0,0,0,0,0,0,0,0,-1,916,645,0,0
-301,379,0,0,0,0,0,0,0,0,0,-1,923,645,0,0
-294,379,0,0,0,0,0,0,0,0,0,-1,930,645,0,0
-287,379,0,0,0,0,0,0,0,0,0,-1,937,645,0,0
-280,379,0,0,0,0,0,0,0,0,0,-1,944,645,0,0
-273,379,0,0,0,0,0,0,0,0,0,-1,951,645,0,0
-266,379,0,0,0,0,0,0,0,0,0,-1,958,645,0,0
-259,379,0,0,0,0,0,0,0,0,0,-1,965,645,0,0
-252,379,0,0,0,0,0,0,0,0,0,-1,972,645,0,0
-245,379,0,0,0,0,0,0,0,0,0,-1,979,645,0,0
-238,379,0,0,0,0,0,0,0,0,0,-1,986,645,0,0
-231,379,0,0,0,0,0,0,0,0,0,-1,993,645,0,0
-224,379,0,0,0,0,0,0,0,0,0,-1,1000,645,0,0
-217,379,0,0,0,0,0,0,0,0,0,-1,1007,645,0,0
-210,379,0,0,0,0,0,0,0,0,0,-1,1014,645,0,0
-203,379,0,0,0,0,0,0,0,0,0,-1,1021,645,0,0
-196,379,0,0,0,0,0,0,0,0,0,-1,1028,645,0,0
-189,379,0,0,0,0,0,0,0,0,0,-1,1035,645,0,0
-182,379,0,0,0,0,0,0,0,0,0,-1,1042,645,0,0
-175,379,0,0,0,0,0,0,0,0,0,-1,1049,645,0,0
-168,379,0,0,0,0,0,0,0,0,0,-1,1056,645,0,0
-161,379,0,0,0,0,0,0,0,0,0,-1,1063,645,0,0
-154,379,0,0,0,0,0,0,0,0,0,-1,1070,645,0,0
-147,379,0,0,0,0,0,0,0,0,0,-1,1077,645,0,0
-140,379,0,0,0,0,0,0,0,0,0,-1,1084,645,0,0
-133,379,0,0,0,0,0,0,0,0,0,-1,1091,645,0,0
-126,379,0,0,0,0,0,0,0,0,0,-1,1098,645,0,0
-119,379,0,0,0,0,0,0,0,0,0,-1,1105,645,0,0
-112,379,0,0,0,0,0,0,0,0,0,-1,1112,645,0,0
-105,379,0,0,0,0,0,0,0,0,0,-1,1119,645,0,0
-98,379,0,0,0,0,0,0,0,0,0,-1,1126,645,0,0
-91,379,0,0,0,0,0,0,0,0,0,-1,1133,645,0,0
-84,379,0,0,0,0,0,0,0,0,0,-1,1140,645,0,0
-77,379,0,0,0,0,0,0,0,0,0,-1,1147,645,0,0
-70,379,0,0,0,0,0,0,0,0,0,-1,1154,645,0,0
-63,379,0,0,0,0,0,0,0,0,0,-1,1161,645,0,0
-56,379,0,0,0,0,0,0,0,0,0,-1,1168,645,0,0
-49,379,0,0,0,0,0,0,0,0,0,-1,1175,645,0,0
-42,379,0,0,0,0,0,0,0,0,0,-1,1182,645,0,0
-35,379,0,0,0,0,0,0,0,0,0,-1,1189,645,0,0
-28,379,0,0,0,0,0,0,0,0,0,-1,1196,645,0,0
-21,379,0,0,0,0,0,0,0,0,0,-1,1203,645,0,0
-14,379,0,0,0,0,0,0,0,0,0,-1,1210,645,0,0
-7,379,0,0,0,0,0,0,0,0,0,-1,1217,645,0,0
0,379,0,0,0,0,0,0,0,0,0,-1,1224,645,0,0
7,379,0,0,0,0,0,0,0,0,0,-1,1231,645,0,0
14,379,0,0,0,0,0,0,0,0,0,-1,1238,645,0,0
21,379,0,0,0,0,0,0,0,0,0,-1,1245,645,0,0
28,379,0,0,0,0,0,0,0,0,0,-1,1252,645,0,0
35,379,0,0,0,0,0,0,0,0,0,-1,1259,645,0,0
42,379,0,0,0,0,0,0,0,0,0,-1,1266,645,0,0
49,379,0,0,0,0,0,0,0,0,0,-1,1273,645,0,0
56,379,0,0,0,0,0,0,0,0,0,-1,1280,645,0,0
63,379,0,0,0,0,0,0,0,0,0,-1,1287,645,0,0
70,379,0,0,0,0,0,0,0,0,0,-1,1294,645,0,0
77,379,0,0,0,0,0,0,0,0,0,-1,1301,645,0,0
84,379,0,0,0,0,0,0,0,0,0,-1,1308,645,0,0
91,379,0,0,0,0,0,0,0,0,0,-1,1315,645,0,0
98,379,0,0,0,0,0,0,0,0,0,-1,1322,645,0,0
105,379,0,0,0,0,0,0,0,0,0,-1,1329,645,0,0
112,379,0,0,0,0,0,0,0,0,0,-1,1336,645,0,0
119,379,0,0,0,0,0,0,0,0,0,-1,1343,645,0,0
126,379,0,0,0,0,0,0,0,0,0,-1,1350,645,0,0
133,379,0,0,0,0,0,0,0,0,0,-1,1357,645,0,0
140,379,0,0,0,0,0,0,0,0,0,-1,1364,645,0,0
147,379,0,0,0,0,0,0,0,0,0,-1,1371,645,0,0
154,379,0,0,0,0,0,0,0,0,0,-1,1378,645,0,0
161,379,0,0,0,0,0,0,0,0,0,-1,1385,645,0,0
168,379,0,0,0,0,0,0,0,0,0,-1,1392,645,0,0
175,379,0,0,0,0,0,0,0,0,0,-1,1399,645,0,0
182,379,0,0,0,0,0,0,0,0,0,-1,1406,645,0,0
189,379,0,0,0,0,0,0,0,0,0,-1,1413,645,0,0
196,379,0,0,0,0,0,0,0,0,0,-1,1420,645,0,0
203,379,0,0,0,0,0,0,0,0,0,-1,1427,645,0,0
210,379,0,0,0,0,0,0,0,0,0,-1,1434,645,0,0
217,379,0,0,0,0,0,0,0,0,0,-1,1441,645,0,0
224,379,0,0,0,0,0,0,0,0,0,-1,1448,645,0,0
231,379,0,0,0,0,0,0,0,0,0,-1,1455,645,0,0
238,379,0,0,0,0,0,0,0,0,0,-1,1462,645,0,0
245,379,0,0,0,0,0,0,0,0,0,-1,1469,645,0,0
252,379,0,0,0,0,0,0,0,0,0,-1,1476,645,0,0
259,379,0,0,0,0,0,0,0,0,0,-1,1483,645,0,0
266,379,0,0,0,0,0,0,0,0,0,-1,1490,645,0,0
273,379,0,0,0,0,0,0,0,0,0,-1,1497,645,0,0
280,379,0,0,0,0,0,0,0,0,0,-1,1504,645,0,0
287,379,0,0,0,0,0,0,0,0,0,-1,1511,645,0,0
294,379,0,0,0,0,0,0,0,0,0,-1,1518,645,0,0
301,379,0,0,0,0,0,0,0,0,0,-1,1525,645,0,0
308,379,0,0,0,0,0,0,0,0,0,-1,1532,645,0,0
315,379,0,0,0,0,0,0,0,0,0,-1,1539,645,0,0
322,379,0,0,0,0,0,0,0,0,0,-1,1546,645,0,0
329,379,0,0,0,0,0,0,0,0,0,-1,1553,645,0,0
336,379,0,0,0,0,0,0,0,0,0,-1,1560,645,0,0
343,379,0,0,0,0,0,0,0,0,0,-1,1567,645,0,0
350,379,0,0,0,0,0,0,0,0,0,-1,1574,645,0,0
357,379,0,0,0,0,0,0,0,0,0,-1,1581,645,0,0
364,379,0,0,0,0,0,0,0,0,0,-1,1588,645,0,0
371,379,0,0,0,0,0,0,0,0,0,-1,1595,645,0,0
378,379,0,0,0,0,0,0,0,0,0,-1,1602,645,0,0
385,379,0,0,0,0,0,0,0,0,0,-1,1609,645,0,0
392,379,0,0,0,0,0,0,0,0,0,-1,1616,645,0,0
399,379,0,0,0,0,0,0,0,0,0,-1,1623,645,0,0
406,379,0,0,0,0,0,0,0,0,0,-1,1630,645,0,0
413,379,0,0,0,0,0,0,0,0,0,-1,1637,645,0,0
420,379,0,0,0,0,0,0,0,0,0,-1,1644,645,0,0
427,379,0,0,0,0,0,0,0,0,0,-1,1651,645,0,0
434,379,0,0,0,0,0,0,0,0,0,-1,1658,645,0,0
441,379,0,0,0,0,0,0,0,0,0,-1,1665,645,0,0
448,379,0,0,0,0,0,0,0,0,0,-1,1672,645,0,0
455,379,0,0,0,0,0,0,0,0,0,-1,1679,645,0,0
462,379,0,0,0,0,0,0,0,0,0,-1,1686,645,0,0
469,379,0,0,0,0,0,0,0,0,0,-1,1693,645,0,0
476,379,11.1787,0.830383,0,0,0,0,0,0,0,-1,1700,645,11.1787,-0.830365
483,379,7.4231,1.54321,0,0,0,0,0,0,0,-1,1707,645,7.42314,-1.54324
490,379,8.52881,1.56677,0,0,0,0,0,0,0,-1,1714,645,8.52878,-1.56677
497,379,9.63599,1.49573,0,0,0,0,0,0,0,-1,1721,645,9.63604,-1.4957
504,379,10.0833,1.35229,0,0,0,0,0,0,0,-1,1728,645,10.0832,-1.35227
511,379,8.14343,1.59912,0,0,0,0,0,0,0,-1,1735,645,8.14347,-1.59912
518,379,12.7955,-0.324097,0,0,0,0,0,0,0,-1,1742,645,12.7955,0.324101
525,379,6.03711,1.10352,0,0,0,0,0,0,0,-1,1749,645,6.03711,-1.10351
532,379,8.70947,0.887817,0,0,0,0,0,0,0,-1,1756,645,8.70953,-0.887808
539,379,9.87097,0.111389,0,0,0,0,0,0,0,-1,1763,645,9.87095,-0.111395
546,379,8.42383,-0.730652,0,0,0,0,0,0,0,-1,1770,645,8.42378,0.730638
553,379,10.5486,-1.98291,0,0,0,0,0,0,0,-1,1777,645,10.5486,1.98291
560,379,10.6873,-2.06805,-0.00511864,0.00158617,-0.00117663,0.00178667,-0.00531914,-1.40202,0.00426817,0.037329,1784,645,10.6873,2.06804
567,379,10.516,-1.81378,-0.00470389,0.000506607,-0.00160721,0.000962479,-0.00515976,-1.29441,0.0038015,0.0224325,1791,645,10.516,1.81378
574,379,10.6115,-1.5752,-0.00407179,-0.000114741,-0.00172748,0.00053328,-0.00471981,-1.21192,0.00333853,0.012225,1798,645,10.6114,1.57518
581,379,10.5983,-1.32361,-0.00314922,-0.00037054,-0.00153319,0.000309165,-0.00382893,-1.15351,0.00266167,0.0144546,1805,645,10.5982,1.32361
588,379,10.6058,-1.06512,-0.00210602,-0.000293917,-0.00112278,0.000242794,-0.00264273,-1.12489,0.00184808,0.0169769,1812,645,10.6058,1.06512
595,379,10.5846,-0.823181,-0.000976611,1.06053e-05,-0.000579475,0.000278207,-0.00124421,-1.13817,0.000936094,0.0141698,1819,645,10.5845,0.82316
602,379,10.5764,-0.593018,5.07147e-05,0.000563095,5.22869e-05,0.000568376,4.54334e-05,1.47013,0.000364717,0.0139906,1826,645,10.5765,0.593038
609,379,10.5786,-0.328552,0.000502449,0.00116069,0.000522881,0.00144941,0.000213731,1.06629,0.000903497,0.0138547,1833,645,10.5786,0.328566
616,379,10.5834,-0.024353,0.000672305,0.0016304,0.000736549,0.00202999,0.000272723,1.07373,0.0012722,0.0113726,1840,645,10.5834,0.0243281
623,379,10.6028,0.277832,0.000634604,0.00237926,0.000887138,0.00275111,0.000262758,1.17389,0.00175306,0.0111043,1847,645,10.6028,-0.277802
630,379,10.5908,0.528137,0.000117721,0.00292892,0.000804602,0.00314291,-9.62762e-05,1.31085,0.00212809,0.0129391,1854,645,10.5908,-0.528117
637,379,10.5984,0.797363,-0.00147156,0.00300447,7.44975e-05,0.00300571,-0.0014728,1.55416,0.00263567,0.0187189,1861,645,10.5984,-0.797362
644,379,10.5657,1.12854,-0.00373286,0.00319054,-0.000981924,0.00332711,-0.00386943,-1.4326,0.00415885,0.0310385,1868,645,10.5657,-1.12856
651,379,10.6722,1.90485,0,0,0,0,0,0,0,-1,1875,645,10.6723,-1.90487
658,379,9.33484,0.666504,0,0,0,0,0,0,0,-1,1882,645,9.3348,-0.666487
665,379,8.93787,0.850464,0,0,0,0,0,0,0,-1,1889,645,8.93784,-0.850482
672,379,7.57605,2.15326,0,0,0,0,0,0,0,-1,1896,645,7.57599,-2.15326
679,379,8.55078,2.50409,0,0,0,0,0,0,0,-1,1903,645,8.55073,-2.50406
686,379,0,0,0,0,0,0,0,0,0,-1,1910,645,0,0
693,379,0,0,0,0,0,0,0,0,0,-1,1917,645,0,0
700,379,0,0,0,0,0,0,0,0,0,-1,1924,645,0,0
707,379,0,0,0,0,0,0,0,0,0,-1,1931,645,0,0
714,379,0,0,0,0,0,0,0,0,0,-1,1938,645,0,0
721,379,0,0,0,0,0,0,0,0,0,-1,1945,645,0,0
728,379,0,0,0,0,0,0,0,0,0,-1,1952,645,0,0
735,379,0,0,0,0,0,0,0,0,0,-1,1959,645,0,0
742,379,0,0,0,0,0,0,0,0,0,-1,1966,645,0,0
749,379,0,0,0,0,0,0,0,0,0,-1,1973,645,0,0
756,379,0,0,0,0,0,0,0,0,0,-1,1980,645,0,0
763,379,0,0,0,0,0,0,0,0,0,-1,1987,645,0,0
770,379,0,0,0,0,0,0,0,0,0,-1,1994,645,0,0
777,379,0,0,0,0,0,0,0,0,0,-1,2001,645,0,0
784,379,0,0,0,0,0,0,0,0,0,-1,2008,645,0,0
791,379,0,0,0,0,0,0,0,0,0,-1,2015,645,0,0
798,379,0,0,0,0,0,0,0,0,0,-1,2022,645,0,0
805,379,0,0,0,0,0,0,0,0,0,-1,2029,645,0,0
812,379,0,0,0,0,0,0,0,0,0,-1,2036,645,0,0
-700,372,0,0,0,0,0,0,0,0,0,-1,524,652,0,0
-693,372,0,0,0,0,0,0,0,0,0,-1,531,652,0,0
-686,372,0,0,0,0,0,0,0,0,0,-1,538,652,0,0
-679,372,0,0,0,0,0,0,0,0,0,-1,545,652,0,0
-672,372,0,0,0,0,0,0,0,0,0,-1,552,652,0,0
-665,372,0,0,0,0,0,0,0,0,0,-1,559,652,0,0
-658,372,0,0,0,0,0,0,0,0,0,-1,566,652,0,0
-651,372,0,0,0,0,0,0,0,0,0,-1,573,652,0,0
-644,372,0,0,0,0,0,0,0,0,0,-1,580,652,0,0
-637,372,0,0,0,0,0,0,0,0,0,-1,587,652,0,0
-630,372,0,0,0,0,0,0,0,0,0,-1,594,652,0,0
-623,372,0,0,0,0,0,0,0,0,0,-1,601,652,0,0
-616,372,0,0,0,0,0,0,0,0,0,-1,608,652,0,0
-609,372,0,0,0,0,0,0,0,0,0,-1,615,652,0,0
-602,372,0,0,0,0,0,0,0,0,0,-1,622,652,0,0
-595,372,0,0,0,0,0,0,0,0,0,-1,629,652,0,0
-588,372,0,0,0,0,0,0,0,0,0,-1,636,652,0,0
-581,372,0,0,0,0,0,0,0,0,0,-1,643,652,0,0
-574,372,0,0,0,0,0,0,0,0,0,-1,650,652,0,0
-567,372,-3.98065,4.39612,0,0,0,0,0,0,0,-1,657,652,-3.98064,-4.39614
-560,372,-3.56708,3.19385,0,0,0,0,0,0,0,-1,664,652,-3.56709,-3.19385
-553,372,-3.75378,1.36823,0,0,0,0,0,0,0,-1,671,652,-3.7538,-1.36823
-546,372,-4.15826,1.88702,0,0,0,0,0,0,0,-1,678,652,-4.15826,-1.88703
-539,372,-5.32764,0.519043,0,0,0,0,0,0,0,-1,685,652,-5.32761,-0.51904
-532,372,-4.97839,0.904602,0,0,0,0,0,0,0,-1,692,652,-4.97838,-0.904588
-525,372,-4.80188,0.22052,-0.00128303,0.0124122,-0.00633662,0.0148943,-0.00376507,-1.19747,0.0113938,0.0467214,699,652,-4.80187,-0.220523
-518,372,-4.71387,-0.734253,-0.00116372,0.00694828,-0.00446509,0.00892455,-0.00313998,-1.15411,0.00722742,0.0319862,706,652,-4.71386,0.734267
-511,372,-4.76001,-1.09741,-0.000716637,0.00292036,-0.00320151,0.0047838,-0.00258007,-1.04368,0.00431452,0.0196163,713,652,-4.75999,1.09743
-504,372,-4.7804,-1.31183,-0.000652242,-0.000280295,-0.00205928,0.00160139,-0.00253393,-0.830431,0.00240768,0.0122366,720,652,-4.78041,1.31181
-497,372,-4.76477,-1.57544,-0.000594231,-0.00132694,-0.000990712,9.56936e-05,-0.00201686,-0.608301,0.00137758,0.0114628,727,652,-4.76477,1.57546
-490,372,-4.77338,-1.81525,-0.00029278,-0.00106219,-0.000469974,-7.01349e-05,-0.00128483,-0.442419,0.00083416,0.0119487,734,652,-4.77339,1.81525
-483,372,-4.76886,-2.05212,8.31404e-05,-0.00102152,-0.000247583,0.000136092,-0.00107447,-0.210699,0.000765721,0.0111816,741,652,-4.76889,2.0521
-476,372,-4.7735,-2.26123,0.000671693,-0.00065063,-0.000388656,0.000777466,-0.000756403,-0.265715,0.000885607,0.0119921,748,652,-4.77352,2.26124
-469,372,-4.77393,-2.50031,0.00125124,-0.000388282,-0.000661008,0.00148454,-0.000621583,-0.339298,0.00124953,0.0104132,755,652,-4.77391,2.50033
-462,372,-4.77252,-2.78326,0.00153701,5.17424e-05,-0.000980568,0.00202443,-0.000435671,-0.461303,0.00151586,0.00915607,762,652,-4.77252,2.78328
-455,372,-4.78015,-3.01819,0.00196253,0.000421303,-0.000966495,0.00242803,-4.41887e-05,-0.448843,0.00163361,0.00985866,769,652,-4.78017,3.01821
-448,372,-4.75684,-3.26282,0.00269153,-0.000319287,-0.000608349,0.0028098,-0.00043756,-0.192022,0.0020348,0.0112476,776,652,-4.75682,3.2628
-441,372,-4.66364,-3.66431,0.00290202,-0.00168865,0.000198974,0.00291063,-0.00169725,0.0432351,0.00269093,0.0317709,783,652,-4.66362,3.66432
-434,372,-4.6582,-4.15338,0,0,0,0,0,0,0,-1,790,652,-4.65823,4.15336
-427,372,-4.54248,-3.56268,0,0,0,0,0,0,0,-1,797,652,-4.54247,3.56266
-420,372,-4.66168,-2.93597,0,0,0,0,0,0,0,-1,804,652,-4.66166,2.93599
-413,372,-4.74762,-3.29541,0,0,0,0,0,0,0,-1,811,652,-4.74763,3.29542
-406,372,-0.885437,-0.583923,0,0,0,0,0,0,0,-1,818,652,-0.885437,0.5839
-399,372,-3.97357,-0.825012,0,0,0,0,0,0,0,-1,825,652,-3.97359,0.825037
-392,372,-7.64337,0.173035,0,0,0,0,0,0,0,-1,832,652,-7.64337,-0.173019
-385,372,-6.48871,-0.0271606,0,0,0,0,0,0,0,-1,839,652,-6.48874,0.0271353
-378,372,-5.33044,-0.242432,0,0,0,0,0,0,0,-1,846,652,-5.33042,0.242457
-371,372,-4.40802,-0.495667,0,0,0,0,0,0,0,-1,853,652,-4.40802,0.495661
-364,372,0,0,0,0,0,0,0,0,0,-1,860,652,0,0
-357,372,0,0,0,0,0,0,0,0,0,-1,867,652,0,0
-350,372,0,0,0,0,0,0,0,0,0,-1,874,652,0,0
-343,372,0,0,0,0,0,0,0,0,0,-1,881,652,0,0
-336,372,0,0,0,0,0,0,0,0,0,-1,888,652,0,0
-329,372,0,0,0,0,0,0,0,0,0,-1,895,652,0,0
-322,372,0,0,0,0,0,0,0,0,0,-1,902,652,0,0
-315,372,0,0,0,0,0,0,0,0,0,-1,909,652,0,0
-308,372,0,0,0,0,0,0,0,0,0,-1,916,652,0,0
-301,372,0,0,0,0,0,0,0,0,0,-1,923,652,0,0
-294,372,0,0,0,0,0,0,0,0,0,-1,930,652,0,0
-287,372,0,0,0,0,0,0,0,0,0,-1,937,652,0,0
-280,372,0,0,0,0,0,0,0,0,0,-1,944,652,0,0
-273,372,0,0,0,0,0,0,0,0,0,-1,951,652,0,0
-266,372,0,0,0,0,0,0,0,0,0,-1,958,652,0,0
-259,372,0,0,0,0,0,0,0,0,0,-1,965,652,0,0
-252,372,0,0,0,0,0,0,0,0,0,-1,972,652,0,0
-245,372,0,0,0,0,0,0,0,0,0,-1,979,652,0,0
-238,372,0,0,0,0,0,0,0,0,0,-1,986,652,0,0
-231,372,0,0,0,0,0,0,0,0,0,-1,993,652,0,0
-224,372,0,0,0,0,0,0,0,0,0,-1,1000,652,0,0
-217,372,0,0,0,0,0,0,0,0,0,-1,1007,652,0,0
-210,372,0,0,0,0,0,0,0,0,0,-1,1014,652,0,0
-203,372,0,0,0,0,0,0,0,0,0,-1,1021,652,0,0
-196,372,0,0,0,0,0,0,0,0,0,-1,1028,652,0,0
-189,372,0,0,0,0,0,0,0,0,0,-1,1035,652,0,0
-182,372,0,0,0,0,0,0,0,0,0,-1,1042,652,0,0
-175,372,0,0,0,0,0,0,0,0,0,-1,1049,652,0,0
-168,372,0,0,0,0,0,0,0,0,0,-1,1056,652,0,0
-161,372,0,0,0,0,0,0,0,0,0,-1,1063,652,0,0
-154,372,0,0,0,0,0,0,0,0,0,-1,1070,652,0,0
-147,372,0,0,0,0,0,0,0,0,0,-1,1077,652,0,0
-140,372,0,0,0,0,0,0,0,0,0,-1,1084,652,0,0
-133,372,0,0,0,0,0,0,0,0,0,-1,1091,652,0,0
-126,372,0,0,0,0,0,0,0,0,0,-1,1098,652,0,0
-119,372,0,0,0,0,0,0,0,0,0,-1,1105,652,0,0
-112,372,0,0,0,0,0,0,0,0,0,-1,1112,652,0,0
-105,372,0,0,0,0,0,0,0,0,0,-1,1119,652,0,0
-98,372,0,0,0,0,0,0,0,0,0,-1,1126,652,0,0
-91,372,0,0,0,0,0,0,0,0,0,-1,1133,652,0,0
-84,372,0,0,0,0,0,0,0,0,0,-1,1140,652,0,0
-77,372,0,0,0,0,0,0,0,0,0,-1,1147,652,0,0
-70,372,0,0,0,0,0,0,0,0,0,-1,1154,652,0,0
-63,372,0,0,0,0,0,0,0,0,0,-1,1161,652,0,0
-56,372,0,0,0,0,0,0,0,0,0,-1,1168,652,0,0
-49,372,0,0,0,0,0,0,0,0,0,-1,1175,652,0,0
-42,372,0,0,0,0,0,0,0,0,0,-1,1182,652,0,0
-35,372,0,0,0,0,0,0,0,0,0,-1,1189,652,0,0
-28,372,0,0,0,0,0,0,0,0,0,-1,1196,652,0,0
-21,372,0,0,0,0,0,0,0,0,0,-1,1203,652,0,0
-14,372,0,0,0,0,0,0,0,0,0,-1,1210,652,0,0
-7,372,0,0,0,0,0,0,0,0,0,-1,1217,652,0,0
0,372,0,0,0,0,0,0,0,0,0,-1,1224,652,0,0
7,372,0,0,0,0,0,0,0,0,0,-1,1231,652,0,0
14,372,0,0,0,0,0,0,0,0,0,-1,1238,652,0,0
21,372,0,0,0,0,0,0,0,0,0,-1,1245,652,0,0
28,372,0,0,0,0,0,0,0,0,0,-1,1252,652,0,0
35,372,0,0,0,0,0,0,0,0,0,-1,1259,652,0,0
42,372,0,0,0,0,0,0,0,0,0,-1,1266,652,0,0
49,372,0,0,0,0,0,0,0,0,0,-1,1273,652,0,0
56,372,0,0,0,0,0,0,0,0,0,-1,1280,652,0,0
63,372,0,0,0,0,0,0,0,0,0,-1,1287,652,0,0
70,372,0,0,0,0,0,0,0,0,0,-1,1294,652,0,0
77,372,0,0,0,0,0,0,0,0,0,-1,1301,652,0,0
84,372,0,0,0,0,0,0,0,0,0,-1,1308,652,0,0
91,372,0,0,0,0,0,0,0,0,0,-1,1315,652,0,0
98,372,0,0,0,0,0,0,0,0,0,-1,1322,652,0,0
105,372,0,0,0,0,0,0,0,0,0,-1,1329,652,0,0
112,372,0,0,0,0,0,0,0,0,0,-1,1336,652,0,0
119,372,0,0,0,0,0,0,0,0,0,-1,1343,652,0,0
126,372,0,0,0,0,0,0,0,0,0,-1,1350,652,0,0
133,372,0,0,0,0,0,0,0,0,0,-1,1357,652,0,0
140,372,0,0,0,0,0,0,0,0,0,-1,1364,652,0,0
147,372,0,0,0,0,0,0,0,0,0,-1,1371,652,0,0
154,372,0,0,0,0,0,0,0,0,0,-1,1378,652,0,0
161,372,0,0,0,0,0,0,0,0,0,-1,1385,652,0,0
168,372,0,0,0,0,0,0,0,0,0,-1,1392,652,0,0
175,372,0,0,0,0,0,0,0,0,0,-1,1399,652,0,0
182,372,0,0,0,0,0,0,0,0,0,-1,1406,652,0,0
189,372,0,0,0,0,0,0,0,0,0,-1,1413,652,0,0
196,372,0,0,0,0,0,0,0,0,0,-1,1420,652,0,0
203,372,0,0,0,0,0,0,0,0,0,-1,1427,652,0,0
210,372,0,0,0,0,0,0,0,0,0,-1,1434,652,0,0
217,372,0,0,0,0,0,0,0,0,0,-1,1441,652,0,0
224,372,0,0,0,0,0,0,0,0,0,-1,1448,652,0,0
231,372,0,0,0,0,0,0,0,0,0,-1,1455,652,0,0
238,372,0,0,0,0,0,0,0,0,0,-1,1462,652,0,0
245,372,0,0,0,0,0,0,0,0,0,-1,1469,652,0,0
252,372,0,0,0,0,0,0,0,0,0,-1,1476,652,0,0
259,372,0,0,0,0,0,0,0,0,0,-1,1483,652,0,0
266,372,0,0,0,0,0,0,0,0,0,-1,1490,652,0,0
273,372,0,0,0,0,0,0,0,0,0,-1,1497,652,0,0
280,372,0,0,0,0,0,0,0,0,0,-1,1504,652,0,0
287,372,0,0,0,0,0,0,0,0,0,-1,1511,652,0,0
294,372,0,0,0,0,0,0,0,0,0,-1,1518,652,0,0
301,372,0,0,0,0,0,0,0,0,0,-1,1525,652,0,0
308,372,0,0,0,0,0,0,0,0,0,-1,1532,652,0,0
315,372,0,0,0,0,0,0,0,0,0,-1,1539,652,0,0
322,372,0,0,0,0,0,0,0,0,0,-1,1546,652,0,0
329,372,0,0,0,0,0,0,0,0,0,-1,1553,652,0,0
336,372,0,0,0,0,0,0,0,0,0,-1,1560,652,0,0
343,372,0,0,0,0,0,0,0,0,0,-1,1567,652,0,0
350,372,0,0,0,0,0,0,0,0,0,-1,1574,652,0,0
357,372,0,0,0,0,0,0,0,0,0,-1,1581,652,0,0
364,372,0,0,0,0,0,0,0,0,0,-1,1588,652,0,0
371,372,0,0,0,0,0,0,0,0,0,-1,1595,652,0,0
378,372,0,0,0,0,0,0,0,0,0,-1,1602,652,0,0
385,372,0,0,0,0,0,0,0,0,0,-1,1609,652,0,0
392,372,0,0,0,0,0,0,0,0,0,-1,1616,652,0,0
399,372,0,0,0,0,0,0,0,0,0,-1,1623,652,0,0
406,372,0,0,0,0,0,0,0,0,0,-1,1630,652,0,0
413,372,0,0,0,0,0,0,0,0,0,-1,1637,652,0,0
420,372,0,0,0,0,0,0,0,0,0,-1,1644,652,0,0
427,372,0,0,0,0,0,0,0,0,0,-1,1651,652,0,0
434,372,0,0,0,0,0,0,0,0,0,-1,1658,652,0,0
441,372,0,0,0,0,0,0,0,0,0,-1,1665,652,0,0
448,372,0,0,0,0,0,0,0,0,0,-1,1672,652,0,0
455,372,0,0,0,0,0,0,0,0,0,-1,1679,652,0,0
462,372,0,0,0,0,0,0,0,0,0,-1,1686,652,0,0
469,372,0,0,0,0,0,0,0,0,0,-1,1693,652,0,0
476,372,0,0,0,0,0,0,0,0,0,-1,1700,652,0,0
483,372,8.74182,1.53125,0,0,0,0,0,0,0,-1,1707,652,8.74186,-1.53126
490,372,9.78455,1.67096,0,0,0,0,0,0,0,-1,1714,652,9.7846,-1.67093
497,372,9.97644,1.46069,0,0,0,0,0,0,0,-1,1721,652,9.97647,-1.46071
504,372,10.1216,1.28375,0,0,0,0,0,0,0,-1,1728,652,10.1216,-1.28376
511,372,11.7367,-0.0272217,0,0,0,0,0,0,0,-1,1735,652,11.7367,0.0272326
518,372,12.0657,-0.0995483,0,0,0,0,0,0,0,-1,1742,652,12.0657,0.0995285
525,372,12.3947,-0.171814,0,0,0,0,0,0,0,-1,1749,652,12.3946,0.171824
532,372,9.36597,1.72034,0,0,0,0,0,0,0,-1,1756,652,9.36597,-1.72036
539,372,7.82886,-0.0865479,0,0,0,0,0,0,0,-1,1763,652,7.82882,0.0865771
546,372,10.953,-0.187195,0,0,0,0,0,0,0,-1,1770,652,10.953,0.187181
553,372,10.7488,-3.15857,0,0,0,0,0,0,0,-1,1777,652,10.7488,3.15858
560,372,10.8354,-2.51434,-0.00793655,0.00142951,-0.00226826,0.00194992,-0.00845696,-1.34527,0.00638793,0.0439904,1784,652,10.8354,2.51433
567,372,10.8208,-1.89038,-0.00706633,7.62507e-05,-0.00265829,0.000956998,-0.00794708,-1.25086,0.00564416,0.0246589,1791,652,10.8208,1.89038
574,372,10.8965,-1.55725,-0.00606276,-0.000687157,-0.00270731,0.000439986,-0.00718991,-1.17629,0.00494646,0.0161682,1798,652,10.8965,1.55724
581,372,10.8788,-1.31866,-0.00476456,-0.00100172,-0.00239463,0.000162182,-0.00592846,-1.11837,0.00400746,0.0145846,1805,652,10.8788,1.31864
588,372,10.8715,-1.05383,-0.00339613,-0.00091495,-0.00187417,9.20356e-05,-0.00440311,-1.07776,0.00296656,0.0162171,1812,652,10.8715,1.05385
595,372,10.8572,-0.808899,-0.00204626,-0.000592312,-0.00124829,0.000125265,-0.00276384,-1.04908,0.0018857,0.013981,1819,652,10.8572,0.808906
602,372,10.8848,-0.578186,-0.000858002,-4.12334e-05,-0.000566907,0.000249068,-0.0011483,-1.09753,0.000860656,0.0128987,1826,652,10.8848,0.578205
609,372,10.8511,-0.317932,-0.000278478,0.000575928,-5.71654e-05,0.000579736,-0.000282286,-1.50428,0.000507469,0.0127601,1833,652,10.851,0.317939
616,372,10.8324,-0.0283203,-4.60085e-05,0.000903727,0.000103824,0.000914945,-5.7226e-05,1.46317,0.000629905,0.0125763,1840,652,10.8324,0.0283343
623,372,10.8618,0.26416,-9.40541e-05,0.00157134,0.000187951,0.00159228,-0.000115002,1.4598,0.00110186,0.011893,1847,652,10.8618,-0.264147
630,372,10.8453,0.53363,-0.00060308,0.0019804,6.76138e-05,0.00198217,-0.000604848,1.54465,0.00156258,0.017161,1854,652,10.8453,-0.533649
637,372,10.8668,0.771606,-0.0019943,0.0021134,-0.000591018,0.00219675,-0.00207764,-1.4307,0.00246814,0.0213135,1861,652,10.8669,-0.771592
644,372,10.917,1.09979,-0.00405908,0.00216533,-0.0016474,0.00257445,-0.0044682,-1.32738,0.00411479,0.023051,1868,652,10.9171,-1.09977
651,372,10.9879,1.43341,-0.0064912,0.00215696,-0.00302961,0.00311267,-0.00744692,-1.26522,0.00626543,0.0493932,1875,652,10.9879,-1.4334
658,372,11.0533,1.66815,0,0,0,0,0,0,0,-1,1882,652,11.0533,-1.66814
665,372,9.24951,1.03357,0,0,0,0,0,0,0,-1,1889,652,9.24953,-1.03356
672,372,9.34106,1.48444,0,0,0,0,0,0,0,-1,1896,652,9.34109,-1.48444
679,372,10.7308,2.32391,0,0,0,0,0,0,0,-1,1903,652,10.7309,-2.3239
686,372,11.6295,2.52997,0,0,0,0,0,0,0,-1,1910,652,11.6296,-2.52996
693,372,0,0,0,0,0,0,0,0,0,-1,1917,652,0,0
700,372,0,0,0,0,0,0,0,0,0,-1,1924,652,0,0
707,372,0,0,0,0,0,0,0,0,0,-1,1931,652,0,0
714,372,0,0,0,0,0,0,0,0,0,-1,1938,652,0,0
721,372,0,0,0,0,0,0,0,0,0,-1,1945,652,0,0
728,372,0,0,0,0,0,0,0,0,0,-1,1952,652,0,0
735,372,0,0,0,0,0,0,0,0,0,-1,1959,652,0,0
742,372,0,0,0,0,0,0,0,0,0,-1,1966,652,0,0
749,372,0,0,0,0,0,0,0,0,0,-1,1973,652,0,0
756,372,0,0,0,0,0,0,0,0,0,-1,1980,652,0,0
763,372,0,0,0,0,0,0,0,0,0,-1,1987,652,0,0
770,372,0,0,0,0,0,0,0,0,0,-1,1994,652,0,0
777,372,0,0,0,0,0,0,0,0,0,-1,2001,652,0,0
784,372,0,0,0,0,0,0,0,0,0,-1,2008,652,0,0
791,372,0,0,0,0,0,0,0,0,0,-1,2015,652,0,0
798,372,0,0,0,0,0,0,0,0,0,-1,2022,652,0,0
805,372,0,0,0,0,0,0,0,0,0,-1,2029,652,0,0
812,372,0,0,0,0,0,0,0,0,0,-1,2036,652,0,0
-700,365,0,0,0,0,0,0,0,0,0,-1,524,659,0,0
-693,365,0,0,0,0,0,0,0,0,0,-1,531,659,0,0
-686,365,0,0,0,0,0,0,0,0,0,-1,538,659,0,0
-679,365,0,0,0,0,0,0,0,0,0,-1,545,659,0,0
-672,365,0,0,0,0,0,0,0,0,0,-1,552,659,0,0
-665,365,0,0,0,0,0,0,0,0,0,-1,559,659,0,0
-658,365,0,0,0,0,0,0,0,0,0,-1,566,659,0,0
-651,365,0,0,0,0,0,0,0,0,0,-1,573,659,0,0
-644,365,0,0,0,0,0,0,0,0,0,-1,580,659,0,0
-637,365,0,0,0,0,0,0,0,0,0,-1,587,659,0,0
-630,365,0,0,0,0,0,0,0,0,0,-1,594,659,0,0
-623,365,0,0,0,0,0,0,0,0,0,-1,601,659,0,0
-616,365,0,0,0,0,0,0,0,0,0,-1,608,659,0,0
-609,365,0,0,0,0,0,0,0,0,0,-1,615,659,0,0
-602,365,0,0,0,0,0,0,0,0,0,-1,622,659,0,0
-595,365,0,0,0,0,0,0,0,0,0,-1,629,659,0,0
-588,365,0,0,0,0,0,0,0,0,0,-1,636,659,0,0
-581,365,0,0,0,0,0,0,0,0,0,-1,643,659,0,0
-574,365,-4.47388,4.59729,0,0,0,0,0,0,0,-1,650,659,-4.47387,-4.59727
-567,365,-4.12921,3.70837,0,0,0,0,0,0,0,-1,657,659,-4.1292,-3.70838
-560,365,-3.93262,2.6405,0,0,0,0,0,0,0,-1,664,659,-3.93261,-2.64047
-553,365,-4.98126,1.32629,0,0,0,0,0,0,0,-1,671,659,-4.98128,-1.32628
-546,365,-5.72473,0.66687,0,0,0,0,0,0,0,-1,678,659,-5.72473,-0.666899
-539,365,-5.4801,0.274902,0,0,0,0,0,0,0,-1,685,659,-5.48011,-0.274886
-532,365,-5.02802,0.2948,0,0,0,0,0,0,0,-1,692,659,-5.028,-0.294816
-525,365,-4.92584,-0.26947,-0.000793407,0.0138277,-0.00556256,0.0157034,-0.00266905,-1.24558,0.0114627,0.043052,699,659,-4.92583,0.269454
-518,365,-4.88635,-0.857971,-0.000642721,0.00830167,-0.00406941,0.00987601,-0.00221707,-1.20166,0.00743406,0.0276401,706,659,-4.88638,0.857954
-511,365,-5.03577,-1.0484,-0.000173972,0.00415056,-0.00305333,0.00572971,-0.00175312,-1.09349,0.00451899,0.0194862,713,659,-5.03575,1.04838
-504,365,-5.03699,-1.31519,-7.14548e-05,0.000716681,-0.00210077,0.00246002,-0.00181479,-0.878112,0.00247742,0.0115014,720,659,-5.03698,1.31516
-497,365,-5.01672,-1.58459,-7.64405e-06,-0.000531966,-0.00114538,0.000905198,-0.00144481,-0.672894,0.00136865,0.0119239,727,659,-5.01674,1.58459
-490,365,-5.00897,-1.83356,0.000292952,-0.000423423,-0.000663223,0.000688531,-0.000819001,-0.537804,0.00087146,0.0128532,734,659,-5.00895,1.83358
-483,365,-5.02777,-2.05316,0.000702393,-0.000515869,-0.000477704,0.000867369,-0.000680845,-0.332528,0.000896021,0.0121369,741,659,-5.02776,2.05316
-476,365,-5.0036,-2.26794,0.00132953,-0.000274655,-0.000658597,0.00156527,-0.000510398,-0.343737,0.00124891,0.0129142,748,659,-5.00362,2.26794
-469,365,-5.00018,-2.5188,0.00199457,1.44511e-05,-0.00104405,0.00244335,-0.000434329,-0.405968,0.00179131,0.0126473,755,659,-5.00018,2.51882
-462,365,-4.99615,-2.76587,0.00237819,0.000418843,-0.0014718,0.00316656,-0.000369522,-0.491756,0.00224438,0.0130652,762,659,-4.99613,2.7659
-455,365,-5.00128,-2.99286,0.00285469,0.000767816,-0.00154371,0.00367453,-5.20236e-05,-0.488204,0.00246721,0.0144442,769,659,-5.00131,2.99285
-448,365,-4.94092,-3.30676,0.00356323,-0.000127723,-0.00122331,0.00393186,-0.000496357,-0.292686,0.00280139,0.0209359,776,659,-4.94092,3.30674
-441,365,-5.1142,-3.60706,0.00383785,-0.00154231,-0.00037896,0.00386441,-0.00156887,-0.069976,0.00322888,0.0484743,783,659,-5.11417,3.60706
-434,365,-5.45056,-3.98041,0,0,0,0,0,0,0,-1,790,659,-5.45055,3.98042
-427,365,-5.05377,-4.74689,0,0,0,0,0,0,0,-1,797,659,-5.05376,4.7469
-420,365,-4.58813,-3.16376,0,0,0,0,0,0,0,-1,804,659,-4.58816,3.16374
-413,365,0.141357,0.672729,0,0,0,0,0,0,0,-1,811,659,0.141365,-0.672714
-406,365,-1.75067,-0.934448,0,0,0,0,0,0,0,-1,818,659,-1.7507,0.934424
-399,365,-4.10242,-1.25439,0,0,0,0,0,0,0,-1,825,659,-4.10244,1.25438
-392,365,-7.46545,-0.779724,0,0,0,0,0,0,0,-1,832,659,-7.46543,0.779744
-385,365,-6.27875,-0.887573,0,0,0,0,0,0,0,-1,839,659,-6.27874,0.887545
-378,365,-5.34503,-0.263306,0,0,0,0,0,0,0,-1,846,659,-5.34504,0.263275
-371,365,0,0,0,0,0,0,0,0,0,-1,853,659,0,0
-364,365,0,0,0,0,0,0,0,0,0,-1,860,659,0,0
-357,365,0,0,0,0,0,0,0,0,0,-1,867,659,0,0
-350,365,0,0,0,0,0,0,0,0,0,-1,874,659,0,0
-343,365,0,0,0,0,0,0,0,0,0,-1,881,659,0,0
-336,365,0,0,0,0,0,0,0,0,0,-1,888,659,0,0
-329,365,0,0,0,0,0,0,0,0,0,-1,895,659,0,0
-322,365,0,0,0,0,0,0,0,0,0,-1,902,659,0,0
-315,365,0,0,0,0,0,0,0,0,0,-1,909,659,0,0
-308,365,0,0,0,0,0,0,0,0,0,-1,916,659,0,0
-301,365,0,0,0,0,0,0,0,0,0,-1,923,659,0,0
-294,365,0,0,0,0,0,0,0,0,0,-1,930,659,0,0
-287,365,0,0,0,0,0,0,0,0,0,-1,937,659,0,0
-280,365,0,0,0,0,0,0,0,0,0,-1,944,659,0,0
-273,365,0,0,0,0,0,0,0,0,0,-1,951,659,0,0
-266,365,0,0,0,0,0,0,0,0,0,-1,958,659,0,0
-259,365,0,0,0,0,0,0,0,0,0,-1,965,659,0,0
-252,365,0,0,0,0,0,0,0,0,0,-1,972,659,0,0
-245,365,0,0,0,0,0,0,0,0,0,-1,979,659,0,0
-238,365,0,0,0,0,0,0,0,0,0,-1,986,659,0,0
-231,365,0,0,0,0,0,0,0,0,0,-1,993,659,0,0
-224,365,0,0,0,0,0,0,0,0,0,-1,1000,659,0,0
-217,365,0,0,0,0,0,0,0,0,0,-1,1007,659,0,0
-210,365,0,0,0,0,0,0,0,0,0,-1,1014,659,0,0
-203,365,0,0,0,0,0,0,0,0,0,-1,1021,659,0,0
-196,365,0,0,0,0,0,0,0,0,0,-1,1028,659,0,0
-189,365,0,0,0,0,0,0,0,0,0,-1,1035,659,0,0
-182,365,0,0,0,0,0,0,0,0,0,-1,1042,659,0,0
-175,365,0,0,0,0,0,0,0,0,0,-1,1049,659,0,0
-168,365,0,0,0,0,0,0,0,0,0,-1,1056,659,0,0
-161,365,0,0,0,0,0,0,0,0,0,-1,1063,659,0,0
-154,365,0,0,0,0,0,0,0,0,0,-1,1070,659,0,0
-147,365,0,0,0,0,0,0,0,0,0,-1,1077,659,0,0
-140,365,0,0,0,0,0,0,0,0,0,-1,1084,659,0,0
-133,365,0,0,0,0,0,0,0,0,0,-1,1091,659,0,0
-126,365,0,0,0,0,0,0,0,0,0,-1,1098,659,0,0
-119,365,0,0,0,0,0,0,0,0,0,-1,1105,659,0,0
-112,365,0,0,0,0,0,0,0,0,0,-1,1112,659,0,0
-105,365,0,0,0,0,0,0,0,0,0,-1,1119,659,0,0
-98,365,0,0,0,0,0,0,0,0,0,-1,1126,659,0,0
-91,365,0,0,0,0,0,0,0,0,0,-1,1133,659,0,0
-84,365,0,0,0,0,0,0,0,0,0,-1,1140,659,0,0
-77,365,0,0,0,0,0,0,0,0,0,-1,1147,659,0,0
-70,365,0,0,0,0,0,0,0,0,0,-1,1154,659,0,0
-63,365,0,0,0,0,0,0,0,0,0,-1,1161,659,0,0
-56,365,0,0,0,0,0,0,0,0,0,-1,1168,659,0,0
-49,365,0,0,0,0,0,0,0,0,0,-1,1175,659,0,0
-42,365,0,0,0,0,0,0,0,0,0,-1,1182,659,0,0
-35,365,0,0,0,0,0,0,0,0,0,-1,1189,659,0,0
-28,365,0,0,0,0,0,0,0,0,0,-1,1196,659,0,0
-21,365,0,0,0,0,0,0,0,0,0,-1,1203,659,0,0
-14,365,0,0,0,0,0,0,0,0,0,-1,1210,659,0,0
-7,365,0,0,0,0,0,0,0,0,0,-1,1217,659,0,0
0,365,0,0,0,0,0,0,0,0,0,-1,1224,659,0,0
7,365,0,0,0,0,0,0,0,0,0,-1,1231,659,0,0
14,365,0,0,0,0,0,0,0,0,0,-1,1238,659,0,0
21,365,0,0,0,0,0,0,0,0,0,-1,1245,659,0,0
28,365,0,0,0,0,0,0,0,0,0,-1,1252,659,0,0
35,365,0,0,0,0,0,0,0,0,0,-1,1259,659,0,0
42,365,0,0,0,0,0,0,0,0,0,-1,1266,659,0,0
49,365,0,0,0,0,0,0,0,0,0,-1,1273,659,0,0
56,365,0,0,0,0,0,0,0,0,0,-1,1280,659,0,0
63,365,0,0,0,0,0,0,0,0,0,-1,1287,659,0,0
70,365,0,0,0,0,0,0,0,0,0,-1,1294,659,0,0
77,365,0,0,0,0,0,0,0,0,0,-1,1301,659,0,0
84,365,0,0,0,0,0,0,0,0,0,-1,1308,659,0,0
91,365,0,0,0,0,0,0,0,0,0,-1,1315,659,0,0
98,365,0,0,0,0,0,0,0,0,0,-1,1322,659,0,0
105,365,0,0,0,0,0,0,0,0,0,-1,1329,659,0,0
112,365,0,0,0,0,0,0,0,0,0,-1,1336,659,0,0
119,365,0,0,0,0,0,0,0,0,0,-1,1343,659,0,0
126,365,0,0,0,0,0,0,0,0,0,-1,1350,659,0,0
133,365,0,0,0,0,0,0,0,0,0,-1,1357,659,0,0
140,365,0,0,0,0,0,0,0,0,0,-1,1364,659,0,0
147,365,0,0,0,0,0,0,0,0,0,-1,1371,659,0,0
154,365,0,0,0,0,0,0,0,0,0,-1,1378,659,0,0
161,365,0,0,0,0,0,0,0,0,0,-1,1385,659,0,0
168,365,0,0,0,0,0,0,0,0,0,-1,1392,659,0,0
175,365,0,0,0,0,0,0,0,0,0,-1,1399,659,0,0
182,365,0,0,0,0,0,0,0,0,0,-1,1406,659,0,0
189,365,0,0,0,0,0,0,0,0,0,-1,1413,659,0,0
196,365,0,0,0,0,0,0,0,0,0,-1,1420,659,0,0
203,365,0,0,0,0,0,0,0,0,0,-1,1427,659,0,0
210,365,0,0,0,0,0,0,0,0,0,-1,1434,659,0,0
217,365,0,0,0,0,0,0,0,0,0,-1,1441,659,0,0
224,365,0,0,0,0,0,0,0,0,0,-1,1448,659,0,0
231,365,0,0,0,0,0,0,0,0,0,-1,1455,659,0,0
238,365,0,0,0,0,0,0,0,0,0,-1,1462,659,0,0
245,365,0,0,0,0,0,0,0,0,0,-1,1469,659,0,0
252,365,0,0,0,0,0,0,0,0,0,-1,1476,659,0,0
259,365,0,0,0,0,0,0,0,0,0,-1,1483,659,0,0
266,365,0,0,0,0,0,0,0,0,0,-1,1490,659,0,0
273,365,0,0,0,0,0,0,0,0,0,-1,1497,659,0,0
280,365,0,0,0,0,0,0,0,0,0,-1,1504,659,0,0
287,365,0,0,0,0,0,0,0,0,0,-1,1511,659,0,0
294,365,0,0,0,0,0,0,0,0,0,-1,1518,659,0,0
301,365,0,0,0,0,0,0,0,0,0,-1,1525,659,0,0
308,365,0,0,0,0,0,0,0,0,0,-1,1532,659,0,0
315,365,0,0,0,0,0,0,0,0,0,-1,1539,659,0,0
322,365,0,0,0,0,0,0,0,0,0,-1,1546,659,0,0
329,365,0,0,0,0,0,0,0,0,0,-1,1553,659,0,0
336,365,0,0,0,0,0,0,0,0,0,-1,1560,659,0,0
343,365,0,0,0,0,0,0,0,0,0,-1,1567,659,0,0
350,365,0,0,0,0,0,0,0,0,0,-1,1574,659,0,0
357,365,0,0,0,0,0,0,0,0,0,-1,1581,659,0,0
364,365,0,0,0,0,0,0,0,0,0,-1,1588,659,0,0
371,365,0,0,0,0,0,0,0,0,0,-1,1595,659,0,0
378,365,0,0,0,0,0,0,0,0,0,-1,1602,659,0,0
385,365,0,0,0,0,0,0,0,0,0,-1,1609,659,0,0
392,365,0,0,0,0,0,0,0,0,0,-1,1616,659,0,0
399,365,0,0,0,0,0,0,0,0,0,-1,1623,659,0,0
406,365,0,0,0,0,0,0,0,0,0,-1,1630,659,0,0
413,365,0,0,0,0,0,0,0,0,0,-1,1637,659,0,0
420,365,0,0,0,0,0,0,0,0,0,-1,1644,659,0,0
427,365,0,0,0,0,0,0,0,0,0,-1,1651,659,0,0
434,365,0,0,0,0,0,0,0,0,0,-1,1658,659,0,0
441,365,0,0,0,0,0,0,0,0,0,-1,1665,659,0,0
448,365,0,0,0,0,0,0,0,0,0,-1,1672,659,0,0
455,365,0,0,0,0,0,0,0,0,0,-1,1679,659,0,0
462,365,0,0,0,0,0,0,0,0,0,-1,1686,659,0,0
469,365,0,0,0,0,0,0,0,0,0,-1,1693,659,0,0
476,365,0,0,0,0,0,0,0,0,0,-1,1700,659,0,0
483,365,0,0,0,0,0,0,0,0,0,-1,1707,659,0,0
490,365,8.39551,0.471252,0,0,0,0,0,0,0,-1,1714,659,8.39551,-0.471241
497,365,9.89233,1.35394,0,0,0,0,0,0,0,-1,1721,659,9.89237,-1.35396
504,365,10.1414,1.18005,0,0,0,0,0,0,0,-1,1728,659,10.1413,-1.18004
511,365,10.5151,0.993896,0,0,0,0,0,0,0,-1,1735,659,10.5152,-0.993894
518,365,11.2029,0.398132,0,0,0,0,0,0,0,-1,1742,659,11.2029,-0.398136
525,365,15.5748,3.85303,0,0,0,0,0,0,0,-1,1749,659,15.5748,-3.85303
532,365,11.2446,1.00629,0,0,0,0,0,0,0,-1,1756,659,11.2446,-1.00631
539,365,12.6301,1.03204,0,0,0,0,0,0,0,-1,1763,659,12.6302,-1.03204
546,365,11.647,0.84198,0,0,0,0,0,0,0,-1,1770,659,11.6469,-0.841955
553,365,12.028,-0.558899,0,0,0,0,0,0,0,-1,1777,659,12.028,0.558873
560,365,11.234,-3.12451,0,0,0,0,0,0,0,-1,1784,659,11.234,3.12451
567,365,11.2378,-2.09692,0,0,0,0,0,0,0,-1,1791,659,11.2378,2.09692
574,365,11.3289,-1.64471,-0.00847091,-0.00163341,-0.00394469,0.000167845,-0.0102722,-1.14244,0.00690474,0.0418553,1798,659,11.3288,1.6447
581,365,11.1482,-1.37823,-0.00665603,-0.00191548,-0.00343529,-0.000112101,-0.00845942,-1.08738,0.00560262,0.0199896,1805,659,11.1482,1.37825
588,365,11.0957,-1.09326,-0.00484255,-0.00172677,-0.00272581,-0.000145065,-0.00642426,-1.04501,0.00423531,0.0126891,1812,659,11.0957,1.09326
595,365,11.1173,-0.802368,-0.00320217,-0.00131933,-0.00195779,-8.83781e-05,-0.00443313,-1.00951,0.0029264,0.0123939,1819,659,11.1174,0.802342
602,365,11.1381,-0.548523,-0.00178445,-0.000730072,-0.00118479,3.95252e-05,-0.00255405,-0.994728,0.00171603,0.0131643,1826,659,11.138,0.548519
609,365,11.0911,-0.283325,-0.000979804,-5.61227e-05,-0.000585886,0.000228065,-0.00126399,-1.11917,0.000928071,0.0140638,1833,659,11.091,0.283303
616,365,11.101,0.00610352,-0.000613274,0.000198454,-0.000415107,0.000373142,-0.000787961,-1.17247,0.000684475,0.0152927,1840,659,11.101,-0.0061128
623,365,11.1378,0.257813,-0.00061035,0.000812629,-0.000349496,0.000893834,-0.000691556,-1.3425,0.000917805,0.011317,1847,659,11.1378,-0.257789
630,365,11.1078,0.523987,-0.00104688,0.00112643,-0.00046813,0.00122297,-0.00114343,-1.36741,0.0013665,0.016218,1854,659,11.1078,-0.52396
637,365,11.1168,0.773376,-0.00217826,0.00134095,-0.00101398,0.0016122,-0.00244951,-1.30941,0.00236158,0.0214853,1861,659,11.1168,-0.773372
644,365,11.1494,1.0365,-0.00397455,0.00129749,-0.00201409,0.00197887,-0.00465593,-1.24458,0.00393317,0.0151011,1868,659,11.1494,-1.0365
651,365,11.256,1.33649,-0.00611036,0.00116656,-0.00330916,0.00244632,-0.00739012,-1.20178,0.00591333,0.0294134,1875,659,11.256,-1.33648
658,365,10.7698,1.37134,-0.00869779,0.000871197,-0.004963,0.00298038,-0.010807,-1.16894,0.00837674,0.0463951,1882,659,10.7698,-1.37134
665,365,10.4063,1.5697,0,0,0,0,0,0,0,-1,1889,659,10.4063,-1.56969
672,365,10.0579,2.15088,0,0,0,0,0,0,0,-1,1896,659,10.0579,-2.15088
679,365,10.9718,2.19208,0,0,0,0,0,0,0,-1,1903,659,10.9718,-2.19211
686,365,12.2134,2.17108,0,0,0,0,0,0,0,-1,1910,659,12.2134,-2.17109
693,365,13.7141,1.98279,0,0,0,0,0,0,0,-1,1917,659,13.7141,-1.98278
700,365,0,0,0,0,0,0,0,0,0,-1,1924,659,0,0
707,365,0,0,0,0,0,0,0,0,0,-1,1931,659,0,0
714,365,0,0,0,0,0,0,0,0,0,-1,1938,659,0,0
721,365,0,0,0,0,0,0,0,0,0,-1,1945,659,0,0
728,365,0,0,0,0,0,0,0,0,0,-1,1952,659,0,0
735,365,0,0,0,0,0,0,0,0,0,-1,1959,659,0,0
742,365,0,0,0,0,0,0,0,0,0,-1,1966,659,0,0
749,365,0,0,0,0,0,0,0,0,0,-1,1973,659,0,0
756,365,0,0,0,0,0,0,0,0,0,-1,1980,659,0,0
763,365,0,0,0,0,0,0,0,0,0,-1,1987,659,0,0
770,365,0,0,0,0,0,0,0,0,0,-1,1994,659,0,0
777,365,0,0,0,0,0,0,0,0,0,-1,2001,659,0,0
784,365,0,0,0,0,0,0,0,0,0,-1,2008,659,0,0
791,365,0,0,0,0,0,0,0,0,0,-1,2015,659,0,0
798,365,0,0,0,0,0,0,0,0,0,-1,2022,659,0,0
805,365,0,0,0,0,0,0,0,0,0,-1,2029,659,0,0
812,365,0,0,0,0,0,0,0,0,0,-1,2036,659,0,0
-700,358,0,0,0,0,0,0,0,0,0,-1,524,666,0,0
-693,358,0,0,0,0,0,0,0,0,0,-1,531,666,0,0
-686,358,0,0,0,0,0,0,0,0,0,-1,538,666,0,0
-679,358,0,0,0,0,0,0,0,0,0,-1,545,666,0,0
-672,358,0,0,0,0,0,0,0,0,0,-1,552,666,0,0
-665,358,0,0,0,0,0,0,0,0,0,-1,559,666,0,0
-658,358,0,0,0,0,0,0,0,0,0,-1,566,666,0,0
-651,358,0,0,0,0,0,0,0,0,0,-1,573,666,0,0
-644,358,0,0,0,0,0,0,0,0,0,-1,580,666,0,0
-637,358,0,0,0,0,0,0,0,0,0,-1,587,666,0,0
-630,358,0,0,0,0,0,0,0,0,0,-1,594,666,0,0
-623,358,0,0,0,0,0,0,0,0,0,-1,601,666,0,0
-616,358,0,0,0,0,0,0,0,0,0,-1,608,666,0,0
-609,358,0,0,0,0,0,0,0,0,0,-1,615,666,0,0
-602,358,0,0,0,0,0,0,0,0,0,-1,622,666,0,0
-595,358,0,0,0,0,0,0,0,0,0,-1,629,666,0,0
-588,358,0,0,0,0,0,0,0,0,0,-1,636,666,0,0
-581,358,-5.15869,4.84088,0,0,0,0,0,0,0,-1,643,666,-5.15868,-4.84087
-574,358,-4.90881,4.24939,0,0,0,0,0,0,0,-1,650,666,-4.90881,-4.24939
-567,358,-4.12598,3.14642,0,0,0,0,0,0,0,-1,657,666,-4.126,-3.14645
-560,358,-5.65979,2.2818,0,0,0,0,0,0,0,-1,664,666,-5.65981,-2.28181
-553,358,-5.51733,1.33368,-0.00886767,0.0622381,-0.00532615,0.0626348,-0.00926441,-1.49644,0.0451625,0.0490741,671,666,-5.51733,-1.33366
-546,358,-5.68579,0.597412,0,0,0,0,0,0,0,-1,678,666,-5.68577,-0.597384
-539,358,-5.65143,0.203308,-0.0026007,0.0319786,-0.00621838,0.0330628,-0.00368495,-1.39817,0.0233673,0.0450873,685,666,-5.65142,-0.203293
-532,358,-5.49182,-0.236084,-0.00125554,0.0217418,-0.00557513,0.023022,-0.00253582,-1.34507,0.0162593,0.0416276,692,666,-5.4918,0.236105
-525,358,-5.19794,-0.67041,-0.000607692,0.0141716,-0.00457655,0.015474,-0.00191009,-1.29354,0.0110081,0.0307324,699,666,-5.19793,0.670381
-518,358,-5.16895,-0.744507,-0.000305875,0.00880151,-0.00347888,0.00997832,-0.00148269,-1.24461,0.00719753,0.025986,706,666,-5.16896,0.744519
-511,358,-5.26373,-1.0434,0.00025551,0.00472206,-0.00272444,0.00601158,-0.00103401,-1.12872,0.00439314,0.0145866,713,666,-5.26373,1.0434
-504,358,-5.27356,-1.30316,0.000497589,0.0012769,-0.00201799,0.0029425,-0.00116802,-0.88077,0.00244581,0.0106369,720,666,-5.27354,1.30319
-497,358,-5.25879,-1.56464,0.000605374,-5.81049e-05,-0.00119879,0.00151747,-0.000970205,-0.650411,0.0014478,0.0102005,727,666,-5.25881,1.56462
-490,358,-5.24475,-1.8075,0.000899396,-5.05575e-05,-0.000751258,0.00131323,-0.000464395,-0.503503,0.0010646,0.00975161,734,666,-5.24476,1.8075
-483,358,-5.26666,-2.02344,0.00131726,-0.000198553,-0.000578835,0.00151301,-0.000394309,-0.326116,0.00116262,0.00956945,741,666,-5.26664,2.02341
-476,358,-5.24518,-2.24622,0.00192232,-2.77868e-05,-0.000736325,0.00216911,-0.000274578,-0.323399,0.00154575,0.0111134,748,666,-5.24515,2.24622
-469,358,-5.24982,-2.5188,0.00257447,0.000350932,-0.00112686,0.00304569,-0.000120286,-0.39607,0.00207172,0.0134527,755,666,-5.24981,2.51883
-462,358,-5.26416,-2.76843,0.00291734,0.000766234,-0.00150551,0.00369202,-8.44838e-06,-0.475232,0.00246417,0.0154495,762,666,-5.26415,2.76846
-455,358,-5.21393,-3.01172,0.00324199,0.00115856,-0.00147223,0.00400378,0.000396775,-0.477501,0.00254725,0.0207953,769,666,-5.21392,3.01173
-448,358,-5.09058,-3.43451,0,0,0,0,0,0,0,-1,776,666,-5.0906,3.43454
-441,358,-5.56293,-3.98041,0,0,0,0,0,0,0,-1,783,666,-5.56291,3.98043
-434,358,-5.21558,-4.43127,0,0,0,0,0,0,0,-1,790,666,-5.21559,4.43125
-427,358,-3.56189,-3.15729,0,0,0,0,0,0,0,-1,797,666,-3.56192,3.15729
-420,358,0.200195,1.08234,0,0,0,0,0,0,0,-1,804,666,0.200174,-1.08231
-413,358,0.0325317,0.161072,0,0,0,0,0,0,0,-1,811,666,0.0325501,-0.161098
-406,358,-3.85846,0.753113,0,0,0,0,0,0,0,-1,818,666,-3.85846,-0.753129
-399,358,-1.31213,0.190735,0,0,0,0,0,0,0,-1,825,666,-1.31215,-0.190763
-392,358,-3.73914,-0.832214,0,0,0,0,0,0,0,-1,832,666,-3.73915,0.832202
-385,358,-5.95178,-1.69141,0,0,0,0,0,0,0,-1,839,666,-5.9518,1.69143
-378,358,0,0,0,0,0,0,0,0,0,-1,846,666,0,0
-371,358,0,0,0,0,0,0,0,0,0,-1,853,666,0,0
-364,358,0,0,0,0,0,0,0,0,0,-1,860,666,0,0
-357,358,0,0,0,0,0,0,0,0,0,-1,867,666,0,0
-350,358,0,0,0,0,0,0,0,0,0,-1,874,666,0,0
-343,358,0,0,0,0,0,0,0,0,0,-1,881,666,0,0
-336,358,0,0,0,0,0,0,0,0,0,-1,888,666,0,0
-329,358,0,0,0,0,0,0,0,0,0,-1,895,666,0,0
-322,358,0,0,0,0,0,0,0,0,0,-1,902,666,0,0
-315,358,0,0,0,0,0,0,0,0,0,-1,909,666,0,0
-308,358,0,0,0,0,0,0,0,0,0,-1,916,666,0,0
-301,358,0,0,0,0,0,0,0,0,0,-1,923,666,0,0
-294,358,0,0,0,0,0,0,0,0,0,-1,930,666,0,0
-287,358,0,0,0,0,0,0,0,0,0,-1,937,666,0,0
-280,358,0,0,0,0,0,0,0,0,0,-1,944,666,0,0
-273,358,0,0,0,0,0,0,0,0,0,-1,951,666,0,0
-266,358,0,0,0,0,0,0,0,0,0,-1,958,666,0,0
-259,358,0,0,0,0,0,0,0,0,0,-1,965,666,0,0
-252,358,0,0,0,0,0,0,0,0,0,-1,972,666,0,0
-245,358,0,0,0,0,0,0,0,0,0,-1,979,666,0,0
-238,358,0,0,0,0,0,0,0,0,0,-1,986,666,0,0
-231,358,0,0,0,0,0,0,0,0,0,-1,993,666,0,0
-224,358,0,0,0,0,0,0,0,0,0,-1,1000,666,0,0
-217,358,0,0,0,0,0,0,0,0,0,-1,1007,666,0,0
-210,358,0,0,0,0,0,0,0,0,0,-1,1014,666,0,0
-203,358,0,0,0,0,0,0,0,0,0,-1,1021,666,0,0
-196,358,0,0,0,0,0,0,0,0,0,-1,1028,666,0,0
-189,358,0,0,0,0,0,0,0,0,0,-1,1035,666,0,0
-182,358,0,0,0,0,0,0,0,0,0,-1,1042,666,0,0
-175,358,0,0,0,0,0,0,0,0,0,-1,1049,666,0,0
-168,358,0,0,0,0,0,0,0,0,0,-1,1056,666,0,0
-161,358,0,0,0,0,0,0,0,0,0,-1,1063,666,0,0
-154,358,0,0,0,0,0,0,0,0,0,-1,1070,666,0,0
-147,358,0,0,0,0,0,0,0,0,0,-1,1077,666,0,0
-140,358,0,0,0,0,0,0,0,0,0,-1,1084,666,0,0
-133,358,0,0,0,0,0,0,0,0,0,-1,1091,666,0,0
-126,358,0,0,0,0,0,0,0,0,0,-1,1098,666,0,0
-119,358,0,0,0,0,0,0,0,0,0,-1,1105,666,0,0
-112,358,0,0,0,0,0,0,0,0,0,-1,1112,666,0,0
-105,358,0,0,0,0,0,0,0,0,0,-1,1119,666,0,0
-98,358,0,0,0,0,0,0,0,0,0,-1,1126,666,0,0
-91,358,0,0,0,0,0,0,0,0,0,-1,1133,666,0,0
-84,358,0,0,0,0,0,0,0,0,0,-1,1140,666,0,0
-77,358,0,0,0,0,0,0,0,0,0,-1,1147,666,0,0
-70,358,0,0,0,0,0,0,0,0,0,-1,1154,666,0,0
-63,358,0,0,0,0,0,0,0,0,0,-1,1161,666,0,0
-56,358,0,0,0,0,0,0,0,0,0,-1,1168,666,0,0
-49,358,0,0,0,0,0,0,0,0,0,-1,1175,666,0,0
-42,358,0,0,0,0,0,0,0,0,0,-1,1182,666,0,0
-35,358,0,0,0,0,0,0,0,0,0,-1,1189,666,0,0
-28,358,0,0,0,0,0,0,0,0,0,-1,1196,666,0,0
-21,358,0,0,0,0,0,0,0,0,0,-1,1203,666,0,0
-14,358,0,0,0,0,0,0,0,0,0,-1,1210,666,0,0
-7,358,0,0,0,0,0,0,0,0,0,-1,1217,666,0,0
0,358,0,0,0,0,0,0,0,0,0,-1,1224,666,0,0
7,358,0,0,0,0,0,0,0,0,0,-1,1231,666,0,0
14,358,0,0,0,0,0,0,0,0,0,-1,1238,666,0,0
21,358,0,0,0,0,0,0,0,0,0,-1,1245,666,0,0
28,358,0,0,0,0,0,0,0,0,0,-1,1252,666,0,0
35,358,0,0,0,0,0,0,0,0,0,-1,1259,666,0,0
42,358,0,0,0,0,0,0,0,0,0,-1,1266,666,0,0
49,358,0,0,0,0,0,0,0,0,0,-1,1273,666,0,0
56,358,0,0,0,0,0,0,0,0,0,-1,1280,666,0,0
63,358,0,0,0,0,0,0,0,0,0,-1,1287,666,0,0
70,358,0,0,0,0,0,0,0,0,0,-1,1294,666,0,0
77,358,0,0,0,0,0,0,0,0,0,-1,1301,666,0,0
84,358,0,0,0,0,0,0,0,0,0,-1,1308,666,0,0
91,358,0,0,0,0,0,0,0,0,0,-1,1315,666,0,0
98,358,0,0,0,0,0,0,0,0,0,-1,1322,666,0,0
105,358,0,0,0,0,0,0,0,0,0,-1,1329,666,0,0
112,358,0,0,0,0,0,0,0,0,0,-1,1336,666,0,0
119,358,0,0,0,0,0,0,0,0,0,-1,1343,666,0,0
126,358,0,0,0,0,0,0,0,0,0,-1,1350,666,0,0
133,358,0,0,0,0,0,0,0,0,0,-1,1357,666,0,0
140,358,0,0,0,0,0,0,0,0,0,-1,1364,666,0,0
147,358,0,0,0,0,0,0,0,0,0,-1,1371,666,0,0
154,358,0,0,0,0,0,0,0,0,0,-1,1378,666,0,0
161,358,0,0,0,0,0,0,0,0,0,-1,1385,666,0,0
168,358,0,0,0,0,0,0,0,0,0,-1,1392,666,0,0
175,358,0,0,0,0,0,0,0,0,0,-1,1399,666,0,0
182,358,0,0,0,0,0,0,0,0,0,-1,1406,666,0,0
189,358,0,0,0,0,0,0,0,0,0,-1,1413,666,0,0
196,358,0,0,0,0,0,0,0,0,0,-1,1420,666,0,0
203,358,0,0,0,0,0,0,0,0,0,-1,1427,666,0,0
210,358,0,0,0,0,0,0,0,0,0,-1,1434,666,0,0
217,358,0,0,0,0,0,0,0,0,0,-1,1441,666,0,0
224,358,0,0,0,0,0,0,0,0,0,-1,1448,666,0,0
231,358,0,0,0,0,0,0,0,0,0,-1,1455,666,0,0
238,358,0,0,0,0,0,0,0,0,0,-1,1462,666,0,0
245,358,0,0,0,0,0,0,0,0,0,-1,1469,666,0,0
252,358,0,0,0,0,0,0,0,0,0,-1,1476,666,0,0
259,358,0,0,0,0,0,0,0,0,0,-1,1483,666,0,0
266,358,0,0,0,0,0,0,0,0,0,-1,1490,666,0,0
273,358,0,0,0,0,0,0,0,0,0,-1,1497,666,0,0
280,358,0,0,0,0,0,0,0,0,0,-1,1504,666,0,0
287,358,0,0,0,0,0,0,0,0,0,-1,1511,666,0,0
294,358,0,0,0,0,0,0,0,0,0,-1,1518,666,0,0
301,358,0,0,0,0,0,0,0,0,0,-1,1525,666,0,0
308,358,0,0,0,0,0,0,0,0,0,-1,1532,666,0,0
315,358,0,0,0,0,0,0,0,0,0,-1,1539,666,0,0
322,358,0,0,0,0,0,0,0,0,0,-1,1546,666,0,0
329,358,0,0,0,0,0,0,0,0,0,-1,1553,666,0,0
336,358,0,0,0,0,0,0,0,0,0,-1,1560,666,0,0
343,358,0,0,0,0,0,0,0,0,0,-1,1567,666,0,0
350,358,0,0,0,0,0,0,0,0,0,-1,1574,666,0,0
357,358,0,0,0,0,0,0,0,0,0,-1,1581,666,0,0
364,358,0,0,0,0,0,0,0,0,0,-1,1588,666,0,0
371,358,0,0,0,0,0,0,0,0,0,-1,1595,666,0,0
378,358,0,0,0,0,0,0,0,0,0,-1,1602,666,0,0
385,358,0,0,0,0,0,0,0,0,0,-1,1609,666,0,0
392,358,0,0,0,0,0,0,0,0,0,-1,1616,666,0,0
399,358,0,0,0,0,0,0,0,0,0,-1,1623,666,0,0
406,358,0,0,0,0,0,0,0,0,0,-1,1630,666,0,0
413,358,0,0,0,0,0,0,0,0,0,-1,1637,666,0,0
420,358,0,0,0,0,0,0,0,0,0,-1,1644,666,0,0
427,358,0,0,0,0,0,0,0,0,0,-1,1651,666,0,0
434,358,0,0,0,0,0,0,0,0,0,-1,1658,666,0,0
441,358,0,0,0,0,0,0,0,0,0,-1,1665,666,0,0
448,358,0,0,0,0,0,0,0,0,0,-1,1672,666,0,0
455,358,0,0,0,0,0,0,0,0,0,-1,1679,666,0,0
462,358,0,0,0,0,0,0,0,0,0,-1,1686,666,0,0
469,358,0,0,0,0,0,0,0,0,0,-1,1693,666,0,0
476,358,0,0,0,0,0,0,0,0,0,-1,1700,666,0,0
483,358,0,0,0,0,0,0,0,0,0,-1,1707,666,0,0
490,358,0,0,0,0,0,0,0,0,0,-1,1714,666,0,0
497,358,8.57239,1.1322,0,0,0,0,0,0,0,-1,1721,666,8.57234,-1.13219
504,358,10.5972,0.832947,0,0,0,0,0,0,0,-1,1728,666,10.5972,-0.832968
511,358,10.6873,0.868469,0,0,0,0,0,0,0,-1,1735,666,10.6872,-0.868484
518,358,16.5884,2.34894,0,0,0,0,0,0,0,-1,1742,666,16.5884,-2.34894
525,358,15.7626,3.65344,0,0,0,0,0,0,0,-1,1749,666,15.7626,-3.65342
532,358,14.9368,4.95789,0,0,0,0,0,0,0,-1,1756,666,14.9367,-4.9579
539,358,15.1597,3.42694,0,0,0,0,0,0,0,-1,1763,666,15.1597,-3.42692
546,358,12.3792,1.53558,0,0,0,0,0,0,0,-1,1770,666,12.3792,-1.5356
553,358,11.6584,1.26172,0,0,0,0,0,0,0,-1,1777,666,11.6585,-1.26175
560,358,10.8234,1.43042,0,0,0,0,0,0,0,-1,1784,666,10.8233,-1.43041
567,358,10.1333,-0.955139,0,0,0,0,0,0,0,-1,1791,666,10.1333,0.955132
574,358,11.8108,-1.83252,0,0,0,0,0,0,0,-1,1798,666,11.8108,1.83255
581,358,11.5305,-1.2923,-0.00861969,-0.00311697,-0.00457015,-0.00053389,-0.0112028,-1.05635,0.00729706,0.0315435,1805,666,11.5305,1.2923
588,358,11.3323,-1.10779,-0.00630485,-0.00272086,-0.00360601,-0.000486126,-0.00853958,-1.016,0.00553813,0.0168249,1812,666,11.3323,1.10781
595,358,11.3799,-0.792786,-0.00432406,-0.00214403,-0.00263793,-0.000379788,-0.00608831,-0.981319,0.00393838,0.0116237,1819,666,11.3799,0.792764
602,358,11.3689,-0.519714,-0.00261782,-0.00146869,-0.0017386,-0.000212174,-0.00387434,-0.944987,0.00251515,0.0119333,1826,666,11.3689,0.519693
609,358,11.3368,-0.279053,-0.00150936,-0.000689934,-0.00100958,-1.01011e-05,-0.0021892,-0.978158,0.00145611,0.0156538,1833,666,11.3368,0.279078
616,358,11.3525,0.0139771,-0.00096012,-0.000429289,-0.000770367,0.000120102,-0.00150951,-0.951295,0.00104867,0.0152324,1840,666,11.3525,-0.0139616
623,358,11.395,0.267273,-0.000876146,0.000166847,-0.00068271,0.000504449,-0.00121375,-1.11156,0.00101979,0.0140332,1847,666,11.3951,-0.267297
630,358,11.3588,0.503235,-0.00121083,0.000441549,-0.000775305,0.000748359,-0.00151764,-1.19398,0.00133317,0.0181368,1854,666,11.3588,-0.503226
637,358,11.3364,0.749573,-0.00207842,0.000762367,-0.00118953,0.00119467,-0.00251073,-1.22221,0.00218383,0.0244524,1861,666,11.3364,-0.749551
644,358,11.3914,1.03223,-0.00362007,0.000686245,-0.00209155,0.00153486,-0.00446869,-1.18535,0.00360147,0.0190663,1868,666,11.3913,-1.03221
651,358,11.4504,1.33368,-0.00546977,0.000507779,-0.00325224,0.001936,-0.006898,-1.157,0.0053618,0.0212176,1875,666,11.4505,-1.33367
658,358,11.1459,1.50299,-0.00759659,0.000212541,-0.00466087,0.00238822,-0.00977227,-1.13406,0.00743981,0.0367088,1882,666,11.1458,-1.50301
665,358,10.7006,1.60681,-0.00927393,-0.000118406,-0.00584955,0.00273169,-0.012124,-1.11741,0.0091305,0.047622,1889,666,10.7006,-1.60679
672,358,10.8702,2.34235,0,0,0,0,0,0,0,-1,1896,666,10.8703,-2.34236
679,358,11.2441,2.52136,0,0,0,0,0,0,0,-1,1903,666,11.2441,-2.52135
686,358,11.9557,2.2002,0,0,0,0,0,0,0,-1,1910,666,11.9557,-2.20021
693,358,13.188,2.52203,0,0,0,0,0,0,0,-1,1917,666,13.188,-2.52202
700,358,0,0,0,0,0,0,0,0,0,-1,1924,666,0,0
707,358,0,0,0,0,0,0,0,0,0,-1,1931,666,0,0
714,358,0,0,0,0,0,0,0,0,0,-1,1938,666,0,0
721,358,0,0,0,0,0,0,0,0,0,-1,1945,666,0,0
728,358,0,0,0,0,0,0,0,0,0,-1,1952,666,0,0
735,358,0,0,0,0,0,0,0,0,0,-1,1959,666,0,0
742,358,0,0,0,0,0,0,0,0,0,-1,1966,666,0,0
749,358,0,0,0,0,0,0,0,0,0,-1,1973,666,0,0
756,358,0,0,0,0,0,0,0,0,0,-1,1980,666,0,0
763,358,0,0,0,0,0,0,0,0,0,-1,1987,666,0,0
770,358,0,0,0,0,0,0,0,0,0,-1,1994,666,0,0
777,358,0,0,0,0,0,0,0,0,0,-1,2001,666,0,0
784,358,0,0,0,0,0,0,0,0,0,-1,2008,666,0,0
791,358,0,0,0,0,0,0,0,0,0,-1,2015,666,0,0
798,358,0,0,0,0,0,0,0,0,0,-1,2022,666,0,0
805,358,0,0,0,0,0,0,0,0,0,-1,2029,666,0,0
812,358,0,0,0,0,0,0,0,0,0,-1,2036,666,0,0
-700,351,0,0,0,0,0,0,0,0,0,-1,524,673,0,0
-693,351,0,0,0,0,0,0,0,0,0,-1,531,673,0,0
-686,351,0,0,0,0,0,0,0,0,0,-1,538,673,0,0
-679,351,0,0,0,0,0,0,0,0,0,-1,545,673,0,0
-672,351,0,0,0,0,0,0,0,0,0,-1,552,673,0,0
-665,351,0,0,0,0,0,0,0,0,0,-1,559,673,0,0
-658,351,0,0,0,0,0,0,0,0,0,-1,566,673,0,0
-651,351,0,0,0,0,0,0,0,0,0,-1,573,673,0,0
-644,351,0,0,0,0,0,0,0,0,0,-1,580,673,0,0
-637,351,0,0,0,0,0,0,0,0,0,-1,587,673,0,0
-630,351,0,0,0,0,0,0,0,0,0,-1,594,673,0,0
-623,351,0,0,0,0,0,0,0,0,0,-1,601,673,0,0
-616,351,0,0,0,0,0,0,0,0,0,-1,608,673,0,0
-609,351,0,0,0,0,0,0,0,0,0,-1,615,673,0,0
-602,351,0,0,0,0,0,0,0,0,0,-1,622,673,0,0
-595,351,0,0,0,0,0,0,0,0,0,-1,629,673,0,0
-588,351,0,0,0,0,0,0,0,0,0,-1,636,673,0,0
-581,351,-4.08875,0.467529,0,0,0,0,0,0,0,-1,643,673,-4.08874,-0.467548
-574,351,-5.33008,3.91156,0,0,0,0,0,0,0,-1,650,673,-5.33009,-3.91156
-567,351,-3.32227,3.98474,0,0,0,0,0,0,0,-1,657,673,-3.32225,-3.98472
-560,351,-6.18707,2.33923,0,0,0,0,0,0,0,-1,664,673,-6.1871,-2.33923
-553,351,-6.04181,1.34747,0,0,0,0,0,0,0,-1,671,673,-6.04182,-1.34749
-546,351,-6.23578,0.625061,0,0,0,0,0,0,0,-1,678,673,-6.23578,-0.625059
-539,351,-5.67761,-0.0681152,-0.00319996,0.0299566,-0.00429591,0.0305041,-0.00374751,-1.44402,0.0216934,0.0417292,685,673,-5.67764,0.0681093
-532,351,-5.42688,-0.382263,-0.00162302,0.0206297,-0.00418658,0.0213913,-0.00238461,-1.39085,0.0151186,0.0307135,692,673,-5.4269,0.382252
-525,351,-5.44501,-0.65686,-0.000693839,0.0137101,-0.00366428,0.0145887,-0.00157242,-1.33547,0.0102901,0.0198783,699,673,-5.44499,0.65686
-518,351,-5.4826,-0.80127,-9.63417e-05,0.00876456,-0.00297411,0.00967024,-0.00100201,-1.2752,0.00680546,0.0120158,706,673,-5.48259,0.801299
-511,351,-5.48621,-1.02795,0.000641814,0.00493556,-0.00248638,0.00607367,-0.000496299,-1.14152,0.00422428,0.010631,713,673,-5.48623,1.02797
-504,351,-5.50812,-1.28839,0.00104813,0.00160607,-0.00197022,0.00331698,-0.000662775,-0.855728,0.00246216,0.00921727,720,673,-5.50811,1.28838
-497,351,-5.50793,-1.53473,0.00124144,0.000260115,-0.00118067,0.00202934,-0.00052779,-0.588466,0.0015589,0.00986444,727,673,-5.50794,1.53472
-490,351,-5.5036,-1.77393,0.00158174,0.000153604,-0.000629523,0.00181961,-8.42699e-05,-0.361278,0.00124212,0.00963165,734,673,-5.50358,1.77393
-483,351,-5.51642,-2.00555,0.0020631,-5.30354e-05,-0.000255668,0.00209355,-8.34865e-05,-0.118546,0.00142434,0.0108814,741,673,-5.51642,2.00556
-476,351,-5.52112,-2.24371,0.00270773,2.55041e-05,-6.40437e-05,0.00270926,2.39757e-05,-0.0238589,0.00179824,0.0104897,748,673,-5.52114,2.24371
-469,351,-5.50159,-2.49121,0.00340954,0.000437412,1.29218e-05,0.00340959,0.000437356,0.00434755,0.00214221,0.0131115,755,673,-5.50156,2.4912
-462,351,-5.50171,-2.77209,0.00380042,0.00082236,0.000292165,0.00382881,0.000793967,0.0968753,0.00233335,0.017242,762,673,-5.50174,2.77207
-455,351,-5.42871,-3.09448,0.00406902,0.00123198,0.00110126,0.00444632,0.000854685,0.330074,0.00272438,0.0327677,769,673,-5.42869,3.09448
-448,351,-5.10651,-3.16431,0,0,0,0,0,0,0,-1,776,673,-5.1065,3.16433
-441,351,-4.31567,-2.3009,0,0,0,0,0,0,0,-1,783,673,-4.31565,2.30089
-434,351,-3.81708,-2.28003,0,0,0,0,0,0,0,-1,790,673,-3.81706,2.28006
-427,351,-2.05157,-2.7785,0,0,0,0,0,0,0,-1,797,673,-2.05157,2.77848
-420,351,-1.06989,-2.43665,0,0,0,0,0,0,0,-1,804,673,-1.06991,2.43663
-413,351,-0.392334,-2.06671,0,0,0,0,0,0,0,-1,811,673,-0.392363,2.06672
-406,351,-1.86316,-2.58105,0,0,0,0,0,0,0,-1,818,673,-1.86313,2.58106
-399,351,1.00952,-1.53455,0,0,0,0,0,0,0,-1,825,673,1.00954,1.53457
-392,351,-1.02197,0.877136,0,0,0,0,0,0,0,-1,832,673,-1.02195,-0.877143
-385,351,-1.47205,1.04437,0,0,0,0,0,0,0,-1,839,673,-1.47207,-1.04435
-378,351,0,0,0,0,0,0,0,0,0,-1,846,673,0,0
-371,351,0,0,0,0,0,0,0,0,0,-1,853,673,0,0
-364,351,0,0,0,0,0,0,0,0,0,-1,860,673,0,0
-357,351,0,0,0,0,0,0,0,0,0,-1,867,673,0,0
-350,351,0,0,0,0,0,0,0,0,0,-1,874,673,0,0
-343,351,0,0,0,0,0,0,0,0,0,-1,881,673,0,0
-336,351,0,0,0,0,0,0,0,0,0,-1,888,673,0,0
-329,351,0,0,0,0,0,0,0,0,0,-1,895,673,0,0
-322,351,0,0,0,0,0,0,0,0,0,-1,902,673,0,0
-315,351,0,0,0,0,0,0,0,0,0,-1,909,673,0,0
-308,351,0,0,0,0,0,0,0,0,0,-1,916,673,0,0
-301,351,0,0,0,0,0,0,0,0,0,-1,923,673,0,0
-294,351,0,0,0,0,0,0,0,0,0,-1,930,673,0,0
-287,351,0,0,0,0,0,0,0,0,0,-1,937,673,0,0
-280,351,0,0,0,0,0,0,0,0,0,-1,944,673,0,0
-273,351,0,0,0,0,0,0,0,0,0,-1,951,673,0,0
-266,351,0,0,0,0,0,0,0,0,0,-1,958,673,0,0
-259,351,0,0,0,0,0,0,0,0,0,-1,965,673,0,0
-252,351,0,0,0,0,0,0,0,0,0,-1,972,673,0,0
-245,351,0,0,0,0,0,0,0,0,0,-1,979,673,0,0
-238,351,0,0,0,0,0,0,0,0,0,-1,986,673,0,0
-231,351,0,0,0,0,0,0,0,0,0,-1,993,673,0,0
-224,351,0,0,0,0,0,0,0,0,0,-1,1000,673,0,0
-217,351,0,0,0,0,0,0,0,0,0,-1,1007,673,0,0
-210,351,0,0,0,0,0,0,0,0,0,-1,1014,673,0,0
-203,351,0,0,0,0,0,0,0,0,0,-1,1021,673,0,0
-196,351,0,0,0,0,0,0,0,0,0,-1,1028,673,0,0
-189,351,0,0,0,0,0,0,0,0,0,-1,1035,673,0,0
-182,351,0,0,0,0,0,0,0,0,0,-1,1042,673,0,0
-175,351,0,0,0,0,0,0,0,0,0,-1,1049,673,0,0
-168,351,0,0,0,0,0,0,0,0,0,-1,1056,673,0,0
-161,351,0,0,0,0,0,0,0,0,0,-1,1063,673,0,0
-154,351,0,0,0,0,0,0,0,0,0,-1,1070,673,0,0
-147,351,0,0,0,0,0,0,0,0,0,-1,1077,673,0,0
-140,351,0,0,0,0,0,0,0,0,0,-1,1084,673,0,0
-133,351,0,0,0,0,0,0,0,0,0,-1,1091,673,0,0
-126,351,0,0,0,0,0,0,0,0,0,-1,1098,673,0,0
-119,351,0,0,0,0,0,0,0,0,0,-1,1105,673,0,0
-112,351,0,0,0,0,0,0,0,0,0,-1,1112,673,0,0
-105,351,0,0,0,0,0,0,0,0,0,-1,1119,673,0,0
-98,351,0,0,0,0,0,0,0,0,0,-1,1126,673,0,0
-91,351,0,0,0,0,0,0,0,0,0,-1,1133,673,0,0
-84,351,0,0,0,0,0,0,0,0,0,-1,1140,673,0,0
-77,351,0,0,0,0,0,0,0,0,0,-1,1147,673,0,0
-70,351,0,0,0,0,0,0,0,0,0,-1,1154,673,0,0
-63,351,0,0,0,0,0,0,0,0,0,-1,1161,673,0,0
-56,351,0,0,0,0,0,0,0,0,0,-1,1168,673,0,0
-49,351,0,0,0,0,0,0,0,0,0,-1,1175,673,0,0
-42,351,0,0,0,0,0,0,0,0,0,-1,1182,673,0,0
-35,351,0,0,0,0,0,0,0,0,0,-1,1189,673,0,0
-28,351,0,0,0,0,0,0,0,0,0,-1,1196,673,0,0
-21,351,0,0,0,0,0,0,0,0,0,-1,1203,673,0,0
-14,351,0,0,0,0,0,0,0,0,0,-1,1210,673,0,0
-7,351,0,0,0,0,0,0,0,0,0,-1,1217,673,0,0
0,351,0,0,0,0,0,0,0,0,0,-1,1224,673,0,0
7,351,0,0,0,0,0,0,0,0,0,-1,1231,673,0,0
14,351,0,0,0,0,0,0,0,0,0,-1,1238,673,0,0
21,351,0,0,0,0,0,0,0,0,0,-1,1245,673,0,0
28,351,0,0,0,0,0,0,0,0,0,-1,1252,673,0,0
35,351,0,0,0,0,0,0,0,0,0,-1,1259,673,0,0
42,351,0,0,0,0,0,0,0,0,0,-1,1266,673,0,0
49,351,0,0,0,0,0,0,0,0,0,-1,1273,673,0,0
56,351,0,0,0,0,0,0,0,0,0,-1,1280,673,0,0
63,351,0,0,0,0,0,0,0,0,0,-1,1287,673,0,0
70,351,0,0,0,0,0,0,0,0,0,-1,1294,673,0,0
77,351,0,0,0,0,0,0,0,0,0,-1,1301,673,0,0
84,351,0,0,0,0,0,0,0,0,0,-1,1308,673,0,0
91,351,0,0,0,0,0,0,0,0,0,-1,1315,673,0,0
98,351,0,0,0,0,0,0,0,0,0,-1,1322,673,0,0
105,351,0,0,0,0,0,0,0,0,0,-1,1329,673,0,0
112,351,0,0,0,0,0,0,0,0,0,-1,1336,673,0,0
119,351,0,0,0,0,0,0,0,0,0,-1,1343,673,0,0
126,351,0,0,0,0,0,0,0,0,0,-1,1350,673,0,0
133,351,0,0,0,0,0,0,0,0,0,-1,1357,673,0,0
140,351,0,0,0,0,0,0,0,0,0,-1,1364,673,0,0
147,351,0,0,0,0,0,0,0,0,0,-1,1371,673,0,0
154,351,0,0,0,0,0,0,0,0,0,-1,1378,673,0,0
161,351,0,0,0,0,0,0,0,0,0,-1,1385,673,0,0
168,351,0,0,0,0,0,0,0,0,0,-1,1392,673,0,0
175,351,0,0,0,0,0,0,0,0,0,-1,1399,673,0,0
182,351,0,0,0,0,0,0,0,0,0,-1,1406,673,0,0
189,351,0,0,0,0,0,0,0,0,0,-1,1413,673,0,0
196,351,0,0,0,0,0,0,0,0,0,-1,1420,673,0,0
203,351,0,0,0,0,0,0,0,0,0,-1,1427,673,0,0
210,351,0,0,0,0,0,0,0,0,0,-1,1434,673,0,0
217,351,0,0,0,0,0,0,0,0,0,-1,1441,673,0,0
224,351,0,0,0,0,0,0,0,0,0,-1,1448,673,0,0
231,351,0,0,0,0,0,0,0,0,0,-1,1455,673,0,0
238,351,0,0,0,0,0,0,0,0,0,-1,1462,673,0,0
245,351,0,0,0,0,0,0,0,0,0,-1,1469,673,0,0
252,351,0,0,0,0,0,0,0,0,0,-1,1476,673,0,0
259,351,0,0,0,0,0,0,0,0,0,-1,1483,673,0,0
266,351,0,0,0,0,0,0,0,0,0,-1,1490,673,0,0
273,351,0,0,0,0,0,0,0,0,0,-1,1497,673,0,0
280,351,0,0,0,0,0,0,0,0,0,-1,1504,673,0,0
287,351,0,0,0,0,0,0,0,0,0,-1,1511,673,0,0
294,351,0,0,0,0,0,0,0,0,0,-1,1518,673,0,0
301,351,0,0,0,0,0,0,0,0,0,-1,1525,673,0,0
308,351,0,0,0,0,0,0,0,0,0,-1,1532,673,0,0
315,351,0,0,0,0,0,0,0,0,0,-1,1539,673,0,0
322,351,0,0,0,0,0,0,0,0,0,-1,1546,673,0,0
329,351,0,0,0,0,0,0,0,0,0,-1,1553,673,0,0
336,351,0,0,0,0,0,0,0,0,0,-1,1560,673,0,0
343,351,0,0,0,0,0,0,0,0,0,-1,1567,673,0,0
350,351,0,0,0,0,0,0,0,0,0,-1,1574,673,0,0
357,351,0,0,0,0,0,0,0,0,0,-1,1581,673,0,0
364,351,0,0,0,0,0,0,0,0,0,-1,1588,673,0,0
371,351,0,0,0,0,0,0,0,0,0,-1,1595,673,0,0
378,351,0,0,0,0,0,0,0,0,0,-1,1602,673,0,0
385,351,0,0,0,0,0,0,0,0,0,-1,1609,673,0,0
392,351,0,0,0,0,0,0,0,0,0,-1,1616,673,0,0
399,351,0,0,0,0,0,0,0,0,0,-1,1623,673,0,0
406,351,0,0,0,0,0,0,0,0,0,-1,1630,673,0,0
413,351,0,0,0,0,0,0,0,0,0,-1,1637,673,0,0
420,351,0,0,0,0,0,0,0,0,0,-1,1644,673,0,0
427,351,0,0,0,0,0,0,0,0,0,-1,1651,673,0,0
434,351,0,0,0,0,0,0,0,0,0,-1,1658,673,0,0
441,351,0,0,0,0,0,0,0,0,0,-1,1665,673,0,0
448,351,0,0,0,0,0,0,0,0,0,-1,1672,673,0,0
455,351,0,0,0,0,0,0,0,0,0,-1,1679,673,0,0
462,351,0,0,0,0,0,0,0,0,0,-1,1686,673,0,0
469,351,0,0,0,0,0,0,0,0,0,-1,1693,673,0,0
476,351,0,0,0,0,0,0,0,0,0,-1,1700,673,0,0
483,351,0,0,0,0,0,0,0,0,0,-1,1707,673,0,0
490,351,0,0,0,0,0,0,0,0,0,-1,1714,673,0,0
497,351,0,0,0,0,0,0,0,0,0,-1,1721,673,0,0
504,351,10.8842,1.61615,0,0,0,0,0,0,0,-1,1728,673,10.8842,-1.61618
511,351,15.4548,0.0236816,0,0,0,0,0,0,0,-1,1735,673,15.4549,-0.0236664
518,351,16.7448,2.49268,0,0,0,0,0,0,0,-1,1742,673,16.7448,-2.49269
525,351,16.0701,3.43225,0,0,0,0,0,0,0,-1,1749,673,16.07,-3.43227
532,351,16.4181,3.33472,0,0,0,0,0,0,0,-1,1756,673,16.4181,-3.33473
539,351,15.3387,3.54486,0,0,0,0,0,0,0,-1,1763,673,15.3387,-3.54485
546,351,13.9387,4.59357,0,0,0,0,0,0,0,-1,1770,673,13.9388,-4.59359
553,351,12.0682,2.02832,0,0,0,0,0,0,0,-1,1777,673,12.0683,-2.02831
560,351,12.0173,0.55304,0,0,0,0,0,0,0,-1,1784,673,12.0174,-0.553028
567,351,10.7827,0.130188,0,0,0,0,0,0,0,-1,1791,673,10.7827,-0.130183
574,351,12.5594,-0.426392,0,0,0,0,0,0,0,-1,1798,673,12.5595,0.4264
581,351,12.0847,-0.685486,-0.010746,-0.00442907,-0.00566471,-0.00110179,-0.0140733,-1.03972,0.00903734,0.0474344,1805,673,12.0848,0.685491
588,351,11.5938,-1.02399,-0.00781324,-0.0037349,-0.00439212,-0.000931663,-0.0106165,-1.00273,0.00678844,0.0346698,1812,673,11.5937,1.02396
595,351,11.6198,-0.840698,-0.00543413,-0.00295516,-0.00321362,-0.000750281,-0.00763901,-0.969456,0.00486192,0.0202321,1819,673,11.6197,0.840722
602,351,11.6222,-0.546509,-0.00336868,-0.00216193,-0.00217949,-0.000503839,-0.00502677,-0.920437,0.0031965,0.0172154,1826,673,11.6222,0.546538
609,351,11.6444,-0.2771,-0.001885,-0.00125428,-0.0012997,-0.000232229,-0.00290706,-0.904419,0.00186545,0.0168281,1833,673,11.6445,0.2771
616,351,11.6622,0.00927734,-0.00112095,-0.000942487,-0.000958407,-6.9169e-05,-0.00199427,-0.831817,0.00130707,0.014542,1840,673,11.6622,-0.00926147
623,351,11.6727,0.272095,-0.000943113,-0.000354315,-0.000830194,0.000232133,-0.00152956,-0.955788,0.00110524,0.0146711,1847,673,11.6727,-0.272083
630,351,11.6637,0.491638,-0.00116965,-8.95443e-05,-0.00089115,0.000412424,-0.00167162,-1.05781,0.00127433,0.0233971,1854,673,11.6637,-0.491635
637,351,11.6538,0.78125,-0.00179837,0.000316472,-0.00118084,0.000844145,-0.00232604,-1.15055,0.00189579,0.0271621,1861,673,11.6538,-0.781269
644,351,11.6635,1.065,-0.00310789,0.000226508,-0.00197895,0.00114693,-0.00402831,-1.13545,0.0031385,0.0205128,1868,673,11.6635,-1.06497
651,351,11.6648,1.31531,-0.00470019,3.44625e-05,-0.00299679,0.00148616,-0.00615189,-1.11969,0.00467605,0.0156429,1875,673,11.6648,-1.31529
658,351,11.6332,1.58179,-0.00645731,-0.000228593,-0.00417607,0.00186654,-0.00855244,-1.10579,0.00641497,0.0244037,1882,673,11.6332,-1.58181
665,351,11.3684,1.68829,-0.00734269,-0.00058117,-0.0050023,0.00207567,-0.00999952,-1.08256,0.00745519,0.0325852,1889,673,11.3684,-1.68832
672,351,11.3781,2.12482,-0.00773051,-0.00119644,-0.00605416,0.00241594,-0.0113429,-1.03282,0.00848271,0.0455792,1896,673,11.378,-2.1248
679,351,11.5753,2.27472,0,0,0,0,0,0,0,-1,1903,673,11.5754,-2.27474
686,351,12.1202,2.25208,0,0,0,0,0,0,0,-1,1910,673,12.1202,-2.25209
693,351,13.5187,2.34595,0,0,0,0,0,0,0,-1,1917,673,13.5187,-2.34596
700,351,14.5629,-2.40173,0,0,0,0,0,0,0,-1,1924,673,14.5629,2.40172
707,351,0,0,0,0,0,0,0,0,0,-1,1931,673,0,0
714,351,0,0,0,0,0,0,0,0,0,-1,1938,673,0,0
721,351,0,0,0,0,0,0,0,0,0,-1,1945,673,0,0
728,351,0,0,0,0,0,0,0,0,0,-1,1952,673,0,0
735,351,0,0,0,0,0,0,0,0,0,-1,1959,673,0,0
742,351,0,0,0,0,0,0,0,0,0,-1,1966,673,0,0
749,351,0,0,0,0,0,0,0,0,0,-1,1973,673,0,0
756,351,0,0,0,0,0,0,0,0,0,-1,1980,673,0,0
763,351,0,0,0,0,0,0,0,0,0,-1,1987,673,0,0
770,351,0,0,0,0,0,0,0,0,0,-1,1994,673,0,0
777,351,0,0,0,0,0,0,0,0,0,-1,2001,673,0,0
784,351,0,0,0,0,0,0,0,0,0,-1,2008,673,0,0
791,351,0,0,0,0,0,0,0,0,0,-1,2015,673,0,0
798,351,0,0,0,0,0,0,0,0,0,-1,2022,673,0,0
805,351,0,0,0,0,0,0,0,0,0,-1,2029,673,0,0
812,351,0,0,0,0,0,0,0,0,0,-1,2036,673,0,0
-700,344,0,0,0,0,0,0,0,0,0,-1,524,680,0,0
-693,344,0,0,0,0,0,0,0,0,0,-1,531,680,0,0
-686,344,0,0,0,0,0,0,0,0,0,-1,538,680,0,0
-679,344,0,0,0,0,0,0,0,0,0,-1,545,680,0,0
-672,344,0,0,0,0,0,0,0,0,0,-1,552,680,0,0
-665,344,0,0,0,0,0,0,0,0,0,-1,559,680,0,0
-658,344,0,0,0,0,0,0,0,0,0,-1,566,680,0,0
-651,344,0,0,0,0,0,0,0,0,0,-1,573,680,0,0
-644,344,0,0,0,0,0,0,0,0,0,-1,580,680,0,0
-637,344,0,0,0,0,0,0,0,0,0,-1,587,680,0,0
-630,344,0,0,0,0,0,0,0,0,0,-1,594,680,0,0
-623,344,0,0,0,0,0,0,0,0,0,-1,601,680,0,0
-616,344,0,0,0,0,0,0,0,0,0,-1,608,680,0,0
-609,344,0,0,0,0,0,0,0,0,0,-1,615,680,0,0
-602,344,0,0,0,0,0,0,0,0,0,-1,622,680,0,0
-595,344,0,0,0,0,0,0,0,0,0,-1,629,680,0,0
-588,344,-7.89941,5.00134,0,0,0,0,0,0,0,-1,636,680,-7.89941,-5.00132
-581,344,-7.30463,3.9386,0,0,0,0,0,0,0,-1,643,680,-7.30465,-3.93857
-574,344,-4.55396,3.9068,0,0,0,0,0,0,0,-1,650,680,-4.55396,-3.90678
-567,344,-4.42914,3.30719,-0.0266337,0.0891546,0.0101446,0.0900367,-0.0275158,1.48406,0.0709966,0.0473941,657,680,-4.42914,-3.30721
-560,344,-4.8714,2.79413,-0.0173998,0.0688995,0.00442502,0.0691258,-0.0176261,1.5197,0.0529464,0.0415418,664,680,-4.87138,-2.79413
-553,344,-6.61145,1.31738,0,0,0,0,0,0,0,-1,671,680,-6.61148,-1.31738
-546,344,-5.58875,-0.115417,-0.00687591,0.0379122,-0.00137309,0.0379543,-0.00691796,-1.54018,0.0278963,0.0428969,678,680,-5.58874,0.115409
-539,344,-5.74353,-0.194946,-0.00400044,0.0271652,-0.00246235,0.0273585,-0.00419378,-1.49244,0.0197856,0.0377537,685,680,-5.74353,0.194933
-532,344,-5.64874,-0.356323,-0.00212327,0.0189473,-0.00280853,0.0193153,-0.0024912,-1.44053,0.0137825,0.0206194,692,680,-5.64876,0.356303
-525,344,-5.7337,-0.554749,-0.000897761,0.0127954,-0.00270021,0.0133086,-0.00141099,-1.38297,0.00937821,0.0179499,699,680,-5.73369,0.554766
-518,344,-5.74554,-0.81781,-7.5028e-07,0.00834898,-0.00237425,0.00897688,-0.000628652,-1.31225,0.00620476,0.018398,706,680,-5.74556,0.817782
-511,344,-5.75592,-1.03961,0.000923326,0.00486829,-0.00205894,0.0057471,4.45091e-05,-1.16738,0.00381665,0.0152915,713,680,-5.75593,1.03962
-504,344,-5.75134,-1.31226,0.00150997,0.00180049,-0.00158295,0.00324483,6.56261e-05,-0.831153,0.00214168,0.0158826,720,680,-5.75137,1.31224
-497,344,-5.74933,-1.55719,0.00182909,0.000561528,-0.000692968,0.00213439,0.000256223,-0.41499,0.00134568,0.0144303,727,680,-5.74931,1.5572
-490,344,-5.76282,-1.78583,0.00227767,0.000387022,0.000104375,0.00228342,0.000381277,0.0549834,0.00141244,0.0131549,734,680,-5.76284,1.78582
-483,344,-5.75806,-2.01282,0.00290112,0.000199894,0.000852523,0.00314768,-4.6663e-05,0.281527,0.00211418,0.0124549,741,680,-5.75804,2.01284
-476,344,-5.76221,-2.25464,0.00367527,0.000274732,0.0015991,0.00430911,-0.000359105,0.377373,0.00299961,0.0125204,748,680,-5.76218,2.25465
-469,344,-5.74725,-2.52118,0.00451516,0.00080989,0.00238861,0.00568539,-0.000360344,0.455553,0.00391591,0.0122509,755,680,-5.74727,2.5212
-462,344,-5.73444,-2.81659,0.00508827,0.00129282,0.00357048,0.00723402,-0.000852932,0.541132,0.00513068,0.0232617,762,680,-5.73444,2.81658
-455,344,-5.57361,-2.90631,0,0,0,0,0,0,0,-1,769,680,-5.57363,2.90631
-448,344,-5.67657,-2.72864,0,0,0,0,0,0,0,-1,776,680,-5.6766,2.72863
-441,344,-5.09229,-2.34167,0,0,0,0,0,0,0,-1,783,680,-5.09229,2.34168
-434,344,-4.28778,-2.08807,0,0,0,0,0,0,0,-1,790,680,-4.28778,2.08809
-427,344,-3.06506,-1.45404,0,0,0,0,0,0,0,-1,797,680,-3.06505,1.45402
-420,344,-1.96582,-1.57574,0,0,0,0,0,0,0,-1,804,680,-1.96579,1.57574
-413,344,-0.817993,-1.4751,0,0,0,0,0,0,0,-1,811,680,-0.818017,1.47511
-406,344,-0.00714111,-1.25189,0,0,0,0,0,0,0,-1,818,680,-0.00714956,1.25191
-399,344,0.240051,-1.75769,0,0,0,0,0,0,0,-1,825,680,0.240079,1.75767
-392,344,1.11353,-2.05615,0,0,0,0,0,0,0,-1,832,680,1.11351,2.05616
-385,344,0,0,0,0,0,0,0,0,0,-1,839,680,0,0
-378,344,0,0,0,0,0,0,0,0,0,-1,846,680,0,0
-371,344,0,0,0,0,0,0,0,0,0,-1,853,680,0,0
-364,344,0,0,0,0,0,0,0,0,0,-1,860,680,0,0
-357,344,0,0,0,0,0,0,0,0,0,-1,867,680,0,0
-350,344,0,0,0,0,0,0,0,0,0,-1,874,680,0,0
-343,344,0,0,0,0,0,0,0,0,0,-1,881,680,0,0
-336,344,0,0,0,0,0,0,0,0,0,-1,888,680,0,0
-329,344,0,0,0,0,0,0,0,0,0,-1,895,680,0,0
-322,344,0,0,0,0,0,0,0,0,0,-1,902,680,0,0
-315,344,0,0,0,0,0,0,0,0,0,-1,909,680,0,0
-308,344,0,0,0,0,0,0,0,0,0,-1,916,680,0,0
-301,344,0,0,0,0,0,0,0,0,0,-1,923,680,0,0
-294,344,0,0,0,0,0,0,0,0,0,-1,930,680,0,0
-287,344,0,0,0,0,0,0,0,0,0,-1,937,680,0,0
-280,344,0,0,0,0,0,0,0,0,0,-1,944,680,0,0
-273,344,0,0,0,0,0,0,0,0,0,-1,951,680,0,0
-266,344,0,0,0,0,0,0,0,0,0,-1,958,680,0,0
-259,344,0,0,0,0,0,0,0,0,0,-1,965,680,0,0
-252,344,0,0,0,0,0,0,0,0,0,-1,972,680,0,0
-245,344,0,0,0,0,0,0,0,0,0,-1,979,680,0,0
-238,344,0,0,0,0,0,0,0,0,0,-1,986,680,0,0
-231,344,0,0,0,0,0,0,0,0,0,-1,993,680,0,0
-224,344,0,0,0,0,0,0,0,0,0,-1,1000,680,0,0
-217,344,0,0,0,0,0,0,0,0,0,-1,1007,680,0,0
-210,344,0,0,0,0,0,0,0,0,0,-1,1014,680,0,0
-203,344,0,0,0,0,0,0,0,0,0,-1,1021,680,0,0
-196,344,0,0,0,0,0,0,0,0,0,-1,1028,680,0,0
-189,344,0,0,0,0,0,0,0,0,0,-1,1035,680,0,0
-182,344,0,0,0,0,0,0,0,0,0,-1,1042,680,0,0
-175,344,0,0,0,0,0,0,0,0,0,-1,1049,680,0,0
-168,344,0,0,0,0,0,0,0,0,0,-1,1056,680,0,0
-161,344,0,0,0,0,0,0,0,0,0,-1,1063,680,0,0
-154,344,0,0,0,0,0,0,0,0,0,-1,1070,680,0,0
-147,344,0,0,0,0,0,0,0,0,0,-1,1077,680,0,0
-140,344,0,0,0,0,0,0,0,0,0,-1,1084,680,0,0
-133,344,0,0,0,0,0,0,0,0,0,-1,1091,680,0,0
-126,344,0,0,0,0,0,0,0,0,0,-1,1098,680,0,0
-119,344,0,0,0,0,0,0,0,0,0,-1,1105,680,0,0
-112,344,0,0,0,0,0,0,0,0,0,-1,1112,680,0,0
-105,344,0,0,0,0,0,0,0,0,0,-1,1119,680,0,0
-98,344,0,0,0,0,0,0,0,0,0,-1,1126,680,0,0
-91,344,0,0,0,0,0,0,0,0,0,-1,1133,680,0,0
-84,344,0,0,0,0,0,0,0,0,0,-1,1140,680,0,0
-77,344,0,0,0,0,0,0,0,0,0,-1,1147,680,0,0
-70,344,0,0,0,0,0,0,0,0,0,-1,1154,680,0,0
-63,344,0,0,0,0,0,0,0,0,0,-1,1161,680,0,0
-56,344,0,0,0,0,0,0,0,0,0,-1,1168,680,0,0
-49,344,0,0,0,0,0,0,0,0,0,-1,1175,680,0,0
-42,344,0,0,0,0,0,0,0,0,0,-1,1182,680,0,0
-35,344,0,0,0,0,0,0,0,0,0,-1,1189,680,0,0
-28,344,0,0,0,0,0,0,0,0,0,-1,1196,680,0,0
-21,344,0,0,0,0,0,0,0,0,0,-1,1203,680,0,0
-14,344,0,0,0,0,0,0,0,0,0,-1,1210,680,0,0
-7,344,0,0,0,0,0,0,0,0,0,-1,1217,680,0,0
0,344,0,0,0,0,0,0,0,0,0,-1,1224,680,0,0
7,344,0,0,0,0,0,0,0,0,0,-1,1231,680,0,0
14,344,0,0,0,0,0,0,0,0,0,-1,1238,680,0,0
21,344,0,0,0,0,0,0,0,0,0,-1,1245,680,0,0
28,344,0,0,0,0,0,0,0,0,0,-1,1252,680,0,0
35,344,0,0,0,0,0,0,0,0,0,-1,1259,680,0,0
42,344,0,0,0,0,0,0,0,0,0,-1,1266,680,0,0
49,344,0,0,0,0,0,0,0,0,0,-1,1273,680,0,0
56,344,0,0,0,0,0,0,0,0,0,-1,1280,680,0,0
63,344,0,0,0,0,0,0,0,0,0,-1,1287,680,0,0
70,344,0,0,0,0,0,0,0,0,0,-1,1294,680,0,0
77,344,0,0,0,0,0,0,0,0,0,-1,1301,680,0,0
84,344,0,0,0,0,0,0,0,0,0,-1,1308,680,0,0
91,344,0,0,0,0,0,0,0,0,0,-1,1315,680,0,0
98,344,0,0,0,0,0,0,0,0,0,-1,1322,680,0,0
105,344,0,0,0,0,0,0,0,0,0,-1,1329,680,0,0
112,344,0,0,0,0,0,0,0,0,0,-1,1336,680,0,0
119,344,0,0,0,0,0,0,0,0,0,-1,1343,680,0,0
126,344,0,0,0,0,0,0,0,0,0,-1,1350,680,0,0
133,344,0,0,0,0,0,0,0,0,0,-1,1357,680,0,0
140,344,0,0,0,0,0,0,0,0,0,-1,1364,680,0,0
147,344,0,0,0,0,0,0,0,0,0,-1,1371,680,0,0
154,344,0,0,0,0,0,0,0,0,0,-1,1378,680,0,0
161,344,0,0,0,0,0,0,0,0,0,-1,1385,680,0,0
168,344,0,0,0,0,0,0,0,0,0,-1,1392,680,0,0
175,344,0,0,0,0,0,0,0,0,0,-1,1399,680,0,0
182,344,0,0,0,0,0,0,0,0,0,-1,1406,680,0,0
189,344,0,0,0,0,0,0,0,0,0,-1,1413,680,0,0
196,344,0,0,0,0,0,0,0,0,0,-1,1420,680,0,0
203,344,0,0,0,0,0,0,0,0,0,-1,1427,680,0,0
210,344,0,0,0,0,0,0,0,0,0,-1,1434,680,0,0
217,344,0,0,0,0,0,0,0,0,0,-1,1441,680,0,0
224,344,0,0,0,0,0,0,0,0,0,-1,1448,680,0,0
231,344,0,0,0,0,0,0,0,0,0,-1,1455,680,0,0
238,344,0,0,0,0,0,0,0,0,0,-1,1462,680,0,0
245,344,0,0,0,0,0,0,0,0,0,-1,1469,680,0,0
252,344,0,0,0,0,0,0,0,0,0,-1,1476,680,0,0
259,344,0,0,0,0,0,0,0,0,0,-1,1483,680,0,0
266,344,0,0,0,0,0,0,0,0,0,-1,1490,680,0,0
273,344,0,0,0,0,0,0,0,0,0,-1,1497,680,0,0
280,344,0,0,0,0,0,0,0,0,0,-1,1504,680,0,0
287,344,0,0,0,0,0,0,0,0,0,-1,1511,680,0,0
294,344,0,0,0,0,0,0,0,0,0,-1,1518,680,0,0
301,344,0,0,0,0,0,0,0,0,0,-1,1525,680,0,0
308,344,0,0,0,0,0,0,0,0,0,-1,1532,680,0,0
315,344,0,0,0,0,0,0,0,0,0,-1,1539,680,0,0
322,344,0,0,0,0,0,0,0,0,0,-1,1546,680,0,0
329,344,0,0,0,0,0,0,0,0,0,-1,1553,680,0,0
336,344,0,0,0,0,0,0,0,0,0,-1,1560,680,0,0
343,344,0,0,0,0,0,0,0,0,0,-1,1567,680,0,0
350,344,0,0,0,0,0,0,0,0,0,-1,1574,680,0,0
357,344,0,0,0,0,0,0,0,0,0,-1,1581,680,0,0
364,344,0,0,0,0,0,0,0,0,0,-1,1588,680,0,0
371,344,0,0,0,0,0,0,0,0,0,-1,1595,680,0,0
378,344,0,0,0,0,0,0,0,0,0,-1,1602,680,0,0
385,344,0,0,0,0,0,0,0,0,0,-1,1609,680,0,0
392,344,0,0,0,0,0,0,0,0,0,-1,1616,680,0,0
399,344,0,0,0,0,0,0,0,0,0,-1,1623,680,0,0
406,344,0,0,0,0,0,0,0,0,0,-1,1630,680,0,0
413,344,0,0,0,0,0,0,0,0,0,-1,1637,680,0,0
420,344,0,0,0,0,0,0,0,0,0,-1,1644,680,0,0
427,344,0,0,0,0,0,0,0,0,0,-1,1651,680,0,0
434,344,0,0,0,0,0,0,0,0,0,-1,1658,680,0,0
441,344,0,0,0,0,0,0,0,0,0,-1,1665,680,0,0
448,344,0,0,0,0,0,0,0,0,0,-1,1672,680,0,0
455,344,0,0,0,0,0,0,0,0,0,-1,1679,680,0,0
462,344,0,0,0,0,0,0,0,0,0,-1,1686,680,0,0
469,344,0,0,0,0,0,0,0,0,0,-1,1693,680,0,0
476,344,0,0,0,0,0,0,0,0,0,-1,1700,680,0,0
483,344,0,0,0,0,0,0,0,0,0,-1,1707,680,0,0
490,344,0,0,0,0,0,0,0,0,0,-1,1714,680,0,0
497,344,0,0,0,0,0,0,0,0,0,-1,1721,680,0,0
504,344,0,0,0,0,0,0,0,0,0,-1,1728,680,0,0
511,344,15.4819,0.452637,0,0,0,0,0,0,0,-1,1735,680,15.4819,-0.452656
518,344,17.1357,2.31207,0,0,0,0,0,0,0,-1,1742,680,17.1358,-2.31207
525,344,16.4807,2.83368,0,0,0,0,0,0,0,-1,1749,680,16.4807,-2.83368
532,344,15.8599,3.37219,0,0,0,0,0,0,0,-1,1756,680,15.8598,-3.3722
539,344,15.3691,3.78113,0,0,0,0,0,0,0,-1,1763,680,15.3691,-3.78113
546,344,14.6722,4.30243,0,0,0,0,0,0,0,-1,1770,680,14.6722,-4.30241
553,344,14.8136,4.35681,0,0,0,0,0,0,0,-1,1777,680,14.8136,-4.35679
560,344,11.9363,2.14185,0,0,0,0,0,0,0,-1,1784,680,11.9362,-2.14182
567,344,11.397,0.925842,0,0,0,0,0,0,0,-1,1791,680,11.397,-0.92583
574,344,10.0004,0.504639,0,0,0,0,0,0,0,-1,1798,680,10.0004,-0.504645
581,344,12.6991,-0.306335,0,0,0,0,0,0,0,-1,1805,680,12.6992,0.306335
588,344,11.9406,-1.08301,0,0,0,0,0,0,0,-1,1812,680,11.9405,1.08298
595,344,11.7961,-0.894592,0,0,0,0,0,0,0,-1,1819,680,11.7961,0.894574
602,344,12.0037,-0.501587,-0.00386678,-0.00271855,-0.00239994,-0.000825006,-0.00576032,-0.902801,0.00359689,0.0304388,1826,680,12.0036,0.501586
609,344,11.9569,-0.248657,-0.00203255,-0.00166304,-0.00137147,-0.00046394,-0.00323165,-0.852353,0.00201765,0.0148967,1833,680,11.957,0.248672
616,344,11.9164,0.0236206,-0.00109492,-0.00126814,-0.000925215,-0.000252269,-0.00211079,-0.738728,0.0013311,0.0218742,1840,680,11.9164,-0.0236496
623,344,11.9764,0.274353,-0.000868309,-0.00069564,-0.00076771,-9.42568e-06,-0.00155452,-0.841392,0.00103322,0.0176814,1847,680,11.9765,-0.27437
630,344,11.9895,0.505371,-0.00102907,-0.000430677,-0.000821098,0.000144039,-0.00160378,-0.960113,0.00112029,0.0216665,1854,680,11.9895,-0.505383
637,344,11.9817,0.78772,-0.00147826,2.08017e-05,-0.0010266,0.000542373,-0.00199983,-1.10072,0.00154606,0.0222107,1861,680,11.9817,-0.78773
644,344,11.9395,1.04907,-0.00257432,-7.68781e-05,-0.00173454,0.00081167,-0.00346287,-1.09738,0.00262136,0.0158582,1868,680,11.9394,-1.04909
651,344,11.9247,1.30664,-0.00387336,-0.000269002,-0.00259863,0.00109121,-0.00523357,-1.08858,0.00390395,0.0112719,1875,680,11.9246,-1.30663
658,344,11.925,1.60938,-0.00512439,-0.000430634,-0.0034878,0.00142637,-0.00698139,-1.08154,0.0051954,0.0172512,1882,680,11.9251,-1.6094
665,344,11.8689,1.83398,-0.00514998,-0.000752725,-0.00392954,0.00155146,-0.00745416,-1.04046,0.00555923,0.026724,1889,680,11.8689,-1.83401
672,344,11.8921,2.00879,-0.00412082,-0.00151645,-0.00455044,0.00191446,-0.00755173,-0.924757,0.00577932,0.0217061,1896,680,11.8921,-2.0088
679,344,12.0863,2.10931,-0.00197102,-0.0023263,-0.00475025,0.00260491,-0.00690222,-0.766709,0.00567278,0.0432989,1903,680,12.0864,-2.10929
686,344,12.3829,2.26996,0,0,0,0,0,0,0,-1,1910,680,12.383,-2.26993
693,344,12.4362,-1.42346,0,0,0,0,0,0,0,-1,1917,680,12.4361,1.42348
700,344,17.5396,2.61206,0,0,0,0,0,0,0,-1,1924,680,17.5396,-2.61204
707,344,18.5829,3.29352,0,0,0,0,0,0,0,-1,1931,680,18.5828,-3.2935
714,344,0,0,0,0,0,0,0,0,0,-1,1938,680,0,0
721,344,0,0,0,0,0,0,0,0,0,-1,1945,680,0,0
728,344,0,0,0,0,0,0,0,0,0,-1,1952,680,0,0
735,344,0,0,0,0,0,0,0,0,0,-1,1959,680,0,0
742,344,0,0,0,0,0,0,0,0,0,-1,1966,680,0,0
749,344,0,0,0,0,0,0,0,0,0,-1,1973,680,0,0
756,344,0,0,0,0,0,0,0,0,0,-1,1980,680,0,0
763,344,0,0,0,0,0,0,0,0,0,-1,1987,680,0,0
770,344,0,0,0,0,0,0,0,0,0,-1,1994,680,0,0
777,344,0,0,0,0,0,0,0,0,0,-1,2001,680,0,0
784,344,0,0,0,0,0,0,0,0,0,-1,2008,680,0,0
791,344,0,0,0,0,0,0,0,0,0,-1,2015,680,0,0
798,344,0,0,0,0,0,0,0,0,0,-1,2022,680,0,0
805,344,0,0,0,0,0,0,0,0,0,-1,2029,680,0,0
812,344,0,0,0,0,0,0,0,0,0,-1,2036,680,0,0
-700,337,0,0,0,0,0,0,0,0,0,-1,524,687,0,0
-693,337,0,0,0,0,0,0,0,0,0,-1,531,687,0,0
-686,337,0,0,0,0,0,0,0,0,0,-1,538,687,0,0
-679,337,0,0,0,0,0,0,0,0,0,-1,545,687,0,0
-672,337,0,0,0,0,0,0,0,0,0,-1,552,687,0,0
-665,337,0,0,0,0,0,0,0,0,0,-1,559,687,0,0
-658,337,0,0,0,0,0,0,0,0,0,-1,566,687,0,0
-651,337,0,0,0,0,0,0,0,0,0,-1,573,687,0,0
-644,337,0,0,0,0,0,0,0,0,0,-1,580,687,0,0
-637,337,0,0,0,0,0,0,0,0,0,-1,587,687,0,0
-630,337,0,0,0,0,0,0,0,0,0,-1,594,687,0,0
-623,337,0,0,0,0,0,0,0,0,0,-1,601,687,0,0
-616,337,0,0,0,0,0,0,0,0,0,-1,608,687,0,0
-609,337,0,0,0,0,0,0,0,0,0,-1,615,687,0,0
-602,337,0,0,0,0,0,0,0,0,0,-1,622,687,0,0
-595,337,0,0,0,0,0,0,0,0,0,-1,629,687,0,0
-588,337,-8.20203,3.8374,0,0,0,0,0,0,0,-1,636,687,-8.20205,-3.8374
-581,337,-7.54236,2.87201,0,0,0,0,0,0,0,-1,643,687,-7.54236,-2.87198
-574,337,-5.24377,3.62292,0,0,0,0,0,0,0,-1,650,687,-5.24378,-3.6229
-567,337,-5.51648,2.8952,-0.0277374,0.0765186,0.0123228,0.0779553,-0.0291741,1.45473,0.0639529,0.0474364,657,687,-5.51649,-2.89519
-560,337,-5.87482,2.19452,-0.0186573,0.059153,0.0068059,0.0597438,-0.0192482,1.4842,0.0475618,0.0449487,664,687,-5.87483,-2.19451
-553,337,-5.89343,1.67078,-0.0122739,0.0445514,0.00308062,0.044718,-0.0124404,1.5168,0.03471,0.0451061,671,687,-5.89341,-1.67079
-546,337,-5.80237,0.882263,-0.00777228,0.0327265,0.000686604,0.0327381,-0.00778392,1.55385,0.0248301,0.0378036,678,687,-5.80239,-0.882288
-539,337,-5.88428,-0.0471191,-0.00468211,0.0235692,-0.000700436,0.0235866,-0.00469947,-1.54602,0.0175025,0.025537,685,687,-5.88429,0.0471254
-532,337,-5.9668,-0.334656,-0.00256193,0.0165002,-0.00138005,0.0165995,-0.00266132,-1.4989,0.0120518,0.0147151,692,687,-5.96681,0.334625
-525,337,-5.99713,-0.574036,-0.0010904,0.0111552,-0.00159684,0.01136,-0.0012952,-1.44324,0.00803989,0.0150854,699,687,-5.99713,0.57406
-518,337,-6.02118,-0.841797,6.89294e-05,0.00728231,-0.00150309,0.00758299,-0.000231744,-1.37337,0.00513432,0.0224339,706,687,-6.02119,0.841789
-511,337,-6.03436,-1.0755,0.0011366,0.00421973,-0.00135673,0.00473173,0.000624596,-1.20994,0.00296828,0.0223596,713,687,-6.03438,1.07547
-504,337,-6.01953,-1.33301,0.00189562,0.00160765,-0.000830367,0.00259439,0.000908876,-0.699553,0.00152008,0.02318,720,687,-6.01954,1.33299
-497,337,-6.0047,-1.56207,0.00236791,0.000695658,0.000325242,0.00242894,0.000634628,0.185488,0.00145465,0.0162263,727,687,-6.00469,1.56206
-490,337,-6.01648,-1.79205,0.00294841,0.000629813,0.00155305,0.00372714,-0.000148916,0.464782,0.00253585,0.0128016,734,687,-6.01649,1.79203
-483,337,-6.00085,-2.02826,0.00373422,0.00070615,0.00301624,0.00559509,-0.00115472,0.55279,0.00416862,0.0133887,741,687,-6.00086,2.02826
-476,337,-5.99493,-2.26947,0.00466565,0.00110555,0.00486408,0.00806516,-0.00229396,0.609988,0.00628261,0.0120725,748,687,-5.99494,2.26945
-469,337,-5.9812,-2.58508,0.00570099,0.00216331,0.0071764,0.0113233,-0.00345902,0.664567,0.00892812,0.0207447,755,687,-5.98121,2.58511
-462,337,-5.95734,-2.73102,0.00658063,0.00335031,0.0102759,0.0153676,-0.00543661,0.707446,0.0124591,0.0479515,762,687,-5.95735,2.731
-455,337,-5.84436,-2.89508,0,0,0,0,0,0,0,-1,769,687,-5.84434,2.89506
-448,337,-5.30627,-2.07202,0,0,0,0,0,0,0,-1,776,687,-5.30628,2.07205
-441,337,-4.24762,-1.49597,0,0,0,0,0,0,0,-1,783,687,-4.24762,1.49598
-434,337,-6.86908,1.37531,0,0,0,0,0,0,0,-1,790,687,-6.86908,-1.3753
-427,337,-9.92004,2.487,0,0,0,0,0,0,0,-1,797,687,-9.92002,-2.48701
-420,337,-2.95996,-1.76697,0,0,0,0,0,0,0,-1,804,687,-2.95998,1.76696
-413,337,-1.29169,-1.99487,0,0,0,0,0,0,0,-1,811,687,-1.29171,1.9949
-406,337,-1.02356,-1.89563,0,0,0,0,0,0,0,-1,818,687,-1.02357,1.89564
-399,337,-0.472839,-2.21338,0,0,0,0,0,0,0,-1,825,687,-0.472837,2.2134
-392,337,0,0,0,0,0,0,0,0,0,-1,832,687,0,0
-385,337,0,0,0,0,0,0,0,0,0,-1,839,687,0,0
-378,337,0,0,0,0,0,0,0,0,0,-1,846,687,0,0
-371,337,0,0,0,0,0,0,0,0,0,-1,853,687,0,0
-364,337,0,0,0,0,0,0,0,0,0,-1,860,687,0,0
-357,337,0,0,0,0,0,0,0,0,0,-1,867,687,0,0
-350,337,0,0,0,0,0,0,0,0,0,-1,874,687,0,0
-343,337,0,0,0,0,0,0,0,0,0,-1,881,687,0,0
-336,337,0,0,0,0,0,0,0,0,0,-1,888,687,0,0
-329,337,0,0,0,0,0,0,0,0,0,-1,895,687,0,0
-322,337,0,0,0,0,0,0,0,0,0,-1,902,687,0,0
-315,337,0,0,0,0,0,0,0,0,0,-1,909,687,0,0
-308,337,0,0,0,0,0,0,0,0,0,-1,916,687,0,0
-301,337,0,0,0,0,0,0,0,0,0,-1,923,687,0,0
-294,337,0,0,0,0,0,0,0,0,0,-1,930,687,0,0
-287,337,0,0,0,0,0,0,0,0,0,-1,937,687,0,0
-280,337,0,0,0,0,0,0,0,0,0,-1,944,687,0,0
-273,337,0,0,0,0,0,0,0,0,0,-1,951,687,0,0
-266,337,0,0,0,0,0,0,0,0,0,-1,958,687,0,0
-259,337,0,0,0,0,0,0,0,0,0,-1,965,687,0,0
-252,337,0,0,0,0,0,0,0,0,0,-1,972,687,0,0
-245,337,0,0,0,0,0,0,0,0,0,-1,979,687,0,0
-238,337,0,0,0,0,0,0,0,0,0,-1,986,687,0,0
-231,337,0,0,0,0,0,0,0,0,0,-1,993,687,0,0
-224,337,0,0,0,0,0,0,0,0,0,-1,1000,687,0,0
-217,337,0,0,0,0,0,0,0,0,0,-1,1007,687,0,0
-210,337,0,0,0,0,0,0,0,0,0,-1,1014,687,0,0
-203,337,0,0,0,0,0,0,0,0,0,-1,1021,687,0,0
-196,337,0,0,0,0,0,0,0,0,0,-1,1028,687,0,0
-189,337,0,0,0,0,0,0,0,0,0,-1,1035,687,0,0
-182,337,0,0,0,0,0,0,0,0,0,-1,1042,687,0,0
-175,337,0,0,0,0,0,0,0,0,0,-1,1049,687,0,0
-168,337,0,0,0,0,0,0,0,0,0,-1,1056,687,0,0
-161,337,0,0,0,0,0,0,0,0,0,-1,1063,687,0,0
-154,337,0,0,0,0,0,0,0,0,0,-1,1070,687,0,0
-147,337,0,0,0,0,0,0,0,0,0,-1,1077,687,0,0
-140,337,0,0,0,0,0,0,0,0,0,-1,1084,687,0,0
-133,337,0,0,0,0,0,0,0,0,0,-1,1091,687,0,0
-126,337,0,0,0,0,0,0,0,0,0,-1,1098,687,0,0
-119,337,0,0,0,0,0,0,0,0,0,-1,1105,687,0,0
-112,337,0,0,0,0,0,0,0,0,0,-1,1112,687,0,0
-105,337,0,0,0,0,0,0,0,0,0,-1,1119,687,0,0
-98,337,0,0,0,0,0,0,0,0,0,-1,1126,687,0,0
-91,337,0,0,0,0,0,0,0,0,0,-1,1133,687,0,0
-84,337,0,0,0,0,0,0,0,0,0,-1,1140,687,0,0
-77,337,0,0,0,0,0,0,0,0,0,-1,1147,687,0,0
-70,337,0,0,0,0,0,0,0,0,0,-1,1154,687,0,0
-63,337,0,0,0,0,0,0,0,0,0,-1,1161,687,0,0
-56,337,0,0,0,0,0,0,0,0,0,-1,1168,687,0,0
-49,337,0,0,0,0,0,0,0,0,0,-1,1175,687,0,0
-42,337,0,0,0,0,0,0,0,0,0,-1,1182,687,0,0
-35,337,0,0,0,0,0,0,0,0,0,-1,1189,687,0,0
-28,337,0,0,0,0,0,0,0,0,0,-1,1196,687,0,0
-21,337,0,0,0,0,0,0,0,0,0,-1,1203,687,0,0
-14,337,0,0,0,0,0,0,0,0,0,-1,1210,687,0,0
-7,337,0,0,0,0,0,0,0,0,0,-1,1217,687,0,0
0,337,0,0,0,0,0,0,0,0,0,-1,1224,687,0,0
7,337,0,0,0,0,0,0,0,0,0,-1,1231,687,0,0
14,337,0,0,0,0,0,0,0,0,0,-1,1238,687,0,0
21,337,0,0,0,0,0,0,0,0,0,-1,1245,687,0,0
28,337,0,0,0,0,0,0,0,0,0,-1,1252,687,0,0
35,337,0,0,0,0,0,0,0,0,0,-1,1259,687,0,0
42,337,0,0,0,0,0,0,0,0,0,-1,1266,687,0,0
49,337,0,0,0,0,0,0,0,0,0,-1,1273,687,0,0
56,337,0,0,0,0,0,0,0,0,0,-1,1280,687,0,0
63,337,0,0,0,0,0,0,0,0,0,-1,1287,687,0,0
70,337,0,0,0,0,0,0,0,0,0,-1,1294,687,0,0
77,337,0,0,0,0,0,0,0,0,0,-1,1301,687,0,0
84,337,0,0,0,0,0,0,0,0,0,-1,1308,687,0,0
91,337,0,0,0,0,0,0,0,0,0,-1,1315,687,0,0
98,337,0,0,0,0,0,0,0,0,0,-1,1322,687,0,0
105,337,0,0,0,0,0,0,0,0,0,-1,1329,687,0,0
112,337,0,0,0,0,0,0,0,0,0,-1,1336,687,0,0
119,337,0,0,0,0,0,0,0,0,0,-1,1343,687,0,0
126,337,0,0,0,0,0,0,0,0,0,-1,1350,687,0,0
133,337,0,0,0,0,0,0,0,0,0,-1,1357,687,0,0
140,337,0,0,0,0,0,0,0,0,0,-1,1364,687,0,0
147,337,0,0,0,0,0,0,0,0,0,-1,1371,687,0,0
154,337,0,0,0,0,0,0,0,0,0,-1,1378,687,0,0
161,337,0,0,0,0,0,0,0,0,0,-1,1385,687,0,0
168,337,0,0,0,0,0,0,0,0,0,-1,1392,687,0,0
175,337,0,0,0,0,0,0,0,0,0,-1,1399,687,0,0
182,337,0,0,0,0,0,0,0,0,0,-1,1406,687,0,0
189,337,0,0,0,0,0,0,0,0,0,-1,1413,687,0,0
196,337,0,0,0,0,0,0,0,0,0,-1,1420,687,0,0
203,337,0,0,0,0,0,0,0,0,0,-1,1427,687,0,0
210,337,0,0,0,0,0,0,0,0,0,-1,1434,687,0,0
217,337,0,0,0,0,0,0,0,0,0,-1,1441,687,0,0
224,337,0,0,0,0,0,0,0,0,0,-1,1448,687,0,0
231,337,0,0,0,0,0,0,0,0,0,-1,1455,687,0,0
238,337,0,0,0,0,0,0,0,0,0,-1,1462,687,0,0
245,337,0,0,0,0,0,0,0,0,0,-1,1469,687,0,0
252,337,0,0,0,0,0,0,0,0,0,-1,1476,687,0,0
259,337,0,0,0,0,0,0,0,0,0,-1,1483,687,0,0
266,337,0,0,0,0,0,0,0,0,0,-1,1490,687,0,0
273,337,0,0,0,0,0,0,0,0,0,-1,1497,687,0,0
280,337,0,0,0,0,0,0,0,0,0,-1,1504,687,0,0
287,337,0,0,0,0,0,0,0,0,0,-1,1511,687,0,0
294,337,0,0,0,0,0,0,0,0,0,-1,1518,687,0,0
301,337,0,0,0,0,0,0,0,0,0,-1,1525,687,0,0
308,337,0,0,0,0,0,0,0,0,0,-1,1532,687,0,0
315,337,0,0,0,0,0,0,0,0,0,-1,1539,687,0,0
322,337,0,0,0,0,0,0,0,0,0,-1,1546,687,0,0
329,337,0,0,0,0,0,0,0,0,0,-1,1553,687,0,0
336,337,0,0,0,0,0,0,0,0,0,-1,1560,687,0,0
343,337,0,0,0,0,0,0,0,0,0,-1,1567,687,0,0
350,337,0,0,0,0,0,0,0,0,0,-1,1574,687,0,0
357,337,0,0,0,0,0,0,0,0,0,-1,1581,687,0,0
364,337,0,0,0,0,0,0,0,0,0,-1,1588,687,0,0
371,337,0,0,0,0,0,0,0,0,0,-1,1595,687,0,0
378,337,0,0,0,0,0,0,0,0,0,-1,1602,687,0,0
385,337,0,0,0,0,0,0,0,0,0,-1,1609,687,0,0
392,337,0,0,0,0,0,0,0,0,0,-1,1616,687,0,0
399,337,0,0,0,0,0,0,0,0,0,-1,1623,687,0,0
406,337,0,0,0,0,0,0,0,0,0,-1,1630,687,0,0
413,337,0,0,0,0,0,0,0,0,0,-1,1637,687,0,0
420,337,0,0,0,0,0,0,0,0,0,-1,1644,687,0,0
427,337,0,0,0,0,0,0,0,0,0,-1,1651,687,0,0
434,337,0,0,0,0,0,0,0,0,0,-1,1658,687,0,0
441,337,0,0,0,0,0,0,0,0,0,-1,1665,687,0,0
448,337,0,0,0,0,0,0,0,0,0,-1,1672,687,0,0
455,337,0,0,0,0,0,0,0,0,0,-1,1679,687,0,0
462,337,0,0,0,0,0,0,0,0,0,-1,1686,687,0,0
469,337,0,0,0,0,0,0,0,0,0,-1,1693,687,0,0
476,337,0,0,0,0,0,0,0,0,0,-1,1700,687,0,0
483,337,0,0,0,0,0,0,0,0,0,-1,1707,687,0,0
490,337,0,0,0,0,0,0,0,0,0,-1,1714,687,0,0
497,337,0,0,0,0,0,0,0,0,0,-1,1721,687,0,0
504,337,0,0,0,0,0,0,0,0,0,-1,1728,687,0,0
511,337,0,0,0,0,0,0,0,0,0,-1,1735,687,0,0
518,337,18.0369,1.64581,0,0,0,0,0,0,0,-1,1742,687,18.0368,-1.64581
525,337,16.9935,2.33093,0,0,0,0,0,0,0,-1,1749,687,16.9935,-2.33094
532,337,16.3579,2.91357,0,0,0,0,0,0,0,-1,1756,687,16.3579,-2.91358
539,337,15.7062,3.49115,0,0,0,0,0,0,0,-1,1763,687,15.7062,-3.49114
546,337,15.0701,4.06219,0,0,0,0,0,0,0,-1,1770,687,15.0701,-4.06219
553,337,19.068,3.61273,0,0,0,0,0,0,0,-1,1777,687,19.068,-3.6127
560,337,18.4053,3.62793,0,0,0,0,0,0,0,-1,1784,687,18.4052,-3.6279
567,337,11.9288,1.38776,0,0,0,0,0,0,0,-1,1791,687,11.9288,-1.38777
574,337,10.704,1.19476,0,0,0,0,0,0,0,-1,1798,687,10.704,-1.19478
581,337,8.50427,0.561768,0,0,0,0,0,0,0,-1,1805,687,8.5043,-0.561754
588,337,8.5885,-0.0536499,0,0,0,0,0,0,0,-1,1812,687,8.58844,0.0536788
595,337,11.9418,-0.983948,0,0,0,0,0,0,0,-1,1819,687,11.9418,0.98397
602,337,12.203,-0.516174,-0.00421145,-0.00316811,-0.00254365,-0.00109318,-0.00628637,-0.886539,0.00387822,0.0451074,1826,687,12.2031,0.516178
609,337,12.2102,-0.218262,-0.0019701,-0.00198615,-0.00135297,-0.00062513,-0.00333112,-0.782432,0.00204448,0.0221962,1833,687,12.2102,0.218282
616,337,12.1837,0.0464478,-0.000857026,-0.00149319,-0.000779903,-0.000332834,-0.00201738,-0.591772,0.00124885,0.0172133,1840,687,12.1837,-0.046468
623,337,12.2092,0.253601,-0.000591265,-0.000939211,-0.000581457,-0.000158313,-0.00137216,-0.640036,0.000866837,0.0142716,1847,687,12.2093,-0.253623
630,337,12.229,0.518005,-0.00070537,-0.000656458,-0.00062932,-5.11191e-05,-0.00131071,-0.804819,0.000857274,0.0173721,1854,687,12.2289,-0.518005
637,337,12.2274,0.786316,-0.00103135,-0.000186402,-0.000774282,0.000273165,-0.00149092,-1.03514,0.0010964,0.0160757,1861,687,12.2275,-0.786294
644,337,12.1956,1.05621,-0.00197232,-0.000270248,-0.00139417,0.000512111,-0.00275468,-1.05942,0.00202882,0.010835,1868,687,12.1956,-1.05619
651,337,12.1798,1.30487,-0.0030705,-0.000432607,-0.00212442,0.000749,-0.00425211,-1.0632,0.00311457,0.0100759,1875,687,12.1798,-1.30485
658,337,12.1827,1.57092,-0.0040373,-0.000482034,-0.00279446,0.00105228,-0.00557161,-1.06868,0.00411032,0.0116913,1882,687,12.1828,-1.5709
665,337,12.1963,1.80804,-0.00369273,-0.000729137,-0.00300445,0.00113906,-0.00556093,-1.01449,0.00413954,0.0136064,1889,687,12.1963,-1.80805
672,337,12.173,2.03479,-0.00222341,-0.00143934,-0.00336233,0.00155373,-0.00521648,-0.843434,0.00409502,0.0179293,1896,687,12.1729,-2.03482
679,337,12.1443,2.21655,0.000285604,-0.00214472,-0.00325674,0.0025465,-0.00440561,-0.606837,0.00406136,0.0381069,1903,687,12.1443,-2.21652
686,337,12.2112,2.45288,0,0,0,0,0,0,0,-1,1910,687,12.2112,-2.45291
693,337,12.0886,3.77679,0,0,0,0,0,0,0,-1,1917,687,12.0886,-3.77682
700,337,17.2661,2.44379,0,0,0,0,0,0,0,-1,1924,687,17.2661,-2.44378
707,337,17.8453,3.15723,0,0,0,0,0,0,0,-1,1931,687,17.8453,-3.15725
714,337,0,0,0,0,0,0,0,0,0,-1,1938,687,0,0
721,337,0,0,0,0,0,0,0,0,0,-1,1945,687,0,0
728,337,0,0,0,0,0,0,0,0,0,-1,1952,687,0,0
735,337,0,0,0,0,0,0,0,0,0,-1,1959,687,0,0
742,337,0,0,0,0,0,0,0,0,0,-1,1966,687,0,0
749,337,0,0,0,0,0,0,0,0,0,-1,1973,687,0,0
756,337,0,0,0,0,0,0,0,0,0,-1,1980,687,0,0
763,337,0,0,0,0,0,0,0,0,0,-1,1987,687,0,0
770,337,0,0,0,0,0,0,0,0,0,-1,1994,687,0,0
777,337,0,0,0,0,0,0,0,0,0,-1,2001,687,0,0
784,337,0,0,0,0,0,0,0,0,0,-1,2008,687,0,0
791,337,0,0,0,0,0,0,0,0,0,-1,2015,687,0,0
798,337,0,0,0,0,0,0,0,0,0,-1,2022,687,0,0
805,337,0,0,0,0,0,0,0,0,0,-1,2029,687,0,0
812,337,0,0,0,0,0,0,0,0,0,-1,2036,687,0,0
-700,330,0,0,0,0,0,0,0,0,0,-1,524,694,0,0
-693,330,0,0,0,0,0,0,0,0,0,-1,531,694,0,0
-686,330,0,0,0,0,0,0,0,0,0,-1,538,694,0,0
-679,330,0,0,0,0,0,0,0,0,0,-1,545,694,0,0
-672,330,0,0,0,0,0,0,0,0,0,-1,552,694,0,0
-665,330,0,0,0,0,0,0,0,0,0,-1,559,694,0,0
-658,330,0,0,0,0,0,0,0,0,0,-1,566,694,0,0
-651,330,0,0,0,0,0,0,0,0,0,-1,573,694,0,0
-644,330,0,0,0,0,0,0,0,0,0,-1,580,694,0,0
-637,330,0,0,0,0,0,0,0,0,0,-1,587,694,0,0
-630,330,0,0,0,0,0,0,0,0,0,-1,594,694,0,0
-623,330,0,0,0,0,0,0,0,0,0,-1,601,694,0,0
-616,330,0,0,0,0,0,0,0,0,0,-1,608,694,0,0
-609,330,0,0,0,0,0,0,0,0,0,-1,615,694,0,0
-602,330,0,0,0,0,0,0,0,0,0,-1,622,694,0,0
-595,330,-4.67883,1.65515,0,0,0,0,0,0,0,-1,629,694,-4.67881,-1.65515
-588,330,-8.5047,2.67346,0,0,0,0,0,0,0,-1,636,694,-8.50469,-2.67348
-581,330,-7.78009,1.80542,0,0,0,0,0,0,0,-1,643,694,-7.78008,-1.80539
-574,330,-6.85742,0.83551,0,0,0,0,0,0,0,-1,650,694,-6.85743,-0.835501
-567,330,-6.47784,0.452393,0,0,0,0,0,0,0,-1,657,694,-6.47784,-0.452394
-560,330,-6.4718,0.557739,-0.0183782,0.0484492,0.00749614,0.0492797,-0.0192088,1.46045,0.0407925,0.0451091,664,694,-6.47177,-0.557737
-553,330,-6.19214,0.514526,-0.0125592,0.0365455,0.00424989,0.0369106,-0.0129243,1.4851,0.0298624,0.0400616,671,694,-6.19213,-0.514514
-546,330,-6.0744,0.193604,-0.00829969,0.026895,0.00200506,0.0270088,-0.00841355,1.51407,0.0213698,0.0267565,678,694,-6.0744,-0.193603
-539,330,-6.16895,-0.114685,-0.00524767,0.0193748,0.000569246,0.0193879,-0.00526082,1.54769,0.0149898,0.0121751,685,694,-6.16894,0.114684
-532,330,-6.25092,-0.353577,-0.00304059,0.0134778,-0.000278555,0.0134825,-0.00304529,-1.55394,0.0101568,0.0103798,692,694,-6.25092,0.353563
-525,330,-6.24994,-0.595459,-0.00144612,0.00895232,-0.000689524,0.00899784,-0.00149164,-1.50487,0.00655261,0.0115416,699,694,-6.24993,0.595456
-518,330,-6.25214,-0.830078,-5.97978e-05,0.00569951,-0.000741652,0.00579349,-0.00015377,-1.44476,0.00391459,0.0153147,706,694,-6.25212,0.830066
-511,330,-6.27411,-1.07355,0.00119289,0.00314954,-0.000603739,0.00332083,0.0010216,-1.29434,0.00196401,0.0195838,713,694,-6.27414,1.07352
-504,330,-6.28461,-1.30292,0.00223987,0.00119487,0.00026728,0.00230426,0.00113048,0.23642,0.00133044,0.0181567,720,694,-6.28462,1.3029
-497,330,-6.26166,-1.53149,0.0030616,0.000862841,0.00206855,0.00430477,-0.000380328,0.541144,0.00300466,0.0131701,727,694,-6.26169,1.53149
-490,330,-6.24139,-1.79767,0.00402619,0.00116621,0.00416454,0.00699941,-0.00180702,0.620019,0.00537092,0.0118576,734,694,-6.24136,1.7977
-483,330,-6.24475,-2.03174,0.00528194,0.00181568,0.00692495,0.0106873,-0.00358972,0.66278,0.00857568,0.0129363,741,694,-6.24474,2.03175
-476,330,-6.25012,-2.2464,0.00673847,0.00290776,0.0105153,0.0155114,-0.0058652,0.695311,0.0127538,0.0227864,748,694,-6.25014,2.24641
-469,330,-6.0896,-2.40033,0.00832575,0.0047322,0.0150035,0.0216396,-0.00858169,0.725803,0.017983,0.0420862,755,694,-6.08959,2.40033
-462,330,-5.79626,-2.82465,0,0,0,0,0,0,0,-1,762,694,-5.79625,2.82467
-455,330,-5.04254,-1.79303,0,0,0,0,0,0,0,-1,769,694,-5.04252,1.79305
-448,330,-4.89886,-1.66156,0,0,0,0,0,0,0,-1,776,694,-4.89886,1.66157
-441,330,-5.30676,-2.34045,0,0,0,0,0,0,0,-1,783,694,-5.30679,2.34048
-434,330,-7.20428,1.00024,0,0,0,0,0,0,0,-1,790,694,-7.20431,-1.00027
-427,330,-7.67114,0.451782,0,0,0,0,0,0,0,-1,797,694,-7.67116,-0.451789
-420,330,-9.80774,2.9187,0,0,0,0,0,0,0,-1,804,694,-9.80774,-2.91868
-413,330,-10.4567,2.56183,0,0,0,0,0,0,0,-1,811,694,-10.4567,-2.56182
-406,330,-1.65375,-1.74371,0,0,0,0,0,0,0,-1,818,694,-1.65375,1.74371
-399,330,0,0,0,0,0,0,0,0,0,-1,825,694,0,0
-392,330,0,0,0,0,0,0,0,0,0,-1,832,694,0,0
-385,330,0,0,0,0,0,0,0,0,0,-1,839,694,0,0
-378,330,0,0,0,0,0,0,0,0,0,-1,846,694,0,0
-371,330,0,0,0,0,0,0,0,0,0,-1,853,694,0,0
-364,330,0,0,0,0,0,0,0,0,0,-1,860,694,0,0
-357,330,0,0,0,0,0,0,0,0,0,-1,867,694,0,0
-350,330,0,0,0,0,0,0,0,0,0,-1,874,694,0,0
-343,330,0,0,0,0,0,0,0,0,0,-1,881,694,0,0
-336,330,0,0,0,0,0,0,0,0,0,-1,888,694,0,0
-329,330,0,0,0,0,0,0,0,0,0,-1,895,694,0,0
-322,330,0,0,0,0,0,0,0,0,0,-1,902,694,0,0
-315,330,0,0,0,0,0,0,0,0,0,-1,909,694,0,0
-308,330,0,0,0,0,0,0,0,0,0,-1,916,694,0,0
-301,330,0,0,0,0,0,0,0,0,0,-1,923,694,0,0
-294,330,0,0,0,0,0,0,0,0,0,-1,930,694,0,0
-287,330,0,0,0,0,0,0,0,0,0,-1,937,694,0,0
-280,330,0,0,0,0,0,0,0,0,0,-1,944,694,0,0
-273,330,0,0,0,0,0,0,0,0,0,-1,951,694,0,0
-266,330,0,0,0,0,0,0,0,0,0,-1,958,694,0,0
-259,330,0,0,0,0,0,0,0,0,0,-1,965,694,0,0
-252,330,0,0,0,0,0,0,0,0,0,-1,972,694,0,0
-245,330,0,0,0,0,0,0,0,0,0,-1,979,694,0,0
-238,330,0,0,0,0,0,0,0,0,0,-1,986,694,0,0
-231,330,0,0,0,0,0,0,0,0,0,-1,993,694,0,0
-224,330,0,0,0,0,0,0,0,0,0,-1,1000,694,0,0
-217,330,0,0,0,0,0,0,0,0,0,-1,1007,694,0,0
-210,330,0,0,0,0,0,0,0,0,0,-1,1014,694,0,0
-203,330,0,0,0,0,0,0,0,0,0,-1,1021,694,0,0
-196,330,0,0,0,0,0,0,0,0,0,-1,1028,694,0,0
-189,330,0,0,0,0,0,0,0,0,0,-1,1035,694,0,0
-182,330,0,0,0,0,0,0,0,0,0,-1,1042,694,0,0
-175,330,0,0,0,0,0,0,0,0,0,-1,1049,694,0,0
-168,330,0,0,0,0,0,0,0,0,0,-1,1056,694,0,0
-161,330,0,0,0,0,0,0,0,0,0,-1,1063,694,0,0
-154,330,0,0,0,0,0,0,0,0,0,-1,1070,694,0,0
-147,330,0,0,0,0,0,0,0,0,0,-1,1077,694,0,0
-140,330,0,0,0,0,0,0,0,0,0,-1,1084,694,0,0
-133,330,0,0,0,0,0,0,0,0,0,-1,1091,694,0,0
-126,330,0,0,0,0,0,0,0,0,0,-1,1098,694,0,0
-119,330,0,0,0,0,0,0,0,0,0,-1,1105,694,0,0
-112,330,0,0,0,0,0,0,0,0,0,-1,1112,694,0,0
-105,330,0,0,0,0,0,0,0,0,0,-1,1119,694,0,0
-98,330,0,0,0,0,0,0,0,0,0,-1,1126,694,0,0
-91,330,0,0,0,0,0,0,0,0,0,-1,1133,694,0,0
-84,330,0,0,0,0,0,0,0,0,0,-1,1140,694,0,0
-77,330,0,0,0,0,0,0,0,0,0,-1,1147,694,0,0
-70,330,0,0,0,0,0,0,0,0,0,-1,1154,694,0,0
-63,330,0,0,0,0,0,0,0,0,0,-1,1161,694,0,0
-56,330,0,0,0,0,0,0,0,0,0,-1,1168,694,0,0
-49,330,0,0,0,0,0,0,0,0,0,-1,1175,694,0,0
-42,330,0,0,0,0,0,0,0,0,0,-1,1182,694,0,0
-35,330,0,0,0,0,0,0,0,0,0,-1,1189,694,0,0
-28,330,0,0,0,0,0,0,0,0,0,-1,1196,694,0,0
-21,330,0,0,0,0,0,0,0,0,0,-1,1203,694,0,0
-14,330,0,0,0,0,0,0,0,0,0,-1,1210,694,0,0
-7,330,0,0,0,0,0,0,0,0,0,-1,1217,694,0,0
0,330,0,0,0,0,0,0,0,0,0,-1,1224,694,0,0
7,330,0,0,0,0,0,0,0,0,0,-1,1231,694,0,0
14,330,0,0,0,0,0,0,0,0,0,-1,1238,694,0,0
21,330,0,0,0,0,0,0,0,0,0,-1,1245,694,0,0
28,330,0,0,0,0,0,0,0,0,0,-1,1252,694,0,0
35,330,0,0,0,0,0,0,0,0,0,-1,1259,694,0,0
42,330,0,0,0,0,0,0,0,0,0,-1,1266,694,0,0
49,330,0,0,0,0,0,0,0,0,0,-1,1273,694,0,0
56,330,0,0,0,0,0,0,0,0,0,-1,1280,694,0,0
63,330,0,0,0,0,0,0,0,0,0,-1,1287,694,0,0
70,330,0,0,0,0,0,0,0,0,0,-1,1294,694,0,0
77,330,0,0,0,0,0,0,0,0,0,-1,1301,694,0,0
84,330,0,0,0,0,0,0,0,0,0,-1,1308,694,0,0
91,330,0,0,0,0,0,0,0,0,0,-1,1315,694,0,0
98,330,0,0,0,0,0,0,0,0,0,-1,1322,694,0,0
105,330,0,0,0,0,0,0,0,0,0,-1,1329,694,0,0
112,330,0,0,0,0,0,0,0,0,0,-1,1336,694,0,0
119,330,0,0,0,0,0,0,0,0,0,-1,1343,694,0,0
126,330,0,0,0,0,0,0,0,0,0,-1,1350,694,0,0
133,330,0,0,0,0,0,0,0,0,0,-1,1357,694,0,0
140,330,0,0,0,0,0,0,0,0,0,-1,1364,694,0,0
147,330,0,0,0,0,0,0,0,0,0,-1,1371,694,0,0
154,330,0,0,0,0,0,0,0,0,0,-1,1378,694,0,0
161,330,0,0,0,0,0,0,0,0,0,-1,1385,694,0,0
168,330,0,0,0,0,0,0,0,0,0,-1,1392,694,0,0
175,330,0,0,0,0,0,0,0,0,0,-1,1399,694,0,0
182,330,0,0,0,0,0,0,0,0,0,-1,1406,694,0,0
189,330,0,0,0,0,0,0,0,0,0,-1,1413,694,0,0
196,330,0,0,0,0,0,0,0,0,0,-1,1420,694,0,0
203,330,0,0,0,0,0,0,0,0,0,-1,1427,694,0,0
210,330,0,0,0,0,0,0,0,0,0,-1,1434,694,0,0
217,330,0,0,0,0,0,0,0,0,0,-1,1441,694,0,0
224,330,0,0,0,0,0,0,0,0,0,-1,1448,694,0,0
231,330,0,0,0,0,0,0,0,0,0,-1,1455,694,0,0
238,330,0,0,0,0,0,0,0,0,0,-1,1462,694,0,0
245,330,0,0,0,0,0,0,0,0,0,-1,1469,694,0,0
252,330,0,0,0,0,0,0,0,0,0,-1,1476,694,0,0
259,330,0,0,0,0,0,0,0,0,0,-1,1483,694,0,0
266,330,0,0,0,0,0,0,0,0,0,-1,1490,694,0,0
273,330,0,0,0,0,0,0,0,0,0,-1,1497,694,0,0
280,330,0,0,0,0,0,0,0,0,0,-1,1504,694,0,0
287,330,0,0,0,0,0,0,0,0,0,-1,1511,694,0,0
294,330,0,0,0,0,0,0,0,0,0,-1,1518,694,0,0
301,330,0,0,0,0,0,0,0,0,0,-1,1525,694,0,0
308,330,0,0,0,0,0,0,0,0,0,-1,1532,694,0,0
315,330,0,0,0,0,0,0,0,0,0,-1,1539,694,0,0
322,330,0,0,0,0,0,0,0,0,0,-1,1546,694,0,0
329,330,0,0,0,0,0,0,0,0,0,-1,1553,694,0,0
336,330,0,0,0,0,0,0,0,0,0,-1,1560,694,0,0
343,330,0,0,0,0,0,0,0,0,0,-1,1567,694,0,0
350,330,0,0,0,0,0,0,0,0,0,-1,1574,694,0,0
357,330,0,0,0,0,0,0,0,0,0,-1,1581,694,0,0
364,330,0,0,0,0,0,0,0,0,0,-1,1588,694,0,0
371,330,0,0,0,0,0,0,0,0,0,-1,1595,694,0,0
378,330,0,0,0,0,0,0,0,0,0,-1,1602,694,0,0
385,330,0,0,0,0,0,0,0,0,0,-1,1609,694,0,0
392,330,0,0,0,0,0,0,0,0,0,-1,1616,694,0,0
399,330,0,0,0,0,0,0,0,0,0,-1,1623,694,0,0
406,330,0,0,0,0,0,0,0,0,0,-1,1630,694,0,0
413,330,0,0,0,0,0,0,0,0,0,-1,1637,694,0,0
420,330,0,0,0,0,0,0,0,0,0,-1,1644,694,0,0
427,330,0,0,0,0,0,0,0,0,0,-1,1651,694,0,0
434,330,0,0,0,0,0,0,0,0,0,-1,1658,694,0,0
441,330,0,0,0,0,0,0,0,0,0,-1,1665,694,0,0
448,330,0,0,0,0,0,0,0,0,0,-1,1672,694,0,0
455,330,0,0,0,0,0,0,0,0,0,-1,1679,694,0,0
462,330,0,0,0,0,0,0,0,0,0,-1,1686,694,0,0
469,330,0,0,0,0,0,0,0,0,0,-1,1693,694,0,0
476,330,0,0,0,0,0,0,0,0,0,-1,1700,694,0,0
483,330,0,0,0,0,0,0,0,0,0,-1,1707,694,0,0
490,330,0,0,0,0,0,0,0,0,0,-1,1714,694,0,0
497,330,0,0,0,0,0,0,0,0,0,-1,1721,694,0,0
504,330,0,0,0,0,0,0,0,0,0,-1,1728,694,0,0
511,330,0,0,0,0,0,0,0,0,0,-1,1735,694,0,0
518,330,0,0,0,0,0,0,0,0,0,-1,1742,694,0,0
525,330,17.5052,1.86627,0,0,0,0,0,0,0,-1,1749,694,17.5052,-1.86629
532,330,16.8772,2.56702,0,0,0,0,0,0,0,-1,1756,694,16.8772,-2.567
539,330,16.1982,5.49628,0,0,0,0,0,0,0,-1,1763,694,16.1983,-5.49626
546,330,20.1758,3.75854,0,0,0,0,0,0,0,-1,1770,694,20.1758,-3.75856
553,330,19.3512,3.78687,0,0,0,0,0,0,0,-1,1777,694,19.3512,-3.78684
560,330,18.6956,3.84155,0,0,0,0,0,0,0,-1,1784,694,18.6956,-3.84155
567,330,18.0321,3.98578,0,0,0,0,0,0,0,-1,1791,694,18.0321,-3.98576
574,330,12.0454,2.1662,0,0,0,0,0,0,0,-1,1798,694,12.0455,-2.16618
581,330,11.4215,4.50836,0,0,0,0,0,0,0,-1,1805,694,11.4215,-4.50837
588,330,6.45667,-0.0630493,0,0,0,0,0,0,0,-1,1812,694,6.45661,0.0630695
595,330,8.23193,-0.258484,0,0,0,0,0,0,0,-1,1819,694,8.23188,0.258459
602,330,12.1398,-0.782532,0,0,0,0,0,0,0,-1,1826,694,12.1398,0.782546
609,330,12.3625,-0.266479,-0.00413586,-0.00419374,0.000277759,-0.00388554,-0.00444406,0.733496,0.0027952,0.0321011,1833,694,12.3626,0.266473
616,330,12.4354,0.0314941,-0.00199438,-0.00275551,0.000248991,-0.00192016,-0.00282973,0.289684,0.00166811,0.0113452,1840,694,12.4354,-0.031482
623,330,12.4319,0.27771,-0.00107966,-0.00168071,7.88991e-05,-0.00106948,-0.00169089,0.128372,0.000987596,0.0128438,1847,694,12.4319,-0.277714
630,330,12.4545,0.553467,-0.000767378,-0.0010538,-0.00018846,-0.000673891,-0.00114729,-0.460492,0.000665751,0.0133929,1854,694,12.4545,-0.553493
637,330,12.4778,0.812012,-0.000695358,-0.000334824,-0.000471214,-1.05724e-05,-0.00101961,-0.968089,0.000676243,0.0121524,1861,694,12.4778,-0.812015
644,330,12.4585,1.06177,-0.00136799,-0.000316524,-0.00104629,0.000328693,-0.00201321,-1.01821,0.00146405,0.00779722,1868,694,12.4585,-1.06174
651,330,12.4467,1.30499,-0.00228283,-0.000443783,-0.00165416,0.000529252,-0.00325586,-1.03907,0.0023668,0.0110075,1875,694,12.4467,-1.30502
658,330,12.4487,1.56366,-0.00301767,-0.000415447,-0.0021612,0.000806073,-0.00423919,-1.05635,0.00312961,0.0119263,1882,694,12.4487,-1.56368
665,330,12.438,1.82904,-0.00240857,-0.000619128,-0.00221902,0.000878761,-0.00390646,-0.977031,0.00294131,0.0102673,1889,694,12.4379,-1.82903
672,330,12.4377,2.07996,-0.000641944,-0.00131374,-0.00242333,0.00146866,-0.00342434,-0.716532,0.00289922,0.0134879,1896,694,12.4378,-2.07998
679,330,12.3038,2.29822,0.00205045,-0.00197744,-0.00218288,0.00300652,-0.0029335,-0.412815,0.00342956,0.0264534,1903,694,12.3038,-2.29821
686,330,12.366,2.6712,0.00714491,-0.00320518,-0.00146984,0.00734959,-0.00340986,-0.138368,0.00634927,0.0434202,1910,694,12.366,-2.6712
693,330,12.4321,2.85907,0,0,0,0,0,0,0,-1,1917,694,12.4322,-2.85908
700,330,16.7338,2.16406,0,0,0,0,0,0,0,-1,1924,694,16.7337,-2.16404
707,330,17.0448,2.79681,0,0,0,0,0,0,0,-1,1931,694,17.0448,-2.79682
714,330,17.3251,3.49585,0,0,0,0,0,0,0,-1,1938,694,17.325,-3.49584
721,330,0,0,0,0,0,0,0,0,0,-1,1945,694,0,0
728,330,0,0,0,0,0,0,0,0,0,-1,1952,694,0,0
735,330,0,0,0,0,0,0,0,0,0,-1,1959,694,0,0
742,330,0,0,0,0,0,0,0,0,0,-1,1966,694,0,0
749,330,0,0,0,0,0,0,0,0,0,-1,1973,694,0,0
756,330,0,0,0,0,0,0,0,0,0,-1,1980,694,0,0
763,330,0,0,0,0,0,0,0,0,0,-1,1987,694,0,0
770,330,0,0,0,0,0,0,0,0,0,-1,1994,694,0,0
777,330,0,0,0,0,0,0,0,0,0,-1,2001,694,0,0
784,330,0,0,0,0,0,0,0,0,0,-1,2008,694,0,0
791,330,0,0,0,0,0,0,0,0,0,-1,2015,694,0,0
798,330,0,0,0,0,0,0,0,0,0,-1,2022,694,0,0
805,330,0,0,0,0,0,0,0,0,0,-1,2029,694,0,0
812,330,0,0,0,0,0,0,0,0,0,-1,2036,694,0,0
-700,323,0,0,0,0,0,0,0,0,0,-1,524,701,0,0
-693,323,0,0,0,0,0,0,0,0,0,-1,531,701,0,0
-686,323,0,0,0,0,0,0,0,0,0,-1,538,701,0,0
-679,323,0,0,0,0,0,0,0,0,0,-1,545,701,0,0
-672,323,0,0,0,0,0,0,0,0,0,-1,552,701,0,0
-665,323,0,0,0,0,0,0,0,0,0,-1,559,701,0,0
-658,323,0,0,0,0,0,0,0,0,0,-1,566,701,0,0
-651,323,0,0,0,0,0,0,0,0,0,-1,573,701,0,0
-644,323,0,0,0,0,0,0,0,0,0,-1,580,701,0,0
-637,323,0,0,0,0,0,0,0,0,0,-1,587,701,0,0
-630,323,0,0,0,0,0,0,0,0,0,-1,594,701,0,0
-623,323,0,0,0,0,0,0,0,0,0,-1,601,701,0,0
-616,323,0,0,0,0,0,0,0,0,0,-1,608,701,0,0
-609,323,0,0,0,0,0,0,0,0,0,-1,615,701,0,0
-602,323,-4.15833,2.12256,0,0,0,0,0,0,0,-1,622,701,-4.1583,-2.12257
-595,323,-4.052,1.79156,0,0,0,0,0,0,0,-1,629,701,-4.05198,-1.79158
-588,323,-4.07019,1.94543,0,0,0,0,0,0,0,-1,636,701,-4.07019,-1.94542
-581,323,-6.63727,0.562805,0,0,0,0,0,0,0,-1,643,701,-6.63728,-0.56279
-574,323,-6.15887,0.426697,0,0,0,0,0,0,0,-1,650,701,-6.15887,-0.426727
-567,323,-6.49475,-0.355591,0,0,0,0,0,0,0,-1,657,701,-6.49475,0.355561
-560,323,-6.69434,0.555176,0,0,0,0,0,0,0,-1,664,701,-6.69432,-0.555205
-553,323,-6.5097,0.309021,-0.0126427,0.0286671,0.0049858,0.0292603,-0.0132359,1.45237,0.0251099,0.0305284,671,701,-6.5097,-0.308997
-546,323,-6.44934,0.127563,-0.00862231,0.0213174,0.00280828,0.0215785,-0.00888345,1.47808,0.0180891,0.0123638,678,701,-6.44931,-0.127547
-539,323,-6.46539,-0.0829468,-0.00560654,0.0153782,0.00138839,0.0154697,-0.005698,1.50502,0.0126478,0.0111988,685,701,-6.46537,0.0829297
-532,323,-6.48474,-0.338989,-0.00335967,0.010695,0.00049684,0.0107125,-0.00337721,1.5355,0.00849422,0.00941896,692,701,-6.48473,0.339012
-525,323,-6.49219,-0.578186,-0.00171983,0.00722349,9.94337e-05,0.00722459,-0.00172093,1.55968,0.00548085,0.0078146,699,701,-6.49217,0.578196
-518,323,-6.49011,-0.801331,-0.000227116,0.00489654,0.000167608,0.00490202,-0.000232593,1.53813,0.00334824,0.0100521,706,701,-6.49009,0.80132
-511,323,-6.51093,-1.0412,0.00113807,0.00327911,0.00069349,0.00348411,0.000933079,1.28338,0.00208259,0.0130863,713,701,-6.51091,1.04121
-504,323,-6.5094,-1.27631,0.00241082,0.00246588,0.00236799,0.0048065,7.01942e-05,0.791211,0.0031812,0.0138334,720,701,-6.5094,1.2763
-497,323,-6.48334,-1.52423,0.00355978,0.00326761,0.00521409,0.00862983,-0.00180244,0.771393,0.00643869,0.0115185,727,701,-6.48336,1.52426
-490,323,-6.49835,-1.78632,0.00489064,0.00464873,0.00859896,0.0133695,-0.00383012,0.778365,0.0104269,0.0118649,734,701,-6.49833,1.78632
-483,323,-6.49512,-2.01477,0.0066154,0.00651046,0.0129793,0.0195423,-0.00641646,0.783377,0.0156129,0.0169111,741,701,-6.49512,2.01476
-476,323,-6.3844,-2.26508,0.0086593,0.00880113,0.0183696,0.0271,-0.00963954,0.787328,0.0219956,0.0377991,748,701,-6.38439,2.26506
-469,323,-5.92145,-2.26044,0,0,0,0,0,0,0,-1,755,701,-5.92143,2.26045
-462,323,-5.29431,-1.45697,0,0,0,0,0,0,0,-1,762,701,-5.29431,1.45699
-455,323,-5.0658,-1.36639,0,0,0,0,0,0,0,-1,769,701,-5.06578,1.3664
-448,323,-4.91608,-1.59601,0,0,0,0,0,0,0,-1,776,701,-4.91606,1.59604
-441,323,-11.7404,3.01556,0,0,0,0,0,0,0,-1,783,701,-11.7404,-3.01556
-434,323,-7.5022,0.849731,0,0,0,0,0,0,0,-1,790,701,-7.50219,-0.849752
-427,323,-7.61346,-0.0681763,0,0,0,0,0,0,0,-1,797,701,-7.61345,0.0681943
-420,323,-10.3256,2.65674,0,0,0,0,0,0,0,-1,804,701,-10.3256,-2.65675
-413,323,-10.202,3.21863,0,0,0,0,0,0,0,-1,811,701,-10.202,-3.21863
-406,323,0,0,0,0,0,0,0,0,0,-1,818,701,0,0
-399,323,0,0,0,0,0,0,0,0,0,-1,825,701,0,0
-392,323,0,0,0,0,0,0,0,0,0,-1,832,701,0,0
-385,323,0,0,0,0,0,0,0,0,0,-1,839,701,0,0
-378,323,0,0,0,0,0,0,0,0,0,-1,846,701,0,0
-371,323,0,0,0,0,0,0,0,0,0,-1,853,701,0,0
-364,323,0,0,0,0,0,0,0,0,0,-1,860,701,0,0
-357,323,0,0,0,0,0,0,0,0,0,-1,867,701,0,0
-350,323,0,0,0,0,0,0,0,0,0,-1,874,701,0,0
-343,323,0,0,0,0,0,0,0,0,0,-1,881,701,0,0
-336,323,0,0,0,0,0,0,0,0,0,-1,888,701,0,0
-329,323,0,0,0,0,0,0,0,0,0,-1,895,701,0,0
-322,323,0,0,0,0,0,0,0,0,0,-1,902,701,0,0
-315,323,0,0,0,0,0,0,0,0,0,-1,909,701,0,0
-308,323,0,0,0,0,0,0,0,0,0,-1,916,701,0,0
-301,323,0,0,0,0,0,0,0,0,0,-1,923,701,0,0
-294,323,0,0,0,0,0,0,0,0,0,-1,930,701,0,0
-287,323,0,0,0,0,0,0,0,0,0,-1,937,701,0,0
-280,323,0,0,0,0,0,0,0,0,0,-1,944,701,0,0
-273,323,0,0,0,0,0,0,0,0,0,-1,951,701,0,0
-266,323,0,0,0,0,0,0,0,0,0,-1,958,701,0,0
-259,323,0,0,0,0,0,0,0,0,0,-1,965,701,0,0
-252,323,0,0,0,0,0,0,0,0,0,-1,972,701,0,0
-245,323,0,0,0,0,0,0,0,0,0,-1,979,701,0,0
-238,323,0,0,0,0,0,0,0,0,0,-1,986,701,0,0
-231,323,0,0,0,0,0,0,0,0,0,-1,993,701,0,0
-224,323,0,0,0,0,0,0,0,0,0,-1,1000,701,0,0
-217,323,0,0,0,0,0,0,0,0,0,-1,1007,701,0,0
-210,323,0,0,0,0,0,0,0,0,0,-1,1014,701,0,0
-203,323,0,0,0,0,0,0,0,0,0,-1,1021,701,0,0
-196,323,0,0,0,0,0,0,0,0,0,-1,1028,701,0,0
-189,323,0,0,0,0,0,0,0,0,0,-1,1035,701,0,0
-182,323,0,0,0,0,0,0,0,0,0,-1,1042,701,0,0
-175,323,0,0,0,0,0,0,0,0,0,-1,1049,701,0,0
-168,323,0,0,0,0,0,0,0,0,0,-1,1056,701,0,0
-161,323,0,0,0,0,0,0,0,0,0,-1,1063,701,0,0
-154,323,0,0,0,0,0,0,0,0,0,-1,1070,701,0,0
-147,323,0,0,0,0,0,0,0,0,0,-1,1077,701,0,0
-140,323,0,0,0,0,0,0,0,0,0,-1,1084,701,0,0
-133,323,0,0,0,0,0,0,0,0,0,-1,1091,701,0,0
-126,323,0,0,0,0,0,0,0,0,0,-1,1098,701,0,0
-119,323,0,0,0,0,0,0,0,0,0,-1,1105,701,0,0
-112,323,0,0,0,0,0,0,0,0,0,-1,1112,701,0,0
-105,323,0,0,0,0,0,0,0,0,0,-1,1119,701,0,0
-98,323,0,0,0,0,0,0,0,0,0,-1,1126,701,0,0
-91,323,0,0,0,0,0,0,0,0,0,-1,1133,701,0,0
-84,323,0,0,0,0,0,0,0,0,0,-1,1140,701,0,0
-77,323,0,0,0,0,0,0,0,0,0,-1,1147,701,0,0
-70,323,0,0,0,0,0,0,0,0,0,-1,1154,701,0,0
-63,323,0,0,0,0,0,0,0,0,0,-1,1161,701,0,0
-56,323,0,0,0,0,0,0,0,0,0,-1,1168,701,0,0
-49,323,0,0,0,0,0,0,0,0,0,-1,1175,701,0,0
-42,323,0,0,0,0,0,0,0,0,0,-1,1182,701,0,0
-35,323,0,0,0,0,0,0,0,0,0,-1,1189,701,0,0
-28,323,0,0,0,0,0,0,0,0,0,-1,1196,701,0,0
-21,323,0,0,0,0,0,0,0,0,0,-1,1203,701,0,0
-14,323,0,0,0,0,0,0,0,0,0,-1,1210,701,0,0
-7,323,0,0,0,0,0,0,0,0,0,-1,1217,701,0,0
0,323,0,0,0,0,0,0,0,0,0,-1,1224,701,0,0
7,323,0,0,0,0,0,0,0,0,0,-1,1231,701,0,0
14,323,0,0,0,0,0,0,0,0,0,-1,1238,701,0,0
21,323,0,0,0,0,0,0,0,0,0,-1,1245,701,0,0
28,323,0,0,0,0,0,0,0,0,0,-1,1252,701,0,0
35,323,0,0,0,0,0,0,0,0,0,-1,1259,701,0,0
42,323,0,0,0,0,0,0,0,0,0,-1,1266,701,0,0
49,323,0,0,0,0,0,0,0,0,0,-1,1273,701,0,0
56,323,0,0,0,0,0,0,0,0,0,-1,1280,701,0,0
63,323,0,0,0,0,0,0,0,0,0,-1,1287,701,0,0
70,323,0,0,0,0,0,0,0,0,0,-1,1294,701,0,0
77,323,0,0,0,0,0,0,0,0,0,-1,1301,701,0,0
84,323,0,0,0,0,0,0,0,0,0,-1,1308,701,0,0
91,323,0,0,0,0,0,0,0,0,0,-1,1315,701,0,0
98,323,0,0,0,0,0,0,0,0,0,-1,1322,701,0,0
105,323,0,0,0,0,0,0,0,0,0,-1,1329,701,0,0
112,323,0,0,0,0,0,0,0,0,0,-1,1336,701,0,0
119,323,0,0,0,0,0,0,0,0,0,-1,1343,701,0,0
126,323,0,0,0,0,0,0,0,0,0,-1,1350,701,0,0
133,323,0,0,0,0,0,0,0,0,0,-1,1357,701,0,0
140,323,0,0,0,0,0,0,0,0,0,-1,1364,701,0,0
147,323,0,0,0,0,0,0,0,0,0,-1,1371,701,0,0
154,323,0,0,0,0,0,0,0,0,0,-1,1378,701,0,0
161,323,0,0,0,0,0,0,0,0,0,-1,1385,701,0,0
168,323,0,0,0,0,0,0,0,0,0,-1,1392,701,0,0
175,323,0,0,0,0,0,0,0,0,0,-1,1399,701,0,0
182,323,0,0,0,0,0,0,0,0,0,-1,1406,701,0,0
189,323,0,0,0,0,0,0,0,0,0,-1,1413,701,0,0
196,323,0,0,0,0,0,0,0,0,0,-1,1420,701,0,0
203,323,0,0,0,0,0,0,0,0,0,-1,1427,701,0,0
210,323,0,0,0,0,0,0,0,0,0,-1,1434,701,0,0
217,323,0,0,0,0,0,0,0,0,0,-1,1441,701,0,0
224,323,0,0,0,0,0,0,0,0,0,-1,1448,701,0,0
231,323,0,0,0,0,0,0,0,0,0,-1,1455,701,0,0
238,323,0,0,0,0,0,0,0,0,0,-1,1462,701,0,0
245,323,0,0,0,0,0,0,0,0,0,-1,1469,701,0,0
252,323,0,0,0,0,0,0,0,0,0,-1,1476,701,0,0
259,323,0,0,0,0,0,0,0,0,0,-1,1483,701,0,0
266,323,0,0,0,0,0,0,0,0,0,-1,1490,701,0,0
273,323,0,0,0,0,0,0,0,0,0,-1,1497,701,0,0
280,323,0,0,0,0,0,0,0,0,0,-1,1504,701,0,0
287,323,0,0,0,0,0,0,0,0,0,-1,1511,701,0,0
294,323,0,0,0,0,0,0,0,0,0,-1,1518,701,0,0
301,323,0,0,0,0,0,0,0,0,0,-1,1525,701,0,0
308,323,0,0,0,0,0,0,0,0,0,-1,1532,701,0,0
315,323,0,0,0,0,0,0,0,0,0,-1,1539,701,0,0
322,323,0,0,0,0,0,0,0,0,0,-1,1546,701,0,0
329,323,0,0,0,0,0,0,0,0,0,-1,1553,701,0,0
336,323,0,0,0,0,0,0,0,0,0,-1,1560,701,0,0
343,323,0,0,0,0,0,0,0,0,0,-1,1567,701,0,0
350,323,0,0,0,0,0,0,0,0,0,-1,1574,701,0,0
357,323,0,0,0,0,0,0,0,0,0,-1,1581,701,0,0
364,323,0,0,0,0,0,0,0,0,0,-1,1588,701,0,0
371,323,0,0,0,0,0,0,0,0,0,-1,1595,701,0,0
378,323,0,0,0,0,0,0,0,0,0,-1,1602,701,0,0
385,323,0,0,0,0,0,0,0,0,0,-1,1609,701,0,0
392,323,0,0,0,0,0,0,0,0,0,-1,1616,701,0,0
399,323,0,0,0,0,0,0,0,0,0,-1,1623,701,0,0
406,323,0,0,0,0,0,0,0,0,0,-1,1630,701,0,0
413,323,0,0,0,0,0,0,0,0,0,-1,1637,701,0,0
420,323,0,0,0,0,0,0,0,0,0,-1,1644,701,0,0
427,323,0,0,0,0,0,0,0,0,0,-1,1651,701,0,0
434,323,0,0,0,0,0,0,0,0,0,-1,1658,701,0,0
441,323,0,0,0,0,0,0,0,0,0,-1,1665,701,0,0
448,323,0,0,0,0,0,0,0,0,0,-1,1672,701,0,0
455,323,0,0,0,0,0,0,0,0,0,-1,1679,701,0,0
462,323,0,0,0,0,0,0,0,0,0,-1,1686,701,0,0
469,323,0,0,0,0,0,0,0,0,0,-1,1693,701,0,0
476,323,0,0,0,0,0,0,0,0,0,-1,1700,701,0,0
483,323,0,0,0,0,0,0,0,0,0,-1,1707,701,0,0
490,323,0,0,0,0,0,0,0,0,0,-1,1714,701,0,0
497,323,0,0,0,0,0,0,0,0,0,-1,1721,701,0,0
504,323,0,0,0,0,0,0,0,0,0,-1,1728,701,0,0
511,323,0,0,0,0,0,0,0,0,0,-1,1735,701,0,0
518,323,0,0,0,0,0,0,0,0,0,-1,1742,701,0,0
525,323,0,0,0,0,0,0,0,0,0,-1,1749,701,0,0
532,323,16.1195,3.75397,0,0,0,0,0,0,0,-1,1756,701,16.1196,-3.75396
539,323,15.8151,4.36414,0,0,0,0,0,0,0,-1,1763,701,15.8151,-4.36415
546,323,14.9697,4.06653,0,0,0,0,0,0,0,-1,1770,701,14.9697,-4.06654
553,323,19.7142,3.41541,0,0,0,0,0,0,0,-1,1777,701,19.7142,-3.41542
560,323,19.1747,3.96667,0,0,0,0,0,0,0,-1,1784,701,19.1747,-3.96669
567,323,18.6687,4.57452,0,0,0,0,0,0,0,-1,1791,701,18.6686,-4.57453
574,323,12.514,5.89685,0,0,0,0,0,0,0,-1,1798,701,12.5141,-5.89683
581,323,11.821,5.3476,0,0,0,0,0,0,0,-1,1805,701,11.821,-5.34762
588,323,11.7933,7.00818,0,0,0,0,0,0,0,-1,1812,701,11.7933,-7.00819
595,323,6.67847,0.06604,0,0,0,0,0,0,0,-1,1819,701,6.67841,-0.0660418
602,323,11.2856,-0.595459,0,0,0,0,0,0,0,-1,1826,701,11.2856,0.595433
609,323,12.479,-0.356506,0,0,0,0,0,0,0,-1,1833,701,12.479,0.356505
616,323,12.6946,0.0294189,-0.00310919,-0.00465928,0.00151545,-0.0021821,-0.00558637,0.549024,0.00325092,0.0152573,1840,701,12.6946,-0.02939
623,323,12.7046,0.30835,-0.0017,-0.00272596,0.000833053,-0.00123465,-0.00319131,0.509426,0.00185815,0.0123544,1847,701,12.7046,-0.308347
630,323,12.7109,0.588013,-0.00101662,-0.00156164,0.000269384,-0.000905948,-0.00167231,0.389818,0.000966629,0.01326,1854,701,12.7109,-0.588041
637,323,12.7251,0.835754,-0.000589139,-0.00044147,-0.000247137,-0.000257374,-0.000773235,-0.930557,0.000454666,0.0103278,1861,701,12.7252,-0.835769
644,323,12.722,1.06757,-0.000976509,-0.000256617,-0.000791356,0.000252808,-0.00148593,-0.998837,0.00108476,0.00734207,1868,701,12.722,-1.06759
651,323,12.7128,1.3316,-0.00169602,-0.000367183,-0.0012789,0.000409592,-0.00247279,-1.02497,0.00180066,0.00903713,1875,701,12.7127,-1.33163
658,323,12.6935,1.60565,-0.00220893,-0.000297373,-0.00163695,0.000642397,-0.0031487,-1.04964,0.00234281,0.0124177,1882,701,12.6935,-1.60568
665,323,12.6813,1.85748,-0.00140273,-0.000463205,-0.0015798,0.000715199,-0.00258113,-0.929912,0.0020022,0.0111271,1889,701,12.6813,-1.85747
672,323,12.6801,2.11536,0.000534246,-0.00105514,-0.00170799,0.00162337,-0.00214426,-0.567655,0.00218216,0.0099605,1896,701,12.68,-2.11539
679,323,12.6267,2.37439,0.00324027,-0.00159779,-0.00142808,0.00363035,-0.00198788,-0.266647,0.00328956,0.0197539,1903,701,12.6267,-2.37441
686,323,12.5085,2.50916,0.00805282,-0.00260954,-0.000809442,0.00811392,-0.00267064,-0.0753405,0.00648545,0.0437167,1910,701,12.5086,-2.50912
693,323,12.4185,2.62952,0,0,0,0,0,0,0,-1,1917,701,12.4184,-2.6295
700,323,10.7705,0.828613,0,0,0,0,0,0,0,-1,1924,701,10.7705,-0.828591
707,323,16.3435,3.5528,0,0,0,0,0,0,0,-1,1931,701,16.3435,-3.55277
714,323,16.6884,3.48865,0,0,0,0,0,0,0,-1,1938,701,16.6884,-3.48866
721,323,0,0,0,0,0,0,0,0,0,-1,1945,701,0,0
728,323,0,0,0,0,0,0,0,0,0,-1,1952,701,0,0
735,323,0,0,0,0,0,0,0,0,0,-1,1959,701,0,0
742,323,0,0,0,0,0,0,0,0,0,-1,1966,701,0,0
749,323,0,0,0,0,0,0,0,0,0,-1,1973,701,0,0
756,323,0,0,0,0,0,0,0,0,0,-1,1980,701,0,0
763,323,0,0,0,0,0,0,0,0,0,-1,1987,701,0,0
770,323,0,0,0,0,0,0,0,0,0,-1,1994,701,0,0
777,323,0,0,0,0,0,0,0,0,0,-1,2001,701,0,0
784,323,0,0,0,0,0,0,0,0,0,-1,2008,701,0,0
791,323,0,0,0,0,0,0,0,0,0,-1,2015,701,0,0
798,323,0,0,0,0,0,0,0,0,0,-1,2022,701,0,0
805,323,0,0,0,0,0,0,0,0,0,-1,2029,701,0,0
812,323,0,0,0,0,0,0,0,0,0,-1,2036,701,0,0
-700,316,0,0,0,0,0,0,0,0,0,-1,524,708,0,0
-693,316,0,0,0,0,0,0,0,0,0,-1,531,708,0,0
-686,316,0,0,0,0,0,0,0,0,0,-1,538,708,0,0
-679,316,0,0,0,0,0,0,0,0,0,-1,545,708,0,0
-672,316,0,0,0,0,0,0,0,0,0,-1,552,708,0,0
-665,316,0,0,0,0,0,0,0,0,0,-1,559,708,0,0
-658,316,0,0,0,0,0,0,0,0,0,-1,566,708,0,0
-651,316,0,0,0,0,0,0,0,0,0,-1,573,708,0,0
-644,316,0,0,0,0,0,0,0,0,0,-1,580,708,0,0
-637,316,0,0,0,0,0,0,0,0,0,-1,587,708,0,0
-630,316,0,0,0,0,0,0,0,0,0,-1,594,708,0,0
-623,316,0,0,0,0,0,0,0,0,0,-1,601,708,0,0
-616,316,0,0,0,0,0,0,0,0,0,-1,608,708,0,0
-609,316,0,0,0,0,0,0,0,0,0,-1,615,708,0,0
-602,316,-0.451782,-0.0494995,0,0,0,0,0,0,0,-1,622,708,-0.451768,0.0495022
-595,316,-3.3761,2.17188,0,0,0,0,0,0,0,-1,629,708,-3.37609,-2.17189
-588,316,-5.00177,2.60675,0,0,0,0,0,0,0,-1,636,708,-5.00175,-2.60676
-581,316,-3.94653,0.393433,0,0,0,0,0,0,0,-1,643,708,-3.94655,-0.39342
-574,316,-3.65845,1.06451,0,0,0,0,0,0,0,-1,650,708,-3.65847,-1.06454
-567,316,-6.31555,0.698242,0,0,0,0,0,0,0,-1,657,708,-6.31552,-0.698223
-560,316,-6.0799,0.00872803,0,0,0,0,0,0,0,-1,664,708,-6.07989,-0.00871768
-553,316,-6.62457,0.312439,-0.0122956,0.0212132,0.00551348,0.0220971,-0.0131794,1.41184,0.0205827,0.0283252,671,708,-6.62458,-0.31245
-546,316,-6.7373,0.168396,-0.00862733,0.0158738,0.00347931,0.0163583,-0.00911183,1.43243,0.0149023,0.0169618,678,708,-6.7373,-0.168376
-539,316,-6.7132,-0.0762329,-0.00576862,0.0114202,0.00216642,0.0116891,-0.00603747,1.44733,0.0104064,0.0121,685,708,-6.71321,0.07626
-532,316,-6.73279,-0.314453,-0.003623,0.00798537,0.00129717,0.00812856,-0.00376619,1.46086,0.0070197,0.00991966,692,708,-6.73281,0.31448
-525,316,-6.70929,-0.554321,-0.00212368,0.00564998,0.000946483,0.00576356,-0.00223726,1.45137,0.00476648,0.00828929,699,708,-6.70926,0.554299
-518,316,-6.70392,-0.797363,-0.000726244,0.00429193,0.00111515,0.00452858,-0.000962893,1.36168,0.00338597,0.00865399,706,708,-6.70395,0.797383
-511,316,-6.73126,-1.039,0.000504083,0.00364428,0.00193434,0.00456554,-0.000417177,1.12631,0.00319185,0.0101761,713,708,-6.73126,1.03902
-504,316,-6.73901,-1.27722,0.00169924,0.00392027,0.00424189,0.00719461,-0.00157509,0.913423,0.00539858,0.0133132,720,708,-6.739,1.27719
-497,316,-6.71686,-1.5177,0.00285521,0.00569334,0.00788893,0.0122898,-0.00374127,0.874387,0.00968426,0.0120982,727,708,-6.71686,1.51767
-490,316,-6.72791,-1.77759,0.00417723,0.00801594,0.0122445,0.0184906,-0.00629743,0.863142,0.0148773,0.0136808,734,708,-6.72791,1.77756
-483,316,-6.59985,-2.06702,0.00601031,0.0108408,0.0178273,0.0264157,-0.00956463,0.852728,0.0215193,0.0378606,741,708,-6.59984,2.06701
-476,316,-6.42102,-2.34186,0,0,0,0,0,0,0,-1,748,708,-6.42101,2.34186
-469,316,-6.24194,-1.42725,0,0,0,0,0,0,0,-1,755,708,-6.24192,1.42725
-462,316,-5.74237,-1.40039,0,0,0,0,0,0,0,-1,762,708,-5.74238,1.40039
-455,316,-5.44745,-1.21899,0,0,0,0,0,0,0,-1,769,708,-5.44746,1.21898
-448,316,-11.8394,2.75592,0,0,0,0,0,0,0,-1,776,708,-11.8393,-2.75591
-441,316,-12.0209,3.1842,0,0,0,0,0,0,0,-1,783,708,-12.0208,-3.18419
-434,316,-12.0931,3.49554,0,0,0,0,0,0,0,-1,790,708,-12.0931,-3.49556
-427,316,-7.84717,0.0581055,0,0,0,0,0,0,0,-1,797,708,-7.84716,-0.0581049
-420,316,-8.02203,-0.534973,0,0,0,0,0,0,0,-1,804,708,-8.02205,0.534991
-413,316,0,0,0,0,0,0,0,0,0,-1,811,708,0,0
-406,316,0,0,0,0,0,0,0,0,0,-1,818,708,0,0
-399,316,0,0,0,0,0,0,0,0,0,-1,825,708,0,0
-392,316,0,0,0,0,0,0,0,0,0,-1,832,708,0,0
-385,316,0,0,0,0,0,0,0,0,0,-1,839,708,0,0
-378,316,0,0,0,0,0,0,0,0,0,-1,846,708,0,0
-371,316,0,0,0,0,0,0,0,0,0,-1,853,708,0,0
-364,316,0,0,0,0,0,0,0,0,0,-1,860,708,0,0
-357,316,0,0,0,0,0,0,0,0,0,-1,867,708,0,0
-350,316,0,0,0,0,0,0,0,0,0,-1,874,708,0,0
-343,316,0,0,0,0,0,0,0,0,0,-1,881,708,0,0
-336,316,0,0,0,0,0,0,0,0,0,-1,888,708,0,0
-329,316,0,0,0,0,0,0,0,0,0,-1,895,708,0,0
-322,316,0,0,0,0,0,0,0,0,0,-1,902,708,0,0
-315,316,0,0,0,0,0,0,0,0,0,-1,909,708,0,0
-308,316,0,0,0,0,0,0,0,0,0,-1,916,708,0,0
-301,316,0,0,0,0,0,0,0,0,0,-1,923,708,0,0
-294,316,0,0,0,0,0,0,0,0,0,-1,930,708,0,0
-287,316,0,0,0,0,0,0,0,0,0,-1,937,708,0,0
-280,316,0,0,0,0,0,0,0,0,0,-1,944,708,0,0
-273,316,0,0,0,0,0,0,0,0,0,-1,951,708,0,0
-266,316,0,0,0,0,0,0,0,0,0,-1,958,708,0,0
-259,316,0,0,0,0,0,0,0,0,0,-1,965,708,0,0
-252,316,0,0,0,0,0,0,0,0,0,-1,972,708,0,0
-245,316,0,0,0,0,0,0,0,0,0,-1,979,708,0,0
-238,316,0,0,0,0,0,0,0,0,0,-1,986,708,0,0
-231,316,0,0,0,0,0,0,0,0,0,-1,993,708,0,0
-224,316,0,0,0,0,0,0,0,0,0,-1,1000,708,0,0
-217,316,0,0,0,0,0,0,0,0,0,-1,1007,708,0,0
-210,316,0,0,0,0,0,0,0,0,0,-1,1014,708,0,0
-203,316,0,0,0,0,0,0,0,0,0,-1,1021,708,0,0
-196,316,0,0,0,0,0,0,0,0,0,-1,1028,708,0,0
-189,316,0,0,0,0,0,0,0,0,0,-1,1035,708,0,0
-182,316,0,0,0,0,0,0,0,0,0,-1,1042,708,0,0
-175,316,0,0,0,0,0,0,0,0,0,-1,1049,708,0,0
-168,316,0,0,0,0,0,0,0,0,0,-1,1056,708,0,0
-161,316,0,0,0,0,0,0,0,0,0,-1,1063,708,0,0
-154,316,0,0,0,0,0,0,0,0,0,-1,1070,708,0,0
-147,316,0,0,0,0,0,0,0,0,0,-1,1077,708,0,0
-140,316,0,0,0,0,0,0,0,0,0,-1,1084,708,0,0
-133,316,0,0,0,0,0,0,0,0,0,-1,1091,708,0,0
-126,316,0,0,0,0,0,0,0,0,0,-1,1098,708,0,0
-119,316,0,0,0,0,0,0,0,0,0,-1,1105,708,0,0
-112,316,0,0,0,0,0,0,0,0,0,-1,1112,708,0,0
-105,316,0,0,0,0,0,0,0,0,0,-1,1119,708,0,0
-98,316,0,0,0,0,0,0,0,0,0,-1,1126,708,0,0
-91,316,0,0,0,0,0,0,0,0,0,-1,1133,708,0,0
-84,316,0,0,0,0,0,0,0,0,0,-1,1140,708,0,0
-77,316,0,0,0,0,0,0,0,0,0,-1,1147,708,0,0
-70,316,0,0,0,0,0,0,0,0,0,-1,1154,708,0,0
-63,316,0,0,0,0,0,0,0,0,0,-1,1161,708,0,0
-56,316,0,0,0,0,0,0,0,0,0,-1,1168,708,0,0
-49,316,0,0,0,0,0,0,0,0,0,-1,1175,708,0,0
-42,316,0,0,0,0,0,0,0,0,0,-1,1182,708,0,0
-35,316,0,0,0,0,0,0,0,0,0,-1,1189,708,0,0
-28,316,0,0,0,0,0,0,0,0,0,-1,1196,708,0,0
-21,316,0,0,0,0,0,0,0,0,0,-1,1203,708,0,0
-14,316,0,0,0,0,0,0,0,0,0,-1,1210,708,0,0
-7,316,0,0,0,0,0,0,0,0,0,-1,1217,708,0,0
0,316,0,0,0,0,0,0,0,0,0,-1,1224,708,0,0
7,316,0,0,0,0,0,0,0,0,0,-1,1231,708,0,0
14,316,0,0,0,0,0,0,0,0,0,-1,1238,708,0,0
21,316,0,0,0,0,0,0,0,0,0,-1,1245,708,0,0
28,316,0,0,0,0,0,0,0,0,0,-1,1252,708,0,0
35,316,0,0,0,0,0,0,0,0,0,-1,1259,708,0,0
42,316,0,0,0,0,0,0,0,0,0,-1,1266,708,0,0
49,316,0,0,0,0,0,0,0,0,0,-1,1273,708,0,0
56,316,0,0,0,0,0,0,0,0,0,-1,1280,708,0,0
63,316,0,0,0,0,0,0,0,0,0,-1,1287,708,0,0
70,316,0,0,0,0,0,0,0,0,0,-1,1294,708,0,0
77,316,0,0,0,0,0,0,0,0,0,-1,1301,708,0,0
84,316,0,0,0,0,0,0,0,0,0,-1,1308,708,0,0
91,316,0,0,0,0,0,0,0,0,0,-1,1315,708,0,0
98,316,0,0,0,0,0,0,0,0,0,-1,1322,708,0,0
105,316,0,0,0,0,0,0,0,0,0,-1,1329,708,0,0
112,316,0,0,0,0,0,0,0,0,0,-1,1336,708,0,0
119,316,0,0,0,0,0,0,0,0,0,-1,1343,708,0,0
126,316,0,0,0,0,0,0,0,0,0,-1,1350,708,0,0
133,316,0,0,0,0,0,0,0,0,0,-1,1357,708,0,0
140,316,0,0,0,0,0,0,0,0,0,-1,1364,708,0,0
147,316,0,0,0,0,0,0,0,0,0,-1,1371,708,0,0
154,316,0,0,0,0,0,0,0,0,0,-1,1378,708,0,0
161,316,0,0,0,0,0,0,0,0,0,-1,1385,708,0,0
168,316,0,0,0,0,0,0,0,0,0,-1,1392,708,0,0
175,316,0,0,0,0,0,0,0,0,0,-1,1399,708,0,0
182,316,0,0,0,0,0,0,0,0,0,-1,1406,708,0,0
189,316,0,0,0,0,0,0,0,0,0,-1,1413,708,0,0
196,316,0,0,0,0,0,0,0,0,0,-1,1420,708,0,0
203,316,0,0,0,0,0,0,0,0,0,-1,1427,708,0,0
210,316,0,0,0,0,0,0,0,0,0,-1,1434,708,0,0
217,316,0,0,0,0,0,0,0,0,0,-1,1441,708,0,0
224,316,0,0,0,0,0,0,0,0,0,-1,1448,708,0,0
231,316,0,0,0,0,0,0,0,0,0,-1,1455,708,0,0
238,316,0,0,0,0,0,0,0,0,0,-1,1462,708,0,0
245,316,0,0,0,0,0,0,0,0,0,-1,1469,708,0,0
252,316,0,0,0,0,0,0,0,0,0,-1,1476,708,0,0
259,316,0,0,0,0,0,0,0,0,0,-1,1483,708,0,0
266,316,0,0,0,0,0,0,0,0,0,-1,1490,708,0,0
273,316,0,0,0,0,0,0,0,0,0,-1,1497,708,0,0
280,316,0,0,0,0,0,0,0,0,0,-1,1504,708,0,0
287,316,0,0,0,0,0,0,0,0,0,-1,1511,708,0,0
294,316,0,0,0,0,0,0,0,0,0,-1,1518,708,0,0
301,316,0,0,0,0,0,0,0,0,0,-1,1525,708,0,0
308,316,0,0,0,0,0,0,0,0,0,-1,1532,708,0,0
315,316,0,0,0,0,0,0,0,0,0,-1,1539,708,0,0
322,316,0,0,0,0,0,0,0,0,0,-1,1546,708,0,0
329,316,0,0,0,0,0,0,0,0,0,-1,1553,708,0,0
336,316,0,0,0,0,0,0,0,0,0,-1,1560,708,0,0
343,316,0,0,0,0,0,0,0,0,0,-1,1567,708,0,0
350,316,0,0,0,0,0,0,0,0,0,-1,1574,708,0,0
357,316,0,0,0,0,0,0,0,0,0,-1,1581,708,0,0
364,316,0,0,0,0,0,0,0,0,0,-1,1588,708,0,0
371,316,0,0,0,0,0,0,0,0,0,-1,1595,708,0,0
378,316,0,0,0,0,0,0,0,0,0,-1,1602,708,0,0
385,316,0,0,0,0,0,0,0,0,0,-1,1609,708,0,0
392,316,0,0,0,0,0,0,0,0,0,-1,1616,708,0,0
399,316,0,0,0,0,0,0,0,0,0,-1,1623,708,0,0
406,316,0,0,0,0,0,0,0,0,0,-1,1630,708,0,0
413,316,0,0,0,0,0,0,0,0,0,-1,1637,708,0,0
420,316,0,0,0,0,0,0,0,0,0,-1,1644,708,0,0
427,316,0,0,0,0,0,0,0,0,0,-1,1651,708,0,0
434,316,0,0,0,0,0,0,0,0,0,-1,1658,708,0,0
441,316,0,0,0,0,0,0,0,0,0,-1,1665,708,0,0
448,316,0,0,0,0,0,0,0,0,0,-1,1672,708,0,0
455,316,0,0,0,0,0,0,0,0,0,-1,1679,708,0,0
462,316,0,0,0,0,0,0,0,0,0,-1,1686,708,0,0
469,316,0,0,0,0,0,0,0,0,0,-1,1693,708,0,0
476,316,0,0,0,0,0,0,0,0,0,-1,1700,708,0,0
483,316,0,0,0,0,0,0,0,0,0,-1,1707,708,0,0
490,316,0,0,0,0,0,0,0,0,0,-1,1714,708,0,0
497,316,0,0,0,0,0,0,0,0,0,-1,1721,708,0,0
504,316,0,0,0,0,0,0,0,0,0,-1,1728,708,0,0
511,316,0,0,0,0,0,0,0,0,0,-1,1735,708,0,0
518,316,0,0,0,0,0,0,0,0,0,-1,1742,708,0,0
525,316,0,0,0,0,0,0,0,0,0,-1,1749,708,0,0
532,316,15.6722,2.51886,0,0,0,0,0,0,0,-1,1756,708,15.6722,-2.51888
539,316,19.1591,2.70428,0,0,0,0,0,0,0,-1,1763,708,19.159,-2.70428
546,316,19.3698,3.4729,0,0,0,0,0,0,0,-1,1770,708,19.3697,-3.47291
553,316,19.9391,3.10297,0,0,0,0,0,0,0,-1,1777,708,19.9391,-3.10297
560,316,19.39,3.67322,0,0,0,0,0,0,0,-1,1784,708,19.39,-3.67322
567,316,20.8519,0.674194,0,0,0,0,0,0,0,-1,1791,708,20.8519,-0.674223
574,316,18.2991,4.84393,0,0,0,0,0,0,0,-1,1798,708,18.2991,-4.84392
581,316,19.7086,2.66235,0,0,0,0,0,0,0,-1,1805,708,19.7087,-2.66236
588,316,19.7659,2.90198,0,0,0,0,0,0,0,-1,1812,708,19.7659,-2.902
595,316,12.5363,1.50702,0,0,0,0,0,0,0,-1,1819,708,12.5363,-1.50701
602,316,7.79919,0.0422363,0,0,0,0,0,0,0,-1,1826,708,7.79923,-0.0422066
609,316,12.9255,-0.313782,0,0,0,0,0,0,0,-1,1833,708,12.9256,0.313799
616,316,12.9705,0.0181274,-0.00242345,-0.00715973,0.00352502,-0.00054496,-0.00903822,0.489621,0.00585229,0.0193679,1840,708,12.9705,-0.0181002
623,316,12.9786,0.293213,-0.00154988,-0.00419256,0.00205601,-0.000427221,-0.00531521,0.499795,0.00341,0.0103673,1847,708,12.9787,-0.293235
630,316,12.9581,0.55365,-0.00123604,-0.00236281,0.00103651,-0.000619698,-0.00297916,0.536462,0.00181515,0.0120732,1854,708,12.9581,-0.553672
637,316,12.9667,0.825317,-0.000761328,-0.000633698,3.21502e-05,-0.000626057,-0.000768969,1.33745,0.000472272,0.011696,1861,708,12.9666,-0.825328
644,316,12.9819,1.09216,-0.000943316,-0.000166675,-0.000648813,0.000201146,-0.00131114,-1.05506,0.000948278,0.0110932,1868,708,12.9819,-1.09217
651,316,12.9547,1.35687,-0.00144429,-0.000286909,-0.00104472,0.00032869,-0.00205989,-1.03832,0.00149492,0.0124392,1875,708,12.9547,-1.3569
658,316,12.9407,1.63263,-0.00172794,-0.000199161,-0.00128759,0.000533842,-0.00246095,-1.05327,0.00184451,0.0202072,1882,708,12.9406,-1.6326
665,316,12.9216,1.88824,-0.000749708,-0.000319115,-0.00114175,0.000627457,-0.00169628,-0.878588,0.00138811,0.015733,1889,708,12.9216,-1.88825
672,316,12.9374,2.12054,0.0013636,-0.000808915,-0.00123897,0.00192507,-0.00137038,-0.42549,0.00191159,0.0128766,1896,708,12.9374,-2.12054
679,316,12.9482,2.40747,0.00409746,-0.00122894,-0.000969771,0.00426853,-0.00140001,-0.174607,0.00340955,0.0182604,1903,708,12.9483,-2.40747
686,316,12.8252,2.62494,0.00869098,-0.00203058,-0.000484666,0.00871285,-0.00205244,-0.0450822,0.00659996,0.0333979,1910,708,12.8252,-2.62495
693,316,12.6664,2.85406,0,0,0,0,0,0,0,-1,1917,708,12.6664,-2.85406
700,316,11.1136,2.43738,0,0,0,0,0,0,0,-1,1924,708,11.1136,-2.43735
707,316,15.6554,3.52722,0,0,0,0,0,0,0,-1,1931,708,15.6553,-3.52723
714,316,16.0535,3.45276,0.0626521,-0.0137099,0.00622124,0.0631557,-0.0142135,0.0807605,0.047555,0.0451362,1938,708,16.0534,-3.45274
721,316,16.4965,3.36438,0,0,0,0,0,0,0,-1,1945,708,16.4965,-3.36439
728,316,0,0,0,0,0,0,0,0,0,-1,1952,708,0,0
735,316,0,0,0,0,0,0,0,0,0,-1,1959,708,0,0
742,316,0,0,0,0,0,0,0,0,0,-1,1966,708,0,0
749,316,0,0,0,0,0,0,0,0,0,-1,1973,708,0,0
756,316,0,0,0,0,0,0,0,0,0,-1,1980,708,0,0
763,316,0,0,0,0,0,0,0,0,0,-1,1987,708,0,0
770,316,0,0,0,0,0,0,0,0,0,-1,1994,708,0,0
777,316,0,0,0,0,0,0,0,0,0,-1,2001,708,0,0
784,316,0,0,0,0,0,0,0,0,0,-1,2008,708,0,0
791,316,0,0,0,0,0,0,0,0,0,-1,2015,708,0,0
798,316,0,0,0,0,0,0,0,0,0,-1,2022,708,0,0
805,316,0,0,0,0,0,0,0,0,0,-1,2029,708,0,0
812,316,0,0,0,0,0,0,0,0,0,-1,2036,708,0,0
-700,309,0,0,0,0,0,0,0,0,0,-1,524,715,0,0
-693,309,0,0,0,0,0,0,0,0,0,-1,531,715,0,0
-686,309,0,0,0,0,0,0,0,0,0,-1,538,715,0,0
-679,309,0,0,0,0,0,0,0,0,0,-1,545,715,0,0
-672,309,0,0,0,0,0,0,0,0,0,-1,552,715,0,0
-665,309,0,0,0,0,0,0,0,0,0,-1,559,715,0,0
-658,309,0,0,0,0,0,0,0,0,0,-1,566,715,0,0
-651,309,0,0,0,0,0,0,0,0,0,-1,573,715,0,0
-644,309,0,0,0,0,0,0,0,0,0,-1,580,715,0,0
-637,309,0,0,0,0,0,0,0,0,0,-1,587,715,0,0
-630,309,0,0,0,0,0,0,0,0,0,-1,594,715,0,0
-623,309,0,0,0,0,0,0,0,0,0,-1,601,715,0,0
-616,309,0,0,0,0,0,0,0,0,0,-1,608,715,0,0
-609,309,-5.95392,-3.93689,0,0,0,0,0,0,0,-1,615,715,-5.95392,3.93686
-602,309,-4.99786,-3.31287,0,0,0,0,0,0,0,-1,622,715,-4.99786,3.31284
-595,309,-6.80847,2.4046,0,0,0,0,0,0,0,-1,629,715,-6.80845,-2.40458
-588,309,-6.08795,2.19324,0,0,0,0,0,0,0,-1,636,715,-6.08793,-2.19325
-581,309,-5.97552,1.3277,0,0,0,0,0,0,0,-1,643,715,-5.97552,-1.32769
-574,309,-5.67493,0.544678,0,0,0,0,0,0,0,-1,650,715,-5.67495,-0.544679
-567,309,-6.02899,0.206665,0,0,0,0,0,0,0,-1,657,715,-6.02901,-0.206686
-560,309,-6.4375,0.204285,-0.0154409,0.0189051,0.00795022,0.0206561,-0.0171919,1.35401,0.021882,0.04458,664,715,-6.43751,-0.204288
-553,309,-6.91132,0.342651,-0.011501,0.0149147,0.00547849,0.0160058,-0.0125921,1.3742,0.0165502,0.0286335,671,715,-6.91132,-0.342654
-546,309,-6.96777,0.163879,-0.00821606,0.0112105,0.00363729,0.0118692,-0.00887474,1.39165,0.0120181,0.0158437,678,715,-6.96779,-0.163901
-539,309,-6.95496,-0.0848389,-0.00560444,0.00803976,0.00246483,0.00847138,-0.00603606,1.39744,0.00841512,0.0140471,685,715,-6.95494,0.0848239
-532,309,-6.96893,-0.322571,-0.0037251,0.00574873,0.00168603,0.00603984,-0.00401622,1.39982,0.00584492,0.011391,692,715,-6.96893,0.322585
-525,309,-6.93439,-0.575317,-0.00258025,0.00448892,0.00147298,0.00478356,-0.00287489,1.37337,0.00446715,0.0142143,699,715,-6.9344,0.575346
-518,309,-6.94293,-0.813538,-0.00149127,0.00402467,0.00181615,0.00456893,-0.00203554,1.27963,0.00390549,0.0145864,706,715,-6.94295,0.813523
-511,309,-6.95288,-1.03735,-0.000601428,0.00427637,0.00302447,0.00572278,-0.00204784,1.12471,0.0046506,0.0114217,713,715,-6.95286,1.03736
-504,309,-6.95392,-1.26489,0.000336504,0.00550518,0.00604586,0.00949589,-0.00365421,0.987372,0.00783795,0.00967932,720,715,-6.95392,1.2649
-497,309,-6.94922,-1.50519,0.00141419,0.00810538,0.0105353,0.0158136,-0.00629402,0.939142,0.0131524,0.0142351,727,715,-6.94924,1.50518
-490,309,-6.92206,-1.74194,0.00268542,0.0112487,0.015868,0.0234026,-0.00946847,0.917174,0.0195382,0.0263621,734,715,-6.92205,1.74192
-483,309,-6.76379,-2.07782,0,0,0,0,0,0,0,-1,741,715,-6.7638,2.07783
-476,309,-5.29486,-1.2262,0,0,0,0,0,0,0,-1,748,715,-5.29484,1.22622
-469,309,-4.22717,-0.592896,0,0,0,0,0,0,0,-1,755,715,-4.2272,0.592905
-462,309,-7.69855,1.83942,0,0,0,0,0,0,0,-1,762,715,-7.69854,-1.83943
-455,309,-11.7177,2.1142,0,0,0,0,0,0,0,-1,769,715,-11.7176,-2.1142
-448,309,-12.0591,2.76208,0.0261754,0.0273825,0.0688578,0.0956394,-0.0420814,0.78978,0.0814927,0.0447428,776,715,-12.0592,-2.76211
-441,309,-12.218,3.09857,0,0,0,0,0,0,0,-1,783,715,-12.2179,-3.09857
-434,309,-12.326,3.48578,0,0,0,0,0,0,0,-1,790,715,-12.326,-3.4858
-427,309,-7.76324,1.12799,0,0,0,0,0,0,0,-1,797,715,-7.76323,-1.12801
-420,309,-11.6252,2.34113,0,0,0,0,0,0,0,-1,804,715,-11.6252,-2.34114
-413,309,0,0,0,0,0,0,0,0,0,-1,811,715,0,0
-406,309,0,0,0,0,0,0,0,0,0,-1,818,715,0,0
-399,309,0,0,0,0,0,0,0,0,0,-1,825,715,0,0
-392,309,0,0,0,0,0,0,0,0,0,-1,832,715,0,0
-385,309,0,0,0,0,0,0,0,0,0,-1,839,715,0,0
-378,309,0,0,0,0,0,0,0,0,0,-1,846,715,0,0
-371,309,0,0,0,0,0,0,0,0,0,-1,853,715,0,0
-364,309,0,0,0,0,0,0,0,0,0,-1,860,715,0,0
-357,309,0,0,0,0,0,0,0,0,0,-1,867,715,0,0
-350,309,0,0,0,0,0,0,0,0,0,-1,874,715,0,0
-343,309,0,0,0,0,0,0,0,0,0,-1,881,715,0,0
-336,309,0,0,0,0,0,0,0,0,0,-1,888,715,0,0
-329,309,0,0,0,0,0,0,0,0,0,-1,895,715,0,0
-322,309,0,0,0,0,0,0,0,0,0,-1,902,715,0,0
-315,309,0,0,0,0,0,0,0,0,0,-1,909,715,0,0
-308,309,0,0,0,0,0,0,0,0,0,-1,916,715,0,0
-301,309,0,0,0,0,0,0,0,0,0,-1,923,715,0,0
-294,309,0,0,0,0,0,0,0,0,0,-1,930,715,0,0
-287,309,0,0,0,0,0,0,0,0,0,-1,937,715,0,0
-280,309,0,0,0,0,0,0,0,0,0,-1,944,715,0,0
-273,309,0,0,0,0,0,0,0,0,0,-1,951,715,0,0
-266,309,0,0,0,0,0,0,0,0,0,-1,958,715,0,0
-259,309,0,0,0,0,0,0,0,0,0,-1,965,715,0,0
-252,309,0,0,0,0,0,0,0,0,0,-1,972,715,0,0
-245,309,0,0,0,0,0,0,0,0,0,-1,979,715,0,0
-238,309,0,0,0,0,0,0,0,0,0,-1,986,715,0,0
-231,309,0,0,0,0,0,0,0,0,0,-1,993,715,0,0
-224,309,0,0,0,0,0,0,0,0,0,-1,1000,715,0,0
-217,309,0,0,0,0,0,0,0,0,0,-1,1007,715,0,0
-210,309,0,0,0,0,0,0,0,0,0,-1,1014,715,0,0
-203,309,0,0,0,0,0,0,0,0,0,-1,1021,715,0,0
-196,309,0,0,0,0,0,0,0,0,0,-1,1028,715,0,0
-189,309,0,0,0,0,0,0,0,0,0,-1,1035,715,0,0
-182,309,0,0,0,0,0,0,0,0,0,-1,1042,715,0,0
-175,309,0,0,0,0,0,0,0,0,0,-1,1049,715,0,0
-168,309,0,0,0,0,0,0,0,0,0,-1,1056,715,0,0
-161,309,0,0,0,0,0,0,0,0,0,-1,1063,715,0,0
-154,309,0,0,0,0,0,0,0,0,0,-1,1070,715,0,0
-147,309,0,0,0,0,0,0,0,0,0,-1,1077,715,0,0
-140,309,0,0,0,0,0,0,0,0,0,-1,1084,715,0,0
-133,309,0,0,0,0,0,0,0,0,0,-1,1091,715,0,0
-126,309,0,0,0,0,0,0,0,0,0,-1,1098,715,0,0
-119,309,0,0,0,0,0,0,0,0,0,-1,1105,715,0,0
-112,309,0,0,0,0,0,0,0,0,0,-1,1112,715,0,0
-105,309,0,0,0,0,0,0,0,0,0,-1,1119,715,0,0
-98,309,0,0,0,0,0,0,0,0,0,-1,1126,715,0,0
-91,309,0,0,0,0,0,0,0,0,0,-1,1133,715,0,0
-84,309,0,0,0,0,0,0,0,0,0,-1,1140,715,0,0
-77,309,0,0,0,0,0,0,0,0,0,-1,1147,715,0,0
-70,309,0,0,0,0,0,0,0,0,0,-1,1154,715,0,0
-63,309,0,0,0,0,0,0,0,0,0,-1,1161,715,0,0
-56,309,0,0,0,0,0,0,0,0,0,-1,1168,715,0,0
-49,309,0,0,0,0,0,0,0,0,0,-1,1175,715,0,0
-42,309,0,0,0,0,0,0,0,0,0,-1,1182,715,0,0
-35,309,0,0,0,0,0,0,0,0,0,-1,1189,715,0,0
-28,309,0,0,0,0,0,0,0,0,0,-1,1196,715,0,0
-21,309,0,0,0,0,0,0,0,0,0,-1,1203,715,0,0
-14,309,0,0,0,0,0,0,0,0,0,-1,1210,715,0,0
-7,309,0,0,0,0,0,0,0,0,0,-1,1217,715,0,0
0,309,0,0,0,0,0,0,0,0,0,-1,1224,715,0,0
7,309,0,0,0,0,0,0,0,0,0,-1,1231,715,0,0
14,309,0,0,0,0,0,0,0,0,0,-1,1238,715,0,0
21,309,0,0,0,0,0,0,0,0,0,-1,1245,715,0,0
28,309,0,0,0,0,0,0,0,0,0,-1,1252,715,0,0
35,309,0,0,0,0,0,0,0,0,0,-1,1259,715,0,0
42,309,0,0,0,0,0,0,0,0,0,-1,1266,715,0,0
49,309,0,0,0,0,0,0,0,0,0,-1,1273,715,0,0
56,309,0,0,0,0,0,0,0,0,0,-1,1280,715,0,0
63,309,0,0,0,0,0,0,0,0,0,-1,1287,715,0,0
70,309,0,0,0,0,0,0,0,0,0,-1,1294,715,0,0
77,309,0,0,0,0,0,0,0,0,0,-1,1301,715,0,0
84,309,0,0,0,0,0,0,0,0,0,-1,1308,715,0,0
91,309,0,0,0,0,0,0,0,0,0,-1,1315,715,0,0
98,309,0,0,0,0,0,0,0,0,0,-1,1322,715,0,0
105,309,0,0,0,0,0,0,0,0,0,-1,1329,715,0,0
112,309,0,0,0,0,0,0,0,0,0,-1,1336,715,0,0
119,309,0,0,0,0,0,0,0,0,0,-1,1343,715,0,0
126,309,0,0,0,0,0,0,0,0,0,-1,1350,715,0,0
133,309,0,0,0,0,0,0,0,0,0,-1,1357,715,0,0
140,309,0,0,0,0,0,0,0,0,0,-1,1364,715,0,0
147,309,0,0,0,0,0,0,0,0,0,-1,1371,715,0,0
154,309,0,0,0,0,0,0,0,0,0,-1,1378,715,0,0
161,309,0,0,0,0,0,0,0,0,0,-1,1385,715,0,0
168,309,0,0,0,0,0,0,0,0,0,-1,1392,715,0,0
175,309,0,0,0,0,0,0,0,0,0,-1,1399,715,0,0
182,309,0,0,0,0,0,0,0,0,0,-1,1406,715,0,0
189,309,0,0,0,0,0,0,0,0,0,-1,1413,715,0,0
196,309,0,0,0,0,0,0,0,0,0,-1,1420,715,0,0
203,309,0,0,0,0,0,0,0,0,0,-1,1427,715,0,0
210,309,0,0,0,0,0,0,0,0,0,-1,1434,715,0,0
217,309,0,0,0,0,0,0,0,0,0,-1,1441,715,0,0
224,309,0,0,0,0,0,0,0,0,0,-1,1448,715,0,0
231,309,0,0,0,0,0,0,0,0,0,-1,1455,715,0,0
238,309,0,0,0,0,0,0,0,0,0,-1,1462,715,0,0
245,309,0,0,0,0,0,0,0,0,0,-1,1469,715,0,0
252,309,0,0,0,0,0,0,0,0,0,-1,1476,715,0,0
259,309,0,0,0,0,0,0,0,0,0,-1,1483,715,0,0
266,309,0,0,0,0,0,0,0,0,0,-1,1490,715,0,0
273,309,0,0,0,0,0,0,0,0,0,-1,1497,715,0,0
280,309,0,0,0,0,0,0,0,0,0,-1,1504,715,0,0
287,309,0,0,0,0,0,0,0,0,0,-1,1511,715,0,0
294,309,0,0,0,0,0,0,0,0,0,-1,1518,715,0,0
301,309,0,0,0,0,0,0,0,0,0,-1,1525,715,0,0
308,309,0,0,0,0,0,0,0,0,0,-1,1532,715,0,0
315,309,0,0,0,0,0,0,0,0,0,-1,1539,715,0,0
322,309,0,0,0,0,0,0,0,0,0,-1,1546,715,0,0
329,309,0,0,0,0,0,0,0,0,0,-1,1553,715,0,0
336,309,0,0,0,0,0,0,0,0,0,-1,1560,715,0,0
343,309,0,0,0,0,0,0,0,0,0,-1,1567,715,0,0
350,309,0,0,0,0,0,0,0,0,0,-1,1574,715,0,0
357,309,0,0,0,0,0,0,0,0,0,-1,1581,715,0,0
364,309,0,0,0,0,0,0,0,0,0,-1,1588,715,0,0
371,309,0,0,0,0,0,0,0,0,0,-1,1595,715,0,0
378,309,0,0,0,0,0,0,0,0,0,-1,1602,715,0,0
385,309,0,0,0,0,0,0,0,0,0,-1,1609,715,0,0
392,309,0,0,0,0,0,0,0,0,0,-1,1616,715,0,0
399,309,0,0,0,0,0,0,0,0,0,-1,1623,715,0,0
406,309,0,0,0,0,0,0,0,0,0,-1,1630,715,0,0
413,309,0,0,0,0,0,0,0,0,0,-1,1637,715,0,0
420,309,0,0,0,0,0,0,0,0,0,-1,1644,715,0,0
427,309,0,0,0,0,0,0,0,0,0,-1,1651,715,0,0
434,309,0,0,0,0,0,0,0,0,0,-1,1658,715,0,0
441,309,0,0,0,0,0,0,0,0,0,-1,1665,715,0,0
448,309,0,0,0,0,0,0,0,0,0,-1,1672,715,0,0
455,309,0,0,0,0,0,0,0,0,0,-1,1679,715,0,0
462,309,0,0,0,0,0,0,0,0,0,-1,1686,715,0,0
469,309,0,0,0,0,0,0,0,0,0,-1,1693,715,0,0
476,309,0,0,0,0,0,0,0,0,0,-1,1700,715,0,0
483,309,0,0,0,0,0,0,0,0,0,-1,1707,715,0,0
490,309,0,0,0,0,0,0,0,0,0,-1,1714,715,0,0
497,309,0,0,0,0,0,0,0,0,0,-1,1721,715,0,0
504,309,0,0,0,0,0,0,0,0,0,-1,1728,715,0,0
511,309,0,0,0,0,0,0,0,0,0,-1,1735,715,0,0
518,309,0,0,0,0,0,0,0,0,0,-1,1742,715,0,0
525,309,0,0,0,0,0,0,0,0,0,-1,1749,715,0,0
532,309,0,0,0,0,0,0,0,0,0,-1,1756,715,0,0
539,309,19.4202,2.61884,0,0,0,0,0,0,0,-1,1763,715,19.4202,-2.61883
546,309,19.571,3.34857,0,0,0,0,0,0,0,-1,1770,715,19.571,-3.3486
553,309,20.3191,3.7149,0,0,0,0,0,0,0,-1,1777,715,20.3191,-3.71488
560,309,21.6508,-0.27533,0,0,0,0,0,0,0,-1,1784,715,21.6508,0.275359
567,309,20.9368,0.399292,0,0,0,0,0,0,0,-1,1791,715,20.9368,-0.3993
574,309,20.6499,1.4809,0,0,0,0,0,0,0,-1,1798,715,20.6499,-1.48087
581,309,20.2668,2.29675,0,0,0,0,0,0,0,-1,1805,715,20.2669,-2.29676
588,309,20.0039,2.70148,0,0,0,0,0,0,0,-1,1812,715,20.0039,-2.70145
595,309,19.585,3.71558,0,0,0,0,0,0,0,-1,1819,715,19.5849,-3.71555
602,309,11.0811,3.47772,0,0,0,0,0,0,0,-1,1826,715,11.0811,-3.47772
609,309,13.1848,-0.2453,0,0,0,0,0,0,0,-1,1833,715,13.1848,0.245294
616,309,13.2305,0.0440674,-0.00329775,-0.0097466,0.00584896,0.000156691,-0.013201,0.533485,0.00885339,0.0262405,1840,715,13.2304,-0.0440541
623,309,13.2478,0.307312,-0.00246453,-0.0059611,0.00349324,-0.000306506,-0.00811912,0.553384,0.00531352,0.010703,1847,715,13.2478,-0.307324
630,309,13.2195,0.564636,-0.00206427,-0.00347746,0.00185577,-0.000785121,-0.0047566,0.603495,0.00294446,0.0109138,1854,715,13.2195,-0.564616
637,309,13.2031,0.826172,-0.00133502,-0.0010134,0.000264664,-0.00086452,-0.0014839,1.0584,0.000860617,0.013901,1861,715,13.2031,-0.826165
644,309,13.1868,1.09155,-0.00118639,-0.000124953,-0.000587396,0.00013597,-0.00144732,-1.15277,0.00101325,0.0144328,1868,715,13.1867,-1.09156
651,309,13.2072,1.36121,-0.00135458,-0.000206921,-0.000860118,0.000253215,-0.00181471,-1.07957,0.00130244,0.0143171,1875,715,13.2072,-1.36118
658,309,13.2141,1.6402,-0.00132818,-7.97762e-05,-0.000991261,0.000467443,-0.0018754,-1.06639,0.00143175,0.0190915,1882,715,13.2141,-1.64017
665,309,13.2202,1.88531,-0.000154667,-0.000129544,-0.000776953,0.000634949,-0.00091916,-0.793481,0.000902252,0.0159255,1889,715,13.2202,-1.88533
672,309,13.2195,2.12384,0.00210827,-0.000521153,-0.000833251,0.00235008,-0.000762968,-0.282448,0.00187356,0.0152881,1896,715,13.2194,-2.12387
679,309,13.2271,2.396,0.0048435,-0.00083401,-0.000579922,0.00490213,-0.00089264,-0.100757,0.00360269,0.0158717,1903,715,13.2271,-2.39599
686,309,13.198,2.61401,0.00919109,-0.00145177,-0.000180761,0.00919416,-0.00145484,-0.0169777,0.0066675,0.0224743,1910,715,13.198,-2.61404
693,309,12.9828,2.81372,0.0157929,-0.00255036,0.000432525,0.0158031,-0.00256056,0.023562,0.0114845,0.0362473,1917,715,12.9828,-2.81371
700,309,12.8787,3.10187,0,0,0,0,0,0,0,-1,1924,715,12.8786,-3.10185
707,309,14.9912,3.57965,0,0,0,0,0,0,0,-1,1931,715,14.9912,-3.57966
714,309,15.4188,3.46863,0,0,0,0,0,0,0,-1,1938,715,15.4188,-3.46865
721,309,15.9757,3.27216,0,0,0,0,0,0,0,-1,1945,715,15.9757,-3.27215
728,309,0,0,0,0,0,0,0,0,0,-1,1952,715,0,0
735,309,0,0,0,0,0,0,0,0,0,-1,1959,715,0,0
742,309,0,0,0,0,0,0,0,0,0,-1,1966,715,0,0
749,309,0,0,0,0,0,0,0,0,0,-1,1973,715,0,0
756,309,0,0,0,0,0,0,0,0,0,-1,1980,715,0,0
763,309,0,0,0,0,0,0,0,0,0,-1,1987,715,0,0
770,309,0,0,0,0,0,0,0,0,0,-1,1994,715,0,0
777,309,0,0,0,0,0,0,0,0,0,-1,2001,715,0,0
784,309,0,0,0,0,0,0,0,0,0,-1,2008,715,0,0
791,309,0,0,0,0,0,0,0,0,0,-1,2015,715,0,0
798,309,0,0,0,0,0,0,0,0,0,-1,2022,715,0,0
805,309,0,0,0,0,0,0,0,0,0,-1,2029,715,0,0
812,309,0,0,0,0,0,0,0,0,0,-1,2036,715,0,0
-700,302,0,0,0,0,0,0,0,0,0,-1,524,722,0,0
-693,302,0,0,0,0,0,0,0,0,0,-1,531,722,0,0
-686,302,0,0,0,0,0,0,0,0,0,-1,538,722,0,0
-679,302,0,0,0,0,0,0,0,0,0,-1,545,722,0,0
-672,302,0,0,0,0,0,0,0,0,0,-1,552,722,0,0
-665,302,0,0,0,0,0,0,0,0,0,-1,559,722,0,0
-658,302,0,0,0,0,0,0,0,0,0,-1,566,722,0,0
-651,302,0,0,0,0,0,0,0,0,0,-1,573,722,0,0
-644,302,0,0,0,0,0,0,0,0,0,-1,580,722,0,0
-637,302,0,0,0,0,0,0,0,0,0,-1,587,722,0,0
-630,302,0,0,0,0,0,0,0,0,0,-1,594,722,0,0
-623,302,0,0,0,0,0,0,0,0,0,-1,601,722,0,0
-616,302,0,0,0,0,0,0,0,0,0,-1,608,722,0,0
-609,302,-6.14014,-3.6167,0,0,0,0,0,0,0,-1,615,722,-6.14016,3.61669
-602,302,0.92865,-1.99158,0,0,0,0,0,0,0,-1,622,722,0.928637,1.99157
-595,302,-7.89941,2.13641,0,0,0,0,0,0,0,-1,629,722,-7.89939,-2.13639
-588,302,-7.10895,1.79163,0,0,0,0,0,0,0,-1,636,722,-7.10896,-1.79163
-581,302,-5.7077,0.972351,0,0,0,0,0,0,0,-1,643,722,-5.70771,-0.972357
-574,302,-6.0686,0.739014,-0.0220171,0.0182233,0.0135618,0.0223672,-0.026161,1.27425,0.0280463,0.0488388,650,722,-6.06862,-0.739032
-567,302,-6.43347,0.486755,-0.0177978,0.0154009,0.0102794,0.018326,-0.0207229,1.29357,0.0225591,0.0448524,657,722,-6.4335,-0.486782
-560,302,-6.88843,0.446716,-0.0139077,0.01251,0.00764649,0.0145636,-0.0159613,1.30842,0.0176297,0.0399807,664,722,-6.88844,-0.446734
-553,302,-7.19897,0.400818,-0.0105716,0.0100428,0.00539981,0.0113716,-0.0119004,1.32951,0.0134372,0.0176613,671,722,-7.19896,-0.400829
-546,302,-7.20612,0.145935,-0.00776867,0.00759004,0.00373254,0.00844909,-0.00862772,1.34458,0.00985948,0.0149355,678,722,-7.20612,-0.145964
-539,302,-7.20581,-0.0489502,-0.00546886,0.00538945,0.00268094,0.00601531,-0.00609471,1.34146,0.00699178,0.0145444,685,722,-7.2058,0.0489693
-532,302,-7.203,-0.299622,-0.00388865,0.00399915,0.00200401,0.0044791,-0.0043686,1.33573,0.00510835,0.0138191,692,722,-7.20303,0.299602
-525,302,-7.19409,-0.571533,-0.00308044,0.00366348,0.00196067,0.00419208,-0.00360904,1.30746,0.00450817,0.0189912,699,722,-7.19412,0.571531
-518,302,-7.20917,-0.802673,-0.00226454,0.00401151,0.00249858,0.00488473,-0.00313776,1.23458,0.00466825,0.0198282,706,722,-7.20916,0.802699
-511,302,-7.19629,-1.01575,-0.00161393,0.00514041,0.00414486,0.00710975,-0.00358327,1.12724,0.00628453,0.0100394,713,722,-7.1963,1.01572
-504,302,-7.18903,-1.26031,-0.00078357,0.00728256,0.00790963,0.012128,-0.00562901,1.02116,0.0104784,0.00963424,720,722,-7.18902,1.26031
-497,302,-7.19635,-1.48694,0.000363086,0.0106761,0.0131713,0.0196643,-0.00862511,0.971975,0.0167423,0.0143989,727,722,-7.19633,1.48691
-490,302,-7.09772,-1.66626,0.00169943,0.0145668,0.0193158,0.0284922,-0.012226,0.946159,0.0241259,0.0374064,734,722,-7.09774,1.66623
-483,302,-6.73383,-1.69958,0,0,0,0,0,0,0,-1,741,722,-6.73383,1.69959
-476,302,-4.29749,-0.203491,0,0,0,0,0,0,0,-1,748,722,-4.29751,0.203464
-469,302,-12.6541,0.420227,0,0,0,0,0,0,0,-1,755,722,-12.6541,-0.420223
-462,302,-12.3546,1.2713,0,0,0,0,0,0,0,-1,762,722,-12.3546,-1.27131
-455,302,-12.2827,2.19781,0.0227661,0.0319814,0.0673194,0.0948507,-0.0401032,0.819567,0.0800242,0.0480329,769,722,-12.2827,-2.19784
-448,302,-12.1858,2.67328,0.030501,0.0313988,0.0779378,0.108889,-0.0469893,0.788278,0.0923313,0.0431225,776,722,-12.1858,-2.67326
-441,302,-12.3019,2.83167,0,0,0,0,0,0,0,-1,783,722,-12.3018,-2.83164
-434,302,-10.2335,0.168701,0,0,0,0,0,0,0,-1,790,722,-10.2335,-0.168684
-427,302,-7.91388,1.72229,0,0,0,0,0,0,0,-1,797,722,-7.91388,-1.72227
-420,302,0,0,0,0,0,0,0,0,0,-1,804,722,0,0
-413,302,0,0,0,0,0,0,0,0,0,-1,811,722,0,0
-406,302,0,0,0,0,0,0,0,0,0,-1,818,722,0,0
-399,302,0,0,0,0,0,0,0,0,0,-1,825,722,0,0
-392,302,0,0,0,0,0,0,0,0,0,-1,832,722,0,0
-385,302,0,0,0,0,0,0,0,0,0,-1,839,722,0,0
-378,302,0,0,0,0,0,0,0,0,0,-1,846,722,0,0
-371,302,0,0,0,0,0,0,0,0,0,-1,853,722,0,0
-364,302,0,0,0,0,0,0,0,0,0,-1,860,722,0,0
-357,302,0,0,0,0,0,0,0,0,0,-1,867,722,0,0
-350,302,0,0,0,0,0,0,0,0,0,-1,874,722,0,0
-343,302,0,0,0,0,0,0,0,0,0,-1,881,722,0,0
-336,302,0,0,0,0,0,0,0,0,0,-1,888,722,0,0
-329,302,0,0,0,0,0,0,0,0,0,-1,895,722,0,0
-322,302,0,0,0,0,0,0,0,0,0,-1,902,722,0,0
-315,302,0,0,0,0,0,0,0,0,0,-1,909,722,0,0
-308,302,0,0,0,0,0,0,0,0,0,-1,916,722,0,0
-301,302,0,0,0,0,0,0,0,0,0,-1,923,722,0,0
-294,302,0,0,0,0,0,0,0,0,0,-1,930,722,0,0
-287,302,0,0,0,0,0,0,0,0,0,-1,937,722,0,0
-280,302,0,0,0,0,0,0,0,0,0,-1,944,722,0,0
-273,302,0,0,0,0,0,0,0,0,0,-1,951,722,0,0
-266,302,0,0,0,0,0,0,0,0,0,-1,958,722,0,0
-259,302,0,0,0,0,0,0,0,0,0,-1,965,722,0,0
-252,302,0,0,0,0,0,0,0,0,0,-1,972,722,0,0
-245,302,0,0,0,0,0,0,0,0,0,-1,979,722,0,0
-238,302,0,0,0,0,0,0,0,0,0,-1,986,722,0,0
-231,302,0,0,0,0,0,0,0,0,0,-1,993,722,0,0
-224,302,0,0,0,0,0,0,0,0,0,-1,1000,722,0,0
-217,302,0,0,0,0,0,0,0,0,0,-1,1007,722,0,0
-210,302,0,0,0,0,0,0,0,0,0,-1,1014,722,0,0
-203,302,0,0,0,0,0,0,0,0,0,-1,1021,722,0,0
-196,302,0,0,0,0,0,0,0,0,0,-1,1028,722,0,0
-189,302,0,0,0,0,0,0,0,0,0,-1,1035,722,0,0
-182,302,0,0,0,0,0,0,0,0,0,-1,1042,722,0,0
-175,302,0,0,0,0,0,0,0,0,0,-1,1049,722,0,0
-168,302,0,0,0,0,0,0,0,0,0,-1,1056,722,0,0
-161,302,0,0,0,0,0,0,0,0,0,-1,1063,722,0,0
-154,302,0,0,0,0,0,0,0,0,0,-1,1070,722,0,0
-147,302,0,0,0,0,0,0,0,0,0,-1,1077,722,0,0
-140,302,0,0,0,0,0,0,0,0,0,-1,1084,722,0,0
-133,302,0,0,0,0,0,0,0,0,0,-1,1091,722,0,0
-126,302,0,0,0,0,0,0,0,0,0,-1,1098,722,0,0
-119,302,0,0,0,0,0,0,0,0,0,-1,1105,722,0,0
-112,302,0,0,0,0,0,0,0,0,0,-1,1112,722,0,0
-105,302,0,0,0,0,0,0,0,0,0,-1,1119,722,0,0
-98,302,0,0,0,0,0,0,0,0,0,-1,1126,722,0,0
-91,302,0,0,0,0,0,0,0,0,0,-1,1133,722,0,0
-84,302,0,0,0,0,0,0,0,0,0,-1,1140,722,0,0
-77,302,0,0,0,0,0,0,0,0,0,-1,1147,722,0,0
-70,302,0,0,0,0,0,0,0,0,0,-1,1154,722,0,0
-63,302,0,0,0,0,0,0,0,0,0,-1,1161,722,0,0
-56,302,0,0,0,0,0,0,0,0,0,-1,1168,722,0,0
-49,302,0,0,0,0,0,0,0,0,0,-1,1175,722,0,0
-42,302,0,0,0,0,0,0,0,0,0,-1,1182,722,0,0
-35,302,0,0,0,0,0,0,0,0,0,-1,1189,722,0,0
-28,302,0,0,0,0,0,0,0,0,0,-1,1196,722,0,0
-21,302,0,0,0,0,0,0,0,0,0,-1,1203,722,0,0
-14,302,0,0,0,0,0,0,0,0,0,-1,1210,722,0,0
-7,302,0,0,0,0,0,0,0,0,0,-1,1217,722,0,0
0,302,0,0,0,0,0,0,0,0,0,-1,1224,722,0,0
7,302,0,0,0,0,0,0,0,0,0,-1,1231,722,0,0
14,302,0,0,0,0,0,0,0,0,0,-1,1238,722,0,0
21,302,0,0,0,0,0,0,0,0,0,-1,1245,722,0,0
28,302,0,0,0,0,0,0,0,0,0,-1,1252,722,0,0
35,302,0,0,0,0,0,0,0,0,0,-1,1259,722,0,0
42,302,0,0,0,0,0,0,0,0,0,-1,1266,722,0,0
49,302,0,0,0,0,0,0,0,0,0,-1,1273,722,0,0
56,302,0,0,0,0,0,0,0,0,0,-1,1280,722,0,0
63,302,0,0,0,0,0,0,0,0,0,-1,1287,722,0,0
70,302,0,0,0,0,0,0,0,0,0,-1,1294,722,0,0
77,302,0,0,0,0,0,0,0,0,0,-1,1301,722,0,0
84,302,0,0,0,0,0,0,0,0,0,-1,1308,722,0,0
91,302,0,0,0,0,0,0,0,0,0,-1,1315,722,0,0
98,302,0,0,0,0,0,0,0,0,0,-1,1322,722,0,0
105,302,0,0,0,0,0,0,0,0,0,-1,1329,722,0,0
112,302,0,0,0,0,0,0,0,0,0,-1,1336,722,0,0
119,302,0,0,0,0,0,0,0,0,0,-1,1343,722,0,0
126,302,0,0,0,0,0,0,0,0,0,-1,1350,722,0,0
133,302,0,0,0,0,0,0,0,0,0,-1,1357,722,0,0
140,302,0,0,0,0,0,0,0,0,0,-1,1364,722,0,0
147,302,0,0,0,0,0,0,0,0,0,-1,1371,722,0,0
154,302,0,0,0,0,0,0,0,0,0,-1,1378,722,0,0
161,302,0,0,0,0,0,0,0,0,0,-1,1385,722,0,0
168,302,0,0,0,0,0,0,0,0,0,-1,1392,722,0,0
175,302,0,0,0,0,0,0,0,0,0,-1,1399,722,0,0
182,302,0,0,0,0,0,0,0,0,0,-1,1406,722,0,0
189,302,0,0,0,0,0,0,0,0,0,-1,1413,722,0,0
196,302,0,0,0,0,0,0,0,0,0,-1,1420,722,0,0
203,302,0,0,0,0,0,0,0,0,0,-1,1427,722,0,0
210,302,0,0,0,0,0,0,0,0,0,-1,1434,722,0,0
217,302,0,0,0,0,0,0,0,0,0,-1,1441,722,0,0
224,302,0,0,0,0,0,0,0,0,0,-1,1448,722,0,0
231,302,0,0,0,0,0,0,0,0,0,-1,1455,722,0,0
238,302,0,0,0,0,0,0,0,0,0,-1,1462,722,0,0
245,302,0,0,0,0,0,0,0,0,0,-1,1469,722,0,0
252,302,0,0,0,0,0,0,0,0,0,-1,1476,722,0,0
259,302,0,0,0,0,0,0,0,0,0,-1,1483,722,0,0
266,302,0,0,0,0,0,0,0,0,0,-1,1490,722,0,0
273,302,0,0,0,0,0,0,0,0,0,-1,1497,722,0,0
280,302,0,0,0,0,0,0,0,0,0,-1,1504,722,0,0
287,302,0,0,0,0,0,0,0,0,0,-1,1511,722,0,0
294,302,0,0,0,0,0,0,0,0,0,-1,1518,722,0,0
301,302,0,0,0,0,0,0,0,0,0,-1,1525,722,0,0
308,302,0,0,0,0,0,0,0,0,0,-1,1532,722,0,0
315,302,0,0,0,0,0,0,0,0,0,-1,1539,722,0,0
322,302,0,0,0,0,0,0,0,0,0,-1,1546,722,0,0
329,302,0,0,0,0,0,0,0,0,0,-1,1553,722,0,0
336,302,0,0,0,0,0,0,0,0,0,-1,1560,722,0,0
343,302,0,0,0,0,0,0,0,0,0,-1,1567,722,0,0
350,302,0,0,0,0,0,0,0,0,0,-1,1574,722,0,0
357,302,0,0,0,0,0,0,0,0,0,-1,1581,722,0,0
364,302,0,0,0,0,0,0,0,0,0,-1,1588,722,0,0
371,302,0,0,0,0,0,0,0,0,0,-1,1595,722,0,0
378,302,0,0,0,0,0,0,0,0,0,-1,1602,722,0,0
385,302,0,0,0,0,0,0,0,0,0,-1,1609,722,0,0
392,302,0,0,0,0,0,0,0,0,0,-1,1616,722,0,0
399,302,0,0,0,0,0,0,0,0,0,-1,1623,722,0,0
406,302,0,0,0,0,0,0,0,0,0,-1,1630,722,0,0
413,302,0,0,0,0,0,0,0,0,0,-1,1637,722,0,0
420,302,0,0,0,0,0,0,0,0,0,-1,1644,722,0,0
427,302,0,0,0,0,0,0,0,0,0,-1,1651,722,0,0
434,302,0,0,0,0,0,0,0,0,0,-1,1658,722,0,0
441,302,0,0,0,0,0,0,0,0,0,-1,1665,722,0,0
448,302,0,0,0,0,0,0,0,0,0,-1,1672,722,0,0
455,302,0,0,0,0,0,0,0,0,0,-1,1679,722,0,0
462,302,0,0,0,0,0,0,0,0,0,-1,1686,722,0,0
469,302,0,0,0,0,0,0,0,0,0,-1,1693,722,0,0
476,302,0,0,0,0,0,0,0,0,0,-1,1700,722,0,0
483,302,0,0,0,0,0,0,0,0,0,-1,1707,722,0,0
490,302,0,0,0,0,0,0,0,0,0,-1,1714,722,0,0
497,302,0,0,0,0,0,0,0,0,0,-1,1721,722,0,0
504,302,0,0,0,0,0,0,0,0,0,-1,1728,722,0,0
511,302,0,0,0,0,0,0,0,0,0,-1,1735,722,0,0
518,302,0,0,0,0,0,0,0,0,0,-1,1742,722,0,0
525,302,0,0,0,0,0,0,0,0,0,-1,1749,722,0,0
532,302,0,0,0,0,0,0,0,0,0,-1,1756,722,0,0
539,302,0,0,0,0,0,0,0,0,0,-1,1763,722,0,0
546,302,15.8817,5.34479,0,0,0,0,0,0,0,-1,1770,722,15.8818,-5.34477
553,302,16.7661,4.97906,0,0,0,0,0,0,0,-1,1777,722,16.7661,-4.97906
560,302,21.1725,-0.421265,0,0,0,0,0,0,0,-1,1784,722,21.1725,0.421269
567,302,20.9922,0.288879,0,0,0,0,0,0,0,-1,1791,722,20.9921,-0.28887
574,302,20.8625,1.09033,0,0,0,0,0,0,0,-1,1798,722,20.8626,-1.09031
581,302,20.5707,1.86023,0,0,0,0,0,0,0,-1,1805,722,20.5707,-1.86024
588,302,20.2638,2.61786,0,0,0,0,0,0,0,-1,1812,722,20.2638,-2.61788
595,302,19.9587,3.38165,0,0,0,0,0,0,0,-1,1819,722,19.9588,-3.38164
602,302,14.7349,5.21246,0,0,0,0,0,0,0,-1,1826,722,14.7349,-5.21247
609,302,11.1578,-0.125854,0,0,0,0,0,0,0,-1,1833,722,11.1579,0.125839
616,302,13.4524,0.0774536,0,0,0,0,0,0,0,-1,1840,722,13.4524,-0.0774782
623,302,13.5005,0.324585,-0.00465262,-0.00527073,0.00199031,-0.00294752,-0.00697584,0.708374,0.00404358,0.0142738,1847,722,13.5004,-0.324585
630,302,13.4656,0.584229,-0.00410437,-0.00301352,0.000438657,-0.00285901,-0.00425888,1.23213,0.00250651,0.0110403,1854,722,13.4656,-0.584248
637,302,13.4235,0.832642,-0.00299297,-0.000446824,-0.00117295,1.11505e-05,-0.00345095,-1.19855,0.00230436,0.0138507,1861,722,13.4235,-0.832657
644,302,13.4281,1.08325,-0.00225639,0.00048569,-0.0017006,0.00129909,-0.00306979,-1.12466,0.00259051,0.0148219,1868,722,13.4281,-1.08323
651,302,13.4751,1.36725,-0.00176957,0.000201194,-0.0013941,0.000923,-0.00249138,-1.09304,0.00203944,0.0145945,1875,722,13.4751,-1.36723
658,302,13.5234,1.61676,-0.00123019,0.000203926,-0.00110869,0.000807232,-0.0018335,-1.07245,0.00156253,0.0150588,1882,722,13.5234,-1.61673
665,302,13.4883,1.85889,0.000182854,9.38089e-05,-0.000626835,0.000766745,-0.000490082,-0.749944,0.000731466,0.0142279,1889,722,13.4883,-1.85891
672,302,13.4672,2.11719,0.00252352,-0.000248037,-0.000529351,0.00262119,-0.000345699,-0.182442,0.00187335,0.0117441,1896,722,13.4672,-2.11716
679,302,13.4601,2.37714,0.00519724,-0.000452589,-0.00024123,0.00520752,-0.00046287,-0.0425935,0.00363581,0.00951408,1903,722,13.4601,-2.37715
686,302,13.4761,2.61523,0.00921287,-0.000891716,0.00011564,0.00921419,-0.00089304,0.0114423,0.00646108,0.0135191,1910,722,13.4761,-2.61525
693,302,13.2954,2.7962,0.0151194,-0.00172365,0.000596596,0.0151405,-0.00174475,0.0353619,0.0107227,0.0289393,1917,722,13.2954,-2.79621
700,302,13.2362,2.91302,0,0,0,0,0,0,0,-1,1924,722,13.2363,-2.91304
707,302,14.088,3.76178,0,0,0,0,0,0,0,-1,1931,722,14.088,-3.76178
714,302,14.9647,3.55219,0.0518638,-0.00874361,0.00360753,0.0520778,-0.00895758,0.0592441,0.0380574,0.0476568,1938,722,14.9647,-3.55216
721,302,15.5615,3.40717,0.0721439,-0.0134457,0.00479408,0.0724116,-0.0137134,0.0557799,0.0534353,0.0493634,1945,722,15.5615,-3.40716
728,302,16.0975,3.23981,0,0,0,0,0,0,0,-1,1952,722,16.0975,-3.23983
735,302,0,0,0,0,0,0,0,0,0,-1,1959,722,0,0
742,302,0,0,0,0,0,0,0,0,0,-1,1966,722,0,0
749,302,0,0,0,0,0,0,0,0,0,-1,1973,722,0,0
756,302,0,0,0,0,0,0,0,0,0,-1,1980,722,0,0
763,302,0,0,0,0,0,0,0,0,0,-1,1987,722,0,0
770,302,0,0,0,0,0,0,0,0,0,-1,1994,722,0,0
777,302,0,0,0,0,0,0,0,0,0,-1,2001,722,0,0
784,302,0,0,0,0,0,0,0,0,0,-1,2008,722,0,0
791,302,0,0,0,0,0,0,0,0,0,-1,2015,722,0,0
798,302,0,0,0,0,0,0,0,0,0,-1,2022,722,0,0
805,302,0,0,0,0,0,0,0,0,0,-1,2029,722,0,0
812,302,0,0,0,0,0,0,0,0,0,-1,2036,722,0,0
-700,295,0,0,0,0,0,0,0,0,0,-1,524,729,0,0
-693,295,0,0,0,0,0,0,0,0,0,-1,531,729,0,0
-686,295,0,0,0,0,0,0,0,0,0,-1,538,729,0,0
-679,295,0,0,0,0,0,0,0,0,0,-1,545,729,0,0
-672,295,0,0,0,0,0,0,0,0,0,-1,552,729,0,0
-665,295,0,0,0,0,0,0,0,0,0,-1,559,729,0,0
-658,295,0,0,0,0,0,0,0,0,0,-1,566,729,0,0
-651,295,0,0,0,0,0,0,0,0,0,-1,573,729,0,0
-644,295,0,0,0,0,0,0,0,0,0,-1,580,729,0,0
-637,295,0,0,0,0,0,0,0,0,0,-1,587,729,0,0
-630,295,0,0,0,0,0,0,0,0,0,-1,594,729,0,0
-623,295,0,0,0,0,0,0,0,0,0,-1,601,729,0,0
-616,295,-14.2637,-0.2052,0,0,0,0,0,0,0,-1,608,729,-14.2637,0.205178
-609,295,-3.52533,-0.174438,0,0,0,0,0,0,0,-1,615,729,-3.52534,0.17441
-602,295,-0.795044,-1.32373,0,0,0,0,0,0,0,-1,622,729,-0.795031,1.32371
-595,295,-0.615479,-1.95447,0,0,0,0,0,0,0,-1,629,729,-0.615481,1.95445
-588,295,-7.98999,1.56903,0,0,0,0,0,0,0,-1,636,729,-7.98997,-1.56905
-581,295,-6.01849,1.27313,0,0,0,0,0,0,0,-1,643,729,-6.01849,-1.27312
-574,295,-6.47754,0.918457,-0.0189313,0.0103087,0.0120968,0.0146644,-0.023287,1.22518,0.022099,0.0467503,650,729,-6.47756,-0.918478
-567,295,-6.93469,0.747009,-0.0154065,0.00904594,0.00914936,0.0120903,-0.0184509,1.24958,0.01776,0.0404386,657,729,-6.93472,-0.747038
-560,295,-7.39777,0.600647,-0.0121553,0.00754958,0.0068242,0.00968214,-0.0142879,1.26791,0.013924,0.0240174,664,729,-7.39778,-0.600617
-553,295,-7.42047,0.38147,-0.00936032,0.006236,0.00483727,0.00761447,-0.0107388,1.29319,0.0106473,0.0172143,671,729,-7.4205,-0.381453
-546,295,-7.44891,0.181763,-0.00700113,0.00471676,0.00339387,0.00562876,-0.00791312,1.30828,0.0078554,0.0205093,678,729,-7.44888,-0.18177
-539,295,-7.43732,-0.0177002,-0.00509623,0.00331795,0.00254469,0.00402768,-0.00580595,1.2988,0.00570831,0.0178128,685,729,-7.43731,0.0176931
-532,295,-7.43207,-0.286377,-0.00393482,0.00276233,0.00208204,0.00335683,-0.00452932,1.29266,0.00456981,0.0151449,692,729,-7.43205,0.286355
-525,295,-7.43616,-0.564514,-0.0036098,0.00334466,0.0023251,0.00405039,-0.00431554,1.2761,0.00483088,0.0154739,699,729,-7.43617,0.564536
-518,295,-7.45325,-0.785828,-0.00322537,0.00448659,0.0031199,0.00559069,-0.00432947,1.23066,0.00574281,0.0116164,706,729,-7.45323,0.785797
-511,295,-7.43268,-1.01605,-0.00294996,0.00644759,0.00519211,0.00875142,-0.0052538,1.15318,0.00816953,0.00936107,713,729,-7.43267,1.01606
-504,295,-7.42987,-1.25525,-0.00235144,0.0093899,0.00952961,0.014712,-0.00767354,1.06147,0.0131355,0.0107878,720,729,-7.42988,1.25526
-497,295,-7.44684,-1.47021,-0.00125334,0.0134356,0.0152922,0.0230555,-0.0108733,1.00927,0.0200053,0.0160948,727,729,-7.44685,1.47023
-490,295,-7.52142,-1.75775,0,0,0,0,0,0,0,-1,734,729,-7.52142,1.75778
-483,295,-6.84503,-0.454651,0,0,0,0,0,0,0,-1,741,729,-6.84505,0.454639
-476,295,-13.1738,-0.836243,0,0,0,0,0,0,0,-1,748,729,-13.1738,0.836223
-469,295,-13.0928,-0.0200195,0.0104994,0.0313807,0.0499426,0.0719624,-0.0300822,0.88844,0.0605468,0.0494373,755,729,-13.0928,0.0200455
-462,295,-12.8713,1.18677,0,0,0,0,0,0,0,-1,762,729,-12.8713,-1.18675
-455,295,-12.8448,2.24286,0,0,0,0,0,0,0,-1,769,729,-12.8448,-2.24285
-448,295,-12.8038,3.1554,0,0,0,0,0,0,0,-1,776,729,-12.8039,-3.1554
-441,295,-12.0248,0.191833,0,0,0,0,0,0,0,-1,783,729,-12.0248,-0.19181
-434,295,-11.528,0.559875,0,0,0,0,0,0,0,-1,790,729,-11.528,-0.559849
-427,295,0,0,0,0,0,0,0,0,0,-1,797,729,0,0
-420,295,0,0,0,0,0,0,0,0,0,-1,804,729,0,0
-413,295,0,0,0,0,0,0,0,0,0,-1,811,729,0,0
-406,295,0,0,0,0,0,0,0,0,0,-1,818,729,0,0
-399,295,0,0,0,0,0,0,0,0,0,-1,825,729,0,0
-392,295,0,0,0,0,0,0,0,0,0,-1,832,729,0,0
-385,295,0,0,0,0,0,0,0,0,0,-1,839,729,0,0
-378,295,0,0,0,0,0,0,0,0,0,-1,846,729,0,0
-371,295,0,0,0,0,0,0,0,0,0,-1,853,729,0,0
-364,295,0,0,0,0,0,0,0,0,0,-1,860,729,0,0
-357,295,0,0,0,0,0,0,0,0,0,-1,867,729,0,0
-350,295,0,0,0,0,0,0,0,0,0,-1,874,729,0,0
-343,295,0,0,0,0,0,0,0,0,0,-1,881,729,0,0
-336,295,0,0,0,0,0,0,0,0,0,-1,888,729,0,0
-329,295,0,0,0,0,0,0,0,0,0,-1,895,729,0,0
-322,295,0,0,0,0,0,0,0,0,0,-1,902,729,0,0
-315,295,0,0,0,0,0,0,0,0,0,-1,909,729,0,0
-308,295,0,0,0,0,0,0,0,0,0,-1,916,729,0,0
-301,295,0,0,0,0,0,0,0,0,0,-1,923,729,0,0
-294,295,0,0,0,0,0,0,0,0,0,-1,930,729,0,0
-287,295,0,0,0,0,0,0,0,0,0,-1,937,729,0,0
-280,295,0,0,0,0,0,0,0,0,0,-1,944,729,0,0
-273,295,0,0,0,0,0,0,0,0,0,-1,951,729,0,0
-266,295,0,0,0,0,0,0,0,0,0,-1,958,729,0,0
-259,295,0,0,0,0,0,0,0,0,0,-1,965,729,0,0
-252,295,0,0,0,0,0,0,0,0,0,-1,972,729,0,0
-245,295,0,0,0,0,0,0,0,0,0,-1,979,729,0,0
-238,295,0,0,0,0,0,0,0,0,0,-1,986,729,0,0
-231,295,0,0,0,0,0,0,0,0,0,-1,993,729,0,0
-224,295,0,0,0,0,0,0,0,0,0,-1,1000,729,0,0
-217,295,0,0,0,0,0,0,0,0,0,-1,1007,729,0,0
-210,295,0,0,0,0,0,0,0,0,0,-1,1014,729,0,0
-203,295,0,0,0,0,0,0,0,0,0,-1,1021,729,0,0
-196,295,0,0,0,0,0,0,0,0,0,-1,1028,729,0,0
-189,295,0,0,0,0,0,0,0,0,0,-1,1035,729,0,0
-182,295,0,0,0,0,0,0,0,0,0,-1,1042,729,0,0
-175,295,0,0,0,0,0,0,0,0,0,-1,1049,729,0,0
-168,295,0,0,0,0,0,0,0,0,0,-1,1056,729,0,0
-161,295,0,0,0,0,0,0,0,0,0,-1,1063,729,0,0
-154,295,0,0,0,0,0,0,0,0,0,-1,1070,729,0,0
-147,295,0,0,0,0,0,0,0,0,0,-1,1077,729,0,0
-140,295,0,0,0,0,0,0,0,0,0,-1,1084,729,0,0
-133,295,0,0,0,0,0,0,0,0,0,-1,1091,729,0,0
-126,295,0,0,0,0,0,0,0,0,0,-1,1098,729,0,0
-119,295,0,0,0,0,0,0,0,0,0,-1,1105,729,0,0
-112,295,0,0,0,0,0,0,0,0,0,-1,1112,729,0,0
-105,295,0,0,0,0,0,0,0,0,0,-1,1119,729,0,0
-98,295,0,0,0,0,0,0,0,0,0,-1,1126,729,0,0
-91,295,0,0,0,0,0,0,0,0,0,-1,1133,729,0,0
-84,295,0,0,0,0,0,0,0,0,0,-1,1140,729,0,0
-77,295,0,0,0,0,0,0,0,0,0,-1,1147,729,0,0
-70,295,0,0,0,0,0,0,0,0,0,-1,1154,729,0,0
-63,295,0,0,0,0,0,0,0,0,0,-1,1161,729,0,0
-56,295,0,0,0,0,0,0,0,0,0,-1,1168,729,0,0
-49,295,0,0,0,0,0,0,0,0,0,-1,1175,729,0,0
-42,295,0,0,0,0,0,0,0,0,0,-1,1182,729,0,0
-35,295,0,0,0,0,0,0,0,0,0,-1,1189,729,0,0
-28,295,0,0,0,0,0,0,0,0,0,-1,1196,729,0,0
-21,295,0,0,0,0,0,0,0,0,0,-1,1203,729,0,0
-14,295,0,0,0,0,0,0,0,0,0,-1,1210,729,0,0
-7,295,0,0,0,0,0,0,0,0,0,-1,1217,729,0,0
0,295,0,0,0,0,0,0,0,0,0,-1,1224,729,0,0
7,295,0,0,0,0,0,0,0,0,0,-1,1231,729,0,0
14,295,0,0,0,0,0,0,0,0,0,-1,1238,729,0,0
21,295,0,0,0,0,0,0,0,0,0,-1,1245,729,0,0
28,295,0,0,0,0,0,0,0,0,0,-1,1252,729,0,0
35,295,0,0,0,0,0,0,0,0,0,-1,1259,729,0,0
42,295,0,0,0,0,0,0,0,0,0,-1,1266,729,0,0
49,295,0,0,0,0,0,0,0,0,0,-1,1273,729,0,0
56,295,0,0,0,0,0,0,0,0,0,-1,1280,729,0,0
63,295,0,0,0,0,0,0,0,0,0,-1,1287,729,0,0
70,295,0,0,0,0,0,0,0,0,0,-1,1294,729,0,0
77,295,0,0,0,0,0,0,0,0,0,-1,1301,729,0,0
84,295,0,0,0,0,0,0,0,0,0,-1,1308,729,0,0
91,295,0,0,0,0,0,0,0,0,0,-1,1315,729,0,0
98,295,0,0,0,0,0,0,0,0,0,-1,1322,729,0,0
105,295,0,0,0,0,0,0,0,0,0,-1,1329,729,0,0
112,295,0,0,0,0,0,0,0,0,0,-1,1336,729,0,0
119,295,0,0,0,0,0,0,0,0,0,-1,1343,729,0,0
126,295,0,0,0,0,0,0,0,0,0,-1,1350,729,0,0
133,295,0,0,0,0,0,0,0,0,0,-1,1357,729,0,0
140,295,0,0,0,0,0,0,0,0,0,-1,1364,729,0,0
147,295,0,0,0,0,0,0,0,0,0,-1,1371,729,0,0
154,295,0,0,0,0,0,0,0,0,0,-1,1378,729,0,0
161,295,0,0,0,0,0,0,0,0,0,-1,1385,729,0,0
168,295,0,0,0,0,0,0,0,0,0,-1,1392,729,0,0
175,295,0,0,0,0,0,0,0,0,0,-1,1399,729,0,0
182,295,0,0,0,0,0,0,0,0,0,-1,1406,729,0,0
189,295,0,0,0,0,0,0,0,0,0,-1,1413,729,0,0
196,295,0,0,0,0,0,0,0,0,0,-1,1420,729,0,0
203,295,0,0,0,0,0,0,0,0,0,-1,1427,729,0,0
210,295,0,0,0,0,0,0,0,0,0,-1,1434,729,0,0
217,295,0,0,0,0,0,0,0,0,0,-1,1441,729,0,0
224,295,0,0,0,0,0,0,0,0,0,-1,1448,729,0,0
231,295,0,0,0,0,0,0,0,0,0,-1,1455,729,0,0
238,295,0,0,0,0,0,0,0,0,0,-1,1462,729,0,0
245,295,0,0,0,0,0,0,0,0,0,-1,1469,729,0,0
252,295,0,0,0,0,0,0,0,0,0,-1,1476,729,0,0
259,295,0,0,0,0,0,0,0,0,0,-1,1483,729,0,0
266,295,0,0,0,0,0,0,0,0,0,-1,1490,729,0,0
273,295,0,0,0,0,0,0,0,0,0,-1,1497,729,0,0
280,295,0,0,0,0,0,0,0,0,0,-1,1504,729,0,0
287,295,0,0,0,0,0,0,0,0,0,-1,1511,729,0,0
294,295,0,0,0,0,0,0,0,0,0,-1,1518,729,0,0
301,295,0,0,0,0,0,0,0,0,0,-1,1525,729,0,0
308,295,0,0,0,0,0,0,0,0,0,-1,1532,729,0,0
315,295,0,0,0,0,0,0,0,0,0,-1,1539,729,0,0
322,295,0,0,0,0,0,0,0,0,0,-1,1546,729,0,0
329,295,0,0,0,0,0,0,0,0,0,-1,1553,729,0,0
336,295,0,0,0,0,0,0,0,0,0,-1,1560,729,0,0
343,295,0,0,0,0,0,0,0,0,0,-1,1567,729,0,0
350,295,0,0,0,0,0,0,0,0,0,-1,1574,729,0,0
357,295,0,0,0,0,0,0,0,0,0,-1,1581,729,0,0
364,295,0,0,0,0,0,0,0,0,0,-1,1588,729,0,0
371,295,0,0,0,0,0,0,0,0,0,-1,1595,729,0,0
378,295,0,0,0,0,0,0,0,0,0,-1,1602,729,0,0
385,295,0,0,0,0,0,0,0,0,0,-1,1609,729,0,0
392,295,0,0,0,0,0,0,0,0,0,-1,1616,729,0,0
399,295,0,0,0,0,0,0,0,0,0,-1,1623,729,0,0
406,295,0,0,0,0,0,0,0,0,0,-1,1630,729,0,0
413,295,0,0,0,0,0,0,0,0,0,-1,1637,729,0,0
420,295,0,0,0,0,0,0,0,0,0,-1,1644,729,0,0
427,295,0,0,0,0,0,0,0,0,0,-1,1651,729,0,0
434,295,0,0,0,0,0,0,0,0,0,-1,1658,729,0,0
441,295,0,0,0,0,0,0,0,0,0,-1,1665,729,0,0
448,295,0,0,0,0,0,0,0,0,0,-1,1672,729,0,0
455,295,0,0,0,0,0,0,0,0,0,-1,1679,729,0,0
462,295,0,0,0,0,0,0,0,0,0,-1,1686,729,0,0
469,295,0,0,0,0,0,0,0,0,0,-1,1693,729,0,0
476,295,0,0,0,0,0,0,0,0,0,-1,1700,729,0,0
483,295,0,0,0,0,0,0,0,0,0,-1,1707,729,0,0
490,295,0,0,0,0,0,0,0,0,0,-1,1714,729,0,0
497,295,0,0,0,0,0,0,0,0,0,-1,1721,729,0,0
504,295,0,0,0,0,0,0,0,0,0,-1,1728,729,0,0
511,295,0,0,0,0,0,0,0,0,0,-1,1735,729,0,0
518,295,0,0,0,0,0,0,0,0,0,-1,1742,729,0,0
525,295,0,0,0,0,0,0,0,0,0,-1,1749,729,0,0
532,295,0,0,0,0,0,0,0,0,0,-1,1756,729,0,0
539,295,0,0,0,0,0,0,0,0,0,-1,1763,729,0,0
546,295,16.4219,5.28088,0,0,0,0,0,0,0,-1,1770,729,16.4219,-5.28089
553,295,17.2222,4.76135,0,0,0,0,0,0,0,-1,1777,729,17.2222,-4.76137
560,295,17.5791,4.12781,0,0,0,0,0,0,0,-1,1784,729,17.5791,-4.12778
567,295,18.4592,4.13,0,0,0,0,0,0,0,-1,1791,729,18.4592,-4.13003
574,295,21.0631,0.755615,0,0,0,0,0,0,0,-1,1798,729,21.0631,-0.755598
581,295,20.7152,1.17047,0,0,0,0,0,0,0,-1,1805,729,20.7152,-1.17046
588,295,23.9099,0.279785,0,0,0,0,0,0,0,-1,1812,729,23.91,-0.279755
595,295,19.7826,1.6178,0,0,0,0,0,0,0,-1,1819,729,19.7826,-1.61777
602,295,15.6809,5.12988,0,0,0,0,0,0,0,-1,1826,729,15.6809,-5.12989
609,295,11.7737,2.19989,0,0,0,0,0,0,0,-1,1833,729,11.7736,-2.19988
616,295,13.7881,0.0032959,0,0,0,0,0,0,0,-1,1840,729,13.7881,-0.00328193
623,295,13.7383,0.298462,-0.00428388,-0.0042569,0.00114471,-0.0031256,-0.00541518,0.791291,0.00313885,0.0301992,1847,729,13.7383,-0.298466
630,295,13.7001,0.591187,-0.00425589,-0.00207136,-0.000599473,-0.00191767,-0.00440959,-1.31982,0.00255306,0.0114237,1854,729,13.7,-0.591193
637,295,13.7047,0.843384,-0.00350787,0.000583955,-0.00246423,0.00174088,-0.0046648,-1.13185,0.00382459,0.0123811,1861,729,13.7047,-0.843414
644,295,13.7175,1.10229,-0.00282414,0.00149866,-0.00286758,0.00292818,-0.00425366,-1.10834,0.00416991,0.0121121,1868,729,13.7175,-1.10231
651,295,13.735,1.38202,-0.00215834,0.000848271,-0.00207858,0.0019102,-0.00322027,-1.09847,0.0029941,0.0126127,1875,729,13.735,-1.38199
658,295,13.734,1.62354,-0.00141316,0.000584961,-0.0014392,0.00133787,-0.00216607,-1.0888,0.00204175,0.0121234,1882,729,13.734,-1.62351
665,295,13.7214,1.85852,4.36478e-05,0.000295373,-0.000695175,0.000875987,-0.000536966,-0.874954,0.000823559,0.0116376,1889,729,13.7214,-1.85849
672,295,13.7029,2.1051,0.00233016,-9.34401e-05,-0.000453628,0.00241228,-0.000175564,-0.179097,0.00166979,0.0129777,1896,729,13.7029,-2.10508
679,295,13.7041,2.36395,0.00486093,-0.000201094,-0.000142757,0.00486495,-0.000205117,-0.0281717,0.00331379,0.00999711,1903,729,13.7041,-2.36393
686,295,13.718,2.61615,0.00847175,-0.000517781,0.000129855,0.00847362,-0.000519656,0.0144411,0.00583003,0.00942755,1910,729,13.7181,-2.61617
693,295,13.7045,2.84131,0.0136262,-0.00111833,0.000461053,0.0136406,-0.00113274,0.0312288,0.00949386,0.0236743,1917,729,13.7045,-2.84132
700,295,13.7653,3.07837,0.0210153,-0.00222282,0.000977892,0.0210563,-0.00226389,0.0419825,0.0148498,0.0376501,1924,729,13.7653,-3.07835
707,295,14.1154,3.57037,0.0313584,-0.00396039,0.00165239,0.0314355,-0.00403753,0.0466493,0.0224244,0.0453451,1931,729,14.1153,-3.5704
714,295,14.7632,3.75299,0.0449604,-0.0065683,0.00240062,0.045072,-0.0066799,0.046454,0.0325042,0.0454801,1938,729,14.7632,-3.753
721,295,15.6415,3.70654,0.0622108,-0.0103738,0.00305421,0.0623391,-0.010502,0.041979,0.0454662,0.048562,1945,729,15.6414,-3.70652
728,295,16.4916,3.75092,0,0,0,0,0,0,0,-1,1952,729,16.4915,-3.75091
735,295,0,0,0,0,0,0,0,0,0,-1,1959,729,0,0
742,295,0,0,0,0,0,0,0,0,0,-1,1966,729,0,0
749,295,0,0,0,0,0,0,0,0,0,-1,1973,729,0,0
756,295,0,0,0,0,0,0,0,0,0,-1,1980,729,0,0
763,295,0,0,0,0,0,0,0,0,0,-1,1987,729,0,0
770,295,0,0,0,0,0,0,0,0,0,-1,1994,729,0,0
777,295,0,0,0,0,0,0,0,0,0,-1,2001,729,0,0
784,295,0,0,0,0,0,0,0,0,0,-1,2008,729,0,0
791,295,0,0,0,0,0,0,0,0,0,-1,2015,729,0,0
798,295,0,0,0,0,0,0,0,0,0,-1,2022,729,0,0
805,295,0,0,0,0,0,0,0,0,0,-1,2029,729,0,0
812,295,0,0,0,0,0,0,0,0,0,-1,2036,729,0,0
-700,288,0,0,0,0,0,0,0,0,0,-1,524,736,0,0
-693,288,0,0,0,0,0,0,0,0,0,-1,531,736,0,0
-686,288,0,0,0,0,0,0,0,0,0,-1,538,736,0,0
-679,288,0,0,0,0,0,0,0,0,0,-1,545,736,0,0
-672,288,0,0,0,0,0,0,0,0,0,-1,552,736,0,0
-665,288,0,0,0,0,0,0,0,0,0,-1,559,736,0,0
-658,288,0,0,0,0,0,0,0,0,0,-1,566,736,0,0
-651,288,0,0,0,0,0,0,0,0,0,-1,573,736,0,0
-644,288,0,0,0,0,0,0,0,0,0,-1,580,736,0,0
-637,288,0,0,0,0,0,0,0,0,0,-1,587,736,0,0
-630,288,0,0,0,0,0,0,0,0,0,-1,594,736,0,0
-623,288,0,0,0,0,0,0,0,0,0,-1,601,736,0,0
-616,288,-4.38214,1.62183,0,0,0,0,0,0,0,-1,608,736,-4.38215,-1.62181
-609,288,-4.35089,0.701416,0,0,0,0,0,0,0,-1,615,736,-4.35091,-0.701399
-602,288,-4.3197,-0.218994,0,0,0,0,0,0,0,-1,622,736,-4.31967,0.219013
-595,288,-11.2771,-0.210388,0,0,0,0,0,0,0,-1,629,736,-11.2771,0.210363
-588,288,-6.75586,1.0415,0,0,0,0,0,0,0,-1,636,736,-6.75586,-1.04148
-581,288,-7.79077,1.47479,0,0,0,0,0,0,0,-1,643,736,-7.79075,-1.47477
-574,288,-7.01233,1.02155,0,0,0,0,0,0,0,-1,650,736,-7.01235,-1.02154
-567,288,-7.52063,0.783142,-0.0122117,0.00494562,0.00731024,0.00763785,-0.0149039,1.21793,0.0132379,0.0245685,657,736,-7.52066,-0.783129
-560,288,-7.6676,0.58075,-0.00958186,0.00403376,0.00552733,0.00599508,-0.0115432,1.22982,0.0102932,0.0127375,664,736,-7.66763,-0.58077
-553,288,-7.65839,0.434692,-0.00742087,0.00355327,0.00388786,0.00479104,-0.00865864,1.26258,0.00787147,0.0179336,671,736,-7.65839,-0.434721
-546,288,-7.67523,0.196289,-0.00564041,0.0027163,0.00277025,0.00355122,-0.00647533,1.27807,0.00587032,0.0196653,678,736,-7.67523,-0.196285
-539,288,-7.65857,-0.0575562,-0.00431113,0.00192226,0.00221188,0.00262737,-0.00501624,1.2622,0.00448431,0.0158982,685,736,-7.65858,0.057531
-532,288,-7.63556,-0.301941,-0.00374678,0.00201103,0.00205158,0.00266725,-0.00440299,1.26122,0.00412281,0.012451,692,736,-7.63554,0.301944
-525,288,-7.64917,-0.553101,-0.00405193,0.00331763,0.00265516,0.0041746,-0.0049089,1.2586,0.00525007,0.0130874,699,736,-7.64915,0.553122
-518,288,-7.67889,-0.779053,-0.004242,0.00507012,0.0037348,0.00638294,-0.00555483,1.23278,0.0068978,0.0127603,706,736,-7.67891,0.779072
-511,288,-7.67432,-1.01617,-0.00442258,0.0076388,0.00616049,0.0102291,-0.00701285,1.17277,0.0100122,0.00900568,713,736,-7.67431,1.01615
-504,288,-7.67487,-1.25757,-0.00413134,0.0111375,0.0108223,0.0167472,-0.00974104,1.09258,0.0154703,0.0102238,720,736,-7.67485,1.25757
-497,288,-7.67169,-1.45099,-0.00315387,0.0156238,0.0168048,0.0254846,-0.0130147,1.04015,0.0226129,0.0206008,727,736,-7.67167,1.45097
-490,288,-7.62604,-1.64331,0,0,0,0,0,0,0,-1,734,736,-7.62604,1.64328
-483,288,-9.34424,-0.476624,0,0,0,0,0,0,0,-1,741,736,-9.34422,0.476643
-476,288,-13.5521,-1.3233,0,0,0,0,0,0,0,-1,748,736,-13.5521,1.32332
-469,288,-13.6171,-0.341492,0,0,0,0,0,0,0,-1,755,736,-13.6171,0.341465
-462,288,-13.6821,0.640381,0,0,0,0,0,0,0,-1,762,736,-13.6821,-0.640393
-455,288,-13.1521,2.03394,0.0250695,0.0409782,0.0779084,0.111337,-0.0452896,0.836271,0.09307,0.0466556,769,736,-13.1521,-2.03393
-448,288,-13.0502,2.9906,0.0362657,0.0414001,0.0920418,0.130911,-0.0532447,0.79934,0.109429,0.0457765,776,736,-13.0501,-2.99058
-441,288,-12.7852,3.65118,0,0,0,0,0,0,0,-1,783,736,-12.7852,-3.65118
-434,288,-12.8195,1.03143,0,0,0,0,0,0,0,-1,790,736,-12.8195,-1.03145
-427,288,0,0,0,0,0,0,0,0,0,-1,797,736,0,0
-420,288,0,0,0,0,0,0,0,0,0,-1,804,736,0,0
-413,288,0,0,0,0,0,0,0,0,0,-1,811,736,0,0
-406,288,0,0,0,0,0,0,0,0,0,-1,818,736,0,0
-399,288,0,0,0,0,0,0,0,0,0,-1,825,736,0,0
-392,288,0,0,0,0,0,0,0,0,0,-1,832,736,0,0
-385,288,0,0,0,0,0,0,0,0,0,-1,839,736,0,0
-378,288,0,0,0,0,0,0,0,0,0,-1,846,736,0,0
-371,288,0,0,0,0,0,0,0,0,0,-1,853,736,0,0
-364,288,0,0,0,0,0,0,0,0,0,-1,860,736,0,0
-357,288,0,0,0,0,0,0,0,0,0,-1,867,736,0,0
-350,288,0,0,0,0,0,0,0,0,0,-1,874,736,0,0
-343,288,0,0,0,0,0,0,0,0,0,-1,881,736,0,0
-336,288,0,0,0,0,0,0,0,0,0,-1,888,736,0,0
-329,288,0,0,0,0,0,0,0,0,0,-1,895,736,0,0
-322,288,0,0,0,0,0,0,0,0,0,-1,902,736,0,0
-315,288,0,0,0,0,0,0,0,0,0,-1,909,736,0,0
-308,288,0,0,0,0,0,0,0,0,0,-1,916,736,0,0
-301,288,0,0,0,0,0,0,0,0,0,-1,923,736,0,0
-294,288,0,0,0,0,0,0,0,0,0,-1,930,736,0,0
-287,288,0,0,0,0,0,0,0,0,0,-1,937,736,0,0
-280,288,0,0,0,0,0,0,0,0,0,-1,944,736,0,0
-273,288,0,0,0,0,0,0,0,0,0,-1,951,736,0,0
-266,288,0,0,0,0,0,0,0,0,0,-1,958,736,0,0
-259,288,0,0,0,0,0,0,0,0,0,-1,965,736,0,0
-252,288,0,0,0,0,0,0,0,0,0,-1,972,736,0,0
-245,288,0,0,0,0,0,0,0,0,0,-1,979,736,0,0
-238,288,0,0,0,0,0,0,0,0,0,-1,986,736,0,0
-231,288,0,0,0,0,0,0,0,0,0,-1,993,736,0,0
-224,288,0,0,0,0,0,0,0,0,0,-1,1000,736,0,0
-217,288,0,0,0,0,0,0,0,0,0,-1,1007,736,0,0
-210,288,0,0,0,0,0,0,0,0,0,-1,1014,736,0,0
-203,288,0,0,0,0,0,0,0,0,0,-1,1021,736,0,0
-196,288,0,0,0,0,0,0,0,0,0,-1,1028,736,0,0
-189,288,0,0,0,0,0,0,0,0,0,-1,1035,736,0,0
-182,288,0,0,0,0,0,0,0,0,0,-1,1042,736,0,0
-175,288,0,0,0,0,0,0,0,0,0,-1,1049,736,0,0
-168,288,0,0,0,0,0,0,0,0,0,-1,1056,736,0,0
-161,288,0,0,0,0,0,0,0,0,0,-1,1063,736,0,0
-154,288,0,0,0,0,0,0,0,0,0,-1,1070,736,0,0
-147,288,0,0,0,0,0,0,0,0,0,-1,1077,736,0,0
-140,288,0,0,0,0,0,0,0,0,0,-1,1084,736,0,0
-133,288,0,0,0,0,0,0,0,0,0,-1,1091,736,0,0
-126,288,0,0,0,0,0,0,0,0,0,-1,1098,736,0,0
-119,288,0,0,0,0,0,0,0,0,0,-1,1105,736,0,0
-112,288,0,0,0,0,0,0,0,0,0,-1,1112,736,0,0
-105,288,0,0,0,0,0,0,0,0,0,-1,1119,736,0,0
-98,288,0,0,0,0,0,0,0,0,0,-1,1126,736,0,0
-91,288,0,0,0,0,0,0,0,0,0,-1,1133,736,0,0
-84,288,0,0,0,0,0,0,0,0,0,-1,1140,736,0,0
-77,288,0,0,0,0,0,0,0,0,0,-1,1147,736,0,0
-70,288,0,0,0,0,0,0,0,0,0,-1,1154,736,0,0
-63,288,0,0,0,0,0,0,0,0,0,-1,1161,736,0,0
-56,288,0,0,0,0,0,0,0,0,0,-1,1168,736,0,0
-49,288,0,0,0,0,0,0,0,0,0,-1,1175,736,0,0
-42,288,0,0,0,0,0,0,0,0,0,-1,1182,736,0,0
-35,288,0,0,0,0,0,0,0,0,0,-1,1189,736,0,0
-28,288,0,0,0,0,0,0,0,0,0,-1,1196,736,0,0
-21,288,0,0,0,0,0,0,0,0,0,-1,1203,736,0,0
-14,288,0,0,0,0,0,0,0,0,0,-1,1210,736,0,0
-7,288,0,0,0,0,0,0,0,0,0,-1,1217,736,0,0
0,288,0,0,0,0,0,0,0,0,0,-1,1224,736,0,0
7,288,0,0,0,0,0,0,0,0,0,-1,1231,736,0,0
14,288,0,0,0,0,0,0,0,0,0,-1,1238,736,0,0
21,288,0,0,0,0,0,0,0,0,0,-1,1245,736,0,0
28,288,0,0,0,0,0,0,0,0,0,-1,1252,736,0,0
35,288,0,0,0,0,0,0,0,0,0,-1,1259,736,0,0
42,288,0,0,0,0,0,0,0,0,0,-1,1266,736,0,0
49,288,0,0,0,0,0,0,0,0,0,-1,1273,736,0,0
56,288,0,0,0,0,0,0,0,0,0,-1,1280,736,0,0
63,288,0,0,0,0,0,0,0,0,0,-1,1287,736,0,0
70,288,0,0,0,0,0,0,0,0,0,-1,1294,736,0,0
77,288,0,0,0,0,0,0,0,0,0,-1,1301,736,0,0
84,288,0,0,0,0,0,0,0,0,0,-1,1308,736,0,0
91,288,0,0,0,0,0,0,0,0,0,-1,1315,736,0,0
98,288,0,0,0,0,0,0,0,0,0,-1,1322,736,0,0
105,288,0,0,0,0,0,0,0,0,0,-1,1329,736,0,0
112,288,0,0,0,0,0,0,0,0,0,-1,1336,736,0,0
119,288,0,0,0,0,0,0,0,0,0,-1,1343,736,0,0
126,288,0,0,0,0,0,0,0,0,0,-1,1350,736,0,0
133,288,0,0,0,0,0,0,0,0,0,-1,1357,736,0,0
140,288,0,0,0,0,0,0,0,0,0,-1,1364,736,0,0
147,288,0,0,0,0,0,0,0,0,0,-1,1371,736,0,0
154,288,0,0,0,0,0,0,0,0,0,-1,1378,736,0,0
161,288,0,0,0,0,0,0,0,0,0,-1,1385,736,0,0
168,288,0,0,0,0,0,0,0,0,0,-1,1392,736,0,0
175,288,0,0,0,0,0,0,0,0,0,-1,1399,736,0,0
182,288,0,0,0,0,0,0,0,0,0,-1,1406,736,0,0
189,288,0,0,0,0,0,0,0,0,0,-1,1413,736,0,0
196,288,0,0,0,0,0,0,0,0,0,-1,1420,736,0,0
203,288,0,0,0,0,0,0,0,0,0,-1,1427,736,0,0
210,288,0,0,0,0,0,0,0,0,0,-1,1434,736,0,0
217,288,0,0,0,0,0,0,0,0,0,-1,1441,736,0,0
224,288,0,0,0,0,0,0,0,0,0,-1,1448,736,0,0
231,288,0,0,0,0,0,0,0,0,0,-1,1455,736,0,0
238,288,0,0,0,0,0,0,0,0,0,-1,1462,736,0,0
245,288,0,0,0,0,0,0,0,0,0,-1,1469,736,0,0
252,288,0,0,0,0,0,0,0,0,0,-1,1476,736,0,0
259,288,0,0,0,0,0,0,0,0,0,-1,1483,736,0,0
266,288,0,0,0,0,0,0,0,0,0,-1,1490,736,0,0
273,288,0,0,0,0,0,0,0,0,0,-1,1497,736,0,0
280,288,0,0,0,0,0,0,0,0,0,-1,1504,736,0,0
287,288,0,0,0,0,0,0,0,0,0,-1,1511,736,0,0
294,288,0,0,0,0,0,0,0,0,0,-1,1518,736,0,0
301,288,0,0,0,0,0,0,0,0,0,-1,1525,736,0,0
308,288,0,0,0,0,0,0,0,0,0,-1,1532,736,0,0
315,288,0,0,0,0,0,0,0,0,0,-1,1539,736,0,0
322,288,0,0,0,0,0,0,0,0,0,-1,1546,736,0,0
329,288,0,0,0,0,0,0,0,0,0,-1,1553,736,0,0
336,288,0,0,0,0,0,0,0,0,0,-1,1560,736,0,0
343,288,0,0,0,0,0,0,0,0,0,-1,1567,736,0,0
350,288,0,0,0,0,0,0,0,0,0,-1,1574,736,0,0
357,288,0,0,0,0,0,0,0,0,0,-1,1581,736,0,0
364,288,0,0,0,0,0,0,0,0,0,-1,1588,736,0,0
371,288,0,0,0,0,0,0,0,0,0,-1,1595,736,0,0
378,288,0,0,0,0,0,0,0,0,0,-1,1602,736,0,0
385,288,0,0,0,0,0,0,0,0,0,-1,1609,736,0,0
392,288,0,0,0,0,0,0,0,0,0,-1,1616,736,0,0
399,288,0,0,0,0,0,0,0,0,0,-1,1623,736,0,0
406,288,0,0,0,0,0,0,0,0,0,-1,1630,736,0,0
413,288,0,0,0,0,0,0,0,0,0,-1,1637,736,0,0
420,288,0,0,0,0,0,0,0,0,0,-1,1644,736,0,0
427,288,0,0,0,0,0,0,0,0,0,-1,1651,736,0,0
434,288,0,0,0,0,0,0,0,0,0,-1,1658,736,0,0
441,288,0,0,0,0,0,0,0,0,0,-1,1665,736,0,0
448,288,0,0,0,0,0,0,0,0,0,-1,1672,736,0,0
455,288,0,0,0,0,0,0,0,0,0,-1,1679,736,0,0
462,288,0,0,0,0,0,0,0,0,0,-1,1686,736,0,0
469,288,0,0,0,0,0,0,0,0,0,-1,1693,736,0,0
476,288,0,0,0,0,0,0,0,0,0,-1,1700,736,0,0
483,288,0,0,0,0,0,0,0,0,0,-1,1707,736,0,0
490,288,0,0,0,0,0,0,0,0,0,-1,1714,736,0,0
497,288,0,0,0,0,0,0,0,0,0,-1,1721,736,0,0
504,288,0,0,0,0,0,0,0,0,0,-1,1728,736,0,0
511,288,0,0,0,0,0,0,0,0,0,-1,1735,736,0,0
518,288,0,0,0,0,0,0,0,0,0,-1,1742,736,0,0
525,288,0,0,0,0,0,0,0,0,0,-1,1749,736,0,0
532,288,0,0,0,0,0,0,0,0,0,-1,1756,736,0,0
539,288,0,0,0,0,0,0,0,0,0,-1,1763,736,0,0
546,288,0,0,0,0,0,0,0,0,0,-1,1770,736,0,0
553,288,17.7463,4.54291,0,0,0,0,0,0,0,-1,1777,736,17.7464,-4.54293
560,288,18.4413,4.21887,0,0,0,0,0,0,0,-1,1784,736,18.4412,-4.21889
567,288,18.985,4.21576,0,0,0,0,0,0,0,-1,1791,736,18.985,-4.21577
574,288,19.3104,4.63715,0,0,0,0,0,0,0,-1,1798,736,19.3105,-4.63718
581,288,24.437,0.112793,0,0,0,0,0,0,0,-1,1805,736,24.4371,-0.112809
588,288,23.5233,0.767639,0,0,0,0,0,0,0,-1,1812,736,23.5234,-0.767642
595,288,24.4028,0.944824,0,0,0,0,0,0,0,-1,1819,736,24.4029,-0.944803
602,288,19.3573,3.5863,0,0,0,0,0,0,0,-1,1826,736,19.3573,-3.58631
609,288,17.5223,4.86414,0,0,0,0,0,0,0,-1,1833,736,17.5223,-4.86412
616,288,13.4886,0.801331,0,0,0,0,0,0,0,-1,1840,736,13.4886,-0.80132
623,288,13.9811,0.271729,0,0,0,0,0,0,0,-1,1847,736,13.9811,-0.271732
630,288,13.9697,0.63501,-0.00389002,-0.00188212,-0.00135107,-0.00120282,-0.00456931,-1.10493,0.0027349,0.0193131,1854,736,13.9697,-0.635002
637,288,13.9738,0.853027,-0.00333729,0.00102089,-0.00340793,0.00288685,-0.00520325,-1.06985,0.00473421,0.00972412,1861,736,13.9737,-0.853029
644,288,14.0002,1.10486,-0.00282011,0.00206153,-0.00384673,0.00417647,-0.00493505,-1.06811,0.00526661,0.0101479,1868,736,14.0002,-1.10487
651,288,13.9773,1.37329,-0.00220601,0.00119688,-0.00275935,0.00273718,-0.00374631,-1.06167,0.00375833,0.0118858,1875,736,13.9773,-1.37326
658,288,13.9886,1.64319,-0.00144851,0.000766437,-0.00188713,0.00184706,-0.00252914,-1.05075,0.00253681,0.0160238,1882,736,13.9886,-1.64318
665,288,13.9893,1.87689,-0.000108329,0.000371396,-0.000917705,0.00108007,-0.000817,-0.913224,0.00109878,0.0166035,1889,736,13.9892,-1.87688
672,288,13.9702,2.10901,0.00196551,-3.00064e-05,-0.000512793,0.00208957,-0.000154067,-0.237371,0.00144714,0.0151766,1896,736,13.9703,-2.10898
679,288,13.9827,2.37262,0.00423311,-1.22759e-06,-0.000159194,0.00423909,-7.20401e-06,-0.0375253,0.00282846,0.0129277,1903,736,13.9827,-2.3726
686,288,13.9739,2.59167,0.00740616,-0.000137043,6.44756e-05,0.00740671,-0.000137594,0.00854667,0.0049843,0.00990742,1910,736,13.9739,-2.59165
693,288,13.9817,2.8526,0.0118339,-0.000464494,0.000296926,0.0118411,-0.000471659,0.0241247,0.00805587,0.0123252,1917,736,13.9817,-2.85258
700,288,13.9402,3.10846,0.0180288,-0.00116802,0.000615477,0.0180485,-0.00118773,0.0320176,0.0124472,0.0242215,1924,736,13.9401,-3.10849
707,288,13.9485,3.35791,0.0267162,-0.00242502,0.00101741,0.0267517,-0.00246049,0.0348564,0.0187086,0.0386761,1931,736,13.9485,-3.35791
714,288,13.9532,3.60846,0,0,0,0,0,0,0,-1,1938,736,13.9532,-3.60847
721,288,15.9327,4.39313,0,0,0,0,0,0,0,-1,1945,736,15.9327,-4.39312
728,288,16.871,4.44733,0,0,0,0,0,0,0,-1,1952,736,16.8709,-4.4473
735,288,16.448,3.76532,0,0,0,0,0,0,0,-1,1959,736,16.448,-3.76532
742,288,0,0,0,0,0,0,0,0,0,-1,1966,736,0,0
749,288,0,0,0,0,0,0,0,0,0,-1,1973,736,0,0
756,288,0,0,0,0,0,0,0,0,0,-1,1980,736,0,0
763,288,0,0,0,0,0,0,0,0,0,-1,1987,736,0,0
770,288,0,0,0,0,0,0,0,0,0,-1,1994,736,0,0
777,288,0,0,0,0,0,0,0,0,0,-1,2001,736,0,0
784,288,0,0,0,0,0,0,0,0,0,-1,2008,736,0,0
791,288,0,0,0,0,0,0,0,0,0,-1,2015,736,0,0
798,288,0,0,0,0,0,0,0,0,0,-1,2022,736,0,0
805,288,0,0,0,0,0,0,0,0,0,-1,2029,736,0,0
812,288,0,0,0,0,0,0,0,0,0,-1,2036,736,0,0
-700,281,0,0,0,0,0,0,0,0,0,-1,524,743,0,0
-693,281,0,0,0,0,0,0,0,0,0,-1,531,743,0,0
-686,281,0,0,0,0,0,0,0,0,0,-1,538,743,0,0
-679,281,0,0,0,0,0,0,0,0,0,-1,545,743,0,0
-672,281,0,0,0,0,0,0,0,0,0,-1,552,743,0,0
-665,281,0,0,0,0,0,0,0,0,0,-1,559,743,0,0
-658,281,0,0,0,0,0,0,0,0,0,-1,566,743,0,0
-651,281,0,0,0,0,0,0,0,0,0,-1,573,743,0,0
-644,281,0,0,0,0,0,0,0,0,0,-1,580,743,0,0
-637,281,0,0,0,0,0,0,0,0,0,-1,587,743,0,0
-630,281,0,0,0,0,0,0,0,0,0,-1,594,743,0,0
-623,281,-7.48248,-0.576172,0,0,0,0,0,0,0,-1,601,743,-7.48251,0.576166
-616,281,-5.30048,1.97839,0,0,0,0,0,0,0,-1,608,743,-5.30046,-1.97839
-609,281,-5.20056,1.40259,0,0,0,0,0,0,0,-1,615,743,-5.20058,-1.4026
-602,281,-5.09332,1.11975,0,0,0,0,0,0,0,-1,622,743,-5.09331,-1.11975
-595,281,-7.53943,0.47229,0,0,0,0,0,0,0,-1,629,743,-7.53945,-0.472296
-588,281,-8.12469,1.86444,0,0,0,0,0,0,0,-1,636,743,-8.12467,-1.86447
-581,281,-7.97443,1.45349,-0.0144596,0.00247244,0.0101636,0.00723409,-0.0192213,1.13266,0.015788,0.0486996,643,743,-7.97441,-1.4535
-574,281,-7.78864,1.03778,-0.0121062,0.00135863,0.00804051,0.00511312,-0.0158607,1.13394,0.0126281,0.0296808,650,743,-7.78866,-1.03781
-567,281,-7.87262,0.786499,-0.00974268,0.000770082,0.00629512,0.0037148,-0.0126874,1.13326,0.00993089,0.013494,657,743,-7.87264,-0.786483
-560,281,-7.90826,0.579956,-0.00770796,0.000288438,0.00497203,0.00267042,-0.0100899,1.12403,0.00777124,0.00830327,664,743,-7.90825,-0.579937
-553,281,-7.8894,0.391479,-0.00604692,0.000482441,0.00358697,0.00206796,-0.00763245,1.1546,0.00589969,0.0127285,671,743,-7.88939,-0.391493
-546,281,-7.88062,0.180603,-0.00473328,0.000280877,0.00269691,0.00145602,-0.00590843,1.15987,0.00450345,0.014833,678,743,-7.8806,-0.180596
-539,281,-7.86719,-0.0623169,-0.00395199,0.000138519,0.00234058,0.00120154,-0.00501501,1.14448,0.00380758,0.0128762,685,743,-7.86719,0.0623042
-532,281,-7.8692,-0.287048,-0.00397683,0.000917589,0.00239217,0.00189256,-0.0049518,1.18378,0.00408105,0.0115528,692,743,-7.86921,0.287066
-525,281,-7.88855,-0.545227,-0.00488613,0.00295023,0.00323336,0.00411208,-0.00604798,1.22583,0.0059013,0.013624,699,743,-7.88856,0.545209
-518,281,-7.8974,-0.792847,-0.00562438,0.00530449,0.00442669,0.00687253,-0.00719241,1.23036,0.0081211,0.0122398,706,743,-7.89739,0.792831
-511,281,-7.91833,-1.03833,-0.00624252,0.00844189,0.00698239,0.0112319,-0.00903253,1.19065,0.0117226,0.0105928,713,743,-7.91832,1.03835
-504,281,-7.91974,-1.2915,-0.00629095,0.0124721,0.0116712,0.0180649,-0.0118837,1.12393,0.0174131,0.0124186,720,743,-7.91973,1.29153
-497,281,-7.85559,-1.59094,-0.00550764,0.0173977,0.017613,0.0269542,-0.015064,1.07367,0.0245808,0.0344521,727,743,-7.85559,1.59094
-490,281,-8.32532,-1.39899,0,0,0,0,0,0,0,-1,734,743,-8.32531,1.39896
-483,281,-9.00897,-0.551208,0,0,0,0,0,0,0,-1,741,743,-9.00897,0.551191
-476,281,-8.92871,-0.922974,0,0,0,0,0,0,0,-1,748,743,-8.92869,0.922963
-469,281,-14.252,-0.309753,0,0,0,0,0,0,0,-1,755,743,-14.252,0.30973
-462,281,-14.0814,0.818237,0.0147408,0.0430205,0.06598,0.0963588,-0.0385974,0.890954,0.0802606,0.0457866,762,743,-14.0814,-0.818229
-455,281,-13.7941,1.76599,0.0245573,0.0455732,0.0797643,0.115519,-0.0453883,0.85089,0.0957958,0.0413514,769,743,-13.7941,-1.76599
-448,281,-13.5215,2.6825,0.0369329,0.0462428,0.0937517,0.135455,-0.0522793,0.810204,0.111878,0.0444802,776,743,-13.5215,-2.6825
-441,281,-13.2051,3.54559,0,0,0,0,0,0,0,-1,783,743,-13.2051,-3.5456
-434,281,0,0,0,0,0,0,0,0,0,-1,790,743,0,0
-427,281,0,0,0,0,0,0,0,0,0,-1,797,743,0,0
-420,281,0,0,0,0,0,0,0,0,0,-1,804,743,0,0
-413,281,0,0,0,0,0,0,0,0,0,-1,811,743,0,0
-406,281,0,0,0,0,0,0,0,0,0,-1,818,743,0,0
-399,281,0,0,0,0,0,0,0,0,0,-1,825,743,0,0
-392,281,0,0,0,0,0,0,0,0,0,-1,832,743,0,0
-385,281,0,0,0,0,0,0,0,0,0,-1,839,743,0,0
-378,281,0,0,0,0,0,0,0,0,0,-1,846,743,0,0
-371,281,0,0,0,0,0,0,0,0,0,-1,853,743,0,0
-364,281,0,0,0,0,0,0,0,0,0,-1,860,743,0,0
-357,281,0,0,0,0,0,0,0,0,0,-1,867,743,0,0
-350,281,0,0,0,0,0,0,0,0,0,-1,874,743,0,0
-343,281,0,0,0,0,0,0,0,0,0,-1,881,743,0,0
-336,281,0,0,0,0,0,0,0,0,0,-1,888,743,0,0
-329,281,0,0,0,0,0,0,0,0,0,-1,895,743,0,0
-322,281,0,0,0,0,0,0,0,0,0,-1,902,743,0,0
-315,281,0,0,0,0,0,0,0,0,0,-1,909,743,0,0
-308,281,0,0,0,0,0,0,0,0,0,-1,916,743,0,0
-301,281,0,0,0,0,0,0,0,0,0,-1,923,743,0,0
-294,281,0,0,0,0,0,0,0,0,0,-1,930,743,0,0
-287,281,0,0,0,0,0,0,0,0,0,-1,937,743,0,0
-280,281,0,0,0,0,0,0,0,0,0,-1,944,743,0,0
-273,281,0,0,0,0,0,0,0,0,0,-1,951,743,0,0
-266,281,0,0,0,0,0,0,0,0,0,-1,958,743,0,0
-259,281,0,0,0,0,0,0,0,0,0,-1,965,743,0,0
-252,281,0,0,0,0,0,0,0,0,0,-1,972,743,0,0
-245,281,0,0,0,0,0,0,0,0,0,-1,979,743,0,0
-238,281,0,0,0,0,0,0,0,0,0,-1,986,743,0,0
-231,281,0,0,0,0,0,0,0,0,0,-1,993,743,0,0
-224,281,0,0,0,0,0,0,0,0,0,-1,1000,743,0,0
-217,281,0,0,0,0,0,0,0,0,0,-1,1007,743,0,0
-210,281,0,0,0,0,0,0,0,0,0,-1,1014,743,0,0
-203,281,0,0,0,0,0,0,0,0,0,-1,1021,743,0,0
-196,281,0,0,0,0,0,0,0,0,0,-1,1028,743,0,0
-189,281,0,0,0,0,0,0,0,0,0,-1,1035,743,0,0
-182,281,0,0,0,0,0,0,0,0,0,-1,1042,743,0,0
-175,281,0,0,0,0,0,0,0,0,0,-1,1049,743,0,0
-168,281,0,0,0,0,0,0,0,0,0,-1,1056,743,0,0
-161,281,0,0,0,0,0,0,0,0,0,-1,1063,743,0,0
-154,281,0,0,0,0,0,0,0,0,0,-1,1070,743,0,0
-147,281,0,0,0,0,0,0,0,0,0,-1,1077,743,0,0
-140,281,0,0,0,0,0,0,0,0,0,-1,1084,743,0,0
-133,281,0,0,0,0,0,0,0,0,0,-1,1091,743,0,0
-126,281,0,0,0,0,0,0,0,0,0,-1,1098,743,0,0
-119,281,0,0,0,0,0,0,0,0,0,-1,1105,743,0,0
-112,281,0,0,0,0,0,0,0,0,0,-1,1112,743,0,0
-105,281,0,0,0,0,0,0,0,0,0,-1,1119,743,0,0
-98,281,0,0,0,0,0,0,0,0,0,-1,1126,743,0,0
-91,281,0,0,0,0,0,0,0,0,0,-1,1133,743,0,0
-84,281,0,0,0,0,0,0,0,0,0,-1,1140,743,0,0
-77,281,0,0,0,0,0,0,0,0,0,-1,1147,743,0,0
-70,281,0,0,0,0,0,0,0,0,0,-1,1154,743,0,0
-63,281,0,0,0,0,0,0,0,0,0,-1,1161,743,0,0
-56,281,0,0,0,0,0,0,0,0,0,-1,1168,743,0,0
-49,281,0,0,0,0,0,0,0,0,0,-1,1175,743,0,0
-42,281,0,0,0,0,0,0,0,0,0,-1,1182,743,0,0
-35,281,0,0,0,0,0,0,0,0,0,-1,1189,743,0,0
-28,281,0,0,0,0,0,0,0,0,0,-1,1196,743,0,0
-21,281,0,0,0,0,0,0,0,0,0,-1,1203,743,0,0
-14,281,0,0,0,0,0,0,0,0,0,-1,1210,743,0,0
-7,281,0,0,0,0,0,0,0,0,0,-1,1217,743,0,0
0,281,0,0,0,0,0,0,0,0,0,-1,1224,743,0,0
7,281,0,0,0,0,0,0,0,0,0,-1,1231,743,0,0
14,281,0,0,0,0,0,0,0,0,0,-1,1238,743,0,0
21,281,0,0,0,0,0,0,0,0,0,-1,1245,743,0,0
28,281,0,0,0,0,0,0,0,0,0,-1,1252,743,0,0
35,281,0,0,0,0,0,0,0,0,0,-1,1259,743,0,0
42,281,0,0,0,0,0,0,0,0,0,-1,1266,743,0,0
49,281,0,0,0,0,0,0,0,0,0,-1,1273,743,0,0
56,281,0,0,0,0,0,0,0,0,0,-1,1280,743,0,0
63,281,0,0,0,0,0,0,0,0,0,-1,1287,743,0,0
70,281,0,0,0,0,0,0,0,0,0,-1,1294,743,0,0
77,281,0,0,0,0,0,0,0,0,0,-1,1301,743,0,0
84,281,0,0,0,0,0,0,0,0,0,-1,1308,743,0,0
91,281,0,0,0,0,0,0,0,0,0,-1,1315,743,0,0
98,281,0,0,0,0,0,0,0,0,0,-1,1322,743,0,0
105,281,0,0,0,0,0,0,0,0,0,-1,1329,743,0,0
112,281,0,0,0,0,0,0,0,0,0,-1,1336,743,0,0
119,281,0,0,0,0,0,0,0,0,0,-1,1343,743,0,0
126,281,0,0,0,0,0,0,0,0,0,-1,1350,743,0,0
133,281,0,0,0,0,0,0,0,0,0,-1,1357,743,0,0
140,281,0,0,0,0,0,0,0,0,0,-1,1364,743,0,0
147,281,0,0,0,0,0,0,0,0,0,-1,1371,743,0,0
154,281,0,0,0,0,0,0,0,0,0,-1,1378,743,0,0
161,281,0,0,0,0,0,0,0,0,0,-1,1385,743,0,0
168,281,0,0,0,0,0,0,0,0,0,-1,1392,743,0,0
175,281,0,0,0,0,0,0,0,0,0,-1,1399,743,0,0
182,281,0,0,0,0,0,0,0,0,0,-1,1406,743,0,0
189,281,0,0,0,0,0,0,0,0,0,-1,1413,743,0,0
196,281,0,0,0,0,0,0,0,0,0,-1,1420,743,0,0
203,281,0,0,0,0,0,0,0,0,0,-1,1427,743,0,0
210,281,0,0,0,0,0,0,0,0,0,-1,1434,743,0,0
217,281,0,0,0,0,0,0,0,0,0,-1,1441,743,0,0
224,281,0,0,0,0,0,0,0,0,0,-1,1448,743,0,0
231,281,0,0,0,0,0,0,0,0,0,-1,1455,743,0,0
238,281,0,0,0,0,0,0,0,0,0,-1,1462,743,0,0
245,281,0,0,0,0,0,0,0,0,0,-1,1469,743,0,0
252,281,0,0,0,0,0,0,0,0,0,-1,1476,743,0,0
259,281,0,0,0,0,0,0,0,0,0,-1,1483,743,0,0
266,281,0,0,0,0,0,0,0,0,0,-1,1490,743,0,0
273,281,0,0,0,0,0,0,0,0,0,-1,1497,743,0,0
280,281,0,0,0,0,0,0,0,0,0,-1,1504,743,0,0
287,281,0,0,0,0,0,0,0,0,0,-1,1511,743,0,0
294,281,0,0,0,0,0,0,0,0,0,-1,1518,743,0,0
301,281,0,0,0,0,0,0,0,0,0,-1,1525,743,0,0
308,281,0,0,0,0,0,0,0,0,0,-1,1532,743,0,0
315,281,0,0,0,0,0,0,0,0,0,-1,1539,743,0,0
322,281,0,0,0,0,0,0,0,0,0,-1,1546,743,0,0
329,281,0,0,0,0,0,0,0,0,0,-1,1553,743,0,0
336,281,0,0,0,0,0,0,0,0,0,-1,1560,743,0,0
343,281,0,0,0,0,0,0,0,0,0,-1,1567,743,0,0
350,281,0,0,0,0,0,0,0,0,0,-1,1574,743,0,0
357,281,0,0,0,0,0,0,0,0,0,-1,1581,743,0,0
364,281,0,0,0,0,0,0,0,0,0,-1,1588,743,0,0
371,281,0,0,0,0,0,0,0,0,0,-1,1595,743,0,0
378,281,0,0,0,0,0,0,0,0,0,-1,1602,743,0,0
385,281,0,0,0,0,0,0,0,0,0,-1,1609,743,0,0
392,281,0,0,0,0,0,0,0,0,0,-1,1616,743,0,0
399,281,0,0,0,0,0,0,0,0,0,-1,1623,743,0,0
406,281,0,0,0,0,0,0,0,0,0,-1,1630,743,0,0
413,281,0,0,0,0,0,0,0,0,0,-1,1637,743,0,0
420,281,0,0,0,0,0,0,0,0,0,-1,1644,743,0,0
427,281,0,0,0,0,0,0,0,0,0,-1,1651,743,0,0
434,281,0,0,0,0,0,0,0,0,0,-1,1658,743,0,0
441,281,0,0,0,0,0,0,0,0,0,-1,1665,743,0,0
448,281,0,0,0,0,0,0,0,0,0,-1,1672,743,0,0
455,281,0,0,0,0,0,0,0,0,0,-1,1679,743,0,0
462,281,0,0,0,0,0,0,0,0,0,-1,1686,743,0,0
469,281,0,0,0,0,0,0,0,0,0,-1,1693,743,0,0
476,281,0,0,0,0,0,0,0,0,0,-1,1700,743,0,0
483,281,0,0,0,0,0,0,0,0,0,-1,1707,743,0,0
490,281,0,0,0,0,0,0,0,0,0,-1,1714,743,0,0
497,281,0,0,0,0,0,0,0,0,0,-1,1721,743,0,0
504,281,0,0,0,0,0,0,0,0,0,-1,1728,743,0,0
511,281,0,0,0,0,0,0,0,0,0,-1,1735,743,0,0
518,281,0,0,0,0,0,0,0,0,0,-1,1742,743,0,0
525,281,0,0,0,0,0,0,0,0,0,-1,1749,743,0,0
532,281,0,0,0,0,0,0,0,0,0,-1,1756,743,0,0
539,281,0,0,0,0,0,0,0,0,0,-1,1763,743,0,0
546,281,0,0,0,0,0,0,0,0,0,-1,1770,743,0,0
553,281,0,0,0,0,0,0,0,0,0,-1,1777,743,0,0
560,281,20.8184,3.17651,0,0,0,0,0,0,0,-1,1784,743,20.8183,-3.17654
567,281,19.7344,3.88391,0,0,0,0,0,0,0,-1,1791,743,19.7343,-3.88388
574,281,23.7505,0.794189,0,0,0,0,0,0,0,-1,1798,743,23.7505,-0.794182
581,281,23.809,0.941223,-0.00203944,-0.0538984,0.0414057,0.0208857,-0.0768235,0.505657,0.0594141,0.0492801,1805,743,23.809,-0.941197
588,281,23.2261,1.27679,-0.00155867,-0.0410985,0.0311304,0.0155489,-0.0582061,0.502495,0.0448937,0.0459132,1812,743,23.226,-1.27681
595,281,24.0952,1.41425,0,0,0,0,0,0,0,-1,1819,743,24.0953,-1.41427
602,281,20.0599,3.05743,0,0,0,0,0,0,0,-1,1826,743,20.0599,-3.05743
609,281,23.8007,2.67352,0,0,0,0,0,0,0,-1,1833,743,23.8006,-2.67352
616,281,18.9973,0.716797,0,0,0,0,0,0,0,-1,1840,743,18.9973,-0.716792
623,281,14.312,0.5802,0,0,0,0,0,0,0,-1,1847,743,14.3121,-0.58022
630,281,14.2573,0.714478,-0.00383153,-0.00164444,-0.00219062,-0.00028959,-0.00518638,-1.0169,0.00336521,0.0350947,1854,743,14.2574,-0.71446
637,281,14.2094,0.86499,-0.00343156,0.00126498,-0.00432027,0.00383394,-0.00600051,-1.03434,0.00572367,0.0135516,1861,743,14.2093,-0.864999
644,281,14.2295,1.11322,-0.0031001,0.0023491,-0.00484585,0.00518378,-0.00593479,-1.0415,0.00642419,0.0107965,1868,743,14.2295,-1.11319
651,281,14.2424,1.36316,-0.0024699,0.00136877,-0.00362992,0.00355555,-0.00465668,-1.02859,0.00475552,0.0122378,1875,743,14.2425,-1.36313
658,281,14.2357,1.61938,-0.00160662,0.00082267,-0.00260629,0.00248345,-0.0032674,-1.00346,0.00333053,0.0197491,1882,743,14.2358,-1.61938
665,281,14.2323,1.84058,-0.000295581,0.000317357,-0.00141954,0.00146313,-0.00144135,-0.891713,0.00167692,0.0204959,1889,743,14.2323,-1.84055
672,281,14.2217,2.11713,0.00162483,-0.000133167,-0.000815138,0.00194462,-0.000452954,-0.37386,0.00147083,0.0127008,1896,743,14.2217,-2.11711
679,281,14.2161,2.35889,0.00369901,1.81196e-05,-0.000371976,0.00373622,-1.90947e-05,-0.0997129,0.0024972,0.0186417,1903,743,14.216,-2.35887
686,281,14.1974,2.57349,0.00652601,5.71746e-05,-0.000130205,0.00652863,5.45552e-05,-0.0201172,0.00433435,0.0142289,1910,743,14.1973,-2.57349
693,281,14.2072,2.82245,0.0103622,-2.39993e-05,9.27376e-05,0.010363,-2.48272e-05,0.00892798,0.00691697,0.0106256,1917,743,14.2071,-2.82243
700,281,14.2113,3.04712,0.0155481,-0.000378847,0.000320846,0.0155546,-0.000385307,0.020134,0.0105005,0.0174264,1924,743,14.2114,-3.04709
707,281,14.2061,3.22449,0.0227495,-0.00121576,0.000532494,0.0227614,-0.00122759,0.0222048,0.0155995,0.0358816,1931,743,14.206,-3.22449
714,281,14.2277,3.69189,0,0,0,0,0,0,0,-1,1938,743,14.2277,-3.69189
721,281,16.2976,5.0849,0,0,0,0,0,0,0,-1,1945,743,16.2977,-5.08492
728,281,14.1503,3.22754,0,0,0,0,0,0,0,-1,1952,743,14.1503,-3.22756
735,281,16.7875,2.70435,0,0,0,0,0,0,0,-1,1959,743,16.7875,-2.70433
742,281,0,0,0,0,0,0,0,0,0,-1,1966,743,0,0
749,281,0,0,0,0,0,0,0,0,0,-1,1973,743,0,0
756,281,0,0,0,0,0,0,0,0,0,-1,1980,743,0,0
763,281,0,0,0,0,0,0,0,0,0,-1,1987,743,0,0
770,281,0,0,0,0,0,0,0,0,0,-1,1994,743,0,0
777,281,0,0,0,0,0,0,0,0,0,-1,2001,743,0,0
784,281,0,0,0,0,0,0,0,0,0,-1,2008,743,0,0
791,281,0,0,0,0,0,0,0,0,0,-1,2015,743,0,0
798,281,0,0,0,0,0,0,0,0,0,-1,2022,743,0,0
805,281,0,0,0,0,0,0,0,0,0,-1,2029,743,0,0
812,281,0,0,0,0,0,0,0,0,0,-1,2036,743,0,0
-700,274,0,0,0,0,0,0,0,0,0,-1,524,750,0,0
-693,274,0,0,0,0,0,0,0,0,0,-1,531,750,0,0
-686,274,0,0,0,0,0,0,0,0,0,-1,538,750,0,0
-679,274,0,0,0,0,0,0,0,0,0,-1,545,750,0,0
-672,274,0,0,0,0,0,0,0,0,0,-1,552,750,0,0
-665,274,0,0,0,0,0,0,0,0,0,-1,559,750,0,0
-658,274,0,0,0,0,0,0,0,0,0,-1,566,750,0,0
-651,274,0,0,0,0,0,0,0,0,0,-1,573,750,0,0
-644,274,0,0,0,0,0,0,0,0,0,-1,580,750,0,0
-637,274,0,0,0,0,0,0,0,0,0,-1,587,750,0,0
-630,274,0,0,0,0,0,0,0,0,0,-1,594,750,0,0
-623,274,-8.24066,-0.199097,0,0,0,0,0,0,0,-1,601,750,-8.24064,0.199101
-616,274,-6.00043,2.0332,0,0,0,0,0,0,0,-1,608,750,-6.00045,-2.03323
-609,274,-5.93671,1.71143,-0.018914,0.0132878,0.0166022,0.0203142,-0.0259405,1.17043,0.0267709,0.0463168,615,750,-5.9367,-1.71144
-602,274,-6.09863,1.27521,-0.01677,0.00964007,0.0132948,0.0151734,-0.0223033,1.1764,0.0217673,0.0471799,622,750,-6.09862,-1.27524
-595,274,-6.32837,0.630615,0,0,0,0,0,0,0,-1,629,750,-6.32835,-0.630613
-588,274,-7.93323,1.49628,0,0,0,0,0,0,0,-1,636,750,-7.93321,-1.4963
-581,274,-7.97888,1.25806,-0.0114576,0.00113978,0.0072495,0.00444466,-0.0147625,1.14307,0.0116104,0.0393424,643,750,-7.97887,-1.25807
-574,274,-8.03107,1.00677,-0.00962588,-0.000347256,0.00582264,0.00245832,-0.0124315,1.12178,0.00921701,0.020125,650,750,-8.03105,-1.0068
-567,274,-8.1131,0.809448,-0.00779973,-0.00116702,0.00471149,0.00127826,-0.010245,1.09206,0.00729352,0.0176996,657,750,-8.11312,-0.809445
-560,274,-8.13495,0.582153,-0.00629821,-0.00169626,0.00388221,0.000515646,-0.00851011,1.05291,0.00585286,0.0143736,664,750,-8.13492,-0.582169
-553,274,-8.11328,0.378784,-0.00509086,-0.00127019,0.00281537,0.000221784,-0.00658284,1.08349,0.00446432,0.00883824,671,750,-8.1133,-0.378755
-546,274,-8.10846,0.159607,-0.00423772,-0.00118466,0.00223735,-2.68058e-06,-0.0054197,1.08477,0.00361224,0.0102509,678,750,-8.10846,-0.15961
-539,274,-8.11298,-0.0655518,-0.00405983,-0.000961705,0.0021794,0.000163066,-0.0051846,1.09436,0.00351201,0.0108991,685,750,-8.11295,0.0655593
-532,274,-8.12225,-0.298767,-0.00468821,0.000265707,0.00252192,0.00132363,-0.00574613,1.1736,0.00433978,0.0115442,692,750,-8.12228,0.298756
-525,274,-8.12177,-0.538147,-0.00616521,0.00274413,0.00360833,0.00402218,-0.00744326,1.23039,0.00671708,0.012018,699,750,-8.12176,0.538127
-518,274,-8.11823,-0.783997,-0.00740633,0.00544633,0.00486324,0.00707909,-0.00903909,1.24689,0.00932874,0.0118137,706,750,-8.11822,0.783973
-511,274,-8.14032,-1.03601,-0.00840673,0.00885347,0.00738982,0.0115851,-0.0111383,1.21673,0.0131202,0.0114347,713,750,-8.14031,1.03601
-504,274,-8.13232,-1.28473,-0.00881835,0.0131974,0.0118453,0.01836,-0.013981,1.15978,0.018729,0.0204766,720,750,-8.13233,1.28473
-497,274,-8.15375,-1.23676,-0.00832153,0.0183532,0.0174518,0.0269806,-0.0169489,1.11167,0.0255822,0.0451051,727,750,-8.15374,1.23673
-490,274,-8.29016,-0.991577,-0.00760245,0.0240014,0.0237954,0.0367638,-0.0203648,1.0785,0.0334331,0.0489046,734,750,-8.29018,0.991579
-483,274,-8.51245,-0.490295,-0.00548246,0.0299141,0.0316009,0.0484353,-0.0240036,1.04066,0.0426081,0.0486466,741,750,-8.51242,0.490306
-476,274,-8.68231,-0.031189,-0.00167522,0.0357351,0.0408857,0.0619913,-0.0279314,0.999934,0.0531438,0.046185,748,750,-8.68232,0.0311636
-469,274,-8.67004,0.285034,0,0,0,0,0,0,0,-1,755,750,-8.67002,-0.285053
-462,274,-14.9158,0.659241,0.0118625,0.0454085,0.0635922,0.0944026,-0.0371316,0.914341,0.078304,0.0432338,762,750,-14.9158,-0.659251
-455,274,-14.4692,1.5611,0.0225403,0.0477886,0.0766878,0.112884,-0.0425555,0.866975,0.0927546,0.0416904,769,750,-14.4692,-1.56108
-448,274,-14.0601,2.09705,0.0364082,0.0473676,0.0887292,0.130786,-0.0470103,0.816238,0.106381,0.0437104,776,750,-14.06,-2.09706
-441,274,0,0,0,0,0,0,0,0,0,-1,783,750,0,0
-434,274,0,0,0,0,0,0,0,0,0,-1,790,750,0,0
-427,274,0,0,0,0,0,0,0,0,0,-1,797,750,0,0
-420,274,0,0,0,0,0,0,0,0,0,-1,804,750,0,0
-413,274,0,0,0,0,0,0,0,0,0,-1,811,750,0,0
-406,274,0,0,0,0,0,0,0,0,0,-1,818,750,0,0
-399,274,0,0,0,0,0,0,0,0,0,-1,825,750,0,0
-392,274,0,0,0,0,0,0,0,0,0,-1,832,750,0,0
-385,274,0,0,0,0,0,0,0,0,0,-1,839,750,0,0
-378,274,0,0,0,0,0,0,0,0,0,-1,846,750,0,0
-371,274,0,0,0,0,0,0,0,0,0,-1,853,750,0,0
-364,274,0,0,0,0,0,0,0,0,0,-1,860,750,0,0
-357,274,0,0,0,0,0,0,0,0,0,-1,867,750,0,0
-350,274,0,0,0,0,0,0,0,0,0,-1,874,750,0,0
-343,274,0,0,0,0,0,0,0,0,0,-1,881,750,0,0
-336,274,0,0,0,0,0,0,0,0,0,-1,888,750,0,0
-329,274,0,0,0,0,0,0,0,0,0,-1,895,750,0,0
-322,274,0,0,0,0,0,0,0,0,0,-1,902,750,0,0
-315,274,0,0,0,0,0,0,0,0,0,-1,909,750,0,0
-308,274,0,0,0,0,0,0,0,0,0,-1,916,750,0,0
-301,274,0,0,0,0,0,0,0,0,0,-1,923,750,0,0
-294,274,0,0,0,0,0,0,0,0,0,-1,930,750,0,0
-287,274,0,0,0,0,0,0,0,0,0,-1,937,750,0,0
-280,274,0,0,0,0,0,0,0,0,0,-1,944,750,0,0
-273,274,0,0,0,0,0,0,0,0,0,-1,951,750,0,0
-266,274,0,0,0,0,0,0,0,0,0,-1,958,750,0,0
-259,274,0,0,0,0,0,0,0,0,0,-1,965,750,0,0
-252,274,0,0,0,0,0,0,0,0,0,-1,972,750,0,0
-245,274,0,0,0,0,0,0,0,0,0,-1,979,750,0,0
-238,274,0,0,0,0,0,0,0,0,0,-1,986,750,0,0
-231,274,0,0,0,0,0,0,0,0,0,-1,993,750,0,0
-224,274,0,0,0,0,0,0,0,0,0,-1,1000,750,0,0
-217,274,0,0,0,0,0,0,0,0,0,-1,1007,750,0,0
-210,274,0,0,0,0,0,0,0,0,0,-1,1014,750,0,0
-203,274,0,0,0,0,0,0,0,0,0,-1,1021,750,0,0
-196,274,0,0,0,0,0,0,0,0,0,-1,1028,750,0,0
-189,274,0,0,0,0,0,0,0,0,0,-1,1035,750,0,0
-182,274,0,0,0,0,0,0,0,0,0,-1,1042,750,0,0
-175,274,0,0,0,0,0,0,0,0,0,-1,1049,750,0,0
-168,274,0,0,0,0,0,0,0,0,0,-1,1056,750,0,0
-161,274,0,0,0,0,0,0,0,0,0,-1,1063,750,0,0
-154,274,0,0,0,0,0,0,0,0,0,-1,1070,750,0,0
-147,274,0,0,0,0,0,0,0,0,0,-1,1077,750,0,0
-140,274,0,0,0,0,0,0,0,0,0,-1,1084,750,0,0
-133,274,0,0,0,0,0,0,0,0,0,-1,1091,750,0,0
-126,274,0,0,0,0,0,0,0,0,0,-1,1098,750,0,0
-119,274,0,0,0,0,0,0,0,0,0,-1,1105,750,0,0
-112,274,0,0,0,0,0,0,0,0,0,-1,1112,750,0,0
-105,274,0,0,0,0,0,0,0,0,0,-1,1119,750,0,0
-98,274,0,0,0,0,0,0,0,0,0,-1,1126,750,0,0
-91,274,0,0,0,0,0,0,0,0,0,-1,1133,750,0,0
-84,274,0,0,0,0,0,0,0,0,0,-1,1140,750,0,0
-77,274,0,0,0,0,0,0,0,0,0,-1,1147,750,0,0
-70,274,0,0,0,0,0,0,0,0,0,-1,1154,750,0,0
-63,274,0,0,0,0,0,0,0,0,0,-1,1161,750,0,0
-56,274,0,0,0,0,0,0,0,0,0,-1,1168,750,0,0
-49,274,0,0,0,0,0,0,0,0,0,-1,1175,750,0,0
-42,274,0,0,0,0,0,0,0,0,0,-1,1182,750,0,0
-35,274,0,0,0,0,0,0,0,0,0,-1,1189,750,0,0
-28,274,0,0,0,0,0,0,0,0,0,-1,1196,750,0,0
-21,274,0,0,0,0,0,0,0,0,0,-1,1203,750,0,0
-14,274,0,0,0,0,0,0,0,0,0,-1,1210,750,0,0
-7,274,0,0,0,0,0,0,0,0,0,-1,1217,750,0,0
0,274,0,0,0,0,0,0,0,0,0,-1,1224,750,0,0
7,274,0,0,0,0,0,0,0,0,0,-1,1231,750,0,0
14,274,0,0,0,0,0,0,0,0,0,-1,1238,750,0,0
21,274,0,0,0,0,0,0,0,0,0,-1,1245,750,0,0
28,274,0,0,0,0,0,0,0,0,0,-1,1252,750,0,0
35,274,0,0,0,0,0,0,0,0,0,-1,1259,750,0,0
42,274,0,0,0,0,0,0,0,0,0,-1,1266,750,0,0
49,274,0,0,0,0,0,0,0,0,0,-1,1273,750,0,0
56,274,0,0,0,0,0,0,0,0,0,-1,1280,750,0,0
63,274,0,0,0,0,0,0,0,0,0,-1,1287,750,0,0
70,274,0,0,0,0,0,0,0,0,0,-1,1294,750,0,0
77,274,0,0,0,0,0,0,0,0,0,-1,1301,750,0,0
84,274,0,0,0,0,0,0,0,0,0,-1,1308,750,0,0
91,274,0,0,0,0,0,0,0,0,0,-1,1315,750,0,0
98,274,0,0,0,0,0,0,0,0,0,-1,1322,750,0,0
105,274,0,0,0,0,0,0,0,0,0,-1,1329,750,0,0
112,274,0,0,0,0,0,0,0,0,0,-1,1336,750,0,0
119,274,0,0,0,0,0,0,0,0,0,-1,1343,750,0,0
126,274,0,0,0,0,0,0,0,0,0,-1,1350,750,0,0
133,274,0,0,0,0,0,0,0,0,0,-1,1357,750,0,0
140,274,0,0,0,0,0,0,0,0,0,-1,1364,750,0,0
147,274,0,0,0,0,0,0,0,0,0,-1,1371,750,0,0
154,274,0,0,0,0,0,0,0,0,0,-1,1378,750,0,0
161,274,0,0,0,0,0,0,0,0,0,-1,1385,750,0,0
168,274,0,0,0,0,0,0,0,0,0,-1,1392,750,0,0
175,274,0,0,0,0,0,0,0,0,0,-1,1399,750,0,0
182,274,0,0,0,0,0,0,0,0,0,-1,1406,750,0,0
189,274,0,0,0,0,0,0,0,0,0,-1,1413,750,0,0
196,274,0,0,0,0,0,0,0,0,0,-1,1420,750,0,0
203,274,0,0,0,0,0,0,0,0,0,-1,1427,750,0,0
210,274,0,0,0,0,0,0,0,0,0,-1,1434,750,0,0
217,274,0,0,0,0,0,0,0,0,0,-1,1441,750,0,0
224,274,0,0,0,0,0,0,0,0,0,-1,1448,750,0,0
231,274,0,0,0,0,0,0,0,0,0,-1,1455,750,0,0
238,274,0,0,0,0,0,0,0,0,0,-1,1462,750,0,0
245,274,0,0,0,0,0,0,0,0,0,-1,1469,750,0,0
252,274,0,0,0,0,0,0,0,0,0,-1,1476,750,0,0
259,274,0,0,0,0,0,0,0,0,0,-1,1483,750,0,0
266,274,0,0,0,0,0,0,0,0,0,-1,1490,750,0,0
273,274,0,0,0,0,0,0,0,0,0,-1,1497,750,0,0
280,274,0,0,0,0,0,0,0,0,0,-1,1504,750,0,0
287,274,0,0,0,0,0,0,0,0,0,-1,1511,750,0,0
294,274,0,0,0,0,0,0,0,0,0,-1,1518,750,0,0
301,274,0,0,0,0,0,0,0,0,0,-1,1525,750,0,0
308,274,0,0,0,0,0,0,0,0,0,-1,1532,750,0,0
315,274,0,0,0,0,0,0,0,0,0,-1,1539,750,0,0
322,274,0,0,0,0,0,0,0,0,0,-1,1546,750,0,0
329,274,0,0,0,0,0,0,0,0,0,-1,1553,750,0,0
336,274,0,0,0,0,0,0,0,0,0,-1,1560,750,0,0
343,274,0,0,0,0,0,0,0,0,0,-1,1567,750,0,0
350,274,0,0,0,0,0,0,0,0,0,-1,1574,750,0,0
357,274,0,0,0,0,0,0,0,0,0,-1,1581,750,0,0
364,274,0,0,0,0,0,0,0,0,0,-1,1588,750,0,0
371,274,0,0,0,0,0,0,0,0,0,-1,1595,750,0,0
378,274,0,0,0,0,0,0,0,0,0,-1,1602,750,0,0
385,274,0,0,0,0,0,0,0,0,0,-1,1609,750,0,0
392,274,0,0,0,0,0,0,0,0,0,-1,1616,750,0,0
399,274,0,0,0,0,0,0,0,0,0,-1,1623,750,0,0
406,274,0,0,0,0,0,0,0,0,0,-1,1630,750,0,0
413,274,0,0,0,0,0,0,0,0,0,-1,1637,750,0,0
420,274,0,0,0,0,0,0,0,0,0,-1,1644,750,0,0
427,274,0,0,0,0,0,0,0,0,0,-1,1651,750,0,0
434,274,0,0,0,0,0,0,0,0,0,-1,1658,750,0,0
441,274,0,0,0,0,0,0,0,0,0,-1,1665,750,0,0
448,274,0,0,0,0,0,0,0,0,0,-1,1672,750,0,0
455,274,0,0,0,0,0,0,0,0,0,-1,1679,750,0,0
462,274,0,0,0,0,0,0,0,0,0,-1,1686,750,0,0
469,274,0,0,0,0,0,0,0,0,0,-1,1693,750,0,0
476,274,0,0,0,0,0,0,0,0,0,-1,1700,750,0,0
483,274,0,0,0,0,0,0,0,0,0,-1,1707,750,0,0
490,274,0,0,0,0,0,0,0,0,0,-1,1714,750,0,0
497,274,0,0,0,0,0,0,0,0,0,-1,1721,750,0,0
504,274,0,0,0,0,0,0,0,0,0,-1,1728,750,0,0
511,274,0,0,0,0,0,0,0,0,0,-1,1735,750,0,0
518,274,0,0,0,0,0,0,0,0,0,-1,1742,750,0,0
525,274,0,0,0,0,0,0,0,0,0,-1,1749,750,0,0
532,274,0,0,0,0,0,0,0,0,0,-1,1756,750,0,0
539,274,0,0,0,0,0,0,0,0,0,-1,1763,750,0,0
546,274,0,0,0,0,0,0,0,0,0,-1,1770,750,0,0
553,274,0,0,0,0,0,0,0,0,0,-1,1777,750,0,0
560,274,20.792,3.05511,0,0,0,0,0,0,0,-1,1784,750,20.792,-3.05511
567,274,20.4089,3.43829,0,0,0,0,0,0,0,-1,1791,750,20.409,-3.43832
574,274,22.9962,1.66547,0,0,0,0,0,0,0,-1,1798,750,22.9962,-1.66547
581,274,23.0529,1.66193,-0.00102403,-0.0472628,0.0349857,0.0177911,-0.0660779,0.493425,0.0510269,0.047068,1805,750,23.0529,-1.66192
588,274,22.9625,1.73145,-0.00155633,-0.0364203,0.0260702,0.012373,-0.0503496,0.490709,0.0383617,0.0459435,1812,750,22.9626,-1.73145
595,274,23.6375,2.6568,0,0,0,0,0,0,0,-1,1819,750,23.6375,-2.65682
602,274,23.327,2.80438,0,0,0,0,0,0,0,-1,1826,750,23.3271,-2.80438
609,274,23.2776,2.48816,0,0,0,0,0,0,0,-1,1833,750,23.2776,-2.48814
616,274,22.9994,2.57703,0,0,0,0,0,0,0,-1,1840,750,22.9994,-2.57701
623,274,14.7885,0.512756,0,0,0,0,0,0,0,-1,1847,750,14.7884,-0.512728
630,274,14.6307,0.67395,-0.00380414,-0.00120835,-0.00304726,0.000805902,-0.00581839,-0.986724,0.00417358,0.0428574,1854,750,14.6308,-0.673934
637,274,14.4528,0.860168,-0.00352198,0.00147291,-0.0050638,0.00462164,-0.00667071,-1.01449,0.00655533,0.0144808,1861,750,14.4527,-0.860147
644,274,14.4509,1.10925,-0.00336464,0.00246493,-0.00563501,0.00589438,-0.00679409,-1.02408,0.00733183,0.0123855,1868,750,14.4509,-1.10923
651,274,14.4763,1.354,-0.00277649,0.00140427,-0.00442426,0.00420712,-0.00557935,-1.00609,0.0056687,0.0135738,1875,750,14.4763,-1.35398
658,274,14.4897,1.60931,-0.00187788,0.000761926,-0.00334499,0.00303801,-0.00415396,-0.973315,0.00416891,0.0163279,1882,750,14.4898,-1.60929
665,274,14.485,1.87451,-0.000603352,0.000136794,-0.00199452,0.00179528,-0.00226184,-0.877128,0.00234754,0.0165498,1889,750,14.485,-1.87454
672,274,14.4885,2.11066,0.0011625,-0.00040225,-0.00121568,0.00182581,-0.00106556,-0.499477,0.00168846,0.0134705,1896,750,14.4885,-2.11065
679,274,14.4803,2.33667,0.00303465,-0.000169517,-0.000687398,0.00317589,-0.00031076,-0.202655,0.00222808,0.0138953,1903,750,14.4803,-2.33668
686,274,14.4718,2.57697,0.00551701,1.04593e-05,-0.000401452,0.00554612,-1.86546e-05,-0.0723943,0.00370365,0.0152302,1910,750,14.4719,-2.57698
693,274,14.4518,2.83667,0.00883565,0.000123201,-0.000131633,0.00883764,0.000121213,-0.0151041,0.00585177,0.0123416,1917,750,14.4518,-2.8367
700,274,14.4601,3.08881,0.0131366,4.02794e-05,9.36872e-05,0.0131372,3.96096e-05,0.00715324,0.00874498,0.0133588,1924,750,14.4601,-3.08879
707,274,14.4749,3.32507,0.0189864,-0.000430364,0.000262256,0.0189899,-0.000433906,0.0135034,0.012807,0.0201665,1931,750,14.4749,-3.32508
714,274,14.486,3.59717,0.0266507,-0.00134696,0.000424413,0.0266572,-0.00135339,0.0151542,0.0182393,0.0393504,1938,750,14.4859,-3.59719
721,274,14.5161,3.87091,0.0363717,-0.00275428,0.00060714,0.0363812,-0.0027637,0.0155126,0.0252258,0.0469831,1945,750,14.5161,-3.87093
728,274,14.6566,4.04016,0,0,0,0,0,0,0,-1,1952,750,14.6566,-4.04014
735,274,14.9237,2.3988,0,0,0,0,0,0,0,-1,1959,750,14.9236,-2.39878
742,274,11.7815,-0.740234,0,0,0,0,0,0,0,-1,1966,750,11.7815,0.740253
749,274,0,0,0,0,0,0,0,0,0,-1,1973,750,0,0
756,274,0,0,0,0,0,0,0,0,0,-1,1980,750,0,0
763,274,0,0,0,0,0,0,0,0,0,-1,1987,750,0,0
770,274,0,0,0,0,0,0,0,0,0,-1,1994,750,0,0
777,274,0,0,0,0,0,0,0,0,0,-1,2001,750,0,0
784,274,0,0,0,0,0,0,0,0,0,-1,2008,750,0,0
791,274,0,0,0,0,0,0,0,0,0,-1,2015,750,0,0
798,274,0,0,0,0,0,0,0,0,0,-1,2022,750,0,0
805,274,0,0,0,0,0,0,0,0,0,-1,2029,750,0,0
812,274,0,0,0,0,0,0,0,0,0,-1,2036,750,0,0
-700,267,0,0,0,0,0,0,0,0,0,-1,524,757,0,0
-693,267,0,0,0,0,0,0,0,0,0,-1,531,757,0,0
-686,267,0,0,0,0,0,0,0,0,0,-1,538,757,0,0
-679,267,0,0,0,0,0,0,0,0,0,-1,545,757,0,0
-672,267,0,0,0,0,0,0,0,0,0,-1,552,757,0,0
-665,267,0,0,0,0,0,0,0,0,0,-1,559,757,0,0
-658,267,0,0,0,0,0,0,0,0,0,-1,566,757,0,0
-651,267,0,0,0,0,0,0,0,0,0,-1,573,757,0,0
-644,267,0,0,0,0,0,0,0,0,0,-1,580,757,0,0
-637,267,0,0,0,0,0,0,0,0,0,-1,587,757,0,0
-630,267,-9.50287,0.0358887,0,0,0,0,0,0,0,-1,594,757,-9.50285,-0.0358874
-623,267,-9.0166,0.152588,0,0,0,0,0,0,0,-1,601,757,-9.01659,-0.152604
-616,267,-6.92169,2.53839,0,0,0,0,0,0,0,-1,608,757,-6.92169,-2.53837
-609,267,-6.99152,1.9704,-0.0126252,0.0214012,0.00866693,0.0234816,-0.0147056,1.33522,0.0222406,0.0466069,615,757,-6.99152,-1.9704
-602,267,-7.19037,1.36865,-0.0114236,0.0154486,0.00743171,0.017367,-0.013342,1.31818,0.0177805,0.0463593,622,757,-7.1904,-1.36867
-595,267,-8.33234,1.52466,0,0,0,0,0,0,0,-1,629,757,-8.33234,-1.52463
-588,267,-8.22876,1.39734,-0.009023,0.00627248,0.00562646,0.00811922,-0.0108697,1.25365,0.0110015,0.0436383,636,757,-8.22878,-1.39737
-581,267,-8.25269,1.23761,-0.00821166,0.0030524,0.0050321,0.00497298,-0.0101322,1.2062,0.00888895,0.0267344,643,757,-8.2527,-1.23763
-574,267,-8.31476,1.0163,-0.00694398,0.00095209,0.00418573,0.00275795,-0.00874984,1.16349,0.00693774,0.0139639,650,757,-8.31475,-1.01628
-567,267,-8.33936,0.816833,-0.00566892,-0.000352027,0.00355503,0.00142863,-0.00744957,1.10644,0.00550473,0.0214709,657,757,-8.33938,-0.816835
-560,267,-8.34424,0.598938,-0.00470715,-0.00127971,0.0031256,0.000571148,-0.00655801,1.03616,0.00457429,0.0215636,664,757,-8.34422,-0.598957
-553,267,-8.35889,0.389771,-0.00397832,-0.00102875,0.0023361,0.000259136,-0.00526621,1.06696,0.0036003,0.0169727,671,757,-8.35891,-0.389776
-546,267,-8.33997,0.154663,-0.00362918,-0.00105588,0.00203101,6.17288e-05,-0.00474679,1.06774,0.0031853,0.0111286,678,757,-8.33997,-0.154681
-539,267,-8.34021,-0.0753174,-0.00408017,-0.000862567,0.00219338,0.000248769,-0.00519151,1.10182,0.00354684,0.00997132,685,757,-8.34022,0.0752883
-532,267,-8.34796,-0.317383,-0.0052685,0.000475754,0.00275026,0.00158019,-0.00637293,1.18893,0.00486172,0.010157,692,757,-8.34795,0.317389
-525,267,-8.34521,-0.549561,-0.00717571,0.00307021,0.00398587,0.00443816,-0.00854366,1.24019,0.00761897,0.0101126,699,757,-8.34523,0.549558
-518,267,-8.35199,-0.767334,-0.00877385,0.00579898,0.00521213,0.00747126,-0.0104461,1.26033,0.010392,0.0100302,706,757,-8.352,0.767357
-511,267,-8.35107,-1.00879,-0.0100618,0.00918099,0.00756552,0.0117992,-0.01268,1.23762,0.0141361,0.0140683,713,757,-8.35105,1.0088
-504,267,-8.37555,-1.19086,-0.0108173,0.0135062,0.0115826,0.0181392,-0.0154503,1.19029,0.0194136,0.0282542,720,757,-8.37552,1.19084
-497,267,-8.44373,-1.28088,-0.0106723,0.0186465,0.0166355,0.0261601,-0.0181858,1.14657,0.0257407,0.047674,727,757,-8.44375,1.28088
-490,267,-8.56421,-1.28638,-0.0102847,0.0242911,0.0223329,0.0352455,-0.0212392,1.11477,0.0329439,0.0485505,734,757,-8.56422,1.28641
-483,267,-8.98193,-1.45996,-0.0084994,0.0302279,0.0293727,0.0460453,-0.0243168,1.07682,0.0412642,0.045083,741,757,-8.98192,1.45997
-476,267,-9.66119,-1.44226,-0.00495678,0.036084,0.0377844,0.0585606,-0.0274334,1.03416,0.0507213,0.0441991,748,757,-9.66122,1.44225
-469,267,-10.625,-1.13989,0,0,0,0,0,0,0,-1,755,757,-10.625,1.13988
-462,267,-11.5583,-1.08325,0,0,0,0,0,0,0,-1,762,757,-11.5583,1.08323
-455,267,-15.1425,1.13672,0,0,0,0,0,0,0,-1,769,757,-15.1424,-1.13674
-448,267,-14.1798,1.396,0,0,0,0,0,0,0,-1,776,757,-14.1798,-1.39597
-441,267,0,0,0,0,0,0,0,0,0,-1,783,757,0,0
-434,267,0,0,0,0,0,0,0,0,0,-1,790,757,0,0
-427,267,0,0,0,0,0,0,0,0,0,-1,797,757,0,0
-420,267,0,0,0,0,0,0,0,0,0,-1,804,757,0,0
-413,267,0,0,0,0,0,0,0,0,0,-1,811,757,0,0
-406,267,0,0,0,0,0,0,0,0,0,-1,818,757,0,0
-399,267,0,0,0,0,0,0,0,0,0,-1,825,757,0,0
-392,267,0,0,0,0,0,0,0,0,0,-1,832,757,0,0
-385,267,0,0,0,0,0,0,0,0,0,-1,839,757,0,0
-378,267,0,0,0,0,0,0,0,0,0,-1,846,757,0,0
-371,267,0,0,0,0,0,0,0,0,0,-1,853,757,0,0
-364,267,0,0,0,0,0,0,0,0,0,-1,860,757,0,0
-357,267,0,0,0,0,0,0,0,0,0,-1,867,757,0,0
-350,267,0,0,0,0,0,0,0,0,0,-1,874,757,0,0
-343,267,0,0,0,0,0,0,0,0,0,-1,881,757,0,0
-336,267,0,0,0,0,0,0,0,0,0,-1,888,757,0,0
-329,267,0,0,0,0,0,0,0,0,0,-1,895,757,0,0
-322,267,0,0,0,0,0,0,0,0,0,-1,902,757,0,0
-315,267,0,0,0,0,0,0,0,0,0,-1,909,757,0,0
-308,267,0,0,0,0,0,0,0,0,0,-1,916,757,0,0
-301,267,0,0,0,0,0,0,0,0,0,-1,923,757,0,0
-294,267,0,0,0,0,0,0,0,0,0,-1,930,757,0,0
-287,267,0,0,0,0,0,0,0,0,0,-1,937,757,0,0
-280,267,0,0,0,0,0,0,0,0,0,-1,944,757,0,0
-273,267,0,0,0,0,0,0,0,0,0,-1,951,757,0,0
-266,267,0,0,0,0,0,0,0,0,0,-1,958,757,0,0
-259,267,0,0,0,0,0,0,0,0,0,-1,965,757,0,0
-252,267,0,0,0,0,0,0,0,0,0,-1,972,757,0,0
-245,267,0,0,0,0,0,0,0,0,0,-1,979,757,0,0
-238,267,0,0,0,0,0,0,0,0,0,-1,986,757,0,0
-231,267,0,0,0,0,0,0,0,0,0,-1,993,757,0,0
-224,267,0,0,0,0,0,0,0,0,0,-1,1000,757,0,0
-217,267,0,0,0,0,0,0,0,0,0,-1,1007,757,0,0
-210,267,0,0,0,0,0,0,0,0,0,-1,1014,757,0,0
-203,267,0,0,0,0,0,0,0,0,0,-1,1021,757,0,0
-196,267,0,0,0,0,0,0,0,0,0,-1,1028,757,0,0
-189,267,0,0,0,0,0,0,0,0,0,-1,1035,757,0,0
-182,267,0,0,0,0,0,0,0,0,0,-1,1042,757,0,0
-175,267,0,0,0,0,0,0,0,0,0,-1,1049,757,0,0
-168,267,0,0,0,0,0,0,0,0,0,-1,1056,757,0,0
-161,267,0,0,0,0,0,0,0,0,0,-1,1063,757,0,0
-154,267,0,0,0,0,0,0,0,0,0,-1,1070,757,0,0
-147,267,0,0,0,0,0,0,0,0,0,-1,1077,757,0,0
-140,267,0,0,0,0,0,0,0,0,0,-1,1084,757,0,0
-133,267,0,0,0,0,0,0,0,0,0,-1,1091,757,0,0
-126,267,0,0,0,0,0,0,0,0,0,-1,1098,757,0,0
-119,267,0,0,0,0,0,0,0,0,0,-1,1105,757,0,0
-112,267,0,0,0,0,0,0,0,0,0,-1,1112,757,0,0
-105,267,0,0,0,0,0,0,0,0,0,-1,1119,757,0,0
-98,267,0,0,0,0,0,0,0,0,0,-1,1126,757,0,0
-91,267,0,0,0,0,0,0,0,0,0,-1,1133,757,0,0
-84,267,0,0,0,0,0,0,0,0,0,-1,1140,757,0,0
-77,267,0,0,0,0,0,0,0,0,0,-1,1147,757,0,0
-70,267,0,0,0,0,0,0,0,0,0,-1,1154,757,0,0
-63,267,0,0,0,0,0,0,0,0,0,-1,1161,757,0,0
-56,267,0,0,0,0,0,0,0,0,0,-1,1168,757,0,0
-49,267,0,0,0,0,0,0,0,0,0,-1,1175,757,0,0
-42,267,0,0,0,0,0,0,0,0,0,-1,1182,757,0,0
-35,267,0,0,0,0,0,0,0,0,0,-1,1189,757,0,0
-28,267,0,0,0,0,0,0,0,0,0,-1,1196,757,0,0
-21,267,0,0,0,0,0,0,0,0,0,-1,1203,757,0,0
-14,267,0,0,0,0,0,0,0,0,0,-1,1210,757,0,0
-7,267,0,0,0,0,0,0,0,0,0,-1,1217,757,0,0
0,267,0,0,0,0,0,0,0,0,0,-1,1224,757,0,0
7,267,0,0,0,0,0,0,0,0,0,-1,1231,757,0,0
14,267,0,0,0,0,0,0,0,0,0,-1,1238,757,0,0
21,267,0,0,0,0,0,0,0,0,0,-1,1245,757,0,0
28,267,0,0,0,0,0,0,0,0,0,-1,1252,757,0,0
35,267,0,0,0,0,0,0,0,0,0,-1,1259,757,0,0
42,267,0,0,0,0,0,0,0,0,0,-1,1266,757,0,0
49,267,0,0,0,0,0,0,0,0,0,-1,1273,757,0,0
56,267,0,0,0,0,0,0,0,0,0,-1,1280,757,0,0
63,267,0,0,0,0,0,0,0,0,0,-1,1287,757,0,0
70,267,0,0,0,0,0,0,0,0,0,-1,1294,757,0,0
77,267,0,0,0,0,0,0,0,0,0,-1,1301,757,0,0
84,267,0,0,0,0,0,0,0,0,0,-1,1308,757,0,0
91,267,0,0,0,0,0,0,0,0,0,-1,1315,757,0,0
98,267,0,0,0,0,0,0,0,0,0,-1,1322,757,0,0
105,267,0,0,0,0,0,0,0,0,0,-1,1329,757,0,0
112,267,0,0,0,0,0,0,0,0,0,-1,1336,757,0,0
119,267,0,0,0,0,0,0,0,0,0,-1,1343,757,0,0
126,267,0,0,0,0,0,0,0,0,0,-1,1350,757,0,0
133,267,0,0,0,0,0,0,0,0,0,-1,1357,757,0,0
140,267,0,0,0,0,0,0,0,0,0,-1,1364,757,0,0
147,267,0,0,0,0,0,0,0,0,0,-1,1371,757,0,0
154,267,0,0,0,0,0,0,0,0,0,-1,1378,757,0,0
161,267,0,0,0,0,0,0,0,0,0,-1,1385,757,0,0
168,267,0,0,0,0,0,0,0,0,0,-1,1392,757,0,0
175,267,0,0,0,0,0,0,0,0,0,-1,1399,757,0,0
182,267,0,0,0,0,0,0,0,0,0,-1,1406,757,0,0
189,267,0,0,0,0,0,0,0,0,0,-1,1413,757,0,0
196,267,0,0,0,0,0,0,0,0,0,-1,1420,757,0,0
203,267,0,0,0,0,0,0,0,0,0,-1,1427,757,0,0
210,267,0,0,0,0,0,0,0,0,0,-1,1434,757,0,0
217,267,0,0,0,0,0,0,0,0,0,-1,1441,757,0,0
224,267,0,0,0,0,0,0,0,0,0,-1,1448,757,0,0
231,267,0,0,0,0,0,0,0,0,0,-1,1455,757,0,0
238,267,0,0,0,0,0,0,0,0,0,-1,1462,757,0,0
245,267,0,0,0,0,0,0,0,0,0,-1,1469,757,0,0
252,267,0,0,0,0,0,0,0,0,0,-1,1476,757,0,0
259,267,0,0,0,0,0,0,0,0,0,-1,1483,757,0,0
266,267,0,0,0,0,0,0,0,0,0,-1,1490,757,0,0
273,267,0,0,0,0,0,0,0,0,0,-1,1497,757,0,0
280,267,0,0,0,0,0,0,0,0,0,-1,1504,757,0,0
287,267,0,0,0,0,0,0,0,0,0,-1,1511,757,0,0
294,267,0,0,0,0,0,0,0,0,0,-1,1518,757,0,0
301,267,0,0,0,0,0,0,0,0,0,-1,1525,757,0,0
308,267,0,0,0,0,0,0,0,0,0,-1,1532,757,0,0
315,267,0,0,0,0,0,0,0,0,0,-1,1539,757,0,0
322,267,0,0,0,0,0,0,0,0,0,-1,1546,757,0,0
329,267,0,0,0,0,0,0,0,0,0,-1,1553,757,0,0
336,267,0,0,0,0,0,0,0,0,0,-1,1560,757,0,0
343,267,0,0,0,0,0,0,0,0,0,-1,1567,757,0,0
350,267,0,0,0,0,0,0,0,0,0,-1,1574,757,0,0
357,267,0,0,0,0,0,0,0,0,0,-1,1581,757,0,0
364,267,0,0,0,0,0,0,0,0,0,-1,1588,757,0,0
371,267,0,0,0,0,0,0,0,0,0,-1,1595,757,0,0
378,267,0,0,0,0,0,0,0,0,0,-1,1602,757,0,0
385,267,0,0,0,0,0,0,0,0,0,-1,1609,757,0,0
392,267,0,0,0,0,0,0,0,0,0,-1,1616,757,0,0
399,267,0,0,0,0,0,0,0,0,0,-1,1623,757,0,0
406,267,0,0,0,0,0,0,0,0,0,-1,1630,757,0,0
413,267,0,0,0,0,0,0,0,0,0,-1,1637,757,0,0
420,267,0,0,0,0,0,0,0,0,0,-1,1644,757,0,0
427,267,0,0,0,0,0,0,0,0,0,-1,1651,757,0,0
434,267,0,0,0,0,0,0,0,0,0,-1,1658,757,0,0
441,267,0,0,0,0,0,0,0,0,0,-1,1665,757,0,0
448,267,0,0,0,0,0,0,0,0,0,-1,1672,757,0,0
455,267,0,0,0,0,0,0,0,0,0,-1,1679,757,0,0
462,267,0,0,0,0,0,0,0,0,0,-1,1686,757,0,0
469,267,0,0,0,0,0,0,0,0,0,-1,1693,757,0,0
476,267,0,0,0,0,0,0,0,0,0,-1,1700,757,0,0
483,267,0,0,0,0,0,0,0,0,0,-1,1707,757,0,0
490,267,0,0,0,0,0,0,0,0,0,-1,1714,757,0,0
497,267,0,0,0,0,0,0,0,0,0,-1,1721,757,0,0
504,267,0,0,0,0,0,0,0,0,0,-1,1728,757,0,0
511,267,0,0,0,0,0,0,0,0,0,-1,1735,757,0,0
518,267,0,0,0,0,0,0,0,0,0,-1,1742,757,0,0
525,267,0,0,0,0,0,0,0,0,0,-1,1749,757,0,0
532,267,0,0,0,0,0,0,0,0,0,-1,1756,757,0,0
539,267,0,0,0,0,0,0,0,0,0,-1,1763,757,0,0
546,267,0,0,0,0,0,0,0,0,0,-1,1770,757,0,0
553,267,0,0,0,0,0,0,0,0,0,-1,1777,757,0,0
560,267,0,0,0,0,0,0,0,0,0,-1,1784,757,0,0
567,267,21.2754,3.30396,0,0,0,0,0,0,0,-1,1791,757,21.2754,-3.30394
574,267,21.7429,2.86566,0.00601963,-0.0500059,0.0380896,0.0252882,-0.0692745,0.468338,0.0565304,0.0413019,1798,757,21.743,-2.86564
581,267,22.3262,2.27405,0.00153502,-0.0397045,0.0284777,0.0160743,-0.0542437,0.47205,0.0425451,0.0446428,1805,757,22.3262,-2.27403
588,267,22.7505,2.17389,-0.000208051,-0.0304158,0.0205271,0.0101732,-0.040797,0.468223,0.0311478,0.0459364,1812,757,22.7505,-2.17386
595,267,23.1179,2.48322,0,0,0,0,0,0,0,-1,1819,757,23.118,-2.48322
602,267,22.7458,2.65784,-0.00235222,-0.0147594,0.0077921,0.00140417,-0.0185158,0.449206,0.0128376,0.0481439,1826,757,22.7458,-2.65784
609,267,22.7156,2.65405,0,0,0,0,0,0,0,-1,1833,757,22.7156,-2.65404
616,267,22.3431,2.35101,0,0,0,0,0,0,0,-1,1840,757,22.3431,-2.35103
623,267,15.1587,0.366272,0,0,0,0,0,0,0,-1,1847,757,15.1587,-0.366287
630,267,15.0347,0.658325,-0.00344232,-0.000392651,-0.00394819,0.00231493,-0.0061499,-0.96968,0.00505159,0.0426245,1854,757,15.0346,-0.658333
637,267,14.8423,0.802185,-0.00324558,0.00190537,-0.0056504,0.00553957,-0.00687978,-0.999233,0.00718422,0.0271255,1861,757,14.8422,-0.802206
644,267,14.7024,1.09546,-0.00323384,0.00269677,-0.00612033,0.00653231,-0.00706938,-1.01098,0.00785498,0.0126678,1868,757,14.7024,-1.09547
651,267,14.6967,1.35449,-0.00275831,0.00154736,-0.00493527,0.0047789,-0.00598986,-0.991063,0.00623044,0.0145543,1875,757,14.6966,-1.3545
658,267,14.7291,1.61688,-0.00191252,0.000786399,-0.00384429,0.0035112,-0.00463732,-0.954194,0.0047195,0.0160051,1882,757,14.7292,-1.61689
665,267,14.7511,1.88507,-0.000750414,1.24706e-05,-0.0023892,0.00205049,-0.00278843,-0.864556,0.00280456,0.0164336,1889,757,14.7511,-1.88509
672,267,14.75,2.10956,0.000807012,-0.000661189,-0.00145473,0.00170237,-0.00155655,-0.551726,0.00188217,0.0135232,1896,757,14.75,-2.10953
679,267,14.7291,2.33295,0.00243507,-0.000386343,-0.000866463,0.00267992,-0.000631189,-0.275399,0.00202998,0.0120324,1903,757,14.7291,-2.33294
686,267,14.7297,2.59045,0.00456915,-8.08816e-05,-0.00057234,0.00463856,-0.000150291,-0.120683,0.00314367,0.0130444,1910,757,14.7297,-2.59047
693,267,14.7063,2.83246,0.00739232,0.000202389,-0.000281025,0.00740329,0.000191422,-0.0390065,0.00487297,0.013361,1917,757,14.7063,-2.83244
700,267,14.7012,3.07178,0.0109252,0.000348603,-7.41274e-05,0.0109257,0.000348083,-0.00700818,0.00717059,0.0143675,1924,757,14.7012,-3.07177
707,267,14.7009,3.2937,0.0155863,0.000189304,5.84011e-05,0.0155865,0.000189083,0.00379294,0.0103286,0.0140202,1931,757,14.701,-3.29369
714,267,14.7583,3.51361,0.0216151,-0.000327319,0.000139762,0.021616,-0.000328209,0.00636912,0.0145213,0.0273726,1938,757,14.7583,-3.51359
721,267,15.0638,3.57861,0.0292083,-0.00119755,0.000215495,0.0292098,-0.00119908,0.00708683,0.0198849,0.0428557,1945,757,15.0639,-3.5786
728,267,15.499,3.38678,0,0,0,0,0,0,0,-1,1952,757,15.499,-3.38677
735,267,15.7843,3.3631,0,0,0,0,0,0,0,-1,1959,757,15.7843,-3.36307
742,267,15.7451,3.65533,0,0,0,0,0,0,0,-1,1966,757,15.7451,-3.65533
749,267,0,0,0,0,0,0,0,0,0,-1,1973,757,0,0
756,267,0,0,0,0,0,0,0,0,0,-1,1980,757,0,0
763,267,0,0,0,0,0,0,0,0,0,-1,1987,757,0,0
770,267,0,0,0,0,0,0,0,0,0,-1,1994,757,0,0
777,267,0,0,0,0,0,0,0,0,0,-1,2001,757,0,0
784,267,0,0,0,0,0,0,0,0,0,-1,2008,757,0,0
791,267,0,0,0,0,0,0,0,0,0,-1,2015,757,0,0
798,267,0,0,0,0,0,0,0,0,0,-1,2022,757,0,0
805,267,0,0,0,0,0,0,0,0,0,-1,2029,757,0,0
812,267,0,0,0,0,0,0,0,0,0,-1,2036,757,0,0
-700,260,0,0,0,0,0,0,0,0,0,-1,524,764,0,0
-693,260,0,0,0,0,0,0,0,0,0,-1,531,764,0,0
-686,260,0,0,0,0,0,0,0,0,0,-1,538,764,0,0
-679,260,0,0,0,0,0,0,0,0,0,-1,545,764,0,0
-672,260,0,0,0,0,0,0,0,0,0,-1,552,764,0,0
-665,260,0,0,0,0,0,0,0,0,0,-1,559,764,0,0
-658,260,0,0,0,0,0,0,0,0,0,-1,566,764,0,0
-651,260,0,0,0,0,0,0,0,0,0,-1,573,764,0,0
-644,260,0,0,0,0,0,0,0,0,0,-1,580,764,0,0
-637,260,0,0,0,0,0,0,0,0,0,-1,587,764,0,0
-630,260,-10.3359,0.703064,0,0,0,0,0,0,0,-1,594,764,-10.3359,-0.703038
-623,260,-9.84827,0.499084,0,0,0,0,0,0,0,-1,601,764,-9.84824,-0.499076
-616,260,-9.46344,1.70721,0,0,0,0,0,0,0,-1,608,764,-9.46345,-1.70723
-609,260,-8.71051,1.98273,0,0,0,0,0,0,0,-1,615,764,-8.71052,-1.98273
-602,260,-8.45514,1.46832,0,0,0,0,0,0,0,-1,622,764,-8.45514,-1.46833
-595,260,-8.5824,1.62885,0,0,0,0,0,0,0,-1,629,764,-8.58237,-1.62883
-588,260,-8.5459,1.4303,-0.00591896,0.00866257,0.00273716,0.00915945,-0.00641583,1.39122,0.00903878,0.041116,636,764,-8.5459,-1.43028
-581,260,-8.52643,1.23236,-0.00555461,0.00476984,0.00290984,0.00553347,-0.00631824,1.31415,0.00684759,0.0223084,643,764,-8.52644,-1.23239
-574,260,-8.57556,1.03992,-0.00472973,0.00213898,0.00266189,0.00304979,-0.00564054,1.24112,0.00509114,0.0148502,650,764,-8.57555,-1.0399
-567,260,-8.58014,0.821655,-0.00391952,0.000345139,0.00260699,0.00158078,-0.00515516,1.12819,0.00406741,0.0171173,657,764,-8.58012,-0.821659
-560,260,-8.55359,0.624573,-0.00343062,-0.000945337,0.00255839,0.000656229,-0.00503219,1.01147,0.00359357,0.0196532,664,764,-8.55358,-0.624577
-553,260,-8.57007,0.386963,-0.00316884,-0.000876316,0.00205056,0.000326613,-0.00437177,1.04026,0.00302926,0.0170867,671,764,-8.57006,-0.38696
-546,260,-8.57306,0.160461,-0.00334185,-0.00100286,0.0019977,0.000142495,-0.0044872,1.05021,0.00304008,0.0108616,678,764,-8.57304,-0.160469
-539,260,-8.55463,-0.0507813,-0.00440569,-0.000840048,0.00233792,0.00031725,-0.00556299,1.11115,0.00381881,0.0104803,685,764,-8.55466,0.050771
-532,260,-8.55084,-0.269287,-0.006067,0.000562069,0.00304755,0.00175017,-0.0072551,1.19907,0.00551351,0.0119561,692,764,-8.55085,0.269261
-525,260,-8.55493,-0.519104,-0.00822505,0.00314259,0.00431774,0.00459661,-0.00967907,1.24597,0.00841438,0.0110814,699,764,-8.55491,0.519098
-518,260,-8.55963,-0.74176,-0.0100395,0.00580664,0.00543165,0.0074897,-0.0117226,1.27032,0.0111816,0.0123025,706,764,-8.55964,0.741765
-511,260,-8.55914,-0.980957,-0.0115254,0.00905732,0.00749053,0.0114947,-0.0139628,1.25621,0.0147209,0.0210611,713,764,-8.55915,0.980972
-504,260,-8.65436,-1.20605,-0.0125656,0.0132335,0.0109184,0.0172339,-0.016566,1.21959,0.0195157,0.0412468,720,764,-8.65438,1.20605
-497,260,-8.75397,-1.43933,0,0,0,0,0,0,0,-1,727,764,-8.75397,1.43935
-490,260,-8.60938,-1.52722,-0.0126549,0.0236816,0.0200586,0.0325768,-0.0215502,1.15339,0.0314656,0.0492647,734,764,-8.60936,1.52723
-483,260,-9.2121,-1.66174,-0.011184,0.0294507,0.0260216,0.0421472,-0.0238805,1.11686,0.0386043,0.0418464,741,764,-9.21208,1.66174
-476,260,-9.96252,-1.64185,-0.0078872,0.0351251,0.0331647,0.0531463,-0.0259084,1.07305,0.0465365,0.0429772,748,764,-9.9625,1.64182
-469,260,-10.898,-1.52008,0,0,0,0,0,0,0,-1,755,764,-10.898,1.52007
-462,260,-13.9694,1.28711,0,0,0,0,0,0,0,-1,762,764,-13.9694,-1.2871
-455,260,-13.9174,1.17145,0,0,0,0,0,0,0,-1,769,764,-13.9174,-1.17144
-448,260,0,0,0,0,0,0,0,0,0,-1,776,764,0,0
-441,260,0,0,0,0,0,0,0,0,0,-1,783,764,0,0
-434,260,0,0,0,0,0,0,0,0,0,-1,790,764,0,0
-427,260,0,0,0,0,0,0,0,0,0,-1,797,764,0,0
-420,260,0,0,0,0,0,0,0,0,0,-1,804,764,0,0
-413,260,0,0,0,0,0,0,0,0,0,-1,811,764,0,0
-406,260,0,0,0,0,0,0,0,0,0,-1,818,764,0,0
-399,260,0,0,0,0,0,0,0,0,0,-1,825,764,0,0
-392,260,0,0,0,0,0,0,0,0,0,-1,832,764,0,0
-385,260,0,0,0,0,0,0,0,0,0,-1,839,764,0,0
-378,260,0,0,0,0,0,0,0,0,0,-1,846,764,0,0
-371,260,0,0,0,0,0,0,0,0,0,-1,853,764,0,0
-364,260,0,0,0,0,0,0,0,0,0,-1,860,764,0,0
-357,260,0,0,0,0,0,0,0,0,0,-1,867,764,0,0
-350,260,0,0,0,0,0,0,0,0,0,-1,874,764,0,0
-343,260,0,0,0,0,0,0,0,0,0,-1,881,764,0,0
-336,260,0,0,0,0,0,0,0,0,0,-1,888,764,0,0
-329,260,0,0,0,0,0,0,0,0,0,-1,895,764,0,0
-322,260,0,0,0,0,0,0,0,0,0,-1,902,764,0,0
-315,260,0,0,0,0,0,0,0,0,0,-1,909,764,0,0
-308,260,0,0,0,0,0,0,0,0,0,-1,916,764,0,0
-301,260,0,0,0,0,0,0,0,0,0,-1,923,764,0,0
-294,260,0,0,0,0,0,0,0,0,0,-1,930,764,0,0
-287,260,0,0,0,0,0,0,0,0,0,-1,937,764,0,0
-280,260,0,0,0,0,0,0,0,0,0,-1,944,764,0,0
-273,260,0,0,0,0,0,0,0,0,0,-1,951,764,0,0
-266,260,0,0,0,0,0,0,0,0,0,-1,958,764,0,0
-259,260,0,0,0,0,0,0,0,0,0,-1,965,764,0,0
-252,260,0,0,0,0,0,0,0,0,0,-1,972,764,0,0
-245,260,0,0,0,0,0,0,0,0,0,-1,979,764,0,0
-238,260,0,0,0,0,0,0,0,0,0,-1,986,764,0,0
-231,260,0,0,0,0,0,0,0,0,0,-1,993,764,0,0
-224,260,0,0,0,0,0,0,0,0,0,-1,1000,764,0,0
-217,260,0,0,0,0,0,0,0,0,0,-1,1007,764,0,0
-210,260,0,0,0,0,0,0,0,0,0,-1,1014,764,0,0
-203,260,0,0,0,0,0,0,0,0,0,-1,1021,764,0,0
-196,260,0,0,0,0,0,0,0,0,0,-1,1028,764,0,0
-189,260,0,0,0,0,0,0,0,0,0,-1,1035,764,0,0
-182,260,0,0,0,0,0,0,0,0,0,-1,1042,764,0,0
-175,260,0,0,0,0,0,0,0,0,0,-1,1049,764,0,0
-168,260,0,0,0,0,0,0,0,0,0,-1,1056,764,0,0
-161,260,0,0,0,0,0,0,0,0,0,-1,1063,764,0,0
-154,260,0,0,0,0,0,0,0,0,0,-1,1070,764,0,0
-147,260,0,0,0,0,0,0,0,0,0,-1,1077,764,0,0
-140,260,0,0,0,0,0,0,0,0,0,-1,1084,764,0,0
-133,260,0,0,0,0,0,0,0,0,0,-1,1091,764,0,0
-126,260,0,0,0,0,0,0,0,0,0,-1,1098,764,0,0
-119,260,0,0,0,0,0,0,0,0,0,-1,1105,764,0,0
-112,260,0,0,0,0,0,0,0,0,0,-1,1112,764,0,0
-105,260,0,0,0,0,0,0,0,0,0,-1,1119,764,0,0
-98,260,0,0,0,0,0,0,0,0,0,-1,1126,764,0,0
-91,260,0,0,0,0,0,0,0,0,0,-1,1133,764,0,0
-84,260,0,0,0,0,0,0,0,0,0,-1,1140,764,0,0
-77,260,0,0,0,0,0,0,0,0,0,-1,1147,764,0,0
-70,260,0,0,0,0,0,0,0,0,0,-1,1154,764,0,0
-63,260,0,0,0,0,0,0,0,0,0,-1,1161,764,0,0
-56,260,0,0,0,0,0,0,0,0,0,-1,1168,764,0,0
-49,260,0,0,0,0,0,0,0,0,0,-1,1175,764,0,0
-42,260,0,0,0,0,0,0,0,0,0,-1,1182,764,0,0
-35,260,0,0,0,0,0,0,0,0,0,-1,1189,764,0,0
-28,260,0,0,0,0,0,0,0,0,0,-1,1196,764,0,0
-21,260,0,0,0,0,0,0,0,0,0,-1,1203,764,0,0
-14,260,0,0,0,0,0,0,0,0,0,-1,1210,764,0,0
-7,260,0,0,0,0,0,0,0,0,0,-1,1217,764,0,0
0,260,0,0,0,0,0,0,0,0,0,-1,1224,764,0,0
7,260,0,0,0,0,0,0,0,0,0,-1,1231,764,0,0
14,260,0,0,0,0,0,0,0,0,0,-1,1238,764,0,0
21,260,0,0,0,0,0,0,0,0,0,-1,1245,764,0,0
28,260,0,0,0,0,0,0,0,0,0,-1,1252,764,0,0
35,260,0,0,0,0,0,0,0,0,0,-1,1259,764,0,0
42,260,0,0,0,0,0,0,0,0,0,-1,1266,764,0,0
49,260,0,0,0,0,0,0,0,0,0,-1,1273,764,0,0
56,260,0,0,0,0,0,0,0,0,0,-1,1280,764,0,0
63,260,0,0,0,0,0,0,0,0,0,-1,1287,764,0,0
70,260,0,0,0,0,0,0,0,0,0,-1,1294,764,0,0
77,260,0,0,0,0,0,0,0,0,0,-1,1301,764,0,0
84,260,0,0,0,0,0,0,0,0,0,-1,1308,764,0,0
91,260,0,0,0,0,0,0,0,0,0,-1,1315,764,0,0
98,260,0,0,0,0,0,0,0,0,0,-1,1322,764,0,0
105,260,0,0,0,0,0,0,0,0,0,-1,1329,764,0,0
112,260,0,0,0,0,0,0,0,0,0,-1,1336,764,0,0
119,260,0,0,0,0,0,0,0,0,0,-1,1343,764,0,0
126,260,0,0,0,0,0,0,0,0,0,-1,1350,764,0,0
133,260,0,0,0,0,0,0,0,0,0,-1,1357,764,0,0
140,260,0,0,0,0,0,0,0,0,0,-1,1364,764,0,0
147,260,0,0,0,0,0,0,0,0,0,-1,1371,764,0,0
154,260,0,0,0,0,0,0,0,0,0,-1,1378,764,0,0
161,260,0,0,0,0,0,0,0,0,0,-1,1385,764,0,0
168,260,0,0,0,0,0,0,0,0,0,-1,1392,764,0,0
175,260,0,0,0,0,0,0,0,0,0,-1,1399,764,0,0
182,260,0,0,0,0,0,0,0,0,0,-1,1406,764,0,0
189,260,0,0,0,0,0,0,0,0,0,-1,1413,764,0,0
196,260,0,0,0,0,0,0,0,0,0,-1,1420,764,0,0
203,260,0,0,0,0,0,0,0,0,0,-1,1427,764,0,0
210,260,0,0,0,0,0,0,0,0,0,-1,1434,764,0,0
217,260,0,0,0,0,0,0,0,0,0,-1,1441,764,0,0
224,260,0,0,0,0,0,0,0,0,0,-1,1448,764,0,0
231,260,0,0,0,0,0,0,0,0,0,-1,1455,764,0,0
238,260,0,0,0,0,0,0,0,0,0,-1,1462,764,0,0
245,260,0,0,0,0,0,0,0,0,0,-1,1469,764,0,0
252,260,0,0,0,0,0,0,0,0,0,-1,1476,764,0,0
259,260,0,0,0,0,0,0,0,0,0,-1,1483,764,0,0
266,260,0,0,0,0,0,0,0,0,0,-1,1490,764,0,0
273,260,0,0,0,0,0,0,0,0,0,-1,1497,764,0,0
280,260,0,0,0,0,0,0,0,0,0,-1,1504,764,0,0
287,260,0,0,0,0,0,0,0,0,0,-1,1511,764,0,0
294,260,0,0,0,0,0,0,0,0,0,-1,1518,764,0,0
301,260,0,0,0,0,0,0,0,0,0,-1,1525,764,0,0
308,260,0,0,0,0,0,0,0,0,0,-1,1532,764,0,0
315,260,0,0,0,0,0,0,0,0,0,-1,1539,764,0,0
322,260,0,0,0,0,0,0,0,0,0,-1,1546,764,0,0
329,260,0,0,0,0,0,0,0,0,0,-1,1553,764,0,0
336,260,0,0,0,0,0,0,0,0,0,-1,1560,764,0,0
343,260,0,0,0,0,0,0,0,0,0,-1,1567,764,0,0
350,260,0,0,0,0,0,0,0,0,0,-1,1574,764,0,0
357,260,0,0,0,0,0,0,0,0,0,-1,1581,764,0,0
364,260,0,0,0,0,0,0,0,0,0,-1,1588,764,0,0
371,260,0,0,0,0,0,0,0,0,0,-1,1595,764,0,0
378,260,0,0,0,0,0,0,0,0,0,-1,1602,764,0,0
385,260,0,0,0,0,0,0,0,0,0,-1,1609,764,0,0
392,260,0,0,0,0,0,0,0,0,0,-1,1616,764,0,0
399,260,0,0,0,0,0,0,0,0,0,-1,1623,764,0,0
406,260,0,0,0,0,0,0,0,0,0,-1,1630,764,0,0
413,260,0,0,0,0,0,0,0,0,0,-1,1637,764,0,0
420,260,0,0,0,0,0,0,0,0,0,-1,1644,764,0,0
427,260,0,0,0,0,0,0,0,0,0,-1,1651,764,0,0
434,260,0,0,0,0,0,0,0,0,0,-1,1658,764,0,0
441,260,0,0,0,0,0,0,0,0,0,-1,1665,764,0,0
448,260,0,0,0,0,0,0,0,0,0,-1,1672,764,0,0
455,260,0,0,0,0,0,0,0,0,0,-1,1679,764,0,0
462,260,0,0,0,0,0,0,0,0,0,-1,1686,764,0,0
469,260,0,0,0,0,0,0,0,0,0,-1,1693,764,0,0
476,260,0,0,0,0,0,0,0,0,0,-1,1700,764,0,0
483,260,0,0,0,0,0,0,0,0,0,-1,1707,764,0,0
490,260,0,0,0,0,0,0,0,0,0,-1,1714,764,0,0
497,260,0,0,0,0,0,0,0,0,0,-1,1721,764,0,0
504,260,0,0,0,0,0,0,0,0,0,-1,1728,764,0,0
511,260,0,0,0,0,0,0,0,0,0,-1,1735,764,0,0
518,260,0,0,0,0,0,0,0,0,0,-1,1742,764,0,0
525,260,0,0,0,0,0,0,0,0,0,-1,1749,764,0,0
532,260,0,0,0,0,0,0,0,0,0,-1,1756,764,0,0
539,260,0,0,0,0,0,0,0,0,0,-1,1763,764,0,0
546,260,0,0,0,0,0,0,0,0,0,-1,1770,764,0,0
553,260,0,0,0,0,0,0,0,0,0,-1,1777,764,0,0
560,260,0,0,0,0,0,0,0,0,0,-1,1784,764,0,0
567,260,0,0,0,0,0,0,0,0,0,-1,1791,764,0,0
574,260,21.6351,2.86066,0.0107374,-0.0412504,0.0315886,0.0256522,-0.0561653,0.441127,0.04832,0.0363734,1798,764,21.6351,-2.86066
581,260,21.2946,3.16656,0.00466274,-0.0325703,0.0228289,0.0155035,-0.043411,0.443343,0.0352635,0.0380301,1805,764,21.2946,-3.16658
588,260,21.4084,3.25073,0.00179133,-0.0245577,0.0156658,0.00908596,-0.0318523,0.435783,0.0248241,0.0407508,1812,764,21.4084,-3.25073
595,260,21.9535,3.03101,0,0,0,0,0,0,0,-1,1819,764,21.9535,-3.03101
602,260,22.0863,2.51648,0,0,0,0,0,0,0,-1,1826,764,22.0862,-2.51646
609,260,21.1696,2.17529,0,0,0,0,0,0,0,-1,1833,764,21.1695,-2.17527
616,260,21.5663,2.37305,0,0,0,0,0,0,0,-1,1840,764,21.5663,-2.37307
623,260,20.1816,2.58411,0,0,0,0,0,0,0,-1,1847,764,20.1816,-2.58408
630,260,15.8237,0.648621,0,0,0,0,0,0,0,-1,1854,764,15.8237,-0.648621
637,260,15.4384,0.868469,-0.00259734,0.00210319,-0.00620137,0.00638472,-0.00687887,-0.966531,0.00765951,0.0461417,1861,764,15.4384,-0.868446
644,260,14.9739,1.14453,-0.00268239,0.00262759,-0.00650766,0.00700101,-0.00705581,-0.979081,0.00811573,0.0242487,1868,764,14.9739,-1.14451
651,260,14.984,1.36066,-0.00234577,0.00143472,-0.00537037,0.00523779,-0.00614885,-0.954615,0.00658109,0.013626,1875,764,14.984,-1.36068
658,260,14.9807,1.6507,-0.00163423,0.000633682,-0.00430657,0.00395309,-0.00495364,-0.91413,0.0051531,0.0164963,1882,764,14.9807,-1.65072
665,260,14.9811,1.9118,-0.000687759,-0.000225914,-0.00281903,0.00237164,-0.00328531,-0.826265,0.00328021,0.016458,1889,764,14.981,-1.91179
672,260,14.9807,2.13922,0.000581956,-0.00101755,-0.00176683,0.00172161,-0.00215721,-0.572871,0.00224414,0.0136023,1896,764,14.9807,-2.1392
679,260,14.9594,2.36194,0.0018867,-0.000719077,-0.00113244,0.00231006,-0.00114244,-0.357761,0.00203094,0.0117824,1903,764,14.9594,-2.36191
686,260,14.9563,2.60223,0.00360362,-0.000311907,-0.000837799,0.00377535,-0.000483637,-0.202178,0.00269263,0.014387,1910,764,14.9563,-2.60223
693,260,14.9384,2.81635,0.00594068,0.00010921,-0.000531985,0.00598881,6.10757e-05,-0.0902342,0.00397234,0.0152469,1917,764,14.9383,-2.81633
700,260,14.9213,3.06287,0.00881302,0.000427827,-0.000353945,0.00882794,0.000412913,-0.0421108,0.0057526,0.0136736,1924,764,14.9213,-3.06286
707,260,14.9116,3.28784,0.0125069,0.000483115,-0.00026711,0.0125128,0.000477184,-0.0222006,0.00818744,0.0137965,1931,764,14.9116,-3.28784
714,260,14.9393,3.51001,0.0172454,0.000221342,-0.000283078,0.0172501,0.000216636,-0.016622,0.0114285,0.0231229,1938,764,14.9393,-3.51
721,260,15.2141,3.62665,0.023135,-0.000293989,-0.000325635,0.0231395,-0.000298514,-0.0138952,0.0155268,0.039657,1945,764,15.2142,-3.62663
728,260,15.4797,3.72644,0,0,0,0,0,0,0,-1,1952,764,15.4797,-3.72644
735,260,14.6575,3.03876,0,0,0,0,0,0,0,-1,1959,764,14.6575,-3.03877
742,260,15.7606,3.51672,0,0,0,0,0,0,0,-1,1966,764,15.7606,-3.51672
749,260,16.6082,3.20825,0,0,0,0,0,0,0,-1,1973,764,16.6082,-3.20827
756,260,0,0,0,0,0,0,0,0,0,-1,1980,764,0,0
763,260,0,0,0,0,0,0,0,0,0,-1,1987,764,0,0
770,260,0,0,0,0,0,0,0,0,0,-1,1994,764,0,0
777,260,0,0,0,0,0,0,0,0,0,-1,2001,764,0,0
784,260,0,0,0,0,0,0,0,0,0,-1,2008,764,0,0
791,260,0,0,0,0,0,0,0,0,0,-1,2015,764,0,0
798,260,0,0,0,0,0,0,0,0,0,-1,2022,764,0,0
805,260,0,0,0,0,0,0,0,0,0,-1,2029,764,0,0
812,260,0,0,0,0,0,0,0,0,0,-1,2036,764,0,0
-700,253,0,0,0,0,0,0,0,0,0,-1,524,771,0,0
-693,253,0,0,0,0,0,0,0,0,0,-1,531,771,0,0
-686,253,0,0,0,0,0,0,0,0,0,-1,538,771,0,0
-679,253,0,0,0,0,0,0,0,0,0,-1,545,771,0,0
-672,253,0,0,0,0,0,0,0,0,0,-1,552,771,0,0
-665,253,0,0,0,0,0,0,0,0,0,-1,559,771,0,0
-658,253,0,0,0,0,0,0,0,0,0,-1,566,771,0,0
-651,253,0,0,0,0,0,0,0,0,0,-1,573,771,0,0
-644,253,0,0,0,0,0,0,0,0,0,-1,580,771,0,0
-637,253,-11.7717,5.73242,0,0,0,0,0,0,0,-1,587,771,-11.7717,-5.73245
-630,253,-11.1473,0.894714,0,0,0,0,0,0,0,-1,594,771,-11.1473,-0.894732
-623,253,-10.0216,1.7533,0,0,0,0,0,0,0,-1,601,771,-10.0216,-1.75329
-616,253,-9.71912,1.80463,0,0,0,0,0,0,0,-1,608,771,-9.71911,-1.80465
-609,253,-9.34937,1.86407,0,0,0,0,0,0,0,-1,615,771,-9.34939,-1.86409
-602,253,-9.09637,1.65411,-0.00373879,0.0234424,-0.00125076,0.0234999,-0.00379623,-1.52491,0.0170733,0.0493886,622,771,-9.09639,-1.65412
-595,253,-8.96405,1.55981,0,0,0,0,0,0,0,-1,629,771,-8.96403,-1.55982
-588,253,-8.82001,1.41028,-0.00353453,0.010461,0.000486917,0.0104779,-0.00355145,1.53606,0.00842248,0.0376147,636,771,-8.81998,-1.41025
-581,253,-8.75983,1.2204,-0.0035042,0.00606324,0.00126137,0.00622675,-0.00366771,1.44189,0.0057759,0.022285,643,771,-8.7598,-1.22039
-574,253,-8.7973,1.0365,-0.00297579,0.0030646,0.00143808,0.0033895,-0.00330069,1.3486,0.0038627,0.0191074,650,771,-8.79731,-1.0365
-567,253,-8.81458,0.828369,-0.00250248,0.00094104,0.00177402,0.00169145,-0.00325288,1.17062,0.00290167,0.0165062,657,771,-8.81458,-0.82839
-560,253,-8.77289,0.608582,-0.00240469,-0.000626482,0.00202244,0.000693665,-0.00372483,0.992491,0.00274383,0.0126924,664,771,-8.7729,-0.608568
-553,253,-8.77118,0.378052,-0.00255634,-0.000712534,0.00173166,0.00032734,-0.00359621,1.03001,0.0025137,0.0121025,671,771,-8.77116,-0.378081
-546,253,-8.80194,0.190063,-0.00322578,-0.000920406,0.00186634,0.000120518,-0.0042667,1.06203,0.00288548,0.0100273,678,771,-8.80196,-0.190063
-539,253,-8.80298,-0.039856,-0.00484327,-0.00080207,0.00230159,0.000240031,-0.00588537,1.14564,0.00400599,0.0104956,685,771,-8.803,0.0398767
-532,253,-8.80231,-0.267822,-0.00686184,0.000593591,0.00304783,0.00168097,-0.00794922,1.2281,0.00593963,0.0137146,692,771,-8.80231,0.267852
-525,253,-8.78107,-0.51123,-0.00916953,0.00300968,0.00423416,0.00433704,-0.0104969,1.26701,0.00880707,0.0112444,699,771,-8.78107,0.511223
-518,253,-8.79169,-0.71759,-0.0111242,0.00548828,0.00516168,0.00696143,-0.0125974,1.29279,0.0114475,0.0150851,706,771,-8.79172,0.717607
-511,253,-8.91565,-0.980286,-0.0127807,0.00847797,0.006845,0.0104913,-0.014794,1.28473,0.0146688,0.035534,713,771,-8.91567,0.980266
-504,253,-8.90912,-1.18591,0,0,0,0,0,0,0,-1,720,771,-8.90914,1.18594
-497,253,-8.86096,-1.323,0,0,0,0,0,0,0,-1,727,771,-8.86093,1.323
-490,253,-8.79242,-1.50189,0,0,0,0,0,0,0,-1,734,771,-8.79239,1.50189
-483,253,-9.39807,-1.62244,0,0,0,0,0,0,0,-1,741,771,-9.39807,1.62242
-476,253,-10.1039,-1.81165,0,0,0,0,0,0,0,-1,748,771,-10.1039,1.81162
-469,253,-13.8416,1.60016,-0.00429478,0.0379325,0.0342831,0.0570819,-0.0234442,1.0614,0.0478248,0.0450876,755,771,-13.8416,-1.60013
-462,253,-13.8972,1.43481,0.00496401,0.0407801,0.0416089,0.0681711,-0.0224269,0.988612,0.054484,0.0444941,762,771,-13.8972,-1.43483
-455,253,-13.7783,1.31476,0,0,0,0,0,0,0,-1,769,771,-13.7782,-1.31479
-448,253,0,0,0,0,0,0,0,0,0,-1,776,771,0,0
-441,253,0,0,0,0,0,0,0,0,0,-1,783,771,0,0
-434,253,0,0,0,0,0,0,0,0,0,-1,790,771,0,0
-427,253,0,0,0,0,0,0,0,0,0,-1,797,771,0,0
-420,253,0,0,0,0,0,0,0,0,0,-1,804,771,0,0
-413,253,0,0,0,0,0,0,0,0,0,-1,811,771,0,0
-406,253,0,0,0,0,0,0,0,0,0,-1,818,771,0,0
-399,253,0,0,0,0,0,0,0,0,0,-1,825,771,0,0
-392,253,0,0,0,0,0,0,0,0,0,-1,832,771,0,0
-385,253,0,0,0,0,0,0,0,0,0,-1,839,771,0,0
-378,253,0,0,0,0,0,0,0,0,0,-1,846,771,0,0
-371,253,0,0,0,0,0,0,0,0,0,-1,853,771,0,0
-364,253,0,0,0,0,0,0,0,0,0,-1,860,771,0,0
-357,253,0,0,0,0,0,0,0,0,0,-1,867,771,0,0
-350,253,0,0,0,0,0,0,0,0,0,-1,874,771,0,0
-343,253,0,0,0,0,0,0,0,0,0,-1,881,771,0,0
-336,253,0,0,0,0,0,0,0,0,0,-1,888,771,0,0
-329,253,0,0,0,0,0,0,0,0,0,-1,895,771,0,0
-322,253,0,0,0,0,0,0,0,0,0,-1,902,771,0,0
-315,253,0,0,0,0,0,0,0,0,0,-1,909,771,0,0
-308,253,0,0,0,0,0,0,0,0,0,-1,916,771,0,0
-301,253,0,0,0,0,0,0,0,0,0,-1,923,771,0,0
-294,253,0,0,0,0,0,0,0,0,0,-1,930,771,0,0
-287,253,0,0,0,0,0,0,0,0,0,-1,937,771,0,0
-280,253,0,0,0,0,0,0,0,0,0,-1,944,771,0,0
-273,253,0,0,0,0,0,0,0,0,0,-1,951,771,0,0
-266,253,0,0,0,0,0,0,0,0,0,-1,958,771,0,0
-259,253,0,0,0,0,0,0,0,0,0,-1,965,771,0,0
-252,253,0,0,0,0,0,0,0,0,0,-1,972,771,0,0
-245,253,0,0,0,0,0,0,0,0,0,-1,979,771,0,0
-238,253,0,0,0,0,0,0,0,0,0,-1,986,771,0,0
-231,253,0,0,0,0,0,0,0,0,0,-1,993,771,0,0
-224,253,0,0,0,0,0,0,0,0,0,-1,1000,771,0,0
-217,253,0,0,0,0,0,0,0,0,0,-1,1007,771,0,0
-210,253,0,0,0,0,0,0,0,0,0,-1,1014,771,0,0
-203,253,0,0,0,0,0,0,0,0,0,-1,1021,771,0,0
-196,253,0,0,0,0,0,0,0,0,0,-1,1028,771,0,0
-189,253,0,0,0,0,0,0,0,0,0,-1,1035,771,0,0
-182,253,0,0,0,0,0,0,0,0,0,-1,1042,771,0,0
-175,253,0,0,0,0,0,0,0,0,0,-1,1049,771,0,0
-168,253,0,0,0,0,0,0,0,0,0,-1,1056,771,0,0
-161,253,0,0,0,0,0,0,0,0,0,-1,1063,771,0,0
-154,253,0,0,0,0,0,0,0,0,0,-1,1070,771,0,0
-147,253,0,0,0,0,0,0,0,0,0,-1,1077,771,0,0
-140,253,0,0,0,0,0,0,0,0,0,-1,1084,771,0,0
-133,253,0,0,0,0,0,0,0,0,0,-1,1091,771,0,0
-126,253,0,0,0,0,0,0,0,0,0,-1,1098,771,0,0
-119,253,0,0,0,0,0,0,0,0,0,-1,1105,771,0,0
-112,253,0,0,0,0,0,0,0,0,0,-1,1112,771,0,0
-105,253,0,0,0,0,0,0,0,0,0,-1,1119,771,0,0
-98,253,0,0,0,0,0,0,0,0,0,-1,1126,771,0,0
-91,253,0,0,0,0,0,0,0,0,0,-1,1133,771,0,0
-84,253,0,0,0,0,0,0,0,0,0,-1,1140,771,0,0
-77,253,0,0,0,0,0,0,0,0,0,-1,1147,771,0,0
-70,253,0,0,0,0,0,0,0,0,0,-1,1154,771,0,0
-63,253,0,0,0,0,0,0,0,0,0,-1,1161,771,0,0
-56,253,0,0,0,0,0,0,0,0,0,-1,1168,771,0,0
-49,253,0,0,0,0,0,0,0,0,0,-1,1175,771,0,0
-42,253,0,0,0,0,0,0,0,0,0,-1,1182,771,0,0
-35,253,0,0,0,0,0,0,0,0,0,-1,1189,771,0,0
-28,253,0,0,0,0,0,0,0,0,0,-1,1196,771,0,0
-21,253,0,0,0,0,0,0,0,0,0,-1,1203,771,0,0
-14,253,0,0,0,0,0,0,0,0,0,-1,1210,771,0,0
-7,253,0,0,0,0,0,0,0,0,0,-1,1217,771,0,0
0,253,0,0,0,0,0,0,0,0,0,-1,1224,771,0,0
7,253,0,0,0,0,0,0,0,0,0,-1,1231,771,0,0
14,253,0,0,0,0,0,0,0,0,0,-1,1238,771,0,0
21,253,0,0,0,0,0,0,0,0,0,-1,1245,771,0,0
28,253,0,0,0,0,0,0,0,0,0,-1,1252,771,0,0
35,253,0,0,0,0,0,0,0,0,0,-1,1259,771,0,0
42,253,0,0,0,0,0,0,0,0,0,-1,1266,771,0,0
49,253,0,0,0,0,0,0,0,0,0,-1,1273,771,0,0
56,253,0,0,0,0,0,0,0,0,0,-1,1280,771,0,0
63,253,0,0,0,0,0,0,0,0,0,-1,1287,771,0,0
70,253,0,0,0,0,0,0,0,0,0,-1,1294,771,0,0
77,253,0,0,0,0,0,0,0,0,0,-1,1301,771,0,0
84,253,0,0,0,0,0,0,0,0,0,-1,1308,771,0,0
91,253,0,0,0,0,0,0,0,0,0,-1,1315,771,0,0
98,253,0,0,0,0,0,0,0,0,0,-1,1322,771,0,0
105,253,0,0,0,0,0,0,0,0,0,-1,1329,771,0,0
112,253,0,0,0,0,0,0,0,0,0,-1,1336,771,0,0
119,253,0,0,0,0,0,0,0,0,0,-1,1343,771,0,0
126,253,0,0,0,0,0,0,0,0,0,-1,1350,771,0,0
133,253,0,0,0,0,0,0,0,0,0,-1,1357,771,0,0
140,253,0,0,0,0,0,0,0,0,0,-1,1364,771,0,0
147,253,0,0,0,0,0,0,0,0,0,-1,1371,771,0,0
154,253,0,0,0,0,0,0,0,0,0,-1,1378,771,0,0
161,253,0,0,0,0,0,0,0,0,0,-1,1385,771,0,0
168,253,0,0,0,0,0,0,0,0,0,-1,1392,771,0,0
175,253,0,0,0,0,0,0,0,0,0,-1,1399,771,0,0
182,253,0,0,0,0,0,0,0,0,0,-1,1406,771,0,0
189,253,0,0,0,0,0,0,0,0,0,-1,1413,771,0,0
196,253,0,0,0,0,0,0,0,0,0,-1,1420,771,0,0
203,253,0,0,0,0,0,0,0,0,0,-1,1427,771,0,0
210,253,0,0,0,0,0,0,0,0,0,-1,1434,771,0,0
217,253,0,0,0,0,0,0,0,0,0,-1,1441,771,0,0
224,253,0,0,0,0,0,0,0,0,0,-1,1448,771,0,0
231,253,0,0,0,0,0,0,0,0,0,-1,1455,771,0,0
238,253,0,0,0,0,0,0,0,0,0,-1,1462,771,0,0
245,253,0,0,0,0,0,0,0,0,0,-1,1469,771,0,0
252,253,0,0,0,0,0,0,0,0,0,-1,1476,771,0,0
259,253,0,0,0,0,0,0,0,0,0,-1,1483,771,0,0
266,253,0,0,0,0,0,0,0,0,0,-1,1490,771,0,0
273,253,0,0,0,0,0,0,0,0,0,-1,1497,771,0,0
280,253,0,0,0,0,0,0,0,0,0,-1,1504,771,0,0
287,253,0,0,0,0,0,0,0,0,0,-1,1511,771,0,0
294,253,0,0,0,0,0,0,0,0,0,-1,1518,771,0,0
301,253,0,0,0,0,0,0,0,0,0,-1,1525,771,0,0
308,253,0,0,0,0,0,0,0,0,0,-1,1532,771,0,0
315,253,0,0,0,0,0,0,0,0,0,-1,1539,771,0,0
322,253,0,0,0,0,0,0,0,0,0,-1,1546,771,0,0
329,253,0,0,0,0,0,0,0,0,0,-1,1553,771,0,0
336,253,0,0,0,0,0,0,0,0,0,-1,1560,771,0,0
343,253,0,0,0,0,0,0,0,0,0,-1,1567,771,0,0
350,253,0,0,0,0,0,0,0,0,0,-1,1574,771,0,0
357,253,0,0,0,0,0,0,0,0,0,-1,1581,771,0,0
364,253,0,0,0,0,0,0,0,0,0,-1,1588,771,0,0
371,253,0,0,0,0,0,0,0,0,0,-1,1595,771,0,0
378,253,0,0,0,0,0,0,0,0,0,-1,1602,771,0,0
385,253,0,0,0,0,0,0,0,0,0,-1,1609,771,0,0
392,253,0,0,0,0,0,0,0,0,0,-1,1616,771,0,0
399,253,0,0,0,0,0,0,0,0,0,-1,1623,771,0,0
406,253,0,0,0,0,0,0,0,0,0,-1,1630,771,0,0
413,253,0,0,0,0,0,0,0,0,0,-1,1637,771,0,0
420,253,0,0,0,0,0,0,0,0,0,-1,1644,771,0,0
427,253,0,0,0,0,0,0,0,0,0,-1,1651,771,0,0
434,253,0,0,0,0,0,0,0,0,0,-1,1658,771,0,0
441,253,0,0,0,0,0,0,0,0,0,-1,1665,771,0,0
448,253,0,0,0,0,0,0,0,0,0,-1,1672,771,0,0
455,253,0,0,0,0,0,0,0,0,0,-1,1679,771,0,0
462,253,0,0,0,0,0,0,0,0,0,-1,1686,771,0,0
469,253,0,0,0,0,0,0,0,0,0,-1,1693,771,0,0
476,253,0,0,0,0,0,0,0,0,0,-1,1700,771,0,0
483,253,0,0,0,0,0,0,0,0,0,-1,1707,771,0,0
490,253,0,0,0,0,0,0,0,0,0,-1,1714,771,0,0
497,253,0,0,0,0,0,0,0,0,0,-1,1721,771,0,0
504,253,0,0,0,0,0,0,0,0,0,-1,1728,771,0,0
511,253,0,0,0,0,0,0,0,0,0,-1,1735,771,0,0
518,253,0,0,0,0,0,0,0,0,0,-1,1742,771,0,0
525,253,0,0,0,0,0,0,0,0,0,-1,1749,771,0,0
532,253,0,0,0,0,0,0,0,0,0,-1,1756,771,0,0
539,253,0,0,0,0,0,0,0,0,0,-1,1763,771,0,0
546,253,0,0,0,0,0,0,0,0,0,-1,1770,771,0,0
553,253,0,0,0,0,0,0,0,0,0,-1,1777,771,0,0
560,253,0,0,0,0,0,0,0,0,0,-1,1784,771,0,0
567,253,0,0,0,0,0,0,0,0,0,-1,1791,771,0,0
574,253,21.5167,2.80176,0.015164,-0.0344785,0.0266859,0.0267877,-0.0461022,0.410792,0.0425726,0.0367671,1798,771,21.5167,-2.80174
581,253,21.509,2.89368,0.00799983,-0.0266778,0.0183649,0.0159178,-0.0345958,0.407065,0.0298212,0.0400171,1805,771,21.5091,-2.8937
588,253,21.5453,3.07202,0.00433244,-0.0195281,0.01181,0.00918929,-0.024385,0.390166,0.020035,0.0428191,1812,771,21.5453,-3.07201
595,253,21.7758,3.01117,0.00166668,-0.013149,0.00628137,0.0039713,-0.0154536,0.351648,0.0118501,0.0436031,1819,771,21.7758,-3.01114
602,253,21.5159,2.70203,4.85759e-05,-0.00801626,0.00197139,0.000504673,-0.00847236,0.227358,0.00582376,0.0459338,1826,771,21.5158,-2.702
609,253,20.8346,2.73376,-0.000952087,-0.00419251,-0.00123222,-0.000536755,-0.00460785,-0.325102,0.00290953,0.0435937,1833,771,20.8346,-2.73378
616,253,20.1572,2.92419,-0.00157065,-0.00151838,-0.00342731,0.00188289,-0.00497192,-0.789211,0.00408938,0.0412991,1840,771,20.1572,-2.92422
623,253,19.7285,3.23975,-0.00185489,0.000104143,-0.00471077,0.00393616,-0.00568691,-0.887903,0.00558644,0.0440833,1847,771,19.7285,-3.23973
630,253,19.3214,3.5415,0,0,0,0,0,0,0,-1,1854,771,19.3214,-3.54151
637,253,15.0906,1.07379,0,0,0,0,0,0,0,-1,1861,771,15.0906,-1.0738
644,253,15.1293,1.24976,-0.00226456,0.00235997,-0.00634406,0.00680002,-0.00670461,-0.960155,0.00779696,0.0411407,1868,771,15.1293,-1.24973
651,253,15.2054,1.38708,-0.00207289,0.00119441,-0.00527174,0.00507982,-0.0059583,-0.93565,0.00637959,0.0229312,1875,771,15.2055,-1.38706
658,253,15.2521,1.65979,-0.00150314,0.000425949,-0.00430581,0.00387393,-0.00495112,-0.895584,0.00510778,0.0193411,1882,771,15.2521,-1.65977
665,253,15.1719,1.91571,-0.00071143,-0.00047207,-0.00289909,0.00230981,-0.00349331,-0.806027,0.00337358,0.0210579,1889,771,15.1719,-1.91572
672,253,15.1768,2.12805,0.000356491,-0.00136601,-0.00184176,0.00152842,-0.00253795,-0.566692,0.00237171,0.0158462,1896,771,15.1768,-2.12805
679,253,15.207,2.37372,0.00143881,-0.00109643,-0.00122506,0.00193403,-0.00159166,-0.384162,0.00203875,0.0123524,1903,771,15.2071,-2.37372
686,253,15.1884,2.6239,0.00285772,-0.000634567,-0.000947979,0.00309846,-0.0008753,-0.248687,0.00241096,0.0174457,1910,771,15.1883,-2.62391
693,253,15.1583,2.84479,0.00485131,-0.000124926,-0.000614512,0.00492607,-0.000199689,-0.121066,0.00335259,0.0177832,1917,771,15.1584,-2.84476
700,253,15.1675,3.06134,0.00724507,0.000314064,-0.000417405,0.00727011,0.000289018,-0.0599342,0.00475333,0.0153879,1924,771,15.1674,-3.06135
707,253,15.1694,3.29175,0.0101893,0.0005018,-0.000295237,0.0101983,0.00049281,-0.0304383,0.00664072,0.0145303,1931,771,15.1694,-3.29177
714,253,15.1635,3.50867,0.0138984,0.000397441,-0.000312016,0.0139056,0.000390234,-0.0230942,0.00914311,0.0184655,1938,771,15.1634,-3.50869
721,253,15.3088,3.78101,0.0183884,7.47096e-05,-0.000386683,0.0183965,6.65486e-05,-0.0211019,0.0122422,0.0324186,1945,771,15.3089,-3.78102
728,253,15.6321,4.06104,0.0240513,-0.000549384,-0.000458115,0.0240599,-0.000557912,-0.0186134,0.0162291,0.0431616,1952,771,15.6321,-4.06103
735,253,15.5918,3.23389,0,0,0,0,0,0,0,-1,1959,771,15.5918,-3.2339
742,253,15.5857,3.76086,0,0,0,0,0,0,0,-1,1966,771,15.5857,-3.76086
749,253,16.3292,4.35529,0,0,0,0,0,0,0,-1,1973,771,16.3292,-4.3553
756,253,0,0,0,0,0,0,0,0,0,-1,1980,771,0,0
763,253,0,0,0,0,0,0,0,0,0,-1,1987,771,0,0
770,253,0,0,0,0,0,0,0,0,0,-1,1994,771,0,0
777,253,0,0,0,0,0,0,0,0,0,-1,2001,771,0,0
784,253,0,0,0,0,0,0,0,0,0,-1,2008,771,0,0
791,253,0,0,0,0,0,0,0,0,0,-1,2015,771,0,0
798,253,0,0,0,0,0,0,0,0,0,-1,2022,771,0,0
805,253,0,0,0,0,0,0,0,0,0,-1,2029,771,0,0
812,253,0,0,0,0,0,0,0,0,0,-1,2036,771,0,0
-700,246,0,0,0,0,0,0,0,0,0,-1,524,778,0,0
-693,246,0,0,0,0,0,0,0,0,0,-1,531,778,0,0
-686,246,0,0,0,0,0,0,0,0,0,-1,538,778,0,0
-679,246,0,0,0,0,0,0,0,0,0,-1,545,778,0,0
-672,246,0,0,0,0,0,0,0,0,0,-1,552,778,0,0
-665,246,0,0,0,0,0,0,0,0,0,-1,559,778,0,0
-658,246,0,0,0,0,0,0,0,0,0,-1,566,778,0,0
-651,246,0,0,0,0,0,0,0,0,0,-1,573,778,0,0
-644,246,0,0,0,0,0,0,0,0,0,-1,580,778,0,0
-637,246,-11.8289,5.04584,0,0,0,0,0,0,0,-1,587,778,-11.8289,-5.04585
-630,246,-11.5814,5.26007,0,0,0,0,0,0,0,-1,594,778,-11.5813,-5.26008
-623,246,-11.8169,5.37836,0,0,0,0,0,0,0,-1,601,778,-11.8169,-5.37836
-616,246,-9.97479,1.90204,0,0,0,0,0,0,0,-1,608,778,-9.97476,-1.90206
-609,246,-9.15265,2.19269,0,0,0,0,0,0,0,-1,615,778,-9.15268,-2.19267
-602,246,-9.18134,1.93542,0,0,0,0,0,0,0,-1,622,778,-9.18133,-1.93542
-595,246,-9.19232,1.56439,0,0,0,0,0,0,0,-1,629,778,-9.19231,-1.56441
-588,246,-8.97974,1.36816,-0.00163677,0.0114676,-0.000965914,0.0115384,-0.00170759,-1.49761,0.00832009,0.0287474,636,778,-8.97971,-1.36814
-581,246,-9.00311,1.23132,-0.00182717,0.00684712,0.000193015,0.00685141,-0.00183146,1.54856,0.00528495,0.0154858,643,778,-9.00314,-1.23132
-574,246,-8.99933,1.01117,-0.00153395,0.00369118,0.000639766,0.00376837,-0.00161114,1.45072,0.00318802,0.0165985,650,778,-8.99933,-1.01118
-567,246,-9.00806,0.81665,-0.00135599,0.00140371,0.00123938,0.0018786,-0.00183088,1.20489,0.00214172,0.0153637,657,778,-9.00803,-0.816668
-560,246,-8.96777,0.602112,-0.00162619,-0.000329206,0.00168764,0.000830251,-0.00278565,0.96883,0.00218703,0.0118556,664,778,-8.9678,-0.602095
-553,246,-8.97211,0.396484,-0.00218216,-0.000544705,0.00156917,0.000406484,-0.00313335,1.02585,0.00223674,0.0124335,671,778,-8.97211,-0.396492
-546,246,-9.00635,0.203003,-0.00331739,-0.000823134,0.00184266,0.000154756,-0.00429528,1.08289,0.00291648,0.0104408,678,778,-9.00633,-0.20301
-539,246,-9.0191,-0.0372314,-0.00538947,-0.000776035,0.00230125,0.000175574,-0.00634108,1.17869,0.00428711,0.00993763,685,778,-9.01913,0.0372395
-532,246,-9.03424,-0.283081,-0.00761972,0.000532829,0.00298816,0.00151077,-0.00859766,1.25451,0.00629608,0.0113682,692,778,-9.03426,0.283074
-525,246,-9.00903,-0.488831,-0.0099425,0.00266069,0.00399962,0.00382282,-0.0111046,1.28802,0.00895364,0.0124403,699,778,-9.00903,0.488823
-518,246,-9.02679,-0.678284,-0.0119549,0.00485541,0.00469441,0.00607752,-0.013177,1.31612,0.0113657,0.0201403,706,778,-9.02678,0.678269
-511,246,-9.19275,-0.751282,-0.0137253,0.00748495,0.00595944,0.00904468,-0.015285,1.31481,0.0141999,0.0424397,713,778,-9.19274,0.75131
-504,246,-9.37305,-0.832947,0,0,0,0,0,0,0,-1,720,778,-9.37303,0.832947
-497,246,-8.49622,-0.248352,0,0,0,0,0,0,0,-1,727,778,-8.49622,0.248378
-490,246,-13.5493,1.16852,0,0,0,0,0,0,0,-1,734,778,-13.5493,-1.16852
-483,246,-13.6533,1.7442,-0.0149753,0.0254165,0.0170574,0.031656,-0.0212148,1.22012,0.0307227,0.0469793,741,778,-13.6533,-1.7442
-476,246,-13.7883,1.66852,-0.011676,0.0306219,0.0214404,0.0395889,-0.020643,1.17468,0.0353437,0.0462677,748,778,-13.7882,-1.66849
-469,246,-13.8533,1.53052,-0.00555117,0.0349651,0.0264311,0.0480086,-0.0185946,1.11237,0.0396836,0.0405349,755,778,-13.8533,-1.53052
-462,246,-14.0344,1.31842,0.00448683,0.0371401,0.0318038,0.0565631,-0.0149362,1.02254,0.0435498,0.0459039,762,778,-14.0344,-1.31842
-455,246,0,0,0,0,0,0,0,0,0,-1,769,778,0,0
-448,246,0,0,0,0,0,0,0,0,0,-1,776,778,0,0
-441,246,0,0,0,0,0,0,0,0,0,-1,783,778,0,0
-434,246,0,0,0,0,0,0,0,0,0,-1,790,778,0,0
-427,246,0,0,0,0,0,0,0,0,0,-1,797,778,0,0
-420,246,0,0,0,0,0,0,0,0,0,-1,804,778,0,0
-413,246,0,0,0,0,0,0,0,0,0,-1,811,778,0,0
-406,246,0,0,0,0,0,0,0,0,0,-1,818,778,0,0
-399,246,0,0,0,0,0,0,0,0,0,-1,825,778,0,0
-392,246,0,0,0,0,0,0,0,0,0,-1,832,778,0,0
-385,246,0,0,0,0,0,0,0,0,0,-1,839,778,0,0
-378,246,0,0,0,0,0,0,0,0,0,-1,846,778,0,0
-371,246,0,0,0,0,0,0,0,0,0,-1,853,778,0,0
-364,246,0,0,0,0,0,0,0,0,0,-1,860,778,0,0
-357,246,0,0,0,0,0,0,0,0,0,-1,867,778,0,0
-350,246,0,0,0,0,0,0,0,0,0,-1,874,778,0,0
-343,246,0,0,0,0,0,0,0,0,0,-1,881,778,0,0
-336,246,0,0,0,0,0,0,0,0,0,-1,888,778,0,0
-329,246,0,0,0,0,0,0,0,0,0,-1,895,778,0,0
-322,246,0,0,0,0,0,0,0,0,0,-1,902,778,0,0
-315,246,0,0,0,0,0,0,0,0,0,-1,909,778,0,0
-308,246,0,0,0,0,0,0,0,0,0,-1,916,778,0,0
-301,246,0,0,0,0,0,0,0,0,0,-1,923,778,0,0
-294,246,0,0,0,0,0,0,0,0,0,-1,930,778,0,0
-287,246,0,0,0,0,0,0,0,0,0,-1,937,778,0,0
-280,246,0,0,0,0,0,0,0,0,0,-1,944,778,0,0
-273,246,0,0,0,0,0,0,0,0,0,-1,951,778,0,0
-266,246,0,0,0,0,0,0,0,0,0,-1,958,778,0,0
-259,246,0,0,0,0,0,0,0,0,0,-1,965,778,0,0
-252,246,0,0,0,0,0,0,0,0,0,-1,972,778,0,0
-245,246,0,0,0,0,0,0,0,0,0,-1,979,778,0,0
-238,246,0,0,0,0,0,0,0,0,0,-1,986,778,0,0
-231,246,0,0,0,0,0,0,0,0,0,-1,993,778,0,0
-224,246,0,0,0,0,0,0,0,0,0,-1,1000,778,0,0
-217,246,0,0,0,0,0,0,0,0,0,-1,1007,778,0,0
-210,246,0,0,0,0,0,0,0,0,0,-1,1014,778,0,0
-203,246,0,0,0,0,0,0,0,0,0,-1,1021,778,0,0
-196,246,0,0,0,0,0,0,0,0,0,-1,1028,778,0,0
-189,246,0,0,0,0,0,0,0,0,0,-1,1035,778,0,0
-182,246,0,0,0,0,0,0,0,0,0,-1,1042,778,0,0
-175,246,0,0,0,0,0,0,0,0,0,-1,1049,778,0,0
-168,246,0,0,0,0,0,0,0,0,0,-1,1056,778,0,0
-161,246,0,0,0,0,0,0,0,0,0,-1,1063,778,0,0
-154,246,0,0,0,0,0,0,0,0,0,-1,1070,778,0,0
-147,246,0,0,0,0,0,0,0,0,0,-1,1077,778,0,0
-140,246,0,0,0,0,0,0,0,0,0,-1,1084,778,0,0
-133,246,0,0,0,0,0,0,0,0,0,-1,1091,778,0,0
-126,246,0,0,0,0,0,0,0,0,0,-1,1098,778,0,0
-119,246,0,0,0,0,0,0,0,0,0,-1,1105,778,0,0
-112,246,0,0,0,0,0,0,0,0,0,-1,1112,778,0,0
-105,246,0,0,0,0,0,0,0,0,0,-1,1119,778,0,0
-98,246,0,0,0,0,0,0,0,0,0,-1,1126,778,0,0
-91,246,0,0,0,0,0,0,0,0,0,-1,1133,778,0,0
-84,246,0,0,0,0,0,0,0,0,0,-1,1140,778,0,0
-77,246,0,0,0,0,0,0,0,0,0,-1,1147,778,0,0
-70,246,0,0,0,0,0,0,0,0,0,-1,1154,778,0,0
-63,246,0,0,0,0,0,0,0,0,0,-1,1161,778,0,0
-56,246,0,0,0,0,0,0,0,0,0,-1,1168,778,0,0
-49,246,0,0,0,0,0,0,0,0,0,-1,1175,778,0,0
-42,246,0,0,0,0,0,0,0,0,0,-1,1182,778,0,0
-35,246,0,0,0,0,0,0,0,0,0,-1,1189,778,0,0
-28,246,0,0,0,0,0,0,0,0,0,-1,1196,778,0,0
-21,246,0,0,0,0,0,0,0,0,0,-1,1203,778,0,0
-14,246,0,0,0,0,0,0,0,0,0,-1,1210,778,0,0
-7,246,0,0,0,0,0,0,0,0,0,-1,1217,778,0,0
0,246,0,0,0,0,0,0,0,0,0,-1,1224,778,0,0
7,246,0,0,0,0,0,0,0,0,0,-1,1231,778,0,0
14,246,0,0,0,0,0,0,0,0,0,-1,1238,778,0,0
21,246,0,0,0,0,0,0,0,0,0,-1,1245,778,0,0
28,246,0,0,0,0,0,0,0,0,0,-1,1252,778,0,0
35,246,0,0,0,0,0,0,0,0,0,-1,1259,778,0,0
42,246,0,0,0,0,0,0,0,0,0,-1,1266,778,0,0
49,246,0,0,0,0,0,0,0,0,0,-1,1273,778,0,0
56,246,0,0,0,0,0,0,0,0,0,-1,1280,778,0,0
63,246,0,0,0,0,0,0,0,0,0,-1,1287,778,0,0
70,246,0,0,0,0,0,0,0,0,0,-1,1294,778,0,0
77,246,0,0,0,0,0,0,0,0,0,-1,1301,778,0,0
84,246,0,0,0,0,0,0,0,0,0,-1,1308,778,0,0
91,246,0,0,0,0,0,0,0,0,0,-1,1315,778,0,0
98,246,0,0,0,0,0,0,0,0,0,-1,1322,778,0,0
105,246,0,0,0,0,0,0,0,0,0,-1,1329,778,0,0
112,246,0,0,0,0,0,0,0,0,0,-1,1336,778,0,0
119,246,0,0,0,0,0,0,0,0,0,-1,1343,778,0,0
126,246,0,0,0,0,0,0,0,0,0,-1,1350,778,0,0
133,246,0,0,0,0,0,0,0,0,0,-1,1357,778,0,0
140,246,0,0,0,0,0,0,0,0,0,-1,1364,778,0,0
147,246,0,0,0,0,0,0,0,0,0,-1,1371,778,0,0
154,246,0,0,0,0,0,0,0,0,0,-1,1378,778,0,0
161,246,0,0,0,0,0,0,0,0,0,-1,1385,778,0,0
168,246,0,0,0,0,0,0,0,0,0,-1,1392,778,0,0
175,246,0,0,0,0,0,0,0,0,0,-1,1399,778,0,0
182,246,0,0,0,0,0,0,0,0,0,-1,1406,778,0,0
189,246,0,0,0,0,0,0,0,0,0,-1,1413,778,0,0
196,246,0,0,0,0,0,0,0,0,0,-1,1420,778,0,0
203,246,0,0,0,0,0,0,0,0,0,-1,1427,778,0,0
210,246,0,0,0,0,0,0,0,0,0,-1,1434,778,0,0
217,246,0,0,0,0,0,0,0,0,0,-1,1441,778,0,0
224,246,0,0,0,0,0,0,0,0,0,-1,1448,778,0,0
231,246,0,0,0,0,0,0,0,0,0,-1,1455,778,0,0
238,246,0,0,0,0,0,0,0,0,0,-1,1462,778,0,0
245,246,0,0,0,0,0,0,0,0,0,-1,1469,778,0,0
252,246,0,0,0,0,0,0,0,0,0,-1,1476,778,0,0
259,246,0,0,0,0,0,0,0,0,0,-1,1483,778,0,0
266,246,0,0,0,0,0,0,0,0,0,-1,1490,778,0,0
273,246,0,0,0,0,0,0,0,0,0,-1,1497,778,0,0
280,246,0,0,0,0,0,0,0,0,0,-1,1504,778,0,0
287,246,0,0,0,0,0,0,0,0,0,-1,1511,778,0,0
294,246,0,0,0,0,0,0,0,0,0,-1,1518,778,0,0
301,246,0,0,0,0,0,0,0,0,0,-1,1525,778,0,0
308,246,0,0,0,0,0,0,0,0,0,-1,1532,778,0,0
315,246,0,0,0,0,0,0,0,0,0,-1,1539,778,0,0
322,246,0,0,0,0,0,0,0,0,0,-1,1546,778,0,0
329,246,0,0,0,0,0,0,0,0,0,-1,1553,778,0,0
336,246,0,0,0,0,0,0,0,0,0,-1,1560,778,0,0
343,246,0,0,0,0,0,0,0,0,0,-1,1567,778,0,0
350,246,0,0,0,0,0,0,0,0,0,-1,1574,778,0,0
357,246,0,0,0,0,0,0,0,0,0,-1,1581,778,0,0
364,246,0,0,0,0,0,0,0,0,0,-1,1588,778,0,0
371,246,0,0,0,0,0,0,0,0,0,-1,1595,778,0,0
378,246,0,0,0,0,0,0,0,0,0,-1,1602,778,0,0
385,246,0,0,0,0,0,0,0,0,0,-1,1609,778,0,0
392,246,0,0,0,0,0,0,0,0,0,-1,1616,778,0,0
399,246,0,0,0,0,0,0,0,0,0,-1,1623,778,0,0
406,246,0,0,0,0,0,0,0,0,0,-1,1630,778,0,0
413,246,0,0,0,0,0,0,0,0,0,-1,1637,778,0,0
420,246,0,0,0,0,0,0,0,0,0,-1,1644,778,0,0
427,246,0,0,0,0,0,0,0,0,0,-1,1651,778,0,0
434,246,0,0,0,0,0,0,0,0,0,-1,1658,778,0,0
441,246,0,0,0,0,0,0,0,0,0,-1,1665,778,0,0
448,246,0,0,0,0,0,0,0,0,0,-1,1672,778,0,0
455,246,0,0,0,0,0,0,0,0,0,-1,1679,778,0,0
462,246,0,0,0,0,0,0,0,0,0,-1,1686,778,0,0
469,246,0,0,0,0,0,0,0,0,0,-1,1693,778,0,0
476,246,0,0,0,0,0,0,0,0,0,-1,1700,778,0,0
483,246,0,0,0,0,0,0,0,0,0,-1,1707,778,0,0
490,246,0,0,0,0,0,0,0,0,0,-1,1714,778,0,0
497,246,0,0,0,0,0,0,0,0,0,-1,1721,778,0,0
504,246,0,0,0,0,0,0,0,0,0,-1,1728,778,0,0
511,246,0,0,0,0,0,0,0,0,0,-1,1735,778,0,0
518,246,0,0,0,0,0,0,0,0,0,-1,1742,778,0,0
525,246,0,0,0,0,0,0,0,0,0,-1,1749,778,0,0
532,246,0,0,0,0,0,0,0,0,0,-1,1756,778,0,0
539,246,0,0,0,0,0,0,0,0,0,-1,1763,778,0,0
546,246,0,0,0,0,0,0,0,0,0,-1,1770,778,0,0
553,246,0,0,0,0,0,0,0,0,0,-1,1777,778,0,0
560,246,0,0,0,0,0,0,0,0,0,-1,1784,778,0,0
567,246,0,0,0,0,0,0,0,0,0,-1,1791,778,0,0
574,246,0,0,0,0,0,0,0,0,0,-1,1798,778,0,0
581,246,21.2894,3.09845,0.010716,-0.0222963,0.0151368,0.0166058,-0.028186,0.371075,0.0261471,0.0384062,1805,778,21.2894,-3.09846
588,246,21.3383,3.06122,0.00688089,-0.0156414,0.00911762,0.0101092,-0.0188697,0.340299,0.0169839,0.0412394,1812,778,21.3383,-3.06119
595,246,21.5747,3.0058,0.00377396,-0.00977951,0.00402991,0.00488166,-0.0108872,0.268245,0.00932165,0.0412695,1819,778,21.5747,-3.00579
602,246,21.6543,2.94897,0.00171723,-0.00532003,0.000198233,0.00172281,-0.00532561,0.0281393,0.00424291,0.044877,1826,778,21.6542,-2.94898
609,246,21.823,2.5249,0.000392911,-0.00223338,-0.002528,0.00192847,-0.00376894,-0.545859,0.00334612,0.0472809,1833,778,21.823,-2.52492
616,246,22.1129,2.24603,-0.000474338,-0.000234571,-0.00425937,0.00390661,-0.00461552,-0.799467,0.00492592,0.0484282,1840,778,22.1129,-2.24603
623,246,21.8925,3.5061,-0.000939251,0.00082336,-0.00513603,0.00515315,-0.00526904,-0.870367,0.00601738,0.0417673,1847,778,21.8924,-3.5061
630,246,22.1873,2.93982,0,0,0,0,0,0,0,-1,1854,778,22.1873,-2.9398
637,246,18.9102,4.22638,0,0,0,0,0,0,0,-1,1861,778,18.9101,-4.22637
644,246,15.3005,1.34491,0,0,0,0,0,0,0,-1,1868,778,15.3005,-1.34492
651,246,15.3684,1.43298,-0.00167201,0.000783577,-0.00494191,0.00464792,-0.00553636,-0.907156,0.00588735,0.0311588,1875,778,15.3684,-1.43299
658,246,15.4619,1.64911,-0.00128525,8.0359e-05,-0.00409481,0.0035489,-0.00475379,-0.868012,0.00481036,0.0216776,1882,778,15.4619,-1.64913
665,246,15.407,1.90894,-0.000721213,-0.000790478,-0.00284606,0.00209043,-0.00360212,-0.779314,0.003325,0.021818,1889,778,15.407,-1.90891
672,246,15.4287,2.13055,7.91301e-05,-0.00170867,-0.00186214,0.00125081,-0.00288035,-0.561622,0.00244619,0.0198575,1896,778,15.4287,-2.13057
679,246,15.4526,2.37036,0.000885569,-0.00144062,-0.00130621,0.00147147,-0.00202652,-0.421646,0.00202802,0.0203333,1903,778,15.4527,-2.37037
686,246,15.4391,2.6239,0.00194305,-0.000903851,-0.00106115,0.00229506,-0.00125586,-0.320301,0.00207918,0.0211246,1910,778,15.4391,-2.62389
693,246,15.4332,2.85028,0.00353156,-0.000278331,-0.000705247,0.00365791,-0.000404688,-0.177286,0.00258409,0.0169446,1917,778,15.4333,-2.85028
700,246,15.4402,3.06256,0.00544155,0.000328626,-0.00048002,0.00548623,0.00028395,-0.092803,0.0035666,0.0149009,1924,778,15.4402,-3.06253
707,246,15.4424,3.28149,0.00771237,0.000703221,-0.00029934,0.00772513,0.00069046,-0.0426037,0.00493605,0.0137422,1931,778,15.4424,-3.28147
714,246,15.3978,3.51508,0.010496,0.000919244,-0.000267524,0.0105035,0.000911776,-0.0279057,0.00671904,0.0122412,1938,778,15.3978,-3.51507
721,246,15.4041,3.74005,0.0137945,0.000944469,-0.000315902,0.0138023,0.000936707,-0.0245639,0.00890571,0.0177646,1945,778,15.4041,-3.74008
728,246,15.4611,4.02612,0.0178603,0.00085954,-0.000343523,0.0178672,0.000852602,-0.0201954,0.0116377,0.0364719,1952,778,15.4611,-4.02612
735,246,15.5955,3.99268,0.0226917,0.000517014,-0.000439453,0.0227004,0.000508309,-0.0198074,0.0149671,0.0450336,1959,778,15.5954,-3.99267
742,246,15.7875,4.22595,0,0,0,0,0,0,0,-1,1966,778,15.7874,-4.22593
749,246,15.3524,4.94763,0,0,0,0,0,0,0,-1,1973,778,15.3525,-4.94761
756,246,13.2834,4.66998,0,0,0,0,0,0,0,-1,1980,778,13.2835,-4.66999
763,246,0,0,0,0,0,0,0,0,0,-1,1987,778,0,0
770,246,0,0,0,0,0,0,0,0,0,-1,1994,778,0,0
777,246,0,0,0,0,0,0,0,0,0,-1,2001,778,0,0
784,246,0,0,0,0,0,0,0,0,0,-1,2008,778,0,0
791,246,0,0,0,0,0,0,0,0,0,-1,2015,778,0,0
798,246,0,0,0,0,0,0,0,0,0,-1,2022,778,0,0
805,246,0,0,0,0,0,0,0,0,0,-1,2029,778,0,0
812,246,0,0,0,0,0,0,0,0,0,-1,2036,778,0,0
-700,239,0,0,0,0,0,0,0,0,0,-1,524,785,0,0
-693,239,0,0,0,0,0,0,0,0,0,-1,531,785,0,0
-686,239,0,0,0,0,0,0,0,0,0,-1,538,785,0,0
-679,239,0,0,0,0,0,0,0,0,0,-1,545,785,0,0
-672,239,0,0,0,0,0,0,0,0,0,-1,552,785,0,0
-665,239,0,0,0,0,0,0,0,0,0,-1,559,785,0,0
-658,239,0,0,0,0,0,0,0,0,0,-1,566,785,0,0
-651,239,0,0,0,0,0,0,0,0,0,-1,573,785,0,0
-644,239,0,0,0,0,0,0,0,0,0,-1,580,785,0,0
-637,239,-11.8145,4.40668,0.0157348,0.0917554,-0.0200557,0.096722,0.0107682,-1.32804,0.0612085,0.0472399,587,785,-11.8144,-4.40669
-630,239,-11.638,4.5531,0.00940876,0.0752518,-0.0170755,0.0794166,0.00524389,-1.33156,0.0512859,0.044575,594,785,-11.638,-4.55308
-623,239,-11.7826,4.68591,0.00543476,0.0602875,-0.0137438,0.0635384,0.00218382,-1.33853,0.0416501,0.043466,601,785,-11.7826,-4.68594
-616,239,-12.2643,4.8183,0.00285876,0.0469541,-0.0104844,0.04932,0.00049286,-1.34885,0.032717,0.0457045,608,785,-12.2643,-4.81832
-609,239,-9.33575,2.23114,0,0,0,0,0,0,0,-1,615,785,-9.33574,-2.23114
-602,239,-9.35956,1.99896,0.000421193,0.0256863,-0.00507009,0.0266658,-0.000558279,-1.37996,0.0179662,0.0494353,622,785,-9.35957,-1.99899
-595,239,-9.23535,1.66687,-3.60181e-05,0.0179068,-0.00307115,0.0184179,-0.000547128,-1.40588,0.012465,0.0363388,629,785,-9.23538,-1.66688
-588,239,-9.15051,1.40948,-0.000458962,0.0117679,-0.00183866,0.0120384,-0.000729472,-1.42472,0.00827951,0.0168815,636,785,-9.15048,-1.4095
-581,239,-9.21149,1.22217,-0.000785319,0.00706667,-0.000445397,0.00709185,-0.000810502,-1.51431,0.00501993,0.0109326,643,785,-9.21148,-1.22219
-574,239,-9.21313,1.00397,-0.000675585,0.00383465,0.000172977,0.00384127,-0.000682209,1.53252,0.00281593,0.011874,650,785,-9.2131,-1.00394
-567,239,-9.1936,0.795959,-0.000728289,0.00147782,0.000961616,0.00183813,-0.0010886,1.2123,0.00170812,0.0128891,657,785,-9.19362,-0.795965
-560,239,-9.17407,0.600525,-0.0013093,-0.000280196,0.00153833,0.000827353,-0.00241685,0.946793,0.00194654,0.0121294,664,785,-9.17406,-0.600508
-553,239,-9.20044,0.400085,-0.00219682,-0.000533306,0.00155717,0.000400325,-0.00313045,1.03069,0.00223241,0.0131685,671,785,-9.20042,-0.400101
-546,239,-9.25793,0.195129,-0.00366563,-0.000798496,0.0019262,0.000169056,-0.00463319,1.1053,0.00314666,0.0138423,678,785,-9.25794,-0.195109
-539,239,-9.23541,-0.0363159,-0.00596298,-0.00078759,0.00235147,0.000121223,-0.00687179,1.20199,0.00462213,0.015095,685,785,-9.23543,0.0363019
-532,239,-9.20831,-0.263245,-0.00823322,0.000424271,0.00295668,0.00133766,-0.00914661,1.27117,0.00658905,0.0129491,692,785,-9.20833,0.263215
-525,239,-9.20905,-0.442017,-0.0104323,0.00223885,0.00377201,0.00327671,-0.0114702,1.30229,0.00894146,0.0149643,699,785,-9.20903,0.44204
-518,239,-9.25647,-0.599976,-0.0124431,0.00412487,0.00418117,0.00512025,-0.0134385,1.33708,0.0110678,0.0363294,706,785,-9.25648,0.600004
-511,239,-9.35541,-0.71106,-0.0142478,0.00638106,0.00502447,0.00753976,-0.0154065,1.34415,0.0135051,0.0431573,713,785,-9.35542,0.711086
-504,239,-9.37726,-0.812073,0,0,0,0,0,0,0,-1,720,785,-9.37723,0.812073
-497,239,-13.4191,1.32196,0,0,0,0,0,0,0,-1,727,785,-13.4191,-1.32194
-490,239,-13.6245,1.18695,-0.0168307,0.0174112,0.00990199,0.0200685,-0.0194879,1.30862,0.0228387,0.0472495,734,785,-13.6245,-1.18694
-483,239,-14.0139,1.23926,-0.0155739,0.0220193,0.0121612,0.0256103,-0.019165,1.28367,0.0259402,0.0461275,741,785,-14.0139,-1.23927
-476,239,-14.0152,1.40674,-0.0121095,0.0264932,0.0148698,0.0315569,-0.0171732,1.24258,0.0285399,0.0403684,748,785,-14.0152,-1.40675
-469,239,-13.9568,1.3913,-0.0055914,0.0299343,0.0178586,0.0373597,-0.0130168,1.17675,0.0301956,0.0414892,755,785,-13.9569,-1.39131
-462,239,-13.9913,1.29559,0.00516202,0.0308524,0.0208745,0.0425173,-0.00650282,1.06122,0.0307426,0.0429557,762,785,-13.9913,-1.29557
-455,239,0,0,0,0,0,0,0,0,0,-1,769,785,0,0
-448,239,0,0,0,0,0,0,0,0,0,-1,776,785,0,0
-441,239,0,0,0,0,0,0,0,0,0,-1,783,785,0,0
-434,239,0,0,0,0,0,0,0,0,0,-1,790,785,0,0
-427,239,0,0,0,0,0,0,0,0,0,-1,797,785,0,0
-420,239,0,0,0,0,0,0,0,0,0,-1,804,785,0,0
-413,239,0,0,0,0,0,0,0,0,0,-1,811,785,0,0
-406,239,0,0,0,0,0,0,0,0,0,-1,818,785,0,0
-399,239,0,0,0,0,0,0,0,0,0,-1,825,785,0,0
-392,239,0,0,0,0,0,0,0,0,0,-1,832,785,0,0
-385,239,0,0,0,0,0,0,0,0,0,-1,839,785,0,0
-378,239,0,0,0,0,0,0,0,0,0,-1,846,785,0,0
-371,239,0,0,0,0,0,0,0,0,0,-1,853,785,0,0
-364,239,0,0,0,0,0,0,0,0,0,-1,860,785,0,0
-357,239,0,0,0,0,0,0,0,0,0,-1,867,785,0,0
-350,239,0,0,0,0,0,0,0,0,0,-1,874,785,0,0
-343,239,0,0,0,0,0,0,0,0,0,-1,881,785,0,0
-336,239,0,0,0,0,0,0,0,0,0,-1,888,785,0,0
-329,239,0,0,0,0,0,0,0,0,0,-1,895,785,0,0
-322,239,0,0,0,0,0,0,0,0,0,-1,902,785,0,0
-315,239,0,0,0,0,0,0,0,0,0,-1,909,785,0,0
-308,239,0,0,0,0,0,0,0,0,0,-1,916,785,0,0
-301,239,0,0,0,0,0,0,0,0,0,-1,923,785,0,0
-294,239,0,0,0,0,0,0,0,0,0,-1,930,785,0,0
-287,239,0,0,0,0,0,0,0,0,0,-1,937,785,0,0
-280,239,0,0,0,0,0,0,0,0,0,-1,944,785,0,0
-273,239,0,0,0,0,0,0,0,0,0,-1,951,785,0,0
-266,239,0,0,0,0,0,0,0,0,0,-1,958,785,0,0
-259,239,0,0,0,0,0,0,0,0,0,-1,965,785,0,0
-252,239,0,0,0,0,0,0,0,0,0,-1,972,785,0,0
-245,239,0,0,0,0,0,0,0,0,0,-1,979,785,0,0
-238,239,0,0,0,0,0,0,0,0,0,-1,986,785,0,0
-231,239,0,0,0,0,0,0,0,0,0,-1,993,785,0,0
-224,239,0,0,0,0,0,0,0,0,0,-1,1000,785,0,0
-217,239,0,0,0,0,0,0,0,0,0,-1,1007,785,0,0
-210,239,0,0,0,0,0,0,0,0,0,-1,1014,785,0,0
-203,239,0,0,0,0,0,0,0,0,0,-1,1021,785,0,0
-196,239,0,0,0,0,0,0,0,0,0,-1,1028,785,0,0
-189,239,0,0,0,0,0,0,0,0,0,-1,1035,785,0,0
-182,239,0,0,0,0,0,0,0,0,0,-1,1042,785,0,0
-175,239,0,0,0,0,0,0,0,0,0,-1,1049,785,0,0
-168,239,0,0,0,0,0,0,0,0,0,-1,1056,785,0,0
-161,239,0,0,0,0,0,0,0,0,0,-1,1063,785,0,0
-154,239,0,0,0,0,0,0,0,0,0,-1,1070,785,0,0
-147,239,0,0,0,0,0,0,0,0,0,-1,1077,785,0,0
-140,239,0,0,0,0,0,0,0,0,0,-1,1084,785,0,0
-133,239,0,0,0,0,0,0,0,0,0,-1,1091,785,0,0
-126,239,0,0,0,0,0,0,0,0,0,-1,1098,785,0,0
-119,239,0,0,0,0,0,0,0,0,0,-1,1105,785,0,0
-112,239,0,0,0,0,0,0,0,0,0,-1,1112,785,0,0
-105,239,0,0,0,0,0,0,0,0,0,-1,1119,785,0,0
-98,239,0,0,0,0,0,0,0,0,0,-1,1126,785,0,0
-91,239,0,0,0,0,0,0,0,0,0,-1,1133,785,0,0
-84,239,0,0,0,0,0,0,0,0,0,-1,1140,785,0,0
-77,239,0,0,0,0,0,0,0,0,0,-1,1147,785,0,0
-70,239,0,0,0,0,0,0,0,0,0,-1,1154,785,0,0
-63,239,0,0,0,0,0,0,0,0,0,-1,1161,785,0,0
-56,239,0,0,0,0,0,0,0,0,0,-1,1168,785,0,0
-49,239,0,0,0,0,0,0,0,0,0,-1,1175,785,0,0
-42,239,0,0,0,0,0,0,0,0,0,-1,1182,785,0,0
-35,239,0,0,0,0,0,0,0,0,0,-1,1189,785,0,0
-28,239,0,0,0,0,0,0,0,0,0,-1,1196,785,0,0
-21,239,0,0,0,0,0,0,0,0,0,-1,1203,785,0,0
-14,239,0,0,0,0,0,0,0,0,0,-1,1210,785,0,0
-7,239,0,0,0,0,0,0,0,0,0,-1,1217,785,0,0
0,239,0,0,0,0,0,0,0,0,0,-1,1224,785,0,0
7,239,0,0,0,0,0,0,0,0,0,-1,1231,785,0,0
14,239,0,0,0,0,0,0,0,0,0,-1,1238,785,0,0
21,239,0,0,0,0,0,0,0,0,0,-1,1245,785,0,0
28,239,0,0,0,0,0,0,0,0,0,-1,1252,785,0,0
35,239,0,0,0,0,0,0,0,0,0,-1,1259,785,0,0
42,239,0,0,0,0,0,0,0,0,0,-1,1266,785,0,0
49,239,0,0,0,0,0,0,0,0,0,-1,1273,785,0,0
56,239,0,0,0,0,0,0,0,0,0,-1,1280,785,0,0
63,239,0,0,0,0,0,0,0,0,0,-1,1287,785,0,0
70,239,0,0,0,0,0,0,0,0,0,-1,1294,785,0,0
77,239,0,0,0,0,0,0,0,0,0,-1,1301,785,0,0
84,239,0,0,0,0,0,0,0,0,0,-1,1308,785,0,0
91,239,0,0,0,0,0,0,0,0,0,-1,1315,785,0,0
98,239,0,0,0,0,0,0,0,0,0,-1,1322,785,0,0
105,239,0,0,0,0,0,0,0,0,0,-1,1329,785,0,0
112,239,0,0,0,0,0,0,0,0,0,-1,1336,785,0,0
119,239,0,0,0,0,0,0,0,0,0,-1,1343,785,0,0
126,239,0,0,0,0,0,0,0,0,0,-1,1350,785,0,0
133,239,0,0,0,0,0,0,0,0,0,-1,1357,785,0,0
140,239,0,0,0,0,0,0,0,0,0,-1,1364,785,0,0
147,239,0,0,0,0,0,0,0,0,0,-1,1371,785,0,0
154,239,0,0,0,0,0,0,0,0,0,-1,1378,785,0,0
161,239,0,0,0,0,0,0,0,0,0,-1,1385,785,0,0
168,239,0,0,0,0,0,0,0,0,0,-1,1392,785,0,0
175,239,0,0,0,0,0,0,0,0,0,-1,1399,785,0,0
182,239,0,0,0,0,0,0,0,0,0,-1,1406,785,0,0
189,239,0,0,0,0,0,0,0,0,0,-1,1413,785,0,0
196,239,0,0,0,0,0,0,0,0,0,-1,1420,785,0,0
203,239,0,0,0,0,0,0,0,0,0,-1,1427,785,0,0
210,239,0,0,0,0,0,0,0,0,0,-1,1434,785,0,0
217,239,0,0,0,0,0,0,0,0,0,-1,1441,785,0,0
224,239,0,0,0,0,0,0,0,0,0,-1,1448,785,0,0
231,239,0,0,0,0,0,0,0,0,0,-1,1455,785,0,0
238,239,0,0,0,0,0,0,0,0,0,-1,1462,785,0,0
245,239,0,0,0,0,0,0,0,0,0,-1,1469,785,0,0
252,239,0,0,0,0,0,0,0,0,0,-1,1476,785,0,0
259,239,0,0,0,0,0,0,0,0,0,-1,1483,785,0,0
266,239,0,0,0,0,0,0,0,0,0,-1,1490,785,0,0
273,239,0,0,0,0,0,0,0,0,0,-1,1497,785,0,0
280,239,0,0,0,0,0,0,0,0,0,-1,1504,785,0,0
287,239,0,0,0,0,0,0,0,0,0,-1,1511,785,0,0
294,239,0,0,0,0,0,0,0,0,0,-1,1518,785,0,0
301,239,0,0,0,0,0,0,0,0,0,-1,1525,785,0,0
308,239,0,0,0,0,0,0,0,0,0,-1,1532,785,0,0
315,239,0,0,0,0,0,0,0,0,0,-1,1539,785,0,0
322,239,0,0,0,0,0,0,0,0,0,-1,1546,785,0,0
329,239,0,0,0,0,0,0,0,0,0,-1,1553,785,0,0
336,239,0,0,0,0,0,0,0,0,0,-1,1560,785,0,0
343,239,0,0,0,0,0,0,0,0,0,-1,1567,785,0,0
350,239,0,0,0,0,0,0,0,0,0,-1,1574,785,0,0
357,239,0,0,0,0,0,0,0,0,0,-1,1581,785,0,0
364,239,0,0,0,0,0,0,0,0,0,-1,1588,785,0,0
371,239,0,0,0,0,0,0,0,0,0,-1,1595,785,0,0
378,239,0,0,0,0,0,0,0,0,0,-1,1602,785,0,0
385,239,0,0,0,0,0,0,0,0,0,-1,1609,785,0,0
392,239,0,0,0,0,0,0,0,0,0,-1,1616,785,0,0
399,239,0,0,0,0,0,0,0,0,0,-1,1623,785,0,0
406,239,0,0,0,0,0,0,0,0,0,-1,1630,785,0,0
413,239,0,0,0,0,0,0,0,0,0,-1,1637,785,0,0
420,239,0,0,0,0,0,0,0,0,0,-1,1644,785,0,0
427,239,0,0,0,0,0,0,0,0,0,-1,1651,785,0,0
434,239,0,0,0,0,0,0,0,0,0,-1,1658,785,0,0
441,239,0,0,0,0,0,0,0,0,0,-1,1665,785,0,0
448,239,0,0,0,0,0,0,0,0,0,-1,1672,785,0,0
455,239,0,0,0,0,0,0,0,0,0,-1,1679,785,0,0
462,239,0,0,0,0,0,0,0,0,0,-1,1686,785,0,0
469,239,0,0,0,0,0,0,0,0,0,-1,1693,785,0,0
476,239,0,0,0,0,0,0,0,0,0,-1,1700,785,0,0
483,239,0,0,0,0,0,0,0,0,0,-1,1707,785,0,0
490,239,0,0,0,0,0,0,0,0,0,-1,1714,785,0,0
497,239,0,0,0,0,0,0,0,0,0,-1,1721,785,0,0
504,239,0,0,0,0,0,0,0,0,0,-1,1728,785,0,0
511,239,0,0,0,0,0,0,0,0,0,-1,1735,785,0,0
518,239,0,0,0,0,0,0,0,0,0,-1,1742,785,0,0
525,239,0,0,0,0,0,0,0,0,0,-1,1749,785,0,0
532,239,0,0,0,0,0,0,0,0,0,-1,1756,785,0,0
539,239,0,0,0,0,0,0,0,0,0,-1,1763,785,0,0
546,239,0,0,0,0,0,0,0,0,0,-1,1770,785,0,0
553,239,0,0,0,0,0,0,0,0,0,-1,1777,785,0,0
560,239,0,0,0,0,0,0,0,0,0,-1,1784,785,0,0
567,239,0,0,0,0,0,0,0,0,0,-1,1791,785,0,0
574,239,0,0,0,0,0,0,0,0,0,-1,1798,785,0,0
581,239,21.2069,3.27338,0.0122414,-0.0192523,0.0128053,0.0167908,-0.0238017,0.341368,0.0235523,0.0349167,1805,785,21.2069,-3.27335
588,239,21.2308,3.24414,0.00872831,-0.0130053,0.00739121,0.0110037,-0.0152807,0.298644,0.0152421,0.0365324,1812,785,21.2308,-3.24414
595,239,21.4913,2.98651,0.00553377,-0.00754766,0.00276823,0.00609545,-0.00810934,0.200185,0.00822857,0.0344947,1819,785,21.4913,-2.98651
602,239,21.6055,2.92999,0.00319625,-0.00354471,-0.000642576,0.00325695,-0.00360542,-0.0941937,0.00396369,0.0380821,1826,785,21.6054,-2.92997
609,239,21.623,2.96729,0,0,0,0,0,0,0,-1,1833,785,21.623,-2.9673
616,239,21.0175,3.56635,0,0,0,0,0,0,0,-1,1840,785,21.0175,-3.56634
623,239,21.5129,3.27704,-7.5534e-05,0.000983285,-0.00505169,0.00553324,-0.00462548,-0.837607,0.00587294,0.0419238,1847,785,21.513,-3.27704
630,239,21.9539,3.08563,-0.000514839,0.000919211,-0.00520539,0.00545673,-0.00505236,-0.853841,0.00606892,0.0401922,1854,785,21.9538,-3.08561
637,239,21.4707,3.57098,0,0,0,0,0,0,0,-1,1861,785,21.4708,-3.57099
644,239,15.3605,1.26666,0,0,0,0,0,0,0,-1,1868,785,15.3605,-1.26667
651,239,15.505,1.46338,-0.00134054,4.27703e-05,-0.00443047,0.00383525,-0.00513302,-0.86283,0.00519587,0.0442918,1875,785,15.505,-1.4634
658,239,15.6393,1.67493,-0.00116814,-0.000555471,-0.00374177,0.00289248,-0.00461609,-0.826241,0.00437299,0.0190609,1882,785,15.6393,-1.67493
665,239,15.6566,1.93304,-0.00084945,-0.0012972,-0.00271687,0.00165275,-0.0037994,-0.74429,0.00322811,0.0137139,1889,785,15.6566,-1.93303
672,239,15.6608,2.15875,-0.00032218,-0.00211672,-0.00189977,0.000881551,-0.00332045,-0.564774,0.00255862,0.019892,1896,785,15.6607,-2.15875
679,239,15.6743,2.40619,0.000212034,-0.00182263,-0.00146005,0.000974228,-0.00258483,-0.481118,0.0021238,0.0221861,1903,785,15.6743,-2.40622
686,239,15.6716,2.64349,0.000906987,-0.00121854,-0.00127464,0.00150379,-0.00181535,-0.437898,0.00191912,0.022575,1910,785,15.6717,-2.64347
693,239,15.6997,2.85938,0.0020814,-0.000519369,-0.000947597,0.00239004,-0.000828003,-0.314866,0.00192952,0.0148225,1917,785,15.6997,-2.8594
700,239,15.6892,3.06946,0.00352495,0.000206646,-0.000751327,0.00368713,4.44587e-05,-0.212606,0.00244341,0.0119032,1924,785,15.6892,-3.06948
707,239,15.6715,3.27649,0.00519351,0.000697138,-0.000575314,0.00526595,0.000624693,-0.125263,0.00332204,0.0109869,1931,785,15.6715,-3.27649
714,239,15.6371,3.48651,0.00717451,0.00117023,-0.000588511,0.00723165,0.00111309,-0.096788,0.00449623,0.00985432,1938,785,15.6371,-3.48651
721,239,15.624,3.71417,0.00948885,0.00144187,-0.000710931,0.00955118,0.00137954,-0.0874449,0.00596106,0.0184303,1945,785,15.624,-3.71417
728,239,15.6168,3.9505,0.0122631,0.00173281,-0.000850586,0.0123314,0.00166455,-0.0800831,0.00772608,0.0335711,1952,785,15.6169,-3.95053
735,239,15.8341,4.25629,0.0154591,0.0019528,-0.00110581,0.015549,0.00186286,-0.0811538,0.00980421,0.047482,1959,785,15.8341,-4.25631
742,239,15.8832,4.41266,0,0,0,0,0,0,0,-1,1966,785,15.8832,-4.41265
749,239,15.884,4.56836,0,0,0,0,0,0,0,-1,1973,785,15.884,-4.56834
756,239,15.8762,4.6958,0,0,0,0,0,0,0,-1,1980,785,15.8763,-4.6958
763,239,0,0,0,0,0,0,0,0,0,-1,1987,785,0,0
770,239,0,0,0,0,0,0,0,0,0,-1,1994,785,0,0
777,239,0,0,0,0,0,0,0,0,0,-1,2001,785,0,0
784,239,0,0,0,0,0,0,0,0,0,-1,2008,785,0,0
791,239,0,0,0,0,0,0,0,0,0,-1,2015,785,0,0
798,239,0,0,0,0,0,0,0,0,0,-1,2022,785,0,0
805,239,0,0,0,0,0,0,0,0,0,-1,2029,785,0,0
812,239,0,0,0,0,0,0,0,0,0,-1,2036,785,0,0
-700,232,0,0,0,0,0,0,0,0,0,-1,524,792,0,0
-693,232,0,0,0,0,0,0,0,0,0,-1,531,792,0,0
-686,232,0,0,0,0,0,0,0,0,0,-1,538,792,0,0
-679,232,0,0,0,0,0,0,0,0,0,-1,545,792,0,0
-672,232,0,0,0,0,0,0,0,0,0,-1,552,792,0,0
-665,232,0,0,0,0,0,0,0,0,0,-1,559,792,0,0
-658,232,0,0,0,0,0,0,0,0,0,-1,566,792,0,0
-651,232,0,0,0,0,0,0,0,0,0,-1,573,792,0,0
-644,232,-12.3643,4.31586,0,0,0,0,0,0,0,-1,580,792,-12.3642,-4.31587
-637,232,-11.7529,4.16614,0.0187839,0.0898812,-0.0195478,0.0949013,0.0137638,-1.31942,0.0592152,0.0453054,587,792,-11.753,-4.16613
-630,232,-11.5079,4.04742,0.0115991,0.0732087,-0.0168587,0.0775202,0.00728768,-1.32042,0.0494303,0.0429386,594,792,-11.5079,-4.04745
-623,232,-11.5853,4.08447,0.00700146,0.0582502,-0.0136278,0.0616486,0.003603,-1.3264,0.0399523,0.0426501,601,792,-11.5852,-4.08448
-616,232,-11.4465,3.75018,0.00401366,0.0450715,-0.0104135,0.0475617,0.00152349,-1.33608,0.0312124,0.0459548,608,792,-11.4465,-3.75017
-609,232,-9.38562,2.25818,0,0,0,0,0,0,0,-1,615,792,-9.38562,-2.25819
-602,232,-9.43964,2.0191,0.00101679,0.0243831,-0.00504349,0.0254252,-2.53385e-05,-1.36703,0.0169586,0.0481685,622,792,-9.43962,-2.01913
-595,232,-9.41144,1.75635,0.000392345,0.0169317,-0.00308436,0.0174882,-0.000164123,-1.3923,0.0117139,0.0321036,629,792,-9.41142,-1.75634
-588,232,-9.41028,1.44708,-0.000176153,0.011028,-0.00192002,0.0113479,-0.000496046,-1.4057,0.00773595,0.0118467,636,792,-9.41026,-1.44706
-581,232,-9.41797,1.23047,-0.000539209,0.00651111,-0.000502043,0.00654668,-0.000574779,-1.50006,0.00456812,0.00848315,643,792,-9.41797,-1.23048
-574,232,-9.41638,1.02637,-0.000496464,0.00350411,0.00010777,0.00350701,-0.000499365,1.54388,0.002521,0.00864939,650,792,-9.41638,-1.02639
-567,232,-9.42401,0.806641,-0.000644974,0.00120503,0.000930979,0.00159241,-0.00103236,1.17649,0.00152687,0.0102106,657,792,-9.42402,-0.806624
-560,232,-9.42291,0.609924,-0.00140646,-0.000401373,0.00151709,0.00069424,-0.00250207,0.945338,0.00194129,0.0126852,664,792,-9.42294,-0.609905
-553,232,-9.46082,0.416138,-0.00247667,-0.000606463,0.00161045,0.000320684,-0.00340382,1.04843,0.00238331,0.012917,671,792,-9.46082,-0.416149
-546,232,-9.5188,0.201782,-0.00409724,-0.000773837,0.00203589,0.000192407,-0.00506348,1.12767,0.00344158,0.020487,678,792,-9.51881,-0.201801
-539,232,-9.48077,-0.0357666,-0.00635795,-0.000723555,0.00242235,0.000174671,-0.00725618,1.21571,0.00489672,0.024972,685,792,-9.48078,0.0357698
-532,232,-9.42834,-0.252747,-0.00850105,0.000421959,0.00294167,0.00130446,-0.00938355,1.27934,0.00673278,0.0162224,692,792,-9.42833,0.252759
-525,232,-9.46649,-0.406982,-0.0104538,0.00196005,0.00358136,0.00291916,-0.0114129,1.30913,0.0087456,0.0260204,699,792,-9.46651,0.407005
-518,232,-9.67963,-0.489319,-0.0122743,0.00360179,0.0038581,0.0044897,-0.0131622,1.34459,0.0105934,0.0485263,706,792,-9.67965,0.489349
-511,232,-9.90216,-0.600098,-0.0139543,0.00553462,0.00440565,0.00648428,-0.014904,1.35849,0.0126635,0.0441771,713,792,-9.90216,0.600069
-504,232,-10.0859,-0.691711,0,0,0,0,0,0,0,-1,720,792,-10.0859,0.691691
-497,232,-10.2641,-0.790894,0,0,0,0,0,0,0,-1,727,792,-10.2641,0.790882
-490,232,-13.6924,1.34167,-0.0162411,0.0150133,0.00700073,0.0165097,-0.0177375,1.36021,0.0197769,0.0424743,734,792,-13.6924,-1.3417
-483,232,-14.0941,1.27094,-0.0146999,0.0190425,0.00799278,0.02084,-0.0164975,1.34958,0.0216054,0.0422372,741,792,-14.094,-1.27096
-476,232,-14.1191,1.17157,-0.0107857,0.0228275,0.00901741,0.0250938,-0.013052,1.32457,0.0223863,0.0347662,748,792,-14.1192,-1.17159
-469,232,-14.1183,1.091,-0.00359732,0.0254065,0.00982606,0.0284219,-0.00661274,1.27304,0.021494,0.0318544,755,792,-14.1183,-1.091
-462,232,0,0,0,0,0,0,0,0,0,-1,762,792,0,0
-455,232,0,0,0,0,0,0,0,0,0,-1,769,792,0,0
-448,232,0,0,0,0,0,0,0,0,0,-1,776,792,0,0
-441,232,0,0,0,0,0,0,0,0,0,-1,783,792,0,0
-434,232,0,0,0,0,0,0,0,0,0,-1,790,792,0,0
-427,232,0,0,0,0,0,0,0,0,0,-1,797,792,0,0
-420,232,0,0,0,0,0,0,0,0,0,-1,804,792,0,0
-413,232,0,0,0,0,0,0,0,0,0,-1,811,792,0,0
-406,232,0,0,0,0,0,0,0,0,0,-1,818,792,0,0
-399,232,0,0,0,0,0,0,0,0,0,-1,825,792,0,0
-392,232,0,0,0,0,0,0,0,0,0,-1,832,792,0,0
-385,232,0,0,0,0,0,0,0,0,0,-1,839,792,0,0
-378,232,0,0,0,0,0,0,0,0,0,-1,846,792,0,0
-371,232,0,0,0,0,0,0,0,0,0,-1,853,792,0,0
-364,232,0,0,0,0,0,0,0,0,0,-1,860,792,0,0
-357,232,0,0,0,0,0,0,0,0,0,-1,867,792,0,0
-350,232,0,0,0,0,0,0,0,0,0,-1,874,792,0,0
-343,232,0,0,0,0,0,0,0,0,0,-1,881,792,0,0
-336,232,0,0,0,0,0,0,0,0,0,-1,888,792,0,0
-329,232,0,0,0,0,0,0,0,0,0,-1,895,792,0,0
-322,232,0,0,0,0,0,0,0,0,0,-1,902,792,0,0
-315,232,0,0,0,0,0,0,0,0,0,-1,909,792,0,0
-308,232,0,0,0,0,0,0,0,0,0,-1,916,792,0,0
-301,232,0,0,0,0,0,0,0,0,0,-1,923,792,0,0
-294,232,0,0,0,0,0,0,0,0,0,-1,930,792,0,0
-287,232,0,0,0,0,0,0,0,0,0,-1,937,792,0,0
-280,232,0,0,0,0,0,0,0,0,0,-1,944,792,0,0
-273,232,0,0,0,0,0,0,0,0,0,-1,951,792,0,0
-266,232,0,0,0,0,0,0,0,0,0,-1,958,792,0,0
-259,232,0,0,0,0,0,0,0,0,0,-1,965,792,0,0
-252,232,0,0,0,0,0,0,0,0,0,-1,972,792,0,0
-245,232,0,0,0,0,0,0,0,0,0,-1,979,792,0,0
-238,232,0,0,0,0,0,0,0,0,0,-1,986,792,0,0
-231,232,0,0,0,0,0,0,0,0,0,-1,993,792,0,0
-224,232,0,0,0,0,0,0,0,0,0,-1,1000,792,0,0
-217,232,0,0,0,0,0,0,0,0,0,-1,1007,792,0,0
-210,232,0,0,0,0,0,0,0,0,0,-1,1014,792,0,0
-203,232,0,0,0,0,0,0,0,0,0,-1,1021,792,0,0
-196,232,0,0,0,0,0,0,0,0,0,-1,1028,792,0,0
-189,232,0,0,0,0,0,0,0,0,0,-1,1035,792,0,0
-182,232,0,0,0,0,0,0,0,0,0,-1,1042,792,0,0
-175,232,0,0,0,0,0,0,0,0,0,-1,1049,792,0,0
-168,232,0,0,0,0,0,0,0,0,0,-1,1056,792,0,0
-161,232,0,0,0,0,0,0,0,0,0,-1,1063,792,0,0
-154,232,0,0,0,0,0,0,0,0,0,-1,1070,792,0,0
-147,232,0,0,0,0,0,0,0,0,0,-1,1077,792,0,0
-140,232,0,0,0,0,0,0,0,0,0,-1,1084,792,0,0
-133,232,0,0,0,0,0,0,0,0,0,-1,1091,792,0,0
-126,232,0,0,0,0,0,0,0,0,0,-1,1098,792,0,0
-119,232,0,0,0,0,0,0,0,0,0,-1,1105,792,0,0
-112,232,0,0,0,0,0,0,0,0,0,-1,1112,792,0,0
-105,232,0,0,0,0,0,0,0,0,0,-1,1119,792,0,0
-98,232,0,0,0,0,0,0,0,0,0,-1,1126,792,0,0
-91,232,0,0,0,0,0,0,0,0,0,-1,1133,792,0,0
-84,232,0,0,0,0,0,0,0,0,0,-1,1140,792,0,0
-77,232,0,0,0,0,0,0,0,0,0,-1,1147,792,0,0
-70,232,0,0,0,0,0,0,0,0,0,-1,1154,792,0,0
-63,232,0,0,0,0,0,0,0,0,0,-1,1161,792,0,0
-56,232,0,0,0,0,0,0,0,0,0,-1,1168,792,0,0
-49,232,0,0,0,0,0,0,0,0,0,-1,1175,792,0,0
-42,232,0,0,0,0,0,0,0,0,0,-1,1182,792,0,0
-35,232,0,0,0,0,0,0,0,0,0,-1,1189,792,0,0
-28,232,0,0,0,0,0,0,0,0,0,-1,1196,792,0,0
-21,232,0,0,0,0,0,0,0,0,0,-1,1203,792,0,0
-14,232,0,0,0,0,0,0,0,0,0,-1,1210,792,0,0
-7,232,0,0,0,0,0,0,0,0,0,-1,1217,792,0,0
0,232,0,0,0,0,0,0,0,0,0,-1,1224,792,0,0
7,232,0,0,0,0,0,0,0,0,0,-1,1231,792,0,0
14,232,0,0,0,0,0,0,0,0,0,-1,1238,792,0,0
21,232,0,0,0,0,0,0,0,0,0,-1,1245,792,0,0
28,232,0,0,0,0,0,0,0,0,0,-1,1252,792,0,0
35,232,0,0,0,0,0,0,0,0,0,-1,1259,792,0,0
42,232,0,0,0,0,0,0,0,0,0,-1,1266,792,0,0
49,232,0,0,0,0,0,0,0,0,0,-1,1273,792,0,0
56,232,0,0,0,0,0,0,0,0,0,-1,1280,792,0,0
63,232,0,0,0,0,0,0,0,0,0,-1,1287,792,0,0
70,232,0,0,0,0,0,0,0,0,0,-1,1294,792,0,0
77,232,0,0,0,0,0,0,0,0,0,-1,1301,792,0,0
84,232,0,0,0,0,0,0,0,0,0,-1,1308,792,0,0
91,232,0,0,0,0,0,0,0,0,0,-1,1315,792,0,0
98,232,0,0,0,0,0,0,0,0,0,-1,1322,792,0,0
105,232,0,0,0,0,0,0,0,0,0,-1,1329,792,0,0
112,232,0,0,0,0,0,0,0,0,0,-1,1336,792,0,0
119,232,0,0,0,0,0,0,0,0,0,-1,1343,792,0,0
126,232,0,0,0,0,0,0,0,0,0,-1,1350,792,0,0
133,232,0,0,0,0,0,0,0,0,0,-1,1357,792,0,0
140,232,0,0,0,0,0,0,0,0,0,-1,1364,792,0,0
147,232,0,0,0,0,0,0,0,0,0,-1,1371,792,0,0
154,232,0,0,0,0,0,0,0,0,0,-1,1378,792,0,0
161,232,0,0,0,0,0,0,0,0,0,-1,1385,792,0,0
168,232,0,0,0,0,0,0,0,0,0,-1,1392,792,0,0
175,232,0,0,0,0,0,0,0,0,0,-1,1399,792,0,0
182,232,0,0,0,0,0,0,0,0,0,-1,1406,792,0,0
189,232,0,0,0,0,0,0,0,0,0,-1,1413,792,0,0
196,232,0,0,0,0,0,0,0,0,0,-1,1420,792,0,0
203,232,0,0,0,0,0,0,0,0,0,-1,1427,792,0,0
210,232,0,0,0,0,0,0,0,0,0,-1,1434,792,0,0
217,232,0,0,0,0,0,0,0,0,0,-1,1441,792,0,0
224,232,0,0,0,0,0,0,0,0,0,-1,1448,792,0,0
231,232,0,0,0,0,0,0,0,0,0,-1,1455,792,0,0
238,232,0,0,0,0,0,0,0,0,0,-1,1462,792,0,0
245,232,0,0,0,0,0,0,0,0,0,-1,1469,792,0,0
252,232,0,0,0,0,0,0,0,0,0,-1,1476,792,0,0
259,232,0,0,0,0,0,0,0,0,0,-1,1483,792,0,0
266,232,0,0,0,0,0,0,0,0,0,-1,1490,792,0,0
273,232,0,0,0,0,0,0,0,0,0,-1,1497,792,0,0
280,232,0,0,0,0,0,0,0,0,0,-1,1504,792,0,0
287,232,0,0,0,0,0,0,0,0,0,-1,1511,792,0,0
294,232,0,0,0,0,0,0,0,0,0,-1,1518,792,0,0
301,232,0,0,0,0,0,0,0,0,0,-1,1525,792,0,0
308,232,0,0,0,0,0,0,0,0,0,-1,1532,792,0,0
315,232,0,0,0,0,0,0,0,0,0,-1,1539,792,0,0
322,232,0,0,0,0,0,0,0,0,0,-1,1546,792,0,0
329,232,0,0,0,0,0,0,0,0,0,-1,1553,792,0,0
336,232,0,0,0,0,0,0,0,0,0,-1,1560,792,0,0
343,232,0,0,0,0,0,0,0,0,0,-1,1567,792,0,0
350,232,0,0,0,0,0,0,0,0,0,-1,1574,792,0,0
357,232,0,0,0,0,0,0,0,0,0,-1,1581,792,0,0
364,232,0,0,0,0,0,0,0,0,0,-1,1588,792,0,0
371,232,0,0,0,0,0,0,0,0,0,-1,1595,792,0,0
378,232,0,0,0,0,0,0,0,0,0,-1,1602,792,0,0
385,232,0,0,0,0,0,0,0,0,0,-1,1609,792,0,0
392,232,0,0,0,0,0,0,0,0,0,-1,1616,792,0,0
399,232,0,0,0,0,0,0,0,0,0,-1,1623,792,0,0
406,232,0,0,0,0,0,0,0,0,0,-1,1630,792,0,0
413,232,0,0,0,0,0,0,0,0,0,-1,1637,792,0,0
420,232,0,0,0,0,0,0,0,0,0,-1,1644,792,0,0
427,232,0,0,0,0,0,0,0,0,0,-1,1651,792,0,0
434,232,0,0,0,0,0,0,0,0,0,-1,1658,792,0,0
441,232,0,0,0,0,0,0,0,0,0,-1,1665,792,0,0
448,232,0,0,0,0,0,0,0,0,0,-1,1672,792,0,0
455,232,0,0,0,0,0,0,0,0,0,-1,1679,792,0,0
462,232,0,0,0,0,0,0,0,0,0,-1,1686,792,0,0
469,232,0,0,0,0,0,0,0,0,0,-1,1693,792,0,0
476,232,0,0,0,0,0,0,0,0,0,-1,1700,792,0,0
483,232,0,0,0,0,0,0,0,0,0,-1,1707,792,0,0
490,232,0,0,0,0,0,0,0,0,0,-1,1714,792,0,0
497,232,0,0,0,0,0,0,0,0,0,-1,1721,792,0,0
504,232,0,0,0,0,0,0,0,0,0,-1,1728,792,0,0
511,232,0,0,0,0,0,0,0,0,0,-1,1735,792,0,0
518,232,0,0,0,0,0,0,0,0,0,-1,1742,792,0,0
525,232,0,0,0,0,0,0,0,0,0,-1,1749,792,0,0
532,232,0,0,0,0,0,0,0,0,0,-1,1756,792,0,0
539,232,0,0,0,0,0,0,0,0,0,-1,1763,792,0,0
546,232,0,0,0,0,0,0,0,0,0,-1,1770,792,0,0
553,232,0,0,0,0,0,0,0,0,0,-1,1777,792,0,0
560,232,0,0,0,0,0,0,0,0,0,-1,1784,792,0,0
567,232,0,0,0,0,0,0,0,0,0,-1,1791,792,0,0
574,232,0,0,0,0,0,0,0,0,0,-1,1798,792,0,0
581,232,0,0,0,0,0,0,0,0,0,-1,1805,792,0,0
588,232,21.2535,3.27203,0.00957952,-0.0116271,0.00650804,0.0114175,-0.013465,0.275244,0.0143821,0.0380624,1812,792,21.2536,-3.27204
595,232,21.4381,3.06879,0.00666531,-0.00645343,0.00244538,0.00710631,-0.00689443,0.178423,0.00808364,0.0363803,1819,792,21.4381,-3.06877
602,232,21.4716,2.98163,0.00429867,-0.00269437,-0.000508349,0.00433543,-0.00273113,-0.0721878,0.00411478,0.0358027,1826,792,21.4716,-2.98165
609,232,21.4648,2.99097,0.00263405,-0.000573084,-0.00260563,0.00409001,-0.00202905,-0.509557,0.00359902,0.0423495,1833,792,21.4649,-2.99094
616,232,21.5806,3.02057,0.00142825,0.000438155,-0.00383731,0.00480231,-0.0029359,-0.721248,0.00451077,0.0440474,1840,792,21.5806,-3.02057
623,232,21.5338,3.09595,0.000682309,0.000656996,-0.00430882,0.0049785,-0.00363919,-0.783929,0.00499541,0.0403355,1847,792,21.5339,-3.09596
630,232,21.6388,3.16864,0.000161486,0.000346483,-0.00439755,0.00465251,-0.00414454,-0.795914,0.0050818,0.0435349,1854,792,21.6388,-3.16864
637,232,16.0718,2.16742,0,0,0,0,0,0,0,-1,1861,792,16.0718,-2.16741
644,232,16.0784,2.1012,0,0,0,0,0,0,0,-1,1868,792,16.0783,-2.10122
651,232,16.006,1.9787,-0.000916931,-0.000854776,-0.00367927,0.00279355,-0.00456526,-0.789621,0.00428946,0.0441916,1875,792,16.006,-1.97869
658,232,15.8976,1.73645,-0.000870517,-0.00132398,-0.00316427,0.00207514,-0.00426964,-0.749632,0.00373548,0.0242668,1882,792,15.8976,-1.73643
665,232,15.8895,1.93134,-0.00067066,-0.00189894,-0.00240794,0.00120022,-0.00376982,-0.660536,0.00299456,0.0116944,1889,792,15.8895,-1.93136
672,232,15.8781,2.18134,-0.000286038,-0.00256376,-0.00181415,0.000717101,-0.00356689,-0.505106,0.00264951,0.0176619,1896,792,15.878,-2.18135
679,232,15.8993,2.42932,8.93573e-05,-0.0022676,-0.00151333,0.000828946,-0.00300719,-0.45458,0.00233077,0.0197372,1903,792,15.8993,-2.42935
686,232,15.9058,2.64984,0.000583159,-0.00165642,-0.00137952,0.00124016,-0.00231343,-0.444473,0.00208263,0.0184065,1910,792,15.9058,-2.64985
693,232,15.9116,2.85687,0.00156007,-0.000972924,-0.00107219,0.00195297,-0.00136583,-0.351253,0.00192608,0.010244,1917,792,15.9116,-2.85686
700,232,15.9293,3.06403,0.00282463,-0.000226402,-0.000895531,0.00306806,-0.000469834,-0.265416,0.00221863,0.0128338,1924,792,15.9293,-3.06403
707,232,15.925,3.28119,0.00426321,0.000232672,-0.000691406,0.00437852,0.000117366,-0.16525,0.00288069,0.0131938,1931,792,15.9251,-3.28122
714,232,15.8921,3.4928,0.00592405,0.000739147,-0.000685981,0.00601328,0.000649925,-0.129339,0.00381073,0.0135559,1938,792,15.892,-3.49282
721,232,15.8754,3.68188,0.00780305,0.00099424,-0.000818991,0.00790018,0.000897114,-0.118041,0.00499468,0.0178247,1945,792,15.8754,-3.6819
728,232,15.8419,3.87109,0.00993991,0.0012814,-0.000997127,0.0100533,0.00116805,-0.113188,0.00634874,0.032107,1952,792,15.8419,-3.8711
735,232,16.2179,4.1629,0.0123261,0.0015428,-0.00129189,0.0124787,0.00139018,-0.117588,0.00789662,0.0474098,1959,792,16.2179,-4.16289
742,232,16.3347,4.45807,0,0,0,0,0,0,0,-1,1966,792,16.3347,-4.45809
749,232,16.3922,4.15698,0,0,0,0,0,0,0,-1,1973,792,16.3922,-4.15698
756,232,15.962,4.1626,0,0,0,0,0,0,0,-1,1980,792,15.9621,-4.16259
763,232,16.7686,3.55792,0,0,0,0,0,0,0,-1,1987,792,16.7686,-3.55792
770,232,0,0,0,0,0,0,0,0,0,-1,1994,792,0,0
777,232,0,0,0,0,0,0,0,0,0,-1,2001,792,0,0
784,232,0,0,0,0,0,0,0,0,0,-1,2008,792,0,0
791,232,0,0,0,0,0,0,0,0,0,-1,2015,792,0,0
798,232,0,0,0,0,0,0,0,0,0,-1,2022,792,0,0
805,232,0,0,0,0,0,0,0,0,0,-1,2029,792,0,0
812,232,0,0,0,0,0,0,0,0,0,-1,2036,792,0,0
-700,225,0,0,0,0,0,0,0,0,0,-1,524,799,0,0
-693,225,0,0,0,0,0,0,0,0,0,-1,531,799,0,0
-686,225,0,0,0,0,0,0,0,0,0,-1,538,799,0,0
-679,225,0,0,0,0,0,0,0,0,0,-1,545,799,0,0
-672,225,0,0,0,0,0,0,0,0,0,-1,552,799,0,0
-665,225,0,0,0,0,0,0,0,0,0,-1,559,799,0,0
-658,225,0,0,0,0,0,0,0,0,0,-1,566,799,0,0
-651,225,0,0,0,0,0,0,0,0,0,-1,573,799,0,0
-644,225,-11.9208,3.75427,0,0,0,0,0,0,0,-1,580,799,-11.9208,-3.75426
-637,225,-11.2696,3.76807,0,0,0,0,0,0,0,-1,587,799,-11.2696,-3.7681
-630,225,-11.3819,4.12616,0,0,0,0,0,0,0,-1,594,799,-11.3819,-4.12616
-623,225,-11.2787,3.63367,0.00774393,0.0540223,-0.0138653,0.0578585,0.00390781,-1.30088,0.0373379,0.0483532,601,799,-11.2788,-3.63366
-616,225,-11.2097,3.27332,0.00469016,0.0413993,-0.010451,0.0441661,0.00192335,-1.31199,0.0288244,0.047898,608,799,-11.2097,-3.27329
-609,225,-9.68713,2.01984,0,0,0,0,0,0,0,-1,615,799,-9.68713,-2.01986
-602,225,-9.67328,1.77899,0.00141317,0.0220306,-0.00489223,0.0231325,0.000311206,-1.34925,0.015319,0.0451754,622,799,-9.67329,-1.77901
-595,225,-9.65363,1.70392,0.000669449,0.0151943,-0.00293047,0.0157632,0.000100496,-1.37903,0.0104755,0.0272221,629,799,-9.65365,-1.70393
-588,225,-9.65674,1.41669,-2.43771e-06,0.00968315,-0.00174807,0.00998899,-0.000308276,-1.39759,0.00676443,0.0119703,636,799,-9.65673,-1.41672
-581,225,-9.63568,1.22052,-0.000387573,0.00546816,-0.000305174,0.00548403,-0.000403434,-1.51887,0.00379764,0.0100497,643,799,-9.63566,-1.22051
-574,225,-9.62482,1.01849,-0.000463628,0.00285602,0.000294855,0.00288201,-0.000489614,1.48289,0.00210362,0.00803308,650,799,-9.62481,-1.01846
-567,225,-9.62848,0.80072,-0.000723609,0.000756693,0.00105097,0.00130199,-0.0012689,1.09219,0.00148434,0.0103021,657,799,-9.62845,-0.800748
-560,225,-9.65125,0.608826,-0.00160568,-0.000624064,0.00152998,0.000491907,-0.00272165,0.940609,0.00199868,0.01142,664,799,-9.65123,-0.608834
-553,225,-9.67743,0.421082,-0.00277856,-0.000755752,0.00161024,0.000134376,-0.00366869,1.06581,0.00249179,0.0110814,671,799,-9.67743,-0.421066
-546,225,-9.70972,0.192017,-0.00443315,-0.000797975,0.00201384,9.72191e-05,-0.00532834,1.15251,0.00358507,0.0196411,678,799,-9.70971,-0.19203
-539,225,-9.65204,-0.0368042,-0.00650919,-0.000685696,0.00235895,0.000149944,-0.00734483,1.23035,0.00494729,0.024621,685,799,-9.65207,0.0367915
-532,225,-9.66858,-0.21991,-0.00844781,0.000387744,0.00279044,0.00119522,-0.00925529,1.28912,0.00660475,0.0181056,692,799,-9.6686,0.219893
-525,225,-9.75409,-0.347961,-0.0101357,0.00171611,0.00329197,0.0025691,-0.0109887,1.31726,0.00831552,0.0403664,699,799,-9.7541,0.347974
-518,225,-10.0472,-0.508179,-0.0117579,0.00319526,0.00349793,0.00397306,-0.0125357,1.352,0.0099495,0.0436452,706,799,-10.0472,0.508162
-511,225,-10.2533,-0.592957,-0.0133111,0.00492044,0.00379402,0.00567847,-0.0140691,1.3736,0.0117393,0.0441514,713,799,-10.2533,0.592952
-504,225,-10.4141,-0.645203,0,0,0,0,0,0,0,-1,720,799,-10.4141,0.645184
-497,225,-13.2264,1.41125,-0.015362,0.00998716,0.00443923,0.0107421,-0.0161169,1.40235,0.0156102,0.040908,727,799,-13.2264,-1.41126
-490,225,-13.9153,1.30719,-0.0151622,0.0132013,0.00452242,0.0139049,-0.0158658,1.41645,0.0172006,0.0400053,734,799,-13.9153,-1.30719
-483,225,-14.0728,1.20514,-0.0132636,0.0166554,0.00426805,0.0172524,-0.0138606,1.43183,0.0179986,0.0345684,741,799,-14.0728,-1.20513
-476,225,-14.0456,1.17834,-0.00882836,0.0196555,0.00357072,0.0200963,-0.00926916,1.44797,0.017334,0.0311601,748,799,-14.0456,-1.17835
-469,225,-14.02,0.997314,-0.000968339,0.0212312,0.0021123,0.0214304,-0.00116754,1.47677,0.0146916,0.033024,755,799,-14.02,-0.997337
-462,225,0,0,0,0,0,0,0,0,0,-1,762,799,0,0
-455,225,0,0,0,0,0,0,0,0,0,-1,769,799,0,0
-448,225,0,0,0,0,0,0,0,0,0,-1,776,799,0,0
-441,225,0,0,0,0,0,0,0,0,0,-1,783,799,0,0
-434,225,0,0,0,0,0,0,0,0,0,-1,790,799,0,0
-427,225,0,0,0,0,0,0,0,0,0,-1,797,799,0,0
-420,225,0,0,0,0,0,0,0,0,0,-1,804,799,0,0
-413,225,0,0,0,0,0,0,0,0,0,-1,811,799,0,0
-406,225,0,0,0,0,0,0,0,0,0,-1,818,799,0,0
-399,225,0,0,0,0,0,0,0,0,0,-1,825,799,0,0
-392,225,0,0,0,0,0,0,0,0,0,-1,832,799,0,0
-385,225,0,0,0,0,0,0,0,0,0,-1,839,799,0,0
-378,225,0,0,0,0,0,0,0,0,0,-1,846,799,0,0
-371,225,0,0,0,0,0,0,0,0,0,-1,853,799,0,0
-364,225,0,0,0,0,0,0,0,0,0,-1,860,799,0,0
-357,225,0,0,0,0,0,0,0,0,0,-1,867,799,0,0
-350,225,0,0,0,0,0,0,0,0,0,-1,874,799,0,0
-343,225,0,0,0,0,0,0,0,0,0,-1,881,799,0,0
-336,225,0,0,0,0,0,0,0,0,0,-1,888,799,0,0
-329,225,0,0,0,0,0,0,0,0,0,-1,895,799,0,0
-322,225,0,0,0,0,0,0,0,0,0,-1,902,799,0,0
-315,225,0,0,0,0,0,0,0,0,0,-1,909,799,0,0
-308,225,0,0,0,0,0,0,0,0,0,-1,916,799,0,0
-301,225,0,0,0,0,0,0,0,0,0,-1,923,799,0,0
-294,225,0,0,0,0,0,0,0,0,0,-1,930,799,0,0
-287,225,0,0,0,0,0,0,0,0,0,-1,937,799,0,0
-280,225,0,0,0,0,0,0,0,0,0,-1,944,799,0,0
-273,225,0,0,0,0,0,0,0,0,0,-1,951,799,0,0
-266,225,0,0,0,0,0,0,0,0,0,-1,958,799,0,0
-259,225,0,0,0,0,0,0,0,0,0,-1,965,799,0,0
-252,225,0,0,0,0,0,0,0,0,0,-1,972,799,0,0
-245,225,0,0,0,0,0,0,0,0,0,-1,979,799,0,0
-238,225,0,0,0,0,0,0,0,0,0,-1,986,799,0,0
-231,225,0,0,0,0,0,0,0,0,0,-1,993,799,0,0
-224,225,0,0,0,0,0,0,0,0,0,-1,1000,799,0,0
-217,225,0,0,0,0,0,0,0,0,0,-1,1007,799,0,0
-210,225,0,0,0,0,0,0,0,0,0,-1,1014,799,0,0
-203,225,0,0,0,0,0,0,0,0,0,-1,1021,799,0,0
-196,225,0,0,0,0,0,0,0,0,0,-1,1028,799,0,0
-189,225,0,0,0,0,0,0,0,0,0,-1,1035,799,0,0
-182,225,0,0,0,0,0,0,0,0,0,-1,1042,799,0,0
-175,225,0,0,0,0,0,0,0,0,0,-1,1049,799,0,0
-168,225,0,0,0,0,0,0,0,0,0,-1,1056,799,0,0
-161,225,0,0,0,0,0,0,0,0,0,-1,1063,799,0,0
-154,225,0,0,0,0,0,0,0,0,0,-1,1070,799,0,0
-147,225,0,0,0,0,0,0,0,0,0,-1,1077,799,0,0
-140,225,0,0,0,0,0,0,0,0,0,-1,1084,799,0,0
-133,225,0,0,0,0,0,0,0,0,0,-1,1091,799,0,0
-126,225,0,0,0,0,0,0,0,0,0,-1,1098,799,0,0
-119,225,0,0,0,0,0,0,0,0,0,-1,1105,799,0,0
-112,225,0,0,0,0,0,0,0,0,0,-1,1112,799,0,0
-105,225,0,0,0,0,0,0,0,0,0,-1,1119,799,0,0
-98,225,0,0,0,0,0,0,0,0,0,-1,1126,799,0,0
-91,225,0,0,0,0,0,0,0,0,0,-1,1133,799,0,0
-84,225,0,0,0,0,0,0,0,0,0,-1,1140,799,0,0
-77,225,0,0,0,0,0,0,0,0,0,-1,1147,799,0,0
-70,225,0,0,0,0,0,0,0,0,0,-1,1154,799,0,0
-63,225,0,0,0,0,0,0,0,0,0,-1,1161,799,0,0
-56,225,0,0,0,0,0,0,0,0,0,-1,1168,799,0,0
-49,225,0,0,0,0,0,0,0,0,0,-1,1175,799,0,0
-42,225,0,0,0,0,0,0,0,0,0,-1,1182,799,0,0
-35,225,0,0,0,0,0,0,0,0,0,-1,1189,799,0,0
-28,225,0,0,0,0,0,0,0,0,0,-1,1196,799,0,0
-21,225,0,0,0,0,0,0,0,0,0,-1,1203,799,0,0
-14,225,0,0,0,0,0,0,0,0,0,-1,1210,799,0,0
-7,225,0,0,0,0,0,0,0,0,0,-1,1217,799,0,0
0,225,0,0,0,0,0,0,0,0,0,-1,1224,799,0,0
7,225,0,0,0,0,0,0,0,0,0,-1,1231,799,0,0
14,225,0,0,0,0,0,0,0,0,0,-1,1238,799,0,0
21,225,0,0,0,0,0,0,0,0,0,-1,1245,799,0,0
28,225,0,0,0,0,0,0,0,0,0,-1,1252,799,0,0
35,225,0,0,0,0,0,0,0,0,0,-1,1259,799,0,0
42,225,0,0,0,0,0,0,0,0,0,-1,1266,799,0,0
49,225,0,0,0,0,0,0,0,0,0,-1,1273,799,0,0
56,225,0,0,0,0,0,0,0,0,0,-1,1280,799,0,0
63,225,0,0,0,0,0,0,0,0,0,-1,1287,799,0,0
70,225,0,0,0,0,0,0,0,0,0,-1,1294,799,0,0
77,225,0,0,0,0,0,0,0,0,0,-1,1301,799,0,0
84,225,0,0,0,0,0,0,0,0,0,-1,1308,799,0,0
91,225,0,0,0,0,0,0,0,0,0,-1,1315,799,0,0
98,225,0,0,0,0,0,0,0,0,0,-1,1322,799,0,0
105,225,0,0,0,0,0,0,0,0,0,-1,1329,799,0,0
112,225,0,0,0,0,0,0,0,0,0,-1,1336,799,0,0
119,225,0,0,0,0,0,0,0,0,0,-1,1343,799,0,0
126,225,0,0,0,0,0,0,0,0,0,-1,1350,799,0,0
133,225,0,0,0,0,0,0,0,0,0,-1,1357,799,0,0
140,225,0,0,0,0,0,0,0,0,0,-1,1364,799,0,0
147,225,0,0,0,0,0,0,0,0,0,-1,1371,799,0,0
154,225,0,0,0,0,0,0,0,0,0,-1,1378,799,0,0
161,225,0,0,0,0,0,0,0,0,0,-1,1385,799,0,0
168,225,0,0,0,0,0,0,0,0,0,-1,1392,799,0,0
175,225,0,0,0,0,0,0,0,0,0,-1,1399,799,0,0
182,225,0,0,0,0,0,0,0,0,0,-1,1406,799,0,0
189,225,0,0,0,0,0,0,0,0,0,-1,1413,799,0,0
196,225,0,0,0,0,0,0,0,0,0,-1,1420,799,0,0
203,225,0,0,0,0,0,0,0,0,0,-1,1427,799,0,0
210,225,0,0,0,0,0,0,0,0,0,-1,1434,799,0,0
217,225,0,0,0,0,0,0,0,0,0,-1,1441,799,0,0
224,225,0,0,0,0,0,0,0,0,0,-1,1448,799,0,0
231,225,0,0,0,0,0,0,0,0,0,-1,1455,799,0,0
238,225,0,0,0,0,0,0,0,0,0,-1,1462,799,0,0
245,225,0,0,0,0,0,0,0,0,0,-1,1469,799,0,0
252,225,0,0,0,0,0,0,0,0,0,-1,1476,799,0,0
259,225,0,0,0,0,0,0,0,0,0,-1,1483,799,0,0
266,225,0,0,0,0,0,0,0,0,0,-1,1490,799,0,0
273,225,0,0,0,0,0,0,0,0,0,-1,1497,799,0,0
280,225,0,0,0,0,0,0,0,0,0,-1,1504,799,0,0
287,225,0,0,0,0,0,0,0,0,0,-1,1511,799,0,0
294,225,0,0,0,0,0,0,0,0,0,-1,1518,799,0,0
301,225,0,0,0,0,0,0,0,0,0,-1,1525,799,0,0
308,225,0,0,0,0,0,0,0,0,0,-1,1532,799,0,0
315,225,0,0,0,0,0,0,0,0,0,-1,1539,799,0,0
322,225,0,0,0,0,0,0,0,0,0,-1,1546,799,0,0
329,225,0,0,0,0,0,0,0,0,0,-1,1553,799,0,0
336,225,0,0,0,0,0,0,0,0,0,-1,1560,799,0,0
343,225,0,0,0,0,0,0,0,0,0,-1,1567,799,0,0
350,225,0,0,0,0,0,0,0,0,0,-1,1574,799,0,0
357,225,0,0,0,0,0,0,0,0,0,-1,1581,799,0,0
364,225,0,0,0,0,0,0,0,0,0,-1,1588,799,0,0
371,225,0,0,0,0,0,0,0,0,0,-1,1595,799,0,0
378,225,0,0,0,0,0,0,0,0,0,-1,1602,799,0,0
385,225,0,0,0,0,0,0,0,0,0,-1,1609,799,0,0
392,225,0,0,0,0,0,0,0,0,0,-1,1616,799,0,0
399,225,0,0,0,0,0,0,0,0,0,-1,1623,799,0,0
406,225,0,0,0,0,0,0,0,0,0,-1,1630,799,0,0
413,225,0,0,0,0,0,0,0,0,0,-1,1637,799,0,0
420,225,0,0,0,0,0,0,0,0,0,-1,1644,799,0,0
427,225,0,0,0,0,0,0,0,0,0,-1,1651,799,0,0
434,225,0,0,0,0,0,0,0,0,0,-1,1658,799,0,0
441,225,0,0,0,0,0,0,0,0,0,-1,1665,799,0,0
448,225,0,0,0,0,0,0,0,0,0,-1,1672,799,0,0
455,225,0,0,0,0,0,0,0,0,0,-1,1679,799,0,0
462,225,0,0,0,0,0,0,0,0,0,-1,1686,799,0,0
469,225,0,0,0,0,0,0,0,0,0,-1,1693,799,0,0
476,225,0,0,0,0,0,0,0,0,0,-1,1700,799,0,0
483,225,0,0,0,0,0,0,0,0,0,-1,1707,799,0,0
490,225,0,0,0,0,0,0,0,0,0,-1,1714,799,0,0
497,225,0,0,0,0,0,0,0,0,0,-1,1721,799,0,0
504,225,0,0,0,0,0,0,0,0,0,-1,1728,799,0,0
511,225,0,0,0,0,0,0,0,0,0,-1,1735,799,0,0
518,225,0,0,0,0,0,0,0,0,0,-1,1742,799,0,0
525,225,0,0,0,0,0,0,0,0,0,-1,1749,799,0,0
532,225,0,0,0,0,0,0,0,0,0,-1,1756,799,0,0
539,225,0,0,0,0,0,0,0,0,0,-1,1763,799,0,0
546,225,0,0,0,0,0,0,0,0,0,-1,1770,799,0,0
553,225,0,0,0,0,0,0,0,0,0,-1,1777,799,0,0
560,225,0,0,0,0,0,0,0,0,0,-1,1784,799,0,0
567,225,0,0,0,0,0,0,0,0,0,-1,1791,799,0,0
574,225,0,0,0,0,0,0,0,0,0,-1,1798,799,0,0
581,225,0,0,0,0,0,0,0,0,0,-1,1805,799,0,0
588,225,21.3069,3.23682,0.00969878,-0.0103294,0.00545784,0.0110895,-0.0117202,0.249504,0.0131709,0.0371046,1812,799,21.3068,-3.23679
595,225,21.3224,3.21423,0.00742657,-0.00535311,0.00199559,0.00773094,-0.00565748,0.151354,0.00776065,0.0354169,1819,799,21.3224,-3.21421
602,225,21.3483,3.1991,0.00531327,-0.00182089,-0.000375212,0.00533295,-0.00184057,-0.052401,0.00430213,0.0349656,1826,799,21.3483,-3.19908
609,225,21.3687,3.0434,0.00364226,-5.67547e-05,-0.00209944,0.00459066,-0.00100516,-0.424302,0.00344473,0.03445,1833,799,21.3687,-3.0434
616,225,21.4033,3.04114,0.00231317,0.000551308,-0.0031221,0.00467624,-0.00181176,-0.647893,0.00386562,0.0385119,1840,799,21.4033,-3.04114
623,225,21.4202,3.12006,0.00141021,0.000438246,-0.00348174,0.00443972,-0.00259127,-0.716056,0.00410584,0.0386116,1847,799,21.4202,-3.12006
630,225,21.4503,3.15094,0.000771713,-9.72248e-05,-0.00353041,0.00389429,-0.0032198,-0.724174,0.00411347,0.0421182,1854,799,21.4503,-3.15096
637,225,21.4653,3.16498,0.00024757,-0.000430363,-0.00353845,0.00346326,-0.00364605,-0.737646,0.00410501,0.0477195,1861,799,21.4653,-3.16497
644,225,16.3195,2.31982,0,0,0,0,0,0,0,-1,1868,799,16.3194,-2.31981
651,225,16.5105,2.03186,-0.000610237,-0.00157679,-0.00290417,0.00185059,-0.00403762,-0.70295,0.00347685,0.0422494,1875,799,16.5105,-2.03186
658,225,16.3203,2.00458,-0.000666633,-0.00191558,-0.0025422,0.00132667,-0.00390889,-0.664961,0.00314291,0.0372575,1882,799,16.3203,-2.00457
665,225,16.1482,1.93799,-0.000558482,-0.00232519,-0.00203717,0.000778611,-0.00366229,-0.580824,0.00273821,0.0139021,1889,799,16.1482,-1.93799
672,225,16.109,2.19952,-0.000299652,-0.0028351,-0.00166147,0.000522503,-0.00365726,-0.459509,0.0026297,0.0167871,1896,799,16.109,-2.19949
679,225,16.1283,2.4397,-7.66321e-05,-0.00255665,-0.001488,0.000620308,-0.00325359,-0.438027,0.00240267,0.0179805,1903,799,16.1283,-2.43968
686,225,16.1301,2.64532,0.000214287,-0.00197138,-0.00139307,0.000892026,-0.00264912,-0.452796,0.00212672,0.0106434,1910,799,16.1301,-2.64532
693,225,16.1147,2.84814,0.00098965,-0.00130631,-0.00111135,0.00143946,-0.00175613,-0.384592,0.00184799,0.00973251,1917,799,16.1147,-2.84814
700,225,16.1279,3.06317,0.00208097,-0.000513051,-0.000967517,0.00240208,-0.000834165,-0.320455,0.00194017,0.0120647,1924,799,16.1279,-3.06317
707,225,16.1183,3.30029,0.00333011,-4.67833e-05,-0.000754665,0.00349109,-0.000207761,-0.210161,0.00239965,0.0126377,1931,799,16.1183,-3.30028
714,225,16.101,3.52362,0.00471624,0.000541711,-0.000743311,0.00484464,0.000413308,-0.171057,0.00310119,0.0132477,1938,799,16.1009,-3.52364
721,225,16.1332,3.73151,0.00625745,0.000840818,-0.000900398,0.0064032,0.000695069,-0.160481,0.004057,0.0144173,1945,799,16.1331,-3.73153
728,225,16.1017,3.90094,0.00791255,0.0011902,-0.00113907,0.00810031,0.00100244,-0.163371,0.00509902,0.023868,1952,799,16.1016,-3.90092
735,225,16.1501,4.33026,0.00967365,0.0015716,-0.00150289,0.00994344,0.00130181,-0.177625,0.00624045,0.0436823,1959,799,16.1502,-4.33026
742,225,16.1553,4.70807,0,0,0,0,0,0,0,-1,1966,799,16.1552,-4.70809
749,225,16.4846,3.89325,0,0,0,0,0,0,0,-1,1973,799,16.4846,-3.89324
756,225,15.9523,4.03088,0,0,0,0,0,0,0,-1,1980,799,15.9523,-4.0309
763,225,16.3131,3.45245,0,0,0,0,0,0,0,-1,1987,799,16.3132,-3.45243
770,225,0,0,0,0,0,0,0,0,0,-1,1994,799,0,0
777,225,0,0,0,0,0,0,0,0,0,-1,2001,799,0,0
784,225,0,0,0,0,0,0,0,0,0,-1,2008,799,0,0
791,225,0,0,0,0,0,0,0,0,0,-1,2015,799,0,0
798,225,0,0,0,0,0,0,0,0,0,-1,2022,799,0,0
805,225,0,0,0,0,0,0,0,0,0,-1,2029,799,0,0
812,225,0,0,0,0,0,0,0,0,0,-1,2036,799,0,0
-700,218,0,0,0,0,0,0,0,0,0,-1,524,806,0,0
-693,218,0,0,0,0,0,0,0,0,0,-1,531,806,0,0
-686,218,0,0,0,0,0,0,0,0,0,-1,538,806,0,0
-679,218,0,0,0,0,0,0,0,0,0,-1,545,806,0,0
-672,218,0,0,0,0,0,0,0,0,0,-1,552,806,0,0
-665,218,0,0,0,0,0,0,0,0,0,-1,559,806,0,0
-658,218,0,0,0,0,0,0,0,0,0,-1,566,806,0,0
-651,218,-11.2932,3.10876,0,0,0,0,0,0,0,-1,573,806,-11.2932,-3.10875
-644,218,-11.4762,4.79413,0,0,0,0,0,0,0,-1,580,806,-11.4762,-4.79414
-637,218,-11.3521,4.53351,0.0166901,0.0816357,-0.0221907,0.0884936,0.00983217,-1.27106,0.0560068,0.0459898,587,806,-11.3521,-4.5335
-630,218,-11.092,4.12054,0,0,0,0,0,0,0,-1,594,806,-11.092,-4.12057
-623,218,-10.8019,3.24847,0,0,0,0,0,0,0,-1,601,806,-10.8019,-3.24848
-616,218,-10.5919,2.66089,0,0,0,0,0,0,0,-1,608,806,-10.5919,-2.6609
-609,218,-9.84033,1.91998,0,0,0,0,0,0,0,-1,615,806,-9.84035,-1.91999
-602,218,-9.8653,1.7522,0.00156813,0.0200293,-0.00502765,0.0213097,0.000287716,-1.32142,0.0141115,0.0392183,622,806,-9.86528,-1.75219
-595,218,-9.88806,1.5802,0.00085525,0.013706,-0.00302238,0.0143813,0.000179906,-1.35096,0.00952816,0.0165778,629,806,-9.88807,-1.58017
-588,218,-9.86584,1.4046,0.000135231,0.00851256,-0.00173466,0.00885755,-0.000209752,-1.37448,0.00597618,0.0105295,636,806,-9.86584,-1.40461
-581,218,-9.85461,1.22137,-0.000315765,0.00456037,-0.000220071,0.00457028,-0.000325677,-1.52579,0.00316101,0.00973508,643,806,-9.8546,-1.22137
-574,218,-9.85706,1.01721,-0.000601094,0.00225792,0.000430217,0.00232126,-0.000664429,1.42463,0.0018101,0.00857325,650,806,-9.85705,-1.01719
-567,218,-9.84625,0.800659,-0.00109623,0.0003979,0.00115767,0.00102863,-0.00172696,1.07194,0.00160788,0.0147286,657,806,-9.84627,-0.800673
-560,218,-9.85339,0.618164,-0.00220737,-0.00074341,0.00157214,0.000258796,-0.00320958,1.00327,0.00223099,0.0166838,664,806,-9.8534,-0.61818
-553,218,-9.84521,0.409546,-0.00352662,-0.000802379,0.00164563,-2.82729e-05,-0.00430073,1.13111,0.00285777,0.0175054,671,806,-9.84522,-0.409527
-546,218,-9.86029,0.176453,-0.00514529,-0.000738395,0.00197579,1.77079e-05,-0.00590139,1.20531,0.00394017,0.0144874,678,806,-9.86028,-0.176451
-539,218,-9.86359,-0.0452881,-0.00697282,-0.00063363,0.00219827,5.40714e-05,-0.00766052,1.2676,0.00512513,0.0193626,685,806,-9.8636,0.0452985
-532,218,-9.91656,-0.14978,-0.00865177,0.000262546,0.00245025,0.000891642,-0.00928086,1.31948,0.00650486,0.0229015,692,806,-9.91655,0.149805
-525,218,-10.0802,-0.44281,0,0,0,0,0,0,0,-1,699,806,-10.0802,0.442794
-518,218,-10.3358,-0.531128,0,0,0,0,0,0,0,-1,706,806,-10.3358,0.531112
-511,218,-10.5914,-0.619446,0,0,0,0,0,0,0,-1,713,806,-10.5914,0.619431
-504,218,-13.6266,1.59198,-0.0137736,0.00571703,0.00262043,0.00606319,-0.0141198,1.43946,0.0119581,0.0453069,720,806,-13.6267,-1.59197
-497,218,-13.8088,1.38379,-0.0142116,0.00788764,0.002295,0.00812346,-0.0144474,1.4684,0.0132007,0.0473263,727,806,-13.8088,-1.38377
-490,218,-13.998,1.1922,-0.0135903,0.0104028,0.00159445,0.0105083,-0.0136958,1.50473,0.0140146,0.0382736,734,806,-13.998,-1.19222
-483,218,-14.0343,1.20575,-0.0111925,0.0130566,0.000310469,0.0130605,-0.0111965,1.558,0.0140186,0.0338085,741,806,-14.0343,-1.20572
-476,218,-13.8621,1.29059,-0.00605606,0.0151885,-0.00161347,0.0153103,-0.0061779,-1.49542,0.0127743,0.0352551,748,806,-13.862,-1.29058
-469,218,0,0,0,0,0,0,0,0,0,-1,755,806,0,0
-462,218,0,0,0,0,0,0,0,0,0,-1,762,806,0,0
-455,218,0,0,0,0,0,0,0,0,0,-1,769,806,0,0
-448,218,0,0,0,0,0,0,0,0,0,-1,776,806,0,0
-441,218,0,0,0,0,0,0,0,0,0,-1,783,806,0,0
-434,218,0,0,0,0,0,0,0,0,0,-1,790,806,0,0
-427,218,0,0,0,0,0,0,0,0,0,-1,797,806,0,0
-420,218,0,0,0,0,0,0,0,0,0,-1,804,806,0,0
-413,218,0,0,0,0,0,0,0,0,0,-1,811,806,0,0
-406,218,0,0,0,0,0,0,0,0,0,-1,818,806,0,0
-399,218,0,0,0,0,0,0,0,0,0,-1,825,806,0,0
-392,218,0,0,0,0,0,0,0,0,0,-1,832,806,0,0
-385,218,0,0,0,0,0,0,0,0,0,-1,839,806,0,0
-378,218,0,0,0,0,0,0,0,0,0,-1,846,806,0,0
-371,218,0,0,0,0,0,0,0,0,0,-1,853,806,0,0
-364,218,0,0,0,0,0,0,0,0,0,-1,860,806,0,0
-357,218,0,0,0,0,0,0,0,0,0,-1,867,806,0,0
-350,218,0,0,0,0,0,0,0,0,0,-1,874,806,0,0
-343,218,0,0,0,0,0,0,0,0,0,-1,881,806,0,0
-336,218,0,0,0,0,0,0,0,0,0,-1,888,806,0,0
-329,218,0,0,0,0,0,0,0,0,0,-1,895,806,0,0
-322,218,0,0,0,0,0,0,0,0,0,-1,902,806,0,0
-315,218,0,0,0,0,0,0,0,0,0,-1,909,806,0,0
-308,218,0,0,0,0,0,0,0,0,0,-1,916,806,0,0
-301,218,0,0,0,0,0,0,0,0,0,-1,923,806,0,0
-294,218,0,0,0,0,0,0,0,0,0,-1,930,806,0,0
-287,218,0,0,0,0,0,0,0,0,0,-1,937,806,0,0
-280,218,0,0,0,0,0,0,0,0,0,-1,944,806,0,0
-273,218,0,0,0,0,0,0,0,0,0,-1,951,806,0,0
-266,218,0,0,0,0,0,0,0,0,0,-1,958,806,0,0
-259,218,0,0,0,0,0,0,0,0,0,-1,965,806,0,0
-252,218,0,0,0,0,0,0,0,0,0,-1,972,806,0,0
-245,218,0,0,0,0,0,0,0,0,0,-1,979,806,0,0
-238,218,0,0,0,0,0,0,0,0,0,-1,986,806,0,0
-231,218,0,0,0,0,0,0,0,0,0,-1,993,806,0,0
-224,218,0,0,0,0,0,0,0,0,0,-1,1000,806,0,0
-217,218,0,0,0,0,0,0,0,0,0,-1,1007,806,0,0
-210,218,0,0,0,0,0,0,0,0,0,-1,1014,806,0,0
-203,218,0,0,0,0,0,0,0,0,0,-1,1021,806,0,0
-196,218,0,0,0,0,0,0,0,0,0,-1,1028,806,0,0
-189,218,0,0,0,0,0,0,0,0,0,-1,1035,806,0,0
-182,218,0,0,0,0,0,0,0,0,0,-1,1042,806,0,0
-175,218,0,0,0,0,0,0,0,0,0,-1,1049,806,0,0
-168,218,0,0,0,0,0,0,0,0,0,-1,1056,806,0,0
-161,218,0,0,0,0,0,0,0,0,0,-1,1063,806,0,0
-154,218,0,0,0,0,0,0,0,0,0,-1,1070,806,0,0
-147,218,0,0,0,0,0,0,0,0,0,-1,1077,806,0,0
-140,218,0,0,0,0,0,0,0,0,0,-1,1084,806,0,0
-133,218,0,0,0,0,0,0,0,0,0,-1,1091,806,0,0
-126,218,0,0,0,0,0,0,0,0,0,-1,1098,806,0,0
-119,218,0,0,0,0,0,0,0,0,0,-1,1105,806,0,0
-112,218,0,0,0,0,0,0,0,0,0,-1,1112,806,0,0
-105,218,0,0,0,0,0,0,0,0,0,-1,1119,806,0,0
-98,218,0,0,0,0,0,0,0,0,0,-1,1126,806,0,0
-91,218,0,0,0,0,0,0,0,0,0,-1,1133,806,0,0
-84,218,0,0,0,0,0,0,0,0,0,-1,1140,806,0,0
-77,218,0,0,0,0,0,0,0,0,0,-1,1147,806,0,0
-70,218,0,0,0,0,0,0,0,0,0,-1,1154,806,0,0
-63,218,0,0,0,0,0,0,0,0,0,-1,1161,806,0,0
-56,218,0,0,0,0,0,0,0,0,0,-1,1168,806,0,0
-49,218,0,0,0,0,0,0,0,0,0,-1,1175,806,0,0
-42,218,0,0,0,0,0,0,0,0,0,-1,1182,806,0,0
-35,218,0,0,0,0,0,0,0,0,0,-1,1189,806,0,0
-28,218,0,0,0,0,0,0,0,0,0,-1,1196,806,0,0
-21,218,0,0,0,0,0,0,0,0,0,-1,1203,806,0,0
-14,218,0,0,0,0,0,0,0,0,0,-1,1210,806,0,0
-7,218,0,0,0,0,0,0,0,0,0,-1,1217,806,0,0
0,218,0,0,0,0,0,0,0,0,0,-1,1224,806,0,0
7,218,0,0,0,0,0,0,0,0,0,-1,1231,806,0,0
14,218,0,0,0,0,0,0,0,0,0,-1,1238,806,0,0
21,218,0,0,0,0,0,0,0,0,0,-1,1245,806,0,0
28,218,0,0,0,0,0,0,0,0,0,-1,1252,806,0,0
35,218,0,0,0,0,0,0,0,0,0,-1,1259,806,0,0
42,218,0,0,0,0,0,0,0,0,0,-1,1266,806,0,0
49,218,0,0,0,0,0,0,0,0,0,-1,1273,806,0,0
56,218,0,0,0,0,0,0,0,0,0,-1,1280,806,0,0
63,218,0,0,0,0,0,0,0,0,0,-1,1287,806,0,0
70,218,0,0,0,0,0,0,0,0,0,-1,1294,806,0,0
77,218,0,0,0,0,0,0,0,0,0,-1,1301,806,0,0
84,218,0,0,0,0,0,0,0,0,0,-1,1308,806,0,0
91,218,0,0,0,0,0,0,0,0,0,-1,1315,806,0,0
98,218,0,0,0,0,0,0,0,0,0,-1,1322,806,0,0
105,218,0,0,0,0,0,0,0,0,0,-1,1329,806,0,0
112,218,0,0,0,0,0,0,0,0,0,-1,1336,806,0,0
119,218,0,0,0,0,0,0,0,0,0,-1,1343,806,0,0
126,218,0,0,0,0,0,0,0,0,0,-1,1350,806,0,0
133,218,0,0,0,0,0,0,0,0,0,-1,1357,806,0,0
140,218,0,0,0,0,0,0,0,0,0,-1,1364,806,0,0
147,218,0,0,0,0,0,0,0,0,0,-1,1371,806,0,0
154,218,0,0,0,0,0,0,0,0,0,-1,1378,806,0,0
161,218,0,0,0,0,0,0,0,0,0,-1,1385,806,0,0
168,218,0,0,0,0,0,0,0,0,0,-1,1392,806,0,0
175,218,0,0,0,0,0,0,0,0,0,-1,1399,806,0,0
182,218,0,0,0,0,0,0,0,0,0,-1,1406,806,0,0
189,218,0,0,0,0,0,0,0,0,0,-1,1413,806,0,0
196,218,0,0,0,0,0,0,0,0,0,-1,1420,806,0,0
203,218,0,0,0,0,0,0,0,0,0,-1,1427,806,0,0
210,218,0,0,0,0,0,0,0,0,0,-1,1434,806,0,0
217,218,0,0,0,0,0,0,0,0,0,-1,1441,806,0,0
224,218,0,0,0,0,0,0,0,0,0,-1,1448,806,0,0
231,218,0,0,0,0,0,0,0,0,0,-1,1455,806,0,0
238,218,0,0,0,0,0,0,0,0,0,-1,1462,806,0,0
245,218,0,0,0,0,0,0,0,0,0,-1,1469,806,0,0
252,218,0,0,0,0,0,0,0,0,0,-1,1476,806,0,0
259,218,0,0,0,0,0,0,0,0,0,-1,1483,806,0,0
266,218,0,0,0,0,0,0,0,0,0,-1,1490,806,0,0
273,218,0,0,0,0,0,0,0,0,0,-1,1497,806,0,0
280,218,0,0,0,0,0,0,0,0,0,-1,1504,806,0,0
287,218,0,0,0,0,0,0,0,0,0,-1,1511,806,0,0
294,218,0,0,0,0,0,0,0,0,0,-1,1518,806,0,0
301,218,0,0,0,0,0,0,0,0,0,-1,1525,806,0,0
308,218,0,0,0,0,0,0,0,0,0,-1,1532,806,0,0
315,218,0,0,0,0,0,0,0,0,0,-1,1539,806,0,0
322,218,0,0,0,0,0,0,0,0,0,-1,1546,806,0,0
329,218,0,0,0,0,0,0,0,0,0,-1,1553,806,0,0
336,218,0,0,0,0,0,0,0,0,0,-1,1560,806,0,0
343,218,0,0,0,0,0,0,0,0,0,-1,1567,806,0,0
350,218,0,0,0,0,0,0,0,0,0,-1,1574,806,0,0
357,218,0,0,0,0,0,0,0,0,0,-1,1581,806,0,0
364,218,0,0,0,0,0,0,0,0,0,-1,1588,806,0,0
371,218,0,0,0,0,0,0,0,0,0,-1,1595,806,0,0
378,218,0,0,0,0,0,0,0,0,0,-1,1602,806,0,0
385,218,0,0,0,0,0,0,0,0,0,-1,1609,806,0,0
392,218,0,0,0,0,0,0,0,0,0,-1,1616,806,0,0
399,218,0,0,0,0,0,0,0,0,0,-1,1623,806,0,0
406,218,0,0,0,0,0,0,0,0,0,-1,1630,806,0,0
413,218,0,0,0,0,0,0,0,0,0,-1,1637,806,0,0
420,218,0,0,0,0,0,0,0,0,0,-1,1644,806,0,0
427,218,0,0,0,0,0,0,0,0,0,-1,1651,806,0,0
434,218,0,0,0,0,0,0,0,0,0,-1,1658,806,0,0
441,218,0,0,0,0,0,0,0,0,0,-1,1665,806,0,0
448,218,0,0,0,0,0,0,0,0,0,-1,1672,806,0,0
455,218,0,0,0,0,0,0,0,0,0,-1,1679,806,0,0
462,218,0,0,0,0,0,0,0,0,0,-1,1686,806,0,0
469,218,0,0,0,0,0,0,0,0,0,-1,1693,806,0,0
476,218,0,0,0,0,0,0,0,0,0,-1,1700,806,0,0
483,218,0,0,0,0,0,0,0,0,0,-1,1707,806,0,0
490,218,0,0,0,0,0,0,0,0,0,-1,1714,806,0,0
497,218,0,0,0,0,0,0,0,0,0,-1,1721,806,0,0
504,218,0,0,0,0,0,0,0,0,0,-1,1728,806,0,0
511,218,0,0,0,0,0,0,0,0,0,-1,1735,806,0,0
518,218,0,0,0,0,0,0,0,0,0,-1,1742,806,0,0
525,218,0,0,0,0,0,0,0,0,0,-1,1749,806,0,0
532,218,0,0,0,0,0,0,0,0,0,-1,1756,806,0,0
539,218,0,0,0,0,0,0,0,0,0,-1,1763,806,0,0
546,218,0,0,0,0,0,0,0,0,0,-1,1770,806,0,0
553,218,0,0,0,0,0,0,0,0,0,-1,1777,806,0,0
560,218,0,0,0,0,0,0,0,0,0,-1,1784,806,0,0
567,218,0,0,0,0,0,0,0,0,0,-1,1791,806,0,0
574,218,0,0,0,0,0,0,0,0,0,-1,1798,806,0,0
581,218,0,0,0,0,0,0,0,0,0,-1,1805,806,0,0
588,218,0,0,0,0,0,0,0,0,0,-1,1812,806,0,0
595,218,21.2208,3.25763,0.00680154,-0.00417839,0.00154971,0.00701607,-0.00439292,0.137561,0.00664477,0.0363341,1819,806,21.2209,-3.25764
602,218,21.2767,3.09186,0.00524719,-0.00102507,-8.03399e-05,0.00524822,-0.0010261,-0.012806,0.00388627,0.0336111,1826,806,21.2768,-3.09186
609,218,21.3203,3.0285,0.0038645,0.00039109,-0.00137952,0.00434573,-9.01388e-05,-0.335638,0.00292766,0.0314225,1833,806,21.3203,-3.02849
616,218,21.2821,3.09668,0.00269953,0.000668301,-0.00224185,0.00414509,-0.000777256,-0.572715,0.00305561,0.033682,1840,806,21.2821,-3.09665
623,218,21.2747,3.13519,0.00183824,0.000323939,-0.0025857,0.00377536,-0.00161318,-0.642969,0.00319347,0.0378789,1847,806,21.2746,-3.13517
630,218,21.2776,3.1922,0.001201,-0.000345503,-0.00267843,0.00321556,-0.00236006,-0.644871,0.00323169,0.0409984,1854,806,21.2776,-3.19219
637,218,21.3101,3.25983,0.000665057,-0.000850364,-0.00269316,0.00270507,-0.00289038,-0.64827,0.00323112,0.0451146,1861,806,21.31,-3.25982
644,218,21.3154,3.28552,0,0,0,0,0,0,0,-1,1868,806,21.3154,-3.28555
651,218,16.942,2.16498,0,0,0,0,0,0,0,-1,1875,806,16.942,-2.16499
658,218,16.519,1.84973,0,0,0,0,0,0,0,-1,1882,806,16.519,-1.84976
665,218,16.4441,1.9939,-0.000272979,-0.00240425,-0.00177955,0.000735601,-0.00341283,-0.515621,0.00255595,0.0312859,1889,806,16.4441,-1.99388
672,218,16.3651,2.17847,-0.000114377,-0.00281037,-0.00156796,0.00060538,-0.00353012,-0.430346,0.002579,0.0119216,1896,806,16.3651,-2.17848
679,218,16.3574,2.42413,-7.20298e-06,-0.00259548,-0.00148287,0.000666829,-0.00326951,-0.426628,0.00243261,0.0118986,1903,806,16.3574,-2.42411
686,218,16.3574,2.64233,0.000100035,-0.00209191,-0.00140821,0.000788496,-0.00278038,-0.454721,0.00216482,0.0114738,1910,806,16.3574,-2.64233
693,218,16.3466,2.84796,0.000655506,-0.00150887,-0.00115411,0.00115544,-0.0020088,-0.408775,0.00184889,0.0116115,1917,806,16.3465,-2.84799
700,218,16.3323,3.06519,0.00155324,-0.000755635,-0.00104378,0.00195515,-0.00115754,-0.36755,0.00181667,0.010015,1924,806,16.3322,-3.06519
707,218,16.3092,3.28906,0.00259982,-0.000388827,-0.000835615,0.00281758,-0.000606595,-0.254937,0.00210986,0.00800991,1931,806,16.3093,-3.28904
714,218,16.3141,3.51367,0.00370895,0.000192432,-0.000823639,0.0038923,9.07923e-06,-0.219041,0.00259185,0.00971487,1938,806,16.3141,-3.51365
721,218,16.3594,3.72089,0.00497558,0.000458292,-0.00100882,0.00519063,0.000243238,-0.210031,0.00338226,0.0123686,1945,806,16.3594,-3.72087
728,218,16.3865,3.92328,0.00627272,0.000774149,-0.00130781,0.00656792,0.000478943,-0.222006,0.00422802,0.0187522,1952,806,16.3865,-3.92325
735,218,16.406,4.11353,0.00759039,0.00114989,-0.00173727,0.00802912,0.000711156,-0.247367,0.00513214,0.0350909,1959,806,16.406,-4.11353
742,218,16.4781,4.26459,0.00883931,0.00172389,-0.00234454,0.00954237,0.00102083,-0.291339,0.00605008,0.0494682,1966,806,16.4781,-4.26457
749,218,16.0608,4.15143,0,0,0,0,0,0,0,-1,1973,806,16.0608,-4.1514
756,218,15.4821,4.50293,0,0,0,0,0,0,0,-1,1980,806,15.482,-4.50296
763,218,15.8397,3.4646,0,0,0,0,0,0,0,-1,1987,806,15.8397,-3.46463
770,218,0,0,0,0,0,0,0,0,0,-1,1994,806,0,0
777,218,0,0,0,0,0,0,0,0,0,-1,2001,806,0,0
784,218,0,0,0,0,0,0,0,0,0,-1,2008,806,0,0
791,218,0,0,0,0,0,0,0,0,0,-1,2015,806,0,0
798,218,0,0,0,0,0,0,0,0,0,-1,2022,806,0,0
805,218,0,0,0,0,0,0,0,0,0,-1,2029,806,0,0
812,218,0,0,0,0,0,0,0,0,0,-1,2036,806,0,0
-700,211,0,0,0,0,0,0,0,0,0,-1,524,813,0,0
-693,211,0,0,0,0,0,0,0,0,0,-1,531,813,0,0
-686,211,0,0,0,0,0,0,0,0,0,-1,538,813,0,0
-679,211,0,0,0,0,0,0,0,0,0,-1,545,813,0,0
-672,211,0,0,0,0,0,0,0,0,0,-1,552,813,0,0
-665,211,0,0,0,0,0,0,0,0,0,-1,559,813,0,0
-658,211,0,0,0,0,0,0,0,0,0,-1,566,813,0,0
-651,211,-11.6327,2.0025,0,0,0,0,0,0,0,-1,573,813,-11.6327,-2.00248
-644,211,-10.8476,3.76569,0,0,0,0,0,0,0,-1,580,813,-10.8476,-3.76567
-637,211,-10.6174,3.56396,0,0,0,0,0,0,0,-1,587,813,-10.6174,-3.56396
-630,211,-10.2267,3.70929,0,0,0,0,0,0,0,-1,594,813,-10.2268,-3.70932
-623,211,-10.223,2.89001,0.00696105,0.0451906,-0.0130943,0.0492455,0.00290615,-1.27049,0.0319058,0.0489281,601,813,-10.2229,-2.88999
-616,211,-10.1845,2.27222,0,0,0,0,0,0,0,-1,608,813,-10.1845,-2.27221
-609,211,-9.97797,1.9068,0.00277387,0.0247054,-0.00671067,0.0265958,0.000883464,-1.29621,0.0174435,0.0391972,615,813,-9.97795,-1.90678
-602,211,-10.0285,1.74432,0.00166168,0.0173958,-0.00431895,0.0185034,0.000554115,-1.31976,0.0121551,0.0200822,622,813,-10.0285,-1.74433
-595,211,-10.0614,1.59467,0.000884431,0.0117958,-0.00252146,0.0123503,0.000329935,-1.35433,0.0081258,0.0100535,629,813,-10.0614,-1.59465
-588,211,-10.0532,1.40454,2.7167e-05,0.00708159,-0.00132498,0.00732224,-0.000213486,-1.39113,0.00495419,0.0100709,636,813,-10.0532,-1.40451
-581,211,-10.0496,1.21149,-0.000548402,0.00357483,9.6836e-05,0.00357711,-0.000550675,1.54733,0.0025879,0.0104464,643,813,-10.0496,-1.21152
-574,211,-10.0708,1.01788,-0.00109496,0.00165567,0.000692025,0.00181996,-0.00125925,1.3377,0.00178758,0.0117844,650,813,-10.0708,-1.01787
-567,211,-10.0906,0.825989,-0.00185836,6.171e-05,0.00131855,0.000732696,-0.00252935,1.10007,0.00197627,0.0190634,657,813,-10.0906,-0.826017
-560,211,-10.0868,0.630737,-0.00316687,-0.00080728,0.0016367,3.05257e-05,-0.00400467,1.09768,0.00268001,0.022094,664,813,-10.0868,-0.630724
-553,211,-10.0443,0.417053,-0.00456313,-0.000781473,0.0016676,-0.000151165,-0.00519344,1.20942,0.00341302,0.0179567,671,813,-10.0443,-0.417037
-546,211,-10.0983,0.27356,-0.00604324,-0.000646664,0.00190992,-3.9116e-05,-0.00665079,1.26282,0.00442088,0.0226039,678,813,-10.0983,-0.273567
-539,211,-10.0924,0.0377808,-0.00753794,-0.000551668,0.00205027,5.58095e-06,-0.00809519,1.30541,0.00539866,0.0167077,685,813,-10.0924,-0.0377759
-532,211,-10.2382,-0.0216064,-0.00888226,0.000226736,0.0021891,0.000725514,-0.00938104,1.34677,0.00650935,0.0489463,692,813,-10.2382,0.0215768
-525,211,-10.4468,0.0341797,0,0,0,0,0,0,0,-1,699,813,-10.4468,-0.0341982
-518,211,-10.6089,-0.563782,0,0,0,0,0,0,0,-1,706,813,-10.6089,0.563811
-511,211,-13.579,1.46466,-0.0116751,0.00334312,0.00209758,0.00363058,-0.0119626,1.4346,0.00942139,0.0432818,713,813,-13.579,-1.46468
-504,211,-13.8957,1.33514,-0.0121034,0.00487821,0.00186569,0.00508077,-0.0123059,1.46265,0.0103231,0.0461838,720,813,-13.8957,-1.33512
-497,211,-14.0013,1.11621,-0.011701,0.0067157,0.00137914,0.0068184,-0.0118037,1.49646,0.0108791,0.0478004,727,813,-14.0014,-1.11623
-490,211,-14.097,1.03009,-0.00999424,0.008854,0.000491574,0.00886681,-0.010007,1.54474,0.0109035,0.0370935,734,813,-14.0971,-1.03011
-483,211,-14.0817,1.14563,-0.00622484,0.0111122,-0.000954736,0.0111647,-0.00627725,-1.51595,0.010201,0.0341631,741,813,-14.0817,-1.14563
-476,211,-13.9568,1.21521,0.000724369,0.012865,-0.00292587,0.0135334,5.60344e-05,-1.34623,0.00900363,0.0368981,748,813,-13.9569,-1.2152
-469,211,0,0,0,0,0,0,0,0,0,-1,755,813,0,0
-462,211,0,0,0,0,0,0,0,0,0,-1,762,813,0,0
-455,211,0,0,0,0,0,0,0,0,0,-1,769,813,0,0
-448,211,0,0,0,0,0,0,0,0,0,-1,776,813,0,0
-441,211,0,0,0,0,0,0,0,0,0,-1,783,813,0,0
-434,211,0,0,0,0,0,0,0,0,0,-1,790,813,0,0
-427,211,0,0,0,0,0,0,0,0,0,-1,797,813,0,0
-420,211,0,0,0,0,0,0,0,0,0,-1,804,813,0,0
-413,211,0,0,0,0,0,0,0,0,0,-1,811,813,0,0
-406,211,0,0,0,0,0,0,0,0,0,-1,818,813,0,0
-399,211,0,0,0,0,0,0,0,0,0,-1,825,813,0,0
-392,211,0,0,0,0,0,0,0,0,0,-1,832,813,0,0
-385,211,0,0,0,0,0,0,0,0,0,-1,839,813,0,0
-378,211,0,0,0,0,0,0,0,0,0,-1,846,813,0,0
-371,211,0,0,0,0,0,0,0,0,0,-1,853,813,0,0
-364,211,0,0,0,0,0,0,0,0,0,-1,860,813,0,0
-357,211,0,0,0,0,0,0,0,0,0,-1,867,813,0,0
-350,211,0,0,0,0,0,0,0,0,0,-1,874,813,0,0
-343,211,0,0,0,0,0,0,0,0,0,-1,881,813,0,0
-336,211,0,0,0,0,0,0,0,0,0,-1,888,813,0,0
-329,211,0,0,0,0,0,0,0,0,0,-1,895,813,0,0
-322,211,0,0,0,0,0,0,0,0,0,-1,902,813,0,0
-315,211,0,0,0,0,0,0,0,0,0,-1,909,813,0,0
-308,211,0,0,0,0,0,0,0,0,0,-1,916,813,0,0
-301,211,0,0,0,0,0,0,0,0,0,-1,923,813,0,0
-294,211,0,0,0,0,0,0,0,0,0,-1,930,813,0,0
-287,211,0,0,0,0,0,0,0,0,0,-1,937,813,0,0
-280,211,0,0,0,0,0,0,0,0,0,-1,944,813,0,0
-273,211,0,0,0,0,0,0,0,0,0,-1,951,813,0,0
-266,211,0,0,0,0,0,0,0,0,0,-1,958,813,0,0
-259,211,0,0,0,0,0,0,0,0,0,-1,965,813,0,0
-252,211,0,0,0,0,0,0,0,0,0,-1,972,813,0,0
-245,211,0,0,0,0,0,0,0,0,0,-1,979,813,0,0
-238,211,0,0,0,0,0,0,0,0,0,-1,986,813,0,0
-231,211,0,0,0,0,0,0,0,0,0,-1,993,813,0,0
-224,211,0,0,0,0,0,0,0,0,0,-1,1000,813,0,0
-217,211,0,0,0,0,0,0,0,0,0,-1,1007,813,0,0
-210,211,0,0,0,0,0,0,0,0,0,-1,1014,813,0,0
-203,211,0,0,0,0,0,0,0,0,0,-1,1021,813,0,0
-196,211,0,0,0,0,0,0,0,0,0,-1,1028,813,0,0
-189,211,0,0,0,0,0,0,0,0,0,-1,1035,813,0,0
-182,211,0,0,0,0,0,0,0,0,0,-1,1042,813,0,0
-175,211,0,0,0,0,0,0,0,0,0,-1,1049,813,0,0
-168,211,0,0,0,0,0,0,0,0,0,-1,1056,813,0,0
-161,211,0,0,0,0,0,0,0,0,0,-1,1063,813,0,0
-154,211,0,0,0,0,0,0,0,0,0,-1,1070,813,0,0
-147,211,0,0,0,0,0,0,0,0,0,-1,1077,813,0,0
-140,211,0,0,0,0,0,0,0,0,0,-1,1084,813,0,0
-133,211,0,0,0,0,0,0,0,0,0,-1,1091,813,0,0
-126,211,0,0,0,0,0,0,0,0,0,-1,1098,813,0,0
-119,211,0,0,0,0,0,0,0,0,0,-1,1105,813,0,0
-112,211,0,0,0,0,0,0,0,0,0,-1,1112,813,0,0
-105,211,0,0,0,0,0,0,0,0,0,-1,1119,813,0,0
-98,211,0,0,0,0,0,0,0,0,0,-1,1126,813,0,0
-91,211,0,0,0,0,0,0,0,0,0,-1,1133,813,0,0
-84,211,0,0,0,0,0,0,0,0,0,-1,1140,813,0,0
-77,211,0,0,0,0,0,0,0,0,0,-1,1147,813,0,0
-70,211,0,0,0,0,0,0,0,0,0,-1,1154,813,0,0
-63,211,0,0,0,0,0,0,0,0,0,-1,1161,813,0,0
-56,211,0,0,0,0,0,0,0,0,0,-1,1168,813,0,0
-49,211,0,0,0,0,0,0,0,0,0,-1,1175,813,0,0
-42,211,0,0,0,0,0,0,0,0,0,-1,1182,813,0,0
-35,211,0,0,0,0,0,0,0,0,0,-1,1189,813,0,0
-28,211,0,0,0,0,0,0,0,0,0,-1,1196,813,0,0
-21,211,0,0,0,0,0,0,0,0,0,-1,1203,813,0,0
-14,211,0,0,0,0,0,0,0,0,0,-1,1210,813,0,0
-7,211,0,0,0,0,0,0,0,0,0,-1,1217,813,0,0
0,211,0,0,0,0,0,0,0,0,0,-1,1224,813,0,0
7,211,0,0,0,0,0,0,0,0,0,-1,1231,813,0,0
14,211,0,0,0,0,0,0,0,0,0,-1,1238,813,0,0
21,211,0,0,0,0,0,0,0,0,0,-1,1245,813,0,0
28,211,0,0,0,0,0,0,0,0,0,-1,1252,813,0,0
35,211,0,0,0,0,0,0,0,0,0,-1,1259,813,0,0
42,211,0,0,0,0,0,0,0,0,0,-1,1266,813,0,0
49,211,0,0,0,0,0,0,0,0,0,-1,1273,813,0,0
56,211,0,0,0,0,0,0,0,0,0,-1,1280,813,0,0
63,211,0,0,0,0,0,0,0,0,0,-1,1287,813,0,0
70,211,0,0,0,0,0,0,0,0,0,-1,1294,813,0,0
77,211,0,0,0,0,0,0,0,0,0,-1,1301,813,0,0
84,211,0,0,0,0,0,0,0,0,0,-1,1308,813,0,0
91,211,0,0,0,0,0,0,0,0,0,-1,1315,813,0,0
98,211,0,0,0,0,0,0,0,0,0,-1,1322,813,0,0
105,211,0,0,0,0,0,0,0,0,0,-1,1329,813,0,0
112,211,0,0,0,0,0,0,0,0,0,-1,1336,813,0,0
119,211,0,0,0,0,0,0,0,0,0,-1,1343,813,0,0
126,211,0,0,0,0,0,0,0,0,0,-1,1350,813,0,0
133,211,0,0,0,0,0,0,0,0,0,-1,1357,813,0,0
140,211,0,0,0,0,0,0,0,0,0,-1,1364,813,0,0
147,211,0,0,0,0,0,0,0,0,0,-1,1371,813,0,0
154,211,0,0,0,0,0,0,0,0,0,-1,1378,813,0,0
161,211,0,0,0,0,0,0,0,0,0,-1,1385,813,0,0
168,211,0,0,0,0,0,0,0,0,0,-1,1392,813,0,0
175,211,0,0,0,0,0,0,0,0,0,-1,1399,813,0,0
182,211,0,0,0,0,0,0,0,0,0,-1,1406,813,0,0
189,211,0,0,0,0,0,0,0,0,0,-1,1413,813,0,0
196,211,0,0,0,0,0,0,0,0,0,-1,1420,813,0,0
203,211,0,0,0,0,0,0,0,0,0,-1,1427,813,0,0
210,211,0,0,0,0,0,0,0,0,0,-1,1434,813,0,0
217,211,0,0,0,0,0,0,0,0,0,-1,1441,813,0,0
224,211,0,0,0,0,0,0,0,0,0,-1,1448,813,0,0
231,211,0,0,0,0,0,0,0,0,0,-1,1455,813,0,0
238,211,0,0,0,0,0,0,0,0,0,-1,1462,813,0,0
245,211,0,0,0,0,0,0,0,0,0,-1,1469,813,0,0
252,211,0,0,0,0,0,0,0,0,0,-1,1476,813,0,0
259,211,0,0,0,0,0,0,0,0,0,-1,1483,813,0,0
266,211,0,0,0,0,0,0,0,0,0,-1,1490,813,0,0
273,211,0,0,0,0,0,0,0,0,0,-1,1497,813,0,0
280,211,0,0,0,0,0,0,0,0,0,-1,1504,813,0,0
287,211,0,0,0,0,0,0,0,0,0,-1,1511,813,0,0
294,211,0,0,0,0,0,0,0,0,0,-1,1518,813,0,0
301,211,0,0,0,0,0,0,0,0,0,-1,1525,813,0,0
308,211,0,0,0,0,0,0,0,0,0,-1,1532,813,0,0
315,211,0,0,0,0,0,0,0,0,0,-1,1539,813,0,0
322,211,0,0,0,0,0,0,0,0,0,-1,1546,813,0,0
329,211,0,0,0,0,0,0,0,0,0,-1,1553,813,0,0
336,211,0,0,0,0,0,0,0,0,0,-1,1560,813,0,0
343,211,0,0,0,0,0,0,0,0,0,-1,1567,813,0,0
350,211,0,0,0,0,0,0,0,0,0,-1,1574,813,0,0
357,211,0,0,0,0,0,0,0,0,0,-1,1581,813,0,0
364,211,0,0,0,0,0,0,0,0,0,-1,1588,813,0,0
371,211,0,0,0,0,0,0,0,0,0,-1,1595,813,0,0
378,211,0,0,0,0,0,0,0,0,0,-1,1602,813,0,0
385,211,0,0,0,0,0,0,0,0,0,-1,1609,813,0,0
392,211,0,0,0,0,0,0,0,0,0,-1,1616,813,0,0
399,211,0,0,0,0,0,0,0,0,0,-1,1623,813,0,0
406,211,0,0,0,0,0,0,0,0,0,-1,1630,813,0,0
413,211,0,0,0,0,0,0,0,0,0,-1,1637,813,0,0
420,211,0,0,0,0,0,0,0,0,0,-1,1644,813,0,0
427,211,0,0,0,0,0,0,0,0,0,-1,1651,813,0,0
434,211,0,0,0,0,0,0,0,0,0,-1,1658,813,0,0
441,211,0,0,0,0,0,0,0,0,0,-1,1665,813,0,0
448,211,0,0,0,0,0,0,0,0,0,-1,1672,813,0,0
455,211,0,0,0,0,0,0,0,0,0,-1,1679,813,0,0
462,211,0,0,0,0,0,0,0,0,0,-1,1686,813,0,0
469,211,0,0,0,0,0,0,0,0,0,-1,1693,813,0,0
476,211,0,0,0,0,0,0,0,0,0,-1,1700,813,0,0
483,211,0,0,0,0,0,0,0,0,0,-1,1707,813,0,0
490,211,0,0,0,0,0,0,0,0,0,-1,1714,813,0,0
497,211,0,0,0,0,0,0,0,0,0,-1,1721,813,0,0
504,211,0,0,0,0,0,0,0,0,0,-1,1728,813,0,0
511,211,0,0,0,0,0,0,0,0,0,-1,1735,813,0,0
518,211,0,0,0,0,0,0,0,0,0,-1,1742,813,0,0
525,211,0,0,0,0,0,0,0,0,0,-1,1749,813,0,0
532,211,0,0,0,0,0,0,0,0,0,-1,1756,813,0,0
539,211,0,0,0,0,0,0,0,0,0,-1,1763,813,0,0
546,211,0,0,0,0,0,0,0,0,0,-1,1770,813,0,0
553,211,0,0,0,0,0,0,0,0,0,-1,1777,813,0,0
560,211,0,0,0,0,0,0,0,0,0,-1,1784,813,0,0
567,211,0,0,0,0,0,0,0,0,0,-1,1791,813,0,0
574,211,0,0,0,0,0,0,0,0,0,-1,1798,813,0,0
581,211,0,0,0,0,0,0,0,0,0,-1,1805,813,0,0
588,211,0,0,0,0,0,0,0,0,0,-1,1812,813,0,0
595,211,21.261,3.05994,0.00397755,-0.00245051,0.00102321,0.00413649,-0.00260946,0.154107,0.0039279,0.0366578,1819,813,21.261,-3.05991
602,211,21.3082,2.83563,0.00355407,3.39499e-05,6.76474e-05,0.00355537,3.26504e-05,0.0192079,0.00235944,0.0373246,1826,813,21.3082,-2.83563
609,211,21.3728,2.94385,0.00290237,0.000988559,-0.00077393,0.00317617,0.00071476,-0.340037,0.00192397,0.0378659,1833,813,21.3728,-2.94387
616,211,21.4086,3.11121,0.00228441,0.000889048,-0.00143199,0.00317964,-6.18282e-06,-0.558717,0.00212182,0.0314536,1840,813,21.4085,-3.1112
623,211,21.325,3.12817,0.00173874,0.00030918,-0.00173892,0.00290406,-0.000856133,-0.590401,0.00227574,0.0328563,1847,813,21.3249,-3.1282
630,211,21.262,3.1568,0.00130487,-0.000479385,-0.00187425,0.00248849,-0.001663,-0.563269,0.0024126,0.0377079,1854,813,21.262,-3.15683
637,211,21.5054,2.99878,0.000869607,-0.00109897,-0.00193095,0.00205267,-0.00228203,-0.549692,0.00250381,0.0413401,1861,813,21.5054,-2.99876
644,211,21.6047,2.68079,0.000415667,-0.00162792,-0.00188392,0.00153705,-0.0027493,-0.536912,0.0025075,0.0401282,1868,813,21.6047,-2.68078
651,211,21.0492,3.43762,0,0,0,0,0,0,0,-1,1875,813,21.0492,-3.4376
658,211,15.4792,2.15845,0,0,0,0,0,0,0,-1,1882,813,15.4793,-2.15845
665,211,16.557,2.02484,0,0,0,0,0,0,0,-1,1889,813,16.557,-2.02484
672,211,16.5327,2.20081,-1.57715e-05,-0.00271334,-0.00144622,0.000613011,-0.00334213,-0.410122,0.00245803,0.0188229,1896,813,16.5327,-2.20082
679,211,16.5687,2.41339,3.92309e-06,-0.002546,-0.00145418,0.00066291,-0.00320499,-0.425485,0.00238849,0.0130975,1903,813,16.5688,-2.41339
686,211,16.5776,2.65216,-4.42776e-05,-0.00212302,-0.00140974,0.000667824,-0.00283512,-0.467743,0.00214758,0.01204,1910,813,16.5776,-2.65215
693,211,16.5649,2.86377,0.000288738,-0.00161222,-0.00120036,0.00086936,-0.00219284,-0.450529,0.00182217,0.0120778,1917,813,16.5649,-2.8638
700,211,16.5098,3.07813,0.000972736,-0.000904799,-0.00111928,0.00149482,-0.00142688,-0.436443,0.00168699,0.0141289,1924,813,16.5098,-3.07812
707,211,16.5164,3.30316,0.00179209,-0.000619642,-0.000909263,0.00209648,-0.000924031,-0.323039,0.00178715,0.020434,1931,813,16.5164,-3.30314
714,211,16.5369,3.52216,0.00260435,-2.75601e-05,-0.000882525,0.00287287,-0.000296089,-0.295373,0.00202119,0.020725,1938,813,16.5369,-3.52218
721,211,16.5814,3.68335,0.00358314,0.000248325,-0.0010673,0.00389547,-6.40107e-05,-0.284691,0.00261858,0.0157644,1945,813,16.5814,-3.68334
728,211,16.6215,3.89581,0.00455311,0.000574233,-0.00139052,0.0049909,0.000136447,-0.305011,0.00328273,0.0151865,1952,813,16.6215,-3.89579
735,211,16.6489,4.11786,0.00549682,0.000986187,-0.00184467,0.00615514,0.000327872,-0.342786,0.00399862,0.024841,1959,813,16.649,-4.11786
742,211,16.6726,4.23822,0.0063417,0.00159208,-0.00249005,0.00740783,0.000525949,-0.404541,0.00477291,0.0467953,1966,813,16.6726,-4.2382
749,211,16.6687,4.35748,0,0,0,0,0,0,0,-1,1973,813,16.6687,-4.3575
756,211,16.8132,4.25702,0,0,0,0,0,0,0,-1,1980,813,16.8132,-4.25701
763,211,15.9191,3.94836,0,0,0,0,0,0,0,-1,1987,813,15.919,-3.94836
770,211,17.2487,3.47461,0,0,0,0,0,0,0,-1,1994,813,17.2486,-3.47463
777,211,0,0,0,0,0,0,0,0,0,-1,2001,813,0,0
784,211,0,0,0,0,0,0,0,0,0,-1,2008,813,0,0
791,211,0,0,0,0,0,0,0,0,0,-1,2015,813,0,0
798,211,0,0,0,0,0,0,0,0,0,-1,2022,813,0,0
805,211,0,0,0,0,0,0,0,0,0,-1,2029,813,0,0
812,211,0,0,0,0,0,0,0,0,0,-1,2036,813,0,0
-700,204,0,0,0,0,0,0,0,0,0,-1,524,820,0,0
-693,204,0,0,0,0,0,0,0,0,0,-1,531,820,0,0
-686,204,0,0,0,0,0,0,0,0,0,-1,538,820,0,0
-679,204,0,0,0,0,0,0,0,0,0,-1,545,820,0,0
-672,204,0,0,0,0,0,0,0,0,0,-1,552,820,0,0
-665,204,0,0,0,0,0,0,0,0,0,-1,559,820,0,0
-658,204,0,0,0,0,0,0,0,0,0,-1,566,820,0,0
-651,204,-11.8934,1.10126,0,0,0,0,0,0,0,-1,573,820,-11.8934,-1.10126
-644,204,-11.3766,1.64148,0.0135745,0.0837183,-0.0212441,0.0896507,0.00764208,-1.29848,0.0573896,0.0455783,580,820,-11.3767,-1.64149
-637,204,-10.6826,2.40796,0,0,0,0,0,0,0,-1,587,820,-10.6825,-2.40795
-630,204,-9.75085,3.42542,0,0,0,0,0,0,0,-1,594,820,-9.75086,-3.4254
-623,204,-9.65955,2.48096,0,0,0,0,0,0,0,-1,601,820,-9.65953,-2.48095
-616,204,-9.91583,1.82794,0,0,0,0,0,0,0,-1,608,820,-9.9158,-1.82792
-609,204,-10.0855,1.81396,0.00171955,0.0202328,-0.00500357,0.0214986,0.000453781,-1.32302,0.0141836,0.0322044,615,820,-10.0855,-1.81399
-602,204,-10.2307,1.75336,0.000968923,0.0140164,-0.00297275,0.0146618,0.000323535,-1.35701,0.0096685,0.0144775,622,820,-10.2307,-1.75334
-595,204,-10.2639,1.55682,0.000264627,0.00932506,-0.00149957,0.0095668,2.28854e-05,-1.41096,0.00637025,0.0140907,629,820,-10.2639,-1.55683
-588,204,-10.2662,1.35925,-0.000594793,0.00525766,-0.000487754,0.00529803,-0.000635165,-1.48821,0.00376166,0.0122463,636,820,-10.2663,-1.35927
-581,204,-10.2539,1.17371,-0.00125438,0.0023263,0.000723008,0.00246678,-0.00139486,1.37889,0.00225797,0.0119288,643,820,-10.2539,-1.17368
-574,204,-10.2597,1.01959,-0.00205207,0.000859765,0.00118639,0.00128194,-0.00247425,1.22892,0.00220475,0.0133711,650,820,-10.2597,-1.01961
-567,204,-10.2674,0.839722,-0.00305737,-0.000452044,0.00162838,0.00033061,-0.00384003,1.12276,0.00267704,0.0139816,657,820,-10.2674,-0.839714
-560,204,-10.274,0.637512,-0.00446825,-0.00108563,0.00181123,-0.000298819,-0.00525507,1.16098,0.00340814,0.0134185,664,820,-10.274,-0.63749
-553,204,-10.2648,0.44104,-0.00581381,-0.00102863,0.00176623,-0.000447326,-0.00639512,1.25284,0.0041224,0.0100549,671,820,-10.2648,-0.441049
-546,204,-10.2753,0.273193,-0.00706824,-0.000852678,0.00191027,-0.000312523,-0.00760839,1.29523,0.00497136,0.0158289,678,820,-10.2753,-0.273166
-539,204,-10.3051,0.0337524,-0.00814955,-0.000776933,0.00197553,-0.000280944,-0.00864554,1.32482,0.00567236,0.0290008,685,820,-10.3051,-0.0337415
-532,204,-10.5577,0.0395508,0,0,0,0,0,0,0,-1,692,820,-10.5578,-0.0395807
-525,204,-13.0869,1.71967,0,0,0,0,0,0,0,-1,699,820,-13.0869,-1.71968
-518,204,-13.2917,2.01019,0,0,0,0,0,0,0,-1,706,820,-13.2917,-2.01019
-511,204,-13.6514,1.60858,-0.010379,0.00279701,0.00160797,0.00299041,-0.0105724,1.4511,0.00822825,0.0477668,713,820,-13.6514,-1.60857
-504,204,-13.9725,1.21057,-0.0100355,0.00422491,0.0012727,0.0043376,-0.0101482,1.48248,0.00858474,0.0478477,720,820,-13.9725,-1.21054
-497,204,-14.0798,1.0271,-0.00863571,0.00593538,0.000658173,0.00596505,-0.00866538,1.52575,0.00849471,0.0399883,727,820,-14.0798,-1.0271
-490,204,-14.1839,0.873413,-0.00574919,0.00791125,-0.000338183,0.00791962,-0.00575756,-1.54606,0.00792934,0.0351133,734,820,-14.1839,-0.873432
-483,204,-14.2417,0.825928,-0.000624094,0.00995478,-0.00185054,0.0102691,-0.000938464,-1.40252,0.00717939,0.0415662,741,820,-14.2417,-0.82594
-476,204,0,0,0,0,0,0,0,0,0,-1,748,820,0,0
-469,204,0,0,0,0,0,0,0,0,0,-1,755,820,0,0
-462,204,0,0,0,0,0,0,0,0,0,-1,762,820,0,0
-455,204,0,0,0,0,0,0,0,0,0,-1,769,820,0,0
-448,204,0,0,0,0,0,0,0,0,0,-1,776,820,0,0
-441,204,0,0,0,0,0,0,0,0,0,-1,783,820,0,0
-434,204,0,0,0,0,0,0,0,0,0,-1,790,820,0,0
-427,204,0,0,0,0,0,0,0,0,0,-1,797,820,0,0
-420,204,0,0,0,0,0,0,0,0,0,-1,804,820,0,0
-413,204,0,0,0,0,0,0,0,0,0,-1,811,820,0,0
-406,204,0,0,0,0,0,0,0,0,0,-1,818,820,0,0
-399,204,0,0,0,0,0,0,0,0,0,-1,825,820,0,0
-392,204,0,0,0,0,0,0,0,0,0,-1,832,820,0,0
-385,204,0,0,0,0,0,0,0,0,0,-1,839,820,0,0
-378,204,0,0,0,0,0,0,0,0,0,-1,846,820,0,0
-371,204,0,0,0,0,0,0,0,0,0,-1,853,820,0,0
-364,204,0,0,0,0,0,0,0,0,0,-1,860,820,0,0
-357,204,0,0,0,0,0,0,0,0,0,-1,867,820,0,0
-350,204,0,0,0,0,0,0,0,0,0,-1,874,820,0,0
-343,204,0,0,0,0,0,0,0,0,0,-1,881,820,0,0
-336,204,0,0,0,0,0,0,0,0,0,-1,888,820,0,0
-329,204,0,0,0,0,0,0,0,0,0,-1,895,820,0,0
-322,204,0,0,0,0,0,0,0,0,0,-1,902,820,0,0
-315,204,0,0,0,0,0,0,0,0,0,-1,909,820,0,0
-308,204,0,0,0,0,0,0,0,0,0,-1,916,820,0,0
-301,204,0,0,0,0,0,0,0,0,0,-1,923,820,0,0
-294,204,0,0,0,0,0,0,0,0,0,-1,930,820,0,0
-287,204,0,0,0,0,0,0,0,0,0,-1,937,820,0,0
-280,204,0,0,0,0,0,0,0,0,0,-1,944,820,0,0
-273,204,0,0,0,0,0,0,0,0,0,-1,951,820,0,0
-266,204,0,0,0,0,0,0,0,0,0,-1,958,820,0,0
-259,204,0,0,0,0,0,0,0,0,0,-1,965,820,0,0
-252,204,0,0,0,0,0,0,0,0,0,-1,972,820,0,0
-245,204,0,0,0,0,0,0,0,0,0,-1,979,820,0,0
-238,204,0,0,0,0,0,0,0,0,0,-1,986,820,0,0
-231,204,0,0,0,0,0,0,0,0,0,-1,993,820,0,0
-224,204,0,0,0,0,0,0,0,0,0,-1,1000,820,0,0
-217,204,0,0,0,0,0,0,0,0,0,-1,1007,820,0,0
-210,204,0,0,0,0,0,0,0,0,0,-1,1014,820,0,0
-203,204,0,0,0,0,0,0,0,0,0,-1,1021,820,0,0
-196,204,0,0,0,0,0,0,0,0,0,-1,1028,820,0,0
-189,204,0,0,0,0,0,0,0,0,0,-1,1035,820,0,0
-182,204,0,0,0,0,0,0,0,0,0,-1,1042,820,0,0
-175,204,0,0,0,0,0,0,0,0,0,-1,1049,820,0,0
-168,204,0,0,0,0,0,0,0,0,0,-1,1056,820,0,0
-161,204,0,0,0,0,0,0,0,0,0,-1,1063,820,0,0
-154,204,0,0,0,0,0,0,0,0,0,-1,1070,820,0,0
-147,204,0,0,0,0,0,0,0,0,0,-1,1077,820,0,0
-140,204,0,0,0,0,0,0,0,0,0,-1,1084,820,0,0
-133,204,0,0,0,0,0,0,0,0,0,-1,1091,820,0,0
-126,204,0,0,0,0,0,0,0,0,0,-1,1098,820,0,0
-119,204,0,0,0,0,0,0,0,0,0,-1,1105,820,0,0
-112,204,0,0,0,0,0,0,0,0,0,-1,1112,820,0,0
-105,204,0,0,0,0,0,0,0,0,0,-1,1119,820,0,0
-98,204,0,0,0,0,0,0,0,0,0,-1,1126,820,0,0
-91,204,0,0,0,0,0,0,0,0,0,-1,1133,820,0,0
-84,204,0,0,0,0,0,0,0,0,0,-1,1140,820,0,0
-77,204,0,0,0,0,0,0,0,0,0,-1,1147,820,0,0
-70,204,0,0,0,0,0,0,0,0,0,-1,1154,820,0,0
-63,204,0,0,0,0,0,0,0,0,0,-1,1161,820,0,0
-56,204,0,0,0,0,0,0,0,0,0,-1,1168,820,0,0
-49,204,0,0,0,0,0,0,0,0,0,-1,1175,820,0,0
-42,204,0,0,0,0,0,0,0,0,0,-1,1182,820,0,0
-35,204,0,0,0,0,0,0,0,0,0,-1,1189,820,0,0
-28,204,0,0,0,0,0,0,0,0,0,-1,1196,820,0,0
-21,204,0,0,0,0,0,0,0,0,0,-1,1203,820,0,0
-14,204,0,0,0,0,0,0,0,0,0,-1,1210,820,0,0
-7,204,0,0,0,0,0,0,0,0,0,-1,1217,820,0,0
0,204,0,0,0,0,0,0,0,0,0,-1,1224,820,0,0
7,204,0,0,0,0,0,0,0,0,0,-1,1231,820,0,0
14,204,0,0,0,0,0,0,0,0,0,-1,1238,820,0,0
21,204,0,0,0,0,0,0,0,0,0,-1,1245,820,0,0
28,204,0,0,0,0,0,0,0,0,0,-1,1252,820,0,0
35,204,0,0,0,0,0,0,0,0,0,-1,1259,820,0,0
42,204,0,0,0,0,0,0,0,0,0,-1,1266,820,0,0
49,204,0,0,0,0,0,0,0,0,0,-1,1273,820,0,0
56,204,0,0,0,0,0,0,0,0,0,-1,1280,820,0,0
63,204,0,0,0,0,0,0,0,0,0,-1,1287,820,0,0
70,204,0,0,0,0,0,0,0,0,0,-1,1294,820,0,0
77,204,0,0,0,0,0,0,0,0,0,-1,1301,820,0,0
84,204,0,0,0,0,0,0,0,0,0,-1,1308,820,0,0
91,204,0,0,0,0,0,0,0,0,0,-1,1315,820,0,0
98,204,0,0,0,0,0,0,0,0,0,-1,1322,820,0,0
105,204,0,0,0,0,0,0,0,0,0,-1,1329,820,0,0
112,204,0,0,0,0,0,0,0,0,0,-1,1336,820,0,0
119,204,0,0,0,0,0,0,0,0,0,-1,1343,820,0,0
126,204,0,0,0,0,0,0,0,0,0,-1,1350,820,0,0
133,204,0,0,0,0,0,0,0,0,0,-1,1357,820,0,0
140,204,0,0,0,0,0,0,0,0,0,-1,1364,820,0,0
147,204,0,0,0,0,0,0,0,0,0,-1,1371,820,0,0
154,204,0,0,0,0,0,0,0,0,0,-1,1378,820,0,0
161,204,0,0,0,0,0,0,0,0,0,-1,1385,820,0,0
168,204,0,0,0,0,0,0,0,0,0,-1,1392,820,0,0
175,204,0,0,0,0,0,0,0,0,0,-1,1399,820,0,0
182,204,0,0,0,0,0,0,0,0,0,-1,1406,820,0,0
189,204,0,0,0,0,0,0,0,0,0,-1,1413,820,0,0
196,204,0,0,0,0,0,0,0,0,0,-1,1420,820,0,0
203,204,0,0,0,0,0,0,0,0,0,-1,1427,820,0,0
210,204,0,0,0,0,0,0,0,0,0,-1,1434,820,0,0
217,204,0,0,0,0,0,0,0,0,0,-1,1441,820,0,0
224,204,0,0,0,0,0,0,0,0,0,-1,1448,820,0,0
231,204,0,0,0,0,0,0,0,0,0,-1,1455,820,0,0
238,204,0,0,0,0,0,0,0,0,0,-1,1462,820,0,0
245,204,0,0,0,0,0,0,0,0,0,-1,1469,820,0,0
252,204,0,0,0,0,0,0,0,0,0,-1,1476,820,0,0
259,204,0,0,0,0,0,0,0,0,0,-1,1483,820,0,0
266,204,0,0,0,0,0,0,0,0,0,-1,1490,820,0,0
273,204,0,0,0,0,0,0,0,0,0,-1,1497,820,0,0
280,204,0,0,0,0,0,0,0,0,0,-1,1504,820,0,0
287,204,0,0,0,0,0,0,0,0,0,-1,1511,820,0,0
294,204,0,0,0,0,0,0,0,0,0,-1,1518,820,0,0
301,204,0,0,0,0,0,0,0,0,0,-1,1525,820,0,0
308,204,0,0,0,0,0,0,0,0,0,-1,1532,820,0,0
315,204,0,0,0,0,0,0,0,0,0,-1,1539,820,0,0
322,204,0,0,0,0,0,0,0,0,0,-1,1546,820,0,0
329,204,0,0,0,0,0,0,0,0,0,-1,1553,820,0,0
336,204,0,0,0,0,0,0,0,0,0,-1,1560,820,0,0
343,204,0,0,0,0,0,0,0,0,0,-1,1567,820,0,0
350,204,0,0,0,0,0,0,0,0,0,-1,1574,820,0,0
357,204,0,0,0,0,0,0,0,0,0,-1,1581,820,0,0
364,204,0,0,0,0,0,0,0,0,0,-1,1588,820,0,0
371,204,0,0,0,0,0,0,0,0,0,-1,1595,820,0,0
378,204,0,0,0,0,0,0,0,0,0,-1,1602,820,0,0
385,204,0,0,0,0,0,0,0,0,0,-1,1609,820,0,0
392,204,0,0,0,0,0,0,0,0,0,-1,1616,820,0,0
399,204,0,0,0,0,0,0,0,0,0,-1,1623,820,0,0
406,204,0,0,0,0,0,0,0,0,0,-1,1630,820,0,0
413,204,0,0,0,0,0,0,0,0,0,-1,1637,820,0,0
420,204,0,0,0,0,0,0,0,0,0,-1,1644,820,0,0
427,204,0,0,0,0,0,0,0,0,0,-1,1651,820,0,0
434,204,0,0,0,0,0,0,0,0,0,-1,1658,820,0,0
441,204,0,0,0,0,0,0,0,0,0,-1,1665,820,0,0
448,204,0,0,0,0,0,0,0,0,0,-1,1672,820,0,0
455,204,0,0,0,0,0,0,0,0,0,-1,1679,820,0,0
462,204,0,0,0,0,0,0,0,0,0,-1,1686,820,0,0
469,204,0,0,0,0,0,0,0,0,0,-1,1693,820,0,0
476,204,0,0,0,0,0,0,0,0,0,-1,1700,820,0,0
483,204,0,0,0,0,0,0,0,0,0,-1,1707,820,0,0
490,204,0,0,0,0,0,0,0,0,0,-1,1714,820,0,0
497,204,0,0,0,0,0,0,0,0,0,-1,1721,820,0,0
504,204,0,0,0,0,0,0,0,0,0,-1,1728,820,0,0
511,204,0,0,0,0,0,0,0,0,0,-1,1735,820,0,0
518,204,0,0,0,0,0,0,0,0,0,-1,1742,820,0,0
525,204,0,0,0,0,0,0,0,0,0,-1,1749,820,0,0
532,204,0,0,0,0,0,0,0,0,0,-1,1756,820,0,0
539,204,0,0,0,0,0,0,0,0,0,-1,1763,820,0,0
546,204,0,0,0,0,0,0,0,0,0,-1,1770,820,0,0
553,204,0,0,0,0,0,0,0,0,0,-1,1777,820,0,0
560,204,0,0,0,0,0,0,0,0,0,-1,1784,820,0,0
567,204,0,0,0,0,0,0,0,0,0,-1,1791,820,0,0
574,204,0,0,0,0,0,0,0,0,0,-1,1798,820,0,0
581,204,0,0,0,0,0,0,0,0,0,-1,1805,820,0,0
588,204,0,0,0,0,0,0,0,0,0,-1,1812,820,0,0
595,204,0,0,0,0,0,0,0,0,0,-1,1819,820,0,0
602,204,21.3806,2.99048,0.00260102,0.000714262,0.000174237,0.00261697,0.000698307,0.0913181,0.00156471,0.0389523,1826,820,21.3807,-2.99049
609,204,21.3948,3.13068,0.00228104,0.00125869,-3.96667e-05,0.00228258,0.00125716,-0.038722,0.00132011,0.042453,1833,820,21.3947,-3.13066
616,204,21.4102,3.09357,0.0020202,0.000853487,-0.000438863,0.00216685,0.00070684,-0.322488,0.00127597,0.0377521,1840,820,21.4102,-3.09356
623,204,21.3853,3.07892,0.00171785,9.11309e-05,-0.000743753,0.00200664,-0.000197654,-0.370363,0.00140827,0.0283226,1847,820,21.3853,-3.07894
630,204,21.3669,3.06677,0.00139941,-0.000774554,-0.000948853,0.00175529,-0.00113043,-0.358826,0.00167904,0.0267114,1854,820,21.3669,-3.0668
637,204,21.392,3.03998,0.00105087,-0.00144508,-0.00111439,0.00147601,-0.00187022,-0.364456,0.00193641,0.0337918,1861,820,21.392,-3.03997
644,204,21.4197,2.94153,0.000694768,-0.00195414,-0.00118768,0.0011493,-0.00240867,-0.365504,0.00209665,0.0403625,1868,820,21.4197,-2.94152
651,204,21.1207,3.37213,0.000424825,-0.00231389,-0.00121071,0.000883296,-0.00277236,-0.361993,0.00220253,0.0440023,1875,820,21.1207,-3.37213
658,204,20.9987,3.67181,0,0,0,0,0,0,0,-1,1882,820,20.9987,-3.67182
665,204,16.6952,2.06512,0,0,0,0,0,0,0,-1,1889,820,16.6952,-2.06511
672,204,16.7012,2.14398,0.0002376,-0.00275601,-0.00128444,0.000713156,-0.00323157,-0.354595,0.00242727,0.0370097,1896,820,16.7011,-2.14401
679,204,16.7758,2.35059,0.000205002,-0.00259151,-0.00137172,0.000765503,-0.00315201,-0.387909,0.0023976,0.0209464,1903,820,16.7757,-2.35059
686,204,16.7922,2.65192,6.42837e-05,-0.00219442,-0.00135756,0.000700832,-0.00283097,-0.438453,0.00215918,0.0120842,1910,820,16.7922,-2.65194
693,204,16.7457,2.86261,0.00019509,-0.00171181,-0.00122032,0.000790269,-0.00230699,-0.453778,0.0018583,0.0161658,1917,820,16.7457,-2.86264
700,204,16.7679,3.07886,0.000676169,-0.00102004,-0.001199,0.0012967,-0.00164057,-0.477579,0.0016997,0.0174638,1924,820,16.768,-3.07888
707,204,16.7568,3.33063,0.00129331,-0.000758384,-0.00104591,0.00173249,-0.00119756,-0.397541,0.00170103,0.0159528,1931,820,16.7569,-3.33065
714,204,16.7449,3.57867,0.00187362,-0.000144949,-0.0010528,0.00232277,-0.0005941,-0.403248,0.00177991,0.024666,1938,820,16.7449,-3.57867
721,204,16.7789,3.7149,0.00264572,0.000142964,-0.00126055,0.00317055,-0.000381871,-0.394525,0.00225181,0.0210854,1945,820,16.779,-3.71489
728,204,16.8191,3.87848,0.00343011,0.00045788,-0.00161161,0.00413621,-0.000248224,-0.412944,0.00284383,0.0135616,1952,820,16.8192,-3.8785
735,204,16.8297,4.10504,0.00420796,0.000842201,-0.00207256,0.00519484,-0.000144675,-0.444396,0.00351245,0.0154303,1959,820,16.8297,-4.10503
742,204,16.864,4.22589,0.00491771,0.00136235,-0.00269928,0.0063721,-9.20414e-05,-0.494208,0.00427908,0.0303857,1966,820,16.864,-4.22591
749,204,16.8973,4.30133,0.00555642,0.00222589,-0.00350027,0.00776737,1.49473e-05,-0.563367,0.00517327,0.0454403,1973,820,16.8973,-4.30133
756,204,16.9524,4.33044,0.00608834,0.00367413,-0.00452786,0.00956724,0.000195233,-0.655131,0.00631409,0.048409,1980,820,16.9524,-4.33047
763,204,17.0037,4.47296,0,0,0,0,0,0,0,-1,1987,820,17.0036,-4.47299
770,204,17.0643,4.74689,0,0,0,0,0,0,0,-1,1994,820,17.0643,-4.74686
777,204,0,0,0,0,0,0,0,0,0,-1,2001,820,0,0
784,204,0,0,0,0,0,0,0,0,0,-1,2008,820,0,0
791,204,0,0,0,0,0,0,0,0,0,-1,2015,820,0,0
798,204,0,0,0,0,0,0,0,0,0,-1,2022,820,0,0
805,204,0,0,0,0,0,0,0,0,0,-1,2029,820,0,0
812,204,0,0,0,0,0,0,0,0,0,-1,2036,820,0,0
-700,197,0,0,0,0,0,0,0,0,0,-1,524,827,0,0
-693,197,0,0,0,0,0,0,0,0,0,-1,531,827,0,0
-686,197,0,0,0,0,0,0,0,0,0,-1,538,827,0,0
-679,197,0,0,0,0,0,0,0,0,0,-1,545,827,0,0
-672,197,0,0,0,0,0,0,0,0,0,-1,552,827,0,0
-665,197,0,0,0,0,0,0,0,0,0,-1,559,827,0,0
-658,197,-13.9348,5.44788,0,0,0,0,0,0,0,-1,566,827,-13.9347,-5.44789
-651,197,-12.1946,0.209473,0,0,0,0,0,0,0,-1,573,827,-12.1946,-0.209455
-644,197,-11.7103,0.735596,0,0,0,0,0,0,0,-1,580,827,-11.7103,-0.735578
-637,197,-10.7369,1.50305,0,0,0,0,0,0,0,-1,587,827,-10.7369,-1.50305
-630,197,-10.4688,1.32159,0,0,0,0,0,0,0,-1,594,827,-10.4688,-1.32159
-623,197,-10.4379,1.39319,0.00225951,0.0330774,-0.00771723,0.0349019,0.000435017,-1.33864,0.0231243,0.0472325,601,827,-10.4379,-1.39318
-616,197,-10.4326,1.51416,0.00125097,0.0238159,-0.0054286,0.025054,1.29025e-05,-1.34657,0.0166984,0.0422273,608,827,-10.4326,-1.51417
-609,197,-10.3941,1.74457,0.000671425,0.0166362,-0.00346615,0.0173562,-4.86448e-05,-1.36597,0.0115871,0.0291619,615,827,-10.3941,-1.74458
-602,197,-10.4686,1.72882,0.000178931,0.0112914,-0.00180338,0.0115768,-0.000106403,-1.41388,0.00775355,0.0155053,622,827,-10.4686,-1.72881
-595,197,-10.4783,1.56274,-0.000531645,0.00728515,-0.000583972,0.00732854,-0.000575032,-1.49664,0.00508821,0.0170827,629,827,-10.4783,-1.56273
-588,197,-10.4763,1.3407,-0.00141923,0.00371847,0.000301269,0.00373608,-0.00143684,1.51242,0.00308335,0.0180479,636,827,-10.4763,-1.34071
-581,197,-10.4557,1.16846,-0.00221595,0.0012375,0.00133124,0.00169109,-0.00266954,1.24241,0.00253864,0.0107611,643,827,-10.4558,-1.16846
-574,197,-10.4557,1.01764,-0.00326167,0.000132894,0.00169205,0.000832237,-0.00396102,1.17887,0.00295738,0.0122909,650,827,-10.4557,-1.01765
-567,197,-10.4645,0.813599,-0.00442979,-0.000924655,0.00196814,-4.18737e-05,-0.00531257,1.14916,0.00352784,0.0138212,657,827,-10.4645,-0.813625
-560,197,-10.4664,0.62677,-0.00579697,-0.00136341,0.00204506,-0.000564166,-0.00659621,1.19823,0.004222,0.0138501,664,827,-10.4664,-0.626778
-553,197,-10.4745,0.469971,-0.00696022,-0.00131521,0.00193402,-0.000716172,-0.00755926,1.27043,0.00481856,0.0138012,671,827,-10.4746,-0.469965
-546,197,-10.431,0.257385,-0.00791064,-0.00112108,0.00199087,-0.000580368,-0.00845135,1.3056,0.00545109,0.0239385,678,827,-10.431,-0.257398
-539,197,-10.5058,0.0511475,0,0,0,0,0,0,0,-1,685,827,-10.5058,-0.0511216
-532,197,-12.957,1.23853,0,0,0,0,0,0,0,-1,692,827,-12.957,-1.23854
-525,197,-13.4496,1.203,0,0,0,0,0,0,0,-1,699,827,-13.4496,-1.20298
-518,197,-13.9423,1.16742,0,0,0,0,0,0,0,-1,706,827,-13.9423,-1.16742
-511,197,-13.7341,1.48474,-0.00913978,0.00225015,0.00130318,0.00239735,-0.00928698,1.45832,0.00712615,0.0435641,713,827,-13.7341,-1.48474
-504,197,-13.9056,1.42999,-0.00804857,0.00356373,0.000894084,0.00363216,-0.008117,1.4944,0.00694616,0.040737,720,827,-13.9056,-1.42998
-497,197,-14.0595,1.21484,-0.00569947,0.0051242,0.000210755,0.0051283,-0.00570357,1.55133,0.00625672,0.0402596,727,827,-14.0595,-1.21486
-490,197,-14.1185,1.01208,-0.00180988,0.00685729,-0.000747445,0.00692128,-0.00187386,-1.4854,0.00534935,0.0375642,734,827,-14.1185,-1.01208
-483,197,-14.1338,0.799927,0.00468378,0.00850004,-0.00212804,0.00945014,0.00373367,-1.15088,0.00549593,0.0413506,741,827,-14.1338,-0.799908
-476,197,0,0,0,0,0,0,0,0,0,-1,748,827,0,0
-469,197,0,0,0,0,0,0,0,0,0,-1,755,827,0,0
-462,197,0,0,0,0,0,0,0,0,0,-1,762,827,0,0
-455,197,0,0,0,0,0,0,0,0,0,-1,769,827,0,0
-448,197,0,0,0,0,0,0,0,0,0,-1,776,827,0,0
-441,197,0,0,0,0,0,0,0,0,0,-1,783,827,0,0
-434,197,0,0,0,0,0,0,0,0,0,-1,790,827,0,0
-427,197,0,0,0,0,0,0,0,0,0,-1,797,827,0,0
-420,197,0,0,0,0,0,0,0,0,0,-1,804,827,0,0
-413,197,0,0,0,0,0,0,0,0,0,-1,811,827,0,0
-406,197,0,0,0,0,0,0,0,0,0,-1,818,827,0,0
-399,197,0,0,0,0,0,0,0,0,0,-1,825,827,0,0
-392,197,0,0,0,0,0,0,0,0,0,-1,832,827,0,0
-385,197,0,0,0,0,0,0,0,0,0,-1,839,827,0,0
-378,197,0,0,0,0,0,0,0,0,0,-1,846,827,0,0
-371,197,0,0,0,0,0,0,0,0,0,-1,853,827,0,0
-364,197,0,0,0,0,0,0,0,0,0,-1,860,827,0,0
-357,197,0,0,0,0,0,0,0,0,0,-1,867,827,0,0
-350,197,0,0,0,0,0,0,0,0,0,-1,874,827,0,0
-343,197,0,0,0,0,0,0,0,0,0,-1,881,827,0,0
-336,197,0,0,0,0,0,0,0,0,0,-1,888,827,0,0
-329,197,0,0,0,0,0,0,0,0,0,-1,895,827,0,0
-322,197,0,0,0,0,0,0,0,0,0,-1,902,827,0,0
-315,197,0,0,0,0,0,0,0,0,0,-1,909,827,0,0
-308,197,0,0,0,0,0,0,0,0,0,-1,916,827,0,0
-301,197,0,0,0,0,0,0,0,0,0,-1,923,827,0,0
-294,197,0,0,0,0,0,0,0,0,0,-1,930,827,0,0
-287,197,0,0,0,0,0,0,0,0,0,-1,937,827,0,0
-280,197,0,0,0,0,0,0,0,0,0,-1,944,827,0,0
-273,197,0,0,0,0,0,0,0,0,0,-1,951,827,0,0
-266,197,0,0,0,0,0,0,0,0,0,-1,958,827,0,0
-259,197,0,0,0,0,0,0,0,0,0,-1,965,827,0,0
-252,197,0,0,0,0,0,0,0,0,0,-1,972,827,0,0
-245,197,0,0,0,0,0,0,0,0,0,-1,979,827,0,0
-238,197,0,0,0,0,0,0,0,0,0,-1,986,827,0,0
-231,197,0,0,0,0,0,0,0,0,0,-1,993,827,0,0
-224,197,0,0,0,0,0,0,0,0,0,-1,1000,827,0,0
-217,197,0,0,0,0,0,0,0,0,0,-1,1007,827,0,0
-210,197,0,0,0,0,0,0,0,0,0,-1,1014,827,0,0
-203,197,0,0,0,0,0,0,0,0,0,-1,1021,827,0,0
-196,197,0,0,0,0,0,0,0,0,0,-1,1028,827,0,0
-189,197,0,0,0,0,0,0,0,0,0,-1,1035,827,0,0
-182,197,0,0,0,0,0,0,0,0,0,-1,1042,827,0,0
-175,197,0,0,0,0,0,0,0,0,0,-1,1049,827,0,0
-168,197,0,0,0,0,0,0,0,0,0,-1,1056,827,0,0
-161,197,0,0,0,0,0,0,0,0,0,-1,1063,827,0,0
-154,197,0,0,0,0,0,0,0,0,0,-1,1070,827,0,0
-147,197,0,0,0,0,0,0,0,0,0,-1,1077,827,0,0
-140,197,0,0,0,0,0,0,0,0,0,-1,1084,827,0,0
-133,197,0,0,0,0,0,0,0,0,0,-1,1091,827,0,0
-126,197,0,0,0,0,0,0,0,0,0,-1,1098,827,0,0
-119,197,0,0,0,0,0,0,0,0,0,-1,1105,827,0,0
-112,197,0,0,0,0,0,0,0,0,0,-1,1112,827,0,0
-105,197,0,0,0,0,0,0,0,0,0,-1,1119,827,0,0
-98,197,0,0,0,0,0,0,0,0,0,-1,1126,827,0,0
-91,197,0,0,0,0,0,0,0,0,0,-1,1133,827,0,0
-84,197,0,0,0,0,0,0,0,0,0,-1,1140,827,0,0
-77,197,0,0,0,0,0,0,0,0,0,-1,1147,827,0,0
-70,197,0,0,0,0,0,0,0,0,0,-1,1154,827,0,0
-63,197,0,0,0,0,0,0,0,0,0,-1,1161,827,0,0
-56,197,0,0,0,0,0,0,0,0,0,-1,1168,827,0,0
-49,197,0,0,0,0,0,0,0,0,0,-1,1175,827,0,0
-42,197,0,0,0,0,0,0,0,0,0,-1,1182,827,0,0
-35,197,0,0,0,0,0,0,0,0,0,-1,1189,827,0,0
-28,197,0,0,0,0,0,0,0,0,0,-1,1196,827,0,0
-21,197,0,0,0,0,0,0,0,0,0,-1,1203,827,0,0
-14,197,0,0,0,0,0,0,0,0,0,-1,1210,827,0,0
-7,197,0,0,0,0,0,0,0,0,0,-1,1217,827,0,0
0,197,0,0,0,0,0,0,0,0,0,-1,1224,827,0,0
7,197,0,0,0,0,0,0,0,0,0,-1,1231,827,0,0
14,197,0,0,0,0,0,0,0,0,0,-1,1238,827,0,0
21,197,0,0,0,0,0,0,0,0,0,-1,1245,827,0,0
28,197,0,0,0,0,0,0,0,0,0,-1,1252,827,0,0
35,197,0,0,0,0,0,0,0,0,0,-1,1259,827,0,0
42,197,0,0,0,0,0,0,0,0,0,-1,1266,827,0,0
49,197,0,0,0,0,0,0,0,0,0,-1,1273,827,0,0
56,197,0,0,0,0,0,0,0,0,0,-1,1280,827,0,0
63,197,0,0,0,0,0,0,0,0,0,-1,1287,827,0,0
70,197,0,0,0,0,0,0,0,0,0,-1,1294,827,0,0
77,197,0,0,0,0,0,0,0,0,0,-1,1301,827,0,0
84,197,0,0,0,0,0,0,0,0,0,-1,1308,827,0,0
91,197,0,0,0,0,0,0,0,0,0,-1,1315,827,0,0
98,197,0,0,0,0,0,0,0,0,0,-1,1322,827,0,0
105,197,0,0,0,0,0,0,0,0,0,-1,1329,827,0,0
112,197,0,0,0,0,0,0,0,0,0,-1,1336,827,0,0
119,197,0,0,0,0,0,0,0,0,0,-1,1343,827,0,0
126,197,0,0,0,0,0,0,0,0,0,-1,1350,827,0,0
133,197,0,0,0,0,0,0,0,0,0,-1,1357,827,0,0
140,197,0,0,0,0,0,0,0,0,0,-1,1364,827,0,0
147,197,0,0,0,0,0,0,0,0,0,-1,1371,827,0,0
154,197,0,0,0,0,0,0,0,0,0,-1,1378,827,0,0
161,197,0,0,0,0,0,0,0,0,0,-1,1385,827,0,0
168,197,0,0,0,0,0,0,0,0,0,-1,1392,827,0,0
175,197,0,0,0,0,0,0,0,0,0,-1,1399,827,0,0
182,197,0,0,0,0,0,0,0,0,0,-1,1406,827,0,0
189,197,0,0,0,0,0,0,0,0,0,-1,1413,827,0,0
196,197,0,0,0,0,0,0,0,0,0,-1,1420,827,0,0
203,197,0,0,0,0,0,0,0,0,0,-1,1427,827,0,0
210,197,0,0,0,0,0,0,0,0,0,-1,1434,827,0,0
217,197,0,0,0,0,0,0,0,0,0,-1,1441,827,0,0
224,197,0,0,0,0,0,0,0,0,0,-1,1448,827,0,0
231,197,0,0,0,0,0,0,0,0,0,-1,1455,827,0,0
238,197,0,0,0,0,0,0,0,0,0,-1,1462,827,0,0
245,197,0,0,0,0,0,0,0,0,0,-1,1469,827,0,0
252,197,0,0,0,0,0,0,0,0,0,-1,1476,827,0,0
259,197,0,0,0,0,0,0,0,0,0,-1,1483,827,0,0
266,197,0,0,0,0,0,0,0,0,0,-1,1490,827,0,0
273,197,0,0,0,0,0,0,0,0,0,-1,1497,827,0,0
280,197,0,0,0,0,0,0,0,0,0,-1,1504,827,0,0
287,197,0,0,0,0,0,0,0,0,0,-1,1511,827,0,0
294,197,0,0,0,0,0,0,0,0,0,-1,1518,827,0,0
301,197,0,0,0,0,0,0,0,0,0,-1,1525,827,0,0
308,197,0,0,0,0,0,0,0,0,0,-1,1532,827,0,0
315,197,0,0,0,0,0,0,0,0,0,-1,1539,827,0,0
322,197,0,0,0,0,0,0,0,0,0,-1,1546,827,0,0
329,197,0,0,0,0,0,0,0,0,0,-1,1553,827,0,0
336,197,0,0,0,0,0,0,0,0,0,-1,1560,827,0,0
343,197,0,0,0,0,0,0,0,0,0,-1,1567,827,0,0
350,197,0,0,0,0,0,0,0,0,0,-1,1574,827,0,0
357,197,0,0,0,0,0,0,0,0,0,-1,1581,827,0,0
364,197,0,0,0,0,0,0,0,0,0,-1,1588,827,0,0
371,197,0,0,0,0,0,0,0,0,0,-1,1595,827,0,0
378,197,0,0,0,0,0,0,0,0,0,-1,1602,827,0,0
385,197,0,0,0,0,0,0,0,0,0,-1,1609,827,0,0
392,197,0,0,0,0,0,0,0,0,0,-1,1616,827,0,0
399,197,0,0,0,0,0,0,0,0,0,-1,1623,827,0,0
406,197,0,0,0,0,0,0,0,0,0,-1,1630,827,0,0
413,197,0,0,0,0,0,0,0,0,0,-1,1637,827,0,0
420,197,0,0,0,0,0,0,0,0,0,-1,1644,827,0,0
427,197,0,0,0,0,0,0,0,0,0,-1,1651,827,0,0
434,197,0,0,0,0,0,0,0,0,0,-1,1658,827,0,0
441,197,0,0,0,0,0,0,0,0,0,-1,1665,827,0,0
448,197,0,0,0,0,0,0,0,0,0,-1,1672,827,0,0
455,197,0,0,0,0,0,0,0,0,0,-1,1679,827,0,0
462,197,0,0,0,0,0,0,0,0,0,-1,1686,827,0,0
469,197,0,0,0,0,0,0,0,0,0,-1,1693,827,0,0
476,197,0,0,0,0,0,0,0,0,0,-1,1700,827,0,0
483,197,0,0,0,0,0,0,0,0,0,-1,1707,827,0,0
490,197,0,0,0,0,0,0,0,0,0,-1,1714,827,0,0
497,197,0,0,0,0,0,0,0,0,0,-1,1721,827,0,0
504,197,0,0,0,0,0,0,0,0,0,-1,1728,827,0,0
511,197,0,0,0,0,0,0,0,0,0,-1,1735,827,0,0
518,197,0,0,0,0,0,0,0,0,0,-1,1742,827,0,0
525,197,0,0,0,0,0,0,0,0,0,-1,1749,827,0,0
532,197,0,0,0,0,0,0,0,0,0,-1,1756,827,0,0
539,197,0,0,0,0,0,0,0,0,0,-1,1763,827,0,0
546,197,0,0,0,0,0,0,0,0,0,-1,1770,827,0,0
553,197,0,0,0,0,0,0,0,0,0,-1,1777,827,0,0
560,197,0,0,0,0,0,0,0,0,0,-1,1784,827,0,0
567,197,0,0,0,0,0,0,0,0,0,-1,1791,827,0,0
574,197,0,0,0,0,0,0,0,0,0,-1,1798,827,0,0
581,197,0,0,0,0,0,0,0,0,0,-1,1805,827,0,0
588,197,0,0,0,0,0,0,0,0,0,-1,1812,827,0,0
595,197,0,0,0,0,0,0,0,0,0,-1,1819,827,0,0
602,197,21.3795,3.17169,0.00110776,0.00136975,0.000311812,0.00157697,0.000900543,0.984263,0.000913521,0.0399056,1826,827,21.3795,-3.17167
609,197,21.3627,3.01361,0.00153291,0.00130166,0.0010499,0.00247353,0.000361034,0.730555,0.00154282,0.0412128,1833,827,21.3627,-3.01358
616,197,21.3663,2.90063,0.00182888,0.000502899,0.00108526,0.00243764,-0.000105855,0.511197,0.0016615,0.0408776,1840,827,21.3663,-2.90061
623,197,21.2926,2.92255,0.00183464,-0.000449709,0.000800367,0.00208715,-0.000702221,0.305611,0.00167531,0.0365776,1847,827,21.2926,-2.92252
630,197,21.2874,2.98969,0.00162873,-0.00133804,0.000417053,0.00168624,-0.00139555,0.137037,0.00178191,0.0303964,1854,827,21.2874,-2.98968
637,197,21.3496,3.02545,0.00130377,-0.00197824,7.02157e-06,0.00130378,-0.00197825,0.0021394,0.00190817,0.0290367,1861,827,21.3496,-3.02544
644,197,21.369,3.05389,0.000983096,-0.00239851,-0.000297025,0.00100899,-0.0024244,-0.0869483,0.00203764,0.0355187,1868,827,21.369,-3.05389
651,197,21.283,3.30939,0.000733266,-0.00267454,-0.000514852,0.000809351,-0.00275063,-0.146719,0.00215481,0.0433602,1875,827,21.283,-3.30942
658,197,21.6637,3.43616,0,0,0,0,0,0,0,-1,1882,827,21.6637,-3.43615
665,197,14.0618,1.80304,0,0,0,0,0,0,0,-1,1889,827,14.0617,-1.80303
672,197,17.1234,2.07245,0,0,0,0,0,0,0,-1,1896,827,17.1234,-2.07243
679,197,17.0723,2.41821,0.000335467,-0.00261885,-0.00134827,0.000858262,-0.00314165,-0.369905,0.00243155,0.0258299,1903,827,17.0723,-2.41823
686,197,17.006,2.65924,0.000179097,-0.0022418,-0.00134787,0.000780262,-0.00284297,-0.419531,0.00220197,0.015279,1910,827,17.0059,-2.65927
693,197,16.9641,2.89233,0.000213414,-0.00179518,-0.00123668,0.000802221,-0.00238399,-0.444362,0.00191363,0.0154685,1917,827,16.9641,-2.89236
700,197,16.9824,3.11035,0.000545509,-0.00114193,-0.00125689,0.0012156,-0.00181203,-0.489804,0.00175927,0.0218277,1924,827,16.9825,-3.11037
707,197,17.024,3.31152,0.000962758,-0.000907461,-0.00116277,0.00151978,-0.00146448,-0.446747,0.00172306,0.00986323,1931,827,17.024,-3.3115
714,197,16.9924,3.5271,0.001303,-0.000303174,-0.00121438,0.00195582,-0.000955998,-0.493255,0.00171386,0.0122286,1938,827,16.9925,-3.52711
721,197,16.9937,3.70038,0.00185446,-9.83339e-06,-0.00146201,0.0026562,-0.000811576,-0.501601,0.00209441,0.0118916,1945,827,16.9937,-3.7004
728,197,17.0107,3.89154,0.00246203,0.000280338,-0.00185425,0.00352251,-0.000780141,-0.519514,0.00264699,0.0107142,1952,827,17.0108,-3.89156
735,197,17.0054,4.09161,0.0031019,0.000618661,-0.00232785,0.00449856,-0.000777993,-0.540402,0.00328918,0.0111235,1959,827,17.0054,-4.09164
742,197,17.0187,4.25305,0.00371357,0.00103743,-0.00293374,0.00559998,-0.000848981,-0.571442,0.00404611,0.0194887,1966,827,17.0187,-4.25305
749,197,17.0815,4.3595,0.00436113,0.00172584,-0.00365375,0.00692757,-0.000840595,-0.612343,0.00492256,0.0411336,1973,827,17.0816,-4.3595
756,197,17.1516,4.43451,0.0050484,0.0028617,-0.00452693,0.00861215,-0.000702042,-0.666907,0.00598918,0.0444872,1980,827,17.1516,-4.4345
763,197,17.1719,4.55182,0.00548278,0.0048208,-0.00558628,0.0107479,-0.000444287,-0.755808,0.00731783,0.0446129,1987,827,17.1718,-4.55181
770,197,17.1656,4.75128,0,0,0,0,0,0,0,-1,1994,827,17.1656,-4.75131
777,197,0,0,0,0,0,0,0,0,0,-1,2001,827,0,0
784,197,0,0,0,0,0,0,0,0,0,-1,2008,827,0,0
791,197,0,0,0,0,0,0,0,0,0,-1,2015,827,0,0
798,197,0,0,0,0,0,0,0,0,0,-1,2022,827,0,0
805,197,0,0,0,0,0,0,0,0,0,-1,2029,827,0,0
812,197,0,0,0,0,0,0,0,0,0,-1,2036,827,0,0
-700,190,0,0,0,0,0,0,0,0,0,-1,524,834,0,0
-693,190,0,0,0,0,0,0,0,0,0,-1,531,834,0,0
-686,190,0,0,0,0,0,0,0,0,0,-1,538,834,0,0
-679,190,0,0,0,0,0,0,0,0,0,-1,545,834,0,0
-672,190,0,0,0,0,0,0,0,0,0,-1,552,834,0,0
-665,190,0,0,0,0,0,0,0,0,0,-1,559,834,0,0
-658,190,-13.0889,4.46521,0,0,0,0,0,0,0,-1,566,834,-13.0889,-4.46523
-651,190,-13.441,4.65564,0,0,0,0,0,0,0,-1,573,834,-13.441,-4.65565
-644,190,-10.6504,1.3894,0,0,0,0,0,0,0,-1,580,834,-10.6504,-1.38942
-637,190,-10.535,1.4765,0,0,0,0,0,0,0,-1,587,834,-10.535,-1.47648
-630,190,-10.5882,1.53772,0.00135507,0.0385619,-0.00740226,0.0399804,-6.35218e-05,-1.38145,0.0266748,0.0491269,594,834,-10.5882,-1.53772
-623,190,-10.5294,1.58728,0.000565551,0.0281246,-0.0053358,0.0291216,-0.000431464,-1.38607,0.0195598,0.0467827,601,834,-10.5294,-1.58726
-616,190,-10.6133,1.65454,8.55238e-05,0.0198027,-0.00357593,0.0204312,-0.000542975,-1.39682,0.0138054,0.0413262,608,834,-10.6133,-1.65456
-609,190,-10.6565,1.79187,-0.000102751,0.0134756,-0.00207328,0.0137851,-0.000412265,-1.4226,0.00933053,0.0229346,615,834,-10.6565,-1.79186
-602,190,-10.6513,1.70856,-0.000444439,0.00884359,-0.000756789,0.00890485,-0.000505697,-1.49003,0.00611211,0.0153335,622,834,-10.6513,-1.70855
-595,190,-10.6584,1.57019,-0.00122563,0.0053844,0.000248191,0.00539371,-0.00123493,1.53332,0.00407038,0.0169828,629,834,-10.6584,-1.57022
-588,190,-10.658,1.36005,-0.00213377,0.00229335,0.00103481,0.00252329,-0.00236371,1.35215,0.00282201,0.0142624,636,834,-10.658,-1.36007
-581,190,-10.6467,1.19104,-0.00307281,0.000235542,0.00188055,0.00108591,-0.00392318,1.14612,0.00304271,0.0105774,643,834,-10.6467,-1.19103
-574,190,-10.6461,1.00952,-0.00431577,-0.000529243,0.00213065,0.000427777,-0.00527279,1.14863,0.00366611,0.01053,650,834,-10.6461,-1.00951
-567,190,-10.6378,0.805908,-0.00557169,-0.00129842,0.0022418,-0.000338144,-0.00653197,1.16609,0.00424642,0.0121932,657,834,-10.6378,-0.805912
-560,190,-10.6646,0.627625,-0.00682196,-0.00153477,0.00223694,-0.000715348,-0.00764138,1.21966,0.00487334,0.0200503,664,834,-10.6645,-0.627644
-553,190,-10.6673,0.459778,-0.00780976,-0.00146093,0.00207045,-0.000845402,-0.00842529,1.28182,0.00535734,0.0181589,671,834,-10.6673,-0.459794
-546,190,-10.6465,0.276489,-0.00849629,-0.00122926,0.00205766,-0.000687086,-0.00903847,1.31316,0.00581017,0.0338325,678,834,-10.6465,-0.276513
-539,190,-10.6752,0.109802,0,0,0,0,0,0,0,-1,685,834,-10.6752,-0.109784
-532,190,-12.7841,0.353394,0,0,0,0,0,0,0,-1,692,834,-12.7841,-0.35338
-525,190,-14.14,0.843506,-0.00900657,-1.02557e-05,0.00169912,0.000299957,-0.00931678,1.39021,0.00631355,0.0463517,699,834,-14.1399,-0.84348
-518,190,-14.0997,1.00946,0,0,0,0,0,0,0,-1,706,834,-14.0997,-1.00948
-511,190,-13.7946,1.32666,-0.00761298,0.00175165,0.00109181,0.00187726,-0.00773858,1.45625,0.00588547,0.0404348,713,834,-13.7946,-1.32665
-504,190,-14.0557,1.32422,-0.00567891,0.00289759,0.000660076,0.0029481,-0.00572941,1.49443,0.00509502,0.0426548,720,834,-14.0557,-1.32419
-497,190,-13.9625,1.42316,-0.00226774,0.00421965,2.31483e-05,0.00421973,-0.00226782,1.56723,0.00380168,0.0459163,727,834,-13.9625,-1.42317
-490,190,-13.8984,1.38751,0.00266011,0.00558772,-0.000683383,0.00573938,0.00250845,-1.35241,0.00332237,0.0422704,734,834,-13.8984,-1.38752
-483,190,0,0,0,0,0,0,0,0,0,-1,741,834,0,0
-476,190,0,0,0,0,0,0,0,0,0,-1,748,834,0,0
-469,190,0,0,0,0,0,0,0,0,0,-1,755,834,0,0
-462,190,0,0,0,0,0,0,0,0,0,-1,762,834,0,0
-455,190,0,0,0,0,0,0,0,0,0,-1,769,834,0,0
-448,190,0,0,0,0,0,0,0,0,0,-1,776,834,0,0
-441,190,0,0,0,0,0,0,0,0,0,-1,783,834,0,0
-434,190,0,0,0,0,0,0,0,0,0,-1,790,834,0,0
-427,190,0,0,0,0,0,0,0,0,0,-1,797,834,0,0
-420,190,0,0,0,0,0,0,0,0,0,-1,804,834,0,0
-413,190,0,0,0,0,0,0,0,0,0,-1,811,834,0,0
-406,190,0,0,0,0,0,0,0,0,0,-1,818,834,0,0
-399,190,0,0,0,0,0,0,0,0,0,-1,825,834,0,0
-392,190,0,0,0,0,0,0,0,0,0,-1,832,834,0,0
-385,190,0,0,0,0,0,0,0,0,0,-1,839,834,0,0
-378,190,0,0,0,0,0,0,0,0,0,-1,846,834,0,0
-371,190,0,0,0,0,0,0,0,0,0,-1,853,834,0,0
-364,190,0,0,0,0,0,0,0,0,0,-1,860,834,0,0
-357,190,0,0,0,0,0,0,0,0,0,-1,867,834,0,0
-350,190,0,0,0,0,0,0,0,0,0,-1,874,834,0,0
-343,190,0,0,0,0,0,0,0,0,0,-1,881,834,0,0
-336,190,0,0,0,0,0,0,0,0,0,-1,888,834,0,0
-329,190,0,0,0,0,0,0,0,0,0,-1,895,834,0,0
-322,190,0,0,0,0,0,0,0,0,0,-1,902,834,0,0
-315,190,0,0,0,0,0,0,0,0,0,-1,909,834,0,0
-308,190,0,0,0,0,0,0,0,0,0,-1,916,834,0,0
-301,190,0,0,0,0,0,0,0,0,0,-1,923,834,0,0
-294,190,0,0,0,0,0,0,0,0,0,-1,930,834,0,0
-287,190,0,0,0,0,0,0,0,0,0,-1,937,834,0,0
-280,190,0,0,0,0,0,0,0,0,0,-1,944,834,0,0
-273,190,0,0,0,0,0,0,0,0,0,-1,951,834,0,0
-266,190,0,0,0,0,0,0,0,0,0,-1,958,834,0,0
-259,190,0,0,0,0,0,0,0,0,0,-1,965,834,0,0
-252,190,0,0,0,0,0,0,0,0,0,-1,972,834,0,0
-245,190,0,0,0,0,0,0,0,0,0,-1,979,834,0,0
-238,190,0,0,0,0,0,0,0,0,0,-1,986,834,0,0
-231,190,0,0,0,0,0,0,0,0,0,-1,993,834,0,0
-224,190,0,0,0,0,0,0,0,0,0,-1,1000,834,0,0
-217,190,0,0,0,0,0,0,0,0,0,-1,1007,834,0,0
-210,190,0,0,0,0,0,0,0,0,0,-1,1014,834,0,0
-203,190,0,0,0,0,0,0,0,0,0,-1,1021,834,0,0
-196,190,0,0,0,0,0,0,0,0,0,-1,1028,834,0,0
-189,190,0,0,0,0,0,0,0,0,0,-1,1035,834,0,0
-182,190,0,0,0,0,0,0,0,0,0,-1,1042,834,0,0
-175,190,0,0,0,0,0,0,0,0,0,-1,1049,834,0,0
-168,190,0,0,0,0,0,0,0,0,0,-1,1056,834,0,0
-161,190,0,0,0,0,0,0,0,0,0,-1,1063,834,0,0
-154,190,0,0,0,0,0,0,0,0,0,-1,1070,834,0,0
-147,190,0,0,0,0,0,0,0,0,0,-1,1077,834,0,0
-140,190,0,0,0,0,0,0,0,0,0,-1,1084,834,0,0
-133,190,0,0,0,0,0,0,0,0,0,-1,1091,834,0,0
-126,190,0,0,0,0,0,0,0,0,0,-1,1098,834,0,0
-119,190,0,0,0,0,0,0,0,0,0,-1,1105,834,0,0
-112,190,0,0,0,0,0,0,0,0,0,-1,1112,834,0,0
-105,190,0,0,0,0,0,0,0,0,0,-1,1119,834,0,0
-98,190,0,0,0,0,0,0,0,0,0,-1,1126,834,0,0
-91,190,0,0,0,0,0,0,0,0,0,-1,1133,834,0,0
-84,190,0,0,0,0,0,0,0,0,0,-1,1140,834,0,0
-77,190,0,0,0,0,0,0,0,0,0,-1,1147,834,0,0
-70,190,0,0,0,0,0,0,0,0,0,-1,1154,834,0,0
-63,190,0,0,0,0,0,0,0,0,0,-1,1161,834,0,0
-56,190,0,0,0,0,0,0,0,0,0,-1,1168,834,0,0
-49,190,0,0,0,0,0,0,0,0,0,-1,1175,834,0,0
-42,190,0,0,0,0,0,0,0,0,0,-1,1182,834,0,0
-35,190,0,0,0,0,0,0,0,0,0,-1,1189,834,0,0
-28,190,0,0,0,0,0,0,0,0,0,-1,1196,834,0,0
-21,190,0,0,0,0,0,0,0,0,0,-1,1203,834,0,0
-14,190,0,0,0,0,0,0,0,0,0,-1,1210,834,0,0
-7,190,0,0,0,0,0,0,0,0,0,-1,1217,834,0,0
0,190,0,0,0,0,0,0,0,0,0,-1,1224,834,0,0
7,190,0,0,0,0,0,0,0,0,0,-1,1231,834,0,0
14,190,0,0,0,0,0,0,0,0,0,-1,1238,834,0,0
21,190,0,0,0,0,0,0,0,0,0,-1,1245,834,0,0
28,190,0,0,0,0,0,0,0,0,0,-1,1252,834,0,0
35,190,0,0,0,0,0,0,0,0,0,-1,1259,834,0,0
42,190,0,0,0,0,0,0,0,0,0,-1,1266,834,0,0
49,190,0,0,0,0,0,0,0,0,0,-1,1273,834,0,0
56,190,0,0,0,0,0,0,0,0,0,-1,1280,834,0,0
63,190,0,0,0,0,0,0,0,0,0,-1,1287,834,0,0
70,190,0,0,0,0,0,0,0,0,0,-1,1294,834,0,0
77,190,0,0,0,0,0,0,0,0,0,-1,1301,834,0,0
84,190,0,0,0,0,0,0,0,0,0,-1,1308,834,0,0
91,190,0,0,0,0,0,0,0,0,0,-1,1315,834,0,0
98,190,0,0,0,0,0,0,0,0,0,-1,1322,834,0,0
105,190,0,0,0,0,0,0,0,0,0,-1,1329,834,0,0
112,190,0,0,0,0,0,0,0,0,0,-1,1336,834,0,0
119,190,0,0,0,0,0,0,0,0,0,-1,1343,834,0,0
126,190,0,0,0,0,0,0,0,0,0,-1,1350,834,0,0
133,190,0,0,0,0,0,0,0,0,0,-1,1357,834,0,0
140,190,0,0,0,0,0,0,0,0,0,-1,1364,834,0,0
147,190,0,0,0,0,0,0,0,0,0,-1,1371,834,0,0
154,190,0,0,0,0,0,0,0,0,0,-1,1378,834,0,0
161,190,0,0,0,0,0,0,0,0,0,-1,1385,834,0,0
168,190,0,0,0,0,0,0,0,0,0,-1,1392,834,0,0
175,190,0,0,0,0,0,0,0,0,0,-1,1399,834,0,0
182,190,0,0,0,0,0,0,0,0,0,-1,1406,834,0,0
189,190,0,0,0,0,0,0,0,0,0,-1,1413,834,0,0
196,190,0,0,0,0,0,0,0,0,0,-1,1420,834,0,0
203,190,0,0,0,0,0,0,0,0,0,-1,1427,834,0,0
210,190,0,0,0,0,0,0,0,0,0,-1,1434,834,0,0
217,190,0,0,0,0,0,0,0,0,0,-1,1441,834,0,0
224,190,0,0,0,0,0,0,0,0,0,-1,1448,834,0,0
231,190,0,0,0,0,0,0,0,0,0,-1,1455,834,0,0
238,190,0,0,0,0,0,0,0,0,0,-1,1462,834,0,0
245,190,0,0,0,0,0,0,0,0,0,-1,1469,834,0,0
252,190,0,0,0,0,0,0,0,0,0,-1,1476,834,0,0
259,190,0,0,0,0,0,0,0,0,0,-1,1483,834,0,0
266,190,0,0,0,0,0,0,0,0,0,-1,1490,834,0,0
273,190,0,0,0,0,0,0,0,0,0,-1,1497,834,0,0
280,190,0,0,0,0,0,0,0,0,0,-1,1504,834,0,0
287,190,0,0,0,0,0,0,0,0,0,-1,1511,834,0,0
294,190,0,0,0,0,0,0,0,0,0,-1,1518,834,0,0
301,190,0,0,0,0,0,0,0,0,0,-1,1525,834,0,0
308,190,0,0,0,0,0,0,0,0,0,-1,1532,834,0,0
315,190,0,0,0,0,0,0,0,0,0,-1,1539,834,0,0
322,190,0,0,0,0,0,0,0,0,0,-1,1546,834,0,0
329,190,0,0,0,0,0,0,0,0,0,-1,1553,834,0,0
336,190,0,0,0,0,0,0,0,0,0,-1,1560,834,0,0
343,190,0,0,0,0,0,0,0,0,0,-1,1567,834,0,0
350,190,0,0,0,0,0,0,0,0,0,-1,1574,834,0,0
357,190,0,0,0,0,0,0,0,0,0,-1,1581,834,0,0
364,190,0,0,0,0,0,0,0,0,0,-1,1588,834,0,0
371,190,0,0,0,0,0,0,0,0,0,-1,1595,834,0,0
378,190,0,0,0,0,0,0,0,0,0,-1,1602,834,0,0
385,190,0,0,0,0,0,0,0,0,0,-1,1609,834,0,0
392,190,0,0,0,0,0,0,0,0,0,-1,1616,834,0,0
399,190,0,0,0,0,0,0,0,0,0,-1,1623,834,0,0
406,190,0,0,0,0,0,0,0,0,0,-1,1630,834,0,0
413,190,0,0,0,0,0,0,0,0,0,-1,1637,834,0,0
420,190,0,0,0,0,0,0,0,0,0,-1,1644,834,0,0
427,190,0,0,0,0,0,0,0,0,0,-1,1651,834,0,0
434,190,0,0,0,0,0,0,0,0,0,-1,1658,834,0,0
441,190,0,0,0,0,0,0,0,0,0,-1,1665,834,0,0
448,190,0,0,0,0,0,0,0,0,0,-1,1672,834,0,0
455,190,0,0,0,0,0,0,0,0,0,-1,1679,834,0,0
462,190,0,0,0,0,0,0,0,0,0,-1,1686,834,0,0
469,190,0,0,0,0,0,0,0,0,0,-1,1693,834,0,0
476,190,0,0,0,0,0,0,0,0,0,-1,1700,834,0,0
483,190,0,0,0,0,0,0,0,0,0,-1,1707,834,0,0
490,190,0,0,0,0,0,0,0,0,0,-1,1714,834,0,0
497,190,0,0,0,0,0,0,0,0,0,-1,1721,834,0,0
504,190,0,0,0,0,0,0,0,0,0,-1,1728,834,0,0
511,190,0,0,0,0,0,0,0,0,0,-1,1735,834,0,0
518,190,0,0,0,0,0,0,0,0,0,-1,1742,834,0,0
525,190,0,0,0,0,0,0,0,0,0,-1,1749,834,0,0
532,190,0,0,0,0,0,0,0,0,0,-1,1756,834,0,0
539,190,0,0,0,0,0,0,0,0,0,-1,1763,834,0,0
546,190,0,0,0,0,0,0,0,0,0,-1,1770,834,0,0
553,190,0,0,0,0,0,0,0,0,0,-1,1777,834,0,0
560,190,0,0,0,0,0,0,0,0,0,-1,1784,834,0,0
567,190,0,0,0,0,0,0,0,0,0,-1,1791,834,0,0
574,190,0,0,0,0,0,0,0,0,0,-1,1798,834,0,0
581,190,0,0,0,0,0,0,0,0,0,-1,1805,834,0,0
588,190,0,0,0,0,0,0,0,0,0,-1,1812,834,0,0
595,190,0,0,0,0,0,0,0,0,0,-1,1819,834,0,0
602,190,21.4005,3.08923,-0.00109306,0.00306998,0.00135183,0.00347043,-0.00149351,1.2828,0.00294072,0.0432364,1826,834,21.4005,-3.08924
609,190,21.3552,2.91718,-0.000429483,0.00217343,0.00234671,0.00355541,-0.00181146,1.03858,0.00315262,0.0396624,1833,834,21.3552,-2.91715
616,190,21.3987,2.71844,0.000251279,0.000846603,0.00236996,0.00293753,-0.00183964,0.84787,0.00278227,0.0403431,1840,834,21.3987,-2.71846
623,190,21.3429,3.19879,0.000684335,-0.000411446,0.0018797,0.00209437,-0.00182148,0.643588,0.00226264,0.0396708,1847,834,21.3429,-3.1988
630,190,21.3453,3.08258,0.000858941,-0.00139664,0.001227,0.00139771,-0.00193541,0.413751,0.00193271,0.0434751,1854,834,21.3454,-3.08261
637,190,21.3534,3.10925,0.000801814,-0.00206478,0.000575736,0.000913124,-0.00217609,0.19098,0.00183257,0.0384284,1861,834,21.3534,-3.10924
644,190,21.3224,3.1203,0.000687174,-0.00244669,8.86768e-05,0.000689681,-0.0024492,0.0282661,0.00190478,0.0313434,1868,834,21.3224,-3.12027
651,190,21.2891,3.34357,0,0,0,0,0,0,0,-1,1875,834,21.289,-3.34359
658,190,21.6749,3.11346,0,0,0,0,0,0,0,-1,1882,834,21.675,-3.11344
665,190,22.0609,2.8833,0,0,0,0,0,0,0,-1,1889,834,22.0609,-2.88329
672,190,17.4579,2.36414,0,0,0,0,0,0,0,-1,1896,834,17.4578,-2.36415
679,190,17.2979,2.57373,0.000419933,-0.00236401,-0.00134027,0.000960292,-0.00290437,-0.383238,0.00232346,0.0324256,1903,834,17.2979,-2.57372
686,190,17.1827,2.69611,0.000260607,-0.00203222,-0.00132966,0.000869829,-0.00264144,-0.429635,0.0021115,0.0139896,1910,834,17.1827,-2.69608
693,190,17.1862,2.8866,0.000236589,-0.00162952,-0.00120993,0.000831447,-0.00222438,-0.456943,0.00182436,0.0131911,1917,834,17.1862,-2.88661
700,190,17.1832,3.09882,0.000467474,-0.00104389,-0.00121127,0.00113946,-0.00171587,-0.506504,0.00165969,0.0116115,1924,834,17.1832,-3.09881
707,190,17.2169,3.30225,0.000764771,-0.000868413,-0.00111428,0.00132965,-0.00143329,-0.469184,0.00159556,0.0128725,1931,834,17.2169,-3.30226
714,190,17.2197,3.50543,0.00100209,-0.000320274,-0.0011554,0.00167212,-0.000990299,-0.525514,0.00155386,0.0119863,1938,834,17.2197,-3.50544
721,190,17.2062,3.7027,0.00153657,-2.70014e-05,-0.00143297,0.00238715,-0.000877576,-0.53568,0.0019509,0.0111353,1945,834,17.2062,-3.70267
728,190,17.1896,3.88885,0.00231193,0.000221264,-0.00188997,0.0034264,-0.000893199,-0.53279,0.00263299,0.0134665,1952,834,17.1896,-3.88888
735,190,17.2013,4.07709,0.00335552,0.000471404,-0.00245938,0.00476444,-0.000937513,-0.520237,0.00353053,0.0116968,1959,834,17.2013,-4.0771
742,190,17.2073,4.27985,0.00480105,0.000701605,-0.00323108,0.00657771,-0.00107506,-0.502741,0.00478393,0.0150681,1966,834,17.2073,-4.27987
749,190,17.2571,4.39655,0.0067227,0.00107548,-0.00418893,0.00895081,-0.00115263,-0.488845,0.00638619,0.0366059,1973,834,17.2571,-4.39654
756,190,17.255,4.36945,0.00961685,0.00165573,-0.00545332,0.0123879,-0.00111527,-0.470131,0.00865432,0.0452327,1980,834,17.255,-4.36943
763,190,17.2269,4.1795,0.0137766,0.00264812,-0.00714456,0.017268,-0.000843341,-0.454557,0.0118032,0.0473543,1987,834,17.2269,-4.1795
770,190,17.2804,4.16608,0,0,0,0,0,0,0,-1,1994,834,17.2803,-4.16606
777,190,16.3834,4.15253,0,0,0,0,0,0,0,-1,2001,834,16.3834,-4.15251
784,190,0,0,0,0,0,0,0,0,0,-1,2008,834,0,0
791,190,0,0,0,0,0,0,0,0,0,-1,2015,834,0,0
798,190,0,0,0,0,0,0,0,0,0,-1,2022,834,0,0
805,190,0,0,0,0,0,0,0,0,0,-1,2029,834,0,0
812,190,0,0,0,0,0,0,0,0,0,-1,2036,834,0,0
-700,183,0,0,0,0,0,0,0,0,0,-1,524,841,0,0
-693,183,0,0,0,0,0,0,0,0,0,-1,531,841,0,0
-686,183,0,0,0,0,0,0,0,0,0,-1,538,841,0,0
-679,183,0,0,0,0,0,0,0,0,0,-1,545,841,0,0
-672,183,0,0,0,0,0,0,0,0,0,-1,552,841,0,0
-665,183,0,0,0,0,0,0,0,0,0,-1,559,841,0,0
-658,183,-12.7227,3.84351,0,0,0,0,0,0,0,-1,566,841,-12.7227,-3.84353
-651,183,-12.733,4.02905,0,0,0,0,0,0,0,-1,573,841,-12.7331,-4.02905
-644,183,-11.4042,5.23651,0,0,0,0,0,0,0,-1,580,841,-11.4042,-5.2365
-637,183,-11.6674,4.80341,0,0,0,0,0,0,0,-1,587,841,-11.6673,-4.8034
-630,183,-10.5963,1.13477,-0.000145459,0.0338361,-0.00506781,0.0345757,-0.000885142,-1.42586,0.0233511,0.0440331,594,841,-10.5962,-1.13477
-623,183,-10.6234,1.23138,-0.000499419,0.0241154,-0.00337136,0.0245688,-0.000952824,-1.43711,0.0167059,0.0444005,601,841,-10.6234,-1.23141
-616,183,-10.7637,1.58917,-0.000565285,0.0163788,-0.00205622,0.0166247,-0.000811244,-1.45174,0.0113632,0.037924,608,841,-10.7636,-1.58914
-609,183,-10.8414,1.87488,-0.000565226,0.0107213,-0.000891219,0.0107913,-0.000635166,-1.49248,0.00741497,0.0167117,615,841,-10.8413,-1.87486
-602,183,-10.8354,1.74457,-0.000963565,0.00667869,0.000184092,0.00668312,-0.000967997,1.54673,0.00481066,0.0114499,622,841,-10.8354,-1.74457
-595,183,-10.8376,1.54242,-0.00193978,0.0035367,0.00106712,0.00373728,-0.00214037,1.38499,0.00343496,0.0107331,629,841,-10.8376,-1.54244
-588,183,-10.8376,1.37036,-0.00296242,0.000971373,0.00176175,0.00164501,-0.00363606,1.20558,0.00312043,0.00974241,636,841,-10.8377,-1.37036
-581,183,-10.8456,1.19977,-0.00410799,-0.00062409,0.00247645,0.000661696,-0.00539378,1.0919,0.00383549,0.010965,643,841,-10.8456,-1.19979
-574,183,-10.8407,1.02051,-0.00557088,-0.00106806,0.00263708,0.000147955,-0.00678689,1.13873,0.00457471,0.0112317,650,841,-10.8407,-1.0205
-567,183,-10.7944,0.836243,-0.00692482,-0.00160301,0.0026244,-0.000526547,-0.00800128,1.18155,0.00516762,0.0179687,657,841,-10.7944,-0.836232
-560,183,-10.8875,0.698547,-0.00803956,-0.00168773,0.00254048,-0.00079665,-0.00893064,1.23345,0.00570678,0.0219772,664,841,-10.8874,-0.698541
-553,183,-10.8187,0.43866,-0.00883903,-0.00166628,0.00232105,-0.000980728,-0.00952458,1.2836,0.00604937,0.0183737,671,841,-10.8187,-0.438648
-546,183,-10.6959,0.2724,-0.00927327,-0.00145977,0.00223384,-0.000866211,-0.00986682,1.31109,0.006309,0.0427113,678,841,-10.6959,-0.272424
-539,183,-11.0493,0.0552979,0,0,0,0,0,0,0,-1,685,841,-11.0492,-0.0552784
-532,183,-13.8765,1.20526,0,0,0,0,0,0,0,-1,692,841,-13.8765,-1.20526
-525,183,-14.1597,0.87561,0,0,0,0,0,0,0,-1,699,841,-14.1597,-0.875637
-518,183,-14.4015,0.401184,0,0,0,0,0,0,0,-1,706,841,-14.4015,-0.401177
-511,183,-13.8929,1.05701,-0.00584964,0.00113328,0.000918877,0.00125217,-0.00596853,1.44212,0.00445546,0.0397992,713,841,-13.893,-1.05703
-504,183,-13.9626,1.26758,-0.00287345,0.00212668,0.000466391,0.00216982,-0.00291658,1.47858,0.00294716,0.0397237,720,841,-13.9626,-1.26759
-497,183,-13.9483,1.40668,0.00167281,0.00319107,-1.82705e-06,0.00319107,0.0016728,-1.56959,0.00184308,0.0427537,727,841,-13.9483,-1.40665
-490,183,-13.577,1.60266,0.00733449,0.00409512,-0.00015647,0.00734203,0.00408758,-0.0481532,0.00424801,0.0431725,734,841,-13.577,-1.60268
-483,183,0,0,0,0,0,0,0,0,0,-1,741,841,0,0
-476,183,0,0,0,0,0,0,0,0,0,-1,748,841,0,0
-469,183,0,0,0,0,0,0,0,0,0,-1,755,841,0,0
-462,183,0,0,0,0,0,0,0,0,0,-1,762,841,0,0
-455,183,0,0,0,0,0,0,0,0,0,-1,769,841,0,0
-448,183,0,0,0,0,0,0,0,0,0,-1,776,841,0,0
-441,183,0,0,0,0,0,0,0,0,0,-1,783,841,0,0
-434,183,0,0,0,0,0,0,0,0,0,-1,790,841,0,0
-427,183,0,0,0,0,0,0,0,0,0,-1,797,841,0,0
-420,183,0,0,0,0,0,0,0,0,0,-1,804,841,0,0
-413,183,0,0,0,0,0,0,0,0,0,-1,811,841,0,0
-406,183,0,0,0,0,0,0,0,0,0,-1,818,841,0,0
-399,183,0,0,0,0,0,0,0,0,0,-1,825,841,0,0
-392,183,0,0,0,0,0,0,0,0,0,-1,832,841,0,0
-385,183,0,0,0,0,0,0,0,0,0,-1,839,841,0,0
-378,183,0,0,0,0,0,0,0,0,0,-1,846,841,0,0
-371,183,0,0,0,0,0,0,0,0,0,-1,853,841,0,0
-364,183,0,0,0,0,0,0,0,0,0,-1,860,841,0,0
-357,183,0,0,0,0,0,0,0,0,0,-1,867,841,0,0
-350,183,0,0,0,0,0,0,0,0,0,-1,874,841,0,0
-343,183,0,0,0,0,0,0,0,0,0,-1,881,841,0,0
-336,183,0,0,0,0,0,0,0,0,0,-1,888,841,0,0
-329,183,0,0,0,0,0,0,0,0,0,-1,895,841,0,0
-322,183,0,0,0,0,0,0,0,0,0,-1,902,841,0,0
-315,183,0,0,0,0,0,0,0,0,0,-1,909,841,0,0
-308,183,0,0,0,0,0,0,0,0,0,-1,916,841,0,0
-301,183,0,0,0,0,0,0,0,0,0,-1,923,841,0,0
-294,183,0,0,0,0,0,0,0,0,0,-1,930,841,0,0
-287,183,0,0,0,0,0,0,0,0,0,-1,937,841,0,0
-280,183,0,0,0,0,0,0,0,0,0,-1,944,841,0,0
-273,183,0,0,0,0,0,0,0,0,0,-1,951,841,0,0
-266,183,0,0,0,0,0,0,0,0,0,-1,958,841,0,0
-259,183,0,0,0,0,0,0,0,0,0,-1,965,841,0,0
-252,183,0,0,0,0,0,0,0,0,0,-1,972,841,0,0
-245,183,0,0,0,0,0,0,0,0,0,-1,979,841,0,0
-238,183,0,0,0,0,0,0,0,0,0,-1,986,841,0,0
-231,183,0,0,0,0,0,0,0,0,0,-1,993,841,0,0
-224,183,0,0,0,0,0,0,0,0,0,-1,1000,841,0,0
-217,183,0,0,0,0,0,0,0,0,0,-1,1007,841,0,0
-210,183,0,0,0,0,0,0,0,0,0,-1,1014,841,0,0
-203,183,0,0,0,0,0,0,0,0,0,-1,1021,841,0,0
-196,183,0,0,0,0,0,0,0,0,0,-1,1028,841,0,0
-189,183,0,0,0,0,0,0,0,0,0,-1,1035,841,0,0
-182,183,0,0,0,0,0,0,0,0,0,-1,1042,841,0,0
-175,183,0,0,0,0,0,0,0,0,0,-1,1049,841,0,0
-168,183,0,0,0,0,0,0,0,0,0,-1,1056,841,0,0
-161,183,0,0,0,0,0,0,0,0,0,-1,1063,841,0,0
-154,183,0,0,0,0,0,0,0,0,0,-1,1070,841,0,0
-147,183,0,0,0,0,0,0,0,0,0,-1,1077,841,0,0
-140,183,0,0,0,0,0,0,0,0,0,-1,1084,841,0,0
-133,183,0,0,0,0,0,0,0,0,0,-1,1091,841,0,0
-126,183,0,0,0,0,0,0,0,0,0,-1,1098,841,0,0
-119,183,0,0,0,0,0,0,0,0,0,-1,1105,841,0,0
-112,183,0,0,0,0,0,0,0,0,0,-1,1112,841,0,0
-105,183,0,0,0,0,0,0,0,0,0,-1,1119,841,0,0
-98,183,0,0,0,0,0,0,0,0,0,-1,1126,841,0,0
-91,183,0,0,0,0,0,0,0,0,0,-1,1133,841,0,0
-84,183,0,0,0,0,0,0,0,0,0,-1,1140,841,0,0
-77,183,0,0,0,0,0,0,0,0,0,-1,1147,841,0,0
-70,183,0,0,0,0,0,0,0,0,0,-1,1154,841,0,0
-63,183,0,0,0,0,0,0,0,0,0,-1,1161,841,0,0
-56,183,0,0,0,0,0,0,0,0,0,-1,1168,841,0,0
-49,183,0,0,0,0,0,0,0,0,0,-1,1175,841,0,0
-42,183,0,0,0,0,0,0,0,0,0,-1,1182,841,0,0
-35,183,0,0,0,0,0,0,0,0,0,-1,1189,841,0,0
-28,183,0,0,0,0,0,0,0,0,0,-1,1196,841,0,0
-21,183,0,0,0,0,0,0,0,0,0,-1,1203,841,0,0
-14,183,0,0,0,0,0,0,0,0,0,-1,1210,841,0,0
-7,183,0,0,0,0,0,0,0,0,0,-1,1217,841,0,0
0,183,0,0,0,0,0,0,0,0,0,-1,1224,841,0,0
7,183,0,0,0,0,0,0,0,0,0,-1,1231,841,0,0
14,183,0,0,0,0,0,0,0,0,0,-1,1238,841,0,0
21,183,0,0,0,0,0,0,0,0,0,-1,1245,841,0,0
28,183,0,0,0,0,0,0,0,0,0,-1,1252,841,0,0
35,183,0,0,0,0,0,0,0,0,0,-1,1259,841,0,0
42,183,0,0,0,0,0,0,0,0,0,-1,1266,841,0,0
49,183,0,0,0,0,0,0,0,0,0,-1,1273,841,0,0
56,183,0,0,0,0,0,0,0,0,0,-1,1280,841,0,0
63,183,0,0,0,0,0,0,0,0,0,-1,1287,841,0,0
70,183,0,0,0,0,0,0,0,0,0,-1,1294,841,0,0
77,183,0,0,0,0,0,0,0,0,0,-1,1301,841,0,0
84,183,0,0,0,0,0,0,0,0,0,-1,1308,841,0,0
91,183,0,0,0,0,0,0,0,0,0,-1,1315,841,0,0
98,183,0,0,0,0,0,0,0,0,0,-1,1322,841,0,0
105,183,0,0,0,0,0,0,0,0,0,-1,1329,841,0,0
112,183,0,0,0,0,0,0,0,0,0,-1,1336,841,0,0
119,183,0,0,0,0,0,0,0,0,0,-1,1343,841,0,0
126,183,0,0,0,0,0,0,0,0,0,-1,1350,841,0,0
133,183,0,0,0,0,0,0,0,0,0,-1,1357,841,0,0
140,183,0,0,0,0,0,0,0,0,0,-1,1364,841,0,0
147,183,0,0,0,0,0,0,0,0,0,-1,1371,841,0,0
154,183,0,0,0,0,0,0,0,0,0,-1,1378,841,0,0
161,183,0,0,0,0,0,0,0,0,0,-1,1385,841,0,0
168,183,0,0,0,0,0,0,0,0,0,-1,1392,841,0,0
175,183,0,0,0,0,0,0,0,0,0,-1,1399,841,0,0
182,183,0,0,0,0,0,0,0,0,0,-1,1406,841,0,0
189,183,0,0,0,0,0,0,0,0,0,-1,1413,841,0,0
196,183,0,0,0,0,0,0,0,0,0,-1,1420,841,0,0
203,183,0,0,0,0,0,0,0,0,0,-1,1427,841,0,0
210,183,0,0,0,0,0,0,0,0,0,-1,1434,841,0,0
217,183,0,0,0,0,0,0,0,0,0,-1,1441,841,0,0
224,183,0,0,0,0,0,0,0,0,0,-1,1448,841,0,0
231,183,0,0,0,0,0,0,0,0,0,-1,1455,841,0,0
238,183,0,0,0,0,0,0,0,0,0,-1,1462,841,0,0
245,183,0,0,0,0,0,0,0,0,0,-1,1469,841,0,0
252,183,0,0,0,0,0,0,0,0,0,-1,1476,841,0,0
259,183,0,0,0,0,0,0,0,0,0,-1,1483,841,0,0
266,183,0,0,0,0,0,0,0,0,0,-1,1490,841,0,0
273,183,0,0,0,0,0,0,0,0,0,-1,1497,841,0,0
280,183,0,0,0,0,0,0,0,0,0,-1,1504,841,0,0
287,183,0,0,0,0,0,0,0,0,0,-1,1511,841,0,0
294,183,0,0,0,0,0,0,0,0,0,-1,1518,841,0,0
301,183,0,0,0,0,0,0,0,0,0,-1,1525,841,0,0
308,183,0,0,0,0,0,0,0,0,0,-1,1532,841,0,0
315,183,0,0,0,0,0,0,0,0,0,-1,1539,841,0,0
322,183,0,0,0,0,0,0,0,0,0,-1,1546,841,0,0
329,183,0,0,0,0,0,0,0,0,0,-1,1553,841,0,0
336,183,0,0,0,0,0,0,0,0,0,-1,1560,841,0,0
343,183,0,0,0,0,0,0,0,0,0,-1,1567,841,0,0
350,183,0,0,0,0,0,0,0,0,0,-1,1574,841,0,0
357,183,0,0,0,0,0,0,0,0,0,-1,1581,841,0,0
364,183,0,0,0,0,0,0,0,0,0,-1,1588,841,0,0
371,183,0,0,0,0,0,0,0,0,0,-1,1595,841,0,0
378,183,0,0,0,0,0,0,0,0,0,-1,1602,841,0,0
385,183,0,0,0,0,0,0,0,0,0,-1,1609,841,0,0
392,183,0,0,0,0,0,0,0,0,0,-1,1616,841,0,0
399,183,0,0,0,0,0,0,0,0,0,-1,1623,841,0,0
406,183,0,0,0,0,0,0,0,0,0,-1,1630,841,0,0
413,183,0,0,0,0,0,0,0,0,0,-1,1637,841,0,0
420,183,0,0,0,0,0,0,0,0,0,-1,1644,841,0,0
427,183,0,0,0,0,0,0,0,0,0,-1,1651,841,0,0
434,183,0,0,0,0,0,0,0,0,0,-1,1658,841,0,0
441,183,0,0,0,0,0,0,0,0,0,-1,1665,841,0,0
448,183,0,0,0,0,0,0,0,0,0,-1,1672,841,0,0
455,183,0,0,0,0,0,0,0,0,0,-1,1679,841,0,0
462,183,0,0,0,0,0,0,0,0,0,-1,1686,841,0,0
469,183,0,0,0,0,0,0,0,0,0,-1,1693,841,0,0
476,183,0,0,0,0,0,0,0,0,0,-1,1700,841,0,0
483,183,0,0,0,0,0,0,0,0,0,-1,1707,841,0,0
490,183,0,0,0,0,0,0,0,0,0,-1,1714,841,0,0
497,183,0,0,0,0,0,0,0,0,0,-1,1721,841,0,0
504,183,0,0,0,0,0,0,0,0,0,-1,1728,841,0,0
511,183,0,0,0,0,0,0,0,0,0,-1,1735,841,0,0
518,183,0,0,0,0,0,0,0,0,0,-1,1742,841,0,0
525,183,0,0,0,0,0,0,0,0,0,-1,1749,841,0,0
532,183,0,0,0,0,0,0,0,0,0,-1,1756,841,0,0
539,183,0,0,0,0,0,0,0,0,0,-1,1763,841,0,0
546,183,0,0,0,0,0,0,0,0,0,-1,1770,841,0,0
553,183,0,0,0,0,0,0,0,0,0,-1,1777,841,0,0
560,183,0,0,0,0,0,0,0,0,0,-1,1784,841,0,0
567,183,0,0,0,0,0,0,0,0,0,-1,1791,841,0,0
574,183,0,0,0,0,0,0,0,0,0,-1,1798,841,0,0
581,183,0,0,0,0,0,0,0,0,0,-1,1805,841,0,0
588,183,0,0,0,0,0,0,0,0,0,-1,1812,841,0,0
595,183,0,0,0,0,0,0,0,0,0,-1,1819,841,0,0
602,183,0,0,0,0,0,0,0,0,0,-1,1826,841,0,0
609,183,21.3142,2.92719,-0.00198292,0.00354284,0.00354302,0.0052729,-0.00371298,1.11655,0.00521399,0.038954,1833,841,21.3142,-2.92717
616,183,21.1718,3.13806,-0.00115978,0.0020451,0.00325261,0.00406858,-0.00318326,1.01428,0.00419724,0.0387292,1840,841,21.1718,-3.13805
623,183,21.2529,3.35419,-0.000478691,0.000668647,0.00245866,0.00261968,-0.00242972,0.900011,0.00291596,0.0419722,1847,841,21.2529,-3.35418
630,183,21.3578,3.40808,-1.99108e-07,-0.00038467,0.00156696,0.00138627,-0.00177114,0.724363,0.00182744,0.0420825,1854,841,21.3577,-3.40807
637,183,21.3751,3.2251,0.000196822,-0.00112554,0.000748691,0.00053449,-0.0014632,0.423695,0.00119419,0.0379683,1861,841,21.3752,-3.22507
644,183,21.2434,3.14117,0.00017573,-0.00153605,0.000128696,0.000185351,-0.00154567,0.0746234,0.00109746,0.0312283,1868,841,21.2435,-3.14116
651,183,21.3068,3.08624,0.000129739,-0.00178177,-0.000291103,0.000173088,-0.00182511,-0.147827,0.00127835,0.0276759,1875,841,21.3067,-3.08626
658,183,21.476,2.96674,6.51157e-05,-0.00183089,-0.000549544,0.000212881,-0.00197866,-0.262674,0.00139549,0.0446394,1882,841,21.4759,-2.96675
665,183,21.6407,2.8512,0,0,0,0,0,0,0,-1,1889,841,21.6407,-2.85121
672,183,17.4288,2.47534,0,0,0,0,0,0,0,-1,1896,841,17.4289,-2.47533
679,183,17.4468,2.59467,-4.45488e-06,-0.00164765,-0.00141563,0.000810721,-0.00246283,-0.522465,0.00196858,0.0404733,1903,841,17.4467,-2.59466
686,183,17.4357,2.73083,-0.000183311,-0.00142842,-0.0014127,0.000737925,-0.00234966,-0.577857,0.00186182,0.017385,1910,841,17.4357,-2.73084
693,183,17.4265,2.91284,-0.000296837,-0.00113543,-0.001303,0.000652669,-0.00208493,-0.629734,0.00165109,0.0139474,1917,841,17.4265,-2.91283
700,183,17.413,3.11078,-0.000152129,-0.000706103,-0.00127045,0.000871177,-0.00172941,-0.678066,0.00152846,0.0152038,1924,841,17.4129,-3.1108
707,183,17.4125,3.30951,0.000104985,-0.000681985,-0.00115769,0.00093423,-0.00151123,-0.621579,0.00142493,0.0115001,1931,841,17.4125,-3.30949
714,183,17.4167,3.50146,0.000415938,-0.000277084,-0.00116629,0.0012861,-0.00114725,-0.640999,0.00140566,0.015257,1938,841,17.4168,-3.50146
721,183,17.4008,3.70038,0.00116146,-6.13631e-05,-0.00143234,0.00210742,-0.00100733,-0.583675,0.00183531,0.0141699,1945,841,17.4008,-3.70035
728,183,17.3843,3.8924,0.00235293,7.56467e-05,-0.00190775,0.00343601,-0.00100743,-0.516348,0.00269011,0.0129442,1952,841,17.3843,-3.89239
735,183,17.4005,4.06598,0.00406134,0.000166604,-0.00253753,0.00531262,-0.00108467,-0.458117,0.00395322,0.0116607,1959,841,17.4005,-4.06597
742,183,17.4275,4.27313,0.00654465,0.000197409,-0.0034503,0.00805893,-0.00131687,-0.413572,0.0058611,0.0107306,1966,841,17.4275,-4.27313
749,183,17.3922,4.4342,0.00970136,0.000286436,-0.00463105,0.0115974,-0.00160965,-0.388608,0.00832024,0.0308832,1973,841,17.3922,-4.43421
756,183,17.2897,4.52441,0.0143886,0.0004011,-0.00622039,0.0167547,-0.00196494,-0.363469,0.0118791,0.0462151,1980,841,17.2897,-4.52443
763,183,17.3479,4.34637,0,0,0,0,0,0,0,-1,1987,841,17.3479,-4.34638
770,183,19.6804,3.79657,0,0,0,0,0,0,0,-1,1994,841,19.6804,-3.79659
777,183,16.9512,3.56696,0,0,0,0,0,0,0,-1,2001,841,16.9512,-3.56697
784,183,0,0,0,0,0,0,0,0,0,-1,2008,841,0,0
791,183,0,0,0,0,0,0,0,0,0,-1,2015,841,0,0
798,183,0,0,0,0,0,0,0,0,0,-1,2022,841,0,0
805,183,0,0,0,0,0,0,0,0,0,-1,2029,841,0,0
812,183,0,0,0,0,0,0,0,0,0,-1,2036,841,0,0
-700,176,0,0,0,0,0,0,0,0,0,-1,524,848,0,0
-693,176,0,0,0,0,0,0,0,0,0,-1,531,848,0,0
-686,176,0,0,0,0,0,0,0,0,0,-1,538,848,0,0
-679,176,0,0,0,0,0,0,0,0,0,-1,545,848,0,0
-672,176,0,0,0,0,0,0,0,0,0,-1,552,848,0,0
-665,176,-10.0672,5.05542,0,0,0,0,0,0,0,-1,559,848,-10.0672,-5.05539
-658,176,-9.92957,4.84869,0,0,0,0,0,0,0,-1,566,848,-9.92956,-4.84867
-651,176,-10.4487,4.63721,0,0,0,0,0,0,0,-1,573,848,-10.4487,-4.63723
-644,176,-11.0141,4.37177,-9.45643e-05,0.0554124,-0.00688909,0.0562547,-0.000936802,-1.44914,0.0378193,0.044856,580,848,-11.0141,-4.37174
-637,176,-11.1862,3.966,0.000400353,0.041966,-0.00603099,0.0428233,-0.000457032,-1.42958,0.0287024,0.0444244,587,848,-11.1862,-3.96603
-630,176,-11.5145,3.18231,0.000235302,0.0306343,-0.00450514,0.0312879,-0.000418306,-1.42672,0.0209994,0.0432389,594,848,-11.5145,-3.18229
-623,176,-11.001,1.21661,-3.37586e-05,0.0214367,-0.00285575,0.02181,-0.000407106,-1.4408,0.0146776,0.0397845,601,848,-11.0011,-1.2166
-616,176,-11.088,1.9408,-0.000129202,0.014136,-0.00164104,0.0143223,-0.000315552,-1.45773,0.00965511,0.0281089,608,848,-11.088,-1.94081
-609,176,-11.0202,1.91394,-0.000364059,0.00892744,-0.000510918,0.00895545,-0.00039207,-1.51603,0.00610519,0.0115852,615,848,-11.0202,-1.91391
-602,176,-11.0199,1.75488,-0.00139638,0.00512579,0.000781679,0.00521816,-0.00148875,1.45317,0.00406689,0.0125167,622,848,-11.0199,-1.75487
-595,176,-11.0183,1.55457,-0.00293212,0.00214836,0.00180423,0.0027239,-0.00350765,1.26201,0.00360726,0.0119464,629,848,-11.0183,-1.55455
-588,176,-11.0205,1.37061,-0.00403851,-1.66096e-05,0.00242413,0.00112209,-0.00517721,1.13165,0.00387997,0.0107248,636,848,-11.0205,-1.37061
-581,176,-11.029,1.20819,-0.0053701,-0.00127216,0.00302402,0.000331675,-0.00697394,1.08315,0.0047637,0.0102516,643,848,-11.029,-1.20817
-574,176,-11.0273,1.02295,-0.00698439,-0.00153038,0.0031385,-9.9652e-05,-0.00841512,1.14308,0.00557716,0.0120193,650,848,-11.0274,-1.02294
-567,176,-10.976,0.903198,-0.00833375,-0.00192267,0.00304393,-0.000707683,-0.00954873,1.19102,0.00614353,0.0233142,657,848,-10.976,-0.90322
-560,176,-11.0881,0.707031,-0.0092158,-0.00191481,0.00288685,-0.00091127,-0.0102193,1.23624,0.00653036,0.0190891,664,848,-11.0881,-0.707031
-553,176,-10.9807,0.446228,-0.00981401,-0.00195562,0.00262396,-0.00116001,-0.0106096,1.2764,0.00671987,0.0331813,671,848,-10.9807,-0.446242
-546,176,-11.6114,0.808044,0,0,0,0,0,0,0,-1,678,848,-11.6114,-0.808033
-539,176,-13.8602,1.11926,0,0,0,0,0,0,0,-1,685,848,-13.8602,-1.11923
-532,176,-13.9345,1.10327,-0.00907885,-0.00128608,0.00199451,-0.000805262,-0.00955967,1.33424,0.00612237,0.040909,692,848,-13.9345,-1.1033
-525,176,-14.0779,0.985596,-0.00796663,-0.000834106,0.00165932,-0.000466975,-0.00833376,1.35305,0.00540691,0.0470998,699,848,-14.0779,-0.985621
-518,176,-14.2022,0.742676,-0.00626455,-0.000218443,0.00125251,3.07558e-05,-0.00651375,1.3744,0.00435279,0.0411676,706,848,-14.2022,-0.742677
-511,176,-14.0414,0.932129,-0.00352603,0.000535211,0.000836371,0.000700709,-0.00369152,1.37544,0.00272479,0.04022,713,848,-14.0415,-0.932138
-504,176,-13.983,1.11877,0.00065317,0.00139725,0.000437142,0.00159924,0.000451183,1.13796,0.000952091,0.0421918,720,848,-13.983,-1.11876
-497,176,-14.0593,1.17603,0.00631641,0.00219031,0.00037889,0.00635092,0.0021558,0.0908155,0.00372918,0.0442572,727,848,-14.0593,-1.17601
-490,176,-13.8664,1.41547,0.0121274,0.00258544,0.00127726,0.0122954,0.00241743,0.13079,0.00752178,0.0416313,734,848,-13.8664,-1.41546
-483,176,0,0,0,0,0,0,0,0,0,-1,741,848,0,0
-476,176,0,0,0,0,0,0,0,0,0,-1,748,848,0,0
-469,176,0,0,0,0,0,0,0,0,0,-1,755,848,0,0
-462,176,0,0,0,0,0,0,0,0,0,-1,762,848,0,0
-455,176,0,0,0,0,0,0,0,0,0,-1,769,848,0,0
-448,176,0,0,0,0,0,0,0,0,0,-1,776,848,0,0
-441,176,0,0,0,0,0,0,0,0,0,-1,783,848,0,0
-434,176,0,0,0,0,0,0,0,0,0,-1,790,848,0,0
-427,176,0,0,0,0,0,0,0,0,0,-1,797,848,0,0
-420,176,0,0,0,0,0,0,0,0,0,-1,804,848,0,0
-413,176,0,0,0,0,0,0,0,0,0,-1,811,848,0,0
-406,176,0,0,0,0,0,0,0,0,0,-1,818,848,0,0
-399,176,0,0,0,0,0,0,0,0,0,-1,825,848,0,0
-392,176,0,0,0,0,0,0,0,0,0,-1,832,848,0,0
-385,176,0,0,0,0,0,0,0,0,0,-1,839,848,0,0
-378,176,0,0,0,0,0,0,0,0,0,-1,846,848,0,0
-371,176,0,0,0,0,0,0,0,0,0,-1,853,848,0,0
-364,176,0,0,0,0,0,0,0,0,0,-1,860,848,0,0
-357,176,0,0,0,0,0,0,0,0,0,-1,867,848,0,0
-350,176,0,0,0,0,0,0,0,0,0,-1,874,848,0,0
-343,176,0,0,0,0,0,0,0,0,0,-1,881,848,0,0
-336,176,0,0,0,0,0,0,0,0,0,-1,888,848,0,0
-329,176,0,0,0,0,0,0,0,0,0,-1,895,848,0,0
-322,176,0,0,0,0,0,0,0,0,0,-1,902,848,0,0
-315,176,0,0,0,0,0,0,0,0,0,-1,909,848,0,0
-308,176,0,0,0,0,0,0,0,0,0,-1,916,848,0,0
-301,176,0,0,0,0,0,0,0,0,0,-1,923,848,0,0
-294,176,0,0,0,0,0,0,0,0,0,-1,930,848,0,0
-287,176,0,0,0,0,0,0,0,0,0,-1,937,848,0,0
-280,176,0,0,0,0,0,0,0,0,0,-1,944,848,0,0
-273,176,0,0,0,0,0,0,0,0,0,-1,951,848,0,0
-266,176,0,0,0,0,0,0,0,0,0,-1,958,848,0,0
-259,176,0,0,0,0,0,0,0,0,0,-1,965,848,0,0
-252,176,0,0,0,0,0,0,0,0,0,-1,972,848,0,0
-245,176,0,0,0,0,0,0,0,0,0,-1,979,848,0,0
-238,176,0,0,0,0,0,0,0,0,0,-1,986,848,0,0
-231,176,0,0,0,0,0,0,0,0,0,-1,993,848,0,0
-224,176,0,0,0,0,0,0,0,0,0,-1,1000,848,0,0
-217,176,0,0,0,0,0,0,0,0,0,-1,1007,848,0,0
-210,176,0,0,0,0,0,0,0,0,0,-1,1014,848,0,0
-203,176,0,0,0,0,0,0,0,0,0,-1,1021,848,0,0
-196,176,0,0,0,0,0,0,0,0,0,-1,1028,848,0,0
-189,176,0,0,0,0,0,0,0,0,0,-1,1035,848,0,0
-182,176,0,0,0,0,0,0,0,0,0,-1,1042,848,0,0
-175,176,0,0,0,0,0,0,0,0,0,-1,1049,848,0,0
-168,176,0,0,0,0,0,0,0,0,0,-1,1056,848,0,0
-161,176,0,0,0,0,0,0,0,0,0,-1,1063,848,0,0
-154,176,0,0,0,0,0,0,0,0,0,-1,1070,848,0,0
-147,176,0,0,0,0,0,0,0,0,0,-1,1077,848,0,0
-140,176,0,0,0,0,0,0,0,0,0,-1,1084,848,0,0
-133,176,0,0,0,0,0,0,0,0,0,-1,1091,848,0,0
-126,176,0,0,0,0,0,0,0,0,0,-1,1098,848,0,0
-119,176,0,0,0,0,0,0,0,0,0,-1,1105,848,0,0
-112,176,0,0,0,0,0,0,0,0,0,-1,1112,848,0,0
-105,176,0,0,0,0,0,0,0,0,0,-1,1119,848,0,0
-98,176,0,0,0,0,0,0,0,0,0,-1,1126,848,0,0
-91,176,0,0,0,0,0,0,0,0,0,-1,1133,848,0,0
-84,176,0,0,0,0,0,0,0,0,0,-1,1140,848,0,0
-77,176,0,0,0,0,0,0,0,0,0,-1,1147,848,0,0
-70,176,0,0,0,0,0,0,0,0,0,-1,1154,848,0,0
-63,176,0,0,0,0,0,0,0,0,0,-1,1161,848,0,0
-56,176,0,0,0,0,0,0,0,0,0,-1,1168,848,0,0
-49,176,0,0,0,0,0,0,0,0,0,-1,1175,848,0,0
-42,176,0,0,0,0,0,0,0,0,0,-1,1182,848,0,0
-35,176,0,0,0,0,0,0,0,0,0,-1,1189,848,0,0
-28,176,0,0,0,0,0,0,0,0,0,-1,1196,848,0,0
-21,176,0,0,0,0,0,0,0,0,0,-1,1203,848,0,0
-14,176,0,0,0,0,0,0,0,0,0,-1,1210,848,0,0
-7,176,0,0,0,0,0,0,0,0,0,-1,1217,848,0,0
0,176,0,0,0,0,0,0,0,0,0,-1,1224,848,0,0
7,176,0,0,0,0,0,0,0,0,0,-1,1231,848,0,0
14,176,0,0,0,0,0,0,0,0,0,-1,1238,848,0,0
21,176,0,0,0,0,0,0,0,0,0,-1,1245,848,0,0
28,176,0,0,0,0,0,0,0,0,0,-1,1252,848,0,0
35,176,0,0,0,0,0,0,0,0,0,-1,1259,848,0,0
42,176,0,0,0,0,0,0,0,0,0,-1,1266,848,0,0
49,176,0,0,0,0,0,0,0,0,0,-1,1273,848,0,0
56,176,0,0,0,0,0,0,0,0,0,-1,1280,848,0,0
63,176,0,0,0,0,0,0,0,0,0,-1,1287,848,0,0
70,176,0,0,0,0,0,0,0,0,0,-1,1294,848,0,0
77,176,0,0,0,0,0,0,0,0,0,-1,1301,848,0,0
84,176,0,0,0,0,0,0,0,0,0,-1,1308,848,0,0
91,176,0,0,0,0,0,0,0,0,0,-1,1315,848,0,0
98,176,0,0,0,0,0,0,0,0,0,-1,1322,848,0,0
105,176,0,0,0,0,0,0,0,0,0,-1,1329,848,0,0
112,176,0,0,0,0,0,0,0,0,0,-1,1336,848,0,0
119,176,0,0,0,0,0,0,0,0,0,-1,1343,848,0,0
126,176,0,0,0,0,0,0,0,0,0,-1,1350,848,0,0
133,176,0,0,0,0,0,0,0,0,0,-1,1357,848,0,0
140,176,0,0,0,0,0,0,0,0,0,-1,1364,848,0,0
147,176,0,0,0,0,0,0,0,0,0,-1,1371,848,0,0
154,176,0,0,0,0,0,0,0,0,0,-1,1378,848,0,0
161,176,0,0,0,0,0,0,0,0,0,-1,1385,848,0,0
168,176,0,0,0,0,0,0,0,0,0,-1,1392,848,0,0
175,176,0,0,0,0,0,0,0,0,0,-1,1399,848,0,0
182,176,0,0,0,0,0,0,0,0,0,-1,1406,848,0,0
189,176,0,0,0,0,0,0,0,0,0,-1,1413,848,0,0
196,176,0,0,0,0,0,0,0,0,0,-1,1420,848,0,0
203,176,0,0,0,0,0,0,0,0,0,-1,1427,848,0,0
210,176,0,0,0,0,0,0,0,0,0,-1,1434,848,0,0
217,176,0,0,0,0,0,0,0,0,0,-1,1441,848,0,0
224,176,0,0,0,0,0,0,0,0,0,-1,1448,848,0,0
231,176,0,0,0,0,0,0,0,0,0,-1,1455,848,0,0
238,176,0,0,0,0,0,0,0,0,0,-1,1462,848,0,0
245,176,0,0,0,0,0,0,0,0,0,-1,1469,848,0,0
252,176,0,0,0,0,0,0,0,0,0,-1,1476,848,0,0
259,176,0,0,0,0,0,0,0,0,0,-1,1483,848,0,0
266,176,0,0,0,0,0,0,0,0,0,-1,1490,848,0,0
273,176,0,0,0,0,0,0,0,0,0,-1,1497,848,0,0
280,176,0,0,0,0,0,0,0,0,0,-1,1504,848,0,0
287,176,0,0,0,0,0,0,0,0,0,-1,1511,848,0,0
294,176,0,0,0,0,0,0,0,0,0,-1,1518,848,0,0
301,176,0,0,0,0,0,0,0,0,0,-1,1525,848,0,0
308,176,0,0,0,0,0,0,0,0,0,-1,1532,848,0,0
315,176,0,0,0,0,0,0,0,0,0,-1,1539,848,0,0
322,176,0,0,0,0,0,0,0,0,0,-1,1546,848,0,0
329,176,0,0,0,0,0,0,0,0,0,-1,1553,848,0,0
336,176,0,0,0,0,0,0,0,0,0,-1,1560,848,0,0
343,176,0,0,0,0,0,0,0,0,0,-1,1567,848,0,0
350,176,0,0,0,0,0,0,0,0,0,-1,1574,848,0,0
357,176,0,0,0,0,0,0,0,0,0,-1,1581,848,0,0
364,176,0,0,0,0,0,0,0,0,0,-1,1588,848,0,0
371,176,0,0,0,0,0,0,0,0,0,-1,1595,848,0,0
378,176,0,0,0,0,0,0,0,0,0,-1,1602,848,0,0
385,176,0,0,0,0,0,0,0,0,0,-1,1609,848,0,0
392,176,0,0,0,0,0,0,0,0,0,-1,1616,848,0,0
399,176,0,0,0,0,0,0,0,0,0,-1,1623,848,0,0
406,176,0,0,0,0,0,0,0,0,0,-1,1630,848,0,0
413,176,0,0,0,0,0,0,0,0,0,-1,1637,848,0,0
420,176,0,0,0,0,0,0,0,0,0,-1,1644,848,0,0
427,176,0,0,0,0,0,0,0,0,0,-1,1651,848,0,0
434,176,0,0,0,0,0,0,0,0,0,-1,1658,848,0,0
441,176,0,0,0,0,0,0,0,0,0,-1,1665,848,0,0
448,176,0,0,0,0,0,0,0,0,0,-1,1672,848,0,0
455,176,0,0,0,0,0,0,0,0,0,-1,1679,848,0,0
462,176,0,0,0,0,0,0,0,0,0,-1,1686,848,0,0
469,176,0,0,0,0,0,0,0,0,0,-1,1693,848,0,0
476,176,0,0,0,0,0,0,0,0,0,-1,1700,848,0,0
483,176,0,0,0,0,0,0,0,0,0,-1,1707,848,0,0
490,176,0,0,0,0,0,0,0,0,0,-1,1714,848,0,0
497,176,0,0,0,0,0,0,0,0,0,-1,1721,848,0,0
504,176,0,0,0,0,0,0,0,0,0,-1,1728,848,0,0
511,176,0,0,0,0,0,0,0,0,0,-1,1735,848,0,0
518,176,0,0,0,0,0,0,0,0,0,-1,1742,848,0,0
525,176,0,0,0,0,0,0,0,0,0,-1,1749,848,0,0
532,176,0,0,0,0,0,0,0,0,0,-1,1756,848,0,0
539,176,0,0,0,0,0,0,0,0,0,-1,1763,848,0,0
546,176,0,0,0,0,0,0,0,0,0,-1,1770,848,0,0
553,176,0,0,0,0,0,0,0,0,0,-1,1777,848,0,0
560,176,0,0,0,0,0,0,0,0,0,-1,1784,848,0,0
567,176,0,0,0,0,0,0,0,0,0,-1,1791,848,0,0
574,176,0,0,0,0,0,0,0,0,0,-1,1798,848,0,0
581,176,0,0,0,0,0,0,0,0,0,-1,1805,848,0,0
588,176,0,0,0,0,0,0,0,0,0,-1,1812,848,0,0
595,176,0,0,0,0,0,0,0,0,0,-1,1819,848,0,0
602,176,0,0,0,0,0,0,0,0,0,-1,1826,848,0,0
609,176,21.2504,3.02881,-0.00392324,0.00507637,0.00480865,0.00716226,-0.00600913,1.16151,0.00761421,0.0385002,1833,848,21.2503,-3.02879
616,176,21.0922,3.19452,-0.00258723,0.00355083,0.00410374,0.00560621,-0.00464261,1.10646,0.00592587,0.0414705,1840,848,21.0921,-3.19454
623,176,21.1237,3.46564,-0.00139241,0.00211589,0.00300663,0.00384267,-0.00311919,1.04947,0.00402666,0.0456436,1847,848,21.1236,-3.46564
630,176,21.3116,3.3468,-0.000434683,0.000976662,0.0019197,0.00231628,-0.0017743,0.96153,0.0023686,0.0397325,1854,848,21.3116,-3.34681
637,176,21.3706,3.1709,9.38718e-05,0.000130074,0.000983086,0.00109523,-0.00087128,0.794603,0.00113781,0.0330512,1861,848,21.3706,-3.17089
644,176,21.188,3.17889,0.000104458,-0.000374196,0.000263315,0.000220957,-0.000490695,0.416542,0.000420595,0.0323043,1868,848,21.188,-3.17887
651,176,21.2317,3.19775,-1.79888e-05,-0.000723724,-0.000217847,4.38395e-05,-0.000785552,-0.276543,0.000538909,0.0320896,1875,848,21.2317,-3.19774
658,176,21.3237,3.08618,-0.00016019,-0.000884211,-0.000505291,9.93861e-05,-0.00114379,-0.474561,0.00079772,0.0378306,1882,848,21.3238,-3.08618
665,176,21.4008,2.9519,0,0,0,0,0,0,0,-1,1889,848,21.4007,-2.9519
672,176,16.9304,2.80719,0,0,0,0,0,0,0,-1,1896,848,16.9305,-2.80719
679,176,17.778,2.59247,0,0,0,0,0,0,0,-1,1903,848,17.7779,-2.59249
686,176,17.7251,2.78003,-0.000848441,-0.000856664,-0.00141941,0.000566861,-0.00227197,-0.78395,0.00173475,0.0241281,1910,848,17.7251,-2.78002
693,176,17.6622,2.9696,-0.00110735,-0.000705117,-0.00134726,0.000455955,-0.00226842,-0.85949,0.00168496,0.0125094,1917,848,17.6622,-2.96959
700,176,17.6337,3.13391,-0.00109619,-0.000452665,-0.00131791,0.000582191,-0.00213105,-0.905129,0.00164938,0.0147611,1924,848,17.6337,-3.1339
707,176,17.6315,3.33044,-0.000910974,-0.000556794,-0.00124244,0.000521114,-0.00198888,-0.856188,0.00152951,0.0125885,1931,848,17.6314,-3.33044
714,176,17.6289,3.51428,-0.000493017,-0.000278797,-0.00124807,0.000866749,-0.00163856,-0.828204,0.00146914,0.0110694,1938,848,17.6289,-3.5143
721,176,17.6167,3.70557,0.000541265,-0.000125456,-0.00147039,0.00171561,-0.0012998,-0.673925,0.00174646,0.0112361,1945,848,17.6167,-3.7056
728,176,17.5802,3.9032,0.00217081,-6.83272e-05,-0.00190645,0.00326212,-0.00115964,-0.519901,0.00264735,0.0139572,1952,848,17.5802,-3.90321
735,176,17.6019,4.0733,0.00448745,-9.26501e-05,-0.00251291,0.00559726,-0.00120246,-0.415883,0.00419024,0.0131351,1959,848,17.6019,-4.07333
742,176,17.6228,4.25568,0.00775463,-0.000207722,-0.00343243,0.00903,-0.0014831,-0.355757,0.0065704,0.0155405,1966,848,17.6228,-4.25567
749,176,17.5852,4.38898,0.0117499,-0.000338254,-0.0046525,0.0133332,-0.00192154,-0.328015,0.00959365,0.0266441,1973,848,17.5852,-4.38896
756,176,17.828,4.26367,0,0,0,0,0,0,0,-1,1980,848,17.828,-4.2637
763,176,19.053,3.7995,0,0,0,0,0,0,0,-1,1987,848,19.053,-3.79952
770,176,19.3826,4.02899,0,0,0,0,0,0,0,-1,1994,848,19.3825,-4.029
777,176,19.712,4.25848,0,0,0,0,0,0,0,-1,2001,848,19.712,-4.25849
784,176,0,0,0,0,0,0,0,0,0,-1,2008,848,0,0
791,176,0,0,0,0,0,0,0,0,0,-1,2015,848,0,0
798,176,0,0,0,0,0,0,0,0,0,-1,2022,848,0,0
805,176,0,0,0,0,0,0,0,0,0,-1,2029,848,0,0
812,176,0,0,0,0,0,0,0,0,0,-1,2036,848,0,0
-700,169,0,0,0,0,0,0,0,0,0,-1,524,855,0,0
-693,169,0,0,0,0,0,0,0,0,0,-1,531,855,0,0
-686,169,0,0,0,0,0,0,0,0,0,-1,538,855,0,0
-679,169,0,0,0,0,0,0,0,0,0,-1,545,855,0,0
-672,169,0,0,0,0,0,0,0,0,0,-1,552,855,0,0
-665,169,-10.2109,4.5293,0,0,0,0,0,0,0,-1,559,855,-10.2109,-4.52929
-658,169,-10.2896,4.29053,0,0,0,0,0,0,0,-1,566,855,-10.2896,-4.29054
-651,169,-10.2537,4.0835,0,0,0,0,0,0,0,-1,573,855,-10.2536,-4.0835
-644,169,-10.5368,3.78754,-0.00152384,0.0524644,-0.00522478,0.0529653,-0.00202483,-1.4752,0.0360042,0.0465327,580,855,-10.5368,-3.78751
-637,169,-10.9493,3.1651,-0.000484218,0.0395513,-0.00464407,0.040083,-0.00101586,-1.45681,0.027067,0.0427869,587,855,-10.9493,-3.16509
-630,169,-11.163,2.67456,-0.000319192,0.0287294,-0.00341331,0.0291251,-0.000714877,-1.45539,0.0196594,0.0450185,594,855,-11.163,-2.67459
-623,169,-11.2606,2.11182,-0.000276999,0.0198416,-0.00208899,0.0200562,-0.000491617,-1.46842,0.0135377,0.0364589,601,855,-11.2605,-2.11183
-616,169,-11.2327,2.00934,-0.000214137,0.0127977,-0.00114962,0.0128985,-0.000314927,-1.48335,0.00870585,0.0198615,608,855,-11.2327,-2.00932
-609,169,-11.1969,1.91187,-0.000559851,0.0078955,-0.000164967,0.00789872,-0.000563068,-1.5513,0.00546318,0.0122499,615,855,-11.1969,-1.91184
-602,169,-11.201,1.75317,-0.00192975,0.00419212,0.00116807,0.00440742,-0.00214505,1.38852,0.0038575,0.0130207,622,855,-11.2011,-1.75318
-595,169,-11.2103,1.55823,-0.0038038,0.00137735,0.00221895,0.00219777,-0.00462422,1.21665,0.00402086,0.0119491,629,855,-11.2103,-1.55825
-588,169,-11.2036,1.38043,-0.00496051,-0.000557788,0.00280043,0.000802925,-0.00632122,1.1185,0.0045057,0.0090715,636,855,-11.2036,-1.38041
-581,169,-11.2126,1.20526,-0.00639603,-0.00163175,0.00334322,9.11914e-05,-0.00811897,1.09494,0.0054433,0.00991281,643,855,-11.2126,-1.20527
-574,169,-11.2672,1.0318,-0.00806758,-0.00181988,0.00345072,-0.000289062,-0.00959839,1.15326,0.00630478,0.0135047,650,855,-11.2672,-1.03181
-567,169,-11.1874,0.923767,-0.00937068,-0.00211804,0.00332289,-0.000825841,-0.0106629,1.19992,0.00684992,0.0214592,657,855,-11.1874,-0.923785
-560,169,-11.2441,0.766418,-0.0100566,-0.002082,0.00316058,-0.000981286,-0.0111573,1.23567,0.00713362,0.0211701,664,855,-11.2441,-0.766417
-553,169,-11.1871,0.527588,-0.0105094,-0.00219157,0.0028958,-0.00128271,-0.0114182,1.26668,0.00722266,0.0307872,671,855,-11.1872,-0.527604
-546,169,-12.1388,0.648376,-0.0104371,-0.00204826,0.00268362,-0.00126323,-0.0112222,1.28621,0.00709794,0.0403605,678,855,-12.1388,-0.648381
-539,169,-13.3041,0.813477,0,0,0,0,0,0,0,-1,685,855,-13.3041,-0.813455
-532,169,-14.0205,1.11475,-0.0087169,-0.00167246,0.00208004,-0.00110413,-0.00928523,1.30408,0.00585691,0.0375281,692,855,-14.0205,-1.11477
-525,169,-13.9981,1.06232,-0.00703228,-0.00128084,0.00166769,-0.000832261,-0.00748086,1.30803,0.00473426,0.0447246,699,855,-13.9981,-1.0623
-518,169,-14.0577,0.982666,-0.00455948,-0.000762553,0.00121291,-0.000408168,-0.00491387,1.28653,0.00314869,0.0404498,706,855,-14.0577,-0.982678
-511,169,-14.0687,0.953369,-0.000839416,-0.000122588,0.000780948,0.000378265,-0.00134027,1.00053,0.00104273,0.0414548,713,855,-14.0687,-0.95339
-504,169,-14.0535,0.920471,0.00446775,0.000577635,0.000511046,0.00453376,0.000511619,0.128467,0.00286722,0.045404,720,855,-14.0535,-0.920456
-497,169,-14.0461,0.955505,0.0108258,0.00103617,0.00113542,0.0109558,0.000906205,0.113966,0.0070213,0.0454015,727,855,-14.0461,-0.955509
-490,169,0,0,0,0,0,0,0,0,0,-1,734,855,0,0
-483,169,0,0,0,0,0,0,0,0,0,-1,741,855,0,0
-476,169,0,0,0,0,0,0,0,0,0,-1,748,855,0,0
-469,169,0,0,0,0,0,0,0,0,0,-1,755,855,0,0
-462,169,0,0,0,0,0,0,0,0,0,-1,762,855,0,0
-455,169,0,0,0,0,0,0,0,0,0,-1,769,855,0,0
-448,169,0,0,0,0,0,0,0,0,0,-1,776,855,0,0
-441,169,0,0,0,0,0,0,0,0,0,-1,783,855,0,0
-434,169,0,0,0,0,0,0,0,0,0,-1,790,855,0,0
-427,169,0,0,0,0,0,0,0,0,0,-1,797,855,0,0
-420,169,0,0,0,0,0,0,0,0,0,-1,804,855,0,0
-413,169,0,0,0,0,0,0,0,0,0,-1,811,855,0,0
-406,169,0,0,0,0,0,0,0,0,0,-1,818,855,0,0
-399,169,0,0,0,0,0,0,0,0,0,-1,825,855,0,0
-392,169,0,0,0,0,0,0,0,0,0,-1,832,855,0,0
-385,169,0,0,0,0,0,0,0,0,0,-1,839,855,0,0
-378,169,0,0,0,0,0,0,0,0,0,-1,846,855,0,0
-371,169,0,0,0,0,0,0,0,0,0,-1,853,855,0,0
-364,169,0,0,0,0,0,0,0,0,0,-1,860,855,0,0
-357,169,0,0,0,0,0,0,0,0,0,-1,867,855,0,0
-350,169,0,0,0,0,0,0,0,0,0,-1,874,855,0,0
-343,169,0,0,0,0,0,0,0,0,0,-1,881,855,0,0
-336,169,0,0,0,0,0,0,0,0,0,-1,888,855,0,0
-329,169,0,0,0,0,0,0,0,0,0,-1,895,855,0,0
-322,169,0,0,0,0,0,0,0,0,0,-1,902,855,0,0
-315,169,0,0,0,0,0,0,0,0,0,-1,909,855,0,0
-308,169,0,0,0,0,0,0,0,0,0,-1,916,855,0,0
-301,169,0,0,0,0,0,0,0,0,0,-1,923,855,0,0
-294,169,0,0,0,0,0,0,0,0,0,-1,930,855,0,0
-287,169,0,0,0,0,0,0,0,0,0,-1,937,855,0,0
-280,169,0,0,0,0,0,0,0,0,0,-1,944,855,0,0
-273,169,0,0,0,0,0,0,0,0,0,-1,951,855,0,0
-266,169,0,0,0,0,0,0,0,0,0,-1,958,855,0,0
-259,169,0,0,0,0,0,0,0,0,0,-1,965,855,0,0
-252,169,0,0,0,0,0,0,0,0,0,-1,972,855,0,0
-245,169,0,0,0,0,0,0,0,0,0,-1,979,855,0,0
-238,169,0,0,0,0,0,0,0,0,0,-1,986,855,0,0
-231,169,0,0,0,0,0,0,0,0,0,-1,993,855,0,0
-224,169,0,0,0,0,0,0,0,0,0,-1,1000,855,0,0
-217,169,0,0,0,0,0,0,0,0,0,-1,1007,855,0,0
-210,169,0,0,0,0,0,0,0,0,0,-1,1014,855,0,0
-203,169,0,0,0,0,0,0,0,0,0,-1,1021,855,0,0
-196,169,0,0,0,0,0,0,0,0,0,-1,1028,855,0,0
-189,169,0,0,0,0,0,0,0,0,0,-1,1035,855,0,0
-182,169,0,0,0,0,0,0,0,0,0,-1,1042,855,0,0
-175,169,0,0,0,0,0,0,0,0,0,-1,1049,855,0,0
-168,169,0,0,0,0,0,0,0,0,0,-1,1056,855,0,0
-161,169,0,0,0,0,0,0,0,0,0,-1,1063,855,0,0
-154,169,0,0,0,0,0,0,0,0,0,-1,1070,855,0,0
-147,169,0,0,0,0,0,0,0,0,0,-1,1077,855,0,0
-140,169,0,0,0,0,0,0,0,0,0,-1,1084,855,0,0
-133,169,0,0,0,0,0,0,0,0,0,-1,1091,855,0,0
-126,169,0,0,0,0,0,0,0,0,0,-1,1098,855,0,0
-119,169,0,0,0,0,0,0,0,0,0,-1,1105,855,0,0
-112,169,0,0,0,0,0,0,0,0,0,-1,1112,855,0,0
-105,169,0,0,0,0,0,0,0,0,0,-1,1119,855,0,0
-98,169,0,0,0,0,0,0,0,0,0,-1,1126,855,0,0
-91,169,0,0,0,0,0,0,0,0,0,-1,1133,855,0,0
-84,169,0,0,0,0,0,0,0,0,0,-1,1140,855,0,0
-77,169,0,0,0,0,0,0,0,0,0,-1,1147,855,0,0
-70,169,0,0,0,0,0,0,0,0,0,-1,1154,855,0,0
-63,169,0,0,0,0,0,0,0,0,0,-1,1161,855,0,0
-56,169,0,0,0,0,0,0,0,0,0,-1,1168,855,0,0
-49,169,0,0,0,0,0,0,0,0,0,-1,1175,855,0,0
-42,169,0,0,0,0,0,0,0,0,0,-1,1182,855,0,0
-35,169,0,0,0,0,0,0,0,0,0,-1,1189,855,0,0
-28,169,0,0,0,0,0,0,0,0,0,-1,1196,855,0,0
-21,169,0,0,0,0,0,0,0,0,0,-1,1203,855,0,0
-14,169,0,0,0,0,0,0,0,0,0,-1,1210,855,0,0
-7,169,0,0,0,0,0,0,0,0,0,-1,1217,855,0,0
0,169,0,0,0,0,0,0,0,0,0,-1,1224,855,0,0
7,169,0,0,0,0,0,0,0,0,0,-1,1231,855,0,0
14,169,0,0,0,0,0,0,0,0,0,-1,1238,855,0,0
21,169,0,0,0,0,0,0,0,0,0,-1,1245,855,0,0
28,169,0,0,0,0,0,0,0,0,0,-1,1252,855,0,0
35,169,0,0,0,0,0,0,0,0,0,-1,1259,855,0,0
42,169,0,0,0,0,0,0,0,0,0,-1,1266,855,0,0
49,169,0,0,0,0,0,0,0,0,0,-1,1273,855,0,0
56,169,0,0,0,0,0,0,0,0,0,-1,1280,855,0,0
63,169,0,0,0,0,0,0,0,0,0,-1,1287,855,0,0
70,169,0,0,0,0,0,0,0,0,0,-1,1294,855,0,0
77,169,0,0,0,0,0,0,0,0,0,-1,1301,855,0,0
84,169,0,0,0,0,0,0,0,0,0,-1,1308,855,0,0
91,169,0,0,0,0,0,0,0,0,0,-1,1315,855,0,0
98,169,0,0,0,0,0,0,0,0,0,-1,1322,855,0,0
105,169,0,0,0,0,0,0,0,0,0,-1,1329,855,0,0
112,169,0,0,0,0,0,0,0,0,0,-1,1336,855,0,0
119,169,0,0,0,0,0,0,0,0,0,-1,1343,855,0,0
126,169,0,0,0,0,0,0,0,0,0,-1,1350,855,0,0
133,169,0,0,0,0,0,0,0,0,0,-1,1357,855,0,0
140,169,0,0,0,0,0,0,0,0,0,-1,1364,855,0,0
147,169,0,0,0,0,0,0,0,0,0,-1,1371,855,0,0
154,169,0,0,0,0,0,0,0,0,0,-1,1378,855,0,0
161,169,0,0,0,0,0,0,0,0,0,-1,1385,855,0,0
168,169,0,0,0,0,0,0,0,0,0,-1,1392,855,0,0
175,169,0,0,0,0,0,0,0,0,0,-1,1399,855,0,0
182,169,0,0,0,0,0,0,0,0,0,-1,1406,855,0,0
189,169,0,0,0,0,0,0,0,0,0,-1,1413,855,0,0
196,169,0,0,0,0,0,0,0,0,0,-1,1420,855,0,0
203,169,0,0,0,0,0,0,0,0,0,-1,1427,855,0,0
210,169,0,0,0,0,0,0,0,0,0,-1,1434,855,0,0
217,169,0,0,0,0,0,0,0,0,0,-1,1441,855,0,0
224,169,0,0,0,0,0,0,0,0,0,-1,1448,855,0,0
231,169,0,0,0,0,0,0,0,0,0,-1,1455,855,0,0
238,169,0,0,0,0,0,0,0,0,0,-1,1462,855,0,0
245,169,0,0,0,0,0,0,0,0,0,-1,1469,855,0,0
252,169,0,0,0,0,0,0,0,0,0,-1,1476,855,0,0
259,169,0,0,0,0,0,0,0,0,0,-1,1483,855,0,0
266,169,0,0,0,0,0,0,0,0,0,-1,1490,855,0,0
273,169,0,0,0,0,0,0,0,0,0,-1,1497,855,0,0
280,169,0,0,0,0,0,0,0,0,0,-1,1504,855,0,0
287,169,0,0,0,0,0,0,0,0,0,-1,1511,855,0,0
294,169,0,0,0,0,0,0,0,0,0,-1,1518,855,0,0
301,169,0,0,0,0,0,0,0,0,0,-1,1525,855,0,0
308,169,0,0,0,0,0,0,0,0,0,-1,1532,855,0,0
315,169,0,0,0,0,0,0,0,0,0,-1,1539,855,0,0
322,169,0,0,0,0,0,0,0,0,0,-1,1546,855,0,0
329,169,0,0,0,0,0,0,0,0,0,-1,1553,855,0,0
336,169,0,0,0,0,0,0,0,0,0,-1,1560,855,0,0
343,169,0,0,0,0,0,0,0,0,0,-1,1567,855,0,0
350,169,0,0,0,0,0,0,0,0,0,-1,1574,855,0,0
357,169,0,0,0,0,0,0,0,0,0,-1,1581,855,0,0
364,169,0,0,0,0,0,0,0,0,0,-1,1588,855,0,0
371,169,0,0,0,0,0,0,0,0,0,-1,1595,855,0,0
378,169,0,0,0,0,0,0,0,0,0,-1,1602,855,0,0
385,169,0,0,0,0,0,0,0,0,0,-1,1609,855,0,0
392,169,0,0,0,0,0,0,0,0,0,-1,1616,855,0,0
399,169,0,0,0,0,0,0,0,0,0,-1,1623,855,0,0
406,169,0,0,0,0,0,0,0,0,0,-1,1630,855,0,0
413,169,0,0,0,0,0,0,0,0,0,-1,1637,855,0,0
420,169,0,0,0,0,0,0,0,0,0,-1,1644,855,0,0
427,169,0,0,0,0,0,0,0,0,0,-1,1651,855,0,0
434,169,0,0,0,0,0,0,0,0,0,-1,1658,855,0,0
441,169,0,0,0,0,0,0,0,0,0,-1,1665,855,0,0
448,169,0,0,0,0,0,0,0,0,0,-1,1672,855,0,0
455,169,0,0,0,0,0,0,0,0,0,-1,1679,855,0,0
462,169,0,0,0,0,0,0,0,0,0,-1,1686,855,0,0
469,169,0,0,0,0,0,0,0,0,0,-1,1693,855,0,0
476,169,0,0,0,0,0,0,0,0,0,-1,1700,855,0,0
483,169,0,0,0,0,0,0,0,0,0,-1,1707,855,0,0
490,169,0,0,0,0,0,0,0,0,0,-1,1714,855,0,0
497,169,0,0,0,0,0,0,0,0,0,-1,1721,855,0,0
504,169,0,0,0,0,0,0,0,0,0,-1,1728,855,0,0
511,169,0,0,0,0,0,0,0,0,0,-1,1735,855,0,0
518,169,0,0,0,0,0,0,0,0,0,-1,1742,855,0,0
525,169,0,0,0,0,0,0,0,0,0,-1,1749,855,0,0
532,169,0,0,0,0,0,0,0,0,0,-1,1756,855,0,0
539,169,0,0,0,0,0,0,0,0,0,-1,1763,855,0,0
546,169,0,0,0,0,0,0,0,0,0,-1,1770,855,0,0
553,169,0,0,0,0,0,0,0,0,0,-1,1777,855,0,0
560,169,0,0,0,0,0,0,0,0,0,-1,1784,855,0,0
567,169,0,0,0,0,0,0,0,0,0,-1,1791,855,0,0
574,169,0,0,0,0,0,0,0,0,0,-1,1798,855,0,0
581,169,0,0,0,0,0,0,0,0,0,-1,1805,855,0,0
588,169,0,0,0,0,0,0,0,0,0,-1,1812,855,0,0
595,169,0,0,0,0,0,0,0,0,0,-1,1819,855,0,0
602,169,0,0,0,0,0,0,0,0,0,-1,1826,855,0,0
609,169,0,0,0,0,0,0,0,0,0,-1,1833,855,0,0
616,169,21.2114,3.22809,-0.00421044,0.00439123,0.00497515,0.00666681,-0.00648602,1.14181,0.00759403,0.0463539,1840,855,21.2115,-3.22808
623,169,21.2788,3.26508,-0.0024995,0.00299579,0.00357072,0.00475365,-0.00425736,1.11333,0.00520514,0.0464814,1847,855,21.2789,-3.26508
630,169,21.343,3.1756,-0.00100582,0.00182409,0.00227718,0.00309011,-0.00227184,1.06339,0.00310772,0.0410902,1854,855,21.343,-3.17562
637,169,21.4402,3.16223,-7.12816e-05,0.000900288,0.00120655,0.00171518,-0.00088617,0.976781,0.0015271,0.0374184,1861,855,21.4402,-3.16222
644,169,21.3523,3.22009,-1.82722e-05,0.000315704,0.0003711,0.000555656,-0.000258225,0.996817,0.00048024,0.0364315,1868,855,21.3522,-3.22012
651,169,21.2645,3.22308,-0.000274685,-0.000116309,-0.000192869,1.29953e-05,-0.00040399,-0.980195,0.000273761,0.0359094,1875,855,21.2645,-3.2231
658,169,21.3221,3.09918,-0.000551996,-0.000357396,-0.000527821,8.20187e-05,-0.00099141,-0.876546,0.000689907,0.0372823,1882,855,21.3222,-3.09921
665,169,21.5044,2.91846,-0.000825058,-0.000459378,-0.000845825,0.000223143,-0.00150758,-0.891844,0.0010871,0.0492394,1889,855,21.5044,-2.91848
672,169,21.6815,2.8479,0,0,0,0,0,0,0,-1,1896,855,21.6816,-2.84789
679,169,17.7062,2.57404,0,0,0,0,0,0,0,-1,1903,855,17.7062,-2.57401
686,169,17.7908,2.77655,-0.001835,-0.000571457,-0.00153156,0.000453523,-0.00285998,-0.981016,0.00207442,0.0234036,1910,855,17.7907,-2.77656
693,169,17.8602,2.98187,-0.00226547,-0.000496714,-0.00148881,0.000350577,-0.00311276,-1.0534,0.00220136,0.0119311,1917,855,17.8602,-2.98188
700,169,17.8766,3.17926,-0.0024001,-0.000347339,-0.0014715,0.000420371,-0.00316781,-1.08992,0.00226504,0.0120529,1924,855,17.8766,-3.17928
707,169,17.8418,3.33331,-0.0022824,-0.000482865,-0.0014262,0.000303675,-0.00306894,-1.06681,0.00215433,0.013469,1931,855,17.8418,-3.3333
714,169,17.8071,3.50781,-0.00172889,-0.000294684,-0.00142585,0.000584237,-0.00260781,-1.01839,0.00196249,0.013058,1938,855,17.8071,-3.50782
721,169,17.8004,3.69495,-0.000372372,-0.000197498,-0.00158619,0.00130366,-0.00187353,-0.812932,0.00184416,0.0154196,1945,855,17.8004,-3.69492
728,169,17.8035,3.89471,0.00178469,-0.000218393,-0.0019525,0.00297753,-0.00141124,-0.548419,0.00258709,0.0127219,1952,855,17.8035,-3.8947
735,169,17.807,4.06708,0.00478814,-0.000372282,-0.00250687,0.00580542,-0.00138955,-0.385491,0.0044071,0.0172812,1959,855,17.807,-4.06706
742,169,17.8121,4.24323,0.00909101,-0.000934684,-0.00311493,0.00997998,-0.00182365,-0.277999,0.00733714,0.0129332,1966,855,17.8121,-4.24322
749,169,17.8344,4.34467,0.014376,-0.00163618,-0.00338444,0.015062,-0.00232215,-0.199975,0.0108981,0.0217624,1973,855,17.8344,-4.34464
756,169,17.9456,4.33307,0.0214561,-0.00270479,-0.00400792,0.0221036,-0.00335229,-0.160171,0.0159709,0.0442712,1980,855,17.9456,-4.33305
763,169,18.083,4.33093,0,0,0,0,0,0,0,-1,1987,855,18.083,-4.33096
770,169,19.0789,4.26471,0,0,0,0,0,0,0,-1,1994,855,19.0789,-4.26473
777,169,19.4125,4.48706,0,0,0,0,0,0,0,-1,2001,855,19.4124,-4.48706
784,169,19.0859,4.44293,0,0,0,0,0,0,0,-1,2008,855,19.086,-4.44293
791,169,0,0,0,0,0,0,0,0,0,-1,2015,855,0,0
798,169,0,0,0,0,0,0,0,0,0,-1,2022,855,0,0
805,169,0,0,0,0,0,0,0,0,0,-1,2029,855,0,0
812,169,0,0,0,0,0,0,0,0,0,-1,2036,855,0,0
-700,162,0,0,0,0,0,0,0,0,0,-1,524,862,0,0
-693,162,0,0,0,0,0,0,0,0,0,-1,531,862,0,0
-686,162,0,0,0,0,0,0,0,0,0,-1,538,862,0,0
-679,162,0,0,0,0,0,0,0,0,0,-1,545,862,0,0
-672,162,0,0,0,0,0,0,0,0,0,-1,552,862,0,0
-665,162,-9.20813,4.39966,0,0,0,0,0,0,0,-1,559,862,-9.20816,-4.39967
-658,162,-10.6985,3.69,-0.00808214,0.0831233,-0.000325553,0.0831245,-0.0080833,-1.56723,0.0582979,0.0458981,566,862,-10.6985,-3.69003
-651,162,-10.6459,3.50452,-0.003573,0.0654362,-0.00322051,0.0655862,-0.00372297,-1.52426,0.0450165,0.0498635,573,862,-10.646,-3.50449
-644,162,-10.437,3.35889,-0.00123796,0.0501797,-0.00405385,0.0504973,-0.00155561,-1.4926,0.0341952,0.046206,580,862,-10.437,-3.35887
-637,162,-10.8152,2.94775,0,0,0,0,0,0,0,-1,587,862,-10.8152,-2.94777
-630,162,-11.2914,2.2547,-0.000201167,0.0268606,-0.00265613,0.0271188,-0.000459405,-1.47388,0.0182343,0.0419688,594,862,-11.2914,-2.25468
-623,162,-11.3358,2.15924,-0.00010801,0.0181944,-0.00162027,0.0183367,-0.000250341,-1.48318,0.0123088,0.030857,601,862,-11.3358,-2.15927
-616,162,-11.3585,2.05664,-8.22506e-05,0.0114303,-0.000892984,0.0114991,-0.000151104,-1.49384,0.00771694,0.0169992,608,862,-11.3585,-2.05661
-609,162,-11.3649,1.90845,-0.000696453,0.00696603,7.2487e-06,0.00696603,-0.00069646,1.56985,0.00489273,0.0121878,615,862,-11.3648,-1.90842
-602,162,-11.3774,1.73041,-0.00249073,0.00356511,0.00139478,0.00387091,-0.00279653,1.35496,0.00386607,0.0110691,622,862,-11.3774,-1.73042
-595,162,-11.3857,1.57129,-0.00470054,0.000949108,0.00250279,0.00189835,-0.00564978,1.20828,0.00453378,0.0104124,629,862,-11.3857,-1.57127
-588,162,-11.3992,1.3894,-0.00589246,-0.000715066,0.0030203,0.000674124,-0.00728165,1.1397,0.00509403,0.0104395,636,862,-11.3992,-1.38942
-581,162,-11.4393,1.20441,-0.00738631,-0.00161736,0.00348431,2.15e-05,-0.00902518,1.13114,0.00602396,0.0128079,643,862,-11.4393,-1.20443
-574,162,-11.5166,1.02496,-0.00907619,-0.00180278,0.00360442,-0.000319187,-0.0105598,1.18033,0.00693591,0.0187525,650,862,-11.5166,-1.02494
-567,162,-11.4547,0.895874,-0.0103298,-0.00205562,0.00348998,-0.000780179,-0.0116052,1.22042,0.00749032,0.0270084,657,862,-11.4547,-0.895855
-560,162,-11.407,0.651123,-0.0108953,-0.00204666,0.00336334,-0.000913402,-0.0120286,1.2458,0.00773258,0.0223988,664,862,-11.407,-0.651147
-553,162,-11.3638,0.459656,-0.0112529,-0.00225351,0.0031149,-0.00128055,-0.0122258,1.26804,0.00775901,0.0284549,671,862,-11.3638,-0.459665
-546,162,-12.5604,0.741638,-0.0110618,-0.00219093,0.00287809,-0.00133898,-0.0119138,1.283,0.00753596,0.0396752,678,862,-12.5604,-0.741663
-539,162,-13.6825,0.979248,0,0,0,0,0,0,0,-1,685,862,-13.6825,-0.979262
-532,162,-13.9661,1.138,-0.00874651,-0.0020009,0.00214548,-0.00137634,-0.00937107,1.28752,0.00584288,0.0361186,692,862,-13.966,-1.138
-525,162,-13.9698,1.07587,-0.00656544,-0.00173821,0.00162091,-0.00124444,-0.00705921,1.2751,0.00435106,0.0400733,699,862,-13.9698,-1.07587
-518,162,-14.0718,0.966003,-0.00336842,-0.00137821,0.00104302,-0.000931745,-0.00381489,1.16634,0.00229657,0.0402816,706,862,-14.0718,-0.965989
-511,162,-13.9917,0.935669,0.00125334,-0.000914079,0.000487947,0.00135812,-0.00101886,0.211534,0.001377,0.0433362,713,862,-13.9917,-0.935639
-504,162,-13.9314,0.927979,0.00738854,-0.000431665,0.000184042,0.00739287,-0.000435994,0.0235168,0.00508015,0.0451925,720,862,-13.9314,-0.927961
-497,162,-13.9442,0.959351,0.0136938,-0.000323146,0.00123584,0.0138019,-0.000431273,0.0872705,0.00934835,0.0436157,727,862,-13.9442,-0.959378
-490,162,0,0,0,0,0,0,0,0,0,-1,734,862,0,0
-483,162,0,0,0,0,0,0,0,0,0,-1,741,862,0,0
-476,162,0,0,0,0,0,0,0,0,0,-1,748,862,0,0
-469,162,0,0,0,0,0,0,0,0,0,-1,755,862,0,0
-462,162,0,0,0,0,0,0,0,0,0,-1,762,862,0,0
-455,162,0,0,0,0,0,0,0,0,0,-1,769,862,0,0
-448,162,0,0,0,0,0,0,0,0,0,-1,776,862,0,0
-441,162,0,0,0,0,0,0,0,0,0,-1,783,862,0,0
-434,162,0,0,0,0,0,0,0,0,0,-1,790,862,0,0
-427,162,0,0,0,0,0,0,0,0,0,-1,797,862,0,0
-420,162,0,0,0,0,0,0,0,0,0,-1,804,862,0,0
-413,162,0,0,0,0,0,0,0,0,0,-1,811,862,0,0
-406,162,0,0,0,0,0,0,0,0,0,-1,818,862,0,0
-399,162,0,0,0,0,0,0,0,0,0,-1,825,862,0,0
-392,162,0,0,0,0,0,0,0,0,0,-1,832,862,0,0
-385,162,0,0,0,0,0,0,0,0,0,-1,839,862,0,0
-378,162,0,0,0,0,0,0,0,0,0,-1,846,862,0,0
-371,162,0,0,0,0,0,0,0,0,0,-1,853,862,0,0
-364,162,0,0,0,0,0,0,0,0,0,-1,860,862,0,0
-357,162,0,0,0,0,0,0,0,0,0,-1,867,862,0,0
-350,162,0,0,0,0,0,0,0,0,0,-1,874,862,0,0
-343,162,0,0,0,0,0,0,0,0,0,-1,881,862,0,0
-336,162,0,0,0,0,0,0,0,0,0,-1,888,862,0,0
-329,162,0,0,0,0,0,0,0,0,0,-1,895,862,0,0
-322,162,0,0,0,0,0,0,0,0,0,-1,902,862,0,0
-315,162,0,0,0,0,0,0,0,0,0,-1,909,862,0,0
-308,162,0,0,0,0,0,0,0,0,0,-1,916,862,0,0
-301,162,0,0,0,0,0,0,0,0,0,-1,923,862,0,0
-294,162,0,0,0,0,0,0,0,0,0,-1,930,862,0,0
-287,162,0,0,0,0,0,0,0,0,0,-1,937,862,0,0
-280,162,0,0,0,0,0,0,0,0,0,-1,944,862,0,0
-273,162,0,0,0,0,0,0,0,0,0,-1,951,862,0,0
-266,162,0,0,0,0,0,0,0,0,0,-1,958,862,0,0
-259,162,0,0,0,0,0,0,0,0,0,-1,965,862,0,0
-252,162,0,0,0,0,0,0,0,0,0,-1,972,862,0,0
-245,162,0,0,0,0,0,0,0,0,0,-1,979,862,0,0
-238,162,0,0,0,0,0,0,0,0,0,-1,986,862,0,0
-231,162,0,0,0,0,0,0,0,0,0,-1,993,862,0,0
-224,162,0,0,0,0,0,0,0,0,0,-1,1000,862,0,0
-217,162,0,0,0,0,0,0,0,0,0,-1,1007,862,0,0
-210,162,0,0,0,0,0,0,0,0,0,-1,1014,862,0,0
-203,162,0,0,0,0,0,0,0,0,0,-1,1021,862,0,0
-196,162,0,0,0,0,0,0,0,0,0,-1,1028,862,0,0
-189,162,0,0,0,0,0,0,0,0,0,-1,1035,862,0,0
-182,162,0,0,0,0,0,0,0,0,0,-1,1042,862,0,0
-175,162,0,0,0,0,0,0,0,0,0,-1,1049,862,0,0
-168,162,0,0,0,0,0,0,0,0,0,-1,1056,862,0,0
-161,162,0,0,0,0,0,0,0,0,0,-1,1063,862,0,0
-154,162,0,0,0,0,0,0,0,0,0,-1,1070,862,0,0
-147,162,0,0,0,0,0,0,0,0,0,-1,1077,862,0,0
-140,162,0,0,0,0,0,0,0,0,0,-1,1084,862,0,0
-133,162,0,0,0,0,0,0,0,0,0,-1,1091,862,0,0
-126,162,0,0,0,0,0,0,0,0,0,-1,1098,862,0,0
-119,162,0,0,0,0,0,0,0,0,0,-1,1105,862,0,0
-112,162,0,0,0,0,0,0,0,0,0,-1,1112,862,0,0
-105,162,0,0,0,0,0,0,0,0,0,-1,1119,862,0,0
-98,162,0,0,0,0,0,0,0,0,0,-1,1126,862,0,0
-91,162,0,0,0,0,0,0,0,0,0,-1,1133,862,0,0
-84,162,0,0,0,0,0,0,0,0,0,-1,1140,862,0,0
-77,162,0,0,0,0,0,0,0,0,0,-1,1147,862,0,0
-70,162,0,0,0,0,0,0,0,0,0,-1,1154,862,0,0
-63,162,0,0,0,0,0,0,0,0,0,-1,1161,862,0,0
-56,162,0,0,0,0,0,0,0,0,0,-1,1168,862,0,0
-49,162,0,0,0,0,0,0,0,0,0,-1,1175,862,0,0
-42,162,0,0,0,0,0,0,0,0,0,-1,1182,862,0,0
-35,162,0,0,0,0,0,0,0,0,0,-1,1189,862,0,0
-28,162,0,0,0,0,0,0,0,0,0,-1,1196,862,0,0
-21,162,0,0,0,0,0,0,0,0,0,-1,1203,862,0,0
-14,162,0,0,0,0,0,0,0,0,0,-1,1210,862,0,0
-7,162,0,0,0,0,0,0,0,0,0,-1,1217,862,0,0
0,162,0,0,0,0,0,0,0,0,0,-1,1224,862,0,0
7,162,0,0,0,0,0,0,0,0,0,-1,1231,862,0,0
14,162,0,0,0,0,0,0,0,0,0,-1,1238,862,0,0
21,162,0,0,0,0,0,0,0,0,0,-1,1245,862,0,0
28,162,0,0,0,0,0,0,0,0,0,-1,1252,862,0,0
35,162,0,0,0,0,0,0,0,0,0,-1,1259,862,0,0
42,162,0,0,0,0,0,0,0,0,0,-1,1266,862,0,0
49,162,0,0,0,0,0,0,0,0,0,-1,1273,862,0,0
56,162,0,0,0,0,0,0,0,0,0,-1,1280,862,0,0
63,162,0,0,0,0,0,0,0,0,0,-1,1287,862,0,0
70,162,0,0,0,0,0,0,0,0,0,-1,1294,862,0,0
77,162,0,0,0,0,0,0,0,0,0,-1,1301,862,0,0
84,162,0,0,0,0,0,0,0,0,0,-1,1308,862,0,0
91,162,0,0,0,0,0,0,0,0,0,-1,1315,862,0,0
98,162,0,0,0,0,0,0,0,0,0,-1,1322,862,0,0
105,162,0,0,0,0,0,0,0,0,0,-1,1329,862,0,0
112,162,0,0,0,0,0,0,0,0,0,-1,1336,862,0,0
119,162,0,0,0,0,0,0,0,0,0,-1,1343,862,0,0
126,162,0,0,0,0,0,0,0,0,0,-1,1350,862,0,0
133,162,0,0,0,0,0,0,0,0,0,-1,1357,862,0,0
140,162,0,0,0,0,0,0,0,0,0,-1,1364,862,0,0
147,162,0,0,0,0,0,0,0,0,0,-1,1371,862,0,0
154,162,0,0,0,0,0,0,0,0,0,-1,1378,862,0,0
161,162,0,0,0,0,0,0,0,0,0,-1,1385,862,0,0
168,162,0,0,0,0,0,0,0,0,0,-1,1392,862,0,0
175,162,0,0,0,0,0,0,0,0,0,-1,1399,862,0,0
182,162,0,0,0,0,0,0,0,0,0,-1,1406,862,0,0
189,162,0,0,0,0,0,0,0,0,0,-1,1413,862,0,0
196,162,0,0,0,0,0,0,0,0,0,-1,1420,862,0,0
203,162,0,0,0,0,0,0,0,0,0,-1,1427,862,0,0
210,162,0,0,0,0,0,0,0,0,0,-1,1434,862,0,0
217,162,0,0,0,0,0,0,0,0,0,-1,1441,862,0,0
224,162,0,0,0,0,0,0,0,0,0,-1,1448,862,0,0
231,162,0,0,0,0,0,0,0,0,0,-1,1455,862,0,0
238,162,0,0,0,0,0,0,0,0,0,-1,1462,862,0,0
245,162,0,0,0,0,0,0,0,0,0,-1,1469,862,0,0
252,162,0,0,0,0,0,0,0,0,0,-1,1476,862,0,0
259,162,0,0,0,0,0,0,0,0,0,-1,1483,862,0,0
266,162,0,0,0,0,0,0,0,0,0,-1,1490,862,0,0
273,162,0,0,0,0,0,0,0,0,0,-1,1497,862,0,0
280,162,0,0,0,0,0,0,0,0,0,-1,1504,862,0,0
287,162,0,0,0,0,0,0,0,0,0,-1,1511,862,0,0
294,162,0,0,0,0,0,0,0,0,0,-1,1518,862,0,0
301,162,0,0,0,0,0,0,0,0,0,-1,1525,862,0,0
308,162,0,0,0,0,0,0,0,0,0,-1,1532,862,0,0
315,162,0,0,0,0,0,0,0,0,0,-1,1539,862,0,0
322,162,0,0,0,0,0,0,0,0,0,-1,1546,862,0,0
329,162,0,0,0,0,0,0,0,0,0,-1,1553,862,0,0
336,162,0,0,0,0,0,0,0,0,0,-1,1560,862,0,0
343,162,0,0,0,0,0,0,0,0,0,-1,1567,862,0,0
350,162,0,0,0,0,0,0,0,0,0,-1,1574,862,0,0
357,162,0,0,0,0,0,0,0,0,0,-1,1581,862,0,0
364,162,0,0,0,0,0,0,0,0,0,-1,1588,862,0,0
371,162,0,0,0,0,0,0,0,0,0,-1,1595,862,0,0
378,162,0,0,0,0,0,0,0,0,0,-1,1602,862,0,0
385,162,0,0,0,0,0,0,0,0,0,-1,1609,862,0,0
392,162,0,0,0,0,0,0,0,0,0,-1,1616,862,0,0
399,162,0,0,0,0,0,0,0,0,0,-1,1623,862,0,0
406,162,0,0,0,0,0,0,0,0,0,-1,1630,862,0,0
413,162,0,0,0,0,0,0,0,0,0,-1,1637,862,0,0
420,162,0,0,0,0,0,0,0,0,0,-1,1644,862,0,0
427,162,0,0,0,0,0,0,0,0,0,-1,1651,862,0,0
434,162,0,0,0,0,0,0,0,0,0,-1,1658,862,0,0
441,162,0,0,0,0,0,0,0,0,0,-1,1665,862,0,0
448,162,0,0,0,0,0,0,0,0,0,-1,1672,862,0,0
455,162,0,0,0,0,0,0,0,0,0,-1,1679,862,0,0
462,162,0,0,0,0,0,0,0,0,0,-1,1686,862,0,0
469,162,0,0,0,0,0,0,0,0,0,-1,1693,862,0,0
476,162,0,0,0,0,0,0,0,0,0,-1,1700,862,0,0
483,162,0,0,0,0,0,0,0,0,0,-1,1707,862,0,0
490,162,0,0,0,0,0,0,0,0,0,-1,1714,862,0,0
497,162,0,0,0,0,0,0,0,0,0,-1,1721,862,0,0
504,162,0,0,0,0,0,0,0,0,0,-1,1728,862,0,0
511,162,0,0,0,0,0,0,0,0,0,-1,1735,862,0,0
518,162,0,0,0,0,0,0,0,0,0,-1,1742,862,0,0
525,162,0,0,0,0,0,0,0,0,0,-1,1749,862,0,0
532,162,0,0,0,0,0,0,0,0,0,-1,1756,862,0,0
539,162,0,0,0,0,0,0,0,0,0,-1,1763,862,0,0
546,162,0,0,0,0,0,0,0,0,0,-1,1770,862,0,0
553,162,0,0,0,0,0,0,0,0,0,-1,1777,862,0,0
560,162,0,0,0,0,0,0,0,0,0,-1,1784,862,0,0
567,162,0,0,0,0,0,0,0,0,0,-1,1791,862,0,0
574,162,0,0,0,0,0,0,0,0,0,-1,1798,862,0,0
581,162,0,0,0,0,0,0,0,0,0,-1,1805,862,0,0
588,162,0,0,0,0,0,0,0,0,0,-1,1812,862,0,0
595,162,0,0,0,0,0,0,0,0,0,-1,1819,862,0,0
602,162,0,0,0,0,0,0,0,0,0,-1,1826,862,0,0
609,162,0,0,0,0,0,0,0,0,0,-1,1833,862,0,0
616,162,21.417,2.91699,-0.00585265,0.00404334,0.00614137,0.00698199,-0.0087913,1.1245,0.00912666,0.0456938,1840,862,21.417,-2.91701
623,162,21.3473,3.00781,-0.00376268,0.00284405,0.00434367,0.00499776,-0.00591639,1.11049,0.00630872,0.0431982,1847,862,21.3473,-3.00783
630,162,21.2975,3.08148,-0.00185355,0.00179245,0.00274715,0.00326645,-0.00332754,1.07834,0.0038071,0.0404885,1854,862,21.2975,-3.0815
637,162,21.3972,3.14514,-0.000563749,0.000919326,0.00143471,0.0017928,-0.00143723,1.02392,0.00186862,0.0399589,1861,862,21.3972,-3.14514
644,162,21.4287,3.1441,-0.000369163,0.000344621,0.000415086,0.000535149,-0.000559691,1.14048,0.000632159,0.0387315,1868,862,21.4288,-3.14411
651,162,21.3904,3.07452,-0.000774921,-8.1415e-05,-0.000304492,3.33003e-05,-0.000889636,-1.2105,0.000604497,0.0355293,1875,862,21.3904,-3.07449
658,162,21.3898,2.9588,-0.00123134,-0.000314754,-0.000725846,8.53725e-05,-0.00163147,-1.06699,0.00111719,0.0365128,1882,862,21.3898,-2.9588
665,162,21.4541,2.85297,-0.00167018,-0.000424307,-0.001065,0.000186558,-0.00228105,-1.05003,0.00158654,0.0431846,1889,862,21.4541,-2.85297
672,162,21.5005,2.79993,0,0,0,0,0,0,0,-1,1896,862,21.5005,-2.79995
679,162,19.4164,2.99066,0,0,0,0,0,0,0,-1,1903,862,19.4164,-2.99068
686,162,18.0559,2.84167,-0.00304677,-0.000570568,-0.00173455,0.000322422,-0.00393976,-1.09536,0.00274031,0.0313364,1910,862,18.056,-2.84167
693,162,18.017,3.00439,-0.00358128,-0.000486509,-0.00168111,0.000250953,-0.00431874,-1.1574,0.00296635,0.0157004,1917,862,18.017,-3.00442
700,162,18.0472,3.18591,-0.00381561,-0.000361772,-0.0016343,0.000288952,-0.00446634,-1.19187,0.0030784,0.01505,1924,862,18.0472,-3.18593
707,162,18.0377,3.33594,-0.00372809,-0.000466054,-0.00156153,0.000160933,-0.00435507,-1.18898,0.00295849,0.0112498,1931,862,18.0377,-3.33593
714,162,17.9889,3.51013,-0.00302353,-0.000306562,-0.00151392,0.000369024,-0.00369912,-1.15107,0.00259784,0.0151099,1938,862,17.9889,-3.51015
721,162,17.9186,3.75116,-0.00133989,-0.000234273,-0.00158285,0.00088953,-0.00246369,-0.9534,0.00200583,0.0274695,1945,862,17.9186,-3.75116
728,162,17.9564,3.92865,0.00134021,-0.000289337,-0.00184039,0.00253811,-0.00148724,-0.577007,0.00235029,0.0213615,1952,862,17.9564,-3.92863
735,162,18.0157,4.07867,0.00503001,-0.000417899,-0.00226538,0.00584892,-0.00123681,-0.346872,0.00437028,0.01082,1959,862,18.0157,-4.07865
742,162,18.006,4.24042,0.0100926,-0.00113255,-0.00260095,0.0106659,-0.00170592,-0.216977,0.00774217,0.0119469,1966,862,18.006,-4.24039
749,162,17.9969,4.4046,0.0160319,-0.00198131,-0.00228212,0.0163166,-0.00226594,-0.12408,0.0117064,0.0155862,1973,862,17.9969,-4.40463
756,162,18.0104,4.57947,0.023521,-0.00322602,-0.00233731,0.0237237,-0.00342873,-0.0865123,0.0170738,0.0370876,1980,862,18.0104,-4.57949
763,162,18.0193,4.76849,0,0,0,0,0,0,0,-1,1987,862,18.0192,-4.76847
770,162,19.2595,4.93268,0,0,0,0,0,0,0,-1,1994,862,19.2595,-4.9327
777,162,18.0955,4.13538,0,0,0,0,0,0,0,-1,2001,862,18.0955,-4.13537
784,162,19.4177,4.43292,0,0,0,0,0,0,0,-1,2008,862,19.4178,-4.43293
791,162,0,0,0,0,0,0,0,0,0,-1,2015,862,0,0
798,162,0,0,0,0,0,0,0,0,0,-1,2022,862,0,0
805,162,0,0,0,0,0,0,0,0,0,-1,2029,862,0,0
812,162,0,0,0,0,0,0,0,0,0,-1,2036,862,0,0
-700,155,0,0,0,0,0,0,0,0,0,-1,524,869,0,0
-693,155,0,0,0,0,0,0,0,0,0,-1,531,869,0,0
-686,155,0,0,0,0,0,0,0,0,0,-1,538,869,0,0
-679,155,0,0,0,0,0,0,0,0,0,-1,545,869,0,0
-672,155,0,0,0,0,0,0,0,0,0,-1,552,869,0,0
-665,155,-10.1467,3.90454,-0.0114895,0.106227,0.0047863,0.106421,-0.0116838,1.53023,0.0751452,0.0492394,559,869,-10.1467,-3.90452
-658,155,-10.6135,3.38226,-0.0047897,0.0844647,-0.000642777,0.0844693,-0.00479433,-1.5636,0.0579771,0.0457165,566,869,-10.6135,-3.38228
-651,155,-10.7866,3.23138,-0.00131374,0.0657167,-0.00314578,0.065864,-0.00146105,-1.524,0.0444044,0.047916,573,869,-10.7866,-3.23138
-644,155,-10.8666,3.02203,0.000242696,0.0498895,-0.00381577,0.0501811,-4.88646e-05,-1.49454,0.0334704,0.0473393,580,869,-10.8667,-3.02202
-637,155,-11.2215,2.62134,0.000603752,0.0368112,-0.00338337,0.0371246,0.000290308,-1.47842,0.0246535,0.0464476,587,869,-11.2215,-2.62136
-630,155,-11.4489,2.32715,0.000335526,0.0262957,-0.00242224,0.0265197,0.00011145,-1.47855,0.0176428,0.0398821,594,869,-11.4489,-2.32716
-623,155,-11.4807,2.19318,0.000280107,0.0174858,-0.00152142,0.0176193,0.000146609,-1.48328,0.0116976,0.0230782,601,869,-11.4807,-2.19321
-616,155,-11.5112,2.0578,0.000153376,0.0106619,-0.000868024,0.0107332,8.21585e-05,-1.48893,0.00712821,0.0127095,608,869,-11.5112,-2.0578
-609,155,-11.5255,1.89771,-0.000767752,0.00643311,7.5643e-05,0.0064339,-0.000768546,1.56029,0.00456706,0.0118544,615,869,-11.5255,-1.89769
-602,155,-11.541,1.71832,-0.002928,0.00314232,0.00157001,0.00352434,-0.00331002,1.33211,0.00394647,0.0107207,622,869,-11.541,-1.71833
-595,155,-11.5484,1.55157,-0.00531189,0.000665739,0.0027442,0.00173447,-0.00638062,1.19942,0.00493458,0.0100939,629,869,-11.5484,-1.55157
-588,155,-11.5622,1.38666,-0.00642411,-0.000773906,0.00318135,0.000655658,-0.00785367,1.14848,0.00546745,0.0115091,636,869,-11.5622,-1.38665
-581,155,-11.6407,1.26935,-0.00785493,-0.00157978,0.00356791,3.38946e-05,-0.0094686,1.14605,0.00632373,0.0161032,643,869,-11.6408,-1.26935
-574,155,-11.6831,1.11414,-0.00945348,-0.00175178,0.0036492,-0.000297376,-0.0109079,1.19154,0.00717486,0.0225731,650,869,-11.6831,-1.11415
-567,155,-11.6209,0.891113,-0.0105845,-0.00194518,0.00351843,-0.000693595,-0.0118361,1.22903,0.00767,0.024283,657,869,-11.6209,-0.891129
-560,155,-11.5584,0.728271,-0.0110088,-0.00196032,0.00344149,-0.000800147,-0.012169,1.24565,0.00785954,0.0208699,664,869,-11.5584,-0.728295
-553,155,-11.6219,0.512146,-0.0112599,-0.00222043,0.00321757,-0.00119213,-0.0122882,1.26147,0.00782511,0.0424076,671,869,-11.6219,-0.512159
-546,155,-12.8446,0.814941,-0.0109445,-0.00221402,0.00297454,-0.00129692,-0.0118616,1.27173,0.00751285,0.0477079,678,869,-12.8446,-0.814923
-539,155,-13.736,1.18396,0,0,0,0,0,0,0,-1,685,869,-13.736,-1.18397
-532,155,-13.9638,1.12909,-0.0080533,-0.00217307,0.00213017,-0.0014825,-0.00874388,1.2573,0.00540331,0.033904,692,869,-13.9638,-1.12908
-525,155,-13.9335,1.18146,-0.00537778,-0.00204436,0.00150511,-0.00146534,-0.0059568,1.20355,0.00358403,0.0372835,699,869,-13.9335,-1.18145
-518,155,-14.0177,0.956055,-0.00146328,-0.00185719,0.000811198,-0.000825466,-0.002495,0.666305,0.00146771,0.0432433,706,869,-14.0177,-0.956038
-511,155,-13.8258,0.820618,0.00398623,-0.00163179,0.000163889,0.003991,-0.00163656,0.029139,0.00334252,0.0427626,713,869,-13.8258,-0.820627
-504,155,-13.7593,0.912292,0.0106662,-0.00152234,-0.000114551,0.0106673,-0.00152341,-0.00939717,0.00766994,0.0401501,720,869,-13.7594,-0.912272
-497,155,0,0,0,0,0,0,0,0,0,-1,727,869,0,0
-490,155,0,0,0,0,0,0,0,0,0,-1,734,869,0,0
-483,155,0,0,0,0,0,0,0,0,0,-1,741,869,0,0
-476,155,0,0,0,0,0,0,0,0,0,-1,748,869,0,0
-469,155,0,0,0,0,0,0,0,0,0,-1,755,869,0,0
-462,155,0,0,0,0,0,0,0,0,0,-1,762,869,0,0
-455,155,0,0,0,0,0,0,0,0,0,-1,769,869,0,0
-448,155,0,0,0,0,0,0,0,0,0,-1,776,869,0,0
-441,155,0,0,0,0,0,0,0,0,0,-1,783,869,0,0
-434,155,0,0,0,0,0,0,0,0,0,-1,790,869,0,0
-427,155,0,0,0,0,0,0,0,0,0,-1,797,869,0,0
-420,155,0,0,0,0,0,0,0,0,0,-1,804,869,0,0
-413,155,0,0,0,0,0,0,0,0,0,-1,811,869,0,0
-406,155,0,0,0,0,0,0,0,0,0,-1,818,869,0,0
-399,155,0,0,0,0,0,0,0,0,0,-1,825,869,0,0
-392,155,0,0,0,0,0,0,0,0,0,-1,832,869,0,0
-385,155,0,0,0,0,0,0,0,0,0,-1,839,869,0,0
-378,155,0,0,0,0,0,0,0,0,0,-1,846,869,0,0
-371,155,0,0,0,0,0,0,0,0,0,-1,853,869,0,0
-364,155,0,0,0,0,0,0,0,0,0,-1,860,869,0,0
-357,155,0,0,0,0,0,0,0,0,0,-1,867,869,0,0
-350,155,0,0,0,0,0,0,0,0,0,-1,874,869,0,0
-343,155,0,0,0,0,0,0,0,0,0,-1,881,869,0,0
-336,155,0,0,0,0,0,0,0,0,0,-1,888,869,0,0
-329,155,0,0,0,0,0,0,0,0,0,-1,895,869,0,0
-322,155,0,0,0,0,0,0,0,0,0,-1,902,869,0,0
-315,155,0,0,0,0,0,0,0,0,0,-1,909,869,0,0
-308,155,0,0,0,0,0,0,0,0,0,-1,916,869,0,0
-301,155,0,0,0,0,0,0,0,0,0,-1,923,869,0,0
-294,155,0,0,0,0,0,0,0,0,0,-1,930,869,0,0
-287,155,0,0,0,0,0,0,0,0,0,-1,937,869,0,0
-280,155,0,0,0,0,0,0,0,0,0,-1,944,869,0,0
-273,155,0,0,0,0,0,0,0,0,0,-1,951,869,0,0
-266,155,0,0,0,0,0,0,0,0,0,-1,958,869,0,0
-259,155,0,0,0,0,0,0,0,0,0,-1,965,869,0,0
-252,155,0,0,0,0,0,0,0,0,0,-1,972,869,0,0
-245,155,0,0,0,0,0,0,0,0,0,-1,979,869,0,0
-238,155,0,0,0,0,0,0,0,0,0,-1,986,869,0,0
-231,155,0,0,0,0,0,0,0,0,0,-1,993,869,0,0
-224,155,0,0,0,0,0,0,0,0,0,-1,1000,869,0,0
-217,155,0,0,0,0,0,0,0,0,0,-1,1007,869,0,0
-210,155,0,0,0,0,0,0,0,0,0,-1,1014,869,0,0
-203,155,0,0,0,0,0,0,0,0,0,-1,1021,869,0,0
-196,155,0,0,0,0,0,0,0,0,0,-1,1028,869,0,0
-189,155,0,0,0,0,0,0,0,0,0,-1,1035,869,0,0
-182,155,0,0,0,0,0,0,0,0,0,-1,1042,869,0,0
-175,155,0,0,0,0,0,0,0,0,0,-1,1049,869,0,0
-168,155,0,0,0,0,0,0,0,0,0,-1,1056,869,0,0
-161,155,0,0,0,0,0,0,0,0,0,-1,1063,869,0,0
-154,155,0,0,0,0,0,0,0,0,0,-1,1070,869,0,0
-147,155,0,0,0,0,0,0,0,0,0,-1,1077,869,0,0
-140,155,0,0,0,0,0,0,0,0,0,-1,1084,869,0,0
-133,155,0,0,0,0,0,0,0,0,0,-1,1091,869,0,0
-126,155,0,0,0,0,0,0,0,0,0,-1,1098,869,0,0
-119,155,0,0,0,0,0,0,0,0,0,-1,1105,869,0,0
-112,155,0,0,0,0,0,0,0,0,0,-1,1112,869,0,0
-105,155,0,0,0,0,0,0,0,0,0,-1,1119,869,0,0
-98,155,0,0,0,0,0,0,0,0,0,-1,1126,869,0,0
-91,155,0,0,0,0,0,0,0,0,0,-1,1133,869,0,0
-84,155,0,0,0,0,0,0,0,0,0,-1,1140,869,0,0
-77,155,0,0,0,0,0,0,0,0,0,-1,1147,869,0,0
-70,155,0,0,0,0,0,0,0,0,0,-1,1154,869,0,0
-63,155,0,0,0,0,0,0,0,0,0,-1,1161,869,0,0
-56,155,0,0,0,0,0,0,0,0,0,-1,1168,869,0,0
-49,155,0,0,0,0,0,0,0,0,0,-1,1175,869,0,0
-42,155,0,0,0,0,0,0,0,0,0,-1,1182,869,0,0
-35,155,0,0,0,0,0,0,0,0,0,-1,1189,869,0,0
-28,155,0,0,0,0,0,0,0,0,0,-1,1196,869,0,0
-21,155,0,0,0,0,0,0,0,0,0,-1,1203,869,0,0
-14,155,0,0,0,0,0,0,0,0,0,-1,1210,869,0,0
-7,155,0,0,0,0,0,0,0,0,0,-1,1217,869,0,0
0,155,0,0,0,0,0,0,0,0,0,-1,1224,869,0,0
7,155,0,0,0,0,0,0,0,0,0,-1,1231,869,0,0
14,155,0,0,0,0,0,0,0,0,0,-1,1238,869,0,0
21,155,0,0,0,0,0,0,0,0,0,-1,1245,869,0,0
28,155,0,0,0,0,0,0,0,0,0,-1,1252,869,0,0
35,155,0,0,0,0,0,0,0,0,0,-1,1259,869,0,0
42,155,0,0,0,0,0,0,0,0,0,-1,1266,869,0,0
49,155,0,0,0,0,0,0,0,0,0,-1,1273,869,0,0
56,155,0,0,0,0,0,0,0,0,0,-1,1280,869,0,0
63,155,0,0,0,0,0,0,0,0,0,-1,1287,869,0,0
70,155,0,0,0,0,0,0,0,0,0,-1,1294,869,0,0
77,155,0,0,0,0,0,0,0,0,0,-1,1301,869,0,0
84,155,0,0,0,0,0,0,0,0,0,-1,1308,869,0,0
91,155,0,0,0,0,0,0,0,0,0,-1,1315,869,0,0
98,155,0,0,0,0,0,0,0,0,0,-1,1322,869,0,0
105,155,0,0,0,0,0,0,0,0,0,-1,1329,869,0,0
112,155,0,0,0,0,0,0,0,0,0,-1,1336,869,0,0
119,155,0,0,0,0,0,0,0,0,0,-1,1343,869,0,0
126,155,0,0,0,0,0,0,0,0,0,-1,1350,869,0,0
133,155,0,0,0,0,0,0,0,0,0,-1,1357,869,0,0
140,155,0,0,0,0,0,0,0,0,0,-1,1364,869,0,0
147,155,0,0,0,0,0,0,0,0,0,-1,1371,869,0,0
154,155,0,0,0,0,0,0,0,0,0,-1,1378,869,0,0
161,155,0,0,0,0,0,0,0,0,0,-1,1385,869,0,0
168,155,0,0,0,0,0,0,0,0,0,-1,1392,869,0,0
175,155,0,0,0,0,0,0,0,0,0,-1,1399,869,0,0
182,155,0,0,0,0,0,0,0,0,0,-1,1406,869,0,0
189,155,0,0,0,0,0,0,0,0,0,-1,1413,869,0,0
196,155,0,0,0,0,0,0,0,0,0,-1,1420,869,0,0
203,155,0,0,0,0,0,0,0,0,0,-1,1427,869,0,0
210,155,0,0,0,0,0,0,0,0,0,-1,1434,869,0,0
217,155,0,0,0,0,0,0,0,0,0,-1,1441,869,0,0
224,155,0,0,0,0,0,0,0,0,0,-1,1448,869,0,0
231,155,0,0,0,0,0,0,0,0,0,-1,1455,869,0,0
238,155,0,0,0,0,0,0,0,0,0,-1,1462,869,0,0
245,155,0,0,0,0,0,0,0,0,0,-1,1469,869,0,0
252,155,0,0,0,0,0,0,0,0,0,-1,1476,869,0,0
259,155,0,0,0,0,0,0,0,0,0,-1,1483,869,0,0
266,155,0,0,0,0,0,0,0,0,0,-1,1490,869,0,0
273,155,0,0,0,0,0,0,0,0,0,-1,1497,869,0,0
280,155,0,0,0,0,0,0,0,0,0,-1,1504,869,0,0
287,155,0,0,0,0,0,0,0,0,0,-1,1511,869,0,0
294,155,0,0,0,0,0,0,0,0,0,-1,1518,869,0,0
301,155,0,0,0,0,0,0,0,0,0,-1,1525,869,0,0
308,155,0,0,0,0,0,0,0,0,0,-1,1532,869,0,0
315,155,0,0,0,0,0,0,0,0,0,-1,1539,869,0,0
322,155,0,0,0,0,0,0,0,0,0,-1,1546,869,0,0
329,155,0,0,0,0,0,0,0,0,0,-1,1553,869,0,0
336,155,0,0,0,0,0,0,0,0,0,-1,1560,869,0,0
343,155,0,0,0,0,0,0,0,0,0,-1,1567,869,0,0
350,155,0,0,0,0,0,0,0,0,0,-1,1574,869,0,0
357,155,0,0,0,0,0,0,0,0,0,-1,1581,869,0,0
364,155,0,0,0,0,0,0,0,0,0,-1,1588,869,0,0
371,155,0,0,0,0,0,0,0,0,0,-1,1595,869,0,0
378,155,0,0,0,0,0,0,0,0,0,-1,1602,869,0,0
385,155,0,0,0,0,0,0,0,0,0,-1,1609,869,0,0
392,155,0,0,0,0,0,0,0,0,0,-1,1616,869,0,0
399,155,0,0,0,0,0,0,0,0,0,-1,1623,869,0,0
406,155,0,0,0,0,0,0,0,0,0,-1,1630,869,0,0
413,155,0,0,0,0,0,0,0,0,0,-1,1637,869,0,0
420,155,0,0,0,0,0,0,0,0,0,-1,1644,869,0,0
427,155,0,0,0,0,0,0,0,0,0,-1,1651,869,0,0
434,155,0,0,0,0,0,0,0,0,0,-1,1658,869,0,0
441,155,0,0,0,0,0,0,0,0,0,-1,1665,869,0,0
448,155,0,0,0,0,0,0,0,0,0,-1,1672,869,0,0
455,155,0,0,0,0,0,0,0,0,0,-1,1679,869,0,0
462,155,0,0,0,0,0,0,0,0,0,-1,1686,869,0,0
469,155,0,0,0,0,0,0,0,0,0,-1,1693,869,0,0
476,155,0,0,0,0,0,0,0,0,0,-1,1700,869,0,0
483,155,0,0,0,0,0,0,0,0,0,-1,1707,869,0,0
490,155,0,0,0,0,0,0,0,0,0,-1,1714,869,0,0
497,155,0,0,0,0,0,0,0,0,0,-1,1721,869,0,0
504,155,0,0,0,0,0,0,0,0,0,-1,1728,869,0,0
511,155,0,0,0,0,0,0,0,0,0,-1,1735,869,0,0
518,155,0,0,0,0,0,0,0,0,0,-1,1742,869,0,0
525,155,0,0,0,0,0,0,0,0,0,-1,1749,869,0,0
532,155,0,0,0,0,0,0,0,0,0,-1,1756,869,0,0
539,155,0,0,0,0,0,0,0,0,0,-1,1763,869,0,0
546,155,0,0,0,0,0,0,0,0,0,-1,1770,869,0,0
553,155,0,0,0,0,0,0,0,0,0,-1,1777,869,0,0
560,155,0,0,0,0,0,0,0,0,0,-1,1784,869,0,0
567,155,0,0,0,0,0,0,0,0,0,-1,1791,869,0,0
574,155,0,0,0,0,0,0,0,0,0,-1,1798,869,0,0
581,155,0,0,0,0,0,0,0,0,0,-1,1805,869,0,0
588,155,0,0,0,0,0,0,0,0,0,-1,1812,869,0,0
595,155,0,0,0,0,0,0,0,0,0,-1,1819,869,0,0
602,155,0,0,0,0,0,0,0,0,0,-1,1826,869,0,0
609,155,0,0,0,0,0,0,0,0,0,-1,1833,869,0,0
616,155,21.4688,2.76038,-0.00748863,0.00300279,0.00737825,0.00681004,-0.0112959,1.09442,0.0105599,0.0443117,1840,869,21.4688,-2.76038
623,155,21.3544,3.0437,-0.00509236,0.00213547,0.00524304,0.00488943,-0.00784632,1.08714,0.00741876,0.0419206,1847,869,21.3543,-3.04372
630,155,21.301,3.07391,-0.00288483,0.00133916,0.00342143,0.00324795,-0.00479363,1.06191,0.00467131,0.0440677,1854,869,21.301,-3.07392
637,155,21.3138,3.3125,-0.00131941,0.000651282,0.00190654,0.00181205,-0.00248018,1.02391,0.00248811,0.041636,1861,869,21.3138,-3.31252
644,155,21.3561,3.18768,-0.000960403,0.000160437,0.000706727,0.000501978,-0.00130194,1.12062,0.00107509,0.0380777,1868,869,21.3561,-3.18769
651,155,21.4133,3.0152,-0.00147495,-0.000198437,-0.000190365,-0.000170653,-0.00150274,-1.42587,0.000950064,0.0345364,1875,869,21.4133,-3.01521
658,155,21.3622,2.98608,-0.00212334,-0.000400946,-0.000734957,-0.000129967,-0.00239432,-1.21756,0.0015547,0.0278227,1882,869,21.3622,-2.98609
665,155,21.3676,2.93457,-0.00274135,-0.000498543,-0.00112683,-3.02002e-05,-0.00320969,-1.17689,0.0021298,0.0310257,1889,869,21.3676,-2.93455
672,155,21.4065,2.90637,-0.00331704,-0.000677272,-0.00142843,-5.22917e-05,-0.00394202,-1.15836,0.00261076,0.0391767,1896,869,21.4065,-2.90637
679,155,21.4747,2.87054,0,0,0,0,0,0,0,-1,1903,869,21.4747,-2.87057
686,155,18.1674,2.78998,0,0,0,0,0,0,0,-1,1910,869,18.1674,-2.78999
693,155,18.1543,2.96381,-0.00499841,-0.000492332,-0.00182911,0.000156665,-0.00564741,-1.22984,0.00381823,0.0224171,1917,869,18.1542,-2.96383
700,155,18.2202,3.16699,-0.00527142,-0.000375648,-0.00176381,0.000193614,-0.00584068,-1.25861,0.0039599,0.0160255,1924,869,18.2202,-3.167
707,155,18.2988,3.39008,-0.00517086,-0.000417797,-0.00167477,0.000113032,-0.00570169,-1.26386,0.00383936,0.0121604,1931,869,18.2988,-3.39009
714,155,18.2429,3.53363,-0.00433378,-0.00023794,-0.00160124,0.000313746,-0.00488547,-1.239,0.00336644,0.0220356,1938,869,18.2429,-3.53361
721,155,18.1473,3.73822,-0.00242351,-0.000124341,-0.00161559,0.000708916,-0.00325677,-1.09462,0.00244203,0.024229,1945,869,18.1474,-3.7382
728,155,18.1702,3.92944,0.000691147,-0.000152886,-0.00177611,0.00209469,-0.00155642,-0.668757,0.00211559,0.0180279,1952,869,18.1702,-3.92944
735,155,18.1802,4.07214,0.00500378,-0.000176263,-0.00204997,0.00571688,-0.000889361,-0.334765,0.00413967,0.0149811,1959,869,18.1802,-4.07211
742,155,18.1836,4.22797,0.0107218,-0.000800332,-0.00214117,0.0111068,-0.00118536,-0.177921,0.00782961,0.0161866,1966,869,18.1835,-4.22799
749,155,18.1804,4.40942,0.017256,-0.00147898,-0.00136446,0.0173548,-0.00157783,-0.0723208,0.0121301,0.0129663,1973,869,18.1804,-4.40944
756,155,18.1926,4.60016,0.0251903,-0.00248701,-0.000973622,0.0252245,-0.00252122,-0.0351197,0.0177166,0.0236316,1980,869,18.1927,-4.60018
763,155,18.4017,4.61896,0.0355569,-0.00402285,5.84855e-05,0.035557,-0.00402293,0.00147766,0.0251531,0.0457233,1987,869,18.4018,-4.61893
770,155,18.6962,4.79083,0.0489482,-0.00631754,0.00215306,0.049032,-0.00640129,0.0388798,0.0350173,0.046827,1994,869,18.6962,-4.79083
777,155,18.5101,4.32837,0,0,0,0,0,0,0,-1,2001,869,18.5101,-4.32834
784,155,19.7769,4.31024,0,0,0,0,0,0,0,-1,2008,869,19.7768,-4.31023
791,155,0,0,0,0,0,0,0,0,0,-1,2015,869,0,0
798,155,0,0,0,0,0,0,0,0,0,-1,2022,869,0,0
805,155,0,0,0,0,0,0,0,0,0,-1,2029,869,0,0
812,155,0,0,0,0,0,0,0,0,0,-1,2036,869,0,0
-700,148,0,0,0,0,0,0,0,0,0,-1,524,876,0,0
-693,148,0,0,0,0,0,0,0,0,0,-1,531,876,0,0
-686,148,0,0,0,0,0,0,0,0,0,-1,538,876,0,0
-679,148,0,0,0,0,0,0,0,0,0,-1,545,876,0,0
-672,148,-11.0181,3.49091,-0.0182347,0.132911,0.0100365,0.133574,-0.0188983,1.50478,0.0959712,0.0471421,552,876,-11.0181,-3.49089
-665,148,-11.1224,3.45801,-0.00818418,0.106854,0.00200851,0.10689,-0.00821924,1.55334,0.0741514,0.048132,559,876,-11.1224,-3.45801
-658,148,-11.0189,3.31445,-0.00274434,0.0842209,-0.00216628,0.0842748,-0.00279827,-1.54591,0.0571388,0.0455507,566,876,-11.0189,-3.31445
-651,148,-11.1632,3.08466,-8.5804e-05,0.0650218,-0.00394606,0.0652601,-0.000324093,-1.51048,0.0436152,0.046395,573,876,-11.1632,-3.08465
-644,148,-11.3567,2.80554,0.000899162,0.0490251,-0.00420802,0.0493902,0.000533992,-1.48423,0.0327503,0.048243,580,876,-11.3567,-2.80552
-637,148,-11.6221,2.48291,0.000877382,0.0359688,-0.00357879,0.0363301,0.000516118,-1.47019,0.0240499,0.0476876,587,876,-11.6221,-2.4829
-630,148,-11.6111,2.31702,0.000413928,0.0255861,-0.00255567,0.0258429,0.000157079,-1.47063,0.0171765,0.0395531,594,876,-11.6111,-2.31704
-623,148,-11.6,2.16827,0.000300042,0.0167789,-0.00168981,0.0169504,0.000128547,-1.46965,0.0112577,0.0200412,601,876,-11.6001,-2.16828
-616,148,-11.6788,2.02728,5.11027e-05,0.0100133,-0.00103412,0.0101195,-5.51124e-05,-1.46845,0.00676479,0.0115783,608,876,-11.6788,-2.02731
-609,148,-11.6968,1.86633,-0.00113142,0.00601435,-1.85405e-05,0.0060144,-0.00113147,-1.5682,0.00443513,0.0108124,615,876,-11.6968,-1.8663
-602,148,-11.7154,1.69617,-0.00353271,0.00279255,0.00152984,0.00314313,-0.00388328,1.34553,0.0040642,0.010831,622,876,-11.7154,-1.69618
-595,148,-11.7157,1.53845,-0.00596745,0.000454382,0.00275345,0.0014733,-0.00698637,1.21637,0.00521847,0.00935111,629,876,-11.7157,-1.53845
-588,148,-11.7468,1.36792,-0.00691096,-0.000746499,0.00316829,0.000591478,-0.00824893,1.17121,0.00570667,0.0131298,636,876,-11.7468,-1.36789
-581,148,-11.7994,1.23669,-0.00821848,-0.00147014,0.00351876,3.07998e-05,-0.00971942,1.16761,0.0064899,0.020417,643,876,-11.7995,-1.23672
-574,148,-11.6819,1.09247,-0.00970409,-0.00164613,0.00361837,-0.000259826,-0.0110904,1.20492,0.00730853,0.0260795,650,876,-11.6819,-1.09246
-567,148,-11.7368,0.961182,-0.0107259,-0.00183566,0.003574,-0.000577047,-0.0119845,1.2322,0.00780445,0.0329014,657,876,-11.7368,-0.961176
-560,148,-11.6995,0.81488,-0.0110348,-0.00189469,0.00359235,-0.000651791,-0.0122777,1.2377,0.00797672,0.0284973,664,876,-11.6995,-0.814898
-553,148,-12.6091,0.919739,-0.0111907,-0.00217194,0.00345778,-0.000998827,-0.0123638,1.24371,0.00793061,0.0385598,671,876,-12.6091,-0.919758
-546,148,-13.6779,1.09778,0,0,0,0,0,0,0,-1,678,876,-13.6779,-1.09779
-539,148,-13.938,1.12506,-0.00946684,-0.00223764,0.00298347,-0.0011654,-0.0105391,1.22578,0.0066716,0.0356279,685,876,-13.9381,-1.12508
-532,148,-13.9352,1.10101,-0.00740365,-0.00221516,0.00247796,-0.00122188,-0.00839694,1.18956,0.00523839,0.0338087,692,876,-13.9353,-1.10103
-525,148,-13.8889,1.17474,-0.00431364,-0.00215861,0.00185597,-0.00109004,-0.00538221,1.0484,0.00328563,0.0364231,699,876,-13.8889,-1.17472
-518,148,-13.8604,1.17535,0.000184062,-0.00207878,0.00113824,0.000657543,-0.00255226,0.394202,0.00195784,0.0451981,706,876,-13.8603,-1.17536
-511,148,-13.6574,1.16187,0.00616379,-0.00201948,0.000522492,0.00619702,-0.00205271,0.0635051,0.00495927,0.0443256,713,876,-13.6574,-1.16185
-504,148,-13.5865,1.33258,0.0127528,-0.00220704,0.000440669,0.0127658,-0.00222001,0.0294227,0.00933891,0.0432475,720,876,-13.5865,-1.33261
-497,148,0,0,0,0,0,0,0,0,0,-1,727,876,0,0
-490,148,0,0,0,0,0,0,0,0,0,-1,734,876,0,0
-483,148,0,0,0,0,0,0,0,0,0,-1,741,876,0,0
-476,148,0,0,0,0,0,0,0,0,0,-1,748,876,0,0
-469,148,0,0,0,0,0,0,0,0,0,-1,755,876,0,0
-462,148,0,0,0,0,0,0,0,0,0,-1,762,876,0,0
-455,148,0,0,0,0,0,0,0,0,0,-1,769,876,0,0
-448,148,0,0,0,0,0,0,0,0,0,-1,776,876,0,0
-441,148,0,0,0,0,0,0,0,0,0,-1,783,876,0,0
-434,148,0,0,0,0,0,0,0,0,0,-1,790,876,0,0
-427,148,0,0,0,0,0,0,0,0,0,-1,797,876,0,0
-420,148,0,0,0,0,0,0,0,0,0,-1,804,876,0,0
-413,148,0,0,0,0,0,0,0,0,0,-1,811,876,0,0
-406,148,0,0,0,0,0,0,0,0,0,-1,818,876,0,0
-399,148,0,0,0,0,0,0,0,0,0,-1,825,876,0,0
-392,148,0,0,0,0,0,0,0,0,0,-1,832,876,0,0
-385,148,0,0,0,0,0,0,0,0,0,-1,839,876,0,0
-378,148,0,0,0,0,0,0,0,0,0,-1,846,876,0,0
-371,148,0,0,0,0,0,0,0,0,0,-1,853,876,0,0
-364,148,0,0,0,0,0,0,0,0,0,-1,860,876,0,0
-357,148,0,0,0,0,0,0,0,0,0,-1,867,876,0,0
-350,148,0,0,0,0,0,0,0,0,0,-1,874,876,0,0
-343,148,0,0,0,0,0,0,0,0,0,-1,881,876,0,0
-336,148,0,0,0,0,0,0,0,0,0,-1,888,876,0,0
-329,148,0,0,0,0,0,0,0,0,0,-1,895,876,0,0
-322,148,0,0,0,0,0,0,0,0,0,-1,902,876,0,0
-315,148,0,0,0,0,0,0,0,0,0,-1,909,876,0,0
-308,148,0,0,0,0,0,0,0,0,0,-1,916,876,0,0
-301,148,0,0,0,0,0,0,0,0,0,-1,923,876,0,0
-294,148,0,0,0,0,0,0,0,0,0,-1,930,876,0,0
-287,148,0,0,0,0,0,0,0,0,0,-1,937,876,0,0
-280,148,0,0,0,0,0,0,0,0,0,-1,944,876,0,0
-273,148,0,0,0,0,0,0,0,0,0,-1,951,876,0,0
-266,148,0,0,0,0,0,0,0,0,0,-1,958,876,0,0
-259,148,0,0,0,0,0,0,0,0,0,-1,965,876,0,0
-252,148,0,0,0,0,0,0,0,0,0,-1,972,876,0,0
-245,148,0,0,0,0,0,0,0,0,0,-1,979,876,0,0
-238,148,0,0,0,0,0,0,0,0,0,-1,986,876,0,0
-231,148,0,0,0,0,0,0,0,0,0,-1,993,876,0,0
-224,148,0,0,0,0,0,0,0,0,0,-1,1000,876,0,0
-217,148,0,0,0,0,0,0,0,0,0,-1,1007,876,0,0
-210,148,0,0,0,0,0,0,0,0,0,-1,1014,876,0,0
-203,148,0,0,0,0,0,0,0,0,0,-1,1021,876,0,0
-196,148,0,0,0,0,0,0,0,0,0,-1,1028,876,0,0
-189,148,0,0,0,0,0,0,0,0,0,-1,1035,876,0,0
-182,148,0,0,0,0,0,0,0,0,0,-1,1042,876,0,0
-175,148,0,0,0,0,0,0,0,0,0,-1,1049,876,0,0
-168,148,0,0,0,0,0,0,0,0,0,-1,1056,876,0,0
-161,148,0,0,0,0,0,0,0,0,0,-1,1063,876,0,0
-154,148,0,0,0,0,0,0,0,0,0,-1,1070,876,0,0
-147,148,0,0,0,0,0,0,0,0,0,-1,1077,876,0,0
-140,148,0,0,0,0,0,0,0,0,0,-1,1084,876,0,0
-133,148,0,0,0,0,0,0,0,0,0,-1,1091,876,0,0
-126,148,0,0,0,0,0,0,0,0,0,-1,1098,876,0,0
-119,148,0,0,0,0,0,0,0,0,0,-1,1105,876,0,0
-112,148,0,0,0,0,0,0,0,0,0,-1,1112,876,0,0
-105,148,0,0,0,0,0,0,0,0,0,-1,1119,876,0,0
-98,148,0,0,0,0,0,0,0,0,0,-1,1126,876,0,0
-91,148,0,0,0,0,0,0,0,0,0,-1,1133,876,0,0
-84,148,0,0,0,0,0,0,0,0,0,-1,1140,876,0,0
-77,148,0,0,0,0,0,0,0,0,0,-1,1147,876,0,0
-70,148,0,0,0,0,0,0,0,0,0,-1,1154,876,0,0
-63,148,0,0,0,0,0,0,0,0,0,-1,1161,876,0,0
-56,148,0,0,0,0,0,0,0,0,0,-1,1168,876,0,0
-49,148,0,0,0,0,0,0,0,0,0,-1,1175,876,0,0
-42,148,0,0,0,0,0,0,0,0,0,-1,1182,876,0,0
-35,148,0,0,0,0,0,0,0,0,0,-1,1189,876,0,0
-28,148,0,0,0,0,0,0,0,0,0,-1,1196,876,0,0
-21,148,0,0,0,0,0,0,0,0,0,-1,1203,876,0,0
-14,148,0,0,0,0,0,0,0,0,0,-1,1210,876,0,0
-7,148,0,0,0,0,0,0,0,0,0,-1,1217,876,0,0
0,148,0,0,0,0,0,0,0,0,0,-1,1224,876,0,0
7,148,0,0,0,0,0,0,0,0,0,-1,1231,876,0,0
14,148,0,0,0,0,0,0,0,0,0,-1,1238,876,0,0
21,148,0,0,0,0,0,0,0,0,0,-1,1245,876,0,0
28,148,0,0,0,0,0,0,0,0,0,-1,1252,876,0,0
35,148,0,0,0,0,0,0,0,0,0,-1,1259,876,0,0
42,148,0,0,0,0,0,0,0,0,0,-1,1266,876,0,0
49,148,0,0,0,0,0,0,0,0,0,-1,1273,876,0,0
56,148,0,0,0,0,0,0,0,0,0,-1,1280,876,0,0
63,148,0,0,0,0,0,0,0,0,0,-1,1287,876,0,0
70,148,0,0,0,0,0,0,0,0,0,-1,1294,876,0,0
77,148,0,0,0,0,0,0,0,0,0,-1,1301,876,0,0
84,148,0,0,0,0,0,0,0,0,0,-1,1308,876,0,0
91,148,0,0,0,0,0,0,0,0,0,-1,1315,876,0,0
98,148,0,0,0,0,0,0,0,0,0,-1,1322,876,0,0
105,148,0,0,0,0,0,0,0,0,0,-1,1329,876,0,0
112,148,0,0,0,0,0,0,0,0,0,-1,1336,876,0,0
119,148,0,0,0,0,0,0,0,0,0,-1,1343,876,0,0
126,148,0,0,0,0,0,0,0,0,0,-1,1350,876,0,0
133,148,0,0,0,0,0,0,0,0,0,-1,1357,876,0,0
140,148,0,0,0,0,0,0,0,0,0,-1,1364,876,0,0
147,148,0,0,0,0,0,0,0,0,0,-1,1371,876,0,0
154,148,0,0,0,0,0,0,0,0,0,-1,1378,876,0,0
161,148,0,0,0,0,0,0,0,0,0,-1,1385,876,0,0
168,148,0,0,0,0,0,0,0,0,0,-1,1392,876,0,0
175,148,0,0,0,0,0,0,0,0,0,-1,1399,876,0,0
182,148,0,0,0,0,0,0,0,0,0,-1,1406,876,0,0
189,148,0,0,0,0,0,0,0,0,0,-1,1413,876,0,0
196,148,0,0,0,0,0,0,0,0,0,-1,1420,876,0,0
203,148,0,0,0,0,0,0,0,0,0,-1,1427,876,0,0
210,148,0,0,0,0,0,0,0,0,0,-1,1434,876,0,0
217,148,0,0,0,0,0,0,0,0,0,-1,1441,876,0,0
224,148,0,0,0,0,0,0,0,0,0,-1,1448,876,0,0
231,148,0,0,0,0,0,0,0,0,0,-1,1455,876,0,0
238,148,0,0,0,0,0,0,0,0,0,-1,1462,876,0,0
245,148,0,0,0,0,0,0,0,0,0,-1,1469,876,0,0
252,148,0,0,0,0,0,0,0,0,0,-1,1476,876,0,0
259,148,0,0,0,0,0,0,0,0,0,-1,1483,876,0,0
266,148,0,0,0,0,0,0,0,0,0,-1,1490,876,0,0
273,148,0,0,0,0,0,0,0,0,0,-1,1497,876,0,0
280,148,0,0,0,0,0,0,0,0,0,-1,1504,876,0,0
287,148,0,0,0,0,0,0,0,0,0,-1,1511,876,0,0
294,148,0,0,0,0,0,0,0,0,0,-1,1518,876,0,0
301,148,0,0,0,0,0,0,0,0,0,-1,1525,876,0,0
308,148,0,0,0,0,0,0,0,0,0,-1,1532,876,0,0
315,148,0,0,0,0,0,0,0,0,0,-1,1539,876,0,0
322,148,0,0,0,0,0,0,0,0,0,-1,1546,876,0,0
329,148,0,0,0,0,0,0,0,0,0,-1,1553,876,0,0
336,148,0,0,0,0,0,0,0,0,0,-1,1560,876,0,0
343,148,0,0,0,0,0,0,0,0,0,-1,1567,876,0,0
350,148,0,0,0,0,0,0,0,0,0,-1,1574,876,0,0
357,148,0,0,0,0,0,0,0,0,0,-1,1581,876,0,0
364,148,0,0,0,0,0,0,0,0,0,-1,1588,876,0,0
371,148,0,0,0,0,0,0,0,0,0,-1,1595,876,0,0
378,148,0,0,0,0,0,0,0,0,0,-1,1602,876,0,0
385,148,0,0,0,0,0,0,0,0,0,-1,1609,876,0,0
392,148,0,0,0,0,0,0,0,0,0,-1,1616,876,0,0
399,148,0,0,0,0,0,0,0,0,0,-1,1623,876,0,0
406,148,0,0,0,0,0,0,0,0,0,-1,1630,876,0,0
413,148,0,0,0,0,0,0,0,0,0,-1,1637,876,0,0
420,148,0,0,0,0,0,0,0,0,0,-1,1644,876,0,0
427,148,0,0,0,0,0,0,0,0,0,-1,1651,876,0,0
434,148,0,0,0,0,0,0,0,0,0,-1,1658,876,0,0
441,148,0,0,0,0,0,0,0,0,0,-1,1665,876,0,0
448,148,0,0,0,0,0,0,0,0,0,-1,1672,876,0,0
455,148,0,0,0,0,0,0,0,0,0,-1,1679,876,0,0
462,148,0,0,0,0,0,0,0,0,0,-1,1686,876,0,0
469,148,0,0,0,0,0,0,0,0,0,-1,1693,876,0,0
476,148,0,0,0,0,0,0,0,0,0,-1,1700,876,0,0
483,148,0,0,0,0,0,0,0,0,0,-1,1707,876,0,0
490,148,0,0,0,0,0,0,0,0,0,-1,1714,876,0,0
497,148,0,0,0,0,0,0,0,0,0,-1,1721,876,0,0
504,148,0,0,0,0,0,0,0,0,0,-1,1728,876,0,0
511,148,0,0,0,0,0,0,0,0,0,-1,1735,876,0,0
518,148,0,0,0,0,0,0,0,0,0,-1,1742,876,0,0
525,148,0,0,0,0,0,0,0,0,0,-1,1749,876,0,0
532,148,0,0,0,0,0,0,0,0,0,-1,1756,876,0,0
539,148,0,0,0,0,0,0,0,0,0,-1,1763,876,0,0
546,148,0,0,0,0,0,0,0,0,0,-1,1770,876,0,0
553,148,0,0,0,0,0,0,0,0,0,-1,1777,876,0,0
560,148,0,0,0,0,0,0,0,0,0,-1,1784,876,0,0
567,148,0,0,0,0,0,0,0,0,0,-1,1791,876,0,0
574,148,0,0,0,0,0,0,0,0,0,-1,1798,876,0,0
581,148,0,0,0,0,0,0,0,0,0,-1,1805,876,0,0
588,148,0,0,0,0,0,0,0,0,0,-1,1812,876,0,0
595,148,0,0,0,0,0,0,0,0,0,-1,1819,876,0,0
602,148,0,0,0,0,0,0,0,0,0,-1,1826,876,0,0
609,148,0,0,0,0,0,0,0,0,0,-1,1833,876,0,0
616,148,0,0,0,0,0,0,0,0,0,-1,1840,876,0,0
623,148,21.4248,3.02863,-0.00679777,0.00181359,0.00576444,0.00470288,-0.00968707,1.10617,0.00847253,0.0429805,1847,876,21.4248,-3.02863
630,148,21.2404,3.43018,-0.00409642,0.00111495,0.00373579,0.00306401,-0.00604548,1.08992,0.00535244,0.0438206,1854,876,21.2404,-3.43015
637,148,21.2648,3.37042,-0.00210774,0.000554443,0.00205723,0.00167366,-0.00322696,1.07254,0.00287636,0.0393098,1861,876,21.2648,-3.37043
644,148,21.3049,3.1723,-0.00139924,0.000115482,0.000729483,0.000409664,-0.00169342,1.18747,0.00128741,0.0382771,1868,876,21.3049,-3.17229
651,148,21.351,3.08887,-0.00196847,-0.000204998,-0.00028997,-0.000158542,-0.00201493,-1.41194,0.00129368,0.038281,1875,876,21.3509,-3.08888
658,148,21.287,3.13885,-0.00286086,-0.000395701,-0.00092515,-8.71274e-05,-0.00316944,-1.24886,0.00208452,0.0317521,1882,876,21.2869,-3.13884
665,148,21.2614,3.09381,-0.00372968,-0.000484139,-0.0013512,4.7565e-06,-0.00421857,-1.22363,0.00281397,0.0235777,1889,876,21.2614,-3.09382
672,148,21.3187,2.9751,-0.00451043,-0.00063825,-0.00165324,-2.84333e-05,-0.00512025,-1.21742,0.00340406,0.0296949,1896,876,21.3187,-2.97508
679,148,21.2244,3.00342,0,0,0,0,0,0,0,-1,1903,876,21.2243,-3.00344
686,148,18.3224,2.76453,0,0,0,0,0,0,0,-1,1910,876,18.3224,-2.76454
693,148,18.3147,2.95618,-0.00651488,-0.000451746,-0.00202801,0.000164045,-0.00713067,-1.276,0.00480939,0.0370158,1917,876,18.3147,-2.95619
700,148,18.4197,3.20599,-0.0068479,-0.000345516,-0.0019191,0.000178631,-0.00737205,-1.30418,0.00497531,0.0166446,1924,876,18.4197,-3.20598
707,148,18.5128,3.45453,-0.00675203,-0.000352217,-0.0017981,0.000118373,-0.00722262,-1.31482,0.00485502,0.0141155,1931,876,18.5128,-3.45454
714,148,18.479,3.56226,-0.00578068,-0.000159794,-0.00170566,0.000317296,-0.00625777,-1.29806,0.00428153,0.0141736,1938,876,18.479,-3.56226
721,148,18.3823,3.70624,-0.00367322,-6.63399e-06,-0.0016669,0.000637881,-0.00431773,-1.20185,0.00311298,0.0161791,1945,876,18.3823,-3.70625
728,148,18.3795,3.90454,-0.000187471,1.06128e-05,-0.00173144,0.00164584,-0.0018227,-0.813968,0.00200343,0.0196503,1952,876,18.3795,-3.90452
735,148,18.3759,4.06488,0.00472337,0.000134146,-0.00183564,0.00536727,-0.000509748,-0.337364,0.00375963,0.0182673,1959,876,18.3759,-4.06489
742,148,18.3457,4.24335,0.011078,-0.000439183,-0.00167721,0.0113173,-0.000678457,-0.141706,0.00778088,0.0186416,1966,876,18.3457,-4.24333
749,148,18.3467,4.41479,0.0182786,-0.00103715,-0.000451255,0.0182892,-0.00104768,-0.023345,0.0125566,0.0146771,1973,876,18.3466,-4.4148
756,148,18.3668,4.60034,0.0267591,-0.00191795,0.000380076,0.0267641,-0.00192299,0.0132506,0.0185171,0.0205022,1980,876,18.3668,-4.60032
763,148,18.4801,4.7608,0.037452,-0.00333327,0.00195484,0.0375455,-0.00342675,0.047784,0.0262472,0.0455408,1987,876,18.4801,-4.7608
770,148,18.5151,4.888,0.0510134,-0.00553395,0.00474217,0.0514084,-0.00592888,0.0830885,0.0364098,0.0480858,1994,876,18.5151,-4.88803
777,148,19.5262,4.45422,0,0,0,0,0,0,0,-1,2001,876,19.5263,-4.45422
784,148,20.283,4.36688,0,0,0,0,0,0,0,-1,2008,876,20.2829,-4.3669
791,148,21.1035,4.44336,0,0,0,0,0,0,0,-1,2015,876,21.1035,-4.44336
798,148,0,0,0,0,0,0,0,0,0,-1,2022,876,0,0
805,148,0,0,0,0,0,0,0,0,0,-1,2029,876,0,0
812,148,0,0,0,0,0,0,0,0,0,-1,2036,876,0,0
-700,141,0,0,0,0,0,0,0,0,0,-1,524,883,0,0
-693,141,0,0,0,0,0,0,0,0,0,-1,531,883,0,0
-686,141,0,0,0,0,0,0,0,0,0,-1,538,883,0,0
-679,141,0,0,0,0,0,0,0,0,0,-1,545,883,0,0
-672,141,-12.1422,2.79962,0,0,0,0,0,0,0,-1,552,883,-12.1422,-2.79965
-665,141,-12.1033,2.99097,0,0,0,0,0,0,0,-1,559,883,-12.1033,-2.99097
-658,141,-11.812,3.0141,-0.000767281,0.0846788,-0.00147811,0.0847044,-0.000792842,-1.5535,0.0567357,0.0456748,566,883,-11.812,-3.01411
-651,141,-11.713,2.74615,0.0011668,0.0648132,-0.00288215,0.0649435,0.00103655,-1.52564,0.0429543,0.0446309,573,883,-11.713,-2.74615
-644,141,-11.9633,2.45398,0.00162777,0.0485153,-0.00308368,0.0487173,0.00142583,-1.5054,0.0320135,0.0456472,580,883,-11.9632,-2.454
-637,141,-11.965,2.01215,0.00124731,0.0354055,-0.00258825,0.0356005,0.00105231,-1.4956,0.0233908,0.0463372,587,883,-11.965,-2.01213
-630,141,-11.6854,2.16467,0.000577221,0.0251103,-0.00179916,0.0252416,0.00044598,-1.49798,0.016681,0.0379474,594,883,-11.6853,-2.16468
-623,141,-11.7177,2.1059,0.000340028,0.0162679,-0.00119692,0.0163574,0.000250586,-1.49621,0.0108224,0.0204388,601,883,-11.7176,-2.1059
-616,141,-11.8402,1.98383,-9.12157e-05,0.00953828,-0.000719989,0.00959182,-0.000144751,-1.49658,0.00644334,0.0120926,608,883,-11.8402,-1.98381
-609,141,-11.8695,1.84839,-0.00155982,0.00573689,0.000186912,0.00574167,-0.00156461,1.5452,0.00444213,0.0131059,615,883,-11.8695,-1.84836
-602,141,-11.8814,1.70087,-0.00413362,0.00254011,0.00159346,0.00290105,-0.00449456,1.34804,0.00430277,0.0114164,622,883,-11.8814,-1.70089
-595,141,-11.8848,1.55469,-0.0065528,0.000352461,0.00272665,0.0012993,-0.00749963,1.23657,0.0054844,0.0099387,629,883,-11.8848,-1.55471
-588,141,-11.9866,1.41229,-0.00734312,-0.000702113,0.00302383,0.000468404,-0.00851364,1.20146,0.00583816,0.0157798,636,883,-11.9866,-1.41231
-581,141,-11.9474,1.26416,-0.00848384,-0.00136783,0.00333621,-4.83692e-05,-0.00980331,1.19418,0.00651947,0.0214717,643,883,-11.9474,-1.26419
-574,141,-11.7815,1.13965,-0.00982558,-0.00156303,0.00345755,-0.000307095,-0.0110815,1.22237,0.00728747,0.0258963,650,883,-11.7815,-1.13965
-567,141,-11.8403,1.05927,-0.0107092,-0.00174837,0.00349447,-0.000546756,-0.0119108,1.2396,0.00776469,0.0305899,657,883,-11.8404,-1.05925
-560,141,-11.8674,1.01099,0,0,0,0,0,0,0,-1,664,883,-11.8674,-1.01098
-553,141,-13.0749,1.0575,0,0,0,0,0,0,0,-1,671,883,-13.0749,-1.05751
-546,141,-14.0286,1.14587,0,0,0,0,0,0,0,-1,678,883,-14.0286,-1.14587
-539,141,-13.9317,1.11395,-0.00894638,-0.00212519,0.00314258,-0.00089811,-0.0101735,1.19853,0.00650364,0.0294655,685,883,-13.9317,-1.11395
-532,141,-13.9045,1.07953,-0.00664676,-0.00208854,0.00270175,-0.000832992,-0.00790231,1.13577,0.00501366,0.0289352,692,883,-13.9045,-1.07955
-525,141,-13.8719,0.981323,-0.00323846,-0.00201991,0.00212942,-0.000414318,-0.00484405,0.924737,0.0031005,0.0380906,699,883,-13.8719,-0.981338
-518,141,-13.8908,0.867004,0.00165587,-0.00193368,0.00147693,0.00218543,-0.00246324,0.344276,0.00268551,0.0450953,706,883,-13.8908,-0.866993
-511,141,-13.8813,1.21588,0.00778124,-0.00188527,0.00109335,0.00790336,-0.00200739,0.111235,0.00605008,0.0417814,713,883,-13.8813,-1.21588
-504,141,-13.7661,1.55359,0,0,0,0,0,0,0,-1,720,883,-13.766,-1.55357
-497,141,0,0,0,0,0,0,0,0,0,-1,727,883,0,0
-490,141,0,0,0,0,0,0,0,0,0,-1,734,883,0,0
-483,141,0,0,0,0,0,0,0,0,0,-1,741,883,0,0
-476,141,0,0,0,0,0,0,0,0,0,-1,748,883,0,0
-469,141,0,0,0,0,0,0,0,0,0,-1,755,883,0,0
-462,141,0,0,0,0,0,0,0,0,0,-1,762,883,0,0
-455,141,0,0,0,0,0,0,0,0,0,-1,769,883,0,0
-448,141,0,0,0,0,0,0,0,0,0,-1,776,883,0,0
-441,141,0,0,0,0,0,0,0,0,0,-1,783,883,0,0
-434,141,0,0,0,0,0,0,0,0,0,-1,790,883,0,0
-427,141,0,0,0,0,0,0,0,0,0,-1,797,883,0,0
-420,141,0,0,0,0,0,0,0,0,0,-1,804,883,0,0
-413,141,0,0,0,0,0,0,0,0,0,-1,811,883,0,0
-406,141,0,0,0,0,0,0,0,0,0,-1,818,883,0,0
-399,141,0,0,0,0,0,0,0,0,0,-1,825,883,0,0
-392,141,0,0,0,0,0,0,0,0,0,-1,832,883,0,0
-385,141,0,0,0,0,0,0,0,0,0,-1,839,883,0,0
-378,141,0,0,0,0,0,0,0,0,0,-1,846,883,0,0
-371,141,0,0,0,0,0,0,0,0,0,-1,853,883,0,0
-364,141,0,0,0,0,0,0,0,0,0,-1,860,883,0,0
-357,141,0,0,0,0,0,0,0,0,0,-1,867,883,0,0
-350,141,0,0,0,0,0,0,0,0,0,-1,874,883,0,0
-343,141,0,0,0,0,0,0,0,0,0,-1,881,883,0,0
-336,141,0,0,0,0,0,0,0,0,0,-1,888,883,0,0
-329,141,0,0,0,0,0,0,0,0,0,-1,895,883,0,0
-322,141,0,0,0,0,0,0,0,0,0,-1,902,883,0,0
-315,141,0,0,0,0,0,0,0,0,0,-1,909,883,0,0
-308,141,0,0,0,0,0,0,0,0,0,-1,916,883,0,0
-301,141,0,0,0,0,0,0,0,0,0,-1,923,883,0,0
-294,141,0,0,0,0,0,0,0,0,0,-1,930,883,0,0
-287,141,0,0,0,0,0,0,0,0,0,-1,937,883,0,0
-280,141,0,0,0,0,0,0,0,0,0,-1,944,883,0,0
-273,141,0,0,0,0,0,0,0,0,0,-1,951,883,0,0
-266,141,0,0,0,0,0,0,0,0,0,-1,958,883,0,0
-259,141,0,0,0,0,0,0,0,0,0,-1,965,883,0,0
-252,141,0,0,0,0,0,0,0,0,0,-1,972,883,0,0
-245,141,0,0,0,0,0,0,0,0,0,-1,979,883,0,0
-238,141,0,0,0,0,0,0,0,0,0,-1,986,883,0,0
-231,141,0,0,0,0,0,0,0,0,0,-1,993,883,0,0
-224,141,0,0,0,0,0,0,0,0,0,-1,1000,883,0,0
-217,141,0,0,0,0,0,0,0,0,0,-1,1007,883,0,0
-210,141,0,0,0,0,0,0,0,0,0,-1,1014,883,0,0
-203,141,0,0,0,0,0,0,0,0,0,-1,1021,883,0,0
-196,141,0,0,0,0,0,0,0,0,0,-1,1028,883,0,0
-189,141,0,0,0,0,0,0,0,0,0,-1,1035,883,0,0
-182,141,0,0,0,0,0,0,0,0,0,-1,1042,883,0,0
-175,141,0,0,0,0,0,0,0,0,0,-1,1049,883,0,0
-168,141,0,0,0,0,0,0,0,0,0,-1,1056,883,0,0
-161,141,0,0,0,0,0,0,0,0,0,-1,1063,883,0,0
-154,141,0,0,0,0,0,0,0,0,0,-1,1070,883,0,0
-147,141,0,0,0,0,0,0,0,0,0,-1,1077,883,0,0
-140,141,0,0,0,0,0,0,0,0,0,-1,1084,883,0,0
-133,141,0,0,0,0,0,0,0,0,0,-1,1091,883,0,0
-126,141,0,0,0,0,0,0,0,0,0,-1,1098,883,0,0
-119,141,0,0,0,0,0,0,0,0,0,-1,1105,883,0,0
-112,141,0,0,0,0,0,0,0,0,0,-1,1112,883,0,0
-105,141,0,0,0,0,0,0,0,0,0,-1,1119,883,0,0
-98,141,0,0,0,0,0,0,0,0,0,-1,1126,883,0,0
-91,141,0,0,0,0,0,0,0,0,0,-1,1133,883,0,0
-84,141,0,0,0,0,0,0,0,0,0,-1,1140,883,0,0
-77,141,0,0,0,0,0,0,0,0,0,-1,1147,883,0,0
-70,141,0,0,0,0,0,0,0,0,0,-1,1154,883,0,0
-63,141,0,0,0,0,0,0,0,0,0,-1,1161,883,0,0
-56,141,0,0,0,0,0,0,0,0,0,-1,1168,883,0,0
-49,141,0,0,0,0,0,0,0,0,0,-1,1175,883,0,0
-42,141,0,0,0,0,0,0,0,0,0,-1,1182,883,0,0
-35,141,0,0,0,0,0,0,0,0,0,-1,1189,883,0,0
-28,141,0,0,0,0,0,0,0,0,0,-1,1196,883,0,0
-21,141,0,0,0,0,0,0,0,0,0,-1,1203,883,0,0
-14,141,0,0,0,0,0,0,0,0,0,-1,1210,883,0,0
-7,141,0,0,0,0,0,0,0,0,0,-1,1217,883,0,0
0,141,0,0,0,0,0,0,0,0,0,-1,1224,883,0,0
7,141,0,0,0,0,0,0,0,0,0,-1,1231,883,0,0
14,141,0,0,0,0,0,0,0,0,0,-1,1238,883,0,0
21,141,0,0,0,0,0,0,0,0,0,-1,1245,883,0,0
28,141,0,0,0,0,0,0,0,0,0,-1,1252,883,0,0
35,141,0,0,0,0,0,0,0,0,0,-1,1259,883,0,0
42,141,0,0,0,0,0,0,0,0,0,-1,1266,883,0,0
49,141,0,0,0,0,0,0,0,0,0,-1,1273,883,0,0
56,141,0,0,0,0,0,0,0,0,0,-1,1280,883,0,0
63,141,0,0,0,0,0,0,0,0,0,-1,1287,883,0,0
70,141,0,0,0,0,0,0,0,0,0,-1,1294,883,0,0
77,141,0,0,0,0,0,0,0,0,0,-1,1301,883,0,0
84,141,0,0,0,0,0,0,0,0,0,-1,1308,883,0,0
91,141,0,0,0,0,0,0,0,0,0,-1,1315,883,0,0
98,141,0,0,0,0,0,0,0,0,0,-1,1322,883,0,0
105,141,0,0,0,0,0,0,0,0,0,-1,1329,883,0,0
112,141,0,0,0,0,0,0,0,0,0,-1,1336,883,0,0
119,141,0,0,0,0,0,0,0,0,0,-1,1343,883,0,0
126,141,0,0,0,0,0,0,0,0,0,-1,1350,883,0,0
133,141,0,0,0,0,0,0,0,0,0,-1,1357,883,0,0
140,141,0,0,0,0,0,0,0,0,0,-1,1364,883,0,0
147,141,0,0,0,0,0,0,0,0,0,-1,1371,883,0,0
154,141,0,0,0,0,0,0,0,0,0,-1,1378,883,0,0
161,141,0,0,0,0,0,0,0,0,0,-1,1385,883,0,0
168,141,0,0,0,0,0,0,0,0,0,-1,1392,883,0,0
175,141,0,0,0,0,0,0,0,0,0,-1,1399,883,0,0
182,141,0,0,0,0,0,0,0,0,0,-1,1406,883,0,0
189,141,0,0,0,0,0,0,0,0,0,-1,1413,883,0,0
196,141,0,0,0,0,0,0,0,0,0,-1,1420,883,0,0
203,141,0,0,0,0,0,0,0,0,0,-1,1427,883,0,0
210,141,0,0,0,0,0,0,0,0,0,-1,1434,883,0,0
217,141,0,0,0,0,0,0,0,0,0,-1,1441,883,0,0
224,141,0,0,0,0,0,0,0,0,0,-1,1448,883,0,0
231,141,0,0,0,0,0,0,0,0,0,-1,1455,883,0,0
238,141,0,0,0,0,0,0,0,0,0,-1,1462,883,0,0
245,141,0,0,0,0,0,0,0,0,0,-1,1469,883,0,0
252,141,0,0,0,0,0,0,0,0,0,-1,1476,883,0,0
259,141,0,0,0,0,0,0,0,0,0,-1,1483,883,0,0
266,141,0,0,0,0,0,0,0,0,0,-1,1490,883,0,0
273,141,0,0,0,0,0,0,0,0,0,-1,1497,883,0,0
280,141,0,0,0,0,0,0,0,0,0,-1,1504,883,0,0
287,141,0,0,0,0,0,0,0,0,0,-1,1511,883,0,0
294,141,0,0,0,0,0,0,0,0,0,-1,1518,883,0,0
301,141,0,0,0,0,0,0,0,0,0,-1,1525,883,0,0
308,141,0,0,0,0,0,0,0,0,0,-1,1532,883,0,0
315,141,0,0,0,0,0,0,0,0,0,-1,1539,883,0,0
322,141,0,0,0,0,0,0,0,0,0,-1,1546,883,0,0
329,141,0,0,0,0,0,0,0,0,0,-1,1553,883,0,0
336,141,0,0,0,0,0,0,0,0,0,-1,1560,883,0,0
343,141,0,0,0,0,0,0,0,0,0,-1,1567,883,0,0
350,141,0,0,0,0,0,0,0,0,0,-1,1574,883,0,0
357,141,0,0,0,0,0,0,0,0,0,-1,1581,883,0,0
364,141,0,0,0,0,0,0,0,0,0,-1,1588,883,0,0
371,141,0,0,0,0,0,0,0,0,0,-1,1595,883,0,0
378,141,0,0,0,0,0,0,0,0,0,-1,1602,883,0,0
385,141,0,0,0,0,0,0,0,0,0,-1,1609,883,0,0
392,141,0,0,0,0,0,0,0,0,0,-1,1616,883,0,0
399,141,0,0,0,0,0,0,0,0,0,-1,1623,883,0,0
406,141,0,0,0,0,0,0,0,0,0,-1,1630,883,0,0
413,141,0,0,0,0,0,0,0,0,0,-1,1637,883,0,0
420,141,0,0,0,0,0,0,0,0,0,-1,1644,883,0,0
427,141,0,0,0,0,0,0,0,0,0,-1,1651,883,0,0
434,141,0,0,0,0,0,0,0,0,0,-1,1658,883,0,0
441,141,0,0,0,0,0,0,0,0,0,-1,1665,883,0,0
448,141,0,0,0,0,0,0,0,0,0,-1,1672,883,0,0
455,141,0,0,0,0,0,0,0,0,0,-1,1679,883,0,0
462,141,0,0,0,0,0,0,0,0,0,-1,1686,883,0,0
469,141,0,0,0,0,0,0,0,0,0,-1,1693,883,0,0
476,141,0,0,0,0,0,0,0,0,0,-1,1700,883,0,0
483,141,0,0,0,0,0,0,0,0,0,-1,1707,883,0,0
490,141,0,0,0,0,0,0,0,0,0,-1,1714,883,0,0
497,141,0,0,0,0,0,0,0,0,0,-1,1721,883,0,0
504,141,0,0,0,0,0,0,0,0,0,-1,1728,883,0,0
511,141,0,0,0,0,0,0,0,0,0,-1,1735,883,0,0
518,141,0,0,0,0,0,0,0,0,0,-1,1742,883,0,0
525,141,0,0,0,0,0,0,0,0,0,-1,1749,883,0,0
532,141,0,0,0,0,0,0,0,0,0,-1,1756,883,0,0
539,141,0,0,0,0,0,0,0,0,0,-1,1763,883,0,0
546,141,0,0,0,0,0,0,0,0,0,-1,1770,883,0,0
553,141,0,0,0,0,0,0,0,0,0,-1,1777,883,0,0
560,141,0,0,0,0,0,0,0,0,0,-1,1784,883,0,0
567,141,0,0,0,0,0,0,0,0,0,-1,1791,883,0,0
574,141,0,0,0,0,0,0,0,0,0,-1,1798,883,0,0
581,141,0,0,0,0,0,0,0,0,0,-1,1805,883,0,0
588,141,0,0,0,0,0,0,0,0,0,-1,1812,883,0,0
595,141,0,0,0,0,0,0,0,0,0,-1,1819,883,0,0
602,141,0,0,0,0,0,0,0,0,0,-1,1826,883,0,0
609,141,0,0,0,0,0,0,0,0,0,-1,1833,883,0,0
616,141,0,0,0,0,0,0,0,0,0,-1,1840,883,0,0
623,141,21.4458,3.02142,-0.00839281,0.00140427,0.00603666,0.00427985,-0.0112684,1.12624,0.00927412,0.04801,1847,883,21.4458,-3.02143
630,141,21.1934,3.35278,-0.00541391,0.000925025,0.00385483,0.00274608,-0.00723496,1.12947,0.00595365,0.0485524,1854,883,21.1934,-3.35276
637,141,21.2836,3.32074,-0.00313694,0.000591658,0.00210851,0.00154186,-0.00408714,1.1474,0.00335883,0.0441084,1861,883,21.2836,-3.32072
644,141,21.2867,3.19843,-0.00198651,0.000255449,0.000747159,0.00048163,-0.00221269,1.27684,0.00165914,0.039803,1868,883,21.2867,-3.19841
651,141,21.4388,3.14325,-0.00252874,-1.01639e-07,-0.000345984,4.63834e-05,-0.00257522,-1.43724,0.00173248,0.0385157,1875,883,21.4389,-3.14325
658,141,21.4296,3.09003,-0.00363054,-0.000173144,-0.00106759,0.000129943,-0.00393363,-1.29418,0.00266679,0.0371543,1882,883,21.4296,-3.09004
665,141,21.2432,3.09521,-0.00474265,-0.000266546,-0.00153597,0.00020982,-0.00521902,-1.27006,0.00355135,0.0277786,1889,883,21.2431,-3.09521
672,141,21.2733,3.05347,-0.00572507,-0.000415823,-0.00184651,0.000163225,-0.00630412,-1.26692,0.0042582,0.0233176,1896,883,21.2733,-3.05346
679,141,21.2279,3.02014,-0.00646808,-0.000420108,-0.00216491,0.000274956,-0.00716315,-1.26013,0.00486967,0.0286351,1903,883,21.2279,-3.02013
686,141,21.1874,3.03912,0,0,0,0,0,0,0,-1,1910,883,21.1874,-3.0391
693,141,18.433,3.00574,0,0,0,0,0,0,0,-1,1917,883,18.433,-3.00575
700,141,18.5809,3.20709,-0.00825704,-0.000254473,-0.00208494,0.000256143,-0.00876765,-1.33062,0.00593233,0.0177628,1924,883,18.5809,-3.20707
707,141,18.5906,3.37415,-0.00810779,-0.000273718,-0.00195796,0.000188378,-0.00856989,-1.33903,0.00577707,0.0150038,1931,883,18.5906,-3.37412
714,141,18.5323,3.50964,-0.00701246,-0.000132914,-0.00186245,0.000338931,-0.00748431,-1.32267,0.00510627,0.0152003,1938,883,18.5324,-3.50962
721,141,18.5476,3.69958,-0.00478112,1.962e-05,-0.00177728,0.000605973,-0.00536747,-1.25213,0.00379646,0.0118482,1945,883,18.5476,-3.6996
728,141,18.5569,3.85883,-0.00110119,5.37574e-05,-0.00175966,0.00132828,-0.00237571,-0.943947,0.00216682,0.0148049,1952,883,18.5569,-3.85882
735,141,18.5326,4.0639,0.00414824,0.000315062,-0.00169189,0.00478818,-0.000324871,-0.361604,0.00330573,0.0162588,1959,883,18.5326,-4.06389
742,141,18.5098,4.24481,0.010899,-0.000151379,-0.00127598,0.0110444,-0.000296802,-0.11348,0.00746382,0.016617,1966,883,18.5098,-4.24479
749,141,18.5153,4.4079,0.0185482,-0.000649158,0.000360066,0.018555,-0.000655909,0.0187472,0.0125943,0.0133253,1973,883,18.5152,-4.40787
756,141,18.5073,4.59723,0.0273286,-0.0013601,0.00160823,0.0274185,-0.00144997,0.055825,0.018781,0.020345,1980,883,18.5073,-4.59726
763,141,18.6624,4.71039,0.038042,-0.00256342,0.00369271,0.0383751,-0.00289651,0.0899578,0.0266015,0.0438052,1987,883,18.6624,-4.71038
770,141,18.9181,4.72491,0.0513598,-0.00448748,0.00712094,0.0522535,-0.00538116,0.124846,0.0367609,0.0484546,1994,883,18.9181,-4.72489
777,141,19.9382,4.45599,0.0674523,-0.00743511,0.012377,0.0694449,-0.00942769,0.159621,0.0497379,0.0473183,2001,883,19.9382,-4.45599
784,141,20.7478,4.51929,0.0859172,-0.0117816,0.0200373,0.089867,-0.0157314,0.194628,0.0657851,0.04557,2008,883,20.7478,-4.51931
791,141,21.5055,4.59692,0.106075,-0.0179607,0.0309093,0.11335,-0.0252365,0.231182,0.0852337,0.0466974,2015,883,21.5055,-4.59695
798,141,0,0,0,0,0,0,0,0,0,-1,2022,883,0,0
805,141,0,0,0,0,0,0,0,0,0,-1,2029,883,0,0
812,141,0,0,0,0,0,0,0,0,0,-1,2036,883,0,0
-700,134,0,0,0,0,0,0,0,0,0,-1,524,890,0,0
-693,134,0,0,0,0,0,0,0,0,0,-1,531,890,0,0
-686,134,0,0,0,0,0,0,0,0,0,-1,538,890,0,0
-679,134,0,0,0,0,0,0,0,0,0,-1,545,890,0,0
-672,134,-13.5002,2.31158,-0.0122035,0.138887,0.00802877,0.139313,-0.0126289,1.51786,0.0973582,0.0452164,552,890,-13.5002,-2.31157
-665,134,-14.2075,1.54688,0,0,0,0,0,0,0,-1,559,890,-14.2075,-1.54685
-658,134,-12.7159,2.77832,-0.000448591,0.0838032,-0.000331809,0.0838045,-0.0004499,-1.56686,0.0560202,0.0418489,566,890,-12.7159,-2.7783
-651,134,-12.319,2.26093,0.0012742,0.0632613,-0.00167444,0.0633065,0.001229,-1.54381,0.0418007,0.040811,573,890,-12.3191,-2.26094
-644,134,-12.4763,2.30225,0.00160086,0.0467261,-0.00196672,0.0468117,0.0015153,-1.52732,0.0307151,0.0426379,580,890,-12.4763,-2.30225
-637,134,-11.8199,1.60333,0,0,0,0,0,0,0,-1,587,890,-11.82,-1.60331
-630,134,-11.8563,1.88141,0.000455475,0.0236273,-0.00108119,0.0236776,0.000405136,-1.52427,0.0156518,0.0382893,594,890,-11.8563,-1.88138
-623,134,-11.9084,2.12061,0.000184904,0.0149073,-0.000705926,0.0149411,0.000151133,-1.52299,0.00991074,0.0205893,601,890,-11.9084,-2.12062
-616,134,-12.009,1.98779,-0.000372268,0.0083882,-0.000367858,0.00840362,-0.000387688,-1.5289,0.00573601,0.0120803,608,890,-12.009,-1.98779
-609,134,-12.0424,1.84442,-0.00205433,0.00496969,0.000449052,0.00499828,-0.00208292,1.50721,0.00420224,0.0117975,615,890,-12.0424,-1.8444
-602,134,-12.0399,1.69141,-0.00470677,0.00199063,0.00171593,0.00240467,-0.00512081,1.33403,0.00443816,0.0115036,622,890,-12.0399,-1.69138
-595,134,-12.0339,1.56451,-0.00700748,9.39774e-05,0.00272316,0.00101799,-0.00793149,1.24367,0.0056576,0.0116401,629,890,-12.0339,-1.56452
-588,134,-12.1778,1.47821,-0.00761204,-0.0007817,0.00289089,0.000277572,-0.00867132,1.21957,0.00587559,0.0199429,636,890,-12.1778,-1.4782
-581,134,-12.1076,1.24994,-0.00855955,-0.00138533,0.00313387,-0.000209191,-0.00973569,1.21176,0.00642186,0.0256907,643,890,-12.1076,-1.24995
-574,134,-12.0726,1.07507,-0.00974726,-0.00157757,0.00322898,-0.000455475,-0.0108694,1.23634,0.00709928,0.0272447,650,890,-12.0726,-1.07507
-567,134,-11.9841,0.937256,-0.0104885,-0.00175033,0.0032887,-0.000650925,-0.0115879,1.24818,0.00751769,0.0213413,657,890,-11.9841,-0.937267
-560,134,-12.5008,1.11414,-0.0105761,-0.00188993,0.00340595,-0.000713694,-0.0117523,1.23827,0.00760816,0.0417062,664,890,-12.5008,-1.11413
-553,134,-13.3505,1.43616,0,0,0,0,0,0,0,-1,671,890,-13.3505,-1.43615
-546,134,-13.9286,1.07819,-0.00979555,-0.0021813,0.00321073,-0.00100817,-0.0109687,1.22049,0.00700064,0.0252757,678,890,-13.9286,-1.07816
-539,134,-13.9151,1.09314,-0.00824303,-0.00215466,0.00295328,-0.00095751,-0.00944018,1.18568,0.00599981,0.0175407,685,890,-13.9151,-1.09316
-532,134,-13.9093,1.06372,-0.00582021,-0.00210921,0.00250221,-0.000849597,-0.00707983,1.10443,0.00446372,0.0225359,692,890,-13.9093,-1.06371
-525,134,-13.92,1.01288,-0.00228801,-0.00203648,0.00190899,-0.000249113,-0.00407537,0.818291,0.0026378,0.0367342,699,890,-13.9201,-1.01286
-518,134,-13.9902,0.987793,0.00262818,-0.0019484,0.00123748,0.00294136,-0.00226158,0.247872,0.00301246,0.0437786,706,890,-13.9902,-0.987777
-511,134,-13.9135,1.35486,0.00824483,-0.00190341,0.000999492,0.00834233,-0.00200091,0.0972442,0.00633475,0.0421926,713,890,-13.9135,-1.35484
-504,134,0,0,0,0,0,0,0,0,0,-1,720,890,0,0
-497,134,0,0,0,0,0,0,0,0,0,-1,727,890,0,0
-490,134,0,0,0,0,0,0,0,0,0,-1,734,890,0,0
-483,134,0,0,0,0,0,0,0,0,0,-1,741,890,0,0
-476,134,0,0,0,0,0,0,0,0,0,-1,748,890,0,0
-469,134,0,0,0,0,0,0,0,0,0,-1,755,890,0,0
-462,134,0,0,0,0,0,0,0,0,0,-1,762,890,0,0
-455,134,0,0,0,0,0,0,0,0,0,-1,769,890,0,0
-448,134,0,0,0,0,0,0,0,0,0,-1,776,890,0,0
-441,134,0,0,0,0,0,0,0,0,0,-1,783,890,0,0
-434,134,0,0,0,0,0,0,0,0,0,-1,790,890,0,0
-427,134,0,0,0,0,0,0,0,0,0,-1,797,890,0,0
-420,134,0,0,0,0,0,0,0,0,0,-1,804,890,0,0
-413,134,0,0,0,0,0,0,0,0,0,-1,811,890,0,0
-406,134,0,0,0,0,0,0,0,0,0,-1,818,890,0,0
-399,134,0,0,0,0,0,0,0,0,0,-1,825,890,0,0
-392,134,0,0,0,0,0,0,0,0,0,-1,832,890,0,0
-385,134,0,0,0,0,0,0,0,0,0,-1,839,890,0,0
-378,134,0,0,0,0,0,0,0,0,0,-1,846,890,0,0
-371,134,0,0,0,0,0,0,0,0,0,-1,853,890,0,0
-364,134,0,0,0,0,0,0,0,0,0,-1,860,890,0,0
-357,134,0,0,0,0,0,0,0,0,0,-1,867,890,0,0
-350,134,0,0,0,0,0,0,0,0,0,-1,874,890,0,0
-343,134,0,0,0,0,0,0,0,0,0,-1,881,890,0,0
-336,134,0,0,0,0,0,0,0,0,0,-1,888,890,0,0
-329,134,0,0,0,0,0,0,0,0,0,-1,895,890,0,0
-322,134,0,0,0,0,0,0,0,0,0,-1,902,890,0,0
-315,134,0,0,0,0,0,0,0,0,0,-1,909,890,0,0
-308,134,0,0,0,0,0,0,0,0,0,-1,916,890,0,0
-301,134,0,0,0,0,0,0,0,0,0,-1,923,890,0,0
-294,134,0,0,0,0,0,0,0,0,0,-1,930,890,0,0
-287,134,0,0,0,0,0,0,0,0,0,-1,937,890,0,0
-280,134,0,0,0,0,0,0,0,0,0,-1,944,890,0,0
-273,134,0,0,0,0,0,0,0,0,0,-1,951,890,0,0
-266,134,0,0,0,0,0,0,0,0,0,-1,958,890,0,0
-259,134,0,0,0,0,0,0,0,0,0,-1,965,890,0,0
-252,134,0,0,0,0,0,0,0,0,0,-1,972,890,0,0
-245,134,0,0,0,0,0,0,0,0,0,-1,979,890,0,0
-238,134,0,0,0,0,0,0,0,0,0,-1,986,890,0,0
-231,134,0,0,0,0,0,0,0,0,0,-1,993,890,0,0
-224,134,0,0,0,0,0,0,0,0,0,-1,1000,890,0,0
-217,134,0,0,0,0,0,0,0,0,0,-1,1007,890,0,0
-210,134,0,0,0,0,0,0,0,0,0,-1,1014,890,0,0
-203,134,0,0,0,0,0,0,0,0,0,-1,1021,890,0,0
-196,134,0,0,0,0,0,0,0,0,0,-1,1028,890,0,0
-189,134,0,0,0,0,0,0,0,0,0,-1,1035,890,0,0
-182,134,0,0,0,0,0,0,0,0,0,-1,1042,890,0,0
-175,134,0,0,0,0,0,0,0,0,0,-1,1049,890,0,0
-168,134,0,0,0,0,0,0,0,0,0,-1,1056,890,0,0
-161,134,0,0,0,0,0,0,0,0,0,-1,1063,890,0,0
-154,134,0,0,0,0,0,0,0,0,0,-1,1070,890,0,0
-147,134,0,0,0,0,0,0,0,0,0,-1,1077,890,0,0
-140,134,0,0,0,0,0,0,0,0,0,-1,1084,890,0,0
-133,134,0,0,0,0,0,0,0,0,0,-1,1091,890,0,0
-126,134,0,0,0,0,0,0,0,0,0,-1,1098,890,0,0
-119,134,0,0,0,0,0,0,0,0,0,-1,1105,890,0,0
-112,134,0,0,0,0,0,0,0,0,0,-1,1112,890,0,0
-105,134,0,0,0,0,0,0,0,0,0,-1,1119,890,0,0
-98,134,0,0,0,0,0,0,0,0,0,-1,1126,890,0,0
-91,134,0,0,0,0,0,0,0,0,0,-1,1133,890,0,0
-84,134,0,0,0,0,0,0,0,0,0,-1,1140,890,0,0
-77,134,0,0,0,0,0,0,0,0,0,-1,1147,890,0,0
-70,134,0,0,0,0,0,0,0,0,0,-1,1154,890,0,0
-63,134,0,0,0,0,0,0,0,0,0,-1,1161,890,0,0
-56,134,0,0,0,0,0,0,0,0,0,-1,1168,890,0,0
-49,134,0,0,0,0,0,0,0,0,0,-1,1175,890,0,0
-42,134,0,0,0,0,0,0,0,0,0,-1,1182,890,0,0
-35,134,0,0,0,0,0,0,0,0,0,-1,1189,890,0,0
-28,134,0,0,0,0,0,0,0,0,0,-1,1196,890,0,0
-21,134,0,0,0,0,0,0,0,0,0,-1,1203,890,0,0
-14,134,0,0,0,0,0,0,0,0,0,-1,1210,890,0,0
-7,134,0,0,0,0,0,0,0,0,0,-1,1217,890,0,0
0,134,0,0,0,0,0,0,0,0,0,-1,1224,890,0,0
7,134,0,0,0,0,0,0,0,0,0,-1,1231,890,0,0
14,134,0,0,0,0,0,0,0,0,0,-1,1238,890,0,0
21,134,0,0,0,0,0,0,0,0,0,-1,1245,890,0,0
28,134,0,0,0,0,0,0,0,0,0,-1,1252,890,0,0
35,134,0,0,0,0,0,0,0,0,0,-1,1259,890,0,0
42,134,0,0,0,0,0,0,0,0,0,-1,1266,890,0,0
49,134,0,0,0,0,0,0,0,0,0,-1,1273,890,0,0
56,134,0,0,0,0,0,0,0,0,0,-1,1280,890,0,0
63,134,0,0,0,0,0,0,0,0,0,-1,1287,890,0,0
70,134,0,0,0,0,0,0,0,0,0,-1,1294,890,0,0
77,134,0,0,0,0,0,0,0,0,0,-1,1301,890,0,0
84,134,0,0,0,0,0,0,0,0,0,-1,1308,890,0,0
91,134,0,0,0,0,0,0,0,0,0,-1,1315,890,0,0
98,134,0,0,0,0,0,0,0,0,0,-1,1322,890,0,0
105,134,0,0,0,0,0,0,0,0,0,-1,1329,890,0,0
112,134,0,0,0,0,0,0,0,0,0,-1,1336,890,0,0
119,134,0,0,0,0,0,0,0,0,0,-1,1343,890,0,0
126,134,0,0,0,0,0,0,0,0,0,-1,1350,890,0,0
133,134,0,0,0,0,0,0,0,0,0,-1,1357,890,0,0
140,134,0,0,0,0,0,0,0,0,0,-1,1364,890,0,0
147,134,0,0,0,0,0,0,0,0,0,-1,1371,890,0,0
154,134,0,0,0,0,0,0,0,0,0,-1,1378,890,0,0
161,134,0,0,0,0,0,0,0,0,0,-1,1385,890,0,0
168,134,0,0,0,0,0,0,0,0,0,-1,1392,890,0,0
175,134,0,0,0,0,0,0,0,0,0,-1,1399,890,0,0
182,134,0,0,0,0,0,0,0,0,0,-1,1406,890,0,0
189,134,0,0,0,0,0,0,0,0,0,-1,1413,890,0,0
196,134,0,0,0,0,0,0,0,0,0,-1,1420,890,0,0
203,134,0,0,0,0,0,0,0,0,0,-1,1427,890,0,0
210,134,0,0,0,0,0,0,0,0,0,-1,1434,890,0,0
217,134,0,0,0,0,0,0,0,0,0,-1,1441,890,0,0
224,134,0,0,0,0,0,0,0,0,0,-1,1448,890,0,0
231,134,0,0,0,0,0,0,0,0,0,-1,1455,890,0,0
238,134,0,0,0,0,0,0,0,0,0,-1,1462,890,0,0
245,134,0,0,0,0,0,0,0,0,0,-1,1469,890,0,0
252,134,0,0,0,0,0,0,0,0,0,-1,1476,890,0,0
259,134,0,0,0,0,0,0,0,0,0,-1,1483,890,0,0
266,134,0,0,0,0,0,0,0,0,0,-1,1490,890,0,0
273,134,0,0,0,0,0,0,0,0,0,-1,1497,890,0,0
280,134,0,0,0,0,0,0,0,0,0,-1,1504,890,0,0
287,134,0,0,0,0,0,0,0,0,0,-1,1511,890,0,0
294,134,0,0,0,0,0,0,0,0,0,-1,1518,890,0,0
301,134,0,0,0,0,0,0,0,0,0,-1,1525,890,0,0
308,134,0,0,0,0,0,0,0,0,0,-1,1532,890,0,0
315,134,0,0,0,0,0,0,0,0,0,-1,1539,890,0,0
322,134,0,0,0,0,0,0,0,0,0,-1,1546,890,0,0
329,134,0,0,0,0,0,0,0,0,0,-1,1553,890,0,0
336,134,0,0,0,0,0,0,0,0,0,-1,1560,890,0,0
343,134,0,0,0,0,0,0,0,0,0,-1,1567,890,0,0
350,134,0,0,0,0,0,0,0,0,0,-1,1574,890,0,0
357,134,0,0,0,0,0,0,0,0,0,-1,1581,890,0,0
364,134,0,0,0,0,0,0,0,0,0,-1,1588,890,0,0
371,134,0,0,0,0,0,0,0,0,0,-1,1595,890,0,0
378,134,0,0,0,0,0,0,0,0,0,-1,1602,890,0,0
385,134,0,0,0,0,0,0,0,0,0,-1,1609,890,0,0
392,134,0,0,0,0,0,0,0,0,0,-1,1616,890,0,0
399,134,0,0,0,0,0,0,0,0,0,-1,1623,890,0,0
406,134,0,0,0,0,0,0,0,0,0,-1,1630,890,0,0
413,134,0,0,0,0,0,0,0,0,0,-1,1637,890,0,0
420,134,0,0,0,0,0,0,0,0,0,-1,1644,890,0,0
427,134,0,0,0,0,0,0,0,0,0,-1,1651,890,0,0
434,134,0,0,0,0,0,0,0,0,0,-1,1658,890,0,0
441,134,0,0,0,0,0,0,0,0,0,-1,1665,890,0,0
448,134,0,0,0,0,0,0,0,0,0,-1,1672,890,0,0
455,134,0,0,0,0,0,0,0,0,0,-1,1679,890,0,0
462,134,0,0,0,0,0,0,0,0,0,-1,1686,890,0,0
469,134,0,0,0,0,0,0,0,0,0,-1,1693,890,0,0
476,134,0,0,0,0,0,0,0,0,0,-1,1700,890,0,0
483,134,0,0,0,0,0,0,0,0,0,-1,1707,890,0,0
490,134,0,0,0,0,0,0,0,0,0,-1,1714,890,0,0
497,134,0,0,0,0,0,0,0,0,0,-1,1721,890,0,0
504,134,0,0,0,0,0,0,0,0,0,-1,1728,890,0,0
511,134,0,0,0,0,0,0,0,0,0,-1,1735,890,0,0
518,134,0,0,0,0,0,0,0,0,0,-1,1742,890,0,0
525,134,0,0,0,0,0,0,0,0,0,-1,1749,890,0,0
532,134,0,0,0,0,0,0,0,0,0,-1,1756,890,0,0
539,134,0,0,0,0,0,0,0,0,0,-1,1763,890,0,0
546,134,0,0,0,0,0,0,0,0,0,-1,1770,890,0,0
553,134,0,0,0,0,0,0,0,0,0,-1,1777,890,0,0
560,134,0,0,0,0,0,0,0,0,0,-1,1784,890,0,0
567,134,0,0,0,0,0,0,0,0,0,-1,1791,890,0,0
574,134,0,0,0,0,0,0,0,0,0,-1,1798,890,0,0
581,134,0,0,0,0,0,0,0,0,0,-1,1805,890,0,0
588,134,0,0,0,0,0,0,0,0,0,-1,1812,890,0,0
595,134,0,0,0,0,0,0,0,0,0,-1,1819,890,0,0
602,134,0,0,0,0,0,0,0,0,0,-1,1826,890,0,0
609,134,0,0,0,0,0,0,0,0,0,-1,1833,890,0,0
616,134,0,0,0,0,0,0,0,0,0,-1,1840,890,0,0
623,134,21.2555,3.12927,-0.00946087,0.00141112,0.00553364,0.00373214,-0.0117819,1.17365,0.00935031,0.045574,1847,890,21.2555,-3.12929
630,134,21.1488,3.09912,-0.00636193,0.00108307,0.00339293,0.00239734,-0.0076762,1.20124,0.00607632,0.0478884,1854,890,21.1488,-3.0991
637,134,21.2527,3.32306,-0.003958,0.00086728,0.00177132,0.0014477,-0.00453842,1.25415,0.00360637,0.0475689,1861,890,21.2527,-3.32306
644,134,21.3234,3.22595,-0.00236809,0.000524694,0.000573222,0.000634141,-0.00247753,1.38213,0.0018987,0.0402383,1868,890,21.3233,-3.22593
651,134,21.3969,3.08368,-0.00285059,0.000254652,-0.000460404,0.000321477,-0.00291741,-1.42666,0.00206048,0.0401317,1875,890,21.3969,-3.08369
658,134,21.416,2.94073,-0.00417745,4.50774e-05,-0.0012027,0.00036361,-0.00449598,-1.31189,0.00312558,0.0394019,1882,890,21.416,-2.94075
665,134,21.2867,2.93127,-0.00556605,-0.000103475,-0.00168855,0.000376331,-0.00604585,-1.29394,0.00416169,0.0317837,1889,890,21.2867,-2.9313
672,134,21.3207,3.01099,-0.00677094,-0.000288082,-0.00199068,0.000274393,-0.00733341,-1.29542,0.00498293,0.0231251,1896,890,21.3207,-3.01097
679,134,21.2762,3.00085,-0.00767734,-0.000329503,-0.00229705,0.000329491,-0.00833634,-1.29141,0.00567058,0.0187783,1903,890,21.2763,-3.00085
686,134,20.7552,3.2381,0,0,0,0,0,0,0,-1,1910,890,20.7553,-3.23809
693,134,19.5284,3.18805,-0.0091965,-0.000300172,-0.00236582,0.000289843,-0.00978651,-1.32639,0.00662307,0.038684,1917,890,19.5285,-3.18802
700,134,18.6534,3.13281,-0.00948198,-0.000257262,-0.00221771,0.000248201,-0.00998745,-1.3467,0.00674255,0.0214342,1924,890,18.6534,-3.13282
707,134,18.5266,3.20514,-0.00926432,-0.000264495,-0.00209904,0.000200992,-0.00972981,-1.35257,0.00655456,0.0193792,1931,890,18.5266,-3.20517
714,134,18.5848,3.44995,-0.00808829,-0.000143703,-0.00200141,0.000332007,-0.008564,-1.33744,0.00582316,0.0182451,1938,890,18.5849,-3.44993
721,134,18.7142,3.69659,-0.00582876,3.14597e-05,-0.001867,0.000575718,-0.00637302,-1.28714,0.00445301,0.0151572,1945,890,18.7143,-3.69658
728,134,18.7312,3.86432,-0.00211858,0.000113686,-0.00175547,0.0010778,-0.00308269,-1.06856,0.00249329,0.015408,1952,890,18.7312,-3.86434
735,134,18.7112,4.05328,0.00326631,0.000558691,-0.00149482,0.00392925,-0.000104253,-0.41743,0.00265493,0.0222706,1959,890,18.7111,-4.05326
742,134,18.6857,4.2345,0.0102076,0.000306982,-0.00078192,0.010269,0.000245608,-0.0783297,0.0067656,0.0153974,1966,890,18.6857,-4.23452
749,134,18.7019,4.39172,0.0181179,6.98243e-06,0.00125893,0.018205,-8.01096e-05,0.0690698,0.0121634,0.0123503,1973,890,18.7019,-4.39175
756,134,18.6816,4.55408,0.02704,-0.00039791,0.00296826,0.0273574,-0.000715347,0.106539,0.0184813,0.0170189,1980,890,18.6816,-4.55409
763,134,18.8145,4.62909,0.0375526,-0.00118818,0.00560145,0.0383462,-0.00198183,0.140749,0.0262497,0.037715,1987,890,18.8145,-4.62912
770,134,19.4945,4.56592,0.0503234,-0.00253777,0.00970168,0.0520477,-0.00426209,0.175897,0.0362029,0.0437455,1994,890,19.4945,-4.56592
777,134,20.3029,4.62933,0.0656101,-0.00474363,0.0158269,0.0690066,-0.00814009,0.211395,0.0489439,0.0481894,2001,890,20.3029,-4.62934
784,134,21.1216,4.70795,0.0829625,-0.00811091,0.0245926,0.0891789,-0.0143273,0.24759,0.0647588,0.0486688,2008,890,21.1215,-4.70793
791,134,21.8917,4.76263,0.101667,-0.0129795,0.0368666,0.112499,-0.0238112,0.285767,0.084068,0.04656,2015,890,21.8917,-4.76262
798,134,0,0,0,0,0,0,0,0,0,-1,2022,890,0,0
805,134,0,0,0,0,0,0,0,0,0,-1,2029,890,0,0
812,134,0,0,0,0,0,0,0,0,0,-1,2036,890,0,0
-700,127,0,0,0,0,0,0,0,0,0,-1,524,897,0,0
-693,127,0,0,0,0,0,0,0,0,0,-1,531,897,0,0
-686,127,0,0,0,0,0,0,0,0,0,-1,538,897,0,0
-679,127,-14.4193,2.64844,-0.0223822,0.167884,0.01544,0.169129,-0.0236271,1.49035,0.121397,0.0440008,545,897,-14.4193,-2.64846
-672,127,-15.0374,1.6264,-0.0109776,0.133045,0.00800288,0.133488,-0.0114209,1.51546,0.0930329,0.0465913,552,897,-15.0374,-1.62641
-665,127,-15.7118,0.789734,0,0,0,0,0,0,0,-1,559,897,-15.7118,-0.78975
-658,127,-13.3726,2.56335,-0.000817832,0.0790906,0.000827131,0.0790991,-0.000826396,1.56045,0.0530104,0.0454258,566,897,-13.3726,-2.56334
-651,127,-11.3243,-1.04059,0.000682126,0.0592445,-0.000472672,0.0592483,0.000678312,-1.56273,0.0392747,0.0452934,573,897,-11.3243,1.04056
-644,127,-12.6302,1.64166,0,0,0,0,0,0,0,-1,580,897,-12.6302,-1.64165
-637,127,-12.3647,1.95343,0.000563479,0.0310905,-0.000777911,0.0311103,0.000543669,-1.54534,0.0205614,0.0456131,587,897,-12.3647,-1.95343
-630,127,-12.0853,2.04089,-3.56263e-05,0.0216886,-0.000443689,0.0216977,-4.46849e-05,-1.55038,0.01448,0.0323997,594,897,-12.0853,-2.04089
-623,127,-12.1428,2.08453,-0.000306026,0.0134576,-0.000269129,0.0134629,-0.000311286,-1.55125,0.0090808,0.0137263,601,897,-12.1428,-2.0845
-616,127,-12.1807,1.98334,-0.000936326,0.00737476,-6.65093e-05,0.00737529,-0.000936858,-1.56279,0.00525705,0.00998124,608,897,-12.1807,-1.98333
-609,127,-12.1968,1.82623,-0.00269769,0.00437365,0.000637802,0.00443072,-0.00275476,1.48156,0.00418598,0.0133883,615,897,-12.1969,-1.82624
-602,127,-12.1875,1.67902,-0.00529069,0.0016587,0.00171832,0.00206036,-0.00569235,1.34117,0.00463687,0.0142011,622,897,-12.1875,-1.679
-595,127,-12.1766,1.56622,-0.00739096,7.08346e-05,0.00259657,0.000885461,-0.00820559,1.26679,0.00578817,0.0143586,629,897,-12.1766,-1.56621
-588,127,-12.2576,1.44946,-0.00779164,-0.000650724,0.00268464,0.00024597,-0.00868833,1.24844,0.00587593,0.0188735,636,897,-12.2576,-1.44944
-581,127,-12.2939,1.25079,-0.00852564,-0.00120524,0.00288043,-0.000207769,-0.00952311,1.23743,0.00628063,0.0280853,643,897,-12.2939,-1.25081
-574,127,-12.2619,1.09271,-0.00953025,-0.00144783,0.00297221,-0.000472528,-0.0105056,1.25373,0.00685163,0.0268963,650,897,-12.2619,-1.09273
-567,127,-12.1876,0.877808,-0.0101377,-0.00160593,0.00305241,-0.000626343,-0.0111173,1.26026,0.00721183,0.0423532,657,897,-12.1876,-0.877813
-560,127,-12.8271,1.14917,-0.0101219,-0.00177896,0.0031751,-0.000708063,-0.0111928,1.2455,0.00723742,0.0456416,664,897,-12.8272,-1.14919
-553,127,-13.7021,1.40674,0,0,0,0,0,0,0,-1,671,897,-13.7021,-1.40673
-546,127,-13.8759,1.0484,-0.00905631,-0.00209364,0.00294787,-0.00101321,-0.0101367,1.21949,0.00644668,0.0237254,678,897,-13.8759,-1.04838
-539,127,-13.858,1.07684,-0.00745423,-0.00209698,0.0026297,-0.00102189,-0.00852932,1.18271,0.00537804,0.0204561,685,897,-13.858,-1.07683
-532,127,-13.8622,1.12775,-0.00501831,-0.00209387,0.00211485,-0.000984974,-0.00612721,1.08787,0.00379929,0.0159311,692,897,-13.8622,-1.12775
-525,127,-13.9324,1.20715,-0.00157744,-0.00210173,0.00141019,-0.000405235,-0.00327394,0.693501,0.00206087,0.0311546,699,897,-13.9324,-1.20713
-518,127,-13.9753,1.24738,0.00289927,-0.00214539,0.000573422,0.00296363,-0.00220974,0.11177,0.0029974,0.039061,706,897,-13.9753,-1.24738
-511,127,-13.7564,1.1496,0.00719239,-0.00232121,0.000247245,0.00719881,-0.00232763,0.0259652,0.00573476,0.0409324,713,897,-13.7564,-1.14961
-504,127,0,0,0,0,0,0,0,0,0,-1,720,897,0,0
-497,127,0,0,0,0,0,0,0,0,0,-1,727,897,0,0
-490,127,0,0,0,0,0,0,0,0,0,-1,734,897,0,0
-483,127,0,0,0,0,0,0,0,0,0,-1,741,897,0,0
-476,127,0,0,0,0,0,0,0,0,0,-1,748,897,0,0
-469,127,0,0,0,0,0,0,0,0,0,-1,755,897,0,0
-462,127,0,0,0,0,0,0,0,0,0,-1,762,897,0,0
-455,127,0,0,0,0,0,0,0,0,0,-1,769,897,0,0
-448,127,0,0,0,0,0,0,0,0,0,-1,776,897,0,0
-441,127,0,0,0,0,0,0,0,0,0,-1,783,897,0,0
-434,127,0,0,0,0,0,0,0,0,0,-1,790,897,0,0
-427,127,0,0,0,0,0,0,0,0,0,-1,797,897,0,0
-420,127,0,0,0,0,0,0,0,0,0,-1,804,897,0,0
-413,127,0,0,0,0,0,0,0,0,0,-1,811,897,0,0
-406,127,0,0,0,0,0,0,0,0,0,-1,818,897,0,0
-399,127,0,0,0,0,0,0,0,0,0,-1,825,897,0,0
-392,127,0,0,0,0,0,0,0,0,0,-1,832,897,0,0
-385,127,0,0,0,0,0,0,0,0,0,-1,839,897,0,0
-378,127,0,0,0,0,0,0,0,0,0,-1,846,897,0,0
-371,127,0,0,0,0,0,0,0,0,0,-1,853,897,0,0
-364,127,0,0,0,0,0,0,0,0,0,-1,860,897,0,0
-357,127,0,0,0,0,0,0,0,0,0,-1,867,897,0,0
-350,127,0,0,0,0,0,0,0,0,0,-1,874,897,0,0
-343,127,0,0,0,0,0,0,0,0,0,-1,881,897,0,0
-336,127,0,0,0,0,0,0,0,0,0,-1,888,897,0,0
-329,127,0,0,0,0,0,0,0,0,0,-1,895,897,0,0
-322,127,0,0,0,0,0,0,0,0,0,-1,902,897,0,0
-315,127,0,0,0,0,0,0,0,0,0,-1,909,897,0,0
-308,127,0,0,0,0,0,0,0,0,0,-1,916,897,0,0
-301,127,0,0,0,0,0,0,0,0,0,-1,923,897,0,0
-294,127,0,0,0,0,0,0,0,0,0,-1,930,897,0,0
-287,127,0,0,0,0,0,0,0,0,0,-1,937,897,0,0
-280,127,0,0,0,0,0,0,0,0,0,-1,944,897,0,0
-273,127,0,0,0,0,0,0,0,0,0,-1,951,897,0,0
-266,127,0,0,0,0,0,0,0,0,0,-1,958,897,0,0
-259,127,0,0,0,0,0,0,0,0,0,-1,965,897,0,0
-252,127,0,0,0,0,0,0,0,0,0,-1,972,897,0,0
-245,127,0,0,0,0,0,0,0,0,0,-1,979,897,0,0
-238,127,0,0,0,0,0,0,0,0,0,-1,986,897,0,0
-231,127,0,0,0,0,0,0,0,0,0,-1,993,897,0,0
-224,127,0,0,0,0,0,0,0,0,0,-1,1000,897,0,0
-217,127,0,0,0,0,0,0,0,0,0,-1,1007,897,0,0
-210,127,0,0,0,0,0,0,0,0,0,-1,1014,897,0,0
-203,127,0,0,0,0,0,0,0,0,0,-1,1021,897,0,0
-196,127,0,0,0,0,0,0,0,0,0,-1,1028,897,0,0
-189,127,0,0,0,0,0,0,0,0,0,-1,1035,897,0,0
-182,127,0,0,0,0,0,0,0,0,0,-1,1042,897,0,0
-175,127,0,0,0,0,0,0,0,0,0,-1,1049,897,0,0
-168,127,0,0,0,0,0,0,0,0,0,-1,1056,897,0,0
-161,127,0,0,0,0,0,0,0,0,0,-1,1063,897,0,0
-154,127,0,0,0,0,0,0,0,0,0,-1,1070,897,0,0
-147,127,0,0,0,0,0,0,0,0,0,-1,1077,897,0,0
-140,127,0,0,0,0,0,0,0,0,0,-1,1084,897,0,0
-133,127,0,0,0,0,0,0,0,0,0,-1,1091,897,0,0
-126,127,0,0,0,0,0,0,0,0,0,-1,1098,897,0,0
-119,127,0,0,0,0,0,0,0,0,0,-1,1105,897,0,0
-112,127,0,0,0,0,0,0,0,0,0,-1,1112,897,0,0
-105,127,0,0,0,0,0,0,0,0,0,-1,1119,897,0,0
-98,127,0,0,0,0,0,0,0,0,0,-1,1126,897,0,0
-91,127,0,0,0,0,0,0,0,0,0,-1,1133,897,0,0
-84,127,0,0,0,0,0,0,0,0,0,-1,1140,897,0,0
-77,127,0,0,0,0,0,0,0,0,0,-1,1147,897,0,0
-70,127,0,0,0,0,0,0,0,0,0,-1,1154,897,0,0
-63,127,0,0,0,0,0,0,0,0,0,-1,1161,897,0,0
-56,127,0,0,0,0,0,0,0,0,0,-1,1168,897,0,0
-49,127,0,0,0,0,0,0,0,0,0,-1,1175,897,0,0
-42,127,0,0,0,0,0,0,0,0,0,-1,1182,897,0,0
-35,127,0,0,0,0,0,0,0,0,0,-1,1189,897,0,0
-28,127,0,0,0,0,0,0,0,0,0,-1,1196,897,0,0
-21,127,0,0,0,0,0,0,0,0,0,-1,1203,897,0,0
-14,127,0,0,0,0,0,0,0,0,0,-1,1210,897,0,0
-7,127,0,0,0,0,0,0,0,0,0,-1,1217,897,0,0
0,127,0,0,0,0,0,0,0,0,0,-1,1224,897,0,0
7,127,0,0,0,0,0,0,0,0,0,-1,1231,897,0,0
14,127,0,0,0,0,0,0,0,0,0,-1,1238,897,0,0
21,127,0,0,0,0,0,0,0,0,0,-1,1245,897,0,0
28,127,0,0,0,0,0,0,0,0,0,-1,1252,897,0,0
35,127,0,0,0,0,0,0,0,0,0,-1,1259,897,0,0
42,127,0,0,0,0,0,0,0,0,0,-1,1266,897,0,0
49,127,0,0,0,0,0,0,0,0,0,-1,1273,897,0,0
56,127,0,0,0,0,0,0,0,0,0,-1,1280,897,0,0
63,127,0,0,0,0,0,0,0,0,0,-1,1287,897,0,0
70,127,0,0,0,0,0,0,0,0,0,-1,1294,897,0,0
77,127,0,0,0,0,0,0,0,0,0,-1,1301,897,0,0
84,127,0,0,0,0,0,0,0,0,0,-1,1308,897,0,0
91,127,0,0,0,0,0,0,0,0,0,-1,1315,897,0,0
98,127,0,0,0,0,0,0,0,0,0,-1,1322,897,0,0
105,127,0,0,0,0,0,0,0,0,0,-1,1329,897,0,0
112,127,0,0,0,0,0,0,0,0,0,-1,1336,897,0,0
119,127,0,0,0,0,0,0,0,0,0,-1,1343,897,0,0
126,127,0,0,0,0,0,0,0,0,0,-1,1350,897,0,0
133,127,0,0,0,0,0,0,0,0,0,-1,1357,897,0,0
140,127,0,0,0,0,0,0,0,0,0,-1,1364,897,0,0
147,127,0,0,0,0,0,0,0,0,0,-1,1371,897,0,0
154,127,0,0,0,0,0,0,0,0,0,-1,1378,897,0,0
161,127,0,0,0,0,0,0,0,0,0,-1,1385,897,0,0
168,127,0,0,0,0,0,0,0,0,0,-1,1392,897,0,0
175,127,0,0,0,0,0,0,0,0,0,-1,1399,897,0,0
182,127,0,0,0,0,0,0,0,0,0,-1,1406,897,0,0
189,127,0,0,0,0,0,0,0,0,0,-1,1413,897,0,0
196,127,0,0,0,0,0,0,0,0,0,-1,1420,897,0,0
203,127,0,0,0,0,0,0,0,0,0,-1,1427,897,0,0
210,127,0,0,0,0,0,0,0,0,0,-1,1434,897,0,0
217,127,0,0,0,0,0,0,0,0,0,-1,1441,897,0,0
224,127,0,0,0,0,0,0,0,0,0,-1,1448,897,0,0
231,127,0,0,0,0,0,0,0,0,0,-1,1455,897,0,0
238,127,0,0,0,0,0,0,0,0,0,-1,1462,897,0,0
245,127,0,0,0,0,0,0,0,0,0,-1,1469,897,0,0
252,127,0,0,0,0,0,0,0,0,0,-1,1476,897,0,0
259,127,0,0,0,0,0,0,0,0,0,-1,1483,897,0,0
266,127,0,0,0,0,0,0,0,0,0,-1,1490,897,0,0
273,127,0,0,0,0,0,0,0,0,0,-1,1497,897,0,0
280,127,0,0,0,0,0,0,0,0,0,-1,1504,897,0,0
287,127,0,0,0,0,0,0,0,0,0,-1,1511,897,0,0
294,127,0,0,0,0,0,0,0,0,0,-1,1518,897,0,0
301,127,0,0,0,0,0,0,0,0,0,-1,1525,897,0,0
308,127,0,0,0,0,0,0,0,0,0,-1,1532,897,0,0
315,127,0,0,0,0,0,0,0,0,0,-1,1539,897,0,0
322,127,0,0,0,0,0,0,0,0,0,-1,1546,897,0,0
329,127,0,0,0,0,0,0,0,0,0,-1,1553,897,0,0
336,127,0,0,0,0,0,0,0,0,0,-1,1560,897,0,0
343,127,0,0,0,0,0,0,0,0,0,-1,1567,897,0,0
350,127,0,0,0,0,0,0,0,0,0,-1,1574,897,0,0
357,127,0,0,0,0,0,0,0,0,0,-1,1581,897,0,0
364,127,0,0,0,0,0,0,0,0,0,-1,1588,897,0,0
371,127,0,0,0,0,0,0,0,0,0,-1,1595,897,0,0
378,127,0,0,0,0,0,0,0,0,0,-1,1602,897,0,0
385,127,0,0,0,0,0,0,0,0,0,-1,1609,897,0,0
392,127,0,0,0,0,0,0,0,0,0,-1,1616,897,0,0
399,127,0,0,0,0,0,0,0,0,0,-1,1623,897,0,0
406,127,0,0,0,0,0,0,0,0,0,-1,1630,897,0,0
413,127,0,0,0,0,0,0,0,0,0,-1,1637,897,0,0
420,127,0,0,0,0,0,0,0,0,0,-1,1644,897,0,0
427,127,0,0,0,0,0,0,0,0,0,-1,1651,897,0,0
434,127,0,0,0,0,0,0,0,0,0,-1,1658,897,0,0
441,127,0,0,0,0,0,0,0,0,0,-1,1665,897,0,0
448,127,0,0,0,0,0,0,0,0,0,-1,1672,897,0,0
455,127,0,0,0,0,0,0,0,0,0,-1,1679,897,0,0
462,127,0,0,0,0,0,0,0,0,0,-1,1686,897,0,0
469,127,0,0,0,0,0,0,0,0,0,-1,1693,897,0,0
476,127,0,0,0,0,0,0,0,0,0,-1,1700,897,0,0
483,127,0,0,0,0,0,0,0,0,0,-1,1707,897,0,0
490,127,0,0,0,0,0,0,0,0,0,-1,1714,897,0,0
497,127,0,0,0,0,0,0,0,0,0,-1,1721,897,0,0
504,127,0,0,0,0,0,0,0,0,0,-1,1728,897,0,0
511,127,0,0,0,0,0,0,0,0,0,-1,1735,897,0,0
518,127,0,0,0,0,0,0,0,0,0,-1,1742,897,0,0
525,127,0,0,0,0,0,0,0,0,0,-1,1749,897,0,0
532,127,0,0,0,0,0,0,0,0,0,-1,1756,897,0,0
539,127,0,0,0,0,0,0,0,0,0,-1,1763,897,0,0
546,127,0,0,0,0,0,0,0,0,0,-1,1770,897,0,0
553,127,0,0,0,0,0,0,0,0,0,-1,1777,897,0,0
560,127,0,0,0,0,0,0,0,0,0,-1,1784,897,0,0
567,127,0,0,0,0,0,0,0,0,0,-1,1791,897,0,0
574,127,0,0,0,0,0,0,0,0,0,-1,1798,897,0,0
581,127,0,0,0,0,0,0,0,0,0,-1,1805,897,0,0
588,127,0,0,0,0,0,0,0,0,0,-1,1812,897,0,0
595,127,0,0,0,0,0,0,0,0,0,-1,1819,897,0,0
602,127,0,0,0,0,0,0,0,0,0,-1,1826,897,0,0
609,127,0,0,0,0,0,0,0,0,0,-1,1833,897,0,0
616,127,0,0,0,0,0,0,0,0,0,-1,1840,897,0,0
623,127,0,0,0,0,0,0,0,0,0,-1,1847,897,0,0
630,127,21.0829,2.85846,0,0,0,0,0,0,0,-1,1854,897,21.0829,-2.85848
637,127,21.2584,2.99109,-0.00467971,0.00120585,0.000970162,0.00136165,-0.00483551,1.41157,0.00376064,0.0428597,1861,897,21.2584,-2.99107
644,127,21.359,2.93329,-0.0027282,0.000830709,0.000144287,0.000836549,-0.00273404,1.53034,0.00215633,0.0391071,1868,897,21.3591,-2.9333
651,127,21.381,2.7652,-0.00310717,0.000574975,-0.00067516,0.000694869,-0.00322707,-1.39505,0.00241653,0.0402558,1875,897,21.381,-2.76519
658,127,21.277,2.7005,-0.00458363,0.000358357,-0.00134023,0.000698415,-0.00492369,-1.32231,0.00353832,0.0411723,1882,897,21.277,-2.70051
665,127,21.2472,2.77417,-0.00620866,0.000187181,-0.00179488,0.00065645,-0.00667793,-1.31507,0.00468612,0.0370844,1889,897,21.2472,-2.77416
672,127,21.3309,2.8952,-0.00758613,-1.10534e-05,-0.00207904,0.000522041,-0.00811923,-1.31979,0.00559496,0.0300325,1896,897,21.3309,-2.89521
679,127,21.3444,2.93494,-0.00861683,-6.81583e-05,-0.00236452,0.000542269,-0.00922726,-1.31815,0.00634,0.0223613,1903,897,21.3443,-2.93494
686,127,21.2356,3.00769,0,0,0,0,0,0,0,-1,1910,897,21.2355,-3.0077
693,127,20.0052,3.05688,-0.010121,-8.55397e-05,-0.00243409,0.000473682,-0.0106802,-1.34497,0.00728317,0.038548,1917,897,20.0053,-3.0569
700,127,18.8899,3.15582,-0.0103314,-6.46722e-05,-0.00228524,0.000421019,-0.0108171,-1.36138,0.00735573,0.0287546,1924,897,18.8898,-3.15582
707,127,18.7185,3.26074,-0.0100281,-7.00205e-05,-0.00218908,0.000389957,-0.0104881,-1.36369,0.00712559,0.0235633,1931,897,18.7185,-3.26076
714,127,18.7772,3.47211,-0.00881986,3.4002e-05,-0.00210708,0.000509877,-0.00929573,-1.34868,0.00637392,0.0197382,1938,897,18.7772,-3.47212
721,127,18.9303,3.74487,-0.00663779,0.000211307,-0.00194583,0.000725515,-0.007152,-1.31244,0.00502732,0.0146228,1945,897,18.9303,-3.74487
728,127,18.9089,3.87189,-0.00306639,0.000329991,-0.00178665,0.00109675,-0.00383315,-1.16541,0.00298886,0.0134489,1952,897,18.9089,-3.8719
735,127,18.8956,4.04346,0.00218276,0.000950482,-0.00139962,0.00309586,3.73862e-05,-0.578052,0.00205156,0.0187153,1959,897,18.8956,-4.04346
742,127,18.8848,4.21326,0.00893575,0.00100012,-0.000490411,0.00896594,0.00096993,-0.0614868,0.00568165,0.0170217,1966,897,18.8848,-4.21326
749,127,18.876,4.36871,0.0166958,0.00113348,0.00178092,0.016897,0.000932272,0.112501,0.0109671,0.0123524,1973,897,18.876,-4.36873
756,127,18.8699,4.5163,0.025381,0.0012751,0.00380305,0.0259667,0.000689349,0.152821,0.017086,0.015034,1980,897,18.8699,-4.51629
763,127,18.8948,4.61646,0.0352406,0.0012232,0.0067834,0.0365434,-7.95834e-05,0.189744,0.0243888,0.0234088,1987,897,18.8948,-4.61646
770,127,19.5931,4.55365,0.0469155,0.000877373,0.0112789,0.0495302,-0.00173733,0.227799,0.0336142,0.0392891,1994,897,19.5932,-4.55363
777,127,20.3466,4.55475,0,0,0,0,0,0,0,-1,2001,897,20.3465,-4.55472
784,127,21.4556,4.86475,0,0,0,0,0,0,0,-1,2008,897,21.4556,-4.86477
791,127,22.505,4.64172,0,0,0,0,0,0,0,-1,2015,897,22.5051,-4.64171
798,127,0,0,0,0,0,0,0,0,0,-1,2022,897,0,0
805,127,0,0,0,0,0,0,0,0,0,-1,2029,897,0,0
812,127,0,0,0,0,0,0,0,0,0,-1,2036,897,0,0
-700,120,0,0,0,0,0,0,0,0,0,-1,524,904,0,0
-693,120,0,0,0,0,0,0,0,0,0,-1,531,904,0,0
-686,120,0,0,0,0,0,0,0,0,0,-1,538,904,0,0
-679,120,-15.9052,1.85187,-0.0195488,0.155773,0.0143477,0.156939,-0.0207152,1.48968,0.112171,0.0424025,545,904,-15.9052,-1.85184
-672,120,-16.496,0.962646,-0.0104692,0.122868,0.00857168,0.123416,-0.011018,1.50686,0.0861854,0.0446439,552,904,-16.496,-0.962643
-665,120,-17.0939,0.179993,0,0,0,0,0,0,0,-1,559,904,-17.0939,-0.179992
-658,120,-11.736,0.181885,-0.00221728,0.0724414,0.00278588,0.0725452,-0.00232109,1.53355,0.0491555,0.0407663,566,904,-11.736,-0.181887
-651,120,-11.6721,0.243591,-0.00088878,0.0539556,0.00157858,0.054001,-0.000934178,1.54205,0.0363161,0.0444539,573,904,-11.6721,-0.243587
-644,120,-12.2645,2.13232,0,0,0,0,0,0,0,-1,580,904,-12.2645,-2.13234
-637,120,-12.2781,2.1889,-0.000743233,0.0279048,0.000911815,0.0279338,-0.000772225,1.53901,0.0188852,0.0403063,587,904,-12.2781,-2.1889
-630,120,-12.2964,2.16644,-0.001137,0.019287,0.000913161,0.0193278,-0.00117774,1.5262,0.0132952,0.0216721,594,904,-12.2964,-2.16642
-623,120,-12.3268,2.0694,-0.00131383,0.0116831,0.000824207,0.0117351,-0.00136589,1.50772,0.0083162,0.0105779,601,904,-12.3268,-2.06942
-616,120,-12.342,1.9458,-0.00190555,0.00615239,0.000795336,0.00623014,-0.0019833,1.47335,0.00494882,0.0100793,608,904,-12.342,-1.94582
-609,120,-12.3488,1.81964,-0.00360049,0.00365982,0.00124403,0.00386706,-0.00380774,1.40572,0.00443109,0.0123665,615,904,-12.3488,-1.81964
-602,120,-12.361,1.70569,-0.00602004,0.00127028,0.00199729,0.0017816,-0.00653136,1.32017,0.00505389,0.012757,622,904,-12.361,-1.70567
-595,120,-12.3299,1.59283,-0.00783458,1.66156e-05,0.00263188,0.000817233,-0.00863519,1.27549,0.00604764,0.0173951,629,904,-12.3299,-1.59283
-588,120,-12.3478,1.44629,-0.00800959,-0.000517772,0.00256744,0.000277637,-0.008805,1.27037,0.0059647,0.0223136,636,904,-12.3478,-1.44629
-581,120,-12.4606,1.29523,-0.00850178,-0.000975003,0.00267207,-0.000122871,-0.00935391,1.26209,0.00619539,0.0276374,643,904,-12.4606,-1.29522
-574,120,-12.3606,1.09375,-0.009262,-0.00125305,0.00273372,-0.000408911,-0.0101061,1.2713,0.00660534,0.0224184,650,904,-12.3606,-1.09377
-567,120,-12.4736,0.979065,-0.00970111,-0.00141366,0.00284071,-0.000533435,-0.0105813,1.27032,0.00688331,0.0470649,657,904,-12.4736,-0.979046
-560,120,-13.3153,0.889954,0,0,0,0,0,0,0,-1,664,904,-13.3153,-0.889974
-553,120,-13.8885,1.11139,-0.00910103,-0.00180677,0.00297568,-0.000746856,-0.0101609,1.22862,0.00653924,0.0394192,671,904,-13.8885,-1.11141
-546,120,-13.8611,1.14294,-0.00808854,-0.00185513,0.0028246,-0.000765624,-0.00917804,1.20266,0.00588013,0.0334305,678,904,-13.8611,-1.14294
-539,120,-13.8367,1.07037,-0.00636343,-0.00187845,0.00250791,-0.000756665,-0.00748522,1.15019,0.00475802,0.0259353,685,904,-13.8366,-1.07038
-532,120,-13.8356,1.10376,-0.0038889,-0.00190634,0.0020052,-0.00066078,-0.00513446,1.01496,0.00322536,0.0263029,692,904,-13.8356,-1.10377
-525,120,-13.952,1.1889,-0.000575338,-0.00200959,0.00126243,0.00015943,-0.00274436,0.527099,0.00188497,0.0322349,699,904,-13.952,-1.18892
-518,120,-14.0572,1.20142,0.00325267,-0.00225195,0.00031255,0.00327036,-0.00226964,0.0565375,0.00321587,0.0366092,706,904,-14.0572,-1.20142
-511,120,-14.0016,1.1106,0.00586491,-0.00285828,-0.000135741,0.00586702,-0.00286039,-0.015556,0.00513748,0.0386604,713,904,-14.0016,-1.11057
-504,120,0,0,0,0,0,0,0,0,0,-1,720,904,0,0
-497,120,0,0,0,0,0,0,0,0,0,-1,727,904,0,0
-490,120,0,0,0,0,0,0,0,0,0,-1,734,904,0,0
-483,120,0,0,0,0,0,0,0,0,0,-1,741,904,0,0
-476,120,0,0,0,0,0,0,0,0,0,-1,748,904,0,0
-469,120,0,0,0,0,0,0,0,0,0,-1,755,904,0,0
-462,120,0,0,0,0,0,0,0,0,0,-1,762,904,0,0
-455,120,0,0,0,0,0,0,0,0,0,-1,769,904,0,0
-448,120,0,0,0,0,0,0,0,0,0,-1,776,904,0,0
-441,120,0,0,0,0,0,0,0,0,0,-1,783,904,0,0
-434,120,0,0,0,0,0,0,0,0,0,-1,790,904,0,0
-427,120,0,0,0,0,0,0,0,0,0,-1,797,904,0,0
-420,120,0,0,0,0,0,0,0,0,0,-1,804,904,0,0
-413,120,0,0,0,0,0,0,0,0,0,-1,811,904,0,0
-406,120,0,0,0,0,0,0,0,0,0,-1,818,904,0,0
-399,120,0,0,0,0,0,0,0,0,0,-1,825,904,0,0
-392,120,0,0,0,0,0,0,0,0,0,-1,832,904,0,0
-385,120,0,0,0,0,0,0,0,0,0,-1,839,904,0,0
-378,120,0,0,0,0,0,0,0,0,0,-1,846,904,0,0
-371,120,0,0,0,0,0,0,0,0,0,-1,853,904,0,0
-364,120,0,0,0,0,0,0,0,0,0,-1,860,904,0,0
-357,120,0,0,0,0,0,0,0,0,0,-1,867,904,0,0
-350,120,0,0,0,0,0,0,0,0,0,-1,874,904,0,0
-343,120,0,0,0,0,0,0,0,0,0,-1,881,904,0,0
-336,120,0,0,0,0,0,0,0,0,0,-1,888,904,0,0
-329,120,0,0,0,0,0,0,0,0,0,-1,895,904,0,0
-322,120,0,0,0,0,0,0,0,0,0,-1,902,904,0,0
-315,120,0,0,0,0,0,0,0,0,0,-1,909,904,0,0
-308,120,0,0,0,0,0,0,0,0,0,-1,916,904,0,0
-301,120,0,0,0,0,0,0,0,0,0,-1,923,904,0,0
-294,120,0,0,0,0,0,0,0,0,0,-1,930,904,0,0
-287,120,0,0,0,0,0,0,0,0,0,-1,937,904,0,0
-280,120,0,0,0,0,0,0,0,0,0,-1,944,904,0,0
-273,120,0,0,0,0,0,0,0,0,0,-1,951,904,0,0
-266,120,0,0,0,0,0,0,0,0,0,-1,958,904,0,0
-259,120,0,0,0,0,0,0,0,0,0,-1,965,904,0,0
-252,120,0,0,0,0,0,0,0,0,0,-1,972,904,0,0
-245,120,0,0,0,0,0,0,0,0,0,-1,979,904,0,0
-238,120,0,0,0,0,0,0,0,0,0,-1,986,904,0,0
-231,120,0,0,0,0,0,0,0,0,0,-1,993,904,0,0
-224,120,0,0,0,0,0,0,0,0,0,-1,1000,904,0,0
-217,120,0,0,0,0,0,0,0,0,0,-1,1007,904,0,0
-210,120,0,0,0,0,0,0,0,0,0,-1,1014,904,0,0
-203,120,0,0,0,0,0,0,0,0,0,-1,1021,904,0,0
-196,120,0,0,0,0,0,0,0,0,0,-1,1028,904,0,0
-189,120,0,0,0,0,0,0,0,0,0,-1,1035,904,0,0
-182,120,0,0,0,0,0,0,0,0,0,-1,1042,904,0,0
-175,120,0,0,0,0,0,0,0,0,0,-1,1049,904,0,0
-168,120,0,0,0,0,0,0,0,0,0,-1,1056,904,0,0
-161,120,0,0,0,0,0,0,0,0,0,-1,1063,904,0,0
-154,120,0,0,0,0,0,0,0,0,0,-1,1070,904,0,0
-147,120,0,0,0,0,0,0,0,0,0,-1,1077,904,0,0
-140,120,0,0,0,0,0,0,0,0,0,-1,1084,904,0,0
-133,120,0,0,0,0,0,0,0,0,0,-1,1091,904,0,0
-126,120,0,0,0,0,0,0,0,0,0,-1,1098,904,0,0
-119,120,0,0,0,0,0,0,0,0,0,-1,1105,904,0,0
-112,120,0,0,0,0,0,0,0,0,0,-1,1112,904,0,0
-105,120,0,0,0,0,0,0,0,0,0,-1,1119,904,0,0
-98,120,0,0,0,0,0,0,0,0,0,-1,1126,904,0,0
-91,120,0,0,0,0,0,0,0,0,0,-1,1133,904,0,0
-84,120,0,0,0,0,0,0,0,0,0,-1,1140,904,0,0
-77,120,0,0,0,0,0,0,0,0,0,-1,1147,904,0,0
-70,120,0,0,0,0,0,0,0,0,0,-1,1154,904,0,0
-63,120,0,0,0,0,0,0,0,0,0,-1,1161,904,0,0
-56,120,0,0,0,0,0,0,0,0,0,-1,1168,904,0,0
-49,120,0,0,0,0,0,0,0,0,0,-1,1175,904,0,0
-42,120,0,0,0,0,0,0,0,0,0,-1,1182,904,0,0
-35,120,0,0,0,0,0,0,0,0,0,-1,1189,904,0,0
-28,120,0,0,0,0,0,0,0,0,0,-1,1196,904,0,0
-21,120,0,0,0,0,0,0,0,0,0,-1,1203,904,0,0
-14,120,0,0,0,0,0,0,0,0,0,-1,1210,904,0,0
-7,120,0,0,0,0,0,0,0,0,0,-1,1217,904,0,0
0,120,0,0,0,0,0,0,0,0,0,-1,1224,904,0,0
7,120,0,0,0,0,0,0,0,0,0,-1,1231,904,0,0
14,120,0,0,0,0,0,0,0,0,0,-1,1238,904,0,0
21,120,0,0,0,0,0,0,0,0,0,-1,1245,904,0,0
28,120,0,0,0,0,0,0,0,0,0,-1,1252,904,0,0
35,120,0,0,0,0,0,0,0,0,0,-1,1259,904,0,0
42,120,0,0,0,0,0,0,0,0,0,-1,1266,904,0,0
49,120,0,0,0,0,0,0,0,0,0,-1,1273,904,0,0
56,120,0,0,0,0,0,0,0,0,0,-1,1280,904,0,0
63,120,0,0,0,0,0,0,0,0,0,-1,1287,904,0,0
70,120,0,0,0,0,0,0,0,0,0,-1,1294,904,0,0
77,120,0,0,0,0,0,0,0,0,0,-1,1301,904,0,0
84,120,0,0,0,0,0,0,0,0,0,-1,1308,904,0,0
91,120,0,0,0,0,0,0,0,0,0,-1,1315,904,0,0
98,120,0,0,0,0,0,0,0,0,0,-1,1322,904,0,0
105,120,0,0,0,0,0,0,0,0,0,-1,1329,904,0,0
112,120,0,0,0,0,0,0,0,0,0,-1,1336,904,0,0
119,120,0,0,0,0,0,0,0,0,0,-1,1343,904,0,0
126,120,0,0,0,0,0,0,0,0,0,-1,1350,904,0,0
133,120,0,0,0,0,0,0,0,0,0,-1,1357,904,0,0
140,120,0,0,0,0,0,0,0,0,0,-1,1364,904,0,0
147,120,0,0,0,0,0,0,0,0,0,-1,1371,904,0,0
154,120,0,0,0,0,0,0,0,0,0,-1,1378,904,0,0
161,120,0,0,0,0,0,0,0,0,0,-1,1385,904,0,0
168,120,0,0,0,0,0,0,0,0,0,-1,1392,904,0,0
175,120,0,0,0,0,0,0,0,0,0,-1,1399,904,0,0
182,120,0,0,0,0,0,0,0,0,0,-1,1406,904,0,0
189,120,0,0,0,0,0,0,0,0,0,-1,1413,904,0,0
196,120,0,0,0,0,0,0,0,0,0,-1,1420,904,0,0
203,120,0,0,0,0,0,0,0,0,0,-1,1427,904,0,0
210,120,0,0,0,0,0,0,0,0,0,-1,1434,904,0,0
217,120,0,0,0,0,0,0,0,0,0,-1,1441,904,0,0
224,120,0,0,0,0,0,0,0,0,0,-1,1448,904,0,0
231,120,0,0,0,0,0,0,0,0,0,-1,1455,904,0,0
238,120,0,0,0,0,0,0,0,0,0,-1,1462,904,0,0
245,120,0,0,0,0,0,0,0,0,0,-1,1469,904,0,0
252,120,0,0,0,0,0,0,0,0,0,-1,1476,904,0,0
259,120,0,0,0,0,0,0,0,0,0,-1,1483,904,0,0
266,120,0,0,0,0,0,0,0,0,0,-1,1490,904,0,0
273,120,0,0,0,0,0,0,0,0,0,-1,1497,904,0,0
280,120,0,0,0,0,0,0,0,0,0,-1,1504,904,0,0
287,120,0,0,0,0,0,0,0,0,0,-1,1511,904,0,0
294,120,0,0,0,0,0,0,0,0,0,-1,1518,904,0,0
301,120,0,0,0,0,0,0,0,0,0,-1,1525,904,0,0
308,120,0,0,0,0,0,0,0,0,0,-1,1532,904,0,0
315,120,0,0,0,0,0,0,0,0,0,-1,1539,904,0,0
322,120,0,0,0,0,0,0,0,0,0,-1,1546,904,0,0
329,120,0,0,0,0,0,0,0,0,0,-1,1553,904,0,0
336,120,0,0,0,0,0,0,0,0,0,-1,1560,904,0,0
343,120,0,0,0,0,0,0,0,0,0,-1,1567,904,0,0
350,120,0,0,0,0,0,0,0,0,0,-1,1574,904,0,0
357,120,0,0,0,0,0,0,0,0,0,-1,1581,904,0,0
364,120,0,0,0,0,0,0,0,0,0,-1,1588,904,0,0
371,120,0,0,0,0,0,0,0,0,0,-1,1595,904,0,0
378,120,0,0,0,0,0,0,0,0,0,-1,1602,904,0,0
385,120,0,0,0,0,0,0,0,0,0,-1,1609,904,0,0
392,120,0,0,0,0,0,0,0,0,0,-1,1616,904,0,0
399,120,0,0,0,0,0,0,0,0,0,-1,1623,904,0,0
406,120,0,0,0,0,0,0,0,0,0,-1,1630,904,0,0
413,120,0,0,0,0,0,0,0,0,0,-1,1637,904,0,0
420,120,0,0,0,0,0,0,0,0,0,-1,1644,904,0,0
427,120,0,0,0,0,0,0,0,0,0,-1,1651,904,0,0
434,120,0,0,0,0,0,0,0,0,0,-1,1658,904,0,0
441,120,0,0,0,0,0,0,0,0,0,-1,1665,904,0,0
448,120,0,0,0,0,0,0,0,0,0,-1,1672,904,0,0
455,120,0,0,0,0,0,0,0,0,0,-1,1679,904,0,0
462,120,0,0,0,0,0,0,0,0,0,-1,1686,904,0,0
469,120,0,0,0,0,0,0,0,0,0,-1,1693,904,0,0
476,120,0,0,0,0,0,0,0,0,0,-1,1700,904,0,0
483,120,0,0,0,0,0,0,0,0,0,-1,1707,904,0,0
490,120,0,0,0,0,0,0,0,0,0,-1,1714,904,0,0
497,120,0,0,0,0,0,0,0,0,0,-1,1721,904,0,0
504,120,0,0,0,0,0,0,0,0,0,-1,1728,904,0,0
511,120,0,0,0,0,0,0,0,0,0,-1,1735,904,0,0
518,120,0,0,0,0,0,0,0,0,0,-1,1742,904,0,0
525,120,0,0,0,0,0,0,0,0,0,-1,1749,904,0,0
532,120,0,0,0,0,0,0,0,0,0,-1,1756,904,0,0
539,120,0,0,0,0,0,0,0,0,0,-1,1763,904,0,0
546,120,0,0,0,0,0,0,0,0,0,-1,1770,904,0,0
553,120,0,0,0,0,0,0,0,0,0,-1,1777,904,0,0
560,120,0,0,0,0,0,0,0,0,0,-1,1784,904,0,0
567,120,0,0,0,0,0,0,0,0,0,-1,1791,904,0,0
574,120,0,0,0,0,0,0,0,0,0,-1,1798,904,0,0
581,120,0,0,0,0,0,0,0,0,0,-1,1805,904,0,0
588,120,0,0,0,0,0,0,0,0,0,-1,1812,904,0,0
595,120,0,0,0,0,0,0,0,0,0,-1,1819,904,0,0
602,120,0,0,0,0,0,0,0,0,0,-1,1826,904,0,0
609,120,0,0,0,0,0,0,0,0,0,-1,1833,904,0,0
616,120,0,0,0,0,0,0,0,0,0,-1,1840,904,0,0
623,120,0,0,0,0,0,0,0,0,0,-1,1847,904,0,0
630,120,21.3389,2.8476,-0.00842472,0.00154159,0.00110763,0.0016632,-0.00854633,1.46144,0.00632527,0.0386509,1854,904,21.3389,-2.84758
637,120,21.3296,2.73969,-0.00586211,0.00128143,0.00021584,0.00128794,-0.00586862,1.54062,0.00440495,0.0422556,1861,904,21.3296,-2.73967
644,120,21.2919,2.69763,-0.00339412,0.000857807,-0.000245607,0.000871947,-0.00340826,-1.51329,0.0026118,0.0380457,1868,904,21.2919,-2.69763
651,120,21.2267,2.72473,-0.00342276,0.000636013,-0.000824085,0.000796953,-0.0035837,-1.37793,0.00269436,0.0389417,1875,904,21.2267,-2.72472
658,120,21.197,2.83282,-0.00482523,0.000458977,-0.00136988,0.000792991,-0.00515925,-1.33164,0.00373202,0.0416902,1882,904,21.197,-2.83282
665,120,21.249,2.94543,-0.00653326,0.00032104,-0.00177132,0.00075173,-0.00696395,-1.33228,0.00491242,0.0379157,1889,904,21.249,-2.94545
672,120,21.3351,2.88922,-0.00799705,0.000167936,-0.00202416,0.000642194,-0.00847131,-1.34065,0.00587332,0.0346512,1896,904,21.3351,-2.88922
679,120,21.328,2.88745,-0.00910658,0.000128935,-0.00226894,0.000656252,-0.0096339,-1.34244,0.00665215,0.0294366,1903,904,21.3281,-2.88747
686,120,21.584,2.99036,0,0,0,0,0,0,0,-1,1910,904,21.5839,-2.99033
693,120,20.6245,3.09711,-0.0105199,0.000107886,-0.00229775,0.00058339,-0.0109954,-1.36673,0.00753225,0.0421829,1917,904,20.6245,-3.0971
700,120,19.5103,3.17419,-0.0106487,0.000118542,-0.00214281,0.000529315,-0.0110595,-1.3814,0.00755563,0.0322802,1924,904,19.5103,-3.17422
707,120,18.9852,3.42969,-0.0103118,0.000113497,-0.00205535,0.000504077,-0.0107023,-1.383,0.00730872,0.0208485,1931,904,18.9852,-3.42966
714,120,19.0729,3.6167,-0.00916549,0.000207156,-0.00199352,0.000613547,-0.00957188,-1.3697,0.00659529,0.016948,1938,904,19.0729,-3.61672
721,120,19.0851,3.75336,-0.00716502,0.00038001,-0.00182487,0.000798202,-0.00758321,-1.34552,0.00534146,0.0138825,1945,904,19.0851,-3.75335
728,120,19.0896,3.90955,-0.00387601,0.000503088,-0.0016478,0.00105386,-0.00442678,-1.24822,0.00335806,0.00972698,1952,904,19.0897,-3.90953
735,120,19.068,4.04431,0.00100725,0.00121998,-0.00121159,0.00232986,-0.000102636,-0.829181,0.00158856,0.0114112,1959,904,19.068,-4.0443
742,120,19.0493,4.21497,0.00726663,0.00153594,-0.000268282,0.00727917,0.0015234,-0.0466788,0.0044331,0.0127514,1966,904,19.0494,-4.21499
749,120,19.0406,4.36096,0.0145309,0.00205364,0.00197013,0.0148346,0.00174995,0.152942,0.00936108,0.0106739,1973,904,19.0406,-4.36097
756,120,19.0382,4.49512,0.0226903,0.00270568,0.00407238,0.0234883,0.00190769,0.1935,0.0150633,0.0123989,1980,904,19.0382,-4.49509
763,120,19.01,4.63074,0.0316592,0.00335183,0.00709988,0.0333401,0.0016709,0.232474,0.0216912,0.0223985,1987,904,19.01,-4.63073
770,120,19.0426,4.82129,0.0420124,0.0039586,0.0115729,0.0452556,0.000715462,0.273227,0.0299347,0.0457087,1994,904,19.0426,-4.8213
777,120,19.1571,4.97949,0,0,0,0,0,0,0,-1,2001,904,19.1571,-4.9795
784,120,20.7875,7.0896,0,0,0,0,0,0,0,-1,2008,904,20.7875,-7.0896
791,120,22.7999,4.73572,0.0820089,0.00386052,0.0399653,0.0988277,-0.0129582,0.398336,0.070602,0.0460384,2015,904,22.7999,-4.73574
798,120,24.0638,4.74982,0.0959729,0.00263871,0.0572917,0.123199,-0.0245871,0.443622,0.0914368,0.0466749,2022,904,24.0639,-4.7498
805,120,0,0,0,0,0,0,0,0,0,-1,2029,904,0,0
812,120,0,0,0,0,0,0,0,0,0,-1,2036,904,0,0
-700,113,0,0,0,0,0,0,0,0,0,-1,524,911,0,0
-693,113,0,0,0,0,0,0,0,0,0,-1,531,911,0,0
-686,113,0,0,0,0,0,0,0,0,0,-1,538,911,0,0
-679,113,-17.3885,0.503967,-0.0123555,0.140612,0.0124933,0.141626,-0.0133691,1.48984,0.0991743,0.0431227,545,911,-17.3885,-0.503974
-672,113,-17.7022,-0.332703,-0.00686658,0.110276,0.00823625,0.110853,-0.00744284,1.50094,0.0765035,0.0477599,552,911,-17.7022,0.332731
-665,113,-17.8885,-0.901855,0,0,0,0,0,0,0,-1,559,911,-17.8885,0.901883
-658,113,-11.8881,1.47638,-0.00211172,0.0642448,0.00389287,0.0644724,-0.00233933,1.5124,0.0437822,0.0433496,566,911,-11.8881,-1.4764
-651,113,-11.8237,1.51471,-0.0014346,0.0474402,0.0029122,0.0476131,-0.00160751,1.51149,0.0322913,0.0446017,573,911,-11.8237,-1.51471
-644,113,-11.9705,1.8269,-0.0013297,0.0341602,0.00240165,0.034322,-0.00149148,1.50353,0.0233944,0.0428111,580,911,-11.9705,-1.82689
-637,113,-12.4257,2.13599,-0.00152022,0.0239423,0.00214675,0.024122,-0.00169995,1.48727,0.0166769,0.0337535,587,911,-12.4257,-2.13599
-630,113,-12.4744,2.17834,-0.00190369,0.0162582,0.00193707,0.0164625,-0.00210799,1.46572,0.0117409,0.0152127,594,911,-12.4744,-2.17835
-623,113,-12.4775,2.06555,-0.00208954,0.00945184,0.00166926,0.00968842,-0.00232612,1.43001,0.00735792,0.0103119,601,911,-12.4775,-2.06556
-616,113,-12.4692,1.92676,-0.00267806,0.0046067,0.00147292,0.00489324,-0.0029646,1.37866,0.00458205,0.0095267,608,911,-12.4692,-1.92676
-609,113,-12.4816,1.82202,-0.0042537,0.00266624,0.00170601,0.00306397,-0.00465143,1.34175,0.00448581,0.01044,615,911,-12.4816,-1.822
-602,113,-12.5063,1.71271,-0.00642795,0.000657613,0.00215513,0.00126162,-0.00703196,1.29754,0.00516018,0.0139193,622,911,-12.5063,-1.71268
-595,113,-12.5027,1.62964,-0.00794205,-0.000273122,0.00253461,0.000488863,-0.00870404,1.27876,0.00597232,0.0177477,629,911,-12.5027,-1.62963
-588,113,-12.479,1.47467,-0.00794409,-0.000658907,0.00234798,3.22619e-05,-0.00863526,1.28451,0.00576762,0.0188352,636,911,-12.479,-1.47467
-581,113,-12.4759,1.32648,-0.00821402,-0.00103244,0.00237823,-0.000316288,-0.00893017,1.2783,0.00585087,0.0196189,643,911,-12.4759,-1.32646
-574,113,-12.4035,1.09302,-0.00874805,-0.00128903,0.0024158,-0.000574969,-0.00946211,1.2834,0.00612542,0.019666,650,911,-12.4035,-1.09303
-567,113,-12.8952,1.00537,-0.00902442,-0.00147336,0.00253447,-0.000701568,-0.00979621,1.2752,0.00630997,0.0436416,657,911,-12.8952,-1.00537
-560,113,-13.7676,1.07977,0,0,0,0,0,0,0,-1,664,911,-13.7676,-1.07978
-553,113,-13.9219,1.05023,-0.00803008,-0.00184115,0.0027364,-0.000804805,-0.00906643,1.20876,0.00579468,0.0386173,671,911,-13.9219,-1.05021
-546,113,-13.9116,1.02118,-0.00680879,-0.00188306,0.00266749,-0.000715327,-0.00797652,1.15817,0.005096,0.0354606,678,911,-13.9116,-1.0212
-539,113,-13.8293,0.994873,-0.00496084,-0.00187741,0.00246893,-0.000508363,-0.00632988,1.0645,0.00406109,0.0354724,685,911,-13.8293,-0.994859
-532,113,-13.801,1.00562,-0.00251742,-0.00185893,0.00212764,-3.52117e-05,-0.00434113,0.862163,0.00288242,0.0368528,692,911,-13.801,-1.00564
-525,113,-13.8421,1.19983,0.000501284,-0.00189605,0.00158239,0.00128775,-0.00268251,0.461255,0.0023389,0.03552,699,911,-13.8421,-1.19985
-518,113,-13.8764,1.39905,0.00334296,-0.00203131,0.000883133,0.00348436,-0.00217271,0.158766,0.00329524,0.0377957,706,911,-13.8764,-1.39905
-511,113,-14.0877,1.18103,0.00380284,-0.00254902,0.000843318,0.00391289,-0.00265907,0.129772,0.00381728,0.039876,713,911,-14.0877,-1.18102
-504,113,0,0,0,0,0,0,0,0,0,-1,720,911,0,0
-497,113,0,0,0,0,0,0,0,0,0,-1,727,911,0,0
-490,113,0,0,0,0,0,0,0,0,0,-1,734,911,0,0
-483,113,0,0,0,0,0,0,0,0,0,-1,741,911,0,0
-476,113,0,0,0,0,0,0,0,0,0,-1,748,911,0,0
-469,113,0,0,0,0,0,0,0,0,0,-1,755,911,0,0
-462,113,0,0,0,0,0,0,0,0,0,-1,762,911,0,0
-455,113,0,0,0,0,0,0,0,0,0,-1,769,911,0,0
-448,113,0,0,0,0,0,0,0,0,0,-1,776,911,0,0
-441,113,0,0,0,0,0,0,0,0,0,-1,783,911,0,0
-434,113,0,0,0,0,0,0,0,0,0,-1,790,911,0,0
-427,113,0,0,0,0,0,0,0,0,0,-1,797,911,0,0
-420,113,0,0,0,0,0,0,0,0,0,-1,804,911,0,0
-413,113,0,0,0,0,0,0,0,0,0,-1,811,911,0,0
-406,113,0,0,0,0,0,0,0,0,0,-1,818,911,0,0
-399,113,0,0,0,0,0,0,0,0,0,-1,825,911,0,0
-392,113,0,0,0,0,0,0,0,0,0,-1,832,911,0,0
-385,113,0,0,0,0,0,0,0,0,0,-1,839,911,0,0
-378,113,0,0,0,0,0,0,0,0,0,-1,846,911,0,0
-371,113,0,0,0,0,0,0,0,0,0,-1,853,911,0,0
-364,113,0,0,0,0,0,0,0,0,0,-1,860,911,0,0
-357,113,0,0,0,0,0,0,0,0,0,-1,867,911,0,0
-350,113,0,0,0,0,0,0,0,0,0,-1,874,911,0,0
-343,113,0,0,0,0,0,0,0,0,0,-1,881,911,0,0
-336,113,0,0,0,0,0,0,0,0,0,-1,888,911,0,0
-329,113,0,0,0,0,0,0,0,0,0,-1,895,911,0,0
-322,113,0,0,0,0,0,0,0,0,0,-1,902,911,0,0
-315,113,0,0,0,0,0,0,0,0,0,-1,909,911,0,0
-308,113,0,0,0,0,0,0,0,0,0,-1,916,911,0,0
-301,113,0,0,0,0,0,0,0,0,0,-1,923,911,0,0
-294,113,0,0,0,0,0,0,0,0,0,-1,930,911,0,0
-287,113,0,0,0,0,0,0,0,0,0,-1,937,911,0,0
-280,113,0,0,0,0,0,0,0,0,0,-1,944,911,0,0
-273,113,0,0,0,0,0,0,0,0,0,-1,951,911,0,0
-266,113,0,0,0,0,0,0,0,0,0,-1,958,911,0,0
-259,113,0,0,0,0,0,0,0,0,0,-1,965,911,0,0
-252,113,0,0,0,0,0,0,0,0,0,-1,972,911,0,0
-245,113,0,0,0,0,0,0,0,0,0,-1,979,911,0,0
-238,113,0,0,0,0,0,0,0,0,0,-1,986,911,0,0
-231,113,0,0,0,0,0,0,0,0,0,-1,993,911,0,0
-224,113,0,0,0,0,0,0,0,0,0,-1,1000,911,0,0
-217,113,0,0,0,0,0,0,0,0,0,-1,1007,911,0,0
-210,113,0,0,0,0,0,0,0,0,0,-1,1014,911,0,0
-203,113,0,0,0,0,0,0,0,0,0,-1,1021,911,0,0
-196,113,0,0,0,0,0,0,0,0,0,-1,1028,911,0,0
-189,113,0,0,0,0,0,0,0,0,0,-1,1035,911,0,0
-182,113,0,0,0,0,0,0,0,0,0,-1,1042,911,0,0
-175,113,0,0,0,0,0,0,0,0,0,-1,1049,911,0,0
-168,113,0,0,0,0,0,0,0,0,0,-1,1056,911,0,0
-161,113,0,0,0,0,0,0,0,0,0,-1,1063,911,0,0
-154,113,0,0,0,0,0,0,0,0,0,-1,1070,911,0,0
-147,113,0,0,0,0,0,0,0,0,0,-1,1077,911,0,0
-140,113,0,0,0,0,0,0,0,0,0,-1,1084,911,0,0
-133,113,0,0,0,0,0,0,0,0,0,-1,1091,911,0,0
-126,113,0,0,0,0,0,0,0,0,0,-1,1098,911,0,0
-119,113,0,0,0,0,0,0,0,0,0,-1,1105,911,0,0
-112,113,0,0,0,0,0,0,0,0,0,-1,1112,911,0,0
-105,113,0,0,0,0,0,0,0,0,0,-1,1119,911,0,0
-98,113,0,0,0,0,0,0,0,0,0,-1,1126,911,0,0
-91,113,0,0,0,0,0,0,0,0,0,-1,1133,911,0,0
-84,113,0,0,0,0,0,0,0,0,0,-1,1140,911,0,0
-77,113,0,0,0,0,0,0,0,0,0,-1,1147,911,0,0
-70,113,0,0,0,0,0,0,0,0,0,-1,1154,911,0,0
-63,113,0,0,0,0,0,0,0,0,0,-1,1161,911,0,0
-56,113,0,0,0,0,0,0,0,0,0,-1,1168,911,0,0
-49,113,0,0,0,0,0,0,0,0,0,-1,1175,911,0,0
-42,113,0,0,0,0,0,0,0,0,0,-1,1182,911,0,0
-35,113,0,0,0,0,0,0,0,0,0,-1,1189,911,0,0
-28,113,0,0,0,0,0,0,0,0,0,-1,1196,911,0,0
-21,113,0,0,0,0,0,0,0,0,0,-1,1203,911,0,0
-14,113,0,0,0,0,0,0,0,0,0,-1,1210,911,0,0
-7,113,0,0,0,0,0,0,0,0,0,-1,1217,911,0,0
0,113,0,0,0,0,0,0,0,0,0,-1,1224,911,0,0
7,113,0,0,0,0,0,0,0,0,0,-1,1231,911,0,0
14,113,0,0,0,0,0,0,0,0,0,-1,1238,911,0,0
21,113,0,0,0,0,0,0,0,0,0,-1,1245,911,0,0
28,113,0,0,0,0,0,0,0,0,0,-1,1252,911,0,0
35,113,0,0,0,0,0,0,0,0,0,-1,1259,911,0,0
42,113,0,0,0,0,0,0,0,0,0,-1,1266,911,0,0
49,113,0,0,0,0,0,0,0,0,0,-1,1273,911,0,0
56,113,0,0,0,0,0,0,0,0,0,-1,1280,911,0,0
63,113,0,0,0,0,0,0,0,0,0,-1,1287,911,0,0
70,113,0,0,0,0,0,0,0,0,0,-1,1294,911,0,0
77,113,0,0,0,0,0,0,0,0,0,-1,1301,911,0,0
84,113,0,0,0,0,0,0,0,0,0,-1,1308,911,0,0
91,113,0,0,0,0,0,0,0,0,0,-1,1315,911,0,0
98,113,0,0,0,0,0,0,0,0,0,-1,1322,911,0,0
105,113,0,0,0,0,0,0,0,0,0,-1,1329,911,0,0
112,113,0,0,0,0,0,0,0,0,0,-1,1336,911,0,0
119,113,0,0,0,0,0,0,0,0,0,-1,1343,911,0,0
126,113,0,0,0,0,0,0,0,0,0,-1,1350,911,0,0
133,113,0,0,0,0,0,0,0,0,0,-1,1357,911,0,0
140,113,0,0,0,0,0,0,0,0,0,-1,1364,911,0,0
147,113,0,0,0,0,0,0,0,0,0,-1,1371,911,0,0
154,113,0,0,0,0,0,0,0,0,0,-1,1378,911,0,0
161,113,0,0,0,0,0,0,0,0,0,-1,1385,911,0,0
168,113,0,0,0,0,0,0,0,0,0,-1,1392,911,0,0
175,113,0,0,0,0,0,0,0,0,0,-1,1399,911,0,0
182,113,0,0,0,0,0,0,0,0,0,-1,1406,911,0,0
189,113,0,0,0,0,0,0,0,0,0,-1,1413,911,0,0
196,113,0,0,0,0,0,0,0,0,0,-1,1420,911,0,0
203,113,0,0,0,0,0,0,0,0,0,-1,1427,911,0,0
210,113,0,0,0,0,0,0,0,0,0,-1,1434,911,0,0
217,113,0,0,0,0,0,0,0,0,0,-1,1441,911,0,0
224,113,0,0,0,0,0,0,0,0,0,-1,1448,911,0,0
231,113,0,0,0,0,0,0,0,0,0,-1,1455,911,0,0
238,113,0,0,0,0,0,0,0,0,0,-1,1462,911,0,0
245,113,0,0,0,0,0,0,0,0,0,-1,1469,911,0,0
252,113,0,0,0,0,0,0,0,0,0,-1,1476,911,0,0
259,113,0,0,0,0,0,0,0,0,0,-1,1483,911,0,0
266,113,0,0,0,0,0,0,0,0,0,-1,1490,911,0,0
273,113,0,0,0,0,0,0,0,0,0,-1,1497,911,0,0
280,113,0,0,0,0,0,0,0,0,0,-1,1504,911,0,0
287,113,0,0,0,0,0,0,0,0,0,-1,1511,911,0,0
294,113,0,0,0,0,0,0,0,0,0,-1,1518,911,0,0
301,113,0,0,0,0,0,0,0,0,0,-1,1525,911,0,0
308,113,0,0,0,0,0,0,0,0,0,-1,1532,911,0,0
315,113,0,0,0,0,0,0,0,0,0,-1,1539,911,0,0
322,113,0,0,0,0,0,0,0,0,0,-1,1546,911,0,0
329,113,0,0,0,0,0,0,0,0,0,-1,1553,911,0,0
336,113,0,0,0,0,0,0,0,0,0,-1,1560,911,0,0
343,113,0,0,0,0,0,0,0,0,0,-1,1567,911,0,0
350,113,0,0,0,0,0,0,0,0,0,-1,1574,911,0,0
357,113,0,0,0,0,0,0,0,0,0,-1,1581,911,0,0
364,113,0,0,0,0,0,0,0,0,0,-1,1588,911,0,0
371,113,0,0,0,0,0,0,0,0,0,-1,1595,911,0,0
378,113,0,0,0,0,0,0,0,0,0,-1,1602,911,0,0
385,113,0,0,0,0,0,0,0,0,0,-1,1609,911,0,0
392,113,0,0,0,0,0,0,0,0,0,-1,1616,911,0,0
399,113,0,0,0,0,0,0,0,0,0,-1,1623,911,0,0
406,113,0,0,0,0,0,0,0,0,0,-1,1630,911,0,0
413,113,0,0,0,0,0,0,0,0,0,-1,1637,911,0,0
420,113,0,0,0,0,0,0,0,0,0,-1,1644,911,0,0
427,113,0,0,0,0,0,0,0,0,0,-1,1651,911,0,0
434,113,0,0,0,0,0,0,0,0,0,-1,1658,911,0,0
441,113,0,0,0,0,0,0,0,0,0,-1,1665,911,0,0
448,113,0,0,0,0,0,0,0,0,0,-1,1672,911,0,0
455,113,0,0,0,0,0,0,0,0,0,-1,1679,911,0,0
462,113,0,0,0,0,0,0,0,0,0,-1,1686,911,0,0
469,113,0,0,0,0,0,0,0,0,0,-1,1693,911,0,0
476,113,0,0,0,0,0,0,0,0,0,-1,1700,911,0,0
483,113,0,0,0,0,0,0,0,0,0,-1,1707,911,0,0
490,113,0,0,0,0,0,0,0,0,0,-1,1714,911,0,0
497,113,0,0,0,0,0,0,0,0,0,-1,1721,911,0,0
504,113,0,0,0,0,0,0,0,0,0,-1,1728,911,0,0
511,113,0,0,0,0,0,0,0,0,0,-1,1735,911,0,0
518,113,0,0,0,0,0,0,0,0,0,-1,1742,911,0,0
525,113,0,0,0,0,0,0,0,0,0,-1,1749,911,0,0
532,113,0,0,0,0,0,0,0,0,0,-1,1756,911,0,0
539,113,0,0,0,0,0,0,0,0,0,-1,1763,911,0,0
546,113,0,0,0,0,0,0,0,0,0,-1,1770,911,0,0
553,113,0,0,0,0,0,0,0,0,0,-1,1777,911,0,0
560,113,0,0,0,0,0,0,0,0,0,-1,1784,911,0,0
567,113,0,0,0,0,0,0,0,0,0,-1,1791,911,0,0
574,113,0,0,0,0,0,0,0,0,0,-1,1798,911,0,0
581,113,0,0,0,0,0,0,0,0,0,-1,1805,911,0,0
588,113,0,0,0,0,0,0,0,0,0,-1,1812,911,0,0
595,113,0,0,0,0,0,0,0,0,0,-1,1819,911,0,0
602,113,0,0,0,0,0,0,0,0,0,-1,1826,911,0,0
609,113,0,0,0,0,0,0,0,0,0,-1,1833,911,0,0
616,113,0,0,0,0,0,0,0,0,0,-1,1840,911,0,0
623,113,0,0,0,0,0,0,0,0,0,-1,1847,911,0,0
630,113,21.4238,3.04077,-0.00965563,0.000933136,0.000365754,0.000945755,-0.00966825,1.53631,0.00678277,0.0390779,1854,911,21.4239,-3.04075
637,113,21.3525,2.96783,-0.00685188,0.000838483,-0.000284841,0.000849019,-0.00686242,-1.53383,0.00488262,0.0386851,1861,911,21.3525,-2.96781
644,113,21.2069,2.91339,-0.00393931,0.000491621,-0.000465688,0.000540035,-0.00398772,-1.46721,0.00285556,0.0356083,1868,911,21.2069,-2.91342
651,113,21.1501,2.98553,-0.00358774,0.000373174,-0.0008377,0.000543054,-0.00375762,-1.37072,0.00270434,0.0381927,1875,911,21.1502,-2.98554
658,113,21.2307,2.94354,-0.00483867,0.000283579,-0.00126368,0.000578369,-0.00513346,-1.34162,0.00363049,0.0436354,1882,911,21.2308,-2.94357
665,113,21.3103,3.03906,-0.00653812,0.000228318,-0.00161171,0.000592601,-0.0069024,-1.34851,0.00481132,0.0392163,1889,911,21.3103,-3.03907
672,113,21.3308,2.96741,-0.00803696,0.000152634,-0.00183093,0.000543333,-0.00842766,-1.36056,0.00580803,0.0361354,1896,911,21.3308,-2.96742
679,113,21.3469,2.86816,-0.00919988,0.000149784,-0.00202793,0.00057069,-0.00962078,-1.36615,0.0066123,0.0302332,1903,911,21.347,-2.86816
686,113,21.3094,2.9198,-0.0100742,0.00019938,-0.00209432,0.000609915,-0.0104847,-1.37723,0.00720173,0.0237544,1910,911,21.3095,-2.91978
693,113,20.9337,3.0498,0,0,0,0,0,0,0,-1,1917,911,20.9337,-3.04981
700,113,20.0262,3.30542,-0.0105854,0.00015967,-0.00184794,0.000468595,-0.0108944,-1.40515,0.00742403,0.043464,1924,911,20.0262,-3.30539
707,113,19.1981,3.40894,-0.0102509,0.000188666,-0.00177067,0.000480817,-0.0105431,-1.40728,0.00719433,0.0298102,1931,911,19.1981,-3.40896
714,113,19.1696,3.57123,-0.0092108,0.000293404,-0.00174201,0.000602632,-0.00952003,-1.39511,0.0065568,0.016741,1938,911,19.1696,-3.57121
721,113,19.1833,3.72546,-0.00743251,0.000472211,-0.00157547,0.000774645,-0.00773494,-1.38114,0.00543328,0.0156844,1945,911,19.1833,-3.72546
728,113,19.2441,3.92157,-0.00448294,0.000616831,-0.00139414,0.000973066,-0.00483917,-1.32063,0.00359464,0.0150454,1952,911,19.2442,-3.92154
735,113,19.2365,4.0799,-2.00046e-05,0.00141688,-0.000966623,0.00190281,-0.000505938,-1.10498,0.00146657,0.0142369,1959,911,19.2364,-4.07987
742,113,19.2183,4.21649,0.00561741,0.00199648,-0.000123433,0.00562161,0.00199227,-0.0340361,0.00329119,0.0118643,1966,911,19.2183,-4.2165
749,113,19.2087,4.35754,0.0121696,0.00284309,0.00188523,0.0125362,0.00247643,0.192093,0.00766652,0.00916037,1973,911,19.2088,-4.35756
756,113,19.2048,4.48846,0.0196459,0.00394976,0.0038594,0.0205435,0.00305214,0.228519,0.0128002,0.010484,1980,911,19.2048,-4.48847
763,113,19.1635,4.65796,0.0276342,0.00519882,0.00666512,0.0294649,0.00336812,0.268058,0.0186224,0.0196156,1987,911,19.1634,-4.65798
770,113,19.4877,5.20892,0.0365999,0.006606,0.0107561,0.0400583,0.00314754,0.311095,0.0257206,0.0397839,1994,911,19.4877,-5.20895
777,113,19.8993,5.76831,0,0,0,0,0,0,0,-1,2001,911,19.8993,-5.76829
784,113,20.6426,6.44482,0.058257,0.00949821,0.02497,0.0687754,-0.00102017,0.398682,0.0461941,0.0462809,2008,911,20.6426,-6.44479
791,113,20.6844,6.67365,0.070019,0.0107779,0.0363386,0.0872799,-0.00648303,0.44345,0.0604636,0.0487896,2015,911,20.6845,-6.67367
798,113,20.4545,6.15546,0.081084,0.0118301,0.0517805,0.108749,-0.0158346,0.490685,0.0783127,0.0452593,2022,911,20.4545,-6.15543
805,113,0,0,0,0,0,0,0,0,0,-1,2029,911,0,0
812,113,0,0,0,0,0,0,0,0,0,-1,2036,911,0,0
-700,106,0,0,0,0,0,0,0,0,0,-1,524,918,0,0
-693,106,0,0,0,0,0,0,0,0,0,-1,531,918,0,0
-686,106,0,0,0,0,0,0,0,0,0,-1,538,918,0,0
-679,106,-18.9171,-1.07507,-0.00540667,0.120726,0.00850047,0.121297,-0.00597696,1.50381,0.0829287,0.0476626,545,918,-18.9171,1.0751
-672,106,-19.0447,-1.75092,-0.00344858,0.0945654,0.006126,0.0949468,-0.00382998,1.50862,0.0646124,0.0491819,552,918,-19.0447,1.75089
-665,106,-19.1801,-2.3656,0,0,0,0,0,0,0,-1,559,918,-19.1801,2.3656
-658,106,-11.0206,2.62042,0,0,0,0,0,0,0,-1,566,918,-11.0206,-2.62041
-651,106,-11.4394,2.70746,-0.0024635,0.0402521,0.00318143,0.0404877,-0.00269915,1.49686,0.027935,0.0448564,573,918,-11.4394,-2.70743
-644,106,-12.0002,2.56311,-0.00266608,0.0287668,0.0028503,0.0290231,-0.00292245,1.48109,0.0203928,0.0413942,580,918,-12.0003,-2.56309
-637,106,-12.51,2.30212,-0.00285701,0.0199574,0.0026126,0.0202528,-0.00315236,1.45822,0.014666,0.0284971,587,918,-12.51,-2.30214
-630,106,-12.5895,2.20435,-0.0031905,0.0134138,0.00237994,0.0137482,-0.00352489,1.43121,0.0105388,0.0124563,594,918,-12.5895,-2.20433
-623,106,-12.5937,2.052,-0.00333856,0.00752169,0.00202289,0.00788624,-0.00370312,1.39249,0.00683487,0.0104476,601,918,-12.5937,-2.05202
-616,106,-12.5911,1.9104,-0.00383251,0.00342064,0.00173712,0.00381521,-0.00422708,1.34744,0.00464525,0.0102799,608,918,-12.5911,-1.91041
-609,106,-12.6086,1.80981,-0.00513284,0.00196155,0.00183438,0.00240779,-0.00557908,1.33217,0.00473083,0.0102648,615,918,-12.6086,-1.80984
-602,106,-12.6323,1.70978,-0.00695516,0.000317918,0.00204544,0.000853698,-0.00749094,1.31461,0.00530149,0.0123608,622,918,-12.6323,-1.70975
-595,106,-12.693,1.59619,-0.00813223,-0.000355372,0.00225248,0.000249923,-0.00873752,1.30827,0.00591009,0.0161008,629,918,-12.693,-1.59619
-588,106,-12.6632,1.43628,-0.00795598,-0.000679503,0.00206372,-0.000134955,-0.00850053,1.31281,0.00562257,0.0180452,636,918,-12.6632,-1.43627
-581,106,-12.5684,1.28125,-0.00799797,-0.00105181,0.00209026,-0.000471313,-0.00857847,1.29991,0.00556852,0.0142463,643,918,-12.5684,-1.28126
-574,106,-12.4186,1.13989,0,0,0,0,0,0,0,-1,650,918,-12.4186,-1.13987
-567,106,-13.2205,1.14862,0,0,0,0,0,0,0,-1,657,918,-13.2205,-1.14865
-560,106,-14.0225,1.15741,0,0,0,0,0,0,0,-1,664,918,-14.0224,-1.15742
-553,106,-13.9342,1.09625,-0.0070119,-0.00191941,0.00255377,-0.000859391,-0.00807192,1.17736,0.00511892,0.035645,671,918,-13.9342,-1.09623
-546,106,-13.8889,0.986206,-0.00554057,-0.00198336,0.00256561,-0.000640144,-0.00688379,1.08849,0.00439139,0.0373595,678,918,-13.8888,-0.986232
-539,106,-13.7354,0.984619,-0.00351733,-0.00198071,0.00247781,-0.000154825,-0.00534322,0.935735,0.00351168,0.0405273,685,918,-13.7354,-0.984627
-532,106,-13.5598,0.959412,-0.00103171,-0.00192908,0.00228156,0.000844863,-0.00380565,0.688308,0.00286062,0.0399628,692,918,-13.5598,-0.959392
-525,106,-13.4549,1.04114,0.00174604,-0.00185732,0.00190464,0.00256614,-0.00267742,0.406586,0.0030276,0.0363343,699,918,-13.4549,-1.04116
-518,106,-13.5126,1.16956,0.00359143,-0.00173188,0.00141777,0.00394548,-0.00208593,0.244717,0.00353697,0.0383907,706,918,-13.5126,-1.16956
-511,106,0,0,0,0,0,0,0,0,0,-1,713,918,0,0
-504,106,0,0,0,0,0,0,0,0,0,-1,720,918,0,0
-497,106,0,0,0,0,0,0,0,0,0,-1,727,918,0,0
-490,106,0,0,0,0,0,0,0,0,0,-1,734,918,0,0
-483,106,0,0,0,0,0,0,0,0,0,-1,741,918,0,0
-476,106,0,0,0,0,0,0,0,0,0,-1,748,918,0,0
-469,106,0,0,0,0,0,0,0,0,0,-1,755,918,0,0
-462,106,0,0,0,0,0,0,0,0,0,-1,762,918,0,0
-455,106,0,0,0,0,0,0,0,0,0,-1,769,918,0,0
-448,106,0,0,0,0,0,0,0,0,0,-1,776,918,0,0
-441,106,0,0,0,0,0,0,0,0,0,-1,783,918,0,0
-434,106,0,0,0,0,0,0,0,0,0,-1,790,918,0,0
-427,106,0,0,0,0,0,0,0,0,0,-1,797,918,0,0
-420,106,0,0,0,0,0,0,0,0,0,-1,804,918,0,0
-413,106,0,0,0,0,0,0,0,0,0,-1,811,918,0,0
-406,106,0,0,0,0,0,0,0,0,0,-1,818,918,0,0
-399,106,0,0,0,0,0,0,0,0,0,-1,825,918,0,0
-392,106,0,0,0,0,0,0,0,0,0,-1,832,918,0,0
-385,106,0,0,0,0,0,0,0,0,0,-1,839,918,0,0
-378,106,0,0,0,0,0,0,0,0,0,-1,846,918,0,0
-371,106,0,0,0,0,0,0,0,0,0,-1,853,918,0,0
-364,106,0,0,0,0,0,0,0,0,0,-1,860,918,0,0
-357,106,0,0,0,0,0,0,0,0,0,-1,867,918,0,0
-350,106,0,0,0,0,0,0,0,0,0,-1,874,918,0,0
-343,106,0,0,0,0,0,0,0,0,0,-1,881,918,0,0
-336,106,0,0,0,0,0,0,0,0,0,-1,888,918,0,0
-329,106,0,0,0,0,0,0,0,0,0,-1,895,918,0,0
-322,106,0,0,0,0,0,0,0,0,0,-1,902,918,0,0
-315,106,0,0,0,0,0,0,0,0,0,-1,909,918,0,0
-308,106,0,0,0,0,0,0,0,0,0,-1,916,918,0,0
-301,106,0,0,0,0,0,0,0,0,0,-1,923,918,0,0
-294,106,0,0,0,0,0,0,0,0,0,-1,930,918,0,0
-287,106,0,0,0,0,0,0,0,0,0,-1,937,918,0,0
-280,106,0,0,0,0,0,0,0,0,0,-1,944,918,0,0
-273,106,0,0,0,0,0,0,0,0,0,-1,951,918,0,0
-266,106,0,0,0,0,0,0,0,0,0,-1,958,918,0,0
-259,106,0,0,0,0,0,0,0,0,0,-1,965,918,0,0
-252,106,0,0,0,0,0,0,0,0,0,-1,972,918,0,0
-245,106,0,0,0,0,0,0,0,0,0,-1,979,918,0,0
-238,106,0,0,0,0,0,0,0,0,0,-1,986,918,0,0
-231,106,0,0,0,0,0,0,0,0,0,-1,993,918,0,0
-224,106,0,0,0,0,0,0,0,0,0,-1,1000,918,0,0
-217,106,0,0,0,0,0,0,0,0,0,-1,1007,918,0,0
-210,106,0,0,0,0,0,0,0,0,0,-1,1014,918,0,0
-203,106,0,0,0,0,0,0,0,0,0,-1,1021,918,0,0
-196,106,0,0,0,0,0,0,0,0,0,-1,1028,918,0,0
-189,106,0,0,0,0,0,0,0,0,0,-1,1035,918,0,0
-182,106,0,0,0,0,0,0,0,0,0,-1,1042,918,0,0
-175,106,0,0,0,0,0,0,0,0,0,-1,1049,918,0,0
-168,106,0,0,0,0,0,0,0,0,0,-1,1056,918,0,0
-161,106,0,0,0,0,0,0,0,0,0,-1,1063,918,0,0
-154,106,0,0,0,0,0,0,0,0,0,-1,1070,918,0,0
-147,106,0,0,0,0,0,0,0,0,0,-1,1077,918,0,0
-140,106,0,0,0,0,0,0,0,0,0,-1,1084,918,0,0
-133,106,0,0,0,0,0,0,0,0,0,-1,1091,918,0,0
-126,106,0,0,0,0,0,0,0,0,0,-1,1098,918,0,0
-119,106,0,0,0,0,0,0,0,0,0,-1,1105,918,0,0
-112,106,0,0,0,0,0,0,0,0,0,-1,1112,918,0,0
-105,106,0,0,0,0,0,0,0,0,0,-1,1119,918,0,0
-98,106,0,0,0,0,0,0,0,0,0,-1,1126,918,0,0
-91,106,0,0,0,0,0,0,0,0,0,-1,1133,918,0,0
-84,106,0,0,0,0,0,0,0,0,0,-1,1140,918,0,0
-77,106,0,0,0,0,0,0,0,0,0,-1,1147,918,0,0
-70,106,0,0,0,0,0,0,0,0,0,-1,1154,918,0,0
-63,106,0,0,0,0,0,0,0,0,0,-1,1161,918,0,0
-56,106,0,0,0,0,0,0,0,0,0,-1,1168,918,0,0
-49,106,0,0,0,0,0,0,0,0,0,-1,1175,918,0,0
-42,106,0,0,0,0,0,0,0,0,0,-1,1182,918,0,0
-35,106,0,0,0,0,0,0,0,0,0,-1,1189,918,0,0
-28,106,0,0,0,0,0,0,0,0,0,-1,1196,918,0,0
-21,106,0,0,0,0,0,0,0,0,0,-1,1203,918,0,0
-14,106,0,0,0,0,0,0,0,0,0,-1,1210,918,0,0
-7,106,0,0,0,0,0,0,0,0,0,-1,1217,918,0,0
0,106,0,0,0,0,0,0,0,0,0,-1,1224,918,0,0
7,106,0,0,0,0,0,0,0,0,0,-1,1231,918,0,0
14,106,0,0,0,0,0,0,0,0,0,-1,1238,918,0,0
21,106,0,0,0,0,0,0,0,0,0,-1,1245,918,0,0
28,106,0,0,0,0,0,0,0,0,0,-1,1252,918,0,0
35,106,0,0,0,0,0,0,0,0,0,-1,1259,918,0,0
42,106,0,0,0,0,0,0,0,0,0,-1,1266,918,0,0
49,106,0,0,0,0,0,0,0,0,0,-1,1273,918,0,0
56,106,0,0,0,0,0,0,0,0,0,-1,1280,918,0,0
63,106,0,0,0,0,0,0,0,0,0,-1,1287,918,0,0
70,106,0,0,0,0,0,0,0,0,0,-1,1294,918,0,0
77,106,0,0,0,0,0,0,0,0,0,-1,1301,918,0,0
84,106,0,0,0,0,0,0,0,0,0,-1,1308,918,0,0
91,106,0,0,0,0,0,0,0,0,0,-1,1315,918,0,0
98,106,0,0,0,0,0,0,0,0,0,-1,1322,918,0,0
105,106,0,0,0,0,0,0,0,0,0,-1,1329,918,0,0
112,106,0,0,0,0,0,0,0,0,0,-1,1336,918,0,0
119,106,0,0,0,0,0,0,0,0,0,-1,1343,918,0,0
126,106,0,0,0,0,0,0,0,0,0,-1,1350,918,0,0
133,106,0,0,0,0,0,0,0,0,0,-1,1357,918,0,0
140,106,0,0,0,0,0,0,0,0,0,-1,1364,918,0,0
147,106,0,0,0,0,0,0,0,0,0,-1,1371,918,0,0
154,106,0,0,0,0,0,0,0,0,0,-1,1378,918,0,0
161,106,0,0,0,0,0,0,0,0,0,-1,1385,918,0,0
168,106,0,0,0,0,0,0,0,0,0,-1,1392,918,0,0
175,106,0,0,0,0,0,0,0,0,0,-1,1399,918,0,0
182,106,0,0,0,0,0,0,0,0,0,-1,1406,918,0,0
189,106,0,0,0,0,0,0,0,0,0,-1,1413,918,0,0
196,106,0,0,0,0,0,0,0,0,0,-1,1420,918,0,0
203,106,0,0,0,0,0,0,0,0,0,-1,1427,918,0,0
210,106,0,0,0,0,0,0,0,0,0,-1,1434,918,0,0
217,106,0,0,0,0,0,0,0,0,0,-1,1441,918,0,0
224,106,0,0,0,0,0,0,0,0,0,-1,1448,918,0,0
231,106,0,0,0,0,0,0,0,0,0,-1,1455,918,0,0
238,106,0,0,0,0,0,0,0,0,0,-1,1462,918,0,0
245,106,0,0,0,0,0,0,0,0,0,-1,1469,918,0,0
252,106,0,0,0,0,0,0,0,0,0,-1,1476,918,0,0
259,106,0,0,0,0,0,0,0,0,0,-1,1483,918,0,0
266,106,0,0,0,0,0,0,0,0,0,-1,1490,918,0,0
273,106,0,0,0,0,0,0,0,0,0,-1,1497,918,0,0
280,106,0,0,0,0,0,0,0,0,0,-1,1504,918,0,0
287,106,0,0,0,0,0,0,0,0,0,-1,1511,918,0,0
294,106,0,0,0,0,0,0,0,0,0,-1,1518,918,0,0
301,106,0,0,0,0,0,0,0,0,0,-1,1525,918,0,0
308,106,0,0,0,0,0,0,0,0,0,-1,1532,918,0,0
315,106,0,0,0,0,0,0,0,0,0,-1,1539,918,0,0
322,106,0,0,0,0,0,0,0,0,0,-1,1546,918,0,0
329,106,0,0,0,0,0,0,0,0,0,-1,1553,918,0,0
336,106,0,0,0,0,0,0,0,0,0,-1,1560,918,0,0
343,106,0,0,0,0,0,0,0,0,0,-1,1567,918,0,0
350,106,0,0,0,0,0,0,0,0,0,-1,1574,918,0,0
357,106,0,0,0,0,0,0,0,0,0,-1,1581,918,0,0
364,106,0,0,0,0,0,0,0,0,0,-1,1588,918,0,0
371,106,0,0,0,0,0,0,0,0,0,-1,1595,918,0,0
378,106,0,0,0,0,0,0,0,0,0,-1,1602,918,0,0
385,106,0,0,0,0,0,0,0,0,0,-1,1609,918,0,0
392,106,0,0,0,0,0,0,0,0,0,-1,1616,918,0,0
399,106,0,0,0,0,0,0,0,0,0,-1,1623,918,0,0
406,106,0,0,0,0,0,0,0,0,0,-1,1630,918,0,0
413,106,0,0,0,0,0,0,0,0,0,-1,1637,918,0,0
420,106,0,0,0,0,0,0,0,0,0,-1,1644,918,0,0
427,106,0,0,0,0,0,0,0,0,0,-1,1651,918,0,0
434,106,0,0,0,0,0,0,0,0,0,-1,1658,918,0,0
441,106,0,0,0,0,0,0,0,0,0,-1,1665,918,0,0
448,106,0,0,0,0,0,0,0,0,0,-1,1672,918,0,0
455,106,0,0,0,0,0,0,0,0,0,-1,1679,918,0,0
462,106,0,0,0,0,0,0,0,0,0,-1,1686,918,0,0
469,106,0,0,0,0,0,0,0,0,0,-1,1693,918,0,0
476,106,0,0,0,0,0,0,0,0,0,-1,1700,918,0,0
483,106,0,0,0,0,0,0,0,0,0,-1,1707,918,0,0
490,106,0,0,0,0,0,0,0,0,0,-1,1714,918,0,0
497,106,0,0,0,0,0,0,0,0,0,-1,1721,918,0,0
504,106,0,0,0,0,0,0,0,0,0,-1,1728,918,0,0
511,106,0,0,0,0,0,0,0,0,0,-1,1735,918,0,0
518,106,0,0,0,0,0,0,0,0,0,-1,1742,918,0,0
525,106,0,0,0,0,0,0,0,0,0,-1,1749,918,0,0
532,106,0,0,0,0,0,0,0,0,0,-1,1756,918,0,0
539,106,0,0,0,0,0,0,0,0,0,-1,1763,918,0,0
546,106,0,0,0,0,0,0,0,0,0,-1,1770,918,0,0
553,106,0,0,0,0,0,0,0,0,0,-1,1777,918,0,0
560,106,0,0,0,0,0,0,0,0,0,-1,1784,918,0,0
567,106,0,0,0,0,0,0,0,0,0,-1,1791,918,0,0
574,106,0,0,0,0,0,0,0,0,0,-1,1798,918,0,0
581,106,0,0,0,0,0,0,0,0,0,-1,1805,918,0,0
588,106,0,0,0,0,0,0,0,0,0,-1,1812,918,0,0
595,106,0,0,0,0,0,0,0,0,0,-1,1819,918,0,0
602,106,0,0,0,0,0,0,0,0,0,-1,1826,918,0,0
609,106,0,0,0,0,0,0,0,0,0,-1,1833,918,0,0
616,106,0,0,0,0,0,0,0,0,0,-1,1840,918,0,0
623,106,0,0,0,0,0,0,0,0,0,-1,1847,918,0,0
630,106,21.4364,3.14972,-0.010315,0.000776909,-0.000870595,0.000844825,-0.0103829,-1.49294,0.00722002,0.0418817,1854,918,21.4364,-3.14974
637,106,21.3861,3.2934,-0.00741291,0.000869237,-0.00119451,0.00103808,-0.00758175,-1.43038,0.00543368,0.039109,1861,918,21.3862,-3.29337
644,106,21.2189,3.31085,-0.00423759,0.000616199,-0.00102711,0.000824598,-0.00444599,-1.37062,0.00327366,0.0351428,1868,918,21.2189,-3.31086
651,106,21.0802,3.33356,-0.00350379,0.000580029,-0.0011042,0.000859465,-0.00378323,-1.32293,0.00285214,0.0395134,1875,918,21.0802,-3.33355
658,106,21.0931,3.23572,-0.00449472,0.000545638,-0.00130102,0.000861648,-0.00481073,-1.33252,0.0035296,0.0440303,1882,918,21.0931,-3.23574
665,106,21.2389,2.95636,-0.00607772,0.000539862,-0.00148826,0.000859158,-0.00639701,-1.35946,0.00457801,0.0423017,1889,918,21.2389,-2.95637
672,106,21.2502,3.17346,-0.0075442,0.000497315,-0.00158854,0.000799747,-0.00784663,-1.38266,0.00551703,0.0390733,1896,918,21.2503,-3.17345
679,106,21.3539,2.97681,-0.00871706,0.000475515,-0.00167385,0.000770817,-0.00901236,-1.39617,0.00628096,0.0326064,1903,918,21.3539,-2.97681
686,106,21.307,2.97742,-0.00956444,0.000497639,-0.00167802,0.0007701,-0.0098369,-1.40983,0.00682912,0.0277636,1910,918,21.307,-2.97742
693,106,21.1775,3.09924,-0.00994497,0.000389725,-0.00155573,0.000618835,-0.0101741,-1.42458,0.00699812,0.0226831,1917,918,21.1775,-3.09926
700,106,20.4968,3.29059,0,0,0,0,0,0,0,-1,1924,918,20.4968,-3.29057
707,106,19.5538,3.37225,-0.00967714,0.000408449,-0.00132263,0.000579013,-0.00984771,-1.44254,0.00676641,0.038138,1931,918,19.5539,-3.37227
714,106,19.342,3.55707,-0.00879474,0.00047921,-0.00132791,0.000665604,-0.00898113,-1.43134,0.00622117,0.0186633,1938,918,19.3421,-3.55709
721,106,19.3579,3.73102,-0.00730634,0.000619143,-0.00119338,0.000794936,-0.00748214,-1.42454,0.00527308,0.0165993,1945,918,19.3579,-3.73104
728,106,19.4067,3.92615,-0.0047428,0.000739687,-0.0010601,0.00093753,-0.00494064,-1.38629,0.00364666,0.015789,1952,918,19.4067,-3.92614
735,106,19.4044,4.0769,-0.000769228,0.00157185,-0.000689704,0.00175994,-0.000957311,-1.30457,0.00159145,0.0146261,1959,918,19.4044,-4.07693
742,106,19.3785,4.20166,0.00416129,0.00234873,6.12146e-06,0.00416132,0.00234871,0.00337719,0.00240917,0.0112023,1966,918,19.3786,-4.20166
749,106,19.3662,4.33557,0.00993093,0.00348272,0.00170964,0.0103562,0.00305748,0.243784,0.006144,0.00879816,1973,918,19.3662,-4.33558
756,106,19.3512,4.46411,0.0166517,0.00500006,0.0034694,0.0176065,0.00404525,0.268561,0.0106485,0.00963833,1980,918,19.3512,-4.4641
763,106,19.3243,4.61554,0.0237088,0.00681022,0.00598031,0.0256111,0.00490796,0.307967,0.015696,0.0162291,1987,918,19.3243,-4.61551
770,106,19.345,4.76392,0.0314371,0.00897881,0.00962707,0.0349989,0.00541694,0.354367,0.021753,0.0350964,1994,918,19.345,-4.76391
777,106,19.3956,4.90759,0.0401008,0.011471,0.014812,0.0463847,0.00518707,0.40123,0.0293473,0.0434823,2001,918,19.3957,-4.90758
784,106,20.5825,5.75311,0.0495273,0.0142649,0.0220618,0.0601375,0.00365457,0.44828,0.0389307,0.0446138,2008,918,20.5825,-5.75314
791,106,20.6724,5.92712,0.0590673,0.0173471,0.0319017,0.0763236,9.07518e-05,0.495847,0.0508522,0.046182,2015,918,20.6724,-5.92714
798,106,20.6366,6.0509,0.0676325,0.0207238,0.0451461,0.0950533,-0.00669701,0.545827,0.0657151,0.0463871,2022,918,20.6366,-6.0509
805,106,0,0,0,0,0,0,0,0,0,-1,2029,918,0,0
812,106,0,0,0,0,0,0,0,0,0,-1,2036,918,0,0
-700,99,0,0,0,0,0,0,0,0,0,-1,524,925,0,0
-693,99,0,0,0,0,0,0,0,0,0,-1,531,925,0,0
-686,99,0,0,0,0,0,0,0,0,0,-1,538,925,0,0
-679,99,-19.9167,-2.00946,0,0,0,0,0,0,0,-1,545,925,-19.9167,2.00948
-672,99,-20.4196,-3.11493,0,0,0,0,0,0,0,-1,552,925,-20.4196,3.11491
-665,99,-10.9045,1.06427,0,0,0,0,0,0,0,-1,559,925,-10.9046,-1.06427
-658,99,-11.1147,1.60059,-0.00269162,0.0439564,0.002186,0.0440587,-0.00279383,1.52407,0.0303466,0.0493986,566,925,-11.1148,-1.60057
-651,99,-11.5598,2.41431,-0.00310454,0.0321807,0.00244,0.0323486,-0.00327247,1.50208,0.0227352,0.0477644,573,925,-11.5598,-2.41431
-644,99,-12.1021,2.48468,-0.00342942,0.022875,0.00259629,0.0231288,-0.00368323,1.47335,0.0167822,0.0468178,580,925,-12.102,-2.48469
-637,99,-12.6443,2.23975,-0.0035444,0.0158192,0.00266393,0.016179,-0.00390421,1.43654,0.0122958,0.0306949,587,925,-12.6443,-2.23977
-630,99,-12.6973,2.19543,-0.00382511,0.010573,0.0025851,0.011023,-0.00427518,1.39842,0.00911434,0.0135495,594,925,-12.6973,-2.19546
-623,99,-12.7375,2.04932,-0.0040408,0.0057403,0.00225402,0.00623474,-0.00453524,1.35486,0.0062438,0.00770563,601,925,-12.7375,-2.04932
-616,99,-12.7462,1.92609,-0.00459436,0.00243416,0.00188322,0.00290694,-0.00506715,1.32483,0.00465981,0.009061,608,925,-12.7461,-1.92607
-609,99,-12.7531,1.81799,-0.00572938,0.00142206,0.00184233,0.00186877,-0.00617609,1.33292,0.00486155,0.00982563,615,925,-12.7531,-1.81802
-602,99,-12.7664,1.724,-0.00728393,0.000124646,0.00180604,0.000541468,-0.00770075,1.34398,0.00532351,0.0105223,622,925,-12.7663,-1.724
-595,99,-12.8149,1.612,-0.00822594,-0.000324633,0.00183043,7.88094e-05,-0.00862938,1.35386,0.00577937,0.0140975,629,925,-12.8149,-1.61199
-588,99,-12.7952,1.45935,-0.00799306,-0.00060684,0.00163106,-0.000262694,-0.0083372,1.36285,0.00547267,0.0141604,636,925,-12.7952,-1.45935
-581,99,-12.7105,1.31262,-0.00786687,-0.000937871,0.00162699,-0.000574857,-0.00822988,1.35127,0.00530536,0.0112819,643,925,-12.7105,-1.31262
-574,99,-12.809,1.17401,-0.00795185,-0.00118857,0.00167807,-0.000795106,-0.00834531,1.34048,0.00531836,0.0179531,650,925,-12.809,-1.17399
-567,99,-13.35,0.993347,-0.00793224,-0.00135806,0.00182932,-0.00088332,-0.00840698,1.31688,0.00533465,0.03992,657,925,-13.35,-0.993346
-560,99,-13.9156,0.814758,0,0,0,0,0,0,0,-1,664,925,-13.9156,-0.814755
-553,99,-13.9454,1.03302,-0.00607917,-0.00168667,0.00216133,-0.000801543,-0.00696429,1.1821,0.00440008,0.0414438,671,925,-13.9454,-1.03303
-546,99,-13.8898,1.13239,-0.00434668,-0.0017041,0.00225094,-0.000415311,-0.00563548,1.0508,0.00362648,0.0416537,678,925,-13.8897,-1.1324
-539,99,-13.7249,1.18976,-0.00212858,-0.00161707,0.00228032,0.0004218,-0.00416744,0.841243,0.00292904,0.0388738,685,925,-13.7248,-1.18975
-532,99,-13.3372,0.939758,0.00043093,-0.001414,0.00223391,0.00192534,-0.00290841,0.589593,0.00280994,0.0420384,692,925,-13.3372,-0.93973
-525,99,-13.4349,0.969055,0.00298282,-0.00105865,0.00201845,0.00381822,-0.00189405,0.392417,0.00335977,0.0424833,699,925,-13.4349,-0.969058
-518,99,-13.8713,1.28589,0.00384804,-0.000421759,0.00172991,0.00446094,-0.00103466,0.340495,0.00337218,0.0417922,706,925,-13.8713,-1.28587
-511,99,0,0,0,0,0,0,0,0,0,-1,713,925,0,0
-504,99,0,0,0,0,0,0,0,0,0,-1,720,925,0,0
-497,99,0,0,0,0,0,0,0,0,0,-1,727,925,0,0
-490,99,0,0,0,0,0,0,0,0,0,-1,734,925,0,0
-483,99,0,0,0,0,0,0,0,0,0,-1,741,925,0,0
-476,99,0,0,0,0,0,0,0,0,0,-1,748,925,0,0
-469,99,0,0,0,0,0,0,0,0,0,-1,755,925,0,0
-462,99,0,0,0,0,0,0,0,0,0,-1,762,925,0,0
-455,99,0,0,0,0,0,0,0,0,0,-1,769,925,0,0
-448,99,0,0,0,0,0,0,0,0,0,-1,776,925,0,0
-441,99,0,0,0,0,0,0,0,0,0,-1,783,925,0,0
-434,99,0,0,0,0,0,0,0,0,0,-1,790,925,0,0
-427,99,0,0,0,0,0,0,0,0,0,-1,797,925,0,0
-420,99,0,0,0,0,0,0,0,0,0,-1,804,925,0,0
-413,99,0,0,0,0,0,0,0,0,0,-1,811,925,0,0
-406,99,0,0,0,0,0,0,0,0,0,-1,818,925,0,0
-399,99,0,0,0,0,0,0,0,0,0,-1,825,925,0,0
-392,99,0,0,0,0,0,0,0,0,0,-1,832,925,0,0
-385,99,0,0,0,0,0,0,0,0,0,-1,839,925,0,0
-378,99,0,0,0,0,0,0,0,0,0,-1,846,925,0,0
-371,99,0,0,0,0,0,0,0,0,0,-1,853,925,0,0
-364,99,0,0,0,0,0,0,0,0,0,-1,860,925,0,0
-357,99,0,0,0,0,0,0,0,0,0,-1,867,925,0,0
-350,99,0,0,0,0,0,0,0,0,0,-1,874,925,0,0
-343,99,0,0,0,0,0,0,0,0,0,-1,881,925,0,0
-336,99,0,0,0,0,0,0,0,0,0,-1,888,925,0,0
-329,99,0,0,0,0,0,0,0,0,0,-1,895,925,0,0
-322,99,0,0,0,0,0,0,0,0,0,-1,902,925,0,0
-315,99,0,0,0,0,0,0,0,0,0,-1,909,925,0,0
-308,99,0,0,0,0,0,0,0,0,0,-1,916,925,0,0
-301,99,0,0,0,0,0,0,0,0,0,-1,923,925,0,0
-294,99,0,0,0,0,0,0,0,0,0,-1,930,925,0,0
-287,99,0,0,0,0,0,0,0,0,0,-1,937,925,0,0
-280,99,0,0,0,0,0,0,0,0,0,-1,944,925,0,0
-273,99,0,0,0,0,0,0,0,0,0,-1,951,925,0,0
-266,99,0,0,0,0,0,0,0,0,0,-1,958,925,0,0
-259,99,0,0,0,0,0,0,0,0,0,-1,965,925,0,0
-252,99,0,0,0,0,0,0,0,0,0,-1,972,925,0,0
-245,99,0,0,0,0,0,0,0,0,0,-1,979,925,0,0
-238,99,0,0,0,0,0,0,0,0,0,-1,986,925,0,0
-231,99,0,0,0,0,0,0,0,0,0,-1,993,925,0,0
-224,99,0,0,0,0,0,0,0,0,0,-1,1000,925,0,0
-217,99,0,0,0,0,0,0,0,0,0,-1,1007,925,0,0
-210,99,0,0,0,0,0,0,0,0,0,-1,1014,925,0,0
-203,99,0,0,0,0,0,0,0,0,0,-1,1021,925,0,0
-196,99,0,0,0,0,0,0,0,0,0,-1,1028,925,0,0
-189,99,0,0,0,0,0,0,0,0,0,-1,1035,925,0,0
-182,99,0,0,0,0,0,0,0,0,0,-1,1042,925,0,0
-175,99,0,0,0,0,0,0,0,0,0,-1,1049,925,0,0
-168,99,0,0,0,0,0,0,0,0,0,-1,1056,925,0,0
-161,99,0,0,0,0,0,0,0,0,0,-1,1063,925,0,0
-154,99,0,0,0,0,0,0,0,0,0,-1,1070,925,0,0
-147,99,0,0,0,0,0,0,0,0,0,-1,1077,925,0,0
-140,99,0,0,0,0,0,0,0,0,0,-1,1084,925,0,0
-133,99,0,0,0,0,0,0,0,0,0,-1,1091,925,0,0
-126,99,0,0,0,0,0,0,0,0,0,-1,1098,925,0,0
-119,99,0,0,0,0,0,0,0,0,0,-1,1105,925,0,0
-112,99,0,0,0,0,0,0,0,0,0,-1,1112,925,0,0
-105,99,0,0,0,0,0,0,0,0,0,-1,1119,925,0,0
-98,99,0,0,0,0,0,0,0,0,0,-1,1126,925,0,0
-91,99,0,0,0,0,0,0,0,0,0,-1,1133,925,0,0
-84,99,0,0,0,0,0,0,0,0,0,-1,1140,925,0,0
-77,99,0,0,0,0,0,0,0,0,0,-1,1147,925,0,0
-70,99,0,0,0,0,0,0,0,0,0,-1,1154,925,0,0
-63,99,0,0,0,0,0,0,0,0,0,-1,1161,925,0,0
-56,99,0,0,0,0,0,0,0,0,0,-1,1168,925,0,0
-49,99,0,0,0,0,0,0,0,0,0,-1,1175,925,0,0
-42,99,0,0,0,0,0,0,0,0,0,-1,1182,925,0,0
-35,99,0,0,0,0,0,0,0,0,0,-1,1189,925,0,0
-28,99,0,0,0,0,0,0,0,0,0,-1,1196,925,0,0
-21,99,0,0,0,0,0,0,0,0,0,-1,1203,925,0,0
-14,99,0,0,0,0,0,0,0,0,0,-1,1210,925,0,0
-7,99,0,0,0,0,0,0,0,0,0,-1,1217,925,0,0
0,99,0,0,0,0,0,0,0,0,0,-1,1224,925,0,0
7,99,0,0,0,0,0,0,0,0,0,-1,1231,925,0,0
14,99,0,0,0,0,0,0,0,0,0,-1,1238,925,0,0
21,99,0,0,0,0,0,0,0,0,0,-1,1245,925,0,0
28,99,0,0,0,0,0,0,0,0,0,-1,1252,925,0,0
35,99,0,0,0,0,0,0,0,0,0,-1,1259,925,0,0
42,99,0,0,0,0,0,0,0,0,0,-1,1266,925,0,0
49,99,0,0,0,0,0,0,0,0,0,-1,1273,925,0,0
56,99,0,0,0,0,0,0,0,0,0,-1,1280,925,0,0
63,99,0,0,0,0,0,0,0,0,0,-1,1287,925,0,0
70,99,0,0,0,0,0,0,0,0,0,-1,1294,925,0,0
77,99,0,0,0,0,0,0,0,0,0,-1,1301,925,0,0
84,99,0,0,0,0,0,0,0,0,0,-1,1308,925,0,0
91,99,0,0,0,0,0,0,0,0,0,-1,1315,925,0,0
98,99,0,0,0,0,0,0,0,0,0,-1,1322,925,0,0
105,99,0,0,0,0,0,0,0,0,0,-1,1329,925,0,0
112,99,0,0,0,0,0,0,0,0,0,-1,1336,925,0,0
119,99,0,0,0,0,0,0,0,0,0,-1,1343,925,0,0
126,99,0,0,0,0,0,0,0,0,0,-1,1350,925,0,0
133,99,0,0,0,0,0,0,0,0,0,-1,1357,925,0,0
140,99,0,0,0,0,0,0,0,0,0,-1,1364,925,0,0
147,99,0,0,0,0,0,0,0,0,0,-1,1371,925,0,0
154,99,0,0,0,0,0,0,0,0,0,-1,1378,925,0,0
161,99,0,0,0,0,0,0,0,0,0,-1,1385,925,0,0
168,99,0,0,0,0,0,0,0,0,0,-1,1392,925,0,0
175,99,0,0,0,0,0,0,0,0,0,-1,1399,925,0,0
182,99,0,0,0,0,0,0,0,0,0,-1,1406,925,0,0
189,99,0,0,0,0,0,0,0,0,0,-1,1413,925,0,0
196,99,0,0,0,0,0,0,0,0,0,-1,1420,925,0,0
203,99,0,0,0,0,0,0,0,0,0,-1,1427,925,0,0
210,99,0,0,0,0,0,0,0,0,0,-1,1434,925,0,0
217,99,0,0,0,0,0,0,0,0,0,-1,1441,925,0,0
224,99,0,0,0,0,0,0,0,0,0,-1,1448,925,0,0
231,99,0,0,0,0,0,0,0,0,0,-1,1455,925,0,0
238,99,0,0,0,0,0,0,0,0,0,-1,1462,925,0,0
245,99,0,0,0,0,0,0,0,0,0,-1,1469,925,0,0
252,99,0,0,0,0,0,0,0,0,0,-1,1476,925,0,0
259,99,0,0,0,0,0,0,0,0,0,-1,1483,925,0,0
266,99,0,0,0,0,0,0,0,0,0,-1,1490,925,0,0
273,99,0,0,0,0,0,0,0,0,0,-1,1497,925,0,0
280,99,0,0,0,0,0,0,0,0,0,-1,1504,925,0,0
287,99,0,0,0,0,0,0,0,0,0,-1,1511,925,0,0
294,99,0,0,0,0,0,0,0,0,0,-1,1518,925,0,0
301,99,0,0,0,0,0,0,0,0,0,-1,1525,925,0,0
308,99,0,0,0,0,0,0,0,0,0,-1,1532,925,0,0
315,99,0,0,0,0,0,0,0,0,0,-1,1539,925,0,0
322,99,0,0,0,0,0,0,0,0,0,-1,1546,925,0,0
329,99,0,0,0,0,0,0,0,0,0,-1,1553,925,0,0
336,99,0,0,0,0,0,0,0,0,0,-1,1560,925,0,0
343,99,0,0,0,0,0,0,0,0,0,-1,1567,925,0,0
350,99,0,0,0,0,0,0,0,0,0,-1,1574,925,0,0
357,99,0,0,0,0,0,0,0,0,0,-1,1581,925,0,0
364,99,0,0,0,0,0,0,0,0,0,-1,1588,925,0,0
371,99,0,0,0,0,0,0,0,0,0,-1,1595,925,0,0
378,99,0,0,0,0,0,0,0,0,0,-1,1602,925,0,0
385,99,0,0,0,0,0,0,0,0,0,-1,1609,925,0,0
392,99,0,0,0,0,0,0,0,0,0,-1,1616,925,0,0
399,99,0,0,0,0,0,0,0,0,0,-1,1623,925,0,0
406,99,0,0,0,0,0,0,0,0,0,-1,1630,925,0,0
413,99,0,0,0,0,0,0,0,0,0,-1,1637,925,0,0
420,99,0,0,0,0,0,0,0,0,0,-1,1644,925,0,0
427,99,0,0,0,0,0,0,0,0,0,-1,1651,925,0,0
434,99,0,0,0,0,0,0,0,0,0,-1,1658,925,0,0
441,99,0,0,0,0,0,0,0,0,0,-1,1665,925,0,0
448,99,0,0,0,0,0,0,0,0,0,-1,1672,925,0,0
455,99,0,0,0,0,0,0,0,0,0,-1,1679,925,0,0
462,99,0,0,0,0,0,0,0,0,0,-1,1686,925,0,0
469,99,0,0,0,0,0,0,0,0,0,-1,1693,925,0,0
476,99,0,0,0,0,0,0,0,0,0,-1,1700,925,0,0
483,99,0,0,0,0,0,0,0,0,0,-1,1707,925,0,0
490,99,0,0,0,0,0,0,0,0,0,-1,1714,925,0,0
497,99,0,0,0,0,0,0,0,0,0,-1,1721,925,0,0
504,99,0,0,0,0,0,0,0,0,0,-1,1728,925,0,0
511,99,0,0,0,0,0,0,0,0,0,-1,1735,925,0,0
518,99,0,0,0,0,0,0,0,0,0,-1,1742,925,0,0
525,99,0,0,0,0,0,0,0,0,0,-1,1749,925,0,0
532,99,0,0,0,0,0,0,0,0,0,-1,1756,925,0,0
539,99,0,0,0,0,0,0,0,0,0,-1,1763,925,0,0
546,99,0,0,0,0,0,0,0,0,0,-1,1770,925,0,0
553,99,0,0,0,0,0,0,0,0,0,-1,1777,925,0,0
560,99,0,0,0,0,0,0,0,0,0,-1,1784,925,0,0
567,99,0,0,0,0,0,0,0,0,0,-1,1791,925,0,0
574,99,0,0,0,0,0,0,0,0,0,-1,1798,925,0,0
581,99,0,0,0,0,0,0,0,0,0,-1,1805,925,0,0
588,99,0,0,0,0,0,0,0,0,0,-1,1812,925,0,0
595,99,0,0,0,0,0,0,0,0,0,-1,1819,925,0,0
602,99,0,0,0,0,0,0,0,0,0,-1,1826,925,0,0
609,99,0,0,0,0,0,0,0,0,0,-1,1833,925,0,0
616,99,0,0,0,0,0,0,0,0,0,-1,1840,925,0,0
623,99,0,0,0,0,0,0,0,0,0,-1,1847,925,0,0
630,99,0,0,0,0,0,0,0,0,0,-1,1854,925,0,0
637,99,21.3882,3.41187,-0.00770321,0.00169247,-0.00232744,0.0022374,-0.00824814,-1.34081,0.00637677,0.0419791,1861,925,21.3882,-3.41189
644,99,21.168,3.45123,-0.00445544,0.00141288,-0.00181388,0.00192828,-0.00497084,-1.29395,0.00411029,0.035443,1868,925,21.168,-3.45122
651,99,21.1074,3.30701,-0.00339977,0.00135073,-0.00159121,0.00183446,-0.0038835,-1.27567,0.00337118,0.0401319,1875,925,21.1074,-3.30703
658,99,21.0729,3.36993,-0.0040697,0.00128597,-0.00152058,0.00168758,-0.00447131,-1.31258,0.00367492,0.0421955,1882,925,21.0729,-3.36994
665,99,21.0918,3.26306,-0.00544685,0.00125852,-0.00148463,0.00157252,-0.00576085,-1.36236,0.00445817,0.0409635,1889,925,21.0918,-3.26303
672,99,21.2246,3.23389,-0.00681823,0.00119158,-0.00141215,0.00143325,-0.00705991,-1.4013,0.00524998,0.0398567,1896,925,21.2247,-3.23387
679,99,21.3037,3.11847,-0.00795053,0.00110673,-0.00135454,0.00130497,-0.00814877,-1.42548,0.00591568,0.0358763,1903,925,21.3037,-3.11849
686,99,21.2706,2.98444,-0.00875414,0.00105761,-0.00127403,0.00122034,-0.00891687,-1.44376,0.00639032,0.0290671,1910,925,21.2706,-2.98444
693,99,21.2339,3.06714,-0.00909314,0.000879448,-0.00110408,0.00100022,-0.00921392,-1.46184,0.00650171,0.0240266,1917,925,21.2339,-3.06716
700,99,21.0248,3.00281,0,0,0,0,0,0,0,-1,1924,925,21.0248,-3.00283
707,99,19.9388,3.36676,-0.00886501,0.00079968,-0.000856113,0.000874929,-0.00894026,-1.48312,0.00627219,0.0423048,1931,925,19.9389,-3.36677
714,99,19.5443,3.5755,-0.0081729,0.000832121,-0.000886028,0.000918472,-0.00825925,-1.47365,0.00583646,0.0184517,1938,925,19.5443,-3.5755
721,99,19.5095,3.71527,-0.00698758,0.000926752,-0.000783357,0.00100354,-0.00706437,-1.47308,0.00507726,0.0192946,1945,925,19.5095,-3.71529
728,99,19.5487,3.88416,-0.00480268,0.000991679,-0.000711213,0.0010777,-0.0048887,-1.45043,0.00367147,0.0158743,1952,925,19.5487,-3.88418
735,99,19.5433,4.0484,-0.00133336,0.00179216,-0.000453021,0.0018565,-0.0013977,-1.42972,0.00188503,0.0138799,1959,925,19.5434,-4.0484
742,99,19.5159,4.17883,0.00285773,0.00269062,3.18417e-05,0.00286359,0.00268475,0.182043,0.00185233,0.011698,1966,925,19.5158,-4.17881
749,99,19.5067,4.31061,0.00777002,0.00402936,0.00132158,0.00818982,0.00360955,0.307571,0.00473945,0.00981884,1973,925,19.5067,-4.31062
756,99,19.4965,4.43134,0.0136432,0.00583714,0.00269201,0.0144815,0.0049988,0.301898,0.00849346,0.0108701,1980,925,19.4964,-4.43134
763,99,19.4969,4.54181,0.0197662,0.00806383,0.00470552,0.0214236,0.00640647,0.338648,0.0126976,0.0132208,1987,925,19.497,-4.54183
770,99,19.5011,4.68878,0.0263184,0.0107995,0.00764969,0.0294551,0.00766275,0.389138,0.0176461,0.0257529,1994,925,19.5011,-4.68879
777,99,19.5496,4.87555,0.0334638,0.0140196,0.0117508,0.038993,0.00849045,0.439799,0.0236781,0.0410407,2001,925,19.5495,-4.87557
784,99,20.5385,5.25989,0.0411027,0.0177567,0.0174458,0.0504205,0.00843891,0.490555,0.0311837,0.0446777,2008,925,20.5385,-5.25986
791,99,20.656,5.53223,0,0,0,0,0,0,0,-1,2015,925,20.656,-5.53224
798,99,20.5225,5.36481,0,0,0,0,0,0,0,-1,2022,925,20.5224,-5.36479
805,99,0,0,0,0,0,0,0,0,0,-1,2029,925,0,0
812,99,0,0,0,0,0,0,0,0,0,-1,2036,925,0,0
-700,92,0,0,0,0,0,0,0,0,0,-1,524,932,0,0
-693,92,0,0,0,0,0,0,0,0,0,-1,531,932,0,0
-686,92,-21.1368,-2.03113,0,0,0,0,0,0,0,-1,538,932,-21.1368,2.0311
-679,92,-20.6089,-2.99506,0,0,0,0,0,0,0,-1,545,932,-20.6089,2.99505
-672,92,-20.0933,-4.00653,0,0,0,0,0,0,0,-1,552,932,-20.0933,4.00654
-665,92,-11.6572,0.35437,0,0,0,0,0,0,0,-1,559,932,-11.6572,-0.35434
-658,92,-11.6423,0.698975,-0.00420751,0.033071,-0.000720286,0.033085,-0.00422143,-1.55148,0.02359,0.0494188,566,932,-11.6423,-0.698984
-651,92,-12.2438,1.92023,-0.00459391,0.0239989,0.000517469,0.0240083,-0.00460327,1.55271,0.0177401,0.045146,573,932,-12.2438,-1.92023
-644,92,-12.2394,2.22083,-0.00475991,0.0169016,0.00137699,0.0169888,-0.0048471,1.50757,0.0132407,0.0437699,580,932,-12.2394,-2.22085
-637,92,-12.7834,2.21655,-0.00458828,0.0116663,0.00198854,0.011906,-0.00482802,1.45082,0.00994529,0.0260581,587,932,-12.7834,-2.21654
-630,92,-12.8344,2.15411,-0.00469554,0.00773741,0.00224121,0.00812908,-0.00508721,1.39779,0.0076975,0.0120743,594,932,-12.8344,-2.15413
-623,92,-12.8705,2.05127,-0.0048648,0.00406528,0.00209963,0.00453431,-0.00533383,1.35102,0.0057036,0.00820883,601,932,-12.8705,-2.05127
-616,92,-12.886,1.93213,-0.00534661,0.00162578,0.00179353,0.00206008,-0.00578091,1.33322,0.00469383,0.00804092,608,932,-12.886,-1.93214
-609,92,-12.8843,1.81586,-0.00619907,0.000975036,0.00167258,0.00134582,-0.00656986,1.35264,0.00489063,0.00807202,615,932,-12.8843,-1.81585
-602,92,-12.8774,1.69366,-0.00744861,-2.25237e-05,0.00144972,0.000250456,-0.00772159,1.38468,0.00523321,0.00847742,622,932,-12.8774,-1.69366
-595,92,-12.8539,1.56177,-0.00823297,-0.000352319,0.00134361,-0.00012954,-0.00845575,1.40648,0.00559449,0.014364,629,932,-12.8539,-1.56179
-588,92,-12.8469,1.45862,-0.00798108,-0.000612579,0.00115468,-0.000435871,-0.00815779,1.41894,0.00529921,0.0172718,636,932,-12.847,-1.45859
-581,92,-12.8444,1.34094,-0.00774057,-0.000891737,0.00114335,-0.000705906,-0.0079264,1.40967,0.00506539,0.0148317,643,932,-12.8444,-1.34095
-574,92,-13.0671,1.23352,-0.00766725,-0.00113393,0.00121172,-0.000916435,-0.00788474,1.3932,0.00497921,0.0230307,650,932,-13.0671,-1.23351
-567,92,-13.5441,0.991821,-0.00754354,-0.00129399,0.00137719,-0.00100396,-0.00783356,1.36324,0.00492197,0.0409309,657,932,-13.5441,-0.991798
-560,92,-13.747,1.01843,-0.00673101,-0.00145396,0.00158111,-0.00101649,-0.00716848,1.30087,0.00447877,0.0346199,664,932,-13.747,-1.01842
-553,92,-13.9561,1.03223,-0.00534512,-0.00151651,0.00177116,-0.000822833,-0.0060388,1.19751,0.00378155,0.0398601,671,932,-13.9561,-1.03223
-546,92,-13.9957,1.0694,-0.00340126,-0.00144038,0.00193074,-0.000255398,-0.00458624,1.02033,0.00297601,0.0408383,678,932,-13.9957,-1.06939
-539,92,-13.8043,1.0274,-0.0010054,-0.0011815,0.00204809,0.00095653,-0.00314343,0.763916,0.00247681,0.0367211,685,932,-13.8043,-1.02741
-532,92,-13.6472,0.909607,0.00165595,-0.000680827,0.00208718,0.00287952,-0.0019044,0.530233,0.00278106,0.0423603,692,932,-13.6472,-0.909602
-525,92,-13.7631,1.01642,0.00402886,0.000197975,0.00192341,0.0048279,-0.000601066,0.393737,0.00343652,0.0424263,699,932,-13.7631,-1.01642
-518,92,-13.907,1.27814,0.00409044,0.00170117,0.00165832,0.00493962,0.000851986,0.47326,0.00304902,0.0414347,706,932,-13.907,-1.27815
-511,92,0,0,0,0,0,0,0,0,0,-1,713,932,0,0
-504,92,0,0,0,0,0,0,0,0,0,-1,720,932,0,0
-497,92,0,0,0,0,0,0,0,0,0,-1,727,932,0,0
-490,92,0,0,0,0,0,0,0,0,0,-1,734,932,0,0
-483,92,0,0,0,0,0,0,0,0,0,-1,741,932,0,0
-476,92,0,0,0,0,0,0,0,0,0,-1,748,932,0,0
-469,92,0,0,0,0,0,0,0,0,0,-1,755,932,0,0
-462,92,0,0,0,0,0,0,0,0,0,-1,762,932,0,0
-455,92,0,0,0,0,0,0,0,0,0,-1,769,932,0,0
-448,92,0,0,0,0,0,0,0,0,0,-1,776,932,0,0
-441,92,0,0,0,0,0,0,0,0,0,-1,783,932,0,0
-434,92,0,0,0,0,0,0,0,0,0,-1,790,932,0,0
-427,92,0,0,0,0,0,0,0,0,0,-1,797,932,0,0
-420,92,0,0,0,0,0,0,0,0,0,-1,804,932,0,0
-413,92,0,0,0,0,0,0,0,0,0,-1,811,932,0,0
-406,92,0,0,0,0,0,0,0,0,0,-1,818,932,0,0
-399,92,0,0,0,0,0,0,0,0,0,-1,825,932,0,0
-392,92,0,0,0,0,0,0,0,0,0,-1,832,932,0,0
-385,92,0,0,0,0,0,0,0,0,0,-1,839,932,0,0
-378,92,0,0,0,0,0,0,0,0,0,-1,846,932,0,0
-371,92,0,0,0,0,0,0,0,0,0,-1,853,932,0,0
-364,92,0,0,0,0,0,0,0,0,0,-1,860,932,0,0
-357,92,0,0,0,0,0,0,0,0,0,-1,867,932,0,0
-350,92,0,0,0,0,0,0,0,0,0,-1,874,932,0,0
-343,92,0,0,0,0,0,0,0,0,0,-1,881,932,0,0
-336,92,0,0,0,0,0,0,0,0,0,-1,888,932,0,0
-329,92,0,0,0,0,0,0,0,0,0,-1,895,932,0,0
-322,92,0,0,0,0,0,0,0,0,0,-1,902,932,0,0
-315,92,0,0,0,0,0,0,0,0,0,-1,909,932,0,0
-308,92,0,0,0,0,0,0,0,0,0,-1,916,932,0,0
-301,92,0,0,0,0,0,0,0,0,0,-1,923,932,0,0
-294,92,0,0,0,0,0,0,0,0,0,-1,930,932,0,0
-287,92,0,0,0,0,0,0,0,0,0,-1,937,932,0,0
-280,92,0,0,0,0,0,0,0,0,0,-1,944,932,0,0
-273,92,0,0,0,0,0,0,0,0,0,-1,951,932,0,0
-266,92,0,0,0,0,0,0,0,0,0,-1,958,932,0,0
-259,92,0,0,0,0,0,0,0,0,0,-1,965,932,0,0
-252,92,0,0,0,0,0,0,0,0,0,-1,972,932,0,0
-245,92,0,0,0,0,0,0,0,0,0,-1,979,932,0,0
-238,92,0,0,0,0,0,0,0,0,0,-1,986,932,0,0
-231,92,0,0,0,0,0,0,0,0,0,-1,993,932,0,0
-224,92,0,0,0,0,0,0,0,0,0,-1,1000,932,0,0
-217,92,0,0,0,0,0,0,0,0,0,-1,1007,932,0,0
-210,92,0,0,0,0,0,0,0,0,0,-1,1014,932,0,0
-203,92,0,0,0,0,0,0,0,0,0,-1,1021,932,0,0
-196,92,0,0,0,0,0,0,0,0,0,-1,1028,932,0,0
-189,92,0,0,0,0,0,0,0,0,0,-1,1035,932,0,0
-182,92,0,0,0,0,0,0,0,0,0,-1,1042,932,0,0
-175,92,0,0,0,0,0,0,0,0,0,-1,1049,932,0,0
-168,92,0,0,0,0,0,0,0,0,0,-1,1056,932,0,0
-161,92,0,0,0,0,0,0,0,0,0,-1,1063,932,0,0
-154,92,0,0,0,0,0,0,0,0,0,-1,1070,932,0,0
-147,92,0,0,0,0,0,0,0,0,0,-1,1077,932,0,0
-140,92,0,0,0,0,0,0,0,0,0,-1,1084,932,0,0
-133,92,0,0,0,0,0,0,0,0,0,-1,1091,932,0,0
-126,92,0,0,0,0,0,0,0,0,0,-1,1098,932,0,0
-119,92,0,0,0,0,0,0,0,0,0,-1,1105,932,0,0
-112,92,0,0,0,0,0,0,0,0,0,-1,1112,932,0,0
-105,92,0,0,0,0,0,0,0,0,0,-1,1119,932,0,0
-98,92,0,0,0,0,0,0,0,0,0,-1,1126,932,0,0
-91,92,0,0,0,0,0,0,0,0,0,-1,1133,932,0,0
-84,92,0,0,0,0,0,0,0,0,0,-1,1140,932,0,0
-77,92,0,0,0,0,0,0,0,0,0,-1,1147,932,0,0
-70,92,0,0,0,0,0,0,0,0,0,-1,1154,932,0,0
-63,92,0,0,0,0,0,0,0,0,0,-1,1161,932,0,0
-56,92,0,0,0,0,0,0,0,0,0,-1,1168,932,0,0
-49,92,0,0,0,0,0,0,0,0,0,-1,1175,932,0,0
-42,92,0,0,0,0,0,0,0,0,0,-1,1182,932,0,0
-35,92,0,0,0,0,0,0,0,0,0,-1,1189,932,0,0
-28,92,0,0,0,0,0,0,0,0,0,-1,1196,932,0,0
-21,92,0,0,0,0,0,0,0,0,0,-1,1203,932,0,0
-14,92,0,0,0,0,0,0,0,0,0,-1,1210,932,0,0
-7,92,0,0,0,0,0,0,0,0,0,-1,1217,932,0,0
0,92,0,0,0,0,0,0,0,0,0,-1,1224,932,0,0
7,92,0,0,0,0,0,0,0,0,0,-1,1231,932,0,0
14,92,0,0,0,0,0,0,0,0,0,-1,1238,932,0,0
21,92,0,0,0,0,0,0,0,0,0,-1,1245,932,0,0
28,92,0,0,0,0,0,0,0,0,0,-1,1252,932,0,0
35,92,0,0,0,0,0,0,0,0,0,-1,1259,932,0,0
42,92,0,0,0,0,0,0,0,0,0,-1,1266,932,0,0
49,92,0,0,0,0,0,0,0,0,0,-1,1273,932,0,0
56,92,0,0,0,0,0,0,0,0,0,-1,1280,932,0,0
63,92,0,0,0,0,0,0,0,0,0,-1,1287,932,0,0
70,92,0,0,0,0,0,0,0,0,0,-1,1294,932,0,0
77,92,0,0,0,0,0,0,0,0,0,-1,1301,932,0,0
84,92,0,0,0,0,0,0,0,0,0,-1,1308,932,0,0
91,92,0,0,0,0,0,0,0,0,0,-1,1315,932,0,0
98,92,0,0,0,0,0,0,0,0,0,-1,1322,932,0,0
105,92,0,0,0,0,0,0,0,0,0,-1,1329,932,0,0
112,92,0,0,0,0,0,0,0,0,0,-1,1336,932,0,0
119,92,0,0,0,0,0,0,0,0,0,-1,1343,932,0,0
126,92,0,0,0,0,0,0,0,0,0,-1,1350,932,0,0
133,92,0,0,0,0,0,0,0,0,0,-1,1357,932,0,0
140,92,0,0,0,0,0,0,0,0,0,-1,1364,932,0,0
147,92,0,0,0,0,0,0,0,0,0,-1,1371,932,0,0
154,92,0,0,0,0,0,0,0,0,0,-1,1378,932,0,0
161,92,0,0,0,0,0,0,0,0,0,-1,1385,932,0,0
168,92,0,0,0,0,0,0,0,0,0,-1,1392,932,0,0
175,92,0,0,0,0,0,0,0,0,0,-1,1399,932,0,0
182,92,0,0,0,0,0,0,0,0,0,-1,1406,932,0,0
189,92,0,0,0,0,0,0,0,0,0,-1,1413,932,0,0
196,92,0,0,0,0,0,0,0,0,0,-1,1420,932,0,0
203,92,0,0,0,0,0,0,0,0,0,-1,1427,932,0,0
210,92,0,0,0,0,0,0,0,0,0,-1,1434,932,0,0
217,92,0,0,0,0,0,0,0,0,0,-1,1441,932,0,0
224,92,0,0,0,0,0,0,0,0,0,-1,1448,932,0,0
231,92,0,0,0,0,0,0,0,0,0,-1,1455,932,0,0
238,92,0,0,0,0,0,0,0,0,0,-1,1462,932,0,0
245,92,0,0,0,0,0,0,0,0,0,-1,1469,932,0,0
252,92,0,0,0,0,0,0,0,0,0,-1,1476,932,0,0
259,92,0,0,0,0,0,0,0,0,0,-1,1483,932,0,0
266,92,0,0,0,0,0,0,0,0,0,-1,1490,932,0,0
273,92,0,0,0,0,0,0,0,0,0,-1,1497,932,0,0
280,92,0,0,0,0,0,0,0,0,0,-1,1504,932,0,0
287,92,0,0,0,0,0,0,0,0,0,-1,1511,932,0,0
294,92,0,0,0,0,0,0,0,0,0,-1,1518,932,0,0
301,92,0,0,0,0,0,0,0,0,0,-1,1525,932,0,0
308,92,0,0,0,0,0,0,0,0,0,-1,1532,932,0,0
315,92,0,0,0,0,0,0,0,0,0,-1,1539,932,0,0
322,92,0,0,0,0,0,0,0,0,0,-1,1546,932,0,0
329,92,0,0,0,0,0,0,0,0,0,-1,1553,932,0,0
336,92,0,0,0,0,0,0,0,0,0,-1,1560,932,0,0
343,92,0,0,0,0,0,0,0,0,0,-1,1567,932,0,0
350,92,0,0,0,0,0,0,0,0,0,-1,1574,932,0,0
357,92,0,0,0,0,0,0,0,0,0,-1,1581,932,0,0
364,92,0,0,0,0,0,0,0,0,0,-1,1588,932,0,0
371,92,0,0,0,0,0,0,0,0,0,-1,1595,932,0,0
378,92,0,0,0,0,0,0,0,0,0,-1,1602,932,0,0
385,92,0,0,0,0,0,0,0,0,0,-1,1609,932,0,0
392,92,0,0,0,0,0,0,0,0,0,-1,1616,932,0,0
399,92,0,0,0,0,0,0,0,0,0,-1,1623,932,0,0
406,92,0,0,0,0,0,0,0,0,0,-1,1630,932,0,0
413,92,0,0,0,0,0,0,0,0,0,-1,1637,932,0,0
420,92,0,0,0,0,0,0,0,0,0,-1,1644,932,0,0
427,92,0,0,0,0,0,0,0,0,0,-1,1651,932,0,0
434,92,0,0,0,0,0,0,0,0,0,-1,1658,932,0,0
441,92,0,0,0,0,0,0,0,0,0,-1,1665,932,0,0
448,92,0,0,0,0,0,0,0,0,0,-1,1672,932,0,0
455,92,0,0,0,0,0,0,0,0,0,-1,1679,932,0,0
462,92,0,0,0,0,0,0,0,0,0,-1,1686,932,0,0
469,92,0,0,0,0,0,0,0,0,0,-1,1693,932,0,0
476,92,0,0,0,0,0,0,0,0,0,-1,1700,932,0,0
483,92,0,0,0,0,0,0,0,0,0,-1,1707,932,0,0
490,92,0,0,0,0,0,0,0,0,0,-1,1714,932,0,0
497,92,0,0,0,0,0,0,0,0,0,-1,1721,932,0,0
504,92,0,0,0,0,0,0,0,0,0,-1,1728,932,0,0
511,92,0,0,0,0,0,0,0,0,0,-1,1735,932,0,0
518,92,0,0,0,0,0,0,0,0,0,-1,1742,932,0,0
525,92,0,0,0,0,0,0,0,0,0,-1,1749,932,0,0
532,92,0,0,0,0,0,0,0,0,0,-1,1756,932,0,0
539,92,0,0,0,0,0,0,0,0,0,-1,1763,932,0,0
546,92,0,0,0,0,0,0,0,0,0,-1,1770,932,0,0
553,92,0,0,0,0,0,0,0,0,0,-1,1777,932,0,0
560,92,0,0,0,0,0,0,0,0,0,-1,1784,932,0,0
567,92,0,0,0,0,0,0,0,0,0,-1,1791,932,0,0
574,92,0,0,0,0,0,0,0,0,0,-1,1798,932,0,0
581,92,0,0,0,0,0,0,0,0,0,-1,1805,932,0,0
588,92,0,0,0,0,0,0,0,0,0,-1,1812,932,0,0
595,92,0,0,0,0,0,0,0,0,0,-1,1819,932,0,0
602,92,0,0,0,0,0,0,0,0,0,-1,1826,932,0,0
609,92,0,0,0,0,0,0,0,0,0,-1,1833,932,0,0
616,92,0,0,0,0,0,0,0,0,0,-1,1840,932,0,0
623,92,0,0,0,0,0,0,0,0,0,-1,1847,932,0,0
630,92,0,0,0,0,0,0,0,0,0,-1,1854,932,0,0
637,92,21.4065,3.36176,-0.00729376,0.00282009,-0.0030898,0.00368932,-0.00816299,-1.29656,0.00700354,0.0425293,1861,932,21.4065,-3.36178
644,92,21.2328,3.36682,-0.00427135,0.0023169,-0.00235878,0.00307433,-0.00502878,-1.26009,0.00472348,0.0361453,1868,932,21.2328,-3.36682
651,92,21.2766,2.96948,-0.00307367,0.00209987,-0.00193759,0.00274507,-0.00371887,-1.24935,0.00374605,0.0398026,1875,932,21.2766,-2.9695
658,92,21.123,3.30316,-0.00347436,0.00192262,-0.00165495,0.00238968,-0.00394141,-1.29573,0.00369167,0.0431275,1882,932,21.1231,-3.30315
665,92,21.0609,3.22754,-0.00464637,0.00181793,-0.00140349,0.00210949,-0.00493794,-1.36597,0.00417664,0.0408431,1889,932,21.0609,-3.22752
672,92,21.1698,3.11993,-0.00593043,0.00169969,-0.00115705,0.00187128,-0.00610202,-1.42356,0.00481456,0.0409949,1896,932,21.1698,-3.11991
679,92,21.1931,3.11737,-0.00705441,0.0015558,-0.000941377,0.00165752,-0.00715614,-1.46316,0.0054086,0.0374859,1903,932,21.1931,-3.11739
686,92,21.2037,3.00928,-0.00785722,0.00144253,-0.000768504,0.00150561,-0.0079203,-1.4889,0.00584705,0.0294236,1910,932,21.2037,-3.00927
693,92,21.2799,2.98401,-0.00821359,0.00120604,-0.000555219,0.00123865,-0.0082462,-1.51212,0.00595346,0.0252572,1917,932,21.28,-2.98403
700,92,21.3661,2.80695,0,0,0,0,0,0,0,-1,1924,932,21.3661,-2.80698
707,92,20.2433,3.38861,0,0,0,0,0,0,0,-1,1931,932,20.2433,-3.38862
714,92,19.7415,3.55768,0,0,0,0,0,0,0,-1,1938,932,19.7414,-3.55766
721,92,19.7166,3.76721,-0.00670783,0.00112085,-0.000257943,0.00112934,-0.00671632,-1.5379,0.00489759,0.0221702,1945,932,19.7166,-3.76721
728,92,19.6931,3.94781,-0.00484695,0.00114541,-0.000251714,0.00115596,-0.00485751,-1.52889,0.00368461,0.0172604,1952,932,19.6931,-3.94783
735,92,19.6748,4.06537,-0.00181884,0.00186979,-0.000136933,0.00187486,-0.00182392,-1.53374,0.00213556,0.0152923,1959,932,19.6747,-4.06536
742,92,19.6904,4.16479,0.00170063,0.00281618,8.95775e-05,0.00282333,0.00169349,1.49118,0.00164084,0.0160914,1966,932,19.6905,-4.16477
749,92,19.6832,4.30713,0.00576652,0.00428549,0.000914074,0.0062024,0.00384962,0.444956,0.00361555,0.0144108,1973,932,19.6832,-4.30713
756,92,19.6414,4.43268,0.0107642,0.00631303,0.00183707,0.0114245,0.00565278,0.345029,0.00659603,0.0136774,1980,932,19.6413,-4.43267
763,92,19.6471,4.54999,0.0159666,0.00885953,0.00326856,0.0172413,0.00758491,0.371824,0.00997816,0.0156905,1987,932,19.6471,-4.54999
770,92,19.6398,4.67859,0.0214082,0.0120785,0.00546859,0.0239313,0.00955545,0.432274,0.0139099,0.024649,1994,932,19.6397,-4.6786
777,92,19.8005,4.62909,0.0271534,0.0159471,0.00852697,0.0317534,0.0113471,0.49472,0.0185799,0.0417467,2001,932,19.8005,-4.62912
784,92,20.2659,4.93994,0.0331417,0.0205812,0.0128056,0.0411241,0.0125988,0.557416,0.0243293,0.0462413,2008,932,20.2659,-4.93995
791,92,20.5237,5.17615,0.03893,0.0260559,0.0185739,0.0521506,0.0128353,0.618593,0.0313763,0.0463865,2015,932,20.5236,-5.17614
798,92,20.8064,5.41644,0,0,0,0,0,0,0,-1,2022,932,20.8064,-5.41643
805,92,0,0,0,0,0,0,0,0,0,-1,2029,932,0,0
812,92,0,0,0,0,0,0,0,0,0,-1,2036,932,0,0
-700,85,0,0,0,0,0,0,0,0,0,-1,524,939,0,0
-693,85,0,0,0,0,0,0,0,0,0,-1,531,939,0,0
-686,85,-21.6509,-2.90942,0,0,0,0,0,0,0,-1,538,939,-21.6509,2.90941
-679,85,-21.2105,-3.84723,0,0,0,0,0,0,0,-1,545,939,-21.2105,3.8472
-672,85,-13.0183,0.962524,0,0,0,0,0,0,0,-1,552,939,-13.0183,-0.962525
-665,85,-12.4444,1.49701,0,0,0,0,0,0,0,-1,559,939,-12.4444,-1.49701
-658,85,-12.7077,2.22418,0,0,0,0,0,0,0,-1,566,939,-12.7077,-2.22421
-651,85,-12.7186,2.21509,-0.00652104,0.016503,-0.0015152,0.0166023,-0.00662032,-1.50536,0.0138143,0.0431047,573,939,-12.7186,-2.21509
-644,85,-12.7908,2.2345,-0.00629035,0.0115214,-5.49419e-05,0.0115216,-0.00629051,-1.56771,0.0104306,0.0332287,580,939,-12.7908,-2.23449
-637,85,-12.908,2.21289,-0.00568111,0.00801058,0.00108665,0.00809629,-0.00576682,1.49209,0.00804145,0.0175134,587,939,-12.908,-2.21289
-630,85,-12.9764,2.11279,-0.00550523,0.00527289,0.00169022,0.00553173,-0.00576407,1.41884,0.00652209,0.0110687,594,939,-12.9764,-2.1128
-623,85,-13.0117,2.02325,-0.0055727,0.00271065,0.00175571,0.00306742,-0.00592946,1.37032,0.00528123,0.00956126,601,939,-13.0117,-2.02325
-616,85,-13.0146,1.92511,-0.00595284,0.0010457,0.00148619,0.00134823,-0.00625536,1.36998,0.00468477,0.00891175,608,939,-13.0147,-1.92513
-609,85,-12.9997,1.80603,-0.00655546,0.000670174,0.00131674,0.000902648,-0.00678793,1.39605,0.00485423,0.0106187,615,939,-12.9997,-1.80602
-602,85,-12.9962,1.68219,-0.00760796,-3.25633e-05,0.000997921,9.66897e-05,-0.00773722,1.44199,0.00519067,0.013937,622,939,-12.9962,-1.6822
-595,85,-12.9753,1.57507,-0.00830228,-0.000293258,0.000773178,-0.000219299,-0.00837624,1.47543,0.00551251,0.0157491,629,939,-12.9754,-1.57507
-588,85,-12.961,1.47266,-0.00810108,-0.000587724,0.000591747,-0.000541404,-0.0081474,1.49268,0.00526042,0.0162395,636,939,-12.961,-1.47263
-581,85,-12.9666,1.36755,-0.00783207,-0.000840991,0.000590825,-0.000791411,-0.00788165,1.48708,0.0050115,0.0167658,643,939,-12.9666,-1.36754
-574,85,-13.2323,1.30103,-0.00768259,-0.00109378,0.000702998,-0.0010196,-0.00775676,1.46568,0.00486703,0.0275387,650,939,-13.2323,-1.30104
-567,85,-13.6721,1.20544,-0.0074755,-0.00128149,0.000882784,-0.00115813,-0.00759886,1.43196,0.00472739,0.036607,657,939,-13.6721,-1.20544
-560,85,-13.7566,1.16785,-0.00652539,-0.00147211,0.00109639,-0.00124448,-0.00675302,1.36609,0.00414986,0.0328437,664,939,-13.7566,-1.16783
-553,85,-13.9589,1.22064,-0.00492458,-0.00156165,0.00132851,-0.00110016,-0.00538607,1.23646,0.00328597,0.036721,671,939,-13.9588,-1.22062
-546,85,-14.0222,1.04718,-0.00271747,-0.00148875,0.00154095,-0.000444207,-0.00376201,0.975087,0.00237383,0.039227,678,939,-14.0222,-1.04718
-539,85,-13.8325,1.02905,-3.07665e-05,-0.00118669,0.00171193,0.00119814,-0.00241559,0.622602,0.00212549,0.0377933,685,939,-13.8325,-1.02905
-532,85,-13.7161,1.06702,0.00291033,-0.000562368,0.00177575,0.00365756,-0.0013096,0.398308,0.00297268,0.0387227,692,939,-13.7161,-1.06703
-525,85,-13.7549,1.09766,0.00535233,0.000598767,0.00156981,0.00582395,0.000127147,0.291853,0.00384095,0.0367353,699,939,-13.7549,-1.09765
-518,85,-13.8281,1.10559,0.00512971,0.00260673,0.00116826,0.00558758,0.00214887,0.373523,0.00325451,0.0361133,706,939,-13.8281,-1.10558
-511,85,0,0,0,0,0,0,0,0,0,-1,713,939,0,0
-504,85,0,0,0,0,0,0,0,0,0,-1,720,939,0,0
-497,85,0,0,0,0,0,0,0,0,0,-1,727,939,0,0
-490,85,0,0,0,0,0,0,0,0,0,-1,734,939,0,0
-483,85,0,0,0,0,0,0,0,0,0,-1,741,939,0,0
-476,85,0,0,0,0,0,0,0,0,0,-1,748,939,0,0
-469,85,0,0,0,0,0,0,0,0,0,-1,755,939,0,0
-462,85,0,0,0,0,0,0,0,0,0,-1,762,939,0,0
-455,85,0,0,0,0,0,0,0,0,0,-1,769,939,0,0
-448,85,0,0,0,0,0,0,0,0,0,-1,776,939,0,0
-441,85,0,0,0,0,0,0,0,0,0,-1,783,939,0,0
-434,85,0,0,0,0,0,0,0,0,0,-1,790,939,0,0
-427,85,0,0,0,0,0,0,0,0,0,-1,797,939,0,0
-420,85,0,0,0,0,0,0,0,0,0,-1,804,939,0,0
-413,85,0,0,0,0,0,0,0,0,0,-1,811,939,0,0
-406,85,0,0,0,0,0,0,0,0,0,-1,818,939,0,0
-399,85,0,0,0,0,0,0,0,0,0,-1,825,939,0,0
-392,85,0,0,0,0,0,0,0,0,0,-1,832,939,0,0
-385,85,0,0,0,0,0,0,0,0,0,-1,839,939,0,0
-378,85,0,0,0,0,0,0,0,0,0,-1,846,939,0,0
-371,85,0,0,0,0,0,0,0,0,0,-1,853,939,0,0
-364,85,0,0,0,0,0,0,0,0,0,-1,860,939,0,0
-357,85,0,0,0,0,0,0,0,0,0,-1,867,939,0,0
-350,85,0,0,0,0,0,0,0,0,0,-1,874,939,0,0
-343,85,0,0,0,0,0,0,0,0,0,-1,881,939,0,0
-336,85,0,0,0,0,0,0,0,0,0,-1,888,939,0,0
-329,85,0,0,0,0,0,0,0,0,0,-1,895,939,0,0
-322,85,0,0,0,0,0,0,0,0,0,-1,902,939,0,0
-315,85,0,0,0,0,0,0,0,0,0,-1,909,939,0,0
-308,85,0,0,0,0,0,0,0,0,0,-1,916,939,0,0
-301,85,0,0,0,0,0,0,0,0,0,-1,923,939,0,0
-294,85,0,0,0,0,0,0,0,0,0,-1,930,939,0,0
-287,85,0,0,0,0,0,0,0,0,0,-1,937,939,0,0
-280,85,0,0,0,0,0,0,0,0,0,-1,944,939,0,0
-273,85,0,0,0,0,0,0,0,0,0,-1,951,939,0,0
-266,85,0,0,0,0,0,0,0,0,0,-1,958,939,0,0
-259,85,0,0,0,0,0,0,0,0,0,-1,965,939,0,0
-252,85,0,0,0,0,0,0,0,0,0,-1,972,939,0,0
-245,85,0,0,0,0,0,0,0,0,0,-1,979,939,0,0
-238,85,0,0,0,0,0,0,0,0,0,-1,986,939,0,0
-231,85,0,0,0,0,0,0,0,0,0,-1,993,939,0,0
-224,85,0,0,0,0,0,0,0,0,0,-1,1000,939,0,0
-217,85,0,0,0,0,0,0,0,0,0,-1,1007,939,0,0
-210,85,0,0,0,0,0,0,0,0,0,-1,1014,939,0,0
-203,85,0,0,0,0,0,0,0,0,0,-1,1021,939,0,0
-196,85,0,0,0,0,0,0,0,0,0,-1,1028,939,0,0
-189,85,0,0,0,0,0,0,0,0,0,-1,1035,939,0,0
-182,85,0,0,0,0,0,0,0,0,0,-1,1042,939,0,0
-175,85,0,0,0,0,0,0,0,0,0,-1,1049,939,0,0
-168,85,0,0,0,0,0,0,0,0,0,-1,1056,939,0,0
-161,85,0,0,0,0,0,0,0,0,0,-1,1063,939,0,0
-154,85,0,0,0,0,0,0,0,0,0,-1,1070,939,0,0
-147,85,0,0,0,0,0,0,0,0,0,-1,1077,939,0,0
-140,85,0,0,0,0,0,0,0,0,0,-1,1084,939,0,0
-133,85,0,0,0,0,0,0,0,0,0,-1,1091,939,0,0
-126,85,0,0,0,0,0,0,0,0,0,-1,1098,939,0,0
-119,85,0,0,0,0,0,0,0,0,0,-1,1105,939,0,0
-112,85,0,0,0,0,0,0,0,0,0,-1,1112,939,0,0
-105,85,0,0,0,0,0,0,0,0,0,-1,1119,939,0,0
-98,85,0,0,0,0,0,0,0,0,0,-1,1126,939,0,0
-91,85,0,0,0,0,0,0,0,0,0,-1,1133,939,0,0
-84,85,0,0,0,0,0,0,0,0,0,-1,1140,939,0,0
-77,85,0,0,0,0,0,0,0,0,0,-1,1147,939,0,0
-70,85,0,0,0,0,0,0,0,0,0,-1,1154,939,0,0
-63,85,0,0,0,0,0,0,0,0,0,-1,1161,939,0,0
-56,85,0,0,0,0,0,0,0,0,0,-1,1168,939,0,0
-49,85,0,0,0,0,0,0,0,0,0,-1,1175,939,0,0
-42,85,0,0,0,0,0,0,0,0,0,-1,1182,939,0,0
-35,85,0,0,0,0,0,0,0,0,0,-1,1189,939,0,0
-28,85,0,0,0,0,0,0,0,0,0,-1,1196,939,0,0
-21,85,0,0,0,0,0,0,0,0,0,-1,1203,939,0,0
-14,85,0,0,0,0,0,0,0,0,0,-1,1210,939,0,0
-7,85,0,0,0,0,0,0,0,0,0,-1,1217,939,0,0
0,85,0,0,0,0,0,0,0,0,0,-1,1224,939,0,0
7,85,0,0,0,0,0,0,0,0,0,-1,1231,939,0,0
14,85,0,0,0,0,0,0,0,0,0,-1,1238,939,0,0
21,85,0,0,0,0,0,0,0,0,0,-1,1245,939,0,0
28,85,0,0,0,0,0,0,0,0,0,-1,1252,939,0,0
35,85,0,0,0,0,0,0,0,0,0,-1,1259,939,0,0
42,85,0,0,0,0,0,0,0,0,0,-1,1266,939,0,0
49,85,0,0,0,0,0,0,0,0,0,-1,1273,939,0,0
56,85,0,0,0,0,0,0,0,0,0,-1,1280,939,0,0
63,85,0,0,0,0,0,0,0,0,0,-1,1287,939,0,0
70,85,0,0,0,0,0,0,0,0,0,-1,1294,939,0,0
77,85,0,0,0,0,0,0,0,0,0,-1,1301,939,0,0
84,85,0,0,0,0,0,0,0,0,0,-1,1308,939,0,0
91,85,0,0,0,0,0,0,0,0,0,-1,1315,939,0,0
98,85,0,0,0,0,0,0,0,0,0,-1,1322,939,0,0
105,85,0,0,0,0,0,0,0,0,0,-1,1329,939,0,0
112,85,0,0,0,0,0,0,0,0,0,-1,1336,939,0,0
119,85,0,0,0,0,0,0,0,0,0,-1,1343,939,0,0
126,85,0,0,0,0,0,0,0,0,0,-1,1350,939,0,0
133,85,0,0,0,0,0,0,0,0,0,-1,1357,939,0,0
140,85,0,0,0,0,0,0,0,0,0,-1,1364,939,0,0
147,85,0,0,0,0,0,0,0,0,0,-1,1371,939,0,0
154,85,0,0,0,0,0,0,0,0,0,-1,1378,939,0,0
161,85,0,0,0,0,0,0,0,0,0,-1,1385,939,0,0
168,85,0,0,0,0,0,0,0,0,0,-1,1392,939,0,0
175,85,0,0,0,0,0,0,0,0,0,-1,1399,939,0,0
182,85,0,0,0,0,0,0,0,0,0,-1,1406,939,0,0
189,85,0,0,0,0,0,0,0,0,0,-1,1413,939,0,0
196,85,0,0,0,0,0,0,0,0,0,-1,1420,939,0,0
203,85,0,0,0,0,0,0,0,0,0,-1,1427,939,0,0
210,85,0,0,0,0,0,0,0,0,0,-1,1434,939,0,0
217,85,0,0,0,0,0,0,0,0,0,-1,1441,939,0,0
224,85,0,0,0,0,0,0,0,0,0,-1,1448,939,0,0
231,85,0,0,0,0,0,0,0,0,0,-1,1455,939,0,0
238,85,0,0,0,0,0,0,0,0,0,-1,1462,939,0,0
245,85,0,0,0,0,0,0,0,0,0,-1,1469,939,0,0
252,85,0,0,0,0,0,0,0,0,0,-1,1476,939,0,0
259,85,0,0,0,0,0,0,0,0,0,-1,1483,939,0,0
266,85,0,0,0,0,0,0,0,0,0,-1,1490,939,0,0
273,85,0,0,0,0,0,0,0,0,0,-1,1497,939,0,0
280,85,0,0,0,0,0,0,0,0,0,-1,1504,939,0,0
287,85,0,0,0,0,0,0,0,0,0,-1,1511,939,0,0
294,85,0,0,0,0,0,0,0,0,0,-1,1518,939,0,0
301,85,0,0,0,0,0,0,0,0,0,-1,1525,939,0,0
308,85,0,0,0,0,0,0,0,0,0,-1,1532,939,0,0
315,85,0,0,0,0,0,0,0,0,0,-1,1539,939,0,0
322,85,0,0,0,0,0,0,0,0,0,-1,1546,939,0,0
329,85,0,0,0,0,0,0,0,0,0,-1,1553,939,0,0
336,85,0,0,0,0,0,0,0,0,0,-1,1560,939,0,0
343,85,0,0,0,0,0,0,0,0,0,-1,1567,939,0,0
350,85,0,0,0,0,0,0,0,0,0,-1,1574,939,0,0
357,85,0,0,0,0,0,0,0,0,0,-1,1581,939,0,0
364,85,0,0,0,0,0,0,0,0,0,-1,1588,939,0,0
371,85,0,0,0,0,0,0,0,0,0,-1,1595,939,0,0
378,85,0,0,0,0,0,0,0,0,0,-1,1602,939,0,0
385,85,0,0,0,0,0,0,0,0,0,-1,1609,939,0,0
392,85,0,0,0,0,0,0,0,0,0,-1,1616,939,0,0
399,85,0,0,0,0,0,0,0,0,0,-1,1623,939,0,0
406,85,0,0,0,0,0,0,0,0,0,-1,1630,939,0,0
413,85,0,0,0,0,0,0,0,0,0,-1,1637,939,0,0
420,85,0,0,0,0,0,0,0,0,0,-1,1644,939,0,0
427,85,0,0,0,0,0,0,0,0,0,-1,1651,939,0,0
434,85,0,0,0,0,0,0,0,0,0,-1,1658,939,0,0
441,85,0,0,0,0,0,0,0,0,0,-1,1665,939,0,0
448,85,0,0,0,0,0,0,0,0,0,-1,1672,939,0,0
455,85,0,0,0,0,0,0,0,0,0,-1,1679,939,0,0
462,85,0,0,0,0,0,0,0,0,0,-1,1686,939,0,0
469,85,0,0,0,0,0,0,0,0,0,-1,1693,939,0,0
476,85,0,0,0,0,0,0,0,0,0,-1,1700,939,0,0
483,85,0,0,0,0,0,0,0,0,0,-1,1707,939,0,0
490,85,0,0,0,0,0,0,0,0,0,-1,1714,939,0,0
497,85,0,0,0,0,0,0,0,0,0,-1,1721,939,0,0
504,85,0,0,0,0,0,0,0,0,0,-1,1728,939,0,0
511,85,0,0,0,0,0,0,0,0,0,-1,1735,939,0,0
518,85,0,0,0,0,0,0,0,0,0,-1,1742,939,0,0
525,85,0,0,0,0,0,0,0,0,0,-1,1749,939,0,0
532,85,0,0,0,0,0,0,0,0,0,-1,1756,939,0,0
539,85,0,0,0,0,0,0,0,0,0,-1,1763,939,0,0
546,85,0,0,0,0,0,0,0,0,0,-1,1770,939,0,0
553,85,0,0,0,0,0,0,0,0,0,-1,1777,939,0,0
560,85,0,0,0,0,0,0,0,0,0,-1,1784,939,0,0
567,85,0,0,0,0,0,0,0,0,0,-1,1791,939,0,0
574,85,0,0,0,0,0,0,0,0,0,-1,1798,939,0,0
581,85,0,0,0,0,0,0,0,0,0,-1,1805,939,0,0
588,85,0,0,0,0,0,0,0,0,0,-1,1812,939,0,0
595,85,0,0,0,0,0,0,0,0,0,-1,1819,939,0,0
602,85,0,0,0,0,0,0,0,0,0,-1,1826,939,0,0
609,85,0,0,0,0,0,0,0,0,0,-1,1833,939,0,0
616,85,0,0,0,0,0,0,0,0,0,-1,1840,939,0,0
623,85,0,0,0,0,0,0,0,0,0,-1,1847,939,0,0
630,85,0,0,0,0,0,0,0,0,0,-1,1854,939,0,0
637,85,21.2585,3.27209,-0.00633135,0.00377293,-0.00337933,0.00479895,-0.00735737,-1.27603,0.00707008,0.0456674,1861,939,21.2586,-3.27207
644,85,21.349,3.05188,-0.00375875,0.00295064,-0.0025615,0.00381676,-0.00462487,-1.24474,0.00488121,0.03937,1868,939,21.3491,-3.05186
651,85,21.3883,2.73492,-0.002572,0.00253338,-0.00205111,0.00325533,-0.00329396,-1.23236,0.00378126,0.0422125,1875,939,21.3883,-2.73492
658,85,21.1923,2.95099,-0.00275406,0.00221272,-0.00162989,0.00269981,-0.00324115,-1.28039,0.00343476,0.0420863,1882,939,21.1923,-2.95098
665,85,21.1154,3.159,-0.00370606,0.00201252,-0.00120074,0.00225441,-0.00394795,-1.37201,0.00362516,0.0401918,1889,939,21.1154,-3.15897
672,85,21.2831,3.10754,-0.00488579,0.00184415,-0.000787692,0.00193511,-0.00497675,-1.45582,0.00411735,0.0391895,1896,939,21.2831,-3.10757
679,85,21.364,3.10583,-0.00599932,0.00165826,-0.000414835,0.00168067,-0.00602173,-1.51683,0.00467649,0.0374684,1903,939,21.364,-3.10581
686,85,21.2109,3.11456,-0.00681295,0.00151715,-0.000148417,0.00151979,-0.00681559,-1.55299,0.00512598,0.0329677,1910,939,21.2109,-3.11454
693,85,21.257,3.01715,-0.0072145,0.00123956,0.000110554,0.001241,-0.00721594,1.55772,0.0052732,0.028831,1917,939,21.257,-3.01714
700,85,21.4624,2.94141,0,0,0,0,0,0,0,-1,1924,939,21.4624,-2.94141
707,85,20.5626,3.34717,0,0,0,0,0,0,0,-1,1931,939,20.5626,-3.34716
714,85,19.8428,3.61115,0,0,0,0,0,0,0,-1,1938,939,19.8428,-3.61116
721,85,19.8533,3.78412,-0.00643574,0.00111018,0.000394132,0.00113071,-0.00645627,1.51875,0.00472638,0.0218658,1945,939,19.8532,-3.78413
728,85,19.8361,3.96533,-0.00496199,0.00113447,0.000356438,0.00115524,-0.00498276,1.51259,0.00376644,0.0169486,1952,939,19.8361,-3.96532
735,85,19.817,4.06763,-0.00242994,0.00180124,0.000340656,0.00182849,-0.00245719,1.49097,0.0024832,0.015889,1959,939,19.817,-4.06761
742,85,19.8385,4.16602,0.000360528,0.00278238,0.000339849,0.00282917,0.000313742,1.43399,0.00179072,0.0138738,1966,939,19.8385,-4.16603
749,85,19.8239,4.30249,0.00338404,0.00439299,0.000754936,0.00479649,0.00298054,1.07994,0.00279633,0.0135235,1973,939,19.8238,-4.30247
756,85,19.7859,4.42004,0.00719233,0.00661425,0.00131344,0.00824816,0.00555842,0.677093,0.00485713,0.0130468,1980,939,19.7859,-4.42003
763,85,19.777,4.55646,0.0110759,0.00939944,0.00233983,0.0127231,0.00775222,0.6134,0.00740396,0.0129304,1987,939,19.7769,-4.55647
770,85,19.7787,4.64856,0.0149841,0.0130096,0.00403223,0.0181482,0.0098455,0.665338,0.0104905,0.0184175,1994,939,19.7787,-4.64854
777,85,19.7778,4.64679,0.018851,0.0173632,0.00645418,0.024604,0.0116102,0.72802,0.0142126,0.0402813,2001,939,19.7779,-4.6468
784,85,20.0253,4.58301,0.0225482,0.0226221,0.00994378,0.032529,0.0126413,0.787258,0.0189353,0.0477212,2008,939,20.0252,-4.58302
791,85,20.4873,4.83795,0.0257183,0.028839,0.0147725,0.0421334,0.0124239,0.838015,0.0249988,0.0461024,2015,939,20.4874,-4.83795
798,85,20.9596,4.99152,0,0,0,0,0,0,0,-1,2022,939,20.9596,-4.99151
805,85,17.9849,5.50494,0,0,0,0,0,0,0,-1,2029,939,17.9849,-5.50496
812,85,0,0,0,0,0,0,0,0,0,-1,2036,939,0,0
-700,78,0,0,0,0,0,0,0,0,0,-1,524,946,0,0
-693,78,0,0,0,0,0,0,0,0,0,-1,531,946,0,0
-686,78,-13.716,2.6427,0,0,0,0,0,0,0,-1,538,946,-13.716,-2.64269
-679,78,-13.316,2.05389,-0.00819574,0.033288,-0.0196851,0.0411421,-0.0160498,-1.19116,0.0340626,0.0418516,545,946,-13.316,-2.0539
-672,78,-12.9821,1.68951,-0.00869917,0.025187,-0.0144217,0.0304937,-0.0140059,-1.2182,0.0262731,0.0423301,552,946,-12.9821,-1.6895
-665,78,-13.3088,2.16974,0,0,0,0,0,0,0,-1,559,946,-13.3088,-2.16972
-658,78,-12.7584,2.39435,0,0,0,0,0,0,0,-1,566,946,-12.7584,-2.39436
-651,78,-12.8528,2.32129,-0.00834426,0.00939752,-0.00385633,0.0101995,-0.00914622,-1.36576,0.0111748,0.0460513,573,946,-12.8528,-2.32128
-644,78,-12.9429,2.26202,-0.00762713,0.00640277,-0.00182592,0.00663651,-0.00786087,-1.44348,0.00838001,0.0268322,580,946,-12.9429,-2.26199
-637,78,-13.038,2.18127,-0.00656661,0.0044999,-0.00020665,0.00450376,-0.00657047,-1.55213,0.00643071,0.0134328,587,946,-13.038,-2.18128
-630,78,-13.1094,2.07977,-0.006043,0.00289279,0.000812769,0.00296611,-0.00611632,1.48082,0.00534785,0.0119242,594,946,-13.1093,-2.0798
-623,78,-13.1296,1.98602,-0.00592517,0.0014133,0.0011615,0.00159275,-0.00610462,1.41751,0.00469166,0.0111448,601,946,-13.1296,-1.98602
-616,78,-13.1161,1.89514,-0.00619458,0.000542508,0.000983567,0.000683165,-0.00633523,1.42875,0.00446865,0.00968029,608,946,-13.1161,-1.89517
-609,78,-13.0905,1.80066,-0.00655891,0.00042767,0.000791744,0.00051627,-0.00664751,1.45936,0.0046134,0.0104056,615,946,-13.0905,-1.80069
-602,78,-13.0972,1.69104,-0.00740272,1.70533e-05,0.000412288,3.98925e-05,-0.00742556,1.51546,0.00496372,0.0144154,622,946,-13.0972,-1.69104
-595,78,-13.0797,1.57581,-0.00801453,-0.000138239,8.57843e-05,-0.000137305,-0.00801547,1.55991,0.00529847,0.0148807,629,946,-13.0797,-1.57578
-588,78,-13.0744,1.50555,-0.00786486,-0.000520412,-8.24617e-05,-0.000519486,-0.00786578,-1.55957,0.00507955,0.0126636,636,946,-13.0744,-1.50557
-581,78,-13.1321,1.41724,-0.00756381,-0.000798236,-9.24694e-05,-0.000796972,-0.00756507,-1.55713,0.00479983,0.0189741,643,946,-13.1321,-1.41726
-574,78,-13.4496,1.28387,-0.00733037,-0.00106001,5.39158e-05,-0.00105955,-0.00733083,1.5622,0.00457512,0.024287,650,946,-13.4496,-1.28387
-567,78,-13.8047,1.14069,-0.00701989,-0.00125368,0.000247337,-0.00124309,-0.00703048,1.52801,0.00433248,0.0284864,657,946,-13.8047,-1.14067
-560,78,-13.8295,1.24756,-0.0059518,-0.0014781,0.00048955,-0.00142515,-0.00600474,1.46307,0.00362279,0.030022,664,946,-13.8295,-1.24758
-553,78,-13.962,1.27014,-0.00419699,-0.00159293,0.000778359,-0.00137801,-0.0044119,1.30139,0.00260633,0.0384908,671,946,-13.962,-1.27011
-546,78,-14.0172,1.05334,-0.00182576,-0.00153102,0.00107092,-0.000597381,-0.0027594,0.853775,0.00167634,0.0413662,678,946,-14.0172,-1.05333
-539,78,-13.8056,1.25293,0.0010275,-0.00121084,0.0013377,0.00165246,-0.0018358,0.437056,0.00201488,0.0373033,685,946,-13.8056,-1.25294
-532,78,-13.626,1.30823,0.00410132,-0.000509577,0.00148102,0.00453603,-0.000944293,0.285507,0.003383,0.0361104,692,946,-13.626,-1.30822
-525,78,-13.5165,1.13458,0.00647132,0.000864968,0.00129765,0.00675711,0.000579182,0.216773,0.00432462,0.0352975,699,946,-13.5165,-1.13458
-518,78,-13.6376,1.03387,0.00593876,0.00330428,0.000837228,0.00618231,0.00306073,0.28309,0.00356942,0.039152,706,946,-13.6376,-1.03386
-511,78,0,0,0,0,0,0,0,0,0,-1,713,946,0,0
-504,78,0,0,0,0,0,0,0,0,0,-1,720,946,0,0
-497,78,0,0,0,0,0,0,0,0,0,-1,727,946,0,0
-490,78,0,0,0,0,0,0,0,0,0,-1,734,946,0,0
-483,78,0,0,0,0,0,0,0,0,0,-1,741,946,0,0
-476,78,0,0,0,0,0,0,0,0,0,-1,748,946,0,0
-469,78,0,0,0,0,0,0,0,0,0,-1,755,946,0,0
-462,78,0,0,0,0,0,0,0,0,0,-1,762,946,0,0
-455,78,0,0,0,0,0,0,0,0,0,-1,769,946,0,0
-448,78,0,0,0,0,0,0,0,0,0,-1,776,946,0,0
-441,78,0,0,0,0,0,0,0,0,0,-1,783,946,0,0
-434,78,0,0,0,0,0,0,0,0,0,-1,790,946,0,0
-427,78,0,0,0,0,0,0,0,0,0,-1,797,946,0,0
-420,78,0,0,0,0,0,0,0,0,0,-1,804,946,0,0
-413,78,0,0,0,0,0,0,0,0,0,-1,811,946,0,0
-406,78,0,0,0,0,0,0,0,0,0,-1,818,946,0,0
-399,78,0,0,0,0,0,0,0,0,0,-1,825,946,0,0
-392,78,0,0,0,0,0,0,0,0,0,-1,832,946,0,0
-385,78,0,0,0,0,0,0,0,0,0,-1,839,946,0,0
-378,78,0,0,0,0,0,0,0,0,0,-1,846,946,0,0
-371,78,0,0,0,0,0,0,0,0,0,-1,853,946,0,0
-364,78,0,0,0,0,0,0,0,0,0,-1,860,946,0,0
-357,78,0,0,0,0,0,0,0,0,0,-1,867,946,0,0
-350,78,0,0,0,0,0,0,0,0,0,-1,874,946,0,0
-343,78,0,0,0,0,0,0,0,0,0,-1,881,946,0,0
-336,78,0,0,0,0,0,0,0,0,0,-1,888,946,0,0
-329,78,0,0,0,0,0,0,0,0,0,-1,895,946,0,0
-322,78,0,0,0,0,0,0,0,0,0,-1,902,946,0,0
-315,78,0,0,0,0,0,0,0,0,0,-1,909,946,0,0
-308,78,0,0,0,0,0,0,0,0,0,-1,916,946,0,0
-301,78,0,0,0,0,0,0,0,0,0,-1,923,946,0,0
-294,78,0,0,0,0,0,0,0,0,0,-1,930,946,0,0
-287,78,0,0,0,0,0,0,0,0,0,-1,937,946,0,0
-280,78,0,0,0,0,0,0,0,0,0,-1,944,946,0,0
-273,78,0,0,0,0,0,0,0,0,0,-1,951,946,0,0
-266,78,0,0,0,0,0,0,0,0,0,-1,958,946,0,0
-259,78,0,0,0,0,0,0,0,0,0,-1,965,946,0,0
-252,78,0,0,0,0,0,0,0,0,0,-1,972,946,0,0
-245,78,0,0,0,0,0,0,0,0,0,-1,979,946,0,0
-238,78,0,0,0,0,0,0,0,0,0,-1,986,946,0,0
-231,78,0,0,0,0,0,0,0,0,0,-1,993,946,0,0
-224,78,0,0,0,0,0,0,0,0,0,-1,1000,946,0,0
-217,78,0,0,0,0,0,0,0,0,0,-1,1007,946,0,0
-210,78,0,0,0,0,0,0,0,0,0,-1,1014,946,0,0
-203,78,0,0,0,0,0,0,0,0,0,-1,1021,946,0,0
-196,78,0,0,0,0,0,0,0,0,0,-1,1028,946,0,0
-189,78,0,0,0,0,0,0,0,0,0,-1,1035,946,0,0
-182,78,0,0,0,0,0,0,0,0,0,-1,1042,946,0,0
-175,78,0,0,0,0,0,0,0,0,0,-1,1049,946,0,0
-168,78,0,0,0,0,0,0,0,0,0,-1,1056,946,0,0
-161,78,0,0,0,0,0,0,0,0,0,-1,1063,946,0,0
-154,78,0,0,0,0,0,0,0,0,0,-1,1070,946,0,0
-147,78,0,0,0,0,0,0,0,0,0,-1,1077,946,0,0
-140,78,0,0,0,0,0,0,0,0,0,-1,1084,946,0,0
-133,78,0,0,0,0,0,0,0,0,0,-1,1091,946,0,0
-126,78,0,0,0,0,0,0,0,0,0,-1,1098,946,0,0
-119,78,0,0,0,0,0,0,0,0,0,-1,1105,946,0,0
-112,78,0,0,0,0,0,0,0,0,0,-1,1112,946,0,0
-105,78,0,0,0,0,0,0,0,0,0,-1,1119,946,0,0
-98,78,0,0,0,0,0,0,0,0,0,-1,1126,946,0,0
-91,78,0,0,0,0,0,0,0,0,0,-1,1133,946,0,0
-84,78,0,0,0,0,0,0,0,0,0,-1,1140,946,0,0
-77,78,0,0,0,0,0,0,0,0,0,-1,1147,946,0,0
-70,78,0,0,0,0,0,0,0,0,0,-1,1154,946,0,0
-63,78,0,0,0,0,0,0,0,0,0,-1,1161,946,0,0
-56,78,0,0,0,0,0,0,0,0,0,-1,1168,946,0,0
-49,78,0,0,0,0,0,0,0,0,0,-1,1175,946,0,0
-42,78,0,0,0,0,0,0,0,0,0,-1,1182,946,0,0
-35,78,0,0,0,0,0,0,0,0,0,-1,1189,946,0,0
-28,78,0,0,0,0,0,0,0,0,0,-1,1196,946,0,0
-21,78,0,0,0,0,0,0,0,0,0,-1,1203,946,0,0
-14,78,0,0,0,0,0,0,0,0,0,-1,1210,946,0,0
-7,78,0,0,0,0,0,0,0,0,0,-1,1217,946,0,0
0,78,0,0,0,0,0,0,0,0,0,-1,1224,946,0,0
7,78,0,0,0,0,0,0,0,0,0,-1,1231,946,0,0
14,78,0,0,0,0,0,0,0,0,0,-1,1238,946,0,0
21,78,0,0,0,0,0,0,0,0,0,-1,1245,946,0,0
28,78,0,0,0,0,0,0,0,0,0,-1,1252,946,0,0
35,78,0,0,0,0,0,0,0,0,0,-1,1259,946,0,0
42,78,0,0,0,0,0,0,0,0,0,-1,1266,946,0,0
49,78,0,0,0,0,0,0,0,0,0,-1,1273,946,0,0
56,78,0,0,0,0,0,0,0,0,0,-1,1280,946,0,0
63,78,0,0,0,0,0,0,0,0,0,-1,1287,946,0,0
70,78,0,0,0,0,0,0,0,0,0,-1,1294,946,0,0
77,78,0,0,0,0,0,0,0,0,0,-1,1301,946,0,0
84,78,0,0,0,0,0,0,0,0,0,-1,1308,946,0,0
91,78,0,0,0,0,0,0,0,0,0,-1,1315,946,0,0
98,78,0,0,0,0,0,0,0,0,0,-1,1322,946,0,0
105,78,0,0,0,0,0,0,0,0,0,-1,1329,946,0,0
112,78,0,0,0,0,0,0,0,0,0,-1,1336,946,0,0
119,78,0,0,0,0,0,0,0,0,0,-1,1343,946,0,0
126,78,0,0,0,0,0,0,0,0,0,-1,1350,946,0,0
133,78,0,0,0,0,0,0,0,0,0,-1,1357,946,0,0
140,78,0,0,0,0,0,0,0,0,0,-1,1364,946,0,0
147,78,0,0,0,0,0,0,0,0,0,-1,1371,946,0,0
154,78,0,0,0,0,0,0,0,0,0,-1,1378,946,0,0
161,78,0,0,0,0,0,0,0,0,0,-1,1385,946,0,0
168,78,0,0,0,0,0,0,0,0,0,-1,1392,946,0,0
175,78,0,0,0,0,0,0,0,0,0,-1,1399,946,0,0
182,78,0,0,0,0,0,0,0,0,0,-1,1406,946,0,0
189,78,0,0,0,0,0,0,0,0,0,-1,1413,946,0,0
196,78,0,0,0,0,0,0,0,0,0,-1,1420,946,0,0
203,78,0,0,0,0,0,0,0,0,0,-1,1427,946,0,0
210,78,0,0,0,0,0,0,0,0,0,-1,1434,946,0,0
217,78,0,0,0,0,0,0,0,0,0,-1,1441,946,0,0
224,78,0,0,0,0,0,0,0,0,0,-1,1448,946,0,0
231,78,0,0,0,0,0,0,0,0,0,-1,1455,946,0,0
238,78,0,0,0,0,0,0,0,0,0,-1,1462,946,0,0
245,78,0,0,0,0,0,0,0,0,0,-1,1469,946,0,0
252,78,0,0,0,0,0,0,0,0,0,-1,1476,946,0,0
259,78,0,0,0,0,0,0,0,0,0,-1,1483,946,0,0
266,78,0,0,0,0,0,0,0,0,0,-1,1490,946,0,0
273,78,0,0,0,0,0,0,0,0,0,-1,1497,946,0,0
280,78,0,0,0,0,0,0,0,0,0,-1,1504,946,0,0
287,78,0,0,0,0,0,0,0,0,0,-1,1511,946,0,0
294,78,0,0,0,0,0,0,0,0,0,-1,1518,946,0,0
301,78,0,0,0,0,0,0,0,0,0,-1,1525,946,0,0
308,78,0,0,0,0,0,0,0,0,0,-1,1532,946,0,0
315,78,0,0,0,0,0,0,0,0,0,-1,1539,946,0,0
322,78,0,0,0,0,0,0,0,0,0,-1,1546,946,0,0
329,78,0,0,0,0,0,0,0,0,0,-1,1553,946,0,0
336,78,0,0,0,0,0,0,0,0,0,-1,1560,946,0,0
343,78,0,0,0,0,0,0,0,0,0,-1,1567,946,0,0
350,78,0,0,0,0,0,0,0,0,0,-1,1574,946,0,0
357,78,0,0,0,0,0,0,0,0,0,-1,1581,946,0,0
364,78,0,0,0,0,0,0,0,0,0,-1,1588,946,0,0
371,78,0,0,0,0,0,0,0,0,0,-1,1595,946,0,0
378,78,0,0,0,0,0,0,0,0,0,-1,1602,946,0,0
385,78,0,0,0,0,0,0,0,0,0,-1,1609,946,0,0
392,78,0,0,0,0,0,0,0,0,0,-1,1616,946,0,0
399,78,0,0,0,0,0,0,0,0,0,-1,1623,946,0,0
406,78,0,0,0,0,0,0,0,0,0,-1,1630,946,0,0
413,78,0,0,0,0,0,0,0,0,0,-1,1637,946,0,0
420,78,0,0,0,0,0,0,0,0,0,-1,1644,946,0,0
427,78,0,0,0,0,0,0,0,0,0,-1,1651,946,0,0
434,78,0,0,0,0,0,0,0,0,0,-1,1658,946,0,0
441,78,0,0,0,0,0,0,0,0,0,-1,1665,946,0,0
448,78,0,0,0,0,0,0,0,0,0,-1,1672,946,0,0
455,78,0,0,0,0,0,0,0,0,0,-1,1679,946,0,0
462,78,0,0,0,0,0,0,0,0,0,-1,1686,946,0,0
469,78,0,0,0,0,0,0,0,0,0,-1,1693,946,0,0
476,78,0,0,0,0,0,0,0,0,0,-1,1700,946,0,0
483,78,0,0,0,0,0,0,0,0,0,-1,1707,946,0,0
490,78,0,0,0,0,0,0,0,0,0,-1,1714,946,0,0
497,78,0,0,0,0,0,0,0,0,0,-1,1721,946,0,0
504,78,0,0,0,0,0,0,0,0,0,-1,1728,946,0,0
511,78,0,0,0,0,0,0,0,0,0,-1,1735,946,0,0
518,78,0,0,0,0,0,0,0,0,0,-1,1742,946,0,0
525,78,0,0,0,0,0,0,0,0,0,-1,1749,946,0,0
532,78,0,0,0,0,0,0,0,0,0,-1,1756,946,0,0
539,78,0,0,0,0,0,0,0,0,0,-1,1763,946,0,0
546,78,0,0,0,0,0,0,0,0,0,-1,1770,946,0,0
553,78,0,0,0,0,0,0,0,0,0,-1,1777,946,0,0
560,78,0,0,0,0,0,0,0,0,0,-1,1784,946,0,0
567,78,0,0,0,0,0,0,0,0,0,-1,1791,946,0,0
574,78,0,0,0,0,0,0,0,0,0,-1,1798,946,0,0
581,78,0,0,0,0,0,0,0,0,0,-1,1805,946,0,0
588,78,0,0,0,0,0,0,0,0,0,-1,1812,946,0,0
595,78,0,0,0,0,0,0,0,0,0,-1,1819,946,0,0
602,78,0,0,0,0,0,0,0,0,0,-1,1826,946,0,0
609,78,0,0,0,0,0,0,0,0,0,-1,1833,946,0,0
616,78,0,0,0,0,0,0,0,0,0,-1,1840,946,0,0
623,78,0,0,0,0,0,0,0,0,0,-1,1847,946,0,0
630,78,0,0,0,0,0,0,0,0,0,-1,1854,946,0,0
637,78,21.3406,3.03241,-0.00521438,0.00418496,-0.00301458,0.00506871,-0.00609812,-1.28563,0.0064563,0.0454038,1861,946,21.3405,-3.0324
644,78,21.4403,2.93738,-0.00327534,0.00312908,-0.00238376,0.00391892,-0.00406518,-1.25084,0.00460988,0.0424424,1868,946,21.4403,-2.93737
651,78,21.3357,2.78137,-0.00213577,0.00257333,-0.00193081,0.00326376,-0.0028262,-1.22738,0.00351906,0.0420885,1875,946,21.3357,-2.78138
658,78,21.2285,2.93738,-0.00205716,0.00217934,-0.0014672,0.00263784,-0.00251566,-1.26791,0.00297566,0.0405765,1882,946,21.2285,-2.93737
665,78,21.3071,3.08673,-0.00271697,0.00196881,-0.000902505,0.00213662,-0.00288478,-1.38695,0.00290982,0.0399158,1889,946,21.3072,-3.08676
672,78,21.3489,3.11566,-0.0037248,0.00183749,-0.000324469,0.00185636,-0.00374367,-1.51273,0.00329381,0.0399612,1896,946,21.3489,-3.11567
679,78,21.3231,3.15387,-0.0047734,0.00169251,0.000213495,0.00169955,-0.00478045,1.53783,0.00387962,0.0390243,1903,946,21.3232,-3.15385
686,78,21.2177,3.14252,-0.00556977,0.00158873,0.000597024,0.00163819,-0.00561922,1.48816,0.00439518,0.0369546,1910,946,21.2177,-3.14252
693,78,21.2843,2.95679,-0.00601164,0.00132504,0.000923402,0.00143948,-0.00612608,1.4475,0.00463893,0.0315648,1917,946,21.2843,-2.9568
700,78,21.2314,3.02454,-0.00627111,0.00119357,0.00113381,0.00136198,-0.00643952,1.42334,0.0048117,0.0256359,1924,946,21.2315,-3.02452
707,78,20.7186,3.3269,0,0,0,0,0,0,0,-1,1931,946,20.7186,-3.3269
714,78,19.8821,3.70557,0,0,0,0,0,0,0,-1,1938,946,19.8821,-3.70558
721,78,19.9523,3.80975,-0.00603431,0.00125328,0.00118062,0.00143977,-0.0062208,1.41413,0.0047012,0.021045,1945,946,19.9523,-3.80973
728,78,19.9969,3.96454,-0.00493209,0.00127504,0.00108625,0.00145964,-0.00511669,1.40246,0.00398774,0.0198999,1952,946,19.9969,-3.96452
735,78,19.9656,4.06708,-0.00289212,0.00185241,0.000913565,0.00202224,-0.00306195,1.387,0.00295575,0.0135428,1959,946,19.9656,-4.0671
742,78,19.9594,4.16833,-0.000778086,0.00280166,0.000643618,0.00291386,-0.000890288,1.3982,0.00229757,0.0126033,1966,946,19.9593,-4.16835
749,78,19.9606,4.29095,0.00132583,0.00444888,0.000586336,0.00455533,0.00121938,1.3912,0.00272301,0.0129606,1973,946,19.9606,-4.29093
756,78,19.9625,4.39471,0.00407213,0.00661649,0.000709345,0.00680088,0.00388773,1.31647,0.00393991,0.0140315,1980,946,19.9625,-4.39471
763,78,19.9403,4.52911,0.00678641,0.00932626,0.0012491,0.00983762,0.00627505,1.18223,0.00575127,0.0125522,1987,946,19.9403,-4.52912
770,78,19.9076,4.64783,0.00937441,0.0129352,0.00234568,0.0140996,0.00820997,1.11002,0.00817708,0.0161198,1994,946,19.9076,-4.64785
777,78,19.8479,4.64246,0.0116413,0.0172651,0.0040822,0.0194101,0.00949626,1.08699,0.0112073,0.037833,2001,946,19.848,-4.64246
784,78,19.8561,4.45087,0.0133659,0.0224697,0.0067595,0.0260671,0.00976854,1.08173,0.0152064,0.0475015,2008,946,19.8561,-4.45085
791,78,19.9127,4.29364,0.0142941,0.0285234,0.0106492,0.0342159,0.00860163,1.07989,0.0205524,0.0461946,2015,946,19.9127,-4.29362
798,78,19.9543,4.18781,0.0138513,0.0353673,0.0162861,0.0441278,0.00509083,1.07728,0.0278769,0.0457413,2022,946,19.9544,-4.18783
805,78,19.9731,4.07269,0,0,0,0,0,0,0,-1,2029,946,19.9732,-4.07269
812,78,0,0,0,0,0,0,0,0,0,-1,2036,946,0,0
-700,71,0,0,0,0,0,0,0,0,0,-1,524,953,0,0
-693,71,0,0,0,0,0,0,0,0,0,-1,531,953,0,0
-686,71,-13.1689,3.04883,-0.0128601,0.0190153,-0.0307512,0.0377135,-0.0315583,-1.02448,0.0400467,0.0412559,538,953,-13.1689,-3.04883
-679,71,-13.1663,2.70123,-0.014103,0.0138034,-0.0227954,0.0265771,-0.0268766,-1.06003,0.0308617,0.044192,545,953,-13.1663,-2.70122
-672,71,-13.0403,2.44495,-0.0146154,0.00981242,-0.0163368,0.0179963,-0.0227993,-1.10639,0.0236077,0.0434565,552,953,-13.0403,-2.44495
-665,71,-13.1915,2.24829,-0.0144027,0.00682003,-0.0111456,0.0115978,-0.0191805,-1.16582,0.0179487,0.047252,559,953,-13.1915,-2.24829
-658,71,-13.3264,2.09741,0,0,0,0,0,0,0,-1,566,953,-13.3264,-2.09744
-651,71,-13.4394,2.20319,0,0,0,0,0,0,0,-1,573,953,-13.4394,-2.20316
-644,71,-13.1583,2.2959,-0.0107989,0.00209056,-0.00170262,0.00231167,-0.01102,-1.44165,0.00822623,0.0319623,580,953,-13.1583,-2.29587
-637,71,-13.1609,2.18066,-0.00894189,0.00170984,3.07683e-05,0.00170993,-0.00894198,1.56791,0.00660549,0.0139109,587,953,-13.1609,-2.18066
-630,71,-13.2123,2.06024,-0.00778323,0.00113951,0.00111165,0.00127592,-0.00791964,1.4487,0.00575243,0.0119938,594,953,-13.2123,-2.06023
-623,71,-13.2381,1.95935,-0.00721851,0.000661804,0.00143438,0.000914771,-0.00747148,1.39623,0.00531223,0.0113876,601,953,-13.2381,-1.95937
-616,71,-13.2267,1.85461,-0.00705504,0.000419524,0.00107653,0.000571482,-0.007207,1.43057,0.00500605,0.0115113,608,953,-13.2267,-1.85462
-609,71,-13.1934,1.78998,-0.00692812,0.000479764,0.000651492,0.000536623,-0.00698498,1.48374,0.00484544,0.0129659,615,953,-13.1934,-1.79
-602,71,-13.1837,1.69897,-0.00727075,0.000363332,-2.04158e-05,0.000363386,-0.00727081,-1.56812,0.00497276,0.0148047,622,953,-13.1836,-1.69896
-595,71,-13.1891,1.60065,-0.00758279,0.000179967,-0.000567079,0.000221175,-0.007624,-1.49826,0.00515797,0.0157948,629,953,-13.1891,-1.60066
-588,71,-13.184,1.53094,-0.00745069,-0.000277571,-0.00077061,-0.000195718,-0.00753255,-1.46497,0.00495775,0.0162605,636,953,-13.184,-1.53094
-581,71,-13.3209,1.32477,-0.00709864,-0.000575144,-0.000816872,-0.00047441,-0.00719938,-1.4481,0.00464952,0.0236487,643,953,-13.3209,-1.3248
-574,71,-13.6901,1.17932,-0.00677436,-0.00084397,-0.000670906,-0.000769017,-0.00684931,-1.45954,0.00433268,0.0278517,650,953,-13.6901,-1.17933
-567,71,-13.8348,1.06158,-0.00636151,-0.00105345,-0.000476628,-0.00101099,-0.00640396,-1.48195,0.0039754,0.0185581,657,953,-13.8348,-1.06157
-560,71,-13.8525,1.13757,-0.00520719,-0.00131548,-0.000199011,-0.00130533,-0.00521734,-1.51984,0.00313505,0.0268536,664,953,-13.8525,-1.1376
-553,71,-14.0041,1.17474,-0.00335302,-0.0014642,0.000143602,-0.00145334,-0.00336388,1.49535,0.00194811,0.0389099,671,953,-14.0041,-1.17476
-546,71,-14.0776,1.10388,-0.000890178,-0.00143086,0.000519627,-0.000574776,-0.00174627,0.545535,0.00102764,0.040714,678,953,-14.0776,-1.1039
-539,71,-13.9114,1.23151,0.0020479,-0.00112071,0.000896497,0.00228396,-0.00135677,0.257469,0.00212458,0.0390759,685,953,-13.9114,-1.23154
-532,71,-13.7559,1.30212,0.00516777,-0.00037369,0.00114664,0.00539566,-0.000601579,0.19619,0.00381348,0.0396318,692,953,-13.7559,-1.30212
-525,71,-13.5884,1.18243,0.00740666,0.00118575,0.00102904,0.00757246,0.00101995,0.159749,0.00474501,0.0394865,699,953,-13.5884,-1.18243
-518,71,0,0,0,0,0,0,0,0,0,-1,706,953,0,0
-511,71,0,0,0,0,0,0,0,0,0,-1,713,953,0,0
-504,71,0,0,0,0,0,0,0,0,0,-1,720,953,0,0
-497,71,0,0,0,0,0,0,0,0,0,-1,727,953,0,0
-490,71,0,0,0,0,0,0,0,0,0,-1,734,953,0,0
-483,71,0,0,0,0,0,0,0,0,0,-1,741,953,0,0
-476,71,0,0,0,0,0,0,0,0,0,-1,748,953,0,0
-469,71,0,0,0,0,0,0,0,0,0,-1,755,953,0,0
-462,71,0,0,0,0,0,0,0,0,0,-1,762,953,0,0
-455,71,0,0,0,0,0,0,0,0,0,-1,769,953,0,0
-448,71,0,0,0,0,0,0,0,0,0,-1,776,953,0,0
-441,71,0,0,0,0,0,0,0,0,0,-1,783,953,0,0
-434,71,0,0,0,0,0,0,0,0,0,-1,790,953,0,0
-427,71,0,0,0,0,0,0,0,0,0,-1,797,953,0,0
-420,71,0,0,0,0,0,0,0,0,0,-1,804,953,0,0
-413,71,0,0,0,0,0,0,0,0,0,-1,811,953,0,0
-406,71,0,0,0,0,0,0,0,0,0,-1,818,953,0,0
-399,71,0,0,0,0,0,0,0,0,0,-1,825,953,0,0
-392,71,0,0,0,0,0,0,0,0,0,-1,832,953,0,0
-385,71,0,0,0,0,0,0,0,0,0,-1,839,953,0,0
-378,71,0,0,0,0,0,0,0,0,0,-1,846,953,0,0
-371,71,0,0,0,0,0,0,0,0,0,-1,853,953,0,0
-364,71,0,0,0,0,0,0,0,0,0,-1,860,953,0,0
-357,71,0,0,0,0,0,0,0,0,0,-1,867,953,0,0
-350,71,0,0,0,0,0,0,0,0,0,-1,874,953,0,0
-343,71,0,0,0,0,0,0,0,0,0,-1,881,953,0,0
-336,71,0,0,0,0,0,0,0,0,0,-1,888,953,0,0
-329,71,0,0,0,0,0,0,0,0,0,-1,895,953,0,0
-322,71,0,0,0,0,0,0,0,0,0,-1,902,953,0,0
-315,71,0,0,0,0,0,0,0,0,0,-1,909,953,0,0
-308,71,0,0,0,0,0,0,0,0,0,-1,916,953,0,0
-301,71,0,0,0,0,0,0,0,0,0,-1,923,953,0,0
-294,71,0,0,0,0,0,0,0,0,0,-1,930,953,0,0
-287,71,0,0,0,0,0,0,0,0,0,-1,937,953,0,0
-280,71,0,0,0,0,0,0,0,0,0,-1,944,953,0,0
-273,71,0,0,0,0,0,0,0,0,0,-1,951,953,0,0
-266,71,0,0,0,0,0,0,0,0,0,-1,958,953,0,0
-259,71,0,0,0,0,0,0,0,0,0,-1,965,953,0,0
-252,71,0,0,0,0,0,0,0,0,0,-1,972,953,0,0
-245,71,0,0,0,0,0,0,0,0,0,-1,979,953,0,0
-238,71,0,0,0,0,0,0,0,0,0,-1,986,953,0,0
-231,71,0,0,0,0,0,0,0,0,0,-1,993,953,0,0
-224,71,0,0,0,0,0,0,0,0,0,-1,1000,953,0,0
-217,71,0,0,0,0,0,0,0,0,0,-1,1007,953,0,0
-210,71,0,0,0,0,0,0,0,0,0,-1,1014,953,0,0
-203,71,0,0,0,0,0,0,0,0,0,-1,1021,953,0,0
-196,71,0,0,0,0,0,0,0,0,0,-1,1028,953,0,0
-189,71,0,0,0,0,0,0,0,0,0,-1,1035,953,0,0
-182,71,0,0,0,0,0,0,0,0,0,-1,1042,953,0,0
-175,71,0,0,0,0,0,0,0,0,0,-1,1049,953,0,0
-168,71,0,0,0,0,0,0,0,0,0,-1,1056,953,0,0
-161,71,0,0,0,0,0,0,0,0,0,-1,1063,953,0,0
-154,71,0,0,0,0,0,0,0,0,0,-1,1070,953,0,0
-147,71,0,0,0,0,0,0,0,0,0,-1,1077,953,0,0
-140,71,0,0,0,0,0,0,0,0,0,-1,1084,953,0,0
-133,71,0,0,0,0,0,0,0,0,0,-1,1091,953,0,0
-126,71,0,0,0,0,0,0,0,0,0,-1,1098,953,0,0
-119,71,0,0,0,0,0,0,0,0,0,-1,1105,953,0,0
-112,71,0,0,0,0,0,0,0,0,0,-1,1112,953,0,0
-105,71,0,0,0,0,0,0,0,0,0,-1,1119,953,0,0
-98,71,0,0,0,0,0,0,0,0,0,-1,1126,953,0,0
-91,71,0,0,0,0,0,0,0,0,0,-1,1133,953,0,0
-84,71,0,0,0,0,0,0,0,0,0,-1,1140,953,0,0
-77,71,0,0,0,0,0,0,0,0,0,-1,1147,953,0,0
-70,71,0,0,0,0,0,0,0,0,0,-1,1154,953,0,0
-63,71,0,0,0,0,0,0,0,0,0,-1,1161,953,0,0
-56,71,0,0,0,0,0,0,0,0,0,-1,1168,953,0,0
-49,71,0,0,0,0,0,0,0,0,0,-1,1175,953,0,0
-42,71,0,0,0,0,0,0,0,0,0,-1,1182,953,0,0
-35,71,0,0,0,0,0,0,0,0,0,-1,1189,953,0,0
-28,71,0,0,0,0,0,0,0,0,0,-1,1196,953,0,0
-21,71,0,0,0,0,0,0,0,0,0,-1,1203,953,0,0
-14,71,0,0,0,0,0,0,0,0,0,-1,1210,953,0,0
-7,71,0,0,0,0,0,0,0,0,0,-1,1217,953,0,0
0,71,0,0,0,0,0,0,0,0,0,-1,1224,953,0,0
7,71,0,0,0,0,0,0,0,0,0,-1,1231,953,0,0
14,71,0,0,0,0,0,0,0,0,0,-1,1238,953,0,0
21,71,0,0,0,0,0,0,0,0,0,-1,1245,953,0,0
28,71,0,0,0,0,0,0,0,0,0,-1,1252,953,0,0
35,71,0,0,0,0,0,0,0,0,0,-1,1259,953,0,0
42,71,0,0,0,0,0,0,0,0,0,-1,1266,953,0,0
49,71,0,0,0,0,0,0,0,0,0,-1,1273,953,0,0
56,71,0,0,0,0,0,0,0,0,0,-1,1280,953,0,0
63,71,0,0,0,0,0,0,0,0,0,-1,1287,953,0,0
70,71,0,0,0,0,0,0,0,0,0,-1,1294,953,0,0
77,71,0,0,0,0,0,0,0,0,0,-1,1301,953,0,0
84,71,0,0,0,0,0,0,0,0,0,-1,1308,953,0,0
91,71,0,0,0,0,0,0,0,0,0,-1,1315,953,0,0
98,71,0,0,0,0,0,0,0,0,0,-1,1322,953,0,0
105,71,0,0,0,0,0,0,0,0,0,-1,1329,953,0,0
112,71,0,0,0,0,0,0,0,0,0,-1,1336,953,0,0
119,71,0,0,0,0,0,0,0,0,0,-1,1343,953,0,0
126,71,0,0,0,0,0,0,0,0,0,-1,1350,953,0,0
133,71,0,0,0,0,0,0,0,0,0,-1,1357,953,0,0
140,71,0,0,0,0,0,0,0,0,0,-1,1364,953,0,0
147,71,0,0,0,0,0,0,0,0,0,-1,1371,953,0,0
154,71,0,0,0,0,0,0,0,0,0,-1,1378,953,0,0
161,71,0,0,0,0,0,0,0,0,0,-1,1385,953,0,0
168,71,0,0,0,0,0,0,0,0,0,-1,1392,953,0,0
175,71,0,0,0,0,0,0,0,0,0,-1,1399,953,0,0
182,71,0,0,0,0,0,0,0,0,0,-1,1406,953,0,0
189,71,0,0,0,0,0,0,0,0,0,-1,1413,953,0,0
196,71,0,0,0,0,0,0,0,0,0,-1,1420,953,0,0
203,71,0,0,0,0,0,0,0,0,0,-1,1427,953,0,0
210,71,0,0,0,0,0,0,0,0,0,-1,1434,953,0,0
217,71,0,0,0,0,0,0,0,0,0,-1,1441,953,0,0
224,71,0,0,0,0,0,0,0,0,0,-1,1448,953,0,0
231,71,0,0,0,0,0,0,0,0,0,-1,1455,953,0,0
238,71,0,0,0,0,0,0,0,0,0,-1,1462,953,0,0
245,71,0,0,0,0,0,0,0,0,0,-1,1469,953,0,0
252,71,0,0,0,0,0,0,0,0,0,-1,1476,953,0,0
259,71,0,0,0,0,0,0,0,0,0,-1,1483,953,0,0
266,71,0,0,0,0,0,0,0,0,0,-1,1490,953,0,0
273,71,0,0,0,0,0,0,0,0,0,-1,1497,953,0,0
280,71,0,0,0,0,0,0,0,0,0,-1,1504,953,0,0
287,71,0,0,0,0,0,0,0,0,0,-1,1511,953,0,0
294,71,0,0,0,0,0,0,0,0,0,-1,1518,953,0,0
301,71,0,0,0,0,0,0,0,0,0,-1,1525,953,0,0
308,71,0,0,0,0,0,0,0,0,0,-1,1532,953,0,0
315,71,0,0,0,0,0,0,0,0,0,-1,1539,953,0,0
322,71,0,0,0,0,0,0,0,0,0,-1,1546,953,0,0
329,71,0,0,0,0,0,0,0,0,0,-1,1553,953,0,0
336,71,0,0,0,0,0,0,0,0,0,-1,1560,953,0,0
343,71,0,0,0,0,0,0,0,0,0,-1,1567,953,0,0
350,71,0,0,0,0,0,0,0,0,0,-1,1574,953,0,0
357,71,0,0,0,0,0,0,0,0,0,-1,1581,953,0,0
364,71,0,0,0,0,0,0,0,0,0,-1,1588,953,0,0
371,71,0,0,0,0,0,0,0,0,0,-1,1595,953,0,0
378,71,0,0,0,0,0,0,0,0,0,-1,1602,953,0,0
385,71,0,0,0,0,0,0,0,0,0,-1,1609,953,0,0
392,71,0,0,0,0,0,0,0,0,0,-1,1616,953,0,0
399,71,0,0,0,0,0,0,0,0,0,-1,1623,953,0,0
406,71,0,0,0,0,0,0,0,0,0,-1,1630,953,0,0
413,71,0,0,0,0,0,0,0,0,0,-1,1637,953,0,0
420,71,0,0,0,0,0,0,0,0,0,-1,1644,953,0,0
427,71,0,0,0,0,0,0,0,0,0,-1,1651,953,0,0
434,71,0,0,0,0,0,0,0,0,0,-1,1658,953,0,0
441,71,0,0,0,0,0,0,0,0,0,-1,1665,953,0,0
448,71,0,0,0,0,0,0,0,0,0,-1,1672,953,0,0
455,71,0,0,0,0,0,0,0,0,0,-1,1679,953,0,0
462,71,0,0,0,0,0,0,0,0,0,-1,1686,953,0,0
469,71,0,0,0,0,0,0,0,0,0,-1,1693,953,0,0
476,71,0,0,0,0,0,0,0,0,0,-1,1700,953,0,0
483,71,0,0,0,0,0,0,0,0,0,-1,1707,953,0,0
490,71,0,0,0,0,0,0,0,0,0,-1,1714,953,0,0
497,71,0,0,0,0,0,0,0,0,0,-1,1721,953,0,0
504,71,0,0,0,0,0,0,0,0,0,-1,1728,953,0,0
511,71,0,0,0,0,0,0,0,0,0,-1,1735,953,0,0
518,71,0,0,0,0,0,0,0,0,0,-1,1742,953,0,0
525,71,0,0,0,0,0,0,0,0,0,-1,1749,953,0,0
532,71,0,0,0,0,0,0,0,0,0,-1,1756,953,0,0
539,71,0,0,0,0,0,0,0,0,0,-1,1763,953,0,0
546,71,0,0,0,0,0,0,0,0,0,-1,1770,953,0,0
553,71,0,0,0,0,0,0,0,0,0,-1,1777,953,0,0
560,71,0,0,0,0,0,0,0,0,0,-1,1784,953,0,0
567,71,0,0,0,0,0,0,0,0,0,-1,1791,953,0,0
574,71,0,0,0,0,0,0,0,0,0,-1,1798,953,0,0
581,71,0,0,0,0,0,0,0,0,0,-1,1805,953,0,0
588,71,0,0,0,0,0,0,0,0,0,-1,1812,953,0,0
595,71,0,0,0,0,0,0,0,0,0,-1,1819,953,0,0
602,71,0,0,0,0,0,0,0,0,0,-1,1826,953,0,0
609,71,0,0,0,0,0,0,0,0,0,-1,1833,953,0,0
616,71,0,0,0,0,0,0,0,0,0,-1,1840,953,0,0
623,71,0,0,0,0,0,0,0,0,0,-1,1847,953,0,0
630,71,0,0,0,0,0,0,0,0,0,-1,1854,953,0,0
637,71,21.665,2.79315,-0.00313689,0.00445903,-0.00205808,0.00498082,-0.00365867,-1.3225,0.00500744,0.0406039,1861,953,21.665,-2.79313
644,71,21.4326,2.85046,-0.00215937,0.00329737,-0.00191289,0.00390114,-0.00276315,-1.26506,0.00386628,0.0410959,1868,953,21.4326,-2.85049
651,71,21.257,2.77496,-0.00134731,0.00268121,-0.00172364,0.00331802,-0.00198412,-1.21689,0.00309332,0.0387508,1875,953,21.2569,-2.77497
658,71,21.339,2.78467,-0.0012337,0.00226417,-0.0013534,0.00272667,-0.0016962,-1.2415,0.00257655,0.0372057,1882,953,21.339,-2.78467
665,71,21.3995,2.9989,-0.00175014,0.00208943,-0.000728481,0.002223,-0.0018837,-1.38946,0.0023737,0.0400228,1889,953,21.3995,-2.9989
672,71,21.3373,2.97382,-0.00266653,0.00203339,-2.63257e-06,0.00203339,-0.00266653,-1.57024,0.00272169,0.0414267,1896,953,21.3373,-2.97381
679,71,21.2517,2.83929,-0.00369253,0.00195823,0.000713633,0.00204696,-0.00378126,1.44709,0.00341422,0.0400131,1903,953,21.2518,-2.83927
686,71,21.2783,2.71289,-0.0044945,0.00189091,0.00125082,0.00212719,-0.00473078,1.3841,0.00405344,0.0382387,1910,953,21.2783,-2.7129
693,71,21.2965,2.85608,-0.00498333,0.00166263,0.00168306,0.00206455,-0.00538525,1.33638,0.00444129,0.0334732,1917,953,21.2965,-2.85605
700,71,21.2164,2.96313,-0.00534429,0.00154454,0.00194064,0.00205361,-0.00585337,1.31425,0.00473755,0.0309057,1924,953,21.2164,-2.96313
707,71,21.1342,3.30737,-0.00561383,0.00153318,0.00200493,0.0020572,-0.00613785,1.31515,0.00492305,0.0305042,1931,953,21.1342,-3.30739
714,71,20.2555,3.74237,0,0,0,0,0,0,0,-1,1938,953,20.2555,-3.74235
721,71,20.1503,3.82501,-0.00571424,0.00158965,0.00200358,0.00210317,-0.00622775,1.3199,0.0050025,0.0298399,1945,953,20.1503,-3.82503
728,71,20.068,3.97748,-0.00486163,0.0015862,0.0018456,0.00207711,-0.00535253,1.31083,0.00442627,0.0172224,1952,953,20.068,-3.97749
735,71,20.0619,4.0658,-0.00317522,0.00204323,0.0014941,0.00244073,-0.00357272,1.31077,0.00349231,0.0109386,1959,953,20.0619,-4.06581
742,71,20.0703,4.15161,-0.0015357,0.0029054,0.00091659,0.00308714,-0.00171744,1.37506,0.00281125,0.011952,1966,953,20.0703,-4.15162
749,71,20.1012,4.25745,-0.000118024,0.00447757,0.000374592,0.0045079,-0.000148357,1.49,0.00305592,0.0153372,1973,953,20.1012,-4.25746
756,71,20.0977,4.37463,0.0018224,0.00640299,3.01813e-05,0.00640318,0.0018222,1.56421,0.00380954,0.0152044,1980,953,20.0976,-4.37464
763,71,20.0735,4.51605,0.0036274,0.00861548,-5.66534e-06,0.00861548,0.0036274,-1.56966,0.00499479,0.012864,1987,953,20.0734,-4.51607
770,71,20.0139,4.62952,0.00519137,0.0117557,0.000391153,0.0117789,0.00516814,1.51149,0.00681753,0.0141006,1994,953,20.014,-4.62952
777,71,19.9785,4.64124,0.0061954,0.0154497,0.00134828,0.0156421,0.00600296,1.42903,0.00911194,0.0332493,2001,953,19.9785,-4.64124
784,71,19.9918,4.40509,0.00629445,0.0197578,0.00311203,0.0204424,0.00560992,1.35428,0.0121962,0.0462527,2008,953,19.9918,-4.40508
791,71,19.9452,3.88666,0.00531757,0.0245258,0.00592644,0.0262071,0.00363621,1.29436,0.0163943,0.0440841,2015,953,19.9452,-3.88664
798,71,19.6813,3.30035,0.00283327,0.0295516,0.0102772,0.0330474,-0.000662474,1.24293,0.0222557,0.0426675,2022,953,19.6813,-3.30038
805,71,19.4341,2.76361,0,0,0,0,0,0,0,-1,2029,953,19.434,-2.76362
812,71,0,0,0,0,0,0,0,0,0,-1,2036,953,0,0
-700,64,0,0,0,0,0,0,0,0,0,-1,524,960,0,0
-693,64,0,0,0,0,0,0,0,0,0,-1,531,960,0,0
-686,64,-14.2183,2.47668,-0.0171958,0.00404839,-0.0347255,0.02974,-0.0428874,-0.933823,0.0421599,0.0473382,538,960,-14.2183,-2.4767
-679,64,-13.5608,2.34399,-0.0170009,0.00299618,-0.026603,0.0214175,-0.0354222,-0.965153,0.0331468,0.0463467,545,960,-13.5608,-2.34399
-672,64,-13.1877,2.40399,-0.0163977,0.00219697,-0.0198029,0.0147765,-0.0289773,-1.00487,0.0257009,0.0449405,552,960,-13.1877,-2.40402
-665,64,-13.0952,2.31024,-0.0153334,0.00162557,-0.0142028,0.00968757,-0.0233954,-1.05451,0.0196394,0.0466427,559,960,-13.0952,-2.31026
-658,64,-13.8501,1.78259,-0.0138983,0.00125426,-0.00967869,0.00596931,-0.0186134,-1.11747,0.0148054,0.0422227,566,960,-13.8501,-1.78256
-651,64,-13.5092,2.15155,-0.0122182,0.00102952,-0.00613837,0.00343644,-0.0146252,-1.19711,0.0110748,0.0428292,573,960,-13.5092,-2.15158
-644,64,-13.3478,2.16003,-0.0103945,0.000899999,-0.00352069,0.00190757,-0.0114021,-1.29206,0.00831056,0.0309662,580,960,-13.3478,-2.16003
-637,64,-13.2682,2.14441,-0.00832251,0.00123021,-0.00160652,0.00149315,-0.00858545,-1.40857,0.00628079,0.0154496,587,960,-13.2682,-2.14442
-630,64,-13.3124,2.05078,-0.00709918,0.000765962,-0.000159038,0.000769176,-0.0071024,-1.55059,0.00501104,0.0123741,594,960,-13.3124,-2.05077
-623,64,-13.3226,1.9646,-0.00655496,0.000854678,0.00047435,0.000884922,-0.00658521,1.50712,0.00471289,0.0124425,601,960,-13.3226,-1.96459
-616,64,-13.3088,1.85541,-0.00643161,0.000888721,0.000258123,0.000897812,-0.0064407,1.53559,0.00462223,0.0149871,608,960,-13.3088,-1.85542
-609,64,-13.2867,1.79895,-0.00632589,0.000958351,-9.12272e-05,0.000959493,-0.00632703,-1.55827,0.00457154,0.0149196,615,960,-13.2867,-1.79898
-602,64,-13.2864,1.73169,-0.00669829,0.00096801,-0.000703888,0.0010321,-0.00676238,-1.47999,0.00488874,0.0155391,622,960,-13.2864,-1.73169
-595,64,-13.296,1.63751,-0.00704371,0.000604392,-0.00122823,0.000796795,-0.00723612,-1.41541,0.00511042,0.0158336,629,960,-13.296,-1.63749
-588,64,-13.2959,1.58679,-0.00697948,0.000105809,-0.00145908,0.000394515,-0.00726819,-1.37545,0.00498217,0.0214127,636,960,-13.2959,-1.5868
-581,64,-13.4814,1.33398,-0.00667145,-0.000202558,-0.00153849,0.000144699,-0.00701871,-1.3488,0.00472811,0.0271329,643,960,-13.4814,-1.33396
-574,64,-13.7723,1.09821,-0.00632371,-0.000481411,-0.00138774,-0.000168534,-0.00663659,-1.34905,0.0043693,0.0317472,650,960,-13.7723,-1.09822
-567,64,-13.7855,1.04834,-0.00584383,-0.000737269,-0.00118221,-0.000476858,-0.00610424,-1.35398,0.00392022,0.0240078,657,960,-13.7855,-1.04834
-560,64,-13.8755,1.12036,-0.00464875,-0.00106292,-0.000866646,-0.000864444,-0.00484722,-1.34567,0.00298535,0.0323671,664,960,-13.8755,-1.12037
-553,64,-13.9885,1.21661,-0.00275937,-0.0012999,-0.000472123,-0.00116049,-0.00289878,-1.28367,0.00168465,0.0352669,671,960,-13.9885,-1.21662
-546,64,-14.0551,1.22333,-0.000260935,-0.00136837,-2.85906e-05,-0.000260197,-0.0013691,-0.0257941,0.000839553,0.0374391,678,960,-14.0551,-1.22331
-539,64,-14.0789,1.21228,0.0027289,-0.0011592,0.000418819,0.00277351,-0.0012038,0.106097,0.00235516,0.0395814,685,960,-14.0789,-1.21228
-532,64,-13.9722,1.23859,0.00590067,-0.00045207,0.000695276,0.00597587,-0.000527274,0.107746,0.0041708,0.0414256,692,960,-13.9722,-1.23857
-525,64,-13.7859,1.24939,0.00811823,0.00121015,0.000539913,0.00816017,0.00116821,0.0775294,0.00509555,0.0409356,699,960,-13.7859,-1.24941
-518,64,0,0,0,0,0,0,0,0,0,-1,706,960,0,0
-511,64,0,0,0,0,0,0,0,0,0,-1,713,960,0,0
-504,64,0,0,0,0,0,0,0,0,0,-1,720,960,0,0
-497,64,0,0,0,0,0,0,0,0,0,-1,727,960,0,0
-490,64,0,0,0,0,0,0,0,0,0,-1,734,960,0,0
-483,64,0,0,0,0,0,0,0,0,0,-1,741,960,0,0
-476,64,0,0,0,0,0,0,0,0,0,-1,748,960,0,0
-469,64,0,0,0,0,0,0,0,0,0,-1,755,960,0,0
-462,64,0,0,0,0,0,0,0,0,0,-1,762,960,0,0
-455,64,0,0,0,0,0,0,0,0,0,-1,769,960,0,0
-448,64,0,0,0,0,0,0,0,0,0,-1,776,960,0,0
-441,64,0,0,0,0,0,0,0,0,0,-1,783,960,0,0
-434,64,0,0,0,0,0,0,0,0,0,-1,790,960,0,0
-427,64,0,0,0,0,0,0,0,0,0,-1,797,960,0,0
-420,64,0,0,0,0,0,0,0,0,0,-1,804,960,0,0
-413,64,0,0,0,0,0,0,0,0,0,-1,811,960,0,0
-406,64,0,0,0,0,0,0,0,0,0,-1,818,960,0,0
-399,64,0,0,0,0,0,0,0,0,0,-1,825,960,0,0
-392,64,0,0,0,0,0,0,0,0,0,-1,832,960,0,0
-385,64,0,0,0,0,0,0,0,0,0,-1,839,960,0,0
-378,64,0,0,0,0,0,0,0,0,0,-1,846,960,0,0
-371,64,0,0,0,0,0,0,0,0,0,-1,853,960,0,0
-364,64,0,0,0,0,0,0,0,0,0,-1,860,960,0,0
-357,64,0,0,0,0,0,0,0,0,0,-1,867,960,0,0
-350,64,0,0,0,0,0,0,0,0,0,-1,874,960,0,0
-343,64,0,0,0,0,0,0,0,0,0,-1,881,960,0,0
-336,64,0,0,0,0,0,0,0,0,0,-1,888,960,0,0
-329,64,0,0,0,0,0,0,0,0,0,-1,895,960,0,0
-322,64,0,0,0,0,0,0,0,0,0,-1,902,960,0,0
-315,64,0,0,0,0,0,0,0,0,0,-1,909,960,0,0
-308,64,0,0,0,0,0,0,0,0,0,-1,916,960,0,0
-301,64,0,0,0,0,0,0,0,0,0,-1,923,960,0,0
-294,64,0,0,0,0,0,0,0,0,0,-1,930,960,0,0
-287,64,0,0,0,0,0,0,0,0,0,-1,937,960,0,0
-280,64,0,0,0,0,0,0,0,0,0,-1,944,960,0,0
-273,64,0,0,0,0,0,0,0,0,0,-1,951,960,0,0
-266,64,0,0,0,0,0,0,0,0,0,-1,958,960,0,0
-259,64,0,0,0,0,0,0,0,0,0,-1,965,960,0,0
-252,64,0,0,0,0,0,0,0,0,0,-1,972,960,0,0
-245,64,0,0,0,0,0,0,0,0,0,-1,979,960,0,0
-238,64,0,0,0,0,0,0,0,0,0,-1,986,960,0,0
-231,64,0,0,0,0,0,0,0,0,0,-1,993,960,0,0
-224,64,0,0,0,0,0,0,0,0,0,-1,1000,960,0,0
-217,64,0,0,0,0,0,0,0,0,0,-1,1007,960,0,0
-210,64,0,0,0,0,0,0,0,0,0,-1,1014,960,0,0
-203,64,0,0,0,0,0,0,0,0,0,-1,1021,960,0,0
-196,64,0,0,0,0,0,0,0,0,0,-1,1028,960,0,0
-189,64,0,0,0,0,0,0,0,0,0,-1,1035,960,0,0
-182,64,0,0,0,0,0,0,0,0,0,-1,1042,960,0,0
-175,64,0,0,0,0,0,0,0,0,0,-1,1049,960,0,0
-168,64,0,0,0,0,0,0,0,0,0,-1,1056,960,0,0
-161,64,0,0,0,0,0,0,0,0,0,-1,1063,960,0,0
-154,64,0,0,0,0,0,0,0,0,0,-1,1070,960,0,0
-147,64,0,0,0,0,0,0,0,0,0,-1,1077,960,0,0
-140,64,0,0,0,0,0,0,0,0,0,-1,1084,960,0,0
-133,64,0,0,0,0,0,0,0,0,0,-1,1091,960,0,0
-126,64,0,0,0,0,0,0,0,0,0,-1,1098,960,0,0
-119,64,0,0,0,0,0,0,0,0,0,-1,1105,960,0,0
-112,64,0,0,0,0,0,0,0,0,0,-1,1112,960,0,0
-105,64,0,0,0,0,0,0,0,0,0,-1,1119,960,0,0
-98,64,0,0,0,0,0,0,0,0,0,-1,1126,960,0,0
-91,64,0,0,0,0,0,0,0,0,0,-1,1133,960,0,0
-84,64,0,0,0,0,0,0,0,0,0,-1,1140,960,0,0
-77,64,0,0,0,0,0,0,0,0,0,-1,1147,960,0,0
-70,64,0,0,0,0,0,0,0,0,0,-1,1154,960,0,0
-63,64,0,0,0,0,0,0,0,0,0,-1,1161,960,0,0
-56,64,0,0,0,0,0,0,0,0,0,-1,1168,960,0,0
-49,64,0,0,0,0,0,0,0,0,0,-1,1175,960,0,0
-42,64,0,0,0,0,0,0,0,0,0,-1,1182,960,0,0
-35,64,0,0,0,0,0,0,0,0,0,-1,1189,960,0,0
-28,64,0,0,0,0,0,0,0,0,0,-1,1196,960,0,0
-21,64,0,0,0,0,0,0,0,0,0,-1,1203,960,0,0
-14,64,0,0,0,0,0,0,0,0,0,-1,1210,960,0,0
-7,64,0,0,0,0,0,0,0,0,0,-1,1217,960,0,0
0,64,0,0,0,0,0,0,0,0,0,-1,1224,960,0,0
7,64,0,0,0,0,0,0,0,0,0,-1,1231,960,0,0
14,64,0,0,0,0,0,0,0,0,0,-1,1238,960,0,0
21,64,0,0,0,0,0,0,0,0,0,-1,1245,960,0,0
28,64,0,0,0,0,0,0,0,0,0,-1,1252,960,0,0
35,64,0,0,0,0,0,0,0,0,0,-1,1259,960,0,0
42,64,0,0,0,0,0,0,0,0,0,-1,1266,960,0,0
49,64,0,0,0,0,0,0,0,0,0,-1,1273,960,0,0
56,64,0,0,0,0,0,0,0,0,0,-1,1280,960,0,0
63,64,0,0,0,0,0,0,0,0,0,-1,1287,960,0,0
70,64,0,0,0,0,0,0,0,0,0,-1,1294,960,0,0
77,64,0,0,0,0,0,0,0,0,0,-1,1301,960,0,0
84,64,0,0,0,0,0,0,0,0,0,-1,1308,960,0,0
91,64,0,0,0,0,0,0,0,0,0,-1,1315,960,0,0
98,64,0,0,0,0,0,0,0,0,0,-1,1322,960,0,0
105,64,0,0,0,0,0,0,0,0,0,-1,1329,960,0,0
112,64,0,0,0,0,0,0,0,0,0,-1,1336,960,0,0
119,64,0,0,0,0,0,0,0,0,0,-1,1343,960,0,0
126,64,0,0,0,0,0,0,0,0,0,-1,1350,960,0,0
133,64,0,0,0,0,0,0,0,0,0,-1,1357,960,0,0
140,64,0,0,0,0,0,0,0,0,0,-1,1364,960,0,0
147,64,0,0,0,0,0,0,0,0,0,-1,1371,960,0,0
154,64,0,0,0,0,0,0,0,0,0,-1,1378,960,0,0
161,64,0,0,0,0,0,0,0,0,0,-1,1385,960,0,0
168,64,0,0,0,0,0,0,0,0,0,-1,1392,960,0,0
175,64,0,0,0,0,0,0,0,0,0,-1,1399,960,0,0
182,64,0,0,0,0,0,0,0,0,0,-1,1406,960,0,0
189,64,0,0,0,0,0,0,0,0,0,-1,1413,960,0,0
196,64,0,0,0,0,0,0,0,0,0,-1,1420,960,0,0
203,64,0,0,0,0,0,0,0,0,0,-1,1427,960,0,0
210,64,0,0,0,0,0,0,0,0,0,-1,1434,960,0,0
217,64,0,0,0,0,0,0,0,0,0,-1,1441,960,0,0
224,64,0,0,0,0,0,0,0,0,0,-1,1448,960,0,0
231,64,0,0,0,0,0,0,0,0,0,-1,1455,960,0,0
238,64,0,0,0,0,0,0,0,0,0,-1,1462,960,0,0
245,64,0,0,0,0,0,0,0,0,0,-1,1469,960,0,0
252,64,0,0,0,0,0,0,0,0,0,-1,1476,960,0,0
259,64,0,0,0,0,0,0,0,0,0,-1,1483,960,0,0
266,64,0,0,0,0,0,0,0,0,0,-1,1490,960,0,0
273,64,0,0,0,0,0,0,0,0,0,-1,1497,960,0,0
280,64,0,0,0,0,0,0,0,0,0,-1,1504,960,0,0
287,64,0,0,0,0,0,0,0,0,0,-1,1511,960,0,0
294,64,0,0,0,0,0,0,0,0,0,-1,1518,960,0,0
301,64,0,0,0,0,0,0,0,0,0,-1,1525,960,0,0
308,64,0,0,0,0,0,0,0,0,0,-1,1532,960,0,0
315,64,0,0,0,0,0,0,0,0,0,-1,1539,960,0,0
322,64,0,0,0,0,0,0,0,0,0,-1,1546,960,0,0
329,64,0,0,0,0,0,0,0,0,0,-1,1553,960,0,0
336,64,0,0,0,0,0,0,0,0,0,-1,1560,960,0,0
343,64,0,0,0,0,0,0,0,0,0,-1,1567,960,0,0
350,64,0,0,0,0,0,0,0,0,0,-1,1574,960,0,0
357,64,0,0,0,0,0,0,0,0,0,-1,1581,960,0,0
364,64,0,0,0,0,0,0,0,0,0,-1,1588,960,0,0
371,64,0,0,0,0,0,0,0,0,0,-1,1595,960,0,0
378,64,0,0,0,0,0,0,0,0,0,-1,1602,960,0,0
385,64,0,0,0,0,0,0,0,0,0,-1,1609,960,0,0
392,64,0,0,0,0,0,0,0,0,0,-1,1616,960,0,0
399,64,0,0,0,0,0,0,0,0,0,-1,1623,960,0,0
406,64,0,0,0,0,0,0,0,0,0,-1,1630,960,0,0
413,64,0,0,0,0,0,0,0,0,0,-1,1637,960,0,0
420,64,0,0,0,0,0,0,0,0,0,-1,1644,960,0,0
427,64,0,0,0,0,0,0,0,0,0,-1,1651,960,0,0
434,64,0,0,0,0,0,0,0,0,0,-1,1658,960,0,0
441,64,0,0,0,0,0,0,0,0,0,-1,1665,960,0,0
448,64,0,0,0,0,0,0,0,0,0,-1,1672,960,0,0
455,64,0,0,0,0,0,0,0,0,0,-1,1679,960,0,0
462,64,0,0,0,0,0,0,0,0,0,-1,1686,960,0,0
469,64,0,0,0,0,0,0,0,0,0,-1,1693,960,0,0
476,64,0,0,0,0,0,0,0,0,0,-1,1700,960,0,0
483,64,0,0,0,0,0,0,0,0,0,-1,1707,960,0,0
490,64,0,0,0,0,0,0,0,0,0,-1,1714,960,0,0
497,64,0,0,0,0,0,0,0,0,0,-1,1721,960,0,0
504,64,0,0,0,0,0,0,0,0,0,-1,1728,960,0,0
511,64,0,0,0,0,0,0,0,0,0,-1,1735,960,0,0
518,64,0,0,0,0,0,0,0,0,0,-1,1742,960,0,0
525,64,0,0,0,0,0,0,0,0,0,-1,1749,960,0,0
532,64,0,0,0,0,0,0,0,0,0,-1,1756,960,0,0
539,64,0,0,0,0,0,0,0,0,0,-1,1763,960,0,0
546,64,0,0,0,0,0,0,0,0,0,-1,1770,960,0,0
553,64,0,0,0,0,0,0,0,0,0,-1,1777,960,0,0
560,64,0,0,0,0,0,0,0,0,0,-1,1784,960,0,0
567,64,0,0,0,0,0,0,0,0,0,-1,1791,960,0,0
574,64,0,0,0,0,0,0,0,0,0,-1,1798,960,0,0
581,64,0,0,0,0,0,0,0,0,0,-1,1805,960,0,0
588,64,0,0,0,0,0,0,0,0,0,-1,1812,960,0,0
595,64,0,0,0,0,0,0,0,0,0,-1,1819,960,0,0
602,64,0,0,0,0,0,0,0,0,0,-1,1826,960,0,0
609,64,0,0,0,0,0,0,0,0,0,-1,1833,960,0,0
616,64,0,0,0,0,0,0,0,0,0,-1,1840,960,0,0
623,64,0,0,0,0,0,0,0,0,0,-1,1847,960,0,0
630,64,0,0,0,0,0,0,0,0,0,-1,1854,960,0,0
637,64,0,0,0,0,0,0,0,0,0,-1,1861,960,0,0
644,64,21.2751,2.875,-0.000550872,0.00398911,-0.00125491,0.00431289,-0.000874654,-1.31829,0.00320682,0.0391467,1868,960,21.2751,-2.87501
651,64,21.1667,2.86462,-0.000284783,0.00328998,-0.00136808,0.00375346,-0.000748264,-1.24415,0.00278543,0.0381172,1875,960,21.1667,-2.86463
658,64,21.2621,3.04413,-0.000329671,0.00279213,-0.00113176,0.00315926,-0.000696796,-1.25712,0.00237279,0.0367185,1882,960,21.2621,-3.04411
665,64,21.3333,3.22345,-0.000832138,0.00257279,-0.000493217,0.0026428,-0.000902143,-1.4298,0.00212733,0.0403032,1889,960,21.3333,-3.22347
672,64,21.3682,3.07495,-0.00171847,0.00250453,0.000355918,0.00253432,-0.00174826,1.4873,0.00248639,0.0417187,1896,960,21.3681,-3.07498
679,64,21.2478,2.80005,-0.00275926,0.00242007,0.00123731,0.00270047,-0.00303967,1.34794,0.003316,0.0391436,1903,960,21.2477,-2.80007
686,64,21.1675,2.75214,-0.00357813,0.00232052,0.00192703,0.00289426,-0.00415186,1.28142,0.00408962,0.0367058,1910,960,21.1674,-2.75215
693,64,21.2207,2.85162,-0.0041202,0.00207773,0.00246923,0.00294117,-0.00498364,1.23441,0.00462577,0.0338839,1917,960,21.2207,-2.8516
700,64,21.2876,2.92352,-0.00457569,0.00193704,0.00278006,0.00296234,-0.00560099,1.21747,0.00502167,0.0292857,1924,960,21.2876,-2.92354
707,64,21.1818,3.26733,-0.00497952,0.00190369,0.00287224,0.00294476,-0.00602059,1.22306,0.00527671,0.0334098,1931,960,21.1818,-3.26733
714,64,20.8473,3.711,0,0,0,0,0,0,0,-1,1938,960,20.8472,-3.711
721,64,20.2548,3.83008,-0.0053618,0.00189718,0.00284591,0.00287989,-0.00634451,1.23831,0.00544949,0.0307673,1945,960,20.2547,-3.83009
728,64,20.1555,4.00214,-0.00470111,0.00187214,0.00260903,0.00278181,-0.00561079,1.23531,0.00493638,0.0137759,1952,960,20.1555,-4.00216
735,64,20.1556,4.09991,-0.00330641,0.00221905,0.00208642,0.00291837,-0.00400573,1.24739,0.00401403,0.0153082,1959,960,20.1556,-4.0999
742,64,20.1799,4.1579,-0.00210679,0.00308356,0.00115701,0.0033298,-0.00235303,1.36111,0.00329709,0.0140367,1966,960,20.1799,-4.15789
749,64,20.1663,4.25012,-0.00139798,0.00462268,5.25235e-05,0.00462314,-0.00139844,1.56207,0.00363894,0.0128847,1973,960,20.1662,-4.25013
756,64,20.1891,4.36499,-0.000250489,0.00634551,-0.000688576,0.00641663,-0.000321605,-1.46788,0.00438888,0.0133833,1980,960,20.189,-4.36496
763,64,20.2052,4.49445,0.000713772,0.00814741,-0.00118384,0.00833139,0.000529794,-1.41662,0.00538635,0.0122627,1987,960,20.2052,-4.49446
770,64,20.1344,4.59845,0.00123878,0.0109034,-0.00143029,0.0111107,0.00103155,-1.42691,0.00708832,0.0125186,1994,960,20.1344,-4.59842
777,64,20.0916,4.68127,0.00100135,0.0141243,-0.00116443,0.0142268,0.00089883,-1.48298,0.00919958,0.0294568,2001,960,20.0915,-4.68125
784,64,20.4122,4.55402,-0.000450439,0.0178175,-0.000196451,0.0178196,-0.00045255,-1.56004,0.0120334,0.0443932,2008,960,20.4122,-4.55399
791,64,20.5659,3.7478,-0.00316575,0.0218051,0.00164708,0.0219133,-0.00327392,1.50521,0.0158135,0.0485014,2015,960,20.566,-3.74782
798,64,19.92,3.30676,-0.00742178,0.0259194,0.00471545,0.0265735,-0.00807586,1.43297,0.0209335,0.0442767,2022,960,19.9201,-3.30675
805,64,19.2371,2.75513,0,0,0,0,0,0,0,-1,2029,960,19.2369,-2.75512
812,64,0,0,0,0,0,0,0,0,0,-1,2036,960,0,0
-700,57,0,0,0,0,0,0,0,0,0,-1,524,967,0,0
-693,57,0,0,0,0,0,0,0,0,0,-1,531,967,0,0
-686,57,-13.7074,2.37189,-0.0241762,-0.00516141,-0.0389109,0.0253868,-0.0547244,-0.905219,0.0472747,0.0425026,538,967,-13.7074,-2.3719
-679,57,-13.3561,2.27844,-0.0216779,-0.00333052,-0.0303949,0.0192449,-0.0442534,-0.93196,0.0375966,0.0433542,545,967,-13.3561,-2.27844
-672,57,-13.0695,2.2774,-0.0193368,-0.00194232,-0.0231191,0.0140613,-0.0353404,-0.965306,0.0293908,0.0468569,552,967,-13.0695,-2.27741
-665,57,-12.9798,2.32788,-0.0169884,-0.000892474,-0.0170385,0.00990316,-0.027784,-1.00604,0.0225603,0.0463574,559,967,-12.9798,-2.3279
-658,57,-13.1008,2.22693,-0.0146378,-0.000107209,-0.0120616,0.00670823,-0.0214532,-1.05647,0.0169857,0.0466419,566,967,-13.1008,-2.2269
-651,57,-13.2599,2.09125,-0.0123338,0.000445434,-0.00811273,0.00438266,-0.016271,-1.11897,0.0125656,0.0420482,573,967,-13.2599,-2.09124
-644,57,-13.3367,2.06244,-0.0101207,0.000798024,-0.00515377,0.00284639,-0.0121691,-1.19249,0.00920933,0.0301415,580,967,-13.3367,-2.06243
-637,57,-13.3628,2.07269,-0.00780991,0.00150279,-0.00308031,0.00242944,-0.00873656,-1.27858,0.00678085,0.016284,587,967,-13.3628,-2.07268
-630,57,-13.4122,2.01373,-0.00642823,0.000927395,-0.00133661,0.00116275,-0.00666358,-1.3965,0.0048764,0.0124548,594,967,-13.4122,-2.01372
-623,57,-13.3931,1.97717,-0.00578693,0.00129176,-0.000464413,0.0013221,-0.00581727,-1.50556,0.00438582,0.0111161,601,967,-13.3931,-1.97717
-616,57,-13.3724,1.90259,-0.00561804,0.00141803,-0.000609016,0.00147035,-0.00567037,-1.48509,0.00435392,0.0127852,608,967,-13.3724,-1.90262
-609,57,-13.3814,1.79974,-0.00551315,0.00137897,-0.000922515,0.00150031,-0.00563449,-1.44001,0.00434367,0.0134621,615,967,-13.3814,-1.79974
-602,57,-13.3934,1.73138,-0.00588002,0.00132968,-0.00146291,0.00161521,-0.00616555,-1.37804,0.00474138,0.01051,622,967,-13.3934,-1.7314
-595,57,-13.3955,1.6684,-0.0062246,0.000834516,-0.00197998,0.00135194,-0.00674203,-1.31518,0.00500656,0.0111643,629,967,-13.3955,-1.6684
-588,57,-13.4177,1.63867,-0.00620757,0.000300549,-0.00222882,0.000990667,-0.00689769,-1.27052,0.00496176,0.0160777,636,967,-13.4177,-1.63865
-581,57,-13.6075,1.32495,-0.00594747,1.54974e-05,-0.00232636,0.000815706,-0.00674767,-1.2395,0.00479354,0.0235291,643,967,-13.6075,-1.32494
-574,57,-13.8242,1.00201,-0.00560864,-0.00023501,-0.00216482,0.000528601,-0.00637225,-1.23169,0.00443488,0.0274351,650,967,-13.8242,-1.002
-567,57,-13.8162,0.955322,-0.00510528,-0.000502267,-0.00192121,0.000194221,-0.00580177,-1.22301,0.00393418,0.0317292,657,967,-13.8162,-0.955313
-560,57,-13.8782,1.10547,-0.0039322,-0.000836444,-0.00152563,-0.000210968,-0.00455768,-1.18172,0.00297063,0.0387461,664,967,-13.8782,-1.10546
-553,57,-13.9077,1.42029,-0.00211832,-0.00110869,-0.00103022,-0.000466247,-0.00276076,-1.01321,0.00170646,0.0375038,671,967,-13.9077,-1.42031
-546,57,-14.1882,1.52429,0.000279504,-0.00123794,-0.000455285,0.000405623,-0.00136406,-0.270234,0.00107051,0.0386956,678,967,-14.1882,-1.52428
-539,57,-14.4056,1.42407,0.00317598,-0.00110853,0.000137292,0.00318037,-0.00111293,0.0320001,0.00257275,0.0419142,685,967,-14.4056,-1.42409
-532,57,-14.1271,1.32855,0.00625179,-0.0004624,0.000523795,0.00629241,-0.000503017,0.0773891,0.00437227,0.0413642,692,967,-14.1271,-1.32857
-525,57,-13.8315,1.22351,0.00837659,0.00120465,0.000463982,0.00840648,0.00117476,0.0643365,0.00525668,0.0402029,699,967,-13.8315,-1.22348
-518,57,0,0,0,0,0,0,0,0,0,-1,706,967,0,0
-511,57,0,0,0,0,0,0,0,0,0,-1,713,967,0,0
-504,57,0,0,0,0,0,0,0,0,0,-1,720,967,0,0
-497,57,0,0,0,0,0,0,0,0,0,-1,727,967,0,0
-490,57,0,0,0,0,0,0,0,0,0,-1,734,967,0,0
-483,57,0,0,0,0,0,0,0,0,0,-1,741,967,0,0
-476,57,0,0,0,0,0,0,0,0,0,-1,748,967,0,0
-469,57,0,0,0,0,0,0,0,0,0,-1,755,967,0,0
-462,57,0,0,0,0,0,0,0,0,0,-1,762,967,0,0
-455,57,0,0,0,0,0,0,0,0,0,-1,769,967,0,0
-448,57,0,0,0,0,0,0,0,0,0,-1,776,967,0,0
-441,57,0,0,0,0,0,0,0,0,0,-1,783,967,0,0
-434,57,0,0,0,0,0,0,0,0,0,-1,790,967,0,0
-427,57,0,0,0,0,0,0,0,0,0,-1,797,967,0,0
-420,57,0,0,0,0,0,0,0,0,0,-1,804,967,0,0
-413,57,0,0,0,0,0,0,0,0,0,-1,811,967,0,0
-406,57,0,0,0,0,0,0,0,0,0,-1,818,967,0,0
-399,57,0,0,0,0,0,0,0,0,0,-1,825,967,0,0
-392,57,0,0,0,0,0,0,0,0,0,-1,832,967,0,0
-385,57,0,0,0,0,0,0,0,0,0,-1,839,967,0,0
-378,57,0,0,0,0,0,0,0,0,0,-1,846,967,0,0
-371,57,0,0,0,0,0,0,0,0,0,-1,853,967,0,0
-364,57,0,0,0,0,0,0,0,0,0,-1,860,967,0,0
-357,57,0,0,0,0,0,0,0,0,0,-1,867,967,0,0
-350,57,0,0,0,0,0,0,0,0,0,-1,874,967,0,0
-343,57,0,0,0,0,0,0,0,0,0,-1,881,967,0,0
-336,57,0,0,0,0,0,0,0,0,0,-1,888,967,0,0
-329,57,0,0,0,0,0,0,0,0,0,-1,895,967,0,0
-322,57,0,0,0,0,0,0,0,0,0,-1,902,967,0,0
-315,57,0,0,0,0,0,0,0,0,0,-1,909,967,0,0
-308,57,0,0,0,0,0,0,0,0,0,-1,916,967,0,0
-301,57,0,0,0,0,0,0,0,0,0,-1,923,967,0,0
-294,57,0,0,0,0,0,0,0,0,0,-1,930,967,0,0
-287,57,0,0,0,0,0,0,0,0,0,-1,937,967,0,0
-280,57,0,0,0,0,0,0,0,0,0,-1,944,967,0,0
-273,57,0,0,0,0,0,0,0,0,0,-1,951,967,0,0
-266,57,0,0,0,0,0,0,0,0,0,-1,958,967,0,0
-259,57,0,0,0,0,0,0,0,0,0,-1,965,967,0,0
-252,57,0,0,0,0,0,0,0,0,0,-1,972,967,0,0
-245,57,0,0,0,0,0,0,0,0,0,-1,979,967,0,0
-238,57,0,0,0,0,0,0,0,0,0,-1,986,967,0,0
-231,57,0,0,0,0,0,0,0,0,0,-1,993,967,0,0
-224,57,0,0,0,0,0,0,0,0,0,-1,1000,967,0,0
-217,57,0,0,0,0,0,0,0,0,0,-1,1007,967,0,0
-210,57,0,0,0,0,0,0,0,0,0,-1,1014,967,0,0
-203,57,0,0,0,0,0,0,0,0,0,-1,1021,967,0,0
-196,57,0,0,0,0,0,0,0,0,0,-1,1028,967,0,0
-189,57,0,0,0,0,0,0,0,0,0,-1,1035,967,0,0
-182,57,0,0,0,0,0,0,0,0,0,-1,1042,967,0,0
-175,57,0,0,0,0,0,0,0,0,0,-1,1049,967,0,0
-168,57,0,0,0,0,0,0,0,0,0,-1,1056,967,0,0
-161,57,0,0,0,0,0,0,0,0,0,-1,1063,967,0,0
-154,57,0,0,0,0,0,0,0,0,0,-1,1070,967,0,0
-147,57,0,0,0,0,0,0,0,0,0,-1,1077,967,0,0
-140,57,0,0,0,0,0,0,0,0,0,-1,1084,967,0,0
-133,57,0,0,0,0,0,0,0,0,0,-1,1091,967,0,0
-126,57,0,0,0,0,0,0,0,0,0,-1,1098,967,0,0
-119,57,0,0,0,0,0,0,0,0,0,-1,1105,967,0,0
-112,57,0,0,0,0,0,0,0,0,0,-1,1112,967,0,0
-105,57,0,0,0,0,0,0,0,0,0,-1,1119,967,0,0
-98,57,0,0,0,0,0,0,0,0,0,-1,1126,967,0,0
-91,57,0,0,0,0,0,0,0,0,0,-1,1133,967,0,0
-84,57,0,0,0,0,0,0,0,0,0,-1,1140,967,0,0
-77,57,0,0,0,0,0,0,0,0,0,-1,1147,967,0,0
-70,57,0,0,0,0,0,0,0,0,0,-1,1154,967,0,0
-63,57,0,0,0,0,0,0,0,0,0,-1,1161,967,0,0
-56,57,0,0,0,0,0,0,0,0,0,-1,1168,967,0,0
-49,57,0,0,0,0,0,0,0,0,0,-1,1175,967,0,0
-42,57,0,0,0,0,0,0,0,0,0,-1,1182,967,0,0
-35,57,0,0,0,0,0,0,0,0,0,-1,1189,967,0,0
-28,57,0,0,0,0,0,0,0,0,0,-1,1196,967,0,0
-21,57,0,0,0,0,0,0,0,0,0,-1,1203,967,0,0
-14,57,0,0,0,0,0,0,0,0,0,-1,1210,967,0,0
-7,57,0,0,0,0,0,0,0,0,0,-1,1217,967,0,0
0,57,0,0,0,0,0,0,0,0,0,-1,1224,967,0,0
7,57,0,0,0,0,0,0,0,0,0,-1,1231,967,0,0
14,57,0,0,0,0,0,0,0,0,0,-1,1238,967,0,0
21,57,0,0,0,0,0,0,0,0,0,-1,1245,967,0,0
28,57,0,0,0,0,0,0,0,0,0,-1,1252,967,0,0
35,57,0,0,0,0,0,0,0,0,0,-1,1259,967,0,0
42,57,0,0,0,0,0,0,0,0,0,-1,1266,967,0,0
49,57,0,0,0,0,0,0,0,0,0,-1,1273,967,0,0
56,57,0,0,0,0,0,0,0,0,0,-1,1280,967,0,0
63,57,0,0,0,0,0,0,0,0,0,-1,1287,967,0,0
70,57,0,0,0,0,0,0,0,0,0,-1,1294,967,0,0
77,57,0,0,0,0,0,0,0,0,0,-1,1301,967,0,0
84,57,0,0,0,0,0,0,0,0,0,-1,1308,967,0,0
91,57,0,0,0,0,0,0,0,0,0,-1,1315,967,0,0
98,57,0,0,0,0,0,0,0,0,0,-1,1322,967,0,0
105,57,0,0,0,0,0,0,0,0,0,-1,1329,967,0,0
112,57,0,0,0,0,0,0,0,0,0,-1,1336,967,0,0
119,57,0,0,0,0,0,0,0,0,0,-1,1343,967,0,0
126,57,0,0,0,0,0,0,0,0,0,-1,1350,967,0,0
133,57,0,0,0,0,0,0,0,0,0,-1,1357,967,0,0
140,57,0,0,0,0,0,0,0,0,0,-1,1364,967,0,0
147,57,0,0,0,0,0,0,0,0,0,-1,1371,967,0,0
154,57,0,0,0,0,0,0,0,0,0,-1,1378,967,0,0
161,57,0,0,0,0,0,0,0,0,0,-1,1385,967,0,0
168,57,0,0,0,0,0,0,0,0,0,-1,1392,967,0,0
175,57,0,0,0,0,0,0,0,0,0,-1,1399,967,0,0
182,57,0,0,0,0,0,0,0,0,0,-1,1406,967,0,0
189,57,0,0,0,0,0,0,0,0,0,-1,1413,967,0,0
196,57,0,0,0,0,0,0,0,0,0,-1,1420,967,0,0
203,57,0,0,0,0,0,0,0,0,0,-1,1427,967,0,0
210,57,0,0,0,0,0,0,0,0,0,-1,1434,967,0,0
217,57,0,0,0,0,0,0,0,0,0,-1,1441,967,0,0
224,57,0,0,0,0,0,0,0,0,0,-1,1448,967,0,0
231,57,0,0,0,0,0,0,0,0,0,-1,1455,967,0,0
238,57,0,0,0,0,0,0,0,0,0,-1,1462,967,0,0
245,57,0,0,0,0,0,0,0,0,0,-1,1469,967,0,0
252,57,0,0,0,0,0,0,0,0,0,-1,1476,967,0,0
259,57,0,0,0,0,0,0,0,0,0,-1,1483,967,0,0
266,57,0,0,0,0,0,0,0,0,0,-1,1490,967,0,0
273,57,0,0,0,0,0,0,0,0,0,-1,1497,967,0,0
280,57,0,0,0,0,0,0,0,0,0,-1,1504,967,0,0
287,57,0,0,0,0,0,0,0,0,0,-1,1511,967,0,0
294,57,0,0,0,0,0,0,0,0,0,-1,1518,967,0,0
301,57,0,0,0,0,0,0,0,0,0,-1,1525,967,0,0
308,57,0,0,0,0,0,0,0,0,0,-1,1532,967,0,0
315,57,0,0,0,0,0,0,0,0,0,-1,1539,967,0,0
322,57,0,0,0,0,0,0,0,0,0,-1,1546,967,0,0
329,57,0,0,0,0,0,0,0,0,0,-1,1553,967,0,0
336,57,0,0,0,0,0,0,0,0,0,-1,1560,967,0,0
343,57,0,0,0,0,0,0,0,0,0,-1,1567,967,0,0
350,57,0,0,0,0,0,0,0,0,0,-1,1574,967,0,0
357,57,0,0,0,0,0,0,0,0,0,-1,1581,967,0,0
364,57,0,0,0,0,0,0,0,0,0,-1,1588,967,0,0
371,57,0,0,0,0,0,0,0,0,0,-1,1595,967,0,0
378,57,0,0,0,0,0,0,0,0,0,-1,1602,967,0,0
385,57,0,0,0,0,0,0,0,0,0,-1,1609,967,0,0
392,57,0,0,0,0,0,0,0,0,0,-1,1616,967,0,0
399,57,0,0,0,0,0,0,0,0,0,-1,1623,967,0,0
406,57,0,0,0,0,0,0,0,0,0,-1,1630,967,0,0
413,57,0,0,0,0,0,0,0,0,0,-1,1637,967,0,0
420,57,0,0,0,0,0,0,0,0,0,-1,1644,967,0,0
427,57,0,0,0,0,0,0,0,0,0,-1,1651,967,0,0
434,57,0,0,0,0,0,0,0,0,0,-1,1658,967,0,0
441,57,0,0,0,0,0,0,0,0,0,-1,1665,967,0,0
448,57,0,0,0,0,0,0,0,0,0,-1,1672,967,0,0
455,57,0,0,0,0,0,0,0,0,0,-1,1679,967,0,0
462,57,0,0,0,0,0,0,0,0,0,-1,1686,967,0,0
469,57,0,0,0,0,0,0,0,0,0,-1,1693,967,0,0
476,57,0,0,0,0,0,0,0,0,0,-1,1700,967,0,0
483,57,0,0,0,0,0,0,0,0,0,-1,1707,967,0,0
490,57,0,0,0,0,0,0,0,0,0,-1,1714,967,0,0
497,57,0,0,0,0,0,0,0,0,0,-1,1721,967,0,0
504,57,0,0,0,0,0,0,0,0,0,-1,1728,967,0,0
511,57,0,0,0,0,0,0,0,0,0,-1,1735,967,0,0
518,57,0,0,0,0,0,0,0,0,0,-1,1742,967,0,0
525,57,0,0,0,0,0,0,0,0,0,-1,1749,967,0,0
532,57,0,0,0,0,0,0,0,0,0,-1,1756,967,0,0
539,57,0,0,0,0,0,0,0,0,0,-1,1763,967,0,0
546,57,0,0,0,0,0,0,0,0,0,-1,1770,967,0,0
553,57,0,0,0,0,0,0,0,0,0,-1,1777,967,0,0
560,57,0,0,0,0,0,0,0,0,0,-1,1784,967,0,0
567,57,0,0,0,0,0,0,0,0,0,-1,1791,967,0,0
574,57,0,0,0,0,0,0,0,0,0,-1,1798,967,0,0
581,57,0,0,0,0,0,0,0,0,0,-1,1805,967,0,0
588,57,0,0,0,0,0,0,0,0,0,-1,1812,967,0,0
595,57,0,0,0,0,0,0,0,0,0,-1,1819,967,0,0
602,57,0,0,0,0,0,0,0,0,0,-1,1826,967,0,0
609,57,0,0,0,0,0,0,0,0,0,-1,1833,967,0,0
616,57,0,0,0,0,0,0,0,0,0,-1,1840,967,0,0
623,57,0,0,0,0,0,0,0,0,0,-1,1847,967,0,0
630,57,0,0,0,0,0,0,0,0,0,-1,1854,967,0,0
637,57,0,0,0,0,0,0,0,0,0,-1,1861,967,0,0
644,57,21.1902,3.04407,0.00173548,0.00484693,-0.000744258,0.00501579,0.00156661,-1.34769,0.00296308,0.0404457,1868,967,21.1902,-3.04407
651,57,21.2179,3.02112,0.00116967,0.00405029,-0.00110476,0.00442519,0.000794769,-1.24364,0.00272413,0.0352859,1875,967,21.2179,-3.02113
658,57,21.192,2.95203,0.000677713,0.00345034,-0.000994009,0.00376987,0.000358178,-1.25977,0.00240277,0.036393,1882,967,21.1921,-2.95203
665,57,21.3628,2.88776,-3.7876e-05,0.00314613,-0.000368912,0.00318831,-8.00607e-05,-1.45694,0.00215272,0.0443414,1889,967,21.3628,-2.88774
672,57,21.3604,2.88654,-0.00104736,0.00301587,0.000578613,0.00309666,-0.00112815,1.43207,0.00252591,0.0449018,1896,967,21.3603,-2.88652
679,57,21.1891,2.85297,-0.00221733,0.00288033,0.00161093,0.00334674,-0.00268373,1.28898,0.0034887,0.0404201,1903,967,21.1891,-2.85296
686,57,21.0977,2.84186,-0.00313471,0.002718,0.00245761,0.00361308,-0.0040298,1.22152,0.0044148,0.0381938,1910,967,21.0977,-2.84186
693,57,21.1895,2.8764,-0.00376876,0.00242637,0.00312241,0.00372702,-0.00506941,1.1761,0.0050983,0.0339847,1917,967,21.1895,-2.87639
700,57,21.2755,2.92853,-0.00432125,0.00223827,0.00350551,0.00375908,-0.00584205,1.16147,0.00558653,0.02541,1924,967,21.2755,-2.92856
707,57,21.1901,3.27612,-0.00483076,0.00216889,0.00364457,0.00372196,-0.00638382,1.16797,0.00590166,0.035772,1931,967,21.1901,-3.27611
714,57,21.0016,3.784,0,0,0,0,0,0,0,-1,1938,967,21.0016,-3.78401
721,57,20.3872,3.85736,-0.00541762,0.00206876,0.00362764,0.00353817,-0.00688703,1.18594,0.00612163,0.0370998,1945,967,20.3872,-3.85733
728,57,20.2506,4.034,-0.00490456,0.00200511,0.0033309,0.00334932,-0.00624876,1.18723,0.0056251,0.0186082,1952,967,20.2506,-4.03398
735,57,20.2864,4.14142,-0.00375552,0.00218272,0.00264588,0.00319058,-0.00476338,1.20685,0.00462205,0.0196805,1959,967,20.2864,-4.14145
742,57,20.3058,4.20221,-0.00278761,0.00290054,0.00148001,0.00326258,-0.00314965,1.33089,0.00370229,0.0150116,1966,967,20.3058,-4.20223
749,57,20.2561,4.2832,-0.0023796,0.00430635,0.000115262,0.00430834,-0.00238159,1.55356,0.00391546,0.0125835,1973,967,20.2561,-4.28318
756,57,20.248,4.35425,-0.00173049,0.00571769,-0.000760232,0.0057945,-0.0018073,-1.47011,0.00458572,0.0102567,1980,967,20.248,-4.35426
763,57,20.2833,4.44006,-0.00127922,0.00695773,-0.00138653,0.00718487,-0.00150635,-1.40843,0.00536301,0.0111101,1987,967,20.2834,-4.44004
770,57,20.2584,4.5351,-0.0012891,0.00908156,-0.00180596,0.00938705,-0.0015946,-1.40322,0.0068517,0.0111986,1994,967,20.2585,-4.53511
777,57,20.2103,4.67529,-0.00213423,0.0115292,-0.00163664,0.0117225,-0.00232754,-1.45323,0.00869531,0.0273147,2001,967,20.2103,-4.67527
784,57,20.3915,4.71375,-0.00434553,0.0142335,-0.000675099,0.014258,-0.00437003,-1.53452,0.0112486,0.0451003,2008,967,20.3915,-4.71376
791,57,21.1726,3.66357,0,0,0,0,0,0,0,-1,2015,967,21.1727,-3.66357
798,57,20.6527,4.29364,0,0,0,0,0,0,0,-1,2022,967,20.6527,-4.29363
805,57,20.7661,4.19238,0,0,0,0,0,0,0,-1,2029,967,20.7662,-4.19241
812,57,0,0,0,0,0,0,0,0,0,-1,2036,967,0,0
-700,50,0,0,0,0,0,0,0,0,0,-1,524,974,0,0
-693,50,-11.3461,4.75024,-0.0402656,-0.0128062,-0.0480878,0.0234735,-0.0765453,-0.924455,0.0603949,0.0468878,531,974,-11.3461,-4.75025
-686,50,-11.9583,3.82886,-0.0335145,-0.00990977,-0.0390092,0.0190434,-0.0624676,-0.932297,0.0492362,0.0437975,538,974,-11.9583,-3.82887
-679,50,-13.3661,2.29681,-0.0281764,-0.00745651,-0.0308035,0.0146825,-0.0503154,-0.947618,0.0393614,0.0427636,545,974,-13.3661,-2.2968
-672,50,-12.878,2.35901,-0.023622,-0.00537283,-0.0236722,0.0108725,-0.0398673,-0.969351,0.0308478,0.0464328,552,974,-12.878,-2.35898
-665,50,-12.8652,2.36102,0,0,0,0,0,0,0,-1,559,974,-12.8652,-2.36102
-658,50,-13.164,2.547,-0.0160122,-0.00220189,-0.0126659,0.00531885,-0.023533,-1.03497,0.0177296,0.0478477,566,974,-13.164,-2.547
-651,50,-13.2748,2.23993,-0.012848,-0.00109564,-0.00869439,0.00352207,-0.0174657,-1.08257,0.0129781,0.03961,573,974,-13.2748,-2.23994
-644,50,-13.413,1.99841,-0.0100786,-0.000292586,-0.00572182,0.00234307,-0.0127143,-1.13914,0.00935551,0.0254809,580,974,-13.4129,-1.99843
-637,50,-13.4484,2.01703,-0.0074394,0.000812511,-0.00373512,0.00225204,-0.00887893,-1.20294,0.00679551,0.0146868,587,974,-13.4484,-2.01705
-630,50,-13.4715,2.00946,-0.00577514,0.000335981,-0.00198479,0.000924023,-0.00636318,-1.28276,0.0045813,0.0103408,594,974,-13.4715,-2.00944
-623,50,-13.4568,1.96808,-0.00494525,0.00106479,-0.00109256,0.00125724,-0.0051377,-1.39644,0.00391214,0.010205,601,974,-13.4568,-1.9681
-616,50,-13.4492,1.89978,-0.00470373,0.00137338,-0.00127186,0.00162883,-0.00495917,-1.37259,0.00396227,0.0106449,608,974,-13.4492,-1.89976
-609,50,-13.472,1.81488,-0.00462861,0.00134641,-0.00160828,0.0017518,-0.005034,-1.32387,0.00406768,0.0102133,615,974,-13.472,-1.81489
-602,50,-13.4868,1.73523,-0.00501726,0.00137669,-0.00213288,0.00202287,-0.00566344,-1.27663,0.00460063,0.0106912,622,974,-13.4868,-1.73521
-595,50,-13.4771,1.68518,-0.00539055,0.0008642,-0.00268601,0.00185934,-0.00638568,-1.21599,0.00499365,0.0107607,629,974,-13.4771,-1.68517
-588,50,-13.5135,1.60248,-0.00543485,0.000370102,-0.00299249,0.00163649,-0.00670123,-1.17046,0.00510124,0.0123088,636,974,-13.5135,-1.60248
-581,50,-13.717,1.2345,-0.00524625,0.000138602,-0.00311684,0.0015649,-0.00667255,-1.14163,0.00505145,0.019106,643,974,-13.717,-1.23451
-574,50,-13.833,0.934448,-0.0049662,-6.08571e-05,-0.00295018,0.00132303,-0.00635008,-1.13219,0.00473639,0.0245836,650,974,-13.833,-0.93447
-567,50,-13.8405,0.768127,-0.00449967,-0.000303667,-0.00267985,0.00100174,-0.00580508,-1.11751,0.00424356,0.0349961,657,974,-13.8405,-0.768131
-560,50,-13.6961,1.07483,0,0,0,0,0,0,0,-1,664,974,-13.6961,-1.07481
-553,50,-13.9188,1.19659,0,0,0,0,0,0,0,-1,671,974,-13.9188,-1.19662
-546,50,-14.2841,1.80627,0,0,0,0,0,0,0,-1,678,974,-14.284,-1.80626
-539,50,-14.4547,1.67444,0,0,0,0,0,0,0,-1,685,974,-14.4547,-1.67443
-532,50,-14.0146,1.20941,0.00581835,-0.000267999,0.000136872,0.00582143,-0.000271076,0.0224732,0.00397439,0.0434503,692,974,-14.0146,-1.20939
-525,50,-13.8492,1.1239,0.00766232,0.00132553,4.93349e-05,0.00766271,0.00132514,0.00778484,0.00472906,0.0422821,699,974,-13.8492,-1.12389
-518,50,0,0,0,0,0,0,0,0,0,-1,706,974,0,0
-511,50,0,0,0,0,0,0,0,0,0,-1,713,974,0,0
-504,50,0,0,0,0,0,0,0,0,0,-1,720,974,0,0
-497,50,0,0,0,0,0,0,0,0,0,-1,727,974,0,0
-490,50,0,0,0,0,0,0,0,0,0,-1,734,974,0,0
-483,50,0,0,0,0,0,0,0,0,0,-1,741,974,0,0
-476,50,0,0,0,0,0,0,0,0,0,-1,748,974,0,0
-469,50,0,0,0,0,0,0,0,0,0,-1,755,974,0,0
-462,50,0,0,0,0,0,0,0,0,0,-1,762,974,0,0
-455,50,0,0,0,0,0,0,0,0,0,-1,769,974,0,0
-448,50,0,0,0,0,0,0,0,0,0,-1,776,974,0,0
-441,50,0,0,0,0,0,0,0,0,0,-1,783,974,0,0
-434,50,0,0,0,0,0,0,0,0,0,-1,790,974,0,0
-427,50,0,0,0,0,0,0,0,0,0,-1,797,974,0,0
-420,50,0,0,0,0,0,0,0,0,0,-1,804,974,0,0
-413,50,0,0,0,0,0,0,0,0,0,-1,811,974,0,0
-406,50,0,0,0,0,0,0,0,0,0,-1,818,974,0,0
-399,50,0,0,0,0,0,0,0,0,0,-1,825,974,0,0
-392,50,0,0,0,0,0,0,0,0,0,-1,832,974,0,0
-385,50,0,0,0,0,0,0,0,0,0,-1,839,974,0,0
-378,50,0,0,0,0,0,0,0,0,0,-1,846,974,0,0
-371,50,0,0,0,0,0,0,0,0,0,-1,853,974,0,0
-364,50,0,0,0,0,0,0,0,0,0,-1,860,974,0,0
-357,50,0,0,0,0,0,0,0,0,0,-1,867,974,0,0
-350,50,0,0,0,0,0,0,0,0,0,-1,874,974,0,0
-343,50,0,0,0,0,0,0,0,0,0,-1,881,974,0,0
-336,50,0,0,0,0,0,0,0,0,0,-1,888,974,0,0
-329,50,0,0,0,0,0,0,0,0,0,-1,895,974,0,0
-322,50,0,0,0,0,0,0,0,0,0,-1,902,974,0,0
-315,50,0,0,0,0,0,0,0,0,0,-1,909,974,0,0
-308,50,0,0,0,0,0,0,0,0,0,-1,916,974,0,0
-301,50,0,0,0,0,0,0,0,0,0,-1,923,974,0,0
-294,50,0,0,0,0,0,0,0,0,0,-1,930,974,0,0
-287,50,0,0,0,0,0,0,0,0,0,-1,937,974,0,0
-280,50,0,0,0,0,0,0,0,0,0,-1,944,974,0,0
-273,50,0,0,0,0,0,0,0,0,0,-1,951,974,0,0
-266,50,0,0,0,0,0,0,0,0,0,-1,958,974,0,0
-259,50,0,0,0,0,0,0,0,0,0,-1,965,974,0,0
-252,50,0,0,0,0,0,0,0,0,0,-1,972,974,0,0
-245,50,0,0,0,0,0,0,0,0,0,-1,979,974,0,0
-238,50,0,0,0,0,0,0,0,0,0,-1,986,974,0,0
-231,50,0,0,0,0,0,0,0,0,0,-1,993,974,0,0
-224,50,0,0,0,0,0,0,0,0,0,-1,1000,974,0,0
-217,50,0,0,0,0,0,0,0,0,0,-1,1007,974,0,0
-210,50,0,0,0,0,0,0,0,0,0,-1,1014,974,0,0
-203,50,0,0,0,0,0,0,0,0,0,-1,1021,974,0,0
-196,50,0,0,0,0,0,0,0,0,0,-1,1028,974,0,0
-189,50,0,0,0,0,0,0,0,0,0,-1,1035,974,0,0
-182,50,0,0,0,0,0,0,0,0,0,-1,1042,974,0,0
-175,50,0,0,0,0,0,0,0,0,0,-1,1049,974,0,0
-168,50,0,0,0,0,0,0,0,0,0,-1,1056,974,0,0
-161,50,0,0,0,0,0,0,0,0,0,-1,1063,974,0,0
-154,50,0,0,0,0,0,0,0,0,0,-1,1070,974,0,0
-147,50,0,0,0,0,0,0,0,0,0,-1,1077,974,0,0
-140,50,0,0,0,0,0,0,0,0,0,-1,1084,974,0,0
-133,50,0,0,0,0,0,0,0,0,0,-1,1091,974,0,0
-126,50,0,0,0,0,0,0,0,0,0,-1,1098,974,0,0
-119,50,0,0,0,0,0,0,0,0,0,-1,1105,974,0,0
-112,50,0,0,0,0,0,0,0,0,0,-1,1112,974,0,0
-105,50,0,0,0,0,0,0,0,0,0,-1,1119,974,0,0
-98,50,0,0,0,0,0,0,0,0,0,-1,1126,974,0,0
-91,50,0,0,0,0,0,0,0,0,0,-1,1133,974,0,0
-84,50,0,0,0,0,0,0,0,0,0,-1,1140,974,0,0
-77,50,0,0,0,0,0,0,0,0,0,-1,1147,974,0,0
-70,50,0,0,0,0,0,0,0,0,0,-1,1154,974,0,0
-63,50,0,0,0,0,0,0,0,0,0,-1,1161,974,0,0
-56,50,0,0,0,0,0,0,0,0,0,-1,1168,974,0,0
-49,50,0,0,0,0,0,0,0,0,0,-1,1175,974,0,0
-42,50,0,0,0,0,0,0,0,0,0,-1,1182,974,0,0
-35,50,0,0,0,0,0,0,0,0,0,-1,1189,974,0,0
-28,50,0,0,0,0,0,0,0,0,0,-1,1196,974,0,0
-21,50,0,0,0,0,0,0,0,0,0,-1,1203,974,0,0
-14,50,0,0,0,0,0,0,0,0,0,-1,1210,974,0,0
-7,50,0,0,0,0,0,0,0,0,0,-1,1217,974,0,0
0,50,0,0,0,0,0,0,0,0,0,-1,1224,974,0,0
7,50,0,0,0,0,0,0,0,0,0,-1,1231,974,0,0
14,50,0,0,0,0,0,0,0,0,0,-1,1238,974,0,0
21,50,0,0,0,0,0,0,0,0,0,-1,1245,974,0,0
28,50,0,0,0,0,0,0,0,0,0,-1,1252,974,0,0
35,50,0,0,0,0,0,0,0,0,0,-1,1259,974,0,0
42,50,0,0,0,0,0,0,0,0,0,-1,1266,974,0,0
49,50,0,0,0,0,0,0,0,0,0,-1,1273,974,0,0
56,50,0,0,0,0,0,0,0,0,0,-1,1280,974,0,0
63,50,0,0,0,0,0,0,0,0,0,-1,1287,974,0,0
70,50,0,0,0,0,0,0,0,0,0,-1,1294,974,0,0
77,50,0,0,0,0,0,0,0,0,0,-1,1301,974,0,0
84,50,0,0,0,0,0,0,0,0,0,-1,1308,974,0,0
91,50,0,0,0,0,0,0,0,0,0,-1,1315,974,0,0
98,50,0,0,0,0,0,0,0,0,0,-1,1322,974,0,0
105,50,0,0,0,0,0,0,0,0,0,-1,1329,974,0,0
112,50,0,0,0,0,0,0,0,0,0,-1,1336,974,0,0
119,50,0,0,0,0,0,0,0,0,0,-1,1343,974,0,0
126,50,0,0,0,0,0,0,0,0,0,-1,1350,974,0,0
133,50,0,0,0,0,0,0,0,0,0,-1,1357,974,0,0
140,50,0,0,0,0,0,0,0,0,0,-1,1364,974,0,0
147,50,0,0,0,0,0,0,0,0,0,-1,1371,974,0,0
154,50,0,0,0,0,0,0,0,0,0,-1,1378,974,0,0
161,50,0,0,0,0,0,0,0,0,0,-1,1385,974,0,0
168,50,0,0,0,0,0,0,0,0,0,-1,1392,974,0,0
175,50,0,0,0,0,0,0,0,0,0,-1,1399,974,0,0
182,50,0,0,0,0,0,0,0,0,0,-1,1406,974,0,0
189,50,0,0,0,0,0,0,0,0,0,-1,1413,974,0,0
196,50,0,0,0,0,0,0,0,0,0,-1,1420,974,0,0
203,50,0,0,0,0,0,0,0,0,0,-1,1427,974,0,0
210,50,0,0,0,0,0,0,0,0,0,-1,1434,974,0,0
217,50,0,0,0,0,0,0,0,0,0,-1,1441,974,0,0
224,50,0,0,0,0,0,0,0,0,0,-1,1448,974,0,0
231,50,0,0,0,0,0,0,0,0,0,-1,1455,974,0,0
238,50,0,0,0,0,0,0,0,0,0,-1,1462,974,0,0
245,50,0,0,0,0,0,0,0,0,0,-1,1469,974,0,0
252,50,0,0,0,0,0,0,0,0,0,-1,1476,974,0,0
259,50,0,0,0,0,0,0,0,0,0,-1,1483,974,0,0
266,50,0,0,0,0,0,0,0,0,0,-1,1490,974,0,0
273,50,0,0,0,0,0,0,0,0,0,-1,1497,974,0,0
280,50,0,0,0,0,0,0,0,0,0,-1,1504,974,0,0
287,50,0,0,0,0,0,0,0,0,0,-1,1511,974,0,0
294,50,0,0,0,0,0,0,0,0,0,-1,1518,974,0,0
301,50,0,0,0,0,0,0,0,0,0,-1,1525,974,0,0
308,50,0,0,0,0,0,0,0,0,0,-1,1532,974,0,0
315,50,0,0,0,0,0,0,0,0,0,-1,1539,974,0,0
322,50,0,0,0,0,0,0,0,0,0,-1,1546,974,0,0
329,50,0,0,0,0,0,0,0,0,0,-1,1553,974,0,0
336,50,0,0,0,0,0,0,0,0,0,-1,1560,974,0,0
343,50,0,0,0,0,0,0,0,0,0,-1,1567,974,0,0
350,50,0,0,0,0,0,0,0,0,0,-1,1574,974,0,0
357,50,0,0,0,0,0,0,0,0,0,-1,1581,974,0,0
364,50,0,0,0,0,0,0,0,0,0,-1,1588,974,0,0
371,50,0,0,0,0,0,0,0,0,0,-1,1595,974,0,0
378,50,0,0,0,0,0,0,0,0,0,-1,1602,974,0,0
385,50,0,0,0,0,0,0,0,0,0,-1,1609,974,0,0
392,50,0,0,0,0,0,0,0,0,0,-1,1616,974,0,0
399,50,0,0,0,0,0,0,0,0,0,-1,1623,974,0,0
406,50,0,0,0,0,0,0,0,0,0,-1,1630,974,0,0
413,50,0,0,0,0,0,0,0,0,0,-1,1637,974,0,0
420,50,0,0,0,0,0,0,0,0,0,-1,1644,974,0,0
427,50,0,0,0,0,0,0,0,0,0,-1,1651,974,0,0
434,50,0,0,0,0,0,0,0,0,0,-1,1658,974,0,0
441,50,0,0,0,0,0,0,0,0,0,-1,1665,974,0,0
448,50,0,0,0,0,0,0,0,0,0,-1,1672,974,0,0
455,50,0,0,0,0,0,0,0,0,0,-1,1679,974,0,0
462,50,0,0,0,0,0,0,0,0,0,-1,1686,974,0,0
469,50,0,0,0,0,0,0,0,0,0,-1,1693,974,0,0
476,50,0,0,0,0,0,0,0,0,0,-1,1700,974,0,0
483,50,0,0,0,0,0,0,0,0,0,-1,1707,974,0,0
490,50,0,0,0,0,0,0,0,0,0,-1,1714,974,0,0
497,50,0,0,0,0,0,0,0,0,0,-1,1721,974,0,0
504,50,0,0,0,0,0,0,0,0,0,-1,1728,974,0,0
511,50,0,0,0,0,0,0,0,0,0,-1,1735,974,0,0
518,50,0,0,0,0,0,0,0,0,0,-1,1742,974,0,0
525,50,0,0,0,0,0,0,0,0,0,-1,1749,974,0,0
532,50,0,0,0,0,0,0,0,0,0,-1,1756,974,0,0
539,50,0,0,0,0,0,0,0,0,0,-1,1763,974,0,0
546,50,0,0,0,0,0,0,0,0,0,-1,1770,974,0,0
553,50,0,0,0,0,0,0,0,0,0,-1,1777,974,0,0
560,50,0,0,0,0,0,0,0,0,0,-1,1784,974,0,0
567,50,0,0,0,0,0,0,0,0,0,-1,1791,974,0,0
574,50,0,0,0,0,0,0,0,0,0,-1,1798,974,0,0
581,50,0,0,0,0,0,0,0,0,0,-1,1805,974,0,0
588,50,0,0,0,0,0,0,0,0,0,-1,1812,974,0,0
595,50,0,0,0,0,0,0,0,0,0,-1,1819,974,0,0
602,50,0,0,0,0,0,0,0,0,0,-1,1826,974,0,0
609,50,0,0,0,0,0,0,0,0,0,-1,1833,974,0,0
616,50,0,0,0,0,0,0,0,0,0,-1,1840,974,0,0
623,50,0,0,0,0,0,0,0,0,0,-1,1847,974,0,0
630,50,0,0,0,0,0,0,0,0,0,-1,1854,974,0,0
637,50,0,0,0,0,0,0,0,0,0,-1,1861,974,0,0
644,50,21.1769,3.09534,0.00425526,0.00534243,-0.000672322,0.00566343,0.00393427,-1.12535,0.00335138,0.0379337,1868,974,21.1769,-3.09533
651,50,21.1975,3.02972,0.00285743,0.00450244,-0.00115064,0.00509432,0.00226555,-1.0957,0.00294719,0.0325196,1875,974,21.1975,-3.02975
658,50,21.2255,3.03192,0.00178956,0.00380125,-0.00110688,0.00429103,0.00129977,-1.1542,0.00254078,0.0384195,1882,974,21.2254,-3.03192
665,50,21.1953,2.9726,0.000718241,0.00341138,-0.000476743,0.00349329,0.000636338,-1.40066,0.00214839,0.0444394,1889,974,21.1953,-2.97257
672,50,21.272,2.66199,-0.000523962,0.00321495,0.000585918,0.00330462,-0.00061363,1.41894,0.00243355,0.0440078,1896,974,21.272,-2.66201
679,50,21.1265,2.79742,-0.00191269,0.00302874,0.00179144,0.00360986,-0.00249381,1.25712,0.00354353,0.0407358,1903,974,21.1265,-2.79743
686,50,21.0385,2.78699,-0.00300129,0.00281613,0.00282587,0.00396281,-0.00414796,1.18532,0.00468316,0.0411419,1910,974,21.0385,-2.78697
693,50,21.1044,2.8504,-0.00377996,0.0024994,0.0036426,0.00416868,-0.00544925,1.14109,0.0055693,0.039545,1917,974,21.1043,-2.85041
700,50,21.2317,2.94934,-0.00445349,0.00228159,0.00412449,0.00423868,-0.00641058,1.12775,0.00619083,0.0223559,1924,974,21.2317,-2.94936
707,50,21.2126,3.19659,-0.00507816,0.00219919,0.00434277,0.00422617,-0.00710514,1.1341,0.00661214,0.0305773,1931,974,21.2127,-3.19661
714,50,21.0734,3.55914,0,0,0,0,0,0,0,-1,1938,974,21.0733,-3.55917
721,50,20.5498,3.8913,-0.00573388,0.00200438,0.0044294,0.00401656,-0.00774606,1.14439,0.006904,0.0352465,1945,974,20.5499,-3.89131
728,50,20.3668,4.00635,-0.00533048,0.00192634,0.00409386,0.00376831,-0.00717244,1.148,0.00641776,0.0194996,1952,974,20.3668,-4.00636
735,50,20.4049,4.07501,-0.00440153,0.00198484,0.00328123,0.00337018,-0.00578687,1.1713,0.00534784,0.0183163,1959,974,20.4049,-4.07504
742,50,20.3934,4.17603,-0.00362751,0.00250113,0.00196183,0.00307533,-0.00420171,1.28606,0.00421814,0.0142596,1966,974,20.3935,-4.17602
749,50,20.3759,4.25446,-0.00347053,0.00369008,0.000469948,0.00372079,-0.00350124,1.50554,0.00417029,0.0147859,1973,974,20.3758,-4.25444
756,50,20.3661,4.33679,-0.00315529,0.00488426,-0.000437937,0.00490804,-0.00317908,-1.51654,0.00470453,0.011787,1980,974,20.3661,-4.33681
763,50,20.3693,4.4129,-0.00304427,0.0057443,-0.00114543,0.00589114,-0.0031911,-1.4433,0.00532031,0.0120199,1987,974,20.3692,-4.41289
770,50,20.3558,4.47266,-0.00341083,0.0073952,-0.00167028,0.00764748,-0.00366311,-1.42089,0.00666386,0.0116155,1994,974,20.3558,-4.47267
777,50,20.3427,4.56299,-0.00457992,0.00930099,-0.00156089,0.00947434,-0.00475327,-1.46019,0.0083637,0.0224461,2001,974,20.3426,-4.56301
784,50,20.3187,4.39172,-0.00711123,0.0113688,-0.000610108,0.0113889,-0.00713135,-1.53783,0.0107864,0.0393031,2008,974,20.3187,-4.39174
791,50,20.4202,4.1947,0,0,0,0,0,0,0,-1,2015,974,20.4202,-4.19473
798,50,20.8456,4.17566,-0.015886,0.0150487,0.00429246,0.0156332,-0.0164706,1.43544,0.0185373,0.0471061,2022,974,20.8455,-4.17565
805,50,20.9639,4.12756,-0.0224333,0.0161609,0.00891681,0.0181215,-0.0243938,1.35437,0.0246351,0.0470554,2029,974,20.9639,-4.12759
812,50,0,0,0,0,0,0,0,0,0,-1,2036,974,0,0
-700,43,0,0,0,0,0,0,0,0,0,-1,524,981,0,0
-693,43,-11.2668,5.11542,-0.0535436,-0.00683662,-0.0404757,0.0165396,-0.0769198,-1.04706,0.0575903,0.0447141,531,981,-11.2668,-5.11545
-686,43,-11.7745,4.15149,-0.0433068,-0.00570263,-0.0341292,0.0144609,-0.0634703,-1.03717,0.0478676,0.0431133,538,981,-11.7745,-4.15149
-679,43,-12.4288,3.20758,-0.0351006,-0.00464322,-0.0278053,0.0118306,-0.0515744,-1.03593,0.0389303,0.0420432,545,981,-12.4288,-3.2076
-672,43,-12.973,2.46289,-0.0282942,-0.00362276,-0.0219667,0.00923485,-0.0411518,-1.04124,0.0309751,0.0478827,552,981,-12.9729,-2.46287
-665,43,-13.2855,2.11853,0,0,0,0,0,0,0,-1,559,981,-13.2855,-2.11852
-658,43,-13.349,2.73962,0,0,0,0,0,0,0,-1,566,981,-13.349,-2.73964
-651,43,-13.4254,2.43988,-0.0136867,-0.00101326,-0.00876499,0.00346571,-0.0181657,-1.09838,0.0134157,0.0368703,573,981,-13.4254,-2.43988
-644,43,-13.5121,2.05878,-0.0103395,-0.000416501,-0.0060227,0.00242518,-0.0131811,-1.12994,0.00969743,0.0176607,580,981,-13.5121,-2.0588
-637,43,-13.5251,2.04114,-0.00733665,0.000665941,-0.00430908,0.002545,-0.00921571,-1.15959,0.00714486,0.0127713,587,981,-13.5251,-2.04111
-630,43,-13.5283,2.00372,-0.00535617,-2.63622e-05,-0.00263333,0.00105522,-0.00643775,-1.18108,0.00468337,0.0122469,594,981,-13.5283,-2.00373
-623,43,-13.5385,1.94128,-0.00428359,0.000764985,-0.00177342,0.00132567,-0.00484428,-1.26458,0.00375034,0.0110598,601,981,-13.5384,-1.94126
-616,43,-13.5363,1.87402,-0.00387871,0.00109414,-0.00199218,0.00179379,-0.00457836,-1.23305,0.00379424,0.00997938,608,981,-13.5363,-1.874
-609,43,-13.5421,1.80298,-0.00371113,0.00118024,-0.00236721,0.00213824,-0.00466913,-1.18625,0.00401976,0.0120306,615,981,-13.542,-1.80298
-602,43,-13.5441,1.73242,-0.004032,0.00136175,-0.0028457,0.00258548,-0.00525573,-1.16467,0.00461379,0.0148747,622,981,-13.5441,-1.73242
-595,43,-13.5323,1.672,-0.00435213,0.000917354,-0.00339667,0.00258136,-0.00601614,-1.11527,0.0050941,0.0134363,629,981,-13.5323,-1.67202
-588,43,-13.5551,1.51727,-0.00440342,0.000480566,-0.00374235,0.00250719,-0.00643004,-1.07447,0.00532302,0.0129007,636,981,-13.5551,-1.51725
-581,43,-13.7166,1.20795,-0.00426062,0.000281569,-0.00387666,0.0025034,-0.00648245,-1.05037,0.00535484,0.0189143,643,981,-13.7166,-1.20792
-574,43,-13.8018,1.0481,-0.00403091,0.000117722,-0.00371026,0.00229415,-0.00620734,-1.04029,0.0050787,0.0266547,650,981,-13.8018,-1.04807
-567,43,-13.7475,0.947998,-0.00361494,-0.000109632,-0.00342453,0.00198469,-0.00570926,-1.02192,0.00461234,0.0371621,657,981,-13.7475,-0.948028
-560,43,-13.7557,0.915466,-0.00272919,-0.000381693,-0.00292358,0.00159495,-0.00470583,-0.976288,0.00378267,0.0429929,664,981,-13.7557,-0.91547
-553,43,-13.9211,0.826965,0,0,0,0,0,0,0,-1,671,981,-13.9212,-0.826946
-546,43,-13.9556,0.810852,0.000493512,-0.000777795,-0.00153844,0.00152245,-0.00180673,-0.58949,0.00192444,0.0415411,678,981,-13.9555,-0.81083
-539,43,-13.7437,0.652405,0.00276905,-0.000737156,-0.00080517,0.00294511,-0.000913216,-0.215273,0.00232829,0.0453714,685,981,-13.7437,-0.652406
-532,43,-13.7637,0.778503,0.00512874,-0.000194855,-0.000436886,0.00516435,-0.00023047,-0.0813407,0.00352224,0.045069,692,981,-13.7637,-0.778474
-525,43,-13.8376,0.882263,0.0065825,0.00133759,-0.000631268,0.00665741,0.00126268,-0.118111,0.00408299,0.0453206,699,981,-13.8376,-0.882284
-518,43,0,0,0,0,0,0,0,0,0,-1,706,981,0,0
-511,43,0,0,0,0,0,0,0,0,0,-1,713,981,0,0
-504,43,0,0,0,0,0,0,0,0,0,-1,720,981,0,0
-497,43,0,0,0,0,0,0,0,0,0,-1,727,981,0,0
-490,43,0,0,0,0,0,0,0,0,0,-1,734,981,0,0
-483,43,0,0,0,0,0,0,0,0,0,-1,741,981,0,0
-476,43,0,0,0,0,0,0,0,0,0,-1,748,981,0,0
-469,43,0,0,0,0,0,0,0,0,0,-1,755,981,0,0
-462,43,0,0,0,0,0,0,0,0,0,-1,762,981,0,0
-455,43,0,0,0,0,0,0,0,0,0,-1,769,981,0,0
-448,43,0,0,0,0,0,0,0,0,0,-1,776,981,0,0
-441,43,0,0,0,0,0,0,0,0,0,-1,783,981,0,0
-434,43,0,0,0,0,0,0,0,0,0,-1,790,981,0,0
-427,43,0,0,0,0,0,0,0,0,0,-1,797,981,0,0
-420,43,0,0,0,0,0,0,0,0,0,-1,804,981,0,0
-413,43,0,0,0,0,0,0,0,0,0,-1,811,981,0,0
-406,43,0,0,0,0,0,0,0,0,0,-1,818,981,0,0
-399,43,0,0,0,0,0,0,0,0,0,-1,825,981,0,0
-392,43,0,0,0,0,0,0,0,0,0,-1,832,981,0,0
-385,43,0,0,0,0,0,0,0,0,0,-1,839,981,0,0
-378,43,0,0,0,0,0,0,0,0,0,-1,846,981,0,0
-371,43,0,0,0,0,0,0,0,0,0,-1,853,981,0,0
-364,43,0,0,0,0,0,0,0,0,0,-1,860,981,0,0
-357,43,0,0,0,0,0,0,0,0,0,-1,867,981,0,0
-350,43,0,0,0,0,0,0,0,0,0,-1,874,981,0,0
-343,43,0,0,0,0,0,0,0,0,0,-1,881,981,0,0
-336,43,0,0,0,0,0,0,0,0,0,-1,888,981,0,0
-329,43,0,0,0,0,0,0,0,0,0,-1,895,981,0,0
-322,43,0,0,0,0,0,0,0,0,0,-1,902,981,0,0
-315,43,0,0,0,0,0,0,0,0,0,-1,909,981,0,0
-308,43,0,0,0,0,0,0,0,0,0,-1,916,981,0,0
-301,43,0,0,0,0,0,0,0,0,0,-1,923,981,0,0
-294,43,0,0,0,0,0,0,0,0,0,-1,930,981,0,0
-287,43,0,0,0,0,0,0,0,0,0,-1,937,981,0,0
-280,43,0,0,0,0,0,0,0,0,0,-1,944,981,0,0
-273,43,0,0,0,0,0,0,0,0,0,-1,951,981,0,0
-266,43,0,0,0,0,0,0,0,0,0,-1,958,981,0,0
-259,43,0,0,0,0,0,0,0,0,0,-1,965,981,0,0
-252,43,0,0,0,0,0,0,0,0,0,-1,972,981,0,0
-245,43,0,0,0,0,0,0,0,0,0,-1,979,981,0,0
-238,43,0,0,0,0,0,0,0,0,0,-1,986,981,0,0
-231,43,0,0,0,0,0,0,0,0,0,-1,993,981,0,0
-224,43,0,0,0,0,0,0,0,0,0,-1,1000,981,0,0
-217,43,0,0,0,0,0,0,0,0,0,-1,1007,981,0,0
-210,43,0,0,0,0,0,0,0,0,0,-1,1014,981,0,0
-203,43,0,0,0,0,0,0,0,0,0,-1,1021,981,0,0
-196,43,0,0,0,0,0,0,0,0,0,-1,1028,981,0,0
-189,43,0,0,0,0,0,0,0,0,0,-1,1035,981,0,0
-182,43,0,0,0,0,0,0,0,0,0,-1,1042,981,0,0
-175,43,0,0,0,0,0,0,0,0,0,-1,1049,981,0,0
-168,43,0,0,0,0,0,0,0,0,0,-1,1056,981,0,0
-161,43,0,0,0,0,0,0,0,0,0,-1,1063,981,0,0
-154,43,0,0,0,0,0,0,0,0,0,-1,1070,981,0,0
-147,43,0,0,0,0,0,0,0,0,0,-1,1077,981,0,0
-140,43,0,0,0,0,0,0,0,0,0,-1,1084,981,0,0
-133,43,0,0,0,0,0,0,0,0,0,-1,1091,981,0,0
-126,43,0,0,0,0,0,0,0,0,0,-1,1098,981,0,0
-119,43,0,0,0,0,0,0,0,0,0,-1,1105,981,0,0
-112,43,0,0,0,0,0,0,0,0,0,-1,1112,981,0,0
-105,43,0,0,0,0,0,0,0,0,0,-1,1119,981,0,0
-98,43,0,0,0,0,0,0,0,0,0,-1,1126,981,0,0
-91,43,0,0,0,0,0,0,0,0,0,-1,1133,981,0,0
-84,43,0,0,0,0,0,0,0,0,0,-1,1140,981,0,0
-77,43,0,0,0,0,0,0,0,0,0,-1,1147,981,0,0
-70,43,0,0,0,0,0,0,0,0,0,-1,1154,981,0,0
-63,43,0,0,0,0,0,0,0,0,0,-1,1161,981,0,0
-56,43,0,0,0,0,0,0,0,0,0,-1,1168,981,0,0
-49,43,0,0,0,0,0,0,0,0,0,-1,1175,981,0,0
-42,43,0,0,0,0,0,0,0,0,0,-1,1182,981,0,0
-35,43,0,0,0,0,0,0,0,0,0,-1,1189,981,0,0
-28,43,0,0,0,0,0,0,0,0,0,-1,1196,981,0,0
-21,43,0,0,0,0,0,0,0,0,0,-1,1203,981,0,0
-14,43,0,0,0,0,0,0,0,0,0,-1,1210,981,0,0
-7,43,0,0,0,0,0,0,0,0,0,-1,1217,981,0,0
0,43,0,0,0,0,0,0,0,0,0,-1,1224,981,0,0
7,43,0,0,0,0,0,0,0,0,0,-1,1231,981,0,0
14,43,0,0,0,0,0,0,0,0,0,-1,1238,981,0,0
21,43,0,0,0,0,0,0,0,0,0,-1,1245,981,0,0
28,43,0,0,0,0,0,0,0,0,0,-1,1252,981,0,0
35,43,0,0,0,0,0,0,0,0,0,-1,1259,981,0,0
42,43,0,0,0,0,0,0,0,0,0,-1,1266,981,0,0
49,43,0,0,0,0,0,0,0,0,0,-1,1273,981,0,0
56,43,0,0,0,0,0,0,0,0,0,-1,1280,981,0,0
63,43,0,0,0,0,0,0,0,0,0,-1,1287,981,0,0
70,43,0,0,0,0,0,0,0,0,0,-1,1294,981,0,0
77,43,0,0,0,0,0,0,0,0,0,-1,1301,981,0,0
84,43,0,0,0,0,0,0,0,0,0,-1,1308,981,0,0
91,43,0,0,0,0,0,0,0,0,0,-1,1315,981,0,0
98,43,0,0,0,0,0,0,0,0,0,-1,1322,981,0,0
105,43,0,0,0,0,0,0,0,0,0,-1,1329,981,0,0
112,43,0,0,0,0,0,0,0,0,0,-1,1336,981,0,0
119,43,0,0,0,0,0,0,0,0,0,-1,1343,981,0,0
126,43,0,0,0,0,0,0,0,0,0,-1,1350,981,0,0
133,43,0,0,0,0,0,0,0,0,0,-1,1357,981,0,0
140,43,0,0,0,0,0,0,0,0,0,-1,1364,981,0,0
147,43,0,0,0,0,0,0,0,0,0,-1,1371,981,0,0
154,43,0,0,0,0,0,0,0,0,0,-1,1378,981,0,0
161,43,0,0,0,0,0,0,0,0,0,-1,1385,981,0,0
168,43,0,0,0,0,0,0,0,0,0,-1,1392,981,0,0
175,43,0,0,0,0,0,0,0,0,0,-1,1399,981,0,0
182,43,0,0,0,0,0,0,0,0,0,-1,1406,981,0,0
189,43,0,0,0,0,0,0,0,0,0,-1,1413,981,0,0
196,43,0,0,0,0,0,0,0,0,0,-1,1420,981,0,0
203,43,0,0,0,0,0,0,0,0,0,-1,1427,981,0,0
210,43,0,0,0,0,0,0,0,0,0,-1,1434,981,0,0
217,43,0,0,0,0,0,0,0,0,0,-1,1441,981,0,0
224,43,0,0,0,0,0,0,0,0,0,-1,1448,981,0,0
231,43,0,0,0,0,0,0,0,0,0,-1,1455,981,0,0
238,43,0,0,0,0,0,0,0,0,0,-1,1462,981,0,0
245,43,0,0,0,0,0,0,0,0,0,-1,1469,981,0,0
252,43,0,0,0,0,0,0,0,0,0,-1,1476,981,0,0
259,43,0,0,0,0,0,0,0,0,0,-1,1483,981,0,0
266,43,0,0,0,0,0,0,0,0,0,-1,1490,981,0,0
273,43,0,0,0,0,0,0,0,0,0,-1,1497,981,0,0
280,43,0,0,0,0,0,0,0,0,0,-1,1504,981,0,0
287,43,0,0,0,0,0,0,0,0,0,-1,1511,981,0,0
294,43,0,0,0,0,0,0,0,0,0,-1,1518,981,0,0
301,43,0,0,0,0,0,0,0,0,0,-1,1525,981,0,0
308,43,0,0,0,0,0,0,0,0,0,-1,1532,981,0,0
315,43,0,0,0,0,0,0,0,0,0,-1,1539,981,0,0
322,43,0,0,0,0,0,0,0,0,0,-1,1546,981,0,0
329,43,0,0,0,0,0,0,0,0,0,-1,1553,981,0,0
336,43,0,0,0,0,0,0,0,0,0,-1,1560,981,0,0
343,43,0,0,0,0,0,0,0,0,0,-1,1567,981,0,0
350,43,0,0,0,0,0,0,0,0,0,-1,1574,981,0,0
357,43,0,0,0,0,0,0,0,0,0,-1,1581,981,0,0
364,43,0,0,0,0,0,0,0,0,0,-1,1588,981,0,0
371,43,0,0,0,0,0,0,0,0,0,-1,1595,981,0,0
378,43,0,0,0,0,0,0,0,0,0,-1,1602,981,0,0
385,43,0,0,0,0,0,0,0,0,0,-1,1609,981,0,0
392,43,0,0,0,0,0,0,0,0,0,-1,1616,981,0,0
399,43,0,0,0,0,0,0,0,0,0,-1,1623,981,0,0
406,43,0,0,0,0,0,0,0,0,0,-1,1630,981,0,0
413,43,0,0,0,0,0,0,0,0,0,-1,1637,981,0,0
420,43,0,0,0,0,0,0,0,0,0,-1,1644,981,0,0
427,43,0,0,0,0,0,0,0,0,0,-1,1651,981,0,0
434,43,0,0,0,0,0,0,0,0,0,-1,1658,981,0,0
441,43,0,0,0,0,0,0,0,0,0,-1,1665,981,0,0
448,43,0,0,0,0,0,0,0,0,0,-1,1672,981,0,0
455,43,0,0,0,0,0,0,0,0,0,-1,1679,981,0,0
462,43,0,0,0,0,0,0,0,0,0,-1,1686,981,0,0
469,43,0,0,0,0,0,0,0,0,0,-1,1693,981,0,0
476,43,0,0,0,0,0,0,0,0,0,-1,1700,981,0,0
483,43,0,0,0,0,0,0,0,0,0,-1,1707,981,0,0
490,43,0,0,0,0,0,0,0,0,0,-1,1714,981,0,0
497,43,0,0,0,0,0,0,0,0,0,-1,1721,981,0,0
504,43,0,0,0,0,0,0,0,0,0,-1,1728,981,0,0
511,43,0,0,0,0,0,0,0,0,0,-1,1735,981,0,0
518,43,0,0,0,0,0,0,0,0,0,-1,1742,981,0,0
525,43,0,0,0,0,0,0,0,0,0,-1,1749,981,0,0
532,43,0,0,0,0,0,0,0,0,0,-1,1756,981,0,0
539,43,0,0,0,0,0,0,0,0,0,-1,1763,981,0,0
546,43,0,0,0,0,0,0,0,0,0,-1,1770,981,0,0
553,43,0,0,0,0,0,0,0,0,0,-1,1777,981,0,0
560,43,0,0,0,0,0,0,0,0,0,-1,1784,981,0,0
567,43,0,0,0,0,0,0,0,0,0,-1,1791,981,0,0
574,43,0,0,0,0,0,0,0,0,0,-1,1798,981,0,0
581,43,0,0,0,0,0,0,0,0,0,-1,1805,981,0,0
588,43,0,0,0,0,0,0,0,0,0,-1,1812,981,0,0
595,43,0,0,0,0,0,0,0,0,0,-1,1819,981,0,0
602,43,0,0,0,0,0,0,0,0,0,-1,1826,981,0,0
609,43,0,0,0,0,0,0,0,0,0,-1,1833,981,0,0
616,43,0,0,0,0,0,0,0,0,0,-1,1840,981,0,0
623,43,0,0,0,0,0,0,0,0,0,-1,1847,981,0,0
630,43,0,0,0,0,0,0,0,0,0,-1,1854,981,0,0
637,43,0,0,0,0,0,0,0,0,0,-1,1861,981,0,0
644,43,21.113,2.85846,0.00711469,0.00461183,-0.000627935,0.00726339,0.00446312,-0.232533,0.00422999,0.0373122,1868,981,21.113,-2.85845
651,43,21.2584,2.98633,0.00472042,0.00387179,-0.00117929,0.00554941,0.0030428,-0.612706,0.00320893,0.0372403,1875,981,21.2584,-2.98636
658,43,21.3186,3.19025,0.0029646,0.00319997,-0.00116988,0.00425807,0.0019065,-0.835527,0.00246287,0.0381842,1882,981,21.3186,-3.19027
665,43,21.312,2.97827,0.00148178,0.00284301,-0.000555658,0.00304103,0.00128376,-1.22847,0.00176282,0.0394776,1889,981,21.312,-2.97827
672,43,21.3279,2.59631,-1.30053e-05,0.00269305,0.000591637,0.00281675,-0.000136703,1.36469,0.00192502,0.0400893,1896,981,21.3279,-2.59631
679,43,21.1788,2.60638,-0.00161752,0.00256775,0.00194428,0.00333157,-0.00238134,1.19646,0.00331352,0.0398219,1903,981,21.1788,-2.60639
686,43,21.0535,2.78375,-0.00286583,0.00242367,0.00313542,0.00388082,-0.00432298,1.13576,0.00473876,0.0409589,1910,981,21.0535,-2.78375
693,43,21.0955,2.8609,-0.00378893,0.00218989,0.00409775,0.00427277,-0.00587181,1.10053,0.00588118,0.0371218,1917,981,21.0954,-2.8609
700,43,21.2345,2.94543,-0.00457099,0.00203431,0.00468322,0.00446229,-0.00699896,1.0925,0.00667096,0.0313833,1924,981,21.2344,-2.94544
707,43,21.233,3.03485,-0.00530946,0.00200814,0.00499451,0.00454062,-0.00784193,1.10152,0.00723327,0.0268716,1931,981,21.2331,-3.03487
714,43,21.2336,3.23096,-0.00583119,0.00194056,0.00513237,0.00449217,-0.0083828,1.10942,0.00754565,0.0313281,1938,981,21.2336,-3.23098
721,43,20.9517,3.70868,-0.00601782,0.00186245,0.00519229,0.00444034,-0.0085957,1.10997,0.00765276,0.0313319,1945,981,20.9517,-3.70868
728,43,20.6106,3.97229,-0.00568143,0.00182574,0.00484645,0.0042022,-0.00805789,1.1149,0.0071941,0.0191585,1952,981,20.6106,-3.97229
735,43,20.5006,4.08783,-0.00495569,0.00184859,0.00396198,0.00366869,-0.0067758,1.14016,0.00611843,0.0139946,1959,981,20.5006,-4.08786
742,43,20.4744,4.15558,-0.00433686,0.00228944,0.00256683,0.00316742,-0.00521484,1.24122,0.00488739,0.0158769,1966,981,20.4743,-4.1556
749,43,20.4717,4.23529,-0.00430736,0.00333683,0.00100584,0.00346696,-0.00443749,1.44213,0.00457509,0.0172909,1973,981,20.4716,-4.2353
756,43,20.469,4.32349,-0.00412245,0.0044881,6.23944e-05,0.00448855,-0.00412291,1.56355,0.00497332,0.0159632,1980,981,20.469,-4.32347
763,43,20.4592,4.38281,-0.00409862,0.00523344,-0.000671001,0.00528144,-0.00414662,-1.49938,0.00545642,0.0185961,1987,981,20.4593,-4.38283
770,43,20.46,4.44879,-0.00448516,0.00672062,-0.00130078,0.00686963,-0.00463417,-1.45674,0.00668339,0.0156294,1994,981,20.46,-4.44879
777,43,20.4506,4.5022,-0.00556376,0.00844483,-0.00128425,0.00856159,-0.00568052,-1.48013,0.00827858,0.0200403,2001,981,20.4506,-4.50219
784,43,20.4644,4.42383,-0.00790284,0.0103118,-0.000398974,0.0103205,-0.00791158,-1.54891,0.0105569,0.0408026,2008,981,20.4643,-4.42381
791,43,20.4817,4.35736,0,0,0,0,0,0,0,-1,2015,981,20.4817,-4.35738
798,43,21.0548,4.0918,-0.0158843,0.0134391,0.00431641,0.0140613,-0.0165065,1.42764,0.0176671,0.0443497,2022,981,21.0549,-4.09181
805,43,21.1392,4.08276,-0.0217633,0.0140807,0.00878314,0.0161172,-0.0237998,1.34296,0.0231879,0.0455229,2029,981,21.1392,-4.08278
812,43,21.2463,4.04309,0,0,0,0,0,0,0,-1,2036,981,21.2464,-4.04307
-700,36,0,0,0,0,0,0,0,0,0,-1,524,988,0,0
-693,36,-10.7942,5.56458,-0.0654663,-0.00122591,-0.0281835,0.00938581,-0.076078,-1.21069,0.0541193,0.0454226,531,988,-10.7942,-5.5646
-686,36,-11.3753,4.20587,-0.0524956,-0.00157241,-0.0254648,0.00897639,-0.0630444,-1.17807,0.0453191,0.0415554,538,988,-11.3753,-4.20586
-679,36,-12.5281,3.29486,-0.0419285,-0.00167141,-0.0218181,0.00788488,-0.0514848,-1.15797,0.0372308,0.0443568,545,988,-12.5281,-3.29488
-672,36,-13.0137,2.52747,-0.0331932,-0.00155133,-0.0179542,0.00655795,-0.0413025,-1.14656,0.0299612,0.0472327,552,988,-13.0138,-2.52746
-665,36,-13.4657,2.12292,-0.0259279,-0.00126528,-0.0142326,0.00523498,-0.0324281,-1.14237,0.0235584,0.0461769,559,988,-13.4657,-2.12294
-658,36,-13.5108,2.08221,-0.0199315,-0.000882018,-0.0108474,0.00402885,-0.0248424,-1.14568,0.018055,0.0459803,566,988,-13.5108,-2.08222
-651,36,-13.5485,2.07056,-0.0150329,-0.000485728,-0.0079511,0.00301682,-0.0185355,-1.15586,0.0134756,0.0334686,573,988,-13.5485,-2.07054
-644,36,-13.5798,2.05573,-0.0110771,-0.000133573,-0.00572921,0.00231703,-0.0135277,-1.16661,0.00988181,0.0183588,580,988,-13.5798,-2.05574
-637,36,-13.599,2.021,-0.00766317,0.000840983,-0.00451795,0.0027931,-0.00961529,-1.16294,0.00751626,0.0139002,587,988,-13.599,-2.02099
-630,36,-13.5939,1.99359,-0.00523578,-0.00010988,-0.00309752,0.00134754,-0.0066932,-1.13102,0.00497256,0.0116806,594,988,-13.5939,-1.9936
-623,36,-13.6126,1.93115,-0.00389604,0.000665745,-0.00236992,0.00167408,-0.00490437,-1.16853,0.00394775,0.0107522,601,988,-13.6126,-1.93113
-616,36,-13.6122,1.86249,-0.00327595,0.000968709,-0.00266645,0.00225435,-0.00456159,-1.12153,0.00400963,0.00928676,608,988,-13.6122,-1.86251
-609,36,-13.5939,1.8161,-0.00296851,0.00109398,-0.00309521,0.00276494,-0.00463946,-1.07578,0.00432036,0.0141315,615,988,-13.5939,-1.81607
-602,36,-13.5953,1.73163,-0.00316274,0.00133172,-0.0035335,0.00327205,-0.00510308,-1.06863,0.00487375,0.0188848,622,988,-13.5953,-1.73165
-595,36,-13.5835,1.66479,-0.00337435,0.000915669,-0.00405013,0.00335374,-0.00581241,-1.02893,0.00535516,0.0201237,629,988,-13.5835,-1.66477
-588,36,-13.6219,1.4491,-0.00338321,0.000505515,-0.00439311,0.00336531,-0.00624301,-0.993737,0.00562969,0.0190285,636,988,-13.6219,-1.4491
-581,36,-13.717,1.11676,-0.00325919,0.000313887,-0.00451923,0.00338689,-0.0063322,-0.973631,0.00569655,0.0222574,643,988,-13.717,-1.11674
-574,36,-13.7713,1.10168,-0.00308772,0.000171478,-0.00432824,0.00316673,-0.00608297,-0.965442,0.00542807,0.0272796,650,988,-13.7713,-1.10171
-567,36,-13.7801,1.08289,-0.00276084,-6.13568e-05,-0.00398477,0.00279606,-0.00561826,-0.948696,0.00494826,0.0349863,657,988,-13.7801,-1.0829
-560,36,-13.7668,1.08386,-0.0020747,-0.000340833,-0.00340719,0.00230799,-0.00472353,-0.909976,0.00413873,0.0394111,664,988,-13.7668,-1.08387
-553,36,-13.9575,1.20166,-0.00100921,-0.000627135,-0.00267262,0.00186126,-0.00349761,-0.821077,0.00314166,0.0429445,671,988,-13.9575,-1.20166
-546,36,-14.0333,1.02124,0.000402437,-0.00087643,-0.00182329,0.00169517,-0.00216916,-0.616748,0.00223666,0.0457542,678,988,-14.0332,-1.02124
-539,36,-13.6381,0.38678,0.00213848,-0.00100546,-0.0010144,0.00243736,-0.00130434,-0.286533,0.00219304,0.0465152,685,988,-13.6381,-0.386788
-532,36,-13.5191,0.444458,0.00383059,-0.000689425,-0.000670729,0.00392802,-0.000786855,-0.144251,0.00291656,0.0467029,692,988,-13.5191,-0.444479
-525,36,-13.8188,0.732727,0.00455956,0.000510513,-0.000923586,0.00476028,0.000309793,-0.213999,0.00307546,0.0445087,699,988,-13.8188,-0.732732
-518,36,0,0,0,0,0,0,0,0,0,-1,706,988,0,0
-511,36,0,0,0,0,0,0,0,0,0,-1,713,988,0,0
-504,36,0,0,0,0,0,0,0,0,0,-1,720,988,0,0
-497,36,0,0,0,0,0,0,0,0,0,-1,727,988,0,0
-490,36,0,0,0,0,0,0,0,0,0,-1,734,988,0,0
-483,36,0,0,0,0,0,0,0,0,0,-1,741,988,0,0
-476,36,0,0,0,0,0,0,0,0,0,-1,748,988,0,0
-469,36,0,0,0,0,0,0,0,0,0,-1,755,988,0,0
-462,36,0,0,0,0,0,0,0,0,0,-1,762,988,0,0
-455,36,0,0,0,0,0,0,0,0,0,-1,769,988,0,0
-448,36,0,0,0,0,0,0,0,0,0,-1,776,988,0,0
-441,36,0,0,0,0,0,0,0,0,0,-1,783,988,0,0
-434,36,0,0,0,0,0,0,0,0,0,-1,790,988,0,0
-427,36,0,0,0,0,0,0,0,0,0,-1,797,988,0,0
-420,36,0,0,0,0,0,0,0,0,0,-1,804,988,0,0
-413,36,0,0,0,0,0,0,0,0,0,-1,811,988,0,0
-406,36,0,0,0,0,0,0,0,0,0,-1,818,988,0,0
-399,36,0,0,0,0,0,0,0,0,0,-1,825,988,0,0
-392,36,0,0,0,0,0,0,0,0,0,-1,832,988,0,0
-385,36,0,0,0,0,0,0,0,0,0,-1,839,988,0,0
-378,36,0,0,0,0,0,0,0,0,0,-1,846,988,0,0
-371,36,0,0,0,0,0,0,0,0,0,-1,853,988,0,0
-364,36,0,0,0,0,0,0,0,0,0,-1,860,988,0,0
-357,36,0,0,0,0,0,0,0,0,0,-1,867,988,0,0
-350,36,0,0,0,0,0,0,0,0,0,-1,874,988,0,0
-343,36,0,0,0,0,0,0,0,0,0,-1,881,988,0,0
-336,36,0,0,0,0,0,0,0,0,0,-1,888,988,0,0
-329,36,0,0,0,0,0,0,0,0,0,-1,895,988,0,0
-322,36,0,0,0,0,0,0,0,0,0,-1,902,988,0,0
-315,36,0,0,0,0,0,0,0,0,0,-1,909,988,0,0
-308,36,0,0,0,0,0,0,0,0,0,-1,916,988,0,0
-301,36,0,0,0,0,0,0,0,0,0,-1,923,988,0,0
-294,36,0,0,0,0,0,0,0,0,0,-1,930,988,0,0
-287,36,0,0,0,0,0,0,0,0,0,-1,937,988,0,0
-280,36,0,0,0,0,0,0,0,0,0,-1,944,988,0,0
-273,36,0,0,0,0,0,0,0,0,0,-1,951,988,0,0
-266,36,0,0,0,0,0,0,0,0,0,-1,958,988,0,0
-259,36,0,0,0,0,0,0,0,0,0,-1,965,988,0,0
-252,36,0,0,0,0,0,0,0,0,0,-1,972,988,0,0
-245,36,0,0,0,0,0,0,0,0,0,-1,979,988,0,0
-238,36,0,0,0,0,0,0,0,0,0,-1,986,988,0,0
-231,36,0,0,0,0,0,0,0,0,0,-1,993,988,0,0
-224,36,0,0,0,0,0,0,0,0,0,-1,1000,988,0,0
-217,36,0,0,0,0,0,0,0,0,0,-1,1007,988,0,0
-210,36,0,0,0,0,0,0,0,0,0,-1,1014,988,0,0
-203,36,0,0,0,0,0,0,0,0,0,-1,1021,988,0,0
-196,36,0,0,0,0,0,0,0,0,0,-1,1028,988,0,0
-189,36,0,0,0,0,0,0,0,0,0,-1,1035,988,0,0
-182,36,0,0,0,0,0,0,0,0,0,-1,1042,988,0,0
-175,36,0,0,0,0,0,0,0,0,0,-1,1049,988,0,0
-168,36,0,0,0,0,0,0,0,0,0,-1,1056,988,0,0
-161,36,0,0,0,0,0,0,0,0,0,-1,1063,988,0,0
-154,36,0,0,0,0,0,0,0,0,0,-1,1070,988,0,0
-147,36,0,0,0,0,0,0,0,0,0,-1,1077,988,0,0
-140,36,0,0,0,0,0,0,0,0,0,-1,1084,988,0,0
-133,36,0,0,0,0,0,0,0,0,0,-1,1091,988,0,0
-126,36,0,0,0,0,0,0,0,0,0,-1,1098,988,0,0
-119,36,0,0,0,0,0,0,0,0,0,-1,1105,988,0,0
-112,36,0,0,0,0,0,0,0,0,0,-1,1112,988,0,0
-105,36,0,0,0,0,0,0,0,0,0,-1,1119,988,0,0
-98,36,0,0,0,0,0,0,0,0,0,-1,1126,988,0,0
-91,36,0,0,0,0,0,0,0,0,0,-1,1133,988,0,0
-84,36,0,0,0,0,0,0,0,0,0,-1,1140,988,0,0
-77,36,0,0,0,0,0,0,0,0,0,-1,1147,988,0,0
-70,36,0,0,0,0,0,0,0,0,0,-1,1154,988,0,0
-63,36,0,0,0,0,0,0,0,0,0,-1,1161,988,0,0
-56,36,0,0,0,0,0,0,0,0,0,-1,1168,988,0,0
-49,36,0,0,0,0,0,0,0,0,0,-1,1175,988,0,0
-42,36,0,0,0,0,0,0,0,0,0,-1,1182,988,0,0
-35,36,0,0,0,0,0,0,0,0,0,-1,1189,988,0,0
-28,36,0,0,0,0,0,0,0,0,0,-1,1196,988,0,0
-21,36,0,0,0,0,0,0,0,0,0,-1,1203,988,0,0
-14,36,0,0,0,0,0,0,0,0,0,-1,1210,988,0,0
-7,36,0,0,0,0,0,0,0,0,0,-1,1217,988,0,0
0,36,0,0,0,0,0,0,0,0,0,-1,1224,988,0,0
7,36,0,0,0,0,0,0,0,0,0,-1,1231,988,0,0
14,36,0,0,0,0,0,0,0,0,0,-1,1238,988,0,0
21,36,0,0,0,0,0,0,0,0,0,-1,1245,988,0,0
28,36,0,0,0,0,0,0,0,0,0,-1,1252,988,0,0
35,36,0,0,0,0,0,0,0,0,0,-1,1259,988,0,0
42,36,0,0,0,0,0,0,0,0,0,-1,1266,988,0,0
49,36,0,0,0,0,0,0,0,0,0,-1,1273,988,0,0
56,36,0,0,0,0,0,0,0,0,0,-1,1280,988,0,0
63,36,0,0,0,0,0,0,0,0,0,-1,1287,988,0,0
70,36,0,0,0,0,0,0,0,0,0,-1,1294,988,0,0
77,36,0,0,0,0,0,0,0,0,0,-1,1301,988,0,0
84,36,0,0,0,0,0,0,0,0,0,-1,1308,988,0,0
91,36,0,0,0,0,0,0,0,0,0,-1,1315,988,0,0
98,36,0,0,0,0,0,0,0,0,0,-1,1322,988,0,0
105,36,0,0,0,0,0,0,0,0,0,-1,1329,988,0,0
112,36,0,0,0,0,0,0,0,0,0,-1,1336,988,0,0
119,36,0,0,0,0,0,0,0,0,0,-1,1343,988,0,0
126,36,0,0,0,0,0,0,0,0,0,-1,1350,988,0,0
133,36,0,0,0,0,0,0,0,0,0,-1,1357,988,0,0
140,36,0,0,0,0,0,0,0,0,0,-1,1364,988,0,0
147,36,0,0,0,0,0,0,0,0,0,-1,1371,988,0,0
154,36,0,0,0,0,0,0,0,0,0,-1,1378,988,0,0
161,36,0,0,0,0,0,0,0,0,0,-1,1385,988,0,0
168,36,0,0,0,0,0,0,0,0,0,-1,1392,988,0,0
175,36,0,0,0,0,0,0,0,0,0,-1,1399,988,0,0
182,36,0,0,0,0,0,0,0,0,0,-1,1406,988,0,0
189,36,0,0,0,0,0,0,0,0,0,-1,1413,988,0,0
196,36,0,0,0,0,0,0,0,0,0,-1,1420,988,0,0
203,36,0,0,0,0,0,0,0,0,0,-1,1427,988,0,0
210,36,0,0,0,0,0,0,0,0,0,-1,1434,988,0,0
217,36,0,0,0,0,0,0,0,0,0,-1,1441,988,0,0
224,36,0,0,0,0,0,0,0,0,0,-1,1448,988,0,0
231,36,0,0,0,0,0,0,0,0,0,-1,1455,988,0,0
238,36,0,0,0,0,0,0,0,0,0,-1,1462,988,0,0
245,36,0,0,0,0,0,0,0,0,0,-1,1469,988,0,0
252,36,0,0,0,0,0,0,0,0,0,-1,1476,988,0,0
259,36,0,0,0,0,0,0,0,0,0,-1,1483,988,0,0
266,36,0,0,0,0,0,0,0,0,0,-1,1490,988,0,0
273,36,0,0,0,0,0,0,0,0,0,-1,1497,988,0,0
280,36,0,0,0,0,0,0,0,0,0,-1,1504,988,0,0
287,36,0,0,0,0,0,0,0,0,0,-1,1511,988,0,0
294,36,0,0,0,0,0,0,0,0,0,-1,1518,988,0,0
301,36,0,0,0,0,0,0,0,0,0,-1,1525,988,0,0
308,36,0,0,0,0,0,0,0,0,0,-1,1532,988,0,0
315,36,0,0,0,0,0,0,0,0,0,-1,1539,988,0,0
322,36,0,0,0,0,0,0,0,0,0,-1,1546,988,0,0
329,36,0,0,0,0,0,0,0,0,0,-1,1553,988,0,0
336,36,0,0,0,0,0,0,0,0,0,-1,1560,988,0,0
343,36,0,0,0,0,0,0,0,0,0,-1,1567,988,0,0
350,36,0,0,0,0,0,0,0,0,0,-1,1574,988,0,0
357,36,0,0,0,0,0,0,0,0,0,-1,1581,988,0,0
364,36,0,0,0,0,0,0,0,0,0,-1,1588,988,0,0
371,36,0,0,0,0,0,0,0,0,0,-1,1595,988,0,0
378,36,0,0,0,0,0,0,0,0,0,-1,1602,988,0,0
385,36,0,0,0,0,0,0,0,0,0,-1,1609,988,0,0
392,36,0,0,0,0,0,0,0,0,0,-1,1616,988,0,0
399,36,0,0,0,0,0,0,0,0,0,-1,1623,988,0,0
406,36,0,0,0,0,0,0,0,0,0,-1,1630,988,0,0
413,36,0,0,0,0,0,0,0,0,0,-1,1637,988,0,0
420,36,0,0,0,0,0,0,0,0,0,-1,1644,988,0,0
427,36,0,0,0,0,0,0,0,0,0,-1,1651,988,0,0
434,36,0,0,0,0,0,0,0,0,0,-1,1658,988,0,0
441,36,0,0,0,0,0,0,0,0,0,-1,1665,988,0,0
448,36,0,0,0,0,0,0,0,0,0,-1,1672,988,0,0
455,36,0,0,0,0,0,0,0,0,0,-1,1679,988,0,0
462,36,0,0,0,0,0,0,0,0,0,-1,1686,988,0,0
469,36,0,0,0,0,0,0,0,0,0,-1,1693,988,0,0
476,36,0,0,0,0,0,0,0,0,0,-1,1700,988,0,0
483,36,0,0,0,0,0,0,0,0,0,-1,1707,988,0,0
490,36,0,0,0,0,0,0,0,0,0,-1,1714,988,0,0
497,36,0,0,0,0,0,0,0,0,0,-1,1721,988,0,0
504,36,0,0,0,0,0,0,0,0,0,-1,1728,988,0,0
511,36,0,0,0,0,0,0,0,0,0,-1,1735,988,0,0
518,36,0,0,0,0,0,0,0,0,0,-1,1742,988,0,0
525,36,0,0,0,0,0,0,0,0,0,-1,1749,988,0,0
532,36,0,0,0,0,0,0,0,0,0,-1,1756,988,0,0
539,36,0,0,0,0,0,0,0,0,0,-1,1763,988,0,0
546,36,0,0,0,0,0,0,0,0,0,-1,1770,988,0,0
553,36,0,0,0,0,0,0,0,0,0,-1,1777,988,0,0
560,36,0,0,0,0,0,0,0,0,0,-1,1784,988,0,0
567,36,0,0,0,0,0,0,0,0,0,-1,1791,988,0,0
574,36,0,0,0,0,0,0,0,0,0,-1,1798,988,0,0
581,36,0,0,0,0,0,0,0,0,0,-1,1805,988,0,0
588,36,0,0,0,0,0,0,0,0,0,-1,1812,988,0,0
595,36,0,0,0,0,0,0,0,0,0,-1,1819,988,0,0
602,36,0,0,0,0,0,0,0,0,0,-1,1826,988,0,0
609,36,0,0,0,0,0,0,0,0,0,-1,1833,988,0,0
616,36,0,0,0,0,0,0,0,0,0,-1,1840,988,0,0
623,36,0,0,0,0,0,0,0,0,0,-1,1847,988,0,0
630,36,0,0,0,0,0,0,0,0,0,-1,1854,988,0,0
637,36,0,0,0,0,0,0,0,0,0,-1,1861,988,0,0
644,36,21.1086,2.73169,0.00942796,0.00355792,-0.0002638,0.0094398,0.00354609,-0.0448197,0.00550596,0.0391451,1868,988,21.1087,-2.7317
651,36,21.2625,2.91992,0.00615588,0.00293024,-0.000888621,0.00638448,0.00270164,-0.251795,0.00370057,0.0395082,1875,988,21.2625,-2.91989
658,36,21.3727,3.33374,0.00384031,0.00234199,-0.000942192,0.00429488,0.00188742,-0.449518,0.0024857,0.0394167,1882,988,21.3726,-3.33372
665,36,21.3531,3.17194,0.00201178,0.00206307,-0.000415955,0.00245417,0.00162068,-0.816188,0.00144101,0.0374942,1889,988,21.3532,-3.17191
672,36,21.324,2.85663,0.000316829,0.00201063,0.000728712,0.00228098,4.64725e-05,1.21553,0.0015054,0.0370386,1896,988,21.324,-2.85662
679,36,21.2451,2.83276,-0.00146487,0.00200867,0.00215475,0.00303945,-0.00249565,1.1246,0.00320083,0.0394415,1903,988,21.2451,-2.83276
686,36,21.1726,2.86853,-0.00286207,0.00199056,0.00345224,0.00378384,-0.00465534,1.09171,0.00488102,0.0398966,1910,988,21.1726,-2.86856
693,36,21.1737,2.92255,-0.00392515,0.001898,0.00453079,0.00437208,-0.00639923,1.07098,0.00625542,0.0386267,1917,988,21.1737,-2.92254
700,36,21.2179,3.00171,-0.00481044,0.00186098,0.00521066,0.00471219,-0.00766165,1.07012,0.00721137,0.0339645,1924,988,21.2179,-3.00171
707,36,21.1781,3.02698,-0.00564736,0.00191303,0.00561348,0.00490049,-0.00863481,1.08173,0.00791313,0.0237065,1931,988,21.1781,-3.02697
714,36,21.2274,3.18408,-0.00621735,0.00191785,0.0058314,0.00496015,-0.00925964,1.08993,0.00833395,0.0282606,1938,988,21.2274,-3.18411
721,36,21.0841,3.69135,-0.00638454,0.00188931,0.00591558,0.00497099,-0.00946622,1.09054,0.00846894,0.0366385,1945,988,21.0841,-3.69136
728,36,20.7612,4.0343,-0.00606104,0.00190913,0.00556325,0.00476734,-0.00891924,1.0962,0.00802223,0.021163,1952,988,20.7612,-4.03429
735,36,20.5743,4.13776,-0.00541414,0.00193257,0.00463821,0.00417585,-0.00765742,1.12031,0.00692981,0.0182923,1959,988,20.5743,-4.13778
742,36,20.5643,4.1839,-0.004863,0.00228127,0.00318335,0.00349389,-0.00607562,1.20684,0.00559158,0.0151417,1966,988,20.5644,-4.18393
749,36,20.5839,4.23724,-0.00487474,0.00315065,0.00159007,0.00345421,-0.0051783,1.38216,0.00501701,0.0161006,1973,988,20.5839,-4.23727
756,36,20.5579,4.29431,-0.00477617,0.00417971,0.00066253,0.00422845,-0.00482491,1.49735,0.00523074,0.013834,1980,988,20.5579,-4.29432
763,36,20.5248,4.36646,-0.0047868,0.0047194,-4.45443e-05,0.00471961,-0.00478701,-1.56611,0.0054887,0.0156922,1987,988,20.5248,-4.36644
770,36,20.5228,4.42963,-0.0051798,0.00593153,-0.000715575,0.00597743,-0.00522569,-1.50675,0.00647297,0.0135873,1994,988,20.5228,-4.42963
777,36,20.519,4.51202,-0.00620446,0.0073426,-0.000705674,0.00737926,-0.00624112,-1.51889,0.00787288,0.0217279,2001,988,20.5191,-4.512
784,36,20.4917,4.46771,-0.00842078,0.00885391,0.000229221,0.00885695,-0.00842382,1.55753,0.0099781,0.0435806,2008,988,20.4917,-4.46773
791,36,20.4606,4.4314,0,0,0,0,0,0,0,-1,2015,988,20.4606,-4.43142
798,36,20.4987,3.52106,-0.0157831,0.0110742,0.00504326,0.01199,-0.0166989,1.39117,0.0166377,0.0417667,2022,988,20.4986,-3.52108
805,36,19.3369,3.32953,-0.02097,0.0111665,0.0094517,0.0137402,-0.0235437,1.30494,0.0217725,0.0471983,2029,988,19.3369,-3.32955
812,36,18.8901,4.00549,-0.0274945,0.00989034,0.0159126,0.0157462,-0.0333503,1.21818,0.0289469,0.0488359,2036,988,18.8902,-4.00546
-700,29,0,0,0,0,0,0,0,0,0,-1,524,995,0,0
-693,29,-10.2961,5.75793,0,0,0,0,0,0,0,-1,531,995,-10.2961,-5.75793
-686,29,-10.726,3.76843,-0.058026,0.00040361,-0.0153831,0.00420614,-0.0618285,-1.32846,0.0426902,0.0419901,538,995,-10.726,-3.76843
-679,29,-11.658,3.1189,-0.0464859,6.4959e-06,-0.0140148,0.00390434,-0.0503838,-1.29953,0.0349634,0.043518,545,995,-11.658,-3.11887
-672,29,-13.0529,2.63513,-0.0367714,-0.000156168,-0.0120156,0.00343472,-0.0403623,-1.28039,0.0281231,0.043601,552,995,-13.0529,-2.63514
-665,29,-13.3544,2.19183,-0.028617,-0.000128825,-0.0098027,0.00291833,-0.0316641,-1.26942,0.0221464,0.0427868,559,995,-13.3544,-2.19183
-658,29,-13.3295,2.05212,-0.0218666,2.21914e-05,-0.00762387,0.00241583,-0.0242602,-1.26658,0.0170359,0.0427833,566,995,-13.3295,-2.05213
-651,29,-13.4678,1.96985,-0.0163636,0.000213073,-0.0056845,0.00197511,-0.0181257,-1.27022,0.0127931,0.0332281,573,995,-13.4678,-1.96984
-644,29,-13.5842,1.99408,-0.011942,0.000381107,-0.00424192,0.0017001,-0.013261,-1.26933,0.00945844,0.0179605,580,995,-13.5842,-1.99408
-637,29,-13.6553,1.97241,-0.00819248,0.0012411,-0.00376955,0.00256232,-0.0095137,-1.23368,0.00734705,0.0128993,587,995,-13.6553,-1.97243
-630,29,-13.6472,1.97534,-0.00539542,3.18551e-05,-0.00284357,0.00124883,-0.0066124,-1.16641,0.00487812,0.010074,594,995,-13.6472,-1.97533
-623,29,-13.6379,1.94202,-0.00379151,0.000722016,-0.0024534,0.00179875,-0.00486824,-1.15724,0.00398285,0.00945654,601,995,-13.638,-1.94204
-616,29,-13.6351,1.86426,-0.00291248,0.000948918,-0.00297452,0.0025644,-0.00452796,-1.07326,0.00414676,0.0122068,608,995,-13.6351,-1.86425
-609,29,-13.6151,1.82556,-0.00242396,0.00103548,-0.00356844,0.00327133,-0.0046598,-1.01108,0.00460237,0.0186128,615,995,-13.6151,-1.82556
-602,29,-13.6282,1.79016,-0.00245034,0.00119469,-0.00410999,0.00386813,-0.00512378,-0.994088,0.00520832,0.0202767,622,995,-13.6282,-1.79014
-595,29,-13.622,1.69904,-0.00254613,0.000758773,-0.00464426,0.0040358,-0.00582315,-0.956317,0.00572316,0.0194129,629,995,-13.622,-1.69901
-588,29,-13.6607,1.38464,-0.00249913,0.00037201,-0.00498956,0.00412841,-0.00625553,-0.925472,0.00603695,0.0237765,636,995,-13.6607,-1.38461
-581,29,-13.7278,1.08917,-0.00238329,0.000184044,-0.00509985,0.0041593,-0.00635854,-0.908691,0.00611657,0.0346205,643,995,-13.7278,-1.08919
-574,29,-13.7507,0.989746,-0.00228314,5.47159e-05,-0.00486031,0.00388469,-0.00611312,-0.903409,0.00581984,0.0321863,650,995,-13.7507,-0.989736
-567,29,-13.7667,0.95636,-0.00206433,-0.000168255,-0.00442202,0.00340621,-0.00563879,-0.890995,0.00527489,0.0334727,657,995,-13.7667,-0.956354
-560,29,-13.7025,0.937744,-0.00159262,-0.000434735,-0.00372686,0.00275788,-0.00478524,-0.862454,0.00440714,0.0367194,664,995,-13.7024,-0.937746
-553,29,-13.7657,1.06958,-0.000858179,-0.000738235,-0.00284044,0.00204286,-0.00363928,-0.795953,0.00332347,0.0409574,671,995,-13.7657,-1.06961
-546,29,-13.739,1.1051,0.00010312,-0.00105894,-0.00180915,0.00142226,-0.00237807,-0.63002,0.00221713,0.0451393,678,995,-13.739,-1.10513
-539,29,-13.8228,1.11566,0.00127716,-0.00134429,-0.000835423,0.00152076,-0.00158789,-0.283724,0.00179492,0.0468825,685,995,-13.8228,-1.11568
-532,29,-13.5997,0.621216,0.00228261,-0.00128019,-0.000408934,0.00232894,-0.00132653,-0.112824,0.00213677,0.0479268,692,995,-13.5997,-0.621192
-525,29,-13.7668,0.809387,0.00228316,-0.000505729,-0.000542597,0.00238501,-0.000607576,-0.185543,0.00182653,0.0475689,699,995,-13.7669,-0.809358
-518,29,0,0,0,0,0,0,0,0,0,-1,706,995,0,0
-511,29,0,0,0,0,0,0,0,0,0,-1,713,995,0,0
-504,29,0,0,0,0,0,0,0,0,0,-1,720,995,0,0
-497,29,0,0,0,0,0,0,0,0,0,-1,727,995,0,0
-490,29,0,0,0,0,0,0,0,0,0,-1,734,995,0,0
-483,29,0,0,0,0,0,0,0,0,0,-1,741,995,0,0
-476,29,0,0,0,0,0,0,0,0,0,-1,748,995,0,0
-469,29,0,0,0,0,0,0,0,0,0,-1,755,995,0,0
-462,29,0,0,0,0,0,0,0,0,0,-1,762,995,0,0
-455,29,0,0,0,0,0,0,0,0,0,-1,769,995,0,0
-448,29,0,0,0,0,0,0,0,0,0,-1,776,995,0,0
-441,29,0,0,0,0,0,0,0,0,0,-1,783,995,0,0
-434,29,0,0,0,0,0,0,0,0,0,-1,790,995,0,0
-427,29,0,0,0,0,0,0,0,0,0,-1,797,995,0,0
-420,29,0,0,0,0,0,0,0,0,0,-1,804,995,0,0
-413,29,0,0,0,0,0,0,0,0,0,-1,811,995,0,0
-406,29,0,0,0,0,0,0,0,0,0,-1,818,995,0,0
-399,29,0,0,0,0,0,0,0,0,0,-1,825,995,0,0
-392,29,0,0,0,0,0,0,0,0,0,-1,832,995,0,0
-385,29,0,0,0,0,0,0,0,0,0,-1,839,995,0,0
-378,29,0,0,0,0,0,0,0,0,0,-1,846,995,0,0
-371,29,0,0,0,0,0,0,0,0,0,-1,853,995,0,0
-364,29,0,0,0,0,0,0,0,0,0,-1,860,995,0,0
-357,29,0,0,0,0,0,0,0,0,0,-1,867,995,0,0
-350,29,0,0,0,0,0,0,0,0,0,-1,874,995,0,0
-343,29,0,0,0,0,0,0,0,0,0,-1,881,995,0,0
-336,29,0,0,0,0,0,0,0,0,0,-1,888,995,0,0
-329,29,0,0,0,0,0,0,0,0,0,-1,895,995,0,0
-322,29,0,0,0,0,0,0,0,0,0,-1,902,995,0,0
-315,29,0,0,0,0,0,0,0,0,0,-1,909,995,0,0
-308,29,0,0,0,0,0,0,0,0,0,-1,916,995,0,0
-301,29,0,0,0,0,0,0,0,0,0,-1,923,995,0,0
-294,29,0,0,0,0,0,0,0,0,0,-1,930,995,0,0
-287,29,0,0,0,0,0,0,0,0,0,-1,937,995,0,0
-280,29,0,0,0,0,0,0,0,0,0,-1,944,995,0,0
-273,29,0,0,0,0,0,0,0,0,0,-1,951,995,0,0
-266,29,0,0,0,0,0,0,0,0,0,-1,958,995,0,0
-259,29,0,0,0,0,0,0,0,0,0,-1,965,995,0,0
-252,29,0,0,0,0,0,0,0,0,0,-1,972,995,0,0
-245,29,0,0,0,0,0,0,0,0,0,-1,979,995,0,0
-238,29,0,0,0,0,0,0,0,0,0,-1,986,995,0,0
-231,29,0,0,0,0,0,0,0,0,0,-1,993,995,0,0
-224,29,0,0,0,0,0,0,0,0,0,-1,1000,995,0,0
-217,29,0,0,0,0,0,0,0,0,0,-1,1007,995,0,0
-210,29,0,0,0,0,0,0,0,0,0,-1,1014,995,0,0
-203,29,0,0,0,0,0,0,0,0,0,-1,1021,995,0,0
-196,29,0,0,0,0,0,0,0,0,0,-1,1028,995,0,0
-189,29,0,0,0,0,0,0,0,0,0,-1,1035,995,0,0
-182,29,0,0,0,0,0,0,0,0,0,-1,1042,995,0,0
-175,29,0,0,0,0,0,0,0,0,0,-1,1049,995,0,0
-168,29,0,0,0,0,0,0,0,0,0,-1,1056,995,0,0
-161,29,0,0,0,0,0,0,0,0,0,-1,1063,995,0,0
-154,29,0,0,0,0,0,0,0,0,0,-1,1070,995,0,0
-147,29,0,0,0,0,0,0,0,0,0,-1,1077,995,0,0
-140,29,0,0,0,0,0,0,0,0,0,-1,1084,995,0,0
-133,29,0,0,0,0,0,0,0,0,0,-1,1091,995,0,0
-126,29,0,0,0,0,0,0,0,0,0,-1,1098,995,0,0
-119,29,0,0,0,0,0,0,0,0,0,-1,1105,995,0,0
-112,29,0,0,0,0,0,0,0,0,0,-1,1112,995,0,0
-105,29,0,0,0,0,0,0,0,0,0,-1,1119,995,0,0
-98,29,0,0,0,0,0,0,0,0,0,-1,1126,995,0,0
-91,29,0,0,0,0,0,0,0,0,0,-1,1133,995,0,0
-84,29,0,0,0,0,0,0,0,0,0,-1,1140,995,0,0
-77,29,0,0,0,0,0,0,0,0,0,-1,1147,995,0,0
-70,29,0,0,0,0,0,0,0,0,0,-1,1154,995,0,0
-63,29,0,0,0,0,0,0,0,0,0,-1,1161,995,0,0
-56,29,0,0,0,0,0,0,0,0,0,-1,1168,995,0,0
-49,29,0,0,0,0,0,0,0,0,0,-1,1175,995,0,0
-42,29,0,0,0,0,0,0,0,0,0,-1,1182,995,0,0
-35,29,0,0,0,0,0,0,0,0,0,-1,1189,995,0,0
-28,29,0,0,0,0,0,0,0,0,0,-1,1196,995,0,0
-21,29,0,0,0,0,0,0,0,0,0,-1,1203,995,0,0
-14,29,0,0,0,0,0,0,0,0,0,-1,1210,995,0,0
-7,29,0,0,0,0,0,0,0,0,0,-1,1217,995,0,0
0,29,0,0,0,0,0,0,0,0,0,-1,1224,995,0,0
7,29,0,0,0,0,0,0,0,0,0,-1,1231,995,0,0
14,29,0,0,0,0,0,0,0,0,0,-1,1238,995,0,0
21,29,0,0,0,0,0,0,0,0,0,-1,1245,995,0,0
28,29,0,0,0,0,0,0,0,0,0,-1,1252,995,0,0
35,29,0,0,0,0,0,0,0,0,0,-1,1259,995,0,0
42,29,0,0,0,0,0,0,0,0,0,-1,1266,995,0,0
49,29,0,0,0,0,0,0,0,0,0,-1,1273,995,0,0
56,29,0,0,0,0,0,0,0,0,0,-1,1280,995,0,0
63,29,0,0,0,0,0,0,0,0,0,-1,1287,995,0,0
70,29,0,0,0,0,0,0,0,0,0,-1,1294,995,0,0
77,29,0,0,0,0,0,0,0,0,0,-1,1301,995,0,0
84,29,0,0,0,0,0,0,0,0,0,-1,1308,995,0,0
91,29,0,0,0,0,0,0,0,0,0,-1,1315,995,0,0
98,29,0,0,0,0,0,0,0,0,0,-1,1322,995,0,0
105,29,0,0,0,0,0,0,0,0,0,-1,1329,995,0,0
112,29,0,0,0,0,0,0,0,0,0,-1,1336,995,0,0
119,29,0,0,0,0,0,0,0,0,0,-1,1343,995,0,0
126,29,0,0,0,0,0,0,0,0,0,-1,1350,995,0,0
133,29,0,0,0,0,0,0,0,0,0,-1,1357,995,0,0
140,29,0,0,0,0,0,0,0,0,0,-1,1364,995,0,0
147,29,0,0,0,0,0,0,0,0,0,-1,1371,995,0,0
154,29,0,0,0,0,0,0,0,0,0,-1,1378,995,0,0
161,29,0,0,0,0,0,0,0,0,0,-1,1385,995,0,0
168,29,0,0,0,0,0,0,0,0,0,-1,1392,995,0,0
175,29,0,0,0,0,0,0,0,0,0,-1,1399,995,0,0
182,29,0,0,0,0,0,0,0,0,0,-1,1406,995,0,0
189,29,0,0,0,0,0,0,0,0,0,-1,1413,995,0,0
196,29,0,0,0,0,0,0,0,0,0,-1,1420,995,0,0
203,29,0,0,0,0,0,0,0,0,0,-1,1427,995,0,0
210,29,0,0,0,0,0,0,0,0,0,-1,1434,995,0,0
217,29,0,0,0,0,0,0,0,0,0,-1,1441,995,0,0
224,29,0,0,0,0,0,0,0,0,0,-1,1448,995,0,0
231,29,0,0,0,0,0,0,0,0,0,-1,1455,995,0,0
238,29,0,0,0,0,0,0,0,0,0,-1,1462,995,0,0
245,29,0,0,0,0,0,0,0,0,0,-1,1469,995,0,0
252,29,0,0,0,0,0,0,0,0,0,-1,1476,995,0,0
259,29,0,0,0,0,0,0,0,0,0,-1,1483,995,0,0
266,29,0,0,0,0,0,0,0,0,0,-1,1490,995,0,0
273,29,0,0,0,0,0,0,0,0,0,-1,1497,995,0,0
280,29,0,0,0,0,0,0,0,0,0,-1,1504,995,0,0
287,29,0,0,0,0,0,0,0,0,0,-1,1511,995,0,0
294,29,0,0,0,0,0,0,0,0,0,-1,1518,995,0,0
301,29,0,0,0,0,0,0,0,0,0,-1,1525,995,0,0
308,29,0,0,0,0,0,0,0,0,0,-1,1532,995,0,0
315,29,0,0,0,0,0,0,0,0,0,-1,1539,995,0,0
322,29,0,0,0,0,0,0,0,0,0,-1,1546,995,0,0
329,29,0,0,0,0,0,0,0,0,0,-1,1553,995,0,0
336,29,0,0,0,0,0,0,0,0,0,-1,1560,995,0,0
343,29,0,0,0,0,0,0,0,0,0,-1,1567,995,0,0
350,29,0,0,0,0,0,0,0,0,0,-1,1574,995,0,0
357,29,0,0,0,0,0,0,0,0,0,-1,1581,995,0,0
364,29,0,0,0,0,0,0,0,0,0,-1,1588,995,0,0
371,29,0,0,0,0,0,0,0,0,0,-1,1595,995,0,0
378,29,0,0,0,0,0,0,0,0,0,-1,1602,995,0,0
385,29,0,0,0,0,0,0,0,0,0,-1,1609,995,0,0
392,29,0,0,0,0,0,0,0,0,0,-1,1616,995,0,0
399,29,0,0,0,0,0,0,0,0,0,-1,1623,995,0,0
406,29,0,0,0,0,0,0,0,0,0,-1,1630,995,0,0
413,29,0,0,0,0,0,0,0,0,0,-1,1637,995,0,0
420,29,0,0,0,0,0,0,0,0,0,-1,1644,995,0,0
427,29,0,0,0,0,0,0,0,0,0,-1,1651,995,0,0
434,29,0,0,0,0,0,0,0,0,0,-1,1658,995,0,0
441,29,0,0,0,0,0,0,0,0,0,-1,1665,995,0,0
448,29,0,0,0,0,0,0,0,0,0,-1,1672,995,0,0
455,29,0,0,0,0,0,0,0,0,0,-1,1679,995,0,0
462,29,0,0,0,0,0,0,0,0,0,-1,1686,995,0,0
469,29,0,0,0,0,0,0,0,0,0,-1,1693,995,0,0
476,29,0,0,0,0,0,0,0,0,0,-1,1700,995,0,0
483,29,0,0,0,0,0,0,0,0,0,-1,1707,995,0,0
490,29,0,0,0,0,0,0,0,0,0,-1,1714,995,0,0
497,29,0,0,0,0,0,0,0,0,0,-1,1721,995,0,0
504,29,0,0,0,0,0,0,0,0,0,-1,1728,995,0,0
511,29,0,0,0,0,0,0,0,0,0,-1,1735,995,0,0
518,29,0,0,0,0,0,0,0,0,0,-1,1742,995,0,0
525,29,0,0,0,0,0,0,0,0,0,-1,1749,995,0,0
532,29,0,0,0,0,0,0,0,0,0,-1,1756,995,0,0
539,29,0,0,0,0,0,0,0,0,0,-1,1763,995,0,0
546,29,0,0,0,0,0,0,0,0,0,-1,1770,995,0,0
553,29,0,0,0,0,0,0,0,0,0,-1,1777,995,0,0
560,29,0,0,0,0,0,0,0,0,0,-1,1784,995,0,0
567,29,0,0,0,0,0,0,0,0,0,-1,1791,995,0,0
574,29,0,0,0,0,0,0,0,0,0,-1,1798,995,0,0
581,29,0,0,0,0,0,0,0,0,0,-1,1805,995,0,0
588,29,0,0,0,0,0,0,0,0,0,-1,1812,995,0,0
595,29,0,0,0,0,0,0,0,0,0,-1,1819,995,0,0
602,29,0,0,0,0,0,0,0,0,0,-1,1826,995,0,0
609,29,0,0,0,0,0,0,0,0,0,-1,1833,995,0,0
616,29,0,0,0,0,0,0,0,0,0,-1,1840,995,0,0
623,29,0,0,0,0,0,0,0,0,0,-1,1847,995,0,0
630,29,0,0,0,0,0,0,0,0,0,-1,1854,995,0,0
637,29,0,0,0,0,0,0,0,0,0,-1,1861,995,0,0
644,29,21.0061,2.30157,0,0,0,0,0,0,0,-1,1868,995,21.0061,-2.30159
651,29,21.2345,2.81091,0.00668124,0.00196159,-0.000550506,0.0067446,0.00189823,-0.114592,0.00401609,0.0416185,1875,995,21.2345,-2.81089
658,29,21.4379,3.24591,0.00408934,0.00158936,-0.000681574,0.00426309,0.00141562,-0.2496,0.00250714,0.0428825,1882,995,21.4379,-3.24588
665,29,21.4301,3.33435,0.00213496,0.00145531,-0.00027808,0.00223424,0.00135603,-0.3429,0.00129974,0.039543,1889,995,21.4301,-3.33435
672,29,21.2998,3.08917,0.000424754,0.00152943,0.000816185,0.0019626,-8.42044e-06,1.08287,0.00131122,0.0371077,1896,995,21.2998,-3.08914
679,29,21.2305,2.84668,-0.00139161,0.00166365,0.00228362,0.00288348,-0.00261144,1.08019,0.00317379,0.0374657,1903,995,21.2305,-2.84671
686,29,21.1794,2.68939,-0.002839,0.00176183,0.00366642,0.00378976,-0.00486693,1.06557,0.00501082,0.0374009,1910,995,21.1794,-2.6894
693,29,21.171,2.98059,-0.00395211,0.00179701,0.00483867,0.00455058,-0.00670568,1.05343,0.00653838,0.0375685,1917,995,21.171,-2.98057
700,29,21.1814,3.10492,-0.00488979,0.0018561,0.00561849,0.00503634,-0.00807003,1.05573,0.00763423,0.0338632,1924,995,21.1814,-3.1049
707,29,21.1354,3.0058,-0.00578596,0.00195988,0.00612295,0.00533196,-0.00915804,1.06739,0.00846246,0.0218552,1931,995,21.1354,-3.00581
714,29,21.2083,3.2019,-0.00639228,0.00200328,0.0064327,0.00548672,-0.00987571,1.07449,0.00898935,0.0256416,1938,995,21.2083,-3.20188
721,29,21.089,3.70654,-0.00655039,0.00200815,0.00655163,0.00555422,-0.0100965,1.0747,0.0091619,0.0327454,1945,995,21.089,-3.70653
728,29,20.7571,4.02277,-0.00624052,0.00207177,0.00621419,0.00539156,-0.00956032,1.08014,0.0087436,0.0215768,1952,995,20.7571,-4.02277
735,29,20.609,4.1604,-0.00567059,0.00209555,0.00530777,0.004789,-0.00836404,1.1012,0.00768685,0.015321,1959,995,20.609,-4.16039
742,29,20.6381,4.198,-0.00516072,0.00233223,0.00385642,0.00396237,-0.00679086,1.17087,0.00627957,0.0130571,1966,995,20.6381,-4.19799
749,29,20.6656,4.23914,-0.00508348,0.00296474,0.00229046,0.00357093,-0.00568967,1.31207,0.00539306,0.0137171,1973,995,20.6657,-4.23913
756,29,20.6406,4.29541,-0.00491708,0.00388279,0.00135809,0.00408762,-0.00512191,1.4211,0.00532829,0.0119465,1980,995,20.6406,-4.29543
763,29,20.6132,4.34027,-0.00476609,0.00428725,0.000652008,0.00433396,-0.0048128,1.49927,0.0052833,0.0118152,1987,995,20.6131,-4.34025
770,29,20.5743,4.39966,-0.00490558,0.00527139,-8.70698e-05,0.00527214,-0.00490633,-1.56224,0.0058778,0.0127864,1994,995,20.5744,-4.39965
777,29,20.5768,4.51099,-0.00554926,0.00645741,-0.000153965,0.00645939,-0.00555123,-1.55798,0.00694094,0.0199562,2001,995,20.5767,-4.51098
784,29,20.5571,4.47852,-0.00724322,0.00777883,0.000715857,0.00781287,-0.00727725,1.52329,0.00871411,0.040172,2008,995,20.5572,-4.47854
791,29,20.4707,4.49976,0,0,0,0,0,0,0,-1,2015,995,20.4707,-4.49974
798,29,20.3682,4.53735,0,0,0,0,0,0,0,-1,2022,995,20.3682,-4.53736
805,29,19.2964,3.68433,-0.0169499,0.0100312,0.00921654,0.012879,-0.0197976,1.27112,0.0190063,0.0453273,2029,995,19.2964,-3.68434
812,29,18.7048,4.11072,-0.0217791,0.00918412,0.0149703,0.0152383,-0.0278332,1.18649,0.0252193,0.0451226,2036,995,18.7049,-4.11073
-700,22,0,0,0,0,0,0,0,0,0,-1,524,1002,0,0
-693,22,-9.98755,-1.25391,0,0,0,0,0,0,0,-1,531,1002,-9.98754,1.25392
-686,22,-10.1921,3.58008,0,0,0,0,0,0,0,-1,538,1002,-10.1921,-3.58011
-679,22,-11.173,2.86969,0,0,0,0,0,0,0,-1,545,1002,-11.173,-2.86968
-672,22,-12.9914,2.07391,0,0,0,0,0,0,0,-1,552,1002,-12.9914,-2.07388
-665,22,-13.0586,1.38843,0,0,0,0,0,0,0,-1,559,1002,-13.0586,-1.38841
-658,22,-13.4079,1.75116,0,0,0,0,0,0,0,-1,566,1002,-13.4079,-1.75117
-651,22,-13.4922,1.87305,-0.0175086,0.000768009,-0.0031395,0.00129226,-0.0180329,-1.40534,0.012475,0.0381419,573,1002,-13.4922,-1.87305
-644,22,-13.6157,1.96191,-0.0126943,0.000810166,-0.00249079,0.00125492,-0.013139,-1.3941,0.00920621,0.018861,580,1002,-13.6156,-1.96191
-637,22,-13.684,1.95691,-0.00865922,0.00156655,-0.00276147,0.00226463,-0.0093573,-1.32319,0.00711426,0.0137243,587,1002,-13.684,-1.95688
-630,22,-13.6894,1.94708,-0.00552561,0.000173086,-0.0023892,0.00104221,-0.00639474,-1.2219,0.00464966,0.0109619,594,1002,-13.6894,-1.94709
-623,22,-13.6785,1.91724,-0.00366449,0.000747637,-0.00242362,0.00181887,-0.00473572,-1.15462,0.0039072,0.0103121,601,1002,-13.6784,-1.91721
-616,22,-13.6602,1.86237,-0.00255378,0.000851043,-0.00320531,0.00277799,-0.00448073,-1.02952,0.00422908,0.0164735,608,1002,-13.6602,-1.86234
-609,22,-13.6653,1.82538,-0.0019071,0.000879601,-0.0039742,0.00369763,-0.00472513,-0.954002,0.00487493,0.0257302,615,1002,-13.6653,-1.8254
-602,22,-13.681,1.80194,-0.00179152,0.00092746,-0.00460935,0.00437362,-0.00523768,-0.928803,0.00555656,0.0243594,622,1002,-13.681,-1.80193
-595,22,-13.7073,1.72284,-0.00180958,0.000498534,-0.00517419,0.00464581,-0.00595685,-0.895123,0.00613703,0.0210824,629,1002,-13.7073,-1.72281
-588,22,-13.6647,1.4928,-0.00173093,0.000151585,-0.00554263,0.00483231,-0.00641165,-0.869506,0.00651302,0.029287,636,1002,-13.6647,-1.49281
-581,22,-13.7448,1.112,-0.00163965,-2.93076e-05,-0.0056374,0.00486013,-0.00652909,-0.856332,0.00659906,0.0396781,643,1002,-13.7448,-1.11199
-574,22,-13.7689,0.971924,-0.00162646,-0.000132355,-0.00535947,0.00453187,-0.00629069,-0.854647,0.00627585,0.0350826,650,1002,-13.7689,-0.971929
-567,22,-13.7017,0.913025,-0.00153937,-0.000303908,-0.00483594,0.0039536,-0.00579687,-0.848923,0.00566287,0.0322864,657,1002,-13.7017,-0.913029
-560,22,-13.6305,1.08319,-0.00130877,-0.000503302,-0.00403341,0.00314743,-0.00495951,-0.835158,0.00471936,0.035419,664,1002,-13.6305,-1.08317
-553,22,-13.6495,1.07947,-0.00093153,-0.000746038,-0.00300626,0.00216891,-0.00384648,-0.800819,0.00351772,0.0401178,671,1002,-13.6495,-1.0795
-546,22,-13.7408,1.12433,-0.000442402,-0.00102911,-0.0018042,0.00109214,-0.00256365,-0.704806,0.00216692,0.0439382,678,1002,-13.7408,-1.12433
-539,22,-13.8015,0.988525,0.000158817,-0.00132809,-0.000683646,0.000425361,-0.00159463,-0.371758,0.00122965,0.043657,685,1002,-13.8015,-0.988537
-532,22,-13.7558,0.733276,0.000501202,-0.00133902,-0.000207658,0.000524344,-0.00136216,-0.110985,0.00112441,0.0433897,692,1002,-13.7558,-0.733297
-525,22,0,0,0,0,0,0,0,0,0,-1,699,1002,0,0
-518,22,0,0,0,0,0,0,0,0,0,-1,706,1002,0,0
-511,22,0,0,0,0,0,0,0,0,0,-1,713,1002,0,0
-504,22,0,0,0,0,0,0,0,0,0,-1,720,1002,0,0
-497,22,0,0,0,0,0,0,0,0,0,-1,727,1002,0,0
-490,22,0,0,0,0,0,0,0,0,0,-1,734,1002,0,0
-483,22,0,0,0,0,0,0,0,0,0,-1,741,1002,0,0
-476,22,0,0,0,0,0,0,0,0,0,-1,748,1002,0,0
-469,22,0,0,0,0,0,0,0,0,0,-1,755,1002,0,0
-462,22,0,0,0,0,0,0,0,0,0,-1,762,1002,0,0
-455,22,0,0,0,0,0,0,0,0,0,-1,769,1002,0,0
-448,22,0,0,0,0,0,0,0,0,0,-1,776,1002,0,0
-441,22,0,0,0,0,0,0,0,0,0,-1,783,1002,0,0
-434,22,0,0,0,0,0,0,0,0,0,-1,790,1002,0,0
-427,22,0,0,0,0,0,0,0,0,0,-1,797,1002,0,0
-420,22,0,0,0,0,0,0,0,0,0,-1,804,1002,0,0
-413,22,0,0,0,0,0,0,0,0,0,-1,811,1002,0,0
-406,22,0,0,0,0,0,0,0,0,0,-1,818,1002,0,0
-399,22,0,0,0,0,0,0,0,0,0,-1,825,1002,0,0
-392,22,0,0,0,0,0,0,0,0,0,-1,832,1002,0,0
-385,22,0,0,0,0,0,0,0,0,0,-1,839,1002,0,0
-378,22,0,0,0,0,0,0,0,0,0,-1,846,1002,0,0
-371,22,0,0,0,0,0,0,0,0,0,-1,853,1002,0,0
-364,22,0,0,0,0,0,0,0,0,0,-1,860,1002,0,0
-357,22,0,0,0,0,0,0,0,0,0,-1,867,1002,0,0
-350,22,0,0,0,0,0,0,0,0,0,-1,874,1002,0,0
-343,22,0,0,0,0,0,0,0,0,0,-1,881,1002,0,0
-336,22,0,0,0,0,0,0,0,0,0,-1,888,1002,0,0
-329,22,0,0,0,0,0,0,0,0,0,-1,895,1002,0,0
-322,22,0,0,0,0,0,0,0,0,0,-1,902,1002,0,0
-315,22,0,0,0,0,0,0,0,0,0,-1,909,1002,0,0
-308,22,0,0,0,0,0,0,0,0,0,-1,916,1002,0,0
-301,22,0,0,0,0,0,0,0,0,0,-1,923,1002,0,0
-294,22,0,0,0,0,0,0,0,0,0,-1,930,1002,0,0
-287,22,0,0,0,0,0,0,0,0,0,-1,937,1002,0,0
-280,22,0,0,0,0,0,0,0,0,0,-1,944,1002,0,0
-273,22,0,0,0,0,0,0,0,0,0,-1,951,1002,0,0
-266,22,0,0,0,0,0,0,0,0,0,-1,958,1002,0,0
-259,22,0,0,0,0,0,0,0,0,0,-1,965,1002,0,0
-252,22,0,0,0,0,0,0,0,0,0,-1,972,1002,0,0
-245,22,0,0,0,0,0,0,0,0,0,-1,979,1002,0,0
-238,22,0,0,0,0,0,0,0,0,0,-1,986,1002,0,0
-231,22,0,0,0,0,0,0,0,0,0,-1,993,1002,0,0
-224,22,0,0,0,0,0,0,0,0,0,-1,1000,1002,0,0
-217,22,0,0,0,0,0,0,0,0,0,-1,1007,1002,0,0
-210,22,0,0,0,0,0,0,0,0,0,-1,1014,1002,0,0
-203,22,0,0,0,0,0,0,0,0,0,-1,1021,1002,0,0
-196,22,0,0,0,0,0,0,0,0,0,-1,1028,1002,0,0
-189,22,0,0,0,0,0,0,0,0,0,-1,1035,1002,0,0
-182,22,0,0,0,0,0,0,0,0,0,-1,1042,1002,0,0
-175,22,0,0,0,0,0,0,0,0,0,-1,1049,1002,0,0
-168,22,0,0,0,0,0,0,0,0,0,-1,1056,1002,0,0
-161,22,0,0,0,0,0,0,0,0,0,-1,1063,1002,0,0
-154,22,0,0,0,0,0,0,0,0,0,-1,1070,1002,0,0
-147,22,0,0,0,0,0,0,0,0,0,-1,1077,1002,0,0
-140,22,0,0,0,0,0,0,0,0,0,-1,1084,1002,0,0
-133,22,0,0,0,0,0,0,0,0,0,-1,1091,1002,0,0
-126,22,0,0,0,0,0,0,0,0,0,-1,1098,1002,0,0
-119,22,0,0,0,0,0,0,0,0,0,-1,1105,1002,0,0
-112,22,0,0,0,0,0,0,0,0,0,-1,1112,1002,0,0
-105,22,0,0,0,0,0,0,0,0,0,-1,1119,1002,0,0
-98,22,0,0,0,0,0,0,0,0,0,-1,1126,1002,0,0
-91,22,0,0,0,0,0,0,0,0,0,-1,1133,1002,0,0
-84,22,0,0,0,0,0,0,0,0,0,-1,1140,1002,0,0
-77,22,0,0,0,0,0,0,0,0,0,-1,1147,1002,0,0
-70,22,0,0,0,0,0,0,0,0,0,-1,1154,1002,0,0
-63,22,0,0,0,0,0,0,0,0,0,-1,1161,1002,0,0
-56,22,0,0,0,0,0,0,0,0,0,-1,1168,1002,0,0
-49,22,0,0,0,0,0,0,0,0,0,-1,1175,1002,0,0
-42,22,0,0,0,0,0,0,0,0,0,-1,1182,1002,0,0
-35,22,0,0,0,0,0,0,0,0,0,-1,1189,1002,0,0
-28,22,0,0,0,0,0,0,0,0,0,-1,1196,1002,0,0
-21,22,0,0,0,0,0,0,0,0,0,-1,1203,1002,0,0
-14,22,0,0,0,0,0,0,0,0,0,-1,1210,1002,0,0
-7,22,0,0,0,0,0,0,0,0,0,-1,1217,1002,0,0
0,22,0,0,0,0,0,0,0,0,0,-1,1224,1002,0,0
7,22,0,0,0,0,0,0,0,0,0,-1,1231,1002,0,0
14,22,0,0,0,0,0,0,0,0,0,-1,1238,1002,0,0
21,22,0,0,0,0,0,0,0,0,0,-1,1245,1002,0,0
28,22,0,0,0,0,0,0,0,0,0,-1,1252,1002,0,0
35,22,0,0,0,0,0,0,0,0,0,-1,1259,1002,0,0
42,22,0,0,0,0,0,0,0,0,0,-1,1266,1002,0,0
49,22,0,0,0,0,0,0,0,0,0,-1,1273,1002,0,0
56,22,0,0,0,0,0,0,0,0,0,-1,1280,1002,0,0
63,22,0,0,0,0,0,0,0,0,0,-1,1287,1002,0,0
70,22,0,0,0,0,0,0,0,0,0,-1,1294,1002,0,0
77,22,0,0,0,0,0,0,0,0,0,-1,1301,1002,0,0
84,22,0,0,0,0,0,0,0,0,0,-1,1308,1002,0,0
91,22,0,0,0,0,0,0,0,0,0,-1,1315,1002,0,0
98,22,0,0,0,0,0,0,0,0,0,-1,1322,1002,0,0
105,22,0,0,0,0,0,0,0,0,0,-1,1329,1002,0,0
112,22,0,0,0,0,0,0,0,0,0,-1,1336,1002,0,0
119,22,0,0,0,0,0,0,0,0,0,-1,1343,1002,0,0
126,22,0,0,0,0,0,0,0,0,0,-1,1350,1002,0,0
133,22,0,0,0,0,0,0,0,0,0,-1,1357,1002,0,0
140,22,0,0,0,0,0,0,0,0,0,-1,1364,1002,0,0
147,22,0,0,0,0,0,0,0,0,0,-1,1371,1002,0,0
154,22,0,0,0,0,0,0,0,0,0,-1,1378,1002,0,0
161,22,0,0,0,0,0,0,0,0,0,-1,1385,1002,0,0
168,22,0,0,0,0,0,0,0,0,0,-1,1392,1002,0,0
175,22,0,0,0,0,0,0,0,0,0,-1,1399,1002,0,0
182,22,0,0,0,0,0,0,0,0,0,-1,1406,1002,0,0
189,22,0,0,0,0,0,0,0,0,0,-1,1413,1002,0,0
196,22,0,0,0,0,0,0,0,0,0,-1,1420,1002,0,0
203,22,0,0,0,0,0,0,0,0,0,-1,1427,1002,0,0
210,22,0,0,0,0,0,0,0,0,0,-1,1434,1002,0,0
217,22,0,0,0,0,0,0,0,0,0,-1,1441,1002,0,0
224,22,0,0,0,0,0,0,0,0,0,-1,1448,1002,0,0
231,22,0,0,0,0,0,0,0,0,0,-1,1455,1002,0,0
238,22,0,0,0,0,0,0,0,0,0,-1,1462,1002,0,0
245,22,0,0,0,0,0,0,0,0,0,-1,1469,1002,0,0
252,22,0,0,0,0,0,0,0,0,0,-1,1476,1002,0,0
259,22,0,0,0,0,0,0,0,0,0,-1,1483,1002,0,0
266,22,0,0,0,0,0,0,0,0,0,-1,1490,1002,0,0
273,22,0,0,0,0,0,0,0,0,0,-1,1497,1002,0,0
280,22,0,0,0,0,0,0,0,0,0,-1,1504,1002,0,0
287,22,0,0,0,0,0,0,0,0,0,-1,1511,1002,0,0
294,22,0,0,0,0,0,0,0,0,0,-1,1518,1002,0,0
301,22,0,0,0,0,0,0,0,0,0,-1,1525,1002,0,0
308,22,0,0,0,0,0,0,0,0,0,-1,1532,1002,0,0
315,22,0,0,0,0,0,0,0,0,0,-1,1539,1002,0,0
322,22,0,0,0,0,0,0,0,0,0,-1,1546,1002,0,0
329,22,0,0,0,0,0,0,0,0,0,-1,1553,1002,0,0
336,22,0,0,0,0,0,0,0,0,0,-1,1560,1002,0,0
343,22,0,0,0,0,0,0,0,0,0,-1,1567,1002,0,0
350,22,0,0,0,0,0,0,0,0,0,-1,1574,1002,0,0
357,22,0,0,0,0,0,0,0,0,0,-1,1581,1002,0,0
364,22,0,0,0,0,0,0,0,0,0,-1,1588,1002,0,0
371,22,0,0,0,0,0,0,0,0,0,-1,1595,1002,0,0
378,22,0,0,0,0,0,0,0,0,0,-1,1602,1002,0,0
385,22,0,0,0,0,0,0,0,0,0,-1,1609,1002,0,0
392,22,0,0,0,0,0,0,0,0,0,-1,1616,1002,0,0
399,22,0,0,0,0,0,0,0,0,0,-1,1623,1002,0,0
406,22,0,0,0,0,0,0,0,0,0,-1,1630,1002,0,0
413,22,0,0,0,0,0,0,0,0,0,-1,1637,1002,0,0
420,22,0,0,0,0,0,0,0,0,0,-1,1644,1002,0,0
427,22,0,0,0,0,0,0,0,0,0,-1,1651,1002,0,0
434,22,0,0,0,0,0,0,0,0,0,-1,1658,1002,0,0
441,22,0,0,0,0,0,0,0,0,0,-1,1665,1002,0,0
448,22,0,0,0,0,0,0,0,0,0,-1,1672,1002,0,0
455,22,0,0,0,0,0,0,0,0,0,-1,1679,1002,0,0
462,22,0,0,0,0,0,0,0,0,0,-1,1686,1002,0,0
469,22,0,0,0,0,0,0,0,0,0,-1,1693,1002,0,0
476,22,0,0,0,0,0,0,0,0,0,-1,1700,1002,0,0
483,22,0,0,0,0,0,0,0,0,0,-1,1707,1002,0,0
490,22,0,0,0,0,0,0,0,0,0,-1,1714,1002,0,0
497,22,0,0,0,0,0,0,0,0,0,-1,1721,1002,0,0
504,22,0,0,0,0,0,0,0,0,0,-1,1728,1002,0,0
511,22,0,0,0,0,0,0,0,0,0,-1,1735,1002,0,0
518,22,0,0,0,0,0,0,0,0,0,-1,1742,1002,0,0
525,22,0,0,0,0,0,0,0,0,0,-1,1749,1002,0,0
532,22,0,0,0,0,0,0,0,0,0,-1,1756,1002,0,0
539,22,0,0,0,0,0,0,0,0,0,-1,1763,1002,0,0
546,22,0,0,0,0,0,0,0,0,0,-1,1770,1002,0,0
553,22,0,0,0,0,0,0,0,0,0,-1,1777,1002,0,0
560,22,0,0,0,0,0,0,0,0,0,-1,1784,1002,0,0
567,22,0,0,0,0,0,0,0,0,0,-1,1791,1002,0,0
574,22,0,0,0,0,0,0,0,0,0,-1,1798,1002,0,0
581,22,0,0,0,0,0,0,0,0,0,-1,1805,1002,0,0
588,22,0,0,0,0,0,0,0,0,0,-1,1812,1002,0,0
595,22,0,0,0,0,0,0,0,0,0,-1,1819,1002,0,0
602,22,0,0,0,0,0,0,0,0,0,-1,1826,1002,0,0
609,22,0,0,0,0,0,0,0,0,0,-1,1833,1002,0,0
616,22,0,0,0,0,0,0,0,0,0,-1,1840,1002,0,0
623,22,0,0,0,0,0,0,0,0,0,-1,1847,1002,0,0
630,22,0,0,0,0,0,0,0,0,0,-1,1854,1002,0,0
637,22,0,0,0,0,0,0,0,0,0,-1,1861,1002,0,0
644,22,20.9877,3.15247,0,0,0,0,0,0,0,-1,1868,1002,20.9877,-3.15245
651,22,21.1929,3.18036,0.00701895,0.000940921,-0.000774199,0.00711601,0.000843856,-0.124724,0.00448924,0.0454582,1875,1002,21.1929,-3.18038
658,22,21.4227,3.19226,0.00420577,0.000747641,-0.000811993,0.00438694,0.000566471,-0.219522,0.00275528,0.042886,1882,1002,21.4227,-3.19228
665,22,21.4714,3.24585,0.00217115,0.000718347,-0.00041502,0.00228134,0.000608147,-0.259539,0.00136414,0.0389497,1889,1002,21.4714,-3.24585
672,22,21.333,3.02112,0.000497319,0.000874346,0.000699146,0.00140995,-3.82826e-05,0.917083,0.000952983,0.0384312,1896,1002,21.3329,-3.02115
679,22,21.2719,2.7608,-0.00129079,0.00109567,0.0022451,0.00244493,-0.00264005,1.02966,0.00293654,0.0384972,1903,1002,21.2718,-2.76079
686,22,21.2656,2.73004,-0.0027253,0.00127404,0.0037231,0.0035005,-0.00495176,1.03184,0.00490383,0.0380843,1910,1002,21.2656,-2.73002
693,22,21.2131,2.93378,-0.00383495,0.00141055,0.00498586,0.00442142,-0.00684581,1.02753,0.00655514,0.0381032,1917,1002,21.2131,-2.93378
700,22,21.2081,3.04218,-0.00478248,0.00154198,0.00587013,0.00504744,-0.00828795,1.03246,0.00777459,0.0343705,1924,1002,21.2082,-3.04219
707,22,21.1398,3.01953,-0.00569557,0.00168945,0.00647582,0.00545153,-0.00945765,1.04451,0.00871079,0.0304836,1931,1002,21.1397,-3.01952
714,22,21.2013,3.10651,-0.00630039,0.00177278,0.00686285,0.00569815,-0.0102258,1.05124,0.00931673,0.0283853,1938,1002,21.2012,-3.10649
721,22,21.1411,3.52094,-0.00644391,0.0018298,0.00700785,0.00583073,-0.0104448,1.05203,0.00952174,0.0331531,1945,1002,21.1412,-3.52092
728,22,20.7335,3.90729,-0.00615616,0.00195211,0.00670426,0.00573271,-0.00993676,1.05734,0.00915466,0.0264786,1952,1002,20.7336,-3.90731
735,22,20.6915,4.1535,-0.00563951,0.00201591,0.00586699,0.00519341,-0.00881701,1.07443,0.0081786,0.0147942,1959,1002,20.6915,-4.15353
742,22,20.705,4.20892,-0.00511539,0.00220723,0.00450117,0.00434813,-0.00725629,1.12683,0.00676958,0.0165911,1966,1002,20.7049,-4.20891
749,22,20.7129,4.24469,-0.0048492,0.00259181,0.00300642,0.00365469,-0.00591208,1.23098,0.00557439,0.0128425,1973,1002,20.7129,-4.24469
756,22,20.7002,4.27887,-0.00441109,0.00341195,0.0020854,0.00393313,-0.00493228,1.32589,0.00512927,0.0160686,1980,1002,20.7002,-4.27888
763,22,20.6707,4.3385,-0.00386042,0.00364944,0.00136564,0.00389006,-0.00410104,1.39639,0.0046142,0.017576,1987,1002,20.6706,-4.3385
770,22,20.6642,4.38104,-0.00346269,0.00436273,0.000560197,0.00440263,-0.00350259,1.49969,0.00457393,0.0119156,1994,1002,20.6642,-4.38102
777,22,20.6511,4.46094,-0.00335159,0.00523766,0.000374767,0.00525398,-0.00336791,1.52727,0.0050174,0.0192207,2001,1002,20.6511,-4.46096
784,22,20.6631,4.40991,-0.00404862,0.00622142,0.0010753,0.0063328,-0.00416,1.46759,0.00610116,0.0403079,2008,1002,20.6631,-4.40993
791,22,20.6754,4.38153,0,0,0,0,0,0,0,-1,2015,1002,20.6754,-4.38154
798,22,19.9125,4.25647,0,0,0,0,0,0,0,-1,2022,1002,19.9125,-4.25647
805,22,19.074,4.18604,-0.00898599,0.00771691,0.00794958,0.0108955,-0.0121646,1.19042,0.0133205,0.043189,2029,1002,19.0739,-4.18604
812,22,18.5393,4.41376,-0.0113403,0.00702831,0.0123988,0.0132739,-0.0175859,1.10417,0.0178748,0.0409859,2036,1002,18.5393,-4.41373
-700,15,0,0,0,0,0,0,0,0,0,-1,524,1009,0,0
-693,15,-11.0453,-0.602783,-0.0775479,-0.00119263,0.00568998,-0.000770941,-0.0779696,1.49682,0.0517247,0.0497559,531,1009,-11.0453,0.602757
-686,15,-13.4232,3.0885,-0.0634059,-0.000685142,0.00189284,-0.000628065,-0.063463,1.54065,0.0421009,0.0455484,538,1009,-13.4232,-3.08852
-679,15,-13.3348,2.5578,0,0,0,0,0,0,0,-1,545,1009,-13.3348,-2.55779
-672,15,-13.2914,1.82605,-0.0405719,8.82702e-05,-0.000906402,0.000108466,-0.0405921,-1.54852,0.0270976,0.0463662,552,1009,-13.2914,-1.82603
-665,15,-13.3188,1.46887,-0.0315187,0.000429183,-0.0011325,0.000469279,-0.0315587,-1.53541,0.0211973,0.0436593,559,1009,-13.3189,-1.46886
-658,15,-13.3978,1.71832,-0.0239482,0.000717082,-0.0010257,0.000759664,-0.0239908,-1.52931,0.016253,0.0447736,566,1009,-13.3978,-1.71835
-651,15,-13.5486,1.84186,-0.0177609,0.000915798,-0.000823827,0.000952066,-0.0177972,-1.5268,0.0121945,0.0395789,573,1009,-13.5486,-1.84189
-644,15,-13.6771,1.92407,-0.0128038,0.000986281,-0.000866275,0.00104049,-0.012858,-1.50831,0.00893906,0.020333,580,1009,-13.6771,-1.92408
-637,15,-13.6966,1.9577,-0.0086818,0.00170444,-0.0017866,0.00200317,-0.00898053,-1.40512,0.0067545,0.0155445,587,1009,-13.6966,-1.95772
-630,15,-13.7045,1.92194,-0.00537793,0.000325813,-0.00193996,0.000923088,-0.00597521,-1.27213,0.00432414,0.0117467,594,1009,-13.7045,-1.92193
-623,15,-13.7064,1.90448,-0.00343851,0.000831309,-0.002382,0.00189511,-0.00450232,-1.15077,0.00379443,0.00951912,601,1009,-13.7064,-1.90448
-616,15,-13.7068,1.86615,-0.0022103,0.000830082,-0.00337589,0.00301227,-0.00439249,-0.996954,0.00429982,0.0138918,608,1009,-13.7068,-1.86614
-609,15,-13.7079,1.83405,-0.0014508,0.000749895,-0.00430194,0.00408998,-0.00479089,-0.910604,0.00513269,0.0210053,615,1009,-13.7079,-1.83407
-602,15,-13.7261,1.8194,-0.00121684,0.000664062,-0.00501453,0.00482557,-0.00537835,-0.878094,0.00589411,0.0200649,622,1009,-13.7261,-1.81937
-595,15,-13.7142,1.5304,-0.00116298,0.000296919,-0.00560759,0.00522187,-0.00608793,-0.85012,0.00653609,0.0230722,629,1009,-13.7142,-1.53037
-588,15,-13.6548,1.22424,-0.00105854,1.03921e-05,-0.00598021,0.00547997,-0.00652812,-0.829966,0.00694167,0.0297921,636,1009,-13.6548,-1.22425
-581,15,-13.7523,0.983215,-0.000988197,-0.000151819,-0.00605143,0.00549585,-0.00663587,-0.819896,0.00701456,0.0372435,643,1009,-13.7522,-0.983199
-574,15,-13.7377,0.979492,-0.00105747,-0.000203974,-0.00574591,0.00513102,-0.00639246,-0.822465,0.00666636,0.0316633,650,1009,-13.7377,-0.979503
-567,15,-13.7858,1.02185,-0.0011067,-0.00028354,-0.00516557,0.00448683,-0.00587706,-0.825153,0.00600151,0.0325438,657,1009,-13.7858,-1.02187
-560,15,-13.702,0.93335,-0.00111338,-0.000368424,-0.00428785,0.0035631,-0.0050449,-0.828723,0.00499432,0.0367932,664,1009,-13.702,-0.933354
-553,15,-13.6327,1.03088,-0.00109554,-0.000487841,-0.00317418,0.002397,-0.00398038,-0.833115,0.00371961,0.0400517,671,1009,-13.6327,-1.03088
-546,15,-13.7202,1.17944,-0.001101,-0.000652674,-0.00188753,0.00102396,-0.00277764,-0.844502,0.00227136,0.0424839,678,1009,-13.7202,-1.17946
-539,15,-13.7768,1.14575,-0.00112897,-0.000866493,-0.000748134,-0.000238171,-0.00175729,-0.872224,0.00110076,0.0430165,685,1009,-13.7768,-1.14577
-532,15,-13.9244,0.843201,-0.00153586,-0.000845717,-0.00040228,-0.000660784,-0.00172079,-1.1399,0.00100237,0.0423034,692,1009,-13.9244,-0.843224
-525,15,0,0,0,0,0,0,0,0,0,-1,699,1009,0,0
-518,15,0,0,0,0,0,0,0,0,0,-1,706,1009,0,0
-511,15,0,0,0,0,0,0,0,0,0,-1,713,1009,0,0
-504,15,0,0,0,0,0,0,0,0,0,-1,720,1009,0,0
-497,15,0,0,0,0,0,0,0,0,0,-1,727,1009,0,0
-490,15,0,0,0,0,0,0,0,0,0,-1,734,1009,0,0
-483,15,0,0,0,0,0,0,0,0,0,-1,741,1009,0,0
-476,15,0,0,0,0,0,0,0,0,0,-1,748,1009,0,0
-469,15,0,0,0,0,0,0,0,0,0,-1,755,1009,0,0
-462,15,0,0,0,0,0,0,0,0,0,-1,762,1009,0,0
-455,15,0,0,0,0,0,0,0,0,0,-1,769,1009,0,0
-448,15,0,0,0,0,0,0,0,0,0,-1,776,1009,0,0
-441,15,0,0,0,0,0,0,0,0,0,-1,783,1009,0,0
-434,15,0,0,0,0,0,0,0,0,0,-1,790,1009,0,0
-427,15,0,0,0,0,0,0,0,0,0,-1,797,1009,0,0
-420,15,0,0,0,0,0,0,0,0,0,-1,804,1009,0,0
-413,15,0,0,0,0,0,0,0,0,0,-1,811,1009,0,0
-406,15,0,0,0,0,0,0,0,0,0,-1,818,1009,0,0
-399,15,0,0,0,0,0,0,0,0,0,-1,825,1009,0,0
-392,15,0,0,0,0,0,0,0,0,0,-1,832,1009,0,0
-385,15,0,0,0,0,0,0,0,0,0,-1,839,1009,0,0
-378,15,0,0,0,0,0,0,0,0,0,-1,846,1009,0,0
-371,15,0,0,0,0,0,0,0,0,0,-1,853,1009,0,0
-364,15,0,0,0,0,0,0,0,0,0,-1,860,1009,0,0
-357,15,0,0,0,0,0,0,0,0,0,-1,867,1009,0,0
-350,15,0,0,0,0,0,0,0,0,0,-1,874,1009,0,0
-343,15,0,0,0,0,0,0,0,0,0,-1,881,1009,0,0
-336,15,0,0,0,0,0,0,0,0,0,-1,888,1009,0,0
-329,15,0,0,0,0,0,0,0,0,0,-1,895,1009,0,0
-322,15,0,0,0,0,0,0,0,0,0,-1,902,1009,0,0
-315,15,0,0,0,0,0,0,0,0,0,-1,909,1009,0,0
-308,15,0,0,0,0,0,0,0,0,0,-1,916,1009,0,0
-301,15,0,0,0,0,0,0,0,0,0,-1,923,1009,0,0
-294,15,0,0,0,0,0,0,0,0,0,-1,930,1009,0,0
-287,15,0,0,0,0,0,0,0,0,0,-1,937,1009,0,0
-280,15,0,0,0,0,0,0,0,0,0,-1,944,1009,0,0
-273,15,0,0,0,0,0,0,0,0,0,-1,951,1009,0,0
-266,15,0,0,0,0,0,0,0,0,0,-1,958,1009,0,0
-259,15,0,0,0,0,0,0,0,0,0,-1,965,1009,0,0
-252,15,0,0,0,0,0,0,0,0,0,-1,972,1009,0,0
-245,15,0,0,0,0,0,0,0,0,0,-1,979,1009,0,0
-238,15,0,0,0,0,0,0,0,0,0,-1,986,1009,0,0
-231,15,0,0,0,0,0,0,0,0,0,-1,993,1009,0,0
-224,15,0,0,0,0,0,0,0,0,0,-1,1000,1009,0,0
-217,15,0,0,0,0,0,0,0,0,0,-1,1007,1009,0,0
-210,15,0,0,0,0,0,0,0,0,0,-1,1014,1009,0,0
-203,15,0,0,0,0,0,0,0,0,0,-1,1021,1009,0,0
-196,15,0,0,0,0,0,0,0,0,0,-1,1028,1009,0,0
-189,15,0,0,0,0,0,0,0,0,0,-1,1035,1009,0,0
-182,15,0,0,0,0,0,0,0,0,0,-1,1042,1009,0,0
-175,15,0,0,0,0,0,0,0,0,0,-1,1049,1009,0,0
-168,15,0,0,0,0,0,0,0,0,0,-1,1056,1009,0,0
-161,15,0,0,0,0,0,0,0,0,0,-1,1063,1009,0,0
-154,15,0,0,0,0,0,0,0,0,0,-1,1070,1009,0,0
-147,15,0,0,0,0,0,0,0,0,0,-1,1077,1009,0,0
-140,15,0,0,0,0,0,0,0,0,0,-1,1084,1009,0,0
-133,15,0,0,0,0,0,0,0,0,0,-1,1091,1009,0,0
-126,15,0,0,0,0,0,0,0,0,0,-1,1098,1009,0,0
-119,15,0,0,0,0,0,0,0,0,0,-1,1105,1009,0,0
-112,15,0,0,0,0,0,0,0,0,0,-1,1112,1009,0,0
-105,15,0,0,0,0,0,0,0,0,0,-1,1119,1009,0,0
-98,15,0,0,0,0,0,0,0,0,0,-1,1126,1009,0,0
-91,15,0,0,0,0,0,0,0,0,0,-1,1133,1009,0,0
-84,15,0,0,0,0,0,0,0,0,0,-1,1140,1009,0,0
-77,15,0,0,0,0,0,0,0,0,0,-1,1147,1009,0,0
-70,15,0,0,0,0,0,0,0,0,0,-1,1154,1009,0,0
-63,15,0,0,0,0,0,0,0,0,0,-1,1161,1009,0,0
-56,15,0,0,0,0,0,0,0,0,0,-1,1168,1009,0,0
-49,15,0,0,0,0,0,0,0,0,0,-1,1175,1009,0,0
-42,15,0,0,0,0,0,0,0,0,0,-1,1182,1009,0,0
-35,15,0,0,0,0,0,0,0,0,0,-1,1189,1009,0,0
-28,15,0,0,0,0,0,0,0,0,0,-1,1196,1009,0,0
-21,15,0,0,0,0,0,0,0,0,0,-1,1203,1009,0,0
-14,15,0,0,0,0,0,0,0,0,0,-1,1210,1009,0,0
-7,15,0,0,0,0,0,0,0,0,0,-1,1217,1009,0,0
0,15,0,0,0,0,0,0,0,0,0,-1,1224,1009,0,0
7,15,0,0,0,0,0,0,0,0,0,-1,1231,1009,0,0
14,15,0,0,0,0,0,0,0,0,0,-1,1238,1009,0,0
21,15,0,0,0,0,0,0,0,0,0,-1,1245,1009,0,0
28,15,0,0,0,0,0,0,0,0,0,-1,1252,1009,0,0
35,15,0,0,0,0,0,0,0,0,0,-1,1259,1009,0,0
42,15,0,0,0,0,0,0,0,0,0,-1,1266,1009,0,0
49,15,0,0,0,0,0,0,0,0,0,-1,1273,1009,0,0
56,15,0,0,0,0,0,0,0,0,0,-1,1280,1009,0,0
63,15,0,0,0,0,0,0,0,0,0,-1,1287,1009,0,0
70,15,0,0,0,0,0,0,0,0,0,-1,1294,1009,0,0
77,15,0,0,0,0,0,0,0,0,0,-1,1301,1009,0,0
84,15,0,0,0,0,0,0,0,0,0,-1,1308,1009,0,0
91,15,0,0,0,0,0,0,0,0,0,-1,1315,1009,0,0
98,15,0,0,0,0,0,0,0,0,0,-1,1322,1009,0,0
105,15,0,0,0,0,0,0,0,0,0,-1,1329,1009,0,0
112,15,0,0,0,0,0,0,0,0,0,-1,1336,1009,0,0
119,15,0,0,0,0,0,0,0,0,0,-1,1343,1009,0,0
126,15,0,0,0,0,0,0,0,0,0,-1,1350,1009,0,0
133,15,0,0,0,0,0,0,0,0,0,-1,1357,1009,0,0
140,15,0,0,0,0,0,0,0,0,0,-1,1364,1009,0,0
147,15,0,0,0,0,0,0,0,0,0,-1,1371,1009,0,0
154,15,0,0,0,0,0,0,0,0,0,-1,1378,1009,0,0
161,15,0,0,0,0,0,0,0,0,0,-1,1385,1009,0,0
168,15,0,0,0,0,0,0,0,0,0,-1,1392,1009,0,0
175,15,0,0,0,0,0,0,0,0,0,-1,1399,1009,0,0
182,15,0,0,0,0,0,0,0,0,0,-1,1406,1009,0,0
189,15,0,0,0,0,0,0,0,0,0,-1,1413,1009,0,0
196,15,0,0,0,0,0,0,0,0,0,-1,1420,1009,0,0
203,15,0,0,0,0,0,0,0,0,0,-1,1427,1009,0,0
210,15,0,0,0,0,0,0,0,0,0,-1,1434,1009,0,0
217,15,0,0,0,0,0,0,0,0,0,-1,1441,1009,0,0
224,15,0,0,0,0,0,0,0,0,0,-1,1448,1009,0,0
231,15,0,0,0,0,0,0,0,0,0,-1,1455,1009,0,0
238,15,0,0,0,0,0,0,0,0,0,-1,1462,1009,0,0
245,15,0,0,0,0,0,0,0,0,0,-1,1469,1009,0,0
252,15,0,0,0,0,0,0,0,0,0,-1,1476,1009,0,0
259,15,0,0,0,0,0,0,0,0,0,-1,1483,1009,0,0
266,15,0,0,0,0,0,0,0,0,0,-1,1490,1009,0,0
273,15,0,0,0,0,0,0,0,0,0,-1,1497,1009,0,0
280,15,0,0,0,0,0,0,0,0,0,-1,1504,1009,0,0
287,15,0,0,0,0,0,0,0,0,0,-1,1511,1009,0,0
294,15,0,0,0,0,0,0,0,0,0,-1,1518,1009,0,0
301,15,0,0,0,0,0,0,0,0,0,-1,1525,1009,0,0
308,15,0,0,0,0,0,0,0,0,0,-1,1532,1009,0,0
315,15,0,0,0,0,0,0,0,0,0,-1,1539,1009,0,0
322,15,0,0,0,0,0,0,0,0,0,-1,1546,1009,0,0
329,15,0,0,0,0,0,0,0,0,0,-1,1553,1009,0,0
336,15,0,0,0,0,0,0,0,0,0,-1,1560,1009,0,0
343,15,0,0,0,0,0,0,0,0,0,-1,1567,1009,0,0
350,15,0,0,0,0,0,0,0,0,0,-1,1574,1009,0,0
357,15,0,0,0,0,0,0,0,0,0,-1,1581,1009,0,0
364,15,0,0,0,0,0,0,0,0,0,-1,1588,1009,0,0
371,15,0,0,0,0,0,0,0,0,0,-1,1595,1009,0,0
378,15,0,0,0,0,0,0,0,0,0,-1,1602,1009,0,0
385,15,0,0,0,0,0,0,0,0,0,-1,1609,1009,0,0
392,15,0,0,0,0,0,0,0,0,0,-1,1616,1009,0,0
399,15,0,0,0,0,0,0,0,0,0,-1,1623,1009,0,0
406,15,0,0,0,0,0,0,0,0,0,-1,1630,1009,0,0
413,15,0,0,0,0,0,0,0,0,0,-1,1637,1009,0,0
420,15,0,0,0,0,0,0,0,0,0,-1,1644,1009,0,0
427,15,0,0,0,0,0,0,0,0,0,-1,1651,1009,0,0
434,15,0,0,0,0,0,0,0,0,0,-1,1658,1009,0,0
441,15,0,0,0,0,0,0,0,0,0,-1,1665,1009,0,0
448,15,0,0,0,0,0,0,0,0,0,-1,1672,1009,0,0
455,15,0,0,0,0,0,0,0,0,0,-1,1679,1009,0,0
462,15,0,0,0,0,0,0,0,0,0,-1,1686,1009,0,0
469,15,0,0,0,0,0,0,0,0,0,-1,1693,1009,0,0
476,15,0,0,0,0,0,0,0,0,0,-1,1700,1009,0,0
483,15,0,0,0,0,0,0,0,0,0,-1,1707,1009,0,0
490,15,0,0,0,0,0,0,0,0,0,-1,1714,1009,0,0
497,15,0,0,0,0,0,0,0,0,0,-1,1721,1009,0,0
504,15,0,0,0,0,0,0,0,0,0,-1,1728,1009,0,0
511,15,0,0,0,0,0,0,0,0,0,-1,1735,1009,0,0
518,15,0,0,0,0,0,0,0,0,0,-1,1742,1009,0,0
525,15,0,0,0,0,0,0,0,0,0,-1,1749,1009,0,0
532,15,0,0,0,0,0,0,0,0,0,-1,1756,1009,0,0
539,15,0,0,0,0,0,0,0,0,0,-1,1763,1009,0,0
546,15,0,0,0,0,0,0,0,0,0,-1,1770,1009,0,0
553,15,0,0,0,0,0,0,0,0,0,-1,1777,1009,0,0
560,15,0,0,0,0,0,0,0,0,0,-1,1784,1009,0,0
567,15,0,0,0,0,0,0,0,0,0,-1,1791,1009,0,0
574,15,0,0,0,0,0,0,0,0,0,-1,1798,1009,0,0
581,15,0,0,0,0,0,0,0,0,0,-1,1805,1009,0,0
588,15,0,0,0,0,0,0,0,0,0,-1,1812,1009,0,0
595,15,0,0,0,0,0,0,0,0,0,-1,1819,1009,0,0
602,15,0,0,0,0,0,0,0,0,0,-1,1826,1009,0,0
609,15,0,0,0,0,0,0,0,0,0,-1,1833,1009,0,0
616,15,0,0,0,0,0,0,0,0,0,-1,1840,1009,0,0
623,15,0,0,0,0,0,0,0,0,0,-1,1847,1009,0,0
630,15,0,0,0,0,0,0,0,0,0,-1,1854,1009,0,0
637,15,0,0,0,0,0,0,0,0,0,-1,1861,1009,0,0
644,15,21.1486,3.07416,0.0121715,0.000688115,-0.000917331,0.0122443,0.000615297,-0.0792138,0.00796571,0.0402232,1868,1009,21.1486,-3.07415
651,15,21.1575,3.14142,0.00735923,0.000780015,-0.00116455,0.00755928,0.000579969,-0.17012,0.00485775,0.0408607,1875,1009,21.1574,-3.14143
658,15,21.3458,3.06769,0.00426664,0.000600734,-0.00101925,0.00453097,0.000336408,-0.253745,0.00291499,0.0387037,1882,1009,21.3458,-3.06771
665,15,21.473,2.82068,0.00213576,0.000530102,-0.000597212,0.00233353,0.000332333,-0.319787,0.00145759,0.0369723,1889,1009,21.473,-2.82067
672,15,21.3409,2.88684,0.000514345,0.000641724,0.000538993,0.00112078,3.52911e-05,0.844208,0.000735704,0.0372672,1896,1009,21.3409,-2.88685
679,15,21.3302,2.80652,-0.00119572,0.000844182,0.00215263,0.00220627,-0.00255781,1.00664,0.00275304,0.0376037,1903,1009,21.3301,-2.80654
686,15,21.2853,2.91437,-0.00256436,0.00101721,0.00370533,0.00334181,-0.00488896,1.0105,0.00477994,0.0433514,1910,1009,21.2853,-2.91438
693,15,21.1431,3.01709,-0.00363277,0.00117922,0.00504025,0.00435829,-0.00681184,1.00808,0.00650073,0.0426647,1917,1009,21.143,-3.01711
700,15,21.1914,2.99005,-0.00454064,0.00133232,0.0060134,0.00508792,-0.00829624,1.01253,0.007801,0.0328769,1924,1009,21.1914,-2.99002
707,15,21.1906,2.98456,-0.00541265,0.00147248,0.00669469,0.00555788,-0.00949805,1.02288,0.0087912,0.0286088,1931,1009,21.1906,-2.98455
714,15,21.2098,2.98633,-0.00598436,0.00156588,0.00713868,0.00586617,-0.0102847,1.02862,0.00944028,0.0301212,1938,1009,21.2098,-2.98635
721,15,21.2107,3.36902,-0.0061165,0.00164869,0.00731015,0.00604334,-0.0105112,1.02952,0.00967307,0.0339359,1945,1009,21.2107,-3.36905
728,15,20.7026,3.97174,-0.00585889,0.00181219,0.00705102,0.00600337,-0.0100501,1.0345,0.0093661,0.0321387,1952,1009,20.7027,-3.97176
735,15,20.756,4.15826,-0.00539522,0.00192882,0.00630983,0.0055623,-0.0090287,1.04833,0.00850299,0.0156891,1959,1009,20.7559,-4.15829
742,15,20.7379,4.21826,-0.00486285,0.00213377,0.00510505,0.00482413,-0.00755321,1.08578,0.00720373,0.0173105,1966,1009,20.7379,-4.21829
749,15,20.7354,4.24963,-0.00437098,0.00238832,0.00380484,0.00409777,-0.00608042,1.14854,0.00591343,0.0103026,1973,1009,20.7353,-4.24962
756,15,20.745,4.27765,-0.00355201,0.00317981,0.0029888,0.00431526,-0.00468746,1.20773,0.0051992,0.0111489,1980,1009,20.7451,-4.27764
763,15,20.718,4.31122,-0.0024101,0.00336615,0.00235412,0.00420404,-0.00324798,1.22886,0.00431421,0.0118314,1987,1009,20.718,-4.3112
770,15,20.7001,4.3526,-0.00128366,0.00396509,0.00163422,0.00443232,-0.00175089,1.29232,0.00368007,0.0112993,1994,1009,20.7001,-4.35259
777,15,20.6885,4.38837,-0.000139291,0.00471482,0.00149495,0.00513829,-0.000562758,1.29476,0.00362769,0.0204402,2001,1009,20.6885,-4.38834
784,15,20.679,4.40033,0.000546976,0.00556877,0.00221177,0.006404,-0.00028825,1.20972,0.00436859,0.0412907,2008,1009,20.6789,-4.40034
791,15,20.6715,4.41553,0,0,0,0,0,0,0,-1,2015,1009,20.6715,-4.41551
798,15,19.9276,4.3703,0.00152019,0.0068126,0.00546597,0.0102392,-0.00190644,1.01083,0.00754237,0.0479913,2022,1009,19.9276,-4.37028
805,15,19.2041,4.58264,0.00228445,0.0069282,0.00795373,0.012892,-0.00367938,0.927413,0.0100483,0.0458828,2029,1009,19.204,-4.58267
812,15,19.342,7.11487,0.00338138,0.00647002,0.0111443,0.0161765,-0.00632508,0.854247,0.0133999,0.0453587,2036,1009,19.3419,-7.11485
-700,8,0,0,0,0,0,0,0,0,0,-1,524,1016,0,0
-693,8,-12.1077,0.0314331,-0.0754892,-0.0050923,0.0121275,-0.00306163,-0.0775198,1.40489,0.0506902,0.044985,531,1016,-12.1076,-0.0314431
-686,8,-12.4334,0.442688,-0.06193,-0.00361864,0.00780836,-0.00259114,-0.0629575,1.43996,0.0411352,0.0473146,538,1016,-12.4334,-0.442697
-679,8,-13.7014,1.40472,0,0,0,0,0,0,0,-1,545,1016,-13.7013,-1.4047
-672,8,-13.6119,1.44604,-0.0397289,-0.00137042,0.00343142,-0.00106587,-0.0400334,1.48228,0.0263408,0.0486716,552,1016,-13.6119,-1.44606
-665,8,-13.5138,1.47491,-0.0308422,-0.000507426,0.00239938,-0.000318815,-0.0310308,1.49235,0.0205818,0.0444873,559,1016,-13.5138,-1.47492
-658,8,-13.5524,1.71576,-0.0233954,0.000171151,0.00175559,0.000301217,-0.0235254,1.49685,0.015785,0.0351389,566,1016,-13.5524,-1.71574
-651,8,-13.6095,1.79437,-0.0173114,0.000643141,0.00128672,0.000734887,-0.0174032,1.49962,0.0118547,0.0210762,573,1016,-13.6095,-1.79436
-644,8,-13.6148,1.85297,-0.012457,0.00089691,0.000656017,0.000929059,-0.0124891,1.52183,0.0086524,0.0192675,580,1016,-13.6148,-1.85298
-637,8,-13.6681,1.8988,-0.00841126,0.0016501,-0.000818174,0.0017162,-0.00847735,-1.49018,0.00630202,0.0164491,587,1016,-13.6681,-1.8988
-630,8,-13.7267,1.89819,-0.00502949,0.000387424,-0.00147788,0.000764395,-0.00540646,-1.32105,0.00388426,0.013513,594,1016,-13.7268,-1.89822
-623,8,-13.711,1.90778,-0.00316378,0.000869481,-0.00229172,0.00190552,-0.00419982,-1.14621,0.00360693,0.0137341,601,1016,-13.711,-1.90776
-616,8,-13.726,1.86835,-0.00197375,0.000786877,-0.00343442,0.00310799,-0.00429486,-0.976472,0.0042923,0.0127946,608,1016,-13.726,-1.86834
-609,8,-13.7231,1.8454,-0.00112715,0.000587729,-0.00452411,0.00433493,-0.00487436,-0.879051,0.00532003,0.015541,615,1016,-13.7231,-1.84539
-602,8,-13.73,1.84259,-0.000804791,0.000331763,-0.0053482,0.0051418,-0.00561483,-0.838327,0.00621234,0.020973,622,1016,-13.73,-1.84256
-595,8,-13.6507,1.51263,-0.000678208,-1.79021e-05,-0.00596683,0.0056279,-0.00632401,-0.813036,0.00690434,0.0280133,629,1016,-13.6507,-1.5126
-588,8,-13.6644,1.06262,-0.000542228,-0.000271858,-0.00630771,0.00590212,-0.0067162,-0.796112,0.00729024,0.0278271,636,1016,-13.6644,-1.06261
-581,8,-13.6689,0.967224,-0.000474409,-0.000425819,-0.00632148,0.00587141,-0.00677164,-0.78732,0.00730563,0.0302265,643,1016,-13.6689,-0.967194
-574,8,-13.6691,1.02917,-0.000585165,-0.000449871,-0.00596291,0.00544577,-0.00648081,-0.79107,0.00689445,0.0357354,650,1016,-13.6691,-1.02915
-567,8,-13.6543,0.807861,-0.000716925,-0.000451614,-0.00529038,0.00470778,-0.00587632,-0.797933,0.00612313,0.0391014,657,1016,-13.6543,-0.807864
-560,8,-13.6011,0.687256,-0.000881623,-0.000428338,-0.00429371,0.0036447,-0.00495466,-0.811766,0.00498401,0.0407603,664,1016,-13.6011,-0.687229
-553,8,-13.608,0.950073,-0.00111603,-0.000420692,-0.00303961,0.00229107,-0.00382779,-0.84234,0.00356967,0.0404479,671,1016,-13.6081,-0.950072
-546,8,-13.7789,1.11548,-0.00148092,-0.000460651,-0.00160607,0.000714358,-0.00265593,-0.939174,0.00205064,0.0381225,678,1016,-13.779,-1.1155
-539,8,-13.8228,1.2027,-0.00197942,-0.000590329,-0.000381755,-0.000492328,-0.00207743,-1.31951,0.00125349,0.0402018,685,1016,-13.8228,-1.20268
-532,8,-13.8738,1.24005,-0.00294607,-0.000573432,-0.00011057,-0.000568291,-0.00295122,-1.52433,0.00180807,0.0424019,692,1016,-13.8738,-1.24005
-525,8,0,0,0,0,0,0,0,0,0,-1,699,1016,0,0
-518,8,0,0,0,0,0,0,0,0,0,-1,706,1016,0,0
-511,8,0,0,0,0,0,0,0,0,0,-1,713,1016,0,0
-504,8,0,0,0,0,0,0,0,0,0,-1,720,1016,0,0
-497,8,0,0,0,0,0,0,0,0,0,-1,727,1016,0,0
-490,8,0,0,0,0,0,0,0,0,0,-1,734,1016,0,0
-483,8,0,0,0,0,0,0,0,0,0,-1,741,1016,0,0
-476,8,0,0,0,0,0,0,0,0,0,-1,748,1016,0,0
-469,8,0,0,0,0,0,0,0,0,0,-1,755,1016,0,0
-462,8,0,0,0,0,0,0,0,0,0,-1,762,1016,0,0
-455,8,0,0,0,0,0,0,0,0,0,-1,769,1016,0,0
-448,8,0,0,0,0,0,0,0,0,0,-1,776,1016,0,0
-441,8,0,0,0,0,0,0,0,0,0,-1,783,1016,0,0
-434,8,0,0,0,0,0,0,0,0,0,-1,790,1016,0,0
-427,8,0,0,0,0,0,0,0,0,0,-1,797,1016,0,0
-420,8,0,0,0,0,0,0,0,0,0,-1,804,1016,0,0
-413,8,0,0,0,0,0,0,0,0,0,-1,811,1016,0,0
-406,8,0,0,0,0,0,0,0,0,0,-1,818,1016,0,0
-399,8,0,0,0,0,0,0,0,0,0,-1,825,1016,0,0
-392,8,0,0,0,0,0,0,0,0,0,-1,832,1016,0,0
-385,8,0,0,0,0,0,0,0,0,0,-1,839,1016,0,0
-378,8,0,0,0,0,0,0,0,0,0,-1,846,1016,0,0
-371,8,0,0,0,0,0,0,0,0,0,-1,853,1016,0,0
-364,8,0,0,0,0,0,0,0,0,0,-1,860,1016,0,0
-357,8,0,0,0,0,0,0,0,0,0,-1,867,1016,0,0
-350,8,0,0,0,0,0,0,0,0,0,-1,874,1016,0,0
-343,8,0,0,0,0,0,0,0,0,0,-1,881,1016,0,0
-336,8,0,0,0,0,0,0,0,0,0,-1,888,1016,0,0
-329,8,0,0,0,0,0,0,0,0,0,-1,895,1016,0,0
-322,8,0,0,0,0,0,0,0,0,0,-1,902,1016,0,0
-315,8,0,0,0,0,0,0,0,0,0,-1,909,1016,0,0
-308,8,0,0,0,0,0,0,0,0,0,-1,916,1016,0,0
-301,8,0,0,0,0,0,0,0,0,0,-1,923,1016,0,0
-294,8,0,0,0,0,0,0,0,0,0,-1,930,1016,0,0
-287,8,0,0,0,0,0,0,0,0,0,-1,937,1016,0,0
-280,8,0,0,0,0,0,0,0,0,0,-1,944,1016,0,0
-273,8,0,0,0,0,0,0,0,0,0,-1,951,1016,0,0
-266,8,0,0,0,0,0,0,0,0,0,-1,958,1016,0,0
-259,8,0,0,0,0,0,0,0,0,0,-1,965,1016,0,0
-252,8,0,0,0,0,0,0,0,0,0,-1,972,1016,0,0
-245,8,0,0,0,0,0,0,0,0,0,-1,979,1016,0,0
-238,8,0,0,0,0,0,0,0,0,0,-1,986,1016,0,0
-231,8,0,0,0,0,0,0,0,0,0,-1,993,1016,0,0
-224,8,0,0,0,0,0,0,0,0,0,-1,1000,1016,0,0
-217,8,0,0,0,0,0,0,0,0,0,-1,1007,1016,0,0
-210,8,0,0,0,0,0,0,0,0,0,-1,1014,1016,0,0
-203,8,0,0,0,0,0,0,0,0,0,-1,1021,1016,0,0
-196,8,0,0,0,0,0,0,0,0,0,-1,1028,1016,0,0
-189,8,0,0,0,0,0,0,0,0,0,-1,1035,1016,0,0
-182,8,0,0,0,0,0,0,0,0,0,-1,1042,1016,0,0
-175,8,0,0,0,0,0,0,0,0,0,-1,1049,1016,0,0
-168,8,0,0,0,0,0,0,0,0,0,-1,1056,1016,0,0
-161,8,0,0,0,0,0,0,0,0,0,-1,1063,1016,0,0
-154,8,0,0,0,0,0,0,0,0,0,-1,1070,1016,0,0
-147,8,0,0,0,0,0,0,0,0,0,-1,1077,1016,0,0
-140,8,0,0,0,0,0,0,0,0,0,-1,1084,1016,0,0
-133,8,0,0,0,0,0,0,0,0,0,-1,1091,1016,0,0
-126,8,0,0,0,0,0,0,0,0,0,-1,1098,1016,0,0
-119,8,0,0,0,0,0,0,0,0,0,-1,1105,1016,0,0
-112,8,0,0,0,0,0,0,0,0,0,-1,1112,1016,0,0
-105,8,0,0,0,0,0,0,0,0,0,-1,1119,1016,0,0
-98,8,0,0,0,0,0,0,0,0,0,-1,1126,1016,0,0
-91,8,0,0,0,0,0,0,0,0,0,-1,1133,1016,0,0
-84,8,0,0,0,0,0,0,0,0,0,-1,1140,1016,0,0
-77,8,0,0,0,0,0,0,0,0,0,-1,1147,1016,0,0
-70,8,0,0,0,0,0,0,0,0,0,-1,1154,1016,0,0
-63,8,0,0,0,0,0,0,0,0,0,-1,1161,1016,0,0
-56,8,0,0,0,0,0,0,0,0,0,-1,1168,1016,0,0
-49,8,0,0,0,0,0,0,0,0,0,-1,1175,1016,0,0
-42,8,0,0,0,0,0,0,0,0,0,-1,1182,1016,0,0
-35,8,0,0,0,0,0,0,0,0,0,-1,1189,1016,0,0
-28,8,0,0,0,0,0,0,0,0,0,-1,1196,1016,0,0
-21,8,0,0,0,0,0,0,0,0,0,-1,1203,1016,0,0
-14,8,0,0,0,0,0,0,0,0,0,-1,1210,1016,0,0
-7,8,0,0,0,0,0,0,0,0,0,-1,1217,1016,0,0
0,8,0,0,0,0,0,0,0,0,0,-1,1224,1016,0,0
7,8,0,0,0,0,0,0,0,0,0,-1,1231,1016,0,0
14,8,0,0,0,0,0,0,0,0,0,-1,1238,1016,0,0
21,8,0,0,0,0,0,0,0,0,0,-1,1245,1016,0,0
28,8,0,0,0,0,0,0,0,0,0,-1,1252,1016,0,0
35,8,0,0,0,0,0,0,0,0,0,-1,1259,1016,0,0
42,8,0,0,0,0,0,0,0,0,0,-1,1266,1016,0,0
49,8,0,0,0,0,0,0,0,0,0,-1,1273,1016,0,0
56,8,0,0,0,0,0,0,0,0,0,-1,1280,1016,0,0
63,8,0,0,0,0,0,0,0,0,0,-1,1287,1016,0,0
70,8,0,0,0,0,0,0,0,0,0,-1,1294,1016,0,0
77,8,0,0,0,0,0,0,0,0,0,-1,1301,1016,0,0
84,8,0,0,0,0,0,0,0,0,0,-1,1308,1016,0,0
91,8,0,0,0,0,0,0,0,0,0,-1,1315,1016,0,0
98,8,0,0,0,0,0,0,0,0,0,-1,1322,1016,0,0
105,8,0,0,0,0,0,0,0,0,0,-1,1329,1016,0,0
112,8,0,0,0,0,0,0,0,0,0,-1,1336,1016,0,0
119,8,0,0,0,0,0,0,0,0,0,-1,1343,1016,0,0
126,8,0,0,0,0,0,0,0,0,0,-1,1350,1016,0,0
133,8,0,0,0,0,0,0,0,0,0,-1,1357,1016,0,0
140,8,0,0,0,0,0,0,0,0,0,-1,1364,1016,0,0
147,8,0,0,0,0,0,0,0,0,0,-1,1371,1016,0,0
154,8,0,0,0,0,0,0,0,0,0,-1,1378,1016,0,0
161,8,0,0,0,0,0,0,0,0,0,-1,1385,1016,0,0
168,8,0,0,0,0,0,0,0,0,0,-1,1392,1016,0,0
175,8,0,0,0,0,0,0,0,0,0,-1,1399,1016,0,0
182,8,0,0,0,0,0,0,0,0,0,-1,1406,1016,0,0
189,8,0,0,0,0,0,0,0,0,0,-1,1413,1016,0,0
196,8,0,0,0,0,0,0,0,0,0,-1,1420,1016,0,0
203,8,0,0,0,0,0,0,0,0,0,-1,1427,1016,0,0
210,8,0,0,0,0,0,0,0,0,0,-1,1434,1016,0,0
217,8,0,0,0,0,0,0,0,0,0,-1,1441,1016,0,0
224,8,0,0,0,0,0,0,0,0,0,-1,1448,1016,0,0
231,8,0,0,0,0,0,0,0,0,0,-1,1455,1016,0,0
238,8,0,0,0,0,0,0,0,0,0,-1,1462,1016,0,0
245,8,0,0,0,0,0,0,0,0,0,-1,1469,1016,0,0
252,8,0,0,0,0,0,0,0,0,0,-1,1476,1016,0,0
259,8,0,0,0,0,0,0,0,0,0,-1,1483,1016,0,0
266,8,0,0,0,0,0,0,0,0,0,-1,1490,1016,0,0
273,8,0,0,0,0,0,0,0,0,0,-1,1497,1016,0,0
280,8,0,0,0,0,0,0,0,0,0,-1,1504,1016,0,0
287,8,0,0,0,0,0,0,0,0,0,-1,1511,1016,0,0
294,8,0,0,0,0,0,0,0,0,0,-1,1518,1016,0,0
301,8,0,0,0,0,0,0,0,0,0,-1,1525,1016,0,0
308,8,0,0,0,0,0,0,0,0,0,-1,1532,1016,0,0
315,8,0,0,0,0,0,0,0,0,0,-1,1539,1016,0,0
322,8,0,0,0,0,0,0,0,0,0,-1,1546,1016,0,0
329,8,0,0,0,0,0,0,0,0,0,-1,1553,1016,0,0
336,8,0,0,0,0,0,0,0,0,0,-1,1560,1016,0,0
343,8,0,0,0,0,0,0,0,0,0,-1,1567,1016,0,0
350,8,0,0,0,0,0,0,0,0,0,-1,1574,1016,0,0
357,8,0,0,0,0,0,0,0,0,0,-1,1581,1016,0,0
364,8,0,0,0,0,0,0,0,0,0,-1,1588,1016,0,0
371,8,0,0,0,0,0,0,0,0,0,-1,1595,1016,0,0
378,8,0,0,0,0,0,0,0,0,0,-1,1602,1016,0,0
385,8,0,0,0,0,0,0,0,0,0,-1,1609,1016,0,0
392,8,0,0,0,0,0,0,0,0,0,-1,1616,1016,0,0
399,8,0,0,0,0,0,0,0,0,0,-1,1623,1016,0,0
406,8,0,0,0,0,0,0,0,0,0,-1,1630,1016,0,0
413,8,0,0,0,0,0,0,0,0,0,-1,1637,1016,0,0
420,8,0,0,0,0,0,0,0,0,0,-1,1644,1016,0,0
427,8,0,0,0,0,0,0,0,0,0,-1,1651,1016,0,0
434,8,0,0,0,0,0,0,0,0,0,-1,1658,1016,0,0
441,8,0,0,0,0,0,0,0,0,0,-1,1665,1016,0,0
448,8,0,0,0,0,0,0,0,0,0,-1,1672,1016,0,0
455,8,0,0,0,0,0,0,0,0,0,-1,1679,1016,0,0
462,8,0,0,0,0,0,0,0,0,0,-1,1686,1016,0,0
469,8,0,0,0,0,0,0,0,0,0,-1,1693,1016,0,0
476,8,0,0,0,0,0,0,0,0,0,-1,1700,1016,0,0
483,8,0,0,0,0,0,0,0,0,0,-1,1707,1016,0,0
490,8,0,0,0,0,0,0,0,0,0,-1,1714,1016,0,0
497,8,0,0,0,0,0,0,0,0,0,-1,1721,1016,0,0
504,8,0,0,0,0,0,0,0,0,0,-1,1728,1016,0,0
511,8,0,0,0,0,0,0,0,0,0,-1,1735,1016,0,0
518,8,0,0,0,0,0,0,0,0,0,-1,1742,1016,0,0
525,8,0,0,0,0,0,0,0,0,0,-1,1749,1016,0,0
532,8,0,0,0,0,0,0,0,0,0,-1,1756,1016,0,0
539,8,0,0,0,0,0,0,0,0,0,-1,1763,1016,0,0
546,8,0,0,0,0,0,0,0,0,0,-1,1770,1016,0,0
553,8,0,0,0,0,0,0,0,0,0,-1,1777,1016,0,0
560,8,0,0,0,0,0,0,0,0,0,-1,1784,1016,0,0
567,8,0,0,0,0,0,0,0,0,0,-1,1791,1016,0,0
574,8,0,0,0,0,0,0,0,0,0,-1,1798,1016,0,0
581,8,0,0,0,0,0,0,0,0,0,-1,1805,1016,0,0
588,8,0,0,0,0,0,0,0,0,0,-1,1812,1016,0,0
595,8,0,0,0,0,0,0,0,0,0,-1,1819,1016,0,0
602,8,0,0,0,0,0,0,0,0,0,-1,1826,1016,0,0
609,8,0,0,0,0,0,0,0,0,0,-1,1833,1016,0,0
616,8,0,0,0,0,0,0,0,0,0,-1,1840,1016,0,0
623,8,0,0,0,0,0,0,0,0,0,-1,1847,1016,0,0
630,8,0,0,0,0,0,0,0,0,0,-1,1854,1016,0,0
637,8,0,0,0,0,0,0,0,0,0,-1,1861,1016,0,0
644,8,21.1204,3.19226,0.0113167,0.000891953,-0.00163902,0.0115683,0.000640333,-0.152329,0.00750789,0.0432027,1868,1016,21.1204,-3.19225
651,8,21.1923,3.10211,0.00652183,0.000799654,-0.00145626,0.00687112,0.000450366,-0.235406,0.00443825,0.0399356,1875,1016,21.1923,-3.10209
658,8,21.2611,2.93457,0.0035414,0.000527027,-0.00107298,0.00388432,0.000184107,-0.309337,0.00253041,0.0393311,1882,1016,21.2611,-2.93457
665,8,21.3224,2.77948,0.00159097,0.000383017,-0.000613854,0.00184816,0.000125829,-0.396755,0.00119238,0.0408677,1889,1016,21.3223,-2.7795
672,8,21.2069,2.76794,0.000209339,0.000449334,0.000518112,0.000861163,-0.00020249,0.899195,0.000652169,0.0403824,1896,1016,21.2069,-2.76793
679,8,21.205,2.63214,-0.00127109,0.000638866,0.00215286,0.00203905,-0.00267127,0.994152,0.00272766,0.0375342,1903,1016,21.205,-2.63213
686,8,21.1831,2.79767,-0.00245985,0.000813824,0.00372919,0.00324959,-0.00489561,0.992201,0.00473453,0.0424833,1910,1016,21.1831,-2.79769
693,8,21.0496,3.09851,-0.00338085,0.000986068,0.00509326,0.00434417,-0.00673894,0.987896,0.00644844,0.041681,1917,1016,21.0495,-3.09852
700,8,21.204,3.04742,-0.00417809,0.00116131,0.00611365,0.00516275,-0.00817952,0.991259,0.00776852,0.0305608,1924,1016,21.2039,-3.04741
707,8,21.2144,2.95093,-0.00495153,0.00129011,0.00683171,0.00568007,-0.00934149,0.999651,0.00875815,0.022893,1931,1016,21.2143,-2.95093
714,8,21.2103,2.8974,-0.0054653,0.00139166,0.00730226,0.00603025,-0.0101039,1.00488,0.0094135,0.0255718,1938,1016,21.2103,-2.8974
721,8,21.306,3.30212,-0.00558541,0.00150396,0.00747167,0.00622913,-0.0103106,1.00688,0.00964564,0.0333553,1945,1016,21.306,-3.30215
728,8,20.8733,3.94824,-0.0053662,0.00169912,0.00723794,0.0062205,-0.00988758,1.01243,0.00937999,0.0291514,1952,1016,20.8733,-3.94827
735,8,20.7644,4.16089,-0.00498854,0.00186639,0.00659099,0.00586783,-0.00898999,1.02517,0.00864107,0.0168005,1959,1016,20.7644,-4.16091
742,8,20.7622,4.18225,-0.00452227,0.00211588,0.00557168,0.00528216,-0.00768855,1.05403,0.00753148,0.0159576,1966,1016,20.7622,-4.18227
749,8,20.766,4.23645,-0.00382967,0.00231732,0.00452879,0.00471706,-0.00622941,1.08353,0.00634002,0.0108146,1973,1016,20.766,-4.23645
756,8,20.7687,4.26093,-0.0026201,0.00313177,0.00388012,0.00508557,-0.0045739,1.10432,0.00557951,0.0117345,1980,1016,20.7687,-4.26094
763,8,20.7537,4.28589,-0.000981277,0.00342702,0.00335623,0.00523815,-0.00279242,1.07595,0.00470758,0.0130838,1987,1016,20.7537,-4.28588
770,8,20.7391,4.31158,0.00081975,0.00408566,0.0027938,0.00568873,-0.000783322,1.04987,0.00407875,0.0140851,1994,1016,20.7391,-4.31161
777,8,20.712,4.35773,0.00296301,0.00492556,0.00278097,0.0068933,0.000995274,0.955005,0.00430232,0.0180793,2001,1016,20.712,-4.3577
784,8,20.7009,4.4071,0.00503631,0.00590036,0.00361082,0.00910491,0.00183176,0.844938,0.00556084,0.03655,2008,1016,20.701,-4.40713
791,8,20.7144,4.46436,0,0,0,0,0,0,0,-1,2015,1016,20.7144,-4.46435
798,8,20.0613,4.62006,0,0,0,0,0,0,0,-1,2022,1016,20.0612,-4.62007
805,8,19.7529,4.78101,0,0,0,0,0,0,0,-1,2029,1016,19.7528,-4.78098
812,8,20.4221,6.10095,0,0,0,0,0,0,0,-1,2036,1016,20.4222,-6.10093
-700,1,0,0,0,0,0,0,0,0,0,-1,524,1023,0,0
-693,1,-12.7674,0.723389,0,0,0,0,0,0,0,-1,531,1023,-12.7674,-0.723414
-686,1,-13.3017,1.09125,-0.060286,-0.00579674,0.0133493,-0.00270204,-0.0633807,1.343,0.0413826,0.0472331,538,1023,-13.3017,-1.09125
-679,1,-13.9592,1.53461,-0.0486236,-0.00383214,0.00958398,-0.00186763,-0.0505882,1.36862,0.0331204,0.0485946,545,1023,-13.9592,-1.53458
-672,1,-14.1926,2.05212,-0.038429,-0.00222136,0.00695221,-0.00093236,-0.039718,1.38747,0.0261734,0.0476876,552,1023,-14.1926,-2.05213
-665,1,-13.3,1.14484,0,0,0,0,0,0,0,-1,559,1023,-13.3,-1.14481
-658,1,-13.7488,1.86365,-0.0223572,4.77592e-05,0.00376718,0.000664214,-0.0229736,1.4086,0.0155419,0.0330599,566,1023,-13.7488,-1.86365
-651,1,-13.6845,1.9043,-0.0164198,0.000704019,0.00273768,0.00113106,-0.0168468,1.41606,0.0116266,0.0156953,573,1023,-13.6845,-1.90431
-644,1,-13.6068,1.93866,-0.0117242,0.0010492,0.00164691,0.00125813,-0.0119332,1.44461,0.00840626,0.0181379,580,1023,-13.6068,-1.93864
-637,1,-13.6784,1.87866,-0.00784323,0.00175798,-0.000209733,0.00176256,-0.00784781,-1.54897,0.0059077,0.0156527,587,1023,-13.6784,-1.87868
-630,1,-13.7614,1.8479,-0.00452668,0.000571507,-0.0012993,0.000883545,-0.00483872,-1.3351,0.00355709,0.0165393,594,1023,-13.7613,-1.84792
-623,1,-13.7283,1.88208,-0.00279692,0.000944381,-0.00237024,0.00209323,-0.00394577,-1.11947,0.00354088,0.013735,601,1023,-13.7283,-1.88209
-616,1,-13.7306,1.86682,-0.00167385,0.000755831,-0.00356092,0.00330343,-0.00422145,-0.949787,0.00435526,0.0156821,608,1023,-13.7306,-1.86679
-609,1,-13.7058,1.86401,-0.000801123,0.000376134,-0.00471219,0.00453632,-0.00496131,-0.847534,0.00548529,0.0160304,615,1023,-13.7058,-1.86404
-602,1,-13.7101,1.8363,-0.00044775,-8.26442e-05,-0.00562825,0.00536601,-0.0058964,-0.80161,0.00650476,0.013128,622,1023,-13.7102,-1.83627
-595,1,-13.685,1.80249,-0.000311286,-0.000453202,-0.00628671,0.00590487,-0.00666935,-0.779755,0.0072642,0.0168847,629,1023,-13.685,-1.80247
-588,1,-13.678,1.42755,-0.000180516,-0.000702474,-0.00660906,0.00617272,-0.0070557,-0.765664,0.0076431,0.0241363,636,1023,-13.678,-1.42755
-581,1,-13.6935,1.09357,-0.000124402,-0.000865483,-0.00656744,0.00608294,-0.00707283,-0.757218,0.00760265,0.0272256,643,1023,-13.6935,-1.09355
-574,1,-13.7374,1.1377,-0.000264227,-0.000880691,-0.00616104,0.00559629,-0.00674121,-0.760404,0.00713328,0.0371634,650,1023,-13.7374,-1.13773
-567,1,-13.5633,0.74469,-0.000458972,-0.00081906,-0.00540344,0.00476742,-0.00604546,-0.768744,0.00625734,0.0416796,657,1023,-13.5633,-0.744695
-560,1,-13.4803,0.651306,-0.000748914,-0.000692201,-0.00428642,0.00356595,-0.00500707,-0.788706,0.00497289,0.0402175,664,1023,-13.4803,-0.65128
-553,1,-13.5519,0.981018,-0.00118569,-0.000546142,-0.00287599,0.0020278,-0.00375962,-0.840764,0.00339087,0.0394974,671,1023,-13.5519,-0.981018
-546,1,-13.6876,1.07257,-0.00184467,-0.000429418,-0.00125706,0.000305499,-0.00257959,-1.04175,0.00183008,0.0392156,678,1023,-13.6876,-1.07259
-539,1,-13.7683,0.97345,-0.00274236,-0.000423316,0.000119037,-0.000417222,-0.00274846,1.51965,0.00171028,0.0413323,685,1023,-13.7683,-0.973431
-532,1,-13.6766,1.14124,-0.00419595,-0.000353781,0.000403251,-0.000311915,-0.00423782,1.46734,0.00272719,0.0432817,692,1023,-13.6766,-1.14126
-525,1,0,0,0,0,0,0,0,0,0,-1,699,1023,0,0
-518,1,0,0,0,0,0,0,0,0,0,-1,706,1023,0,0
-511,1,0,0,0,0,0,0,0,0,0,-1,713,1023,0,0
-504,1,0,0,0,0,0,0,0,0,0,-1,720,1023,0,0
-497,1,0,0,0,0,0,0,0,0,0,-1,727,1023,0,0
-490,1,0,0,0,0,0,0,0,0,0,-1,734,1023,0,0
-483,1,0,0,0,0,0,0,0,0,0,-1,741,1023,0,0
-476,1,0,0,0,0,0,0,0,0,0,-1,748,1023,0,0
-469,1,0,0,0,0,0,0,0,0,0,-1,755,1023,0,0
-462,1,0,0,0,0,0,0,0,0,0,-1,762,1023,0,0
-455,1,0,0,0,0,0,0,0,0,0,-1,769,1023,0,0
-448,1,0,0,0,0,0,0,0,0,0,-1,776,1023,0,0
-441,1,0,0,0,0,0,0,0,0,0,-1,783,1023,0,0
-434,1,0,0,0,0,0,0,0,0,0,-1,790,1023,0,0
-427,1,0,0,0,0,0,0,0,0,0,-1,797,1023,0,0
-420,1,0,0,0,0,0,0,0,0,0,-1,804,1023,0,0
-413,1,0,0,0,0,0,0,0,0,0,-1,811,1023,0,0
-406,1,0,0,0,0,0,0,0,0,0,-1,818,1023,0,0
-399,1,0,0,0,0,0,0,0,0,0,-1,825,1023,0,0
-392,1,0,0,0,0,0,0,0,0,0,-1,832,1023,0,0
-385,1,0,0,0,0,0,0,0,0,0,-1,839,1023,0,0
-378,1,0,0,0,0,0,0,0,0,0,-1,846,1023,0,0
-371,1,0,0,0,0,0,0,0,0,0,-1,853,1023,0,0
-364,1,0,0,0,0,0,0,0,0,0,-1,860,1023,0,0
-357,1,0,0,0,0,0,0,0,0,0,-1,867,1023,0,0
-350,1,0,0,0,0,0,0,0,0,0,-1,874,1023,0,0
-343,1,0,0,0,0,0,0,0,0,0,-1,881,1023,0,0
-336,1,0,0,0,0,0,0,0,0,0,-1,888,1023,0,0
-329,1,0,0,0,0,0,0,0,0,0,-1,895,1023,0,0
-322,1,0,0,0,0,0,0,0,0,0,-1,902,1023,0,0
-315,1,0,0,0,0,0,0,0,0,0,-1,909,1023,0,0
-308,1,0,0,0,0,0,0,0,0,0,-1,916,1023,0,0
-301,1,0,0,0,0,0,0,0,0,0,-1,923,1023,0,0
-294,1,0,0,0,0,0,0,0,0,0,-1,930,1023,0,0
-287,1,0,0,0,0,0,0,0,0,0,-1,937,1023,0,0
-280,1,0,0,0,0,0,0,0,0,0,-1,944,1023,0,0
-273,1,0,0,0,0,0,0,0,0,0,-1,951,1023,0,0
-266,1,0,0,0,0,0,0,0,0,0,-1,958,1023,0,0
-259,1,0,0,0,0,0,0,0,0,0,-1,965,1023,0,0
-252,1,0,0,0,0,0,0,0,0,0,-1,972,1023,0,0
-245,1,0,0,0,0,0,0,0,0,0,-1,979,1023,0,0
-238,1,0,0,0,0,0,0,0,0,0,-1,986,1023,0,0
-231,1,0,0,0,0,0,0,0,0,0,-1,993,1023,0,0
-224,1,0,0,0,0,0,0,0,0,0,-1,1000,1023,0,0
-217,1,0,0,0,0,0,0,0,0,0,-1,1007,1023,0,0
-210,1,0,0,0,0,0,0,0,0,0,-1,1014,1023,0,0
-203,1,0,0,0,0,0,0,0,0,0,-1,1021,1023,0,0
-196,1,0,0,0,0,0,0,0,0,0,-1,1028,1023,0,0
-189,1,0,0,0,0,0,0,0,0,0,-1,1035,1023,0,0
-182,1,0,0,0,0,0,0,0,0,0,-1,1042,1023,0,0
-175,1,0,0,0,0,0,0,0,0,0,-1,1049,1023,0,0
-168,1,0,0,0,0,0,0,0,0,0,-1,1056,1023,0,0
-161,1,0,0,0,0,0,0,0,0,0,-1,1063,1023,0,0
-154,1,0,0,0,0,0,0,0,0,0,-1,1070,1023,0,0
-147,1,0,0,0,0,0,0,0,0,0,-1,1077,1023,0,0
-140,1,0,0,0,0,0,0,0,0,0,-1,1084,1023,0,0
-133,1,0,0,0,0,0,0,0,0,0,-1,1091,1023,0,0
-126,1,0,0,0,0,0,0,0,0,0,-1,1098,1023,0,0
-119,1,0,0,0,0,0,0,0,0,0,-1,1105,1023,0,0
-112,1,0,0,0,0,0,0,0,0,0,-1,1112,1023,0,0
-105,1,0,0,0,0,0,0,0,0,0,-1,1119,1023,0,0
-98,1,0,0,0,0,0,0,0,0,0,-1,1126,1023,0,0
-91,1,0,0,0,0,0,0,0,0,0,-1,1133,1023,0,0
-84,1,0,0,0,0,0,0,0,0,0,-1,1140,1023,0,0
-77,1,0,0,0,0,0,0,0,0,0,-1,1147,1023,0,0
-70,1,0,0,0,0,0,0,0,0,0,-1,1154,1023,0,0
-63,1,0,0,0,0,0,0,0,0,0,-1,1161,1023,0,0
-56,1,0,0,0,0,0,0,0,0,0,-1,1168,1023,0,0
-49,1,0,0,0,0,0,0,0,0,0,-1,1175,1023,0,0
-42,1,0,0,0,0,0,0,0,0,0,-1,1182,1023,0,0
-35,1,0,0,0,0,0,0,0,0,0,-1,1189,1023,0,0
-28,1,0,0,0,0,0,0,0,0,0,-1,1196,1023,0,0
-21,1,0,0,0,0,0,0,0,0,0,-1,1203,1023,0,0
-14,1,0,0,0,0,0,0,0,0,0,-1,1210,1023,0,0
-7,1,0,0,0,0,0,0,0,0,0,-1,1217,1023,0,0
0,1,0,0,0,0,0,0,0,0,0,-1,1224,1023,0,0
7,1,0,0,0,0,0,0,0,0,0,-1,1231,1023,0,0
14,1,0,0,0,0,0,0,0,0,0,-1,1238,1023,0,0
21,1,0,0,0,0,0,0,0,0,0,-1,1245,1023,0,0
28,1,0,0,0,0,0,0,0,0,0,-1,1252,1023,0,0
35,1,0,0,0,0,0,0,0,0,0,-1,1259,1023,0,0
42,1,0,0,0,0,0,0,0,0,0,-1,1266,1023,0,0
49,1,0,0,0,0,0,0,0,0,0,-1,1273,1023,0,0
56,1,0,0,0,0,0,0,0,0,0,-1,1280,1023,0,0
63,1,0,0,0,0,0,0,0,0,0,-1,1287,1023,0,0
70,1,0,0,0,0,0,0,0,0,0,-1,1294,1023,0,0
77,1,0,0,0,0,0,0,0,0,0,-1,1301,1023,0,0
84,1,0,0,0,0,0,0,0,0,0,-1,1308,1023,0,0
91,1,0,0,0,0,0,0,0,0,0,-1,1315,1023,0,0
98,1,0,0,0,0,0,0,0,0,0,-1,1322,1023,0,0
105,1,0,0,0,0,0,0,0,0,0,-1,1329,1023,0,0
112,1,0,0,0,0,0,0,0,0,0,-1,1336,1023,0,0
119,1,0,0,0,0,0,0,0,0,0,-1,1343,1023,0,0
126,1,0,0,0,0,0,0,0,0,0,-1,1350,1023,0,0
133,1,0,0,0,0,0,0,0,0,0,-1,1357,1023,0,0
140,1,0,0,0,0,0,0,0,0,0,-1,1364,1023,0,0
147,1,0,0,0,0,0,0,0,0,0,-1,1371,1023,0,0
154,1,0,0,0,0,0,0,0,0,0,-1,1378,1023,0,0
161,1,0,0,0,0,0,0,0,0,0,-1,1385,1023,0,0
168,1,0,0,0,0,0,0,0,0,0,-1,1392,1023,0,0
175,1,0,0,0,0,0,0,0,0,0,-1,1399,1023,0,0
182,1,0,0,0,0,0,0,0,0,0,-1,1406,1023,0,0
189,1,0,0,0,0,0,0,0,0,0,-1,1413,1023,0,0
196,1,0,0,0,0,0,0,0,0,0,-1,1420,1023,0,0
203,1,0,0,0,0,0,0,0,0,0,-1,1427,1023,0,0
210,1,0,0,0,0,0,0,0,0,0,-1,1434,1023,0,0
217,1,0,0,0,0,0,0,0,0,0,-1,1441,1023,0,0
224,1,0,0,0,0,0,0,0,0,0,-1,1448,1023,0,0
231,1,0,0,0,0,0,0,0,0,0,-1,1455,1023,0,0
238,1,0,0,0,0,0,0,0,0,0,-1,1462,1023,0,0
245,1,0,0,0,0,0,0,0,0,0,-1,1469,1023,0,0
252,1,0,0,0,0,0,0,0,0,0,-1,1476,1023,0,0
259,1,0,0,0,0,0,0,0,0,0,-1,1483,1023,0,0
266,1,0,0,0,0,0,0,0,0,0,-1,1490,1023,0,0
273,1,0,0,0,0,0,0,0,0,0,-1,1497,1023,0,0
280,1,0,0,0,0,0,0,0,0,0,-1,1504,1023,0,0
287,1,0,0,0,0,0,0,0,0,0,-1,1511,1023,0,0
294,1,0,0,0,0,0,0,0,0,0,-1,1518,1023,0,0
301,1,0,0,0,0,0,0,0,0,0,-1,1525,1023,0,0
308,1,0,0,0,0,0,0,0,0,0,-1,1532,1023,0,0
315,1,0,0,0,0,0,0,0,0,0,-1,1539,1023,0,0
322,1,0,0,0,0,0,0,0,0,0,-1,1546,1023,0,0
329,1,0,0,0,0,0,0,0,0,0,-1,1553,1023,0,0
336,1,0,0,0,0,0,0,0,0,0,-1,1560,1023,0,0
343,1,0,0,0,0,0,0,0,0,0,-1,1567,1023,0,0
350,1,0,0,0,0,0,0,0,0,0,-1,1574,1023,0,0
357,1,0,0,0,0,0,0,0,0,0,-1,1581,1023,0,0
364,1,0,0,0,0,0,0,0,0,0,-1,1588,1023,0,0
371,1,0,0,0,0,0,0,0,0,0,-1,1595,1023,0,0
378,1,0,0,0,0,0,0,0,0,0,-1,1602,1023,0,0
385,1,0,0,0,0,0,0,0,0,0,-1,1609,1023,0,0
392,1,0,0,0,0,0,0,0,0,0,-1,1616,1023,0,0
399,1,0,0,0,0,0,0,0,0,0,-1,1623,1023,0,0
406,1,0,0,0,0,0,0,0,0,0,-1,1630,1023,0,0
413,1,0,0,0,0,0,0,0,0,0,-1,1637,1023,0,0
420,1,0,0,0,0,0,0,0,0,0,-1,1644,1023,0,0
427,1,0,0,0,0,0,0,0,0,0,-1,1651,1023,0,0
434,1,0,0,0,0,0,0,0,0,0,-1,1658,1023,0,0
441,1,0,0,0,0,0,0,0,0,0,-1,1665,1023,0,0
448,1,0,0,0,0,0,0,0,0,0,-1,1672,1023,0,0
455,1,0,0,0,0,0,0,0,0,0,-1,1679,1023,0,0
462,1,0,0,0,0,0,0,0,0,0,-1,1686,1023,0,0
469,1,0,0,0,0,0,0,0,0,0,-1,1693,1023,0,0
476,1,0,0,0,0,0,0,0,0,0,-1,1700,1023,0,0
483,1,0,0,0,0,0,0,0,0,0,-1,1707,1023,0,0
490,1,0,0,0,0,0,0,0,0,0,-1,1714,1023,0,0
497,1,0,0,0,0,0,0,0,0,0,-1,1721,1023,0,0
504,1,0,0,0,0,0,0,0,0,0,-1,1728,1023,0,0
511,1,0,0,0,0,0,0,0,0,0,-1,1735,1023,0,0
518,1,0,0,0,0,0,0,0,0,0,-1,1742,1023,0,0
525,1,0,0,0,0,0,0,0,0,0,-1,1749,1023,0,0
532,1,0,0,0,0,0,0,0,0,0,-1,1756,1023,0,0
539,1,0,0,0,0,0,0,0,0,0,-1,1763,1023,0,0
546,1,0,0,0,0,0,0,0,0,0,-1,1770,1023,0,0
553,1,0,0,0,0,0,0,0,0,0,-1,1777,1023,0,0
560,1,0,0,0,0,0,0,0,0,0,-1,1784,1023,0,0
567,1,0,0,0,0,0,0,0,0,0,-1,1791,1023,0,0
574,1,0,0,0,0,0,0,0,0,0,-1,1798,1023,0,0
581,1,0,0,0,0,0,0,0,0,0,-1,1805,1023,0,0
588,1,0,0,0,0,0,0,0,0,0,-1,1812,1023,0,0
595,1,0,0,0,0,0,0,0,0,0,-1,1819,1023,0,0
602,1,0,0,0,0,0,0,0,0,0,-1,1826,1023,0,0
609,1,0,0,0,0,0,0,0,0,0,-1,1833,1023,0,0
616,1,0,0,0,0,0,0,0,0,0,-1,1840,1023,0,0
623,1,0,0,0,0,0,0,0,0,0,-1,1847,1023,0,0
630,1,0,0,0,0,0,0,0,0,0,-1,1854,1023,0,0
637,1,0,0,0,0,0,0,0,0,0,-1,1861,1023,0,0
644,1,0,0,0,0,0,0,0,0,0,-1,1868,1023,0,0
651,1,21.2109,3.07715,0.00496982,5.64872e-05,-0.00124817,0.00526872,-0.000242412,-0.235043,0.00359601,0.0425422,1875,1023,21.2109,-3.07717
658,1,21.3058,2.86511,0.00238528,-0.000165095,-0.000825166,0.00262897,-0.000408789,-0.287165,0.0019036,0.0429377,1882,1023,21.3058,-2.86511
665,1,21.424,2.55951,0.000793967,-0.000241307,-0.000463431,0.000971108,-0.000418447,-0.365101,0.000823139,0.0428821,1889,1023,21.424,-2.55949
672,1,21.2501,2.58716,-0.000243939,-0.000100378,0.000570917,0.000403254,-0.000747571,0.847934,0.000674269,0.0417755,1896,1023,21.2501,-2.58715
679,1,21.0712,2.53943,-0.00141775,0.000170798,0.0021639,0.00168159,-0.00292855,0.961292,0.00269392,0.0392775,1903,1023,21.0711,-2.53944
686,1,21.05,2.69647,-0.00238198,0.00041757,0.0037257,0.00299777,-0.00496219,0.965094,0.0046421,0.0402136,1910,1023,21.0501,-2.69645
693,1,21.1632,3.12939,-0.00312933,0.000648684,0.00509608,0.0041946,-0.00667525,0.962886,0.00632995,0.038254,1917,1023,21.1632,-3.12937
700,1,21.2581,3.05377,-0.00378733,0.00087206,0.0061502,0.00511902,-0.00803429,0.966447,0.00765599,0.0300727,1924,1023,21.2581,-3.05376
707,1,21.2169,2.9502,-0.00444063,0.00102011,0.00689184,0.00570272,-0.00912324,0.974,0.00863538,0.0242902,1931,1023,21.2169,-2.9502
714,1,21.1851,2.92047,-0.00488351,0.00115321,0.00737831,0.00610667,-0.00983698,0.979555,0.00928868,0.0238132,1938,1023,21.1851,-2.92049
721,1,21.2257,3.38428,-0.00499329,0.00130607,0.00754637,0.00633369,-0.0100209,0.983096,0.00952199,0.0310464,1945,1023,21.2257,-3.3843
728,1,20.8701,3.99469,-0.00482285,0.00153072,0.00734214,0.00635387,-0.009646,0.989576,0.00930248,0.0260855,1952,1023,20.8701,-3.99471
735,1,20.7811,4.16357,-0.00453288,0.00172531,0.00676383,0.00604878,-0.00885635,1.00205,0.00865622,0.0146024,1959,1023,20.7811,-4.16358
742,1,20.8129,4.18237,-0.00413401,0.00204053,0.00583254,0.00555249,-0.00764597,1.02881,0.00765201,0.0148147,1966,1023,20.8129,-4.18239
749,1,20.7897,4.21356,-0.00331211,0.00220205,0.0048934,0.00506162,-0.00617169,1.04195,0.0064961,0.0128272,1973,1023,20.7897,-4.21356
756,1,20.7844,4.25623,-0.00165102,0.00302608,0.00431536,0.0055958,-0.00422075,1.0337,0.00568609,0.0120569,1980,1023,20.7844,-4.25625
763,1,20.7833,4.27374,0.000654998,0.00345735,0.00384904,0.00615232,-0.00203997,0.959959,0.00492445,0.0134693,1987,1023,20.7833,-4.27374
770,1,20.7758,4.27606,0.00325162,0.00419811,0.00331262,0.00707112,0.000378613,0.856348,0.00459308,0.0129373,1994,1023,20.7758,-4.27605
777,1,20.741,4.2959,0.00659832,0.00514965,0.00330389,0.00925634,0.00249163,0.677487,0.00553071,0.0147252,2001,1023,20.741,-4.29589
784,1,20.7086,4.43402,0.0103956,0.0062598,0.00418935,0.0129996,0.00365578,0.556139,0.00774111,0.0341836,2008,1023,20.7086,-4.43402
791,1,20.6896,4.63055,0.0149073,0.00739017,0.00562754,0.017916,0.00438146,0.490975,0.0107844,0.0464234,2015,1023,20.6895,-4.63053
798,1,20.5674,4.65588,0.0207231,0.00842636,0.00739191,0.0241894,0.00496001,0.438491,0.0147535,0.0495836,2022,1023,20.5674,-4.65587
805,1,21.0286,4.91522,0.0282015,0.00929675,0.00943614,0.0321053,0.00539293,0.392269,0.0198516,0.0457337,2029,1023,21.0285,-4.91524
812,1,21.4739,5.04523,0.0377469,0.00988286,0.0116957,0.0420053,0.00562445,0.349179,0.0263297,0.0450257,2036,1023,21.4738,-5.04526
-700,-6,0,0,0,0,0,0,0,0,0,-1,524,1030,0,0
-693,-6,-14.2443,0.85437,0,0,0,0,0,0,0,-1,531,1030,-14.2444,-0.854406
-686,-6,-10.535,2.02795,0,0,0,0,0,0,0,-1,538,1030,-10.535,-2.02791
-679,-6,-14.6812,2.54541,0,0,0,0,0,0,0,-1,545,1030,-14.6811,-2.54538
-672,-6,-13.2898,1.23694,0,0,0,0,0,0,0,-1,552,1030,-13.2898,-1.23695
-665,-6,-13.3477,1.23181,-0.0226667,-0.000974435,0.00446015,-9.31853e-05,-0.023548,1.37573,0.0156677,0.0459337,559,1030,-13.3477,-1.23179
-658,-6,-13.7514,1.74939,-0.0171395,0.000163261,0.00332857,0.000781497,-0.0177577,1.38715,0.0121074,0.0389682,566,1030,-13.7514,-1.74935
-651,-6,-13.7146,1.81152,-0.0126564,0.000910378,0.00244689,0.00133821,-0.0130843,1.3977,0.0092014,0.0330372,573,1030,-13.7146,-1.8115
-644,-6,-13.6441,1.88696,-0.00909036,0.00128464,0.00143811,0.00148029,-0.00928602,1.43558,0.00673853,0.0316164,580,1030,-13.6441,-1.88692
-637,-6,-13.7052,1.9115,-0.00606495,0.00186129,-0.000399553,0.00188138,-0.00608504,-1.52056,0.00480812,0.0191009,587,1030,-13.7052,-1.91149
-630,-6,-13.7432,1.85291,-0.00365205,0.000760026,-0.00140283,0.00116828,-0.00406031,-1.2876,0.00316892,0.014437,594,1030,-13.7432,-1.85292
-623,-6,-13.732,1.84412,-0.00239721,0.00102069,-0.00257153,0.00239934,-0.00377585,-1.07867,0.00359465,0.0138349,601,1030,-13.732,-1.84416
-616,-6,-13.719,1.87256,-0.00142658,0.000748749,-0.00368072,0.00349915,-0.00417698,-0.929061,0.00443757,0.0144748,608,1030,-13.719,-1.8726
-609,-6,-13.6979,1.88574,-0.000597127,0.000186988,-0.00478035,0.00459133,-0.00500147,-0.826314,0.00554009,0.0160427,615,1030,-13.698,-1.88575
-602,-6,-13.7003,1.85852,-0.000215351,-0.000432483,-0.00574564,0.00542275,-0.00607059,-0.775952,0.00663919,0.0128341,622,1030,-13.7003,-1.85854
-595,-6,-13.6614,1.85217,-0.000107372,-0.000847055,-0.00641797,0.0059514,-0.00690583,-0.756617,0.00742994,0.0140325,629,1030,-13.6614,-1.85212
-588,-6,-13.6868,1.40576,-2.55611e-05,-0.00111022,-0.00668306,0.00613713,-0.00727292,-0.744912,0.00775155,0.0154531,636,1030,-13.6868,-1.40577
-581,-6,-13.7241,1.07495,-1.50186e-05,-0.00131045,-0.0065511,0.00592031,-0.00724578,-0.736123,0.00761427,0.0208896,643,1030,-13.7241,-1.07489
-574,-6,-13.7255,1.03455,-0.000189512,-0.00135122,-0.00606463,0.00532201,-0.00686274,-0.737655,0.0070536,0.0318517,650,1030,-13.7254,-1.0346
-567,-6,-13.7203,0.927856,-0.000458746,-0.00128012,-0.00518741,0.00433421,-0.00607308,-0.745895,0.00603654,0.0423383,657,1030,-13.7203,-0.927837
-560,-6,-13.5802,0.808838,-0.000863473,-0.00112425,-0.00391816,0.00292646,-0.00491419,-0.768765,0.00457503,0.0410207,664,1030,-13.5802,-0.808896
-553,-6,-13.3997,0.986572,-0.00146343,-0.000934599,-0.00232587,0.00114184,-0.00353986,-0.841997,0.0028187,0.0394944,671,1030,-13.3997,-0.986564
-546,-6,-13.4891,0.985474,-0.00234586,-0.000771755,-0.000504933,-0.000623709,-0.00249391,-1.28559,0.00149861,0.0419848,678,1030,-13.4891,-0.985448
-539,-6,-13.6631,0.906006,-0.00353694,-0.00075436,0.00102677,-0.000416504,-0.0038748,1.25291,0.00245617,0.0437174,685,1030,-13.6631,-0.906031
-532,-6,-13.6999,1.0459,-0.00532931,-0.000789309,0.00127904,-0.000453769,-0.00566485,1.31424,0.00363476,0.0443356,692,1030,-13.6999,-1.04586
-525,-6,0,0,0,0,0,0,0,0,0,-1,699,1030,0,0
-518,-6,0,0,0,0,0,0,0,0,0,-1,706,1030,0,0
-511,-6,0,0,0,0,0,0,0,0,0,-1,713,1030,0,0
-504,-6,0,0,0,0,0,0,0,0,0,-1,720,1030,0,0
-497,-6,0,0,0,0,0,0,0,0,0,-1,727,1030,0,0
-490,-6,0,0,0,0,0,0,0,0,0,-1,734,1030,0,0
-483,-6,0,0,0,0,0,0,0,0,0,-1,741,1030,0,0
-476,-6,0,0,0,0,0,0,0,0,0,-1,748,1030,0,0
-469,-6,0,0,0,0,0,0,0,0,0,-1,755,1030,0,0
-462,-6,0,0,0,0,0,0,0,0,0,-1,762,1030,0,0
-455,-6,0,0,0,0,0,0,0,0,0,-1,769,1030,0,0
-448,-6,0,0,0,0,0,0,0,0,0,-1,776,1030,0,0
-441,-6,0,0,0,0,0,0,0,0,0,-1,783,1030,0,0
-434,-6,0,0,0,0,0,0,0,0,0,-1,790,1030,0,0
-427,-6,0,0,0,0,0,0,0,0,0,-1,797,1030,0,0
-420,-6,0,0,0,0,0,0,0,0,0,-1,804,1030,0,0
-413,-6,0,0,0,0,0,0,0,0,0,-1,811,1030,0,0
-406,-6,0,0,0,0,0,0,0,0,0,-1,818,1030,0,0
-399,-6,0,0,0,0,0,0,0,0,0,-1,825,1030,0,0
-392,-6,0,0,0,0,0,0,0,0,0,-1,832,1030,0,0
-385,-6,0,0,0,0,0,0,0,0,0,-1,839,1030,0,0
-378,-6,0,0,0,0,0,0,0,0,0,-1,846,1030,0,0
-371,-6,0,0,0,0,0,0,0,0,0,-1,853,1030,0,0
-364,-6,0,0,0,0,0,0,0,0,0,-1,860,1030,0,0
-357,-6,0,0,0,0,0,0,0,0,0,-1,867,1030,0,0
-350,-6,0,0,0,0,0,0,0,0,0,-1,874,1030,0,0
-343,-6,0,0,0,0,0,0,0,0,0,-1,881,1030,0,0
-336,-6,0,0,0,0,0,0,0,0,0,-1,888,1030,0,0
-329,-6,0,0,0,0,0,0,0,0,0,-1,895,1030,0,0
-322,-6,0,0,0,0,0,0,0,0,0,-1,902,1030,0,0
-315,-6,0,0,0,0,0,0,0,0,0,-1,909,1030,0,0
-308,-6,0,0,0,0,0,0,0,0,0,-1,916,1030,0,0
-301,-6,0,0,0,0,0,0,0,0,0,-1,923,1030,0,0
-294,-6,0,0,0,0,0,0,0,0,0,-1,930,1030,0,0
-287,-6,0,0,0,0,0,0,0,0,0,-1,937,1030,0,0
-280,-6,0,0,0,0,0,0,0,0,0,-1,944,1030,0,0
-273,-6,0,0,0,0,0,0,0,0,0,-1,951,1030,0,0
-266,-6,0,0,0,0,0,0,0,0,0,-1,958,1030,0,0
-259,-6,0,0,0,0,0,0,0,0,0,-1,965,1030,0,0
-252,-6,0,0,0,0,0,0,0,0,0,-1,972,1030,0,0
-245,-6,0,0,0,0,0,0,0,0,0,-1,979,1030,0,0
-238,-6,0,0,0,0,0,0,0,0,0,-1,986,1030,0,0
-231,-6,0,0,0,0,0,0,0,0,0,-1,993,1030,0,0
-224,-6,0,0,0,0,0,0,0,0,0,-1,1000,1030,0,0
-217,-6,0,0,0,0,0,0,0,0,0,-1,1007,1030,0,0
-210,-6,0,0,0,0,0,0,0,0,0,-1,1014,1030,0,0
-203,-6,0,0,0,0,0,0,0,0,0,-1,1021,1030,0,0
-196,-6,0,0,0,0,0,0,0,0,0,-1,1028,1030,0,0
-189,-6,0,0,0,0,0,0,0,0,0,-1,1035,1030,0,0
-182,-6,0,0,0,0,0,0,0,0,0,-1,1042,1030,0,0
-175,-6,0,0,0,0,0,0,0,0,0,-1,1049,1030,0,0
-168,-6,0,0,0,0,0,0,0,0,0,-1,1056,1030,0,0
-161,-6,0,0,0,0,0,0,0,0,0,-1,1063,1030,0,0
-154,-6,0,0,0,0,0,0,0,0,0,-1,1070,1030,0,0
-147,-6,0,0,0,0,0,0,0,0,0,-1,1077,1030,0,0
-140,-6,0,0,0,0,0,0,0,0,0,-1,1084,1030,0,0
-133,-6,0,0,0,0,0,0,0,0,0,-1,1091,1030,0,0
-126,-6,0,0,0,0,0,0,0,0,0,-1,1098,1030,0,0
-119,-6,0,0,0,0,0,0,0,0,0,-1,1105,1030,0,0
-112,-6,0,0,0,0,0,0,0,0,0,-1,1112,1030,0,0
-105,-6,0,0,0,0,0,0,0,0,0,-1,1119,1030,0,0
-98,-6,0,0,0,0,0,0,0,0,0,-1,1126,1030,0,0
-91,-6,0,0,0,0,0,0,0,0,0,-1,1133,1030,0,0
-84,-6,0,0,0,0,0,0,0,0,0,-1,1140,1030,0,0
-77,-6,0,0,0,0,0,0,0,0,0,-1,1147,1030,0,0
-70,-6,0,0,0,0,0,0,0,0,0,-1,1154,1030,0,0
-63,-6,0,0,0,0,0,0,0,0,0,-1,1161,1030,0,0
-56,-6,0,0,0,0,0,0,0,0,0,-1,1168,1030,0,0
-49,-6,0,0,0,0,0,0,0,0,0,-1,1175,1030,0,0
-42,-6,0,0,0,0,0,0,0,0,0,-1,1182,1030,0,0
-35,-6,0,0,0,0,0,0,0,0,0,-1,1189,1030,0,0
-28,-6,0,0,0,0,0,0,0,0,0,-1,1196,1030,0,0
-21,-6,0,0,0,0,0,0,0,0,0,-1,1203,1030,0,0
-14,-6,0,0,0,0,0,0,0,0,0,-1,1210,1030,0,0
-7,-6,0,0,0,0,0,0,0,0,0,-1,1217,1030,0,0
0,-6,0,0,0,0,0,0,0,0,0,-1,1224,1030,0,0
7,-6,0,0,0,0,0,0,0,0,0,-1,1231,1030,0,0
14,-6,0,0,0,0,0,0,0,0,0,-1,1238,1030,0,0
21,-6,0,0,0,0,0,0,0,0,0,-1,1245,1030,0,0
28,-6,0,0,0,0,0,0,0,0,0,-1,1252,1030,0,0
35,-6,0,0,0,0,0,0,0,0,0,-1,1259,1030,0,0
42,-6,0,0,0,0,0,0,0,0,0,-1,1266,1030,0,0
49,-6,0,0,0,0,0,0,0,0,0,-1,1273,1030,0,0
56,-6,0,0,0,0,0,0,0,0,0,-1,1280,1030,0,0
63,-6,0,0,0,0,0,0,0,0,0,-1,1287,1030,0,0
70,-6,0,0,0,0,0,0,0,0,0,-1,1294,1030,0,0
77,-6,0,0,0,0,0,0,0,0,0,-1,1301,1030,0,0
84,-6,0,0,0,0,0,0,0,0,0,-1,1308,1030,0,0
91,-6,0,0,0,0,0,0,0,0,0,-1,1315,1030,0,0
98,-6,0,0,0,0,0,0,0,0,0,-1,1322,1030,0,0
105,-6,0,0,0,0,0,0,0,0,0,-1,1329,1030,0,0
112,-6,0,0,0,0,0,0,0,0,0,-1,1336,1030,0,0
119,-6,0,0,0,0,0,0,0,0,0,-1,1343,1030,0,0
126,-6,0,0,0,0,0,0,0,0,0,-1,1350,1030,0,0
133,-6,0,0,0,0,0,0,0,0,0,-1,1357,1030,0,0
140,-6,0,0,0,0,0,0,0,0,0,-1,1364,1030,0,0
147,-6,0,0,0,0,0,0,0,0,0,-1,1371,1030,0,0
154,-6,0,0,0,0,0,0,0,0,0,-1,1378,1030,0,0
161,-6,0,0,0,0,0,0,0,0,0,-1,1385,1030,0,0
168,-6,0,0,0,0,0,0,0,0,0,-1,1392,1030,0,0
175,-6,0,0,0,0,0,0,0,0,0,-1,1399,1030,0,0
182,-6,0,0,0,0,0,0,0,0,0,-1,1406,1030,0,0
189,-6,0,0,0,0,0,0,0,0,0,-1,1413,1030,0,0
196,-6,0,0,0,0,0,0,0,0,0,-1,1420,1030,0,0
203,-6,0,0,0,0,0,0,0,0,0,-1,1427,1030,0,0
210,-6,0,0,0,0,0,0,0,0,0,-1,1434,1030,0,0
217,-6,0,0,0,0,0,0,0,0,0,-1,1441,1030,0,0
224,-6,0,0,0,0,0,0,0,0,0,-1,1448,1030,0,0
231,-6,0,0,0,0,0,0,0,0,0,-1,1455,1030,0,0
238,-6,0,0,0,0,0,0,0,0,0,-1,1462,1030,0,0
245,-6,0,0,0,0,0,0,0,0,0,-1,1469,1030,0,0
252,-6,0,0,0,0,0,0,0,0,0,-1,1476,1030,0,0
259,-6,0,0,0,0,0,0,0,0,0,-1,1483,1030,0,0
266,-6,0,0,0,0,0,0,0,0,0,-1,1490,1030,0,0
273,-6,0,0,0,0,0,0,0,0,0,-1,1497,1030,0,0
280,-6,0,0,0,0,0,0,0,0,0,-1,1504,1030,0,0
287,-6,0,0,0,0,0,0,0,0,0,-1,1511,1030,0,0
294,-6,0,0,0,0,0,0,0,0,0,-1,1518,1030,0,0
301,-6,0,0,0,0,0,0,0,0,0,-1,1525,1030,0,0
308,-6,0,0,0,0,0,0,0,0,0,-1,1532,1030,0,0
315,-6,0,0,0,0,0,0,0,0,0,-1,1539,1030,0,0
322,-6,0,0,0,0,0,0,0,0,0,-1,1546,1030,0,0
329,-6,0,0,0,0,0,0,0,0,0,-1,1553,1030,0,0
336,-6,0,0,0,0,0,0,0,0,0,-1,1560,1030,0,0
343,-6,0,0,0,0,0,0,0,0,0,-1,1567,1030,0,0
350,-6,0,0,0,0,0,0,0,0,0,-1,1574,1030,0,0
357,-6,0,0,0,0,0,0,0,0,0,-1,1581,1030,0,0
364,-6,0,0,0,0,0,0,0,0,0,-1,1588,1030,0,0
371,-6,0,0,0,0,0,0,0,0,0,-1,1595,1030,0,0
378,-6,0,0,0,0,0,0,0,0,0,-1,1602,1030,0,0
385,-6,0,0,0,0,0,0,0,0,0,-1,1609,1030,0,0
392,-6,0,0,0,0,0,0,0,0,0,-1,1616,1030,0,0
399,-6,0,0,0,0,0,0,0,0,0,-1,1623,1030,0,0
406,-6,0,0,0,0,0,0,0,0,0,-1,1630,1030,0,0
413,-6,0,0,0,0,0,0,0,0,0,-1,1637,1030,0,0
420,-6,0,0,0,0,0,0,0,0,0,-1,1644,1030,0,0
427,-6,0,0,0,0,0,0,0,0,0,-1,1651,1030,0,0
434,-6,0,0,0,0,0,0,0,0,0,-1,1658,1030,0,0
441,-6,0,0,0,0,0,0,0,0,0,-1,1665,1030,0,0
448,-6,0,0,0,0,0,0,0,0,0,-1,1672,1030,0,0
455,-6,0,0,0,0,0,0,0,0,0,-1,1679,1030,0,0
462,-6,0,0,0,0,0,0,0,0,0,-1,1686,1030,0,0
469,-6,0,0,0,0,0,0,0,0,0,-1,1693,1030,0,0
476,-6,0,0,0,0,0,0,0,0,0,-1,1700,1030,0,0
483,-6,0,0,0,0,0,0,0,0,0,-1,1707,1030,0,0
490,-6,0,0,0,0,0,0,0,0,0,-1,1714,1030,0,0
497,-6,0,0,0,0,0,0,0,0,0,-1,1721,1030,0,0
504,-6,0,0,0,0,0,0,0,0,0,-1,1728,1030,0,0
511,-6,0,0,0,0,0,0,0,0,0,-1,1735,1030,0,0
518,-6,0,0,0,0,0,0,0,0,0,-1,1742,1030,0,0
525,-6,0,0,0,0,0,0,0,0,0,-1,1749,1030,0,0
532,-6,0,0,0,0,0,0,0,0,0,-1,1756,1030,0,0
539,-6,0,0,0,0,0,0,0,0,0,-1,1763,1030,0,0
546,-6,0,0,0,0,0,0,0,0,0,-1,1770,1030,0,0
553,-6,0,0,0,0,0,0,0,0,0,-1,1777,1030,0,0
560,-6,0,0,0,0,0,0,0,0,0,-1,1784,1030,0,0
567,-6,0,0,0,0,0,0,0,0,0,-1,1791,1030,0,0
574,-6,0,0,0,0,0,0,0,0,0,-1,1798,1030,0,0
581,-6,0,0,0,0,0,0,0,0,0,-1,1805,1030,0,0
588,-6,0,0,0,0,0,0,0,0,0,-1,1812,1030,0,0
595,-6,0,0,0,0,0,0,0,0,0,-1,1819,1030,0,0
602,-6,0,0,0,0,0,0,0,0,0,-1,1826,1030,0,0
609,-6,0,0,0,0,0,0,0,0,0,-1,1833,1030,0,0
616,-6,0,0,0,0,0,0,0,0,0,-1,1840,1030,0,0
623,-6,0,0,0,0,0,0,0,0,0,-1,1847,1030,0,0
630,-6,0,0,0,0,0,0,0,0,0,-1,1854,1030,0,0
637,-6,0,0,0,0,0,0,0,0,0,-1,1861,1030,0,0
644,-6,0,0,0,0,0,0,0,0,0,-1,1868,1030,0,0
651,-6,21.2574,3.02161,0.00331993,-0.000335474,-0.000973812,0.00356317,-0.000578715,-0.244773,0.00259,0.0404143,1875,1030,21.2575,-3.02163
658,-6,21.4563,2.71216,0.00121346,-0.000457512,-0.000609829,0.00141234,-0.0006564,-0.31526,0.00122068,0.042119,1882,1030,21.4562,-2.7121
665,-6,21.4802,2.7478,1.6699e-05,-0.000476966,-0.000376295,0.000219893,-0.00068016,-0.495123,0.000541822,0.0422001,1889,1030,21.4803,-2.74781
672,-6,21.3801,2.72668,-0.000672027,-0.000300151,0.000553722,9.80184e-05,-0.0010702,0.947381,0.00074828,0.0404271,1896,1030,21.3802,-2.72666
679,-6,21.1373,2.64136,-0.00152723,-6.23753e-06,0.00210935,0.00147553,-0.00300899,0.958412,0.00263911,0.0404407,1903,1030,21.1373,-2.6413
686,-6,20.9633,2.70764,-0.00225576,0.00025089,0.00366677,0.00287262,-0.00487749,0.950077,0.00452415,0.0388027,1910,1030,20.9632,-2.70769
693,-6,21.137,3.07178,-0.00282181,0.000479845,0.00505337,0.0041452,-0.00648716,0.943273,0.00618803,0.036443,1917,1030,21.1369,-3.07179
700,-6,21.2201,3.13843,-0.0033339,0.00070239,0.00614681,0.00515388,-0.0077854,0.944016,0.00752182,0.0297818,1924,1030,21.2201,-3.13843
707,-6,21.1727,2.92676,-0.00385636,0.000828973,0.00690905,0.00578171,-0.00880911,0.948852,0.00848424,0.0255698,1931,1030,21.1727,-2.92678
714,-6,21.1378,2.88452,0,0,0,0,0,0,0,-1,1938,1030,21.1378,-2.88447
721,-6,21.0863,3.59741,-0.00431119,0.00110997,0.00758763,0.00645665,-0.00965787,0.956951,0.00936471,0.0337949,1945,1030,21.0863,-3.59744
728,-6,20.8496,4.10596,-0.00418234,0.00133427,0.00741812,0.00649031,-0.00933838,0.963394,0.00918787,0.0294532,1952,1030,20.8496,-4.10594
735,-6,20.8048,4.17261,-0.00397677,0.00154987,0.00690935,0.006228,-0.00865489,0.975625,0.00863063,0.0153704,1959,1030,20.8048,-4.17261
742,-6,20.8235,4.19336,-0.00363636,0.00192054,0.0060357,0.0057866,-0.00750241,1.00111,0.0076937,0.0125839,1966,1030,20.8235,-4.19334
749,-6,20.7854,4.24463,-0.00268607,0.00203403,0.00526107,0.00544015,-0.00609219,0.996237,0.00666174,0.0121759,1973,1030,20.7854,-4.24459
756,-6,20.8,4.2467,-0.000633883,0.00281564,0.00489172,0.00627776,-0.00409601,0.954887,0.00603329,0.0134516,1980,1030,20.8001,-4.24669
763,-6,20.8021,4.24744,0.00228654,0.0032984,0.00459425,0.00741449,-0.00182955,0.840239,0.00565242,0.0123919,1987,1030,20.8022,-4.24742
770,-6,20.787,4.24707,0.00558915,0.00403031,0.0042673,0.00914763,0.000471833,0.69507,0.00594738,0.0107408,1994,1030,20.7869,-4.24708
777,-6,20.7692,4.26953,0.00999995,0.00497069,0.00452208,0.0126595,0.0023111,0.531649,0.00778453,0.0129806,2001,1030,20.7691,-4.26951
784,-6,20.7642,4.38342,0.0153269,0.00604271,0.00580218,0.0181155,0.00325417,0.448008,0.0111517,0.0329401,2008,1030,20.7642,-4.38345
791,-6,20.7798,4.56641,0.021844,0.0071398,0.00772565,0.0251567,0.00382705,0.405085,0.0156522,0.0455127,2015,1030,20.7798,-4.56643
798,-6,20.8479,4.75232,0.0302303,0.00814226,0.0100799,0.0341387,0.00423389,0.369893,0.0214873,0.0490405,2022,1030,20.848,-4.75234
805,-6,22.1208,3.83984,0.040949,0.00898278,0.0128353,0.0454648,0.00446701,0.3383,0.028936,0.047543,2029,1030,22.1208,-3.83989
812,-6,22.5703,4.03442,0.0545094,0.00953678,0.0159651,0.0596005,0.00444561,0.3087,0.0383378,0.0438188,2036,1030,22.5704,-4.03437
-700,-13,0,0,0,0,0,0,0,0,0,-1,524,1037,0,0
-693,-13,-11.0202,2.72693,0,0,0,0,0,0,0,-1,531,1037,-11.0202,-2.72688
-686,-13,-11.1396,2.16064,-0.0356856,-0.00884224,0.00634575,-0.00741771,-0.0371101,1.34997,0.0226756,0.0438738,538,1037,-11.1396,-2.16067
-679,-13,-12.3502,1.41333,0,0,0,0,0,0,0,-1,545,1037,-12.3502,-1.41338
-672,-13,-13.1219,1.5094,-0.022237,-0.00392768,0.00283636,-0.00349836,-0.0226663,1.42057,0.0140903,0.0493559,552,1037,-13.122,-1.50943
-665,-13,-13.497,1.47437,-0.0171081,-0.00205579,0.00205883,-0.00177927,-0.0173847,1.43728,0.0110446,0.0461914,559,1037,-13.497,-1.47433
-658,-13,-13.4825,1.50671,-0.0129178,-0.000619994,0.00159447,-0.000416626,-0.0131212,1.44394,0.00861194,0.0452591,566,1037,-13.4825,-1.50673
-651,-13,-13.6495,1.68018,-0.00956978,0.000361558,0.0012512,0.000516764,-0.00972498,1.44738,0.00666226,0.0402209,573,1037,-13.6495,-1.68019
-644,-13,-13.6643,1.79456,-0.00692708,0.000931461,0.000656194,0.000985876,-0.00698149,1.48806,0.00501536,0.0279154,580,1037,-13.6643,-1.7946
-637,-13,-13.6916,1.83301,-0.00462654,0.00148032,-0.000911335,0.00161342,-0.00475964,-1.42577,0.00382603,0.0200845,587,1037,-13.6916,-1.83296
-630,-13,-13.72,1.82861,-0.00287994,0.000596762,-0.00161143,0.00122876,-0.00351194,-1.19703,0.00284088,0.0134675,594,1037,-13.72,-1.82858
-623,-13,-13.7134,1.84998,-0.00204876,0.000828726,-0.00277462,0.00251544,-0.00373548,-1.02458,0.00363181,0.0120328,601,1037,-13.7134,-1.84995
-616,-13,-13.6989,1.87561,-0.00131979,0.000554689,-0.00375428,0.00348695,-0.00425205,-0.907721,0.00447539,0.0112461,608,1037,-13.6988,-1.87564
-609,-13,-13.6716,1.86865,-0.00056623,-0.000102654,-0.00483114,0.00450226,-0.00517114,-0.809369,0.00558939,0.0157959,615,1037,-13.6716,-1.86859
-602,-13,-13.6783,1.86951,-0.000192877,-0.000766541,-0.00583676,0.0053641,-0.00632351,-0.760847,0.00675542,0.01123,622,1037,-13.6783,-1.86953
-595,-13,-13.6788,1.84912,-0.000138001,-0.00116334,-0.00653799,0.00590739,-0.00720873,-0.746271,0.00758501,0.016284,629,1037,-13.6788,-1.84916
-588,-13,-13.6011,1.35608,-0.000117694,-0.00143888,-0.006762,0.0060159,-0.00757247,-0.736707,0.00786239,0.0237026,636,1037,-13.601,-1.35603
-581,-13,-13.6913,1.04028,-0.000132351,-0.00164827,-0.00656381,0.00571712,-0.00749774,-0.727915,0.00765265,0.0214255,643,1037,-13.6914,-1.04033
-574,-13,-13.6984,0.961792,-0.000302886,-0.00169153,-0.00602052,0.00506322,-0.00705763,-0.727989,0.00702948,0.0325642,650,1037,-13.6983,-0.961795
-567,-13,-13.8409,1.17651,-0.00058463,-0.00159895,-0.00505115,0.00398476,-0.00616834,-0.735363,0.00590691,0.0420652,657,1037,-13.841,-1.17647
-560,-13,-13.755,0.891724,-0.000999661,-0.00141195,-0.00366341,0.00246341,-0.00487501,-0.757293,0.00431242,0.0452792,664,1037,-13.755,-0.891684
-553,-13,-13.556,0.799316,-0.00160746,-0.00118838,-0.00192811,0.000541541,-0.00333738,-0.839525,0.00242567,0.0441313,671,1037,-13.556,-0.799377
-546,-13,-13.6112,0.919312,-0.00249628,-0.00100198,5.73091e-05,-0.000999788,-0.00249848,1.53252,0.00145205,0.0406522,678,1037,-13.6112,-0.919364
-539,-13,-13.7197,1.10205,-0.00369426,-0.00100865,0.00172198,-0.000167802,-0.00453511,1.11655,0.00296905,0.0401946,685,1037,-13.7198,-1.10205
-532,-13,-13.7413,1.073,-0.00547857,-0.0012288,0.00193867,-0.000477305,-0.00623006,1.20099,0.00400377,0.041317,692,1037,-13.7414,-1.07301
-525,-13,0,0,0,0,0,0,0,0,0,-1,699,1037,0,0
-518,-13,0,0,0,0,0,0,0,0,0,-1,706,1037,0,0
-511,-13,0,0,0,0,0,0,0,0,0,-1,713,1037,0,0
-504,-13,0,0,0,0,0,0,0,0,0,-1,720,1037,0,0
-497,-13,0,0,0,0,0,0,0,0,0,-1,727,1037,0,0
-490,-13,0,0,0,0,0,0,0,0,0,-1,734,1037,0,0
-483,-13,0,0,0,0,0,0,0,0,0,-1,741,1037,0,0
-476,-13,0,0,0,0,0,0,0,0,0,-1,748,1037,0,0
-469,-13,0,0,0,0,0,0,0,0,0,-1,755,1037,0,0
-462,-13,0,0,0,0,0,0,0,0,0,-1,762,1037,0,0
-455,-13,0,0,0,0,0,0,0,0,0,-1,769,1037,0,0
-448,-13,0,0,0,0,0,0,0,0,0,-1,776,1037,0,0
-441,-13,0,0,0,0,0,0,0,0,0,-1,783,1037,0,0
-434,-13,0,0,0,0,0,0,0,0,0,-1,790,1037,0,0
-427,-13,0,0,0,0,0,0,0,0,0,-1,797,1037,0,0
-420,-13,0,0,0,0,0,0,0,0,0,-1,804,1037,0,0
-413,-13,0,0,0,0,0,0,0,0,0,-1,811,1037,0,0
-406,-13,0,0,0,0,0,0,0,0,0,-1,818,1037,0,0
-399,-13,0,0,0,0,0,0,0,0,0,-1,825,1037,0,0
-392,-13,0,0,0,0,0,0,0,0,0,-1,832,1037,0,0
-385,-13,0,0,0,0,0,0,0,0,0,-1,839,1037,0,0
-378,-13,0,0,0,0,0,0,0,0,0,-1,846,1037,0,0
-371,-13,0,0,0,0,0,0,0,0,0,-1,853,1037,0,0
-364,-13,0,0,0,0,0,0,0,0,0,-1,860,1037,0,0
-357,-13,0,0,0,0,0,0,0,0,0,-1,867,1037,0,0
-350,-13,0,0,0,0,0,0,0,0,0,-1,874,1037,0,0
-343,-13,0,0,0,0,0,0,0,0,0,-1,881,1037,0,0
-336,-13,0,0,0,0,0,0,0,0,0,-1,888,1037,0,0
-329,-13,0,0,0,0,0,0,0,0,0,-1,895,1037,0,0
-322,-13,0,0,0,0,0,0,0,0,0,-1,902,1037,0,0
-315,-13,0,0,0,0,0,0,0,0,0,-1,909,1037,0,0
-308,-13,0,0,0,0,0,0,0,0,0,-1,916,1037,0,0
-301,-13,0,0,0,0,0,0,0,0,0,-1,923,1037,0,0
-294,-13,0,0,0,0,0,0,0,0,0,-1,930,1037,0,0
-287,-13,0,0,0,0,0,0,0,0,0,-1,937,1037,0,0
-280,-13,0,0,0,0,0,0,0,0,0,-1,944,1037,0,0
-273,-13,0,0,0,0,0,0,0,0,0,-1,951,1037,0,0
-266,-13,0,0,0,0,0,0,0,0,0,-1,958,1037,0,0
-259,-13,0,0,0,0,0,0,0,0,0,-1,965,1037,0,0
-252,-13,0,0,0,0,0,0,0,0,0,-1,972,1037,0,0
-245,-13,0,0,0,0,0,0,0,0,0,-1,979,1037,0,0
-238,-13,0,0,0,0,0,0,0,0,0,-1,986,1037,0,0
-231,-13,0,0,0,0,0,0,0,0,0,-1,993,1037,0,0
-224,-13,0,0,0,0,0,0,0,0,0,-1,1000,1037,0,0
-217,-13,0,0,0,0,0,0,0,0,0,-1,1007,1037,0,0
-210,-13,0,0,0,0,0,0,0,0,0,-1,1014,1037,0,0
-203,-13,0,0,0,0,0,0,0,0,0,-1,1021,1037,0,0
-196,-13,0,0,0,0,0,0,0,0,0,-1,1028,1037,0,0
-189,-13,0,0,0,0,0,0,0,0,0,-1,1035,1037,0,0
-182,-13,0,0,0,0,0,0,0,0,0,-1,1042,1037,0,0
-175,-13,0,0,0,0,0,0,0,0,0,-1,1049,1037,0,0
-168,-13,0,0,0,0,0,0,0,0,0,-1,1056,1037,0,0
-161,-13,0,0,0,0,0,0,0,0,0,-1,1063,1037,0,0
-154,-13,0,0,0,0,0,0,0,0,0,-1,1070,1037,0,0
-147,-13,0,0,0,0,0,0,0,0,0,-1,1077,1037,0,0
-140,-13,0,0,0,0,0,0,0,0,0,-1,1084,1037,0,0
-133,-13,0,0,0,0,0,0,0,0,0,-1,1091,1037,0,0
-126,-13,0,0,0,0,0,0,0,0,0,-1,1098,1037,0,0
-119,-13,0,0,0,0,0,0,0,0,0,-1,1105,1037,0,0
-112,-13,0,0,0,0,0,0,0,0,0,-1,1112,1037,0,0
-105,-13,0,0,0,0,0,0,0,0,0,-1,1119,1037,0,0
-98,-13,0,0,0,0,0,0,0,0,0,-1,1126,1037,0,0
-91,-13,0,0,0,0,0,0,0,0,0,-1,1133,1037,0,0
-84,-13,0,0,0,0,0,0,0,0,0,-1,1140,1037,0,0
-77,-13,0,0,0,0,0,0,0,0,0,-1,1147,1037,0,0
-70,-13,0,0,0,0,0,0,0,0,0,-1,1154,1037,0,0
-63,-13,0,0,0,0,0,0,0,0,0,-1,1161,1037,0,0
-56,-13,0,0,0,0,0,0,0,0,0,-1,1168,1037,0,0
-49,-13,0,0,0,0,0,0,0,0,0,-1,1175,1037,0,0
-42,-13,0,0,0,0,0,0,0,0,0,-1,1182,1037,0,0
-35,-13,0,0,0,0,0,0,0,0,0,-1,1189,1037,0,0
-28,-13,0,0,0,0,0,0,0,0,0,-1,1196,1037,0,0
-21,-13,0,0,0,0,0,0,0,0,0,-1,1203,1037,0,0
-14,-13,0,0,0,0,0,0,0,0,0,-1,1210,1037,0,0
-7,-13,0,0,0,0,0,0,0,0,0,-1,1217,1037,0,0
0,-13,0,0,0,0,0,0,0,0,0,-1,1224,1037,0,0
7,-13,0,0,0,0,0,0,0,0,0,-1,1231,1037,0,0
14,-13,0,0,0,0,0,0,0,0,0,-1,1238,1037,0,0
21,-13,0,0,0,0,0,0,0,0,0,-1,1245,1037,0,0
28,-13,0,0,0,0,0,0,0,0,0,-1,1252,1037,0,0
35,-13,0,0,0,0,0,0,0,0,0,-1,1259,1037,0,0
42,-13,0,0,0,0,0,0,0,0,0,-1,1266,1037,0,0
49,-13,0,0,0,0,0,0,0,0,0,-1,1273,1037,0,0
56,-13,0,0,0,0,0,0,0,0,0,-1,1280,1037,0,0
63,-13,0,0,0,0,0,0,0,0,0,-1,1287,1037,0,0
70,-13,0,0,0,0,0,0,0,0,0,-1,1294,1037,0,0
77,-13,0,0,0,0,0,0,0,0,0,-1,1301,1037,0,0
84,-13,0,0,0,0,0,0,0,0,0,-1,1308,1037,0,0
91,-13,0,0,0,0,0,0,0,0,0,-1,1315,1037,0,0
98,-13,0,0,0,0,0,0,0,0,0,-1,1322,1037,0,0
105,-13,0,0,0,0,0,0,0,0,0,-1,1329,1037,0,0
112,-13,0,0,0,0,0,0,0,0,0,-1,1336,1037,0,0
119,-13,0,0,0,0,0,0,0,0,0,-1,1343,1037,0,0
126,-13,0,0,0,0,0,0,0,0,0,-1,1350,1037,0,0
133,-13,0,0,0,0,0,0,0,0,0,-1,1357,1037,0,0
140,-13,0,0,0,0,0,0,0,0,0,-1,1364,1037,0,0
147,-13,0,0,0,0,0,0,0,0,0,-1,1371,1037,0,0
154,-13,0,0,0,0,0,0,0,0,0,-1,1378,1037,0,0
161,-13,0,0,0,0,0,0,0,0,0,-1,1385,1037,0,0
168,-13,0,0,0,0,0,0,0,0,0,-1,1392,1037,0,0
175,-13,0,0,0,0,0,0,0,0,0,-1,1399,1037,0,0
182,-13,0,0,0,0,0,0,0,0,0,-1,1406,1037,0,0
189,-13,0,0,0,0,0,0,0,0,0,-1,1413,1037,0,0
196,-13,0,0,0,0,0,0,0,0,0,-1,1420,1037,0,0
203,-13,0,0,0,0,0,0,0,0,0,-1,1427,1037,0,0
210,-13,0,0,0,0,0,0,0,0,0,-1,1434,1037,0,0
217,-13,0,0,0,0,0,0,0,0,0,-1,1441,1037,0,0
224,-13,0,0,0,0,0,0,0,0,0,-1,1448,1037,0,0
231,-13,0,0,0,0,0,0,0,0,0,-1,1455,1037,0,0
238,-13,0,0,0,0,0,0,0,0,0,-1,1462,1037,0,0
245,-13,0,0,0,0,0,0,0,0,0,-1,1469,1037,0,0
252,-13,0,0,0,0,0,0,0,0,0,-1,1476,1037,0,0
259,-13,0,0,0,0,0,0,0,0,0,-1,1483,1037,0,0
266,-13,0,0,0,0,0,0,0,0,0,-1,1490,1037,0,0
273,-13,0,0,0,0,0,0,0,0,0,-1,1497,1037,0,0
280,-13,0,0,0,0,0,0,0,0,0,-1,1504,1037,0,0
287,-13,0,0,0,0,0,0,0,0,0,-1,1511,1037,0,0
294,-13,0,0,0,0,0,0,0,0,0,-1,1518,1037,0,0
301,-13,0,0,0,0,0,0,0,0,0,-1,1525,1037,0,0
308,-13,0,0,0,0,0,0,0,0,0,-1,1532,1037,0,0
315,-13,0,0,0,0,0,0,0,0,0,-1,1539,1037,0,0
322,-13,0,0,0,0,0,0,0,0,0,-1,1546,1037,0,0
329,-13,0,0,0,0,0,0,0,0,0,-1,1553,1037,0,0
336,-13,0,0,0,0,0,0,0,0,0,-1,1560,1037,0,0
343,-13,0,0,0,0,0,0,0,0,0,-1,1567,1037,0,0
350,-13,0,0,0,0,0,0,0,0,0,-1,1574,1037,0,0
357,-13,0,0,0,0,0,0,0,0,0,-1,1581,1037,0,0
364,-13,0,0,0,0,0,0,0,0,0,-1,1588,1037,0,0
371,-13,0,0,0,0,0,0,0,0,0,-1,1595,1037,0,0
378,-13,0,0,0,0,0,0,0,0,0,-1,1602,1037,0,0
385,-13,0,0,0,0,0,0,0,0,0,-1,1609,1037,0,0
392,-13,0,0,0,0,0,0,0,0,0,-1,1616,1037,0,0
399,-13,0,0,0,0,0,0,0,0,0,-1,1623,1037,0,0
406,-13,0,0,0,0,0,0,0,0,0,-1,1630,1037,0,0
413,-13,0,0,0,0,0,0,0,0,0,-1,1637,1037,0,0
420,-13,0,0,0,0,0,0,0,0,0,-1,1644,1037,0,0
427,-13,0,0,0,0,0,0,0,0,0,-1,1651,1037,0,0
434,-13,0,0,0,0,0,0,0,0,0,-1,1658,1037,0,0
441,-13,0,0,0,0,0,0,0,0,0,-1,1665,1037,0,0
448,-13,0,0,0,0,0,0,0,0,0,-1,1672,1037,0,0
455,-13,0,0,0,0,0,0,0,0,0,-1,1679,1037,0,0
462,-13,0,0,0,0,0,0,0,0,0,-1,1686,1037,0,0
469,-13,0,0,0,0,0,0,0,0,0,-1,1693,1037,0,0
476,-13,0,0,0,0,0,0,0,0,0,-1,1700,1037,0,0
483,-13,0,0,0,0,0,0,0,0,0,-1,1707,1037,0,0
490,-13,0,0,0,0,0,0,0,0,0,-1,1714,1037,0,0
497,-13,0,0,0,0,0,0,0,0,0,-1,1721,1037,0,0
504,-13,0,0,0,0,0,0,0,0,0,-1,1728,1037,0,0
511,-13,0,0,0,0,0,0,0,0,0,-1,1735,1037,0,0
518,-13,0,0,0,0,0,0,0,0,0,-1,1742,1037,0,0
525,-13,0,0,0,0,0,0,0,0,0,-1,1749,1037,0,0
532,-13,0,0,0,0,0,0,0,0,0,-1,1756,1037,0,0
539,-13,0,0,0,0,0,0,0,0,0,-1,1763,1037,0,0
546,-13,0,0,0,0,0,0,0,0,0,-1,1770,1037,0,0
553,-13,0,0,0,0,0,0,0,0,0,-1,1777,1037,0,0
560,-13,0,0,0,0,0,0,0,0,0,-1,1784,1037,0,0
567,-13,0,0,0,0,0,0,0,0,0,-1,1791,1037,0,0
574,-13,0,0,0,0,0,0,0,0,0,-1,1798,1037,0,0
581,-13,0,0,0,0,0,0,0,0,0,-1,1805,1037,0,0
588,-13,0,0,0,0,0,0,0,0,0,-1,1812,1037,0,0
595,-13,0,0,0,0,0,0,0,0,0,-1,1819,1037,0,0
602,-13,0,0,0,0,0,0,0,0,0,-1,1826,1037,0,0
609,-13,0,0,0,0,0,0,0,0,0,-1,1833,1037,0,0
616,-13,0,0,0,0,0,0,0,0,0,-1,1840,1037,0,0
623,-13,0,0,0,0,0,0,0,0,0,-1,1847,1037,0,0
630,-13,0,0,0,0,0,0,0,0,0,-1,1854,1037,0,0
637,-13,0,0,0,0,0,0,0,0,0,-1,1861,1037,0,0
644,-13,0,0,0,0,0,0,0,0,0,-1,1868,1037,0,0
651,-13,21.3259,2.8009,0.00195059,-0.000435178,-0.000706579,0.00214415,-0.000628738,-0.26738,0.00167873,0.0397013,1875,1037,21.3259,-2.80093
658,-13,21.3325,2.98694,0.000271905,-0.000492243,-0.000399443,0.000442584,-0.000662921,-0.40381,0.000642476,0.0450413,1882,1037,21.3325,-2.98697
665,-13,21.3292,2.95264,-0.000582225,-0.000486452,-0.000270291,-0.000259838,-0.000808839,-0.873071,0.000476827,0.0441327,1889,1037,21.3292,-2.95263
672,-13,21.3649,2.90967,-0.000957323,-0.000306674,0.000570966,2.51451e-05,-0.00128914,1.04435,0.000867931,0.0382215,1896,1037,21.3648,-2.90971
679,-13,21.0906,2.86682,-0.00149631,-2.9203e-05,0.00209148,0.00145364,-0.00297915,0.954062,0.0026093,0.0377972,1903,1037,21.0905,-2.86683
686,-13,20.9762,2.94177,-0.00197818,0.000203089,0.00363702,0.00290947,-0.00468457,0.931067,0.00442417,0.0393311,1910,1037,20.9761,-2.94173
693,-13,21.0461,3.08459,-0.00235169,0.000399954,0.00502662,0.00423564,-0.00618737,0.91898,0.00605279,0.0385121,1917,1037,21.0462,-3.08455
700,-13,21.1455,2.97961,-0.00270265,0.000597669,0.00614308,0.00530836,-0.00741334,0.916611,0.00737832,0.0347105,1924,1037,21.1455,-2.97964
707,-13,21.1737,2.90234,-0.00310233,0.000685219,0.00690256,0.00594908,-0.00836619,0.919283,0.00830411,0.0292642,1931,1037,21.1738,-2.90239
714,-13,21.1797,3.07361,-0.00337637,0.000787699,0.00740668,0.00639941,-0.00898809,0.922414,0.00892579,0.0243735,1938,1037,21.1797,-3.07364
721,-13,21.1382,3.6748,-0.00344815,0.000938416,0.00757521,0.00663147,-0.0091412,0.926312,0.0091447,0.0309717,1945,1037,21.1382,-3.67484
728,-13,20.8773,4.18115,-0.0033686,0.00115442,0.00742584,0.00665548,-0.00886966,0.933209,0.00899378,0.0265862,1952,1037,20.8773,-4.18116
735,-13,20.8224,4.20752,-0.00325899,0.0014066,0.00696215,0.00641639,-0.00826877,0.947054,0.00850094,0.0187208,1959,1037,20.8224,-4.2075
742,-13,20.8083,4.2262,-0.00299247,0.00183458,0.00611677,0.00599677,-0.00715466,0.973309,0.00760278,0.0107469,1966,1037,20.8084,-4.22614
749,-13,20.8068,4.23767,-0.00198389,0.00190757,0.0054087,0.00570988,-0.0057862,0.958061,0.00663731,0.01536,1973,1037,20.8068,-4.23771
756,-13,20.8063,4.22729,0.000319324,0.00258042,0.0051239,0.00669701,-0.00379727,0.89398,0.00613549,0.0127812,1980,1037,20.8062,-4.22727
763,-13,20.8186,4.2262,0.00365479,0.00302952,0.00489438,0.00824651,-0.0015622,0.753503,0.00608561,0.0117507,1987,1037,20.8187,-4.22615
770,-13,20.7928,4.24231,0.00749889,0.00365775,0.00465026,0.0106096,0.00054706,0.589566,0.00689793,0.0104294,1994,1037,20.7928,-4.2423
777,-13,20.7631,4.25,0.0127759,0.00444415,0.00501448,0.0151292,0.00209086,0.438787,0.00946645,0.0108404,2001,1037,20.7631,-4.24997
784,-13,20.7852,4.22632,0.0194417,0.00526173,0.00650344,0.0219727,0.00273077,0.371138,0.0138284,0.0261462,2008,1037,20.7852,-4.22632
791,-13,20.7889,4.20471,0.0277746,0.00603265,0.00868463,0.0308177,0.00298957,0.337029,0.0196247,0.043872,2015,1037,20.789,-4.20467
798,-13,20.8076,4.3739,0,0,0,0,0,0,0,-1,2022,1037,20.8076,-4.37395
805,-13,23.1843,2.82715,0,0,0,0,0,0,0,-1,2029,1037,23.1843,-2.82717
812,-13,22.428,3.09778,0,0,0,0,0,0,0,-1,2036,1037,22.4279,-3.09772
-700,-20,-11.2477,3.57874,0,0,0,0,0,0,0,-1,524,1044,-11.2477,-3.57875
-693,-20,-11.5529,3.01416,-0.0293567,-0.0159882,0.00332648,-0.0152062,-0.0301387,1.33991,0.0174008,0.0459578,531,1044,-11.5529,-3.01414
-686,-20,-11.8472,2.375,-0.0227982,-0.0121082,0.000628104,-0.0120714,-0.022835,1.51231,0.013191,0.0419094,538,1044,-11.8472,-2.37505
-679,-20,-12.4268,1.72839,0,0,0,0,0,0,0,-1,545,1044,-12.4268,-1.72843
-672,-20,-13.007,1.77722,-0.0137765,-0.00572662,-0.00116041,-0.00556269,-0.0139405,-1.43045,0.00810304,0.0468058,552,1044,-13.007,-1.77726
-665,-20,-13.5452,1.74646,-0.0105883,-0.00333004,-0.00111447,-0.00316277,-0.0107555,-1.42182,0.00638286,0.0464029,559,1044,-13.5452,-1.74648
-658,-20,-13.6114,1.47839,-0.00806263,-0.00149792,-0.000835171,-0.00139333,-0.00816721,-1.44622,0.00504491,0.0459503,566,1044,-13.6114,-1.47844
-651,-20,-13.6201,1.62109,-0.00608007,-0.000230833,-0.00053325,-0.000182616,-0.00612828,-1.48062,0.00402603,0.0376635,573,1044,-13.6201,-1.62108
-644,-20,-13.6291,1.72559,-0.00449857,0.000552591,-0.000614852,0.000626357,-0.00457233,-1.45139,0.00327702,0.0252919,580,1044,-13.6291,-1.72553
-637,-20,-13.6579,1.76514,-0.00304694,0.00111196,-0.00177201,0.00176456,-0.00369955,-1.21792,0.00321997,0.0174025,587,1044,-13.6579,-1.76519
-630,-20,-13.6563,1.79614,-0.00208355,0.000490305,-0.00212379,0.00168666,-0.0032799,-1.05779,0.00291621,0.0144322,594,1044,-13.6563,-1.79617
-623,-20,-13.6637,1.8324,-0.00176249,0.000722907,-0.00314481,0.00286165,-0.00390123,-0.973561,0.0039199,0.0132499,601,1044,-13.6637,-1.83243
-616,-20,-13.675,1.86536,-0.00133922,0.000429976,-0.0039104,0.00355458,-0.00446383,-0.896635,0.00463934,0.0120386,608,1044,-13.675,-1.86536
-609,-20,-13.6703,1.86853,-0.000693845,-0.000302946,-0.00494867,0.00445413,-0.00545092,-0.805136,0.00572833,0.013325,615,1044,-13.6703,-1.8685
-602,-20,-13.6823,1.86877,-0.000311776,-0.000982596,-0.00598731,0.00534951,-0.00664388,-0.757417,0.00693782,0.0104315,622,1044,-13.6822,-1.86878
-595,-20,-13.7015,1.85767,-0.000284142,-0.00134573,-0.00670169,0.00590775,-0.00753762,-0.745879,0.00778167,0.0135507,629,1044,-13.7015,-1.85768
-588,-20,-13.6707,1.4082,-0.000312873,-0.00158635,-0.00689338,0.00597311,-0.00787233,-0.739344,0.0080187,0.019991,636,1044,-13.6706,-1.40817
-581,-20,-13.7042,1.08167,-0.000327717,-0.00174112,-0.00665778,0.00566076,-0.0077296,-0.732523,0.00776162,0.0277152,643,1044,-13.7042,-1.08171
-574,-20,-13.756,1.15027,-0.000447852,-0.00172682,-0.00608429,0.00503046,-0.00720514,-0.733038,0.00710132,0.0365146,650,1044,-13.7561,-1.15029
-567,-20,-13.8219,1.24023,-0.0006768,-0.00154878,-0.00505015,0.00395615,-0.00618173,-0.742339,0.00589993,0.0439113,657,1044,-13.8219,-1.24024
-560,-20,-13.7584,1.12036,-0.00101091,-0.00124044,-0.00357154,0.00244771,-0.00469906,-0.769337,0.00419388,0.0456801,664,1044,-13.7584,-1.12035
-553,-20,-13.7347,0.801636,-0.00150866,-0.000850954,-0.00172082,0.000572156,-0.00293177,-0.879812,0.00217052,0.0441426,671,1044,-13.7347,-0.801618
-546,-20,-13.7416,0.945679,-0.00225657,-0.000446471,0.000405027,-0.000359976,-0.00234307,1.3604,0.00145695,0.0407929,678,1044,-13.7417,-0.945719
-539,-20,-13.7361,1.35156,-0.00329199,-0.000182046,0.00219414,0.000952256,-0.00442629,1.09367,0.0033142,0.0400229,685,1044,-13.7362,-1.35155
-532,-20,-13.7336,1.20227,-0.0048938,-0.00015455,0.00237826,0.00083309,-0.00588144,1.17719,0.00422612,0.0405264,692,1044,-13.7336,-1.20223
-525,-20,0,0,0,0,0,0,0,0,0,-1,699,1044,0,0
-518,-20,0,0,0,0,0,0,0,0,0,-1,706,1044,0,0
-511,-20,0,0,0,0,0,0,0,0,0,-1,713,1044,0,0
-504,-20,0,0,0,0,0,0,0,0,0,-1,720,1044,0,0
-497,-20,0,0,0,0,0,0,0,0,0,-1,727,1044,0,0
-490,-20,0,0,0,0,0,0,0,0,0,-1,734,1044,0,0
-483,-20,0,0,0,0,0,0,0,0,0,-1,741,1044,0,0
-476,-20,0,0,0,0,0,0,0,0,0,-1,748,1044,0,0
-469,-20,0,0,0,0,0,0,0,0,0,-1,755,1044,0,0
-462,-20,0,0,0,0,0,0,0,0,0,-1,762,1044,0,0
-455,-20,0,0,0,0,0,0,0,0,0,-1,769,1044,0,0
-448,-20,0,0,0,0,0,0,0,0,0,-1,776,1044,0,0
-441,-20,0,0,0,0,0,0,0,0,0,-1,783,1044,0,0
-434,-20,0,0,0,0,0,0,0,0,0,-1,790,1044,0,0
-427,-20,0,0,0,0,0,0,0,0,0,-1,797,1044,0,0
-420,-20,0,0,0,0,0,0,0,0,0,-1,804,1044,0,0
-413,-20,0,0,0,0,0,0,0,0,0,-1,811,1044,0,0
-406,-20,0,0,0,0,0,0,0,0,0,-1,818,1044,0,0
-399,-20,0,0,0,0,0,0,0,0,0,-1,825,1044,0,0
-392,-20,0,0,0,0,0,0,0,0,0,-1,832,1044,0,0
-385,-20,0,0,0,0,0,0,0,0,0,-1,839,1044,0,0
-378,-20,0,0,0,0,0,0,0,0,0,-1,846,1044,0,0
-371,-20,0,0,0,0,0,0,0,0,0,-1,853,1044,0,0
-364,-20,0,0,0,0,0,0,0,0,0,-1,860,1044,0,0
-357,-20,0,0,0,0,0,0,0,0,0,-1,867,1044,0,0
-350,-20,0,0,0,0,0,0,0,0,0,-1,874,1044,0,0
-343,-20,0,0,0,0,0,0,0,0,0,-1,881,1044,0,0
-336,-20,0,0,0,0,0,0,0,0,0,-1,888,1044,0,0
-329,-20,0,0,0,0,0,0,0,0,0,-1,895,1044,0,0
-322,-20,0,0,0,0,0,0,0,0,0,-1,902,1044,0,0
-315,-20,0,0,0,0,0,0,0,0,0,-1,909,1044,0,0
-308,-20,0,0,0,0,0,0,0,0,0,-1,916,1044,0,0
-301,-20,0,0,0,0,0,0,0,0,0,-1,923,1044,0,0
-294,-20,0,0,0,0,0,0,0,0,0,-1,930,1044,0,0
-287,-20,0,0,0,0,0,0,0,0,0,-1,937,1044,0,0
-280,-20,0,0,0,0,0,0,0,0,0,-1,944,1044,0,0
-273,-20,0,0,0,0,0,0,0,0,0,-1,951,1044,0,0
-266,-20,0,0,0,0,0,0,0,0,0,-1,958,1044,0,0
-259,-20,0,0,0,0,0,0,0,0,0,-1,965,1044,0,0
-252,-20,0,0,0,0,0,0,0,0,0,-1,972,1044,0,0
-245,-20,0,0,0,0,0,0,0,0,0,-1,979,1044,0,0
-238,-20,0,0,0,0,0,0,0,0,0,-1,986,1044,0,0
-231,-20,0,0,0,0,0,0,0,0,0,-1,993,1044,0,0
-224,-20,0,0,0,0,0,0,0,0,0,-1,1000,1044,0,0
-217,-20,0,0,0,0,0,0,0,0,0,-1,1007,1044,0,0
-210,-20,0,0,0,0,0,0,0,0,0,-1,1014,1044,0,0
-203,-20,0,0,0,0,0,0,0,0,0,-1,1021,1044,0,0
-196,-20,0,0,0,0,0,0,0,0,0,-1,1028,1044,0,0
-189,-20,0,0,0,0,0,0,0,0,0,-1,1035,1044,0,0
-182,-20,0,0,0,0,0,0,0,0,0,-1,1042,1044,0,0
-175,-20,0,0,0,0,0,0,0,0,0,-1,1049,1044,0,0
-168,-20,0,0,0,0,0,0,0,0,0,-1,1056,1044,0,0
-161,-20,0,0,0,0,0,0,0,0,0,-1,1063,1044,0,0
-154,-20,0,0,0,0,0,0,0,0,0,-1,1070,1044,0,0
-147,-20,0,0,0,0,0,0,0,0,0,-1,1077,1044,0,0
-140,-20,0,0,0,0,0,0,0,0,0,-1,1084,1044,0,0
-133,-20,0,0,0,0,0,0,0,0,0,-1,1091,1044,0,0
-126,-20,0,0,0,0,0,0,0,0,0,-1,1098,1044,0,0
-119,-20,0,0,0,0,0,0,0,0,0,-1,1105,1044,0,0
-112,-20,0,0,0,0,0,0,0,0,0,-1,1112,1044,0,0
-105,-20,0,0,0,0,0,0,0,0,0,-1,1119,1044,0,0
-98,-20,0,0,0,0,0,0,0,0,0,-1,1126,1044,0,0
-91,-20,0,0,0,0,0,0,0,0,0,-1,1133,1044,0,0
-84,-20,0,0,0,0,0,0,0,0,0,-1,1140,1044,0,0
-77,-20,0,0,0,0,0,0,0,0,0,-1,1147,1044,0,0
-70,-20,0,0,0,0,0,0,0,0,0,-1,1154,1044,0,0
-63,-20,0,0,0,0,0,0,0,0,0,-1,1161,1044,0,0
-56,-20,0,0,0,0,0,0,0,0,0,-1,1168,1044,0,0
-49,-20,0,0,0,0,0,0,0,0,0,-1,1175,1044,0,0
-42,-20,0,0,0,0,0,0,0,0,0,-1,1182,1044,0,0
-35,-20,0,0,0,0,0,0,0,0,0,-1,1189,1044,0,0
-28,-20,0,0,0,0,0,0,0,0,0,-1,1196,1044,0,0
-21,-20,0,0,0,0,0,0,0,0,0,-1,1203,1044,0,0
-14,-20,0,0,0,0,0,0,0,0,0,-1,1210,1044,0,0
-7,-20,0,0,0,0,0,0,0,0,0,-1,1217,1044,0,0
0,-20,0,0,0,0,0,0,0,0,0,-1,1224,1044,0,0
7,-20,0,0,0,0,0,0,0,0,0,-1,1231,1044,0,0
14,-20,0,0,0,0,0,0,0,0,0,-1,1238,1044,0,0
21,-20,0,0,0,0,0,0,0,0,0,-1,1245,1044,0,0
28,-20,0,0,0,0,0,0,0,0,0,-1,1252,1044,0,0
35,-20,0,0,0,0,0,0,0,0,0,-1,1259,1044,0,0
42,-20,0,0,0,0,0,0,0,0,0,-1,1266,1044,0,0
49,-20,0,0,0,0,0,0,0,0,0,-1,1273,1044,0,0
56,-20,0,0,0,0,0,0,0,0,0,-1,1280,1044,0,0
63,-20,0,0,0,0,0,0,0,0,0,-1,1287,1044,0,0
70,-20,0,0,0,0,0,0,0,0,0,-1,1294,1044,0,0
77,-20,0,0,0,0,0,0,0,0,0,-1,1301,1044,0,0
84,-20,0,0,0,0,0,0,0,0,0,-1,1308,1044,0,0
91,-20,0,0,0,0,0,0,0,0,0,-1,1315,1044,0,0
98,-20,0,0,0,0,0,0,0,0,0,-1,1322,1044,0,0
105,-20,0,0,0,0,0,0,0,0,0,-1,1329,1044,0,0
112,-20,0,0,0,0,0,0,0,0,0,-1,1336,1044,0,0
119,-20,0,0,0,0,0,0,0,0,0,-1,1343,1044,0,0
126,-20,0,0,0,0,0,0,0,0,0,-1,1350,1044,0,0
133,-20,0,0,0,0,0,0,0,0,0,-1,1357,1044,0,0
140,-20,0,0,0,0,0,0,0,0,0,-1,1364,1044,0,0
147,-20,0,0,0,0,0,0,0,0,0,-1,1371,1044,0,0
154,-20,0,0,0,0,0,0,0,0,0,-1,1378,1044,0,0
161,-20,0,0,0,0,0,0,0,0,0,-1,1385,1044,0,0
168,-20,0,0,0,0,0,0,0,0,0,-1,1392,1044,0,0
175,-20,0,0,0,0,0,0,0,0,0,-1,1399,1044,0,0
182,-20,0,0,0,0,0,0,0,0,0,-1,1406,1044,0,0
189,-20,0,0,0,0,0,0,0,0,0,-1,1413,1044,0,0
196,-20,0,0,0,0,0,0,0,0,0,-1,1420,1044,0,0
203,-20,0,0,0,0,0,0,0,0,0,-1,1427,1044,0,0
210,-20,0,0,0,0,0,0,0,0,0,-1,1434,1044,0,0
217,-20,0,0,0,0,0,0,0,0,0,-1,1441,1044,0,0
224,-20,0,0,0,0,0,0,0,0,0,-1,1448,1044,0,0
231,-20,0,0,0,0,0,0,0,0,0,-1,1455,1044,0,0
238,-20,0,0,0,0,0,0,0,0,0,-1,1462,1044,0,0
245,-20,0,0,0,0,0,0,0,0,0,-1,1469,1044,0,0
252,-20,0,0,0,0,0,0,0,0,0,-1,1476,1044,0,0
259,-20,0,0,0,0,0,0,0,0,0,-1,1483,1044,0,0
266,-20,0,0,0,0,0,0,0,0,0,-1,1490,1044,0,0
273,-20,0,0,0,0,0,0,0,0,0,-1,1497,1044,0,0
280,-20,0,0,0,0,0,0,0,0,0,-1,1504,1044,0,0
287,-20,0,0,0,0,0,0,0,0,0,-1,1511,1044,0,0
294,-20,0,0,0,0,0,0,0,0,0,-1,1518,1044,0,0
301,-20,0,0,0,0,0,0,0,0,0,-1,1525,1044,0,0
308,-20,0,0,0,0,0,0,0,0,0,-1,1532,1044,0,0
315,-20,0,0,0,0,0,0,0,0,0,-1,1539,1044,0,0
322,-20,0,0,0,0,0,0,0,0,0,-1,1546,1044,0,0
329,-20,0,0,0,0,0,0,0,0,0,-1,1553,1044,0,0
336,-20,0,0,0,0,0,0,0,0,0,-1,1560,1044,0,0
343,-20,0,0,0,0,0,0,0,0,0,-1,1567,1044,0,0
350,-20,0,0,0,0,0,0,0,0,0,-1,1574,1044,0,0
357,-20,0,0,0,0,0,0,0,0,0,-1,1581,1044,0,0
364,-20,0,0,0,0,0,0,0,0,0,-1,1588,1044,0,0
371,-20,0,0,0,0,0,0,0,0,0,-1,1595,1044,0,0
378,-20,0,0,0,0,0,0,0,0,0,-1,1602,1044,0,0
385,-20,0,0,0,0,0,0,0,0,0,-1,1609,1044,0,0
392,-20,0,0,0,0,0,0,0,0,0,-1,1616,1044,0,0
399,-20,0,0,0,0,0,0,0,0,0,-1,1623,1044,0,0
406,-20,0,0,0,0,0,0,0,0,0,-1,1630,1044,0,0
413,-20,0,0,0,0,0,0,0,0,0,-1,1637,1044,0,0
420,-20,0,0,0,0,0,0,0,0,0,-1,1644,1044,0,0
427,-20,0,0,0,0,0,0,0,0,0,-1,1651,1044,0,0
434,-20,0,0,0,0,0,0,0,0,0,-1,1658,1044,0,0
441,-20,0,0,0,0,0,0,0,0,0,-1,1665,1044,0,0
448,-20,0,0,0,0,0,0,0,0,0,-1,1672,1044,0,0
455,-20,0,0,0,0,0,0,0,0,0,-1,1679,1044,0,0
462,-20,0,0,0,0,0,0,0,0,0,-1,1686,1044,0,0
469,-20,0,0,0,0,0,0,0,0,0,-1,1693,1044,0,0
476,-20,0,0,0,0,0,0,0,0,0,-1,1700,1044,0,0
483,-20,0,0,0,0,0,0,0,0,0,-1,1707,1044,0,0
490,-20,0,0,0,0,0,0,0,0,0,-1,1714,1044,0,0
497,-20,0,0,0,0,0,0,0,0,0,-1,1721,1044,0,0
504,-20,0,0,0,0,0,0,0,0,0,-1,1728,1044,0,0
511,-20,0,0,0,0,0,0,0,0,0,-1,1735,1044,0,0
518,-20,0,0,0,0,0,0,0,0,0,-1,1742,1044,0,0
525,-20,0,0,0,0,0,0,0,0,0,-1,1749,1044,0,0
532,-20,0,0,0,0,0,0,0,0,0,-1,1756,1044,0,0
539,-20,0,0,0,0,0,0,0,0,0,-1,1763,1044,0,0
546,-20,0,0,0,0,0,0,0,0,0,-1,1770,1044,0,0
553,-20,0,0,0,0,0,0,0,0,0,-1,1777,1044,0,0
560,-20,0,0,0,0,0,0,0,0,0,-1,1784,1044,0,0
567,-20,0,0,0,0,0,0,0,0,0,-1,1791,1044,0,0
574,-20,0,0,0,0,0,0,0,0,0,-1,1798,1044,0,0
581,-20,0,0,0,0,0,0,0,0,0,-1,1805,1044,0,0
588,-20,0,0,0,0,0,0,0,0,0,-1,1812,1044,0,0
595,-20,0,0,0,0,0,0,0,0,0,-1,1819,1044,0,0
602,-20,0,0,0,0,0,0,0,0,0,-1,1826,1044,0,0
609,-20,0,0,0,0,0,0,0,0,0,-1,1833,1044,0,0
616,-20,0,0,0,0,0,0,0,0,0,-1,1840,1044,0,0
623,-20,0,0,0,0,0,0,0,0,0,-1,1847,1044,0,0
630,-20,0,0,0,0,0,0,0,0,0,-1,1854,1044,0,0
637,-20,0,0,0,0,0,0,0,0,0,-1,1861,1044,0,0
644,-20,0,0,0,0,0,0,0,0,0,-1,1868,1044,0,0
651,-20,21.376,2.70044,0.000619909,-0.000363656,-0.000361362,0.0007384,-0.000482146,-0.316851,0.000709841,0.0408305,1875,1044,21.376,-2.70049
658,-20,21.219,2.91785,-0.000641239,-0.000441004,-0.000156878,-0.000355019,-0.000727224,-1.06941,0.000419902,0.04338,1882,1044,21.219,-2.91788
665,-20,21.1914,2.90881,-0.001155,-0.000454228,-0.000159589,-0.000419596,-0.00118964,-1.3571,0.000696699,0.0409005,1889,1044,21.1914,-2.90876
672,-20,21.2456,2.92993,-0.00124595,-0.00030369,0.000587026,-2.21152e-05,-0.00152752,1.12355,0.00101106,0.0272424,1896,1044,21.2455,-2.92993
679,-20,21.1431,2.98169,-0.00149962,-6.77622e-05,0.00206721,0.00140399,-0.00297136,0.952097,0.00257957,0.0285757,1903,1044,21.1431,-2.98169
686,-20,21.0895,3.05322,-0.00176068,0.00012291,0.00359795,0.00290028,-0.00453805,0.913406,0.00432908,0.0382517,1910,1044,21.0895,-3.05321
693,-20,21.0482,2.93372,-0.00197083,0.000278812,0.00498917,0.00426838,-0.0059604,0.896271,0.00593246,0.0422021,1917,1044,21.0482,-2.93368
700,-20,21.1105,2.85022,-0.00218563,0.000439951,0.0061239,0.00539019,-0.00713587,0.890986,0.0072553,0.0375075,1924,1044,21.1104,-2.8502
707,-20,21.1998,2.85449,-0.00248172,0.000493273,0.00688118,0.0060459,-0.00803434,0.891845,0.00815621,0.0289258,1931,1044,21.1998,-2.85445
714,-20,21.2271,2.99902,-0.00268327,0.000579583,0.00737767,0.00650405,-0.00860773,0.894212,0.00875293,0.0228994,1938,1044,21.2271,-2.99903
721,-20,21.2576,3.19763,-0.00273743,0.000723405,0.00753711,0.00672618,-0.00874021,0.898236,0.00895473,0.0216631,1945,1044,21.2575,-3.19762
728,-20,21.0084,3.89514,-0.00269618,0.000935405,0.00739502,0.0067343,-0.00849507,0.905788,0.00881225,0.0203281,1952,1044,21.0084,-3.8952
735,-20,20.7832,4.19958,-0.00266969,0.00121948,0.00694651,0.00648845,-0.00793867,0.921873,0.00834352,0.0164319,1959,1044,20.7832,-4.1996
742,-20,20.8046,4.22241,-0.00247985,0.00171285,0.00609797,0.00606475,-0.00683175,0.950959,0.00745019,0.0148647,1966,1044,20.8046,-4.22239
749,-20,20.8314,4.20752,-0.00137683,0.00176351,0.00544639,0.00586155,-0.00547487,0.92574,0.00654636,0.0156741,1973,1044,20.8315,-4.20756
756,-20,20.8256,4.19421,0.00120808,0.00232593,0.00527225,0.0070688,-0.00353479,0.838207,0.00623429,0.0123469,1980,1044,20.8256,-4.19425
763,-20,20.8052,4.20154,0.00501667,0.00272572,0.0051267,0.00912431,-0.00138192,0.675487,0.00659197,0.0127904,1987,1044,20.8052,-4.20153
770,-20,20.7906,4.25513,0.00950998,0.00325006,0.00501289,0.0122898,0.000470223,0.506321,0.00804106,0.0124174,1994,1044,20.7906,-4.25518
777,-20,20.764,4.2478,0.0158284,0.00386814,0.00559547,0.018038,0.00165857,0.376089,0.0115124,0.0127626,2001,1044,20.7641,-4.24776
784,-20,20.7772,4.24878,0.0240888,0.004403,0.00746322,0.0265983,0.00189347,0.324375,0.0171359,0.0183164,2008,1044,20.7773,-4.2488
791,-20,20.9163,4.35852,0.0345811,0.00479803,0.0101183,0.0376934,0.00168573,0.298406,0.0245863,0.0371051,2015,1044,20.9163,-4.35853
798,-20,21.4194,4.55664,0.0482509,0.00488947,0.0134602,0.0520894,0.00105099,0.277799,0.0343813,0.042232,2022,1044,21.4195,-4.55669
805,-20,22.2195,4.18933,0,0,0,0,0,0,0,-1,2029,1044,22.2196,-4.18928
812,-20,22.4785,3.89648,0,0,0,0,0,0,0,-1,2036,1044,22.4786,-3.89645
-700,-27,-11.7403,3.88074,0,0,0,0,0,0,0,-1,524,1051,-11.7403,-3.88069
-693,-27,-12.0732,3.29968,-0.0154728,-0.019412,-0.00669263,-0.010466,-0.0244188,-0.642293,0.014146,0.0490225,531,1051,-12.0732,-3.29968
-686,-27,-12.4182,2.68494,-0.0111252,-0.0144093,-0.00767189,-0.00492161,-0.0206129,-0.679973,0.0124305,0.0449479,538,1051,-12.4181,-2.68493
-679,-27,-12.8441,2.19434,-0.00827254,-0.010096,-0.00742134,-0.00170712,-0.0166614,-0.724279,0.0105845,0.0456461,545,1051,-12.844,-2.19431
-672,-27,-13.3136,2.13782,-0.00633442,-0.00651688,-0.00647615,5.11468e-05,-0.0129024,-0.778355,0.00861873,0.0435851,552,1051,-13.3136,-2.13781
-665,-27,-13.567,1.97412,-0.00494164,-0.00368071,-0.00520777,0.000934622,-0.00955697,-0.845636,0.0067046,0.0464601,559,1051,-13.567,-1.9741
-658,-27,-13.6941,1.93372,-0.00392436,-0.00157416,-0.00389795,0.00132196,-0.00682048,-0.931799,0.0050457,0.0478554,566,1051,-13.6941,-1.93367
-651,-27,-13.6031,1.60193,-0.00315129,-0.00016119,-0.00274929,0.00147326,-0.00478574,-1.03443,0.00377856,0.0345239,573,1051,-13.6031,-1.60197
-644,-27,-13.603,1.71143,-0.00249554,0.000703458,-0.00217799,0.00180619,-0.00359827,-1.10212,0.00317693,0.015864,580,1051,-13.603,-1.71141
-637,-27,-13.6194,1.73193,-0.00173461,0.00117842,-0.00280129,0.00287923,-0.00343542,-1.02514,0.00365047,0.0132191,587,1051,-13.6194,-1.73191
-630,-27,-13.6323,1.78796,-0.00149809,0.000703373,-0.00272879,0.00254508,-0.0033398,-0.977105,0.00340795,0.0181165,594,1051,-13.6323,-1.78793
-623,-27,-13.6253,1.82349,-0.00163175,0.000863888,-0.00358086,0.00340811,-0.00417598,-0.953053,0.00438615,0.0155809,601,1051,-13.6253,-1.82347
-616,-27,-13.6199,1.86389,-0.00148048,0.000495398,-0.00412685,0.00375091,-0.004736,-0.902884,0.00491091,0.0127864,608,1051,-13.6199,-1.86389
-609,-27,-13.6385,1.89368,-0.000945298,-0.000336876,-0.00509695,0.00446493,-0.0057471,-0.815205,0.00591139,0.0127453,615,1051,-13.6385,-1.89373
-602,-27,-13.6406,1.92273,-0.000567401,-0.00102199,-0.00617008,0.00537957,-0.00696896,-0.766987,0.00714908,0.0107642,622,1051,-13.6407,-1.92276
-595,-27,-13.6597,1.94763,-0.000562134,-0.00137168,-0.00692617,0.00597108,-0.00790489,-0.756211,0.00803719,0.0105384,629,1051,-13.6597,-1.94758
-588,-27,-13.6793,1.53052,-0.000626973,-0.00155949,-0.00711676,0.00603878,-0.00822525,-0.752687,0.00826753,0.017709,636,1051,-13.6793,-1.53058
-581,-27,-13.6848,0.914917,0,0,0,0,0,0,0,-1,643,1051,-13.6848,-0.914975
-574,-27,-13.6787,1.11255,-0.000712805,-0.00152489,-0.0062949,0.00518914,-0.00742683,-0.753191,0.00732193,0.0354848,650,1051,-13.6787,-1.11255
-567,-27,-13.748,1.10278,-0.000864779,-0.00124478,-0.00523548,0.00418415,-0.0062937,-0.767261,0.00609012,0.0458065,657,1051,-13.7481,-1.10281
-560,-27,-13.6761,1.03796,-0.00107958,-0.000805217,-0.00370934,0.00276948,-0.00465428,-0.803881,0.00433191,0.0474042,664,1051,-13.6761,-1.03796
-553,-27,-13.4905,1.03333,-0.00141629,-0.000241297,-0.00178577,0.00105113,-0.00270872,-0.944315,0.00223997,0.0430783,671,1051,-13.4905,-1.03336
-546,-27,-13.5978,1.31946,-0.00196333,0.000394337,0.000445238,0.000475616,-0.00204461,1.39023,0.00154619,0.0442484,678,1051,-13.5978,-1.31942
-539,-27,-13.6761,1.26672,-0.00278619,0.00096655,0.00235482,0.00210115,-0.00392079,1.1218,0.00352928,0.0421189,685,1051,-13.6761,-1.26672
-532,-27,-13.6791,1.18701,-0.00421219,0.00135911,0.00255019,0.00235014,-0.00520321,1.20015,0.00446343,0.0398365,692,1051,-13.6792,-1.18698
-525,-27,0,0,0,0,0,0,0,0,0,-1,699,1051,0,0
-518,-27,0,0,0,0,0,0,0,0,0,-1,706,1051,0,0
-511,-27,0,0,0,0,0,0,0,0,0,-1,713,1051,0,0
-504,-27,0,0,0,0,0,0,0,0,0,-1,720,1051,0,0
-497,-27,0,0,0,0,0,0,0,0,0,-1,727,1051,0,0
-490,-27,0,0,0,0,0,0,0,0,0,-1,734,1051,0,0
-483,-27,0,0,0,0,0,0,0,0,0,-1,741,1051,0,0
-476,-27,0,0,0,0,0,0,0,0,0,-1,748,1051,0,0
-469,-27,0,0,0,0,0,0,0,0,0,-1,755,1051,0,0
-462,-27,0,0,0,0,0,0,0,0,0,-1,762,1051,0,0
-455,-27,0,0,0,0,0,0,0,0,0,-1,769,1051,0,0
-448,-27,0,0,0,0,0,0,0,0,0,-1,776,1051,0,0
-441,-27,0,0,0,0,0,0,0,0,0,-1,783,1051,0,0
-434,-27,0,0,0,0,0,0,0,0,0,-1,790,1051,0,0
-427,-27,0,0,0,0,0,0,0,0,0,-1,797,1051,0,0
-420,-27,0,0,0,0,0,0,0,0,0,-1,804,1051,0,0
-413,-27,0,0,0,0,0,0,0,0,0,-1,811,1051,0,0
-406,-27,0,0,0,0,0,0,0,0,0,-1,818,1051,0,0
-399,-27,0,0,0,0,0,0,0,0,0,-1,825,1051,0,0
-392,-27,0,0,0,0,0,0,0,0,0,-1,832,1051,0,0
-385,-27,0,0,0,0,0,0,0,0,0,-1,839,1051,0,0
-378,-27,0,0,0,0,0,0,0,0,0,-1,846,1051,0,0
-371,-27,0,0,0,0,0,0,0,0,0,-1,853,1051,0,0
-364,-27,0,0,0,0,0,0,0,0,0,-1,860,1051,0,0
-357,-27,0,0,0,0,0,0,0,0,0,-1,867,1051,0,0
-350,-27,0,0,0,0,0,0,0,0,0,-1,874,1051,0,0
-343,-27,0,0,0,0,0,0,0,0,0,-1,881,1051,0,0
-336,-27,0,0,0,0,0,0,0,0,0,-1,888,1051,0,0
-329,-27,0,0,0,0,0,0,0,0,0,-1,895,1051,0,0
-322,-27,0,0,0,0,0,0,0,0,0,-1,902,1051,0,0
-315,-27,0,0,0,0,0,0,0,0,0,-1,909,1051,0,0
-308,-27,0,0,0,0,0,0,0,0,0,-1,916,1051,0,0
-301,-27,0,0,0,0,0,0,0,0,0,-1,923,1051,0,0
-294,-27,0,0,0,0,0,0,0,0,0,-1,930,1051,0,0
-287,-27,0,0,0,0,0,0,0,0,0,-1,937,1051,0,0
-280,-27,0,0,0,0,0,0,0,0,0,-1,944,1051,0,0
-273,-27,0,0,0,0,0,0,0,0,0,-1,951,1051,0,0
-266,-27,0,0,0,0,0,0,0,0,0,-1,958,1051,0,0
-259,-27,0,0,0,0,0,0,0,0,0,-1,965,1051,0,0
-252,-27,0,0,0,0,0,0,0,0,0,-1,972,1051,0,0
-245,-27,0,0,0,0,0,0,0,0,0,-1,979,1051,0,0
-238,-27,0,0,0,0,0,0,0,0,0,-1,986,1051,0,0
-231,-27,0,0,0,0,0,0,0,0,0,-1,993,1051,0,0
-224,-27,0,0,0,0,0,0,0,0,0,-1,1000,1051,0,0
-217,-27,0,0,0,0,0,0,0,0,0,-1,1007,1051,0,0
-210,-27,0,0,0,0,0,0,0,0,0,-1,1014,1051,0,0
-203,-27,0,0,0,0,0,0,0,0,0,-1,1021,1051,0,0
-196,-27,0,0,0,0,0,0,0,0,0,-1,1028,1051,0,0
-189,-27,0,0,0,0,0,0,0,0,0,-1,1035,1051,0,0
-182,-27,0,0,0,0,0,0,0,0,0,-1,1042,1051,0,0
-175,-27,0,0,0,0,0,0,0,0,0,-1,1049,1051,0,0
-168,-27,0,0,0,0,0,0,0,0,0,-1,1056,1051,0,0
-161,-27,0,0,0,0,0,0,0,0,0,-1,1063,1051,0,0
-154,-27,0,0,0,0,0,0,0,0,0,-1,1070,1051,0,0
-147,-27,0,0,0,0,0,0,0,0,0,-1,1077,1051,0,0
-140,-27,0,0,0,0,0,0,0,0,0,-1,1084,1051,0,0
-133,-27,0,0,0,0,0,0,0,0,0,-1,1091,1051,0,0
-126,-27,0,0,0,0,0,0,0,0,0,-1,1098,1051,0,0
-119,-27,0,0,0,0,0,0,0,0,0,-1,1105,1051,0,0
-112,-27,0,0,0,0,0,0,0,0,0,-1,1112,1051,0,0
-105,-27,0,0,0,0,0,0,0,0,0,-1,1119,1051,0,0
-98,-27,0,0,0,0,0,0,0,0,0,-1,1126,1051,0,0
-91,-27,0,0,0,0,0,0,0,0,0,-1,1133,1051,0,0
-84,-27,0,0,0,0,0,0,0,0,0,-1,1140,1051,0,0
-77,-27,0,0,0,0,0,0,0,0,0,-1,1147,1051,0,0
-70,-27,0,0,0,0,0,0,0,0,0,-1,1154,1051,0,0
-63,-27,0,0,0,0,0,0,0,0,0,-1,1161,1051,0,0
-56,-27,0,0,0,0,0,0,0,0,0,-1,1168,1051,0,0
-49,-27,0,0,0,0,0,0,0,0,0,-1,1175,1051,0,0
-42,-27,0,0,0,0,0,0,0,0,0,-1,1182,1051,0,0
-35,-27,0,0,0,0,0,0,0,0,0,-1,1189,1051,0,0
-28,-27,0,0,0,0,0,0,0,0,0,-1,1196,1051,0,0
-21,-27,0,0,0,0,0,0,0,0,0,-1,1203,1051,0,0
-14,-27,0,0,0,0,0,0,0,0,0,-1,1210,1051,0,0
-7,-27,0,0,0,0,0,0,0,0,0,-1,1217,1051,0,0
0,-27,0,0,0,0,0,0,0,0,0,-1,1224,1051,0,0
7,-27,0,0,0,0,0,0,0,0,0,-1,1231,1051,0,0
14,-27,0,0,0,0,0,0,0,0,0,-1,1238,1051,0,0
21,-27,0,0,0,0,0,0,0,0,0,-1,1245,1051,0,0
28,-27,0,0,0,0,0,0,0,0,0,-1,1252,1051,0,0
35,-27,0,0,0,0,0,0,0,0,0,-1,1259,1051,0,0
42,-27,0,0,0,0,0,0,0,0,0,-1,1266,1051,0,0
49,-27,0,0,0,0,0,0,0,0,0,-1,1273,1051,0,0
56,-27,0,0,0,0,0,0,0,0,0,-1,1280,1051,0,0
63,-27,0,0,0,0,0,0,0,0,0,-1,1287,1051,0,0
70,-27,0,0,0,0,0,0,0,0,0,-1,1294,1051,0,0
77,-27,0,0,0,0,0,0,0,0,0,-1,1301,1051,0,0
84,-27,0,0,0,0,0,0,0,0,0,-1,1308,1051,0,0
91,-27,0,0,0,0,0,0,0,0,0,-1,1315,1051,0,0
98,-27,0,0,0,0,0,0,0,0,0,-1,1322,1051,0,0
105,-27,0,0,0,0,0,0,0,0,0,-1,1329,1051,0,0
112,-27,0,0,0,0,0,0,0,0,0,-1,1336,1051,0,0
119,-27,0,0,0,0,0,0,0,0,0,-1,1343,1051,0,0
126,-27,0,0,0,0,0,0,0,0,0,-1,1350,1051,0,0
133,-27,0,0,0,0,0,0,0,0,0,-1,1357,1051,0,0
140,-27,0,0,0,0,0,0,0,0,0,-1,1364,1051,0,0
147,-27,0,0,0,0,0,0,0,0,0,-1,1371,1051,0,0
154,-27,0,0,0,0,0,0,0,0,0,-1,1378,1051,0,0
161,-27,0,0,0,0,0,0,0,0,0,-1,1385,1051,0,0
168,-27,0,0,0,0,0,0,0,0,0,-1,1392,1051,0,0
175,-27,0,0,0,0,0,0,0,0,0,-1,1399,1051,0,0
182,-27,0,0,0,0,0,0,0,0,0,-1,1406,1051,0,0
189,-27,0,0,0,0,0,0,0,0,0,-1,1413,1051,0,0
196,-27,0,0,0,0,0,0,0,0,0,-1,1420,1051,0,0
203,-27,0,0,0,0,0,0,0,0,0,-1,1427,1051,0,0
210,-27,0,0,0,0,0,0,0,0,0,-1,1434,1051,0,0
217,-27,0,0,0,0,0,0,0,0,0,-1,1441,1051,0,0
224,-27,0,0,0,0,0,0,0,0,0,-1,1448,1051,0,0
231,-27,0,0,0,0,0,0,0,0,0,-1,1455,1051,0,0
238,-27,0,0,0,0,0,0,0,0,0,-1,1462,1051,0,0
245,-27,0,0,0,0,0,0,0,0,0,-1,1469,1051,0,0
252,-27,0,0,0,0,0,0,0,0,0,-1,1476,1051,0,0
259,-27,0,0,0,0,0,0,0,0,0,-1,1483,1051,0,0
266,-27,0,0,0,0,0,0,0,0,0,-1,1490,1051,0,0
273,-27,0,0,0,0,0,0,0,0,0,-1,1497,1051,0,0
280,-27,0,0,0,0,0,0,0,0,0,-1,1504,1051,0,0
287,-27,0,0,0,0,0,0,0,0,0,-1,1511,1051,0,0
294,-27,0,0,0,0,0,0,0,0,0,-1,1518,1051,0,0
301,-27,0,0,0,0,0,0,0,0,0,-1,1525,1051,0,0
308,-27,0,0,0,0,0,0,0,0,0,-1,1532,1051,0,0
315,-27,0,0,0,0,0,0,0,0,0,-1,1539,1051,0,0
322,-27,0,0,0,0,0,0,0,0,0,-1,1546,1051,0,0
329,-27,0,0,0,0,0,0,0,0,0,-1,1553,1051,0,0
336,-27,0,0,0,0,0,0,0,0,0,-1,1560,1051,0,0
343,-27,0,0,0,0,0,0,0,0,0,-1,1567,1051,0,0
350,-27,0,0,0,0,0,0,0,0,0,-1,1574,1051,0,0
357,-27,0,0,0,0,0,0,0,0,0,-1,1581,1051,0,0
364,-27,0,0,0,0,0,0,0,0,0,-1,1588,1051,0,0
371,-27,0,0,0,0,0,0,0,0,0,-1,1595,1051,0,0
378,-27,0,0,0,0,0,0,0,0,0,-1,1602,1051,0,0
385,-27,0,0,0,0,0,0,0,0,0,-1,1609,1051,0,0
392,-27,0,0,0,0,0,0,0,0,0,-1,1616,1051,0,0
399,-27,0,0,0,0,0,0,0,0,0,-1,1623,1051,0,0
406,-27,0,0,0,0,0,0,0,0,0,-1,1630,1051,0,0
413,-27,0,0,0,0,0,0,0,0,0,-1,1637,1051,0,0
420,-27,0,0,0,0,0,0,0,0,0,-1,1644,1051,0,0
427,-27,0,0,0,0,0,0,0,0,0,-1,1651,1051,0,0
434,-27,0,0,0,0,0,0,0,0,0,-1,1658,1051,0,0
441,-27,0,0,0,0,0,0,0,0,0,-1,1665,1051,0,0
448,-27,0,0,0,0,0,0,0,0,0,-1,1672,1051,0,0
455,-27,0,0,0,0,0,0,0,0,0,-1,1679,1051,0,0
462,-27,0,0,0,0,0,0,0,0,0,-1,1686,1051,0,0
469,-27,0,0,0,0,0,0,0,0,0,-1,1693,1051,0,0
476,-27,0,0,0,0,0,0,0,0,0,-1,1700,1051,0,0
483,-27,0,0,0,0,0,0,0,0,0,-1,1707,1051,0,0
490,-27,0,0,0,0,0,0,0,0,0,-1,1714,1051,0,0
497,-27,0,0,0,0,0,0,0,0,0,-1,1721,1051,0,0
504,-27,0,0,0,0,0,0,0,0,0,-1,1728,1051,0,0
511,-27,0,0,0,0,0,0,0,0,0,-1,1735,1051,0,0
518,-27,0,0,0,0,0,0,0,0,0,-1,1742,1051,0,0
525,-27,0,0,0,0,0,0,0,0,0,-1,1749,1051,0,0
532,-27,0,0,0,0,0,0,0,0,0,-1,1756,1051,0,0
539,-27,0,0,0,0,0,0,0,0,0,-1,1763,1051,0,0
546,-27,0,0,0,0,0,0,0,0,0,-1,1770,1051,0,0
553,-27,0,0,0,0,0,0,0,0,0,-1,1777,1051,0,0
560,-27,0,0,0,0,0,0,0,0,0,-1,1784,1051,0,0
567,-27,0,0,0,0,0,0,0,0,0,-1,1791,1051,0,0
574,-27,0,0,0,0,0,0,0,0,0,-1,1798,1051,0,0
581,-27,0,0,0,0,0,0,0,0,0,-1,1805,1051,0,0
588,-27,0,0,0,0,0,0,0,0,0,-1,1812,1051,0,0
595,-27,0,0,0,0,0,0,0,0,0,-1,1819,1051,0,0
602,-27,0,0,0,0,0,0,0,0,0,-1,1826,1051,0,0
609,-27,0,0,0,0,0,0,0,0,0,-1,1833,1051,0,0
616,-27,0,0,0,0,0,0,0,0,0,-1,1840,1051,0,0
623,-27,0,0,0,0,0,0,0,0,0,-1,1847,1051,0,0
630,-27,0,0,0,0,0,0,0,0,0,-1,1854,1051,0,0
637,-27,0,0,0,0,0,0,0,0,0,-1,1861,1051,0,0
644,-27,0,0,0,0,0,0,0,0,0,-1,1868,1051,0,0
651,-27,21.2959,3.17749,-0.000484095,6.61564e-05,0.000387929,0.000266618,-0.000684557,1.09384,0.000566556,0.0406821,1875,1051,21.2959,-3.17755
658,-27,21.3112,3.02747,-0.00134598,-0.000203168,0.000312305,-0.00012339,-0.00142575,1.3207,0.000912159,0.0387369,1882,1051,21.3111,-3.0275
665,-27,21.1615,2.99951,-0.00154758,-0.000339414,8.10231e-05,-0.000334004,-0.00155299,1.50413,0.0009439,0.0370171,1889,1051,21.1616,-2.99948
672,-27,21.1208,3.01318,-0.00141726,-0.00031041,0.000689206,2.00666e-05,-0.00174774,1.12368,0.00117191,0.0294479,1896,1051,21.1208,-3.01318
679,-27,21.1249,2.92102,-0.00145479,-0.000198761,0.00210851,0.00137327,-0.00302682,0.930139,0.0025995,0.0289094,1903,1051,21.1249,-2.92099
686,-27,21.1714,2.97937,-0.00154913,-0.000109309,0.00361968,0.00286136,-0.00451979,0.883561,0.00429721,0.0418847,1910,1051,21.1714,-2.97934
693,-27,21.2441,2.79272,-0.00164047,-3.62441e-05,0.00501897,0.0042443,-0.00592102,0.864636,0.0058955,0.046069,1917,1051,21.2442,-2.79268
700,-27,21.1289,2.93579,-0.00176367,5.48678e-05,0.00617241,0.00538463,-0.00709343,0.858528,0.00722669,0.039858,1924,1051,21.1288,-2.93575
707,-27,21.1943,2.89819,-0.00197775,5.94701e-05,0.00693323,0.00604851,-0.00796679,0.858335,0.00811697,0.0236714,1931,1051,21.1944,-2.89818
714,-27,21.1908,2.95593,-0.00211557,0.000132342,0.00743057,0.00652347,-0.00850671,0.86046,0.00870282,0.01938,1938,1051,21.1908,-2.95592
721,-27,21.2327,3.17993,-0.00214858,0.000277979,0.00758657,0.00674768,-0.00861827,0.864689,0.00889342,0.0231687,1945,1051,21.2327,-3.1799
728,-27,20.7764,4.18689,0,0,0,0,0,0,0,-1,1952,1051,20.7763,-4.18691
735,-27,20.8003,4.22974,-0.00218073,0.000834196,0.00698127,0.0064689,-0.00781543,0.891731,0.00825927,0.0174308,1959,1051,20.8003,-4.2297
742,-27,20.799,4.245,-0.00205435,0.00138253,0.00609727,0.00599889,-0.00667071,0.922754,0.00731822,0.0171562,1966,1051,20.7989,-4.24501
749,-27,20.8099,4.22766,-0.000979708,0.00148783,0.00547268,0.00586409,-0.00535597,0.896265,0.00648012,0.0114206,1973,1051,20.8099,-4.2277
756,-27,20.811,4.22156,0.00170988,0.00202703,0.00540676,0.00727754,-0.00354063,0.800058,0.00636887,0.0107181,1980,1051,20.811,-4.22153
763,-27,20.803,4.20349,0.00576626,0.0024324,0.00537705,0.00972883,-0.00153018,0.635092,0.00705151,0.0126702,1987,1051,20.803,-4.20347
770,-27,20.7915,4.20032,0.0105936,0.00294881,0.00544247,0.0134219,0.000120566,0.479254,0.00890801,0.0149324,1994,1051,20.7915,-4.20037
777,-27,20.7661,4.20728,0.0175282,0.00350473,0.00636565,0.0199868,0.0010462,0.368569,0.0129898,0.0158413,2001,1051,20.7661,-4.20725
784,-27,20.7489,4.25256,0.0268548,0.0038625,0.00885463,0.0298695,0.000847757,0.328161,0.0196365,0.0236212,2008,1051,20.7489,-4.25257
791,-27,20.9067,4.57239,0.0389013,0.00398698,0.0123249,0.0428136,7.46399e-05,0.307373,0.0285176,0.0408164,2015,1051,20.9067,-4.57233
798,-27,21.3376,4.74646,0.0548288,0.00368496,0.0168107,0.0598595,-0.00134577,0.290776,0.0403624,0.0436836,2022,1051,21.3376,-4.74642
805,-27,22.0457,4.77014,0.0755385,0.00282155,0.0224426,0.0819071,-0.00354709,0.276506,0.0558247,0.0428985,2029,1051,22.0457,-4.77008
812,-27,22.4651,4.729,0.102007,0.00117045,0.0293882,0.109947,-0.00676934,0.26387,0.0756556,0.0428487,2036,1051,22.465,-4.72896
-700,-34,-13.4254,5.15039,0,0,0,0,0,0,0,-1,524,1058,-13.4254,-5.15036
-693,-34,-12.557,3.58875,0,0,0,0,0,0,0,-1,531,1058,-12.557,-3.58878
-686,-34,-13.2809,3.19751,-0.00306869,-0.0123796,-0.0175436,0.0104266,-0.0258749,-0.655705,0.021582,0.0488411,538,1058,-13.2809,-3.19751
-679,-34,-13.5157,2.57092,-0.00191037,-0.00792546,-0.0154828,0.0108543,-0.0206901,-0.689467,0.0185049,0.0443936,545,1058,-13.5157,-2.57091
-672,-34,-13.6363,1.95007,-0.0014936,-0.0044261,-0.0128514,0.00997491,-0.0158946,-0.728597,0.0150656,0.0428331,552,1058,-13.6363,-1.95007
-665,-34,-13.6826,1.60193,-0.00139147,-0.00180976,-0.0100988,0.00850036,-0.0117016,-0.775045,0.0117123,0.0447874,559,1058,-13.6826,-1.6019
-658,-34,-13.5247,1.63269,-0.00141452,5.88211e-07,-0.00753959,0.00686576,-0.00827968,-0.832184,0.00875692,0.043883,566,1058,-13.5247,-1.63271
-651,-34,-13.56,1.71472,-0.00143683,0.00108943,-0.00537406,0.00534681,-0.00569421,-0.900824,0.00637559,0.0283964,573,1058,-13.56,-1.71468
-644,-34,-13.5985,1.68152,-0.00137572,0.00166923,-0.00402938,0.00445417,-0.00416066,-0.966029,0.00497473,0.0119932,580,1058,-13.5985,-1.68158
-637,-34,-13.6052,1.71423,-0.00106182,0.0017698,-0.0040769,0.00466973,-0.00396175,-0.952521,0.00498898,0.013272,587,1058,-13.6052,-1.71423
-630,-34,-13.62,1.78894,-0.00133712,0.00115897,-0.00348886,0.00361629,-0.00379445,-0.957167,0.004279,0.0163908,594,1058,-13.62,-1.78896
-623,-34,-13.5861,1.82837,-0.00170632,0.00108371,-0.00410704,0.00402619,-0.0046488,-0.949117,0.0050128,0.0133903,601,1058,-13.5861,-1.82832
-616,-34,-13.5402,1.8905,-0.00173226,0.000543928,-0.00442933,0.00397904,-0.00516737,-0.911151,0.00529552,0.0184374,608,1058,-13.5402,-1.89053
-609,-34,-13.5715,1.91882,-0.0013121,-0.00045852,-0.00530599,0.00443782,-0.00620843,-0.825529,0.00617489,0.017776,615,1058,-13.5715,-1.91888
-602,-34,-13.6015,1.93408,-0.000943725,-0.00117987,-0.00639435,0.00533364,-0.00745724,-0.776167,0.00741867,0.0143315,622,1058,-13.6015,-1.93404
-595,-34,-13.6169,1.97754,-0.000962244,-0.00155543,-0.00719713,0.0059444,-0.00846207,-0.764805,0.00835981,0.0127557,629,1058,-13.6169,-1.97756
-588,-34,-13.6551,1.55176,-0.00105266,-0.00174475,-0.0074079,0.00601728,-0.00881469,-0.762059,0.00861386,0.0231619,636,1058,-13.6551,-1.5518
-581,-34,-13.6162,1.11072,-0.00105612,-0.00176686,-0.00716983,0.00576714,-0.00859012,-0.760636,0.00834241,0.0253434,643,1058,-13.6162,-1.11075
-574,-34,-13.5923,0.99585,-0.00107804,-0.00163613,-0.00659937,0.00524818,-0.00796236,-0.764269,0.00768058,0.036266,650,1058,-13.5923,-0.995831
-567,-34,-13.6104,0.897095,-0.00113065,-0.0013173,-0.00552769,0.0043045,-0.00675246,-0.776957,0.00643568,0.0415691,657,1058,-13.6103,-0.897139
-560,-34,-13.5399,1.00696,-0.00119282,-0.000828082,-0.00396968,0.00296342,-0.00498432,-0.808352,0.00463781,0.0413093,664,1058,-13.5399,-1.00701
-553,-34,-13.516,1.24219,-0.00132326,-0.00019637,-0.00199149,0.00130985,-0.00282948,-0.923258,0.00244294,0.045071,671,1058,-13.516,-1.24224
-546,-34,-13.4583,0.945923,-0.00161258,0.000530713,0.000325848,0.000579158,-0.00166103,1.42321,0.00134271,0.0476319,678,1058,-13.4583,-0.945913
-539,-34,-13.5279,0.894287,-0.00216217,0.0012221,0.00235301,0.00242824,-0.0033683,1.09713,0.00336127,0.0430902,685,1058,-13.5279,-0.894246
-532,-34,-13.5934,0.986694,-0.00339124,0.0017189,0.00260118,0.00280999,-0.00448234,1.17363,0.00424697,0.0402996,692,1058,-13.5934,-0.986708
-525,-34,0,0,0,0,0,0,0,0,0,-1,699,1058,0,0
-518,-34,0,0,0,0,0,0,0,0,0,-1,706,1058,0,0
-511,-34,0,0,0,0,0,0,0,0,0,-1,713,1058,0,0
-504,-34,0,0,0,0,0,0,0,0,0,-1,720,1058,0,0
-497,-34,0,0,0,0,0,0,0,0,0,-1,727,1058,0,0
-490,-34,0,0,0,0,0,0,0,0,0,-1,734,1058,0,0
-483,-34,0,0,0,0,0,0,0,0,0,-1,741,1058,0,0
-476,-34,0,0,0,0,0,0,0,0,0,-1,748,1058,0,0
-469,-34,0,0,0,0,0,0,0,0,0,-1,755,1058,0,0
-462,-34,0,0,0,0,0,0,0,0,0,-1,762,1058,0,0
-455,-34,0,0,0,0,0,0,0,0,0,-1,769,1058,0,0
-448,-34,0,0,0,0,0,0,0,0,0,-1,776,1058,0,0
-441,-34,0,0,0,0,0,0,0,0,0,-1,783,1058,0,0
-434,-34,0,0,0,0,0,0,0,0,0,-1,790,1058,0,0
-427,-34,0,0,0,0,0,0,0,0,0,-1,797,1058,0,0
-420,-34,0,0,0,0,0,0,0,0,0,-1,804,1058,0,0
-413,-34,0,0,0,0,0,0,0,0,0,-1,811,1058,0,0
-406,-34,0,0,0,0,0,0,0,0,0,-1,818,1058,0,0
-399,-34,0,0,0,0,0,0,0,0,0,-1,825,1058,0,0
-392,-34,0,0,0,0,0,0,0,0,0,-1,832,1058,0,0
-385,-34,0,0,0,0,0,0,0,0,0,-1,839,1058,0,0
-378,-34,0,0,0,0,0,0,0,0,0,-1,846,1058,0,0
-371,-34,0,0,0,0,0,0,0,0,0,-1,853,1058,0,0
-364,-34,0,0,0,0,0,0,0,0,0,-1,860,1058,0,0
-357,-34,0,0,0,0,0,0,0,0,0,-1,867,1058,0,0
-350,-34,0,0,0,0,0,0,0,0,0,-1,874,1058,0,0
-343,-34,0,0,0,0,0,0,0,0,0,-1,881,1058,0,0
-336,-34,0,0,0,0,0,0,0,0,0,-1,888,1058,0,0
-329,-34,0,0,0,0,0,0,0,0,0,-1,895,1058,0,0
-322,-34,0,0,0,0,0,0,0,0,0,-1,902,1058,0,0
-315,-34,0,0,0,0,0,0,0,0,0,-1,909,1058,0,0
-308,-34,0,0,0,0,0,0,0,0,0,-1,916,1058,0,0
-301,-34,0,0,0,0,0,0,0,0,0,-1,923,1058,0,0
-294,-34,0,0,0,0,0,0,0,0,0,-1,930,1058,0,0
-287,-34,0,0,0,0,0,0,0,0,0,-1,937,1058,0,0
-280,-34,0,0,0,0,0,0,0,0,0,-1,944,1058,0,0
-273,-34,0,0,0,0,0,0,0,0,0,-1,951,1058,0,0
-266,-34,0,0,0,0,0,0,0,0,0,-1,958,1058,0,0
-259,-34,0,0,0,0,0,0,0,0,0,-1,965,1058,0,0
-252,-34,0,0,0,0,0,0,0,0,0,-1,972,1058,0,0
-245,-34,0,0,0,0,0,0,0,0,0,-1,979,1058,0,0
-238,-34,0,0,0,0,0,0,0,0,0,-1,986,1058,0,0
-231,-34,0,0,0,0,0,0,0,0,0,-1,993,1058,0,0
-224,-34,0,0,0,0,0,0,0,0,0,-1,1000,1058,0,0
-217,-34,0,0,0,0,0,0,0,0,0,-1,1007,1058,0,0
-210,-34,0,0,0,0,0,0,0,0,0,-1,1014,1058,0,0
-203,-34,0,0,0,0,0,0,0,0,0,-1,1021,1058,0,0
-196,-34,0,0,0,0,0,0,0,0,0,-1,1028,1058,0,0
-189,-34,0,0,0,0,0,0,0,0,0,-1,1035,1058,0,0
-182,-34,0,0,0,0,0,0,0,0,0,-1,1042,1058,0,0
-175,-34,0,0,0,0,0,0,0,0,0,-1,1049,1058,0,0
-168,-34,0,0,0,0,0,0,0,0,0,-1,1056,1058,0,0
-161,-34,0,0,0,0,0,0,0,0,0,-1,1063,1058,0,0
-154,-34,0,0,0,0,0,0,0,0,0,-1,1070,1058,0,0
-147,-34,0,0,0,0,0,0,0,0,0,-1,1077,1058,0,0
-140,-34,0,0,0,0,0,0,0,0,0,-1,1084,1058,0,0
-133,-34,0,0,0,0,0,0,0,0,0,-1,1091,1058,0,0
-126,-34,0,0,0,0,0,0,0,0,0,-1,1098,1058,0,0
-119,-34,0,0,0,0,0,0,0,0,0,-1,1105,1058,0,0
-112,-34,0,0,0,0,0,0,0,0,0,-1,1112,1058,0,0
-105,-34,0,0,0,0,0,0,0,0,0,-1,1119,1058,0,0
-98,-34,0,0,0,0,0,0,0,0,0,-1,1126,1058,0,0
-91,-34,0,0,0,0,0,0,0,0,0,-1,1133,1058,0,0
-84,-34,0,0,0,0,0,0,0,0,0,-1,1140,1058,0,0
-77,-34,0,0,0,0,0,0,0,0,0,-1,1147,1058,0,0
-70,-34,0,0,0,0,0,0,0,0,0,-1,1154,1058,0,0
-63,-34,0,0,0,0,0,0,0,0,0,-1,1161,1058,0,0
-56,-34,0,0,0,0,0,0,0,0,0,-1,1168,1058,0,0
-49,-34,0,0,0,0,0,0,0,0,0,-1,1175,1058,0,0
-42,-34,0,0,0,0,0,0,0,0,0,-1,1182,1058,0,0
-35,-34,0,0,0,0,0,0,0,0,0,-1,1189,1058,0,0
-28,-34,0,0,0,0,0,0,0,0,0,-1,1196,1058,0,0
-21,-34,0,0,0,0,0,0,0,0,0,-1,1203,1058,0,0
-14,-34,0,0,0,0,0,0,0,0,0,-1,1210,1058,0,0
-7,-34,0,0,0,0,0,0,0,0,0,-1,1217,1058,0,0
0,-34,0,0,0,0,0,0,0,0,0,-1,1224,1058,0,0
7,-34,0,0,0,0,0,0,0,0,0,-1,1231,1058,0,0
14,-34,0,0,0,0,0,0,0,0,0,-1,1238,1058,0,0
21,-34,0,0,0,0,0,0,0,0,0,-1,1245,1058,0,0
28,-34,0,0,0,0,0,0,0,0,0,-1,1252,1058,0,0
35,-34,0,0,0,0,0,0,0,0,0,-1,1259,1058,0,0
42,-34,0,0,0,0,0,0,0,0,0,-1,1266,1058,0,0
49,-34,0,0,0,0,0,0,0,0,0,-1,1273,1058,0,0
56,-34,0,0,0,0,0,0,0,0,0,-1,1280,1058,0,0
63,-34,0,0,0,0,0,0,0,0,0,-1,1287,1058,0,0
70,-34,0,0,0,0,0,0,0,0,0,-1,1294,1058,0,0
77,-34,0,0,0,0,0,0,0,0,0,-1,1301,1058,0,0
84,-34,0,0,0,0,0,0,0,0,0,-1,1308,1058,0,0
91,-34,0,0,0,0,0,0,0,0,0,-1,1315,1058,0,0
98,-34,0,0,0,0,0,0,0,0,0,-1,1322,1058,0,0
105,-34,0,0,0,0,0,0,0,0,0,-1,1329,1058,0,0
112,-34,0,0,0,0,0,0,0,0,0,-1,1336,1058,0,0
119,-34,0,0,0,0,0,0,0,0,0,-1,1343,1058,0,0
126,-34,0,0,0,0,0,0,0,0,0,-1,1350,1058,0,0
133,-34,0,0,0,0,0,0,0,0,0,-1,1357,1058,0,0
140,-34,0,0,0,0,0,0,0,0,0,-1,1364,1058,0,0
147,-34,0,0,0,0,0,0,0,0,0,-1,1371,1058,0,0
154,-34,0,0,0,0,0,0,0,0,0,-1,1378,1058,0,0
161,-34,0,0,0,0,0,0,0,0,0,-1,1385,1058,0,0
168,-34,0,0,0,0,0,0,0,0,0,-1,1392,1058,0,0
175,-34,0,0,0,0,0,0,0,0,0,-1,1399,1058,0,0
182,-34,0,0,0,0,0,0,0,0,0,-1,1406,1058,0,0
189,-34,0,0,0,0,0,0,0,0,0,-1,1413,1058,0,0
196,-34,0,0,0,0,0,0,0,0,0,-1,1420,1058,0,0
203,-34,0,0,0,0,0,0,0,0,0,-1,1427,1058,0,0
210,-34,0,0,0,0,0,0,0,0,0,-1,1434,1058,0,0
217,-34,0,0,0,0,0,0,0,0,0,-1,1441,1058,0,0
224,-34,0,0,0,0,0,0,0,0,0,-1,1448,1058,0,0
231,-34,0,0,0,0,0,0,0,0,0,-1,1455,1058,0,0
238,-34,0,0,0,0,0,0,0,0,0,-1,1462,1058,0,0
245,-34,0,0,0,0,0,0,0,0,0,-1,1469,1058,0,0
252,-34,0,0,0,0,0,0,0,0,0,-1,1476,1058,0,0
259,-34,0,0,0,0,0,0,0,0,0,-1,1483,1058,0,0
266,-34,0,0,0,0,0,0,0,0,0,-1,1490,1058,0,0
273,-34,0,0,0,0,0,0,0,0,0,-1,1497,1058,0,0
280,-34,0,0,0,0,0,0,0,0,0,-1,1504,1058,0,0
287,-34,0,0,0,0,0,0,0,0,0,-1,1511,1058,0,0
294,-34,0,0,0,0,0,0,0,0,0,-1,1518,1058,0,0
301,-34,0,0,0,0,0,0,0,0,0,-1,1525,1058,0,0
308,-34,0,0,0,0,0,0,0,0,0,-1,1532,1058,0,0
315,-34,0,0,0,0,0,0,0,0,0,-1,1539,1058,0,0
322,-34,0,0,0,0,0,0,0,0,0,-1,1546,1058,0,0
329,-34,0,0,0,0,0,0,0,0,0,-1,1553,1058,0,0
336,-34,0,0,0,0,0,0,0,0,0,-1,1560,1058,0,0
343,-34,0,0,0,0,0,0,0,0,0,-1,1567,1058,0,0
350,-34,0,0,0,0,0,0,0,0,0,-1,1574,1058,0,0
357,-34,0,0,0,0,0,0,0,0,0,-1,1581,1058,0,0
364,-34,0,0,0,0,0,0,0,0,0,-1,1588,1058,0,0
371,-34,0,0,0,0,0,0,0,0,0,-1,1595,1058,0,0
378,-34,0,0,0,0,0,0,0,0,0,-1,1602,1058,0,0
385,-34,0,0,0,0,0,0,0,0,0,-1,1609,1058,0,0
392,-34,0,0,0,0,0,0,0,0,0,-1,1616,1058,0,0
399,-34,0,0,0,0,0,0,0,0,0,-1,1623,1058,0,0
406,-34,0,0,0,0,0,0,0,0,0,-1,1630,1058,0,0
413,-34,0,0,0,0,0,0,0,0,0,-1,1637,1058,0,0
420,-34,0,0,0,0,0,0,0,0,0,-1,1644,1058,0,0
427,-34,0,0,0,0,0,0,0,0,0,-1,1651,1058,0,0
434,-34,0,0,0,0,0,0,0,0,0,-1,1658,1058,0,0
441,-34,0,0,0,0,0,0,0,0,0,-1,1665,1058,0,0
448,-34,0,0,0,0,0,0,0,0,0,-1,1672,1058,0,0
455,-34,0,0,0,0,0,0,0,0,0,-1,1679,1058,0,0
462,-34,0,0,0,0,0,0,0,0,0,-1,1686,1058,0,0
469,-34,0,0,0,0,0,0,0,0,0,-1,1693,1058,0,0
476,-34,0,0,0,0,0,0,0,0,0,-1,1700,1058,0,0
483,-34,0,0,0,0,0,0,0,0,0,-1,1707,1058,0,0
490,-34,0,0,0,0,0,0,0,0,0,-1,1714,1058,0,0
497,-34,0,0,0,0,0,0,0,0,0,-1,1721,1058,0,0
504,-34,0,0,0,0,0,0,0,0,0,-1,1728,1058,0,0
511,-34,0,0,0,0,0,0,0,0,0,-1,1735,1058,0,0
518,-34,0,0,0,0,0,0,0,0,0,-1,1742,1058,0,0
525,-34,0,0,0,0,0,0,0,0,0,-1,1749,1058,0,0
532,-34,0,0,0,0,0,0,0,0,0,-1,1756,1058,0,0
539,-34,0,0,0,0,0,0,0,0,0,-1,1763,1058,0,0
546,-34,0,0,0,0,0,0,0,0,0,-1,1770,1058,0,0
553,-34,0,0,0,0,0,0,0,0,0,-1,1777,1058,0,0
560,-34,0,0,0,0,0,0,0,0,0,-1,1784,1058,0,0
567,-34,0,0,0,0,0,0,0,0,0,-1,1791,1058,0,0
574,-34,0,0,0,0,0,0,0,0,0,-1,1798,1058,0,0
581,-34,0,0,0,0,0,0,0,0,0,-1,1805,1058,0,0
588,-34,0,0,0,0,0,0,0,0,0,-1,1812,1058,0,0
595,-34,0,0,0,0,0,0,0,0,0,-1,1819,1058,0,0
602,-34,0,0,0,0,0,0,0,0,0,-1,1826,1058,0,0
609,-34,0,0,0,0,0,0,0,0,0,-1,1833,1058,0,0
616,-34,0,0,0,0,0,0,0,0,0,-1,1840,1058,0,0
623,-34,0,0,0,0,0,0,0,0,0,-1,1847,1058,0,0
630,-34,0,0,0,0,0,0,0,0,0,-1,1854,1058,0,0
637,-34,0,0,0,0,0,0,0,0,0,-1,1861,1058,0,0
644,-34,0,0,0,0,0,0,0,0,0,-1,1868,1058,0,0
651,-34,21.2762,3.19531,-0.00111109,7.08638e-05,0.00148003,0.00107354,-0.00211376,0.97535,0.00187257,0.0382995,1875,1058,21.2763,-3.19528
658,-34,21.3135,3.19055,-0.00169019,-0.000168765,0.000998592,0.000325859,-0.00218481,1.1109,0.00157643,0.0404522,1882,1058,21.3135,-3.19053
665,-34,21.2113,3.1344,-0.00167502,-0.000277344,0.000468231,-0.000134983,-0.00181738,1.27564,0.00116919,0.0388992,1889,1058,21.2113,-3.13439
672,-34,21.0803,3.03174,-0.00143958,-0.000298186,0.000923342,0.000216592,-0.00195436,1.0622,0.00138078,0.0343503,1896,1058,21.0803,-3.03175
679,-34,20.9935,2.81665,-0.00138082,-0.000289711,0.00228261,0.00151164,-0.00318217,0.902699,0.00276659,0.0355607,1903,1058,20.9935,-2.81668
686,-34,21.0205,2.83337,-0.00140639,-0.000310319,0.0037815,0.00296265,-0.00467936,0.85736,0.00444907,0.0431132,1910,1058,21.0206,-2.83336
693,-34,21.0604,3.04858,-0.00145466,-0.000342297,0.0052021,0.00433327,-0.00613023,0.838654,0.00607072,0.0450734,1917,1058,21.0604,-3.04855
700,-34,21.1696,3.0033,-0.00154166,-0.000341377,0.0063808,0.00546745,-0.00735048,0.832287,0.00742701,0.0393321,1924,1058,21.1696,-3.00328
707,-34,21.1548,2.92627,-0.0017228,-0.000397241,0.00714248,0.00611315,-0.00823319,0.831663,0.00831295,0.0228665,1931,1058,21.1548,-2.92624
714,-34,21.1456,2.97034,-0.00182455,-0.000364761,0.00763995,0.00658008,-0.00876939,0.833022,0.00889202,0.0171008,1938,1058,21.1457,-2.97038
721,-34,21.2198,3.2644,-0.00182943,-0.000227968,0.0077897,0.00680205,-0.00885944,0.836615,0.00906813,0.0289106,1945,1058,21.2199,-3.26439
728,-34,21.0282,3.94873,0,0,0,0,0,0,0,-1,1952,1058,21.0282,-3.94867
735,-34,20.7855,4.27588,-0.00193591,0.000363675,0.00713584,0.00644176,-0.008014,0.865276,0.00836247,0.0141195,1959,1058,20.7855,-4.27584
742,-34,20.7604,4.24609,-0.00187313,0.000953275,0.0061837,0.0058832,-0.00680306,0.897737,0.00733083,0.0146645,1966,1058,20.7604,-4.24604
749,-34,20.7853,4.23682,-0.000898064,0.00117386,0.00549762,0.00573227,-0.00545648,0.878525,0.00646048,0.0122403,1973,1058,20.7853,-4.23683
756,-34,20.8082,4.2384,0.00173095,0.0017784,0.00541992,0.00717465,-0.00366529,0.787587,0.00636683,0.00947613,1980,1058,20.8082,-4.23835
763,-34,20.8013,4.20813,0.00576435,0.00224507,0.00546385,0.00974492,-0.0017355,0.629617,0.00714572,0.0106375,1987,1058,20.8012,-4.2081
770,-34,20.7701,4.18262,0.0105651,0.00284604,0.00559592,0.0135034,-9.22335e-05,0.483505,0.00903318,0.0152365,1994,1058,20.7702,-4.18267
777,-34,20.7449,4.17395,0.01757,0.00344738,0.00673871,0.0202694,0.000747933,0.381013,0.0132707,0.0157646,2001,1058,20.7449,-4.17395
784,-34,20.7765,4.27454,0.0271526,0.00375796,0.00971433,0.0306604,0.000250163,0.346524,0.0203574,0.0318202,2008,1058,20.7764,-4.27453
791,-34,20.9093,4.50623,0.0396299,0.00378849,0.0138154,0.044337,-0.000918595,0.328378,0.0298689,0.0432991,2015,1058,20.9093,-4.50617
798,-34,21.2433,4.67529,0.0563078,0.00332993,0.0192206,0.0625464,-0.00290873,0.313854,0.0427002,0.0450155,2022,1058,21.2433,-4.67527
805,-34,21.8103,5.08447,0.0782051,0.00222673,0.0261351,0.0863269,-0.00589504,0.3013,0.0596135,0.044509,2029,1058,21.8103,-5.08453
812,-34,22.7676,5.59229,0.106428,0.000218191,0.0348068,0.116819,-0.0101721,0.290092,0.0814817,0.0494923,2036,1058,22.7675,-5.5923
-700,-41,-14.0693,5.37219,-0.00178933,-0.0274499,-0.0306147,0.0185749,-0.0478141,-0.586971,0.0395495,0.0438574,524,1065,-14.0693,-5.37214
-693,-41,-14.2743,4.65637,0,0,0,0,0,0,0,-1,531,1065,-14.2743,-4.65641
-686,-41,-14.3519,3.65259,0.00287451,-0.012782,-0.0267874,0.0229541,-0.0328616,-0.643238,0.032394,0.0430803,538,1065,-14.3519,-3.65259
-679,-41,-14.6557,2.85706,0.00279371,-0.00765191,-0.022678,0.0208426,-0.0257008,-0.67222,0.0269206,0.0449896,545,1065,-14.6557,-2.85708
-672,-41,-13.5751,1.72229,0.00211277,-0.00377809,-0.0183349,0.0177373,-0.0194026,-0.705755,0.0214499,0.043993,552,1065,-13.5751,-1.72227
-665,-41,-14.0217,1.08765,0,0,0,0,0,0,0,-1,559,1065,-14.0217,-1.08761
-658,-41,-13.473,1.16699,0.00049946,0.000801329,-0.0105107,0.0111622,-0.00986144,-0.792578,0.0121458,0.0385219,566,1065,-13.4729,-1.16699
-651,-41,-13.4549,1.62268,-0.00011309,0.00179832,-0.00746706,0.00837059,-0.00668536,-0.849047,0.00871069,0.0263466,573,1065,-13.4549,-1.62268
-644,-41,-13.5617,1.65906,-0.000504358,0.00226408,-0.00545464,0.0065074,-0.00474767,-0.90966,0.00652454,0.0122043,580,1065,-13.5617,-1.65912
-637,-41,-13.5496,1.69128,-0.00055783,0.00210024,-0.00494847,0.00589505,-0.00435263,-0.91659,0.0059388,0.0134148,587,1065,-13.5495,-1.69128
-630,-41,-13.5602,1.75806,-0.0012789,0.00152284,-0.0039477,0.00431085,-0.00406691,-0.955896,0.00483759,0.0128593,594,1065,-13.5602,-1.75807
-623,-41,-13.5329,1.82068,-0.00184532,0.0012106,-0.00443198,0.00437062,-0.00500534,-0.951396,0.00541734,0.0119963,601,1065,-13.5329,-1.82072
-616,-41,-13.522,1.88232,-0.00204885,0.00050553,-0.00460186,0.00400414,-0.00554747,-0.92076,0.00553857,0.0146959,608,1065,-13.522,-1.88231
-609,-41,-13.52,1.92004,-0.00177504,-0.000664461,-0.00543479,0.00424334,-0.00668284,-0.836308,0.00636042,0.0184591,615,1065,-13.52,-1.92009
-602,-41,-13.5427,1.96167,-0.00143171,-0.00143421,-0.0065527,0.00511974,-0.00798566,-0.785303,0.00762647,0.0119075,622,1065,-13.5427,-1.96166
-595,-41,-13.5524,1.99976,-0.00147724,-0.00184525,-0.00741471,0.00575575,-0.00907824,-0.772993,0.00863572,0.0147525,629,1065,-13.5524,-1.99977
-588,-41,-13.6234,1.53967,-0.00158755,-0.00205595,-0.0076671,0.00584892,-0.00949243,-0.77013,0.00894021,0.0238592,636,1065,-13.6233,-1.53966
-581,-41,-13.6346,1.05579,-0.00156104,-0.00206348,-0.00745184,0.00564381,-0.00926833,-0.768548,0.00869389,0.034887,643,1065,-13.6346,-1.05573
-574,-41,-13.5922,0.965942,-0.00152465,-0.0019315,-0.00690247,0.00517739,-0.00863355,-0.770667,0.00805654,0.0375468,650,1065,-13.5922,-0.965985
-567,-41,-13.6201,0.975098,-0.00145389,-0.00159894,-0.00583769,0.00431173,-0.00736455,-0.779187,0.00681768,0.0406656,657,1065,-13.6201,-0.975063
-560,-41,-13.6309,1.07581,-0.00132142,-0.00108037,-0.0042723,0.00307311,-0.0054749,-0.7995,0.00499971,0.0414927,664,1065,-13.6309,-1.07583
-553,-41,-13.5768,1.0498,-0.00117885,-0.00039709,-0.00227092,0.00151634,-0.00309228,-0.870625,0.00271215,0.0426689,671,1065,-13.5768,-1.04987
-546,-41,-13.3502,0.640869,0,0,0,0,0,0,0,-1,678,1065,-13.3502,-0.640917
-539,-41,-13.5053,0.744507,-0.00123455,0.00122623,0.00220829,0.00252377,-0.00253208,1.03956,0.002919,0.0415633,685,1065,-13.5053,-0.744462
-532,-41,-13.5125,0.939941,-0.00208426,0.00179329,0.00246217,0.00298838,-0.00327935,1.11891,0.00361998,0.0391637,692,1065,-13.5125,-0.939942
-525,-41,0,0,0,0,0,0,0,0,0,-1,699,1065,0,0
-518,-41,0,0,0,0,0,0,0,0,0,-1,706,1065,0,0
-511,-41,0,0,0,0,0,0,0,0,0,-1,713,1065,0,0
-504,-41,0,0,0,0,0,0,0,0,0,-1,720,1065,0,0
-497,-41,0,0,0,0,0,0,0,0,0,-1,727,1065,0,0
-490,-41,0,0,0,0,0,0,0,0,0,-1,734,1065,0,0
-483,-41,0,0,0,0,0,0,0,0,0,-1,741,1065,0,0
-476,-41,0,0,0,0,0,0,0,0,0,-1,748,1065,0,0
-469,-41,0,0,0,0,0,0,0,0,0,-1,755,1065,0,0
-462,-41,0,0,0,0,0,0,0,0,0,-1,762,1065,0,0
-455,-41,0,0,0,0,0,0,0,0,0,-1,769,1065,0,0
-448,-41,0,0,0,0,0,0,0,0,0,-1,776,1065,0,0
-441,-41,0,0,0,0,0,0,0,0,0,-1,783,1065,0,0
-434,-41,0,0,0,0,0,0,0,0,0,-1,790,1065,0,0
-427,-41,0,0,0,0,0,0,0,0,0,-1,797,1065,0,0
-420,-41,0,0,0,0,0,0,0,0,0,-1,804,1065,0,0
-413,-41,0,0,0,0,0,0,0,0,0,-1,811,1065,0,0
-406,-41,0,0,0,0,0,0,0,0,0,-1,818,1065,0,0
-399,-41,0,0,0,0,0,0,0,0,0,-1,825,1065,0,0
-392,-41,0,0,0,0,0,0,0,0,0,-1,832,1065,0,0
-385,-41,0,0,0,0,0,0,0,0,0,-1,839,1065,0,0
-378,-41,0,0,0,0,0,0,0,0,0,-1,846,1065,0,0
-371,-41,0,0,0,0,0,0,0,0,0,-1,853,1065,0,0
-364,-41,0,0,0,0,0,0,0,0,0,-1,860,1065,0,0
-357,-41,0,0,0,0,0,0,0,0,0,-1,867,1065,0,0
-350,-41,0,0,0,0,0,0,0,0,0,-1,874,1065,0,0
-343,-41,0,0,0,0,0,0,0,0,0,-1,881,1065,0,0
-336,-41,0,0,0,0,0,0,0,0,0,-1,888,1065,0,0
-329,-41,0,0,0,0,0,0,0,0,0,-1,895,1065,0,0
-322,-41,0,0,0,0,0,0,0,0,0,-1,902,1065,0,0
-315,-41,0,0,0,0,0,0,0,0,0,-1,909,1065,0,0
-308,-41,0,0,0,0,0,0,0,0,0,-1,916,1065,0,0
-301,-41,0,0,0,0,0,0,0,0,0,-1,923,1065,0,0
-294,-41,0,0,0,0,0,0,0,0,0,-1,930,1065,0,0
-287,-41,0,0,0,0,0,0,0,0,0,-1,937,1065,0,0
-280,-41,0,0,0,0,0,0,0,0,0,-1,944,1065,0,0
-273,-41,0,0,0,0,0,0,0,0,0,-1,951,1065,0,0
-266,-41,0,0,0,0,0,0,0,0,0,-1,958,1065,0,0
-259,-41,0,0,0,0,0,0,0,0,0,-1,965,1065,0,0
-252,-41,0,0,0,0,0,0,0,0,0,-1,972,1065,0,0
-245,-41,0,0,0,0,0,0,0,0,0,-1,979,1065,0,0
-238,-41,0,0,0,0,0,0,0,0,0,-1,986,1065,0,0
-231,-41,0,0,0,0,0,0,0,0,0,-1,993,1065,0,0
-224,-41,0,0,0,0,0,0,0,0,0,-1,1000,1065,0,0
-217,-41,0,0,0,0,0,0,0,0,0,-1,1007,1065,0,0
-210,-41,0,0,0,0,0,0,0,0,0,-1,1014,1065,0,0
-203,-41,0,0,0,0,0,0,0,0,0,-1,1021,1065,0,0
-196,-41,0,0,0,0,0,0,0,0,0,-1,1028,1065,0,0
-189,-41,0,0,0,0,0,0,0,0,0,-1,1035,1065,0,0
-182,-41,0,0,0,0,0,0,0,0,0,-1,1042,1065,0,0
-175,-41,0,0,0,0,0,0,0,0,0,-1,1049,1065,0,0
-168,-41,0,0,0,0,0,0,0,0,0,-1,1056,1065,0,0
-161,-41,0,0,0,0,0,0,0,0,0,-1,1063,1065,0,0
-154,-41,0,0,0,0,0,0,0,0,0,-1,1070,1065,0,0
-147,-41,0,0,0,0,0,0,0,0,0,-1,1077,1065,0,0
-140,-41,0,0,0,0,0,0,0,0,0,-1,1084,1065,0,0
-133,-41,0,0,0,0,0,0,0,0,0,-1,1091,1065,0,0
-126,-41,0,0,0,0,0,0,0,0,0,-1,1098,1065,0,0
-119,-41,0,0,0,0,0,0,0,0,0,-1,1105,1065,0,0
-112,-41,0,0,0,0,0,0,0,0,0,-1,1112,1065,0,0
-105,-41,0,0,0,0,0,0,0,0,0,-1,1119,1065,0,0
-98,-41,0,0,0,0,0,0,0,0,0,-1,1126,1065,0,0
-91,-41,0,0,0,0,0,0,0,0,0,-1,1133,1065,0,0
-84,-41,0,0,0,0,0,0,0,0,0,-1,1140,1065,0,0
-77,-41,0,0,0,0,0,0,0,0,0,-1,1147,1065,0,0
-70,-41,0,0,0,0,0,0,0,0,0,-1,1154,1065,0,0
-63,-41,0,0,0,0,0,0,0,0,0,-1,1161,1065,0,0
-56,-41,0,0,0,0,0,0,0,0,0,-1,1168,1065,0,0
-49,-41,0,0,0,0,0,0,0,0,0,-1,1175,1065,0,0
-42,-41,0,0,0,0,0,0,0,0,0,-1,1182,1065,0,0
-35,-41,0,0,0,0,0,0,0,0,0,-1,1189,1065,0,0
-28,-41,0,0,0,0,0,0,0,0,0,-1,1196,1065,0,0
-21,-41,0,0,0,0,0,0,0,0,0,-1,1203,1065,0,0
-14,-41,0,0,0,0,0,0,0,0,0,-1,1210,1065,0,0
-7,-41,0,0,0,0,0,0,0,0,0,-1,1217,1065,0,0
0,-41,0,0,0,0,0,0,0,0,0,-1,1224,1065,0,0
7,-41,0,0,0,0,0,0,0,0,0,-1,1231,1065,0,0
14,-41,0,0,0,0,0,0,0,0,0,-1,1238,1065,0,0
21,-41,0,0,0,0,0,0,0,0,0,-1,1245,1065,0,0
28,-41,0,0,0,0,0,0,0,0,0,-1,1252,1065,0,0
35,-41,0,0,0,0,0,0,0,0,0,-1,1259,1065,0,0
42,-41,0,0,0,0,0,0,0,0,0,-1,1266,1065,0,0
49,-41,0,0,0,0,0,0,0,0,0,-1,1273,1065,0,0
56,-41,0,0,0,0,0,0,0,0,0,-1,1280,1065,0,0
63,-41,0,0,0,0,0,0,0,0,0,-1,1287,1065,0,0
70,-41,0,0,0,0,0,0,0,0,0,-1,1294,1065,0,0
77,-41,0,0,0,0,0,0,0,0,0,-1,1301,1065,0,0
84,-41,0,0,0,0,0,0,0,0,0,-1,1308,1065,0,0
91,-41,0,0,0,0,0,0,0,0,0,-1,1315,1065,0,0
98,-41,0,0,0,0,0,0,0,0,0,-1,1322,1065,0,0
105,-41,0,0,0,0,0,0,0,0,0,-1,1329,1065,0,0
112,-41,0,0,0,0,0,0,0,0,0,-1,1336,1065,0,0
119,-41,0,0,0,0,0,0,0,0,0,-1,1343,1065,0,0
126,-41,0,0,0,0,0,0,0,0,0,-1,1350,1065,0,0
133,-41,0,0,0,0,0,0,0,0,0,-1,1357,1065,0,0
140,-41,0,0,0,0,0,0,0,0,0,-1,1364,1065,0,0
147,-41,0,0,0,0,0,0,0,0,0,-1,1371,1065,0,0
154,-41,0,0,0,0,0,0,0,0,0,-1,1378,1065,0,0
161,-41,0,0,0,0,0,0,0,0,0,-1,1385,1065,0,0
168,-41,0,0,0,0,0,0,0,0,0,-1,1392,1065,0,0
175,-41,0,0,0,0,0,0,0,0,0,-1,1399,1065,0,0
182,-41,0,0,0,0,0,0,0,0,0,-1,1406,1065,0,0
189,-41,0,0,0,0,0,0,0,0,0,-1,1413,1065,0,0
196,-41,0,0,0,0,0,0,0,0,0,-1,1420,1065,0,0
203,-41,0,0,0,0,0,0,0,0,0,-1,1427,1065,0,0
210,-41,0,0,0,0,0,0,0,0,0,-1,1434,1065,0,0
217,-41,0,0,0,0,0,0,0,0,0,-1,1441,1065,0,0
224,-41,0,0,0,0,0,0,0,0,0,-1,1448,1065,0,0
231,-41,0,0,0,0,0,0,0,0,0,-1,1455,1065,0,0
238,-41,0,0,0,0,0,0,0,0,0,-1,1462,1065,0,0
245,-41,0,0,0,0,0,0,0,0,0,-1,1469,1065,0,0
252,-41,0,0,0,0,0,0,0,0,0,-1,1476,1065,0,0
259,-41,0,0,0,0,0,0,0,0,0,-1,1483,1065,0,0
266,-41,0,0,0,0,0,0,0,0,0,-1,1490,1065,0,0
273,-41,0,0,0,0,0,0,0,0,0,-1,1497,1065,0,0
280,-41,0,0,0,0,0,0,0,0,0,-1,1504,1065,0,0
287,-41,0,0,0,0,0,0,0,0,0,-1,1511,1065,0,0
294,-41,0,0,0,0,0,0,0,0,0,-1,1518,1065,0,0
301,-41,0,0,0,0,0,0,0,0,0,-1,1525,1065,0,0
308,-41,0,0,0,0,0,0,0,0,0,-1,1532,1065,0,0
315,-41,0,0,0,0,0,0,0,0,0,-1,1539,1065,0,0
322,-41,0,0,0,0,0,0,0,0,0,-1,1546,1065,0,0
329,-41,0,0,0,0,0,0,0,0,0,-1,1553,1065,0,0
336,-41,0,0,0,0,0,0,0,0,0,-1,1560,1065,0,0
343,-41,0,0,0,0,0,0,0,0,0,-1,1567,1065,0,0
350,-41,0,0,0,0,0,0,0,0,0,-1,1574,1065,0,0
357,-41,0,0,0,0,0,0,0,0,0,-1,1581,1065,0,0
364,-41,0,0,0,0,0,0,0,0,0,-1,1588,1065,0,0
371,-41,0,0,0,0,0,0,0,0,0,-1,1595,1065,0,0
378,-41,0,0,0,0,0,0,0,0,0,-1,1602,1065,0,0
385,-41,0,0,0,0,0,0,0,0,0,-1,1609,1065,0,0
392,-41,0,0,0,0,0,0,0,0,0,-1,1616,1065,0,0
399,-41,0,0,0,0,0,0,0,0,0,-1,1623,1065,0,0
406,-41,0,0,0,0,0,0,0,0,0,-1,1630,1065,0,0
413,-41,0,0,0,0,0,0,0,0,0,-1,1637,1065,0,0
420,-41,0,0,0,0,0,0,0,0,0,-1,1644,1065,0,0
427,-41,0,0,0,0,0,0,0,0,0,-1,1651,1065,0,0
434,-41,0,0,0,0,0,0,0,0,0,-1,1658,1065,0,0
441,-41,0,0,0,0,0,0,0,0,0,-1,1665,1065,0,0
448,-41,0,0,0,0,0,0,0,0,0,-1,1672,1065,0,0
455,-41,0,0,0,0,0,0,0,0,0,-1,1679,1065,0,0
462,-41,0,0,0,0,0,0,0,0,0,-1,1686,1065,0,0
469,-41,0,0,0,0,0,0,0,0,0,-1,1693,1065,0,0
476,-41,0,0,0,0,0,0,0,0,0,-1,1700,1065,0,0
483,-41,0,0,0,0,0,0,0,0,0,-1,1707,1065,0,0
490,-41,0,0,0,0,0,0,0,0,0,-1,1714,1065,0,0
497,-41,0,0,0,0,0,0,0,0,0,-1,1721,1065,0,0
504,-41,0,0,0,0,0,0,0,0,0,-1,1728,1065,0,0
511,-41,0,0,0,0,0,0,0,0,0,-1,1735,1065,0,0
518,-41,0,0,0,0,0,0,0,0,0,-1,1742,1065,0,0
525,-41,0,0,0,0,0,0,0,0,0,-1,1749,1065,0,0
532,-41,0,0,0,0,0,0,0,0,0,-1,1756,1065,0,0
539,-41,0,0,0,0,0,0,0,0,0,-1,1763,1065,0,0
546,-41,0,0,0,0,0,0,0,0,0,-1,1770,1065,0,0
553,-41,0,0,0,0,0,0,0,0,0,-1,1777,1065,0,0
560,-41,0,0,0,0,0,0,0,0,0,-1,1784,1065,0,0
567,-41,0,0,0,0,0,0,0,0,0,-1,1791,1065,0,0
574,-41,0,0,0,0,0,0,0,0,0,-1,1798,1065,0,0
581,-41,0,0,0,0,0,0,0,0,0,-1,1805,1065,0,0
588,-41,0,0,0,0,0,0,0,0,0,-1,1812,1065,0,0
595,-41,0,0,0,0,0,0,0,0,0,-1,1819,1065,0,0
602,-41,0,0,0,0,0,0,0,0,0,-1,1826,1065,0,0
609,-41,0,0,0,0,0,0,0,0,0,-1,1833,1065,0,0
616,-41,0,0,0,0,0,0,0,0,0,-1,1840,1065,0,0
623,-41,0,0,0,0,0,0,0,0,0,-1,1847,1065,0,0
630,-41,0,0,0,0,0,0,0,0,0,-1,1854,1065,0,0
637,-41,0,0,0,0,0,0,0,0,0,-1,1861,1065,0,0
644,-41,0,0,0,0,0,0,0,0,0,-1,1868,1065,0,0
651,-41,21.2275,2.8811,-0.00110327,-0.000331784,0.00234817,0.00166212,-0.00309717,0.866808,0.0027891,0.0355854,1875,1065,21.2275,-2.88108
658,-41,21.1489,2.9729,-0.00155685,-0.000392757,0.00147892,0.000614529,-0.00256414,0.97287,0.00194687,0.0406458,1882,1065,21.1489,-2.97291
665,-41,21.2134,2.93176,-0.00146566,-0.000372415,0.000680365,-4.62881e-05,-0.00179179,1.12381,0.0011794,0.0418471,1889,1065,21.2134,-2.93181
672,-41,21.1833,2.94287,-0.00125905,-0.000384387,0.00104085,0.000307279,-0.00195071,0.984282,0.00141407,0.0408178,1896,1065,21.1834,-2.94281
679,-41,20.9702,2.82104,-0.00124251,-0.000447251,0.0023988,0.00158665,-0.00327641,0.867532,0.00286363,0.0394485,1903,1065,20.9702,-2.82109
686,-41,21.0459,2.87488,-0.00131255,-0.000560348,0.0039338,0.00301529,-0.00488819,0.833057,0.00460558,0.0405872,1910,1065,21.0459,-2.87488
693,-41,21.0328,3.07349,-0.00140271,-0.000685917,0.00541,0.00437754,-0.00646617,0.818473,0.00629921,0.0440109,1917,1065,21.0328,-3.07353
700,-41,21.101,3.05444,-0.00151388,-0.00076255,0.00663855,0.00551096,-0.00778738,0.813662,0.00771521,0.0386738,1924,1065,21.1009,-3.05439
707,-41,21.1687,2.92407,-0.0017148,-0.000856224,0.00741957,0.00614647,-0.0087175,0.814295,0.0086244,0.0239608,1931,1065,21.1687,-2.92412
714,-41,21.1533,2.91309,-0.00180843,-0.000857816,0.00792305,0.00660417,-0.00927042,0.815357,0.00920819,0.0144186,1938,1065,21.1533,-2.91313
721,-41,21.2179,3.32568,-0.0017866,-0.00073484,0.00806753,0.00682393,-0.00934537,0.817944,0.00937311,0.03367,1945,1065,21.2179,-3.32574
728,-41,20.8365,4.2793,0,0,0,0,0,0,0,-1,1952,1065,20.8365,-4.27935
735,-41,20.7628,4.27271,-0.00191617,-9.68719e-05,0.00733476,0.00638443,-0.00839747,0.847093,0.00856067,0.0139855,1959,1065,20.7628,-4.27267
742,-41,20.7271,4.26514,-0.00188201,0.000547173,0.00627469,0.00572375,-0.00705858,0.881001,0.00739328,0.0123045,1966,1065,20.7271,-4.26511
749,-41,20.7673,4.25159,-0.000921272,0.000881189,0.00544584,0.00549987,-0.00553995,0.8674,0.00637386,0.0126347,1973,1065,20.7673,-4.25154
756,-41,20.7927,4.22583,0.00157453,0.00153942,0.00525848,0.00681548,-0.00370154,0.783729,0.00616009,0.0123808,1980,1065,20.7928,-4.22582
763,-41,20.7646,4.19348,0.00528428,0.00210521,0.00522634,0.00915746,-0.00176796,0.637773,0.00677167,0.0102878,1987,1065,20.7646,-4.19345
770,-41,20.7485,4.17371,0.00977069,0.00281633,0.00524775,0.0125887,-1.69734e-06,0.492806,0.00839304,0.0114055,1994,1065,20.7486,-4.17371
777,-41,20.7296,4.14575,0.0163362,0.00348634,0.00639311,0.018975,0.000847518,0.391458,0.0123772,0.0126543,2001,1065,20.7296,-4.14571
784,-41,20.7244,4.12805,0.0253442,0.00380479,0.00953389,0.0289579,0.000191119,0.362303,0.0192419,0.024056,2008,1065,20.7243,-4.12802
791,-41,20.7102,4.28247,0.037087,0.00383488,0.0138754,0.0421163,-0.00119437,0.34773,0.028484,0.0417306,2015,1065,20.7103,-4.28241
798,-41,20.3723,4.70276,0.0528344,0.00337137,0.0197077,0.0597263,-0.00352053,0.336413,0.0410414,0.0427981,2022,1065,20.3724,-4.70275
805,-41,21.2002,5.52905,0.0735543,0.00226927,0.0273141,0.0828167,-0.00699314,0.326937,0.0576836,0.0435565,2029,1065,21.2001,-5.52903
812,-41,22.4478,5.93811,0,0,0,0,0,0,0,-1,2036,1065,22.4477,-5.93806
-700,-48,-14.7455,5.61035,0,0,0,0,0,0,0,-1,524,1072,-14.7455,-5.61035
-693,-48,-15.3635,4.95154,0,0,0,0,0,0,0,-1,531,1072,-15.3635,-4.95151
-686,-48,-15.423,3.89111,0,0,0,0,0,0,0,-1,538,1072,-15.4231,-3.89107
-679,-48,-15.4358,2.87842,0,0,0,0,0,0,0,-1,545,1072,-15.4358,-2.87842
-672,-48,-13.5044,1.82263,0.00302724,-0.000636468,-0.0204551,0.0217324,-0.0193416,-0.74074,0.0237275,0.044118,552,1072,-13.5044,-1.8226
-665,-48,-13.485,0.569214,0.00207825,0.001588,-0.0158207,0.0176557,-0.0139894,-0.777652,0.0183111,0.0426137,559,1072,-13.485,-0.569162
-658,-48,-13.4331,1.00476,0.00116705,0.00285159,-0.0117431,0.0137826,-0.00976398,-0.821199,0.0136605,0.0441446,566,1072,-13.4331,-1.00472
-651,-48,-13.4475,1.47339,0.000429246,0.00334451,-0.0083637,0.0103766,-0.00660289,-0.871672,0.00988352,0.0303221,573,1072,-13.4475,-1.47339
-644,-48,-13.4677,1.64697,-9.43166e-05,0.00341426,-0.00606766,0.00797614,-0.0046562,-0.926121,0.00737676,0.0138788,580,1072,-13.4676,-1.64693
-637,-48,-13.4554,1.66174,-0.000242118,0.00285779,-0.00540131,0.00692713,-0.00431146,-0.925123,0.00654692,0.0144702,587,1072,-13.4554,-1.66176
-630,-48,-13.4584,1.73657,-0.00125725,0.00204463,-0.00422136,0.0049264,-0.00413902,-0.9718,0.0052405,0.016275,594,1072,-13.4583,-1.73659
-623,-48,-13.4849,1.81726,-0.0019674,0.00148559,-0.00466736,0.00473554,-0.00521735,-0.962548,0.00574855,0.0108798,601,1072,-13.4849,-1.81722
-616,-48,-13.4914,1.88159,-0.00233906,0.000610633,-0.00476333,0.00412222,-0.00585065,-0.93553,0.00578659,0.00967225,608,1072,-13.4914,-1.88156
-609,-48,-13.486,1.94287,-0.00228553,-0.000658496,-0.00556206,0.00414923,-0.00709325,-0.858014,0.00656461,0.0103717,615,1072,-13.486,-1.94285
-602,-48,-13.488,1.98181,-0.00204311,-0.00139031,-0.0067042,0.00499543,-0.00842886,-0.809722,0.00783456,0.010781,622,1072,-13.488,-1.98179
-595,-48,-13.4799,2.02075,-0.00212773,-0.00178735,-0.00762679,0.00567115,-0.00958623,-0.796554,0.00890499,0.0153831,629,1072,-13.4799,-2.02074
-588,-48,-13.5745,1.60669,-0.0022672,-0.00200636,-0.00792682,0.00579111,-0.0100647,-0.793624,0.00926451,0.028555,636,1072,-13.5745,-1.6067
-581,-48,-13.6166,1.11365,-0.00221747,-0.00200895,-0.00774149,0.00562899,-0.0098554,-0.792131,0.00905024,0.0390565,643,1072,-13.6166,-1.1137
-574,-48,-13.5107,1.21057,-0.00211948,-0.00188745,-0.00721823,0.00521569,-0.00922263,-0.793434,0.00844229,0.0386936,650,1072,-13.5107,-1.21054
-567,-48,-13.5609,1.29675,-0.00191219,-0.00158211,-0.00617062,0.00442567,-0.00791998,-0.798768,0.00722231,0.0404518,657,1072,-13.5608,-1.2968
-560,-48,-13.5322,1.11768,-0.00156531,-0.00111142,-0.00461585,0.00328306,-0.00595979,-0.809961,0.00541044,0.0424255,664,1072,-13.5322,-1.11771
-553,-48,-13.5356,1.07727,-0.00112589,-0.00049883,-0.00261959,0.00182593,-0.00345065,-0.844958,0.0030942,0.0429362,671,1072,-13.5357,-1.07723
-546,-48,-13.5867,1.02368,-0.000674252,0.000216177,-0.000250885,0.000282,-0.000740074,-1.31422,0.00060953,0.042253,678,1072,-13.5867,-1.02367
-539,-48,-13.712,1.00122,-0.000347402,0.000932606,0.00189174,0.00228967,-0.00170447,0.948512,0.00231425,0.0416295,685,1072,-13.712,-1.00121
-532,-48,-13.6697,0.975464,-0.000840337,0.00132349,0.00206431,0.00257223,-0.00208907,1.02677,0.00269602,0.0390219,692,1072,-13.6697,-0.975498
-525,-48,0,0,0,0,0,0,0,0,0,-1,699,1072,0,0
-518,-48,0,0,0,0,0,0,0,0,0,-1,706,1072,0,0
-511,-48,0,0,0,0,0,0,0,0,0,-1,713,1072,0,0
-504,-48,0,0,0,0,0,0,0,0,0,-1,720,1072,0,0
-497,-48,0,0,0,0,0,0,0,0,0,-1,727,1072,0,0
-490,-48,0,0,0,0,0,0,0,0,0,-1,734,1072,0,0
-483,-48,0,0,0,0,0,0,0,0,0,-1,741,1072,0,0
-476,-48,0,0,0,0,0,0,0,0,0,-1,748,1072,0,0
-469,-48,0,0,0,0,0,0,0,0,0,-1,755,1072,0,0
-462,-48,0,0,0,0,0,0,0,0,0,-1,762,1072,0,0
-455,-48,0,0,0,0,0,0,0,0,0,-1,769,1072,0,0
-448,-48,0,0,0,0,0,0,0,0,0,-1,776,1072,0,0
-441,-48,0,0,0,0,0,0,0,0,0,-1,783,1072,0,0
-434,-48,0,0,0,0,0,0,0,0,0,-1,790,1072,0,0
-427,-48,0,0,0,0,0,0,0,0,0,-1,797,1072,0,0
-420,-48,0,0,0,0,0,0,0,0,0,-1,804,1072,0,0
-413,-48,0,0,0,0,0,0,0,0,0,-1,811,1072,0,0
-406,-48,0,0,0,0,0,0,0,0,0,-1,818,1072,0,0
-399,-48,0,0,0,0,0,0,0,0,0,-1,825,1072,0,0
-392,-48,0,0,0,0,0,0,0,0,0,-1,832,1072,0,0
-385,-48,0,0,0,0,0,0,0,0,0,-1,839,1072,0,0
-378,-48,0,0,0,0,0,0,0,0,0,-1,846,1072,0,0
-371,-48,0,0,0,0,0,0,0,0,0,-1,853,1072,0,0
-364,-48,0,0,0,0,0,0,0,0,0,-1,860,1072,0,0
-357,-48,0,0,0,0,0,0,0,0,0,-1,867,1072,0,0
-350,-48,0,0,0,0,0,0,0,0,0,-1,874,1072,0,0
-343,-48,0,0,0,0,0,0,0,0,0,-1,881,1072,0,0
-336,-48,0,0,0,0,0,0,0,0,0,-1,888,1072,0,0
-329,-48,0,0,0,0,0,0,0,0,0,-1,895,1072,0,0
-322,-48,0,0,0,0,0,0,0,0,0,-1,902,1072,0,0
-315,-48,0,0,0,0,0,0,0,0,0,-1,909,1072,0,0
-308,-48,0,0,0,0,0,0,0,0,0,-1,916,1072,0,0
-301,-48,0,0,0,0,0,0,0,0,0,-1,923,1072,0,0
-294,-48,0,0,0,0,0,0,0,0,0,-1,930,1072,0,0
-287,-48,0,0,0,0,0,0,0,0,0,-1,937,1072,0,0
-280,-48,0,0,0,0,0,0,0,0,0,-1,944,1072,0,0
-273,-48,0,0,0,0,0,0,0,0,0,-1,951,1072,0,0
-266,-48,0,0,0,0,0,0,0,0,0,-1,958,1072,0,0
-259,-48,0,0,0,0,0,0,0,0,0,-1,965,1072,0,0
-252,-48,0,0,0,0,0,0,0,0,0,-1,972,1072,0,0
-245,-48,0,0,0,0,0,0,0,0,0,-1,979,1072,0,0
-238,-48,0,0,0,0,0,0,0,0,0,-1,986,1072,0,0
-231,-48,0,0,0,0,0,0,0,0,0,-1,993,1072,0,0
-224,-48,0,0,0,0,0,0,0,0,0,-1,1000,1072,0,0
-217,-48,0,0,0,0,0,0,0,0,0,-1,1007,1072,0,0
-210,-48,0,0,0,0,0,0,0,0,0,-1,1014,1072,0,0
-203,-48,0,0,0,0,0,0,0,0,0,-1,1021,1072,0,0
-196,-48,0,0,0,0,0,0,0,0,0,-1,1028,1072,0,0
-189,-48,0,0,0,0,0,0,0,0,0,-1,1035,1072,0,0
-182,-48,0,0,0,0,0,0,0,0,0,-1,1042,1072,0,0
-175,-48,0,0,0,0,0,0,0,0,0,-1,1049,1072,0,0
-168,-48,0,0,0,0,0,0,0,0,0,-1,1056,1072,0,0
-161,-48,0,0,0,0,0,0,0,0,0,-1,1063,1072,0,0
-154,-48,0,0,0,0,0,0,0,0,0,-1,1070,1072,0,0
-147,-48,0,0,0,0,0,0,0,0,0,-1,1077,1072,0,0
-140,-48,0,0,0,0,0,0,0,0,0,-1,1084,1072,0,0
-133,-48,0,0,0,0,0,0,0,0,0,-1,1091,1072,0,0
-126,-48,0,0,0,0,0,0,0,0,0,-1,1098,1072,0,0
-119,-48,0,0,0,0,0,0,0,0,0,-1,1105,1072,0,0
-112,-48,0,0,0,0,0,0,0,0,0,-1,1112,1072,0,0
-105,-48,0,0,0,0,0,0,0,0,0,-1,1119,1072,0,0
-98,-48,0,0,0,0,0,0,0,0,0,-1,1126,1072,0,0
-91,-48,0,0,0,0,0,0,0,0,0,-1,1133,1072,0,0
-84,-48,0,0,0,0,0,0,0,0,0,-1,1140,1072,0,0
-77,-48,0,0,0,0,0,0,0,0,0,-1,1147,1072,0,0
-70,-48,0,0,0,0,0,0,0,0,0,-1,1154,1072,0,0
-63,-48,0,0,0,0,0,0,0,0,0,-1,1161,1072,0,0
-56,-48,0,0,0,0,0,0,0,0,0,-1,1168,1072,0,0
-49,-48,0,0,0,0,0,0,0,0,0,-1,1175,1072,0,0
-42,-48,0,0,0,0,0,0,0,0,0,-1,1182,1072,0,0
-35,-48,0,0,0,0,0,0,0,0,0,-1,1189,1072,0,0
-28,-48,0,0,0,0,0,0,0,0,0,-1,1196,1072,0,0
-21,-48,0,0,0,0,0,0,0,0,0,-1,1203,1072,0,0
-14,-48,0,0,0,0,0,0,0,0,0,-1,1210,1072,0,0
-7,-48,0,0,0,0,0,0,0,0,0,-1,1217,1072,0,0
0,-48,0,0,0,0,0,0,0,0,0,-1,1224,1072,0,0
7,-48,0,0,0,0,0,0,0,0,0,-1,1231,1072,0,0
14,-48,0,0,0,0,0,0,0,0,0,-1,1238,1072,0,0
21,-48,0,0,0,0,0,0,0,0,0,-1,1245,1072,0,0
28,-48,0,0,0,0,0,0,0,0,0,-1,1252,1072,0,0
35,-48,0,0,0,0,0,0,0,0,0,-1,1259,1072,0,0
42,-48,0,0,0,0,0,0,0,0,0,-1,1266,1072,0,0
49,-48,0,0,0,0,0,0,0,0,0,-1,1273,1072,0,0
56,-48,0,0,0,0,0,0,0,0,0,-1,1280,1072,0,0
63,-48,0,0,0,0,0,0,0,0,0,-1,1287,1072,0,0
70,-48,0,0,0,0,0,0,0,0,0,-1,1294,1072,0,0
77,-48,0,0,0,0,0,0,0,0,0,-1,1301,1072,0,0
84,-48,0,0,0,0,0,0,0,0,0,-1,1308,1072,0,0
91,-48,0,0,0,0,0,0,0,0,0,-1,1315,1072,0,0
98,-48,0,0,0,0,0,0,0,0,0,-1,1322,1072,0,0
105,-48,0,0,0,0,0,0,0,0,0,-1,1329,1072,0,0
112,-48,0,0,0,0,0,0,0,0,0,-1,1336,1072,0,0
119,-48,0,0,0,0,0,0,0,0,0,-1,1343,1072,0,0
126,-48,0,0,0,0,0,0,0,0,0,-1,1350,1072,0,0
133,-48,0,0,0,0,0,0,0,0,0,-1,1357,1072,0,0
140,-48,0,0,0,0,0,0,0,0,0,-1,1364,1072,0,0
147,-48,0,0,0,0,0,0,0,0,0,-1,1371,1072,0,0
154,-48,0,0,0,0,0,0,0,0,0,-1,1378,1072,0,0
161,-48,0,0,0,0,0,0,0,0,0,-1,1385,1072,0,0
168,-48,0,0,0,0,0,0,0,0,0,-1,1392,1072,0,0
175,-48,0,0,0,0,0,0,0,0,0,-1,1399,1072,0,0
182,-48,0,0,0,0,0,0,0,0,0,-1,1406,1072,0,0
189,-48,0,0,0,0,0,0,0,0,0,-1,1413,1072,0,0
196,-48,0,0,0,0,0,0,0,0,0,-1,1420,1072,0,0
203,-48,0,0,0,0,0,0,0,0,0,-1,1427,1072,0,0
210,-48,0,0,0,0,0,0,0,0,0,-1,1434,1072,0,0
217,-48,0,0,0,0,0,0,0,0,0,-1,1441,1072,0,0
224,-48,0,0,0,0,0,0,0,0,0,-1,1448,1072,0,0
231,-48,0,0,0,0,0,0,0,0,0,-1,1455,1072,0,0
238,-48,0,0,0,0,0,0,0,0,0,-1,1462,1072,0,0
245,-48,0,0,0,0,0,0,0,0,0,-1,1469,1072,0,0
252,-48,0,0,0,0,0,0,0,0,0,-1,1476,1072,0,0
259,-48,0,0,0,0,0,0,0,0,0,-1,1483,1072,0,0
266,-48,0,0,0,0,0,0,0,0,0,-1,1490,1072,0,0
273,-48,0,0,0,0,0,0,0,0,0,-1,1497,1072,0,0
280,-48,0,0,0,0,0,0,0,0,0,-1,1504,1072,0,0
287,-48,0,0,0,0,0,0,0,0,0,-1,1511,1072,0,0
294,-48,0,0,0,0,0,0,0,0,0,-1,1518,1072,0,0
301,-48,0,0,0,0,0,0,0,0,0,-1,1525,1072,0,0
308,-48,0,0,0,0,0,0,0,0,0,-1,1532,1072,0,0
315,-48,0,0,0,0,0,0,0,0,0,-1,1539,1072,0,0
322,-48,0,0,0,0,0,0,0,0,0,-1,1546,1072,0,0
329,-48,0,0,0,0,0,0,0,0,0,-1,1553,1072,0,0
336,-48,0,0,0,0,0,0,0,0,0,-1,1560,1072,0,0
343,-48,0,0,0,0,0,0,0,0,0,-1,1567,1072,0,0
350,-48,0,0,0,0,0,0,0,0,0,-1,1574,1072,0,0
357,-48,0,0,0,0,0,0,0,0,0,-1,1581,1072,0,0
364,-48,0,0,0,0,0,0,0,0,0,-1,1588,1072,0,0
371,-48,0,0,0,0,0,0,0,0,0,-1,1595,1072,0,0
378,-48,0,0,0,0,0,0,0,0,0,-1,1602,1072,0,0
385,-48,0,0,0,0,0,0,0,0,0,-1,1609,1072,0,0
392,-48,0,0,0,0,0,0,0,0,0,-1,1616,1072,0,0
399,-48,0,0,0,0,0,0,0,0,0,-1,1623,1072,0,0
406,-48,0,0,0,0,0,0,0,0,0,-1,1630,1072,0,0
413,-48,0,0,0,0,0,0,0,0,0,-1,1637,1072,0,0
420,-48,0,0,0,0,0,0,0,0,0,-1,1644,1072,0,0
427,-48,0,0,0,0,0,0,0,0,0,-1,1651,1072,0,0
434,-48,0,0,0,0,0,0,0,0,0,-1,1658,1072,0,0
441,-48,0,0,0,0,0,0,0,0,0,-1,1665,1072,0,0
448,-48,0,0,0,0,0,0,0,0,0,-1,1672,1072,0,0
455,-48,0,0,0,0,0,0,0,0,0,-1,1679,1072,0,0
462,-48,0,0,0,0,0,0,0,0,0,-1,1686,1072,0,0
469,-48,0,0,0,0,0,0,0,0,0,-1,1693,1072,0,0
476,-48,0,0,0,0,0,0,0,0,0,-1,1700,1072,0,0
483,-48,0,0,0,0,0,0,0,0,0,-1,1707,1072,0,0
490,-48,0,0,0,0,0,0,0,0,0,-1,1714,1072,0,0
497,-48,0,0,0,0,0,0,0,0,0,-1,1721,1072,0,0
504,-48,0,0,0,0,0,0,0,0,0,-1,1728,1072,0,0
511,-48,0,0,0,0,0,0,0,0,0,-1,1735,1072,0,0
518,-48,0,0,0,0,0,0,0,0,0,-1,1742,1072,0,0
525,-48,0,0,0,0,0,0,0,0,0,-1,1749,1072,0,0
532,-48,0,0,0,0,0,0,0,0,0,-1,1756,1072,0,0
539,-48,0,0,0,0,0,0,0,0,0,-1,1763,1072,0,0
546,-48,0,0,0,0,0,0,0,0,0,-1,1770,1072,0,0
553,-48,0,0,0,0,0,0,0,0,0,-1,1777,1072,0,0
560,-48,0,0,0,0,0,0,0,0,0,-1,1784,1072,0,0
567,-48,0,0,0,0,0,0,0,0,0,-1,1791,1072,0,0
574,-48,0,0,0,0,0,0,0,0,0,-1,1798,1072,0,0
581,-48,0,0,0,0,0,0,0,0,0,-1,1805,1072,0,0
588,-48,0,0,0,0,0,0,0,0,0,-1,1812,1072,0,0
595,-48,0,0,0,0,0,0,0,0,0,-1,1819,1072,0,0
602,-48,0,0,0,0,0,0,0,0,0,-1,1826,1072,0,0
609,-48,0,0,0,0,0,0,0,0,0,-1,1833,1072,0,0
616,-48,0,0,0,0,0,0,0,0,0,-1,1840,1072,0,0
623,-48,0,0,0,0,0,0,0,0,0,-1,1847,1072,0,0
630,-48,0,0,0,0,0,0,0,0,0,-1,1854,1072,0,0
637,-48,0,0,0,0,0,0,0,0,0,-1,1861,1072,0,0
644,-48,0,0,0,0,0,0,0,0,0,-1,1868,1072,0,0
651,-48,21.1819,2.94995,-0.000542154,-0.00062699,0.00305544,0.00247116,-0.00364031,0.778457,0.00354991,0.0329213,1875,1072,21.1818,-2.94998
658,-48,21.0703,3.10925,-0.00100144,-0.00060012,0.00185002,0.00106009,-0.00266165,0.839419,0.00221408,0.0384728,1882,1072,21.0703,-3.10925
665,-48,20.9395,3.20361,-0.00096852,-0.000505243,0.000846795,0.000141024,-0.00161479,0.918906,0.00112648,0.0444911,1889,1072,20.9394,-3.2036
672,-48,20.8988,3.26563,-0.000929267,-0.000547748,0.00118073,0.000457529,-0.00193454,0.865487,0.0014662,0.0433285,1896,1072,20.8988,-3.26559
679,-48,21.002,3.12585,-0.0010988,-0.000700175,0.00257773,0.00168593,-0.00348491,0.823982,0.00304501,0.0399105,1903,1072,21.002,-3.12588
686,-48,21.1992,2.77222,-0.00132169,-0.000905361,0.00417271,0.00306437,-0.00529142,0.810321,0.004881,0.0381903,1910,1072,21.1992,-2.77216
693,-48,21.0265,2.953,-0.0015357,-0.00110983,0.00571912,0.00440032,-0.00704585,0.804006,0.00666703,0.0397006,1917,1072,21.0265,-2.95306
700,-48,21.0803,3.02148,-0.00172953,-0.00124074,0.00700404,0.00552316,-0.00849344,0.802838,0.00815283,0.0345241,1924,1072,21.0803,-3.02146
707,-48,21.2001,2.94666,-0.00198025,-0.0013552,0.00781274,0.00615126,-0.00948672,0.805388,0.00909679,0.0248488,1931,1072,21.2001,-2.94668
714,-48,21.1941,2.95911,-0.00208181,-0.00136637,0.00832428,0.00660788,-0.0100561,0.806872,0.00968934,0.0246368,1938,1072,21.194,-2.95912
721,-48,21.0753,3.66846,-0.00202466,-0.00124285,0.00845602,0.00683129,-0.0100988,0.808496,0.00983509,0.0406806,1945,1072,21.0753,-3.6684
728,-48,20.7996,4.32361,0,0,0,0,0,0,0,-1,1952,1072,20.7996,-4.3236
735,-48,20.7482,4.31946,-0.0021049,-0.000525091,0.00761345,0.00633932,-0.00896932,0.837089,0.00888182,0.0159561,1959,1072,20.7482,-4.31947
742,-48,20.7014,4.28979,-0.00205091,0.000168294,0.0064411,0.00559467,-0.00747728,0.870696,0.00757314,0.0125652,1966,1072,20.7014,-4.28979
749,-48,20.7396,4.22876,-0.00112007,0.000565426,0.00544533,0.00523283,-0.00578748,0.862172,0.00636527,0.011533,1973,1072,20.7397,-4.2288
756,-48,20.7506,4.19263,0.00125318,0.00118794,0.00508461,0.00630527,-0.00386415,0.782191,0.00592744,0.0113747,1980,1072,20.7507,-4.19266
763,-48,20.7362,4.18188,0.00472577,0.0017896,0.0048254,0.00830147,-0.0017861,0.637727,0.00621582,0.0115997,1987,1072,20.7362,-4.1819
770,-48,20.7437,4.14624,0.00888034,0.0025161,0.00456462,0.0112625,0.000133901,0.481001,0.00746413,0.0121863,1994,1072,20.7437,-4.14621
777,-48,20.702,4.09802,0.0149209,0.00313468,0.0054524,0.0170563,0.00099925,0.373288,0.0110528,0.0104997,2001,1072,20.7021,-4.09799
784,-48,20.6593,3.97571,0.0231911,0.00332967,0.00838812,0.0262596,0.000261165,0.350695,0.01742,0.0215176,2008,1072,20.6593,-3.97566
791,-48,20.5048,3.7002,0.0340071,0.0032255,0.0124685,0.0384239,-0.00119128,0.340443,0.0260221,0.0389056,2015,1072,20.5048,-3.70026
798,-48,19.4033,5.24829,0,0,0,0,0,0,0,-1,2022,1072,19.4034,-5.24826
805,-48,20.6729,5.63855,0.0678531,0.00141547,0.0254159,0.0764608,-0.00719226,0.32655,0.0535326,0.0444546,2029,1072,20.6727,-5.63851
812,-48,22.0625,6.34607,0.0928513,-0.000599216,0.0349938,0.104503,-0.0122505,0.321407,0.0740902,0.046727,2036,1072,22.0626,-6.3461
-700,-55,-15.3221,5.80798,0,0,0,0,0,0,0,-1,524,1079,-15.3221,-5.80796
-693,-55,-13.1617,4.75977,0,0,0,0,0,0,0,-1,531,1079,-13.1617,-4.75972
-686,-55,-16.408,4.151,0.00422698,-0.00253099,-0.0312945,0.0323243,-0.0306284,-0.73162,0.0363502,0.0489633,538,1079,-16.4079,-4.15098
-679,-55,-13.3482,2.93896,0.00466388,0.00149365,-0.0265892,0.0297152,-0.0235577,-0.755626,0.0308255,0.0460042,545,1079,-13.3482,-2.939
-672,-55,-13.6829,2.21863,0.00415876,0.00398018,-0.0216112,0.0256809,-0.017542,-0.783332,0.0251018,0.0452025,552,1079,-13.6829,-2.21861
-665,-55,-12.6856,0.225952,0.00326327,0.00528282,-0.0168469,0.0211502,-0.0126041,-0.815331,0.0196952,0.0444419,559,1079,-12.6856,-0.225928
-658,-55,-13.2379,0.618774,0.00226683,0.00569247,-0.0126022,0.0166977,-0.0087384,-0.852942,0.0149233,0.0477379,566,1079,-13.2379,-0.618766
-651,-55,-13.4403,1.33508,0.0013769,0.0054426,-0.00904181,0.0126773,-0.00585776,-0.895974,0.01094,0.0358082,573,1079,-13.4403,-1.33509
-644,-55,-13.4061,1.58728,0.000662506,0.00493439,-0.00656378,0.00970102,-0.00410412,-0.942701,0.00818583,0.0156057,580,1079,-13.4061,-1.58722
-637,-55,-13.4031,1.63953,0.0003959,0.00394236,-0.00585265,0.00828451,-0.00394625,-0.932492,0.00720798,0.0135058,587,1079,-13.4031,-1.63952
-630,-55,-13.4117,1.72473,-0.000945063,0.00269152,-0.00456874,0.0057905,-0.00404404,-0.974783,0.00570774,0.0154254,594,1079,-13.4118,-1.72469
-623,-55,-13.4382,1.81348,-0.00191849,0.00179335,-0.00494537,0.00521958,-0.00534472,-0.964908,0.00609945,0.0145233,601,1079,-13.4382,-1.81348
-616,-55,-13.4178,1.86914,-0.00263766,0.00069635,-0.00496056,0.00426251,-0.00620382,-0.947496,0.00607729,0.013339,608,1079,-13.4179,-1.86909
-609,-55,-13.4129,1.94543,-0.00283882,-0.000651261,-0.00575561,0.00411357,-0.00760366,-0.879297,0.00686425,0.0126611,615,1079,-13.4129,-1.94539
-602,-55,-13.4216,2.00256,-0.00268154,-0.00131307,-0.00695198,0.00498826,-0.00898288,-0.834451,0.0081754,0.0126683,622,1079,-13.4216,-2.00254
-595,-55,-13.397,2.06055,-0.00282506,-0.00170078,-0.00794058,0.00569753,-0.0102234,-0.820736,0.00931491,0.0156608,629,1079,-13.397,-2.06053
-588,-55,-13.4327,1.56323,-0.0030085,-0.00192708,-0.00830023,0.00585004,-0.0107856,-0.817924,0.00974448,0.0278478,636,1079,-13.4327,-1.56322
-581,-55,-13.5063,1.02063,0,0,0,0,0,0,0,-1,643,1079,-13.5064,-1.02065
-574,-55,-13.4953,1.24402,-0.00281631,-0.00182115,-0.00768705,0.0053844,-0.0100219,-0.817718,0.00902814,0.0385141,650,1079,-13.4953,-1.24402
-567,-55,-13.4791,1.31335,-0.00249584,-0.00154483,-0.00667198,0.00466857,-0.00870924,-0.820973,0.00784024,0.0405221,657,1079,-13.4791,-1.3134
-560,-55,-13.5848,1.14478,-0.00196191,-0.00112759,-0.00514356,0.0036157,-0.0067052,-0.825861,0.00604711,0.0420757,664,1079,-13.5848,-1.14476
-553,-55,-13.6171,1.12952,-0.00125979,-0.000595198,-0.00317204,0.0022619,-0.00411689,-0.837587,0.00373434,0.0421315,671,1079,-13.6171,-1.12951
-546,-55,-13.584,1.02283,-0.000459825,1.02009e-05,-0.000828556,0.000636429,-0.00108605,-0.923589,0.00100571,0.0409369,678,1079,-13.5841,-1.0228
-539,-55,-13.6712,0.93396,0.000283848,0.000601275,0.00131265,0.00176477,-0.000879649,0.845561,0.001555,0.0397541,685,1079,-13.6712,-0.933915
-532,-55,-13.8785,1.12207,9.15929e-05,0.000799493,0.00141828,0.00190732,-0.00101624,0.907682,0.00171385,0.0393262,692,1079,-13.8785,-1.12201
-525,-55,0,0,0,0,0,0,0,0,0,-1,699,1079,0,0
-518,-55,0,0,0,0,0,0,0,0,0,-1,706,1079,0,0
-511,-55,0,0,0,0,0,0,0,0,0,-1,713,1079,0,0
-504,-55,0,0,0,0,0,0,0,0,0,-1,720,1079,0,0
-497,-55,0,0,0,0,0,0,0,0,0,-1,727,1079,0,0
-490,-55,0,0,0,0,0,0,0,0,0,-1,734,1079,0,0
-483,-55,0,0,0,0,0,0,0,0,0,-1,741,1079,0,0
-476,-55,0,0,0,0,0,0,0,0,0,-1,748,1079,0,0
-469,-55,0,0,0,0,0,0,0,0,0,-1,755,1079,0,0
-462,-55,0,0,0,0,0,0,0,0,0,-1,762,1079,0,0
-455,-55,0,0,0,0,0,0,0,0,0,-1,769,1079,0,0
-448,-55,0,0,0,0,0,0,0,0,0,-1,776,1079,0,0
-441,-55,0,0,0,0,0,0,0,0,0,-1,783,1079,0,0
-434,-55,0,0,0,0,0,0,0,0,0,-1,790,1079,0,0
-427,-55,0,0,0,0,0,0,0,0,0,-1,797,1079,0,0
-420,-55,0,0,0,0,0,0,0,0,0,-1,804,1079,0,0
-413,-55,0,0,0,0,0,0,0,0,0,-1,811,1079,0,0
-406,-55,0,0,0,0,0,0,0,0,0,-1,818,1079,0,0
-399,-55,0,0,0,0,0,0,0,0,0,-1,825,1079,0,0
-392,-55,0,0,0,0,0,0,0,0,0,-1,832,1079,0,0
-385,-55,0,0,0,0,0,0,0,0,0,-1,839,1079,0,0
-378,-55,0,0,0,0,0,0,0,0,0,-1,846,1079,0,0
-371,-55,0,0,0,0,0,0,0,0,0,-1,853,1079,0,0
-364,-55,0,0,0,0,0,0,0,0,0,-1,860,1079,0,0
-357,-55,0,0,0,0,0,0,0,0,0,-1,867,1079,0,0
-350,-55,0,0,0,0,0,0,0,0,0,-1,874,1079,0,0
-343,-55,0,0,0,0,0,0,0,0,0,-1,881,1079,0,0
-336,-55,0,0,0,0,0,0,0,0,0,-1,888,1079,0,0
-329,-55,0,0,0,0,0,0,0,0,0,-1,895,1079,0,0
-322,-55,0,0,0,0,0,0,0,0,0,-1,902,1079,0,0
-315,-55,0,0,0,0,0,0,0,0,0,-1,909,1079,0,0
-308,-55,0,0,0,0,0,0,0,0,0,-1,916,1079,0,0
-301,-55,0,0,0,0,0,0,0,0,0,-1,923,1079,0,0
-294,-55,0,0,0,0,0,0,0,0,0,-1,930,1079,0,0
-287,-55,0,0,0,0,0,0,0,0,0,-1,937,1079,0,0
-280,-55,0,0,0,0,0,0,0,0,0,-1,944,1079,0,0
-273,-55,0,0,0,0,0,0,0,0,0,-1,951,1079,0,0
-266,-55,0,0,0,0,0,0,0,0,0,-1,958,1079,0,0
-259,-55,0,0,0,0,0,0,0,0,0,-1,965,1079,0,0
-252,-55,0,0,0,0,0,0,0,0,0,-1,972,1079,0,0
-245,-55,0,0,0,0,0,0,0,0,0,-1,979,1079,0,0
-238,-55,0,0,0,0,0,0,0,0,0,-1,986,1079,0,0
-231,-55,0,0,0,0,0,0,0,0,0,-1,993,1079,0,0
-224,-55,0,0,0,0,0,0,0,0,0,-1,1000,1079,0,0
-217,-55,0,0,0,0,0,0,0,0,0,-1,1007,1079,0,0
-210,-55,0,0,0,0,0,0,0,0,0,-1,1014,1079,0,0
-203,-55,0,0,0,0,0,0,0,0,0,-1,1021,1079,0,0
-196,-55,0,0,0,0,0,0,0,0,0,-1,1028,1079,0,0
-189,-55,0,0,0,0,0,0,0,0,0,-1,1035,1079,0,0
-182,-55,0,0,0,0,0,0,0,0,0,-1,1042,1079,0,0
-175,-55,0,0,0,0,0,0,0,0,0,-1,1049,1079,0,0
-168,-55,0,0,0,0,0,0,0,0,0,-1,1056,1079,0,0
-161,-55,0,0,0,0,0,0,0,0,0,-1,1063,1079,0,0
-154,-55,0,0,0,0,0,0,0,0,0,-1,1070,1079,0,0
-147,-55,0,0,0,0,0,0,0,0,0,-1,1077,1079,0,0
-140,-55,0,0,0,0,0,0,0,0,0,-1,1084,1079,0,0
-133,-55,0,0,0,0,0,0,0,0,0,-1,1091,1079,0,0
-126,-55,0,0,0,0,0,0,0,0,0,-1,1098,1079,0,0
-119,-55,0,0,0,0,0,0,0,0,0,-1,1105,1079,0,0
-112,-55,0,0,0,0,0,0,0,0,0,-1,1112,1079,0,0
-105,-55,0,0,0,0,0,0,0,0,0,-1,1119,1079,0,0
-98,-55,0,0,0,0,0,0,0,0,0,-1,1126,1079,0,0
-91,-55,0,0,0,0,0,0,0,0,0,-1,1133,1079,0,0
-84,-55,0,0,0,0,0,0,0,0,0,-1,1140,1079,0,0
-77,-55,0,0,0,0,0,0,0,0,0,-1,1147,1079,0,0
-70,-55,0,0,0,0,0,0,0,0,0,-1,1154,1079,0,0
-63,-55,0,0,0,0,0,0,0,0,0,-1,1161,1079,0,0
-56,-55,0,0,0,0,0,0,0,0,0,-1,1168,1079,0,0
-49,-55,0,0,0,0,0,0,0,0,0,-1,1175,1079,0,0
-42,-55,0,0,0,0,0,0,0,0,0,-1,1182,1079,0,0
-35,-55,0,0,0,0,0,0,0,0,0,-1,1189,1079,0,0
-28,-55,0,0,0,0,0,0,0,0,0,-1,1196,1079,0,0
-21,-55,0,0,0,0,0,0,0,0,0,-1,1203,1079,0,0
-14,-55,0,0,0,0,0,0,0,0,0,-1,1210,1079,0,0
-7,-55,0,0,0,0,0,0,0,0,0,-1,1217,1079,0,0
0,-55,0,0,0,0,0,0,0,0,0,-1,1224,1079,0,0
7,-55,0,0,0,0,0,0,0,0,0,-1,1231,1079,0,0
14,-55,0,0,0,0,0,0,0,0,0,-1,1238,1079,0,0
21,-55,0,0,0,0,0,0,0,0,0,-1,1245,1079,0,0
28,-55,0,0,0,0,0,0,0,0,0,-1,1252,1079,0,0
35,-55,0,0,0,0,0,0,0,0,0,-1,1259,1079,0,0
42,-55,0,0,0,0,0,0,0,0,0,-1,1266,1079,0,0
49,-55,0,0,0,0,0,0,0,0,0,-1,1273,1079,0,0
56,-55,0,0,0,0,0,0,0,0,0,-1,1280,1079,0,0
63,-55,0,0,0,0,0,0,0,0,0,-1,1287,1079,0,0
70,-55,0,0,0,0,0,0,0,0,0,-1,1294,1079,0,0
77,-55,0,0,0,0,0,0,0,0,0,-1,1301,1079,0,0
84,-55,0,0,0,0,0,0,0,0,0,-1,1308,1079,0,0
91,-55,0,0,0,0,0,0,0,0,0,-1,1315,1079,0,0
98,-55,0,0,0,0,0,0,0,0,0,-1,1322,1079,0,0
105,-55,0,0,0,0,0,0,0,0,0,-1,1329,1079,0,0
112,-55,0,0,0,0,0,0,0,0,0,-1,1336,1079,0,0
119,-55,0,0,0,0,0,0,0,0,0,-1,1343,1079,0,0
126,-55,0,0,0,0,0,0,0,0,0,-1,1350,1079,0,0
133,-55,0,0,0,0,0,0,0,0,0,-1,1357,1079,0,0
140,-55,0,0,0,0,0,0,0,0,0,-1,1364,1079,0,0
147,-55,0,0,0,0,0,0,0,0,0,-1,1371,1079,0,0
154,-55,0,0,0,0,0,0,0,0,0,-1,1378,1079,0,0
161,-55,0,0,0,0,0,0,0,0,0,-1,1385,1079,0,0
168,-55,0,0,0,0,0,0,0,0,0,-1,1392,1079,0,0
175,-55,0,0,0,0,0,0,0,0,0,-1,1399,1079,0,0
182,-55,0,0,0,0,0,0,0,0,0,-1,1406,1079,0,0
189,-55,0,0,0,0,0,0,0,0,0,-1,1413,1079,0,0
196,-55,0,0,0,0,0,0,0,0,0,-1,1420,1079,0,0
203,-55,0,0,0,0,0,0,0,0,0,-1,1427,1079,0,0
210,-55,0,0,0,0,0,0,0,0,0,-1,1434,1079,0,0
217,-55,0,0,0,0,0,0,0,0,0,-1,1441,1079,0,0
224,-55,0,0,0,0,0,0,0,0,0,-1,1448,1079,0,0
231,-55,0,0,0,0,0,0,0,0,0,-1,1455,1079,0,0
238,-55,0,0,0,0,0,0,0,0,0,-1,1462,1079,0,0
245,-55,0,0,0,0,0,0,0,0,0,-1,1469,1079,0,0
252,-55,0,0,0,0,0,0,0,0,0,-1,1476,1079,0,0
259,-55,0,0,0,0,0,0,0,0,0,-1,1483,1079,0,0
266,-55,0,0,0,0,0,0,0,0,0,-1,1490,1079,0,0
273,-55,0,0,0,0,0,0,0,0,0,-1,1497,1079,0,0
280,-55,0,0,0,0,0,0,0,0,0,-1,1504,1079,0,0
287,-55,0,0,0,0,0,0,0,0,0,-1,1511,1079,0,0
294,-55,0,0,0,0,0,0,0,0,0,-1,1518,1079,0,0
301,-55,0,0,0,0,0,0,0,0,0,-1,1525,1079,0,0
308,-55,0,0,0,0,0,0,0,0,0,-1,1532,1079,0,0
315,-55,0,0,0,0,0,0,0,0,0,-1,1539,1079,0,0
322,-55,0,0,0,0,0,0,0,0,0,-1,1546,1079,0,0
329,-55,0,0,0,0,0,0,0,0,0,-1,1553,1079,0,0
336,-55,0,0,0,0,0,0,0,0,0,-1,1560,1079,0,0
343,-55,0,0,0,0,0,0,0,0,0,-1,1567,1079,0,0
350,-55,0,0,0,0,0,0,0,0,0,-1,1574,1079,0,0
357,-55,0,0,0,0,0,0,0,0,0,-1,1581,1079,0,0
364,-55,0,0,0,0,0,0,0,0,0,-1,1588,1079,0,0
371,-55,0,0,0,0,0,0,0,0,0,-1,1595,1079,0,0
378,-55,0,0,0,0,0,0,0,0,0,-1,1602,1079,0,0
385,-55,0,0,0,0,0,0,0,0,0,-1,1609,1079,0,0
392,-55,0,0,0,0,0,0,0,0,0,-1,1616,1079,0,0
399,-55,0,0,0,0,0,0,0,0,0,-1,1623,1079,0,0
406,-55,0,0,0,0,0,0,0,0,0,-1,1630,1079,0,0
413,-55,0,0,0,0,0,0,0,0,0,-1,1637,1079,0,0
420,-55,0,0,0,0,0,0,0,0,0,-1,1644,1079,0,0
427,-55,0,0,0,0,0,0,0,0,0,-1,1651,1079,0,0
434,-55,0,0,0,0,0,0,0,0,0,-1,1658,1079,0,0
441,-55,0,0,0,0,0,0,0,0,0,-1,1665,1079,0,0
448,-55,0,0,0,0,0,0,0,0,0,-1,1672,1079,0,0
455,-55,0,0,0,0,0,0,0,0,0,-1,1679,1079,0,0
462,-55,0,0,0,0,0,0,0,0,0,-1,1686,1079,0,0
469,-55,0,0,0,0,0,0,0,0,0,-1,1693,1079,0,0
476,-55,0,0,0,0,0,0,0,0,0,-1,1700,1079,0,0
483,-55,0,0,0,0,0,0,0,0,0,-1,1707,1079,0,0
490,-55,0,0,0,0,0,0,0,0,0,-1,1714,1079,0,0
497,-55,0,0,0,0,0,0,0,0,0,-1,1721,1079,0,0
504,-55,0,0,0,0,0,0,0,0,0,-1,1728,1079,0,0
511,-55,0,0,0,0,0,0,0,0,0,-1,1735,1079,0,0
518,-55,0,0,0,0,0,0,0,0,0,-1,1742,1079,0,0
525,-55,0,0,0,0,0,0,0,0,0,-1,1749,1079,0,0
532,-55,0,0,0,0,0,0,0,0,0,-1,1756,1079,0,0
539,-55,0,0,0,0,0,0,0,0,0,-1,1763,1079,0,0
546,-55,0,0,0,0,0,0,0,0,0,-1,1770,1079,0,0
553,-55,0,0,0,0,0,0,0,0,0,-1,1777,1079,0,0
560,-55,0,0,0,0,0,0,0,0,0,-1,1784,1079,0,0
567,-55,0,0,0,0,0,0,0,0,0,-1,1791,1079,0,0
574,-55,0,0,0,0,0,0,0,0,0,-1,1798,1079,0,0
581,-55,0,0,0,0,0,0,0,0,0,-1,1805,1079,0,0
588,-55,0,0,0,0,0,0,0,0,0,-1,1812,1079,0,0
595,-55,0,0,0,0,0,0,0,0,0,-1,1819,1079,0,0
602,-55,0,0,0,0,0,0,0,0,0,-1,1826,1079,0,0
609,-55,0,0,0,0,0,0,0,0,0,-1,1833,1079,0,0
616,-55,0,0,0,0,0,0,0,0,0,-1,1840,1079,0,0
623,-55,0,0,0,0,0,0,0,0,0,-1,1847,1079,0,0
630,-55,0,0,0,0,0,0,0,0,0,-1,1854,1079,0,0
637,-55,0,0,0,0,0,0,0,0,0,-1,1861,1079,0,0
644,-55,0,0,0,0,0,0,0,0,0,-1,1868,1079,0,0
651,-55,21.1781,2.99695,0.000542043,-0.000564646,0.00340158,0.00343499,-0.0034576,0.704768,0.00397945,0.0361744,1875,1079,21.1781,-2.99692
658,-55,21.1678,3.12012,-6.06238e-05,-0.000486121,0.00202146,0.00175925,-0.002306,0.732969,0.00235414,0.0335464,1882,1079,21.1679,-3.12013
665,-55,21.0044,3.18481,-0.000221998,-0.00036826,0.000954345,0.000662014,-0.00125227,0.747158,0.00112259,0.0380035,1889,1079,21.0044,-3.18487
672,-55,20.9125,3.18213,-0.000481001,-0.000493232,0.0013696,0.000882496,-0.00185673,0.783166,0.00161449,0.0388656,1896,1079,20.9125,-3.18211
679,-55,21.1033,2.95557,-0.000954547,-0.000769327,0.00284828,0.00198784,-0.00371172,0.80165,0.00334044,0.0375143,1903,1079,21.1032,-2.95558
686,-55,21.3536,2.61694,-0.00142423,-0.00109428,0.00451869,0.00326244,-0.00578095,0.803645,0.00528827,0.0376838,1910,1079,21.3537,-2.61697
693,-55,21.182,2.82568,-0.0018325,-0.00139804,0.00613584,0.00452441,-0.00775496,0.803093,0.00717081,0.0372911,1917,1079,21.1821,-2.82572
700,-55,21.1709,2.92261,-0.00216288,-0.00159852,0.00747019,0.00559481,-0.00935622,0.804276,0.00872257,0.0325431,1924,1079,21.1709,-2.92261
707,-55,21.1884,2.93298,-0.002487,-0.00174515,0.0083032,0.0061954,-0.0104276,0.80772,0.0097004,0.0240092,1931,1079,21.1884,-2.93302
714,-55,21.1965,3.00659,-0.00260661,-0.00177553,0.00881241,0.00663113,-0.0110133,0.808958,0.0102912,0.0299163,1938,1079,21.1966,-3.00655
721,-55,21.0953,3.7356,-0.00251515,-0.00166413,0.00891772,0.00683823,-0.0110175,0.809238,0.0104027,0.0398485,1945,1079,21.0954,-3.73556
728,-55,20.7174,4.33435,0,0,0,0,0,0,0,-1,1952,1079,20.7174,-4.33429
735,-55,20.675,4.30457,-0.00249942,-0.000900895,0.0079353,0.00627529,-0.00967561,0.83559,0.00927874,0.0170918,1959,1079,20.6751,-4.30454
742,-55,20.6783,4.27722,-0.00237248,-0.000179476,0.00663768,0.00545166,-0.00800362,0.867256,0.00781485,0.0156859,1966,1079,20.6784,-4.27726
749,-55,20.7086,4.22058,-0.0014472,0.000285198,0.00545222,0.0049396,-0.0061016,0.864175,0.0063864,0.0112832,1973,1079,20.7086,-4.22062
756,-55,20.7002,4.17957,0.000762907,0.000831818,0.00489862,0.0056961,-0.00410137,0.788915,0.0056815,0.010576,1980,1079,20.7002,-4.17951
763,-55,20.714,4.16223,0.003945,0.00134354,0.00446736,0.00729714,-0.0020086,0.643733,0.00565449,0.0137401,1987,1079,20.714,-4.16227
770,-55,20.7297,4.11023,0.00772857,0.00197186,0.00398149,0.00976318,-6.27525e-05,0.472422,0.0065298,0.0146091,1994,1079,20.7297,-4.11027
777,-55,20.6816,4.06543,0.0131449,0.00236329,0.00475359,0.0149414,0.000566783,0.361334,0.00977747,0.0116129,2001,1079,20.6816,-4.06538
784,-55,20.6385,3.87793,0.0205015,0.00220782,0.00763717,0.0232707,-0.000561339,0.347846,0.0157042,0.0259494,2008,1079,20.6385,-3.87794
791,-55,20.4139,3.27649,0.0302423,0.00164936,0.0117399,0.0344449,-0.00255321,0.34376,0.0238599,0.0386602,2015,1079,20.4139,-3.27654
798,-55,20.3994,2.64722,0.0434619,0.000466999,0.0174826,0.0496733,-0.00574443,0.341381,0.035187,0.046307,2022,1079,20.3994,-2.64725
805,-55,20.1135,5.71692,0.061074,-0.00149756,0.0252801,0.0700112,-0.0104347,0.339811,0.0505129,0.0486297,2029,1079,20.1136,-5.71696
812,-55,21.2944,6.07764,0.0840727,-0.00445701,0.0356684,0.0966551,-0.0170394,0.339132,0.0708033,0.0470993,2036,1079,21.2944,-6.07766
-700,-62,-13.3346,6.04126,-0.0134546,-0.0159111,-0.030419,0.0157609,-0.0451266,-0.765221,0.0364908,0.0484727,524,1086,-13.3346,-6.0412
-693,-62,-13.2978,5.13684,0,0,0,0,0,0,0,-1,531,1086,-13.2978,-5.1369
-686,-62,-13.1868,4.18518,-0.00123626,-0.000623629,-0.0282372,0.027309,-0.0291689,-0.790822,0.0326134,0.0485728,538,1086,-13.1868,-4.18521
-679,-62,-13.1487,3.30078,0.000846316,0.0032431,-0.024364,0.0264382,-0.0223487,-0.809972,0.0282001,0.0475347,545,1086,-13.1488,-3.30083
-672,-62,-13.3909,2.51697,0.00160163,0.00547518,-0.0200571,0.0236888,-0.0166119,-0.833531,0.0233869,0.0453473,552,1086,-13.3909,-2.51698
-665,-62,-12.7429,-0.131958,0,0,0,0,0,0,0,-1,559,1086,-12.7428,0.132016
-658,-62,-13.3146,0.99353,0.00128061,0.00662473,-0.0119649,0.0162123,-0.00830695,-0.895258,0.0143994,0.0470619,566,1086,-13.3146,-0.993555
-651,-62,-13.3886,1.30762,0.00083179,0.00612931,-0.00867541,0.0125513,-0.00559021,-0.933563,0.010728,0.0364248,573,1086,-13.3886,-1.30759
-644,-62,-13.3375,1.56177,0.00037452,0.00541273,-0.00634766,0.00972287,-0.00393563,-0.974294,0.00811827,0.0117698,580,1086,-13.3375,-1.56174
-637,-62,-13.3412,1.66016,0.000340141,0.00431982,-0.00581382,0.00847489,-0.00381493,-0.95028,0.00726356,0.0103993,587,1086,-13.3413,-1.66011
-630,-62,-13.3613,1.73169,-0.000967659,0.00290767,-0.00470319,0.00605671,-0.0041167,-0.980798,0.00590911,0.012052,594,1086,-13.3613,-1.73166
-623,-62,-13.3723,1.81299,-0.00201394,0.00185081,-0.00511693,0.00538809,-0.00555121,-0.965941,0.00631604,0.0132767,601,1086,-13.3723,-1.813
-616,-62,-13.3395,1.8772,-0.00293221,0.00062339,-0.00517116,0.00431382,-0.00662263,-0.950964,0.00636089,0.013134,608,1086,-13.3395,-1.87724
-609,-62,-13.3212,1.94775,-0.00336659,-0.000770645,-0.00599845,0.00406866,-0.00820589,-0.891948,0.00721966,0.0125338,615,1086,-13.3212,-1.9478
-602,-62,-13.322,2.02075,-0.00332142,-0.00139777,-0.00724316,0.00494715,-0.00966633,-0.851407,0.00858249,0.0132943,622,1086,-13.322,-2.02077
-595,-62,-13.2985,2.08972,-0.0035142,-0.001805,-0.00829606,0.00568036,-0.0109996,-0.836723,0.00979202,0.0174614,629,1086,-13.2985,-2.08968
-588,-62,-13.3829,1.6991,-0.00372267,-0.0020411,-0.00872795,0.00588647,-0.0116502,-0.833416,0.0103055,0.027924,636,1086,-13.3829,-1.69911
-581,-62,-13.6385,1.21094,-0.00364781,-0.00206163,-0.0086717,0.00585317,-0.0115626,-0.831,0.0102335,0.0342819,643,1086,-13.6385,-1.21097
-574,-62,-13.6617,1.21069,-0.00346079,-0.00194517,-0.00826051,0.00559222,-0.0109982,-0.831139,0.0097465,0.03571,650,1086,-13.6617,-1.21072
-567,-62,-13.6591,1.33936,-0.00302353,-0.00168408,-0.00730609,0.00498292,-0.00969052,-0.831104,0.00861582,0.0403338,657,1086,-13.6591,-1.33934
-560,-62,-13.8231,1.33325,-0.00229852,-0.00128096,-0.00583288,0.00406528,-0.00764477,-0.828901,0.00686528,0.0407108,664,1086,-13.8231,-1.3332
-553,-62,-13.7397,1.16187,-0.00132838,-0.000756636,-0.00391506,0.00288298,-0.004968,-0.821843,0.00458574,0.0366605,671,1086,-13.7398,-1.16184
-546,-62,-13.6549,1.05811,-0.000167294,-0.000145799,-0.0016239,0.00146738,-0.00178048,-0.788707,0.00187806,0.0315917,678,1086,-13.6549,-1.05814
-539,-62,-13.7269,0.981689,0.00103376,0.000483233,0.000514604,0.0013421,0.000174899,0.539808,0.000842505,0.0383155,685,1086,-13.7269,-0.981645
-532,-62,-13.7574,1.27979,0.00121937,0.000701623,0.000582417,0.00159786,0.000323139,0.57627,0.00097553,0.0403257,692,1086,-13.7574,-1.27973
-525,-62,0,0,0,0,0,0,0,0,0,-1,699,1086,0,0
-518,-62,0,0,0,0,0,0,0,0,0,-1,706,1086,0,0
-511,-62,0,0,0,0,0,0,0,0,0,-1,713,1086,0,0
-504,-62,0,0,0,0,0,0,0,0,0,-1,720,1086,0,0
-497,-62,0,0,0,0,0,0,0,0,0,-1,727,1086,0,0
-490,-62,0,0,0,0,0,0,0,0,0,-1,734,1086,0,0
-483,-62,0,0,0,0,0,0,0,0,0,-1,741,1086,0,0
-476,-62,0,0,0,0,0,0,0,0,0,-1,748,1086,0,0
-469,-62,0,0,0,0,0,0,0,0,0,-1,755,1086,0,0
-462,-62,0,0,0,0,0,0,0,0,0,-1,762,1086,0,0
-455,-62,0,0,0,0,0,0,0,0,0,-1,769,1086,0,0
-448,-62,0,0,0,0,0,0,0,0,0,-1,776,1086,0,0
-441,-62,0,0,0,0,0,0,0,0,0,-1,783,1086,0,0
-434,-62,0,0,0,0,0,0,0,0,0,-1,790,1086,0,0
-427,-62,0,0,0,0,0,0,0,0,0,-1,797,1086,0,0
-420,-62,0,0,0,0,0,0,0,0,0,-1,804,1086,0,0
-413,-62,0,0,0,0,0,0,0,0,0,-1,811,1086,0,0
-406,-62,0,0,0,0,0,0,0,0,0,-1,818,1086,0,0
-399,-62,0,0,0,0,0,0,0,0,0,-1,825,1086,0,0
-392,-62,0,0,0,0,0,0,0,0,0,-1,832,1086,0,0
-385,-62,0,0,0,0,0,0,0,0,0,-1,839,1086,0,0
-378,-62,0,0,0,0,0,0,0,0,0,-1,846,1086,0,0
-371,-62,0,0,0,0,0,0,0,0,0,-1,853,1086,0,0
-364,-62,0,0,0,0,0,0,0,0,0,-1,860,1086,0,0
-357,-62,0,0,0,0,0,0,0,0,0,-1,867,1086,0,0
-350,-62,0,0,0,0,0,0,0,0,0,-1,874,1086,0,0
-343,-62,0,0,0,0,0,0,0,0,0,-1,881,1086,0,0
-336,-62,0,0,0,0,0,0,0,0,0,-1,888,1086,0,0
-329,-62,0,0,0,0,0,0,0,0,0,-1,895,1086,0,0
-322,-62,0,0,0,0,0,0,0,0,0,-1,902,1086,0,0
-315,-62,0,0,0,0,0,0,0,0,0,-1,909,1086,0,0
-308,-62,0,0,0,0,0,0,0,0,0,-1,916,1086,0,0
-301,-62,0,0,0,0,0,0,0,0,0,-1,923,1086,0,0
-294,-62,0,0,0,0,0,0,0,0,0,-1,930,1086,0,0
-287,-62,0,0,0,0,0,0,0,0,0,-1,937,1086,0,0
-280,-62,0,0,0,0,0,0,0,0,0,-1,944,1086,0,0
-273,-62,0,0,0,0,0,0,0,0,0,-1,951,1086,0,0
-266,-62,0,0,0,0,0,0,0,0,0,-1,958,1086,0,0
-259,-62,0,0,0,0,0,0,0,0,0,-1,965,1086,0,0
-252,-62,0,0,0,0,0,0,0,0,0,-1,972,1086,0,0
-245,-62,0,0,0,0,0,0,0,0,0,-1,979,1086,0,0
-238,-62,0,0,0,0,0,0,0,0,0,-1,986,1086,0,0
-231,-62,0,0,0,0,0,0,0,0,0,-1,993,1086,0,0
-224,-62,0,0,0,0,0,0,0,0,0,-1,1000,1086,0,0
-217,-62,0,0,0,0,0,0,0,0,0,-1,1007,1086,0,0
-210,-62,0,0,0,0,0,0,0,0,0,-1,1014,1086,0,0
-203,-62,0,0,0,0,0,0,0,0,0,-1,1021,1086,0,0
-196,-62,0,0,0,0,0,0,0,0,0,-1,1028,1086,0,0
-189,-62,0,0,0,0,0,0,0,0,0,-1,1035,1086,0,0
-182,-62,0,0,0,0,0,0,0,0,0,-1,1042,1086,0,0
-175,-62,0,0,0,0,0,0,0,0,0,-1,1049,1086,0,0
-168,-62,0,0,0,0,0,0,0,0,0,-1,1056,1086,0,0
-161,-62,0,0,0,0,0,0,0,0,0,-1,1063,1086,0,0
-154,-62,0,0,0,0,0,0,0,0,0,-1,1070,1086,0,0
-147,-62,0,0,0,0,0,0,0,0,0,-1,1077,1086,0,0
-140,-62,0,0,0,0,0,0,0,0,0,-1,1084,1086,0,0
-133,-62,0,0,0,0,0,0,0,0,0,-1,1091,1086,0,0
-126,-62,0,0,0,0,0,0,0,0,0,-1,1098,1086,0,0
-119,-62,0,0,0,0,0,0,0,0,0,-1,1105,1086,0,0
-112,-62,0,0,0,0,0,0,0,0,0,-1,1112,1086,0,0
-105,-62,0,0,0,0,0,0,0,0,0,-1,1119,1086,0,0
-98,-62,0,0,0,0,0,0,0,0,0,-1,1126,1086,0,0
-91,-62,0,0,0,0,0,0,0,0,0,-1,1133,1086,0,0
-84,-62,0,0,0,0,0,0,0,0,0,-1,1140,1086,0,0
-77,-62,0,0,0,0,0,0,0,0,0,-1,1147,1086,0,0
-70,-62,0,0,0,0,0,0,0,0,0,-1,1154,1086,0,0
-63,-62,0,0,0,0,0,0,0,0,0,-1,1161,1086,0,0
-56,-62,0,0,0,0,0,0,0,0,0,-1,1168,1086,0,0
-49,-62,0,0,0,0,0,0,0,0,0,-1,1175,1086,0,0
-42,-62,0,0,0,0,0,0,0,0,0,-1,1182,1086,0,0
-35,-62,0,0,0,0,0,0,0,0,0,-1,1189,1086,0,0
-28,-62,0,0,0,0,0,0,0,0,0,-1,1196,1086,0,0
-21,-62,0,0,0,0,0,0,0,0,0,-1,1203,1086,0,0
-14,-62,0,0,0,0,0,0,0,0,0,-1,1210,1086,0,0
-7,-62,0,0,0,0,0,0,0,0,0,-1,1217,1086,0,0
0,-62,0,0,0,0,0,0,0,0,0,-1,1224,1086,0,0
7,-62,0,0,0,0,0,0,0,0,0,-1,1231,1086,0,0
14,-62,0,0,0,0,0,0,0,0,0,-1,1238,1086,0,0
21,-62,0,0,0,0,0,0,0,0,0,-1,1245,1086,0,0
28,-62,0,0,0,0,0,0,0,0,0,-1,1252,1086,0,0
35,-62,0,0,0,0,0,0,0,0,0,-1,1259,1086,0,0
42,-62,0,0,0,0,0,0,0,0,0,-1,1266,1086,0,0
49,-62,0,0,0,0,0,0,0,0,0,-1,1273,1086,0,0
56,-62,0,0,0,0,0,0,0,0,0,-1,1280,1086,0,0
63,-62,0,0,0,0,0,0,0,0,0,-1,1287,1086,0,0
70,-62,0,0,0,0,0,0,0,0,0,-1,1294,1086,0,0
77,-62,0,0,0,0,0,0,0,0,0,-1,1301,1086,0,0
84,-62,0,0,0,0,0,0,0,0,0,-1,1308,1086,0,0
91,-62,0,0,0,0,0,0,0,0,0,-1,1315,1086,0,0
98,-62,0,0,0,0,0,0,0,0,0,-1,1322,1086,0,0
105,-62,0,0,0,0,0,0,0,0,0,-1,1329,1086,0,0
112,-62,0,0,0,0,0,0,0,0,0,-1,1336,1086,0,0
119,-62,0,0,0,0,0,0,0,0,0,-1,1343,1086,0,0
126,-62,0,0,0,0,0,0,0,0,0,-1,1350,1086,0,0
133,-62,0,0,0,0,0,0,0,0,0,-1,1357,1086,0,0
140,-62,0,0,0,0,0,0,0,0,0,-1,1364,1086,0,0
147,-62,0,0,0,0,0,0,0,0,0,-1,1371,1086,0,0
154,-62,0,0,0,0,0,0,0,0,0,-1,1378,1086,0,0
161,-62,0,0,0,0,0,0,0,0,0,-1,1385,1086,0,0
168,-62,0,0,0,0,0,0,0,0,0,-1,1392,1086,0,0
175,-62,0,0,0,0,0,0,0,0,0,-1,1399,1086,0,0
182,-62,0,0,0,0,0,0,0,0,0,-1,1406,1086,0,0
189,-62,0,0,0,0,0,0,0,0,0,-1,1413,1086,0,0
196,-62,0,0,0,0,0,0,0,0,0,-1,1420,1086,0,0
203,-62,0,0,0,0,0,0,0,0,0,-1,1427,1086,0,0
210,-62,0,0,0,0,0,0,0,0,0,-1,1434,1086,0,0
217,-62,0,0,0,0,0,0,0,0,0,-1,1441,1086,0,0
224,-62,0,0,0,0,0,0,0,0,0,-1,1448,1086,0,0
231,-62,0,0,0,0,0,0,0,0,0,-1,1455,1086,0,0
238,-62,0,0,0,0,0,0,0,0,0,-1,1462,1086,0,0
245,-62,0,0,0,0,0,0,0,0,0,-1,1469,1086,0,0
252,-62,0,0,0,0,0,0,0,0,0,-1,1476,1086,0,0
259,-62,0,0,0,0,0,0,0,0,0,-1,1483,1086,0,0
266,-62,0,0,0,0,0,0,0,0,0,-1,1490,1086,0,0
273,-62,0,0,0,0,0,0,0,0,0,-1,1497,1086,0,0
280,-62,0,0,0,0,0,0,0,0,0,-1,1504,1086,0,0
287,-62,0,0,0,0,0,0,0,0,0,-1,1511,1086,0,0
294,-62,0,0,0,0,0,0,0,0,0,-1,1518,1086,0,0
301,-62,0,0,0,0,0,0,0,0,0,-1,1525,1086,0,0
308,-62,0,0,0,0,0,0,0,0,0,-1,1532,1086,0,0
315,-62,0,0,0,0,0,0,0,0,0,-1,1539,1086,0,0
322,-62,0,0,0,0,0,0,0,0,0,-1,1546,1086,0,0
329,-62,0,0,0,0,0,0,0,0,0,-1,1553,1086,0,0
336,-62,0,0,0,0,0,0,0,0,0,-1,1560,1086,0,0
343,-62,0,0,0,0,0,0,0,0,0,-1,1567,1086,0,0
350,-62,0,0,0,0,0,0,0,0,0,-1,1574,1086,0,0
357,-62,0,0,0,0,0,0,0,0,0,-1,1581,1086,0,0
364,-62,0,0,0,0,0,0,0,0,0,-1,1588,1086,0,0
371,-62,0,0,0,0,0,0,0,0,0,-1,1595,1086,0,0
378,-62,0,0,0,0,0,0,0,0,0,-1,1602,1086,0,0
385,-62,0,0,0,0,0,0,0,0,0,-1,1609,1086,0,0
392,-62,0,0,0,0,0,0,0,0,0,-1,1616,1086,0,0
399,-62,0,0,0,0,0,0,0,0,0,-1,1623,1086,0,0
406,-62,0,0,0,0,0,0,0,0,0,-1,1630,1086,0,0
413,-62,0,0,0,0,0,0,0,0,0,-1,1637,1086,0,0
420,-62,0,0,0,0,0,0,0,0,0,-1,1644,1086,0,0
427,-62,0,0,0,0,0,0,0,0,0,-1,1651,1086,0,0
434,-62,0,0,0,0,0,0,0,0,0,-1,1658,1086,0,0
441,-62,0,0,0,0,0,0,0,0,0,-1,1665,1086,0,0
448,-62,0,0,0,0,0,0,0,0,0,-1,1672,1086,0,0
455,-62,0,0,0,0,0,0,0,0,0,-1,1679,1086,0,0
462,-62,0,0,0,0,0,0,0,0,0,-1,1686,1086,0,0
469,-62,0,0,0,0,0,0,0,0,0,-1,1693,1086,0,0
476,-62,0,0,0,0,0,0,0,0,0,-1,1700,1086,0,0
483,-62,0,0,0,0,0,0,0,0,0,-1,1707,1086,0,0
490,-62,0,0,0,0,0,0,0,0,0,-1,1714,1086,0,0
497,-62,0,0,0,0,0,0,0,0,0,-1,1721,1086,0,0
504,-62,0,0,0,0,0,0,0,0,0,-1,1728,1086,0,0
511,-62,0,0,0,0,0,0,0,0,0,-1,1735,1086,0,0
518,-62,0,0,0,0,0,0,0,0,0,-1,1742,1086,0,0
525,-62,0,0,0,0,0,0,0,0,0,-1,1749,1086,0,0
532,-62,0,0,0,0,0,0,0,0,0,-1,1756,1086,0,0
539,-62,0,0,0,0,0,0,0,0,0,-1,1763,1086,0,0
546,-62,0,0,0,0,0,0,0,0,0,-1,1770,1086,0,0
553,-62,0,0,0,0,0,0,0,0,0,-1,1777,1086,0,0
560,-62,0,0,0,0,0,0,0,0,0,-1,1784,1086,0,0
567,-62,0,0,0,0,0,0,0,0,0,-1,1791,1086,0,0
574,-62,0,0,0,0,0,0,0,0,0,-1,1798,1086,0,0
581,-62,0,0,0,0,0,0,0,0,0,-1,1805,1086,0,0
588,-62,0,0,0,0,0,0,0,0,0,-1,1812,1086,0,0
595,-62,0,0,0,0,0,0,0,0,0,-1,1819,1086,0,0
602,-62,0,0,0,0,0,0,0,0,0,-1,1826,1086,0,0
609,-62,0,0,0,0,0,0,0,0,0,-1,1833,1086,0,0
616,-62,0,0,0,0,0,0,0,0,0,-1,1840,1086,0,0
623,-62,0,0,0,0,0,0,0,0,0,-1,1847,1086,0,0
630,-62,0,0,0,0,0,0,0,0,0,-1,1854,1086,0,0
637,-62,0,0,0,0,0,0,0,0,0,-1,1861,1086,0,0
644,-62,0,0,0,0,0,0,0,0,0,-1,1868,1086,0,0
651,-62,21.0573,2.82202,0.00156838,-0.000465151,0.00329678,0.00400163,-0.0028984,0.635821,0.00400067,0.040058,1875,1086,21.0572,-2.82201
658,-62,21.311,3.02734,0.00085495,-0.000259754,0.00190572,0.00228315,-0.00168795,0.643134,0.00230128,0.0385096,1882,1086,21.311,-3.0273
665,-62,21.2434,3.04761,0.000484925,-9.02062e-05,0.000931317,0.00117206,-0.000777344,0.635655,0.00113315,0.0370497,1889,1086,21.2434,-3.04755
672,-62,21.1238,2.98718,-0.0001054,-0.000298832,0.00154726,0.00134816,-0.00175239,0.754185,0.00179517,0.0357132,1896,1086,21.1238,-2.98723
679,-62,21.2697,2.81348,-0.000921924,-0.000703987,0.00318041,0.00236932,-0.00399523,0.802523,0.00371433,0.0357917,1903,1086,21.2696,-2.81354
686,-62,21.3738,2.61877,-0.00167405,-0.00116423,0.00497145,0.00355884,-0.00639712,0.811013,0.00582542,0.0384201,1910,1086,21.3738,-2.61879
693,-62,21.1925,2.88342,-0.00230674,-0.0015899,0.00668274,0.00474402,-0.00864066,0.812189,0.00783605,0.0382717,1917,1086,21.1925,-2.88347
700,-62,21.139,2.98071,-0.00279909,-0.00187693,0.00807545,0.00575059,-0.0104266,0.813915,0.00946907,0.0303344,1924,1086,21.139,-2.98067
707,-62,21.1423,2.92908,-0.00320926,-0.00207555,0.00894258,0.00631812,-0.0116029,0.81705,0.0104956,0.0200307,1931,1086,21.1424,-2.92902
714,-62,21.1969,2.9375,-0.00335677,-0.00215771,0.00945514,0.00671689,-0.0122314,0.81706,0.0110931,0.0241536,1938,1086,21.1969,-2.93753
721,-62,21.234,3.74023,-0.00323308,-0.00208004,0.00952546,0.00688632,-0.0121995,0.815623,0.0111606,0.0371388,1945,1086,21.234,-3.74025
728,-62,20.673,4.34705,0,0,0,0,0,0,0,-1,1952,1086,20.673,-4.34705
735,-62,20.6555,4.28345,-0.00306463,-0.00129702,0.00833986,0.00620573,-0.0105674,0.838188,0.00979249,0.0172702,1959,1086,20.6555,-4.2834
742,-62,20.6543,4.27368,-0.00284837,-0.000576132,0.00688551,0.00526636,-0.00869086,0.867162,0.00813865,0.0139704,1966,1086,20.6542,-4.27373
749,-62,20.6448,4.21118,-0.00188237,-6.96235e-05,0.00549171,0.00459,-0.00654199,0.867183,0.00645991,0.0123482,1973,1086,20.6447,-4.21114
756,-62,20.6083,4.19714,0.000208556,0.000405978,0.00468953,0.00499783,-0.0043833,0.795921,0.00542007,0.0137131,1980,1086,20.6083,-4.19716
763,-62,20.6362,4.15222,0.00310931,0.000873948,0.00394989,0.00609661,-0.00211335,0.64752,0.00492248,0.013774,1987,1086,20.6363,-4.15226
770,-62,20.657,4.08704,0.00652646,0.00143032,0.00310486,0.00799495,-3.81721e-05,0.441788,0.00534274,0.0109427,1994,1086,20.657,-4.08709
777,-62,20.6133,4.01111,0.0112594,0.0016418,0.00354794,0.0124266,0.000474609,0.317824,0.0081308,0.0124493,2001,1086,20.6132,-4.01107
784,-62,20.5642,3.79175,0.017585,0.00124046,0.00604546,0.019578,-0.00075258,0.318455,0.01331,0.0254741,2008,1086,20.5643,-3.7918
791,-62,20.4648,3.37561,0.0260492,0.000387299,0.00973918,0.0293268,-0.00289029,0.32463,0.0205824,0.0407569,2015,1086,20.4649,-3.37564
798,-62,20.4725,2.88782,0.0375988,-0.00112828,0.0150564,0.0427636,-0.00629313,0.330455,0.0308217,0.0454543,2022,1086,20.4725,-2.88782
805,-62,20.4487,2.57703,0,0,0,0,0,0,0,-1,2029,1086,20.4486,-2.57702
812,-62,20.7007,6.1947,0,0,0,0,0,0,0,-1,2036,1086,20.7007,-6.19467
-700,-69,-13.5444,6.34802,0,0,0,0,0,0,0,-1,524,1093,-13.5444,-6.34802
-693,-69,-9.47418,0.708374,0,0,0,0,0,0,0,-1,531,1093,-9.4742,-0.708313
-686,-69,-10.0757,0.888794,0,0,0,0,0,0,0,-1,538,1093,-10.0757,-0.888783
-679,-69,-12.8262,3.32629,-0.00350737,0.0041234,-0.0214243,0.0220694,-0.0214534,-0.873518,0.0251287,0.0499741,545,1093,-12.8262,-3.32632
-672,-69,-12.4235,2.72644,-0.00138236,0.0062552,-0.0178354,0.0206761,-0.0158033,-0.890862,0.0211239,0.0473739,552,1093,-12.4234,-2.7265
-665,-69,-12.5439,2.2373,0,0,0,0,0,0,0,-1,559,1093,-12.5439,-2.23734
-658,-69,-13.0441,1.60828,4.72627e-05,0.00714521,-0.0108018,0.0149661,-0.00777361,-0.94412,0.0133459,0.0444352,566,1093,-13.0441,-1.60828
-651,-69,-13.2679,1.52905,0.000109647,0.00652706,-0.00787209,0.0118193,-0.00518256,-0.978921,0.0100622,0.0317557,573,1093,-13.268,-1.52905
-644,-69,-13.2468,1.5708,-2.68128e-05,0.00569256,-0.00577637,0.00927836,-0.00361261,-1.01524,0.00767848,0.00913662,580,1093,-13.2468,-1.57076
-637,-69,-13.2782,1.66589,0.000202014,0.00454335,-0.0054599,0.00824825,-0.00350289,-0.974601,0.00696648,0.010817,587,1093,-13.2782,-1.6659
-630,-69,-13.2974,1.71863,-0.000974351,0.00308417,-0.00457926,0.00606366,-0.00395383,-0.993966,0.0058262,0.0132917,594,1093,-13.2974,-1.71864
-623,-69,-13.2781,1.79736,-0.00197344,0.00192005,-0.00507112,0.00540526,-0.00545864,-0.968668,0.0062723,0.0119695,601,1093,-13.2781,-1.79733
-616,-69,-13.2576,1.86316,-0.00307299,0.000612858,-0.00521883,0.0043046,-0.00676474,-0.955128,0.00644328,0.0121623,608,1093,-13.2576,-1.86315
-609,-69,-13.2395,1.91406,-0.00370953,-0.000780717,-0.00606855,0.00399762,-0.00848786,-0.90379,0.00736225,0.0117902,615,1093,-13.2395,-1.91402
-602,-69,-13.2351,2.02808,-0.00374271,-0.00136986,-0.00733565,0.00487469,-0.00998726,-0.865571,0.00874815,0.0149796,622,1093,-13.2351,-2.02813
-595,-69,-13.2244,2.09338,-0.00397706,-0.00176916,-0.00843108,0.00562993,-0.0113762,-0.850497,0.0100036,0.019489,629,1093,-13.2245,-2.09337
-588,-69,-13.3621,1.8479,-0.00419464,-0.00198975,-0.00892378,0.00589943,-0.0120838,-0.846857,0.0105853,0.0265027,636,1093,-13.3621,-1.84795
-581,-69,-13.5673,1.37927,-0.00409144,-0.00199394,-0.00894282,0.00596142,-0.0120468,-0.843768,0.0105931,0.03221,643,1093,-13.5673,-1.37931
-574,-69,-13.6656,1.10596,-0.00387724,-0.00185391,-0.00861501,0.00580863,-0.0115398,-0.843846,0.0101967,0.0325275,650,1093,-13.6656,-1.1059
-567,-69,-13.778,1.1626,-0.00336732,-0.00158771,-0.00776117,0.00533449,-0.0102895,-0.842473,0.0091705,0.0369338,657,1093,-13.778,-1.16258
-560,-69,-13.8405,1.22693,-0.00252912,-0.00118243,-0.006405,0.00458453,-0.00829608,-0.83777,0.00753883,0.0401768,664,1093,-13.8405,-1.22693
-553,-69,-13.7013,1.21411,-0.00140722,-0.000660106,-0.00462279,0.0036042,-0.00567152,-0.825714,0.00539949,0.039291,671,1093,-13.7013,-1.21411
-546,-69,-13.611,1.09509,-4.67369e-05,-4.80127e-05,-0.00248314,0.00243576,-0.00253051,-0.78527,0.00286745,0.0352075,678,1093,-13.611,-1.09513
-539,-69,-13.6304,1.08496,0.00141156,0.000598217,-0.000450267,0.00161162,0.000398158,-0.418115,0.000969344,0.0395828,685,1093,-13.6303,-1.08493
-532,-69,-13.5428,1.17676,0.00180273,0.000818803,-0.000458903,0.00198354,0.000637996,-0.375322,0.00116923,0.0415998,692,1093,-13.5428,-1.17677
-525,-69,0,0,0,0,0,0,0,0,0,-1,699,1093,0,0
-518,-69,0,0,0,0,0,0,0,0,0,-1,706,1093,0,0
-511,-69,0,0,0,0,0,0,0,0,0,-1,713,1093,0,0
-504,-69,0,0,0,0,0,0,0,0,0,-1,720,1093,0,0
-497,-69,0,0,0,0,0,0,0,0,0,-1,727,1093,0,0
-490,-69,0,0,0,0,0,0,0,0,0,-1,734,1093,0,0
-483,-69,0,0,0,0,0,0,0,0,0,-1,741,1093,0,0
-476,-69,0,0,0,0,0,0,0,0,0,-1,748,1093,0,0
-469,-69,0,0,0,0,0,0,0,0,0,-1,755,1093,0,0
-462,-69,0,0,0,0,0,0,0,0,0,-1,762,1093,0,0
-455,-69,0,0,0,0,0,0,0,0,0,-1,769,1093,0,0
-448,-69,0,0,0,0,0,0,0,0,0,-1,776,1093,0,0
-441,-69,0,0,0,0,0,0,0,0,0,-1,783,1093,0,0
-434,-69,0,0,0,0,0,0,0,0,0,-1,790,1093,0,0
-427,-69,0,0,0,0,0,0,0,0,0,-1,797,1093,0,0
-420,-69,0,0,0,0,0,0,0,0,0,-1,804,1093,0,0
-413,-69,0,0,0,0,0,0,0,0,0,-1,811,1093,0,0
-406,-69,0,0,0,0,0,0,0,0,0,-1,818,1093,0,0
-399,-69,0,0,0,0,0,0,0,0,0,-1,825,1093,0,0
-392,-69,0,0,0,0,0,0,0,0,0,-1,832,1093,0,0
-385,-69,0,0,0,0,0,0,0,0,0,-1,839,1093,0,0
-378,-69,0,0,0,0,0,0,0,0,0,-1,846,1093,0,0
-371,-69,0,0,0,0,0,0,0,0,0,-1,853,1093,0,0
-364,-69,0,0,0,0,0,0,0,0,0,-1,860,1093,0,0
-357,-69,0,0,0,0,0,0,0,0,0,-1,867,1093,0,0
-350,-69,0,0,0,0,0,0,0,0,0,-1,874,1093,0,0
-343,-69,0,0,0,0,0,0,0,0,0,-1,881,1093,0,0
-336,-69,0,0,0,0,0,0,0,0,0,-1,888,1093,0,0
-329,-69,0,0,0,0,0,0,0,0,0,-1,895,1093,0,0
-322,-69,0,0,0,0,0,0,0,0,0,-1,902,1093,0,0
-315,-69,0,0,0,0,0,0,0,0,0,-1,909,1093,0,0
-308,-69,0,0,0,0,0,0,0,0,0,-1,916,1093,0,0
-301,-69,0,0,0,0,0,0,0,0,0,-1,923,1093,0,0
-294,-69,0,0,0,0,0,0,0,0,0,-1,930,1093,0,0
-287,-69,0,0,0,0,0,0,0,0,0,-1,937,1093,0,0
-280,-69,0,0,0,0,0,0,0,0,0,-1,944,1093,0,0
-273,-69,0,0,0,0,0,0,0,0,0,-1,951,1093,0,0
-266,-69,0,0,0,0,0,0,0,0,0,-1,958,1093,0,0
-259,-69,0,0,0,0,0,0,0,0,0,-1,965,1093,0,0
-252,-69,0,0,0,0,0,0,0,0,0,-1,972,1093,0,0
-245,-69,0,0,0,0,0,0,0,0,0,-1,979,1093,0,0
-238,-69,0,0,0,0,0,0,0,0,0,-1,986,1093,0,0
-231,-69,0,0,0,0,0,0,0,0,0,-1,993,1093,0,0
-224,-69,0,0,0,0,0,0,0,0,0,-1,1000,1093,0,0
-217,-69,0,0,0,0,0,0,0,0,0,-1,1007,1093,0,0
-210,-69,0,0,0,0,0,0,0,0,0,-1,1014,1093,0,0
-203,-69,0,0,0,0,0,0,0,0,0,-1,1021,1093,0,0
-196,-69,0,0,0,0,0,0,0,0,0,-1,1028,1093,0,0
-189,-69,0,0,0,0,0,0,0,0,0,-1,1035,1093,0,0
-182,-69,0,0,0,0,0,0,0,0,0,-1,1042,1093,0,0
-175,-69,0,0,0,0,0,0,0,0,0,-1,1049,1093,0,0
-168,-69,0,0,0,0,0,0,0,0,0,-1,1056,1093,0,0
-161,-69,0,0,0,0,0,0,0,0,0,-1,1063,1093,0,0
-154,-69,0,0,0,0,0,0,0,0,0,-1,1070,1093,0,0
-147,-69,0,0,0,0,0,0,0,0,0,-1,1077,1093,0,0
-140,-69,0,0,0,0,0,0,0,0,0,-1,1084,1093,0,0
-133,-69,0,0,0,0,0,0,0,0,0,-1,1091,1093,0,0
-126,-69,0,0,0,0,0,0,0,0,0,-1,1098,1093,0,0
-119,-69,0,0,0,0,0,0,0,0,0,-1,1105,1093,0,0
-112,-69,0,0,0,0,0,0,0,0,0,-1,1112,1093,0,0
-105,-69,0,0,0,0,0,0,0,0,0,-1,1119,1093,0,0
-98,-69,0,0,0,0,0,0,0,0,0,-1,1126,1093,0,0
-91,-69,0,0,0,0,0,0,0,0,0,-1,1133,1093,0,0
-84,-69,0,0,0,0,0,0,0,0,0,-1,1140,1093,0,0
-77,-69,0,0,0,0,0,0,0,0,0,-1,1147,1093,0,0
-70,-69,0,0,0,0,0,0,0,0,0,-1,1154,1093,0,0
-63,-69,0,0,0,0,0,0,0,0,0,-1,1161,1093,0,0
-56,-69,0,0,0,0,0,0,0,0,0,-1,1168,1093,0,0
-49,-69,0,0,0,0,0,0,0,0,0,-1,1175,1093,0,0
-42,-69,0,0,0,0,0,0,0,0,0,-1,1182,1093,0,0
-35,-69,0,0,0,0,0,0,0,0,0,-1,1189,1093,0,0
-28,-69,0,0,0,0,0,0,0,0,0,-1,1196,1093,0,0
-21,-69,0,0,0,0,0,0,0,0,0,-1,1203,1093,0,0
-14,-69,0,0,0,0,0,0,0,0,0,-1,1210,1093,0,0
-7,-69,0,0,0,0,0,0,0,0,0,-1,1217,1093,0,0
0,-69,0,0,0,0,0,0,0,0,0,-1,1224,1093,0,0
7,-69,0,0,0,0,0,0,0,0,0,-1,1231,1093,0,0
14,-69,0,0,0,0,0,0,0,0,0,-1,1238,1093,0,0
21,-69,0,0,0,0,0,0,0,0,0,-1,1245,1093,0,0
28,-69,0,0,0,0,0,0,0,0,0,-1,1252,1093,0,0
35,-69,0,0,0,0,0,0,0,0,0,-1,1259,1093,0,0
42,-69,0,0,0,0,0,0,0,0,0,-1,1266,1093,0,0
49,-69,0,0,0,0,0,0,0,0,0,-1,1273,1093,0,0
56,-69,0,0,0,0,0,0,0,0,0,-1,1280,1093,0,0
63,-69,0,0,0,0,0,0,0,0,0,-1,1287,1093,0,0
70,-69,0,0,0,0,0,0,0,0,0,-1,1294,1093,0,0
77,-69,0,0,0,0,0,0,0,0,0,-1,1301,1093,0,0
84,-69,0,0,0,0,0,0,0,0,0,-1,1308,1093,0,0
91,-69,0,0,0,0,0,0,0,0,0,-1,1315,1093,0,0
98,-69,0,0,0,0,0,0,0,0,0,-1,1322,1093,0,0
105,-69,0,0,0,0,0,0,0,0,0,-1,1329,1093,0,0
112,-69,0,0,0,0,0,0,0,0,0,-1,1336,1093,0,0
119,-69,0,0,0,0,0,0,0,0,0,-1,1343,1093,0,0
126,-69,0,0,0,0,0,0,0,0,0,-1,1350,1093,0,0
133,-69,0,0,0,0,0,0,0,0,0,-1,1357,1093,0,0
140,-69,0,0,0,0,0,0,0,0,0,-1,1364,1093,0,0
147,-69,0,0,0,0,0,0,0,0,0,-1,1371,1093,0,0
154,-69,0,0,0,0,0,0,0,0,0,-1,1378,1093,0,0
161,-69,0,0,0,0,0,0,0,0,0,-1,1385,1093,0,0
168,-69,0,0,0,0,0,0,0,0,0,-1,1392,1093,0,0
175,-69,0,0,0,0,0,0,0,0,0,-1,1399,1093,0,0
182,-69,0,0,0,0,0,0,0,0,0,-1,1406,1093,0,0
189,-69,0,0,0,0,0,0,0,0,0,-1,1413,1093,0,0
196,-69,0,0,0,0,0,0,0,0,0,-1,1420,1093,0,0
203,-69,0,0,0,0,0,0,0,0,0,-1,1427,1093,0,0
210,-69,0,0,0,0,0,0,0,0,0,-1,1434,1093,0,0
217,-69,0,0,0,0,0,0,0,0,0,-1,1441,1093,0,0
224,-69,0,0,0,0,0,0,0,0,0,-1,1448,1093,0,0
231,-69,0,0,0,0,0,0,0,0,0,-1,1455,1093,0,0
238,-69,0,0,0,0,0,0,0,0,0,-1,1462,1093,0,0
245,-69,0,0,0,0,0,0,0,0,0,-1,1469,1093,0,0
252,-69,0,0,0,0,0,0,0,0,0,-1,1476,1093,0,0
259,-69,0,0,0,0,0,0,0,0,0,-1,1483,1093,0,0
266,-69,0,0,0,0,0,0,0,0,0,-1,1490,1093,0,0
273,-69,0,0,0,0,0,0,0,0,0,-1,1497,1093,0,0
280,-69,0,0,0,0,0,0,0,0,0,-1,1504,1093,0,0
287,-69,0,0,0,0,0,0,0,0,0,-1,1511,1093,0,0
294,-69,0,0,0,0,0,0,0,0,0,-1,1518,1093,0,0
301,-69,0,0,0,0,0,0,0,0,0,-1,1525,1093,0,0
308,-69,0,0,0,0,0,0,0,0,0,-1,1532,1093,0,0
315,-69,0,0,0,0,0,0,0,0,0,-1,1539,1093,0,0
322,-69,0,0,0,0,0,0,0,0,0,-1,1546,1093,0,0
329,-69,0,0,0,0,0,0,0,0,0,-1,1553,1093,0,0
336,-69,0,0,0,0,0,0,0,0,0,-1,1560,1093,0,0
343,-69,0,0,0,0,0,0,0,0,0,-1,1567,1093,0,0
350,-69,0,0,0,0,0,0,0,0,0,-1,1574,1093,0,0
357,-69,0,0,0,0,0,0,0,0,0,-1,1581,1093,0,0
364,-69,0,0,0,0,0,0,0,0,0,-1,1588,1093,0,0
371,-69,0,0,0,0,0,0,0,0,0,-1,1595,1093,0,0
378,-69,0,0,0,0,0,0,0,0,0,-1,1602,1093,0,0
385,-69,0,0,0,0,0,0,0,0,0,-1,1609,1093,0,0
392,-69,0,0,0,0,0,0,0,0,0,-1,1616,1093,0,0
399,-69,0,0,0,0,0,0,0,0,0,-1,1623,1093,0,0
406,-69,0,0,0,0,0,0,0,0,0,-1,1630,1093,0,0
413,-69,0,0,0,0,0,0,0,0,0,-1,1637,1093,0,0
420,-69,0,0,0,0,0,0,0,0,0,-1,1644,1093,0,0
427,-69,0,0,0,0,0,0,0,0,0,-1,1651,1093,0,0
434,-69,0,0,0,0,0,0,0,0,0,-1,1658,1093,0,0
441,-69,0,0,0,0,0,0,0,0,0,-1,1665,1093,0,0
448,-69,0,0,0,0,0,0,0,0,0,-1,1672,1093,0,0
455,-69,0,0,0,0,0,0,0,0,0,-1,1679,1093,0,0
462,-69,0,0,0,0,0,0,0,0,0,-1,1686,1093,0,0
469,-69,0,0,0,0,0,0,0,0,0,-1,1693,1093,0,0
476,-69,0,0,0,0,0,0,0,0,0,-1,1700,1093,0,0
483,-69,0,0,0,0,0,0,0,0,0,-1,1707,1093,0,0
490,-69,0,0,0,0,0,0,0,0,0,-1,1714,1093,0,0
497,-69,0,0,0,0,0,0,0,0,0,-1,1721,1093,0,0
504,-69,0,0,0,0,0,0,0,0,0,-1,1728,1093,0,0
511,-69,0,0,0,0,0,0,0,0,0,-1,1735,1093,0,0
518,-69,0,0,0,0,0,0,0,0,0,-1,1742,1093,0,0
525,-69,0,0,0,0,0,0,0,0,0,-1,1749,1093,0,0
532,-69,0,0,0,0,0,0,0,0,0,-1,1756,1093,0,0
539,-69,0,0,0,0,0,0,0,0,0,-1,1763,1093,0,0
546,-69,0,0,0,0,0,0,0,0,0,-1,1770,1093,0,0
553,-69,0,0,0,0,0,0,0,0,0,-1,1777,1093,0,0
560,-69,0,0,0,0,0,0,0,0,0,-1,1784,1093,0,0
567,-69,0,0,0,0,0,0,0,0,0,-1,1791,1093,0,0
574,-69,0,0,0,0,0,0,0,0,0,-1,1798,1093,0,0
581,-69,0,0,0,0,0,0,0,0,0,-1,1805,1093,0,0
588,-69,0,0,0,0,0,0,0,0,0,-1,1812,1093,0,0
595,-69,0,0,0,0,0,0,0,0,0,-1,1819,1093,0,0
602,-69,0,0,0,0,0,0,0,0,0,-1,1826,1093,0,0
609,-69,0,0,0,0,0,0,0,0,0,-1,1833,1093,0,0
616,-69,0,0,0,0,0,0,0,0,0,-1,1840,1093,0,0
623,-69,0,0,0,0,0,0,0,0,0,-1,1847,1093,0,0
630,-69,0,0,0,0,0,0,0,0,0,-1,1854,1093,0,0
637,-69,0,0,0,0,0,0,0,0,0,-1,1861,1093,0,0
644,-69,0,0,0,0,0,0,0,0,0,-1,1868,1093,0,0
651,-69,21.2006,2.78284,0.00285772,-0.00106624,0.00234556,0.00395368,-0.00216221,0.437107,0.00358115,0.0416753,1875,1093,21.2006,-2.78283
658,-69,21.3657,2.86182,0.00188405,-0.000656854,0.00130666,0.00243607,-0.00120887,0.399723,0.0021438,0.0414305,1882,1093,21.3657,-2.86185
665,-69,21.3676,2.99609,0.00123526,-0.000347516,0.000645456,0.0014651,-0.000577357,0.342091,0.00121577,0.041531,1889,1093,21.3675,-2.99606
672,-69,21.2816,3.00134,0.000250827,-0.000566621,0.00158161,0.00147567,-0.00179146,0.658953,0.00188922,0.0377781,1896,1093,21.2817,-3.00133
679,-69,21.1932,2.93994,-0.000952541,-0.00103464,0.00341927,0.00242592,-0.0044131,0.779396,0.00400369,0.0367304,1903,1093,21.1932,-2.93992
686,-69,21.2191,2.81763,-0.00201624,-0.00157494,0.00533856,0.00354752,-0.0071387,0.806052,0.00628475,0.0385475,1910,1093,21.2191,-2.81759
693,-69,21.1541,2.94153,-0.00289629,-0.00208193,0.00713026,0.00465276,-0.00963099,0.81392,0.00841202,0.0375973,1917,1093,21.1541,-2.94148
700,-69,21.121,2.96912,-0.00357007,-0.00241342,0.00856721,0.00559497,-0.0115785,0.819099,0.0101137,0.0279377,1924,1093,21.121,-2.96916
707,-69,21.146,2.91357,-0.00408637,-0.00265838,0.00947478,0.00612927,-0.012874,0.823006,0.0111995,0.0179855,1931,1093,21.1459,-2.91358
714,-69,21.1921,2.85913,-0.00427272,-0.00277483,0.00997862,0.00648291,-0.0135305,0.822855,0.0117911,0.0205192,1938,1093,21.1922,-2.85908
721,-69,21.1958,3.7561,-0.00411328,-0.00270374,0.0100051,0.00662143,-0.0134385,0.82056,0.0118024,0.0453775,1945,1093,21.1959,-3.7561
728,-69,20.7946,4.32056,0,0,0,0,0,0,0,-1,1952,1093,20.7946,-4.32059
735,-69,20.6224,4.34875,-0.00377093,-0.00186942,0.00865832,0.00589019,-0.0115305,0.840083,0.0102321,0.0175272,1959,1093,20.6225,-4.34875
742,-69,20.6091,4.28992,-0.00344383,-0.00113206,0.00708667,0.00489237,-0.00946826,0.86624,0.00843025,0.0137404,1966,1093,20.6091,-4.28987
749,-69,20.5522,4.22937,-0.00239914,-0.000550468,0.00548212,0.0040847,-0.00703431,0.868917,0.00649442,0.0147679,1973,1093,20.5523,-4.22932
756,-69,20.569,4.19067,-0.000382416,4.09307e-05,0.00433193,0.00416636,-0.00450784,0.809811,0.00500934,0.0142568,1980,1093,20.5689,-4.19064
763,-69,20.5673,4.12708,0.00227305,0.00070713,0.00317808,0.0047632,-0.00178302,0.664622,0.00390783,0.0141509,1987,1093,20.5672,-4.12706
770,-69,20.553,4.07031,0.00537674,0.00147234,0.00180423,0.00608279,0.000766285,0.373014,0.00382544,0.0138399,1994,1093,20.5529,-4.07036
777,-69,20.5394,3.99487,0.00942093,0.00190437,0.00160546,0.00974947,0.00157582,0.201857,0.00604325,0.0189313,2001,1093,20.5394,-3.99484
784,-69,20.5,3.78125,0.0146179,0.00183322,0.00320025,0.0153743,0.00107688,0.232079,0.00991008,0.0318052,2008,1093,20.5,-3.78125
791,-69,20.3854,3.40527,0.0215721,0.00147089,0.00574547,0.0230984,-5.54221e-05,0.259658,0.0154175,0.0428369,2015,1093,20.3853,-3.40529
798,-69,20.2974,3.11511,0,0,0,0,0,0,0,-1,2022,1093,20.2974,-3.11508
805,-69,20.6506,2.53882,0,0,0,0,0,0,0,-1,2029,1093,20.6507,-2.53877
812,-69,20.1846,6.33203,0,0,0,0,0,0,0,-1,2036,1093,20.1846,-6.33199
-700,-76,0,0,0,0,0,0,0,0,0,-1,524,1100,0,0
-693,-76,-10.0895,0.425415,-0.0259187,-0.00657663,-0.021589,0.0074085,-0.0399038,-0.995977,0.029385,0.0469591,531,1100,-10.0895,-0.425428
-686,-76,-10.6713,0.694092,-0.0166184,3.46463e-05,-0.0208211,0.0141324,-0.0307162,-0.975612,0.0264768,0.049901,538,1100,-10.6713,-0.694087
-679,-76,-12.181,2.27795,0,0,0,0,0,0,0,-1,545,1100,-12.181,-2.27798
-672,-76,-12.2873,2.08142,-0.00644337,0.00637498,-0.0156287,0.0168577,-0.0169261,-0.979985,0.0195051,0.0473124,552,1100,-12.2873,-2.08141
-665,-76,-12.5218,1.92493,-0.00387216,0.00733431,-0.0125448,0.0154703,-0.0120082,-0.995434,0.0159066,0.0453475,559,1100,-12.5218,-1.92487
-658,-76,-12.8523,1.66467,-0.00231352,0.00736019,-0.00962645,0.0132966,-0.00824995,-1.0182,0.0125531,0.0440289,566,1100,-12.8523,-1.66462
-651,-76,-13.1289,1.47766,-0.00137493,0.00674579,-0.00705909,0.010829,-0.00545811,-1.04639,0.00957225,0.0270516,573,1100,-13.1289,-1.47772
-644,-76,-13.1273,1.55151,-0.000905534,0.00588364,-0.00519289,0.00869303,-0.00371493,-1.07488,0.00735341,0.00977965,580,1100,-13.1272,-1.55152
-637,-76,-13.1914,1.63464,-0.00024729,0.00474602,-0.00507357,0.00790395,-0.00340523,-1.01405,0.00669935,0.012679,587,1100,-13.1914,-1.63469
-630,-76,-13.2083,1.69434,-0.00107513,0.00333156,-0.00444235,0.00608696,-0.00383054,-1.01561,0.00577506,0.0135518,594,1100,-13.2083,-1.69432
-623,-76,-13.1734,1.78931,-0.00197605,0.00207254,-0.00498728,0.00543069,-0.00533421,-0.978186,0.0062152,0.0116189,601,1100,-13.1734,-1.78933
-616,-76,-13.1626,1.87024,-0.00321793,0.000686153,-0.00521154,0.00429923,-0.00683101,-0.964591,0.00648123,0.0107297,608,1100,-13.1626,-1.87025
-609,-76,-13.1657,1.94592,-0.00408104,-0.000710579,-0.00611692,0.00394901,-0.00874063,-0.919815,0.00749845,0.0123996,615,1100,-13.1657,-1.94593
-602,-76,-13.1544,2.0448,-0.00425944,-0.0012699,-0.00738103,0.00476619,-0.0102955,-0.885305,0.00888907,0.0164201,622,1100,-13.1544,-2.04483
-595,-76,-13.1447,2.09973,-0.00459195,-0.00165689,-0.00848474,0.00548629,-0.0117351,-0.871031,0.0101586,0.0206834,629,1100,-13.1447,-2.09977
-588,-76,-13.2685,1.87061,-0.00483863,-0.0018623,-0.00901883,0.00579032,-0.0124913,-0.867165,0.0107886,0.0275328,636,1100,-13.2685,-1.87056
-581,-76,-13.4941,1.26453,-0.00471955,-0.00184956,-0.00909329,0.00592127,-0.0124904,-0.863657,0.0108532,0.0319068,643,1100,-13.4941,-1.26459
-574,-76,-13.5986,0.900757,-0.00448824,-0.00168762,-0.00881695,0.00583953,-0.0120154,-0.864151,0.0105121,0.0359759,650,1100,-13.5987,-0.900814
-567,-76,-13.6961,0.834106,-0.00391045,-0.00140816,-0.00803381,0.00547135,-0.01079,-0.862645,0.00955439,0.0380799,657,1100,-13.6961,-0.834107
-560,-76,-13.773,0.996094,-0.00295828,-0.00099817,-0.00676434,0.00485674,-0.00881319,-0.85734,0.00800177,0.0417724,664,1100,-13.773,-0.996143
-553,-76,-13.642,1.21936,-0.00167988,-0.000486111,-0.0050884,0.0040403,-0.00620629,-0.843783,0.00595976,0.0439523,671,1100,-13.642,-1.21936
-546,-76,-13.5107,1.08923,-0.000115507,9.99436e-05,-0.00307755,0.00307165,-0.00308722,-0.802893,0.00355583,0.0403505,678,1100,-13.5107,-1.08921
-539,-76,-13.581,1.06494,0.001622,0.000702627,-0.0011319,0.00238399,-5.93666e-05,-0.592513,0.00160948,0.0409362,685,1100,-13.581,-1.06495
-532,-76,-13.4939,0.904297,0.00222694,0.000833632,-0.00117562,0.00289682,0.00016375,-0.517924,0.00187901,0.0418126,692,1100,-13.4939,-0.904269
-525,-76,0,0,0,0,0,0,0,0,0,-1,699,1100,0,0
-518,-76,0,0,0,0,0,0,0,0,0,-1,706,1100,0,0
-511,-76,0,0,0,0,0,0,0,0,0,-1,713,1100,0,0
-504,-76,0,0,0,0,0,0,0,0,0,-1,720,1100,0,0
-497,-76,0,0,0,0,0,0,0,0,0,-1,727,1100,0,0
-490,-76,0,0,0,0,0,0,0,0,0,-1,734,1100,0,0
-483,-76,0,0,0,0,0,0,0,0,0,-1,741,1100,0,0
-476,-76,0,0,0,0,0,0,0,0,0,-1,748,1100,0,0
-469,-76,0,0,0,0,0,0,0,0,0,-1,755,1100,0,0
-462,-76,0,0,0,0,0,0,0,0,0,-1,762,1100,0,0
-455,-76,0,0,0,0,0,0,0,0,0,-1,769,1100,0,0
-448,-76,0,0,0,0,0,0,0,0,0,-1,776,1100,0,0
-441,-76,0,0,0,0,0,0,0,0,0,-1,783,1100,0,0
-434,-76,0,0,0,0,0,0,0,0,0,-1,790,1100,0,0
-427,-76,0,0,0,0,0,0,0,0,0,-1,797,1100,0,0
-420,-76,0,0,0,0,0,0,0,0,0,-1,804,1100,0,0
-413,-76,0,0,0,0,0,0,0,0,0,-1,811,1100,0,0
-406,-76,0,0,0,0,0,0,0,0,0,-1,818,1100,0,0
-399,-76,0,0,0,0,0,0,0,0,0,-1,825,1100,0,0
-392,-76,0,0,0,0,0,0,0,0,0,-1,832,1100,0,0
-385,-76,0,0,0,0,0,0,0,0,0,-1,839,1100,0,0
-378,-76,0,0,0,0,0,0,0,0,0,-1,846,1100,0,0
-371,-76,0,0,0,0,0,0,0,0,0,-1,853,1100,0,0
-364,-76,0,0,0,0,0,0,0,0,0,-1,860,1100,0,0
-357,-76,0,0,0,0,0,0,0,0,0,-1,867,1100,0,0
-350,-76,0,0,0,0,0,0,0,0,0,-1,874,1100,0,0
-343,-76,0,0,0,0,0,0,0,0,0,-1,881,1100,0,0
-336,-76,0,0,0,0,0,0,0,0,0,-1,888,1100,0,0
-329,-76,0,0,0,0,0,0,0,0,0,-1,895,1100,0,0
-322,-76,0,0,0,0,0,0,0,0,0,-1,902,1100,0,0
-315,-76,0,0,0,0,0,0,0,0,0,-1,909,1100,0,0
-308,-76,0,0,0,0,0,0,0,0,0,-1,916,1100,0,0
-301,-76,0,0,0,0,0,0,0,0,0,-1,923,1100,0,0
-294,-76,0,0,0,0,0,0,0,0,0,-1,930,1100,0,0
-287,-76,0,0,0,0,0,0,0,0,0,-1,937,1100,0,0
-280,-76,0,0,0,0,0,0,0,0,0,-1,944,1100,0,0
-273,-76,0,0,0,0,0,0,0,0,0,-1,951,1100,0,0
-266,-76,0,0,0,0,0,0,0,0,0,-1,958,1100,0,0
-259,-76,0,0,0,0,0,0,0,0,0,-1,965,1100,0,0
-252,-76,0,0,0,0,0,0,0,0,0,-1,972,1100,0,0
-245,-76,0,0,0,0,0,0,0,0,0,-1,979,1100,0,0
-238,-76,0,0,0,0,0,0,0,0,0,-1,986,1100,0,0
-231,-76,0,0,0,0,0,0,0,0,0,-1,993,1100,0,0
-224,-76,0,0,0,0,0,0,0,0,0,-1,1000,1100,0,0
-217,-76,0,0,0,0,0,0,0,0,0,-1,1007,1100,0,0
-210,-76,0,0,0,0,0,0,0,0,0,-1,1014,1100,0,0
-203,-76,0,0,0,0,0,0,0,0,0,-1,1021,1100,0,0
-196,-76,0,0,0,0,0,0,0,0,0,-1,1028,1100,0,0
-189,-76,0,0,0,0,0,0,0,0,0,-1,1035,1100,0,0
-182,-76,0,0,0,0,0,0,0,0,0,-1,1042,1100,0,0
-175,-76,0,0,0,0,0,0,0,0,0,-1,1049,1100,0,0
-168,-76,0,0,0,0,0,0,0,0,0,-1,1056,1100,0,0
-161,-76,0,0,0,0,0,0,0,0,0,-1,1063,1100,0,0
-154,-76,0,0,0,0,0,0,0,0,0,-1,1070,1100,0,0
-147,-76,0,0,0,0,0,0,0,0,0,-1,1077,1100,0,0
-140,-76,0,0,0,0,0,0,0,0,0,-1,1084,1100,0,0
-133,-76,0,0,0,0,0,0,0,0,0,-1,1091,1100,0,0
-126,-76,0,0,0,0,0,0,0,0,0,-1,1098,1100,0,0
-119,-76,0,0,0,0,0,0,0,0,0,-1,1105,1100,0,0
-112,-76,0,0,0,0,0,0,0,0,0,-1,1112,1100,0,0
-105,-76,0,0,0,0,0,0,0,0,0,-1,1119,1100,0,0
-98,-76,0,0,0,0,0,0,0,0,0,-1,1126,1100,0,0
-91,-76,0,0,0,0,0,0,0,0,0,-1,1133,1100,0,0
-84,-76,0,0,0,0,0,0,0,0,0,-1,1140,1100,0,0
-77,-76,0,0,0,0,0,0,0,0,0,-1,1147,1100,0,0
-70,-76,0,0,0,0,0,0,0,0,0,-1,1154,1100,0,0
-63,-76,0,0,0,0,0,0,0,0,0,-1,1161,1100,0,0
-56,-76,0,0,0,0,0,0,0,0,0,-1,1168,1100,0,0
-49,-76,0,0,0,0,0,0,0,0,0,-1,1175,1100,0,0
-42,-76,0,0,0,0,0,0,0,0,0,-1,1182,1100,0,0
-35,-76,0,0,0,0,0,0,0,0,0,-1,1189,1100,0,0
-28,-76,0,0,0,0,0,0,0,0,0,-1,1196,1100,0,0
-21,-76,0,0,0,0,0,0,0,0,0,-1,1203,1100,0,0
-14,-76,0,0,0,0,0,0,0,0,0,-1,1210,1100,0,0
-7,-76,0,0,0,0,0,0,0,0,0,-1,1217,1100,0,0
0,-76,0,0,0,0,0,0,0,0,0,-1,1224,1100,0,0
7,-76,0,0,0,0,0,0,0,0,0,-1,1231,1100,0,0
14,-76,0,0,0,0,0,0,0,0,0,-1,1238,1100,0,0
21,-76,0,0,0,0,0,0,0,0,0,-1,1245,1100,0,0
28,-76,0,0,0,0,0,0,0,0,0,-1,1252,1100,0,0
35,-76,0,0,0,0,0,0,0,0,0,-1,1259,1100,0,0
42,-76,0,0,0,0,0,0,0,0,0,-1,1266,1100,0,0
49,-76,0,0,0,0,0,0,0,0,0,-1,1273,1100,0,0
56,-76,0,0,0,0,0,0,0,0,0,-1,1280,1100,0,0
63,-76,0,0,0,0,0,0,0,0,0,-1,1287,1100,0,0
70,-76,0,0,0,0,0,0,0,0,0,-1,1294,1100,0,0
77,-76,0,0,0,0,0,0,0,0,0,-1,1301,1100,0,0
84,-76,0,0,0,0,0,0,0,0,0,-1,1308,1100,0,0
91,-76,0,0,0,0,0,0,0,0,0,-1,1315,1100,0,0
98,-76,0,0,0,0,0,0,0,0,0,-1,1322,1100,0,0
105,-76,0,0,0,0,0,0,0,0,0,-1,1329,1100,0,0
112,-76,0,0,0,0,0,0,0,0,0,-1,1336,1100,0,0
119,-76,0,0,0,0,0,0,0,0,0,-1,1343,1100,0,0
126,-76,0,0,0,0,0,0,0,0,0,-1,1350,1100,0,0
133,-76,0,0,0,0,0,0,0,0,0,-1,1357,1100,0,0
140,-76,0,0,0,0,0,0,0,0,0,-1,1364,1100,0,0
147,-76,0,0,0,0,0,0,0,0,0,-1,1371,1100,0,0
154,-76,0,0,0,0,0,0,0,0,0,-1,1378,1100,0,0
161,-76,0,0,0,0,0,0,0,0,0,-1,1385,1100,0,0
168,-76,0,0,0,0,0,0,0,0,0,-1,1392,1100,0,0
175,-76,0,0,0,0,0,0,0,0,0,-1,1399,1100,0,0
182,-76,0,0,0,0,0,0,0,0,0,-1,1406,1100,0,0
189,-76,0,0,0,0,0,0,0,0,0,-1,1413,1100,0,0
196,-76,0,0,0,0,0,0,0,0,0,-1,1420,1100,0,0
203,-76,0,0,0,0,0,0,0,0,0,-1,1427,1100,0,0
210,-76,0,0,0,0,0,0,0,0,0,-1,1434,1100,0,0
217,-76,0,0,0,0,0,0,0,0,0,-1,1441,1100,0,0
224,-76,0,0,0,0,0,0,0,0,0,-1,1448,1100,0,0
231,-76,0,0,0,0,0,0,0,0,0,-1,1455,1100,0,0
238,-76,0,0,0,0,0,0,0,0,0,-1,1462,1100,0,0
245,-76,0,0,0,0,0,0,0,0,0,-1,1469,1100,0,0
252,-76,0,0,0,0,0,0,0,0,0,-1,1476,1100,0,0
259,-76,0,0,0,0,0,0,0,0,0,-1,1483,1100,0,0
266,-76,0,0,0,0,0,0,0,0,0,-1,1490,1100,0,0
273,-76,0,0,0,0,0,0,0,0,0,-1,1497,1100,0,0
280,-76,0,0,0,0,0,0,0,0,0,-1,1504,1100,0,0
287,-76,0,0,0,0,0,0,0,0,0,-1,1511,1100,0,0
294,-76,0,0,0,0,0,0,0,0,0,-1,1518,1100,0,0
301,-76,0,0,0,0,0,0,0,0,0,-1,1525,1100,0,0
308,-76,0,0,0,0,0,0,0,0,0,-1,1532,1100,0,0
315,-76,0,0,0,0,0,0,0,0,0,-1,1539,1100,0,0
322,-76,0,0,0,0,0,0,0,0,0,-1,1546,1100,0,0
329,-76,0,0,0,0,0,0,0,0,0,-1,1553,1100,0,0
336,-76,0,0,0,0,0,0,0,0,0,-1,1560,1100,0,0
343,-76,0,0,0,0,0,0,0,0,0,-1,1567,1100,0,0
350,-76,0,0,0,0,0,0,0,0,0,-1,1574,1100,0,0
357,-76,0,0,0,0,0,0,0,0,0,-1,1581,1100,0,0
364,-76,0,0,0,0,0,0,0,0,0,-1,1588,1100,0,0
371,-76,0,0,0,0,0,0,0,0,0,-1,1595,1100,0,0
378,-76,0,0,0,0,0,0,0,0,0,-1,1602,1100,0,0
385,-76,0,0,0,0,0,0,0,0,0,-1,1609,1100,0,0
392,-76,0,0,0,0,0,0,0,0,0,-1,1616,1100,0,0
399,-76,0,0,0,0,0,0,0,0,0,-1,1623,1100,0,0
406,-76,0,0,0,0,0,0,0,0,0,-1,1630,1100,0,0
413,-76,0,0,0,0,0,0,0,0,0,-1,1637,1100,0,0
420,-76,0,0,0,0,0,0,0,0,0,-1,1644,1100,0,0
427,-76,0,0,0,0,0,0,0,0,0,-1,1651,1100,0,0
434,-76,0,0,0,0,0,0,0,0,0,-1,1658,1100,0,0
441,-76,0,0,0,0,0,0,0,0,0,-1,1665,1100,0,0
448,-76,0,0,0,0,0,0,0,0,0,-1,1672,1100,0,0
455,-76,0,0,0,0,0,0,0,0,0,-1,1679,1100,0,0
462,-76,0,0,0,0,0,0,0,0,0,-1,1686,1100,0,0
469,-76,0,0,0,0,0,0,0,0,0,-1,1693,1100,0,0
476,-76,0,0,0,0,0,0,0,0,0,-1,1700,1100,0,0
483,-76,0,0,0,0,0,0,0,0,0,-1,1707,1100,0,0
490,-76,0,0,0,0,0,0,0,0,0,-1,1714,1100,0,0
497,-76,0,0,0,0,0,0,0,0,0,-1,1721,1100,0,0
504,-76,0,0,0,0,0,0,0,0,0,-1,1728,1100,0,0
511,-76,0,0,0,0,0,0,0,0,0,-1,1735,1100,0,0
518,-76,0,0,0,0,0,0,0,0,0,-1,1742,1100,0,0
525,-76,0,0,0,0,0,0,0,0,0,-1,1749,1100,0,0
532,-76,0,0,0,0,0,0,0,0,0,-1,1756,1100,0,0
539,-76,0,0,0,0,0,0,0,0,0,-1,1763,1100,0,0
546,-76,0,0,0,0,0,0,0,0,0,-1,1770,1100,0,0
553,-76,0,0,0,0,0,0,0,0,0,-1,1777,1100,0,0
560,-76,0,0,0,0,0,0,0,0,0,-1,1784,1100,0,0
567,-76,0,0,0,0,0,0,0,0,0,-1,1791,1100,0,0
574,-76,0,0,0,0,0,0,0,0,0,-1,1798,1100,0,0
581,-76,0,0,0,0,0,0,0,0,0,-1,1805,1100,0,0
588,-76,0,0,0,0,0,0,0,0,0,-1,1812,1100,0,0
595,-76,0,0,0,0,0,0,0,0,0,-1,1819,1100,0,0
602,-76,0,0,0,0,0,0,0,0,0,-1,1826,1100,0,0
609,-76,0,0,0,0,0,0,0,0,0,-1,1833,1100,0,0
616,-76,0,0,0,0,0,0,0,0,0,-1,1840,1100,0,0
623,-76,0,0,0,0,0,0,0,0,0,-1,1847,1100,0,0
630,-76,0,0,0,0,0,0,0,0,0,-1,1854,1100,0,0
637,-76,0,0,0,0,0,0,0,0,0,-1,1861,1100,0,0
644,-76,0,0,0,0,0,0,0,0,0,-1,1868,1100,0,0
651,-76,21.2611,2.72852,0.00340686,-0.00131086,0.00190025,0.00407705,-0.00198105,0.339068,0.00356675,0.0406775,1875,1100,21.2611,-2.72848
658,-76,21.3182,2.80786,0.00235564,-0.000937032,0.00109446,0.00268624,-0.00126763,0.29335,0.00233123,0.0398849,1882,1100,21.3183,-2.80784
665,-76,21.2721,2.88745,0.0015644,-0.000647149,0.000660916,0.00174686,-0.000829609,0.269362,0.00151862,0.0394938,1889,1100,21.2721,-2.88746
672,-76,21.1833,2.99023,0.000282402,-0.00095093,0.00183513,0.00160171,-0.00227024,0.623309,0.00224655,0.0383584,1896,1100,21.1834,-2.99024
679,-76,21.1132,3.04834,-0.00121734,-0.0015082,0.00379348,0.0024335,-0.00515904,0.766239,0.00447671,0.0378248,1903,1100,21.1131,-3.04838
686,-76,21.2552,3.0874,-0.00253324,-0.00211732,0.00577364,0.0034521,-0.00810266,0.8034,0.00684889,0.0371031,1910,1100,21.2553,-3.08737
693,-76,21.2473,2.95081,-0.0036281,-0.00267869,0.00759398,0.0044554,-0.0107622,0.816613,0.0090339,0.0372227,1917,1100,21.2473,-2.95083
700,-76,21.1676,2.88599,-0.00445892,-0.00302903,0.00902885,0.00531314,-0.0128011,0.824908,0.010752,0.029315,1924,1100,21.1676,-2.88597
707,-76,21.1655,2.93164,-0.00504847,-0.0033104,0.00994452,0.00580299,-0.0141619,0.828982,0.0118587,0.0199135,1931,1100,21.1656,-2.93161
714,-76,21.212,2.9989,-0.00527657,-0.00341939,0.0104192,0.00611255,-0.0148085,0.829842,0.0124217,0.0279535,1938,1100,21.212,-2.99891
721,-76,20.9233,3.85254,-0.00510351,-0.00332377,0.0103908,0.00621524,-0.0146425,0.828114,0.0123655,0.0333067,1945,1100,20.9234,-3.85252
728,-76,20.7042,4.51221,0,0,0,0,0,0,0,-1,1952,1100,20.7042,-4.51226
735,-76,20.432,4.37659,-0.00454117,-0.00239603,0.00888562,0.00548153,-0.0124187,0.845462,0.0105903,0.0190968,1959,1100,20.432,-4.37662
742,-76,20.5193,4.30554,-0.00409452,-0.00160723,0.00719529,0.0044511,-0.0101528,0.870973,0.00864314,0.0139118,1966,1100,20.5192,-4.30549
749,-76,20.4972,4.2395,-0.0029802,-0.000919626,0.0053653,0.00351342,-0.00741325,0.880257,0.00644105,0.0144487,1973,1100,20.4972,-4.23954
756,-76,20.5145,4.1886,-0.00102808,-0.000217134,0.00386298,0.00326159,-0.0045068,0.837689,0.00450425,0.0142743,1980,1100,20.5145,-4.1886
763,-76,20.5101,4.0946,0.00139247,0.000655354,0.0022823,0.00333578,-0.00128796,0.705347,0.00275541,0.0147103,1987,1100,20.5101,-4.0946
770,-76,20.4965,4.02539,0.00420176,0.00162607,0.000403122,0.00426338,0.00156445,0.15168,0.00249034,0.0145281,1994,1100,20.4965,-4.02543
777,-76,20.4987,4.00073,0.00756508,0.00225629,-0.000404204,0.00759568,0.00222569,-0.0755581,0.00450888,0.0174122,2001,1100,20.4986,-4.00074
784,-76,20.5273,3.93811,0.0116728,0.00248435,0.000260886,0.0116802,0.00247695,0.0283624,0.0071065,0.0307965,2008,1100,20.5273,-3.93808
791,-76,20.4934,3.57117,0.0171755,0.00255587,0.00159301,0.0173471,0.00238431,0.107286,0.0108576,0.0400247,2015,1100,20.4934,-3.57121
798,-76,20.4624,3.22815,0,0,0,0,0,0,0,-1,2022,1100,20.4624,-3.22815
805,-76,20.1338,3.07019,0,0,0,0,0,0,0,-1,2029,1100,20.1338,-3.07024
812,-76,20.0796,3.20667,0,0,0,0,0,0,0,-1,2036,1100,20.0795,-3.20668
-700,-83,0,0,0,0,0,0,0,0,0,-1,524,1107,0,0
-693,-83,-10.7674,0.30835,-0.0390872,-0.00822623,-0.0184854,0.000422558,-0.047736,-1.13318,0.0319658,0.0485651,531,1107,-10.7674,-0.308297
-686,-83,-11.2888,0.73645,-0.026936,-0.000959107,-0.0183232,0.00851219,-0.0364073,-1.09372,0.0275508,0.047313,538,1107,-11.2888,-0.736435
-679,-83,-11.7518,1.31482,-0.0183606,0.00353363,-0.0165525,0.0124315,-0.0272584,-1.07756,0.0234419,0.04575,545,1107,-11.7518,-1.31483
-672,-83,-12.3929,1.57947,-0.0123065,0.00607727,-0.0140451,0.013671,-0.0199002,-1.07515,0.0194932,0.0428607,552,1107,-12.3929,-1.57951
-665,-83,-12.6425,1.64661,-0.00808339,0.00721719,-0.0113165,0.0132267,-0.0140929,-1.08263,0.0157756,0.041957,559,1107,-12.6425,-1.64666
-658,-83,-12.7902,1.35071,-0.00521868,0.0073591,-0.00869568,0.0118017,-0.00966128,-1.09847,0.0124122,0.0398139,566,1107,-12.7901,-1.35067
-651,-83,-13.0079,1.20874,-0.00328171,0.00681781,-0.0063684,0.00989557,-0.00635948,-1.12061,0.00945859,0.0298726,573,1107,-13.0079,-1.20871
-644,-83,-13.0286,1.47827,-0.00208592,0.00597564,-0.00464839,0.00809748,-0.00420776,-1.14258,0.00722178,0.0141569,580,1107,-13.0286,-1.47828
-637,-83,-13.0574,1.60632,-0.000918731,0.00490769,-0.00464254,0.00747535,-0.00348639,-1.0656,0.00646694,0.0115478,587,1107,-13.0574,-1.60634
-630,-83,-13.0822,1.703,-0.0012791,0.00357104,-0.00420203,0.00599757,-0.00370563,-1.04711,0.005654,0.016146,594,1107,-13.0822,-1.70299
-623,-83,-13.0605,1.79248,-0.00200892,0.00218816,-0.0047441,0.00527714,-0.0050979,-0.993634,0.00599033,0.0142476,601,1107,-13.0606,-1.79249
-616,-83,-13.0544,1.87305,-0.003313,0.000759414,-0.0050382,0.00415732,-0.0067109,-0.977439,0.00633224,0.011564,608,1107,-13.0544,-1.87304
-609,-83,-13.0625,1.96643,-0.00434029,-0.000721756,-0.00601112,0.00374648,-0.00880853,-0.931579,0.00744244,0.0121017,615,1107,-13.0625,-1.96645
-602,-83,-13.0729,2.09375,-0.00469246,-0.00126799,-0.00728422,0.00450252,-0.010463,-0.900833,0.00886582,0.0135816,622,1107,-13.0729,-2.09376
-595,-83,-13.0312,2.19348,-0.00513011,-0.00167801,-0.00838553,0.00515727,-0.0119654,-0.886899,0.0101429,0.0163891,629,1107,-13.0312,-2.19344
-588,-83,-13.1575,1.88367,-0.00539414,-0.00190134,-0.0089445,0.00546565,-0.0127611,-0.881809,0.0108006,0.0310281,636,1107,-13.1576,-1.88365
-581,-83,-13.4866,1.21326,-0.00526964,-0.00191579,-0.00906117,0.00562233,-0.0128078,-0.876896,0.0109068,0.0376614,643,1107,-13.4866,-1.21327
-574,-83,-13.5648,0.847168,-0.00505226,-0.0017743,-0.00881878,0.00555651,-0.0123831,-0.877275,0.0106044,0.0382131,650,1107,-13.5648,-0.847186
-567,-83,-13.657,0.706787,-0.00443423,-0.00152333,-0.00810018,0.00525112,-0.0112087,-0.87429,0.00970834,0.0421158,657,1107,-13.6571,-0.706788
-560,-83,-13.6213,0.915283,-0.00341535,-0.00114683,-0.00691295,0.0047243,-0.00928647,-0.866712,0.00823083,0.0445924,664,1107,-13.6213,-0.915325
-553,-83,-13.4675,1.13574,-0.00204589,-0.000676806,-0.00533492,0.00401731,-0.00674001,-0.849206,0.0062767,0.043303,671,1107,-13.4675,-1.13575
-546,-83,-13.5077,1.20935,-0.000367689,-0.000145391,-0.00343863,0.00318389,-0.00369697,-0.801554,0.00397635,0.0396802,678,1107,-13.5077,-1.2094
-539,-83,-13.5142,1.01013,0.00153517,0.000388901,-0.00154816,0.00261288,-0.000688806,-0.608118,0.00201123,0.0416281,685,1107,-13.5142,-1.01014
-532,-83,-13.4252,0.734985,0.00226723,0.0004288,-0.00150644,0.00311276,-0.000416728,-0.511459,0.00222712,0.0431546,692,1107,-13.4252,-0.734951
-525,-83,0,0,0,0,0,0,0,0,0,-1,699,1107,0,0
-518,-83,0,0,0,0,0,0,0,0,0,-1,706,1107,0,0
-511,-83,0,0,0,0,0,0,0,0,0,-1,713,1107,0,0
-504,-83,0,0,0,0,0,0,0,0,0,-1,720,1107,0,0
-497,-83,0,0,0,0,0,0,0,0,0,-1,727,1107,0,0
-490,-83,0,0,0,0,0,0,0,0,0,-1,734,1107,0,0
-483,-83,0,0,0,0,0,0,0,0,0,-1,741,1107,0,0
-476,-83,0,0,0,0,0,0,0,0,0,-1,748,1107,0,0
-469,-83,0,0,0,0,0,0,0,0,0,-1,755,1107,0,0
-462,-83,0,0,0,0,0,0,0,0,0,-1,762,1107,0,0
-455,-83,0,0,0,0,0,0,0,0,0,-1,769,1107,0,0
-448,-83,0,0,0,0,0,0,0,0,0,-1,776,1107,0,0
-441,-83,0,0,0,0,0,0,0,0,0,-1,783,1107,0,0
-434,-83,0,0,0,0,0,0,0,0,0,-1,790,1107,0,0
-427,-83,0,0,0,0,0,0,0,0,0,-1,797,1107,0,0
-420,-83,0,0,0,0,0,0,0,0,0,-1,804,1107,0,0
-413,-83,0,0,0,0,0,0,0,0,0,-1,811,1107,0,0
-406,-83,0,0,0,0,0,0,0,0,0,-1,818,1107,0,0
-399,-83,0,0,0,0,0,0,0,0,0,-1,825,1107,0,0
-392,-83,0,0,0,0,0,0,0,0,0,-1,832,1107,0,0
-385,-83,0,0,0,0,0,0,0,0,0,-1,839,1107,0,0
-378,-83,0,0,0,0,0,0,0,0,0,-1,846,1107,0,0
-371,-83,0,0,0,0,0,0,0,0,0,-1,853,1107,0,0
-364,-83,0,0,0,0,0,0,0,0,0,-1,860,1107,0,0
-357,-83,0,0,0,0,0,0,0,0,0,-1,867,1107,0,0
-350,-83,0,0,0,0,0,0,0,0,0,-1,874,1107,0,0
-343,-83,0,0,0,0,0,0,0,0,0,-1,881,1107,0,0
-336,-83,0,0,0,0,0,0,0,0,0,-1,888,1107,0,0
-329,-83,0,0,0,0,0,0,0,0,0,-1,895,1107,0,0
-322,-83,0,0,0,0,0,0,0,0,0,-1,902,1107,0,0
-315,-83,0,0,0,0,0,0,0,0,0,-1,909,1107,0,0
-308,-83,0,0,0,0,0,0,0,0,0,-1,916,1107,0,0
-301,-83,0,0,0,0,0,0,0,0,0,-1,923,1107,0,0
-294,-83,0,0,0,0,0,0,0,0,0,-1,930,1107,0,0
-287,-83,0,0,0,0,0,0,0,0,0,-1,937,1107,0,0
-280,-83,0,0,0,0,0,0,0,0,0,-1,944,1107,0,0
-273,-83,0,0,0,0,0,0,0,0,0,-1,951,1107,0,0
-266,-83,0,0,0,0,0,0,0,0,0,-1,958,1107,0,0
-259,-83,0,0,0,0,0,0,0,0,0,-1,965,1107,0,0
-252,-83,0,0,0,0,0,0,0,0,0,-1,972,1107,0,0
-245,-83,0,0,0,0,0,0,0,0,0,-1,979,1107,0,0
-238,-83,0,0,0,0,0,0,0,0,0,-1,986,1107,0,0
-231,-83,0,0,0,0,0,0,0,0,0,-1,993,1107,0,0
-224,-83,0,0,0,0,0,0,0,0,0,-1,1000,1107,0,0
-217,-83,0,0,0,0,0,0,0,0,0,-1,1007,1107,0,0
-210,-83,0,0,0,0,0,0,0,0,0,-1,1014,1107,0,0
-203,-83,0,0,0,0,0,0,0,0,0,-1,1021,1107,0,0
-196,-83,0,0,0,0,0,0,0,0,0,-1,1028,1107,0,0
-189,-83,0,0,0,0,0,0,0,0,0,-1,1035,1107,0,0
-182,-83,0,0,0,0,0,0,0,0,0,-1,1042,1107,0,0
-175,-83,0,0,0,0,0,0,0,0,0,-1,1049,1107,0,0
-168,-83,0,0,0,0,0,0,0,0,0,-1,1056,1107,0,0
-161,-83,0,0,0,0,0,0,0,0,0,-1,1063,1107,0,0
-154,-83,0,0,0,0,0,0,0,0,0,-1,1070,1107,0,0
-147,-83,0,0,0,0,0,0,0,0,0,-1,1077,1107,0,0
-140,-83,0,0,0,0,0,0,0,0,0,-1,1084,1107,0,0
-133,-83,0,0,0,0,0,0,0,0,0,-1,1091,1107,0,0
-126,-83,0,0,0,0,0,0,0,0,0,-1,1098,1107,0,0
-119,-83,0,0,0,0,0,0,0,0,0,-1,1105,1107,0,0
-112,-83,0,0,0,0,0,0,0,0,0,-1,1112,1107,0,0
-105,-83,0,0,0,0,0,0,0,0,0,-1,1119,1107,0,0
-98,-83,0,0,0,0,0,0,0,0,0,-1,1126,1107,0,0
-91,-83,0,0,0,0,0,0,0,0,0,-1,1133,1107,0,0
-84,-83,0,0,0,0,0,0,0,0,0,-1,1140,1107,0,0
-77,-83,0,0,0,0,0,0,0,0,0,-1,1147,1107,0,0
-70,-83,0,0,0,0,0,0,0,0,0,-1,1154,1107,0,0
-63,-83,0,0,0,0,0,0,0,0,0,-1,1161,1107,0,0
-56,-83,0,0,0,0,0,0,0,0,0,-1,1168,1107,0,0
-49,-83,0,0,0,0,0,0,0,0,0,-1,1175,1107,0,0
-42,-83,0,0,0,0,0,0,0,0,0,-1,1182,1107,0,0
-35,-83,0,0,0,0,0,0,0,0,0,-1,1189,1107,0,0
-28,-83,0,0,0,0,0,0,0,0,0,-1,1196,1107,0,0
-21,-83,0,0,0,0,0,0,0,0,0,-1,1203,1107,0,0
-14,-83,0,0,0,0,0,0,0,0,0,-1,1210,1107,0,0
-7,-83,0,0,0,0,0,0,0,0,0,-1,1217,1107,0,0
0,-83,0,0,0,0,0,0,0,0,0,-1,1224,1107,0,0
7,-83,0,0,0,0,0,0,0,0,0,-1,1231,1107,0,0
14,-83,0,0,0,0,0,0,0,0,0,-1,1238,1107,0,0
21,-83,0,0,0,0,0,0,0,0,0,-1,1245,1107,0,0
28,-83,0,0,0,0,0,0,0,0,0,-1,1252,1107,0,0
35,-83,0,0,0,0,0,0,0,0,0,-1,1259,1107,0,0
42,-83,0,0,0,0,0,0,0,0,0,-1,1266,1107,0,0
49,-83,0,0,0,0,0,0,0,0,0,-1,1273,1107,0,0
56,-83,0,0,0,0,0,0,0,0,0,-1,1280,1107,0,0
63,-83,0,0,0,0,0,0,0,0,0,-1,1287,1107,0,0
70,-83,0,0,0,0,0,0,0,0,0,-1,1294,1107,0,0
77,-83,0,0,0,0,0,0,0,0,0,-1,1301,1107,0,0
84,-83,0,0,0,0,0,0,0,0,0,-1,1308,1107,0,0
91,-83,0,0,0,0,0,0,0,0,0,-1,1315,1107,0,0
98,-83,0,0,0,0,0,0,0,0,0,-1,1322,1107,0,0
105,-83,0,0,0,0,0,0,0,0,0,-1,1329,1107,0,0
112,-83,0,0,0,0,0,0,0,0,0,-1,1336,1107,0,0
119,-83,0,0,0,0,0,0,0,0,0,-1,1343,1107,0,0
126,-83,0,0,0,0,0,0,0,0,0,-1,1350,1107,0,0
133,-83,0,0,0,0,0,0,0,0,0,-1,1357,1107,0,0
140,-83,0,0,0,0,0,0,0,0,0,-1,1364,1107,0,0
147,-83,0,0,0,0,0,0,0,0,0,-1,1371,1107,0,0
154,-83,0,0,0,0,0,0,0,0,0,-1,1378,1107,0,0
161,-83,0,0,0,0,0,0,0,0,0,-1,1385,1107,0,0
168,-83,0,0,0,0,0,0,0,0,0,-1,1392,1107,0,0
175,-83,0,0,0,0,0,0,0,0,0,-1,1399,1107,0,0
182,-83,0,0,0,0,0,0,0,0,0,-1,1406,1107,0,0
189,-83,0,0,0,0,0,0,0,0,0,-1,1413,1107,0,0
196,-83,0,0,0,0,0,0,0,0,0,-1,1420,1107,0,0
203,-83,0,0,0,0,0,0,0,0,0,-1,1427,1107,0,0
210,-83,0,0,0,0,0,0,0,0,0,-1,1434,1107,0,0
217,-83,0,0,0,0,0,0,0,0,0,-1,1441,1107,0,0
224,-83,0,0,0,0,0,0,0,0,0,-1,1448,1107,0,0
231,-83,0,0,0,0,0,0,0,0,0,-1,1455,1107,0,0
238,-83,0,0,0,0,0,0,0,0,0,-1,1462,1107,0,0
245,-83,0,0,0,0,0,0,0,0,0,-1,1469,1107,0,0
252,-83,0,0,0,0,0,0,0,0,0,-1,1476,1107,0,0
259,-83,0,0,0,0,0,0,0,0,0,-1,1483,1107,0,0
266,-83,0,0,0,0,0,0,0,0,0,-1,1490,1107,0,0
273,-83,0,0,0,0,0,0,0,0,0,-1,1497,1107,0,0
280,-83,0,0,0,0,0,0,0,0,0,-1,1504,1107,0,0
287,-83,0,0,0,0,0,0,0,0,0,-1,1511,1107,0,0
294,-83,0,0,0,0,0,0,0,0,0,-1,1518,1107,0,0
301,-83,0,0,0,0,0,0,0,0,0,-1,1525,1107,0,0
308,-83,0,0,0,0,0,0,0,0,0,-1,1532,1107,0,0
315,-83,0,0,0,0,0,0,0,0,0,-1,1539,1107,0,0
322,-83,0,0,0,0,0,0,0,0,0,-1,1546,1107,0,0
329,-83,0,0,0,0,0,0,0,0,0,-1,1553,1107,0,0
336,-83,0,0,0,0,0,0,0,0,0,-1,1560,1107,0,0
343,-83,0,0,0,0,0,0,0,0,0,-1,1567,1107,0,0
350,-83,0,0,0,0,0,0,0,0,0,-1,1574,1107,0,0
357,-83,0,0,0,0,0,0,0,0,0,-1,1581,1107,0,0
364,-83,0,0,0,0,0,0,0,0,0,-1,1588,1107,0,0
371,-83,0,0,0,0,0,0,0,0,0,-1,1595,1107,0,0
378,-83,0,0,0,0,0,0,0,0,0,-1,1602,1107,0,0
385,-83,0,0,0,0,0,0,0,0,0,-1,1609,1107,0,0
392,-83,0,0,0,0,0,0,0,0,0,-1,1616,1107,0,0
399,-83,0,0,0,0,0,0,0,0,0,-1,1623,1107,0,0
406,-83,0,0,0,0,0,0,0,0,0,-1,1630,1107,0,0
413,-83,0,0,0,0,0,0,0,0,0,-1,1637,1107,0,0
420,-83,0,0,0,0,0,0,0,0,0,-1,1644,1107,0,0
427,-83,0,0,0,0,0,0,0,0,0,-1,1651,1107,0,0
434,-83,0,0,0,0,0,0,0,0,0,-1,1658,1107,0,0
441,-83,0,0,0,0,0,0,0,0,0,-1,1665,1107,0,0
448,-83,0,0,0,0,0,0,0,0,0,-1,1672,1107,0,0
455,-83,0,0,0,0,0,0,0,0,0,-1,1679,1107,0,0
462,-83,0,0,0,0,0,0,0,0,0,-1,1686,1107,0,0
469,-83,0,0,0,0,0,0,0,0,0,-1,1693,1107,0,0
476,-83,0,0,0,0,0,0,0,0,0,-1,1700,1107,0,0
483,-83,0,0,0,0,0,0,0,0,0,-1,1707,1107,0,0
490,-83,0,0,0,0,0,0,0,0,0,-1,1714,1107,0,0
497,-83,0,0,0,0,0,0,0,0,0,-1,1721,1107,0,0
504,-83,0,0,0,0,0,0,0,0,0,-1,1728,1107,0,0
511,-83,0,0,0,0,0,0,0,0,0,-1,1735,1107,0,0
518,-83,0,0,0,0,0,0,0,0,0,-1,1742,1107,0,0
525,-83,0,0,0,0,0,0,0,0,0,-1,1749,1107,0,0
532,-83,0,0,0,0,0,0,0,0,0,-1,1756,1107,0,0
539,-83,0,0,0,0,0,0,0,0,0,-1,1763,1107,0,0
546,-83,0,0,0,0,0,0,0,0,0,-1,1770,1107,0,0
553,-83,0,0,0,0,0,0,0,0,0,-1,1777,1107,0,0
560,-83,0,0,0,0,0,0,0,0,0,-1,1784,1107,0,0
567,-83,0,0,0,0,0,0,0,0,0,-1,1791,1107,0,0
574,-83,0,0,0,0,0,0,0,0,0,-1,1798,1107,0,0
581,-83,0,0,0,0,0,0,0,0,0,-1,1805,1107,0,0
588,-83,0,0,0,0,0,0,0,0,0,-1,1812,1107,0,0
595,-83,0,0,0,0,0,0,0,0,0,-1,1819,1107,0,0
602,-83,0,0,0,0,0,0,0,0,0,-1,1826,1107,0,0
609,-83,0,0,0,0,0,0,0,0,0,-1,1833,1107,0,0
616,-83,0,0,0,0,0,0,0,0,0,-1,1840,1107,0,0
623,-83,0,0,0,0,0,0,0,0,0,-1,1847,1107,0,0
630,-83,0,0,0,0,0,0,0,0,0,-1,1854,1107,0,0
637,-83,0,0,0,0,0,0,0,0,0,-1,1861,1107,0,0
644,-83,21.1587,2.86597,0.00516644,-0.00224725,0.00227051,0.00580654,-0.00288735,0.274787,0.00511287,0.0390262,1868,1107,21.1587,-2.866
651,-83,21.1656,2.84839,0.00350218,-0.00165909,0.00188199,0.00411553,-0.00227244,0.315052,0.00373892,0.043583,1875,1107,21.1656,-2.84843
658,-83,21.327,2.80237,0.00252255,-0.00124083,0.00115664,0.00284961,-0.00156789,0.275573,0.00258598,0.0426763,1882,1107,21.3271,-2.80231
665,-83,21.2742,2.84229,0.00167673,-0.000932053,0.000844536,0.00192626,-0.00118159,0.287292,0.0018114,0.0401512,1889,1107,21.2741,-2.84226
672,-83,21.0793,2.97498,0.000176465,-0.00127191,0.00214821,0.00171927,-0.00281472,0.622824,0.00264304,0.0393256,1896,1107,21.0793,-2.97502
679,-83,21.1874,3.07031,-0.00154801,-0.00183917,0.00412568,0.00243466,-0.00582184,0.767762,0.00489878,0.040705,1903,1107,21.1874,-3.07027
686,-83,21.2615,2.98572,-0.00307646,-0.00244806,0.0060989,0.00334472,-0.00886925,0.811134,0.00728822,0.037712,1910,1107,21.2615,-2.98572
693,-83,21.2672,2.94958,-0.00436142,-0.00300012,0.00790163,0.00425012,-0.0116117,0.828363,0.00948086,0.0358654,1917,1107,21.2672,-2.94955
700,-83,21.2073,2.92273,-0.00533605,-0.00331245,0.00930776,0.00503835,-0.0136868,0.839538,0.0111888,0.0295751,1924,1107,21.2073,-2.92276
707,-83,21.1868,2.93274,-0.00600631,-0.00359353,0.0102231,0.00549412,-0.015094,0.84413,0.0123097,0.020834,1931,1107,21.1867,-2.93272
714,-83,21.1731,3.19202,-0.00629521,-0.00368116,0.0106872,0.00577867,-0.015755,0.846245,0.0128696,0.0331582,1938,1107,21.1731,-3.19198
721,-83,20.6721,4.12085,-0.00614973,-0.00355705,0.0106297,0.00585509,-0.0155619,0.846076,0.0127814,0.0248376,1945,1107,20.6721,-4.12083
728,-83,20.2595,4.76526,0,0,0,0,0,0,0,-1,1952,1107,20.2595,-4.76521
735,-83,20.361,4.3363,-0.00537213,-0.00256251,0.00902141,0.00516281,-0.0130975,0.862638,0.0108693,0.0210433,1959,1107,20.361,-4.33625
742,-83,20.4155,4.30627,-0.00476177,-0.0017625,0.00724536,0.0041368,-0.0106611,0.887447,0.008816,0.0134506,1966,1107,20.4155,-4.30626
749,-83,20.4448,4.24524,-0.00354395,-0.00105851,0.00523994,0.00308405,-0.00768651,0.901828,0.00640484,0.0115788,1973,1107,20.4449,-4.24527
756,-83,20.4622,4.19226,-0.00165377,-0.000310903,0.00340255,0.00248583,-0.0044505,0.882813,0.00405788,0.0138185,1980,1107,20.4621,-4.19231
763,-83,20.4594,4.10425,0.000554118,0.000753982,0.00141714,0.00207471,-0.000766609,0.820598,0.0016974,0.0120509,1987,1107,20.4593,-4.10428
770,-83,20.4481,4.02209,0.00310753,0.00186579,-0.000881794,0.0035651,0.00140822,-0.478663,0.00207339,0.0131372,1994,1107,20.4481,-4.02214
777,-83,20.4424,3.96521,0.00585862,0.00264062,-0.0021923,0.00696901,0.00153023,-0.468829,0.00422924,0.0134135,2001,1107,20.4424,-3.96515
784,-83,20.4629,3.92737,0.00901536,0.00317425,-0.00236945,0.00985565,0.00233397,-0.340797,0.00594711,0.0224621,2008,1107,20.4628,-3.92731
791,-83,20.5392,3.84521,0.0132367,0.0037323,-0.00214853,0.0136998,0.00326918,-0.212304,0.00826198,0.041412,2015,1107,20.5392,-3.84524
798,-83,19.9425,3.65173,0.0188678,0.00440083,-0.00136401,0.0189953,0.00427335,-0.0931898,0.0115067,0.0426411,2022,1107,19.9425,-3.65179
805,-83,19.5989,3.62122,0.0262454,0.00532888,0.000287773,0.0262494,0.00532492,0.0137547,0.0160223,0.0430352,2029,1107,19.599,-3.62127
812,-83,19.6206,3.71204,0.0356706,0.00678173,0.00327971,0.0360383,0.00641407,0.111636,0.0221986,0.0475489,2036,1107,19.6205,-3.71209
-700,-90,0,0,0,0,0,0,0,0,0,-1,524,1114,0,0
-693,-90,-10.9817,0.178711,-0.0546248,-0.010236,-0.0194102,-0.00294575,-0.0619151,-1.21151,0.0403307,0.0447164,531,1114,-10.9817,-0.178659
-686,-90,-11.769,0.598511,-0.0390808,-0.00252364,-0.0186393,0.0053039,-0.0469083,-1.17321,0.0331818,0.0417506,538,1114,-11.7691,-0.59846
-679,-90,-12.3607,1.04773,-0.0275825,0.00232142,-0.0165264,0.00965584,-0.034917,-1.15311,0.0270767,0.0393624,545,1114,-12.3607,-1.04772
-672,-90,-12.903,1.2627,-0.0190793,0.00515261,-0.0138488,0.0114374,-0.025364,-1.14478,0.0217485,0.0413868,552,1114,-12.903,-1.26266
-665,-90,-12.4903,0.724365,-0.0128724,0.00653164,-0.011055,0.0115382,-0.0178789,-1.14555,0.017115,0.0439615,559,1114,-12.4903,-0.724323
-658,-90,-12.5612,0.911621,-0.00845192,0.00686815,-0.00843059,0.0105989,-0.0121827,-1.15417,0.0131636,0.0422066,566,1114,-12.5612,-0.911632
-651,-90,-12.8555,1.13953,-0.00534546,0.00647964,-0.00612828,0.0090826,-0.00794843,-1.16914,0.00984014,0.0294641,573,1114,-12.8554,-1.13947
-644,-90,-12.969,1.42944,-0.00330736,0.00572543,-0.00440171,0.0075156,-0.00509753,-1.18453,0.00732667,0.013921,580,1114,-12.969,-1.42944
-637,-90,-12.9613,1.5946,-0.00151345,0.00480952,-0.00428332,0.00697174,-0.00367567,-1.10332,0.00624469,0.0116309,587,1114,-12.9613,-1.59462
-630,-90,-12.9467,1.70618,-0.00134946,0.00356321,-0.00393809,0.00574823,-0.00353448,-1.06424,0.00540993,0.0112107,594,1114,-12.9467,-1.7062
-623,-90,-12.9455,1.78979,-0.00192926,0.00213254,-0.00445242,0.00499536,-0.00479209,-0.99937,0.00565119,0.00906882,601,1114,-12.9455,-1.78985
-616,-90,-12.9478,1.89343,-0.00336642,0.000706142,-0.00487299,0.00395119,-0.00661147,-0.983307,0.00616249,0.00839941,608,1114,-12.9478,-1.8934
-609,-90,-12.953,1.98462,-0.00459139,-0.000849855,-0.00595323,0.00351963,-0.00896088,-0.937635,0.00743039,0.0117579,615,1114,-12.953,-1.98465
-602,-90,-12.9868,2.09973,-0.00515128,-0.0013778,-0.00724223,0.00421942,-0.0107485,-0.912825,0.00891157,0.0111498,622,1114,-12.9868,-2.09969
-595,-90,-12.9187,2.23047,-0.0057426,-0.00181313,-0.00833687,0.00478739,-0.0123431,-0.901121,0.0102059,0.0122927,629,1114,-12.9187,-2.2305
-588,-90,-12.992,2.06348,-0.00604817,-0.0020573,-0.0089311,0.00509856,-0.013204,-0.895306,0.0109069,0.0268847,636,1114,-12.992,-2.06347
-581,-90,-13.4581,1.37427,-0.00594158,-0.00210602,-0.00909734,0.00527349,-0.0133211,-0.88928,0.0110657,0.0369662,643,1114,-13.4581,-1.37429
-574,-90,-13.5643,0.962891,-0.00574906,-0.0019919,-0.00890421,0.00522974,-0.0129707,-0.889362,0.0108202,0.0345655,650,1114,-13.5644,-0.962911
-567,-90,-13.5435,0.940186,-0.00510802,-0.00177977,-0.00826297,0.00498498,-0.0118728,-0.884767,0.00999996,0.036571,657,1114,-13.5435,-0.940212
-560,-90,-13.4174,1.10608,-0.00403509,-0.00144484,-0.00715828,0.00453453,-0.0100145,-0.874893,0.00859618,0.0410806,664,1114,-13.4174,-1.10607
-553,-90,-13.4215,1.21899,-0.0025742,-0.00102224,-0.00566023,0.00391496,-0.0075114,-0.85352,0.00670505,0.0412015,671,1114,-13.4215,-1.21899
-546,-90,-13.6039,1.35071,-0.000763289,-0.000548986,-0.00383608,0.00318144,-0.00449371,-0.799361,0.00445279,0.040678,678,1114,-13.6039,-1.35073
-539,-90,-13.6307,1.16565,0.00135364,-7.88095e-05,-0.00193164,0.00269756,-0.00142273,-0.607863,0.00241651,0.0414909,685,1114,-13.6307,-1.1657
-532,-90,-13.5037,0.875,0.00239402,-8.63869e-05,-0.00164773,0.00321612,-0.000908493,-0.462793,0.0025025,0.0425238,692,1114,-13.5037,-0.875039
-525,-90,0,0,0,0,0,0,0,0,0,-1,699,1114,0,0
-518,-90,0,0,0,0,0,0,0,0,0,-1,706,1114,0,0
-511,-90,0,0,0,0,0,0,0,0,0,-1,713,1114,0,0
-504,-90,0,0,0,0,0,0,0,0,0,-1,720,1114,0,0
-497,-90,0,0,0,0,0,0,0,0,0,-1,727,1114,0,0
-490,-90,0,0,0,0,0,0,0,0,0,-1,734,1114,0,0
-483,-90,0,0,0,0,0,0,0,0,0,-1,741,1114,0,0
-476,-90,0,0,0,0,0,0,0,0,0,-1,748,1114,0,0
-469,-90,0,0,0,0,0,0,0,0,0,-1,755,1114,0,0
-462,-90,0,0,0,0,0,0,0,0,0,-1,762,1114,0,0
-455,-90,0,0,0,0,0,0,0,0,0,-1,769,1114,0,0
-448,-90,0,0,0,0,0,0,0,0,0,-1,776,1114,0,0
-441,-90,0,0,0,0,0,0,0,0,0,-1,783,1114,0,0
-434,-90,0,0,0,0,0,0,0,0,0,-1,790,1114,0,0
-427,-90,0,0,0,0,0,0,0,0,0,-1,797,1114,0,0
-420,-90,0,0,0,0,0,0,0,0,0,-1,804,1114,0,0
-413,-90,0,0,0,0,0,0,0,0,0,-1,811,1114,0,0
-406,-90,0,0,0,0,0,0,0,0,0,-1,818,1114,0,0
-399,-90,0,0,0,0,0,0,0,0,0,-1,825,1114,0,0
-392,-90,0,0,0,0,0,0,0,0,0,-1,832,1114,0,0
-385,-90,0,0,0,0,0,0,0,0,0,-1,839,1114,0,0
-378,-90,0,0,0,0,0,0,0,0,0,-1,846,1114,0,0
-371,-90,0,0,0,0,0,0,0,0,0,-1,853,1114,0,0
-364,-90,0,0,0,0,0,0,0,0,0,-1,860,1114,0,0
-357,-90,0,0,0,0,0,0,0,0,0,-1,867,1114,0,0
-350,-90,0,0,0,0,0,0,0,0,0,-1,874,1114,0,0
-343,-90,0,0,0,0,0,0,0,0,0,-1,881,1114,0,0
-336,-90,0,0,0,0,0,0,0,0,0,-1,888,1114,0,0
-329,-90,0,0,0,0,0,0,0,0,0,-1,895,1114,0,0
-322,-90,0,0,0,0,0,0,0,0,0,-1,902,1114,0,0
-315,-90,0,0,0,0,0,0,0,0,0,-1,909,1114,0,0
-308,-90,0,0,0,0,0,0,0,0,0,-1,916,1114,0,0
-301,-90,0,0,0,0,0,0,0,0,0,-1,923,1114,0,0
-294,-90,0,0,0,0,0,0,0,0,0,-1,930,1114,0,0
-287,-90,0,0,0,0,0,0,0,0,0,-1,937,1114,0,0
-280,-90,0,0,0,0,0,0,0,0,0,-1,944,1114,0,0
-273,-90,0,0,0,0,0,0,0,0,0,-1,951,1114,0,0
-266,-90,0,0,0,0,0,0,0,0,0,-1,958,1114,0,0
-259,-90,0,0,0,0,0,0,0,0,0,-1,965,1114,0,0
-252,-90,0,0,0,0,0,0,0,0,0,-1,972,1114,0,0
-245,-90,0,0,0,0,0,0,0,0,0,-1,979,1114,0,0
-238,-90,0,0,0,0,0,0,0,0,0,-1,986,1114,0,0
-231,-90,0,0,0,0,0,0,0,0,0,-1,993,1114,0,0
-224,-90,0,0,0,0,0,0,0,0,0,-1,1000,1114,0,0
-217,-90,0,0,0,0,0,0,0,0,0,-1,1007,1114,0,0
-210,-90,0,0,0,0,0,0,0,0,0,-1,1014,1114,0,0
-203,-90,0,0,0,0,0,0,0,0,0,-1,1021,1114,0,0
-196,-90,0,0,0,0,0,0,0,0,0,-1,1028,1114,0,0
-189,-90,0,0,0,0,0,0,0,0,0,-1,1035,1114,0,0
-182,-90,0,0,0,0,0,0,0,0,0,-1,1042,1114,0,0
-175,-90,0,0,0,0,0,0,0,0,0,-1,1049,1114,0,0
-168,-90,0,0,0,0,0,0,0,0,0,-1,1056,1114,0,0
-161,-90,0,0,0,0,0,0,0,0,0,-1,1063,1114,0,0
-154,-90,0,0,0,0,0,0,0,0,0,-1,1070,1114,0,0
-147,-90,0,0,0,0,0,0,0,0,0,-1,1077,1114,0,0
-140,-90,0,0,0,0,0,0,0,0,0,-1,1084,1114,0,0
-133,-90,0,0,0,0,0,0,0,0,0,-1,1091,1114,0,0
-126,-90,0,0,0,0,0,0,0,0,0,-1,1098,1114,0,0
-119,-90,0,0,0,0,0,0,0,0,0,-1,1105,1114,0,0
-112,-90,0,0,0,0,0,0,0,0,0,-1,1112,1114,0,0
-105,-90,0,0,0,0,0,0,0,0,0,-1,1119,1114,0,0
-98,-90,0,0,0,0,0,0,0,0,0,-1,1126,1114,0,0
-91,-90,0,0,0,0,0,0,0,0,0,-1,1133,1114,0,0
-84,-90,0,0,0,0,0,0,0,0,0,-1,1140,1114,0,0
-77,-90,0,0,0,0,0,0,0,0,0,-1,1147,1114,0,0
-70,-90,0,0,0,0,0,0,0,0,0,-1,1154,1114,0,0
-63,-90,0,0,0,0,0,0,0,0,0,-1,1161,1114,0,0
-56,-90,0,0,0,0,0,0,0,0,0,-1,1168,1114,0,0
-49,-90,0,0,0,0,0,0,0,0,0,-1,1175,1114,0,0
-42,-90,0,0,0,0,0,0,0,0,0,-1,1182,1114,0,0
-35,-90,0,0,0,0,0,0,0,0,0,-1,1189,1114,0,0
-28,-90,0,0,0,0,0,0,0,0,0,-1,1196,1114,0,0
-21,-90,0,0,0,0,0,0,0,0,0,-1,1203,1114,0,0
-14,-90,0,0,0,0,0,0,0,0,0,-1,1210,1114,0,0
-7,-90,0,0,0,0,0,0,0,0,0,-1,1217,1114,0,0
0,-90,0,0,0,0,0,0,0,0,0,-1,1224,1114,0,0
7,-90,0,0,0,0,0,0,0,0,0,-1,1231,1114,0,0
14,-90,0,0,0,0,0,0,0,0,0,-1,1238,1114,0,0
21,-90,0,0,0,0,0,0,0,0,0,-1,1245,1114,0,0
28,-90,0,0,0,0,0,0,0,0,0,-1,1252,1114,0,0
35,-90,0,0,0,0,0,0,0,0,0,-1,1259,1114,0,0
42,-90,0,0,0,0,0,0,0,0,0,-1,1266,1114,0,0
49,-90,0,0,0,0,0,0,0,0,0,-1,1273,1114,0,0
56,-90,0,0,0,0,0,0,0,0,0,-1,1280,1114,0,0
63,-90,0,0,0,0,0,0,0,0,0,-1,1287,1114,0,0
70,-90,0,0,0,0,0,0,0,0,0,-1,1294,1114,0,0
77,-90,0,0,0,0,0,0,0,0,0,-1,1301,1114,0,0
84,-90,0,0,0,0,0,0,0,0,0,-1,1308,1114,0,0
91,-90,0,0,0,0,0,0,0,0,0,-1,1315,1114,0,0
98,-90,0,0,0,0,0,0,0,0,0,-1,1322,1114,0,0
105,-90,0,0,0,0,0,0,0,0,0,-1,1329,1114,0,0
112,-90,0,0,0,0,0,0,0,0,0,-1,1336,1114,0,0
119,-90,0,0,0,0,0,0,0,0,0,-1,1343,1114,0,0
126,-90,0,0,0,0,0,0,0,0,0,-1,1350,1114,0,0
133,-90,0,0,0,0,0,0,0,0,0,-1,1357,1114,0,0
140,-90,0,0,0,0,0,0,0,0,0,-1,1364,1114,0,0
147,-90,0,0,0,0,0,0,0,0,0,-1,1371,1114,0,0
154,-90,0,0,0,0,0,0,0,0,0,-1,1378,1114,0,0
161,-90,0,0,0,0,0,0,0,0,0,-1,1385,1114,0,0
168,-90,0,0,0,0,0,0,0,0,0,-1,1392,1114,0,0
175,-90,0,0,0,0,0,0,0,0,0,-1,1399,1114,0,0
182,-90,0,0,0,0,0,0,0,0,0,-1,1406,1114,0,0
189,-90,0,0,0,0,0,0,0,0,0,-1,1413,1114,0,0
196,-90,0,0,0,0,0,0,0,0,0,-1,1420,1114,0,0
203,-90,0,0,0,0,0,0,0,0,0,-1,1427,1114,0,0
210,-90,0,0,0,0,0,0,0,0,0,-1,1434,1114,0,0
217,-90,0,0,0,0,0,0,0,0,0,-1,1441,1114,0,0
224,-90,0,0,0,0,0,0,0,0,0,-1,1448,1114,0,0
231,-90,0,0,0,0,0,0,0,0,0,-1,1455,1114,0,0
238,-90,0,0,0,0,0,0,0,0,0,-1,1462,1114,0,0
245,-90,0,0,0,0,0,0,0,0,0,-1,1469,1114,0,0
252,-90,0,0,0,0,0,0,0,0,0,-1,1476,1114,0,0
259,-90,0,0,0,0,0,0,0,0,0,-1,1483,1114,0,0
266,-90,0,0,0,0,0,0,0,0,0,-1,1490,1114,0,0
273,-90,0,0,0,0,0,0,0,0,0,-1,1497,1114,0,0
280,-90,0,0,0,0,0,0,0,0,0,-1,1504,1114,0,0
287,-90,0,0,0,0,0,0,0,0,0,-1,1511,1114,0,0
294,-90,0,0,0,0,0,0,0,0,0,-1,1518,1114,0,0
301,-90,0,0,0,0,0,0,0,0,0,-1,1525,1114,0,0
308,-90,0,0,0,0,0,0,0,0,0,-1,1532,1114,0,0
315,-90,0,0,0,0,0,0,0,0,0,-1,1539,1114,0,0
322,-90,0,0,0,0,0,0,0,0,0,-1,1546,1114,0,0
329,-90,0,0,0,0,0,0,0,0,0,-1,1553,1114,0,0
336,-90,0,0,0,0,0,0,0,0,0,-1,1560,1114,0,0
343,-90,0,0,0,0,0,0,0,0,0,-1,1567,1114,0,0
350,-90,0,0,0,0,0,0,0,0,0,-1,1574,1114,0,0
357,-90,0,0,0,0,0,0,0,0,0,-1,1581,1114,0,0
364,-90,0,0,0,0,0,0,0,0,0,-1,1588,1114,0,0
371,-90,0,0,0,0,0,0,0,0,0,-1,1595,1114,0,0
378,-90,0,0,0,0,0,0,0,0,0,-1,1602,1114,0,0
385,-90,0,0,0,0,0,0,0,0,0,-1,1609,1114,0,0
392,-90,0,0,0,0,0,0,0,0,0,-1,1616,1114,0,0
399,-90,0,0,0,0,0,0,0,0,0,-1,1623,1114,0,0
406,-90,0,0,0,0,0,0,0,0,0,-1,1630,1114,0,0
413,-90,0,0,0,0,0,0,0,0,0,-1,1637,1114,0,0
420,-90,0,0,0,0,0,0,0,0,0,-1,1644,1114,0,0
427,-90,0,0,0,0,0,0,0,0,0,-1,1651,1114,0,0
434,-90,0,0,0,0,0,0,0,0,0,-1,1658,1114,0,0
441,-90,0,0,0,0,0,0,0,0,0,-1,1665,1114,0,0
448,-90,0,0,0,0,0,0,0,0,0,-1,1672,1114,0,0
455,-90,0,0,0,0,0,0,0,0,0,-1,1679,1114,0,0
462,-90,0,0,0,0,0,0,0,0,0,-1,1686,1114,0,0
469,-90,0,0,0,0,0,0,0,0,0,-1,1693,1114,0,0
476,-90,0,0,0,0,0,0,0,0,0,-1,1700,1114,0,0
483,-90,0,0,0,0,0,0,0,0,0,-1,1707,1114,0,0
490,-90,0,0,0,0,0,0,0,0,0,-1,1714,1114,0,0
497,-90,0,0,0,0,0,0,0,0,0,-1,1721,1114,0,0
504,-90,0,0,0,0,0,0,0,0,0,-1,1728,1114,0,0
511,-90,0,0,0,0,0,0,0,0,0,-1,1735,1114,0,0
518,-90,0,0,0,0,0,0,0,0,0,-1,1742,1114,0,0
525,-90,0,0,0,0,0,0,0,0,0,-1,1749,1114,0,0
532,-90,0,0,0,0,0,0,0,0,0,-1,1756,1114,0,0
539,-90,0,0,0,0,0,0,0,0,0,-1,1763,1114,0,0
546,-90,0,0,0,0,0,0,0,0,0,-1,1770,1114,0,0
553,-90,0,0,0,0,0,0,0,0,0,-1,1777,1114,0,0
560,-90,0,0,0,0,0,0,0,0,0,-1,1784,1114,0,0
567,-90,0,0,0,0,0,0,0,0,0,-1,1791,1114,0,0
574,-90,0,0,0,0,0,0,0,0,0,-1,1798,1114,0,0
581,-90,0,0,0,0,0,0,0,0,0,-1,1805,1114,0,0
588,-90,0,0,0,0,0,0,0,0,0,-1,1812,1114,0,0
595,-90,0,0,0,0,0,0,0,0,0,-1,1819,1114,0,0
602,-90,0,0,0,0,0,0,0,0,0,-1,1826,1114,0,0
609,-90,0,0,0,0,0,0,0,0,0,-1,1833,1114,0,0
616,-90,0,0,0,0,0,0,0,0,0,-1,1840,1114,0,0
623,-90,0,0,0,0,0,0,0,0,0,-1,1847,1114,0,0
630,-90,0,0,0,0,0,0,0,0,0,-1,1854,1114,0,0
637,-90,0,0,0,0,0,0,0,0,0,-1,1861,1114,0,0
644,-90,21.0673,2.94836,0.00476229,-0.00379514,0.00175254,0.0051073,-0.00414014,0.194376,0.00534874,0.0399489,1868,1114,21.0673,-2.94839
651,-90,21.0605,3.02441,0.00331767,-0.00282683,0.0016254,0.00372115,-0.0032303,0.243312,0.00401675,0.0419552,1875,1114,21.0606,-3.02445
658,-90,21.2906,2.79663,0.00253066,-0.00209839,0.00100723,0.00274033,-0.00230805,0.205229,0.00291824,0.0406835,1882,1114,21.2907,-2.7966
665,-90,21.2753,2.76416,0.00161638,-0.00159134,0.000920179,0.0018616,-0.00183656,0.260439,0.00213515,0.0385009,1889,1114,21.2753,-2.76411
672,-90,21.1587,2.89917,-0.000106967,-0.00181169,0.00239844,0.00158606,-0.00350472,0.614668,0.00300794,0.0414542,1896,1114,21.1586,-2.89915
679,-90,21.1788,2.93323,-0.00204221,-0.00227294,0.00441232,0.00225626,-0.0065714,0.772328,0.00529573,0.0420536,1903,1114,21.1788,-2.93322
686,-90,21.2275,2.8291,-0.00376797,-0.00280298,0.00637996,0.00311271,-0.00968365,0.82314,0.00770583,0.0371254,1910,1114,21.2276,-2.82906
693,-90,21.2214,2.89148,-0.00522116,-0.00329306,0.00815017,0.00394988,-0.0124641,0.844268,0.00989246,0.0342161,1917,1114,21.2214,-2.89146
700,-90,21.2103,3.00916,-0.00631348,-0.00353627,0.00951336,0.00468929,-0.014539,0.857868,0.0115768,0.0294247,1924,1114,21.2103,-3.00919
707,-90,21.1749,2.90845,-0.00704098,-0.00378542,0.0104091,0.00512242,-0.0159488,0.86296,0.0126895,0.0198813,1931,1114,21.175,-2.90841
714,-90,21.0707,3.36072,-0.00737586,-0.00384793,0.0108476,0.00537815,-0.0166019,0.866,0.0132302,0.0341163,1938,1114,21.0707,-3.3607
721,-90,20.5775,4.32617,-0.00724708,-0.0036936,0.0107484,0.00542397,-0.0163646,0.867308,0.0130976,0.0256693,1945,1114,20.5775,-4.32614
728,-90,20.3944,4.45374,-0.00682508,-0.0032931,0.0101461,0.00523959,-0.0153578,0.871563,0.0123609,0.0178023,1952,1114,20.3944,-4.4537
735,-90,20.3693,4.39307,-0.0062208,-0.00267477,0.00903653,0.00476104,-0.0136566,0.88227,0.0110391,0.0198808,1959,1114,20.3693,-4.39306
742,-90,20.354,4.30554,-0.00540127,-0.0018968,0.00721356,0.0037743,-0.0110724,0.904545,0.00891024,0.0176679,1966,1114,20.354,-4.3055
749,-90,20.3953,4.20654,-0.00401005,-0.00121269,0.00506887,0.00264694,-0.00786968,0.920016,0.00631642,0.0129515,1973,1114,20.3953,-4.20651
756,-90,20.422,4.16663,-0.00210388,-0.00045414,0.00291438,0.00174986,-0.00430787,0.923308,0.00359987,0.0132191,1980,1114,20.422,-4.16659
763,-90,20.4087,4.10583,-5.24438e-05,0.000730874,0.000521773,0.000991629,-0.000313199,1.10735,0.000786553,0.0118736,1987,1114,20.4087,-4.10588
770,-90,20.3751,4.01782,0.00229512,0.00187712,-0.00212454,0.00422091,-4.86735e-05,-0.736368,0.00283031,0.0130145,1994,1114,20.3751,-4.01785
777,-90,20.3463,3.97339,0.00451397,0.00267085,-0.00388358,0.00758384,-0.000399015,-0.668905,0.00519401,0.0123982,2001,1114,20.3463,-3.97334
784,-90,20.4303,3.87488,0.00688046,0.00335104,-0.00491121,0.0103344,-0.000102889,-0.61292,0.00692415,0.0259271,2008,1114,20.4303,-3.87483
791,-90,20.515,3.56958,0.00999855,0.00418618,-0.00587781,0.0136494,0.000535342,-0.555806,0.0089265,0.0425091,2015,1114,20.5151,-3.56961
798,-90,20.3721,3.25549,0.0140525,0.00533267,-0.00670563,0.017691,0.00169419,-0.497145,0.0112718,0.0451181,2022,1114,20.372,-3.25552
805,-90,20.6013,3.22485,0.0192006,0.00703185,-0.00719425,0.0225384,0.00369409,-0.434393,0.0139581,0.0461884,2029,1114,20.6014,-3.22485
812,-90,19.0923,4.38684,0.0254927,0.00968892,-0.00698811,0.0281395,0.00704218,-0.362053,0.0169084,0.0479533,2036,1114,19.0923,-4.38687
-700,-97,0,0,0,0,0,0,0,0,0,-1,524,1121,0,0
-693,-97,-11.2183,0.292603,-0.0702105,-0.0113121,-0.024977,-0.00214646,-0.0793761,-1.21909,0.0522166,0.0437075,531,1121,-11.2182,-0.2926
-686,-97,-11.9321,0.549072,-0.0516575,-0.00365626,-0.0226552,0.0053475,-0.0606612,-1.19251,0.042336,0.0458297,538,1121,-11.9321,-0.549043
-679,-97,-13.2143,0.642334,-0.0373948,0.00123922,-0.0193918,0.00929354,-0.0454491,-1.17713,0.0338255,0.043655,545,1121,-13.2143,-0.642344
-672,-97,-13.6646,1.03076,-0.026463,0.00418938,-0.0158686,0.0109245,-0.0331982,-1.1694,0.0265342,0.0432186,552,1121,-13.6646,-1.03074
-665,-97,-13.8882,1.37073,-0.0182111,0.00572681,-0.0124562,0.0110325,-0.0235167,-1.16812,0.0203765,0.0444585,559,1121,-13.8882,-1.37071
-658,-97,-12.7371,0.685669,-0.0121358,0.00623316,-0.00938462,0.0101798,-0.0160825,-1.17271,0.0152896,0.0425589,566,1121,-12.7371,-0.685662
-651,-97,-12.8364,1.24561,-0.00775877,0.00600721,-0.00676156,0.00877275,-0.0105243,-1.18255,0.0111565,0.0307507,573,1121,-12.8364,-1.24555
-644,-97,-12.8589,1.44714,-0.00477645,0.0053525,-0.00476044,0.00723862,-0.00666256,-1.19357,0.00802815,0.0114121,580,1121,-12.8589,-1.44714
-637,-97,-12.8447,1.57471,-0.0022466,0.00461138,-0.00422733,0.00662557,-0.0042608,-1.12615,0.00633449,0.0119214,587,1121,-12.8447,-1.57465
-630,-97,-12.8371,1.6814,-0.00148556,0.00347662,-0.00380615,0.00553894,-0.00354788,-1.07424,0.00528809,0.00943882,594,1121,-12.8371,-1.68139
-623,-97,-12.8491,1.81238,-0.00187393,0.00207615,-0.00422458,0.00476456,-0.00456235,-1.00406,0.00538532,0.0107744,601,1121,-12.8491,-1.81234
-616,-97,-12.85,1.90564,-0.0033712,0.000712452,-0.00474539,0.00383664,-0.00649539,-0.988564,0.00603068,0.0122006,608,1121,-12.85,-1.9057
-609,-97,-12.8657,2.00586,-0.00478323,-0.000861909,-0.00589159,0.0033867,-0.00903184,-0.946029,0.00741266,0.0149258,615,1121,-12.8657,-2.00588
-602,-97,-12.8846,2.08875,-0.00555101,-0.00137587,-0.0071866,0.00402022,-0.0109471,-0.926749,0.00894454,0.0132356,622,1121,-12.8846,-2.08871
-595,-97,-12.8124,2.2063,-0.00629584,-0.00178091,-0.00826944,0.00453366,-0.0126104,-0.918646,0.0102577,0.0160575,629,1121,-12.8124,-2.20633
-588,-97,-12.8225,2.23767,-0.00666674,-0.00199894,-0.00890638,0.00487426,-0.0135399,-0.913541,0.0110169,0.0264251,636,1121,-12.8225,-2.23768
-581,-97,-13.3638,1.4552,-0.00660527,-0.00204378,-0.00913016,0.00508619,-0.0137353,-0.907795,0.0112425,0.0385584,643,1121,-13.3637,-1.45516
-574,-97,-13.7103,0.727905,0,0,0,0,0,0,0,-1,650,1121,-13.7102,-0.727958
-567,-97,-13.5618,0.983276,-0.00583306,-0.00173073,-0.00841581,0.00488028,-0.0124441,-0.904931,0.0103151,0.034671,657,1121,-13.5618,-0.983287
-560,-97,-13.4468,1.10254,-0.00475922,-0.00139894,-0.00739189,0.00450135,-0.0106595,-0.897147,0.0089906,0.0394671,664,1121,-13.4468,-1.10257
-553,-97,-13.4487,1.20386,-0.00327286,-0.000982235,-0.00596397,0.0039454,-0.0082005,-0.880263,0.00715444,0.0443983,671,1121,-13.4487,-1.20383
-546,-97,-13.5955,1.21973,-0.00141508,-0.000520331,-0.00419166,0.00324776,-0.00518317,-0.838562,0.00491016,0.0437923,678,1121,-13.5955,-1.21972
-539,-97,-13.6489,1.18628,0.000801449,-6.61697e-05,-0.0022489,0.002658,-0.00192272,-0.690119,0.00265601,0.0409513,685,1121,-13.6489,-1.18628
-532,-97,-13.57,1.06628,0.0021048,-5.78012e-05,-0.00162137,0.00297236,-0.000925362,-0.491315,0.00235152,0.0401289,692,1121,-13.57,-1.06632
-525,-97,0,0,0,0,0,0,0,0,0,-1,699,1121,0,0
-518,-97,0,0,0,0,0,0,0,0,0,-1,706,1121,0,0
-511,-97,0,0,0,0,0,0,0,0,0,-1,713,1121,0,0
-504,-97,0,0,0,0,0,0,0,0,0,-1,720,1121,0,0
-497,-97,0,0,0,0,0,0,0,0,0,-1,727,1121,0,0
-490,-97,0,0,0,0,0,0,0,0,0,-1,734,1121,0,0
-483,-97,0,0,0,0,0,0,0,0,0,-1,741,1121,0,0
-476,-97,0,0,0,0,0,0,0,0,0,-1,748,1121,0,0
-469,-97,0,0,0,0,0,0,0,0,0,-1,755,1121,0,0
-462,-97,0,0,0,0,0,0,0,0,0,-1,762,1121,0,0
-455,-97,0,0,0,0,0,0,0,0,0,-1,769,1121,0,0
-448,-97,0,0,0,0,0,0,0,0,0,-1,776,1121,0,0
-441,-97,0,0,0,0,0,0,0,0,0,-1,783,1121,0,0
-434,-97,0,0,0,0,0,0,0,0,0,-1,790,1121,0,0
-427,-97,0,0,0,0,0,0,0,0,0,-1,797,1121,0,0
-420,-97,0,0,0,0,0,0,0,0,0,-1,804,1121,0,0
-413,-97,0,0,0,0,0,0,0,0,0,-1,811,1121,0,0
-406,-97,0,0,0,0,0,0,0,0,0,-1,818,1121,0,0
-399,-97,0,0,0,0,0,0,0,0,0,-1,825,1121,0,0
-392,-97,0,0,0,0,0,0,0,0,0,-1,832,1121,0,0
-385,-97,0,0,0,0,0,0,0,0,0,-1,839,1121,0,0
-378,-97,0,0,0,0,0,0,0,0,0,-1,846,1121,0,0
-371,-97,0,0,0,0,0,0,0,0,0,-1,853,1121,0,0
-364,-97,0,0,0,0,0,0,0,0,0,-1,860,1121,0,0
-357,-97,0,0,0,0,0,0,0,0,0,-1,867,1121,0,0
-350,-97,0,0,0,0,0,0,0,0,0,-1,874,1121,0,0
-343,-97,0,0,0,0,0,0,0,0,0,-1,881,1121,0,0
-336,-97,0,0,0,0,0,0,0,0,0,-1,888,1121,0,0
-329,-97,0,0,0,0,0,0,0,0,0,-1,895,1121,0,0
-322,-97,0,0,0,0,0,0,0,0,0,-1,902,1121,0,0
-315,-97,0,0,0,0,0,0,0,0,0,-1,909,1121,0,0
-308,-97,0,0,0,0,0,0,0,0,0,-1,916,1121,0,0
-301,-97,0,0,0,0,0,0,0,0,0,-1,923,1121,0,0
-294,-97,0,0,0,0,0,0,0,0,0,-1,930,1121,0,0
-287,-97,0,0,0,0,0,0,0,0,0,-1,937,1121,0,0
-280,-97,0,0,0,0,0,0,0,0,0,-1,944,1121,0,0
-273,-97,0,0,0,0,0,0,0,0,0,-1,951,1121,0,0
-266,-97,0,0,0,0,0,0,0,0,0,-1,958,1121,0,0
-259,-97,0,0,0,0,0,0,0,0,0,-1,965,1121,0,0
-252,-97,0,0,0,0,0,0,0,0,0,-1,972,1121,0,0
-245,-97,0,0,0,0,0,0,0,0,0,-1,979,1121,0,0
-238,-97,0,0,0,0,0,0,0,0,0,-1,986,1121,0,0
-231,-97,0,0,0,0,0,0,0,0,0,-1,993,1121,0,0
-224,-97,0,0,0,0,0,0,0,0,0,-1,1000,1121,0,0
-217,-97,0,0,0,0,0,0,0,0,0,-1,1007,1121,0,0
-210,-97,0,0,0,0,0,0,0,0,0,-1,1014,1121,0,0
-203,-97,0,0,0,0,0,0,0,0,0,-1,1021,1121,0,0
-196,-97,0,0,0,0,0,0,0,0,0,-1,1028,1121,0,0
-189,-97,0,0,0,0,0,0,0,0,0,-1,1035,1121,0,0
-182,-97,0,0,0,0,0,0,0,0,0,-1,1042,1121,0,0
-175,-97,0,0,0,0,0,0,0,0,0,-1,1049,1121,0,0
-168,-97,0,0,0,0,0,0,0,0,0,-1,1056,1121,0,0
-161,-97,0,0,0,0,0,0,0,0,0,-1,1063,1121,0,0
-154,-97,0,0,0,0,0,0,0,0,0,-1,1070,1121,0,0
-147,-97,0,0,0,0,0,0,0,0,0,-1,1077,1121,0,0
-140,-97,0,0,0,0,0,0,0,0,0,-1,1084,1121,0,0
-133,-97,0,0,0,0,0,0,0,0,0,-1,1091,1121,0,0
-126,-97,0,0,0,0,0,0,0,0,0,-1,1098,1121,0,0
-119,-97,0,0,0,0,0,0,0,0,0,-1,1105,1121,0,0
-112,-97,0,0,0,0,0,0,0,0,0,-1,1112,1121,0,0
-105,-97,0,0,0,0,0,0,0,0,0,-1,1119,1121,0,0
-98,-97,0,0,0,0,0,0,0,0,0,-1,1126,1121,0,0
-91,-97,0,0,0,0,0,0,0,0,0,-1,1133,1121,0,0
-84,-97,0,0,0,0,0,0,0,0,0,-1,1140,1121,0,0
-77,-97,0,0,0,0,0,0,0,0,0,-1,1147,1121,0,0
-70,-97,0,0,0,0,0,0,0,0,0,-1,1154,1121,0,0
-63,-97,0,0,0,0,0,0,0,0,0,-1,1161,1121,0,0
-56,-97,0,0,0,0,0,0,0,0,0,-1,1168,1121,0,0
-49,-97,0,0,0,0,0,0,0,0,0,-1,1175,1121,0,0
-42,-97,0,0,0,0,0,0,0,0,0,-1,1182,1121,0,0
-35,-97,0,0,0,0,0,0,0,0,0,-1,1189,1121,0,0
-28,-97,0,0,0,0,0,0,0,0,0,-1,1196,1121,0,0
-21,-97,0,0,0,0,0,0,0,0,0,-1,1203,1121,0,0
-14,-97,0,0,0,0,0,0,0,0,0,-1,1210,1121,0,0
-7,-97,0,0,0,0,0,0,0,0,0,-1,1217,1121,0,0
0,-97,0,0,0,0,0,0,0,0,0,-1,1224,1121,0,0
7,-97,0,0,0,0,0,0,0,0,0,-1,1231,1121,0,0
14,-97,0,0,0,0,0,0,0,0,0,-1,1238,1121,0,0
21,-97,0,0,0,0,0,0,0,0,0,-1,1245,1121,0,0
28,-97,0,0,0,0,0,0,0,0,0,-1,1252,1121,0,0
35,-97,0,0,0,0,0,0,0,0,0,-1,1259,1121,0,0
42,-97,0,0,0,0,0,0,0,0,0,-1,1266,1121,0,0
49,-97,0,0,0,0,0,0,0,0,0,-1,1273,1121,0,0
56,-97,0,0,0,0,0,0,0,0,0,-1,1280,1121,0,0
63,-97,0,0,0,0,0,0,0,0,0,-1,1287,1121,0,0
70,-97,0,0,0,0,0,0,0,0,0,-1,1294,1121,0,0
77,-97,0,0,0,0,0,0,0,0,0,-1,1301,1121,0,0
84,-97,0,0,0,0,0,0,0,0,0,-1,1308,1121,0,0
91,-97,0,0,0,0,0,0,0,0,0,-1,1315,1121,0,0
98,-97,0,0,0,0,0,0,0,0,0,-1,1322,1121,0,0
105,-97,0,0,0,0,0,0,0,0,0,-1,1329,1121,0,0
112,-97,0,0,0,0,0,0,0,0,0,-1,1336,1121,0,0
119,-97,0,0,0,0,0,0,0,0,0,-1,1343,1121,0,0
126,-97,0,0,0,0,0,0,0,0,0,-1,1350,1121,0,0
133,-97,0,0,0,0,0,0,0,0,0,-1,1357,1121,0,0
140,-97,0,0,0,0,0,0,0,0,0,-1,1364,1121,0,0
147,-97,0,0,0,0,0,0,0,0,0,-1,1371,1121,0,0
154,-97,0,0,0,0,0,0,0,0,0,-1,1378,1121,0,0
161,-97,0,0,0,0,0,0,0,0,0,-1,1385,1121,0,0
168,-97,0,0,0,0,0,0,0,0,0,-1,1392,1121,0,0
175,-97,0,0,0,0,0,0,0,0,0,-1,1399,1121,0,0
182,-97,0,0,0,0,0,0,0,0,0,-1,1406,1121,0,0
189,-97,0,0,0,0,0,0,0,0,0,-1,1413,1121,0,0
196,-97,0,0,0,0,0,0,0,0,0,-1,1420,1121,0,0
203,-97,0,0,0,0,0,0,0,0,0,-1,1427,1121,0,0
210,-97,0,0,0,0,0,0,0,0,0,-1,1434,1121,0,0
217,-97,0,0,0,0,0,0,0,0,0,-1,1441,1121,0,0
224,-97,0,0,0,0,0,0,0,0,0,-1,1448,1121,0,0
231,-97,0,0,0,0,0,0,0,0,0,-1,1455,1121,0,0
238,-97,0,0,0,0,0,0,0,0,0,-1,1462,1121,0,0
245,-97,0,0,0,0,0,0,0,0,0,-1,1469,1121,0,0
252,-97,0,0,0,0,0,0,0,0,0,-1,1476,1121,0,0
259,-97,0,0,0,0,0,0,0,0,0,-1,1483,1121,0,0
266,-97,0,0,0,0,0,0,0,0,0,-1,1490,1121,0,0
273,-97,0,0,0,0,0,0,0,0,0,-1,1497,1121,0,0
280,-97,0,0,0,0,0,0,0,0,0,-1,1504,1121,0,0
287,-97,0,0,0,0,0,0,0,0,0,-1,1511,1121,0,0
294,-97,0,0,0,0,0,0,0,0,0,-1,1518,1121,0,0
301,-97,0,0,0,0,0,0,0,0,0,-1,1525,1121,0,0
308,-97,0,0,0,0,0,0,0,0,0,-1,1532,1121,0,0
315,-97,0,0,0,0,0,0,0,0,0,-1,1539,1121,0,0
322,-97,0,0,0,0,0,0,0,0,0,-1,1546,1121,0,0
329,-97,0,0,0,0,0,0,0,0,0,-1,1553,1121,0,0
336,-97,0,0,0,0,0,0,0,0,0,-1,1560,1121,0,0
343,-97,0,0,0,0,0,0,0,0,0,-1,1567,1121,0,0
350,-97,0,0,0,0,0,0,0,0,0,-1,1574,1121,0,0
357,-97,0,0,0,0,0,0,0,0,0,-1,1581,1121,0,0
364,-97,0,0,0,0,0,0,0,0,0,-1,1588,1121,0,0
371,-97,0,0,0,0,0,0,0,0,0,-1,1595,1121,0,0
378,-97,0,0,0,0,0,0,0,0,0,-1,1602,1121,0,0
385,-97,0,0,0,0,0,0,0,0,0,-1,1609,1121,0,0
392,-97,0,0,0,0,0,0,0,0,0,-1,1616,1121,0,0
399,-97,0,0,0,0,0,0,0,0,0,-1,1623,1121,0,0
406,-97,0,0,0,0,0,0,0,0,0,-1,1630,1121,0,0
413,-97,0,0,0,0,0,0,0,0,0,-1,1637,1121,0,0
420,-97,0,0,0,0,0,0,0,0,0,-1,1644,1121,0,0
427,-97,0,0,0,0,0,0,0,0,0,-1,1651,1121,0,0
434,-97,0,0,0,0,0,0,0,0,0,-1,1658,1121,0,0
441,-97,0,0,0,0,0,0,0,0,0,-1,1665,1121,0,0
448,-97,0,0,0,0,0,0,0,0,0,-1,1672,1121,0,0
455,-97,0,0,0,0,0,0,0,0,0,-1,1679,1121,0,0
462,-97,0,0,0,0,0,0,0,0,0,-1,1686,1121,0,0
469,-97,0,0,0,0,0,0,0,0,0,-1,1693,1121,0,0
476,-97,0,0,0,0,0,0,0,0,0,-1,1700,1121,0,0
483,-97,0,0,0,0,0,0,0,0,0,-1,1707,1121,0,0
490,-97,0,0,0,0,0,0,0,0,0,-1,1714,1121,0,0
497,-97,0,0,0,0,0,0,0,0,0,-1,1721,1121,0,0
504,-97,0,0,0,0,0,0,0,0,0,-1,1728,1121,0,0
511,-97,0,0,0,0,0,0,0,0,0,-1,1735,1121,0,0
518,-97,0,0,0,0,0,0,0,0,0,-1,1742,1121,0,0
525,-97,0,0,0,0,0,0,0,0,0,-1,1749,1121,0,0
532,-97,0,0,0,0,0,0,0,0,0,-1,1756,1121,0,0
539,-97,0,0,0,0,0,0,0,0,0,-1,1763,1121,0,0
546,-97,0,0,0,0,0,0,0,0,0,-1,1770,1121,0,0
553,-97,0,0,0,0,0,0,0,0,0,-1,1777,1121,0,0
560,-97,0,0,0,0,0,0,0,0,0,-1,1784,1121,0,0
567,-97,0,0,0,0,0,0,0,0,0,-1,1791,1121,0,0
574,-97,0,0,0,0,0,0,0,0,0,-1,1798,1121,0,0
581,-97,0,0,0,0,0,0,0,0,0,-1,1805,1121,0,0
588,-97,0,0,0,0,0,0,0,0,0,-1,1812,1121,0,0
595,-97,0,0,0,0,0,0,0,0,0,-1,1819,1121,0,0
602,-97,0,0,0,0,0,0,0,0,0,-1,1826,1121,0,0
609,-97,0,0,0,0,0,0,0,0,0,-1,1833,1121,0,0
616,-97,0,0,0,0,0,0,0,0,0,-1,1840,1121,0,0
623,-97,0,0,0,0,0,0,0,0,0,-1,1847,1121,0,0
630,-97,0,0,0,0,0,0,0,0,0,-1,1854,1121,0,0
637,-97,0,0,0,0,0,0,0,0,0,-1,1861,1121,0,0
644,-97,21.0046,3.17261,0.00368205,-0.0047753,0.00128709,0.00387359,-0.00496684,0.147732,0.00511702,0.0391854,1868,1121,21.0047,-3.17257
651,-97,21.075,3.10437,0.00262409,-0.00350014,0.00133853,0.00290387,-0.00377992,0.206048,0.00386992,0.0369826,1875,1121,21.075,-3.10442
658,-97,21.2084,2.9082,0.00215626,-0.00252294,0.00081289,0.00229346,-0.00266014,0.1672,0.00286257,0.0388021,1882,1121,21.2084,-2.90824
665,-97,21.2228,2.82898,0.00125419,-0.00189324,0.000962024,0.00152495,-0.002164,0.274346,0.00214044,0.0395252,1889,1121,21.2228,-2.82894
672,-97,21.1411,2.95703,-0.00059574,-0.00202938,0.00258173,0.00136684,-0.00399196,0.649984,0.00321527,0.0411153,1896,1121,21.1411,-2.95699
679,-97,21.1371,3.04834,-0.00263972,-0.00241576,0.00458932,0.00206295,-0.00711843,0.797595,0.00556228,0.0416431,1903,1121,21.1371,-3.04829
686,-97,21.1656,2.98401,-0.00448682,-0.00289326,0.00651484,0.00287335,-0.0102534,0.846247,0.007968,0.0380377,1910,1121,21.1656,-2.98404
693,-97,21.1967,2.90735,-0.00604206,-0.00334593,0.0082102,0.00362614,-0.0130141,0.866769,0.0101041,0.0333766,1917,1121,21.1966,-2.90736
700,-97,21.1968,2.96375,-0.00720829,-0.00354297,0.00951387,0.00431315,-0.0150644,0.880548,0.0117476,0.02601,1924,1121,21.1968,-2.96377
707,-97,21.153,2.89221,-0.00796914,-0.00378564,0.0103768,0.00470815,-0.0164629,0.884855,0.0128358,0.0179634,1931,1121,21.153,-2.8922
714,-97,20.9343,3.57776,-0.00834364,-0.00384795,0.0107783,0.00491445,-0.017106,0.888201,0.0133472,0.0350613,1938,1121,20.9343,-3.57776
721,-97,20.5074,4.38611,-0.00823707,-0.00369041,0.0106435,0.00491984,-0.0168473,0.890611,0.0131812,0.027229,1945,1121,20.5074,-4.3861
728,-97,20.3423,4.50085,-0.00775438,-0.00329869,0.0100129,0.00473122,-0.0157843,0.894864,0.0124044,0.0177159,1952,1121,20.3423,-4.50084
735,-97,20.3105,4.40137,-0.00698273,-0.00271551,0.00888523,0.00428869,-0.0139869,0.903232,0.0110356,0.0183085,1959,1121,20.3106,-4.40139
742,-97,20.2806,4.30273,-0.00592517,-0.00198602,0.00704631,0.00336081,-0.011272,0.921679,0.00885026,0.0155915,1966,1121,20.2807,-4.30276
749,-97,20.2872,4.2146,-0.00431486,-0.00130565,0.00480342,0.0022233,-0.00784381,0.937176,0.00610674,0.016717,1973,1121,20.2873,-4.21454
756,-97,20.3029,4.11963,-0.0022936,-0.000557079,0.00240498,0.00113157,-0.00398226,0.95863,0.00310162,0.0143532,1980,1121,20.3028,-4.11965
763,-97,20.3046,4.06921,-0.000158829,0.000627749,-0.000300751,0.000729563,-0.000260643,-1.24437,0.000592679,0.0115266,1987,1121,20.3046,-4.06917
770,-97,20.2872,4.0144,0.00220186,0.00172406,-0.00318023,0.00515215,-0.00122623,-0.747908,0.00390817,0.00899983,1994,1121,20.2873,-4.01441
777,-97,20.2886,3.92847,0.00424528,0.00246141,-0.00528838,0.00871641,-0.00200972,-0.701855,0.0065839,0.0128902,2001,1121,20.2886,-3.92851
784,-97,20.3744,3.78882,0.00635612,0.00316917,-0.0070165,0.0119578,-0.00243252,-0.67374,0.0088943,0.0339098,2008,1121,20.3744,-3.78883
791,-97,20.5016,3.59839,0.00908558,0.00409721,-0.00895944,0.0158915,-0.00270874,-0.649642,0.0116031,0.0429819,2015,1121,20.5016,-3.59833
798,-97,20.6616,3.46887,0.0125331,0.00543314,-0.0110855,0.0206232,-0.00265696,-0.63044,0.0147146,0.0452304,2022,1121,20.6616,-3.46892
805,-97,20.9839,3.46118,0.0167669,0.00744472,-0.0132605,0.0261616,-0.00195005,-0.616392,0.0181261,0.0450557,2029,1121,20.9839,-3.46117
812,-97,21.4993,3.10205,0.0217036,0.0105864,-0.0152153,0.0323438,-5.38528e-05,-0.610265,0.0215805,0.0469658,2036,1121,21.4994,-3.10203
-700,-104,0,0,0,0,0,0,0,0,0,-1,524,1128,0,0
-693,-104,-11.4071,0.501221,-0.083142,-0.0153226,-0.0323899,-0.00233912,-0.0961255,-1.18956,0.0633183,0.0457319,531,1128,-11.4071,-0.501225
-686,-104,-12.1571,0.740479,-0.0616127,-0.00730185,-0.0281836,0.0046801,-0.0735946,-1.16881,0.0506952,0.0479268,538,1128,-12.1571,-0.74052
-679,-104,-13.7698,0.436279,0,0,0,0,0,0,0,-1,545,1128,-13.7698,-0.436304
-672,-104,-14.3878,0.94873,-0.0319847,0.00145005,-0.0188331,0.00991513,-0.0404498,-1.14838,0.0308081,0.0481949,552,1128,-14.3878,-0.948712
-665,-104,-12.8281,0.478027,-0.022136,0.00346452,-0.0145757,0.0100627,-0.0287341,-1.14571,0.0232479,0.0438433,559,1128,-12.8281,-0.477982
-658,-104,-12.8914,0.915405,-0.0148106,0.00442717,-0.0108712,0.00932398,-0.0197074,-1.14758,0.0171149,0.0437474,566,1128,-12.8914,-0.915389
-651,-104,-12.837,1.26709,-0.00950058,0.00461949,-0.0077813,0.00806625,-0.0129473,-1.15382,0.0122408,0.0356607,573,1128,-12.837,-1.26707
-644,-104,-12.7446,1.43469,-0.00581507,0.00431217,-0.00540758,0.0066568,-0.00815971,-1.16168,0.00856897,0.0144794,580,1128,-12.7446,-1.43469
-637,-104,-12.7186,1.55127,-0.00277446,0.0038874,-0.00438735,0.006065,-0.00495206,-1.11008,0.00637151,0.0111055,587,1128,-12.7186,-1.55127
-630,-104,-12.7318,1.65698,-0.00153289,0.00304015,-0.00377502,0.00516712,-0.00365986,-1.0577,0.00512097,0.0125186,594,1128,-12.7318,-1.65704
-623,-104,-12.7425,1.7926,-0.0017779,0.00182472,-0.00400877,0.00441829,-0.00437147,-0.996551,0.0050748,0.0143773,601,1128,-12.7425,-1.79263
-616,-104,-12.7813,1.92383,-0.00332296,0.000634619,-0.00452709,0.00359649,-0.00628483,-0.991435,0.00577494,0.015476,608,1128,-12.7813,-1.92388
-609,-104,-12.8211,1.96472,-0.00480838,-0.000851786,-0.00568809,0.00319221,-0.00885237,-0.952753,0.00720535,0.0185922,615,1128,-12.8211,-1.96475
-602,-104,-12.7501,2.08789,-0.00572886,-0.00133004,-0.00694845,0.00375878,-0.0108177,-0.938675,0.00873847,0.0153372,622,1128,-12.7501,-2.08794
-595,-104,-12.6871,2.25928,-0.00657564,-0.00168871,-0.0079645,0.00419872,-0.0124631,-0.934238,0.0100064,0.0149317,629,1128,-12.6871,-2.2593
-588,-104,-12.7531,2.26379,-0.00697607,-0.00185564,-0.00858278,0.00454064,-0.0133723,-0.930345,0.0107529,0.0294012,636,1128,-12.753,-2.26377
-581,-104,-13.1459,1.46606,-0.00695045,-0.00188688,-0.00882891,0.00476608,-0.0136034,-0.925032,0.0110071,0.0423512,643,1128,-13.1459,-1.46605
-574,-104,-13.5384,0.691528,0,0,0,0,0,0,0,-1,650,1128,-13.5384,-0.691579
-567,-104,-13.5394,1.08496,-0.00627082,-0.00157095,-0.0082092,0.00461804,-0.0124598,-0.924799,0.0102005,0.0349658,657,1128,-13.5394,-1.08496
-560,-104,-13.4588,1.21008,-0.00525104,-0.00122981,-0.00727171,0.00430413,-0.010785,-0.920278,0.00897556,0.0409633,664,1128,-13.4588,-1.21011
-553,-104,-13.5707,0.956299,-0.00382759,-0.000795283,-0.00593257,0.0038118,-0.00843467,-0.910503,0.00723648,0.0464894,671,1128,-13.5708,-0.956267
-546,-104,-13.7437,0.728516,0,0,0,0,0,0,0,-1,678,1128,-13.7436,-0.728548
-539,-104,-13.6422,1.21106,8.54484e-05,0.000184584,-0.00231539,0.00245094,-0.0021809,-0.796101,0.00267571,0.0408483,685,1128,-13.6422,-1.21103
-532,-104,-13.6422,1.21033,0.00140863,0.000280655,-0.00143438,0.00238592,-0.000696637,-0.598087,0.00186667,0.0412808,692,1128,-13.6422,-1.21034
-525,-104,-13.6692,1.17688,-0.00154022,-0.000343329,-0.00463837,0.00373504,-0.0056186,-0.849554,0.0054367,0.0394065,699,1128,-13.6692,-1.17694
-518,-104,0,0,0,0,0,0,0,0,0,-1,706,1128,0,0
-511,-104,0,0,0,0,0,0,0,0,0,-1,713,1128,0,0
-504,-104,0,0,0,0,0,0,0,0,0,-1,720,1128,0,0
-497,-104,0,0,0,0,0,0,0,0,0,-1,727,1128,0,0
-490,-104,0,0,0,0,0,0,0,0,0,-1,734,1128,0,0
-483,-104,0,0,0,0,0,0,0,0,0,-1,741,1128,0,0
-476,-104,0,0,0,0,0,0,0,0,0,-1,748,1128,0,0
-469,-104,0,0,0,0,0,0,0,0,0,-1,755,1128,0,0
-462,-104,0,0,0,0,0,0,0,0,0,-1,762,1128,0,0
-455,-104,0,0,0,0,0,0,0,0,0,-1,769,1128,0,0
-448,-104,0,0,0,0,0,0,0,0,0,-1,776,1128,0,0
-441,-104,0,0,0,0,0,0,0,0,0,-1,783,1128,0,0
-434,-104,0,0,0,0,0,0,0,0,0,-1,790,1128,0,0
-427,-104,0,0,0,0,0,0,0,0,0,-1,797,1128,0,0
-420,-104,0,0,0,0,0,0,0,0,0,-1,804,1128,0,0
-413,-104,0,0,0,0,0,0,0,0,0,-1,811,1128,0,0
-406,-104,0,0,0,0,0,0,0,0,0,-1,818,1128,0,0
-399,-104,0,0,0,0,0,0,0,0,0,-1,825,1128,0,0
-392,-104,0,0,0,0,0,0,0,0,0,-1,832,1128,0,0
-385,-104,0,0,0,0,0,0,0,0,0,-1,839,1128,0,0
-378,-104,0,0,0,0,0,0,0,0,0,-1,846,1128,0,0
-371,-104,0,0,0,0,0,0,0,0,0,-1,853,1128,0,0
-364,-104,0,0,0,0,0,0,0,0,0,-1,860,1128,0,0
-357,-104,0,0,0,0,0,0,0,0,0,-1,867,1128,0,0
-350,-104,0,0,0,0,0,0,0,0,0,-1,874,1128,0,0
-343,-104,0,0,0,0,0,0,0,0,0,-1,881,1128,0,0
-336,-104,0,0,0,0,0,0,0,0,0,-1,888,1128,0,0
-329,-104,0,0,0,0,0,0,0,0,0,-1,895,1128,0,0
-322,-104,0,0,0,0,0,0,0,0,0,-1,902,1128,0,0
-315,-104,0,0,0,0,0,0,0,0,0,-1,909,1128,0,0
-308,-104,0,0,0,0,0,0,0,0,0,-1,916,1128,0,0
-301,-104,0,0,0,0,0,0,0,0,0,-1,923,1128,0,0
-294,-104,0,0,0,0,0,0,0,0,0,-1,930,1128,0,0
-287,-104,0,0,0,0,0,0,0,0,0,-1,937,1128,0,0
-280,-104,0,0,0,0,0,0,0,0,0,-1,944,1128,0,0
-273,-104,0,0,0,0,0,0,0,0,0,-1,951,1128,0,0
-266,-104,0,0,0,0,0,0,0,0,0,-1,958,1128,0,0
-259,-104,0,0,0,0,0,0,0,0,0,-1,965,1128,0,0
-252,-104,0,0,0,0,0,0,0,0,0,-1,972,1128,0,0
-245,-104,0,0,0,0,0,0,0,0,0,-1,979,1128,0,0
-238,-104,0,0,0,0,0,0,0,0,0,-1,986,1128,0,0
-231,-104,0,0,0,0,0,0,0,0,0,-1,993,1128,0,0
-224,-104,0,0,0,0,0,0,0,0,0,-1,1000,1128,0,0
-217,-104,0,0,0,0,0,0,0,0,0,-1,1007,1128,0,0
-210,-104,0,0,0,0,0,0,0,0,0,-1,1014,1128,0,0
-203,-104,0,0,0,0,0,0,0,0,0,-1,1021,1128,0,0
-196,-104,0,0,0,0,0,0,0,0,0,-1,1028,1128,0,0
-189,-104,0,0,0,0,0,0,0,0,0,-1,1035,1128,0,0
-182,-104,0,0,0,0,0,0,0,0,0,-1,1042,1128,0,0
-175,-104,0,0,0,0,0,0,0,0,0,-1,1049,1128,0,0
-168,-104,0,0,0,0,0,0,0,0,0,-1,1056,1128,0,0
-161,-104,0,0,0,0,0,0,0,0,0,-1,1063,1128,0,0
-154,-104,0,0,0,0,0,0,0,0,0,-1,1070,1128,0,0
-147,-104,0,0,0,0,0,0,0,0,0,-1,1077,1128,0,0
-140,-104,0,0,0,0,0,0,0,0,0,-1,1084,1128,0,0
-133,-104,0,0,0,0,0,0,0,0,0,-1,1091,1128,0,0
-126,-104,0,0,0,0,0,0,0,0,0,-1,1098,1128,0,0
-119,-104,0,0,0,0,0,0,0,0,0,-1,1105,1128,0,0
-112,-104,0,0,0,0,0,0,0,0,0,-1,1112,1128,0,0
-105,-104,0,0,0,0,0,0,0,0,0,-1,1119,1128,0,0
-98,-104,0,0,0,0,0,0,0,0,0,-1,1126,1128,0,0
-91,-104,0,0,0,0,0,0,0,0,0,-1,1133,1128,0,0
-84,-104,0,0,0,0,0,0,0,0,0,-1,1140,1128,0,0
-77,-104,0,0,0,0,0,0,0,0,0,-1,1147,1128,0,0
-70,-104,0,0,0,0,0,0,0,0,0,-1,1154,1128,0,0
-63,-104,0,0,0,0,0,0,0,0,0,-1,1161,1128,0,0
-56,-104,0,0,0,0,0,0,0,0,0,-1,1168,1128,0,0
-49,-104,0,0,0,0,0,0,0,0,0,-1,1175,1128,0,0
-42,-104,0,0,0,0,0,0,0,0,0,-1,1182,1128,0,0
-35,-104,0,0,0,0,0,0,0,0,0,-1,1189,1128,0,0
-28,-104,0,0,0,0,0,0,0,0,0,-1,1196,1128,0,0
-21,-104,0,0,0,0,0,0,0,0,0,-1,1203,1128,0,0
-14,-104,0,0,0,0,0,0,0,0,0,-1,1210,1128,0,0
-7,-104,0,0,0,0,0,0,0,0,0,-1,1217,1128,0,0
0,-104,0,0,0,0,0,0,0,0,0,-1,1224,1128,0,0
7,-104,0,0,0,0,0,0,0,0,0,-1,1231,1128,0,0
14,-104,0,0,0,0,0,0,0,0,0,-1,1238,1128,0,0
21,-104,0,0,0,0,0,0,0,0,0,-1,1245,1128,0,0
28,-104,0,0,0,0,0,0,0,0,0,-1,1252,1128,0,0
35,-104,0,0,0,0,0,0,0,0,0,-1,1259,1128,0,0
42,-104,0,0,0,0,0,0,0,0,0,-1,1266,1128,0,0
49,-104,0,0,0,0,0,0,0,0,0,-1,1273,1128,0,0
56,-104,0,0,0,0,0,0,0,0,0,-1,1280,1128,0,0
63,-104,0,0,0,0,0,0,0,0,0,-1,1287,1128,0,0
70,-104,0,0,0,0,0,0,0,0,0,-1,1294,1128,0,0
77,-104,0,0,0,0,0,0,0,0,0,-1,1301,1128,0,0
84,-104,0,0,0,0,0,0,0,0,0,-1,1308,1128,0,0
91,-104,0,0,0,0,0,0,0,0,0,-1,1315,1128,0,0
98,-104,0,0,0,0,0,0,0,0,0,-1,1322,1128,0,0
105,-104,0,0,0,0,0,0,0,0,0,-1,1329,1128,0,0
112,-104,0,0,0,0,0,0,0,0,0,-1,1336,1128,0,0
119,-104,0,0,0,0,0,0,0,0,0,-1,1343,1128,0,0
126,-104,0,0,0,0,0,0,0,0,0,-1,1350,1128,0,0
133,-104,0,0,0,0,0,0,0,0,0,-1,1357,1128,0,0
140,-104,0,0,0,0,0,0,0,0,0,-1,1364,1128,0,0
147,-104,0,0,0,0,0,0,0,0,0,-1,1371,1128,0,0
154,-104,0,0,0,0,0,0,0,0,0,-1,1378,1128,0,0
161,-104,0,0,0,0,0,0,0,0,0,-1,1385,1128,0,0
168,-104,0,0,0,0,0,0,0,0,0,-1,1392,1128,0,0
175,-104,0,0,0,0,0,0,0,0,0,-1,1399,1128,0,0
182,-104,0,0,0,0,0,0,0,0,0,-1,1406,1128,0,0
189,-104,0,0,0,0,0,0,0,0,0,-1,1413,1128,0,0
196,-104,0,0,0,0,0,0,0,0,0,-1,1420,1128,0,0
203,-104,0,0,0,0,0,0,0,0,0,-1,1427,1128,0,0
210,-104,0,0,0,0,0,0,0,0,0,-1,1434,1128,0,0
217,-104,0,0,0,0,0,0,0,0,0,-1,1441,1128,0,0
224,-104,0,0,0,0,0,0,0,0,0,-1,1448,1128,0,0
231,-104,0,0,0,0,0,0,0,0,0,-1,1455,1128,0,0
238,-104,0,0,0,0,0,0,0,0,0,-1,1462,1128,0,0
245,-104,0,0,0,0,0,0,0,0,0,-1,1469,1128,0,0
252,-104,0,0,0,0,0,0,0,0,0,-1,1476,1128,0,0
259,-104,0,0,0,0,0,0,0,0,0,-1,1483,1128,0,0
266,-104,0,0,0,0,0,0,0,0,0,-1,1490,1128,0,0
273,-104,0,0,0,0,0,0,0,0,0,-1,1497,1128,0,0
280,-104,0,0,0,0,0,0,0,0,0,-1,1504,1128,0,0
287,-104,0,0,0,0,0,0,0,0,0,-1,1511,1128,0,0
294,-104,0,0,0,0,0,0,0,0,0,-1,1518,1128,0,0
301,-104,0,0,0,0,0,0,0,0,0,-1,1525,1128,0,0
308,-104,0,0,0,0,0,0,0,0,0,-1,1532,1128,0,0
315,-104,0,0,0,0,0,0,0,0,0,-1,1539,1128,0,0
322,-104,0,0,0,0,0,0,0,0,0,-1,1546,1128,0,0
329,-104,0,0,0,0,0,0,0,0,0,-1,1553,1128,0,0
336,-104,0,0,0,0,0,0,0,0,0,-1,1560,1128,0,0
343,-104,0,0,0,0,0,0,0,0,0,-1,1567,1128,0,0
350,-104,0,0,0,0,0,0,0,0,0,-1,1574,1128,0,0
357,-104,0,0,0,0,0,0,0,0,0,-1,1581,1128,0,0
364,-104,0,0,0,0,0,0,0,0,0,-1,1588,1128,0,0
371,-104,0,0,0,0,0,0,0,0,0,-1,1595,1128,0,0
378,-104,0,0,0,0,0,0,0,0,0,-1,1602,1128,0,0
385,-104,0,0,0,0,0,0,0,0,0,-1,1609,1128,0,0
392,-104,0,0,0,0,0,0,0,0,0,-1,1616,1128,0,0
399,-104,0,0,0,0,0,0,0,0,0,-1,1623,1128,0,0
406,-104,0,0,0,0,0,0,0,0,0,-1,1630,1128,0,0
413,-104,0,0,0,0,0,0,0,0,0,-1,1637,1128,0,0
420,-104,0,0,0,0,0,0,0,0,0,-1,1644,1128,0,0
427,-104,0,0,0,0,0,0,0,0,0,-1,1651,1128,0,0
434,-104,0,0,0,0,0,0,0,0,0,-1,1658,1128,0,0
441,-104,0,0,0,0,0,0,0,0,0,-1,1665,1128,0,0
448,-104,0,0,0,0,0,0,0,0,0,-1,1672,1128,0,0
455,-104,0,0,0,0,0,0,0,0,0,-1,1679,1128,0,0
462,-104,0,0,0,0,0,0,0,0,0,-1,1686,1128,0,0
469,-104,0,0,0,0,0,0,0,0,0,-1,1693,1128,0,0
476,-104,0,0,0,0,0,0,0,0,0,-1,1700,1128,0,0
483,-104,0,0,0,0,0,0,0,0,0,-1,1707,1128,0,0
490,-104,0,0,0,0,0,0,0,0,0,-1,1714,1128,0,0
497,-104,0,0,0,0,0,0,0,0,0,-1,1721,1128,0,0
504,-104,0,0,0,0,0,0,0,0,0,-1,1728,1128,0,0
511,-104,0,0,0,0,0,0,0,0,0,-1,1735,1128,0,0
518,-104,0,0,0,0,0,0,0,0,0,-1,1742,1128,0,0
525,-104,0,0,0,0,0,0,0,0,0,-1,1749,1128,0,0
532,-104,0,0,0,0,0,0,0,0,0,-1,1756,1128,0,0
539,-104,0,0,0,0,0,0,0,0,0,-1,1763,1128,0,0
546,-104,0,0,0,0,0,0,0,0,0,-1,1770,1128,0,0
553,-104,0,0,0,0,0,0,0,0,0,-1,1777,1128,0,0
560,-104,0,0,0,0,0,0,0,0,0,-1,1784,1128,0,0
567,-104,0,0,0,0,0,0,0,0,0,-1,1791,1128,0,0
574,-104,0,0,0,0,0,0,0,0,0,-1,1798,1128,0,0
581,-104,0,0,0,0,0,0,0,0,0,-1,1805,1128,0,0
588,-104,0,0,0,0,0,0,0,0,0,-1,1812,1128,0,0
595,-104,0,0,0,0,0,0,0,0,0,-1,1819,1128,0,0
602,-104,0,0,0,0,0,0,0,0,0,-1,1826,1128,0,0
609,-104,0,0,0,0,0,0,0,0,0,-1,1833,1128,0,0
616,-104,0,0,0,0,0,0,0,0,0,-1,1840,1128,0,0
623,-104,0,0,0,0,0,0,0,0,0,-1,1847,1128,0,0
630,-104,0,0,0,0,0,0,0,0,0,-1,1854,1128,0,0
637,-104,0,0,0,0,0,0,0,0,0,-1,1861,1128,0,0
644,-104,20.9828,3.16565,0.00269579,-0.00499313,0.00122706,0.00288687,-0.00518421,0.154478,0.00472234,0.0362978,1868,1128,20.9828,-3.1657
651,-104,21.0865,3.08533,0.00193134,-0.00363675,0.00131641,0.00222688,-0.00393229,0.220843,0.00360115,0.036986,1875,1128,21.0865,-3.08539
658,-104,21.1514,2.98254,0.00169583,-0.00258835,0.000833909,0.00185242,-0.00274495,0.185623,0.00267091,0.0416981,1882,1128,21.1514,-2.98255
665,-104,21.1584,2.89893,0.000814269,-0.00195943,0.00112779,0.00121495,-0.00236011,0.341369,0.00209906,0.0437743,1889,1128,21.1584,-2.89895
672,-104,21.1593,3.01904,-0.00108095,-0.0020811,0.00277272,0.00123643,-0.00439848,0.696179,0.0034198,0.0433565,1896,1128,21.1593,-3.01909
679,-104,21.2144,3.05994,-0.00313186,-0.00243877,0.00467797,0.00190548,-0.00747611,0.822371,0.00572591,0.0415249,1903,1128,21.2144,-3.05999
686,-104,21.192,3.06836,-0.00500336,-0.00288715,0.0064782,0.00261879,-0.0105093,0.86635,0.00802289,0.0410215,1910,1128,21.192,-3.06838
693,-104,21.1757,2.99561,-0.00656998,-0.00331013,0.00801912,0.00324303,-0.0131231,0.88566,0.0100065,0.0358054,1917,1128,21.1757,-2.99559
700,-104,21.1676,2.90796,-0.00773937,-0.00347034,0.00921012,0.00384937,-0.0150591,0.899267,0.0115386,0.0250269,1924,1128,21.1676,-2.90802
707,-104,21.1407,2.86255,-0.00847812,-0.00371012,0.0100013,0.00418741,-0.0163756,0.902399,0.012548,0.0231652,1931,1128,21.1407,-2.86261
714,-104,20.7568,3.73804,-0.00887834,-0.0037673,0.0103515,0.00433944,-0.0169851,0.906416,0.0130133,0.0346816,1938,1128,20.7568,-3.73799
721,-104,20.3018,4.51038,-0.00882151,-0.00361966,0.0101977,0.00430361,-0.0167448,0.910261,0.0128404,0.0231465,1945,1128,20.3018,-4.51038
728,-104,20.3075,4.49756,-0.00830657,-0.00324437,0.00958359,0.00413673,-0.0156877,0.914504,0.0120759,0.0230194,1952,1128,20.3075,-4.49751
735,-104,20.2628,4.39148,-0.00740997,-0.00269356,0.0085021,0.00377132,-0.0138749,0.920681,0.0107302,0.0217826,1959,1128,20.2628,-4.39152
742,-104,20.1946,4.29004,-0.00618117,-0.00204144,0.00674369,0.00294289,-0.0111655,0.934301,0.00859426,0.0150408,1966,1128,20.1946,-4.29009
749,-104,20.1829,4.21619,-0.00441273,-0.00137356,0.00459461,0.00194623,-0.00773253,0.945102,0.00591153,0.0174335,1973,1128,20.1828,-4.21618
756,-104,20.1887,4.11499,-0.0023435,-0.000704524,0.00215404,0.000780646,-0.00382867,0.967165,0.00284855,0.0165005,1980,1128,20.1887,-4.11495
763,-104,20.186,4.03918,-0.000283324,0.000373494,-0.000722192,0.00083844,-0.00074827,-0.998792,0.000916581,0.0137679,1987,1128,20.186,-4.0392
770,-104,20.1902,3.99878,0.00194548,0.00129966,-0.00362911,0.00526602,-0.00202088,-0.741026,0.00434393,0.0105044,1994,1128,20.1902,-3.99883
777,-104,20.1844,3.90234,0.00367327,0.00183425,-0.00589868,0.00872368,-0.00321615,-0.708078,0.00713373,0.0183311,2001,1128,20.1845,-3.90229
784,-104,20.2836,3.77637,0.00535993,0.00235904,-0.00810034,0.0120976,-0.00437865,-0.69382,0.00985441,0.0383758,2008,1128,20.2835,-3.7764
791,-104,20.4265,3.62573,0.00745002,0.00309177,-0.0107694,0.0162585,-0.00571674,-0.685574,0.0131651,0.0438084,2015,1128,20.4265,-3.6257
798,-104,20.5264,3.51599,0.00996543,0.00423179,-0.013936,0.0213264,-0.00712922,-0.683957,0.0170969,0.0455726,2022,1128,20.5264,-3.51604
805,-104,20.7629,3.31982,0,0,0,0,0,0,0,-1,2029,1128,20.7629,-3.31986
812,-104,21.9272,3.46167,0,0,0,0,0,0,0,-1,2036,1128,21.9273,-3.46171
-700,-111,0,0,0,0,0,0,0,0,0,-1,524,1135,0,0
-693,-111,-11.4571,1.36462,-0.097413,-0.0188957,-0.040647,-0.00164399,-0.114665,-1.16941,0.0759011,0.0470139,531,1135,-11.4571,-1.36457
-686,-111,-12.2997,1.15222,-0.0728121,-0.0108395,-0.0341864,0.0043138,-0.0879653,-1.15357,0.0601331,0.0467752,538,1135,-12.2997,-1.15222
-679,-111,-13.1678,0.936035,-0.0535587,-0.0052755,-0.0278312,0.00742571,-0.0662599,-1.14266,0.0468451,0.0457184,545,1135,-13.1678,-0.936073
-672,-111,-12.6832,0.347656,-0.0385296,-0.00149608,-0.0219905,0.00873525,-0.0487609,-1.13532,0.0357763,0.0470778,552,1135,-12.6832,-0.347692
-665,-111,-12.4709,0.758423,-0.0269502,0.000947312,-0.016838,0.00886375,-0.0348666,-1.13131,0.0266941,0.0493855,559,1135,-12.4709,-0.758382
-658,-111,-12.452,0.998901,-0.0182256,0.00236207,-0.012473,0.00824038,-0.0241039,-1.13038,0.0194082,0.0441421,566,1135,-12.452,-0.998866
-651,-111,-12.5889,1.30701,-0.0118282,0.00299588,-0.00890172,0.0071674,-0.0159997,-1.13257,0.0136957,0.0363217,573,1135,-12.5889,-1.307
-644,-111,-12.5917,1.42932,-0.00730349,0.00308223,-0.00615155,0.00593968,-0.0101609,-1.13594,0.00940158,0.0224785,580,1135,-12.5917,-1.4293
-637,-111,-12.6118,1.55139,-0.00366025,0.00299175,-0.00459085,0.0053348,-0.0060033,-1.09888,0.00654985,0.00918912,587,1135,-12.6118,-1.55145
-630,-111,-12.6215,1.64502,-0.00168925,0.00246146,-0.0038524,0.00476196,-0.00398975,-1.03247,0.00505935,0.0144905,594,1135,-12.6214,-1.64499
-623,-111,-12.6373,1.76733,-0.00176241,0.00150174,-0.00389584,0.00409356,-0.00435422,-0.983756,0.0048781,0.0134639,601,1135,-12.6374,-1.76731
-616,-111,-12.671,1.85803,-0.00344138,0.000516338,-0.00443161,0.00339083,-0.00631588,-0.995382,0.00568836,0.0138075,608,1135,-12.671,-1.85809
-609,-111,-12.7194,1.98059,-0.00507355,-0.00088482,-0.00564052,0.00303762,-0.00899598,-0.963162,0.00722592,0.0171246,615,1135,-12.7194,-1.98064
-602,-111,-12.6662,2.09888,-0.00626213,-0.00134009,-0.00691555,0.00353929,-0.0111415,-0.956345,0.00884666,0.0168656,622,1135,-12.6662,-2.09885
-595,-111,-12.6152,2.26086,-0.00731966,-0.00164805,-0.00791724,0.00392593,-0.0128936,-0.95737,0.0101605,0.0128191,629,1135,-12.6152,-2.26084
-588,-111,-12.5738,2.36511,-0.0078576,-0.00177742,-0.00855716,0.00426363,-0.0138987,-0.956079,0.0109668,0.0301156,636,1135,-12.5738,-2.36512
-581,-111,-12.9493,1.53943,-0.00793534,-0.00177542,-0.00887046,0.00453457,-0.0142453,-0.952494,0.0113154,0.0456095,643,1135,-12.9493,-1.53939
-574,-111,-13.4158,0.752197,0,0,0,0,0,0,0,-1,650,1135,-13.4158,-0.752199
-567,-111,-13.5235,1.22693,-0.00733832,-0.00139847,-0.00843829,0.00457728,-0.0133141,-0.954607,0.0107323,0.036698,657,1135,-13.5235,-1.22699
-560,-111,-13.4461,1.38281,-0.00630581,-0.00100609,-0.00759968,0.00439246,-0.0117044,-0.953148,0.00960779,0.0388524,664,1135,-13.4461,-1.38278
-553,-111,-13.5298,1.0033,-0.00478383,-0.000494524,-0.00632784,0.00404222,-0.00932058,-0.948785,0.0079131,0.0425559,671,1135,-13.5298,-1.00328
-546,-111,-13.5562,0.976318,-0.00279709,9.89009e-05,-0.00465503,0.00352594,-0.00622413,-0.936185,0.0057006,0.0402293,678,1135,-13.5562,-0.976297
-539,-111,-13.5302,1.12793,-0.000320715,0.000730676,-0.00264383,0.00290057,-0.00249061,-0.883537,0.0031156,0.0393588,685,1135,-13.5302,-1.12795
-532,-111,-13.5241,1.12195,0.00166852,0.00106598,-0.00132835,0.00272934,5.15929e-06,-0.673884,0.00181784,0.0400579,692,1135,-13.5241,-1.12197
-525,-111,-13.5716,1.06873,-0.000482449,0.00064379,-0.00384768,0.00396934,-0.003808,-0.858059,0.00449057,0.0390307,699,1135,-13.5716,-1.06875
-518,-111,0,0,0,0,0,0,0,0,0,-1,706,1135,0,0
-511,-111,0,0,0,0,0,0,0,0,0,-1,713,1135,0,0
-504,-111,0,0,0,0,0,0,0,0,0,-1,720,1135,0,0
-497,-111,0,0,0,0,0,0,0,0,0,-1,727,1135,0,0
-490,-111,0,0,0,0,0,0,0,0,0,-1,734,1135,0,0
-483,-111,0,0,0,0,0,0,0,0,0,-1,741,1135,0,0
-476,-111,0,0,0,0,0,0,0,0,0,-1,748,1135,0,0
-469,-111,0,0,0,0,0,0,0,0,0,-1,755,1135,0,0
-462,-111,0,0,0,0,0,0,0,0,0,-1,762,1135,0,0
-455,-111,0,0,0,0,0,0,0,0,0,-1,769,1135,0,0
-448,-111,0,0,0,0,0,0,0,0,0,-1,776,1135,0,0
-441,-111,0,0,0,0,0,0,0,0,0,-1,783,1135,0,0
-434,-111,0,0,0,0,0,0,0,0,0,-1,790,1135,0,0
-427,-111,0,0,0,0,0,0,0,0,0,-1,797,1135,0,0
-420,-111,0,0,0,0,0,0,0,0,0,-1,804,1135,0,0
-413,-111,0,0,0,0,0,0,0,0,0,-1,811,1135,0,0
-406,-111,0,0,0,0,0,0,0,0,0,-1,818,1135,0,0
-399,-111,0,0,0,0,0,0,0,0,0,-1,825,1135,0,0
-392,-111,0,0,0,0,0,0,0,0,0,-1,832,1135,0,0
-385,-111,0,0,0,0,0,0,0,0,0,-1,839,1135,0,0
-378,-111,0,0,0,0,0,0,0,0,0,-1,846,1135,0,0
-371,-111,0,0,0,0,0,0,0,0,0,-1,853,1135,0,0
-364,-111,0,0,0,0,0,0,0,0,0,-1,860,1135,0,0
-357,-111,0,0,0,0,0,0,0,0,0,-1,867,1135,0,0
-350,-111,0,0,0,0,0,0,0,0,0,-1,874,1135,0,0
-343,-111,0,0,0,0,0,0,0,0,0,-1,881,1135,0,0
-336,-111,0,0,0,0,0,0,0,0,0,-1,888,1135,0,0
-329,-111,0,0,0,0,0,0,0,0,0,-1,895,1135,0,0
-322,-111,0,0,0,0,0,0,0,0,0,-1,902,1135,0,0
-315,-111,0,0,0,0,0,0,0,0,0,-1,909,1135,0,0
-308,-111,0,0,0,0,0,0,0,0,0,-1,916,1135,0,0
-301,-111,0,0,0,0,0,0,0,0,0,-1,923,1135,0,0
-294,-111,0,0,0,0,0,0,0,0,0,-1,930,1135,0,0
-287,-111,0,0,0,0,0,0,0,0,0,-1,937,1135,0,0
-280,-111,0,0,0,0,0,0,0,0,0,-1,944,1135,0,0
-273,-111,0,0,0,0,0,0,0,0,0,-1,951,1135,0,0
-266,-111,0,0,0,0,0,0,0,0,0,-1,958,1135,0,0
-259,-111,0,0,0,0,0,0,0,0,0,-1,965,1135,0,0
-252,-111,0,0,0,0,0,0,0,0,0,-1,972,1135,0,0
-245,-111,0,0,0,0,0,0,0,0,0,-1,979,1135,0,0
-238,-111,0,0,0,0,0,0,0,0,0,-1,986,1135,0,0
-231,-111,0,0,0,0,0,0,0,0,0,-1,993,1135,0,0
-224,-111,0,0,0,0,0,0,0,0,0,-1,1000,1135,0,0
-217,-111,0,0,0,0,0,0,0,0,0,-1,1007,1135,0,0
-210,-111,0,0,0,0,0,0,0,0,0,-1,1014,1135,0,0
-203,-111,0,0,0,0,0,0,0,0,0,-1,1021,1135,0,0
-196,-111,0,0,0,0,0,0,0,0,0,-1,1028,1135,0,0
-189,-111,0,0,0,0,0,0,0,0,0,-1,1035,1135,0,0
-182,-111,0,0,0,0,0,0,0,0,0,-1,1042,1135,0,0
-175,-111,0,0,0,0,0,0,0,0,0,-1,1049,1135,0,0
-168,-111,0,0,0,0,0,0,0,0,0,-1,1056,1135,0,0
-161,-111,0,0,0,0,0,0,0,0,0,-1,1063,1135,0,0
-154,-111,0,0,0,0,0,0,0,0,0,-1,1070,1135,0,0
-147,-111,0,0,0,0,0,0,0,0,0,-1,1077,1135,0,0
-140,-111,0,0,0,0,0,0,0,0,0,-1,1084,1135,0,0
-133,-111,0,0,0,0,0,0,0,0,0,-1,1091,1135,0,0
-126,-111,0,0,0,0,0,0,0,0,0,-1,1098,1135,0,0
-119,-111,0,0,0,0,0,0,0,0,0,-1,1105,1135,0,0
-112,-111,0,0,0,0,0,0,0,0,0,-1,1112,1135,0,0
-105,-111,0,0,0,0,0,0,0,0,0,-1,1119,1135,0,0
-98,-111,0,0,0,0,0,0,0,0,0,-1,1126,1135,0,0
-91,-111,0,0,0,0,0,0,0,0,0,-1,1133,1135,0,0
-84,-111,0,0,0,0,0,0,0,0,0,-1,1140,1135,0,0
-77,-111,0,0,0,0,0,0,0,0,0,-1,1147,1135,0,0
-70,-111,0,0,0,0,0,0,0,0,0,-1,1154,1135,0,0
-63,-111,0,0,0,0,0,0,0,0,0,-1,1161,1135,0,0
-56,-111,0,0,0,0,0,0,0,0,0,-1,1168,1135,0,0
-49,-111,0,0,0,0,0,0,0,0,0,-1,1175,1135,0,0
-42,-111,0,0,0,0,0,0,0,0,0,-1,1182,1135,0,0
-35,-111,0,0,0,0,0,0,0,0,0,-1,1189,1135,0,0
-28,-111,0,0,0,0,0,0,0,0,0,-1,1196,1135,0,0
-21,-111,0,0,0,0,0,0,0,0,0,-1,1203,1135,0,0
-14,-111,0,0,0,0,0,0,0,0,0,-1,1210,1135,0,0
-7,-111,0,0,0,0,0,0,0,0,0,-1,1217,1135,0,0
0,-111,0,0,0,0,0,0,0,0,0,-1,1224,1135,0,0
7,-111,0,0,0,0,0,0,0,0,0,-1,1231,1135,0,0
14,-111,0,0,0,0,0,0,0,0,0,-1,1238,1135,0,0
21,-111,0,0,0,0,0,0,0,0,0,-1,1245,1135,0,0
28,-111,0,0,0,0,0,0,0,0,0,-1,1252,1135,0,0
35,-111,0,0,0,0,0,0,0,0,0,-1,1259,1135,0,0
42,-111,0,0,0,0,0,0,0,0,0,-1,1266,1135,0,0
49,-111,0,0,0,0,0,0,0,0,0,-1,1273,1135,0,0
56,-111,0,0,0,0,0,0,0,0,0,-1,1280,1135,0,0
63,-111,0,0,0,0,0,0,0,0,0,-1,1287,1135,0,0
70,-111,0,0,0,0,0,0,0,0,0,-1,1294,1135,0,0
77,-111,0,0,0,0,0,0,0,0,0,-1,1301,1135,0,0
84,-111,0,0,0,0,0,0,0,0,0,-1,1308,1135,0,0
91,-111,0,0,0,0,0,0,0,0,0,-1,1315,1135,0,0
98,-111,0,0,0,0,0,0,0,0,0,-1,1322,1135,0,0
105,-111,0,0,0,0,0,0,0,0,0,-1,1329,1135,0,0
112,-111,0,0,0,0,0,0,0,0,0,-1,1336,1135,0,0
119,-111,0,0,0,0,0,0,0,0,0,-1,1343,1135,0,0
126,-111,0,0,0,0,0,0,0,0,0,-1,1350,1135,0,0
133,-111,0,0,0,0,0,0,0,0,0,-1,1357,1135,0,0
140,-111,0,0,0,0,0,0,0,0,0,-1,1364,1135,0,0
147,-111,0,0,0,0,0,0,0,0,0,-1,1371,1135,0,0
154,-111,0,0,0,0,0,0,0,0,0,-1,1378,1135,0,0
161,-111,0,0,0,0,0,0,0,0,0,-1,1385,1135,0,0
168,-111,0,0,0,0,0,0,0,0,0,-1,1392,1135,0,0
175,-111,0,0,0,0,0,0,0,0,0,-1,1399,1135,0,0
182,-111,0,0,0,0,0,0,0,0,0,-1,1406,1135,0,0
189,-111,0,0,0,0,0,0,0,0,0,-1,1413,1135,0,0
196,-111,0,0,0,0,0,0,0,0,0,-1,1420,1135,0,0
203,-111,0,0,0,0,0,0,0,0,0,-1,1427,1135,0,0
210,-111,0,0,0,0,0,0,0,0,0,-1,1434,1135,0,0
217,-111,0,0,0,0,0,0,0,0,0,-1,1441,1135,0,0
224,-111,0,0,0,0,0,0,0,0,0,-1,1448,1135,0,0
231,-111,0,0,0,0,0,0,0,0,0,-1,1455,1135,0,0
238,-111,0,0,0,0,0,0,0,0,0,-1,1462,1135,0,0
245,-111,0,0,0,0,0,0,0,0,0,-1,1469,1135,0,0
252,-111,0,0,0,0,0,0,0,0,0,-1,1476,1135,0,0
259,-111,0,0,0,0,0,0,0,0,0,-1,1483,1135,0,0
266,-111,0,0,0,0,0,0,0,0,0,-1,1490,1135,0,0
273,-111,0,0,0,0,0,0,0,0,0,-1,1497,1135,0,0
280,-111,0,0,0,0,0,0,0,0,0,-1,1504,1135,0,0
287,-111,0,0,0,0,0,0,0,0,0,-1,1511,1135,0,0
294,-111,0,0,0,0,0,0,0,0,0,-1,1518,1135,0,0
301,-111,0,0,0,0,0,0,0,0,0,-1,1525,1135,0,0
308,-111,0,0,0,0,0,0,0,0,0,-1,1532,1135,0,0
315,-111,0,0,0,0,0,0,0,0,0,-1,1539,1135,0,0
322,-111,0,0,0,0,0,0,0,0,0,-1,1546,1135,0,0
329,-111,0,0,0,0,0,0,0,0,0,-1,1553,1135,0,0
336,-111,0,0,0,0,0,0,0,0,0,-1,1560,1135,0,0
343,-111,0,0,0,0,0,0,0,0,0,-1,1567,1135,0,0
350,-111,0,0,0,0,0,0,0,0,0,-1,1574,1135,0,0
357,-111,0,0,0,0,0,0,0,0,0,-1,1581,1135,0,0
364,-111,0,0,0,0,0,0,0,0,0,-1,1588,1135,0,0
371,-111,0,0,0,0,0,0,0,0,0,-1,1595,1135,0,0
378,-111,0,0,0,0,0,0,0,0,0,-1,1602,1135,0,0
385,-111,0,0,0,0,0,0,0,0,0,-1,1609,1135,0,0
392,-111,0,0,0,0,0,0,0,0,0,-1,1616,1135,0,0
399,-111,0,0,0,0,0,0,0,0,0,-1,1623,1135,0,0
406,-111,0,0,0,0,0,0,0,0,0,-1,1630,1135,0,0
413,-111,0,0,0,0,0,0,0,0,0,-1,1637,1135,0,0
420,-111,0,0,0,0,0,0,0,0,0,-1,1644,1135,0,0
427,-111,0,0,0,0,0,0,0,0,0,-1,1651,1135,0,0
434,-111,0,0,0,0,0,0,0,0,0,-1,1658,1135,0,0
441,-111,0,0,0,0,0,0,0,0,0,-1,1665,1135,0,0
448,-111,0,0,0,0,0,0,0,0,0,-1,1672,1135,0,0
455,-111,0,0,0,0,0,0,0,0,0,-1,1679,1135,0,0
462,-111,0,0,0,0,0,0,0,0,0,-1,1686,1135,0,0
469,-111,0,0,0,0,0,0,0,0,0,-1,1693,1135,0,0
476,-111,0,0,0,0,0,0,0,0,0,-1,1700,1135,0,0
483,-111,0,0,0,0,0,0,0,0,0,-1,1707,1135,0,0
490,-111,0,0,0,0,0,0,0,0,0,-1,1714,1135,0,0
497,-111,0,0,0,0,0,0,0,0,0,-1,1721,1135,0,0
504,-111,0,0,0,0,0,0,0,0,0,-1,1728,1135,0,0
511,-111,0,0,0,0,0,0,0,0,0,-1,1735,1135,0,0
518,-111,0,0,0,0,0,0,0,0,0,-1,1742,1135,0,0
525,-111,0,0,0,0,0,0,0,0,0,-1,1749,1135,0,0
532,-111,0,0,0,0,0,0,0,0,0,-1,1756,1135,0,0
539,-111,0,0,0,0,0,0,0,0,0,-1,1763,1135,0,0
546,-111,0,0,0,0,0,0,0,0,0,-1,1770,1135,0,0
553,-111,0,0,0,0,0,0,0,0,0,-1,1777,1135,0,0
560,-111,0,0,0,0,0,0,0,0,0,-1,1784,1135,0,0
567,-111,0,0,0,0,0,0,0,0,0,-1,1791,1135,0,0
574,-111,0,0,0,0,0,0,0,0,0,-1,1798,1135,0,0
581,-111,0,0,0,0,0,0,0,0,0,-1,1805,1135,0,0
588,-111,0,0,0,0,0,0,0,0,0,-1,1812,1135,0,0
595,-111,0,0,0,0,0,0,0,0,0,-1,1819,1135,0,0
602,-111,0,0,0,0,0,0,0,0,0,-1,1826,1135,0,0
609,-111,0,0,0,0,0,0,0,0,0,-1,1833,1135,0,0
616,-111,0,0,0,0,0,0,0,0,0,-1,1840,1135,0,0
623,-111,0,0,0,0,0,0,0,0,0,-1,1847,1135,0,0
630,-111,0,0,0,0,0,0,0,0,0,-1,1854,1135,0,0
637,-111,0,0,0,0,0,0,0,0,0,-1,1861,1135,0,0
644,-111,21.1039,3.01489,0.0016281,-0.00555869,0.00157232,0.00195704,-0.00588763,0.20623,0.00471482,0.0380566,1868,1135,21.1039,-3.01485
651,-111,21.1686,3.02893,0.00114634,-0.00422575,0.00161356,0.00159373,-0.00467314,0.270475,0.00376096,0.0398721,1875,1135,21.1686,-3.02891
658,-111,21.1985,2.9834,0.00114618,-0.00310751,0.00110333,0.00141533,-0.00337666,0.239272,0.00284285,0.0434293,1882,1135,21.1985,-2.98338
665,-111,21.1981,2.93103,0.000315465,-0.00243231,0.00144525,0.000935644,-0.00305249,0.405352,0.00240824,0.0435967,1889,1135,21.1981,-2.93097
672,-111,21.2358,2.9906,-0.00154862,-0.00245985,0.00298389,0.00101424,-0.00502271,0.709637,0.00373277,0.043417,1896,1135,21.2359,-2.99062
679,-111,21.2252,3.05701,-0.00353294,-0.00270633,0.00468452,0.00158308,-0.00782235,0.829398,0.00581488,0.0401525,1903,1135,21.2253,-3.05699
686,-111,21.1528,3.12256,-0.00536629,-0.00305361,0.00627961,0.00217523,-0.0105951,0.876449,0.00788911,0.0393879,1910,1135,21.1528,-3.12262
693,-111,21.0581,3.11816,-0.0068909,-0.00338545,0.00760806,0.00266917,-0.0129455,0.898612,0.00964399,0.0357555,1917,1135,21.0581,-3.1182
700,-111,21.1442,2.91516,-0.00802203,-0.00347914,0.00865069,0.00319335,-0.0146945,0.913787,0.0110162,0.0246737,1924,1135,21.1442,-2.91514
707,-111,21.149,2.9043,-0.00870513,-0.00367151,0.00933636,0.00348132,-0.015858,0.917054,0.0119033,0.0391598,1931,1135,21.1491,-2.90426
714,-111,20.5431,3.85657,-0.00912569,-0.00367657,0.00963168,0.00360849,-0.0164108,0.923234,0.0123208,0.0246375,1938,1135,20.543,-3.8566
721,-111,20.1847,4.58008,-0.00913629,-0.00351573,0.0094754,0.00355735,-0.0162094,0.929559,0.0121666,0.0124686,1945,1135,20.1847,-4.58012
728,-111,20.1945,4.49133,-0.00861729,-0.00315759,0.00890232,0.00342402,-0.0151989,0.934169,0.0114459,0.0167041,1952,1135,20.1944,-4.49128
735,-111,20.1654,4.39404,-0.00762867,-0.00263801,0.00792306,0.00317338,-0.0134401,0.937954,0.010184,0.0160867,1959,1135,20.1654,-4.39402
742,-111,20.123,4.31812,-0.00624466,-0.00204023,0.00633041,0.0025279,-0.0108128,0.94571,0.00818237,0.0108836,1966,1135,20.1231,-4.31806
749,-111,20.1104,4.24792,-0.00435157,-0.00136464,0.0043037,0.00169736,-0.00741357,0.952407,0.00559467,0.0146156,1973,1135,20.1104,-4.24796
756,-111,20.1014,4.1333,-0.00213288,-0.000727482,0.00187353,0.000570795,-0.00343115,0.964813,0.00249952,0.0158676,1980,1135,20.1015,-4.13331
763,-111,20.0946,4.04456,1.9877e-05,0.00030297,-0.00103674,0.00120778,-0.000884937,-0.853244,0.00121302,0.0129412,1987,1135,20.0946,-4.04455
770,-111,20.0992,3.97839,0.00228656,0.0011168,-0.00386493,0.00561061,-0.00220725,-0.710302,0.00465403,0.0100901,1994,1135,20.0993,-3.97845
777,-111,20.0634,3.83862,0.00401045,0.00153292,-0.00621755,0.00911144,-0.00356806,-0.687067,0.00755011,0.0226189,2001,1135,20.0633,-3.83866
784,-111,20.1747,3.64929,0.00572553,0.00196292,-0.00880083,0.0128439,-0.00515544,-0.680101,0.0107033,0.0400233,2008,1135,20.1747,-3.64934
791,-111,20.3379,3.66211,0,0,0,0,0,0,0,-1,2015,1135,20.3379,-3.66208
798,-111,20.5231,3.84692,0.0101588,0.00361166,-0.0161535,0.0233671,-0.00959663,-0.685425,0.0195774,0.0439997,2022,1135,20.523,-3.84688
805,-111,21.2058,3.62341,0.0127908,0.00533089,-0.0210571,0.0304458,-0.0123241,-0.69774,0.0254213,0.0431904,2029,1135,21.2059,-3.62346
812,-111,21.8076,3.34521,0,0,0,0,0,0,0,-1,2036,1135,21.8077,-3.34527
-700,-118,0,0,0,0,0,0,0,0,0,-1,524,1142,0,0
-693,-118,-11.1636,2.13062,0,0,0,0,0,0,0,-1,531,1142,-11.1636,-2.13062
-686,-118,-11.6491,1.84607,-0.0757459,-0.014988,-0.043145,0.00740018,-0.0981341,-1.09214,0.0680238,0.0480953,538,1142,-11.6491,-1.84613
-679,-118,-12.4634,1.40076,-0.0555532,-0.00928355,-0.0346644,0.00925709,-0.0740938,-1.07965,0.052753,0.0435405,545,1142,-12.4634,-1.40072
-672,-118,-13.1727,1.14307,-0.0399008,-0.00514311,-0.0271761,0.00973577,-0.0547797,-1.06987,0.0401604,0.0460786,552,1142,-13.1726,-1.14306
-665,-118,-12.1564,0.785278,-0.0278802,-0.00221601,-0.0207403,0.00934088,-0.0394371,-1.06243,0.0298955,0.0451909,559,1142,-12.1564,-0.785299
-658,-118,-12.3633,0.803833,-0.0188278,-0.000265444,-0.0153773,0.00841453,-0.0275078,-1.05692,0.0216943,0.0422419,566,1142,-12.3633,-0.803881
-651,-118,-12.4789,1.35767,-0.0121986,0.000906717,-0.0110361,0.00718889,-0.0184807,-1.0533,0.0152909,0.0383207,573,1142,-12.4789,-1.35767
-644,-118,-12.4275,1.38513,-0.00747084,0.00146856,-0.00768562,0.0058897,-0.011892,-1.04878,0.0104594,0.0256858,580,1142,-12.4275,-1.38507
-637,-118,-12.4731,1.53857,-0.00367983,0.00177831,-0.00539101,0.00509166,-0.00699318,-1.01971,0.00700592,0.0137525,587,1142,-12.4731,-1.53858
-630,-118,-12.4935,1.63147,-0.00159112,0.00168752,-0.00420603,0.00456241,-0.00446601,-0.97122,0.00521266,0.0168592,594,1142,-12.4935,-1.63151
-623,-118,-12.4999,1.73499,-0.00174817,0.001078,-0.00397902,0.00388741,-0.00455757,-0.956019,0.00488083,0.0151222,601,1142,-12.4999,-1.73495
-616,-118,-12.5103,1.8562,-0.00360327,0.000357985,-0.00450371,0.00329735,-0.00654264,-0.992558,0.00578319,0.0133034,608,1142,-12.5103,-1.8562
-609,-118,-12.5264,1.95972,-0.0053894,-0.000947161,-0.00568853,0.0029385,-0.00927506,-0.971524,0.00736105,0.0152646,615,1142,-12.5264,-1.95971
-602,-118,-12.5287,2.11621,-0.00684104,-0.001368,-0.00696247,0.00337642,-0.0115855,-0.972644,0.00906129,0.0152187,622,1142,-12.5287,-2.11616
-595,-118,-12.5609,2.22229,-0.00811561,-0.00162934,-0.0079579,0.00372091,-0.0134659,-0.978891,0.0104409,0.012743,629,1142,-12.5608,-2.22226
-588,-118,-12.4268,2.38281,-0.00881199,-0.00173101,-0.00863091,0.00405737,-0.0146004,-0.980037,0.0113308,0.0216628,636,1142,-12.4268,-2.38276
-581,-118,-12.3041,2.48987,0,0,0,0,0,0,0,-1,643,1142,-12.3041,-2.48991
-574,-118,-13.4915,0.959351,0,0,0,0,0,0,0,-1,650,1142,-13.4915,-0.959327
-567,-118,-13.5175,1.17798,-0.00847429,-0.00126731,-0.00882903,0.00466529,-0.0144069,-0.979151,0.0114801,0.0416345,657,1142,-13.5175,-1.17799
-560,-118,-13.5294,1.30896,-0.0074202,-0.000822054,-0.00810514,0.00462971,-0.012872,-0.978676,0.0104714,0.0373427,664,1142,-13.5294,-1.30901
-553,-118,-13.4237,1.2373,-0.00576478,-0.000216841,-0.00690731,0.0044527,-0.0104343,-0.97634,0.00882327,0.0388349,671,1142,-13.4237,-1.23725
-546,-118,-13.4324,1.21558,-0.00349702,0.000522984,-0.00524694,0.00413174,-0.00710578,-0.968316,0.00656329,0.0391895,678,1142,-13.4324,-1.21556
-539,-118,-13.4379,1.13599,-0.00054828,0.0013802,-0.00313526,0.00369615,-0.00286422,-0.934581,0.00379777,0.0405194,685,1142,-13.4379,-1.13594
-532,-118,-13.4694,1.05188,0.00237358,0.00211936,-0.00134422,0.00359669,0.000896254,-0.738258,0.00216188,0.0409189,692,1142,-13.4694,-1.05188
-525,-118,-13.5637,0.952759,0.00157796,0.00221222,-0.00299838,0.00491019,-0.00112002,-0.838086,0.00370369,0.0419671,699,1142,-13.5637,-0.95276
-518,-118,0,0,0,0,0,0,0,0,0,-1,706,1142,0,0
-511,-118,0,0,0,0,0,0,0,0,0,-1,713,1142,0,0
-504,-118,0,0,0,0,0,0,0,0,0,-1,720,1142,0,0
-497,-118,0,0,0,0,0,0,0,0,0,-1,727,1142,0,0
-490,-118,0,0,0,0,0,0,0,0,0,-1,734,1142,0,0
-483,-118,0,0,0,0,0,0,0,0,0,-1,741,1142,0,0
-476,-118,0,0,0,0,0,0,0,0,0,-1,748,1142,0,0
-469,-118,0,0,0,0,0,0,0,0,0,-1,755,1142,0,0
-462,-118,0,0,0,0,0,0,0,0,0,-1,762,1142,0,0
-455,-118,0,0,0,0,0,0,0,0,0,-1,769,1142,0,0
-448,-118,0,0,0,0,0,0,0,0,0,-1,776,1142,0,0
-441,-118,0,0,0,0,0,0,0,0,0,-1,783,1142,0,0
-434,-118,0,0,0,0,0,0,0,0,0,-1,790,1142,0,0
-427,-118,0,0,0,0,0,0,0,0,0,-1,797,1142,0,0
-420,-118,0,0,0,0,0,0,0,0,0,-1,804,1142,0,0
-413,-118,0,0,0,0,0,0,0,0,0,-1,811,1142,0,0
-406,-118,0,0,0,0,0,0,0,0,0,-1,818,1142,0,0
-399,-118,0,0,0,0,0,0,0,0,0,-1,825,1142,0,0
-392,-118,0,0,0,0,0,0,0,0,0,-1,832,1142,0,0
-385,-118,0,0,0,0,0,0,0,0,0,-1,839,1142,0,0
-378,-118,0,0,0,0,0,0,0,0,0,-1,846,1142,0,0
-371,-118,0,0,0,0,0,0,0,0,0,-1,853,1142,0,0
-364,-118,0,0,0,0,0,0,0,0,0,-1,860,1142,0,0
-357,-118,0,0,0,0,0,0,0,0,0,-1,867,1142,0,0
-350,-118,0,0,0,0,0,0,0,0,0,-1,874,1142,0,0
-343,-118,0,0,0,0,0,0,0,0,0,-1,881,1142,0,0
-336,-118,0,0,0,0,0,0,0,0,0,-1,888,1142,0,0
-329,-118,0,0,0,0,0,0,0,0,0,-1,895,1142,0,0
-322,-118,0,0,0,0,0,0,0,0,0,-1,902,1142,0,0
-315,-118,0,0,0,0,0,0,0,0,0,-1,909,1142,0,0
-308,-118,0,0,0,0,0,0,0,0,0,-1,916,1142,0,0
-301,-118,0,0,0,0,0,0,0,0,0,-1,923,1142,0,0
-294,-118,0,0,0,0,0,0,0,0,0,-1,930,1142,0,0
-287,-118,0,0,0,0,0,0,0,0,0,-1,937,1142,0,0
-280,-118,0,0,0,0,0,0,0,0,0,-1,944,1142,0,0
-273,-118,0,0,0,0,0,0,0,0,0,-1,951,1142,0,0
-266,-118,0,0,0,0,0,0,0,0,0,-1,958,1142,0,0
-259,-118,0,0,0,0,0,0,0,0,0,-1,965,1142,0,0
-252,-118,0,0,0,0,0,0,0,0,0,-1,972,1142,0,0
-245,-118,0,0,0,0,0,0,0,0,0,-1,979,1142,0,0
-238,-118,0,0,0,0,0,0,0,0,0,-1,986,1142,0,0
-231,-118,0,0,0,0,0,0,0,0,0,-1,993,1142,0,0
-224,-118,0,0,0,0,0,0,0,0,0,-1,1000,1142,0,0
-217,-118,0,0,0,0,0,0,0,0,0,-1,1007,1142,0,0
-210,-118,0,0,0,0,0,0,0,0,0,-1,1014,1142,0,0
-203,-118,0,0,0,0,0,0,0,0,0,-1,1021,1142,0,0
-196,-118,0,0,0,0,0,0,0,0,0,-1,1028,1142,0,0
-189,-118,0,0,0,0,0,0,0,0,0,-1,1035,1142,0,0
-182,-118,0,0,0,0,0,0,0,0,0,-1,1042,1142,0,0
-175,-118,0,0,0,0,0,0,0,0,0,-1,1049,1142,0,0
-168,-118,0,0,0,0,0,0,0,0,0,-1,1056,1142,0,0
-161,-118,0,0,0,0,0,0,0,0,0,-1,1063,1142,0,0
-154,-118,0,0,0,0,0,0,0,0,0,-1,1070,1142,0,0
-147,-118,0,0,0,0,0,0,0,0,0,-1,1077,1142,0,0
-140,-118,0,0,0,0,0,0,0,0,0,-1,1084,1142,0,0
-133,-118,0,0,0,0,0,0,0,0,0,-1,1091,1142,0,0
-126,-118,0,0,0,0,0,0,0,0,0,-1,1098,1142,0,0
-119,-118,0,0,0,0,0,0,0,0,0,-1,1105,1142,0,0
-112,-118,0,0,0,0,0,0,0,0,0,-1,1112,1142,0,0
-105,-118,0,0,0,0,0,0,0,0,0,-1,1119,1142,0,0
-98,-118,0,0,0,0,0,0,0,0,0,-1,1126,1142,0,0
-91,-118,0,0,0,0,0,0,0,0,0,-1,1133,1142,0,0
-84,-118,0,0,0,0,0,0,0,0,0,-1,1140,1142,0,0
-77,-118,0,0,0,0,0,0,0,0,0,-1,1147,1142,0,0
-70,-118,0,0,0,0,0,0,0,0,0,-1,1154,1142,0,0
-63,-118,0,0,0,0,0,0,0,0,0,-1,1161,1142,0,0
-56,-118,0,0,0,0,0,0,0,0,0,-1,1168,1142,0,0
-49,-118,0,0,0,0,0,0,0,0,0,-1,1175,1142,0,0
-42,-118,0,0,0,0,0,0,0,0,0,-1,1182,1142,0,0
-35,-118,0,0,0,0,0,0,0,0,0,-1,1189,1142,0,0
-28,-118,0,0,0,0,0,0,0,0,0,-1,1196,1142,0,0
-21,-118,0,0,0,0,0,0,0,0,0,-1,1203,1142,0,0
-14,-118,0,0,0,0,0,0,0,0,0,-1,1210,1142,0,0
-7,-118,0,0,0,0,0,0,0,0,0,-1,1217,1142,0,0
0,-118,0,0,0,0,0,0,0,0,0,-1,1224,1142,0,0
7,-118,0,0,0,0,0,0,0,0,0,-1,1231,1142,0,0
14,-118,0,0,0,0,0,0,0,0,0,-1,1238,1142,0,0
21,-118,0,0,0,0,0,0,0,0,0,-1,1245,1142,0,0
28,-118,0,0,0,0,0,0,0,0,0,-1,1252,1142,0,0
35,-118,0,0,0,0,0,0,0,0,0,-1,1259,1142,0,0
42,-118,0,0,0,0,0,0,0,0,0,-1,1266,1142,0,0
49,-118,0,0,0,0,0,0,0,0,0,-1,1273,1142,0,0
56,-118,0,0,0,0,0,0,0,0,0,-1,1280,1142,0,0
63,-118,0,0,0,0,0,0,0,0,0,-1,1287,1142,0,0
70,-118,0,0,0,0,0,0,0,0,0,-1,1294,1142,0,0
77,-118,0,0,0,0,0,0,0,0,0,-1,1301,1142,0,0
84,-118,0,0,0,0,0,0,0,0,0,-1,1308,1142,0,0
91,-118,0,0,0,0,0,0,0,0,0,-1,1315,1142,0,0
98,-118,0,0,0,0,0,0,0,0,0,-1,1322,1142,0,0
105,-118,0,0,0,0,0,0,0,0,0,-1,1329,1142,0,0
112,-118,0,0,0,0,0,0,0,0,0,-1,1336,1142,0,0
119,-118,0,0,0,0,0,0,0,0,0,-1,1343,1142,0,0
126,-118,0,0,0,0,0,0,0,0,0,-1,1350,1142,0,0
133,-118,0,0,0,0,0,0,0,0,0,-1,1357,1142,0,0
140,-118,0,0,0,0,0,0,0,0,0,-1,1364,1142,0,0
147,-118,0,0,0,0,0,0,0,0,0,-1,1371,1142,0,0
154,-118,0,0,0,0,0,0,0,0,0,-1,1378,1142,0,0
161,-118,0,0,0,0,0,0,0,0,0,-1,1385,1142,0,0
168,-118,0,0,0,0,0,0,0,0,0,-1,1392,1142,0,0
175,-118,0,0,0,0,0,0,0,0,0,-1,1399,1142,0,0
182,-118,0,0,0,0,0,0,0,0,0,-1,1406,1142,0,0
189,-118,0,0,0,0,0,0,0,0,0,-1,1413,1142,0,0
196,-118,0,0,0,0,0,0,0,0,0,-1,1420,1142,0,0
203,-118,0,0,0,0,0,0,0,0,0,-1,1427,1142,0,0
210,-118,0,0,0,0,0,0,0,0,0,-1,1434,1142,0,0
217,-118,0,0,0,0,0,0,0,0,0,-1,1441,1142,0,0
224,-118,0,0,0,0,0,0,0,0,0,-1,1448,1142,0,0
231,-118,0,0,0,0,0,0,0,0,0,-1,1455,1142,0,0
238,-118,0,0,0,0,0,0,0,0,0,-1,1462,1142,0,0
245,-118,0,0,0,0,0,0,0,0,0,-1,1469,1142,0,0
252,-118,0,0,0,0,0,0,0,0,0,-1,1476,1142,0,0
259,-118,0,0,0,0,0,0,0,0,0,-1,1483,1142,0,0
266,-118,0,0,0,0,0,0,0,0,0,-1,1490,1142,0,0
273,-118,0,0,0,0,0,0,0,0,0,-1,1497,1142,0,0
280,-118,0,0,0,0,0,0,0,0,0,-1,1504,1142,0,0
287,-118,0,0,0,0,0,0,0,0,0,-1,1511,1142,0,0
294,-118,0,0,0,0,0,0,0,0,0,-1,1518,1142,0,0
301,-118,0,0,0,0,0,0,0,0,0,-1,1525,1142,0,0
308,-118,0,0,0,0,0,0,0,0,0,-1,1532,1142,0,0
315,-118,0,0,0,0,0,0,0,0,0,-1,1539,1142,0,0
322,-118,0,0,0,0,0,0,0,0,0,-1,1546,1142,0,0
329,-118,0,0,0,0,0,0,0,0,0,-1,1553,1142,0,0
336,-118,0,0,0,0,0,0,0,0,0,-1,1560,1142,0,0
343,-118,0,0,0,0,0,0,0,0,0,-1,1567,1142,0,0
350,-118,0,0,0,0,0,0,0,0,0,-1,1574,1142,0,0
357,-118,0,0,0,0,0,0,0,0,0,-1,1581,1142,0,0
364,-118,0,0,0,0,0,0,0,0,0,-1,1588,1142,0,0
371,-118,0,0,0,0,0,0,0,0,0,-1,1595,1142,0,0
378,-118,0,0,0,0,0,0,0,0,0,-1,1602,1142,0,0
385,-118,0,0,0,0,0,0,0,0,0,-1,1609,1142,0,0
392,-118,0,0,0,0,0,0,0,0,0,-1,1616,1142,0,0
399,-118,0,0,0,0,0,0,0,0,0,-1,1623,1142,0,0
406,-118,0,0,0,0,0,0,0,0,0,-1,1630,1142,0,0
413,-118,0,0,0,0,0,0,0,0,0,-1,1637,1142,0,0
420,-118,0,0,0,0,0,0,0,0,0,-1,1644,1142,0,0
427,-118,0,0,0,0,0,0,0,0,0,-1,1651,1142,0,0
434,-118,0,0,0,0,0,0,0,0,0,-1,1658,1142,0,0
441,-118,0,0,0,0,0,0,0,0,0,-1,1665,1142,0,0
448,-118,0,0,0,0,0,0,0,0,0,-1,1672,1142,0,0
455,-118,0,0,0,0,0,0,0,0,0,-1,1679,1142,0,0
462,-118,0,0,0,0,0,0,0,0,0,-1,1686,1142,0,0
469,-118,0,0,0,0,0,0,0,0,0,-1,1693,1142,0,0
476,-118,0,0,0,0,0,0,0,0,0,-1,1700,1142,0,0
483,-118,0,0,0,0,0,0,0,0,0,-1,1707,1142,0,0
490,-118,0,0,0,0,0,0,0,0,0,-1,1714,1142,0,0
497,-118,0,0,0,0,0,0,0,0,0,-1,1721,1142,0,0
504,-118,0,0,0,0,0,0,0,0,0,-1,1728,1142,0,0
511,-118,0,0,0,0,0,0,0,0,0,-1,1735,1142,0,0
518,-118,0,0,0,0,0,0,0,0,0,-1,1742,1142,0,0
525,-118,0,0,0,0,0,0,0,0,0,-1,1749,1142,0,0
532,-118,0,0,0,0,0,0,0,0,0,-1,1756,1142,0,0
539,-118,0,0,0,0,0,0,0,0,0,-1,1763,1142,0,0
546,-118,0,0,0,0,0,0,0,0,0,-1,1770,1142,0,0
553,-118,0,0,0,0,0,0,0,0,0,-1,1777,1142,0,0
560,-118,0,0,0,0,0,0,0,0,0,-1,1784,1142,0,0
567,-118,0,0,0,0,0,0,0,0,0,-1,1791,1142,0,0
574,-118,0,0,0,0,0,0,0,0,0,-1,1798,1142,0,0
581,-118,0,0,0,0,0,0,0,0,0,-1,1805,1142,0,0
588,-118,0,0,0,0,0,0,0,0,0,-1,1812,1142,0,0
595,-118,0,0,0,0,0,0,0,0,0,-1,1819,1142,0,0
602,-118,0,0,0,0,0,0,0,0,0,-1,1826,1142,0,0
609,-118,0,0,0,0,0,0,0,0,0,-1,1833,1142,0,0
616,-118,0,0,0,0,0,0,0,0,0,-1,1840,1142,0,0
623,-118,0,0,0,0,0,0,0,0,0,-1,1847,1142,0,0
630,-118,0,0,0,0,0,0,0,0,0,-1,1854,1142,0,0
637,-118,0,0,0,0,0,0,0,0,0,-1,1861,1142,0,0
644,-118,21.1504,3.27222,0.000321578,-0.00623957,0.00217616,0.000977735,-0.00689573,0.292851,0.00495532,0.038834,1868,1142,21.1504,-3.27222
651,-118,21.2555,3.01941,0.000174266,-0.00483372,0.00202872,0.000892953,-0.00555241,0.340462,0.00403235,0.0411865,1875,1142,21.2555,-3.01946
658,-118,21.1698,2.95471,0.000448098,-0.00357002,0.00140422,0.000890191,-0.00401211,0.305008,0.00301559,0.0424507,1882,1142,21.1699,-2.95468
665,-118,21.1888,2.95984,-0.000245786,-0.00278593,0.0016991,0.000605466,-0.00363719,0.464449,0.00264977,0.043311,1889,1142,21.1888,-2.9598
672,-118,21.0934,3.08826,-0.00196316,-0.00266335,0.00303086,0.00073776,-0.00536427,0.727897,0.00384576,0.0464225,1896,1142,21.0934,-3.08825
679,-118,21.1138,3.08533,-0.00378735,-0.00276316,0.00446543,0.00121944,-0.00776995,0.842489,0.00563064,0.0396227,1903,1142,21.1137,-3.08536
686,-118,21.0815,3.05994,-0.00550632,-0.00298951,0.00581804,0.00170466,-0.0102005,0.891905,0.00743398,0.0349114,1910,1142,21.0815,-3.05996
693,-118,21.0482,2.9917,-0.00692973,-0.00322156,0.00691357,0.00208222,-0.0122335,0.916406,0.00893103,0.0333367,1917,1142,21.0482,-2.99172
700,-118,21.1272,2.90332,-0.00797953,-0.00325812,0.00779837,0.00252902,-0.0137667,0.932372,0.0101266,0.0185202,1924,1142,21.1272,-2.90326
707,-118,21.1088,3.48853,0,0,0,0,0,0,0,-1,1931,1142,21.1087,-3.4885
714,-118,20.5376,4.07837,-0.00901512,-0.00335011,0.00862537,0.00289594,-0.0152612,0.944047,0.0112642,0.038601,1938,1142,20.5376,-4.0784
721,-118,20.0688,4.573,-0.00911609,-0.00321402,0.00851,0.00284209,-0.0151722,0.952297,0.0111832,0.0103861,1945,1142,20.0689,-4.57297
728,-118,20.0737,4.51062,-0.00862496,-0.00292028,0.00802019,0.00273969,-0.0142849,0.956246,0.0105557,0.0137005,1952,1142,20.0737,-4.51063
735,-118,20.0535,4.42725,-0.0076194,-0.0024677,0.00716525,0.00257064,-0.0126577,0.957951,0.00941311,0.0134036,1959,1142,20.0535,-4.42721
742,-118,20.036,4.33069,-0.00621719,-0.00193703,0.00574631,0.00205477,-0.010209,0.963655,0.00758427,0.0191695,1966,1142,20.036,-4.33066
749,-118,20.0278,4.22681,-0.00431759,-0.00128149,0.00380696,0.00129892,-0.006898,0.975115,0.00508722,0.0189542,1973,1142,20.0278,-4.22677
756,-118,20.0283,4.15491,-0.00205666,-0.000618904,0.00151956,0.000343248,-0.00301881,1.00634,0.00213617,0.0167447,1980,1142,20.0283,-4.15492
763,-118,20.0294,4.04858,0.000181098,0.000384429,-0.00126355,0.0015504,-0.000984872,-0.825542,0.00147583,0.00984257,1987,1142,20.0294,-4.04856
770,-118,20.0167,3.96423,0.00241833,0.00116964,-0.00394095,0.00578408,-0.00219611,-0.706838,0.00476006,0.0115917,1994,1142,20.0167,-3.96429
777,-118,19.9845,3.81604,0.00412593,0.00161329,-0.00630588,0.00929942,-0.0035602,-0.68707,0.00766702,0.0244961,2001,1142,19.9844,-3.81605
784,-118,19.9161,3.63806,0.00587954,0.00213447,-0.00907661,0.0132748,-0.00526075,-0.683674,0.0110299,0.0420228,2008,1142,19.9162,-3.63806
791,-118,19.8657,3.52478,0,0,0,0,0,0,0,-1,2015,1142,19.8658,-3.52475
798,-118,20.5,4.17517,0,0,0,0,0,0,0,-1,2022,1142,20.5,-4.17515
805,-118,21.1584,3.98999,0,0,0,0,0,0,0,-1,2029,1142,21.1585,-3.99003
812,-118,21.7197,3.66919,0,0,0,0,0,0,0,-1,2036,1142,21.7198,-3.66917
-700,-125,0,0,0,0,0,0,0,0,0,-1,524,1149,0,0
-693,-125,-10.1417,3.05115,0,0,0,0,0,0,0,-1,531,1149,-10.1418,-3.05114
-686,-125,-10.9095,2.6543,-0.078236,-0.0199168,-0.0547739,0.0129757,-0.111129,-1.03,0.0787679,0.0457294,538,1149,-10.9095,-2.65425
-679,-125,-11.6255,2.18994,-0.0577128,-0.0142457,-0.0433106,0.0124785,-0.0844371,-1.01794,0.0608787,0.0438996,545,1149,-11.6256,-2.18998
-672,-125,-12.3721,1.72571,-0.0417112,-0.00979262,-0.03362,0.0114637,-0.0629675,-1.007,0.0462754,0.0457916,552,1149,-12.3721,-1.72576
-665,-125,-13.1235,1.32556,0,0,0,0,0,0,0,-1,559,1149,-13.1235,-1.32552
-658,-125,-12.7798,1.15515,0,0,0,0,0,0,0,-1,566,1149,-12.7798,-1.1552
-651,-125,-12.5578,1.24719,-0.0129695,-0.00197213,-0.0136168,0.00721429,-0.0221559,-0.977294,0.0176732,0.037375,573,1149,-12.5578,-1.24721
-644,-125,-12.3048,1.36621,-0.00796968,-0.000789542,-0.00952484,0.00579934,-0.0145586,-0.965623,0.0121109,0.0245326,580,1149,-12.3048,-1.36621
-637,-125,-12.3333,1.49805,-0.00395533,-3.45569e-06,-0.0064294,0.00474679,-0.00870558,-0.934481,0.00787803,0.0126791,587,1149,-12.3332,-1.49803
-630,-125,-12.3467,1.61365,-0.0016289,0.000396371,-0.00457932,0.00407368,-0.00530621,-0.894213,0.00543104,0.0127072,594,1149,-12.3467,-1.61367
-623,-125,-12.3637,1.73413,-0.00169624,0.000295322,-0.00404003,0.00346048,-0.0048614,-0.906229,0.00482728,0.0119101,601,1149,-12.3637,-1.73415
-616,-125,-12.3617,1.8717,-0.00358022,-5.28251e-05,-0.00451138,0.00302735,-0.00666041,-0.971736,0.00572283,0.0125984,608,1149,-12.3617,-1.87171
-609,-125,-12.3994,1.96619,-0.00548314,-0.00124428,-0.00564072,0.00266205,-0.00938947,-0.965107,0.00731038,0.0154476,615,1149,-12.3994,-1.96623
-602,-125,-12.439,2.10278,-0.00715429,-0.00160992,-0.00685322,0.00301057,-0.0117748,-0.977592,0.00902239,0.014703,622,1149,-12.4391,-2.10277
-595,-125,-12.4302,2.23926,-0.00858621,-0.00180498,-0.00778154,0.00329255,-0.0136837,-0.990858,0.0103953,0.0125477,629,1149,-12.4302,-2.23922
-588,-125,-12.309,2.40491,-0.00941199,-0.00188668,-0.0084145,0.00356811,-0.0148668,-0.995644,0.0112901,0.0181715,636,1149,-12.309,-2.40489
-581,-125,-12.8301,2.25964,-0.00974965,-0.00188428,-0.00883064,0.0038498,-0.0154837,-0.994886,0.0118167,0.0470763,643,1149,-12.8301,-2.2597
-574,-125,-13.4946,1.97778,0,0,0,0,0,0,0,-1,650,1149,-13.4946,-1.97783
-567,-125,-13.4421,1.00488,-0.00945373,-0.00136572,-0.00876884,0.0042467,-0.0150661,-1.00145,0.011719,0.0412122,657,1149,-13.4421,-1.00492
-560,-125,-13.4428,0.996948,-0.00854582,-0.000874427,-0.00814105,0.00428929,-0.0137095,-1.00555,0.0108557,0.0400798,664,1149,-13.4428,-0.996902
-553,-125,-13.4907,1.06921,-0.00701561,-0.000174941,-0.00702401,0.00421724,-0.0114078,-1.01197,0.0093341,0.0408901,671,1149,-13.4907,-1.0692
-546,-125,-13.5869,1.21619,-0.00483639,0.000725453,-0.00541014,0.00402755,-0.00813849,-1.0228,0.00715649,0.0416018,678,1149,-13.5869,-1.21617
-539,-125,-13.4464,1.21765,-0.00194257,0.00183907,-0.00327172,0.00372705,-0.00383055,-1.04741,0.00436352,0.0429429,685,1149,-13.4463,-1.21767
-532,-125,-13.4368,1.02502,0.00115241,0.00303359,-0.00114229,0.0035727,0.000613292,-1.12983,0.00220597,0.0386448,692,1149,-13.4368,-1.02501
-525,-125,-13.5399,1.00293,0.000791525,0.00368128,-0.00202425,0.00472343,-0.000250618,-1.09536,0.00323573,0.040689,699,1149,-13.5398,-1.00289
-518,-125,0,0,0,0,0,0,0,0,0,-1,706,1149,0,0
-511,-125,0,0,0,0,0,0,0,0,0,-1,713,1149,0,0
-504,-125,0,0,0,0,0,0,0,0,0,-1,720,1149,0,0
-497,-125,0,0,0,0,0,0,0,0,0,-1,727,1149,0,0
-490,-125,0,0,0,0,0,0,0,0,0,-1,734,1149,0,0
-483,-125,0,0,0,0,0,0,0,0,0,-1,741,1149,0,0
-476,-125,0,0,0,0,0,0,0,0,0,-1,748,1149,0,0
-469,-125,0,0,0,0,0,0,0,0,0,-1,755,1149,0,0
-462,-125,0,0,0,0,0,0,0,0,0,-1,762,1149,0,0
-455,-125,0,0,0,0,0,0,0,0,0,-1,769,1149,0,0
-448,-125,0,0,0,0,0,0,0,0,0,-1,776,1149,0,0
-441,-125,0,0,0,0,0,0,0,0,0,-1,783,1149,0,0
-434,-125,0,0,0,0,0,0,0,0,0,-1,790,1149,0,0
-427,-125,0,0,0,0,0,0,0,0,0,-1,797,1149,0,0
-420,-125,0,0,0,0,0,0,0,0,0,-1,804,1149,0,0
-413,-125,0,0,0,0,0,0,0,0,0,-1,811,1149,0,0
-406,-125,0,0,0,0,0,0,0,0,0,-1,818,1149,0,0
-399,-125,0,0,0,0,0,0,0,0,0,-1,825,1149,0,0
-392,-125,0,0,0,0,0,0,0,0,0,-1,832,1149,0,0
-385,-125,0,0,0,0,0,0,0,0,0,-1,839,1149,0,0
-378,-125,0,0,0,0,0,0,0,0,0,-1,846,1149,0,0
-371,-125,0,0,0,0,0,0,0,0,0,-1,853,1149,0,0
-364,-125,0,0,0,0,0,0,0,0,0,-1,860,1149,0,0
-357,-125,0,0,0,0,0,0,0,0,0,-1,867,1149,0,0
-350,-125,0,0,0,0,0,0,0,0,0,-1,874,1149,0,0
-343,-125,0,0,0,0,0,0,0,0,0,-1,881,1149,0,0
-336,-125,0,0,0,0,0,0,0,0,0,-1,888,1149,0,0
-329,-125,0,0,0,0,0,0,0,0,0,-1,895,1149,0,0
-322,-125,0,0,0,0,0,0,0,0,0,-1,902,1149,0,0
-315,-125,0,0,0,0,0,0,0,0,0,-1,909,1149,0,0
-308,-125,0,0,0,0,0,0,0,0,0,-1,916,1149,0,0
-301,-125,0,0,0,0,0,0,0,0,0,-1,923,1149,0,0
-294,-125,0,0,0,0,0,0,0,0,0,-1,930,1149,0,0
-287,-125,0,0,0,0,0,0,0,0,0,-1,937,1149,0,0
-280,-125,0,0,0,0,0,0,0,0,0,-1,944,1149,0,0
-273,-125,0,0,0,0,0,0,0,0,0,-1,951,1149,0,0
-266,-125,0,0,0,0,0,0,0,0,0,-1,958,1149,0,0
-259,-125,0,0,0,0,0,0,0,0,0,-1,965,1149,0,0
-252,-125,0,0,0,0,0,0,0,0,0,-1,972,1149,0,0
-245,-125,0,0,0,0,0,0,0,0,0,-1,979,1149,0,0
-238,-125,0,0,0,0,0,0,0,0,0,-1,986,1149,0,0
-231,-125,0,0,0,0,0,0,0,0,0,-1,993,1149,0,0
-224,-125,0,0,0,0,0,0,0,0,0,-1,1000,1149,0,0
-217,-125,0,0,0,0,0,0,0,0,0,-1,1007,1149,0,0
-210,-125,0,0,0,0,0,0,0,0,0,-1,1014,1149,0,0
-203,-125,0,0,0,0,0,0,0,0,0,-1,1021,1149,0,0
-196,-125,0,0,0,0,0,0,0,0,0,-1,1028,1149,0,0
-189,-125,0,0,0,0,0,0,0,0,0,-1,1035,1149,0,0
-182,-125,0,0,0,0,0,0,0,0,0,-1,1042,1149,0,0
-175,-125,0,0,0,0,0,0,0,0,0,-1,1049,1149,0,0
-168,-125,0,0,0,0,0,0,0,0,0,-1,1056,1149,0,0
-161,-125,0,0,0,0,0,0,0,0,0,-1,1063,1149,0,0
-154,-125,0,0,0,0,0,0,0,0,0,-1,1070,1149,0,0
-147,-125,0,0,0,0,0,0,0,0,0,-1,1077,1149,0,0
-140,-125,0,0,0,0,0,0,0,0,0,-1,1084,1149,0,0
-133,-125,0,0,0,0,0,0,0,0,0,-1,1091,1149,0,0
-126,-125,0,0,0,0,0,0,0,0,0,-1,1098,1149,0,0
-119,-125,0,0,0,0,0,0,0,0,0,-1,1105,1149,0,0
-112,-125,0,0,0,0,0,0,0,0,0,-1,1112,1149,0,0
-105,-125,0,0,0,0,0,0,0,0,0,-1,1119,1149,0,0
-98,-125,0,0,0,0,0,0,0,0,0,-1,1126,1149,0,0
-91,-125,0,0,0,0,0,0,0,0,0,-1,1133,1149,0,0
-84,-125,0,0,0,0,0,0,0,0,0,-1,1140,1149,0,0
-77,-125,0,0,0,0,0,0,0,0,0,-1,1147,1149,0,0
-70,-125,0,0,0,0,0,0,0,0,0,-1,1154,1149,0,0
-63,-125,0,0,0,0,0,0,0,0,0,-1,1161,1149,0,0
-56,-125,0,0,0,0,0,0,0,0,0,-1,1168,1149,0,0
-49,-125,0,0,0,0,0,0,0,0,0,-1,1175,1149,0,0
-42,-125,0,0,0,0,0,0,0,0,0,-1,1182,1149,0,0
-35,-125,0,0,0,0,0,0,0,0,0,-1,1189,1149,0,0
-28,-125,0,0,0,0,0,0,0,0,0,-1,1196,1149,0,0
-21,-125,0,0,0,0,0,0,0,0,0,-1,1203,1149,0,0
-14,-125,0,0,0,0,0,0,0,0,0,-1,1210,1149,0,0
-7,-125,0,0,0,0,0,0,0,0,0,-1,1217,1149,0,0
0,-125,0,0,0,0,0,0,0,0,0,-1,1224,1149,0,0
7,-125,0,0,0,0,0,0,0,0,0,-1,1231,1149,0,0
14,-125,0,0,0,0,0,0,0,0,0,-1,1238,1149,0,0
21,-125,0,0,0,0,0,0,0,0,0,-1,1245,1149,0,0
28,-125,0,0,0,0,0,0,0,0,0,-1,1252,1149,0,0
35,-125,0,0,0,0,0,0,0,0,0,-1,1259,1149,0,0
42,-125,0,0,0,0,0,0,0,0,0,-1,1266,1149,0,0
49,-125,0,0,0,0,0,0,0,0,0,-1,1273,1149,0,0
56,-125,0,0,0,0,0,0,0,0,0,-1,1280,1149,0,0
63,-125,0,0,0,0,0,0,0,0,0,-1,1287,1149,0,0
70,-125,0,0,0,0,0,0,0,0,0,-1,1294,1149,0,0
77,-125,0,0,0,0,0,0,0,0,0,-1,1301,1149,0,0
84,-125,0,0,0,0,0,0,0,0,0,-1,1308,1149,0,0
91,-125,0,0,0,0,0,0,0,0,0,-1,1315,1149,0,0
98,-125,0,0,0,0,0,0,0,0,0,-1,1322,1149,0,0
105,-125,0,0,0,0,0,0,0,0,0,-1,1329,1149,0,0
112,-125,0,0,0,0,0,0,0,0,0,-1,1336,1149,0,0
119,-125,0,0,0,0,0,0,0,0,0,-1,1343,1149,0,0
126,-125,0,0,0,0,0,0,0,0,0,-1,1350,1149,0,0
133,-125,0,0,0,0,0,0,0,0,0,-1,1357,1149,0,0
140,-125,0,0,0,0,0,0,0,0,0,-1,1364,1149,0,0
147,-125,0,0,0,0,0,0,0,0,0,-1,1371,1149,0,0
154,-125,0,0,0,0,0,0,0,0,0,-1,1378,1149,0,0
161,-125,0,0,0,0,0,0,0,0,0,-1,1385,1149,0,0
168,-125,0,0,0,0,0,0,0,0,0,-1,1392,1149,0,0
175,-125,0,0,0,0,0,0,0,0,0,-1,1399,1149,0,0
182,-125,0,0,0,0,0,0,0,0,0,-1,1406,1149,0,0
189,-125,0,0,0,0,0,0,0,0,0,-1,1413,1149,0,0
196,-125,0,0,0,0,0,0,0,0,0,-1,1420,1149,0,0
203,-125,0,0,0,0,0,0,0,0,0,-1,1427,1149,0,0
210,-125,0,0,0,0,0,0,0,0,0,-1,1434,1149,0,0
217,-125,0,0,0,0,0,0,0,0,0,-1,1441,1149,0,0
224,-125,0,0,0,0,0,0,0,0,0,-1,1448,1149,0,0
231,-125,0,0,0,0,0,0,0,0,0,-1,1455,1149,0,0
238,-125,0,0,0,0,0,0,0,0,0,-1,1462,1149,0,0
245,-125,0,0,0,0,0,0,0,0,0,-1,1469,1149,0,0
252,-125,0,0,0,0,0,0,0,0,0,-1,1476,1149,0,0
259,-125,0,0,0,0,0,0,0,0,0,-1,1483,1149,0,0
266,-125,0,0,0,0,0,0,0,0,0,-1,1490,1149,0,0
273,-125,0,0,0,0,0,0,0,0,0,-1,1497,1149,0,0
280,-125,0,0,0,0,0,0,0,0,0,-1,1504,1149,0,0
287,-125,0,0,0,0,0,0,0,0,0,-1,1511,1149,0,0
294,-125,0,0,0,0,0,0,0,0,0,-1,1518,1149,0,0
301,-125,0,0,0,0,0,0,0,0,0,-1,1525,1149,0,0
308,-125,0,0,0,0,0,0,0,0,0,-1,1532,1149,0,0
315,-125,0,0,0,0,0,0,0,0,0,-1,1539,1149,0,0
322,-125,0,0,0,0,0,0,0,0,0,-1,1546,1149,0,0
329,-125,0,0,0,0,0,0,0,0,0,-1,1553,1149,0,0
336,-125,0,0,0,0,0,0,0,0,0,-1,1560,1149,0,0
343,-125,0,0,0,0,0,0,0,0,0,-1,1567,1149,0,0
350,-125,0,0,0,0,0,0,0,0,0,-1,1574,1149,0,0
357,-125,0,0,0,0,0,0,0,0,0,-1,1581,1149,0,0
364,-125,0,0,0,0,0,0,0,0,0,-1,1588,1149,0,0
371,-125,0,0,0,0,0,0,0,0,0,-1,1595,1149,0,0
378,-125,0,0,0,0,0,0,0,0,0,-1,1602,1149,0,0
385,-125,0,0,0,0,0,0,0,0,0,-1,1609,1149,0,0
392,-125,0,0,0,0,0,0,0,0,0,-1,1616,1149,0,0
399,-125,0,0,0,0,0,0,0,0,0,-1,1623,1149,0,0
406,-125,0,0,0,0,0,0,0,0,0,-1,1630,1149,0,0
413,-125,0,0,0,0,0,0,0,0,0,-1,1637,1149,0,0
420,-125,0,0,0,0,0,0,0,0,0,-1,1644,1149,0,0
427,-125,0,0,0,0,0,0,0,0,0,-1,1651,1149,0,0
434,-125,0,0,0,0,0,0,0,0,0,-1,1658,1149,0,0
441,-125,0,0,0,0,0,0,0,0,0,-1,1665,1149,0,0
448,-125,0,0,0,0,0,0,0,0,0,-1,1672,1149,0,0
455,-125,0,0,0,0,0,0,0,0,0,-1,1679,1149,0,0
462,-125,0,0,0,0,0,0,0,0,0,-1,1686,1149,0,0
469,-125,0,0,0,0,0,0,0,0,0,-1,1693,1149,0,0
476,-125,0,0,0,0,0,0,0,0,0,-1,1700,1149,0,0
483,-125,0,0,0,0,0,0,0,0,0,-1,1707,1149,0,0
490,-125,0,0,0,0,0,0,0,0,0,-1,1714,1149,0,0
497,-125,0,0,0,0,0,0,0,0,0,-1,1721,1149,0,0
504,-125,0,0,0,0,0,0,0,0,0,-1,1728,1149,0,0
511,-125,0,0,0,0,0,0,0,0,0,-1,1735,1149,0,0
518,-125,0,0,0,0,0,0,0,0,0,-1,1742,1149,0,0
525,-125,0,0,0,0,0,0,0,0,0,-1,1749,1149,0,0
532,-125,0,0,0,0,0,0,0,0,0,-1,1756,1149,0,0
539,-125,0,0,0,0,0,0,0,0,0,-1,1763,1149,0,0
546,-125,0,0,0,0,0,0,0,0,0,-1,1770,1149,0,0
553,-125,0,0,0,0,0,0,0,0,0,-1,1777,1149,0,0
560,-125,0,0,0,0,0,0,0,0,0,-1,1784,1149,0,0
567,-125,0,0,0,0,0,0,0,0,0,-1,1791,1149,0,0
574,-125,0,0,0,0,0,0,0,0,0,-1,1798,1149,0,0
581,-125,0,0,0,0,0,0,0,0,0,-1,1805,1149,0,0
588,-125,0,0,0,0,0,0,0,0,0,-1,1812,1149,0,0
595,-125,0,0,0,0,0,0,0,0,0,-1,1819,1149,0,0
602,-125,0,0,0,0,0,0,0,0,0,-1,1826,1149,0,0
609,-125,0,0,0,0,0,0,0,0,0,-1,1833,1149,0,0
616,-125,0,0,0,0,0,0,0,0,0,-1,1840,1149,0,0
623,-125,0,0,0,0,0,0,0,0,0,-1,1847,1149,0,0
630,-125,0,0,0,0,0,0,0,0,0,-1,1854,1149,0,0
637,-125,0,0,0,0,0,0,0,0,0,-1,1861,1149,0,0
644,-125,21.5057,2.79456,0,0,0,0,0,0,0,-1,1868,1149,21.5058,-2.79461
651,-125,21.2963,2.88428,-0.000606145,-0.00489587,0.00235371,0.000433391,-0.00593541,0.415895,0.00410903,0.0414295,1875,1149,21.2963,-2.88432
658,-125,20.7195,3.15063,-8.15497e-05,-0.00352256,0.00157279,0.000529001,-0.00413311,0.370288,0.00294761,0.0429393,1882,1149,20.7195,-3.15065
665,-125,20.9509,3.14966,-0.000616784,-0.00265645,0.00174964,0.000388545,-0.00366178,0.521529,0.00258047,0.0466144,1889,1149,20.9509,-3.14967
672,-125,21.0447,3.25269,-0.00213729,-0.00242138,0.00283022,0.000554445,-0.00511311,0.760325,0.00360779,0.0473188,1896,1149,21.0447,-3.25263
679,-125,21.0487,3.01855,-0.00377967,-0.00242963,0.00401308,0.000964809,-0.00717411,0.86872,0.00513464,0.0384452,1903,1149,21.0488,-3.0186
686,-125,21.0721,2.94531,-0.00536259,-0.00258506,0.00514667,0.00135693,-0.00930457,0.917179,0.00670131,0.0358028,1910,1149,21.0721,-2.9453
693,-125,21.0608,2.95544,-0.00665994,-0.00276638,0.00604021,0.00163303,-0.0110594,0.941294,0.00797318,0.0301141,1917,1149,21.0608,-2.95544
700,-125,21.1284,2.94336,-0.00761557,-0.00278324,0.00679526,0.00201263,-0.0124114,0.956211,0.00902032,0.0126574,1924,1149,21.1284,-2.94341
707,-125,21.0187,3.94543,0,0,0,0,0,0,0,-1,1931,1149,21.0187,-3.94546
714,-125,20.4049,4.30957,-0.00858364,-0.0028429,0.00751562,0.00233182,-0.0137584,0.96781,0.0100402,0.0403975,1938,1149,20.405,-4.3096
721,-125,19.9053,4.60535,-0.00875527,-0.0027609,0.00745906,0.00228061,-0.0137968,0.976435,0.0100447,0.0187944,1945,1149,19.9053,-4.60534
728,-125,19.9397,4.51196,-0.00831166,-0.00253813,0.00708224,0.00222308,-0.0130729,0.978921,0.00954298,0.0130305,1952,1149,19.9396,-4.51201
735,-125,19.9301,4.43652,-0.00732937,-0.00215986,0.0063731,0.00213269,-0.0116219,0.978048,0.008548,0.015471,1959,1149,19.93,-4.43654
742,-125,19.9203,4.34045,-0.00593151,-0.00171316,0.00514571,0.00173886,-0.00938354,0.9799,0.00690864,0.0218823,1966,1149,19.9203,-4.34042
749,-125,19.932,4.22119,-0.00427634,-0.00107018,0.00325166,0.000952093,-0.00629861,1.01442,0.00454977,0.0234185,1973,1149,19.9319,-4.22116
756,-125,19.9346,4.13159,-0.00241661,-0.000335013,0.0010138,7.71356e-05,-0.00282876,1.18467,0.00191207,0.0193839,1980,1149,19.9346,-4.13162
763,-125,19.9486,4.04431,-0.000567387,0.000662852,-0.00171571,0.00187038,-0.00177492,-0.957521,0.00210485,0.0107469,1987,1149,19.9486,-4.04437
770,-125,19.9502,3.94763,0.000970834,0.00148657,-0.00441149,0.00564772,-0.00319032,-0.814592,0.00516798,0.0123273,1994,1149,19.9502,-3.94765
777,-125,19.9161,3.84155,0.00171837,0.00207716,-0.00705646,0.00895651,-0.00516098,-0.798107,0.00824834,0.0236401,2001,1149,19.9162,-3.84153
784,-125,19.875,3.62219,0.00215709,0.00284184,-0.0103663,0.0128715,-0.00787253,-0.801906,0.0120919,0.0419866,2008,1149,19.875,-3.62222
791,-125,19.8522,3.41577,0,0,0,0,0,0,0,-1,2015,1149,19.8521,-3.41575
798,-125,19.5037,7.84546,0,0,0,0,0,0,0,-1,2022,1149,19.5036,-7.8454
805,-125,21.0112,4.32898,0,0,0,0,0,0,0,-1,2029,1149,21.0112,-4.32893
812,-125,17.5686,4.48071,0,0,0,0,0,0,0,-1,2036,1149,17.5686,-4.4807
-700,-132,0,0,0,0,0,0,0,0,0,-1,524,1156,0,0
-693,-132,-9.45087,3.71094,0,0,0,0,0,0,0,-1,531,1156,-9.45088,-3.71089
-686,-132,-9.9104,3.13025,-0.0799354,-0.0187928,-0.067547,0.024779,-0.123507,-0.997902,0.0917204,0.0470154,538,1156,-9.9104,-3.13025
-679,-132,-10.585,2.42859,-0.059066,-0.0138316,-0.0533899,0.0215341,-0.0944318,-0.98575,0.071226,0.0468382,545,1156,-10.5849,-2.42859
-672,-132,-11.4337,2.11401,-0.0427936,-0.00990969,-0.0415832,0.0183641,-0.0710674,-0.973665,0.0545401,0.0434294,552,1156,-11.4336,-2.11403
-665,-132,-12.0989,1.9425,-0.0301662,-0.00684342,-0.0317804,0.0153476,-0.0523572,-0.96124,0.0409898,0.0439868,559,1156,-12.0989,-1.94246
-658,-132,-12.7845,1.18115,0,0,0,0,0,0,0,-1,566,1156,-12.7846,-1.18114
-651,-132,-12.4859,0.983887,-0.0133647,-0.00280386,-0.0172933,0.0099972,-0.0261658,-0.933575,0.0215631,0.0364278,573,1156,-12.4859,-0.983876
-644,-132,-12.2161,1.3291,-0.00819698,-0.00162234,-0.0122349,0.00775919,-0.0175785,-0.91664,0.0149904,0.0210781,580,1156,-12.2161,-1.32915
-637,-132,-12.193,1.4845,-0.00406,-0.000819665,-0.00813342,0.00585338,-0.010733,-0.883711,0.00971334,0.011453,587,1156,-12.193,-1.48449
-630,-132,-12.2034,1.61523,-0.00157651,-0.000227094,-0.005456,0.00459576,-0.00639936,-0.846918,0.00637644,0.00964246,594,1156,-12.2034,-1.61523
-623,-132,-12.2205,1.74792,-0.00160976,-0.000251418,-0.00437571,0.00349752,-0.0053587,-0.862391,0.00515064,0.014241,601,1156,-12.2205,-1.74792
-616,-132,-12.2536,1.88281,-0.00359571,-0.000370493,-0.00468175,0.0029686,-0.0069348,-0.951257,0.00586858,0.0201273,608,1156,-12.2536,-1.88278
-609,-132,-12.2252,1.98914,-0.00572179,-0.00136629,-0.00578794,0.00264004,-0.00972811,-0.965334,0.00752148,0.0149312,615,1156,-12.2252,-1.98909
-602,-132,-12.2888,2.08301,-0.00771267,-0.00167083,-0.00697445,0.00290883,-0.0122923,-0.989771,0.00931711,0.0128479,622,1156,-12.2888,-2.08304
-595,-132,-12.287,2.24622,-0.00938737,-0.00171244,-0.00791631,0.00324749,-0.0143473,-1.01109,0.0108112,0.0135027,629,1156,-12.287,-2.24627
-588,-132,-12.2123,2.43469,-0.010407,-0.00174774,-0.00857992,0.00353309,-0.0156878,-1.01907,0.0118137,0.0164234,636,1156,-12.2123,-2.43469
-581,-132,-12.603,2.34058,-0.0109174,-0.00171729,-0.00907699,0.00385873,-0.0164934,-1.01993,0.0124823,0.0431211,643,1156,-12.603,-2.34061
-574,-132,-13.1613,2.13782,0,0,0,0,0,0,0,-1,650,1156,-13.1613,-2.13782
-567,-132,-13.4262,0.900391,-0.0108391,-0.00110534,-0.00920059,0.0044363,-0.0163807,-1.02868,0.012661,0.0396596,657,1156,-13.4262,-0.900381
-560,-132,-13.4635,0.899536,-0.0100212,-0.000588846,-0.00864772,0.00454512,-0.0151552,-1.03504,0.0119112,0.0368467,664,1156,-13.4635,-0.899482
-553,-132,-13.5396,1.00391,-0.00849255,0.000136052,-0.00755055,0.00451796,-0.0128745,-1.04496,0.0104207,0.0382894,671,1156,-13.5396,-1.00387
-546,-132,-13.6083,1.1936,-0.00618315,0.00106857,-0.00587219,0.00434413,-0.0094587,-1.06198,0.00814939,0.041394,678,1156,-13.6083,-1.1936
-539,-132,-13.3887,1.12366,-0.00299922,0.00223499,-0.00354787,0.00402658,-0.00479081,-1.10318,0.00509709,0.043206,685,1156,-13.3888,-1.12365
-532,-132,-13.2957,0.98291,0.000767426,0.00356443,-0.000895272,0.00382645,0.000505409,-1.28608,0.0024003,0.0388321,692,1156,-13.2956,-0.982858
-525,-132,-13.5728,1.17358,0.00154384,0.00438827,-0.000778296,0.0045873,0.00134481,-1.32043,0.00272297,0.0385789,699,1156,-13.5728,-1.17363
-518,-132,0,0,0,0,0,0,0,0,0,-1,706,1156,0,0
-511,-132,0,0,0,0,0,0,0,0,0,-1,713,1156,0,0
-504,-132,0,0,0,0,0,0,0,0,0,-1,720,1156,0,0
-497,-132,0,0,0,0,0,0,0,0,0,-1,727,1156,0,0
-490,-132,0,0,0,0,0,0,0,0,0,-1,734,1156,0,0
-483,-132,0,0,0,0,0,0,0,0,0,-1,741,1156,0,0
-476,-132,0,0,0,0,0,0,0,0,0,-1,748,1156,0,0
-469,-132,0,0,0,0,0,0,0,0,0,-1,755,1156,0,0
-462,-132,0,0,0,0,0,0,0,0,0,-1,762,1156,0,0
-455,-132,0,0,0,0,0,0,0,0,0,-1,769,1156,0,0
-448,-132,0,0,0,0,0,0,0,0,0,-1,776,1156,0,0
-441,-132,0,0,0,0,0,0,0,0,0,-1,783,1156,0,0
-434,-132,0,0,0,0,0,0,0,0,0,-1,790,1156,0,0
-427,-132,0,0,0,0,0,0,0,0,0,-1,797,1156,0,0
-420,-132,0,0,0,0,0,0,0,0,0,-1,804,1156,0,0
-413,-132,0,0,0,0,0,0,0,0,0,-1,811,1156,0,0
-406,-132,0,0,0,0,0,0,0,0,0,-1,818,1156,0,0
-399,-132,0,0,0,0,0,0,0,0,0,-1,825,1156,0,0
-392,-132,0,0,0,0,0,0,0,0,0,-1,832,1156,0,0
-385,-132,0,0,0,0,0,0,0,0,0,-1,839,1156,0,0
-378,-132,0,0,0,0,0,0,0,0,0,-1,846,1156,0,0
-371,-132,0,0,0,0,0,0,0,0,0,-1,853,1156,0,0
-364,-132,0,0,0,0,0,0,0,0,0,-1,860,1156,0,0
-357,-132,0,0,0,0,0,0,0,0,0,-1,867,1156,0,0
-350,-132,0,0,0,0,0,0,0,0,0,-1,874,1156,0,0
-343,-132,0,0,0,0,0,0,0,0,0,-1,881,1156,0,0
-336,-132,0,0,0,0,0,0,0,0,0,-1,888,1156,0,0
-329,-132,0,0,0,0,0,0,0,0,0,-1,895,1156,0,0
-322,-132,0,0,0,0,0,0,0,0,0,-1,902,1156,0,0
-315,-132,0,0,0,0,0,0,0,0,0,-1,909,1156,0,0
-308,-132,0,0,0,0,0,0,0,0,0,-1,916,1156,0,0
-301,-132,0,0,0,0,0,0,0,0,0,-1,923,1156,0,0
-294,-132,0,0,0,0,0,0,0,0,0,-1,930,1156,0,0
-287,-132,0,0,0,0,0,0,0,0,0,-1,937,1156,0,0
-280,-132,0,0,0,0,0,0,0,0,0,-1,944,1156,0,0
-273,-132,0,0,0,0,0,0,0,0,0,-1,951,1156,0,0
-266,-132,0,0,0,0,0,0,0,0,0,-1,958,1156,0,0
-259,-132,0,0,0,0,0,0,0,0,0,-1,965,1156,0,0
-252,-132,0,0,0,0,0,0,0,0,0,-1,972,1156,0,0
-245,-132,0,0,0,0,0,0,0,0,0,-1,979,1156,0,0
-238,-132,0,0,0,0,0,0,0,0,0,-1,986,1156,0,0
-231,-132,0,0,0,0,0,0,0,0,0,-1,993,1156,0,0
-224,-132,0,0,0,0,0,0,0,0,0,-1,1000,1156,0,0
-217,-132,0,0,0,0,0,0,0,0,0,-1,1007,1156,0,0
-210,-132,0,0,0,0,0,0,0,0,0,-1,1014,1156,0,0
-203,-132,0,0,0,0,0,0,0,0,0,-1,1021,1156,0,0
-196,-132,0,0,0,0,0,0,0,0,0,-1,1028,1156,0,0
-189,-132,0,0,0,0,0,0,0,0,0,-1,1035,1156,0,0
-182,-132,0,0,0,0,0,0,0,0,0,-1,1042,1156,0,0
-175,-132,0,0,0,0,0,0,0,0,0,-1,1049,1156,0,0
-168,-132,0,0,0,0,0,0,0,0,0,-1,1056,1156,0,0
-161,-132,0,0,0,0,0,0,0,0,0,-1,1063,1156,0,0
-154,-132,0,0,0,0,0,0,0,0,0,-1,1070,1156,0,0
-147,-132,0,0,0,0,0,0,0,0,0,-1,1077,1156,0,0
-140,-132,0,0,0,0,0,0,0,0,0,-1,1084,1156,0,0
-133,-132,0,0,0,0,0,0,0,0,0,-1,1091,1156,0,0
-126,-132,0,0,0,0,0,0,0,0,0,-1,1098,1156,0,0
-119,-132,0,0,0,0,0,0,0,0,0,-1,1105,1156,0,0
-112,-132,0,0,0,0,0,0,0,0,0,-1,1112,1156,0,0
-105,-132,0,0,0,0,0,0,0,0,0,-1,1119,1156,0,0
-98,-132,0,0,0,0,0,0,0,0,0,-1,1126,1156,0,0
-91,-132,0,0,0,0,0,0,0,0,0,-1,1133,1156,0,0
-84,-132,0,0,0,0,0,0,0,0,0,-1,1140,1156,0,0
-77,-132,0,0,0,0,0,0,0,0,0,-1,1147,1156,0,0
-70,-132,0,0,0,0,0,0,0,0,0,-1,1154,1156,0,0
-63,-132,0,0,0,0,0,0,0,0,0,-1,1161,1156,0,0
-56,-132,0,0,0,0,0,0,0,0,0,-1,1168,1156,0,0
-49,-132,0,0,0,0,0,0,0,0,0,-1,1175,1156,0,0
-42,-132,0,0,0,0,0,0,0,0,0,-1,1182,1156,0,0
-35,-132,0,0,0,0,0,0,0,0,0,-1,1189,1156,0,0
-28,-132,0,0,0,0,0,0,0,0,0,-1,1196,1156,0,0
-21,-132,0,0,0,0,0,0,0,0,0,-1,1203,1156,0,0
-14,-132,0,0,0,0,0,0,0,0,0,-1,1210,1156,0,0
-7,-132,0,0,0,0,0,0,0,0,0,-1,1217,1156,0,0
0,-132,0,0,0,0,0,0,0,0,0,-1,1224,1156,0,0
7,-132,0,0,0,0,0,0,0,0,0,-1,1231,1156,0,0
14,-132,0,0,0,0,0,0,0,0,0,-1,1238,1156,0,0
21,-132,0,0,0,0,0,0,0,0,0,-1,1245,1156,0,0
28,-132,0,0,0,0,0,0,0,0,0,-1,1252,1156,0,0
35,-132,0,0,0,0,0,0,0,0,0,-1,1259,1156,0,0
42,-132,0,0,0,0,0,0,0,0,0,-1,1266,1156,0,0
49,-132,0,0,0,0,0,0,0,0,0,-1,1273,1156,0,0
56,-132,0,0,0,0,0,0,0,0,0,-1,1280,1156,0,0
63,-132,0,0,0,0,0,0,0,0,0,-1,1287,1156,0,0
70,-132,0,0,0,0,0,0,0,0,0,-1,1294,1156,0,0
77,-132,0,0,0,0,0,0,0,0,0,-1,1301,1156,0,0
84,-132,0,0,0,0,0,0,0,0,0,-1,1308,1156,0,0
91,-132,0,0,0,0,0,0,0,0,0,-1,1315,1156,0,0
98,-132,0,0,0,0,0,0,0,0,0,-1,1322,1156,0,0
105,-132,0,0,0,0,0,0,0,0,0,-1,1329,1156,0,0
112,-132,0,0,0,0,0,0,0,0,0,-1,1336,1156,0,0
119,-132,0,0,0,0,0,0,0,0,0,-1,1343,1156,0,0
126,-132,0,0,0,0,0,0,0,0,0,-1,1350,1156,0,0
133,-132,0,0,0,0,0,0,0,0,0,-1,1357,1156,0,0
140,-132,0,0,0,0,0,0,0,0,0,-1,1364,1156,0,0
147,-132,0,0,0,0,0,0,0,0,0,-1,1371,1156,0,0
154,-132,0,0,0,0,0,0,0,0,0,-1,1378,1156,0,0
161,-132,0,0,0,0,0,0,0,0,0,-1,1385,1156,0,0
168,-132,0,0,0,0,0,0,0,0,0,-1,1392,1156,0,0
175,-132,0,0,0,0,0,0,0,0,0,-1,1399,1156,0,0
182,-132,0,0,0,0,0,0,0,0,0,-1,1406,1156,0,0
189,-132,0,0,0,0,0,0,0,0,0,-1,1413,1156,0,0
196,-132,0,0,0,0,0,0,0,0,0,-1,1420,1156,0,0
203,-132,0,0,0,0,0,0,0,0,0,-1,1427,1156,0,0
210,-132,0,0,0,0,0,0,0,0,0,-1,1434,1156,0,0
217,-132,0,0,0,0,0,0,0,0,0,-1,1441,1156,0,0
224,-132,0,0,0,0,0,0,0,0,0,-1,1448,1156,0,0
231,-132,0,0,0,0,0,0,0,0,0,-1,1455,1156,0,0
238,-132,0,0,0,0,0,0,0,0,0,-1,1462,1156,0,0
245,-132,0,0,0,0,0,0,0,0,0,-1,1469,1156,0,0
252,-132,0,0,0,0,0,0,0,0,0,-1,1476,1156,0,0
259,-132,0,0,0,0,0,0,0,0,0,-1,1483,1156,0,0
266,-132,0,0,0,0,0,0,0,0,0,-1,1490,1156,0,0
273,-132,0,0,0,0,0,0,0,0,0,-1,1497,1156,0,0
280,-132,0,0,0,0,0,0,0,0,0,-1,1504,1156,0,0
287,-132,0,0,0,0,0,0,0,0,0,-1,1511,1156,0,0
294,-132,0,0,0,0,0,0,0,0,0,-1,1518,1156,0,0
301,-132,0,0,0,0,0,0,0,0,0,-1,1525,1156,0,0
308,-132,0,0,0,0,0,0,0,0,0,-1,1532,1156,0,0
315,-132,0,0,0,0,0,0,0,0,0,-1,1539,1156,0,0
322,-132,0,0,0,0,0,0,0,0,0,-1,1546,1156,0,0
329,-132,0,0,0,0,0,0,0,0,0,-1,1553,1156,0,0
336,-132,0,0,0,0,0,0,0,0,0,-1,1560,1156,0,0
343,-132,0,0,0,0,0,0,0,0,0,-1,1567,1156,0,0
350,-132,0,0,0,0,0,0,0,0,0,-1,1574,1156,0,0
357,-132,0,0,0,0,0,0,0,0,0,-1,1581,1156,0,0
364,-132,0,0,0,0,0,0,0,0,0,-1,1588,1156,0,0
371,-132,0,0,0,0,0,0,0,0,0,-1,1595,1156,0,0
378,-132,0,0,0,0,0,0,0,0,0,-1,1602,1156,0,0
385,-132,0,0,0,0,0,0,0,0,0,-1,1609,1156,0,0
392,-132,0,0,0,0,0,0,0,0,0,-1,1616,1156,0,0
399,-132,0,0,0,0,0,0,0,0,0,-1,1623,1156,0,0
406,-132,0,0,0,0,0,0,0,0,0,-1,1630,1156,0,0
413,-132,0,0,0,0,0,0,0,0,0,-1,1637,1156,0,0
420,-132,0,0,0,0,0,0,0,0,0,-1,1644,1156,0,0
427,-132,0,0,0,0,0,0,0,0,0,-1,1651,1156,0,0
434,-132,0,0,0,0,0,0,0,0,0,-1,1658,1156,0,0
441,-132,0,0,0,0,0,0,0,0,0,-1,1665,1156,0,0
448,-132,0,0,0,0,0,0,0,0,0,-1,1672,1156,0,0
455,-132,0,0,0,0,0,0,0,0,0,-1,1679,1156,0,0
462,-132,0,0,0,0,0,0,0,0,0,-1,1686,1156,0,0
469,-132,0,0,0,0,0,0,0,0,0,-1,1693,1156,0,0
476,-132,0,0,0,0,0,0,0,0,0,-1,1700,1156,0,0
483,-132,0,0,0,0,0,0,0,0,0,-1,1707,1156,0,0
490,-132,0,0,0,0,0,0,0,0,0,-1,1714,1156,0,0
497,-132,0,0,0,0,0,0,0,0,0,-1,1721,1156,0,0
504,-132,0,0,0,0,0,0,0,0,0,-1,1728,1156,0,0
511,-132,0,0,0,0,0,0,0,0,0,-1,1735,1156,0,0
518,-132,0,0,0,0,0,0,0,0,0,-1,1742,1156,0,0
525,-132,0,0,0,0,0,0,0,0,0,-1,1749,1156,0,0
532,-132,0,0,0,0,0,0,0,0,0,-1,1756,1156,0,0
539,-132,0,0,0,0,0,0,0,0,0,-1,1763,1156,0,0
546,-132,0,0,0,0,0,0,0,0,0,-1,1770,1156,0,0
553,-132,0,0,0,0,0,0,0,0,0,-1,1777,1156,0,0
560,-132,0,0,0,0,0,0,0,0,0,-1,1784,1156,0,0
567,-132,0,0,0,0,0,0,0,0,0,-1,1791,1156,0,0
574,-132,0,0,0,0,0,0,0,0,0,-1,1798,1156,0,0
581,-132,0,0,0,0,0,0,0,0,0,-1,1805,1156,0,0
588,-132,0,0,0,0,0,0,0,0,0,-1,1812,1156,0,0
595,-132,0,0,0,0,0,0,0,0,0,-1,1819,1156,0,0
602,-132,0,0,0,0,0,0,0,0,0,-1,1826,1156,0,0
609,-132,0,0,0,0,0,0,0,0,0,-1,1833,1156,0,0
616,-132,0,0,0,0,0,0,0,0,0,-1,1840,1156,0,0
623,-132,0,0,0,0,0,0,0,0,0,-1,1847,1156,0,0
630,-132,0,0,0,0,0,0,0,0,0,-1,1854,1156,0,0
637,-132,0,0,0,0,0,0,0,0,0,-1,1861,1156,0,0
644,-132,21.1736,2.70581,-0.00141919,-0.00584417,0.00276038,-9.40547e-05,-0.00716931,0.447565,0.0047485,0.0418826,1868,1156,21.1735,-2.70581
651,-132,21.1106,2.74243,-0.00102299,-0.00454241,0.00229323,0.00010789,-0.00567328,0.458142,0.00381866,0.0412293,1875,1156,21.1106,-2.74244
658,-132,20.804,3.02747,-0.00037363,-0.00327233,0.00151992,0.000277207,-0.00392317,0.404581,0.00271257,0.0418926,1882,1156,20.804,-3.02747
665,-132,20.8992,3.21521,-0.000840647,-0.00248439,0.00168082,0.000208479,-0.00353352,0.558006,0.00242816,0.042013,1889,1156,20.8991,-3.2152
672,-132,21.1467,3.30945,-0.00218954,-0.00221612,0.00255512,0.000352323,-0.00475799,0.782797,0.00329572,0.0403557,1896,1156,21.1467,-3.30944
679,-132,21.167,3.01855,-0.00365496,-0.00217058,0.00351088,0.000675702,-0.00650124,0.889563,0.00457606,0.0370483,1903,1156,21.1669,-3.01853
686,-132,21.08,2.95667,-0.00507832,-0.00227296,0.00443992,0.000980579,-0.00833186,0.938399,0.00590862,0.0355361,1910,1156,21.0799,-2.95666
693,-132,21.0806,3.04016,-0.00623775,-0.00239679,0.0051474,0.00117673,-0.00981127,0.963949,0.0069663,0.0257837,1917,1156,21.0805,-3.04012
700,-132,21.1398,2.92578,-0.00710506,-0.00238009,0.00577243,0.00149459,-0.0109797,0.979634,0.0078655,0.0236589,1924,1156,21.1398,-2.92581
707,-132,20.6121,4.13904,0,0,0,0,0,0,0,-1,1931,1156,20.6121,-4.1391
714,-132,20.0745,4.51343,-0.00801983,-0.00236088,0.00637634,0.00178558,-0.0121663,0.994219,0.00876688,0.0332508,1938,1156,20.0745,-4.51344
721,-132,19.7904,4.65845,-0.00826097,-0.00230664,0.00638094,0.0017575,-0.0123251,1.00367,0.00886086,0.0239709,1945,1156,19.7904,-4.65841
728,-132,19.812,4.53394,-0.00787674,-0.0021239,0.00611883,0.00176088,-0.0117615,1.00512,0.00848907,0.0135638,1952,1156,19.8121,-4.53393
735,-132,19.8198,4.43311,-0.00694007,-0.00179917,0.00554975,0.00174651,-0.0104857,1.00227,0.0076395,0.0155391,1959,1156,19.8198,-4.43305
742,-132,19.8182,4.34192,-0.00560151,-0.00139837,0.00450938,0.00147511,-0.00847499,1.00346,0.00620047,0.0193464,1966,1156,19.8182,-4.34192
749,-132,19.8439,4.21863,-0.00412737,-0.000769359,0.00270374,0.000734285,-0.00563101,1.06326,0.00402118,0.0237936,1973,1156,19.8439,-4.21862
756,-132,19.8424,4.08813,-0.00254006,1.57702e-05,0.000584723,0.00014319,-0.00266748,1.35623,0.00182792,0.0230443,1980,1156,19.8424,-4.08813
763,-132,19.8463,4.01563,-0.000959555,0.000987315,-0.00199463,0.00223337,-0.00220561,-1.01241,0.00256286,0.0127223,1987,1156,19.8464,-4.01567
770,-132,19.8547,3.95044,0.000133907,0.00182331,-0.00459728,0.00565284,-0.00369563,-0.876254,0.00543663,0.0120441,1994,1156,19.8547,-3.95048
777,-132,19.8042,3.80945,0.000364642,0.00252456,-0.00735965,0.00888306,-0.00599386,-0.858249,0.00864302,0.0206765,2001,1156,19.8043,-3.8094
784,-132,19.7076,3.61658,0.000128654,0.00346233,-0.0109668,0.0128882,-0.00929723,-0.860816,0.0128646,0.0418172,2008,1156,19.7077,-3.61653
791,-132,19.6151,3.46851,0,0,0,0,0,0,0,-1,2015,1156,19.6151,-3.46849
798,-132,18.689,7.23401,0,0,0,0,0,0,0,-1,2022,1156,18.689,-7.23402
805,-132,17.8287,5.85474,0,0,0,0,0,0,0,-1,2029,1156,17.8288,-5.85476
812,-132,16.9998,4.42639,0,0,0,0,0,0,0,-1,2036,1156,16.9998,-4.42641
-700,-139,0,0,0,0,0,0,0,0,0,-1,524,1163,0,0
-693,-139,-7.74957,4.67273,-0.106781,-0.0152595,-0.0983821,0.0474835,-0.169524,-1.00308,0.131728,0.047726,531,1163,-7.74958,-4.67273
-686,-139,-8.67712,3.15894,-0.079738,-0.0101373,-0.0785049,0.0409349,-0.13081,-0.994028,0.103584,0.0491817,538,1163,-8.67711,-3.15894
-679,-139,-9.53912,2.40796,-0.0589319,-0.00653891,-0.0622598,0.0348111,-0.100282,-0.984536,0.0809917,0.0486738,545,1163,-9.53912,-2.40797
-672,-139,-9.70691,2.23462,0,0,0,0,0,0,0,-1,552,1163,-9.70689,-2.23461
-665,-139,-12.6559,0.952881,-0.0302349,-0.00225785,-0.0376832,0.0239495,-0.0564422,-0.963122,0.0476611,0.043976,559,1163,-12.656,-0.952832
-658,-139,-12.6102,1.21826,0,0,0,0,0,0,0,-1,566,1163,-12.6102,-1.21825
-651,-139,-12.3345,1.29883,-0.0135077,-0.000406336,-0.0210725,0.0151102,-0.0290242,-0.936095,0.0258996,0.0399577,573,1163,-12.3345,-1.29877
-644,-139,-12.0735,1.33826,-0.00834472,-3.2759e-05,-0.0151542,0.011525,-0.0199025,-0.919231,0.0183583,0.0218199,580,1163,-12.0735,-1.33831
-637,-139,-12.0534,1.47742,-0.00420398,0.000146345,-0.0101436,0.00834538,-0.012403,-0.891017,0.0120552,0.0119296,587,1163,-12.0534,-1.47738
-630,-139,-12.0587,1.60779,-0.00165867,0.000431828,-0.0066901,0.00615784,-0.00738468,-0.862891,0.00782946,0.0106235,594,1163,-12.0587,-1.6078
-623,-139,-12.0881,1.73804,-0.00163644,-3.77069e-05,-0.00509203,0.00431732,-0.00599146,-0.863255,0.00597788,0.0164156,601,1163,-12.0881,-1.73809
-616,-139,-12.1317,1.8634,-0.00350796,-0.000360933,-0.00513375,0.00343504,-0.00730393,-0.934105,0.00633285,0.0169598,608,1163,-12.1317,-1.8634
-609,-139,-12.0966,1.9989,-0.0056623,-0.0011003,-0.00625151,0.00327335,-0.0100359,-0.960329,0.00800794,0.0207136,615,1163,-12.0966,-1.99884
-602,-139,-12.1567,2.13318,-0.0077563,-0.00142621,-0.00734161,0.00340354,-0.012586,-0.988915,0.00972579,0.0141025,622,1163,-12.1566,-2.13318
-595,-139,-12.1609,2.27759,-0.00950505,-0.00130849,-0.00834459,0.0038899,-0.0147034,-1.01366,0.0113239,0.0130631,629,1163,-12.161,-2.27759
-588,-139,-12.0753,2.4502,-0.0106095,-0.00126368,-0.00907116,0.00426744,-0.0161406,-1.02324,0.0124295,0.0159526,636,1163,-12.0753,-2.45014
-581,-139,-12.1719,2.51794,-0.0111905,-0.00117358,-0.00968774,0.00472379,-0.0170878,-1.02397,0.0132502,0.0395325,643,1163,-12.1719,-2.51796
-574,-139,-12.8502,1.86194,-0.011381,-0.00088696,-0.0100468,0.00520043,-0.0174684,-1.02605,0.0137118,0.0497405,650,1163,-12.8502,-1.86188
-567,-139,-13.6516,1.24438,0,0,0,0,0,0,0,-1,657,1163,-13.6516,-1.24444
-560,-139,-13.4769,1.02832,-0.0104131,-0.000123529,-0.00954663,0.00557636,-0.016113,-1.03254,0.0130056,0.0352069,664,1163,-13.477,-1.02827
-553,-139,-13.4247,0.974854,-0.00893944,0.000478634,-0.00844862,0.00544194,-0.0139027,-1.03964,0.0115192,0.0390222,671,1163,-13.4247,-0.974844
-546,-139,-13.5381,1.12646,-0.00662717,0.00121082,-0.00666688,0.00502524,-0.0104416,-1.05111,0.00911047,0.0393673,678,1163,-13.5382,-1.12645
-539,-139,-13.3586,0.916504,-0.00336561,0.00206986,-0.00410854,0.0042782,-0.00557395,-1.0776,0.00570452,0.0386451,685,1163,-13.3587,-0.916554
-532,-139,-13.4099,0.99707,0.000791545,0.00297763,-0.000874537,0.00328443,0.000484747,-1.2334,0.00204726,0.0372629,692,1163,-13.4098,-0.997024
-525,-139,-13.487,1.08716,0.00275469,0.00323397,0.000475501,0.0035268,0.00246185,1.01881,0.00208876,0.0373233,699,1163,-13.487,-1.08716
-518,-139,0,0,0,0,0,0,0,0,0,-1,706,1163,0,0
-511,-139,0,0,0,0,0,0,0,0,0,-1,713,1163,0,0
-504,-139,0,0,0,0,0,0,0,0,0,-1,720,1163,0,0
-497,-139,0,0,0,0,0,0,0,0,0,-1,727,1163,0,0
-490,-139,0,0,0,0,0,0,0,0,0,-1,734,1163,0,0
-483,-139,0,0,0,0,0,0,0,0,0,-1,741,1163,0,0
-476,-139,0,0,0,0,0,0,0,0,0,-1,748,1163,0,0
-469,-139,0,0,0,0,0,0,0,0,0,-1,755,1163,0,0
-462,-139,0,0,0,0,0,0,0,0,0,-1,762,1163,0,0
-455,-139,0,0,0,0,0,0,0,0,0,-1,769,1163,0,0
-448,-139,0,0,0,0,0,0,0,0,0,-1,776,1163,0,0
-441,-139,0,0,0,0,0,0,0,0,0,-1,783,1163,0,0
-434,-139,0,0,0,0,0,0,0,0,0,-1,790,1163,0,0
-427,-139,0,0,0,0,0,0,0,0,0,-1,797,1163,0,0
-420,-139,0,0,0,0,0,0,0,0,0,-1,804,1163,0,0
-413,-139,0,0,0,0,0,0,0,0,0,-1,811,1163,0,0
-406,-139,0,0,0,0,0,0,0,0,0,-1,818,1163,0,0
-399,-139,0,0,0,0,0,0,0,0,0,-1,825,1163,0,0
-392,-139,0,0,0,0,0,0,0,0,0,-1,832,1163,0,0
-385,-139,0,0,0,0,0,0,0,0,0,-1,839,1163,0,0
-378,-139,0,0,0,0,0,0,0,0,0,-1,846,1163,0,0
-371,-139,0,0,0,0,0,0,0,0,0,-1,853,1163,0,0
-364,-139,0,0,0,0,0,0,0,0,0,-1,860,1163,0,0
-357,-139,0,0,0,0,0,0,0,0,0,-1,867,1163,0,0
-350,-139,0,0,0,0,0,0,0,0,0,-1,874,1163,0,0
-343,-139,0,0,0,0,0,0,0,0,0,-1,881,1163,0,0
-336,-139,0,0,0,0,0,0,0,0,0,-1,888,1163,0,0
-329,-139,0,0,0,0,0,0,0,0,0,-1,895,1163,0,0
-322,-139,0,0,0,0,0,0,0,0,0,-1,902,1163,0,0
-315,-139,0,0,0,0,0,0,0,0,0,-1,909,1163,0,0
-308,-139,0,0,0,0,0,0,0,0,0,-1,916,1163,0,0
-301,-139,0,0,0,0,0,0,0,0,0,-1,923,1163,0,0
-294,-139,0,0,0,0,0,0,0,0,0,-1,930,1163,0,0
-287,-139,0,0,0,0,0,0,0,0,0,-1,937,1163,0,0
-280,-139,0,0,0,0,0,0,0,0,0,-1,944,1163,0,0
-273,-139,0,0,0,0,0,0,0,0,0,-1,951,1163,0,0
-266,-139,0,0,0,0,0,0,0,0,0,-1,958,1163,0,0
-259,-139,0,0,0,0,0,0,0,0,0,-1,965,1163,0,0
-252,-139,0,0,0,0,0,0,0,0,0,-1,972,1163,0,0
-245,-139,0,0,0,0,0,0,0,0,0,-1,979,1163,0,0
-238,-139,0,0,0,0,0,0,0,0,0,-1,986,1163,0,0
-231,-139,0,0,0,0,0,0,0,0,0,-1,993,1163,0,0
-224,-139,0,0,0,0,0,0,0,0,0,-1,1000,1163,0,0
-217,-139,0,0,0,0,0,0,0,0,0,-1,1007,1163,0,0
-210,-139,0,0,0,0,0,0,0,0,0,-1,1014,1163,0,0
-203,-139,0,0,0,0,0,0,0,0,0,-1,1021,1163,0,0
-196,-139,0,0,0,0,0,0,0,0,0,-1,1028,1163,0,0
-189,-139,0,0,0,0,0,0,0,0,0,-1,1035,1163,0,0
-182,-139,0,0,0,0,0,0,0,0,0,-1,1042,1163,0,0
-175,-139,0,0,0,0,0,0,0,0,0,-1,1049,1163,0,0
-168,-139,0,0,0,0,0,0,0,0,0,-1,1056,1163,0,0
-161,-139,0,0,0,0,0,0,0,0,0,-1,1063,1163,0,0
-154,-139,0,0,0,0,0,0,0,0,0,-1,1070,1163,0,0
-147,-139,0,0,0,0,0,0,0,0,0,-1,1077,1163,0,0
-140,-139,0,0,0,0,0,0,0,0,0,-1,1084,1163,0,0
-133,-139,0,0,0,0,0,0,0,0,0,-1,1091,1163,0,0
-126,-139,0,0,0,0,0,0,0,0,0,-1,1098,1163,0,0
-119,-139,0,0,0,0,0,0,0,0,0,-1,1105,1163,0,0
-112,-139,0,0,0,0,0,0,0,0,0,-1,1112,1163,0,0
-105,-139,0,0,0,0,0,0,0,0,0,-1,1119,1163,0,0
-98,-139,0,0,0,0,0,0,0,0,0,-1,1126,1163,0,0
-91,-139,0,0,0,0,0,0,0,0,0,-1,1133,1163,0,0
-84,-139,0,0,0,0,0,0,0,0,0,-1,1140,1163,0,0
-77,-139,0,0,0,0,0,0,0,0,0,-1,1147,1163,0,0
-70,-139,0,0,0,0,0,0,0,0,0,-1,1154,1163,0,0
-63,-139,0,0,0,0,0,0,0,0,0,-1,1161,1163,0,0
-56,-139,0,0,0,0,0,0,0,0,0,-1,1168,1163,0,0
-49,-139,0,0,0,0,0,0,0,0,0,-1,1175,1163,0,0
-42,-139,0,0,0,0,0,0,0,0,0,-1,1182,1163,0,0
-35,-139,0,0,0,0,0,0,0,0,0,-1,1189,1163,0,0
-28,-139,0,0,0,0,0,0,0,0,0,-1,1196,1163,0,0
-21,-139,0,0,0,0,0,0,0,0,0,-1,1203,1163,0,0
-14,-139,0,0,0,0,0,0,0,0,0,-1,1210,1163,0,0
-7,-139,0,0,0,0,0,0,0,0,0,-1,1217,1163,0,0
0,-139,0,0,0,0,0,0,0,0,0,-1,1224,1163,0,0
7,-139,0,0,0,0,0,0,0,0,0,-1,1231,1163,0,0
14,-139,0,0,0,0,0,0,0,0,0,-1,1238,1163,0,0
21,-139,0,0,0,0,0,0,0,0,0,-1,1245,1163,0,0
28,-139,0,0,0,0,0,0,0,0,0,-1,1252,1163,0,0
35,-139,0,0,0,0,0,0,0,0,0,-1,1259,1163,0,0
42,-139,0,0,0,0,0,0,0,0,0,-1,1266,1163,0,0
49,-139,0,0,0,0,0,0,0,0,0,-1,1273,1163,0,0
56,-139,0,0,0,0,0,0,0,0,0,-1,1280,1163,0,0
63,-139,0,0,0,0,0,0,0,0,0,-1,1287,1163,0,0
70,-139,0,0,0,0,0,0,0,0,0,-1,1294,1163,0,0
77,-139,0,0,0,0,0,0,0,0,0,-1,1301,1163,0,0
84,-139,0,0,0,0,0,0,0,0,0,-1,1308,1163,0,0
91,-139,0,0,0,0,0,0,0,0,0,-1,1315,1163,0,0
98,-139,0,0,0,0,0,0,0,0,0,-1,1322,1163,0,0
105,-139,0,0,0,0,0,0,0,0,0,-1,1329,1163,0,0
112,-139,0,0,0,0,0,0,0,0,0,-1,1336,1163,0,0
119,-139,0,0,0,0,0,0,0,0,0,-1,1343,1163,0,0
126,-139,0,0,0,0,0,0,0,0,0,-1,1350,1163,0,0
133,-139,0,0,0,0,0,0,0,0,0,-1,1357,1163,0,0
140,-139,0,0,0,0,0,0,0,0,0,-1,1364,1163,0,0
147,-139,0,0,0,0,0,0,0,0,0,-1,1371,1163,0,0
154,-139,0,0,0,0,0,0,0,0,0,-1,1378,1163,0,0
161,-139,0,0,0,0,0,0,0,0,0,-1,1385,1163,0,0
168,-139,0,0,0,0,0,0,0,0,0,-1,1392,1163,0,0
175,-139,0,0,0,0,0,0,0,0,0,-1,1399,1163,0,0
182,-139,0,0,0,0,0,0,0,0,0,-1,1406,1163,0,0
189,-139,0,0,0,0,0,0,0,0,0,-1,1413,1163,0,0
196,-139,0,0,0,0,0,0,0,0,0,-1,1420,1163,0,0
203,-139,0,0,0,0,0,0,0,0,0,-1,1427,1163,0,0
210,-139,0,0,0,0,0,0,0,0,0,-1,1434,1163,0,0
217,-139,0,0,0,0,0,0,0,0,0,-1,1441,1163,0,0
224,-139,0,0,0,0,0,0,0,0,0,-1,1448,1163,0,0
231,-139,0,0,0,0,0,0,0,0,0,-1,1455,1163,0,0
238,-139,0,0,0,0,0,0,0,0,0,-1,1462,1163,0,0
245,-139,0,0,0,0,0,0,0,0,0,-1,1469,1163,0,0
252,-139,0,0,0,0,0,0,0,0,0,-1,1476,1163,0,0
259,-139,0,0,0,0,0,0,0,0,0,-1,1483,1163,0,0
266,-139,0,0,0,0,0,0,0,0,0,-1,1490,1163,0,0
273,-139,0,0,0,0,0,0,0,0,0,-1,1497,1163,0,0
280,-139,0,0,0,0,0,0,0,0,0,-1,1504,1163,0,0
287,-139,0,0,0,0,0,0,0,0,0,-1,1511,1163,0,0
294,-139,0,0,0,0,0,0,0,0,0,-1,1518,1163,0,0
301,-139,0,0,0,0,0,0,0,0,0,-1,1525,1163,0,0
308,-139,0,0,0,0,0,0,0,0,0,-1,1532,1163,0,0
315,-139,0,0,0,0,0,0,0,0,0,-1,1539,1163,0,0
322,-139,0,0,0,0,0,0,0,0,0,-1,1546,1163,0,0
329,-139,0,0,0,0,0,0,0,0,0,-1,1553,1163,0,0
336,-139,0,0,0,0,0,0,0,0,0,-1,1560,1163,0,0
343,-139,0,0,0,0,0,0,0,0,0,-1,1567,1163,0,0
350,-139,0,0,0,0,0,0,0,0,0,-1,1574,1163,0,0
357,-139,0,0,0,0,0,0,0,0,0,-1,1581,1163,0,0
364,-139,0,0,0,0,0,0,0,0,0,-1,1588,1163,0,0
371,-139,0,0,0,0,0,0,0,0,0,-1,1595,1163,0,0
378,-139,0,0,0,0,0,0,0,0,0,-1,1602,1163,0,0
385,-139,0,0,0,0,0,0,0,0,0,-1,1609,1163,0,0
392,-139,0,0,0,0,0,0,0,0,0,-1,1616,1163,0,0
399,-139,0,0,0,0,0,0,0,0,0,-1,1623,1163,0,0
406,-139,0,0,0,0,0,0,0,0,0,-1,1630,1163,0,0
413,-139,0,0,0,0,0,0,0,0,0,-1,1637,1163,0,0
420,-139,0,0,0,0,0,0,0,0,0,-1,1644,1163,0,0
427,-139,0,0,0,0,0,0,0,0,0,-1,1651,1163,0,0
434,-139,0,0,0,0,0,0,0,0,0,-1,1658,1163,0,0
441,-139,0,0,0,0,0,0,0,0,0,-1,1665,1163,0,0
448,-139,0,0,0,0,0,0,0,0,0,-1,1672,1163,0,0
455,-139,0,0,0,0,0,0,0,0,0,-1,1679,1163,0,0
462,-139,0,0,0,0,0,0,0,0,0,-1,1686,1163,0,0
469,-139,0,0,0,0,0,0,0,0,0,-1,1693,1163,0,0
476,-139,0,0,0,0,0,0,0,0,0,-1,1700,1163,0,0
483,-139,0,0,0,0,0,0,0,0,0,-1,1707,1163,0,0
490,-139,0,0,0,0,0,0,0,0,0,-1,1714,1163,0,0
497,-139,0,0,0,0,0,0,0,0,0,-1,1721,1163,0,0
504,-139,0,0,0,0,0,0,0,0,0,-1,1728,1163,0,0
511,-139,0,0,0,0,0,0,0,0,0,-1,1735,1163,0,0
518,-139,0,0,0,0,0,0,0,0,0,-1,1742,1163,0,0
525,-139,0,0,0,0,0,0,0,0,0,-1,1749,1163,0,0
532,-139,0,0,0,0,0,0,0,0,0,-1,1756,1163,0,0
539,-139,0,0,0,0,0,0,0,0,0,-1,1763,1163,0,0
546,-139,0,0,0,0,0,0,0,0,0,-1,1770,1163,0,0
553,-139,0,0,0,0,0,0,0,0,0,-1,1777,1163,0,0
560,-139,0,0,0,0,0,0,0,0,0,-1,1784,1163,0,0
567,-139,0,0,0,0,0,0,0,0,0,-1,1791,1163,0,0
574,-139,0,0,0,0,0,0,0,0,0,-1,1798,1163,0,0
581,-139,0,0,0,0,0,0,0,0,0,-1,1805,1163,0,0
588,-139,0,0,0,0,0,0,0,0,0,-1,1812,1163,0,0
595,-139,0,0,0,0,0,0,0,0,0,-1,1819,1163,0,0
602,-139,0,0,0,0,0,0,0,0,0,-1,1826,1163,0,0
609,-139,0,0,0,0,0,0,0,0,0,-1,1833,1163,0,0
616,-139,0,0,0,0,0,0,0,0,0,-1,1840,1163,0,0
623,-139,0,0,0,0,0,0,0,0,0,-1,1847,1163,0,0
630,-139,0,0,0,0,0,0,0,0,0,-1,1854,1163,0,0
637,-139,0,0,0,0,0,0,0,0,0,-1,1861,1163,0,0
644,-139,21.1321,2.83093,-0.00201806,-0.0050123,0.00248564,-0.000613498,-0.00641686,0.514341,0.00408878,0.0419478,1868,1163,21.132,-2.8309
651,-139,21.0195,2.83911,-0.00134566,-0.00400171,0.00203261,-0.000245692,-0.00510168,0.496031,0.00332225,0.0390399,1875,1163,21.0195,-2.83914
658,-139,21.0239,2.99658,-0.000608553,-0.00299569,0.00138734,2.79911e-05,-0.00363224,0.430167,0.00243088,0.0403758,1882,1163,21.0239,-2.99659
665,-139,21.1326,3.09912,-0.001011,-0.00241355,0.00160865,4.25858e-05,-0.00346714,0.579849,0.00232575,0.037742,1889,1163,21.1325,-3.0991
672,-139,21.2037,3.11475,-0.00217306,-0.00220739,0.0023438,0.000153636,-0.00453408,0.781737,0.00307521,0.0356915,1896,1163,21.2037,-3.1148
679,-139,21.2301,3.03552,-0.00346372,-0.00217458,0.00313938,0.000385723,-0.00602402,0.88665,0.00415057,0.0325546,1903,1163,21.2301,-3.03556
686,-139,21.1296,3.0238,-0.00471793,-0.00225887,0.00391794,0.000617937,-0.00759474,0.937442,0.0052812,0.0298496,1910,1163,21.1296,-3.02379
693,-139,21.125,3.00891,-0.00574004,-0.00234,0.00448799,0.000759157,-0.0088392,0.966444,0.00616146,0.0191873,1917,1163,21.125,-3.0089
700,-139,21.045,3.22998,0,0,0,0,0,0,0,-1,1924,1163,21.0451,-3.22993
707,-139,20.3835,3.96179,-0.00692195,-0.00231347,0.00527491,0.00113852,-0.0103739,0.991322,0.00732502,0.0280416,1931,1163,20.3836,-3.96173
714,-139,19.7705,4.76135,-0.00736637,-0.00213984,0.00546249,0.0013023,-0.0108085,1.00851,0.00767668,0.027707,1938,1163,19.7705,-4.76138
721,-139,19.7113,4.61707,-0.00763954,-0.00206877,0.00548342,0.00129615,-0.0110045,1.0204,0.00780431,0.0209426,1945,1163,19.7114,-4.61704
728,-139,19.689,4.51624,-0.00728482,-0.00187247,0.00526757,0.0013434,-0.0105007,1.02269,0.00748854,0.0207408,1952,1163,19.689,-4.51619
735,-139,19.7047,4.44556,-0.00638806,-0.00153966,0.00477434,0.00139067,-0.00931839,1.02031,0.00672393,0.0168597,1959,1163,19.7047,-4.44556
742,-139,19.7433,4.29578,-0.00511877,-0.00113353,0.0038506,0.00120947,-0.00746178,1.02417,0.00542282,0.0217035,1966,1163,19.7433,-4.29583
749,-139,19.7511,4.19897,-0.00383271,-0.000534377,0.00208915,0.000478094,-0.00484518,1.11952,0.0034007,0.0187453,1973,1163,19.7511,-4.19901
756,-139,19.7225,4.10095,-0.00256966,0.000267264,4.85112e-05,0.000268093,-0.00257049,1.5537,0.00180966,0.0113274,1980,1163,19.7226,-4.10093
763,-139,19.708,4.0011,-0.00133796,0.00123347,-0.00246576,0.00272859,-0.00283308,-1.02572,0.00321123,0.0107733,1987,1163,19.708,-4.00109
770,-139,19.7064,3.90393,-0.000755524,0.00206543,-0.00508082,0.00592792,-0.00461801,-0.920793,0.00610433,0.0112846,1994,1163,19.7064,-3.90395
777,-139,19.6914,3.80298,-0.00110026,0.00287137,-0.0081003,0.00922572,-0.00745461,-0.905604,0.00964847,0.0211228,2001,1163,19.6914,-3.80302
784,-139,19.6688,3.70898,-0.00211024,0.00399526,-0.0121597,0.0134795,-0.0115945,-0.908384,0.0144901,0.0402471,2008,1163,19.6688,-3.709
791,-139,19.6526,3.67639,0,0,0,0,0,0,0,-1,2015,1163,19.6526,-3.67641
798,-139,19.6267,3.65344,0,0,0,0,0,0,0,-1,2022,1163,19.6267,-3.65338
805,-139,19.2615,3.87329,0,0,0,0,0,0,0,-1,2029,1163,19.2616,-3.8733
812,-139,0,0,0,0,0,0,0,0,0,-1,2036,1163,0,0
-700,-146,0,0,0,0,0,0,0,0,0,-1,524,1170,0,0
-693,-146,-6.58203,4.50183,-0.105543,-0.00972233,-0.109059,0.0614864,-0.176752,-0.992361,0.142813,0.0450105,531,1170,-6.58201,-4.50185
-686,-146,-8.26971,2.16162,-0.0789911,-0.00575676,-0.0871808,0.0521846,-0.136932,-0.984218,0.112782,0.0482894,538,1170,-8.2697,-2.16168
-679,-146,-8.58801,2.26379,-0.0586406,-0.00320748,-0.0694681,0.0438691,-0.105717,-0.975213,0.0887903,0.0493842,545,1170,-8.58798,-2.26373
-672,-146,-8.70367,2.08789,0,0,0,0,0,0,0,-1,552,1170,-8.70367,-2.08791
-665,-146,-12.1914,1.3457,0,0,0,0,0,0,0,-1,559,1170,-12.1914,-1.34571
-658,-146,-12.2342,1.32593,0,0,0,0,0,0,0,-1,566,1170,-12.2342,-1.32589
-651,-146,-12.0715,1.28516,-0.013853,0.000197643,-0.0243153,0.0184822,-0.0321376,-0.926031,0.0295777,0.037475,573,1170,-12.0715,-1.28518
-644,-146,-11.9083,1.26501,-0.0086729,0.000243343,-0.0176758,0.0140146,-0.0224441,-0.90893,0.0212361,0.0195375,580,1170,-11.9083,-1.26508
-637,-146,-11.9111,1.45544,-0.00451776,0.000167989,-0.0119037,0.00995722,-0.014307,-0.882565,0.0140838,0.0101797,587,1170,-11.9111,-1.45544
-630,-146,-11.9218,1.61096,-0.00185954,0.000463576,-0.00777997,0.00716822,-0.00856418,-0.859501,0.00909502,0.0101225,594,1170,-11.9218,-1.61098
-623,-146,-11.9421,1.73596,-0.00174142,-0.00013,-0.00573697,0.00485756,-0.00672898,-0.855163,0.00671851,0.0126414,601,1170,-11.9421,-1.73592
-616,-146,-12.0071,1.90015,-0.00348916,-0.000446112,-0.00553238,0.00377015,-0.00770543,-0.919591,0.00675404,0.0176062,608,1170,-12.0071,-1.90016
-609,-146,-11.9404,2.05701,-0.00567319,-0.000916623,-0.00656549,0.00368806,-0.0102779,-0.959167,0.00835709,0.0168765,615,1170,-11.9404,-2.05697
-602,-146,-12.0152,2.23706,-0.00785686,-0.00122295,-0.00756812,0.00372318,-0.012803,-0.991931,0.0100099,0.0223948,622,1170,-12.0152,-2.23705
-595,-146,-12.058,2.29248,-0.00967535,-0.000983363,-0.00859981,0.00430622,-0.0149649,-1.01936,0.0116797,0.0133884,629,1170,-12.058,-2.29247
-588,-146,-11.9669,2.45837,-0.0108661,-0.000878412,-0.00936103,0.00473753,-0.016482,-1.03043,0.0128614,0.0150613,636,1170,-11.9668,-2.45841
-581,-146,-11.8649,2.66162,-0.0115116,-0.000738992,-0.0100615,0.00528726,-0.0175379,-1.03116,0.0137963,0.0296121,643,1170,-11.865,-2.66158
-574,-146,-12.706,1.82739,-0.0117009,-0.000418043,-0.0105297,0.00588624,-0.0180052,-1.03132,0.0143731,0.0474214,650,1170,-12.706,-1.82735
-567,-146,-13.6403,1.21338,0,0,0,0,0,0,0,-1,657,1170,-13.6403,-1.21342
-560,-146,-13.5251,1.16528,-0.0108061,0.000227237,-0.0101629,0.00627427,-0.0168531,-1.03406,0.0138104,0.0382472,664,1170,-13.5251,-1.16534
-553,-146,-13.4429,1.03467,-0.00936449,0.000739288,-0.0091169,0.00611042,-0.0147356,-1.0384,0.0123741,0.0378159,671,1170,-13.4429,-1.03463
-546,-146,-13.3599,0.97168,-0.00702416,0.00134057,-0.00732841,0.00559608,-0.0112797,-1.0447,0.00992571,0.0390732,678,1170,-13.3599,-0.971664
-539,-146,-13.4791,1.00256,-0.00367048,0.00201234,-0.00468606,0.00465115,-0.00630929,-1.05794,0.0063521,0.0400704,685,1170,-13.479,-1.00253
-532,-146,-13.5441,1.03027,0.000831685,0.00268875,-0.00112863,0.00322172,0.000298716,-1.12961,0.00205549,0.0392446,692,1170,-13.544,-1.03022
-525,-146,-13.5521,1.15759,0.00392624,0.00272567,0.00119709,0.00466512,0.00198679,0.552993,0.00270325,0.0396692,699,1170,-13.5521,-1.15753
-518,-146,0,0,0,0,0,0,0,0,0,-1,706,1170,0,0
-511,-146,0,0,0,0,0,0,0,0,0,-1,713,1170,0,0
-504,-146,0,0,0,0,0,0,0,0,0,-1,720,1170,0,0
-497,-146,0,0,0,0,0,0,0,0,0,-1,727,1170,0,0
-490,-146,0,0,0,0,0,0,0,0,0,-1,734,1170,0,0
-483,-146,0,0,0,0,0,0,0,0,0,-1,741,1170,0,0
-476,-146,0,0,0,0,0,0,0,0,0,-1,748,1170,0,0
-469,-146,0,0,0,0,0,0,0,0,0,-1,755,1170,0,0
-462,-146,0,0,0,0,0,0,0,0,0,-1,762,1170,0,0
-455,-146,0,0,0,0,0,0,0,0,0,-1,769,1170,0,0
-448,-146,0,0,0,0,0,0,0,0,0,-1,776,1170,0,0
-441,-146,0,0,0,0,0,0,0,0,0,-1,783,1170,0,0
-434,-146,0,0,0,0,0,0,0,0,0,-1,790,1170,0,0
-427,-146,0,0,0,0,0,0,0,0,0,-1,797,1170,0,0
-420,-146,0,0,0,0,0,0,0,0,0,-1,804,1170,0,0
-413,-146,0,0,0,0,0,0,0,0,0,-1,811,1170,0,0
-406,-146,0,0,0,0,0,0,0,0,0,-1,818,1170,0,0
-399,-146,0,0,0,0,0,0,0,0,0,-1,825,1170,0,0
-392,-146,0,0,0,0,0,0,0,0,0,-1,832,1170,0,0
-385,-146,0,0,0,0,0,0,0,0,0,-1,839,1170,0,0
-378,-146,0,0,0,0,0,0,0,0,0,-1,846,1170,0,0
-371,-146,0,0,0,0,0,0,0,0,0,-1,853,1170,0,0
-364,-146,0,0,0,0,0,0,0,0,0,-1,860,1170,0,0
-357,-146,0,0,0,0,0,0,0,0,0,-1,867,1170,0,0
-350,-146,0,0,0,0,0,0,0,0,0,-1,874,1170,0,0
-343,-146,0,0,0,0,0,0,0,0,0,-1,881,1170,0,0
-336,-146,0,0,0,0,0,0,0,0,0,-1,888,1170,0,0
-329,-146,0,0,0,0,0,0,0,0,0,-1,895,1170,0,0
-322,-146,0,0,0,0,0,0,0,0,0,-1,902,1170,0,0
-315,-146,0,0,0,0,0,0,0,0,0,-1,909,1170,0,0
-308,-146,0,0,0,0,0,0,0,0,0,-1,916,1170,0,0
-301,-146,0,0,0,0,0,0,0,0,0,-1,923,1170,0,0
-294,-146,0,0,0,0,0,0,0,0,0,-1,930,1170,0,0
-287,-146,0,0,0,0,0,0,0,0,0,-1,937,1170,0,0
-280,-146,0,0,0,0,0,0,0,0,0,-1,944,1170,0,0
-273,-146,0,0,0,0,0,0,0,0,0,-1,951,1170,0,0
-266,-146,0,0,0,0,0,0,0,0,0,-1,958,1170,0,0
-259,-146,0,0,0,0,0,0,0,0,0,-1,965,1170,0,0
-252,-146,0,0,0,0,0,0,0,0,0,-1,972,1170,0,0
-245,-146,0,0,0,0,0,0,0,0,0,-1,979,1170,0,0
-238,-146,0,0,0,0,0,0,0,0,0,-1,986,1170,0,0
-231,-146,0,0,0,0,0,0,0,0,0,-1,993,1170,0,0
-224,-146,0,0,0,0,0,0,0,0,0,-1,1000,1170,0,0
-217,-146,0,0,0,0,0,0,0,0,0,-1,1007,1170,0,0
-210,-146,0,0,0,0,0,0,0,0,0,-1,1014,1170,0,0
-203,-146,0,0,0,0,0,0,0,0,0,-1,1021,1170,0,0
-196,-146,0,0,0,0,0,0,0,0,0,-1,1028,1170,0,0
-189,-146,0,0,0,0,0,0,0,0,0,-1,1035,1170,0,0
-182,-146,0,0,0,0,0,0,0,0,0,-1,1042,1170,0,0
-175,-146,0,0,0,0,0,0,0,0,0,-1,1049,1170,0,0
-168,-146,0,0,0,0,0,0,0,0,0,-1,1056,1170,0,0
-161,-146,0,0,0,0,0,0,0,0,0,-1,1063,1170,0,0
-154,-146,0,0,0,0,0,0,0,0,0,-1,1070,1170,0,0
-147,-146,0,0,0,0,0,0,0,0,0,-1,1077,1170,0,0
-140,-146,0,0,0,0,0,0,0,0,0,-1,1084,1170,0,0
-133,-146,0,0,0,0,0,0,0,0,0,-1,1091,1170,0,0
-126,-146,0,0,0,0,0,0,0,0,0,-1,1098,1170,0,0
-119,-146,0,0,0,0,0,0,0,0,0,-1,1105,1170,0,0
-112,-146,0,0,0,0,0,0,0,0,0,-1,1112,1170,0,0
-105,-146,0,0,0,0,0,0,0,0,0,-1,1119,1170,0,0
-98,-146,0,0,0,0,0,0,0,0,0,-1,1126,1170,0,0
-91,-146,0,0,0,0,0,0,0,0,0,-1,1133,1170,0,0
-84,-146,0,0,0,0,0,0,0,0,0,-1,1140,1170,0,0
-77,-146,0,0,0,0,0,0,0,0,0,-1,1147,1170,0,0
-70,-146,0,0,0,0,0,0,0,0,0,-1,1154,1170,0,0
-63,-146,0,0,0,0,0,0,0,0,0,-1,1161,1170,0,0
-56,-146,0,0,0,0,0,0,0,0,0,-1,1168,1170,0,0
-49,-146,0,0,0,0,0,0,0,0,0,-1,1175,1170,0,0
-42,-146,0,0,0,0,0,0,0,0,0,-1,1182,1170,0,0
-35,-146,0,0,0,0,0,0,0,0,0,-1,1189,1170,0,0
-28,-146,0,0,0,0,0,0,0,0,0,-1,1196,1170,0,0
-21,-146,0,0,0,0,0,0,0,0,0,-1,1203,1170,0,0
-14,-146,0,0,0,0,0,0,0,0,0,-1,1210,1170,0,0
-7,-146,0,0,0,0,0,0,0,0,0,-1,1217,1170,0,0
0,-146,0,0,0,0,0,0,0,0,0,-1,1224,1170,0,0
7,-146,0,0,0,0,0,0,0,0,0,-1,1231,1170,0,0
14,-146,0,0,0,0,0,0,0,0,0,-1,1238,1170,0,0
21,-146,0,0,0,0,0,0,0,0,0,-1,1245,1170,0,0
28,-146,0,0,0,0,0,0,0,0,0,-1,1252,1170,0,0
35,-146,0,0,0,0,0,0,0,0,0,-1,1259,1170,0,0
42,-146,0,0,0,0,0,0,0,0,0,-1,1266,1170,0,0
49,-146,0,0,0,0,0,0,0,0,0,-1,1273,1170,0,0
56,-146,0,0,0,0,0,0,0,0,0,-1,1280,1170,0,0
63,-146,0,0,0,0,0,0,0,0,0,-1,1287,1170,0,0
70,-146,0,0,0,0,0,0,0,0,0,-1,1294,1170,0,0
77,-146,0,0,0,0,0,0,0,0,0,-1,1301,1170,0,0
84,-146,0,0,0,0,0,0,0,0,0,-1,1308,1170,0,0
91,-146,0,0,0,0,0,0,0,0,0,-1,1315,1170,0,0
98,-146,0,0,0,0,0,0,0,0,0,-1,1322,1170,0,0
105,-146,0,0,0,0,0,0,0,0,0,-1,1329,1170,0,0
112,-146,0,0,0,0,0,0,0,0,0,-1,1336,1170,0,0
119,-146,0,0,0,0,0,0,0,0,0,-1,1343,1170,0,0
126,-146,0,0,0,0,0,0,0,0,0,-1,1350,1170,0,0
133,-146,0,0,0,0,0,0,0,0,0,-1,1357,1170,0,0
140,-146,0,0,0,0,0,0,0,0,0,-1,1364,1170,0,0
147,-146,0,0,0,0,0,0,0,0,0,-1,1371,1170,0,0
154,-146,0,0,0,0,0,0,0,0,0,-1,1378,1170,0,0
161,-146,0,0,0,0,0,0,0,0,0,-1,1385,1170,0,0
168,-146,0,0,0,0,0,0,0,0,0,-1,1392,1170,0,0
175,-146,0,0,0,0,0,0,0,0,0,-1,1399,1170,0,0
182,-146,0,0,0,0,0,0,0,0,0,-1,1406,1170,0,0
189,-146,0,0,0,0,0,0,0,0,0,-1,1413,1170,0,0
196,-146,0,0,0,0,0,0,0,0,0,-1,1420,1170,0,0
203,-146,0,0,0,0,0,0,0,0,0,-1,1427,1170,0,0
210,-146,0,0,0,0,0,0,0,0,0,-1,1434,1170,0,0
217,-146,0,0,0,0,0,0,0,0,0,-1,1441,1170,0,0
224,-146,0,0,0,0,0,0,0,0,0,-1,1448,1170,0,0
231,-146,0,0,0,0,0,0,0,0,0,-1,1455,1170,0,0
238,-146,0,0,0,0,0,0,0,0,0,-1,1462,1170,0,0
245,-146,0,0,0,0,0,0,0,0,0,-1,1469,1170,0,0
252,-146,0,0,0,0,0,0,0,0,0,-1,1476,1170,0,0
259,-146,0,0,0,0,0,0,0,0,0,-1,1483,1170,0,0
266,-146,0,0,0,0,0,0,0,0,0,-1,1490,1170,0,0
273,-146,0,0,0,0,0,0,0,0,0,-1,1497,1170,0,0
280,-146,0,0,0,0,0,0,0,0,0,-1,1504,1170,0,0
287,-146,0,0,0,0,0,0,0,0,0,-1,1511,1170,0,0
294,-146,0,0,0,0,0,0,0,0,0,-1,1518,1170,0,0
301,-146,0,0,0,0,0,0,0,0,0,-1,1525,1170,0,0
308,-146,0,0,0,0,0,0,0,0,0,-1,1532,1170,0,0
315,-146,0,0,0,0,0,0,0,0,0,-1,1539,1170,0,0
322,-146,0,0,0,0,0,0,0,0,0,-1,1546,1170,0,0
329,-146,0,0,0,0,0,0,0,0,0,-1,1553,1170,0,0
336,-146,0,0,0,0,0,0,0,0,0,-1,1560,1170,0,0
343,-146,0,0,0,0,0,0,0,0,0,-1,1567,1170,0,0
350,-146,0,0,0,0,0,0,0,0,0,-1,1574,1170,0,0
357,-146,0,0,0,0,0,0,0,0,0,-1,1581,1170,0,0
364,-146,0,0,0,0,0,0,0,0,0,-1,1588,1170,0,0
371,-146,0,0,0,0,0,0,0,0,0,-1,1595,1170,0,0
378,-146,0,0,0,0,0,0,0,0,0,-1,1602,1170,0,0
385,-146,0,0,0,0,0,0,0,0,0,-1,1609,1170,0,0
392,-146,0,0,0,0,0,0,0,0,0,-1,1616,1170,0,0
399,-146,0,0,0,0,0,0,0,0,0,-1,1623,1170,0,0
406,-146,0,0,0,0,0,0,0,0,0,-1,1630,1170,0,0
413,-146,0,0,0,0,0,0,0,0,0,-1,1637,1170,0,0
420,-146,0,0,0,0,0,0,0,0,0,-1,1644,1170,0,0
427,-146,0,0,0,0,0,0,0,0,0,-1,1651,1170,0,0
434,-146,0,0,0,0,0,0,0,0,0,-1,1658,1170,0,0
441,-146,0,0,0,0,0,0,0,0,0,-1,1665,1170,0,0
448,-146,0,0,0,0,0,0,0,0,0,-1,1672,1170,0,0
455,-146,0,0,0,0,0,0,0,0,0,-1,1679,1170,0,0
462,-146,0,0,0,0,0,0,0,0,0,-1,1686,1170,0,0
469,-146,0,0,0,0,0,0,0,0,0,-1,1693,1170,0,0
476,-146,0,0,0,0,0,0,0,0,0,-1,1700,1170,0,0
483,-146,0,0,0,0,0,0,0,0,0,-1,1707,1170,0,0
490,-146,0,0,0,0,0,0,0,0,0,-1,1714,1170,0,0
497,-146,0,0,0,0,0,0,0,0,0,-1,1721,1170,0,0
504,-146,0,0,0,0,0,0,0,0,0,-1,1728,1170,0,0
511,-146,0,0,0,0,0,0,0,0,0,-1,1735,1170,0,0
518,-146,0,0,0,0,0,0,0,0,0,-1,1742,1170,0,0
525,-146,0,0,0,0,0,0,0,0,0,-1,1749,1170,0,0
532,-146,0,0,0,0,0,0,0,0,0,-1,1756,1170,0,0
539,-146,0,0,0,0,0,0,0,0,0,-1,1763,1170,0,0
546,-146,0,0,0,0,0,0,0,0,0,-1,1770,1170,0,0
553,-146,0,0,0,0,0,0,0,0,0,-1,1777,1170,0,0
560,-146,0,0,0,0,0,0,0,0,0,-1,1784,1170,0,0
567,-146,0,0,0,0,0,0,0,0,0,-1,1791,1170,0,0
574,-146,0,0,0,0,0,0,0,0,0,-1,1798,1170,0,0
581,-146,0,0,0,0,0,0,0,0,0,-1,1805,1170,0,0
588,-146,0,0,0,0,0,0,0,0,0,-1,1812,1170,0,0
595,-146,0,0,0,0,0,0,0,0,0,-1,1819,1170,0,0
602,-146,0,0,0,0,0,0,0,0,0,-1,1826,1170,0,0
609,-146,0,0,0,0,0,0,0,0,0,-1,1833,1170,0,0
616,-146,0,0,0,0,0,0,0,0,0,-1,1840,1170,0,0
623,-146,0,0,0,0,0,0,0,0,0,-1,1847,1170,0,0
630,-146,0,0,0,0,0,0,0,0,0,-1,1854,1170,0,0
637,-146,21.2775,2.89575,-0.00331181,-0.00445518,0.00199663,-0.00180663,-0.00596035,0.645966,0.00352903,0.0399035,1861,1170,21.2774,-2.89569
644,-146,21.2102,2.92151,-0.00246682,-0.00411201,0.00201957,-0.00110875,-0.00547008,0.592001,0.00333908,0.040181,1868,1170,21.2102,-2.92147
651,-146,21.0387,2.9021,-0.00157019,-0.00337868,0.00162172,-0.000617655,-0.00433122,0.531075,0.0027052,0.0365148,1875,1170,21.0388,-2.90207
658,-146,21.1201,2.87439,-0.000800976,-0.00268021,0.00116929,-0.000240556,-0.00324063,0.446938,0.00208486,0.0368465,1882,1170,21.1201,-2.87441
665,-146,21.1909,3.04456,-0.00112625,-0.00232674,0.00146875,-0.000139821,-0.00331317,0.591415,0.00216368,0.037205,1889,1170,21.1909,-3.04452
672,-146,21.181,3.07471,-0.00208805,-0.00221405,0.00210313,-4.69738e-05,-0.00425512,0.770425,0.00282122,0.0365745,1896,1170,21.181,-3.07466
679,-146,21.1377,2.96106,-0.0031996,-0.0022175,0.00278095,0.000115421,-0.00553253,0.872786,0.00372742,0.0289122,1903,1170,21.1377,-2.96107
686,-146,21.0648,2.93152,-0.00427084,-0.00229679,0.00344268,0.000297566,-0.00686519,0.925005,0.00467914,0.0202765,1910,1170,21.0648,-2.93146
693,-146,21.1234,2.90735,-0.00515215,-0.00235284,0.00391474,0.000404933,-0.00790993,0.957084,0.00541331,0.0133627,1917,1170,21.1235,-2.90735
700,-146,20.9442,3.37854,0,0,0,0,0,0,0,-1,1924,1170,20.9443,-3.37849
707,-146,20.2281,4.12451,-0.00618746,-0.00224502,0.00452265,0.000717322,-0.00914981,0.990913,0.00635249,0.0343363,1931,1170,20.2282,-4.12449
714,-146,19.6888,4.7583,-0.00660385,-0.00199786,0.00466194,0.000898904,-0.00950061,1.01482,0.00665365,0.0266588,1938,1170,19.6888,-4.75829
721,-146,19.6664,4.6217,-0.00686463,-0.00190307,0.00468571,0.000918051,-0.00968574,1.02886,0.00678392,0.0328793,1945,1170,19.6663,-4.62169
728,-146,19.707,4.48474,-0.00649104,-0.00167446,0.00447542,0.000999505,-0.009165,1.03223,0.00646896,0.0234308,1952,1170,19.707,-4.48475
735,-146,19.6245,4.43713,-0.00561319,-0.00130994,0.00403197,0.00110859,-0.00803171,1.0305,0.00575968,0.0168769,1959,1170,19.6245,-4.43714
742,-146,19.6364,4.29492,-0.00439531,-0.000881459,0.00318973,0.0010032,-0.00627997,1.03713,0.004558,0.0162828,1966,1170,19.6363,-4.29488
749,-146,19.6398,4.20435,-0.00333492,-0.000267953,0.00143515,0.000298855,-0.00390172,1.19465,0.00270627,0.0146658,1973,1170,19.6397,-4.20437
756,-146,19.6165,4.10681,-0.0024504,0.000649044,-0.000634363,0.000773853,-0.00257521,-1.37653,0.00202467,0.0116434,1980,1170,19.6164,-4.10687
763,-146,19.5875,3.99377,-0.00152104,0.00154256,-0.00316658,0.00352838,-0.00350686,-1.01068,0.00406181,0.0108611,1987,1170,19.5875,-3.99378
770,-146,19.5784,3.88477,-0.0014656,0.00238095,-0.00593889,0.00670022,-0.00578487,-0.941991,0.00721472,0.0109541,1994,1170,19.5784,-3.88478
777,-146,19.5851,3.79431,-0.00242704,0.00325656,-0.00938121,0.010217,-0.00938743,-0.932467,0.011322,0.0184815,2001,1170,19.5851,-3.79432
784,-146,19.6118,3.71582,-0.00426794,0.00445244,-0.014074,0.0148262,-0.0146417,-0.935611,0.0170134,0.0381568,2008,1170,19.6118,-3.71583
791,-146,19.6366,3.63269,0,0,0,0,0,0,0,-1,2015,1170,19.6366,-3.63269
798,-146,19.5431,4.04456,-0.0110502,0.00859062,-0.0284464,0.0288641,-0.0313236,-0.951605,0.034759,0.0451788,2022,1170,19.5431,-4.04461
805,-146,19.7227,3.83777,-0.0161489,0.0121134,-0.0386834,0.039166,-0.0432014,-0.960519,0.0475738,0.0459894,2029,1170,19.7226,-3.83771
812,-146,0,0,0,0,0,0,0,0,0,-1,2036,1170,0,0
-700,-153,0,0,0,0,0,0,0,0,0,-1,524,1177,0,0
-693,-153,0,0,0,0,0,0,0,0,0,-1,531,1177,0,0
-686,-153,-7.54071,1.48792,0,0,0,0,0,0,0,-1,538,1177,-7.54071,-1.48795
-679,-153,-7.73486,2.1217,0,0,0,0,0,0,0,-1,545,1177,-7.73485,-2.12169
-672,-153,-11.4813,2.10938,-0.0415619,0.00263435,-0.0581565,0.0427497,-0.0816772,-0.966961,0.0730003,0.0440392,552,1177,-11.4813,-2.10941
-665,-153,-11.8746,1.57874,-0.029692,0.00264931,-0.0454063,0.0346785,-0.0617212,-0.956462,0.0563816,0.0427649,559,1177,-11.8746,-1.57874
-658,-153,-11.9266,1.35608,0,0,0,0,0,0,0,-1,566,1177,-11.9266,-1.35614
-651,-153,-11.8174,1.29211,-0.0136509,0.00192459,-0.0261509,0.0214227,-0.033149,-0.930118,0.0317485,0.0444832,573,1177,-11.8174,-1.29213
-644,-153,-11.7343,1.25696,-0.00865613,0.00142469,-0.0191479,0.0161845,-0.0234159,-0.914096,0.02299,0.0260678,580,1177,-11.7342,-1.25699
-637,-153,-11.7633,1.45056,-0.00467136,0.000898375,-0.0129954,0.011404,-0.015177,-0.89095,0.015398,0.0107194,587,1177,-11.7633,-1.45052
-630,-153,-11.7616,1.6062,-0.00204984,0.001017,-0.00850221,0.00812296,-0.0091558,-0.874617,0.00998184,0.00949824,594,1177,-11.7616,-1.60616
-623,-153,-11.7847,1.74414,-0.00188535,8.1434e-05,-0.00621708,0.00539241,-0.00719633,-0.863836,0.00729295,0.00956945,601,1177,-11.7847,-1.74408
-616,-153,-11.8093,1.88049,-0.00346435,-0.000429769,-0.00583627,0.00408321,-0.00797733,-0.912571,0.00708311,0.0123768,608,1177,-11.8093,-1.88045
-609,-153,-11.8066,2.01563,-0.00558835,-0.000703709,-0.0068613,0.00413699,-0.010429,-0.956384,0.00866729,0.0174218,615,1177,-11.8067,-2.01562
-602,-153,-11.8318,2.1488,-0.00778358,-0.00107875,-0.0078207,0.00407778,-0.0129401,-0.987881,0.0102598,0.0247756,622,1177,-11.8318,-2.14881
-595,-153,-11.9149,2.28638,-0.00965451,-0.000737013,-0.00889395,0.00475325,-0.0151448,-1.01775,0.011999,0.0203973,629,1177,-11.9149,-2.28639
-588,-153,-11.8872,2.45691,-0.0109206,-0.000567166,-0.00969407,0.00524581,-0.0167336,-1.03064,0.013255,0.0128889,636,1177,-11.8872,-2.45696
-581,-153,-11.6965,2.51697,0,0,0,0,0,0,0,-1,643,1177,-11.6965,-2.51701
-574,-153,-12.5402,1.90613,0,0,0,0,0,0,0,-1,650,1177,-12.5402,-1.90619
-567,-153,-13.3838,1.29541,0,0,0,0,0,0,0,-1,657,1177,-13.3838,-1.29537
-560,-153,-13.5646,1.21472,-0.0110754,0.00068709,-0.0107416,0.0070521,-0.0174404,-1.03587,0.0145586,0.0401849,664,1177,-13.5646,-1.21468
-553,-153,-13.4789,1.13477,-0.00974609,0.00118464,-0.00973661,0.00688493,-0.0154464,-1.04114,0.0132051,0.0367258,671,1177,-13.4789,-1.13479
-546,-153,-13.3604,1.0127,-0.00749508,0.00173763,-0.00795131,0.00631552,-0.012073,-1.04841,0.0107887,0.0392241,678,1177,-13.3603,-1.01269
-539,-153,-13.5479,0.98291,-0.00420203,0.00231529,-0.0052688,0.00525172,-0.00713846,-1.06235,0.00718107,0.0430925,685,1177,-13.5479,-0.982883
-532,-153,-13.6805,1.03296,0,0,0,0,0,0,0,-1,692,1177,-13.6805,-1.03293
-525,-153,-13.9423,1.55835,0,0,0,0,0,0,0,-1,699,1177,-13.9422,-1.55837
-518,-153,0,0,0,0,0,0,0,0,0,-1,706,1177,0,0
-511,-153,0,0,0,0,0,0,0,0,0,-1,713,1177,0,0
-504,-153,0,0,0,0,0,0,0,0,0,-1,720,1177,0,0
-497,-153,0,0,0,0,0,0,0,0,0,-1,727,1177,0,0
-490,-153,0,0,0,0,0,0,0,0,0,-1,734,1177,0,0
-483,-153,0,0,0,0,0,0,0,0,0,-1,741,1177,0,0
-476,-153,0,0,0,0,0,0,0,0,0,-1,748,1177,0,0
-469,-153,0,0,0,0,0,0,0,0,0,-1,755,1177,0,0
-462,-153,0,0,0,0,0,0,0,0,0,-1,762,1177,0,0
-455,-153,0,0,0,0,0,0,0,0,0,-1,769,1177,0,0
-448,-153,0,0,0,0,0,0,0,0,0,-1,776,1177,0,0
-441,-153,0,0,0,0,0,0,0,0,0,-1,783,1177,0,0
-434,-153,0,0,0,0,0,0,0,0,0,-1,790,1177,0,0
-427,-153,0,0,0,0,0,0,0,0,0,-1,797,1177,0,0
-420,-153,0,0,0,0,0,0,0,0,0,-1,804,1177,0,0
-413,-153,0,0,0,0,0,0,0,0,0,-1,811,1177,0,0
-406,-153,0,0,0,0,0,0,0,0,0,-1,818,1177,0,0
-399,-153,0,0,0,0,0,0,0,0,0,-1,825,1177,0,0
-392,-153,0,0,0,0,0,0,0,0,0,-1,832,1177,0,0
-385,-153,0,0,0,0,0,0,0,0,0,-1,839,1177,0,0
-378,-153,0,0,0,0,0,0,0,0,0,-1,846,1177,0,0
-371,-153,0,0,0,0,0,0,0,0,0,-1,853,1177,0,0
-364,-153,0,0,0,0,0,0,0,0,0,-1,860,1177,0,0
-357,-153,0,0,0,0,0,0,0,0,0,-1,867,1177,0,0
-350,-153,0,0,0,0,0,0,0,0,0,-1,874,1177,0,0
-343,-153,0,0,0,0,0,0,0,0,0,-1,881,1177,0,0
-336,-153,0,0,0,0,0,0,0,0,0,-1,888,1177,0,0
-329,-153,0,0,0,0,0,0,0,0,0,-1,895,1177,0,0
-322,-153,0,0,0,0,0,0,0,0,0,-1,902,1177,0,0
-315,-153,0,0,0,0,0,0,0,0,0,-1,909,1177,0,0
-308,-153,0,0,0,0,0,0,0,0,0,-1,916,1177,0,0
-301,-153,0,0,0,0,0,0,0,0,0,-1,923,1177,0,0
-294,-153,0,0,0,0,0,0,0,0,0,-1,930,1177,0,0
-287,-153,0,0,0,0,0,0,0,0,0,-1,937,1177,0,0
-280,-153,0,0,0,0,0,0,0,0,0,-1,944,1177,0,0
-273,-153,0,0,0,0,0,0,0,0,0,-1,951,1177,0,0
-266,-153,0,0,0,0,0,0,0,0,0,-1,958,1177,0,0
-259,-153,0,0,0,0,0,0,0,0,0,-1,965,1177,0,0
-252,-153,0,0,0,0,0,0,0,0,0,-1,972,1177,0,0
-245,-153,0,0,0,0,0,0,0,0,0,-1,979,1177,0,0
-238,-153,0,0,0,0,0,0,0,0,0,-1,986,1177,0,0
-231,-153,0,0,0,0,0,0,0,0,0,-1,993,1177,0,0
-224,-153,0,0,0,0,0,0,0,0,0,-1,1000,1177,0,0
-217,-153,0,0,0,0,0,0,0,0,0,-1,1007,1177,0,0
-210,-153,0,0,0,0,0,0,0,0,0,-1,1014,1177,0,0
-203,-153,0,0,0,0,0,0,0,0,0,-1,1021,1177,0,0
-196,-153,0,0,0,0,0,0,0,0,0,-1,1028,1177,0,0
-189,-153,0,0,0,0,0,0,0,0,0,-1,1035,1177,0,0
-182,-153,0,0,0,0,0,0,0,0,0,-1,1042,1177,0,0
-175,-153,0,0,0,0,0,0,0,0,0,-1,1049,1177,0,0
-168,-153,0,0,0,0,0,0,0,0,0,-1,1056,1177,0,0
-161,-153,0,0,0,0,0,0,0,0,0,-1,1063,1177,0,0
-154,-153,0,0,0,0,0,0,0,0,0,-1,1070,1177,0,0
-147,-153,0,0,0,0,0,0,0,0,0,-1,1077,1177,0,0
-140,-153,0,0,0,0,0,0,0,0,0,-1,1084,1177,0,0
-133,-153,0,0,0,0,0,0,0,0,0,-1,1091,1177,0,0
-126,-153,0,0,0,0,0,0,0,0,0,-1,1098,1177,0,0
-119,-153,0,0,0,0,0,0,0,0,0,-1,1105,1177,0,0
-112,-153,0,0,0,0,0,0,0,0,0,-1,1112,1177,0,0
-105,-153,0,0,0,0,0,0,0,0,0,-1,1119,1177,0,0
-98,-153,0,0,0,0,0,0,0,0,0,-1,1126,1177,0,0
-91,-153,0,0,0,0,0,0,0,0,0,-1,1133,1177,0,0
-84,-153,0,0,0,0,0,0,0,0,0,-1,1140,1177,0,0
-77,-153,0,0,0,0,0,0,0,0,0,-1,1147,1177,0,0
-70,-153,0,0,0,0,0,0,0,0,0,-1,1154,1177,0,0
-63,-153,0,0,0,0,0,0,0,0,0,-1,1161,1177,0,0
-56,-153,0,0,0,0,0,0,0,0,0,-1,1168,1177,0,0
-49,-153,0,0,0,0,0,0,0,0,0,-1,1175,1177,0,0
-42,-153,0,0,0,0,0,0,0,0,0,-1,1182,1177,0,0
-35,-153,0,0,0,0,0,0,0,0,0,-1,1189,1177,0,0
-28,-153,0,0,0,0,0,0,0,0,0,-1,1196,1177,0,0
-21,-153,0,0,0,0,0,0,0,0,0,-1,1203,1177,0,0
-14,-153,0,0,0,0,0,0,0,0,0,-1,1210,1177,0,0
-7,-153,0,0,0,0,0,0,0,0,0,-1,1217,1177,0,0
0,-153,0,0,0,0,0,0,0,0,0,-1,1224,1177,0,0
7,-153,0,0,0,0,0,0,0,0,0,-1,1231,1177,0,0
14,-153,0,0,0,0,0,0,0,0,0,-1,1238,1177,0,0
21,-153,0,0,0,0,0,0,0,0,0,-1,1245,1177,0,0
28,-153,0,0,0,0,0,0,0,0,0,-1,1252,1177,0,0
35,-153,0,0,0,0,0,0,0,0,0,-1,1259,1177,0,0
42,-153,0,0,0,0,0,0,0,0,0,-1,1266,1177,0,0
49,-153,0,0,0,0,0,0,0,0,0,-1,1273,1177,0,0
56,-153,0,0,0,0,0,0,0,0,0,-1,1280,1177,0,0
63,-153,0,0,0,0,0,0,0,0,0,-1,1287,1177,0,0
70,-153,0,0,0,0,0,0,0,0,0,-1,1294,1177,0,0
77,-153,0,0,0,0,0,0,0,0,0,-1,1301,1177,0,0
84,-153,0,0,0,0,0,0,0,0,0,-1,1308,1177,0,0
91,-153,0,0,0,0,0,0,0,0,0,-1,1315,1177,0,0
98,-153,0,0,0,0,0,0,0,0,0,-1,1322,1177,0,0
105,-153,0,0,0,0,0,0,0,0,0,-1,1329,1177,0,0
112,-153,0,0,0,0,0,0,0,0,0,-1,1336,1177,0,0
119,-153,0,0,0,0,0,0,0,0,0,-1,1343,1177,0,0
126,-153,0,0,0,0,0,0,0,0,0,-1,1350,1177,0,0
133,-153,0,0,0,0,0,0,0,0,0,-1,1357,1177,0,0
140,-153,0,0,0,0,0,0,0,0,0,-1,1364,1177,0,0
147,-153,0,0,0,0,0,0,0,0,0,-1,1371,1177,0,0
154,-153,0,0,0,0,0,0,0,0,0,-1,1378,1177,0,0
161,-153,0,0,0,0,0,0,0,0,0,-1,1385,1177,0,0
168,-153,0,0,0,0,0,0,0,0,0,-1,1392,1177,0,0
175,-153,0,0,0,0,0,0,0,0,0,-1,1399,1177,0,0
182,-153,0,0,0,0,0,0,0,0,0,-1,1406,1177,0,0
189,-153,0,0,0,0,0,0,0,0,0,-1,1413,1177,0,0
196,-153,0,0,0,0,0,0,0,0,0,-1,1420,1177,0,0
203,-153,0,0,0,0,0,0,0,0,0,-1,1427,1177,0,0
210,-153,0,0,0,0,0,0,0,0,0,-1,1434,1177,0,0
217,-153,0,0,0,0,0,0,0,0,0,-1,1441,1177,0,0
224,-153,0,0,0,0,0,0,0,0,0,-1,1448,1177,0,0
231,-153,0,0,0,0,0,0,0,0,0,-1,1455,1177,0,0
238,-153,0,0,0,0,0,0,0,0,0,-1,1462,1177,0,0
245,-153,0,0,0,0,0,0,0,0,0,-1,1469,1177,0,0
252,-153,0,0,0,0,0,0,0,0,0,-1,1476,1177,0,0
259,-153,0,0,0,0,0,0,0,0,0,-1,1483,1177,0,0
266,-153,0,0,0,0,0,0,0,0,0,-1,1490,1177,0,0
273,-153,0,0,0,0,0,0,0,0,0,-1,1497,1177,0,0
280,-153,0,0,0,0,0,0,0,0,0,-1,1504,1177,0,0
287,-153,0,0,0,0,0,0,0,0,0,-1,1511,1177,0,0
294,-153,0,0,0,0,0,0,0,0,0,-1,1518,1177,0,0
301,-153,0,0,0,0,0,0,0,0,0,-1,1525,1177,0,0
308,-153,0,0,0,0,0,0,0,0,0,-1,1532,1177,0,0
315,-153,0,0,0,0,0,0,0,0,0,-1,1539,1177,0,0
322,-153,0,0,0,0,0,0,0,0,0,-1,1546,1177,0,0
329,-153,0,0,0,0,0,0,0,0,0,-1,1553,1177,0,0
336,-153,0,0,0,0,0,0,0,0,0,-1,1560,1177,0,0
343,-153,0,0,0,0,0,0,0,0,0,-1,1567,1177,0,0
350,-153,0,0,0,0,0,0,0,0,0,-1,1574,1177,0,0
357,-153,0,0,0,0,0,0,0,0,0,-1,1581,1177,0,0
364,-153,0,0,0,0,0,0,0,0,0,-1,1588,1177,0,0
371,-153,0,0,0,0,0,0,0,0,0,-1,1595,1177,0,0
378,-153,0,0,0,0,0,0,0,0,0,-1,1602,1177,0,0
385,-153,0,0,0,0,0,0,0,0,0,-1,1609,1177,0,0
392,-153,0,0,0,0,0,0,0,0,0,-1,1616,1177,0,0
399,-153,0,0,0,0,0,0,0,0,0,-1,1623,1177,0,0
406,-153,0,0,0,0,0,0,0,0,0,-1,1630,1177,0,0
413,-153,0,0,0,0,0,0,0,0,0,-1,1637,1177,0,0
420,-153,0,0,0,0,0,0,0,0,0,-1,1644,1177,0,0
427,-153,0,0,0,0,0,0,0,0,0,-1,1651,1177,0,0
434,-153,0,0,0,0,0,0,0,0,0,-1,1658,1177,0,0
441,-153,0,0,0,0,0,0,0,0,0,-1,1665,1177,0,0
448,-153,0,0,0,0,0,0,0,0,0,-1,1672,1177,0,0
455,-153,0,0,0,0,0,0,0,0,0,-1,1679,1177,0,0
462,-153,0,0,0,0,0,0,0,0,0,-1,1686,1177,0,0
469,-153,0,0,0,0,0,0,0,0,0,-1,1693,1177,0,0
476,-153,0,0,0,0,0,0,0,0,0,-1,1700,1177,0,0
483,-153,0,0,0,0,0,0,0,0,0,-1,1707,1177,0,0
490,-153,0,0,0,0,0,0,0,0,0,-1,1714,1177,0,0
497,-153,0,0,0,0,0,0,0,0,0,-1,1721,1177,0,0
504,-153,0,0,0,0,0,0,0,0,0,-1,1728,1177,0,0
511,-153,0,0,0,0,0,0,0,0,0,-1,1735,1177,0,0
518,-153,0,0,0,0,0,0,0,0,0,-1,1742,1177,0,0
525,-153,0,0,0,0,0,0,0,0,0,-1,1749,1177,0,0
532,-153,0,0,0,0,0,0,0,0,0,-1,1756,1177,0,0
539,-153,0,0,0,0,0,0,0,0,0,-1,1763,1177,0,0
546,-153,0,0,0,0,0,0,0,0,0,-1,1770,1177,0,0
553,-153,0,0,0,0,0,0,0,0,0,-1,1777,1177,0,0
560,-153,0,0,0,0,0,0,0,0,0,-1,1784,1177,0,0
567,-153,0,0,0,0,0,0,0,0,0,-1,1791,1177,0,0
574,-153,0,0,0,0,0,0,0,0,0,-1,1798,1177,0,0
581,-153,0,0,0,0,0,0,0,0,0,-1,1805,1177,0,0
588,-153,0,0,0,0,0,0,0,0,0,-1,1812,1177,0,0
595,-153,0,0,0,0,0,0,0,0,0,-1,1819,1177,0,0
602,-153,0,0,0,0,0,0,0,0,0,-1,1826,1177,0,0
609,-153,0,0,0,0,0,0,0,0,0,-1,1833,1177,0,0
616,-153,0,0,0,0,0,0,0,0,0,-1,1840,1177,0,0
623,-153,0,0,0,0,0,0,0,0,0,-1,1847,1177,0,0
630,-153,0,0,0,0,0,0,0,0,0,-1,1854,1177,0,0
637,-153,21.1228,2.90222,-0.00365078,-0.00299991,0.0014736,-0.00181623,-0.00483445,0.894075,0.00281978,0.036879,1861,1177,21.1228,-2.90218
644,-153,21.1617,3.00806,-0.00258963,-0.00304251,0.00156188,-0.00123786,-0.00439428,0.71341,0.0026164,0.0376651,1868,1177,21.1617,-3.00805
651,-153,21.146,3.01709,-0.00148629,-0.00259488,0.00120178,-0.00071714,-0.00336404,0.569322,0.00204598,0.032749,1875,1177,21.146,-3.01714
658,-153,21.1147,2.81372,-0.000675512,-0.00221178,0.000915931,-0.000248255,-0.00263903,0.436469,0.00168272,0.0342341,1882,1177,21.1147,-2.81377
665,-153,21.1431,2.90442,-0.000879279,-0.00207489,0.00124622,-9.48998e-05,-0.00285926,0.561763,0.00187534,0.0362754,1889,1177,21.1431,-2.90444
672,-153,21.1277,2.94238,-0.00162823,-0.00206217,0.00176988,-6.2073e-05,-0.00362833,0.724408,0.00239846,0.037582,1896,1177,21.1277,-2.94235
679,-153,21.0684,2.9209,-0.00256854,-0.00211361,0.00233449,4.47035e-06,-0.00468662,0.833964,0.0031259,0.0293521,1903,1177,21.0684,-2.92093
686,-153,21.092,2.93909,-0.00347634,-0.00221894,0.00289153,0.000111443,-0.00580673,0.892446,0.00390883,0.0164804,1910,1177,21.092,-2.93909
693,-153,21.1526,2.86292,-0.00424305,-0.00227395,0.00328247,0.000168445,-0.00668545,0.9311,0.00451416,0.0236087,1917,1177,21.1526,-2.8629
700,-153,20.8971,3.7821,0,0,0,0,0,0,0,-1,1924,1177,20.8971,-3.78207
707,-153,20.1852,4.27136,0,0,0,0,0,0,0,-1,1931,1177,20.1852,-4.27133
714,-153,19.4734,4.76062,0,0,0,0,0,0,0,-1,1938,1177,19.4734,-4.76059
721,-153,19.6233,4.58167,-0.00589657,-0.00172037,0.00387554,0.000593798,-0.00821074,1.0325,0.00568211,0.0209791,1945,1177,19.6233,-4.58161
728,-153,19.6561,4.48755,-0.00556954,-0.00148086,0.00369097,0.000694109,-0.00774451,1.03831,0.00540924,0.0244547,1952,1177,19.6561,-4.48755
735,-153,19.495,4.42664,-0.00477308,-0.0010942,0.0033075,0.000850944,-0.00671823,1.03917,0.00478774,0.0162108,1959,1177,19.495,-4.42666
742,-153,19.5098,4.31787,-0.00364119,-0.00063205,0.00253796,0.000813802,-0.00508704,1.05296,0.00369264,0.0137865,1966,1177,19.5098,-4.31787
749,-153,19.5083,4.22278,-0.00287135,3.08524e-05,0.000750169,0.000213289,-0.00305379,1.33223,0.00211055,0.0150686,1973,1177,19.5083,-4.22282
756,-153,19.4944,4.11621,-0.00257595,0.00114891,-0.00136026,0.00159276,-0.00301981,-1.25539,0.00270522,0.0111073,1980,1177,19.4943,-4.11617
763,-153,19.4764,4.00317,-0.00243558,0.00207505,-0.00379712,0.00423613,-0.00459666,-1.05338,0.00510103,0.0108809,1987,1177,19.4764,-4.00317
770,-153,19.4872,3.89478,-0.0034249,0.00306648,-0.00667783,0.0072456,-0.00760402,-1.01161,0.00857427,0.00990115,1994,1177,19.4872,-3.89473
777,-153,19.4999,3.78271,-0.00582,0.00421337,-0.0104257,0.0107666,-0.0123732,-1.00964,0.0133705,0.0190333,2001,1177,19.4999,-3.78277
784,-153,19.5573,3.72473,-0.00976124,0.00575112,-0.0155144,0.0153401,-0.0193503,-1.0172,0.0200731,0.040379,2008,1177,19.5572,-3.72468
791,-153,19.615,3.69165,-0.0156235,0.00784756,-0.0221827,0.0212077,-0.0289836,-1.0287,0.0290937,0.0484896,2015,1177,19.615,-3.69163
798,-153,19.6333,3.75122,-0.0235086,0.0107062,-0.030644,0.0286946,-0.0414971,-1.03998,0.0407493,0.0492068,2022,1177,19.6333,-3.75119
805,-153,19.6887,3.68896,-0.033807,0.0145863,-0.0409602,0.037963,-0.0571836,-1.05219,0.0553053,0.0433802,2029,1177,19.6887,-3.6889
812,-153,0,0,0,0,0,0,0,0,0,-1,2036,1177,0,0
-700,-160,0,0,0,0,0,0,0,0,0,-1,524,1184,0,0
-693,-160,0,0,0,0,0,0,0,0,0,-1,531,1184,0,0
-686,-160,-6.64215,0.931396,0,0,0,0,0,0,0,-1,538,1184,-6.64217,-0.931456
-679,-160,-11.5777,2.50317,-0.0551389,0.0101914,-0.0743571,0.0587419,-0.103689,-0.992359,0.0949691,0.0467395,545,1184,-11.5777,-2.50313
-672,-160,-11.502,2.43335,-0.0404264,0.00909492,-0.0587645,0.0481023,-0.0794338,-0.984787,0.07437,0.0421615,552,1184,-11.502,-2.4333
-665,-160,-11.5799,2.14539,-0.0289439,0.00769017,-0.0458778,0.0387724,-0.0600262,-0.975331,0.0574797,0.0450059,559,1184,-11.5799,-2.14535
-658,-160,-11.6364,1.52966,0,0,0,0,0,0,0,-1,566,1184,-11.6364,-1.52964
-651,-160,-11.6047,1.55371,-0.0133336,0.00475158,-0.026498,0.0237074,-0.0322894,-0.94983,0.0324561,0.0474569,573,1184,-11.6047,-1.55375
-644,-160,-11.5865,1.47144,-0.00846732,0.00344569,-0.0194683,0.0178483,-0.0228699,-0.933856,0.0235682,0.0342699,580,1184,-11.5865,-1.4714
-637,-160,-11.5994,1.46179,-0.00465299,0.00225472,-0.0132736,0.0125165,-0.0149148,-0.912678,0.0158576,0.0134998,587,1184,-11.5994,-1.46181
-630,-160,-11.6239,1.56628,-0.00207318,0.00202744,-0.00867342,0.0088896,-0.00893534,-0.901462,0.0102912,0.00859696,594,1184,-11.6239,-1.56625
-623,-160,-11.6614,1.69348,-0.00181665,0.000560737,-0.00635799,0.0058402,-0.00709611,-0.877812,0.00748051,0.0113185,601,1184,-11.6614,-1.69351
-616,-160,-11.6688,1.84314,-0.00313663,-0.000258572,-0.00594184,0.00441601,-0.00781121,-0.904203,0.00714954,0.0100922,608,1184,-11.6688,-1.84309
-609,-160,-11.6547,2.01367,-0.0052464,-0.000378445,-0.00699242,0.00459151,-0.0102164,-0.952883,0.00875251,0.0124184,615,1184,-11.6547,-2.01365
-602,-160,-11.6478,2.18774,-0.00748247,-0.000859395,-0.00790007,0.00439513,-0.012737,-0.983863,0.0102746,0.0188401,622,1184,-11.6478,-2.18772
-595,-160,-11.6564,2.3761,-0.00937573,-0.000387388,-0.00899115,0.00517022,-0.0149333,-1.01716,0.0120544,0.0221307,629,1184,-11.6564,-2.37615
-588,-160,-11.7397,2.47534,-0.0107017,-0.000127973,-0.00980638,0.00572591,-0.0165555,-1.03263,0.0133611,0.0207959,636,1184,-11.7397,-2.47534
-581,-160,-11.5602,2.71143,0,0,0,0,0,0,0,-1,643,1184,-11.5602,-2.71142
-574,-160,-12.1797,2.30078,-0.0116755,0.000668072,-0.0112131,0.00729571,-0.0183032,-1.03698,0.0152282,0.0468725,650,1184,-12.1797,-2.30074
-567,-160,-13.0258,1.72778,-0.0116307,0.0010571,-0.0112791,0.00765392,-0.0182275,-1.04157,0.0153527,0.0499983,657,1184,-13.0258,-1.72774
-560,-160,-13.6259,1.18604,0,0,0,0,0,0,0,-1,664,1184,-13.6259,-1.18602
-553,-160,-13.4957,1.17651,-0.00987621,0.00191945,-0.00992877,0.00756999,-0.0155268,-1.0534,0.0135961,0.0383308,671,1184,-13.4957,-1.1765
-546,-160,-13.5383,1.03894,-0.0077867,0.00243757,-0.00817153,0.00696431,-0.0123134,-1.06491,0.0112719,0.0393048,678,1184,-13.5383,-1.03893
-539,-160,-13.65,0.943359,-0.00465931,0.00290289,-0.0055334,0.00582367,-0.00758009,-1.08512,0.00776078,0.0453392,685,1184,-13.6499,-0.943416
-532,-160,-13.9932,1.3208,-0.000109562,0.00320616,-0.00183208,0.00401913,-0.000922536,-1.15316,0.00303405,0.0482895,692,1184,-13.9931,-1.32083
-525,-160,-13.6445,1.36072,0.00457806,0.00284899,0.00170385,0.00562416,0.00180289,0.550623,0.00331608,0.0442347,699,1184,-13.6445,-1.36074
-518,-160,-13.2054,1.13696,0,0,0,0,0,0,0,-1,706,1184,-13.2054,-1.13698
-511,-160,0,0,0,0,0,0,0,0,0,-1,713,1184,0,0
-504,-160,0,0,0,0,0,0,0,0,0,-1,720,1184,0,0
-497,-160,0,0,0,0,0,0,0,0,0,-1,727,1184,0,0
-490,-160,0,0,0,0,0,0,0,0,0,-1,734,1184,0,0
-483,-160,0,0,0,0,0,0,0,0,0,-1,741,1184,0,0
-476,-160,0,0,0,0,0,0,0,0,0,-1,748,1184,0,0
-469,-160,0,0,0,0,0,0,0,0,0,-1,755,1184,0,0
-462,-160,0,0,0,0,0,0,0,0,0,-1,762,1184,0,0
-455,-160,0,0,0,0,0,0,0,0,0,-1,769,1184,0,0
-448,-160,0,0,0,0,0,0,0,0,0,-1,776,1184,0,0
-441,-160,0,0,0,0,0,0,0,0,0,-1,783,1184,0,0
-434,-160,0,0,0,0,0,0,0,0,0,-1,790,1184,0,0
-427,-160,0,0,0,0,0,0,0,0,0,-1,797,1184,0,0
-420,-160,0,0,0,0,0,0,0,0,0,-1,804,1184,0,0
-413,-160,0,0,0,0,0,0,0,0,0,-1,811,1184,0,0
-406,-160,0,0,0,0,0,0,0,0,0,-1,818,1184,0,0
-399,-160,0,0,0,0,0,0,0,0,0,-1,825,1184,0,0
-392,-160,0,0,0,0,0,0,0,0,0,-1,832,1184,0,0
-385,-160,0,0,0,0,0,0,0,0,0,-1,839,1184,0,0
-378,-160,0,0,0,0,0,0,0,0,0,-1,846,1184,0,0
-371,-160,0,0,0,0,0,0,0,0,0,-1,853,1184,0,0
-364,-160,0,0,0,0,0,0,0,0,0,-1,860,1184,0,0
-357,-160,0,0,0,0,0,0,0,0,0,-1,867,1184,0,0
-350,-160,0,0,0,0,0,0,0,0,0,-1,874,1184,0,0
-343,-160,0,0,0,0,0,0,0,0,0,-1,881,1184,0,0
-336,-160,0,0,0,0,0,0,0,0,0,-1,888,1184,0,0
-329,-160,0,0,0,0,0,0,0,0,0,-1,895,1184,0,0
-322,-160,0,0,0,0,0,0,0,0,0,-1,902,1184,0,0
-315,-160,0,0,0,0,0,0,0,0,0,-1,909,1184,0,0
-308,-160,0,0,0,0,0,0,0,0,0,-1,916,1184,0,0
-301,-160,0,0,0,0,0,0,0,0,0,-1,923,1184,0,0
-294,-160,0,0,0,0,0,0,0,0,0,-1,930,1184,0,0
-287,-160,0,0,0,0,0,0,0,0,0,-1,937,1184,0,0
-280,-160,0,0,0,0,0,0,0,0,0,-1,944,1184,0,0
-273,-160,0,0,0,0,0,0,0,0,0,-1,951,1184,0,0
-266,-160,0,0,0,0,0,0,0,0,0,-1,958,1184,0,0
-259,-160,0,0,0,0,0,0,0,0,0,-1,965,1184,0,0
-252,-160,0,0,0,0,0,0,0,0,0,-1,972,1184,0,0
-245,-160,0,0,0,0,0,0,0,0,0,-1,979,1184,0,0
-238,-160,0,0,0,0,0,0,0,0,0,-1,986,1184,0,0
-231,-160,0,0,0,0,0,0,0,0,0,-1,993,1184,0,0
-224,-160,0,0,0,0,0,0,0,0,0,-1,1000,1184,0,0
-217,-160,0,0,0,0,0,0,0,0,0,-1,1007,1184,0,0
-210,-160,0,0,0,0,0,0,0,0,0,-1,1014,1184,0,0
-203,-160,0,0,0,0,0,0,0,0,0,-1,1021,1184,0,0
-196,-160,0,0,0,0,0,0,0,0,0,-1,1028,1184,0,0
-189,-160,0,0,0,0,0,0,0,0,0,-1,1035,1184,0,0
-182,-160,0,0,0,0,0,0,0,0,0,-1,1042,1184,0,0
-175,-160,0,0,0,0,0,0,0,0,0,-1,1049,1184,0,0
-168,-160,0,0,0,0,0,0,0,0,0,-1,1056,1184,0,0
-161,-160,0,0,0,0,0,0,0,0,0,-1,1063,1184,0,0
-154,-160,0,0,0,0,0,0,0,0,0,-1,1070,1184,0,0
-147,-160,0,0,0,0,0,0,0,0,0,-1,1077,1184,0,0
-140,-160,0,0,0,0,0,0,0,0,0,-1,1084,1184,0,0
-133,-160,0,0,0,0,0,0,0,0,0,-1,1091,1184,0,0
-126,-160,0,0,0,0,0,0,0,0,0,-1,1098,1184,0,0
-119,-160,0,0,0,0,0,0,0,0,0,-1,1105,1184,0,0
-112,-160,0,0,0,0,0,0,0,0,0,-1,1112,1184,0,0
-105,-160,0,0,0,0,0,0,0,0,0,-1,1119,1184,0,0
-98,-160,0,0,0,0,0,0,0,0,0,-1,1126,1184,0,0
-91,-160,0,0,0,0,0,0,0,0,0,-1,1133,1184,0,0
-84,-160,0,0,0,0,0,0,0,0,0,-1,1140,1184,0,0
-77,-160,0,0,0,0,0,0,0,0,0,-1,1147,1184,0,0
-70,-160,0,0,0,0,0,0,0,0,0,-1,1154,1184,0,0
-63,-160,0,0,0,0,0,0,0,0,0,-1,1161,1184,0,0
-56,-160,0,0,0,0,0,0,0,0,0,-1,1168,1184,0,0
-49,-160,0,0,0,0,0,0,0,0,0,-1,1175,1184,0,0
-42,-160,0,0,0,0,0,0,0,0,0,-1,1182,1184,0,0
-35,-160,0,0,0,0,0,0,0,0,0,-1,1189,1184,0,0
-28,-160,0,0,0,0,0,0,0,0,0,-1,1196,1184,0,0
-21,-160,0,0,0,0,0,0,0,0,0,-1,1203,1184,0,0
-14,-160,0,0,0,0,0,0,0,0,0,-1,1210,1184,0,0
-7,-160,0,0,0,0,0,0,0,0,0,-1,1217,1184,0,0
0,-160,0,0,0,0,0,0,0,0,0,-1,1224,1184,0,0
7,-160,0,0,0,0,0,0,0,0,0,-1,1231,1184,0,0
14,-160,0,0,0,0,0,0,0,0,0,-1,1238,1184,0,0
21,-160,0,0,0,0,0,0,0,0,0,-1,1245,1184,0,0
28,-160,0,0,0,0,0,0,0,0,0,-1,1252,1184,0,0
35,-160,0,0,0,0,0,0,0,0,0,-1,1259,1184,0,0
42,-160,0,0,0,0,0,0,0,0,0,-1,1266,1184,0,0
49,-160,0,0,0,0,0,0,0,0,0,-1,1273,1184,0,0
56,-160,0,0,0,0,0,0,0,0,0,-1,1280,1184,0,0
63,-160,0,0,0,0,0,0,0,0,0,-1,1287,1184,0,0
70,-160,0,0,0,0,0,0,0,0,0,-1,1294,1184,0,0
77,-160,0,0,0,0,0,0,0,0,0,-1,1301,1184,0,0
84,-160,0,0,0,0,0,0,0,0,0,-1,1308,1184,0,0
91,-160,0,0,0,0,0,0,0,0,0,-1,1315,1184,0,0
98,-160,0,0,0,0,0,0,0,0,0,-1,1322,1184,0,0
105,-160,0,0,0,0,0,0,0,0,0,-1,1329,1184,0,0
112,-160,0,0,0,0,0,0,0,0,0,-1,1336,1184,0,0
119,-160,0,0,0,0,0,0,0,0,0,-1,1343,1184,0,0
126,-160,0,0,0,0,0,0,0,0,0,-1,1350,1184,0,0
133,-160,0,0,0,0,0,0,0,0,0,-1,1357,1184,0,0
140,-160,0,0,0,0,0,0,0,0,0,-1,1364,1184,0,0
147,-160,0,0,0,0,0,0,0,0,0,-1,1371,1184,0,0
154,-160,0,0,0,0,0,0,0,0,0,-1,1378,1184,0,0
161,-160,0,0,0,0,0,0,0,0,0,-1,1385,1184,0,0
168,-160,0,0,0,0,0,0,0,0,0,-1,1392,1184,0,0
175,-160,0,0,0,0,0,0,0,0,0,-1,1399,1184,0,0
182,-160,0,0,0,0,0,0,0,0,0,-1,1406,1184,0,0
189,-160,0,0,0,0,0,0,0,0,0,-1,1413,1184,0,0
196,-160,0,0,0,0,0,0,0,0,0,-1,1420,1184,0,0
203,-160,0,0,0,0,0,0,0,0,0,-1,1427,1184,0,0
210,-160,0,0,0,0,0,0,0,0,0,-1,1434,1184,0,0
217,-160,0,0,0,0,0,0,0,0,0,-1,1441,1184,0,0
224,-160,0,0,0,0,0,0,0,0,0,-1,1448,1184,0,0
231,-160,0,0,0,0,0,0,0,0,0,-1,1455,1184,0,0
238,-160,0,0,0,0,0,0,0,0,0,-1,1462,1184,0,0
245,-160,0,0,0,0,0,0,0,0,0,-1,1469,1184,0,0
252,-160,0,0,0,0,0,0,0,0,0,-1,1476,1184,0,0
259,-160,0,0,0,0,0,0,0,0,0,-1,1483,1184,0,0
266,-160,0,0,0,0,0,0,0,0,0,-1,1490,1184,0,0
273,-160,0,0,0,0,0,0,0,0,0,-1,1497,1184,0,0
280,-160,0,0,0,0,0,0,0,0,0,-1,1504,1184,0,0
287,-160,0,0,0,0,0,0,0,0,0,-1,1511,1184,0,0
294,-160,0,0,0,0,0,0,0,0,0,-1,1518,1184,0,0
301,-160,0,0,0,0,0,0,0,0,0,-1,1525,1184,0,0
308,-160,0,0,0,0,0,0,0,0,0,-1,1532,1184,0,0
315,-160,0,0,0,0,0,0,0,0,0,-1,1539,1184,0,0
322,-160,0,0,0,0,0,0,0,0,0,-1,1546,1184,0,0
329,-160,0,0,0,0,0,0,0,0,0,-1,1553,1184,0,0
336,-160,0,0,0,0,0,0,0,0,0,-1,1560,1184,0,0
343,-160,0,0,0,0,0,0,0,0,0,-1,1567,1184,0,0
350,-160,0,0,0,0,0,0,0,0,0,-1,1574,1184,0,0
357,-160,0,0,0,0,0,0,0,0,0,-1,1581,1184,0,0
364,-160,0,0,0,0,0,0,0,0,0,-1,1588,1184,0,0
371,-160,0,0,0,0,0,0,0,0,0,-1,1595,1184,0,0
378,-160,0,0,0,0,0,0,0,0,0,-1,1602,1184,0,0
385,-160,0,0,0,0,0,0,0,0,0,-1,1609,1184,0,0
392,-160,0,0,0,0,0,0,0,0,0,-1,1616,1184,0,0
399,-160,0,0,0,0,0,0,0,0,0,-1,1623,1184,0,0
406,-160,0,0,0,0,0,0,0,0,0,-1,1630,1184,0,0
413,-160,0,0,0,0,0,0,0,0,0,-1,1637,1184,0,0
420,-160,0,0,0,0,0,0,0,0,0,-1,1644,1184,0,0
427,-160,0,0,0,0,0,0,0,0,0,-1,1651,1184,0,0
434,-160,0,0,0,0,0,0,0,0,0,-1,1658,1184,0,0
441,-160,0,0,0,0,0,0,0,0,0,-1,1665,1184,0,0
448,-160,0,0,0,0,0,0,0,0,0,-1,1672,1184,0,0
455,-160,0,0,0,0,0,0,0,0,0,-1,1679,1184,0,0
462,-160,0,0,0,0,0,0,0,0,0,-1,1686,1184,0,0
469,-160,0,0,0,0,0,0,0,0,0,-1,1693,1184,0,0
476,-160,0,0,0,0,0,0,0,0,0,-1,1700,1184,0,0
483,-160,0,0,0,0,0,0,0,0,0,-1,1707,1184,0,0
490,-160,0,0,0,0,0,0,0,0,0,-1,1714,1184,0,0
497,-160,0,0,0,0,0,0,0,0,0,-1,1721,1184,0,0
504,-160,0,0,0,0,0,0,0,0,0,-1,1728,1184,0,0
511,-160,0,0,0,0,0,0,0,0,0,-1,1735,1184,0,0
518,-160,0,0,0,0,0,0,0,0,0,-1,1742,1184,0,0
525,-160,0,0,0,0,0,0,0,0,0,-1,1749,1184,0,0
532,-160,0,0,0,0,0,0,0,0,0,-1,1756,1184,0,0
539,-160,0,0,0,0,0,0,0,0,0,-1,1763,1184,0,0
546,-160,0,0,0,0,0,0,0,0,0,-1,1770,1184,0,0
553,-160,0,0,0,0,0,0,0,0,0,-1,1777,1184,0,0
560,-160,0,0,0,0,0,0,0,0,0,-1,1784,1184,0,0
567,-160,0,0,0,0,0,0,0,0,0,-1,1791,1184,0,0
574,-160,0,0,0,0,0,0,0,0,0,-1,1798,1184,0,0
581,-160,0,0,0,0,0,0,0,0,0,-1,1805,1184,0,0
588,-160,0,0,0,0,0,0,0,0,0,-1,1812,1184,0,0
595,-160,0,0,0,0,0,0,0,0,0,-1,1819,1184,0,0
602,-160,0,0,0,0,0,0,0,0,0,-1,1826,1184,0,0
609,-160,0,0,0,0,0,0,0,0,0,-1,1833,1184,0,0
616,-160,0,0,0,0,0,0,0,0,0,-1,1840,1184,0,0
623,-160,0,0,0,0,0,0,0,0,0,-1,1847,1184,0,0
630,-160,0,0,0,0,0,0,0,0,0,-1,1854,1184,0,0
637,-160,21.0127,2.90881,-0.00376709,-0.0018516,0.00109752,-0.0013527,-0.00426599,1.14414,0.00251731,0.0375852,1861,1184,21.0127,-2.90877
644,-160,21.1078,2.87207,-0.00245565,-0.00220528,0.0012036,-0.00112038,-0.00354056,0.837217,0.00208955,0.0397478,1868,1184,21.1078,-2.87207
651,-160,21.0951,3.08801,-0.00109394,-0.0020096,0.000907047,-0.000535725,-0.00256781,0.551679,0.00156418,0.0402984,1875,1184,21.0951,-3.08804
658,-160,21.0756,3.09851,-0.000191954,-0.0018913,0.000806805,0.000130072,-0.00221332,0.379763,0.00152076,0.0411377,1882,1184,21.0756,-3.09848
665,-160,21.1942,2.82239,-0.00022928,-0.00192176,0.00116341,0.000363107,-0.00251414,0.470966,0.00180932,0.0389349,1889,1184,21.1942,-2.82241
672,-160,21.1473,2.89746,-0.000775137,-0.00198167,0.00159551,0.000327344,-0.00308415,0.604654,0.00217345,0.0348834,1896,1184,21.1473,-2.8975
679,-160,21.0897,2.94006,-0.0015754,-0.00207127,0.00205083,0.000242432,-0.0038891,0.725243,0.00267721,0.0260797,1903,1184,21.0897,-2.94012
686,-160,21.1305,2.9469,-0.00236057,-0.0021996,0.00250916,0.000230365,-0.00479053,0.801431,0.00327318,0.0147417,1910,1184,21.1304,-2.94685
693,-160,21.1484,2.84521,-0.00306081,-0.00224592,0.00282245,0.000198342,-0.00550508,0.857082,0.00373792,0.0362359,1917,1184,21.1484,-2.8452
700,-160,20.3785,4.46387,0,0,0,0,0,0,0,-1,1924,1184,20.3785,-4.4639
707,-160,20.1217,4.15833,0,0,0,0,0,0,0,-1,1931,1184,20.1217,-4.15835
714,-160,19.5402,4.7998,-0.00448619,-0.00168261,0.00316913,0.000380919,-0.00654972,0.993625,0.00449883,0.0350058,1938,1184,19.5402,-4.79986
721,-160,19.5204,4.54797,-0.00479203,-0.00157882,0.00318308,0.000380125,-0.00675098,1.01911,0.00463256,0.015973,1945,1184,19.5204,-4.548
728,-160,19.4817,4.4967,-0.00450759,-0.00134223,0.00298186,0.000450943,-0.00630076,1.02938,0.0043586,0.0136035,1952,1184,19.4817,-4.49671
735,-160,19.3911,4.42114,-0.00377558,-0.000970704,0.0026222,0.000600539,-0.00534683,1.03096,0.00378066,0.0132002,1959,1184,19.3911,-4.42114
742,-160,19.3789,4.31921,-0.00262465,-0.0004576,0.00194064,0.000681509,-0.00376376,1.04001,0.00276449,0.0149584,1966,1184,19.3789,-4.31917
749,-160,19.3766,4.22314,-0.00197425,0.000224521,0.000156665,0.000235627,-0.00198536,1.50002,0.0014087,0.0165575,1973,1184,19.3766,-4.22317
756,-160,19.3783,4.10498,-0.00196299,0.001452,-0.00196501,0.00234773,-0.00285872,-1.1431,0.00301077,0.011217,1980,1184,19.3782,-4.10501
763,-160,19.3715,4,-0.0021238,0.00245594,-0.00440201,0.00512804,-0.0047959,-1.02523,0.00573066,0.0115997,1987,1184,19.3715,-4.00004
770,-160,19.3627,3.87158,-0.00354467,0.0036111,-0.00743377,0.0082832,-0.00821677,-1.00969,0.00952629,0.0176939,1994,1184,19.3626,-3.87152
777,-160,19.4014,3.71802,-0.00659955,0.00506082,-0.011525,0.0121464,-0.0136851,-1.01956,0.0149227,0.0303513,2001,1184,19.4014,-3.71796
784,-160,19.488,3.72607,-0.011685,0.00704336,-0.0170995,0.0171749,-0.0218165,-1.03591,0.0225647,0.0427216,2008,1184,19.4881,-3.7261
791,-160,19.859,4.07007,-0.0193708,0.00978922,-0.0244412,0.0236688,-0.0332505,-1.05433,0.0330172,0.0460329,2015,1184,19.859,-4.07012
798,-160,19.5952,3.79663,0,0,0,0,0,0,0,-1,2022,1184,19.5952,-3.79665
805,-160,19.8066,4.12317,0,0,0,0,0,0,0,-1,2029,1184,19.8066,-4.12318
812,-160,0,0,0,0,0,0,0,0,0,-1,2036,1184,0,0
-700,-167,0,0,0,0,0,0,0,0,0,-1,524,1191,0,0
-693,-167,0,0,0,0,0,0,0,0,0,-1,531,1191,0,0
-686,-167,-11.5698,3.35059,-0.0700293,0.0233449,-0.0924083,0.0801903,-0.126875,-1.01931,0.120558,0.0482139,538,1191,-11.5698,-3.35057
-679,-167,-11.5535,3.05627,-0.0515337,0.020896,-0.0737206,0.0668167,-0.0974543,-1.01371,0.0953901,0.0490287,545,1191,-11.5534,-3.05628
-672,-167,-11.5421,2.78442,-0.0373142,0.0178076,-0.0584366,0.0548566,-0.0743632,-1.00575,0.0748879,0.0480318,552,1191,-11.5421,-2.78443
-665,-167,-11.5345,2.49121,-0.0263491,0.0145781,-0.0457757,0.044256,-0.056027,-0.995593,0.0580312,0.0461597,559,1191,-11.5345,-2.49121
-658,-167,-11.4941,2.16028,-0.0179247,0.0114804,-0.0352719,0.0349913,-0.0414357,-0.982865,0.0441774,0.0473409,566,1191,-11.4941,-2.16026
-651,-167,-11.4245,1.75342,-0.0116596,0.00867376,-0.0266398,0.027021,-0.0300068,-0.967685,0.0329401,0.0465367,573,1191,-11.4245,-1.75347
-644,-167,-11.4594,1.49524,-0.00719334,0.00625298,-0.0196588,0.0203065,-0.0212469,-0.95016,0.0239929,0.0362114,580,1191,-11.4594,-1.49523
-637,-167,-11.4383,1.44666,-0.00379615,0.00415421,-0.0135175,0.0142689,-0.0139108,-0.928405,0.01627,0.0155642,587,1191,-11.4383,-1.44664
-630,-167,-11.4755,1.5498,-0.00145583,0.00340644,-0.00886976,0.0101722,-0.0082216,-0.919159,0.0106396,0.00861416,594,1191,-11.4755,-1.54985
-623,-167,-11.4991,1.67883,-0.00124951,0.00124509,-0.00649557,0.00661203,-0.00661645,-0.880255,0.00763746,0.0112096,601,1191,-11.4992,-1.67883
-616,-167,-11.5009,1.84192,-0.00249584,-1.81112e-05,-0.00594522,0.00481595,-0.00732991,-0.888118,0.00706231,0.0145485,608,1191,-11.5009,-1.84194
-609,-167,-11.5054,2.01416,-0.00463268,-3.73415e-05,-0.00695119,0.00498608,-0.0096561,-0.945017,0.0085958,0.0138438,615,1191,-11.5054,-2.01416
-602,-167,-11.512,2.15112,-0.00687979,-0.000589488,-0.00778074,0.00465773,-0.012127,-0.977469,0.0100054,0.0140481,622,1191,-11.512,-2.15117
-595,-167,-11.522,2.28857,-0.00880641,1.52306e-05,-0.00893423,0.00556814,-0.0143593,-1.0147,0.0118724,0.019758,629,1191,-11.522,-2.28862
-588,-167,-11.5322,2.49951,-0.0101668,0.000392262,-0.00976639,0.0062148,-0.0159893,-1.03319,0.0132271,0.0198457,636,1191,-11.5322,-2.49954
-581,-167,-11.3865,2.71838,0,0,0,0,0,0,0,-1,643,1191,-11.3865,-2.71838
-574,-167,-11.8052,2.4198,-0.0112387,0.00136123,-0.0111889,0.00790187,-0.0177793,-1.0418,0.0151882,0.0419564,650,1191,-11.8052,-2.4198
-567,-167,-12.638,1.7522,-0.0112511,0.00179644,-0.0112157,0.00824768,-0.0177024,-1.04881,0.0153102,0.0415161,657,1191,-12.638,-1.75225
-560,-167,-13.4221,0.791016,0,0,0,0,0,0,0,-1,664,1191,-13.4221,-0.791055
-553,-167,-13.399,1.0199,-0.00981378,0.00265757,-0.00994408,0.00815937,-0.0153156,-1.06544,0.0137616,0.0388548,671,1191,-13.3991,-1.01992
-546,-167,-13.5175,1.08801,-0.00800649,0.0031103,-0.00829308,0.00753544,-0.0124316,-1.08064,0.0116429,0.0363235,678,1191,-13.5175,-1.08804
-539,-167,-13.4681,1.01367,-0.00523546,0.00342906,-0.00583658,0.00636551,-0.00817191,-1.10466,0.00841475,0.0386648,685,1191,-13.4681,-1.01362
-532,-167,-13.4984,1.15771,-0.00108221,0.00345979,-0.002417,0.00450531,-0.00212774,-1.16253,0.00391074,0.0443469,692,1191,-13.4984,-1.15776
-525,-167,-13.0886,1.10461,0.00382781,0.00276569,0.00119518,0.0046046,0.00198889,0.576332,0.00266667,0.0439159,699,1191,-13.0886,-1.10462
-518,-167,-12.8481,0.913086,0.00643889,0.000935659,0.00186589,0.00701187,0.00036268,0.29794,0.0045585,0.0434563,706,1191,-12.8482,-0.913122
-511,-167,0,0,0,0,0,0,0,0,0,-1,713,1191,0,0
-504,-167,0,0,0,0,0,0,0,0,0,-1,720,1191,0,0
-497,-167,0,0,0,0,0,0,0,0,0,-1,727,1191,0,0
-490,-167,0,0,0,0,0,0,0,0,0,-1,734,1191,0,0
-483,-167,0,0,0,0,0,0,0,0,0,-1,741,1191,0,0
-476,-167,0,0,0,0,0,0,0,0,0,-1,748,1191,0,0
-469,-167,0,0,0,0,0,0,0,0,0,-1,755,1191,0,0
-462,-167,0,0,0,0,0,0,0,0,0,-1,762,1191,0,0
-455,-167,0,0,0,0,0,0,0,0,0,-1,769,1191,0,0
-448,-167,0,0,0,0,0,0,0,0,0,-1,776,1191,0,0
-441,-167,0,0,0,0,0,0,0,0,0,-1,783,1191,0,0
-434,-167,0,0,0,0,0,0,0,0,0,-1,790,1191,0,0
-427,-167,0,0,0,0,0,0,0,0,0,-1,797,1191,0,0
-420,-167,0,0,0,0,0,0,0,0,0,-1,804,1191,0,0
-413,-167,0,0,0,0,0,0,0,0,0,-1,811,1191,0,0
-406,-167,0,0,0,0,0,0,0,0,0,-1,818,1191,0,0
-399,-167,0,0,0,0,0,0,0,0,0,-1,825,1191,0,0
-392,-167,0,0,0,0,0,0,0,0,0,-1,832,1191,0,0
-385,-167,0,0,0,0,0,0,0,0,0,-1,839,1191,0,0
-378,-167,0,0,0,0,0,0,0,0,0,-1,846,1191,0,0
-371,-167,0,0,0,0,0,0,0,0,0,-1,853,1191,0,0
-364,-167,0,0,0,0,0,0,0,0,0,-1,860,1191,0,0
-357,-167,0,0,0,0,0,0,0,0,0,-1,867,1191,0,0
-350,-167,0,0,0,0,0,0,0,0,0,-1,874,1191,0,0
-343,-167,0,0,0,0,0,0,0,0,0,-1,881,1191,0,0
-336,-167,0,0,0,0,0,0,0,0,0,-1,888,1191,0,0
-329,-167,0,0,0,0,0,0,0,0,0,-1,895,1191,0,0
-322,-167,0,0,0,0,0,0,0,0,0,-1,902,1191,0,0
-315,-167,0,0,0,0,0,0,0,0,0,-1,909,1191,0,0
-308,-167,0,0,0,0,0,0,0,0,0,-1,916,1191,0,0
-301,-167,0,0,0,0,0,0,0,0,0,-1,923,1191,0,0
-294,-167,0,0,0,0,0,0,0,0,0,-1,930,1191,0,0
-287,-167,0,0,0,0,0,0,0,0,0,-1,937,1191,0,0
-280,-167,0,0,0,0,0,0,0,0,0,-1,944,1191,0,0
-273,-167,0,0,0,0,0,0,0,0,0,-1,951,1191,0,0
-266,-167,0,0,0,0,0,0,0,0,0,-1,958,1191,0,0
-259,-167,0,0,0,0,0,0,0,0,0,-1,965,1191,0,0
-252,-167,0,0,0,0,0,0,0,0,0,-1,972,1191,0,0
-245,-167,0,0,0,0,0,0,0,0,0,-1,979,1191,0,0
-238,-167,0,0,0,0,0,0,0,0,0,-1,986,1191,0,0
-231,-167,0,0,0,0,0,0,0,0,0,-1,993,1191,0,0
-224,-167,0,0,0,0,0,0,0,0,0,-1,1000,1191,0,0
-217,-167,0,0,0,0,0,0,0,0,0,-1,1007,1191,0,0
-210,-167,0,0,0,0,0,0,0,0,0,-1,1014,1191,0,0
-203,-167,0,0,0,0,0,0,0,0,0,-1,1021,1191,0,0
-196,-167,0,0,0,0,0,0,0,0,0,-1,1028,1191,0,0
-189,-167,0,0,0,0,0,0,0,0,0,-1,1035,1191,0,0
-182,-167,0,0,0,0,0,0,0,0,0,-1,1042,1191,0,0
-175,-167,0,0,0,0,0,0,0,0,0,-1,1049,1191,0,0
-168,-167,0,0,0,0,0,0,0,0,0,-1,1056,1191,0,0
-161,-167,0,0,0,0,0,0,0,0,0,-1,1063,1191,0,0
-154,-167,0,0,0,0,0,0,0,0,0,-1,1070,1191,0,0
-147,-167,0,0,0,0,0,0,0,0,0,-1,1077,1191,0,0
-140,-167,0,0,0,0,0,0,0,0,0,-1,1084,1191,0,0
-133,-167,0,0,0,0,0,0,0,0,0,-1,1091,1191,0,0
-126,-167,0,0,0,0,0,0,0,0,0,-1,1098,1191,0,0
-119,-167,0,0,0,0,0,0,0,0,0,-1,1105,1191,0,0
-112,-167,0,0,0,0,0,0,0,0,0,-1,1112,1191,0,0
-105,-167,0,0,0,0,0,0,0,0,0,-1,1119,1191,0,0
-98,-167,0,0,0,0,0,0,0,0,0,-1,1126,1191,0,0
-91,-167,0,0,0,0,0,0,0,0,0,-1,1133,1191,0,0
-84,-167,0,0,0,0,0,0,0,0,0,-1,1140,1191,0,0
-77,-167,0,0,0,0,0,0,0,0,0,-1,1147,1191,0,0
-70,-167,0,0,0,0,0,0,0,0,0,-1,1154,1191,0,0
-63,-167,0,0,0,0,0,0,0,0,0,-1,1161,1191,0,0
-56,-167,0,0,0,0,0,0,0,0,0,-1,1168,1191,0,0
-49,-167,0,0,0,0,0,0,0,0,0,-1,1175,1191,0,0
-42,-167,0,0,0,0,0,0,0,0,0,-1,1182,1191,0,0
-35,-167,0,0,0,0,0,0,0,0,0,-1,1189,1191,0,0
-28,-167,0,0,0,0,0,0,0,0,0,-1,1196,1191,0,0
-21,-167,0,0,0,0,0,0,0,0,0,-1,1203,1191,0,0
-14,-167,0,0,0,0,0,0,0,0,0,-1,1210,1191,0,0
-7,-167,0,0,0,0,0,0,0,0,0,-1,1217,1191,0,0
0,-167,0,0,0,0,0,0,0,0,0,-1,1224,1191,0,0
7,-167,0,0,0,0,0,0,0,0,0,-1,1231,1191,0,0
14,-167,0,0,0,0,0,0,0,0,0,-1,1238,1191,0,0
21,-167,0,0,0,0,0,0,0,0,0,-1,1245,1191,0,0
28,-167,0,0,0,0,0,0,0,0,0,-1,1252,1191,0,0
35,-167,0,0,0,0,0,0,0,0,0,-1,1259,1191,0,0
42,-167,0,0,0,0,0,0,0,0,0,-1,1266,1191,0,0
49,-167,0,0,0,0,0,0,0,0,0,-1,1273,1191,0,0
56,-167,0,0,0,0,0,0,0,0,0,-1,1280,1191,0,0
63,-167,0,0,0,0,0,0,0,0,0,-1,1287,1191,0,0
70,-167,0,0,0,0,0,0,0,0,0,-1,1294,1191,0,0
77,-167,0,0,0,0,0,0,0,0,0,-1,1301,1191,0,0
84,-167,0,0,0,0,0,0,0,0,0,-1,1308,1191,0,0
91,-167,0,0,0,0,0,0,0,0,0,-1,1315,1191,0,0
98,-167,0,0,0,0,0,0,0,0,0,-1,1322,1191,0,0
105,-167,0,0,0,0,0,0,0,0,0,-1,1329,1191,0,0
112,-167,0,0,0,0,0,0,0,0,0,-1,1336,1191,0,0
119,-167,0,0,0,0,0,0,0,0,0,-1,1343,1191,0,0
126,-167,0,0,0,0,0,0,0,0,0,-1,1350,1191,0,0
133,-167,0,0,0,0,0,0,0,0,0,-1,1357,1191,0,0
140,-167,0,0,0,0,0,0,0,0,0,-1,1364,1191,0,0
147,-167,0,0,0,0,0,0,0,0,0,-1,1371,1191,0,0
154,-167,0,0,0,0,0,0,0,0,0,-1,1378,1191,0,0
161,-167,0,0,0,0,0,0,0,0,0,-1,1385,1191,0,0
168,-167,0,0,0,0,0,0,0,0,0,-1,1392,1191,0,0
175,-167,0,0,0,0,0,0,0,0,0,-1,1399,1191,0,0
182,-167,0,0,0,0,0,0,0,0,0,-1,1406,1191,0,0
189,-167,0,0,0,0,0,0,0,0,0,-1,1413,1191,0,0
196,-167,0,0,0,0,0,0,0,0,0,-1,1420,1191,0,0
203,-167,0,0,0,0,0,0,0,0,0,-1,1427,1191,0,0
210,-167,0,0,0,0,0,0,0,0,0,-1,1434,1191,0,0
217,-167,0,0,0,0,0,0,0,0,0,-1,1441,1191,0,0
224,-167,0,0,0,0,0,0,0,0,0,-1,1448,1191,0,0
231,-167,0,0,0,0,0,0,0,0,0,-1,1455,1191,0,0
238,-167,0,0,0,0,0,0,0,0,0,-1,1462,1191,0,0
245,-167,0,0,0,0,0,0,0,0,0,-1,1469,1191,0,0
252,-167,0,0,0,0,0,0,0,0,0,-1,1476,1191,0,0
259,-167,0,0,0,0,0,0,0,0,0,-1,1483,1191,0,0
266,-167,0,0,0,0,0,0,0,0,0,-1,1490,1191,0,0
273,-167,0,0,0,0,0,0,0,0,0,-1,1497,1191,0,0
280,-167,0,0,0,0,0,0,0,0,0,-1,1504,1191,0,0
287,-167,0,0,0,0,0,0,0,0,0,-1,1511,1191,0,0
294,-167,0,0,0,0,0,0,0,0,0,-1,1518,1191,0,0
301,-167,0,0,0,0,0,0,0,0,0,-1,1525,1191,0,0
308,-167,0,0,0,0,0,0,0,0,0,-1,1532,1191,0,0
315,-167,0,0,0,0,0,0,0,0,0,-1,1539,1191,0,0
322,-167,0,0,0,0,0,0,0,0,0,-1,1546,1191,0,0
329,-167,0,0,0,0,0,0,0,0,0,-1,1553,1191,0,0
336,-167,0,0,0,0,0,0,0,0,0,-1,1560,1191,0,0
343,-167,0,0,0,0,0,0,0,0,0,-1,1567,1191,0,0
350,-167,0,0,0,0,0,0,0,0,0,-1,1574,1191,0,0
357,-167,0,0,0,0,0,0,0,0,0,-1,1581,1191,0,0
364,-167,0,0,0,0,0,0,0,0,0,-1,1588,1191,0,0
371,-167,0,0,0,0,0,0,0,0,0,-1,1595,1191,0,0
378,-167,0,0,0,0,0,0,0,0,0,-1,1602,1191,0,0
385,-167,0,0,0,0,0,0,0,0,0,-1,1609,1191,0,0
392,-167,0,0,0,0,0,0,0,0,0,-1,1616,1191,0,0
399,-167,0,0,0,0,0,0,0,0,0,-1,1623,1191,0,0
406,-167,0,0,0,0,0,0,0,0,0,-1,1630,1191,0,0
413,-167,0,0,0,0,0,0,0,0,0,-1,1637,1191,0,0
420,-167,0,0,0,0,0,0,0,0,0,-1,1644,1191,0,0
427,-167,0,0,0,0,0,0,0,0,0,-1,1651,1191,0,0
434,-167,0,0,0,0,0,0,0,0,0,-1,1658,1191,0,0
441,-167,0,0,0,0,0,0,0,0,0,-1,1665,1191,0,0
448,-167,0,0,0,0,0,0,0,0,0,-1,1672,1191,0,0
455,-167,0,0,0,0,0,0,0,0,0,-1,1679,1191,0,0
462,-167,0,0,0,0,0,0,0,0,0,-1,1686,1191,0,0
469,-167,0,0,0,0,0,0,0,0,0,-1,1693,1191,0,0
476,-167,0,0,0,0,0,0,0,0,0,-1,1700,1191,0,0
483,-167,0,0,0,0,0,0,0,0,0,-1,1707,1191,0,0
490,-167,0,0,0,0,0,0,0,0,0,-1,1714,1191,0,0
497,-167,0,0,0,0,0,0,0,0,0,-1,1721,1191,0,0
504,-167,0,0,0,0,0,0,0,0,0,-1,1728,1191,0,0
511,-167,0,0,0,0,0,0,0,0,0,-1,1735,1191,0,0
518,-167,0,0,0,0,0,0,0,0,0,-1,1742,1191,0,0
525,-167,0,0,0,0,0,0,0,0,0,-1,1749,1191,0,0
532,-167,0,0,0,0,0,0,0,0,0,-1,1756,1191,0,0
539,-167,0,0,0,0,0,0,0,0,0,-1,1763,1191,0,0
546,-167,0,0,0,0,0,0,0,0,0,-1,1770,1191,0,0
553,-167,0,0,0,0,0,0,0,0,0,-1,1777,1191,0,0
560,-167,0,0,0,0,0,0,0,0,0,-1,1784,1191,0,0
567,-167,0,0,0,0,0,0,0,0,0,-1,1791,1191,0,0
574,-167,0,0,0,0,0,0,0,0,0,-1,1798,1191,0,0
581,-167,0,0,0,0,0,0,0,0,0,-1,1805,1191,0,0
588,-167,0,0,0,0,0,0,0,0,0,-1,1812,1191,0,0
595,-167,0,0,0,0,0,0,0,0,0,-1,1819,1191,0,0
602,-167,0,0,0,0,0,0,0,0,0,-1,1826,1191,0,0
609,-167,0,0,0,0,0,0,0,0,0,-1,1833,1191,0,0
616,-167,0,0,0,0,0,0,0,0,0,-1,1840,1191,0,0
623,-167,0,0,0,0,0,0,0,0,0,-1,1847,1191,0,0
630,-167,0,0,0,0,0,0,0,0,0,-1,1854,1191,0,0
637,-167,20.9991,2.90283,-0.00302858,-0.00100198,0.00038917,-0.000929814,-0.00310074,1.38745,0.00183739,0.0402343,1861,1191,20.9991,-2.90282
644,-167,21.1475,2.84839,-0.00173096,-0.00146421,0.000597378,-0.000985501,-0.00220967,0.895229,0.00127823,0.0420557,1868,1191,21.1475,-2.84837
651,-167,21.0591,3.16699,-0.000384432,-0.00143839,0.000502699,-0.000183117,-0.00163971,0.38091,0.0010375,0.0402105,1875,1191,21.0591,-3.16701
658,-167,20.9309,3.54639,0.000400137,-0.00151047,0.000661092,0.000606577,-0.00171691,0.302676,0.00139159,0.0438106,1882,1191,20.931,-3.5464
665,-167,21.1959,3.1366,0.000397475,-0.00166113,0.00109339,0.000869829,-0.00213348,0.407791,0.00178439,0.0418681,1889,1191,21.1959,-3.13655
672,-167,21.1549,2.89966,-4.91886e-05,-0.00179392,0.00149907,0.000812873,-0.00265598,0.521882,0.00209486,0.0301056,1896,1191,21.1549,-2.89964
679,-167,21.0789,2.9137,-0.000767739,-0.00193081,0.00189256,0.000630617,-0.00332917,0.636339,0.00245678,0.0197187,1903,1191,21.0788,-2.91368
686,-167,21.1113,2.91553,-0.00146073,-0.00208726,0.00228455,0.00053193,-0.00407992,0.717261,0.00291349,0.023706,1910,1191,21.1113,-2.91555
693,-167,20.933,3.68188,0,0,0,0,0,0,0,-1,1917,1191,20.9329,-3.68185
700,-167,20.0844,4.40637,0,0,0,0,0,0,0,-1,1924,1191,20.0844,-4.40639
707,-167,19.3114,5.05176,-0.0030564,-0.0018988,0.00268162,0.000265775,-0.00522098,0.891688,0.00357254,0.0373771,1931,1191,19.3114,-5.05175
714,-167,19.4456,4.85278,-0.00351132,-0.00155636,0.00268711,0.000325531,-0.00539321,0.959841,0.00370875,0.0263619,1938,1191,19.4456,-4.85275
721,-167,19.4467,4.58289,-0.00379126,-0.00144823,0.00266516,0.000291524,-0.00553102,0.99247,0.00378826,0.0217817,1945,1191,19.4466,-4.5829
728,-167,19.3438,4.52588,-0.00350347,-0.00121308,0.00242739,0.000325695,-0.00504225,1.00581,0.00347515,0.0149567,1952,1191,19.3438,-4.52586
735,-167,19.2573,4.45703,-0.00279563,-0.000875312,0.00204718,0.000425691,-0.00409663,1.00467,0.00288348,0.0137981,1959,1191,19.2573,-4.45706
742,-167,19.2296,4.32739,-0.00161276,-0.000296161,0.00141734,0.000608299,-0.00251722,1.0028,0.00191342,0.0147965,1966,1191,19.2296,-4.32739
749,-167,19.2485,4.20264,-0.00107623,0.000400075,-0.000352072,0.000479739,-0.00115589,-1.34827,0.000970854,0.0137861,1973,1191,19.2485,-4.20268
756,-167,19.2605,4.08386,-0.00134151,0.00172304,-0.00246894,0.00309654,-0.00271501,-1.06312,0.00335771,0.0107015,1980,1191,19.2605,-4.08391
763,-167,19.2449,3.95911,-0.00178391,0.00279416,-0.00489035,0.00590468,-0.00489443,-1.00429,0.00624396,0.0122071,1987,1191,19.2449,-3.95912
770,-167,19.2162,3.89539,-0.00362036,0.00411092,-0.00803583,0.00916255,-0.00867199,-1.00958,0.0102981,0.0227168,1994,1191,19.2161,-3.89544
777,-167,19.3164,3.81702,-0.00735641,0.00585603,-0.0123864,0.0132878,-0.0147882,-1.03038,0.0162174,0.0408713,2001,1191,19.3164,-3.81707
784,-167,19.4144,3.73792,0,0,0,0,0,0,0,-1,2008,1191,19.4145,-3.73786
791,-167,20.1521,4.02063,-0.0232388,0.011712,-0.0262172,0.0257442,-0.037271,-1.07936,0.0365842,0.0476906,2015,1191,20.1521,-4.02069
798,-167,19.7841,4.02075,-0.0367856,0.0164857,-0.0363899,0.0349464,-0.0552463,-1.10132,0.0525106,0.0463856,2022,1191,19.7841,-4.02077
805,-167,19.5657,3.60291,-0.055524,0.0231185,-0.0491234,0.04672,-0.0791254,-1.12291,0.0734555,0.0482502,2029,1191,19.5658,-3.60286
812,-167,0,0,0,0,0,0,0,0,0,-1,2036,1191,0,0
-700,-174,0,0,0,0,0,0,0,0,0,-1,524,1198,0,0
-693,-174,0,0,0,0,0,0,0,0,0,-1,531,1198,0,0
-686,-174,-10.5677,4.55981,-0.0647729,0.0378832,-0.0887165,0.08905,-0.11594,-1.04765,0.11869,0.0463765,538,1198,-10.5677,-4.55983
-679,-174,-11.4694,3.4906,-0.0467095,0.0329969,-0.0712728,0.074802,-0.0885146,-1.04032,0.0944016,0.0484918,545,1198,-11.4693,-3.49065
-672,-174,-11.7562,3.51245,-0.0330519,0.0275668,-0.0568416,0.0616751,-0.0671602,-1.03033,0.0744055,0.0461299,552,1198,-11.7562,-3.51243
-665,-174,-11.4616,2.84302,0,0,0,0,0,0,0,-1,559,1198,-11.4616,-2.84304
-658,-174,-11.5344,2.41016,-0.0148877,0.0173081,-0.0346755,0.0394402,-0.0370198,-1.00272,0.0441516,0.0447783,566,1198,-11.5343,-2.41021
-651,-174,-11.3657,2.0658,-0.00917897,0.0129792,-0.0263154,0.0304527,-0.0266524,-0.984642,0.0329939,0.0448649,573,1198,-11.3657,-2.06579
-644,-174,-11.3861,1.80688,-0.00522814,0.00932981,-0.019513,0.0228773,-0.0187756,-0.96392,0.0240871,0.0408999,580,1198,-11.3861,-1.80685
-637,-174,-11.2781,1.42358,-0.00233617,0.00631518,-0.0135836,0.0162452,-0.0122662,-0.939546,0.0165144,0.0211944,587,1198,-11.2781,-1.42361
-630,-174,-11.2982,1.54236,-0.000381211,0.00494467,-0.00903428,0.0117003,-0.00713684,-0.928719,0.0109815,0.0116947,594,1198,-11.2982,-1.54241
-623,-174,-11.3293,1.68823,-0.000342832,0.00205618,-0.00663454,0.00759877,-0.00588543,-0.87483,0.00780603,0.0140756,601,1198,-11.3293,-1.68826
-616,-174,-11.3602,1.85083,-0.00154997,0.00025623,-0.00594834,0.00536964,-0.00666338,-0.860735,0.00696063,0.0199018,608,1198,-11.3602,-1.85084
-609,-174,-11.3657,2.01477,-0.00365077,0.000285588,-0.00691657,0.00550856,-0.00887374,-0.924014,0.00837905,0.0220309,615,1198,-11.3657,-2.01471
-602,-174,-11.3726,2.14551,-0.00587291,-0.000367271,-0.00764637,0.00500671,-0.0112469,-0.958183,0.00961179,0.0144154,622,1198,-11.3725,-2.14554
-595,-174,-11.361,2.31555,-0.00777865,0.000317067,-0.00883241,0.005985,-0.0134466,-1.00026,0.0114912,0.0131258,629,1198,-11.361,-2.31558
-588,-174,-11.4094,2.46936,-0.00911287,0.000805833,-0.00966426,0.00670894,-0.015016,-1.02246,0.0128449,0.0160915,636,1198,-11.4094,-2.46938
-581,-174,-11.4008,2.61438,-0.00998864,0.00132318,-0.0104656,0.00756337,-0.0162288,-1.03313,0.0140368,0.0189639,643,1198,-11.4008,-2.61442
-574,-174,-11.5847,2.30151,0,0,0,0,0,0,0,-1,650,1198,-11.5847,-2.30152
-567,-174,-12.3621,2.09094,0,0,0,0,0,0,0,-1,657,1198,-12.3621,-2.09093
-560,-174,-13.2261,2.12512,0,0,0,0,0,0,0,-1,664,1198,-13.2261,-2.12508
-553,-174,-13.3853,1.05066,-0.00939311,0.00319812,-0.00967832,0.00844826,-0.0146433,-1.07376,0.0134909,0.0389204,671,1198,-13.3853,-1.0506
-546,-174,-13.4261,1.15259,-0.00799787,0.00358925,-0.00814513,0.00779111,-0.0121997,-1.09453,0.0116349,0.0300431,678,1198,-13.4261,-1.15256
-539,-174,-13.4464,1.125,-0.00577911,0.00378158,-0.00592565,0.00661472,-0.00861224,-1.12481,0.00881647,0.0319272,685,1198,-13.4464,-1.12503
-532,-174,-13.2455,0.756348,0,0,0,0,0,0,0,-1,692,1198,-13.2455,-0.756326
-525,-174,-12.6808,0.76123,0.00219381,0.0025907,0.000392828,0.00283236,0.00195214,1.01929,0.00167384,0.0485861,699,1198,-12.6809,-0.761253
-518,-174,-13.0496,0.756958,0.00574534,0.000182607,0.00128044,0.00602592,-9.79737e-05,0.215719,0.00405033,0.0436555,706,1198,-13.0496,-0.756927
-511,-174,0,0,0,0,0,0,0,0,0,-1,713,1198,0,0
-504,-174,0,0,0,0,0,0,0,0,0,-1,720,1198,0,0
-497,-174,0,0,0,0,0,0,0,0,0,-1,727,1198,0,0
-490,-174,0,0,0,0,0,0,0,0,0,-1,734,1198,0,0
-483,-174,0,0,0,0,0,0,0,0,0,-1,741,1198,0,0
-476,-174,0,0,0,0,0,0,0,0,0,-1,748,1198,0,0
-469,-174,0,0,0,0,0,0,0,0,0,-1,755,1198,0,0
-462,-174,0,0,0,0,0,0,0,0,0,-1,762,1198,0,0
-455,-174,0,0,0,0,0,0,0,0,0,-1,769,1198,0,0
-448,-174,0,0,0,0,0,0,0,0,0,-1,776,1198,0,0
-441,-174,0,0,0,0,0,0,0,0,0,-1,783,1198,0,0
-434,-174,0,0,0,0,0,0,0,0,0,-1,790,1198,0,0
-427,-174,0,0,0,0,0,0,0,0,0,-1,797,1198,0,0
-420,-174,0,0,0,0,0,0,0,0,0,-1,804,1198,0,0
-413,-174,0,0,0,0,0,0,0,0,0,-1,811,1198,0,0
-406,-174,0,0,0,0,0,0,0,0,0,-1,818,1198,0,0
-399,-174,0,0,0,0,0,0,0,0,0,-1,825,1198,0,0
-392,-174,0,0,0,0,0,0,0,0,0,-1,832,1198,0,0
-385,-174,0,0,0,0,0,0,0,0,0,-1,839,1198,0,0
-378,-174,0,0,0,0,0,0,0,0,0,-1,846,1198,0,0
-371,-174,0,0,0,0,0,0,0,0,0,-1,853,1198,0,0
-364,-174,0,0,0,0,0,0,0,0,0,-1,860,1198,0,0
-357,-174,0,0,0,0,0,0,0,0,0,-1,867,1198,0,0
-350,-174,0,0,0,0,0,0,0,0,0,-1,874,1198,0,0
-343,-174,0,0,0,0,0,0,0,0,0,-1,881,1198,0,0
-336,-174,0,0,0,0,0,0,0,0,0,-1,888,1198,0,0
-329,-174,0,0,0,0,0,0,0,0,0,-1,895,1198,0,0
-322,-174,0,0,0,0,0,0,0,0,0,-1,902,1198,0,0
-315,-174,0,0,0,0,0,0,0,0,0,-1,909,1198,0,0
-308,-174,0,0,0,0,0,0,0,0,0,-1,916,1198,0,0
-301,-174,0,0,0,0,0,0,0,0,0,-1,923,1198,0,0
-294,-174,0,0,0,0,0,0,0,0,0,-1,930,1198,0,0
-287,-174,0,0,0,0,0,0,0,0,0,-1,937,1198,0,0
-280,-174,0,0,0,0,0,0,0,0,0,-1,944,1198,0,0
-273,-174,0,0,0,0,0,0,0,0,0,-1,951,1198,0,0
-266,-174,0,0,0,0,0,0,0,0,0,-1,958,1198,0,0
-259,-174,0,0,0,0,0,0,0,0,0,-1,965,1198,0,0
-252,-174,0,0,0,0,0,0,0,0,0,-1,972,1198,0,0
-245,-174,0,0,0,0,0,0,0,0,0,-1,979,1198,0,0
-238,-174,0,0,0,0,0,0,0,0,0,-1,986,1198,0,0
-231,-174,0,0,0,0,0,0,0,0,0,-1,993,1198,0,0
-224,-174,0,0,0,0,0,0,0,0,0,-1,1000,1198,0,0
-217,-174,0,0,0,0,0,0,0,0,0,-1,1007,1198,0,0
-210,-174,0,0,0,0,0,0,0,0,0,-1,1014,1198,0,0
-203,-174,0,0,0,0,0,0,0,0,0,-1,1021,1198,0,0
-196,-174,0,0,0,0,0,0,0,0,0,-1,1028,1198,0,0
-189,-174,0,0,0,0,0,0,0,0,0,-1,1035,1198,0,0
-182,-174,0,0,0,0,0,0,0,0,0,-1,1042,1198,0,0
-175,-174,0,0,0,0,0,0,0,0,0,-1,1049,1198,0,0
-168,-174,0,0,0,0,0,0,0,0,0,-1,1056,1198,0,0
-161,-174,0,0,0,0,0,0,0,0,0,-1,1063,1198,0,0
-154,-174,0,0,0,0,0,0,0,0,0,-1,1070,1198,0,0
-147,-174,0,0,0,0,0,0,0,0,0,-1,1077,1198,0,0
-140,-174,0,0,0,0,0,0,0,0,0,-1,1084,1198,0,0
-133,-174,0,0,0,0,0,0,0,0,0,-1,1091,1198,0,0
-126,-174,0,0,0,0,0,0,0,0,0,-1,1098,1198,0,0
-119,-174,0,0,0,0,0,0,0,0,0,-1,1105,1198,0,0
-112,-174,0,0,0,0,0,0,0,0,0,-1,1112,1198,0,0
-105,-174,0,0,0,0,0,0,0,0,0,-1,1119,1198,0,0
-98,-174,0,0,0,0,0,0,0,0,0,-1,1126,1198,0,0
-91,-174,0,0,0,0,0,0,0,0,0,-1,1133,1198,0,0
-84,-174,0,0,0,0,0,0,0,0,0,-1,1140,1198,0,0
-77,-174,0,0,0,0,0,0,0,0,0,-1,1147,1198,0,0
-70,-174,0,0,0,0,0,0,0,0,0,-1,1154,1198,0,0
-63,-174,0,0,0,0,0,0,0,0,0,-1,1161,1198,0,0
-56,-174,0,0,0,0,0,0,0,0,0,-1,1168,1198,0,0
-49,-174,0,0,0,0,0,0,0,0,0,-1,1175,1198,0,0
-42,-174,0,0,0,0,0,0,0,0,0,-1,1182,1198,0,0
-35,-174,0,0,0,0,0,0,0,0,0,-1,1189,1198,0,0
-28,-174,0,0,0,0,0,0,0,0,0,-1,1196,1198,0,0
-21,-174,0,0,0,0,0,0,0,0,0,-1,1203,1198,0,0
-14,-174,0,0,0,0,0,0,0,0,0,-1,1210,1198,0,0
-7,-174,0,0,0,0,0,0,0,0,0,-1,1217,1198,0,0
0,-174,0,0,0,0,0,0,0,0,0,-1,1224,1198,0,0
7,-174,0,0,0,0,0,0,0,0,0,-1,1231,1198,0,0
14,-174,0,0,0,0,0,0,0,0,0,-1,1238,1198,0,0
21,-174,0,0,0,0,0,0,0,0,0,-1,1245,1198,0,0
28,-174,0,0,0,0,0,0,0,0,0,-1,1252,1198,0,0
35,-174,0,0,0,0,0,0,0,0,0,-1,1259,1198,0,0
42,-174,0,0,0,0,0,0,0,0,0,-1,1266,1198,0,0
49,-174,0,0,0,0,0,0,0,0,0,-1,1273,1198,0,0
56,-174,0,0,0,0,0,0,0,0,0,-1,1280,1198,0,0
63,-174,0,0,0,0,0,0,0,0,0,-1,1287,1198,0,0
70,-174,0,0,0,0,0,0,0,0,0,-1,1294,1198,0,0
77,-174,0,0,0,0,0,0,0,0,0,-1,1301,1198,0,0
84,-174,0,0,0,0,0,0,0,0,0,-1,1308,1198,0,0
91,-174,0,0,0,0,0,0,0,0,0,-1,1315,1198,0,0
98,-174,0,0,0,0,0,0,0,0,0,-1,1322,1198,0,0
105,-174,0,0,0,0,0,0,0,0,0,-1,1329,1198,0,0
112,-174,0,0,0,0,0,0,0,0,0,-1,1336,1198,0,0
119,-174,0,0,0,0,0,0,0,0,0,-1,1343,1198,0,0
126,-174,0,0,0,0,0,0,0,0,0,-1,1350,1198,0,0
133,-174,0,0,0,0,0,0,0,0,0,-1,1357,1198,0,0
140,-174,0,0,0,0,0,0,0,0,0,-1,1364,1198,0,0
147,-174,0,0,0,0,0,0,0,0,0,-1,1371,1198,0,0
154,-174,0,0,0,0,0,0,0,0,0,-1,1378,1198,0,0
161,-174,0,0,0,0,0,0,0,0,0,-1,1385,1198,0,0
168,-174,0,0,0,0,0,0,0,0,0,-1,1392,1198,0,0
175,-174,0,0,0,0,0,0,0,0,0,-1,1399,1198,0,0
182,-174,0,0,0,0,0,0,0,0,0,-1,1406,1198,0,0
189,-174,0,0,0,0,0,0,0,0,0,-1,1413,1198,0,0
196,-174,0,0,0,0,0,0,0,0,0,-1,1420,1198,0,0
203,-174,0,0,0,0,0,0,0,0,0,-1,1427,1198,0,0
210,-174,0,0,0,0,0,0,0,0,0,-1,1434,1198,0,0
217,-174,0,0,0,0,0,0,0,0,0,-1,1441,1198,0,0
224,-174,0,0,0,0,0,0,0,0,0,-1,1448,1198,0,0
231,-174,0,0,0,0,0,0,0,0,0,-1,1455,1198,0,0
238,-174,0,0,0,0,0,0,0,0,0,-1,1462,1198,0,0
245,-174,0,0,0,0,0,0,0,0,0,-1,1469,1198,0,0
252,-174,0,0,0,0,0,0,0,0,0,-1,1476,1198,0,0
259,-174,0,0,0,0,0,0,0,0,0,-1,1483,1198,0,0
266,-174,0,0,0,0,0,0,0,0,0,-1,1490,1198,0,0
273,-174,0,0,0,0,0,0,0,0,0,-1,1497,1198,0,0
280,-174,0,0,0,0,0,0,0,0,0,-1,1504,1198,0,0
287,-174,0,0,0,0,0,0,0,0,0,-1,1511,1198,0,0
294,-174,0,0,0,0,0,0,0,0,0,-1,1518,1198,0,0
301,-174,0,0,0,0,0,0,0,0,0,-1,1525,1198,0,0
308,-174,0,0,0,0,0,0,0,0,0,-1,1532,1198,0,0
315,-174,0,0,0,0,0,0,0,0,0,-1,1539,1198,0,0
322,-174,0,0,0,0,0,0,0,0,0,-1,1546,1198,0,0
329,-174,0,0,0,0,0,0,0,0,0,-1,1553,1198,0,0
336,-174,0,0,0,0,0,0,0,0,0,-1,1560,1198,0,0
343,-174,0,0,0,0,0,0,0,0,0,-1,1567,1198,0,0
350,-174,0,0,0,0,0,0,0,0,0,-1,1574,1198,0,0
357,-174,0,0,0,0,0,0,0,0,0,-1,1581,1198,0,0
364,-174,0,0,0,0,0,0,0,0,0,-1,1588,1198,0,0
371,-174,0,0,0,0,0,0,0,0,0,-1,1595,1198,0,0
378,-174,0,0,0,0,0,0,0,0,0,-1,1602,1198,0,0
385,-174,0,0,0,0,0,0,0,0,0,-1,1609,1198,0,0
392,-174,0,0,0,0,0,0,0,0,0,-1,1616,1198,0,0
399,-174,0,0,0,0,0,0,0,0,0,-1,1623,1198,0,0
406,-174,0,0,0,0,0,0,0,0,0,-1,1630,1198,0,0
413,-174,0,0,0,0,0,0,0,0,0,-1,1637,1198,0,0
420,-174,0,0,0,0,0,0,0,0,0,-1,1644,1198,0,0
427,-174,0,0,0,0,0,0,0,0,0,-1,1651,1198,0,0
434,-174,0,0,0,0,0,0,0,0,0,-1,1658,1198,0,0
441,-174,0,0,0,0,0,0,0,0,0,-1,1665,1198,0,0
448,-174,0,0,0,0,0,0,0,0,0,-1,1672,1198,0,0
455,-174,0,0,0,0,0,0,0,0,0,-1,1679,1198,0,0
462,-174,0,0,0,0,0,0,0,0,0,-1,1686,1198,0,0
469,-174,0,0,0,0,0,0,0,0,0,-1,1693,1198,0,0
476,-174,0,0,0,0,0,0,0,0,0,-1,1700,1198,0,0
483,-174,0,0,0,0,0,0,0,0,0,-1,1707,1198,0,0
490,-174,0,0,0,0,0,0,0,0,0,-1,1714,1198,0,0
497,-174,0,0,0,0,0,0,0,0,0,-1,1721,1198,0,0
504,-174,0,0,0,0,0,0,0,0,0,-1,1728,1198,0,0
511,-174,0,0,0,0,0,0,0,0,0,-1,1735,1198,0,0
518,-174,0,0,0,0,0,0,0,0,0,-1,1742,1198,0,0
525,-174,0,0,0,0,0,0,0,0,0,-1,1749,1198,0,0
532,-174,0,0,0,0,0,0,0,0,0,-1,1756,1198,0,0
539,-174,0,0,0,0,0,0,0,0,0,-1,1763,1198,0,0
546,-174,0,0,0,0,0,0,0,0,0,-1,1770,1198,0,0
553,-174,0,0,0,0,0,0,0,0,0,-1,1777,1198,0,0
560,-174,0,0,0,0,0,0,0,0,0,-1,1784,1198,0,0
567,-174,0,0,0,0,0,0,0,0,0,-1,1791,1198,0,0
574,-174,0,0,0,0,0,0,0,0,0,-1,1798,1198,0,0
581,-174,0,0,0,0,0,0,0,0,0,-1,1805,1198,0,0
588,-174,0,0,0,0,0,0,0,0,0,-1,1812,1198,0,0
595,-174,0,0,0,0,0,0,0,0,0,-1,1819,1198,0,0
602,-174,0,0,0,0,0,0,0,0,0,-1,1826,1198,0,0
609,-174,0,0,0,0,0,0,0,0,0,-1,1833,1198,0,0
616,-174,0,0,0,0,0,0,0,0,0,-1,1840,1198,0,0
623,-174,0,0,0,0,0,0,0,0,0,-1,1847,1198,0,0
630,-174,0,0,0,0,0,0,0,0,0,-1,1854,1198,0,0
637,-174,20.9773,3.00671,0,0,0,0,0,0,0,-1,1861,1198,20.9773,-3.00674
644,-174,21.1383,2.89685,0,0,0,0,0,0,0,-1,1868,1198,21.1383,-2.89679
651,-174,20.8978,3.29041,0,0,0,0,0,0,0,-1,1875,1198,20.8978,-3.2904
658,-174,21.1038,3.02747,0,0,0,0,0,0,0,-1,1882,1198,21.1038,-3.02752
665,-174,21.123,2.96252,0.00115234,-0.00120591,0.000978472,0.00150545,-0.00155902,0.346334,0.00176936,0.040515,1889,1198,21.1231,-2.96253
672,-174,21.1154,2.92151,0.000778273,-0.00148506,0.00140171,0.00144812,-0.00215491,0.445796,0.00209351,0.0281977,1896,1198,21.1153,-2.92151
679,-174,21.0796,2.93933,0.000113046,-0.00172684,0.00177944,0.00119627,-0.00281007,0.546826,0.00237479,0.0200745,1903,1198,21.0796,-2.93933
686,-174,21.118,2.87671,-0.000512325,-0.00195775,0.00214669,0.00103005,-0.00350012,0.623026,0.00274203,0.0407109,1910,1198,21.118,-2.87673
693,-174,21.2057,2.90552,0,0,0,0,0,0,0,-1,1917,1198,21.2056,-2.90551
700,-174,19.7902,4.34888,0,0,0,0,0,0,0,-1,1924,1198,19.7902,-4.34887
707,-174,19.265,4.97986,-0.00209668,-0.00184752,0.0024401,0.000471172,-0.00441538,0.810904,0.00311255,0.0370521,1931,1198,19.265,-4.97984
714,-174,19.3364,4.84338,-0.00257302,-0.00151809,0.00241461,0.000425991,-0.0045171,0.892933,0.00316297,0.0231115,1938,1198,19.3364,-4.84334
721,-174,19.2782,4.677,-0.00287418,-0.0013936,0.00235191,0.000331774,-0.00459956,0.937869,0.00318273,0.0176893,1945,1198,19.2783,-4.67697
728,-174,19.1631,4.56641,-0.00260621,-0.00111892,0.00206208,0.000329504,-0.00405463,0.958454,0.00281935,0.0125945,1952,1198,19.163,-4.56644
735,-174,19.1176,4.45081,-0.00191746,-0.000747152,0.00163517,0.00040441,-0.00306902,0.957225,0.00219328,0.0117339,1959,1198,19.1176,-4.4508
742,-174,19.083,4.32129,-0.000681563,-7.1663e-05,0.00100775,0.000676267,-0.00142949,0.932321,0.00124142,0.0199639,1966,1198,19.083,-4.32126
749,-174,19.1228,4.21118,-0.000150131,0.000634438,-0.000776642,0.00111225,-0.000627938,-1.01926,0.00101758,0.0177496,1973,1198,19.1228,-4.21123
756,-174,19.1288,4.06262,-0.000471062,0.00198571,-0.00289866,0.00390553,-0.00239088,-0.985815,0.00367012,0.0103438,1980,1198,19.1288,-4.06267
763,-174,19.1132,3.9187,-0.0009406,0.00307321,-0.0053121,0.00674487,-0.00461226,-0.966009,0.00659546,0.0123963,1987,1198,19.1131,-3.91874
770,-174,19.1403,3.88965,-0.00281441,0.00444718,-0.00854649,0.0101021,-0.00846936,-0.986261,0.0107361,0.02391,1994,1198,19.1402,-3.88961
777,-174,19.2274,3.88733,-0.00667612,0.00630387,-0.013092,0.0144262,-0.0147985,-1.01551,0.0168733,0.047034,2001,1198,19.2274,-3.88732
784,-174,19.3054,3.89966,0,0,0,0,0,0,0,-1,2008,1198,19.3054,-3.89968
791,-174,20.0864,3.87976,0,0,0,0,0,0,0,-1,2015,1198,20.0865,-3.87978
798,-174,21.9957,4.57129,-0.0387632,0.0177015,-0.0382894,0.0370417,-0.0581033,-1.10307,0.0553788,0.0456327,2022,1198,21.9957,-4.57126
805,-174,19.3328,3.05615,-0.0598895,0.0248748,-0.0518047,0.0494252,-0.0844399,-1.12824,0.0781634,0.0476778,2029,1198,19.3328,-3.05621
812,-174,0,0,0,0,0,0,0,0,0,-1,2036,1198,0,0
-700,-181,0,0,0,0,0,0,0,0,0,-1,524,1205,0,0
-693,-181,0,0,0,0,0,0,0,0,0,-1,531,1205,0,0
-686,-181,-10.3835,5.52942,-0.0577092,0.0487403,-0.0822629,0.0934955,-0.102464,-1.07253,0.113177,0.0450573,538,1205,-10.3835,-5.52939
-679,-181,-11.1957,4.86719,-0.0396833,0.0424111,-0.0662196,0.0792735,-0.0765457,-1.06285,0.0899669,0.0445977,545,1205,-11.1958,-4.86718
-672,-181,-12.0781,4.28223,-0.0266283,0.0353786,-0.0529494,0.0657336,-0.0569833,-1.05025,0.0709106,0.044019,552,1205,-12.0781,-4.28228
-665,-181,-7.58331,1.17749,0,0,0,0,0,0,0,-1,559,1205,-7.58332,-1.17747
-658,-181,-11.678,2.47961,-0.0103497,0.0221724,-0.0325512,0.0422982,-0.0304755,-1.01704,0.0422004,0.0454534,566,1205,-11.6781,-2.47962
-651,-181,-11.3655,2.47424,-0.00560612,0.0166416,-0.0248381,0.032733,-0.0216975,-0.995933,0.03164,0.0445234,573,1205,-11.3655,-2.4742
-644,-181,-11.1023,1.36938,0,0,0,0,0,0,0,-1,580,1205,-11.1023,-1.36942
-637,-181,-11.1232,1.42151,-0.000444409,0.00823659,-0.0131022,0.0176985,-0.00990632,-0.945349,0.0161479,0.0229882,587,1205,-11.1233,-1.42148
-630,-181,-11.1375,1.54126,0.000937042,0.00630644,-0.00884997,0.01287,-0.00562648,-0.932665,0.0109485,0.0121166,594,1205,-11.1374,-1.54125
-623,-181,-11.1688,1.68323,0.000717896,0.00283925,-0.00653438,0.00839848,-0.00484133,-0.865858,0.00773542,0.0150675,601,1205,-11.1688,-1.68322
-616,-181,-11.1816,1.83984,-0.000515601,0.00059739,-0.00578478,0.00585238,-0.00577059,-0.833351,0.00671058,0.0153693,608,1205,-11.1816,-1.8398
-609,-181,-11.1684,2.02905,-0.00249604,0.000630533,-0.00662815,0.00587726,-0.00774276,-0.901209,0.00788807,0.0147019,615,1205,-11.1684,-2.02911
-602,-181,-11.1649,2.19519,-0.00454704,-0.000151752,-0.00721162,0.00518964,-0.00988843,-0.933296,0.00884511,0.0120799,622,1205,-11.1649,-2.19519
-595,-181,-11.1887,2.33667,-0.00632119,0.000567918,-0.00837943,0.00618316,-0.0119364,-0.980406,0.0106357,0.0112627,629,1205,-11.1887,-2.33663
-588,-181,-11.217,2.50842,-0.0075707,0.00114065,-0.00920229,0.00696604,-0.0133961,-1.00644,0.0119499,0.0128463,636,1205,-11.217,-2.50842
-581,-181,-11.1969,2.72961,-0.00845318,0.00174379,-0.00995795,0.00783259,-0.014542,-1.022,0.0131101,0.0155604,643,1205,-11.1969,-2.72964
-574,-181,-11.5372,2.75024,-0.00882937,0.00236202,-0.0103459,0.00852853,-0.0149959,-1.0333,0.0137518,0.0371806,650,1205,-11.5372,-2.75019
-567,-181,-12.02,2.56372,-0.00892283,0.00286285,-0.0102293,0.00877527,-0.0148352,-1.04672,0.0137804,0.0488402,657,1205,-12.02,-2.56376
-560,-181,-12.7542,2.1366,0,0,0,0,0,0,0,-1,664,1205,-12.7542,-2.13662
-553,-181,-13.4897,1.7428,0,0,0,0,0,0,0,-1,671,1205,-13.4897,-1.74275
-546,-181,-13.3918,1.06885,-0.00738406,0.0040289,-0.00769638,0.00790356,-0.0112587,-1.1044,0.0111197,0.034464,678,1205,-13.3919,-1.06886
-539,-181,-13.5179,1.32007,-0.00579325,0.00414843,-0.005776,0.00679805,-0.00844287,-1.14071,0.00881641,0.0377233,685,1205,-13.518,-1.32006
-532,-181,-13.5762,1.12891,-0.00324163,0.00381582,-0.00326574,0.00509511,-0.00452091,-1.19744,0.00555511,0.0440056,692,1205,-13.5762,-1.12889
-525,-181,-12.3809,0.421143,0,0,0,0,0,0,0,-1,699,1205,-12.3808,-0.421133
-518,-181,-13.2316,0.155151,0,0,0,0,0,0,0,-1,706,1205,-13.2316,-0.155177
-511,-181,0,0,0,0,0,0,0,0,0,-1,713,1205,0,0
-504,-181,0,0,0,0,0,0,0,0,0,-1,720,1205,0,0
-497,-181,0,0,0,0,0,0,0,0,0,-1,727,1205,0,0
-490,-181,0,0,0,0,0,0,0,0,0,-1,734,1205,0,0
-483,-181,0,0,0,0,0,0,0,0,0,-1,741,1205,0,0
-476,-181,0,0,0,0,0,0,0,0,0,-1,748,1205,0,0
-469,-181,0,0,0,0,0,0,0,0,0,-1,755,1205,0,0
-462,-181,0,0,0,0,0,0,0,0,0,-1,762,1205,0,0
-455,-181,0,0,0,0,0,0,0,0,0,-1,769,1205,0,0
-448,-181,0,0,0,0,0,0,0,0,0,-1,776,1205,0,0
-441,-181,0,0,0,0,0,0,0,0,0,-1,783,1205,0,0
-434,-181,0,0,0,0,0,0,0,0,0,-1,790,1205,0,0
-427,-181,0,0,0,0,0,0,0,0,0,-1,797,1205,0,0
-420,-181,0,0,0,0,0,0,0,0,0,-1,804,1205,0,0
-413,-181,0,0,0,0,0,0,0,0,0,-1,811,1205,0,0
-406,-181,0,0,0,0,0,0,0,0,0,-1,818,1205,0,0
-399,-181,0,0,0,0,0,0,0,0,0,-1,825,1205,0,0
-392,-181,0,0,0,0,0,0,0,0,0,-1,832,1205,0,0
-385,-181,0,0,0,0,0,0,0,0,0,-1,839,1205,0,0
-378,-181,0,0,0,0,0,0,0,0,0,-1,846,1205,0,0
-371,-181,0,0,0,0,0,0,0,0,0,-1,853,1205,0,0
-364,-181,0,0,0,0,0,0,0,0,0,-1,860,1205,0,0
-357,-181,0,0,0,0,0,0,0,0,0,-1,867,1205,0,0
-350,-181,0,0,0,0,0,0,0,0,0,-1,874,1205,0,0
-343,-181,0,0,0,0,0,0,0,0,0,-1,881,1205,0,0
-336,-181,0,0,0,0,0,0,0,0,0,-1,888,1205,0,0
-329,-181,0,0,0,0,0,0,0,0,0,-1,895,1205,0,0
-322,-181,0,0,0,0,0,0,0,0,0,-1,902,1205,0,0
-315,-181,0,0,0,0,0,0,0,0,0,-1,909,1205,0,0
-308,-181,0,0,0,0,0,0,0,0,0,-1,916,1205,0,0
-301,-181,0,0,0,0,0,0,0,0,0,-1,923,1205,0,0
-294,-181,0,0,0,0,0,0,0,0,0,-1,930,1205,0,0
-287,-181,0,0,0,0,0,0,0,0,0,-1,937,1205,0,0
-280,-181,0,0,0,0,0,0,0,0,0,-1,944,1205,0,0
-273,-181,0,0,0,0,0,0,0,0,0,-1,951,1205,0,0
-266,-181,0,0,0,0,0,0,0,0,0,-1,958,1205,0,0
-259,-181,0,0,0,0,0,0,0,0,0,-1,965,1205,0,0
-252,-181,0,0,0,0,0,0,0,0,0,-1,972,1205,0,0
-245,-181,0,0,0,0,0,0,0,0,0,-1,979,1205,0,0
-238,-181,0,0,0,0,0,0,0,0,0,-1,986,1205,0,0
-231,-181,0,0,0,0,0,0,0,0,0,-1,993,1205,0,0
-224,-181,0,0,0,0,0,0,0,0,0,-1,1000,1205,0,0
-217,-181,0,0,0,0,0,0,0,0,0,-1,1007,1205,0,0
-210,-181,0,0,0,0,0,0,0,0,0,-1,1014,1205,0,0
-203,-181,0,0,0,0,0,0,0,0,0,-1,1021,1205,0,0
-196,-181,0,0,0,0,0,0,0,0,0,-1,1028,1205,0,0
-189,-181,0,0,0,0,0,0,0,0,0,-1,1035,1205,0,0
-182,-181,0,0,0,0,0,0,0,0,0,-1,1042,1205,0,0
-175,-181,0,0,0,0,0,0,0,0,0,-1,1049,1205,0,0
-168,-181,0,0,0,0,0,0,0,0,0,-1,1056,1205,0,0
-161,-181,0,0,0,0,0,0,0,0,0,-1,1063,1205,0,0
-154,-181,0,0,0,0,0,0,0,0,0,-1,1070,1205,0,0
-147,-181,0,0,0,0,0,0,0,0,0,-1,1077,1205,0,0
-140,-181,0,0,0,0,0,0,0,0,0,-1,1084,1205,0,0
-133,-181,0,0,0,0,0,0,0,0,0,-1,1091,1205,0,0
-126,-181,0,0,0,0,0,0,0,0,0,-1,1098,1205,0,0
-119,-181,0,0,0,0,0,0,0,0,0,-1,1105,1205,0,0
-112,-181,0,0,0,0,0,0,0,0,0,-1,1112,1205,0,0
-105,-181,0,0,0,0,0,0,0,0,0,-1,1119,1205,0,0
-98,-181,0,0,0,0,0,0,0,0,0,-1,1126,1205,0,0
-91,-181,0,0,0,0,0,0,0,0,0,-1,1133,1205,0,0
-84,-181,0,0,0,0,0,0,0,0,0,-1,1140,1205,0,0
-77,-181,0,0,0,0,0,0,0,0,0,-1,1147,1205,0,0
-70,-181,0,0,0,0,0,0,0,0,0,-1,1154,1205,0,0
-63,-181,0,0,0,0,0,0,0,0,0,-1,1161,1205,0,0
-56,-181,0,0,0,0,0,0,0,0,0,-1,1168,1205,0,0
-49,-181,0,0,0,0,0,0,0,0,0,-1,1175,1205,0,0
-42,-181,0,0,0,0,0,0,0,0,0,-1,1182,1205,0,0
-35,-181,0,0,0,0,0,0,0,0,0,-1,1189,1205,0,0
-28,-181,0,0,0,0,0,0,0,0,0,-1,1196,1205,0,0
-21,-181,0,0,0,0,0,0,0,0,0,-1,1203,1205,0,0
-14,-181,0,0,0,0,0,0,0,0,0,-1,1210,1205,0,0
-7,-181,0,0,0,0,0,0,0,0,0,-1,1217,1205,0,0
0,-181,0,0,0,0,0,0,0,0,0,-1,1224,1205,0,0
7,-181,0,0,0,0,0,0,0,0,0,-1,1231,1205,0,0
14,-181,0,0,0,0,0,0,0,0,0,-1,1238,1205,0,0
21,-181,0,0,0,0,0,0,0,0,0,-1,1245,1205,0,0
28,-181,0,0,0,0,0,0,0,0,0,-1,1252,1205,0,0
35,-181,0,0,0,0,0,0,0,0,0,-1,1259,1205,0,0
42,-181,0,0,0,0,0,0,0,0,0,-1,1266,1205,0,0
49,-181,0,0,0,0,0,0,0,0,0,-1,1273,1205,0,0
56,-181,0,0,0,0,0,0,0,0,0,-1,1280,1205,0,0
63,-181,0,0,0,0,0,0,0,0,0,-1,1287,1205,0,0
70,-181,0,0,0,0,0,0,0,0,0,-1,1294,1205,0,0
77,-181,0,0,0,0,0,0,0,0,0,-1,1301,1205,0,0
84,-181,0,0,0,0,0,0,0,0,0,-1,1308,1205,0,0
91,-181,0,0,0,0,0,0,0,0,0,-1,1315,1205,0,0
98,-181,0,0,0,0,0,0,0,0,0,-1,1322,1205,0,0
105,-181,0,0,0,0,0,0,0,0,0,-1,1329,1205,0,0
112,-181,0,0,0,0,0,0,0,0,0,-1,1336,1205,0,0
119,-181,0,0,0,0,0,0,0,0,0,-1,1343,1205,0,0
126,-181,0,0,0,0,0,0,0,0,0,-1,1350,1205,0,0
133,-181,0,0,0,0,0,0,0,0,0,-1,1357,1205,0,0
140,-181,0,0,0,0,0,0,0,0,0,-1,1364,1205,0,0
147,-181,0,0,0,0,0,0,0,0,0,-1,1371,1205,0,0
154,-181,0,0,0,0,0,0,0,0,0,-1,1378,1205,0,0
161,-181,0,0,0,0,0,0,0,0,0,-1,1385,1205,0,0
168,-181,0,0,0,0,0,0,0,0,0,-1,1392,1205,0,0
175,-181,0,0,0,0,0,0,0,0,0,-1,1399,1205,0,0
182,-181,0,0,0,0,0,0,0,0,0,-1,1406,1205,0,0
189,-181,0,0,0,0,0,0,0,0,0,-1,1413,1205,0,0
196,-181,0,0,0,0,0,0,0,0,0,-1,1420,1205,0,0
203,-181,0,0,0,0,0,0,0,0,0,-1,1427,1205,0,0
210,-181,0,0,0,0,0,0,0,0,0,-1,1434,1205,0,0
217,-181,0,0,0,0,0,0,0,0,0,-1,1441,1205,0,0
224,-181,0,0,0,0,0,0,0,0,0,-1,1448,1205,0,0
231,-181,0,0,0,0,0,0,0,0,0,-1,1455,1205,0,0
238,-181,0,0,0,0,0,0,0,0,0,-1,1462,1205,0,0
245,-181,0,0,0,0,0,0,0,0,0,-1,1469,1205,0,0
252,-181,0,0,0,0,0,0,0,0,0,-1,1476,1205,0,0
259,-181,0,0,0,0,0,0,0,0,0,-1,1483,1205,0,0
266,-181,0,0,0,0,0,0,0,0,0,-1,1490,1205,0,0
273,-181,0,0,0,0,0,0,0,0,0,-1,1497,1205,0,0
280,-181,0,0,0,0,0,0,0,0,0,-1,1504,1205,0,0
287,-181,0,0,0,0,0,0,0,0,0,-1,1511,1205,0,0
294,-181,0,0,0,0,0,0,0,0,0,-1,1518,1205,0,0
301,-181,0,0,0,0,0,0,0,0,0,-1,1525,1205,0,0
308,-181,0,0,0,0,0,0,0,0,0,-1,1532,1205,0,0
315,-181,0,0,0,0,0,0,0,0,0,-1,1539,1205,0,0
322,-181,0,0,0,0,0,0,0,0,0,-1,1546,1205,0,0
329,-181,0,0,0,0,0,0,0,0,0,-1,1553,1205,0,0
336,-181,0,0,0,0,0,0,0,0,0,-1,1560,1205,0,0
343,-181,0,0,0,0,0,0,0,0,0,-1,1567,1205,0,0
350,-181,0,0,0,0,0,0,0,0,0,-1,1574,1205,0,0
357,-181,0,0,0,0,0,0,0,0,0,-1,1581,1205,0,0
364,-181,0,0,0,0,0,0,0,0,0,-1,1588,1205,0,0
371,-181,0,0,0,0,0,0,0,0,0,-1,1595,1205,0,0
378,-181,0,0,0,0,0,0,0,0,0,-1,1602,1205,0,0
385,-181,0,0,0,0,0,0,0,0,0,-1,1609,1205,0,0
392,-181,0,0,0,0,0,0,0,0,0,-1,1616,1205,0,0
399,-181,0,0,0,0,0,0,0,0,0,-1,1623,1205,0,0
406,-181,0,0,0,0,0,0,0,0,0,-1,1630,1205,0,0
413,-181,0,0,0,0,0,0,0,0,0,-1,1637,1205,0,0
420,-181,0,0,0,0,0,0,0,0,0,-1,1644,1205,0,0
427,-181,0,0,0,0,0,0,0,0,0,-1,1651,1205,0,0
434,-181,0,0,0,0,0,0,0,0,0,-1,1658,1205,0,0
441,-181,0,0,0,0,0,0,0,0,0,-1,1665,1205,0,0
448,-181,0,0,0,0,0,0,0,0,0,-1,1672,1205,0,0
455,-181,0,0,0,0,0,0,0,0,0,-1,1679,1205,0,0
462,-181,0,0,0,0,0,0,0,0,0,-1,1686,1205,0,0
469,-181,0,0,0,0,0,0,0,0,0,-1,1693,1205,0,0
476,-181,0,0,0,0,0,0,0,0,0,-1,1700,1205,0,0
483,-181,0,0,0,0,0,0,0,0,0,-1,1707,1205,0,0
490,-181,0,0,0,0,0,0,0,0,0,-1,1714,1205,0,0
497,-181,0,0,0,0,0,0,0,0,0,-1,1721,1205,0,0
504,-181,0,0,0,0,0,0,0,0,0,-1,1728,1205,0,0
511,-181,0,0,0,0,0,0,0,0,0,-1,1735,1205,0,0
518,-181,0,0,0,0,0,0,0,0,0,-1,1742,1205,0,0
525,-181,0,0,0,0,0,0,0,0,0,-1,1749,1205,0,0
532,-181,0,0,0,0,0,0,0,0,0,-1,1756,1205,0,0
539,-181,0,0,0,0,0,0,0,0,0,-1,1763,1205,0,0
546,-181,0,0,0,0,0,0,0,0,0,-1,1770,1205,0,0
553,-181,0,0,0,0,0,0,0,0,0,-1,1777,1205,0,0
560,-181,0,0,0,0,0,0,0,0,0,-1,1784,1205,0,0
567,-181,0,0,0,0,0,0,0,0,0,-1,1791,1205,0,0
574,-181,0,0,0,0,0,0,0,0,0,-1,1798,1205,0,0
581,-181,0,0,0,0,0,0,0,0,0,-1,1805,1205,0,0
588,-181,0,0,0,0,0,0,0,0,0,-1,1812,1205,0,0
595,-181,0,0,0,0,0,0,0,0,0,-1,1819,1205,0,0
602,-181,0,0,0,0,0,0,0,0,0,-1,1826,1205,0,0
609,-181,0,0,0,0,0,0,0,0,0,-1,1833,1205,0,0
616,-181,0,0,0,0,0,0,0,0,0,-1,1840,1205,0,0
623,-181,0,0,0,0,0,0,0,0,0,-1,1847,1205,0,0
630,-181,21.1613,3.31836,-0.00230299,0.00107042,-0.00193751,0.00195255,-0.00318512,-1.14355,0.00299455,0.0366502,1854,1205,21.1613,-3.3184
637,-181,21.0548,3.12891,-0.000822091,0.000923406,-0.00154563,0.00182567,-0.00172435,-1.04241,0.00204988,0.0369657,1861,1205,21.0548,-3.12891
644,-181,20.9585,2.96167,0.000334735,0.000407483,-0.00101784,0.0013896,-0.000647382,-0.803259,0.00120179,0.0409379,1868,1205,20.9585,-2.96168
651,-181,21.2161,2.9021,0.00141012,0.000101974,-0.000592862,0.00163883,-0.000126731,-0.368174,0.00113715,0.0415766,1875,1205,21.2161,-2.90207
658,-181,21.0601,2.98315,0.00187791,-0.000330695,3.51965e-05,0.00187847,-0.000331255,0.0159307,0.00137609,0.0387338,1882,1205,21.0601,-2.9831
665,-181,21.0774,2.95276,0.0018604,-0.00076111,0.000662137,0.00201815,-0.000918859,0.233882,0.00173482,0.0354626,1889,1205,21.0774,-2.95282
672,-181,21.1233,2.99243,0.00150115,-0.00113702,0.00115715,0.00193677,-0.00157263,0.360047,0.00202978,0.0242996,1896,1205,21.1233,-2.99247
679,-181,21.1045,2.91968,0.000853785,-0.00145728,0.00156103,0.00164043,-0.00224393,0.466787,0.00225164,0.0262126,1903,1205,21.1045,-2.91971
686,-181,21.1228,2.88232,0.000266742,-0.00175857,0.00193215,0.00143553,-0.00292736,0.544024,0.00256753,0.0443108,1910,1205,21.1228,-2.88227
693,-181,21.1495,2.82324,0,0,0,0,0,0,0,-1,1917,1205,21.1496,-2.82328
700,-181,19.3424,5.00244,0,0,0,0,0,0,0,-1,1924,1205,19.3424,-5.00242
707,-181,19.2355,4.91333,-0.00133957,-0.00175961,0.00223809,0.000698331,-0.00379752,0.738615,0.0027937,0.0294964,1931,1205,19.2355,-4.91335
714,-181,19.1959,4.8075,-0.00182146,-0.00148625,0.00219941,0.000551927,-0.00385964,0.823426,0.00277542,0.0206734,1938,1205,19.196,-4.80753
721,-181,19.0825,4.71289,-0.00212419,-0.00133586,0.00208856,0.000395408,-0.00385546,0.878663,0.00271173,0.0131807,1945,1205,19.0826,-4.71289
728,-181,18.9919,4.59021,-0.0018996,-0.00103257,0.00173451,0.000321775,-0.00325395,0.907856,0.00228412,0.0102418,1952,1205,18.9919,-4.59024
735,-181,18.9871,4.45166,-0.00125837,-0.000648608,0.00125432,0.000337351,-0.00224433,0.904619,0.00162042,0.0110195,1959,1205,18.9871,-4.45164
742,-181,18.9836,4.34094,-7.8311e-06,0.000100033,0.000654282,0.000702602,-0.0006104,0.82652,0.000758685,0.0167339,1966,1205,18.9837,-4.34093
749,-181,18.9919,4.18909,0.000487207,0.000793842,-0.00107109,0.00172253,-0.000441479,-0.856486,0.00132035,0.0154333,1973,1205,18.9919,-4.18913
756,-181,18.9877,4.04602,0.000123761,0.00212459,-0.0031085,0.00438969,-0.00214134,-0.94108,0.00384445,0.011351,1980,1205,18.9876,-4.04602
763,-181,18.9763,3.91345,-0.000341485,0.00319656,-0.00541414,0.00712335,-0.00426828,-0.943301,0.00664546,0.0111991,1987,1205,18.9763,-3.91344
770,-181,18.9799,3.79834,-0.00214661,0.00457995,-0.00857694,0.0104295,-0.00799612,-0.97225,0.0106689,0.0233783,1994,1205,18.9799,-3.79837
777,-181,18.9637,3.69434,-0.00595095,0.00646833,-0.013065,0.0147243,-0.0142069,-1.00724,0.0167043,0.0444247,2001,1205,18.9638,-3.69429
784,-181,18.9487,3.58923,0,0,0,0,0,0,0,-1,2008,1205,18.9488,-3.58922
791,-181,21.2664,4.5813,0,0,0,0,0,0,0,-1,2015,1205,21.2664,-4.58136
798,-181,21.6045,4.08826,0,0,0,0,0,0,0,-1,2022,1205,21.6045,-4.0882
805,-181,0,0,0,0,0,0,0,0,0,-1,2029,1205,0,0
812,-181,0,0,0,0,0,0,0,0,0,-1,2036,1205,0,0
-700,-188,0,0,0,0,0,0,0,0,0,-1,524,1212,0,0
-693,-188,0,0,0,0,0,0,0,0,0,-1,531,1212,0,0
-686,-188,0,0,0,0,0,0,0,0,0,-1,538,1212,0,0
-679,-188,-8.27521,1.51855,-0.0279758,0.0474671,-0.0609207,0.0813993,-0.061908,-1.0626,0.0829932,0.0487906,545,1212,-8.27521,-1.5186
-672,-188,-8.56146,1.29822,-0.0164385,0.039558,-0.0489913,0.0679871,-0.0448676,-1.045,0.0656108,0.0457976,552,1212,-8.56148,-1.29827
-665,-188,-8.66107,1.40076,-0.00869496,0.0318484,-0.0389568,0.0554923,-0.0323388,-1.0253,0.0512932,0.0481294,559,1212,-8.66106,-1.40073
-658,-188,-8.69751,1.43652,-0.00356244,0.0248036,-0.0305126,0.0442684,-0.0230272,-1.00296,0.039493,0.045311,566,1212,-8.69751,-1.43651
-651,-188,-10.7866,1.21289,0,0,0,0,0,0,0,-1,573,1212,-10.7866,-1.21287
-644,-188,-10.8756,1.3241,0.00133645,0.0135229,-0.017672,0.0261226,-0.0112632,-0.951414,0.0221457,0.042099,580,1212,-10.8756,-1.32413
-637,-188,-10.9806,1.40955,0.0022486,0.00937793,-0.0126976,0.0190018,-0.00737524,-0.922243,0.0157142,0.022179,587,1212,-10.9806,-1.4095
-630,-188,-10.9971,1.53845,0.00274686,0.00714492,-0.00875118,0.0139691,-0.00407735,-0.908491,0.0109284,0.0106307,594,1212,-10.9972,-1.53849
-623,-188,-10.9974,1.6969,0.00205037,0.00338121,-0.00648445,0.00923429,-0.00380271,-0.836528,0.0077416,0.0108626,601,1212,-10.9974,-1.69689
-616,-188,-10.9905,1.86743,0.000565463,0.00089326,-0.00559039,0.00632215,-0.00486343,-0.800053,0.00647628,0.0110165,608,1212,-10.9905,-1.86747
-609,-188,-10.9611,2.05957,-0.00140419,0.000998298,-0.006228,0.00613985,-0.00654574,-0.880667,0.00732528,0.013344,615,1212,-10.961,-2.05955
-602,-188,-10.9546,2.24524,-0.0032729,0.000119074,-0.00660093,0.00523841,-0.00839223,-0.911144,0.00793956,0.0152244,622,1212,-10.9546,-2.24526
-595,-188,-11.0004,2.37476,-0.00486806,0.000853186,-0.00766527,0.00617422,-0.0101891,-0.963991,0.00954168,0.0110486,629,1212,-11.0004,-2.37479
-588,-188,-11.014,2.53979,-0.0060492,0.00159783,-0.00851173,0.00710538,-0.0115567,-0.996495,0.0108763,0.00934708,636,1212,-11.014,-2.53977
-581,-188,-11.0258,2.74414,-0.00699492,0.00234327,-0.00930156,0.00808184,-0.0127335,-1.01801,0.0121174,0.0105777,643,1212,-11.0258,-2.74417
-574,-188,-11.0704,2.77051,-0.00749075,0.00308805,-0.00969207,0.00884012,-0.0132428,-1.03518,0.0128338,0.0274748,650,1212,-11.0704,-2.7705
-567,-188,-10.4871,1.98254,-0.00773698,0.00370953,-0.00959828,0.00916137,-0.0131888,-1.05424,0.0129735,0.0496808,657,1212,-10.4871,-1.98249
-560,-188,-12.2822,2.14819,0,0,0,0,0,0,0,-1,664,1212,-12.2822,-2.14817
-553,-188,-13.3284,0.9021,-0.00771962,0.00468947,-0.00872979,0.00919499,-0.0122252,-1.09434,0.0124081,0.0456035,671,1212,-13.3284,-0.902135
-546,-188,-13.4219,1.11401,-0.00730392,0.00514993,-0.00763865,0.00877813,-0.0109321,-1.12736,0.0114024,0.0425665,678,1212,-13.422,-1.11403
-539,-188,-13.5183,1.27319,-0.00637943,0.00531606,-0.00608862,0.00791033,-0.00897369,-1.16801,0.00975443,0.0382327,685,1212,-13.5183,-1.27318
-532,-188,-13.5817,1.2063,-0.00467467,0.00494601,-0.00403245,0.00641261,-0.00614127,-1.22197,0.00724855,0.0428792,692,1212,-13.5817,-1.20635
-525,-188,-13.5921,1.12415,-0.00172015,0.0035818,-0.0014841,0.00396895,-0.0021073,-1.31562,0.00356259,0.040899,699,1212,-13.5921,-1.12416
-518,-188,-13.4645,1.16125,0.00217321,0.000319543,9.75882e-05,0.00217834,0.00031442,0.0524527,0.00135959,0.0418285,706,1212,-13.4645,-1.16128
-511,-188,-13.2686,1.1991,0.00756312,-0.00109003,-0.00355086,0.00883368,-0.00236058,-0.343621,0.00681368,0.0402823,713,1212,-13.2686,-1.19914
-504,-188,0,0,0,0,0,0,0,0,0,-1,720,1212,0,0
-497,-188,0,0,0,0,0,0,0,0,0,-1,727,1212,0,0
-490,-188,0,0,0,0,0,0,0,0,0,-1,734,1212,0,0
-483,-188,0,0,0,0,0,0,0,0,0,-1,741,1212,0,0
-476,-188,0,0,0,0,0,0,0,0,0,-1,748,1212,0,0
-469,-188,0,0,0,0,0,0,0,0,0,-1,755,1212,0,0
-462,-188,0,0,0,0,0,0,0,0,0,-1,762,1212,0,0
-455,-188,0,0,0,0,0,0,0,0,0,-1,769,1212,0,0
-448,-188,0,0,0,0,0,0,0,0,0,-1,776,1212,0,0
-441,-188,0,0,0,0,0,0,0,0,0,-1,783,1212,0,0
-434,-188,0,0,0,0,0,0,0,0,0,-1,790,1212,0,0
-427,-188,0,0,0,0,0,0,0,0,0,-1,797,1212,0,0
-420,-188,0,0,0,0,0,0,0,0,0,-1,804,1212,0,0
-413,-188,0,0,0,0,0,0,0,0,0,-1,811,1212,0,0
-406,-188,0,0,0,0,0,0,0,0,0,-1,818,1212,0,0
-399,-188,0,0,0,0,0,0,0,0,0,-1,825,1212,0,0
-392,-188,0,0,0,0,0,0,0,0,0,-1,832,1212,0,0
-385,-188,0,0,0,0,0,0,0,0,0,-1,839,1212,0,0
-378,-188,0,0,0,0,0,0,0,0,0,-1,846,1212,0,0
-371,-188,0,0,0,0,0,0,0,0,0,-1,853,1212,0,0
-364,-188,0,0,0,0,0,0,0,0,0,-1,860,1212,0,0
-357,-188,0,0,0,0,0,0,0,0,0,-1,867,1212,0,0
-350,-188,0,0,0,0,0,0,0,0,0,-1,874,1212,0,0
-343,-188,0,0,0,0,0,0,0,0,0,-1,881,1212,0,0
-336,-188,0,0,0,0,0,0,0,0,0,-1,888,1212,0,0
-329,-188,0,0,0,0,0,0,0,0,0,-1,895,1212,0,0
-322,-188,0,0,0,0,0,0,0,0,0,-1,902,1212,0,0
-315,-188,0,0,0,0,0,0,0,0,0,-1,909,1212,0,0
-308,-188,0,0,0,0,0,0,0,0,0,-1,916,1212,0,0
-301,-188,0,0,0,0,0,0,0,0,0,-1,923,1212,0,0
-294,-188,0,0,0,0,0,0,0,0,0,-1,930,1212,0,0
-287,-188,0,0,0,0,0,0,0,0,0,-1,937,1212,0,0
-280,-188,0,0,0,0,0,0,0,0,0,-1,944,1212,0,0
-273,-188,0,0,0,0,0,0,0,0,0,-1,951,1212,0,0
-266,-188,0,0,0,0,0,0,0,0,0,-1,958,1212,0,0
-259,-188,0,0,0,0,0,0,0,0,0,-1,965,1212,0,0
-252,-188,0,0,0,0,0,0,0,0,0,-1,972,1212,0,0
-245,-188,0,0,0,0,0,0,0,0,0,-1,979,1212,0,0
-238,-188,0,0,0,0,0,0,0,0,0,-1,986,1212,0,0
-231,-188,0,0,0,0,0,0,0,0,0,-1,993,1212,0,0
-224,-188,0,0,0,0,0,0,0,0,0,-1,1000,1212,0,0
-217,-188,0,0,0,0,0,0,0,0,0,-1,1007,1212,0,0
-210,-188,0,0,0,0,0,0,0,0,0,-1,1014,1212,0,0
-203,-188,0,0,0,0,0,0,0,0,0,-1,1021,1212,0,0
-196,-188,0,0,0,0,0,0,0,0,0,-1,1028,1212,0,0
-189,-188,0,0,0,0,0,0,0,0,0,-1,1035,1212,0,0
-182,-188,0,0,0,0,0,0,0,0,0,-1,1042,1212,0,0
-175,-188,0,0,0,0,0,0,0,0,0,-1,1049,1212,0,0
-168,-188,0,0,0,0,0,0,0,0,0,-1,1056,1212,0,0
-161,-188,0,0,0,0,0,0,0,0,0,-1,1063,1212,0,0
-154,-188,0,0,0,0,0,0,0,0,0,-1,1070,1212,0,0
-147,-188,0,0,0,0,0,0,0,0,0,-1,1077,1212,0,0
-140,-188,0,0,0,0,0,0,0,0,0,-1,1084,1212,0,0
-133,-188,0,0,0,0,0,0,0,0,0,-1,1091,1212,0,0
-126,-188,0,0,0,0,0,0,0,0,0,-1,1098,1212,0,0
-119,-188,0,0,0,0,0,0,0,0,0,-1,1105,1212,0,0
-112,-188,0,0,0,0,0,0,0,0,0,-1,1112,1212,0,0
-105,-188,0,0,0,0,0,0,0,0,0,-1,1119,1212,0,0
-98,-188,0,0,0,0,0,0,0,0,0,-1,1126,1212,0,0
-91,-188,0,0,0,0,0,0,0,0,0,-1,1133,1212,0,0
-84,-188,0,0,0,0,0,0,0,0,0,-1,1140,1212,0,0
-77,-188,0,0,0,0,0,0,0,0,0,-1,1147,1212,0,0
-70,-188,0,0,0,0,0,0,0,0,0,-1,1154,1212,0,0
-63,-188,0,0,0,0,0,0,0,0,0,-1,1161,1212,0,0
-56,-188,0,0,0,0,0,0,0,0,0,-1,1168,1212,0,0
-49,-188,0,0,0,0,0,0,0,0,0,-1,1175,1212,0,0
-42,-188,0,0,0,0,0,0,0,0,0,-1,1182,1212,0,0
-35,-188,0,0,0,0,0,0,0,0,0,-1,1189,1212,0,0
-28,-188,0,0,0,0,0,0,0,0,0,-1,1196,1212,0,0
-21,-188,0,0,0,0,0,0,0,0,0,-1,1203,1212,0,0
-14,-188,0,0,0,0,0,0,0,0,0,-1,1210,1212,0,0
-7,-188,0,0,0,0,0,0,0,0,0,-1,1217,1212,0,0
0,-188,0,0,0,0,0,0,0,0,0,-1,1224,1212,0,0
7,-188,0,0,0,0,0,0,0,0,0,-1,1231,1212,0,0
14,-188,0,0,0,0,0,0,0,0,0,-1,1238,1212,0,0
21,-188,0,0,0,0,0,0,0,0,0,-1,1245,1212,0,0
28,-188,0,0,0,0,0,0,0,0,0,-1,1252,1212,0,0
35,-188,0,0,0,0,0,0,0,0,0,-1,1259,1212,0,0
42,-188,0,0,0,0,0,0,0,0,0,-1,1266,1212,0,0
49,-188,0,0,0,0,0,0,0,0,0,-1,1273,1212,0,0
56,-188,0,0,0,0,0,0,0,0,0,-1,1280,1212,0,0
63,-188,0,0,0,0,0,0,0,0,0,-1,1287,1212,0,0
70,-188,0,0,0,0,0,0,0,0,0,-1,1294,1212,0,0
77,-188,0,0,0,0,0,0,0,0,0,-1,1301,1212,0,0
84,-188,0,0,0,0,0,0,0,0,0,-1,1308,1212,0,0
91,-188,0,0,0,0,0,0,0,0,0,-1,1315,1212,0,0
98,-188,0,0,0,0,0,0,0,0,0,-1,1322,1212,0,0
105,-188,0,0,0,0,0,0,0,0,0,-1,1329,1212,0,0
112,-188,0,0,0,0,0,0,0,0,0,-1,1336,1212,0,0
119,-188,0,0,0,0,0,0,0,0,0,-1,1343,1212,0,0
126,-188,0,0,0,0,0,0,0,0,0,-1,1350,1212,0,0
133,-188,0,0,0,0,0,0,0,0,0,-1,1357,1212,0,0
140,-188,0,0,0,0,0,0,0,0,0,-1,1364,1212,0,0
147,-188,0,0,0,0,0,0,0,0,0,-1,1371,1212,0,0
154,-188,0,0,0,0,0,0,0,0,0,-1,1378,1212,0,0
161,-188,0,0,0,0,0,0,0,0,0,-1,1385,1212,0,0
168,-188,0,0,0,0,0,0,0,0,0,-1,1392,1212,0,0
175,-188,0,0,0,0,0,0,0,0,0,-1,1399,1212,0,0
182,-188,0,0,0,0,0,0,0,0,0,-1,1406,1212,0,0
189,-188,0,0,0,0,0,0,0,0,0,-1,1413,1212,0,0
196,-188,0,0,0,0,0,0,0,0,0,-1,1420,1212,0,0
203,-188,0,0,0,0,0,0,0,0,0,-1,1427,1212,0,0
210,-188,0,0,0,0,0,0,0,0,0,-1,1434,1212,0,0
217,-188,0,0,0,0,0,0,0,0,0,-1,1441,1212,0,0
224,-188,0,0,0,0,0,0,0,0,0,-1,1448,1212,0,0
231,-188,0,0,0,0,0,0,0,0,0,-1,1455,1212,0,0
238,-188,0,0,0,0,0,0,0,0,0,-1,1462,1212,0,0
245,-188,0,0,0,0,0,0,0,0,0,-1,1469,1212,0,0
252,-188,0,0,0,0,0,0,0,0,0,-1,1476,1212,0,0
259,-188,0,0,0,0,0,0,0,0,0,-1,1483,1212,0,0
266,-188,0,0,0,0,0,0,0,0,0,-1,1490,1212,0,0
273,-188,0,0,0,0,0,0,0,0,0,-1,1497,1212,0,0
280,-188,0,0,0,0,0,0,0,0,0,-1,1504,1212,0,0
287,-188,0,0,0,0,0,0,0,0,0,-1,1511,1212,0,0
294,-188,0,0,0,0,0,0,0,0,0,-1,1518,1212,0,0
301,-188,0,0,0,0,0,0,0,0,0,-1,1525,1212,0,0
308,-188,0,0,0,0,0,0,0,0,0,-1,1532,1212,0,0
315,-188,0,0,0,0,0,0,0,0,0,-1,1539,1212,0,0
322,-188,0,0,0,0,0,0,0,0,0,-1,1546,1212,0,0
329,-188,0,0,0,0,0,0,0,0,0,-1,1553,1212,0,0
336,-188,0,0,0,0,0,0,0,0,0,-1,1560,1212,0,0
343,-188,0,0,0,0,0,0,0,0,0,-1,1567,1212,0,0
350,-188,0,0,0,0,0,0,0,0,0,-1,1574,1212,0,0
357,-188,0,0,0,0,0,0,0,0,0,-1,1581,1212,0,0
364,-188,0,0,0,0,0,0,0,0,0,-1,1588,1212,0,0
371,-188,0,0,0,0,0,0,0,0,0,-1,1595,1212,0,0
378,-188,0,0,0,0,0,0,0,0,0,-1,1602,1212,0,0
385,-188,0,0,0,0,0,0,0,0,0,-1,1609,1212,0,0
392,-188,0,0,0,0,0,0,0,0,0,-1,1616,1212,0,0
399,-188,0,0,0,0,0,0,0,0,0,-1,1623,1212,0,0
406,-188,0,0,0,0,0,0,0,0,0,-1,1630,1212,0,0
413,-188,0,0,0,0,0,0,0,0,0,-1,1637,1212,0,0
420,-188,0,0,0,0,0,0,0,0,0,-1,1644,1212,0,0
427,-188,0,0,0,0,0,0,0,0,0,-1,1651,1212,0,0
434,-188,0,0,0,0,0,0,0,0,0,-1,1658,1212,0,0
441,-188,0,0,0,0,0,0,0,0,0,-1,1665,1212,0,0
448,-188,0,0,0,0,0,0,0,0,0,-1,1672,1212,0,0
455,-188,0,0,0,0,0,0,0,0,0,-1,1679,1212,0,0
462,-188,0,0,0,0,0,0,0,0,0,-1,1686,1212,0,0
469,-188,0,0,0,0,0,0,0,0,0,-1,1693,1212,0,0
476,-188,0,0,0,0,0,0,0,0,0,-1,1700,1212,0,0
483,-188,0,0,0,0,0,0,0,0,0,-1,1707,1212,0,0
490,-188,0,0,0,0,0,0,0,0,0,-1,1714,1212,0,0
497,-188,0,0,0,0,0,0,0,0,0,-1,1721,1212,0,0
504,-188,0,0,0,0,0,0,0,0,0,-1,1728,1212,0,0
511,-188,0,0,0,0,0,0,0,0,0,-1,1735,1212,0,0
518,-188,0,0,0,0,0,0,0,0,0,-1,1742,1212,0,0
525,-188,0,0,0,0,0,0,0,0,0,-1,1749,1212,0,0
532,-188,0,0,0,0,0,0,0,0,0,-1,1756,1212,0,0
539,-188,0,0,0,0,0,0,0,0,0,-1,1763,1212,0,0
546,-188,0,0,0,0,0,0,0,0,0,-1,1770,1212,0,0
553,-188,0,0,0,0,0,0,0,0,0,-1,1777,1212,0,0
560,-188,0,0,0,0,0,0,0,0,0,-1,1784,1212,0,0
567,-188,0,0,0,0,0,0,0,0,0,-1,1791,1212,0,0
574,-188,0,0,0,0,0,0,0,0,0,-1,1798,1212,0,0
581,-188,0,0,0,0,0,0,0,0,0,-1,1805,1212,0,0
588,-188,0,0,0,0,0,0,0,0,0,-1,1812,1212,0,0
595,-188,0,0,0,0,0,0,0,0,0,-1,1819,1212,0,0
602,-188,0,0,0,0,0,0,0,0,0,-1,1826,1212,0,0
609,-188,0,0,0,0,0,0,0,0,0,-1,1833,1212,0,0
616,-188,0,0,0,0,0,0,0,0,0,-1,1840,1212,0,0
623,-188,0,0,0,0,0,0,0,0,0,-1,1847,1212,0,0
630,-188,21.1794,3.22815,-0.00173073,0.00149537,-0.00253814,0.00288966,-0.00312502,-1.06846,0.00347346,0.0385946,1854,1212,21.1794,-3.22819
637,-188,21.0685,3.104,-3.23239e-05,0.00141288,-0.00216101,0.0029689,-0.00158835,-0.946745,0.00267107,0.0382134,1861,1212,21.0685,-3.10396
644,-188,20.9506,2.98706,0.00119971,0.0009874,-0.00160348,0.00270055,-0.000513433,-0.752344,0.00199367,0.0359861,1868,1212,20.9506,-2.98709
651,-188,20.9948,2.94275,0.00216416,0.000623329,-0.00102949,0.00267958,0.000107907,-0.464176,0.00175153,0.0325154,1875,1212,20.9948,-2.94281
658,-188,21.0688,2.92603,0.00251252,0.000143613,-0.000289737,0.00254744,0.000108691,-0.119953,0.00166325,0.0316938,1882,1212,21.0688,-2.92603
665,-188,21.045,2.95862,0.00245336,-0.000333469,0.000389812,0.00250686,-0.000386967,0.13639,0.00181404,0.030219,1889,1212,21.045,-2.95858
672,-188,21.1071,2.97021,0.00208191,-0.000776124,0.000939221,0.00236293,-0.00105714,0.290727,0.00202199,0.0244815,1896,1212,21.1071,-2.97026
679,-188,21.1219,2.88562,0.00143366,-0.00115173,0.00137051,0.00202494,-0.00174301,0.407304,0.00217746,0.0434835,1903,1212,21.1219,-2.88565
686,-188,21.1262,3.17761,0.000861858,-0.00151279,0.001761,0.00179841,-0.00244935,0.488787,0.00246203,0.0399789,1910,1212,21.1262,-3.17761
693,-188,19.3994,4.76013,0,0,0,0,0,0,0,-1,1917,1212,19.3995,-4.76011
700,-188,19.2158,4.83984,-0.000266401,-0.00177452,0.00220128,0.00130639,-0.00334731,0.620385,0.00277161,0.0448494,1924,1212,19.2158,-4.83982
707,-188,18.9618,4.94299,-0.000789598,-0.00165612,0.00215103,0.000971373,-0.00341709,0.686018,0.00266161,0.0149252,1931,1212,18.9618,-4.94298
714,-188,18.9468,4.8623,-0.00131281,-0.001459,0.00211729,0.000732644,-0.00350445,0.768143,0.00261496,0.0120335,1938,1212,18.9468,-4.86231
721,-188,18.8813,4.74536,-0.00159282,-0.00127838,0.00193801,0.00050878,-0.00337998,0.825872,0.00244065,0.0107976,1945,1212,18.8813,-4.74542
728,-188,18.8567,4.60046,-0.00139495,-0.000954325,0.00151712,0.000358397,-0.00270767,0.857503,0.00193567,0.00902493,1952,1212,18.8567,-4.60049
735,-188,18.8438,4.4552,-0.000808612,-0.00058046,0.000999357,0.000311311,-0.00170038,0.842227,0.00125034,0.0120104,1959,1212,18.8438,-4.45524
742,-188,18.8411,4.31714,0.000464561,0.000209321,0.000444137,0.00079905,-0.000125168,0.645495,0.00057895,0.0132763,1966,1212,18.8411,-4.31708
749,-188,18.8606,4.18201,0.000936345,0.000877999,-0.00113387,0.00204142,-0.000227078,-0.772537,0.00144261,0.0135552,1973,1212,18.8606,-4.18204
756,-188,18.8503,4.05054,0.000568693,0.00213726,-0.00297094,0.00442569,-0.00171974,-0.914446,0.00366092,0.012677,1980,1212,18.8503,-4.05054
763,-188,18.8212,3.90845,0.000130643,0.00315514,-0.00502118,0.00688686,-0.00360107,-0.931665,0.00615347,0.0131538,1987,1212,18.8212,-3.90847
770,-188,18.8159,3.73877,-0.00156519,0.00449142,-0.0078747,0.00990003,-0.0069738,-0.968961,0.00979082,0.01957,1994,1212,18.816,-3.73882
777,-188,18.8201,3.50854,-0.00523919,0.00632104,-0.0119377,0.0138044,-0.0127225,-1.01086,0.0153195,0.0408706,2001,1212,18.8201,-3.50855
784,-188,18.8097,3.28625,0,0,0,0,0,0,0,-1,2008,1212,18.8097,-3.28621
791,-188,21.0452,4.17432,0,0,0,0,0,0,0,-1,2015,1212,21.0452,-4.17435
798,-188,21.3575,3.6759,0,0,0,0,0,0,0,-1,2022,1212,21.3575,-3.67596
805,-188,0,0,0,0,0,0,0,0,0,-1,2029,1212,0,0
812,-188,0,0,0,0,0,0,0,0,0,-1,2036,1212,0,0
-700,-195,0,0,0,0,0,0,0,0,0,-1,524,1219,0,0
-693,-195,0,0,0,0,0,0,0,0,0,-1,531,1219,0,0
-686,-195,0,0,0,0,0,0,0,0,0,-1,538,1219,0,0
-679,-195,-11.5682,1.97375,0,0,0,0,0,0,0,-1,545,1219,-11.5683,-1.97372
-672,-195,-10.2072,1.45593,0,0,0,0,0,0,0,-1,552,1219,-10.2072,-1.45598
-665,-195,-9.92163,1.58386,0,0,0,0,0,0,0,-1,559,1219,-9.92161,-1.58382
-658,-195,-9.90137,1.56897,0,0,0,0,0,0,0,-1,566,1219,-9.90135,-1.56901
-651,-195,-10.5411,1.13635,0,0,0,0,0,0,0,-1,573,1219,-10.5411,-1.13633
-644,-195,-10.6344,1.26135,0.00375053,0.0135399,-0.0165048,0.0258605,-0.00857004,-0.929548,0.0206971,0.0422276,580,1219,-10.6344,-1.26139
-637,-195,-10.7562,1.37512,0.00366976,0.00948597,-0.0120386,0.0189627,-0.00580697,-0.903911,0.014958,0.0220461,587,1219,-10.7562,-1.37509
-630,-195,-10.818,1.51855,0.00350288,0.0072841,-0.00839292,0.0139967,-0.00320974,-0.89618,0.0105649,0.00823282,594,1219,-10.818,-1.51852
-623,-195,-10.8249,1.69666,0.00256939,0.00355687,-0.00617387,0.00925672,-0.00313046,-0.8253,0.00743757,0.0082483,601,1219,-10.8249,-1.69667
-616,-195,-10.8171,1.8728,0.0011292,0.00112156,-0.00507256,0.00619794,-0.00394718,-0.785022,0.00590514,0.0102065,608,1219,-10.8171,-1.87279
-609,-195,-10.7822,2.05566,-0.000596335,0.00130794,-0.00547288,0.00591088,-0.00519928,-0.871523,0.00641884,0.0171732,615,1219,-10.7823,-2.05567
-602,-195,-10.7882,2.23218,-0.00213758,0.000431586,-0.00561442,0.0049065,-0.00661249,-0.897863,0.00667476,0.0202472,622,1219,-10.7882,-2.23221
-595,-195,-10.8335,2.39941,-0.00341424,0.00117739,-0.00653359,0.00580679,-0.00804364,-0.954353,0.00803124,0.0155317,629,1219,-10.8335,-2.39938
-588,-195,-10.8394,2.5509,-0.00439931,0.00216421,-0.00737783,0.00695725,-0.00919235,-0.994664,0.00935369,0.00818972,636,1219,-10.8394,-2.55093
-581,-195,-10.8602,2.68347,-0.00533642,0.00310807,-0.00821585,0.00812312,-0.0103515,-1.02276,0.0106921,0.00993245,643,1219,-10.8602,-2.68347
-574,-195,-10.8631,2.67139,-0.00604177,0.00402142,-0.00865031,0.00899706,-0.0110174,-1.04881,0.011575,0.0237417,650,1219,-10.8631,-2.6714
-567,-195,-10.8156,2.42883,0,0,0,0,0,0,0,-1,657,1219,-10.8156,-2.42882
-560,-195,-13.3028,1.14819,0,0,0,0,0,0,0,-1,664,1219,-13.3028,-1.14824
-553,-195,-13.386,1.26355,-0.00724911,0.00608729,-0.00801267,0.00984347,-0.0110053,-1.13243,0.0120433,0.044366,671,1219,-13.386,-1.26351
-546,-195,-13.355,1.2179,-0.00744531,0.00674182,-0.00721718,0.00976786,-0.0104713,-1.17378,0.0116875,0.0461621,678,1219,-13.355,-1.21794
-539,-195,-13.4454,1.16455,-0.00729224,0.00707055,-0.00604302,0.00927481,-0.0094965,-1.22103,0.0108379,0.0376406,685,1219,-13.4455,-1.1645
-532,-195,-13.4821,1.18567,-0.0065774,0.00682826,-0.00443816,0.00816441,-0.00791356,-1.27837,0.009283,0.034264,692,1219,-13.4821,-1.18572
-525,-195,-13.4852,1.36206,-0.00477738,0.00553547,-0.00228813,0.00602035,-0.00526225,-1.36198,0.00651891,0.0386175,699,1219,-13.4851,-1.36209
-518,-195,-13.3978,1.49243,-0.00157604,0.00224036,-0.000371809,0.00227624,-0.00161192,-1.47458,0.00225573,0.0410153,706,1219,-13.3978,-1.49248
-511,-195,-13.2886,1.49927,0.003954,-0.000506412,-0.00182823,0.00460758,-0.00116,-0.343337,0.00352264,0.0426223,713,1219,-13.2886,-1.49926
-504,-195,0,0,0,0,0,0,0,0,0,-1,720,1219,0,0
-497,-195,0,0,0,0,0,0,0,0,0,-1,727,1219,0,0
-490,-195,0,0,0,0,0,0,0,0,0,-1,734,1219,0,0
-483,-195,0,0,0,0,0,0,0,0,0,-1,741,1219,0,0
-476,-195,0,0,0,0,0,0,0,0,0,-1,748,1219,0,0
-469,-195,0,0,0,0,0,0,0,0,0,-1,755,1219,0,0
-462,-195,0,0,0,0,0,0,0,0,0,-1,762,1219,0,0
-455,-195,0,0,0,0,0,0,0,0,0,-1,769,1219,0,0
-448,-195,0,0,0,0,0,0,0,0,0,-1,776,1219,0,0
-441,-195,0,0,0,0,0,0,0,0,0,-1,783,1219,0,0
-434,-195,0,0,0,0,0,0,0,0,0,-1,790,1219,0,0
-427,-195,0,0,0,0,0,0,0,0,0,-1,797,1219,0,0
-420,-195,0,0,0,0,0,0,0,0,0,-1,804,1219,0,0
-413,-195,0,0,0,0,0,0,0,0,0,-1,811,1219,0,0
-406,-195,0,0,0,0,0,0,0,0,0,-1,818,1219,0,0
-399,-195,0,0,0,0,0,0,0,0,0,-1,825,1219,0,0
-392,-195,0,0,0,0,0,0,0,0,0,-1,832,1219,0,0
-385,-195,0,0,0,0,0,0,0,0,0,-1,839,1219,0,0
-378,-195,0,0,0,0,0,0,0,0,0,-1,846,1219,0,0
-371,-195,0,0,0,0,0,0,0,0,0,-1,853,1219,0,0
-364,-195,0,0,0,0,0,0,0,0,0,-1,860,1219,0,0
-357,-195,0,0,0,0,0,0,0,0,0,-1,867,1219,0,0
-350,-195,0,0,0,0,0,0,0,0,0,-1,874,1219,0,0
-343,-195,0,0,0,0,0,0,0,0,0,-1,881,1219,0,0
-336,-195,0,0,0,0,0,0,0,0,0,-1,888,1219,0,0
-329,-195,0,0,0,0,0,0,0,0,0,-1,895,1219,0,0
-322,-195,0,0,0,0,0,0,0,0,0,-1,902,1219,0,0
-315,-195,0,0,0,0,0,0,0,0,0,-1,909,1219,0,0
-308,-195,0,0,0,0,0,0,0,0,0,-1,916,1219,0,0
-301,-195,0,0,0,0,0,0,0,0,0,-1,923,1219,0,0
-294,-195,0,0,0,0,0,0,0,0,0,-1,930,1219,0,0
-287,-195,0,0,0,0,0,0,0,0,0,-1,937,1219,0,0
-280,-195,0,0,0,0,0,0,0,0,0,-1,944,1219,0,0
-273,-195,0,0,0,0,0,0,0,0,0,-1,951,1219,0,0
-266,-195,0,0,0,0,0,0,0,0,0,-1,958,1219,0,0
-259,-195,0,0,0,0,0,0,0,0,0,-1,965,1219,0,0
-252,-195,0,0,0,0,0,0,0,0,0,-1,972,1219,0,0
-245,-195,0,0,0,0,0,0,0,0,0,-1,979,1219,0,0
-238,-195,0,0,0,0,0,0,0,0,0,-1,986,1219,0,0
-231,-195,0,0,0,0,0,0,0,0,0,-1,993,1219,0,0
-224,-195,0,0,0,0,0,0,0,0,0,-1,1000,1219,0,0
-217,-195,0,0,0,0,0,0,0,0,0,-1,1007,1219,0,0
-210,-195,0,0,0,0,0,0,0,0,0,-1,1014,1219,0,0
-203,-195,0,0,0,0,0,0,0,0,0,-1,1021,1219,0,0
-196,-195,0,0,0,0,0,0,0,0,0,-1,1028,1219,0,0
-189,-195,0,0,0,0,0,0,0,0,0,-1,1035,1219,0,0
-182,-195,0,0,0,0,0,0,0,0,0,-1,1042,1219,0,0
-175,-195,0,0,0,0,0,0,0,0,0,-1,1049,1219,0,0
-168,-195,0,0,0,0,0,0,0,0,0,-1,1056,1219,0,0
-161,-195,0,0,0,0,0,0,0,0,0,-1,1063,1219,0,0
-154,-195,0,0,0,0,0,0,0,0,0,-1,1070,1219,0,0
-147,-195,0,0,0,0,0,0,0,0,0,-1,1077,1219,0,0
-140,-195,0,0,0,0,0,0,0,0,0,-1,1084,1219,0,0
-133,-195,0,0,0,0,0,0,0,0,0,-1,1091,1219,0,0
-126,-195,0,0,0,0,0,0,0,0,0,-1,1098,1219,0,0
-119,-195,0,0,0,0,0,0,0,0,0,-1,1105,1219,0,0
-112,-195,0,0,0,0,0,0,0,0,0,-1,1112,1219,0,0
-105,-195,0,0,0,0,0,0,0,0,0,-1,1119,1219,0,0
-98,-195,0,0,0,0,0,0,0,0,0,-1,1126,1219,0,0
-91,-195,0,0,0,0,0,0,0,0,0,-1,1133,1219,0,0
-84,-195,0,0,0,0,0,0,0,0,0,-1,1140,1219,0,0
-77,-195,0,0,0,0,0,0,0,0,0,-1,1147,1219,0,0
-70,-195,0,0,0,0,0,0,0,0,0,-1,1154,1219,0,0
-63,-195,0,0,0,0,0,0,0,0,0,-1,1161,1219,0,0
-56,-195,0,0,0,0,0,0,0,0,0,-1,1168,1219,0,0
-49,-195,0,0,0,0,0,0,0,0,0,-1,1175,1219,0,0
-42,-195,0,0,0,0,0,0,0,0,0,-1,1182,1219,0,0
-35,-195,0,0,0,0,0,0,0,0,0,-1,1189,1219,0,0
-28,-195,0,0,0,0,0,0,0,0,0,-1,1196,1219,0,0
-21,-195,0,0,0,0,0,0,0,0,0,-1,1203,1219,0,0
-14,-195,0,0,0,0,0,0,0,0,0,-1,1210,1219,0,0
-7,-195,0,0,0,0,0,0,0,0,0,-1,1217,1219,0,0
0,-195,0,0,0,0,0,0,0,0,0,-1,1224,1219,0,0
7,-195,0,0,0,0,0,0,0,0,0,-1,1231,1219,0,0
14,-195,0,0,0,0,0,0,0,0,0,-1,1238,1219,0,0
21,-195,0,0,0,0,0,0,0,0,0,-1,1245,1219,0,0
28,-195,0,0,0,0,0,0,0,0,0,-1,1252,1219,0,0
35,-195,0,0,0,0,0,0,0,0,0,-1,1259,1219,0,0
42,-195,0,0,0,0,0,0,0,0,0,-1,1266,1219,0,0
49,-195,0,0,0,0,0,0,0,0,0,-1,1273,1219,0,0
56,-195,0,0,0,0,0,0,0,0,0,-1,1280,1219,0,0
63,-195,0,0,0,0,0,0,0,0,0,-1,1287,1219,0,0
70,-195,0,0,0,0,0,0,0,0,0,-1,1294,1219,0,0
77,-195,0,0,0,0,0,0,0,0,0,-1,1301,1219,0,0
84,-195,0,0,0,0,0,0,0,0,0,-1,1308,1219,0,0
91,-195,0,0,0,0,0,0,0,0,0,-1,1315,1219,0,0
98,-195,0,0,0,0,0,0,0,0,0,-1,1322,1219,0,0
105,-195,0,0,0,0,0,0,0,0,0,-1,1329,1219,0,0
112,-195,0,0,0,0,0,0,0,0,0,-1,1336,1219,0,0
119,-195,0,0,0,0,0,0,0,0,0,-1,1343,1219,0,0
126,-195,0,0,0,0,0,0,0,0,0,-1,1350,1219,0,0
133,-195,0,0,0,0,0,0,0,0,0,-1,1357,1219,0,0
140,-195,0,0,0,0,0,0,0,0,0,-1,1364,1219,0,0
147,-195,0,0,0,0,0,0,0,0,0,-1,1371,1219,0,0
154,-195,0,0,0,0,0,0,0,0,0,-1,1378,1219,0,0
161,-195,0,0,0,0,0,0,0,0,0,-1,1385,1219,0,0
168,-195,0,0,0,0,0,0,0,0,0,-1,1392,1219,0,0
175,-195,0,0,0,0,0,0,0,0,0,-1,1399,1219,0,0
182,-195,0,0,0,0,0,0,0,0,0,-1,1406,1219,0,0
189,-195,0,0,0,0,0,0,0,0,0,-1,1413,1219,0,0
196,-195,0,0,0,0,0,0,0,0,0,-1,1420,1219,0,0
203,-195,0,0,0,0,0,0,0,0,0,-1,1427,1219,0,0
210,-195,0,0,0,0,0,0,0,0,0,-1,1434,1219,0,0
217,-195,0,0,0,0,0,0,0,0,0,-1,1441,1219,0,0
224,-195,0,0,0,0,0,0,0,0,0,-1,1448,1219,0,0
231,-195,0,0,0,0,0,0,0,0,0,-1,1455,1219,0,0
238,-195,0,0,0,0,0,0,0,0,0,-1,1462,1219,0,0
245,-195,0,0,0,0,0,0,0,0,0,-1,1469,1219,0,0
252,-195,0,0,0,0,0,0,0,0,0,-1,1476,1219,0,0
259,-195,0,0,0,0,0,0,0,0,0,-1,1483,1219,0,0
266,-195,0,0,0,0,0,0,0,0,0,-1,1490,1219,0,0
273,-195,0,0,0,0,0,0,0,0,0,-1,1497,1219,0,0
280,-195,0,0,0,0,0,0,0,0,0,-1,1504,1219,0,0
287,-195,0,0,0,0,0,0,0,0,0,-1,1511,1219,0,0
294,-195,0,0,0,0,0,0,0,0,0,-1,1518,1219,0,0
301,-195,0,0,0,0,0,0,0,0,0,-1,1525,1219,0,0
308,-195,0,0,0,0,0,0,0,0,0,-1,1532,1219,0,0
315,-195,0,0,0,0,0,0,0,0,0,-1,1539,1219,0,0
322,-195,0,0,0,0,0,0,0,0,0,-1,1546,1219,0,0
329,-195,0,0,0,0,0,0,0,0,0,-1,1553,1219,0,0
336,-195,0,0,0,0,0,0,0,0,0,-1,1560,1219,0,0
343,-195,0,0,0,0,0,0,0,0,0,-1,1567,1219,0,0
350,-195,0,0,0,0,0,0,0,0,0,-1,1574,1219,0,0
357,-195,0,0,0,0,0,0,0,0,0,-1,1581,1219,0,0
364,-195,0,0,0,0,0,0,0,0,0,-1,1588,1219,0,0
371,-195,0,0,0,0,0,0,0,0,0,-1,1595,1219,0,0
378,-195,0,0,0,0,0,0,0,0,0,-1,1602,1219,0,0
385,-195,0,0,0,0,0,0,0,0,0,-1,1609,1219,0,0
392,-195,0,0,0,0,0,0,0,0,0,-1,1616,1219,0,0
399,-195,0,0,0,0,0,0,0,0,0,-1,1623,1219,0,0
406,-195,0,0,0,0,0,0,0,0,0,-1,1630,1219,0,0
413,-195,0,0,0,0,0,0,0,0,0,-1,1637,1219,0,0
420,-195,0,0,0,0,0,0,0,0,0,-1,1644,1219,0,0
427,-195,0,0,0,0,0,0,0,0,0,-1,1651,1219,0,0
434,-195,0,0,0,0,0,0,0,0,0,-1,1658,1219,0,0
441,-195,0,0,0,0,0,0,0,0,0,-1,1665,1219,0,0
448,-195,0,0,0,0,0,0,0,0,0,-1,1672,1219,0,0
455,-195,0,0,0,0,0,0,0,0,0,-1,1679,1219,0,0
462,-195,0,0,0,0,0,0,0,0,0,-1,1686,1219,0,0
469,-195,0,0,0,0,0,0,0,0,0,-1,1693,1219,0,0
476,-195,0,0,0,0,0,0,0,0,0,-1,1700,1219,0,0
483,-195,0,0,0,0,0,0,0,0,0,-1,1707,1219,0,0
490,-195,0,0,0,0,0,0,0,0,0,-1,1714,1219,0,0
497,-195,0,0,0,0,0,0,0,0,0,-1,1721,1219,0,0
504,-195,0,0,0,0,0,0,0,0,0,-1,1728,1219,0,0
511,-195,0,0,0,0,0,0,0,0,0,-1,1735,1219,0,0
518,-195,0,0,0,0,0,0,0,0,0,-1,1742,1219,0,0
525,-195,0,0,0,0,0,0,0,0,0,-1,1749,1219,0,0
532,-195,0,0,0,0,0,0,0,0,0,-1,1756,1219,0,0
539,-195,0,0,0,0,0,0,0,0,0,-1,1763,1219,0,0
546,-195,0,0,0,0,0,0,0,0,0,-1,1770,1219,0,0
553,-195,0,0,0,0,0,0,0,0,0,-1,1777,1219,0,0
560,-195,0,0,0,0,0,0,0,0,0,-1,1784,1219,0,0
567,-195,0,0,0,0,0,0,0,0,0,-1,1791,1219,0,0
574,-195,0,0,0,0,0,0,0,0,0,-1,1798,1219,0,0
581,-195,0,0,0,0,0,0,0,0,0,-1,1805,1219,0,0
588,-195,0,0,0,0,0,0,0,0,0,-1,1812,1219,0,0
595,-195,0,0,0,0,0,0,0,0,0,-1,1819,1219,0,0
602,-195,0,0,0,0,0,0,0,0,0,-1,1826,1219,0,0
609,-195,0,0,0,0,0,0,0,0,0,-1,1833,1219,0,0
616,-195,0,0,0,0,0,0,0,0,0,-1,1840,1219,0,0
623,-195,0,0,0,0,0,0,0,0,0,-1,1847,1219,0,0
630,-195,21.2611,3.21069,-0.000923009,0.00213601,-0.00246793,0.00350996,-0.00229696,-1.06281,0.00337692,0.0413755,1854,1219,21.2612,-3.21063
637,-195,21.174,3.11572,0.000867361,0.00194774,-0.00238376,0.00385175,-0.00103665,-0.896823,0.00297423,0.0389832,1861,1219,21.174,-3.11576
644,-195,21.1241,2.95642,0.00212231,0.00149606,-0.00196797,0.00380191,-0.000183543,-0.706505,0.00259795,0.0358967,1868,1219,21.1241,-2.95642
651,-195,21.0962,2.91809,0.00295745,0.00101435,-0.00138066,0.00367414,0.000297671,-0.4788,0.00235647,0.0275832,1875,1219,21.0962,-2.91808
658,-195,21.0643,2.95837,0.00324841,0.000486161,-0.000659282,0.00339769,0.000336874,-0.222683,0.00216161,0.0231954,1882,1219,21.0643,-2.95839
665,-195,21.0863,2.95544,0.00318087,-2.9976e-05,1.33187e-05,0.00318092,-3.00312e-05,0.00414793,0.0021307,0.0224076,1889,1219,21.0863,-2.95547
672,-195,21.1498,2.92041,0.002815,-0.000511587,0.000586629,0.00291542,-0.000612005,0.169535,0.00217649,0.0350829,1896,1219,21.1498,-2.92035
679,-195,21.2157,2.99121,0.00218958,-0.000919264,0.00103183,0.00250088,-0.00123056,0.293008,0.00219556,0.0460321,1903,1219,21.2157,-2.99123
686,-195,21.1388,3.39209,0.00164368,-0.00132341,0.00143954,0.00222731,-0.00190704,0.385172,0.00238935,0.0458839,1910,1219,21.1387,-3.39212
693,-195,18.9744,5.02844,0,0,0,0,0,0,0,-1,1917,1219,18.9744,-5.02842
700,-195,18.8335,5.05457,0.000518227,-0.00165081,0.00192789,0.0016457,-0.00277828,0.529187,0.00258194,0.0327162,1924,1219,18.8335,-5.05454
707,-195,18.7042,5.05188,-3.95031e-05,-0.00154187,0.00193201,0.00128222,-0.0028636,0.599987,0.00245094,0.0149856,1931,1219,18.7042,-5.05191
714,-195,18.7175,4.89648,-0.000597936,-0.00139656,0.00190985,0.000953897,-0.00294839,0.682342,0.00234903,0.0162181,1938,1219,18.7175,-4.89652
721,-195,18.736,4.76807,-0.000896743,-0.00116893,0.00165343,0.000626188,-0.00269186,0.744336,0.00203566,0.0129015,1945,1219,18.7359,-4.76802
728,-195,18.7201,4.62488,-0.000819991,-0.000826248,0.00117288,0.000349763,-0.001996,0.784064,0.00146128,0.0107647,1952,1219,18.7201,-4.62488
735,-195,18.701,4.45715,-0.00043352,-0.000447943,0.000622934,0.000182245,-0.00106371,0.77961,0.000777043,0.0124829,1959,1219,18.701,-4.45718
742,-195,18.7002,4.31897,0.000675598,0.000372241,0.000108604,0.000710471,0.000337368,0.310697,0.000410363,0.0131982,1966,1219,18.7002,-4.31893
749,-195,18.7283,4.17798,0.000939003,0.00101528,-0.00128428,0.00226199,-0.000307699,-0.800243,0.00162032,0.0132289,1973,1219,18.7283,-4.17793
756,-195,18.7106,4.03857,0.000412085,0.00216457,-0.00289441,0.00431246,-0.00173581,-0.932381,0.00359604,0.0130561,1980,1219,18.7106,-4.03862
763,-195,18.6854,3.87366,-0.000190593,0.00309493,-0.00467967,0.0064118,-0.00350746,-0.9542,0.00580814,0.0136306,1987,1219,18.6854,-3.87371
770,-195,18.7417,3.65649,-0.00197273,0.00431899,-0.00717704,0.00900935,-0.0066631,-0.991948,0.00908223,0.0242238,1994,1219,18.7417,-3.6565
777,-195,19.1471,3.37524,-0.0057136,0.0059887,-0.0106935,0.0123272,-0.0120521,-1.03573,0.0140757,0.0416609,2001,1219,19.1471,-3.37528
784,-195,19.3604,3.06531,0,0,0,0,0,0,0,-1,2008,1219,19.3603,-3.06535
791,-195,20.7546,3.9397,0,0,0,0,0,0,0,-1,2015,1219,20.7546,-3.93974
798,-195,21.1418,3.46313,0,0,0,0,0,0,0,-1,2022,1219,21.1418,-3.46317
805,-195,0,0,0,0,0,0,0,0,0,-1,2029,1219,0,0
812,-195,0,0,0,0,0,0,0,0,0,-1,2036,1219,0,0
-700,-202,0,0,0,0,0,0,0,0,0,-1,524,1226,0,0
-693,-202,0,0,0,0,0,0,0,0,0,-1,531,1226,0,0
-686,-202,0,0,0,0,0,0,0,0,0,-1,538,1226,0,0
-679,-202,-11.9371,1.98645,0,0,0,0,0,0,0,-1,545,1226,-11.937,-1.9864
-672,-202,-11.1064,1.79468,0,0,0,0,0,0,0,-1,552,1226,-11.1065,-1.79464
-665,-202,-10.8631,1.79724,0.00512768,0.030985,-0.0319916,0.0525616,-0.0164489,-0.977427,0.0416219,0.0459156,559,1226,-10.8631,-1.79725
-658,-202,-10.6108,1.81201,0.00636127,0.0240598,-0.0251137,0.0418378,-0.0114167,-0.954789,0.0323755,0.0423303,566,1226,-10.6107,-1.81206
-651,-202,-10.3886,1.83154,0.00633437,0.0180766,-0.0193557,0.032432,-0.0080211,-0.932651,0.0247325,0.0472665,573,1226,-10.3886,-1.83149
-644,-202,-10.4311,1.5686,0.00554332,0.0131289,-0.014613,0.0244333,-0.00576106,-0.912371,0.0185105,0.044548,580,1226,-10.4311,-1.56856
-637,-202,-10.5462,1.32922,0.00439137,0.00919204,-0.0107807,0.0178364,-0.004253,-0.894937,0.0135332,0.0301974,587,1226,-10.5462,-1.32919
-630,-202,-10.6104,1.49548,0.00358567,0.00704492,-0.00753575,0.013047,-0.0024164,-0.898206,0.00960532,0.0128157,594,1226,-10.6104,-1.49548
-623,-202,-10.6251,1.67566,0.00248707,0.00348387,-0.0054532,0.0084614,-0.00249046,-0.83097,0.0066289,0.00831624,601,1226,-10.6251,-1.67568
-616,-202,-10.6356,1.85815,0.00110655,0.00117703,-0.004307,0.00544894,-0.00316535,-0.789489,0.00503138,0.00885968,608,1226,-10.6356,-1.85817
-609,-202,-10.6452,2.03003,-0.00029981,0.00135747,-0.00456629,0.0051697,-0.00411204,-0.875156,0.0053704,0.0203274,615,1226,-10.6452,-2.03005
-602,-202,-10.6417,2.20715,-0.00142895,0.000550946,-0.00453396,0.00420177,-0.00507978,-0.892882,0.00536669,0.0201371,622,1226,-10.6417,-2.2072
-595,-202,-10.664,2.39709,-0.00226735,0.00130585,-0.00530058,0.00511282,-0.00607433,-0.947947,0.00646685,0.0167462,629,1226,-10.664,-2.39708
-588,-202,-10.6397,2.56433,-0.00290997,0.00249814,-0.00613677,0.00650019,-0.00691202,-0.992916,0.00774476,0.00846476,636,1226,-10.6397,-2.56436
-581,-202,-10.6425,2.67896,-0.00374633,0.00363343,-0.0069826,0.00784114,-0.00795403,-1.02847,0.00911943,0.0119535,643,1226,-10.6425,-2.679
-574,-202,-10.7048,2.69666,-0.00454458,0.00471804,-0.00743076,0.0088426,-0.00866914,-1.06407,0.0101106,0.0185474,650,1226,-10.7049,-2.69663
-567,-202,-10.7735,2.65918,0,0,0,0,0,0,0,-1,657,1226,-10.7735,-2.65924
-560,-202,-10.929,2.73096,0,0,0,0,0,0,0,-1,664,1226,-10.929,-2.73092
-553,-202,-13.2847,1.13367,0,0,0,0,0,0,0,-1,671,1226,-13.2847,-1.13363
-546,-202,-13.1605,0.914063,-0.00739337,0.00824688,-0.00645703,0.0105681,-0.00971462,-1.22569,0.0117137,0.0472292,678,1226,-13.1604,-0.914056
-539,-202,-13.3643,1.09534,-0.00797459,0.00887486,-0.00563183,0.0105839,-0.00968364,-1.27616,0.0117053,0.0395269,685,1226,-13.3642,-1.09539
-532,-202,-13.3935,1.08789,-0.00821247,0.00901159,-0.0044789,0.0101067,-0.00930753,-1.33101,0.011212,0.0266673,692,1226,-13.3935,-1.08784
-525,-202,-13.4867,1.27637,-0.00762983,0.00823534,-0.00286328,0.00873628,-0.00813077,-1.3976,0.00974028,0.0323192,699,1226,-13.4867,-1.27634
-518,-202,-13.4714,1.65381,-0.00556475,0.00568734,-0.00111335,0.00579644,-0.00567385,-1.47311,0.0066225,0.0399895,706,1226,-13.4715,-1.65387
-511,-202,-13.4262,1.52856,-0.000645128,0.00276847,-0.00136575,0.00324763,-0.00112429,-1.23337,0.00262148,0.0422786,713,1226,-13.4262,-1.52855
-504,-202,0,0,0,0,0,0,0,0,0,-1,720,1226,0,0
-497,-202,0,0,0,0,0,0,0,0,0,-1,727,1226,0,0
-490,-202,0,0,0,0,0,0,0,0,0,-1,734,1226,0,0
-483,-202,0,0,0,0,0,0,0,0,0,-1,741,1226,0,0
-476,-202,0,0,0,0,0,0,0,0,0,-1,748,1226,0,0
-469,-202,0,0,0,0,0,0,0,0,0,-1,755,1226,0,0
-462,-202,0,0,0,0,0,0,0,0,0,-1,762,1226,0,0
-455,-202,0,0,0,0,0,0,0,0,0,-1,769,1226,0,0
-448,-202,0,0,0,0,0,0,0,0,0,-1,776,1226,0,0
-441,-202,0,0,0,0,0,0,0,0,0,-1,783,1226,0,0
-434,-202,0,0,0,0,0,0,0,0,0,-1,790,1226,0,0
-427,-202,0,0,0,0,0,0,0,0,0,-1,797,1226,0,0
-420,-202,0,0,0,0,0,0,0,0,0,-1,804,1226,0,0
-413,-202,0,0,0,0,0,0,0,0,0,-1,811,1226,0,0
-406,-202,0,0,0,0,0,0,0,0,0,-1,818,1226,0,0
-399,-202,0,0,0,0,0,0,0,0,0,-1,825,1226,0,0
-392,-202,0,0,0,0,0,0,0,0,0,-1,832,1226,0,0
-385,-202,0,0,0,0,0,0,0,0,0,-1,839,1226,0,0
-378,-202,0,0,0,0,0,0,0,0,0,-1,846,1226,0,0
-371,-202,0,0,0,0,0,0,0,0,0,-1,853,1226,0,0
-364,-202,0,0,0,0,0,0,0,0,0,-1,860,1226,0,0
-357,-202,0,0,0,0,0,0,0,0,0,-1,867,1226,0,0
-350,-202,0,0,0,0,0,0,0,0,0,-1,874,1226,0,0
-343,-202,0,0,0,0,0,0,0,0,0,-1,881,1226,0,0
-336,-202,0,0,0,0,0,0,0,0,0,-1,888,1226,0,0
-329,-202,0,0,0,0,0,0,0,0,0,-1,895,1226,0,0
-322,-202,0,0,0,0,0,0,0,0,0,-1,902,1226,0,0
-315,-202,0,0,0,0,0,0,0,0,0,-1,909,1226,0,0
-308,-202,0,0,0,0,0,0,0,0,0,-1,916,1226,0,0
-301,-202,0,0,0,0,0,0,0,0,0,-1,923,1226,0,0
-294,-202,0,0,0,0,0,0,0,0,0,-1,930,1226,0,0
-287,-202,0,0,0,0,0,0,0,0,0,-1,937,1226,0,0
-280,-202,0,0,0,0,0,0,0,0,0,-1,944,1226,0,0
-273,-202,0,0,0,0,0,0,0,0,0,-1,951,1226,0,0
-266,-202,0,0,0,0,0,0,0,0,0,-1,958,1226,0,0
-259,-202,0,0,0,0,0,0,0,0,0,-1,965,1226,0,0
-252,-202,0,0,0,0,0,0,0,0,0,-1,972,1226,0,0
-245,-202,0,0,0,0,0,0,0,0,0,-1,979,1226,0,0
-238,-202,0,0,0,0,0,0,0,0,0,-1,986,1226,0,0
-231,-202,0,0,0,0,0,0,0,0,0,-1,993,1226,0,0
-224,-202,0,0,0,0,0,0,0,0,0,-1,1000,1226,0,0
-217,-202,0,0,0,0,0,0,0,0,0,-1,1007,1226,0,0
-210,-202,0,0,0,0,0,0,0,0,0,-1,1014,1226,0,0
-203,-202,0,0,0,0,0,0,0,0,0,-1,1021,1226,0,0
-196,-202,0,0,0,0,0,0,0,0,0,-1,1028,1226,0,0
-189,-202,0,0,0,0,0,0,0,0,0,-1,1035,1226,0,0
-182,-202,0,0,0,0,0,0,0,0,0,-1,1042,1226,0,0
-175,-202,0,0,0,0,0,0,0,0,0,-1,1049,1226,0,0
-168,-202,0,0,0,0,0,0,0,0,0,-1,1056,1226,0,0
-161,-202,0,0,0,0,0,0,0,0,0,-1,1063,1226,0,0
-154,-202,0,0,0,0,0,0,0,0,0,-1,1070,1226,0,0
-147,-202,0,0,0,0,0,0,0,0,0,-1,1077,1226,0,0
-140,-202,0,0,0,0,0,0,0,0,0,-1,1084,1226,0,0
-133,-202,0,0,0,0,0,0,0,0,0,-1,1091,1226,0,0
-126,-202,0,0,0,0,0,0,0,0,0,-1,1098,1226,0,0
-119,-202,0,0,0,0,0,0,0,0,0,-1,1105,1226,0,0
-112,-202,0,0,0,0,0,0,0,0,0,-1,1112,1226,0,0
-105,-202,0,0,0,0,0,0,0,0,0,-1,1119,1226,0,0
-98,-202,0,0,0,0,0,0,0,0,0,-1,1126,1226,0,0
-91,-202,0,0,0,0,0,0,0,0,0,-1,1133,1226,0,0
-84,-202,0,0,0,0,0,0,0,0,0,-1,1140,1226,0,0
-77,-202,0,0,0,0,0,0,0,0,0,-1,1147,1226,0,0
-70,-202,0,0,0,0,0,0,0,0,0,-1,1154,1226,0,0
-63,-202,0,0,0,0,0,0,0,0,0,-1,1161,1226,0,0
-56,-202,0,0,0,0,0,0,0,0,0,-1,1168,1226,0,0
-49,-202,0,0,0,0,0,0,0,0,0,-1,1175,1226,0,0
-42,-202,0,0,0,0,0,0,0,0,0,-1,1182,1226,0,0
-35,-202,0,0,0,0,0,0,0,0,0,-1,1189,1226,0,0
-28,-202,0,0,0,0,0,0,0,0,0,-1,1196,1226,0,0
-21,-202,0,0,0,0,0,0,0,0,0,-1,1203,1226,0,0
-14,-202,0,0,0,0,0,0,0,0,0,-1,1210,1226,0,0
-7,-202,0,0,0,0,0,0,0,0,0,-1,1217,1226,0,0
0,-202,0,0,0,0,0,0,0,0,0,-1,1224,1226,0,0
7,-202,0,0,0,0,0,0,0,0,0,-1,1231,1226,0,0
14,-202,0,0,0,0,0,0,0,0,0,-1,1238,1226,0,0
21,-202,0,0,0,0,0,0,0,0,0,-1,1245,1226,0,0
28,-202,0,0,0,0,0,0,0,0,0,-1,1252,1226,0,0
35,-202,0,0,0,0,0,0,0,0,0,-1,1259,1226,0,0
42,-202,0,0,0,0,0,0,0,0,0,-1,1266,1226,0,0
49,-202,0,0,0,0,0,0,0,0,0,-1,1273,1226,0,0
56,-202,0,0,0,0,0,0,0,0,0,-1,1280,1226,0,0
63,-202,0,0,0,0,0,0,0,0,0,-1,1287,1226,0,0
70,-202,0,0,0,0,0,0,0,0,0,-1,1294,1226,0,0
77,-202,0,0,0,0,0,0,0,0,0,-1,1301,1226,0,0
84,-202,0,0,0,0,0,0,0,0,0,-1,1308,1226,0,0
91,-202,0,0,0,0,0,0,0,0,0,-1,1315,1226,0,0
98,-202,0,0,0,0,0,0,0,0,0,-1,1322,1226,0,0
105,-202,0,0,0,0,0,0,0,0,0,-1,1329,1226,0,0
112,-202,0,0,0,0,0,0,0,0,0,-1,1336,1226,0,0
119,-202,0,0,0,0,0,0,0,0,0,-1,1343,1226,0,0
126,-202,0,0,0,0,0,0,0,0,0,-1,1350,1226,0,0
133,-202,0,0,0,0,0,0,0,0,0,-1,1357,1226,0,0
140,-202,0,0,0,0,0,0,0,0,0,-1,1364,1226,0,0
147,-202,0,0,0,0,0,0,0,0,0,-1,1371,1226,0,0
154,-202,0,0,0,0,0,0,0,0,0,-1,1378,1226,0,0
161,-202,0,0,0,0,0,0,0,0,0,-1,1385,1226,0,0
168,-202,0,0,0,0,0,0,0,0,0,-1,1392,1226,0,0
175,-202,0,0,0,0,0,0,0,0,0,-1,1399,1226,0,0
182,-202,0,0,0,0,0,0,0,0,0,-1,1406,1226,0,0
189,-202,0,0,0,0,0,0,0,0,0,-1,1413,1226,0,0
196,-202,0,0,0,0,0,0,0,0,0,-1,1420,1226,0,0
203,-202,0,0,0,0,0,0,0,0,0,-1,1427,1226,0,0
210,-202,0,0,0,0,0,0,0,0,0,-1,1434,1226,0,0
217,-202,0,0,0,0,0,0,0,0,0,-1,1441,1226,0,0
224,-202,0,0,0,0,0,0,0,0,0,-1,1448,1226,0,0
231,-202,0,0,0,0,0,0,0,0,0,-1,1455,1226,0,0
238,-202,0,0,0,0,0,0,0,0,0,-1,1462,1226,0,0
245,-202,0,0,0,0,0,0,0,0,0,-1,1469,1226,0,0
252,-202,0,0,0,0,0,0,0,0,0,-1,1476,1226,0,0
259,-202,0,0,0,0,0,0,0,0,0,-1,1483,1226,0,0
266,-202,0,0,0,0,0,0,0,0,0,-1,1490,1226,0,0
273,-202,0,0,0,0,0,0,0,0,0,-1,1497,1226,0,0
280,-202,0,0,0,0,0,0,0,0,0,-1,1504,1226,0,0
287,-202,0,0,0,0,0,0,0,0,0,-1,1511,1226,0,0
294,-202,0,0,0,0,0,0,0,0,0,-1,1518,1226,0,0
301,-202,0,0,0,0,0,0,0,0,0,-1,1525,1226,0,0
308,-202,0,0,0,0,0,0,0,0,0,-1,1532,1226,0,0
315,-202,0,0,0,0,0,0,0,0,0,-1,1539,1226,0,0
322,-202,0,0,0,0,0,0,0,0,0,-1,1546,1226,0,0
329,-202,0,0,0,0,0,0,0,0,0,-1,1553,1226,0,0
336,-202,0,0,0,0,0,0,0,0,0,-1,1560,1226,0,0
343,-202,0,0,0,0,0,0,0,0,0,-1,1567,1226,0,0
350,-202,0,0,0,0,0,0,0,0,0,-1,1574,1226,0,0
357,-202,0,0,0,0,0,0,0,0,0,-1,1581,1226,0,0
364,-202,0,0,0,0,0,0,0,0,0,-1,1588,1226,0,0
371,-202,0,0,0,0,0,0,0,0,0,-1,1595,1226,0,0
378,-202,0,0,0,0,0,0,0,0,0,-1,1602,1226,0,0
385,-202,0,0,0,0,0,0,0,0,0,-1,1609,1226,0,0
392,-202,0,0,0,0,0,0,0,0,0,-1,1616,1226,0,0
399,-202,0,0,0,0,0,0,0,0,0,-1,1623,1226,0,0
406,-202,0,0,0,0,0,0,0,0,0,-1,1630,1226,0,0
413,-202,0,0,0,0,0,0,0,0,0,-1,1637,1226,0,0
420,-202,0,0,0,0,0,0,0,0,0,-1,1644,1226,0,0
427,-202,0,0,0,0,0,0,0,0,0,-1,1651,1226,0,0
434,-202,0,0,0,0,0,0,0,0,0,-1,1658,1226,0,0
441,-202,0,0,0,0,0,0,0,0,0,-1,1665,1226,0,0
448,-202,0,0,0,0,0,0,0,0,0,-1,1672,1226,0,0
455,-202,0,0,0,0,0,0,0,0,0,-1,1679,1226,0,0
462,-202,0,0,0,0,0,0,0,0,0,-1,1686,1226,0,0
469,-202,0,0,0,0,0,0,0,0,0,-1,1693,1226,0,0
476,-202,0,0,0,0,0,0,0,0,0,-1,1700,1226,0,0
483,-202,0,0,0,0,0,0,0,0,0,-1,1707,1226,0,0
490,-202,0,0,0,0,0,0,0,0,0,-1,1714,1226,0,0
497,-202,0,0,0,0,0,0,0,0,0,-1,1721,1226,0,0
504,-202,0,0,0,0,0,0,0,0,0,-1,1728,1226,0,0
511,-202,0,0,0,0,0,0,0,0,0,-1,1735,1226,0,0
518,-202,0,0,0,0,0,0,0,0,0,-1,1742,1226,0,0
525,-202,0,0,0,0,0,0,0,0,0,-1,1749,1226,0,0
532,-202,0,0,0,0,0,0,0,0,0,-1,1756,1226,0,0
539,-202,0,0,0,0,0,0,0,0,0,-1,1763,1226,0,0
546,-202,0,0,0,0,0,0,0,0,0,-1,1770,1226,0,0
553,-202,0,0,0,0,0,0,0,0,0,-1,1777,1226,0,0
560,-202,0,0,0,0,0,0,0,0,0,-1,1784,1226,0,0
567,-202,0,0,0,0,0,0,0,0,0,-1,1791,1226,0,0
574,-202,0,0,0,0,0,0,0,0,0,-1,1798,1226,0,0
581,-202,0,0,0,0,0,0,0,0,0,-1,1805,1226,0,0
588,-202,0,0,0,0,0,0,0,0,0,-1,1812,1226,0,0
595,-202,0,0,0,0,0,0,0,0,0,-1,1819,1226,0,0
602,-202,0,0,0,0,0,0,0,0,0,-1,1826,1226,0,0
609,-202,0,0,0,0,0,0,0,0,0,-1,1833,1226,0,0
616,-202,0,0,0,0,0,0,0,0,0,-1,1840,1226,0,0
623,-202,0,0,0,0,0,0,0,0,0,-1,1847,1226,0,0
630,-202,21.0981,3.3114,8.48242e-05,0.00238157,-0.00254588,0.00402609,-0.0015597,-0.997271,0.0033281,0.0384375,1854,1226,21.0982,-3.31135
637,-202,21.1351,3.078,0.00195698,0.0022381,-0.00258519,0.00468655,-0.000491465,-0.812557,0.00330041,0.0353666,1861,1226,21.1351,-3.07802
644,-202,21.1484,2.92944,0.0031357,0.00186467,-0.00223356,0.0048224,0.000177975,-0.646796,0.00315728,0.0343814,1868,1226,21.1485,-2.92939
651,-202,21.1328,2.91687,0.00375571,0.00137409,-0.001631,0.00458435,0.000545452,-0.470073,0.00289161,0.0272688,1875,1226,21.1329,-2.91687
658,-202,21.0837,2.93494,0.00391174,0.00086356,-0.000944496,0.00418067,0.00059463,-0.277394,0.00261157,0.021946,1882,1226,21.0838,-2.93495
665,-202,21.1118,2.91541,0.00376832,0.000344769,-0.000291304,0.00379293,0.000320159,-0.0842808,0.00242894,0.0204386,1889,1226,21.1118,-2.91542
672,-202,21.224,2.95898,0.00336178,-0.000152609,0.000290719,0.00338567,-0.000176496,0.08198,0.00231818,0.0407599,1896,1226,21.224,-2.95894
679,-202,21.4652,3.09937,0.00273075,-0.00058853,0.000739857,0.00288819,-0.000745974,0.209675,0.00221637,0.0445879,1903,1226,21.4653,-3.09933
686,-202,20.9741,3.51782,0,0,0,0,0,0,0,-1,1910,1226,20.9741,-3.5178
693,-202,18.5261,5.30725,0,0,0,0,0,0,0,-1,1917,1226,18.5261,-5.30719
700,-202,18.5022,5.18896,0.00105473,-0.00145697,0.00170463,0.00191618,-0.00231841,0.467922,0.00244851,0.0254285,1924,1226,18.5022,-5.18899
707,-202,18.5116,5.03442,0.000494838,-0.00138475,0.00173854,0.00153134,-0.00242125,0.537613,0.00230123,0.0213618,1931,1226,18.5116,-5.03444
714,-202,18.5708,4.90625,-6.91507e-05,-0.00130302,0.00170534,0.00112741,-0.00249958,0.611839,0.00214342,0.0164026,1938,1226,18.5708,-4.90623
721,-202,18.6056,4.7583,-0.000363514,-0.00107566,0.00135045,0.000677016,-0.00211619,0.656496,0.0016825,0.013326,1945,1226,18.6056,-4.75827
728,-202,18.5793,4.61182,-0.000353646,-0.000741169,0.000789664,0.000265681,-0.0013605,0.665089,0.00100731,0.011177,1952,1226,18.5793,-4.6118
735,-202,18.5602,4.46326,-7.66996e-05,-0.000397658,0.000167144,-5.46628e-06,-0.000468891,0.402869,0.000310788,0.0111555,1959,1226,18.5602,-4.46329
742,-202,18.5652,4.3208,0.000933546,0.000381032,-0.000370148,0.00111916,0.000195415,-0.464821,0.000690254,0.00992389,1966,1226,18.5652,-4.32083
749,-202,18.5717,4.16675,0.00110268,0.000886231,-0.00163582,0.00263385,-0.000644939,-0.752367,0.00200575,0.00963969,1973,1226,18.5717,-4.16673
756,-202,18.5624,4.01758,0.00055582,0.0017839,-0.00308083,0.00431128,-0.00197156,-0.883764,0.0037103,0.0105688,1980,1226,18.5624,-4.01763
763,-202,18.5571,3.87183,-6.17205e-05,0.00246968,-0.00465551,0.00602847,-0.00362052,-0.918126,0.00562837,0.0151701,1987,1226,18.5572,-3.87181
770,-202,18.6594,3.56396,-0.00177312,0.00337798,-0.0068146,0.0080875,-0.00648264,-0.966073,0.00842907,0.0372263,1994,1226,18.6594,-3.56401
777,-202,18.7966,3.20508,0,0,0,0,0,0,0,-1,2001,1226,18.7967,-3.20509
784,-202,19.9463,2.32556,0,0,0,0,0,0,0,-1,2008,1226,19.9463,-2.32559
791,-202,20.2793,2.76343,0,0,0,0,0,0,0,-1,2015,1226,20.2793,-2.76342
798,-202,20.8984,2.97583,0,0,0,0,0,0,0,-1,2022,1226,20.8985,-2.97585
805,-202,0,0,0,0,0,0,0,0,0,-1,2029,1226,0,0
812,-202,0,0,0,0,0,0,0,0,0,-1,2036,1226,0,0
-700,-209,0,0,0,0,0,0,0,0,0,-1,524,1233,0,0
-693,-209,0,0,0,0,0,0,0,0,0,-1,531,1233,0,0
-686,-209,0,0,0,0,0,0,0,0,0,-1,538,1233,0,0
-679,-209,-12.228,2.12646,0,0,0,0,0,0,0,-1,545,1233,-12.228,-2.12642
-672,-209,-11.7339,2.08167,0,0,0,0,0,0,0,-1,552,1233,-11.7339,-2.08167
-665,-209,-11.4248,1.91492,0.00949143,0.0304737,-0.0297284,0.0515078,-0.0115426,-0.955026,0.0387632,0.0457765,559,1233,-11.4248,-1.91497
-658,-209,-11.0479,1.73267,0.00890431,0.0237391,-0.0232312,0.0407083,-0.00806486,-0.939926,0.0301884,0.0463513,566,1233,-11.0479,-1.73266
-651,-209,-10.876,1.53882,0.00751772,0.0179118,-0.0178424,0.0312986,-0.0058691,-0.927114,0.0230723,0.0479455,573,1233,-10.876,-1.53884
-644,-209,-10.6938,1.31299,0.00578158,0.0130798,-0.0134311,0.0233486,-0.00448729,-0.918041,0.0172571,0.0464909,580,1233,-10.6938,-1.31298
-637,-209,-10.473,1.32324,0.00403064,0.00921944,-0.00988177,0.0168417,-0.00359163,-0.913773,0.0125969,0.0382862,587,1233,-10.473,-1.32325
-630,-209,-10.4135,1.47827,0.00286767,0.00697046,-0.006909,0.0121262,-0.00228805,-0.929711,0.00894488,0.0211144,594,1233,-10.4135,-1.47832
-623,-209,-10.4481,1.66992,0.00172509,0.00358133,-0.00494718,0.00768669,-0.00238028,-0.878123,0.00607536,0.011256,601,1233,-10.448,-1.6699
-616,-209,-10.4599,1.85388,0.000416965,0.00137175,-0.00376483,0.00468933,-0.00290062,-0.848463,0.00442244,0.0120282,608,1233,-10.4599,-1.85388
-609,-209,-10.4672,2.03406,-0.000639469,0.00140277,-0.00386066,0.00437507,-0.00361177,-0.914684,0.00461821,0.0132646,615,1233,-10.4672,-2.03405
-602,-209,-10.4618,2.20068,-0.00127124,0.000575176,-0.00364524,0.0034123,-0.00410836,-0.909422,0.00434825,0.0145014,622,1233,-10.4618,-2.2007
-595,-209,-10.4596,2.37805,-0.00159973,0.00114629,-0.0042262,0.00421691,-0.00467036,-0.94246,0.00513329,0.011952,629,1233,-10.4596,-2.37803
-588,-209,-10.4558,2.55225,-0.00187533,0.00244295,-0.00505797,0.00578335,-0.00521573,-0.987129,0.00635314,0.0131341,636,1233,-10.4558,-2.55223
-581,-209,-10.4247,2.72778,-0.00255207,0.00368842,-0.00589847,0.0072411,-0.00610475,-1.02868,0.00771453,0.0131771,643,1233,-10.4247,-2.72778
-574,-209,-10.5327,2.85107,-0.00338785,0.00487611,-0.0063471,0.00831771,-0.00682944,-1.07394,0.00875927,0.0167002,650,1233,-10.5327,-2.85104
-567,-209,-10.7314,2.88965,0,0,0,0,0,0,0,-1,657,1233,-10.7314,-2.88965
-560,-209,-10.5946,3.24915,0,0,0,0,0,0,0,-1,664,1233,-10.5946,-3.24917
-553,-209,-13.1536,0.164917,0,0,0,0,0,0,0,-1,671,1233,-13.1536,-0.164975
-546,-209,-13.1283,0.462036,-0.0071862,0.00909028,-0.00588983,0.010998,-0.00909391,-1.25756,0.0116174,0.0444117,678,1233,-13.1283,-0.462044
-539,-209,-13.2521,0.803467,-0.00828586,0.0100248,-0.00539535,0.0114964,-0.00975737,-1.30454,0.0122845,0.0374039,685,1233,-13.2521,-0.803433
-532,-209,-13.3051,1.03931,-0.00920563,0.0106006,-0.00465333,0.0116394,-0.0102444,-1.35116,0.0126432,0.028284,692,1233,-13.305,-1.03927
-525,-209,-13.4274,1.23621,-0.0095414,0.0104831,-0.00352159,0.0110843,-0.0101427,-1.40169,0.0122594,0.0308381,699,1233,-13.4274,-1.23616
-518,-209,-13.4751,1.46033,-0.00866442,0.0089849,-0.0020552,0.00922106,-0.00890058,-1.45639,0.0104631,0.0406688,706,1233,-13.4751,-1.46031
-511,-209,-13.4185,1.37524,-0.00506172,0.00669531,-0.00149458,0.00688233,-0.00524874,-1.44631,0.00702501,0.0423064,713,1233,-13.4185,-1.37527
-504,-209,0,0,0,0,0,0,0,0,0,-1,720,1233,0,0
-497,-209,0,0,0,0,0,0,0,0,0,-1,727,1233,0,0
-490,-209,0,0,0,0,0,0,0,0,0,-1,734,1233,0,0
-483,-209,0,0,0,0,0,0,0,0,0,-1,741,1233,0,0
-476,-209,0,0,0,0,0,0,0,0,0,-1,748,1233,0,0
-469,-209,0,0,0,0,0,0,0,0,0,-1,755,1233,0,0
-462,-209,0,0,0,0,0,0,0,0,0,-1,762,1233,0,0
-455,-209,0,0,0,0,0,0,0,0,0,-1,769,1233,0,0
-448,-209,0,0,0,0,0,0,0,0,0,-1,776,1233,0,0
-441,-209,0,0,0,0,0,0,0,0,0,-1,783,1233,0,0
-434,-209,0,0,0,0,0,0,0,0,0,-1,790,1233,0,0
-427,-209,0,0,0,0,0,0,0,0,0,-1,797,1233,0,0
-420,-209,0,0,0,0,0,0,0,0,0,-1,804,1233,0,0
-413,-209,0,0,0,0,0,0,0,0,0,-1,811,1233,0,0
-406,-209,0,0,0,0,0,0,0,0,0,-1,818,1233,0,0
-399,-209,0,0,0,0,0,0,0,0,0,-1,825,1233,0,0
-392,-209,0,0,0,0,0,0,0,0,0,-1,832,1233,0,0
-385,-209,0,0,0,0,0,0,0,0,0,-1,839,1233,0,0
-378,-209,0,0,0,0,0,0,0,0,0,-1,846,1233,0,0
-371,-209,0,0,0,0,0,0,0,0,0,-1,853,1233,0,0
-364,-209,0,0,0,0,0,0,0,0,0,-1,860,1233,0,0
-357,-209,0,0,0,0,0,0,0,0,0,-1,867,1233,0,0
-350,-209,0,0,0,0,0,0,0,0,0,-1,874,1233,0,0
-343,-209,0,0,0,0,0,0,0,0,0,-1,881,1233,0,0
-336,-209,0,0,0,0,0,0,0,0,0,-1,888,1233,0,0
-329,-209,0,0,0,0,0,0,0,0,0,-1,895,1233,0,0
-322,-209,0,0,0,0,0,0,0,0,0,-1,902,1233,0,0
-315,-209,0,0,0,0,0,0,0,0,0,-1,909,1233,0,0
-308,-209,0,0,0,0,0,0,0,0,0,-1,916,1233,0,0
-301,-209,0,0,0,0,0,0,0,0,0,-1,923,1233,0,0
-294,-209,0,0,0,0,0,0,0,0,0,-1,930,1233,0,0
-287,-209,0,0,0,0,0,0,0,0,0,-1,937,1233,0,0
-280,-209,0,0,0,0,0,0,0,0,0,-1,944,1233,0,0
-273,-209,0,0,0,0,0,0,0,0,0,-1,951,1233,0,0
-266,-209,0,0,0,0,0,0,0,0,0,-1,958,1233,0,0
-259,-209,0,0,0,0,0,0,0,0,0,-1,965,1233,0,0
-252,-209,0,0,0,0,0,0,0,0,0,-1,972,1233,0,0
-245,-209,0,0,0,0,0,0,0,0,0,-1,979,1233,0,0
-238,-209,0,0,0,0,0,0,0,0,0,-1,986,1233,0,0
-231,-209,0,0,0,0,0,0,0,0,0,-1,993,1233,0,0
-224,-209,0,0,0,0,0,0,0,0,0,-1,1000,1233,0,0
-217,-209,0,0,0,0,0,0,0,0,0,-1,1007,1233,0,0
-210,-209,0,0,0,0,0,0,0,0,0,-1,1014,1233,0,0
-203,-209,0,0,0,0,0,0,0,0,0,-1,1021,1233,0,0
-196,-209,0,0,0,0,0,0,0,0,0,-1,1028,1233,0,0
-189,-209,0,0,0,0,0,0,0,0,0,-1,1035,1233,0,0
-182,-209,0,0,0,0,0,0,0,0,0,-1,1042,1233,0,0
-175,-209,0,0,0,0,0,0,0,0,0,-1,1049,1233,0,0
-168,-209,0,0,0,0,0,0,0,0,0,-1,1056,1233,0,0
-161,-209,0,0,0,0,0,0,0,0,0,-1,1063,1233,0,0
-154,-209,0,0,0,0,0,0,0,0,0,-1,1070,1233,0,0
-147,-209,0,0,0,0,0,0,0,0,0,-1,1077,1233,0,0
-140,-209,0,0,0,0,0,0,0,0,0,-1,1084,1233,0,0
-133,-209,0,0,0,0,0,0,0,0,0,-1,1091,1233,0,0
-126,-209,0,0,0,0,0,0,0,0,0,-1,1098,1233,0,0
-119,-209,0,0,0,0,0,0,0,0,0,-1,1105,1233,0,0
-112,-209,0,0,0,0,0,0,0,0,0,-1,1112,1233,0,0
-105,-209,0,0,0,0,0,0,0,0,0,-1,1119,1233,0,0
-98,-209,0,0,0,0,0,0,0,0,0,-1,1126,1233,0,0
-91,-209,0,0,0,0,0,0,0,0,0,-1,1133,1233,0,0
-84,-209,0,0,0,0,0,0,0,0,0,-1,1140,1233,0,0
-77,-209,0,0,0,0,0,0,0,0,0,-1,1147,1233,0,0
-70,-209,0,0,0,0,0,0,0,0,0,-1,1154,1233,0,0
-63,-209,0,0,0,0,0,0,0,0,0,-1,1161,1233,0,0
-56,-209,0,0,0,0,0,0,0,0,0,-1,1168,1233,0,0
-49,-209,0,0,0,0,0,0,0,0,0,-1,1175,1233,0,0
-42,-209,0,0,0,0,0,0,0,0,0,-1,1182,1233,0,0
-35,-209,0,0,0,0,0,0,0,0,0,-1,1189,1233,0,0
-28,-209,0,0,0,0,0,0,0,0,0,-1,1196,1233,0,0
-21,-209,0,0,0,0,0,0,0,0,0,-1,1203,1233,0,0
-14,-209,0,0,0,0,0,0,0,0,0,-1,1210,1233,0,0
-7,-209,0,0,0,0,0,0,0,0,0,-1,1217,1233,0,0
0,-209,0,0,0,0,0,0,0,0,0,-1,1224,1233,0,0
7,-209,0,0,0,0,0,0,0,0,0,-1,1231,1233,0,0
14,-209,0,0,0,0,0,0,0,0,0,-1,1238,1233,0,0
21,-209,0,0,0,0,0,0,0,0,0,-1,1245,1233,0,0
28,-209,0,0,0,0,0,0,0,0,0,-1,1252,1233,0,0
35,-209,0,0,0,0,0,0,0,0,0,-1,1259,1233,0,0
42,-209,0,0,0,0,0,0,0,0,0,-1,1266,1233,0,0
49,-209,0,0,0,0,0,0,0,0,0,-1,1273,1233,0,0
56,-209,0,0,0,0,0,0,0,0,0,-1,1280,1233,0,0
63,-209,0,0,0,0,0,0,0,0,0,-1,1287,1233,0,0
70,-209,0,0,0,0,0,0,0,0,0,-1,1294,1233,0,0
77,-209,0,0,0,0,0,0,0,0,0,-1,1301,1233,0,0
84,-209,0,0,0,0,0,0,0,0,0,-1,1308,1233,0,0
91,-209,0,0,0,0,0,0,0,0,0,-1,1315,1233,0,0
98,-209,0,0,0,0,0,0,0,0,0,-1,1322,1233,0,0
105,-209,0,0,0,0,0,0,0,0,0,-1,1329,1233,0,0
112,-209,0,0,0,0,0,0,0,0,0,-1,1336,1233,0,0
119,-209,0,0,0,0,0,0,0,0,0,-1,1343,1233,0,0
126,-209,0,0,0,0,0,0,0,0,0,-1,1350,1233,0,0
133,-209,0,0,0,0,0,0,0,0,0,-1,1357,1233,0,0
140,-209,0,0,0,0,0,0,0,0,0,-1,1364,1233,0,0
147,-209,0,0,0,0,0,0,0,0,0,-1,1371,1233,0,0
154,-209,0,0,0,0,0,0,0,0,0,-1,1378,1233,0,0
161,-209,0,0,0,0,0,0,0,0,0,-1,1385,1233,0,0
168,-209,0,0,0,0,0,0,0,0,0,-1,1392,1233,0,0
175,-209,0,0,0,0,0,0,0,0,0,-1,1399,1233,0,0
182,-209,0,0,0,0,0,0,0,0,0,-1,1406,1233,0,0
189,-209,0,0,0,0,0,0,0,0,0,-1,1413,1233,0,0
196,-209,0,0,0,0,0,0,0,0,0,-1,1420,1233,0,0
203,-209,0,0,0,0,0,0,0,0,0,-1,1427,1233,0,0
210,-209,0,0,0,0,0,0,0,0,0,-1,1434,1233,0,0
217,-209,0,0,0,0,0,0,0,0,0,-1,1441,1233,0,0
224,-209,0,0,0,0,0,0,0,0,0,-1,1448,1233,0,0
231,-209,0,0,0,0,0,0,0,0,0,-1,1455,1233,0,0
238,-209,0,0,0,0,0,0,0,0,0,-1,1462,1233,0,0
245,-209,0,0,0,0,0,0,0,0,0,-1,1469,1233,0,0
252,-209,0,0,0,0,0,0,0,0,0,-1,1476,1233,0,0
259,-209,0,0,0,0,0,0,0,0,0,-1,1483,1233,0,0
266,-209,0,0,0,0,0,0,0,0,0,-1,1490,1233,0,0
273,-209,0,0,0,0,0,0,0,0,0,-1,1497,1233,0,0
280,-209,0,0,0,0,0,0,0,0,0,-1,1504,1233,0,0
287,-209,0,0,0,0,0,0,0,0,0,-1,1511,1233,0,0
294,-209,0,0,0,0,0,0,0,0,0,-1,1518,1233,0,0
301,-209,0,0,0,0,0,0,0,0,0,-1,1525,1233,0,0
308,-209,0,0,0,0,0,0,0,0,0,-1,1532,1233,0,0
315,-209,0,0,0,0,0,0,0,0,0,-1,1539,1233,0,0
322,-209,0,0,0,0,0,0,0,0,0,-1,1546,1233,0,0
329,-209,0,0,0,0,0,0,0,0,0,-1,1553,1233,0,0
336,-209,0,0,0,0,0,0,0,0,0,-1,1560,1233,0,0
343,-209,0,0,0,0,0,0,0,0,0,-1,1567,1233,0,0
350,-209,0,0,0,0,0,0,0,0,0,-1,1574,1233,0,0
357,-209,0,0,0,0,0,0,0,0,0,-1,1581,1233,0,0
364,-209,0,0,0,0,0,0,0,0,0,-1,1588,1233,0,0
371,-209,0,0,0,0,0,0,0,0,0,-1,1595,1233,0,0
378,-209,0,0,0,0,0,0,0,0,0,-1,1602,1233,0,0
385,-209,0,0,0,0,0,0,0,0,0,-1,1609,1233,0,0
392,-209,0,0,0,0,0,0,0,0,0,-1,1616,1233,0,0
399,-209,0,0,0,0,0,0,0,0,0,-1,1623,1233,0,0
406,-209,0,0,0,0,0,0,0,0,0,-1,1630,1233,0,0
413,-209,0,0,0,0,0,0,0,0,0,-1,1637,1233,0,0
420,-209,0,0,0,0,0,0,0,0,0,-1,1644,1233,0,0
427,-209,0,0,0,0,0,0,0,0,0,-1,1651,1233,0,0
434,-209,0,0,0,0,0,0,0,0,0,-1,1658,1233,0,0
441,-209,0,0,0,0,0,0,0,0,0,-1,1665,1233,0,0
448,-209,0,0,0,0,0,0,0,0,0,-1,1672,1233,0,0
455,-209,0,0,0,0,0,0,0,0,0,-1,1679,1233,0,0
462,-209,0,0,0,0,0,0,0,0,0,-1,1686,1233,0,0
469,-209,0,0,0,0,0,0,0,0,0,-1,1693,1233,0,0
476,-209,0,0,0,0,0,0,0,0,0,-1,1700,1233,0,0
483,-209,0,0,0,0,0,0,0,0,0,-1,1707,1233,0,0
490,-209,0,0,0,0,0,0,0,0,0,-1,1714,1233,0,0
497,-209,0,0,0,0,0,0,0,0,0,-1,1721,1233,0,0
504,-209,0,0,0,0,0,0,0,0,0,-1,1728,1233,0,0
511,-209,0,0,0,0,0,0,0,0,0,-1,1735,1233,0,0
518,-209,0,0,0,0,0,0,0,0,0,-1,1742,1233,0,0
525,-209,0,0,0,0,0,0,0,0,0,-1,1749,1233,0,0
532,-209,0,0,0,0,0,0,0,0,0,-1,1756,1233,0,0
539,-209,0,0,0,0,0,0,0,0,0,-1,1763,1233,0,0
546,-209,0,0,0,0,0,0,0,0,0,-1,1770,1233,0,0
553,-209,0,0,0,0,0,0,0,0,0,-1,1777,1233,0,0
560,-209,0,0,0,0,0,0,0,0,0,-1,1784,1233,0,0
567,-209,0,0,0,0,0,0,0,0,0,-1,1791,1233,0,0
574,-209,0,0,0,0,0,0,0,0,0,-1,1798,1233,0,0
581,-209,0,0,0,0,0,0,0,0,0,-1,1805,1233,0,0
588,-209,0,0,0,0,0,0,0,0,0,-1,1812,1233,0,0
595,-209,0,0,0,0,0,0,0,0,0,-1,1819,1233,0,0
602,-209,0,0,0,0,0,0,0,0,0,-1,1826,1233,0,0
609,-209,0,0,0,0,0,0,0,0,0,-1,1833,1233,0,0
616,-209,0,0,0,0,0,0,0,0,0,-1,1840,1233,0,0
623,-209,20.938,2.97632,-0.000911135,0.00337288,-0.00132756,0.00375091,-0.00128917,-1.29338,0.00302338,0.0341077,1847,1233,20.938,-2.97634
630,-209,20.9662,3.00134,0.00120205,0.00271693,-0.00253828,0.00460837,-0.000689398,-0.930396,0.00332595,0.0342619,1854,1233,20.9662,-3.00139
637,-209,21.0265,2.87183,0.0033065,0.00255713,-0.0026803,0.00563818,0.000225452,-0.715952,0.00368593,0.0337845,1861,1233,21.0264,-2.87181
644,-209,21.0833,2.86133,0.00440824,0.00223253,-0.00241168,0.00596606,0.000674706,-0.573523,0.00377264,0.0296251,1868,1233,21.0833,-2.86132
651,-209,21.1332,2.91943,0.00477273,0.00175232,-0.00185113,0.00565154,0.000873509,-0.443238,0.00351291,0.0233824,1875,1233,21.1332,-2.91938
658,-209,21.1033,2.9585,0.00467449,0.00126914,-0.00121348,0.00506266,0.000880972,-0.309596,0.00312315,0.0194546,1882,1233,21.1032,-2.95844
665,-209,21.1802,2.91772,0.00432921,0.000776947,-0.000589515,0.00442448,0.00068167,-0.160234,0.00275073,0.0332361,1889,1233,21.1802,-2.91778
672,-209,21.4063,2.88379,0.00379408,0.000291423,-8.60838e-06,0.0037941,0.000291402,-0.00245765,0.00243808,0.0466525,1896,1233,21.4063,-2.88381
679,-209,21.8042,3.03748,0.00308616,-0.000160108,0.000453595,0.00314835,-0.000222296,0.136252,0.00217679,0.0479776,1903,1233,21.8042,-3.03745
686,-209,22.1779,3.19214,0,0,0,0,0,0,0,-1,1910,1233,22.1778,-3.19215
693,-209,18.3323,5.45105,0,0,0,0,0,0,0,-1,1917,1233,18.3322,-5.45103
700,-209,18.3491,5.255,0.00118586,-0.00113121,0.00154177,0.00195586,-0.00190121,0.46319,0.00222696,0.0228562,1924,1233,18.3491,-5.25497
707,-209,18.3937,5.05444,0.000625031,-0.00110681,0.00163476,0.00160904,-0.00209082,0.541838,0.00214215,0.0190393,1931,1233,18.3936,-5.05447
714,-209,18.4037,4.91211,6.27311e-05,-0.00113588,0.00160584,0.00117745,-0.0022506,0.606801,0.00201125,0.0132082,1938,1233,18.4037,-4.91213
721,-209,18.434,4.75476,-0.000195438,-0.000949506,0.00115137,0.000639055,-0.001784,0.627167,0.00145008,0.012,1945,1233,18.434,-4.75482
728,-209,18.4385,4.61121,-0.000245491,-0.000732298,0.000503284,7.0159e-05,-0.00104795,0.560165,0.000723153,0.012162,1952,1233,18.4384,-4.61126
735,-209,18.4152,4.47852,-7.7446e-05,-0.0005202,-0.000187588,-8.65609e-06,-0.00058899,-0.351482,0.000389807,0.0126578,1959,1233,18.4152,-4.47852
742,-209,18.4047,4.32043,0.000786925,9.59936e-05,-0.000744686,0.00126238,-0.000379457,-0.568218,0.000992549,0.0100397,1966,1233,18.4047,-4.32038
749,-209,18.4045,4.15527,0.000825133,0.000321242,-0.00188932,0.00247923,-0.00133285,-0.719113,0.00223383,0.00920549,1973,1233,18.4045,-4.15533
756,-209,18.4032,4.01685,0.000223878,0.000838478,-0.00316904,0.00371508,-0.00265272,-0.833732,0.00369347,0.0101453,1980,1233,18.4032,-4.01687
763,-209,18.3998,3.87927,-0.000499685,0.0011176,-0.00452394,0.0049046,-0.00428668,-0.873838,0.00531059,0.0167639,1987,1233,18.3998,-3.87925
770,-209,18.5227,3.49597,-0.00224866,0.00154393,-0.00630846,0.00623494,-0.00693967,-0.9314,0.00760999,0.0414728,1994,1233,18.5227,-3.49601
777,-209,19.0001,2.96802,-0.00584003,0.0022923,-0.00869756,0.00782725,-0.011375,-1.00406,0.0111493,0.0447944,2001,1233,19.0001,-2.96808
784,-209,19.3877,2.57019,-0.0123878,0.00371517,-0.0119477,0.0100711,-0.0187437,-1.08189,0.0168856,0.041693,2008,1233,19.3877,-2.57015
791,-209,19.7719,2.37659,-0.0233462,0.00632312,-0.0164795,0.0136614,-0.0306845,-1.15186,0.0262244,0.0440641,2015,1233,19.7719,-2.37656
798,-209,20.2397,2.22156,0,0,0,0,0,0,0,-1,2022,1233,20.2397,-2.22161
805,-209,0,0,0,0,0,0,0,0,0,-1,2029,1233,0,0
812,-209,0,0,0,0,0,0,0,0,0,-1,2036,1233,0,0
-700,-216,0,0,0,0,0,0,0,0,0,-1,524,1240,0,0
-693,-216,0,0,0,0,0,0,0,0,0,-1,531,1240,0,0
-686,-216,0,0,0,0,0,0,0,0,0,-1,538,1240,0,0
-679,-216,-12.4896,2.30371,0,0,0,0,0,0,0,-1,545,1240,-12.4895,-2.30373
-672,-216,-11.7461,2.2511,0,0,0,0,0,0,0,-1,552,1240,-11.7461,-2.25106
-665,-216,-11.6658,1.99866,0.0132209,0.0294308,-0.0283992,0.050859,-0.0082073,-0.9244,0.0369469,0.0493981,559,1240,-11.6658,-1.99868
-658,-216,-11.4536,1.62549,0.010719,0.0229752,-0.0220341,0.0397175,-0.00602328,-0.92103,0.0286976,0.0472791,566,1240,-11.4536,-1.62555
-651,-216,-10.9312,1.50964,0,0,0,0,0,0,0,-1,573,1240,-10.9312,-1.50962
-644,-216,-10.7239,1.13147,0,0,0,0,0,0,0,-1,580,1240,-10.7239,-1.13153
-637,-216,-10.5361,1.3125,0.00309124,0.00912042,-0.00921679,0.0158031,-0.00359144,-0.943452,0.0119144,0.0413485,587,1240,-10.5361,-1.31245
-630,-216,-10.2816,1.47021,0.00165602,0.00682341,-0.00643349,0.0111726,-0.00269319,-0.976341,0.00848975,0.0279312,594,1240,-10.2816,-1.47024
-623,-216,-10.2592,1.65417,0.000566551,0.00364174,-0.00451957,0.0068781,-0.00266982,-0.94936,0.00568818,0.0133408,601,1240,-10.2592,-1.65422
-616,-216,-10.2858,1.854,-0.000526409,0.00162773,-0.00324132,0.00396624,-0.00286492,-0.945805,0.00396103,0.014483,608,1240,-10.2858,-1.85405
-609,-216,-10.2864,2.02344,-0.00109395,0.00150551,-0.00308763,0.00355582,-0.00314426,-0.984614,0.00387072,0.0128364,615,1240,-10.2864,-2.0234
-602,-216,-10.2708,2.1875,-0.00108302,0.000640578,-0.00263399,0.00255017,-0.00299261,-0.943501,0.00320352,0.0118294,622,1240,-10.2707,-2.18755
-595,-216,-10.2722,2.35156,-0.000733876,0.000970997,-0.00292631,0.0031665,-0.00292938,-0.927126,0.00352035,0.0165063,629,1240,-10.2721,-2.35153
-588,-216,-10.2679,2.53784,-0.000483683,0.00232235,-0.00368673,0.00486401,-0.00302534,-0.967216,0.00459596,0.0186807,636,1240,-10.268,-2.53784
-581,-216,-10.2676,2.73767,-0.000898549,0.0036152,-0.00450618,0.00639808,-0.00368143,-1.01756,0.00588944,0.0170046,643,1240,-10.2676,-2.73767
-574,-216,-10.2815,3.0083,-0.00179089,0.00488778,-0.00497509,0.00754033,-0.00444343,-1.08097,0.00699542,0.0170716,650,1240,-10.2815,-3.00832
-567,-216,-10.3307,3.32629,-0.00301844,0.00605377,-0.00500273,0.00827071,-0.00523538,-1.15366,0.00786311,0.0285664,657,1240,-10.3307,-3.32632
-560,-216,-10.4298,3.7345,0,0,0,0,0,0,0,-1,664,1240,-10.4298,-3.73449
-553,-216,-12.2567,-0.189087,0,0,0,0,0,0,0,-1,671,1240,-12.2567,0.189105
-546,-216,-12.9728,0.26001,0,0,0,0,0,0,0,-1,678,1240,-12.9728,-0.260027
-539,-216,-13.0721,0.514282,-0.00880041,0.0101209,-0.00469882,0.0112236,-0.00990303,-1.34031,0.0122054,0.0372191,685,1240,-13.0721,-0.51427
-532,-216,-13.1196,0.889526,-0.0104773,0.0107512,-0.00426852,0.0115773,-0.0113034,-1.37962,0.0132105,0.0375903,692,1240,-13.1196,-0.889473
-525,-216,-13.3472,1.12866,-0.0117241,0.0107632,-0.0034817,0.0112899,-0.0122508,-1.42065,0.013595,0.0378639,699,1240,-13.3472,-1.12863
-518,-216,-13.4282,1.2771,-0.011931,0.00959565,-0.00223031,0.00982429,-0.0121596,-1.46863,0.0127163,0.039421,706,1240,-13.4282,-1.27716
-511,-216,-13.4187,1.2146,-0.00945096,0.00729996,-0.00103898,0.00736416,-0.00951516,-1.50909,0.00977162,0.0402763,713,1240,-13.4187,-1.21464
-504,-216,-13.3746,1.0094,-0.00183285,0.00291175,0.00186786,0.00355883,-0.00247994,1.2373,0.00350498,0.0403008,720,1240,-13.3746,-1.00936
-497,-216,0,0,0,0,0,0,0,0,0,-1,727,1240,0,0
-490,-216,0,0,0,0,0,0,0,0,0,-1,734,1240,0,0
-483,-216,0,0,0,0,0,0,0,0,0,-1,741,1240,0,0
-476,-216,0,0,0,0,0,0,0,0,0,-1,748,1240,0,0
-469,-216,0,0,0,0,0,0,0,0,0,-1,755,1240,0,0
-462,-216,0,0,0,0,0,0,0,0,0,-1,762,1240,0,0
-455,-216,0,0,0,0,0,0,0,0,0,-1,769,1240,0,0
-448,-216,0,0,0,0,0,0,0,0,0,-1,776,1240,0,0
-441,-216,0,0,0,0,0,0,0,0,0,-1,783,1240,0,0
-434,-216,0,0,0,0,0,0,0,0,0,-1,790,1240,0,0
-427,-216,0,0,0,0,0,0,0,0,0,-1,797,1240,0,0
-420,-216,0,0,0,0,0,0,0,0,0,-1,804,1240,0,0
-413,-216,0,0,0,0,0,0,0,0,0,-1,811,1240,0,0
-406,-216,0,0,0,0,0,0,0,0,0,-1,818,1240,0,0
-399,-216,0,0,0,0,0,0,0,0,0,-1,825,1240,0,0
-392,-216,0,0,0,0,0,0,0,0,0,-1,832,1240,0,0
-385,-216,0,0,0,0,0,0,0,0,0,-1,839,1240,0,0
-378,-216,0,0,0,0,0,0,0,0,0,-1,846,1240,0,0
-371,-216,0,0,0,0,0,0,0,0,0,-1,853,1240,0,0
-364,-216,0,0,0,0,0,0,0,0,0,-1,860,1240,0,0
-357,-216,0,0,0,0,0,0,0,0,0,-1,867,1240,0,0
-350,-216,0,0,0,0,0,0,0,0,0,-1,874,1240,0,0
-343,-216,0,0,0,0,0,0,0,0,0,-1,881,1240,0,0
-336,-216,0,0,0,0,0,0,0,0,0,-1,888,1240,0,0
-329,-216,0,0,0,0,0,0,0,0,0,-1,895,1240,0,0
-322,-216,0,0,0,0,0,0,0,0,0,-1,902,1240,0,0
-315,-216,0,0,0,0,0,0,0,0,0,-1,909,1240,0,0
-308,-216,0,0,0,0,0,0,0,0,0,-1,916,1240,0,0
-301,-216,0,0,0,0,0,0,0,0,0,-1,923,1240,0,0
-294,-216,0,0,0,0,0,0,0,0,0,-1,930,1240,0,0
-287,-216,0,0,0,0,0,0,0,0,0,-1,937,1240,0,0
-280,-216,0,0,0,0,0,0,0,0,0,-1,944,1240,0,0
-273,-216,0,0,0,0,0,0,0,0,0,-1,951,1240,0,0
-266,-216,0,0,0,0,0,0,0,0,0,-1,958,1240,0,0
-259,-216,0,0,0,0,0,0,0,0,0,-1,965,1240,0,0
-252,-216,0,0,0,0,0,0,0,0,0,-1,972,1240,0,0
-245,-216,0,0,0,0,0,0,0,0,0,-1,979,1240,0,0
-238,-216,0,0,0,0,0,0,0,0,0,-1,986,1240,0,0
-231,-216,0,0,0,0,0,0,0,0,0,-1,993,1240,0,0
-224,-216,0,0,0,0,0,0,0,0,0,-1,1000,1240,0,0
-217,-216,0,0,0,0,0,0,0,0,0,-1,1007,1240,0,0
-210,-216,0,0,0,0,0,0,0,0,0,-1,1014,1240,0,0
-203,-216,0,0,0,0,0,0,0,0,0,-1,1021,1240,0,0
-196,-216,0,0,0,0,0,0,0,0,0,-1,1028,1240,0,0
-189,-216,0,0,0,0,0,0,0,0,0,-1,1035,1240,0,0
-182,-216,0,0,0,0,0,0,0,0,0,-1,1042,1240,0,0
-175,-216,0,0,0,0,0,0,0,0,0,-1,1049,1240,0,0
-168,-216,0,0,0,0,0,0,0,0,0,-1,1056,1240,0,0
-161,-216,0,0,0,0,0,0,0,0,0,-1,1063,1240,0,0
-154,-216,0,0,0,0,0,0,0,0,0,-1,1070,1240,0,0
-147,-216,0,0,0,0,0,0,0,0,0,-1,1077,1240,0,0
-140,-216,0,0,0,0,0,0,0,0,0,-1,1084,1240,0,0
-133,-216,0,0,0,0,0,0,0,0,0,-1,1091,1240,0,0
-126,-216,0,0,0,0,0,0,0,0,0,-1,1098,1240,0,0
-119,-216,0,0,0,0,0,0,0,0,0,-1,1105,1240,0,0
-112,-216,0,0,0,0,0,0,0,0,0,-1,1112,1240,0,0
-105,-216,0,0,0,0,0,0,0,0,0,-1,1119,1240,0,0
-98,-216,0,0,0,0,0,0,0,0,0,-1,1126,1240,0,0
-91,-216,0,0,0,0,0,0,0,0,0,-1,1133,1240,0,0
-84,-216,0,0,0,0,0,0,0,0,0,-1,1140,1240,0,0
-77,-216,0,0,0,0,0,0,0,0,0,-1,1147,1240,0,0
-70,-216,0,0,0,0,0,0,0,0,0,-1,1154,1240,0,0
-63,-216,0,0,0,0,0,0,0,0,0,-1,1161,1240,0,0
-56,-216,0,0,0,0,0,0,0,0,0,-1,1168,1240,0,0
-49,-216,0,0,0,0,0,0,0,0,0,-1,1175,1240,0,0
-42,-216,0,0,0,0,0,0,0,0,0,-1,1182,1240,0,0
-35,-216,0,0,0,0,0,0,0,0,0,-1,1189,1240,0,0
-28,-216,0,0,0,0,0,0,0,0,0,-1,1196,1240,0,0
-21,-216,0,0,0,0,0,0,0,0,0,-1,1203,1240,0,0
-14,-216,0,0,0,0,0,0,0,0,0,-1,1210,1240,0,0
-7,-216,0,0,0,0,0,0,0,0,0,-1,1217,1240,0,0
0,-216,0,0,0,0,0,0,0,0,0,-1,1224,1240,0,0
7,-216,0,0,0,0,0,0,0,0,0,-1,1231,1240,0,0
14,-216,0,0,0,0,0,0,0,0,0,-1,1238,1240,0,0
21,-216,0,0,0,0,0,0,0,0,0,-1,1245,1240,0,0
28,-216,0,0,0,0,0,0,0,0,0,-1,1252,1240,0,0
35,-216,0,0,0,0,0,0,0,0,0,-1,1259,1240,0,0
42,-216,0,0,0,0,0,0,0,0,0,-1,1266,1240,0,0
49,-216,0,0,0,0,0,0,0,0,0,-1,1273,1240,0,0
56,-216,0,0,0,0,0,0,0,0,0,-1,1280,1240,0,0
63,-216,0,0,0,0,0,0,0,0,0,-1,1287,1240,0,0
70,-216,0,0,0,0,0,0,0,0,0,-1,1294,1240,0,0
77,-216,0,0,0,0,0,0,0,0,0,-1,1301,1240,0,0
84,-216,0,0,0,0,0,0,0,0,0,-1,1308,1240,0,0
91,-216,0,0,0,0,0,0,0,0,0,-1,1315,1240,0,0
98,-216,0,0,0,0,0,0,0,0,0,-1,1322,1240,0,0
105,-216,0,0,0,0,0,0,0,0,0,-1,1329,1240,0,0
112,-216,0,0,0,0,0,0,0,0,0,-1,1336,1240,0,0
119,-216,0,0,0,0,0,0,0,0,0,-1,1343,1240,0,0
126,-216,0,0,0,0,0,0,0,0,0,-1,1350,1240,0,0
133,-216,0,0,0,0,0,0,0,0,0,-1,1357,1240,0,0
140,-216,0,0,0,0,0,0,0,0,0,-1,1364,1240,0,0
147,-216,0,0,0,0,0,0,0,0,0,-1,1371,1240,0,0
154,-216,0,0,0,0,0,0,0,0,0,-1,1378,1240,0,0
161,-216,0,0,0,0,0,0,0,0,0,-1,1385,1240,0,0
168,-216,0,0,0,0,0,0,0,0,0,-1,1392,1240,0,0
175,-216,0,0,0,0,0,0,0,0,0,-1,1399,1240,0,0
182,-216,0,0,0,0,0,0,0,0,0,-1,1406,1240,0,0
189,-216,0,0,0,0,0,0,0,0,0,-1,1413,1240,0,0
196,-216,0,0,0,0,0,0,0,0,0,-1,1420,1240,0,0
203,-216,0,0,0,0,0,0,0,0,0,-1,1427,1240,0,0
210,-216,0,0,0,0,0,0,0,0,0,-1,1434,1240,0,0
217,-216,0,0,0,0,0,0,0,0,0,-1,1441,1240,0,0
224,-216,0,0,0,0,0,0,0,0,0,-1,1448,1240,0,0
231,-216,0,0,0,0,0,0,0,0,0,-1,1455,1240,0,0
238,-216,0,0,0,0,0,0,0,0,0,-1,1462,1240,0,0
245,-216,0,0,0,0,0,0,0,0,0,-1,1469,1240,0,0
252,-216,0,0,0,0,0,0,0,0,0,-1,1476,1240,0,0
259,-216,0,0,0,0,0,0,0,0,0,-1,1483,1240,0,0
266,-216,0,0,0,0,0,0,0,0,0,-1,1490,1240,0,0
273,-216,0,0,0,0,0,0,0,0,0,-1,1497,1240,0,0
280,-216,0,0,0,0,0,0,0,0,0,-1,1504,1240,0,0
287,-216,0,0,0,0,0,0,0,0,0,-1,1511,1240,0,0
294,-216,0,0,0,0,0,0,0,0,0,-1,1518,1240,0,0
301,-216,0,0,0,0,0,0,0,0,0,-1,1525,1240,0,0
308,-216,0,0,0,0,0,0,0,0,0,-1,1532,1240,0,0
315,-216,0,0,0,0,0,0,0,0,0,-1,1539,1240,0,0
322,-216,0,0,0,0,0,0,0,0,0,-1,1546,1240,0,0
329,-216,0,0,0,0,0,0,0,0,0,-1,1553,1240,0,0
336,-216,0,0,0,0,0,0,0,0,0,-1,1560,1240,0,0
343,-216,0,0,0,0,0,0,0,0,0,-1,1567,1240,0,0
350,-216,0,0,0,0,0,0,0,0,0,-1,1574,1240,0,0
357,-216,0,0,0,0,0,0,0,0,0,-1,1581,1240,0,0
364,-216,0,0,0,0,0,0,0,0,0,-1,1588,1240,0,0
371,-216,0,0,0,0,0,0,0,0,0,-1,1595,1240,0,0
378,-216,0,0,0,0,0,0,0,0,0,-1,1602,1240,0,0
385,-216,0,0,0,0,0,0,0,0,0,-1,1609,1240,0,0
392,-216,0,0,0,0,0,0,0,0,0,-1,1616,1240,0,0
399,-216,0,0,0,0,0,0,0,0,0,-1,1623,1240,0,0
406,-216,0,0,0,0,0,0,0,0,0,-1,1630,1240,0,0
413,-216,0,0,0,0,0,0,0,0,0,-1,1637,1240,0,0
420,-216,0,0,0,0,0,0,0,0,0,-1,1644,1240,0,0
427,-216,0,0,0,0,0,0,0,0,0,-1,1651,1240,0,0
434,-216,0,0,0,0,0,0,0,0,0,-1,1658,1240,0,0
441,-216,0,0,0,0,0,0,0,0,0,-1,1665,1240,0,0
448,-216,0,0,0,0,0,0,0,0,0,-1,1672,1240,0,0
455,-216,0,0,0,0,0,0,0,0,0,-1,1679,1240,0,0
462,-216,0,0,0,0,0,0,0,0,0,-1,1686,1240,0,0
469,-216,0,0,0,0,0,0,0,0,0,-1,1693,1240,0,0
476,-216,0,0,0,0,0,0,0,0,0,-1,1700,1240,0,0
483,-216,0,0,0,0,0,0,0,0,0,-1,1707,1240,0,0
490,-216,0,0,0,0,0,0,0,0,0,-1,1714,1240,0,0
497,-216,0,0,0,0,0,0,0,0,0,-1,1721,1240,0,0
504,-216,0,0,0,0,0,0,0,0,0,-1,1728,1240,0,0
511,-216,0,0,0,0,0,0,0,0,0,-1,1735,1240,0,0
518,-216,0,0,0,0,0,0,0,0,0,-1,1742,1240,0,0
525,-216,0,0,0,0,0,0,0,0,0,-1,1749,1240,0,0
532,-216,0,0,0,0,0,0,0,0,0,-1,1756,1240,0,0
539,-216,0,0,0,0,0,0,0,0,0,-1,1763,1240,0,0
546,-216,0,0,0,0,0,0,0,0,0,-1,1770,1240,0,0
553,-216,0,0,0,0,0,0,0,0,0,-1,1777,1240,0,0
560,-216,0,0,0,0,0,0,0,0,0,-1,1784,1240,0,0
567,-216,0,0,0,0,0,0,0,0,0,-1,1791,1240,0,0
574,-216,0,0,0,0,0,0,0,0,0,-1,1798,1240,0,0
581,-216,0,0,0,0,0,0,0,0,0,-1,1805,1240,0,0
588,-216,0,0,0,0,0,0,0,0,0,-1,1812,1240,0,0
595,-216,0,0,0,0,0,0,0,0,0,-1,1819,1240,0,0
602,-216,0,0,0,0,0,0,0,0,0,-1,1826,1240,0,0
609,-216,0,0,0,0,0,0,0,0,0,-1,1833,1240,0,0
616,-216,0,0,0,0,0,0,0,0,0,-1,1840,1240,0,0
623,-216,20.8009,2.92163,-0.000549772,0.00343142,-0.00105408,0.00369328,-0.00081163,-1.3273,0.00277261,0.038142,1847,1240,20.8009,-2.92163
630,-216,20.9257,2.92688,0.00210472,0.00334442,-0.00241814,0.00522089,0.000228255,-0.910863,0.00340706,0.0354585,1854,1240,20.9256,-2.92685
637,-216,20.9911,2.92639,0.00423777,0.00333364,-0.00265208,0.00647604,0.00109537,-0.70098,0.00400251,0.0307714,1861,1240,20.991,-2.92642
644,-216,21.0468,2.96301,0.00517201,0.00308934,-0.00247647,0.00681718,0.00144418,-0.586375,0.00414806,0.0244162,1868,1240,21.0468,-2.963
651,-216,21.1041,2.98889,0.00532645,0.00259405,-0.00199424,0.00637758,0.00154292,-0.485079,0.00384211,0.0201054,1875,1240,21.1041,-2.98884
658,-216,21.1422,2.98669,0.00506419,0.00207618,-0.00144424,0.00564814,0.00149223,-0.384231,0.00337967,0.0271568,1882,1240,21.1422,-2.9867
665,-216,21.1974,2.87878,0.00459996,0.00154512,-0.00086919,0.00482996,0.00131513,-0.258678,0.00288336,0.0407755,1889,1240,21.1973,-2.87879
672,-216,21.3154,2.82666,0.00401319,0.00101478,-0.000306678,0.00404423,0.000983736,-0.100889,0.0024354,0.0467471,1896,1240,21.3154,-2.82663
679,-216,21.1897,2.78662,0.00328342,0.000490555,0.000165575,0.0032932,0.000480773,0.0590094,0.00205405,0.0481064,1903,1240,21.1897,-2.7866
686,-216,18.2084,5.5249,0,0,0,0,0,0,0,-1,1910,1240,18.2084,-5.52493
693,-216,18.2208,5.40002,0.00184516,-0.000454313,0.00103571,0.00224287,-0.000852025,0.366636,0.001846,0.040282,1917,1240,18.2208,-5.39999
700,-216,18.2284,5.27698,0.00125608,-0.00067635,0.00133827,0.00194048,-0.00136075,0.472733,0.00191574,0.0185317,1924,1240,18.2284,-5.27694
707,-216,18.2421,5.08508,0.000718067,-0.00070571,0.00150946,0.00167509,-0.00166273,0.565055,0.00192709,0.0174477,1931,1240,18.242,-5.08508
714,-216,18.2637,4.90283,0.000204132,-0.000869891,0.00149017,0.0012511,-0.00191686,0.612457,0.00184244,0.0146852,1938,1240,18.2636,-4.90285
721,-216,18.2745,4.75305,1.96987e-05,-0.00074058,0.000934302,0.000648235,-0.00136912,0.592191,0.00118925,0.0122656,1945,1240,18.2745,-4.753
728,-216,18.2935,4.6134,-6.70018e-05,-0.000631502,0.000219018,8.0071e-06,-0.000706511,0.329958,0.000473699,0.0113226,1952,1240,18.2934,-4.61337
735,-216,18.2803,4.47351,-1.959e-05,-0.000530525,-0.000526345,0.000310009,-0.000860124,-0.559464,0.000700021,0.0106825,1959,1240,18.2803,-4.47356
742,-216,18.2437,4.33472,0.00064955,-9.28845e-05,-0.00111327,0.00145186,-0.000895198,-0.624472,0.00136772,0.0104824,1966,1240,18.2436,-4.33477
749,-216,18.2572,4.15759,0.000526926,-7.69648e-05,-0.00214796,0.00239406,-0.0019441,-0.715569,0.00250912,0.00865805,1973,1240,18.2572,-4.15762
756,-216,18.245,4.01477,-0.000187363,8.33918e-05,-0.00326637,0.00321719,-0.00332116,-0.806109,0.00377508,0.00904124,1980,1240,18.245,-4.01481
763,-216,18.2349,3.89087,-0.0011361,-1.51047e-05,-0.00439553,0.00385552,-0.00500672,-0.848814,0.00513099,0.014088,1987,1240,18.2349,-3.89092
770,-216,18.3236,3.54736,-0.00306717,-6.25683e-05,-0.00575115,0.00437925,-0.00750899,-0.913152,0.00694251,0.0377873,1994,1240,18.3236,-3.54738
777,-216,18.8375,3.20044,-0.00669626,0.000114708,-0.00740625,0.0048609,-0.0114425,-1.00089,0.00966503,0.0465036,2001,1240,18.8376,-3.20044
784,-216,18.8488,2.81934,-0.012994,0.00087617,-0.00950943,0.00571074,-0.0178286,-1.10045,0.014178,0.0446956,2008,1240,18.8487,-2.81935
791,-216,19.0317,2.16162,-0.0232926,0.00274355,-0.0123059,0.00763928,-0.0281883,-1.19216,0.0217897,0.0442768,2015,1240,19.0317,-2.16159
798,-216,0,0,0,0,0,0,0,0,0,-1,2022,1240,0,0
805,-216,0,0,0,0,0,0,0,0,0,-1,2029,1240,0,0
812,-216,0,0,0,0,0,0,0,0,0,-1,2036,1240,0,0
-700,-223,0,0,0,0,0,0,0,0,0,-1,524,1247,0,0
-693,-223,0,0,0,0,0,0,0,0,0,-1,531,1247,0,0
-686,-223,0,0,0,0,0,0,0,0,0,-1,538,1247,0,0
-679,-223,0,0,0,0,0,0,0,0,0,-1,545,1247,0,0
-672,-223,-11.4481,1.61975,0,0,0,0,0,0,0,-1,552,1247,-11.448,-1.61969
-665,-223,-11.5594,1.4281,0,0,0,0,0,0,0,-1,559,1247,-11.5594,-1.42804
-658,-223,-11.2516,1.41223,0.010553,0.0231286,-0.0208384,0.0386071,-0.00492558,-0.931925,0.0275272,0.0464754,566,1247,-11.2516,-1.4122
-651,-223,-10.8606,1.35815,0.00633967,0.0176922,-0.015814,0.0288178,-0.00478589,-0.957707,0.0209898,0.0438012,573,1247,-10.8606,-1.35818
-644,-223,-10.7578,1.33386,0,0,0,0,0,0,0,-1,580,1247,-10.7578,-1.3339
-637,-223,-10.5781,1.40796,0.000301949,0.00965891,-0.00855117,0.0147278,-0.00476692,-1.03571,0.0117348,0.045452,587,1247,-10.5781,-1.40794
-630,-223,-10.2111,1.43774,-0.0011965,0.00716938,-0.00597723,0.0102819,-0.00430906,-1.0907,0.00865619,0.0359602,594,1247,-10.2111,-1.43779
-623,-223,-10.0932,1.61499,-0.00201597,0.00419805,-0.00412368,0.0062542,-0.00407213,-1.10825,0.00600611,0.0217577,601,1247,-10.0932,-1.61495
-616,-223,-10.1037,1.84375,-0.00271146,0.0023418,-0.00278131,0.00357277,-0.00394242,-1.15413,0.00434065,0.016234,608,1247,-10.1037,-1.84376
-609,-223,-10.0877,2.01123,-0.00262838,0.00199202,-0.00240744,0.0030184,-0.00365477,-1.16779,0.00385859,0.0112945,615,1247,-10.0877,-2.01123
-602,-223,-10.0787,2.18384,-0.00182939,0.00101276,-0.00178436,0.00187278,-0.00268941,-1.12167,0.00264801,0.0141179,622,1247,-10.0788,-2.18386
-595,-223,-10.0957,2.36267,-0.000660476,0.00100342,-0.00183047,0.00218213,-0.00183919,-0.998693,0.00232452,0.0200379,629,1247,-10.0957,-2.36269
-588,-223,-10.0939,2.53369,0.000252779,0.00226136,-0.00254005,0.00398845,-0.00147431,-0.973658,0.00326337,0.0220819,636,1247,-10.0939,-2.53375
-581,-223,-10.095,2.76929,0.000214542,0.00352543,-0.00335648,0.00561251,-0.00187253,-1.0145,0.00449771,0.0204282,643,1247,-10.095,-2.76923
-574,-223,-10.0828,2.98499,-0.000636857,0.00487044,-0.00390101,0.00689178,-0.00265819,-1.09273,0.00569141,0.0175162,650,1247,-10.0828,-2.98504
-567,-223,-9.84247,3.20911,-0.00222634,0.00606441,-0.00402616,0.0076978,-0.00385973,-1.18539,0.00679428,0.0238486,657,1247,-9.84246,-3.20913
-560,-223,-9.60919,3.47339,-0.00370617,0.00682827,-0.00406671,0.00821551,-0.0050934,-1.24206,0.00775406,0.0407239,664,1247,-9.60919,-3.47338
-553,-223,-9.20532,3.77527,0,0,0,0,0,0,0,-1,671,1247,-9.20531,-3.77529
-546,-223,-12.8041,-0.0777588,0,0,0,0,0,0,0,-1,678,1247,-12.8041,0.0777346
-539,-223,-12.7142,0.368164,-0.00976344,0.0097095,-0.00416242,0.0105619,-0.0106159,-1.3688,0.012227,0.042741,685,1247,-12.7142,-0.368151
-532,-223,-12.7426,0.744995,-0.0121119,0.0102014,-0.00390608,0.0108655,-0.0127759,-1.40241,0.0136642,0.0448376,692,1247,-12.7426,-0.744944
-525,-223,-13.4529,1.42651,-0.0141618,0.0101072,-0.00329969,0.0105479,-0.0146025,-1.43804,0.0145833,0.0466427,699,1247,-13.4529,-1.42657
-518,-223,-13.364,1.1272,-0.0153929,0.00898628,-0.00217374,0.00917858,-0.0155852,-1.48256,0.014456,0.0429635,706,1247,-13.364,-1.12724
-511,-223,-13.4109,1.07544,-0.0142389,0.00664991,-0.000637301,0.00666933,-0.0142583,-1.54032,0.0123446,0.0399844,713,1247,-13.4109,-1.07544
-504,-223,-13.4521,1.00122,-0.00811383,0.00259644,0.00239147,0.00310617,-0.00862355,1.3608,0.00701744,0.0393225,720,1247,-13.4521,-1.00121
-497,-223,0,0,0,0,0,0,0,0,0,-1,727,1247,0,0
-490,-223,0,0,0,0,0,0,0,0,0,-1,734,1247,0,0
-483,-223,0,0,0,0,0,0,0,0,0,-1,741,1247,0,0
-476,-223,0,0,0,0,0,0,0,0,0,-1,748,1247,0,0
-469,-223,0,0,0,0,0,0,0,0,0,-1,755,1247,0,0
-462,-223,0,0,0,0,0,0,0,0,0,-1,762,1247,0,0
-455,-223,0,0,0,0,0,0,0,0,0,-1,769,1247,0,0
-448,-223,0,0,0,0,0,0,0,0,0,-1,776,1247,0,0
-441,-223,0,0,0,0,0,0,0,0,0,-1,783,1247,0,0
-434,-223,0,0,0,0,0,0,0,0,0,-1,790,1247,0,0
-427,-223,0,0,0,0,0,0,0,0,0,-1,797,1247,0,0
-420,-223,0,0,0,0,0,0,0,0,0,-1,804,1247,0,0
-413,-223,0,0,0,0,0,0,0,0,0,-1,811,1247,0,0
-406,-223,0,0,0,0,0,0,0,0,0,-1,818,1247,0,0
-399,-223,0,0,0,0,0,0,0,0,0,-1,825,1247,0,0
-392,-223,0,0,0,0,0,0,0,0,0,-1,832,1247,0,0
-385,-223,0,0,0,0,0,0,0,0,0,-1,839,1247,0,0
-378,-223,0,0,0,0,0,0,0,0,0,-1,846,1247,0,0
-371,-223,0,0,0,0,0,0,0,0,0,-1,853,1247,0,0
-364,-223,0,0,0,0,0,0,0,0,0,-1,860,1247,0,0
-357,-223,0,0,0,0,0,0,0,0,0,-1,867,1247,0,0
-350,-223,0,0,0,0,0,0,0,0,0,-1,874,1247,0,0
-343,-223,0,0,0,0,0,0,0,0,0,-1,881,1247,0,0
-336,-223,0,0,0,0,0,0,0,0,0,-1,888,1247,0,0
-329,-223,0,0,0,0,0,0,0,0,0,-1,895,1247,0,0
-322,-223,0,0,0,0,0,0,0,0,0,-1,902,1247,0,0
-315,-223,0,0,0,0,0,0,0,0,0,-1,909,1247,0,0
-308,-223,0,0,0,0,0,0,0,0,0,-1,916,1247,0,0
-301,-223,0,0,0,0,0,0,0,0,0,-1,923,1247,0,0
-294,-223,0,0,0,0,0,0,0,0,0,-1,930,1247,0,0
-287,-223,0,0,0,0,0,0,0,0,0,-1,937,1247,0,0
-280,-223,0,0,0,0,0,0,0,0,0,-1,944,1247,0,0
-273,-223,0,0,0,0,0,0,0,0,0,-1,951,1247,0,0
-266,-223,0,0,0,0,0,0,0,0,0,-1,958,1247,0,0
-259,-223,0,0,0,0,0,0,0,0,0,-1,965,1247,0,0
-252,-223,0,0,0,0,0,0,0,0,0,-1,972,1247,0,0
-245,-223,0,0,0,0,0,0,0,0,0,-1,979,1247,0,0
-238,-223,0,0,0,0,0,0,0,0,0,-1,986,1247,0,0
-231,-223,0,0,0,0,0,0,0,0,0,-1,993,1247,0,0
-224,-223,0,0,0,0,0,0,0,0,0,-1,1000,1247,0,0
-217,-223,0,0,0,0,0,0,0,0,0,-1,1007,1247,0,0
-210,-223,0,0,0,0,0,0,0,0,0,-1,1014,1247,0,0
-203,-223,0,0,0,0,0,0,0,0,0,-1,1021,1247,0,0
-196,-223,0,0,0,0,0,0,0,0,0,-1,1028,1247,0,0
-189,-223,0,0,0,0,0,0,0,0,0,-1,1035,1247,0,0
-182,-223,0,0,0,0,0,0,0,0,0,-1,1042,1247,0,0
-175,-223,0,0,0,0,0,0,0,0,0,-1,1049,1247,0,0
-168,-223,0,0,0,0,0,0,0,0,0,-1,1056,1247,0,0
-161,-223,0,0,0,0,0,0,0,0,0,-1,1063,1247,0,0
-154,-223,0,0,0,0,0,0,0,0,0,-1,1070,1247,0,0
-147,-223,0,0,0,0,0,0,0,0,0,-1,1077,1247,0,0
-140,-223,0,0,0,0,0,0,0,0,0,-1,1084,1247,0,0
-133,-223,0,0,0,0,0,0,0,0,0,-1,1091,1247,0,0
-126,-223,0,0,0,0,0,0,0,0,0,-1,1098,1247,0,0
-119,-223,0,0,0,0,0,0,0,0,0,-1,1105,1247,0,0
-112,-223,0,0,0,0,0,0,0,0,0,-1,1112,1247,0,0
-105,-223,0,0,0,0,0,0,0,0,0,-1,1119,1247,0,0
-98,-223,0,0,0,0,0,0,0,0,0,-1,1126,1247,0,0
-91,-223,0,0,0,0,0,0,0,0,0,-1,1133,1247,0,0
-84,-223,0,0,0,0,0,0,0,0,0,-1,1140,1247,0,0
-77,-223,0,0,0,0,0,0,0,0,0,-1,1147,1247,0,0
-70,-223,0,0,0,0,0,0,0,0,0,-1,1154,1247,0,0
-63,-223,0,0,0,0,0,0,0,0,0,-1,1161,1247,0,0
-56,-223,0,0,0,0,0,0,0,0,0,-1,1168,1247,0,0
-49,-223,0,0,0,0,0,0,0,0,0,-1,1175,1247,0,0
-42,-223,0,0,0,0,0,0,0,0,0,-1,1182,1247,0,0
-35,-223,0,0,0,0,0,0,0,0,0,-1,1189,1247,0,0
-28,-223,0,0,0,0,0,0,0,0,0,-1,1196,1247,0,0
-21,-223,0,0,0,0,0,0,0,0,0,-1,1203,1247,0,0
-14,-223,0,0,0,0,0,0,0,0,0,-1,1210,1247,0,0
-7,-223,0,0,0,0,0,0,0,0,0,-1,1217,1247,0,0
0,-223,0,0,0,0,0,0,0,0,0,-1,1224,1247,0,0
7,-223,0,0,0,0,0,0,0,0,0,-1,1231,1247,0,0
14,-223,0,0,0,0,0,0,0,0,0,-1,1238,1247,0,0
21,-223,0,0,0,0,0,0,0,0,0,-1,1245,1247,0,0
28,-223,0,0,0,0,0,0,0,0,0,-1,1252,1247,0,0
35,-223,0,0,0,0,0,0,0,0,0,-1,1259,1247,0,0
42,-223,0,0,0,0,0,0,0,0,0,-1,1266,1247,0,0
49,-223,0,0,0,0,0,0,0,0,0,-1,1273,1247,0,0
56,-223,0,0,0,0,0,0,0,0,0,-1,1280,1247,0,0
63,-223,0,0,0,0,0,0,0,0,0,-1,1287,1247,0,0
70,-223,0,0,0,0,0,0,0,0,0,-1,1294,1247,0,0
77,-223,0,0,0,0,0,0,0,0,0,-1,1301,1247,0,0
84,-223,0,0,0,0,0,0,0,0,0,-1,1308,1247,0,0
91,-223,0,0,0,0,0,0,0,0,0,-1,1315,1247,0,0
98,-223,0,0,0,0,0,0,0,0,0,-1,1322,1247,0,0
105,-223,0,0,0,0,0,0,0,0,0,-1,1329,1247,0,0
112,-223,0,0,0,0,0,0,0,0,0,-1,1336,1247,0,0
119,-223,0,0,0,0,0,0,0,0,0,-1,1343,1247,0,0
126,-223,0,0,0,0,0,0,0,0,0,-1,1350,1247,0,0
133,-223,0,0,0,0,0,0,0,0,0,-1,1357,1247,0,0
140,-223,0,0,0,0,0,0,0,0,0,-1,1364,1247,0,0
147,-223,0,0,0,0,0,0,0,0,0,-1,1371,1247,0,0
154,-223,0,0,0,0,0,0,0,0,0,-1,1378,1247,0,0
161,-223,0,0,0,0,0,0,0,0,0,-1,1385,1247,0,0
168,-223,0,0,0,0,0,0,0,0,0,-1,1392,1247,0,0
175,-223,0,0,0,0,0,0,0,0,0,-1,1399,1247,0,0
182,-223,0,0,0,0,0,0,0,0,0,-1,1406,1247,0,0
189,-223,0,0,0,0,0,0,0,0,0,-1,1413,1247,0,0
196,-223,0,0,0,0,0,0,0,0,0,-1,1420,1247,0,0
203,-223,0,0,0,0,0,0,0,0,0,-1,1427,1247,0,0
210,-223,0,0,0,0,0,0,0,0,0,-1,1434,1247,0,0
217,-223,0,0,0,0,0,0,0,0,0,-1,1441,1247,0,0
224,-223,0,0,0,0,0,0,0,0,0,-1,1448,1247,0,0
231,-223,0,0,0,0,0,0,0,0,0,-1,1455,1247,0,0
238,-223,0,0,0,0,0,0,0,0,0,-1,1462,1247,0,0
245,-223,0,0,0,0,0,0,0,0,0,-1,1469,1247,0,0
252,-223,0,0,0,0,0,0,0,0,0,-1,1476,1247,0,0
259,-223,0,0,0,0,0,0,0,0,0,-1,1483,1247,0,0
266,-223,0,0,0,0,0,0,0,0,0,-1,1490,1247,0,0
273,-223,0,0,0,0,0,0,0,0,0,-1,1497,1247,0,0
280,-223,0,0,0,0,0,0,0,0,0,-1,1504,1247,0,0
287,-223,0,0,0,0,0,0,0,0,0,-1,1511,1247,0,0
294,-223,0,0,0,0,0,0,0,0,0,-1,1518,1247,0,0
301,-223,0,0,0,0,0,0,0,0,0,-1,1525,1247,0,0
308,-223,0,0,0,0,0,0,0,0,0,-1,1532,1247,0,0
315,-223,0,0,0,0,0,0,0,0,0,-1,1539,1247,0,0
322,-223,0,0,0,0,0,0,0,0,0,-1,1546,1247,0,0
329,-223,0,0,0,0,0,0,0,0,0,-1,1553,1247,0,0
336,-223,0,0,0,0,0,0,0,0,0,-1,1560,1247,0,0
343,-223,0,0,0,0,0,0,0,0,0,-1,1567,1247,0,0
350,-223,0,0,0,0,0,0,0,0,0,-1,1574,1247,0,0
357,-223,0,0,0,0,0,0,0,0,0,-1,1581,1247,0,0
364,-223,0,0,0,0,0,0,0,0,0,-1,1588,1247,0,0
371,-223,0,0,0,0,0,0,0,0,0,-1,1595,1247,0,0
378,-223,0,0,0,0,0,0,0,0,0,-1,1602,1247,0,0
385,-223,0,0,0,0,0,0,0,0,0,-1,1609,1247,0,0
392,-223,0,0,0,0,0,0,0,0,0,-1,1616,1247,0,0
399,-223,0,0,0,0,0,0,0,0,0,-1,1623,1247,0,0
406,-223,0,0,0,0,0,0,0,0,0,-1,1630,1247,0,0
413,-223,0,0,0,0,0,0,0,0,0,-1,1637,1247,0,0
420,-223,0,0,0,0,0,0,0,0,0,-1,1644,1247,0,0
427,-223,0,0,0,0,0,0,0,0,0,-1,1651,1247,0,0
434,-223,0,0,0,0,0,0,0,0,0,-1,1658,1247,0,0
441,-223,0,0,0,0,0,0,0,0,0,-1,1665,1247,0,0
448,-223,0,0,0,0,0,0,0,0,0,-1,1672,1247,0,0
455,-223,0,0,0,0,0,0,0,0,0,-1,1679,1247,0,0
462,-223,0,0,0,0,0,0,0,0,0,-1,1686,1247,0,0
469,-223,0,0,0,0,0,0,0,0,0,-1,1693,1247,0,0
476,-223,0,0,0,0,0,0,0,0,0,-1,1700,1247,0,0
483,-223,0,0,0,0,0,0,0,0,0,-1,1707,1247,0,0
490,-223,0,0,0,0,0,0,0,0,0,-1,1714,1247,0,0
497,-223,0,0,0,0,0,0,0,0,0,-1,1721,1247,0,0
504,-223,0,0,0,0,0,0,0,0,0,-1,1728,1247,0,0
511,-223,0,0,0,0,0,0,0,0,0,-1,1735,1247,0,0
518,-223,0,0,0,0,0,0,0,0,0,-1,1742,1247,0,0
525,-223,0,0,0,0,0,0,0,0,0,-1,1749,1247,0,0
532,-223,0,0,0,0,0,0,0,0,0,-1,1756,1247,0,0
539,-223,0,0,0,0,0,0,0,0,0,-1,1763,1247,0,0
546,-223,0,0,0,0,0,0,0,0,0,-1,1770,1247,0,0
553,-223,0,0,0,0,0,0,0,0,0,-1,1777,1247,0,0
560,-223,0,0,0,0,0,0,0,0,0,-1,1784,1247,0,0
567,-223,0,0,0,0,0,0,0,0,0,-1,1791,1247,0,0
574,-223,0,0,0,0,0,0,0,0,0,-1,1798,1247,0,0
581,-223,0,0,0,0,0,0,0,0,0,-1,1805,1247,0,0
588,-223,0,0,0,0,0,0,0,0,0,-1,1812,1247,0,0
595,-223,0,0,0,0,0,0,0,0,0,-1,1819,1247,0,0
602,-223,0,0,0,0,0,0,0,0,0,-1,1826,1247,0,0
609,-223,0,0,0,0,0,0,0,0,0,-1,1833,1247,0,0
616,-223,0,0,0,0,0,0,0,0,0,-1,1840,1247,0,0
623,-223,20.7614,2.9165,0.000117503,0.00345438,-0.00122251,0.00385433,-0.000282444,-1.25462,0.00266869,0.0410731,1847,1247,20.7613,-2.91651
630,-223,20.9174,2.95117,0.00283056,0.00427059,-0.00248074,0.00613369,0.000967459,-0.926638,0.00380783,0.0368485,1854,1247,20.9174,-2.95112
637,-223,20.9875,2.96277,0.00466731,0.00450601,-0.00266302,0.0072509,0.00192242,-0.77026,0.00433753,0.0288305,1861,1247,20.9876,-2.96279
644,-223,21.0481,2.94983,0.00533581,0.00427315,-0.0024972,0.00735757,0.00225138,-0.680576,0.00435318,0.0213576,1868,1247,21.0481,-2.94979
651,-223,21.1055,2.96924,0.00533441,0.00367238,-0.00206706,0.00673125,0.00227554,-0.594271,0.00395365,0.0231421,1875,1247,21.1054,-2.96923
658,-223,20.9386,2.72986,0.00499008,0.00302591,-0.00159107,0.00587775,0.00213823,-0.508895,0.00343524,0.0401743,1882,1247,20.9386,-2.7299
665,-223,21.0685,2.77686,0.00449252,0.00237329,-0.00107919,0.00494533,0.00192048,-0.397275,0.00287882,0.046204,1889,1247,21.0685,-2.77684
672,-223,21.1144,2.86938,0,0,0,0,0,0,0,-1,1896,1247,21.1144,-2.86937
679,-223,20.2987,2.65576,0,0,0,0,0,0,0,-1,1903,1247,20.2987,-2.65579
686,-223,18.1141,5.64929,0,0,0,0,0,0,0,-1,1910,1247,18.1142,-5.64923
693,-223,18.0336,5.42188,0.00175335,-0.000133436,0.000731937,0.00200399,-0.00038408,0.329923,0.00148072,0.0254018,1917,1247,18.0336,-5.42189
700,-223,18.1041,5.24902,0.00118534,-0.000359551,0.00110049,0.00175742,-0.000931628,0.479394,0.00157673,0.0120083,1924,1247,18.1041,-5.24897
707,-223,18.1005,5.07983,0.000693152,-0.000420749,0.00135229,0.00159869,-0.00132629,0.590055,0.00169118,0.0145049,1931,1247,18.1005,-5.07985
714,-223,18.1179,4.89661,0.000265152,-0.00068076,0.00133717,0.00121054,-0.00162615,0.615414,0.00164361,0.0129867,1938,1247,18.1179,-4.89657
721,-223,18.1094,4.75232,0.00020939,-0.000605116,0.000672511,0.000588347,-0.000984073,0.513145,0.00091737,0.0141733,1945,1247,18.1093,-4.75227
728,-223,18.105,4.61169,0.000115484,-0.000626489,-0.000109124,0.000131201,-0.000642206,-0.143038,0.000477912,0.0158398,1952,1247,18.105,-4.61166
735,-223,18.1038,4.45752,7.95667e-05,-0.000646289,-0.000888853,0.000676731,-0.00124345,-0.591573,0.0011246,0.0137416,1959,1247,18.1038,-4.45757
742,-223,18.0723,4.31946,0.00063347,-0.000460815,-0.00150043,0.00168341,-0.00151075,-0.610562,0.00184505,0.0111274,1966,1247,18.0723,-4.3195
749,-223,18.097,4.1416,0.000433848,-0.000703572,-0.00231641,0.00225034,-0.00252006,-0.665022,0.00275566,0.00975893,1973,1247,18.0971,-4.1416
756,-223,18.1022,3.98889,-0.000316266,-0.00105325,-0.00318369,0.00252018,-0.0038897,-0.727782,0.0037288,0.0107063,1980,1247,18.1022,-3.98893
763,-223,18.0978,3.86633,-0.00141763,-0.00170444,-0.00391555,0.00235714,-0.00547921,-0.767094,0.00464247,0.0135713,1987,1247,18.0978,-3.86635
770,-223,18.0417,3.55347,-0.00345218,-0.00247682,-0.00454603,0.00160761,-0.00753661,-0.838832,0.00563721,0.0371029,1994,1247,18.0417,-3.55352
777,-223,17.9711,3.23303,0,0,0,0,0,0,0,-1,2001,1247,17.971,-3.23308
784,-223,18.3015,3.06885,0,0,0,0,0,0,0,-1,2008,1247,18.3015,-3.06888
791,-223,18.5129,2.12146,0,0,0,0,0,0,0,-1,2015,1247,18.5129,-2.12146
798,-223,0,0,0,0,0,0,0,0,0,-1,2022,1247,0,0
805,-223,0,0,0,0,0,0,0,0,0,-1,2029,1247,0,0
812,-223,0,0,0,0,0,0,0,0,0,-1,2036,1247,0,0
-700,-230,0,0,0,0,0,0,0,0,0,-1,524,1254,0,0
-693,-230,0,0,0,0,0,0,0,0,0,-1,531,1254,0,0
-686,-230,0,0,0,0,0,0,0,0,0,-1,538,1254,0,0
-679,-230,0,0,0,0,0,0,0,0,0,-1,545,1254,0,0
-672,-230,-11.2745,1.67883,0.0284904,0.0357891,-0.0340451,0.0663798,-0.00210036,-0.83879,0.0449697,0.0493847,552,1254,-11.2745,-1.67878
-665,-230,-11.0909,1.72717,0.0184084,0.0284056,-0.0265989,0.0504715,-0.00365756,-0.878278,0.0349308,0.0481744,559,1254,-11.0909,-1.72717
-658,-230,-10.8934,1.66907,0.0102187,0.0224323,-0.0204975,0.0377134,-0.00506238,-0.930176,0.0269885,0.0455791,566,1254,-10.8935,-1.66907
-651,-230,-10.5181,1.36792,0.00405665,0.0175594,-0.0155132,0.0277267,-0.00611064,-0.990638,0.0208224,0.045365,573,1254,-10.5181,-1.36792
-644,-230,-10.3218,1.38367,0,0,0,0,0,0,0,-1,580,1254,-10.3218,-1.38372
-637,-230,-10.4757,1.49268,0,0,0,0,0,0,0,-1,587,1254,-10.4757,-1.49265
-630,-230,-9.81653,1.37,-0.0048005,0.00785084,-0.00573744,0.0100652,-0.00701487,-1.20246,0.00991347,0.041835,594,1254,-9.81651,-1.36993
-623,-230,-9.901,1.61536,-0.00529213,0.00513256,-0.00387135,0.00641297,-0.00657254,-1.25138,0.00749738,0.026661,601,1254,-9.901,-1.61532
-616,-230,-9.91522,1.82068,-0.00555998,0.00343986,-0.00244715,0.00406222,-0.00618235,-1.32175,0.00595678,0.0159134,608,1254,-9.91522,-1.82063
-609,-230,-9.89551,2.00732,-0.0048415,0.00286534,-0.00188298,0.0033008,-0.00527696,-1.34353,0.00499599,0.0112023,615,1254,-9.8955,-2.00736
-602,-230,-9.88733,2.17993,-0.00335099,0.00174835,-0.00116014,0.00199988,-0.00360253,-1.35729,0.00327837,0.0117908,622,1254,-9.88731,-2.17996
-595,-230,-9.90735,2.36902,-0.00146888,0.00126204,-0.00105945,0.00162485,-0.00183168,-1.24086,0.00199682,0.0192775,629,1254,-9.90734,-2.36904
-588,-230,-9.9129,2.58167,8.10543e-05,0.00222296,-0.00180665,0.00325223,-0.000948216,-1.05295,0.00254383,0.026278,636,1254,-9.91293,-2.58167
-581,-230,-9.90802,2.79517,0.00047444,0.00333383,-0.00271454,0.00497215,-0.00116389,-1.02778,0.00376321,0.0236748,643,1254,-9.908,-2.79513
-574,-230,-9.90363,2.98352,-0.000105396,0.00463187,-0.00341943,0.00642291,-0.00189644,-1.0883,0.00503459,0.016052,650,1254,-9.90362,-2.98357
-567,-230,-9.75104,3.17773,-0.00179437,0.0058014,-0.00369913,0.00730517,-0.00329813,-1.18468,0.00626584,0.0213291,657,1254,-9.75101,-3.17773
-560,-230,-9.54614,3.37036,-0.00348767,0.00647429,-0.00383363,0.00777876,-0.00479214,-1.24282,0.00732577,0.0351276,664,1254,-9.54612,-3.3703
-553,-230,-9.15625,3.54529,0,0,0,0,0,0,0,-1,671,1254,-9.15622,-3.54534
-546,-230,-10.7707,1.62012,0,0,0,0,0,0,0,-1,678,1254,-10.7707,-1.62008
-539,-230,-12.3709,0.234375,0,0,0,0,0,0,0,-1,685,1254,-12.3709,-0.234406
-532,-230,-12.6156,0.529419,0,0,0,0,0,0,0,-1,692,1254,-12.6156,-0.529391
-525,-230,-12.8911,0.8302,0,0,0,0,0,0,0,-1,699,1254,-12.8911,-0.830184
-518,-230,-12.9251,0.670166,0,0,0,0,0,0,0,-1,706,1254,-12.9251,-0.670204
-511,-230,-13.3729,1.04895,-0.015913,0.00523476,-0.00115392,0.00529754,-0.0159758,-1.51645,0.0127875,0.0408808,713,1254,-13.3729,-1.04901
-504,-230,-13.4387,1.11145,-0.0111037,0.00142652,0.00167369,0.00164622,-0.0113234,1.44027,0.00815328,0.0384835,720,1254,-13.4387,-1.1115
-497,-230,0,0,0,0,0,0,0,0,0,-1,727,1254,0,0
-490,-230,0,0,0,0,0,0,0,0,0,-1,734,1254,0,0
-483,-230,0,0,0,0,0,0,0,0,0,-1,741,1254,0,0
-476,-230,0,0,0,0,0,0,0,0,0,-1,748,1254,0,0
-469,-230,0,0,0,0,0,0,0,0,0,-1,755,1254,0,0
-462,-230,0,0,0,0,0,0,0,0,0,-1,762,1254,0,0
-455,-230,0,0,0,0,0,0,0,0,0,-1,769,1254,0,0
-448,-230,0,0,0,0,0,0,0,0,0,-1,776,1254,0,0
-441,-230,0,0,0,0,0,0,0,0,0,-1,783,1254,0,0
-434,-230,0,0,0,0,0,0,0,0,0,-1,790,1254,0,0
-427,-230,0,0,0,0,0,0,0,0,0,-1,797,1254,0,0
-420,-230,0,0,0,0,0,0,0,0,0,-1,804,1254,0,0
-413,-230,0,0,0,0,0,0,0,0,0,-1,811,1254,0,0
-406,-230,0,0,0,0,0,0,0,0,0,-1,818,1254,0,0
-399,-230,0,0,0,0,0,0,0,0,0,-1,825,1254,0,0
-392,-230,0,0,0,0,0,0,0,0,0,-1,832,1254,0,0
-385,-230,0,0,0,0,0,0,0,0,0,-1,839,1254,0,0
-378,-230,0,0,0,0,0,0,0,0,0,-1,846,1254,0,0
-371,-230,0,0,0,0,0,0,0,0,0,-1,853,1254,0,0
-364,-230,0,0,0,0,0,0,0,0,0,-1,860,1254,0,0
-357,-230,0,0,0,0,0,0,0,0,0,-1,867,1254,0,0
-350,-230,0,0,0,0,0,0,0,0,0,-1,874,1254,0,0
-343,-230,0,0,0,0,0,0,0,0,0,-1,881,1254,0,0
-336,-230,0,0,0,0,0,0,0,0,0,-1,888,1254,0,0
-329,-230,0,0,0,0,0,0,0,0,0,-1,895,1254,0,0
-322,-230,0,0,0,0,0,0,0,0,0,-1,902,1254,0,0
-315,-230,0,0,0,0,0,0,0,0,0,-1,909,1254,0,0
-308,-230,0,0,0,0,0,0,0,0,0,-1,916,1254,0,0
-301,-230,0,0,0,0,0,0,0,0,0,-1,923,1254,0,0
-294,-230,0,0,0,0,0,0,0,0,0,-1,930,1254,0,0
-287,-230,0,0,0,0,0,0,0,0,0,-1,937,1254,0,0
-280,-230,0,0,0,0,0,0,0,0,0,-1,944,1254,0,0
-273,-230,0,0,0,0,0,0,0,0,0,-1,951,1254,0,0
-266,-230,0,0,0,0,0,0,0,0,0,-1,958,1254,0,0
-259,-230,0,0,0,0,0,0,0,0,0,-1,965,1254,0,0
-252,-230,0,0,0,0,0,0,0,0,0,-1,972,1254,0,0
-245,-230,0,0,0,0,0,0,0,0,0,-1,979,1254,0,0
-238,-230,0,0,0,0,0,0,0,0,0,-1,986,1254,0,0
-231,-230,0,0,0,0,0,0,0,0,0,-1,993,1254,0,0
-224,-230,0,0,0,0,0,0,0,0,0,-1,1000,1254,0,0
-217,-230,0,0,0,0,0,0,0,0,0,-1,1007,1254,0,0
-210,-230,0,0,0,0,0,0,0,0,0,-1,1014,1254,0,0
-203,-230,0,0,0,0,0,0,0,0,0,-1,1021,1254,0,0
-196,-230,0,0,0,0,0,0,0,0,0,-1,1028,1254,0,0
-189,-230,0,0,0,0,0,0,0,0,0,-1,1035,1254,0,0
-182,-230,0,0,0,0,0,0,0,0,0,-1,1042,1254,0,0
-175,-230,0,0,0,0,0,0,0,0,0,-1,1049,1254,0,0
-168,-230,0,0,0,0,0,0,0,0,0,-1,1056,1254,0,0
-161,-230,0,0,0,0,0,0,0,0,0,-1,1063,1254,0,0
-154,-230,0,0,0,0,0,0,0,0,0,-1,1070,1254,0,0
-147,-230,0,0,0,0,0,0,0,0,0,-1,1077,1254,0,0
-140,-230,0,0,0,0,0,0,0,0,0,-1,1084,1254,0,0
-133,-230,0,0,0,0,0,0,0,0,0,-1,1091,1254,0,0
-126,-230,0,0,0,0,0,0,0,0,0,-1,1098,1254,0,0
-119,-230,0,0,0,0,0,0,0,0,0,-1,1105,1254,0,0
-112,-230,0,0,0,0,0,0,0,0,0,-1,1112,1254,0,0
-105,-230,0,0,0,0,0,0,0,0,0,-1,1119,1254,0,0
-98,-230,0,0,0,0,0,0,0,0,0,-1,1126,1254,0,0
-91,-230,0,0,0,0,0,0,0,0,0,-1,1133,1254,0,0
-84,-230,0,0,0,0,0,0,0,0,0,-1,1140,1254,0,0
-77,-230,0,0,0,0,0,0,0,0,0,-1,1147,1254,0,0
-70,-230,0,0,0,0,0,0,0,0,0,-1,1154,1254,0,0
-63,-230,0,0,0,0,0,0,0,0,0,-1,1161,1254,0,0
-56,-230,0,0,0,0,0,0,0,0,0,-1,1168,1254,0,0
-49,-230,0,0,0,0,0,0,0,0,0,-1,1175,1254,0,0
-42,-230,0,0,0,0,0,0,0,0,0,-1,1182,1254,0,0
-35,-230,0,0,0,0,0,0,0,0,0,-1,1189,1254,0,0
-28,-230,0,0,0,0,0,0,0,0,0,-1,1196,1254,0,0
-21,-230,0,0,0,0,0,0,0,0,0,-1,1203,1254,0,0
-14,-230,0,0,0,0,0,0,0,0,0,-1,1210,1254,0,0
-7,-230,0,0,0,0,0,0,0,0,0,-1,1217,1254,0,0
0,-230,0,0,0,0,0,0,0,0,0,-1,1224,1254,0,0
7,-230,0,0,0,0,0,0,0,0,0,-1,1231,1254,0,0
14,-230,0,0,0,0,0,0,0,0,0,-1,1238,1254,0,0
21,-230,0,0,0,0,0,0,0,0,0,-1,1245,1254,0,0
28,-230,0,0,0,0,0,0,0,0,0,-1,1252,1254,0,0
35,-230,0,0,0,0,0,0,0,0,0,-1,1259,1254,0,0
42,-230,0,0,0,0,0,0,0,0,0,-1,1266,1254,0,0
49,-230,0,0,0,0,0,0,0,0,0,-1,1273,1254,0,0
56,-230,0,0,0,0,0,0,0,0,0,-1,1280,1254,0,0
63,-230,0,0,0,0,0,0,0,0,0,-1,1287,1254,0,0
70,-230,0,0,0,0,0,0,0,0,0,-1,1294,1254,0,0
77,-230,0,0,0,0,0,0,0,0,0,-1,1301,1254,0,0
84,-230,0,0,0,0,0,0,0,0,0,-1,1308,1254,0,0
91,-230,0,0,0,0,0,0,0,0,0,-1,1315,1254,0,0
98,-230,0,0,0,0,0,0,0,0,0,-1,1322,1254,0,0
105,-230,0,0,0,0,0,0,0,0,0,-1,1329,1254,0,0
112,-230,0,0,0,0,0,0,0,0,0,-1,1336,1254,0,0
119,-230,0,0,0,0,0,0,0,0,0,-1,1343,1254,0,0
126,-230,0,0,0,0,0,0,0,0,0,-1,1350,1254,0,0
133,-230,0,0,0,0,0,0,0,0,0,-1,1357,1254,0,0
140,-230,0,0,0,0,0,0,0,0,0,-1,1364,1254,0,0
147,-230,0,0,0,0,0,0,0,0,0,-1,1371,1254,0,0
154,-230,0,0,0,0,0,0,0,0,0,-1,1378,1254,0,0
161,-230,0,0,0,0,0,0,0,0,0,-1,1385,1254,0,0
168,-230,0,0,0,0,0,0,0,0,0,-1,1392,1254,0,0
175,-230,0,0,0,0,0,0,0,0,0,-1,1399,1254,0,0
182,-230,0,0,0,0,0,0,0,0,0,-1,1406,1254,0,0
189,-230,0,0,0,0,0,0,0,0,0,-1,1413,1254,0,0
196,-230,0,0,0,0,0,0,0,0,0,-1,1420,1254,0,0
203,-230,0,0,0,0,0,0,0,0,0,-1,1427,1254,0,0
210,-230,0,0,0,0,0,0,0,0,0,-1,1434,1254,0,0
217,-230,0,0,0,0,0,0,0,0,0,-1,1441,1254,0,0
224,-230,0,0,0,0,0,0,0,0,0,-1,1448,1254,0,0
231,-230,0,0,0,0,0,0,0,0,0,-1,1455,1254,0,0
238,-230,0,0,0,0,0,0,0,0,0,-1,1462,1254,0,0
245,-230,0,0,0,0,0,0,0,0,0,-1,1469,1254,0,0
252,-230,0,0,0,0,0,0,0,0,0,-1,1476,1254,0,0
259,-230,0,0,0,0,0,0,0,0,0,-1,1483,1254,0,0
266,-230,0,0,0,0,0,0,0,0,0,-1,1490,1254,0,0
273,-230,0,0,0,0,0,0,0,0,0,-1,1497,1254,0,0
280,-230,0,0,0,0,0,0,0,0,0,-1,1504,1254,0,0
287,-230,0,0,0,0,0,0,0,0,0,-1,1511,1254,0,0
294,-230,0,0,0,0,0,0,0,0,0,-1,1518,1254,0,0
301,-230,0,0,0,0,0,0,0,0,0,-1,1525,1254,0,0
308,-230,0,0,0,0,0,0,0,0,0,-1,1532,1254,0,0
315,-230,0,0,0,0,0,0,0,0,0,-1,1539,1254,0,0
322,-230,0,0,0,0,0,0,0,0,0,-1,1546,1254,0,0
329,-230,0,0,0,0,0,0,0,0,0,-1,1553,1254,0,0
336,-230,0,0,0,0,0,0,0,0,0,-1,1560,1254,0,0
343,-230,0,0,0,0,0,0,0,0,0,-1,1567,1254,0,0
350,-230,0,0,0,0,0,0,0,0,0,-1,1574,1254,0,0
357,-230,0,0,0,0,0,0,0,0,0,-1,1581,1254,0,0
364,-230,0,0,0,0,0,0,0,0,0,-1,1588,1254,0,0
371,-230,0,0,0,0,0,0,0,0,0,-1,1595,1254,0,0
378,-230,0,0,0,0,0,0,0,0,0,-1,1602,1254,0,0
385,-230,0,0,0,0,0,0,0,0,0,-1,1609,1254,0,0
392,-230,0,0,0,0,0,0,0,0,0,-1,1616,1254,0,0
399,-230,0,0,0,0,0,0,0,0,0,-1,1623,1254,0,0
406,-230,0,0,0,0,0,0,0,0,0,-1,1630,1254,0,0
413,-230,0,0,0,0,0,0,0,0,0,-1,1637,1254,0,0
420,-230,0,0,0,0,0,0,0,0,0,-1,1644,1254,0,0
427,-230,0,0,0,0,0,0,0,0,0,-1,1651,1254,0,0
434,-230,0,0,0,0,0,0,0,0,0,-1,1658,1254,0,0
441,-230,0,0,0,0,0,0,0,0,0,-1,1665,1254,0,0
448,-230,0,0,0,0,0,0,0,0,0,-1,1672,1254,0,0
455,-230,0,0,0,0,0,0,0,0,0,-1,1679,1254,0,0
462,-230,0,0,0,0,0,0,0,0,0,-1,1686,1254,0,0
469,-230,0,0,0,0,0,0,0,0,0,-1,1693,1254,0,0
476,-230,0,0,0,0,0,0,0,0,0,-1,1700,1254,0,0
483,-230,0,0,0,0,0,0,0,0,0,-1,1707,1254,0,0
490,-230,0,0,0,0,0,0,0,0,0,-1,1714,1254,0,0
497,-230,0,0,0,0,0,0,0,0,0,-1,1721,1254,0,0
504,-230,0,0,0,0,0,0,0,0,0,-1,1728,1254,0,0
511,-230,0,0,0,0,0,0,0,0,0,-1,1735,1254,0,0
518,-230,0,0,0,0,0,0,0,0,0,-1,1742,1254,0,0
525,-230,0,0,0,0,0,0,0,0,0,-1,1749,1254,0,0
532,-230,0,0,0,0,0,0,0,0,0,-1,1756,1254,0,0
539,-230,0,0,0,0,0,0,0,0,0,-1,1763,1254,0,0
546,-230,0,0,0,0,0,0,0,0,0,-1,1770,1254,0,0
553,-230,0,0,0,0,0,0,0,0,0,-1,1777,1254,0,0
560,-230,0,0,0,0,0,0,0,0,0,-1,1784,1254,0,0
567,-230,0,0,0,0,0,0,0,0,0,-1,1791,1254,0,0
574,-230,0,0,0,0,0,0,0,0,0,-1,1798,1254,0,0
581,-230,0,0,0,0,0,0,0,0,0,-1,1805,1254,0,0
588,-230,0,0,0,0,0,0,0,0,0,-1,1812,1254,0,0
595,-230,0,0,0,0,0,0,0,0,0,-1,1819,1254,0,0
602,-230,0,0,0,0,0,0,0,0,0,-1,1826,1254,0,0
609,-230,0,0,0,0,0,0,0,0,0,-1,1833,1254,0,0
616,-230,21.0175,2.94812,-0.000776425,0.0021379,-0.000499077,0.002221,-0.000859522,-1.40581,0.00183553,0.0357942,1840,1254,21.0174,-2.94817
623,-230,20.9438,2.83826,0.00119661,0.00374695,-0.00155667,0.00448407,0.000459495,-1.12856,0.00284859,0.0370143,1847,1254,20.9439,-2.83828
630,-230,21.0057,2.81897,0.00330306,0.00506596,-0.00267248,0.0069986,0.00137042,-0.944692,0.00428265,0.0320395,1854,1254,21.0057,-2.81899
637,-230,21.0479,2.95386,0.00441047,0.00530816,-0.00277373,0.00766913,0.0020495,-0.865613,0.00458491,0.0256249,1861,1254,21.0478,-2.95391
644,-230,21.0564,2.93042,0.00466703,0.0049348,-0.00256674,0.00737115,0.00223068,-0.811456,0.00436486,0.0191114,1868,1254,21.0564,-2.93041
651,-230,21.0243,2.85547,0.00451228,0.00418908,-0.00213821,0.00649499,0.00220638,-0.747682,0.00381358,0.0339243,1875,1254,21.0242,-2.8555
658,-230,20.9553,2.72339,0.00414742,0.00342133,-0.00167499,0.00549826,0.0020705,-0.678676,0.0032065,0.0444654,1882,1254,20.9553,-2.72343
665,-230,20.8883,2.62683,0,0,0,0,0,0,0,-1,1889,1254,20.8882,-2.62683
672,-230,21.0251,2.93884,0,0,0,0,0,0,0,-1,1896,1254,21.0252,-2.93883
679,-230,18.2012,5.83984,0,0,0,0,0,0,0,-1,1903,1254,18.2012,-5.83979
686,-230,18.0598,5.62048,0.00207188,0.000491325,0.00019168,0.0020948,0.000468411,0.118976,0.00126953,0.0453075,1910,1254,18.0598,-5.62045
693,-230,17.9027,5.4032,0.00133033,-0.000223487,0.00052514,0.00149117,-0.00038432,0.297196,0.00114394,0.0200693,1917,1254,17.9028,-5.40316
700,-230,17.9629,5.26404,0.000850617,-0.00036932,0.000892068,0.00132132,-0.000840021,0.485524,0.00125812,0.0109806,1924,1254,17.9628,-5.26402
707,-230,17.9519,5.09802,0.000468605,-0.000359618,0.00115907,0.00128532,-0.00117633,0.613825,0.00142169,0.0100348,1931,1254,17.9519,-5.09802
714,-230,17.9386,4.91382,0.000172255,-0.000574838,0.00110734,0.000967356,-0.00136994,0.622723,0.00135609,0.0129638,1938,1254,17.9386,-4.91379
721,-230,17.9569,4.74451,0.000272313,-0.000512141,0.000333147,0.000394701,-0.000634529,0.352065,0.00059958,0.0126878,1945,1254,17.957,-4.74451
728,-230,17.9523,4.61218,0.000195314,-0.000652054,-0.000539479,0.000457593,-0.000914333,-0.452524,0.000806581,0.0133389,1952,1254,17.9523,-4.61216
735,-230,17.9517,4.45703,5.04046e-05,-0.000782106,-0.00136455,0.00106078,-0.00179248,-0.637357,0.00166529,0.0134182,1959,1254,17.9516,-4.45707
742,-230,17.9263,4.30115,0.000371061,-0.000861538,-0.00204435,0.00188999,-0.00238047,-0.638998,0.00247097,0.0103153,1966,1254,17.9263,-4.30114
749,-230,17.9449,4.12878,0.000145127,-0.00143788,-0.00276904,0.00223357,-0.00352632,-0.64619,0.00335328,0.0096193,1973,1254,17.945,-4.12881
756,-230,17.9569,3.97327,-0.000424398,-0.0023665,-0.00341713,0.00215698,-0.00494788,-0.646962,0.00420616,0.0120303,1980,1254,17.9569,-3.97322
763,-230,17.9352,3.81531,-0.00144212,-0.00372053,-0.00384431,0.00142822,-0.00659087,-0.641353,0.0049393,0.0238143,1987,1254,17.9352,-3.81527
770,-230,17.6595,3.43323,-0.00306149,-0.00546203,-0.0038417,-0.000236929,-0.0082866,-0.633987,0.00544714,0.0398588,1994,1254,17.6595,-3.43319
777,-230,17.2847,3.18848,-0.00549277,-0.00748944,-0.00306916,-0.00326366,-0.00971855,-0.628156,0.00571095,0.0490872,2001,1254,17.2846,-3.18845
784,-230,16.7755,3.24231,0,0,0,0,0,0,0,-1,2008,1254,16.7756,-3.24226
791,-230,16.5924,3.60925,0,0,0,0,0,0,0,-1,2015,1254,16.5924,-3.60921
798,-230,0,0,0,0,0,0,0,0,0,-1,2022,1254,0,0
805,-230,0,0,0,0,0,0,0,0,0,-1,2029,1254,0,0
812,-230,0,0,0,0,0,0,0,0,0,-1,2036,1254,0,0
-700,-237,0,0,0,0,0,0,0,0,0,-1,524,1261,0,0
-693,-237,0,0,0,0,0,0,0,0,0,-1,531,1261,0,0
-686,-237,0,0,0,0,0,0,0,0,0,-1,538,1261,0,0
-679,-237,0,0,0,0,0,0,0,0,0,-1,545,1261,0,0
-672,-237,-11.8849,1.61633,0.036555,0.0214949,-0.030426,0.0603689,-0.00231902,-0.664091,0.0410408,0.0453513,552,1261,-11.885,-1.61638
-665,-237,-10.8434,1.82202,0.0200095,0.0187507,-0.0240861,0.0434744,-0.00471421,-0.772335,0.0306753,0.0487469,559,1261,-10.8434,-1.82202
-658,-237,-10.6545,1.75964,0.00827116,0.0162936,-0.018643,0.0313521,-0.00678729,-0.891363,0.0234929,0.0469942,566,1261,-10.6545,-1.75967
-651,-237,-10.2253,1.31506,0.000315377,0.0139888,-0.0140849,0.0228086,-0.00850443,-1.01134,0.0186968,0.0486656,573,1261,-10.2254,-1.31507
-644,-237,-9.75494,1.26355,0,0,0,0,0,0,0,-1,580,1261,-9.75492,-1.26357
-637,-237,-9.047,1.28259,0,0,0,0,0,0,0,-1,587,1261,-9.04699,-1.28262
-630,-237,-9.32233,1.48218,-0.00902662,0.00793305,-0.00493939,0.00926673,-0.0103603,-1.30708,0.0113375,0.0444687,594,1261,-9.32233,-1.48216
-623,-237,-9.61218,1.63757,-0.00897774,0.00597344,-0.00322496,0.0066394,-0.0096437,-1.36716,0.00945424,0.0272794,601,1261,-9.61219,-1.63752
-616,-237,-9.70367,1.81873,-0.00864895,0.00464159,-0.00182634,0.00488799,-0.00889535,-1.43669,0.00806915,0.0134463,608,1261,-9.70367,-1.81875
-609,-237,-9.73413,2.01672,-0.00716491,0.0038001,-0.0011082,0.00391098,-0.00727579,-1.47107,0.00655535,0.0156356,615,1261,-9.73415,-2.01677
-602,-237,-9.70105,2.19543,-0.00489741,0.00253858,-0.000340882,0.00255417,-0.00491301,-1.52508,0.00438229,0.0119931,622,1261,-9.70107,-2.19549
-595,-237,-9.71381,2.38635,-0.00223041,0.00150501,-8.00842e-05,0.00150673,-0.00223213,-1.54937,0.00217213,0.0150614,629,1261,-9.71381,-2.38633
-588,-237,-9.71387,2.61255,6.57131e-06,0.00202941,-0.000800073,0.00230759,-0.000271616,-1.23617,0.00163647,0.0260848,636,1261,-9.71389,-2.61257
-581,-237,-9.71545,2.81897,0.000953929,0.00283854,-0.00173559,0.00387113,-7.86606e-05,-1.0341,0.00260737,0.0239064,643,1261,-9.71547,-2.81895
-574,-237,-9.71375,2.97729,0.000685774,0.00399372,-0.00258379,0.00540758,-0.000728086,-1.0701,0.00387065,0.0148207,650,1261,-9.71376,-2.97735
-567,-237,-9.65961,3.19812,-0.00111585,0.0050704,-0.00300498,0.00628974,-0.00233519,-1.18532,0.00515112,0.0158287,657,1261,-9.65959,-3.19817
-560,-237,-9.46545,3.44775,-0.00306176,0.00562138,-0.00326546,0.00671234,-0.00415273,-1.24836,0.00633071,0.0273725,664,1261,-9.46547,-3.44771
-553,-237,-9.25726,3.6571,0,0,0,0,0,0,0,-1,671,1261,-9.25728,-3.65705
-546,-237,-11.192,1.14014,0,0,0,0,0,0,0,-1,678,1261,-11.192,-1.14011
-539,-237,-11.4547,0.806763,-0.0101017,0.00745565,-0.00407931,0.00835716,-0.0110032,-1.3533,0.0112125,0.0478612,685,1261,-11.4547,-0.806743
-532,-237,-11.9503,0.214111,-0.0129468,0.00752323,-0.00407851,0.00830592,-0.0137294,-1.3812,0.0128499,0.0454056,692,1261,-11.9503,-0.214095
-525,-237,-12.2083,-0.0366211,-0.0155923,0.00702115,-0.0037383,0.00762312,-0.0161942,-1.41114,0.0140446,0.0473731,699,1261,-12.2083,0.0366802
-518,-237,-12.6695,0.239624,-0.0176556,0.00571909,-0.00292685,0.00608,-0.0180165,-1.44811,0.0144699,0.0470213,706,1261,-12.6695,-0.239665
-511,-237,-13.0677,0.61792,0,0,0,0,0,0,0,-1,713,1261,-13.0677,-0.617938
-504,-237,-13.3846,1.26172,-0.014793,-0.000316582,0.00104878,-0.000240996,-0.0148686,1.49885,0.00983303,0.0405471,720,1261,-13.3846,-1.26172
-497,-237,-13.4668,1.51245,-0.00614562,-0.00520444,0.00449908,-0.00115141,-0.0101987,0.837508,0.00644965,0.0459731,727,1261,-13.4668,-1.51245
-490,-237,0,0,0,0,0,0,0,0,0,-1,734,1261,0,0
-483,-237,0,0,0,0,0,0,0,0,0,-1,741,1261,0,0
-476,-237,0,0,0,0,0,0,0,0,0,-1,748,1261,0,0
-469,-237,0,0,0,0,0,0,0,0,0,-1,755,1261,0,0
-462,-237,0,0,0,0,0,0,0,0,0,-1,762,1261,0,0
-455,-237,0,0,0,0,0,0,0,0,0,-1,769,1261,0,0
-448,-237,0,0,0,0,0,0,0,0,0,-1,776,1261,0,0
-441,-237,0,0,0,0,0,0,0,0,0,-1,783,1261,0,0
-434,-237,0,0,0,0,0,0,0,0,0,-1,790,1261,0,0
-427,-237,0,0,0,0,0,0,0,0,0,-1,797,1261,0,0
-420,-237,0,0,0,0,0,0,0,0,0,-1,804,1261,0,0
-413,-237,0,0,0,0,0,0,0,0,0,-1,811,1261,0,0
-406,-237,0,0,0,0,0,0,0,0,0,-1,818,1261,0,0
-399,-237,0,0,0,0,0,0,0,0,0,-1,825,1261,0,0
-392,-237,0,0,0,0,0,0,0,0,0,-1,832,1261,0,0
-385,-237,0,0,0,0,0,0,0,0,0,-1,839,1261,0,0
-378,-237,0,0,0,0,0,0,0,0,0,-1,846,1261,0,0
-371,-237,0,0,0,0,0,0,0,0,0,-1,853,1261,0,0
-364,-237,0,0,0,0,0,0,0,0,0,-1,860,1261,0,0
-357,-237,0,0,0,0,0,0,0,0,0,-1,867,1261,0,0
-350,-237,0,0,0,0,0,0,0,0,0,-1,874,1261,0,0
-343,-237,0,0,0,0,0,0,0,0,0,-1,881,1261,0,0
-336,-237,0,0,0,0,0,0,0,0,0,-1,888,1261,0,0
-329,-237,0,0,0,0,0,0,0,0,0,-1,895,1261,0,0
-322,-237,0,0,0,0,0,0,0,0,0,-1,902,1261,0,0
-315,-237,0,0,0,0,0,0,0,0,0,-1,909,1261,0,0
-308,-237,0,0,0,0,0,0,0,0,0,-1,916,1261,0,0
-301,-237,0,0,0,0,0,0,0,0,0,-1,923,1261,0,0
-294,-237,0,0,0,0,0,0,0,0,0,-1,930,1261,0,0
-287,-237,0,0,0,0,0,0,0,0,0,-1,937,1261,0,0
-280,-237,0,0,0,0,0,0,0,0,0,-1,944,1261,0,0
-273,-237,0,0,0,0,0,0,0,0,0,-1,951,1261,0,0
-266,-237,0,0,0,0,0,0,0,0,0,-1,958,1261,0,0
-259,-237,0,0,0,0,0,0,0,0,0,-1,965,1261,0,0
-252,-237,0,0,0,0,0,0,0,0,0,-1,972,1261,0,0
-245,-237,0,0,0,0,0,0,0,0,0,-1,979,1261,0,0
-238,-237,0,0,0,0,0,0,0,0,0,-1,986,1261,0,0
-231,-237,0,0,0,0,0,0,0,0,0,-1,993,1261,0,0
-224,-237,0,0,0,0,0,0,0,0,0,-1,1000,1261,0,0
-217,-237,0,0,0,0,0,0,0,0,0,-1,1007,1261,0,0
-210,-237,0,0,0,0,0,0,0,0,0,-1,1014,1261,0,0
-203,-237,0,0,0,0,0,0,0,0,0,-1,1021,1261,0,0
-196,-237,0,0,0,0,0,0,0,0,0,-1,1028,1261,0,0
-189,-237,0,0,0,0,0,0,0,0,0,-1,1035,1261,0,0
-182,-237,0,0,0,0,0,0,0,0,0,-1,1042,1261,0,0
-175,-237,0,0,0,0,0,0,0,0,0,-1,1049,1261,0,0
-168,-237,0,0,0,0,0,0,0,0,0,-1,1056,1261,0,0
-161,-237,0,0,0,0,0,0,0,0,0,-1,1063,1261,0,0
-154,-237,0,0,0,0,0,0,0,0,0,-1,1070,1261,0,0
-147,-237,0,0,0,0,0,0,0,0,0,-1,1077,1261,0,0
-140,-237,0,0,0,0,0,0,0,0,0,-1,1084,1261,0,0
-133,-237,0,0,0,0,0,0,0,0,0,-1,1091,1261,0,0
-126,-237,0,0,0,0,0,0,0,0,0,-1,1098,1261,0,0
-119,-237,0,0,0,0,0,0,0,0,0,-1,1105,1261,0,0
-112,-237,0,0,0,0,0,0,0,0,0,-1,1112,1261,0,0
-105,-237,0,0,0,0,0,0,0,0,0,-1,1119,1261,0,0
-98,-237,0,0,0,0,0,0,0,0,0,-1,1126,1261,0,0
-91,-237,0,0,0,0,0,0,0,0,0,-1,1133,1261,0,0
-84,-237,0,0,0,0,0,0,0,0,0,-1,1140,1261,0,0
-77,-237,0,0,0,0,0,0,0,0,0,-1,1147,1261,0,0
-70,-237,0,0,0,0,0,0,0,0,0,-1,1154,1261,0,0
-63,-237,0,0,0,0,0,0,0,0,0,-1,1161,1261,0,0
-56,-237,0,0,0,0,0,0,0,0,0,-1,1168,1261,0,0
-49,-237,0,0,0,0,0,0,0,0,0,-1,1175,1261,0,0
-42,-237,0,0,0,0,0,0,0,0,0,-1,1182,1261,0,0
-35,-237,0,0,0,0,0,0,0,0,0,-1,1189,1261,0,0
-28,-237,0,0,0,0,0,0,0,0,0,-1,1196,1261,0,0
-21,-237,0,0,0,0,0,0,0,0,0,-1,1203,1261,0,0
-14,-237,0,0,0,0,0,0,0,0,0,-1,1210,1261,0,0
-7,-237,0,0,0,0,0,0,0,0,0,-1,1217,1261,0,0
0,-237,0,0,0,0,0,0,0,0,0,-1,1224,1261,0,0
7,-237,0,0,0,0,0,0,0,0,0,-1,1231,1261,0,0
14,-237,0,0,0,0,0,0,0,0,0,-1,1238,1261,0,0
21,-237,0,0,0,0,0,0,0,0,0,-1,1245,1261,0,0
28,-237,0,0,0,0,0,0,0,0,0,-1,1252,1261,0,0
35,-237,0,0,0,0,0,0,0,0,0,-1,1259,1261,0,0
42,-237,0,0,0,0,0,0,0,0,0,-1,1266,1261,0,0
49,-237,0,0,0,0,0,0,0,0,0,-1,1273,1261,0,0
56,-237,0,0,0,0,0,0,0,0,0,-1,1280,1261,0,0
63,-237,0,0,0,0,0,0,0,0,0,-1,1287,1261,0,0
70,-237,0,0,0,0,0,0,0,0,0,-1,1294,1261,0,0
77,-237,0,0,0,0,0,0,0,0,0,-1,1301,1261,0,0
84,-237,0,0,0,0,0,0,0,0,0,-1,1308,1261,0,0
91,-237,0,0,0,0,0,0,0,0,0,-1,1315,1261,0,0
98,-237,0,0,0,0,0,0,0,0,0,-1,1322,1261,0,0
105,-237,0,0,0,0,0,0,0,0,0,-1,1329,1261,0,0
112,-237,0,0,0,0,0,0,0,0,0,-1,1336,1261,0,0
119,-237,0,0,0,0,0,0,0,0,0,-1,1343,1261,0,0
126,-237,0,0,0,0,0,0,0,0,0,-1,1350,1261,0,0
133,-237,0,0,0,0,0,0,0,0,0,-1,1357,1261,0,0
140,-237,0,0,0,0,0,0,0,0,0,-1,1364,1261,0,0
147,-237,0,0,0,0,0,0,0,0,0,-1,1371,1261,0,0
154,-237,0,0,0,0,0,0,0,0,0,-1,1378,1261,0,0
161,-237,0,0,0,0,0,0,0,0,0,-1,1385,1261,0,0
168,-237,0,0,0,0,0,0,0,0,0,-1,1392,1261,0,0
175,-237,0,0,0,0,0,0,0,0,0,-1,1399,1261,0,0
182,-237,0,0,0,0,0,0,0,0,0,-1,1406,1261,0,0
189,-237,0,0,0,0,0,0,0,0,0,-1,1413,1261,0,0
196,-237,0,0,0,0,0,0,0,0,0,-1,1420,1261,0,0
203,-237,0,0,0,0,0,0,0,0,0,-1,1427,1261,0,0
210,-237,0,0,0,0,0,0,0,0,0,-1,1434,1261,0,0
217,-237,0,0,0,0,0,0,0,0,0,-1,1441,1261,0,0
224,-237,0,0,0,0,0,0,0,0,0,-1,1448,1261,0,0
231,-237,0,0,0,0,0,0,0,0,0,-1,1455,1261,0,0
238,-237,0,0,0,0,0,0,0,0,0,-1,1462,1261,0,0
245,-237,0,0,0,0,0,0,0,0,0,-1,1469,1261,0,0
252,-237,0,0,0,0,0,0,0,0,0,-1,1476,1261,0,0
259,-237,0,0,0,0,0,0,0,0,0,-1,1483,1261,0,0
266,-237,0,0,0,0,0,0,0,0,0,-1,1490,1261,0,0
273,-237,0,0,0,0,0,0,0,0,0,-1,1497,1261,0,0
280,-237,0,0,0,0,0,0,0,0,0,-1,1504,1261,0,0
287,-237,0,0,0,0,0,0,0,0,0,-1,1511,1261,0,0
294,-237,0,0,0,0,0,0,0,0,0,-1,1518,1261,0,0
301,-237,0,0,0,0,0,0,0,0,0,-1,1525,1261,0,0
308,-237,0,0,0,0,0,0,0,0,0,-1,1532,1261,0,0
315,-237,0,0,0,0,0,0,0,0,0,-1,1539,1261,0,0
322,-237,0,0,0,0,0,0,0,0,0,-1,1546,1261,0,0
329,-237,0,0,0,0,0,0,0,0,0,-1,1553,1261,0,0
336,-237,0,0,0,0,0,0,0,0,0,-1,1560,1261,0,0
343,-237,0,0,0,0,0,0,0,0,0,-1,1567,1261,0,0
350,-237,0,0,0,0,0,0,0,0,0,-1,1574,1261,0,0
357,-237,0,0,0,0,0,0,0,0,0,-1,1581,1261,0,0
364,-237,0,0,0,0,0,0,0,0,0,-1,1588,1261,0,0
371,-237,0,0,0,0,0,0,0,0,0,-1,1595,1261,0,0
378,-237,0,0,0,0,0,0,0,0,0,-1,1602,1261,0,0
385,-237,0,0,0,0,0,0,0,0,0,-1,1609,1261,0,0
392,-237,0,0,0,0,0,0,0,0,0,-1,1616,1261,0,0
399,-237,0,0,0,0,0,0,0,0,0,-1,1623,1261,0,0
406,-237,0,0,0,0,0,0,0,0,0,-1,1630,1261,0,0
413,-237,0,0,0,0,0,0,0,0,0,-1,1637,1261,0,0
420,-237,0,0,0,0,0,0,0,0,0,-1,1644,1261,0,0
427,-237,0,0,0,0,0,0,0,0,0,-1,1651,1261,0,0
434,-237,0,0,0,0,0,0,0,0,0,-1,1658,1261,0,0
441,-237,0,0,0,0,0,0,0,0,0,-1,1665,1261,0,0
448,-237,0,0,0,0,0,0,0,0,0,-1,1672,1261,0,0
455,-237,0,0,0,0,0,0,0,0,0,-1,1679,1261,0,0
462,-237,0,0,0,0,0,0,0,0,0,-1,1686,1261,0,0
469,-237,0,0,0,0,0,0,0,0,0,-1,1693,1261,0,0
476,-237,0,0,0,0,0,0,0,0,0,-1,1700,1261,0,0
483,-237,0,0,0,0,0,0,0,0,0,-1,1707,1261,0,0
490,-237,0,0,0,0,0,0,0,0,0,-1,1714,1261,0,0
497,-237,0,0,0,0,0,0,0,0,0,-1,1721,1261,0,0
504,-237,0,0,0,0,0,0,0,0,0,-1,1728,1261,0,0
511,-237,0,0,0,0,0,0,0,0,0,-1,1735,1261,0,0
518,-237,0,0,0,0,0,0,0,0,0,-1,1742,1261,0,0
525,-237,0,0,0,0,0,0,0,0,0,-1,1749,1261,0,0
532,-237,0,0,0,0,0,0,0,0,0,-1,1756,1261,0,0
539,-237,0,0,0,0,0,0,0,0,0,-1,1763,1261,0,0
546,-237,0,0,0,0,0,0,0,0,0,-1,1770,1261,0,0
553,-237,0,0,0,0,0,0,0,0,0,-1,1777,1261,0,0
560,-237,0,0,0,0,0,0,0,0,0,-1,1784,1261,0,0
567,-237,0,0,0,0,0,0,0,0,0,-1,1791,1261,0,0
574,-237,0,0,0,0,0,0,0,0,0,-1,1798,1261,0,0
581,-237,0,0,0,0,0,0,0,0,0,-1,1805,1261,0,0
588,-237,0,0,0,0,0,0,0,0,0,-1,1812,1261,0,0
595,-237,0,0,0,0,0,0,0,0,0,-1,1819,1261,0,0
602,-237,0,0,0,0,0,0,0,0,0,-1,1826,1261,0,0
609,-237,0,0,0,0,0,0,0,0,0,-1,1833,1261,0,0
616,-237,21.1229,2.91565,0.000630037,0.00173318,-0.00130925,0.0026023,-0.000239082,-0.98476,0.0018198,0.0350166,1840,1261,21.1229,-2.91565
623,-237,21.126,2.89417,0.00217284,0.00409383,-0.00213116,0.00547094,0.000795732,-0.997113,0.00341311,0.0323006,1847,1261,21.1259,-2.89411
630,-237,21.0709,2.96802,0.00342531,0.00561844,-0.00277195,0.00750284,0.00154091,-0.97375,0.00457558,0.0253009,1854,1261,21.0709,-2.96808
637,-237,21.0344,2.95313,0.00378989,0.00578778,-0.00264858,0.00761954,0.00195813,-0.96573,0.00456905,0.0187704,1861,1261,21.0344,-2.95313
644,-237,21.0546,2.96362,0.00368944,0.00531118,-0.00235809,0.00699392,0.0020067,-0.950998,0.00415837,0.0356562,1868,1261,21.0545,-2.96357
651,-237,21.0233,2.77966,0.00341235,0.00452579,-0.00192059,0.00596872,0.00196943,-0.926466,0.00351184,0.045283,1875,1261,21.0233,-2.77964
658,-237,21.2533,2.28589,0.00305234,0.00371585,-0.00147713,0.00489802,0.00187017,-0.895862,0.00285408,0.0450613,1882,1261,21.2533,-2.28584
665,-237,21.7994,1.7616,0,0,0,0,0,0,0,-1,1889,1261,21.7994,-1.76157
672,-237,22.215,1.36609,0,0,0,0,0,0,0,-1,1896,1261,22.215,-1.36612
679,-237,18.4026,5.88647,0,0,0,0,0,0,0,-1,1903,1261,18.4026,-5.88642
686,-237,18.0889,5.6488,0.00144534,0.000643754,0.000135353,0.00146758,0.000621515,0.162844,0.000850607,0.0321104,1910,1261,18.0889,-5.64877
693,-237,17.7705,5.43958,0.000726197,-0.000230902,0.00036796,0.000851306,-0.000356011,0.327746,0.00071633,0.0176717,1917,1261,17.7705,-5.43954
700,-237,17.7832,5.28064,0.000407162,-0.00029761,0.000688101,0.000827859,-0.000718308,0.548752,0.000893427,0.0101987,1924,1261,17.7833,-5.28063
707,-237,17.7858,5.10706,0.000194774,-0.000218061,0.000934818,0.000945693,-0.00096898,0.676737,0.00110546,0.00914265,1931,1261,17.7858,-5.107
714,-237,17.7697,4.93445,8.95623e-05,-0.000369491,0.000802223,0.000694448,-0.000974377,0.646064,0.000968004,0.012124,1938,1261,17.7696,-4.93444
721,-237,17.7765,4.76978,0.000410326,-0.000366951,-8.76833e-05,0.000420095,-0.000376719,-0.110951,0.000460268,0.0138688,1945,1261,17.7765,-4.76981
728,-237,17.8112,4.59985,0.000376872,-0.000642358,-0.00104611,0.00103089,-0.00129638,-0.558739,0.00134656,0.013537,1952,1261,17.8112,-4.59991
735,-237,17.7883,4.47107,0.000149672,-0.000894569,-0.00192229,0.00161948,-0.00236438,-0.65279,0.00231345,0.0178545,1959,1261,17.7883,-4.4711
742,-237,17.7893,4.31006,0.000263179,-0.00126574,-0.00269756,0.0023025,-0.00330507,-0.647323,0.00325473,0.0139772,1966,1261,17.7893,-4.31007
749,-237,17.7855,4.14197,-0.000269527,-0.00218589,-0.00353497,0.00243482,-0.00489024,-0.653049,0.0043076,0.00918806,1973,1261,17.7855,-4.14197
756,-237,17.7698,3.9729,-0.00134596,-0.00360969,-0.00431737,0.00198545,-0.0069411,-0.657201,0.00541201,0.0129121,1980,1261,17.7698,-3.97288
763,-237,17.7456,3.83557,-0.00315419,-0.00561511,-0.00490556,0.000672878,-0.00944217,-0.662518,0.00653064,0.0272283,1987,1261,17.7456,-3.83552
770,-237,17.4445,3.32166,0,0,0,0,0,0,0,-1,1994,1261,17.4445,-3.32164
777,-237,16.8206,3.24878,-0.0101731,-0.0112865,-0.00445555,-0.00623961,-0.01522,-0.723247,0.00883463,0.0446885,2001,1261,16.8206,-3.24875
784,-237,16.2876,3.29382,-0.0161374,-0.014638,-0.00254053,-0.0127388,-0.0180365,-0.928874,0.0107047,0.0486344,2008,1261,16.2875,-3.29382
791,-237,15.9308,3.23694,0,0,0,0,0,0,0,-1,2015,1261,15.9308,-3.23699
798,-237,0,0,0,0,0,0,0,0,0,-1,2022,1261,0,0
805,-237,0,0,0,0,0,0,0,0,0,-1,2029,1261,0,0
812,-237,0,0,0,0,0,0,0,0,0,-1,2036,1261,0,0
-700,-244,0,0,0,0,0,0,0,0,0,-1,524,1268,0,0
-693,-244,0,0,0,0,0,0,0,0,0,-1,531,1268,0,0
-686,-244,0,0,0,0,0,0,0,0,0,-1,538,1268,0,0
-679,-244,0,0,0,0,0,0,0,0,0,-1,545,1268,0,0
-672,-244,-10.7446,2.24573,0.0362445,0.000436569,-0.0312694,0.0543729,-0.0176918,-0.525395,0.043366,0.0448703,552,1268,-10.7446,-2.24576
-665,-244,-10.4308,1.94592,0.0167633,0.00617239,-0.0245455,0.0365781,-0.0136424,-0.679156,0.0299858,0.0479831,559,1268,-10.4308,-1.94597
-658,-244,-10.353,1.83936,0.00359813,0.00903495,-0.0187129,0.0252258,-0.0125928,-0.857528,0.0222369,0.0483532,566,1268,-10.353,-1.83939
-651,-244,-9.85687,1.11682,0,0,0,0,0,0,0,-1,573,1268,-9.85686,-1.11684
-644,-244,-7.41901,0.319946,-0.00997403,0.0102063,-0.00991028,0.0142592,-0.0140269,-1.18259,0.0163311,0.0476825,580,1268,-7.41901,-0.319909
-637,-244,-8.14209,0.665039,-0.0125657,0.00957028,-0.00674689,0.0114646,-0.01446,-1.29708,0.0150008,0.0499025,587,1268,-8.14209,-0.665074
-630,-244,-9.11322,1.54773,0,0,0,0,0,0,0,-1,594,1268,-9.11323,-1.5477
-623,-244,-9.38196,1.6283,-0.0126729,0.00721551,-0.00254038,0.00753487,-0.0129923,-1.44574,0.0119901,0.0304624,601,1268,-9.38194,-1.62827
-616,-244,-9.52594,1.8374,-0.0117896,0.00623539,-0.00118334,0.00631275,-0.011867,-1.50552,0.0106581,0.0158091,608,1268,-9.52593,-1.83744
-609,-244,-9.5166,2.00562,-0.00971521,0.0050032,-0.000289012,0.00500887,-0.00972089,-1.55117,0.00864806,0.0146595,615,1268,-9.51661,-2.00557
-602,-244,-9.51001,2.18115,-0.00688804,0.00356071,0.000448954,0.00357997,-0.0069073,1.52793,0.00615557,0.0150725,622,1268,-9.51002,-2.18119
-595,-244,-9.45911,2.38257,-0.0037481,0.00196267,0.000849267,0.00208629,-0.00387172,1.42625,0.00349096,0.0154445,629,1268,-9.45908,-2.38261
-588,-244,-9.47961,2.61377,-0.00101413,0.001959,0.000160376,0.00196762,-0.00102276,1.51706,0.00175499,0.020139,636,1268,-9.47961,-2.61372
-581,-244,-9.50793,2.80188,0.000431629,0.00239988,-0.000801568,0.00268501,0.000146497,-1.22904,0.00174323,0.0177253,643,1268,-9.50795,-2.80187
-574,-244,-9.5094,2.98926,0.000526574,0.00337104,-0.00177199,0.00422096,-0.000323347,-1.12357,0.00292771,0.0130586,650,1268,-9.50938,-2.98927
-567,-244,-9.50226,3.20129,-0.00131034,0.0043817,-0.0023347,0.0052168,-0.00214544,-1.22729,0.00437215,0.0108097,657,1268,-9.50224,-3.20134
-560,-244,-9.45062,3.40271,-0.0034588,0.00486395,-0.00271699,0.00567239,-0.00426724,-1.28159,0.00575773,0.0161057,664,1268,-9.45065,-3.40275
-553,-244,-9.30914,3.65173,-0.00561085,0.00578071,-0.00320326,0.00661966,-0.0064498,-1.31464,0.00754587,0.0419273,671,1268,-9.30917,-3.65168
-546,-244,-9.09424,3.86951,0,0,0,0,0,0,0,-1,678,1268,-9.09425,-3.86952
-539,-244,-10.9448,0.29541,-0.0107079,0.0060291,-0.00375821,0.00683425,-0.0115131,-1.35975,0.010707,0.0499032,685,1268,-10.9447,-0.295358
-532,-244,-11.2644,0.135376,-0.0136272,0.00572305,-0.00379451,0.00644054,-0.0143446,-1.38392,0.0122862,0.0454078,692,1268,-11.2644,-0.135332
-525,-244,-11.3043,-0.495117,-0.0163498,0.00477242,-0.00348035,0.00533111,-0.0169085,-1.41163,0.0134074,0.0464397,699,1268,-11.3043,0.495167
-518,-244,-12.3109,0.0738525,-0.0185525,0.0030014,-0.002725,0.00334057,-0.0188917,-1.44696,0.013843,0.0450259,706,1268,-12.3109,-0.0738252
-511,-244,-12.9814,0.628418,-0.0194426,0.000198235,-0.00138167,0.000294953,-0.0195393,-1.50091,0.0131256,0.0460476,713,1268,-12.9814,-0.628446
-504,-244,-13.287,1.13049,-0.0173108,-0.00372691,0.000924412,-0.00366429,-0.0173734,1.50316,0.0105746,0.0441208,720,1268,-13.287,-1.13045
-497,-244,-13.4047,1.32544,-0.0102432,-0.00836818,0.00395555,-0.00524056,-0.0133708,0.901758,0.00777952,0.0471484,727,1268,-13.4047,-1.32543
-490,-244,0,0,0,0,0,0,0,0,0,-1,734,1268,0,0
-483,-244,0,0,0,0,0,0,0,0,0,-1,741,1268,0,0
-476,-244,0,0,0,0,0,0,0,0,0,-1,748,1268,0,0
-469,-244,0,0,0,0,0,0,0,0,0,-1,755,1268,0,0
-462,-244,0,0,0,0,0,0,0,0,0,-1,762,1268,0,0
-455,-244,0,0,0,0,0,0,0,0,0,-1,769,1268,0,0
-448,-244,0,0,0,0,0,0,0,0,0,-1,776,1268,0,0
-441,-244,0,0,0,0,0,0,0,0,0,-1,783,1268,0,0
-434,-244,0,0,0,0,0,0,0,0,0,-1,790,1268,0,0
-427,-244,0,0,0,0,0,0,0,0,0,-1,797,1268,0,0
-420,-244,0,0,0,0,0,0,0,0,0,-1,804,1268,0,0
-413,-244,0,0,0,0,0,0,0,0,0,-1,811,1268,0,0
-406,-244,0,0,0,0,0,0,0,0,0,-1,818,1268,0,0
-399,-244,0,0,0,0,0,0,0,0,0,-1,825,1268,0,0
-392,-244,0,0,0,0,0,0,0,0,0,-1,832,1268,0,0
-385,-244,0,0,0,0,0,0,0,0,0,-1,839,1268,0,0
-378,-244,0,0,0,0,0,0,0,0,0,-1,846,1268,0,0
-371,-244,0,0,0,0,0,0,0,0,0,-1,853,1268,0,0
-364,-244,0,0,0,0,0,0,0,0,0,-1,860,1268,0,0
-357,-244,0,0,0,0,0,0,0,0,0,-1,867,1268,0,0
-350,-244,0,0,0,0,0,0,0,0,0,-1,874,1268,0,0
-343,-244,0,0,0,0,0,0,0,0,0,-1,881,1268,0,0
-336,-244,0,0,0,0,0,0,0,0,0,-1,888,1268,0,0
-329,-244,0,0,0,0,0,0,0,0,0,-1,895,1268,0,0
-322,-244,0,0,0,0,0,0,0,0,0,-1,902,1268,0,0
-315,-244,0,0,0,0,0,0,0,0,0,-1,909,1268,0,0
-308,-244,0,0,0,0,0,0,0,0,0,-1,916,1268,0,0
-301,-244,0,0,0,0,0,0,0,0,0,-1,923,1268,0,0
-294,-244,0,0,0,0,0,0,0,0,0,-1,930,1268,0,0
-287,-244,0,0,0,0,0,0,0,0,0,-1,937,1268,0,0
-280,-244,0,0,0,0,0,0,0,0,0,-1,944,1268,0,0
-273,-244,0,0,0,0,0,0,0,0,0,-1,951,1268,0,0
-266,-244,0,0,0,0,0,0,0,0,0,-1,958,1268,0,0
-259,-244,0,0,0,0,0,0,0,0,0,-1,965,1268,0,0
-252,-244,0,0,0,0,0,0,0,0,0,-1,972,1268,0,0
-245,-244,0,0,0,0,0,0,0,0,0,-1,979,1268,0,0
-238,-244,0,0,0,0,0,0,0,0,0,-1,986,1268,0,0
-231,-244,0,0,0,0,0,0,0,0,0,-1,993,1268,0,0
-224,-244,0,0,0,0,0,0,0,0,0,-1,1000,1268,0,0
-217,-244,0,0,0,0,0,0,0,0,0,-1,1007,1268,0,0
-210,-244,0,0,0,0,0,0,0,0,0,-1,1014,1268,0,0
-203,-244,0,0,0,0,0,0,0,0,0,-1,1021,1268,0,0
-196,-244,0,0,0,0,0,0,0,0,0,-1,1028,1268,0,0
-189,-244,0,0,0,0,0,0,0,0,0,-1,1035,1268,0,0
-182,-244,0,0,0,0,0,0,0,0,0,-1,1042,1268,0,0
-175,-244,0,0,0,0,0,0,0,0,0,-1,1049,1268,0,0
-168,-244,0,0,0,0,0,0,0,0,0,-1,1056,1268,0,0
-161,-244,0,0,0,0,0,0,0,0,0,-1,1063,1268,0,0
-154,-244,0,0,0,0,0,0,0,0,0,-1,1070,1268,0,0
-147,-244,0,0,0,0,0,0,0,0,0,-1,1077,1268,0,0
-140,-244,0,0,0,0,0,0,0,0,0,-1,1084,1268,0,0
-133,-244,0,0,0,0,0,0,0,0,0,-1,1091,1268,0,0
-126,-244,0,0,0,0,0,0,0,0,0,-1,1098,1268,0,0
-119,-244,0,0,0,0,0,0,0,0,0,-1,1105,1268,0,0
-112,-244,0,0,0,0,0,0,0,0,0,-1,1112,1268,0,0
-105,-244,0,0,0,0,0,0,0,0,0,-1,1119,1268,0,0
-98,-244,0,0,0,0,0,0,0,0,0,-1,1126,1268,0,0
-91,-244,0,0,0,0,0,0,0,0,0,-1,1133,1268,0,0
-84,-244,0,0,0,0,0,0,0,0,0,-1,1140,1268,0,0
-77,-244,0,0,0,0,0,0,0,0,0,-1,1147,1268,0,0
-70,-244,0,0,0,0,0,0,0,0,0,-1,1154,1268,0,0
-63,-244,0,0,0,0,0,0,0,0,0,-1,1161,1268,0,0
-56,-244,0,0,0,0,0,0,0,0,0,-1,1168,1268,0,0
-49,-244,0,0,0,0,0,0,0,0,0,-1,1175,1268,0,0
-42,-244,0,0,0,0,0,0,0,0,0,-1,1182,1268,0,0
-35,-244,0,0,0,0,0,0,0,0,0,-1,1189,1268,0,0
-28,-244,0,0,0,0,0,0,0,0,0,-1,1196,1268,0,0
-21,-244,0,0,0,0,0,0,0,0,0,-1,1203,1268,0,0
-14,-244,0,0,0,0,0,0,0,0,0,-1,1210,1268,0,0
-7,-244,0,0,0,0,0,0,0,0,0,-1,1217,1268,0,0
0,-244,0,0,0,0,0,0,0,0,0,-1,1224,1268,0,0
7,-244,0,0,0,0,0,0,0,0,0,-1,1231,1268,0,0
14,-244,0,0,0,0,0,0,0,0,0,-1,1238,1268,0,0
21,-244,0,0,0,0,0,0,0,0,0,-1,1245,1268,0,0
28,-244,0,0,0,0,0,0,0,0,0,-1,1252,1268,0,0
35,-244,0,0,0,0,0,0,0,0,0,-1,1259,1268,0,0
42,-244,0,0,0,0,0,0,0,0,0,-1,1266,1268,0,0
49,-244,0,0,0,0,0,0,0,0,0,-1,1273,1268,0,0
56,-244,0,0,0,0,0,0,0,0,0,-1,1280,1268,0,0
63,-244,0,0,0,0,0,0,0,0,0,-1,1287,1268,0,0
70,-244,0,0,0,0,0,0,0,0,0,-1,1294,1268,0,0
77,-244,0,0,0,0,0,0,0,0,0,-1,1301,1268,0,0
84,-244,0,0,0,0,0,0,0,0,0,-1,1308,1268,0,0
91,-244,0,0,0,0,0,0,0,0,0,-1,1315,1268,0,0
98,-244,0,0,0,0,0,0,0,0,0,-1,1322,1268,0,0
105,-244,0,0,0,0,0,0,0,0,0,-1,1329,1268,0,0
112,-244,0,0,0,0,0,0,0,0,0,-1,1336,1268,0,0
119,-244,0,0,0,0,0,0,0,0,0,-1,1343,1268,0,0
126,-244,0,0,0,0,0,0,0,0,0,-1,1350,1268,0,0
133,-244,0,0,0,0,0,0,0,0,0,-1,1357,1268,0,0
140,-244,0,0,0,0,0,0,0,0,0,-1,1364,1268,0,0
147,-244,0,0,0,0,0,0,0,0,0,-1,1371,1268,0,0
154,-244,0,0,0,0,0,0,0,0,0,-1,1378,1268,0,0
161,-244,0,0,0,0,0,0,0,0,0,-1,1385,1268,0,0
168,-244,0,0,0,0,0,0,0,0,0,-1,1392,1268,0,0
175,-244,0,0,0,0,0,0,0,0,0,-1,1399,1268,0,0
182,-244,0,0,0,0,0,0,0,0,0,-1,1406,1268,0,0
189,-244,0,0,0,0,0,0,0,0,0,-1,1413,1268,0,0
196,-244,0,0,0,0,0,0,0,0,0,-1,1420,1268,0,0
203,-244,0,0,0,0,0,0,0,0,0,-1,1427,1268,0,0
210,-244,0,0,0,0,0,0,0,0,0,-1,1434,1268,0,0
217,-244,0,0,0,0,0,0,0,0,0,-1,1441,1268,0,0
224,-244,0,0,0,0,0,0,0,0,0,-1,1448,1268,0,0
231,-244,0,0,0,0,0,0,0,0,0,-1,1455,1268,0,0
238,-244,0,0,0,0,0,0,0,0,0,-1,1462,1268,0,0
245,-244,0,0,0,0,0,0,0,0,0,-1,1469,1268,0,0
252,-244,0,0,0,0,0,0,0,0,0,-1,1476,1268,0,0
259,-244,0,0,0,0,0,0,0,0,0,-1,1483,1268,0,0
266,-244,0,0,0,0,0,0,0,0,0,-1,1490,1268,0,0
273,-244,0,0,0,0,0,0,0,0,0,-1,1497,1268,0,0
280,-244,0,0,0,0,0,0,0,0,0,-1,1504,1268,0,0
287,-244,0,0,0,0,0,0,0,0,0,-1,1511,1268,0,0
294,-244,0,0,0,0,0,0,0,0,0,-1,1518,1268,0,0
301,-244,0,0,0,0,0,0,0,0,0,-1,1525,1268,0,0
308,-244,0,0,0,0,0,0,0,0,0,-1,1532,1268,0,0
315,-244,0,0,0,0,0,0,0,0,0,-1,1539,1268,0,0
322,-244,0,0,0,0,0,0,0,0,0,-1,1546,1268,0,0
329,-244,0,0,0,0,0,0,0,0,0,-1,1553,1268,0,0
336,-244,0,0,0,0,0,0,0,0,0,-1,1560,1268,0,0
343,-244,0,0,0,0,0,0,0,0,0,-1,1567,1268,0,0
350,-244,0,0,0,0,0,0,0,0,0,-1,1574,1268,0,0
357,-244,0,0,0,0,0,0,0,0,0,-1,1581,1268,0,0
364,-244,0,0,0,0,0,0,0,0,0,-1,1588,1268,0,0
371,-244,0,0,0,0,0,0,0,0,0,-1,1595,1268,0,0
378,-244,0,0,0,0,0,0,0,0,0,-1,1602,1268,0,0
385,-244,0,0,0,0,0,0,0,0,0,-1,1609,1268,0,0
392,-244,0,0,0,0,0,0,0,0,0,-1,1616,1268,0,0
399,-244,0,0,0,0,0,0,0,0,0,-1,1623,1268,0,0
406,-244,0,0,0,0,0,0,0,0,0,-1,1630,1268,0,0
413,-244,0,0,0,0,0,0,0,0,0,-1,1637,1268,0,0
420,-244,0,0,0,0,0,0,0,0,0,-1,1644,1268,0,0
427,-244,0,0,0,0,0,0,0,0,0,-1,1651,1268,0,0
434,-244,0,0,0,0,0,0,0,0,0,-1,1658,1268,0,0
441,-244,0,0,0,0,0,0,0,0,0,-1,1665,1268,0,0
448,-244,0,0,0,0,0,0,0,0,0,-1,1672,1268,0,0
455,-244,0,0,0,0,0,0,0,0,0,-1,1679,1268,0,0
462,-244,0,0,0,0,0,0,0,0,0,-1,1686,1268,0,0
469,-244,0,0,0,0,0,0,0,0,0,-1,1693,1268,0,0
476,-244,0,0,0,0,0,0,0,0,0,-1,1700,1268,0,0
483,-244,0,0,0,0,0,0,0,0,0,-1,1707,1268,0,0
490,-244,0,0,0,0,0,0,0,0,0,-1,1714,1268,0,0
497,-244,0,0,0,0,0,0,0,0,0,-1,1721,1268,0,0
504,-244,0,0,0,0,0,0,0,0,0,-1,1728,1268,0,0
511,-244,0,0,0,0,0,0,0,0,0,-1,1735,1268,0,0
518,-244,0,0,0,0,0,0,0,0,0,-1,1742,1268,0,0
525,-244,0,0,0,0,0,0,0,0,0,-1,1749,1268,0,0
532,-244,0,0,0,0,0,0,0,0,0,-1,1756,1268,0,0
539,-244,0,0,0,0,0,0,0,0,0,-1,1763,1268,0,0
546,-244,0,0,0,0,0,0,0,0,0,-1,1770,1268,0,0
553,-244,0,0,0,0,0,0,0,0,0,-1,1777,1268,0,0
560,-244,0,0,0,0,0,0,0,0,0,-1,1784,1268,0,0
567,-244,0,0,0,0,0,0,0,0,0,-1,1791,1268,0,0
574,-244,0,0,0,0,0,0,0,0,0,-1,1798,1268,0,0
581,-244,0,0,0,0,0,0,0,0,0,-1,1805,1268,0,0
588,-244,0,0,0,0,0,0,0,0,0,-1,1812,1268,0,0
595,-244,0,0,0,0,0,0,0,0,0,-1,1819,1268,0,0
602,-244,0,0,0,0,0,0,0,0,0,-1,1826,1268,0,0
609,-244,0,0,0,0,0,0,0,0,0,-1,1833,1268,0,0
616,-244,21.0018,2.86572,0.00193736,0.0018275,-0.0027984,0.00468137,-0.00091651,-0.775585,0.00346703,0.0343654,1840,1268,21.0018,-2.86568
623,-244,21.0708,2.91907,0.00237743,0.00448584,-0.00288235,0.00650072,0.000362553,-0.960714,0.00421816,0.0266251,1847,1268,21.0708,-2.91908
630,-244,21.0668,2.96497,0.00249901,0.00588612,-0.00267853,0.00736158,0.00102355,-1.0673,0.00460462,0.0225722,1854,1268,21.0668,-2.96497
637,-244,21.0623,2.94849,0.00222072,0.00598398,-0.00218424,0.00698531,0.00121939,-1.14095,0.00430832,0.0343275,1861,1268,21.0623,-2.94847
644,-244,21.1765,3.32324,0,0,0,0,0,0,0,-1,1868,1268,21.1765,-3.32322
651,-244,20.974,3.07617,0.00162921,0.00475125,-0.00127851,0.005208,0.00117246,-1.22768,0.00315466,0.0466963,1875,1268,20.974,-3.07615
658,-244,21.1444,2.30127,0.00136455,0.00398853,-0.000833473,0.00423089,0.00112219,-1.28782,0.00253086,0.0469933,1882,1268,21.1444,-2.3013
665,-244,21.6042,1.8479,0,0,0,0,0,0,0,-1,1889,1268,21.6043,-1.84788
672,-244,17.7415,5.33276,0,0,0,0,0,0,0,-1,1896,1268,17.7415,-5.33278
679,-244,17.6697,5.49072,0.000968973,0.00176372,0.000118172,0.00178092,0.000951774,1.42627,0.00102903,0.0489351,1903,1268,17.6697,-5.49068
686,-244,17.6849,5.60339,0.00057649,0.00093693,0.000321389,0.00112518,0.00038824,1.04093,0.00065994,0.0274954,1910,1268,17.685,-5.60342
693,-244,17.5895,5.48328,-2.7448e-05,-0.000136059,0.000358529,0.000280865,-0.000444371,0.710236,0.000422247,0.0114285,1917,1268,17.5895,-5.48322
700,-244,17.5909,5.28918,-0.000108246,-0.000110086,0.000517473,0.000408308,-0.000626639,0.784509,0.000601942,0.00819805,1924,1268,17.5909,-5.28914
707,-244,17.6165,5.10437,-8.15571e-05,4.24914e-05,0.000647262,0.000630694,-0.00066976,0.833165,0.00075093,0.009482,1931,1268,17.6165,-5.10439
714,-244,17.621,4.94519,9.73719e-05,-6.70881e-05,0.000365797,0.000390068,-0.000359784,0.674838,0.000433045,0.0105332,1938,1268,17.621,-4.94524
721,-244,17.5895,4.7876,0.000649614,-0.000122787,-0.000635298,0.00100689,-0.000480061,-0.512293,0.000876267,0.0136629,1945,1268,17.5894,-4.78763
728,-244,17.5984,4.60474,0.000686678,-0.000520608,-0.00166104,0.00185036,-0.00168429,-0.611111,0.00204148,0.0184309,1952,1268,17.5983,-4.60473
735,-244,17.6011,4.45203,0.000431007,-0.000891102,-0.00258783,0.00244088,-0.00290098,-0.660349,0.00308794,0.0225695,1959,1268,17.6011,-4.45198
742,-244,17.634,4.29138,0.000403639,-0.0015395,-0.00347879,0.00304398,-0.00417984,-0.649226,0.00418782,0.0151003,1966,1268,17.6341,-4.29133
749,-244,17.6279,4.13855,-0.000332956,-0.00280659,-0.00446455,0.00306293,-0.00620248,-0.650272,0.00545079,0.0182723,1973,1268,17.6279,-4.13851
756,-244,17.5575,3.95654,-0.00177241,-0.00473686,-0.00543975,0.00238344,-0.00889271,-0.652387,0.00686234,0.024167,1980,1268,17.5575,-3.95651
763,-244,17.5569,3.69116,-0.00420723,-0.00743639,-0.00626648,0.000649333,-0.012293,-0.659314,0.0084201,0.037591,1987,1268,17.5569,-3.69114
770,-244,17.5103,1.87158,0,0,0,0,0,0,0,-1,1994,1268,17.5103,-1.87154
777,-244,16.6846,3.48401,-0.0139382,-0.0152838,-0.00633959,-0.0082358,-0.0209862,-0.732531,0.0122095,0.0473569,2001,1268,16.6846,-3.48396
784,-244,15.8276,3.18359,-0.0224335,-0.0202038,-0.00465567,-0.0165313,-0.0261059,-0.902918,0.0152496,0.0473001,2008,1268,15.8276,-3.18365
791,-244,0,0,0,0,0,0,0,0,0,-1,2015,1268,0,0
798,-244,0,0,0,0,0,0,0,0,0,-1,2022,1268,0,0
805,-244,0,0,0,0,0,0,0,0,0,-1,2029,1268,0,0
812,-244,0,0,0,0,0,0,0,0,0,-1,2036,1268,0,0
-700,-251,0,0,0,0,0,0,0,0,0,-1,524,1275,0,0
-693,-251,0,0,0,0,0,0,0,0,0,-1,531,1275,0,0
-686,-251,0,0,0,0,0,0,0,0,0,-1,538,1275,0,0
-679,-251,0,0,0,0,0,0,0,0,0,-1,545,1275,0,0
-672,-251,0,0,0,0,0,0,0,0,0,-1,552,1275,0,0
-665,-251,-10.0898,2.03882,0,0,0,0,0,0,0,-1,559,1275,-10.0898,-2.0388
-658,-251,-10.0618,1.90991,0,0,0,0,0,0,0,-1,566,1275,-10.0618,-1.90988
-651,-251,-6.67932,-0.0648193,0,0,0,0,0,0,0,-1,573,1275,-6.67933,0.0648642
-644,-251,-7.35944,0.403564,-0.0160423,0.0146619,-0.0111868,0.0183054,-0.0196857,-1.25594,0.021939,0.0467162,580,1275,-7.35943,-0.403623
-637,-251,-8.07086,0.903198,-0.0177946,0.0134661,-0.00748465,0.0151657,-0.0194942,-1.3475,0.0200628,0.0454554,587,1275,-8.07086,-0.903229
-630,-251,-8.58441,1.17847,-0.017705,0.0118313,-0.00464724,0.0125452,-0.0184189,-1.41836,0.017984,0.0434405,594,1275,-8.58441,-1.17842
-623,-251,-9.08337,1.5531,-0.0162826,0.00996516,-0.00257842,0.0102161,-0.0165335,-1.4738,0.0155868,0.0370442,601,1275,-9.0834,-1.55308
-616,-251,-9.29431,1.82703,-0.0147175,0.0084589,-0.00101789,0.00850352,-0.0147621,-1.52699,0.0135935,0.0205157,608,1275,-9.29431,-1.82699
-609,-251,-9.31482,2.00354,-0.0120409,0.00672005,-1.44879e-05,0.00672006,-0.0120409,-1.57002,0.0109759,0.019758,615,1275,-9.31484,-2.00349
-602,-251,-9.31067,2.17188,-0.00869305,0.00489034,0.000803621,0.00493772,-0.00874043,1.51191,0.00799816,0.0149359,622,1275,-9.31067,-2.17187
-595,-251,-9.27301,2.36584,-0.0051514,0.00276977,0.001268,0.0029678,-0.00534942,1.41588,0.00486713,0.0131995,629,1275,-9.273,-2.36586
-588,-251,-9.27325,2.57166,-0.00192475,0.00219755,0.000556648,0.00227139,-0.00199859,1.43891,0.00246695,0.0155671,636,1275,-9.27328,-2.57168
-581,-251,-9.2951,2.79077,7.86042e-05,0.00220538,-0.000513447,0.00232285,-3.88641e-05,-1.34588,0.00156168,0.0146677,643,1275,-9.29508,-2.79082
-574,-251,-9.29279,3.01648,0.000635804,0.00283998,-0.00161878,0.00369622,-0.000220437,-1.08426,0.00254082,0.0125538,650,1275,-9.29282,-3.01649
-567,-251,-9.29254,3.21594,-0.00109369,0.00361743,-0.00229861,0.00455312,-0.00202937,-1.18422,0.0038924,0.0112468,657,1275,-9.29255,-3.2159
-560,-251,-9.26599,3.42651,-0.00349409,0.00391101,-0.00273322,0.00481056,-0.00439364,-1.25284,0.00531587,0.015047,664,1275,-9.26597,-3.42649
-553,-251,-9.13757,3.4303,-0.00579506,0.00465484,-0.00322334,0.00556911,-0.00670933,-1.29441,0.00709914,0.0349385,671,1275,-9.13758,-3.43027
-546,-251,-9.07202,3.35364,0,0,0,0,0,0,0,-1,678,1275,-9.07201,-3.35369
-539,-251,-10.7916,0.366333,0,0,0,0,0,0,0,-1,685,1275,-10.7916,-0.366282
-532,-251,-10.7391,-0.00769043,0,0,0,0,0,0,0,-1,692,1275,-10.7391,0.00773227
-525,-251,-10.6866,-0.381714,0,0,0,0,0,0,0,-1,699,1275,-10.6866,0.381747
-518,-251,-11.9877,-0.0273438,-0.0191583,-0.000960044,-0.00238409,-0.000652897,-0.0194655,-1.44267,0.0127649,0.0470119,706,1275,-11.9877,0.0273041
-511,-251,-12.5801,0.543701,-0.0202183,-0.00458911,-0.00101719,-0.00452319,-0.0202842,-1.50608,0.0122956,0.0451299,713,1275,-12.5801,-0.543663
-504,-251,-12.9084,0.717163,-0.0186409,-0.00948595,0.00113767,-0.0093467,-0.0187802,1.449,0.0108428,0.0452063,720,1275,-12.9084,-0.717137
-497,-251,-13.0336,0.839233,-0.0126407,-0.0150735,0.00382512,-0.00984322,-0.017871,0.631455,0.0103355,0.0499653,727,1275,-13.0336,-0.839229
-490,-251,0,0,0,0,0,0,0,0,0,-1,734,1275,0,0
-483,-251,0,0,0,0,0,0,0,0,0,-1,741,1275,0,0
-476,-251,0,0,0,0,0,0,0,0,0,-1,748,1275,0,0
-469,-251,0,0,0,0,0,0,0,0,0,-1,755,1275,0,0
-462,-251,0,0,0,0,0,0,0,0,0,-1,762,1275,0,0
-455,-251,0,0,0,0,0,0,0,0,0,-1,769,1275,0,0
-448,-251,0,0,0,0,0,0,0,0,0,-1,776,1275,0,0
-441,-251,0,0,0,0,0,0,0,0,0,-1,783,1275,0,0
-434,-251,0,0,0,0,0,0,0,0,0,-1,790,1275,0,0
-427,-251,0,0,0,0,0,0,0,0,0,-1,797,1275,0,0
-420,-251,0,0,0,0,0,0,0,0,0,-1,804,1275,0,0
-413,-251,0,0,0,0,0,0,0,0,0,-1,811,1275,0,0
-406,-251,0,0,0,0,0,0,0,0,0,-1,818,1275,0,0
-399,-251,0,0,0,0,0,0,0,0,0,-1,825,1275,0,0
-392,-251,0,0,0,0,0,0,0,0,0,-1,832,1275,0,0
-385,-251,0,0,0,0,0,0,0,0,0,-1,839,1275,0,0
-378,-251,0,0,0,0,0,0,0,0,0,-1,846,1275,0,0
-371,-251,0,0,0,0,0,0,0,0,0,-1,853,1275,0,0
-364,-251,0,0,0,0,0,0,0,0,0,-1,860,1275,0,0
-357,-251,0,0,0,0,0,0,0,0,0,-1,867,1275,0,0
-350,-251,0,0,0,0,0,0,0,0,0,-1,874,1275,0,0
-343,-251,0,0,0,0,0,0,0,0,0,-1,881,1275,0,0
-336,-251,0,0,0,0,0,0,0,0,0,-1,888,1275,0,0
-329,-251,0,0,0,0,0,0,0,0,0,-1,895,1275,0,0
-322,-251,0,0,0,0,0,0,0,0,0,-1,902,1275,0,0
-315,-251,0,0,0,0,0,0,0,0,0,-1,909,1275,0,0
-308,-251,0,0,0,0,0,0,0,0,0,-1,916,1275,0,0
-301,-251,0,0,0,0,0,0,0,0,0,-1,923,1275,0,0
-294,-251,0,0,0,0,0,0,0,0,0,-1,930,1275,0,0
-287,-251,0,0,0,0,0,0,0,0,0,-1,937,1275,0,0
-280,-251,0,0,0,0,0,0,0,0,0,-1,944,1275,0,0
-273,-251,0,0,0,0,0,0,0,0,0,-1,951,1275,0,0
-266,-251,0,0,0,0,0,0,0,0,0,-1,958,1275,0,0
-259,-251,0,0,0,0,0,0,0,0,0,-1,965,1275,0,0
-252,-251,0,0,0,0,0,0,0,0,0,-1,972,1275,0,0
-245,-251,0,0,0,0,0,0,0,0,0,-1,979,1275,0,0
-238,-251,0,0,0,0,0,0,0,0,0,-1,986,1275,0,0
-231,-251,0,0,0,0,0,0,0,0,0,-1,993,1275,0,0
-224,-251,0,0,0,0,0,0,0,0,0,-1,1000,1275,0,0
-217,-251,0,0,0,0,0,0,0,0,0,-1,1007,1275,0,0
-210,-251,0,0,0,0,0,0,0,0,0,-1,1014,1275,0,0
-203,-251,0,0,0,0,0,0,0,0,0,-1,1021,1275,0,0
-196,-251,0,0,0,0,0,0,0,0,0,-1,1028,1275,0,0
-189,-251,0,0,0,0,0,0,0,0,0,-1,1035,1275,0,0
-182,-251,0,0,0,0,0,0,0,0,0,-1,1042,1275,0,0
-175,-251,0,0,0,0,0,0,0,0,0,-1,1049,1275,0,0
-168,-251,0,0,0,0,0,0,0,0,0,-1,1056,1275,0,0
-161,-251,0,0,0,0,0,0,0,0,0,-1,1063,1275,0,0
-154,-251,0,0,0,0,0,0,0,0,0,-1,1070,1275,0,0
-147,-251,0,0,0,0,0,0,0,0,0,-1,1077,1275,0,0
-140,-251,0,0,0,0,0,0,0,0,0,-1,1084,1275,0,0
-133,-251,0,0,0,0,0,0,0,0,0,-1,1091,1275,0,0
-126,-251,0,0,0,0,0,0,0,0,0,-1,1098,1275,0,0
-119,-251,0,0,0,0,0,0,0,0,0,-1,1105,1275,0,0
-112,-251,0,0,0,0,0,0,0,0,0,-1,1112,1275,0,0
-105,-251,0,0,0,0,0,0,0,0,0,-1,1119,1275,0,0
-98,-251,0,0,0,0,0,0,0,0,0,-1,1126,1275,0,0
-91,-251,0,0,0,0,0,0,0,0,0,-1,1133,1275,0,0
-84,-251,0,0,0,0,0,0,0,0,0,-1,1140,1275,0,0
-77,-251,0,0,0,0,0,0,0,0,0,-1,1147,1275,0,0
-70,-251,0,0,0,0,0,0,0,0,0,-1,1154,1275,0,0
-63,-251,0,0,0,0,0,0,0,0,0,-1,1161,1275,0,0
-56,-251,0,0,0,0,0,0,0,0,0,-1,1168,1275,0,0
-49,-251,0,0,0,0,0,0,0,0,0,-1,1175,1275,0,0
-42,-251,0,0,0,0,0,0,0,0,0,-1,1182,1275,0,0
-35,-251,0,0,0,0,0,0,0,0,0,-1,1189,1275,0,0
-28,-251,0,0,0,0,0,0,0,0,0,-1,1196,1275,0,0
-21,-251,0,0,0,0,0,0,0,0,0,-1,1203,1275,0,0
-14,-251,0,0,0,0,0,0,0,0,0,-1,1210,1275,0,0
-7,-251,0,0,0,0,0,0,0,0,0,-1,1217,1275,0,0
0,-251,0,0,0,0,0,0,0,0,0,-1,1224,1275,0,0
7,-251,0,0,0,0,0,0,0,0,0,-1,1231,1275,0,0
14,-251,0,0,0,0,0,0,0,0,0,-1,1238,1275,0,0
21,-251,0,0,0,0,0,0,0,0,0,-1,1245,1275,0,0
28,-251,0,0,0,0,0,0,0,0,0,-1,1252,1275,0,0
35,-251,0,0,0,0,0,0,0,0,0,-1,1259,1275,0,0
42,-251,0,0,0,0,0,0,0,0,0,-1,1266,1275,0,0
49,-251,0,0,0,0,0,0,0,0,0,-1,1273,1275,0,0
56,-251,0,0,0,0,0,0,0,0,0,-1,1280,1275,0,0
63,-251,0,0,0,0,0,0,0,0,0,-1,1287,1275,0,0
70,-251,0,0,0,0,0,0,0,0,0,-1,1294,1275,0,0
77,-251,0,0,0,0,0,0,0,0,0,-1,1301,1275,0,0
84,-251,0,0,0,0,0,0,0,0,0,-1,1308,1275,0,0
91,-251,0,0,0,0,0,0,0,0,0,-1,1315,1275,0,0
98,-251,0,0,0,0,0,0,0,0,0,-1,1322,1275,0,0
105,-251,0,0,0,0,0,0,0,0,0,-1,1329,1275,0,0
112,-251,0,0,0,0,0,0,0,0,0,-1,1336,1275,0,0
119,-251,0,0,0,0,0,0,0,0,0,-1,1343,1275,0,0
126,-251,0,0,0,0,0,0,0,0,0,-1,1350,1275,0,0
133,-251,0,0,0,0,0,0,0,0,0,-1,1357,1275,0,0
140,-251,0,0,0,0,0,0,0,0,0,-1,1364,1275,0,0
147,-251,0,0,0,0,0,0,0,0,0,-1,1371,1275,0,0
154,-251,0,0,0,0,0,0,0,0,0,-1,1378,1275,0,0
161,-251,0,0,0,0,0,0,0,0,0,-1,1385,1275,0,0
168,-251,0,0,0,0,0,0,0,0,0,-1,1392,1275,0,0
175,-251,0,0,0,0,0,0,0,0,0,-1,1399,1275,0,0
182,-251,0,0,0,0,0,0,0,0,0,-1,1406,1275,0,0
189,-251,0,0,0,0,0,0,0,0,0,-1,1413,1275,0,0
196,-251,0,0,0,0,0,0,0,0,0,-1,1420,1275,0,0
203,-251,0,0,0,0,0,0,0,0,0,-1,1427,1275,0,0
210,-251,0,0,0,0,0,0,0,0,0,-1,1434,1275,0,0
217,-251,0,0,0,0,0,0,0,0,0,-1,1441,1275,0,0
224,-251,0,0,0,0,0,0,0,0,0,-1,1448,1275,0,0
231,-251,0,0,0,0,0,0,0,0,0,-1,1455,1275,0,0
238,-251,0,0,0,0,0,0,0,0,0,-1,1462,1275,0,0
245,-251,0,0,0,0,0,0,0,0,0,-1,1469,1275,0,0
252,-251,0,0,0,0,0,0,0,0,0,-1,1476,1275,0,0
259,-251,0,0,0,0,0,0,0,0,0,-1,1483,1275,0,0
266,-251,0,0,0,0,0,0,0,0,0,-1,1490,1275,0,0
273,-251,0,0,0,0,0,0,0,0,0,-1,1497,1275,0,0
280,-251,0,0,0,0,0,0,0,0,0,-1,1504,1275,0,0
287,-251,0,0,0,0,0,0,0,0,0,-1,1511,1275,0,0
294,-251,0,0,0,0,0,0,0,0,0,-1,1518,1275,0,0
301,-251,0,0,0,0,0,0,0,0,0,-1,1525,1275,0,0
308,-251,0,0,0,0,0,0,0,0,0,-1,1532,1275,0,0
315,-251,0,0,0,0,0,0,0,0,0,-1,1539,1275,0,0
322,-251,0,0,0,0,0,0,0,0,0,-1,1546,1275,0,0
329,-251,0,0,0,0,0,0,0,0,0,-1,1553,1275,0,0
336,-251,0,0,0,0,0,0,0,0,0,-1,1560,1275,0,0
343,-251,0,0,0,0,0,0,0,0,0,-1,1567,1275,0,0
350,-251,0,0,0,0,0,0,0,0,0,-1,1574,1275,0,0
357,-251,0,0,0,0,0,0,0,0,0,-1,1581,1275,0,0
364,-251,0,0,0,0,0,0,0,0,0,-1,1588,1275,0,0
371,-251,0,0,0,0,0,0,0,0,0,-1,1595,1275,0,0
378,-251,0,0,0,0,0,0,0,0,0,-1,1602,1275,0,0
385,-251,0,0,0,0,0,0,0,0,0,-1,1609,1275,0,0
392,-251,0,0,0,0,0,0,0,0,0,-1,1616,1275,0,0
399,-251,0,0,0,0,0,0,0,0,0,-1,1623,1275,0,0
406,-251,0,0,0,0,0,0,0,0,0,-1,1630,1275,0,0
413,-251,0,0,0,0,0,0,0,0,0,-1,1637,1275,0,0
420,-251,0,0,0,0,0,0,0,0,0,-1,1644,1275,0,0
427,-251,0,0,0,0,0,0,0,0,0,-1,1651,1275,0,0
434,-251,0,0,0,0,0,0,0,0,0,-1,1658,1275,0,0
441,-251,0,0,0,0,0,0,0,0,0,-1,1665,1275,0,0
448,-251,0,0,0,0,0,0,0,0,0,-1,1672,1275,0,0
455,-251,0,0,0,0,0,0,0,0,0,-1,1679,1275,0,0
462,-251,0,0,0,0,0,0,0,0,0,-1,1686,1275,0,0
469,-251,0,0,0,0,0,0,0,0,0,-1,1693,1275,0,0
476,-251,0,0,0,0,0,0,0,0,0,-1,1700,1275,0,0
483,-251,0,0,0,0,0,0,0,0,0,-1,1707,1275,0,0
490,-251,0,0,0,0,0,0,0,0,0,-1,1714,1275,0,0
497,-251,0,0,0,0,0,0,0,0,0,-1,1721,1275,0,0
504,-251,0,0,0,0,0,0,0,0,0,-1,1728,1275,0,0
511,-251,0,0,0,0,0,0,0,0,0,-1,1735,1275,0,0
518,-251,0,0,0,0,0,0,0,0,0,-1,1742,1275,0,0
525,-251,0,0,0,0,0,0,0,0,0,-1,1749,1275,0,0
532,-251,0,0,0,0,0,0,0,0,0,-1,1756,1275,0,0
539,-251,0,0,0,0,0,0,0,0,0,-1,1763,1275,0,0
546,-251,0,0,0,0,0,0,0,0,0,-1,1770,1275,0,0
553,-251,0,0,0,0,0,0,0,0,0,-1,1777,1275,0,0
560,-251,0,0,0,0,0,0,0,0,0,-1,1784,1275,0,0
567,-251,0,0,0,0,0,0,0,0,0,-1,1791,1275,0,0
574,-251,0,0,0,0,0,0,0,0,0,-1,1798,1275,0,0
581,-251,0,0,0,0,0,0,0,0,0,-1,1805,1275,0,0
588,-251,0,0,0,0,0,0,0,0,0,-1,1812,1275,0,0
595,-251,0,0,0,0,0,0,0,0,0,-1,1819,1275,0,0
602,-251,0,0,0,0,0,0,0,0,0,-1,1826,1275,0,0
609,-251,21.032,2.93713,0.00288198,-0.00038571,-0.00493872,0.00645009,-0.00395382,-0.625653,0.00606406,0.0316448,1833,1275,21.032,-2.93713
616,-251,20.9889,2.90515,0.00213381,0.0022874,-0.00416438,0.00637569,-0.00195449,-0.794618,0.00503016,0.0267599,1840,1275,20.9889,-2.90514
623,-251,21.0121,2.92786,0.00144601,0.00467791,-0.00334194,0.00677408,-0.000650159,-1.01059,0.00474764,0.0218372,1847,1275,21.0121,-2.92781
630,-251,21.0269,2.9104,0.000837688,0.00569753,-0.00236418,0.00665787,-0.000122653,-1.18495,0.00448002,0.0317136,1854,1275,21.0269,-2.91034
637,-251,21.2096,3.07141,0.000294703,0.00570804,-0.00154864,0.00611975,-0.000117013,-1.31095,0.00411939,0.039194,1861,1275,21.2096,-3.07144
644,-251,20.9969,3.74939,0,0,0,0,0,0,0,-1,1868,1275,20.9969,-3.74942
651,-251,20.9877,3.31641,0,0,0,0,0,0,0,-1,1875,1275,20.9877,-3.31638
658,-251,21.1707,2.24548,0,0,0,0,0,0,0,-1,1882,1275,21.1707,-2.24546
665,-251,20.2781,3.79688,0,0,0,0,0,0,0,-1,1889,1275,20.2781,-3.79692
672,-251,17.7368,5.60181,0,0,0,0,0,0,0,-1,1896,1275,17.7368,-5.60179
679,-251,17.4844,5.63403,-0.000134395,0.00196081,0.00075749,0.00220598,-0.000379565,1.25778,0.00161214,0.0466905,1903,1275,17.4843,-5.63408
686,-251,17.4108,5.5968,-0.000343605,0.00109164,0.000820427,0.00146401,-0.000715974,1.14473,0.00128308,0.0255127,1910,1275,17.4108,-5.59685
693,-251,17.4329,5.47339,-0.000805685,-0.000201024,0.000635236,0.000200157,-0.00120687,1.0075,0.000878927,0.0102106,1917,1275,17.4329,-5.47342
700,-251,17.4399,5.29224,-0.000635838,-6.54584e-05,0.000570065,0.000286774,-0.00098807,1.01733,0.000772262,0.00876999,1924,1275,17.4399,-5.29227
707,-251,17.4585,5.11194,-0.000345341,0.000183673,0.000500989,0.000485693,-0.000647362,1.02828,0.000656386,0.010794,1931,1275,17.4585,-5.11195
714,-251,17.4572,4.95032,0.000167517,0.000163969,-1.72538e-05,0.000183087,0.000148398,-0.734168,0.000112296,0.0113934,1938,1275,17.4571,-4.95037
721,-251,17.4153,4.78992,0.0010011,0.000111653,-0.00119208,0.0018287,-0.000715955,-0.606862,0.00151526,0.014267,1945,1275,17.4153,-4.78993
728,-251,17.4082,4.604,0.00119193,-0.000324394,-0.00235182,0.00290477,-0.00203724,-0.629472,0.00286789,0.0163533,1952,1275,17.4082,-4.60402
735,-251,17.4388,4.43542,0.00104161,-0.000738537,-0.00342481,0.00369012,-0.00338705,-0.658266,0.00408725,0.0152108,1959,1275,17.4389,-4.43537
742,-251,17.4677,4.27637,0.00102349,-0.00156384,-0.00454751,0.00445776,-0.00499812,-0.64682,0.00546233,0.0147161,1966,1275,17.4677,-4.27638
749,-251,17.462,4.13733,0.000267671,-0.00310025,-0.00581251,0.00463524,-0.00746782,-0.644402,0.00705121,0.0232551,1973,1275,17.4621,-4.13729
756,-251,17.5265,3.81604,-0.0013083,-0.00546658,-0.00713024,0.00403975,-0.0108146,-0.643534,0.00886852,0.0392318,1980,1275,17.5265,-3.81608
763,-251,17.6222,3.37158,-0.00411434,-0.0088332,-0.00835225,0.00220534,-0.0151529,-0.64774,0.0109116,0.0464408,1987,1275,17.6222,-3.37154
770,-251,17.6025,2.47131,-0.00875349,-0.0133374,-0.00921059,-0.00155398,-0.0205369,-0.663455,0.0132038,0.0473687,1994,1275,17.6025,-2.47125
777,-251,17.4327,1.84583,0,0,0,0,0,0,0,-1,2001,1275,17.4327,-1.84578
784,-251,16.8624,1.63489,0,0,0,0,0,0,0,-1,2008,1275,16.8624,-1.63489
791,-251,0,0,0,0,0,0,0,0,0,-1,2015,1275,0,0
798,-251,0,0,0,0,0,0,0,0,0,-1,2022,1275,0,0
805,-251,0,0,0,0,0,0,0,0,0,-1,2029,1275,0,0
812,-251,0,0,0,0,0,0,0,0,0,-1,2036,1275,0,0
-700,-258,0,0,0,0,0,0,0,0,0,-1,524,1282,0,0
-693,-258,0,0,0,0,0,0,0,0,0,-1,531,1282,0,0
-686,-258,0,0,0,0,0,0,0,0,0,-1,538,1282,0,0
-679,-258,0,0,0,0,0,0,0,0,0,-1,545,1282,0,0
-672,-258,0,0,0,0,0,0,0,0,0,-1,552,1282,0,0
-665,-258,-5.81927,3.58179,0,0,0,0,0,0,0,-1,559,1282,-5.81929,-3.58175
-658,-258,-6.16229,2.71387,-0.00880572,0.0190861,-0.0254581,0.0341679,-0.0238875,-1.03597,0.033693,0.0477395,566,1282,-6.16229,-2.71387
-651,-258,-6.95172,2.40686,-0.0166951,0.0197066,-0.01859,0.0275223,-0.0245108,-1.17281,0.0300581,0.0492766,573,1282,-6.95174,-2.40686
-644,-258,-7.56885,0.954712,0,0,0,0,0,0,0,-1,580,1282,-7.56886,-0.954682
-637,-258,-7.98981,1.22937,-0.0219301,0.0173863,-0.00863239,0.0191981,-0.023742,-1.36391,0.0248377,0.0449983,587,1282,-7.98982,-1.2294
-630,-258,-8.4574,1.3075,-0.0212831,0.0152889,-0.00524286,0.0160257,-0.0220199,-1.43118,0.0220563,0.0475382,594,1282,-8.45741,-1.30751
-623,-258,-8.82635,1.56384,-0.0192913,0.0129273,-0.00275755,0.0131616,-0.0195256,-1.48603,0.0189908,0.0463201,601,1282,-8.82638,-1.56388
-616,-258,-9.07623,1.81079,-0.0171784,0.0109051,-0.000914122,0.0109349,-0.0172081,-1.53829,0.0163824,0.0327741,608,1282,-9.07624,-1.81083
-609,-258,-9.06824,1.97717,-0.0139972,0.00865604,0.00026797,0.00865921,-0.0140003,1.55897,0.0132031,0.0172384,615,1282,-9.06826,-1.97718
-602,-258,-9.07501,2.16895,-0.0102516,0.00643382,0.00119608,0.00651913,-0.0103369,1.4996,0.00981471,0.0139364,622,1282,-9.075,-2.16889
-595,-258,-9.08002,2.37073,-0.00649473,0.00384046,0.00174839,0.00412822,-0.00678249,1.40767,0.00636113,0.0114224,629,1282,-9.08001,-2.37073
-588,-258,-9.06818,2.5802,-0.00291702,0.00261998,0.0010417,0.00280948,-0.00310651,1.39085,0.00341703,0.0127077,636,1282,-9.06819,-2.58025
-581,-258,-9.08612,2.79858,-0.000354012,0.00207027,-0.000138976,0.00207821,-0.000361953,-1.51372,0.00152055,0.0148536,643,1282,-9.08609,-2.79857
-574,-258,-9.07281,3.01221,0.000766321,0.0021532,-0.00135966,0.00298604,-6.65255e-05,-1.02121,0.00201324,0.0142796,650,1282,-9.07282,-3.01223
-567,-258,-9.07227,3.22546,-0.000618863,0.0024756,-0.00217248,0.00359551,-0.00173877,-1.09483,0.00314132,0.0139734,657,1282,-9.07226,-3.22546
-560,-258,-9.06891,3.43921,-0.00301915,0.00242232,-0.00265343,0.00350199,-0.00409882,-1.18436,0.00439284,0.0216183,664,1282,-9.06894,-3.43922
-553,-258,-9.01318,3.5603,-0.00535294,0.00287146,-0.00311818,0.00392,-0.00640148,-1.24641,0.00601624,0.030878,671,1282,-9.0132,-3.56029
-546,-258,-8.90729,3.56763,-0.00799453,0.00261781,-0.00331753,0.00356955,-0.00894627,-1.29142,0.00744496,0.0473933,678,1282,-8.90732,-3.56761
-539,-258,-8.75714,3.61401,0,0,0,0,0,0,0,-1,685,1282,-8.75714,-3.61402
-532,-258,-10.2173,-0.353882,0,0,0,0,0,0,0,-1,692,1282,-10.2173,0.353836
-525,-258,-11.5179,0.177368,0,0,0,0,0,0,0,-1,699,1282,-11.5179,-0.177345
-518,-258,-11.8278,-0.338623,0,0,0,0,0,0,0,-1,706,1282,-11.8278,0.338663
-511,-258,-12.6537,0.545532,-0.0193884,-0.0110443,-0.000113736,-0.0110428,-0.0193899,-1.55717,0.0112308,0.0448665,713,1282,-12.6537,-0.545562
-504,-258,-12.3499,0.254639,-0.0180779,-0.0172987,0.00203102,-0.0156202,-0.0197563,0.880154,0.0120315,0.0462263,720,1282,-12.3499,-0.254611
-497,-258,-12.5402,0.248535,0,0,0,0,0,0,0,-1,727,1282,-12.5401,-0.248519
-490,-258,-13.2527,1.00916,0,0,0,0,0,0,0,-1,734,1282,-13.2528,-1.00921
-483,-258,0,0,0,0,0,0,0,0,0,-1,741,1282,0,0
-476,-258,0,0,0,0,0,0,0,0,0,-1,748,1282,0,0
-469,-258,0,0,0,0,0,0,0,0,0,-1,755,1282,0,0
-462,-258,0,0,0,0,0,0,0,0,0,-1,762,1282,0,0
-455,-258,0,0,0,0,0,0,0,0,0,-1,769,1282,0,0
-448,-258,0,0,0,0,0,0,0,0,0,-1,776,1282,0,0
-441,-258,0,0,0,0,0,0,0,0,0,-1,783,1282,0,0
-434,-258,0,0,0,0,0,0,0,0,0,-1,790,1282,0,0
-427,-258,0,0,0,0,0,0,0,0,0,-1,797,1282,0,0
-420,-258,0,0,0,0,0,0,0,0,0,-1,804,1282,0,0
-413,-258,0,0,0,0,0,0,0,0,0,-1,811,1282,0,0
-406,-258,0,0,0,0,0,0,0,0,0,-1,818,1282,0,0
-399,-258,0,0,0,0,0,0,0,0,0,-1,825,1282,0,0
-392,-258,0,0,0,0,0,0,0,0,0,-1,832,1282,0,0
-385,-258,0,0,0,0,0,0,0,0,0,-1,839,1282,0,0
-378,-258,0,0,0,0,0,0,0,0,0,-1,846,1282,0,0
-371,-258,0,0,0,0,0,0,0,0,0,-1,853,1282,0,0
-364,-258,0,0,0,0,0,0,0,0,0,-1,860,1282,0,0
-357,-258,0,0,0,0,0,0,0,0,0,-1,867,1282,0,0
-350,-258,0,0,0,0,0,0,0,0,0,-1,874,1282,0,0
-343,-258,0,0,0,0,0,0,0,0,0,-1,881,1282,0,0
-336,-258,0,0,0,0,0,0,0,0,0,-1,888,1282,0,0
-329,-258,0,0,0,0,0,0,0,0,0,-1,895,1282,0,0
-322,-258,0,0,0,0,0,0,0,0,0,-1,902,1282,0,0
-315,-258,0,0,0,0,0,0,0,0,0,-1,909,1282,0,0
-308,-258,0,0,0,0,0,0,0,0,0,-1,916,1282,0,0
-301,-258,0,0,0,0,0,0,0,0,0,-1,923,1282,0,0
-294,-258,0,0,0,0,0,0,0,0,0,-1,930,1282,0,0
-287,-258,0,0,0,0,0,0,0,0,0,-1,937,1282,0,0
-280,-258,0,0,0,0,0,0,0,0,0,-1,944,1282,0,0
-273,-258,0,0,0,0,0,0,0,0,0,-1,951,1282,0,0
-266,-258,0,0,0,0,0,0,0,0,0,-1,958,1282,0,0
-259,-258,0,0,0,0,0,0,0,0,0,-1,965,1282,0,0
-252,-258,0,0,0,0,0,0,0,0,0,-1,972,1282,0,0
-245,-258,0,0,0,0,0,0,0,0,0,-1,979,1282,0,0
-238,-258,0,0,0,0,0,0,0,0,0,-1,986,1282,0,0
-231,-258,0,0,0,0,0,0,0,0,0,-1,993,1282,0,0
-224,-258,0,0,0,0,0,0,0,0,0,-1,1000,1282,0,0
-217,-258,0,0,0,0,0,0,0,0,0,-1,1007,1282,0,0
-210,-258,0,0,0,0,0,0,0,0,0,-1,1014,1282,0,0
-203,-258,0,0,0,0,0,0,0,0,0,-1,1021,1282,0,0
-196,-258,0,0,0,0,0,0,0,0,0,-1,1028,1282,0,0
-189,-258,0,0,0,0,0,0,0,0,0,-1,1035,1282,0,0
-182,-258,0,0,0,0,0,0,0,0,0,-1,1042,1282,0,0
-175,-258,0,0,0,0,0,0,0,0,0,-1,1049,1282,0,0
-168,-258,0,0,0,0,0,0,0,0,0,-1,1056,1282,0,0
-161,-258,0,0,0,0,0,0,0,0,0,-1,1063,1282,0,0
-154,-258,0,0,0,0,0,0,0,0,0,-1,1070,1282,0,0
-147,-258,0,0,0,0,0,0,0,0,0,-1,1077,1282,0,0
-140,-258,0,0,0,0,0,0,0,0,0,-1,1084,1282,0,0
-133,-258,0,0,0,0,0,0,0,0,0,-1,1091,1282,0,0
-126,-258,0,0,0,0,0,0,0,0,0,-1,1098,1282,0,0
-119,-258,0,0,0,0,0,0,0,0,0,-1,1105,1282,0,0
-112,-258,0,0,0,0,0,0,0,0,0,-1,1112,1282,0,0
-105,-258,0,0,0,0,0,0,0,0,0,-1,1119,1282,0,0
-98,-258,0,0,0,0,0,0,0,0,0,-1,1126,1282,0,0
-91,-258,0,0,0,0,0,0,0,0,0,-1,1133,1282,0,0
-84,-258,0,0,0,0,0,0,0,0,0,-1,1140,1282,0,0
-77,-258,0,0,0,0,0,0,0,0,0,-1,1147,1282,0,0
-70,-258,0,0,0,0,0,0,0,0,0,-1,1154,1282,0,0
-63,-258,0,0,0,0,0,0,0,0,0,-1,1161,1282,0,0
-56,-258,0,0,0,0,0,0,0,0,0,-1,1168,1282,0,0
-49,-258,0,0,0,0,0,0,0,0,0,-1,1175,1282,0,0
-42,-258,0,0,0,0,0,0,0,0,0,-1,1182,1282,0,0
-35,-258,0,0,0,0,0,0,0,0,0,-1,1189,1282,0,0
-28,-258,0,0,0,0,0,0,0,0,0,-1,1196,1282,0,0
-21,-258,0,0,0,0,0,0,0,0,0,-1,1203,1282,0,0
-14,-258,0,0,0,0,0,0,0,0,0,-1,1210,1282,0,0
-7,-258,0,0,0,0,0,0,0,0,0,-1,1217,1282,0,0
0,-258,0,0,0,0,0,0,0,0,0,-1,1224,1282,0,0
7,-258,0,0,0,0,0,0,0,0,0,-1,1231,1282,0,0
14,-258,0,0,0,0,0,0,0,0,0,-1,1238,1282,0,0
21,-258,0,0,0,0,0,0,0,0,0,-1,1245,1282,0,0
28,-258,0,0,0,0,0,0,0,0,0,-1,1252,1282,0,0
35,-258,0,0,0,0,0,0,0,0,0,-1,1259,1282,0,0
42,-258,0,0,0,0,0,0,0,0,0,-1,1266,1282,0,0
49,-258,0,0,0,0,0,0,0,0,0,-1,1273,1282,0,0
56,-258,0,0,0,0,0,0,0,0,0,-1,1280,1282,0,0
63,-258,0,0,0,0,0,0,0,0,0,-1,1287,1282,0,0
70,-258,0,0,0,0,0,0,0,0,0,-1,1294,1282,0,0
77,-258,0,0,0,0,0,0,0,0,0,-1,1301,1282,0,0
84,-258,0,0,0,0,0,0,0,0,0,-1,1308,1282,0,0
91,-258,0,0,0,0,0,0,0,0,0,-1,1315,1282,0,0
98,-258,0,0,0,0,0,0,0,0,0,-1,1322,1282,0,0
105,-258,0,0,0,0,0,0,0,0,0,-1,1329,1282,0,0
112,-258,0,0,0,0,0,0,0,0,0,-1,1336,1282,0,0
119,-258,0,0,0,0,0,0,0,0,0,-1,1343,1282,0,0
126,-258,0,0,0,0,0,0,0,0,0,-1,1350,1282,0,0
133,-258,0,0,0,0,0,0,0,0,0,-1,1357,1282,0,0
140,-258,0,0,0,0,0,0,0,0,0,-1,1364,1282,0,0
147,-258,0,0,0,0,0,0,0,0,0,-1,1371,1282,0,0
154,-258,0,0,0,0,0,0,0,0,0,-1,1378,1282,0,0
161,-258,0,0,0,0,0,0,0,0,0,-1,1385,1282,0,0
168,-258,0,0,0,0,0,0,0,0,0,-1,1392,1282,0,0
175,-258,0,0,0,0,0,0,0,0,0,-1,1399,1282,0,0
182,-258,0,0,0,0,0,0,0,0,0,-1,1406,1282,0,0
189,-258,0,0,0,0,0,0,0,0,0,-1,1413,1282,0,0
196,-258,0,0,0,0,0,0,0,0,0,-1,1420,1282,0,0
203,-258,0,0,0,0,0,0,0,0,0,-1,1427,1282,0,0
210,-258,0,0,0,0,0,0,0,0,0,-1,1434,1282,0,0
217,-258,0,0,0,0,0,0,0,0,0,-1,1441,1282,0,0
224,-258,0,0,0,0,0,0,0,0,0,-1,1448,1282,0,0
231,-258,0,0,0,0,0,0,0,0,0,-1,1455,1282,0,0
238,-258,0,0,0,0,0,0,0,0,0,-1,1462,1282,0,0
245,-258,0,0,0,0,0,0,0,0,0,-1,1469,1282,0,0
252,-258,0,0,0,0,0,0,0,0,0,-1,1476,1282,0,0
259,-258,0,0,0,0,0,0,0,0,0,-1,1483,1282,0,0
266,-258,0,0,0,0,0,0,0,0,0,-1,1490,1282,0,0
273,-258,0,0,0,0,0,0,0,0,0,-1,1497,1282,0,0
280,-258,0,0,0,0,0,0,0,0,0,-1,1504,1282,0,0
287,-258,0,0,0,0,0,0,0,0,0,-1,1511,1282,0,0
294,-258,0,0,0,0,0,0,0,0,0,-1,1518,1282,0,0
301,-258,0,0,0,0,0,0,0,0,0,-1,1525,1282,0,0
308,-258,0,0,0,0,0,0,0,0,0,-1,1532,1282,0,0
315,-258,0,0,0,0,0,0,0,0,0,-1,1539,1282,0,0
322,-258,0,0,0,0,0,0,0,0,0,-1,1546,1282,0,0
329,-258,0,0,0,0,0,0,0,0,0,-1,1553,1282,0,0
336,-258,0,0,0,0,0,0,0,0,0,-1,1560,1282,0,0
343,-258,0,0,0,0,0,0,0,0,0,-1,1567,1282,0,0
350,-258,0,0,0,0,0,0,0,0,0,-1,1574,1282,0,0
357,-258,0,0,0,0,0,0,0,0,0,-1,1581,1282,0,0
364,-258,0,0,0,0,0,0,0,0,0,-1,1588,1282,0,0
371,-258,0,0,0,0,0,0,0,0,0,-1,1595,1282,0,0
378,-258,0,0,0,0,0,0,0,0,0,-1,1602,1282,0,0
385,-258,0,0,0,0,0,0,0,0,0,-1,1609,1282,0,0
392,-258,0,0,0,0,0,0,0,0,0,-1,1616,1282,0,0
399,-258,0,0,0,0,0,0,0,0,0,-1,1623,1282,0,0
406,-258,0,0,0,0,0,0,0,0,0,-1,1630,1282,0,0
413,-258,0,0,0,0,0,0,0,0,0,-1,1637,1282,0,0
420,-258,0,0,0,0,0,0,0,0,0,-1,1644,1282,0,0
427,-258,0,0,0,0,0,0,0,0,0,-1,1651,1282,0,0
434,-258,0,0,0,0,0,0,0,0,0,-1,1658,1282,0,0
441,-258,0,0,0,0,0,0,0,0,0,-1,1665,1282,0,0
448,-258,0,0,0,0,0,0,0,0,0,-1,1672,1282,0,0
455,-258,0,0,0,0,0,0,0,0,0,-1,1679,1282,0,0
462,-258,0,0,0,0,0,0,0,0,0,-1,1686,1282,0,0
469,-258,0,0,0,0,0,0,0,0,0,-1,1693,1282,0,0
476,-258,0,0,0,0,0,0,0,0,0,-1,1700,1282,0,0
483,-258,0,0,0,0,0,0,0,0,0,-1,1707,1282,0,0
490,-258,0,0,0,0,0,0,0,0,0,-1,1714,1282,0,0
497,-258,0,0,0,0,0,0,0,0,0,-1,1721,1282,0,0
504,-258,0,0,0,0,0,0,0,0,0,-1,1728,1282,0,0
511,-258,0,0,0,0,0,0,0,0,0,-1,1735,1282,0,0
518,-258,0,0,0,0,0,0,0,0,0,-1,1742,1282,0,0
525,-258,0,0,0,0,0,0,0,0,0,-1,1749,1282,0,0
532,-258,0,0,0,0,0,0,0,0,0,-1,1756,1282,0,0
539,-258,0,0,0,0,0,0,0,0,0,-1,1763,1282,0,0
546,-258,0,0,0,0,0,0,0,0,0,-1,1770,1282,0,0
553,-258,0,0,0,0,0,0,0,0,0,-1,1777,1282,0,0
560,-258,0,0,0,0,0,0,0,0,0,-1,1784,1282,0,0
567,-258,0,0,0,0,0,0,0,0,0,-1,1791,1282,0,0
574,-258,0,0,0,0,0,0,0,0,0,-1,1798,1282,0,0
581,-258,0,0,0,0,0,0,0,0,0,-1,1805,1282,0,0
588,-258,0,0,0,0,0,0,0,0,0,-1,1812,1282,0,0
595,-258,0,0,0,0,0,0,0,0,0,-1,1819,1282,0,0
602,-258,0,0,0,0,0,0,0,0,0,-1,1826,1282,0,0
609,-258,21.0577,2.97217,0.00259156,9.9222e-05,-0.00678099,0.00823994,-0.00554916,-0.694525,0.00801151,0.0258737,1833,1282,21.0577,-2.9722
616,-258,21.0345,2.99622,0.000680036,0.00245539,-0.00509845,0.00674286,-0.00360743,-0.871588,0.00606645,0.0232542,1840,1282,21.0345,-2.99627
623,-258,20.9886,2.94263,-0.000876145,0.00445354,-0.00336339,0.00607982,-0.00250243,-1.12041,0.00509644,0.0311496,1847,1282,20.9886,-2.94266
630,-258,20.9847,2.72021,-0.00180553,0.00513375,-0.00181931,0.0055818,-0.00225358,-1.32933,0.00465781,0.0415699,1854,1282,20.9847,-2.72024
637,-258,21.6714,3.25867,-0.00233574,0.00507887,-0.000776359,0.00515928,-0.00241616,-1.46758,0.00446824,0.0428291,1861,1282,21.6713,-3.25865
644,-258,20.8672,3.94617,0,0,0,0,0,0,0,-1,1868,1282,20.8672,-3.94621
651,-258,20.9067,3.47876,0,0,0,0,0,0,0,-1,1875,1282,20.9067,-3.47873
658,-258,20.9462,3.01123,0,0,0,0,0,0,0,-1,1882,1282,20.9462,-3.01126
665,-258,19.293,2.93506,0,0,0,0,0,0,0,-1,1889,1282,19.2929,-2.93507
672,-258,17.6317,5.71533,0,0,0,0,0,0,0,-1,1896,1282,17.6317,-5.7153
679,-258,17.3311,5.76282,-0.00168623,0.00191802,0.00162839,0.00254475,-0.00231296,1.2034,0.00280566,0.0418346,1903,1282,17.3311,-5.76281
686,-258,17.2344,5.66821,-0.0016935,0.000991128,0.00158035,0.00172229,-0.00242467,1.13747,0.00240567,0.0249818,1910,1282,17.2344,-5.66826
693,-258,17.291,5.46777,-0.00193652,-0.000495753,0.00118924,0.000174278,-0.00260655,1.05772,0.00179861,0.010612,1917,1282,17.291,-5.46781
700,-258,17.2915,5.27832,-0.00144572,-0.000220933,0.000885986,0.000243706,-0.00191036,1.0878,0.00136209,0.00919019,1924,1282,17.2915,-5.27829
707,-258,17.2961,5.11646,-0.000815316,0.000167304,0.000554774,0.000417046,-0.00106506,1.1478,0.000882536,0.0110281,1931,1282,17.2962,-5.11651
714,-258,17.295,4.953,8.71777e-05,0.000313477,-0.000250777,0.000475449,-7.47945e-05,-0.997322,0.000344614,0.011259,1938,1282,17.295,-4.95304
721,-258,17.283,4.77234,0.00122221,0.000329483,-0.00160823,0.00244487,-0.000893176,-0.650031,0.00199542,0.0128923,1945,1282,17.283,-4.77237
728,-258,17.2695,4.59937,0.00165274,-4.72145e-05,-0.00294139,0.00386449,-0.00225897,-0.644744,0.00357566,0.012174,1952,1282,17.2696,-4.59941
735,-258,17.2804,4.43701,0.00170468,-0.000435318,-0.0041965,0.00496544,-0.00369608,-0.660571,0.0050186,0.0135073,1959,1282,17.2804,-4.43702
742,-258,17.2894,4.27783,0.00182404,-0.00135154,-0.00559432,0.00605153,-0.00557903,-0.647124,0.00671676,0.0157377,1966,1282,17.2895,-4.27787
749,-258,17.2668,4.11548,0.00125641,-0.00308313,-0.00720964,0.0066157,-0.00844242,-0.639232,0.00871511,0.0275616,1973,1282,17.2668,-4.11551
756,-258,17.3373,3.78809,-0.000163942,-0.00581539,-0.00896508,0.00641019,-0.0123895,-0.63273,0.0110355,0.0377449,1980,1282,17.3372,-3.78813
763,-258,17.5406,3.37976,-0.00296228,-0.00981674,-0.0107099,0.00485539,-0.0176344,-0.630544,0.0136653,0.0458515,1987,1282,17.5406,-3.37978
770,-258,17.5564,3.15625,-0.00789912,-0.0153251,-0.0121756,0.00111703,-0.0243413,-0.6374,0.0166124,0.0475588,1994,1282,17.5564,-3.1563
777,-258,17.2914,2.73901,-0.0158762,-0.0225264,-0.0129573,-0.00582415,-0.0325784,-0.659798,0.0200614,0.0477424,2001,1282,17.2914,-2.73906
784,-258,16.9154,2.36511,0,0,0,0,0,0,0,-1,2008,1282,16.9154,-2.36516
791,-258,0,0,0,0,0,0,0,0,0,-1,2015,1282,0,0
798,-258,0,0,0,0,0,0,0,0,0,-1,2022,1282,0,0
805,-258,0,0,0,0,0,0,0,0,0,-1,2029,1282,0,0
812,-258,0,0,0,0,0,0,0,0,0,-1,2036,1282,0,0
-700,-265,0,0,0,0,0,0,0,0,0,-1,524,1289,0,0
-693,-265,0,0,0,0,0,0,0,0,0,-1,531,1289,0,0
-686,-265,0,0,0,0,0,0,0,0,0,-1,538,1289,0,0
-679,-265,0,0,0,0,0,0,0,0,0,-1,545,1289,0,0
-672,-265,0,0,0,0,0,0,0,0,0,-1,552,1289,0,0
-665,-265,-6.01843,3.03638,0,0,0,0,0,0,0,-1,559,1289,-6.01842,-3.03637
-658,-265,-6.38171,2.25195,-0.0139638,0.0251561,-0.0287201,0.0403442,-0.029152,-1.08435,0.0402968,0.0464825,566,1289,-6.38174,-2.25197
-651,-265,-6.75482,1.75159,-0.0218216,0.0255621,-0.0208192,0.0334098,-0.0296693,-1.21032,0.0364401,0.0476585,573,1289,-6.75483,-1.75159
-644,-265,-7.32178,1.20679,0,0,0,0,0,0,0,-1,580,1289,-7.32176,-1.20675
-637,-265,-7.9574,1.16455,-0.0259891,0.0222386,-0.00938479,0.0240005,-0.027751,-1.38522,0.0299049,0.0449942,587,1289,-7.95737,-1.16458
-630,-265,-8.31128,1.33423,-0.0247055,0.0194972,-0.00549784,0.0201707,-0.0253791,-1.44889,0.0263554,0.0484304,594,1289,-8.31126,-1.3342
-623,-265,-8.65875,1.5708,0,0,0,0,0,0,0,-1,601,1289,-8.65873,-1.5708
-616,-265,-8.85785,1.77002,-0.0194239,0.0137706,-0.000572105,0.0137805,-0.0194338,-1.55357,0.0192686,0.0371684,608,1289,-8.85783,-1.77005
-609,-265,-8.85541,1.96521,-0.0157431,0.010897,0.000721043,0.0109165,-0.0157626,1.54376,0.0154877,0.0171035,615,1289,-8.85538,-1.96526
-602,-265,-8.87555,2.17847,-0.0116508,0.00821408,0.00171049,0.00836029,-0.0117971,1.48553,0.0116941,0.0143324,622,1289,-8.87554,-2.17851
-595,-265,-8.88116,2.38977,-0.00775289,0.00514745,0.0023112,0.00554902,-0.00815446,1.39876,0.00795924,0.0119185,629,1289,-8.88117,-2.38973
-588,-265,-8.88434,2.59875,-0.00392304,0.00328792,0.00162499,0.0036372,-0.00427232,1.35908,0.00457146,0.0110155,636,1289,-8.88435,-2.59881
-581,-265,-8.88654,2.80823,-0.000919944,0.00216681,0.000331284,0.00220197,-0.000955099,1.46508,0.00186952,0.0128836,643,1289,-8.88653,-2.80827
-574,-265,-8.88641,3.03455,0.000681345,0.00161797,-0.000992001,0.00224664,5.26691e-05,-1.00593,0.00148052,0.0139735,650,1289,-8.88639,-3.03452
-567,-265,-8.88019,3.23303,-0.000260277,0.00139415,-0.00193876,0.0026748,-0.00154092,-0.987041,0.00246312,0.0195336,657,1289,-8.88019,-3.23302
-560,-265,-8.90424,3.45911,-0.00254039,0.000945194,-0.00247461,0.00222912,-0.00382432,-1.09219,0.00353517,0.0209057,664,1289,-8.90422,-3.45911
-553,-265,-8.83789,3.70825,-0.00484778,0.00102823,-0.00289673,0.00221612,-0.00603566,-1.18163,0.00493135,0.0241609,671,1289,-8.83788,-3.7082
-546,-265,-8.77264,3.96753,-0.00747117,0.000264733,-0.00302937,0.00130984,-0.00851627,-1.23859,0.00616072,0.0356285,678,1289,-8.77266,-3.96759
-539,-265,-8.73383,4.21301,0,0,0,0,0,0,0,-1,685,1289,-8.73384,-4.21298
-532,-265,-8.53998,3.41467,0,0,0,0,0,0,0,-1,692,1289,-8.53996,-3.41473
-525,-265,-12.1317,0.514648,0,0,0,0,0,0,0,-1,699,1289,-12.1317,-0.514634
-518,-265,-12.4576,0.979614,-0.0174229,-0.0114411,-0.000705539,-0.011359,-0.017505,-1.45497,0.0102548,0.045589,706,1289,-12.4576,-0.97959
-511,-265,-12.8752,1.18274,-0.0181712,-0.0173883,0.000980792,-0.0167237,-0.0188357,0.975262,0.0119157,0.0435091,713,1289,-12.8752,-1.18274
-504,-265,-11.9409,-0.194336,0,0,0,0,0,0,0,-1,720,1289,-11.9408,0.194379
-497,-265,-13.5573,1.54138,-0.0118265,-0.0346381,0.0056415,-0.0105075,-0.035957,0.229666,0.0213489,0.0495066,727,1289,-13.5572,-1.54142
-490,-265,-13.4464,1.36987,-0.00136494,-0.045912,0.00774892,-5.55161e-05,-0.0472214,0.1674,0.0314625,0.044665,734,1289,-13.4464,-1.36982
-483,-265,0,0,0,0,0,0,0,0,0,-1,741,1289,0,0
-476,-265,0,0,0,0,0,0,0,0,0,-1,748,1289,0,0
-469,-265,0,0,0,0,0,0,0,0,0,-1,755,1289,0,0
-462,-265,0,0,0,0,0,0,0,0,0,-1,762,1289,0,0
-455,-265,0,0,0,0,0,0,0,0,0,-1,769,1289,0,0
-448,-265,0,0,0,0,0,0,0,0,0,-1,776,1289,0,0
-441,-265,0,0,0,0,0,0,0,0,0,-1,783,1289,0,0
-434,-265,0,0,0,0,0,0,0,0,0,-1,790,1289,0,0
-427,-265,0,0,0,0,0,0,0,0,0,-1,797,1289,0,0
-420,-265,0,0,0,0,0,0,0,0,0,-1,804,1289,0,0
-413,-265,0,0,0,0,0,0,0,0,0,-1,811,1289,0,0
-406,-265,0,0,0,0,0,0,0,0,0,-1,818,1289,0,0
-399,-265,0,0,0,0,0,0,0,0,0,-1,825,1289,0,0
-392,-265,0,0,0,0,0,0,0,0,0,-1,832,1289,0,0
-385,-265,0,0,0,0,0,0,0,0,0,-1,839,1289,0,0
-378,-265,0,0,0,0,0,0,0,0,0,-1,846,1289,0,0
-371,-265,0,0,0,0,0,0,0,0,0,-1,853,1289,0,0
-364,-265,0,0,0,0,0,0,0,0,0,-1,860,1289,0,0
-357,-265,0,0,0,0,0,0,0,0,0,-1,867,1289,0,0
-350,-265,0,0,0,0,0,0,0,0,0,-1,874,1289,0,0
-343,-265,0,0,0,0,0,0,0,0,0,-1,881,1289,0,0
-336,-265,0,0,0,0,0,0,0,0,0,-1,888,1289,0,0
-329,-265,0,0,0,0,0,0,0,0,0,-1,895,1289,0,0
-322,-265,0,0,0,0,0,0,0,0,0,-1,902,1289,0,0
-315,-265,0,0,0,0,0,0,0,0,0,-1,909,1289,0,0
-308,-265,0,0,0,0,0,0,0,0,0,-1,916,1289,0,0
-301,-265,0,0,0,0,0,0,0,0,0,-1,923,1289,0,0
-294,-265,0,0,0,0,0,0,0,0,0,-1,930,1289,0,0
-287,-265,0,0,0,0,0,0,0,0,0,-1,937,1289,0,0
-280,-265,0,0,0,0,0,0,0,0,0,-1,944,1289,0,0
-273,-265,0,0,0,0,0,0,0,0,0,-1,951,1289,0,0
-266,-265,0,0,0,0,0,0,0,0,0,-1,958,1289,0,0
-259,-265,0,0,0,0,0,0,0,0,0,-1,965,1289,0,0
-252,-265,0,0,0,0,0,0,0,0,0,-1,972,1289,0,0
-245,-265,0,0,0,0,0,0,0,0,0,-1,979,1289,0,0
-238,-265,0,0,0,0,0,0,0,0,0,-1,986,1289,0,0
-231,-265,0,0,0,0,0,0,0,0,0,-1,993,1289,0,0
-224,-265,0,0,0,0,0,0,0,0,0,-1,1000,1289,0,0
-217,-265,0,0,0,0,0,0,0,0,0,-1,1007,1289,0,0
-210,-265,0,0,0,0,0,0,0,0,0,-1,1014,1289,0,0
-203,-265,0,0,0,0,0,0,0,0,0,-1,1021,1289,0,0
-196,-265,0,0,0,0,0,0,0,0,0,-1,1028,1289,0,0
-189,-265,0,0,0,0,0,0,0,0,0,-1,1035,1289,0,0
-182,-265,0,0,0,0,0,0,0,0,0,-1,1042,1289,0,0
-175,-265,0,0,0,0,0,0,0,0,0,-1,1049,1289,0,0
-168,-265,0,0,0,0,0,0,0,0,0,-1,1056,1289,0,0
-161,-265,0,0,0,0,0,0,0,0,0,-1,1063,1289,0,0
-154,-265,0,0,0,0,0,0,0,0,0,-1,1070,1289,0,0
-147,-265,0,0,0,0,0,0,0,0,0,-1,1077,1289,0,0
-140,-265,0,0,0,0,0,0,0,0,0,-1,1084,1289,0,0
-133,-265,0,0,0,0,0,0,0,0,0,-1,1091,1289,0,0
-126,-265,0,0,0,0,0,0,0,0,0,-1,1098,1289,0,0
-119,-265,0,0,0,0,0,0,0,0,0,-1,1105,1289,0,0
-112,-265,0,0,0,0,0,0,0,0,0,-1,1112,1289,0,0
-105,-265,0,0,0,0,0,0,0,0,0,-1,1119,1289,0,0
-98,-265,0,0,0,0,0,0,0,0,0,-1,1126,1289,0,0
-91,-265,0,0,0,0,0,0,0,0,0,-1,1133,1289,0,0
-84,-265,0,0,0,0,0,0,0,0,0,-1,1140,1289,0,0
-77,-265,0,0,0,0,0,0,0,0,0,-1,1147,1289,0,0
-70,-265,0,0,0,0,0,0,0,0,0,-1,1154,1289,0,0
-63,-265,0,0,0,0,0,0,0,0,0,-1,1161,1289,0,0
-56,-265,0,0,0,0,0,0,0,0,0,-1,1168,1289,0,0
-49,-265,0,0,0,0,0,0,0,0,0,-1,1175,1289,0,0
-42,-265,0,0,0,0,0,0,0,0,0,-1,1182,1289,0,0
-35,-265,0,0,0,0,0,0,0,0,0,-1,1189,1289,0,0
-28,-265,0,0,0,0,0,0,0,0,0,-1,1196,1289,0,0
-21,-265,0,0,0,0,0,0,0,0,0,-1,1203,1289,0,0
-14,-265,0,0,0,0,0,0,0,0,0,-1,1210,1289,0,0
-7,-265,0,0,0,0,0,0,0,0,0,-1,1217,1289,0,0
0,-265,0,0,0,0,0,0,0,0,0,-1,1224,1289,0,0
7,-265,0,0,0,0,0,0,0,0,0,-1,1231,1289,0,0
14,-265,0,0,0,0,0,0,0,0,0,-1,1238,1289,0,0
21,-265,0,0,0,0,0,0,0,0,0,-1,1245,1289,0,0
28,-265,0,0,0,0,0,0,0,0,0,-1,1252,1289,0,0
35,-265,0,0,0,0,0,0,0,0,0,-1,1259,1289,0,0
42,-265,0,0,0,0,0,0,0,0,0,-1,1266,1289,0,0
49,-265,0,0,0,0,0,0,0,0,0,-1,1273,1289,0,0
56,-265,0,0,0,0,0,0,0,0,0,-1,1280,1289,0,0
63,-265,0,0,0,0,0,0,0,0,0,-1,1287,1289,0,0
70,-265,0,0,0,0,0,0,0,0,0,-1,1294,1289,0,0
77,-265,0,0,0,0,0,0,0,0,0,-1,1301,1289,0,0
84,-265,0,0,0,0,0,0,0,0,0,-1,1308,1289,0,0
91,-265,0,0,0,0,0,0,0,0,0,-1,1315,1289,0,0
98,-265,0,0,0,0,0,0,0,0,0,-1,1322,1289,0,0
105,-265,0,0,0,0,0,0,0,0,0,-1,1329,1289,0,0
112,-265,0,0,0,0,0,0,0,0,0,-1,1336,1289,0,0
119,-265,0,0,0,0,0,0,0,0,0,-1,1343,1289,0,0
126,-265,0,0,0,0,0,0,0,0,0,-1,1350,1289,0,0
133,-265,0,0,0,0,0,0,0,0,0,-1,1357,1289,0,0
140,-265,0,0,0,0,0,0,0,0,0,-1,1364,1289,0,0
147,-265,0,0,0,0,0,0,0,0,0,-1,1371,1289,0,0
154,-265,0,0,0,0,0,0,0,0,0,-1,1378,1289,0,0
161,-265,0,0,0,0,0,0,0,0,0,-1,1385,1289,0,0
168,-265,0,0,0,0,0,0,0,0,0,-1,1392,1289,0,0
175,-265,0,0,0,0,0,0,0,0,0,-1,1399,1289,0,0
182,-265,0,0,0,0,0,0,0,0,0,-1,1406,1289,0,0
189,-265,0,0,0,0,0,0,0,0,0,-1,1413,1289,0,0
196,-265,0,0,0,0,0,0,0,0,0,-1,1420,1289,0,0
203,-265,0,0,0,0,0,0,0,0,0,-1,1427,1289,0,0
210,-265,0,0,0,0,0,0,0,0,0,-1,1434,1289,0,0
217,-265,0,0,0,0,0,0,0,0,0,-1,1441,1289,0,0
224,-265,0,0,0,0,0,0,0,0,0,-1,1448,1289,0,0
231,-265,0,0,0,0,0,0,0,0,0,-1,1455,1289,0,0
238,-265,0,0,0,0,0,0,0,0,0,-1,1462,1289,0,0
245,-265,0,0,0,0,0,0,0,0,0,-1,1469,1289,0,0
252,-265,0,0,0,0,0,0,0,0,0,-1,1476,1289,0,0
259,-265,0,0,0,0,0,0,0,0,0,-1,1483,1289,0,0
266,-265,0,0,0,0,0,0,0,0,0,-1,1490,1289,0,0
273,-265,0,0,0,0,0,0,0,0,0,-1,1497,1289,0,0
280,-265,0,0,0,0,0,0,0,0,0,-1,1504,1289,0,0
287,-265,0,0,0,0,0,0,0,0,0,-1,1511,1289,0,0
294,-265,0,0,0,0,0,0,0,0,0,-1,1518,1289,0,0
301,-265,0,0,0,0,0,0,0,0,0,-1,1525,1289,0,0
308,-265,0,0,0,0,0,0,0,0,0,-1,1532,1289,0,0
315,-265,0,0,0,0,0,0,0,0,0,-1,1539,1289,0,0
322,-265,0,0,0,0,0,0,0,0,0,-1,1546,1289,0,0
329,-265,0,0,0,0,0,0,0,0,0,-1,1553,1289,0,0
336,-265,0,0,0,0,0,0,0,0,0,-1,1560,1289,0,0
343,-265,0,0,0,0,0,0,0,0,0,-1,1567,1289,0,0
350,-265,0,0,0,0,0,0,0,0,0,-1,1574,1289,0,0
357,-265,0,0,0,0,0,0,0,0,0,-1,1581,1289,0,0
364,-265,0,0,0,0,0,0,0,0,0,-1,1588,1289,0,0
371,-265,0,0,0,0,0,0,0,0,0,-1,1595,1289,0,0
378,-265,0,0,0,0,0,0,0,0,0,-1,1602,1289,0,0
385,-265,0,0,0,0,0,0,0,0,0,-1,1609,1289,0,0
392,-265,0,0,0,0,0,0,0,0,0,-1,1616,1289,0,0
399,-265,0,0,0,0,0,0,0,0,0,-1,1623,1289,0,0
406,-265,0,0,0,0,0,0,0,0,0,-1,1630,1289,0,0
413,-265,0,0,0,0,0,0,0,0,0,-1,1637,1289,0,0
420,-265,0,0,0,0,0,0,0,0,0,-1,1644,1289,0,0
427,-265,0,0,0,0,0,0,0,0,0,-1,1651,1289,0,0
434,-265,0,0,0,0,0,0,0,0,0,-1,1658,1289,0,0
441,-265,0,0,0,0,0,0,0,0,0,-1,1665,1289,0,0
448,-265,0,0,0,0,0,0,0,0,0,-1,1672,1289,0,0
455,-265,0,0,0,0,0,0,0,0,0,-1,1679,1289,0,0
462,-265,0,0,0,0,0,0,0,0,0,-1,1686,1289,0,0
469,-265,0,0,0,0,0,0,0,0,0,-1,1693,1289,0,0
476,-265,0,0,0,0,0,0,0,0,0,-1,1700,1289,0,0
483,-265,0,0,0,0,0,0,0,0,0,-1,1707,1289,0,0
490,-265,0,0,0,0,0,0,0,0,0,-1,1714,1289,0,0
497,-265,0,0,0,0,0,0,0,0,0,-1,1721,1289,0,0
504,-265,0,0,0,0,0,0,0,0,0,-1,1728,1289,0,0
511,-265,0,0,0,0,0,0,0,0,0,-1,1735,1289,0,0
518,-265,0,0,0,0,0,0,0,0,0,-1,1742,1289,0,0
525,-265,0,0,0,0,0,0,0,0,0,-1,1749,1289,0,0
532,-265,0,0,0,0,0,0,0,0,0,-1,1756,1289,0,0
539,-265,0,0,0,0,0,0,0,0,0,-1,1763,1289,0,0
546,-265,0,0,0,0,0,0,0,0,0,-1,1770,1289,0,0
553,-265,0,0,0,0,0,0,0,0,0,-1,1777,1289,0,0
560,-265,0,0,0,0,0,0,0,0,0,-1,1784,1289,0,0
567,-265,0,0,0,0,0,0,0,0,0,-1,1791,1289,0,0
574,-265,0,0,0,0,0,0,0,0,0,-1,1798,1289,0,0
581,-265,0,0,0,0,0,0,0,0,0,-1,1805,1289,0,0
588,-265,0,0,0,0,0,0,0,0,0,-1,1812,1289,0,0
595,-265,0,0,0,0,0,0,0,0,0,-1,1819,1289,0,0
602,-265,21.0405,2.91467,0.00634113,-0.00105801,-0.0120055,0.0152042,-0.00992107,-0.635937,0.0146126,0.0277262,1826,1289,21.0405,-2.91471
609,-265,21.0164,2.91748,0.00144774,0.000129125,-0.00833819,0.00915265,-0.00757579,-0.745945,0.00967246,0.0280817,1833,1289,21.0163,-2.91753
616,-265,20.9906,2.92249,-0.00157907,0.00187085,-0.00540219,0.0058168,-0.00552501,-0.939935,0.00654892,0.0323112,1840,1289,20.9906,-2.92254
623,-265,20.9324,2.70178,-0.00376404,0.00341236,-0.00277482,0.0043601,-0.00471178,-1.24167,0.00523897,0.0438454,1847,1289,20.9324,-2.70184
630,-265,21.0024,2.6344,0,0,0,0,0,0,0,-1,1854,1289,21.0024,-2.63436
637,-265,22.0781,3.41821,-0.00519263,0.00391367,0.000214351,0.00391872,-0.00519767,1.54727,0.00528058,0.0444087,1861,1289,22.0781,-3.41827
644,-265,22.1178,3.23047,0,0,0,0,0,0,0,-1,1868,1289,22.1178,-3.23044
651,-265,20.8245,3.61902,0,0,0,0,0,0,0,-1,1875,1289,20.8244,-3.61907
658,-265,19.4399,1.97693,0,0,0,0,0,0,0,-1,1882,1289,19.4399,-1.97695
665,-265,18.5912,1.93408,0,0,0,0,0,0,0,-1,1889,1289,18.5912,-1.93407
672,-265,17.0912,5.78052,0,0,0,0,0,0,0,-1,1896,1289,17.0912,-5.78055
679,-265,17.0969,5.7522,-0.00354385,0.00171881,0.00243476,0.00267244,-0.00449748,1.19749,0.00418402,0.0375634,1903,1289,17.097,-5.75225
686,-265,17.1003,5.6532,-0.00328175,0.000759656,0.00227826,0.00178423,-0.00430632,1.14818,0.00361548,0.0149921,1910,1289,17.1003,-5.65324
693,-265,17.1183,5.46509,-0.00319064,-0.000874421,0.00168491,1.20099e-05,-0.00407707,1.08649,0.00272206,0.00981129,1917,1289,17.1183,-5.46504
700,-265,17.1138,5.29395,-0.00229345,-0.000424079,0.00112649,0.000105004,-0.00282253,1.1317,0.00191765,0.0101717,1924,1289,17.1137,-5.29396
707,-265,17.1338,5.12012,-0.00130431,8.6659e-05,0.000529707,0.00026541,-0.00148306,1.24534,0.00108802,0.0103043,1931,1289,17.1338,-5.12012
714,-265,17.1284,4.94702,-7.3437e-05,0.000359239,-0.000519382,0.000705538,-0.000419736,-0.982735,0.000656625,0.0100158,1938,1289,17.1285,-4.94697
721,-265,17.1108,4.77148,0.0012364,0.000398029,-0.00198529,0.00284628,-0.00121185,-0.681354,0.00240547,0.00925083,1945,1289,17.1108,-4.77144
728,-265,17.0941,4.61401,0.00177136,3.2638e-05,-0.00340424,0.00441549,-0.00261149,-0.660382,0.00410135,0.0116718,1952,1289,17.0941,-4.61405
735,-265,17.0842,4.44934,0.00186833,-0.0004283,-0.00477059,0.00562687,-0.00418683,-0.667291,0.00568624,0.0151536,1959,1289,17.0842,-4.44932
742,-265,17.0964,4.23108,0.00190489,-0.00160273,-0.00636951,0.00675762,-0.00645547,-0.651055,0.00762925,0.019743,1966,1289,17.0964,-4.23113
749,-265,17.064,3.96521,0.00126975,-0.00372639,-0.00819285,0.00733691,-0.00979355,-0.637421,0.00992412,0.0391877,1973,1289,17.0639,-3.96517
756,-265,17.1006,3.72632,-0.000341525,-0.00708821,-0.0101615,0.00699193,-0.0144217,-0.625135,0.0126088,0.0405315,1980,1289,17.1006,-3.7263
763,-265,17.5201,3.66699,-0.00356749,-0.0120591,-0.0121182,0.00502719,-0.0206538,-0.616898,0.0157153,0.0442666,1987,1289,17.5202,-3.66697
770,-265,17.5409,3.52234,0,0,0,0,0,0,0,-1,1994,1289,17.5409,-3.52237
777,-265,17.2878,3.46265,0,0,0,0,0,0,0,-1,2001,1289,17.2878,-3.4626
784,-265,0,0,0,0,0,0,0,0,0,-1,2008,1289,0,0
791,-265,0,0,0,0,0,0,0,0,0,-1,2015,1289,0,0
798,-265,0,0,0,0,0,0,0,0,0,-1,2022,1289,0,0
805,-265,0,0,0,0,0,0,0,0,0,-1,2029,1289,0,0
812,-265,0,0,0,0,0,0,0,0,0,-1,2036,1289,0,0
-700,-272,0,0,0,0,0,0,0,0,0,-1,524,1296,0,0
-693,-272,0,0,0,0,0,0,0,0,0,-1,531,1296,0,0
-686,-272,0,0,0,0,0,0,0,0,0,-1,538,1296,0,0
-679,-272,0,0,0,0,0,0,0,0,0,-1,545,1296,0,0
-672,-272,0,0,0,0,0,0,0,0,0,-1,552,1296,0,0
-665,-272,0,0,0,0,0,0,0,0,0,-1,559,1296,0,0
-658,-272,-6.49567,1.86584,-0.0154599,0.0314732,-0.0316707,0.0474237,-0.0314105,-1.10424,0.0458269,0.0456553,566,1296,-6.4957,-1.86581
-651,-272,-6.89612,1.27161,-0.0236983,0.031987,-0.0227108,0.0400748,-0.0317861,-1.22868,0.0415808,0.0419561,573,1296,-6.89611,-1.2716
-644,-272,-7.5448,0.748047,-0.027193,0.0305017,-0.0155397,0.034421,-0.0311123,-1.32374,0.0378517,0.0448411,580,1296,-7.54478,-0.748028
-637,-272,-8.21265,0.650757,-0.0276641,0.0277634,-0.00989731,0.0294777,-0.0293784,-1.39929,0.0339806,0.0437566,587,1296,-8.21266,-0.650797
-630,-272,-8.28967,1.09314,0,0,0,0,0,0,0,-1,594,1296,-8.2897,-1.09311
-623,-272,-7.98749,1.48047,-0.0234905,0.0204998,-0.00243856,0.0206346,-0.0236252,-1.51559,0.0255728,0.0423015,601,1296,-7.9875,-1.48042
-616,-272,-8.40961,1.80347,-0.0205772,0.0169874,-0.000183358,0.0169883,-0.0205781,-1.56592,0.0217219,0.0359347,608,1296,-8.40959,-1.80342
-609,-272,-8.66223,2.04285,-0.0167459,0.0133741,0.00116859,0.0134194,-0.0167912,1.53208,0.0174783,0.0195923,615,1296,-8.66226,-2.04289
-602,-272,-8.68378,2.18347,-0.012573,0.0101519,0.00217733,0.0103586,-0.0127797,1.47613,0.0133833,0.0131874,622,1296,-8.68379,-2.18351
-595,-272,-8.67682,2.40308,-0.00882471,0.00662392,0.0028483,0.00713234,-0.00933313,1.39416,0.0095346,0.0113918,629,1296,-8.67681,-2.40304
-588,-272,-8.66064,2.61658,-0.00495695,0.00412114,0.00224639,0.0046466,-0.00548241,1.34102,0.00585462,0.010542,636,1296,-8.66067,-2.61657
-581,-272,-8.67511,2.81506,-0.00161436,0.00247092,0.000888916,0.00265596,-0.00179939,1.36557,0.0025881,0.0101504,643,1296,-8.67509,-2.8151
-574,-272,-8.68579,3.03076,0.000422331,0.00135268,-0.000452208,0.00153626,0.000238753,-1.18516,0.000954591,0.0146362,650,1296,-8.68577,-3.03082
-567,-272,-8.67688,3.22571,2.26817e-05,0.00065374,-0.00148195,0.00185338,-0.00117695,-0.89029,0.00176403,0.0206105,657,1296,-8.67689,-3.22572
-560,-272,-8.68115,3.4386,-0.00197445,-9.34615e-05,-0.00204065,0.00121299,-0.00328091,-1.00133,0.00268456,0.0203351,664,1296,-8.68115,-3.43864
-553,-272,-8.64679,3.66858,-0.00417149,-0.000353243,-0.00239349,0.00079926,-0.00532399,-1.12205,0.00384355,0.0144385,671,1296,-8.6468,-3.66858
-546,-272,-8.57263,3.85925,-0.00672841,-0.00154086,-0.00244424,-0.000570657,-0.00769861,-1.19293,0.00495316,0.020624,678,1296,-8.57263,-3.85921
-539,-272,-8.42676,3.76868,-0.00907277,-0.00417473,-0.00240102,-0.00319409,-0.0100534,-1.18305,0.00593153,0.048486,685,1296,-8.42674,-3.76867
-532,-272,-8.31128,3.70447,0,0,0,0,0,0,0,-1,692,1296,-8.31126,-3.70451
-525,-272,-12.1011,0.747559,0,0,0,0,0,0,0,-1,699,1296,-12.1011,-0.747606
-518,-272,-12.5389,1.29321,-0.016258,-0.0155269,0.000346059,-0.0153891,-0.0163958,1.19181,0.0106109,0.0408767,706,1296,-12.5389,-1.29317
-511,-272,-13.0881,1.57275,-0.016747,-0.0225153,0.00214751,-0.0160353,-0.023227,0.320013,0.0137303,0.0420526,713,1296,-13.0881,-1.5727
-504,-272,-13.4604,1.83984,-0.0148588,-0.0320252,0.00450595,-0.0137479,-0.033136,0.241714,0.0192233,0.0480265,720,1296,-13.4605,-1.83982
-497,-272,-13.7442,2.02698,-0.00970196,-0.0437788,0.00682094,-0.00838737,-0.0450934,0.190394,0.0276931,0.0472208,727,1296,-13.7442,-2.02702
-490,-272,-13.9825,2.19568,0.000546813,-0.0584943,0.00861694,0.00177873,-0.0597262,0.142003,0.0404234,0.0451086,734,1296,-13.9826,-2.19563
-483,-272,-13.7029,1.57068,0,0,0,0,0,0,0,-1,741,1296,-13.7029,-1.57068
-476,-272,0,0,0,0,0,0,0,0,0,-1,748,1296,0,0
-469,-272,0,0,0,0,0,0,0,0,0,-1,755,1296,0,0
-462,-272,0,0,0,0,0,0,0,0,0,-1,762,1296,0,0
-455,-272,0,0,0,0,0,0,0,0,0,-1,769,1296,0,0
-448,-272,0,0,0,0,0,0,0,0,0,-1,776,1296,0,0
-441,-272,0,0,0,0,0,0,0,0,0,-1,783,1296,0,0
-434,-272,0,0,0,0,0,0,0,0,0,-1,790,1296,0,0
-427,-272,0,0,0,0,0,0,0,0,0,-1,797,1296,0,0
-420,-272,0,0,0,0,0,0,0,0,0,-1,804,1296,0,0
-413,-272,0,0,0,0,0,0,0,0,0,-1,811,1296,0,0
-406,-272,0,0,0,0,0,0,0,0,0,-1,818,1296,0,0
-399,-272,0,0,0,0,0,0,0,0,0,-1,825,1296,0,0
-392,-272,0,0,0,0,0,0,0,0,0,-1,832,1296,0,0
-385,-272,0,0,0,0,0,0,0,0,0,-1,839,1296,0,0
-378,-272,0,0,0,0,0,0,0,0,0,-1,846,1296,0,0
-371,-272,0,0,0,0,0,0,0,0,0,-1,853,1296,0,0
-364,-272,0,0,0,0,0,0,0,0,0,-1,860,1296,0,0
-357,-272,0,0,0,0,0,0,0,0,0,-1,867,1296,0,0
-350,-272,0,0,0,0,0,0,0,0,0,-1,874,1296,0,0
-343,-272,0,0,0,0,0,0,0,0,0,-1,881,1296,0,0
-336,-272,0,0,0,0,0,0,0,0,0,-1,888,1296,0,0
-329,-272,0,0,0,0,0,0,0,0,0,-1,895,1296,0,0
-322,-272,0,0,0,0,0,0,0,0,0,-1,902,1296,0,0
-315,-272,0,0,0,0,0,0,0,0,0,-1,909,1296,0,0
-308,-272,0,0,0,0,0,0,0,0,0,-1,916,1296,0,0
-301,-272,0,0,0,0,0,0,0,0,0,-1,923,1296,0,0
-294,-272,0,0,0,0,0,0,0,0,0,-1,930,1296,0,0
-287,-272,0,0,0,0,0,0,0,0,0,-1,937,1296,0,0
-280,-272,0,0,0,0,0,0,0,0,0,-1,944,1296,0,0
-273,-272,0,0,0,0,0,0,0,0,0,-1,951,1296,0,0
-266,-272,0,0,0,0,0,0,0,0,0,-1,958,1296,0,0
-259,-272,0,0,0,0,0,0,0,0,0,-1,965,1296,0,0
-252,-272,0,0,0,0,0,0,0,0,0,-1,972,1296,0,0
-245,-272,0,0,0,0,0,0,0,0,0,-1,979,1296,0,0
-238,-272,0,0,0,0,0,0,0,0,0,-1,986,1296,0,0
-231,-272,0,0,0,0,0,0,0,0,0,-1,993,1296,0,0
-224,-272,0,0,0,0,0,0,0,0,0,-1,1000,1296,0,0
-217,-272,0,0,0,0,0,0,0,0,0,-1,1007,1296,0,0
-210,-272,0,0,0,0,0,0,0,0,0,-1,1014,1296,0,0
-203,-272,0,0,0,0,0,0,0,0,0,-1,1021,1296,0,0
-196,-272,0,0,0,0,0,0,0,0,0,-1,1028,1296,0,0
-189,-272,0,0,0,0,0,0,0,0,0,-1,1035,1296,0,0
-182,-272,0,0,0,0,0,0,0,0,0,-1,1042,1296,0,0
-175,-272,0,0,0,0,0,0,0,0,0,-1,1049,1296,0,0
-168,-272,0,0,0,0,0,0,0,0,0,-1,1056,1296,0,0
-161,-272,0,0,0,0,0,0,0,0,0,-1,1063,1296,0,0
-154,-272,0,0,0,0,0,0,0,0,0,-1,1070,1296,0,0
-147,-272,0,0,0,0,0,0,0,0,0,-1,1077,1296,0,0
-140,-272,0,0,0,0,0,0,0,0,0,-1,1084,1296,0,0
-133,-272,0,0,0,0,0,0,0,0,0,-1,1091,1296,0,0
-126,-272,0,0,0,0,0,0,0,0,0,-1,1098,1296,0,0
-119,-272,0,0,0,0,0,0,0,0,0,-1,1105,1296,0,0
-112,-272,0,0,0,0,0,0,0,0,0,-1,1112,1296,0,0
-105,-272,0,0,0,0,0,0,0,0,0,-1,1119,1296,0,0
-98,-272,0,0,0,0,0,0,0,0,0,-1,1126,1296,0,0
-91,-272,0,0,0,0,0,0,0,0,0,-1,1133,1296,0,0
-84,-272,0,0,0,0,0,0,0,0,0,-1,1140,1296,0,0
-77,-272,0,0,0,0,0,0,0,0,0,-1,1147,1296,0,0
-70,-272,0,0,0,0,0,0,0,0,0,-1,1154,1296,0,0
-63,-272,0,0,0,0,0,0,0,0,0,-1,1161,1296,0,0
-56,-272,0,0,0,0,0,0,0,0,0,-1,1168,1296,0,0
-49,-272,0,0,0,0,0,0,0,0,0,-1,1175,1296,0,0
-42,-272,0,0,0,0,0,0,0,0,0,-1,1182,1296,0,0
-35,-272,0,0,0,0,0,0,0,0,0,-1,1189,1296,0,0
-28,-272,0,0,0,0,0,0,0,0,0,-1,1196,1296,0,0
-21,-272,0,0,0,0,0,0,0,0,0,-1,1203,1296,0,0
-14,-272,0,0,0,0,0,0,0,0,0,-1,1210,1296,0,0
-7,-272,0,0,0,0,0,0,0,0,0,-1,1217,1296,0,0
0,-272,0,0,0,0,0,0,0,0,0,-1,1224,1296,0,0
7,-272,0,0,0,0,0,0,0,0,0,-1,1231,1296,0,0
14,-272,0,0,0,0,0,0,0,0,0,-1,1238,1296,0,0
21,-272,0,0,0,0,0,0,0,0,0,-1,1245,1296,0,0
28,-272,0,0,0,0,0,0,0,0,0,-1,1252,1296,0,0
35,-272,0,0,0,0,0,0,0,0,0,-1,1259,1296,0,0
42,-272,0,0,0,0,0,0,0,0,0,-1,1266,1296,0,0
49,-272,0,0,0,0,0,0,0,0,0,-1,1273,1296,0,0
56,-272,0,0,0,0,0,0,0,0,0,-1,1280,1296,0,0
63,-272,0,0,0,0,0,0,0,0,0,-1,1287,1296,0,0
70,-272,0,0,0,0,0,0,0,0,0,-1,1294,1296,0,0
77,-272,0,0,0,0,0,0,0,0,0,-1,1301,1296,0,0
84,-272,0,0,0,0,0,0,0,0,0,-1,1308,1296,0,0
91,-272,0,0,0,0,0,0,0,0,0,-1,1315,1296,0,0
98,-272,0,0,0,0,0,0,0,0,0,-1,1322,1296,0,0
105,-272,0,0,0,0,0,0,0,0,0,-1,1329,1296,0,0
112,-272,0,0,0,0,0,0,0,0,0,-1,1336,1296,0,0
119,-272,0,0,0,0,0,0,0,0,0,-1,1343,1296,0,0
126,-272,0,0,0,0,0,0,0,0,0,-1,1350,1296,0,0
133,-272,0,0,0,0,0,0,0,0,0,-1,1357,1296,0,0
140,-272,0,0,0,0,0,0,0,0,0,-1,1364,1296,0,0
147,-272,0,0,0,0,0,0,0,0,0,-1,1371,1296,0,0
154,-272,0,0,0,0,0,0,0,0,0,-1,1378,1296,0,0
161,-272,0,0,0,0,0,0,0,0,0,-1,1385,1296,0,0
168,-272,0,0,0,0,0,0,0,0,0,-1,1392,1296,0,0
175,-272,0,0,0,0,0,0,0,0,0,-1,1399,1296,0,0
182,-272,0,0,0,0,0,0,0,0,0,-1,1406,1296,0,0
189,-272,0,0,0,0,0,0,0,0,0,-1,1413,1296,0,0
196,-272,0,0,0,0,0,0,0,0,0,-1,1420,1296,0,0
203,-272,0,0,0,0,0,0,0,0,0,-1,1427,1296,0,0
210,-272,0,0,0,0,0,0,0,0,0,-1,1434,1296,0,0
217,-272,0,0,0,0,0,0,0,0,0,-1,1441,1296,0,0
224,-272,0,0,0,0,0,0,0,0,0,-1,1448,1296,0,0
231,-272,0,0,0,0,0,0,0,0,0,-1,1455,1296,0,0
238,-272,0,0,0,0,0,0,0,0,0,-1,1462,1296,0,0
245,-272,0,0,0,0,0,0,0,0,0,-1,1469,1296,0,0
252,-272,0,0,0,0,0,0,0,0,0,-1,1476,1296,0,0
259,-272,0,0,0,0,0,0,0,0,0,-1,1483,1296,0,0
266,-272,0,0,0,0,0,0,0,0,0,-1,1490,1296,0,0
273,-272,0,0,0,0,0,0,0,0,0,-1,1497,1296,0,0
280,-272,0,0,0,0,0,0,0,0,0,-1,1504,1296,0,0
287,-272,0,0,0,0,0,0,0,0,0,-1,1511,1296,0,0
294,-272,0,0,0,0,0,0,0,0,0,-1,1518,1296,0,0
301,-272,0,0,0,0,0,0,0,0,0,-1,1525,1296,0,0
308,-272,0,0,0,0,0,0,0,0,0,-1,1532,1296,0,0
315,-272,0,0,0,0,0,0,0,0,0,-1,1539,1296,0,0
322,-272,0,0,0,0,0,0,0,0,0,-1,1546,1296,0,0
329,-272,0,0,0,0,0,0,0,0,0,-1,1553,1296,0,0
336,-272,0,0,0,0,0,0,0,0,0,-1,1560,1296,0,0
343,-272,0,0,0,0,0,0,0,0,0,-1,1567,1296,0,0
350,-272,0,0,0,0,0,0,0,0,0,-1,1574,1296,0,0
357,-272,0,0,0,0,0,0,0,0,0,-1,1581,1296,0,0
364,-272,0,0,0,0,0,0,0,0,0,-1,1588,1296,0,0
371,-272,0,0,0,0,0,0,0,0,0,-1,1595,1296,0,0
378,-272,0,0,0,0,0,0,0,0,0,-1,1602,1296,0,0
385,-272,0,0,0,0,0,0,0,0,0,-1,1609,1296,0,0
392,-272,0,0,0,0,0,0,0,0,0,-1,1616,1296,0,0
399,-272,0,0,0,0,0,0,0,0,0,-1,1623,1296,0,0
406,-272,0,0,0,0,0,0,0,0,0,-1,1630,1296,0,0
413,-272,0,0,0,0,0,0,0,0,0,-1,1637,1296,0,0
420,-272,0,0,0,0,0,0,0,0,0,-1,1644,1296,0,0
427,-272,0,0,0,0,0,0,0,0,0,-1,1651,1296,0,0
434,-272,0,0,0,0,0,0,0,0,0,-1,1658,1296,0,0
441,-272,0,0,0,0,0,0,0,0,0,-1,1665,1296,0,0
448,-272,0,0,0,0,0,0,0,0,0,-1,1672,1296,0,0
455,-272,0,0,0,0,0,0,0,0,0,-1,1679,1296,0,0
462,-272,0,0,0,0,0,0,0,0,0,-1,1686,1296,0,0
469,-272,0,0,0,0,0,0,0,0,0,-1,1693,1296,0,0
476,-272,0,0,0,0,0,0,0,0,0,-1,1700,1296,0,0
483,-272,0,0,0,0,0,0,0,0,0,-1,1707,1296,0,0
490,-272,0,0,0,0,0,0,0,0,0,-1,1714,1296,0,0
497,-272,0,0,0,0,0,0,0,0,0,-1,1721,1296,0,0
504,-272,0,0,0,0,0,0,0,0,0,-1,1728,1296,0,0
511,-272,0,0,0,0,0,0,0,0,0,-1,1735,1296,0,0
518,-272,0,0,0,0,0,0,0,0,0,-1,1742,1296,0,0
525,-272,0,0,0,0,0,0,0,0,0,-1,1749,1296,0,0
532,-272,0,0,0,0,0,0,0,0,0,-1,1756,1296,0,0
539,-272,0,0,0,0,0,0,0,0,0,-1,1763,1296,0,0
546,-272,0,0,0,0,0,0,0,0,0,-1,1770,1296,0,0
553,-272,0,0,0,0,0,0,0,0,0,-1,1777,1296,0,0
560,-272,0,0,0,0,0,0,0,0,0,-1,1784,1296,0,0
567,-272,0,0,0,0,0,0,0,0,0,-1,1791,1296,0,0
574,-272,0,0,0,0,0,0,0,0,0,-1,1798,1296,0,0
581,-272,0,0,0,0,0,0,0,0,0,-1,1805,1296,0,0
588,-272,0,0,0,0,0,0,0,0,0,-1,1812,1296,0,0
595,-272,0,0,0,0,0,0,0,0,0,-1,1819,1296,0,0
602,-272,20.9857,2.88708,0.000672234,0.00325085,-0.0160365,0.0180498,-0.0141267,-0.825511,0.0186231,0.0300038,1826,1296,20.9857,-2.88709
609,-272,20.9897,2.87769,-0.00373531,0.00200545,-0.0108222,0.0103315,-0.0120613,-0.915028,0.0129414,0.037449,1833,1296,20.9897,-2.87763
616,-272,20.9635,2.75464,-0.00647492,0.00225981,-0.00638563,0.00562873,-0.00984384,-1.08533,0.00904291,0.0447923,1840,1296,20.9634,-2.75469
623,-272,20.865,2.39185,-0.00811328,0.00292135,-0.00284892,0.00361347,-0.0088054,-1.33247,0.00737595,0.0454628,1847,1296,20.865,-2.39183
630,-272,20.6233,2.271,-0.00850188,0.00307623,-0.000646096,0.00311217,-0.00853782,-1.51522,0.00696503,0.046443,1854,1296,20.6232,-2.271
637,-272,20.3567,2.21411,-0.00831399,0.0029626,0.00072002,0.00300839,-0.00835978,1.50729,0.0068015,0.0482897,1861,1296,20.3567,-2.2141
644,-272,20.1958,2.1322,0,0,0,0,0,0,0,-1,1868,1296,20.1958,-2.13219
651,-272,19.2938,1.62585,0,0,0,0,0,0,0,-1,1875,1296,19.2938,-1.62589
658,-272,18.5065,1.43372,0,0,0,0,0,0,0,-1,1882,1296,18.5064,-1.43368
665,-272,17.4078,3.08142,0,0,0,0,0,0,0,-1,1889,1296,17.4079,-3.08142
672,-272,16.7366,5.74585,0,0,0,0,0,0,0,-1,1896,1296,16.7366,-5.74588
679,-272,16.9104,5.75269,-0.00492132,0.00143868,0.00316267,0.00274365,-0.00622628,1.17946,0.00530731,0.02834,1903,1296,16.9104,-5.75265
686,-272,16.9307,5.64563,-0.004289,0.000443321,0.0028703,0.00179702,-0.0056427,1.13011,0.00448253,0.0136459,1910,1296,16.9307,-5.64563
693,-272,16.9333,5.4635,-0.00382484,-0.00123831,0.00205772,-0.000101189,-0.00496196,1.06595,0.00327476,0.0108218,1917,1296,16.9333,-5.46347
700,-272,16.9282,5.31128,-0.00264289,-0.00057069,0.00121631,-9.00414e-06,-0.00320457,1.13818,0.00213339,0.0102844,1924,1296,16.9282,-5.31123
707,-272,16.9469,5.13391,-0.00145832,5.5895e-05,0.000342872,0.000129915,-0.00153234,1.35818,0.0010675,0.0101092,1931,1296,16.9469,-5.13388
714,-272,16.944,4.9436,-0.000103336,0.000427667,-0.000933105,0.00113231,-0.000807977,-0.924003,0.00112543,0.0101011,1938,1296,16.944,-4.94355
721,-272,16.9159,4.78564,0.00119019,0.000485585,-0.00251033,0.00337281,-0.00169704,-0.715683,0.0029799,0.0113083,1945,1296,16.9159,-4.78563
728,-272,16.8981,4.62415,0.00171936,0.000113471,-0.00403858,0.00503404,-0.00320121,-0.687269,0.00479372,0.0146961,1952,1296,16.8981,-4.62411
735,-272,16.9236,4.43811,0.00183264,-0.000475139,-0.00554637,0.00634388,-0.00498637,-0.682839,0.00655716,0.0138599,1959,1296,16.9236,-4.43806
742,-272,16.9135,4.20007,0.00181655,-0.00196115,-0.00732944,0.00749662,-0.00764122,-0.659288,0.00873997,0.0225308,1966,1296,16.9134,-4.20009
749,-272,16.8508,3.78967,0.00112659,-0.00456345,-0.00932708,0.00803291,-0.0114698,-0.637367,0.011318,0.0413123,1973,1296,16.8508,-3.78966
756,-272,17.3337,4.00549,-0.0006393,-0.00868906,-0.0114173,0.00744179,-0.0167702,-0.615937,0.0143204,0.0455648,1980,1296,17.3337,-4.00547
763,-272,17.5267,3.8573,-0.00424393,-0.0148107,-0.0134006,0.00487723,-0.0239319,-0.597622,0.0178044,0.0449569,1987,1296,17.5268,-3.85724
770,-272,17.5508,3.7699,0,0,0,0,0,0,0,-1,1994,1296,17.5507,-3.76989
777,-272,17.2728,4.15051,0,0,0,0,0,0,0,-1,2001,1296,17.2728,-4.15045
784,-272,0,0,0,0,0,0,0,0,0,-1,2008,1296,0,0
791,-272,0,0,0,0,0,0,0,0,0,-1,2015,1296,0,0
798,-272,0,0,0,0,0,0,0,0,0,-1,2022,1296,0,0
805,-272,0,0,0,0,0,0,0,0,0,-1,2029,1296,0,0
812,-272,0,0,0,0,0,0,0,0,0,-1,2036,1296,0,0
-700,-279,0,0,0,0,0,0,0,0,0,-1,524,1303,0,0
-693,-279,0,0,0,0,0,0,0,0,0,-1,531,1303,0,0
-686,-279,0,0,0,0,0,0,0,0,0,-1,538,1303,0,0
-679,-279,0,0,0,0,0,0,0,0,0,-1,545,1303,0,0
-672,-279,0,0,0,0,0,0,0,0,0,-1,552,1303,0,0
-665,-279,0,0,0,0,0,0,0,0,0,-1,559,1303,0,0
-658,-279,-6.86127,2.06384,-0.0122952,0.0370291,-0.0350428,0.055218,-0.0304842,-1.09202,0.0501624,0.0430786,566,1303,-6.86126,-2.06385
-651,-279,-7.16718,1.02136,-0.0213715,0.0378997,-0.024941,0.0469981,-0.0304699,-1.221,0.0450642,0.0436197,573,1303,-7.16719,-1.02132
-644,-279,-7.85162,0.356934,-0.0253765,0.0362616,-0.016918,0.0405998,-0.0297147,-1.31978,0.0407579,0.0433614,580,1303,-7.8516,-0.356903
-637,-279,-7.216,0.593994,0,0,0,0,0,0,0,-1,587,1303,-7.21602,-0.593945
-630,-279,-7.56372,0.754272,-0.0253961,0.0289039,-0.00586787,0.0295308,-0.026023,-1.46437,0.0320953,0.0480104,594,1303,-7.56374,-0.754265
-623,-279,-7.88269,1.03223,-0.0231857,0.0244044,-0.00236302,0.0245215,-0.0233027,-1.5213,0.0276143,0.0422568,601,1303,-7.88272,-1.03224
-616,-279,-8.05853,1.66052,-0.0205749,0.0201278,0.00012836,0.0201282,-0.0205753,1.56764,0.0235007,0.0391269,608,1303,-8.05852,-1.66053
-609,-279,-8.5863,1.98657,-0.017057,0.0158266,0.00159426,0.0159037,-0.0171341,1.52247,0.0190788,0.0286453,615,1303,-8.58633,-1.9866
-602,-279,-8.45941,2.18372,-0.0130846,0.0120625,0.00265173,0.0123391,-0.0133612,1.46687,0.014842,0.0117304,622,1303,-8.45944,-2.18374
-595,-279,-8.45984,2.40369,-0.00969261,0.00812613,0.00340668,0.00875522,-0.0103217,1.38819,0.0110264,0.00999121,629,1303,-8.45984,-2.40363
-588,-279,-8.44165,2.62305,-0.00599724,0.00503379,0.00291014,0.00575444,-0.00671789,1.32804,0.00720806,0.0106707,636,1303,-8.44168,-2.62307
-581,-279,-8.45715,2.80994,-0.00247522,0.00290588,0.00145254,0.00327293,-0.00284227,1.32328,0.00353353,0.012269,643,1303,-8.45713,-2.80997
-574,-279,-8.47479,3.00391,-0.000121346,0.0012879,6.69958e-05,0.00129107,-0.000124524,1.5234,0.000905084,0.0119198,650,1303,-8.47481,-3.00388
-567,-279,-8.46558,3.22681,-7.29951e-06,0.000188036,-0.0010757,0.00117049,-0.000989757,-0.830671,0.00124868,0.0162483,657,1303,-8.46559,-3.22686
-560,-279,-8.44501,3.45764,-0.00164861,-0.000802944,-0.00173961,0.000564486,-0.00301604,-0.904617,0.00222287,0.0166151,664,1303,-8.44502,-3.45764
-553,-279,-8.43774,3.67517,-0.00364845,-0.00147221,-0.00212183,-0.000175762,-0.00494489,-1.02232,0.0032396,0.0117632,671,1303,-8.43774,-3.6752
-546,-279,-8.42792,3.86084,-0.00607103,-0.00300838,-0.00220168,-0.00185785,-0.00722156,-1.08926,0.00433005,0.0135538,678,1303,-8.42791,-3.86089
-539,-279,-8.25885,3.89063,-0.00834544,-0.00593041,-0.002215,-0.00461516,-0.00966068,-1.03496,0.00557944,0.0425643,685,1303,-8.25882,-3.89068
-532,-279,-8.0545,3.89563,0,0,0,0,0,0,0,-1,692,1303,-8.05453,-3.89557
-525,-279,-11.4238,0.625,0,0,0,0,0,0,0,-1,699,1303,-11.4238,-0.624982
-518,-279,-12.4736,1.16479,0,0,0,0,0,0,0,-1,706,1303,-12.4736,-1.16477
-511,-279,-13.4602,1.75049,0,0,0,0,0,0,0,-1,713,1303,-13.4602,-1.75044
-504,-279,-13.828,2.30627,-0.0158477,-0.0352609,0.00314846,-0.0153498,-0.0357587,0.156828,0.0207141,0.0482919,720,1303,-13.828,-2.30629
-497,-279,-13.6542,2.63672,-0.011205,-0.0483548,0.00497254,-0.0105509,-0.0490088,0.130785,0.0297851,0.0454243,727,1303,-13.6542,-2.63672
-490,-279,-13.5294,2.58154,-0.000685171,-0.0662646,0.00644169,-5.84126e-05,-0.0668914,0.096992,0.0445748,0.0469458,734,1303,-13.5294,-2.5815
-483,-279,-13.6173,2.46045,0,0,0,0,0,0,0,-1,741,1303,-13.6173,-2.4605
-476,-279,0,0,0,0,0,0,0,0,0,-1,748,1303,0,0
-469,-279,0,0,0,0,0,0,0,0,0,-1,755,1303,0,0
-462,-279,0,0,0,0,0,0,0,0,0,-1,762,1303,0,0
-455,-279,0,0,0,0,0,0,0,0,0,-1,769,1303,0,0
-448,-279,0,0,0,0,0,0,0,0,0,-1,776,1303,0,0
-441,-279,0,0,0,0,0,0,0,0,0,-1,783,1303,0,0
-434,-279,0,0,0,0,0,0,0,0,0,-1,790,1303,0,0
-427,-279,0,0,0,0,0,0,0,0,0,-1,797,1303,0,0
-420,-279,0,0,0,0,0,0,0,0,0,-1,804,1303,0,0
-413,-279,0,0,0,0,0,0,0,0,0,-1,811,1303,0,0
-406,-279,0,0,0,0,0,0,0,0,0,-1,818,1303,0,0
-399,-279,0,0,0,0,0,0,0,0,0,-1,825,1303,0,0
-392,-279,0,0,0,0,0,0,0,0,0,-1,832,1303,0,0
-385,-279,0,0,0,0,0,0,0,0,0,-1,839,1303,0,0
-378,-279,0,0,0,0,0,0,0,0,0,-1,846,1303,0,0
-371,-279,0,0,0,0,0,0,0,0,0,-1,853,1303,0,0
-364,-279,0,0,0,0,0,0,0,0,0,-1,860,1303,0,0
-357,-279,0,0,0,0,0,0,0,0,0,-1,867,1303,0,0
-350,-279,0,0,0,0,0,0,0,0,0,-1,874,1303,0,0
-343,-279,0,0,0,0,0,0,0,0,0,-1,881,1303,0,0
-336,-279,0,0,0,0,0,0,0,0,0,-1,888,1303,0,0
-329,-279,0,0,0,0,0,0,0,0,0,-1,895,1303,0,0
-322,-279,0,0,0,0,0,0,0,0,0,-1,902,1303,0,0
-315,-279,0,0,0,0,0,0,0,0,0,-1,909,1303,0,0
-308,-279,0,0,0,0,0,0,0,0,0,-1,916,1303,0,0
-301,-279,0,0,0,0,0,0,0,0,0,-1,923,1303,0,0
-294,-279,0,0,0,0,0,0,0,0,0,-1,930,1303,0,0
-287,-279,0,0,0,0,0,0,0,0,0,-1,937,1303,0,0
-280,-279,0,0,0,0,0,0,0,0,0,-1,944,1303,0,0
-273,-279,0,0,0,0,0,0,0,0,0,-1,951,1303,0,0
-266,-279,0,0,0,0,0,0,0,0,0,-1,958,1303,0,0
-259,-279,0,0,0,0,0,0,0,0,0,-1,965,1303,0,0
-252,-279,0,0,0,0,0,0,0,0,0,-1,972,1303,0,0
-245,-279,0,0,0,0,0,0,0,0,0,-1,979,1303,0,0
-238,-279,0,0,0,0,0,0,0,0,0,-1,986,1303,0,0
-231,-279,0,0,0,0,0,0,0,0,0,-1,993,1303,0,0
-224,-279,0,0,0,0,0,0,0,0,0,-1,1000,1303,0,0
-217,-279,0,0,0,0,0,0,0,0,0,-1,1007,1303,0,0
-210,-279,0,0,0,0,0,0,0,0,0,-1,1014,1303,0,0
-203,-279,0,0,0,0,0,0,0,0,0,-1,1021,1303,0,0
-196,-279,0,0,0,0,0,0,0,0,0,-1,1028,1303,0,0
-189,-279,0,0,0,0,0,0,0,0,0,-1,1035,1303,0,0
-182,-279,0,0,0,0,0,0,0,0,0,-1,1042,1303,0,0
-175,-279,0,0,0,0,0,0,0,0,0,-1,1049,1303,0,0
-168,-279,0,0,0,0,0,0,0,0,0,-1,1056,1303,0,0
-161,-279,0,0,0,0,0,0,0,0,0,-1,1063,1303,0,0
-154,-279,0,0,0,0,0,0,0,0,0,-1,1070,1303,0,0
-147,-279,0,0,0,0,0,0,0,0,0,-1,1077,1303,0,0
-140,-279,0,0,0,0,0,0,0,0,0,-1,1084,1303,0,0
-133,-279,0,0,0,0,0,0,0,0,0,-1,1091,1303,0,0
-126,-279,0,0,0,0,0,0,0,0,0,-1,1098,1303,0,0
-119,-279,0,0,0,0,0,0,0,0,0,-1,1105,1303,0,0
-112,-279,0,0,0,0,0,0,0,0,0,-1,1112,1303,0,0
-105,-279,0,0,0,0,0,0,0,0,0,-1,1119,1303,0,0
-98,-279,0,0,0,0,0,0,0,0,0,-1,1126,1303,0,0
-91,-279,0,0,0,0,0,0,0,0,0,-1,1133,1303,0,0
-84,-279,0,0,0,0,0,0,0,0,0,-1,1140,1303,0,0
-77,-279,0,0,0,0,0,0,0,0,0,-1,1147,1303,0,0
-70,-279,0,0,0,0,0,0,0,0,0,-1,1154,1303,0,0
-63,-279,0,0,0,0,0,0,0,0,0,-1,1161,1303,0,0
-56,-279,0,0,0,0,0,0,0,0,0,-1,1168,1303,0,0
-49,-279,0,0,0,0,0,0,0,0,0,-1,1175,1303,0,0
-42,-279,0,0,0,0,0,0,0,0,0,-1,1182,1303,0,0
-35,-279,0,0,0,0,0,0,0,0,0,-1,1189,1303,0,0
-28,-279,0,0,0,0,0,0,0,0,0,-1,1196,1303,0,0
-21,-279,0,0,0,0,0,0,0,0,0,-1,1203,1303,0,0
-14,-279,0,0,0,0,0,0,0,0,0,-1,1210,1303,0,0
-7,-279,0,0,0,0,0,0,0,0,0,-1,1217,1303,0,0
0,-279,0,0,0,0,0,0,0,0,0,-1,1224,1303,0,0
7,-279,0,0,0,0,0,0,0,0,0,-1,1231,1303,0,0
14,-279,0,0,0,0,0,0,0,0,0,-1,1238,1303,0,0
21,-279,0,0,0,0,0,0,0,0,0,-1,1245,1303,0,0
28,-279,0,0,0,0,0,0,0,0,0,-1,1252,1303,0,0
35,-279,0,0,0,0,0,0,0,0,0,-1,1259,1303,0,0
42,-279,0,0,0,0,0,0,0,0,0,-1,1266,1303,0,0
49,-279,0,0,0,0,0,0,0,0,0,-1,1273,1303,0,0
56,-279,0,0,0,0,0,0,0,0,0,-1,1280,1303,0,0
63,-279,0,0,0,0,0,0,0,0,0,-1,1287,1303,0,0
70,-279,0,0,0,0,0,0,0,0,0,-1,1294,1303,0,0
77,-279,0,0,0,0,0,0,0,0,0,-1,1301,1303,0,0
84,-279,0,0,0,0,0,0,0,0,0,-1,1308,1303,0,0
91,-279,0,0,0,0,0,0,0,0,0,-1,1315,1303,0,0
98,-279,0,0,0,0,0,0,0,0,0,-1,1322,1303,0,0
105,-279,0,0,0,0,0,0,0,0,0,-1,1329,1303,0,0
112,-279,0,0,0,0,0,0,0,0,0,-1,1336,1303,0,0
119,-279,0,0,0,0,0,0,0,0,0,-1,1343,1303,0,0
126,-279,0,0,0,0,0,0,0,0,0,-1,1350,1303,0,0
133,-279,0,0,0,0,0,0,0,0,0,-1,1357,1303,0,0
140,-279,0,0,0,0,0,0,0,0,0,-1,1364,1303,0,0
147,-279,0,0,0,0,0,0,0,0,0,-1,1371,1303,0,0
154,-279,0,0,0,0,0,0,0,0,0,-1,1378,1303,0,0
161,-279,0,0,0,0,0,0,0,0,0,-1,1385,1303,0,0
168,-279,0,0,0,0,0,0,0,0,0,-1,1392,1303,0,0
175,-279,0,0,0,0,0,0,0,0,0,-1,1399,1303,0,0
182,-279,0,0,0,0,0,0,0,0,0,-1,1406,1303,0,0
189,-279,0,0,0,0,0,0,0,0,0,-1,1413,1303,0,0
196,-279,0,0,0,0,0,0,0,0,0,-1,1420,1303,0,0
203,-279,0,0,0,0,0,0,0,0,0,-1,1427,1303,0,0
210,-279,0,0,0,0,0,0,0,0,0,-1,1434,1303,0,0
217,-279,0,0,0,0,0,0,0,0,0,-1,1441,1303,0,0
224,-279,0,0,0,0,0,0,0,0,0,-1,1448,1303,0,0
231,-279,0,0,0,0,0,0,0,0,0,-1,1455,1303,0,0
238,-279,0,0,0,0,0,0,0,0,0,-1,1462,1303,0,0
245,-279,0,0,0,0,0,0,0,0,0,-1,1469,1303,0,0
252,-279,0,0,0,0,0,0,0,0,0,-1,1476,1303,0,0
259,-279,0,0,0,0,0,0,0,0,0,-1,1483,1303,0,0
266,-279,0,0,0,0,0,0,0,0,0,-1,1490,1303,0,0
273,-279,0,0,0,0,0,0,0,0,0,-1,1497,1303,0,0
280,-279,0,0,0,0,0,0,0,0,0,-1,1504,1303,0,0
287,-279,0,0,0,0,0,0,0,0,0,-1,1511,1303,0,0
294,-279,0,0,0,0,0,0,0,0,0,-1,1518,1303,0,0
301,-279,0,0,0,0,0,0,0,0,0,-1,1525,1303,0,0
308,-279,0,0,0,0,0,0,0,0,0,-1,1532,1303,0,0
315,-279,0,0,0,0,0,0,0,0,0,-1,1539,1303,0,0
322,-279,0,0,0,0,0,0,0,0,0,-1,1546,1303,0,0
329,-279,0,0,0,0,0,0,0,0,0,-1,1553,1303,0,0
336,-279,0,0,0,0,0,0,0,0,0,-1,1560,1303,0,0
343,-279,0,0,0,0,0,0,0,0,0,-1,1567,1303,0,0
350,-279,0,0,0,0,0,0,0,0,0,-1,1574,1303,0,0
357,-279,0,0,0,0,0,0,0,0,0,-1,1581,1303,0,0
364,-279,0,0,0,0,0,0,0,0,0,-1,1588,1303,0,0
371,-279,0,0,0,0,0,0,0,0,0,-1,1595,1303,0,0
378,-279,0,0,0,0,0,0,0,0,0,-1,1602,1303,0,0
385,-279,0,0,0,0,0,0,0,0,0,-1,1609,1303,0,0
392,-279,0,0,0,0,0,0,0,0,0,-1,1616,1303,0,0
399,-279,0,0,0,0,0,0,0,0,0,-1,1623,1303,0,0
406,-279,0,0,0,0,0,0,0,0,0,-1,1630,1303,0,0
413,-279,0,0,0,0,0,0,0,0,0,-1,1637,1303,0,0
420,-279,0,0,0,0,0,0,0,0,0,-1,1644,1303,0,0
427,-279,0,0,0,0,0,0,0,0,0,-1,1651,1303,0,0
434,-279,0,0,0,0,0,0,0,0,0,-1,1658,1303,0,0
441,-279,0,0,0,0,0,0,0,0,0,-1,1665,1303,0,0
448,-279,0,0,0,0,0,0,0,0,0,-1,1672,1303,0,0
455,-279,0,0,0,0,0,0,0,0,0,-1,1679,1303,0,0
462,-279,0,0,0,0,0,0,0,0,0,-1,1686,1303,0,0
469,-279,0,0,0,0,0,0,0,0,0,-1,1693,1303,0,0
476,-279,0,0,0,0,0,0,0,0,0,-1,1700,1303,0,0
483,-279,0,0,0,0,0,0,0,0,0,-1,1707,1303,0,0
490,-279,0,0,0,0,0,0,0,0,0,-1,1714,1303,0,0
497,-279,0,0,0,0,0,0,0,0,0,-1,1721,1303,0,0
504,-279,0,0,0,0,0,0,0,0,0,-1,1728,1303,0,0
511,-279,0,0,0,0,0,0,0,0,0,-1,1735,1303,0,0
518,-279,0,0,0,0,0,0,0,0,0,-1,1742,1303,0,0
525,-279,0,0,0,0,0,0,0,0,0,-1,1749,1303,0,0
532,-279,0,0,0,0,0,0,0,0,0,-1,1756,1303,0,0
539,-279,0,0,0,0,0,0,0,0,0,-1,1763,1303,0,0
546,-279,0,0,0,0,0,0,0,0,0,-1,1770,1303,0,0
553,-279,0,0,0,0,0,0,0,0,0,-1,1777,1303,0,0
560,-279,0,0,0,0,0,0,0,0,0,-1,1784,1303,0,0
567,-279,0,0,0,0,0,0,0,0,0,-1,1791,1303,0,0
574,-279,0,0,0,0,0,0,0,0,0,-1,1798,1303,0,0
581,-279,0,0,0,0,0,0,0,0,0,-1,1805,1303,0,0
588,-279,0,0,0,0,0,0,0,0,0,-1,1812,1303,0,0
595,-279,0,0,0,0,0,0,0,0,0,-1,1819,1303,0,0
602,-279,21.0775,2.95117,-0.00835748,0.00750289,-0.0191012,0.0202547,-0.0211093,-0.982154,0.0238832,0.0392504,1826,1303,21.0776,-2.95112
609,-279,21.0475,2.79443,-0.0115689,0.00353978,-0.0124397,0.0105393,-0.0185684,-1.05827,0.0170171,0.0474798,1833,1303,21.0475,-2.79444
616,-279,20.9832,2.67664,0,0,0,0,0,0,0,-1,1840,1303,20.9832,-2.67658
623,-279,20.9158,2.13306,-0.0133885,0.00193842,-0.00271871,0.00240639,-0.0138565,-1.40034,0.0101354,0.0493805,1847,1303,20.9158,-2.13301
630,-279,20.7386,2.19678,-0.012825,0.00182915,-0.000255528,0.0018336,-0.0128294,-1.55337,0.0092251,0.0478568,1854,1303,20.7386,-2.19676
637,-279,20.2544,1.83228,-0.0118305,0.00156901,0.00138873,0.00171143,-0.0119729,1.4686,0.00860932,0.0473184,1861,1303,20.2544,-1.83228
644,-279,19.8447,1.51392,0,0,0,0,0,0,0,-1,1868,1303,19.8448,-1.51393
651,-279,18.4034,1.36133,0,0,0,0,0,0,0,-1,1875,1303,18.4034,-1.36138
658,-279,17.1133,1.62988,0,0,0,0,0,0,0,-1,1882,1303,17.1133,-1.62984
665,-279,17.6133,6.3125,0,0,0,0,0,0,0,-1,1889,1303,17.6133,-6.31255
672,-279,17.0736,5.8407,-0.00766775,0.00100827,0.00450117,0.00292158,-0.00958105,1.16887,0.00755201,0.0449418,1896,1303,17.0736,-5.84071
679,-279,16.7654,5.88464,-0.00635747,0.00110885,0.00414011,0.00295036,-0.00819898,1.15228,0.00667059,0.0293282,1903,1303,16.7654,-5.88467
686,-279,16.7495,5.67114,-0.00526519,0.00020687,0.00363145,0.00201763,-0.00707595,1.10824,0.00551429,0.0197771,1910,1303,16.7495,-5.67109
693,-279,16.7384,5.48132,-0.00434599,-0.00129772,0.00253122,0.000132807,-0.00577652,1.05639,0.00389604,0.0146296,1917,1303,16.7384,-5.48134
700,-279,16.7401,5.31897,-0.00286525,-0.000412613,0.00133179,0.000171459,-0.00344932,1.15749,0.00235878,0.00973268,1924,1303,16.7401,-5.31898
707,-279,16.7408,5.14771,-0.00148486,0.000297555,0.00015134,0.000310314,-0.00149762,1.48669,0.00111632,0.00805296,1931,1303,16.7409,-5.14766
714,-279,16.7301,4.95361,-1.83155e-05,0.000732145,-0.00133192,0.00174068,-0.00102686,-0.9227,0.00161546,0.00980389,1938,1303,16.7301,-4.95362
721,-279,16.729,4.78137,0.00129913,0.000823853,-0.0030064,0.00407726,-0.00195428,-0.745958,0.00355349,0.0127592,1945,1303,16.729,-4.78131
728,-279,16.7432,4.6106,0.00190883,0.000458909,-0.00464414,0.00588425,-0.00351651,-0.707972,0.00548462,0.014097,1952,1303,16.7432,-4.61062
735,-279,16.7584,4.44226,0.00217113,-0.000238861,-0.00630003,0.00738037,-0.0054481,-0.690905,0.00743447,0.0129576,1959,1303,16.7584,-4.44221
742,-279,16.6698,4.17419,0.002328,-0.0019132,-0.00824945,0.00872505,-0.00831025,-0.659592,0.0098363,0.0229412,1966,1303,16.6698,-4.17425
749,-279,16.6719,3.74438,0.00188245,-0.00487486,-0.0104001,0.00943896,-0.0124314,-0.628342,0.0126662,0.041083,1973,1303,16.6719,-3.74438
756,-279,17.3141,4.08325,0,0,0,0,0,0,0,-1,1980,1303,17.3141,-4.08329
763,-279,17.5345,3.94495,0,0,0,0,0,0,0,-1,1987,1303,17.5345,-3.94495
770,-279,17.2684,1.36182,0,0,0,0,0,0,0,-1,1994,1303,17.2685,-1.36176
777,-279,16.5851,2.60791,0,0,0,0,0,0,0,-1,2001,1303,16.5851,-2.60796
784,-279,0,0,0,0,0,0,0,0,0,-1,2008,1303,0,0
791,-279,0,0,0,0,0,0,0,0,0,-1,2015,1303,0,0
798,-279,0,0,0,0,0,0,0,0,0,-1,2022,1303,0,0
805,-279,0,0,0,0,0,0,0,0,0,-1,2029,1303,0,0
812,-279,0,0,0,0,0,0,0,0,0,-1,2036,1303,0,0
-700,-286,0,0,0,0,0,0,0,0,0,-1,524,1310,0,0
-693,-286,0,0,0,0,0,0,0,0,0,-1,531,1310,0,0
-686,-286,0,0,0,0,0,0,0,0,0,-1,538,1310,0,0
-679,-286,0,0,0,0,0,0,0,0,0,-1,545,1310,0,0
-672,-286,0,0,0,0,0,0,0,0,0,-1,552,1310,0,0
-665,-286,0,0,0,0,0,0,0,0,0,-1,559,1310,0,0
-658,-286,-7.15662,2.52368,0,0,0,0,0,0,0,-1,566,1310,-7.15659,-2.5237
-651,-286,-7.43304,0.71167,0,0,0,0,0,0,0,-1,573,1310,-7.43306,-0.711635
-644,-286,-6.80707,0.102661,0,0,0,0,0,0,0,-1,580,1310,-6.80708,-0.102693
-637,-286,-7.13904,0.192505,0,0,0,0,0,0,0,-1,587,1310,-7.13907,-0.192548
-630,-286,-7.47693,0.296265,-0.0221665,0.032589,-0.00672583,0.0334031,-0.0229806,-1.45035,0.032738,0.0458849,594,1310,-7.47695,-0.296252
-623,-286,-7.80621,0.550171,-0.0211607,0.027566,-0.00270772,0.027716,-0.0213107,-1.51545,0.028386,0.0447663,601,1310,-7.80623,-0.550113
-616,-286,-7.83508,1.37378,-0.0193546,0.0226837,0.000186602,0.0226845,-0.0193554,1.56636,0.0242971,0.044278,608,1310,-7.83511,-1.37379
-609,-286,-8.37268,1.70679,-0.0165197,0.0178297,0.00186685,0.0179309,-0.0166209,1.51666,0.0199533,0.035312,615,1310,-8.37268,-1.70678
-602,-286,-8.24634,2.14197,-0.0130421,0.0136355,0.00303451,0.0139763,-0.0133829,1.45895,0.0157971,0.0142625,622,1310,-8.24635,-2.142
-595,-286,-8.25214,2.38782,-0.0102058,0.00943609,0.00391801,0.0101888,-0.0109585,1.381,0.0122121,0.00996215,629,1310,-8.25213,-2.38787
-588,-286,-8.22937,2.60547,-0.00683733,0.00590877,0.00355602,0.00683373,-0.0077623,1.31632,0.0084327,0.0112754,636,1310,-8.22938,-2.60545
-581,-286,-8.2196,2.80151,-0.00331206,0.00348238,0.00203096,0.00404318,-0.00387286,1.30138,0.00457068,0.0133116,643,1310,-8.21961,-2.80157
-574,-286,-8.25391,2.99866,-0.000811609,0.00148215,0.000661266,0.00165913,-0.00098859,1.30929,0.00154491,0.0136095,650,1310,-8.2539,-2.99867
-567,-286,-8.24927,3.23962,-0.000255005,9.96047e-05,-0.000552293,0.000502356,-0.000657756,-0.940718,0.000671791,0.0135173,657,1310,-8.24927,-3.2396
-560,-286,-8.22229,3.46118,-0.00150222,-0.00104459,-0.00130283,4.93643e-05,-0.00259617,-0.872328,0.00174747,0.0137792,664,1310,-8.22229,-3.46122
-553,-286,-8.21783,3.66833,-0.00329364,-0.00212344,-0.00170136,-0.000909386,-0.0045077,-0.951014,0.00275254,0.0102416,671,1310,-8.21784,-3.66829
-546,-286,-8.22388,3.90076,-0.00556651,-0.00396564,-0.00183913,-0.0027603,-0.00677184,-0.990647,0.00393191,0.0124778,678,1310,-8.22391,-3.90079
-539,-286,-8.20074,4.11731,-0.0078335,-0.00707403,-0.00193679,-0.00548009,-0.00942743,-0.882202,0.00546686,0.0308999,685,1310,-8.20072,-4.11734
-532,-286,-8.14679,4.32947,0,0,0,0,0,0,0,-1,692,1310,-8.14682,-4.3295
-525,-286,-11.1047,1.33667,0,0,0,0,0,0,0,-1,699,1310,-11.1047,-1.33665
-518,-286,-12.2775,1.7124,0,0,0,0,0,0,0,-1,706,1310,-12.2775,-1.71238
-511,-286,-14.275,2.4104,0,0,0,0,0,0,0,-1,713,1310,-14.275,-2.4104
-504,-286,-13.9832,2.85962,0,0,0,0,0,0,0,-1,720,1310,-13.9832,-2.85964
-497,-286,-13.6913,3.30884,0,0,0,0,0,0,0,-1,727,1310,-13.6914,-3.30889
-490,-286,-13.5369,3.21143,0,0,0,0,0,0,0,-1,734,1310,-13.5369,-3.21137
-483,-286,-12.438,1.09753,0,0,0,0,0,0,0,-1,741,1310,-12.4381,-1.09753
-476,-286,-13.0179,1.65625,0,0,0,0,0,0,0,-1,748,1310,-13.0179,-1.65628
-469,-286,0,0,0,0,0,0,0,0,0,-1,755,1310,0,0
-462,-286,0,0,0,0,0,0,0,0,0,-1,762,1310,0,0
-455,-286,0,0,0,0,0,0,0,0,0,-1,769,1310,0,0
-448,-286,0,0,0,0,0,0,0,0,0,-1,776,1310,0,0
-441,-286,0,0,0,0,0,0,0,0,0,-1,783,1310,0,0
-434,-286,0,0,0,0,0,0,0,0,0,-1,790,1310,0,0
-427,-286,0,0,0,0,0,0,0,0,0,-1,797,1310,0,0
-420,-286,0,0,0,0,0,0,0,0,0,-1,804,1310,0,0
-413,-286,0,0,0,0,0,0,0,0,0,-1,811,1310,0,0
-406,-286,0,0,0,0,0,0,0,0,0,-1,818,1310,0,0
-399,-286,0,0,0,0,0,0,0,0,0,-1,825,1310,0,0
-392,-286,0,0,0,0,0,0,0,0,0,-1,832,1310,0,0
-385,-286,0,0,0,0,0,0,0,0,0,-1,839,1310,0,0
-378,-286,0,0,0,0,0,0,0,0,0,-1,846,1310,0,0
-371,-286,0,0,0,0,0,0,0,0,0,-1,853,1310,0,0
-364,-286,0,0,0,0,0,0,0,0,0,-1,860,1310,0,0
-357,-286,0,0,0,0,0,0,0,0,0,-1,867,1310,0,0
-350,-286,0,0,0,0,0,0,0,0,0,-1,874,1310,0,0
-343,-286,0,0,0,0,0,0,0,0,0,-1,881,1310,0,0
-336,-286,0,0,0,0,0,0,0,0,0,-1,888,1310,0,0
-329,-286,0,0,0,0,0,0,0,0,0,-1,895,1310,0,0
-322,-286,0,0,0,0,0,0,0,0,0,-1,902,1310,0,0
-315,-286,0,0,0,0,0,0,0,0,0,-1,909,1310,0,0
-308,-286,0,0,0,0,0,0,0,0,0,-1,916,1310,0,0
-301,-286,0,0,0,0,0,0,0,0,0,-1,923,1310,0,0
-294,-286,0,0,0,0,0,0,0,0,0,-1,930,1310,0,0
-287,-286,0,0,0,0,0,0,0,0,0,-1,937,1310,0,0
-280,-286,0,0,0,0,0,0,0,0,0,-1,944,1310,0,0
-273,-286,0,0,0,0,0,0,0,0,0,-1,951,1310,0,0
-266,-286,0,0,0,0,0,0,0,0,0,-1,958,1310,0,0
-259,-286,0,0,0,0,0,0,0,0,0,-1,965,1310,0,0
-252,-286,0,0,0,0,0,0,0,0,0,-1,972,1310,0,0
-245,-286,0,0,0,0,0,0,0,0,0,-1,979,1310,0,0
-238,-286,0,0,0,0,0,0,0,0,0,-1,986,1310,0,0
-231,-286,0,0,0,0,0,0,0,0,0,-1,993,1310,0,0
-224,-286,0,0,0,0,0,0,0,0,0,-1,1000,1310,0,0
-217,-286,0,0,0,0,0,0,0,0,0,-1,1007,1310,0,0
-210,-286,0,0,0,0,0,0,0,0,0,-1,1014,1310,0,0
-203,-286,0,0,0,0,0,0,0,0,0,-1,1021,1310,0,0
-196,-286,0,0,0,0,0,0,0,0,0,-1,1028,1310,0,0
-189,-286,0,0,0,0,0,0,0,0,0,-1,1035,1310,0,0
-182,-286,0,0,0,0,0,0,0,0,0,-1,1042,1310,0,0
-175,-286,0,0,0,0,0,0,0,0,0,-1,1049,1310,0,0
-168,-286,0,0,0,0,0,0,0,0,0,-1,1056,1310,0,0
-161,-286,0,0,0,0,0,0,0,0,0,-1,1063,1310,0,0
-154,-286,0,0,0,0,0,0,0,0,0,-1,1070,1310,0,0
-147,-286,0,0,0,0,0,0,0,0,0,-1,1077,1310,0,0
-140,-286,0,0,0,0,0,0,0,0,0,-1,1084,1310,0,0
-133,-286,0,0,0,0,0,0,0,0,0,-1,1091,1310,0,0
-126,-286,0,0,0,0,0,0,0,0,0,-1,1098,1310,0,0
-119,-286,0,0,0,0,0,0,0,0,0,-1,1105,1310,0,0
-112,-286,0,0,0,0,0,0,0,0,0,-1,1112,1310,0,0
-105,-286,0,0,0,0,0,0,0,0,0,-1,1119,1310,0,0
-98,-286,0,0,0,0,0,0,0,0,0,-1,1126,1310,0,0
-91,-286,0,0,0,0,0,0,0,0,0,-1,1133,1310,0,0
-84,-286,0,0,0,0,0,0,0,0,0,-1,1140,1310,0,0
-77,-286,0,0,0,0,0,0,0,0,0,-1,1147,1310,0,0
-70,-286,0,0,0,0,0,0,0,0,0,-1,1154,1310,0,0
-63,-286,0,0,0,0,0,0,0,0,0,-1,1161,1310,0,0
-56,-286,0,0,0,0,0,0,0,0,0,-1,1168,1310,0,0
-49,-286,0,0,0,0,0,0,0,0,0,-1,1175,1310,0,0
-42,-286,0,0,0,0,0,0,0,0,0,-1,1182,1310,0,0
-35,-286,0,0,0,0,0,0,0,0,0,-1,1189,1310,0,0
-28,-286,0,0,0,0,0,0,0,0,0,-1,1196,1310,0,0
-21,-286,0,0,0,0,0,0,0,0,0,-1,1203,1310,0,0
-14,-286,0,0,0,0,0,0,0,0,0,-1,1210,1310,0,0
-7,-286,0,0,0,0,0,0,0,0,0,-1,1217,1310,0,0
0,-286,0,0,0,0,0,0,0,0,0,-1,1224,1310,0,0
7,-286,0,0,0,0,0,0,0,0,0,-1,1231,1310,0,0
14,-286,0,0,0,0,0,0,0,0,0,-1,1238,1310,0,0
21,-286,0,0,0,0,0,0,0,0,0,-1,1245,1310,0,0
28,-286,0,0,0,0,0,0,0,0,0,-1,1252,1310,0,0
35,-286,0,0,0,0,0,0,0,0,0,-1,1259,1310,0,0
42,-286,0,0,0,0,0,0,0,0,0,-1,1266,1310,0,0
49,-286,0,0,0,0,0,0,0,0,0,-1,1273,1310,0,0
56,-286,0,0,0,0,0,0,0,0,0,-1,1280,1310,0,0
63,-286,0,0,0,0,0,0,0,0,0,-1,1287,1310,0,0
70,-286,0,0,0,0,0,0,0,0,0,-1,1294,1310,0,0
77,-286,0,0,0,0,0,0,0,0,0,-1,1301,1310,0,0
84,-286,0,0,0,0,0,0,0,0,0,-1,1308,1310,0,0
91,-286,0,0,0,0,0,0,0,0,0,-1,1315,1310,0,0
98,-286,0,0,0,0,0,0,0,0,0,-1,1322,1310,0,0
105,-286,0,0,0,0,0,0,0,0,0,-1,1329,1310,0,0
112,-286,0,0,0,0,0,0,0,0,0,-1,1336,1310,0,0
119,-286,0,0,0,0,0,0,0,0,0,-1,1343,1310,0,0
126,-286,0,0,0,0,0,0,0,0,0,-1,1350,1310,0,0
133,-286,0,0,0,0,0,0,0,0,0,-1,1357,1310,0,0
140,-286,0,0,0,0,0,0,0,0,0,-1,1364,1310,0,0
147,-286,0,0,0,0,0,0,0,0,0,-1,1371,1310,0,0
154,-286,0,0,0,0,0,0,0,0,0,-1,1378,1310,0,0
161,-286,0,0,0,0,0,0,0,0,0,-1,1385,1310,0,0
168,-286,0,0,0,0,0,0,0,0,0,-1,1392,1310,0,0
175,-286,0,0,0,0,0,0,0,0,0,-1,1399,1310,0,0
182,-286,0,0,0,0,0,0,0,0,0,-1,1406,1310,0,0
189,-286,0,0,0,0,0,0,0,0,0,-1,1413,1310,0,0
196,-286,0,0,0,0,0,0,0,0,0,-1,1420,1310,0,0
203,-286,0,0,0,0,0,0,0,0,0,-1,1427,1310,0,0
210,-286,0,0,0,0,0,0,0,0,0,-1,1434,1310,0,0
217,-286,0,0,0,0,0,0,0,0,0,-1,1441,1310,0,0
224,-286,0,0,0,0,0,0,0,0,0,-1,1448,1310,0,0
231,-286,0,0,0,0,0,0,0,0,0,-1,1455,1310,0,0
238,-286,0,0,0,0,0,0,0,0,0,-1,1462,1310,0,0
245,-286,0,0,0,0,0,0,0,0,0,-1,1469,1310,0,0
252,-286,0,0,0,0,0,0,0,0,0,-1,1476,1310,0,0
259,-286,0,0,0,0,0,0,0,0,0,-1,1483,1310,0,0
266,-286,0,0,0,0,0,0,0,0,0,-1,1490,1310,0,0
273,-286,0,0,0,0,0,0,0,0,0,-1,1497,1310,0,0
280,-286,0,0,0,0,0,0,0,0,0,-1,1504,1310,0,0
287,-286,0,0,0,0,0,0,0,0,0,-1,1511,1310,0,0
294,-286,0,0,0,0,0,0,0,0,0,-1,1518,1310,0,0
301,-286,0,0,0,0,0,0,0,0,0,-1,1525,1310,0,0
308,-286,0,0,0,0,0,0,0,0,0,-1,1532,1310,0,0
315,-286,0,0,0,0,0,0,0,0,0,-1,1539,1310,0,0
322,-286,0,0,0,0,0,0,0,0,0,-1,1546,1310,0,0
329,-286,0,0,0,0,0,0,0,0,0,-1,1553,1310,0,0
336,-286,0,0,0,0,0,0,0,0,0,-1,1560,1310,0,0
343,-286,0,0,0,0,0,0,0,0,0,-1,1567,1310,0,0
350,-286,0,0,0,0,0,0,0,0,0,-1,1574,1310,0,0
357,-286,0,0,0,0,0,0,0,0,0,-1,1581,1310,0,0
364,-286,0,0,0,0,0,0,0,0,0,-1,1588,1310,0,0
371,-286,0,0,0,0,0,0,0,0,0,-1,1595,1310,0,0
378,-286,0,0,0,0,0,0,0,0,0,-1,1602,1310,0,0
385,-286,0,0,0,0,0,0,0,0,0,-1,1609,1310,0,0
392,-286,0,0,0,0,0,0,0,0,0,-1,1616,1310,0,0
399,-286,0,0,0,0,0,0,0,0,0,-1,1623,1310,0,0
406,-286,0,0,0,0,0,0,0,0,0,-1,1630,1310,0,0
413,-286,0,0,0,0,0,0,0,0,0,-1,1637,1310,0,0
420,-286,0,0,0,0,0,0,0,0,0,-1,1644,1310,0,0
427,-286,0,0,0,0,0,0,0,0,0,-1,1651,1310,0,0
434,-286,0,0,0,0,0,0,0,0,0,-1,1658,1310,0,0
441,-286,0,0,0,0,0,0,0,0,0,-1,1665,1310,0,0
448,-286,0,0,0,0,0,0,0,0,0,-1,1672,1310,0,0
455,-286,0,0,0,0,0,0,0,0,0,-1,1679,1310,0,0
462,-286,0,0,0,0,0,0,0,0,0,-1,1686,1310,0,0
469,-286,0,0,0,0,0,0,0,0,0,-1,1693,1310,0,0
476,-286,0,0,0,0,0,0,0,0,0,-1,1700,1310,0,0
483,-286,0,0,0,0,0,0,0,0,0,-1,1707,1310,0,0
490,-286,0,0,0,0,0,0,0,0,0,-1,1714,1310,0,0
497,-286,0,0,0,0,0,0,0,0,0,-1,1721,1310,0,0
504,-286,0,0,0,0,0,0,0,0,0,-1,1728,1310,0,0
511,-286,0,0,0,0,0,0,0,0,0,-1,1735,1310,0,0
518,-286,0,0,0,0,0,0,0,0,0,-1,1742,1310,0,0
525,-286,0,0,0,0,0,0,0,0,0,-1,1749,1310,0,0
532,-286,0,0,0,0,0,0,0,0,0,-1,1756,1310,0,0
539,-286,0,0,0,0,0,0,0,0,0,-1,1763,1310,0,0
546,-286,0,0,0,0,0,0,0,0,0,-1,1770,1310,0,0
553,-286,0,0,0,0,0,0,0,0,0,-1,1777,1310,0,0
560,-286,0,0,0,0,0,0,0,0,0,-1,1784,1310,0,0
567,-286,0,0,0,0,0,0,0,0,0,-1,1791,1310,0,0
574,-286,0,0,0,0,0,0,0,0,0,-1,1798,1310,0,0
581,-286,0,0,0,0,0,0,0,0,0,-1,1805,1310,0,0
588,-286,0,0,0,0,0,0,0,0,0,-1,1812,1310,0,0
595,-286,21.1514,3.00476,-0.0132452,0.0170987,-0.0298338,0.0353968,-0.0315433,-1.02063,0.0386692,0.0386511,1819,1310,21.1514,-3.00476
602,-286,21.2345,2.9165,-0.0162242,0.00913171,-0.0210837,0.0210557,-0.0281482,-1.05609,0.0285061,0.0450035,1826,1310,21.2346,-2.91654
609,-286,21.3192,2.56897,-0.0184091,0.00319381,-0.01331,0.00953378,-0.024749,-1.12626,0.0204327,0.0450804,1833,1310,21.3192,-2.56894
616,-286,21.356,2.33997,-0.0185633,0.000824727,-0.00708073,0.00313532,-0.0208739,-1.25537,0.0150702,0.0435824,1840,1310,21.3559,-2.33999
623,-286,21.0757,2.79688,-0.0176855,8.01235e-05,-0.00265362,0.000468022,-0.0180734,-1.42565,0.0122079,0.046441,1847,1310,21.0756,-2.79688
630,-286,20.8641,2.75928,0,0,0,0,0,0,0,-1,1854,1310,20.8642,-2.75926
637,-286,19.9104,1.12451,0,0,0,0,0,0,0,-1,1861,1310,19.9104,-1.12452
644,-286,19.519,0.829834,0,0,0,0,0,0,0,-1,1868,1310,19.5191,-0.82985
651,-286,17.207,0.886841,0,0,0,0,0,0,0,-1,1875,1310,17.2071,-0.886792
658,-286,17.2548,6.37732,0,0,0,0,0,0,0,-1,1882,1310,17.2548,-6.37728
665,-286,17.0486,6.245,-0.0100879,-6.56846e-06,0.00590647,0.00271774,-0.0128122,1.13863,0.00957678,0.0495393,1889,1310,17.0486,-6.24496
672,-286,16.7391,6.06421,-0.00884441,0.000246329,0.00568852,0.00298242,-0.0115805,1.12248,0.00888296,0.0319185,1896,1310,16.7391,-6.06422
679,-286,16.5522,5.90088,-0.00716254,0.000682057,0.00506602,0.0031667,-0.00964719,1.11481,0.00770703,0.0234141,1903,1310,16.5522,-5.90088
686,-286,16.5704,5.6875,-0.0056678,-3.23315e-05,0.00427898,0.00227334,-0.00797347,1.07656,0.00621363,0.0192883,1910,1310,16.5704,-5.68745
693,-286,16.5416,5.49268,-0.00441493,-0.00120066,0.00288341,0.000493261,-0.00610885,1.03964,0.00424655,0.0143646,1917,1310,16.5416,-5.49266
700,-286,16.5405,5.31702,-0.0028249,-0.000161578,0.00133001,0.000388849,-0.00337532,1.17841,0.0023904,0.0103249,1924,1310,16.5405,-5.317
707,-286,16.5562,5.1543,-0.00143384,0.000539567,-0.000111129,0.000545806,-0.00144008,-1.51472,0.00118467,0.0087438,1931,1310,16.5562,-5.15425
714,-286,16.5524,4.97205,-2.4976e-05,0.000938109,-0.00174838,0.00227004,-0.00135691,-0.919778,0.00211603,0.00883687,1938,1310,16.5524,-4.97203
721,-286,16.5729,4.78259,0.00120402,0.000962167,-0.00348804,0.00457323,-0.00240704,-0.76807,0.00409424,0.0109458,1945,1310,16.5729,-4.7826
728,-286,16.5839,4.59619,0.0018586,0.000486101,-0.00521853,0.00643581,-0.00409111,-0.720022,0.00612776,0.0139989,1952,1310,16.5838,-4.59622
735,-286,16.5736,4.41711,0.00223811,-0.000482161,-0.00699652,0.00800547,-0.00624953,-0.689395,0.00825092,0.0151421,1959,1310,16.5736,-4.41716
742,-286,16.5151,4.19751,0.00257819,-0.00255372,-0.00904464,0.00941381,-0.00938934,-0.64718,0.010856,0.0263309,1966,1310,16.5151,-4.19745
749,-286,16.5356,3.70959,0.00242345,-0.00613476,-0.0112509,0.0101815,-0.0138929,-0.603679,0.0139543,0.0406712,1973,1310,16.5356,-3.70957
756,-286,16.6378,3.20935,0,0,0,0,0,0,0,-1,1980,1310,16.6378,-3.20935
763,-286,16.3956,2.80347,0,0,0,0,0,0,0,-1,1987,1310,16.3956,-2.80347
770,-286,16.5485,2.53015,0,0,0,0,0,0,0,-1,1994,1310,16.5484,-2.53012
777,-286,0,0,0,0,0,0,0,0,0,-1,2001,1310,0,0
784,-286,0,0,0,0,0,0,0,0,0,-1,2008,1310,0,0
791,-286,0,0,0,0,0,0,0,0,0,-1,2015,1310,0,0
798,-286,0,0,0,0,0,0,0,0,0,-1,2022,1310,0,0
805,-286,0,0,0,0,0,0,0,0,0,-1,2029,1310,0,0
812,-286,0,0,0,0,0,0,0,0,0,-1,2036,1310,0,0
-700,-293,0,0,0,0,0,0,0,0,0,-1,524,1317,0,0
-693,-293,0,0,0,0,0,0,0,0,0,-1,531,1317,0,0
-686,-293,0,0,0,0,0,0,0,0,0,-1,538,1317,0,0
-679,-293,0,0,0,0,0,0,0,0,0,-1,545,1317,0,0
-672,-293,0,0,0,0,0,0,0,0,0,-1,552,1317,0,0
-665,-293,0,0,0,0,0,0,0,0,0,-1,559,1317,0,0
-658,-293,0,0,0,0,0,0,0,0,0,-1,566,1317,0,0
-651,-293,-8.04376,-1.76086,-0.00344728,0.045277,-0.032001,0.061134,-0.0193043,-1.11074,0.048489,0.0450586,573,1317,-8.04377,1.76081
-644,-293,-7.77551,-1.00989,-0.00956185,0.0432774,-0.0220944,0.0512985,-0.0175829,-1.22256,0.0413261,0.0401493,580,1317,-7.7755,1.00986
-637,-293,-6.94336,-0.189331,0,0,0,0,0,0,0,-1,587,1317,-6.94339,0.189319
-630,-293,-6.93787,-0.32019,-0.0170689,0.0345936,-0.00830231,0.035895,-0.0183703,-1.41531,0.03187,0.0451082,594,1317,-6.93787,0.320243
-623,-293,-7.71515,0.152222,-0.0179861,0.0293723,-0.00363344,0.0296494,-0.0182633,-1.49467,0.0279216,0.0469313,601,1317,-7.71516,-0.152197
-616,-293,-8.03668,1.32336,-0.0173893,0.0241379,-0.00022168,0.0241391,-0.0173905,-1.56546,0.0240824,0.0450831,608,1317,-8.03668,-1.32339
-609,-293,-8.00604,1.80579,-0.0155044,0.0189532,0.00183601,0.0190508,-0.0156019,1.51771,0.0200397,0.0398093,615,1317,-8.00602,-1.80584
-602,-293,-7.97614,2.12183,-0.0126889,0.0144863,0.00321682,0.0148619,-0.0130645,1.45456,0.0161344,0.027333,622,1317,-7.97612,-2.12188
-595,-293,-8.04114,2.3634,-0.0105108,0.0101486,0.00429749,0.0110069,-0.011369,1.37367,0.0129193,0.013919,629,1317,-8.04113,-2.36335
-588,-293,-8.01782,2.58081,-0.00754086,0.00633128,0.00409537,0.00745009,-0.00865967,1.30411,0.00930971,0.0150582,636,1317,-8.01782,-2.58075
-581,-293,-8.01324,2.8031,-0.00402024,0.0037149,0.00255725,0.00448388,-0.00478923,1.27869,0.0053548,0.0175284,643,1317,-8.01323,-2.80304
-574,-293,-8.04144,3.02478,-0.00136056,0.00141632,0.00127852,0.0019153,-0.00185955,1.19869,0.00217949,0.0156621,650,1317,-8.04147,-3.02479
-567,-293,-8.05597,3.27014,-0.000312688,-0.000216112,0.000116838,-0.000137976,-0.000390823,0.981353,0.000228867,0.0154529,657,1317,-8.05596,-3.2701
-560,-293,-8.03992,3.48938,-0.00104895,-0.00154176,-0.000577489,-0.000667495,-0.00192321,-0.583753,0.00112755,0.0158798,664,1317,-8.03993,-3.48937
-553,-293,-8.01843,3.68762,-0.00242001,-0.00302794,-0.000884104,-0.00178908,-0.00365888,-0.619823,0.00211262,0.0108647,671,1317,-8.01844,-3.68761
-546,-293,-8.021,3.92175,-0.00437052,-0.00521926,-0.00101813,-0.00369186,-0.00589792,-0.587939,0.00344099,0.0105048,678,1317,-8.02097,-3.92174
-539,-293,-8.01636,4.12305,-0.00649986,-0.00851692,-0.00117016,-0.00596359,-0.00905319,-0.429724,0.00531393,0.0246061,685,1317,-8.01636,-4.12305
-532,-293,-8.36835,4.18628,0,0,0,0,0,0,0,-1,692,1317,-8.36836,-4.18628
-525,-293,-11.3254,1.23962,0,0,0,0,0,0,0,-1,699,1317,-11.3254,-1.23958
-518,-293,-12.2349,2.0022,0,0,0,0,0,0,0,-1,706,1317,-12.2349,-2.00224
-511,-293,-13.1445,2.76489,0,0,0,0,0,0,0,-1,713,1317,-13.1445,-2.7649
-504,-293,-14.0832,3.12439,0,0,0,0,0,0,0,-1,720,1317,-14.0832,-3.12444
-497,-293,-11.9572,3.24902,0,0,0,0,0,0,0,-1,727,1317,-11.9572,-3.24905
-490,-293,-11.7103,0.624146,0,0,0,0,0,0,0,-1,734,1317,-11.7103,-0.624093
-483,-293,-12.3591,1.34912,0,0,0,0,0,0,0,-1,741,1317,-12.3591,-1.34914
-476,-293,-11.3431,0.133301,0,0,0,0,0,0,0,-1,748,1317,-11.3431,-0.133249
-469,-293,0,0,0,0,0,0,0,0,0,-1,755,1317,0,0
-462,-293,0,0,0,0,0,0,0,0,0,-1,762,1317,0,0
-455,-293,0,0,0,0,0,0,0,0,0,-1,769,1317,0,0
-448,-293,0,0,0,0,0,0,0,0,0,-1,776,1317,0,0
-441,-293,0,0,0,0,0,0,0,0,0,-1,783,1317,0,0
-434,-293,0,0,0,0,0,0,0,0,0,-1,790,1317,0,0
-427,-293,0,0,0,0,0,0,0,0,0,-1,797,1317,0,0
-420,-293,0,0,0,0,0,0,0,0,0,-1,804,1317,0,0
-413,-293,0,0,0,0,0,0,0,0,0,-1,811,1317,0,0
-406,-293,0,0,0,0,0,0,0,0,0,-1,818,1317,0,0
-399,-293,0,0,0,0,0,0,0,0,0,-1,825,1317,0,0
-392,-293,0,0,0,0,0,0,0,0,0,-1,832,1317,0,0
-385,-293,0,0,0,0,0,0,0,0,0,-1,839,1317,0,0
-378,-293,0,0,0,0,0,0,0,0,0,-1,846,1317,0,0
-371,-293,0,0,0,0,0,0,0,0,0,-1,853,1317,0,0
-364,-293,0,0,0,0,0,0,0,0,0,-1,860,1317,0,0
-357,-293,0,0,0,0,0,0,0,0,0,-1,867,1317,0,0
-350,-293,0,0,0,0,0,0,0,0,0,-1,874,1317,0,0
-343,-293,0,0,0,0,0,0,0,0,0,-1,881,1317,0,0
-336,-293,0,0,0,0,0,0,0,0,0,-1,888,1317,0,0
-329,-293,0,0,0,0,0,0,0,0,0,-1,895,1317,0,0
-322,-293,0,0,0,0,0,0,0,0,0,-1,902,1317,0,0
-315,-293,0,0,0,0,0,0,0,0,0,-1,909,1317,0,0
-308,-293,0,0,0,0,0,0,0,0,0,-1,916,1317,0,0
-301,-293,0,0,0,0,0,0,0,0,0,-1,923,1317,0,0
-294,-293,0,0,0,0,0,0,0,0,0,-1,930,1317,0,0
-287,-293,0,0,0,0,0,0,0,0,0,-1,937,1317,0,0
-280,-293,0,0,0,0,0,0,0,0,0,-1,944,1317,0,0
-273,-293,0,0,0,0,0,0,0,0,0,-1,951,1317,0,0
-266,-293,0,0,0,0,0,0,0,0,0,-1,958,1317,0,0
-259,-293,0,0,0,0,0,0,0,0,0,-1,965,1317,0,0
-252,-293,0,0,0,0,0,0,0,0,0,-1,972,1317,0,0
-245,-293,0,0,0,0,0,0,0,0,0,-1,979,1317,0,0
-238,-293,0,0,0,0,0,0,0,0,0,-1,986,1317,0,0
-231,-293,0,0,0,0,0,0,0,0,0,-1,993,1317,0,0
-224,-293,0,0,0,0,0,0,0,0,0,-1,1000,1317,0,0
-217,-293,0,0,0,0,0,0,0,0,0,-1,1007,1317,0,0
-210,-293,0,0,0,0,0,0,0,0,0,-1,1014,1317,0,0
-203,-293,0,0,0,0,0,0,0,0,0,-1,1021,1317,0,0
-196,-293,0,0,0,0,0,0,0,0,0,-1,1028,1317,0,0
-189,-293,0,0,0,0,0,0,0,0,0,-1,1035,1317,0,0
-182,-293,0,0,0,0,0,0,0,0,0,-1,1042,1317,0,0
-175,-293,0,0,0,0,0,0,0,0,0,-1,1049,1317,0,0
-168,-293,0,0,0,0,0,0,0,0,0,-1,1056,1317,0,0
-161,-293,0,0,0,0,0,0,0,0,0,-1,1063,1317,0,0
-154,-293,0,0,0,0,0,0,0,0,0,-1,1070,1317,0,0
-147,-293,0,0,0,0,0,0,0,0,0,-1,1077,1317,0,0
-140,-293,0,0,0,0,0,0,0,0,0,-1,1084,1317,0,0
-133,-293,0,0,0,0,0,0,0,0,0,-1,1091,1317,0,0
-126,-293,0,0,0,0,0,0,0,0,0,-1,1098,1317,0,0
-119,-293,0,0,0,0,0,0,0,0,0,-1,1105,1317,0,0
-112,-293,0,0,0,0,0,0,0,0,0,-1,1112,1317,0,0
-105,-293,0,0,0,0,0,0,0,0,0,-1,1119,1317,0,0
-98,-293,0,0,0,0,0,0,0,0,0,-1,1126,1317,0,0
-91,-293,0,0,0,0,0,0,0,0,0,-1,1133,1317,0,0
-84,-293,0,0,0,0,0,0,0,0,0,-1,1140,1317,0,0
-77,-293,0,0,0,0,0,0,0,0,0,-1,1147,1317,0,0
-70,-293,0,0,0,0,0,0,0,0,0,-1,1154,1317,0,0
-63,-293,0,0,0,0,0,0,0,0,0,-1,1161,1317,0,0
-56,-293,0,0,0,0,0,0,0,0,0,-1,1168,1317,0,0
-49,-293,0,0,0,0,0,0,0,0,0,-1,1175,1317,0,0
-42,-293,0,0,0,0,0,0,0,0,0,-1,1182,1317,0,0
-35,-293,0,0,0,0,0,0,0,0,0,-1,1189,1317,0,0
-28,-293,0,0,0,0,0,0,0,0,0,-1,1196,1317,0,0
-21,-293,0,0,0,0,0,0,0,0,0,-1,1203,1317,0,0
-14,-293,0,0,0,0,0,0,0,0,0,-1,1210,1317,0,0
-7,-293,0,0,0,0,0,0,0,0,0,-1,1217,1317,0,0
0,-293,0,0,0,0,0,0,0,0,0,-1,1224,1317,0,0
7,-293,0,0,0,0,0,0,0,0,0,-1,1231,1317,0,0
14,-293,0,0,0,0,0,0,0,0,0,-1,1238,1317,0,0
21,-293,0,0,0,0,0,0,0,0,0,-1,1245,1317,0,0
28,-293,0,0,0,0,0,0,0,0,0,-1,1252,1317,0,0
35,-293,0,0,0,0,0,0,0,0,0,-1,1259,1317,0,0
42,-293,0,0,0,0,0,0,0,0,0,-1,1266,1317,0,0
49,-293,0,0,0,0,0,0,0,0,0,-1,1273,1317,0,0
56,-293,0,0,0,0,0,0,0,0,0,-1,1280,1317,0,0
63,-293,0,0,0,0,0,0,0,0,0,-1,1287,1317,0,0
70,-293,0,0,0,0,0,0,0,0,0,-1,1294,1317,0,0
77,-293,0,0,0,0,0,0,0,0,0,-1,1301,1317,0,0
84,-293,0,0,0,0,0,0,0,0,0,-1,1308,1317,0,0
91,-293,0,0,0,0,0,0,0,0,0,-1,1315,1317,0,0
98,-293,0,0,0,0,0,0,0,0,0,-1,1322,1317,0,0
105,-293,0,0,0,0,0,0,0,0,0,-1,1329,1317,0,0
112,-293,0,0,0,0,0,0,0,0,0,-1,1336,1317,0,0
119,-293,0,0,0,0,0,0,0,0,0,-1,1343,1317,0,0
126,-293,0,0,0,0,0,0,0,0,0,-1,1350,1317,0,0
133,-293,0,0,0,0,0,0,0,0,0,-1,1357,1317,0,0
140,-293,0,0,0,0,0,0,0,0,0,-1,1364,1317,0,0
147,-293,0,0,0,0,0,0,0,0,0,-1,1371,1317,0,0
154,-293,0,0,0,0,0,0,0,0,0,-1,1378,1317,0,0
161,-293,0,0,0,0,0,0,0,0,0,-1,1385,1317,0,0
168,-293,0,0,0,0,0,0,0,0,0,-1,1392,1317,0,0
175,-293,0,0,0,0,0,0,0,0,0,-1,1399,1317,0,0
182,-293,0,0,0,0,0,0,0,0,0,-1,1406,1317,0,0
189,-293,0,0,0,0,0,0,0,0,0,-1,1413,1317,0,0
196,-293,0,0,0,0,0,0,0,0,0,-1,1420,1317,0,0
203,-293,0,0,0,0,0,0,0,0,0,-1,1427,1317,0,0
210,-293,0,0,0,0,0,0,0,0,0,-1,1434,1317,0,0
217,-293,0,0,0,0,0,0,0,0,0,-1,1441,1317,0,0
224,-293,0,0,0,0,0,0,0,0,0,-1,1448,1317,0,0
231,-293,0,0,0,0,0,0,0,0,0,-1,1455,1317,0,0
238,-293,0,0,0,0,0,0,0,0,0,-1,1462,1317,0,0
245,-293,0,0,0,0,0,0,0,0,0,-1,1469,1317,0,0
252,-293,0,0,0,0,0,0,0,0,0,-1,1476,1317,0,0
259,-293,0,0,0,0,0,0,0,0,0,-1,1483,1317,0,0
266,-293,0,0,0,0,0,0,0,0,0,-1,1490,1317,0,0
273,-293,0,0,0,0,0,0,0,0,0,-1,1497,1317,0,0
280,-293,0,0,0,0,0,0,0,0,0,-1,1504,1317,0,0
287,-293,0,0,0,0,0,0,0,0,0,-1,1511,1317,0,0
294,-293,0,0,0,0,0,0,0,0,0,-1,1518,1317,0,0
301,-293,0,0,0,0,0,0,0,0,0,-1,1525,1317,0,0
308,-293,0,0,0,0,0,0,0,0,0,-1,1532,1317,0,0
315,-293,0,0,0,0,0,0,0,0,0,-1,1539,1317,0,0
322,-293,0,0,0,0,0,0,0,0,0,-1,1546,1317,0,0
329,-293,0,0,0,0,0,0,0,0,0,-1,1553,1317,0,0
336,-293,0,0,0,0,0,0,0,0,0,-1,1560,1317,0,0
343,-293,0,0,0,0,0,0,0,0,0,-1,1567,1317,0,0
350,-293,0,0,0,0,0,0,0,0,0,-1,1574,1317,0,0
357,-293,0,0,0,0,0,0,0,0,0,-1,1581,1317,0,0
364,-293,0,0,0,0,0,0,0,0,0,-1,1588,1317,0,0
371,-293,0,0,0,0,0,0,0,0,0,-1,1595,1317,0,0
378,-293,0,0,0,0,0,0,0,0,0,-1,1602,1317,0,0
385,-293,0,0,0,0,0,0,0,0,0,-1,1609,1317,0,0
392,-293,0,0,0,0,0,0,0,0,0,-1,1616,1317,0,0
399,-293,0,0,0,0,0,0,0,0,0,-1,1623,1317,0,0
406,-293,0,0,0,0,0,0,0,0,0,-1,1630,1317,0,0
413,-293,0,0,0,0,0,0,0,0,0,-1,1637,1317,0,0
420,-293,0,0,0,0,0,0,0,0,0,-1,1644,1317,0,0
427,-293,0,0,0,0,0,0,0,0,0,-1,1651,1317,0,0
434,-293,0,0,0,0,0,0,0,0,0,-1,1658,1317,0,0
441,-293,0,0,0,0,0,0,0,0,0,-1,1665,1317,0,0
448,-293,0,0,0,0,0,0,0,0,0,-1,1672,1317,0,0
455,-293,0,0,0,0,0,0,0,0,0,-1,1679,1317,0,0
462,-293,0,0,0,0,0,0,0,0,0,-1,1686,1317,0,0
469,-293,0,0,0,0,0,0,0,0,0,-1,1693,1317,0,0
476,-293,0,0,0,0,0,0,0,0,0,-1,1700,1317,0,0
483,-293,0,0,0,0,0,0,0,0,0,-1,1707,1317,0,0
490,-293,0,0,0,0,0,0,0,0,0,-1,1714,1317,0,0
497,-293,0,0,0,0,0,0,0,0,0,-1,1721,1317,0,0
504,-293,0,0,0,0,0,0,0,0,0,-1,1728,1317,0,0
511,-293,0,0,0,0,0,0,0,0,0,-1,1735,1317,0,0
518,-293,0,0,0,0,0,0,0,0,0,-1,1742,1317,0,0
525,-293,0,0,0,0,0,0,0,0,0,-1,1749,1317,0,0
532,-293,0,0,0,0,0,0,0,0,0,-1,1756,1317,0,0
539,-293,0,0,0,0,0,0,0,0,0,-1,1763,1317,0,0
546,-293,0,0,0,0,0,0,0,0,0,-1,1770,1317,0,0
553,-293,0,0,0,0,0,0,0,0,0,-1,1777,1317,0,0
560,-293,0,0,0,0,0,0,0,0,0,-1,1784,1317,0,0
567,-293,0,0,0,0,0,0,0,0,0,-1,1791,1317,0,0
574,-293,0,0,0,0,0,0,0,0,0,-1,1798,1317,0,0
581,-293,0,0,0,0,0,0,0,0,0,-1,1805,1317,0,0
588,-293,0,0,0,0,0,0,0,0,0,-1,1812,1317,0,0
595,-293,21.288,3.09021,-0.0242184,0.0213836,-0.0331148,0.038788,-0.0416228,-1.0869,0.0464348,0.0453905,1819,1317,21.288,-3.09026
602,-293,21.4132,2.8938,-0.0266379,0.0104168,-0.0232102,0.0215875,-0.0378086,-1.12223,0.034716,0.047716,1826,1317,21.4132,-2.89381
609,-293,21.438,2.40784,-0.0267012,0.00288168,-0.0145941,0.00886942,-0.0326889,-1.18145,0.0252733,0.0488723,1833,1317,21.438,-2.40778
616,-293,21.272,2.53772,-0.0248918,-0.000354855,-0.008003,0.00202466,-0.0272713,-1.28179,0.018892,0.0462856,1840,1317,21.2719,-2.53773
623,-293,21.1113,2.72949,-0.0224564,-0.00159731,-0.00334067,-0.00107535,-0.0229784,-1.41581,0.0149733,0.0450484,1847,1317,21.1114,-2.72946
630,-293,20.9012,2.89661,-0.0199764,-0.00186288,-0.000311057,-0.00185754,-0.0199817,-1.55363,0.0127471,0.0450255,1854,1317,20.9012,-2.89662
637,-293,20.7523,3.02808,0,0,0,0,0,0,0,-1,1861,1317,20.7524,-3.02811
644,-293,19.3455,3.35413,0,0,0,0,0,0,0,-1,1868,1317,19.3454,-3.35417
651,-293,17.3484,6.13477,0,0,0,0,0,0,0,-1,1875,1317,17.3484,-6.1348
658,-293,17.0269,6.14038,-0.0123856,-0.00131625,0.00625496,0.00150115,-0.015203,1.14759,0.010671,0.0453854,1882,1317,17.0268,-6.14042
665,-293,16.6841,6.11499,-0.0114702,-0.00101686,0.00699268,0.00248663,-0.0149737,1.10633,0.0109062,0.0350141,1889,1317,16.6841,-6.11497
672,-293,16.3885,6.08325,-0.00988009,-0.000479699,0.00663754,0.00295329,-0.0133131,1.09348,0.0100062,0.0168116,1896,1317,16.3886,-6.0832
679,-293,16.3843,5.88171,-0.00779137,0.000305418,0.00570504,0.00325252,-0.0107385,1.09397,0.00845434,0.0120693,1903,1317,16.3843,-5.88176
686,-293,16.3879,5.677,-0.00591013,-0.00019959,0.0045903,0.00235101,-0.00846073,1.06363,0.00656599,0.0135427,1910,1317,16.388,-5.67698
693,-293,16.369,5.4939,-0.00434979,-0.000983998,0.00291499,0.000699007,-0.00603279,1.04719,0.00427396,0.010801,1917,1317,16.369,-5.49392
700,-293,16.3595,5.30786,-0.00267012,0.000139632,0.00106676,0.000498743,-0.00302923,1.24608,0.00220462,0.00994566,1924,1317,16.3596,-5.30789
707,-293,16.3784,5.14746,-0.00132593,0.000764614,-0.000562087,0.000906159,-0.00146748,-1.3241,0.00138313,0.0119127,1931,1317,16.3784,-5.14748
714,-293,16.3792,4.96423,-6.6841e-05,0.00109863,-0.00228216,0.00287128,-0.00183949,-0.910399,0.00274142,0.00812573,1938,1317,16.3791,-4.96425
721,-293,16.4001,4.75671,0.000932003,0.00108185,-0.00404038,0.005048,-0.00303415,-0.794669,0.00471427,0.00854449,1945,1317,16.4002,-4.75676
728,-293,16.3956,4.55054,0.00149526,0.000515737,-0.00582822,0.00685426,-0.00484326,-0.74348,0.00678675,0.0115706,1952,1317,16.3956,-4.5506
735,-293,16.3799,4.34888,0.00190586,-0.000732466,-0.00773895,0.00843727,-0.00726388,-0.700981,0.00907349,0.0160736,1959,1317,16.3798,-4.34887
742,-293,16.3645,4.12427,0.00231486,-0.00321344,-0.00986763,0.00979818,-0.0106968,-0.648837,0.0118366,0.0272539,1966,1317,16.3645,-4.12426
749,-293,16.4878,3.57166,0.002366,-0.00743952,-0.0121101,0.0105281,-0.0156016,-0.593058,0.0151805,0.0381147,1973,1317,16.4878,-3.57165
756,-293,16.7086,2.88489,0,0,0,0,0,0,0,-1,1980,1317,16.7087,-2.88484
763,-293,16.7382,2.78931,0,0,0,0,0,0,0,-1,1987,1317,16.7381,-2.78933
770,-293,16.2617,5.90723,0,0,0,0,0,0,0,-1,1994,1317,16.2617,-5.90718
777,-293,0,0,0,0,0,0,0,0,0,-1,2001,1317,0,0
784,-293,0,0,0,0,0,0,0,0,0,-1,2008,1317,0,0
791,-293,0,0,0,0,0,0,0,0,0,-1,2015,1317,0,0
798,-293,0,0,0,0,0,0,0,0,0,-1,2022,1317,0,0
805,-293,0,0,0,0,0,0,0,0,0,-1,2029,1317,0,0
812,-293,0,0,0,0,0,0,0,0,0,-1,2036,1317,0,0
-700,-300,0,0,0,0,0,0,0,0,0,-1,524,1324,0,0
-693,-300,0,0,0,0,0,0,0,0,0,-1,531,1324,0,0
-686,-300,0,0,0,0,0,0,0,0,0,-1,538,1324,0,0
-679,-300,0,0,0,0,0,0,0,0,0,-1,545,1324,0,0
-672,-300,0,0,0,0,0,0,0,0,0,-1,552,1324,0,0
-665,-300,0,0,0,0,0,0,0,0,0,-1,559,1324,0,0
-658,-300,0,0,0,0,0,0,0,0,0,-1,566,1324,0,0
-651,-300,-6.82465,-2.09229,0.0156129,0.0444738,-0.035602,0.0684587,-0.00837205,-0.977943,0.0486705,0.0453391,573,1324,-6.82466,2.09225
-644,-300,-6.50244,-1.39551,0.0058611,0.0426373,-0.0253622,0.0555759,-0.0070775,-1.09906,0.039621,0.0452437,580,1324,-6.50247,1.39547
-637,-300,-6.16479,-1.13586,0,0,0,0,0,0,0,-1,587,1324,-6.1648,1.13583
-630,-300,-6.26569,-0.914429,0,0,0,0,0,0,0,-1,594,1324,-6.2657,0.914389
-623,-300,-7.33893,1.1239,0,0,0,0,0,0,0,-1,601,1324,-7.33894,-1.12385
-616,-300,-7.36768,1.4259,0,0,0,0,0,0,0,-1,608,1324,-7.36768,-1.42595
-609,-300,-7.84229,1.91626,0,0,0,0,0,0,0,-1,615,1324,-7.84229,-1.91623
-602,-300,-7.6983,2.05664,-0.0119744,0.0143817,0.00297311,0.014713,-0.0123056,1.45985,0.0156198,0.0326724,622,1324,-7.6983,-2.05664
-595,-300,-7.83203,2.34949,-0.0106213,0.0100281,0.00437703,0.0109175,-0.0115107,1.37031,0.0129505,0.0181375,629,1324,-7.83206,-2.34944
-588,-300,-7.79626,2.61353,-0.00815588,0.00604404,0.00435947,0.00727561,-0.00938745,1.29547,0.00964614,0.0204776,636,1324,-7.79628,-2.61353
-581,-300,-7.81451,2.85254,-0.0047276,0.00339055,0.0028085,0.00426744,-0.0056045,1.26816,0.00571697,0.0202727,643,1324,-7.81454,-2.85249
-574,-300,-7.82489,3.05981,-0.00198331,0.00104882,0.00160026,0.00173713,-0.00267162,1.16459,0.00256439,0.0152359,650,1324,-7.8249,-3.05983
-567,-300,-7.8335,3.28149,-0.000557404,-0.000615336,0.000463067,-0.000122398,-0.00105034,0.754162,0.000663204,0.0158823,657,1324,-7.83353,-3.28151
-560,-300,-7.83612,3.5094,-0.000758103,-0.00197945,-0.000234417,-0.000714657,-0.0020229,-0.18326,0.00118456,0.0145093,664,1324,-7.83611,-3.50941
-553,-300,-7.81012,3.71301,-0.00164665,-0.00376485,-0.000513832,-0.00152859,-0.00388291,-0.225852,0.00225864,0.00980148,671,1324,-7.81011,-3.71303
-546,-300,-7.80444,3.9342,-0.00311302,-0.00625864,-0.000653765,-0.00298255,-0.0063891,-0.196969,0.00369145,0.0085159,678,1324,-7.80447,-3.93417
-539,-300,-7.79651,4.15601,-0.00492688,-0.00974876,-0.000847059,-0.00478241,-0.00989324,-0.168934,0.00571291,0.0142762,685,1324,-7.79649,-4.15601
-532,-300,-7.95123,4.23413,-0.00764699,-0.0136389,-0.000888164,-0.00751811,-0.0137678,-0.1441,0.00796008,0.0364909,692,1324,-7.95121,-4.23409
-525,-300,-8.05316,4.18604,0,0,0,0,0,0,0,-1,699,1324,-8.05315,-4.18609
-518,-300,-11.9734,2.13184,0,0,0,0,0,0,0,-1,706,1324,-11.9734,-2.13179
-511,-300,-10.2976,1.60608,-0.0175586,-0.0311689,-0.00148337,-0.0173988,-0.0313287,-0.10731,0.0181246,0.0441506,713,1324,-10.2976,-1.60613
-504,-300,-11.0656,1.6582,0,0,0,0,0,0,0,-1,720,1324,-11.0655,-1.65816
-497,-300,-11.7896,2.07422,0,0,0,0,0,0,0,-1,727,1324,-11.7896,-2.07427
-490,-300,-12.7362,2.75256,0,0,0,0,0,0,0,-1,734,1324,-12.7362,-2.75251
-483,-300,-11.8044,0.600586,0,0,0,0,0,0,0,-1,741,1324,-11.8044,-0.600619
-476,-300,-11.7051,0.537109,0,0,0,0,0,0,0,-1,748,1324,-11.7051,-0.537168
-469,-300,0,0,0,0,0,0,0,0,0,-1,755,1324,0,0
-462,-300,0,0,0,0,0,0,0,0,0,-1,762,1324,0,0
-455,-300,0,0,0,0,0,0,0,0,0,-1,769,1324,0,0
-448,-300,0,0,0,0,0,0,0,0,0,-1,776,1324,0,0
-441,-300,0,0,0,0,0,0,0,0,0,-1,783,1324,0,0
-434,-300,0,0,0,0,0,0,0,0,0,-1,790,1324,0,0
-427,-300,0,0,0,0,0,0,0,0,0,-1,797,1324,0,0
-420,-300,0,0,0,0,0,0,0,0,0,-1,804,1324,0,0
-413,-300,0,0,0,0,0,0,0,0,0,-1,811,1324,0,0
-406,-300,0,0,0,0,0,0,0,0,0,-1,818,1324,0,0
-399,-300,0,0,0,0,0,0,0,0,0,-1,825,1324,0,0
-392,-300,0,0,0,0,0,0,0,0,0,-1,832,1324,0,0
-385,-300,0,0,0,0,0,0,0,0,0,-1,839,1324,0,0
-378,-300,0,0,0,0,0,0,0,0,0,-1,846,1324,0,0
-371,-300,0,0,0,0,0,0,0,0,0,-1,853,1324,0,0
-364,-300,0,0,0,0,0,0,0,0,0,-1,860,1324,0,0
-357,-300,0,0,0,0,0,0,0,0,0,-1,867,1324,0,0
-350,-300,0,0,0,0,0,0,0,0,0,-1,874,1324,0,0
-343,-300,0,0,0,0,0,0,0,0,0,-1,881,1324,0,0
-336,-300,0,0,0,0,0,0,0,0,0,-1,888,1324,0,0
-329,-300,0,0,0,0,0,0,0,0,0,-1,895,1324,0,0
-322,-300,0,0,0,0,0,0,0,0,0,-1,902,1324,0,0
-315,-300,0,0,0,0,0,0,0,0,0,-1,909,1324,0,0
-308,-300,0,0,0,0,0,0,0,0,0,-1,916,1324,0,0
-301,-300,0,0,0,0,0,0,0,0,0,-1,923,1324,0,0
-294,-300,0,0,0,0,0,0,0,0,0,-1,930,1324,0,0
-287,-300,0,0,0,0,0,0,0,0,0,-1,937,1324,0,0
-280,-300,0,0,0,0,0,0,0,0,0,-1,944,1324,0,0
-273,-300,0,0,0,0,0,0,0,0,0,-1,951,1324,0,0
-266,-300,0,0,0,0,0,0,0,0,0,-1,958,1324,0,0
-259,-300,0,0,0,0,0,0,0,0,0,-1,965,1324,0,0
-252,-300,0,0,0,0,0,0,0,0,0,-1,972,1324,0,0
-245,-300,0,0,0,0,0,0,0,0,0,-1,979,1324,0,0
-238,-300,0,0,0,0,0,0,0,0,0,-1,986,1324,0,0
-231,-300,0,0,0,0,0,0,0,0,0,-1,993,1324,0,0
-224,-300,0,0,0,0,0,0,0,0,0,-1,1000,1324,0,0
-217,-300,0,0,0,0,0,0,0,0,0,-1,1007,1324,0,0
-210,-300,0,0,0,0,0,0,0,0,0,-1,1014,1324,0,0
-203,-300,0,0,0,0,0,0,0,0,0,-1,1021,1324,0,0
-196,-300,0,0,0,0,0,0,0,0,0,-1,1028,1324,0,0
-189,-300,0,0,0,0,0,0,0,0,0,-1,1035,1324,0,0
-182,-300,0,0,0,0,0,0,0,0,0,-1,1042,1324,0,0
-175,-300,0,0,0,0,0,0,0,0,0,-1,1049,1324,0,0
-168,-300,0,0,0,0,0,0,0,0,0,-1,1056,1324,0,0
-161,-300,0,0,0,0,0,0,0,0,0,-1,1063,1324,0,0
-154,-300,0,0,0,0,0,0,0,0,0,-1,1070,1324,0,0
-147,-300,0,0,0,0,0,0,0,0,0,-1,1077,1324,0,0
-140,-300,0,0,0,0,0,0,0,0,0,-1,1084,1324,0,0
-133,-300,0,0,0,0,0,0,0,0,0,-1,1091,1324,0,0
-126,-300,0,0,0,0,0,0,0,0,0,-1,1098,1324,0,0
-119,-300,0,0,0,0,0,0,0,0,0,-1,1105,1324,0,0
-112,-300,0,0,0,0,0,0,0,0,0,-1,1112,1324,0,0
-105,-300,0,0,0,0,0,0,0,0,0,-1,1119,1324,0,0
-98,-300,0,0,0,0,0,0,0,0,0,-1,1126,1324,0,0
-91,-300,0,0,0,0,0,0,0,0,0,-1,1133,1324,0,0
-84,-300,0,0,0,0,0,0,0,0,0,-1,1140,1324,0,0
-77,-300,0,0,0,0,0,0,0,0,0,-1,1147,1324,0,0
-70,-300,0,0,0,0,0,0,0,0,0,-1,1154,1324,0,0
-63,-300,0,0,0,0,0,0,0,0,0,-1,1161,1324,0,0
-56,-300,0,0,0,0,0,0,0,0,0,-1,1168,1324,0,0
-49,-300,0,0,0,0,0,0,0,0,0,-1,1175,1324,0,0
-42,-300,0,0,0,0,0,0,0,0,0,-1,1182,1324,0,0
-35,-300,0,0,0,0,0,0,0,0,0,-1,1189,1324,0,0
-28,-300,0,0,0,0,0,0,0,0,0,-1,1196,1324,0,0
-21,-300,0,0,0,0,0,0,0,0,0,-1,1203,1324,0,0
-14,-300,0,0,0,0,0,0,0,0,0,-1,1210,1324,0,0
-7,-300,0,0,0,0,0,0,0,0,0,-1,1217,1324,0,0
0,-300,0,0,0,0,0,0,0,0,0,-1,1224,1324,0,0
7,-300,0,0,0,0,0,0,0,0,0,-1,1231,1324,0,0
14,-300,0,0,0,0,0,0,0,0,0,-1,1238,1324,0,0
21,-300,0,0,0,0,0,0,0,0,0,-1,1245,1324,0,0
28,-300,0,0,0,0,0,0,0,0,0,-1,1252,1324,0,0
35,-300,0,0,0,0,0,0,0,0,0,-1,1259,1324,0,0
42,-300,0,0,0,0,0,0,0,0,0,-1,1266,1324,0,0
49,-300,0,0,0,0,0,0,0,0,0,-1,1273,1324,0,0
56,-300,0,0,0,0,0,0,0,0,0,-1,1280,1324,0,0
63,-300,0,0,0,0,0,0,0,0,0,-1,1287,1324,0,0
70,-300,0,0,0,0,0,0,0,0,0,-1,1294,1324,0,0
77,-300,0,0,0,0,0,0,0,0,0,-1,1301,1324,0,0
84,-300,0,0,0,0,0,0,0,0,0,-1,1308,1324,0,0
91,-300,0,0,0,0,0,0,0,0,0,-1,1315,1324,0,0
98,-300,0,0,0,0,0,0,0,0,0,-1,1322,1324,0,0
105,-300,0,0,0,0,0,0,0,0,0,-1,1329,1324,0,0
112,-300,0,0,0,0,0,0,0,0,0,-1,1336,1324,0,0
119,-300,0,0,0,0,0,0,0,0,0,-1,1343,1324,0,0
126,-300,0,0,0,0,0,0,0,0,0,-1,1350,1324,0,0
133,-300,0,0,0,0,0,0,0,0,0,-1,1357,1324,0,0
140,-300,0,0,0,0,0,0,0,0,0,-1,1364,1324,0,0
147,-300,0,0,0,0,0,0,0,0,0,-1,1371,1324,0,0
154,-300,0,0,0,0,0,0,0,0,0,-1,1378,1324,0,0
161,-300,0,0,0,0,0,0,0,0,0,-1,1385,1324,0,0
168,-300,0,0,0,0,0,0,0,0,0,-1,1392,1324,0,0
175,-300,0,0,0,0,0,0,0,0,0,-1,1399,1324,0,0
182,-300,0,0,0,0,0,0,0,0,0,-1,1406,1324,0,0
189,-300,0,0,0,0,0,0,0,0,0,-1,1413,1324,0,0
196,-300,0,0,0,0,0,0,0,0,0,-1,1420,1324,0,0
203,-300,0,0,0,0,0,0,0,0,0,-1,1427,1324,0,0
210,-300,0,0,0,0,0,0,0,0,0,-1,1434,1324,0,0
217,-300,0,0,0,0,0,0,0,0,0,-1,1441,1324,0,0
224,-300,0,0,0,0,0,0,0,0,0,-1,1448,1324,0,0
231,-300,0,0,0,0,0,0,0,0,0,-1,1455,1324,0,0
238,-300,0,0,0,0,0,0,0,0,0,-1,1462,1324,0,0
245,-300,0,0,0,0,0,0,0,0,0,-1,1469,1324,0,0
252,-300,0,0,0,0,0,0,0,0,0,-1,1476,1324,0,0
259,-300,0,0,0,0,0,0,0,0,0,-1,1483,1324,0,0
266,-300,0,0,0,0,0,0,0,0,0,-1,1490,1324,0,0
273,-300,0,0,0,0,0,0,0,0,0,-1,1497,1324,0,0
280,-300,0,0,0,0,0,0,0,0,0,-1,1504,1324,0,0
287,-300,0,0,0,0,0,0,0,0,0,-1,1511,1324,0,0
294,-300,0,0,0,0,0,0,0,0,0,-1,1518,1324,0,0
301,-300,0,0,0,0,0,0,0,0,0,-1,1525,1324,0,0
308,-300,0,0,0,0,0,0,0,0,0,-1,1532,1324,0,0
315,-300,0,0,0,0,0,0,0,0,0,-1,1539,1324,0,0
322,-300,0,0,0,0,0,0,0,0,0,-1,1546,1324,0,0
329,-300,0,0,0,0,0,0,0,0,0,-1,1553,1324,0,0
336,-300,0,0,0,0,0,0,0,0,0,-1,1560,1324,0,0
343,-300,0,0,0,0,0,0,0,0,0,-1,1567,1324,0,0
350,-300,0,0,0,0,0,0,0,0,0,-1,1574,1324,0,0
357,-300,0,0,0,0,0,0,0,0,0,-1,1581,1324,0,0
364,-300,0,0,0,0,0,0,0,0,0,-1,1588,1324,0,0
371,-300,0,0,0,0,0,0,0,0,0,-1,1595,1324,0,0
378,-300,0,0,0,0,0,0,0,0,0,-1,1602,1324,0,0
385,-300,0,0,0,0,0,0,0,0,0,-1,1609,1324,0,0
392,-300,0,0,0,0,0,0,0,0,0,-1,1616,1324,0,0
399,-300,0,0,0,0,0,0,0,0,0,-1,1623,1324,0,0
406,-300,0,0,0,0,0,0,0,0,0,-1,1630,1324,0,0
413,-300,0,0,0,0,0,0,0,0,0,-1,1637,1324,0,0
420,-300,0,0,0,0,0,0,0,0,0,-1,1644,1324,0,0
427,-300,0,0,0,0,0,0,0,0,0,-1,1651,1324,0,0
434,-300,0,0,0,0,0,0,0,0,0,-1,1658,1324,0,0
441,-300,0,0,0,0,0,0,0,0,0,-1,1665,1324,0,0
448,-300,0,0,0,0,0,0,0,0,0,-1,1672,1324,0,0
455,-300,0,0,0,0,0,0,0,0,0,-1,1679,1324,0,0
462,-300,0,0,0,0,0,0,0,0,0,-1,1686,1324,0,0
469,-300,0,0,0,0,0,0,0,0,0,-1,1693,1324,0,0
476,-300,0,0,0,0,0,0,0,0,0,-1,1700,1324,0,0
483,-300,0,0,0,0,0,0,0,0,0,-1,1707,1324,0,0
490,-300,0,0,0,0,0,0,0,0,0,-1,1714,1324,0,0
497,-300,0,0,0,0,0,0,0,0,0,-1,1721,1324,0,0
504,-300,0,0,0,0,0,0,0,0,0,-1,1728,1324,0,0
511,-300,0,0,0,0,0,0,0,0,0,-1,1735,1324,0,0
518,-300,0,0,0,0,0,0,0,0,0,-1,1742,1324,0,0
525,-300,0,0,0,0,0,0,0,0,0,-1,1749,1324,0,0
532,-300,0,0,0,0,0,0,0,0,0,-1,1756,1324,0,0
539,-300,0,0,0,0,0,0,0,0,0,-1,1763,1324,0,0
546,-300,0,0,0,0,0,0,0,0,0,-1,1770,1324,0,0
553,-300,0,0,0,0,0,0,0,0,0,-1,1777,1324,0,0
560,-300,0,0,0,0,0,0,0,0,0,-1,1784,1324,0,0
567,-300,0,0,0,0,0,0,0,0,0,-1,1791,1324,0,0
574,-300,0,0,0,0,0,0,0,0,0,-1,1798,1324,0,0
581,-300,0,0,0,0,0,0,0,0,0,-1,1805,1324,0,0
588,-300,21.0886,2.99512,0,0,0,0,0,0,0,-1,1812,1324,21.0886,-2.99509
595,-300,21.3047,3.0918,-0.0390474,0.0251807,-0.0360667,0.0413587,-0.0552254,-1.14914,0.0559541,0.0442281,1819,1324,21.3047,-3.09181
602,-300,21.5608,3.00708,-0.0391131,0.0118886,-0.0254414,0.0224094,-0.0496339,-1.17868,0.0425726,0.0466139,1826,1324,21.5608,-3.00703
609,-300,21.4548,2.99414,-0.0357212,0.00346115,-0.0166014,0.00954919,-0.0418092,-1.21931,0.0315415,0.0483919,1833,1324,21.4549,-2.99416
616,-300,21.3058,2.86584,-0.0312984,-0.000610499,-0.0098824,0.00229654,-0.0342055,-1.2847,0.0236064,0.0473279,1840,1324,21.3058,-2.86579
623,-300,21.1049,2.98828,-0.0269393,-0.00251543,-0.00495499,-0.00154847,-0.0279063,-1.37807,0.0181101,0.0441202,1847,1324,21.1048,-2.98828
630,-300,20.9065,3.05835,-0.023099,-0.00311145,-0.00141503,-0.00301177,-0.0231986,-1.50047,0.014566,0.045589,1854,1324,20.9065,-3.0584
637,-300,20.7032,3.1377,0,0,0,0,0,0,0,-1,1861,1324,20.7032,-3.1377
644,-300,18.4546,2.50049,0,0,0,0,0,0,0,-1,1868,1324,18.4546,-2.50053
651,-300,16.8491,5.55066,0,0,0,0,0,0,0,-1,1875,1324,16.8491,-5.55067
658,-300,16.4725,5.94446,-0.0131882,-0.00244593,0.00686821,0.000901965,-0.0165361,1.11724,0.0113367,0.0412451,1882,1324,16.4725,-5.9445
665,-300,16.2782,6.23535,-0.012189,-0.00182226,0.0076342,0.00222194,-0.0162333,1.08363,0.0116338,0.0269431,1889,1324,16.2782,-6.23533
672,-300,16.1609,6.11035,-0.0102864,-0.000986273,0.00708606,0.00283923,-0.0141119,1.07577,0.0104833,0.0101552,1896,1324,16.1608,-6.11037
679,-300,16.1752,5.89685,-0.00790824,0.000128861,0.00582878,0.0031901,-0.0109695,1.0872,0.00857645,0.0106114,1903,1324,16.1751,-5.89684
686,-300,16.1843,5.69238,-0.00582407,-0.00014629,0.00443075,0.00227703,-0.00824738,1.07031,0.00639387,0.01109,1910,1324,16.1843,-5.6924
693,-300,16.1659,5.51514,-0.00409731,-0.000578332,0.0025722,0.00077859,-0.00545423,1.08537,0.00392153,0.0100749,1917,1324,16.1659,-5.51518
700,-300,16.1659,5.32312,-0.00240063,0.000527512,0.000577017,0.000637116,-0.00251023,1.38308,0.0019214,0.0114123,1924,1324,16.1659,-5.32312
707,-300,16.1932,5.12805,-0.00111786,0.00099723,-0.0011442,0.00149776,-0.00161839,-1.15843,0.00179956,0.00923782,1931,1324,16.1932,-5.12806
714,-300,16.1918,4.95776,-4.22033e-05,0.0011824,-0.00284041,0.00347576,-0.00233556,-0.891558,0.00337662,0.0111201,1938,1324,16.1918,-4.95779
721,-300,16.2025,4.76184,0.000736182,0.00105295,-0.00455724,0.00545456,-0.00366543,-0.802768,0.00529909,0.0115875,1945,1324,16.2025,-4.7619
728,-300,16.2103,4.54114,0.00120309,0.000295743,-0.00630109,0.00706682,-0.00556799,-0.749461,0.0073118,0.0103604,1952,1324,16.2104,-4.5411
735,-300,16.1267,4.40332,0.00164803,-0.00135156,-0.00819741,0.00848171,-0.00818525,-0.694919,0.00962318,0.0168628,1959,1324,16.1268,-4.40326
742,-300,16.2268,4.17346,0.0020717,-0.00440992,-0.0102235,0.00955572,-0.0118939,-0.63191,0.0124085,0.0310141,1966,1324,16.2268,-4.17348
749,-300,16.6547,3.17676,0.00231524,-0.00946333,-0.012206,0.00997846,-0.0171266,-0.560627,0.0158294,0.0435894,1973,1324,16.6546,-3.17679
756,-300,16.8783,2.18323,0,0,0,0,0,0,0,-1,1980,1324,16.8782,-2.18318
763,-300,16.283,3.80542,0,0,0,0,0,0,0,-1,1987,1324,16.283,-3.80545
770,-300,16.4082,5.24438,0,0,0,0,0,0,0,-1,1994,1324,16.4082,-5.24439
777,-300,0,0,0,0,0,0,0,0,0,-1,2001,1324,0,0
784,-300,0,0,0,0,0,0,0,0,0,-1,2008,1324,0,0
791,-300,0,0,0,0,0,0,0,0,0,-1,2015,1324,0,0
798,-300,0,0,0,0,0,0,0,0,0,-1,2022,1324,0,0
805,-300,0,0,0,0,0,0,0,0,0,-1,2029,1324,0,0
812,-300,0,0,0,0,0,0,0,0,0,-1,2036,1324,0,0
-700,-307,0,0,0,0,0,0,0,0,0,-1,524,1331,0,0
-693,-307,0,0,0,0,0,0,0,0,0,-1,531,1331,0,0
-686,-307,0,0,0,0,0,0,0,0,0,-1,538,1331,0,0
-679,-307,0,0,0,0,0,0,0,0,0,-1,545,1331,0,0
-672,-307,0,0,0,0,0,0,0,0,0,-1,552,1331,0,0
-665,-307,0,0,0,0,0,0,0,0,0,-1,559,1331,0,0
-658,-307,0,0,0,0,0,0,0,0,0,-1,566,1331,0,0
-651,-307,-5.8573,-1.90747,0.0404521,0.0373068,-0.039565,0.0784757,-0.000716764,-0.765534,0.0525577,0.0489218,573,1331,-5.85731,1.90752
-644,-307,-5.46149,-1.45935,0.0242532,0.0368053,-0.0291769,0.0603735,0.00068498,-0.891336,0.0400226,0.0476491,580,1331,-5.46148,1.45936
-637,-307,-5.48907,-1.27808,0,0,0,0,0,0,0,-1,587,1331,-5.48908,1.27813
-630,-307,-5.82745,-1.40344,0,0,0,0,0,0,0,-1,594,1331,-5.82744,1.4035
-623,-307,-7.97192,-1.55432,0,0,0,0,0,0,0,-1,601,1331,-7.97193,1.55429
-616,-307,-6.81714,1.36853,0,0,0,0,0,0,0,-1,608,1331,-6.81715,-1.36855
-609,-307,-7.63849,0.977051,0,0,0,0,0,0,0,-1,615,1331,-7.63848,-0.977069
-602,-307,-7.50616,1.84619,-0.0112134,0.0140187,0.00218064,0.0142058,-0.0114005,1.48522,0.0148133,0.0341254,622,1331,-7.50616,-1.84619
-595,-307,-7.61847,2.36902,-0.0106844,0.00975609,0.00398648,0.0105061,-0.0114344,1.38484,0.0126711,0.0183192,629,1331,-7.61849,-2.36897
-588,-307,-7.55756,2.63074,-0.00873167,0.00566958,0.00421932,0.00681471,-0.0098768,1.30578,0.00969075,0.0188092,636,1331,-7.55753,-2.63079
-581,-307,-7.56177,2.85693,-0.00543934,0.00309246,0.00270647,0.00387858,-0.00622546,1.28812,0.00588579,0.0162648,643,1331,-7.56174,-2.85687
-574,-307,-7.58698,3.05103,-0.00276425,0.000899579,0.00156279,0.00147561,-0.00334029,1.21765,0.00284909,0.0125646,650,1331,-7.58697,-3.05108
-567,-307,-7.59253,3.27661,-0.00118439,-0.000547006,0.000442809,-0.00032013,-0.00141127,1.09731,0.000854367,0.0125318,657,1331,-7.59256,-3.27664
-560,-307,-7.58636,3.51208,-0.00100497,-0.00167796,-0.00031323,-0.00088175,-0.00180119,-0.374803,0.00103999,0.0134717,664,1331,-7.58639,-3.51212
-553,-307,-7.58655,3.70801,-0.00155366,-0.00342083,-0.000664061,-0.00134157,-0.00363292,-0.309135,0.00212122,0.0103848,671,1331,-7.58653,-3.70802
-546,-307,-7.59814,3.92676,-0.00261043,-0.00589184,-0.000918415,-0.00237087,-0.0061314,-0.255156,0.00357015,0.00968513,678,1331,-7.59816,-3.92678
-539,-307,-7.57916,4.16797,-0.0041355,-0.00930233,-0.00121886,-0.0038624,-0.00957542,-0.220417,0.00556268,0.0121334,685,1331,-7.57918,-4.168
-532,-307,-7.50549,4.31384,-0.0065932,-0.013458,-0.00141083,-0.00631456,-0.0137366,-0.194992,0.00793942,0.0305613,692,1331,-7.50552,-4.31387
-525,-307,-7.55701,4.44788,0,0,0,0,0,0,0,-1,699,1331,-7.55699,-4.44793
-518,-307,-7.9527,4.82043,0,0,0,0,0,0,0,-1,706,1331,-7.95268,-4.8204
-511,-307,-10.0403,1.46973,0,0,0,0,0,0,0,-1,713,1331,-10.0404,-1.46977
-504,-307,-10.8735,1.35242,0,0,0,0,0,0,0,-1,720,1331,-10.8735,-1.35246
-497,-307,-11.6221,0.899536,0,0,0,0,0,0,0,-1,727,1331,-11.622,-0.899478
-490,-307,-12.1544,0.746826,0,0,0,0,0,0,0,-1,734,1331,-12.1544,-0.746824
-483,-307,-12.1621,0.844604,0,0,0,0,0,0,0,-1,741,1331,-12.1621,-0.844565
-476,-307,-12.0628,0.968384,0,0,0,0,0,0,0,-1,748,1331,-12.0628,-0.968434
-469,-307,-11.7548,1.09668,0,0,0,0,0,0,0,-1,755,1331,-11.7548,-1.09665
-462,-307,0,0,0,0,0,0,0,0,0,-1,762,1331,0,0
-455,-307,0,0,0,0,0,0,0,0,0,-1,769,1331,0,0
-448,-307,0,0,0,0,0,0,0,0,0,-1,776,1331,0,0
-441,-307,0,0,0,0,0,0,0,0,0,-1,783,1331,0,0
-434,-307,0,0,0,0,0,0,0,0,0,-1,790,1331,0,0
-427,-307,0,0,0,0,0,0,0,0,0,-1,797,1331,0,0
-420,-307,0,0,0,0,0,0,0,0,0,-1,804,1331,0,0
-413,-307,0,0,0,0,0,0,0,0,0,-1,811,1331,0,0
-406,-307,0,0,0,0,0,0,0,0,0,-1,818,1331,0,0
-399,-307,0,0,0,0,0,0,0,0,0,-1,825,1331,0,0
-392,-307,0,0,0,0,0,0,0,0,0,-1,832,1331,0,0
-385,-307,0,0,0,0,0,0,0,0,0,-1,839,1331,0,0
-378,-307,0,0,0,0,0,0,0,0,0,-1,846,1331,0,0
-371,-307,0,0,0,0,0,0,0,0,0,-1,853,1331,0,0
-364,-307,0,0,0,0,0,0,0,0,0,-1,860,1331,0,0
-357,-307,0,0,0,0,0,0,0,0,0,-1,867,1331,0,0
-350,-307,0,0,0,0,0,0,0,0,0,-1,874,1331,0,0
-343,-307,0,0,0,0,0,0,0,0,0,-1,881,1331,0,0
-336,-307,0,0,0,0,0,0,0,0,0,-1,888,1331,0,0
-329,-307,0,0,0,0,0,0,0,0,0,-1,895,1331,0,0
-322,-307,0,0,0,0,0,0,0,0,0,-1,902,1331,0,0
-315,-307,0,0,0,0,0,0,0,0,0,-1,909,1331,0,0
-308,-307,0,0,0,0,0,0,0,0,0,-1,916,1331,0,0
-301,-307,0,0,0,0,0,0,0,0,0,-1,923,1331,0,0
-294,-307,0,0,0,0,0,0,0,0,0,-1,930,1331,0,0
-287,-307,0,0,0,0,0,0,0,0,0,-1,937,1331,0,0
-280,-307,0,0,0,0,0,0,0,0,0,-1,944,1331,0,0
-273,-307,0,0,0,0,0,0,0,0,0,-1,951,1331,0,0
-266,-307,0,0,0,0,0,0,0,0,0,-1,958,1331,0,0
-259,-307,0,0,0,0,0,0,0,0,0,-1,965,1331,0,0
-252,-307,0,0,0,0,0,0,0,0,0,-1,972,1331,0,0
-245,-307,0,0,0,0,0,0,0,0,0,-1,979,1331,0,0
-238,-307,0,0,0,0,0,0,0,0,0,-1,986,1331,0,0
-231,-307,0,0,0,0,0,0,0,0,0,-1,993,1331,0,0
-224,-307,0,0,0,0,0,0,0,0,0,-1,1000,1331,0,0
-217,-307,0,0,0,0,0,0,0,0,0,-1,1007,1331,0,0
-210,-307,0,0,0,0,0,0,0,0,0,-1,1014,1331,0,0
-203,-307,0,0,0,0,0,0,0,0,0,-1,1021,1331,0,0
-196,-307,0,0,0,0,0,0,0,0,0,-1,1028,1331,0,0
-189,-307,0,0,0,0,0,0,0,0,0,-1,1035,1331,0,0
-182,-307,0,0,0,0,0,0,0,0,0,-1,1042,1331,0,0
-175,-307,0,0,0,0,0,0,0,0,0,-1,1049,1331,0,0
-168,-307,0,0,0,0,0,0,0,0,0,-1,1056,1331,0,0
-161,-307,0,0,0,0,0,0,0,0,0,-1,1063,1331,0,0
-154,-307,0,0,0,0,0,0,0,0,0,-1,1070,1331,0,0
-147,-307,0,0,0,0,0,0,0,0,0,-1,1077,1331,0,0
-140,-307,0,0,0,0,0,0,0,0,0,-1,1084,1331,0,0
-133,-307,0,0,0,0,0,0,0,0,0,-1,1091,1331,0,0
-126,-307,0,0,0,0,0,0,0,0,0,-1,1098,1331,0,0
-119,-307,0,0,0,0,0,0,0,0,0,-1,1105,1331,0,0
-112,-307,0,0,0,0,0,0,0,0,0,-1,1112,1331,0,0
-105,-307,0,0,0,0,0,0,0,0,0,-1,1119,1331,0,0
-98,-307,0,0,0,0,0,0,0,0,0,-1,1126,1331,0,0
-91,-307,0,0,0,0,0,0,0,0,0,-1,1133,1331,0,0
-84,-307,0,0,0,0,0,0,0,0,0,-1,1140,1331,0,0
-77,-307,0,0,0,0,0,0,0,0,0,-1,1147,1331,0,0
-70,-307,0,0,0,0,0,0,0,0,0,-1,1154,1331,0,0
-63,-307,0,0,0,0,0,0,0,0,0,-1,1161,1331,0,0
-56,-307,0,0,0,0,0,0,0,0,0,-1,1168,1331,0,0
-49,-307,0,0,0,0,0,0,0,0,0,-1,1175,1331,0,0
-42,-307,0,0,0,0,0,0,0,0,0,-1,1182,1331,0,0
-35,-307,0,0,0,0,0,0,0,0,0,-1,1189,1331,0,0
-28,-307,0,0,0,0,0,0,0,0,0,-1,1196,1331,0,0
-21,-307,0,0,0,0,0,0,0,0,0,-1,1203,1331,0,0
-14,-307,0,0,0,0,0,0,0,0,0,-1,1210,1331,0,0
-7,-307,0,0,0,0,0,0,0,0,0,-1,1217,1331,0,0
0,-307,0,0,0,0,0,0,0,0,0,-1,1224,1331,0,0
7,-307,0,0,0,0,0,0,0,0,0,-1,1231,1331,0,0
14,-307,0,0,0,0,0,0,0,0,0,-1,1238,1331,0,0
21,-307,0,0,0,0,0,0,0,0,0,-1,1245,1331,0,0
28,-307,0,0,0,0,0,0,0,0,0,-1,1252,1331,0,0
35,-307,0,0,0,0,0,0,0,0,0,-1,1259,1331,0,0
42,-307,0,0,0,0,0,0,0,0,0,-1,1266,1331,0,0
49,-307,0,0,0,0,0,0,0,0,0,-1,1273,1331,0,0
56,-307,0,0,0,0,0,0,0,0,0,-1,1280,1331,0,0
63,-307,0,0,0,0,0,0,0,0,0,-1,1287,1331,0,0
70,-307,0,0,0,0,0,0,0,0,0,-1,1294,1331,0,0
77,-307,0,0,0,0,0,0,0,0,0,-1,1301,1331,0,0
84,-307,0,0,0,0,0,0,0,0,0,-1,1308,1331,0,0
91,-307,0,0,0,0,0,0,0,0,0,-1,1315,1331,0,0
98,-307,0,0,0,0,0,0,0,0,0,-1,1322,1331,0,0
105,-307,0,0,0,0,0,0,0,0,0,-1,1329,1331,0,0
112,-307,0,0,0,0,0,0,0,0,0,-1,1336,1331,0,0
119,-307,0,0,0,0,0,0,0,0,0,-1,1343,1331,0,0
126,-307,0,0,0,0,0,0,0,0,0,-1,1350,1331,0,0
133,-307,0,0,0,0,0,0,0,0,0,-1,1357,1331,0,0
140,-307,0,0,0,0,0,0,0,0,0,-1,1364,1331,0,0
147,-307,0,0,0,0,0,0,0,0,0,-1,1371,1331,0,0
154,-307,0,0,0,0,0,0,0,0,0,-1,1378,1331,0,0
161,-307,0,0,0,0,0,0,0,0,0,-1,1385,1331,0,0
168,-307,0,0,0,0,0,0,0,0,0,-1,1392,1331,0,0
175,-307,0,0,0,0,0,0,0,0,0,-1,1399,1331,0,0
182,-307,0,0,0,0,0,0,0,0,0,-1,1406,1331,0,0
189,-307,0,0,0,0,0,0,0,0,0,-1,1413,1331,0,0
196,-307,0,0,0,0,0,0,0,0,0,-1,1420,1331,0,0
203,-307,0,0,0,0,0,0,0,0,0,-1,1427,1331,0,0
210,-307,0,0,0,0,0,0,0,0,0,-1,1434,1331,0,0
217,-307,0,0,0,0,0,0,0,0,0,-1,1441,1331,0,0
224,-307,0,0,0,0,0,0,0,0,0,-1,1448,1331,0,0
231,-307,0,0,0,0,0,0,0,0,0,-1,1455,1331,0,0
238,-307,0,0,0,0,0,0,0,0,0,-1,1462,1331,0,0
245,-307,0,0,0,0,0,0,0,0,0,-1,1469,1331,0,0
252,-307,0,0,0,0,0,0,0,0,0,-1,1476,1331,0,0
259,-307,0,0,0,0,0,0,0,0,0,-1,1483,1331,0,0
266,-307,0,0,0,0,0,0,0,0,0,-1,1490,1331,0,0
273,-307,0,0,0,0,0,0,0,0,0,-1,1497,1331,0,0
280,-307,0,0,0,0,0,0,0,0,0,-1,1504,1331,0,0
287,-307,0,0,0,0,0,0,0,0,0,-1,1511,1331,0,0
294,-307,0,0,0,0,0,0,0,0,0,-1,1518,1331,0,0
301,-307,0,0,0,0,0,0,0,0,0,-1,1525,1331,0,0
308,-307,0,0,0,0,0,0,0,0,0,-1,1532,1331,0,0
315,-307,0,0,0,0,0,0,0,0,0,-1,1539,1331,0,0
322,-307,0,0,0,0,0,0,0,0,0,-1,1546,1331,0,0
329,-307,0,0,0,0,0,0,0,0,0,-1,1553,1331,0,0
336,-307,0,0,0,0,0,0,0,0,0,-1,1560,1331,0,0
343,-307,0,0,0,0,0,0,0,0,0,-1,1567,1331,0,0
350,-307,0,0,0,0,0,0,0,0,0,-1,1574,1331,0,0
357,-307,0,0,0,0,0,0,0,0,0,-1,1581,1331,0,0
364,-307,0,0,0,0,0,0,0,0,0,-1,1588,1331,0,0
371,-307,0,0,0,0,0,0,0,0,0,-1,1595,1331,0,0
378,-307,0,0,0,0,0,0,0,0,0,-1,1602,1331,0,0
385,-307,0,0,0,0,0,0,0,0,0,-1,1609,1331,0,0
392,-307,0,0,0,0,0,0,0,0,0,-1,1616,1331,0,0
399,-307,0,0,0,0,0,0,0,0,0,-1,1623,1331,0,0
406,-307,0,0,0,0,0,0,0,0,0,-1,1630,1331,0,0
413,-307,0,0,0,0,0,0,0,0,0,-1,1637,1331,0,0
420,-307,0,0,0,0,0,0,0,0,0,-1,1644,1331,0,0
427,-307,0,0,0,0,0,0,0,0,0,-1,1651,1331,0,0
434,-307,0,0,0,0,0,0,0,0,0,-1,1658,1331,0,0
441,-307,0,0,0,0,0,0,0,0,0,-1,1665,1331,0,0
448,-307,0,0,0,0,0,0,0,0,0,-1,1672,1331,0,0
455,-307,0,0,0,0,0,0,0,0,0,-1,1679,1331,0,0
462,-307,0,0,0,0,0,0,0,0,0,-1,1686,1331,0,0
469,-307,0,0,0,0,0,0,0,0,0,-1,1693,1331,0,0
476,-307,0,0,0,0,0,0,0,0,0,-1,1700,1331,0,0
483,-307,0,0,0,0,0,0,0,0,0,-1,1707,1331,0,0
490,-307,0,0,0,0,0,0,0,0,0,-1,1714,1331,0,0
497,-307,0,0,0,0,0,0,0,0,0,-1,1721,1331,0,0
504,-307,0,0,0,0,0,0,0,0,0,-1,1728,1331,0,0
511,-307,0,0,0,0,0,0,0,0,0,-1,1735,1331,0,0
518,-307,0,0,0,0,0,0,0,0,0,-1,1742,1331,0,0
525,-307,0,0,0,0,0,0,0,0,0,-1,1749,1331,0,0
532,-307,0,0,0,0,0,0,0,0,0,-1,1756,1331,0,0
539,-307,0,0,0,0,0,0,0,0,0,-1,1763,1331,0,0
546,-307,0,0,0,0,0,0,0,0,0,-1,1770,1331,0,0
553,-307,0,0,0,0,0,0,0,0,0,-1,1777,1331,0,0
560,-307,0,0,0,0,0,0,0,0,0,-1,1784,1331,0,0
567,-307,0,0,0,0,0,0,0,0,0,-1,1791,1331,0,0
574,-307,0,0,0,0,0,0,0,0,0,-1,1798,1331,0,0
581,-307,0,0,0,0,0,0,0,0,0,-1,1805,1331,0,0
588,-307,23.7361,-1.1394,0,0,0,0,0,0,0,-1,1812,1331,23.736,1.13945
595,-307,21.3293,3.14148,0,0,0,0,0,0,0,-1,1819,1331,21.3293,-3.14151
602,-307,21.8287,3.03296,-0.048306,0.0161583,-0.0269748,0.0259566,-0.0581042,-1.22238,0.0497015,0.0484592,1826,1331,21.8287,-3.03301
609,-307,21.7905,2.99817,-0.0410513,0.00677813,-0.01776,0.0126515,-0.0469246,-1.25141,0.0362439,0.049005,1833,1331,21.7905,-2.99817
616,-307,21.476,3.01086,-0.0345999,0.00149871,-0.0108782,0.00452339,-0.0376246,-1.2996,0.0267188,0.0446512,1840,1331,21.4759,-3.0109
623,-307,21.1647,3.40515,-0.0290869,-0.00147444,-0.00580078,-0.000305322,-0.030256,-1.37192,0.0200697,0.0452128,1847,1331,21.1647,-3.40515
630,-307,20.856,3.81055,0,0,0,0,0,0,0,-1,1854,1331,20.856,-3.81049
637,-307,16.6766,1.98096,0,0,0,0,0,0,0,-1,1861,1331,16.6766,-1.98096
644,-307,16.6293,5.94641,0,0,0,0,0,0,0,-1,1868,1331,16.6293,-5.94645
651,-307,16.4634,5.76978,0,0,0,0,0,0,0,-1,1875,1331,16.4634,-5.76982
658,-307,16.2351,6.00049,-0.0130758,-0.00360297,0.00707836,0.000177466,-0.0168562,1.08026,0.0112971,0.0464686,1882,1331,16.2351,-6.00047
665,-307,16.0153,6.2572,-0.0118863,-0.00295586,0.00764522,0.00143261,-0.0162747,1.0497,0.0113575,0.0167304,1889,1331,16.0152,-6.25725
672,-307,15.9885,6.08911,-0.00973844,-0.00182094,0.00686591,0.00214573,-0.0137051,1.04691,0.00992958,0.00835748,1896,1331,15.9886,-6.08917
679,-307,15.9911,5.90564,-0.00724392,-0.000330306,0.00537066,0.00259986,-0.0101741,1.07135,0.00779523,0.00939403,1903,1331,15.9911,-5.9057
686,-307,15.9949,5.71948,-0.00519797,-0.000239033,0.00383821,0.00185092,-0.00728792,1.07218,0.00557889,0.00931174,1910,1331,15.9949,-5.71943
693,-307,15.9702,5.52991,-0.00351341,-0.000199795,0.00193092,0.000687694,-0.0044009,1.13997,0.00318799,0.0110789,1917,1331,15.9703,-5.52988
700,-307,15.9794,5.31543,-0.00196696,0.000898473,-8.54183e-05,0.000901017,-0.00196951,-1.54102,0.00169514,0.012056,1924,1331,15.9793,-5.31541
707,-307,15.9818,5.12598,-0.000920392,0.0012193,-0.00177445,0.00222147,-0.00192256,-1.05668,0.00239463,0.0140452,1931,1331,15.9818,-5.12594
714,-307,15.9958,4.95557,-0.000174712,0.00123169,-0.00335625,0.00395761,-0.00290063,-0.888665,0.00397526,0.0133556,1938,1331,15.9959,-4.95557
721,-307,16.0175,4.77087,0.000270074,0.00100571,-0.00496264,0.00561415,-0.00433836,-0.822389,0.0057618,0.0146279,1945,1331,16.0174,-4.77082
728,-307,15.9777,4.61206,0.000357805,-2.72025e-05,-0.00658363,0.00675174,-0.00642114,-0.770782,0.00760616,0.0199016,1952,1331,15.9777,-4.61205
735,-307,15.7783,4.33728,0.000345066,-0.0020994,-0.00828188,0.00749441,-0.00924875,-0.712137,0.00968434,0.0297734,1959,1331,15.7783,-4.33723
742,-307,15.939,3.85498,0.00018168,-0.00574389,-0.00993741,0.00758857,-0.0131508,-0.640521,0.0121166,0.0402379,1966,1331,15.9389,-3.85499
749,-307,16.2932,3.58044,0,0,0,0,0,0,0,-1,1973,1331,16.2932,-3.58047
756,-307,15.7102,1.13855,0,0,0,0,0,0,0,-1,1980,1331,15.7102,-1.13861
763,-307,15.9595,0.872192,0,0,0,0,0,0,0,-1,1987,1331,15.9595,-0.872226
770,-307,0,0,0,0,0,0,0,0,0,-1,1994,1331,0,0
777,-307,0,0,0,0,0,0,0,0,0,-1,2001,1331,0,0
784,-307,0,0,0,0,0,0,0,0,0,-1,2008,1331,0,0
791,-307,0,0,0,0,0,0,0,0,0,-1,2015,1331,0,0
798,-307,0,0,0,0,0,0,0,0,0,-1,2022,1331,0,0
805,-307,0,0,0,0,0,0,0,0,0,-1,2029,1331,0,0
812,-307,0,0,0,0,0,0,0,0,0,-1,2036,1331,0,0
-700,-314,0,0,0,0,0,0,0,0,0,-1,524,1338,0,0
-693,-314,0,0,0,0,0,0,0,0,0,-1,531,1338,0,0
-686,-314,0,0,0,0,0,0,0,0,0,-1,538,1338,0,0
-679,-314,0,0,0,0,0,0,0,0,0,-1,545,1338,0,0
-672,-314,0,0,0,0,0,0,0,0,0,-1,552,1338,0,0
-665,-314,0,0,0,0,0,0,0,0,0,-1,559,1338,0,0
-658,-314,0,0,0,0,0,0,0,0,0,-1,566,1338,0,0
-651,-314,0,0,0,0,0,0,0,0,0,-1,573,1338,0,0
-644,-314,-4.50452,-1.47278,0,0,0,0,0,0,0,-1,580,1338,-4.5045,1.47274
-637,-314,-9.09314,-2.27856,0,0,0,0,0,0,0,-1,587,1338,-9.09315,2.27856
-630,-314,-8.11432,-2.39502,0,0,0,0,0,0,0,-1,594,1338,-8.11431,2.39496
-623,-314,-7.46765,-2.31409,0,0,0,0,0,0,0,-1,601,1338,-7.46764,2.31411
-616,-314,-7.1792,-1.82483,0,0,0,0,0,0,0,-1,608,1338,-7.17923,1.82483
-609,-314,-7.46069,0.594971,0,0,0,0,0,0,0,-1,615,1338,-7.46072,-0.594914
-602,-314,-7.27545,1.63367,-0.0107929,0.0133051,0.0012495,0.0133697,-0.0108575,1.51913,0.0140127,0.0427362,622,1338,-7.27542,-1.63363
-595,-314,-7.25128,2.38892,-0.0110918,0.00926567,0.0033835,0.00981329,-0.0116394,1.41034,0.0124007,0.0343737,629,1338,-7.25128,-2.3889
-588,-314,-7.35193,2.60059,-0.00949331,0.00523378,0.00381931,0.00616535,-0.0104249,1.33156,0.00968304,0.016561,636,1338,-7.35194,-2.60064
-581,-314,-7.34363,2.83691,-0.00628026,0.00283452,0.00234595,0.00340288,-0.00684862,1.3331,0.00602912,0.013028,643,1338,-7.34365,-2.83687
-574,-314,-7.37592,3.02625,-0.00363506,0.000875486,0.0012896,0.00121816,-0.00397773,1.31108,0.00313771,0.0118761,650,1338,-7.37592,-3.02623
-567,-314,-7.36743,3.27051,-0.00196201,-0.000296992,0.000275413,-0.000252618,-0.00200638,1.41105,0.00126184,0.0128611,657,1338,-7.3674,-3.27045
-560,-314,-7.35071,3.50073,-0.00153546,-0.0011407,-0.000418822,-0.00087508,-0.00180108,-1.0056,0.00103999,0.0143367,664,1338,-7.35073,-3.50073
-553,-314,-7.37799,3.68481,-0.00191912,-0.00267979,-0.000707167,-0.00149649,-0.00310241,-0.538673,0.00179155,0.0165581,671,1338,-7.37798,-3.68478
-546,-314,-7.39337,3.90869,-0.00278457,-0.00479242,-0.000971484,-0.00239149,-0.00518551,-0.384489,0.00299686,0.0172672,678,1338,-7.39335,-3.90875
-539,-314,-7.35535,4.16125,-0.00422667,-0.00775089,-0.0012498,-0.00382845,-0.00814911,-0.308459,0.00470775,0.0164384,685,1338,-7.35536,-4.1613
-532,-314,-7.21106,4.40002,-0.00667027,-0.0115995,-0.00145224,-0.00627424,-0.0119956,-0.266232,0.0069281,0.0271878,692,1338,-7.21109,-4.4
-525,-314,-7.46887,4.5636,-0.0100418,-0.0167397,-0.00173938,-0.00961708,-0.0171644,-0.239518,0.00993388,0.0468541,699,1338,-7.46887,-4.56361
-518,-314,-7.56195,4.69238,0,0,0,0,0,0,0,-1,706,1338,-7.56196,-4.69239
-511,-314,-8.3006,4.29333,0,0,0,0,0,0,0,-1,713,1338,-8.30059,-4.29331
-504,-314,-9.03497,1.86768,0,0,0,0,0,0,0,-1,720,1338,-9.03499,-1.86769
-497,-314,-8.85968,1.75073,0,0,0,0,0,0,0,-1,727,1338,-8.85967,-1.7507
-490,-314,-12.5026,0.903076,0,0,0,0,0,0,0,-1,734,1338,-12.5026,-0.903039
-483,-314,-12.4792,1.22522,0,0,0,0,0,0,0,-1,741,1338,-12.4792,-1.22516
-476,-314,-12.2401,1.52991,0,0,0,0,0,0,0,-1,748,1338,-12.2401,-1.52988
-469,-314,-12.0811,1.89783,0,0,0,0,0,0,0,-1,755,1338,-12.0811,-1.89787
-462,-314,0,0,0,0,0,0,0,0,0,-1,762,1338,0,0
-455,-314,0,0,0,0,0,0,0,0,0,-1,769,1338,0,0
-448,-314,0,0,0,0,0,0,0,0,0,-1,776,1338,0,0
-441,-314,0,0,0,0,0,0,0,0,0,-1,783,1338,0,0
-434,-314,0,0,0,0,0,0,0,0,0,-1,790,1338,0,0
-427,-314,0,0,0,0,0,0,0,0,0,-1,797,1338,0,0
-420,-314,0,0,0,0,0,0,0,0,0,-1,804,1338,0,0
-413,-314,0,0,0,0,0,0,0,0,0,-1,811,1338,0,0
-406,-314,0,0,0,0,0,0,0,0,0,-1,818,1338,0,0
-399,-314,0,0,0,0,0,0,0,0,0,-1,825,1338,0,0
-392,-314,0,0,0,0,0,0,0,0,0,-1,832,1338,0,0
-385,-314,0,0,0,0,0,0,0,0,0,-1,839,1338,0,0
-378,-314,0,0,0,0,0,0,0,0,0,-1,846,1338,0,0
-371,-314,0,0,0,0,0,0,0,0,0,-1,853,1338,0,0
-364,-314,0,0,0,0,0,0,0,0,0,-1,860,1338,0,0
-357,-314,0,0,0,0,0,0,0,0,0,-1,867,1338,0,0
-350,-314,0,0,0,0,0,0,0,0,0,-1,874,1338,0,0
-343,-314,0,0,0,0,0,0,0,0,0,-1,881,1338,0,0
-336,-314,0,0,0,0,0,0,0,0,0,-1,888,1338,0,0
-329,-314,0,0,0,0,0,0,0,0,0,-1,895,1338,0,0
-322,-314,0,0,0,0,0,0,0,0,0,-1,902,1338,0,0
-315,-314,0,0,0,0,0,0,0,0,0,-1,909,1338,0,0
-308,-314,0,0,0,0,0,0,0,0,0,-1,916,1338,0,0
-301,-314,0,0,0,0,0,0,0,0,0,-1,923,1338,0,0
-294,-314,0,0,0,0,0,0,0,0,0,-1,930,1338,0,0
-287,-314,0,0,0,0,0,0,0,0,0,-1,937,1338,0,0
-280,-314,0,0,0,0,0,0,0,0,0,-1,944,1338,0,0
-273,-314,0,0,0,0,0,0,0,0,0,-1,951,1338,0,0
-266,-314,0,0,0,0,0,0,0,0,0,-1,958,1338,0,0
-259,-314,0,0,0,0,0,0,0,0,0,-1,965,1338,0,0
-252,-314,0,0,0,0,0,0,0,0,0,-1,972,1338,0,0
-245,-314,0,0,0,0,0,0,0,0,0,-1,979,1338,0,0
-238,-314,0,0,0,0,0,0,0,0,0,-1,986,1338,0,0
-231,-314,0,0,0,0,0,0,0,0,0,-1,993,1338,0,0
-224,-314,0,0,0,0,0,0,0,0,0,-1,1000,1338,0,0
-217,-314,0,0,0,0,0,0,0,0,0,-1,1007,1338,0,0
-210,-314,0,0,0,0,0,0,0,0,0,-1,1014,1338,0,0
-203,-314,0,0,0,0,0,0,0,0,0,-1,1021,1338,0,0
-196,-314,0,0,0,0,0,0,0,0,0,-1,1028,1338,0,0
-189,-314,0,0,0,0,0,0,0,0,0,-1,1035,1338,0,0
-182,-314,0,0,0,0,0,0,0,0,0,-1,1042,1338,0,0
-175,-314,0,0,0,0,0,0,0,0,0,-1,1049,1338,0,0
-168,-314,0,0,0,0,0,0,0,0,0,-1,1056,1338,0,0
-161,-314,0,0,0,0,0,0,0,0,0,-1,1063,1338,0,0
-154,-314,0,0,0,0,0,0,0,0,0,-1,1070,1338,0,0
-147,-314,0,0,0,0,0,0,0,0,0,-1,1077,1338,0,0
-140,-314,0,0,0,0,0,0,0,0,0,-1,1084,1338,0,0
-133,-314,0,0,0,0,0,0,0,0,0,-1,1091,1338,0,0
-126,-314,0,0,0,0,0,0,0,0,0,-1,1098,1338,0,0
-119,-314,0,0,0,0,0,0,0,0,0,-1,1105,1338,0,0
-112,-314,0,0,0,0,0,0,0,0,0,-1,1112,1338,0,0
-105,-314,0,0,0,0,0,0,0,0,0,-1,1119,1338,0,0
-98,-314,0,0,0,0,0,0,0,0,0,-1,1126,1338,0,0
-91,-314,0,0,0,0,0,0,0,0,0,-1,1133,1338,0,0
-84,-314,0,0,0,0,0,0,0,0,0,-1,1140,1338,0,0
-77,-314,0,0,0,0,0,0,0,0,0,-1,1147,1338,0,0
-70,-314,0,0,0,0,0,0,0,0,0,-1,1154,1338,0,0
-63,-314,0,0,0,0,0,0,0,0,0,-1,1161,1338,0,0
-56,-314,0,0,0,0,0,0,0,0,0,-1,1168,1338,0,0
-49,-314,0,0,0,0,0,0,0,0,0,-1,1175,1338,0,0
-42,-314,0,0,0,0,0,0,0,0,0,-1,1182,1338,0,0
-35,-314,0,0,0,0,0,0,0,0,0,-1,1189,1338,0,0
-28,-314,0,0,0,0,0,0,0,0,0,-1,1196,1338,0,0
-21,-314,0,0,0,0,0,0,0,0,0,-1,1203,1338,0,0
-14,-314,0,0,0,0,0,0,0,0,0,-1,1210,1338,0,0
-7,-314,0,0,0,0,0,0,0,0,0,-1,1217,1338,0,0
0,-314,0,0,0,0,0,0,0,0,0,-1,1224,1338,0,0
7,-314,0,0,0,0,0,0,0,0,0,-1,1231,1338,0,0
14,-314,0,0,0,0,0,0,0,0,0,-1,1238,1338,0,0
21,-314,0,0,0,0,0,0,0,0,0,-1,1245,1338,0,0
28,-314,0,0,0,0,0,0,0,0,0,-1,1252,1338,0,0
35,-314,0,0,0,0,0,0,0,0,0,-1,1259,1338,0,0
42,-314,0,0,0,0,0,0,0,0,0,-1,1266,1338,0,0
49,-314,0,0,0,0,0,0,0,0,0,-1,1273,1338,0,0
56,-314,0,0,0,0,0,0,0,0,0,-1,1280,1338,0,0
63,-314,0,0,0,0,0,0,0,0,0,-1,1287,1338,0,0
70,-314,0,0,0,0,0,0,0,0,0,-1,1294,1338,0,0
77,-314,0,0,0,0,0,0,0,0,0,-1,1301,1338,0,0
84,-314,0,0,0,0,0,0,0,0,0,-1,1308,1338,0,0
91,-314,0,0,0,0,0,0,0,0,0,-1,1315,1338,0,0
98,-314,0,0,0,0,0,0,0,0,0,-1,1322,1338,0,0
105,-314,0,0,0,0,0,0,0,0,0,-1,1329,1338,0,0
112,-314,0,0,0,0,0,0,0,0,0,-1,1336,1338,0,0
119,-314,0,0,0,0,0,0,0,0,0,-1,1343,1338,0,0
126,-314,0,0,0,0,0,0,0,0,0,-1,1350,1338,0,0
133,-314,0,0,0,0,0,0,0,0,0,-1,1357,1338,0,0
140,-314,0,0,0,0,0,0,0,0,0,-1,1364,1338,0,0
147,-314,0,0,0,0,0,0,0,0,0,-1,1371,1338,0,0
154,-314,0,0,0,0,0,0,0,0,0,-1,1378,1338,0,0
161,-314,0,0,0,0,0,0,0,0,0,-1,1385,1338,0,0
168,-314,0,0,0,0,0,0,0,0,0,-1,1392,1338,0,0
175,-314,0,0,0,0,0,0,0,0,0,-1,1399,1338,0,0
182,-314,0,0,0,0,0,0,0,0,0,-1,1406,1338,0,0
189,-314,0,0,0,0,0,0,0,0,0,-1,1413,1338,0,0
196,-314,0,0,0,0,0,0,0,0,0,-1,1420,1338,0,0
203,-314,0,0,0,0,0,0,0,0,0,-1,1427,1338,0,0
210,-314,0,0,0,0,0,0,0,0,0,-1,1434,1338,0,0
217,-314,0,0,0,0,0,0,0,0,0,-1,1441,1338,0,0
224,-314,0,0,0,0,0,0,0,0,0,-1,1448,1338,0,0
231,-314,0,0,0,0,0,0,0,0,0,-1,1455,1338,0,0
238,-314,0,0,0,0,0,0,0,0,0,-1,1462,1338,0,0
245,-314,0,0,0,0,0,0,0,0,0,-1,1469,1338,0,0
252,-314,0,0,0,0,0,0,0,0,0,-1,1476,1338,0,0
259,-314,0,0,0,0,0,0,0,0,0,-1,1483,1338,0,0
266,-314,0,0,0,0,0,0,0,0,0,-1,1490,1338,0,0
273,-314,0,0,0,0,0,0,0,0,0,-1,1497,1338,0,0
280,-314,0,0,0,0,0,0,0,0,0,-1,1504,1338,0,0
287,-314,0,0,0,0,0,0,0,0,0,-1,1511,1338,0,0
294,-314,0,0,0,0,0,0,0,0,0,-1,1518,1338,0,0
301,-314,0,0,0,0,0,0,0,0,0,-1,1525,1338,0,0
308,-314,0,0,0,0,0,0,0,0,0,-1,1532,1338,0,0
315,-314,0,0,0,0,0,0,0,0,0,-1,1539,1338,0,0
322,-314,0,0,0,0,0,0,0,0,0,-1,1546,1338,0,0
329,-314,0,0,0,0,0,0,0,0,0,-1,1553,1338,0,0
336,-314,0,0,0,0,0,0,0,0,0,-1,1560,1338,0,0
343,-314,0,0,0,0,0,0,0,0,0,-1,1567,1338,0,0
350,-314,0,0,0,0,0,0,0,0,0,-1,1574,1338,0,0
357,-314,0,0,0,0,0,0,0,0,0,-1,1581,1338,0,0
364,-314,0,0,0,0,0,0,0,0,0,-1,1588,1338,0,0
371,-314,0,0,0,0,0,0,0,0,0,-1,1595,1338,0,0
378,-314,0,0,0,0,0,0,0,0,0,-1,1602,1338,0,0
385,-314,0,0,0,0,0,0,0,0,0,-1,1609,1338,0,0
392,-314,0,0,0,0,0,0,0,0,0,-1,1616,1338,0,0
399,-314,0,0,0,0,0,0,0,0,0,-1,1623,1338,0,0
406,-314,0,0,0,0,0,0,0,0,0,-1,1630,1338,0,0
413,-314,0,0,0,0,0,0,0,0,0,-1,1637,1338,0,0
420,-314,0,0,0,0,0,0,0,0,0,-1,1644,1338,0,0
427,-314,0,0,0,0,0,0,0,0,0,-1,1651,1338,0,0
434,-314,0,0,0,0,0,0,0,0,0,-1,1658,1338,0,0
441,-314,0,0,0,0,0,0,0,0,0,-1,1665,1338,0,0
448,-314,0,0,0,0,0,0,0,0,0,-1,1672,1338,0,0
455,-314,0,0,0,0,0,0,0,0,0,-1,1679,1338,0,0
462,-314,0,0,0,0,0,0,0,0,0,-1,1686,1338,0,0
469,-314,0,0,0,0,0,0,0,0,0,-1,1693,1338,0,0
476,-314,0,0,0,0,0,0,0,0,0,-1,1700,1338,0,0
483,-314,0,0,0,0,0,0,0,0,0,-1,1707,1338,0,0
490,-314,0,0,0,0,0,0,0,0,0,-1,1714,1338,0,0
497,-314,0,0,0,0,0,0,0,0,0,-1,1721,1338,0,0
504,-314,0,0,0,0,0,0,0,0,0,-1,1728,1338,0,0
511,-314,0,0,0,0,0,0,0,0,0,-1,1735,1338,0,0
518,-314,0,0,0,0,0,0,0,0,0,-1,1742,1338,0,0
525,-314,0,0,0,0,0,0,0,0,0,-1,1749,1338,0,0
532,-314,0,0,0,0,0,0,0,0,0,-1,1756,1338,0,0
539,-314,0,0,0,0,0,0,0,0,0,-1,1763,1338,0,0
546,-314,0,0,0,0,0,0,0,0,0,-1,1770,1338,0,0
553,-314,0,0,0,0,0,0,0,0,0,-1,1777,1338,0,0
560,-314,0,0,0,0,0,0,0,0,0,-1,1784,1338,0,0
567,-314,0,0,0,0,0,0,0,0,0,-1,1791,1338,0,0
574,-314,0,0,0,0,0,0,0,0,0,-1,1798,1338,0,0
581,-314,23.7174,3.40051,0,0,0,0,0,0,0,-1,1805,1338,23.7175,-3.40046
588,-314,24.1453,3.35498,0,0,0,0,0,0,0,-1,1812,1338,24.1453,-3.35503
595,-314,23.1349,3.28357,0,0,0,0,0,0,0,-1,1819,1338,23.1349,-3.28358
602,-314,22.0966,3.03711,0,0,0,0,0,0,0,-1,1826,1338,22.0966,-3.03709
609,-314,22.0431,2.89026,0,0,0,0,0,0,0,-1,1833,1338,22.0431,-2.89024
616,-314,21.7076,3.18762,0,0,0,0,0,0,0,-1,1840,1338,21.7076,-3.18763
623,-314,21.4678,4.05579,-0.0295327,-9.94984e-05,-0.00498994,0.000723459,-0.0303557,-1.40734,0.0204825,0.0452585,1847,1338,21.4678,-4.05579
630,-314,21.0339,5.38782,0,0,0,0,0,0,0,-1,1854,1338,21.034,-5.38786
637,-314,20.4666,6.4209,0,0,0,0,0,0,0,-1,1861,1338,20.4666,-6.42087
644,-314,17.0294,5.60413,0,0,0,0,0,0,0,-1,1868,1338,17.0295,-5.60408
651,-314,16.1322,6.03735,0,0,0,0,0,0,0,-1,1875,1338,16.1323,-6.0373
658,-314,15.9956,6.20361,-0.0126417,-0.00468242,0.00738475,-0.000273263,-0.0170509,1.03254,0.0112773,0.0378517,1882,1338,15.9955,-6.20363
665,-314,15.7994,6.28687,-0.0112777,-0.00409348,0.00748518,0.000616884,-0.0159881,1.00912,0.0108702,0.0150167,1889,1338,15.7995,-6.28688
672,-314,15.8143,6.10388,-0.00895158,-0.00265406,0.00641269,0.00134122,-0.0129469,1.01362,0.00911127,0.0109521,1896,1338,15.8144,-6.10384
679,-314,15.8247,5.91614,-0.00641688,-0.000821961,0.00472376,0.00187054,-0.00910939,1.05273,0.00678296,0.00947121,1903,1338,15.8247,-5.91612
686,-314,15.821,5.72253,-0.00443199,-0.000333434,0.00310614,0.00133853,-0.00610396,1.077,0.00458114,0.0115141,1910,1338,15.821,-5.72248
693,-314,15.8008,5.52991,-0.00282657,0.000104187,0.00121314,0.000541185,-0.00326356,1.22504,0.00237673,0.0117441,1917,1338,15.8008,-5.52986
700,-314,15.7875,5.31909,-0.0014782,0.00114506,-0.000784154,0.00136159,-0.00169473,-1.30138,0.00176806,0.0122938,1924,1338,15.7875,-5.31911
707,-314,15.7882,5.1355,-0.000694498,0.00129476,-0.00243398,0.00292949,-0.00232923,-0.979366,0.00304271,0.0128216,1931,1338,15.7882,-5.13546
714,-314,15.7939,4.95654,-0.000319019,0.00112356,-0.00391123,0.00437946,-0.00357492,-0.876581,0.00460028,0.0113076,1938,1338,15.7939,-4.9565
721,-314,15.8315,4.77197,-0.000229166,0.000726768,-0.00546043,0.00573011,-0.00523251,-0.829053,0.00633144,0.0157621,1945,1338,15.8316,-4.77191
728,-314,15.7235,4.63269,-0.000490031,-0.000555257,-0.00699853,0.00647596,-0.00752125,-0.783068,0.0080888,0.0292881,1952,1338,15.7235,-4.63264
735,-314,15.5148,4.22278,-0.000941115,-0.00308795,-0.00854959,0.00660218,-0.0106312,-0.722949,0.01004,0.0388199,1959,1338,15.5148,-4.22282
742,-314,15.5776,3.44104,0,0,0,0,0,0,0,-1,1966,1338,15.5776,-3.44107
749,-314,15.1407,2.22571,0,0,0,0,0,0,0,-1,1973,1338,15.1408,-2.22572
756,-314,15.1295,1.7749,-0.00442215,-0.0226892,-0.0104498,0.000323101,-0.0274344,-0.426257,0.0183982,0.0427543,1980,1338,15.1295,-1.77489
763,-314,14.9117,1.84119,-0.00645173,-0.0346022,-0.00877731,-0.00393922,-0.0371147,-0.278796,0.0235402,0.0432413,1987,1338,14.9117,-1.84114
770,-314,0,0,0,0,0,0,0,0,0,-1,1994,1338,0,0
777,-314,0,0,0,0,0,0,0,0,0,-1,2001,1338,0,0
784,-314,0,0,0,0,0,0,0,0,0,-1,2008,1338,0,0
791,-314,0,0,0,0,0,0,0,0,0,-1,2015,1338,0,0
798,-314,0,0,0,0,0,0,0,0,0,-1,2022,1338,0,0
805,-314,0,0,0,0,0,0,0,0,0,-1,2029,1338,0,0
812,-314,0,0,0,0,0,0,0,0,0,-1,2036,1338,0,0
-700,-321,0,0,0,0,0,0,0,0,0,-1,524,1345,0,0
-693,-321,0,0,0,0,0,0,0,0,0,-1,531,1345,0,0
-686,-321,0,0,0,0,0,0,0,0,0,-1,538,1345,0,0
-679,-321,0,0,0,0,0,0,0,0,0,-1,545,1345,0,0
-672,-321,0,0,0,0,0,0,0,0,0,-1,552,1345,0,0
-665,-321,0,0,0,0,0,0,0,0,0,-1,559,1345,0,0
-658,-321,0,0,0,0,0,0,0,0,0,-1,566,1345,0,0
-651,-321,0,0,0,0,0,0,0,0,0,-1,573,1345,0,0
-644,-321,4.85052,-1.42529,0,0,0,0,0,0,0,-1,580,1345,4.85055,1.42532
-637,-321,-8.53326,-2.83118,0,0,0,0,0,0,0,-1,587,1345,-8.53328,2.83112
-630,-321,-7.47247,-2.90381,0,0,0,0,0,0,0,-1,594,1345,-7.4725,2.90376
-623,-321,-6.41174,-2.97644,0,0,0,0,0,0,0,-1,601,1345,-6.41172,2.9764
-616,-321,-6.99188,-3.29089,0,0,0,0,0,0,0,-1,608,1345,-6.9919,3.29088
-609,-321,-7.2146,0.772339,0,0,0,0,0,0,0,-1,615,1345,-7.21457,-0.772307
-602,-321,-7.07196,1.2489,0,0,0,0,0,0,0,-1,622,1345,-7.07194,-1.24888
-595,-321,-7.26099,2.23035,0,0,0,0,0,0,0,-1,629,1345,-7.26101,-2.2303
-588,-321,-7.15576,2.53333,-0.0100351,0.00482643,0.00363537,0.00566804,-0.0108767,1.3433,0.00970863,0.0191418,636,1345,-7.15577,-2.53336
-581,-321,-7.14758,2.83496,-0.0069129,0.0026825,0.00216469,0.00314824,-0.00737864,1.35887,0.00623914,0.0123086,643,1345,-7.14756,-2.83495
-574,-321,-7.15985,3.02759,-0.00432659,0.000928344,0.00113067,0.00116129,-0.00455954,1.36761,0.00349176,0.0143657,650,1345,-7.15982,-3.02759
-567,-321,-7.15649,3.2312,-0.00257461,-5.11653e-05,0.000177666,-3.87178e-05,-0.00258705,1.50085,0.00171194,0.0204714,657,1345,-7.15648,-3.23118
-560,-321,-7.16736,3.48718,-0.00184109,-0.000716063,-0.000520378,-0.000512277,-0.00204488,-1.19754,0.00122862,0.024339,664,1345,-7.16738,-3.48716
-553,-321,-7.18164,3.68127,-0.00190602,-0.00200507,-0.000886581,-0.00106758,-0.00284351,-0.757495,0.00165859,0.0249761,671,1345,-7.18166,-3.68125
-546,-321,-7.18616,3.91809,-0.0024005,-0.00366788,-0.00128704,-0.00159961,-0.00446877,-0.556639,0.00261452,0.025343,678,1345,-7.18616,-3.91805
-539,-321,-7.15973,4.13965,-0.00351067,-0.0058822,-0.00174538,-0.00258637,-0.0068065,-0.487025,0.00396729,0.023428,685,1345,-7.15975,-4.13962
-532,-321,-7.05011,4.39539,-0.00559082,-0.00897496,-0.00221559,-0.00449507,-0.0100707,-0.45929,0.00582547,0.0181434,692,1345,-7.05008,-4.39542
-525,-321,-7.08087,4.7323,-0.00880382,-0.0131893,-0.00287098,-0.00738399,-0.0146091,-0.459275,0.00843474,0.0340798,699,1345,-7.08085,-4.73229
-518,-321,-7.1781,5.02222,0,0,0,0,0,0,0,-1,706,1345,-7.17808,-5.02221
-511,-321,-7.54816,4.29932,0,0,0,0,0,0,0,-1,713,1345,-7.54816,-4.2993
-504,-321,-7.72784,4.3678,0,0,0,0,0,0,0,-1,720,1345,-7.72785,-4.3678
-497,-321,-8.42938,1.99756,0,0,0,0,0,0,0,-1,727,1345,-8.42941,-1.99751
-490,-321,-8.03851,1.39819,0,0,0,0,0,0,0,-1,734,1345,-8.03849,-1.39814
-483,-321,-12.6664,1.98779,0,0,0,0,0,0,0,-1,741,1345,-12.6664,-1.98785
-476,-321,-12.3411,2.10266,0,0,0,0,0,0,0,-1,748,1345,-12.3411,-2.10266
-469,-321,-12.191,2.4989,0,0,0,0,0,0,0,-1,755,1345,-12.1911,-2.49888
-462,-321,-8.91602,1.34326,0,0,0,0,0,0,0,-1,762,1345,-8.91602,-1.34321
-455,-321,0,0,0,0,0,0,0,0,0,-1,769,1345,0,0
-448,-321,0,0,0,0,0,0,0,0,0,-1,776,1345,0,0
-441,-321,0,0,0,0,0,0,0,0,0,-1,783,1345,0,0
-434,-321,0,0,0,0,0,0,0,0,0,-1,790,1345,0,0
-427,-321,0,0,0,0,0,0,0,0,0,-1,797,1345,0,0
-420,-321,0,0,0,0,0,0,0,0,0,-1,804,1345,0,0
-413,-321,0,0,0,0,0,0,0,0,0,-1,811,1345,0,0
-406,-321,0,0,0,0,0,0,0,0,0,-1,818,1345,0,0
-399,-321,0,0,0,0,0,0,0,0,0,-1,825,1345,0,0
-392,-321,0,0,0,0,0,0,0,0,0,-1,832,1345,0,0
-385,-321,0,0,0,0,0,0,0,0,0,-1,839,1345,0,0
-378,-321,0,0,0,0,0,0,0,0,0,-1,846,1345,0,0
-371,-321,0,0,0,0,0,0,0,0,0,-1,853,1345,0,0
-364,-321,0,0,0,0,0,0,0,0,0,-1,860,1345,0,0
-357,-321,0,0,0,0,0,0,0,0,0,-1,867,1345,0,0
-350,-321,0,0,0,0,0,0,0,0,0,-1,874,1345,0,0
-343,-321,0,0,0,0,0,0,0,0,0,-1,881,1345,0,0
-336,-321,0,0,0,0,0,0,0,0,0,-1,888,1345,0,0
-329,-321,0,0,0,0,0,0,0,0,0,-1,895,1345,0,0
-322,-321,0,0,0,0,0,0,0,0,0,-1,902,1345,0,0
-315,-321,0,0,0,0,0,0,0,0,0,-1,909,1345,0,0
-308,-321,0,0,0,0,0,0,0,0,0,-1,916,1345,0,0
-301,-321,0,0,0,0,0,0,0,0,0,-1,923,1345,0,0
-294,-321,0,0,0,0,0,0,0,0,0,-1,930,1345,0,0
-287,-321,0,0,0,0,0,0,0,0,0,-1,937,1345,0,0
-280,-321,0,0,0,0,0,0,0,0,0,-1,944,1345,0,0
-273,-321,0,0,0,0,0,0,0,0,0,-1,951,1345,0,0
-266,-321,0,0,0,0,0,0,0,0,0,-1,958,1345,0,0
-259,-321,0,0,0,0,0,0,0,0,0,-1,965,1345,0,0
-252,-321,0,0,0,0,0,0,0,0,0,-1,972,1345,0,0
-245,-321,0,0,0,0,0,0,0,0,0,-1,979,1345,0,0
-238,-321,0,0,0,0,0,0,0,0,0,-1,986,1345,0,0
-231,-321,0,0,0,0,0,0,0,0,0,-1,993,1345,0,0
-224,-321,0,0,0,0,0,0,0,0,0,-1,1000,1345,0,0
-217,-321,0,0,0,0,0,0,0,0,0,-1,1007,1345,0,0
-210,-321,0,0,0,0,0,0,0,0,0,-1,1014,1345,0,0
-203,-321,0,0,0,0,0,0,0,0,0,-1,1021,1345,0,0
-196,-321,0,0,0,0,0,0,0,0,0,-1,1028,1345,0,0
-189,-321,0,0,0,0,0,0,0,0,0,-1,1035,1345,0,0
-182,-321,0,0,0,0,0,0,0,0,0,-1,1042,1345,0,0
-175,-321,0,0,0,0,0,0,0,0,0,-1,1049,1345,0,0
-168,-321,0,0,0,0,0,0,0,0,0,-1,1056,1345,0,0
-161,-321,0,0,0,0,0,0,0,0,0,-1,1063,1345,0,0
-154,-321,0,0,0,0,0,0,0,0,0,-1,1070,1345,0,0
-147,-321,0,0,0,0,0,0,0,0,0,-1,1077,1345,0,0
-140,-321,0,0,0,0,0,0,0,0,0,-1,1084,1345,0,0
-133,-321,0,0,0,0,0,0,0,0,0,-1,1091,1345,0,0
-126,-321,0,0,0,0,0,0,0,0,0,-1,1098,1345,0,0
-119,-321,0,0,0,0,0,0,0,0,0,-1,1105,1345,0,0
-112,-321,0,0,0,0,0,0,0,0,0,-1,1112,1345,0,0
-105,-321,0,0,0,0,0,0,0,0,0,-1,1119,1345,0,0
-98,-321,0,0,0,0,0,0,0,0,0,-1,1126,1345,0,0
-91,-321,0,0,0,0,0,0,0,0,0,-1,1133,1345,0,0
-84,-321,0,0,0,0,0,0,0,0,0,-1,1140,1345,0,0
-77,-321,0,0,0,0,0,0,0,0,0,-1,1147,1345,0,0
-70,-321,0,0,0,0,0,0,0,0,0,-1,1154,1345,0,0
-63,-321,0,0,0,0,0,0,0,0,0,-1,1161,1345,0,0
-56,-321,0,0,0,0,0,0,0,0,0,-1,1168,1345,0,0
-49,-321,0,0,0,0,0,0,0,0,0,-1,1175,1345,0,0
-42,-321,0,0,0,0,0,0,0,0,0,-1,1182,1345,0,0
-35,-321,0,0,0,0,0,0,0,0,0,-1,1189,1345,0,0
-28,-321,0,0,0,0,0,0,0,0,0,-1,1196,1345,0,0
-21,-321,0,0,0,0,0,0,0,0,0,-1,1203,1345,0,0
-14,-321,0,0,0,0,0,0,0,0,0,-1,1210,1345,0,0
-7,-321,0,0,0,0,0,0,0,0,0,-1,1217,1345,0,0
0,-321,0,0,0,0,0,0,0,0,0,-1,1224,1345,0,0
7,-321,0,0,0,0,0,0,0,0,0,-1,1231,1345,0,0
14,-321,0,0,0,0,0,0,0,0,0,-1,1238,1345,0,0
21,-321,0,0,0,0,0,0,0,0,0,-1,1245,1345,0,0
28,-321,0,0,0,0,0,0,0,0,0,-1,1252,1345,0,0
35,-321,0,0,0,0,0,0,0,0,0,-1,1259,1345,0,0
42,-321,0,0,0,0,0,0,0,0,0,-1,1266,1345,0,0
49,-321,0,0,0,0,0,0,0,0,0,-1,1273,1345,0,0
56,-321,0,0,0,0,0,0,0,0,0,-1,1280,1345,0,0
63,-321,0,0,0,0,0,0,0,0,0,-1,1287,1345,0,0
70,-321,0,0,0,0,0,0,0,0,0,-1,1294,1345,0,0
77,-321,0,0,0,0,0,0,0,0,0,-1,1301,1345,0,0
84,-321,0,0,0,0,0,0,0,0,0,-1,1308,1345,0,0
91,-321,0,0,0,0,0,0,0,0,0,-1,1315,1345,0,0
98,-321,0,0,0,0,0,0,0,0,0,-1,1322,1345,0,0
105,-321,0,0,0,0,0,0,0,0,0,-1,1329,1345,0,0
112,-321,0,0,0,0,0,0,0,0,0,-1,1336,1345,0,0
119,-321,0,0,0,0,0,0,0,0,0,-1,1343,1345,0,0
126,-321,0,0,0,0,0,0,0,0,0,-1,1350,1345,0,0
133,-321,0,0,0,0,0,0,0,0,0,-1,1357,1345,0,0
140,-321,0,0,0,0,0,0,0,0,0,-1,1364,1345,0,0
147,-321,0,0,0,0,0,0,0,0,0,-1,1371,1345,0,0
154,-321,0,0,0,0,0,0,0,0,0,-1,1378,1345,0,0
161,-321,0,0,0,0,0,0,0,0,0,-1,1385,1345,0,0
168,-321,0,0,0,0,0,0,0,0,0,-1,1392,1345,0,0
175,-321,0,0,0,0,0,0,0,0,0,-1,1399,1345,0,0
182,-321,0,0,0,0,0,0,0,0,0,-1,1406,1345,0,0
189,-321,0,0,0,0,0,0,0,0,0,-1,1413,1345,0,0
196,-321,0,0,0,0,0,0,0,0,0,-1,1420,1345,0,0
203,-321,0,0,0,0,0,0,0,0,0,-1,1427,1345,0,0
210,-321,0,0,0,0,0,0,0,0,0,-1,1434,1345,0,0
217,-321,0,0,0,0,0,0,0,0,0,-1,1441,1345,0,0
224,-321,0,0,0,0,0,0,0,0,0,-1,1448,1345,0,0
231,-321,0,0,0,0,0,0,0,0,0,-1,1455,1345,0,0
238,-321,0,0,0,0,0,0,0,0,0,-1,1462,1345,0,0
245,-321,0,0,0,0,0,0,0,0,0,-1,1469,1345,0,0
252,-321,0,0,0,0,0,0,0,0,0,-1,1476,1345,0,0
259,-321,0,0,0,0,0,0,0,0,0,-1,1483,1345,0,0
266,-321,0,0,0,0,0,0,0,0,0,-1,1490,1345,0,0
273,-321,0,0,0,0,0,0,0,0,0,-1,1497,1345,0,0
280,-321,0,0,0,0,0,0,0,0,0,-1,1504,1345,0,0
287,-321,0,0,0,0,0,0,0,0,0,-1,1511,1345,0,0
294,-321,0,0,0,0,0,0,0,0,0,-1,1518,1345,0,0
301,-321,0,0,0,0,0,0,0,0,0,-1,1525,1345,0,0
308,-321,0,0,0,0,0,0,0,0,0,-1,1532,1345,0,0
315,-321,0,0,0,0,0,0,0,0,0,-1,1539,1345,0,0
322,-321,0,0,0,0,0,0,0,0,0,-1,1546,1345,0,0
329,-321,0,0,0,0,0,0,0,0,0,-1,1553,1345,0,0
336,-321,0,0,0,0,0,0,0,0,0,-1,1560,1345,0,0
343,-321,0,0,0,0,0,0,0,0,0,-1,1567,1345,0,0
350,-321,0,0,0,0,0,0,0,0,0,-1,1574,1345,0,0
357,-321,0,0,0,0,0,0,0,0,0,-1,1581,1345,0,0
364,-321,0,0,0,0,0,0,0,0,0,-1,1588,1345,0,0
371,-321,0,0,0,0,0,0,0,0,0,-1,1595,1345,0,0
378,-321,0,0,0,0,0,0,0,0,0,-1,1602,1345,0,0
385,-321,0,0,0,0,0,0,0,0,0,-1,1609,1345,0,0
392,-321,0,0,0,0,0,0,0,0,0,-1,1616,1345,0,0
399,-321,0,0,0,0,0,0,0,0,0,-1,1623,1345,0,0
406,-321,0,0,0,0,0,0,0,0,0,-1,1630,1345,0,0
413,-321,0,0,0,0,0,0,0,0,0,-1,1637,1345,0,0
420,-321,0,0,0,0,0,0,0,0,0,-1,1644,1345,0,0
427,-321,0,0,0,0,0,0,0,0,0,-1,1651,1345,0,0
434,-321,0,0,0,0,0,0,0,0,0,-1,1658,1345,0,0
441,-321,0,0,0,0,0,0,0,0,0,-1,1665,1345,0,0
448,-321,0,0,0,0,0,0,0,0,0,-1,1672,1345,0,0
455,-321,0,0,0,0,0,0,0,0,0,-1,1679,1345,0,0
462,-321,0,0,0,0,0,0,0,0,0,-1,1686,1345,0,0
469,-321,0,0,0,0,0,0,0,0,0,-1,1693,1345,0,0
476,-321,0,0,0,0,0,0,0,0,0,-1,1700,1345,0,0
483,-321,0,0,0,0,0,0,0,0,0,-1,1707,1345,0,0
490,-321,0,0,0,0,0,0,0,0,0,-1,1714,1345,0,0
497,-321,0,0,0,0,0,0,0,0,0,-1,1721,1345,0,0
504,-321,0,0,0,0,0,0,0,0,0,-1,1728,1345,0,0
511,-321,0,0,0,0,0,0,0,0,0,-1,1735,1345,0,0
518,-321,0,0,0,0,0,0,0,0,0,-1,1742,1345,0,0
525,-321,0,0,0,0,0,0,0,0,0,-1,1749,1345,0,0
532,-321,0,0,0,0,0,0,0,0,0,-1,1756,1345,0,0
539,-321,0,0,0,0,0,0,0,0,0,-1,1763,1345,0,0
546,-321,0,0,0,0,0,0,0,0,0,-1,1770,1345,0,0
553,-321,0,0,0,0,0,0,0,0,0,-1,1777,1345,0,0
560,-321,0,0,0,0,0,0,0,0,0,-1,1784,1345,0,0
567,-321,0,0,0,0,0,0,0,0,0,-1,1791,1345,0,0
574,-321,0,0,0,0,0,0,0,0,0,-1,1798,1345,0,0
581,-321,25.6232,2.73877,-0.108507,0.091662,-0.0729027,0.115399,-0.132244,-1.25603,0.143087,0.0451658,1805,1345,25.6232,-2.73882
588,-321,24.8979,2.93567,-0.0900096,0.0663325,-0.0555058,0.0840343,-0.107711,-1.26207,0.110985,0.04579,1812,1345,24.8979,-2.93561
595,-321,23.988,3.04395,-0.073998,0.0456726,-0.0397123,0.0576518,-0.0859772,-1.27783,0.08346,0.0481925,1819,1345,23.9881,-3.0439
602,-321,23.1796,2.98987,-0.0587911,0.0280901,-0.0266593,0.0356182,-0.0663192,-1.29558,0.0597367,0.0444868,1826,1345,23.1796,-2.98987
609,-321,22.3523,2.95618,0,0,0,0,0,0,0,-1,1833,1345,22.3523,-2.95613
616,-321,22.1593,3.39172,0,0,0,0,0,0,0,-1,1840,1345,22.1593,-3.39169
623,-321,21.6061,5.00598,0,0,0,0,0,0,0,-1,1847,1345,21.6061,-5.00603
630,-321,21.0529,6.62036,0,0,0,0,0,0,0,-1,1854,1345,21.0529,-6.62038
637,-321,15.2396,5.79248,0,0,0,0,0,0,0,-1,1861,1345,15.2396,-5.79248
644,-321,16.5385,6.46619,0,0,0,0,0,0,0,-1,1868,1345,16.5385,-6.46613
651,-321,15.9946,6.37903,0,0,0,0,0,0,0,-1,1875,1345,15.9946,-6.37908
658,-321,15.7037,6.44446,-0.0111831,-0.00591346,0.00725019,-0.00083417,-0.0162624,0.959685,0.0105745,0.0313354,1882,1345,15.7038,-6.44451
665,-321,15.5925,6.31995,-0.00967566,-0.00516811,0.0069139,-0.000149917,-0.0146939,0.942956,0.00974631,0.0161571,1889,1345,15.5925,-6.31996
672,-321,15.6128,6.11243,-0.00739697,-0.00337991,0.00564094,0.000599419,-0.0113763,0.956431,0.00779169,0.0126587,1896,1345,15.6128,-6.11237
679,-321,15.6292,5.90613,-0.00505459,-0.00128318,0.00389632,0.00115977,-0.00749753,1.01077,0.00542641,0.0106337,1903,1345,15.6292,-5.90615
686,-321,15.6012,5.72998,-0.00329694,-0.000453795,0.00230703,0.00083448,-0.00458522,1.06152,0.00336959,0.0111001,1910,1345,15.6012,-5.73
693,-321,15.5992,5.55115,-0.00180212,0.000326829,0.000542762,0.000457217,-0.00193251,1.33503,0.00146473,0.0125812,1917,1345,15.5993,-5.55115
700,-321,15.609,5.34485,-0.000511934,0.00123874,-0.00134176,0.00196544,-0.00123864,-1.07442,0.00186568,0.012443,1924,1345,15.609,-5.3449
707,-321,15.6063,5.15454,0.000165102,0.00120094,-0.00289212,0.00362115,-0.0022551,-0.873999,0.00342308,0.0137464,1931,1345,15.6064,-5.1545
714,-321,15.6083,4.95166,0.000281259,0.00080558,-0.00422801,0.00477955,-0.00369271,-0.816361,0.00490486,0.0123347,1938,1345,15.6083,-4.95167
721,-321,15.6133,4.72937,0.00011117,5.84491e-05,-0.00568224,0.00576711,-0.00559749,-0.783079,0.00656159,0.0196198,1945,1345,15.6133,-4.72938
728,-321,15.4996,4.63721,-0.000518574,-0.00179983,-0.00713,0.00599952,-0.00831793,-0.740594,0.00830223,0.0312729,1952,1345,15.4996,-4.63717
735,-321,15.3507,4.07214,-0.00152478,-0.00516563,-0.00852234,0.00536939,-0.0120598,-0.680176,0.0103069,0.0461181,1959,1345,15.3507,-4.07209
742,-321,14.9617,3.45569,0,0,0,0,0,0,0,-1,1966,1345,14.9617,-3.45572
749,-321,14.8239,2.86768,0,0,0,0,0,0,0,-1,1973,1345,14.8238,-2.86769
756,-321,14.8394,2.41675,-0.00874829,-0.0287987,-0.00890753,-0.00536272,-0.0321842,-0.363217,0.0199108,0.042499,1980,1345,14.8394,-2.41675
763,-321,14.5984,2.11121,-0.0129775,-0.0420969,-0.00638267,-0.0116399,-0.0434345,-0.206574,0.0259612,0.0458034,1987,1345,14.5984,-2.1112
770,-321,0,0,0,0,0,0,0,0,0,-1,1994,1345,0,0
777,-321,0,0,0,0,0,0,0,0,0,-1,2001,1345,0,0
784,-321,0,0,0,0,0,0,0,0,0,-1,2008,1345,0,0
791,-321,0,0,0,0,0,0,0,0,0,-1,2015,1345,0,0
798,-321,0,0,0,0,0,0,0,0,0,-1,2022,1345,0,0
805,-321,0,0,0,0,0,0,0,0,0,-1,2029,1345,0,0
812,-321,0,0,0,0,0,0,0,0,0,-1,2036,1345,0,0
-700,-328,0,0,0,0,0,0,0,0,0,-1,524,1352,0,0
-693,-328,0,0,0,0,0,0,0,0,0,-1,531,1352,0,0
-686,-328,0,0,0,0,0,0,0,0,0,-1,538,1352,0,0
-679,-328,0,0,0,0,0,0,0,0,0,-1,545,1352,0,0
-672,-328,0,0,0,0,0,0,0,0,0,-1,552,1352,0,0
-665,-328,0,0,0,0,0,0,0,0,0,-1,559,1352,0,0
-658,-328,0,0,0,0,0,0,0,0,0,-1,566,1352,0,0
-651,-328,0,0,0,0,0,0,0,0,0,-1,573,1352,0,0
-644,-328,0,0,0,0,0,0,0,0,0,-1,580,1352,0,0
-637,-328,-8.23505,-3.29114,0,0,0,0,0,0,0,-1,587,1352,-8.23503,3.29113
-630,-328,-6.87506,-3.08289,0,0,0,0,0,0,0,-1,594,1352,-6.87506,3.08288
-623,-328,-5.25623,-3.05176,0,0,0,0,0,0,0,-1,601,1352,-5.25621,3.05172
-616,-328,-3.60748,-3.00574,0,0,0,0,0,0,0,-1,608,1352,-3.60747,3.00572
-609,-328,-7.87439,0.192871,0,0,0,0,0,0,0,-1,615,1352,-7.87441,-0.192822
-602,-328,-7.1377,0.20752,0,0,0,0,0,0,0,-1,622,1352,-7.13771,-0.207557
-595,-328,-6.9704,2.12012,0,0,0,0,0,0,0,-1,629,1352,-6.97037,-2.12015
-588,-328,-6.83234,2.44678,-0.0102687,0.00435123,0.00339598,0.00510155,-0.011019,1.35335,0.00951395,0.0362687,636,1352,-6.83234,-2.44673
-581,-328,-6.92639,2.80017,-0.00743383,0.0026184,0.0019571,0.00298599,-0.00780142,1.38513,0.00643163,0.0139528,643,1352,-6.92638,-2.80018
-574,-328,-6.91553,3.03271,-0.00494784,0.00111099,0.000999307,0.00127156,-0.0051084,1.41148,0.00389919,0.0140277,650,1352,-6.91552,-3.03268
-567,-328,-6.91748,3.26025,-0.00322242,0.000307976,0.000173623,0.000316494,-0.00323094,1.52177,0.00226683,0.0192259,657,1352,-6.9175,-3.26027
-560,-328,-6.93109,3.52026,-0.00226241,-0.00030072,-0.000456036,-0.000199888,-0.00236324,-1.35319,0.00151327,0.0264972,664,1352,-6.9311,-3.52029
-553,-328,-6.93512,3.72131,-0.00199024,-0.00143891,-0.00085996,-0.000811511,-0.00261764,-0.940503,0.00154723,0.0273858,671,1352,-6.93511,-3.72132
-546,-328,-6.95465,3.93579,-0.00200431,-0.00282234,-0.00135013,-0.00100259,-0.00382405,-0.63832,0.00228955,0.0263804,678,1352,-6.95466,-3.93575
-539,-328,-6.97382,4.13489,-0.00258896,-0.00453862,-0.00190639,-0.00142262,-0.00570496,-0.549055,0.00342892,0.0226709,685,1352,-6.97384,-4.13484
-532,-328,-6.92444,4.3844,-0.00399226,-0.00702606,-0.00259457,-0.00250371,-0.00851462,-0.520872,0.00505302,0.0159093,692,1352,-6.92444,-4.38442
-525,-328,-6.8653,4.66528,-0.00650761,-0.010384,-0.00360793,-0.00435023,-0.0125414,-0.538915,0.00735309,0.0126917,699,1352,-6.86528,-4.66524
-518,-328,-6.76447,4.86597,-0.0101542,-0.0149662,-0.0049795,-0.00702993,-0.0180905,-0.560348,0.0105306,0.0356512,706,1352,-6.76446,-4.86595
-511,-328,-7.04742,4.55566,-0.014938,-0.0211652,-0.00665625,-0.0107031,-0.0254001,-0.566634,0.014725,0.0431702,713,1352,-7.0474,-4.55571
-504,-328,-7.45856,4.33594,-0.0207925,-0.0292743,-0.00867985,-0.0153729,-0.0346939,-0.558157,0.0200737,0.0471185,720,1352,-7.45853,-4.33589
-497,-328,-7.71436,4.43274,0,0,0,0,0,0,0,-1,727,1352,-7.71439,-4.4327
-490,-328,-7.66724,1.19629,0,0,0,0,0,0,0,-1,734,1352,-7.66722,-1.19628
-483,-328,-12.4907,2.71216,0,0,0,0,0,0,0,-1,741,1352,-12.4907,-2.7122
-476,-328,-11.7977,3.04004,0,0,0,0,0,0,0,-1,748,1352,-11.7977,-3.04004
-469,-328,-10.9718,3.35144,0,0,0,0,0,0,0,-1,755,1352,-10.9718,-3.35148
-462,-328,-10.3092,3.63354,0,0,0,0,0,0,0,-1,762,1352,-10.3092,-3.63357
-455,-328,0,0,0,0,0,0,0,0,0,-1,769,1352,0,0
-448,-328,0,0,0,0,0,0,0,0,0,-1,776,1352,0,0
-441,-328,0,0,0,0,0,0,0,0,0,-1,783,1352,0,0
-434,-328,0,0,0,0,0,0,0,0,0,-1,790,1352,0,0
-427,-328,0,0,0,0,0,0,0,0,0,-1,797,1352,0,0
-420,-328,0,0,0,0,0,0,0,0,0,-1,804,1352,0,0
-413,-328,0,0,0,0,0,0,0,0,0,-1,811,1352,0,0
-406,-328,0,0,0,0,0,0,0,0,0,-1,818,1352,0,0
-399,-328,0,0,0,0,0,0,0,0,0,-1,825,1352,0,0
-392,-328,0,0,0,0,0,0,0,0,0,-1,832,1352,0,0
-385,-328,0,0,0,0,0,0,0,0,0,-1,839,1352,0,0
-378,-328,0,0,0,0,0,0,0,0,0,-1,846,1352,0,0
-371,-328,0,0,0,0,0,0,0,0,0,-1,853,1352,0,0
-364,-328,0,0,0,0,0,0,0,0,0,-1,860,1352,0,0
-357,-328,0,0,0,0,0,0,0,0,0,-1,867,1352,0,0
-350,-328,0,0,0,0,0,0,0,0,0,-1,874,1352,0,0
-343,-328,0,0,0,0,0,0,0,0,0,-1,881,1352,0,0
-336,-328,0,0,0,0,0,0,0,0,0,-1,888,1352,0,0
-329,-328,0,0,0,0,0,0,0,0,0,-1,895,1352,0,0
-322,-328,0,0,0,0,0,0,0,0,0,-1,902,1352,0,0
-315,-328,0,0,0,0,0,0,0,0,0,-1,909,1352,0,0
-308,-328,0,0,0,0,0,0,0,0,0,-1,916,1352,0,0
-301,-328,0,0,0,0,0,0,0,0,0,-1,923,1352,0,0
-294,-328,0,0,0,0,0,0,0,0,0,-1,930,1352,0,0
-287,-328,0,0,0,0,0,0,0,0,0,-1,937,1352,0,0
-280,-328,0,0,0,0,0,0,0,0,0,-1,944,1352,0,0
-273,-328,0,0,0,0,0,0,0,0,0,-1,951,1352,0,0
-266,-328,0,0,0,0,0,0,0,0,0,-1,958,1352,0,0
-259,-328,0,0,0,0,0,0,0,0,0,-1,965,1352,0,0
-252,-328,0,0,0,0,0,0,0,0,0,-1,972,1352,0,0
-245,-328,0,0,0,0,0,0,0,0,0,-1,979,1352,0,0
-238,-328,0,0,0,0,0,0,0,0,0,-1,986,1352,0,0
-231,-328,0,0,0,0,0,0,0,0,0,-1,993,1352,0,0
-224,-328,0,0,0,0,0,0,0,0,0,-1,1000,1352,0,0
-217,-328,0,0,0,0,0,0,0,0,0,-1,1007,1352,0,0
-210,-328,0,0,0,0,0,0,0,0,0,-1,1014,1352,0,0
-203,-328,0,0,0,0,0,0,0,0,0,-1,1021,1352,0,0
-196,-328,0,0,0,0,0,0,0,0,0,-1,1028,1352,0,0
-189,-328,0,0,0,0,0,0,0,0,0,-1,1035,1352,0,0
-182,-328,0,0,0,0,0,0,0,0,0,-1,1042,1352,0,0
-175,-328,0,0,0,0,0,0,0,0,0,-1,1049,1352,0,0
-168,-328,0,0,0,0,0,0,0,0,0,-1,1056,1352,0,0
-161,-328,0,0,0,0,0,0,0,0,0,-1,1063,1352,0,0
-154,-328,0,0,0,0,0,0,0,0,0,-1,1070,1352,0,0
-147,-328,0,0,0,0,0,0,0,0,0,-1,1077,1352,0,0
-140,-328,0,0,0,0,0,0,0,0,0,-1,1084,1352,0,0
-133,-328,0,0,0,0,0,0,0,0,0,-1,1091,1352,0,0
-126,-328,0,0,0,0,0,0,0,0,0,-1,1098,1352,0,0
-119,-328,0,0,0,0,0,0,0,0,0,-1,1105,1352,0,0
-112,-328,0,0,0,0,0,0,0,0,0,-1,1112,1352,0,0
-105,-328,0,0,0,0,0,0,0,0,0,-1,1119,1352,0,0
-98,-328,0,0,0,0,0,0,0,0,0,-1,1126,1352,0,0
-91,-328,0,0,0,0,0,0,0,0,0,-1,1133,1352,0,0
-84,-328,0,0,0,0,0,0,0,0,0,-1,1140,1352,0,0
-77,-328,0,0,0,0,0,0,0,0,0,-1,1147,1352,0,0
-70,-328,0,0,0,0,0,0,0,0,0,-1,1154,1352,0,0
-63,-328,0,0,0,0,0,0,0,0,0,-1,1161,1352,0,0
-56,-328,0,0,0,0,0,0,0,0,0,-1,1168,1352,0,0
-49,-328,0,0,0,0,0,0,0,0,0,-1,1175,1352,0,0
-42,-328,0,0,0,0,0,0,0,0,0,-1,1182,1352,0,0
-35,-328,0,0,0,0,0,0,0,0,0,-1,1189,1352,0,0
-28,-328,0,0,0,0,0,0,0,0,0,-1,1196,1352,0,0
-21,-328,0,0,0,0,0,0,0,0,0,-1,1203,1352,0,0
-14,-328,0,0,0,0,0,0,0,0,0,-1,1210,1352,0,0
-7,-328,0,0,0,0,0,0,0,0,0,-1,1217,1352,0,0
0,-328,0,0,0,0,0,0,0,0,0,-1,1224,1352,0,0
7,-328,0,0,0,0,0,0,0,0,0,-1,1231,1352,0,0
14,-328,0,0,0,0,0,0,0,0,0,-1,1238,1352,0,0
21,-328,0,0,0,0,0,0,0,0,0,-1,1245,1352,0,0
28,-328,0,0,0,0,0,0,0,0,0,-1,1252,1352,0,0
35,-328,0,0,0,0,0,0,0,0,0,-1,1259,1352,0,0
42,-328,0,0,0,0,0,0,0,0,0,-1,1266,1352,0,0
49,-328,0,0,0,0,0,0,0,0,0,-1,1273,1352,0,0
56,-328,0,0,0,0,0,0,0,0,0,-1,1280,1352,0,0
63,-328,0,0,0,0,0,0,0,0,0,-1,1287,1352,0,0
70,-328,0,0,0,0,0,0,0,0,0,-1,1294,1352,0,0
77,-328,0,0,0,0,0,0,0,0,0,-1,1301,1352,0,0
84,-328,0,0,0,0,0,0,0,0,0,-1,1308,1352,0,0
91,-328,0,0,0,0,0,0,0,0,0,-1,1315,1352,0,0
98,-328,0,0,0,0,0,0,0,0,0,-1,1322,1352,0,0
105,-328,0,0,0,0,0,0,0,0,0,-1,1329,1352,0,0
112,-328,0,0,0,0,0,0,0,0,0,-1,1336,1352,0,0
119,-328,0,0,0,0,0,0,0,0,0,-1,1343,1352,0,0
126,-328,0,0,0,0,0,0,0,0,0,-1,1350,1352,0,0
133,-328,0,0,0,0,0,0,0,0,0,-1,1357,1352,0,0
140,-328,0,0,0,0,0,0,0,0,0,-1,1364,1352,0,0
147,-328,0,0,0,0,0,0,0,0,0,-1,1371,1352,0,0
154,-328,0,0,0,0,0,0,0,0,0,-1,1378,1352,0,0
161,-328,0,0,0,0,0,0,0,0,0,-1,1385,1352,0,0
168,-328,0,0,0,0,0,0,0,0,0,-1,1392,1352,0,0
175,-328,0,0,0,0,0,0,0,0,0,-1,1399,1352,0,0
182,-328,0,0,0,0,0,0,0,0,0,-1,1406,1352,0,0
189,-328,0,0,0,0,0,0,0,0,0,-1,1413,1352,0,0
196,-328,0,0,0,0,0,0,0,0,0,-1,1420,1352,0,0
203,-328,0,0,0,0,0,0,0,0,0,-1,1427,1352,0,0
210,-328,0,0,0,0,0,0,0,0,0,-1,1434,1352,0,0
217,-328,0,0,0,0,0,0,0,0,0,-1,1441,1352,0,0
224,-328,0,0,0,0,0,0,0,0,0,-1,1448,1352,0,0
231,-328,0,0,0,0,0,0,0,0,0,-1,1455,1352,0,0
238,-328,0,0,0,0,0,0,0,0,0,-1,1462,1352,0,0
245,-328,0,0,0,0,0,0,0,0,0,-1,1469,1352,0,0
252,-328,0,0,0,0,0,0,0,0,0,-1,1476,1352,0,0
259,-328,0,0,0,0,0,0,0,0,0,-1,1483,1352,0,0
266,-328,0,0,0,0,0,0,0,0,0,-1,1490,1352,0,0
273,-328,0,0,0,0,0,0,0,0,0,-1,1497,1352,0,0
280,-328,0,0,0,0,0,0,0,0,0,-1,1504,1352,0,0
287,-328,0,0,0,0,0,0,0,0,0,-1,1511,1352,0,0
294,-328,0,0,0,0,0,0,0,0,0,-1,1518,1352,0,0
301,-328,0,0,0,0,0,0,0,0,0,-1,1525,1352,0,0
308,-328,0,0,0,0,0,0,0,0,0,-1,1532,1352,0,0
315,-328,0,0,0,0,0,0,0,0,0,-1,1539,1352,0,0
322,-328,0,0,0,0,0,0,0,0,0,-1,1546,1352,0,0
329,-328,0,0,0,0,0,0,0,0,0,-1,1553,1352,0,0
336,-328,0,0,0,0,0,0,0,0,0,-1,1560,1352,0,0
343,-328,0,0,0,0,0,0,0,0,0,-1,1567,1352,0,0
350,-328,0,0,0,0,0,0,0,0,0,-1,1574,1352,0,0
357,-328,0,0,0,0,0,0,0,0,0,-1,1581,1352,0,0
364,-328,0,0,0,0,0,0,0,0,0,-1,1588,1352,0,0
371,-328,0,0,0,0,0,0,0,0,0,-1,1595,1352,0,0
378,-328,0,0,0,0,0,0,0,0,0,-1,1602,1352,0,0
385,-328,0,0,0,0,0,0,0,0,0,-1,1609,1352,0,0
392,-328,0,0,0,0,0,0,0,0,0,-1,1616,1352,0,0
399,-328,0,0,0,0,0,0,0,0,0,-1,1623,1352,0,0
406,-328,0,0,0,0,0,0,0,0,0,-1,1630,1352,0,0
413,-328,0,0,0,0,0,0,0,0,0,-1,1637,1352,0,0
420,-328,0,0,0,0,0,0,0,0,0,-1,1644,1352,0,0
427,-328,0,0,0,0,0,0,0,0,0,-1,1651,1352,0,0
434,-328,0,0,0,0,0,0,0,0,0,-1,1658,1352,0,0
441,-328,0,0,0,0,0,0,0,0,0,-1,1665,1352,0,0
448,-328,0,0,0,0,0,0,0,0,0,-1,1672,1352,0,0
455,-328,0,0,0,0,0,0,0,0,0,-1,1679,1352,0,0
462,-328,0,0,0,0,0,0,0,0,0,-1,1686,1352,0,0
469,-328,0,0,0,0,0,0,0,0,0,-1,1693,1352,0,0
476,-328,0,0,0,0,0,0,0,0,0,-1,1700,1352,0,0
483,-328,0,0,0,0,0,0,0,0,0,-1,1707,1352,0,0
490,-328,0,0,0,0,0,0,0,0,0,-1,1714,1352,0,0
497,-328,0,0,0,0,0,0,0,0,0,-1,1721,1352,0,0
504,-328,0,0,0,0,0,0,0,0,0,-1,1728,1352,0,0
511,-328,0,0,0,0,0,0,0,0,0,-1,1735,1352,0,0
518,-328,0,0,0,0,0,0,0,0,0,-1,1742,1352,0,0
525,-328,0,0,0,0,0,0,0,0,0,-1,1749,1352,0,0
532,-328,0,0,0,0,0,0,0,0,0,-1,1756,1352,0,0
539,-328,0,0,0,0,0,0,0,0,0,-1,1763,1352,0,0
546,-328,0,0,0,0,0,0,0,0,0,-1,1770,1352,0,0
553,-328,0,0,0,0,0,0,0,0,0,-1,1777,1352,0,0
560,-328,0,0,0,0,0,0,0,0,0,-1,1784,1352,0,0
567,-328,0,0,0,0,0,0,0,0,0,-1,1791,1352,0,0
574,-328,28.2292,2.03394,0,0,0,0,0,0,0,-1,1798,1352,28.2293,-2.03394
581,-328,27.3054,2.1604,-0.122557,0.104903,-0.0736552,0.12667,-0.144325,-1.28344,0.15657,0.0448815,1805,1352,27.3054,-2.16042
588,-328,26.1967,2.43884,-0.100367,0.0793026,-0.0555662,0.0950987,-0.116164,-1.29383,0.122174,0.0462922,1812,1352,26.1966,-2.43889
595,-328,24.9884,2.73401,-0.0807735,0.0562554,-0.039571,0.0668617,-0.0913798,-1.30892,0.0917256,0.0469644,1819,1352,24.9884,-2.73406
602,-328,23.8795,3.07117,-0.0626758,0.0358407,-0.0264147,0.0424762,-0.0693113,-1.32468,0.0651575,0.0483067,1826,1352,23.8795,-3.0712
609,-328,22.8627,2.73193,0,0,0,0,0,0,0,-1,1833,1352,22.8626,-2.73196
616,-328,21.9314,4.14661,0,0,0,0,0,0,0,-1,1840,1352,21.9314,-4.14659
623,-328,21.533,5.73865,0,0,0,0,0,0,0,-1,1847,1352,21.533,-5.73863
630,-328,21.1345,7.33069,0,0,0,0,0,0,0,-1,1854,1352,21.1346,-7.33067
637,-328,16.5249,6.88452,0,0,0,0,0,0,0,-1,1861,1352,16.525,-6.88458
644,-328,16.0842,6.61548,0,0,0,0,0,0,0,-1,1868,1352,16.0842,-6.6155
651,-328,15.6619,6.52795,-0.0118915,-0.00785244,0.00609681,-0.00344938,-0.0162946,0.945332,0.0099153,0.0493232,1875,1352,15.6619,-6.52798
658,-328,15.4033,6.49243,-0.00920808,-0.00667987,0.00697081,-0.000859482,-0.0150285,0.875095,0.00974513,0.0223284,1882,1352,15.4033,-6.49239
665,-328,15.3995,6.30896,-0.00771563,-0.00579623,0.00617652,-0.000505296,-0.0130066,0.862472,0.00850761,0.0135816,1889,1352,15.3996,-6.30898
672,-328,15.408,6.11499,-0.0056776,-0.00374727,0.00477426,0.000158412,-0.00958328,0.885134,0.00644231,0.0116417,1896,1352,15.408,-6.11496
679,-328,15.4237,5.90637,-0.00367859,-0.00152714,0.00307996,0.000659554,-0.00586528,0.953408,0.00414755,0.0128314,1903,1352,15.4237,-5.90639
686,-328,15.3981,5.71924,-0.00224069,-0.000485094,0.0015858,0.000449644,-0.00317543,1.03818,0.00228165,0.0117656,1910,1352,15.398,-5.7193
693,-328,15.4135,5.54089,-0.000961801,0.000454482,2.46962e-05,0.000454913,-0.000962231,1.55337,0.000835482,0.00910936,1917,1352,15.4134,-5.54094
700,-328,15.4204,5.35229,0.000178076,0.00117637,-0.00168211,0.00243183,-0.00107738,-0.929629,0.00207574,0.0137528,1924,1352,15.4204,-5.35224
707,-328,15.4249,5.16931,0.000691089,0.000946054,-0.0030829,0.0039041,-0.00226696,-0.806062,0.00360442,0.0160903,1931,1352,15.4249,-5.16937
714,-328,15.4346,4.95984,0.000563582,0.000286592,-0.00423285,0.0046602,-0.00381002,-0.769044,0.00489849,0.0137115,1938,1352,15.4346,-4.95983
721,-328,15.3678,4.72266,0.000156432,-0.000855153,-0.00553563,0.00520933,-0.00590805,-0.739839,0.00642285,0.026723,1945,1352,15.3678,-4.72267
728,-328,15.4445,4.47888,-0.000759489,-0.00333995,-0.00683544,0.00490643,-0.00900587,-0.692118,0.00814767,0.0408057,1952,1352,15.4445,-4.47892
735,-328,15.0813,3.8761,0,0,0,0,0,0,0,-1,1959,1352,15.0813,-3.87613
742,-328,14.4478,3.68982,0,0,0,0,0,0,0,-1,1966,1352,14.4477,-3.6898
749,-328,14.5068,3.50964,0,0,0,0,0,0,0,-1,1973,1352,14.5069,-3.50967
756,-328,14.6295,3.02698,0,0,0,0,0,0,0,-1,1980,1352,14.6295,-3.02692
763,-328,0,0,0,0,0,0,0,0,0,-1,1987,1352,0,0
770,-328,0,0,0,0,0,0,0,0,0,-1,1994,1352,0,0
777,-328,0,0,0,0,0,0,0,0,0,-1,2001,1352,0,0
784,-328,0,0,0,0,0,0,0,0,0,-1,2008,1352,0,0
791,-328,0,0,0,0,0,0,0,0,0,-1,2015,1352,0,0
798,-328,0,0,0,0,0,0,0,0,0,-1,2022,1352,0,0
805,-328,0,0,0,0,0,0,0,0,0,-1,2029,1352,0,0
812,-328,0,0,0,0,0,0,0,0,0,-1,2036,1352,0,0
-700,-335,0,0,0,0,0,0,0,0,0,-1,524,1359,0,0
-693,-335,0,0,0,0,0,0,0,0,0,-1,531,1359,0,0
-686,-335,0,0,0,0,0,0,0,0,0,-1,538,1359,0,0
-679,-335,0,0,0,0,0,0,0,0,0,-1,545,1359,0,0
-672,-335,0,0,0,0,0,0,0,0,0,-1,552,1359,0,0
-665,-335,0,0,0,0,0,0,0,0,0,-1,559,1359,0,0
-658,-335,0,0,0,0,0,0,0,0,0,-1,566,1359,0,0
-651,-335,0,0,0,0,0,0,0,0,0,-1,573,1359,0,0
-644,-335,0,0,0,0,0,0,0,0,0,-1,580,1359,0,0
-637,-335,-8.28088,-3.46753,0,0,0,0,0,0,0,-1,587,1359,-8.28086,3.46752
-630,-335,-6.73273,-3.3656,0,0,0,0,0,0,0,-1,594,1359,-6.73275,3.36559
-623,-335,-5.08252,-3.43701,0,0,0,0,0,0,0,-1,601,1359,-5.08249,3.437
-616,-335,-2.34357,0.0516357,0,0,0,0,0,0,0,-1,608,1359,-2.3436,-0.051622
-609,-335,-7.664,-2.79272,0,0,0,0,0,0,0,-1,615,1359,-7.66403,2.79271
-602,-335,-6.12415,1.65247,0,0,0,0,0,0,0,-1,622,1359,-6.12414,-1.65246
-595,-335,-6.25018,2.08545,-0.0103253,0.00697228,0.00303259,0.00748854,-0.0108416,1.40218,0.0106418,0.0448934,629,1359,-6.25021,-2.08549
-588,-335,-6.41718,2.52576,-0.010174,0.0038553,0.00331911,0.00460092,-0.0109197,1.34982,0.00920502,0.0366123,636,1359,-6.41719,-2.52578
-581,-335,-6.67957,2.80286,-0.00754735,0.00261396,0.00194258,0.00297267,-0.00790606,1.3882,0.00649255,0.0202984,643,1359,-6.67954,-2.80282
-574,-335,-6.69055,3.02319,-0.00525077,0.00151564,0.00105762,0.0016771,-0.00541222,1.4193,0.0042782,0.0115289,650,1359,-6.69056,-3.02322
-567,-335,-6.67188,3.26208,-0.00359057,0.00089045,0.000340187,0.000916129,-0.00361625,1.49545,0.00276723,0.0160638,657,1359,-6.67187,-3.26205
-560,-335,-6.63727,3.46887,-0.00254777,0.000306515,-0.000214343,0.000322521,-0.00256378,-1.49626,0.00182621,0.0240292,664,1359,-6.63726,-3.46882
-553,-335,-6.67303,3.6991,-0.00215089,-0.000746927,-0.000628262,-0.000506841,-0.00239097,-1.20578,0.00145477,0.0261617,671,1359,-6.67306,-3.69914
-546,-335,-6.71399,3.90967,-0.00202276,-0.0019881,-0.00112658,-0.000878713,-0.00313215,-0.793089,0.0018655,0.0240525,678,1359,-6.71398,-3.90961
-539,-335,-6.73499,4.15503,-0.00243008,-0.00341582,-0.00162001,-0.00122962,-0.00461628,-0.637728,0.00276049,0.020736,685,1359,-6.73501,-4.15502
-532,-335,-6.73187,4.4054,-0.00357971,-0.00544458,-0.00226303,-0.00206455,-0.00695974,-0.589981,0.0041275,0.0158762,692,1359,-6.73186,-4.40533
-525,-335,-6.65698,4.66211,-0.00583569,-0.00808652,-0.0032011,-0.00356794,-0.0103543,-0.616362,0.00607354,0.0104406,699,1359,-6.65695,-4.66211
-518,-335,-6.62244,4.87537,-0.00937596,-0.0115417,-0.00442988,-0.00589853,-0.0150192,-0.665524,0.00873758,0.0186886,706,1359,-6.62245,-4.87537
-511,-335,-6.80542,4.84021,-0.0145534,-0.0162893,-0.00604175,-0.00931754,-0.0215251,-0.714057,0.0124648,0.0404574,713,1359,-6.8054,-4.84018
-504,-335,-7.35516,4.89905,-0.0218508,-0.022806,-0.0082413,-0.0140733,-0.0305835,-0.756456,0.0176761,0.0452198,720,1359,-7.35518,-4.89908
-497,-335,-7.9234,5.18237,0,0,0,0,0,0,0,-1,727,1359,-7.92338,-5.18242
-490,-335,-7.43848,1.00488,0,0,0,0,0,0,0,-1,734,1359,-7.43845,-1.00494
-483,-335,-11.811,4.03906,0,0,0,0,0,0,0,-1,741,1359,-11.8111,-4.03909
-476,-335,-11.2946,4.23193,0,0,0,0,0,0,0,-1,748,1359,-11.2946,-4.23191
-469,-335,-10.6644,4.42603,0,0,0,0,0,0,0,-1,755,1359,-10.6644,-4.42604
-462,-335,-10.4181,4.06299,0,0,0,0,0,0,0,-1,762,1359,-10.4181,-4.06293
-455,-335,-10.342,3.89612,0,0,0,0,0,0,0,-1,769,1359,-10.342,-3.89611
-448,-335,0,0,0,0,0,0,0,0,0,-1,776,1359,0,0
-441,-335,0,0,0,0,0,0,0,0,0,-1,783,1359,0,0
-434,-335,0,0,0,0,0,0,0,0,0,-1,790,1359,0,0
-427,-335,0,0,0,0,0,0,0,0,0,-1,797,1359,0,0
-420,-335,0,0,0,0,0,0,0,0,0,-1,804,1359,0,0
-413,-335,0,0,0,0,0,0,0,0,0,-1,811,1359,0,0
-406,-335,0,0,0,0,0,0,0,0,0,-1,818,1359,0,0
-399,-335,0,0,0,0,0,0,0,0,0,-1,825,1359,0,0
-392,-335,0,0,0,0,0,0,0,0,0,-1,832,1359,0,0
-385,-335,0,0,0,0,0,0,0,0,0,-1,839,1359,0,0
-378,-335,0,0,0,0,0,0,0,0,0,-1,846,1359,0,0
-371,-335,0,0,0,0,0,0,0,0,0,-1,853,1359,0,0
-364,-335,0,0,0,0,0,0,0,0,0,-1,860,1359,0,0
-357,-335,0,0,0,0,0,0,0,0,0,-1,867,1359,0,0
-350,-335,0,0,0,0,0,0,0,0,0,-1,874,1359,0,0
-343,-335,0,0,0,0,0,0,0,0,0,-1,881,1359,0,0
-336,-335,0,0,0,0,0,0,0,0,0,-1,888,1359,0,0
-329,-335,0,0,0,0,0,0,0,0,0,-1,895,1359,0,0
-322,-335,0,0,0,0,0,0,0,0,0,-1,902,1359,0,0
-315,-335,0,0,0,0,0,0,0,0,0,-1,909,1359,0,0
-308,-335,0,0,0,0,0,0,0,0,0,-1,916,1359,0,0
-301,-335,0,0,0,0,0,0,0,0,0,-1,923,1359,0,0
-294,-335,0,0,0,0,0,0,0,0,0,-1,930,1359,0,0
-287,-335,0,0,0,0,0,0,0,0,0,-1,937,1359,0,0
-280,-335,0,0,0,0,0,0,0,0,0,-1,944,1359,0,0
-273,-335,0,0,0,0,0,0,0,0,0,-1,951,1359,0,0
-266,-335,0,0,0,0,0,0,0,0,0,-1,958,1359,0,0
-259,-335,0,0,0,0,0,0,0,0,0,-1,965,1359,0,0
-252,-335,0,0,0,0,0,0,0,0,0,-1,972,1359,0,0
-245,-335,0,0,0,0,0,0,0,0,0,-1,979,1359,0,0
-238,-335,0,0,0,0,0,0,0,0,0,-1,986,1359,0,0
-231,-335,0,0,0,0,0,0,0,0,0,-1,993,1359,0,0
-224,-335,0,0,0,0,0,0,0,0,0,-1,1000,1359,0,0
-217,-335,0,0,0,0,0,0,0,0,0,-1,1007,1359,0,0
-210,-335,0,0,0,0,0,0,0,0,0,-1,1014,1359,0,0
-203,-335,0,0,0,0,0,0,0,0,0,-1,1021,1359,0,0
-196,-335,0,0,0,0,0,0,0,0,0,-1,1028,1359,0,0
-189,-335,0,0,0,0,0,0,0,0,0,-1,1035,1359,0,0
-182,-335,0,0,0,0,0,0,0,0,0,-1,1042,1359,0,0
-175,-335,0,0,0,0,0,0,0,0,0,-1,1049,1359,0,0
-168,-335,0,0,0,0,0,0,0,0,0,-1,1056,1359,0,0
-161,-335,0,0,0,0,0,0,0,0,0,-1,1063,1359,0,0
-154,-335,0,0,0,0,0,0,0,0,0,-1,1070,1359,0,0
-147,-335,0,0,0,0,0,0,0,0,0,-1,1077,1359,0,0
-140,-335,0,0,0,0,0,0,0,0,0,-1,1084,1359,0,0
-133,-335,0,0,0,0,0,0,0,0,0,-1,1091,1359,0,0
-126,-335,0,0,0,0,0,0,0,0,0,-1,1098,1359,0,0
-119,-335,0,0,0,0,0,0,0,0,0,-1,1105,1359,0,0
-112,-335,0,0,0,0,0,0,0,0,0,-1,1112,1359,0,0
-105,-335,0,0,0,0,0,0,0,0,0,-1,1119,1359,0,0
-98,-335,0,0,0,0,0,0,0,0,0,-1,1126,1359,0,0
-91,-335,0,0,0,0,0,0,0,0,0,-1,1133,1359,0,0
-84,-335,0,0,0,0,0,0,0,0,0,-1,1140,1359,0,0
-77,-335,0,0,0,0,0,0,0,0,0,-1,1147,1359,0,0
-70,-335,0,0,0,0,0,0,0,0,0,-1,1154,1359,0,0
-63,-335,0,0,0,0,0,0,0,0,0,-1,1161,1359,0,0
-56,-335,0,0,0,0,0,0,0,0,0,-1,1168,1359,0,0
-49,-335,0,0,0,0,0,0,0,0,0,-1,1175,1359,0,0
-42,-335,0,0,0,0,0,0,0,0,0,-1,1182,1359,0,0
-35,-335,0,0,0,0,0,0,0,0,0,-1,1189,1359,0,0
-28,-335,0,0,0,0,0,0,0,0,0,-1,1196,1359,0,0
-21,-335,0,0,0,0,0,0,0,0,0,-1,1203,1359,0,0
-14,-335,0,0,0,0,0,0,0,0,0,-1,1210,1359,0,0
-7,-335,0,0,0,0,0,0,0,0,0,-1,1217,1359,0,0
0,-335,0,0,0,0,0,0,0,0,0,-1,1224,1359,0,0
7,-335,0,0,0,0,0,0,0,0,0,-1,1231,1359,0,0
14,-335,0,0,0,0,0,0,0,0,0,-1,1238,1359,0,0
21,-335,0,0,0,0,0,0,0,0,0,-1,1245,1359,0,0
28,-335,0,0,0,0,0,0,0,0,0,-1,1252,1359,0,0
35,-335,0,0,0,0,0,0,0,0,0,-1,1259,1359,0,0
42,-335,0,0,0,0,0,0,0,0,0,-1,1266,1359,0,0
49,-335,0,0,0,0,0,0,0,0,0,-1,1273,1359,0,0
56,-335,0,0,0,0,0,0,0,0,0,-1,1280,1359,0,0
63,-335,0,0,0,0,0,0,0,0,0,-1,1287,1359,0,0
70,-335,0,0,0,0,0,0,0,0,0,-1,1294,1359,0,0
77,-335,0,0,0,0,0,0,0,0,0,-1,1301,1359,0,0
84,-335,0,0,0,0,0,0,0,0,0,-1,1308,1359,0,0
91,-335,0,0,0,0,0,0,0,0,0,-1,1315,1359,0,0
98,-335,0,0,0,0,0,0,0,0,0,-1,1322,1359,0,0
105,-335,0,0,0,0,0,0,0,0,0,-1,1329,1359,0,0
112,-335,0,0,0,0,0,0,0,0,0,-1,1336,1359,0,0
119,-335,0,0,0,0,0,0,0,0,0,-1,1343,1359,0,0
126,-335,0,0,0,0,0,0,0,0,0,-1,1350,1359,0,0
133,-335,0,0,0,0,0,0,0,0,0,-1,1357,1359,0,0
140,-335,0,0,0,0,0,0,0,0,0,-1,1364,1359,0,0
147,-335,0,0,0,0,0,0,0,0,0,-1,1371,1359,0,0
154,-335,0,0,0,0,0,0,0,0,0,-1,1378,1359,0,0
161,-335,0,0,0,0,0,0,0,0,0,-1,1385,1359,0,0
168,-335,0,0,0,0,0,0,0,0,0,-1,1392,1359,0,0
175,-335,0,0,0,0,0,0,0,0,0,-1,1399,1359,0,0
182,-335,0,0,0,0,0,0,0,0,0,-1,1406,1359,0,0
189,-335,0,0,0,0,0,0,0,0,0,-1,1413,1359,0,0
196,-335,0,0,0,0,0,0,0,0,0,-1,1420,1359,0,0
203,-335,0,0,0,0,0,0,0,0,0,-1,1427,1359,0,0
210,-335,0,0,0,0,0,0,0,0,0,-1,1434,1359,0,0
217,-335,0,0,0,0,0,0,0,0,0,-1,1441,1359,0,0
224,-335,0,0,0,0,0,0,0,0,0,-1,1448,1359,0,0
231,-335,0,0,0,0,0,0,0,0,0,-1,1455,1359,0,0
238,-335,0,0,0,0,0,0,0,0,0,-1,1462,1359,0,0
245,-335,0,0,0,0,0,0,0,0,0,-1,1469,1359,0,0
252,-335,0,0,0,0,0,0,0,0,0,-1,1476,1359,0,0
259,-335,0,0,0,0,0,0,0,0,0,-1,1483,1359,0,0
266,-335,0,0,0,0,0,0,0,0,0,-1,1490,1359,0,0
273,-335,0,0,0,0,0,0,0,0,0,-1,1497,1359,0,0
280,-335,0,0,0,0,0,0,0,0,0,-1,1504,1359,0,0
287,-335,0,0,0,0,0,0,0,0,0,-1,1511,1359,0,0
294,-335,0,0,0,0,0,0,0,0,0,-1,1518,1359,0,0
301,-335,0,0,0,0,0,0,0,0,0,-1,1525,1359,0,0
308,-335,0,0,0,0,0,0,0,0,0,-1,1532,1359,0,0
315,-335,0,0,0,0,0,0,0,0,0,-1,1539,1359,0,0
322,-335,0,0,0,0,0,0,0,0,0,-1,1546,1359,0,0
329,-335,0,0,0,0,0,0,0,0,0,-1,1553,1359,0,0
336,-335,0,0,0,0,0,0,0,0,0,-1,1560,1359,0,0
343,-335,0,0,0,0,0,0,0,0,0,-1,1567,1359,0,0
350,-335,0,0,0,0,0,0,0,0,0,-1,1574,1359,0,0
357,-335,0,0,0,0,0,0,0,0,0,-1,1581,1359,0,0
364,-335,0,0,0,0,0,0,0,0,0,-1,1588,1359,0,0
371,-335,0,0,0,0,0,0,0,0,0,-1,1595,1359,0,0
378,-335,0,0,0,0,0,0,0,0,0,-1,1602,1359,0,0
385,-335,0,0,0,0,0,0,0,0,0,-1,1609,1359,0,0
392,-335,0,0,0,0,0,0,0,0,0,-1,1616,1359,0,0
399,-335,0,0,0,0,0,0,0,0,0,-1,1623,1359,0,0
406,-335,0,0,0,0,0,0,0,0,0,-1,1630,1359,0,0
413,-335,0,0,0,0,0,0,0,0,0,-1,1637,1359,0,0
420,-335,0,0,0,0,0,0,0,0,0,-1,1644,1359,0,0
427,-335,0,0,0,0,0,0,0,0,0,-1,1651,1359,0,0
434,-335,0,0,0,0,0,0,0,0,0,-1,1658,1359,0,0
441,-335,0,0,0,0,0,0,0,0,0,-1,1665,1359,0,0
448,-335,0,0,0,0,0,0,0,0,0,-1,1672,1359,0,0
455,-335,0,0,0,0,0,0,0,0,0,-1,1679,1359,0,0
462,-335,0,0,0,0,0,0,0,0,0,-1,1686,1359,0,0
469,-335,0,0,0,0,0,0,0,0,0,-1,1693,1359,0,0
476,-335,0,0,0,0,0,0,0,0,0,-1,1700,1359,0,0
483,-335,0,0,0,0,0,0,0,0,0,-1,1707,1359,0,0
490,-335,0,0,0,0,0,0,0,0,0,-1,1714,1359,0,0
497,-335,0,0,0,0,0,0,0,0,0,-1,1721,1359,0,0
504,-335,0,0,0,0,0,0,0,0,0,-1,1728,1359,0,0
511,-335,0,0,0,0,0,0,0,0,0,-1,1735,1359,0,0
518,-335,0,0,0,0,0,0,0,0,0,-1,1742,1359,0,0
525,-335,0,0,0,0,0,0,0,0,0,-1,1749,1359,0,0
532,-335,0,0,0,0,0,0,0,0,0,-1,1756,1359,0,0
539,-335,0,0,0,0,0,0,0,0,0,-1,1763,1359,0,0
546,-335,0,0,0,0,0,0,0,0,0,-1,1770,1359,0,0
553,-335,0,0,0,0,0,0,0,0,0,-1,1777,1359,0,0
560,-335,0,0,0,0,0,0,0,0,0,-1,1784,1359,0,0
567,-335,0,0,0,0,0,0,0,0,0,-1,1791,1359,0,0
574,-335,18.209,6.4624,0,0,0,0,0,0,0,-1,1798,1359,18.209,-6.46235
581,-335,27.9615,1.13257,0,0,0,0,0,0,0,-1,1805,1359,27.9616,-1.1326
588,-335,27.0668,1.55286,0,0,0,0,0,0,0,-1,1812,1359,27.0668,-1.55285
595,-335,25.9718,2.11279,0,0,0,0,0,0,0,-1,1819,1359,25.9718,-2.11281
602,-335,24.5096,3.34387,0,0,0,0,0,0,0,-1,1826,1359,24.5097,-3.34382
609,-335,19.8302,5.17273,0,0,0,0,0,0,0,-1,1833,1359,19.8302,-5.17272
616,-335,18.9532,4.63953,0,0,0,0,0,0,0,-1,1840,1359,18.9532,-4.63955
623,-335,21.1826,6.32349,0,0,0,0,0,0,0,-1,1847,1359,21.1826,-6.32349
630,-335,14.3407,5.88062,0,0,0,0,0,0,0,-1,1854,1359,14.3408,-5.88057
637,-335,15.5875,6.20349,0,0,0,0,0,0,0,-1,1861,1359,15.5875,-6.20348
644,-335,15.63,6.76489,0,0,0,0,0,0,0,-1,1868,1359,15.63,-6.76487
651,-335,15.2417,6.67969,-0.00968653,-0.00753609,0.00638712,-0.00213432,-0.0150883,0.868787,0.0094283,0.0219954,1875,1359,15.2417,-6.67972
658,-335,15.1697,6.53711,-0.00685716,-0.0062996,0.00669645,0.000123869,-0.0132806,0.806202,0.00889533,0.0144301,1882,1359,15.1697,-6.53715
665,-335,15.1949,6.32727,-0.00553934,-0.00551237,0.00544827,-7.75619e-05,-0.0109741,0.786636,0.00729038,0.0143262,1889,1359,15.195,-6.32728
672,-335,15.2109,6.11365,-0.00386941,-0.00355307,0.00400251,0.000294391,-0.00771687,0.805147,0.00524547,0.0161263,1896,1359,15.2109,-6.11362
679,-335,15.2229,5.93066,-0.00224814,-0.00150674,0.00240528,0.000556243,-0.00431112,0.861857,0.0030763,0.0129815,1903,1359,15.2229,-5.93069
686,-335,15.23,5.72144,-0.00111219,-0.00045579,0.00101572,0.000283436,-0.00185141,0.941663,0.00133879,0.0103229,1910,1359,15.23,-5.72144
693,-335,15.2197,5.50659,-4.58416e-05,0.000433216,-0.000364205,0.000629599,-0.000242225,-1.07627,0.000519646,0.00940741,1917,1359,15.2197,-5.50656
700,-335,15.2062,5.32751,0.000974514,0.000913201,-0.00184775,0.00279186,-0.000904145,-0.777103,0.00222473,0.0108,1924,1359,15.2061,-5.32746
707,-335,15.2198,5.14758,0.00141546,0.000418788,-0.00308274,0.00403988,-0.00220564,-0.705265,0.00365732,0.0141227,1931,1359,15.2199,-5.14763
714,-335,15.2449,4.90222,0.00117754,-0.000613294,-0.00403038,0.00441077,-0.00384653,-0.67609,0.00477106,0.0201695,1938,1359,15.2449,-4.90226
721,-335,15.0775,4.58521,0.000707831,-0.00227764,-0.00515238,0.00457936,-0.00614916,-0.6444,0.00621617,0.0389783,1945,1359,15.0775,-4.58526
728,-335,15.0616,4.27039,0,0,0,0,0,0,0,-1,1952,1359,15.0616,-4.27035
735,-335,14.1342,3.71106,0,0,0,0,0,0,0,-1,1959,1359,14.1342,-3.7111
742,-335,14.3613,3.72595,0,0,0,0,0,0,0,-1,1966,1359,14.3613,-3.72595
749,-335,14.5891,3.76685,-0.00768722,-0.0298971,-0.00662895,-0.00585916,-0.0317252,-0.269082,0.0194929,0.0443271,1973,1359,14.5891,-3.7669
756,-335,14.663,3.61865,0,0,0,0,0,0,0,-1,1980,1359,14.6629,-3.6186
763,-335,0,0,0,0,0,0,0,0,0,-1,1987,1359,0,0
770,-335,0,0,0,0,0,0,0,0,0,-1,1994,1359,0,0
777,-335,0,0,0,0,0,0,0,0,0,-1,2001,1359,0,0
784,-335,0,0,0,0,0,0,0,0,0,-1,2008,1359,0,0
791,-335,0,0,0,0,0,0,0,0,0,-1,2015,1359,0,0
798,-335,0,0,0,0,0,0,0,0,0,-1,2022,1359,0,0
805,-335,0,0,0,0,0,0,0,0,0,-1,2029,1359,0,0
812,-335,0,0,0,0,0,0,0,0,0,-1,2036,1359,0,0
-700,-342,0,0,0,0,0,0,0,0,0,-1,524,1366,0,0
-693,-342,0,0,0,0,0,0,0,0,0,-1,531,1366,0,0
-686,-342,0,0,0,0,0,0,0,0,0,-1,538,1366,0,0
-679,-342,0,0,0,0,0,0,0,0,0,-1,545,1366,0,0
-672,-342,0,0,0,0,0,0,0,0,0,-1,552,1366,0,0
-665,-342,0,0,0,0,0,0,0,0,0,-1,559,1366,0,0
-658,-342,0,0,0,0,0,0,0,0,0,-1,566,1366,0,0
-651,-342,0,0,0,0,0,0,0,0,0,-1,573,1366,0,0
-644,-342,0,0,0,0,0,0,0,0,0,-1,580,1366,0,0
-637,-342,-8.61096,-4.02783,0,0,0,0,0,0,0,-1,587,1366,-8.61093,4.02788
-630,-342,-6.78467,-3.7489,0,0,0,0,0,0,0,-1,594,1366,-6.78469,3.74895
-623,-342,-5.08649,-3.78381,0,0,0,0,0,0,0,-1,601,1366,-5.08651,3.78385
-616,-342,-1.0625,0.0172119,0,0,0,0,0,0,0,-1,608,1366,-1.06251,-0.0172578
-609,-342,-5.72308,-0.100586,0,0,0,0,0,0,0,-1,615,1366,-5.72307,0.100632
-602,-342,-5.88855,1.85352,0,0,0,0,0,0,0,-1,622,1366,-5.88854,-1.85349
-595,-342,-5.94025,2.1936,-0.00907273,0.00612268,0.00336294,0.00683368,-0.00978372,1.36244,0.00964432,0.0443912,629,1366,-5.94023,-2.19363
-588,-342,-5.93781,2.38367,-0.00931054,0.00361933,0.00355255,0.00453112,-0.0102223,1.31956,0.0087266,0.0433764,636,1366,-5.93778,-2.38366
-581,-342,-6.42523,2.73157,-0.0069891,0.00292383,0.00223215,0.00340327,-0.00746854,1.35922,0.00642145,0.0358333,643,1366,-6.42525,-2.73158
-574,-342,-6.48267,3.05042,-0.0049573,0.00221655,0.0013758,0.00247135,-0.0052121,1.38767,0.00452914,0.0107927,650,1366,-6.48268,-3.05047
-567,-342,-6.41858,3.25977,-0.00341838,0.00168044,0.000724504,0.00178139,-0.00351933,1.43235,0.00311472,0.0163265,657,1366,-6.41859,-3.25977
-560,-342,-6.43536,3.47498,-0.00236786,0.00106213,0.000200005,0.00107375,-0.00237948,1.51275,0.00204068,0.0253517,664,1366,-6.43534,-3.47502
-553,-342,-6.50488,3.66882,-0.0018841,9.23795e-06,-0.000242254,3.9743e-05,-0.0019146,-1.44553,0.00128985,0.0268728,671,1366,-6.50487,-3.66887
-546,-342,-6.52094,3.88416,-0.00162032,-0.00124345,-0.000739831,-0.000668433,-0.00219534,-0.910099,0.00129938,0.0262011,678,1366,-6.52092,-3.88417
-539,-342,-6.47815,4.18872,-0.00177065,-0.00260722,-0.00119585,-0.000922043,-0.00345583,-0.617159,0.00206629,0.0233877,685,1366,-6.47817,-4.18866
-532,-342,-6.47101,4.44775,-0.00245154,-0.00442981,-0.00175205,-0.00142869,-0.00545266,-0.528423,0.00326479,0.0178463,692,1366,-6.47104,-4.44771
-525,-342,-6.42712,4.67334,-0.00393653,-0.00675403,-0.00247586,-0.00249669,-0.00819387,-0.526743,0.00484953,0.0113417,699,1366,-6.42711,-4.67331
-518,-342,-6.39935,4.90601,-0.00628965,-0.00962914,-0.00331918,-0.00424388,-0.0116749,-0.552352,0.00682372,0.0137615,706,1366,-6.39938,-4.90605
-511,-342,-6.45898,5.03027,-0.00971538,-0.013426,-0.00436115,-0.0068313,-0.0163101,-0.584286,0.00945789,0.0376173,713,1366,-6.45897,-5.03023
-504,-342,-6.43878,5.13818,0,0,0,0,0,0,0,-1,720,1366,-6.43879,-5.13823
-497,-342,-6.69183,5.16785,0,0,0,0,0,0,0,-1,727,1366,-6.69185,-5.16783
-490,-342,-5.53406,4.00598,0,0,0,0,0,0,0,-1,734,1366,-5.53408,-4.00597
-483,-342,-4.07678,3.40454,0,0,0,0,0,0,0,-1,741,1366,-4.0768,-3.40457
-476,-342,-10.8237,5.47131,0,0,0,0,0,0,0,-1,748,1366,-10.8236,-5.47137
-469,-342,-10.3543,5.60779,0,0,0,0,0,0,0,-1,755,1366,-10.3543,-5.60774
-462,-342,-9.56256,5.11755,0,0,0,0,0,0,0,-1,762,1366,-9.56255,-5.11756
-455,-342,-9.48853,5.49353,0,0,0,0,0,0,0,-1,769,1366,-9.48854,-5.49352
-448,-342,-9.64563,6.00867,0,0,0,0,0,0,0,-1,776,1366,-9.64564,-6.00867
-441,-342,0,0,0,0,0,0,0,0,0,-1,783,1366,0,0
-434,-342,0,0,0,0,0,0,0,0,0,-1,790,1366,0,0
-427,-342,0,0,0,0,0,0,0,0,0,-1,797,1366,0,0
-420,-342,0,0,0,0,0,0,0,0,0,-1,804,1366,0,0
-413,-342,0,0,0,0,0,0,0,0,0,-1,811,1366,0,0
-406,-342,0,0,0,0,0,0,0,0,0,-1,818,1366,0,0
-399,-342,0,0,0,0,0,0,0,0,0,-1,825,1366,0,0
-392,-342,0,0,0,0,0,0,0,0,0,-1,832,1366,0,0
-385,-342,0,0,0,0,0,0,0,0,0,-1,839,1366,0,0
-378,-342,0,0,0,0,0,0,0,0,0,-1,846,1366,0,0
-371,-342,0,0,0,0,0,0,0,0,0,-1,853,1366,0,0
-364,-342,0,0,0,0,0,0,0,0,0,-1,860,1366,0,0
-357,-342,0,0,0,0,0,0,0,0,0,-1,867,1366,0,0
-350,-342,0,0,0,0,0,0,0,0,0,-1,874,1366,0,0
-343,-342,0,0,0,0,0,0,0,0,0,-1,881,1366,0,0
-336,-342,0,0,0,0,0,0,0,0,0,-1,888,1366,0,0
-329,-342,0,0,0,0,0,0,0,0,0,-1,895,1366,0,0
-322,-342,0,0,0,0,0,0,0,0,0,-1,902,1366,0,0
-315,-342,0,0,0,0,0,0,0,0,0,-1,909,1366,0,0
-308,-342,0,0,0,0,0,0,0,0,0,-1,916,1366,0,0
-301,-342,0,0,0,0,0,0,0,0,0,-1,923,1366,0,0
-294,-342,0,0,0,0,0,0,0,0,0,-1,930,1366,0,0
-287,-342,0,0,0,0,0,0,0,0,0,-1,937,1366,0,0
-280,-342,0,0,0,0,0,0,0,0,0,-1,944,1366,0,0
-273,-342,0,0,0,0,0,0,0,0,0,-1,951,1366,0,0
-266,-342,0,0,0,0,0,0,0,0,0,-1,958,1366,0,0
-259,-342,0,0,0,0,0,0,0,0,0,-1,965,1366,0,0
-252,-342,0,0,0,0,0,0,0,0,0,-1,972,1366,0,0
-245,-342,0,0,0,0,0,0,0,0,0,-1,979,1366,0,0
-238,-342,0,0,0,0,0,0,0,0,0,-1,986,1366,0,0
-231,-342,0,0,0,0,0,0,0,0,0,-1,993,1366,0,0
-224,-342,0,0,0,0,0,0,0,0,0,-1,1000,1366,0,0
-217,-342,0,0,0,0,0,0,0,0,0,-1,1007,1366,0,0
-210,-342,0,0,0,0,0,0,0,0,0,-1,1014,1366,0,0
-203,-342,0,0,0,0,0,0,0,0,0,-1,1021,1366,0,0
-196,-342,0,0,0,0,0,0,0,0,0,-1,1028,1366,0,0
-189,-342,0,0,0,0,0,0,0,0,0,-1,1035,1366,0,0
-182,-342,0,0,0,0,0,0,0,0,0,-1,1042,1366,0,0
-175,-342,0,0,0,0,0,0,0,0,0,-1,1049,1366,0,0
-168,-342,0,0,0,0,0,0,0,0,0,-1,1056,1366,0,0
-161,-342,0,0,0,0,0,0,0,0,0,-1,1063,1366,0,0
-154,-342,0,0,0,0,0,0,0,0,0,-1,1070,1366,0,0
-147,-342,0,0,0,0,0,0,0,0,0,-1,1077,1366,0,0
-140,-342,0,0,0,0,0,0,0,0,0,-1,1084,1366,0,0
-133,-342,0,0,0,0,0,0,0,0,0,-1,1091,1366,0,0
-126,-342,0,0,0,0,0,0,0,0,0,-1,1098,1366,0,0
-119,-342,0,0,0,0,0,0,0,0,0,-1,1105,1366,0,0
-112,-342,0,0,0,0,0,0,0,0,0,-1,1112,1366,0,0
-105,-342,0,0,0,0,0,0,0,0,0,-1,1119,1366,0,0
-98,-342,0,0,0,0,0,0,0,0,0,-1,1126,1366,0,0
-91,-342,0,0,0,0,0,0,0,0,0,-1,1133,1366,0,0
-84,-342,0,0,0,0,0,0,0,0,0,-1,1140,1366,0,0
-77,-342,0,0,0,0,0,0,0,0,0,-1,1147,1366,0,0
-70,-342,0,0,0,0,0,0,0,0,0,-1,1154,1366,0,0
-63,-342,0,0,0,0,0,0,0,0,0,-1,1161,1366,0,0
-56,-342,0,0,0,0,0,0,0,0,0,-1,1168,1366,0,0
-49,-342,0,0,0,0,0,0,0,0,0,-1,1175,1366,0,0
-42,-342,0,0,0,0,0,0,0,0,0,-1,1182,1366,0,0
-35,-342,0,0,0,0,0,0,0,0,0,-1,1189,1366,0,0
-28,-342,0,0,0,0,0,0,0,0,0,-1,1196,1366,0,0
-21,-342,0,0,0,0,0,0,0,0,0,-1,1203,1366,0,0
-14,-342,0,0,0,0,0,0,0,0,0,-1,1210,1366,0,0
-7,-342,0,0,0,0,0,0,0,0,0,-1,1217,1366,0,0
0,-342,0,0,0,0,0,0,0,0,0,-1,1224,1366,0,0
7,-342,0,0,0,0,0,0,0,0,0,-1,1231,1366,0,0
14,-342,0,0,0,0,0,0,0,0,0,-1,1238,1366,0,0
21,-342,0,0,0,0,0,0,0,0,0,-1,1245,1366,0,0
28,-342,0,0,0,0,0,0,0,0,0,-1,1252,1366,0,0
35,-342,0,0,0,0,0,0,0,0,0,-1,1259,1366,0,0
42,-342,0,0,0,0,0,0,0,0,0,-1,1266,1366,0,0
49,-342,0,0,0,0,0,0,0,0,0,-1,1273,1366,0,0
56,-342,0,0,0,0,0,0,0,0,0,-1,1280,1366,0,0
63,-342,0,0,0,0,0,0,0,0,0,-1,1287,1366,0,0
70,-342,0,0,0,0,0,0,0,0,0,-1,1294,1366,0,0
77,-342,0,0,0,0,0,0,0,0,0,-1,1301,1366,0,0
84,-342,0,0,0,0,0,0,0,0,0,-1,1308,1366,0,0
91,-342,0,0,0,0,0,0,0,0,0,-1,1315,1366,0,0
98,-342,0,0,0,0,0,0,0,0,0,-1,1322,1366,0,0
105,-342,0,0,0,0,0,0,0,0,0,-1,1329,1366,0,0
112,-342,0,0,0,0,0,0,0,0,0,-1,1336,1366,0,0
119,-342,0,0,0,0,0,0,0,0,0,-1,1343,1366,0,0
126,-342,0,0,0,0,0,0,0,0,0,-1,1350,1366,0,0
133,-342,0,0,0,0,0,0,0,0,0,-1,1357,1366,0,0
140,-342,0,0,0,0,0,0,0,0,0,-1,1364,1366,0,0
147,-342,0,0,0,0,0,0,0,0,0,-1,1371,1366,0,0
154,-342,0,0,0,0,0,0,0,0,0,-1,1378,1366,0,0
161,-342,0,0,0,0,0,0,0,0,0,-1,1385,1366,0,0
168,-342,0,0,0,0,0,0,0,0,0,-1,1392,1366,0,0
175,-342,0,0,0,0,0,0,0,0,0,-1,1399,1366,0,0
182,-342,0,0,0,0,0,0,0,0,0,-1,1406,1366,0,0
189,-342,0,0,0,0,0,0,0,0,0,-1,1413,1366,0,0
196,-342,0,0,0,0,0,0,0,0,0,-1,1420,1366,0,0
203,-342,0,0,0,0,0,0,0,0,0,-1,1427,1366,0,0
210,-342,0,0,0,0,0,0,0,0,0,-1,1434,1366,0,0
217,-342,0,0,0,0,0,0,0,0,0,-1,1441,1366,0,0
224,-342,0,0,0,0,0,0,0,0,0,-1,1448,1366,0,0
231,-342,0,0,0,0,0,0,0,0,0,-1,1455,1366,0,0
238,-342,0,0,0,0,0,0,0,0,0,-1,1462,1366,0,0
245,-342,0,0,0,0,0,0,0,0,0,-1,1469,1366,0,0
252,-342,0,0,0,0,0,0,0,0,0,-1,1476,1366,0,0
259,-342,0,0,0,0,0,0,0,0,0,-1,1483,1366,0,0
266,-342,0,0,0,0,0,0,0,0,0,-1,1490,1366,0,0
273,-342,0,0,0,0,0,0,0,0,0,-1,1497,1366,0,0
280,-342,0,0,0,0,0,0,0,0,0,-1,1504,1366,0,0
287,-342,0,0,0,0,0,0,0,0,0,-1,1511,1366,0,0
294,-342,0,0,0,0,0,0,0,0,0,-1,1518,1366,0,0
301,-342,0,0,0,0,0,0,0,0,0,-1,1525,1366,0,0
308,-342,0,0,0,0,0,0,0,0,0,-1,1532,1366,0,0
315,-342,0,0,0,0,0,0,0,0,0,-1,1539,1366,0,0
322,-342,0,0,0,0,0,0,0,0,0,-1,1546,1366,0,0
329,-342,0,0,0,0,0,0,0,0,0,-1,1553,1366,0,0
336,-342,0,0,0,0,0,0,0,0,0,-1,1560,1366,0,0
343,-342,0,0,0,0,0,0,0,0,0,-1,1567,1366,0,0
350,-342,0,0,0,0,0,0,0,0,0,-1,1574,1366,0,0
357,-342,0,0,0,0,0,0,0,0,0,-1,1581,1366,0,0
364,-342,0,0,0,0,0,0,0,0,0,-1,1588,1366,0,0
371,-342,0,0,0,0,0,0,0,0,0,-1,1595,1366,0,0
378,-342,0,0,0,0,0,0,0,0,0,-1,1602,1366,0,0
385,-342,0,0,0,0,0,0,0,0,0,-1,1609,1366,0,0
392,-342,0,0,0,0,0,0,0,0,0,-1,1616,1366,0,0
399,-342,0,0,0,0,0,0,0,0,0,-1,1623,1366,0,0
406,-342,0,0,0,0,0,0,0,0,0,-1,1630,1366,0,0
413,-342,0,0,0,0,0,0,0,0,0,-1,1637,1366,0,0
420,-342,0,0,0,0,0,0,0,0,0,-1,1644,1366,0,0
427,-342,0,0,0,0,0,0,0,0,0,-1,1651,1366,0,0
434,-342,0,0,0,0,0,0,0,0,0,-1,1658,1366,0,0
441,-342,0,0,0,0,0,0,0,0,0,-1,1665,1366,0,0
448,-342,0,0,0,0,0,0,0,0,0,-1,1672,1366,0,0
455,-342,0,0,0,0,0,0,0,0,0,-1,1679,1366,0,0
462,-342,0,0,0,0,0,0,0,0,0,-1,1686,1366,0,0
469,-342,0,0,0,0,0,0,0,0,0,-1,1693,1366,0,0
476,-342,0,0,0,0,0,0,0,0,0,-1,1700,1366,0,0
483,-342,0,0,0,0,0,0,0,0,0,-1,1707,1366,0,0
490,-342,0,0,0,0,0,0,0,0,0,-1,1714,1366,0,0
497,-342,0,0,0,0,0,0,0,0,0,-1,1721,1366,0,0
504,-342,0,0,0,0,0,0,0,0,0,-1,1728,1366,0,0
511,-342,0,0,0,0,0,0,0,0,0,-1,1735,1366,0,0
518,-342,0,0,0,0,0,0,0,0,0,-1,1742,1366,0,0
525,-342,0,0,0,0,0,0,0,0,0,-1,1749,1366,0,0
532,-342,0,0,0,0,0,0,0,0,0,-1,1756,1366,0,0
539,-342,0,0,0,0,0,0,0,0,0,-1,1763,1366,0,0
546,-342,0,0,0,0,0,0,0,0,0,-1,1770,1366,0,0
553,-342,0,0,0,0,0,0,0,0,0,-1,1777,1366,0,0
560,-342,0,0,0,0,0,0,0,0,0,-1,1784,1366,0,0
567,-342,19.0521,6.35071,0,0,0,0,0,0,0,-1,1791,1366,19.0521,-6.35065
574,-342,16.8334,6.3042,0,0,0,0,0,0,0,-1,1798,1366,16.8333,-6.30423
581,-342,17.3655,6.37537,0,0,0,0,0,0,0,-1,1805,1366,17.3654,-6.37543
588,-342,18.308,5.646,0,0,0,0,0,0,0,-1,1812,1366,18.308,-5.64597
595,-342,18.9955,5.03552,0,0,0,0,0,0,0,-1,1819,1366,18.9955,-5.03548
602,-342,14.4944,0.827515,0,0,0,0,0,0,0,-1,1826,1366,14.4944,-0.8275
609,-342,19.4332,5.3396,0,0,0,0,0,0,0,-1,1833,1366,19.4333,-5.3396
616,-342,18.6832,4.66638,0,0,0,0,0,0,0,-1,1840,1366,18.6832,-4.66634
623,-342,14.7743,6.86426,0,0,0,0,0,0,0,-1,1847,1366,14.7743,-6.86423
630,-342,14.3629,5.85767,0,0,0,0,0,0,0,-1,1854,1366,14.3629,-5.8577
637,-342,14.6653,6.44287,0,0,0,0,0,0,0,-1,1861,1366,14.6653,-6.44281
644,-342,14.9164,6.9613,0,0,0,0,0,0,0,-1,1868,1366,14.9164,-6.96135
651,-342,15.032,6.78906,-0.00774354,-0.00660946,0.00634073,-0.000810464,-0.0135425,0.829993,0.00877069,0.0216566,1875,1366,15.032,-6.78907
658,-342,15.0313,6.54797,-0.00494904,-0.00544689,0.00606391,0.000871049,-0.011267,0.764885,0.00781786,0.0186058,1882,1366,15.0313,-6.54793
665,-342,14.9972,6.33667,-0.00379351,-0.00492749,0.00456188,0.000236482,-0.00895748,0.723571,0.00605202,0.0148759,1889,1366,14.9972,-6.33672
672,-342,15.026,6.12671,-0.00240994,-0.00321263,0.00318169,0.000395618,-0.00601819,0.722658,0.00415029,0.0121386,1896,1366,15.026,-6.12666
679,-342,15.0125,5.93774,-0.00108795,-0.00147946,0.00180583,0.000532707,-0.00310012,0.731407,0.00226529,0.0119048,1903,1366,15.0124,-5.9377
686,-342,15.0294,5.74792,-0.000125449,-0.000519816,0.00059606,0.000305196,-0.000950461,0.625658,0.000756189,0.0101362,1910,1366,15.0294,-5.74799
693,-342,15.017,5.52124,0.000825363,0.000231724,-0.000570556,0.00117169,-0.000114603,-0.545549,0.000821994,0.0110386,1917,1366,15.017,-5.5213
700,-342,15.0055,5.31799,0.00179514,0.000478117,-0.00182196,0.00307394,-0.000800681,-0.611987,0.00236187,0.0130637,1924,1366,15.0054,-5.31801
707,-342,15.03,5.11548,0.00225344,-0.000254012,-0.00288237,0.00414294,-0.00214351,-0.580259,0.00369017,0.0126273,1931,1366,15.03,-5.11543
714,-342,15.0371,4.93652,0.00201988,-0.00166012,-0.003615,0.00423621,-0.00387645,-0.549991,0.00468539,0.028888,1938,1366,15.0371,-4.93647
721,-342,15.0156,4.5697,0.00168169,-0.00388413,-0.00453356,0.00421834,-0.00642078,-0.510129,0.00618622,0.0403639,1945,1366,15.0156,-4.56965
728,-342,15.328,4.02112,0,0,0,0,0,0,0,-1,1952,1366,15.328,-4.02115
735,-342,14.2197,2.97791,0,0,0,0,0,0,0,-1,1959,1366,14.2197,-2.97792
742,-342,14.3223,4.11584,0,0,0,0,0,0,0,-1,1966,1366,14.3223,-4.11585
749,-342,14.5602,4.25049,0,0,0,0,0,0,0,-1,1973,1366,14.5602,-4.25051
756,-342,0,0,0,0,0,0,0,0,0,-1,1980,1366,0,0
763,-342,0,0,0,0,0,0,0,0,0,-1,1987,1366,0,0
770,-342,0,0,0,0,0,0,0,0,0,-1,1994,1366,0,0
777,-342,0,0,0,0,0,0,0,0,0,-1,2001,1366,0,0
784,-342,0,0,0,0,0,0,0,0,0,-1,2008,1366,0,0
791,-342,0,0,0,0,0,0,0,0,0,-1,2015,1366,0,0
798,-342,0,0,0,0,0,0,0,0,0,-1,2022,1366,0,0
805,-342,0,0,0,0,0,0,0,0,0,-1,2029,1366,0,0
812,-342,0,0,0,0,0,0,0,0,0,-1,2036,1366,0,0
-700,-349,0,0,0,0,0,0,0,0,0,-1,524,1373,0,0
-693,-349,0,0,0,0,0,0,0,0,0,-1,531,1373,0,0
-686,-349,0,0,0,0,0,0,0,0,0,-1,538,1373,0,0
-679,-349,0,0,0,0,0,0,0,0,0,-1,545,1373,0,0
-672,-349,0,0,0,0,0,0,0,0,0,-1,552,1373,0,0
-665,-349,0,0,0,0,0,0,0,0,0,-1,559,1373,0,0
-658,-349,0,0,0,0,0,0,0,0,0,-1,566,1373,0,0
-651,-349,0,0,0,0,0,0,0,0,0,-1,573,1373,0,0
-644,-349,0,0,0,0,0,0,0,0,0,-1,580,1373,0,0
-637,-349,0,0,0,0,0,0,0,0,0,-1,587,1373,0,0
-630,-349,-6.71686,-4.06128,0,0,0,0,0,0,0,-1,594,1373,-6.71686,4.06133
-623,-349,-0.144897,0.199829,0,0,0,0,0,0,0,-1,601,1373,-0.144915,-0.199789
-616,-349,-5.2066,-0.188232,0,0,0,0,0,0,0,-1,608,1373,-5.20659,0.188211
-609,-349,-6.83978,0.513672,0,0,0,0,0,0,0,-1,615,1373,-6.83978,-0.513629
-602,-349,-5.33179,2.68335,0,0,0,0,0,0,0,-1,622,1373,-5.33182,-2.68335
-595,-349,-5.81415,2.74719,0,0,0,0,0,0,0,-1,629,1373,-5.81413,-2.74713
-588,-349,-5.96643,2.93884,-0.00750061,0.00418177,0.00404195,0.00544388,-0.00876272,1.26814,0.00827646,0.0462138,636,1373,-5.96644,-2.93888
-581,-349,-6.0321,2.98022,-0.00580594,0.00393015,0.00282769,0.00469182,-0.00656761,1.30768,0.00653064,0.0397539,643,1373,-6.0321,-2.98025
-574,-349,-6.21051,3.04541,-0.00427636,0.00345898,0.00198786,0.00393992,-0.0047573,1.33342,0.00502873,0.0205163,650,1373,-6.2105,-3.04544
-567,-349,-6.21161,3.30713,-0.00296696,0.00283461,0.00136544,0.0031399,-0.00327226,1.35082,0.00370233,0.0167071,657,1373,-6.21162,-3.30713
-560,-349,-6.23303,3.53503,-0.00196454,0.00205422,0.000808834,0.0022109,-0.00212122,1.37945,0.00250133,0.0210293,664,1373,-6.23301,-3.53504
-553,-349,-6.23895,3.70386,-0.00144071,0.000924824,0.00029541,0.000961157,-0.00147705,1.44842,0.00141816,0.0258746,671,1373,-6.23898,-3.70388
-546,-349,-6.22754,3.91724,-0.00111419,-0.000373371,-0.000229373,-0.000308102,-0.00117945,-1.29357,0.000706367,0.0285685,678,1373,-6.22751,-3.91718
-539,-349,-6.2475,4.20361,-0.00107583,-0.0017062,-0.000672596,-0.00064823,-0.0021338,-0.566286,0.00126317,0.0231734,685,1373,-6.24751,-4.20366
-532,-349,-6.22742,4.45203,-0.00138647,-0.00334604,-0.00117124,-0.000839234,-0.00389328,-0.437085,0.00236592,0.0158636,692,1373,-6.22744,-4.45203
-525,-349,-6.20233,4.68323,-0.00225083,-0.00540563,-0.00175546,-0.00146818,-0.00618828,-0.419386,0.00373362,0.0119564,699,1373,-6.20232,-4.68323
-518,-349,-6.19867,4.92944,-0.00364996,-0.00777589,-0.00234118,-0.00259252,-0.00883333,-0.424243,0.00524292,0.012348,706,1373,-6.19868,-4.92943
-511,-349,-6.0885,5.17688,-0.00568215,-0.0107311,-0.00298788,-0.00429506,-0.0121182,-0.434632,0.00709461,0.0313972,713,1373,-6.08851,-5.17689
-504,-349,-5.97516,5.35864,0,0,0,0,0,0,0,-1,720,1373,-5.97513,-5.35866
-497,-349,-7.9339,5.58789,0,0,0,0,0,0,0,-1,727,1373,-7.93388,-5.58785
-490,-349,-6.74347,4.78418,0,0,0,0,0,0,0,-1,734,1373,-6.74346,-4.78422
-483,-349,-5.66974,3.7395,0,0,0,0,0,0,0,-1,741,1373,-5.66975,-3.73949
-476,-349,-10.0748,5.01782,0,0,0,0,0,0,0,-1,748,1373,-10.0748,-5.01778
-469,-349,-9.67529,5.65527,0,0,0,0,0,0,0,-1,755,1373,-9.67526,-5.65532
-462,-349,-8.99353,6.39392,0,0,0,0,0,0,0,-1,762,1373,-8.99356,-6.39394
-455,-349,-8.48639,6.92773,0,0,0,0,0,0,0,-1,769,1373,-8.48637,-6.9277
-448,-349,-12.627,2.69104,0,0,0,0,0,0,0,-1,776,1373,-12.627,-2.69107
-441,-349,0,0,0,0,0,0,0,0,0,-1,783,1373,0,0
-434,-349,0,0,0,0,0,0,0,0,0,-1,790,1373,0,0
-427,-349,0,0,0,0,0,0,0,0,0,-1,797,1373,0,0
-420,-349,0,0,0,0,0,0,0,0,0,-1,804,1373,0,0
-413,-349,0,0,0,0,0,0,0,0,0,-1,811,1373,0,0
-406,-349,0,0,0,0,0,0,0,0,0,-1,818,1373,0,0
-399,-349,0,0,0,0,0,0,0,0,0,-1,825,1373,0,0
-392,-349,0,0,0,0,0,0,0,0,0,-1,832,1373,0,0
-385,-349,0,0,0,0,0,0,0,0,0,-1,839,1373,0,0
-378,-349,0,0,0,0,0,0,0,0,0,-1,846,1373,0,0
-371,-349,0,0,0,0,0,0,0,0,0,-1,853,1373,0,0
-364,-349,0,0,0,0,0,0,0,0,0,-1,860,1373,0,0
-357,-349,0,0,0,0,0,0,0,0,0,-1,867,1373,0,0
-350,-349,0,0,0,0,0,0,0,0,0,-1,874,1373,0,0
-343,-349,0,0,0,0,0,0,0,0,0,-1,881,1373,0,0
-336,-349,0,0,0,0,0,0,0,0,0,-1,888,1373,0,0
-329,-349,0,0,0,0,0,0,0,0,0,-1,895,1373,0,0
-322,-349,0,0,0,0,0,0,0,0,0,-1,902,1373,0,0
-315,-349,0,0,0,0,0,0,0,0,0,-1,909,1373,0,0
-308,-349,0,0,0,0,0,0,0,0,0,-1,916,1373,0,0
-301,-349,0,0,0,0,0,0,0,0,0,-1,923,1373,0,0
-294,-349,0,0,0,0,0,0,0,0,0,-1,930,1373,0,0
-287,-349,0,0,0,0,0,0,0,0,0,-1,937,1373,0,0
-280,-349,0,0,0,0,0,0,0,0,0,-1,944,1373,0,0
-273,-349,0,0,0,0,0,0,0,0,0,-1,951,1373,0,0
-266,-349,0,0,0,0,0,0,0,0,0,-1,958,1373,0,0
-259,-349,0,0,0,0,0,0,0,0,0,-1,965,1373,0,0
-252,-349,0,0,0,0,0,0,0,0,0,-1,972,1373,0,0
-245,-349,0,0,0,0,0,0,0,0,0,-1,979,1373,0,0
-238,-349,0,0,0,0,0,0,0,0,0,-1,986,1373,0,0
-231,-349,0,0,0,0,0,0,0,0,0,-1,993,1373,0,0
-224,-349,0,0,0,0,0,0,0,0,0,-1,1000,1373,0,0
-217,-349,0,0,0,0,0,0,0,0,0,-1,1007,1373,0,0
-210,-349,0,0,0,0,0,0,0,0,0,-1,1014,1373,0,0
-203,-349,0,0,0,0,0,0,0,0,0,-1,1021,1373,0,0
-196,-349,0,0,0,0,0,0,0,0,0,-1,1028,1373,0,0
-189,-349,0,0,0,0,0,0,0,0,0,-1,1035,1373,0,0
-182,-349,0,0,0,0,0,0,0,0,0,-1,1042,1373,0,0
-175,-349,0,0,0,0,0,0,0,0,0,-1,1049,1373,0,0
-168,-349,0,0,0,0,0,0,0,0,0,-1,1056,1373,0,0
-161,-349,0,0,0,0,0,0,0,0,0,-1,1063,1373,0,0
-154,-349,0,0,0,0,0,0,0,0,0,-1,1070,1373,0,0
-147,-349,0,0,0,0,0,0,0,0,0,-1,1077,1373,0,0
-140,-349,0,0,0,0,0,0,0,0,0,-1,1084,1373,0,0
-133,-349,0,0,0,0,0,0,0,0,0,-1,1091,1373,0,0
-126,-349,0,0,0,0,0,0,0,0,0,-1,1098,1373,0,0
-119,-349,0,0,0,0,0,0,0,0,0,-1,1105,1373,0,0
-112,-349,0,0,0,0,0,0,0,0,0,-1,1112,1373,0,0
-105,-349,0,0,0,0,0,0,0,0,0,-1,1119,1373,0,0
-98,-349,0,0,0,0,0,0,0,0,0,-1,1126,1373,0,0
-91,-349,0,0,0,0,0,0,0,0,0,-1,1133,1373,0,0
-84,-349,0,0,0,0,0,0,0,0,0,-1,1140,1373,0,0
-77,-349,0,0,0,0,0,0,0,0,0,-1,1147,1373,0,0
-70,-349,0,0,0,0,0,0,0,0,0,-1,1154,1373,0,0
-63,-349,0,0,0,0,0,0,0,0,0,-1,1161,1373,0,0
-56,-349,0,0,0,0,0,0,0,0,0,-1,1168,1373,0,0
-49,-349,0,0,0,0,0,0,0,0,0,-1,1175,1373,0,0
-42,-349,0,0,0,0,0,0,0,0,0,-1,1182,1373,0,0
-35,-349,0,0,0,0,0,0,0,0,0,-1,1189,1373,0,0
-28,-349,0,0,0,0,0,0,0,0,0,-1,1196,1373,0,0
-21,-349,0,0,0,0,0,0,0,0,0,-1,1203,1373,0,0
-14,-349,0,0,0,0,0,0,0,0,0,-1,1210,1373,0,0
-7,-349,0,0,0,0,0,0,0,0,0,-1,1217,1373,0,0
0,-349,0,0,0,0,0,0,0,0,0,-1,1224,1373,0,0
7,-349,0,0,0,0,0,0,0,0,0,-1,1231,1373,0,0
14,-349,0,0,0,0,0,0,0,0,0,-1,1238,1373,0,0
21,-349,0,0,0,0,0,0,0,0,0,-1,1245,1373,0,0
28,-349,0,0,0,0,0,0,0,0,0,-1,1252,1373,0,0
35,-349,0,0,0,0,0,0,0,0,0,-1,1259,1373,0,0
42,-349,0,0,0,0,0,0,0,0,0,-1,1266,1373,0,0
49,-349,0,0,0,0,0,0,0,0,0,-1,1273,1373,0,0
56,-349,0,0,0,0,0,0,0,0,0,-1,1280,1373,0,0
63,-349,0,0,0,0,0,0,0,0,0,-1,1287,1373,0,0
70,-349,0,0,0,0,0,0,0,0,0,-1,1294,1373,0,0
77,-349,0,0,0,0,0,0,0,0,0,-1,1301,1373,0,0
84,-349,0,0,0,0,0,0,0,0,0,-1,1308,1373,0,0
91,-349,0,0,0,0,0,0,0,0,0,-1,1315,1373,0,0
98,-349,0,0,0,0,0,0,0,0,0,-1,1322,1373,0,0
105,-349,0,0,0,0,0,0,0,0,0,-1,1329,1373,0,0
112,-349,0,0,0,0,0,0,0,0,0,-1,1336,1373,0,0
119,-349,0,0,0,0,0,0,0,0,0,-1,1343,1373,0,0
126,-349,0,0,0,0,0,0,0,0,0,-1,1350,1373,0,0
133,-349,0,0,0,0,0,0,0,0,0,-1,1357,1373,0,0
140,-349,0,0,0,0,0,0,0,0,0,-1,1364,1373,0,0
147,-349,0,0,0,0,0,0,0,0,0,-1,1371,1373,0,0
154,-349,0,0,0,0,0,0,0,0,0,-1,1378,1373,0,0
161,-349,0,0,0,0,0,0,0,0,0,-1,1385,1373,0,0
168,-349,0,0,0,0,0,0,0,0,0,-1,1392,1373,0,0
175,-349,0,0,0,0,0,0,0,0,0,-1,1399,1373,0,0
182,-349,0,0,0,0,0,0,0,0,0,-1,1406,1373,0,0
189,-349,0,0,0,0,0,0,0,0,0,-1,1413,1373,0,0
196,-349,0,0,0,0,0,0,0,0,0,-1,1420,1373,0,0
203,-349,0,0,0,0,0,0,0,0,0,-1,1427,1373,0,0
210,-349,0,0,0,0,0,0,0,0,0,-1,1434,1373,0,0
217,-349,0,0,0,0,0,0,0,0,0,-1,1441,1373,0,0
224,-349,0,0,0,0,0,0,0,0,0,-1,1448,1373,0,0
231,-349,0,0,0,0,0,0,0,0,0,-1,1455,1373,0,0
238,-349,0,0,0,0,0,0,0,0,0,-1,1462,1373,0,0
245,-349,0,0,0,0,0,0,0,0,0,-1,1469,1373,0,0
252,-349,0,0,0,0,0,0,0,0,0,-1,1476,1373,0,0
259,-349,0,0,0,0,0,0,0,0,0,-1,1483,1373,0,0
266,-349,0,0,0,0,0,0,0,0,0,-1,1490,1373,0,0
273,-349,0,0,0,0,0,0,0,0,0,-1,1497,1373,0,0
280,-349,0,0,0,0,0,0,0,0,0,-1,1504,1373,0,0
287,-349,0,0,0,0,0,0,0,0,0,-1,1511,1373,0,0
294,-349,0,0,0,0,0,0,0,0,0,-1,1518,1373,0,0
301,-349,0,0,0,0,0,0,0,0,0,-1,1525,1373,0,0
308,-349,0,0,0,0,0,0,0,0,0,-1,1532,1373,0,0
315,-349,0,0,0,0,0,0,0,0,0,-1,1539,1373,0,0
322,-349,0,0,0,0,0,0,0,0,0,-1,1546,1373,0,0
329,-349,0,0,0,0,0,0,0,0,0,-1,1553,1373,0,0
336,-349,0,0,0,0,0,0,0,0,0,-1,1560,1373,0,0
343,-349,0,0,0,0,0,0,0,0,0,-1,1567,1373,0,0
350,-349,0,0,0,0,0,0,0,0,0,-1,1574,1373,0,0
357,-349,0,0,0,0,0,0,0,0,0,-1,1581,1373,0,0
364,-349,0,0,0,0,0,0,0,0,0,-1,1588,1373,0,0
371,-349,0,0,0,0,0,0,0,0,0,-1,1595,1373,0,0
378,-349,0,0,0,0,0,0,0,0,0,-1,1602,1373,0,0
385,-349,0,0,0,0,0,0,0,0,0,-1,1609,1373,0,0
392,-349,0,0,0,0,0,0,0,0,0,-1,1616,1373,0,0
399,-349,0,0,0,0,0,0,0,0,0,-1,1623,1373,0,0
406,-349,0,0,0,0,0,0,0,0,0,-1,1630,1373,0,0
413,-349,0,0,0,0,0,0,0,0,0,-1,1637,1373,0,0
420,-349,0,0,0,0,0,0,0,0,0,-1,1644,1373,0,0
427,-349,0,0,0,0,0,0,0,0,0,-1,1651,1373,0,0
434,-349,0,0,0,0,0,0,0,0,0,-1,1658,1373,0,0
441,-349,0,0,0,0,0,0,0,0,0,-1,1665,1373,0,0
448,-349,0,0,0,0,0,0,0,0,0,-1,1672,1373,0,0
455,-349,0,0,0,0,0,0,0,0,0,-1,1679,1373,0,0
462,-349,0,0,0,0,0,0,0,0,0,-1,1686,1373,0,0
469,-349,0,0,0,0,0,0,0,0,0,-1,1693,1373,0,0
476,-349,0,0,0,0,0,0,0,0,0,-1,1700,1373,0,0
483,-349,0,0,0,0,0,0,0,0,0,-1,1707,1373,0,0
490,-349,0,0,0,0,0,0,0,0,0,-1,1714,1373,0,0
497,-349,0,0,0,0,0,0,0,0,0,-1,1721,1373,0,0
504,-349,0,0,0,0,0,0,0,0,0,-1,1728,1373,0,0
511,-349,0,0,0,0,0,0,0,0,0,-1,1735,1373,0,0
518,-349,0,0,0,0,0,0,0,0,0,-1,1742,1373,0,0
525,-349,0,0,0,0,0,0,0,0,0,-1,1749,1373,0,0
532,-349,0,0,0,0,0,0,0,0,0,-1,1756,1373,0,0
539,-349,0,0,0,0,0,0,0,0,0,-1,1763,1373,0,0
546,-349,0,0,0,0,0,0,0,0,0,-1,1770,1373,0,0
553,-349,0,0,0,0,0,0,0,0,0,-1,1777,1373,0,0
560,-349,20.231,3.6106,0,0,0,0,0,0,0,-1,1784,1373,20.231,-3.61055
567,-349,20.3247,3.48193,0,0,0,0,0,0,0,-1,1791,1373,20.3247,-3.48192
574,-349,18.3553,5.01379,0,0,0,0,0,0,0,-1,1798,1373,18.3553,-5.01381
581,-349,16.1492,6.32056,0,0,0,0,0,0,0,-1,1805,1373,16.1492,-6.32053
588,-349,17.5219,4.98438,0,0,0,0,0,0,0,-1,1812,1373,17.5219,-4.98443
595,-349,18.5311,4.06519,0,0,0,0,0,0,0,-1,1819,1373,18.5312,-4.06521
602,-349,13.3639,7.17029,0,0,0,0,0,0,0,-1,1826,1373,13.3639,-7.17028
609,-349,14.8447,7.49219,0,0,0,0,0,0,0,-1,1833,1373,14.8447,-7.49219
616,-349,15.0641,6.98962,0,0,0,0,0,0,0,-1,1840,1373,15.064,-6.98963
623,-349,14.896,6.53479,0,0,0,0,0,0,0,-1,1847,1373,14.8961,-6.53474
630,-349,14.728,6.07983,0,0,0,0,0,0,0,-1,1854,1373,14.7281,-6.07984
637,-349,14.8938,7.20679,0,0,0,0,0,0,0,-1,1861,1373,14.8938,-7.2068
644,-349,14.7303,7.0011,-0.00942061,-0.00551001,0.00624588,-0.000920531,-0.0140101,0.937093,0.00904884,0.0449696,1868,1373,14.7304,-7.00113
651,-349,14.8981,6.68994,-0.00570533,-0.00583288,0.00610451,0.00033574,-0.0118739,0.780175,0.00803022,0.0224253,1875,1373,14.8981,-6.68989
658,-349,14.8505,6.50684,-0.00320077,-0.00479573,0.00530546,0.00136681,-0.00936331,0.7108,0.00674414,0.025169,1882,1373,14.8505,-6.50688
665,-349,14.8334,6.36255,-0.00230102,-0.00449363,0.00369346,0.000455402,-0.00725005,0.641128,0.0049921,0.0192445,1889,1373,14.8334,-6.36257
672,-349,14.8141,6.13477,-0.00124097,-0.00297883,0.00245469,0.000494053,-0.00471385,0.615287,0.00331953,0.0144138,1896,1373,14.814,-6.13473
679,-349,14.7968,5.948,-0.000219653,-0.00150382,0.00135937,0.000641647,-0.00236512,0.564761,0.00182855,0.0141412,1903,1373,14.7968,-5.94805
686,-349,14.827,5.76599,0.000557962,-0.000669941,0.000413818,0.000684403,-0.000796382,0.296539,0.000855746,0.012128,1910,1373,14.8271,-5.76597
693,-349,14.8217,5.53821,0.0013895,-9.74524e-05,-0.000448464,0.00151429,-0.000222237,-0.271383,0.00109117,0.0139736,1917,1373,14.8216,-5.53816
700,-349,14.8223,5.32813,0.002326,-0.000121965,-0.0013759,0.00294355,-0.000739516,-0.421883,0.00224976,0.0160069,1924,1373,14.8223,-5.32814
707,-349,14.8572,5.10022,0.00285008,-0.00111302,-0.0021719,0.00380854,-0.00207149,-0.415598,0.00344386,0.0214283,1931,1373,14.8571,-5.10016
714,-349,14.8275,4.93408,0.00275042,-0.00296034,-0.00263701,0.00378182,-0.00399174,-0.37283,0.00448861,0.0311689,1938,1373,14.8275,-4.93409
721,-349,15.0925,4.62146,0.00267827,-0.005784,-0.00327255,0.00379616,-0.00690189,-0.329169,0.00626268,0.041934,1945,1373,15.0925,-4.62144
728,-349,15.5386,4.16943,0,0,0,0,0,0,0,-1,1952,1373,15.5386,-4.16939
735,-349,15.3109,-0.321899,0,0,0,0,0,0,0,-1,1959,1373,15.3109,0.32184
742,-349,15.9106,1.26624,0,0,0,0,0,0,0,-1,1966,1373,15.9106,-1.26625
749,-349,14.7747,4.70361,0,0,0,0,0,0,0,-1,1973,1373,14.7747,-4.70356
756,-349,0,0,0,0,0,0,0,0,0,-1,1980,1373,0,0
763,-349,0,0,0,0,0,0,0,0,0,-1,1987,1373,0,0
770,-349,0,0,0,0,0,0,0,0,0,-1,1994,1373,0,0
777,-349,0,0,0,0,0,0,0,0,0,-1,2001,1373,0,0
784,-349,0,0,0,0,0,0,0,0,0,-1,2008,1373,0,0
791,-349,0,0,0,0,0,0,0,0,0,-1,2015,1373,0,0
798,-349,0,0,0,0,0,0,0,0,0,-1,2022,1373,0,0
805,-349,0,0,0,0,0,0,0,0,0,-1,2029,1373,0,0
812,-349,0,0,0,0,0,0,0,0,0,-1,2036,1373,0,0
-700,-356,0,0,0,0,0,0,0,0,0,-1,524,1380,0,0
-693,-356,0,0,0,0,0,0,0,0,0,-1,531,1380,0,0
-686,-356,0,0,0,0,0,0,0,0,0,-1,538,1380,0,0
-679,-356,0,0,0,0,0,0,0,0,0,-1,545,1380,0,0
-672,-356,0,0,0,0,0,0,0,0,0,-1,552,1380,0,0
-665,-356,0,0,0,0,0,0,0,0,0,-1,559,1380,0,0
-658,-356,0,0,0,0,0,0,0,0,0,-1,566,1380,0,0
-651,-356,0,0,0,0,0,0,0,0,0,-1,573,1380,0,0
-644,-356,0,0,0,0,0,0,0,0,0,-1,580,1380,0,0
-637,-356,0,0,0,0,0,0,0,0,0,-1,587,1380,0,0
-630,-356,-5.27063,-5.19885,0,0,0,0,0,0,0,-1,594,1380,-5.2706,5.19882
-623,-356,-0.263855,-0.675781,0,0,0,0,0,0,0,-1,601,1380,-0.263835,0.675841
-616,-356,-8.26532,-3.43945,0,0,0,0,0,0,0,-1,608,1380,-8.2653,3.43948
-609,-356,-4.88483,0.734497,0,0,0,0,0,0,0,-1,615,1380,-4.88485,-0.734532
-602,-356,-6.19312,1.37061,0,0,0,0,0,0,0,-1,622,1380,-6.19313,-1.37056
-595,-356,-5.86536,2.06104,0,0,0,0,0,0,0,-1,629,1380,-5.86536,-2.06108
-588,-356,-5.8302,3.32886,0,0,0,0,0,0,0,-1,636,1380,-5.83018,-3.32884
-581,-356,-5.74219,3.25488,-0.00468654,0.00614688,0.00411899,0.00753508,-0.00607474,1.24573,0.0078727,0.0384829,643,1380,-5.74216,-3.25482
-574,-356,-5.84406,3.11487,-0.00345265,0.00526378,0.0030456,0.00622249,-0.00441136,1.26583,0.00616907,0.0268381,650,1380,-5.84404,-3.11483
-567,-356,-6.0072,3.26929,-0.00237029,0.00426807,0.00223137,0.00494838,-0.0030506,1.27486,0.00466134,0.0157322,657,1380,-6.0072,-3.26924
-560,-356,-5.99365,3.53784,-0.00149214,0.00321913,0.00154394,0.00368001,-0.00195302,1.28071,0.00330279,0.0167365,664,1380,-5.99368,-3.53785
-553,-356,-5.97717,3.71289,-0.000935821,0.00193699,0.000934668,0.00221432,-0.00121314,1.28236,0.00200679,0.0196284,671,1380,-5.97714,-3.71289
-546,-356,-5.99219,3.92383,-0.000518894,0.000531409,0.000375802,0.000652022,-0.000639507,1.26023,0.000745676,0.0227969,678,1380,-5.99217,-3.92384
-539,-356,-5.99658,4.19421,-0.000255971,-0.000838729,-6.21415e-05,-0.000249418,-0.000845282,-0.105059,0.000501501,0.0163835,685,1380,-5.99661,-4.19425
-532,-356,-6.01428,4.44763,-0.000171318,-0.00236919,-0.000507495,-5.97951e-05,-0.00248072,-0.216314,0.00163424,0.0145173,692,1380,-6.0143,-4.44761
-525,-356,-6.00012,4.68469,-0.000418289,-0.00426448,-0.000963921,-0.000190236,-0.00449253,-0.232317,0.00293367,0.0120948,699,1380,-6.0001,-4.68474
-518,-356,-5.96692,4.93481,-0.000931669,-0.00627218,-0.00134714,-0.000611097,-0.00659275,-0.23362,0.00420629,0.0115583,706,1380,-5.96693,-4.93482
-511,-356,-5.84821,5.21057,-0.00170245,-0.00862043,-0.0016842,-0.00131422,-0.00900866,-0.226558,0.00561917,0.0229346,713,1380,-5.84819,-5.21055
-504,-356,-5.7265,5.54248,0,0,0,0,0,0,0,-1,720,1380,-5.72652,-5.54246
-497,-356,-5.68604,4.96387,0,0,0,0,0,0,0,-1,727,1380,-5.68605,-4.96385
-490,-356,-7.95288,5.5625,0,0,0,0,0,0,0,-1,734,1380,-7.95285,-5.56246
-483,-356,-7.2627,4.07446,0,0,0,0,0,0,0,-1,741,1380,-7.2627,-4.07441
-476,-356,-5.1936,4.16016,0,0,0,0,0,0,0,-1,748,1380,-5.1936,-4.16012
-469,-356,-9.87476,6.46399,0,0,0,0,0,0,0,-1,755,1380,-9.87473,-6.46401
-462,-356,-8.45734,7.80469,0,0,0,0,0,0,0,-1,762,1380,-8.45736,-7.80465
-455,-356,-11.2014,2.23572,0,0,0,0,0,0,0,-1,769,1380,-11.2014,-2.23576
-448,-356,-11.7062,2.1864,0,0,0,0,0,0,0,-1,776,1380,-11.7062,-2.18639
-441,-356,-12.4677,2.37158,0,0,0,0,0,0,0,-1,783,1380,-12.4677,-2.37161
-434,-356,0,0,0,0,0,0,0,0,0,-1,790,1380,0,0
-427,-356,0,0,0,0,0,0,0,0,0,-1,797,1380,0,0
-420,-356,0,0,0,0,0,0,0,0,0,-1,804,1380,0,0
-413,-356,0,0,0,0,0,0,0,0,0,-1,811,1380,0,0
-406,-356,0,0,0,0,0,0,0,0,0,-1,818,1380,0,0
-399,-356,0,0,0,0,0,0,0,0,0,-1,825,1380,0,0
-392,-356,0,0,0,0,0,0,0,0,0,-1,832,1380,0,0
-385,-356,0,0,0,0,0,0,0,0,0,-1,839,1380,0,0
-378,-356,0,0,0,0,0,0,0,0,0,-1,846,1380,0,0
-371,-356,0,0,0,0,0,0,0,0,0,-1,853,1380,0,0
-364,-356,0,0,0,0,0,0,0,0,0,-1,860,1380,0,0
-357,-356,0,0,0,0,0,0,0,0,0,-1,867,1380,0,0
-350,-356,0,0,0,0,0,0,0,0,0,-1,874,1380,0,0
-343,-356,0,0,0,0,0,0,0,0,0,-1,881,1380,0,0
-336,-356,0,0,0,0,0,0,0,0,0,-1,888,1380,0,0
-329,-356,0,0,0,0,0,0,0,0,0,-1,895,1380,0,0
-322,-356,0,0,0,0,0,0,0,0,0,-1,902,1380,0,0
-315,-356,0,0,0,0,0,0,0,0,0,-1,909,1380,0,0
-308,-356,0,0,0,0,0,0,0,0,0,-1,916,1380,0,0
-301,-356,0,0,0,0,0,0,0,0,0,-1,923,1380,0,0
-294,-356,0,0,0,0,0,0,0,0,0,-1,930,1380,0,0
-287,-356,0,0,0,0,0,0,0,0,0,-1,937,1380,0,0
-280,-356,0,0,0,0,0,0,0,0,0,-1,944,1380,0,0
-273,-356,0,0,0,0,0,0,0,0,0,-1,951,1380,0,0
-266,-356,0,0,0,0,0,0,0,0,0,-1,958,1380,0,0
-259,-356,0,0,0,0,0,0,0,0,0,-1,965,1380,0,0
-252,-356,0,0,0,0,0,0,0,0,0,-1,972,1380,0,0
-245,-356,0,0,0,0,0,0,0,0,0,-1,979,1380,0,0
-238,-356,0,0,0,0,0,0,0,0,0,-1,986,1380,0,0
-231,-356,0,0,0,0,0,0,0,0,0,-1,993,1380,0,0
-224,-356,0,0,0,0,0,0,0,0,0,-1,1000,1380,0,0
-217,-356,0,0,0,0,0,0,0,0,0,-1,1007,1380,0,0
-210,-356,0,0,0,0,0,0,0,0,0,-1,1014,1380,0,0
-203,-356,0,0,0,0,0,0,0,0,0,-1,1021,1380,0,0
-196,-356,0,0,0,0,0,0,0,0,0,-1,1028,1380,0,0
-189,-356,0,0,0,0,0,0,0,0,0,-1,1035,1380,0,0
-182,-356,0,0,0,0,0,0,0,0,0,-1,1042,1380,0,0
-175,-356,0,0,0,0,0,0,0,0,0,-1,1049,1380,0,0
-168,-356,0,0,0,0,0,0,0,0,0,-1,1056,1380,0,0
-161,-356,0,0,0,0,0,0,0,0,0,-1,1063,1380,0,0
-154,-356,0,0,0,0,0,0,0,0,0,-1,1070,1380,0,0
-147,-356,0,0,0,0,0,0,0,0,0,-1,1077,1380,0,0
-140,-356,0,0,0,0,0,0,0,0,0,-1,1084,1380,0,0
-133,-356,0,0,0,0,0,0,0,0,0,-1,1091,1380,0,0
-126,-356,0,0,0,0,0,0,0,0,0,-1,1098,1380,0,0
-119,-356,0,0,0,0,0,0,0,0,0,-1,1105,1380,0,0
-112,-356,0,0,0,0,0,0,0,0,0,-1,1112,1380,0,0
-105,-356,0,0,0,0,0,0,0,0,0,-1,1119,1380,0,0
-98,-356,0,0,0,0,0,0,0,0,0,-1,1126,1380,0,0
-91,-356,0,0,0,0,0,0,0,0,0,-1,1133,1380,0,0
-84,-356,0,0,0,0,0,0,0,0,0,-1,1140,1380,0,0
-77,-356,0,0,0,0,0,0,0,0,0,-1,1147,1380,0,0
-70,-356,0,0,0,0,0,0,0,0,0,-1,1154,1380,0,0
-63,-356,0,0,0,0,0,0,0,0,0,-1,1161,1380,0,0
-56,-356,0,0,0,0,0,0,0,0,0,-1,1168,1380,0,0
-49,-356,0,0,0,0,0,0,0,0,0,-1,1175,1380,0,0
-42,-356,0,0,0,0,0,0,0,0,0,-1,1182,1380,0,0
-35,-356,0,0,0,0,0,0,0,0,0,-1,1189,1380,0,0
-28,-356,0,0,0,0,0,0,0,0,0,-1,1196,1380,0,0
-21,-356,0,0,0,0,0,0,0,0,0,-1,1203,1380,0,0
-14,-356,0,0,0,0,0,0,0,0,0,-1,1210,1380,0,0
-7,-356,0,0,0,0,0,0,0,0,0,-1,1217,1380,0,0
0,-356,0,0,0,0,0,0,0,0,0,-1,1224,1380,0,0
7,-356,0,0,0,0,0,0,0,0,0,-1,1231,1380,0,0
14,-356,0,0,0,0,0,0,0,0,0,-1,1238,1380,0,0
21,-356,0,0,0,0,0,0,0,0,0,-1,1245,1380,0,0
28,-356,0,0,0,0,0,0,0,0,0,-1,1252,1380,0,0
35,-356,0,0,0,0,0,0,0,0,0,-1,1259,1380,0,0
42,-356,0,0,0,0,0,0,0,0,0,-1,1266,1380,0,0
49,-356,0,0,0,0,0,0,0,0,0,-1,1273,1380,0,0
56,-356,0,0,0,0,0,0,0,0,0,-1,1280,1380,0,0
63,-356,0,0,0,0,0,0,0,0,0,-1,1287,1380,0,0
70,-356,0,0,0,0,0,0,0,0,0,-1,1294,1380,0,0
77,-356,0,0,0,0,0,0,0,0,0,-1,1301,1380,0,0
84,-356,0,0,0,0,0,0,0,0,0,-1,1308,1380,0,0
91,-356,0,0,0,0,0,0,0,0,0,-1,1315,1380,0,0
98,-356,0,0,0,0,0,0,0,0,0,-1,1322,1380,0,0
105,-356,0,0,0,0,0,0,0,0,0,-1,1329,1380,0,0
112,-356,0,0,0,0,0,0,0,0,0,-1,1336,1380,0,0
119,-356,0,0,0,0,0,0,0,0,0,-1,1343,1380,0,0
126,-356,0,0,0,0,0,0,0,0,0,-1,1350,1380,0,0
133,-356,0,0,0,0,0,0,0,0,0,-1,1357,1380,0,0
140,-356,0,0,0,0,0,0,0,0,0,-1,1364,1380,0,0
147,-356,0,0,0,0,0,0,0,0,0,-1,1371,1380,0,0
154,-356,0,0,0,0,0,0,0,0,0,-1,1378,1380,0,0
161,-356,0,0,0,0,0,0,0,0,0,-1,1385,1380,0,0
168,-356,0,0,0,0,0,0,0,0,0,-1,1392,1380,0,0
175,-356,0,0,0,0,0,0,0,0,0,-1,1399,1380,0,0
182,-356,0,0,0,0,0,0,0,0,0,-1,1406,1380,0,0
189,-356,0,0,0,0,0,0,0,0,0,-1,1413,1380,0,0
196,-356,0,0,0,0,0,0,0,0,0,-1,1420,1380,0,0
203,-356,0,0,0,0,0,0,0,0,0,-1,1427,1380,0,0
210,-356,0,0,0,0,0,0,0,0,0,-1,1434,1380,0,0
217,-356,0,0,0,0,0,0,0,0,0,-1,1441,1380,0,0
224,-356,0,0,0,0,0,0,0,0,0,-1,1448,1380,0,0
231,-356,0,0,0,0,0,0,0,0,0,-1,1455,1380,0,0
238,-356,0,0,0,0,0,0,0,0,0,-1,1462,1380,0,0
245,-356,0,0,0,0,0,0,0,0,0,-1,1469,1380,0,0
252,-356,0,0,0,0,0,0,0,0,0,-1,1476,1380,0,0
259,-356,0,0,0,0,0,0,0,0,0,-1,1483,1380,0,0
266,-356,0,0,0,0,0,0,0,0,0,-1,1490,1380,0,0
273,-356,0,0,0,0,0,0,0,0,0,-1,1497,1380,0,0
280,-356,0,0,0,0,0,0,0,0,0,-1,1504,1380,0,0
287,-356,0,0,0,0,0,0,0,0,0,-1,1511,1380,0,0
294,-356,0,0,0,0,0,0,0,0,0,-1,1518,1380,0,0
301,-356,0,0,0,0,0,0,0,0,0,-1,1525,1380,0,0
308,-356,0,0,0,0,0,0,0,0,0,-1,1532,1380,0,0
315,-356,0,0,0,0,0,0,0,0,0,-1,1539,1380,0,0
322,-356,0,0,0,0,0,0,0,0,0,-1,1546,1380,0,0
329,-356,0,0,0,0,0,0,0,0,0,-1,1553,1380,0,0
336,-356,0,0,0,0,0,0,0,0,0,-1,1560,1380,0,0
343,-356,0,0,0,0,0,0,0,0,0,-1,1567,1380,0,0
350,-356,0,0,0,0,0,0,0,0,0,-1,1574,1380,0,0
357,-356,0,0,0,0,0,0,0,0,0,-1,1581,1380,0,0
364,-356,0,0,0,0,0,0,0,0,0,-1,1588,1380,0,0
371,-356,0,0,0,0,0,0,0,0,0,-1,1595,1380,0,0
378,-356,0,0,0,0,0,0,0,0,0,-1,1602,1380,0,0
385,-356,0,0,0,0,0,0,0,0,0,-1,1609,1380,0,0
392,-356,0,0,0,0,0,0,0,0,0,-1,1616,1380,0,0
399,-356,0,0,0,0,0,0,0,0,0,-1,1623,1380,0,0
406,-356,0,0,0,0,0,0,0,0,0,-1,1630,1380,0,0
413,-356,0,0,0,0,0,0,0,0,0,-1,1637,1380,0,0
420,-356,0,0,0,0,0,0,0,0,0,-1,1644,1380,0,0
427,-356,0,0,0,0,0,0,0,0,0,-1,1651,1380,0,0
434,-356,0,0,0,0,0,0,0,0,0,-1,1658,1380,0,0
441,-356,0,0,0,0,0,0,0,0,0,-1,1665,1380,0,0
448,-356,0,0,0,0,0,0,0,0,0,-1,1672,1380,0,0
455,-356,0,0,0,0,0,0,0,0,0,-1,1679,1380,0,0
462,-356,0,0,0,0,0,0,0,0,0,-1,1686,1380,0,0
469,-356,0,0,0,0,0,0,0,0,0,-1,1693,1380,0,0
476,-356,0,0,0,0,0,0,0,0,0,-1,1700,1380,0,0
483,-356,0,0,0,0,0,0,0,0,0,-1,1707,1380,0,0
490,-356,0,0,0,0,0,0,0,0,0,-1,1714,1380,0,0
497,-356,0,0,0,0,0,0,0,0,0,-1,1721,1380,0,0
504,-356,0,0,0,0,0,0,0,0,0,-1,1728,1380,0,0
511,-356,0,0,0,0,0,0,0,0,0,-1,1735,1380,0,0
518,-356,0,0,0,0,0,0,0,0,0,-1,1742,1380,0,0
525,-356,0,0,0,0,0,0,0,0,0,-1,1749,1380,0,0
532,-356,0,0,0,0,0,0,0,0,0,-1,1756,1380,0,0
539,-356,0,0,0,0,0,0,0,0,0,-1,1763,1380,0,0
546,-356,0,0,0,0,0,0,0,0,0,-1,1770,1380,0,0
553,-356,0,0,0,0,0,0,0,0,0,-1,1777,1380,0,0
560,-356,20.2863,3.19324,0,0,0,0,0,0,0,-1,1784,1380,20.2863,-3.19324
567,-356,20.293,3.20374,0,0,0,0,0,0,0,-1,1791,1380,20.293,-3.20372
574,-356,14.5682,6.27368,0,0,0,0,0,0,0,-1,1798,1380,14.5682,-6.27365
581,-356,15.6521,5.05688,0,0,0,0,0,0,0,-1,1805,1380,15.6521,-5.05694
588,-356,16.7401,3.95667,0,0,0,0,0,0,0,-1,1812,1380,16.7401,-3.9566
595,-356,12.9683,6.802,0,0,0,0,0,0,0,-1,1819,1380,12.9682,-6.80198
602,-356,15.1255,7.78821,0,0,0,0,0,0,0,-1,1826,1380,15.1255,-7.78821
609,-356,15.0029,7.23645,-0.0466285,0.0244216,-0.0040406,0.0246507,-0.0468575,-1.51417,0.0419436,0.0453035,1833,1380,15.0029,-7.23641
616,-356,14.9556,6.81702,-0.0359896,0.0146503,7.85382e-06,0.0146503,-0.0359896,1.57064,0.0300898,0.0406778,1840,1380,14.9556,-6.81697
623,-356,14.8834,6.51477,-0.0270853,0.00742638,0.00288274,0.00766551,-0.0273244,1.48803,0.0212377,0.0377628,1847,1380,14.8835,-6.51478
630,-356,14.9275,6.49988,0,0,0,0,0,0,0,-1,1854,1380,14.9275,-6.49987
637,-356,14.6594,6.70557,-0.0128217,-0.00239138,0.00649663,0.000724369,-0.0159375,1.12361,0.0108745,0.0426037,1861,1380,14.6594,-6.70556
644,-356,14.5797,6.99146,-0.00766544,-0.00451857,0.00661046,0.000703138,-0.0128871,0.902235,0.00883514,0.0262914,1868,1380,14.5797,-6.99147
651,-356,14.6326,6.68872,-0.00420024,-0.00480073,0.0057775,0.00128481,-0.0102858,0.759437,0.00732312,0.0146631,1875,1380,14.6326,-6.68872
658,-356,14.6255,6.46082,-0.0020235,-0.00394028,0.00454805,0.00166604,-0.00762982,0.681555,0.0057233,0.0142261,1882,1380,14.6255,-6.46077
665,-356,14.6178,6.35205,-0.00131201,-0.00386097,0.00295862,0.000634957,-0.00580794,0.582024,0.00410003,0.0143772,1889,1380,14.6178,-6.35199
672,-356,14.6,6.14807,-0.00049891,-0.00261277,0.00187529,0.000596791,-0.00370848,0.528783,0.00269338,0.0147991,1896,1380,14.5999,-6.14803
679,-356,14.5908,5.92871,0.000321243,-0.00147973,0.00105993,0.000811554,-0.00197004,0.433274,0.00165173,0.0172221,1903,1380,14.5908,-5.92876
686,-356,14.5999,5.74963,0.00101499,-0.000865497,0.000386427,0.00109131,-0.000941808,0.19497,0.00117488,0.0153014,1910,1380,14.5998,-5.74957
693,-356,14.6462,5.53979,0.00179132,-0.000585943,-0.000138599,0.00179937,-0.000593996,-0.0580398,0.00143904,0.0124813,1917,1380,14.6462,-5.53976
700,-356,14.6345,5.30859,0.00271902,-0.000971025,-0.000653934,0.00283148,-0.00108349,-0.170308,0.0023342,0.0173253,1924,1380,14.6345,-5.30862
707,-356,14.6521,4.90247,0.00335075,-0.00231066,-0.0010705,0.00354641,-0.00250632,-0.180776,0.0035117,0.0388845,1931,1380,14.652,-4.90247
714,-356,14.7876,4.55713,0,0,0,0,0,0,0,-1,1938,1380,14.7877,-4.55709
721,-356,15.1661,4.30249,0,0,0,0,0,0,0,-1,1945,1380,15.1661,-4.3025
728,-356,13.2661,3.90723,0,0,0,0,0,0,0,-1,1952,1380,13.2661,-3.90722
735,-356,16.1771,-0.659912,0,0,0,0,0,0,0,-1,1959,1380,16.1771,0.659892
742,-356,15.4358,0.389893,0,0,0,0,0,0,0,-1,1966,1380,15.4358,-0.389855
749,-356,16.13,2.48547,0,0,0,0,0,0,0,-1,1973,1380,16.13,-2.48541
756,-356,0,0,0,0,0,0,0,0,0,-1,1980,1380,0,0
763,-356,0,0,0,0,0,0,0,0,0,-1,1987,1380,0,0
770,-356,0,0,0,0,0,0,0,0,0,-1,1994,1380,0,0
777,-356,0,0,0,0,0,0,0,0,0,-1,2001,1380,0,0
784,-356,0,0,0,0,0,0,0,0,0,-1,2008,1380,0,0
791,-356,0,0,0,0,0,0,0,0,0,-1,2015,1380,0,0
798,-356,0,0,0,0,0,0,0,0,0,-1,2022,1380,0,0
805,-356,0,0,0,0,0,0,0,0,0,-1,2029,1380,0,0
812,-356,0,0,0,0,0,0,0,0,0,-1,2036,1380,0,0
-700,-363,0,0,0,0,0,0,0,0,0,-1,524,1387,0,0
-693,-363,0,0,0,0,0,0,0,0,0,-1,531,1387,0,0
-686,-363,0,0,0,0,0,0,0,0,0,-1,538,1387,0,0
-679,-363,0,0,0,0,0,0,0,0,0,-1,545,1387,0,0
-672,-363,0,0,0,0,0,0,0,0,0,-1,552,1387,0,0
-665,-363,0,0,0,0,0,0,0,0,0,-1,559,1387,0,0
-658,-363,0,0,0,0,0,0,0,0,0,-1,566,1387,0,0
-651,-363,0,0,0,0,0,0,0,0,0,-1,573,1387,0,0
-644,-363,0,0,0,0,0,0,0,0,0,-1,580,1387,0,0
-637,-363,0,0,0,0,0,0,0,0,0,-1,587,1387,0,0
-630,-363,0,0,0,0,0,0,0,0,0,-1,594,1387,0,0
-623,-363,-9.67566,-5.91846,0,0,0,0,0,0,0,-1,601,1387,-9.67563,5.91847
-616,-363,-9.02985,-2.98083,0,0,0,0,0,0,0,-1,608,1387,-9.02987,2.98079
-609,-363,-4.90265,0.195679,0,0,0,0,0,0,0,-1,615,1387,-4.90263,-0.195721
-602,-363,-6.45087,2.20178,0,0,0,0,0,0,0,-1,622,1387,-6.45085,-2.2018
-595,-363,-5.41833,1.92627,0,0,0,0,0,0,0,-1,629,1387,-5.41835,-1.92629
-588,-363,-5.32751,3.28113,0,0,0,0,0,0,0,-1,636,1387,-5.32752,-3.28109
-581,-363,-5.42499,3.24854,-0.00122341,0.0086594,0.00591799,0.0114277,-0.00399174,1.13325,0.00924106,0.0406206,643,1387,-5.42502,-3.24848
-574,-363,-5.57642,3.13782,-0.000590112,0.00713834,0.00445842,0.00917409,-0.00262587,1.14246,0.00715384,0.0304848,650,1387,-5.57644,-3.13781
-567,-363,-5.75281,3.28552,-4.81186e-05,0.00563358,0.00332463,0.00716579,-0.00158032,1.13894,0.00538187,0.0197496,657,1387,-5.7528,-3.28547
-560,-363,-5.76471,3.50098,0.000348906,0.00424192,0.00239657,0.00538288,-0.000792049,1.12647,0.00387965,0.0126168,664,1387,-5.76474,-3.50096
-553,-363,-5.75421,3.74109,0.000532882,0.00279032,0.00160408,0.00362299,-0.000299792,1.09199,0.00252121,0.0125386,671,1387,-5.75422,-3.74106
-546,-363,-5.74744,3.95691,0.000614567,0.00131465,0.000946191,0.00197347,-4.4257e-05,0.962564,0.00133064,0.0131173,678,1387,-5.74741,-3.95687
-539,-363,-5.72766,4.18811,0.000644206,-3.50227e-05,0.000449796,0.0008682,-0.000259017,0.462039,0.000681742,0.0157293,685,1387,-5.72768,-4.18811
-532,-363,-5.74786,4.45386,0.000627108,-0.00138569,8.88545e-07,0.000627108,-0.00138569,0.000441447,0.00118928,0.0130454,692,1387,-5.74785,-4.45391
-525,-363,-5.7536,4.69165,0.00044888,-0.00303148,-0.000388575,0.000491736,-0.00307434,-0.109846,0.0022316,0.0110189,699,1387,-5.75362,-4.69165
-518,-363,-5.73053,4.92712,0.000142283,-0.00460967,-0.00067093,0.000235196,-0.00470258,-0.137607,0.00321632,0.00995675,706,1387,-5.73056,-4.92709
-511,-363,-5.69031,5.18909,-0.000241245,-0.00631546,-0.000857027,-0.000122641,-0.00643406,-0.137517,0.00424909,0.0165844,713,1387,-5.69032,-5.18909
-504,-363,-5.57269,5.43298,-0.000840864,-0.00860038,-0.00142795,-0.000586427,-0.00885481,-0.176333,0.00571777,0.0384596,720,1387,-5.57267,-5.43298
-497,-363,-5.30182,5.57092,0,0,0,0,0,0,0,-1,727,1387,-5.30182,-5.57092
-490,-363,-5.42413,4.6958,0,0,0,0,0,0,0,-1,734,1387,-5.42412,-4.69583
-483,-363,-6.28375,4.1394,0,0,0,0,0,0,0,-1,741,1387,-6.28374,-4.13944
-476,-363,-5.83807,4.31018,0,0,0,0,0,0,0,-1,748,1387,-5.8381,-4.31013
-469,-363,-4.31604,1.66943,0,0,0,0,0,0,0,-1,755,1387,-4.31606,-1.66944
-462,-363,-9.94159,2.40771,0,0,0,0,0,0,0,-1,762,1387,-9.94157,-2.4077
-455,-363,-10.5774,1.9292,0,0,0,0,0,0,0,-1,769,1387,-10.5774,-1.92915
-448,-363,-11.0799,1.61865,0,0,0,0,0,0,0,-1,776,1387,-11.0799,-1.61866
-441,-363,-11.8578,1.90332,0,0,0,0,0,0,0,-1,783,1387,-11.8578,-1.90326
-434,-363,-12.5151,2.19995,0,0,0,0,0,0,0,-1,790,1387,-12.5151,-2.19996
-427,-363,0,0,0,0,0,0,0,0,0,-1,797,1387,0,0
-420,-363,0,0,0,0,0,0,0,0,0,-1,804,1387,0,0
-413,-363,0,0,0,0,0,0,0,0,0,-1,811,1387,0,0
-406,-363,0,0,0,0,0,0,0,0,0,-1,818,1387,0,0
-399,-363,0,0,0,0,0,0,0,0,0,-1,825,1387,0,0
-392,-363,0,0,0,0,0,0,0,0,0,-1,832,1387,0,0
-385,-363,0,0,0,0,0,0,0,0,0,-1,839,1387,0,0
-378,-363,0,0,0,0,0,0,0,0,0,-1,846,1387,0,0
-371,-363,0,0,0,0,0,0,0,0,0,-1,853,1387,0,0
-364,-363,0,0,0,0,0,0,0,0,0,-1,860,1387,0,0
-357,-363,0,0,0,0,0,0,0,0,0,-1,867,1387,0,0
-350,-363,0,0,0,0,0,0,0,0,0,-1,874,1387,0,0
-343,-363,0,0,0,0,0,0,0,0,0,-1,881,1387,0,0
-336,-363,0,0,0,0,0,0,0,0,0,-1,888,1387,0,0
-329,-363,0,0,0,0,0,0,0,0,0,-1,895,1387,0,0
-322,-363,0,0,0,0,0,0,0,0,0,-1,902,1387,0,0
-315,-363,0,0,0,0,0,0,0,0,0,-1,909,1387,0,0
-308,-363,0,0,0,0,0,0,0,0,0,-1,916,1387,0,0
-301,-363,0,0,0,0,0,0,0,0,0,-1,923,1387,0,0
-294,-363,0,0,0,0,0,0,0,0,0,-1,930,1387,0,0
-287,-363,0,0,0,0,0,0,0,0,0,-1,937,1387,0,0
-280,-363,0,0,0,0,0,0,0,0,0,-1,944,1387,0,0
-273,-363,0,0,0,0,0,0,0,0,0,-1,951,1387,0,0
-266,-363,0,0,0,0,0,0,0,0,0,-1,958,1387,0,0
-259,-363,0,0,0,0,0,0,0,0,0,-1,965,1387,0,0
-252,-363,0,0,0,0,0,0,0,0,0,-1,972,1387,0,0
-245,-363,0,0,0,0,0,0,0,0,0,-1,979,1387,0,0
-238,-363,0,0,0,0,0,0,0,0,0,-1,986,1387,0,0
-231,-363,0,0,0,0,0,0,0,0,0,-1,993,1387,0,0
-224,-363,0,0,0,0,0,0,0,0,0,-1,1000,1387,0,0
-217,-363,0,0,0,0,0,0,0,0,0,-1,1007,1387,0,0
-210,-363,0,0,0,0,0,0,0,0,0,-1,1014,1387,0,0
-203,-363,0,0,0,0,0,0,0,0,0,-1,1021,1387,0,0
-196,-363,0,0,0,0,0,0,0,0,0,-1,1028,1387,0,0
-189,-363,0,0,0,0,0,0,0,0,0,-1,1035,1387,0,0
-182,-363,0,0,0,0,0,0,0,0,0,-1,1042,1387,0,0
-175,-363,0,0,0,0,0,0,0,0,0,-1,1049,1387,0,0
-168,-363,0,0,0,0,0,0,0,0,0,-1,1056,1387,0,0
-161,-363,0,0,0,0,0,0,0,0,0,-1,1063,1387,0,0
-154,-363,0,0,0,0,0,0,0,0,0,-1,1070,1387,0,0
-147,-363,0,0,0,0,0,0,0,0,0,-1,1077,1387,0,0
-140,-363,0,0,0,0,0,0,0,0,0,-1,1084,1387,0,0
-133,-363,0,0,0,0,0,0,0,0,0,-1,1091,1387,0,0
-126,-363,0,0,0,0,0,0,0,0,0,-1,1098,1387,0,0
-119,-363,0,0,0,0,0,0,0,0,0,-1,1105,1387,0,0
-112,-363,0,0,0,0,0,0,0,0,0,-1,1112,1387,0,0
-105,-363,0,0,0,0,0,0,0,0,0,-1,1119,1387,0,0
-98,-363,0,0,0,0,0,0,0,0,0,-1,1126,1387,0,0
-91,-363,0,0,0,0,0,0,0,0,0,-1,1133,1387,0,0
-84,-363,0,0,0,0,0,0,0,0,0,-1,1140,1387,0,0
-77,-363,0,0,0,0,0,0,0,0,0,-1,1147,1387,0,0
-70,-363,0,0,0,0,0,0,0,0,0,-1,1154,1387,0,0
-63,-363,0,0,0,0,0,0,0,0,0,-1,1161,1387,0,0
-56,-363,0,0,0,0,0,0,0,0,0,-1,1168,1387,0,0
-49,-363,0,0,0,0,0,0,0,0,0,-1,1175,1387,0,0
-42,-363,0,0,0,0,0,0,0,0,0,-1,1182,1387,0,0
-35,-363,0,0,0,0,0,0,0,0,0,-1,1189,1387,0,0
-28,-363,0,0,0,0,0,0,0,0,0,-1,1196,1387,0,0
-21,-363,0,0,0,0,0,0,0,0,0,-1,1203,1387,0,0
-14,-363,0,0,0,0,0,0,0,0,0,-1,1210,1387,0,0
-7,-363,0,0,0,0,0,0,0,0,0,-1,1217,1387,0,0
0,-363,0,0,0,0,0,0,0,0,0,-1,1224,1387,0,0
7,-363,0,0,0,0,0,0,0,0,0,-1,1231,1387,0,0
14,-363,0,0,0,0,0,0,0,0,0,-1,1238,1387,0,0
21,-363,0,0,0,0,0,0,0,0,0,-1,1245,1387,0,0
28,-363,0,0,0,0,0,0,0,0,0,-1,1252,1387,0,0
35,-363,0,0,0,0,0,0,0,0,0,-1,1259,1387,0,0
42,-363,0,0,0,0,0,0,0,0,0,-1,1266,1387,0,0
49,-363,0,0,0,0,0,0,0,0,0,-1,1273,1387,0,0
56,-363,0,0,0,0,0,0,0,0,0,-1,1280,1387,0,0
63,-363,0,0,0,0,0,0,0,0,0,-1,1287,1387,0,0
70,-363,0,0,0,0,0,0,0,0,0,-1,1294,1387,0,0
77,-363,0,0,0,0,0,0,0,0,0,-1,1301,1387,0,0
84,-363,0,0,0,0,0,0,0,0,0,-1,1308,1387,0,0
91,-363,0,0,0,0,0,0,0,0,0,-1,1315,1387,0,0
98,-363,0,0,0,0,0,0,0,0,0,-1,1322,1387,0,0
105,-363,0,0,0,0,0,0,0,0,0,-1,1329,1387,0,0
112,-363,0,0,0,0,0,0,0,0,0,-1,1336,1387,0,0
119,-363,0,0,0,0,0,0,0,0,0,-1,1343,1387,0,0
126,-363,0,0,0,0,0,0,0,0,0,-1,1350,1387,0,0
133,-363,0,0,0,0,0,0,0,0,0,-1,1357,1387,0,0
140,-363,0,0,0,0,0,0,0,0,0,-1,1364,1387,0,0
147,-363,0,0,0,0,0,0,0,0,0,-1,1371,1387,0,0
154,-363,0,0,0,0,0,0,0,0,0,-1,1378,1387,0,0
161,-363,0,0,0,0,0,0,0,0,0,-1,1385,1387,0,0
168,-363,0,0,0,0,0,0,0,0,0,-1,1392,1387,0,0
175,-363,0,0,0,0,0,0,0,0,0,-1,1399,1387,0,0
182,-363,0,0,0,0,0,0,0,0,0,-1,1406,1387,0,0
189,-363,0,0,0,0,0,0,0,0,0,-1,1413,1387,0,0
196,-363,0,0,0,0,0,0,0,0,0,-1,1420,1387,0,0
203,-363,0,0,0,0,0,0,0,0,0,-1,1427,1387,0,0
210,-363,0,0,0,0,0,0,0,0,0,-1,1434,1387,0,0
217,-363,0,0,0,0,0,0,0,0,0,-1,1441,1387,0,0
224,-363,0,0,0,0,0,0,0,0,0,-1,1448,1387,0,0
231,-363,0,0,0,0,0,0,0,0,0,-1,1455,1387,0,0
238,-363,0,0,0,0,0,0,0,0,0,-1,1462,1387,0,0
245,-363,0,0,0,0,0,0,0,0,0,-1,1469,1387,0,0
252,-363,0,0,0,0,0,0,0,0,0,-1,1476,1387,0,0
259,-363,0,0,0,0,0,0,0,0,0,-1,1483,1387,0,0
266,-363,0,0,0,0,0,0,0,0,0,-1,1490,1387,0,0
273,-363,0,0,0,0,0,0,0,0,0,-1,1497,1387,0,0
280,-363,0,0,0,0,0,0,0,0,0,-1,1504,1387,0,0
287,-363,0,0,0,0,0,0,0,0,0,-1,1511,1387,0,0
294,-363,0,0,0,0,0,0,0,0,0,-1,1518,1387,0,0
301,-363,0,0,0,0,0,0,0,0,0,-1,1525,1387,0,0
308,-363,0,0,0,0,0,0,0,0,0,-1,1532,1387,0,0
315,-363,0,0,0,0,0,0,0,0,0,-1,1539,1387,0,0
322,-363,0,0,0,0,0,0,0,0,0,-1,1546,1387,0,0
329,-363,0,0,0,0,0,0,0,0,0,-1,1553,1387,0,0
336,-363,0,0,0,0,0,0,0,0,0,-1,1560,1387,0,0
343,-363,0,0,0,0,0,0,0,0,0,-1,1567,1387,0,0
350,-363,0,0,0,0,0,0,0,0,0,-1,1574,1387,0,0
357,-363,0,0,0,0,0,0,0,0,0,-1,1581,1387,0,0
364,-363,0,0,0,0,0,0,0,0,0,-1,1588,1387,0,0
371,-363,0,0,0,0,0,0,0,0,0,-1,1595,1387,0,0
378,-363,0,0,0,0,0,0,0,0,0,-1,1602,1387,0,0
385,-363,0,0,0,0,0,0,0,0,0,-1,1609,1387,0,0
392,-363,0,0,0,0,0,0,0,0,0,-1,1616,1387,0,0
399,-363,0,0,0,0,0,0,0,0,0,-1,1623,1387,0,0
406,-363,0,0,0,0,0,0,0,0,0,-1,1630,1387,0,0
413,-363,0,0,0,0,0,0,0,0,0,-1,1637,1387,0,0
420,-363,0,0,0,0,0,0,0,0,0,-1,1644,1387,0,0
427,-363,0,0,0,0,0,0,0,0,0,-1,1651,1387,0,0
434,-363,0,0,0,0,0,0,0,0,0,-1,1658,1387,0,0
441,-363,0,0,0,0,0,0,0,0,0,-1,1665,1387,0,0
448,-363,0,0,0,0,0,0,0,0,0,-1,1672,1387,0,0
455,-363,0,0,0,0,0,0,0,0,0,-1,1679,1387,0,0
462,-363,0,0,0,0,0,0,0,0,0,-1,1686,1387,0,0
469,-363,0,0,0,0,0,0,0,0,0,-1,1693,1387,0,0
476,-363,0,0,0,0,0,0,0,0,0,-1,1700,1387,0,0
483,-363,0,0,0,0,0,0,0,0,0,-1,1707,1387,0,0
490,-363,0,0,0,0,0,0,0,0,0,-1,1714,1387,0,0
497,-363,0,0,0,0,0,0,0,0,0,-1,1721,1387,0,0
504,-363,0,0,0,0,0,0,0,0,0,-1,1728,1387,0,0
511,-363,0,0,0,0,0,0,0,0,0,-1,1735,1387,0,0
518,-363,0,0,0,0,0,0,0,0,0,-1,1742,1387,0,0
525,-363,0,0,0,0,0,0,0,0,0,-1,1749,1387,0,0
532,-363,0,0,0,0,0,0,0,0,0,-1,1756,1387,0,0
539,-363,0,0,0,0,0,0,0,0,0,-1,1763,1387,0,0
546,-363,0,0,0,0,0,0,0,0,0,-1,1770,1387,0,0
553,-363,20.5176,1.28699,0,0,0,0,0,0,0,-1,1777,1387,20.5176,-1.28699
560,-363,20.1282,2.86011,0,0,0,0,0,0,0,-1,1784,1387,20.1282,-2.86016
567,-363,20.1196,3.49683,0,0,0,0,0,0,0,-1,1791,1387,20.1196,-3.49686
574,-363,13.896,5.84314,0,0,0,0,0,0,0,-1,1798,1387,13.896,-5.84314
581,-363,15.1686,4.47595,0,0,0,0,0,0,0,-1,1805,1387,15.1686,-4.47596
588,-363,16.2867,3.32141,0,0,0,0,0,0,0,-1,1812,1387,16.2868,-3.32145
595,-363,13.1581,5.6853,0,0,0,0,0,0,0,-1,1819,1387,13.1581,-5.68524
602,-363,14.0654,6.11243,0,0,0,0,0,0,0,-1,1826,1387,14.0654,-6.11239
609,-363,14.3435,6.41492,-0.0429981,0.021765,0.000874633,0.0217768,-0.0430099,1.55729,0.0380683,0.0471439,1833,1387,14.3435,-6.41488
616,-363,14.6672,6.73828,-0.0321027,0.0131811,0.00400035,0.0135318,-0.0324534,1.48336,0.0272884,0.0433458,1840,1387,14.6672,-6.73829
623,-363,14.6434,6.75745,-0.0231243,0.00650471,0.00590354,0.00763766,-0.0242572,1.38119,0.0192298,0.0410908,1847,1387,14.6434,-6.75746
630,-363,14.5519,6.76904,-0.0159043,0.00169335,0.00665607,0.00392731,-0.0181383,1.24698,0.0135918,0.040275,1854,1387,14.5519,-6.76906
637,-363,14.2505,7.0675,-0.00969824,-0.00220303,0.0072776,0.00223521,-0.0141365,1.02317,0.0102509,0.0338686,1861,1387,14.2505,-7.06746
644,-363,14.3978,6.97961,-0.00544977,-0.00385082,0.00655154,0.00194984,-0.0112504,0.846112,0.00822762,0.0114178,1868,1387,14.3978,-6.97966
651,-363,14.4124,6.73975,-0.00283704,-0.00400489,0.00529998,0.00191108,-0.00875302,0.730532,0.00656575,0.0102544,1875,1387,14.4124,-6.73975
658,-363,14.4167,6.52075,-0.00123997,-0.00328563,0.00389726,0.00176644,-0.00629204,0.657068,0.00489102,0.0113837,1882,1387,14.4168,-6.52074
665,-363,14.3943,6.35693,-0.00076198,-0.00331215,0.00252319,0.000790008,-0.00486414,0.551441,0.00353564,0.0116623,1889,1387,14.3942,-6.35695
672,-363,14.3916,6.16187,-0.000240074,-0.00237045,0.00168671,0.000689635,-0.00330016,0.503761,0.00246239,0.012666,1896,1387,14.3916,-6.16183
679,-363,14.4027,5.94031,0.000333362,-0.00163856,0.00119398,0.000895851,-0.00220105,0.440266,0.00184017,0.0149326,1903,1387,14.4028,-5.94029
686,-363,14.403,5.74329,0.000883731,-0.00135229,0.000851552,0.0011711,-0.00163966,0.325463,0.00163029,0.0146953,1910,1387,14.4029,-5.74332
693,-363,14.4131,5.52258,0.00157519,-0.00150235,0.000710143,0.00173115,-0.00165831,0.216188,0.00195706,0.0124084,1917,1387,14.413,-5.52258
700,-363,14.4762,5.27808,0.00261005,-0.00225912,0.000535914,0.00266834,-0.00231741,0.108335,0.0028809,0.0176824,1924,1387,14.4762,-5.27804
707,-363,14.4016,4.96021,0.00350492,-0.00399574,0.00048493,0.00353614,-0.00402696,0.064295,0.00436962,0.0394472,1931,1387,14.4017,-4.96019
714,-363,14.9613,4.41675,0,0,0,0,0,0,0,-1,1938,1387,14.9613,-4.41677
721,-363,14.4045,4.51685,0,0,0,0,0,0,0,-1,1945,1387,14.4045,-4.51685
728,-363,13.8644,4.52063,0,0,0,0,0,0,0,-1,1952,1387,13.8644,-4.52064
735,-363,14.8151,4.4552,0,0,0,0,0,0,0,-1,1959,1387,14.8151,-4.45516
742,-363,16.3715,0.114868,0,0,0,0,0,0,0,-1,1966,1387,16.3715,-0.114861
749,-363,0,0,0,0,0,0,0,0,0,-1,1973,1387,0,0
756,-363,0,0,0,0,0,0,0,0,0,-1,1980,1387,0,0
763,-363,0,0,0,0,0,0,0,0,0,-1,1987,1387,0,0
770,-363,0,0,0,0,0,0,0,0,0,-1,1994,1387,0,0
777,-363,0,0,0,0,0,0,0,0,0,-1,2001,1387,0,0
784,-363,0,0,0,0,0,0,0,0,0,-1,2008,1387,0,0
791,-363,0,0,0,0,0,0,0,0,0,-1,2015,1387,0,0
798,-363,0,0,0,0,0,0,0,0,0,-1,2022,1387,0,0
805,-363,0,0,0,0,0,0,0,0,0,-1,2029,1387,0,0
812,-363,0,0,0,0,0,0,0,0,0,-1,2036,1387,0,0
-700,-370,0,0,0,0,0,0,0,0,0,-1,524,1394,0,0
-693,-370,0,0,0,0,0,0,0,0,0,-1,531,1394,0,0
-686,-370,0,0,0,0,0,0,0,0,0,-1,538,1394,0,0
-679,-370,0,0,0,0,0,0,0,0,0,-1,545,1394,0,0
-672,-370,0,0,0,0,0,0,0,0,0,-1,552,1394,0,0
-665,-370,0,0,0,0,0,0,0,0,0,-1,559,1394,0,0
-658,-370,0,0,0,0,0,0,0,0,0,-1,566,1394,0,0
-651,-370,0,0,0,0,0,0,0,0,0,-1,573,1394,0,0
-644,-370,0,0,0,0,0,0,0,0,0,-1,580,1394,0,0
-637,-370,0,0,0,0,0,0,0,0,0,-1,587,1394,0,0
-630,-370,0,0,0,0,0,0,0,0,0,-1,594,1394,0,0
-623,-370,-10.1758,-7.10486,0,0,0,0,0,0,0,-1,601,1394,-10.1758,7.10483
-616,-370,-8.85925,-1.61475,0,0,0,0,0,0,0,-1,608,1394,-8.85925,1.61476
-609,-370,-5.39325,0.0421143,0,0,0,0,0,0,0,-1,615,1394,-5.39328,-0.0421372
-602,-370,-5.4397,0.881836,0,0,0,0,0,0,0,-1,622,1394,-5.43972,-0.881813
-595,-370,-5.32452,1.03552,0,0,0,0,0,0,0,-1,629,1394,-5.32452,-1.03558
-588,-370,-5.42474,1.68433,0,0,0,0,0,0,0,-1,636,1394,-5.42475,-1.68428
-581,-370,-5.45825,2.47302,0.00349522,0.0114278,0.00821381,0.0165828,-0.00165978,1.01033,0.0116479,0.0459017,643,1394,-5.45824,-2.47308
-574,-370,-5.36517,3.07727,0.00326505,0.00907129,0.00620132,0.0130154,-0.000679052,1.00432,0.00891191,0.037637,650,1394,-5.36518,-3.07726
-567,-370,-5.43945,3.32263,0.00305785,0.00695192,0.00462033,0.0100187,-8.9393e-06,0.98481,0.00668212,0.0237855,657,1394,-5.43947,-3.32268
-560,-370,-5.53741,3.48877,0.00279362,0.00515894,0.00335143,0.00753025,0.000422303,0.955018,0.00488549,0.0152233,664,1394,-5.53742,-3.48872
-553,-370,-5.51495,3.74158,0.00245808,0.00350756,0.00230745,0.00534918,0.000616453,0.897202,0.00337943,0.0104481,671,1394,-5.51496,-3.74152
-546,-370,-5.47052,3.9657,0.00210455,0.00196184,0.00150213,0.00353702,0.000529379,0.761665,0.00220286,0.0128389,678,1394,-5.47052,-3.96564
-539,-370,-5.46539,4.22021,0.00179961,0.000638879,0.00090472,0.00229411,0.000144375,0.500216,0.00148363,0.0164269,685,1394,-5.4654,-4.22017
-532,-370,-5.4978,4.46045,0.00157296,-0.000547735,0.000415448,0.00165145,-0.000626217,0.18671,0.00135869,0.0186353,692,1394,-5.49782,-4.4605
-525,-370,-5.50049,4.69446,0.00134836,-0.00197762,4.67073e-05,0.00134902,-0.00197827,0.0140395,0.00193243,0.0143208,699,1394,-5.50047,-4.69449
-518,-370,-5.4975,4.90381,0.00110386,-0.00322615,-0.000202863,0.00111334,-0.00323563,-0.0467143,0.00260863,0.0109435,706,1394,-5.49749,-4.90383
-511,-370,-5.48657,5.15613,0.000916232,-0.00446319,-0.000316106,0.000934743,-0.0044817,-0.0584936,0.00334323,0.0143832,713,1394,-5.48655,-5.15608
-504,-370,-5.44,5.43494,0.000673852,-0.00618844,-0.000844311,0.000776207,-0.0062908,-0.120639,0.0044751,0.0245202,720,1394,-5.44001,-5.43494
-497,-370,-5.35791,5.65942,0,0,0,0,0,0,0,-1,727,1394,-5.35792,-5.65947
-490,-370,-5.30695,4.5271,0,0,0,0,0,0,0,-1,734,1394,-5.30698,-4.52704
-483,-370,-6.02997,4.59253,0,0,0,0,0,0,0,-1,741,1394,-6.02994,-4.5925
-476,-370,-6.75293,4.65796,0,0,0,0,0,0,0,-1,748,1394,-6.7529,-4.65795
-469,-370,-6.71899,4.70483,0,0,0,0,0,0,0,-1,755,1394,-6.71897,-4.70487
-462,-370,-9.86481,2.61072,0,0,0,0,0,0,0,-1,762,1394,-9.86479,-2.61068
-455,-370,-8.96338,1.39319,0,0,0,0,0,0,0,-1,769,1394,-8.96335,-1.39315
-448,-370,-9.96106,1.12341,0,0,0,0,0,0,0,-1,776,1394,-9.96106,-1.12339
-441,-370,-11.2067,1.4259,0,0,0,0,0,0,0,-1,783,1394,-11.2067,-1.42593
-434,-370,-11.8126,1.54004,0,0,0,0,0,0,0,-1,790,1394,-11.8126,-1.5401
-427,-370,0,0,0,0,0,0,0,0,0,-1,797,1394,0,0
-420,-370,0,0,0,0,0,0,0,0,0,-1,804,1394,0,0
-413,-370,0,0,0,0,0,0,0,0,0,-1,811,1394,0,0
-406,-370,0,0,0,0,0,0,0,0,0,-1,818,1394,0,0
-399,-370,0,0,0,0,0,0,0,0,0,-1,825,1394,0,0
-392,-370,0,0,0,0,0,0,0,0,0,-1,832,1394,0,0
-385,-370,0,0,0,0,0,0,0,0,0,-1,839,1394,0,0
-378,-370,0,0,0,0,0,0,0,0,0,-1,846,1394,0,0
-371,-370,0,0,0,0,0,0,0,0,0,-1,853,1394,0,0
-364,-370,0,0,0,0,0,0,0,0,0,-1,860,1394,0,0
-357,-370,0,0,0,0,0,0,0,0,0,-1,867,1394,0,0
-350,-370,0,0,0,0,0,0,0,0,0,-1,874,1394,0,0
-343,-370,0,0,0,0,0,0,0,0,0,-1,881,1394,0,0
-336,-370,0,0,0,0,0,0,0,0,0,-1,888,1394,0,0
-329,-370,0,0,0,0,0,0,0,0,0,-1,895,1394,0,0
-322,-370,0,0,0,0,0,0,0,0,0,-1,902,1394,0,0
-315,-370,0,0,0,0,0,0,0,0,0,-1,909,1394,0,0
-308,-370,0,0,0,0,0,0,0,0,0,-1,916,1394,0,0
-301,-370,0,0,0,0,0,0,0,0,0,-1,923,1394,0,0
-294,-370,0,0,0,0,0,0,0,0,0,-1,930,1394,0,0
-287,-370,0,0,0,0,0,0,0,0,0,-1,937,1394,0,0
-280,-370,0,0,0,0,0,0,0,0,0,-1,944,1394,0,0
-273,-370,0,0,0,0,0,0,0,0,0,-1,951,1394,0,0
-266,-370,0,0,0,0,0,0,0,0,0,-1,958,1394,0,0
-259,-370,0,0,0,0,0,0,0,0,0,-1,965,1394,0,0
-252,-370,0,0,0,0,0,0,0,0,0,-1,972,1394,0,0
-245,-370,0,0,0,0,0,0,0,0,0,-1,979,1394,0,0
-238,-370,0,0,0,0,0,0,0,0,0,-1,986,1394,0,0
-231,-370,0,0,0,0,0,0,0,0,0,-1,993,1394,0,0
-224,-370,0,0,0,0,0,0,0,0,0,-1,1000,1394,0,0
-217,-370,0,0,0,0,0,0,0,0,0,-1,1007,1394,0,0
-210,-370,0,0,0,0,0,0,0,0,0,-1,1014,1394,0,0
-203,-370,0,0,0,0,0,0,0,0,0,-1,1021,1394,0,0
-196,-370,0,0,0,0,0,0,0,0,0,-1,1028,1394,0,0
-189,-370,0,0,0,0,0,0,0,0,0,-1,1035,1394,0,0
-182,-370,0,0,0,0,0,0,0,0,0,-1,1042,1394,0,0
-175,-370,0,0,0,0,0,0,0,0,0,-1,1049,1394,0,0
-168,-370,0,0,0,0,0,0,0,0,0,-1,1056,1394,0,0
-161,-370,0,0,0,0,0,0,0,0,0,-1,1063,1394,0,0
-154,-370,0,0,0,0,0,0,0,0,0,-1,1070,1394,0,0
-147,-370,0,0,0,0,0,0,0,0,0,-1,1077,1394,0,0
-140,-370,0,0,0,0,0,0,0,0,0,-1,1084,1394,0,0
-133,-370,0,0,0,0,0,0,0,0,0,-1,1091,1394,0,0
-126,-370,0,0,0,0,0,0,0,0,0,-1,1098,1394,0,0
-119,-370,0,0,0,0,0,0,0,0,0,-1,1105,1394,0,0
-112,-370,0,0,0,0,0,0,0,0,0,-1,1112,1394,0,0
-105,-370,0,0,0,0,0,0,0,0,0,-1,1119,1394,0,0
-98,-370,0,0,0,0,0,0,0,0,0,-1,1126,1394,0,0
-91,-370,0,0,0,0,0,0,0,0,0,-1,1133,1394,0,0
-84,-370,0,0,0,0,0,0,0,0,0,-1,1140,1394,0,0
-77,-370,0,0,0,0,0,0,0,0,0,-1,1147,1394,0,0
-70,-370,0,0,0,0,0,0,0,0,0,-1,1154,1394,0,0
-63,-370,0,0,0,0,0,0,0,0,0,-1,1161,1394,0,0
-56,-370,0,0,0,0,0,0,0,0,0,-1,1168,1394,0,0
-49,-370,0,0,0,0,0,0,0,0,0,-1,1175,1394,0,0
-42,-370,0,0,0,0,0,0,0,0,0,-1,1182,1394,0,0
-35,-370,0,0,0,0,0,0,0,0,0,-1,1189,1394,0,0
-28,-370,0,0,0,0,0,0,0,0,0,-1,1196,1394,0,0
-21,-370,0,0,0,0,0,0,0,0,0,-1,1203,1394,0,0
-14,-370,0,0,0,0,0,0,0,0,0,-1,1210,1394,0,0
-7,-370,0,0,0,0,0,0,0,0,0,-1,1217,1394,0,0
0,-370,0,0,0,0,0,0,0,0,0,-1,1224,1394,0,0
7,-370,0,0,0,0,0,0,0,0,0,-1,1231,1394,0,0
14,-370,0,0,0,0,0,0,0,0,0,-1,1238,1394,0,0
21,-370,0,0,0,0,0,0,0,0,0,-1,1245,1394,0,0
28,-370,0,0,0,0,0,0,0,0,0,-1,1252,1394,0,0
35,-370,0,0,0,0,0,0,0,0,0,-1,1259,1394,0,0
42,-370,0,0,0,0,0,0,0,0,0,-1,1266,1394,0,0
49,-370,0,0,0,0,0,0,0,0,0,-1,1273,1394,0,0
56,-370,0,0,0,0,0,0,0,0,0,-1,1280,1394,0,0
63,-370,0,0,0,0,0,0,0,0,0,-1,1287,1394,0,0
70,-370,0,0,0,0,0,0,0,0,0,-1,1294,1394,0,0
77,-370,0,0,0,0,0,0,0,0,0,-1,1301,1394,0,0
84,-370,0,0,0,0,0,0,0,0,0,-1,1308,1394,0,0
91,-370,0,0,0,0,0,0,0,0,0,-1,1315,1394,0,0
98,-370,0,0,0,0,0,0,0,0,0,-1,1322,1394,0,0
105,-370,0,0,0,0,0,0,0,0,0,-1,1329,1394,0,0
112,-370,0,0,0,0,0,0,0,0,0,-1,1336,1394,0,0
119,-370,0,0,0,0,0,0,0,0,0,-1,1343,1394,0,0
126,-370,0,0,0,0,0,0,0,0,0,-1,1350,1394,0,0
133,-370,0,0,0,0,0,0,0,0,0,-1,1357,1394,0,0
140,-370,0,0,0,0,0,0,0,0,0,-1,1364,1394,0,0
147,-370,0,0,0,0,0,0,0,0,0,-1,1371,1394,0,0
154,-370,0,0,0,0,0,0,0,0,0,-1,1378,1394,0,0
161,-370,0,0,0,0,0,0,0,0,0,-1,1385,1394,0,0
168,-370,0,0,0,0,0,0,0,0,0,-1,1392,1394,0,0
175,-370,0,0,0,0,0,0,0,0,0,-1,1399,1394,0,0
182,-370,0,0,0,0,0,0,0,0,0,-1,1406,1394,0,0
189,-370,0,0,0,0,0,0,0,0,0,-1,1413,1394,0,0
196,-370,0,0,0,0,0,0,0,0,0,-1,1420,1394,0,0
203,-370,0,0,0,0,0,0,0,0,0,-1,1427,1394,0,0
210,-370,0,0,0,0,0,0,0,0,0,-1,1434,1394,0,0
217,-370,0,0,0,0,0,0,0,0,0,-1,1441,1394,0,0
224,-370,0,0,0,0,0,0,0,0,0,-1,1448,1394,0,0
231,-370,0,0,0,0,0,0,0,0,0,-1,1455,1394,0,0
238,-370,0,0,0,0,0,0,0,0,0,-1,1462,1394,0,0
245,-370,0,0,0,0,0,0,0,0,0,-1,1469,1394,0,0
252,-370,0,0,0,0,0,0,0,0,0,-1,1476,1394,0,0
259,-370,0,0,0,0,0,0,0,0,0,-1,1483,1394,0,0
266,-370,0,0,0,0,0,0,0,0,0,-1,1490,1394,0,0
273,-370,0,0,0,0,0,0,0,0,0,-1,1497,1394,0,0
280,-370,0,0,0,0,0,0,0,0,0,-1,1504,1394,0,0
287,-370,0,0,0,0,0,0,0,0,0,-1,1511,1394,0,0
294,-370,0,0,0,0,0,0,0,0,0,-1,1518,1394,0,0
301,-370,0,0,0,0,0,0,0,0,0,-1,1525,1394,0,0
308,-370,0,0,0,0,0,0,0,0,0,-1,1532,1394,0,0
315,-370,0,0,0,0,0,0,0,0,0,-1,1539,1394,0,0
322,-370,0,0,0,0,0,0,0,0,0,-1,1546,1394,0,0
329,-370,0,0,0,0,0,0,0,0,0,-1,1553,1394,0,0
336,-370,0,0,0,0,0,0,0,0,0,-1,1560,1394,0,0
343,-370,0,0,0,0,0,0,0,0,0,-1,1567,1394,0,0
350,-370,0,0,0,0,0,0,0,0,0,-1,1574,1394,0,0
357,-370,0,0,0,0,0,0,0,0,0,-1,1581,1394,0,0
364,-370,0,0,0,0,0,0,0,0,0,-1,1588,1394,0,0
371,-370,0,0,0,0,0,0,0,0,0,-1,1595,1394,0,0
378,-370,0,0,0,0,0,0,0,0,0,-1,1602,1394,0,0
385,-370,0,0,0,0,0,0,0,0,0,-1,1609,1394,0,0
392,-370,0,0,0,0,0,0,0,0,0,-1,1616,1394,0,0
399,-370,0,0,0,0,0,0,0,0,0,-1,1623,1394,0,0
406,-370,0,0,0,0,0,0,0,0,0,-1,1630,1394,0,0
413,-370,0,0,0,0,0,0,0,0,0,-1,1637,1394,0,0
420,-370,0,0,0,0,0,0,0,0,0,-1,1644,1394,0,0
427,-370,0,0,0,0,0,0,0,0,0,-1,1651,1394,0,0
434,-370,0,0,0,0,0,0,0,0,0,-1,1658,1394,0,0
441,-370,0,0,0,0,0,0,0,0,0,-1,1665,1394,0,0
448,-370,0,0,0,0,0,0,0,0,0,-1,1672,1394,0,0
455,-370,0,0,0,0,0,0,0,0,0,-1,1679,1394,0,0
462,-370,0,0,0,0,0,0,0,0,0,-1,1686,1394,0,0
469,-370,0,0,0,0,0,0,0,0,0,-1,1693,1394,0,0
476,-370,0,0,0,0,0,0,0,0,0,-1,1700,1394,0,0
483,-370,0,0,0,0,0,0,0,0,0,-1,1707,1394,0,0
490,-370,0,0,0,0,0,0,0,0,0,-1,1714,1394,0,0
497,-370,0,0,0,0,0,0,0,0,0,-1,1721,1394,0,0
504,-370,0,0,0,0,0,0,0,0,0,-1,1728,1394,0,0
511,-370,0,0,0,0,0,0,0,0,0,-1,1735,1394,0,0
518,-370,0,0,0,0,0,0,0,0,0,-1,1742,1394,0,0
525,-370,0,0,0,0,0,0,0,0,0,-1,1749,1394,0,0
532,-370,0,0,0,0,0,0,0,0,0,-1,1756,1394,0,0
539,-370,0,0,0,0,0,0,0,0,0,-1,1763,1394,0,0
546,-370,21.7084,0.258667,0,0,0,0,0,0,0,-1,1770,1394,21.7084,-0.258678
553,-370,20.9537,1.46118,0,0,0,0,0,0,0,-1,1777,1394,20.9537,-1.46115
560,-370,20.2441,2.65051,0,0,0,0,0,0,0,-1,1784,1394,20.2442,-2.65048
567,-370,19.6786,3.53052,0,0,0,0,0,0,0,-1,1791,1394,19.6786,-3.53051
574,-370,13.203,4.47705,0,0,0,0,0,0,0,-1,1798,1394,13.203,-4.47703
581,-370,14.5411,3.60901,0,0,0,0,0,0,0,-1,1805,1394,14.5411,-3.60901
588,-370,15.6494,2.86951,0,0,0,0,0,0,0,-1,1812,1394,15.6494,-2.86946
595,-370,14.8816,2.97034,0,0,0,0,0,0,0,-1,1819,1394,14.8816,-2.97028
602,-370,13.8323,4.88599,0,0,0,0,0,0,0,-1,1826,1394,13.8323,-4.88596
609,-370,14.3762,6.26929,0,0,0,0,0,0,0,-1,1833,1394,14.3763,-6.26928
616,-370,14.4376,6.76196,0,0,0,0,0,0,0,-1,1840,1394,14.4377,-6.76201
623,-370,14.4093,6.93616,0,0,0,0,0,0,0,-1,1847,1394,14.4093,-6.9362
630,-370,14.2632,7.19397,-0.0124558,0.000524044,0.00735743,0.00384487,-0.0157766,1.14681,0.0120064,0.0379592,1854,1394,14.2632,-7.19401
637,-370,14.0942,7.23914,-0.00739837,-0.00223305,0.00695685,0.00260507,-0.0122365,0.963133,0.00915047,0.0260753,1861,1394,14.0942,-7.23913
644,-370,14.187,6.97253,-0.00413169,-0.00328395,0.00581442,0.00212203,-0.00953767,0.821784,0.00717122,0.0115065,1868,1394,14.187,-6.97259
651,-370,14.2053,6.73828,-0.00215417,-0.00334388,0.00451969,0.00180964,-0.00730769,0.719967,0.00557381,0.0113734,1875,1394,14.2053,-6.7383
658,-370,14.2191,6.53674,-0.000938405,-0.00277979,0.00326402,0.00153229,-0.00525048,0.647933,0.00410749,0.0119344,1882,1394,14.2191,-6.53678
665,-370,14.1937,6.35364,-0.000530212,-0.00285677,0.00224028,0.000830803,-0.00421778,0.545931,0.00312581,0.0125468,1889,1394,14.1937,-6.3536
672,-370,14.1908,6.15796,-0.000176104,-0.00220681,0.0016799,0.00077145,-0.00315437,0.513569,0.00240172,0.0134934,1896,1394,14.1907,-6.15791
679,-370,14.1992,5.94641,0.000218775,-0.00186384,0.00150896,0.00101085,-0.00265591,0.483379,0.00218687,0.0139214,1903,1394,14.1992,-5.94646
686,-370,14.1932,5.71875,0.000676563,-0.00195547,0.00151137,0.00136458,-0.00264349,0.427191,0.002353,0.0141202,1910,1394,14.1932,-5.71874
693,-370,14.1858,5.49048,0.00134582,-0.00253167,0.0017777,0.00203747,-0.00322332,0.371047,0.00306293,0.0118898,1917,1394,14.1858,-5.49047
700,-370,14.2712,5.25696,0.00254977,-0.00366851,0.0020094,0.00314258,-0.00426132,0.286881,0.00429088,0.0174784,1924,1394,14.2712,-5.25699
707,-370,14.1826,5.11694,0.00395849,-0.00557324,0.00235112,0.00450687,-0.00612162,0.229147,0.00615993,0.0290063,1931,1394,14.1826,-5.11689
714,-370,14.7135,4.56946,0.00546608,-0.00844518,0.00282219,0.00601682,-0.00899591,0.192723,0.0087243,0.0443896,1938,1394,14.7135,-4.56946
721,-370,15.3141,3.99524,0,0,0,0,0,0,0,-1,1945,1394,15.3141,-3.99522
728,-370,14.614,4.88318,0,0,0,0,0,0,0,-1,1952,1394,14.6141,-4.88324
735,-370,15.9586,5.35278,0,0,0,0,0,0,0,-1,1959,1394,15.9586,-5.35274
742,-370,12.6914,4.10376,0,0,0,0,0,0,0,-1,1966,1394,12.6914,-4.10374
749,-370,0,0,0,0,0,0,0,0,0,-1,1973,1394,0,0
756,-370,0,0,0,0,0,0,0,0,0,-1,1980,1394,0,0
763,-370,0,0,0,0,0,0,0,0,0,-1,1987,1394,0,0
770,-370,0,0,0,0,0,0,0,0,0,-1,1994,1394,0,0
777,-370,0,0,0,0,0,0,0,0,0,-1,2001,1394,0,0
784,-370,0,0,0,0,0,0,0,0,0,-1,2008,1394,0,0
791,-370,0,0,0,0,0,0,0,0,0,-1,2015,1394,0,0
798,-370,0,0,0,0,0,0,0,0,0,-1,2022,1394,0,0
805,-370,0,0,0,0,0,0,0,0,0,-1,2029,1394,0,0
812,-370,0,0,0,0,0,0,0,0,0,-1,2036,1394,0,0
-700,-377,0,0,0,0,0,0,0,0,0,-1,524,1401,0,0
-693,-377,0,0,0,0,0,0,0,0,0,-1,531,1401,0,0
-686,-377,0,0,0,0,0,0,0,0,0,-1,538,1401,0,0
-679,-377,0,0,0,0,0,0,0,0,0,-1,545,1401,0,0
-672,-377,0,0,0,0,0,0,0,0,0,-1,552,1401,0,0
-665,-377,0,0,0,0,0,0,0,0,0,-1,559,1401,0,0
-658,-377,0,0,0,0,0,0,0,0,0,-1,566,1401,0,0
-651,-377,0,0,0,0,0,0,0,0,0,-1,573,1401,0,0
-644,-377,0,0,0,0,0,0,0,0,0,-1,580,1401,0,0
-637,-377,0,0,0,0,0,0,0,0,0,-1,587,1401,0,0
-630,-377,0,0,0,0,0,0,0,0,0,-1,594,1401,0,0
-623,-377,0,0,0,0,0,0,0,0,0,-1,601,1401,0,0
-616,-377,-9.43915,-2.4906,0,0,0,0,0,0,0,-1,608,1401,-9.43915,2.49062
-609,-377,-7.2821,-1.35278,0,0,0,0,0,0,0,-1,615,1401,-7.28208,1.35279
-602,-377,-5.72253,0.430298,0,0,0,0,0,0,0,-1,622,1401,-5.72251,-0.430334
-595,-377,-5.17291,0.74292,0,0,0,0,0,0,0,-1,629,1401,-5.17289,-0.74293
-588,-377,-6.17035,0.519653,0,0,0,0,0,0,0,-1,636,1401,-6.17037,-0.519633
-581,-377,-5.09503,2.26733,0.00987793,0.0147594,0.011718,0.0242882,0.000349143,0.888074,0.016077,0.0496516,643,1401,-5.09505,-2.26728
-574,-377,-5.13007,2.82239,0.00824187,0.0113474,0.00873783,0.0186694,0.000919923,0.873334,0.0121512,0.0451658,650,1401,-5.13005,-2.82235
-567,-377,-5.15314,3.25305,0.00684538,0.00846537,0.00638864,0.0140952,0.00121559,0.848455,0.00901893,0.0296786,657,1401,-5.15311,-3.25303
-560,-377,-5.30292,3.51343,0.00561213,0.00617887,0.00455951,0.0104638,0.00132719,0.816433,0.00657826,0.0210751,664,1401,-5.30293,-3.5134
-553,-377,-5.27716,3.73279,0.00455044,0.00426204,0.00311886,0.00752843,0.00128405,0.762297,0.00465041,0.0123992,671,1401,-5.27714,-3.73273
-546,-377,-5.27679,3.99622,0.00362038,0.00258721,0.00204329,0.00521137,0.000996219,0.661583,0.00319438,0.0147826,678,1401,-5.27679,-3.99626
-539,-377,-5.2749,4.19861,0.00288839,0.00124524,0.00127704,0.00358531,0.000548326,0.499559,0.00223002,0.018786,685,1401,-5.27491,-4.19855
-532,-377,-5.28723,4.42566,0.0023754,0.00014639,0.000698226,0.00257605,-5.4263e-05,0.279835,0.00173574,0.0186058,692,1401,-5.28726,-4.42564
-525,-377,-5.22748,4.69568,0.00201601,-0.0011599,0.000293891,0.00204298,-0.00118687,0.0915019,0.00188646,0.0179586,699,1401,-5.22749,-4.6957
-518,-377,-5.24371,4.91162,0.00172017,-0.00222664,5.27198e-07,0.00172017,-0.00222664,0.000133576,0.00228494,0.0121874,706,1401,-5.24373,-4.91168
-511,-377,-5.25769,5.16333,0.0016062,-0.00319179,-0.000113021,0.00160887,-0.00319445,-0.0235386,0.00282311,0.0116534,713,1401,-5.2577,-5.16336
-504,-377,-5.27374,5.42102,0.00149306,-0.00453514,-0.000607585,0.00155369,-0.00459577,-0.0994577,0.00369236,0.0120343,720,1401,-5.27373,-5.42102
-497,-377,-5.0769,5.64673,0.00123258,-0.00635542,-0.00154492,0.00153507,-0.0066579,-0.19335,0.005029,0.0218946,727,1401,-5.07688,-5.64668
-490,-377,-4.99139,5.9812,0,0,0,0,0,0,0,-1,734,1401,-4.9914,-5.98124
-483,-377,-5.6524,5.07324,0,0,0,0,0,0,0,-1,741,1401,-5.6524,-5.07325
-476,-377,-6.11682,5.10535,0,0,0,0,0,0,0,-1,748,1401,-6.11681,-5.10537
-469,-377,-7.84436,5.07422,0,0,0,0,0,0,0,-1,755,1401,-7.84437,-5.07423
-462,-377,-9.59265,6.021,0,0,0,0,0,0,0,-1,762,1401,-9.59264,-6.02104
-455,-377,-10.957,7.35364,0,0,0,0,0,0,0,-1,769,1401,-10.957,-7.35362
-448,-377,-9.05334,0.877319,0,0,0,0,0,0,0,-1,776,1401,-9.05332,-0.877324
-441,-377,-10.5236,0.856934,0,0,0,0,0,0,0,-1,783,1401,-10.5236,-0.856874
-434,-377,-11.0984,0.996216,0,0,0,0,0,0,0,-1,790,1401,-11.0984,-0.996265
-427,-377,-11.1733,1.25732,0,0,0,0,0,0,0,-1,797,1401,-11.1733,-1.25732
-420,-377,0,0,0,0,0,0,0,0,0,-1,804,1401,0,0
-413,-377,0,0,0,0,0,0,0,0,0,-1,811,1401,0,0
-406,-377,0,0,0,0,0,0,0,0,0,-1,818,1401,0,0
-399,-377,0,0,0,0,0,0,0,0,0,-1,825,1401,0,0
-392,-377,0,0,0,0,0,0,0,0,0,-1,832,1401,0,0
-385,-377,0,0,0,0,0,0,0,0,0,-1,839,1401,0,0
-378,-377,0,0,0,0,0,0,0,0,0,-1,846,1401,0,0
-371,-377,0,0,0,0,0,0,0,0,0,-1,853,1401,0,0
-364,-377,0,0,0,0,0,0,0,0,0,-1,860,1401,0,0
-357,-377,0,0,0,0,0,0,0,0,0,-1,867,1401,0,0
-350,-377,0,0,0,0,0,0,0,0,0,-1,874,1401,0,0
-343,-377,0,0,0,0,0,0,0,0,0,-1,881,1401,0,0
-336,-377,0,0,0,0,0,0,0,0,0,-1,888,1401,0,0
-329,-377,0,0,0,0,0,0,0,0,0,-1,895,1401,0,0
-322,-377,0,0,0,0,0,0,0,0,0,-1,902,1401,0,0
-315,-377,0,0,0,0,0,0,0,0,0,-1,909,1401,0,0
-308,-377,0,0,0,0,0,0,0,0,0,-1,916,1401,0,0
-301,-377,0,0,0,0,0,0,0,0,0,-1,923,1401,0,0
-294,-377,0,0,0,0,0,0,0,0,0,-1,930,1401,0,0
-287,-377,0,0,0,0,0,0,0,0,0,-1,937,1401,0,0
-280,-377,0,0,0,0,0,0,0,0,0,-1,944,1401,0,0
-273,-377,0,0,0,0,0,0,0,0,0,-1,951,1401,0,0
-266,-377,0,0,0,0,0,0,0,0,0,-1,958,1401,0,0
-259,-377,0,0,0,0,0,0,0,0,0,-1,965,1401,0,0
-252,-377,0,0,0,0,0,0,0,0,0,-1,972,1401,0,0
-245,-377,0,0,0,0,0,0,0,0,0,-1,979,1401,0,0
-238,-377,0,0,0,0,0,0,0,0,0,-1,986,1401,0,0
-231,-377,0,0,0,0,0,0,0,0,0,-1,993,1401,0,0
-224,-377,0,0,0,0,0,0,0,0,0,-1,1000,1401,0,0
-217,-377,0,0,0,0,0,0,0,0,0,-1,1007,1401,0,0
-210,-377,0,0,0,0,0,0,0,0,0,-1,1014,1401,0,0
-203,-377,0,0,0,0,0,0,0,0,0,-1,1021,1401,0,0
-196,-377,0,0,0,0,0,0,0,0,0,-1,1028,1401,0,0
-189,-377,0,0,0,0,0,0,0,0,0,-1,1035,1401,0,0
-182,-377,0,0,0,0,0,0,0,0,0,-1,1042,1401,0,0
-175,-377,0,0,0,0,0,0,0,0,0,-1,1049,1401,0,0
-168,-377,0,0,0,0,0,0,0,0,0,-1,1056,1401,0,0
-161,-377,0,0,0,0,0,0,0,0,0,-1,1063,1401,0,0
-154,-377,0,0,0,0,0,0,0,0,0,-1,1070,1401,0,0
-147,-377,0,0,0,0,0,0,0,0,0,-1,1077,1401,0,0
-140,-377,0,0,0,0,0,0,0,0,0,-1,1084,1401,0,0
-133,-377,0,0,0,0,0,0,0,0,0,-1,1091,1401,0,0
-126,-377,0,0,0,0,0,0,0,0,0,-1,1098,1401,0,0
-119,-377,0,0,0,0,0,0,0,0,0,-1,1105,1401,0,0
-112,-377,0,0,0,0,0,0,0,0,0,-1,1112,1401,0,0
-105,-377,0,0,0,0,0,0,0,0,0,-1,1119,1401,0,0
-98,-377,0,0,0,0,0,0,0,0,0,-1,1126,1401,0,0
-91,-377,0,0,0,0,0,0,0,0,0,-1,1133,1401,0,0
-84,-377,0,0,0,0,0,0,0,0,0,-1,1140,1401,0,0
-77,-377,0,0,0,0,0,0,0,0,0,-1,1147,1401,0,0
-70,-377,0,0,0,0,0,0,0,0,0,-1,1154,1401,0,0
-63,-377,0,0,0,0,0,0,0,0,0,-1,1161,1401,0,0
-56,-377,0,0,0,0,0,0,0,0,0,-1,1168,1401,0,0
-49,-377,0,0,0,0,0,0,0,0,0,-1,1175,1401,0,0
-42,-377,0,0,0,0,0,0,0,0,0,-1,1182,1401,0,0
-35,-377,0,0,0,0,0,0,0,0,0,-1,1189,1401,0,0
-28,-377,0,0,0,0,0,0,0,0,0,-1,1196,1401,0,0
-21,-377,0,0,0,0,0,0,0,0,0,-1,1203,1401,0,0
-14,-377,0,0,0,0,0,0,0,0,0,-1,1210,1401,0,0
-7,-377,0,0,0,0,0,0,0,0,0,-1,1217,1401,0,0
0,-377,0,0,0,0,0,0,0,0,0,-1,1224,1401,0,0
7,-377,0,0,0,0,0,0,0,0,0,-1,1231,1401,0,0
14,-377,0,0,0,0,0,0,0,0,0,-1,1238,1401,0,0
21,-377,0,0,0,0,0,0,0,0,0,-1,1245,1401,0,0
28,-377,0,0,0,0,0,0,0,0,0,-1,1252,1401,0,0
35,-377,0,0,0,0,0,0,0,0,0,-1,1259,1401,0,0
42,-377,0,0,0,0,0,0,0,0,0,-1,1266,1401,0,0
49,-377,0,0,0,0,0,0,0,0,0,-1,1273,1401,0,0
56,-377,0,0,0,0,0,0,0,0,0,-1,1280,1401,0,0
63,-377,0,0,0,0,0,0,0,0,0,-1,1287,1401,0,0
70,-377,0,0,0,0,0,0,0,0,0,-1,1294,1401,0,0
77,-377,0,0,0,0,0,0,0,0,0,-1,1301,1401,0,0
84,-377,0,0,0,0,0,0,0,0,0,-1,1308,1401,0,0
91,-377,0,0,0,0,0,0,0,0,0,-1,1315,1401,0,0
98,-377,0,0,0,0,0,0,0,0,0,-1,1322,1401,0,0
105,-377,0,0,0,0,0,0,0,0,0,-1,1329,1401,0,0
112,-377,0,0,0,0,0,0,0,0,0,-1,1336,1401,0,0
119,-377,0,0,0,0,0,0,0,0,0,-1,1343,1401,0,0
126,-377,0,0,0,0,0,0,0,0,0,-1,1350,1401,0,0
133,-377,0,0,0,0,0,0,0,0,0,-1,1357,1401,0,0
140,-377,0,0,0,0,0,0,0,0,0,-1,1364,1401,0,0
147,-377,0,0,0,0,0,0,0,0,0,-1,1371,1401,0,0
154,-377,0,0,0,0,0,0,0,0,0,-1,1378,1401,0,0
161,-377,0,0,0,0,0,0,0,0,0,-1,1385,1401,0,0
168,-377,0,0,0,0,0,0,0,0,0,-1,1392,1401,0,0
175,-377,0,0,0,0,0,0,0,0,0,-1,1399,1401,0,0
182,-377,0,0,0,0,0,0,0,0,0,-1,1406,1401,0,0
189,-377,0,0,0,0,0,0,0,0,0,-1,1413,1401,0,0
196,-377,0,0,0,0,0,0,0,0,0,-1,1420,1401,0,0
203,-377,0,0,0,0,0,0,0,0,0,-1,1427,1401,0,0
210,-377,0,0,0,0,0,0,0,0,0,-1,1434,1401,0,0
217,-377,0,0,0,0,0,0,0,0,0,-1,1441,1401,0,0
224,-377,0,0,0,0,0,0,0,0,0,-1,1448,1401,0,0
231,-377,0,0,0,0,0,0,0,0,0,-1,1455,1401,0,0
238,-377,0,0,0,0,0,0,0,0,0,-1,1462,1401,0,0
245,-377,0,0,0,0,0,0,0,0,0,-1,1469,1401,0,0
252,-377,0,0,0,0,0,0,0,0,0,-1,1476,1401,0,0
259,-377,0,0,0,0,0,0,0,0,0,-1,1483,1401,0,0
266,-377,0,0,0,0,0,0,0,0,0,-1,1490,1401,0,0
273,-377,0,0,0,0,0,0,0,0,0,-1,1497,1401,0,0
280,-377,0,0,0,0,0,0,0,0,0,-1,1504,1401,0,0
287,-377,0,0,0,0,0,0,0,0,0,-1,1511,1401,0,0
294,-377,0,0,0,0,0,0,0,0,0,-1,1518,1401,0,0
301,-377,0,0,0,0,0,0,0,0,0,-1,1525,1401,0,0
308,-377,0,0,0,0,0,0,0,0,0,-1,1532,1401,0,0
315,-377,0,0,0,0,0,0,0,0,0,-1,1539,1401,0,0
322,-377,0,0,0,0,0,0,0,0,0,-1,1546,1401,0,0
329,-377,0,0,0,0,0,0,0,0,0,-1,1553,1401,0,0
336,-377,0,0,0,0,0,0,0,0,0,-1,1560,1401,0,0
343,-377,0,0,0,0,0,0,0,0,0,-1,1567,1401,0,0
350,-377,0,0,0,0,0,0,0,0,0,-1,1574,1401,0,0
357,-377,0,0,0,0,0,0,0,0,0,-1,1581,1401,0,0
364,-377,0,0,0,0,0,0,0,0,0,-1,1588,1401,0,0
371,-377,0,0,0,0,0,0,0,0,0,-1,1595,1401,0,0
378,-377,0,0,0,0,0,0,0,0,0,-1,1602,1401,0,0
385,-377,0,0,0,0,0,0,0,0,0,-1,1609,1401,0,0
392,-377,0,0,0,0,0,0,0,0,0,-1,1616,1401,0,0
399,-377,0,0,0,0,0,0,0,0,0,-1,1623,1401,0,0
406,-377,0,0,0,0,0,0,0,0,0,-1,1630,1401,0,0
413,-377,0,0,0,0,0,0,0,0,0,-1,1637,1401,0,0
420,-377,0,0,0,0,0,0,0,0,0,-1,1644,1401,0,0
427,-377,0,0,0,0,0,0,0,0,0,-1,1651,1401,0,0
434,-377,0,0,0,0,0,0,0,0,0,-1,1658,1401,0,0
441,-377,0,0,0,0,0,0,0,0,0,-1,1665,1401,0,0
448,-377,0,0,0,0,0,0,0,0,0,-1,1672,1401,0,0
455,-377,0,0,0,0,0,0,0,0,0,-1,1679,1401,0,0
462,-377,0,0,0,0,0,0,0,0,0,-1,1686,1401,0,0
469,-377,0,0,0,0,0,0,0,0,0,-1,1693,1401,0,0
476,-377,0,0,0,0,0,0,0,0,0,-1,1700,1401,0,0
483,-377,0,0,0,0,0,0,0,0,0,-1,1707,1401,0,0
490,-377,0,0,0,0,0,0,0,0,0,-1,1714,1401,0,0
497,-377,0,0,0,0,0,0,0,0,0,-1,1721,1401,0,0
504,-377,0,0,0,0,0,0,0,0,0,-1,1728,1401,0,0
511,-377,0,0,0,0,0,0,0,0,0,-1,1735,1401,0,0
518,-377,0,0,0,0,0,0,0,0,0,-1,1742,1401,0,0
525,-377,0,0,0,0,0,0,0,0,0,-1,1749,1401,0,0
532,-377,0,0,0,0,0,0,0,0,0,-1,1756,1401,0,0
539,-377,0,0,0,0,0,0,0,0,0,-1,1763,1401,0,0
546,-377,22.3663,0.877319,0,0,0,0,0,0,0,-1,1770,1401,22.3663,-0.877268
553,-377,21.2521,1.89001,0,0,0,0,0,0,0,-1,1777,1401,21.252,-1.89003
560,-377,20.1377,2.90283,0,0,0,0,0,0,0,-1,1784,1401,20.1378,-2.90279
567,-377,15.1582,2.81689,0,0,0,0,0,0,0,-1,1791,1401,15.1583,-2.81688
574,-377,12.252,3.49695,0,0,0,0,0,0,0,-1,1798,1401,12.2519,-3.49692
581,-377,13.7461,2.83679,0,0,0,0,0,0,0,-1,1805,1401,13.7461,-2.8368
588,-377,15.2402,2.17664,0,0,0,0,0,0,0,-1,1812,1401,15.2402,-2.17669
595,-377,13.0044,2.7074,0,0,0,0,0,0,0,-1,1819,1401,13.0044,-2.70745
602,-377,13.0537,3.23193,0,0,0,0,0,0,0,-1,1826,1401,13.0537,-3.23191
609,-377,15.0223,4.76135,0,0,0,0,0,0,0,-1,1833,1401,15.0224,-4.76129
616,-377,14.1842,5.78992,0,0,0,0,0,0,0,-1,1840,1401,14.1842,-5.78987
623,-377,14.0682,7.76807,0,0,0,0,0,0,0,-1,1847,1401,14.0682,-7.76804
630,-377,13.9513,7.45264,-0.00859803,-0.00232768,0.009407,0.00445284,-0.0153786,0.94625,0.0120149,0.0372454,1854,1401,13.9513,-7.45267
637,-377,13.9402,7.20703,-0.00520696,-0.00339141,0.00744945,0.00320538,-0.0118037,0.846028,0.00912721,0.0146121,1861,1401,13.9401,-7.20705
644,-377,13.9703,6.98169,-0.00313983,-0.00353201,0.00565377,0.00232125,-0.00899309,0.768064,0.00690053,0.0109146,1868,1401,13.9704,-6.9817
651,-377,13.981,6.74463,-0.00190359,-0.00329693,0.00418716,0.00164446,-0.00684498,0.702962,0.0051989,0.0129186,1875,1401,13.9809,-6.74467
658,-377,13.9963,6.52795,-0.00108748,-0.002763,0.00300881,0.00119803,-0.0050485,0.649619,0.00382802,0.0146562,1882,1401,13.9963,-6.52794
665,-377,13.9973,6.3335,-0.000754866,-0.00279688,0.00230658,0.000746577,-0.00429832,0.577036,0.00314409,0.0158944,1889,1401,13.9973,-6.33355
672,-377,13.9961,6.12927,-0.000594847,-0.00241341,0.00202208,0.000712985,-0.00372124,0.574106,0.00274948,0.0154977,1896,1401,13.9961,-6.12924
679,-377,13.973,5.94861,-0.00042207,-0.00244183,0.00217335,0.000964568,-0.00382847,0.567907,0.0029273,0.0172574,1903,1401,13.973,-5.94859
686,-377,13.9547,5.71936,-0.000139424,-0.00298081,0.00260004,0.00140275,-0.00452298,0.535356,0.00357582,0.0158475,1910,1401,13.9547,-5.71941
693,-377,14.0005,5.48035,0.000418354,-0.00405248,0.00337041,0.00222729,-0.00586141,0.492582,0.00482457,0.0129111,1917,1401,14.0005,-5.48033
700,-377,13.9661,5.3103,0.00171069,-0.0056491,0.00415028,0.00357755,-0.00751596,0.4227,0.006538,0.0230136,1924,1401,13.966,-5.31027
707,-377,13.8489,5.11926,0.00364993,-0.00785173,0.00521779,0.00566424,-0.00986604,0.368419,0.00907514,0.0402949,1931,1401,13.8489,-5.1193
714,-377,13.8728,4.73462,0.00652864,-0.0108333,0.00650825,0.0086974,-0.013002,0.32166,0.0126101,0.0483923,1938,1401,13.8728,-4.73467
721,-377,13.979,4.39624,0,0,0,0,0,0,0,-1,1945,1401,13.979,-4.39629
728,-377,14.5396,2.79724,0,0,0,0,0,0,0,-1,1952,1401,14.5396,-2.7972
735,-377,16.2814,5.49353,0,0,0,0,0,0,0,-1,1959,1401,16.2814,-5.49358
742,-377,0,0,0,0,0,0,0,0,0,-1,1966,1401,0,0
749,-377,0,0,0,0,0,0,0,0,0,-1,1973,1401,0,0
756,-377,0,0,0,0,0,0,0,0,0,-1,1980,1401,0,0
763,-377,0,0,0,0,0,0,0,0,0,-1,1987,1401,0,0
770,-377,0,0,0,0,0,0,0,0,0,-1,1994,1401,0,0
777,-377,0,0,0,0,0,0,0,0,0,-1,2001,1401,0,0
784,-377,0,0,0,0,0,0,0,0,0,-1,2008,1401,0,0
791,-377,0,0,0,0,0,0,0,0,0,-1,2015,1401,0,0
798,-377,0,0,0,0,0,0,0,0,0,-1,2022,1401,0,0
805,-377,0,0,0,0,0,0,0,0,0,-1,2029,1401,0,0
812,-377,0,0,0,0,0,0,0,0,0,-1,2036,1401,0,0
-700,-384,0,0,0,0,0,0,0,0,0,-1,524,1408,0,0
-693,-384,0,0,0,0,0,0,0,0,0,-1,531,1408,0,0
-686,-384,0,0,0,0,0,0,0,0,0,-1,538,1408,0,0
-679,-384,0,0,0,0,0,0,0,0,0,-1,545,1408,0,0
-672,-384,0,0,0,0,0,0,0,0,0,-1,552,1408,0,0
-665,-384,0,0,0,0,0,0,0,0,0,-1,559,1408,0,0
-658,-384,0,0,0,0,0,0,0,0,0,-1,566,1408,0,0
-651,-384,0,0,0,0,0,0,0,0,0,-1,573,1408,0,0
-644,-384,0,0,0,0,0,0,0,0,0,-1,580,1408,0,0
-637,-384,0,0,0,0,0,0,0,0,0,-1,587,1408,0,0
-630,-384,0,0,0,0,0,0,0,0,0,-1,594,1408,0,0
-623,-384,0,0,0,0,0,0,0,0,0,-1,601,1408,0,0
-616,-384,-10.019,-3.36646,0,0,0,0,0,0,0,-1,608,1408,-10.019,3.36648
-609,-384,-7.72357,-2.3418,0,0,0,0,0,0,0,-1,615,1408,-7.72358,2.34182
-602,-384,-5.59833,-1.04639,0,0,0,0,0,0,0,-1,622,1408,-5.59835,1.04638
-595,-384,-6.19873,0.135254,0,0,0,0,0,0,0,-1,629,1408,-6.19875,-0.135272
-588,-384,-5.99542,0.623535,0,0,0,0,0,0,0,-1,636,1408,-5.99541,-0.623567
-581,-384,-5.84003,1.47351,0,0,0,0,0,0,0,-1,643,1408,-5.84,-1.47347
-574,-384,-5.17072,2.33142,0.0148216,0.0136755,0.011664,0.0259267,0.0025705,0.760853,0.0164945,0.045223,650,1408,-5.17075,-2.33136
-567,-384,-4.94989,3.0188,0.011863,0.0101289,0.00850796,0.019548,0.00244392,0.73462,0.0122985,0.0401774,657,1408,-4.94987,-3.01879
-560,-384,-4.9339,3.44385,0.00930882,0.00737,0.00606593,0.0144823,0.00219651,0.706162,0.00901237,0.0277833,664,1408,-4.93388,-3.44387
-553,-384,-5.01947,3.72144,0.00725812,0.00518804,0.00420959,0.010558,0.00188811,0.664851,0.00650137,0.0179274,671,1408,-5.01947,-3.72145
-546,-384,-5.04645,4.00403,0.00558675,0.00341818,0.00285986,0.00756098,0.00144396,0.604201,0.00463492,0.0134482,678,1408,-5.04643,-4.00404
-539,-384,-5.07733,4.20471,0.00431639,0.00206771,0.00192062,0.00541756,0.000966534,0.520589,0.00333653,0.0150715,685,1408,-5.07734,-4.20472
-532,-384,-5.0246,4.42957,0.0034394,0.00103574,0.00124582,0.0039686,0.000506539,0.401686,0.00249409,0.0223704,692,1408,-5.02463,-4.42963
-525,-384,-4.98273,4.70178,0.00290121,-0.000160874,0.00079188,0.00309388,-0.000353538,0.238662,0.00218996,0.0216923,699,1408,-4.98274,-4.70172
-518,-384,-5.01825,4.93311,0.00252251,-0.00110082,0.000428149,0.00257241,-0.00115072,0.116036,0.00220117,0.0127317,706,1408,-5.01827,-4.93309
-511,-384,-5.0448,5.18457,0.00245893,-0.00189037,0.000279229,0.00247678,-0.00190822,0.0638516,0.00253877,0.010274,713,1408,-5.04477,-5.18457
-504,-384,-5.0376,5.43774,0.0024914,-0.00295738,-0.000196865,0.0024985,-0.00296448,-0.0360674,0.00315787,0.0111817,720,1408,-5.03757,-5.43779
-497,-384,-5.01343,5.68945,0.00254279,-0.00443159,-0.00120694,0.00274575,-0.00463454,-0.166601,0.00430728,0.0146557,727,1408,-5.01345,-5.6895
-490,-384,-4.89709,5.95459,0.00242134,-0.00696297,-0.00313182,0.00337052,-0.00791215,-0.294275,0.00668765,0.0350855,734,1408,-4.89711,-5.95454
-483,-384,-4.711,6.26257,0,0,0,0,0,0,0,-1,741,1408,-4.711,-6.26259
-476,-384,-6.02734,5.67761,0,0,0,0,0,0,0,-1,748,1408,-6.02736,-5.6776
-469,-384,-6.84015,5.88599,0,0,0,0,0,0,0,-1,755,1408,-6.84013,-5.88601
-462,-384,-7.52692,6.00439,0,0,0,0,0,0,0,-1,762,1408,-7.52693,-6.00435
-455,-384,-8.48425,6.66223,0,0,0,0,0,0,0,-1,769,1408,-8.48426,-6.66229
-448,-384,-9.35529,7.19226,0,0,0,0,0,0,0,-1,776,1408,-9.35531,-7.19226
-441,-384,-10.2661,0.338989,0,0,0,0,0,0,0,-1,783,1408,-10.2661,-0.339015
-434,-384,-10.6449,0.552246,0,0,0,0,0,0,0,-1,790,1408,-10.6449,-0.552216
-427,-384,-10.968,1.10583,0,0,0,0,0,0,0,-1,797,1408,-10.968,-1.10588
-420,-384,-12.5607,4.54858,0,0,0,0,0,0,0,-1,804,1408,-12.5607,-4.54859
-413,-384,0,0,0,0,0,0,0,0,0,-1,811,1408,0,0
-406,-384,0,0,0,0,0,0,0,0,0,-1,818,1408,0,0
-399,-384,0,0,0,0,0,0,0,0,0,-1,825,1408,0,0
-392,-384,0,0,0,0,0,0,0,0,0,-1,832,1408,0,0
-385,-384,0,0,0,0,0,0,0,0,0,-1,839,1408,0,0
-378,-384,0,0,0,0,0,0,0,0,0,-1,846,1408,0,0
-371,-384,0,0,0,0,0,0,0,0,0,-1,853,1408,0,0
-364,-384,0,0,0,0,0,0,0,0,0,-1,860,1408,0,0
-357,-384,0,0,0,0,0,0,0,0,0,-1,867,1408,0,0
-350,-384,0,0,0,0,0,0,0,0,0,-1,874,1408,0,0
-343,-384,0,0,0,0,0,0,0,0,0,-1,881,1408,0,0
-336,-384,0,0,0,0,0,0,0,0,0,-1,888,1408,0,0
-329,-384,0,0,0,0,0,0,0,0,0,-1,895,1408,0,0
-322,-384,0,0,0,0,0,0,0,0,0,-1,902,1408,0,0
-315,-384,0,0,0,0,0,0,0,0,0,-1,909,1408,0,0
-308,-384,0,0,0,0,0,0,0,0,0,-1,916,1408,0,0
-301,-384,0,0,0,0,0,0,0,0,0,-1,923,1408,0,0
-294,-384,0,0,0,0,0,0,0,0,0,-1,930,1408,0,0
-287,-384,0,0,0,0,0,0,0,0,0,-1,937,1408,0,0
-280,-384,0,0,0,0,0,0,0,0,0,-1,944,1408,0,0
-273,-384,0,0,0,0,0,0,0,0,0,-1,951,1408,0,0
-266,-384,0,0,0,0,0,0,0,0,0,-1,958,1408,0,0
-259,-384,0,0,0,0,0,0,0,0,0,-1,965,1408,0,0
-252,-384,0,0,0,0,0,0,0,0,0,-1,972,1408,0,0
-245,-384,0,0,0,0,0,0,0,0,0,-1,979,1408,0,0
-238,-384,0,0,0,0,0,0,0,0,0,-1,986,1408,0,0
-231,-384,0,0,0,0,0,0,0,0,0,-1,993,1408,0,0
-224,-384,0,0,0,0,0,0,0,0,0,-1,1000,1408,0,0
-217,-384,0,0,0,0,0,0,0,0,0,-1,1007,1408,0,0
-210,-384,0,0,0,0,0,0,0,0,0,-1,1014,1408,0,0
-203,-384,0,0,0,0,0,0,0,0,0,-1,1021,1408,0,0
-196,-384,0,0,0,0,0,0,0,0,0,-1,1028,1408,0,0
-189,-384,0,0,0,0,0,0,0,0,0,-1,1035,1408,0,0
-182,-384,0,0,0,0,0,0,0,0,0,-1,1042,1408,0,0
-175,-384,0,0,0,0,0,0,0,0,0,-1,1049,1408,0,0
-168,-384,0,0,0,0,0,0,0,0,0,-1,1056,1408,0,0
-161,-384,0,0,0,0,0,0,0,0,0,-1,1063,1408,0,0
-154,-384,0,0,0,0,0,0,0,0,0,-1,1070,1408,0,0
-147,-384,0,0,0,0,0,0,0,0,0,-1,1077,1408,0,0
-140,-384,0,0,0,0,0,0,0,0,0,-1,1084,1408,0,0
-133,-384,0,0,0,0,0,0,0,0,0,-1,1091,1408,0,0
-126,-384,0,0,0,0,0,0,0,0,0,-1,1098,1408,0,0
-119,-384,0,0,0,0,0,0,0,0,0,-1,1105,1408,0,0
-112,-384,0,0,0,0,0,0,0,0,0,-1,1112,1408,0,0
-105,-384,0,0,0,0,0,0,0,0,0,-1,1119,1408,0,0
-98,-384,0,0,0,0,0,0,0,0,0,-1,1126,1408,0,0
-91,-384,0,0,0,0,0,0,0,0,0,-1,1133,1408,0,0
-84,-384,0,0,0,0,0,0,0,0,0,-1,1140,1408,0,0
-77,-384,0,0,0,0,0,0,0,0,0,-1,1147,1408,0,0
-70,-384,0,0,0,0,0,0,0,0,0,-1,1154,1408,0,0
-63,-384,0,0,0,0,0,0,0,0,0,-1,1161,1408,0,0
-56,-384,0,0,0,0,0,0,0,0,0,-1,1168,1408,0,0
-49,-384,0,0,0,0,0,0,0,0,0,-1,1175,1408,0,0
-42,-384,0,0,0,0,0,0,0,0,0,-1,1182,1408,0,0
-35,-384,0,0,0,0,0,0,0,0,0,-1,1189,1408,0,0
-28,-384,0,0,0,0,0,0,0,0,0,-1,1196,1408,0,0
-21,-384,0,0,0,0,0,0,0,0,0,-1,1203,1408,0,0
-14,-384,0,0,0,0,0,0,0,0,0,-1,1210,1408,0,0
-7,-384,0,0,0,0,0,0,0,0,0,-1,1217,1408,0,0
0,-384,0,0,0,0,0,0,0,0,0,-1,1224,1408,0,0
7,-384,0,0,0,0,0,0,0,0,0,-1,1231,1408,0,0
14,-384,0,0,0,0,0,0,0,0,0,-1,1238,1408,0,0
21,-384,0,0,0,0,0,0,0,0,0,-1,1245,1408,0,0
28,-384,0,0,0,0,0,0,0,0,0,-1,1252,1408,0,0
35,-384,0,0,0,0,0,0,0,0,0,-1,1259,1408,0,0
42,-384,0,0,0,0,0,0,0,0,0,-1,1266,1408,0,0
49,-384,0,0,0,0,0,0,0,0,0,-1,1273,1408,0,0
56,-384,0,0,0,0,0,0,0,0,0,-1,1280,1408,0,0
63,-384,0,0,0,0,0,0,0,0,0,-1,1287,1408,0,0
70,-384,0,0,0,0,0,0,0,0,0,-1,1294,1408,0,0
77,-384,0,0,0,0,0,0,0,0,0,-1,1301,1408,0,0
84,-384,0,0,0,0,0,0,0,0,0,-1,1308,1408,0,0
91,-384,0,0,0,0,0,0,0,0,0,-1,1315,1408,0,0
98,-384,0,0,0,0,0,0,0,0,0,-1,1322,1408,0,0
105,-384,0,0,0,0,0,0,0,0,0,-1,1329,1408,0,0
112,-384,0,0,0,0,0,0,0,0,0,-1,1336,1408,0,0
119,-384,0,0,0,0,0,0,0,0,0,-1,1343,1408,0,0
126,-384,0,0,0,0,0,0,0,0,0,-1,1350,1408,0,0
133,-384,0,0,0,0,0,0,0,0,0,-1,1357,1408,0,0
140,-384,0,0,0,0,0,0,0,0,0,-1,1364,1408,0,0
147,-384,0,0,0,0,0,0,0,0,0,-1,1371,1408,0,0
154,-384,0,0,0,0,0,0,0,0,0,-1,1378,1408,0,0
161,-384,0,0,0,0,0,0,0,0,0,-1,1385,1408,0,0
168,-384,0,0,0,0,0,0,0,0,0,-1,1392,1408,0,0
175,-384,0,0,0,0,0,0,0,0,0,-1,1399,1408,0,0
182,-384,0,0,0,0,0,0,0,0,0,-1,1406,1408,0,0
189,-384,0,0,0,0,0,0,0,0,0,-1,1413,1408,0,0
196,-384,0,0,0,0,0,0,0,0,0,-1,1420,1408,0,0
203,-384,0,0,0,0,0,0,0,0,0,-1,1427,1408,0,0
210,-384,0,0,0,0,0,0,0,0,0,-1,1434,1408,0,0
217,-384,0,0,0,0,0,0,0,0,0,-1,1441,1408,0,0
224,-384,0,0,0,0,0,0,0,0,0,-1,1448,1408,0,0
231,-384,0,0,0,0,0,0,0,0,0,-1,1455,1408,0,0
238,-384,0,0,0,0,0,0,0,0,0,-1,1462,1408,0,0
245,-384,0,0,0,0,0,0,0,0,0,-1,1469,1408,0,0
252,-384,0,0,0,0,0,0,0,0,0,-1,1476,1408,0,0
259,-384,0,0,0,0,0,0,0,0,0,-1,1483,1408,0,0
266,-384,0,0,0,0,0,0,0,0,0,-1,1490,1408,0,0
273,-384,0,0,0,0,0,0,0,0,0,-1,1497,1408,0,0
280,-384,0,0,0,0,0,0,0,0,0,-1,1504,1408,0,0
287,-384,0,0,0,0,0,0,0,0,0,-1,1511,1408,0,0
294,-384,0,0,0,0,0,0,0,0,0,-1,1518,1408,0,0
301,-384,0,0,0,0,0,0,0,0,0,-1,1525,1408,0,0
308,-384,0,0,0,0,0,0,0,0,0,-1,1532,1408,0,0
315,-384,0,0,0,0,0,0,0,0,0,-1,1539,1408,0,0
322,-384,0,0,0,0,0,0,0,0,0,-1,1546,1408,0,0
329,-384,0,0,0,0,0,0,0,0,0,-1,1553,1408,0,0
336,-384,0,0,0,0,0,0,0,0,0,-1,1560,1408,0,0
343,-384,0,0,0,0,0,0,0,0,0,-1,1567,1408,0,0
350,-384,0,0,0,0,0,0,0,0,0,-1,1574,1408,0,0
357,-384,0,0,0,0,0,0,0,0,0,-1,1581,1408,0,0
364,-384,0,0,0,0,0,0,0,0,0,-1,1588,1408,0,0
371,-384,0,0,0,0,0,0,0,0,0,-1,1595,1408,0,0
378,-384,0,0,0,0,0,0,0,0,0,-1,1602,1408,0,0
385,-384,0,0,0,0,0,0,0,0,0,-1,1609,1408,0,0
392,-384,0,0,0,0,0,0,0,0,0,-1,1616,1408,0,0
399,-384,0,0,0,0,0,0,0,0,0,-1,1623,1408,0,0
406,-384,0,0,0,0,0,0,0,0,0,-1,1630,1408,0,0
413,-384,0,0,0,0,0,0,0,0,0,-1,1637,1408,0,0
420,-384,0,0,0,0,0,0,0,0,0,-1,1644,1408,0,0
427,-384,0,0,0,0,0,0,0,0,0,-1,1651,1408,0,0
434,-384,0,0,0,0,0,0,0,0,0,-1,1658,1408,0,0
441,-384,0,0,0,0,0,0,0,0,0,-1,1665,1408,0,0
448,-384,0,0,0,0,0,0,0,0,0,-1,1672,1408,0,0
455,-384,0,0,0,0,0,0,0,0,0,-1,1679,1408,0,0
462,-384,0,0,0,0,0,0,0,0,0,-1,1686,1408,0,0
469,-384,0,0,0,0,0,0,0,0,0,-1,1693,1408,0,0
476,-384,0,0,0,0,0,0,0,0,0,-1,1700,1408,0,0
483,-384,0,0,0,0,0,0,0,0,0,-1,1707,1408,0,0
490,-384,0,0,0,0,0,0,0,0,0,-1,1714,1408,0,0
497,-384,0,0,0,0,0,0,0,0,0,-1,1721,1408,0,0
504,-384,0,0,0,0,0,0,0,0,0,-1,1728,1408,0,0
511,-384,0,0,0,0,0,0,0,0,0,-1,1735,1408,0,0
518,-384,0,0,0,0,0,0,0,0,0,-1,1742,1408,0,0
525,-384,0,0,0,0,0,0,0,0,0,-1,1749,1408,0,0
532,-384,0,0,0,0,0,0,0,0,0,-1,1756,1408,0,0
539,-384,23.4208,1.19556,0,0,0,0,0,0,0,-1,1763,1408,23.4207,-1.19561
546,-384,22.3715,1.52161,0,0,0,0,0,0,0,-1,1770,1408,22.3715,-1.52159
553,-384,21.0801,2.1532,0,0,0,0,0,0,0,-1,1777,1408,21.0801,-2.15317
560,-384,19.7887,2.78479,0,0,0,0,0,0,0,-1,1784,1408,19.7887,-2.78475
567,-384,19.0348,2.75549,0,0,0,0,0,0,0,-1,1791,1408,19.0348,-2.75544
574,-384,11.5477,2.34216,0,0,0,0,0,0,0,-1,1798,1408,11.5477,-2.34214
581,-384,13.024,2.0072,0,0,0,0,0,0,0,-1,1805,1408,13.024,-2.00726
588,-384,14.5002,1.67236,0,0,0,0,0,0,0,-1,1812,1408,14.5002,-1.67238
595,-384,17.2017,4.63574,0,0,0,0,0,0,0,-1,1819,1408,17.2016,-4.63576
602,-384,14.5807,4.99976,0,0,0,0,0,0,0,-1,1826,1408,14.5806,-4.99972
609,-384,14.158,5.49475,0,0,0,0,0,0,0,-1,1833,1408,14.158,-5.49474
616,-384,13.9225,7.16638,0,0,0,0,0,0,0,-1,1840,1408,13.9225,-7.16638
623,-384,13.6565,7.65918,0,0,0,0,0,0,0,-1,1847,1408,13.6565,-7.65912
630,-384,13.7931,7.36865,-0.00553769,-0.00441625,0.00972966,0.00476883,-0.0147228,0.814181,0.0117324,0.0231272,1854,1408,13.7931,-7.36863
637,-384,13.7648,7.20947,-0.0036745,-0.00409639,0.00704456,0.00316227,-0.0109332,0.770431,0.0085403,0.0147576,1861,1408,13.7648,-7.20941
644,-384,13.7633,6.99194,-0.00246562,-0.00362535,0.00511173,0.00209904,-0.00819,0.72892,0.00627776,0.0154428,1868,1408,13.7633,-6.99197
651,-384,13.7633,6.7478,-0.00168756,-0.00326248,0.00375932,0.00136588,-0.00631593,0.682156,0.00473208,0.0158475,1875,1408,13.7633,-6.74781
658,-384,13.7698,6.55017,-0.0011167,-0.00281482,0.00279514,0.000955495,-0.00488702,0.637946,0.0036188,0.0155022,1882,1408,13.7698,-6.55021
665,-384,13.7787,6.36133,-0.000858813,-0.00286862,0.00243683,0.000772186,-0.00449962,0.589831,0.00328751,0.0154033,1889,1408,13.7787,-6.36136
672,-384,13.7892,6.13855,-0.000896995,-0.00280691,0.0024802,0.000805738,-0.00450965,0.601629,0.00330788,0.0130197,1896,1408,13.7891,-6.1385
679,-384,13.7703,5.92908,-0.000997752,-0.00326307,0.00300213,0.00107828,-0.00533909,0.605012,0.00396796,0.014219,1903,1408,13.7703,-5.92908
686,-384,13.7463,5.71497,-0.00103807,-0.00429866,0.00388152,0.00154162,-0.00687836,0.586578,0.00517654,0.0129352,1910,1408,13.7463,-5.71496
693,-384,13.8037,5.48523,-0.00080322,-0.00593627,0.00521765,0.00244498,-0.00918446,0.556828,0.00708011,0.0179691,1917,1408,13.8038,-5.48522
700,-384,13.7057,5.56189,0.00026474,-0.00808024,0.00663938,0.00393387,-0.0117494,0.504862,0.00942205,0.0388387,1924,1408,13.7056,-5.56189
707,-384,13.7498,5.67578,0,0,0,0,0,0,0,-1,1931,1408,13.7498,-5.67576
714,-384,13.438,4.69446,0,0,0,0,0,0,0,-1,1938,1408,13.438,-4.69442
721,-384,13.8843,2.8717,0,0,0,0,0,0,0,-1,1945,1408,13.8843,-2.87171
728,-384,15.4409,6.25745,0,0,0,0,0,0,0,-1,1952,1408,15.4409,-6.2574
735,-384,16.7598,6.71289,0,0,0,0,0,0,0,-1,1959,1408,16.7598,-6.71287
742,-384,0,0,0,0,0,0,0,0,0,-1,1966,1408,0,0
749,-384,0,0,0,0,0,0,0,0,0,-1,1973,1408,0,0
756,-384,0,0,0,0,0,0,0,0,0,-1,1980,1408,0,0
763,-384,0,0,0,0,0,0,0,0,0,-1,1987,1408,0,0
770,-384,0,0,0,0,0,0,0,0,0,-1,1994,1408,0,0
777,-384,0,0,0,0,0,0,0,0,0,-1,2001,1408,0,0
784,-384,0,0,0,0,0,0,0,0,0,-1,2008,1408,0,0
791,-384,0,0,0,0,0,0,0,0,0,-1,2015,1408,0,0
798,-384,0,0,0,0,0,0,0,0,0,-1,2022,1408,0,0
805,-384,0,0,0,0,0,0,0,0,0,-1,2029,1408,0,0
812,-384,0,0,0,0,0,0,0,0,0,-1,2036,1408,0,0
-700,-391,0,0,0,0,0,0,0,0,0,-1,524,1415,0,0
-693,-391,0,0,0,0,0,0,0,0,0,-1,531,1415,0,0
-686,-391,0,0,0,0,0,0,0,0,0,-1,538,1415,0,0
-679,-391,0,0,0,0,0,0,0,0,0,-1,545,1415,0,0
-672,-391,0,0,0,0,0,0,0,0,0,-1,552,1415,0,0
-665,-391,0,0,0,0,0,0,0,0,0,-1,559,1415,0,0
-658,-391,0,0,0,0,0,0,0,0,0,-1,566,1415,0,0
-651,-391,0,0,0,0,0,0,0,0,0,-1,573,1415,0,0
-644,-391,0,0,0,0,0,0,0,0,0,-1,580,1415,0,0
-637,-391,0,0,0,0,0,0,0,0,0,-1,587,1415,0,0
-630,-391,0,0,0,0,0,0,0,0,0,-1,594,1415,0,0
-623,-391,0,0,0,0,0,0,0,0,0,-1,601,1415,0,0
-616,-391,0,0,0,0,0,0,0,0,0,-1,608,1415,0,0
-609,-391,-7.71753,-3.69763,0,0,0,0,0,0,0,-1,615,1415,-7.71751,3.69759
-602,-391,-3.36749,-2.07458,0,0,0,0,0,0,0,-1,622,1415,-3.36751,2.07453
-595,-391,-5.87201,0.383911,0,0,0,0,0,0,0,-1,629,1415,-5.872,-0.38394
-588,-391,-5.57617,0.873657,0,0,0,0,0,0,0,-1,636,1415,-5.57619,-0.873617
-581,-391,-5.47571,1.61621,0,0,0,0,0,0,0,-1,643,1415,-5.47572,-1.61621
-574,-391,-5.19232,2.08374,0.0240118,0.0164252,0.0157706,0.0364389,0.00399816,0.667375,0.0230756,0.0460427,650,1415,-5.19229,-2.08379
-567,-391,-4.82782,2.76733,0.0191626,0.0123036,0.0118191,0.0280397,0.0034265,0.644192,0.0176621,0.0447764,657,1415,-4.82783,-2.76739
-560,-391,-4.65887,3.3761,0,0,0,0,0,0,0,-1,664,1415,-4.65888,-3.37605
-553,-391,-4.73981,3.70471,0.0115846,0.00662829,0.00634859,0.0159215,0.00229132,0.59932,0.00993903,0.0253476,671,1415,-4.73978,-3.70469
-546,-391,-4.80292,3.98962,0.00889155,0.00471099,0.00457782,0.0118337,0.0017688,0.571229,0.00737065,0.0118145,678,1415,-4.80291,-3.98965
-539,-391,-4.78845,4.23035,0.00679025,0.00324132,0.00327551,0.00874107,0.00129051,0.53716,0.00544839,0.0142882,685,1415,-4.78845,-4.23032
-532,-391,-4.76855,4.45789,0.00525454,0.00213776,0.0022795,0.00645744,0.000934863,0.485563,0.00402965,0.0267722,692,1415,-4.76855,-4.45787
-525,-391,-4.74701,4.7218,0.00423193,0.000899751,0.00152816,0.00482662,0.000305063,0.371122,0.00312103,0.0262036,699,1415,-4.747,-4.72177
-518,-391,-4.81781,4.94751,0.00345446,-0.000103987,0.000839877,0.00364273,-0.000292257,0.220518,0.00253153,0.0149682,706,1415,-4.81784,-4.94753
-511,-391,-4.81915,5.17822,0.00308115,-0.000951769,0.000374383,0.00311561,-0.00098623,0.0917867,0.00247228,0.0123879,713,1415,-4.81915,-5.17822
-504,-391,-4.79993,5.43945,0.00284222,-0.00195811,-0.000314101,0.00286269,-0.00197858,-0.0650633,0.0028106,0.0110766,720,1415,-4.79994,-5.43946
-497,-391,-4.79156,5.68005,0.00276519,-0.00333613,-0.00156088,0.00314132,-0.00371226,-0.236463,0.00396149,0.00935445,727,1415,-4.79159,-5.6801
-490,-391,-4.75995,5.96375,0.00283372,-0.00565472,-0.00347058,0.00407205,-0.00689304,-0.342726,0.00640015,0.0168788,734,1415,-4.75995,-5.96375
-483,-391,-4.70642,6.11401,0.00251171,-0.0079192,-0.00582834,0.00511741,-0.0105249,-0.420418,0.00920921,0.0427952,741,1415,-4.7064,-6.11399
-476,-391,-4.76917,6.13525,0,0,0,0,0,0,0,-1,748,1415,-4.76914,-6.13523
-469,-391,-3.88953,5.0979,0,0,0,0,0,0,0,-1,755,1415,-3.88955,-5.09794
-462,-391,-5.32281,5.88391,0,0,0,0,0,0,0,-1,762,1415,-5.32282,-5.88388
-455,-391,-6.31671,6.42883,0,0,0,0,0,0,0,-1,769,1415,-6.3167,-6.42879
-448,-391,-4.15601,2.72815,0,0,0,0,0,0,0,-1,776,1415,-4.156,-2.72814
-441,-391,-2.80511,1.66772,0,0,0,0,0,0,0,-1,783,1415,-2.80509,-1.66773
-434,-391,-9.9859,0.309448,0,0,0,0,0,0,0,-1,790,1415,-9.98591,-0.309397
-427,-391,-10.5311,2.50403,0,0,0,0,0,0,0,-1,797,1415,-10.5311,-2.504
-420,-391,-10.621,4.9751,0,0,0,0,0,0,0,-1,804,1415,-10.621,-4.97506
-413,-391,0,0,0,0,0,0,0,0,0,-1,811,1415,0,0
-406,-391,0,0,0,0,0,0,0,0,0,-1,818,1415,0,0
-399,-391,0,0,0,0,0,0,0,0,0,-1,825,1415,0,0
-392,-391,0,0,0,0,0,0,0,0,0,-1,832,1415,0,0
-385,-391,0,0,0,0,0,0,0,0,0,-1,839,1415,0,0
-378,-391,0,0,0,0,0,0,0,0,0,-1,846,1415,0,0
-371,-391,0,0,0,0,0,0,0,0,0,-1,853,1415,0,0
-364,-391,0,0,0,0,0,0,0,0,0,-1,860,1415,0,0
-357,-391,0,0,0,0,0,0,0,0,0,-1,867,1415,0,0
-350,-391,0,0,0,0,0,0,0,0,0,-1,874,1415,0,0
-343,-391,0,0,0,0,0,0,0,0,0,-1,881,1415,0,0
-336,-391,0,0,0,0,0,0,0,0,0,-1,888,1415,0,0
-329,-391,0,0,0,0,0,0,0,0,0,-1,895,1415,0,0
-322,-391,0,0,0,0,0,0,0,0,0,-1,902,1415,0,0
-315,-391,0,0,0,0,0,0,0,0,0,-1,909,1415,0,0
-308,-391,0,0,0,0,0,0,0,0,0,-1,916,1415,0,0
-301,-391,0,0,0,0,0,0,0,0,0,-1,923,1415,0,0
-294,-391,0,0,0,0,0,0,0,0,0,-1,930,1415,0,0
-287,-391,0,0,0,0,0,0,0,0,0,-1,937,1415,0,0
-280,-391,0,0,0,0,0,0,0,0,0,-1,944,1415,0,0
-273,-391,0,0,0,0,0,0,0,0,0,-1,951,1415,0,0
-266,-391,0,0,0,0,0,0,0,0,0,-1,958,1415,0,0
-259,-391,0,0,0,0,0,0,0,0,0,-1,965,1415,0,0
-252,-391,0,0,0,0,0,0,0,0,0,-1,972,1415,0,0
-245,-391,0,0,0,0,0,0,0,0,0,-1,979,1415,0,0
-238,-391,0,0,0,0,0,0,0,0,0,-1,986,1415,0,0
-231,-391,0,0,0,0,0,0,0,0,0,-1,993,1415,0,0
-224,-391,0,0,0,0,0,0,0,0,0,-1,1000,1415,0,0
-217,-391,0,0,0,0,0,0,0,0,0,-1,1007,1415,0,0
-210,-391,0,0,0,0,0,0,0,0,0,-1,1014,1415,0,0
-203,-391,0,0,0,0,0,0,0,0,0,-1,1021,1415,0,0
-196,-391,0,0,0,0,0,0,0,0,0,-1,1028,1415,0,0
-189,-391,0,0,0,0,0,0,0,0,0,-1,1035,1415,0,0
-182,-391,0,0,0,0,0,0,0,0,0,-1,1042,1415,0,0
-175,-391,0,0,0,0,0,0,0,0,0,-1,1049,1415,0,0
-168,-391,0,0,0,0,0,0,0,0,0,-1,1056,1415,0,0
-161,-391,0,0,0,0,0,0,0,0,0,-1,1063,1415,0,0
-154,-391,0,0,0,0,0,0,0,0,0,-1,1070,1415,0,0
-147,-391,0,0,0,0,0,0,0,0,0,-1,1077,1415,0,0
-140,-391,0,0,0,0,0,0,0,0,0,-1,1084,1415,0,0
-133,-391,0,0,0,0,0,0,0,0,0,-1,1091,1415,0,0
-126,-391,0,0,0,0,0,0,0,0,0,-1,1098,1415,0,0
-119,-391,0,0,0,0,0,0,0,0,0,-1,1105,1415,0,0
-112,-391,0,0,0,0,0,0,0,0,0,-1,1112,1415,0,0
-105,-391,0,0,0,0,0,0,0,0,0,-1,1119,1415,0,0
-98,-391,0,0,0,0,0,0,0,0,0,-1,1126,1415,0,0
-91,-391,0,0,0,0,0,0,0,0,0,-1,1133,1415,0,0
-84,-391,0,0,0,0,0,0,0,0,0,-1,1140,1415,0,0
-77,-391,0,0,0,0,0,0,0,0,0,-1,1147,1415,0,0
-70,-391,0,0,0,0,0,0,0,0,0,-1,1154,1415,0,0
-63,-391,0,0,0,0,0,0,0,0,0,-1,1161,1415,0,0
-56,-391,0,0,0,0,0,0,0,0,0,-1,1168,1415,0,0
-49,-391,0,0,0,0,0,0,0,0,0,-1,1175,1415,0,0
-42,-391,0,0,0,0,0,0,0,0,0,-1,1182,1415,0,0
-35,-391,0,0,0,0,0,0,0,0,0,-1,1189,1415,0,0
-28,-391,0,0,0,0,0,0,0,0,0,-1,1196,1415,0,0
-21,-391,0,0,0,0,0,0,0,0,0,-1,1203,1415,0,0
-14,-391,0,0,0,0,0,0,0,0,0,-1,1210,1415,0,0
-7,-391,0,0,0,0,0,0,0,0,0,-1,1217,1415,0,0
0,-391,0,0,0,0,0,0,0,0,0,-1,1224,1415,0,0
7,-391,0,0,0,0,0,0,0,0,0,-1,1231,1415,0,0
14,-391,0,0,0,0,0,0,0,0,0,-1,1238,1415,0,0
21,-391,0,0,0,0,0,0,0,0,0,-1,1245,1415,0,0
28,-391,0,0,0,0,0,0,0,0,0,-1,1252,1415,0,0
35,-391,0,0,0,0,0,0,0,0,0,-1,1259,1415,0,0
42,-391,0,0,0,0,0,0,0,0,0,-1,1266,1415,0,0
49,-391,0,0,0,0,0,0,0,0,0,-1,1273,1415,0,0
56,-391,0,0,0,0,0,0,0,0,0,-1,1280,1415,0,0
63,-391,0,0,0,0,0,0,0,0,0,-1,1287,1415,0,0
70,-391,0,0,0,0,0,0,0,0,0,-1,1294,1415,0,0
77,-391,0,0,0,0,0,0,0,0,0,-1,1301,1415,0,0
84,-391,0,0,0,0,0,0,0,0,0,-1,1308,1415,0,0
91,-391,0,0,0,0,0,0,0,0,0,-1,1315,1415,0,0
98,-391,0,0,0,0,0,0,0,0,0,-1,1322,1415,0,0
105,-391,0,0,0,0,0,0,0,0,0,-1,1329,1415,0,0
112,-391,0,0,0,0,0,0,0,0,0,-1,1336,1415,0,0
119,-391,0,0,0,0,0,0,0,0,0,-1,1343,1415,0,0
126,-391,0,0,0,0,0,0,0,0,0,-1,1350,1415,0,0
133,-391,0,0,0,0,0,0,0,0,0,-1,1357,1415,0,0
140,-391,0,0,0,0,0,0,0,0,0,-1,1364,1415,0,0
147,-391,0,0,0,0,0,0,0,0,0,-1,1371,1415,0,0
154,-391,0,0,0,0,0,0,0,0,0,-1,1378,1415,0,0
161,-391,0,0,0,0,0,0,0,0,0,-1,1385,1415,0,0
168,-391,0,0,0,0,0,0,0,0,0,-1,1392,1415,0,0
175,-391,0,0,0,0,0,0,0,0,0,-1,1399,1415,0,0
182,-391,0,0,0,0,0,0,0,0,0,-1,1406,1415,0,0
189,-391,0,0,0,0,0,0,0,0,0,-1,1413,1415,0,0
196,-391,0,0,0,0,0,0,0,0,0,-1,1420,1415,0,0
203,-391,0,0,0,0,0,0,0,0,0,-1,1427,1415,0,0
210,-391,0,0,0,0,0,0,0,0,0,-1,1434,1415,0,0
217,-391,0,0,0,0,0,0,0,0,0,-1,1441,1415,0,0
224,-391,0,0,0,0,0,0,0,0,0,-1,1448,1415,0,0
231,-391,0,0,0,0,0,0,0,0,0,-1,1455,1415,0,0
238,-391,0,0,0,0,0,0,0,0,0,-1,1462,1415,0,0
245,-391,0,0,0,0,0,0,0,0,0,-1,1469,1415,0,0
252,-391,0,0,0,0,0,0,0,0,0,-1,1476,1415,0,0
259,-391,0,0,0,0,0,0,0,0,0,-1,1483,1415,0,0
266,-391,0,0,0,0,0,0,0,0,0,-1,1490,1415,0,0
273,-391,0,0,0,0,0,0,0,0,0,-1,1497,1415,0,0
280,-391,0,0,0,0,0,0,0,0,0,-1,1504,1415,0,0
287,-391,0,0,0,0,0,0,0,0,0,-1,1511,1415,0,0
294,-391,0,0,0,0,0,0,0,0,0,-1,1518,1415,0,0
301,-391,0,0,0,0,0,0,0,0,0,-1,1525,1415,0,0
308,-391,0,0,0,0,0,0,0,0,0,-1,1532,1415,0,0
315,-391,0,0,0,0,0,0,0,0,0,-1,1539,1415,0,0
322,-391,0,0,0,0,0,0,0,0,0,-1,1546,1415,0,0
329,-391,0,0,0,0,0,0,0,0,0,-1,1553,1415,0,0
336,-391,0,0,0,0,0,0,0,0,0,-1,1560,1415,0,0
343,-391,0,0,0,0,0,0,0,0,0,-1,1567,1415,0,0
350,-391,0,0,0,0,0,0,0,0,0,-1,1574,1415,0,0
357,-391,0,0,0,0,0,0,0,0,0,-1,1581,1415,0,0
364,-391,0,0,0,0,0,0,0,0,0,-1,1588,1415,0,0
371,-391,0,0,0,0,0,0,0,0,0,-1,1595,1415,0,0
378,-391,0,0,0,0,0,0,0,0,0,-1,1602,1415,0,0
385,-391,0,0,0,0,0,0,0,0,0,-1,1609,1415,0,0
392,-391,0,0,0,0,0,0,0,0,0,-1,1616,1415,0,0
399,-391,0,0,0,0,0,0,0,0,0,-1,1623,1415,0,0
406,-391,0,0,0,0,0,0,0,0,0,-1,1630,1415,0,0
413,-391,0,0,0,0,0,0,0,0,0,-1,1637,1415,0,0
420,-391,0,0,0,0,0,0,0,0,0,-1,1644,1415,0,0
427,-391,0,0,0,0,0,0,0,0,0,-1,1651,1415,0,0
434,-391,0,0,0,0,0,0,0,0,0,-1,1658,1415,0,0
441,-391,0,0,0,0,0,0,0,0,0,-1,1665,1415,0,0
448,-391,0,0,0,0,0,0,0,0,0,-1,1672,1415,0,0
455,-391,0,0,0,0,0,0,0,0,0,-1,1679,1415,0,0
462,-391,0,0,0,0,0,0,0,0,0,-1,1686,1415,0,0
469,-391,0,0,0,0,0,0,0,0,0,-1,1693,1415,0,0
476,-391,0,0,0,0,0,0,0,0,0,-1,1700,1415,0,0
483,-391,0,0,0,0,0,0,0,0,0,-1,1707,1415,0,0
490,-391,0,0,0,0,0,0,0,0,0,-1,1714,1415,0,0
497,-391,0,0,0,0,0,0,0,0,0,-1,1721,1415,0,0
504,-391,0,0,0,0,0,0,0,0,0,-1,1728,1415,0,0
511,-391,0,0,0,0,0,0,0,0,0,-1,1735,1415,0,0
518,-391,0,0,0,0,0,0,0,0,0,-1,1742,1415,0,0
525,-391,0,0,0,0,0,0,0,0,0,-1,1749,1415,0,0
532,-391,23.3541,1.15771,0,0,0,0,0,0,0,-1,1756,1415,23.3541,-1.15771
539,-391,22.6211,1.52905,0,0,0,0,0,0,0,-1,1763,1415,22.6211,-1.529
546,-391,21.671,2.0199,0,0,0,0,0,0,0,-1,1770,1415,21.671,-2.01994
553,-391,20.5422,2.27222,0,0,0,0,0,0,0,-1,1777,1415,20.5423,-2.27224
560,-391,19.1654,2.27197,0,0,0,0,0,0,0,-1,1784,1415,19.1654,-2.27193
567,-391,18.4855,3.01099,0,0,0,0,0,0,0,-1,1791,1415,18.4854,-3.01096
574,-391,17.8459,3.70581,0,0,0,0,0,0,0,-1,1798,1415,17.8459,-3.70584
581,-391,12.551,1.32678,0,0,0,0,0,0,0,-1,1805,1415,12.5511,-1.32684
588,-391,16.6328,4.5874,0,0,0,0,0,0,0,-1,1812,1415,16.6328,-4.5874
595,-391,15.9152,5.18213,0,0,0,0,0,0,0,-1,1819,1415,15.9151,-5.18209
602,-391,15.1635,5.69849,0,0,0,0,0,0,0,-1,1826,1415,15.1635,-5.69847
609,-391,13.967,7.37878,0,0,0,0,0,0,0,-1,1833,1415,13.967,-7.37872
616,-391,13.6951,7.41016,-0.0120013,-0.00555405,0.0152911,0.00684952,-0.0244049,0.889285,0.0189699,0.0429784,1840,1415,13.695,-7.41017
623,-391,13.5853,7.55493,-0.00852073,-0.00526589,0.0113305,0.00455349,-0.0183401,0.856726,0.0139937,0.0230274,1847,1415,13.5854,-7.55493
630,-391,13.5977,7.37659,-0.00577807,-0.00472472,0.0083096,0.00307487,-0.0135777,0.817047,0.0102319,0.0174622,1854,1415,13.5977,-7.37658
637,-391,13.5817,7.19397,-0.0038689,-0.00408025,0.00607348,0.00209982,-0.010049,0.776699,0.00749792,0.0148959,1861,1415,13.5817,-7.19401
644,-391,13.5637,6.98352,-0.00263936,-0.00352217,0.00453097,0.00147166,-0.00763318,0.736842,0.00564367,0.0159478,1868,1415,13.5638,-6.98356
651,-391,13.5614,6.7738,-0.00187551,-0.00323878,0.00351805,0.00102633,-0.00614062,0.689707,0.00447526,0.0166953,1875,1415,13.5614,-6.77383
658,-391,13.5708,6.57886,-0.0013828,-0.00294156,0.00287606,0.000817606,-0.00514197,0.653082,0.0037305,0.0155475,1882,1415,13.5708,-6.57891
665,-391,13.5634,6.37463,-0.00126173,-0.00310017,0.00290386,0.00086493,-0.00522683,0.632113,0.00380577,0.0122573,1889,1415,13.5634,-6.37459
672,-391,13.5685,6.14795,-0.00152284,-0.00341978,0.00334644,0.00100694,-0.00594956,0.647307,0.00434112,0.0109249,1896,1415,13.5685,-6.14794
679,-391,13.5492,5.94055,-0.00191253,-0.00431691,0.00428181,0.00133265,-0.00756209,0.648539,0.00553931,0.0106473,1903,1415,13.5492,-5.94058
686,-391,13.5626,5.72534,-0.00230866,-0.00589101,0.00567442,0.00185057,-0.0100502,0.632519,0.00739462,0.0132696,1910,1415,13.5626,-5.72532
693,-391,13.5531,5.57739,-0.00245667,-0.00814113,0.00764691,0.00285913,-0.0134569,0.607468,0.0100607,0.0282732,1917,1415,13.5531,-5.57736
700,-391,13.4167,5.75806,0,0,0,0,0,0,0,-1,1924,1415,13.4168,-5.75805
707,-391,12.9524,5.96851,0,0,0,0,0,0,0,-1,1931,1415,12.9524,-5.96849
714,-391,12.5084,7.60242,0,0,0,0,0,0,0,-1,1938,1415,12.5084,-7.60241
721,-391,14.1808,8.08435,0,0,0,0,0,0,0,-1,1945,1415,14.1808,-8.08439
728,-391,13.8102,7.28174,0,0,0,0,0,0,0,-1,1952,1415,13.8102,-7.28174
735,-391,0,0,0,0,0,0,0,0,0,-1,1959,1415,0,0
742,-391,0,0,0,0,0,0,0,0,0,-1,1966,1415,0,0
749,-391,0,0,0,0,0,0,0,0,0,-1,1973,1415,0,0
756,-391,0,0,0,0,0,0,0,0,0,-1,1980,1415,0,0
763,-391,0,0,0,0,0,0,0,0,0,-1,1987,1415,0,0
770,-391,0,0,0,0,0,0,0,0,0,-1,1994,1415,0,0
777,-391,0,0,0,0,0,0,0,0,0,-1,2001,1415,0,0
784,-391,0,0,0,0,0,0,0,0,0,-1,2008,1415,0,0
791,-391,0,0,0,0,0,0,0,0,0,-1,2015,1415,0,0
798,-391,0,0,0,0,0,0,0,0,0,-1,2022,1415,0,0
805,-391,0,0,0,0,0,0,0,0,0,-1,2029,1415,0,0
812,-391,0,0,0,0,0,0,0,0,0,-1,2036,1415,0,0
-700,-398,0,0,0,0,0,0,0,0,0,-1,524,1422,0,0
-693,-398,0,0,0,0,0,0,0,0,0,-1,531,1422,0,0
-686,-398,0,0,0,0,0,0,0,0,0,-1,538,1422,0,0
-679,-398,0,0,0,0,0,0,0,0,0,-1,545,1422,0,0
-672,-398,0,0,0,0,0,0,0,0,0,-1,552,1422,0,0
-665,-398,0,0,0,0,0,0,0,0,0,-1,559,1422,0,0
-658,-398,0,0,0,0,0,0,0,0,0,-1,566,1422,0,0
-651,-398,0,0,0,0,0,0,0,0,0,-1,573,1422,0,0
-644,-398,0,0,0,0,0,0,0,0,0,-1,580,1422,0,0
-637,-398,0,0,0,0,0,0,0,0,0,-1,587,1422,0,0
-630,-398,0,0,0,0,0,0,0,0,0,-1,594,1422,0,0
-623,-398,0,0,0,0,0,0,0,0,0,-1,601,1422,0,0
-616,-398,0,0,0,0,0,0,0,0,0,-1,608,1422,0,0
-609,-398,-7.47125,-4.05322,0,0,0,0,0,0,0,-1,615,1422,-7.47128,4.05317
-602,-398,-4.58868,-2.77026,0,0,0,0,0,0,0,-1,622,1422,-4.58869,2.77023
-595,-398,-10.0841,3.23071,0,0,0,0,0,0,0,-1,629,1422,-10.0841,-3.23069
-588,-398,-5.2395,1.06055,0,0,0,0,0,0,0,-1,636,1422,-5.2395,-1.06056
-581,-398,-5.10834,1.54785,0,0,0,0,0,0,0,-1,643,1422,-5.10832,-1.54779
-574,-398,-4.99463,2.08923,0.0360893,0.0192433,0.0213074,0.0505781,0.00475455,0.59717,0.0322509,0.0464958,650,1422,-4.99461,-2.08919
-567,-398,-4.73193,2.61877,0.0290078,0.0145843,0.0164637,0.03977,0.00382208,0.578966,0.0253356,0.0451514,657,1422,-4.73195,-2.61873
-560,-398,-4.54779,3.17566,0,0,0,0,0,0,0,-1,664,1422,-4.54778,-3.17566
-553,-398,-4.46991,3.76953,0.0177698,0.00822357,0.00954336,0.0236671,0.00232624,0.553514,0.0150627,0.0332495,671,1422,-4.46993,-3.76953
-546,-398,-4.55414,3.9906,0.0136787,0.00611028,0.00721042,0.0180376,0.00175136,0.543744,0.0114859,0.0157223,678,1422,-4.55411,-3.99058
-539,-398,-4.53229,4.25659,0.0103886,0.00445074,0.00538676,0.0135705,0.00126893,0.533532,0.00865505,0.0126061,685,1422,-4.53231,-4.25654
-532,-398,-4.53546,4.48022,0.00781769,0.00316943,0.00392862,0.0100582,0.000928952,0.518292,0.00641824,0.0213142,692,1422,-4.53546,-4.48023
-525,-398,-4.53247,4.70129,0.00592885,0.00180447,0.00273815,0.0072945,0.000438813,0.462647,0.00472353,0.0220505,699,1422,-4.53248,-4.70134
-518,-398,-4.5531,4.94775,0.00440092,0.000647684,0.00161539,0.00500042,4.81813e-05,0.355365,0.00331767,0.0183284,706,1422,-4.55309,-4.94778
-511,-398,-4.56714,5.16541,0.00335029,-0.000369557,0.000733006,0.00348952,-0.000508787,0.187707,0.00251317,0.0129658,713,1422,-4.56716,-5.16536
-504,-398,-4.56366,5.43298,0.00243939,-0.00143865,-0.000247883,0.00245517,-0.00145443,-0.0635748,0.00228172,0.0130487,720,1422,-4.56363,-5.433
-497,-398,-4.55371,5.68262,0.00187516,-0.00283517,-0.00176552,0.00246344,-0.00342345,-0.321635,0.00341383,0.00975473,727,1422,-4.55373,-5.68265
-490,-398,-4.54865,5.92676,0.00174595,-0.00508339,-0.00373377,0.00339102,-0.00672846,-0.415004,0.00594746,0.0107328,734,1422,-4.54866,-5.92672
-483,-398,-4.4425,6.19971,0.00149211,-0.00743853,-0.00602761,0.0045282,-0.0104746,-0.466601,0.00888578,0.0225663,741,1422,-4.4425,-6.19965
-476,-398,-4.47852,6.18494,0.000734763,-0.0108254,-0.0094456,0.00602847,-0.0161191,-0.510825,0.0132219,0.0473134,748,1422,-4.4785,-6.18496
-469,-398,-4.5827,6.19446,0,0,0,0,0,0,0,-1,755,1422,-4.58272,-6.19446
-462,-398,-3.83954,6.08765,0,0,0,0,0,0,0,-1,762,1422,-3.83956,-6.08766
-455,-398,-4.42529,5.18872,0,0,0,0,0,0,0,-1,769,1422,-4.4253,-5.18876
-448,-398,-3.96271,3.68347,0,0,0,0,0,0,0,-1,776,1422,-3.96271,-3.68351
-441,-398,-2.95306,2.51233,0,0,0,0,0,0,0,-1,783,1422,-2.95305,-2.51227
-434,-398,-3.71259,0.368286,0,0,0,0,0,0,0,-1,790,1422,-3.7126,-0.368295
-427,-398,-8.41827,2.94934,0,0,0,0,0,0,0,-1,797,1422,-8.41827,-2.94929
-420,-398,-8.64551,5.44897,0,0,0,0,0,0,0,-1,804,1422,-8.6455,-5.44898
-413,-398,-8.87274,7.94873,0,0,0,0,0,0,0,-1,811,1422,-8.87273,-7.94867
-406,-398,0,0,0,0,0,0,0,0,0,-1,818,1422,0,0
-399,-398,0,0,0,0,0,0,0,0,0,-1,825,1422,0,0
-392,-398,0,0,0,0,0,0,0,0,0,-1,832,1422,0,0
-385,-398,0,0,0,0,0,0,0,0,0,-1,839,1422,0,0
-378,-398,0,0,0,0,0,0,0,0,0,-1,846,1422,0,0
-371,-398,0,0,0,0,0,0,0,0,0,-1,853,1422,0,0
-364,-398,0,0,0,0,0,0,0,0,0,-1,860,1422,0,0
-357,-398,0,0,0,0,0,0,0,0,0,-1,867,1422,0,0
-350,-398,0,0,0,0,0,0,0,0,0,-1,874,1422,0,0
-343,-398,0,0,0,0,0,0,0,0,0,-1,881,1422,0,0
-336,-398,0,0,0,0,0,0,0,0,0,-1,888,1422,0,0
-329,-398,0,0,0,0,0,0,0,0,0,-1,895,1422,0,0
-322,-398,0,0,0,0,0,0,0,0,0,-1,902,1422,0,0
-315,-398,0,0,0,0,0,0,0,0,0,-1,909,1422,0,0
-308,-398,0,0,0,0,0,0,0,0,0,-1,916,1422,0,0
-301,-398,0,0,0,0,0,0,0,0,0,-1,923,1422,0,0
-294,-398,0,0,0,0,0,0,0,0,0,-1,930,1422,0,0
-287,-398,0,0,0,0,0,0,0,0,0,-1,937,1422,0,0
-280,-398,0,0,0,0,0,0,0,0,0,-1,944,1422,0,0
-273,-398,0,0,0,0,0,0,0,0,0,-1,951,1422,0,0
-266,-398,0,0,0,0,0,0,0,0,0,-1,958,1422,0,0
-259,-398,0,0,0,0,0,0,0,0,0,-1,965,1422,0,0
-252,-398,0,0,0,0,0,0,0,0,0,-1,972,1422,0,0
-245,-398,0,0,0,0,0,0,0,0,0,-1,979,1422,0,0
-238,-398,0,0,0,0,0,0,0,0,0,-1,986,1422,0,0
-231,-398,0,0,0,0,0,0,0,0,0,-1,993,1422,0,0
-224,-398,0,0,0,0,0,0,0,0,0,-1,1000,1422,0,0
-217,-398,0,0,0,0,0,0,0,0,0,-1,1007,1422,0,0
-210,-398,0,0,0,0,0,0,0,0,0,-1,1014,1422,0,0
-203,-398,0,0,0,0,0,0,0,0,0,-1,1021,1422,0,0
-196,-398,0,0,0,0,0,0,0,0,0,-1,1028,1422,0,0
-189,-398,0,0,0,0,0,0,0,0,0,-1,1035,1422,0,0
-182,-398,0,0,0,0,0,0,0,0,0,-1,1042,1422,0,0
-175,-398,0,0,0,0,0,0,0,0,0,-1,1049,1422,0,0
-168,-398,0,0,0,0,0,0,0,0,0,-1,1056,1422,0,0
-161,-398,0,0,0,0,0,0,0,0,0,-1,1063,1422,0,0
-154,-398,0,0,0,0,0,0,0,0,0,-1,1070,1422,0,0
-147,-398,0,0,0,0,0,0,0,0,0,-1,1077,1422,0,0
-140,-398,0,0,0,0,0,0,0,0,0,-1,1084,1422,0,0
-133,-398,0,0,0,0,0,0,0,0,0,-1,1091,1422,0,0
-126,-398,0,0,0,0,0,0,0,0,0,-1,1098,1422,0,0
-119,-398,0,0,0,0,0,0,0,0,0,-1,1105,1422,0,0
-112,-398,0,0,0,0,0,0,0,0,0,-1,1112,1422,0,0
-105,-398,0,0,0,0,0,0,0,0,0,-1,1119,1422,0,0
-98,-398,0,0,0,0,0,0,0,0,0,-1,1126,1422,0,0
-91,-398,0,0,0,0,0,0,0,0,0,-1,1133,1422,0,0
-84,-398,0,0,0,0,0,0,0,0,0,-1,1140,1422,0,0
-77,-398,0,0,0,0,0,0,0,0,0,-1,1147,1422,0,0
-70,-398,0,0,0,0,0,0,0,0,0,-1,1154,1422,0,0
-63,-398,0,0,0,0,0,0,0,0,0,-1,1161,1422,0,0
-56,-398,0,0,0,0,0,0,0,0,0,-1,1168,1422,0,0
-49,-398,0,0,0,0,0,0,0,0,0,-1,1175,1422,0,0
-42,-398,0,0,0,0,0,0,0,0,0,-1,1182,1422,0,0
-35,-398,0,0,0,0,0,0,0,0,0,-1,1189,1422,0,0
-28,-398,0,0,0,0,0,0,0,0,0,-1,1196,1422,0,0
-21,-398,0,0,0,0,0,0,0,0,0,-1,1203,1422,0,0
-14,-398,0,0,0,0,0,0,0,0,0,-1,1210,1422,0,0
-7,-398,0,0,0,0,0,0,0,0,0,-1,1217,1422,0,0
0,-398,0,0,0,0,0,0,0,0,0,-1,1224,1422,0,0
7,-398,0,0,0,0,0,0,0,0,0,-1,1231,1422,0,0
14,-398,0,0,0,0,0,0,0,0,0,-1,1238,1422,0,0
21,-398,0,0,0,0,0,0,0,0,0,-1,1245,1422,0,0
28,-398,0,0,0,0,0,0,0,0,0,-1,1252,1422,0,0
35,-398,0,0,0,0,0,0,0,0,0,-1,1259,1422,0,0
42,-398,0,0,0,0,0,0,0,0,0,-1,1266,1422,0,0
49,-398,0,0,0,0,0,0,0,0,0,-1,1273,1422,0,0
56,-398,0,0,0,0,0,0,0,0,0,-1,1280,1422,0,0
63,-398,0,0,0,0,0,0,0,0,0,-1,1287,1422,0,0
70,-398,0,0,0,0,0,0,0,0,0,-1,1294,1422,0,0
77,-398,0,0,0,0,0,0,0,0,0,-1,1301,1422,0,0
84,-398,0,0,0,0,0,0,0,0,0,-1,1308,1422,0,0
91,-398,0,0,0,0,0,0,0,0,0,-1,1315,1422,0,0
98,-398,0,0,0,0,0,0,0,0,0,-1,1322,1422,0,0
105,-398,0,0,0,0,0,0,0,0,0,-1,1329,1422,0,0
112,-398,0,0,0,0,0,0,0,0,0,-1,1336,1422,0,0
119,-398,0,0,0,0,0,0,0,0,0,-1,1343,1422,0,0
126,-398,0,0,0,0,0,0,0,0,0,-1,1350,1422,0,0
133,-398,0,0,0,0,0,0,0,0,0,-1,1357,1422,0,0
140,-398,0,0,0,0,0,0,0,0,0,-1,1364,1422,0,0
147,-398,0,0,0,0,0,0,0,0,0,-1,1371,1422,0,0
154,-398,0,0,0,0,0,0,0,0,0,-1,1378,1422,0,0
161,-398,0,0,0,0,0,0,0,0,0,-1,1385,1422,0,0
168,-398,0,0,0,0,0,0,0,0,0,-1,1392,1422,0,0
175,-398,0,0,0,0,0,0,0,0,0,-1,1399,1422,0,0
182,-398,0,0,0,0,0,0,0,0,0,-1,1406,1422,0,0
189,-398,0,0,0,0,0,0,0,0,0,-1,1413,1422,0,0
196,-398,0,0,0,0,0,0,0,0,0,-1,1420,1422,0,0
203,-398,0,0,0,0,0,0,0,0,0,-1,1427,1422,0,0
210,-398,0,0,0,0,0,0,0,0,0,-1,1434,1422,0,0
217,-398,0,0,0,0,0,0,0,0,0,-1,1441,1422,0,0
224,-398,0,0,0,0,0,0,0,0,0,-1,1448,1422,0,0
231,-398,0,0,0,0,0,0,0,0,0,-1,1455,1422,0,0
238,-398,0,0,0,0,0,0,0,0,0,-1,1462,1422,0,0
245,-398,0,0,0,0,0,0,0,0,0,-1,1469,1422,0,0
252,-398,0,0,0,0,0,0,0,0,0,-1,1476,1422,0,0
259,-398,0,0,0,0,0,0,0,0,0,-1,1483,1422,0,0
266,-398,0,0,0,0,0,0,0,0,0,-1,1490,1422,0,0
273,-398,0,0,0,0,0,0,0,0,0,-1,1497,1422,0,0
280,-398,0,0,0,0,0,0,0,0,0,-1,1504,1422,0,0
287,-398,0,0,0,0,0,0,0,0,0,-1,1511,1422,0,0
294,-398,0,0,0,0,0,0,0,0,0,-1,1518,1422,0,0
301,-398,0,0,0,0,0,0,0,0,0,-1,1525,1422,0,0
308,-398,0,0,0,0,0,0,0,0,0,-1,1532,1422,0,0
315,-398,0,0,0,0,0,0,0,0,0,-1,1539,1422,0,0
322,-398,0,0,0,0,0,0,0,0,0,-1,1546,1422,0,0
329,-398,0,0,0,0,0,0,0,0,0,-1,1553,1422,0,0
336,-398,0,0,0,0,0,0,0,0,0,-1,1560,1422,0,0
343,-398,0,0,0,0,0,0,0,0,0,-1,1567,1422,0,0
350,-398,0,0,0,0,0,0,0,0,0,-1,1574,1422,0,0
357,-398,0,0,0,0,0,0,0,0,0,-1,1581,1422,0,0
364,-398,0,0,0,0,0,0,0,0,0,-1,1588,1422,0,0
371,-398,0,0,0,0,0,0,0,0,0,-1,1595,1422,0,0
378,-398,0,0,0,0,0,0,0,0,0,-1,1602,1422,0,0
385,-398,0,0,0,0,0,0,0,0,0,-1,1609,1422,0,0
392,-398,0,0,0,0,0,0,0,0,0,-1,1616,1422,0,0
399,-398,0,0,0,0,0,0,0,0,0,-1,1623,1422,0,0
406,-398,0,0,0,0,0,0,0,0,0,-1,1630,1422,0,0
413,-398,0,0,0,0,0,0,0,0,0,-1,1637,1422,0,0
420,-398,0,0,0,0,0,0,0,0,0,-1,1644,1422,0,0
427,-398,0,0,0,0,0,0,0,0,0,-1,1651,1422,0,0
434,-398,0,0,0,0,0,0,0,0,0,-1,1658,1422,0,0
441,-398,0,0,0,0,0,0,0,0,0,-1,1665,1422,0,0
448,-398,0,0,0,0,0,0,0,0,0,-1,1672,1422,0,0
455,-398,0,0,0,0,0,0,0,0,0,-1,1679,1422,0,0
462,-398,0,0,0,0,0,0,0,0,0,-1,1686,1422,0,0
469,-398,0,0,0,0,0,0,0,0,0,-1,1693,1422,0,0
476,-398,0,0,0,0,0,0,0,0,0,-1,1700,1422,0,0
483,-398,0,0,0,0,0,0,0,0,0,-1,1707,1422,0,0
490,-398,0,0,0,0,0,0,0,0,0,-1,1714,1422,0,0
497,-398,0,0,0,0,0,0,0,0,0,-1,1721,1422,0,0
504,-398,0,0,0,0,0,0,0,0,0,-1,1728,1422,0,0
511,-398,0,0,0,0,0,0,0,0,0,-1,1735,1422,0,0
518,-398,0,0,0,0,0,0,0,0,0,-1,1742,1422,0,0
525,-398,0,0,0,0,0,0,0,0,0,-1,1749,1422,0,0
532,-398,23.488,1.61963,0,0,0,0,0,0,0,-1,1756,1422,23.4881,-1.61959
539,-398,21.8323,1.8689,0,0,0,0,0,0,0,-1,1763,1422,21.8322,-1.86887
546,-398,20.865,2.10522,0,0,0,0,0,0,0,-1,1770,1422,20.865,-2.10518
553,-398,19.873,2.31494,0,0,0,0,0,0,0,-1,1777,1422,19.873,-2.31496
560,-398,18.7664,2.58093,0,0,0,0,0,0,0,-1,1784,1422,18.7664,-2.58089
567,-398,17.8256,3.19897,0,0,0,0,0,0,0,-1,1791,1422,17.8255,-3.199
574,-398,17.1724,3.84631,0,0,0,0,0,0,0,-1,1798,1422,17.1723,-3.84628
581,-398,16.6462,4.40747,0,0,0,0,0,0,0,-1,1805,1422,16.6463,-4.40747
588,-398,15.9379,5.04346,0,0,0,0,0,0,0,-1,1812,1422,15.9379,-5.04342
595,-398,16.5149,6.84485,0,0,0,0,0,0,0,-1,1819,1422,16.5149,-6.84481
602,-398,14.5444,7.76794,0,0,0,0,0,0,0,-1,1826,1422,14.5444,-7.76789
609,-398,13.6252,7.49475,-0.0159819,-0.00731773,0.0171722,0.0060604,-0.02936,0.908956,0.0218751,0.0455082,1833,1422,13.6252,-7.49469
616,-398,13.3917,7.76099,-0.0118177,-0.00662065,0.0129705,0.004009,-0.0224474,0.884261,0.0164648,0.0189328,1840,1422,13.3917,-7.76104
623,-398,13.354,7.61035,-0.0084035,-0.00556009,0.00957575,0.00269892,-0.0166625,0.859095,0.0121087,0.0110951,1847,1422,13.354,-7.6104
630,-398,13.3776,7.41309,-0.00573331,-0.00469207,0.0070524,0.0018589,-0.0122843,0.822242,0.00887429,0.0120968,1854,1422,13.3776,-7.41304
637,-398,13.3967,7.20459,-0.00389716,-0.00392403,0.00524095,0.00133038,-0.00915156,0.784116,0.00658942,0.0139664,1861,1422,13.3967,-7.20465
644,-398,13.3199,7.00098,-0.0027144,-0.00338001,0.00405996,0.00102637,-0.00712078,0.744504,0.00512369,0.0189182,1868,1422,13.3199,-7.00103
651,-398,13.3146,6.81689,-0.00200306,-0.0032072,0.00335482,0.000803292,-0.00601355,0.696612,0.00430187,0.0247507,1875,1422,13.3145,-6.81691
658,-398,13.3771,6.61084,-0.00164049,-0.00308172,0.00302057,0.000744228,-0.00546644,0.668302,0.00391601,0.0191767,1882,1422,13.377,-6.61081
665,-398,13.3568,6.36926,-0.00172095,-0.00339236,0.00340606,0.000950434,-0.00606374,0.665096,0.00439371,0.0131381,1889,1422,13.3568,-6.36922
672,-398,13.3424,6.1488,-0.00227123,-0.00408727,0.00425435,0.00117092,-0.00752942,0.680259,0.00545199,0.0121855,1896,1422,13.3424,-6.14878
679,-398,13.3365,5.93372,-0.00301861,-0.00540449,0.00561065,0.00152452,-0.00994762,0.680648,0.00719397,0.0111386,1903,1422,13.3366,-5.93369
686,-398,13.39,5.71912,-0.00389021,-0.00751813,0.00756134,0.00207171,-0.0134801,0.667673,0.00975091,0.0186702,1910,1422,13.39,-5.71907
693,-398,13.1887,5.70837,-0.00461954,-0.0104088,0.0102625,0.00314875,-0.0181771,0.64794,0.0132925,0.0487419,1917,1422,13.1887,-5.70839
700,-398,13.004,5.69495,0,0,0,0,0,0,0,-1,1924,1422,13.004,-5.69495
707,-398,10.9731,5.479,0,0,0,0,0,0,0,-1,1931,1422,10.9732,-5.47896
714,-398,11.7313,6.17346,0,0,0,0,0,0,0,-1,1938,1422,11.7313,-6.17348
721,-398,13.9371,8.05103,0,0,0,0,0,0,0,-1,1945,1422,13.9372,-8.05102
728,-398,14.786,7.0282,0,0,0,0,0,0,0,-1,1952,1422,14.786,-7.0282
735,-398,0,0,0,0,0,0,0,0,0,-1,1959,1422,0,0
742,-398,0,0,0,0,0,0,0,0,0,-1,1966,1422,0,0
749,-398,0,0,0,0,0,0,0,0,0,-1,1973,1422,0,0
756,-398,0,0,0,0,0,0,0,0,0,-1,1980,1422,0,0
763,-398,0,0,0,0,0,0,0,0,0,-1,1987,1422,0,0
770,-398,0,0,0,0,0,0,0,0,0,-1,1994,1422,0,0
777,-398,0,0,0,0,0,0,0,0,0,-1,2001,1422,0,0
784,-398,0,0,0,0,0,0,0,0,0,-1,2008,1422,0,0
791,-398,0,0,0,0,0,0,0,0,0,-1,2015,1422,0,0
798,-398,0,0,0,0,0,0,0,0,0,-1,2022,1422,0,0
805,-398,0,0,0,0,0,0,0,0,0,-1,2029,1422,0,0
812,-398,0,0,0,0,0,0,0,0,0,-1,2036,1422,0,0
-700,-405,0,0,0,0,0,0,0,0,0,-1,524,1429,0,0
-693,-405,0,0,0,0,0,0,0,0,0,-1,531,1429,0,0
-686,-405,0,0,0,0,0,0,0,0,0,-1,538,1429,0,0
-679,-405,0,0,0,0,0,0,0,0,0,-1,545,1429,0,0
-672,-405,0,0,0,0,0,0,0,0,0,-1,552,1429,0,0
-665,-405,0,0,0,0,0,0,0,0,0,-1,559,1429,0,0
-658,-405,0,0,0,0,0,0,0,0,0,-1,566,1429,0,0
-651,-405,0,0,0,0,0,0,0,0,0,-1,573,1429,0,0
-644,-405,0,0,0,0,0,0,0,0,0,-1,580,1429,0,0
-637,-405,0,0,0,0,0,0,0,0,0,-1,587,1429,0,0
-630,-405,0,0,0,0,0,0,0,0,0,-1,594,1429,0,0
-623,-405,0,0,0,0,0,0,0,0,0,-1,601,1429,0,0
-616,-405,0,0,0,0,0,0,0,0,0,-1,608,1429,0,0
-609,-405,0,0,0,0,0,0,0,0,0,-1,615,1429,0,0
-602,-405,-5.80988,-3.46594,0,0,0,0,0,0,0,-1,622,1429,-5.80987,3.46592
-595,-405,-7.80023,0.702637,0,0,0,0,0,0,0,-1,629,1429,-7.80026,-0.702685
-588,-405,-7.63116,2.34253,0,0,0,0,0,0,0,-1,636,1429,-7.63117,-2.34248
-581,-405,-6.5014,2.89929,0,0,0,0,0,0,0,-1,643,1429,-6.50139,-2.89927
-574,-405,-4.71875,1.9762,0,0,0,0,0,0,0,-1,650,1429,-4.71876,-1.97623
-567,-405,-4.57269,2.47791,0,0,0,0,0,0,0,-1,657,1429,-4.57268,-2.47792
-560,-405,-4.38934,2.87988,0,0,0,0,0,0,0,-1,664,1429,-4.38933,-2.87984
-553,-405,-4.17255,3.76379,0.0253353,0.00963816,0.0129454,0.0326255,0.00234792,0.512886,0.0210115,0.0472372,671,1429,-4.17255,-3.76378
-546,-405,-4.29456,3.95898,0.0196126,0.00739857,0.0100262,0.0252452,0.00176593,0.511853,0.0162735,0.0235126,678,1429,-4.29457,-3.95894
-539,-405,-4.30945,4.21667,0.0149555,0.00562283,0.00768376,0.0192789,0.00129947,0.512513,0.0124421,0.0114863,685,1429,-4.30945,-4.21664
-532,-405,-4.30945,4.46716,0.0112128,0.00418662,0.00576701,0.0144525,0.000946922,0.511831,0.00933538,0.0148444,692,1429,-4.30943,-4.46712
-525,-405,-4.30261,4.72888,0.00833359,0.00274803,0.00414821,0.0105415,0.00054008,0.489125,0.00685476,0.0149761,699,1429,-4.3026,-4.72885
-518,-405,-4.28784,4.96741,0.0059612,0.0014951,0.00263938,0.00718544,0.000270867,0.4343,0.0047026,0.015837,706,1429,-4.28787,-4.96736
-511,-405,-4.32275,5.18848,0.00416913,0.000357102,0.00140286,0.00462973,-0.000103505,0.317246,0.00312156,0.0152914,713,1429,-4.32273,-5.18853
-504,-405,-4.33997,5.43591,0.00255256,-0.000757472,0.000170649,0.00256134,-0.000766246,0.0513735,0.00201221,0.0170097,720,1429,-4.33996,-5.43593
-497,-405,-4.29486,5.69604,0.00147966,-0.00218422,-0.00158174,0.00206803,-0.00277259,-0.356117,0.00280458,0.0143828,727,1429,-4.29485,-5.69602
-490,-405,-4.29877,5.93896,0.000968761,-0.00443612,-0.0036975,0.00284614,-0.00631349,-0.469822,0.00541314,0.011784,734,1429,-4.29875,-5.93899
-483,-405,-4.2807,6.177,0.000633784,-0.00693056,-0.00602626,0.00396643,-0.0102632,-0.505159,0.00847937,0.0112933,741,1429,-4.28069,-6.17695
-476,-405,-4.22394,6.3501,5.67371e-05,-0.0102327,-0.0093482,0.00558239,-0.0157584,-0.533845,0.0127795,0.0292661,748,1429,-4.22394,-6.3501
-469,-405,-4.21832,6.51929,-0.00123299,-0.0145603,-0.0140145,0.00762138,-0.0234147,-0.563476,0.018676,0.0443075,755,1429,-4.21832,-6.51932
-462,-405,-4.18304,6.85229,0,0,0,0,0,0,0,-1,762,1429,-4.18302,-6.85234
-455,-405,-4.23132,5.87561,0,0,0,0,0,0,0,-1,769,1429,-4.2313,-5.87564
-448,-405,-5.44482,6.00623,0,0,0,0,0,0,0,-1,776,1429,-5.44483,-6.00618
-441,-405,-3.55841,2.85327,0,0,0,0,0,0,0,-1,783,1429,-3.55841,-2.85331
-434,-405,-1.48053,1.55676,0,0,0,0,0,0,0,-1,790,1429,-1.48053,-1.55682
-427,-405,-6.66235,4.89832,0,0,0,0,0,0,0,-1,797,1429,-6.66234,-4.89835
-420,-405,-6.56586,6.11548,0,0,0,0,0,0,0,-1,804,1429,-6.56587,-6.11546
-413,-405,-6.50433,8.49573,0,0,0,0,0,0,0,-1,811,1429,-6.50434,-8.49576
-406,-405,-7.57202,1.12476,0,0,0,0,0,0,0,-1,818,1429,-7.572,-1.12474
-399,-405,0,0,0,0,0,0,0,0,0,-1,825,1429,0,0
-392,-405,0,0,0,0,0,0,0,0,0,-1,832,1429,0,0
-385,-405,0,0,0,0,0,0,0,0,0,-1,839,1429,0,0
-378,-405,0,0,0,0,0,0,0,0,0,-1,846,1429,0,0
-371,-405,0,0,0,0,0,0,0,0,0,-1,853,1429,0,0
-364,-405,0,0,0,0,0,0,0,0,0,-1,860,1429,0,0
-357,-405,0,0,0,0,0,0,0,0,0,-1,867,1429,0,0
-350,-405,0,0,0,0,0,0,0,0,0,-1,874,1429,0,0
-343,-405,0,0,0,0,0,0,0,0,0,-1,881,1429,0,0
-336,-405,0,0,0,0,0,0,0,0,0,-1,888,1429,0,0
-329,-405,0,0,0,0,0,0,0,0,0,-1,895,1429,0,0
-322,-405,0,0,0,0,0,0,0,0,0,-1,902,1429,0,0
-315,-405,0,0,0,0,0,0,0,0,0,-1,909,1429,0,0
-308,-405,0,0,0,0,0,0,0,0,0,-1,916,1429,0,0
-301,-405,0,0,0,0,0,0,0,0,0,-1,923,1429,0,0
-294,-405,0,0,0,0,0,0,0,0,0,-1,930,1429,0,0
-287,-405,0,0,0,0,0,0,0,0,0,-1,937,1429,0,0
-280,-405,0,0,0,0,0,0,0,0,0,-1,944,1429,0,0
-273,-405,0,0,0,0,0,0,0,0,0,-1,951,1429,0,0
-266,-405,0,0,0,0,0,0,0,0,0,-1,958,1429,0,0
-259,-405,0,0,0,0,0,0,0,0,0,-1,965,1429,0,0
-252,-405,0,0,0,0,0,0,0,0,0,-1,972,1429,0,0
-245,-405,0,0,0,0,0,0,0,0,0,-1,979,1429,0,0
-238,-405,0,0,0,0,0,0,0,0,0,-1,986,1429,0,0
-231,-405,0,0,0,0,0,0,0,0,0,-1,993,1429,0,0
-224,-405,0,0,0,0,0,0,0,0,0,-1,1000,1429,0,0
-217,-405,0,0,0,0,0,0,0,0,0,-1,1007,1429,0,0
-210,-405,0,0,0,0,0,0,0,0,0,-1,1014,1429,0,0
-203,-405,0,0,0,0,0,0,0,0,0,-1,1021,1429,0,0
-196,-405,0,0,0,0,0,0,0,0,0,-1,1028,1429,0,0
-189,-405,0,0,0,0,0,0,0,0,0,-1,1035,1429,0,0
-182,-405,0,0,0,0,0,0,0,0,0,-1,1042,1429,0,0
-175,-405,0,0,0,0,0,0,0,0,0,-1,1049,1429,0,0
-168,-405,0,0,0,0,0,0,0,0,0,-1,1056,1429,0,0
-161,-405,0,0,0,0,0,0,0,0,0,-1,1063,1429,0,0
-154,-405,0,0,0,0,0,0,0,0,0,-1,1070,1429,0,0
-147,-405,0,0,0,0,0,0,0,0,0,-1,1077,1429,0,0
-140,-405,0,0,0,0,0,0,0,0,0,-1,1084,1429,0,0
-133,-405,0,0,0,0,0,0,0,0,0,-1,1091,1429,0,0
-126,-405,0,0,0,0,0,0,0,0,0,-1,1098,1429,0,0
-119,-405,0,0,0,0,0,0,0,0,0,-1,1105,1429,0,0
-112,-405,0,0,0,0,0,0,0,0,0,-1,1112,1429,0,0
-105,-405,0,0,0,0,0,0,0,0,0,-1,1119,1429,0,0
-98,-405,0,0,0,0,0,0,0,0,0,-1,1126,1429,0,0
-91,-405,0,0,0,0,0,0,0,0,0,-1,1133,1429,0,0
-84,-405,0,0,0,0,0,0,0,0,0,-1,1140,1429,0,0
-77,-405,0,0,0,0,0,0,0,0,0,-1,1147,1429,0,0
-70,-405,0,0,0,0,0,0,0,0,0,-1,1154,1429,0,0
-63,-405,0,0,0,0,0,0,0,0,0,-1,1161,1429,0,0
-56,-405,0,0,0,0,0,0,0,0,0,-1,1168,1429,0,0
-49,-405,0,0,0,0,0,0,0,0,0,-1,1175,1429,0,0
-42,-405,0,0,0,0,0,0,0,0,0,-1,1182,1429,0,0
-35,-405,0,0,0,0,0,0,0,0,0,-1,1189,1429,0,0
-28,-405,0,0,0,0,0,0,0,0,0,-1,1196,1429,0,0
-21,-405,0,0,0,0,0,0,0,0,0,-1,1203,1429,0,0
-14,-405,0,0,0,0,0,0,0,0,0,-1,1210,1429,0,0
-7,-405,0,0,0,0,0,0,0,0,0,-1,1217,1429,0,0
0,-405,0,0,0,0,0,0,0,0,0,-1,1224,1429,0,0
7,-405,0,0,0,0,0,0,0,0,0,-1,1231,1429,0,0
14,-405,0,0,0,0,0,0,0,0,0,-1,1238,1429,0,0
21,-405,0,0,0,0,0,0,0,0,0,-1,1245,1429,0,0
28,-405,0,0,0,0,0,0,0,0,0,-1,1252,1429,0,0
35,-405,0,0,0,0,0,0,0,0,0,-1,1259,1429,0,0
42,-405,0,0,0,0,0,0,0,0,0,-1,1266,1429,0,0
49,-405,0,0,0,0,0,0,0,0,0,-1,1273,1429,0,0
56,-405,0,0,0,0,0,0,0,0,0,-1,1280,1429,0,0
63,-405,0,0,0,0,0,0,0,0,0,-1,1287,1429,0,0
70,-405,0,0,0,0,0,0,0,0,0,-1,1294,1429,0,0
77,-405,0,0,0,0,0,0,0,0,0,-1,1301,1429,0,0
84,-405,0,0,0,0,0,0,0,0,0,-1,1308,1429,0,0
91,-405,0,0,0,0,0,0,0,0,0,-1,1315,1429,0,0
98,-405,0,0,0,0,0,0,0,0,0,-1,1322,1429,0,0
105,-405,0,0,0,0,0,0,0,0,0,-1,1329,1429,0,0
112,-405,0,0,0,0,0,0,0,0,0,-1,1336,1429,0,0
119,-405,0,0,0,0,0,0,0,0,0,-1,1343,1429,0,0
126,-405,0,0,0,0,0,0,0,0,0,-1,1350,1429,0,0
133,-405,0,0,0,0,0,0,0,0,0,-1,1357,1429,0,0
140,-405,0,0,0,0,0,0,0,0,0,-1,1364,1429,0,0
147,-405,0,0,0,0,0,0,0,0,0,-1,1371,1429,0,0
154,-405,0,0,0,0,0,0,0,0,0,-1,1378,1429,0,0
161,-405,0,0,0,0,0,0,0,0,0,-1,1385,1429,0,0
168,-405,0,0,0,0,0,0,0,0,0,-1,1392,1429,0,0
175,-405,0,0,0,0,0,0,0,0,0,-1,1399,1429,0,0
182,-405,0,0,0,0,0,0,0,0,0,-1,1406,1429,0,0
189,-405,0,0,0,0,0,0,0,0,0,-1,1413,1429,0,0
196,-405,0,0,0,0,0,0,0,0,0,-1,1420,1429,0,0
203,-405,0,0,0,0,0,0,0,0,0,-1,1427,1429,0,0
210,-405,0,0,0,0,0,0,0,0,0,-1,1434,1429,0,0
217,-405,0,0,0,0,0,0,0,0,0,-1,1441,1429,0,0
224,-405,0,0,0,0,0,0,0,0,0,-1,1448,1429,0,0
231,-405,0,0,0,0,0,0,0,0,0,-1,1455,1429,0,0
238,-405,0,0,0,0,0,0,0,0,0,-1,1462,1429,0,0
245,-405,0,0,0,0,0,0,0,0,0,-1,1469,1429,0,0
252,-405,0,0,0,0,0,0,0,0,0,-1,1476,1429,0,0
259,-405,0,0,0,0,0,0,0,0,0,-1,1483,1429,0,0
266,-405,0,0,0,0,0,0,0,0,0,-1,1490,1429,0,0
273,-405,0,0,0,0,0,0,0,0,0,-1,1497,1429,0,0
280,-405,0,0,0,0,0,0,0,0,0,-1,1504,1429,0,0
287,-405,0,0,0,0,0,0,0,0,0,-1,1511,1429,0,0
294,-405,0,0,0,0,0,0,0,0,0,-1,1518,1429,0,0
301,-405,0,0,0,0,0,0,0,0,0,-1,1525,1429,0,0
308,-405,0,0,0,0,0,0,0,0,0,-1,1532,1429,0,0
315,-405,0,0,0,0,0,0,0,0,0,-1,1539,1429,0,0
322,-405,0,0,0,0,0,0,0,0,0,-1,1546,1429,0,0
329,-405,0,0,0,0,0,0,0,0,0,-1,1553,1429,0,0
336,-405,0,0,0,0,0,0,0,0,0,-1,1560,1429,0,0
343,-405,0,0,0,0,0,0,0,0,0,-1,1567,1429,0,0
350,-405,0,0,0,0,0,0,0,0,0,-1,1574,1429,0,0
357,-405,0,0,0,0,0,0,0,0,0,-1,1581,1429,0,0
364,-405,0,0,0,0,0,0,0,0,0,-1,1588,1429,0,0
371,-405,0,0,0,0,0,0,0,0,0,-1,1595,1429,0,0
378,-405,0,0,0,0,0,0,0,0,0,-1,1602,1429,0,0
385,-405,0,0,0,0,0,0,0,0,0,-1,1609,1429,0,0
392,-405,0,0,0,0,0,0,0,0,0,-1,1616,1429,0,0
399,-405,0,0,0,0,0,0,0,0,0,-1,1623,1429,0,0
406,-405,0,0,0,0,0,0,0,0,0,-1,1630,1429,0,0
413,-405,0,0,0,0,0,0,0,0,0,-1,1637,1429,0,0
420,-405,0,0,0,0,0,0,0,0,0,-1,1644,1429,0,0
427,-405,0,0,0,0,0,0,0,0,0,-1,1651,1429,0,0
434,-405,0,0,0,0,0,0,0,0,0,-1,1658,1429,0,0
441,-405,0,0,0,0,0,0,0,0,0,-1,1665,1429,0,0
448,-405,0,0,0,0,0,0,0,0,0,-1,1672,1429,0,0
455,-405,0,0,0,0,0,0,0,0,0,-1,1679,1429,0,0
462,-405,0,0,0,0,0,0,0,0,0,-1,1686,1429,0,0
469,-405,0,0,0,0,0,0,0,0,0,-1,1693,1429,0,0
476,-405,0,0,0,0,0,0,0,0,0,-1,1700,1429,0,0
483,-405,0,0,0,0,0,0,0,0,0,-1,1707,1429,0,0
490,-405,0,0,0,0,0,0,0,0,0,-1,1714,1429,0,0
497,-405,0,0,0,0,0,0,0,0,0,-1,1721,1429,0,0
504,-405,0,0,0,0,0,0,0,0,0,-1,1728,1429,0,0
511,-405,0,0,0,0,0,0,0,0,0,-1,1735,1429,0,0
518,-405,0,0,0,0,0,0,0,0,0,-1,1742,1429,0,0
525,-405,14.6423,1.7583,0,0,0,0,0,0,0,-1,1749,1429,14.6424,-1.75824
532,-405,22.7542,1.85034,0,0,0,0,0,0,0,-1,1756,1429,22.7541,-1.85038
539,-405,21.1149,1.93384,0,0,0,0,0,0,0,-1,1763,1429,21.1149,-1.93381
546,-405,20.1537,2.11157,0,0,0,0,0,0,0,-1,1770,1429,20.1537,-2.11163
553,-405,19.1523,2.2356,0,0,0,0,0,0,0,-1,1777,1429,19.1523,-2.23566
560,-405,17.9702,2.44043,0,0,0,0,0,0,0,-1,1784,1429,17.9703,-2.44041
567,-405,16.8976,3.23425,0,0,0,0,0,0,0,-1,1791,1429,16.8976,-3.2343
574,-405,16.168,4.06287,0,0,0,0,0,0,0,-1,1798,1429,16.168,-4.06291
581,-405,15.5306,4.74963,0,0,0,0,0,0,0,-1,1805,1429,15.5306,-4.74958
588,-405,16.7477,7.47571,0,0,0,0,0,0,0,-1,1812,1429,16.7476,-7.47576
595,-405,15.51,7.63562,0,0,0,0,0,0,0,-1,1819,1429,15.51,-7.63556
602,-405,13.9915,7.97485,-0.0195341,-0.00939064,0.0184358,0.00465831,-0.033583,0.919629,0.024092,0.0383479,1826,1429,13.9915,-7.97491
609,-405,13.1993,8.0155,-0.0149252,-0.00802155,0.0142572,0.00319579,-0.0261425,0.904167,0.0185854,0.0185385,1833,1429,13.1994,-8.01555
616,-405,13.1508,7.86621,-0.0111022,-0.00673034,0.0107686,0.0020719,-0.0199045,0.885535,0.0140114,0.0100127,1840,1429,13.1508,-7.86622
623,-405,13.1295,7.6449,-0.0079476,-0.00535544,0.00797342,0.00142655,-0.0147296,0.865969,0.0103281,0.00969854,1847,1429,13.1295,-7.64491
630,-405,13.1416,7.42419,-0.00548442,-0.00440466,0.00593463,0.00101459,-0.0109037,0.830759,0.00762984,0.0104247,1854,1429,13.1416,-7.42416
637,-405,13.1587,7.21582,-0.00378028,-0.00365917,0.00450946,0.000790141,-0.00822959,0.792112,0.00576784,0.0113561,1861,1429,13.1586,-7.21586
644,-405,13.1078,7.05811,-0.00265831,-0.00320367,0.00364809,0.000727282,-0.00658926,0.748094,0.00465424,0.0277291,1868,1429,13.1078,-7.05814
651,-405,13.056,6.85583,-0.00199632,-0.00317387,0.00322742,0.000695593,-0.00586579,0.695176,0.00416181,0.0286079,1875,1429,13.0561,-6.85585
658,-405,13.1119,6.60437,-0.00176342,-0.00326075,0.00320112,0.000775421,-0.00579959,0.670525,0.00414909,0.0201002,1882,1429,13.1119,-6.60443
665,-405,13.1517,6.36218,-0.00205544,-0.00380356,0.00393105,0.00109756,-0.00695655,0.676004,0.00504352,0.0162688,1889,1429,13.1518,-6.36215
672,-405,13.161,6.16589,-0.0029295,-0.00490535,0.00520614,0.00138162,-0.00921646,0.691632,0.00665284,0.0217396,1896,1429,13.161,-6.1659
679,-405,13.1787,5.91003,-0.00408319,-0.00667034,0.00702601,0.00176733,-0.0125209,0.694362,0.00899442,0.0208375,1903,1429,13.1787,-5.90999
686,-405,13.0703,5.60645,-0.00555964,-0.0093833,0.00962258,0.0023392,-0.0172821,0.687334,0.0123751,0.0332201,1910,1429,13.0704,-5.6065
693,-405,12.9072,5.42065,0,0,0,0,0,0,0,-1,1917,1429,12.9072,-5.42068
700,-405,9.1958,4.02026,0,0,0,0,0,0,0,-1,1924,1429,9.19579,-4.02025
707,-405,7.40308,3.83191,0,0,0,0,0,0,0,-1,1931,1429,7.40311,-3.83194
714,-405,7.33252,3.47388,0,0,0,0,0,0,0,-1,1938,1429,7.33255,-3.47383
721,-405,9.23523,0.993896,0,0,0,0,0,0,0,-1,1945,1429,9.23523,-0.993884
728,-405,0,0,0,0,0,0,0,0,0,-1,1952,1429,0,0
735,-405,0,0,0,0,0,0,0,0,0,-1,1959,1429,0,0
742,-405,0,0,0,0,0,0,0,0,0,-1,1966,1429,0,0
749,-405,0,0,0,0,0,0,0,0,0,-1,1973,1429,0,0
756,-405,0,0,0,0,0,0,0,0,0,-1,1980,1429,0,0
763,-405,0,0,0,0,0,0,0,0,0,-1,1987,1429,0,0
770,-405,0,0,0,0,0,0,0,0,0,-1,1994,1429,0,0
777,-405,0,0,0,0,0,0,0,0,0,-1,2001,1429,0,0
784,-405,0,0,0,0,0,0,0,0,0,-1,2008,1429,0,0
791,-405,0,0,0,0,0,0,0,0,0,-1,2015,1429,0,0
798,-405,0,0,0,0,0,0,0,0,0,-1,2022,1429,0,0
805,-405,0,0,0,0,0,0,0,0,0,-1,2029,1429,0,0
812,-405,0,0,0,0,0,0,0,0,0,-1,2036,1429,0,0
-700,-412,0,0,0,0,0,0,0,0,0,-1,524,1436,0,0
-693,-412,0,0,0,0,0,0,0,0,0,-1,531,1436,0,0
-686,-412,0,0,0,0,0,0,0,0,0,-1,538,1436,0,0
-679,-412,0,0,0,0,0,0,0,0,0,-1,545,1436,0,0
-672,-412,0,0,0,0,0,0,0,0,0,-1,552,1436,0,0
-665,-412,0,0,0,0,0,0,0,0,0,-1,559,1436,0,0
-658,-412,0,0,0,0,0,0,0,0,0,-1,566,1436,0,0
-651,-412,0,0,0,0,0,0,0,0,0,-1,573,1436,0,0
-644,-412,0,0,0,0,0,0,0,0,0,-1,580,1436,0,0
-637,-412,0,0,0,0,0,0,0,0,0,-1,587,1436,0,0
-630,-412,0,0,0,0,0,0,0,0,0,-1,594,1436,0,0
-623,-412,0,0,0,0,0,0,0,0,0,-1,601,1436,0,0
-616,-412,0,0,0,0,0,0,0,0,0,-1,608,1436,0,0
-609,-412,0,0,0,0,0,0,0,0,0,-1,615,1436,0,0
-602,-412,-3.72766,-3.50012,0,0,0,0,0,0,0,-1,622,1436,-3.72764,3.50017
-595,-412,-3.48932,-2.58386,0,0,0,0,0,0,0,-1,629,1436,-3.48931,2.58391
-588,-412,-7.80664,1.078,0,0,0,0,0,0,0,-1,636,1436,-7.80666,-1.07806
-581,-412,-6.63086,2.52368,0,0,0,0,0,0,0,-1,643,1436,-6.63083,-2.52367
-574,-412,-5.32935,3.1416,0,0,0,0,0,0,0,-1,650,1436,-5.32932,-3.14165
-567,-412,-6.11725,3.15259,0,0,0,0,0,0,0,-1,657,1436,-6.11726,-3.15253
-560,-412,-4.94128,3.60828,0.0429153,0.0143464,0.0219471,0.0548171,0.00244458,0.496908,0.0357578,0.0480352,664,1436,-4.94128,-3.60833
-553,-412,-3.99164,3.92529,0.0335317,0.0113897,0.0173892,0.043075,0.00184637,0.501928,0.0281214,0.0439572,671,1436,-3.99163,-3.92526
-546,-412,-3.89496,4.06067,0.0259491,0.00907392,0.0137492,0.0336433,0.00137973,0.51019,0.0219834,0.0342893,678,1436,-3.89496,-4.06067
-539,-412,-4.05823,4.18372,0.0197997,0.00715937,0.0107654,0.025963,0.000996013,0.519965,0.0169864,0.0164315,685,1436,-4.05821,-4.18375
-532,-412,-4.0766,4.48035,0.0148499,0.00555997,0.00828271,0.0197012,0.000708666,0.529849,0.0129044,0.0130151,692,1436,-4.07659,-4.48036
-525,-412,-4.05908,4.75037,0.0109848,0.00397396,0.00614348,0.0145526,0.000406174,0.52614,0.00956922,0.0149086,699,1436,-4.05906,-4.75039
-518,-412,-4.03284,4.99341,0.00782962,0.0025579,0.00418769,0.010142,0.000245578,0.504509,0.00668095,0.0162221,706,1436,-4.03286,-4.99339
-511,-412,-4.06226,5.19604,0.00539443,0.00125462,0.00254808,0.00660739,4.16609e-05,0.444289,0.00439111,0.018052,713,1436,-4.06227,-5.19609
-504,-412,-4.09509,5.45178,0.00321117,5.7194e-05,0.00101717,0.00351075,-0.000242392,0.286429,0.00242534,0.0181098,720,1436,-4.09511,-5.45173
-497,-412,-4.06982,5.70447,0.00173061,-0.00143055,-0.000996337,0.00201843,-0.00171837,-0.281223,0.00215976,0.01505,727,1436,-4.06983,-5.70447
-490,-412,-4.06122,5.95239,0.000891039,-0.00370984,-0.00330363,0.00261627,-0.00543507,-0.481267,0.00474246,0.011891,734,1436,-4.0612,-5.95236
-483,-412,-4.06787,6.17004,0.000342195,-0.00621821,-0.00574529,0.00367774,-0.00955375,-0.52601,0.00788631,0.0083411,741,1436,-4.06788,-6.1701
-476,-412,-3.98706,6.44385,-0.000247487,-0.00942987,-0.00895624,0.00522578,-0.0149031,-0.54855,0.0120608,0.0167196,748,1436,-3.98706,-6.44387
-469,-412,-3.99304,6.60938,-0.00127538,-0.0135324,-0.0131445,0.00709905,-0.0219068,-0.567258,0.0174588,0.0292921,755,1436,-3.99305,-6.60935
-462,-412,-4.03259,6.76038,-0.00299214,-0.0197658,-0.0187654,0.00917535,-0.0319333,-0.575249,0.0249169,0.0399508,762,1436,-4.03258,-6.76037
-455,-412,-4.31726,6.69312,-0.0053395,-0.0276873,-0.0262722,0.0120363,-0.0450631,-0.584331,0.034756,0.0495401,769,1436,-4.31726,-6.69315
-448,-412,-4.81207,6.77673,0,0,0,0,0,0,0,-1,776,1436,-4.8121,-6.77675
-441,-412,-4.85999,5.04785,0,0,0,0,0,0,0,-1,783,1436,-4.85998,-5.0479
-434,-412,-6.49304,4.31287,0,0,0,0,0,0,0,-1,790,1436,-6.49306,-4.31283
-427,-412,-5.78693,5.48511,0,0,0,0,0,0,0,-1,797,1436,-5.78693,-5.48508
-420,-412,-5.07867,6.58777,0,0,0,0,0,0,0,-1,804,1436,-5.07867,-6.58781
-413,-412,-4.25989,7.47766,0,0,0,0,0,0,0,-1,811,1436,-4.25988,-7.47772
-406,-412,-3.6377,8.31702,0,0,0,0,0,0,0,-1,818,1436,-3.6377,-8.31701
-399,-412,-10.0757,0.442261,0,0,0,0,0,0,0,-1,825,1436,-10.0758,-0.442237
-392,-412,0,0,0,0,0,0,0,0,0,-1,832,1436,0,0
-385,-412,0,0,0,0,0,0,0,0,0,-1,839,1436,0,0
-378,-412,0,0,0,0,0,0,0,0,0,-1,846,1436,0,0
-371,-412,0,0,0,0,0,0,0,0,0,-1,853,1436,0,0
-364,-412,0,0,0,0,0,0,0,0,0,-1,860,1436,0,0
-357,-412,0,0,0,0,0,0,0,0,0,-1,867,1436,0,0
-350,-412,0,0,0,0,0,0,0,0,0,-1,874,1436,0,0
-343,-412,0,0,0,0,0,0,0,0,0,-1,881,1436,0,0
-336,-412,0,0,0,0,0,0,0,0,0,-1,888,1436,0,0
-329,-412,0,0,0,0,0,0,0,0,0,-1,895,1436,0,0
-322,-412,0,0,0,0,0,0,0,0,0,-1,902,1436,0,0
-315,-412,0,0,0,0,0,0,0,0,0,-1,909,1436,0,0
-308,-412,0,0,0,0,0,0,0,0,0,-1,916,1436,0,0
-301,-412,0,0,0,0,0,0,0,0,0,-1,923,1436,0,0
-294,-412,0,0,0,0,0,0,0,0,0,-1,930,1436,0,0
-287,-412,0,0,0,0,0,0,0,0,0,-1,937,1436,0,0
-280,-412,0,0,0,0,0,0,0,0,0,-1,944,1436,0,0
-273,-412,0,0,0,0,0,0,0,0,0,-1,951,1436,0,0
-266,-412,0,0,0,0,0,0,0,0,0,-1,958,1436,0,0
-259,-412,0,0,0,0,0,0,0,0,0,-1,965,1436,0,0
-252,-412,0,0,0,0,0,0,0,0,0,-1,972,1436,0,0
-245,-412,0,0,0,0,0,0,0,0,0,-1,979,1436,0,0
-238,-412,0,0,0,0,0,0,0,0,0,-1,986,1436,0,0
-231,-412,0,0,0,0,0,0,0,0,0,-1,993,1436,0,0
-224,-412,0,0,0,0,0,0,0,0,0,-1,1000,1436,0,0
-217,-412,0,0,0,0,0,0,0,0,0,-1,1007,1436,0,0
-210,-412,0,0,0,0,0,0,0,0,0,-1,1014,1436,0,0
-203,-412,0,0,0,0,0,0,0,0,0,-1,1021,1436,0,0
-196,-412,0,0,0,0,0,0,0,0,0,-1,1028,1436,0,0
-189,-412,0,0,0,0,0,0,0,0,0,-1,1035,1436,0,0
-182,-412,0,0,0,0,0,0,0,0,0,-1,1042,1436,0,0
-175,-412,0,0,0,0,0,0,0,0,0,-1,1049,1436,0,0
-168,-412,0,0,0,0,0,0,0,0,0,-1,1056,1436,0,0
-161,-412,0,0,0,0,0,0,0,0,0,-1,1063,1436,0,0
-154,-412,0,0,0,0,0,0,0,0,0,-1,1070,1436,0,0
-147,-412,0,0,0,0,0,0,0,0,0,-1,1077,1436,0,0
-140,-412,0,0,0,0,0,0,0,0,0,-1,1084,1436,0,0
-133,-412,0,0,0,0,0,0,0,0,0,-1,1091,1436,0,0
-126,-412,0,0,0,0,0,0,0,0,0,-1,1098,1436,0,0
-119,-412,0,0,0,0,0,0,0,0,0,-1,1105,1436,0,0
-112,-412,0,0,0,0,0,0,0,0,0,-1,1112,1436,0,0
-105,-412,0,0,0,0,0,0,0,0,0,-1,1119,1436,0,0
-98,-412,0,0,0,0,0,0,0,0,0,-1,1126,1436,0,0
-91,-412,0,0,0,0,0,0,0,0,0,-1,1133,1436,0,0
-84,-412,0,0,0,0,0,0,0,0,0,-1,1140,1436,0,0
-77,-412,0,0,0,0,0,0,0,0,0,-1,1147,1436,0,0
-70,-412,0,0,0,0,0,0,0,0,0,-1,1154,1436,0,0
-63,-412,0,0,0,0,0,0,0,0,0,-1,1161,1436,0,0
-56,-412,0,0,0,0,0,0,0,0,0,-1,1168,1436,0,0
-49,-412,0,0,0,0,0,0,0,0,0,-1,1175,1436,0,0
-42,-412,0,0,0,0,0,0,0,0,0,-1,1182,1436,0,0
-35,-412,0,0,0,0,0,0,0,0,0,-1,1189,1436,0,0
-28,-412,0,0,0,0,0,0,0,0,0,-1,1196,1436,0,0
-21,-412,0,0,0,0,0,0,0,0,0,-1,1203,1436,0,0
-14,-412,0,0,0,0,0,0,0,0,0,-1,1210,1436,0,0
-7,-412,0,0,0,0,0,0,0,0,0,-1,1217,1436,0,0
0,-412,0,0,0,0,0,0,0,0,0,-1,1224,1436,0,0
7,-412,0,0,0,0,0,0,0,0,0,-1,1231,1436,0,0
14,-412,0,0,0,0,0,0,0,0,0,-1,1238,1436,0,0
21,-412,0,0,0,0,0,0,0,0,0,-1,1245,1436,0,0
28,-412,0,0,0,0,0,0,0,0,0,-1,1252,1436,0,0
35,-412,0,0,0,0,0,0,0,0,0,-1,1259,1436,0,0
42,-412,0,0,0,0,0,0,0,0,0,-1,1266,1436,0,0
49,-412,0,0,0,0,0,0,0,0,0,-1,1273,1436,0,0
56,-412,0,0,0,0,0,0,0,0,0,-1,1280,1436,0,0
63,-412,0,0,0,0,0,0,0,0,0,-1,1287,1436,0,0
70,-412,0,0,0,0,0,0,0,0,0,-1,1294,1436,0,0
77,-412,0,0,0,0,0,0,0,0,0,-1,1301,1436,0,0
84,-412,0,0,0,0,0,0,0,0,0,-1,1308,1436,0,0
91,-412,0,0,0,0,0,0,0,0,0,-1,1315,1436,0,0
98,-412,0,0,0,0,0,0,0,0,0,-1,1322,1436,0,0
105,-412,0,0,0,0,0,0,0,0,0,-1,1329,1436,0,0
112,-412,0,0,0,0,0,0,0,0,0,-1,1336,1436,0,0
119,-412,0,0,0,0,0,0,0,0,0,-1,1343,1436,0,0
126,-412,0,0,0,0,0,0,0,0,0,-1,1350,1436,0,0
133,-412,0,0,0,0,0,0,0,0,0,-1,1357,1436,0,0
140,-412,0,0,0,0,0,0,0,0,0,-1,1364,1436,0,0
147,-412,0,0,0,0,0,0,0,0,0,-1,1371,1436,0,0
154,-412,0,0,0,0,0,0,0,0,0,-1,1378,1436,0,0
161,-412,0,0,0,0,0,0,0,0,0,-1,1385,1436,0,0
168,-412,0,0,0,0,0,0,0,0,0,-1,1392,1436,0,0
175,-412,0,0,0,0,0,0,0,0,0,-1,1399,1436,0,0
182,-412,0,0,0,0,0,0,0,0,0,-1,1406,1436,0,0
189,-412,0,0,0,0,0,0,0,0,0,-1,1413,1436,0,0
196,-412,0,0,0,0,0,0,0,0,0,-1,1420,1436,0,0
203,-412,0,0,0,0,0,0,0,0,0,-1,1427,1436,0,0
210,-412,0,0,0,0,0,0,0,0,0,-1,1434,1436,0,0
217,-412,0,0,0,0,0,0,0,0,0,-1,1441,1436,0,0
224,-412,0,0,0,0,0,0,0,0,0,-1,1448,1436,0,0
231,-412,0,0,0,0,0,0,0,0,0,-1,1455,1436,0,0
238,-412,0,0,0,0,0,0,0,0,0,-1,1462,1436,0,0
245,-412,0,0,0,0,0,0,0,0,0,-1,1469,1436,0,0
252,-412,0,0,0,0,0,0,0,0,0,-1,1476,1436,0,0
259,-412,0,0,0,0,0,0,0,0,0,-1,1483,1436,0,0
266,-412,0,0,0,0,0,0,0,0,0,-1,1490,1436,0,0
273,-412,0,0,0,0,0,0,0,0,0,-1,1497,1436,0,0
280,-412,0,0,0,0,0,0,0,0,0,-1,1504,1436,0,0
287,-412,0,0,0,0,0,0,0,0,0,-1,1511,1436,0,0
294,-412,0,0,0,0,0,0,0,0,0,-1,1518,1436,0,0
301,-412,0,0,0,0,0,0,0,0,0,-1,1525,1436,0,0
308,-412,0,0,0,0,0,0,0,0,0,-1,1532,1436,0,0
315,-412,0,0,0,0,0,0,0,0,0,-1,1539,1436,0,0
322,-412,0,0,0,0,0,0,0,0,0,-1,1546,1436,0,0
329,-412,0,0,0,0,0,0,0,0,0,-1,1553,1436,0,0
336,-412,0,0,0,0,0,0,0,0,0,-1,1560,1436,0,0
343,-412,0,0,0,0,0,0,0,0,0,-1,1567,1436,0,0
350,-412,0,0,0,0,0,0,0,0,0,-1,1574,1436,0,0
357,-412,0,0,0,0,0,0,0,0,0,-1,1581,1436,0,0
364,-412,0,0,0,0,0,0,0,0,0,-1,1588,1436,0,0
371,-412,0,0,0,0,0,0,0,0,0,-1,1595,1436,0,0
378,-412,0,0,0,0,0,0,0,0,0,-1,1602,1436,0,0
385,-412,0,0,0,0,0,0,0,0,0,-1,1609,1436,0,0
392,-412,0,0,0,0,0,0,0,0,0,-1,1616,1436,0,0
399,-412,0,0,0,0,0,0,0,0,0,-1,1623,1436,0,0
406,-412,0,0,0,0,0,0,0,0,0,-1,1630,1436,0,0
413,-412,0,0,0,0,0,0,0,0,0,-1,1637,1436,0,0
420,-412,0,0,0,0,0,0,0,0,0,-1,1644,1436,0,0
427,-412,0,0,0,0,0,0,0,0,0,-1,1651,1436,0,0
434,-412,0,0,0,0,0,0,0,0,0,-1,1658,1436,0,0
441,-412,0,0,0,0,0,0,0,0,0,-1,1665,1436,0,0
448,-412,0,0,0,0,0,0,0,0,0,-1,1672,1436,0,0
455,-412,0,0,0,0,0,0,0,0,0,-1,1679,1436,0,0
462,-412,0,0,0,0,0,0,0,0,0,-1,1686,1436,0,0
469,-412,0,0,0,0,0,0,0,0,0,-1,1693,1436,0,0
476,-412,0,0,0,0,0,0,0,0,0,-1,1700,1436,0,0
483,-412,0,0,0,0,0,0,0,0,0,-1,1707,1436,0,0
490,-412,0,0,0,0,0,0,0,0,0,-1,1714,1436,0,0
497,-412,0,0,0,0,0,0,0,0,0,-1,1721,1436,0,0
504,-412,0,0,0,0,0,0,0,0,0,-1,1728,1436,0,0
511,-412,0,0,0,0,0,0,0,0,0,-1,1735,1436,0,0
518,-412,13.5378,1.3866,0,0,0,0,0,0,0,-1,1742,1436,13.5379,-1.38663
525,-412,22.8384,2.03333,0,0,0,0,0,0,0,-1,1749,1436,22.8384,-2.03331
532,-412,21.8945,2.29199,0,0,0,0,0,0,0,-1,1756,1436,21.8946,-2.29203
539,-412,20.7961,2.47241,0,0,0,0,0,0,0,-1,1763,1436,20.7962,-2.47239
546,-412,19.4315,2.4071,0,0,0,0,0,0,0,-1,1770,1436,19.4315,-2.40706
553,-412,18.1896,2.19727,0,0,0,0,0,0,0,-1,1777,1436,18.1896,-2.19725
560,-412,16.8402,2.41418,0,0,0,0,0,0,0,-1,1784,1436,16.8402,-2.41425
567,-412,15.9099,3.43774,0,0,0,0,0,0,0,-1,1791,1436,15.9099,-3.43772
574,-412,15.1012,4.30872,0,0,0,0,0,0,0,-1,1798,1436,15.1012,-4.30869
581,-412,13.5082,7.22974,0,0,0,0,0,0,0,-1,1805,1436,13.5082,-7.22971
588,-412,14.4573,7.3374,0,0,0,0,0,0,0,-1,1812,1436,14.4572,-7.33744
595,-412,13.9548,8.64563,0,0,0,0,0,0,0,-1,1819,1436,13.9548,-8.64569
602,-412,13.2041,8.2876,-0.0176978,-0.0110019,0.0155376,0.00154436,-0.030244,0.891512,0.0206967,0.02262,1826,1436,13.2042,-8.28766
609,-412,12.9576,8.08386,-0.0134969,-0.00873963,0.0119783,0.00109396,-0.0233305,0.883412,0.0159308,0.00866671,1833,1436,12.9576,-8.08386
616,-412,12.9177,7.86584,-0.0100363,-0.00690553,0.00896584,0.000630569,-0.0175724,0.871823,0.0119306,0.00771506,1840,1436,12.9177,-7.86581
623,-412,12.9045,7.6449,-0.00715822,-0.00524267,0.00654323,0.000412509,-0.0128134,0.85807,0.00868304,0.00931291,1847,1436,12.9046,-7.64495
630,-412,12.9138,7.4176,-0.00492745,-0.00418458,0.00482287,0.00028114,-0.00939317,0.82383,0.0063579,0.0107389,1854,1436,12.9139,-7.41763
637,-412,12.9249,7.20764,-0.00338848,-0.00344183,0.00366327,0.000248208,-0.00707853,0.781757,0.00480389,0.013008,1861,1436,12.925,-7.20763
644,-412,12.9521,6.99976,-0.00237999,-0.00308471,0.00304742,0.000335373,-0.00580007,0.727841,0.00398322,0.0146158,1868,1436,12.9521,-6.99973
651,-412,12.9348,6.8103,-0.00183662,-0.00323216,0.00288905,0.000437728,-0.00550651,0.666906,0.00382527,0.0239013,1875,1436,12.9348,-6.81036
658,-412,12.9197,6.56006,-0.00182724,-0.00360779,0.00320475,0.000608598,-0.00604363,0.649915,0.00424652,0.0153037,1882,1436,12.9197,-6.56009
665,-412,12.931,6.3623,-0.00240423,-0.00455895,0.00432258,0.000973223,-0.00793641,0.663266,0.00564339,0.019807,1889,1436,12.931,-6.36226
672,-412,12.9612,6.17957,-0.00360411,-0.00622803,0.00607744,0.00130137,-0.0111335,0.679092,0.00789198,0.0263111,1896,1436,12.9611,-6.17953
679,-412,12.9836,5.89746,-0.00517031,-0.00854779,0.00845461,0.00176256,-0.0154807,0.686824,0.0109553,0.0350577,1903,1436,12.9837,-5.89744
686,-412,12.5045,5.94897,-0.00726514,-0.0120387,0.0118247,0.0024113,-0.0217151,0.685814,0.0153438,0.0498895,1910,1436,12.5045,-5.94897
693,-412,11.9346,6.02344,0,0,0,0,0,0,0,-1,1917,1436,11.9346,-6.02343
700,-412,8.82764,5.8844,0,0,0,0,0,0,0,-1,1924,1436,8.82761,-5.88444
707,-412,6.59998,1.68994,0,0,0,0,0,0,0,-1,1931,1436,6.60002,-1.68995
714,-412,4.77283,-2.39832,0,0,0,0,0,0,0,-1,1938,1436,4.77288,2.39835
721,-412,0,0,0,0,0,0,0,0,0,-1,1945,1436,0,0
728,-412,0,0,0,0,0,0,0,0,0,-1,1952,1436,0,0
735,-412,0,0,0,0,0,0,0,0,0,-1,1959,1436,0,0
742,-412,0,0,0,0,0,0,0,0,0,-1,1966,1436,0,0
749,-412,0,0,0,0,0,0,0,0,0,-1,1973,1436,0,0
756,-412,0,0,0,0,0,0,0,0,0,-1,1980,1436,0,0
763,-412,0,0,0,0,0,0,0,0,0,-1,1987,1436,0,0
770,-412,0,0,0,0,0,0,0,0,0,-1,1994,1436,0,0
777,-412,0,0,0,0,0,0,0,0,0,-1,2001,1436,0,0
784,-412,0,0,0,0,0,0,0,0,0,-1,2008,1436,0,0
791,-412,0,0,0,0,0,0,0,0,0,-1,2015,1436,0,0
798,-412,0,0,0,0,0,0,0,0,0,-1,2022,1436,0,0
805,-412,0,0,0,0,0,0,0,0,0,-1,2029,1436,0,0
812,-412,0,0,0,0,0,0,0,0,0,-1,2036,1436,0,0
-700,-419,0,0,0,0,0,0,0,0,0,-1,524,1443,0,0
-693,-419,0,0,0,0,0,0,0,0,0,-1,531,1443,0,0
-686,-419,0,0,0,0,0,0,0,0,0,-1,538,1443,0,0
-679,-419,0,0,0,0,0,0,0,0,0,-1,545,1443,0,0
-672,-419,0,0,0,0,0,0,0,0,0,-1,552,1443,0,0
-665,-419,0,0,0,0,0,0,0,0,0,-1,559,1443,0,0
-658,-419,0,0,0,0,0,0,0,0,0,-1,566,1443,0,0
-651,-419,0,0,0,0,0,0,0,0,0,-1,573,1443,0,0
-644,-419,0,0,0,0,0,0,0,0,0,-1,580,1443,0,0
-637,-419,0,0,0,0,0,0,0,0,0,-1,587,1443,0,0
-630,-419,0,0,0,0,0,0,0,0,0,-1,594,1443,0,0
-623,-419,0,0,0,0,0,0,0,0,0,-1,601,1443,0,0
-616,-419,0,0,0,0,0,0,0,0,0,-1,608,1443,0,0
-609,-419,0,0,0,0,0,0,0,0,0,-1,615,1443,0,0
-602,-419,0,0,0,0,0,0,0,0,0,-1,622,1443,0,0
-595,-419,-4.27423,-0.479492,0,0,0,0,0,0,0,-1,629,1443,-4.27421,0.479525
-588,-419,-3.75415,0.426147,0,0,0,0,0,0,0,-1,636,1443,-3.75414,-0.426145
-581,-419,-3.37775,1.73169,0,0,0,0,0,0,0,-1,643,1443,-3.37775,-1.73163
-574,-419,-2.68231,0.384277,0,0,0,0,0,0,0,-1,650,1443,-2.68231,-0.384297
-567,-419,-6.14038,3.22498,0,0,0,0,0,0,0,-1,657,1443,-6.14037,-3.22497
-560,-419,-4.57898,3.79724,0.0552042,0.0157718,0.0281867,0.069886,0.00109004,0.480207,0.0462316,0.0474177,664,1443,-4.57901,-3.7972
-553,-419,-4.15668,3.89148,0.0432647,0.0130083,0.0227714,0.0554751,0.000797827,0.4922,0.0367203,0.0412004,671,1443,-4.15668,-3.89151
-546,-419,-3.54987,4.20972,0.0334659,0.0106907,0.0182868,0.0436209,0.000535753,0.506918,0.0289037,0.0412562,678,1443,-3.54986,-4.20977
-539,-419,-3.68719,4.26233,0.0255789,0.00866081,0.0145496,0.0339498,0.0002899,0.522086,0.0225372,0.0315176,685,1443,-3.68719,-4.26238
-532,-419,-3.82697,4.46655,0.0192489,0.00689499,0.0114002,0.026038,0.000105905,0.537123,0.0173235,0.0145863,692,1443,-3.82695,-4.46655
-525,-419,-3.80981,4.75256,0.0142678,0.00519705,0.00866671,0.0195141,-4.92772e-05,0.544338,0.0130258,0.0130571,699,1443,-3.80983,-4.7526
-518,-419,-3.78882,4.97888,0.0102569,0.00361494,0.00621181,0.0139798,-0.000107891,0.539916,0.00935602,0.0172405,706,1443,-3.78882,-4.97893
-511,-419,-3.78259,5.20386,0.00713142,0.00215661,0.00412563,0.00946148,-0.000173455,0.514118,0.00636626,0.0183148,713,1443,-3.78262,-5.20385
-504,-419,-3.81232,5.46167,0.0043755,0.00088182,0.00225965,0.00548479,-0.000227471,0.456351,0.00373466,0.017999,720,1443,-3.81233,-5.46169
-497,-419,-3.81775,5.71582,0.00246169,-0.000650892,-1.81237e-05,0.0024618,-0.000650997,-0.00582245,0.00189583,0.013847,727,1443,-3.81776,-5.71584
-490,-419,-3.81287,5.94751,0.00124125,-0.0029397,-0.00253065,0.00243319,-0.00413165,-0.440183,0.00383227,0.0109672,734,1443,-3.81284,-5.94751
-483,-419,-3.81885,6.17725,0.000403264,-0.00540907,-0.00509446,0.00336219,-0.00836799,-0.526191,0.00697495,0.00911805,741,1443,-3.81884,-6.17731
-476,-419,-3.80658,6.41699,-0.000279664,-0.00851525,-0.00821153,0.00478869,-0.0135836,-0.552989,0.0110049,0.00965768,748,1443,-3.80656,-6.41703
-469,-419,-3.76532,6.68677,-0.00105826,-0.0123705,-0.0119825,0.00653596,-0.0199647,-0.564886,0.0159415,0.0145313,755,1443,-3.76533,-6.68678
-462,-419,-3.73096,6.91211,-0.00218636,-0.0182353,-0.0168616,0.0084628,-0.0288844,-0.563306,0.0226114,0.0277,762,1443,-3.73096,-6.91213
-455,-419,-3.98645,6.86279,-0.00366972,-0.025585,-0.0233118,0.0111313,-0.0403861,-0.565698,0.0313013,0.0404266,769,1443,-3.98646,-6.86279
-448,-419,-4.25134,6.61133,-0.00565693,-0.0352349,-0.031512,0.0143638,-0.0552557,-0.565999,0.0424432,0.0435687,776,1443,-4.25135,-6.61135
-441,-419,-4.0766,5.23181,0,0,0,0,0,0,0,-1,783,1443,-4.07663,-5.23177
-434,-419,-4.98517,4.9823,0,0,0,0,0,0,0,-1,790,1443,-4.98519,-4.98225
-427,-419,-5.02673,6.03088,0,0,0,0,0,0,0,-1,797,1443,-5.0267,-6.03092
-420,-419,-4.82684,7.12207,0,0,0,0,0,0,0,-1,804,1443,-4.82683,-7.12202
-413,-419,-4.31622,8.27368,0,0,0,0,0,0,0,-1,811,1443,-4.31622,-8.2737
-406,-419,-9.74231,2.40356,0,0,0,0,0,0,0,-1,818,1443,-9.74231,-2.40358
-399,-419,-10.9961,0.84082,0,0,0,0,0,0,0,-1,825,1443,-10.9961,-0.840838
-392,-419,0,0,0,0,0,0,0,0,0,-1,832,1443,0,0
-385,-419,0,0,0,0,0,0,0,0,0,-1,839,1443,0,0
-378,-419,0,0,0,0,0,0,0,0,0,-1,846,1443,0,0
-371,-419,0,0,0,0,0,0,0,0,0,-1,853,1443,0,0
-364,-419,0,0,0,0,0,0,0,0,0,-1,860,1443,0,0
-357,-419,0,0,0,0,0,0,0,0,0,-1,867,1443,0,0
-350,-419,0,0,0,0,0,0,0,0,0,-1,874,1443,0,0
-343,-419,0,0,0,0,0,0,0,0,0,-1,881,1443,0,0
-336,-419,0,0,0,0,0,0,0,0,0,-1,888,1443,0,0
-329,-419,0,0,0,0,0,0,0,0,0,-1,895,1443,0,0
-322,-419,0,0,0,0,0,0,0,0,0,-1,902,1443,0,0
-315,-419,0,0,0,0,0,0,0,0,0,-1,909,1443,0,0
-308,-419,0,0,0,0,0,0,0,0,0,-1,916,1443,0,0
-301,-419,0,0,0,0,0,0,0,0,0,-1,923,1443,0,0
-294,-419,0,0,0,0,0,0,0,0,0,-1,930,1443,0,0
-287,-419,0,0,0,0,0,0,0,0,0,-1,937,1443,0,0
-280,-419,0,0,0,0,0,0,0,0,0,-1,944,1443,0,0
-273,-419,0,0,0,0,0,0,0,0,0,-1,951,1443,0,0
-266,-419,0,0,0,0,0,0,0,0,0,-1,958,1443,0,0
-259,-419,0,0,0,0,0,0,0,0,0,-1,965,1443,0,0
-252,-419,0,0,0,0,0,0,0,0,0,-1,972,1443,0,0
-245,-419,0,0,0,0,0,0,0,0,0,-1,979,1443,0,0
-238,-419,0,0,0,0,0,0,0,0,0,-1,986,1443,0,0
-231,-419,0,0,0,0,0,0,0,0,0,-1,993,1443,0,0
-224,-419,0,0,0,0,0,0,0,0,0,-1,1000,1443,0,0
-217,-419,0,0,0,0,0,0,0,0,0,-1,1007,1443,0,0
-210,-419,0,0,0,0,0,0,0,0,0,-1,1014,1443,0,0
-203,-419,0,0,0,0,0,0,0,0,0,-1,1021,1443,0,0
-196,-419,0,0,0,0,0,0,0,0,0,-1,1028,1443,0,0
-189,-419,0,0,0,0,0,0,0,0,0,-1,1035,1443,0,0
-182,-419,0,0,0,0,0,0,0,0,0,-1,1042,1443,0,0
-175,-419,0,0,0,0,0,0,0,0,0,-1,1049,1443,0,0
-168,-419,0,0,0,0,0,0,0,0,0,-1,1056,1443,0,0
-161,-419,0,0,0,0,0,0,0,0,0,-1,1063,1443,0,0
-154,-419,0,0,0,0,0,0,0,0,0,-1,1070,1443,0,0
-147,-419,0,0,0,0,0,0,0,0,0,-1,1077,1443,0,0
-140,-419,0,0,0,0,0,0,0,0,0,-1,1084,1443,0,0
-133,-419,0,0,0,0,0,0,0,0,0,-1,1091,1443,0,0
-126,-419,0,0,0,0,0,0,0,0,0,-1,1098,1443,0,0
-119,-419,0,0,0,0,0,0,0,0,0,-1,1105,1443,0,0
-112,-419,0,0,0,0,0,0,0,0,0,-1,1112,1443,0,0
-105,-419,0,0,0,0,0,0,0,0,0,-1,1119,1443,0,0
-98,-419,0,0,0,0,0,0,0,0,0,-1,1126,1443,0,0
-91,-419,0,0,0,0,0,0,0,0,0,-1,1133,1443,0,0
-84,-419,0,0,0,0,0,0,0,0,0,-1,1140,1443,0,0
-77,-419,0,0,0,0,0,0,0,0,0,-1,1147,1443,0,0
-70,-419,0,0,0,0,0,0,0,0,0,-1,1154,1443,0,0
-63,-419,0,0,0,0,0,0,0,0,0,-1,1161,1443,0,0
-56,-419,0,0,0,0,0,0,0,0,0,-1,1168,1443,0,0
-49,-419,0,0,0,0,0,0,0,0,0,-1,1175,1443,0,0
-42,-419,0,0,0,0,0,0,0,0,0,-1,1182,1443,0,0
-35,-419,0,0,0,0,0,0,0,0,0,-1,1189,1443,0,0
-28,-419,0,0,0,0,0,0,0,0,0,-1,1196,1443,0,0
-21,-419,0,0,0,0,0,0,0,0,0,-1,1203,1443,0,0
-14,-419,0,0,0,0,0,0,0,0,0,-1,1210,1443,0,0
-7,-419,0,0,0,0,0,0,0,0,0,-1,1217,1443,0,0
0,-419,0,0,0,0,0,0,0,0,0,-1,1224,1443,0,0
7,-419,0,0,0,0,0,0,0,0,0,-1,1231,1443,0,0
14,-419,0,0,0,0,0,0,0,0,0,-1,1238,1443,0,0
21,-419,0,0,0,0,0,0,0,0,0,-1,1245,1443,0,0
28,-419,0,0,0,0,0,0,0,0,0,-1,1252,1443,0,0
35,-419,0,0,0,0,0,0,0,0,0,-1,1259,1443,0,0
42,-419,0,0,0,0,0,0,0,0,0,-1,1266,1443,0,0
49,-419,0,0,0,0,0,0,0,0,0,-1,1273,1443,0,0
56,-419,0,0,0,0,0,0,0,0,0,-1,1280,1443,0,0
63,-419,0,0,0,0,0,0,0,0,0,-1,1287,1443,0,0
70,-419,0,0,0,0,0,0,0,0,0,-1,1294,1443,0,0
77,-419,0,0,0,0,0,0,0,0,0,-1,1301,1443,0,0
84,-419,0,0,0,0,0,0,0,0,0,-1,1308,1443,0,0
91,-419,0,0,0,0,0,0,0,0,0,-1,1315,1443,0,0
98,-419,0,0,0,0,0,0,0,0,0,-1,1322,1443,0,0
105,-419,0,0,0,0,0,0,0,0,0,-1,1329,1443,0,0
112,-419,0,0,0,0,0,0,0,0,0,-1,1336,1443,0,0
119,-419,0,0,0,0,0,0,0,0,0,-1,1343,1443,0,0
126,-419,0,0,0,0,0,0,0,0,0,-1,1350,1443,0,0
133,-419,0,0,0,0,0,0,0,0,0,-1,1357,1443,0,0
140,-419,0,0,0,0,0,0,0,0,0,-1,1364,1443,0,0
147,-419,0,0,0,0,0,0,0,0,0,-1,1371,1443,0,0
154,-419,0,0,0,0,0,0,0,0,0,-1,1378,1443,0,0
161,-419,0,0,0,0,0,0,0,0,0,-1,1385,1443,0,0
168,-419,0,0,0,0,0,0,0,0,0,-1,1392,1443,0,0
175,-419,0,0,0,0,0,0,0,0,0,-1,1399,1443,0,0
182,-419,0,0,0,0,0,0,0,0,0,-1,1406,1443,0,0
189,-419,0,0,0,0,0,0,0,0,0,-1,1413,1443,0,0
196,-419,0,0,0,0,0,0,0,0,0,-1,1420,1443,0,0
203,-419,0,0,0,0,0,0,0,0,0,-1,1427,1443,0,0
210,-419,0,0,0,0,0,0,0,0,0,-1,1434,1443,0,0
217,-419,0,0,0,0,0,0,0,0,0,-1,1441,1443,0,0
224,-419,0,0,0,0,0,0,0,0,0,-1,1448,1443,0,0
231,-419,0,0,0,0,0,0,0,0,0,-1,1455,1443,0,0
238,-419,0,0,0,0,0,0,0,0,0,-1,1462,1443,0,0
245,-419,0,0,0,0,0,0,0,0,0,-1,1469,1443,0,0
252,-419,0,0,0,0,0,0,0,0,0,-1,1476,1443,0,0
259,-419,0,0,0,0,0,0,0,0,0,-1,1483,1443,0,0
266,-419,0,0,0,0,0,0,0,0,0,-1,1490,1443,0,0
273,-419,0,0,0,0,0,0,0,0,0,-1,1497,1443,0,0
280,-419,0,0,0,0,0,0,0,0,0,-1,1504,1443,0,0
287,-419,0,0,0,0,0,0,0,0,0,-1,1511,1443,0,0
294,-419,0,0,0,0,0,0,0,0,0,-1,1518,1443,0,0
301,-419,0,0,0,0,0,0,0,0,0,-1,1525,1443,0,0
308,-419,0,0,0,0,0,0,0,0,0,-1,1532,1443,0,0
315,-419,0,0,0,0,0,0,0,0,0,-1,1539,1443,0,0
322,-419,0,0,0,0,0,0,0,0,0,-1,1546,1443,0,0
329,-419,0,0,0,0,0,0,0,0,0,-1,1553,1443,0,0
336,-419,0,0,0,0,0,0,0,0,0,-1,1560,1443,0,0
343,-419,0,0,0,0,0,0,0,0,0,-1,1567,1443,0,0
350,-419,0,0,0,0,0,0,0,0,0,-1,1574,1443,0,0
357,-419,0,0,0,0,0,0,0,0,0,-1,1581,1443,0,0
364,-419,0,0,0,0,0,0,0,0,0,-1,1588,1443,0,0
371,-419,0,0,0,0,0,0,0,0,0,-1,1595,1443,0,0
378,-419,0,0,0,0,0,0,0,0,0,-1,1602,1443,0,0
385,-419,0,0,0,0,0,0,0,0,0,-1,1609,1443,0,0
392,-419,0,0,0,0,0,0,0,0,0,-1,1616,1443,0,0
399,-419,0,0,0,0,0,0,0,0,0,-1,1623,1443,0,0
406,-419,0,0,0,0,0,0,0,0,0,-1,1630,1443,0,0
413,-419,0,0,0,0,0,0,0,0,0,-1,1637,1443,0,0
420,-419,0,0,0,0,0,0,0,0,0,-1,1644,1443,0,0
427,-419,0,0,0,0,0,0,0,0,0,-1,1651,1443,0,0
434,-419,0,0,0,0,0,0,0,0,0,-1,1658,1443,0,0
441,-419,0,0,0,0,0,0,0,0,0,-1,1665,1443,0,0
448,-419,0,0,0,0,0,0,0,0,0,-1,1672,1443,0,0
455,-419,0,0,0,0,0,0,0,0,0,-1,1679,1443,0,0
462,-419,0,0,0,0,0,0,0,0,0,-1,1686,1443,0,0
469,-419,0,0,0,0,0,0,0,0,0,-1,1693,1443,0,0
476,-419,0,0,0,0,0,0,0,0,0,-1,1700,1443,0,0
483,-419,0,0,0,0,0,0,0,0,0,-1,1707,1443,0,0
490,-419,0,0,0,0,0,0,0,0,0,-1,1714,1443,0,0
497,-419,0,0,0,0,0,0,0,0,0,-1,1721,1443,0,0
504,-419,0,0,0,0,0,0,0,0,0,-1,1728,1443,0,0
511,-419,20.3005,3.7959,0,0,0,0,0,0,0,-1,1735,1443,20.3005,-3.79584
518,-419,21.3154,2.03027,0,0,0,0,0,0,0,-1,1742,1443,21.3155,-2.03029
525,-419,20.1991,2.2738,0,0,0,0,0,0,0,-1,1749,1443,20.1991,-2.2738
532,-419,21.035,2.73364,0,0,0,0,0,0,0,-1,1756,1443,21.035,-2.73368
539,-419,20.0294,2.92896,0,0,0,0,0,0,0,-1,1763,1443,20.0294,-2.929
546,-419,18.7786,2.69104,0,0,0,0,0,0,0,-1,1770,1443,18.7785,-2.69107
553,-419,17.1881,2.40491,0,0,0,0,0,0,0,-1,1777,1443,17.1881,-2.40488
560,-419,11.8199,8.26343,0,0,0,0,0,0,0,-1,1784,1443,11.82,-8.26341
567,-419,15.7008,5.70764,0,0,0,0,0,0,0,-1,1791,1443,15.7009,-5.70764
574,-419,13.748,7.5249,0,0,0,0,0,0,0,-1,1798,1443,13.7481,-7.5249
581,-419,13.1829,7.57349,0,0,0,0,0,0,0,-1,1805,1443,13.1829,-7.57347
588,-419,13.8851,8.90723,0,0,0,0,0,0,0,-1,1812,1443,13.8851,-8.90725
595,-419,13.3199,8.60498,-0.0210085,-0.0136642,0.0147417,-0.00214415,-0.0325285,0.907463,0.0210075,0.0372214,1819,1443,13.3199,-8.60496
602,-419,12.7548,8.29907,-0.0162053,-0.0104812,0.011551,-0.00144289,-0.0252436,0.906839,0.0163693,0.014998,1826,1443,12.7547,-8.29912
609,-419,12.7162,8.08911,-0.012369,-0.00796316,0.00890378,-0.00099382,-0.0193383,0.906669,0.012574,0.010163,1833,1443,12.7162,-8.08911
616,-419,12.707,7.87769,-0.00911357,-0.00610301,0.00658705,-0.000851432,-0.0143651,0.89773,0.00930595,0.0111966,1840,1443,12.707,-7.87772
623,-419,12.71,7.65198,-0.00636623,-0.00455213,0.00472656,-0.00064638,-0.010272,0.880198,0.00664302,0.00928488,1847,1443,12.71,-7.65202
630,-419,12.715,7.42957,-0.00422369,-0.00367763,0.00345241,-0.000487467,-0.00741385,0.824858,0.00478836,0.0115403,1854,1443,12.7149,-7.42955
637,-419,12.6984,7.22278,-0.00268877,-0.00316407,0.00263823,-0.000277509,-0.00557534,0.74048,0.00362793,0.0134643,1861,1443,12.6983,-7.22279
644,-419,12.7122,7.01941,-0.0016314,-0.00309489,0.00231157,6.14794e-05,-0.00478777,0.63211,0.00321254,0.0123708,1868,1443,12.7122,-7.01946
651,-419,12.725,6.81555,-0.00105695,-0.00356858,0.0024308,0.000423269,-0.00504879,0.546968,0.00351545,0.0114874,1875,1443,12.725,-6.81557
658,-419,12.7024,6.55737,-0.00112553,-0.00436368,0.00308081,0.000735736,-0.00622495,0.543465,0.00441569,0.0119381,1882,1443,12.7023,-6.55741
665,-419,12.7075,6.35889,-0.00187445,-0.00590766,0.00451845,0.00105698,-0.00883909,0.57551,0.0062748,0.0188717,1889,1443,12.7075,-6.35883
672,-419,12.7421,6.12659,-0.00330735,-0.00825789,0.00667206,0.00133379,-0.012899,0.607773,0.00907668,0.0258206,1896,1443,12.7421,-6.12656
679,-419,12.6611,5.9906,-0.00521131,-0.0112348,0.00953564,0.00177689,-0.018223,0.632435,0.0127822,0.0454854,1903,1443,12.6611,-5.99064
686,-419,11.9994,5.7876,0,0,0,0,0,0,0,-1,1910,1443,11.9994,-5.78758
693,-419,8.76086,5.60535,0,0,0,0,0,0,0,-1,1917,1443,8.76091,-5.6054
700,-419,11.0498,4.85156,0,0,0,0,0,0,0,-1,1924,1443,11.0498,-4.85153
707,-419,9.5752,1.80042,0,0,0,0,0,0,0,-1,1931,1443,9.57523,-1.80037
714,-419,5.77576,-1.25061,0,0,0,0,0,0,0,-1,1938,1443,5.7757,1.25056
721,-419,0,0,0,0,0,0,0,0,0,-1,1945,1443,0,0
728,-419,0,0,0,0,0,0,0,0,0,-1,1952,1443,0,0
735,-419,0,0,0,0,0,0,0,0,0,-1,1959,1443,0,0
742,-419,0,0,0,0,0,0,0,0,0,-1,1966,1443,0,0
749,-419,0,0,0,0,0,0,0,0,0,-1,1973,1443,0,0
756,-419,0,0,0,0,0,0,0,0,0,-1,1980,1443,0,0
763,-419,0,0,0,0,0,0,0,0,0,-1,1987,1443,0,0
770,-419,0,0,0,0,0,0,0,0,0,-1,1994,1443,0,0
777,-419,0,0,0,0,0,0,0,0,0,-1,2001,1443,0,0
784,-419,0,0,0,0,0,0,0,0,0,-1,2008,1443,0,0
791,-419,0,0,0,0,0,0,0,0,0,-1,2015,1443,0,0
798,-419,0,0,0,0,0,0,0,0,0,-1,2022,1443,0,0
805,-419,0,0,0,0,0,0,0,0,0,-1,2029,1443,0,0
812,-419,0,0,0,0,0,0,0,0,0,-1,2036,1443,0,0
-700,-426,0,0,0,0,0,0,0,0,0,-1,524,1450,0,0
-693,-426,0,0,0,0,0,0,0,0,0,-1,531,1450,0,0
-686,-426,0,0,0,0,0,0,0,0,0,-1,538,1450,0,0
-679,-426,0,0,0,0,0,0,0,0,0,-1,545,1450,0,0
-672,-426,0,0,0,0,0,0,0,0,0,-1,552,1450,0,0
-665,-426,0,0,0,0,0,0,0,0,0,-1,559,1450,0,0
-658,-426,0,0,0,0,0,0,0,0,0,-1,566,1450,0,0
-651,-426,0,0,0,0,0,0,0,0,0,-1,573,1450,0,0
-644,-426,0,0,0,0,0,0,0,0,0,-1,580,1450,0,0
-637,-426,0,0,0,0,0,0,0,0,0,-1,587,1450,0,0
-630,-426,0,0,0,0,0,0,0,0,0,-1,594,1450,0,0
-623,-426,0,0,0,0,0,0,0,0,0,-1,601,1450,0,0
-616,-426,0,0,0,0,0,0,0,0,0,-1,608,1450,0,0
-609,-426,0,0,0,0,0,0,0,0,0,-1,615,1450,0,0
-602,-426,0,0,0,0,0,0,0,0,0,-1,622,1450,0,0
-595,-426,0,0,0,0,0,0,0,0,0,-1,629,1450,0,0
-588,-426,-4.39026,0.156494,0,0,0,0,0,0,0,-1,636,1450,-4.39027,-0.156543
-581,-426,-4.30518,-1.34998,0,0,0,0,0,0,0,-1,643,1450,-4.30517,1.34996
-574,-426,-3.67657,0.188232,0,0,0,0,0,0,0,-1,650,1450,-3.67657,-0.188214
-567,-426,-3.04797,1.72644,0,0,0,0,0,0,0,-1,657,1450,-3.04797,-1.72639
-560,-426,-4.54633,3.86047,0,0,0,0,0,0,0,-1,664,1450,-4.54633,-3.86043
-553,-426,-3.64417,3.93848,0,0,0,0,0,0,0,-1,671,1450,-3.64414,-3.93847
-546,-426,-3.60516,4.30396,0.0406632,0.012626,0.0229235,0.0535148,-0.000225592,0.510967,0.035752,0.0476471,678,1450,-3.60516,-4.30401
-539,-426,-3.41138,4.31506,0.0311375,0.0104701,0.0185181,0.04201,-0.000402506,0.530904,0.0281418,0.0397034,685,1450,-3.41139,-4.31505
-532,-426,-3.50171,4.47375,0.0235428,0.00849905,0.0147448,0.0325735,-0.000531618,0.549535,0.021895,0.0262601,692,1450,-3.50171,-4.47381
-525,-426,-3.56189,4.70728,0.0175787,0.00664119,0.0114691,0.0248161,-0.000596237,0.56293,0.0167463,0.0142978,699,1450,-3.56188,-4.7073
-518,-426,-3.53802,4.96985,0.0128315,0.00485814,0.00853638,0.0182663,-0.000576603,0.566938,0.0123742,0.016313,706,1450,-3.53801,-4.9698
-511,-426,-3.54419,5.20801,0.00911592,0.00321262,0.00601319,0.0128628,-0.000534293,0.557243,0.00875875,0.0148674,713,1450,-3.54418,-5.20802
-504,-426,-3.56763,5.46472,0.0058966,0.00181128,0.0038119,0.00817864,-0.000470757,0.539435,0.00561593,0.0149411,720,1450,-3.56763,-5.46478
-497,-426,-3.5564,5.68896,0.0036164,0.000199723,0.00129361,0.00405092,-0.000234796,0.324056,0.00278218,0.0125396,727,1450,-3.55639,-5.68899
-490,-426,-3.56061,5.92456,0.00203987,-0.00212241,-0.00141022,0.00247266,-0.00255521,-0.297774,0.00290297,0.012552,734,1450,-3.56064,-5.92454
-483,-426,-3.57159,6.16956,0.000902463,-0.00454638,-0.00408695,0.00308983,-0.00673374,-0.491415,0.00580025,0.0119806,741,1450,-3.57157,-6.1696
-476,-426,-3.56744,6.42358,6.72024e-05,-0.0075518,-0.00709417,0.00431,-0.0117946,-0.538998,0.00962689,0.00906983,748,1450,-3.56747,-6.42352
-469,-426,-3.57275,6.66907,-0.000606164,-0.0112049,-0.0105224,0.00587599,-0.017687,-0.552126,0.0141623,0.00707426,755,1450,-3.57273,-6.66902
-462,-426,-3.48706,6.94373,-0.00136431,-0.0166493,-0.0147221,0.00758076,-0.0255944,-0.545986,0.0200728,0.0158178,762,1450,-3.48705,-6.9437
-455,-426,-3.53113,6.95728,-0.00220954,-0.0233784,-0.0201527,0.00996917,-0.0355571,-0.543591,0.0276339,0.0326139,769,1450,-3.53113,-6.95733
-448,-426,-3.87585,6.76355,-0.00333852,-0.0322053,-0.0269832,0.012829,-0.0483728,-0.539809,0.0372684,0.0422065,776,1450,-3.87582,-6.76358
-441,-426,-3.69019,5.94031,-0.00494229,-0.043698,-0.0353865,0.0160247,-0.064665,-0.534896,0.0493269,0.0440252,783,1450,-3.6902,-5.9403
-434,-426,-3.83954,5.92957,0,0,0,0,0,0,0,-1,790,1450,-3.83955,-5.92951
-427,-426,-4.45355,6.33154,0,0,0,0,0,0,0,-1,797,1450,-4.45357,-6.33153
-420,-426,-4.73352,6.88904,0,0,0,0,0,0,0,-1,804,1450,-4.73354,-6.88909
-413,-426,-4.92395,7.37598,0,0,0,0,0,0,0,-1,811,1450,-4.92396,-7.37599
-406,-426,-10.7646,2.96973,0,0,0,0,0,0,0,-1,818,1450,-10.7647,-2.96977
-399,-426,-11.3411,1.70398,0,0,0,0,0,0,0,-1,825,1450,-11.3411,-1.70401
-392,-426,-12.4147,0.537354,0,0,0,0,0,0,0,-1,832,1450,-12.4147,-0.53731
-385,-426,0,0,0,0,0,0,0,0,0,-1,839,1450,0,0
-378,-426,0,0,0,0,0,0,0,0,0,-1,846,1450,0,0
-371,-426,0,0,0,0,0,0,0,0,0,-1,853,1450,0,0
-364,-426,0,0,0,0,0,0,0,0,0,-1,860,1450,0,0
-357,-426,0,0,0,0,0,0,0,0,0,-1,867,1450,0,0
-350,-426,0,0,0,0,0,0,0,0,0,-1,874,1450,0,0
-343,-426,0,0,0,0,0,0,0,0,0,-1,881,1450,0,0
-336,-426,0,0,0,0,0,0,0,0,0,-1,888,1450,0,0
-329,-426,0,0,0,0,0,0,0,0,0,-1,895,1450,0,0
-322,-426,0,0,0,0,0,0,0,0,0,-1,902,1450,0,0
-315,-426,0,0,0,0,0,0,0,0,0,-1,909,1450,0,0
-308,-426,0,0,0,0,0,0,0,0,0,-1,916,1450,0,0
-301,-426,0,0,0,0,0,0,0,0,0,-1,923,1450,0,0
-294,-426,0,0,0,0,0,0,0,0,0,-1,930,1450,0,0
-287,-426,0,0,0,0,0,0,0,0,0,-1,937,1450,0,0
-280,-426,0,0,0,0,0,0,0,0,0,-1,944,1450,0,0
-273,-426,0,0,0,0,0,0,0,0,0,-1,951,1450,0,0
-266,-426,0,0,0,0,0,0,0,0,0,-1,958,1450,0,0
-259,-426,0,0,0,0,0,0,0,0,0,-1,965,1450,0,0
-252,-426,0,0,0,0,0,0,0,0,0,-1,972,1450,0,0
-245,-426,0,0,0,0,0,0,0,0,0,-1,979,1450,0,0
-238,-426,0,0,0,0,0,0,0,0,0,-1,986,1450,0,0
-231,-426,0,0,0,0,0,0,0,0,0,-1,993,1450,0,0
-224,-426,0,0,0,0,0,0,0,0,0,-1,1000,1450,0,0
-217,-426,0,0,0,0,0,0,0,0,0,-1,1007,1450,0,0
-210,-426,0,0,0,0,0,0,0,0,0,-1,1014,1450,0,0
-203,-426,0,0,0,0,0,0,0,0,0,-1,1021,1450,0,0
-196,-426,0,0,0,0,0,0,0,0,0,-1,1028,1450,0,0
-189,-426,0,0,0,0,0,0,0,0,0,-1,1035,1450,0,0
-182,-426,0,0,0,0,0,0,0,0,0,-1,1042,1450,0,0
-175,-426,0,0,0,0,0,0,0,0,0,-1,1049,1450,0,0
-168,-426,0,0,0,0,0,0,0,0,0,-1,1056,1450,0,0
-161,-426,0,0,0,0,0,0,0,0,0,-1,1063,1450,0,0
-154,-426,0,0,0,0,0,0,0,0,0,-1,1070,1450,0,0
-147,-426,0,0,0,0,0,0,0,0,0,-1,1077,1450,0,0
-140,-426,0,0,0,0,0,0,0,0,0,-1,1084,1450,0,0
-133,-426,0,0,0,0,0,0,0,0,0,-1,1091,1450,0,0
-126,-426,0,0,0,0,0,0,0,0,0,-1,1098,1450,0,0
-119,-426,0,0,0,0,0,0,0,0,0,-1,1105,1450,0,0
-112,-426,0,0,0,0,0,0,0,0,0,-1,1112,1450,0,0
-105,-426,0,0,0,0,0,0,0,0,0,-1,1119,1450,0,0
-98,-426,0,0,0,0,0,0,0,0,0,-1,1126,1450,0,0
-91,-426,0,0,0,0,0,0,0,0,0,-1,1133,1450,0,0
-84,-426,0,0,0,0,0,0,0,0,0,-1,1140,1450,0,0
-77,-426,0,0,0,0,0,0,0,0,0,-1,1147,1450,0,0
-70,-426,0,0,0,0,0,0,0,0,0,-1,1154,1450,0,0
-63,-426,0,0,0,0,0,0,0,0,0,-1,1161,1450,0,0
-56,-426,0,0,0,0,0,0,0,0,0,-1,1168,1450,0,0
-49,-426,0,0,0,0,0,0,0,0,0,-1,1175,1450,0,0
-42,-426,0,0,0,0,0,0,0,0,0,-1,1182,1450,0,0
-35,-426,0,0,0,0,0,0,0,0,0,-1,1189,1450,0,0
-28,-426,0,0,0,0,0,0,0,0,0,-1,1196,1450,0,0
-21,-426,0,0,0,0,0,0,0,0,0,-1,1203,1450,0,0
-14,-426,0,0,0,0,0,0,0,0,0,-1,1210,1450,0,0
-7,-426,0,0,0,0,0,0,0,0,0,-1,1217,1450,0,0
0,-426,0,0,0,0,0,0,0,0,0,-1,1224,1450,0,0
7,-426,0,0,0,0,0,0,0,0,0,-1,1231,1450,0,0
14,-426,0,0,0,0,0,0,0,0,0,-1,1238,1450,0,0
21,-426,0,0,0,0,0,0,0,0,0,-1,1245,1450,0,0
28,-426,0,0,0,0,0,0,0,0,0,-1,1252,1450,0,0
35,-426,0,0,0,0,0,0,0,0,0,-1,1259,1450,0,0
42,-426,0,0,0,0,0,0,0,0,0,-1,1266,1450,0,0
49,-426,0,0,0,0,0,0,0,0,0,-1,1273,1450,0,0
56,-426,0,0,0,0,0,0,0,0,0,-1,1280,1450,0,0
63,-426,0,0,0,0,0,0,0,0,0,-1,1287,1450,0,0
70,-426,0,0,0,0,0,0,0,0,0,-1,1294,1450,0,0
77,-426,0,0,0,0,0,0,0,0,0,-1,1301,1450,0,0
84,-426,0,0,0,0,0,0,0,0,0,-1,1308,1450,0,0
91,-426,0,0,0,0,0,0,0,0,0,-1,1315,1450,0,0
98,-426,0,0,0,0,0,0,0,0,0,-1,1322,1450,0,0
105,-426,0,0,0,0,0,0,0,0,0,-1,1329,1450,0,0
112,-426,0,0,0,0,0,0,0,0,0,-1,1336,1450,0,0
119,-426,0,0,0,0,0,0,0,0,0,-1,1343,1450,0,0
126,-426,0,0,0,0,0,0,0,0,0,-1,1350,1450,0,0
133,-426,0,0,0,0,0,0,0,0,0,-1,1357,1450,0,0
140,-426,0,0,0,0,0,0,0,0,0,-1,1364,1450,0,0
147,-426,0,0,0,0,0,0,0,0,0,-1,1371,1450,0,0
154,-426,0,0,0,0,0,0,0,0,0,-1,1378,1450,0,0
161,-426,0,0,0,0,0,0,0,0,0,-1,1385,1450,0,0
168,-426,0,0,0,0,0,0,0,0,0,-1,1392,1450,0,0
175,-426,0,0,0,0,0,0,0,0,0,-1,1399,1450,0,0
182,-426,0,0,0,0,0,0,0,0,0,-1,1406,1450,0,0
189,-426,0,0,0,0,0,0,0,0,0,-1,1413,1450,0,0
196,-426,0,0,0,0,0,0,0,0,0,-1,1420,1450,0,0
203,-426,0,0,0,0,0,0,0,0,0,-1,1427,1450,0,0
210,-426,0,0,0,0,0,0,0,0,0,-1,1434,1450,0,0
217,-426,0,0,0,0,0,0,0,0,0,-1,1441,1450,0,0
224,-426,0,0,0,0,0,0,0,0,0,-1,1448,1450,0,0
231,-426,0,0,0,0,0,0,0,0,0,-1,1455,1450,0,0
238,-426,0,0,0,0,0,0,0,0,0,-1,1462,1450,0,0
245,-426,0,0,0,0,0,0,0,0,0,-1,1469,1450,0,0
252,-426,0,0,0,0,0,0,0,0,0,-1,1476,1450,0,0
259,-426,0,0,0,0,0,0,0,0,0,-1,1483,1450,0,0
266,-426,0,0,0,0,0,0,0,0,0,-1,1490,1450,0,0
273,-426,0,0,0,0,0,0,0,0,0,-1,1497,1450,0,0
280,-426,0,0,0,0,0,0,0,0,0,-1,1504,1450,0,0
287,-426,0,0,0,0,0,0,0,0,0,-1,1511,1450,0,0
294,-426,0,0,0,0,0,0,0,0,0,-1,1518,1450,0,0
301,-426,0,0,0,0,0,0,0,0,0,-1,1525,1450,0,0
308,-426,0,0,0,0,0,0,0,0,0,-1,1532,1450,0,0
315,-426,0,0,0,0,0,0,0,0,0,-1,1539,1450,0,0
322,-426,0,0,0,0,0,0,0,0,0,-1,1546,1450,0,0
329,-426,0,0,0,0,0,0,0,0,0,-1,1553,1450,0,0
336,-426,0,0,0,0,0,0,0,0,0,-1,1560,1450,0,0
343,-426,0,0,0,0,0,0,0,0,0,-1,1567,1450,0,0
350,-426,0,0,0,0,0,0,0,0,0,-1,1574,1450,0,0
357,-426,0,0,0,0,0,0,0,0,0,-1,1581,1450,0,0
364,-426,0,0,0,0,0,0,0,0,0,-1,1588,1450,0,0
371,-426,0,0,0,0,0,0,0,0,0,-1,1595,1450,0,0
378,-426,0,0,0,0,0,0,0,0,0,-1,1602,1450,0,0
385,-426,0,0,0,0,0,0,0,0,0,-1,1609,1450,0,0
392,-426,0,0,0,0,0,0,0,0,0,-1,1616,1450,0,0
399,-426,0,0,0,0,0,0,0,0,0,-1,1623,1450,0,0
406,-426,0,0,0,0,0,0,0,0,0,-1,1630,1450,0,0
413,-426,0,0,0,0,0,0,0,0,0,-1,1637,1450,0,0
420,-426,0,0,0,0,0,0,0,0,0,-1,1644,1450,0,0
427,-426,0,0,0,0,0,0,0,0,0,-1,1651,1450,0,0
434,-426,0,0,0,0,0,0,0,0,0,-1,1658,1450,0,0
441,-426,0,0,0,0,0,0,0,0,0,-1,1665,1450,0,0
448,-426,0,0,0,0,0,0,0,0,0,-1,1672,1450,0,0
455,-426,0,0,0,0,0,0,0,0,0,-1,1679,1450,0,0
462,-426,0,0,0,0,0,0,0,0,0,-1,1686,1450,0,0
469,-426,0,0,0,0,0,0,0,0,0,-1,1693,1450,0,0
476,-426,0,0,0,0,0,0,0,0,0,-1,1700,1450,0,0
483,-426,0,0,0,0,0,0,0,0,0,-1,1707,1450,0,0
490,-426,0,0,0,0,0,0,0,0,0,-1,1714,1450,0,0
497,-426,0,0,0,0,0,0,0,0,0,-1,1721,1450,0,0
504,-426,20.6873,3.38367,0,0,0,0,0,0,0,-1,1728,1450,20.6873,-3.38361
511,-426,19.6676,3.53748,0,0,0,0,0,0,0,-1,1735,1450,19.6676,-3.53749
518,-426,18.6853,3.32288,0,0,0,0,0,0,0,-1,1742,1450,18.6853,-3.3229
525,-426,18.9552,2.71033,0,0,0,0,0,0,0,-1,1749,1450,18.9552,-2.71034
532,-426,17.764,2.81616,0,0,0,0,0,0,0,-1,1756,1450,17.764,-2.81611
539,-426,16.9565,3.07593,0,0,0,0,0,0,0,-1,1763,1450,16.9566,-3.07593
546,-426,16.1915,3.49744,0,0,0,0,0,0,0,-1,1770,1450,16.1916,-3.4975
553,-426,11.6804,8.90308,0,0,0,0,0,0,0,-1,1777,1450,11.6805,-8.90309
560,-426,11.7726,8.02771,0,0,0,0,0,0,0,-1,1784,1450,11.7725,-8.02773
567,-426,11.1727,8.76721,0,0,0,0,0,0,0,-1,1791,1450,11.1727,-8.76724
574,-426,12.8683,8.1709,0,0,0,0,0,0,0,-1,1798,1450,12.8683,-8.17084
581,-426,12.6906,8.03979,0,0,0,0,0,0,0,-1,1805,1450,12.6905,-8.03985
588,-426,12.5975,8.78662,0,0,0,0,0,0,0,-1,1812,1450,12.5976,-8.78658
595,-426,12.5413,8.51526,-0.0163962,-0.0105527,0.011629,-0.00148396,-0.0254649,0.908475,0.0165042,0.0283246,1819,1450,12.5412,-8.51528
602,-426,12.4923,8.27234,-0.0126533,-0.00799543,0.00911107,-0.000920358,-0.0197284,0.910527,0.0128565,0.0155302,1826,1450,12.4923,-8.27237
609,-426,12.4938,8.07092,-0.00964721,-0.00599307,0.00697734,-0.000607552,-0.0150327,0.913452,0.00982556,0.0115084,1833,1450,12.4938,-8.07093
616,-426,12.5049,7.86658,-0.00701832,-0.00456159,0.00511707,-0.000527513,-0.0110524,0.903195,0.00719887,0.0136164,1840,1450,12.5049,-7.86657
623,-426,12.5121,7.65027,-0.00474971,-0.00345698,0.00364032,-0.000406081,-0.00780061,0.873261,0.00507047,0.0108559,1847,1450,12.5121,-7.65023
630,-426,12.505,7.45032,-0.00297714,-0.00298164,0.0026501,-0.000329288,-0.00562949,0.784974,0.00364819,0.011998,1854,1450,12.5051,-7.45026
637,-426,12.4995,7.24146,-0.00167619,-0.00283577,0.00204644,-0.000128995,-0.00438297,0.647358,0.00287995,0.0138425,1861,1450,12.4995,-7.24143
644,-426,12.4802,7.03882,-0.000759325,-0.00312937,0.00189229,0.000288376,-0.00417707,0.505655,0.00288565,0.0126812,1868,1450,12.4802,-7.03881
651,-426,12.4708,6.81299,-0.000301938,-0.00394346,0.00218924,0.000724749,-0.00497014,0.438516,0.00357955,0.0117817,1875,1450,12.4709,-6.81295
658,-426,12.4792,6.53943,-0.00058102,-0.00517256,0.00308626,0.000969711,-0.0067233,0.465616,0.00483794,0.0110014,1882,1450,12.4793,-6.53946
665,-426,12.536,6.28064,-0.00167167,-0.00724313,0.00477007,0.00106654,-0.00998133,0.521112,0.00703673,0.0179038,1889,1450,12.536,-6.2806
672,-426,12.5366,6.05835,-0.00349562,-0.0102247,0.00729914,0.00117711,-0.0148974,0.569438,0.0103463,0.0312413,1896,1450,12.5366,-6.05839
679,-426,12.2101,6.31641,-0.00613526,-0.0139608,0.0106895,0.00133505,-0.0214312,0.609951,0.0147526,0.0428778,1903,1450,12.2101,-6.31636
686,-426,11.9723,6.40369,0,0,0,0,0,0,0,-1,1910,1450,11.9723,-6.40364
693,-426,11.8607,6.45215,0,0,0,0,0,0,0,-1,1917,1450,11.8607,-6.45215
700,-426,9.24304,2.95447,0,0,0,0,0,0,0,-1,1924,1450,9.24305,-2.95442
707,-426,8.44519,-1.21448,0,0,0,0,0,0,0,-1,1931,1450,8.44514,1.21454
714,-426,0,0,0,0,0,0,0,0,0,-1,1938,1450,0,0
721,-426,0,0,0,0,0,0,0,0,0,-1,1945,1450,0,0
728,-426,0,0,0,0,0,0,0,0,0,-1,1952,1450,0,0
735,-426,0,0,0,0,0,0,0,0,0,-1,1959,1450,0,0
742,-426,0,0,0,0,0,0,0,0,0,-1,1966,1450,0,0
749,-426,0,0,0,0,0,0,0,0,0,-1,1973,1450,0,0
756,-426,0,0,0,0,0,0,0,0,0,-1,1980,1450,0,0
763,-426,0,0,0,0,0,0,0,0,0,-1,1987,1450,0,0
770,-426,0,0,0,0,0,0,0,0,0,-1,1994,1450,0,0
777,-426,0,0,0,0,0,0,0,0,0,-1,2001,1450,0,0
784,-426,0,0,0,0,0,0,0,0,0,-1,2008,1450,0,0
791,-426,0,0,0,0,0,0,0,0,0,-1,2015,1450,0,0
798,-426,0,0,0,0,0,0,0,0,0,-1,2022,1450,0,0
805,-426,0,0,0,0,0,0,0,0,0,-1,2029,1450,0,0
812,-426,0,0,0,0,0,0,0,0,0,-1,2036,1450,0,0
-700,-433,0,0,0,0,0,0,0,0,0,-1,524,1457,0,0
-693,-433,0,0,0,0,0,0,0,0,0,-1,531,1457,0,0
-686,-433,0,0,0,0,0,0,0,0,0,-1,538,1457,0,0
-679,-433,0,0,0,0,0,0,0,0,0,-1,545,1457,0,0
-672,-433,0,0,0,0,0,0,0,0,0,-1,552,1457,0,0
-665,-433,0,0,0,0,0,0,0,0,0,-1,559,1457,0,0
-658,-433,0,0,0,0,0,0,0,0,0,-1,566,1457,0,0
-651,-433,0,0,0,0,0,0,0,0,0,-1,573,1457,0,0
-644,-433,0,0,0,0,0,0,0,0,0,-1,580,1457,0,0
-637,-433,0,0,0,0,0,0,0,0,0,-1,587,1457,0,0
-630,-433,0,0,0,0,0,0,0,0,0,-1,594,1457,0,0
-623,-433,0,0,0,0,0,0,0,0,0,-1,601,1457,0,0
-616,-433,0,0,0,0,0,0,0,0,0,-1,608,1457,0,0
-609,-433,0,0,0,0,0,0,0,0,0,-1,615,1457,0,0
-602,-433,0,0,0,0,0,0,0,0,0,-1,622,1457,0,0
-595,-433,0,0,0,0,0,0,0,0,0,-1,629,1457,0,0
-588,-433,-4.99121,-0.205688,0,0,0,0,0,0,0,-1,636,1457,-4.99119,0.205667
-581,-433,-4.98511,-1.28406,0,0,0,0,0,0,0,-1,643,1457,-4.9851,1.28405
-574,-433,-4.46533,0.146606,0,0,0,0,0,0,0,-1,650,1457,-4.46531,-0.146606
-567,-433,-5.42255,1.16833,0,0,0,0,0,0,0,-1,657,1457,-5.42254,-1.1683
-560,-433,-4.78809,2.01306,0,0,0,0,0,0,0,-1,664,1457,-4.78806,-2.01303
-553,-433,-4.32501,2.20544,0,0,0,0,0,0,0,-1,671,1457,-4.32499,-2.20549
-546,-433,-3.59772,4.70837,0,0,0,0,0,0,0,-1,678,1457,-3.59772,-4.70832
-539,-433,-3.41339,3.9751,0.0381336,0.0126598,0.0234922,0.0521196,-0.0013262,0.53699,0.0351968,0.0444451,685,1457,-3.41338,-3.97505
-532,-433,-3.21106,4.44788,0.0288407,0.0103865,0.0188151,0.0405694,-0.00134222,0.557424,0.0275046,0.0306177,692,1457,-3.21107,-4.44793
-525,-433,-3.28595,4.7345,0.0215425,0.00824655,0.014751,0.0310744,-0.00128535,0.573689,0.0211578,0.0183807,699,1457,-3.28596,-4.73451
-518,-433,-3.30139,4.97656,0.0158209,0.0062255,0.0111855,0.0231942,-0.00114785,0.582806,0.0158593,0.0161115,706,1457,-3.30139,-4.97654
-511,-433,-3.33594,5.22852,0.0113588,0.00436024,0.00812351,0.0167047,-0.000985598,0.582027,0.0114791,0.015867,713,1457,-3.33592,-5.22848
-504,-433,-3.32281,5.46057,0.00760181,0.00279748,0.00551929,0.011219,-0.00081974,0.580146,0.00776703,0.0127709,720,1457,-3.32284,-5.46053
-497,-433,-3.30511,5.67944,0.00490933,0.00109305,0.0027527,0.00635057,-0.000348185,0.482328,0.00435442,0.0132333,727,1457,-3.30514,-5.6794
-490,-433,-3.32452,5.922,0.00295459,-0.00125187,-0.000128048,0.00295848,-0.00125576,-0.0304034,0.00249842,0.0156084,734,1457,-3.32451,-5.92203
-483,-433,-3.33026,6.16602,0.00151642,-0.00360228,-0.00288847,0.00281628,-0.00490214,-0.422869,0.00451015,0.0163395,741,1457,-3.33027,-6.166
-476,-433,-3.32477,6.42627,0.000556376,-0.00649094,-0.00572126,0.00375202,-0.00968659,-0.509388,0.00800699,0.0104199,748,1457,-3.3248,-6.4263
-469,-433,-3.32251,6.67383,-2.4039e-05,-0.0099764,-0.0088453,0.00514875,-0.0151492,-0.529173,0.0121839,0.00953518,755,1457,-3.32251,-6.67387
-462,-433,-3.32886,6.9104,-0.000528043,-0.0149329,-0.0125298,0.00672192,-0.0221829,-0.524547,0.0174659,0.00916046,762,1457,-3.32888,-6.91037
-455,-433,-3.18219,7.15625,-0.000992157,-0.020976,-0.0170493,0.00877738,-0.0307456,-0.520344,0.0239648,0.0224889,769,1457,-3.18216,-7.15628
-448,-433,-3.2005,6.85046,-0.00154278,-0.0288817,-0.022656,0.0112481,-0.0416725,-0.513959,0.0321928,0.035413,776,1457,-3.20051,-6.85048
-441,-433,-3.25507,6.49292,-0.00238436,-0.039193,-0.0295167,0.0139957,-0.0555731,-0.50663,0.0424894,0.0439549,783,1457,-3.25508,-6.49287
-434,-433,-3.25848,6.36755,0,0,0,0,0,0,0,-1,790,1457,-3.25848,-6.36753
-427,-433,-3.88257,6.87183,0,0,0,0,0,0,0,-1,797,1457,-3.88255,-6.87187
-420,-433,-4.01385,7.20203,0,0,0,0,0,0,0,-1,804,1457,-4.01385,-7.20207
-413,-433,-9.20575,5.04602,0,0,0,0,0,0,0,-1,811,1457,-9.20575,-5.04599
-406,-433,-10.5039,3.70374,0,0,0,0,0,0,0,-1,818,1457,-10.5039,-3.70371
-399,-433,-12.055,2.83594,0,0,0,0,0,0,0,-1,825,1457,-12.055,-2.83594
-392,-433,-12.9772,1.6228,0,0,0,0,0,0,0,-1,832,1457,-12.9772,-1.62282
-385,-433,-13.7999,0.514771,0,0,0,0,0,0,0,-1,839,1457,-13.7999,-0.514788
-378,-433,0,0,0,0,0,0,0,0,0,-1,846,1457,0,0
-371,-433,0,0,0,0,0,0,0,0,0,-1,853,1457,0,0
-364,-433,0,0,0,0,0,0,0,0,0,-1,860,1457,0,0
-357,-433,0,0,0,0,0,0,0,0,0,-1,867,1457,0,0
-350,-433,0,0,0,0,0,0,0,0,0,-1,874,1457,0,0
-343,-433,0,0,0,0,0,0,0,0,0,-1,881,1457,0,0
-336,-433,0,0,0,0,0,0,0,0,0,-1,888,1457,0,0
-329,-433,0,0,0,0,0,0,0,0,0,-1,895,1457,0,0
-322,-433,0,0,0,0,0,0,0,0,0,-1,902,1457,0,0
-315,-433,0,0,0,0,0,0,0,0,0,-1,909,1457,0,0
-308,-433,0,0,0,0,0,0,0,0,0,-1,916,1457,0,0
-301,-433,0,0,0,0,0,0,0,0,0,-1,923,1457,0,0
-294,-433,0,0,0,0,0,0,0,0,0,-1,930,1457,0,0
-287,-433,0,0,0,0,0,0,0,0,0,-1,937,1457,0,0
-280,-433,0,0,0,0,0,0,0,0,0,-1,944,1457,0,0
-273,-433,0,0,0,0,0,0,0,0,0,-1,951,1457,0,0
-266,-433,0,0,0,0,0,0,0,0,0,-1,958,1457,0,0
-259,-433,0,0,0,0,0,0,0,0,0,-1,965,1457,0,0
-252,-433,0,0,0,0,0,0,0,0,0,-1,972,1457,0,0
-245,-433,0,0,0,0,0,0,0,0,0,-1,979,1457,0,0
-238,-433,0,0,0,0,0,0,0,0,0,-1,986,1457,0,0
-231,-433,0,0,0,0,0,0,0,0,0,-1,993,1457,0,0
-224,-433,0,0,0,0,0,0,0,0,0,-1,1000,1457,0,0
-217,-433,0,0,0,0,0,0,0,0,0,-1,1007,1457,0,0
-210,-433,0,0,0,0,0,0,0,0,0,-1,1014,1457,0,0
-203,-433,0,0,0,0,0,0,0,0,0,-1,1021,1457,0,0
-196,-433,0,0,0,0,0,0,0,0,0,-1,1028,1457,0,0
-189,-433,0,0,0,0,0,0,0,0,0,-1,1035,1457,0,0
-182,-433,0,0,0,0,0,0,0,0,0,-1,1042,1457,0,0
-175,-433,0,0,0,0,0,0,0,0,0,-1,1049,1457,0,0
-168,-433,0,0,0,0,0,0,0,0,0,-1,1056,1457,0,0
-161,-433,0,0,0,0,0,0,0,0,0,-1,1063,1457,0,0
-154,-433,0,0,0,0,0,0,0,0,0,-1,1070,1457,0,0
-147,-433,0,0,0,0,0,0,0,0,0,-1,1077,1457,0,0
-140,-433,0,0,0,0,0,0,0,0,0,-1,1084,1457,0,0
-133,-433,0,0,0,0,0,0,0,0,0,-1,1091,1457,0,0
-126,-433,0,0,0,0,0,0,0,0,0,-1,1098,1457,0,0
-119,-433,0,0,0,0,0,0,0,0,0,-1,1105,1457,0,0
-112,-433,0,0,0,0,0,0,0,0,0,-1,1112,1457,0,0
-105,-433,0,0,0,0,0,0,0,0,0,-1,1119,1457,0,0
-98,-433,0,0,0,0,0,0,0,0,0,-1,1126,1457,0,0
-91,-433,0,0,0,0,0,0,0,0,0,-1,1133,1457,0,0
-84,-433,0,0,0,0,0,0,0,0,0,-1,1140,1457,0,0
-77,-433,0,0,0,0,0,0,0,0,0,-1,1147,1457,0,0
-70,-433,0,0,0,0,0,0,0,0,0,-1,1154,1457,0,0
-63,-433,0,0,0,0,0,0,0,0,0,-1,1161,1457,0,0
-56,-433,0,0,0,0,0,0,0,0,0,-1,1168,1457,0,0
-49,-433,0,0,0,0,0,0,0,0,0,-1,1175,1457,0,0
-42,-433,0,0,0,0,0,0,0,0,0,-1,1182,1457,0,0
-35,-433,0,0,0,0,0,0,0,0,0,-1,1189,1457,0,0
-28,-433,0,0,0,0,0,0,0,0,0,-1,1196,1457,0,0
-21,-433,0,0,0,0,0,0,0,0,0,-1,1203,1457,0,0
-14,-433,0,0,0,0,0,0,0,0,0,-1,1210,1457,0,0
-7,-433,0,0,0,0,0,0,0,0,0,-1,1217,1457,0,0
0,-433,0,0,0,0,0,0,0,0,0,-1,1224,1457,0,0
7,-433,0,0,0,0,0,0,0,0,0,-1,1231,1457,0,0
14,-433,0,0,0,0,0,0,0,0,0,-1,1238,1457,0,0
21,-433,0,0,0,0,0,0,0,0,0,-1,1245,1457,0,0
28,-433,0,0,0,0,0,0,0,0,0,-1,1252,1457,0,0
35,-433,0,0,0,0,0,0,0,0,0,-1,1259,1457,0,0
42,-433,0,0,0,0,0,0,0,0,0,-1,1266,1457,0,0
49,-433,0,0,0,0,0,0,0,0,0,-1,1273,1457,0,0
56,-433,0,0,0,0,0,0,0,0,0,-1,1280,1457,0,0
63,-433,0,0,0,0,0,0,0,0,0,-1,1287,1457,0,0
70,-433,0,0,0,0,0,0,0,0,0,-1,1294,1457,0,0
77,-433,0,0,0,0,0,0,0,0,0,-1,1301,1457,0,0
84,-433,0,0,0,0,0,0,0,0,0,-1,1308,1457,0,0
91,-433,0,0,0,0,0,0,0,0,0,-1,1315,1457,0,0
98,-433,0,0,0,0,0,0,0,0,0,-1,1322,1457,0,0
105,-433,0,0,0,0,0,0,0,0,0,-1,1329,1457,0,0
112,-433,0,0,0,0,0,0,0,0,0,-1,1336,1457,0,0
119,-433,0,0,0,0,0,0,0,0,0,-1,1343,1457,0,0
126,-433,0,0,0,0,0,0,0,0,0,-1,1350,1457,0,0
133,-433,0,0,0,0,0,0,0,0,0,-1,1357,1457,0,0
140,-433,0,0,0,0,0,0,0,0,0,-1,1364,1457,0,0
147,-433,0,0,0,0,0,0,0,0,0,-1,1371,1457,0,0
154,-433,0,0,0,0,0,0,0,0,0,-1,1378,1457,0,0
161,-433,0,0,0,0,0,0,0,0,0,-1,1385,1457,0,0
168,-433,0,0,0,0,0,0,0,0,0,-1,1392,1457,0,0
175,-433,0,0,0,0,0,0,0,0,0,-1,1399,1457,0,0
182,-433,0,0,0,0,0,0,0,0,0,-1,1406,1457,0,0
189,-433,0,0,0,0,0,0,0,0,0,-1,1413,1457,0,0
196,-433,0,0,0,0,0,0,0,0,0,-1,1420,1457,0,0
203,-433,0,0,0,0,0,0,0,0,0,-1,1427,1457,0,0
210,-433,0,0,0,0,0,0,0,0,0,-1,1434,1457,0,0
217,-433,0,0,0,0,0,0,0,0,0,-1,1441,1457,0,0
224,-433,0,0,0,0,0,0,0,0,0,-1,1448,1457,0,0
231,-433,0,0,0,0,0,0,0,0,0,-1,1455,1457,0,0
238,-433,0,0,0,0,0,0,0,0,0,-1,1462,1457,0,0
245,-433,0,0,0,0,0,0,0,0,0,-1,1469,1457,0,0
252,-433,0,0,0,0,0,0,0,0,0,-1,1476,1457,0,0
259,-433,0,0,0,0,0,0,0,0,0,-1,1483,1457,0,0
266,-433,0,0,0,0,0,0,0,0,0,-1,1490,1457,0,0
273,-433,0,0,0,0,0,0,0,0,0,-1,1497,1457,0,0
280,-433,0,0,0,0,0,0,0,0,0,-1,1504,1457,0,0
287,-433,0,0,0,0,0,0,0,0,0,-1,1511,1457,0,0
294,-433,0,0,0,0,0,0,0,0,0,-1,1518,1457,0,0
301,-433,0,0,0,0,0,0,0,0,0,-1,1525,1457,0,0
308,-433,0,0,0,0,0,0,0,0,0,-1,1532,1457,0,0
315,-433,0,0,0,0,0,0,0,0,0,-1,1539,1457,0,0
322,-433,0,0,0,0,0,0,0,0,0,-1,1546,1457,0,0
329,-433,0,0,0,0,0,0,0,0,0,-1,1553,1457,0,0
336,-433,0,0,0,0,0,0,0,0,0,-1,1560,1457,0,0
343,-433,0,0,0,0,0,0,0,0,0,-1,1567,1457,0,0
350,-433,0,0,0,0,0,0,0,0,0,-1,1574,1457,0,0
357,-433,0,0,0,0,0,0,0,0,0,-1,1581,1457,0,0
364,-433,0,0,0,0,0,0,0,0,0,-1,1588,1457,0,0
371,-433,0,0,0,0,0,0,0,0,0,-1,1595,1457,0,0
378,-433,0,0,0,0,0,0,0,0,0,-1,1602,1457,0,0
385,-433,0,0,0,0,0,0,0,0,0,-1,1609,1457,0,0
392,-433,0,0,0,0,0,0,0,0,0,-1,1616,1457,0,0
399,-433,0,0,0,0,0,0,0,0,0,-1,1623,1457,0,0
406,-433,0,0,0,0,0,0,0,0,0,-1,1630,1457,0,0
413,-433,0,0,0,0,0,0,0,0,0,-1,1637,1457,0,0
420,-433,0,0,0,0,0,0,0,0,0,-1,1644,1457,0,0
427,-433,0,0,0,0,0,0,0,0,0,-1,1651,1457,0,0
434,-433,0,0,0,0,0,0,0,0,0,-1,1658,1457,0,0
441,-433,0,0,0,0,0,0,0,0,0,-1,1665,1457,0,0
448,-433,0,0,0,0,0,0,0,0,0,-1,1672,1457,0,0
455,-433,0,0,0,0,0,0,0,0,0,-1,1679,1457,0,0
462,-433,0,0,0,0,0,0,0,0,0,-1,1686,1457,0,0
469,-433,0,0,0,0,0,0,0,0,0,-1,1693,1457,0,0
476,-433,0,0,0,0,0,0,0,0,0,-1,1700,1457,0,0
483,-433,0,0,0,0,0,0,0,0,0,-1,1707,1457,0,0
490,-433,0,0,0,0,0,0,0,0,0,-1,1714,1457,0,0
497,-433,0,0,0,0,0,0,0,0,0,-1,1721,1457,0,0
504,-433,19.9058,3.03662,0,0,0,0,0,0,0,-1,1728,1457,19.9058,-3.03656
511,-433,19.0145,3.07837,0,0,0,0,0,0,0,-1,1735,1457,19.0146,-3.07834
518,-433,18.071,3.06433,0,0,0,0,0,0,0,-1,1742,1457,18.071,-3.06432
525,-433,17.2048,3.37085,0,0,0,0,0,0,0,-1,1749,1457,17.2049,-3.37083
532,-433,16.5637,3.36646,0,0,0,0,0,0,0,-1,1756,1457,16.5637,-3.36643
539,-433,15.9193,3.30396,0,0,0,0,0,0,0,-1,1763,1457,15.9193,-3.30394
546,-433,11.3518,8.02502,0,0,0,0,0,0,0,-1,1770,1457,11.3518,-8.025
553,-433,11.7994,8.73254,0,0,0,0,0,0,0,-1,1777,1457,11.7995,-8.73248
560,-433,12.2472,9.43994,0,0,0,0,0,0,0,-1,1784,1457,12.2472,-9.43997
567,-433,13.4974,9.18909,0,0,0,0,0,0,0,-1,1791,1457,13.4974,-9.18909
574,-433,12.4996,8.81262,0,0,0,0,0,0,0,-1,1798,1457,12.4997,-8.81266
581,-433,12.5227,8.63672,-0.022705,-0.0124182,0.0148822,-0.00181572,-0.0333075,0.951778,0.0216252,0.0422023,1805,1457,12.5227,-8.63675
588,-433,12.4067,8.57617,-0.0167424,-0.010289,0.0118387,-0.00124516,-0.0257862,0.918442,0.0167912,0.0357453,1812,1457,12.4068,-8.57621
595,-433,12.2622,8.53479,-0.0125644,-0.00822544,0.0090858,-0.00105369,-0.0197361,0.902592,0.0128206,0.0225282,1819,1457,12.2622,-8.53476
602,-433,12.2749,8.30347,-0.00959184,-0.00617314,0.00708955,-0.000589782,-0.0151752,0.903695,0.00992605,0.0193198,1826,1457,12.2749,-8.30343
609,-433,12.2946,8.0708,-0.00722285,-0.00460963,0.00535253,-0.000406541,-0.0114259,0.905112,0.00748546,0.0151417,1833,1457,12.2946,-8.0708
616,-433,12.2953,7.8739,-0.00508864,-0.00352971,0.00386087,-0.000370409,-0.00824793,0.885004,0.0053794,0.0135222,1840,1457,12.2953,-7.87394
623,-433,12.2736,7.6593,-0.00319855,-0.00280194,0.00269192,-0.000301035,-0.00569946,0.822164,0.00370337,0.0107269,1847,1457,12.2736,-7.65935
630,-433,12.2477,7.44873,-0.00170352,-0.00265981,0.00191243,-0.000210369,-0.00415297,0.6629,0.00270125,0.0134106,1854,1457,12.2477,-7.4487
637,-433,12.2593,7.229,-0.000561416,-0.00283603,0.00145311,0.000146537,-0.00354399,0.453355,0.00241299,0.0149957,1861,1457,12.2593,-7.22895
644,-433,12.2708,7.02954,0.000284033,-0.00345304,0.00140061,0.000750692,-0.0039197,0.321615,0.00289598,0.0154231,1868,1457,12.2707,-7.02959
651,-433,12.2671,6.8125,0.000701804,-0.0045568,0.00180085,0.0012594,-0.00511439,0.300266,0.00389781,0.0116867,1875,1457,12.2671,-6.81249
658,-433,12.2629,6.53918,0.000373859,-0.00620428,0.00284408,0.00143298,-0.0072634,0.356485,0.00538387,0.0139366,1882,1457,12.2629,-6.53918
665,-433,12.2554,6.28687,-0.000727521,-0.00878795,0.00466148,0.00140441,-0.0109199,0.42895,0.00779036,0.021252,1889,1457,12.2553,-6.28691
672,-433,12.478,6.41589,-0.00257396,-0.0124067,0.00745536,0.00144014,-0.0164207,0.493907,0.0114574,0.0413937,1896,1457,12.478,-6.41592
679,-433,12.7546,6.55298,0,0,0,0,0,0,0,-1,1903,1457,12.7547,-6.55293
686,-433,11.9452,7.01965,0,0,0,0,0,0,0,-1,1910,1457,11.9452,-7.01969
693,-433,8.27722,4.4519,0,0,0,0,0,0,0,-1,1917,1457,8.27728,-4.45186
700,-433,7.16809,-1.5166,0,0,0,0,0,0,0,-1,1924,1457,7.16806,1.51656
707,-433,8.68359,-2.82202,0,0,0,0,0,0,0,-1,1931,1457,8.68359,2.82197
714,-433,0,0,0,0,0,0,0,0,0,-1,1938,1457,0,0
721,-433,0,0,0,0,0,0,0,0,0,-1,1945,1457,0,0
728,-433,0,0,0,0,0,0,0,0,0,-1,1952,1457,0,0
735,-433,0,0,0,0,0,0,0,0,0,-1,1959,1457,0,0
742,-433,0,0,0,0,0,0,0,0,0,-1,1966,1457,0,0
749,-433,0,0,0,0,0,0,0,0,0,-1,1973,1457,0,0
756,-433,0,0,0,0,0,0,0,0,0,-1,1980,1457,0,0
763,-433,0,0,0,0,0,0,0,0,0,-1,1987,1457,0,0
770,-433,0,0,0,0,0,0,0,0,0,-1,1994,1457,0,0
777,-433,0,0,0,0,0,0,0,0,0,-1,2001,1457,0,0
784,-433,0,0,0,0,0,0,0,0,0,-1,2008,1457,0,0
791,-433,0,0,0,0,0,0,0,0,0,-1,2015,1457,0,0
798,-433,0,0,0,0,0,0,0,0,0,-1,2022,1457,0,0
805,-433,0,0,0,0,0,0,0,0,0,-1,2029,1457,0,0
812,-433,0,0,0,0,0,0,0,0,0,-1,2036,1457,0,0
-700,-440,0,0,0,0,0,0,0,0,0,-1,524,1464,0,0
-693,-440,0,0,0,0,0,0,0,0,0,-1,531,1464,0,0
-686,-440,0,0,0,0,0,0,0,0,0,-1,538,1464,0,0
-679,-440,0,0,0,0,0,0,0,0,0,-1,545,1464,0,0
-672,-440,0,0,0,0,0,0,0,0,0,-1,552,1464,0,0
-665,-440,0,0,0,0,0,0,0,0,0,-1,559,1464,0,0
-658,-440,0,0,0,0,0,0,0,0,0,-1,566,1464,0,0
-651,-440,0,0,0,0,0,0,0,0,0,-1,573,1464,0,0
-644,-440,0,0,0,0,0,0,0,0,0,-1,580,1464,0,0
-637,-440,0,0,0,0,0,0,0,0,0,-1,587,1464,0,0
-630,-440,0,0,0,0,0,0,0,0,0,-1,594,1464,0,0
-623,-440,0,0,0,0,0,0,0,0,0,-1,601,1464,0,0
-616,-440,0,0,0,0,0,0,0,0,0,-1,608,1464,0,0
-609,-440,0,0,0,0,0,0,0,0,0,-1,615,1464,0,0
-602,-440,0,0,0,0,0,0,0,0,0,-1,622,1464,0,0
-595,-440,0,0,0,0,0,0,0,0,0,-1,629,1464,0,0
-588,-440,0,0,0,0,0,0,0,0,0,-1,636,1464,0,0
-581,-440,-5.65979,-1.33923,0,0,0,0,0,0,0,-1,643,1464,-5.65977,1.33928
-574,-440,-7.00818,-0.918579,0,0,0,0,0,0,0,-1,650,1464,-7.00817,0.918538
-567,-440,-6.12152,-0.0766602,0,0,0,0,0,0,0,-1,657,1464,-6.12151,0.0767097
-560,-440,-5.46747,0.82251,0,0,0,0,0,0,0,-1,664,1464,-5.46748,-0.822551
-553,-440,-4.9046,1.32935,0,0,0,0,0,0,0,-1,671,1464,-4.90458,-1.32932
-546,-440,-4.28607,2.17822,0.0589733,0.017684,0.0354672,0.0793668,-0.00270945,0.52183,0.0538371,0.0454504,678,1464,-4.28608,-2.17822
-539,-440,-3.7392,3.10352,0.0453059,0.0150501,0.0291189,0.0629921,-0.00263609,0.545827,0.0429004,0.0477465,685,1464,-3.73917,-3.10351
-532,-440,-3.07971,4.28186,0.0343525,0.0123913,0.0234063,0.0492259,-0.00248205,0.566074,0.0336751,0.03537,692,1464,-3.07972,-4.28186
-525,-440,-3.08728,4.7312,0.0257452,0.0098836,0.0184185,0.0378678,-0.00223896,0.5821,0.0260236,0.019276,699,1464,-3.08731,-4.73118
-518,-440,-3.08759,4.95154,0.019021,0.00757479,0.0141026,0.0285175,-0.0019217,0.592641,0.0196835,0.0139575,706,1464,-3.08759,-4.95148
-511,-440,-3.07831,5.21021,0.0137786,0.00546838,0.0104057,0.0208281,-0.00158115,0.595442,0.0144413,0.0153493,713,1464,-3.07833,-5.2102
-504,-440,-3.09308,5.46912,0.00946036,0.00372135,0.00731518,0.0144487,-0.001267,0.598487,0.0100814,0.0184038,720,1464,-3.0931,-5.46918
-497,-440,-3.07275,5.69336,0.00632465,0.00192094,0.00426426,0.00892197,-0.000676376,0.547077,0.00618577,0.0220017,727,1464,-3.07272,-5.69338
-490,-440,-3.06342,5.89844,0.00397595,-0.000421267,0.00120125,0.00428271,-0.000728026,0.250025,0.0031262,0.0224476,734,1464,-3.06343,-5.89849
-483,-440,-3.09033,6.15735,0.00222789,-0.00266178,-0.00163137,0.0027222,-0.00315609,-0.29421,0.00339691,0.0198422,741,1464,-3.09031,-6.1573
-476,-440,-3.07678,6.42383,0.0011287,-0.00540163,-0.00427637,0.00324393,-0.00751686,-0.459344,0.00637392,0.0129945,748,1464,-3.0768,-6.42378
-469,-440,-3.07697,6.68994,0.000595202,-0.00869032,-0.00713094,0.00446158,-0.0125567,-0.496834,0.0101893,0.0117224,755,1464,-3.07694,-6.68994
-462,-440,-3.09454,6.94067,0.00031008,-0.013108,-0.0103502,0.00593545,-0.0187334,-0.497842,0.0148677,0.0129849,762,1464,-3.09454,-6.94073
-455,-440,-3.02258,7.20276,0.000140666,-0.018438,-0.0140511,0.0076955,-0.0259928,-0.493325,0.0203838,0.0162366,769,1464,-3.0226,-7.20277
-448,-440,-2.88525,7.35217,1.96e-06,-0.0253638,-0.0185701,0.00980691,-0.0351687,-0.485794,0.0273082,0.0295095,776,1464,-2.88523,-7.35217
-441,-440,-3.0813,7.03662,-0.000309715,-0.034331,-0.0241353,0.0122072,-0.0468479,-0.478427,0.0359977,0.0382117,783,1464,-3.08129,-7.03659
-434,-440,-2.98547,7.0907,-0.000955739,-0.0458526,-0.0307277,0.0146501,-0.0614584,-0.469927,0.0466292,0.0440467,790,1464,-2.98549,-7.09064
-427,-440,-2.56091,7.11951,0,0,0,0,0,0,0,-1,797,1464,-2.56094,-7.11951
-420,-440,-2.53412,6.46912,0,0,0,0,0,0,0,-1,804,1464,-2.5341,-6.46914
-413,-440,-4.41571,5.30579,0,0,0,0,0,0,0,-1,811,1464,-4.41569,-5.30576
-406,-440,-5.2887,5.20264,0,0,0,0,0,0,0,-1,818,1464,-5.2887,-5.20261
-399,-440,-12.7318,3.94421,0,0,0,0,0,0,0,-1,825,1464,-12.7318,-3.94419
-392,-440,-13.5565,2.51855,0,0,0,0,0,0,0,-1,832,1464,-13.5565,-2.51861
-385,-440,-14.6741,1.39795,0,0,0,0,0,0,0,-1,839,1464,-14.6741,-1.39801
-378,-440,-15.8063,0.293457,0,0,0,0,0,0,0,-1,846,1464,-15.8063,-0.293412
-371,-440,0,0,0,0,0,0,0,0,0,-1,853,1464,0,0
-364,-440,0,0,0,0,0,0,0,0,0,-1,860,1464,0,0
-357,-440,0,0,0,0,0,0,0,0,0,-1,867,1464,0,0
-350,-440,0,0,0,0,0,0,0,0,0,-1,874,1464,0,0
-343,-440,0,0,0,0,0,0,0,0,0,-1,881,1464,0,0
-336,-440,0,0,0,0,0,0,0,0,0,-1,888,1464,0,0
-329,-440,0,0,0,0,0,0,0,0,0,-1,895,1464,0,0
-322,-440,0,0,0,0,0,0,0,0,0,-1,902,1464,0,0
-315,-440,0,0,0,0,0,0,0,0,0,-1,909,1464,0,0
-308,-440,0,0,0,0,0,0,0,0,0,-1,916,1464,0,0
-301,-440,0,0,0,0,0,0,0,0,0,-1,923,1464,0,0
-294,-440,0,0,0,0,0,0,0,0,0,-1,930,1464,0,0
-287,-440,0,0,0,0,0,0,0,0,0,-1,937,1464,0,0
-280,-440,0,0,0,0,0,0,0,0,0,-1,944,1464,0,0
-273,-440,0,0,0,0,0,0,0,0,0,-1,951,1464,0,0
-266,-440,0,0,0,0,0,0,0,0,0,-1,958,1464,0,0
-259,-440,0,0,0,0,0,0,0,0,0,-1,965,1464,0,0
-252,-440,0,0,0,0,0,0,0,0,0,-1,972,1464,0,0
-245,-440,0,0,0,0,0,0,0,0,0,-1,979,1464,0,0
-238,-440,0,0,0,0,0,0,0,0,0,-1,986,1464,0,0
-231,-440,0,0,0,0,0,0,0,0,0,-1,993,1464,0,0
-224,-440,0,0,0,0,0,0,0,0,0,-1,1000,1464,0,0
-217,-440,0,0,0,0,0,0,0,0,0,-1,1007,1464,0,0
-210,-440,0,0,0,0,0,0,0,0,0,-1,1014,1464,0,0
-203,-440,0,0,0,0,0,0,0,0,0,-1,1021,1464,0,0
-196,-440,0,0,0,0,0,0,0,0,0,-1,1028,1464,0,0
-189,-440,0,0,0,0,0,0,0,0,0,-1,1035,1464,0,0
-182,-440,0,0,0,0,0,0,0,0,0,-1,1042,1464,0,0
-175,-440,0,0,0,0,0,0,0,0,0,-1,1049,1464,0,0
-168,-440,0,0,0,0,0,0,0,0,0,-1,1056,1464,0,0
-161,-440,0,0,0,0,0,0,0,0,0,-1,1063,1464,0,0
-154,-440,0,0,0,0,0,0,0,0,0,-1,1070,1464,0,0
-147,-440,0,0,0,0,0,0,0,0,0,-1,1077,1464,0,0
-140,-440,0,0,0,0,0,0,0,0,0,-1,1084,1464,0,0
-133,-440,0,0,0,0,0,0,0,0,0,-1,1091,1464,0,0
-126,-440,0,0,0,0,0,0,0,0,0,-1,1098,1464,0,0
-119,-440,0,0,0,0,0,0,0,0,0,-1,1105,1464,0,0
-112,-440,0,0,0,0,0,0,0,0,0,-1,1112,1464,0,0
-105,-440,0,0,0,0,0,0,0,0,0,-1,1119,1464,0,0
-98,-440,0,0,0,0,0,0,0,0,0,-1,1126,1464,0,0
-91,-440,0,0,0,0,0,0,0,0,0,-1,1133,1464,0,0
-84,-440,0,0,0,0,0,0,0,0,0,-1,1140,1464,0,0
-77,-440,0,0,0,0,0,0,0,0,0,-1,1147,1464,0,0
-70,-440,0,0,0,0,0,0,0,0,0,-1,1154,1464,0,0
-63,-440,0,0,0,0,0,0,0,0,0,-1,1161,1464,0,0
-56,-440,0,0,0,0,0,0,0,0,0,-1,1168,1464,0,0
-49,-440,0,0,0,0,0,0,0,0,0,-1,1175,1464,0,0
-42,-440,0,0,0,0,0,0,0,0,0,-1,1182,1464,0,0
-35,-440,0,0,0,0,0,0,0,0,0,-1,1189,1464,0,0
-28,-440,0,0,0,0,0,0,0,0,0,-1,1196,1464,0,0
-21,-440,0,0,0,0,0,0,0,0,0,-1,1203,1464,0,0
-14,-440,0,0,0,0,0,0,0,0,0,-1,1210,1464,0,0
-7,-440,0,0,0,0,0,0,0,0,0,-1,1217,1464,0,0
0,-440,0,0,0,0,0,0,0,0,0,-1,1224,1464,0,0
7,-440,0,0,0,0,0,0,0,0,0,-1,1231,1464,0,0
14,-440,0,0,0,0,0,0,0,0,0,-1,1238,1464,0,0
21,-440,0,0,0,0,0,0,0,0,0,-1,1245,1464,0,0
28,-440,0,0,0,0,0,0,0,0,0,-1,1252,1464,0,0
35,-440,0,0,0,0,0,0,0,0,0,-1,1259,1464,0,0
42,-440,0,0,0,0,0,0,0,0,0,-1,1266,1464,0,0
49,-440,0,0,0,0,0,0,0,0,0,-1,1273,1464,0,0
56,-440,0,0,0,0,0,0,0,0,0,-1,1280,1464,0,0
63,-440,0,0,0,0,0,0,0,0,0,-1,1287,1464,0,0
70,-440,0,0,0,0,0,0,0,0,0,-1,1294,1464,0,0
77,-440,0,0,0,0,0,0,0,0,0,-1,1301,1464,0,0
84,-440,0,0,0,0,0,0,0,0,0,-1,1308,1464,0,0
91,-440,0,0,0,0,0,0,0,0,0,-1,1315,1464,0,0
98,-440,0,0,0,0,0,0,0,0,0,-1,1322,1464,0,0
105,-440,0,0,0,0,0,0,0,0,0,-1,1329,1464,0,0
112,-440,0,0,0,0,0,0,0,0,0,-1,1336,1464,0,0
119,-440,0,0,0,0,0,0,0,0,0,-1,1343,1464,0,0
126,-440,0,0,0,0,0,0,0,0,0,-1,1350,1464,0,0
133,-440,0,0,0,0,0,0,0,0,0,-1,1357,1464,0,0
140,-440,0,0,0,0,0,0,0,0,0,-1,1364,1464,0,0
147,-440,0,0,0,0,0,0,0,0,0,-1,1371,1464,0,0
154,-440,0,0,0,0,0,0,0,0,0,-1,1378,1464,0,0
161,-440,0,0,0,0,0,0,0,0,0,-1,1385,1464,0,0
168,-440,0,0,0,0,0,0,0,0,0,-1,1392,1464,0,0
175,-440,0,0,0,0,0,0,0,0,0,-1,1399,1464,0,0
182,-440,0,0,0,0,0,0,0,0,0,-1,1406,1464,0,0
189,-440,0,0,0,0,0,0,0,0,0,-1,1413,1464,0,0
196,-440,0,0,0,0,0,0,0,0,0,-1,1420,1464,0,0
203,-440,0,0,0,0,0,0,0,0,0,-1,1427,1464,0,0
210,-440,0,0,0,0,0,0,0,0,0,-1,1434,1464,0,0
217,-440,0,0,0,0,0,0,0,0,0,-1,1441,1464,0,0
224,-440,0,0,0,0,0,0,0,0,0,-1,1448,1464,0,0
231,-440,0,0,0,0,0,0,0,0,0,-1,1455,1464,0,0
238,-440,0,0,0,0,0,0,0,0,0,-1,1462,1464,0,0
245,-440,0,0,0,0,0,0,0,0,0,-1,1469,1464,0,0
252,-440,0,0,0,0,0,0,0,0,0,-1,1476,1464,0,0
259,-440,0,0,0,0,0,0,0,0,0,-1,1483,1464,0,0
266,-440,0,0,0,0,0,0,0,0,0,-1,1490,1464,0,0
273,-440,0,0,0,0,0,0,0,0,0,-1,1497,1464,0,0
280,-440,0,0,0,0,0,0,0,0,0,-1,1504,1464,0,0
287,-440,0,0,0,0,0,0,0,0,0,-1,1511,1464,0,0
294,-440,0,0,0,0,0,0,0,0,0,-1,1518,1464,0,0
301,-440,0,0,0,0,0,0,0,0,0,-1,1525,1464,0,0
308,-440,0,0,0,0,0,0,0,0,0,-1,1532,1464,0,0
315,-440,0,0,0,0,0,0,0,0,0,-1,1539,1464,0,0
322,-440,0,0,0,0,0,0,0,0,0,-1,1546,1464,0,0
329,-440,0,0,0,0,0,0,0,0,0,-1,1553,1464,0,0
336,-440,0,0,0,0,0,0,0,0,0,-1,1560,1464,0,0
343,-440,0,0,0,0,0,0,0,0,0,-1,1567,1464,0,0
350,-440,0,0,0,0,0,0,0,0,0,-1,1574,1464,0,0
357,-440,0,0,0,0,0,0,0,0,0,-1,1581,1464,0,0
364,-440,0,0,0,0,0,0,0,0,0,-1,1588,1464,0,0
371,-440,0,0,0,0,0,0,0,0,0,-1,1595,1464,0,0
378,-440,0,0,0,0,0,0,0,0,0,-1,1602,1464,0,0
385,-440,0,0,0,0,0,0,0,0,0,-1,1609,1464,0,0
392,-440,0,0,0,0,0,0,0,0,0,-1,1616,1464,0,0
399,-440,0,0,0,0,0,0,0,0,0,-1,1623,1464,0,0
406,-440,0,0,0,0,0,0,0,0,0,-1,1630,1464,0,0
413,-440,0,0,0,0,0,0,0,0,0,-1,1637,1464,0,0
420,-440,0,0,0,0,0,0,0,0,0,-1,1644,1464,0,0
427,-440,0,0,0,0,0,0,0,0,0,-1,1651,1464,0,0
434,-440,0,0,0,0,0,0,0,0,0,-1,1658,1464,0,0
441,-440,0,0,0,0,0,0,0,0,0,-1,1665,1464,0,0
448,-440,0,0,0,0,0,0,0,0,0,-1,1672,1464,0,0
455,-440,0,0,0,0,0,0,0,0,0,-1,1679,1464,0,0
462,-440,0,0,0,0,0,0,0,0,0,-1,1686,1464,0,0
469,-440,0,0,0,0,0,0,0,0,0,-1,1693,1464,0,0
476,-440,0,0,0,0,0,0,0,0,0,-1,1700,1464,0,0
483,-440,0,0,0,0,0,0,0,0,0,-1,1707,1464,0,0
490,-440,0,0,0,0,0,0,0,0,0,-1,1714,1464,0,0
497,-440,16.965,-0.528442,0,0,0,0,0,0,0,-1,1721,1464,16.965,0.528492
504,-440,15.8052,0.670166,0,0,0,0,0,0,0,-1,1728,1464,15.8052,-0.670145
511,-440,17.5754,2.77832,0,0,0,0,0,0,0,-1,1735,1464,17.5754,-2.77826
518,-440,16.9017,3.07861,0,0,0,0,0,0,0,-1,1742,1464,16.9018,-3.07859
525,-440,18.4495,12.0867,0,0,0,0,0,0,0,-1,1749,1464,18.4495,-12.0867
532,-440,15.4319,3.64392,0,0,0,0,0,0,0,-1,1756,1464,15.4318,-3.64391
539,-440,14.8214,3.41321,0,0,0,0,0,0,0,-1,1763,1464,14.8214,-3.4132
546,-440,11.4041,8.26465,0,0,0,0,0,0,0,-1,1770,1464,11.4041,-8.26463
553,-440,12.1884,8.64343,0,0,0,0,0,0,0,-1,1777,1464,12.1883,-8.64337
560,-440,12.4108,8.59521,0,0,0,0,0,0,0,-1,1784,1464,12.4107,-8.59527
567,-440,12.5201,8.41187,0,0,0,0,0,0,0,-1,1791,1464,12.5201,-8.41187
574,-440,12.3071,8.91443,0,0,0,0,0,0,0,-1,1798,1464,12.3071,-8.91438
581,-440,12.1753,8.828,-0.0182273,-0.00959864,0.0115562,-0.00157766,-0.0262483,0.964052,0.0169974,0.0377524,1805,1464,12.1753,-8.828
588,-440,12.0298,8.78052,-0.0128742,-0.00800221,0.0091236,-0.000994988,-0.0198814,0.915854,0.0129354,0.0268315,1812,1464,12.0298,-8.78047
595,-440,12.0454,8.56213,-0.00928714,-0.00638118,0.00690709,-0.000775894,-0.0148924,0.889067,0.00968002,0.0185345,1819,1464,12.0454,-8.5621
602,-440,12.0626,8.32288,-0.00691391,-0.00475652,0.00533734,-0.000389961,-0.0112805,0.885107,0.00739376,0.017187,1826,1464,12.0626,-8.32288
609,-440,12.0626,8.09729,-0.005041,-0.00356769,0.00391668,-0.00031899,-0.00828969,0.878353,0.00542326,0.0155387,1833,1464,12.0626,-8.09725
616,-440,12.0709,7.90027,-0.00330373,-0.00277832,0.00273051,-0.000297911,-0.00578414,0.833356,0.00376073,0.0176042,1840,1464,12.0709,-7.90021
623,-440,12.0718,7.67615,-0.00172058,-0.00237617,0.00181754,-0.000201519,-0.00389523,0.696182,0.00253232,0.0135635,1847,1464,12.0717,-7.67611
630,-440,12.0322,7.42407,-0.000436831,-0.00252021,0.00119997,0.000110518,-0.00306756,0.427944,0.00208286,0.0107832,1854,1464,12.0322,-7.42405
637,-440,12.0391,7.21765,0.000600729,-0.00299659,0.000842024,0.000788066,-0.00318392,0.218918,0.00242831,0.0148827,1861,1464,12.0391,-7.21761
644,-440,12.0742,7.02014,0.00142908,-0.00392462,0.000831376,0.00155521,-0.00405075,0.150568,0.00334179,0.0148383,1868,1464,12.0743,-7.02012
651,-440,12.1024,6.77893,0.00187615,-0.00530658,0.00124636,0.00208627,-0.00551671,0.16702,0.00453608,0.0122519,1875,1464,12.1024,-6.7789
658,-440,12.0797,6.55652,0.00161628,-0.0073602,0.0023004,0.00217147,-0.00791539,0.236814,0.00613031,0.0176304,1882,1464,12.0797,-6.55653
665,-440,12.1675,6.34583,0.000709177,-0.0104423,0.00411926,0.00206576,-0.0117989,0.318141,0.00863727,0.0323231,1889,1464,12.1674,-6.34585
672,-440,12.0505,6.70813,-0.000883511,-0.0146573,0.00697369,0.00203071,-0.0175715,0.395831,0.0124466,0.0471736,1896,1464,12.0506,-6.70815
679,-440,11.9725,6.87585,0,0,0,0,0,0,0,-1,1903,1464,11.9725,-6.87589
686,-440,11.8153,7.16187,0,0,0,0,0,0,0,-1,1910,1464,11.8154,-7.16183
693,-440,9.88635,2.89795,0,0,0,0,0,0,0,-1,1917,1464,9.88638,-2.89798
700,-440,7.07825,-2.62061,0,0,0,0,0,0,0,-1,1924,1464,7.07829,2.62057
707,-440,0,0,0,0,0,0,0,0,0,-1,1931,1464,0,0
714,-440,0,0,0,0,0,0,0,0,0,-1,1938,1464,0,0
721,-440,0,0,0,0,0,0,0,0,0,-1,1945,1464,0,0
728,-440,0,0,0,0,0,0,0,0,0,-1,1952,1464,0,0
735,-440,0,0,0,0,0,0,0,0,0,-1,1959,1464,0,0
742,-440,0,0,0,0,0,0,0,0,0,-1,1966,1464,0,0
749,-440,0,0,0,0,0,0,0,0,0,-1,1973,1464,0,0
756,-440,0,0,0,0,0,0,0,0,0,-1,1980,1464,0,0
763,-440,0,0,0,0,0,0,0,0,0,-1,1987,1464,0,0
770,-440,0,0,0,0,0,0,0,0,0,-1,1994,1464,0,0
777,-440,0,0,0,0,0,0,0,0,0,-1,2001,1464,0,0
784,-440,0,0,0,0,0,0,0,0,0,-1,2008,1464,0,0
791,-440,0,0,0,0,0,0,0,0,0,-1,2015,1464,0,0
798,-440,0,0,0,0,0,0,0,0,0,-1,2022,1464,0,0
805,-440,0,0,0,0,0,0,0,0,0,-1,2029,1464,0,0
812,-440,0,0,0,0,0,0,0,0,0,-1,2036,1464,0,0
-700,-447,0,0,0,0,0,0,0,0,0,-1,524,1471,0,0
-693,-447,0,0,0,0,0,0,0,0,0,-1,531,1471,0,0
-686,-447,0,0,0,0,0,0,0,0,0,-1,538,1471,0,0
-679,-447,0,0,0,0,0,0,0,0,0,-1,545,1471,0,0
-672,-447,0,0,0,0,0,0,0,0,0,-1,552,1471,0,0
-665,-447,0,0,0,0,0,0,0,0,0,-1,559,1471,0,0
-658,-447,0,0,0,0,0,0,0,0,0,-1,566,1471,0,0
-651,-447,0,0,0,0,0,0,0,0,0,-1,573,1471,0,0
-644,-447,0,0,0,0,0,0,0,0,0,-1,580,1471,0,0
-637,-447,0,0,0,0,0,0,0,0,0,-1,587,1471,0,0
-630,-447,0,0,0,0,0,0,0,0,0,-1,594,1471,0,0
-623,-447,0,0,0,0,0,0,0,0,0,-1,601,1471,0,0
-616,-447,0,0,0,0,0,0,0,0,0,-1,608,1471,0,0
-609,-447,0,0,0,0,0,0,0,0,0,-1,615,1471,0,0
-602,-447,0,0,0,0,0,0,0,0,0,-1,622,1471,0,0
-595,-447,0,0,0,0,0,0,0,0,0,-1,629,1471,0,0
-588,-447,0,0,0,0,0,0,0,0,0,-1,636,1471,0,0
-581,-447,-7.06482,-1.50476,0,0,0,0,0,0,0,-1,643,1471,-7.0648,1.50474
-574,-447,-6.88092,-0.00585938,0,0,0,0,0,0,0,-1,650,1471,-6.88095,0.00589852
-567,-447,-6.8205,-1.32178,0,0,0,0,0,0,0,-1,657,1471,-6.82047,1.32172
-560,-447,-6.14691,-0.36792,0,0,0,0,0,0,0,-1,664,1471,-6.14689,0.367932
-553,-447,-5.48419,0.453125,0,0,0,0,0,0,0,-1,671,1471,-5.48418,-0.453149
-546,-447,-4.48792,1.69177,0.0671795,0.0209595,0.0422722,0.0922464,-0.00410734,0.535247,0.0629114,0.0433861,678,1471,-4.48791,-1.69179
-539,-447,-3.75024,2.81677,0.0516835,0.0178319,0.0349095,0.073554,-0.00403862,0.559671,0.0504362,0.0479707,685,1471,-3.75025,-2.81678
-532,-447,-3.04712,3.97131,0.0392048,0.0146242,0.0281252,0.0576077,-0.00377882,0.579409,0.0397247,0.0426829,692,1471,-3.0471,-3.97126
-525,-447,-2.68994,4.68384,0.0292913,0.011642,0.0221453,0.0443054,-0.00337213,0.595796,0.0307228,0.0288582,699,1471,-2.68995,-4.68389
-518,-447,-2.81958,4.92737,0.0215733,0.00895598,0.0170199,0.0334161,-0.00288689,0.607917,0.0232994,0.0223371,706,1471,-2.81956,-4.92738
-511,-447,-2.81708,5.18921,0.0155858,0.00658423,0.0126809,0.024541,-0.00237092,0.614869,0.0172055,0.0155798,713,1471,-2.81709,-5.1892
-504,-447,-2.85168,5.49121,0.0107653,0.00464191,0.00911053,0.0173149,-0.00190761,0.623296,0.0122288,0.0198854,720,1471,-2.8517,-5.49122
-497,-447,-2.83728,5.74402,0.00724448,0.00274596,0.00578969,0.0112065,-0.00121603,0.600124,0.00790755,0.0253231,727,1471,-2.8373,-5.74401
-490,-447,-2.75708,5.91675,0.00458005,0.000434864,0.00257021,0.00580922,-0.000794307,0.446086,0.00416292,0.0246807,734,1471,-2.75709,-5.91673
-483,-447,-2.84265,6.16394,0.00261507,-0.00167463,-0.000313771,0.0026379,-0.00169746,-0.07263,0.00252258,0.021642,741,1471,-2.84268,-6.164
-476,-447,-2.83319,6.42651,0.00145679,-0.00424726,-0.00277805,0.00258618,-0.00537664,-0.38613,0.00469049,0.0134894,748,1471,-2.83318,-6.42648
-469,-447,-2.82507,6.70679,0.000988798,-0.00733634,-0.00543868,0.00367504,-0.0100226,-0.458767,0.00818648,0.0115471,755,1471,-2.82509,-6.70675
-462,-447,-2.83984,6.95129,0.000910113,-0.0112066,-0.00828554,0.00511596,-0.0154124,-0.46972,0.012339,0.0122545,762,1471,-2.83983,-6.95124
-455,-447,-2.86719,7.19141,0.000993839,-0.0158391,-0.0112986,0.00666619,-0.0215115,-0.465279,0.0170043,0.0132666,769,1471,-2.8672,-7.19143
-448,-447,-2.80768,7.44641,0.00118586,-0.0218091,-0.0149058,0.00851326,-0.0291365,-0.456888,0.0227982,0.0190261,776,1471,-2.80766,-7.4464
-441,-447,-2.72723,7.59302,0.00117266,-0.0294147,-0.0192975,0.010502,-0.038744,-0.450317,0.0299501,0.0291749,783,1471,-2.72724,-7.59306
-434,-447,-2.55029,7.52344,0.000848683,-0.0389925,-0.0244423,0.0124599,-0.0506037,-0.443486,0.038566,0.0394294,790,1471,-2.55031,-7.52347
-427,-447,-2.6637,6.9574,0.000170318,-0.0509848,-0.0304546,0.0143633,-0.0651778,-0.43611,0.0489472,0.0416173,797,1471,-2.66368,-6.95735
-420,-447,-2.64044,6.56165,0,0,0,0,0,0,0,-1,804,1471,-2.64044,-6.56161
-413,-447,-2.57367,6.3988,0,0,0,0,0,0,0,-1,811,1471,-2.57369,-6.39884
-406,-447,-1.04279,6.18591,0,0,0,0,0,0,0,-1,818,1471,-1.04276,-6.18586
-399,-447,0.0134888,0.687622,0,0,0,0,0,0,0,-1,825,1471,0.0134841,-0.68767
-392,-447,-14.0646,3.76147,0,0,0,0,0,0,0,-1,832,1471,-14.0646,-3.7615
-385,-447,-15.1695,2.61865,0,0,0,0,0,0,0,-1,839,1471,-15.1695,-2.61871
-378,-447,-15.9424,1.49316,0,0,0,0,0,0,0,-1,846,1471,-15.9424,-1.49313
-371,-447,-17.3655,0.73291,0,0,0,0,0,0,0,-1,853,1471,-17.3655,-0.732946
-364,-447,0,0,0,0,0,0,0,0,0,-1,860,1471,0,0
-357,-447,0,0,0,0,0,0,0,0,0,-1,867,1471,0,0
-350,-447,0,0,0,0,0,0,0,0,0,-1,874,1471,0,0
-343,-447,0,0,0,0,0,0,0,0,0,-1,881,1471,0,0
-336,-447,0,0,0,0,0,0,0,0,0,-1,888,1471,0,0
-329,-447,0,0,0,0,0,0,0,0,0,-1,895,1471,0,0
-322,-447,0,0,0,0,0,0,0,0,0,-1,902,1471,0,0
-315,-447,0,0,0,0,0,0,0,0,0,-1,909,1471,0,0
-308,-447,0,0,0,0,0,0,0,0,0,-1,916,1471,0,0
-301,-447,0,0,0,0,0,0,0,0,0,-1,923,1471,0,0
-294,-447,0,0,0,0,0,0,0,0,0,-1,930,1471,0,0
-287,-447,0,0,0,0,0,0,0,0,0,-1,937,1471,0,0
-280,-447,0,0,0,0,0,0,0,0,0,-1,944,1471,0,0
-273,-447,0,0,0,0,0,0,0,0,0,-1,951,1471,0,0
-266,-447,0,0,0,0,0,0,0,0,0,-1,958,1471,0,0
-259,-447,0,0,0,0,0,0,0,0,0,-1,965,1471,0,0
-252,-447,0,0,0,0,0,0,0,0,0,-1,972,1471,0,0
-245,-447,0,0,0,0,0,0,0,0,0,-1,979,1471,0,0
-238,-447,0,0,0,0,0,0,0,0,0,-1,986,1471,0,0
-231,-447,0,0,0,0,0,0,0,0,0,-1,993,1471,0,0
-224,-447,0,0,0,0,0,0,0,0,0,-1,1000,1471,0,0
-217,-447,0,0,0,0,0,0,0,0,0,-1,1007,1471,0,0
-210,-447,0,0,0,0,0,0,0,0,0,-1,1014,1471,0,0
-203,-447,0,0,0,0,0,0,0,0,0,-1,1021,1471,0,0
-196,-447,0,0,0,0,0,0,0,0,0,-1,1028,1471,0,0
-189,-447,0,0,0,0,0,0,0,0,0,-1,1035,1471,0,0
-182,-447,0,0,0,0,0,0,0,0,0,-1,1042,1471,0,0
-175,-447,0,0,0,0,0,0,0,0,0,-1,1049,1471,0,0
-168,-447,0,0,0,0,0,0,0,0,0,-1,1056,1471,0,0
-161,-447,0,0,0,0,0,0,0,0,0,-1,1063,1471,0,0
-154,-447,0,0,0,0,0,0,0,0,0,-1,1070,1471,0,0
-147,-447,0,0,0,0,0,0,0,0,0,-1,1077,1471,0,0
-140,-447,0,0,0,0,0,0,0,0,0,-1,1084,1471,0,0
-133,-447,0,0,0,0,0,0,0,0,0,-1,1091,1471,0,0
-126,-447,0,0,0,0,0,0,0,0,0,-1,1098,1471,0,0
-119,-447,0,0,0,0,0,0,0,0,0,-1,1105,1471,0,0
-112,-447,0,0,0,0,0,0,0,0,0,-1,1112,1471,0,0
-105,-447,0,0,0,0,0,0,0,0,0,-1,1119,1471,0,0
-98,-447,0,0,0,0,0,0,0,0,0,-1,1126,1471,0,0
-91,-447,0,0,0,0,0,0,0,0,0,-1,1133,1471,0,0
-84,-447,0,0,0,0,0,0,0,0,0,-1,1140,1471,0,0
-77,-447,0,0,0,0,0,0,0,0,0,-1,1147,1471,0,0
-70,-447,0,0,0,0,0,0,0,0,0,-1,1154,1471,0,0
-63,-447,0,0,0,0,0,0,0,0,0,-1,1161,1471,0,0
-56,-447,0,0,0,0,0,0,0,0,0,-1,1168,1471,0,0
-49,-447,0,0,0,0,0,0,0,0,0,-1,1175,1471,0,0
-42,-447,0,0,0,0,0,0,0,0,0,-1,1182,1471,0,0
-35,-447,0,0,0,0,0,0,0,0,0,-1,1189,1471,0,0
-28,-447,0,0,0,0,0,0,0,0,0,-1,1196,1471,0,0
-21,-447,0,0,0,0,0,0,0,0,0,-1,1203,1471,0,0
-14,-447,0,0,0,0,0,0,0,0,0,-1,1210,1471,0,0
-7,-447,0,0,0,0,0,0,0,0,0,-1,1217,1471,0,0
0,-447,0,0,0,0,0,0,0,0,0,-1,1224,1471,0,0
7,-447,0,0,0,0,0,0,0,0,0,-1,1231,1471,0,0
14,-447,0,0,0,0,0,0,0,0,0,-1,1238,1471,0,0
21,-447,0,0,0,0,0,0,0,0,0,-1,1245,1471,0,0
28,-447,0,0,0,0,0,0,0,0,0,-1,1252,1471,0,0
35,-447,0,0,0,0,0,0,0,0,0,-1,1259,1471,0,0
42,-447,0,0,0,0,0,0,0,0,0,-1,1266,1471,0,0
49,-447,0,0,0,0,0,0,0,0,0,-1,1273,1471,0,0
56,-447,0,0,0,0,0,0,0,0,0,-1,1280,1471,0,0
63,-447,0,0,0,0,0,0,0,0,0,-1,1287,1471,0,0
70,-447,0,0,0,0,0,0,0,0,0,-1,1294,1471,0,0
77,-447,0,0,0,0,0,0,0,0,0,-1,1301,1471,0,0
84,-447,0,0,0,0,0,0,0,0,0,-1,1308,1471,0,0
91,-447,0,0,0,0,0,0,0,0,0,-1,1315,1471,0,0
98,-447,0,0,0,0,0,0,0,0,0,-1,1322,1471,0,0
105,-447,0,0,0,0,0,0,0,0,0,-1,1329,1471,0,0
112,-447,0,0,0,0,0,0,0,0,0,-1,1336,1471,0,0
119,-447,0,0,0,0,0,0,0,0,0,-1,1343,1471,0,0
126,-447,0,0,0,0,0,0,0,0,0,-1,1350,1471,0,0
133,-447,0,0,0,0,0,0,0,0,0,-1,1357,1471,0,0
140,-447,0,0,0,0,0,0,0,0,0,-1,1364,1471,0,0
147,-447,0,0,0,0,0,0,0,0,0,-1,1371,1471,0,0
154,-447,0,0,0,0,0,0,0,0,0,-1,1378,1471,0,0
161,-447,0,0,0,0,0,0,0,0,0,-1,1385,1471,0,0
168,-447,0,0,0,0,0,0,0,0,0,-1,1392,1471,0,0
175,-447,0,0,0,0,0,0,0,0,0,-1,1399,1471,0,0
182,-447,0,0,0,0,0,0,0,0,0,-1,1406,1471,0,0
189,-447,0,0,0,0,0,0,0,0,0,-1,1413,1471,0,0
196,-447,0,0,0,0,0,0,0,0,0,-1,1420,1471,0,0
203,-447,0,0,0,0,0,0,0,0,0,-1,1427,1471,0,0
210,-447,0,0,0,0,0,0,0,0,0,-1,1434,1471,0,0
217,-447,0,0,0,0,0,0,0,0,0,-1,1441,1471,0,0
224,-447,0,0,0,0,0,0,0,0,0,-1,1448,1471,0,0
231,-447,0,0,0,0,0,0,0,0,0,-1,1455,1471,0,0
238,-447,0,0,0,0,0,0,0,0,0,-1,1462,1471,0,0
245,-447,0,0,0,0,0,0,0,0,0,-1,1469,1471,0,0
252,-447,0,0,0,0,0,0,0,0,0,-1,1476,1471,0,0
259,-447,0,0,0,0,0,0,0,0,0,-1,1483,1471,0,0
266,-447,0,0,0,0,0,0,0,0,0,-1,1490,1471,0,0
273,-447,0,0,0,0,0,0,0,0,0,-1,1497,1471,0,0
280,-447,0,0,0,0,0,0,0,0,0,-1,1504,1471,0,0
287,-447,0,0,0,0,0,0,0,0,0,-1,1511,1471,0,0
294,-447,0,0,0,0,0,0,0,0,0,-1,1518,1471,0,0
301,-447,0,0,0,0,0,0,0,0,0,-1,1525,1471,0,0
308,-447,0,0,0,0,0,0,0,0,0,-1,1532,1471,0,0
315,-447,0,0,0,0,0,0,0,0,0,-1,1539,1471,0,0
322,-447,0,0,0,0,0,0,0,0,0,-1,1546,1471,0,0
329,-447,0,0,0,0,0,0,0,0,0,-1,1553,1471,0,0
336,-447,0,0,0,0,0,0,0,0,0,-1,1560,1471,0,0
343,-447,0,0,0,0,0,0,0,0,0,-1,1567,1471,0,0
350,-447,0,0,0,0,0,0,0,0,0,-1,1574,1471,0,0
357,-447,0,0,0,0,0,0,0,0,0,-1,1581,1471,0,0
364,-447,0,0,0,0,0,0,0,0,0,-1,1588,1471,0,0
371,-447,0,0,0,0,0,0,0,0,0,-1,1595,1471,0,0
378,-447,0,0,0,0,0,0,0,0,0,-1,1602,1471,0,0
385,-447,0,0,0,0,0,0,0,0,0,-1,1609,1471,0,0
392,-447,0,0,0,0,0,0,0,0,0,-1,1616,1471,0,0
399,-447,0,0,0,0,0,0,0,0,0,-1,1623,1471,0,0
406,-447,0,0,0,0,0,0,0,0,0,-1,1630,1471,0,0
413,-447,0,0,0,0,0,0,0,0,0,-1,1637,1471,0,0
420,-447,0,0,0,0,0,0,0,0,0,-1,1644,1471,0,0
427,-447,0,0,0,0,0,0,0,0,0,-1,1651,1471,0,0
434,-447,0,0,0,0,0,0,0,0,0,-1,1658,1471,0,0
441,-447,0,0,0,0,0,0,0,0,0,-1,1665,1471,0,0
448,-447,0,0,0,0,0,0,0,0,0,-1,1672,1471,0,0
455,-447,0,0,0,0,0,0,0,0,0,-1,1679,1471,0,0
462,-447,0,0,0,0,0,0,0,0,0,-1,1686,1471,0,0
469,-447,0,0,0,0,0,0,0,0,0,-1,1693,1471,0,0
476,-447,0,0,0,0,0,0,0,0,0,-1,1700,1471,0,0
483,-447,0,0,0,0,0,0,0,0,0,-1,1707,1471,0,0
490,-447,18.2214,-0.810303,0,0,0,0,0,0,0,-1,1714,1471,18.2215,0.810307
497,-447,17.0237,0.352417,0,0,0,0,0,0,0,-1,1721,1471,17.0237,-0.352442
504,-447,15.8998,1.53479,0,0,0,0,0,0,0,-1,1728,1471,15.8997,-1.53478
511,-447,14.7201,2.76111,0,0,0,0,0,0,0,-1,1735,1471,14.7201,-2.76107
518,-447,17.7618,13.2864,0,0,0,0,0,0,0,-1,1742,1471,17.7619,-13.2863
525,-447,17.1191,11.9014,0,0,0,0,0,0,0,-1,1749,1471,17.1191,-11.9013
532,-447,16.3959,10.0455,0,0,0,0,0,0,0,-1,1756,1471,16.3959,-10.0456
539,-447,15.5768,8.48901,0,0,0,0,0,0,0,-1,1763,1471,15.5767,-8.48897
546,-447,12.0844,9.17847,0,0,0,0,0,0,0,-1,1770,1471,12.0843,-9.17849
553,-447,11.8539,9.01233,0,0,0,0,0,0,0,-1,1777,1471,11.8539,-9.01228
560,-447,11.6234,8.84607,0,0,0,0,0,0,0,-1,1784,1471,11.6234,-8.84607
567,-447,12.1381,8.97571,-0.0268655,-0.00460805,0.011797,0.000481054,-0.0319546,1.16353,0.0214652,0.0458852,1791,1471,12.1381,-8.97573
574,-447,11.9727,9.01135,-0.0205382,-0.00698001,0.0106996,-0.00109274,-0.0264255,1.06777,0.0172643,0.0326649,1798,1471,11.9726,-9.01134
581,-447,11.8417,9.0166,-0.0145445,-0.00727739,0.00889226,-0.00130494,-0.0205169,0.979355,0.0132644,0.0160377,1805,1471,11.8416,-9.01661
588,-447,11.8505,8.78271,-0.00978686,-0.00605265,0.00688719,-0.000783964,-0.0150555,0.917766,0.00978618,0.0134938,1812,1471,11.8504,-8.78268
595,-447,11.8328,8.54565,-0.00668621,-0.00476247,0.00509291,-0.0005414,-0.0109073,0.878731,0.00709794,0.0113742,1819,1471,11.8327,-8.5457
602,-447,11.8348,8.3092,-0.00476707,-0.00348497,0.00385343,-0.000219633,-0.0080324,0.867823,0.00528324,0.0101323,1826,1471,11.8349,-8.30915
609,-447,11.8361,8.08569,-0.00326679,-0.00261286,0.00267466,-0.00024525,-0.0056344,0.846219,0.00367724,0.0115935,1833,1471,11.8361,-8.08574
616,-447,11.8668,7.87952,-0.00183986,-0.00207711,0.0017389,-0.000215548,-0.00370142,0.751342,0.002399,0.0132878,1840,1471,11.8668,-7.87946
623,-447,11.8647,7.68396,-0.000497699,-0.00197595,0.00103935,3.85415e-05,-0.00251219,0.476316,0.00168779,0.0153567,1847,1471,11.8647,-7.68396
630,-447,11.8317,7.44226,0.000637261,-0.0023988,0.000550904,0.000734134,-0.00249567,0.174063,0.00195499,0.00922998,1854,1471,11.8317,-7.44229
637,-447,11.8503,7.21033,0.00162941,-0.00320279,0.000264936,0.00164389,-0.00321727,0.054609,0.00285518,0.00962933,1861,1471,11.8504,-7.21037
644,-447,11.8716,6.99988,0.00250617,-0.00449202,0.000255553,0.00251549,-0.00450134,0.0364523,0.0041049,0.00955764,1868,1471,11.8716,-6.99985
651,-447,11.8938,6.75769,0.00306583,-0.00626472,0.000638104,0.00310927,-0.00630816,0.0679669,0.00554072,0.0183693,1875,1471,11.8938,-6.75769
658,-447,11.812,6.58228,0.0030146,-0.00886493,0.00160678,0.00322809,-0.00907842,0.132094,0.00736792,0.0287095,1882,1471,11.812,-6.58223
665,-447,11.8136,6.40161,0.00248875,-0.0126374,0.00330502,0.00317935,-0.013328,0.205993,0.0101131,0.0465124,1889,1471,11.8136,-6.40159
672,-447,11.5771,6.67773,0,0,0,0,0,0,0,-1,1896,1471,11.5771,-6.6777
679,-447,11.5883,6.08789,0,0,0,0,0,0,0,-1,1903,1471,11.5882,-6.08793
686,-447,9.81079,4.30859,0,0,0,0,0,0,0,-1,1910,1471,9.8108,-4.30864
693,-447,10.48,2.08643,0,0,0,0,0,0,0,-1,1917,1471,10.48,-2.08642
700,-447,0,0,0,0,0,0,0,0,0,-1,1924,1471,0,0
707,-447,0,0,0,0,0,0,0,0,0,-1,1931,1471,0,0
714,-447,0,0,0,0,0,0,0,0,0,-1,1938,1471,0,0
721,-447,0,0,0,0,0,0,0,0,0,-1,1945,1471,0,0
728,-447,0,0,0,0,0,0,0,0,0,-1,1952,1471,0,0
735,-447,0,0,0,0,0,0,0,0,0,-1,1959,1471,0,0
742,-447,0,0,0,0,0,0,0,0,0,-1,1966,1471,0,0
749,-447,0,0,0,0,0,0,0,0,0,-1,1973,1471,0,0
756,-447,0,0,0,0,0,0,0,0,0,-1,1980,1471,0,0
763,-447,0,0,0,0,0,0,0,0,0,-1,1987,1471,0,0
770,-447,0,0,0,0,0,0,0,0,0,-1,1994,1471,0,0
777,-447,0,0,0,0,0,0,0,0,0,-1,2001,1471,0,0
784,-447,0,0,0,0,0,0,0,0,0,-1,2008,1471,0,0
791,-447,0,0,0,0,0,0,0,0,0,-1,2015,1471,0,0
798,-447,0,0,0,0,0,0,0,0,0,-1,2022,1471,0,0
805,-447,0,0,0,0,0,0,0,0,0,-1,2029,1471,0,0
812,-447,0,0,0,0,0,0,0,0,0,-1,2036,1471,0,0
-700,-454,0,0,0,0,0,0,0,0,0,-1,524,1478,0,0
-693,-454,0,0,0,0,0,0,0,0,0,-1,531,1478,0,0
-686,-454,0,0,0,0,0,0,0,0,0,-1,538,1478,0,0
-679,-454,0,0,0,0,0,0,0,0,0,-1,545,1478,0,0
-672,-454,0,0,0,0,0,0,0,0,0,-1,552,1478,0,0
-665,-454,0,0,0,0,0,0,0,0,0,-1,559,1478,0,0
-658,-454,0,0,0,0,0,0,0,0,0,-1,566,1478,0,0
-651,-454,0,0,0,0,0,0,0,0,0,-1,573,1478,0,0
-644,-454,0,0,0,0,0,0,0,0,0,-1,580,1478,0,0
-637,-454,0,0,0,0,0,0,0,0,0,-1,587,1478,0,0
-630,-454,0,0,0,0,0,0,0,0,0,-1,594,1478,0,0
-623,-454,0,0,0,0,0,0,0,0,0,-1,601,1478,0,0
-616,-454,0,0,0,0,0,0,0,0,0,-1,608,1478,0,0
-609,-454,0,0,0,0,0,0,0,0,0,-1,615,1478,0,0
-602,-454,0,0,0,0,0,0,0,0,0,-1,622,1478,0,0
-595,-454,0,0,0,0,0,0,0,0,0,-1,629,1478,0,0
-588,-454,0,0,0,0,0,0,0,0,0,-1,636,1478,0,0
-581,-454,0,0,0,0,0,0,0,0,0,-1,643,1478,0,0
-574,-454,-8.4881,-0.465942,0,0,0,0,0,0,0,-1,650,1478,-8.4881,0.465885
-567,-454,-8.10046,0.922974,0,0,0,0,0,0,0,-1,657,1478,-8.10047,-0.923034
-560,-454,-6.84265,1.96936,0,0,0,0,0,0,0,-1,664,1478,-6.84264,-1.96934
-553,-454,-6.5509,-1.11816,0,0,0,0,0,0,0,-1,671,1478,-6.55093,1.11819
-546,-454,-4.67438,1.06018,0,0,0,0,0,0,0,-1,678,1478,-4.67435,-1.06019
-539,-454,-4.00513,3.35754,0.057924,0.0204745,0.0408616,0.0841468,-0.00574829,0.570552,0.0581088,0.0485369,685,1478,-4.00513,-3.3575
-532,-454,-3.1474,3.78967,0.0439447,0.0166611,0.0329044,0.0659231,-0.00531735,0.588888,0.0458241,0.0434748,692,1478,-3.14741,-3.7897
-525,-454,-2.53351,4.24121,0.0328141,0.0131736,0.0258663,0.0506616,-0.00467387,0.603976,0.0354352,0.0374151,699,1478,-2.53351,-4.24126
-518,-454,-2.52679,5.03601,0.0241085,0.0101009,0.0198406,0.0381452,-0.00393578,0.615723,0.0268384,0.0274801,706,1478,-2.52681,-5.03603
-511,-454,-2.59991,5.17932,0.0173968,0.00748589,0.0148161,0.0280642,-0.00318153,0.624015,0.0198551,0.0179534,713,1478,-2.59991,-5.1793
-504,-454,-2.57941,5.47119,0.0121055,0.00537923,0.0107479,0.0200042,-0.00251941,0.633768,0.0142504,0.0152807,720,1478,-2.57943,-5.47125
-497,-454,-2.56256,5.75037,0.00820321,0.00342951,0.00715252,0.0133566,-0.00172391,0.624355,0.00953116,0.019489,727,1478,-2.56258,-5.75033
-490,-454,-2.57172,5.98328,0.00521894,0.001211,0.00379593,0.0075074,-0.00107746,0.542529,0.00540004,0.0177334,734,1478,-2.57173,-5.98332
-483,-454,-2.58881,6.2179,0.00302157,-0.000719937,0.000888523,0.00322185,-0.00092022,0.221706,0.00251148,0.0155872,741,1478,-2.58883,-6.21791
-476,-454,-2.60199,6.44397,0.00176581,-0.00307588,-0.00139026,0.00213662,-0.00344669,-0.26065,0.00325297,0.0129646,748,1478,-2.60199,-6.44395
-469,-454,-2.58771,6.68872,0.00126946,-0.00593541,-0.00389563,0.00297301,-0.00763896,-0.412241,0.00632115,0.00950843,755,1478,-2.58771,-6.68874
-462,-454,-2.60583,6.92493,0.00128637,-0.00925218,-0.00642524,0.00432666,-0.0122925,-0.441963,0.00995569,0.0100118,762,1478,-2.60586,-6.92498
-455,-454,-2.62677,7.1676,0.00149429,-0.0132011,-0.00883744,0.00563959,-0.0173464,-0.438592,0.0138328,0.0110138,769,1478,-2.62676,-7.16757
-448,-454,-2.61829,7.42126,0.00188294,-0.0182164,-0.0116483,0.00721765,-0.0235511,-0.429472,0.0185799,0.0123255,776,1478,-2.61827,-7.4213
-441,-454,-2.47156,7.67029,0.00215713,-0.0245162,-0.0150244,0.00891025,-0.0312693,-0.422419,0.0243655,0.02267,783,1478,-2.47156,-7.67034
-434,-454,-2.25049,7.78528,0.00215746,-0.0322528,-0.0190239,0.0106024,-0.0406977,-0.41778,0.0312709,0.0324879,790,1478,-2.25048,-7.78533
-427,-454,-2.19714,7.66113,0.00189416,-0.0416874,-0.0236743,0.0122796,-0.0520729,-0.413401,0.0394507,0.0442063,797,1478,-2.19716,-7.66111
-420,-454,-2.33136,7.28699,0.00108128,-0.0529827,-0.0289508,0.0136584,-0.0655597,-0.40983,0.0488993,0.0464968,804,1478,-2.33138,-7.28705
-413,-454,-2.54333,6.67371,-0.000573466,-0.0659892,-0.0347087,0.0144104,-0.0809731,-0.407534,0.0593714,0.0478064,811,1478,-2.54334,-6.67371
-406,-454,-2.78772,6.05835,0,0,0,0,0,0,0,-1,818,1478,-2.7877,-6.05833
-399,-454,-1.21033,6.95447,0,0,0,0,0,0,0,-1,825,1478,-1.21035,-6.95452
-392,-454,0.0967407,0.985474,0,0,0,0,0,0,0,-1,832,1478,0.0967364,-0.985529
-385,-454,2.38629,3.297,0,0,0,0,0,0,0,-1,839,1478,2.38629,-3.29702
-378,-454,-15.9756,2.83997,0,0,0,0,0,0,0,-1,846,1478,-15.9756,-2.83994
-371,-454,-17.2753,2.01453,0,0,0,0,0,0,0,-1,853,1478,-17.2753,-2.01455
-364,-454,1.08124,0.819458,0,0,0,0,0,0,0,-1,860,1478,1.08124,-0.819513
-357,-454,0,0,0,0,0,0,0,0,0,-1,867,1478,0,0
-350,-454,0,0,0,0,0,0,0,0,0,-1,874,1478,0,0
-343,-454,0,0,0,0,0,0,0,0,0,-1,881,1478,0,0
-336,-454,0,0,0,0,0,0,0,0,0,-1,888,1478,0,0
-329,-454,0,0,0,0,0,0,0,0,0,-1,895,1478,0,0
-322,-454,0,0,0,0,0,0,0,0,0,-1,902,1478,0,0
-315,-454,0,0,0,0,0,0,0,0,0,-1,909,1478,0,0
-308,-454,0,0,0,0,0,0,0,0,0,-1,916,1478,0,0
-301,-454,0,0,0,0,0,0,0,0,0,-1,923,1478,0,0
-294,-454,0,0,0,0,0,0,0,0,0,-1,930,1478,0,0
-287,-454,0,0,0,0,0,0,0,0,0,-1,937,1478,0,0
-280,-454,0,0,0,0,0,0,0,0,0,-1,944,1478,0,0
-273,-454,0,0,0,0,0,0,0,0,0,-1,951,1478,0,0
-266,-454,0,0,0,0,0,0,0,0,0,-1,958,1478,0,0
-259,-454,0,0,0,0,0,0,0,0,0,-1,965,1478,0,0
-252,-454,0,0,0,0,0,0,0,0,0,-1,972,1478,0,0
-245,-454,0,0,0,0,0,0,0,0,0,-1,979,1478,0,0
-238,-454,0,0,0,0,0,0,0,0,0,-1,986,1478,0,0
-231,-454,0,0,0,0,0,0,0,0,0,-1,993,1478,0,0
-224,-454,0,0,0,0,0,0,0,0,0,-1,1000,1478,0,0
-217,-454,0,0,0,0,0,0,0,0,0,-1,1007,1478,0,0
-210,-454,0,0,0,0,0,0,0,0,0,-1,1014,1478,0,0
-203,-454,0,0,0,0,0,0,0,0,0,-1,1021,1478,0,0
-196,-454,0,0,0,0,0,0,0,0,0,-1,1028,1478,0,0
-189,-454,0,0,0,0,0,0,0,0,0,-1,1035,1478,0,0
-182,-454,0,0,0,0,0,0,0,0,0,-1,1042,1478,0,0
-175,-454,0,0,0,0,0,0,0,0,0,-1,1049,1478,0,0
-168,-454,0,0,0,0,0,0,0,0,0,-1,1056,1478,0,0
-161,-454,0,0,0,0,0,0,0,0,0,-1,1063,1478,0,0
-154,-454,0,0,0,0,0,0,0,0,0,-1,1070,1478,0,0
-147,-454,0,0,0,0,0,0,0,0,0,-1,1077,1478,0,0
-140,-454,0,0,0,0,0,0,0,0,0,-1,1084,1478,0,0
-133,-454,0,0,0,0,0,0,0,0,0,-1,1091,1478,0,0
-126,-454,0,0,0,0,0,0,0,0,0,-1,1098,1478,0,0
-119,-454,0,0,0,0,0,0,0,0,0,-1,1105,1478,0,0
-112,-454,0,0,0,0,0,0,0,0,0,-1,1112,1478,0,0
-105,-454,0,0,0,0,0,0,0,0,0,-1,1119,1478,0,0
-98,-454,0,0,0,0,0,0,0,0,0,-1,1126,1478,0,0
-91,-454,0,0,0,0,0,0,0,0,0,-1,1133,1478,0,0
-84,-454,0,0,0,0,0,0,0,0,0,-1,1140,1478,0,0
-77,-454,0,0,0,0,0,0,0,0,0,-1,1147,1478,0,0
-70,-454,0,0,0,0,0,0,0,0,0,-1,1154,1478,0,0
-63,-454,0,0,0,0,0,0,0,0,0,-1,1161,1478,0,0
-56,-454,0,0,0,0,0,0,0,0,0,-1,1168,1478,0,0
-49,-454,0,0,0,0,0,0,0,0,0,-1,1175,1478,0,0
-42,-454,0,0,0,0,0,0,0,0,0,-1,1182,1478,0,0
-35,-454,0,0,0,0,0,0,0,0,0,-1,1189,1478,0,0
-28,-454,0,0,0,0,0,0,0,0,0,-1,1196,1478,0,0
-21,-454,0,0,0,0,0,0,0,0,0,-1,1203,1478,0,0
-14,-454,0,0,0,0,0,0,0,0,0,-1,1210,1478,0,0
-7,-454,0,0,0,0,0,0,0,0,0,-1,1217,1478,0,0
0,-454,0,0,0,0,0,0,0,0,0,-1,1224,1478,0,0
7,-454,0,0,0,0,0,0,0,0,0,-1,1231,1478,0,0
14,-454,0,0,0,0,0,0,0,0,0,-1,1238,1478,0,0
21,-454,0,0,0,0,0,0,0,0,0,-1,1245,1478,0,0
28,-454,0,0,0,0,0,0,0,0,0,-1,1252,1478,0,0
35,-454,0,0,0,0,0,0,0,0,0,-1,1259,1478,0,0
42,-454,0,0,0,0,0,0,0,0,0,-1,1266,1478,0,0
49,-454,0,0,0,0,0,0,0,0,0,-1,1273,1478,0,0
56,-454,0,0,0,0,0,0,0,0,0,-1,1280,1478,0,0
63,-454,0,0,0,0,0,0,0,0,0,-1,1287,1478,0,0
70,-454,0,0,0,0,0,0,0,0,0,-1,1294,1478,0,0
77,-454,0,0,0,0,0,0,0,0,0,-1,1301,1478,0,0
84,-454,0,0,0,0,0,0,0,0,0,-1,1308,1478,0,0
91,-454,0,0,0,0,0,0,0,0,0,-1,1315,1478,0,0
98,-454,0,0,0,0,0,0,0,0,0,-1,1322,1478,0,0
105,-454,0,0,0,0,0,0,0,0,0,-1,1329,1478,0,0
112,-454,0,0,0,0,0,0,0,0,0,-1,1336,1478,0,0
119,-454,0,0,0,0,0,0,0,0,0,-1,1343,1478,0,0
126,-454,0,0,0,0,0,0,0,0,0,-1,1350,1478,0,0
133,-454,0,0,0,0,0,0,0,0,0,-1,1357,1478,0,0
140,-454,0,0,0,0,0,0,0,0,0,-1,1364,1478,0,0
147,-454,0,0,0,0,0,0,0,0,0,-1,1371,1478,0,0
154,-454,0,0,0,0,0,0,0,0,0,-1,1378,1478,0,0
161,-454,0,0,0,0,0,0,0,0,0,-1,1385,1478,0,0
168,-454,0,0,0,0,0,0,0,0,0,-1,1392,1478,0,0
175,-454,0,0,0,0,0,0,0,0,0,-1,1399,1478,0,0
182,-454,0,0,0,0,0,0,0,0,0,-1,1406,1478,0,0
189,-454,0,0,0,0,0,0,0,0,0,-1,1413,1478,0,0
196,-454,0,0,0,0,0,0,0,0,0,-1,1420,1478,0,0
203,-454,0,0,0,0,0,0,0,0,0,-1,1427,1478,0,0
210,-454,0,0,0,0,0,0,0,0,0,-1,1434,1478,0,0
217,-454,0,0,0,0,0,0,0,0,0,-1,1441,1478,0,0
224,-454,0,0,0,0,0,0,0,0,0,-1,1448,1478,0,0
231,-454,0,0,0,0,0,0,0,0,0,-1,1455,1478,0,0
238,-454,0,0,0,0,0,0,0,0,0,-1,1462,1478,0,0
245,-454,0,0,0,0,0,0,0,0,0,-1,1469,1478,0,0
252,-454,0,0,0,0,0,0,0,0,0,-1,1476,1478,0,0
259,-454,0,0,0,0,0,0,0,0,0,-1,1483,1478,0,0
266,-454,0,0,0,0,0,0,0,0,0,-1,1490,1478,0,0
273,-454,0,0,0,0,0,0,0,0,0,-1,1497,1478,0,0
280,-454,0,0,0,0,0,0,0,0,0,-1,1504,1478,0,0
287,-454,0,0,0,0,0,0,0,0,0,-1,1511,1478,0,0
294,-454,0,0,0,0,0,0,0,0,0,-1,1518,1478,0,0
301,-454,0,0,0,0,0,0,0,0,0,-1,1525,1478,0,0
308,-454,0,0,0,0,0,0,0,0,0,-1,1532,1478,0,0
315,-454,0,0,0,0,0,0,0,0,0,-1,1539,1478,0,0
322,-454,0,0,0,0,0,0,0,0,0,-1,1546,1478,0,0
329,-454,0,0,0,0,0,0,0,0,0,-1,1553,1478,0,0
336,-454,0,0,0,0,0,0,0,0,0,-1,1560,1478,0,0
343,-454,0,0,0,0,0,0,0,0,0,-1,1567,1478,0,0
350,-454,0,0,0,0,0,0,0,0,0,-1,1574,1478,0,0
357,-454,0,0,0,0,0,0,0,0,0,-1,1581,1478,0,0
364,-454,0,0,0,0,0,0,0,0,0,-1,1588,1478,0,0
371,-454,0,0,0,0,0,0,0,0,0,-1,1595,1478,0,0
378,-454,0,0,0,0,0,0,0,0,0,-1,1602,1478,0,0
385,-454,0,0,0,0,0,0,0,0,0,-1,1609,1478,0,0
392,-454,0,0,0,0,0,0,0,0,0,-1,1616,1478,0,0
399,-454,0,0,0,0,0,0,0,0,0,-1,1623,1478,0,0
406,-454,0,0,0,0,0,0,0,0,0,-1,1630,1478,0,0
413,-454,0,0,0,0,0,0,0,0,0,-1,1637,1478,0,0
420,-454,0,0,0,0,0,0,0,0,0,-1,1644,1478,0,0
427,-454,0,0,0,0,0,0,0,0,0,-1,1651,1478,0,0
434,-454,0,0,0,0,0,0,0,0,0,-1,1658,1478,0,0
441,-454,0,0,0,0,0,0,0,0,0,-1,1665,1478,0,0
448,-454,0,0,0,0,0,0,0,0,0,-1,1672,1478,0,0
455,-454,0,0,0,0,0,0,0,0,0,-1,1679,1478,0,0
462,-454,0,0,0,0,0,0,0,0,0,-1,1686,1478,0,0
469,-454,0,0,0,0,0,0,0,0,0,-1,1693,1478,0,0
476,-454,0,0,0,0,0,0,0,0,0,-1,1700,1478,0,0
483,-454,14.2399,3.97498,0,0,0,0,0,0,0,-1,1707,1478,14.2399,-3.97502
490,-454,18.1821,-0.175781,0,0,0,0,0,0,0,-1,1714,1478,18.1821,0.175822
497,-454,16.8854,1.01208,0,0,0,0,0,0,0,-1,1721,1478,16.8854,-1.01209
504,-454,15.587,2.05994,0,0,0,0,0,0,0,-1,1728,1478,15.5871,-2.05998
511,-454,17.0273,14.5258,0,0,0,0,0,0,0,-1,1735,1478,17.0273,-14.5258
518,-454,16.4158,13.1039,-0.0781746,0.0484357,0.00210328,0.0484706,-0.0782095,1.55419,0.0738075,0.0467678,1742,1478,16.4157,-13.1038
525,-454,15.7842,11.6628,-0.0727612,0.0368247,0.0049093,0.0370442,-0.0729807,1.52612,0.0646425,0.0464677,1749,1478,15.7841,-11.6629
532,-454,15.1094,10.2476,0,0,0,0,0,0,0,-1,1756,1478,15.1094,-10.2475
539,-454,14.4884,9.00598,0,0,0,0,0,0,0,-1,1763,1478,14.4884,-9.00602
546,-454,11.8816,9.5752,0,0,0,0,0,0,0,-1,1770,1478,11.8815,-9.57524
553,-454,11.6692,9.37622,0,0,0,0,0,0,0,-1,1777,1478,11.6692,-9.37628
560,-454,11.4569,9.17737,0,0,0,0,0,0,0,-1,1784,1478,11.4569,-9.17732
567,-454,11.6884,9.40454,-0.0223925,-0.00345447,0.00966685,0.000608336,-0.0264553,1.17293,0.0178431,0.0294374,1791,1478,11.6884,-9.40458
574,-454,11.646,9.14502,-0.0168306,-0.00511041,0.00846183,-0.000677628,-0.0212634,1.08825,0.0139552,0.0147396,1798,1478,11.646,-9.14505
581,-454,11.6459,8.95081,-0.0116098,-0.00532784,0.00678683,-0.000990398,-0.0159472,1.00212,0.0103172,0.0119675,1805,1478,11.6459,-8.9508
588,-454,11.6349,8.76074,-0.00731683,-0.00443109,0.0051788,-0.000497921,-0.01125,0.921259,0.00733966,0.0133208,1812,1478,11.6348,-8.76077
595,-454,11.6068,8.55066,-0.00462969,-0.00335258,0.00364249,-0.000293101,-0.00768917,0.87217,0.00503126,0.0116434,1819,1478,11.6068,-8.55061
602,-454,11.6157,8.30994,-0.00310563,-0.00225872,0.00251501,-0.000131763,-0.00523259,0.868801,0.00344531,0.00812885,1826,1478,11.6158,-8.30998
609,-454,11.6274,8.08704,-0.00195414,-0.00148906,0.00131798,-0.000383267,-0.00305994,0.872718,0.00192496,0.00976936,1833,1478,11.6275,-8.08701
616,-454,11.6479,7.86926,-0.000862037,-0.000934157,0.000317568,-0.000578488,-0.00121771,0.728865,0.000703334,0.0131355,1840,1478,11.6479,-7.86929
623,-454,11.6569,7.66333,0.000181283,-0.000779092,-0.000543641,0.00042644,-0.00102425,-0.423648,0.000860935,0.0116214,1847,1478,11.6569,-7.66327
630,-454,11.6349,7.44849,0.00108588,-0.00103848,-0.00134391,0.00173668,-0.00168929,-0.450979,0.00197805,0.0104939,1854,1478,11.6348,-7.44846
637,-454,11.6246,7.23486,0.00193562,-0.00165484,-0.00207155,0.00288158,-0.0026008,-0.428368,0.00316664,0.00977488,1861,1478,11.6247,-7.23486
644,-454,11.6796,7.01184,0.00277651,-0.0027034,-0.00267688,0.00386709,-0.00379399,-0.386877,0.0044232,0.0149679,1868,1478,11.6795,-7.01188
651,-454,11.5623,6.83838,0.00337692,-0.00418584,-0.00301837,0.00443387,-0.00524279,-0.336827,0.00559332,0.0271212,1875,1478,11.5622,-6.83838
658,-454,11.5447,6.59033,0.00351582,-0.00652273,-0.00296824,0.0043278,-0.00733472,-0.267025,0.00680755,0.036275,1882,1478,11.5447,-6.59031
665,-454,11.6847,6.36902,0.00346771,-0.00982177,-0.00245774,0.00390768,-0.0102617,-0.177136,0.00845045,0.0490018,1889,1478,11.6847,-6.36898
672,-454,11.7716,6.03357,0,0,0,0,0,0,0,-1,1896,1478,11.7717,-6.03353
679,-454,12.3354,3.91602,0,0,0,0,0,0,0,-1,1903,1478,12.3354,-3.91597
686,-454,10.3767,2.12842,0,0,0,0,0,0,0,-1,1910,1478,10.3767,-2.12839
693,-454,11.1857,1.48486,0,0,0,0,0,0,0,-1,1917,1478,11.1857,-1.48487
700,-454,0,0,0,0,0,0,0,0,0,-1,1924,1478,0,0
707,-454,0,0,0,0,0,0,0,0,0,-1,1931,1478,0,0
714,-454,0,0,0,0,0,0,0,0,0,-1,1938,1478,0,0
721,-454,0,0,0,0,0,0,0,0,0,-1,1945,1478,0,0
728,-454,0,0,0,0,0,0,0,0,0,-1,1952,1478,0,0
735,-454,0,0,0,0,0,0,0,0,0,-1,1959,1478,0,0
742,-454,0,0,0,0,0,0,0,0,0,-1,1966,1478,0,0
749,-454,0,0,0,0,0,0,0,0,0,-1,1973,1478,0,0
756,-454,0,0,0,0,0,0,0,0,0,-1,1980,1478,0,0
763,-454,0,0,0,0,0,0,0,0,0,-1,1987,1478,0,0
770,-454,0,0,0,0,0,0,0,0,0,-1,1994,1478,0,0
777,-454,0,0,0,0,0,0,0,0,0,-1,2001,1478,0,0
784,-454,0,0,0,0,0,0,0,0,0,-1,2008,1478,0,0
791,-454,0,0,0,0,0,0,0,0,0,-1,2015,1478,0,0
798,-454,0,0,0,0,0,0,0,0,0,-1,2022,1478,0,0
805,-454,0,0,0,0,0,0,0,0,0,-1,2029,1478,0,0
812,-454,0,0,0,0,0,0,0,0,0,-1,2036,1478,0,0
-700,-461,0,0,0,0,0,0,0,0,0,-1,524,1485,0,0
-693,-461,0,0,0,0,0,0,0,0,0,-1,531,1485,0,0
-686,-461,0,0,0,0,0,0,0,0,0,-1,538,1485,0,0
-679,-461,0,0,0,0,0,0,0,0,0,-1,545,1485,0,0
-672,-461,0,0,0,0,0,0,0,0,0,-1,552,1485,0,0
-665,-461,0,0,0,0,0,0,0,0,0,-1,559,1485,0,0
-658,-461,0,0,0,0,0,0,0,0,0,-1,566,1485,0,0
-651,-461,0,0,0,0,0,0,0,0,0,-1,573,1485,0,0
-644,-461,0,0,0,0,0,0,0,0,0,-1,580,1485,0,0
-637,-461,0,0,0,0,0,0,0,0,0,-1,587,1485,0,0
-630,-461,0,0,0,0,0,0,0,0,0,-1,594,1485,0,0
-623,-461,0,0,0,0,0,0,0,0,0,-1,601,1485,0,0
-616,-461,0,0,0,0,0,0,0,0,0,-1,608,1485,0,0
-609,-461,0,0,0,0,0,0,0,0,0,-1,615,1485,0,0
-602,-461,0,0,0,0,0,0,0,0,0,-1,622,1485,0,0
-595,-461,0,0,0,0,0,0,0,0,0,-1,629,1485,0,0
-588,-461,0,0,0,0,0,0,0,0,0,-1,636,1485,0,0
-581,-461,0,0,0,0,0,0,0,0,0,-1,643,1485,0,0
-574,-461,0,0,0,0,0,0,0,0,0,-1,650,1485,0,0
-567,-461,-9.69031,0.513306,0,0,0,0,0,0,0,-1,657,1485,-9.69032,-0.513305
-560,-461,-7.28815,1.54004,0,0,0,0,0,0,0,-1,664,1485,-7.28817,-1.54005
-553,-461,-7.26569,-0.756714,0,0,0,0,0,0,0,-1,671,1485,-7.26571,0.756668
-546,-461,-2.99579,0.484985,0,0,0,0,0,0,0,-1,678,1485,-2.99581,-0.484932
-539,-461,-3.18542,2.62622,0,0,0,0,0,0,0,-1,685,1485,-3.18543,-2.62625
-532,-461,-2.71313,3.3739,0.047535,0.0183161,0.0372462,0.0729345,-0.00708337,0.598499,0.0511479,0.0411194,692,1485,-2.71314,-3.37396
-525,-461,-2.51318,3.86121,0.0355576,0.0144821,0.0293244,0.0561801,-0.00614039,0.612908,0.039659,0.0409481,699,1485,-2.5132,-3.86116
-518,-461,-2.35925,4.83984,0.0261109,0.0111493,0.0225174,0.0423576,-0.00509741,0.625022,0.0300818,0.0356237,706,1485,-2.35925,-4.8399
-511,-461,-2.30359,5.24219,0.0187783,0.00834186,0.0168335,0.0311838,-0.00406365,0.6351,0.0222677,0.0195726,713,1485,-2.30361,-5.24214
-504,-461,-2.34766,5.45679,0.0130689,0.00609742,0.012272,0.0223406,-0.00317431,0.647023,0.0160568,0.011451,720,1485,-2.34766,-5.45674
-497,-461,-2.32166,5.73804,0.00881996,0.00410949,0.00839951,0.0151882,-0.00225875,0.648708,0.0109563,0.0114256,727,1485,-2.32166,-5.73803
-490,-461,-2.34338,5.97229,0.0055487,0.00200417,0.0049089,0.00899546,-0.00144259,0.612164,0.00653116,0.0120636,734,1485,-2.34338,-5.97225
-483,-461,-2.34753,6.21411,0.00315655,0.000251437,0.00197863,0.00415855,-0.000750571,0.468767,0.00305347,0.0124639,741,1485,-2.34754,-6.21411
-476,-461,-2.35968,6.46729,0.00183303,-0.00188265,-0.000139233,0.00183823,-0.00188786,-0.0374018,0.00215133,0.0114963,748,1485,-2.35968,-6.46723
-469,-461,-2.35297,6.70911,0.00129395,-0.00451962,-0.00254699,0.00225195,-0.00547762,-0.35976,0.00459037,0.0126861,755,1485,-2.35297,-6.70906
-462,-461,-2.34882,6.92383,0.00138281,-0.00732173,-0.00482243,0.00352654,-0.00946547,-0.4183,0.00775778,0.0179938,762,1485,-2.34879,-6.92389
-455,-461,-2.33423,7.15808,0.00167689,-0.010662,-0.00675204,0.0046536,-0.0136387,-0.415228,0.0109775,0.0213967,769,1485,-2.33422,-7.15805
-448,-461,-2.33887,7.41846,0.00220802,-0.0148329,-0.0089295,0.00602994,-0.0186548,-0.404418,0.0148601,0.0180085,776,1485,-2.33884,-7.41843
-441,-461,-2.32214,7.67383,0.00271509,-0.019975,-0.0114801,0.00751011,-0.0247701,-0.395656,0.0195048,0.0147001,783,1485,-2.32215,-7.67383
-434,-461,-2.16504,7.86853,0.00296568,-0.0260787,-0.0145302,0.0089866,-0.0320997,-0.392836,0.0249409,0.0201894,790,1485,-2.16504,-7.86857
-427,-461,-2.09283,8.00891,0.00299764,-0.0334138,-0.0181115,0.0104722,-0.0408883,-0.391403,0.0313384,0.0274439,797,1485,-2.09283,-8.00896
-420,-461,-2.24896,7.91089,0.00257258,-0.0421356,-0.022224,0.0117401,-0.0513031,-0.391241,0.0387134,0.0444604,804,1485,-2.24894,-7.9109
-413,-461,-2.56995,7.89026,0.00144841,-0.0520096,-0.0267825,0.0125578,-0.063119,-0.393199,0.0468299,0.0491545,811,1485,-2.56997,-7.89027
-406,-461,-2.92688,7.66516,0,0,0,0,0,0,0,-1,818,1485,-2.92685,-7.66511
-399,-461,-0.411499,9.14136,0,0,0,0,0,0,0,-1,825,1485,-0.411481,-9.14138
-392,-461,-0.357544,5.55225,0,0,0,0,0,0,0,-1,832,1485,-0.357536,-5.55228
-385,-461,1.71509,3.35254,0,0,0,0,0,0,0,-1,839,1485,1.71511,-3.35255
-378,-461,1.95996,3.01111,0,0,0,0,0,0,0,-1,846,1485,1.95993,-3.01111
-371,-461,0.702881,2.33459,0,0,0,0,0,0,0,-1,853,1485,0.702859,-2.33459
-364,-461,-1.93097,2.56458,0,0,0,0,0,0,0,-1,860,1485,-1.93095,-2.56456
-357,-461,-2.41516,3.49487,0,0,0,0,0,0,0,-1,867,1485,-2.41517,-3.49487
-350,-461,0,0,0,0,0,0,0,0,0,-1,874,1485,0,0
-343,-461,0,0,0,0,0,0,0,0,0,-1,881,1485,0,0
-336,-461,0,0,0,0,0,0,0,0,0,-1,888,1485,0,0
-329,-461,0,0,0,0,0,0,0,0,0,-1,895,1485,0,0
-322,-461,0,0,0,0,0,0,0,0,0,-1,902,1485,0,0
-315,-461,0,0,0,0,0,0,0,0,0,-1,909,1485,0,0
-308,-461,0,0,0,0,0,0,0,0,0,-1,916,1485,0,0
-301,-461,0,0,0,0,0,0,0,0,0,-1,923,1485,0,0
-294,-461,0,0,0,0,0,0,0,0,0,-1,930,1485,0,0
-287,-461,0,0,0,0,0,0,0,0,0,-1,937,1485,0,0
-280,-461,0,0,0,0,0,0,0,0,0,-1,944,1485,0,0
-273,-461,0,0,0,0,0,0,0,0,0,-1,951,1485,0,0
-266,-461,0,0,0,0,0,0,0,0,0,-1,958,1485,0,0
-259,-461,0,0,0,0,0,0,0,0,0,-1,965,1485,0,0
-252,-461,0,0,0,0,0,0,0,0,0,-1,972,1485,0,0
-245,-461,0,0,0,0,0,0,0,0,0,-1,979,1485,0,0
-238,-461,0,0,0,0,0,0,0,0,0,-1,986,1485,0,0
-231,-461,0,0,0,0,0,0,0,0,0,-1,993,1485,0,0
-224,-461,0,0,0,0,0,0,0,0,0,-1,1000,1485,0,0
-217,-461,0,0,0,0,0,0,0,0,0,-1,1007,1485,0,0
-210,-461,0,0,0,0,0,0,0,0,0,-1,1014,1485,0,0
-203,-461,0,0,0,0,0,0,0,0,0,-1,1021,1485,0,0
-196,-461,0,0,0,0,0,0,0,0,0,-1,1028,1485,0,0
-189,-461,0,0,0,0,0,0,0,0,0,-1,1035,1485,0,0
-182,-461,0,0,0,0,0,0,0,0,0,-1,1042,1485,0,0
-175,-461,0,0,0,0,0,0,0,0,0,-1,1049,1485,0,0
-168,-461,0,0,0,0,0,0,0,0,0,-1,1056,1485,0,0
-161,-461,0,0,0,0,0,0,0,0,0,-1,1063,1485,0,0
-154,-461,0,0,0,0,0,0,0,0,0,-1,1070,1485,0,0
-147,-461,0,0,0,0,0,0,0,0,0,-1,1077,1485,0,0
-140,-461,0,0,0,0,0,0,0,0,0,-1,1084,1485,0,0
-133,-461,0,0,0,0,0,0,0,0,0,-1,1091,1485,0,0
-126,-461,0,0,0,0,0,0,0,0,0,-1,1098,1485,0,0
-119,-461,0,0,0,0,0,0,0,0,0,-1,1105,1485,0,0
-112,-461,0,0,0,0,0,0,0,0,0,-1,1112,1485,0,0
-105,-461,0,0,0,0,0,0,0,0,0,-1,1119,1485,0,0
-98,-461,0,0,0,0,0,0,0,0,0,-1,1126,1485,0,0
-91,-461,0,0,0,0,0,0,0,0,0,-1,1133,1485,0,0
-84,-461,0,0,0,0,0,0,0,0,0,-1,1140,1485,0,0
-77,-461,0,0,0,0,0,0,0,0,0,-1,1147,1485,0,0
-70,-461,0,0,0,0,0,0,0,0,0,-1,1154,1485,0,0
-63,-461,0,0,0,0,0,0,0,0,0,-1,1161,1485,0,0
-56,-461,0,0,0,0,0,0,0,0,0,-1,1168,1485,0,0
-49,-461,0,0,0,0,0,0,0,0,0,-1,1175,1485,0,0
-42,-461,0,0,0,0,0,0,0,0,0,-1,1182,1485,0,0
-35,-461,0,0,0,0,0,0,0,0,0,-1,1189,1485,0,0
-28,-461,0,0,0,0,0,0,0,0,0,-1,1196,1485,0,0
-21,-461,0,0,0,0,0,0,0,0,0,-1,1203,1485,0,0
-14,-461,0,0,0,0,0,0,0,0,0,-1,1210,1485,0,0
-7,-461,0,0,0,0,0,0,0,0,0,-1,1217,1485,0,0
0,-461,0,0,0,0,0,0,0,0,0,-1,1224,1485,0,0
7,-461,0,0,0,0,0,0,0,0,0,-1,1231,1485,0,0
14,-461,0,0,0,0,0,0,0,0,0,-1,1238,1485,0,0
21,-461,0,0,0,0,0,0,0,0,0,-1,1245,1485,0,0
28,-461,0,0,0,0,0,0,0,0,0,-1,1252,1485,0,0
35,-461,0,0,0,0,0,0,0,0,0,-1,1259,1485,0,0
42,-461,0,0,0,0,0,0,0,0,0,-1,1266,1485,0,0
49,-461,0,0,0,0,0,0,0,0,0,-1,1273,1485,0,0
56,-461,0,0,0,0,0,0,0,0,0,-1,1280,1485,0,0
63,-461,0,0,0,0,0,0,0,0,0,-1,1287,1485,0,0
70,-461,0,0,0,0,0,0,0,0,0,-1,1294,1485,0,0
77,-461,0,0,0,0,0,0,0,0,0,-1,1301,1485,0,0
84,-461,0,0,0,0,0,0,0,0,0,-1,1308,1485,0,0
91,-461,0,0,0,0,0,0,0,0,0,-1,1315,1485,0,0
98,-461,0,0,0,0,0,0,0,0,0,-1,1322,1485,0,0
105,-461,0,0,0,0,0,0,0,0,0,-1,1329,1485,0,0
112,-461,0,0,0,0,0,0,0,0,0,-1,1336,1485,0,0
119,-461,0,0,0,0,0,0,0,0,0,-1,1343,1485,0,0
126,-461,0,0,0,0,0,0,0,0,0,-1,1350,1485,0,0
133,-461,0,0,0,0,0,0,0,0,0,-1,1357,1485,0,0
140,-461,0,0,0,0,0,0,0,0,0,-1,1364,1485,0,0
147,-461,0,0,0,0,0,0,0,0,0,-1,1371,1485,0,0
154,-461,0,0,0,0,0,0,0,0,0,-1,1378,1485,0,0
161,-461,0,0,0,0,0,0,0,0,0,-1,1385,1485,0,0
168,-461,0,0,0,0,0,0,0,0,0,-1,1392,1485,0,0
175,-461,0,0,0,0,0,0,0,0,0,-1,1399,1485,0,0
182,-461,0,0,0,0,0,0,0,0,0,-1,1406,1485,0,0
189,-461,0,0,0,0,0,0,0,0,0,-1,1413,1485,0,0
196,-461,0,0,0,0,0,0,0,0,0,-1,1420,1485,0,0
203,-461,0,0,0,0,0,0,0,0,0,-1,1427,1485,0,0
210,-461,0,0,0,0,0,0,0,0,0,-1,1434,1485,0,0
217,-461,0,0,0,0,0,0,0,0,0,-1,1441,1485,0,0
224,-461,0,0,0,0,0,0,0,0,0,-1,1448,1485,0,0
231,-461,0,0,0,0,0,0,0,0,0,-1,1455,1485,0,0
238,-461,0,0,0,0,0,0,0,0,0,-1,1462,1485,0,0
245,-461,0,0,0,0,0,0,0,0,0,-1,1469,1485,0,0
252,-461,0,0,0,0,0,0,0,0,0,-1,1476,1485,0,0
259,-461,0,0,0,0,0,0,0,0,0,-1,1483,1485,0,0
266,-461,0,0,0,0,0,0,0,0,0,-1,1490,1485,0,0
273,-461,0,0,0,0,0,0,0,0,0,-1,1497,1485,0,0
280,-461,0,0,0,0,0,0,0,0,0,-1,1504,1485,0,0
287,-461,0,0,0,0,0,0,0,0,0,-1,1511,1485,0,0
294,-461,0,0,0,0,0,0,0,0,0,-1,1518,1485,0,0
301,-461,0,0,0,0,0,0,0,0,0,-1,1525,1485,0,0
308,-461,0,0,0,0,0,0,0,0,0,-1,1532,1485,0,0
315,-461,0,0,0,0,0,0,0,0,0,-1,1539,1485,0,0
322,-461,0,0,0,0,0,0,0,0,0,-1,1546,1485,0,0
329,-461,0,0,0,0,0,0,0,0,0,-1,1553,1485,0,0
336,-461,0,0,0,0,0,0,0,0,0,-1,1560,1485,0,0
343,-461,0,0,0,0,0,0,0,0,0,-1,1567,1485,0,0
350,-461,0,0,0,0,0,0,0,0,0,-1,1574,1485,0,0
357,-461,0,0,0,0,0,0,0,0,0,-1,1581,1485,0,0
364,-461,0,0,0,0,0,0,0,0,0,-1,1588,1485,0,0
371,-461,0,0,0,0,0,0,0,0,0,-1,1595,1485,0,0
378,-461,0,0,0,0,0,0,0,0,0,-1,1602,1485,0,0
385,-461,0,0,0,0,0,0,0,0,0,-1,1609,1485,0,0
392,-461,0,0,0,0,0,0,0,0,0,-1,1616,1485,0,0
399,-461,0,0,0,0,0,0,0,0,0,-1,1623,1485,0,0
406,-461,0,0,0,0,0,0,0,0,0,-1,1630,1485,0,0
413,-461,0,0,0,0,0,0,0,0,0,-1,1637,1485,0,0
420,-461,0,0,0,0,0,0,0,0,0,-1,1644,1485,0,0
427,-461,0,0,0,0,0,0,0,0,0,-1,1651,1485,0,0
434,-461,0,0,0,0,0,0,0,0,0,-1,1658,1485,0,0
441,-461,0,0,0,0,0,0,0,0,0,-1,1665,1485,0,0
448,-461,0,0,0,0,0,0,0,0,0,-1,1672,1485,0,0
455,-461,0,0,0,0,0,0,0,0,0,-1,1679,1485,0,0
462,-461,0,0,0,0,0,0,0,0,0,-1,1686,1485,0,0
469,-461,0,0,0,0,0,0,0,0,0,-1,1693,1485,0,0
476,-461,14.1906,0.690552,0,0,0,0,0,0,0,-1,1700,1485,14.1906,-0.690525
483,-461,10.6361,3.09106,0,0,0,0,0,0,0,-1,1707,1485,10.6361,-3.091
490,-461,17.9972,0.665894,0,0,0,0,0,0,0,-1,1714,1485,17.9972,-0.665876
497,-461,16.6829,1.87732,0,0,0,0,0,0,0,-1,1721,1485,16.6828,-1.87736
504,-461,15.3884,3.09216,0,0,0,0,0,0,0,-1,1728,1485,15.3885,-3.09212
511,-461,15.4292,14.3512,0,0,0,0,0,0,0,-1,1735,1485,15.4292,-14.3512
518,-461,14.9636,12.8644,-0.0698918,0.0360671,0.00925636,0.0368696,-0.0706943,1.48431,0.0631173,0.0438807,1742,1485,14.9636,-12.8644
525,-461,14.4229,11.4534,-0.0655039,0.0270134,0.0103666,0.0281608,-0.0666512,1.46057,0.0562232,0.0441794,1749,1485,14.4229,-11.4533
532,-461,14.0393,10.3086,0,0,0,0,0,0,0,-1,1756,1485,14.0393,-10.3086
539,-461,13.4374,9.53577,0,0,0,0,0,0,0,-1,1763,1485,13.4373,-9.53581
546,-461,11.4663,9.64954,0,0,0,0,0,0,0,-1,1770,1485,11.4663,-9.64953
553,-461,11.4615,9.52551,-0.0325558,0.00120479,0.0108367,0.00438386,-0.0357349,1.28544,0.0254109,0.0453396,1777,1485,11.4616,-9.52555
560,-461,11.3329,9.50378,-0.024935,-0.00132875,0.00955666,0.00205507,-0.0283189,1.23049,0.0196002,0.0327103,1784,1485,11.3328,-9.50373
567,-461,11.4326,9.36414,-0.0184048,-0.00266659,0.00803805,0.000713001,-0.0217844,1.17279,0.0147663,0.0144497,1791,1485,11.4326,-9.36415
574,-461,11.4404,9.14978,-0.0135913,-0.00373236,0.00675388,-0.000300346,-0.0170234,1.10065,0.0112501,0.014278,1798,1485,11.4404,-9.14984
581,-461,11.4437,8.94995,-0.00901463,-0.00389198,0.00516949,-0.000684076,-0.0122225,1.01541,0.00793018,0.0140796,1805,1485,11.4437,-8.94994
588,-461,11.415,8.77332,-0.0051684,-0.0031651,0.00373929,-0.00029562,-0.00803787,0.916262,0.00526281,0.0117394,1812,1485,11.4151,-8.77334
595,-461,11.4006,8.55225,-0.00283014,-0.00228603,0.00243062,-0.000112292,-0.00500388,0.84113,0.00329913,0.00905145,1819,1485,11.4007,-8.55225
602,-461,11.4125,8.3291,-0.00163684,-0.00134844,0.00138805,-9.71165e-05,-0.00288816,0.837156,0.0018939,0.00851524,1826,1485,11.4124,-8.32906
609,-461,11.4114,8.09204,-0.000768265,-0.000746,0.000222936,-0.000533919,-0.000980346,0.810345,0.000566754,0.0100349,1833,1485,11.4114,-8.092
616,-461,11.4271,7.87097,2.72105e-05,-0.000257772,-0.000779952,0.000677581,-0.000908142,-0.695048,0.000918737,0.0132848,1840,1485,11.4271,-7.87097
623,-461,11.4263,7.66748,0.000794359,-0.000143811,-0.00172994,0.00211769,-0.00146714,-0.653004,0.00208103,0.0129783,1847,1485,11.4262,-7.66743
630,-461,11.417,7.45325,0.00149249,-0.000345455,-0.00275954,0.00348205,-0.00233501,-0.624665,0.00338018,0.0113478,1854,1485,11.417,-7.45324
637,-461,11.4309,7.23657,0.00221596,-0.00085996,-0.00386911,0.00484157,-0.00348557,-0.596224,0.00482888,0.0124464,1861,1485,11.4309,-7.23657
644,-461,11.4635,7.04407,0.003009,-0.00175034,-0.00503728,0.00620041,-0.00494176,-0.564731,0.00644661,0.0219095,1868,1485,11.4635,-7.04412
651,-461,11.3583,6.82617,0.00368353,-0.00296944,-0.00617919,0.00737473,-0.00666064,-0.538476,0.00810682,0.026166,1875,1485,11.3583,-6.82616
658,-461,11.3542,6.55359,0.00432311,-0.00491491,-0.00733901,0.00837568,-0.00896748,-0.504527,0.010015,0.0395031,1882,1485,11.3542,-6.55355
665,-461,11.458,6.45032,0,0,0,0,0,0,0,-1,1889,1485,11.458,-6.45031
672,-461,11.9205,5.45056,0,0,0,0,0,0,0,-1,1896,1485,11.9206,-5.45057
679,-461,10.0535,2.16321,0,0,0,0,0,0,0,-1,1903,1485,10.0535,-2.16317
686,-461,10.8195,1.84192,0,0,0,0,0,0,0,-1,1910,1485,10.8194,-1.84195
693,-461,0,0,0,0,0,0,0,0,0,-1,1917,1485,0,0
700,-461,0,0,0,0,0,0,0,0,0,-1,1924,1485,0,0
707,-461,0,0,0,0,0,0,0,0,0,-1,1931,1485,0,0
714,-461,0,0,0,0,0,0,0,0,0,-1,1938,1485,0,0
721,-461,0,0,0,0,0,0,0,0,0,-1,1945,1485,0,0
728,-461,0,0,0,0,0,0,0,0,0,-1,1952,1485,0,0
735,-461,0,0,0,0,0,0,0,0,0,-1,1959,1485,0,0
742,-461,0,0,0,0,0,0,0,0,0,-1,1966,1485,0,0
749,-461,0,0,0,0,0,0,0,0,0,-1,1973,1485,0,0
756,-461,0,0,0,0,0,0,0,0,0,-1,1980,1485,0,0
763,-461,0,0,0,0,0,0,0,0,0,-1,1987,1485,0,0
770,-461,0,0,0,0,0,0,0,0,0,-1,1994,1485,0,0
777,-461,0,0,0,0,0,0,0,0,0,-1,2001,1485,0,0
784,-461,0,0,0,0,0,0,0,0,0,-1,2008,1485,0,0
791,-461,0,0,0,0,0,0,0,0,0,-1,2015,1485,0,0
798,-461,0,0,0,0,0,0,0,0,0,-1,2022,1485,0,0
805,-461,0,0,0,0,0,0,0,0,0,-1,2029,1485,0,0
812,-461,0,0,0,0,0,0,0,0,0,-1,2036,1485,0,0
-700,-468,0,0,0,0,0,0,0,0,0,-1,524,1492,0,0
-693,-468,0,0,0,0,0,0,0,0,0,-1,531,1492,0,0
-686,-468,0,0,0,0,0,0,0,0,0,-1,538,1492,0,0
-679,-468,0,0,0,0,0,0,0,0,0,-1,545,1492,0,0
-672,-468,0,0,0,0,0,0,0,0,0,-1,552,1492,0,0
-665,-468,0,0,0,0,0,0,0,0,0,-1,559,1492,0,0
-658,-468,0,0,0,0,0,0,0,0,0,-1,566,1492,0,0
-651,-468,0,0,0,0,0,0,0,0,0,-1,573,1492,0,0
-644,-468,0,0,0,0,0,0,0,0,0,-1,580,1492,0,0
-637,-468,0,0,0,0,0,0,0,0,0,-1,587,1492,0,0
-630,-468,0,0,0,0,0,0,0,0,0,-1,594,1492,0,0
-623,-468,0,0,0,0,0,0,0,0,0,-1,601,1492,0,0
-616,-468,0,0,0,0,0,0,0,0,0,-1,608,1492,0,0
-609,-468,0,0,0,0,0,0,0,0,0,-1,615,1492,0,0
-602,-468,0,0,0,0,0,0,0,0,0,-1,622,1492,0,0
-595,-468,0,0,0,0,0,0,0,0,0,-1,629,1492,0,0
-588,-468,0,0,0,0,0,0,0,0,0,-1,636,1492,0,0
-581,-468,0,0,0,0,0,0,0,0,0,-1,643,1492,0,0
-574,-468,0,0,0,0,0,0,0,0,0,-1,650,1492,0,0
-567,-468,-11.2603,1.8042,0,0,0,0,0,0,0,-1,657,1492,-11.2603,-1.80424
-560,-468,-8.77441,2.23694,0,0,0,0,0,0,0,-1,664,1492,-8.77443,-2.23692
-553,-468,-5.94061,9.26318,0,0,0,0,0,0,0,-1,671,1492,-5.94062,-9.26322
-546,-468,-3.47357,2.5155,0,0,0,0,0,0,0,-1,678,1492,-3.47355,-2.51545
-539,-468,-3.17542,3.07739,0,0,0,0,0,0,0,-1,685,1492,-3.17541,-3.0774
-532,-468,-2.7594,3.48352,0.0490566,0.0198083,0.0409892,0.0779523,-0.00908738,0.614047,0.055247,0.0402345,692,1492,-2.75939,-3.48348
-525,-468,-2.58228,3.55029,0.0369359,0.0157081,0.0323704,0.0603881,-0.00774405,0.626976,0.0430727,0.0444735,699,1492,-2.58228,-3.5503
-518,-468,-2.46503,5.19373,0.0272011,0.0121443,0.0249072,0.0456928,-0.00634734,0.638635,0.0327831,0.0401603,706,1492,-2.46504,-5.19376
-511,-468,-2.23602,5.32263,0.0195471,0.00913702,0.0186428,0.0336978,-0.00501372,0.649265,0.0243094,0.0321957,713,1492,-2.23604,-5.32265
-504,-468,-2.07483,5.47278,0.0136395,0.00671487,0.0135966,0.0242077,-0.00385327,0.660724,0.0175643,0.0149561,720,1492,-2.07482,-5.4728
-497,-468,-2.10236,5.73291,0.00919196,0.00468625,0.00947571,0.0166789,-0.00280073,0.66869,0.0121609,0.0098281,727,1492,-2.10233,-5.7329
-490,-468,-2.09851,5.98438,0.00571679,0.00268945,0.00587064,0.0102658,-0.00185952,0.659228,0.0075405,0.00767838,734,1492,-2.0985,-5.98433
-483,-468,-2.10767,6.22534,0.00320534,0.00109664,0.00293471,0.00526935,-0.000967371,0.612945,0.00387581,0.00830771,741,1492,-2.10769,-6.22534
-476,-468,-2.10602,6.47375,0.00187495,-0.000812921,0.000970225,0.00218857,-0.00112654,0.312646,0.00194644,0.00948419,748,1492,-2.10603,-6.47376
-469,-468,-2.10187,6.70703,0.00130708,-0.00321885,-0.00135682,0.00168267,-0.00359444,-0.270054,0.00311268,0.0133359,755,1492,-2.10187,-6.70704
-462,-468,-2.07361,6.95789,0.00145898,-0.00554061,-0.00340257,0.00284038,-0.00692201,-0.385657,0.00579821,0.0226902,762,1492,-2.07359,-6.9579
-455,-468,-2.08997,7.15662,0.00181672,-0.00832993,-0.00494002,0.00382453,-0.0103377,-0.386043,0.00845991,0.0237044,769,1492,-2.08998,-7.15656
-448,-468,-2.11493,7.41003,0.00243405,-0.0117466,-0.00661952,0.00504377,-0.0143563,-0.375536,0.0116228,0.0143594,776,1492,-2.11495,-7.41003
-441,-468,-2.09473,7.66296,0.00309369,-0.0158853,-0.00852666,0.00636172,-0.0191533,-0.366003,0.0153358,0.0125608,783,1492,-2.09473,-7.66291
-434,-468,-2.07239,7.9082,0.00349625,-0.0205725,-0.0108346,0.00765491,-0.0247312,-0.366491,0.0195453,0.0126781,790,1492,-2.07236,-7.90815
-427,-468,-2.02032,8.11621,0.0037457,-0.0261911,-0.0135585,0.0089735,-0.0314189,-0.368008,0.0244913,0.0162216,797,1492,-2.0203,-8.11621
-420,-468,-1.94568,8.24915,0.0036709,-0.0329161,-0.0167564,0.0101852,-0.0394305,-0.370785,0.0302589,0.0285624,804,1492,-1.9457,-8.24916
-413,-468,-1.58044,8.03271,0.00313974,-0.0406245,-0.0202701,0.0110855,-0.0485703,-0.373587,0.0366388,0.0453765,811,1492,-1.58044,-8.03271
-406,-468,-1.0929,7.68115,0,0,0,0,0,0,0,-1,818,1492,-1.0929,-7.68116
-399,-468,-0.555359,7.56531,0,0,0,0,0,0,0,-1,825,1492,-0.555343,-7.56527
-392,-468,-0.674316,6.88867,0,0,0,0,0,0,0,-1,832,1492,-0.67434,-6.88868
-385,-468,0.465759,5.35864,0,0,0,0,0,0,0,-1,839,1492,0.465732,-5.35864
-378,-468,1.99835,3.25391,0,0,0,0,0,0,0,-1,846,1492,1.99837,-3.2539
-371,-468,-0.31842,3.1532,0,0,0,0,0,0,0,-1,853,1492,-0.318441,-3.15324
-364,-468,-0.966736,2.14563,0,0,0,0,0,0,0,-1,860,1492,-0.966735,-2.14557
-357,-468,-3.06787,3.22742,0,0,0,0,0,0,0,-1,867,1492,-3.06784,-3.2274
-350,-468,-3.18658,4.12659,0,0,0,0,0,0,0,-1,874,1492,-3.18659,-4.12658
-343,-468,0,0,0,0,0,0,0,0,0,-1,881,1492,0,0
-336,-468,0,0,0,0,0,0,0,0,0,-1,888,1492,0,0
-329,-468,0,0,0,0,0,0,0,0,0,-1,895,1492,0,0
-322,-468,0,0,0,0,0,0,0,0,0,-1,902,1492,0,0
-315,-468,0,0,0,0,0,0,0,0,0,-1,909,1492,0,0
-308,-468,0,0,0,0,0,0,0,0,0,-1,916,1492,0,0
-301,-468,0,0,0,0,0,0,0,0,0,-1,923,1492,0,0
-294,-468,0,0,0,0,0,0,0,0,0,-1,930,1492,0,0
-287,-468,0,0,0,0,0,0,0,0,0,-1,937,1492,0,0
-280,-468,0,0,0,0,0,0,0,0,0,-1,944,1492,0,0
-273,-468,0,0,0,0,0,0,0,0,0,-1,951,1492,0,0
-266,-468,0,0,0,0,0,0,0,0,0,-1,958,1492,0,0
-259,-468,0,0,0,0,0,0,0,0,0,-1,965,1492,0,0
-252,-468,0,0,0,0,0,0,0,0,0,-1,972,1492,0,0
-245,-468,0,0,0,0,0,0,0,0,0,-1,979,1492,0,0
-238,-468,0,0,0,0,0,0,0,0,0,-1,986,1492,0,0
-231,-468,0,0,0,0,0,0,0,0,0,-1,993,1492,0,0
-224,-468,0,0,0,0,0,0,0,0,0,-1,1000,1492,0,0
-217,-468,0,0,0,0,0,0,0,0,0,-1,1007,1492,0,0
-210,-468,0,0,0,0,0,0,0,0,0,-1,1014,1492,0,0
-203,-468,0,0,0,0,0,0,0,0,0,-1,1021,1492,0,0
-196,-468,0,0,0,0,0,0,0,0,0,-1,1028,1492,0,0
-189,-468,0,0,0,0,0,0,0,0,0,-1,1035,1492,0,0
-182,-468,0,0,0,0,0,0,0,0,0,-1,1042,1492,0,0
-175,-468,0,0,0,0,0,0,0,0,0,-1,1049,1492,0,0
-168,-468,0,0,0,0,0,0,0,0,0,-1,1056,1492,0,0
-161,-468,0,0,0,0,0,0,0,0,0,-1,1063,1492,0,0
-154,-468,0,0,0,0,0,0,0,0,0,-1,1070,1492,0,0
-147,-468,0,0,0,0,0,0,0,0,0,-1,1077,1492,0,0
-140,-468,0,0,0,0,0,0,0,0,0,-1,1084,1492,0,0
-133,-468,0,0,0,0,0,0,0,0,0,-1,1091,1492,0,0
-126,-468,0,0,0,0,0,0,0,0,0,-1,1098,1492,0,0
-119,-468,0,0,0,0,0,0,0,0,0,-1,1105,1492,0,0
-112,-468,0,0,0,0,0,0,0,0,0,-1,1112,1492,0,0
-105,-468,0,0,0,0,0,0,0,0,0,-1,1119,1492,0,0
-98,-468,0,0,0,0,0,0,0,0,0,-1,1126,1492,0,0
-91,-468,0,0,0,0,0,0,0,0,0,-1,1133,1492,0,0
-84,-468,0,0,0,0,0,0,0,0,0,-1,1140,1492,0,0
-77,-468,0,0,0,0,0,0,0,0,0,-1,1147,1492,0,0
-70,-468,0,0,0,0,0,0,0,0,0,-1,1154,1492,0,0
-63,-468,0,0,0,0,0,0,0,0,0,-1,1161,1492,0,0
-56,-468,0,0,0,0,0,0,0,0,0,-1,1168,1492,0,0
-49,-468,0,0,0,0,0,0,0,0,0,-1,1175,1492,0,0
-42,-468,0,0,0,0,0,0,0,0,0,-1,1182,1492,0,0
-35,-468,0,0,0,0,0,0,0,0,0,-1,1189,1492,0,0
-28,-468,0,0,0,0,0,0,0,0,0,-1,1196,1492,0,0
-21,-468,0,0,0,0,0,0,0,0,0,-1,1203,1492,0,0
-14,-468,0,0,0,0,0,0,0,0,0,-1,1210,1492,0,0
-7,-468,0,0,0,0,0,0,0,0,0,-1,1217,1492,0,0
0,-468,0,0,0,0,0,0,0,0,0,-1,1224,1492,0,0
7,-468,0,0,0,0,0,0,0,0,0,-1,1231,1492,0,0
14,-468,0,0,0,0,0,0,0,0,0,-1,1238,1492,0,0
21,-468,0,0,0,0,0,0,0,0,0,-1,1245,1492,0,0
28,-468,0,0,0,0,0,0,0,0,0,-1,1252,1492,0,0
35,-468,0,0,0,0,0,0,0,0,0,-1,1259,1492,0,0
42,-468,0,0,0,0,0,0,0,0,0,-1,1266,1492,0,0
49,-468,0,0,0,0,0,0,0,0,0,-1,1273,1492,0,0
56,-468,0,0,0,0,0,0,0,0,0,-1,1280,1492,0,0
63,-468,0,0,0,0,0,0,0,0,0,-1,1287,1492,0,0
70,-468,0,0,0,0,0,0,0,0,0,-1,1294,1492,0,0
77,-468,0,0,0,0,0,0,0,0,0,-1,1301,1492,0,0
84,-468,0,0,0,0,0,0,0,0,0,-1,1308,1492,0,0
91,-468,0,0,0,0,0,0,0,0,0,-1,1315,1492,0,0
98,-468,0,0,0,0,0,0,0,0,0,-1,1322,1492,0,0
105,-468,0,0,0,0,0,0,0,0,0,-1,1329,1492,0,0
112,-468,0,0,0,0,0,0,0,0,0,-1,1336,1492,0,0
119,-468,0,0,0,0,0,0,0,0,0,-1,1343,1492,0,0
126,-468,0,0,0,0,0,0,0,0,0,-1,1350,1492,0,0
133,-468,0,0,0,0,0,0,0,0,0,-1,1357,1492,0,0
140,-468,0,0,0,0,0,0,0,0,0,-1,1364,1492,0,0
147,-468,0,0,0,0,0,0,0,0,0,-1,1371,1492,0,0
154,-468,0,0,0,0,0,0,0,0,0,-1,1378,1492,0,0
161,-468,0,0,0,0,0,0,0,0,0,-1,1385,1492,0,0
168,-468,0,0,0,0,0,0,0,0,0,-1,1392,1492,0,0
175,-468,0,0,0,0,0,0,0,0,0,-1,1399,1492,0,0
182,-468,0,0,0,0,0,0,0,0,0,-1,1406,1492,0,0
189,-468,0,0,0,0,0,0,0,0,0,-1,1413,1492,0,0
196,-468,0,0,0,0,0,0,0,0,0,-1,1420,1492,0,0
203,-468,0,0,0,0,0,0,0,0,0,-1,1427,1492,0,0
210,-468,0,0,0,0,0,0,0,0,0,-1,1434,1492,0,0
217,-468,0,0,0,0,0,0,0,0,0,-1,1441,1492,0,0
224,-468,0,0,0,0,0,0,0,0,0,-1,1448,1492,0,0
231,-468,0,0,0,0,0,0,0,0,0,-1,1455,1492,0,0
238,-468,0,0,0,0,0,0,0,0,0,-1,1462,1492,0,0
245,-468,0,0,0,0,0,0,0,0,0,-1,1469,1492,0,0
252,-468,0,0,0,0,0,0,0,0,0,-1,1476,1492,0,0
259,-468,0,0,0,0,0,0,0,0,0,-1,1483,1492,0,0
266,-468,0,0,0,0,0,0,0,0,0,-1,1490,1492,0,0
273,-468,0,0,0,0,0,0,0,0,0,-1,1497,1492,0,0
280,-468,0,0,0,0,0,0,0,0,0,-1,1504,1492,0,0
287,-468,0,0,0,0,0,0,0,0,0,-1,1511,1492,0,0
294,-468,0,0,0,0,0,0,0,0,0,-1,1518,1492,0,0
301,-468,0,0,0,0,0,0,0,0,0,-1,1525,1492,0,0
308,-468,0,0,0,0,0,0,0,0,0,-1,1532,1492,0,0
315,-468,0,0,0,0,0,0,0,0,0,-1,1539,1492,0,0
322,-468,0,0,0,0,0,0,0,0,0,-1,1546,1492,0,0
329,-468,0,0,0,0,0,0,0,0,0,-1,1553,1492,0,0
336,-468,0,0,0,0,0,0,0,0,0,-1,1560,1492,0,0
343,-468,0,0,0,0,0,0,0,0,0,-1,1567,1492,0,0
350,-468,0,0,0,0,0,0,0,0,0,-1,1574,1492,0,0
357,-468,0,0,0,0,0,0,0,0,0,-1,1581,1492,0,0
364,-468,0,0,0,0,0,0,0,0,0,-1,1588,1492,0,0
371,-468,0,0,0,0,0,0,0,0,0,-1,1595,1492,0,0
378,-468,0,0,0,0,0,0,0,0,0,-1,1602,1492,0,0
385,-468,0,0,0,0,0,0,0,0,0,-1,1609,1492,0,0
392,-468,0,0,0,0,0,0,0,0,0,-1,1616,1492,0,0
399,-468,0,0,0,0,0,0,0,0,0,-1,1623,1492,0,0
406,-468,0,0,0,0,0,0,0,0,0,-1,1630,1492,0,0
413,-468,0,0,0,0,0,0,0,0,0,-1,1637,1492,0,0
420,-468,0,0,0,0,0,0,0,0,0,-1,1644,1492,0,0
427,-468,0,0,0,0,0,0,0,0,0,-1,1651,1492,0,0
434,-468,0,0,0,0,0,0,0,0,0,-1,1658,1492,0,0
441,-468,0,0,0,0,0,0,0,0,0,-1,1665,1492,0,0
448,-468,0,0,0,0,0,0,0,0,0,-1,1672,1492,0,0
455,-468,0,0,0,0,0,0,0,0,0,-1,1679,1492,0,0
462,-468,0,0,0,0,0,0,0,0,0,-1,1686,1492,0,0
469,-468,15.6879,1.2677,0,0,0,0,0,0,0,-1,1693,1492,15.6879,-1.26772
476,-468,14.9318,1.61865,0,0,0,0,0,0,0,-1,1700,1492,14.9318,-1.61869
483,-468,11.265,4.64795,0,0,0,0,0,0,0,-1,1707,1492,11.265,-4.64798
490,-468,12.1316,3.51624,0,0,0,0,0,0,0,-1,1714,1492,12.1316,-3.51628
497,-468,16.5355,3.14587,0,0,0,0,0,0,0,-1,1721,1492,16.5356,-3.14583
504,-468,15.0642,4.10437,0,0,0,0,0,0,0,-1,1728,1492,15.0643,-4.10431
511,-468,13.931,13.3701,0,0,0,0,0,0,0,-1,1735,1492,13.931,-13.3701
518,-468,13.4291,12.292,0,0,0,0,0,0,0,-1,1742,1492,13.429,-12.292
525,-468,13.5125,10.8516,0,0,0,0,0,0,0,-1,1749,1492,13.5125,-10.8515
532,-468,13.1593,10.3854,-0.0501232,0.0118517,0.0139501,0.014847,-0.0531185,1.35929,0.0412615,0.0458612,1756,1492,13.1593,-10.3854
539,-468,12.6288,10.0221,-0.042755,0.00677046,0.012943,0.009949,-0.0459335,1.32998,0.0344213,0.0467008,1763,1492,12.6288,-10.0221
546,-468,11.4312,9.76794,-0.0350863,0.00296787,0.0117232,0.00628944,-0.0384078,1.2947,0.0279387,0.048806,1770,1492,11.4311,-9.76795
553,-468,11.3221,9.61401,-0.0278331,0.000325957,0.0101092,0.0035793,-0.0310864,1.25944,0.0220146,0.0342418,1777,1492,11.3221,-9.61405
560,-468,11.2603,9.55273,-0.0212023,-0.0013833,0.00842956,0.00171703,-0.0243027,1.21836,0.0168034,0.0200374,1784,1492,11.2603,-9.55279
567,-468,11.2115,9.39563,-0.015481,-0.00223301,0.0068179,0.000648838,-0.0183629,1.17089,0.0124638,0.01359,1791,1492,11.2116,-9.39565
574,-468,11.2095,9.16931,-0.0113438,-0.00281571,0.00550631,-0.000115446,-0.0140441,1.11486,0.00932446,0.0138236,1798,1492,11.2095,-9.16927
581,-468,11.2211,8.9707,-0.00730213,-0.0029032,0.00401787,-0.000522167,-0.00968316,1.03583,0.00628861,0.0148234,1805,1492,11.2211,-8.97075
588,-468,11.2151,8.77002,-0.00380074,-0.00223467,0.00269817,-0.000208206,-0.0058272,0.926623,0.00381729,0.0129078,1812,1492,11.2151,-8.77006
595,-468,11.1997,8.54248,-0.00167995,-0.00145392,0.00156966,6.7954e-06,-0.00314066,0.821337,0.00209604,0.0102784,1819,1492,11.1997,-8.54254
602,-468,11.207,8.32129,-0.000655679,-0.00052926,0.000527312,-6.13832e-05,-0.00112356,0.845049,0.000729438,0.00821081,1826,1492,11.207,-8.32125
609,-468,11.1934,8.09216,9.49977e-05,3.97222e-05,-0.000684107,0.000752025,-0.000617305,-0.765209,0.000791857,0.00880495,1833,1492,11.1934,-8.09221
616,-468,11.2007,7.87549,0.000742996,0.000615998,-0.00181204,0.00249264,-0.00113365,-0.767884,0.00214209,0.0100276,1840,1492,11.2006,-7.87543
623,-468,11.21,7.65491,0.00135271,0.000882288,-0.00301679,0.00414344,-0.00190844,-0.746493,0.0035726,0.0107908,1847,1492,11.21,-7.65485
630,-468,11.2181,7.43079,0.00194798,0.000985496,-0.00450537,0.00599774,-0.00306426,-0.732192,0.00532254,0.010077,1854,1492,11.2182,-7.43078
637,-468,11.2441,7.21594,0.0026522,0.000921065,-0.00633803,0.00818349,-0.00461022,-0.717534,0.00748187,0.0144122,1861,1492,11.2442,-7.21596
644,-468,11.2234,7.07458,0.00346711,0.000617581,-0.00851448,0.0106752,-0.00659051,-0.702499,0.0100609,0.0327775,1868,1492,11.2234,-7.07457
651,-468,11.5774,7.13977,0.00431962,0.000236572,-0.0110955,0.0135599,-0.00900366,-0.694418,0.0131153,0.0488064,1875,1492,11.5774,-7.13977
658,-468,11.9363,6.94983,0.00543894,-0.000612051,-0.0142474,0.0169786,-0.0121517,-0.680775,0.0168951,0.0453765,1882,1492,11.9363,-6.94982
665,-468,12.2877,6.72302,0,0,0,0,0,0,0,-1,1889,1492,12.2878,-6.723
672,-468,9.96814,3.61133,0,0,0,0,0,0,0,-1,1896,1492,9.96817,-3.61139
679,-468,11.2191,1.91968,0,0,0,0,0,0,0,-1,1903,1492,11.2191,-1.91965
686,-468,11.9252,1.42285,0,0,0,0,0,0,0,-1,1910,1492,11.9252,-1.42291
693,-468,0,0,0,0,0,0,0,0,0,-1,1917,1492,0,0
700,-468,0,0,0,0,0,0,0,0,0,-1,1924,1492,0,0
707,-468,0,0,0,0,0,0,0,0,0,-1,1931,1492,0,0
714,-468,0,0,0,0,0,0,0,0,0,-1,1938,1492,0,0
721,-468,0,0,0,0,0,0,0,0,0,-1,1945,1492,0,0
728,-468,0,0,0,0,0,0,0,0,0,-1,1952,1492,0,0
735,-468,0,0,0,0,0,0,0,0,0,-1,1959,1492,0,0
742,-468,0,0,0,0,0,0,0,0,0,-1,1966,1492,0,0
749,-468,0,0,0,0,0,0,0,0,0,-1,1973,1492,0,0
756,-468,0,0,0,0,0,0,0,0,0,-1,1980,1492,0,0
763,-468,0,0,0,0,0,0,0,0,0,-1,1987,1492,0,0
770,-468,0,0,0,0,0,0,0,0,0,-1,1994,1492,0,0
777,-468,0,0,0,0,0,0,0,0,0,-1,2001,1492,0,0
784,-468,0,0,0,0,0,0,0,0,0,-1,2008,1492,0,0
791,-468,0,0,0,0,0,0,0,0,0,-1,2015,1492,0,0
798,-468,0,0,0,0,0,0,0,0,0,-1,2022,1492,0,0
805,-468,0,0,0,0,0,0,0,0,0,-1,2029,1492,0,0
812,-468,0,0,0,0,0,0,0,0,0,-1,2036,1492,0,0
-700,-475,0,0,0,0,0,0,0,0,0,-1,524,1499,0,0
-693,-475,0,0,0,0,0,0,0,0,0,-1,531,1499,0,0
-686,-475,0,0,0,0,0,0,0,0,0,-1,538,1499,0,0
-679,-475,0,0,0,0,0,0,0,0,0,-1,545,1499,0,0
-672,-475,0,0,0,0,0,0,0,0,0,-1,552,1499,0,0
-665,-475,0,0,0,0,0,0,0,0,0,-1,559,1499,0,0
-658,-475,0,0,0,0,0,0,0,0,0,-1,566,1499,0,0
-651,-475,0,0,0,0,0,0,0,0,0,-1,573,1499,0,0
-644,-475,0,0,0,0,0,0,0,0,0,-1,580,1499,0,0
-637,-475,0,0,0,0,0,0,0,0,0,-1,587,1499,0,0
-630,-475,0,0,0,0,0,0,0,0,0,-1,594,1499,0,0
-623,-475,0,0,0,0,0,0,0,0,0,-1,601,1499,0,0
-616,-475,0,0,0,0,0,0,0,0,0,-1,608,1499,0,0
-609,-475,0,0,0,0,0,0,0,0,0,-1,615,1499,0,0
-602,-475,0,0,0,0,0,0,0,0,0,-1,622,1499,0,0
-595,-475,0,0,0,0,0,0,0,0,0,-1,629,1499,0,0
-588,-475,0,0,0,0,0,0,0,0,0,-1,636,1499,0,0
-581,-475,0,0,0,0,0,0,0,0,0,-1,643,1499,0,0
-574,-475,0,0,0,0,0,0,0,0,0,-1,650,1499,0,0
-567,-475,0,0,0,0,0,0,0,0,0,-1,657,1499,0,0
-560,-475,-9.42731,9.29517,0,0,0,0,0,0,0,-1,664,1499,-9.42731,-9.29519
-553,-475,-8.15131,8.78369,0,0,0,0,0,0,0,-1,671,1499,-8.15131,-8.78367
-546,-475,-8.41254,8.20654,0,0,0,0,0,0,0,-1,678,1499,-8.41251,-8.20655
-539,-475,-2.50964,3.26489,0,0,0,0,0,0,0,-1,685,1499,-2.50963,-3.26491
-532,-475,-2.15857,3.5282,0.0493119,0.0208988,0.043621,0.0809814,-0.0107707,0.627974,0.0579127,0.041194,692,1499,-2.15858,-3.52818
-525,-475,-2.46326,3.20691,0.0373111,0.0167741,0.0346922,0.0632226,-0.00913739,0.641511,0.0455011,0.0449201,699,1499,-2.46323,-3.20693
-518,-475,-2.72821,5.3634,0.0275119,0.0130991,0.0268512,0.0481069,-0.0074959,0.654296,0.0348398,0.0439974,706,1499,-2.7282,-5.36337
-511,-475,-2.40198,5.30371,0.0196811,0.00988178,0.0201757,0.0355436,-0.00598069,0.666279,0.0259203,0.0436332,713,1499,-2.40198,-5.3037
-504,-475,-1.87726,5.52783,0.0135942,0.00724575,0.0146922,0.0254511,-0.00461119,0.67901,0.018695,0.026171,720,1499,-1.87728,-5.52781
-497,-475,-1.86584,5.76013,0.0090172,0.00513179,0.0103443,0.0175996,-0.00345064,0.692577,0.0130364,0.0141679,727,1499,-1.86582,-5.76015
-490,-475,-1.85425,5.9917,0.00543715,0.00319618,0.00665827,0.0110686,-0.00243523,0.702037,0.00831057,0.0085576,734,1499,-1.85427,-5.99167
-483,-475,-1.85406,6.25232,0.00287762,0.00170897,0.00373342,0.00607217,-0.00148558,0.707772,0.00462356,0.00850923,741,1499,-1.85406,-6.25227
-476,-475,-1.85559,6.47546,0.00159781,2.21856e-06,0.00191974,0.00287892,-0.0012789,0.588468,0.00245905,0.00972242,748,1499,-1.8556,-6.4755
-469,-475,-1.84674,6.69653,0.00102972,-0.00217428,-0.000322306,0.00106182,-0.00220638,-0.0992697,0.00192508,0.0118017,755,1499,-1.84677,-6.69653
-462,-475,-1.82117,6.95325,0.00126703,-0.00404542,-0.00213317,0.00201755,-0.00479594,-0.338309,0.00404132,0.0167724,762,1499,-1.82116,-6.95325
-455,-475,-1.85809,7.18762,0.00171183,-0.00633217,-0.00333383,0.0029139,-0.00753423,-0.346058,0.00622574,0.0163544,769,1499,-1.85808,-7.18757
-448,-475,-1.88354,7.45667,0.0024171,-0.00906635,-0.00460895,0.0040381,-0.0106874,-0.338196,0.00878591,0.0138657,776,1499,-1.88353,-7.45667
-441,-475,-1.8606,7.71338,0.0032044,-0.0123383,-0.00601682,0.00526137,-0.0143953,-0.329414,0.0117501,0.0154081,783,1499,-1.86061,-7.71343
-434,-475,-1.84515,7.89319,0.00371642,-0.0158282,-0.00775666,0.00642064,-0.0185324,-0.335456,0.0149616,0.00989333,790,1499,-1.84517,-7.89318
-427,-475,-1.82123,8.16443,0.00410242,-0.0199719,-0.00979396,0.00758346,-0.023453,-0.341502,0.0186834,0.013847,797,1499,-1.82123,-8.16447
-420,-475,-1.74402,8.37109,0.00421913,-0.0250038,-0.0122274,0.00866035,-0.0294451,-0.348401,0.0230653,0.0219562,804,1499,-1.74404,-8.37106
-413,-475,-1.52844,8.29529,0.00387507,-0.0309167,-0.0148943,0.00938019,-0.0364218,-0.35404,0.0279379,0.0387142,811,1499,-1.52843,-8.29529
-406,-475,-1.08398,8.29675,0,0,0,0,0,0,0,-1,818,1499,-1.08396,-8.2968
-399,-475,-1.67731,5.84595,0,0,0,0,0,0,0,-1,825,1499,-1.67733,-5.84596
-392,-475,0.217163,8.61389,0,0,0,0,0,0,0,-1,832,1499,0.217167,-8.6139
-385,-475,1.18372,2.73999,0,0,0,0,0,0,0,-1,839,1499,1.18372,-2.73995
-378,-475,1.31409,2.90149,0,0,0,0,0,0,0,-1,846,1499,1.31411,-2.90151
-371,-475,2.3476,3.31116,0,0,0,0,0,0,0,-1,853,1499,2.34761,-3.31121
-364,-475,1.04462,9.05823,0,0,0,0,0,0,0,-1,860,1499,1.04461,-9.05825
-357,-475,-0.262756,7.97205,0,0,0,0,0,0,0,-1,867,1499,-0.262784,-7.97205
-350,-475,-2.77173,4.35486,0,0,0,0,0,0,0,-1,874,1499,-2.77175,-4.35491
-343,-475,-6.81641,-1.95203,0,0,0,0,0,0,0,-1,881,1499,-6.81643,1.95198
-336,-475,0,0,0,0,0,0,0,0,0,-1,888,1499,0,0
-329,-475,0,0,0,0,0,0,0,0,0,-1,895,1499,0,0
-322,-475,0,0,0,0,0,0,0,0,0,-1,902,1499,0,0
-315,-475,0,0,0,0,0,0,0,0,0,-1,909,1499,0,0
-308,-475,0,0,0,0,0,0,0,0,0,-1,916,1499,0,0
-301,-475,0,0,0,0,0,0,0,0,0,-1,923,1499,0,0
-294,-475,0,0,0,0,0,0,0,0,0,-1,930,1499,0,0
-287,-475,0,0,0,0,0,0,0,0,0,-1,937,1499,0,0
-280,-475,0,0,0,0,0,0,0,0,0,-1,944,1499,0,0
-273,-475,0,0,0,0,0,0,0,0,0,-1,951,1499,0,0
-266,-475,0,0,0,0,0,0,0,0,0,-1,958,1499,0,0
-259,-475,0,0,0,0,0,0,0,0,0,-1,965,1499,0,0
-252,-475,0,0,0,0,0,0,0,0,0,-1,972,1499,0,0
-245,-475,0,0,0,0,0,0,0,0,0,-1,979,1499,0,0
-238,-475,0,0,0,0,0,0,0,0,0,-1,986,1499,0,0
-231,-475,0,0,0,0,0,0,0,0,0,-1,993,1499,0,0
-224,-475,0,0,0,0,0,0,0,0,0,-1,1000,1499,0,0
-217,-475,0,0,0,0,0,0,0,0,0,-1,1007,1499,0,0
-210,-475,0,0,0,0,0,0,0,0,0,-1,1014,1499,0,0
-203,-475,0,0,0,0,0,0,0,0,0,-1,1021,1499,0,0
-196,-475,0,0,0,0,0,0,0,0,0,-1,1028,1499,0,0
-189,-475,0,0,0,0,0,0,0,0,0,-1,1035,1499,0,0
-182,-475,0,0,0,0,0,0,0,0,0,-1,1042,1499,0,0
-175,-475,0,0,0,0,0,0,0,0,0,-1,1049,1499,0,0
-168,-475,0,0,0,0,0,0,0,0,0,-1,1056,1499,0,0
-161,-475,0,0,0,0,0,0,0,0,0,-1,1063,1499,0,0
-154,-475,0,0,0,0,0,0,0,0,0,-1,1070,1499,0,0
-147,-475,0,0,0,0,0,0,0,0,0,-1,1077,1499,0,0
-140,-475,0,0,0,0,0,0,0,0,0,-1,1084,1499,0,0
-133,-475,0,0,0,0,0,0,0,0,0,-1,1091,1499,0,0
-126,-475,0,0,0,0,0,0,0,0,0,-1,1098,1499,0,0
-119,-475,0,0,0,0,0,0,0,0,0,-1,1105,1499,0,0
-112,-475,0,0,0,0,0,0,0,0,0,-1,1112,1499,0,0
-105,-475,0,0,0,0,0,0,0,0,0,-1,1119,1499,0,0
-98,-475,0,0,0,0,0,0,0,0,0,-1,1126,1499,0,0
-91,-475,0,0,0,0,0,0,0,0,0,-1,1133,1499,0,0
-84,-475,0,0,0,0,0,0,0,0,0,-1,1140,1499,0,0
-77,-475,0,0,0,0,0,0,0,0,0,-1,1147,1499,0,0
-70,-475,0,0,0,0,0,0,0,0,0,-1,1154,1499,0,0
-63,-475,0,0,0,0,0,0,0,0,0,-1,1161,1499,0,0
-56,-475,0,0,0,0,0,0,0,0,0,-1,1168,1499,0,0
-49,-475,0,0,0,0,0,0,0,0,0,-1,1175,1499,0,0
-42,-475,0,0,0,0,0,0,0,0,0,-1,1182,1499,0,0
-35,-475,0,0,0,0,0,0,0,0,0,-1,1189,1499,0,0
-28,-475,0,0,0,0,0,0,0,0,0,-1,1196,1499,0,0
-21,-475,0,0,0,0,0,0,0,0,0,-1,1203,1499,0,0
-14,-475,0,0,0,0,0,0,0,0,0,-1,1210,1499,0,0
-7,-475,0,0,0,0,0,0,0,0,0,-1,1217,1499,0,0
0,-475,0,0,0,0,0,0,0,0,0,-1,1224,1499,0,0
7,-475,0,0,0,0,0,0,0,0,0,-1,1231,1499,0,0
14,-475,0,0,0,0,0,0,0,0,0,-1,1238,1499,0,0
21,-475,0,0,0,0,0,0,0,0,0,-1,1245,1499,0,0
28,-475,0,0,0,0,0,0,0,0,0,-1,1252,1499,0,0
35,-475,0,0,0,0,0,0,0,0,0,-1,1259,1499,0,0
42,-475,0,0,0,0,0,0,0,0,0,-1,1266,1499,0,0
49,-475,0,0,0,0,0,0,0,0,0,-1,1273,1499,0,0
56,-475,0,0,0,0,0,0,0,0,0,-1,1280,1499,0,0
63,-475,0,0,0,0,0,0,0,0,0,-1,1287,1499,0,0
70,-475,0,0,0,0,0,0,0,0,0,-1,1294,1499,0,0
77,-475,0,0,0,0,0,0,0,0,0,-1,1301,1499,0,0
84,-475,0,0,0,0,0,0,0,0,0,-1,1308,1499,0,0
91,-475,0,0,0,0,0,0,0,0,0,-1,1315,1499,0,0
98,-475,0,0,0,0,0,0,0,0,0,-1,1322,1499,0,0
105,-475,0,0,0,0,0,0,0,0,0,-1,1329,1499,0,0
112,-475,0,0,0,0,0,0,0,0,0,-1,1336,1499,0,0
119,-475,0,0,0,0,0,0,0,0,0,-1,1343,1499,0,0
126,-475,0,0,0,0,0,0,0,0,0,-1,1350,1499,0,0
133,-475,0,0,0,0,0,0,0,0,0,-1,1357,1499,0,0
140,-475,0,0,0,0,0,0,0,0,0,-1,1364,1499,0,0
147,-475,0,0,0,0,0,0,0,0,0,-1,1371,1499,0,0
154,-475,0,0,0,0,0,0,0,0,0,-1,1378,1499,0,0
161,-475,0,0,0,0,0,0,0,0,0,-1,1385,1499,0,0
168,-475,0,0,0,0,0,0,0,0,0,-1,1392,1499,0,0
175,-475,0,0,0,0,0,0,0,0,0,-1,1399,1499,0,0
182,-475,0,0,0,0,0,0,0,0,0,-1,1406,1499,0,0
189,-475,0,0,0,0,0,0,0,0,0,-1,1413,1499,0,0
196,-475,0,0,0,0,0,0,0,0,0,-1,1420,1499,0,0
203,-475,0,0,0,0,0,0,0,0,0,-1,1427,1499,0,0
210,-475,0,0,0,0,0,0,0,0,0,-1,1434,1499,0,0
217,-475,0,0,0,0,0,0,0,0,0,-1,1441,1499,0,0
224,-475,0,0,0,0,0,0,0,0,0,-1,1448,1499,0,0
231,-475,0,0,0,0,0,0,0,0,0,-1,1455,1499,0,0
238,-475,0,0,0,0,0,0,0,0,0,-1,1462,1499,0,0
245,-475,0,0,0,0,0,0,0,0,0,-1,1469,1499,0,0
252,-475,0,0,0,0,0,0,0,0,0,-1,1476,1499,0,0
259,-475,0,0,0,0,0,0,0,0,0,-1,1483,1499,0,0
266,-475,0,0,0,0,0,0,0,0,0,-1,1490,1499,0,0
273,-475,0,0,0,0,0,0,0,0,0,-1,1497,1499,0,0
280,-475,0,0,0,0,0,0,0,0,0,-1,1504,1499,0,0
287,-475,0,0,0,0,0,0,0,0,0,-1,1511,1499,0,0
294,-475,0,0,0,0,0,0,0,0,0,-1,1518,1499,0,0
301,-475,0,0,0,0,0,0,0,0,0,-1,1525,1499,0,0
308,-475,0,0,0,0,0,0,0,0,0,-1,1532,1499,0,0
315,-475,0,0,0,0,0,0,0,0,0,-1,1539,1499,0,0
322,-475,0,0,0,0,0,0,0,0,0,-1,1546,1499,0,0
329,-475,0,0,0,0,0,0,0,0,0,-1,1553,1499,0,0
336,-475,0,0,0,0,0,0,0,0,0,-1,1560,1499,0,0
343,-475,0,0,0,0,0,0,0,0,0,-1,1567,1499,0,0
350,-475,0,0,0,0,0,0,0,0,0,-1,1574,1499,0,0
357,-475,0,0,0,0,0,0,0,0,0,-1,1581,1499,0,0
364,-475,0,0,0,0,0,0,0,0,0,-1,1588,1499,0,0
371,-475,0,0,0,0,0,0,0,0,0,-1,1595,1499,0,0
378,-475,0,0,0,0,0,0,0,0,0,-1,1602,1499,0,0
385,-475,0,0,0,0,0,0,0,0,0,-1,1609,1499,0,0
392,-475,0,0,0,0,0,0,0,0,0,-1,1616,1499,0,0
399,-475,0,0,0,0,0,0,0,0,0,-1,1623,1499,0,0
406,-475,0,0,0,0,0,0,0,0,0,-1,1630,1499,0,0
413,-475,0,0,0,0,0,0,0,0,0,-1,1637,1499,0,0
420,-475,0,0,0,0,0,0,0,0,0,-1,1644,1499,0,0
427,-475,0,0,0,0,0,0,0,0,0,-1,1651,1499,0,0
434,-475,0,0,0,0,0,0,0,0,0,-1,1658,1499,0,0
441,-475,0,0,0,0,0,0,0,0,0,-1,1665,1499,0,0
448,-475,0,0,0,0,0,0,0,0,0,-1,1672,1499,0,0
455,-475,0,0,0,0,0,0,0,0,0,-1,1679,1499,0,0
462,-475,12.6372,0.275391,0,0,0,0,0,0,0,-1,1686,1499,12.6372,-0.27536
469,-475,15.6437,2.28296,0,0,0,0,0,0,0,-1,1693,1499,15.6437,-2.28293
476,-475,15.3302,2.71436,0,0,0,0,0,0,0,-1,1700,1499,15.3303,-2.7143
483,-475,10.7461,5.91479,0,0,0,0,0,0,0,-1,1707,1499,10.7461,-5.91476
490,-475,11.9305,4.4364,0,0,0,0,0,0,0,-1,1714,1499,11.9305,-4.43644
497,-475,15.3451,4.3479,0,0,0,0,0,0,0,-1,1721,1499,15.3451,-4.34789
504,-475,14.204,5.17224,0,0,0,0,0,0,0,-1,1728,1499,14.204,-5.17219
511,-475,12.9702,6.20056,0,0,0,0,0,0,0,-1,1735,1499,12.9703,-6.20053
518,-475,12.1044,11.4055,0,0,0,0,0,0,0,-1,1742,1499,12.1044,-11.4055
525,-475,13.0543,10.4977,0,0,0,0,0,0,0,-1,1749,1499,13.0543,-10.4977
532,-475,12.4949,10.243,-0.0419929,0.00659904,0.0151979,0.0109609,-0.0463547,1.29131,0.0351314,0.0429339,1756,1499,12.4949,-10.243
539,-475,11.3899,9.86401,-0.0358676,0.00349144,0.0132588,0.00754121,-0.0399173,1.27436,0.0294489,0.0456708,1763,1499,11.3898,-9.86405
546,-475,11.1697,9.80701,-0.0293161,0.00112243,0.0113,0.00485879,-0.0330525,1.25146,0.0238203,0.0381776,1770,1499,11.1697,-9.80699
553,-475,11.0811,9.74963,-0.0231744,-0.00038183,0.0092851,0.00292183,-0.0264781,1.22896,0.0187022,0.020211,1777,1499,11.081,-9.74962
560,-475,10.969,9.6322,-0.017499,-0.001451,0.00738361,0.00142924,-0.0203792,1.19887,0.0140867,0.0142564,1784,1499,10.969,-9.63223
567,-475,11.0051,9.38,-0.0125816,-0.00191348,0.00574301,0.000590477,-0.0150855,1.15965,0.0102595,0.013838,1791,1499,11.0052,-9.38003
574,-475,10.9805,9.16956,-0.00906765,-0.00209875,0.00443486,5.67781e-05,-0.0112232,1.11838,0.00750112,0.0145245,1798,1499,10.9804,-9.16955
581,-475,10.984,8.979,-0.00554535,-0.00208093,0.00303354,-0.000319869,-0.00730641,1.04482,0.0047679,0.0121249,1805,1499,10.9841,-8.979
588,-475,10.9927,8.76196,-0.0024497,-0.00136029,0.00175749,-6.50338e-05,-0.00374496,0.93567,0.00247524,0.0103463,1812,1499,10.9926,-8.76196
595,-475,11.0084,8.54346,-0.000611428,-0.000561388,0.00075026,0.000164269,-0.00133709,0.802066,0.000950888,0.0108652,1819,1499,11.0084,-8.54346
602,-475,11.0212,8.30713,0.000181088,0.000514761,-0.000373025,0.000756559,-6.07098e-05,-0.995682,0.000525779,0.0117698,1826,1499,11.0212,-8.30712
609,-475,11.0006,8.08496,0.000749695,0.00122056,-0.00169655,0.00269794,-0.000727684,-0.854343,0.00208398,0.0109185,1833,1499,11.0006,-8.08494
616,-475,10.9945,7.88281,0.00117975,0.00207289,-0.00305307,0.00471188,-0.00145924,-0.858018,0.00372421,0.0114784,1840,1499,10.9945,-7.88278
623,-475,11.001,7.64941,0.00155228,0.00273385,-0.00466911,0.0068494,-0.00256327,-0.848329,0.00561907,0.0112359,1847,1499,11.001,-7.64944
630,-475,11.0205,7.41711,0.00191992,0.00346253,-0.00683735,0.00957194,-0.0041895,-0.841565,0.00814523,0.0131198,1854,1499,11.0205,-7.41715
637,-475,11.0444,7.23938,0.00236696,0.00422157,-0.00965989,0.0129986,-0.00641003,-0.833249,0.0114187,0.0276809,1861,1499,11.0445,-7.23939
644,-475,11.1014,7.01489,0,0,0,0,0,0,0,-1,1868,1499,11.1014,-7.01489
651,-475,11.7965,7.57593,0,0,0,0,0,0,0,-1,1875,1499,11.7965,-7.5759
658,-475,12.2714,7.39185,0,0,0,0,0,0,0,-1,1882,1499,12.2714,-7.39187
665,-475,9.33435,5.43335,0,0,0,0,0,0,0,-1,1889,1499,9.33439,-5.43332
672,-475,9.38635,1.10474,0,0,0,0,0,0,0,-1,1896,1499,9.38629,-1.10475
679,-475,12.2594,1.31079,0,0,0,0,0,0,0,-1,1903,1499,12.2594,-1.31077
686,-475,0,0,0,0,0,0,0,0,0,-1,1910,1499,0,0
693,-475,0,0,0,0,0,0,0,0,0,-1,1917,1499,0,0
700,-475,0,0,0,0,0,0,0,0,0,-1,1924,1499,0,0
707,-475,0,0,0,0,0,0,0,0,0,-1,1931,1499,0,0
714,-475,0,0,0,0,0,0,0,0,0,-1,1938,1499,0,0
721,-475,0,0,0,0,0,0,0,0,0,-1,1945,1499,0,0
728,-475,0,0,0,0,0,0,0,0,0,-1,1952,1499,0,0
735,-475,0,0,0,0,0,0,0,0,0,-1,1959,1499,0,0
742,-475,0,0,0,0,0,0,0,0,0,-1,1966,1499,0,0
749,-475,0,0,0,0,0,0,0,0,0,-1,1973,1499,0,0
756,-475,0,0,0,0,0,0,0,0,0,-1,1980,1499,0,0
763,-475,0,0,0,0,0,0,0,0,0,-1,1987,1499,0,0
770,-475,0,0,0,0,0,0,0,0,0,-1,1994,1499,0,0
777,-475,0,0,0,0,0,0,0,0,0,-1,2001,1499,0,0
784,-475,0,0,0,0,0,0,0,0,0,-1,2008,1499,0,0
791,-475,0,0,0,0,0,0,0,0,0,-1,2015,1499,0,0
798,-475,0,0,0,0,0,0,0,0,0,-1,2022,1499,0,0
805,-475,0,0,0,0,0,0,0,0,0,-1,2029,1499,0,0
812,-475,0,0,0,0,0,0,0,0,0,-1,2036,1499,0,0
-700,-482,0,0,0,0,0,0,0,0,0,-1,524,1506,0,0
-693,-482,0,0,0,0,0,0,0,0,0,-1,531,1506,0,0
-686,-482,0,0,0,0,0,0,0,0,0,-1,538,1506,0,0
-679,-482,0,0,0,0,0,0,0,0,0,-1,545,1506,0,0
-672,-482,0,0,0,0,0,0,0,0,0,-1,552,1506,0,0
-665,-482,0,0,0,0,0,0,0,0,0,-1,559,1506,0,0
-658,-482,0,0,0,0,0,0,0,0,0,-1,566,1506,0,0
-651,-482,0,0,0,0,0,0,0,0,0,-1,573,1506,0,0
-644,-482,0,0,0,0,0,0,0,0,0,-1,580,1506,0,0
-637,-482,0,0,0,0,0,0,0,0,0,-1,587,1506,0,0
-630,-482,0,0,0,0,0,0,0,0,0,-1,594,1506,0,0
-623,-482,0,0,0,0,0,0,0,0,0,-1,601,1506,0,0
-616,-482,0,0,0,0,0,0,0,0,0,-1,608,1506,0,0
-609,-482,0,0,0,0,0,0,0,0,0,-1,615,1506,0,0
-602,-482,0,0,0,0,0,0,0,0,0,-1,622,1506,0,0
-595,-482,0,0,0,0,0,0,0,0,0,-1,629,1506,0,0
-588,-482,0,0,0,0,0,0,0,0,0,-1,636,1506,0,0
-581,-482,0,0,0,0,0,0,0,0,0,-1,643,1506,0,0
-574,-482,0,0,0,0,0,0,0,0,0,-1,650,1506,0,0
-567,-482,0,0,0,0,0,0,0,0,0,-1,657,1506,0,0
-560,-482,0,0,0,0,0,0,0,0,0,-1,664,1506,0,0
-553,-482,-9.06055,9.34314,0,0,0,0,0,0,0,-1,671,1506,-9.06056,-9.34312
-546,-482,-4.08624,8.34241,0,0,0,0,0,0,0,-1,678,1506,-4.08624,-8.3424
-539,-482,-5.94067,7.21851,0,0,0,0,0,0,0,-1,685,1506,-5.94069,-7.21847
-532,-482,-2.60956,2.45618,0,0,0,0,0,0,0,-1,692,1506,-2.60956,-2.45621
-525,-482,-2.0675,2.76611,0,0,0,0,0,0,0,-1,699,1506,-2.06748,-2.76612
-518,-482,-2.85242,4.99207,0,0,0,0,0,0,0,-1,706,1506,-2.85242,-4.99201
-511,-482,-2.49561,5.17102,0,0,0,0,0,0,0,-1,713,1506,-2.49562,-5.17106
-504,-482,-1.79877,5.37292,0.0130576,0.0077217,0.0157171,0.0263316,-0.00555231,0.701325,0.0196682,0.0408298,720,1506,-1.79878,-5.37296
-497,-482,-1.60669,5.76758,0.00843788,0.00549143,0.0111063,0.0181682,-0.00423892,0.719459,0.0137448,0.0240043,727,1506,-1.60666,-5.76754
-490,-482,-1.60767,5.96472,0.00484031,0.00353514,0.00730311,0.0115199,-0.00314448,0.740838,0.00891493,0.0143614,734,1506,-1.60769,-5.96478
-483,-482,-1.60132,6.22839,0.0022957,0.00213498,0.00440833,0.00662441,-0.00219372,0.776285,0.00530104,0.00868472,741,1506,-1.60131,-6.22839
-476,-482,-1.6095,6.45959,0.00108572,0.000620448,0.00274205,0.00360498,-0.00189882,0.74308,0.00322812,0.00978652,748,1506,-1.60948,-6.45957
-469,-482,-1.61627,6.69421,0.000497606,-0.00131366,0.000605896,0.000681597,-0.00149765,0.294818,0.00128726,0.0111289,755,1506,-1.61625,-6.69421
-462,-482,-1.60687,6.94287,0.000788246,-0.0027505,-0.000945536,0.00102504,-0.0029873,-0.24539,0.0024071,0.0122899,762,1506,-1.60686,-6.94284
-455,-482,-1.61627,7.1908,0.00128347,-0.00456409,-0.00184029,0.00181442,-0.00509504,-0.280886,0.00413635,0.0134399,769,1506,-1.61627,-7.19081
-448,-482,-1.61847,7.47778,0.00202613,-0.0066774,-0.00276913,0.00283246,-0.00748373,-0.28335,0.00615455,0.0137481,776,1506,-1.61845,-7.47776
-441,-482,-1.61078,7.69568,0.00287401,-0.00920772,-0.00377039,0.00395409,-0.0102878,-0.278993,0.00848927,0.0126518,783,1506,-1.61076,-7.69565
-434,-482,-1.61359,7.91748,0.00341674,-0.0117256,-0.0050675,0.00495612,-0.0132649,-0.294918,0.0108784,0.0147743,790,1506,-1.61359,-7.91754
-427,-482,-1.61432,8.19177,0.00384082,-0.0147095,-0.00657859,0.00593696,-0.0168056,-0.30846,0.0136211,0.0168088,797,1506,-1.61434,-8.19176
-420,-482,-1.54956,8.51538,0.0040766,-0.0183563,-0.00838375,0.00686358,-0.0211433,-0.320934,0.0168558,0.0245504,804,1506,-1.54957,-8.51541
-413,-482,-1.4068,8.5437,0.00385541,-0.0228153,-0.010335,0.00739143,-0.0263514,-0.329657,0.0204809,0.0342057,811,1506,-1.40681,-8.54371
-406,-482,-1.3623,8.51221,0,0,0,0,0,0,0,-1,818,1506,-1.36229,-8.51223
-399,-482,-1.10901,8.7218,0,0,0,0,0,0,0,-1,825,1506,-1.10902,-8.7218
-392,-482,-1.36102,8.828,0,0,0,0,0,0,0,-1,832,1506,-1.36104,-8.82798
-385,-482,0.0647583,8.90649,0,0,0,0,0,0,0,-1,839,1506,0.0647778,-8.90644
-378,-482,0.215698,5.96948,0,0,0,0,0,0,0,-1,846,1506,0.215681,-5.9695
-371,-482,-0.10907,8.10437,0,0,0,0,0,0,0,-1,853,1506,-0.109063,-8.10433
-364,-482,-0.154968,10.5032,0,0,0,0,0,0,0,-1,860,1506,-0.154976,-10.5032
-357,-482,2.14807,4.60144,0,0,0,0,0,0,0,-1,867,1506,2.14807,-4.60144
-350,-482,-7.5813,-1.45935,0,0,0,0,0,0,0,-1,874,1506,-7.58133,1.45937
-343,-482,-7.19983,-1.26416,0,0,0,0,0,0,0,-1,881,1506,-7.19981,1.26414
-336,-482,-6.78491,-1.18127,0,0,0,0,0,0,0,-1,888,1506,-6.78488,1.18125
-329,-482,0,0,0,0,0,0,0,0,0,-1,895,1506,0,0
-322,-482,0,0,0,0,0,0,0,0,0,-1,902,1506,0,0
-315,-482,0,0,0,0,0,0,0,0,0,-1,909,1506,0,0
-308,-482,0,0,0,0,0,0,0,0,0,-1,916,1506,0,0
-301,-482,0,0,0,0,0,0,0,0,0,-1,923,1506,0,0
-294,-482,0,0,0,0,0,0,0,0,0,-1,930,1506,0,0
-287,-482,0,0,0,0,0,0,0,0,0,-1,937,1506,0,0
-280,-482,0,0,0,0,0,0,0,0,0,-1,944,1506,0,0
-273,-482,0,0,0,0,0,0,0,0,0,-1,951,1506,0,0
-266,-482,0,0,0,0,0,0,0,0,0,-1,958,1506,0,0
-259,-482,0,0,0,0,0,0,0,0,0,-1,965,1506,0,0
-252,-482,0,0,0,0,0,0,0,0,0,-1,972,1506,0,0
-245,-482,0,0,0,0,0,0,0,0,0,-1,979,1506,0,0
-238,-482,0,0,0,0,0,0,0,0,0,-1,986,1506,0,0
-231,-482,0,0,0,0,0,0,0,0,0,-1,993,1506,0,0
-224,-482,0,0,0,0,0,0,0,0,0,-1,1000,1506,0,0
-217,-482,0,0,0,0,0,0,0,0,0,-1,1007,1506,0,0
-210,-482,0,0,0,0,0,0,0,0,0,-1,1014,1506,0,0
-203,-482,0,0,0,0,0,0,0,0,0,-1,1021,1506,0,0
-196,-482,0,0,0,0,0,0,0,0,0,-1,1028,1506,0,0
-189,-482,0,0,0,0,0,0,0,0,0,-1,1035,1506,0,0
-182,-482,0,0,0,0,0,0,0,0,0,-1,1042,1506,0,0
-175,-482,0,0,0,0,0,0,0,0,0,-1,1049,1506,0,0
-168,-482,0,0,0,0,0,0,0,0,0,-1,1056,1506,0,0
-161,-482,0,0,0,0,0,0,0,0,0,-1,1063,1506,0,0
-154,-482,0,0,0,0,0,0,0,0,0,-1,1070,1506,0,0
-147,-482,0,0,0,0,0,0,0,0,0,-1,1077,1506,0,0
-140,-482,0,0,0,0,0,0,0,0,0,-1,1084,1506,0,0
-133,-482,0,0,0,0,0,0,0,0,0,-1,1091,1506,0,0
-126,-482,0,0,0,0,0,0,0,0,0,-1,1098,1506,0,0
-119,-482,0,0,0,0,0,0,0,0,0,-1,1105,1506,0,0
-112,-482,0,0,0,0,0,0,0,0,0,-1,1112,1506,0,0
-105,-482,0,0,0,0,0,0,0,0,0,-1,1119,1506,0,0
-98,-482,0,0,0,0,0,0,0,0,0,-1,1126,1506,0,0
-91,-482,0,0,0,0,0,0,0,0,0,-1,1133,1506,0,0
-84,-482,0,0,0,0,0,0,0,0,0,-1,1140,1506,0,0
-77,-482,0,0,0,0,0,0,0,0,0,-1,1147,1506,0,0
-70,-482,0,0,0,0,0,0,0,0,0,-1,1154,1506,0,0
-63,-482,0,0,0,0,0,0,0,0,0,-1,1161,1506,0,0
-56,-482,0,0,0,0,0,0,0,0,0,-1,1168,1506,0,0
-49,-482,0,0,0,0,0,0,0,0,0,-1,1175,1506,0,0
-42,-482,0,0,0,0,0,0,0,0,0,-1,1182,1506,0,0
-35,-482,0,0,0,0,0,0,0,0,0,-1,1189,1506,0,0
-28,-482,0,0,0,0,0,0,0,0,0,-1,1196,1506,0,0
-21,-482,0,0,0,0,0,0,0,0,0,-1,1203,1506,0,0
-14,-482,0,0,0,0,0,0,0,0,0,-1,1210,1506,0,0
-7,-482,0,0,0,0,0,0,0,0,0,-1,1217,1506,0,0
0,-482,0,0,0,0,0,0,0,0,0,-1,1224,1506,0,0
7,-482,0,0,0,0,0,0,0,0,0,-1,1231,1506,0,0
14,-482,0,0,0,0,0,0,0,0,0,-1,1238,1506,0,0
21,-482,0,0,0,0,0,0,0,0,0,-1,1245,1506,0,0
28,-482,0,0,0,0,0,0,0,0,0,-1,1252,1506,0,0
35,-482,0,0,0,0,0,0,0,0,0,-1,1259,1506,0,0
42,-482,0,0,0,0,0,0,0,0,0,-1,1266,1506,0,0
49,-482,0,0,0,0,0,0,0,0,0,-1,1273,1506,0,0
56,-482,0,0,0,0,0,0,0,0,0,-1,1280,1506,0,0
63,-482,0,0,0,0,0,0,0,0,0,-1,1287,1506,0,0
70,-482,0,0,0,0,0,0,0,0,0,-1,1294,1506,0,0
77,-482,0,0,0,0,0,0,0,0,0,-1,1301,1506,0,0
84,-482,0,0,0,0,0,0,0,0,0,-1,1308,1506,0,0
91,-482,0,0,0,0,0,0,0,0,0,-1,1315,1506,0,0
98,-482,0,0,0,0,0,0,0,0,0,-1,1322,1506,0,0
105,-482,0,0,0,0,0,0,0,0,0,-1,1329,1506,0,0
112,-482,0,0,0,0,0,0,0,0,0,-1,1336,1506,0,0
119,-482,0,0,0,0,0,0,0,0,0,-1,1343,1506,0,0
126,-482,0,0,0,0,0,0,0,0,0,-1,1350,1506,0,0
133,-482,0,0,0,0,0,0,0,0,0,-1,1357,1506,0,0
140,-482,0,0,0,0,0,0,0,0,0,-1,1364,1506,0,0
147,-482,0,0,0,0,0,0,0,0,0,-1,1371,1506,0,0
154,-482,0,0,0,0,0,0,0,0,0,-1,1378,1506,0,0
161,-482,0,0,0,0,0,0,0,0,0,-1,1385,1506,0,0
168,-482,0,0,0,0,0,0,0,0,0,-1,1392,1506,0,0
175,-482,0,0,0,0,0,0,0,0,0,-1,1399,1506,0,0
182,-482,0,0,0,0,0,0,0,0,0,-1,1406,1506,0,0
189,-482,0,0,0,0,0,0,0,0,0,-1,1413,1506,0,0
196,-482,0,0,0,0,0,0,0,0,0,-1,1420,1506,0,0
203,-482,0,0,0,0,0,0,0,0,0,-1,1427,1506,0,0
210,-482,0,0,0,0,0,0,0,0,0,-1,1434,1506,0,0
217,-482,0,0,0,0,0,0,0,0,0,-1,1441,1506,0,0
224,-482,0,0,0,0,0,0,0,0,0,-1,1448,1506,0,0
231,-482,0,0,0,0,0,0,0,0,0,-1,1455,1506,0,0
238,-482,0,0,0,0,0,0,0,0,0,-1,1462,1506,0,0
245,-482,0,0,0,0,0,0,0,0,0,-1,1469,1506,0,0
252,-482,0,0,0,0,0,0,0,0,0,-1,1476,1506,0,0
259,-482,0,0,0,0,0,0,0,0,0,-1,1483,1506,0,0
266,-482,0,0,0,0,0,0,0,0,0,-1,1490,1506,0,0
273,-482,0,0,0,0,0,0,0,0,0,-1,1497,1506,0,0
280,-482,0,0,0,0,0,0,0,0,0,-1,1504,1506,0,0
287,-482,0,0,0,0,0,0,0,0,0,-1,1511,1506,0,0
294,-482,0,0,0,0,0,0,0,0,0,-1,1518,1506,0,0
301,-482,0,0,0,0,0,0,0,0,0,-1,1525,1506,0,0
308,-482,0,0,0,0,0,0,0,0,0,-1,1532,1506,0,0
315,-482,0,0,0,0,0,0,0,0,0,-1,1539,1506,0,0
322,-482,0,0,0,0,0,0,0,0,0,-1,1546,1506,0,0
329,-482,0,0,0,0,0,0,0,0,0,-1,1553,1506,0,0
336,-482,0,0,0,0,0,0,0,0,0,-1,1560,1506,0,0
343,-482,0,0,0,0,0,0,0,0,0,-1,1567,1506,0,0
350,-482,0,0,0,0,0,0,0,0,0,-1,1574,1506,0,0
357,-482,0,0,0,0,0,0,0,0,0,-1,1581,1506,0,0
364,-482,0,0,0,0,0,0,0,0,0,-1,1588,1506,0,0
371,-482,0,0,0,0,0,0,0,0,0,-1,1595,1506,0,0
378,-482,0,0,0,0,0,0,0,0,0,-1,1602,1506,0,0
385,-482,0,0,0,0,0,0,0,0,0,-1,1609,1506,0,0
392,-482,0,0,0,0,0,0,0,0,0,-1,1616,1506,0,0
399,-482,0,0,0,0,0,0,0,0,0,-1,1623,1506,0,0
406,-482,0,0,0,0,0,0,0,0,0,-1,1630,1506,0,0
413,-482,0,0,0,0,0,0,0,0,0,-1,1637,1506,0,0
420,-482,0,0,0,0,0,0,0,0,0,-1,1644,1506,0,0
427,-482,0,0,0,0,0,0,0,0,0,-1,1651,1506,0,0
434,-482,0,0,0,0,0,0,0,0,0,-1,1658,1506,0,0
441,-482,0,0,0,0,0,0,0,0,0,-1,1665,1506,0,0
448,-482,4.24146,1.55383,0,0,0,0,0,0,0,-1,1672,1506,4.24149,-1.55381
455,-482,12.4122,1.09729,0,0,0,0,0,0,0,-1,1679,1506,12.4122,-1.09734
462,-482,15.0673,3.13135,0,0,0,0,0,0,0,-1,1686,1506,15.0672,-3.13134
469,-482,15.3793,3.46301,0,0,0,0,0,0,0,-1,1693,1506,15.3793,-3.46307
476,-482,8.69751,9.18738,0,0,0,0,0,0,0,-1,1700,1506,8.69753,-9.18739
483,-482,10.0902,7.17432,0,0,0,0,0,0,0,-1,1707,1506,10.0902,-7.1743
490,-482,11.6289,5.4928,0,0,0,0,0,0,0,-1,1714,1506,11.6289,-5.49283
497,-482,14.7356,5.20508,0,0,0,0,0,0,0,-1,1721,1506,14.7356,-5.20505
504,-482,13.5994,6.01233,0,0,0,0,0,0,0,-1,1728,1506,13.5994,-6.01228
511,-482,12.528,7.25598,0,0,0,0,0,0,0,-1,1735,1506,12.528,-7.25593
518,-482,10.4655,9.84277,0,0,0,0,0,0,0,-1,1742,1506,10.4654,-9.84283
525,-482,12.72,10.6279,-0.0380225,0.00324402,0.0183,0.0101901,-0.0449686,1.20803,0.0338903,0.0419441,1749,1506,12.72,-10.6279
532,-482,11.8694,10.312,-0.0340679,0.00259699,0.0153083,0.00814807,-0.039619,1.22292,0.0295061,0.0394055,1756,1506,11.8694,-10.3121
539,-482,11.1112,10.0236,-0.0291829,0.00102699,0.0128485,0.00575243,-0.0339083,1.21837,0.0247469,0.0314253,1763,1506,11.1112,-10.0236
546,-482,10.8461,9.97375,-0.0239204,-0.000189627,0.0105379,0.00381427,-0.0279243,1.20769,0.0200092,0.017048,1770,1506,10.8461,-9.97377
553,-482,10.7709,9.82959,-0.0189833,-0.000785851,0.00834597,0.00246217,-0.0222313,1.19966,0.0157061,0.0144406,1777,1506,10.7709,-9.82954
560,-482,10.7666,9.60779,-0.0142587,-0.00129862,0.00636912,0.00130741,-0.0168647,1.18241,0.0117033,0.0122128,1784,1506,10.7666,-9.60785
567,-482,10.7928,9.38306,-0.0100962,-0.00145202,0.00474747,0.000646085,-0.0121943,1.15466,0.00835324,0.0144919,1791,1506,10.7929,-9.38303
574,-482,10.788,9.17236,-0.00711948,-0.00131793,0.00345555,0.000292975,-0.00873039,1.13457,0.00592034,0.0135863,1798,1506,10.7879,-9.1724
581,-482,10.7737,8.97351,-0.00405332,-0.00119772,0.00212887,-6.21786e-05,-0.00518886,1.08079,0.0034387,0.00999498,1805,1506,10.7737,-8.97352
588,-482,10.7684,8.7677,-0.00133907,-0.000394564,0.000833325,9.10205e-05,-0.00182466,1.04319,0.00124788,0.0112428,1812,1506,10.7684,-8.76772
595,-482,10.7919,8.54272,0.000273307,0.000441186,-0.000118192,0.000502213,0.000212281,-1.09417,0.000291106,0.01632,1819,1506,10.7918,-8.54273
602,-482,10.8198,8.30505,0.00090729,0.00173447,-0.00141364,0.00279378,-0.000152022,-0.927712,0.00191521,0.0201171,1826,1506,10.8198,-8.30502
609,-482,10.7994,8.08459,0.00137144,0.00265697,-0.00293574,0.00501948,-0.000991073,-0.89317,0.00372094,0.0158405,1833,1506,10.7995,-8.08453
616,-482,10.7816,7.88,0.00165838,0.00390568,-0.00465533,0.00757105,-0.00200699,-0.903818,0.00583262,0.0112339,1840,1506,10.7816,-7.87999
623,-482,10.7819,7.6665,0.00185326,0.00520599,-0.00688494,0.0106157,-0.00355647,-0.904816,0.00851394,0.0115948,1847,1506,10.7819,-7.66649
630,-482,10.8342,7.44507,0.00202854,0.00692719,-0.0100451,0.0148172,-0.0058615,-0.904982,0.0123064,0.0226574,1854,1506,10.8342,-7.44509
637,-482,10.8042,7.23486,0,0,0,0,0,0,0,-1,1861,1506,10.8042,-7.23486
644,-482,9.80469,6.55469,0,0,0,0,0,0,0,-1,1868,1506,9.80464,-6.5547
651,-482,4.03845,7.05273,0,0,0,0,0,0,0,-1,1875,1506,4.03843,-7.05279
658,-482,10.0278,5.87903,0,0,0,0,0,0,0,-1,1882,1506,10.0279,-5.87902
665,-482,8.15198,3.22229,0,0,0,0,0,0,0,-1,1889,1506,8.15199,-3.22232
672,-482,9.87415,1.3147,0,0,0,0,0,0,0,-1,1896,1506,9.87416,-1.31473
679,-482,0,0,0,0,0,0,0,0,0,-1,1903,1506,0,0
686,-482,0,0,0,0,0,0,0,0,0,-1,1910,1506,0,0
693,-482,0,0,0,0,0,0,0,0,0,-1,1917,1506,0,0
700,-482,0,0,0,0,0,0,0,0,0,-1,1924,1506,0,0
707,-482,0,0,0,0,0,0,0,0,0,-1,1931,1506,0,0
714,-482,0,0,0,0,0,0,0,0,0,-1,1938,1506,0,0
721,-482,0,0,0,0,0,0,0,0,0,-1,1945,1506,0,0
728,-482,0,0,0,0,0,0,0,0,0,-1,1952,1506,0,0
735,-482,0,0,0,0,0,0,0,0,0,-1,1959,1506,0,0
742,-482,0,0,0,0,0,0,0,0,0,-1,1966,1506,0,0
749,-482,0,0,0,0,0,0,0,0,0,-1,1973,1506,0,0
756,-482,0,0,0,0,0,0,0,0,0,-1,1980,1506,0,0
763,-482,0,0,0,0,0,0,0,0,0,-1,1987,1506,0,0
770,-482,0,0,0,0,0,0,0,0,0,-1,1994,1506,0,0
777,-482,0,0,0,0,0,0,0,0,0,-1,2001,1506,0,0
784,-482,0,0,0,0,0,0,0,0,0,-1,2008,1506,0,0
791,-482,0,0,0,0,0,0,0,0,0,-1,2015,1506,0,0
798,-482,0,0,0,0,0,0,0,0,0,-1,2022,1506,0,0
805,-482,0,0,0,0,0,0,0,0,0,-1,2029,1506,0,0
812,-482,0,0,0,0,0,0,0,0,0,-1,2036,1506,0,0
-700,-489,0,0,0,0,0,0,0,0,0,-1,524,1513,0,0
-693,-489,0,0,0,0,0,0,0,0,0,-1,531,1513,0,0
-686,-489,0,0,0,0,0,0,0,0,0,-1,538,1513,0,0
-679,-489,0,0,0,0,0,0,0,0,0,-1,545,1513,0,0
-672,-489,0,0,0,0,0,0,0,0,0,-1,552,1513,0,0
-665,-489,0,0,0,0,0,0,0,0,0,-1,559,1513,0,0
-658,-489,0,0,0,0,0,0,0,0,0,-1,566,1513,0,0
-651,-489,0,0,0,0,0,0,0,0,0,-1,573,1513,0,0
-644,-489,0,0,0,0,0,0,0,0,0,-1,580,1513,0,0
-637,-489,0,0,0,0,0,0,0,0,0,-1,587,1513,0,0
-630,-489,0,0,0,0,0,0,0,0,0,-1,594,1513,0,0
-623,-489,0,0,0,0,0,0,0,0,0,-1,601,1513,0,0
-616,-489,0,0,0,0,0,0,0,0,0,-1,608,1513,0,0
-609,-489,0,0,0,0,0,0,0,0,0,-1,615,1513,0,0
-602,-489,0,0,0,0,0,0,0,0,0,-1,622,1513,0,0
-595,-489,0,0,0,0,0,0,0,0,0,-1,629,1513,0,0
-588,-489,0,0,0,0,0,0,0,0,0,-1,636,1513,0,0
-581,-489,0,0,0,0,0,0,0,0,0,-1,643,1513,0,0
-574,-489,0,0,0,0,0,0,0,0,0,-1,650,1513,0,0
-567,-489,0,0,0,0,0,0,0,0,0,-1,657,1513,0,0
-560,-489,0,0,0,0,0,0,0,0,0,-1,664,1513,0,0
-553,-489,-9.42206,8.5116,0,0,0,0,0,0,0,-1,671,1513,-9.42205,-8.51158
-546,-489,-7.80951,8.18506,0,0,0,0,0,0,0,-1,678,1513,-7.8095,-8.18503
-539,-489,-3.61237,7.19727,0,0,0,0,0,0,0,-1,685,1513,-3.61238,-7.19723
-532,-489,-2.58179,1.57959,0,0,0,0,0,0,0,-1,692,1513,-2.58177,-1.57956
-525,-489,-2.09979,2.3208,0.0337012,0.0182306,0.0360583,0.0628445,-0.0109127,0.679739,0.0459678,0.0472108,699,1513,-2.09979,-2.32083
-518,-489,-1.58936,3.12598,0,0,0,0,0,0,0,-1,706,1513,-1.58938,-3.12603
-511,-489,-1.10822,3.60583,0,0,0,0,0,0,0,-1,713,1513,-1.10821,-3.60584
-504,-489,-1.19318,5.57825,0,0,0,0,0,0,0,-1,720,1513,-1.19315,-5.57823
-497,-489,-1.25708,5.80933,0.00794256,0.00573542,0.0115242,0.0184159,-0.00473794,0.737663,0.014124,0.0387968,727,1513,-1.25705,-5.80935
-490,-489,-1.34747,6.02148,0.00437413,0.0037435,0.00760612,0.0116715,-0.00355384,0.764682,0.00919738,0.021206,734,1513,-1.34747,-6.02154
-483,-489,-1.36957,6.20776,0.00190548,0.00246755,0.00473992,0.00693476,-0.00256173,0.815009,0.00567326,0.0103269,741,1513,-1.36959,-6.20777
-476,-489,-1.37506,6.45129,0.000786347,0.00114097,0.00316703,0.00413564,-0.00220833,0.813362,0.00371861,0.00950297,748,1513,-1.37508,-6.45135
-469,-489,-1.38678,6.69543,0.00016461,-0.000546035,0.00110264,0.000967768,-0.00134919,0.629529,0.00134373,0.0104595,755,1513,-1.38675,-6.69546
-462,-489,-1.37805,6.95239,0.000477344,-0.00158843,-0.000229355,0.000502502,-0.00161358,-0.109254,0.00127663,0.0148489,762,1513,-1.37803,-6.95239
-455,-489,-1.38416,7.20496,0.00099107,-0.00298767,-0.000909725,0.00118921,-0.00318581,-0.214451,0.00261213,0.0187531,769,1513,-1.38417,-7.20495
-448,-489,-1.40381,7.46155,0.00172267,-0.00457816,-0.00158939,0.00210089,-0.00495638,-0.233621,0.00418421,0.0167626,776,1513,-1.4038,-7.46151
-441,-489,-1.3894,7.70898,0.00257112,-0.00651505,-0.00228808,0.00311477,-0.0070587,-0.233278,0.00601898,0.0143589,783,1513,-1.38939,-7.70897
-434,-489,-1.43073,7.9447,0.00308838,-0.00829245,-0.00324922,0.00395069,-0.00915476,-0.259411,0.00776274,0.0171772,790,1513,-1.43075,-7.94475
-427,-489,-1.43445,8.1958,0.00348331,-0.010433,-0.00436383,0.0047385,-0.0116882,-0.280073,0.00976276,0.0194201,797,1513,-1.43442,-8.1958
-420,-489,-1.40204,8.47522,0.00376155,-0.0130915,-0.00568976,0.0055026,-0.0148326,-0.29695,0.0121454,0.0182528,804,1513,-1.40203,-8.47524
-413,-489,-1.16675,8.63745,0.00367519,-0.0164885,-0.00710785,0.00592886,-0.0187422,-0.307042,0.0148704,0.0267652,811,1513,-1.16673,-8.6375
-406,-489,-1.04413,8.99878,0,0,0,0,0,0,0,-1,818,1513,-1.04413,-8.99873
-399,-489,-1.146,8.66638,0,0,0,0,0,0,0,-1,825,1513,-1.14598,-8.66636
-392,-489,-1.21136,8.96655,0,0,0,0,0,0,0,-1,832,1513,-1.21134,-8.96657
-385,-489,-1.64423,9.3147,0,0,0,0,0,0,0,-1,839,1513,-1.64423,-9.31473
-378,-489,-1.90674,9.91614,0,0,0,0,0,0,0,-1,846,1513,-1.90676,-9.91609
-371,-489,-1.11633,10.6606,0,0,0,0,0,0,0,-1,853,1513,-1.11633,-10.6606
-364,-489,-0.503113,8.98486,0,0,0,0,0,0,0,-1,860,1513,-0.503097,-8.98482
-357,-489,-0.609924,10.9606,0,0,0,0,0,0,0,-1,867,1513,-0.609947,-10.9605
-350,-489,-7.94659,-0.358887,0,0,0,0,0,0,0,-1,874,1513,-7.94657,0.358912
-343,-489,-7.49323,-0.437866,0,0,0,0,0,0,0,-1,881,1513,-7.49322,0.437823
-336,-489,-7.02332,-0.53125,0,0,0,0,0,0,0,-1,888,1513,-7.0233,0.531295
-329,-489,-6.70221,-0.242432,0,0,0,0,0,0,0,-1,895,1513,-6.70221,0.2424
-322,-489,0,0,0,0,0,0,0,0,0,-1,902,1513,0,0
-315,-489,0,0,0,0,0,0,0,0,0,-1,909,1513,0,0
-308,-489,0,0,0,0,0,0,0,0,0,-1,916,1513,0,0
-301,-489,0,0,0,0,0,0,0,0,0,-1,923,1513,0,0
-294,-489,0,0,0,0,0,0,0,0,0,-1,930,1513,0,0
-287,-489,0,0,0,0,0,0,0,0,0,-1,937,1513,0,0
-280,-489,0,0,0,0,0,0,0,0,0,-1,944,1513,0,0
-273,-489,0,0,0,0,0,0,0,0,0,-1,951,1513,0,0
-266,-489,0,0,0,0,0,0,0,0,0,-1,958,1513,0,0
-259,-489,0,0,0,0,0,0,0,0,0,-1,965,1513,0,0
-252,-489,0,0,0,0,0,0,0,0,0,-1,972,1513,0,0
-245,-489,0,0,0,0,0,0,0,0,0,-1,979,1513,0,0
-238,-489,0,0,0,0,0,0,0,0,0,-1,986,1513,0,0
-231,-489,0,0,0,0,0,0,0,0,0,-1,993,1513,0,0
-224,-489,0,0,0,0,0,0,0,0,0,-1,1000,1513,0,0
-217,-489,0,0,0,0,0,0,0,0,0,-1,1007,1513,0,0
-210,-489,0,0,0,0,0,0,0,0,0,-1,1014,1513,0,0
-203,-489,0,0,0,0,0,0,0,0,0,-1,1021,1513,0,0
-196,-489,0,0,0,0,0,0,0,0,0,-1,1028,1513,0,0
-189,-489,0,0,0,0,0,0,0,0,0,-1,1035,1513,0,0
-182,-489,0,0,0,0,0,0,0,0,0,-1,1042,1513,0,0
-175,-489,0,0,0,0,0,0,0,0,0,-1,1049,1513,0,0
-168,-489,0,0,0,0,0,0,0,0,0,-1,1056,1513,0,0
-161,-489,0,0,0,0,0,0,0,0,0,-1,1063,1513,0,0
-154,-489,0,0,0,0,0,0,0,0,0,-1,1070,1513,0,0
-147,-489,0,0,0,0,0,0,0,0,0,-1,1077,1513,0,0
-140,-489,0,0,0,0,0,0,0,0,0,-1,1084,1513,0,0
-133,-489,0,0,0,0,0,0,0,0,0,-1,1091,1513,0,0
-126,-489,0,0,0,0,0,0,0,0,0,-1,1098,1513,0,0
-119,-489,0,0,0,0,0,0,0,0,0,-1,1105,1513,0,0
-112,-489,0,0,0,0,0,0,0,0,0,-1,1112,1513,0,0
-105,-489,0,0,0,0,0,0,0,0,0,-1,1119,1513,0,0
-98,-489,0,0,0,0,0,0,0,0,0,-1,1126,1513,0,0
-91,-489,0,0,0,0,0,0,0,0,0,-1,1133,1513,0,0
-84,-489,0,0,0,0,0,0,0,0,0,-1,1140,1513,0,0
-77,-489,0,0,0,0,0,0,0,0,0,-1,1147,1513,0,0
-70,-489,0,0,0,0,0,0,0,0,0,-1,1154,1513,0,0
-63,-489,0,0,0,0,0,0,0,0,0,-1,1161,1513,0,0
-56,-489,0,0,0,0,0,0,0,0,0,-1,1168,1513,0,0
-49,-489,0,0,0,0,0,0,0,0,0,-1,1175,1513,0,0
-42,-489,0,0,0,0,0,0,0,0,0,-1,1182,1513,0,0
-35,-489,0,0,0,0,0,0,0,0,0,-1,1189,1513,0,0
-28,-489,0,0,0,0,0,0,0,0,0,-1,1196,1513,0,0
-21,-489,0,0,0,0,0,0,0,0,0,-1,1203,1513,0,0
-14,-489,0,0,0,0,0,0,0,0,0,-1,1210,1513,0,0
-7,-489,0,0,0,0,0,0,0,0,0,-1,1217,1513,0,0
0,-489,0,0,0,0,0,0,0,0,0,-1,1224,1513,0,0
7,-489,0,0,0,0,0,0,0,0,0,-1,1231,1513,0,0
14,-489,0,0,0,0,0,0,0,0,0,-1,1238,1513,0,0
21,-489,0,0,0,0,0,0,0,0,0,-1,1245,1513,0,0
28,-489,0,0,0,0,0,0,0,0,0,-1,1252,1513,0,0
35,-489,0,0,0,0,0,0,0,0,0,-1,1259,1513,0,0
42,-489,0,0,0,0,0,0,0,0,0,-1,1266,1513,0,0
49,-489,0,0,0,0,0,0,0,0,0,-1,1273,1513,0,0
56,-489,0,0,0,0,0,0,0,0,0,-1,1280,1513,0,0
63,-489,0,0,0,0,0,0,0,0,0,-1,1287,1513,0,0
70,-489,0,0,0,0,0,0,0,0,0,-1,1294,1513,0,0
77,-489,0,0,0,0,0,0,0,0,0,-1,1301,1513,0,0
84,-489,0,0,0,0,0,0,0,0,0,-1,1308,1513,0,0
91,-489,0,0,0,0,0,0,0,0,0,-1,1315,1513,0,0
98,-489,0,0,0,0,0,0,0,0,0,-1,1322,1513,0,0
105,-489,0,0,0,0,0,0,0,0,0,-1,1329,1513,0,0
112,-489,0,0,0,0,0,0,0,0,0,-1,1336,1513,0,0
119,-489,0,0,0,0,0,0,0,0,0,-1,1343,1513,0,0
126,-489,0,0,0,0,0,0,0,0,0,-1,1350,1513,0,0
133,-489,0,0,0,0,0,0,0,0,0,-1,1357,1513,0,0
140,-489,0,0,0,0,0,0,0,0,0,-1,1364,1513,0,0
147,-489,0,0,0,0,0,0,0,0,0,-1,1371,1513,0,0
154,-489,0,0,0,0,0,0,0,0,0,-1,1378,1513,0,0
161,-489,0,0,0,0,0,0,0,0,0,-1,1385,1513,0,0
168,-489,0,0,0,0,0,0,0,0,0,-1,1392,1513,0,0
175,-489,0,0,0,0,0,0,0,0,0,-1,1399,1513,0,0
182,-489,0,0,0,0,0,0,0,0,0,-1,1406,1513,0,0
189,-489,0,0,0,0,0,0,0,0,0,-1,1413,1513,0,0
196,-489,0,0,0,0,0,0,0,0,0,-1,1420,1513,0,0
203,-489,0,0,0,0,0,0,0,0,0,-1,1427,1513,0,0
210,-489,0,0,0,0,0,0,0,0,0,-1,1434,1513,0,0
217,-489,0,0,0,0,0,0,0,0,0,-1,1441,1513,0,0
224,-489,0,0,0,0,0,0,0,0,0,-1,1448,1513,0,0
231,-489,0,0,0,0,0,0,0,0,0,-1,1455,1513,0,0
238,-489,0,0,0,0,0,0,0,0,0,-1,1462,1513,0,0
245,-489,0,0,0,0,0,0,0,0,0,-1,1469,1513,0,0
252,-489,0,0,0,0,0,0,0,0,0,-1,1476,1513,0,0
259,-489,0,0,0,0,0,0,0,0,0,-1,1483,1513,0,0
266,-489,0,0,0,0,0,0,0,0,0,-1,1490,1513,0,0
273,-489,0,0,0,0,0,0,0,0,0,-1,1497,1513,0,0
280,-489,0,0,0,0,0,0,0,0,0,-1,1504,1513,0,0
287,-489,0,0,0,0,0,0,0,0,0,-1,1511,1513,0,0
294,-489,0,0,0,0,0,0,0,0,0,-1,1518,1513,0,0
301,-489,0,0,0,0,0,0,0,0,0,-1,1525,1513,0,0
308,-489,0,0,0,0,0,0,0,0,0,-1,1532,1513,0,0
315,-489,0,0,0,0,0,0,0,0,0,-1,1539,1513,0,0
322,-489,0,0,0,0,0,0,0,0,0,-1,1546,1513,0,0
329,-489,0,0,0,0,0,0,0,0,0,-1,1553,1513,0,0
336,-489,0,0,0,0,0,0,0,0,0,-1,1560,1513,0,0
343,-489,0,0,0,0,0,0,0,0,0,-1,1567,1513,0,0
350,-489,0,0,0,0,0,0,0,0,0,-1,1574,1513,0,0
357,-489,0,0,0,0,0,0,0,0,0,-1,1581,1513,0,0
364,-489,0,0,0,0,0,0,0,0,0,-1,1588,1513,0,0
371,-489,0,0,0,0,0,0,0,0,0,-1,1595,1513,0,0
378,-489,0,0,0,0,0,0,0,0,0,-1,1602,1513,0,0
385,-489,0,0,0,0,0,0,0,0,0,-1,1609,1513,0,0
392,-489,0,0,0,0,0,0,0,0,0,-1,1616,1513,0,0
399,-489,0,0,0,0,0,0,0,0,0,-1,1623,1513,0,0
406,-489,0,0,0,0,0,0,0,0,0,-1,1630,1513,0,0
413,-489,0,0,0,0,0,0,0,0,0,-1,1637,1513,0,0
420,-489,0,0,0,0,0,0,0,0,0,-1,1644,1513,0,0
427,-489,0,0,0,0,0,0,0,0,0,-1,1651,1513,0,0
434,-489,0,0,0,0,0,0,0,0,0,-1,1658,1513,0,0
441,-489,11.4602,2.56787,0,0,0,0,0,0,0,-1,1665,1513,11.4602,-2.56786
448,-489,12.4425,1.72351,0,0,0,0,0,0,0,-1,1672,1513,12.4425,-1.72349
455,-489,12.5575,1.37463,0,0,0,0,0,0,0,-1,1679,1513,12.5575,-1.37469
462,-489,14.9784,3.84888,0,0,0,0,0,0,0,-1,1686,1513,14.9784,-3.84892
469,-489,15.1367,4.53101,0,0,0,0,0,0,0,-1,1693,1513,15.1368,-4.531
476,-489,15.5536,5.09338,0,0,0,0,0,0,0,-1,1700,1513,15.5536,-5.09339
483,-489,8.96912,8.37805,0,0,0,0,0,0,0,-1,1707,1513,8.96909,-8.37809
490,-489,10.9624,6.73401,0,0,0,0,0,0,0,-1,1714,1513,10.9624,-6.73406
497,-489,14.1656,6.16113,0,0,0,0,0,0,0,-1,1721,1513,14.1657,-6.16109
504,-489,13.0377,6.4032,0,0,0,0,0,0,0,-1,1728,1513,13.0378,-6.40321
511,-489,11.7837,9.77551,0,0,0,0,0,0,0,-1,1735,1513,11.7837,-9.77553
518,-489,10.697,10.0706,-0.0316179,-0.00242357,0.0215869,0.0090383,-0.0430798,1.08269,0.0321588,0.0497288,1742,1513,10.697,-10.0705
525,-489,11.9948,10.8545,-0.0299233,-0.00110626,0.0179049,0.0074676,-0.0384972,1.12421,0.0284822,0.043703,1749,1513,11.9948,-10.8544
532,-489,11.2041,10.425,-0.0268366,-0.000213008,0.014523,0.006176,-0.0332256,1.15635,0.0244702,0.0340895,1756,1513,11.2041,-10.425
539,-489,10.655,10.1915,-0.0230876,-0.000592312,0.01186,0.00450532,-0.0281852,1.16485,0.020458,0.0175414,1763,1513,10.6551,-10.1916
546,-489,10.5571,10.0455,-0.0189759,-0.000920021,0.00945113,0.00312214,-0.0230181,1.16665,0.0164849,0.0115082,1770,1513,10.5572,-10.0455
553,-489,10.5554,9.83545,-0.0150722,-0.000807263,0.00721937,0.00220874,-0.0180882,1.17507,0.0128584,0.0140191,1777,1513,10.5554,-9.83548
560,-489,10.5815,9.61072,-0.0111543,-0.000880965,0.00525796,0.00133297,-0.0133683,1.17226,0.0093881,0.0129904,1784,1513,10.5815,-9.61068
567,-489,10.5747,9.39575,-0.00763004,-0.000783107,0.00369404,0.000829901,-0.00924305,1.1591,0.00645647,0.0134591,1791,1513,10.5747,-9.39577
574,-489,10.5513,9.20251,-0.00507322,-0.00039857,0.00244275,0.000644948,-0.00611674,1.16707,0.00430893,0.0133093,1798,1513,10.5512,-9.2025
581,-489,10.5623,8.98706,-0.00239518,-0.000172462,0.00120655,0.000356567,-0.00292421,1.15758,0.00207855,0.0106749,1805,1513,10.5623,-8.98704
588,-489,10.553,8.77234,-5.73302e-05,0.00073893,-0.000122119,0.000757238,-7.56381e-05,-1.42199,0.000531834,0.0138808,1812,1513,10.553,-8.77229
595,-489,10.5667,8.54199,0.0013259,0.00163031,-0.00104201,0.00253117,0.000425039,-0.857919,0.00156513,0.0195447,1819,1513,10.5667,-8.54201
602,-489,10.5803,8.33459,0.00178612,0.00319918,-0.00255046,0.00513916,-0.000153863,-0.92052,0.00347853,0.0247891,1826,1513,10.5803,-8.33462
609,-489,10.5681,8.08789,0.00211822,0.00442801,-0.00432671,0.00775131,-0.00120508,-0.915818,0.00561252,0.0171316,1833,1513,10.5681,-8.08788
616,-489,10.5605,7.86829,0.00219603,0.00622158,-0.00654065,0.0110521,-0.00263454,-0.934666,0.00838539,0.00956222,1840,1513,10.5606,-7.86825
623,-489,10.5707,7.69446,0.00203602,0.00846324,-0.00963024,0.0154019,-0.00490265,-0.946438,0.0122341,0.0143495,1847,1513,10.5707,-7.69446
630,-489,10.5322,7.56726,0.00172239,0.0115635,-0.0140756,0.0215538,-0.00826791,-0.953549,0.017778,0.0361589,1854,1513,10.5322,-7.5673
637,-489,10.4398,7.53259,0,0,0,0,0,0,0,-1,1861,1513,10.4399,-7.53255
644,-489,8.78601,7.17261,0,0,0,0,0,0,0,-1,1868,1513,8.78597,-7.17259
651,-489,6.13818,6.85095,0,0,0,0,0,0,0,-1,1875,1513,6.13823,-6.85097
658,-489,5.43848,7.75513,0,0,0,0,0,0,0,-1,1882,1513,5.43844,-7.75509
665,-489,5.48438,8.59912,0,0,0,0,0,0,0,-1,1889,1513,5.48434,-8.59907
672,-489,0,0,0,0,0,0,0,0,0,-1,1896,1513,0,0
679,-489,0,0,0,0,0,0,0,0,0,-1,1903,1513,0,0
686,-489,0,0,0,0,0,0,0,0,0,-1,1910,1513,0,0
693,-489,0,0,0,0,0,0,0,0,0,-1,1917,1513,0,0
700,-489,0,0,0,0,0,0,0,0,0,-1,1924,1513,0,0
707,-489,0,0,0,0,0,0,0,0,0,-1,1931,1513,0,0
714,-489,0,0,0,0,0,0,0,0,0,-1,1938,1513,0,0
721,-489,0,0,0,0,0,0,0,0,0,-1,1945,1513,0,0
728,-489,0,0,0,0,0,0,0,0,0,-1,1952,1513,0,0
735,-489,0,0,0,0,0,0,0,0,0,-1,1959,1513,0,0
742,-489,0,0,0,0,0,0,0,0,0,-1,1966,1513,0,0
749,-489,0,0,0,0,0,0,0,0,0,-1,1973,1513,0,0
756,-489,0,0,0,0,0,0,0,0,0,-1,1980,1513,0,0
763,-489,0,0,0,0,0,0,0,0,0,-1,1987,1513,0,0
770,-489,0,0,0,0,0,0,0,0,0,-1,1994,1513,0,0
777,-489,0,0,0,0,0,0,0,0,0,-1,2001,1513,0,0
784,-489,0,0,0,0,0,0,0,0,0,-1,2008,1513,0,0
791,-489,0,0,0,0,0,0,0,0,0,-1,2015,1513,0,0
798,-489,0,0,0,0,0,0,0,0,0,-1,2022,1513,0,0
805,-489,0,0,0,0,0,0,0,0,0,-1,2029,1513,0,0
812,-489,0,0,0,0,0,0,0,0,0,-1,2036,1513,0,0
-700,-496,0,0,0,0,0,0,0,0,0,-1,524,1520,0,0
-693,-496,0,0,0,0,0,0,0,0,0,-1,531,1520,0,0
-686,-496,0,0,0,0,0,0,0,0,0,-1,538,1520,0,0
-679,-496,0,0,0,0,0,0,0,0,0,-1,545,1520,0,0
-672,-496,0,0,0,0,0,0,0,0,0,-1,552,1520,0,0
-665,-496,0,0,0,0,0,0,0,0,0,-1,559,1520,0,0
-658,-496,0,0,0,0,0,0,0,0,0,-1,566,1520,0,0
-651,-496,0,0,0,0,0,0,0,0,0,-1,573,1520,0,0
-644,-496,0,0,0,0,0,0,0,0,0,-1,580,1520,0,0
-637,-496,0,0,0,0,0,0,0,0,0,-1,587,1520,0,0
-630,-496,0,0,0,0,0,0,0,0,0,-1,594,1520,0,0
-623,-496,0,0,0,0,0,0,0,0,0,-1,601,1520,0,0
-616,-496,0,0,0,0,0,0,0,0,0,-1,608,1520,0,0
-609,-496,0,0,0,0,0,0,0,0,0,-1,615,1520,0,0
-602,-496,0,0,0,0,0,0,0,0,0,-1,622,1520,0,0
-595,-496,0,0,0,0,0,0,0,0,0,-1,629,1520,0,0
-588,-496,0,0,0,0,0,0,0,0,0,-1,636,1520,0,0
-581,-496,0,0,0,0,0,0,0,0,0,-1,643,1520,0,0
-574,-496,0,0,0,0,0,0,0,0,0,-1,650,1520,0,0
-567,-496,0,0,0,0,0,0,0,0,0,-1,657,1520,0,0
-560,-496,0,0,0,0,0,0,0,0,0,-1,664,1520,0,0
-553,-496,0,0,0,0,0,0,0,0,0,-1,671,1520,0,0
-546,-496,-8.09711,7.94836,0,0,0,0,0,0,0,-1,678,1520,-8.09712,-7.94842
-539,-496,-3.05109,6.33447,0,0,0,0,0,0,0,-1,685,1520,-3.05107,-6.33446
-532,-496,-2.79407,0.97229,0,0,0,0,0,0,0,-1,692,1520,-2.79406,-0.972274
-525,-496,-2.24603,2.19458,0,0,0,0,0,0,0,-1,699,1520,-2.24602,-2.19461
-518,-496,-1.698,3.41699,0,0,0,0,0,0,0,-1,706,1520,-1.69797,-3.41694
-511,-496,-1.40308,3.87305,0,0,0,0,0,0,0,-1,713,1520,-1.40309,-3.87307
-504,-496,-0.072998,4.92847,0,0,0,0,0,0,0,-1,720,1520,-0.0730042,-4.92846
-497,-496,-0.413208,5.42627,0.006593,0.00621599,0.0118901,0.0182961,-0.00548713,0.777472,0.0143798,0.0472741,727,1520,-0.413225,-5.42625
-490,-496,-1.05652,6.15332,0.00327158,0.00420861,0.00796107,0.0117149,-0.00423475,0.81479,0.00954015,0.0359232,734,1520,-1.05652,-6.15334
-483,-496,-1.10681,6.2749,0.00107065,0.00296627,0.00511972,0.00722518,-0.00318825,0.876927,0.00616095,0.018186,741,1520,-1.10681,-6.27489
-476,-496,-1.13928,6.45422,0.000140345,0.00180504,0.00359699,0.00466472,-0.00271934,0.899097,0.00431223,0.0106295,748,1520,-1.13927,-6.45425
-469,-496,-1.15802,6.72253,-0.000458141,0.000341176,0.00156036,0.00155225,-0.00166921,0.910769,0.00186032,0.00989047,755,1520,-1.158,-6.72258
-462,-496,-1.16089,6.98083,-7.63095e-05,-0.000377064,0.000389618,0.000190944,-0.000644318,0.601225,0.000505364,0.0146416,762,1520,-1.16089,-6.98084
-455,-496,-1.15967,7.23096,0.00050229,-0.00145039,-0.00017119,0.000517184,-0.00146529,-0.0867868,0.00118741,0.0193124,769,1520,-1.15965,-7.23096
-448,-496,-1.15771,7.47388,0.00125573,-0.00264358,-0.000705561,0.00137947,-0.00276732,-0.173614,0.00243843,0.01791,776,1520,-1.15769,-7.47391
-441,-496,-1.14838,7.72034,0.00212836,-0.00414269,-0.00121539,0.00235567,-0.00437,-0.184893,0.00394069,0.014192,783,1520,-1.14835,-7.72032
-434,-496,-1.17755,7.94568,0.00264482,-0.00540388,-0.00195566,0.00309484,-0.0058539,-0.226175,0.00524777,0.0133551,790,1520,-1.17754,-7.94565
-427,-496,-1.18195,8.17932,0.00302091,-0.00697102,-0.00280497,0.00375447,-0.00770459,-0.255795,0.00674565,0.0169273,797,1520,-1.18193,-8.17937
-420,-496,-1.15094,8.4104,0.00333068,-0.00895931,-0.00380094,0.00441121,-0.0100398,-0.276971,0.00855167,0.0180265,804,1520,-1.15092,-8.41041
-413,-496,-1.10126,8.66699,0.00332448,-0.0115703,-0.00485272,0.00476599,-0.0130118,-0.28875,0.0106257,0.0168605,811,1520,-1.10128,-8.66697
-406,-496,-1.01147,8.99231,0,0,0,0,0,0,0,-1,818,1520,-1.01147,-8.99226
-399,-496,-0.84082,8.92542,0,0,0,0,0,0,0,-1,825,1520,-0.840819,-8.92539
-392,-496,-1.11737,9.09021,0.00110321,-0.0215711,-0.00997282,0.00486533,-0.0253333,-0.360731,0.0187225,0.0480352,832,1520,-1.11737,-9.09022
-385,-496,-1.28625,9.41296,-0.000333905,-0.0258332,-0.0121218,0.00450882,-0.0306759,-0.38008,0.0221073,0.0465163,839,1520,-1.28625,-9.41301
-378,-496,-1.36041,9.68738,0,0,0,0,0,0,0,-1,846,1520,-1.36042,-9.68736
-371,-496,0.256165,8.99756,0,0,0,0,0,0,0,-1,853,1520,0.25617,-8.9975
-364,-496,0.0881348,10.6422,0,0,0,0,0,0,0,-1,860,1520,0.0881368,-10.6423
-357,-496,0.323792,7.56812,0,0,0,0,0,0,0,-1,867,1520,0.323782,-7.56806
-350,-496,2.1535,7.18945,0,0,0,0,0,0,0,-1,874,1520,2.15348,-7.1894
-343,-496,-7.56244,0.335327,0,0,0,0,0,0,0,-1,881,1520,-7.56242,-0.335322
-336,-496,-3.99249,6.02222,0,0,0,0,0,0,0,-1,888,1520,-3.99246,-6.0222
-329,-496,-6.93689,-0.100342,0,0,0,0,0,0,0,-1,895,1520,-6.93686,0.1003
-322,-496,-6.17505,0.494385,0,0,0,0,0,0,0,-1,902,1520,-6.17507,-0.49437
-315,-496,-5.46338,1.0459,0,0,0,0,0,0,0,-1,909,1520,-5.46338,-1.04587
-308,-496,0,0,0,0,0,0,0,0,0,-1,916,1520,0,0
-301,-496,0,0,0,0,0,0,0,0,0,-1,923,1520,0,0
-294,-496,0,0,0,0,0,0,0,0,0,-1,930,1520,0,0
-287,-496,0,0,0,0,0,0,0,0,0,-1,937,1520,0,0
-280,-496,0,0,0,0,0,0,0,0,0,-1,944,1520,0,0
-273,-496,0,0,0,0,0,0,0,0,0,-1,951,1520,0,0
-266,-496,0,0,0,0,0,0,0,0,0,-1,958,1520,0,0
-259,-496,0,0,0,0,0,0,0,0,0,-1,965,1520,0,0
-252,-496,0,0,0,0,0,0,0,0,0,-1,972,1520,0,0
-245,-496,0,0,0,0,0,0,0,0,0,-1,979,1520,0,0
-238,-496,0,0,0,0,0,0,0,0,0,-1,986,1520,0,0
-231,-496,0,0,0,0,0,0,0,0,0,-1,993,1520,0,0
-224,-496,0,0,0,0,0,0,0,0,0,-1,1000,1520,0,0
-217,-496,0,0,0,0,0,0,0,0,0,-1,1007,1520,0,0
-210,-496,0,0,0,0,0,0,0,0,0,-1,1014,1520,0,0
-203,-496,0,0,0,0,0,0,0,0,0,-1,1021,1520,0,0
-196,-496,0,0,0,0,0,0,0,0,0,-1,1028,1520,0,0
-189,-496,0,0,0,0,0,0,0,0,0,-1,1035,1520,0,0
-182,-496,0,0,0,0,0,0,0,0,0,-1,1042,1520,0,0
-175,-496,0,0,0,0,0,0,0,0,0,-1,1049,1520,0,0
-168,-496,0,0,0,0,0,0,0,0,0,-1,1056,1520,0,0
-161,-496,0,0,0,0,0,0,0,0,0,-1,1063,1520,0,0
-154,-496,0,0,0,0,0,0,0,0,0,-1,1070,1520,0,0
-147,-496,0,0,0,0,0,0,0,0,0,-1,1077,1520,0,0
-140,-496,0,0,0,0,0,0,0,0,0,-1,1084,1520,0,0
-133,-496,0,0,0,0,0,0,0,0,0,-1,1091,1520,0,0
-126,-496,0,0,0,0,0,0,0,0,0,-1,1098,1520,0,0
-119,-496,0,0,0,0,0,0,0,0,0,-1,1105,1520,0,0
-112,-496,0,0,0,0,0,0,0,0,0,-1,1112,1520,0,0
-105,-496,0,0,0,0,0,0,0,0,0,-1,1119,1520,0,0
-98,-496,0,0,0,0,0,0,0,0,0,-1,1126,1520,0,0
-91,-496,0,0,0,0,0,0,0,0,0,-1,1133,1520,0,0
-84,-496,0,0,0,0,0,0,0,0,0,-1,1140,1520,0,0
-77,-496,0,0,0,0,0,0,0,0,0,-1,1147,1520,0,0
-70,-496,0,0,0,0,0,0,0,0,0,-1,1154,1520,0,0
-63,-496,0,0,0,0,0,0,0,0,0,-1,1161,1520,0,0
-56,-496,0,0,0,0,0,0,0,0,0,-1,1168,1520,0,0
-49,-496,0,0,0,0,0,0,0,0,0,-1,1175,1520,0,0
-42,-496,0,0,0,0,0,0,0,0,0,-1,1182,1520,0,0
-35,-496,0,0,0,0,0,0,0,0,0,-1,1189,1520,0,0
-28,-496,0,0,0,0,0,0,0,0,0,-1,1196,1520,0,0
-21,-496,0,0,0,0,0,0,0,0,0,-1,1203,1520,0,0
-14,-496,0,0,0,0,0,0,0,0,0,-1,1210,1520,0,0
-7,-496,0,0,0,0,0,0,0,0,0,-1,1217,1520,0,0
0,-496,0,0,0,0,0,0,0,0,0,-1,1224,1520,0,0
7,-496,0,0,0,0,0,0,0,0,0,-1,1231,1520,0,0
14,-496,0,0,0,0,0,0,0,0,0,-1,1238,1520,0,0
21,-496,0,0,0,0,0,0,0,0,0,-1,1245,1520,0,0
28,-496,0,0,0,0,0,0,0,0,0,-1,1252,1520,0,0
35,-496,0,0,0,0,0,0,0,0,0,-1,1259,1520,0,0
42,-496,0,0,0,0,0,0,0,0,0,-1,1266,1520,0,0
49,-496,0,0,0,0,0,0,0,0,0,-1,1273,1520,0,0
56,-496,0,0,0,0,0,0,0,0,0,-1,1280,1520,0,0
63,-496,0,0,0,0,0,0,0,0,0,-1,1287,1520,0,0
70,-496,0,0,0,0,0,0,0,0,0,-1,1294,1520,0,0
77,-496,0,0,0,0,0,0,0,0,0,-1,1301,1520,0,0
84,-496,0,0,0,0,0,0,0,0,0,-1,1308,1520,0,0
91,-496,0,0,0,0,0,0,0,0,0,-1,1315,1520,0,0
98,-496,0,0,0,0,0,0,0,0,0,-1,1322,1520,0,0
105,-496,0,0,0,0,0,0,0,0,0,-1,1329,1520,0,0
112,-496,0,0,0,0,0,0,0,0,0,-1,1336,1520,0,0
119,-496,0,0,0,0,0,0,0,0,0,-1,1343,1520,0,0
126,-496,0,0,0,0,0,0,0,0,0,-1,1350,1520,0,0
133,-496,0,0,0,0,0,0,0,0,0,-1,1357,1520,0,0
140,-496,0,0,0,0,0,0,0,0,0,-1,1364,1520,0,0
147,-496,0,0,0,0,0,0,0,0,0,-1,1371,1520,0,0
154,-496,0,0,0,0,0,0,0,0,0,-1,1378,1520,0,0
161,-496,0,0,0,0,0,0,0,0,0,-1,1385,1520,0,0
168,-496,0,0,0,0,0,0,0,0,0,-1,1392,1520,0,0
175,-496,0,0,0,0,0,0,0,0,0,-1,1399,1520,0,0
182,-496,0,0,0,0,0,0,0,0,0,-1,1406,1520,0,0
189,-496,0,0,0,0,0,0,0,0,0,-1,1413,1520,0,0
196,-496,0,0,0,0,0,0,0,0,0,-1,1420,1520,0,0
203,-496,0,0,0,0,0,0,0,0,0,-1,1427,1520,0,0
210,-496,0,0,0,0,0,0,0,0,0,-1,1434,1520,0,0
217,-496,0,0,0,0,0,0,0,0,0,-1,1441,1520,0,0
224,-496,0,0,0,0,0,0,0,0,0,-1,1448,1520,0,0
231,-496,0,0,0,0,0,0,0,0,0,-1,1455,1520,0,0
238,-496,0,0,0,0,0,0,0,0,0,-1,1462,1520,0,0
245,-496,0,0,0,0,0,0,0,0,0,-1,1469,1520,0,0
252,-496,0,0,0,0,0,0,0,0,0,-1,1476,1520,0,0
259,-496,0,0,0,0,0,0,0,0,0,-1,1483,1520,0,0
266,-496,0,0,0,0,0,0,0,0,0,-1,1490,1520,0,0
273,-496,0,0,0,0,0,0,0,0,0,-1,1497,1520,0,0
280,-496,0,0,0,0,0,0,0,0,0,-1,1504,1520,0,0
287,-496,0,0,0,0,0,0,0,0,0,-1,1511,1520,0,0
294,-496,0,0,0,0,0,0,0,0,0,-1,1518,1520,0,0
301,-496,0,0,0,0,0,0,0,0,0,-1,1525,1520,0,0
308,-496,0,0,0,0,0,0,0,0,0,-1,1532,1520,0,0
315,-496,0,0,0,0,0,0,0,0,0,-1,1539,1520,0,0
322,-496,0,0,0,0,0,0,0,0,0,-1,1546,1520,0,0
329,-496,0,0,0,0,0,0,0,0,0,-1,1553,1520,0,0
336,-496,0,0,0,0,0,0,0,0,0,-1,1560,1520,0,0
343,-496,0,0,0,0,0,0,0,0,0,-1,1567,1520,0,0
350,-496,0,0,0,0,0,0,0,0,0,-1,1574,1520,0,0
357,-496,0,0,0,0,0,0,0,0,0,-1,1581,1520,0,0
364,-496,0,0,0,0,0,0,0,0,0,-1,1588,1520,0,0
371,-496,0,0,0,0,0,0,0,0,0,-1,1595,1520,0,0
378,-496,0,0,0,0,0,0,0,0,0,-1,1602,1520,0,0
385,-496,0,0,0,0,0,0,0,0,0,-1,1609,1520,0,0
392,-496,0,0,0,0,0,0,0,0,0,-1,1616,1520,0,0
399,-496,0,0,0,0,0,0,0,0,0,-1,1623,1520,0,0
406,-496,0,0,0,0,0,0,0,0,0,-1,1630,1520,0,0
413,-496,0,0,0,0,0,0,0,0,0,-1,1637,1520,0,0
420,-496,0,0,0,0,0,0,0,0,0,-1,1644,1520,0,0
427,-496,0,0,0,0,0,0,0,0,0,-1,1651,1520,0,0
434,-496,11.0457,3.37732,0,0,0,0,0,0,0,-1,1658,1520,11.0456,-3.37736
441,-496,11.788,2.75488,0,0,0,0,0,0,0,-1,1665,1520,11.7879,-2.75485
448,-496,12.2146,2.18494,0,0,0,0,0,0,0,-1,1672,1520,12.2146,-2.18489
455,-496,12.3489,1.65173,0,0,0,0,0,0,0,-1,1679,1520,12.3489,-1.65178
462,-496,12.1912,1.32361,0,0,0,0,0,0,0,-1,1686,1520,12.1911,-1.32357
469,-496,14.8138,5.77954,0,0,0,0,0,0,0,-1,1693,1520,14.8138,-5.77958
476,-496,15.2449,6.27942,0,0,0,0,0,0,0,-1,1700,1520,15.2449,-6.27936
483,-496,8.92578,2.27734,0,0,0,0,0,0,0,-1,1707,1520,8.92574,-2.27738
490,-496,12.4607,9.6521,0,0,0,0,0,0,0,-1,1714,1520,12.4607,-9.65212
497,-496,12.1858,10.3208,0,0,0,0,0,0,0,-1,1721,1520,12.1858,-10.3208
504,-496,12.4513,6.927,0,0,0,0,0,0,0,-1,1728,1520,12.4513,-6.92698
511,-496,11.4562,10.5664,0,0,0,0,0,0,0,-1,1735,1520,11.4562,-10.5664
518,-496,10.8712,10.439,-0.02427,-0.00613285,0.020395,0.00711888,-0.0375217,0.994595,0.0276941,0.0489018,1742,1520,10.8712,-10.4389
525,-496,10.6193,10.387,-0.02287,-0.00381903,0.0165758,0.00577336,-0.0324624,1.04619,0.0238006,0.0462656,1749,1520,10.6193,-10.3869
532,-496,10.4578,10.4147,-0.0205108,-0.00191684,0.0131219,0.00486776,-0.0272954,1.09361,0.0200178,0.0246585,1756,1520,10.4578,-10.4147
539,-496,10.3679,10.248,-0.0177102,-0.00152279,0.0105021,0.00364255,-0.0228755,1.1137,0.0165983,0.0124809,1763,1520,10.368,-10.248
546,-496,10.3308,10.0319,-0.0145496,-0.00125124,0.00816556,0.00262992,-0.0184308,1.1271,0.0132511,0.0106096,1770,1520,10.3308,-10.0319
553,-496,10.3538,9.82373,-0.01148,-0.000648687,0.00600272,0.00202033,-0.014149,1.15241,0.0101732,0.0158557,1777,1520,10.3538,-9.82375
560,-496,10.3683,9.61572,-0.00821517,-0.000401261,0.00412433,0.00137284,-0.00998927,1.16457,0.00716113,0.0138886,1784,1520,10.3682,-9.61575
567,-496,10.3473,9.3999,-0.00520932,-0.000111569,0.00264708,0.00101431,-0.0063352,1.16865,0.004599,0.0111525,1791,1520,10.3473,-9.39993
574,-496,10.3336,9.20276,-0.00295491,0.000465692,0.00145092,0.000998221,-0.00348744,1.21903,0.00271947,0.0118593,1798,1520,10.3336,-9.20276
581,-496,10.3365,8.99219,-0.000583964,0.000819144,0.000312644,0.000885655,-0.000650475,1.36118,0.000890343,0.0130915,1805,1520,10.3365,-8.9922
588,-496,10.3481,8.75903,0.00141468,0.00188722,-0.00107047,0.00274719,0.000554715,-0.894013,0.00167741,0.0155024,1812,1520,10.3482,-8.75908
595,-496,10.3453,8.54016,0.0026108,0.0028999,-0.00200754,0.00476809,0.000742613,-0.821337,0.00296238,0.0164298,1819,1520,10.3453,-8.54019
602,-496,10.3458,8.30371,0.00293567,0.00486208,-0.00380607,0.00782493,-2.71818e-05,-0.909331,0.0052257,0.017729,1826,1520,10.3458,-8.30374
609,-496,10.3518,8.09143,0.00315597,0.00656664,-0.00594174,0.0110429,-0.00132032,-0.925146,0.00783921,0.0144563,1833,1520,10.3519,-8.09145
616,-496,10.3622,7.85742,0.00303783,0.00914403,-0.00883643,0.0154399,-0.00325808,-0.951734,0.0115337,0.0122004,1840,1520,10.3622,-7.85739
623,-496,10.3317,7.6687,0.00254688,0.012714,-0.0131215,0.0217023,-0.00644138,-0.970206,0.0170264,0.0257064,1847,1520,10.3317,-7.66873
630,-496,10.2103,7.54309,0.00166332,0.0177721,-0.0193449,0.0306724,-0.011237,-0.982661,0.0250487,0.0438858,1854,1520,10.2103,-7.54306
637,-496,10.1195,7.47278,0,0,0,0,0,0,0,-1,1861,1520,10.1196,-7.47277
644,-496,8.71948,6.6842,0,0,0,0,0,0,0,-1,1868,1520,8.71952,-6.68425
651,-496,8.18506,5.47803,0,0,0,0,0,0,0,-1,1875,1520,8.18505,-5.47806
658,-496,7.79993,4.02563,0,0,0,0,0,0,0,-1,1882,1520,7.79997,-4.02568
665,-496,5.47583,7.90625,0,0,0,0,0,0,0,-1,1889,1520,5.47581,-7.90628
672,-496,0,0,0,0,0,0,0,0,0,-1,1896,1520,0,0
679,-496,0,0,0,0,0,0,0,0,0,-1,1903,1520,0,0
686,-496,0,0,0,0,0,0,0,0,0,-1,1910,1520,0,0
693,-496,0,0,0,0,0,0,0,0,0,-1,1917,1520,0,0
700,-496,0,0,0,0,0,0,0,0,0,-1,1924,1520,0,0
707,-496,0,0,0,0,0,0,0,0,0,-1,1931,1520,0,0
714,-496,0,0,0,0,0,0,0,0,0,-1,1938,1520,0,0
721,-496,0,0,0,0,0,0,0,0,0,-1,1945,1520,0,0
728,-496,0,0,0,0,0,0,0,0,0,-1,1952,1520,0,0
735,-496,0,0,0,0,0,0,0,0,0,-1,1959,1520,0,0
742,-496,0,0,0,0,0,0,0,0,0,-1,1966,1520,0,0
749,-496,0,0,0,0,0,0,0,0,0,-1,1973,1520,0,0
756,-496,0,0,0,0,0,0,0,0,0,-1,1980,1520,0,0
763,-496,0,0,0,0,0,0,0,0,0,-1,1987,1520,0,0
770,-496,0,0,0,0,0,0,0,0,0,-1,1994,1520,0,0
777,-496,0,0,0,0,0,0,0,0,0,-1,2001,1520,0,0
784,-496,0,0,0,0,0,0,0,0,0,-1,2008,1520,0,0
791,-496,0,0,0,0,0,0,0,0,0,-1,2015,1520,0,0
798,-496,0,0,0,0,0,0,0,0,0,-1,2022,1520,0,0
805,-496,0,0,0,0,0,0,0,0,0,-1,2029,1520,0,0
812,-496,0,0,0,0,0,0,0,0,0,-1,2036,1520,0,0
-700,-503,0,0,0,0,0,0,0,0,0,-1,524,1527,0,0
-693,-503,0,0,0,0,0,0,0,0,0,-1,531,1527,0,0
-686,-503,0,0,0,0,0,0,0,0,0,-1,538,1527,0,0
-679,-503,0,0,0,0,0,0,0,0,0,-1,545,1527,0,0
-672,-503,0,0,0,0,0,0,0,0,0,-1,552,1527,0,0
-665,-503,0,0,0,0,0,0,0,0,0,-1,559,1527,0,0
-658,-503,0,0,0,0,0,0,0,0,0,-1,566,1527,0,0
-651,-503,0,0,0,0,0,0,0,0,0,-1,573,1527,0,0
-644,-503,0,0,0,0,0,0,0,0,0,-1,580,1527,0,0
-637,-503,0,0,0,0,0,0,0,0,0,-1,587,1527,0,0
-630,-503,0,0,0,0,0,0,0,0,0,-1,594,1527,0,0
-623,-503,0,0,0,0,0,0,0,0,0,-1,601,1527,0,0
-616,-503,0,0,0,0,0,0,0,0,0,-1,608,1527,0,0
-609,-503,0,0,0,0,0,0,0,0,0,-1,615,1527,0,0
-602,-503,0,0,0,0,0,0,0,0,0,-1,622,1527,0,0
-595,-503,0,0,0,0,0,0,0,0,0,-1,629,1527,0,0
-588,-503,0,0,0,0,0,0,0,0,0,-1,636,1527,0,0
-581,-503,0,0,0,0,0,0,0,0,0,-1,643,1527,0,0
-574,-503,0,0,0,0,0,0,0,0,0,-1,650,1527,0,0
-567,-503,0,0,0,0,0,0,0,0,0,-1,657,1527,0,0
-560,-503,0,0,0,0,0,0,0,0,0,-1,664,1527,0,0
-553,-503,0,0,0,0,0,0,0,0,0,-1,671,1527,0,0
-546,-503,0,0,0,0,0,0,0,0,0,-1,678,1527,0,0
-539,-503,3.50177,4.26428,0,0,0,0,0,0,0,-1,685,1527,3.50177,-4.26424
-532,-503,2.67603,4.51135,0,0,0,0,0,0,0,-1,692,1527,2.67603,-4.5114
-525,-503,-2.39966,1.69104,0,0,0,0,0,0,0,-1,699,1527,-2.39966,-1.69099
-518,-503,-1.59241,2.92151,0,0,0,0,0,0,0,-1,706,1527,-1.5924,-2.92157
-511,-503,-1.76495,3.49622,0,0,0,0,0,0,0,-1,713,1527,-1.76493,-3.49623
-504,-503,-1.90576,3.94165,0,0,0,0,0,0,0,-1,720,1527,-1.90578,-3.94164
-497,-503,0.225708,5.15295,0,0,0,0,0,0,0,-1,727,1527,0.225707,-5.15292
-490,-503,-0.792908,6.17896,0.00207646,0.00463766,0.00834773,0.0118024,-0.00508833,0.861508,0.0100054,0.0465629,734,1527,-0.792912,-6.17896
-483,-503,-0.806824,6.31775,0.000314819,0.00320377,0.0054919,0.00743798,-0.00391939,0.913995,0.00666125,0.0367034,741,1527,-0.806832,-6.31769
-476,-503,-0.84314,6.51062,-0.00036114,0.00208223,0.00394919,0.00499439,-0.00327329,0.935405,0.0048077,0.0184434,748,1527,-0.84312,-6.51057
-469,-503,-0.90802,6.73975,-0.000902521,0.000844678,0.00196791,0.00212418,-0.00218202,0.994293,0.00248626,0.00956613,755,1527,-0.908043,-6.73979
-462,-503,-0.913208,7.01086,-0.000469512,0.000401409,0.000963774,0.00102353,-0.00109164,0.997585,0.0012214,0.0112815,762,1527,-0.913178,-7.01088
-455,-503,-0.912292,7.2561,0.000149365,-0.000385543,0.000508282,0.000456264,-0.000692443,0.543207,0.000667863,0.0165744,769,1527,-0.912277,-7.25613
-448,-503,-0.895508,7.48523,0.000885205,-0.00123158,9.92311e-05,0.000889847,-0.00123622,0.0467416,0.0012329,0.0160333,776,1527,-0.895517,-7.48525
-441,-503,-0.877808,7.7052,0.00174123,-0.00234561,-0.000249739,0.00175644,-0.00236081,-0.0608066,0.00238562,0.0135506,783,1527,-0.877792,-7.7052
-434,-503,-0.896667,7.93274,0.00222644,-0.00319017,-0.000799122,0.00234188,-0.0033056,-0.143461,0.00327636,0.0109554,790,1527,-0.896673,-7.9327
-427,-503,-0.924438,8.16016,0.00255259,-0.00430946,-0.00143895,0.00284212,-0.00459898,-0.198557,0.00433585,0.0154448,797,1527,-0.924419,-8.1601
-420,-503,-0.910461,8.39893,0.00285857,-0.00577869,-0.00218189,0.00337845,-0.00629857,-0.23391,0.00567119,0.0174466,804,1527,-0.910459,-8.39899
-413,-503,-0.89978,8.64136,0.00288987,-0.00777948,-0.00298086,0.00366619,-0.0085558,-0.254776,0.00724216,0.0150999,811,1527,-0.89981,-8.64142
-406,-503,-0.878784,8.87451,0.00229577,-0.00997299,-0.00417312,0.00358066,-0.0112579,-0.298686,0.00894108,0.0147987,818,1527,-0.878761,-8.8745
-399,-503,-0.797058,9.16821,0.00179176,-0.0125472,-0.00544326,0.00362398,-0.0143794,-0.324691,0.0109952,0.0206184,825,1527,-0.797042,-9.16821
-392,-503,-0.691101,9.4447,0.00111189,-0.0155296,-0.00697188,0.00364665,-0.0180644,-0.348711,0.0134246,0.036856,832,1527,-0.691085,-9.44473
-385,-503,-0.855408,9.31042,0.000158089,-0.0189114,-0.00861808,0.00347568,-0.022229,-0.367472,0.0161034,0.0422605,839,1527,-0.855433,-9.31048
-378,-503,-0.832275,9.48669,-0.000870752,-0.022654,-0.0102666,0.0032053,-0.0267301,-0.377934,0.0189789,0.0445566,846,1527,-0.83227,-9.48668
-371,-503,-0.936584,9.68787,0,0,0,0,0,0,0,-1,853,1527,-0.936578,-9.68791
-364,-503,0.085022,8.9812,0,0,0,0,0,0,0,-1,860,1527,0.0850418,-8.98121
-357,-503,0.558533,9.25452,0,0,0,0,0,0,0,-1,867,1527,0.558542,-9.25446
-350,-503,0.219971,6.84827,0,0,0,0,0,0,0,-1,874,1527,0.21996,-6.84831
-343,-503,-3.5802,4.43274,0,0,0,0,0,0,0,-1,881,1527,-3.58018,-4.43276
-336,-503,-3.2384,6.40637,0,0,0,0,0,0,0,-1,888,1527,-3.2384,-6.40643
-329,-503,-2.89661,8.38013,0,0,0,0,0,0,0,-1,895,1527,-2.89662,-8.3801
-322,-503,-3.31317,8.81519,0,0,0,0,0,0,0,-1,902,1527,-3.31315,-8.81524
-315,-503,-3.90265,7.73853,0,0,0,0,0,0,0,-1,909,1527,-3.90264,-7.73854
-308,-503,-4.07867,7.25977,0,0,0,0,0,0,0,-1,916,1527,-4.07868,-7.25973
-301,-503,0,0,0,0,0,0,0,0,0,-1,923,1527,0,0
-294,-503,0,0,0,0,0,0,0,0,0,-1,930,1527,0,0
-287,-503,0,0,0,0,0,0,0,0,0,-1,937,1527,0,0
-280,-503,0,0,0,0,0,0,0,0,0,-1,944,1527,0,0
-273,-503,0,0,0,0,0,0,0,0,0,-1,951,1527,0,0
-266,-503,0,0,0,0,0,0,0,0,0,-1,958,1527,0,0
-259,-503,0,0,0,0,0,0,0,0,0,-1,965,1527,0,0
-252,-503,0,0,0,0,0,0,0,0,0,-1,972,1527,0,0
-245,-503,0,0,0,0,0,0,0,0,0,-1,979,1527,0,0
-238,-503,0,0,0,0,0,0,0,0,0,-1,986,1527,0,0
-231,-503,0,0,0,0,0,0,0,0,0,-1,993,1527,0,0
-224,-503,0,0,0,0,0,0,0,0,0,-1,1000,1527,0,0
-217,-503,0,0,0,0,0,0,0,0,0,-1,1007,1527,0,0
-210,-503,0,0,0,0,0,0,0,0,0,-1,1014,1527,0,0
-203,-503,0,0,0,0,0,0,0,0,0,-1,1021,1527,0,0
-196,-503,0,0,0,0,0,0,0,0,0,-1,1028,1527,0,0
-189,-503,0,0,0,0,0,0,0,0,0,-1,1035,1527,0,0
-182,-503,0,0,0,0,0,0,0,0,0,-1,1042,1527,0,0
-175,-503,0,0,0,0,0,0,0,0,0,-1,1049,1527,0,0
-168,-503,0,0,0,0,0,0,0,0,0,-1,1056,1527,0,0
-161,-503,0,0,0,0,0,0,0,0,0,-1,1063,1527,0,0
-154,-503,0,0,0,0,0,0,0,0,0,-1,1070,1527,0,0
-147,-503,0,0,0,0,0,0,0,0,0,-1,1077,1527,0,0
-140,-503,0,0,0,0,0,0,0,0,0,-1,1084,1527,0,0
-133,-503,0,0,0,0,0,0,0,0,0,-1,1091,1527,0,0
-126,-503,0,0,0,0,0,0,0,0,0,-1,1098,1527,0,0
-119,-503,0,0,0,0,0,0,0,0,0,-1,1105,1527,0,0
-112,-503,0,0,0,0,0,0,0,0,0,-1,1112,1527,0,0
-105,-503,0,0,0,0,0,0,0,0,0,-1,1119,1527,0,0
-98,-503,0,0,0,0,0,0,0,0,0,-1,1126,1527,0,0
-91,-503,0,0,0,0,0,0,0,0,0,-1,1133,1527,0,0
-84,-503,0,0,0,0,0,0,0,0,0,-1,1140,1527,0,0
-77,-503,0,0,0,0,0,0,0,0,0,-1,1147,1527,0,0
-70,-503,0,0,0,0,0,0,0,0,0,-1,1154,1527,0,0
-63,-503,0,0,0,0,0,0,0,0,0,-1,1161,1527,0,0
-56,-503,0,0,0,0,0,0,0,0,0,-1,1168,1527,0,0
-49,-503,0,0,0,0,0,0,0,0,0,-1,1175,1527,0,0
-42,-503,0,0,0,0,0,0,0,0,0,-1,1182,1527,0,0
-35,-503,0,0,0,0,0,0,0,0,0,-1,1189,1527,0,0
-28,-503,0,0,0,0,0,0,0,0,0,-1,1196,1527,0,0
-21,-503,0,0,0,0,0,0,0,0,0,-1,1203,1527,0,0
-14,-503,0,0,0,0,0,0,0,0,0,-1,1210,1527,0,0
-7,-503,0,0,0,0,0,0,0,0,0,-1,1217,1527,0,0
0,-503,0,0,0,0,0,0,0,0,0,-1,1224,1527,0,0
7,-503,0,0,0,0,0,0,0,0,0,-1,1231,1527,0,0
14,-503,0,0,0,0,0,0,0,0,0,-1,1238,1527,0,0
21,-503,0,0,0,0,0,0,0,0,0,-1,1245,1527,0,0
28,-503,0,0,0,0,0,0,0,0,0,-1,1252,1527,0,0
35,-503,0,0,0,0,0,0,0,0,0,-1,1259,1527,0,0
42,-503,0,0,0,0,0,0,0,0,0,-1,1266,1527,0,0
49,-503,0,0,0,0,0,0,0,0,0,-1,1273,1527,0,0
56,-503,0,0,0,0,0,0,0,0,0,-1,1280,1527,0,0
63,-503,0,0,0,0,0,0,0,0,0,-1,1287,1527,0,0
70,-503,0,0,0,0,0,0,0,0,0,-1,1294,1527,0,0
77,-503,0,0,0,0,0,0,0,0,0,-1,1301,1527,0,0
84,-503,0,0,0,0,0,0,0,0,0,-1,1308,1527,0,0
91,-503,0,0,0,0,0,0,0,0,0,-1,1315,1527,0,0
98,-503,0,0,0,0,0,0,0,0,0,-1,1322,1527,0,0
105,-503,0,0,0,0,0,0,0,0,0,-1,1329,1527,0,0
112,-503,0,0,0,0,0,0,0,0,0,-1,1336,1527,0,0
119,-503,0,0,0,0,0,0,0,0,0,-1,1343,1527,0,0
126,-503,0,0,0,0,0,0,0,0,0,-1,1350,1527,0,0
133,-503,0,0,0,0,0,0,0,0,0,-1,1357,1527,0,0
140,-503,0,0,0,0,0,0,0,0,0,-1,1364,1527,0,0
147,-503,0,0,0,0,0,0,0,0,0,-1,1371,1527,0,0
154,-503,0,0,0,0,0,0,0,0,0,-1,1378,1527,0,0
161,-503,0,0,0,0,0,0,0,0,0,-1,1385,1527,0,0
168,-503,0,0,0,0,0,0,0,0,0,-1,1392,1527,0,0
175,-503,0,0,0,0,0,0,0,0,0,-1,1399,1527,0,0
182,-503,0,0,0,0,0,0,0,0,0,-1,1406,1527,0,0
189,-503,0,0,0,0,0,0,0,0,0,-1,1413,1527,0,0
196,-503,0,0,0,0,0,0,0,0,0,-1,1420,1527,0,0
203,-503,0,0,0,0,0,0,0,0,0,-1,1427,1527,0,0
210,-503,0,0,0,0,0,0,0,0,0,-1,1434,1527,0,0
217,-503,0,0,0,0,0,0,0,0,0,-1,1441,1527,0,0
224,-503,0,0,0,0,0,0,0,0,0,-1,1448,1527,0,0
231,-503,0,0,0,0,0,0,0,0,0,-1,1455,1527,0,0
238,-503,0,0,0,0,0,0,0,0,0,-1,1462,1527,0,0
245,-503,0,0,0,0,0,0,0,0,0,-1,1469,1527,0,0
252,-503,0,0,0,0,0,0,0,0,0,-1,1476,1527,0,0
259,-503,0,0,0,0,0,0,0,0,0,-1,1483,1527,0,0
266,-503,0,0,0,0,0,0,0,0,0,-1,1490,1527,0,0
273,-503,0,0,0,0,0,0,0,0,0,-1,1497,1527,0,0
280,-503,0,0,0,0,0,0,0,0,0,-1,1504,1527,0,0
287,-503,0,0,0,0,0,0,0,0,0,-1,1511,1527,0,0
294,-503,0,0,0,0,0,0,0,0,0,-1,1518,1527,0,0
301,-503,0,0,0,0,0,0,0,0,0,-1,1525,1527,0,0
308,-503,0,0,0,0,0,0,0,0,0,-1,1532,1527,0,0
315,-503,0,0,0,0,0,0,0,0,0,-1,1539,1527,0,0
322,-503,0,0,0,0,0,0,0,0,0,-1,1546,1527,0,0
329,-503,0,0,0,0,0,0,0,0,0,-1,1553,1527,0,0
336,-503,0,0,0,0,0,0,0,0,0,-1,1560,1527,0,0
343,-503,0,0,0,0,0,0,0,0,0,-1,1567,1527,0,0
350,-503,0,0,0,0,0,0,0,0,0,-1,1574,1527,0,0
357,-503,0,0,0,0,0,0,0,0,0,-1,1581,1527,0,0
364,-503,0,0,0,0,0,0,0,0,0,-1,1588,1527,0,0
371,-503,0,0,0,0,0,0,0,0,0,-1,1595,1527,0,0
378,-503,0,0,0,0,0,0,0,0,0,-1,1602,1527,0,0
385,-503,0,0,0,0,0,0,0,0,0,-1,1609,1527,0,0
392,-503,0,0,0,0,0,0,0,0,0,-1,1616,1527,0,0
399,-503,0,0,0,0,0,0,0,0,0,-1,1623,1527,0,0
406,-503,0,0,0,0,0,0,0,0,0,-1,1630,1527,0,0
413,-503,0,0,0,0,0,0,0,0,0,-1,1637,1527,0,0
420,-503,0,0,0,0,0,0,0,0,0,-1,1644,1527,0,0
427,-503,10.5968,4.9856,0,0,0,0,0,0,0,-1,1651,1527,10.5969,-4.98563
434,-503,11.4329,3.97217,0,0,0,0,0,0,0,-1,1658,1527,11.4328,-3.97222
441,-503,12.0957,2.96509,0,0,0,0,0,0,0,-1,1665,1527,12.0957,-2.96512
448,-503,12.3259,2.53894,0,0,0,0,0,0,0,-1,1672,1527,12.326,-2.53895
455,-503,12.1669,2.18762,0,0,0,0,0,0,0,-1,1679,1527,12.1668,-2.18767
462,-503,11.59,2.60791,0,0,0,0,0,0,0,-1,1686,1527,11.5899,-2.60794
469,-503,11.1625,1.61853,0,0,0,0,0,0,0,-1,1693,1527,11.1625,-1.61856
476,-503,8.7157,2.09912,0,0,0,0,0,0,0,-1,1700,1527,8.71572,-2.0991
483,-503,11.7648,9.51062,0,0,0,0,0,0,0,-1,1707,1527,11.7648,-9.51064
490,-503,11.0581,10.4899,0,0,0,0,0,0,0,-1,1714,1527,11.0581,-10.4899
497,-503,11.3428,10.4855,0,0,0,0,0,0,0,-1,1721,1527,11.3427,-10.4855
504,-503,11.9271,10.6932,0,0,0,0,0,0,0,-1,1728,1527,11.9272,-10.6932
511,-503,11.2225,10.8322,0,0,0,0,0,0,0,-1,1735,1527,11.2225,-10.8321
518,-503,10.6362,10.7736,-0.0182901,-0.00786991,0.0183542,0.00599934,-0.0321593,0.923692,0.0236939,0.0411791,1742,1527,10.6363,-10.7736
525,-503,10.2642,10.5677,-0.0171094,-0.00503825,0.0146504,0.00477117,-0.0269188,0.980791,0.0197295,0.0314703,1749,1527,10.2642,-10.5678
532,-503,10.1621,10.4417,-0.0152649,-0.00262075,0.0113189,0.00402201,-0.0219077,1.04009,0.016114,0.0123017,1756,1527,10.1622,-10.4416
539,-503,10.1337,10.2527,-0.0131238,-0.00179123,0.00885719,0.00305707,-0.0179721,1.06996,0.0131197,0.0115754,1763,1527,10.1337,-10.2527
546,-503,10.1121,10.0414,-0.0106393,-0.00117576,0.00667135,0.0022715,-0.0140865,1.09386,0.0102326,0.0115423,1770,1527,10.1121,-10.0414
553,-503,10.1392,9.83789,-0.00816879,-0.000274665,0.00463207,0.00186394,-0.0103074,1.13826,0.0075698,0.0146301,1777,1527,10.1392,-9.83794
560,-503,10.1222,9.62317,-0.00539967,0.00019444,0.00287941,0.00141168,-0.0066169,1.17084,0.0049494,0.0135497,1784,1527,10.1222,-9.62317
567,-503,10.1268,9.40894,-0.00281182,0.000616465,0.00151034,0.00118692,-0.00338228,1.20966,0.00273765,0.011706,1791,1527,10.1269,-9.40896
574,-503,10.1261,9.20593,-0.000775489,0.00132582,0.000385866,0.00139444,-0.000844105,1.39481,0.00130538,0.0123119,1798,1527,10.126,-9.20589
581,-503,10.1134,8.99011,0.00134475,0.00181048,-0.000641178,0.00225977,0.000895457,-0.959585,0.00131401,0.0134579,1805,1527,10.1134,-8.99016
588,-503,10.1113,8.76013,0.00304345,0.00306209,-0.00208462,0.00513741,0.000968133,-0.787635,0.00315218,0.0160403,1812,1527,10.1113,-8.76013
595,-503,10.1085,8.52612,0.00410332,0.00424849,-0.00307251,0.00724928,0.00110253,-0.797207,0.00451048,0.0121192,1819,1527,10.1086,-8.52606
602,-503,10.1234,8.30078,0.00434176,0.00672595,-0.00522611,0.0108942,0.000173505,-0.897531,0.00720566,0.0134518,1826,1527,10.1234,-8.30081
609,-503,10.1691,8.07764,0.00449269,0.00910306,-0.00782585,0.0149562,-0.00136042,-0.928628,0.0104538,0.0178474,1833,1527,10.169,-8.07764
616,-503,10.1158,7.90857,0.00417552,0.0127584,-0.0115791,0.0208157,-0.00388177,-0.962861,0.0153357,0.021293,1840,1527,10.1158,-7.90854
623,-503,9.9519,7.5929,0.00331846,0.0180811,-0.0172559,0.0294681,-0.00806854,-0.9875,0.0228155,0.0396649,1847,1527,9.95193,-7.59294
630,-503,9.80579,7.32275,0,0,0,0,0,0,0,-1,1854,1527,9.80574,-7.32274
637,-503,9.60168,7.38379,-0.000434792,0.0361784,-0.0373412,0.059459,-0.0237154,-1.01331,0.0494768,0.0484167,1861,1527,9.60166,-7.38382
644,-503,9.26575,6.1228,0,0,0,0,0,0,0,-1,1868,1527,9.2657,-6.12277
651,-503,8.65137,4.57263,-0.0069393,0.0687367,-0.0742106,0.114199,-0.0524015,-1.02116,0.0983678,0.0466008,1875,1527,8.65131,-4.5726
658,-503,8.25635,3.10498,0,0,0,0,0,0,0,-1,1882,1527,8.2563,-3.10493
665,-503,0,0,0,0,0,0,0,0,0,-1,1889,1527,0,0
672,-503,0,0,0,0,0,0,0,0,0,-1,1896,1527,0,0
679,-503,0,0,0,0,0,0,0,0,0,-1,1903,1527,0,0
686,-503,0,0,0,0,0,0,0,0,0,-1,1910,1527,0,0
693,-503,0,0,0,0,0,0,0,0,0,-1,1917,1527,0,0
700,-503,0,0,0,0,0,0,0,0,0,-1,1924,1527,0,0
707,-503,0,0,0,0,0,0,0,0,0,-1,1931,1527,0,0
714,-503,0,0,0,0,0,0,0,0,0,-1,1938,1527,0,0
721,-503,0,0,0,0,0,0,0,0,0,-1,1945,1527,0,0
728,-503,0,0,0,0,0,0,0,0,0,-1,1952,1527,0,0
735,-503,0,0,0,0,0,0,0,0,0,-1,1959,1527,0,0
742,-503,0,0,0,0,0,0,0,0,0,-1,1966,1527,0,0
749,-503,0,0,0,0,0,0,0,0,0,-1,1973,1527,0,0
756,-503,0,0,0,0,0,0,0,0,0,-1,1980,1527,0,0
763,-503,0,0,0,0,0,0,0,0,0,-1,1987,1527,0,0
770,-503,0,0,0,0,0,0,0,0,0,-1,1994,1527,0,0
777,-503,0,0,0,0,0,0,0,0,0,-1,2001,1527,0,0
784,-503,0,0,0,0,0,0,0,0,0,-1,2008,1527,0,0
791,-503,0,0,0,0,0,0,0,0,0,-1,2015,1527,0,0
798,-503,0,0,0,0,0,0,0,0,0,-1,2022,1527,0,0
805,-503,0,0,0,0,0,0,0,0,0,-1,2029,1527,0,0
812,-503,0,0,0,0,0,0,0,0,0,-1,2036,1527,0,0
-700,-510,0,0,0,0,0,0,0,0,0,-1,524,1534,0,0
-693,-510,0,0,0,0,0,0,0,0,0,-1,531,1534,0,0
-686,-510,0,0,0,0,0,0,0,0,0,-1,538,1534,0,0
-679,-510,0,0,0,0,0,0,0,0,0,-1,545,1534,0,0
-672,-510,0,0,0,0,0,0,0,0,0,-1,552,1534,0,0
-665,-510,0,0,0,0,0,0,0,0,0,-1,559,1534,0,0
-658,-510,0,0,0,0,0,0,0,0,0,-1,566,1534,0,0
-651,-510,0,0,0,0,0,0,0,0,0,-1,573,1534,0,0
-644,-510,0,0,0,0,0,0,0,0,0,-1,580,1534,0,0
-637,-510,0,0,0,0,0,0,0,0,0,-1,587,1534,0,0
-630,-510,0,0,0,0,0,0,0,0,0,-1,594,1534,0,0
-623,-510,0,0,0,0,0,0,0,0,0,-1,601,1534,0,0
-616,-510,0,0,0,0,0,0,0,0,0,-1,608,1534,0,0
-609,-510,0,0,0,0,0,0,0,0,0,-1,615,1534,0,0
-602,-510,0,0,0,0,0,0,0,0,0,-1,622,1534,0,0
-595,-510,0,0,0,0,0,0,0,0,0,-1,629,1534,0,0
-588,-510,0,0,0,0,0,0,0,0,0,-1,636,1534,0,0
-581,-510,0,0,0,0,0,0,0,0,0,-1,643,1534,0,0
-574,-510,0,0,0,0,0,0,0,0,0,-1,650,1534,0,0
-567,-510,0,0,0,0,0,0,0,0,0,-1,657,1534,0,0
-560,-510,0,0,0,0,0,0,0,0,0,-1,664,1534,0,0
-553,-510,0,0,0,0,0,0,0,0,0,-1,671,1534,0,0
-546,-510,0,0,0,0,0,0,0,0,0,-1,678,1534,0,0
-539,-510,0,0,0,0,0,0,0,0,0,-1,685,1534,0,0
-532,-510,2.29291,4.35352,0,0,0,0,0,0,0,-1,692,1534,2.29289,-4.35348
-525,-510,1.41785,4.60266,0,0,0,0,0,0,0,-1,699,1534,1.41786,-4.60265
-518,-510,-2.1676,2.37988,0,0,0,0,0,0,0,-1,706,1534,-2.16759,-2.37993
-511,-510,-2.21582,2.9585,0,0,0,0,0,0,0,-1,713,1534,-2.2158,-2.95853
-504,-510,-2.26398,3.53711,0,0,0,0,0,0,0,-1,720,1534,-2.26401,-3.53713
-497,-510,-1.16058,6.27673,0,0,0,0,0,0,0,-1,727,1534,-1.16059,-6.27676
-490,-510,-0.541321,5.9353,0,0,0,0,0,0,0,-1,734,1534,-0.541321,-5.9353
-483,-510,-0.50592,6.20691,-0.000462615,0.00342169,0.00600757,0.00779325,-0.00483417,0.941738,0.00735686,0.040816,741,1534,-0.50591,-6.20694
-476,-510,-0.557983,6.49597,-0.000785186,0.00226642,0.00433348,0.00533486,-0.00385363,0.954669,0.00532791,0.0282403,748,1534,-0.557957,-6.496
-469,-510,-0.661072,6.74609,-0.00124866,0.00114023,0.00237459,0.00260387,-0.00271229,1.01842,0.0030695,0.0110949,755,1534,-0.661075,-6.74614
-462,-510,-0.664917,6.98962,-0.000792174,0.000838667,0.00146602,0.00170078,-0.00165429,1.0392,0.00193711,0.01145,762,1534,-0.664937,-6.98961
-455,-510,-0.682617,7.25439,-0.000150361,0.000293529,0.00102806,0.00112333,-0.000980158,0.89171,0.00121538,0.0135591,769,1534,-0.682623,-7.25439
-448,-510,-0.650574,7.49365,0.000552461,-0.000237567,0.00066144,0.000927861,-0.000612968,0.516218,0.000895769,0.013084,776,1534,-0.650595,-7.49368
-441,-510,-0.661743,7.71545,0.00137561,-0.000969186,0.000397619,0.0014412,-0.00103478,0.163488,0.00143591,0.0139241,783,1534,-0.661717,-7.71541
-434,-510,-0.701294,7.93567,0.00184018,-0.00141587,-1.94158e-05,0.00184029,-0.00141599,-0.00596271,0.00188533,0.0141965,790,1534,-0.701321,-7.93573
-427,-510,-0.692322,8.13123,0.00214062,-0.00210246,-0.000510224,0.00220111,-0.00216295,-0.118008,0.00251962,0.0202466,797,1534,-0.692306,-8.13125
-420,-510,-0.688477,8.37769,0.00246366,-0.00306801,-0.00106323,0.00266098,-0.00326533,-0.183499,0.00342749,0.0209185,804,1534,-0.68845,-8.37768
-413,-510,-0.673584,8.65466,0.00255115,-0.0044839,-0.0016813,0.00293231,-0.00486506,-0.222938,0.00454768,0.0116301,811,1534,-0.673571,-8.65464
-406,-510,-0.669373,8.88953,0.00204473,-0.00610524,-0.00263464,0.00282226,-0.00688277,-0.28697,0.00576436,0.0105343,818,1534,-0.669402,-8.88956
-399,-510,-0.672729,9.11365,0.00163553,-0.00802667,-0.00363067,0.00284772,-0.00923886,-0.322237,0.00729614,0.0108153,825,1534,-0.672719,-9.11363
-392,-510,-0.587646,9.44397,0.00114041,-0.0103221,-0.00482336,0.00289995,-0.0120817,-0.349794,0.00917516,0.0212587,832,1534,-0.587669,-9.44395
-385,-510,-0.581238,9.62598,0.000516111,-0.0129594,-0.00608205,0.00285517,-0.0152985,-0.367147,0.0112719,0.0360267,839,1534,-0.581246,-9.62601
-378,-510,-0.633484,9.45618,-0.000136322,-0.0159788,-0.0073225,0.00272971,-0.0188448,-0.373071,0.013565,0.0382395,846,1534,-0.633489,-9.45621
-371,-510,-0.428101,9.34607,0,0,0,0,0,0,0,-1,853,1534,-0.428075,-9.3461
-364,-510,-0.247986,9.13953,0,0,0,0,0,0,0,-1,860,1534,-0.247982,-9.13951
-357,-510,-0.94342,8.37134,0,0,0,0,0,0,0,-1,867,1534,-0.943426,-8.37128
-350,-510,0.471191,6.06458,0,0,0,0,0,0,0,-1,874,1534,0.47118,-6.06453
-343,-510,-2.94617,5.00989,0,0,0,0,0,0,0,-1,881,1534,-2.94615,-5.00992
-336,-510,-2.50793,6.76257,0,0,0,0,0,0,0,-1,888,1534,-2.50794,-6.76253
-329,-510,-2.10583,8.51733,0,0,0,0,0,0,0,-1,895,1534,-2.10582,-8.51739
-322,-510,-1.45605,10.2574,0,0,0,0,0,0,0,-1,902,1534,-1.45608,-10.2574
-315,-510,-1.73047,10.9796,0,0,0,0,0,0,0,-1,909,1534,-1.73049,-10.9796
-308,-510,-2.05328,9.72034,0,0,0,0,0,0,0,-1,916,1534,-2.05327,-9.72036
-301,-510,-2.11639,10.0634,0,0,0,0,0,0,0,-1,923,1534,-2.11637,-10.0633
-294,-510,0,0,0,0,0,0,0,0,0,-1,930,1534,0,0
-287,-510,0,0,0,0,0,0,0,0,0,-1,937,1534,0,0
-280,-510,0,0,0,0,0,0,0,0,0,-1,944,1534,0,0
-273,-510,0,0,0,0,0,0,0,0,0,-1,951,1534,0,0
-266,-510,0,0,0,0,0,0,0,0,0,-1,958,1534,0,0
-259,-510,0,0,0,0,0,0,0,0,0,-1,965,1534,0,0
-252,-510,0,0,0,0,0,0,0,0,0,-1,972,1534,0,0
-245,-510,0,0,0,0,0,0,0,0,0,-1,979,1534,0,0
-238,-510,0,0,0,0,0,0,0,0,0,-1,986,1534,0,0
-231,-510,0,0,0,0,0,0,0,0,0,-1,993,1534,0,0
-224,-510,0,0,0,0,0,0,0,0,0,-1,1000,1534,0,0
-217,-510,0,0,0,0,0,0,0,0,0,-1,1007,1534,0,0
-210,-510,0,0,0,0,0,0,0,0,0,-1,1014,1534,0,0
-203,-510,0,0,0,0,0,0,0,0,0,-1,1021,1534,0,0
-196,-510,0,0,0,0,0,0,0,0,0,-1,1028,1534,0,0
-189,-510,0,0,0,0,0,0,0,0,0,-1,1035,1534,0,0
-182,-510,0,0,0,0,0,0,0,0,0,-1,1042,1534,0,0
-175,-510,0,0,0,0,0,0,0,0,0,-1,1049,1534,0,0
-168,-510,0,0,0,0,0,0,0,0,0,-1,1056,1534,0,0
-161,-510,0,0,0,0,0,0,0,0,0,-1,1063,1534,0,0
-154,-510,0,0,0,0,0,0,0,0,0,-1,1070,1534,0,0
-147,-510,0,0,0,0,0,0,0,0,0,-1,1077,1534,0,0
-140,-510,0,0,0,0,0,0,0,0,0,-1,1084,1534,0,0
-133,-510,0,0,0,0,0,0,0,0,0,-1,1091,1534,0,0
-126,-510,0,0,0,0,0,0,0,0,0,-1,1098,1534,0,0
-119,-510,0,0,0,0,0,0,0,0,0,-1,1105,1534,0,0
-112,-510,0,0,0,0,0,0,0,0,0,-1,1112,1534,0,0
-105,-510,0,0,0,0,0,0,0,0,0,-1,1119,1534,0,0
-98,-510,0,0,0,0,0,0,0,0,0,-1,1126,1534,0,0
-91,-510,0,0,0,0,0,0,0,0,0,-1,1133,1534,0,0
-84,-510,0,0,0,0,0,0,0,0,0,-1,1140,1534,0,0
-77,-510,0,0,0,0,0,0,0,0,0,-1,1147,1534,0,0
-70,-510,0,0,0,0,0,0,0,0,0,-1,1154,1534,0,0
-63,-510,0,0,0,0,0,0,0,0,0,-1,1161,1534,0,0
-56,-510,0,0,0,0,0,0,0,0,0,-1,1168,1534,0,0
-49,-510,0,0,0,0,0,0,0,0,0,-1,1175,1534,0,0
-42,-510,0,0,0,0,0,0,0,0,0,-1,1182,1534,0,0
-35,-510,0,0,0,0,0,0,0,0,0,-1,1189,1534,0,0
-28,-510,0,0,0,0,0,0,0,0,0,-1,1196,1534,0,0
-21,-510,0,0,0,0,0,0,0,0,0,-1,1203,1534,0,0
-14,-510,0,0,0,0,0,0,0,0,0,-1,1210,1534,0,0
-7,-510,0,0,0,0,0,0,0,0,0,-1,1217,1534,0,0
0,-510,0,0,0,0,0,0,0,0,0,-1,1224,1534,0,0
7,-510,0,0,0,0,0,0,0,0,0,-1,1231,1534,0,0
14,-510,0,0,0,0,0,0,0,0,0,-1,1238,1534,0,0
21,-510,0,0,0,0,0,0,0,0,0,-1,1245,1534,0,0
28,-510,0,0,0,0,0,0,0,0,0,-1,1252,1534,0,0
35,-510,0,0,0,0,0,0,0,0,0,-1,1259,1534,0,0
42,-510,0,0,0,0,0,0,0,0,0,-1,1266,1534,0,0
49,-510,0,0,0,0,0,0,0,0,0,-1,1273,1534,0,0
56,-510,0,0,0,0,0,0,0,0,0,-1,1280,1534,0,0
63,-510,0,0,0,0,0,0,0,0,0,-1,1287,1534,0,0
70,-510,0,0,0,0,0,0,0,0,0,-1,1294,1534,0,0
77,-510,0,0,0,0,0,0,0,0,0,-1,1301,1534,0,0
84,-510,0,0,0,0,0,0,0,0,0,-1,1308,1534,0,0
91,-510,0,0,0,0,0,0,0,0,0,-1,1315,1534,0,0
98,-510,0,0,0,0,0,0,0,0,0,-1,1322,1534,0,0
105,-510,0,0,0,0,0,0,0,0,0,-1,1329,1534,0,0
112,-510,0,0,0,0,0,0,0,0,0,-1,1336,1534,0,0
119,-510,0,0,0,0,0,0,0,0,0,-1,1343,1534,0,0
126,-510,0,0,0,0,0,0,0,0,0,-1,1350,1534,0,0
133,-510,0,0,0,0,0,0,0,0,0,-1,1357,1534,0,0
140,-510,0,0,0,0,0,0,0,0,0,-1,1364,1534,0,0
147,-510,0,0,0,0,0,0,0,0,0,-1,1371,1534,0,0
154,-510,0,0,0,0,0,0,0,0,0,-1,1378,1534,0,0
161,-510,0,0,0,0,0,0,0,0,0,-1,1385,1534,0,0
168,-510,0,0,0,0,0,0,0,0,0,-1,1392,1534,0,0
175,-510,0,0,0,0,0,0,0,0,0,-1,1399,1534,0,0
182,-510,0,0,0,0,0,0,0,0,0,-1,1406,1534,0,0
189,-510,0,0,0,0,0,0,0,0,0,-1,1413,1534,0,0
196,-510,0,0,0,0,0,0,0,0,0,-1,1420,1534,0,0
203,-510,0,0,0,0,0,0,0,0,0,-1,1427,1534,0,0
210,-510,0,0,0,0,0,0,0,0,0,-1,1434,1534,0,0
217,-510,0,0,0,0,0,0,0,0,0,-1,1441,1534,0,0
224,-510,0,0,0,0,0,0,0,0,0,-1,1448,1534,0,0
231,-510,0,0,0,0,0,0,0,0,0,-1,1455,1534,0,0
238,-510,0,0,0,0,0,0,0,0,0,-1,1462,1534,0,0
245,-510,0,0,0,0,0,0,0,0,0,-1,1469,1534,0,0
252,-510,0,0,0,0,0,0,0,0,0,-1,1476,1534,0,0
259,-510,0,0,0,0,0,0,0,0,0,-1,1483,1534,0,0
266,-510,0,0,0,0,0,0,0,0,0,-1,1490,1534,0,0
273,-510,0,0,0,0,0,0,0,0,0,-1,1497,1534,0,0
280,-510,0,0,0,0,0,0,0,0,0,-1,1504,1534,0,0
287,-510,0,0,0,0,0,0,0,0,0,-1,1511,1534,0,0
294,-510,0,0,0,0,0,0,0,0,0,-1,1518,1534,0,0
301,-510,0,0,0,0,0,0,0,0,0,-1,1525,1534,0,0
308,-510,0,0,0,0,0,0,0,0,0,-1,1532,1534,0,0
315,-510,0,0,0,0,0,0,0,0,0,-1,1539,1534,0,0
322,-510,0,0,0,0,0,0,0,0,0,-1,1546,1534,0,0
329,-510,0,0,0,0,0,0,0,0,0,-1,1553,1534,0,0
336,-510,0,0,0,0,0,0,0,0,0,-1,1560,1534,0,0
343,-510,0,0,0,0,0,0,0,0,0,-1,1567,1534,0,0
350,-510,0,0,0,0,0,0,0,0,0,-1,1574,1534,0,0
357,-510,0,0,0,0,0,0,0,0,0,-1,1581,1534,0,0
364,-510,0,0,0,0,0,0,0,0,0,-1,1588,1534,0,0
371,-510,0,0,0,0,0,0,0,0,0,-1,1595,1534,0,0
378,-510,0,0,0,0,0,0,0,0,0,-1,1602,1534,0,0
385,-510,0,0,0,0,0,0,0,0,0,-1,1609,1534,0,0
392,-510,0,0,0,0,0,0,0,0,0,-1,1616,1534,0,0
399,-510,0,0,0,0,0,0,0,0,0,-1,1623,1534,0,0
406,-510,0,0,0,0,0,0,0,0,0,-1,1630,1534,0,0
413,-510,0,0,0,0,0,0,0,0,0,-1,1637,1534,0,0
420,-510,13.1918,5.99402,0,0,0,0,0,0,0,-1,1644,1534,13.1917,-5.994
427,-510,10.9799,5.12341,0,0,0,0,0,0,0,-1,1651,1534,10.9798,-5.12337
434,-510,11.8219,4.07898,0,0,0,0,0,0,0,-1,1658,1534,11.8219,-4.07895
441,-510,12.6812,3.02991,0,0,0,0,0,0,0,-1,1665,1534,12.6811,-3.0299
448,-510,13.2379,2.2804,0,0,0,0,0,0,0,-1,1672,1534,13.2379,-2.28037
455,-510,9.76892,2.20642,0,0,0,0,0,0,0,-1,1679,1534,9.76894,-2.20647
462,-510,9.84692,2.49182,0,0,0,0,0,0,0,-1,1686,1534,9.84695,-2.49185
469,-510,9.99475,2.57556,0,0,0,0,0,0,0,-1,1693,1534,9.99477,-2.57556
476,-510,8.62915,3.32227,0,0,0,0,0,0,0,-1,1700,1534,8.6291,-3.32231
483,-510,12.3787,7.0802,0,0,0,0,0,0,0,-1,1707,1534,12.3786,-7.08025
490,-510,10.3571,10.6864,0,0,0,0,0,0,0,-1,1714,1534,10.3571,-10.6864
497,-510,10.0756,9.88159,0,0,0,0,0,0,0,-1,1721,1534,10.0756,-9.88164
504,-510,11.2523,10.8712,0,0,0,0,0,0,0,-1,1728,1534,11.2523,-10.8712
511,-510,10.9507,10.6859,0,0,0,0,0,0,0,-1,1735,1534,10.9507,-10.6859
518,-510,10.2042,10.8127,-0.0129789,-0.00925465,0.0164355,0.00542385,-0.0276574,0.841807,0.0204869,0.0325257,1742,1534,10.2043,-10.8128
525,-510,9.96143,10.687,-0.0121099,-0.00607673,0.0128999,0.00415456,-0.0223412,0.900257,0.0164547,0.017936,1749,1534,9.96141,-10.6871
532,-510,9.93713,10.4576,-0.0107471,-0.00330555,0.00973769,0.00339801,-0.0174506,0.967888,0.0129163,0.0123074,1756,1534,9.93715,-10.4577
539,-510,9.9198,10.2468,-0.00915917,-0.00211194,0.00743298,0.00259032,-0.0138614,1.00673,0.0102145,0.0123304,1763,1534,9.9198,-10.2468
546,-510,9.90869,10.0592,-0.00722584,-0.00119934,0.00539136,0.00196369,-0.0103889,1.04022,0.00766478,0.0106973,1770,1534,9.90866,-10.0592
553,-510,9.92297,9.84021,-0.0052195,-4.15459e-05,0.00346611,0.00169576,-0.00695681,1.10617,0.00529443,0.0124158,1777,1534,9.92299,-9.84022
560,-510,9.89783,9.60449,-0.00283089,0.00065824,0.00182411,0.00143773,-0.00361039,1.16695,0.00300316,0.0130121,1784,1534,9.89781,-9.60443
567,-510,9.90552,9.39587,-0.000555879,0.00125108,0.000525055,0.00139257,-0.000697367,1.30758,0.00122868,0.0118752,1791,1534,9.90557,-9.39581
574,-510,9.91431,9.20032,0.00137249,0.00211676,-0.000576139,0.0024305,0.00105875,-1.07215,0.00140712,0.013056,1798,1534,9.91429,-9.20036
581,-510,9.88525,9.00439,0.00336058,0.00280092,-0.00154447,0.00465037,0.00151114,-0.695779,0.00273919,0.0120782,1805,1534,9.88528,-9.00438
588,-510,9.8833,8.78967,0.00488425,0.00431033,-0.0031133,0.00772379,0.00147079,-0.739442,0.00473568,0.0127999,1812,1534,9.8833,-8.7897
595,-510,9.93884,8.51111,0.0059576,0.0057795,-0.00426585,0.0101353,0.00160177,-0.774962,0.0062913,0.0123551,1819,1534,9.9388,-8.51116
602,-510,9.90698,8.2644,0.00626295,0.0089038,-0.00689054,0.0145993,0.000567458,-0.880065,0.00954933,0.0208056,1826,1534,9.90703,-8.26443
609,-510,9.9585,8.18604,0.00647591,0.0121655,-0.010117,0.01983,-0.00118862,-0.922454,0.0136335,0.0285294,1833,1534,9.95852,-8.18601
616,-510,9.89807,7.91687,0.00602347,0.0171893,-0.0149495,0.0275643,-0.00435158,-0.964104,0.0199853,0.0408949,1840,1534,9.89807,-7.9169
623,-510,9.67957,7.56335,0,0,0,0,0,0,0,-1,1847,1534,9.67951,-7.56329
630,-510,10.7136,7.40308,0,0,0,0,0,0,0,-1,1854,1534,10.7137,-7.40302
637,-510,10.5243,6.59131,0,0,0,0,0,0,0,-1,1861,1534,10.5243,-6.59127
644,-510,10.335,5.77954,0,0,0,0,0,0,0,-1,1868,1534,10.3349,-5.77952
651,-510,8.70471,3.5061,0,0,0,0,0,0,0,-1,1875,1534,8.70475,-3.50611
658,-510,0,0,0,0,0,0,0,0,0,-1,1882,1534,0,0
665,-510,0,0,0,0,0,0,0,0,0,-1,1889,1534,0,0
672,-510,0,0,0,0,0,0,0,0,0,-1,1896,1534,0,0
679,-510,0,0,0,0,0,0,0,0,0,-1,1903,1534,0,0
686,-510,0,0,0,0,0,0,0,0,0,-1,1910,1534,0,0
693,-510,0,0,0,0,0,0,0,0,0,-1,1917,1534,0,0
700,-510,0,0,0,0,0,0,0,0,0,-1,1924,1534,0,0
707,-510,0,0,0,0,0,0,0,0,0,-1,1931,1534,0,0
714,-510,0,0,0,0,0,0,0,0,0,-1,1938,1534,0,0
721,-510,0,0,0,0,0,0,0,0,0,-1,1945,1534,0,0
728,-510,0,0,0,0,0,0,0,0,0,-1,1952,1534,0,0
735,-510,0,0,0,0,0,0,0,0,0,-1,1959,1534,0,0
742,-510,0,0,0,0,0,0,0,0,0,-1,1966,1534,0,0
749,-510,0,0,0,0,0,0,0,0,0,-1,1973,1534,0,0
756,-510,0,0,0,0,0,0,0,0,0,-1,1980,1534,0,0
763,-510,0,0,0,0,0,0,0,0,0,-1,1987,1534,0,0
770,-510,0,0,0,0,0,0,0,0,0,-1,1994,1534,0,0
777,-510,0,0,0,0,0,0,0,0,0,-1,2001,1534,0,0
784,-510,0,0,0,0,0,0,0,0,0,-1,2008,1534,0,0
791,-510,0,0,0,0,0,0,0,0,0,-1,2015,1534,0,0
798,-510,0,0,0,0,0,0,0,0,0,-1,2022,1534,0,0
805,-510,0,0,0,0,0,0,0,0,0,-1,2029,1534,0,0
812,-510,0,0,0,0,0,0,0,0,0,-1,2036,1534,0,0
-700,-517,0,0,0,0,0,0,0,0,0,-1,524,1541,0,0
-693,-517,0,0,0,0,0,0,0,0,0,-1,531,1541,0,0
-686,-517,0,0,0,0,0,0,0,0,0,-1,538,1541,0,0
-679,-517,0,0,0,0,0,0,0,0,0,-1,545,1541,0,0
-672,-517,0,0,0,0,0,0,0,0,0,-1,552,1541,0,0
-665,-517,0,0,0,0,0,0,0,0,0,-1,559,1541,0,0
-658,-517,0,0,0,0,0,0,0,0,0,-1,566,1541,0,0
-651,-517,0,0,0,0,0,0,0,0,0,-1,573,1541,0,0
-644,-517,0,0,0,0,0,0,0,0,0,-1,580,1541,0,0
-637,-517,0,0,0,0,0,0,0,0,0,-1,587,1541,0,0
-630,-517,0,0,0,0,0,0,0,0,0,-1,594,1541,0,0
-623,-517,0,0,0,0,0,0,0,0,0,-1,601,1541,0,0
-616,-517,0,0,0,0,0,0,0,0,0,-1,608,1541,0,0
-609,-517,0,0,0,0,0,0,0,0,0,-1,615,1541,0,0
-602,-517,0,0,0,0,0,0,0,0,0,-1,622,1541,0,0
-595,-517,0,0,0,0,0,0,0,0,0,-1,629,1541,0,0
-588,-517,0,0,0,0,0,0,0,0,0,-1,636,1541,0,0
-581,-517,0,0,0,0,0,0,0,0,0,-1,643,1541,0,0
-574,-517,0,0,0,0,0,0,0,0,0,-1,650,1541,0,0
-567,-517,0,0,0,0,0,0,0,0,0,-1,657,1541,0,0
-560,-517,0,0,0,0,0,0,0,0,0,-1,664,1541,0,0
-553,-517,0,0,0,0,0,0,0,0,0,-1,671,1541,0,0
-546,-517,0,0,0,0,0,0,0,0,0,-1,678,1541,0,0
-539,-517,0,0,0,0,0,0,0,0,0,-1,685,1541,0,0
-532,-517,0,0,0,0,0,0,0,0,0,-1,692,1541,0,0
-525,-517,0.467896,4.35828,0,0,0,0,0,0,0,-1,699,1541,0.467905,-4.35823
-518,-517,-0.0923462,4.67297,0,0,0,0,0,0,0,-1,706,1541,-0.0923617,-4.67292
-511,-517,-2.72321,2.45251,0,0,0,0,0,0,0,-1,713,1541,-2.72323,-2.45249
-504,-517,-0.883362,4.79858,0,0,0,0,0,0,0,-1,720,1541,-0.88337,-4.79854
-497,-517,-1.04999,5.82275,0,0,0,0,0,0,0,-1,727,1541,-1.04997,-5.82276
-490,-517,-0.594727,6.03064,0,0,0,0,0,0,0,-1,734,1541,-0.594698,-6.03065
-483,-517,-0.4422,6.20618,-0.00103378,0.0039153,0.00659628,0.00848592,-0.0056044,0.964846,0.00819156,0.0424348,741,1541,-0.442218,-6.20612
-476,-517,-0.288452,6.48718,-0.00111072,0.00265476,0.00487166,0.00599483,-0.00445079,0.969792,0.0060527,0.0349215,748,1541,-0.288423,-6.48722
-469,-517,-0.364197,6.73352,-0.00148432,0.00154709,0.00295531,0.00335271,-0.00328994,1.02235,0.00383519,0.0143539,755,1541,-0.364199,-6.73354
-462,-517,-0.42572,6.96179,-0.000992502,0.00125149,0.00205566,0.00247142,-0.00221243,1.03521,0.0027056,0.0145901,762,1541,-0.425698,-6.96183
-455,-517,-0.433716,7.24146,-0.000321848,0.000810011,0.00153757,0.00188249,-0.00139433,0.961738,0.00189886,0.0132168,769,1541,-0.433717,-7.2414
-448,-517,-0.428711,7.50635,0.000342645,0.000416516,0.00109877,0.00147897,-0.000719811,0.802199,0.00129444,0.0127977,776,1541,-0.42873,-7.50631
-441,-517,-0.435913,7.73193,0.00112753,-0.000112693,0.000809388,0.00152705,-0.000512213,0.45852,0.001225,0.0118371,783,1541,-0.435908,-7.73198
-434,-517,-0.436035,7.94751,0.00157429,-0.000378387,0.000428815,0.00166431,-0.000468407,0.206922,0.00129424,0.01396,790,1541,-0.436054,-7.94749
-427,-517,-0.434631,8.16724,0.00184443,-0.000857205,-2.61282e-06,0.00184443,-0.000857207,-0.000967124,0.00159413,0.0134404,797,1541,-0.434624,-8.1672
-420,-517,-0.448975,8.42041,0.00216198,-0.00156633,-0.000458307,0.00221749,-0.00162184,-0.120536,0.00222551,0.020684,804,1541,-0.448974,-8.42047
-413,-517,-0.438171,8.6748,0.00227385,-0.00264553,-0.000988675,0.00246511,-0.00283679,-0.191094,0.00306356,0.0111535,811,1541,-0.438142,-8.67481
-406,-517,-0.440857,8.89722,0.00182954,-0.00399356,-0.00177626,0.00232859,-0.00449262,-0.273897,0.00400374,0.0103021,818,1541,-0.440839,-8.89718
-399,-517,-0.434814,9.13623,0.00145059,-0.00555366,-0.00258087,0.00229884,-0.0064019,-0.317546,0.00520624,0.00996837,825,1541,-0.43481,-9.13629
-392,-517,-0.427673,9.37964,0.00104528,-0.00743957,-0.00351778,0.00231402,-0.00870831,-0.346144,0.00671121,0.0115577,832,1541,-0.427644,-9.3796
-385,-517,-0.356934,9.70862,0.00061536,-0.00959458,-0.00448256,0.00230407,-0.0112833,-0.360285,0.00839626,0.018158,839,1541,-0.356945,-9.70864
-378,-517,-0.38501,9.79993,0.000213117,-0.0120046,-0.00535382,0.00222716,-0.0140186,-0.359812,0.0101698,0.0368414,846,1541,-0.38501,-9.79997
-371,-517,-0.364319,9.71851,-0.000420721,-0.0148862,-0.00645363,0.00203993,-0.0173469,-0.364267,0.0123011,0.0443307,853,1541,-0.364297,-9.71845
-364,-517,-0.135376,9.60388,-0.00110538,-0.017773,-0.00723971,0.0016001,-0.0204785,-0.35763,0.0142157,0.0484747,860,1541,-0.135352,-9.60388
-357,-517,0.132507,9.56177,0,0,0,0,0,0,0,-1,867,1541,0.132496,-9.56172
-350,-517,-0.514282,9.26501,0,0,0,0,0,0,0,-1,874,1541,-0.514269,-9.26497
-343,-517,-2.56708,6.12415,0,0,0,0,0,0,0,-1,881,1541,-2.56708,-6.12418
-336,-517,-1.81256,7.39868,0,0,0,0,0,0,0,-1,888,1541,-1.81255,-7.39862
-329,-517,-0.370361,8.6095,0,0,0,0,0,0,0,-1,895,1541,-0.370333,-8.60947
-322,-517,-0.924377,9.64771,0,0,0,0,0,0,0,-1,902,1541,-0.924405,-9.64767
-315,-517,-0.987976,7.29749,0,0,0,0,0,0,0,-1,909,1541,-0.987993,-7.29743
-308,-517,-1.37579,8.10229,0,0,0,0,0,0,0,-1,916,1541,-1.37577,-8.1023
-301,-517,-1.69141,8.87488,0,0,0,0,0,0,0,-1,923,1541,-1.69141,-8.87485
-294,-517,-1.72583,9.92566,0,0,0,0,0,0,0,-1,930,1541,-1.72584,-9.92571
-287,-517,-1.64142,10.9014,0,0,0,0,0,0,0,-1,937,1541,-1.64143,-10.9014
-280,-517,0,0,0,0,0,0,0,0,0,-1,944,1541,0,0
-273,-517,0,0,0,0,0,0,0,0,0,-1,951,1541,0,0
-266,-517,0,0,0,0,0,0,0,0,0,-1,958,1541,0,0
-259,-517,0,0,0,0,0,0,0,0,0,-1,965,1541,0,0
-252,-517,0,0,0,0,0,0,0,0,0,-1,972,1541,0,0
-245,-517,0,0,0,0,0,0,0,0,0,-1,979,1541,0,0
-238,-517,0,0,0,0,0,0,0,0,0,-1,986,1541,0,0
-231,-517,0,0,0,0,0,0,0,0,0,-1,993,1541,0,0
-224,-517,0,0,0,0,0,0,0,0,0,-1,1000,1541,0,0
-217,-517,0,0,0,0,0,0,0,0,0,-1,1007,1541,0,0
-210,-517,0,0,0,0,0,0,0,0,0,-1,1014,1541,0,0
-203,-517,0,0,0,0,0,0,0,0,0,-1,1021,1541,0,0
-196,-517,0,0,0,0,0,0,0,0,0,-1,1028,1541,0,0
-189,-517,0,0,0,0,0,0,0,0,0,-1,1035,1541,0,0
-182,-517,0,0,0,0,0,0,0,0,0,-1,1042,1541,0,0
-175,-517,0,0,0,0,0,0,0,0,0,-1,1049,1541,0,0
-168,-517,0,0,0,0,0,0,0,0,0,-1,1056,1541,0,0
-161,-517,0,0,0,0,0,0,0,0,0,-1,1063,1541,0,0
-154,-517,0,0,0,0,0,0,0,0,0,-1,1070,1541,0,0
-147,-517,0,0,0,0,0,0,0,0,0,-1,1077,1541,0,0
-140,-517,0,0,0,0,0,0,0,0,0,-1,1084,1541,0,0
-133,-517,0,0,0,0,0,0,0,0,0,-1,1091,1541,0,0
-126,-517,0,0,0,0,0,0,0,0,0,-1,1098,1541,0,0
-119,-517,0,0,0,0,0,0,0,0,0,-1,1105,1541,0,0
-112,-517,0,0,0,0,0,0,0,0,0,-1,1112,1541,0,0
-105,-517,0,0,0,0,0,0,0,0,0,-1,1119,1541,0,0
-98,-517,0,0,0,0,0,0,0,0,0,-1,1126,1541,0,0
-91,-517,0,0,0,0,0,0,0,0,0,-1,1133,1541,0,0
-84,-517,0,0,0,0,0,0,0,0,0,-1,1140,1541,0,0
-77,-517,0,0,0,0,0,0,0,0,0,-1,1147,1541,0,0
-70,-517,0,0,0,0,0,0,0,0,0,-1,1154,1541,0,0
-63,-517,0,0,0,0,0,0,0,0,0,-1,1161,1541,0,0
-56,-517,0,0,0,0,0,0,0,0,0,-1,1168,1541,0,0
-49,-517,0,0,0,0,0,0,0,0,0,-1,1175,1541,0,0
-42,-517,0,0,0,0,0,0,0,0,0,-1,1182,1541,0,0
-35,-517,0,0,0,0,0,0,0,0,0,-1,1189,1541,0,0
-28,-517,0,0,0,0,0,0,0,0,0,-1,1196,1541,0,0
-21,-517,0,0,0,0,0,0,0,0,0,-1,1203,1541,0,0
-14,-517,0,0,0,0,0,0,0,0,0,-1,1210,1541,0,0
-7,-517,0,0,0,0,0,0,0,0,0,-1,1217,1541,0,0
0,-517,0,0,0,0,0,0,0,0,0,-1,1224,1541,0,0
7,-517,0,0,0,0,0,0,0,0,0,-1,1231,1541,0,0
14,-517,0,0,0,0,0,0,0,0,0,-1,1238,1541,0,0
21,-517,0,0,0,0,0,0,0,0,0,-1,1245,1541,0,0
28,-517,0,0,0,0,0,0,0,0,0,-1,1252,1541,0,0
35,-517,0,0,0,0,0,0,0,0,0,-1,1259,1541,0,0
42,-517,0,0,0,0,0,0,0,0,0,-1,1266,1541,0,0
49,-517,0,0,0,0,0,0,0,0,0,-1,1273,1541,0,0
56,-517,0,0,0,0,0,0,0,0,0,-1,1280,1541,0,0
63,-517,0,0,0,0,0,0,0,0,0,-1,1287,1541,0,0
70,-517,0,0,0,0,0,0,0,0,0,-1,1294,1541,0,0
77,-517,0,0,0,0,0,0,0,0,0,-1,1301,1541,0,0
84,-517,0,0,0,0,0,0,0,0,0,-1,1308,1541,0,0
91,-517,0,0,0,0,0,0,0,0,0,-1,1315,1541,0,0
98,-517,0,0,0,0,0,0,0,0,0,-1,1322,1541,0,0
105,-517,0,0,0,0,0,0,0,0,0,-1,1329,1541,0,0
112,-517,0,0,0,0,0,0,0,0,0,-1,1336,1541,0,0
119,-517,0,0,0,0,0,0,0,0,0,-1,1343,1541,0,0
126,-517,0,0,0,0,0,0,0,0,0,-1,1350,1541,0,0
133,-517,0,0,0,0,0,0,0,0,0,-1,1357,1541,0,0
140,-517,0,0,0,0,0,0,0,0,0,-1,1364,1541,0,0
147,-517,0,0,0,0,0,0,0,0,0,-1,1371,1541,0,0
154,-517,0,0,0,0,0,0,0,0,0,-1,1378,1541,0,0
161,-517,0,0,0,0,0,0,0,0,0,-1,1385,1541,0,0
168,-517,0,0,0,0,0,0,0,0,0,-1,1392,1541,0,0
175,-517,0,0,0,0,0,0,0,0,0,-1,1399,1541,0,0
182,-517,0,0,0,0,0,0,0,0,0,-1,1406,1541,0,0
189,-517,0,0,0,0,0,0,0,0,0,-1,1413,1541,0,0
196,-517,0,0,0,0,0,0,0,0,0,-1,1420,1541,0,0
203,-517,0,0,0,0,0,0,0,0,0,-1,1427,1541,0,0
210,-517,0,0,0,0,0,0,0,0,0,-1,1434,1541,0,0
217,-517,0,0,0,0,0,0,0,0,0,-1,1441,1541,0,0
224,-517,0,0,0,0,0,0,0,0,0,-1,1448,1541,0,0
231,-517,0,0,0,0,0,0,0,0,0,-1,1455,1541,0,0
238,-517,0,0,0,0,0,0,0,0,0,-1,1462,1541,0,0
245,-517,0,0,0,0,0,0,0,0,0,-1,1469,1541,0,0
252,-517,0,0,0,0,0,0,0,0,0,-1,1476,1541,0,0
259,-517,0,0,0,0,0,0,0,0,0,-1,1483,1541,0,0
266,-517,0,0,0,0,0,0,0,0,0,-1,1490,1541,0,0
273,-517,0,0,0,0,0,0,0,0,0,-1,1497,1541,0,0
280,-517,0,0,0,0,0,0,0,0,0,-1,1504,1541,0,0
287,-517,0,0,0,0,0,0,0,0,0,-1,1511,1541,0,0
294,-517,0,0,0,0,0,0,0,0,0,-1,1518,1541,0,0
301,-517,0,0,0,0,0,0,0,0,0,-1,1525,1541,0,0
308,-517,0,0,0,0,0,0,0,0,0,-1,1532,1541,0,0
315,-517,0,0,0,0,0,0,0,0,0,-1,1539,1541,0,0
322,-517,0,0,0,0,0,0,0,0,0,-1,1546,1541,0,0
329,-517,0,0,0,0,0,0,0,0,0,-1,1553,1541,0,0
336,-517,0,0,0,0,0,0,0,0,0,-1,1560,1541,0,0
343,-517,0,0,0,0,0,0,0,0,0,-1,1567,1541,0,0
350,-517,0,0,0,0,0,0,0,0,0,-1,1574,1541,0,0
357,-517,0,0,0,0,0,0,0,0,0,-1,1581,1541,0,0
364,-517,0,0,0,0,0,0,0,0,0,-1,1588,1541,0,0
371,-517,0,0,0,0,0,0,0,0,0,-1,1595,1541,0,0
378,-517,0,0,0,0,0,0,0,0,0,-1,1602,1541,0,0
385,-517,0,0,0,0,0,0,0,0,0,-1,1609,1541,0,0
392,-517,0,0,0,0,0,0,0,0,0,-1,1616,1541,0,0
399,-517,0,0,0,0,0,0,0,0,0,-1,1623,1541,0,0
406,-517,12.1469,6.22412,0,0,0,0,0,0,0,-1,1630,1541,12.1468,-6.22408
413,-517,12.2695,6.3324,0,0,0,0,0,0,0,-1,1637,1541,12.2696,-6.33243
420,-517,12.4789,6.20337,0,0,0,0,0,0,0,-1,1644,1541,12.4789,-6.20333
427,-517,11.647,4.66516,0,0,0,0,0,0,0,-1,1651,1541,11.647,-4.66519
434,-517,12.3719,3.92773,0,0,0,0,0,0,0,-1,1658,1541,12.3719,-3.92776
441,-517,13.146,3.14124,0,0,0,0,0,0,0,-1,1665,1541,13.146,-3.14121
448,-517,13.8861,2.36682,0,0,0,0,0,0,0,-1,1672,1541,13.8861,-2.36684
455,-517,13.6012,4.06335,0,0,0,0,0,0,0,-1,1679,1541,13.6012,-4.06335
462,-517,12.257,3.64075,0,0,0,0,0,0,0,-1,1686,1541,12.2569,-3.64076
469,-517,11.5145,4.91016,0,0,0,0,0,0,0,-1,1693,1541,11.5145,-4.91013
476,-517,12.3854,7.17847,0,0,0,0,0,0,0,-1,1700,1541,12.3853,-7.17841
483,-517,11.4246,8.41321,0,0,0,0,0,0,0,-1,1707,1541,11.4245,-8.41319
490,-517,9.61023,10.1958,0,0,0,0,0,0,0,-1,1714,1541,9.61017,-10.1958
497,-517,9.78381,10.4689,-0.0148285,-0.0275736,0.0272273,0.00676201,-0.0491642,0.670442,0.035247,0.0428436,1721,1541,9.78376,-10.4689
504,-517,10.1837,11.1504,-0.0124644,-0.0197653,0.0216105,0.00580184,-0.0380315,0.701728,0.0274931,0.0381146,1728,1541,10.1837,-11.1504
511,-517,9.87854,11.1421,-0.0102393,-0.0141929,0.0172086,0.00510571,-0.0295379,0.728214,0.021596,0.0348409,1735,1541,9.87854,-11.1421
518,-517,9.71106,10.927,-0.00895854,-0.00930525,0.0137921,0.0046613,-0.0229251,0.779114,0.0170509,0.0234349,1742,1541,9.71112,-10.927
525,-517,9.70947,10.6698,-0.00832014,-0.00616789,0.010711,0.00352089,-0.0180089,0.835465,0.0133354,0.0121216,1749,1541,9.70947,-10.6698
532,-517,9.72388,10.4467,-0.0072968,-0.00335921,0.00792656,0.00283941,-0.0134954,0.907125,0.0100776,0.0110431,1756,1541,9.72392,-10.4467
539,-517,9.7179,10.2419,-0.00607989,-0.00198996,0.00589882,0.00220831,-0.0102782,0.952252,0.00769458,0.0115257,1763,1541,9.71794,-10.2419
546,-517,9.71021,10.0393,-0.00451654,-0.00091585,0.00407685,0.00174048,-0.00717287,0.993322,0.00545542,0.0108879,1770,1541,9.71025,-10.0393
553,-517,9.70105,9.81787,-0.00279043,0.000376492,0.00231429,0.00159719,-0.00401113,1.08542,0.00333644,0.0148034,1777,1541,9.70103,-9.81782
560,-517,9.70105,9.59888,-0.000627275,0.00125558,0.000811037,0.00155675,-0.000928453,1.21523,0.00145004,0.016311,1784,1541,9.70099,-9.5989
567,-517,9.7063,9.40894,0.00147815,0.00200507,-0.000423307,0.00224021,0.00124301,-1.06376,0.00129598,0.0130569,1791,1541,9.7063,-9.40896
574,-517,9.70093,9.19824,0.00344367,0.00299451,-0.00151606,0.00475169,0.00168649,-0.711867,0.00278162,0.0138095,1798,1541,9.70092,-9.19829
581,-517,9.68542,8.99182,0.00545751,0.00390028,-0.00246051,0.00725966,0.00209813,-0.63216,0.00431396,0.0151529,1805,1541,9.6854,-8.99183
588,-517,9.69775,8.77246,0.00697553,0.00571958,-0.0042023,0.0105965,0.0020986,-0.711229,0.00647911,0.0158269,1812,1541,9.69778,-8.77241
595,-517,9.7179,8.54736,0.00824281,0.00756823,-0.00561494,0.0135306,0.00228045,-0.755399,0.00836451,0.0185965,1819,1541,9.71793,-8.54736
602,-517,9.68164,8.30811,0.00880712,0.0114838,-0.0087943,0.019041,0.00124992,-0.86091,0.0122986,0.0219556,1826,1541,9.68165,-8.30814
609,-517,10.1843,8.26147,0.00931252,0.0158841,-0.0127453,0.0257603,-0.000563737,-0.911553,0.0173645,0.0393293,1833,1541,10.1843,-8.26149
616,-517,9.72778,7.86047,0,0,0,0,0,0,0,-1,1840,1541,9.72783,-7.8605
623,-517,10.499,6.92285,0,0,0,0,0,0,0,-1,1847,1541,10.499,-6.92288
630,-517,9.21375,7.09631,0,0,0,0,0,0,0,-1,1854,1541,9.21373,-7.09628
637,-517,11.5172,5.79822,0,0,0,0,0,0,0,-1,1861,1541,11.5173,-5.79825
644,-517,11.4232,3.30579,0,0,0,0,0,0,0,-1,1868,1541,11.4232,-3.30574
651,-517,0,0,0,0,0,0,0,0,0,-1,1875,1541,0,0
658,-517,0,0,0,0,0,0,0,0,0,-1,1882,1541,0,0
665,-517,0,0,0,0,0,0,0,0,0,-1,1889,1541,0,0
672,-517,0,0,0,0,0,0,0,0,0,-1,1896,1541,0,0
679,-517,0,0,0,0,0,0,0,0,0,-1,1903,1541,0,0
686,-517,0,0,0,0,0,0,0,0,0,-1,1910,1541,0,0
693,-517,0,0,0,0,0,0,0,0,0,-1,1917,1541,0,0
700,-517,0,0,0,0,0,0,0,0,0,-1,1924,1541,0,0
707,-517,0,0,0,0,0,0,0,0,0,-1,1931,1541,0,0
714,-517,0,0,0,0,0,0,0,0,0,-1,1938,1541,0,0
721,-517,0,0,0,0,0,0,0,0,0,-1,1945,1541,0,0
728,-517,0,0,0,0,0,0,0,0,0,-1,1952,1541,0,0
735,-517,0,0,0,0,0,0,0,0,0,-1,1959,1541,0,0
742,-517,0,0,0,0,0,0,0,0,0,-1,1966,1541,0,0
749,-517,0,0,0,0,0,0,0,0,0,-1,1973,1541,0,0
756,-517,0,0,0,0,0,0,0,0,0,-1,1980,1541,0,0
763,-517,0,0,0,0,0,0,0,0,0,-1,1987,1541,0,0
770,-517,0,0,0,0,0,0,0,0,0,-1,1994,1541,0,0
777,-517,0,0,0,0,0,0,0,0,0,-1,2001,1541,0,0
784,-517,0,0,0,0,0,0,0,0,0,-1,2008,1541,0,0
791,-517,0,0,0,0,0,0,0,0,0,-1,2015,1541,0,0
798,-517,0,0,0,0,0,0,0,0,0,-1,2022,1541,0,0
805,-517,0,0,0,0,0,0,0,0,0,-1,2029,1541,0,0
812,-517,0,0,0,0,0,0,0,0,0,-1,2036,1541,0,0
-700,-524,0,0,0,0,0,0,0,0,0,-1,524,1548,0,0
-693,-524,0,0,0,0,0,0,0,0,0,-1,531,1548,0,0
-686,-524,0,0,0,0,0,0,0,0,0,-1,538,1548,0,0
-679,-524,0,0,0,0,0,0,0,0,0,-1,545,1548,0,0
-672,-524,0,0,0,0,0,0,0,0,0,-1,552,1548,0,0
-665,-524,0,0,0,0,0,0,0,0,0,-1,559,1548,0,0
-658,-524,0,0,0,0,0,0,0,0,0,-1,566,1548,0,0
-651,-524,0,0,0,0,0,0,0,0,0,-1,573,1548,0,0
-644,-524,0,0,0,0,0,0,0,0,0,-1,580,1548,0,0
-637,-524,0,0,0,0,0,0,0,0,0,-1,587,1548,0,0
-630,-524,0,0,0,0,0,0,0,0,0,-1,594,1548,0,0
-623,-524,0,0,0,0,0,0,0,0,0,-1,601,1548,0,0
-616,-524,0,0,0,0,0,0,0,0,0,-1,608,1548,0,0
-609,-524,0,0,0,0,0,0,0,0,0,-1,615,1548,0,0
-602,-524,0,0,0,0,0,0,0,0,0,-1,622,1548,0,0
-595,-524,0,0,0,0,0,0,0,0,0,-1,629,1548,0,0
-588,-524,0,0,0,0,0,0,0,0,0,-1,636,1548,0,0
-581,-524,0,0,0,0,0,0,0,0,0,-1,643,1548,0,0
-574,-524,0,0,0,0,0,0,0,0,0,-1,650,1548,0,0
-567,-524,0,0,0,0,0,0,0,0,0,-1,657,1548,0,0
-560,-524,0,0,0,0,0,0,0,0,0,-1,664,1548,0,0
-553,-524,0,0,0,0,0,0,0,0,0,-1,671,1548,0,0
-546,-524,0,0,0,0,0,0,0,0,0,-1,678,1548,0,0
-539,-524,0,0,0,0,0,0,0,0,0,-1,685,1548,0,0
-532,-524,0,0,0,0,0,0,0,0,0,-1,692,1548,0,0
-525,-524,-0.215515,3.97131,0,0,0,0,0,0,0,-1,699,1548,-0.215501,-3.97136
-518,-524,-0.806274,4.35632,0,0,0,0,0,0,0,-1,706,1548,-0.806259,-4.35633
-511,-524,-1.08301,4.29004,0,0,0,0,0,0,0,-1,713,1548,-1.08301,-4.29006
-504,-524,-1.28821,3.98145,0,0,0,0,0,0,0,-1,720,1548,-1.28822,-3.98151
-497,-524,1.00714,4.06042,0,0,0,0,0,0,0,-1,727,1548,1.00712,-4.06043
-490,-524,1.32489,4.85876,0,0,0,0,0,0,0,-1,734,1548,1.3249,-4.85874
-483,-524,-0.0820313,6.23413,0,0,0,0,0,0,0,-1,741,1548,-0.0820239,-6.23419
-476,-524,-0.101807,6.51001,-0.00146569,0.00336814,0.00556057,0.00701434,-0.00511189,0.990407,0.00702975,0.0467103,748,1548,-0.101801,-6.50996
-469,-524,-0.157288,6.78162,-0.0014314,0.00228271,0.00370616,0.00457105,-0.00371974,1.01765,0.00479509,0.0319878,755,1548,-0.1573,-6.78165
-462,-524,-0.180969,7.0343,-0.000761289,0.00192578,0.00273384,0.00362838,-0.00246389,1.01379,0.00353873,0.0247666,762,1548,-0.180956,-7.03431
-455,-524,-0.210571,7.24182,-0.000108726,0.0014933,0.00209039,0.00293089,-0.00154632,0.968363,0.0026258,0.0176403,769,1548,-0.210563,-7.24182
-448,-524,-0.197266,7.51111,0.000426024,0.00110189,0.00153727,0.00233793,-0.000810014,0.893591,0.00188748,0.0122019,776,1548,-0.197286,-7.51113
-441,-524,-0.208923,7.74023,0.00104879,0.000639728,0.00118623,0.002048,-0.000359476,0.700027,0.00149959,0.0108816,783,1548,-0.208932,-7.74028
-434,-524,-0.172607,7.95251,0.00135278,0.000399019,0.00082004,0.00182452,-7.27216e-05,0.522034,0.0012413,0.0121692,790,1548,-0.172618,-7.95246
-427,-524,-0.174255,8.17468,0.00146548,-1.91268e-05,0.000428428,0.00158024,-0.000133891,0.261729,0.00110084,0.0125617,797,1548,-0.174278,-8.1747
-420,-524,-0.188843,8.43359,0.00163541,-0.000619364,4.51509e-05,0.00163631,-0.000620268,0.0200139,0.00134614,0.0114009,804,1548,-0.188822,-8.43358
-413,-524,-0.200623,8.66748,0.00164465,-0.00149394,-0.000429063,0.00170224,-0.00155154,-0.133444,0.00187925,0.010893,811,1548,-0.200644,-8.66743
-406,-524,-0.199646,8.89954,0.00117103,-0.0027194,-0.00107567,0.00144863,-0.002997,-0.252566,0.00261807,0.0109134,818,1548,-0.199661,-8.89955
-399,-524,-0.190674,9.14343,0.000731804,-0.00405343,-0.00173927,0.00129717,-0.0046188,-0.314287,0.00359056,0.00905353,825,1548,-0.190658,-9.14338
-392,-524,-0.189819,9.36926,0.000351219,-0.00564564,-0.00248286,0.00124576,-0.00654017,-0.345807,0.00482923,0.00975351,832,1548,-0.189805,-9.36927
-385,-524,-0.197998,9.61792,5.4109e-05,-0.00741954,-0.00323949,0.0012628,-0.00862824,-0.357114,0.006216,0.0113083,839,1548,-0.198012,-9.61795
-378,-524,-0.152283,9.95642,-0.000151144,-0.00930889,-0.00385282,0.00125415,-0.0107142,-0.34975,0.00759544,0.0213226,846,1548,-0.152272,-9.95637
-371,-524,-0.0903931,10.1793,-0.000480622,-0.011482,-0.00462525,0.00120552,-0.0131682,-0.349578,0.00920697,0.043025,853,1548,-0.0903711,-10.1794
-364,-524,-0.274902,10.1135,-0.000619998,-0.0135752,-0.00516518,0.00118723,-0.0153824,-0.336575,0.0106727,0.0416348,860,1548,-0.274878,-10.1136
-357,-524,-0.676208,10.1151,-0.000561778,-0.0151386,-0.0054678,0.00126122,-0.0169616,-0.321816,0.0117507,0.0493345,867,1548,-0.676192,-10.1151
-350,-524,-0.889221,10.2228,0,0,0,0,0,0,0,-1,874,1548,-0.889197,-10.2227
-343,-524,-1.2887,6.94836,0,0,0,0,0,0,0,-1,881,1548,-1.28868,-6.94831
-336,-524,0.0162354,8.78796,0,0,0,0,0,0,0,-1,888,1548,0.0162217,-8.78799
-329,-524,-0.42865,10.9523,0,0,0,0,0,0,0,-1,895,1548,-0.428659,-10.9523
-322,-524,-0.502136,11.0057,0,0,0,0,0,0,0,-1,902,1548,-0.502128,-11.0057
-315,-524,-0.988525,9.54456,0,0,0,0,0,0,0,-1,909,1548,-0.988536,-9.54449
-308,-524,-1.32727,7.03796,0,0,0,0,0,0,0,-1,916,1548,-1.3273,-7.038
-301,-524,-1.45227,7.98669,0,0,0,0,0,0,0,-1,923,1548,-1.45227,-7.98669
-294,-524,-1.52515,9.05408,0,0,0,0,0,0,0,-1,930,1548,-1.52512,-9.05411
-287,-524,-1.52618,9.99182,0,0,0,0,0,0,0,-1,937,1548,-1.52619,-9.99178
-280,-524,-1.6156,10.4597,0,0,0,0,0,0,0,-1,944,1548,-1.6156,-10.4597
-273,-524,0,0,0,0,0,0,0,0,0,-1,951,1548,0,0
-266,-524,0,0,0,0,0,0,0,0,0,-1,958,1548,0,0
-259,-524,0,0,0,0,0,0,0,0,0,-1,965,1548,0,0
-252,-524,0,0,0,0,0,0,0,0,0,-1,972,1548,0,0
-245,-524,0,0,0,0,0,0,0,0,0,-1,979,1548,0,0
-238,-524,0,0,0,0,0,0,0,0,0,-1,986,1548,0,0
-231,-524,0,0,0,0,0,0,0,0,0,-1,993,1548,0,0
-224,-524,0,0,0,0,0,0,0,0,0,-1,1000,1548,0,0
-217,-524,0,0,0,0,0,0,0,0,0,-1,1007,1548,0,0
-210,-524,0,0,0,0,0,0,0,0,0,-1,1014,1548,0,0
-203,-524,0,0,0,0,0,0,0,0,0,-1,1021,1548,0,0
-196,-524,0,0,0,0,0,0,0,0,0,-1,1028,1548,0,0
-189,-524,0,0,0,0,0,0,0,0,0,-1,1035,1548,0,0
-182,-524,0,0,0,0,0,0,0,0,0,-1,1042,1548,0,0
-175,-524,0,0,0,0,0,0,0,0,0,-1,1049,1548,0,0
-168,-524,0,0,0,0,0,0,0,0,0,-1,1056,1548,0,0
-161,-524,0,0,0,0,0,0,0,0,0,-1,1063,1548,0,0
-154,-524,0,0,0,0,0,0,0,0,0,-1,1070,1548,0,0
-147,-524,0,0,0,0,0,0,0,0,0,-1,1077,1548,0,0
-140,-524,0,0,0,0,0,0,0,0,0,-1,1084,1548,0,0
-133,-524,0,0,0,0,0,0,0,0,0,-1,1091,1548,0,0
-126,-524,0,0,0,0,0,0,0,0,0,-1,1098,1548,0,0
-119,-524,0,0,0,0,0,0,0,0,0,-1,1105,1548,0,0
-112,-524,0,0,0,0,0,0,0,0,0,-1,1112,1548,0,0
-105,-524,0,0,0,0,0,0,0,0,0,-1,1119,1548,0,0
-98,-524,0,0,0,0,0,0,0,0,0,-1,1126,1548,0,0
-91,-524,0,0,0,0,0,0,0,0,0,-1,1133,1548,0,0
-84,-524,0,0,0,0,0,0,0,0,0,-1,1140,1548,0,0
-77,-524,0,0,0,0,0,0,0,0,0,-1,1147,1548,0,0
-70,-524,0,0,0,0,0,0,0,0,0,-1,1154,1548,0,0
-63,-524,0,0,0,0,0,0,0,0,0,-1,1161,1548,0,0
-56,-524,0,0,0,0,0,0,0,0,0,-1,1168,1548,0,0
-49,-524,0,0,0,0,0,0,0,0,0,-1,1175,1548,0,0
-42,-524,0,0,0,0,0,0,0,0,0,-1,1182,1548,0,0
-35,-524,0,0,0,0,0,0,0,0,0,-1,1189,1548,0,0
-28,-524,0,0,0,0,0,0,0,0,0,-1,1196,1548,0,0
-21,-524,0,0,0,0,0,0,0,0,0,-1,1203,1548,0,0
-14,-524,0,0,0,0,0,0,0,0,0,-1,1210,1548,0,0
-7,-524,0,0,0,0,0,0,0,0,0,-1,1217,1548,0,0
0,-524,0,0,0,0,0,0,0,0,0,-1,1224,1548,0,0
7,-524,0,0,0,0,0,0,0,0,0,-1,1231,1548,0,0
14,-524,0,0,0,0,0,0,0,0,0,-1,1238,1548,0,0
21,-524,0,0,0,0,0,0,0,0,0,-1,1245,1548,0,0
28,-524,0,0,0,0,0,0,0,0,0,-1,1252,1548,0,0
35,-524,0,0,0,0,0,0,0,0,0,-1,1259,1548,0,0
42,-524,0,0,0,0,0,0,0,0,0,-1,1266,1548,0,0
49,-524,0,0,0,0,0,0,0,0,0,-1,1273,1548,0,0
56,-524,0,0,0,0,0,0,0,0,0,-1,1280,1548,0,0
63,-524,0,0,0,0,0,0,0,0,0,-1,1287,1548,0,0
70,-524,0,0,0,0,0,0,0,0,0,-1,1294,1548,0,0
77,-524,0,0,0,0,0,0,0,0,0,-1,1301,1548,0,0
84,-524,0,0,0,0,0,0,0,0,0,-1,1308,1548,0,0
91,-524,0,0,0,0,0,0,0,0,0,-1,1315,1548,0,0
98,-524,0,0,0,0,0,0,0,0,0,-1,1322,1548,0,0
105,-524,0,0,0,0,0,0,0,0,0,-1,1329,1548,0,0
112,-524,0,0,0,0,0,0,0,0,0,-1,1336,1548,0,0
119,-524,0,0,0,0,0,0,0,0,0,-1,1343,1548,0,0
126,-524,0,0,0,0,0,0,0,0,0,-1,1350,1548,0,0
133,-524,0,0,0,0,0,0,0,0,0,-1,1357,1548,0,0
140,-524,0,0,0,0,0,0,0,0,0,-1,1364,1548,0,0
147,-524,0,0,0,0,0,0,0,0,0,-1,1371,1548,0,0
154,-524,0,0,0,0,0,0,0,0,0,-1,1378,1548,0,0
161,-524,0,0,0,0,0,0,0,0,0,-1,1385,1548,0,0
168,-524,0,0,0,0,0,0,0,0,0,-1,1392,1548,0,0
175,-524,0,0,0,0,0,0,0,0,0,-1,1399,1548,0,0
182,-524,0,0,0,0,0,0,0,0,0,-1,1406,1548,0,0
189,-524,0,0,0,0,0,0,0,0,0,-1,1413,1548,0,0
196,-524,0,0,0,0,0,0,0,0,0,-1,1420,1548,0,0
203,-524,0,0,0,0,0,0,0,0,0,-1,1427,1548,0,0
210,-524,0,0,0,0,0,0,0,0,0,-1,1434,1548,0,0
217,-524,0,0,0,0,0,0,0,0,0,-1,1441,1548,0,0
224,-524,0,0,0,0,0,0,0,0,0,-1,1448,1548,0,0
231,-524,0,0,0,0,0,0,0,0,0,-1,1455,1548,0,0
238,-524,0,0,0,0,0,0,0,0,0,-1,1462,1548,0,0
245,-524,0,0,0,0,0,0,0,0,0,-1,1469,1548,0,0
252,-524,0,0,0,0,0,0,0,0,0,-1,1476,1548,0,0
259,-524,0,0,0,0,0,0,0,0,0,-1,1483,1548,0,0
266,-524,0,0,0,0,0,0,0,0,0,-1,1490,1548,0,0
273,-524,0,0,0,0,0,0,0,0,0,-1,1497,1548,0,0
280,-524,0,0,0,0,0,0,0,0,0,-1,1504,1548,0,0
287,-524,0,0,0,0,0,0,0,0,0,-1,1511,1548,0,0
294,-524,0,0,0,0,0,0,0,0,0,-1,1518,1548,0,0
301,-524,0,0,0,0,0,0,0,0,0,-1,1525,1548,0,0
308,-524,0,0,0,0,0,0,0,0,0,-1,1532,1548,0,0
315,-524,0,0,0,0,0,0,0,0,0,-1,1539,1548,0,0
322,-524,0,0,0,0,0,0,0,0,0,-1,1546,1548,0,0
329,-524,0,0,0,0,0,0,0,0,0,-1,1553,1548,0,0
336,-524,0,0,0,0,0,0,0,0,0,-1,1560,1548,0,0
343,-524,0,0,0,0,0,0,0,0,0,-1,1567,1548,0,0
350,-524,0,0,0,0,0,0,0,0,0,-1,1574,1548,0,0
357,-524,0,0,0,0,0,0,0,0,0,-1,1581,1548,0,0
364,-524,0,0,0,0,0,0,0,0,0,-1,1588,1548,0,0
371,-524,0,0,0,0,0,0,0,0,0,-1,1595,1548,0,0
378,-524,0,0,0,0,0,0,0,0,0,-1,1602,1548,0,0
385,-524,0,0,0,0,0,0,0,0,0,-1,1609,1548,0,0
392,-524,0,0,0,0,0,0,0,0,0,-1,1616,1548,0,0
399,-524,8.81848,5.05774,0,0,0,0,0,0,0,-1,1623,1548,8.81843,-5.05769
406,-524,8.64294,6.06799,0,0,0,0,0,0,0,-1,1630,1548,8.6429,-6.06805
413,-524,11.677,6.41858,0,0,0,0,0,0,0,-1,1637,1548,11.677,-6.41864
420,-524,11.4913,6.36401,0,0,0,0,0,0,0,-1,1644,1548,11.4913,-6.36402
427,-524,7.68335,6.17249,0,0,0,0,0,0,0,-1,1651,1548,7.68341,-6.17245
434,-524,10.432,11.6801,0,0,0,0,0,0,0,-1,1658,1548,10.432,-11.68
441,-524,8.78552,4.12305,0,0,0,0,0,0,0,-1,1665,1548,8.78553,-4.12301
448,-524,14.1854,4.78674,0,0,0,0,0,0,0,-1,1672,1548,14.1854,-4.78674
455,-524,12.4784,3.65576,0,0,0,0,0,0,0,-1,1679,1548,12.4784,-3.65572
462,-524,11.9464,4.95581,0,0,0,0,0,0,0,-1,1686,1548,11.9464,-4.95586
469,-524,11.334,6.57605,0,0,0,0,0,0,0,-1,1693,1548,11.3339,-6.57601
476,-524,11.0975,8.27576,-0.00760539,-0.0467073,0.0312933,0.0097423,-0.064055,0.506183,0.0462938,0.04543,1700,1548,11.0975,-8.27576
483,-524,10.6478,9.60596,0,0,0,0,0,0,0,-1,1707,1548,10.6478,-9.6059
490,-524,9.75281,10.4479,0,0,0,0,0,0,0,-1,1714,1548,9.75286,-10.4479
497,-524,9.55933,11.1553,-0.0111004,-0.0229518,0.0215502,0.00532395,-0.0393761,0.651229,0.0281935,0.0329554,1721,1548,9.55933,-11.1552
504,-524,9.49878,11.1832,-0.00877632,-0.0165476,0.0168958,0.00467494,-0.0299988,0.672376,0.0217258,0.0193408,1728,1548,9.49884,-11.1833
511,-524,9.4613,11.0671,-0.006697,-0.0119833,0.0133208,0.00424035,-0.0229206,0.687459,0.0168724,0.0169509,1735,1548,9.46133,-11.0671
518,-524,9.49609,10.8586,-0.0055083,-0.00783327,0.0106024,0.00399514,-0.0173367,0.730794,0.0130943,0.0152041,1742,1548,9.49612,-10.8586
525,-524,9.51746,10.6718,-0.00503938,-0.00516208,0.00812299,0.00302249,-0.0132239,0.781622,0.00997725,0.0137717,1749,1548,9.51751,-10.6718
532,-524,9.51135,10.4596,-0.00429147,-0.00268794,0.00584253,0.00240758,-0.00938698,0.853587,0.00719604,0.0100781,1756,1548,9.51133,-10.4595
539,-524,9.505,10.2346,-0.00337927,-0.00139189,0.00416628,0.00189757,-0.00666873,0.902465,0.00519517,0.0106347,1763,1548,9.50503,-10.2346
546,-524,9.49011,10.0126,-0.00214336,-0.000329943,0.00262231,0.00153799,-0.00401129,0.951847,0.00330825,0.0139013,1770,1548,9.49007,-10.0126
553,-524,9.49268,9.81519,-0.000662145,0.00095666,0.00107263,0.00149101,-0.00119649,1.10862,0.00155473,0.0230137,1777,1548,9.49264,-9.81523
560,-524,9.49768,9.61218,0.00128124,0.00195583,-0.000247211,0.00203672,0.00120034,-1.25456,0.00118214,0.0324983,1784,1548,9.4977,-9.61219
567,-524,9.49365,9.41199,0.00322053,0.00284722,-0.00139738,0.00444367,0.00162409,-0.719005,0.00259632,0.0184197,1791,1548,9.49363,-9.41196
574,-524,9.5,9.19604,0.00524439,0.00395287,-0.00247771,0.00715911,0.00203815,-0.65792,0.00425914,0.013024,1798,1548,9.50004,-9.19608
581,-524,9.50269,8.97253,0.00734159,0.00514669,-0.00342281,0.00983859,0.0026497,-0.630262,0.00587838,0.0139066,1805,1548,9.50266,-8.97254
588,-524,9.51831,8.74487,0.00900901,0.00732979,-0.00537786,0.0136124,0.00272639,-0.707962,0.00831646,0.015668,1812,1548,9.51835,-8.74491
595,-524,9.51465,8.5321,0.0107313,0.00961485,-0.00720091,0.0173956,0.00295056,-0.746714,0.0107494,0.01746,1819,1548,9.51465,-8.53208
602,-524,9.6543,8.21692,0.0118551,0.0144545,-0.0110009,0.0242322,0.00207745,-0.844198,0.0155088,0.0300885,1826,1548,9.65425,-8.21696
609,-524,9.76172,7.85291,0.0127955,0.0202668,-0.0158112,0.0327777,0.000284618,-0.901403,0.0217576,0.0470426,1833,1548,9.76171,-7.8529
616,-524,9.86719,7.47717,0,0,0,0,0,0,0,-1,1840,1548,9.86723,-7.47722
623,-524,9.38452,5.15356,0,0,0,0,0,0,0,-1,1847,1548,9.38456,-5.15359
630,-524,11.0541,3.57434,0,0,0,0,0,0,0,-1,1854,1548,11.0541,-3.57438
637,-524,11.6067,3.20728,0,0,0,0,0,0,0,-1,1861,1548,11.6067,-3.20724
644,-524,12.2134,0.727173,0,0,0,0,0,0,0,-1,1868,1548,12.2134,-0.727222
651,-524,0,0,0,0,0,0,0,0,0,-1,1875,1548,0,0
658,-524,0,0,0,0,0,0,0,0,0,-1,1882,1548,0,0
665,-524,0,0,0,0,0,0,0,0,0,-1,1889,1548,0,0
672,-524,0,0,0,0,0,0,0,0,0,-1,1896,1548,0,0
679,-524,0,0,0,0,0,0,0,0,0,-1,1903,1548,0,0
686,-524,0,0,0,0,0,0,0,0,0,-1,1910,1548,0,0
693,-524,0,0,0,0,0,0,0,0,0,-1,1917,1548,0,0
700,-524,0,0,0,0,0,0,0,0,0,-1,1924,1548,0,0
707,-524,0,0,0,0,0,0,0,0,0,-1,1931,1548,0,0
714,-524,0,0,0,0,0,0,0,0,0,-1,1938,1548,0,0
721,-524,0,0,0,0,0,0,0,0,0,-1,1945,1548,0,0
728,-524,0,0,0,0,0,0,0,0,0,-1,1952,1548,0,0
735,-524,0,0,0,0,0,0,0,0,0,-1,1959,1548,0,0
742,-524,0,0,0,0,0,0,0,0,0,-1,1966,1548,0,0
749,-524,0,0,0,0,0,0,0,0,0,-1,1973,1548,0,0
756,-524,0,0,0,0,0,0,0,0,0,-1,1980,1548,0,0
763,-524,0,0,0,0,0,0,0,0,0,-1,1987,1548,0,0
770,-524,0,0,0,0,0,0,0,0,0,-1,1994,1548,0,0
777,-524,0,0,0,0,0,0,0,0,0,-1,2001,1548,0,0
784,-524,0,0,0,0,0,0,0,0,0,-1,2008,1548,0,0
791,-524,0,0,0,0,0,0,0,0,0,-1,2015,1548,0,0
798,-524,0,0,0,0,0,0,0,0,0,-1,2022,1548,0,0
805,-524,0,0,0,0,0,0,0,0,0,-1,2029,1548,0,0
812,-524,0,0,0,0,0,0,0,0,0,-1,2036,1548,0,0
-700,-531,0,0,0,0,0,0,0,0,0,-1,524,1555,0,0
-693,-531,0,0,0,0,0,0,0,0,0,-1,531,1555,0,0
-686,-531,0,0,0,0,0,0,0,0,0,-1,538,1555,0,0
-679,-531,0,0,0,0,0,0,0,0,0,-1,545,1555,0,0
-672,-531,0,0,0,0,0,0,0,0,0,-1,552,1555,0,0
-665,-531,0,0,0,0,0,0,0,0,0,-1,559,1555,0,0
-658,-531,0,0,0,0,0,0,0,0,0,-1,566,1555,0,0
-651,-531,0,0,0,0,0,0,0,0,0,-1,573,1555,0,0
-644,-531,0,0,0,0,0,0,0,0,0,-1,580,1555,0,0
-637,-531,0,0,0,0,0,0,0,0,0,-1,587,1555,0,0
-630,-531,0,0,0,0,0,0,0,0,0,-1,594,1555,0,0
-623,-531,0,0,0,0,0,0,0,0,0,-1,601,1555,0,0
-616,-531,0,0,0,0,0,0,0,0,0,-1,608,1555,0,0
-609,-531,0,0,0,0,0,0,0,0,0,-1,615,1555,0,0
-602,-531,0,0,0,0,0,0,0,0,0,-1,622,1555,0,0
-595,-531,0,0,0,0,0,0,0,0,0,-1,629,1555,0,0
-588,-531,0,0,0,0,0,0,0,0,0,-1,636,1555,0,0
-581,-531,0,0,0,0,0,0,0,0,0,-1,643,1555,0,0
-574,-531,0,0,0,0,0,0,0,0,0,-1,650,1555,0,0
-567,-531,0,0,0,0,0,0,0,0,0,-1,657,1555,0,0
-560,-531,0,0,0,0,0,0,0,0,0,-1,664,1555,0,0
-553,-531,0,0,0,0,0,0,0,0,0,-1,671,1555,0,0
-546,-531,0,0,0,0,0,0,0,0,0,-1,678,1555,0,0
-539,-531,0,0,0,0,0,0,0,0,0,-1,685,1555,0,0
-532,-531,0,0,0,0,0,0,0,0,0,-1,692,1555,0,0
-525,-531,0,0,0,0,0,0,0,0,0,-1,699,1555,0,0
-518,-531,-1.63983,4.03821,0,0,0,0,0,0,0,-1,706,1555,-1.63982,-4.03821
-511,-531,-2.9682,8.07483,0,0,0,0,0,0,0,-1,713,1555,-2.9682,-8.07479
-504,-531,-2.95978,0.557861,0,0,0,0,0,0,0,-1,720,1555,-2.95978,-0.557917
-497,-531,0.80011,4.17297,0,0,0,0,0,0,0,-1,727,1555,0.800112,-4.17302
-490,-531,0.907288,4.51123,0,0,0,0,0,0,0,-1,734,1555,0.907307,-4.51128
-483,-531,0.813782,4.94763,0,0,0,0,0,0,0,-1,741,1555,0.813755,-4.94758
-476,-531,0.107666,6.51672,0,0,0,0,0,0,0,-1,748,1555,0.107673,-6.51677
-469,-531,-0.0651855,6.79382,-0.00134393,0.00328474,0.00463793,0.00615369,-0.00421289,1.01682,0.00602001,0.0409235,755,1555,-0.065216,-6.79388
-462,-531,-0.301819,7.36646,-0.000440477,0.00277617,0.00359976,0.00511056,-0.00277487,0.995487,0.00461874,0.0403572,762,1555,-0.301797,-7.36646
-455,-531,-0.00445557,7.35474,0.000229452,0.00227136,0.00275888,0.00419214,-0.00169133,0.962615,0.00349761,0.0297169,769,1555,-0.00443381,-7.35478
-448,-531,0.0736694,7.48584,0.000651021,0.00179825,0.00201762,0.00332221,-0.000872939,0.923895,0.00255597,0.0137375,776,1555,0.073648,-7.48581
-441,-531,0.0325317,7.72058,0.00111776,0.00133503,0.00152257,0.00275284,-0.000300047,0.821012,0.00194298,0.0117502,783,1555,0.032549,-7.72052
-434,-531,0.0305786,7.96716,0.00130602,0.00105644,0.0011027,0.00229097,7.14882e-05,0.729055,0.00150405,0.0110421,790,1555,0.0306042,-7.96722
-427,-531,0.0519409,8.19446,0.00130171,0.00066041,0.00069279,0.00174445,0.000217662,0.56866,0.00109763,0.0122287,797,1555,0.0519572,-8.19443
-420,-531,0.0471802,8.44556,0.00136942,0.000146895,0.000325565,0.00145072,6.56013e-05,0.244697,0.000946036,0.0116513,804,1555,0.047162,-8.44554
-413,-531,0.0279541,8.6582,0.00133096,-0.000528095,-0.000140674,0.00134155,-0.000538679,-0.0750993,0.00111805,0.0102564,811,1555,0.0279745,-8.65826
-406,-531,0.0216064,8.88049,0.000908222,-0.00164314,-0.000676365,0.00107644,-0.00181136,-0.243757,0.00168517,0.0113196,818,1555,0.0215895,-8.88047
-399,-531,0.0527344,9.13464,0.000469649,-0.00276113,-0.00124105,0.00089134,-0.00318282,-0.327545,0.00247313,0.0130213,825,1555,0.0527052,-9.13464
-392,-531,0.0603027,9.36707,0.000148125,-0.00408037,-0.0018357,0.000833846,-0.00476609,-0.357497,0.00348872,0.0159368,832,1555,0.0603138,-9.36711
-385,-531,0.0192871,9.59058,-2.12711e-05,-0.00552003,-0.00243114,0.000899436,-0.00644074,-0.362023,0.00462289,0.0134583,839,1555,0.0192791,-9.59061
-378,-531,0.0166626,9.79944,-6.92953e-05,-0.0069746,-0.00284749,0.000953433,-0.00799733,-0.344819,0.00567612,0.0115944,846,1555,0.0166424,-9.79938
-371,-531,0.0770264,10.0802,-0.000177432,-0.00857308,-0.00336675,0.00100589,-0.0097564,-0.337987,0.00686418,0.0161885,853,1555,0.077021,-10.0802
-364,-531,0.109985,10.3254,-8.08018e-05,-0.010049,-0.00368297,0.00113231,-0.0112622,-0.318193,0.00791259,0.0314991,860,1555,0.109988,-10.3255
-357,-531,-0.207886,10.38,0.000252397,-0.0110412,-0.00378982,0.00140627,-0.012195,-0.295549,0.00863703,0.036619,867,1555,-0.207909,-10.38
-350,-531,-0.413696,10.4479,0,0,0,0,0,0,0,-1,874,1555,-0.413672,-10.4478
-343,-531,0.131958,10.8766,0,0,0,0,0,0,0,-1,881,1555,0.131959,-10.8766
-336,-531,0.42627,11.0632,0,0,0,0,0,0,0,-1,888,1555,0.426241,-11.0633
-329,-531,0.594482,11.3142,0,0,0,0,0,0,0,-1,895,1555,0.594502,-11.3142
-322,-531,-0.253723,11.2106,0,0,0,0,0,0,0,-1,902,1555,-0.253736,-11.2106
-315,-531,-0.598206,11.3984,0,0,0,0,0,0,0,-1,909,1555,-0.598178,-11.3985
-308,-531,-1.40149,9.85437,0,0,0,0,0,0,0,-1,916,1555,-1.40151,-9.85436
-301,-531,-1.27863,7.11975,0,0,0,0,0,0,0,-1,923,1555,-1.27864,-7.11973
-294,-531,-1.3244,8.1825,0,0,0,0,0,0,0,-1,930,1555,-1.3244,-8.18251
-287,-531,-1.41095,9.08215,0,0,0,0,0,0,0,-1,937,1555,-1.41095,-9.08216
-280,-531,-1.77509,9.93176,0,0,0,0,0,0,0,-1,944,1555,-1.77506,-9.93171
-273,-531,-5.5531,14.6454,0,0,0,0,0,0,0,-1,951,1555,-5.5531,-14.6454
-266,-531,-6.7038,16.0303,0,0,0,0,0,0,0,-1,958,1555,-6.7038,-16.0303
-259,-531,0,0,0,0,0,0,0,0,0,-1,965,1555,0,0
-252,-531,0,0,0,0,0,0,0,0,0,-1,972,1555,0,0
-245,-531,0,0,0,0,0,0,0,0,0,-1,979,1555,0,0
-238,-531,0,0,0,0,0,0,0,0,0,-1,986,1555,0,0
-231,-531,0,0,0,0,0,0,0,0,0,-1,993,1555,0,0
-224,-531,0,0,0,0,0,0,0,0,0,-1,1000,1555,0,0
-217,-531,0,0,0,0,0,0,0,0,0,-1,1007,1555,0,0
-210,-531,0,0,0,0,0,0,0,0,0,-1,1014,1555,0,0
-203,-531,0,0,0,0,0,0,0,0,0,-1,1021,1555,0,0
-196,-531,0,0,0,0,0,0,0,0,0,-1,1028,1555,0,0
-189,-531,0,0,0,0,0,0,0,0,0,-1,1035,1555,0,0
-182,-531,0,0,0,0,0,0,0,0,0,-1,1042,1555,0,0
-175,-531,0,0,0,0,0,0,0,0,0,-1,1049,1555,0,0
-168,-531,0,0,0,0,0,0,0,0,0,-1,1056,1555,0,0
-161,-531,0,0,0,0,0,0,0,0,0,-1,1063,1555,0,0
-154,-531,0,0,0,0,0,0,0,0,0,-1,1070,1555,0,0
-147,-531,0,0,0,0,0,0,0,0,0,-1,1077,1555,0,0
-140,-531,0,0,0,0,0,0,0,0,0,-1,1084,1555,0,0
-133,-531,0,0,0,0,0,0,0,0,0,-1,1091,1555,0,0
-126,-531,0,0,0,0,0,0,0,0,0,-1,1098,1555,0,0
-119,-531,0,0,0,0,0,0,0,0,0,-1,1105,1555,0,0
-112,-531,0,0,0,0,0,0,0,0,0,-1,1112,1555,0,0
-105,-531,0,0,0,0,0,0,0,0,0,-1,1119,1555,0,0
-98,-531,0,0,0,0,0,0,0,0,0,-1,1126,1555,0,0
-91,-531,0,0,0,0,0,0,0,0,0,-1,1133,1555,0,0
-84,-531,0,0,0,0,0,0,0,0,0,-1,1140,1555,0,0
-77,-531,0,0,0,0,0,0,0,0,0,-1,1147,1555,0,0
-70,-531,0,0,0,0,0,0,0,0,0,-1,1154,1555,0,0
-63,-531,0,0,0,0,0,0,0,0,0,-1,1161,1555,0,0
-56,-531,0,0,0,0,0,0,0,0,0,-1,1168,1555,0,0
-49,-531,0,0,0,0,0,0,0,0,0,-1,1175,1555,0,0
-42,-531,0,0,0,0,0,0,0,0,0,-1,1182,1555,0,0
-35,-531,0,0,0,0,0,0,0,0,0,-1,1189,1555,0,0
-28,-531,0,0,0,0,0,0,0,0,0,-1,1196,1555,0,0
-21,-531,0,0,0,0,0,0,0,0,0,-1,1203,1555,0,0
-14,-531,0,0,0,0,0,0,0,0,0,-1,1210,1555,0,0
-7,-531,0,0,0,0,0,0,0,0,0,-1,1217,1555,0,0
0,-531,0,0,0,0,0,0,0,0,0,-1,1224,1555,0,0
7,-531,0,0,0,0,0,0,0,0,0,-1,1231,1555,0,0
14,-531,0,0,0,0,0,0,0,0,0,-1,1238,1555,0,0
21,-531,0,0,0,0,0,0,0,0,0,-1,1245,1555,0,0
28,-531,0,0,0,0,0,0,0,0,0,-1,1252,1555,0,0
35,-531,0,0,0,0,0,0,0,0,0,-1,1259,1555,0,0
42,-531,0,0,0,0,0,0,0,0,0,-1,1266,1555,0,0
49,-531,0,0,0,0,0,0,0,0,0,-1,1273,1555,0,0
56,-531,0,0,0,0,0,0,0,0,0,-1,1280,1555,0,0
63,-531,0,0,0,0,0,0,0,0,0,-1,1287,1555,0,0
70,-531,0,0,0,0,0,0,0,0,0,-1,1294,1555,0,0
77,-531,0,0,0,0,0,0,0,0,0,-1,1301,1555,0,0
84,-531,0,0,0,0,0,0,0,0,0,-1,1308,1555,0,0
91,-531,0,0,0,0,0,0,0,0,0,-1,1315,1555,0,0
98,-531,0,0,0,0,0,0,0,0,0,-1,1322,1555,0,0
105,-531,0,0,0,0,0,0,0,0,0,-1,1329,1555,0,0
112,-531,0,0,0,0,0,0,0,0,0,-1,1336,1555,0,0
119,-531,0,0,0,0,0,0,0,0,0,-1,1343,1555,0,0
126,-531,0,0,0,0,0,0,0,0,0,-1,1350,1555,0,0
133,-531,0,0,0,0,0,0,0,0,0,-1,1357,1555,0,0
140,-531,0,0,0,0,0,0,0,0,0,-1,1364,1555,0,0
147,-531,0,0,0,0,0,0,0,0,0,-1,1371,1555,0,0
154,-531,0,0,0,0,0,0,0,0,0,-1,1378,1555,0,0
161,-531,0,0,0,0,0,0,0,0,0,-1,1385,1555,0,0
168,-531,0,0,0,0,0,0,0,0,0,-1,1392,1555,0,0
175,-531,0,0,0,0,0,0,0,0,0,-1,1399,1555,0,0
182,-531,0,0,0,0,0,0,0,0,0,-1,1406,1555,0,0
189,-531,0,0,0,0,0,0,0,0,0,-1,1413,1555,0,0
196,-531,0,0,0,0,0,0,0,0,0,-1,1420,1555,0,0
203,-531,0,0,0,0,0,0,0,0,0,-1,1427,1555,0,0
210,-531,0,0,0,0,0,0,0,0,0,-1,1434,1555,0,0
217,-531,0,0,0,0,0,0,0,0,0,-1,1441,1555,0,0
224,-531,0,0,0,0,0,0,0,0,0,-1,1448,1555,0,0
231,-531,0,0,0,0,0,0,0,0,0,-1,1455,1555,0,0
238,-531,0,0,0,0,0,0,0,0,0,-1,1462,1555,0,0
245,-531,0,0,0,0,0,0,0,0,0,-1,1469,1555,0,0
252,-531,0,0,0,0,0,0,0,0,0,-1,1476,1555,0,0
259,-531,0,0,0,0,0,0,0,0,0,-1,1483,1555,0,0
266,-531,0,0,0,0,0,0,0,0,0,-1,1490,1555,0,0
273,-531,0,0,0,0,0,0,0,0,0,-1,1497,1555,0,0
280,-531,0,0,0,0,0,0,0,0,0,-1,1504,1555,0,0
287,-531,0,0,0,0,0,0,0,0,0,-1,1511,1555,0,0
294,-531,0,0,0,0,0,0,0,0,0,-1,1518,1555,0,0
301,-531,0,0,0,0,0,0,0,0,0,-1,1525,1555,0,0
308,-531,0,0,0,0,0,0,0,0,0,-1,1532,1555,0,0
315,-531,0,0,0,0,0,0,0,0,0,-1,1539,1555,0,0
322,-531,0,0,0,0,0,0,0,0,0,-1,1546,1555,0,0
329,-531,0,0,0,0,0,0,0,0,0,-1,1553,1555,0,0
336,-531,0,0,0,0,0,0,0,0,0,-1,1560,1555,0,0
343,-531,0,0,0,0,0,0,0,0,0,-1,1567,1555,0,0
350,-531,0,0,0,0,0,0,0,0,0,-1,1574,1555,0,0
357,-531,0,0,0,0,0,0,0,0,0,-1,1581,1555,0,0
364,-531,0,0,0,0,0,0,0,0,0,-1,1588,1555,0,0
371,-531,0,0,0,0,0,0,0,0,0,-1,1595,1555,0,0
378,-531,0,0,0,0,0,0,0,0,0,-1,1602,1555,0,0
385,-531,3.13403,1.88721,0,0,0,0,0,0,0,-1,1609,1555,3.13401,-1.88726
392,-531,8.49451,7.77673,0,0,0,0,0,0,0,-1,1616,1555,8.49447,-7.77677
399,-531,8.26306,5.29602,0,0,0,0,0,0,0,-1,1623,1555,8.26302,-5.29607
406,-531,8.26147,5.42712,0,0,0,0,0,0,0,-1,1630,1555,8.26145,-5.42716
413,-531,8.20618,5.75012,0,0,0,0,0,0,0,-1,1637,1555,8.20619,-5.75017
420,-531,7.64868,7.09558,0,0,0,0,0,0,0,-1,1644,1555,7.64867,-7.09564
427,-531,9.93054,11.8412,0,0,0,0,0,0,0,-1,1651,1555,9.93059,-11.8412
434,-531,10.244,11.7072,0,0,0,0,0,0,0,-1,1658,1555,10.244,-11.7071
441,-531,9.03882,11.1136,0,0,0,0,0,0,0,-1,1665,1555,9.03881,-11.1137
448,-531,13.5089,5.90344,0,0,0,0,0,0,0,-1,1672,1555,13.5089,-5.90346
455,-531,12.5403,6.53625,0,0,0,0,0,0,0,-1,1679,1555,12.5403,-6.53629
462,-531,11.6357,6.271,0,0,0,0,0,0,0,-1,1686,1555,11.6358,-6.27095
469,-531,11.1533,8.24194,0,0,0,0,0,0,0,-1,1693,1555,11.1534,-8.24189
476,-531,10.8599,9.64771,0,0,0,0,0,0,0,-1,1700,1555,10.8599,-9.64774
483,-531,10.2628,11.0046,0,0,0,0,0,0,0,-1,1707,1555,10.2628,-11.0047
490,-531,9.95215,11.0465,0,0,0,0,0,0,0,-1,1714,1555,9.95209,-11.0465
497,-531,9.27356,11.4307,-0.00838391,-0.0184051,0.0167049,0.00404568,-0.0308347,0.639695,0.0220292,0.0173158,1721,1555,9.27361,-11.4307
504,-531,9.26392,11.2871,-0.00620897,-0.0132622,0.0129474,0.00368348,-0.0231547,0.652433,0.0167994,0.0118313,1728,1555,9.26393,-11.2871
511,-531,9.2594,11.0798,-0.0042469,-0.00956546,0.0100573,0.00349676,-0.0173091,0.65615,0.0128644,0.0133716,1735,1555,9.25945,-11.0798
518,-531,9.26611,10.8706,-0.00309265,-0.00610464,0.00789903,0.00344267,-0.01264,0.691201,0.00977834,0.0137598,1742,1555,9.26606,-10.8706
525,-531,9.28882,10.6735,-0.00266904,-0.00390093,0.00590612,0.00265317,-0.00922313,0.733441,0.00719802,0.0127209,1749,1555,9.28884,-10.6734
532,-531,9.30908,10.4633,-0.00205194,-0.00182116,0.00404739,0.00211248,-0.00598558,0.799649,0.00485039,0.00985088,1756,1555,9.30908,-10.4633
539,-531,9.2948,10.2375,-0.00128187,-0.000650127,0.00263827,0.00169111,-0.0036231,0.844978,0.00313502,0.011473,1763,1555,9.29481,-10.2375
546,-531,9.26758,10.0101,-0.000224445,0.000347127,0.0013061,0.00139834,-0.00127566,0.893105,0.00154437,0.0158162,1770,1555,9.26756,-10.0102
553,-531,9.27649,9.82935,0.00115025,0.00155431,-7.04662e-05,0.00156624,0.00113831,-1.403,0.00093476,0.0301247,1777,1555,9.27645,-9.82931
560,-531,9.27698,9.63745,0.00298571,0.00264463,-0.00123381,0.00406071,0.00156964,-0.716722,0.00236449,0.032679,1784,1555,9.27701,-9.63743
567,-531,9.22717,9.42432,0.00486549,0.00367466,-0.00233858,0.00668327,0.00185688,-0.660744,0.00398352,0.0187958,1791,1555,9.22723,-9.42434
574,-531,9.27539,9.21191,0.00704291,0.00491042,-0.00344704,0.00958485,0.00236848,-0.635404,0.00576493,0.0127367,1798,1555,9.27541,-9.21197
581,-531,9.30652,8.97412,0.00936971,0.00643805,-0.00445141,0.0125904,0.00321733,-0.626342,0.00755314,0.0115059,1805,1555,9.30652,-8.97416
588,-531,9.32813,8.71436,0.0115118,0.00904143,-0.00667334,0.0170633,0.00348994,-0.693887,0.0104091,0.0160266,1812,1555,9.3281,-8.71438
595,-531,9.39014,8.43274,0.0139741,0.0118773,-0.00896942,0.0219562,0.0038952,-0.727219,0.0135273,0.0330912,1819,1555,9.39018,-8.43276
602,-531,9.70093,8.03516,0.0159309,0.0176686,-0.0134433,0.0302711,0.00332837,-0.817669,0.0191679,0.0478572,1826,1555,9.70099,-8.0351
609,-531,9.87476,7.79895,0,0,0,0,0,0,0,-1,1833,1555,9.87479,-7.79897
616,-531,10.5723,7.17859,0,0,0,0,0,0,0,-1,1840,1555,10.5723,-7.17855
623,-531,10.0674,5.08984,0,0,0,0,0,0,0,-1,1847,1555,10.0674,-5.08981
630,-531,11.672,3.18909,0,0,0,0,0,0,0,-1,1854,1555,11.672,-3.18904
637,-531,13.2546,1.38965,0,0,0,0,0,0,0,-1,1861,1555,13.2547,-1.3896
644,-531,0,0,0,0,0,0,0,0,0,-1,1868,1555,0,0
651,-531,0,0,0,0,0,0,0,0,0,-1,1875,1555,0,0
658,-531,0,0,0,0,0,0,0,0,0,-1,1882,1555,0,0
665,-531,0,0,0,0,0,0,0,0,0,-1,1889,1555,0,0
672,-531,0,0,0,0,0,0,0,0,0,-1,1896,1555,0,0
679,-531,0,0,0,0,0,0,0,0,0,-1,1903,1555,0,0
686,-531,0,0,0,0,0,0,0,0,0,-1,1910,1555,0,0
693,-531,0,0,0,0,0,0,0,0,0,-1,1917,1555,0,0
700,-531,0,0,0,0,0,0,0,0,0,-1,1924,1555,0,0
707,-531,0,0,0,0,0,0,0,0,0,-1,1931,1555,0,0
714,-531,0,0,0,0,0,0,0,0,0,-1,1938,1555,0,0
721,-531,0,0,0,0,0,0,0,0,0,-1,1945,1555,0,0
728,-531,0,0,0,0,0,0,0,0,0,-1,1952,1555,0,0
735,-531,0,0,0,0,0,0,0,0,0,-1,1959,1555,0,0
742,-531,0,0,0,0,0,0,0,0,0,-1,1966,1555,0,0
749,-531,0,0,0,0,0,0,0,0,0,-1,1973,1555,0,0
756,-531,0,0,0,0,0,0,0,0,0,-1,1980,1555,0,0
763,-531,0,0,0,0,0,0,0,0,0,-1,1987,1555,0,0
770,-531,0,0,0,0,0,0,0,0,0,-1,1994,1555,0,0
777,-531,0,0,0,0,0,0,0,0,0,-1,2001,1555,0,0
784,-531,0,0,0,0,0,0,0,0,0,-1,2008,1555,0,0
791,-531,0,0,0,0,0,0,0,0,0,-1,2015,1555,0,0
798,-531,0,0,0,0,0,0,0,0,0,-1,2022,1555,0,0
805,-531,0,0,0,0,0,0,0,0,0,-1,2029,1555,0,0
812,-531,0,0,0,0,0,0,0,0,0,-1,2036,1555,0,0
-700,-538,0,0,0,0,0,0,0,0,0,-1,524,1562,0,0
-693,-538,0,0,0,0,0,0,0,0,0,-1,531,1562,0,0
-686,-538,0,0,0,0,0,0,0,0,0,-1,538,1562,0,0
-679,-538,0,0,0,0,0,0,0,0,0,-1,545,1562,0,0
-672,-538,0,0,0,0,0,0,0,0,0,-1,552,1562,0,0
-665,-538,0,0,0,0,0,0,0,0,0,-1,559,1562,0,0
-658,-538,0,0,0,0,0,0,0,0,0,-1,566,1562,0,0
-651,-538,0,0,0,0,0,0,0,0,0,-1,573,1562,0,0
-644,-538,0,0,0,0,0,0,0,0,0,-1,580,1562,0,0
-637,-538,0,0,0,0,0,0,0,0,0,-1,587,1562,0,0
-630,-538,0,0,0,0,0,0,0,0,0,-1,594,1562,0,0
-623,-538,0,0,0,0,0,0,0,0,0,-1,601,1562,0,0
-616,-538,0,0,0,0,0,0,0,0,0,-1,608,1562,0,0
-609,-538,0,0,0,0,0,0,0,0,0,-1,615,1562,0,0
-602,-538,0,0,0,0,0,0,0,0,0,-1,622,1562,0,0
-595,-538,0,0,0,0,0,0,0,0,0,-1,629,1562,0,0
-588,-538,0,0,0,0,0,0,0,0,0,-1,636,1562,0,0
-581,-538,0,0,0,0,0,0,0,0,0,-1,643,1562,0,0
-574,-538,0,0,0,0,0,0,0,0,0,-1,650,1562,0,0
-567,-538,0,0,0,0,0,0,0,0,0,-1,657,1562,0,0
-560,-538,0,0,0,0,0,0,0,0,0,-1,664,1562,0,0
-553,-538,0,0,0,0,0,0,0,0,0,-1,671,1562,0,0
-546,-538,0,0,0,0,0,0,0,0,0,-1,678,1562,0,0
-539,-538,0,0,0,0,0,0,0,0,0,-1,685,1562,0,0
-532,-538,0,0,0,0,0,0,0,0,0,-1,692,1562,0,0
-525,-538,0,0,0,0,0,0,0,0,0,-1,699,1562,0,0
-518,-538,0,0,0,0,0,0,0,0,0,-1,706,1562,0,0
-511,-538,-2.6582,-1.54321,0,0,0,0,0,0,0,-1,713,1562,-2.65821,1.54327
-504,-538,-2.66455,-0.71167,0,0,0,0,0,0,0,-1,720,1562,-2.66456,0.711667
-497,-538,-0.763855,6.77747,0,0,0,0,0,0,0,-1,727,1562,-0.76385,-6.77743
-490,-538,0.588623,4.14893,0,0,0,0,0,0,0,-1,734,1562,0.588598,-4.14896
-483,-538,-0.0526123,6.52185,0,0,0,0,0,0,0,-1,741,1562,-0.0526143,-6.52179
-476,-538,-0.0959473,6.75415,0,0,0,0,0,0,0,-1,748,1562,-0.0959404,-6.75415
-469,-538,-0.118896,7.05225,-0.000708123,0.0048072,0.00617177,0.00880937,-0.0047103,0.995501,0.00792427,0.0447583,755,1562,-0.118894,-7.05227
-462,-538,0.0131226,7.16956,0.000211213,0.00409259,0.00470514,0.00724156,-0.00293776,0.980999,0.00604959,0.0451307,762,1562,0.0131063,-7.16958
-455,-538,0.225403,7.39685,0.000770282,0.00338633,0.00357639,0.00588639,-0.00172978,0.960711,0.00461032,0.040688,769,1562,0.225378,-7.39684
-448,-538,0.343079,7.5127,0.00106015,0.00271556,0.00257161,0.00458938,-0.000813678,0.941094,0.00336378,0.0171313,776,1562,0.343084,-7.51271
-441,-538,0.326355,7.74011,0.00137186,0.00215467,0.0018536,0.00365774,-0.000131208,0.889449,0.00248338,0.0150878,783,1562,0.326364,-7.74015
-434,-538,0.299561,7.9552,0.00144282,0.00175595,0.00132636,0.00293496,0.000263815,0.844146,0.0018749,0.0111654,790,1562,0.299572,-7.95521
-427,-538,0.265015,8.22522,0.00132778,0.00132228,0.000867673,0.00219271,0.000457352,0.783812,0.00133571,0.0122903,797,1562,0.265015,-8.22524
-420,-538,0.253479,8.45605,0.00129555,0.000847885,0.000490285,0.00161068,0.000532754,0.571262,0.000947514,0.0158712,804,1562,0.253472,-8.45607
-413,-538,0.240906,8.66321,0.00121158,0.000333989,1.72389e-05,0.00121192,0.00033365,0.0196334,0.000722868,0.0164572,811,1562,0.240901,-8.66317
-406,-538,0.261353,8.87769,0.000855426,-0.000706584,-0.000410485,0.000956729,-0.000807887,-0.241953,0.00102001,0.0141837,818,1562,0.261324,-8.87767
-399,-538,0.279663,9.13135,0.000417009,-0.00164655,-0.000887426,0.000746146,-0.00197569,-0.355162,0.00162402,0.013258,825,1562,0.279689,-9.13139
-392,-538,0.297791,9.37598,0.000129854,-0.00273837,-0.00134842,0.000664224,-0.00327274,-0.377306,0.00243364,0.013726,832,1562,0.297799,-9.37604
-385,-538,0.26355,9.6123,4.18783e-05,-0.00391499,-0.00180415,0.000740972,-0.00461409,-0.369677,0.00335047,0.0113536,839,1562,0.263529,-9.61234
-378,-538,0.258484,9.8313,9.83393e-05,-0.00503672,-0.00206042,0.000822848,-0.00576123,-0.338128,0.00414244,0.00924587,846,1562,0.25846,-9.83125
-371,-538,0.252869,10.0416,0.000141529,-0.00620004,-0.00237712,0.000933648,-0.00699215,-0.321653,0.00500178,0.0100731,853,1562,0.252875,-10.0416
-364,-538,0.286499,10.3016,0.000358141,-0.00723595,-0.00252465,0.00112085,-0.00799866,-0.293389,0.00574264,0.0103641,860,1562,0.286521,-10.3017
-357,-538,0.279968,10.485,0.000802514,-0.00783092,-0.0025083,0.00147835,-0.00850676,-0.263191,0.00622277,0.0198615,867,1562,0.279939,-10.485
-350,-538,0.243835,10.5881,0.00159637,-0.00835018,-0.00218148,0.00205378,-0.00880759,-0.206684,0.00666268,0.0333091,874,1562,0.243865,-10.5882
-343,-538,0.364563,10.8546,0.00255522,-0.00843938,-0.00166465,0.00280173,-0.00868589,-0.147017,0.00691632,0.0444314,881,1562,0.364546,-10.8546
-336,-538,0.63678,11.0913,0.00390122,-0.00773536,-0.00103426,0.00399243,-0.00782657,-0.0879609,0.00694236,0.0441037,888,1562,0.636771,-11.0913
-329,-538,0.857971,11.2559,0.0056681,-0.00669642,0.000265012,0.00567377,-0.0067021,0.0214201,0.00715343,0.0463858,895,1562,0.857997,-11.2558
-322,-538,1.0907,11.3759,0,0,0,0,0,0,0,-1,902,1562,1.0907,-11.3758
-315,-538,-0.151611,11.7495,0,0,0,0,0,0,0,-1,909,1562,-0.15161,-11.7495
-308,-538,-0.747375,14.4913,0,0,0,0,0,0,0,-1,916,1562,-0.747373,-14.4914
-301,-538,-0.686829,10.5295,0,0,0,0,0,0,0,-1,923,1562,-0.686856,-10.5295
-294,-538,-0.0413818,10.7646,0,0,0,0,0,0,0,-1,930,1562,-0.0414001,-10.7647
-287,-538,0.768677,11.1807,0,0,0,0,0,0,0,-1,937,1562,0.768704,-11.1807
-280,-538,-4.0293,11.8911,0,0,0,0,0,0,0,-1,944,1562,-4.02932,-11.8911
-273,-538,-4.85803,13.4651,0,0,0,0,0,0,0,-1,951,1562,-4.85802,-13.4651
-266,-538,-5.69073,14.9116,0,0,0,0,0,0,0,-1,958,1562,-5.69073,-14.9116
-259,-538,-6.21277,16.2444,0,0,0,0,0,0,0,-1,965,1562,-6.21275,-16.2444
-252,-538,0,0,0,0,0,0,0,0,0,-1,972,1562,0,0
-245,-538,0,0,0,0,0,0,0,0,0,-1,979,1562,0,0
-238,-538,0,0,0,0,0,0,0,0,0,-1,986,1562,0,0
-231,-538,0,0,0,0,0,0,0,0,0,-1,993,1562,0,0
-224,-538,0,0,0,0,0,0,0,0,0,-1,1000,1562,0,0
-217,-538,0,0,0,0,0,0,0,0,0,-1,1007,1562,0,0
-210,-538,0,0,0,0,0,0,0,0,0,-1,1014,1562,0,0
-203,-538,0,0,0,0,0,0,0,0,0,-1,1021,1562,0,0
-196,-538,0,0,0,0,0,0,0,0,0,-1,1028,1562,0,0
-189,-538,0,0,0,0,0,0,0,0,0,-1,1035,1562,0,0
-182,-538,0,0,0,0,0,0,0,0,0,-1,1042,1562,0,0
-175,-538,0,0,0,0,0,0,0,0,0,-1,1049,1562,0,0
-168,-538,0,0,0,0,0,0,0,0,0,-1,1056,1562,0,0
-161,-538,0,0,0,0,0,0,0,0,0,-1,1063,1562,0,0
-154,-538,0,0,0,0,0,0,0,0,0,-1,1070,1562,0,0
-147,-538,0,0,0,0,0,0,0,0,0,-1,1077,1562,0,0
-140,-538,0,0,0,0,0,0,0,0,0,-1,1084,1562,0,0
-133,-538,0,0,0,0,0,0,0,0,0,-1,1091,1562,0,0
-126,-538,0,0,0,0,0,0,0,0,0,-1,1098,1562,0,0
-119,-538,0,0,0,0,0,0,0,0,0,-1,1105,1562,0,0
-112,-538,0,0,0,0,0,0,0,0,0,-1,1112,1562,0,0
-105,-538,0,0,0,0,0,0,0,0,0,-1,1119,1562,0,0
-98,-538,0,0,0,0,0,0,0,0,0,-1,1126,1562,0,0
-91,-538,0,0,0,0,0,0,0,0,0,-1,1133,1562,0,0
-84,-538,0,0,0,0,0,0,0,0,0,-1,1140,1562,0,0
-77,-538,0,0,0,0,0,0,0,0,0,-1,1147,1562,0,0
-70,-538,0,0,0,0,0,0,0,0,0,-1,1154,1562,0,0
-63,-538,0,0,0,0,0,0,0,0,0,-1,1161,1562,0,0
-56,-538,0,0,0,0,0,0,0,0,0,-1,1168,1562,0,0
-49,-538,0,0,0,0,0,0,0,0,0,-1,1175,1562,0,0
-42,-538,0,0,0,0,0,0,0,0,0,-1,1182,1562,0,0
-35,-538,0,0,0,0,0,0,0,0,0,-1,1189,1562,0,0
-28,-538,0,0,0,0,0,0,0,0,0,-1,1196,1562,0,0
-21,-538,0,0,0,0,0,0,0,0,0,-1,1203,1562,0,0
-14,-538,0,0,0,0,0,0,0,0,0,-1,1210,1562,0,0
-7,-538,0,0,0,0,0,0,0,0,0,-1,1217,1562,0,0
0,-538,0,0,0,0,0,0,0,0,0,-1,1224,1562,0,0
7,-538,0,0,0,0,0,0,0,0,0,-1,1231,1562,0,0
14,-538,0,0,0,0,0,0,0,0,0,-1,1238,1562,0,0
21,-538,0,0,0,0,0,0,0,0,0,-1,1245,1562,0,0
28,-538,0,0,0,0,0,0,0,0,0,-1,1252,1562,0,0
35,-538,0,0,0,0,0,0,0,0,0,-1,1259,1562,0,0
42,-538,0,0,0,0,0,0,0,0,0,-1,1266,1562,0,0
49,-538,0,0,0,0,0,0,0,0,0,-1,1273,1562,0,0
56,-538,0,0,0,0,0,0,0,0,0,-1,1280,1562,0,0
63,-538,0,0,0,0,0,0,0,0,0,-1,1287,1562,0,0
70,-538,0,0,0,0,0,0,0,0,0,-1,1294,1562,0,0
77,-538,0,0,0,0,0,0,0,0,0,-1,1301,1562,0,0
84,-538,0,0,0,0,0,0,0,0,0,-1,1308,1562,0,0
91,-538,0,0,0,0,0,0,0,0,0,-1,1315,1562,0,0
98,-538,0,0,0,0,0,0,0,0,0,-1,1322,1562,0,0
105,-538,0,0,0,0,0,0,0,0,0,-1,1329,1562,0,0
112,-538,0,0,0,0,0,0,0,0,0,-1,1336,1562,0,0
119,-538,0,0,0,0,0,0,0,0,0,-1,1343,1562,0,0
126,-538,0,0,0,0,0,0,0,0,0,-1,1350,1562,0,0
133,-538,0,0,0,0,0,0,0,0,0,-1,1357,1562,0,0
140,-538,0,0,0,0,0,0,0,0,0,-1,1364,1562,0,0
147,-538,0,0,0,0,0,0,0,0,0,-1,1371,1562,0,0
154,-538,0,0,0,0,0,0,0,0,0,-1,1378,1562,0,0
161,-538,0,0,0,0,0,0,0,0,0,-1,1385,1562,0,0
168,-538,0,0,0,0,0,0,0,0,0,-1,1392,1562,0,0
175,-538,0,0,0,0,0,0,0,0,0,-1,1399,1562,0,0
182,-538,0,0,0,0,0,0,0,0,0,-1,1406,1562,0,0
189,-538,0,0,0,0,0,0,0,0,0,-1,1413,1562,0,0
196,-538,0,0,0,0,0,0,0,0,0,-1,1420,1562,0,0
203,-538,0,0,0,0,0,0,0,0,0,-1,1427,1562,0,0
210,-538,0,0,0,0,0,0,0,0,0,-1,1434,1562,0,0
217,-538,0,0,0,0,0,0,0,0,0,-1,1441,1562,0,0
224,-538,0,0,0,0,0,0,0,0,0,-1,1448,1562,0,0
231,-538,0,0,0,0,0,0,0,0,0,-1,1455,1562,0,0
238,-538,0,0,0,0,0,0,0,0,0,-1,1462,1562,0,0
245,-538,0,0,0,0,0,0,0,0,0,-1,1469,1562,0,0
252,-538,0,0,0,0,0,0,0,0,0,-1,1476,1562,0,0
259,-538,0,0,0,0,0,0,0,0,0,-1,1483,1562,0,0
266,-538,0,0,0,0,0,0,0,0,0,-1,1490,1562,0,0
273,-538,0,0,0,0,0,0,0,0,0,-1,1497,1562,0,0
280,-538,0,0,0,0,0,0,0,0,0,-1,1504,1562,0,0
287,-538,0,0,0,0,0,0,0,0,0,-1,1511,1562,0,0
294,-538,0,0,0,0,0,0,0,0,0,-1,1518,1562,0,0
301,-538,0,0,0,0,0,0,0,0,0,-1,1525,1562,0,0
308,-538,0,0,0,0,0,0,0,0,0,-1,1532,1562,0,0
315,-538,0,0,0,0,0,0,0,0,0,-1,1539,1562,0,0
322,-538,0,0,0,0,0,0,0,0,0,-1,1546,1562,0,0
329,-538,0,0,0,0,0,0,0,0,0,-1,1553,1562,0,0
336,-538,0,0,0,0,0,0,0,0,0,-1,1560,1562,0,0
343,-538,0,0,0,0,0,0,0,0,0,-1,1567,1562,0,0
350,-538,0,0,0,0,0,0,0,0,0,-1,1574,1562,0,0
357,-538,0,0,0,0,0,0,0,0,0,-1,1581,1562,0,0
364,-538,0,0,0,0,0,0,0,0,0,-1,1588,1562,0,0
371,-538,0,0,0,0,0,0,0,0,0,-1,1595,1562,0,0
378,-538,8.66895,4.93665,0,0,0,0,0,0,0,-1,1602,1562,8.66896,-4.93661
385,-538,8.69836,7.6283,0,0,0,0,0,0,0,-1,1609,1562,8.69835,-7.62829
392,-538,8.20361,7.07214,0,0,0,0,0,0,0,-1,1616,1562,8.20362,-7.07211
399,-538,7.85425,4.70508,0,0,0,0,0,0,0,-1,1623,1562,7.85425,-4.70512
406,-538,7.77734,4.96094,0,0,0,0,0,0,0,-1,1630,1562,7.77729,-4.96097
413,-538,13.0446,13.1765,0,0,0,0,0,0,0,-1,1637,1562,13.0446,-13.1765
420,-538,9.96216,12.7653,0,0,0,0,0,0,0,-1,1644,1562,9.96221,-12.7653
427,-538,10.1469,12.3376,0,0,0,0,0,0,0,-1,1651,1562,10.1469,-12.3377
434,-538,8.15137,10.9991,0,0,0,0,0,0,0,-1,1658,1562,8.15137,-10.9991
441,-538,9.15991,11.1003,0,0,0,0,0,0,0,-1,1665,1562,9.15995,-11.1003
448,-538,10.1685,11.2015,0,0,0,0,0,0,0,-1,1672,1562,10.1685,-11.2015
455,-538,10.5647,11.1179,0,0,0,0,0,0,0,-1,1679,1562,10.5646,-11.1179
462,-538,9.58777,10.6898,0,0,0,0,0,0,0,-1,1686,1562,9.58782,-10.6898
469,-538,10.4954,9.76807,0,0,0,0,0,0,0,-1,1693,1562,10.4953,-9.76804
476,-538,10.251,10.9816,0,0,0,0,0,0,0,-1,1700,1562,10.251,-10.9816
483,-538,9.18433,11.6935,-0.00672616,-0.023824,0.0168858,0.00365151,-0.0342016,0.55107,0.0241106,0.0312407,1707,1562,9.18432,-11.6935
490,-538,9.0918,11.6311,-0.00684452,-0.0190603,0.015565,0.00376815,-0.0296729,0.598425,0.0211502,0.0143411,1714,1562,9.09185,-11.631
497,-538,9.07788,11.4845,-0.00608135,-0.0143622,0.0127019,0.00313786,-0.0235814,0.627843,0.0168645,0.0101088,1721,1562,9.07793,-11.4845
504,-538,9.08179,11.2964,-0.00410537,-0.0102405,0.00966325,0.00296552,-0.0173114,0.631705,0.0126459,0.00932464,1728,1562,9.08184,-11.2963
511,-538,9.06226,11.0835,-0.00231212,-0.00724965,0.00733023,0.00295392,-0.0125157,0.622968,0.00948304,0.00973216,1735,1562,9.06221,-11.0835
518,-538,9.05811,10.8729,-0.0012443,-0.00438831,0.00562597,0.00302516,-0.00865777,0.649163,0.00700158,0.010076,1742,1562,9.05808,-10.8729
525,-538,9.06506,10.676,-0.000887482,-0.00259361,0.00404837,0.00239673,-0.00587782,0.681558,0.00491622,0.0106526,1749,1562,9.06508,-10.676
532,-538,9.07532,10.4801,-0.000406847,-0.000897664,0.00257052,0.00192995,-0.00323446,0.737807,0.00301322,0.0115913,1756,1562,9.0753,-10.4801
539,-538,9.06958,10.2552,0.000230867,0.000141494,0.00139376,0.00158066,-0.0012083,0.769373,0.00161498,0.0143931,1763,1562,9.06954,-10.2552
546,-538,9.06592,10.0273,0.00112821,0.00105573,0.00024538,0.00134002,0.000843933,0.712085,0.000782299,0.0172039,1770,1562,9.06589,-10.0273
553,-538,9.09326,9.80591,0.00242355,0.00213666,-0.000974376,0.00326498,0.00129523,-0.712315,0.0018984,0.027198,1777,1562,9.09328,-9.80587
560,-538,9.05347,9.6178,0.00418559,0.00329671,-0.00199932,0.00578927,0.00169303,-0.676029,0.00343709,0.0272932,1784,1562,9.05348,-9.61781
567,-538,8.99597,9.42505,0.00606231,0.0044682,-0.00309765,0.00846381,0.00206671,-0.659475,0.00509532,0.0193884,1791,1562,8.99602,-9.425
574,-538,9.06482,9.19482,0.00845293,0.00585161,-0.00428945,0.0116346,0.00266996,-0.638193,0.0070373,0.0122638,1798,1562,9.06483,-9.19488
581,-538,9.09436,8.93591,0.0112672,0.00777231,-0.00545991,0.0152525,0.00378704,-0.630522,0.00917046,0.013822,1805,1562,9.0944,-8.93591
588,-538,9.146,8.68494,0.014152,0.0108493,-0.0080448,0.0207132,0.00428809,-0.684169,0.0126245,0.0306068,1812,1562,9.14597,-8.68499
595,-538,9.38062,8.34668,0.0176528,0.014386,-0.0108927,0.0270339,0.00500494,-0.710977,0.0166076,0.0475946,1819,1562,9.38059,-8.34665
602,-538,9.49695,8.16235,0,0,0,0,0,0,0,-1,1826,1562,9.49696,-8.16231
609,-538,10.1046,7.05713,0,0,0,0,0,0,0,-1,1833,1562,10.1046,-7.05719
616,-538,9.92249,5.43506,0,0,0,0,0,0,0,-1,1840,1562,9.92254,-5.43507
623,-538,11.1711,4.31604,0,0,0,0,0,0,0,-1,1847,1562,11.1711,-4.316
630,-538,12.6112,2.61633,0,0,0,0,0,0,0,-1,1854,1562,12.6112,-2.61637
637,-538,0,0,0,0,0,0,0,0,0,-1,1861,1562,0,0
644,-538,0,0,0,0,0,0,0,0,0,-1,1868,1562,0,0
651,-538,0,0,0,0,0,0,0,0,0,-1,1875,1562,0,0
658,-538,0,0,0,0,0,0,0,0,0,-1,1882,1562,0,0
665,-538,0,0,0,0,0,0,0,0,0,-1,1889,1562,0,0
672,-538,0,0,0,0,0,0,0,0,0,-1,1896,1562,0,0
679,-538,0,0,0,0,0,0,0,0,0,-1,1903,1562,0,0
686,-538,0,0,0,0,0,0,0,0,0,-1,1910,1562,0,0
693,-538,0,0,0,0,0,0,0,0,0,-1,1917,1562,0,0
700,-538,0,0,0,0,0,0,0,0,0,-1,1924,1562,0,0
707,-538,0,0,0,0,0,0,0,0,0,-1,1931,1562,0,0
714,-538,0,0,0,0,0,0,0,0,0,-1,1938,1562,0,0
721,-538,0,0,0,0,0,0,0,0,0,-1,1945,1562,0,0
728,-538,0,0,0,0,0,0,0,0,0,-1,1952,1562,0,0
735,-538,0,0,0,0,0,0,0,0,0,-1,1959,1562,0,0
742,-538,0,0,0,0,0,0,0,0,0,-1,1966,1562,0,0
749,-538,0,0,0,0,0,0,0,0,0,-1,1973,1562,0,0
756,-538,0,0,0,0,0,0,0,0,0,-1,1980,1562,0,0
763,-538,0,0,0,0,0,0,0,0,0,-1,1987,1562,0,0
770,-538,0,0,0,0,0,0,0,0,0,-1,1994,1562,0,0
777,-538,0,0,0,0,0,0,0,0,0,-1,2001,1562,0,0
784,-538,0,0,0,0,0,0,0,0,0,-1,2008,1562,0,0
791,-538,0,0,0,0,0,0,0,0,0,-1,2015,1562,0,0
798,-538,0,0,0,0,0,0,0,0,0,-1,2022,1562,0,0
805,-538,0,0,0,0,0,0,0,0,0,-1,2029,1562,0,0
812,-538,0,0,0,0,0,0,0,0,0,-1,2036,1562,0,0
-700,-545,0,0,0,0,0,0,0,0,0,-1,524,1569,0,0
-693,-545,0,0,0,0,0,0,0,0,0,-1,531,1569,0,0
-686,-545,0,0,0,0,0,0,0,0,0,-1,538,1569,0,0
-679,-545,0,0,0,0,0,0,0,0,0,-1,545,1569,0,0
-672,-545,0,0,0,0,0,0,0,0,0,-1,552,1569,0,0
-665,-545,0,0,0,0,0,0,0,0,0,-1,559,1569,0,0
-658,-545,0,0,0,0,0,0,0,0,0,-1,566,1569,0,0
-651,-545,0,0,0,0,0,0,0,0,0,-1,573,1569,0,0
-644,-545,0,0,0,0,0,0,0,0,0,-1,580,1569,0,0
-637,-545,0,0,0,0,0,0,0,0,0,-1,587,1569,0,0
-630,-545,0,0,0,0,0,0,0,0,0,-1,594,1569,0,0
-623,-545,0,0,0,0,0,0,0,0,0,-1,601,1569,0,0
-616,-545,0,0,0,0,0,0,0,0,0,-1,608,1569,0,0
-609,-545,0,0,0,0,0,0,0,0,0,-1,615,1569,0,0
-602,-545,0,0,0,0,0,0,0,0,0,-1,622,1569,0,0
-595,-545,0,0,0,0,0,0,0,0,0,-1,629,1569,0,0
-588,-545,0,0,0,0,0,0,0,0,0,-1,636,1569,0,0
-581,-545,0,0,0,0,0,0,0,0,0,-1,643,1569,0,0
-574,-545,0,0,0,0,0,0,0,0,0,-1,650,1569,0,0
-567,-545,0,0,0,0,0,0,0,0,0,-1,657,1569,0,0
-560,-545,0,0,0,0,0,0,0,0,0,-1,664,1569,0,0
-553,-545,0,0,0,0,0,0,0,0,0,-1,671,1569,0,0
-546,-545,0,0,0,0,0,0,0,0,0,-1,678,1569,0,0
-539,-545,0,0,0,0,0,0,0,0,0,-1,685,1569,0,0
-532,-545,0,0,0,0,0,0,0,0,0,-1,692,1569,0,0
-525,-545,0,0,0,0,0,0,0,0,0,-1,699,1569,0,0
-518,-545,0,0,0,0,0,0,0,0,0,-1,706,1569,0,0
-511,-545,0,0,0,0,0,0,0,0,0,-1,713,1569,0,0
-504,-545,-3.55237,-2.5354,0,0,0,0,0,0,0,-1,720,1569,-3.55236,2.53545
-497,-545,0.119141,5.68481,0,0,0,0,0,0,0,-1,727,1569,0.119132,-5.68483
-490,-545,2.12347,3.29236,0,0,0,0,0,0,0,-1,734,1569,2.12349,-3.29242
-483,-545,0.934875,4.8407,0,0,0,0,0,0,0,-1,741,1569,0.934854,-4.84072
-476,-545,0.0806885,6.31897,0,0,0,0,0,0,0,-1,748,1569,0.0806803,-6.31897
-469,-545,0.279602,6.58838,0,0,0,0,0,0,0,-1,755,1569,0.27958,-6.58834
-462,-545,0.565125,6.7666,0.0013604,0.00614148,0.00620737,0.0104027,-0.00290084,0.969202,0.00807762,0.0461607,762,1569,0.565137,-6.76658
-455,-545,0.206604,7.229,0.0017084,0.00504207,0.0046687,0.00833257,-0.0015821,0.956857,0.00615062,0.0441619,769,1569,0.206615,-7.22899
-448,-545,0.529968,7.44543,0.00180851,0.00398195,0.00324314,0.0063156,-0.000525142,0.94706,0.00439592,0.0271581,776,1569,0.529944,-7.44544
-441,-545,0.571289,7.76648,0.0019052,0.00321473,0.00218772,0.00484356,0.000276362,0.930801,0.00314098,0.016982,783,1569,0.571302,-7.7665
-434,-545,0.507324,7.97278,0.00178596,0.0025844,0.00148667,0.00372452,0.000645833,0.91657,0.00229819,0.0142444,790,1569,0.507326,-7.9728
-427,-545,0.504761,8.21643,0.00150623,0.00202369,0.000943111,0.00274292,0.000787003,0.919275,0.00163085,0.0161148,797,1569,0.504759,-8.21644
-420,-545,0.525208,8.42139,0.00132949,0.00152348,0.000525304,0.00196067,0.0008923,0.876696,0.00113351,0.0218278,804,1569,0.525178,-8.42138
-413,-545,0.500977,8.646,0.00116052,0.00110933,2.84925e-05,0.00117323,0.00109662,0.419427,0.000757908,0.0214269,811,1569,0.500964,-8.64603
-406,-545,0.506348,8.87744,0.000843007,0.000101274,-0.000304882,0.00095224,-7.95856e-06,-0.34403,0.000637496,0.0169393,818,1569,0.506365,-8.87746
-399,-545,0.518494,9.12671,0.000374629,-0.00070796,-0.000711579,0.000727395,-0.00106073,-0.460243,0.00103833,0.0113367,825,1569,0.518521,-9.12677
-392,-545,0.519043,9.37549,8.48573e-05,-0.00162332,-0.00105986,0.000591937,-0.0021304,-0.44625,0.00165328,0.010552,832,1569,0.519029,-9.37555
-385,-545,0.510803,9.62305,3.42432e-05,-0.002599,-0.00139939,0.000639026,-0.00320378,-0.407932,0.00237766,0.00900254,839,1569,0.510778,-9.62299
-378,-545,0.492981,9.85303,0.000154612,-0.00346759,-0.00152991,0.000714317,-0.00402729,-0.350717,0.00295192,0.0110182,846,1569,0.493004,-9.85303
-371,-545,0.488342,10.083,0.000305267,-0.00430361,-0.0016865,0.000856473,-0.00485482,-0.315891,0.00355658,0.0135916,853,1569,0.488313,-10.083
-364,-545,0.499451,10.2896,0.000586869,-0.00502405,-0.00170838,0.0010661,-0.00550328,-0.273487,0.00407102,0.00879037,860,1569,0.499457,-10.2896
-357,-545,0.527954,10.51,0.00109622,-0.00534895,-0.00159575,0.00146967,-0.0057224,-0.22989,0.00438765,0.0104513,867,1569,0.527949,-10.51
-350,-545,0.533142,10.7145,0.00185045,-0.00562828,-0.00128789,0.00206602,-0.00584385,-0.165845,0.00473721,0.0152372,874,1569,0.533124,-10.7145
-343,-545,0.573486,10.9132,0.00272576,-0.00553389,-0.000894894,0.00282161,-0.00562974,-0.106696,0.00496836,0.0241608,881,1569,0.573461,-10.9132
-336,-545,0.629333,11.1063,0.00384266,-0.00482679,-0.000527375,0.00387462,-0.00485876,-0.060534,0.00505288,0.0308038,888,1569,0.629341,-11.1064
-329,-545,0.589294,11.176,0.0051211,-0.00379646,0.000279512,0.00512986,-0.00380521,0.0313031,0.00517753,0.0379889,895,1569,0.58928,-11.1761
-322,-545,0.672729,11.2913,0,0,0,0,0,0,0,-1,902,1569,0.672725,-11.2912
-315,-545,0.137268,13.2985,0,0,0,0,0,0,0,-1,909,1569,0.137282,-13.2984
-308,-545,-0.266602,13.4796,0,0,0,0,0,0,0,-1,916,1569,-0.266611,-13.4796
-301,-545,-0.678406,13.2817,0,0,0,0,0,0,0,-1,923,1569,-0.678391,-13.2818
-294,-545,0.589844,11.3713,0,0,0,0,0,0,0,-1,930,1569,0.589819,-11.3714
-287,-545,1.12524,8.00647,0,0,0,0,0,0,0,-1,937,1569,1.12522,-8.00647
-280,-545,0.226746,10.4198,0,0,0,0,0,0,0,-1,944,1569,0.226742,-10.4198
-273,-545,-4.10596,12.3789,0,0,0,0,0,0,0,-1,951,1569,-4.10598,-12.3789
-266,-545,-5.10779,14.1372,0,0,0,0,0,0,0,-1,958,1569,-5.10778,-14.1372
-259,-545,-3.98706,7.8916,0,0,0,0,0,0,0,-1,965,1569,-3.98704,-7.89159
-252,-545,0.369263,7.54053,0,0,0,0,0,0,0,-1,972,1569,0.369276,-7.54056
-245,-545,-0.236633,6.65564,0,0,0,0,0,0,0,-1,979,1569,-0.236605,-6.65566
-238,-545,0,0,0,0,0,0,0,0,0,-1,986,1569,0,0
-231,-545,0,0,0,0,0,0,0,0,0,-1,993,1569,0,0
-224,-545,0,0,0,0,0,0,0,0,0,-1,1000,1569,0,0
-217,-545,0,0,0,0,0,0,0,0,0,-1,1007,1569,0,0
-210,-545,0,0,0,0,0,0,0,0,0,-1,1014,1569,0,0
-203,-545,0,0,0,0,0,0,0,0,0,-1,1021,1569,0,0
-196,-545,0,0,0,0,0,0,0,0,0,-1,1028,1569,0,0
-189,-545,0,0,0,0,0,0,0,0,0,-1,1035,1569,0,0
-182,-545,0,0,0,0,0,0,0,0,0,-1,1042,1569,0,0
-175,-545,0,0,0,0,0,0,0,0,0,-1,1049,1569,0,0
-168,-545,0,0,0,0,0,0,0,0,0,-1,1056,1569,0,0
-161,-545,0,0,0,0,0,0,0,0,0,-1,1063,1569,0,0
-154,-545,0,0,0,0,0,0,0,0,0,-1,1070,1569,0,0
-147,-545,0,0,0,0,0,0,0,0,0,-1,1077,1569,0,0
-140,-545,0,0,0,0,0,0,0,0,0,-1,1084,1569,0,0
-133,-545,0,0,0,0,0,0,0,0,0,-1,1091,1569,0,0
-126,-545,0,0,0,0,0,0,0,0,0,-1,1098,1569,0,0
-119,-545,0,0,0,0,0,0,0,0,0,-1,1105,1569,0,0
-112,-545,0,0,0,0,0,0,0,0,0,-1,1112,1569,0,0
-105,-545,0,0,0,0,0,0,0,0,0,-1,1119,1569,0,0
-98,-545,0,0,0,0,0,0,0,0,0,-1,1126,1569,0,0
-91,-545,0,0,0,0,0,0,0,0,0,-1,1133,1569,0,0
-84,-545,0,0,0,0,0,0,0,0,0,-1,1140,1569,0,0
-77,-545,0,0,0,0,0,0,0,0,0,-1,1147,1569,0,0
-70,-545,0,0,0,0,0,0,0,0,0,-1,1154,1569,0,0
-63,-545,0,0,0,0,0,0,0,0,0,-1,1161,1569,0,0
-56,-545,0,0,0,0,0,0,0,0,0,-1,1168,1569,0,0
-49,-545,0,0,0,0,0,0,0,0,0,-1,1175,1569,0,0
-42,-545,0,0,0,0,0,0,0,0,0,-1,1182,1569,0,0
-35,-545,0,0,0,0,0,0,0,0,0,-1,1189,1569,0,0
-28,-545,0,0,0,0,0,0,0,0,0,-1,1196,1569,0,0
-21,-545,0,0,0,0,0,0,0,0,0,-1,1203,1569,0,0
-14,-545,0,0,0,0,0,0,0,0,0,-1,1210,1569,0,0
-7,-545,0,0,0,0,0,0,0,0,0,-1,1217,1569,0,0
0,-545,0,0,0,0,0,0,0,0,0,-1,1224,1569,0,0
7,-545,0,0,0,0,0,0,0,0,0,-1,1231,1569,0,0
14,-545,0,0,0,0,0,0,0,0,0,-1,1238,1569,0,0
21,-545,0,0,0,0,0,0,0,0,0,-1,1245,1569,0,0
28,-545,0,0,0,0,0,0,0,0,0,-1,1252,1569,0,0
35,-545,0,0,0,0,0,0,0,0,0,-1,1259,1569,0,0
42,-545,0,0,0,0,0,0,0,0,0,-1,1266,1569,0,0
49,-545,0,0,0,0,0,0,0,0,0,-1,1273,1569,0,0
56,-545,0,0,0,0,0,0,0,0,0,-1,1280,1569,0,0
63,-545,0,0,0,0,0,0,0,0,0,-1,1287,1569,0,0
70,-545,0,0,0,0,0,0,0,0,0,-1,1294,1569,0,0
77,-545,0,0,0,0,0,0,0,0,0,-1,1301,1569,0,0
84,-545,0,0,0,0,0,0,0,0,0,-1,1308,1569,0,0
91,-545,0,0,0,0,0,0,0,0,0,-1,1315,1569,0,0
98,-545,0,0,0,0,0,0,0,0,0,-1,1322,1569,0,0
105,-545,0,0,0,0,0,0,0,0,0,-1,1329,1569,0,0
112,-545,0,0,0,0,0,0,0,0,0,-1,1336,1569,0,0
119,-545,0,0,0,0,0,0,0,0,0,-1,1343,1569,0,0
126,-545,0,0,0,0,0,0,0,0,0,-1,1350,1569,0,0
133,-545,0,0,0,0,0,0,0,0,0,-1,1357,1569,0,0
140,-545,0,0,0,0,0,0,0,0,0,-1,1364,1569,0,0
147,-545,0,0,0,0,0,0,0,0,0,-1,1371,1569,0,0
154,-545,0,0,0,0,0,0,0,0,0,-1,1378,1569,0,0
161,-545,0,0,0,0,0,0,0,0,0,-1,1385,1569,0,0
168,-545,0,0,0,0,0,0,0,0,0,-1,1392,1569,0,0
175,-545,0,0,0,0,0,0,0,0,0,-1,1399,1569,0,0
182,-545,0,0,0,0,0,0,0,0,0,-1,1406,1569,0,0
189,-545,0,0,0,0,0,0,0,0,0,-1,1413,1569,0,0
196,-545,0,0,0,0,0,0,0,0,0,-1,1420,1569,0,0
203,-545,0,0,0,0,0,0,0,0,0,-1,1427,1569,0,0
210,-545,0,0,0,0,0,0,0,0,0,-1,1434,1569,0,0
217,-545,0,0,0,0,0,0,0,0,0,-1,1441,1569,0,0
224,-545,0,0,0,0,0,0,0,0,0,-1,1448,1569,0,0
231,-545,0,0,0,0,0,0,0,0,0,-1,1455,1569,0,0
238,-545,0,0,0,0,0,0,0,0,0,-1,1462,1569,0,0
245,-545,0,0,0,0,0,0,0,0,0,-1,1469,1569,0,0
252,-545,0,0,0,0,0,0,0,0,0,-1,1476,1569,0,0
259,-545,0,0,0,0,0,0,0,0,0,-1,1483,1569,0,0
266,-545,0,0,0,0,0,0,0,0,0,-1,1490,1569,0,0
273,-545,0,0,0,0,0,0,0,0,0,-1,1497,1569,0,0
280,-545,0,0,0,0,0,0,0,0,0,-1,1504,1569,0,0
287,-545,0,0,0,0,0,0,0,0,0,-1,1511,1569,0,0
294,-545,0,0,0,0,0,0,0,0,0,-1,1518,1569,0,0
301,-545,0,0,0,0,0,0,0,0,0,-1,1525,1569,0,0
308,-545,0,0,0,0,0,0,0,0,0,-1,1532,1569,0,0
315,-545,0,0,0,0,0,0,0,0,0,-1,1539,1569,0,0
322,-545,0,0,0,0,0,0,0,0,0,-1,1546,1569,0,0
329,-545,0,0,0,0,0,0,0,0,0,-1,1553,1569,0,0
336,-545,0,0,0,0,0,0,0,0,0,-1,1560,1569,0,0
343,-545,0,0,0,0,0,0,0,0,0,-1,1567,1569,0,0
350,-545,0,0,0,0,0,0,0,0,0,-1,1574,1569,0,0
357,-545,0,0,0,0,0,0,0,0,0,-1,1581,1569,0,0
364,-545,7.19495,4.88098,0,0,0,0,0,0,0,-1,1588,1569,7.19497,-4.88095
371,-545,7.82324,3.84302,0,0,0,0,0,0,0,-1,1595,1569,7.82324,-3.84307
378,-545,7.24146,4.54224,0,0,0,0,0,0,0,-1,1602,1569,7.24145,-4.54226
385,-545,8.58447,1.16125,0,0,0,0,0,0,0,-1,1609,1569,8.5845,-1.1612
392,-545,12.5654,3.89526,0,0,0,0,0,0,0,-1,1616,1569,12.5655,-3.89532
399,-545,11.5869,5.6333,0,0,0,0,0,0,0,-1,1623,1569,11.5869,-5.63326
406,-545,11.234,6.36414,0,0,0,0,0,0,0,-1,1630,1569,11.234,-6.3641
413,-545,12.1521,13.4817,0,0,0,0,0,0,0,-1,1637,1569,12.1521,-13.4817
420,-545,9.23816,9.77368,0,0,0,0,0,0,0,-1,1644,1569,9.2382,-9.77372
427,-545,7.84106,10.8777,0,0,0,0,0,0,0,-1,1651,1569,7.8411,-10.8777
434,-545,8.42981,10.9283,0.0167693,-0.0344204,0.00914633,0.0183544,-0.0360056,0.171604,0.0319315,0.0429973,1658,1569,8.42979,-10.9283
441,-545,9.32813,11.0907,0.00684388,-0.0361771,0.0130056,0.0104699,-0.0398031,0.271903,0.0306278,0.0489649,1665,1569,9.32807,-11.0907
448,-545,9.67322,11.6061,0,0,0,0,0,0,0,-1,1672,1569,9.67328,-11.606
455,-545,10.015,12.0032,-0.00360054,-0.0346569,0.0174565,0.00423476,-0.0424922,0.421896,0.0298401,0.0445807,1679,1569,10.0151,-12.0032
462,-545,9.21472,11.3726,-0.00609907,-0.0313569,0.0174232,0.00279079,-0.0402468,0.471799,0.0278082,0.0415484,1686,1569,9.21478,-11.3726
469,-545,8.99658,11.9833,0,0,0,0,0,0,0,-1,1693,1569,8.99655,-11.9833
476,-545,8.95935,11.9143,-0.00734024,-0.0230696,0.0146819,0.00145078,-0.0318606,0.53951,0.0217401,0.0362795,1700,1569,8.95931,-11.9143
483,-545,8.88269,11.8579,-0.00655006,-0.0186075,0.0127159,0.00149383,-0.0266514,0.564036,0.0182859,0.0136843,1707,1569,8.88266,-11.858
490,-545,8.8656,11.677,-0.00641723,-0.0147892,0.0115555,0.00168709,-0.0228935,0.611625,0.0158547,0.0118051,1714,1569,8.86561,-11.677
497,-545,8.85535,11.4999,-0.00565331,-0.0110679,0.00918936,0.00121924,-0.0179405,0.642144,0.0123868,0.0161616,1721,1569,8.8554,-11.4998
504,-545,8.87903,11.3029,-0.00389354,-0.00778219,0.00672956,0.00116695,-0.0128427,0.644766,0.00897609,0.0154194,1728,1569,8.87906,-11.3028
511,-545,8.86877,11.0869,-0.00223538,-0.00537643,0.00485885,0.00130046,-0.00891227,0.629083,0.00641906,0.0114964,1735,1569,8.86876,-11.0869
518,-545,8.87024,10.8839,-0.00115338,-0.00305284,0.00354442,0.00156634,-0.00577256,0.654498,0.00446307,0.0127071,1742,1569,8.87021,-10.884
525,-545,8.87256,10.6807,-0.000660769,-0.00161524,0.00235814,0.00126794,-0.00354395,0.685557,0.00287987,0.0129141,1749,1569,8.8726,-10.6807
532,-545,8.8739,10.4702,-6.09141e-05,-0.000268216,0.00127135,0.00111101,-0.00144014,0.744724,0.00147699,0.0129035,1756,1569,8.87388,-10.4702
539,-545,8.86536,10.2312,0.000744668,0.000669436,0.000358488,0.00106751,0.000346596,0.733125,0.000628829,0.0156577,1763,1569,8.86533,-10.2313
546,-545,8.86511,9.99768,0.00179497,0.00154199,-0.000565267,0.00224773,0.00108924,-0.675327,0.00129793,0.0175073,1770,1569,8.86514,-9.99768
553,-545,8.9021,9.7771,0.00329796,0.00251978,-0.0015777,0.00453384,0.00128391,-0.664501,0.0026984,0.0254567,1777,1569,8.90214,-9.77712
560,-545,8.90186,9.52454,0.00524192,0.00379211,-0.00242428,0.00704736,0.00198667,-0.64012,0.00419584,0.0255625,1784,1569,8.90182,-9.52454
567,-545,8.77966,9.41467,0.00734041,0.0051731,-0.00350622,0.00992661,0.0025869,-0.635522,0.00594607,0.0386237,1791,1569,8.77963,-9.41467
574,-545,8.75977,9.17566,0.00982788,0.0068403,-0.00483706,0.0133966,0.00327163,-0.635633,0.00806481,0.0329356,1798,1569,8.75979,-9.17567
581,-545,8.86646,8.87781,0.0131015,0.00913685,-0.00641322,0.0178317,0.00440655,-0.635508,0.0107251,0.0428137,1805,1569,8.86651,-8.87784
588,-545,9.16492,8.51965,0.0170633,0.0127875,-0.00948509,0.0246485,0.00520237,-0.674553,0.0150019,0.0489438,1812,1569,9.16494,-8.51959
595,-545,9.36633,7.98376,0,0,0,0,0,0,0,-1,1819,1569,9.36639,-7.98375
602,-545,8.82117,6.32214,0,0,0,0,0,0,0,-1,1826,1569,8.82121,-6.32217
609,-545,10.2406,5.22351,0,0,0,0,0,0,0,-1,1833,1569,10.2406,-5.22353
616,-545,11.701,3.93188,0,0,0,0,0,0,0,-1,1840,1569,11.701,-3.93191
623,-545,13.2139,2.32043,0,0,0,0,0,0,0,-1,1847,1569,13.2139,-2.32042
630,-545,0,0,0,0,0,0,0,0,0,-1,1854,1569,0,0
637,-545,0,0,0,0,0,0,0,0,0,-1,1861,1569,0,0
644,-545,0,0,0,0,0,0,0,0,0,-1,1868,1569,0,0
651,-545,0,0,0,0,0,0,0,0,0,-1,1875,1569,0,0
658,-545,0,0,0,0,0,0,0,0,0,-1,1882,1569,0,0
665,-545,0,0,0,0,0,0,0,0,0,-1,1889,1569,0,0
672,-545,0,0,0,0,0,0,0,0,0,-1,1896,1569,0,0
679,-545,0,0,0,0,0,0,0,0,0,-1,1903,1569,0,0
686,-545,0,0,0,0,0,0,0,0,0,-1,1910,1569,0,0
693,-545,0,0,0,0,0,0,0,0,0,-1,1917,1569,0,0
700,-545,0,0,0,0,0,0,0,0,0,-1,1924,1569,0,0
707,-545,0,0,0,0,0,0,0,0,0,-1,1931,1569,0,0
714,-545,0,0,0,0,0,0,0,0,0,-1,1938,1569,0,0
721,-545,0,0,0,0,0,0,0,0,0,-1,1945,1569,0,0
728,-545,0,0,0,0,0,0,0,0,0,-1,1952,1569,0,0
735,-545,0,0,0,0,0,0,0,0,0,-1,1959,1569,0,0
742,-545,0,0,0,0,0,0,0,0,0,-1,1966,1569,0,0
749,-545,0,0,0,0,0,0,0,0,0,-1,1973,1569,0,0
756,-545,0,0,0,0,0,0,0,0,0,-1,1980,1569,0,0
763,-545,0,0,0,0,0,0,0,0,0,-1,1987,1569,0,0
770,-545,0,0,0,0,0,0,0,0,0,-1,1994,1569,0,0
777,-545,0,0,0,0,0,0,0,0,0,-1,2001,1569,0,0
784,-545,0,0,0,0,0,0,0,0,0,-1,2008,1569,0,0
791,-545,0,0,0,0,0,0,0,0,0,-1,2015,1569,0,0
798,-545,0,0,0,0,0,0,0,0,0,-1,2022,1569,0,0
805,-545,0,0,0,0,0,0,0,0,0,-1,2029,1569,0,0
812,-545,0,0,0,0,0,0,0,0,0,-1,2036,1569,0,0
-700,-552,0,0,0,0,0,0,0,0,0,-1,524,1576,0,0
-693,-552,0,0,0,0,0,0,0,0,0,-1,531,1576,0,0
-686,-552,0,0,0,0,0,0,0,0,0,-1,538,1576,0,0
-679,-552,0,0,0,0,0,0,0,0,0,-1,545,1576,0,0
-672,-552,0,0,0,0,0,0,0,0,0,-1,552,1576,0,0
-665,-552,0,0,0,0,0,0,0,0,0,-1,559,1576,0,0
-658,-552,0,0,0,0,0,0,0,0,0,-1,566,1576,0,0
-651,-552,0,0,0,0,0,0,0,0,0,-1,573,1576,0,0
-644,-552,0,0,0,0,0,0,0,0,0,-1,580,1576,0,0
-637,-552,0,0,0,0,0,0,0,0,0,-1,587,1576,0,0
-630,-552,0,0,0,0,0,0,0,0,0,-1,594,1576,0,0
-623,-552,0,0,0,0,0,0,0,0,0,-1,601,1576,0,0
-616,-552,0,0,0,0,0,0,0,0,0,-1,608,1576,0,0
-609,-552,0,0,0,0,0,0,0,0,0,-1,615,1576,0,0
-602,-552,0,0,0,0,0,0,0,0,0,-1,622,1576,0,0
-595,-552,0,0,0,0,0,0,0,0,0,-1,629,1576,0,0
-588,-552,0,0,0,0,0,0,0,0,0,-1,636,1576,0,0
-581,-552,0,0,0,0,0,0,0,0,0,-1,643,1576,0,0
-574,-552,0,0,0,0,0,0,0,0,0,-1,650,1576,0,0
-567,-552,0,0,0,0,0,0,0,0,0,-1,657,1576,0,0
-560,-552,0,0,0,0,0,0,0,0,0,-1,664,1576,0,0
-553,-552,0,0,0,0,0,0,0,0,0,-1,671,1576,0,0
-546,-552,0,0,0,0,0,0,0,0,0,-1,678,1576,0,0
-539,-552,0,0,0,0,0,0,0,0,0,-1,685,1576,0,0
-532,-552,0,0,0,0,0,0,0,0,0,-1,692,1576,0,0
-525,-552,0,0,0,0,0,0,0,0,0,-1,699,1576,0,0
-518,-552,0,0,0,0,0,0,0,0,0,-1,706,1576,0,0
-511,-552,0,0,0,0,0,0,0,0,0,-1,713,1576,0,0
-504,-552,0,0,0,0,0,0,0,0,0,-1,720,1576,0,0
-497,-552,8.25964,-2.32227,0,0,0,0,0,0,0,-1,727,1576,8.25965,2.32222
-490,-552,2.92957,2.84436,0,0,0,0,0,0,0,-1,734,1576,2.92957,-2.84439
-483,-552,2.36237,3.64746,0,0,0,0,0,0,0,-1,741,1576,2.36239,-3.64741
-476,-552,0.544983,5.17517,0,0,0,0,0,0,0,-1,748,1576,0.544963,-5.17512
-469,-552,0.593445,5.6001,0,0,0,0,0,0,0,-1,755,1576,0.593453,-5.60005
-462,-552,-0.000549316,6.83704,0,0,0,0,0,0,0,-1,762,1576,-0.000577864,-6.83698
-455,-552,0.227417,7.18164,0,0,0,0,0,0,0,-1,769,1576,0.227425,-7.18158
-448,-552,0.455444,7.52625,0,0,0,0,0,0,0,-1,776,1576,0.455428,-7.52619
-441,-552,0.733826,7.59033,0.0024403,0.00445794,0.00253619,0.00617858,0.000719663,0.974689,0.00390136,0.0360689,783,1576,0.733822,-7.59031
-434,-552,0.794922,8.00476,0.00200732,0.00354522,0.00164184,0.00458926,0.000963281,1.0044,0.00279432,0.0210895,790,1576,0.794898,-8.00481
-427,-552,0.754333,8.17285,0.00153128,0.00278191,0.0010054,0.00334059,0.000972601,1.0636,0.00198398,0.0159297,797,1576,0.75436,-8.1729
-420,-552,0.776733,8.42786,0.00121687,0.00220575,0.000537777,0.00244184,0.000980782,1.15712,0.00141886,0.0182263,804,1576,0.77674,-8.42785
-413,-552,0.765503,8.65125,0.000979678,0.00185204,1.75839e-05,0.0018524,0.000979324,1.55065,0.00107007,0.0164439,811,1576,0.765507,-8.6513
-406,-552,0.748962,8.88257,0.000720492,0.00085411,-0.000228968,0.00102582,0.000548785,-0.927348,0.000592739,0.0133709,818,1576,0.748965,-8.88257
-399,-552,0.744385,9.12317,0.00024359,0.000140875,-0.000581314,0.000775811,-0.000391346,-0.741339,0.000685937,0.0132275,825,1576,0.744357,-9.12314
-392,-552,0.721375,9.36108,-3.82923e-05,-0.000646164,-0.000846108,0.000556813,-0.00124127,-0.612967,0.0010629,0.0135772,832,1576,0.721372,-9.36113
-385,-552,0.726013,9.62793,-5.23526e-05,-0.00148286,-0.00110715,0.000550484,-0.0020857,-0.498607,0.00160573,0.0122833,839,1576,0.726034,-9.62787
-378,-552,0.720459,9.83826,0.00012546,-0.00218156,-0.00116148,0.000608903,-0.002665,-0.39442,0.00201061,0.014015,846,1576,0.72045,-9.83822
-371,-552,0.721497,10.0702,0.000370998,-0.00280292,-0.00121671,0.000783745,-0.00321567,-0.32705,0.00244723,0.0176246,853,1576,0.721522,-10.0702
-364,-552,0.731445,10.2917,0.000691366,-0.00334049,-0.00117067,0.00100663,-0.00365575,-0.263059,0.00283296,0.0137208,860,1576,0.731435,-10.2918
-357,-552,0.743469,10.4962,0.0012281,-0.00352569,-0.00100818,0.00143308,-0.00373067,-0.200578,0.00307809,0.00936986,867,1576,0.743457,-10.4962
-350,-552,0.74054,10.7311,0.00196383,-0.0036846,-0.000736742,0.00205835,-0.00377911,-0.12759,0.00341872,0.00883854,874,1576,0.740564,-10.7311
-343,-552,0.736023,10.9509,0.00275108,-0.0035254,-0.000430364,0.00278045,-0.00355477,-0.0681426,0.00366674,0.00961205,881,1576,0.73601,-10.9509
-336,-552,0.789795,11.1055,0.00366503,-0.00294517,-0.000235029,0.00367338,-0.00295352,-0.0354958,0.00383356,0.0143088,888,1576,0.789814,-11.1055
-329,-552,0.862427,11.2854,0.00457521,-0.00203147,0.000221742,0.00458264,-0.00203891,0.033513,0.00391585,0.0295817,895,1576,0.862412,-11.2854
-322,-552,1.02478,11.564,0,0,0,0,0,0,0,-1,902,1576,1.02481,-11.564
-315,-552,1.20648,12.0803,0,0,0,0,0,0,0,-1,909,1576,1.20646,-12.0803
-308,-552,1.06836,12.4149,0,0,0,0,0,0,0,-1,916,1576,1.06837,-12.4149
-301,-552,-0.17926,12.8596,0,0,0,0,0,0,0,-1,923,1576,-0.179234,-12.8596
-294,-552,-0.0730591,13.3799,0,0,0,0,0,0,0,-1,930,1576,-0.0730346,-13.3799
-287,-552,0.489014,11.6031,0,0,0,0,0,0,0,-1,937,1576,0.488988,-11.6031
-280,-552,1.70819,8.4104,0,0,0,0,0,0,0,-1,944,1576,1.70818,-8.4104
-273,-552,1.64587,10.6685,0,0,0,0,0,0,0,-1,951,1576,1.6459,-10.6685
-266,-552,-1.32678,8.05688,0,0,0,0,0,0,0,-1,958,1576,-1.32677,-8.05683
-259,-552,-5.54321,8.31213,0,0,0,0,0,0,0,-1,965,1576,-5.54324,-8.31214
-252,-552,-1.93445,7.81543,0,0,0,0,0,0,0,-1,972,1576,-1.93445,-7.81546
-245,-552,-2.53613,6.92212,0,0,0,0,0,0,0,-1,979,1576,-2.53614,-6.92216
-238,-552,-3.13782,6.02881,0,0,0,0,0,0,0,-1,986,1576,-3.13783,-6.02886
-231,-552,-3.14673,3.55884,0,0,0,0,0,0,0,-1,993,1576,-3.14675,-3.55884
-224,-552,0,0,0,0,0,0,0,0,0,-1,1000,1576,0,0
-217,-552,0,0,0,0,0,0,0,0,0,-1,1007,1576,0,0
-210,-552,0,0,0,0,0,0,0,0,0,-1,1014,1576,0,0
-203,-552,0,0,0,0,0,0,0,0,0,-1,1021,1576,0,0
-196,-552,0,0,0,0,0,0,0,0,0,-1,1028,1576,0,0
-189,-552,0,0,0,0,0,0,0,0,0,-1,1035,1576,0,0
-182,-552,0,0,0,0,0,0,0,0,0,-1,1042,1576,0,0
-175,-552,0,0,0,0,0,0,0,0,0,-1,1049,1576,0,0
-168,-552,0,0,0,0,0,0,0,0,0,-1,1056,1576,0,0
-161,-552,0,0,0,0,0,0,0,0,0,-1,1063,1576,0,0
-154,-552,0,0,0,0,0,0,0,0,0,-1,1070,1576,0,0
-147,-552,0,0,0,0,0,0,0,0,0,-1,1077,1576,0,0
-140,-552,0,0,0,0,0,0,0,0,0,-1,1084,1576,0,0
-133,-552,0,0,0,0,0,0,0,0,0,-1,1091,1576,0,0
-126,-552,0,0,0,0,0,0,0,0,0,-1,1098,1576,0,0
-119,-552,0,0,0,0,0,0,0,0,0,-1,1105,1576,0,0
-112,-552,0,0,0,0,0,0,0,0,0,-1,1112,1576,0,0
-105,-552,0,0,0,0,0,0,0,0,0,-1,1119,1576,0,0
-98,-552,0,0,0,0,0,0,0,0,0,-1,1126,1576,0,0
-91,-552,0,0,0,0,0,0,0,0,0,-1,1133,1576,0,0
-84,-552,0,0,0,0,0,0,0,0,0,-1,1140,1576,0,0
-77,-552,0,0,0,0,0,0,0,0,0,-1,1147,1576,0,0
-70,-552,0,0,0,0,0,0,0,0,0,-1,1154,1576,0,0
-63,-552,0,0,0,0,0,0,0,0,0,-1,1161,1576,0,0
-56,-552,0,0,0,0,0,0,0,0,0,-1,1168,1576,0,0
-49,-552,0,0,0,0,0,0,0,0,0,-1,1175,1576,0,0
-42,-552,0,0,0,0,0,0,0,0,0,-1,1182,1576,0,0
-35,-552,0,0,0,0,0,0,0,0,0,-1,1189,1576,0,0
-28,-552,0,0,0,0,0,0,0,0,0,-1,1196,1576,0,0
-21,-552,0,0,0,0,0,0,0,0,0,-1,1203,1576,0,0
-14,-552,0,0,0,0,0,0,0,0,0,-1,1210,1576,0,0
-7,-552,0,0,0,0,0,0,0,0,0,-1,1217,1576,0,0
0,-552,0,0,0,0,0,0,0,0,0,-1,1224,1576,0,0
7,-552,0,0,0,0,0,0,0,0,0,-1,1231,1576,0,0
14,-552,0,0,0,0,0,0,0,0,0,-1,1238,1576,0,0
21,-552,0,0,0,0,0,0,0,0,0,-1,1245,1576,0,0
28,-552,0,0,0,0,0,0,0,0,0,-1,1252,1576,0,0
35,-552,0,0,0,0,0,0,0,0,0,-1,1259,1576,0,0
42,-552,0,0,0,0,0,0,0,0,0,-1,1266,1576,0,0
49,-552,0,0,0,0,0,0,0,0,0,-1,1273,1576,0,0
56,-552,0,0,0,0,0,0,0,0,0,-1,1280,1576,0,0
63,-552,0,0,0,0,0,0,0,0,0,-1,1287,1576,0,0
70,-552,0,0,0,0,0,0,0,0,0,-1,1294,1576,0,0
77,-552,0,0,0,0,0,0,0,0,0,-1,1301,1576,0,0
84,-552,0,0,0,0,0,0,0,0,0,-1,1308,1576,0,0
91,-552,0,0,0,0,0,0,0,0,0,-1,1315,1576,0,0
98,-552,0,0,0,0,0,0,0,0,0,-1,1322,1576,0,0
105,-552,0,0,0,0,0,0,0,0,0,-1,1329,1576,0,0
112,-552,0,0,0,0,0,0,0,0,0,-1,1336,1576,0,0
119,-552,0,0,0,0,0,0,0,0,0,-1,1343,1576,0,0
126,-552,0,0,0,0,0,0,0,0,0,-1,1350,1576,0,0
133,-552,0,0,0,0,0,0,0,0,0,-1,1357,1576,0,0
140,-552,0,0,0,0,0,0,0,0,0,-1,1364,1576,0,0
147,-552,0,0,0,0,0,0,0,0,0,-1,1371,1576,0,0
154,-552,0,0,0,0,0,0,0,0,0,-1,1378,1576,0,0
161,-552,0,0,0,0,0,0,0,0,0,-1,1385,1576,0,0
168,-552,0,0,0,0,0,0,0,0,0,-1,1392,1576,0,0
175,-552,0,0,0,0,0,0,0,0,0,-1,1399,1576,0,0
182,-552,0,0,0,0,0,0,0,0,0,-1,1406,1576,0,0
189,-552,0,0,0,0,0,0,0,0,0,-1,1413,1576,0,0
196,-552,0,0,0,0,0,0,0,0,0,-1,1420,1576,0,0
203,-552,0,0,0,0,0,0,0,0,0,-1,1427,1576,0,0
210,-552,0,0,0,0,0,0,0,0,0,-1,1434,1576,0,0
217,-552,0,0,0,0,0,0,0,0,0,-1,1441,1576,0,0
224,-552,0,0,0,0,0,0,0,0,0,-1,1448,1576,0,0
231,-552,0,0,0,0,0,0,0,0,0,-1,1455,1576,0,0
238,-552,0,0,0,0,0,0,0,0,0,-1,1462,1576,0,0
245,-552,0,0,0,0,0,0,0,0,0,-1,1469,1576,0,0
252,-552,0,0,0,0,0,0,0,0,0,-1,1476,1576,0,0
259,-552,0,0,0,0,0,0,0,0,0,-1,1483,1576,0,0
266,-552,0,0,0,0,0,0,0,0,0,-1,1490,1576,0,0
273,-552,0,0,0,0,0,0,0,0,0,-1,1497,1576,0,0
280,-552,0,0,0,0,0,0,0,0,0,-1,1504,1576,0,0
287,-552,0,0,0,0,0,0,0,0,0,-1,1511,1576,0,0
294,-552,0,0,0,0,0,0,0,0,0,-1,1518,1576,0,0
301,-552,0,0,0,0,0,0,0,0,0,-1,1525,1576,0,0
308,-552,0,0,0,0,0,0,0,0,0,-1,1532,1576,0,0
315,-552,0,0,0,0,0,0,0,0,0,-1,1539,1576,0,0
322,-552,0,0,0,0,0,0,0,0,0,-1,1546,1576,0,0
329,-552,0,0,0,0,0,0,0,0,0,-1,1553,1576,0,0
336,-552,0,0,0,0,0,0,0,0,0,-1,1560,1576,0,0
343,-552,0,0,0,0,0,0,0,0,0,-1,1567,1576,0,0
350,-552,4.97876,4.09888,0,0,0,0,0,0,0,-1,1574,1576,4.97875,-4.09883
357,-552,5.18469,4.10706,0,0,0,0,0,0,0,-1,1581,1576,5.1847,-4.10702
364,-552,5.80872,5.07031,0,0,0,0,0,0,0,-1,1588,1576,5.80874,-5.07037
371,-552,7.10657,5.64783,0,0,0,0,0,0,0,-1,1595,1576,7.10651,-5.64786
378,-552,6.44446,4.91492,0,0,0,0,0,0,0,-1,1602,1576,6.44448,-4.91496
385,-552,12.8276,3.16504,0,0,0,0,0,0,0,-1,1609,1576,12.8276,-3.16503
392,-552,12.1301,4.3363,0,0,0,0,0,0,0,-1,1616,1576,12.1302,-4.33631
399,-552,11.3486,5.6012,0,0,0,0,0,0,0,-1,1623,1576,11.3486,-5.60115
406,-552,10.7863,6.42542,0,0,0,0,0,0,0,-1,1630,1576,10.7863,-6.42536
413,-552,8.39307,10.365,0,0,0,0,0,0,0,-1,1637,1576,8.3931,-10.365
420,-552,10.2306,12.7225,0,0,0,0,0,0,0,-1,1644,1576,10.2305,-12.7226
427,-552,9.36389,11.0585,0,0,0,0,0,0,0,-1,1651,1576,9.36388,-11.0585
434,-552,9.41284,11.0404,0.00937205,-0.0292571,0.0118111,0.0126971,-0.0325822,0.27442,0.0269693,0.0454925,1658,1576,9.41284,-11.0404
441,-552,9.37646,11.2496,0.00297169,-0.0297305,0.0135053,0.00782793,-0.0345868,0.345184,0.026062,0.0464091,1665,1576,9.37647,-11.2496
448,-552,9.36963,11.6759,-0.00117969,-0.0293749,0.0145658,0.00499349,-0.0355481,0.400865,0.0255266,0.045242,1672,1576,9.36968,-11.6759
455,-552,9.18323,12.0176,-0.00399694,-0.0273147,0.0149081,0.00326983,-0.0345815,0.453548,0.024218,0.0413028,1679,1576,9.18322,-12.0175
462,-552,8.92224,12.0179,-0.00552194,-0.0244816,0.0142587,0.00212067,-0.0321242,0.492028,0.0221569,0.0395483,1686,1576,8.92223,-12.0179
469,-552,8.72888,12.0621,-0.00608654,-0.0213013,0.0130416,0.00140428,-0.0287921,0.521368,0.0196795,0.0363253,1693,1576,8.72887,-12.0621
476,-552,8.65002,12.0803,-0.00581548,-0.0178844,0.0114203,0.00106664,-0.0247665,0.542345,0.0168778,0.0161346,1700,1576,8.65002,-12.0803
483,-552,8.67017,11.8759,-0.00500899,-0.0143402,0.00967879,0.00107003,-0.0204192,0.560808,0.0139831,0.0133426,1707,1576,8.67014,-11.8758
490,-552,8.65747,11.6654,-0.00473094,-0.011274,0.00863904,0.00123528,-0.0172402,0.604397,0.0119266,0.0145076,1714,1576,8.65749,-11.6654
497,-552,8.66675,11.4596,-0.00401981,-0.00833967,0.00667083,0.000832051,-0.0131915,0.628831,0.00908442,0.0209526,1721,1576,8.66669,-11.4596
504,-552,8.67578,11.2816,-0.00257658,-0.00573192,0.00468871,0.000792777,-0.00910128,0.623107,0.0063483,0.023035,1728,1576,8.67581,-11.2816
511,-552,8.67554,11.0844,-0.00120578,-0.00380915,0.00319358,0.000941208,-0.00595614,0.59188,0.00431882,0.0179821,1735,1576,8.67552,-11.0844
518,-552,8.6825,10.8835,-0.000325617,-0.00196717,0.00217565,0.00117892,-0.00347171,0.605024,0.0027917,0.0150731,1742,1576,8.68247,-10.8835
525,-552,8.67773,10.6816,5.90307e-05,-0.000838885,0.00128608,0.000972267,-0.00175212,0.617467,0.00159426,0.0133481,1749,1576,8.67777,-10.6817
532,-552,8.69104,10.4576,0.000540847,0.000194727,0.000504121,0.000900786,-0.000165213,0.620056,0.000662498,0.0141326,1756,1576,8.69108,-10.4576
539,-552,8.67505,10.2318,0.00128158,0.00104195,-0.000216233,0.00140897,0.000914558,-0.53241,0.000825438,0.0174459,1763,1576,8.67502,-10.2318
546,-552,8.67822,10.0292,0.00228719,0.00188766,-0.000975216,0.00308289,0.00109196,-0.684375,0.00180496,0.020351,1770,1576,8.67827,-10.0291
553,-552,8.73779,9.78052,0.00384689,0.00277295,-0.00181757,0.00520515,0.00141469,-0.641767,0.00310779,0.0235281,1777,1576,8.73777,-9.78047
560,-552,8.80701,9.48682,0,0,0,0,0,0,0,-1,1784,1576,8.80695,-9.48679
567,-552,8.7218,9.19946,0,0,0,0,0,0,0,-1,1791,1576,8.72181,-9.19949
574,-552,8.70203,9.05066,0,0,0,0,0,0,0,-1,1798,1576,8.70205,-9.05061
581,-552,8.79907,8.74756,0,0,0,0,0,0,0,-1,1805,1576,8.79905,-8.7475
588,-552,9.17993,8.56409,0,0,0,0,0,0,0,-1,1812,1576,9.17995,-8.56405
595,-552,5.36194,6.62744,0,0,0,0,0,0,0,-1,1819,1576,5.36193,-6.62742
602,-552,10.6863,4.31616,0,0,0,0,0,0,0,-1,1826,1576,10.6862,-4.31619
609,-552,12.146,3.18286,0,0,0,0,0,0,0,-1,1833,1576,12.1459,-3.18281
616,-552,13.8762,2.08167,0,0,0,0,0,0,0,-1,1840,1576,13.8763,-2.08167
623,-552,0,0,0,0,0,0,0,0,0,-1,1847,1576,0,0
630,-552,0,0,0,0,0,0,0,0,0,-1,1854,1576,0,0
637,-552,0,0,0,0,0,0,0,0,0,-1,1861,1576,0,0
644,-552,0,0,0,0,0,0,0,0,0,-1,1868,1576,0,0
651,-552,0,0,0,0,0,0,0,0,0,-1,1875,1576,0,0
658,-552,0,0,0,0,0,0,0,0,0,-1,1882,1576,0,0
665,-552,0,0,0,0,0,0,0,0,0,-1,1889,1576,0,0
672,-552,0,0,0,0,0,0,0,0,0,-1,1896,1576,0,0
679,-552,0,0,0,0,0,0,0,0,0,-1,1903,1576,0,0
686,-552,0,0,0,0,0,0,0,0,0,-1,1910,1576,0,0
693,-552,0,0,0,0,0,0,0,0,0,-1,1917,1576,0,0
700,-552,0,0,0,0,0,0,0,0,0,-1,1924,1576,0,0
707,-552,0,0,0,0,0,0,0,0,0,-1,1931,1576,0,0
714,-552,0,0,0,0,0,0,0,0,0,-1,1938,1576,0,0
721,-552,0,0,0,0,0,0,0,0,0,-1,1945,1576,0,0
728,-552,0,0,0,0,0,0,0,0,0,-1,1952,1576,0,0
735,-552,0,0,0,0,0,0,0,0,0,-1,1959,1576,0,0
742,-552,0,0,0,0,0,0,0,0,0,-1,1966,1576,0,0
749,-552,0,0,0,0,0,0,0,0,0,-1,1973,1576,0,0
756,-552,0,0,0,0,0,0,0,0,0,-1,1980,1576,0,0
763,-552,0,0,0,0,0,0,0,0,0,-1,1987,1576,0,0
770,-552,0,0,0,0,0,0,0,0,0,-1,1994,1576,0,0
777,-552,0,0,0,0,0,0,0,0,0,-1,2001,1576,0,0
784,-552,0,0,0,0,0,0,0,0,0,-1,2008,1576,0,0
791,-552,0,0,0,0,0,0,0,0,0,-1,2015,1576,0,0
798,-552,0,0,0,0,0,0,0,0,0,-1,2022,1576,0,0
805,-552,0,0,0,0,0,0,0,0,0,-1,2029,1576,0,0
812,-552,0,0,0,0,0,0,0,0,0,-1,2036,1576,0,0
-700,-559,0,0,0,0,0,0,0,0,0,-1,524,1583,0,0
-693,-559,0,0,0,0,0,0,0,0,0,-1,531,1583,0,0
-686,-559,0,0,0,0,0,0,0,0,0,-1,538,1583,0,0
-679,-559,0,0,0,0,0,0,0,0,0,-1,545,1583,0,0
-672,-559,0,0,0,0,0,0,0,0,0,-1,552,1583,0,0
-665,-559,0,0,0,0,0,0,0,0,0,-1,559,1583,0,0
-658,-559,0,0,0,0,0,0,0,0,0,-1,566,1583,0,0
-651,-559,0,0,0,0,0,0,0,0,0,-1,573,1583,0,0
-644,-559,0,0,0,0,0,0,0,0,0,-1,580,1583,0,0
-637,-559,0,0,0,0,0,0,0,0,0,-1,587,1583,0,0
-630,-559,0,0,0,0,0,0,0,0,0,-1,594,1583,0,0
-623,-559,0,0,0,0,0,0,0,0,0,-1,601,1583,0,0
-616,-559,0,0,0,0,0,0,0,0,0,-1,608,1583,0,0
-609,-559,0,0,0,0,0,0,0,0,0,-1,615,1583,0,0
-602,-559,0,0,0,0,0,0,0,0,0,-1,622,1583,0,0
-595,-559,0,0,0,0,0,0,0,0,0,-1,629,1583,0,0
-588,-559,0,0,0,0,0,0,0,0,0,-1,636,1583,0,0
-581,-559,0,0,0,0,0,0,0,0,0,-1,643,1583,0,0
-574,-559,0,0,0,0,0,0,0,0,0,-1,650,1583,0,0
-567,-559,0,0,0,0,0,0,0,0,0,-1,657,1583,0,0
-560,-559,0,0,0,0,0,0,0,0,0,-1,664,1583,0,0
-553,-559,0,0,0,0,0,0,0,0,0,-1,671,1583,0,0
-546,-559,0,0,0,0,0,0,0,0,0,-1,678,1583,0,0
-539,-559,0,0,0,0,0,0,0,0,0,-1,685,1583,0,0
-532,-559,0,0,0,0,0,0,0,0,0,-1,692,1583,0,0
-525,-559,0,0,0,0,0,0,0,0,0,-1,699,1583,0,0
-518,-559,0,0,0,0,0,0,0,0,0,-1,706,1583,0,0
-511,-559,0,0,0,0,0,0,0,0,0,-1,713,1583,0,0
-504,-559,0,0,0,0,0,0,0,0,0,-1,720,1583,0,0
-497,-559,0,0,0,0,0,0,0,0,0,-1,727,1583,0,0
-490,-559,3.45331,2.42639,0,0,0,0,0,0,0,-1,734,1583,3.45332,-2.42636
-483,-559,2.91504,3.2135,0,0,0,0,0,0,0,-1,741,1583,2.91503,-3.21356
-476,-559,-0.678833,-0.312988,0,0,0,0,0,0,0,-1,748,1583,-0.678854,0.313026
-469,-559,0.255676,1.23999,0,0,0,0,0,0,0,-1,755,1583,0.255656,-1.24001
-462,-559,0.973938,2.96448,0,0,0,0,0,0,0,-1,762,1583,0.973912,-2.96446
-455,-559,0.277039,7.03625,0,0,0,0,0,0,0,-1,769,1583,0.277032,-7.03627
-448,-559,0.88562,6.45117,0,0,0,0,0,0,0,-1,776,1583,0.885645,-6.45113
-441,-559,0.901855,7.39832,0,0,0,0,0,0,0,-1,783,1583,0.901836,-7.3983
-434,-559,1.03809,8.04724,0.00249712,0.00471195,0.00168956,0.00562468,0.00158439,1.0755,0.00334901,0.0358377,790,1583,1.0381,-8.0473
-427,-559,1.02161,8.25977,0.00178231,0.00368646,0.000941358,0.00407327,0.0013955,1.18093,0.00239023,0.021767,797,1583,1.02161,-8.25973
-420,-559,0.965637,8.44678,0.00127087,0.00294419,0.000401637,0.0030356,0.00117946,1.34702,0.00176706,0.0221013,804,1583,0.965661,-8.44684
-413,-559,0.979492,8.68542,0.000907216,0.00258057,-0.000141367,0.00259243,0.000895357,-1.48711,0.00152041,0.0125132,811,1583,0.979509,-8.68545
-406,-559,0.983154,8.91931,0.000649654,0.00154342,-0.000297494,0.00163338,0.000559688,-1.27713,0.000958473,0.00985917,818,1583,0.983148,-8.91925
-399,-559,0.980042,9.14954,0.000109099,0.000873869,-0.000589062,0.00119377,-0.000210807,-1.07328,0.000874628,0.0125655,825,1583,0.980028,-9.14957
-392,-559,0.938782,9.36121,-0.000221501,0.000161268,-0.000768507,0.000761862,-0.000822096,-0.907433,0.000914719,0.0153655,832,1583,0.938812,-9.36119
-385,-559,0.930847,9.61267,-0.000259499,-0.000591794,-0.000954304,0.000543014,-0.00139431,-0.699211,0.00115395,0.0151657,839,1583,0.930868,-9.61269
-378,-559,0.951843,9.84033,-8.71093e-05,-0.00118247,-0.000944346,0.00045688,-0.00172646,-0.522623,0.00132969,0.0139637,846,1583,0.951864,-9.84033
-371,-559,0.947754,10.0665,0.000186168,-0.00167024,-0.000919084,0.00056421,-0.00204828,-0.390231,0.00158737,0.0204896,853,1583,0.947758,-10.0665
-364,-559,0.972961,10.278,0.000484275,-0.00211309,-0.000826247,0.000724833,-0.00235365,-0.283313,0.00185844,0.0182347,860,1583,0.972983,-10.2779
-357,-559,0.962158,10.4963,0.000999914,-0.0022416,-0.000635838,0.00112018,-0.00236186,-0.18693,0.00205252,0.0112182,867,1583,0.962171,-10.4963
-350,-559,0.96637,10.7251,0.00169869,-0.00233663,-0.000391424,0.00173631,-0.00237425,-0.0958094,0.00238274,0.00941388,874,1583,0.966384,-10.725
-343,-559,0.969543,10.9529,0.00240266,-0.00216138,-0.000139183,0.0024069,-0.00216562,-0.0304579,0.00264117,0.0104079,881,1583,0.969568,-10.9528
-336,-559,0.954895,11.1464,0.00319105,-0.00170216,-6.07638e-05,0.0031918,-0.00170292,-0.0124154,0.00286922,0.0113399,888,1583,0.954866,-11.1464
-329,-559,1.00775,11.3997,0.00391968,-0.0010036,0.000155661,0.00392459,-0.00100851,0.0315753,0.00300943,0.0158056,895,1583,1.00776,-11.3996
-322,-559,1.091,11.725,0.00455993,-0.000108361,0.000311627,0.00458064,-0.000129072,0.0663615,0.00309768,0.0401879,902,1583,1.09102,-11.7249
-315,-559,1.15643,11.8817,0.00523234,0.000873336,0.000123648,0.00523584,0.000869832,0.0283358,0.00323978,0.0437409,909,1583,1.15641,-11.8817
-308,-559,1.09283,12.1287,0.00611773,0.00207501,-0.000459965,0.0061694,0.00202334,-0.111871,0.0036315,0.0419337,916,1583,1.09283,-12.1286
-301,-559,1.07574,12.3534,0,0,0,0,0,0,0,-1,923,1583,1.07574,-12.3535
-294,-559,0.485352,11.9048,0,0,0,0,0,0,0,-1,930,1583,0.485329,-11.9048
-287,-559,-1.12848,12.4937,0,0,0,0,0,0,0,-1,937,1583,-1.12846,-12.4936
-280,-559,1.41132,11.9252,0,0,0,0,0,0,0,-1,944,1583,1.41134,-11.9252
-273,-559,2.12836,10.3059,0,0,0,0,0,0,0,-1,951,1583,2.12839,-10.3059
-266,-559,-0.597046,6.68933,0,0,0,0,0,0,0,-1,958,1583,-0.597031,-6.68937
-259,-559,-7.00311,8.62756,0,0,0,0,0,0,0,-1,965,1583,-7.00312,-8.6275
-252,-559,-9.4483,2.87805,0,0,0,0,0,0,0,-1,972,1583,-9.44829,-2.87805
-245,-559,-4.80804,7.1803,0,0,0,0,0,0,0,-1,979,1583,-4.80804,-7.18027
-238,-559,-6.69635,3.37744,0,0,0,0,0,0,0,-1,986,1583,-6.69632,-3.37743
-231,-559,-5.29871,3.61853,0,0,0,0,0,0,0,-1,993,1583,-5.29869,-3.61849
-224,-559,-2.28033,3.77515,0,0,0,0,0,0,0,-1,1000,1583,-2.28032,-3.7752
-217,-559,0,0,0,0,0,0,0,0,0,-1,1007,1583,0,0
-210,-559,0,0,0,0,0,0,0,0,0,-1,1014,1583,0,0
-203,-559,0,0,0,0,0,0,0,0,0,-1,1021,1583,0,0
-196,-559,0,0,0,0,0,0,0,0,0,-1,1028,1583,0,0
-189,-559,0,0,0,0,0,0,0,0,0,-1,1035,1583,0,0
-182,-559,0,0,0,0,0,0,0,0,0,-1,1042,1583,0,0
-175,-559,0,0,0,0,0,0,0,0,0,-1,1049,1583,0,0
-168,-559,0,0,0,0,0,0,0,0,0,-1,1056,1583,0,0
-161,-559,0,0,0,0,0,0,0,0,0,-1,1063,1583,0,0
-154,-559,0,0,0,0,0,0,0,0,0,-1,1070,1583,0,0
-147,-559,0,0,0,0,0,0,0,0,0,-1,1077,1583,0,0
-140,-559,0,0,0,0,0,0,0,0,0,-1,1084,1583,0,0
-133,-559,0,0,0,0,0,0,0,0,0,-1,1091,1583,0,0
-126,-559,0,0,0,0,0,0,0,0,0,-1,1098,1583,0,0
-119,-559,0,0,0,0,0,0,0,0,0,-1,1105,1583,0,0
-112,-559,0,0,0,0,0,0,0,0,0,-1,1112,1583,0,0
-105,-559,0,0,0,0,0,0,0,0,0,-1,1119,1583,0,0
-98,-559,0,0,0,0,0,0,0,0,0,-1,1126,1583,0,0
-91,-559,0,0,0,0,0,0,0,0,0,-1,1133,1583,0,0
-84,-559,0,0,0,0,0,0,0,0,0,-1,1140,1583,0,0
-77,-559,0,0,0,0,0,0,0,0,0,-1,1147,1583,0,0
-70,-559,0,0,0,0,0,0,0,0,0,-1,1154,1583,0,0
-63,-559,0,0,0,0,0,0,0,0,0,-1,1161,1583,0,0
-56,-559,0,0,0,0,0,0,0,0,0,-1,1168,1583,0,0
-49,-559,0,0,0,0,0,0,0,0,0,-1,1175,1583,0,0
-42,-559,0,0,0,0,0,0,0,0,0,-1,1182,1583,0,0
-35,-559,0,0,0,0,0,0,0,0,0,-1,1189,1583,0,0
-28,-559,0,0,0,0,0,0,0,0,0,-1,1196,1583,0,0
-21,-559,0,0,0,0,0,0,0,0,0,-1,1203,1583,0,0
-14,-559,0,0,0,0,0,0,0,0,0,-1,1210,1583,0,0
-7,-559,0,0,0,0,0,0,0,0,0,-1,1217,1583,0,0
0,-559,0,0,0,0,0,0,0,0,0,-1,1224,1583,0,0
7,-559,0,0,0,0,0,0,0,0,0,-1,1231,1583,0,0
14,-559,0,0,0,0,0,0,0,0,0,-1,1238,1583,0,0
21,-559,0,0,0,0,0,0,0,0,0,-1,1245,1583,0,0
28,-559,0,0,0,0,0,0,0,0,0,-1,1252,1583,0,0
35,-559,0,0,0,0,0,0,0,0,0,-1,1259,1583,0,0
42,-559,0,0,0,0,0,0,0,0,0,-1,1266,1583,0,0
49,-559,0,0,0,0,0,0,0,0,0,-1,1273,1583,0,0
56,-559,0,0,0,0,0,0,0,0,0,-1,1280,1583,0,0
63,-559,0,0,0,0,0,0,0,0,0,-1,1287,1583,0,0
70,-559,0,0,0,0,0,0,0,0,0,-1,1294,1583,0,0
77,-559,0,0,0,0,0,0,0,0,0,-1,1301,1583,0,0
84,-559,0,0,0,0,0,0,0,0,0,-1,1308,1583,0,0
91,-559,0,0,0,0,0,0,0,0,0,-1,1315,1583,0,0
98,-559,0,0,0,0,0,0,0,0,0,-1,1322,1583,0,0
105,-559,0,0,0,0,0,0,0,0,0,-1,1329,1583,0,0
112,-559,0,0,0,0,0,0,0,0,0,-1,1336,1583,0,0
119,-559,0,0,0,0,0,0,0,0,0,-1,1343,1583,0,0
126,-559,0,0,0,0,0,0,0,0,0,-1,1350,1583,0,0
133,-559,0,0,0,0,0,0,0,0,0,-1,1357,1583,0,0
140,-559,0,0,0,0,0,0,0,0,0,-1,1364,1583,0,0
147,-559,0,0,0,0,0,0,0,0,0,-1,1371,1583,0,0
154,-559,0,0,0,0,0,0,0,0,0,-1,1378,1583,0,0
161,-559,0,0,0,0,0,0,0,0,0,-1,1385,1583,0,0
168,-559,0,0,0,0,0,0,0,0,0,-1,1392,1583,0,0
175,-559,0,0,0,0,0,0,0,0,0,-1,1399,1583,0,0
182,-559,0,0,0,0,0,0,0,0,0,-1,1406,1583,0,0
189,-559,0,0,0,0,0,0,0,0,0,-1,1413,1583,0,0
196,-559,0,0,0,0,0,0,0,0,0,-1,1420,1583,0,0
203,-559,0,0,0,0,0,0,0,0,0,-1,1427,1583,0,0
210,-559,0,0,0,0,0,0,0,0,0,-1,1434,1583,0,0
217,-559,0,0,0,0,0,0,0,0,0,-1,1441,1583,0,0
224,-559,0,0,0,0,0,0,0,0,0,-1,1448,1583,0,0
231,-559,0,0,0,0,0,0,0,0,0,-1,1455,1583,0,0
238,-559,0,0,0,0,0,0,0,0,0,-1,1462,1583,0,0
245,-559,0,0,0,0,0,0,0,0,0,-1,1469,1583,0,0
252,-559,0,0,0,0,0,0,0,0,0,-1,1476,1583,0,0
259,-559,0,0,0,0,0,0,0,0,0,-1,1483,1583,0,0
266,-559,0,0,0,0,0,0,0,0,0,-1,1490,1583,0,0
273,-559,0,0,0,0,0,0,0,0,0,-1,1497,1583,0,0
280,-559,0,0,0,0,0,0,0,0,0,-1,1504,1583,0,0
287,-559,0,0,0,0,0,0,0,0,0,-1,1511,1583,0,0
294,-559,0,0,0,0,0,0,0,0,0,-1,1518,1583,0,0
301,-559,0,0,0,0,0,0,0,0,0,-1,1525,1583,0,0
308,-559,0,0,0,0,0,0,0,0,0,-1,1532,1583,0,0
315,-559,0,0,0,0,0,0,0,0,0,-1,1539,1583,0,0
322,-559,0,0,0,0,0,0,0,0,0,-1,1546,1583,0,0
329,-559,0,0,0,0,0,0,0,0,0,-1,1553,1583,0,0
336,-559,5.97668,3.09827,0,0,0,0,0,0,0,-1,1560,1583,5.97667,-3.09824
343,-559,5.44824,2.88696,0,0,0,0,0,0,0,-1,1567,1583,5.44819,-2.88693
350,-559,4.69775,3.27051,0,0,0,0,0,0,0,-1,1574,1583,4.69771,-3.27048
357,-559,3.88025,3.60999,0,0,0,0,0,0,0,-1,1581,1583,3.88027,-3.60998
364,-559,5.00928,5.32605,0,0,0,0,0,0,0,-1,1588,1583,5.00928,-5.32607
371,-559,1.84436,2.52441,0,0,0,0,0,0,0,-1,1595,1583,1.84441,-2.52447
378,-559,6.34753,1.53137,0,0,0,0,0,0,0,-1,1602,1583,6.34752,-1.53139
385,-559,6.95911,1.48181,0,0,0,0,0,0,0,-1,1609,1583,6.95916,-1.48175
392,-559,11.6949,4.77734,0,0,0,0,0,0,0,-1,1616,1583,11.6949,-4.77731
399,-559,11.1104,5.56909,0,0,0,0,0,0,0,-1,1623,1583,11.1103,-5.56905
406,-559,10.3385,6.48657,0,0,0,0,0,0,0,-1,1630,1583,10.3385,-6.48661
413,-559,9.76147,6.97571,0,0,0,0,0,0,0,-1,1637,1583,9.76143,-6.97574
420,-559,7.77124,10.5851,0,0,0,0,0,0,0,-1,1644,1583,7.77128,-10.585
427,-559,10.1022,12.5565,0,0,0,0,0,0,0,-1,1651,1583,10.1021,-12.5565
434,-559,9.23157,11.546,0,0,0,0,0,0,0,-1,1658,1583,9.23155,-11.5461
441,-559,8.68237,11.4218,0,0,0,0,0,0,0,-1,1665,1583,8.68241,-11.4218
448,-559,8.87341,11.8418,-0.00215774,-0.0231927,0.0130439,0.0040807,-0.0294312,0.446109,0.0211129,0.0471455,1672,1583,8.87338,-11.8417
455,-559,8.69385,12.0665,-0.00389106,-0.0213165,0.0125955,0.00271154,-0.0279191,0.482821,0.0195793,0.0434364,1679,1583,8.6938,-12.0666
462,-559,8.57678,12.23,-0.00474469,-0.0189455,0.0116113,0.00176509,-0.0254553,0.510978,0.0175881,0.0350288,1686,1583,8.57682,-12.2299
469,-559,8.43835,12.2687,-0.00490001,-0.0164083,0.0103575,0.00119434,-0.0225027,0.531848,0.0154153,0.017753,1693,1583,8.43839,-12.2686
476,-559,8.44202,12.0886,-0.00450479,-0.0136885,0.00885918,0.000881849,-0.0190751,0.546302,0.0130207,0.0094512,1700,1583,8.442,-12.0886
483,-559,8.4707,11.8652,-0.0037404,-0.010871,0.00736142,0.000873651,-0.0154851,0.559884,0.0106266,0.011816,1707,1583,8.47069,-11.8653
490,-559,8.46631,11.6519,-0.00334188,-0.00836846,0.00639764,0.00101843,-0.0127288,0.598236,0.00884489,0.0150663,1714,1583,8.4663,-11.6518
497,-559,8.48206,11.4758,-0.0026387,-0.00602621,0.00471781,0.000680188,-0.00934509,0.613057,0.00646872,0.0175305,1721,1583,8.48201,-11.4758
504,-559,8.48352,11.2999,-0.00143306,-0.00393267,0.00309324,0.000653324,-0.00601906,0.593405,0.00424726,0.0224216,1728,1583,8.48346,-11.2999
511,-559,8.47021,11.0796,-0.000286796,-0.00237568,0.00186938,0.000810128,-0.0034726,0.530646,0.00262708,0.0218714,1735,1583,8.47023,-11.0796
518,-559,8.49988,10.8776,0.00043633,-0.000936026,0.00104096,0.000996924,-0.00149662,0.493998,0.00144925,0.01374,1742,1583,8.49983,-10.8776
525,-559,8.48499,10.6794,0.000755637,-5.61685e-05,0.000345772,0.000882947,-0.000183478,0.352786,0.000658369,0.011215,1749,1583,8.48496,-10.6795
532,-559,8.47473,10.4714,0.00114537,0.000701705,-0.000222274,0.00123757,0.000609507,-0.393194,0.000714539,0.0135425,1756,1583,8.47468,-10.4714
539,-559,8.45972,10.267,0.00181905,0.00144938,-0.000817377,0.00247223,0.000796198,-0.674203,0.00145716,0.0181149,1763,1583,8.45969,-10.267
546,-559,8.45947,10.0615,0.00276416,0.00224491,-0.00146618,0.00399353,0.00101554,-0.697769,0.00239667,0.0158666,1770,1583,8.45946,-10.0616
553,-559,8.59265,9.78015,0.00434371,0.00301301,-0.0021828,0.00596031,0.00139641,-0.637463,0.00359952,0.0241987,1777,1583,8.59269,-9.78015
560,-559,8.57458,9.7998,0.00644015,0.00450343,-0.00278804,0.00842321,0.00252037,-0.618253,0.00499213,0.0493934,1784,1583,8.57464,-9.79981
567,-559,8.57544,9.39636,0,0,0,0,0,0,0,-1,1791,1583,8.57549,-9.39642
574,-559,8.79309,8.98853,0,0,0,0,0,0,0,-1,1798,1583,8.79305,-8.98848
581,-559,5.97095,5.96179,0,0,0,0,0,0,0,-1,1805,1583,5.97093,-5.96181
588,-559,5.79102,5.89954,0,0,0,0,0,0,0,-1,1812,1583,5.79098,-5.89949
595,-559,5.79089,6.24231,0,0,0,0,0,0,0,-1,1819,1583,5.7909,-6.24227
602,-559,12.478,2.35669,0,0,0,0,0,0,0,-1,1826,1583,12.4781,-2.35675
609,-559,14.0479,1.22681,0,0,0,0,0,0,0,-1,1833,1583,14.0479,-1.22681
616,-559,0,0,0,0,0,0,0,0,0,-1,1840,1583,0,0
623,-559,0,0,0,0,0,0,0,0,0,-1,1847,1583,0,0
630,-559,0,0,0,0,0,0,0,0,0,-1,1854,1583,0,0
637,-559,0,0,0,0,0,0,0,0,0,-1,1861,1583,0,0
644,-559,0,0,0,0,0,0,0,0,0,-1,1868,1583,0,0
651,-559,0,0,0,0,0,0,0,0,0,-1,1875,1583,0,0
658,-559,0,0,0,0,0,0,0,0,0,-1,1882,1583,0,0
665,-559,0,0,0,0,0,0,0,0,0,-1,1889,1583,0,0
672,-559,0,0,0,0,0,0,0,0,0,-1,1896,1583,0,0
679,-559,0,0,0,0,0,0,0,0,0,-1,1903,1583,0,0
686,-559,0,0,0,0,0,0,0,0,0,-1,1910,1583,0,0
693,-559,0,0,0,0,0,0,0,0,0,-1,1917,1583,0,0
700,-559,0,0,0,0,0,0,0,0,0,-1,1924,1583,0,0
707,-559,0,0,0,0,0,0,0,0,0,-1,1931,1583,0,0
714,-559,0,0,0,0,0,0,0,0,0,-1,1938,1583,0,0
721,-559,0,0,0,0,0,0,0,0,0,-1,1945,1583,0,0
728,-559,0,0,0,0,0,0,0,0,0,-1,1952,1583,0,0
735,-559,0,0,0,0,0,0,0,0,0,-1,1959,1583,0,0
742,-559,0,0,0,0,0,0,0,0,0,-1,1966,1583,0,0
749,-559,0,0,0,0,0,0,0,0,0,-1,1973,1583,0,0
756,-559,0,0,0,0,0,0,0,0,0,-1,1980,1583,0,0
763,-559,0,0,0,0,0,0,0,0,0,-1,1987,1583,0,0
770,-559,0,0,0,0,0,0,0,0,0,-1,1994,1583,0,0
777,-559,0,0,0,0,0,0,0,0,0,-1,2001,1583,0,0
784,-559,0,0,0,0,0,0,0,0,0,-1,2008,1583,0,0
791,-559,0,0,0,0,0,0,0,0,0,-1,2015,1583,0,0
798,-559,0,0,0,0,0,0,0,0,0,-1,2022,1583,0,0
805,-559,0,0,0,0,0,0,0,0,0,-1,2029,1583,0,0
812,-559,0,0,0,0,0,0,0,0,0,-1,2036,1583,0,0
-700,-566,0,0,0,0,0,0,0,0,0,-1,524,1590,0,0
-693,-566,0,0,0,0,0,0,0,0,0,-1,531,1590,0,0
-686,-566,0,0,0,0,0,0,0,0,0,-1,538,1590,0,0
-679,-566,0,0,0,0,0,0,0,0,0,-1,545,1590,0,0
-672,-566,0,0,0,0,0,0,0,0,0,-1,552,1590,0,0
-665,-566,0,0,0,0,0,0,0,0,0,-1,559,1590,0,0
-658,-566,0,0,0,0,0,0,0,0,0,-1,566,1590,0,0
-651,-566,0,0,0,0,0,0,0,0,0,-1,573,1590,0,0
-644,-566,0,0,0,0,0,0,0,0,0,-1,580,1590,0,0
-637,-566,0,0,0,0,0,0,0,0,0,-1,587,1590,0,0
-630,-566,0,0,0,0,0,0,0,0,0,-1,594,1590,0,0
-623,-566,0,0,0,0,0,0,0,0,0,-1,601,1590,0,0
-616,-566,0,0,0,0,0,0,0,0,0,-1,608,1590,0,0
-609,-566,0,0,0,0,0,0,0,0,0,-1,615,1590,0,0
-602,-566,0,0,0,0,0,0,0,0,0,-1,622,1590,0,0
-595,-566,0,0,0,0,0,0,0,0,0,-1,629,1590,0,0
-588,-566,0,0,0,0,0,0,0,0,0,-1,636,1590,0,0
-581,-566,0,0,0,0,0,0,0,0,0,-1,643,1590,0,0
-574,-566,0,0,0,0,0,0,0,0,0,-1,650,1590,0,0
-567,-566,0,0,0,0,0,0,0,0,0,-1,657,1590,0,0
-560,-566,0,0,0,0,0,0,0,0,0,-1,664,1590,0,0
-553,-566,0,0,0,0,0,0,0,0,0,-1,671,1590,0,0
-546,-566,0,0,0,0,0,0,0,0,0,-1,678,1590,0,0
-539,-566,0,0,0,0,0,0,0,0,0,-1,685,1590,0,0
-532,-566,0,0,0,0,0,0,0,0,0,-1,692,1590,0,0
-525,-566,0,0,0,0,0,0,0,0,0,-1,699,1590,0,0
-518,-566,0,0,0,0,0,0,0,0,0,-1,706,1590,0,0
-511,-566,0,0,0,0,0,0,0,0,0,-1,713,1590,0,0
-504,-566,0,0,0,0,0,0,0,0,0,-1,720,1590,0,0
-497,-566,0,0,0,0,0,0,0,0,0,-1,727,1590,0,0
-490,-566,0,0,0,0,0,0,0,0,0,-1,734,1590,0,0
-483,-566,3.40796,2.52075,0,0,0,0,0,0,0,-1,741,1590,3.40797,-2.5207
-476,-566,3.27283,3.34509,0,0,0,0,0,0,0,-1,748,1590,3.27282,-3.34514
-469,-566,-2.33429,0.0192871,0,0,0,0,0,0,0,-1,755,1590,-2.33429,-0.0193244
-462,-566,-1.31311,1.62561,0,0,0,0,0,0,0,-1,762,1590,-1.31313,-1.6256
-455,-566,-0.33197,2.84863,0,0,0,0,0,0,0,-1,769,1590,-0.331965,-2.84867
-448,-566,0.873474,4.64929,0,0,0,0,0,0,0,-1,776,1590,0.873463,-4.64928
-441,-566,1.11426,6.73889,0,0,0,0,0,0,0,-1,783,1590,1.11424,-6.73885
-434,-566,1.27264,8.09937,0,0,0,0,0,0,0,-1,790,1590,1.27264,-8.09937
-427,-566,1.14905,8.32361,0.00205739,0.0046309,0.000666838,0.00479343,0.00189486,1.33173,0.00278764,0.0399541,797,1590,1.14903,-8.32359
-420,-566,1.09351,8.52356,0.0013315,0.00365065,3.49603e-05,0.00365118,0.00133097,1.55573,0.00213365,0.0329721,804,1590,1.09351,-8.52355
-413,-566,1.19983,8.68445,0.000827203,0.0032227,-0.000525908,0.00333307,0.00071683,-1.36393,0.00202583,0.0157544,811,1590,1.19982,-8.6845
-406,-566,1.20892,8.92407,0.000542723,0.0021239,-0.00058558,0.00231715,0.000349475,-1.25204,0.00144245,0.00913711,818,1590,1.2089,-8.92408
-399,-566,1.20972,9.15466,-8.16211e-05,0.00146696,-0.000809792,0.00181306,-0.000427728,-1.16689,0.00137366,0.00971917,825,1590,1.20974,-9.1547
-392,-566,1.17859,9.36646,-0.00046879,0.000791737,-0.000894703,0.00125588,-0.000932933,-1.09225,0.00126829,0.0123248,832,1590,1.17857,-9.36642
-385,-566,1.18384,9.61877,-0.000538681,8.94305e-05,-0.000996406,0.000820102,-0.00126935,-0.938064,0.00121561,0.0150652,839,1590,1.18383,-9.61872
-378,-566,1.17322,9.86328,-0.000379115,-0.000432332,-0.00091814,0.000512802,-0.00132425,-0.770912,0.00109457,0.0150204,846,1590,1.17322,-9.86333
-371,-566,1.14795,10.0776,-8.62553e-05,-0.000839672,-0.000812189,0.000432335,-0.00135826,-0.568255,0.00107889,0.0209517,853,1590,1.14792,-10.0776
-364,-566,1.17029,10.2861,0.000187254,-0.00123287,-0.000667597,0.000451806,-0.00149743,-0.377291,0.00117813,0.0216638,860,1590,1.17028,-10.2861
-357,-566,1.17676,10.4967,0.000680775,-0.00134428,-0.000443784,0.000773759,-0.00143726,-0.206538,0.00129555,0.0175132,867,1590,1.17675,-10.4967
-350,-566,1.21112,10.7185,0.00133955,-0.00140562,-0.000214136,0.00135615,-0.00142222,-0.0773809,0.00160425,0.019893,874,1590,1.21115,-10.7185
-343,-566,1.22778,10.913,0.00196359,-0.00125073,6.0612e-06,0.00196361,-0.00125074,0.00188567,0.00187096,0.0252386,881,1590,1.2278,-10.913
-336,-566,1.16357,11.1453,0.00266309,-0.000898028,3.99991e-05,0.00266354,-0.000898477,0.0112303,0.00213903,0.0233443,888,1590,1.16358,-11.1453
-329,-566,1.20764,11.339,0.00327923,-0.000398696,0.000119137,0.00328309,-0.000402551,0.0323472,0.00233451,0.0140284,895,1590,1.20764,-11.339
-322,-566,1.22754,11.6124,0.00376471,0.000210732,7.10673e-05,0.00376613,0.000209312,0.0199859,0.00244397,0.016335,902,1590,1.22754,-11.6125
-315,-566,1.15021,11.7639,0.00427837,0.000773164,-0.000273852,0.00429963,0.000751897,-0.0775005,0.00265157,0.0292286,909,1590,1.15019,-11.7639
-308,-566,1.22229,11.9041,0.00494869,0.00135036,-0.000936003,0.00517761,0.00112145,-0.239855,0.00314528,0.0361671,916,1590,1.22232,-11.9041
-301,-566,1.37488,12.0219,0.00571582,0.00170883,-0.00167259,0.00632222,0.00110244,-0.347812,0.00389963,0.043674,923,1590,1.37488,-12.0218
-294,-566,1.43719,12.2047,0,0,0,0,0,0,0,-1,930,1590,1.43718,-12.2048
-287,-566,-0.0125122,12.5742,0,0,0,0,0,0,0,-1,937,1590,-0.01249,-12.5742
-280,-566,0.156128,12.697,0,0,0,0,0,0,0,-1,944,1590,0.156111,-12.697
-273,-566,0.49762,11.2427,0,0,0,0,0,0,0,-1,951,1590,0.497591,-11.2426
-266,-566,0.392151,6.90295,0,0,0,0,0,0,0,-1,958,1590,0.392151,-6.90294
-259,-566,0.343628,6.47437,0,0,0,0,0,0,0,-1,965,1590,0.34363,-6.47438
-252,-566,-7.68311,1.01343,0,0,0,0,0,0,0,-1,972,1590,-7.68308,-1.01348
-245,-566,-10.1991,3.1759,0,0,0,0,0,0,0,-1,979,1590,-10.1991,-3.17586
-238,-566,-8.82385,3.38501,0,0,0,0,0,0,0,-1,986,1590,-8.82384,-3.38504
-231,-566,-5.30676,2.69019,0,0,0,0,0,0,0,-1,993,1590,-5.30674,-2.69013
-224,-566,-3.11914,5.40015,0,0,0,0,0,0,0,-1,1000,1590,-3.11915,-5.4001
-217,-566,-2.33643,6.79932,0,0,0,0,0,0,0,-1,1007,1590,-2.33642,-6.79936
-210,-566,-2.04175,7.89893,0,0,0,0,0,0,0,-1,1014,1590,-2.04177,-7.89897
-203,-566,0,0,0,0,0,0,0,0,0,-1,1021,1590,0,0
-196,-566,0,0,0,0,0,0,0,0,0,-1,1028,1590,0,0
-189,-566,0,0,0,0,0,0,0,0,0,-1,1035,1590,0,0
-182,-566,0,0,0,0,0,0,0,0,0,-1,1042,1590,0,0
-175,-566,0,0,0,0,0,0,0,0,0,-1,1049,1590,0,0
-168,-566,0,0,0,0,0,0,0,0,0,-1,1056,1590,0,0
-161,-566,0,0,0,0,0,0,0,0,0,-1,1063,1590,0,0
-154,-566,0,0,0,0,0,0,0,0,0,-1,1070,1590,0,0
-147,-566,0,0,0,0,0,0,0,0,0,-1,1077,1590,0,0
-140,-566,0,0,0,0,0,0,0,0,0,-1,1084,1590,0,0
-133,-566,0,0,0,0,0,0,0,0,0,-1,1091,1590,0,0
-126,-566,0,0,0,0,0,0,0,0,0,-1,1098,1590,0,0
-119,-566,0,0,0,0,0,0,0,0,0,-1,1105,1590,0,0
-112,-566,0,0,0,0,0,0,0,0,0,-1,1112,1590,0,0
-105,-566,0,0,0,0,0,0,0,0,0,-1,1119,1590,0,0
-98,-566,0,0,0,0,0,0,0,0,0,-1,1126,1590,0,0
-91,-566,0,0,0,0,0,0,0,0,0,-1,1133,1590,0,0
-84,-566,0,0,0,0,0,0,0,0,0,-1,1140,1590,0,0
-77,-566,0,0,0,0,0,0,0,0,0,-1,1147,1590,0,0
-70,-566,0,0,0,0,0,0,0,0,0,-1,1154,1590,0,0
-63,-566,0,0,0,0,0,0,0,0,0,-1,1161,1590,0,0
-56,-566,0,0,0,0,0,0,0,0,0,-1,1168,1590,0,0
-49,-566,0,0,0,0,0,0,0,0,0,-1,1175,1590,0,0
-42,-566,0,0,0,0,0,0,0,0,0,-1,1182,1590,0,0
-35,-566,0,0,0,0,0,0,0,0,0,-1,1189,1590,0,0
-28,-566,0,0,0,0,0,0,0,0,0,-1,1196,1590,0,0
-21,-566,0,0,0,0,0,0,0,0,0,-1,1203,1590,0,0
-14,-566,0,0,0,0,0,0,0,0,0,-1,1210,1590,0,0
-7,-566,0,0,0,0,0,0,0,0,0,-1,1217,1590,0,0
0,-566,0,0,0,0,0,0,0,0,0,-1,1224,1590,0,0
7,-566,0,0,0,0,0,0,0,0,0,-1,1231,1590,0,0
14,-566,0,0,0,0,0,0,0,0,0,-1,1238,1590,0,0
21,-566,0,0,0,0,0,0,0,0,0,-1,1245,1590,0,0
28,-566,0,0,0,0,0,0,0,0,0,-1,1252,1590,0,0
35,-566,0,0,0,0,0,0,0,0,0,-1,1259,1590,0,0
42,-566,0,0,0,0,0,0,0,0,0,-1,1266,1590,0,0
49,-566,0,0,0,0,0,0,0,0,0,-1,1273,1590,0,0
56,-566,0,0,0,0,0,0,0,0,0,-1,1280,1590,0,0
63,-566,0,0,0,0,0,0,0,0,0,-1,1287,1590,0,0
70,-566,0,0,0,0,0,0,0,0,0,-1,1294,1590,0,0
77,-566,0,0,0,0,0,0,0,0,0,-1,1301,1590,0,0
84,-566,0,0,0,0,0,0,0,0,0,-1,1308,1590,0,0
91,-566,0,0,0,0,0,0,0,0,0,-1,1315,1590,0,0
98,-566,0,0,0,0,0,0,0,0,0,-1,1322,1590,0,0
105,-566,0,0,0,0,0,0,0,0,0,-1,1329,1590,0,0
112,-566,0,0,0,0,0,0,0,0,0,-1,1336,1590,0,0
119,-566,0,0,0,0,0,0,0,0,0,-1,1343,1590,0,0
126,-566,0,0,0,0,0,0,0,0,0,-1,1350,1590,0,0
133,-566,0,0,0,0,0,0,0,0,0,-1,1357,1590,0,0
140,-566,0,0,0,0,0,0,0,0,0,-1,1364,1590,0,0
147,-566,0,0,0,0,0,0,0,0,0,-1,1371,1590,0,0
154,-566,0,0,0,0,0,0,0,0,0,-1,1378,1590,0,0
161,-566,0,0,0,0,0,0,0,0,0,-1,1385,1590,0,0
168,-566,0,0,0,0,0,0,0,0,0,-1,1392,1590,0,0
175,-566,0,0,0,0,0,0,0,0,0,-1,1399,1590,0,0
182,-566,0,0,0,0,0,0,0,0,0,-1,1406,1590,0,0
189,-566,0,0,0,0,0,0,0,0,0,-1,1413,1590,0,0
196,-566,0,0,0,0,0,0,0,0,0,-1,1420,1590,0,0
203,-566,0,0,0,0,0,0,0,0,0,-1,1427,1590,0,0
210,-566,0,0,0,0,0,0,0,0,0,-1,1434,1590,0,0
217,-566,0,0,0,0,0,0,0,0,0,-1,1441,1590,0,0
224,-566,0,0,0,0,0,0,0,0,0,-1,1448,1590,0,0
231,-566,0,0,0,0,0,0,0,0,0,-1,1455,1590,0,0
238,-566,0,0,0,0,0,0,0,0,0,-1,1462,1590,0,0
245,-566,0,0,0,0,0,0,0,0,0,-1,1469,1590,0,0
252,-566,0,0,0,0,0,0,0,0,0,-1,1476,1590,0,0
259,-566,0,0,0,0,0,0,0,0,0,-1,1483,1590,0,0
266,-566,0,0,0,0,0,0,0,0,0,-1,1490,1590,0,0
273,-566,0,0,0,0,0,0,0,0,0,-1,1497,1590,0,0
280,-566,0,0,0,0,0,0,0,0,0,-1,1504,1590,0,0
287,-566,0,0,0,0,0,0,0,0,0,-1,1511,1590,0,0
294,-566,0,0,0,0,0,0,0,0,0,-1,1518,1590,0,0
301,-566,0,0,0,0,0,0,0,0,0,-1,1525,1590,0,0
308,-566,0,0,0,0,0,0,0,0,0,-1,1532,1590,0,0
315,-566,0,0,0,0,0,0,0,0,0,-1,1539,1590,0,0
322,-566,6.07983,4.44873,0,0,0,0,0,0,0,-1,1546,1590,6.07983,-4.44873
329,-566,5.77026,3.47534,0,0,0,0,0,0,0,-1,1553,1590,5.77026,-3.47535
336,-566,5.41138,2.62915,0,0,0,0,0,0,0,-1,1560,1590,5.41138,-2.62909
343,-566,4.81873,1.79089,0,0,0,0,0,0,0,-1,1567,1590,4.81878,-1.79095
350,-566,4.41663,2.44214,0,0,0,0,0,0,0,-1,1574,1590,4.41666,-2.44214
357,-566,6.34058,5.18579,0,0,0,0,0,0,0,-1,1581,1590,6.34059,-5.1858
364,-566,6.06262,4.20251,0,0,0,0,0,0,0,-1,1588,1590,6.06259,-4.20246
371,-566,5.78455,3.21912,0,0,0,0,0,0,0,-1,1595,1590,5.7846,-3.21912
378,-566,5.7439,0.695557,0,0,0,0,0,0,0,-1,1602,1590,5.74392,-0.695531
385,-566,5.67615,-0.573975,0,0,0,0,0,0,0,-1,1609,1590,5.67612,0.573956
392,-566,5.78638,1.82434,0,0,0,0,0,0,0,-1,1616,1590,5.78637,-1.82439
399,-566,5.36621,1.7373,0,0,0,0,0,0,0,-1,1623,1590,5.36627,-1.7373
406,-566,4.30359,5.26868,0,0,0,0,0,0,0,-1,1630,1590,4.30364,-5.26867
413,-566,4.27124,5.79492,0,0,0,0,0,0,0,-1,1637,1590,4.27123,-5.7949
420,-566,7.19812,8.25146,0,0,0,0,0,0,0,-1,1644,1590,7.19817,-8.25149
427,-566,10.455,10.6842,0,0,0,0,0,0,0,-1,1651,1590,10.455,-10.6842
434,-566,8.14966,12.6172,0,0,0,0,0,0,0,-1,1658,1590,8.14964,-12.6171
441,-566,8.35559,12.5179,-0.00109948,-0.0190855,0.0120066,0.0049086,-0.0250936,0.463966,0.0185827,0.0498255,1665,1590,8.35561,-12.5179
448,-566,8.35242,12.495,-0.00251681,-0.0180221,0.0113191,0.00345004,-0.023989,0.485132,0.017258,0.036691,1672,1590,8.35239,-12.495
455,-566,8.28967,12.6052,-0.00348099,-0.016391,0.0104457,0.00234328,-0.0222152,0.50864,0.0156498,0.0268717,1679,1590,8.28962,-12.6052
462,-566,8.23474,12.4691,-0.00385632,-0.0144803,0.00931249,0.00155268,-0.0198893,0.526207,0.0138062,0.0156836,1686,1590,8.23477,-12.4691
469,-566,8.23572,12.2689,-0.00378252,-0.0124608,0.00805222,0.00102527,-0.0172686,0.538267,0.0118689,0.0124119,1693,1590,8.23576,-12.2689
476,-566,8.25635,12.0641,-0.00336944,-0.0103041,0.00669371,0.000701669,-0.0143752,0.546427,0.00982573,0.00988164,1700,1590,8.2564,-12.0641
483,-566,8.271,11.8647,-0.00269687,-0.00806784,0.00542207,0.000668323,-0.011433,0.555463,0.00785428,0.00944274,1707,1590,8.27098,-11.8648
490,-566,8.2688,11.6658,-0.00223615,-0.00601942,0.00452793,0.000779399,-0.00903497,0.587532,0.00629921,0.0103419,1714,1590,8.26886,-11.6657
497,-566,8.29858,11.4957,-0.00156026,-0.00416618,0.00310078,0.000500188,-0.00622663,0.586498,0.00432746,0.0138486,1721,1590,8.29861,-11.4957
504,-566,8.29919,11.3009,-0.000583443,-0.00251286,0.00180263,0.000496391,-0.00359269,0.539707,0.00257658,0.0191094,1728,1590,8.29916,-11.3009
511,-566,8.28418,11.0934,0.000339198,-0.00127806,0.000835393,0.000693222,-0.00163209,0.400838,0.00137851,0.0196224,1735,1590,8.28414,-11.0934
518,-566,8.28223,10.8907,0.000907874,-0.000209804,0.000185149,0.000937747,-0.000239677,0.159965,0.000718508,0.011374,1742,1590,8.28221,-10.8908
525,-566,8.28125,10.6748,0.00118491,0.000455467,-0.000327421,0.00131032,0.00033006,-0.365778,0.000786948,0.0108399,1749,1590,8.28121,-10.6748
532,-566,8.27905,10.478,0.00151772,0.000983362,-0.00069599,0.00199605,0.000505031,-0.602129,0.00119837,0.0135812,1756,1590,8.27905,-10.478
539,-566,8.28662,10.2604,0.00214375,0.0016474,-0.00115754,0.00307942,0.000711729,-0.679796,0.00186162,0.0175268,1763,1590,8.28663,-10.2603
546,-566,8.3175,9.99585,0.00304837,0.00241979,-0.00168606,0.00444919,0.00101897,-0.693253,0.00269155,0.0198207,1770,1590,8.31748,-9.99583
553,-566,8.33167,9.85889,0.00464534,0.00312423,-0.00227961,0.00628792,0.00148165,-0.624388,0.00379571,0.0356659,1777,1590,8.33168,-9.85888
560,-566,8.3241,9.70691,0.00679212,0.00478056,-0.00276645,0.00872995,0.00284273,-0.611045,0.00514139,0.0496558,1784,1590,8.32406,-9.70689
567,-566,8.52893,9.44275,0,0,0,0,0,0,0,-1,1791,1590,8.5289,-9.44277
574,-566,7.99548,3.14514,0,0,0,0,0,0,0,-1,1798,1590,7.99543,-3.14511
581,-566,2.54102,5.1311,0,0,0,0,0,0,0,-1,1805,1590,2.54099,-5.13111
588,-566,-1.91321,8.39197,0,0,0,0,0,0,0,-1,1812,1590,-1.91316,-8.39199
595,-566,9.0271,4.66467,0,0,0,0,0,0,0,-1,1819,1590,9.02705,-4.66468
602,-566,9.953,3.54895,0,0,0,0,0,0,0,-1,1826,1590,9.953,-3.54898
609,-566,0,0,0,0,0,0,0,0,0,-1,1833,1590,0,0
616,-566,0,0,0,0,0,0,0,0,0,-1,1840,1590,0,0
623,-566,0,0,0,0,0,0,0,0,0,-1,1847,1590,0,0
630,-566,0,0,0,0,0,0,0,0,0,-1,1854,1590,0,0
637,-566,0,0,0,0,0,0,0,0,0,-1,1861,1590,0,0
644,-566,0,0,0,0,0,0,0,0,0,-1,1868,1590,0,0
651,-566,0,0,0,0,0,0,0,0,0,-1,1875,1590,0,0
658,-566,0,0,0,0,0,0,0,0,0,-1,1882,1590,0,0
665,-566,0,0,0,0,0,0,0,0,0,-1,1889,1590,0,0
672,-566,0,0,0,0,0,0,0,0,0,-1,1896,1590,0,0
679,-566,0,0,0,0,0,0,0,0,0,-1,1903,1590,0,0
686,-566,0,0,0,0,0,0,0,0,0,-1,1910,1590,0,0
693,-566,0,0,0,0,0,0,0,0,0,-1,1917,1590,0,0
700,-566,0,0,0,0,0,0,0,0,0,-1,1924,1590,0,0
707,-566,0,0,0,0,0,0,0,0,0,-1,1931,1590,0,0
714,-566,0,0,0,0,0,0,0,0,0,-1,1938,1590,0,0
721,-566,0,0,0,0,0,0,0,0,0,-1,1945,1590,0,0
728,-566,0,0,0,0,0,0,0,0,0,-1,1952,1590,0,0
735,-566,0,0,0,0,0,0,0,0,0,-1,1959,1590,0,0
742,-566,0,0,0,0,0,0,0,0,0,-1,1966,1590,0,0
749,-566,0,0,0,0,0,0,0,0,0,-1,1973,1590,0,0
756,-566,0,0,0,0,0,0,0,0,0,-1,1980,1590,0,0
763,-566,0,0,0,0,0,0,0,0,0,-1,1987,1590,0,0
770,-566,0,0,0,0,0,0,0,0,0,-1,1994,1590,0,0
777,-566,0,0,0,0,0,0,0,0,0,-1,2001,1590,0,0
784,-566,0,0,0,0,0,0,0,0,0,-1,2008,1590,0,0
791,-566,0,0,0,0,0,0,0,0,0,-1,2015,1590,0,0
798,-566,0,0,0,0,0,0,0,0,0,-1,2022,1590,0,0
805,-566,0,0,0,0,0,0,0,0,0,-1,2029,1590,0,0
812,-566,0,0,0,0,0,0,0,0,0,-1,2036,1590,0,0
-700,-573,0,0,0,0,0,0,0,0,0,-1,524,1597,0,0
-693,-573,0,0,0,0,0,0,0,0,0,-1,531,1597,0,0
-686,-573,0,0,0,0,0,0,0,0,0,-1,538,1597,0,0
-679,-573,0,0,0,0,0,0,0,0,0,-1,545,1597,0,0
-672,-573,0,0,0,0,0,0,0,0,0,-1,552,1597,0,0
-665,-573,0,0,0,0,0,0,0,0,0,-1,559,1597,0,0
-658,-573,0,0,0,0,0,0,0,0,0,-1,566,1597,0,0
-651,-573,0,0,0,0,0,0,0,0,0,-1,573,1597,0,0
-644,-573,0,0,0,0,0,0,0,0,0,-1,580,1597,0,0
-637,-573,0,0,0,0,0,0,0,0,0,-1,587,1597,0,0
-630,-573,0,0,0,0,0,0,0,0,0,-1,594,1597,0,0
-623,-573,0,0,0,0,0,0,0,0,0,-1,601,1597,0,0
-616,-573,0,0,0,0,0,0,0,0,0,-1,608,1597,0,0
-609,-573,0,0,0,0,0,0,0,0,0,-1,615,1597,0,0
-602,-573,0,0,0,0,0,0,0,0,0,-1,622,1597,0,0
-595,-573,0,0,0,0,0,0,0,0,0,-1,629,1597,0,0
-588,-573,0,0,0,0,0,0,0,0,0,-1,636,1597,0,0
-581,-573,0,0,0,0,0,0,0,0,0,-1,643,1597,0,0
-574,-573,0,0,0,0,0,0,0,0,0,-1,650,1597,0,0
-567,-573,0,0,0,0,0,0,0,0,0,-1,657,1597,0,0
-560,-573,0,0,0,0,0,0,0,0,0,-1,664,1597,0,0
-553,-573,0,0,0,0,0,0,0,0,0,-1,671,1597,0,0
-546,-573,0,0,0,0,0,0,0,0,0,-1,678,1597,0,0
-539,-573,0,0,0,0,0,0,0,0,0,-1,685,1597,0,0
-532,-573,0,0,0,0,0,0,0,0,0,-1,692,1597,0,0
-525,-573,0,0,0,0,0,0,0,0,0,-1,699,1597,0,0
-518,-573,0,0,0,0,0,0,0,0,0,-1,706,1597,0,0
-511,-573,0,0,0,0,0,0,0,0,0,-1,713,1597,0,0
-504,-573,0,0,0,0,0,0,0,0,0,-1,720,1597,0,0
-497,-573,0,0,0,0,0,0,0,0,0,-1,727,1597,0,0
-490,-573,0,0,0,0,0,0,0,0,0,-1,734,1597,0,0
-483,-573,0,0,0,0,0,0,0,0,0,-1,741,1597,0,0
-476,-573,2.35205,-6.3374,0,0,0,0,0,0,0,-1,748,1597,2.35206,6.33739
-469,-573,2.97308,3.573,0,0,0,0,0,0,0,-1,755,1597,2.97311,-3.57298
-462,-573,-3.60919,0.326172,0,0,0,0,0,0,0,-1,762,1597,-3.60921,-0.326168
-455,-573,-2.88293,1.2124,0,0,0,0,0,0,0,-1,769,1597,-2.88295,-1.21237
-448,-573,-1.26172,3.33252,0,0,0,0,0,0,0,-1,776,1597,-1.26173,-3.33248
-441,-573,0.108582,5.06726,0,0,0,0,0,0,0,-1,783,1597,0.108584,-5.06721
-434,-573,1.61768,7.05444,0,0,0,0,0,0,0,-1,790,1597,1.61767,-7.05446
-427,-573,0.922607,8.17261,0,0,0,0,0,0,0,-1,797,1597,0.922587,-8.17261
-420,-573,1.23413,8.34009,0.00142046,0.00424246,-0.000656582,0.00438774,0.00127518,-1.35303,0.00260625,0.0455774,804,1597,1.23415,-8.34006
-413,-573,1.54443,8.56396,0.00077577,0.00356825,-0.00118814,0.00400536,0.000338661,-1.21827,0.00256482,0.0350397,811,1597,1.54442,-8.56391
-406,-573,1.44312,8.88892,0.00038846,0.00242776,-0.00110985,0.00291525,-9.90219e-05,-1.15693,0.00197733,0.017558,818,1597,1.44311,-8.8889
-399,-573,1.427,9.16016,-0.000391528,0.00181696,-0.00123834,0.00237189,-0.000946453,-1.14951,0.00197389,0.0106491,825,1597,1.42701,-9.16012
-392,-573,1.4295,9.3927,-0.000887923,0.00121801,-0.00120922,0.00176846,-0.00143837,-1.14362,0.00185473,0.0110991,832,1597,1.42952,-9.39275
-385,-573,1.4101,9.62329,-0.00102162,0.000612377,-0.00120777,0.00125353,-0.00166277,-1.08277,0.00168924,0.0132187,839,1597,1.41011,-9.62327
-378,-573,1.39594,9.84912,-0.0009023,0.000193857,-0.00105042,0.000830587,-0.00153903,-1.02585,0.00138833,0.0142634,846,1597,1.39596,-9.84912
-371,-573,1.39423,10.0768,-0.000610955,-0.00012194,-0.00086337,0.000530877,-0.00126377,-0.923385,0.00106455,0.015534,853,1597,1.39421,-10.0768
-364,-573,1.38678,10.2794,-0.000360473,-0.000463072,-0.000666554,0.000256753,-0.0010803,-0.746992,0.000819305,0.0194124,860,1597,1.3868,-10.2794
-357,-573,1.38733,10.4988,0.000125837,-0.000568981,-0.000406976,0.000313519,-0.000756664,-0.432098,0.000635282,0.0226526,867,1597,1.38731,-10.4987
-350,-573,1.4129,10.7229,0.000770165,-0.000619859,-0.000180577,0.000793241,-0.000642935,-0.127099,0.000830689,0.0172395,874,1597,1.41292,-10.7229
-343,-573,1.44135,10.9142,0.00135395,-0.000518202,2.8977e-05,0.0013544,-0.000518651,0.0154729,0.00111671,0.0204768,881,1597,1.44132,-10.9142
-336,-573,1.41888,11.171,0.00201893,-0.000294472,5.76901e-05,0.00202037,-0.00029591,0.0249167,0.00145561,0.0168853,888,1597,1.41889,-11.1711
-329,-573,1.44073,11.3665,0.00260511,3.97527e-05,8.27676e-05,0.00260777,3.70851e-05,0.032219,0.00172629,0.0173617,895,1597,1.44075,-11.3665
-322,-573,1.4306,11.6088,0.00302941,0.000412952,-5.55813e-05,0.00303059,0.000411772,-0.0212302,0.00189808,0.0128096,902,1597,1.43062,-11.6087
-315,-573,1.48883,11.8527,0.00344294,0.000640136,-0.000463708,0.00351767,0.00056541,-0.159774,0.00218121,0.0182581,909,1597,1.48883,-11.8527
-308,-573,1.49902,11.9185,0.0039875,0.000751855,-0.00109875,0.00432534,0.000414017,-0.298299,0.00275594,0.0271522,916,1597,1.49903,-11.9185
-301,-573,1.56085,12.0975,0.00450664,0.000751833,-0.00184222,0.00525953,-1.051e-06,-0.387969,0.0035067,0.0299844,923,1597,1.56083,-12.0975
-294,-573,1.41296,12.3566,0.00455578,5.37261e-05,-0.00315186,0.00617791,-0.0015684,-0.475305,0.00472891,0.0371993,930,1597,1.41297,-12.3566
-287,-573,1.35773,12.5107,0.00449735,-0.00108231,-0.00478722,0.00724833,-0.00383329,-0.521573,0.00649846,0.0497284,937,1597,1.35772,-12.5108
-280,-573,1.56531,12.509,0,0,0,0,0,0,0,-1,944,1597,1.56531,-12.509
-273,-573,-0.225037,10.6533,0,0,0,0,0,0,0,-1,951,1597,-0.225018,-10.6533
-266,-573,1.31116,7.1814,0,0,0,0,0,0,0,-1,958,1597,1.31118,-7.18142
-259,-573,1.2514,6.70959,0,0,0,0,0,0,0,-1,965,1597,1.25137,-6.70965
-252,-573,2.07874,5.27161,0,0,0,0,0,0,0,-1,972,1597,2.07875,-5.27157
-245,-573,-10.2592,1.09827,0,0,0,0,0,0,0,-1,979,1597,-10.2592,-1.09823
-238,-573,-8.75061,1.73584,0,0,0,0,0,0,0,-1,986,1597,-8.75059,-1.73585
-231,-573,-6.87231,2.16699,0,0,0,0,0,0,0,-1,993,1597,-6.8723,-2.16704
-224,-573,-4.73047,2.63538,0,0,0,0,0,0,0,-1,1000,1597,-4.73048,-2.63537
-217,-573,-3.57495,6.78931,0,0,0,0,0,0,0,-1,1007,1597,-3.57495,-6.78931
-210,-573,-2.41345,8.8949,0,0,0,0,0,0,0,-1,1014,1597,-2.41346,-8.89494
-203,-573,-2.03351,8.95862,0,0,0,0,0,0,0,-1,1021,1597,-2.03348,-8.95867
-196,-573,-1.65344,9.02246,0,0,0,0,0,0,0,-1,1028,1597,-1.65349,-9.02241
-189,-573,-6.12915,6.66882,0,0,0,0,0,0,0,-1,1035,1597,-6.12913,-6.66884
-182,-573,0,0,0,0,0,0,0,0,0,-1,1042,1597,0,0
-175,-573,0,0,0,0,0,0,0,0,0,-1,1049,1597,0,0
-168,-573,0,0,0,0,0,0,0,0,0,-1,1056,1597,0,0
-161,-573,0,0,0,0,0,0,0,0,0,-1,1063,1597,0,0
-154,-573,0,0,0,0,0,0,0,0,0,-1,1070,1597,0,0
-147,-573,0,0,0,0,0,0,0,0,0,-1,1077,1597,0,0
-140,-573,0,0,0,0,0,0,0,0,0,-1,1084,1597,0,0
-133,-573,0,0,0,0,0,0,0,0,0,-1,1091,1597,0,0
-126,-573,0,0,0,0,0,0,0,0,0,-1,1098,1597,0,0
-119,-573,0,0,0,0,0,0,0,0,0,-1,1105,1597,0,0
-112,-573,0,0,0,0,0,0,0,0,0,-1,1112,1597,0,0
-105,-573,0,0,0,0,0,0,0,0,0,-1,1119,1597,0,0
-98,-573,0,0,0,0,0,0,0,0,0,-1,1126,1597,0,0
-91,-573,0,0,0,0,0,0,0,0,0,-1,1133,1597,0,0
-84,-573,0,0,0,0,0,0,0,0,0,-1,1140,1597,0,0
-77,-573,0,0,0,0,0,0,0,0,0,-1,1147,1597,0,0
-70,-573,0,0,0,0,0,0,0,0,0,-1,1154,1597,0,0
-63,-573,0,0,0,0,0,0,0,0,0,-1,1161,1597,0,0
-56,-573,0,0,0,0,0,0,0,0,0,-1,1168,1597,0,0
-49,-573,0,0,0,0,0,0,0,0,0,-1,1175,1597,0,0
-42,-573,0,0,0,0,0,0,0,0,0,-1,1182,1597,0,0
-35,-573,0,0,0,0,0,0,0,0,0,-1,1189,1597,0,0
-28,-573,0,0,0,0,0,0,0,0,0,-1,1196,1597,0,0
-21,-573,0,0,0,0,0,0,0,0,0,-1,1203,1597,0,0
-14,-573,0,0,0,0,0,0,0,0,0,-1,1210,1597,0,0
-7,-573,0,0,0,0,0,0,0,0,0,-1,1217,1597,0,0
0,-573,0,0,0,0,0,0,0,0,0,-1,1224,1597,0,0
7,-573,0,0,0,0,0,0,0,0,0,-1,1231,1597,0,0
14,-573,0,0,0,0,0,0,0,0,0,-1,1238,1597,0,0
21,-573,0,0,0,0,0,0,0,0,0,-1,1245,1597,0,0
28,-573,0,0,0,0,0,0,0,0,0,-1,1252,1597,0,0
35,-573,0,0,0,0,0,0,0,0,0,-1,1259,1597,0,0
42,-573,0,0,0,0,0,0,0,0,0,-1,1266,1597,0,0
49,-573,0,0,0,0,0,0,0,0,0,-1,1273,1597,0,0
56,-573,0,0,0,0,0,0,0,0,0,-1,1280,1597,0,0
63,-573,0,0,0,0,0,0,0,0,0,-1,1287,1597,0,0
70,-573,0,0,0,0,0,0,0,0,0,-1,1294,1597,0,0
77,-573,0,0,0,0,0,0,0,0,0,-1,1301,1597,0,0
84,-573,0,0,0,0,0,0,0,0,0,-1,1308,1597,0,0
91,-573,0,0,0,0,0,0,0,0,0,-1,1315,1597,0,0
98,-573,0,0,0,0,0,0,0,0,0,-1,1322,1597,0,0
105,-573,0,0,0,0,0,0,0,0,0,-1,1329,1597,0,0
112,-573,0,0,0,0,0,0,0,0,0,-1,1336,1597,0,0
119,-573,0,0,0,0,0,0,0,0,0,-1,1343,1597,0,0
126,-573,0,0,0,0,0,0,0,0,0,-1,1350,1597,0,0
133,-573,0,0,0,0,0,0,0,0,0,-1,1357,1597,0,0
140,-573,0,0,0,0,0,0,0,0,0,-1,1364,1597,0,0
147,-573,0,0,0,0,0,0,0,0,0,-1,1371,1597,0,0
154,-573,0,0,0,0,0,0,0,0,0,-1,1378,1597,0,0
161,-573,0,0,0,0,0,0,0,0,0,-1,1385,1597,0,0
168,-573,0,0,0,0,0,0,0,0,0,-1,1392,1597,0,0
175,-573,0,0,0,0,0,0,0,0,0,-1,1399,1597,0,0
182,-573,0,0,0,0,0,0,0,0,0,-1,1406,1597,0,0
189,-573,0,0,0,0,0,0,0,0,0,-1,1413,1597,0,0
196,-573,0,0,0,0,0,0,0,0,0,-1,1420,1597,0,0
203,-573,0,0,0,0,0,0,0,0,0,-1,1427,1597,0,0
210,-573,0,0,0,0,0,0,0,0,0,-1,1434,1597,0,0
217,-573,0,0,0,0,0,0,0,0,0,-1,1441,1597,0,0
224,-573,0,0,0,0,0,0,0,0,0,-1,1448,1597,0,0
231,-573,0,0,0,0,0,0,0,0,0,-1,1455,1597,0,0
238,-573,0,0,0,0,0,0,0,0,0,-1,1462,1597,0,0
245,-573,0,0,0,0,0,0,0,0,0,-1,1469,1597,0,0
252,-573,0,0,0,0,0,0,0,0,0,-1,1476,1597,0,0
259,-573,0,0,0,0,0,0,0,0,0,-1,1483,1597,0,0
266,-573,0,0,0,0,0,0,0,0,0,-1,1490,1597,0,0
273,-573,0,0,0,0,0,0,0,0,0,-1,1497,1597,0,0
280,-573,0,0,0,0,0,0,0,0,0,-1,1504,1597,0,0
287,-573,0,0,0,0,0,0,0,0,0,-1,1511,1597,0,0
294,-573,0,0,0,0,0,0,0,0,0,-1,1518,1597,0,0
301,-573,0,0,0,0,0,0,0,0,0,-1,1525,1597,0,0
308,-573,5.93042,9.71143,0,0,0,0,0,0,0,-1,1532,1597,5.93046,-9.71144
315,-573,4.34204,11.719,0,0,0,0,0,0,0,-1,1539,1597,4.34205,-11.719
322,-573,10.3269,7.77563,0,0,0,0,0,0,0,-1,1546,1597,10.327,-7.77565
329,-573,4.99573,3.80273,0,0,0,0,0,0,0,-1,1553,1597,4.9957,-3.80273
336,-573,4.85693,2.53455,0,0,0,0,0,0,0,-1,1560,1597,4.8569,-2.53459
343,-573,4.11877,0.735596,0,0,0,0,0,0,0,-1,1567,1597,4.11878,-0.735585
350,-573,2.53748,1.56433,0,0,0,0,0,0,0,-1,1574,1597,2.53753,-1.5643
357,-573,7.40247,4.03613,0,0,0,0,0,0,0,-1,1581,1597,7.40244,-4.03614
364,-573,7.14551,3.02087,0,0,0,0,0,0,0,-1,1588,1597,7.14556,-3.02084
371,-573,6.88867,2.00549,0,0,0,0,0,0,0,-1,1595,1597,6.88868,-2.00553
378,-573,8.62012,6.09106,0,0,0,0,0,0,0,-1,1602,1597,8.62012,-6.09103
385,-573,6.54346,-0.951904,0,0,0,0,0,0,0,-1,1609,1597,6.54349,0.951901
392,-573,6.41833,-2.18225,0,0,0,0,0,0,0,-1,1616,1597,6.41831,2.18228
399,-573,4.26282,4.73657,0,0,0,0,0,0,0,-1,1623,1597,4.26285,-4.73652
406,-573,6.82715,10.823,0,0,0,0,0,0,0,-1,1630,1597,6.82719,-10.823
413,-573,8.48364,13.7091,0,0,0,0,0,0,0,-1,1637,1597,8.48361,-13.7091
420,-573,8.70215,13.7054,0,0,0,0,0,0,0,-1,1644,1597,8.70218,-13.7054
427,-573,8.0553,12.4823,0,0,0,0,0,0,0,-1,1651,1597,8.05535,-12.4823
434,-573,8.01477,12.7119,-0.000735237,-0.0154639,0.0114984,0.00555495,-0.0217541,0.500576,0.0166659,0.046578,1658,1597,8.01479,-12.7119
441,-573,8.1073,12.9009,-0.0017817,-0.0147809,0.0105204,0.00408496,-0.0206476,0.508693,0.0153095,0.0298103,1665,1597,8.10729,-12.9008
448,-573,8.07166,12.8485,-0.00253082,-0.0136323,0.00946402,0.00289015,-0.0190533,0.520177,0.0137671,0.019085,1672,1597,8.07169,-12.8485
455,-573,8.02808,12.6494,-0.00302906,-0.0122915,0.008352,0.00188979,-0.0172104,0.53225,0.0121526,0.0149068,1679,1597,8.02808,-12.6494
462,-573,8.03442,12.4414,-0.00311728,-0.0107797,0.00716002,0.00117211,-0.0150691,0.539739,0.0104587,0.0169987,1686,1597,8.03441,-12.4415
469,-573,8.07141,12.251,-0.00295101,-0.00914337,0.00592603,0.00063893,-0.0127333,0.544667,0.00870966,0.0156004,1693,1597,8.07146,-12.2509
476,-573,8.10144,12.0542,-0.002587,-0.00741275,0.00469293,0.000277014,-0.0102768,0.547946,0.00694536,0.0142931,1700,1597,8.10145,-12.0542
483,-573,8.09094,11.8826,-0.00202649,-0.00562843,0.00360636,0.000203583,-0.0078585,0.55382,0.00530817,0.0104715,1707,1597,8.09092,-11.8826
490,-573,8.08667,11.7009,-0.00153857,-0.00394414,0.00277379,0.000281983,-0.00576469,0.580822,0.00394049,0.00962487,1714,1597,8.08665,-11.701
497,-573,8.10657,11.4988,-0.000881075,-0.00249282,0.00157102,7.87046e-05,-0.0034526,0.548417,0.00232841,0.0150872,1721,1597,8.10662,-11.4987
504,-573,8.11084,11.288,-7.33105e-05,-0.00122134,0.000582288,0.000170324,-0.00146498,0.396275,0.0010381,0.0176616,1728,1597,8.11083,-11.288
511,-573,8.10388,11.0809,0.00068857,-0.00028451,-0.000115031,0.000701983,-0.000297923,-0.116082,0.0005928,0.0180062,1735,1597,8.10385,-11.0809
518,-573,8.0802,10.8859,0.00116847,0.00042254,-0.000549475,0.0014596,0.000131408,-0.487232,0.000932359,0.0132079,1742,1597,8.0802,-10.8859
525,-573,8.05725,10.6931,0.00147418,0.000861821,-0.000827449,0.00205028,0.00028572,-0.608196,0.00128227,0.016065,1749,1597,8.05723,-10.6931
532,-573,8.09436,10.4611,0.00182806,0.00115498,-0.000934695,0.00248496,0.000498088,-0.612597,0.0015181,0.0154665,1756,1597,8.09435,-10.4611
539,-573,8.07874,10.2761,0.00246845,0.00169043,-0.00117405,0.00331626,0.000842624,-0.62542,0.00199033,0.0195357,1763,1597,8.07876,-10.2762
546,-573,8.10657,10.0322,0.00339284,0.00240076,-0.00150459,0.00448105,0.00131256,-0.626166,0.00266007,0.033109,1770,1597,8.10656,-10.0322
553,-573,7.85718,9.76428,0.00484831,0.00326803,-0.00204164,0.00624737,0.00186897,-0.600768,0.00370265,0.0479807,1777,1597,7.85713,-9.76429
560,-573,7.80811,9.53308,0,0,0,0,0,0,0,-1,1784,1597,7.80807,-9.53312
567,-573,4.99597,2.77759,0,0,0,0,0,0,0,-1,1791,1597,4.99596,-2.7776
574,-573,0.83374,5.7041,0,0,0,0,0,0,0,-1,1798,1597,0.833718,-5.70405
581,-573,-0.224854,7.41602,0,0,0,0,0,0,0,-1,1805,1597,-0.224904,-7.41596
588,-573,-0.134033,7.67065,0,0,0,0,0,0,0,-1,1812,1597,-0.134037,-7.67063
595,-573,-0.0825195,8.35083,0,0,0,0,0,0,0,-1,1819,1597,-0.0824684,-8.35088
602,-573,0,0,0,0,0,0,0,0,0,-1,1826,1597,0,0
609,-573,0,0,0,0,0,0,0,0,0,-1,1833,1597,0,0
616,-573,0,0,0,0,0,0,0,0,0,-1,1840,1597,0,0
623,-573,0,0,0,0,0,0,0,0,0,-1,1847,1597,0,0
630,-573,0,0,0,0,0,0,0,0,0,-1,1854,1597,0,0
637,-573,0,0,0,0,0,0,0,0,0,-1,1861,1597,0,0
644,-573,0,0,0,0,0,0,0,0,0,-1,1868,1597,0,0
651,-573,0,0,0,0,0,0,0,0,0,-1,1875,1597,0,0
658,-573,0,0,0,0,0,0,0,0,0,-1,1882,1597,0,0
665,-573,0,0,0,0,0,0,0,0,0,-1,1889,1597,0,0
672,-573,0,0,0,0,0,0,0,0,0,-1,1896,1597,0,0
679,-573,0,0,0,0,0,0,0,0,0,-1,1903,1597,0,0
686,-573,0,0,0,0,0,0,0,0,0,-1,1910,1597,0,0
693,-573,0,0,0,0,0,0,0,0,0,-1,1917,1597,0,0
700,-573,0,0,0,0,0,0,0,0,0,-1,1924,1597,0,0
707,-573,0,0,0,0,0,0,0,0,0,-1,1931,1597,0,0
714,-573,0,0,0,0,0,0,0,0,0,-1,1938,1597,0,0
721,-573,0,0,0,0,0,0,0,0,0,-1,1945,1597,0,0
728,-573,0,0,0,0,0,0,0,0,0,-1,1952,1597,0,0
735,-573,0,0,0,0,0,0,0,0,0,-1,1959,1597,0,0
742,-573,0,0,0,0,0,0,0,0,0,-1,1966,1597,0,0
749,-573,0,0,0,0,0,0,0,0,0,-1,1973,1597,0,0
756,-573,0,0,0,0,0,0,0,0,0,-1,1980,1597,0,0
763,-573,0,0,0,0,0,0,0,0,0,-1,1987,1597,0,0
770,-573,0,0,0,0,0,0,0,0,0,-1,1994,1597,0,0
777,-573,0,0,0,0,0,0,0,0,0,-1,2001,1597,0,0
784,-573,0,0,0,0,0,0,0,0,0,-1,2008,1597,0,0
791,-573,0,0,0,0,0,0,0,0,0,-1,2015,1597,0,0
798,-573,0,0,0,0,0,0,0,0,0,-1,2022,1597,0,0
805,-573,0,0,0,0,0,0,0,0,0,-1,2029,1597,0,0
812,-573,0,0,0,0,0,0,0,0,0,-1,2036,1597,0,0
-700,-580,0,0,0,0,0,0,0,0,0,-1,524,1604,0,0
-693,-580,0,0,0,0,0,0,0,0,0,-1,531,1604,0,0
-686,-580,0,0,0,0,0,0,0,0,0,-1,538,1604,0,0
-679,-580,0,0,0,0,0,0,0,0,0,-1,545,1604,0,0
-672,-580,0,0,0,0,0,0,0,0,0,-1,552,1604,0,0
-665,-580,0,0,0,0,0,0,0,0,0,-1,559,1604,0,0
-658,-580,0,0,0,0,0,0,0,0,0,-1,566,1604,0,0
-651,-580,0,0,0,0,0,0,0,0,0,-1,573,1604,0,0
-644,-580,0,0,0,0,0,0,0,0,0,-1,580,1604,0,0
-637,-580,0,0,0,0,0,0,0,0,0,-1,587,1604,0,0
-630,-580,0,0,0,0,0,0,0,0,0,-1,594,1604,0,0
-623,-580,0,0,0,0,0,0,0,0,0,-1,601,1604,0,0
-616,-580,0,0,0,0,0,0,0,0,0,-1,608,1604,0,0
-609,-580,0,0,0,0,0,0,0,0,0,-1,615,1604,0,0
-602,-580,0,0,0,0,0,0,0,0,0,-1,622,1604,0,0
-595,-580,0,0,0,0,0,0,0,0,0,-1,629,1604,0,0
-588,-580,0,0,0,0,0,0,0,0,0,-1,636,1604,0,0
-581,-580,0,0,0,0,0,0,0,0,0,-1,643,1604,0,0
-574,-580,0,0,0,0,0,0,0,0,0,-1,650,1604,0,0
-567,-580,0,0,0,0,0,0,0,0,0,-1,657,1604,0,0
-560,-580,0,0,0,0,0,0,0,0,0,-1,664,1604,0,0
-553,-580,0,0,0,0,0,0,0,0,0,-1,671,1604,0,0
-546,-580,0,0,0,0,0,0,0,0,0,-1,678,1604,0,0
-539,-580,0,0,0,0,0,0,0,0,0,-1,685,1604,0,0
-532,-580,0,0,0,0,0,0,0,0,0,-1,692,1604,0,0
-525,-580,0,0,0,0,0,0,0,0,0,-1,699,1604,0,0
-518,-580,0,0,0,0,0,0,0,0,0,-1,706,1604,0,0
-511,-580,0,0,0,0,0,0,0,0,0,-1,713,1604,0,0
-504,-580,0,0,0,0,0,0,0,0,0,-1,720,1604,0,0
-497,-580,0,0,0,0,0,0,0,0,0,-1,727,1604,0,0
-490,-580,0,0,0,0,0,0,0,0,0,-1,734,1604,0,0
-483,-580,0,0,0,0,0,0,0,0,0,-1,741,1604,0,0
-476,-580,0,0,0,0,0,0,0,0,0,-1,748,1604,0,0
-469,-580,3.14844,-3.7981,0,0,0,0,0,0,0,-1,755,1604,3.14841,3.79804
-462,-580,2.25659,-2.00464,0,0,0,0,0,0,0,-1,762,1604,2.25656,2.00459
-455,-580,-5.04474,-0.151001,0,0,0,0,0,0,0,-1,769,1604,-5.04472,0.151038
-448,-580,-3.31891,2.07544,0,0,0,0,0,0,0,-1,776,1604,-3.3189,-2.07539
-441,-580,-1.63843,3.9469,0,0,0,0,0,0,0,-1,783,1604,-1.63842,-3.94695
-434,-580,0.23291,5.97876,0,0,0,0,0,0,0,-1,790,1604,0.232901,-5.97878
-427,-580,1.62756,8.05493,0,0,0,0,0,0,0,-1,797,1604,1.62758,-8.05488
-420,-580,1.49054,8.07971,0,0,0,0,0,0,0,-1,804,1604,1.49054,-8.07975
-413,-580,1.61517,8.60962,0,0,0,0,0,0,0,-1,811,1604,1.61515,-8.6096
-406,-580,1.68591,8.91187,-0.000302194,0.00270396,-0.00194093,0.00365577,-0.001254,-1.11487,0.00294554,0.0404676,818,1604,1.6859,-8.91186
-399,-580,1.6507,9.16956,-0.00120797,0.00200956,-0.00195166,0.00293004,-0.00212845,-1.13009,0.00293272,0.0160076,825,1604,1.65069,-9.16955
-392,-580,1.65442,9.41223,-0.00171933,0.0013717,-0.00179168,0.00219235,-0.00253998,-1.14128,0.00273467,0.0112399,832,1604,1.65442,-9.41226
-385,-580,1.64899,9.62659,-0.00179326,0.000762001,-0.0016516,0.00157246,-0.00260372,-1.11461,0.0024355,0.0114895,839,1604,1.64898,-9.62655
-378,-580,1.64252,9.84387,-0.00159045,0.000373068,-0.00138654,0.00109024,-0.00230762,-1.09346,0.00200328,0.0137671,846,1604,1.6425,-9.84384
-371,-580,1.6319,10.0801,-0.00119501,8.51166e-05,-0.00109648,0.000714676,-0.00182457,-1.04959,0.00151199,0.012434,853,1604,1.63192,-10.08
-364,-580,1.6181,10.3187,-0.000869951,-0.000235265,-0.000820114,0.000326763,-0.00143198,-0.970001,0.00108018,0.0184908,860,1604,1.6181,-10.3187
-357,-580,1.62653,10.5328,-0.00031744,-0.000343745,-0.000495853,0.000165435,-0.00082662,-0.772139,0.000613703,0.0140512,867,1604,1.62652,-10.5328
-350,-580,1.64319,10.7632,0.000363435,-0.000371458,-0.000239812,0.000434767,-0.00044279,-0.289116,0.000506665,0.0107856,874,1604,1.64322,-10.7631
-343,-580,1.65564,10.9587,0.000944107,-0.000293761,-4.66982e-06,0.000944125,-0.000293779,-0.0037724,0.000746858,0.0109484,881,1604,1.65566,-10.9588
-336,-580,1.68732,11.1182,0.0015961,-0.000152119,5.47221e-05,0.00159782,-0.00015383,0.0312608,0.00112001,0.0180674,888,1604,1.68729,-11.1182
-329,-580,1.66632,11.3728,0.00217734,9.55387e-05,7.27791e-05,0.00217989,9.29976e-05,0.0349028,0.00142327,0.0165471,895,1604,1.66633,-11.3727
-322,-580,1.651,11.6151,0.00257009,0.000363951,-8.6023e-05,0.00257344,0.000360602,-0.0389138,0.00160895,0.0179466,902,1604,1.65098,-11.6152
-315,-580,1.65625,11.8162,0.00288674,0.000448896,-0.000477527,0.00297694,0.000358695,-0.186693,0.00187652,0.014917,909,1604,1.65624,-11.8162
-308,-580,1.67731,12.0341,0.00328321,0.000349969,-0.00105802,0.003625,8.17154e-06,-0.312472,0.00241395,0.0175352,916,1604,1.6773,-12.0341
-301,-580,1.72363,12.1625,0.00361428,0.000128242,-0.00176709,0.00435335,-0.00061082,-0.396128,0.00312579,0.0156161,923,1604,1.72361,-12.1624
-294,-580,1.72455,12.3328,0.00365897,-0.000650862,-0.00285898,0.0050842,-0.00207609,-0.462454,0.00425386,0.0195666,930,1604,1.72454,-12.3327
-287,-580,1.88934,12.3516,0.00364069,-0.00182632,-0.00418182,0.00590315,-0.00408878,-0.495925,0.00580045,0.042337,937,1604,1.88935,-12.3515
-280,-580,2.01233,12.3535,0,0,0,0,0,0,0,-1,944,1604,2.01234,-12.3535
-273,-580,1.08362,12.1965,0,0,0,0,0,0,0,-1,951,1604,1.0836,-12.1965
-266,-580,0.494202,8.78955,0,0,0,0,0,0,0,-1,958,1604,0.494174,-8.78958
-259,-580,1.31091,9.11536,0,0,0,0,0,0,0,-1,965,1604,1.31092,-9.11539
-252,-580,1.07629,7.74097,0,0,0,0,0,0,0,-1,972,1604,1.07627,-7.74101
-245,-580,3.80304,9.16028,0,0,0,0,0,0,0,-1,979,1604,3.80306,-9.16034
-238,-580,-10.3588,1.57556,0,0,0,0,0,0,0,-1,986,1604,-10.3588,-1.5755
-231,-580,-8.31555,2.04456,0,0,0,0,0,0,0,-1,993,1604,-8.31553,-2.04457
-224,-580,-5.93512,5.573,0,0,0,0,0,0,0,-1,1000,1604,-5.93513,-5.57301
-217,-580,-4.62665,6.6665,0,0,0,0,0,0,0,-1,1007,1604,-4.62663,-6.66649
-210,-580,-2.88062,10.3019,0,0,0,0,0,0,0,-1,1014,1604,-2.8806,-10.3019
-203,-580,-2.58307,10.3154,0,0,0,0,0,0,0,-1,1021,1604,-2.58306,-10.3154
-196,-580,-2.28552,10.3289,0,0,0,0,0,0,0,-1,1028,1604,-2.28552,-10.3288
-189,-580,-4.58252,7.59058,0,0,0,0,0,0,0,-1,1035,1604,-4.58256,-7.59057
-182,-580,-5.45874,7.65942,0,0,0,0,0,0,0,-1,1042,1604,-5.45876,-7.65939
-175,-580,-6.38977,7.55005,0,0,0,0,0,0,0,-1,1049,1604,-6.38981,-7.5501
-168,-580,0,0,0,0,0,0,0,0,0,-1,1056,1604,0,0
-161,-580,0,0,0,0,0,0,0,0,0,-1,1063,1604,0,0
-154,-580,0,0,0,0,0,0,0,0,0,-1,1070,1604,0,0
-147,-580,0,0,0,0,0,0,0,0,0,-1,1077,1604,0,0
-140,-580,0,0,0,0,0,0,0,0,0,-1,1084,1604,0,0
-133,-580,0,0,0,0,0,0,0,0,0,-1,1091,1604,0,0
-126,-580,0,0,0,0,0,0,0,0,0,-1,1098,1604,0,0
-119,-580,0,0,0,0,0,0,0,0,0,-1,1105,1604,0,0
-112,-580,0,0,0,0,0,0,0,0,0,-1,1112,1604,0,0
-105,-580,0,0,0,0,0,0,0,0,0,-1,1119,1604,0,0
-98,-580,0,0,0,0,0,0,0,0,0,-1,1126,1604,0,0
-91,-580,0,0,0,0,0,0,0,0,0,-1,1133,1604,0,0
-84,-580,0,0,0,0,0,0,0,0,0,-1,1140,1604,0,0
-77,-580,0,0,0,0,0,0,0,0,0,-1,1147,1604,0,0
-70,-580,0,0,0,0,0,0,0,0,0,-1,1154,1604,0,0
-63,-580,0,0,0,0,0,0,0,0,0,-1,1161,1604,0,0
-56,-580,0,0,0,0,0,0,0,0,0,-1,1168,1604,0,0
-49,-580,0,0,0,0,0,0,0,0,0,-1,1175,1604,0,0
-42,-580,0,0,0,0,0,0,0,0,0,-1,1182,1604,0,0
-35,-580,0,0,0,0,0,0,0,0,0,-1,1189,1604,0,0
-28,-580,0,0,0,0,0,0,0,0,0,-1,1196,1604,0,0
-21,-580,0,0,0,0,0,0,0,0,0,-1,1203,1604,0,0
-14,-580,0,0,0,0,0,0,0,0,0,-1,1210,1604,0,0
-7,-580,0,0,0,0,0,0,0,0,0,-1,1217,1604,0,0
0,-580,0,0,0,0,0,0,0,0,0,-1,1224,1604,0,0
7,-580,0,0,0,0,0,0,0,0,0,-1,1231,1604,0,0
14,-580,0,0,0,0,0,0,0,0,0,-1,1238,1604,0,0
21,-580,0,0,0,0,0,0,0,0,0,-1,1245,1604,0,0
28,-580,0,0,0,0,0,0,0,0,0,-1,1252,1604,0,0
35,-580,0,0,0,0,0,0,0,0,0,-1,1259,1604,0,0
42,-580,0,0,0,0,0,0,0,0,0,-1,1266,1604,0,0
49,-580,0,0,0,0,0,0,0,0,0,-1,1273,1604,0,0
56,-580,0,0,0,0,0,0,0,0,0,-1,1280,1604,0,0
63,-580,0,0,0,0,0,0,0,0,0,-1,1287,1604,0,0
70,-580,0,0,0,0,0,0,0,0,0,-1,1294,1604,0,0
77,-580,0,0,0,0,0,0,0,0,0,-1,1301,1604,0,0
84,-580,0,0,0,0,0,0,0,0,0,-1,1308,1604,0,0
91,-580,0,0,0,0,0,0,0,0,0,-1,1315,1604,0,0
98,-580,0,0,0,0,0,0,0,0,0,-1,1322,1604,0,0
105,-580,0,0,0,0,0,0,0,0,0,-1,1329,1604,0,0
112,-580,0,0,0,0,0,0,0,0,0,-1,1336,1604,0,0
119,-580,0,0,0,0,0,0,0,0,0,-1,1343,1604,0,0
126,-580,0,0,0,0,0,0,0,0,0,-1,1350,1604,0,0
133,-580,0,0,0,0,0,0,0,0,0,-1,1357,1604,0,0
140,-580,0,0,0,0,0,0,0,0,0,-1,1364,1604,0,0
147,-580,0,0,0,0,0,0,0,0,0,-1,1371,1604,0,0
154,-580,0,0,0,0,0,0,0,0,0,-1,1378,1604,0,0
161,-580,0,0,0,0,0,0,0,0,0,-1,1385,1604,0,0
168,-580,0,0,0,0,0,0,0,0,0,-1,1392,1604,0,0
175,-580,0,0,0,0,0,0,0,0,0,-1,1399,1604,0,0
182,-580,0,0,0,0,0,0,0,0,0,-1,1406,1604,0,0
189,-580,0,0,0,0,0,0,0,0,0,-1,1413,1604,0,0
196,-580,0,0,0,0,0,0,0,0,0,-1,1420,1604,0,0
203,-580,0,0,0,0,0,0,0,0,0,-1,1427,1604,0,0
210,-580,0,0,0,0,0,0,0,0,0,-1,1434,1604,0,0
217,-580,0,0,0,0,0,0,0,0,0,-1,1441,1604,0,0
224,-580,0,0,0,0,0,0,0,0,0,-1,1448,1604,0,0
231,-580,0,0,0,0,0,0,0,0,0,-1,1455,1604,0,0
238,-580,0,0,0,0,0,0,0,0,0,-1,1462,1604,0,0
245,-580,0,0,0,0,0,0,0,0,0,-1,1469,1604,0,0
252,-580,0,0,0,0,0,0,0,0,0,-1,1476,1604,0,0
259,-580,0,0,0,0,0,0,0,0,0,-1,1483,1604,0,0
266,-580,0,0,0,0,0,0,0,0,0,-1,1490,1604,0,0
273,-580,0,0,0,0,0,0,0,0,0,-1,1497,1604,0,0
280,-580,0,0,0,0,0,0,0,0,0,-1,1504,1604,0,0
287,-580,0,0,0,0,0,0,0,0,0,-1,1511,1604,0,0
294,-580,4.0437,0.177368,0,0,0,0,0,0,0,-1,1518,1604,4.04369,-0.177371
301,-580,7.55164,8.05798,0,0,0,0,0,0,0,-1,1525,1604,7.55158,-8.05802
308,-580,5.9126,9.99341,0,0,0,0,0,0,0,-1,1532,1604,5.91255,-9.99337
315,-580,4.27356,11.9287,0,0,0,0,0,0,0,-1,1539,1604,4.27352,-11.9287
322,-580,10.2366,7.50281,0,0,0,0,0,0,0,-1,1546,1604,10.2366,-7.50282
329,-580,10.5962,8.69641,0,0,0,0,0,0,0,-1,1553,1604,10.5962,-8.69642
336,-580,3.66431,1.58862,0,0,0,0,0,0,0,-1,1560,1604,3.6643,-1.58864
343,-580,3.32227,1.39636,0,0,0,0,0,0,0,-1,1567,1604,3.32222,-1.39633
350,-580,8.71277,4.0564,0,0,0,0,0,0,0,-1,1574,1604,8.71271,-4.05638
357,-580,8.52332,3.08154,0,0,0,0,0,0,0,-1,1581,1604,8.52332,-3.08157
364,-580,8.25818,2.07605,0,0,0,0,0,0,0,-1,1588,1604,8.25812,-2.07608
371,-580,7.42114,7.14282,0,0,0,0,0,0,0,-1,1595,1604,7.42119,-7.14281
378,-580,7.9718,6.6731,0,0,0,0,0,0,0,-1,1602,1604,7.9718,-6.67307
385,-580,8.52246,6.20337,0,0,0,0,0,0,0,-1,1609,1604,8.52241,-6.20334
392,-580,6.5498,-2.15625,0,0,0,0,0,0,0,-1,1616,1604,6.54984,2.15626
399,-580,6.52625,10.7247,0,0,0,0,0,0,0,-1,1623,1604,6.52628,-10.7248
406,-580,8.29895,13.7069,0,0,0,0,0,0,0,-1,1630,1604,8.29894,-13.7069
413,-580,8.21521,13.6797,-0.000236017,-0.0126714,0.0136246,0.00852258,-0.02143,0.571334,0.0178203,0.0483758,1637,1604,8.21521,-13.6796
420,-580,8.24829,13.6636,-0.000573548,-0.0123472,0.0122617,0.00714127,-0.020062,0.561598,0.0162857,0.0416588,1644,1604,8.24823,-13.6636
427,-580,8.16248,13.0945,0,0,0,0,0,0,0,-1,1651,1604,8.16253,-13.0945
434,-580,7.97046,13.0546,-0.00145862,-0.0114988,0.00982988,0.00455886,-0.0175163,0.549314,0.013457,0.02766,1658,1604,7.97051,-13.0545
441,-580,7.84399,12.9723,-0.00184282,-0.0107923,0.00865472,0.00342552,-0.0160606,0.54681,0.0120128,0.0121944,1665,1604,7.84397,-12.9723
448,-580,7.8678,12.8215,-0.00210101,-0.00968105,0.00748997,0.00250325,-0.0142853,0.551175,0.0104583,0.0112754,1672,1604,7.8678,-12.8215
455,-580,7.86572,12.6343,-0.00229338,-0.00856901,0.00637038,0.00167004,-0.0125324,0.556558,0.00896365,0.0169307,1679,1604,7.86571,-12.6342
462,-580,7.82068,12.4355,-0.0022388,-0.0073664,0.00525459,0.0010441,-0.0106493,0.558431,0.00747191,0.0208798,1686,1604,7.82066,-12.4355
469,-580,7.84839,12.2286,-0.00205288,-0.00603925,0.004142,0.000550558,-0.00864269,0.561145,0.0059538,0.0197065,1693,1604,7.84841,-12.2286
476,-580,7.8999,12.0344,-0.00177845,-0.00467375,0.00310769,0.000202231,-0.00665443,0.567429,0.00450521,0.0152544,1700,1604,7.89991,-12.0345
483,-580,7.88782,11.8666,-0.00136749,-0.00330245,0.00226097,0.000124301,-0.00479424,0.583234,0.00323839,0.012058,1707,1604,7.88777,-11.8666
490,-580,7.87097,11.6986,-0.000924072,-0.00197623,0.00155703,0.000193353,-0.00309365,0.622483,0.00212981,0.0135042,1714,1604,7.87102,-11.6987
497,-580,7.85669,11.5056,-0.000345852,-0.000920455,0.00060265,3.44763e-05,-0.00130078,0.562968,0.000878906,0.0114602,1721,1604,7.85668,-11.5056
504,-580,7.86853,11.2766,0.00025889,-4.25861e-05,-8.51168e-05,0.000281261,-6.49574e-05,-0.257017,0.000212495,0.016862,1728,1604,7.86856,-11.2766
511,-580,7.88354,11.0604,0.000821842,0.000573511,-0.000537548,0.00124938,0.000145974,-0.671896,0.000788776,0.0168462,1735,1604,7.88351,-11.0605
518,-580,7.89307,10.8737,0.00117368,0.000899706,-0.000811058,0.00185923,0.000214146,-0.701739,0.00117463,0.0154575,1742,1604,7.89312,-10.8737
525,-580,7.8562,10.6737,0.00148149,0.00109552,-0.00093944,0.00224756,0.000329446,-0.684096,0.00140152,0.017277,1749,1604,7.85626,-10.6737
532,-580,7.87024,10.4702,0.00188903,0.00132143,-0.000968453,0.00261441,0.000596049,-0.642866,0.00158213,0.020615,1756,1604,7.87026,-10.4702
539,-580,7.88184,10.3424,0.00255541,0.00168773,-0.00106197,0.00326874,0.000974404,-0.591481,0.00193782,0.0259998,1763,1604,7.88183,-10.3424
546,-580,8.13147,10.093,0.00353421,0.00223101,-0.00125731,0.00429873,0.00146649,-0.546329,0.00252328,0.043207,1770,1604,8.13152,-10.093
553,-580,8.46619,9.75879,0,0,0,0,0,0,0,-1,1777,1604,8.46619,-9.75881
560,-580,7.09021,6.49438,0,0,0,0,0,0,0,-1,1784,1604,7.09016,-6.4944
567,-580,3.87708,4.0647,0,0,0,0,0,0,0,-1,1791,1604,3.87711,-4.06471
574,-580,2.31653,5.62952,0,0,0,0,0,0,0,-1,1798,1604,2.31654,-5.62947
581,-580,1.60876,6.67664,0,0,0,0,0,0,0,-1,1805,1604,1.60873,-6.67667
588,-580,1.38684,7.14441,0,0,0,0,0,0,0,-1,1812,1604,1.38689,-7.14443
595,-580,0,0,0,0,0,0,0,0,0,-1,1819,1604,0,0
602,-580,0,0,0,0,0,0,0,0,0,-1,1826,1604,0,0
609,-580,0,0,0,0,0,0,0,0,0,-1,1833,1604,0,0
616,-580,0,0,0,0,0,0,0,0,0,-1,1840,1604,0,0
623,-580,0,0,0,0,0,0,0,0,0,-1,1847,1604,0,0
630,-580,0,0,0,0,0,0,0,0,0,-1,1854,1604,0,0
637,-580,0,0,0,0,0,0,0,0,0,-1,1861,1604,0,0
644,-580,0,0,0,0,0,0,0,0,0,-1,1868,1604,0,0
651,-580,0,0,0,0,0,0,0,0,0,-1,1875,1604,0,0
658,-580,0,0,0,0,0,0,0,0,0,-1,1882,1604,0,0
665,-580,0,0,0,0,0,0,0,0,0,-1,1889,1604,0,0
672,-580,0,0,0,0,0,0,0,0,0,-1,1896,1604,0,0
679,-580,0,0,0,0,0,0,0,0,0,-1,1903,1604,0,0
686,-580,0,0,0,0,0,0,0,0,0,-1,1910,1604,0,0
693,-580,0,0,0,0,0,0,0,0,0,-1,1917,1604,0,0
700,-580,0,0,0,0,0,0,0,0,0,-1,1924,1604,0,0
707,-580,0,0,0,0,0,0,0,0,0,-1,1931,1604,0,0
714,-580,0,0,0,0,0,0,0,0,0,-1,1938,1604,0,0
721,-580,0,0,0,0,0,0,0,0,0,-1,1945,1604,0,0
728,-580,0,0,0,0,0,0,0,0,0,-1,1952,1604,0,0
735,-580,0,0,0,0,0,0,0,0,0,-1,1959,1604,0,0
742,-580,0,0,0,0,0,0,0,0,0,-1,1966,1604,0,0
749,-580,0,0,0,0,0,0,0,0,0,-1,1973,1604,0,0
756,-580,0,0,0,0,0,0,0,0,0,-1,1980,1604,0,0
763,-580,0,0,0,0,0,0,0,0,0,-1,1987,1604,0,0
770,-580,0,0,0,0,0,0,0,0,0,-1,1994,1604,0,0
777,-580,0,0,0,0,0,0,0,0,0,-1,2001,1604,0,0
784,-580,0,0,0,0,0,0,0,0,0,-1,2008,1604,0,0
791,-580,0,0,0,0,0,0,0,0,0,-1,2015,1604,0,0
798,-580,0,0,0,0,0,0,0,0,0,-1,2022,1604,0,0
805,-580,0,0,0,0,0,0,0,0,0,-1,2029,1604,0,0
812,-580,0,0,0,0,0,0,0,0,0,-1,2036,1604,0,0
-700,-587,0,0,0,0,0,0,0,0,0,-1,524,1611,0,0
-693,-587,0,0,0,0,0,0,0,0,0,-1,531,1611,0,0
-686,-587,0,0,0,0,0,0,0,0,0,-1,538,1611,0,0
-679,-587,0,0,0,0,0,0,0,0,0,-1,545,1611,0,0
-672,-587,0,0,0,0,0,0,0,0,0,-1,552,1611,0,0
-665,-587,0,0,0,0,0,0,0,0,0,-1,559,1611,0,0
-658,-587,0,0,0,0,0,0,0,0,0,-1,566,1611,0,0
-651,-587,0,0,0,0,0,0,0,0,0,-1,573,1611,0,0
-644,-587,0,0,0,0,0,0,0,0,0,-1,580,1611,0,0
-637,-587,0,0,0,0,0,0,0,0,0,-1,587,1611,0,0
-630,-587,0,0,0,0,0,0,0,0,0,-1,594,1611,0,0
-623,-587,0,0,0,0,0,0,0,0,0,-1,601,1611,0,0
-616,-587,0,0,0,0,0,0,0,0,0,-1,608,1611,0,0
-609,-587,0,0,0,0,0,0,0,0,0,-1,615,1611,0,0
-602,-587,0,0,0,0,0,0,0,0,0,-1,622,1611,0,0
-595,-587,0,0,0,0,0,0,0,0,0,-1,629,1611,0,0
-588,-587,0,0,0,0,0,0,0,0,0,-1,636,1611,0,0
-581,-587,0,0,0,0,0,0,0,0,0,-1,643,1611,0,0
-574,-587,0,0,0,0,0,0,0,0,0,-1,650,1611,0,0
-567,-587,0,0,0,0,0,0,0,0,0,-1,657,1611,0,0
-560,-587,0,0,0,0,0,0,0,0,0,-1,664,1611,0,0
-553,-587,0,0,0,0,0,0,0,0,0,-1,671,1611,0,0
-546,-587,0,0,0,0,0,0,0,0,0,-1,678,1611,0,0
-539,-587,0,0,0,0,0,0,0,0,0,-1,685,1611,0,0
-532,-587,0,0,0,0,0,0,0,0,0,-1,692,1611,0,0
-525,-587,0,0,0,0,0,0,0,0,0,-1,699,1611,0,0
-518,-587,0,0,0,0,0,0,0,0,0,-1,706,1611,0,0
-511,-587,0,0,0,0,0,0,0,0,0,-1,713,1611,0,0
-504,-587,0,0,0,0,0,0,0,0,0,-1,720,1611,0,0
-497,-587,0,0,0,0,0,0,0,0,0,-1,727,1611,0,0
-490,-587,0,0,0,0,0,0,0,0,0,-1,734,1611,0,0
-483,-587,0,0,0,0,0,0,0,0,0,-1,741,1611,0,0
-476,-587,0,0,0,0,0,0,0,0,0,-1,748,1611,0,0
-469,-587,0,0,0,0,0,0,0,0,0,-1,755,1611,0,0
-462,-587,2.34729,-3.43372,0,0,0,0,0,0,0,-1,762,1611,2.34728,3.43377
-455,-587,-6.97766,-1.34558,0,0,0,0,0,0,0,-1,769,1611,-6.97768,1.34562
-448,-587,-5.30365,0.934937,0,0,0,0,0,0,0,-1,776,1611,-5.30368,-0.934917
-441,-587,-3.56555,2.72253,0,0,0,0,0,0,0,-1,783,1611,-3.56555,-2.72259
-434,-587,-1.77319,4.76318,0,0,0,0,0,0,0,-1,790,1611,-1.77318,-4.76323
-427,-587,0.0346069,6.92944,0,0,0,0,0,0,0,-1,797,1611,0.034587,-6.92941
-420,-587,-0.647156,10.1157,0,0,0,0,0,0,0,-1,804,1611,-0.647128,-10.1158
-413,-587,1.90253,6.55469,0,0,0,0,0,0,0,-1,811,1611,1.9025,-6.55475
-406,-587,1.93384,8.87744,0,0,0,0,0,0,0,-1,818,1611,1.93386,-8.87744
-399,-587,1.97339,9.16492,-0.00231272,0.00230895,-0.00293967,0.00373731,-0.00374108,-1.1185,0.00431765,0.0335712,825,1611,1.97341,-9.16497
-392,-587,1.96393,9.32971,-0.00282482,0.00151862,-0.00260214,0.00273622,-0.00404242,-1.13314,0.0039378,0.0247249,832,1611,1.9639,-9.32976
-385,-587,1.86871,9.5946,-0.00277126,0.000781274,-0.00227046,0.00188773,-0.00387772,-1.11734,0.00339413,0.0155964,839,1611,1.8687,-9.59465
-378,-587,1.83203,9.84253,-0.00244001,0.00032796,-0.00186723,0.00126819,-0.00338024,-1.10432,0.00277457,0.0124072,846,1611,1.83202,-9.84252
-371,-587,1.83221,10.0941,-0.00191819,-1.70478e-05,-0.00145744,0.000772413,-0.00270765,-1.07437,0.00211023,0.0128344,853,1611,1.83224,-10.0941
-364,-587,1.85809,10.2927,-0.0014903,-0.000369246,-0.00108679,0.000293051,-0.0021526,-1.02349,0.00154206,0.0173157,860,1611,1.85808,-10.2927
-357,-587,1.85223,10.5161,-0.000852398,-0.000507773,-0.000687028,2.82214e-05,-0.00138839,-0.908268,0.000935144,0.0175792,867,1611,1.85224,-10.5161
-350,-587,1.83838,10.7516,-0.000124345,-0.000516632,-0.000387746,0.000114045,-0.000755021,-0.551237,0.000545352,0.00993694,874,1611,1.8384,-10.7515
-343,-587,1.82831,10.967,0.000463756,-0.000448036,-0.000109371,0.000476692,-0.000460972,-0.117727,0.000541386,0.0119064,881,1611,1.82831,-10.967
-336,-587,1.83826,11.1367,0.00110744,-0.000349709,-2.28766e-09,0.00110744,-0.000349709,-1.56996e-06,0.00087838,0.0115322,888,1611,1.83828,-11.1368
-329,-587,1.84363,11.3405,0.00168116,-0.000134563,2.69979e-05,0.00168156,-0.000134965,0.0148646,0.00116863,0.0137479,895,1611,1.84363,-11.3405
-322,-587,1.86035,11.5914,0.00203612,0.000105577,-0.000127532,0.00204451,9.71882e-05,-0.06568,0.00133179,0.0168032,902,1611,1.86037,-11.5914
-315,-587,1.84515,11.8064,0.00226757,0.000164582,-0.000463829,0.00236533,6.68246e-05,-0.20772,0.00155509,0.0137915,909,1611,1.84518,-11.8063
-308,-587,1.83899,11.9995,0.00255759,8.04202e-06,-0.000968289,0.00288364,-0.000318006,-0.324801,0.00203672,0.0142379,916,1611,1.83902,-11.9995
-301,-587,1.87,12.1866,0.00277707,-0.000285272,-0.00159401,0.00345618,-0.000964384,-0.402751,0.00268397,0.0125014,923,1611,1.86999,-12.1866
-294,-587,1.91724,12.3678,0.00283855,-0.00105238,-0.00247633,0.00404221,-0.00225605,-0.452441,0.00368472,0.0128672,930,1611,1.91722,-12.3678
-287,-587,1.98169,12.5643,0.00285544,-0.00214336,-0.00350371,0.00465987,-0.00394779,-0.47558,0.0049753,0.0233626,937,1611,1.98167,-12.5643
-280,-587,1.62793,12.5427,0,0,0,0,0,0,0,-1,944,1611,1.62792,-12.5427
-273,-587,1.5528,12.542,0,0,0,0,0,0,0,-1,951,1611,1.5528,-12.542
-266,-587,1.54114,12.7728,0,0,0,0,0,0,0,-1,958,1611,1.54115,-12.7728
-259,-587,1.75616,12.9146,0,0,0,0,0,0,0,-1,965,1611,1.75614,-12.9145
-252,-587,1.30188,10.3103,0,0,0,0,0,0,0,-1,972,1611,1.30188,-10.3104
-245,-587,2.8584,9.69812,0,0,0,0,0,0,0,-1,979,1611,2.85838,-9.69813
-238,-587,2.87799,9.53821,0,0,0,0,0,0,0,-1,986,1611,2.87797,-9.53823
-231,-587,2.49548,9.14465,0,0,0,0,0,0,0,-1,993,1611,2.49551,-9.14468
-224,-587,3.66693,8.11804,0,0,0,0,0,0,0,-1,1000,1611,3.66693,-8.11809
-217,-587,-5.39899,6.52637,0,0,0,0,0,0,0,-1,1007,1611,-5.39901,-6.52634
-210,-587,-3.96399,7.48633,0,0,0,0,0,0,0,-1,1014,1611,-3.96397,-7.48632
-203,-587,-3.33917,11.5876,0,0,0,0,0,0,0,-1,1021,1611,-3.33918,-11.5876
-196,-587,-2.32214,9.0835,0,0,0,0,0,0,0,-1,1028,1611,-2.32215,-9.08353
-189,-587,-3.04138,8.66638,0,0,0,0,0,0,0,-1,1035,1611,-3.04136,-8.66635
-182,-587,-3.97095,9.7146,0,0,0,0,0,0,0,-1,1042,1611,-3.97093,-9.71461
-175,-587,-4.80969,8.37878,0,0,0,0,0,0,0,-1,1049,1611,-4.80964,-8.37883
-168,-587,-5.91394,8.72546,0,0,0,0,0,0,0,-1,1056,1611,-5.91398,-8.72542
-161,-587,-7.06946,8.88501,0,0,0,0,0,0,0,-1,1063,1611,-7.06947,-8.885
-154,-587,-2.24731,6.56519,0,0,0,0,0,0,0,-1,1070,1611,-2.24728,-6.56517
-147,-587,0,0,0,0,0,0,0,0,0,-1,1077,1611,0,0
-140,-587,0,0,0,0,0,0,0,0,0,-1,1084,1611,0,0
-133,-587,0,0,0,0,0,0,0,0,0,-1,1091,1611,0,0
-126,-587,0,0,0,0,0,0,0,0,0,-1,1098,1611,0,0
-119,-587,0,0,0,0,0,0,0,0,0,-1,1105,1611,0,0
-112,-587,0,0,0,0,0,0,0,0,0,-1,1112,1611,0,0
-105,-587,0,0,0,0,0,0,0,0,0,-1,1119,1611,0,0
-98,-587,0,0,0,0,0,0,0,0,0,-1,1126,1611,0,0
-91,-587,0,0,0,0,0,0,0,0,0,-1,1133,1611,0,0
-84,-587,0,0,0,0,0,0,0,0,0,-1,1140,1611,0,0
-77,-587,0,0,0,0,0,0,0,0,0,-1,1147,1611,0,0
-70,-587,0,0,0,0,0,0,0,0,0,-1,1154,1611,0,0
-63,-587,0,0,0,0,0,0,0,0,0,-1,1161,1611,0,0
-56,-587,0,0,0,0,0,0,0,0,0,-1,1168,1611,0,0
-49,-587,0,0,0,0,0,0,0,0,0,-1,1175,1611,0,0
-42,-587,0,0,0,0,0,0,0,0,0,-1,1182,1611,0,0
-35,-587,0,0,0,0,0,0,0,0,0,-1,1189,1611,0,0
-28,-587,0,0,0,0,0,0,0,0,0,-1,1196,1611,0,0
-21,-587,0,0,0,0,0,0,0,0,0,-1,1203,1611,0,0
-14,-587,0,0,0,0,0,0,0,0,0,-1,1210,1611,0,0
-7,-587,0,0,0,0,0,0,0,0,0,-1,1217,1611,0,0
0,-587,0,0,0,0,0,0,0,0,0,-1,1224,1611,0,0
7,-587,0,0,0,0,0,0,0,0,0,-1,1231,1611,0,0
14,-587,0,0,0,0,0,0,0,0,0,-1,1238,1611,0,0
21,-587,0,0,0,0,0,0,0,0,0,-1,1245,1611,0,0
28,-587,0,0,0,0,0,0,0,0,0,-1,1252,1611,0,0
35,-587,0,0,0,0,0,0,0,0,0,-1,1259,1611,0,0
42,-587,0,0,0,0,0,0,0,0,0,-1,1266,1611,0,0
49,-587,0,0,0,0,0,0,0,0,0,-1,1273,1611,0,0
56,-587,0,0,0,0,0,0,0,0,0,-1,1280,1611,0,0
63,-587,0,0,0,0,0,0,0,0,0,-1,1287,1611,0,0
70,-587,0,0,0,0,0,0,0,0,0,-1,1294,1611,0,0
77,-587,0,0,0,0,0,0,0,0,0,-1,1301,1611,0,0
84,-587,0,0,0,0,0,0,0,0,0,-1,1308,1611,0,0
91,-587,0,0,0,0,0,0,0,0,0,-1,1315,1611,0,0
98,-587,0,0,0,0,0,0,0,0,0,-1,1322,1611,0,0
105,-587,0,0,0,0,0,0,0,0,0,-1,1329,1611,0,0
112,-587,0,0,0,0,0,0,0,0,0,-1,1336,1611,0,0
119,-587,0,0,0,0,0,0,0,0,0,-1,1343,1611,0,0
126,-587,0,0,0,0,0,0,0,0,0,-1,1350,1611,0,0
133,-587,0,0,0,0,0,0,0,0,0,-1,1357,1611,0,0
140,-587,0,0,0,0,0,0,0,0,0,-1,1364,1611,0,0
147,-587,0,0,0,0,0,0,0,0,0,-1,1371,1611,0,0
154,-587,0,0,0,0,0,0,0,0,0,-1,1378,1611,0,0
161,-587,0,0,0,0,0,0,0,0,0,-1,1385,1611,0,0
168,-587,0,0,0,0,0,0,0,0,0,-1,1392,1611,0,0
175,-587,0,0,0,0,0,0,0,0,0,-1,1399,1611,0,0
182,-587,0,0,0,0,0,0,0,0,0,-1,1406,1611,0,0
189,-587,0,0,0,0,0,0,0,0,0,-1,1413,1611,0,0
196,-587,0,0,0,0,0,0,0,0,0,-1,1420,1611,0,0
203,-587,0,0,0,0,0,0,0,0,0,-1,1427,1611,0,0
210,-587,0,0,0,0,0,0,0,0,0,-1,1434,1611,0,0
217,-587,0,0,0,0,0,0,0,0,0,-1,1441,1611,0,0
224,-587,0,0,0,0,0,0,0,0,0,-1,1448,1611,0,0
231,-587,0,0,0,0,0,0,0,0,0,-1,1455,1611,0,0
238,-587,0,0,0,0,0,0,0,0,0,-1,1462,1611,0,0
245,-587,0,0,0,0,0,0,0,0,0,-1,1469,1611,0,0
252,-587,0,0,0,0,0,0,0,0,0,-1,1476,1611,0,0
259,-587,0,0,0,0,0,0,0,0,0,-1,1483,1611,0,0
266,-587,0,0,0,0,0,0,0,0,0,-1,1490,1611,0,0
273,-587,10.2936,6.35083,0,0,0,0,0,0,0,-1,1497,1611,10.2936,-6.35087
280,-587,2.09204,1.1217,0,0,0,0,0,0,0,-1,1504,1611,2.092,-1.12176
287,-587,3.2865,0.671509,0,0,0,0,0,0,0,-1,1511,1611,3.28656,-0.671538
294,-587,4.24646,1.58765,0,0,0,0,0,0,0,-1,1518,1611,4.24648,-1.58761
301,-587,7.60474,8.37085,0,0,0,0,0,0,0,-1,1525,1611,7.60478,-8.37084
308,-587,5.99316,10.2291,0,0,0,0,0,0,0,-1,1532,1611,5.99315,-10.2291
315,-587,4.34558,12.3289,0,0,0,0,0,0,0,-1,1539,1611,4.34556,-12.3288
322,-587,10.4526,6.38245,0,0,0,0,0,0,0,-1,1546,1611,10.4526,-6.38245
329,-587,10.7738,8.42444,0,0,0,0,0,0,0,-1,1553,1611,10.7738,-8.42438
336,-587,7.5531,5.96619,0,0,0,0,0,0,0,-1,1560,1611,7.55311,-5.96617
343,-587,9.57495,4.38391,0,0,0,0,0,0,0,-1,1567,1611,9.57494,-4.38397
350,-587,9.50378,3.45093,0,0,0,0,0,0,0,-1,1574,1611,9.50376,-3.4509
357,-587,9.40027,2.50806,0,0,0,0,0,0,0,-1,1581,1611,9.40022,-2.50803
364,-587,9.26477,1.34131,0,0,0,0,0,0,0,-1,1588,1611,9.26479,-1.34126
371,-587,6.98926,7.87561,0,0,0,0,0,0,0,-1,1595,1611,6.98928,-7.87564
378,-587,6.96997,13.4526,0,0,0,0,0,0,0,-1,1602,1611,6.96999,-13.4526
385,-587,7.17224,7.03772,0,0,0,0,0,0,0,-1,1609,1611,7.1722,-7.03778
392,-587,5.3916,8.21436,0,0,0,0,0,0,0,-1,1616,1611,5.39157,-8.21437
399,-587,8.25244,13.8417,0,0,0,0,0,0,0,-1,1623,1611,8.25239,-13.8417
406,-587,8.08923,13.6943,-0.00133263,-0.010371,0.0134634,0.00834982,-0.0200535,0.623474,0.0168563,0.0431836,1630,1611,8.08925,-13.6943
413,-587,7.89966,13.6036,-0.00169469,-0.0101155,0.0119938,0.00680625,-0.0186165,0.616593,0.0151966,0.0324237,1637,1611,7.89966,-13.6036
420,-587,7.83923,13.5575,-0.00161608,-0.00955773,0.0106033,0.00573552,-0.0169093,0.606237,0.0135942,0.0319591,1644,1611,7.83919,-13.5575
427,-587,7.83313,13.3461,-0.00162355,-0.00901773,0.0093219,0.00470763,-0.0153489,0.596611,0.0121107,0.0250419,1651,1611,7.83315,-13.346
434,-587,7.67285,13.1599,-0.00169049,-0.00853842,0.00812645,0.00370386,-0.0139328,0.586017,0.0107382,0.0148293,1658,1611,7.67279,-13.1599
441,-587,7.62915,13.0072,-0.00174924,-0.00790708,0.00699093,0.00281074,-0.0124671,0.57797,0.00938959,0.016667,1665,1611,7.62914,-13.0072
448,-587,7.68127,12.8245,-0.00177522,-0.0069823,0.00593035,0.00209793,-0.0108554,0.578555,0.00802817,0.0155347,1672,1611,7.68127,-12.8245
455,-587,7.6925,12.636,-0.00179986,-0.00613357,0.00492823,0.00141684,-0.00935027,0.578278,0.0067555,0.0141215,1679,1611,7.69248,-12.636
462,-587,7.65955,12.4475,-0.00166683,-0.00522275,0.00395123,0.000888028,-0.00777761,0.573981,0.00550501,0.016918,1686,1611,7.65951,-12.4475
469,-587,7.6637,12.2642,-0.00146081,-0.0041434,0.00296965,0.000456409,-0.00606061,0.573278,0.00420082,0.0156691,1693,1611,7.66366,-12.2642
476,-587,7.68665,12.071,-0.00123727,-0.00304707,0.00210805,0.000151891,-0.00443623,0.582662,0.0030094,0.0107093,1700,1611,7.68659,-12.0711
483,-587,7.67969,11.8555,-0.000920575,-0.00196402,0.00143614,8.56757e-05,-0.00297027,0.61117,0.00200935,0.0129884,1707,1611,7.67974,-11.8554
490,-587,7.66052,11.6633,-0.000485414,-0.000871105,0.000801156,0.000145779,-0.0015023,0.667291,0.00105349,0.015279,1714,1611,7.6605,-11.6634
497,-587,7.62866,11.4843,6.45144e-05,-4.96146e-05,5.24693e-06,6.47551e-05,-4.98554e-05,0.0458448,6.63565e-05,0.0125909,1721,1611,7.6286,-11.4843
504,-587,7.63428,11.287,0.000539971,0.000605905,-0.000495732,0.00106976,7.61114e-05,-0.8186,0.000689208,0.011858,1728,1611,7.63423,-11.287
511,-587,7.64844,11.0787,0.000975028,0.00107463,-0.000821951,0.00184829,0.00020137,-0.815655,0.00117085,0.0134695,1735,1611,7.6485,-11.0787
518,-587,7.68835,10.8787,0.00125641,0.0012047,-0.00105597,0.00228683,0.000174269,-0.773158,0.00146991,0.0133655,1742,1611,7.68832,-10.8787
525,-587,7.69617,10.6664,0.00159821,0.00129878,-0.00114766,0.00260588,0.000291108,-0.720537,0.00164881,0.0158538,1749,1611,7.69621,-10.6664
532,-587,7.70154,10.4841,0.00204808,0.00145165,-0.00114217,0.00293032,0.000569406,-0.657699,0.00179412,0.0318842,1756,1611,7.70149,-10.4841
539,-587,7.79565,10.3053,0.00272076,0.00162288,-0.00112349,0.00342225,0.000921396,-0.558153,0.00204478,0.0446969,1763,1611,7.79571,-10.3053
546,-587,7.94739,10.0602,0,0,0,0,0,0,0,-1,1770,1611,7.94735,-10.0602
553,-587,7.5813,8.45068,0,0,0,0,0,0,0,-1,1777,1611,7.58125,-8.45068
560,-587,4.21179,5.23547,0,0,0,0,0,0,0,-1,1784,1611,4.21185,-5.23553
567,-587,4.03711,5.46387,0,0,0,0,0,0,0,-1,1791,1611,4.03715,-5.46382
574,-587,3.83142,5.68884,0,0,0,0,0,0,0,-1,1798,1611,3.83141,-5.68881
581,-587,3.47168,6.00977,0,0,0,0,0,0,0,-1,1805,1611,3.47167,-6.00983
588,-587,0,0,0,0,0,0,0,0,0,-1,1812,1611,0,0
595,-587,0,0,0,0,0,0,0,0,0,-1,1819,1611,0,0
602,-587,0,0,0,0,0,0,0,0,0,-1,1826,1611,0,0
609,-587,0,0,0,0,0,0,0,0,0,-1,1833,1611,0,0
616,-587,0,0,0,0,0,0,0,0,0,-1,1840,1611,0,0
623,-587,0,0,0,0,0,0,0,0,0,-1,1847,1611,0,0
630,-587,0,0,0,0,0,0,0,0,0,-1,1854,1611,0,0
637,-587,0,0,0,0,0,0,0,0,0,-1,1861,1611,0,0
644,-587,0,0,0,0,0,0,0,0,0,-1,1868,1611,0,0
651,-587,0,0,0,0,0,0,0,0,0,-1,1875,1611,0,0
658,-587,0,0,0,0,0,0,0,0,0,-1,1882,1611,0,0
665,-587,0,0,0,0,0,0,0,0,0,-1,1889,1611,0,0
672,-587,0,0,0,0,0,0,0,0,0,-1,1896,1611,0,0
679,-587,0,0,0,0,0,0,0,0,0,-1,1903,1611,0,0
686,-587,0,0,0,0,0,0,0,0,0,-1,1910,1611,0,0
693,-587,0,0,0,0,0,0,0,0,0,-1,1917,1611,0,0
700,-587,0,0,0,0,0,0,0,0,0,-1,1924,1611,0,0
707,-587,0,0,0,0,0,0,0,0,0,-1,1931,1611,0,0
714,-587,0,0,0,0,0,0,0,0,0,-1,1938,1611,0,0
721,-587,0,0,0,0,0,0,0,0,0,-1,1945,1611,0,0
728,-587,0,0,0,0,0,0,0,0,0,-1,1952,1611,0,0
735,-587,0,0,0,0,0,0,0,0,0,-1,1959,1611,0,0
742,-587,0,0,0,0,0,0,0,0,0,-1,1966,1611,0,0
749,-587,0,0,0,0,0,0,0,0,0,-1,1973,1611,0,0
756,-587,0,0,0,0,0,0,0,0,0,-1,1980,1611,0,0
763,-587,0,0,0,0,0,0,0,0,0,-1,1987,1611,0,0
770,-587,0,0,0,0,0,0,0,0,0,-1,1994,1611,0,0
777,-587,0,0,0,0,0,0,0,0,0,-1,2001,1611,0,0
784,-587,0,0,0,0,0,0,0,0,0,-1,2008,1611,0,0
791,-587,0,0,0,0,0,0,0,0,0,-1,2015,1611,0,0
798,-587,0,0,0,0,0,0,0,0,0,-1,2022,1611,0,0
805,-587,0,0,0,0,0,0,0,0,0,-1,2029,1611,0,0
812,-587,0,0,0,0,0,0,0,0,0,-1,2036,1611,0,0
-700,-594,0,0,0,0,0,0,0,0,0,-1,524,1618,0,0
-693,-594,0,0,0,0,0,0,0,0,0,-1,531,1618,0,0
-686,-594,0,0,0,0,0,0,0,0,0,-1,538,1618,0,0
-679,-594,0,0,0,0,0,0,0,0,0,-1,545,1618,0,0
-672,-594,0,0,0,0,0,0,0,0,0,-1,552,1618,0,0
-665,-594,0,0,0,0,0,0,0,0,0,-1,559,1618,0,0
-658,-594,0,0,0,0,0,0,0,0,0,-1,566,1618,0,0
-651,-594,0,0,0,0,0,0,0,0,0,-1,573,1618,0,0
-644,-594,0,0,0,0,0,0,0,0,0,-1,580,1618,0,0
-637,-594,0,0,0,0,0,0,0,0,0,-1,587,1618,0,0
-630,-594,0,0,0,0,0,0,0,0,0,-1,594,1618,0,0
-623,-594,0,0,0,0,0,0,0,0,0,-1,601,1618,0,0
-616,-594,0,0,0,0,0,0,0,0,0,-1,608,1618,0,0
-609,-594,0,0,0,0,0,0,0,0,0,-1,615,1618,0,0
-602,-594,0,0,0,0,0,0,0,0,0,-1,622,1618,0,0
-595,-594,0,0,0,0,0,0,0,0,0,-1,629,1618,0,0
-588,-594,0,0,0,0,0,0,0,0,0,-1,636,1618,0,0
-581,-594,0,0,0,0,0,0,0,0,0,-1,643,1618,0,0
-574,-594,0,0,0,0,0,0,0,0,0,-1,650,1618,0,0
-567,-594,0,0,0,0,0,0,0,0,0,-1,657,1618,0,0
-560,-594,0,0,0,0,0,0,0,0,0,-1,664,1618,0,0
-553,-594,0,0,0,0,0,0,0,0,0,-1,671,1618,0,0
-546,-594,0,0,0,0,0,0,0,0,0,-1,678,1618,0,0
-539,-594,0,0,0,0,0,0,0,0,0,-1,685,1618,0,0
-532,-594,0,0,0,0,0,0,0,0,0,-1,692,1618,0,0
-525,-594,0,0,0,0,0,0,0,0,0,-1,699,1618,0,0
-518,-594,0,0,0,0,0,0,0,0,0,-1,706,1618,0,0
-511,-594,0,0,0,0,0,0,0,0,0,-1,713,1618,0,0
-504,-594,0,0,0,0,0,0,0,0,0,-1,720,1618,0,0
-497,-594,0,0,0,0,0,0,0,0,0,-1,727,1618,0,0
-490,-594,0,0,0,0,0,0,0,0,0,-1,734,1618,0,0
-483,-594,0,0,0,0,0,0,0,0,0,-1,741,1618,0,0
-476,-594,0,0,0,0,0,0,0,0,0,-1,748,1618,0,0
-469,-594,0,0,0,0,0,0,0,0,0,-1,755,1618,0,0
-462,-594,0,0,0,0,0,0,0,0,0,-1,762,1618,0,0
-455,-594,1.58447,-4.06494,0,0,0,0,0,0,0,-1,769,1618,1.58449,4.06498
-448,-594,-7.71887,-0.0559082,0,0,0,0,0,0,0,-1,776,1618,-7.71885,0.055939
-441,-594,-5.78473,1.18298,0,0,0,0,0,0,0,-1,783,1618,-5.78474,-1.18295
-434,-594,-3.93628,3.06213,0,0,0,0,0,0,0,-1,790,1618,-3.93631,-3.06208
-427,-594,-3.97693,6.77759,0,0,0,0,0,0,0,-1,797,1618,-3.97695,-6.77764
-420,-594,-2.53046,7.71606,0,0,0,0,0,0,0,-1,804,1618,-2.53047,-7.71609
-413,-594,-0.860413,8.00391,0,0,0,0,0,0,0,-1,811,1618,-0.860423,-8.00389
-406,-594,2.31537,8.98779,0,0,0,0,0,0,0,-1,818,1618,2.31535,-8.98778
-399,-594,2.31543,9.15344,-0.00354175,0.00246614,-0.00425525,0.00467093,-0.00574653,-1.09275,0.0060252,0.0492118,825,1618,2.31543,-9.15341
-392,-594,2.42108,9.27527,-0.00400485,0.00150534,-0.00366959,0.00333897,-0.00583849,-1.1074,0.00536372,0.042133,832,1618,2.42107,-9.27526
-385,-594,2.23877,9.56006,-0.00379903,0.000648089,-0.00306378,0.00221016,-0.0053611,-1.0993,0.00449568,0.0282817,839,1618,2.2388,-9.56002
-378,-594,2.05408,9.85889,-0.00333268,0.000154144,-0.0024382,0.00140811,-0.00458665,-1.09577,0.00361961,0.0115725,846,1618,2.0541,-9.85889
-371,-594,2.06366,10.1125,-0.00272027,-0.00025622,-0.00188808,0.000766248,-0.00374274,-1.07447,0.00278592,0.0105661,853,1618,2.06365,-10.1126
-364,-594,2.07477,10.321,-0.00222094,-0.000631459,-0.00141419,0.000195999,-0.0030484,-1.04139,0.00210065,0.0102004,860,1618,2.0748,-10.3211
-357,-594,2.0636,10.5225,-0.00153725,-0.000786352,-0.000939575,-0.00014999,-0.00217361,-0.975477,0.00140176,0.010886,867,1618,2.06362,-10.5225
-350,-594,2.04132,10.7605,-0.000798073,-0.000767082,-0.000600221,-0.000182157,-0.001383,-0.798303,0.000867677,0.0153684,874,1618,2.04131,-10.7604
-343,-594,2.03076,10.9902,-0.000221004,-0.00069652,-0.000283217,-8.89778e-05,-0.000828546,-0.436218,0.000525223,0.0154423,881,1618,2.03074,-10.9902
-336,-594,2.03632,11.1539,0.000415287,-0.000621283,-0.000128534,0.000430987,-0.000636983,-0.121547,0.000620404,0.0128414,888,1618,2.03629,-11.1539
-329,-594,2.05115,11.3572,0.000997136,-0.000418027,-9.254e-05,0.00100316,-0.000424052,-0.0650227,0.000846311,0.0135174,895,1618,2.05115,-11.3571
-322,-594,2.08557,11.6073,0.00134685,-0.000186416,-0.000236496,0.0013825,-0.000222065,-0.149613,0.00100391,0.0156205,902,1618,2.08558,-11.6073
-315,-594,2.07483,11.8138,0.00154253,-0.000118225,-0.000510048,0.00168666,-0.000262361,-0.275411,0.00122133,0.0155809,909,1618,2.07485,-11.8138
-308,-594,2.05121,12.0017,0.00180006,-0.000263542,-0.000924589,0.00215371,-0.000617194,-0.365327,0.00167977,0.0147732,916,1618,2.0512,-12.0018
-301,-594,2.0415,12.1851,0.00200778,-0.000540845,-0.00144658,0.00266129,-0.00119435,-0.424314,0.00227913,0.011856,923,1618,2.04149,-12.1851
-294,-594,2.07483,12.3691,0.00211384,-0.00123787,-0.00215195,0.00316551,-0.00228954,-0.45457,0.00316298,0.0101955,930,1618,2.07481,-12.3691
-287,-594,2.09003,12.5663,0.00218607,-0.00218864,-0.00293746,0.00366111,-0.00366369,-0.465367,0.00422897,0.0110191,937,1618,2.09001,-12.5663
-280,-594,2.09064,12.7699,0.00235062,-0.00344157,-0.00384831,0.00427083,-0.00536179,-0.462828,0.00557327,0.0162278,944,1618,2.09061,-12.7699
-273,-594,2.03113,12.9076,0.00255929,-0.00504386,-0.00487438,0.00493926,-0.00742383,-0.454213,0.00718572,0.0267972,951,1618,2.03115,-12.9075
-266,-594,1.91217,12.9404,0.00271008,-0.00734452,-0.00588072,0.00541948,-0.0100539,-0.431738,0.00906616,0.0323859,958,1618,1.91217,-12.9404
-259,-594,2.02698,13.0812,0.00279399,-0.0100614,-0.00682197,0.00573937,-0.0130068,-0.407573,0.0110909,0.0403046,965,1618,2.02699,-13.0812
-252,-594,2.20233,13.2545,0,0,0,0,0,0,0,-1,972,1618,2.20233,-13.2545
-245,-594,2.08533,13.1488,0,0,0,0,0,0,0,-1,979,1618,2.0853,-13.1488
-238,-594,2.71313,10.6866,0,0,0,0,0,0,0,-1,986,1618,2.71314,-10.6867
-231,-594,1.93774,9.35388,0,0,0,0,0,0,0,-1,993,1618,1.93776,-9.35393
-224,-594,1.81824,8.62744,0,0,0,0,0,0,0,-1,1000,1618,1.81822,-8.62745
-217,-594,1.65802,8.02002,0,0,0,0,0,0,0,-1,1007,1618,1.65805,-8.02007
-210,-594,0.957092,11.3329,0,0,0,0,0,0,0,-1,1014,1618,0.957079,-11.3329
-203,-594,4.73303,13.4917,0,0,0,0,0,0,0,-1,1021,1618,4.73309,-13.4917
-196,-594,2.78613,10.5815,0,0,0,0,0,0,0,-1,1028,1618,2.78612,-10.5815
-189,-594,2.60913,9.48865,0,0,0,0,0,0,0,-1,1035,1618,2.6091,-9.48871
-182,-594,1.2395,9.38806,0,0,0,0,0,0,0,-1,1042,1618,1.23951,-9.38804
-175,-594,0.234863,8.73792,0,0,0,0,0,0,0,-1,1049,1618,0.234812,-8.73786
-168,-594,-0.495483,8.46289,0,0,0,0,0,0,0,-1,1056,1618,-0.495513,-8.46285
-161,-594,-1.39734,8.28699,0,0,0,0,0,0,0,-1,1063,1618,-1.39729,-8.28699
-154,-594,-0.000854492,7.68445,0,0,0,0,0,0,0,-1,1070,1618,-0.000805755,-7.6845
-147,-594,0.348267,9.3385,0,0,0,0,0,0,0,-1,1077,1618,0.348237,-9.33849
-140,-594,0.675171,11.5884,0,0,0,0,0,0,0,-1,1084,1618,0.675204,-11.5884
-133,-594,0,0,0,0,0,0,0,0,0,-1,1091,1618,0,0
-126,-594,0,0,0,0,0,0,0,0,0,-1,1098,1618,0,0
-119,-594,0,0,0,0,0,0,0,0,0,-1,1105,1618,0,0
-112,-594,0,0,0,0,0,0,0,0,0,-1,1112,1618,0,0
-105,-594,0,0,0,0,0,0,0,0,0,-1,1119,1618,0,0
-98,-594,0,0,0,0,0,0,0,0,0,-1,1126,1618,0,0
-91,-594,0,0,0,0,0,0,0,0,0,-1,1133,1618,0,0
-84,-594,0,0,0,0,0,0,0,0,0,-1,1140,1618,0,0
-77,-594,0,0,0,0,0,0,0,0,0,-1,1147,1618,0,0
-70,-594,0,0,0,0,0,0,0,0,0,-1,1154,1618,0,0
-63,-594,0,0,0,0,0,0,0,0,0,-1,1161,1618,0,0
-56,-594,0,0,0,0,0,0,0,0,0,-1,1168,1618,0,0
-49,-594,0,0,0,0,0,0,0,0,0,-1,1175,1618,0,0
-42,-594,0,0,0,0,0,0,0,0,0,-1,1182,1618,0,0
-35,-594,0,0,0,0,0,0,0,0,0,-1,1189,1618,0,0
-28,-594,0,0,0,0,0,0,0,0,0,-1,1196,1618,0,0
-21,-594,0,0,0,0,0,0,0,0,0,-1,1203,1618,0,0
-14,-594,0,0,0,0,0,0,0,0,0,-1,1210,1618,0,0
-7,-594,0,0,0,0,0,0,0,0,0,-1,1217,1618,0,0
0,-594,0,0,0,0,0,0,0,0,0,-1,1224,1618,0,0
7,-594,0,0,0,0,0,0,0,0,0,-1,1231,1618,0,0
14,-594,0,0,0,0,0,0,0,0,0,-1,1238,1618,0,0
21,-594,0,0,0,0,0,0,0,0,0,-1,1245,1618,0,0
28,-594,0,0,0,0,0,0,0,0,0,-1,1252,1618,0,0
35,-594,0,0,0,0,0,0,0,0,0,-1,1259,1618,0,0
42,-594,0,0,0,0,0,0,0,0,0,-1,1266,1618,0,0
49,-594,0,0,0,0,0,0,0,0,0,-1,1273,1618,0,0
56,-594,0,0,0,0,0,0,0,0,0,-1,1280,1618,0,0
63,-594,0,0,0,0,0,0,0,0,0,-1,1287,1618,0,0
70,-594,0,0,0,0,0,0,0,0,0,-1,1294,1618,0,0
77,-594,0,0,0,0,0,0,0,0,0,-1,1301,1618,0,0
84,-594,0,0,0,0,0,0,0,0,0,-1,1308,1618,0,0
91,-594,0,0,0,0,0,0,0,0,0,-1,1315,1618,0,0
98,-594,0,0,0,0,0,0,0,0,0,-1,1322,1618,0,0
105,-594,0,0,0,0,0,0,0,0,0,-1,1329,1618,0,0
112,-594,0,0,0,0,0,0,0,0,0,-1,1336,1618,0,0
119,-594,0,0,0,0,0,0,0,0,0,-1,1343,1618,0,0
126,-594,0,0,0,0,0,0,0,0,0,-1,1350,1618,0,0
133,-594,0,0,0,0,0,0,0,0,0,-1,1357,1618,0,0
140,-594,0,0,0,0,0,0,0,0,0,-1,1364,1618,0,0
147,-594,0,0,0,0,0,0,0,0,0,-1,1371,1618,0,0
154,-594,0,0,0,0,0,0,0,0,0,-1,1378,1618,0,0
161,-594,0,0,0,0,0,0,0,0,0,-1,1385,1618,0,0
168,-594,0,0,0,0,0,0,0,0,0,-1,1392,1618,0,0
175,-594,0,0,0,0,0,0,0,0,0,-1,1399,1618,0,0
182,-594,0,0,0,0,0,0,0,0,0,-1,1406,1618,0,0
189,-594,0,0,0,0,0,0,0,0,0,-1,1413,1618,0,0
196,-594,0,0,0,0,0,0,0,0,0,-1,1420,1618,0,0
203,-594,0,0,0,0,0,0,0,0,0,-1,1427,1618,0,0
210,-594,0,0,0,0,0,0,0,0,0,-1,1434,1618,0,0
217,-594,0,0,0,0,0,0,0,0,0,-1,1441,1618,0,0
224,-594,0,0,0,0,0,0,0,0,0,-1,1448,1618,0,0
231,-594,0,0,0,0,0,0,0,0,0,-1,1455,1618,0,0
238,-594,0,0,0,0,0,0,0,0,0,-1,1462,1618,0,0
245,-594,0,0,0,0,0,0,0,0,0,-1,1469,1618,0,0
252,-594,3.03674,1.20996,0,0,0,0,0,0,0,-1,1476,1618,3.0368,-1.20999
259,-594,4.79834,1.53113,0,0,0,0,0,0,0,-1,1483,1618,4.79837,-1.53118
266,-594,3.71606,2.68152,0,0,0,0,0,0,0,-1,1490,1618,3.71609,-2.68149
273,-594,9.7655,6.33557,0,0,0,0,0,0,0,-1,1497,1618,9.76555,-6.33554
280,-594,3.13281,0.911255,0,0,0,0,0,0,0,-1,1504,1618,3.13277,-0.911207
287,-594,4.42749,1.51563,0,0,0,0,0,0,0,-1,1511,1618,4.42747,-1.51564
294,-594,5.36475,3.34937,0,0,0,0,0,0,0,-1,1518,1618,5.36475,-3.3494
301,-594,7.97144,9.04333,0,0,0,0,0,0,0,-1,1525,1618,7.9714,-9.04328
308,-594,6.30347,10.4633,0,0,0,0,0,0,0,-1,1532,1618,6.30351,-10.4633
315,-594,4.62012,11.934,0,0,0,0,0,0,0,-1,1539,1618,4.62006,-11.934
322,-594,2.91528,13.3134,0,0,0,0,0,0,0,-1,1546,1618,2.91523,-13.3133
329,-594,4.19861,9.77258,0,0,0,0,0,0,0,-1,1553,1618,4.19865,-9.77264
336,-594,10.1353,4.66528,0,0,0,0,0,0,0,-1,1560,1618,10.1353,-4.66533
343,-594,10.5729,3.71228,0,0,0,0,0,0,0,-1,1567,1618,10.5729,-3.71232
350,-594,10.219,2.98792,0,0,0,0,0,0,0,-1,1574,1618,10.219,-2.98797
357,-594,9.83154,1.96326,0,0,0,0,0,0,0,-1,1581,1618,9.8315,-1.96321
364,-594,9.74939,0.700562,0,0,0,0,0,0,0,-1,1588,1618,9.74939,-0.700615
371,-594,6.79565,13.6544,0,0,0,0,0,0,0,-1,1595,1618,6.79566,-13.6544
378,-594,7.94116,14.4644,0,0,0,0,0,0,0,-1,1602,1618,7.94119,-14.4643
385,-594,8.82471,11.8807,0,0,0,0,0,0,0,-1,1609,1618,8.8247,-11.8807
392,-594,7.43835,13.2979,0,0,0,0,0,0,0,-1,1616,1618,7.4384,-13.2978
399,-594,7.66724,13.7799,-0.00154431,-0.00851413,0.0118021,0.00727668,-0.0173351,0.641839,0.0145998,0.0432495,1623,1618,7.66719,-13.7799
406,-594,7.62219,13.6692,-0.00196671,-0.00817035,0.0111548,0.00650948,-0.0166465,0.649789,0.0137895,0.026982,1630,1618,7.62216,-13.6692
413,-594,7.58228,13.5796,-0.00207968,-0.00767586,0.00988908,0.00539954,-0.0151551,0.647528,0.0123047,0.0206068,1637,1618,7.58233,-13.5796
420,-594,7.53088,13.4341,-0.00187979,-0.00708515,0.00866195,0.00456205,-0.013527,0.639453,0.0108628,0.0173278,1644,1618,7.5309,-13.4341
427,-594,7.50281,13.3335,-0.00168887,-0.00661715,0.0075177,0.00375824,-0.0120643,0.627027,0.00954547,0.0120372,1651,1618,7.50282,-13.3335
434,-594,7.47937,13.147,-0.00155436,-0.00621492,0.00642783,0.00295256,-0.0107218,0.611502,0.00830882,0.0159401,1658,1618,7.47933,-13.1469
441,-594,7.46057,12.988,-0.00143464,-0.00570489,0.00542199,0.00225748,-0.009397,0.597828,0.00713718,0.0163605,1665,1618,7.46057,-12.9881
448,-594,7.49207,12.8195,-0.00128982,-0.00496463,0.00456608,0.00179468,-0.00804913,0.59411,0.00605365,0.0160794,1672,1618,7.49205,-12.8195
455,-594,7.49109,12.6205,-0.00114068,-0.00431934,0.00376351,0.00135533,-0.00681534,0.585607,0.00505626,0.012124,1679,1618,7.4911,-12.6205
462,-594,7.49109,12.4376,-0.000873806,-0.00360204,0.00300081,0.00105839,-0.00553423,0.572069,0.00408821,0.0129054,1686,1618,7.49108,-12.4376
469,-594,7.49316,12.2699,-0.000554081,-0.00265028,0.00222494,0.000857263,-0.00406162,0.56528,0.00303414,0.0118787,1693,1618,7.49311,-12.2699
476,-594,7.49365,12.0881,-0.000257519,-0.00168238,0.00161338,0.000793722,-0.00273362,0.577484,0.00213671,0.0128252,1700,1618,7.49367,-12.0881
483,-594,7.48096,11.8843,9.03337e-05,-0.000738716,0.00118398,0.00093026,-0.00157864,0.617012,0.00146455,0.0154503,1707,1618,7.48099,-11.8843
490,-594,7.47144,11.6775,0.000598241,0.000250395,0.000719714,0.00116475,-0.000316113,0.666843,0.000900558,0.0131798,1714,1618,7.47148,-11.6775
497,-594,7.45703,11.4885,0.00120361,0.000979486,0.000157341,0.00128471,0.000898379,0.475958,0.000761115,0.00998429,1721,1618,7.45702,-11.4885
504,-594,7.47498,11.2889,0.00166596,0.00155027,-0.000111577,0.00173379,0.00148243,-0.546249,0.00108185,0.00966479,1728,1618,7.47493,-11.2889
511,-594,7.49231,11.0947,0.00206307,0.00199232,-0.000279103,0.00230903,0.00174635,-0.722361,0.00139028,0.0114474,1735,1618,7.49226,-11.0947
518,-594,7.5033,10.8893,0.00228786,0.00202828,-0.000430365,0.00260758,0.00170856,-0.638948,0.00152948,0.0144851,1742,1618,7.50332,-10.8893
525,-594,7.51892,10.674,0.00259342,0.00204866,-0.000459261,0.00285499,0.00178708,-0.517739,0.00166567,0.025489,1749,1618,7.51887,-10.6739
532,-594,7.45703,10.4987,0.00305259,0.00209177,-0.000444567,0.00322673,0.00191763,-0.373334,0.00187396,0.0447024,1756,1618,7.45704,-10.4986
539,-594,7.67297,10.2909,0,0,0,0,0,0,0,-1,1763,1618,7.67295,-10.2909
546,-594,7.48645,8.54785,0,0,0,0,0,0,0,-1,1770,1618,7.48639,-8.54789
553,-594,3.69714,5.68762,0,0,0,0,0,0,0,-1,1777,1618,3.69715,-5.68764
560,-594,6.06616,4.44482,0,0,0,0,0,0,0,-1,1784,1618,6.06621,-4.44477
567,-594,5.97266,4.73303,0,0,0,0,0,0,0,-1,1791,1618,5.97271,-4.73309
574,-594,5.9906,4.96326,0,0,0,0,0,0,0,-1,1798,1618,5.99065,-4.96326
581,-594,0,0,0,0,0,0,0,0,0,-1,1805,1618,0,0
588,-594,0,0,0,0,0,0,0,0,0,-1,1812,1618,0,0
595,-594,0,0,0,0,0,0,0,0,0,-1,1819,1618,0,0
602,-594,0,0,0,0,0,0,0,0,0,-1,1826,1618,0,0
609,-594,0,0,0,0,0,0,0,0,0,-1,1833,1618,0,0
616,-594,0,0,0,0,0,0,0,0,0,-1,1840,1618,0,0
623,-594,0,0,0,0,0,0,0,0,0,-1,1847,1618,0,0
630,-594,0,0,0,0,0,0,0,0,0,-1,1854,1618,0,0
637,-594,0,0,0,0,0,0,0,0,0,-1,1861,1618,0,0
644,-594,0,0,0,0,0,0,0,0,0,-1,1868,1618,0,0
651,-594,0,0,0,0,0,0,0,0,0,-1,1875,1618,0,0
658,-594,0,0,0,0,0,0,0,0,0,-1,1882,1618,0,0
665,-594,0,0,0,0,0,0,0,0,0,-1,1889,1618,0,0
672,-594,0,0,0,0,0,0,0,0,0,-1,1896,1618,0,0
679,-594,0,0,0,0,0,0,0,0,0,-1,1903,1618,0,0
686,-594,0,0,0,0,0,0,0,0,0,-1,1910,1618,0,0
693,-594,0,0,0,0,0,0,0,0,0,-1,1917,1618,0,0
700,-594,0,0,0,0,0,0,0,0,0,-1,1924,1618,0,0
707,-594,0,0,0,0,0,0,0,0,0,-1,1931,1618,0,0
714,-594,0,0,0,0,0,0,0,0,0,-1,1938,1618,0,0
721,-594,0,0,0,0,0,0,0,0,0,-1,1945,1618,0,0
728,-594,0,0,0,0,0,0,0,0,0,-1,1952,1618,0,0
735,-594,0,0,0,0,0,0,0,0,0,-1,1959,1618,0,0
742,-594,0,0,0,0,0,0,0,0,0,-1,1966,1618,0,0
749,-594,0,0,0,0,0,0,0,0,0,-1,1973,1618,0,0
756,-594,0,0,0,0,0,0,0,0,0,-1,1980,1618,0,0
763,-594,0,0,0,0,0,0,0,0,0,-1,1987,1618,0,0
770,-594,0,0,0,0,0,0,0,0,0,-1,1994,1618,0,0
777,-594,0,0,0,0,0,0,0,0,0,-1,2001,1618,0,0
784,-594,0,0,0,0,0,0,0,0,0,-1,2008,1618,0,0
791,-594,0,0,0,0,0,0,0,0,0,-1,2015,1618,0,0
798,-594,0,0,0,0,0,0,0,0,0,-1,2022,1618,0,0
805,-594,0,0,0,0,0,0,0,0,0,-1,2029,1618,0,0
812,-594,0,0,0,0,0,0,0,0,0,-1,2036,1618,0,0
-700,-601,0,0,0,0,0,0,0,0,0,-1,524,1625,0,0
-693,-601,0,0,0,0,0,0,0,0,0,-1,531,1625,0,0
-686,-601,0,0,0,0,0,0,0,0,0,-1,538,1625,0,0
-679,-601,0,0,0,0,0,0,0,0,0,-1,545,1625,0,0
-672,-601,0,0,0,0,0,0,0,0,0,-1,552,1625,0,0
-665,-601,0,0,0,0,0,0,0,0,0,-1,559,1625,0,0
-658,-601,0,0,0,0,0,0,0,0,0,-1,566,1625,0,0
-651,-601,0,0,0,0,0,0,0,0,0,-1,573,1625,0,0
-644,-601,0,0,0,0,0,0,0,0,0,-1,580,1625,0,0
-637,-601,0,0,0,0,0,0,0,0,0,-1,587,1625,0,0
-630,-601,0,0,0,0,0,0,0,0,0,-1,594,1625,0,0
-623,-601,0,0,0,0,0,0,0,0,0,-1,601,1625,0,0
-616,-601,0,0,0,0,0,0,0,0,0,-1,608,1625,0,0
-609,-601,0,0,0,0,0,0,0,0,0,-1,615,1625,0,0
-602,-601,0,0,0,0,0,0,0,0,0,-1,622,1625,0,0
-595,-601,0,0,0,0,0,0,0,0,0,-1,629,1625,0,0
-588,-601,0,0,0,0,0,0,0,0,0,-1,636,1625,0,0
-581,-601,0,0,0,0,0,0,0,0,0,-1,643,1625,0,0
-574,-601,0,0,0,0,0,0,0,0,0,-1,650,1625,0,0
-567,-601,0,0,0,0,0,0,0,0,0,-1,657,1625,0,0
-560,-601,0,0,0,0,0,0,0,0,0,-1,664,1625,0,0
-553,-601,0,0,0,0,0,0,0,0,0,-1,671,1625,0,0
-546,-601,0,0,0,0,0,0,0,0,0,-1,678,1625,0,0
-539,-601,0,0,0,0,0,0,0,0,0,-1,685,1625,0,0
-532,-601,0,0,0,0,0,0,0,0,0,-1,692,1625,0,0
-525,-601,0,0,0,0,0,0,0,0,0,-1,699,1625,0,0
-518,-601,0,0,0,0,0,0,0,0,0,-1,706,1625,0,0
-511,-601,0,0,0,0,0,0,0,0,0,-1,713,1625,0,0
-504,-601,0,0,0,0,0,0,0,0,0,-1,720,1625,0,0
-497,-601,0,0,0,0,0,0,0,0,0,-1,727,1625,0,0
-490,-601,0,0,0,0,0,0,0,0,0,-1,734,1625,0,0
-483,-601,0,0,0,0,0,0,0,0,0,-1,741,1625,0,0
-476,-601,0,0,0,0,0,0,0,0,0,-1,748,1625,0,0
-469,-601,0,0,0,0,0,0,0,0,0,-1,755,1625,0,0
-462,-601,0,0,0,0,0,0,0,0,0,-1,762,1625,0,0
-455,-601,0,0,0,0,0,0,0,0,0,-1,769,1625,0,0
-448,-601,-7.07623,2.7616,0,0,0,0,0,0,0,-1,776,1625,-7.07626,-2.76161
-441,-601,-6.06689,3.33447,0,0,0,0,0,0,0,-1,783,1625,-6.06691,-3.33448
-434,-601,-5.02655,3.8468,0,0,0,0,0,0,0,-1,790,1625,-5.02657,-3.84674
-427,-601,-5.78601,4.2406,0,0,0,0,0,0,0,-1,797,1625,-5.786,-4.24058
-420,-601,-4.26819,5.33447,0,0,0,0,0,0,0,-1,804,1625,-4.26817,-5.33442
-413,-601,-2.75446,6.1803,0,0,0,0,0,0,0,-1,811,1625,-2.75449,-6.18033
-406,-601,-1.67493,7.20422,0,0,0,0,0,0,0,-1,818,1625,-1.67493,-7.20428
-399,-601,2.63678,9.15491,0,0,0,0,0,0,0,-1,825,1625,2.63678,-9.15495
-392,-601,2.82373,9.23535,-0.00549975,0.00136162,-0.00496118,0.00396276,-0.00810089,-1.0879,0.00710023,0.0482734,832,1625,2.82371,-9.23532
-385,-601,2.70618,9.58032,-0.00508938,0.000364572,-0.0040183,0.00249385,-0.00721865,-1.08352,0.00582448,0.0435376,839,1625,2.70618,-9.58032
-378,-601,2.31219,9.9209,-0.00444426,-0.000196103,-0.0031599,0.00148727,-0.00612763,-1.08131,0.00466063,0.0311025,846,1625,2.31218,-9.92092
-371,-601,2.28162,10.1193,-0.00362208,-0.000697267,-0.00243868,0.000683879,-0.00500322,-1.05549,0.00358525,0.0141594,853,1625,2.28164,-10.1193
-364,-601,2.28162,10.3223,-0.00293508,-0.00111333,-0.00182144,1.22916e-05,-0.00406071,-1.01726,0.00271124,0.0102008,860,1625,2.28159,-10.3223
-357,-601,2.26514,10.5282,-0.0021075,-0.00129671,-0.0012268,-0.00041006,-0.00299414,-0.944975,0.00187442,0.0101868,867,1625,2.26517,-10.5283
-350,-601,2.27417,10.7877,-0.001272,-0.00124957,-0.000801392,-0.000459311,-0.00206225,-0.792396,0.00125018,0.0210695,874,1625,2.2742,-10.7877
-343,-601,2.25073,11.0239,-0.000629307,-0.00116937,-0.000403546,-0.000413781,-0.0013849,-0.490538,0.000820871,0.0210001,881,1625,2.25075,-11.024
-336,-601,2.23895,11.1989,5.92225e-05,-0.00109677,-0.000165788,8.25294e-05,-0.00112007,-0.139667,0.000775691,0.0170216,888,1625,2.23897,-11.1989
-329,-601,2.24756,11.4008,0.000693745,-0.000881899,-8.22591e-05,0.000698028,-0.000886181,-0.0520182,0.000916791,0.0143116,895,1625,2.24756,-11.4007
-322,-601,2.26727,11.6106,0.00106384,-0.000625426,-0.000179436,0.00108269,-0.000644276,-0.104665,0.00100772,0.0121765,902,1625,2.26725,-11.6106
-315,-601,2.26727,11.7958,0.00123387,-0.000500286,-0.000370293,0.00130963,-0.000576044,-0.201806,0.00111582,0.0120864,909,1625,2.26728,-11.7957
-308,-601,2.24817,11.9905,0.0014528,-0.00057225,-0.000693569,0.00166757,-0.000787016,-0.30029,0.00144723,0.0114609,916,1625,2.24818,-11.9905
-301,-601,2.25751,12.197,0.00163429,-0.000754996,-0.001114,0.0020731,-0.00119381,-0.375242,0.00190879,0.0100544,923,1625,2.2575,-12.1971
-294,-601,2.27112,12.3887,0.00175224,-0.00129176,-0.00167322,0.00249213,-0.00203165,-0.416344,0.00261631,0.00969147,930,1625,2.27114,-12.3887
-287,-601,2.26587,12.5785,0.00180683,-0.00202825,-0.00228488,0.00287218,-0.00309361,-0.436295,0.00344514,0.0089734,937,1625,2.26585,-12.5785
-280,-601,2.2641,12.7616,0.00190305,-0.0029918,-0.00298249,0.00331375,-0.0044025,-0.44181,0.00446973,0.00920498,944,1625,2.2641,-12.7616
-273,-601,2.27625,12.9443,0.00206738,-0.00424372,-0.00373827,0.00380388,-0.00598022,-0.434862,0.00569524,0.00967937,951,1625,2.27626,-12.9444
-266,-601,2.28271,13.1157,0.00223243,-0.00606098,-0.0044688,0.00418206,-0.00801062,-0.411383,0.00715419,0.0116482,958,1625,2.28271,-13.1157
-259,-601,2.30157,13.2452,0.00234995,-0.00821485,-0.00509716,0.00440817,-0.0102731,-0.383777,0.00869875,0.0225158,965,1625,2.30156,-13.2452
-252,-601,2.33575,13.3182,0.00245038,-0.0107377,-0.00571739,0.00458388,-0.0128712,-0.357157,0.0104494,0.0447998,972,1625,2.33576,-13.3182
-245,-601,2.28595,13.3589,0.00183484,-0.0161278,-0.00302952,0.00233203,-0.016625,-0.162664,0.0119369,0.0480119,979,1625,2.28593,-13.3588
-238,-601,2.42505,13.4734,0,0,0,0,0,0,0,-1,986,1625,2.42508,-13.4734
-231,-601,2.00421,11.0231,0,0,0,0,0,0,0,-1,993,1625,2.00423,-11.0231
-224,-601,-0.0305176,9.13684,0,0,0,0,0,0,0,-1,1000,1625,-0.030498,-9.13681
-217,-601,3.39429,10.3898,0,0,0,0,0,0,0,-1,1007,1625,3.39431,-10.3898
-210,-601,4.73938,12.5475,0,0,0,0,0,0,0,-1,1014,1625,4.7394,-12.5475
-203,-601,4.2666,11.9674,0,0,0,0,0,0,0,-1,1021,1625,4.26666,-11.9674
-196,-601,5.02148,12.1974,0,0,0,0,0,0,0,-1,1028,1625,5.02146,-12.1974
-189,-601,4.74182,11.8346,0,0,0,0,0,0,0,-1,1035,1625,4.7418,-11.8346
-182,-601,1.82153,13.9752,0,0,0,0,0,0,0,-1,1042,1625,1.82155,-13.9752
-175,-601,0.544922,9.28687,0,0,0,0,0,0,0,-1,1049,1625,0.544879,-9.28685
-168,-601,-0.247559,8.97461,0,0,0,0,0,0,0,-1,1056,1625,-0.247598,-8.97466
-161,-601,-1.16833,8.80078,0,0,0,0,0,0,0,-1,1063,1625,-1.16837,-8.80081
-154,-601,1.12756,7.94861,0,0,0,0,0,0,0,-1,1070,1625,1.12762,-7.94855
-147,-601,1.35352,9.55432,0,0,0,0,0,0,0,-1,1077,1625,1.35351,-9.55429
-140,-601,1.72437,11.1498,0,0,0,0,0,0,0,-1,1084,1625,1.72432,-11.1498
-133,-601,2.13281,12.8347,0,0,0,0,0,0,0,-1,1091,1625,2.13287,-12.8348
-126,-601,3.09534,15.427,0,0,0,0,0,0,0,-1,1098,1625,3.0953,-15.4271
-119,-601,1.22485,9.43457,0,0,0,0,0,0,0,-1,1105,1625,1.22489,-9.43456
-112,-601,0,0,0,0,0,0,0,0,0,-1,1112,1625,0,0
-105,-601,0,0,0,0,0,0,0,0,0,-1,1119,1625,0,0
-98,-601,0,0,0,0,0,0,0,0,0,-1,1126,1625,0,0
-91,-601,0,0,0,0,0,0,0,0,0,-1,1133,1625,0,0
-84,-601,0,0,0,0,0,0,0,0,0,-1,1140,1625,0,0
-77,-601,0,0,0,0,0,0,0,0,0,-1,1147,1625,0,0
-70,-601,0,0,0,0,0,0,0,0,0,-1,1154,1625,0,0
-63,-601,0,0,0,0,0,0,0,0,0,-1,1161,1625,0,0
-56,-601,0,0,0,0,0,0,0,0,0,-1,1168,1625,0,0
-49,-601,0,0,0,0,0,0,0,0,0,-1,1175,1625,0,0
-42,-601,0,0,0,0,0,0,0,0,0,-1,1182,1625,0,0
-35,-601,0,0,0,0,0,0,0,0,0,-1,1189,1625,0,0
-28,-601,0,0,0,0,0,0,0,0,0,-1,1196,1625,0,0
-21,-601,0,0,0,0,0,0,0,0,0,-1,1203,1625,0,0
-14,-601,0,0,0,0,0,0,0,0,0,-1,1210,1625,0,0
-7,-601,0,0,0,0,0,0,0,0,0,-1,1217,1625,0,0
0,-601,0,0,0,0,0,0,0,0,0,-1,1224,1625,0,0
7,-601,0,0,0,0,0,0,0,0,0,-1,1231,1625,0,0
14,-601,0,0,0,0,0,0,0,0,0,-1,1238,1625,0,0
21,-601,0,0,0,0,0,0,0,0,0,-1,1245,1625,0,0
28,-601,0,0,0,0,0,0,0,0,0,-1,1252,1625,0,0
35,-601,0,0,0,0,0,0,0,0,0,-1,1259,1625,0,0
42,-601,0,0,0,0,0,0,0,0,0,-1,1266,1625,0,0
49,-601,0,0,0,0,0,0,0,0,0,-1,1273,1625,0,0
56,-601,0,0,0,0,0,0,0,0,0,-1,1280,1625,0,0
63,-601,0,0,0,0,0,0,0,0,0,-1,1287,1625,0,0
70,-601,0,0,0,0,0,0,0,0,0,-1,1294,1625,0,0
77,-601,0,0,0,0,0,0,0,0,0,-1,1301,1625,0,0
84,-601,0,0,0,0,0,0,0,0,0,-1,1308,1625,0,0
91,-601,0,0,0,0,0,0,0,0,0,-1,1315,1625,0,0
98,-601,0,0,0,0,0,0,0,0,0,-1,1322,1625,0,0
105,-601,0,0,0,0,0,0,0,0,0,-1,1329,1625,0,0
112,-601,0,0,0,0,0,0,0,0,0,-1,1336,1625,0,0
119,-601,0,0,0,0,0,0,0,0,0,-1,1343,1625,0,0
126,-601,0,0,0,0,0,0,0,0,0,-1,1350,1625,0,0
133,-601,0,0,0,0,0,0,0,0,0,-1,1357,1625,0,0
140,-601,0,0,0,0,0,0,0,0,0,-1,1364,1625,0,0
147,-601,0,0,0,0,0,0,0,0,0,-1,1371,1625,0,0
154,-601,0,0,0,0,0,0,0,0,0,-1,1378,1625,0,0
161,-601,0,0,0,0,0,0,0,0,0,-1,1385,1625,0,0
168,-601,0,0,0,0,0,0,0,0,0,-1,1392,1625,0,0
175,-601,0,0,0,0,0,0,0,0,0,-1,1399,1625,0,0
182,-601,0,0,0,0,0,0,0,0,0,-1,1406,1625,0,0
189,-601,0,0,0,0,0,0,0,0,0,-1,1413,1625,0,0
196,-601,0,0,0,0,0,0,0,0,0,-1,1420,1625,0,0
203,-601,0,0,0,0,0,0,0,0,0,-1,1427,1625,0,0
210,-601,0,0,0,0,0,0,0,0,0,-1,1434,1625,0,0
217,-601,0,0,0,0,0,0,0,0,0,-1,1441,1625,0,0
224,-601,0,0,0,0,0,0,0,0,0,-1,1448,1625,0,0
231,-601,-0.0371094,0.525879,0,0,0,0,0,0,0,-1,1455,1625,-0.0371518,-0.525824
238,-601,2.03369,-1.32861,0,0,0,0,0,0,0,-1,1462,1625,2.03364,1.32858
245,-601,2.71375,2.44983,0,0,0,0,0,0,0,-1,1469,1625,2.71371,-2.44979
252,-601,4.66943,2.28381,0,0,0,0,0,0,0,-1,1476,1625,4.66947,-2.28376
259,-601,6.42712,2.61987,0,0,0,0,0,0,0,-1,1483,1625,6.42711,-2.61985
266,-601,6.75317,1.68701,0,0,0,0,0,0,0,-1,1490,1625,6.75323,-1.687
273,-601,5.4314,2.92053,0,0,0,0,0,0,0,-1,1497,1625,5.43144,-2.92051
280,-601,4.64722,1.17786,0,0,0,0,0,0,0,-1,1504,1625,4.64722,-1.1779
287,-601,5.32532,2.6217,0,0,0,0,0,0,0,-1,1511,1625,5.32535,-2.62171
294,-601,5.97693,4.22693,0,0,0,0,0,0,0,-1,1518,1625,5.97697,-4.22694
301,-601,7.28162,9.50024,0,0,0,0,0,0,0,-1,1525,1625,7.28162,-9.50025
308,-601,6.53528,10.3927,0,0,0,0,0,0,0,-1,1532,1625,6.53529,-10.3927
315,-601,4.88013,11.7184,0,0,0,0,0,0,0,-1,1539,1625,4.88015,-11.7184
322,-601,3.38098,12.7864,0,0,0,0,0,0,0,-1,1546,1625,3.38104,-12.7864
329,-601,1.8772,13.8768,0,0,0,0,0,0,0,-1,1553,1625,1.87716,-13.8768
336,-601,4.67847,9.53308,0,0,0,0,0,0,0,-1,1560,1625,4.67848,-9.53309
343,-601,11.1404,3.14575,0,0,0,0,0,0,0,-1,1567,1625,11.1404,-3.1458
350,-601,10.9462,2.37769,0,0,0,0,0,0,0,-1,1574,1625,10.9461,-2.37764
357,-601,10.7518,1.6095,0,0,0,0,0,0,0,-1,1581,1625,10.7518,-1.60948
364,-601,5.33643,9.74426,0,0,0,0,0,0,0,-1,1588,1625,5.33637,-9.74429
371,-601,7.51892,14.9152,0,0,0,0,0,0,0,-1,1595,1625,7.51895,-14.9151
378,-601,7.58496,14.4701,0,0,0,0,0,0,0,-1,1602,1625,7.58496,-14.4701
385,-601,7.59412,14.0034,0,0,0,0,0,0,0,-1,1609,1625,7.59407,-14.0034
392,-601,7.30591,13.7192,-0.00266503,-0.0071875,0.0102641,0.005584,-0.0154365,0.676978,0.0125727,0.0449204,1616,1625,7.30593,-13.7192
399,-601,7.22546,13.8881,-0.00267845,-0.00672955,0.0097689,0.00527268,-0.0146807,0.683173,0.0119393,0.0215357,1623,1625,7.22545,-13.888
406,-601,7.32422,13.7704,-0.00285655,-0.00631661,0.00923434,0.00480843,-0.0139816,0.692798,0.0112711,0.0149599,1630,1625,7.32423,-13.7704
413,-601,7.33337,13.6307,-0.00278124,-0.00567099,0.00827615,0.00417522,-0.0126274,0.698978,0.0101019,0.012715,1637,1625,7.33333,-13.6307
420,-601,7.29688,13.5244,-0.0024491,-0.00514187,0.00724636,0.0035749,-0.0111659,0.693545,0.00887877,0.00965981,1644,1625,7.29683,-13.5244
427,-601,7.31177,13.3553,-0.002078,-0.00478391,0.00626331,0.00297682,-0.00983873,0.679026,0.00774454,0.0134063,1651,1625,7.3118,-13.3554
434,-601,7.29431,13.153,-0.0017387,-0.00448963,0.00529327,0.00235489,-0.00858323,0.658284,0.00664764,0.014397,1658,1625,7.29432,-13.153
441,-601,7.29199,12.973,-0.00135857,-0.00408602,0.00445184,0.00193373,-0.00737832,0.636771,0.00567438,0.0161193,1665,1625,7.29201,-12.973
448,-601,7.32849,12.8109,-0.000942458,-0.00347621,0.00381661,0.00181204,-0.00623071,0.625151,0.00487148,0.0143299,1672,1625,7.32855,-12.8109
455,-601,7.3241,12.6202,-0.000518981,-0.00297292,0.00319943,0.00168068,-0.00517258,0.602299,0.00412438,0.0126034,1679,1625,7.3241,-12.6203
462,-601,7.31238,12.4304,-7.05745e-06,-0.00236614,0.00263986,0.0017048,-0.00407799,0.575295,0.00343113,0.010505,1686,1625,7.31233,-12.4304
469,-601,7.31445,12.2551,0.000534203,-0.00144857,0.00206906,0.00183713,-0.00275149,0.561985,0.00266672,0.0107953,1693,1625,7.31443,-12.2551
476,-601,7.31604,12.0725,0.00101474,-0.000490398,0.00171806,0.00213783,-0.00161348,0.578968,0.00217286,0.0133394,1700,1625,7.316,-12.0725
483,-601,7.29016,11.8885,0.00149452,0.000451035,0.00155361,0.00261165,-0.000666098,0.623402,0.00200045,0.0164737,1707,1625,7.29018,-11.8885
490,-601,7.27478,11.7048,0.00213053,0.00147587,0.00133723,0.0031799,0.000426493,0.665368,0.00199304,0.0125529,1714,1625,7.27476,-11.7048
497,-601,7.2998,11.4978,0.00281888,0.0022787,0.00107665,0.0036588,0.00143877,0.662504,0.0021284,0.00963385,1721,1625,7.29977,-11.4978
504,-601,7.31653,11.265,0.00337925,0.00296876,0.00109126,0.00428439,0.00206362,0.692444,0.00247415,0.0128664,1728,1625,7.31647,-11.265
511,-601,7.29016,11.0757,0.00392605,0.00359691,0.00114161,0.0049149,0.00260807,0.713812,0.00283939,0.0222103,1735,1625,7.29018,-11.0757
518,-601,7.26782,10.8608,0.00432055,0.00384494,0.0012161,0.00532188,0.00284361,0.688842,0.003075,0.0330694,1742,1625,7.26788,-10.8609
525,-601,7.23535,10.6816,0.004738,0.00389693,0.00129563,0.00567964,0.00295529,0.628473,0.00328004,0.0419455,1749,1625,7.23534,-10.6817
532,-601,7.18884,10.6282,0.00525212,0.00395785,0.0012728,0.00603285,0.00317713,0.550212,0.00348472,0.0484197,1756,1625,7.18884,-10.6282
539,-601,7.34729,10.4633,0,0,0,0,0,0,0,-1,1763,1625,7.34731,-10.4632
546,-601,6.56873,3.62354,0,0,0,0,0,0,0,-1,1770,1625,6.56867,-3.62352
553,-601,7.03015,4.25049,0,0,0,0,0,0,0,-1,1777,1625,7.03011,-4.25048
560,-601,7.50745,4.83374,0,0,0,0,0,0,0,-1,1784,1625,7.50744,-4.83376
567,-601,7.82043,3.83301,0,0,0,0,0,0,0,-1,1791,1625,7.82041,-3.83303
574,-601,0,0,0,0,0,0,0,0,0,-1,1798,1625,0,0
581,-601,0,0,0,0,0,0,0,0,0,-1,1805,1625,0,0
588,-601,0,0,0,0,0,0,0,0,0,-1,1812,1625,0,0
595,-601,0,0,0,0,0,0,0,0,0,-1,1819,1625,0,0
602,-601,0,0,0,0,0,0,0,0,0,-1,1826,1625,0,0
609,-601,0,0,0,0,0,0,0,0,0,-1,1833,1625,0,0
616,-601,0,0,0,0,0,0,0,0,0,-1,1840,1625,0,0
623,-601,0,0,0,0,0,0,0,0,0,-1,1847,1625,0,0
630,-601,0,0,0,0,0,0,0,0,0,-1,1854,1625,0,0
637,-601,0,0,0,0,0,0,0,0,0,-1,1861,1625,0,0
644,-601,0,0,0,0,0,0,0,0,0,-1,1868,1625,0,0
651,-601,0,0,0,0,0,0,0,0,0,-1,1875,1625,0,0
658,-601,0,0,0,0,0,0,0,0,0,-1,1882,1625,0,0
665,-601,0,0,0,0,0,0,0,0,0,-1,1889,1625,0,0
672,-601,0,0,0,0,0,0,0,0,0,-1,1896,1625,0,0
679,-601,0,0,0,0,0,0,0,0,0,-1,1903,1625,0,0
686,-601,0,0,0,0,0,0,0,0,0,-1,1910,1625,0,0
693,-601,0,0,0,0,0,0,0,0,0,-1,1917,1625,0,0
700,-601,0,0,0,0,0,0,0,0,0,-1,1924,1625,0,0
707,-601,0,0,0,0,0,0,0,0,0,-1,1931,1625,0,0
714,-601,0,0,0,0,0,0,0,0,0,-1,1938,1625,0,0
721,-601,0,0,0,0,0,0,0,0,0,-1,1945,1625,0,0
728,-601,0,0,0,0,0,0,0,0,0,-1,1952,1625,0,0
735,-601,0,0,0,0,0,0,0,0,0,-1,1959,1625,0,0
742,-601,0,0,0,0,0,0,0,0,0,-1,1966,1625,0,0
749,-601,0,0,0,0,0,0,0,0,0,-1,1973,1625,0,0
756,-601,0,0,0,0,0,0,0,0,0,-1,1980,1625,0,0
763,-601,0,0,0,0,0,0,0,0,0,-1,1987,1625,0,0
770,-601,0,0,0,0,0,0,0,0,0,-1,1994,1625,0,0
777,-601,0,0,0,0,0,0,0,0,0,-1,2001,1625,0,0
784,-601,0,0,0,0,0,0,0,0,0,-1,2008,1625,0,0
791,-601,0,0,0,0,0,0,0,0,0,-1,2015,1625,0,0
798,-601,0,0,0,0,0,0,0,0,0,-1,2022,1625,0,0
805,-601,0,0,0,0,0,0,0,0,0,-1,2029,1625,0,0
812,-601,0,0,0,0,0,0,0,0,0,-1,2036,1625,0,0
-700,-608,0,0,0,0,0,0,0,0,0,-1,524,1632,0,0
-693,-608,0,0,0,0,0,0,0,0,0,-1,531,1632,0,0
-686,-608,0,0,0,0,0,0,0,0,0,-1,538,1632,0,0
-679,-608,0,0,0,0,0,0,0,0,0,-1,545,1632,0,0
-672,-608,0,0,0,0,0,0,0,0,0,-1,552,1632,0,0
-665,-608,0,0,0,0,0,0,0,0,0,-1,559,1632,0,0
-658,-608,0,0,0,0,0,0,0,0,0,-1,566,1632,0,0
-651,-608,0,0,0,0,0,0,0,0,0,-1,573,1632,0,0
-644,-608,0,0,0,0,0,0,0,0,0,-1,580,1632,0,0
-637,-608,0,0,0,0,0,0,0,0,0,-1,587,1632,0,0
-630,-608,0,0,0,0,0,0,0,0,0,-1,594,1632,0,0
-623,-608,0,0,0,0,0,0,0,0,0,-1,601,1632,0,0
-616,-608,0,0,0,0,0,0,0,0,0,-1,608,1632,0,0
-609,-608,0,0,0,0,0,0,0,0,0,-1,615,1632,0,0
-602,-608,0,0,0,0,0,0,0,0,0,-1,622,1632,0,0
-595,-608,0,0,0,0,0,0,0,0,0,-1,629,1632,0,0
-588,-608,0,0,0,0,0,0,0,0,0,-1,636,1632,0,0
-581,-608,0,0,0,0,0,0,0,0,0,-1,643,1632,0,0
-574,-608,0,0,0,0,0,0,0,0,0,-1,650,1632,0,0
-567,-608,0,0,0,0,0,0,0,0,0,-1,657,1632,0,0
-560,-608,0,0,0,0,0,0,0,0,0,-1,664,1632,0,0
-553,-608,0,0,0,0,0,0,0,0,0,-1,671,1632,0,0
-546,-608,0,0,0,0,0,0,0,0,0,-1,678,1632,0,0
-539,-608,0,0,0,0,0,0,0,0,0,-1,685,1632,0,0
-532,-608,0,0,0,0,0,0,0,0,0,-1,692,1632,0,0
-525,-608,0,0,0,0,0,0,0,0,0,-1,699,1632,0,0
-518,-608,0,0,0,0,0,0,0,0,0,-1,706,1632,0,0
-511,-608,0,0,0,0,0,0,0,0,0,-1,713,1632,0,0
-504,-608,0,0,0,0,0,0,0,0,0,-1,720,1632,0,0
-497,-608,0,0,0,0,0,0,0,0,0,-1,727,1632,0,0
-490,-608,0,0,0,0,0,0,0,0,0,-1,734,1632,0,0
-483,-608,0,0,0,0,0,0,0,0,0,-1,741,1632,0,0
-476,-608,0,0,0,0,0,0,0,0,0,-1,748,1632,0,0
-469,-608,0,0,0,0,0,0,0,0,0,-1,755,1632,0,0
-462,-608,0,0,0,0,0,0,0,0,0,-1,762,1632,0,0
-455,-608,0,0,0,0,0,0,0,0,0,-1,769,1632,0,0
-448,-608,0,0,0,0,0,0,0,0,0,-1,776,1632,0,0
-441,-608,-7.34601,2.78052,0,0,0,0,0,0,0,-1,783,1632,-7.346,-2.78056
-434,-608,-6.34558,3.27405,0,0,0,0,0,0,0,-1,790,1632,-6.34555,-3.27406
-427,-608,-5.05603,3.92859,0,0,0,0,0,0,0,-1,797,1632,-5.05602,-3.92857
-420,-608,-5.61499,3.51917,0,0,0,0,0,0,0,-1,804,1632,-5.61498,-3.51914
-413,-608,-4.63806,4.34399,0,0,0,0,0,0,0,-1,811,1632,-4.63808,-4.34396
-406,-608,-3.69275,5.26758,0,0,0,0,0,0,0,-1,818,1632,-3.69272,-5.26761
-399,-608,-2.60645,6.34167,0,0,0,0,0,0,0,-1,825,1632,-2.60643,-6.34169
-392,-608,3.2226,9.26343,0,0,0,0,0,0,0,-1,832,1632,3.22258,-9.26349
-385,-608,3.17853,9.59021,0,0,0,0,0,0,0,-1,839,1632,3.17854,-9.5902
-378,-608,2.573,9.98132,0,0,0,0,0,0,0,-1,846,1632,2.57298,-9.98126
-371,-608,2.48547,10.1777,-0.00452111,-0.00131514,-0.00309317,0.000565729,-0.00640198,-1.02446,0.00446852,0.0398236,853,1632,2.48545,-10.1777
-364,-608,2.50482,10.2716,-0.00360951,-0.00181699,-0.00229959,-0.00024517,-0.00518132,-0.971216,0.00337546,0.0169368,860,1632,2.50482,-10.2716
-357,-608,2.47595,10.4905,-0.00262034,-0.00206974,-0.00154761,-0.000773134,-0.00391695,-0.873421,0.00239554,0.0133913,867,1632,2.47597,-10.4905
-350,-608,2.46814,10.75,-0.00168031,-0.002004,-0.00101224,-0.00081706,-0.00286725,-0.706125,0.00170568,0.0182987,874,1632,2.46814,-10.75
-343,-608,2.45215,10.9897,-0.000970968,-0.00190531,-0.000517397,-0.000741038,-0.00213524,-0.418184,0.00125186,0.0234513,881,1632,2.45217,-10.9897
-336,-608,2.4613,11.2073,-0.000235472,-0.00181628,-0.000189369,-0.000213103,-0.00183864,-0.117577,0.00116126,0.0155336,888,1632,2.46129,-11.2073
-329,-608,2.45709,11.4166,0.000444922,-0.00157181,-4.79885e-05,0.000446063,-0.00157295,-0.0237773,0.0012247,0.0137394,895,1632,2.45712,-11.4166
-322,-608,2.44287,11.6046,0.000836062,-0.0012663,-8.97009e-05,0.000839882,-0.00127012,-0.0425636,0.00122662,0.0137809,902,1632,2.44285,-11.6046
-315,-608,2.45795,11.7992,0.000989728,-0.00105031,-0.000197315,0.00100864,-0.00106922,-0.0955411,0.00119982,0.0124553,909,1632,2.45797,-11.7992
-308,-608,2.45251,12.0057,0.00117638,-0.00101054,-0.000437084,0.0012605,-0.00109466,-0.190135,0.00136087,0.0133261,916,1632,2.45253,-12.0058
-301,-608,2.45129,12.2002,0.00133694,-0.00105995,-0.000770132,0.00156306,-0.00128606,-0.285581,0.00164753,0.0106049,923,1632,2.4513,-12.2002
-294,-608,2.4715,12.3882,0.00146765,-0.00139636,-0.00120224,0.00190541,-0.00183412,-0.349199,0.00215915,0.0104448,930,1632,2.47147,-12.3882
-287,-608,2.461,12.5851,0.00150157,-0.00189209,-0.00167758,0.00219085,-0.00258137,-0.389846,0.00275831,0.0100688,937,1632,2.46101,-12.585
-280,-608,2.46448,12.756,0.0015374,-0.00256022,-0.00221996,0.00250949,-0.00353232,-0.412735,0.00350486,0.00797322,944,1632,2.46449,-12.756
-273,-608,2.45953,12.9426,0.00166844,-0.00347902,-0.00278486,0.00288674,-0.00469733,-0.412389,0.00442006,0.0084521,951,1632,2.45951,-12.9427
-266,-608,2.48047,13.1471,0.00180854,-0.00482198,-0.00330013,0.00317108,-0.00618452,-0.391556,0.00549407,0.00836368,958,1632,2.48049,-13.1471
-259,-608,2.49634,13.2964,0.00192251,-0.00647021,-0.00371807,0.00333271,-0.00788041,-0.36252,0.00664901,0.0115932,965,1632,2.49632,-13.2964
-252,-608,2.51563,13.4192,0.00206061,-0.00835839,-0.00410568,0.00348403,-0.0097818,-0.333726,0.00794151,0.0264453,972,1632,2.51565,-13.4192
-245,-608,2.59125,13.6603,0.00171197,-0.0126499,-0.0019347,0.00196803,-0.0129059,-0.131587,0.00932942,0.0364403,979,1632,2.59126,-13.6603
-238,-608,2.57361,13.6482,0.000817309,-0.0190227,0.00154162,0.000936382,-0.0191417,0.0770862,0.0130845,0.0422831,986,1632,2.57362,-13.6482
-231,-608,2.55414,13.8037,0,0,0,0,0,0,0,-1,993,1632,2.55416,-13.8037
-224,-608,2.3443,12.0583,0,0,0,0,0,0,0,-1,1000,1632,2.34432,-12.0584
-217,-608,1.04419,12.8451,0,0,0,0,0,0,0,-1,1007,1632,1.04418,-12.8451
-210,-608,3.21924,12.5037,0,0,0,0,0,0,0,-1,1014,1632,3.21925,-12.5036
-203,-608,3.93274,12.6932,0,0,0,0,0,0,0,-1,1021,1632,3.9327,-12.6932
-196,-608,4.63928,12.7717,-0.00984435,-0.0672243,0.0348989,0.00664363,-0.0837123,0.441366,0.0581494,0.0484752,1028,1632,4.6393,-12.7718
-189,-608,4.50818,12.9733,-0.0120727,-0.0755345,0.0416652,0.00856848,-0.0961757,0.459966,0.0671557,0.0451015,1035,1632,4.50813,-12.9733
-182,-608,4.05554,13.5374,0,0,0,0,0,0,0,-1,1042,1632,4.0555,-13.5374
-175,-608,0.219116,15.1643,0,0,0,0,0,0,0,-1,1049,1632,0.219173,-15.1644
-168,-608,0.000366211,9.48645,0,0,0,0,0,0,0,-1,1056,1632,0.000317105,-9.48648
-161,-608,-0.939453,9.31458,0,0,0,0,0,0,0,-1,1063,1632,-0.939447,-9.31463
-154,-608,0.503418,14.4747,0,0,0,0,0,0,0,-1,1070,1632,0.503374,-14.4748
-147,-608,2.4386,9.50317,0,0,0,0,0,0,0,-1,1077,1632,2.43858,-9.50313
-140,-608,2.60132,10.8401,0,0,0,0,0,0,0,-1,1084,1632,2.60134,-10.8401
-133,-608,3.2312,12.4738,0,0,0,0,0,0,0,-1,1091,1632,3.23116,-12.4738
-126,-608,3.76465,13.9644,0,0,0,0,0,0,0,-1,1098,1632,3.76466,-13.9644
-119,-608,4.28906,15.4196,0,0,0,0,0,0,0,-1,1105,1632,4.28911,-15.4195
-112,-608,0.745117,10.5587,0,0,0,0,0,0,0,-1,1112,1632,0.745145,-10.5587
-105,-608,-0.252319,1.42419,0,0,0,0,0,0,0,-1,1119,1632,-0.252331,-1.42418
-98,-608,-1.67896,0.994629,0,0,0,0,0,0,0,-1,1126,1632,-1.67895,-0.994599
-91,-608,-2.99451,0.744629,0,0,0,0,0,0,0,-1,1133,1632,-2.99453,-0.744605
-84,-608,0,0,0,0,0,0,0,0,0,-1,1140,1632,0,0
-77,-608,0,0,0,0,0,0,0,0,0,-1,1147,1632,0,0
-70,-608,0,0,0,0,0,0,0,0,0,-1,1154,1632,0,0
-63,-608,0,0,0,0,0,0,0,0,0,-1,1161,1632,0,0
-56,-608,0,0,0,0,0,0,0,0,0,-1,1168,1632,0,0
-49,-608,0,0,0,0,0,0,0,0,0,-1,1175,1632,0,0
-42,-608,0,0,0,0,0,0,0,0,0,-1,1182,1632,0,0
-35,-608,0,0,0,0,0,0,0,0,0,-1,1189,1632,0,0
-28,-608,0,0,0,0,0,0,0,0,0,-1,1196,1632,0,0
-21,-608,0,0,0,0,0,0,0,0,0,-1,1203,1632,0,0
-14,-608,0,0,0,0,0,0,0,0,0,-1,1210,1632,0,0
-7,-608,0,0,0,0,0,0,0,0,0,-1,1217,1632,0,0
0,-608,0,0,0,0,0,0,0,0,0,-1,1224,1632,0,0
7,-608,0,0,0,0,0,0,0,0,0,-1,1231,1632,0,0
14,-608,0,0,0,0,0,0,0,0,0,-1,1238,1632,0,0
21,-608,0,0,0,0,0,0,0,0,0,-1,1245,1632,0,0
28,-608,0,0,0,0,0,0,0,0,0,-1,1252,1632,0,0
35,-608,0,0,0,0,0,0,0,0,0,-1,1259,1632,0,0
42,-608,0,0,0,0,0,0,0,0,0,-1,1266,1632,0,0
49,-608,0,0,0,0,0,0,0,0,0,-1,1273,1632,0,0
56,-608,0,0,0,0,0,0,0,0,0,-1,1280,1632,0,0
63,-608,0,0,0,0,0,0,0,0,0,-1,1287,1632,0,0
70,-608,0,0,0,0,0,0,0,0,0,-1,1294,1632,0,0
77,-608,0,0,0,0,0,0,0,0,0,-1,1301,1632,0,0
84,-608,0,0,0,0,0,0,0,0,0,-1,1308,1632,0,0
91,-608,0,0,0,0,0,0,0,0,0,-1,1315,1632,0,0
98,-608,0,0,0,0,0,0,0,0,0,-1,1322,1632,0,0
105,-608,0,0,0,0,0,0,0,0,0,-1,1329,1632,0,0
112,-608,0,0,0,0,0,0,0,0,0,-1,1336,1632,0,0
119,-608,0,0,0,0,0,0,0,0,0,-1,1343,1632,0,0
126,-608,0,0,0,0,0,0,0,0,0,-1,1350,1632,0,0
133,-608,0,0,0,0,0,0,0,0,0,-1,1357,1632,0,0
140,-608,0,0,0,0,0,0,0,0,0,-1,1364,1632,0,0
147,-608,0,0,0,0,0,0,0,0,0,-1,1371,1632,0,0
154,-608,0,0,0,0,0,0,0,0,0,-1,1378,1632,0,0
161,-608,0,0,0,0,0,0,0,0,0,-1,1385,1632,0,0
168,-608,0,0,0,0,0,0,0,0,0,-1,1392,1632,0,0
175,-608,0,0,0,0,0,0,0,0,0,-1,1399,1632,0,0
182,-608,0,0,0,0,0,0,0,0,0,-1,1406,1632,0,0
189,-608,0,0,0,0,0,0,0,0,0,-1,1413,1632,0,0
196,-608,0,0,0,0,0,0,0,0,0,-1,1420,1632,0,0
203,-608,0,0,0,0,0,0,0,0,0,-1,1427,1632,0,0
210,-608,5.7157,-0.333008,0,0,0,0,0,0,0,-1,1434,1632,5.71566,0.333004
217,-608,4.49402,-0.831787,0,0,0,0,0,0,0,-1,1441,1632,4.49396,0.831738
224,-608,4.18018,-1.11792,0,0,0,0,0,0,0,-1,1448,1632,4.1802,1.11796
231,-608,0.361816,0.825195,0,0,0,0,0,0,0,-1,1455,1632,0.36185,-0.825226
238,-608,2.85388,-0.28833,0,0,0,0,0,0,0,-1,1462,1632,2.85391,0.288282
245,-608,3.87537,4.02173,0,0,0,0,0,0,0,-1,1469,1632,3.87538,-4.02168
252,-608,5.66956,3.5282,0,0,0,0,0,0,0,-1,1476,1632,5.6696,-3.52815
259,-608,7.47437,3.07178,0,0,0,0,0,0,0,-1,1483,1632,7.4744,-3.07172
266,-608,9.46936,2.34766,0,0,0,0,0,0,0,-1,1490,1632,9.46932,-2.34764
273,-608,6.03003,3.34241,0,0,0,0,0,0,0,-1,1497,1632,6.02997,-3.34245
280,-608,5.72461,2.0769,0,0,0,0,0,0,0,-1,1504,1632,5.72457,-2.07688
287,-608,6.20581,3.59338,0,0,0,0,0,0,0,-1,1511,1632,6.20585,-3.59341
294,-608,6.94922,5.17151,0,0,0,0,0,0,0,-1,1518,1632,6.94925,-5.17151
301,-608,7.60083,6.68018,0,0,0,0,0,0,0,-1,1525,1632,7.60086,-6.68013
308,-608,7.64746,9.93848,0,0,0,0,0,0,0,-1,1532,1632,7.64745,-9.93842
315,-608,5.30688,11.2054,0,0,0,0,0,0,0,-1,1539,1632,5.30694,-11.2054
322,-608,5.32617,13.7581,0,0,0,0,0,0,0,-1,1546,1632,5.32613,-13.758
329,-608,5.00195,13.7511,0,0,0,0,0,0,0,-1,1553,1632,5.00192,-13.7511
336,-608,5.48633,7.82446,0,0,0,0,0,0,0,-1,1560,1632,5.48634,-7.82446
343,-608,5.47192,5.61047,0,0,0,0,0,0,0,-1,1567,1632,5.47192,-5.61045
350,-608,11.6957,1.71387,0,0,0,0,0,0,0,-1,1574,1632,11.6957,-1.71388
357,-608,3.77002,5.10046,0,0,0,0,0,0,0,-1,1581,1632,3.77002,-5.10043
364,-608,5.6925,11.2163,0,0,0,0,0,0,0,-1,1588,1632,5.69255,-11.2163
371,-608,7.27612,14.5713,0,0,0,0,0,0,0,-1,1595,1632,7.27613,-14.5713
378,-608,7.28198,14.3744,0.000792153,-0.00528181,0.00867831,0.00694954,-0.0114392,0.617083,0.0107217,0.0377544,1602,1632,7.28194,-14.3744
385,-608,7.26123,14.1759,-0.0013696,-0.00608545,0.00809908,0.00470781,-0.0121629,0.643746,0.0100523,0.0328098,1609,1632,7.26125,-14.176
392,-608,7.14343,14.0844,-0.00168592,-0.00595413,0.00787984,0.0043437,-0.0119837,0.653155,0.0097646,0.0232394,1616,1632,7.14338,-14.0844
399,-608,7.11975,13.9968,-0.00175221,-0.00539409,0.00744323,0.00408958,-0.0112359,0.665433,0.00916321,0.0114525,1623,1632,7.11978,-13.9968
406,-608,7.11719,13.849,-0.00194384,-0.00499445,0.00702114,0.00371577,-0.0106541,0.678438,0.00861275,0.00918134,1630,1632,7.1172,-13.849
413,-608,7.09985,13.6891,-0.00187998,-0.00427708,0.0062438,0.00327927,-0.00943632,0.690573,0.00762283,0.00909045,1637,1632,7.0998,-13.6891
420,-608,7.08398,13.5337,-0.00157296,-0.00368835,0.00536637,0.00283896,-0.00810027,0.688097,0.00655474,0.0150322,1644,1632,7.084,-13.5337
427,-608,7.11169,13.3564,-0.00124397,-0.00332751,0.00453129,0.00236376,-0.00693525,0.672409,0.00558085,0.0167251,1651,1632,7.11171,-13.3564
434,-608,7.12695,13.1687,-0.00094848,-0.00302299,0.00368624,0.00184366,-0.00581513,0.648251,0.00461572,0.0138017,1658,1632,7.12691,-13.1686
441,-608,7.11743,12.978,-0.000546672,-0.00259933,0.00305933,0.0016539,-0.0047999,0.623559,0.00387086,0.0123656,1665,1632,7.11745,-12.978
448,-608,7.15906,12.8187,-0.000110644,-0.00203307,0.00270481,0.00179867,-0.00394239,0.614672,0.00339075,0.0142067,1672,1632,7.15909,-12.8187
455,-608,7.16418,12.6376,0.000352997,-0.00162586,0.00233861,0.00190287,-0.00317573,0.585275,0.00296267,0.0109163,1679,1632,7.16418,-12.6376
462,-608,7.14075,12.4525,0.000917355,-0.00111381,0.00207249,0.00220972,-0.00240618,0.557578,0.0026658,0.00946764,1686,1632,7.14076,-12.4526
469,-608,7.11011,12.2648,0.00154496,-0.000241146,0.00181871,0.00267805,-0.00137424,0.557173,0.00237961,0.00765698,1693,1632,7.11015,-12.2648
476,-608,7.10388,12.0737,0.00213769,0.000693919,0.00185856,0.00340964,-0.000578024,0.600159,0.00248825,0.00824991,1700,1632,7.10382,-12.0737
483,-608,7.1134,11.8923,0.00273921,0.00163037,0.00209029,0.00434736,2.22262e-05,0.655764,0.00289086,0.00823864,1707,1632,7.11342,-11.8924
490,-608,7.12158,11.704,0.00352223,0.00266848,0.00228579,0.00542066,0.000770045,0.693086,0.00338641,0.00844645,1714,1632,7.12158,-11.704
497,-608,7.1228,11.4895,0.00440324,0.00355698,0.00245825,0.00647451,0.00148571,0.700169,0.0039162,0.0137522,1721,1632,7.12279,-11.4895
504,-608,7.0752,11.2681,0.00520389,0.00446983,0.00282378,0.00768439,0.00198933,0.720772,0.00460534,0.0302464,1728,1632,7.07521,-11.2681
511,-608,7.23218,11.1113,0.00600859,0.00539526,0.00312394,0.00884088,0.00256297,0.736472,0.00525234,0.0437151,1735,1632,7.23212,-11.1114
518,-608,7.35815,10.6157,0.00663775,0.00601766,0.00344766,0.00978928,0.00286613,0.740554,0.00581138,0.0498902,1742,1632,7.35813,-10.6157
525,-608,7.51318,10.3049,0,0,0,0,0,0,0,-1,1749,1632,7.51315,-10.305
532,-608,7.25708,10.1648,0,0,0,0,0,0,0,-1,1756,1632,7.25708,-10.1648
539,-608,9.40796,1.43457,0,0,0,0,0,0,0,-1,1763,1632,9.40801,-1.43463
546,-608,9.94031,2.1134,0,0,0,0,0,0,0,-1,1770,1632,9.94031,-2.11346
553,-608,10.363,2.81335,0,0,0,0,0,0,0,-1,1777,1632,10.3631,-2.81333
560,-608,9.23999,4.5636,0,0,0,0,0,0,0,-1,1784,1632,9.24,-4.56354
567,-608,0,0,0,0,0,0,0,0,0,-1,1791,1632,0,0
574,-608,0,0,0,0,0,0,0,0,0,-1,1798,1632,0,0
581,-608,0,0,0,0,0,0,0,0,0,-1,1805,1632,0,0
588,-608,0,0,0,0,0,0,0,0,0,-1,1812,1632,0,0
595,-608,0,0,0,0,0,0,0,0,0,-1,1819,1632,0,0
602,-608,0,0,0,0,0,0,0,0,0,-1,1826,1632,0,0
609,-608,0,0,0,0,0,0,0,0,0,-1,1833,1632,0,0
616,-608,0,0,0,0,0,0,0,0,0,-1,1840,1632,0,0
623,-608,0,0,0,0,0,0,0,0,0,-1,1847,1632,0,0
630,-608,0,0,0,0,0,0,0,0,0,-1,1854,1632,0,0
637,-608,0,0,0,0,0,0,0,0,0,-1,1861,1632,0,0
644,-608,0,0,0,0,0,0,0,0,0,-1,1868,1632,0,0
651,-608,0,0,0,0,0,0,0,0,0,-1,1875,1632,0,0
658,-608,0,0,0,0,0,0,0,0,0,-1,1882,1632,0,0
665,-608,0,0,0,0,0,0,0,0,0,-1,1889,1632,0,0
672,-608,0,0,0,0,0,0,0,0,0,-1,1896,1632,0,0
679,-608,0,0,0,0,0,0,0,0,0,-1,1903,1632,0,0
686,-608,0,0,0,0,0,0,0,0,0,-1,1910,1632,0,0
693,-608,0,0,0,0,0,0,0,0,0,-1,1917,1632,0,0
700,-608,0,0,0,0,0,0,0,0,0,-1,1924,1632,0,0
707,-608,0,0,0,0,0,0,0,0,0,-1,1931,1632,0,0
714,-608,0,0,0,0,0,0,0,0,0,-1,1938,1632,0,0
721,-608,0,0,0,0,0,0,0,0,0,-1,1945,1632,0,0
728,-608,0,0,0,0,0,0,0,0,0,-1,1952,1632,0,0
735,-608,0,0,0,0,0,0,0,0,0,-1,1959,1632,0,0
742,-608,0,0,0,0,0,0,0,0,0,-1,1966,1632,0,0
749,-608,0,0,0,0,0,0,0,0,0,-1,1973,1632,0,0
756,-608,0,0,0,0,0,0,0,0,0,-1,1980,1632,0,0
763,-608,0,0,0,0,0,0,0,0,0,-1,1987,1632,0,0
770,-608,0,0,0,0,0,0,0,0,0,-1,1994,1632,0,0
777,-608,0,0,0,0,0,0,0,0,0,-1,2001,1632,0,0
784,-608,0,0,0,0,0,0,0,0,0,-1,2008,1632,0,0
791,-608,0,0,0,0,0,0,0,0,0,-1,2015,1632,0,0
798,-608,0,0,0,0,0,0,0,0,0,-1,2022,1632,0,0
805,-608,0,0,0,0,0,0,0,0,0,-1,2029,1632,0,0
812,-608,0,0,0,0,0,0,0,0,0,-1,2036,1632,0,0
-700,-615,0,0,0,0,0,0,0,0,0,-1,524,1639,0,0
-693,-615,0,0,0,0,0,0,0,0,0,-1,531,1639,0,0
-686,-615,0,0,0,0,0,0,0,0,0,-1,538,1639,0,0
-679,-615,0,0,0,0,0,0,0,0,0,-1,545,1639,0,0
-672,-615,0,0,0,0,0,0,0,0,0,-1,552,1639,0,0
-665,-615,0,0,0,0,0,0,0,0,0,-1,559,1639,0,0
-658,-615,0,0,0,0,0,0,0,0,0,-1,566,1639,0,0
-651,-615,0,0,0,0,0,0,0,0,0,-1,573,1639,0,0
-644,-615,0,0,0,0,0,0,0,0,0,-1,580,1639,0,0
-637,-615,0,0,0,0,0,0,0,0,0,-1,587,1639,0,0
-630,-615,0,0,0,0,0,0,0,0,0,-1,594,1639,0,0
-623,-615,0,0,0,0,0,0,0,0,0,-1,601,1639,0,0
-616,-615,0,0,0,0,0,0,0,0,0,-1,608,1639,0,0
-609,-615,0,0,0,0,0,0,0,0,0,-1,615,1639,0,0
-602,-615,0,0,0,0,0,0,0,0,0,-1,622,1639,0,0
-595,-615,0,0,0,0,0,0,0,0,0,-1,629,1639,0,0
-588,-615,0,0,0,0,0,0,0,0,0,-1,636,1639,0,0
-581,-615,0,0,0,0,0,0,0,0,0,-1,643,1639,0,0
-574,-615,0,0,0,0,0,0,0,0,0,-1,650,1639,0,0
-567,-615,0,0,0,0,0,0,0,0,0,-1,657,1639,0,0
-560,-615,0,0,0,0,0,0,0,0,0,-1,664,1639,0,0
-553,-615,0,0,0,0,0,0,0,0,0,-1,671,1639,0,0
-546,-615,0,0,0,0,0,0,0,0,0,-1,678,1639,0,0
-539,-615,0,0,0,0,0,0,0,0,0,-1,685,1639,0,0
-532,-615,0,0,0,0,0,0,0,0,0,-1,692,1639,0,0
-525,-615,0,0,0,0,0,0,0,0,0,-1,699,1639,0,0
-518,-615,0,0,0,0,0,0,0,0,0,-1,706,1639,0,0
-511,-615,0,0,0,0,0,0,0,0,0,-1,713,1639,0,0
-504,-615,0,0,0,0,0,0,0,0,0,-1,720,1639,0,0
-497,-615,0,0,0,0,0,0,0,0,0,-1,727,1639,0,0
-490,-615,0,0,0,0,0,0,0,0,0,-1,734,1639,0,0
-483,-615,0,0,0,0,0,0,0,0,0,-1,741,1639,0,0
-476,-615,0,0,0,0,0,0,0,0,0,-1,748,1639,0,0
-469,-615,0,0,0,0,0,0,0,0,0,-1,755,1639,0,0
-462,-615,0,0,0,0,0,0,0,0,0,-1,762,1639,0,0
-455,-615,0,0,0,0,0,0,0,0,0,-1,769,1639,0,0
-448,-615,0,0,0,0,0,0,0,0,0,-1,776,1639,0,0
-441,-615,0,0,0,0,0,0,0,0,0,-1,783,1639,0,0
-434,-615,-7.64508,2.98596,0,0,0,0,0,0,0,-1,790,1639,-7.64505,-2.98594
-427,-615,-8.88153,0.496216,0,0,0,0,0,0,0,-1,797,1639,-8.88154,-0.49627
-420,-615,-7.74091,1.49768,0,0,0,0,0,0,0,-1,804,1639,-7.7409,-1.49771
-413,-615,-6.54474,2.53772,0,0,0,0,0,0,0,-1,811,1639,-6.54472,-2.53775
-406,-615,-5.43872,3.50488,0,0,0,0,0,0,0,-1,818,1639,-5.43874,-3.50493
-399,-615,-4.84875,3.91907,0,0,0,0,0,0,0,-1,825,1639,-4.84877,-3.91901
-392,-615,-3.4469,5.28418,0,0,0,0,0,0,0,-1,832,1639,-3.44689,-5.28422
-385,-615,2.35748,10.79,0,0,0,0,0,0,0,-1,839,1639,2.35748,-10.79
-378,-615,2.7038,10.1128,0,0,0,0,0,0,0,-1,846,1639,2.70381,-10.1128
-371,-615,2.6673,10.2487,-0.00539373,-0.00204757,-0.0037776,0.000410874,-0.00785217,-0.993863,0.00537697,0.0499784,853,1639,2.66729,-10.2486
-364,-615,2.73438,10.3064,-0.00441858,-0.00266912,-0.00277724,-0.000632115,-0.00645558,-0.937962,0.00410926,0.0350904,860,1639,2.73436,-10.3064
-357,-615,2.74792,10.5948,-0.00333537,-0.00302407,-0.00183917,-0.00133398,-0.00502546,-0.827614,0.00300599,0.0285494,867,1639,2.7479,-10.5948
-350,-615,2.66077,10.8002,-0.00226292,-0.00298287,-0.0012108,-0.00135972,-0.00388608,-0.640909,0.00227708,0.027083,874,1639,2.66077,-10.8002
-343,-615,2.61047,10.9905,-0.00145943,-0.00289098,-0.000643633,-0.00121261,-0.00313781,-0.366189,0.00182712,0.0198199,881,1639,2.61045,-10.9904
-336,-615,2.6618,11.1857,-0.000667715,-0.00280185,-0.000270719,-0.00063391,-0.00283566,-0.12423,0.00171856,0.0101005,888,1639,2.6618,-11.1857
-329,-615,2.65967,11.3929,6.57369e-05,-0.00254235,-0.000114496,7.07537e-05,-0.00254736,-0.0437883,0.00172231,0.0100156,895,1639,2.65965,-11.3929
-322,-615,2.65887,11.6127,0.000501545,-0.00219449,-0.000132921,0.000508083,-0.00220103,-0.0491435,0.00166279,0.0106843,902,1639,2.65889,-11.6127
-315,-615,2.66754,11.825,0.000674393,-0.0018908,-0.000187939,0.000688089,-0.0019045,-0.0727473,0.00155078,0.0125227,909,1639,2.66752,-11.8249
-308,-615,2.65527,12.0375,0.000872106,-0.0017305,-0.00036453,0.000922199,-0.00178059,-0.136563,0.00158647,0.019232,916,1639,2.65528,-12.0374
-301,-615,2.65717,12.2032,0.00105284,-0.00163212,-0.00062409,0.00119081,-0.00177009,-0.217579,0.00172035,0.0127742,923,1639,2.65719,-12.2033
-294,-615,2.66968,12.3904,0.00123145,-0.00175424,-0.000939617,0.00150254,-0.00202533,-0.280883,0.00204426,0.0106959,930,1639,2.66965,-12.3904
-287,-615,2.65753,12.5856,0.0012796,-0.00199855,-0.00128645,0.00172415,-0.00244311,-0.33272,0.00241787,0.00793774,937,1639,2.65751,-12.5856
-280,-615,2.66608,12.7595,0.00128226,-0.00237677,-0.0016827,0.00193843,-0.00303293,-0.371811,0.00289331,0.00820508,944,1639,2.66611,-12.7595
-273,-615,2.66431,12.954,0.00139197,-0.00296753,-0.00206941,0.00221784,-0.0037934,-0.379718,0.0035101,0.00908396,951,1639,2.6643,-12.9539
-266,-615,2.66669,13.1547,0.00151884,-0.00387781,-0.00239309,0.00242716,-0.00478613,-0.362759,0.00423817,0.00912038,958,1639,2.66666,-13.1546
-259,-615,2.67407,13.3154,0.00159647,-0.00504253,-0.0026269,0.00251014,-0.0059562,-0.334724,0.0050212,0.0115758,965,1639,2.67409,-13.3155
-252,-615,2.68433,13.4459,0.00170863,-0.00635341,-0.00283899,0.00260803,-0.00725281,-0.306798,0.00589992,0.0136009,972,1639,2.68432,-13.4459
-245,-615,2.67047,13.6041,0.00154124,-0.00969262,-0.00113826,0.00165541,-0.0098068,-0.09997,0.0071538,0.0191295,979,1639,2.67047,-13.6041
-238,-615,2.68445,13.8009,0.000921501,-0.0146003,0.00154441,0.00107368,-0.0147524,0.0982167,0.0102117,0.0273278,986,1639,2.68446,-13.8009
-231,-615,2.68188,13.9376,-0.000129707,-0.0193451,0.00390206,0.000632454,-0.0201072,0.192894,0.0136205,0.0391897,993,1639,2.68187,-13.9376
-224,-615,2.92871,14.0162,0,0,0,0,0,0,0,-1,1000,1639,2.92874,-14.0162
-217,-615,3.17163,13.9169,0,0,0,0,0,0,0,-1,1007,1639,3.17161,-13.9168
-210,-615,3.02405,14.2625,0,0,0,0,0,0,0,-1,1014,1639,3.02404,-14.2625
-203,-615,4.22534,12.771,0,0,0,0,0,0,0,-1,1021,1639,4.22531,-12.771
-196,-615,4.31042,13.2513,-0.00734431,-0.0520662,0.0263717,0.0048704,-0.0642809,0.433757,0.0445662,0.0478279,1028,1639,4.31044,-13.2513
-189,-615,4.23303,13.7903,-0.00913805,-0.0582788,0.0312975,0.00608148,-0.0734983,0.452616,0.0511467,0.045933,1035,1639,4.23299,-13.7903
-182,-615,3.95264,14.3602,0,0,0,0,0,0,0,-1,1042,1639,3.95269,-14.3602
-175,-615,-0.609985,13.8434,0,0,0,0,0,0,0,-1,1049,1639,-0.610016,-13.8434
-168,-615,2.02783,9.96631,0,0,0,0,0,0,0,-1,1056,1639,2.0278,-9.96637
-161,-615,0.378418,15.2075,0,0,0,0,0,0,0,-1,1063,1639,0.378426,-15.2076
-154,-615,0.909302,14.1709,0,0,0,0,0,0,0,-1,1070,1639,0.909305,-14.1709
-147,-615,1.44019,13.1343,0,0,0,0,0,0,0,-1,1077,1639,1.44018,-13.1343
-140,-615,3.73401,10.2349,0,0,0,0,0,0,0,-1,1084,1639,3.73402,-10.2348
-133,-615,3.88013,11.3654,0,0,0,0,0,0,0,-1,1091,1639,3.88015,-11.3654
-126,-615,4.43408,12.5017,0,0,0,0,0,0,0,-1,1098,1639,4.43403,-12.5018
-119,-615,4.82983,13.9279,0,0,0,0,0,0,0,-1,1105,1639,4.82986,-13.9278
-112,-615,3.65698,14.4874,0,0,0,0,0,0,0,-1,1112,1639,3.65695,-14.4875
-105,-615,0.958496,2.45398,0,0,0,0,0,0,0,-1,1119,1639,0.958452,-2.45398
-98,-615,-0.647705,2.12109,0,0,0,0,0,0,0,-1,1126,1639,-0.647756,-2.12105
-91,-615,-1.48572,0.604492,0,0,0,0,0,0,0,-1,1133,1639,-1.48576,-0.604443
-84,-615,-2.46509,0.703247,0,0,0,0,0,0,0,-1,1140,1639,-2.46505,-0.703273
-77,-615,-3.17859,1.23755,0,0,0,0,0,0,0,-1,1147,1639,-3.17865,-1.23752
-70,-615,-4.03943,1.43335,0,0,0,0,0,0,0,-1,1154,1639,-4.03942,-1.43339
-63,-615,-4.8877,1.45544,0,0,0,0,0,0,0,-1,1161,1639,-4.88766,-1.45549
-56,-615,0,0,0,0,0,0,0,0,0,-1,1168,1639,0,0
-49,-615,0,0,0,0,0,0,0,0,0,-1,1175,1639,0,0
-42,-615,0,0,0,0,0,0,0,0,0,-1,1182,1639,0,0
-35,-615,0,0,0,0,0,0,0,0,0,-1,1189,1639,0,0
-28,-615,0,0,0,0,0,0,0,0,0,-1,1196,1639,0,0
-21,-615,0,0,0,0,0,0,0,0,0,-1,1203,1639,0,0
-14,-615,0,0,0,0,0,0,0,0,0,-1,1210,1639,0,0
-7,-615,0,0,0,0,0,0,0,0,0,-1,1217,1639,0,0
0,-615,0,0,0,0,0,0,0,0,0,-1,1224,1639,0,0
7,-615,0,0,0,0,0,0,0,0,0,-1,1231,1639,0,0
14,-615,0,0,0,0,0,0,0,0,0,-1,1238,1639,0,0
21,-615,0,0,0,0,0,0,0,0,0,-1,1245,1639,0,0
28,-615,0,0,0,0,0,0,0,0,0,-1,1252,1639,0,0
35,-615,0,0,0,0,0,0,0,0,0,-1,1259,1639,0,0
42,-615,0,0,0,0,0,0,0,0,0,-1,1266,1639,0,0
49,-615,0,0,0,0,0,0,0,0,0,-1,1273,1639,0,0
56,-615,0,0,0,0,0,0,0,0,0,-1,1280,1639,0,0
63,-615,0,0,0,0,0,0,0,0,0,-1,1287,1639,0,0
70,-615,0,0,0,0,0,0,0,0,0,-1,1294,1639,0,0
77,-615,0,0,0,0,0,0,0,0,0,-1,1301,1639,0,0
84,-615,0,0,0,0,0,0,0,0,0,-1,1308,1639,0,0
91,-615,0,0,0,0,0,0,0,0,0,-1,1315,1639,0,0
98,-615,0,0,0,0,0,0,0,0,0,-1,1322,1639,0,0
105,-615,0,0,0,0,0,0,0,0,0,-1,1329,1639,0,0
112,-615,0,0,0,0,0,0,0,0,0,-1,1336,1639,0,0
119,-615,0,0,0,0,0,0,0,0,0,-1,1343,1639,0,0
126,-615,0,0,0,0,0,0,0,0,0,-1,1350,1639,0,0
133,-615,0,0,0,0,0,0,0,0,0,-1,1357,1639,0,0
140,-615,0,0,0,0,0,0,0,0,0,-1,1364,1639,0,0
147,-615,0,0,0,0,0,0,0,0,0,-1,1371,1639,0,0
154,-615,0,0,0,0,0,0,0,0,0,-1,1378,1639,0,0
161,-615,0,0,0,0,0,0,0,0,0,-1,1385,1639,0,0
168,-615,0,0,0,0,0,0,0,0,0,-1,1392,1639,0,0
175,-615,5.39648,-2.00879,0,0,0,0,0,0,0,-1,1399,1639,5.3965,2.00881
182,-615,5.65393,-1.51025,0,0,0,0,0,0,0,-1,1406,1639,5.65388,1.51028
189,-615,5.58972,-1.35608,0,0,0,0,0,0,0,-1,1413,1639,5.58967,1.35607
196,-615,5.49915,-0.693604,0,0,0,0,0,0,0,-1,1420,1639,5.4991,0.693602
203,-615,5.33411,-0.226685,0,0,0,0,0,0,0,-1,1427,1639,5.33414,0.226689
210,-615,5.60278,0.108276,0,0,0,0,0,0,0,-1,1434,1639,5.60284,-0.10831
217,-615,6.26331,-0.307373,0,0,0,0,0,0,0,-1,1441,1639,6.26331,0.307372
224,-615,5.45422,-0.333984,0,0,0,0,0,0,0,-1,1448,1639,5.45422,0.333992
231,-615,4.92542,1.80298,0,0,0,0,0,0,0,-1,1455,1639,4.92537,-1.80297
238,-615,4.76355,1.96729,0,0,0,0,0,0,0,-1,1462,1639,4.76357,-1.96734
245,-615,4.08643,3.15906,0,0,0,0,0,0,0,-1,1469,1639,4.08638,-3.159
252,-615,6.37805,3.73889,0,0,0,0,0,0,0,-1,1476,1639,6.37806,-3.73891
259,-615,8.35974,3.16443,0,0,0,0,0,0,0,-1,1483,1639,8.35975,-3.16444
266,-615,10.3414,2.58997,0,0,0,0,0,0,0,-1,1490,1639,10.3414,-2.58996
273,-615,6.57043,1.84766,0,0,0,0,0,0,0,-1,1497,1639,6.5704,-1.84771
280,-615,7.10449,3.23438,0,0,0,0,0,0,0,-1,1504,1639,7.10447,-3.23435
287,-615,7.35779,4.68542,0,0,0,0,0,0,0,-1,1511,1639,7.35776,-4.68546
294,-615,7.63733,6.29114,0,0,0,0,0,0,0,-1,1518,1639,7.63735,-6.29109
301,-615,8.47925,11.452,0,0,0,0,0,0,0,-1,1525,1639,8.47922,-11.452
308,-615,6.8114,10.9059,0,0,0,0,0,0,0,-1,1532,1639,6.81137,-10.9058
315,-615,5.1427,14.7251,0,0,0,0,0,0,0,-1,1539,1639,5.14269,-14.7251
322,-615,6.48926,15.3831,0,0,0,0,0,0,0,-1,1546,1639,6.48921,-15.3831
329,-615,7.11292,15.6306,0,0,0,0,0,0,0,-1,1553,1639,7.11291,-15.6306
336,-615,5.4082,13.5924,0,0,0,0,0,0,0,-1,1560,1639,5.4082,-13.5925
343,-615,2.40491,6.50134,0,0,0,0,0,0,0,-1,1567,1639,2.40489,-6.50137
350,-615,6.4458,15.4594,0,0,0,0,0,0,0,-1,1574,1639,6.44578,-15.4593
357,-615,6.97241,14.8386,0,0,0,0,0,0,0,-1,1581,1639,6.97235,-14.8386
364,-615,6.92004,14.6284,0,0,0,0,0,0,0,-1,1588,1639,6.92006,-14.6284
371,-615,6.91003,14.5499,0.0041645,-0.00401794,0.00640581,0.0076741,-0.00752754,0.501212,0.00877681,0.0414213,1595,1639,6.91002,-14.55
378,-615,6.93066,14.4479,0.00114919,-0.00405317,0.006225,0.00529462,-0.0081986,0.587494,0.00785022,0.0205681,1602,1639,6.93068,-14.4479
385,-615,6.94592,14.3062,-0.00058121,-0.00475645,0.0058079,0.00350287,-0.00884053,0.612866,0.00734521,0.0115049,1609,1639,6.94587,-14.3062
392,-615,6.9436,14.1555,-0.00091412,-0.00465199,0.00563923,0.00315781,-0.00872392,0.625386,0.0071064,0.0107102,1616,1639,6.94365,-14.1555
399,-615,6.93677,14.0358,-0.00102012,-0.0040249,0.00526521,0.00295285,-0.00799787,0.64642,0.00654223,0.0118515,1623,1639,6.93677,-14.0357
406,-615,6.93384,13.8629,-0.00124595,-0.00360269,0.00495126,0.00266523,-0.00751387,0.668574,0.00609509,0.0116374,1630,1639,6.9339,-13.8629
413,-615,6.93103,13.697,-0.00120873,-0.00286535,0.00431594,0.00235767,-0.00643174,0.690592,0.00525314,0.0117078,1637,1639,6.93103,-13.697
420,-615,6.92749,13.5311,-0.000940599,-0.00222975,0.00358701,0.00205929,-0.00522963,0.696498,0.00433892,0.0116961,1644,1639,6.92749,-13.5312
427,-615,6.93799,13.3438,-0.000659571,-0.00187044,0.00291698,0.00171415,-0.00424416,0.683074,0.00354189,0.0129,1651,1639,6.93795,-13.3438
434,-615,6.95898,13.1709,-0.000401733,-0.0015568,0.00222415,0.00131865,-0.00327718,0.658371,0.00273253,0.0131935,1658,1639,6.959,-13.1709
441,-615,6.96899,12.9757,7.41411e-05,-0.0011069,0.00187845,0.00145271,-0.00248546,0.633107,0.00229961,0.0134488,1665,1639,6.96899,-12.9757
448,-615,6.96838,12.7994,0.000593843,-0.000572948,0.00188731,0.00198587,-0.00196497,0.635499,0.00228103,0.0137899,1672,1639,6.96836,-12.7995
455,-615,6.95337,12.6478,0.0011669,-0.000257258,0.00185204,0.00243904,-0.00152939,0.601869,0.00231115,0.0129463,1679,1639,6.95341,-12.6479
462,-615,6.95886,12.4832,0.00187875,0.000170982,0.00197271,0.00317445,-0.00112472,0.581148,0.00257444,0.0126643,1686,1639,6.9588,-12.4832
469,-615,6.93311,12.2839,0.00271441,0.00101555,0.00214163,0.00416892,-0.000438954,0.5966,0.00293655,0.0109564,1693,1639,6.93309,-12.284
476,-615,6.92371,12.0674,0.0035822,0.00197458,0.00268277,0.00557899,-2.22088e-05,0.639844,0.00372675,0.0102323,1700,1639,6.92375,-12.0674
483,-615,6.93835,11.8594,0.004512,0.0029892,0.00343654,0.00727048,0.000230718,0.676379,0.00477194,0.0139422,1707,1639,6.93833,-11.8593
490,-615,6.93579,11.6606,0.0056585,0.0040935,0.00419077,0.0091392,0.000612802,0.693101,0.00589915,0.0161338,1714,1639,6.93581,-11.6607
497,-615,6.88733,11.5021,0.00693164,0.00516658,0.00495542,0.0110825,0.00101571,0.697275,0.00707411,0.0248651,1721,1639,6.88727,-11.5021
504,-615,6.9447,11.3336,0.00823482,0.00662583,0.00576461,0.0132508,0.00160985,0.716067,0.00834914,0.0470867,1728,1639,6.94467,-11.3336
511,-615,7.18628,11.0935,0,0,0,0,0,0,0,-1,1735,1639,7.18622,-11.0935
518,-615,7.35779,10.4647,0,0,0,0,0,0,0,-1,1742,1639,7.35773,-10.4647
525,-615,4.37524,3.90491,0,0,0,0,0,0,0,-1,1749,1639,4.37518,-3.90495
532,-615,7.3645,0.848145,0,0,0,0,0,0,0,-1,1756,1639,7.36451,-0.848093
539,-615,12.8112,-0.0476074,0,0,0,0,0,0,0,-1,1763,1639,12.8111,0.0475553
546,-615,8.33813,2.94556,0,0,0,0,0,0,0,-1,1770,1639,8.33813,-2.9455
553,-615,5.82532,-2.04199,0,0,0,0,0,0,0,-1,1777,1639,5.82534,2.04195
560,-615,0,0,0,0,0,0,0,0,0,-1,1784,1639,0,0
567,-615,0,0,0,0,0,0,0,0,0,-1,1791,1639,0,0
574,-615,0,0,0,0,0,0,0,0,0,-1,1798,1639,0,0
581,-615,0,0,0,0,0,0,0,0,0,-1,1805,1639,0,0
588,-615,0,0,0,0,0,0,0,0,0,-1,1812,1639,0,0
595,-615,0,0,0,0,0,0,0,0,0,-1,1819,1639,0,0
602,-615,0,0,0,0,0,0,0,0,0,-1,1826,1639,0,0
609,-615,0,0,0,0,0,0,0,0,0,-1,1833,1639,0,0
616,-615,0,0,0,0,0,0,0,0,0,-1,1840,1639,0,0
623,-615,0,0,0,0,0,0,0,0,0,-1,1847,1639,0,0
630,-615,0,0,0,0,0,0,0,0,0,-1,1854,1639,0,0
637,-615,0,0,0,0,0,0,0,0,0,-1,1861,1639,0,0
644,-615,0,0,0,0,0,0,0,0,0,-1,1868,1639,0,0
651,-615,0,0,0,0,0,0,0,0,0,-1,1875,1639,0,0
658,-615,0,0,0,0,0,0,0,0,0,-1,1882,1639,0,0
665,-615,0,0,0,0,0,0,0,0,0,-1,1889,1639,0,0
672,-615,0,0,0,0,0,0,0,0,0,-1,1896,1639,0,0
679,-615,0,0,0,0,0,0,0,0,0,-1,1903,1639,0,0
686,-615,0,0,0,0,0,0,0,0,0,-1,1910,1639,0,0
693,-615,0,0,0,0,0,0,0,0,0,-1,1917,1639,0,0
700,-615,0,0,0,0,0,0,0,0,0,-1,1924,1639,0,0
707,-615,0,0,0,0,0,0,0,0,0,-1,1931,1639,0,0
714,-615,0,0,0,0,0,0,0,0,0,-1,1938,1639,0,0
721,-615,0,0,0,0,0,0,0,0,0,-1,1945,1639,0,0
728,-615,0,0,0,0,0,0,0,0,0,-1,1952,1639,0,0
735,-615,0,0,0,0,0,0,0,0,0,-1,1959,1639,0,0
742,-615,0,0,0,0,0,0,0,0,0,-1,1966,1639,0,0
749,-615,0,0,0,0,0,0,0,0,0,-1,1973,1639,0,0
756,-615,0,0,0,0,0,0,0,0,0,-1,1980,1639,0,0
763,-615,0,0,0,0,0,0,0,0,0,-1,1987,1639,0,0
770,-615,0,0,0,0,0,0,0,0,0,-1,1994,1639,0,0
777,-615,0,0,0,0,0,0,0,0,0,-1,2001,1639,0,0
784,-615,0,0,0,0,0,0,0,0,0,-1,2008,1639,0,0
791,-615,0,0,0,0,0,0,0,0,0,-1,2015,1639,0,0
798,-615,0,0,0,0,0,0,0,0,0,-1,2022,1639,0,0
805,-615,0,0,0,0,0,0,0,0,0,-1,2029,1639,0,0
812,-615,0,0,0,0,0,0,0,0,0,-1,2036,1639,0,0
-700,-622,0,0,0,0,0,0,0,0,0,-1,524,1646,0,0
-693,-622,0,0,0,0,0,0,0,0,0,-1,531,1646,0,0
-686,-622,0,0,0,0,0,0,0,0,0,-1,538,1646,0,0
-679,-622,0,0,0,0,0,0,0,0,0,-1,545,1646,0,0
-672,-622,0,0,0,0,0,0,0,0,0,-1,552,1646,0,0
-665,-622,0,0,0,0,0,0,0,0,0,-1,559,1646,0,0
-658,-622,0,0,0,0,0,0,0,0,0,-1,566,1646,0,0
-651,-622,0,0,0,0,0,0,0,0,0,-1,573,1646,0,0
-644,-622,0,0,0,0,0,0,0,0,0,-1,580,1646,0,0
-637,-622,0,0,0,0,0,0,0,0,0,-1,587,1646,0,0
-630,-622,0,0,0,0,0,0,0,0,0,-1,594,1646,0,0
-623,-622,0,0,0,0,0,0,0,0,0,-1,601,1646,0,0
-616,-622,0,0,0,0,0,0,0,0,0,-1,608,1646,0,0
-609,-622,0,0,0,0,0,0,0,0,0,-1,615,1646,0,0
-602,-622,0,0,0,0,0,0,0,0,0,-1,622,1646,0,0
-595,-622,0,0,0,0,0,0,0,0,0,-1,629,1646,0,0
-588,-622,0,0,0,0,0,0,0,0,0,-1,636,1646,0,0
-581,-622,0,0,0,0,0,0,0,0,0,-1,643,1646,0,0
-574,-622,0,0,0,0,0,0,0,0,0,-1,650,1646,0,0
-567,-622,0,0,0,0,0,0,0,0,0,-1,657,1646,0,0
-560,-622,0,0,0,0,0,0,0,0,0,-1,664,1646,0,0
-553,-622,0,0,0,0,0,0,0,0,0,-1,671,1646,0,0
-546,-622,0,0,0,0,0,0,0,0,0,-1,678,1646,0,0
-539,-622,0,0,0,0,0,0,0,0,0,-1,685,1646,0,0
-532,-622,0,0,0,0,0,0,0,0,0,-1,692,1646,0,0
-525,-622,0,0,0,0,0,0,0,0,0,-1,699,1646,0,0
-518,-622,0,0,0,0,0,0,0,0,0,-1,706,1646,0,0
-511,-622,0,0,0,0,0,0,0,0,0,-1,713,1646,0,0
-504,-622,0,0,0,0,0,0,0,0,0,-1,720,1646,0,0
-497,-622,0,0,0,0,0,0,0,0,0,-1,727,1646,0,0
-490,-622,0,0,0,0,0,0,0,0,0,-1,734,1646,0,0
-483,-622,0,0,0,0,0,0,0,0,0,-1,741,1646,0,0
-476,-622,0,0,0,0,0,0,0,0,0,-1,748,1646,0,0
-469,-622,0,0,0,0,0,0,0,0,0,-1,755,1646,0,0
-462,-622,0,0,0,0,0,0,0,0,0,-1,762,1646,0,0
-455,-622,0,0,0,0,0,0,0,0,0,-1,769,1646,0,0
-448,-622,0,0,0,0,0,0,0,0,0,-1,776,1646,0,0
-441,-622,0,0,0,0,0,0,0,0,0,-1,783,1646,0,0
-434,-622,0,0,0,0,0,0,0,0,0,-1,790,1646,0,0
-427,-622,-7.62891,3.48096,0,0,0,0,0,0,0,-1,797,1646,-7.62892,-3.48092
-420,-622,-9.86938,0.0371094,0,0,0,0,0,0,0,-1,804,1646,-9.86937,-0.0371326
-413,-622,-8.5658,1.0321,0,0,0,0,0,0,0,-1,811,1646,-8.56579,-1.03216
-406,-622,-4.44318,2.16858,0,0,0,0,0,0,0,-1,818,1646,-4.44315,-2.16859
-399,-622,-7.06976,1.51001,0,0,0,0,0,0,0,-1,825,1646,-7.06976,-1.51005
-392,-622,3.89551,5.85376,0,0,0,0,0,0,0,-1,832,1646,3.8955,-5.85379
-385,-622,4.37762,7.35767,0,0,0,0,0,0,0,-1,839,1646,4.37765,-7.35761
-378,-622,2.55804,11.1315,0,0,0,0,0,0,0,-1,846,1646,2.55805,-11.1314
-371,-622,2.64972,10.3682,0,0,0,0,0,0,0,-1,853,1646,2.64969,-10.3681
-364,-622,2.93188,10.3981,0,0,0,0,0,0,0,-1,860,1646,2.93188,-10.398
-357,-622,2.95789,10.5856,-0.00393424,-0.00427421,-0.00225851,-0.00183933,-0.00636912,-0.747838,0.003785,0.0445659,867,1646,2.95786,-10.5855
-350,-622,2.94098,10.8221,-0.00265958,-0.00424223,-0.00148648,-0.00176691,-0.0051349,-0.540804,0.00301229,0.0406224,874,1646,2.94096,-10.8221
-343,-622,2.75659,11.0347,-0.0017386,-0.00410174,-0.000791493,-0.001498,-0.00434234,-0.295107,0.0025469,0.0264326,881,1646,2.75657,-11.0347
-336,-622,2.85699,11.166,-0.00090365,-0.00391923,-0.000354704,-0.00086249,-0.00396039,-0.115523,0.00240488,0.00892491,888,1646,2.85702,-11.166
-329,-622,2.84991,11.3903,-0.000160957,-0.00356005,-0.000162672,-0.00015319,-0.00356781,-0.0477122,0.00232916,0.00767174,895,1646,2.84992,-11.3902
-322,-622,2.8457,11.6135,0.000265064,-0.00308668,-0.000122578,0.000269541,-0.00309115,-0.0365063,0.00215624,0.00979909,902,1646,2.84569,-11.6135
-315,-622,2.83698,11.8044,0.000404466,-0.00263905,-8.78101e-05,0.000406998,-0.00264158,-0.0288196,0.00191122,0.0133163,909,1646,2.837,-11.8044
-308,-622,2.85638,12.0034,0.000555555,-0.00231265,-0.000192836,0.000568462,-0.00232556,-0.0668315,0.00177054,0.0130527,916,1646,2.85639,-12.0034
-301,-622,2.85809,12.1909,0.000706238,-0.0020417,-0.000382812,0.000758571,-0.00209403,-0.135863,0.00170605,0.0131815,923,1646,2.85811,-12.1909
-294,-622,2.84686,12.3845,0.00089166,-0.0019493,-0.000601835,0.00101389,-0.00207153,-0.200378,0.00181592,0.0107274,930,1646,2.84685,-12.3846
-287,-622,2.84436,12.5776,0.000932171,-0.0019682,-0.000851995,0.00116393,-0.00219996,-0.265592,0.0019726,0.00786795,937,1646,2.84433,-12.5776
-280,-622,2.8432,12.77,0.000903243,-0.00211044,-0.00115104,0.00129258,-0.00249977,-0.326163,0.00222618,0.00819427,944,1646,2.84317,-12.77
-273,-622,2.86108,12.9504,0.00100545,-0.0024505,-0.00142848,0.00151945,-0.0029645,-0.345399,0.00263324,0.0121563,951,1646,2.8611,-12.9505
-266,-622,2.84808,13.1422,0.00114456,-0.00304798,-0.00164268,0.00171151,-0.00361493,-0.332336,0.00313999,0.0115302,958,1646,2.84809,-13.1422
-259,-622,2.84595,13.3243,0.00127583,-0.00384484,-0.00178498,0.00183663,-0.00440564,-0.304411,0.00370431,0.012049,965,1646,2.84594,-13.3244
-252,-622,2.86108,13.4858,0.00144515,-0.00472724,-0.00192823,0.001998,-0.0052801,-0.279225,0.0043421,0.0133525,972,1646,2.86109,-13.4858
-245,-622,2.88373,13.6654,0.00140989,-0.00725376,-0.000626581,0.00145497,-0.00729884,-0.0718248,0.00541642,0.00952408,979,1646,2.88375,-13.6654
-238,-622,2.88519,13.8434,0.000977701,-0.0109591,0.00138916,0.00113724,-0.0111187,0.114341,0.00781913,0.00997221,986,1646,2.88521,-13.8434
-231,-622,2.91016,14.0082,0.000190313,-0.0145458,0.00307992,0.000808131,-0.0151636,0.197967,0.0103889,0.0146174,993,1646,2.91016,-14.0082
-224,-622,3.00983,14.1217,-0.000492179,-0.0186039,0.00546969,0.00103147,-0.0201276,0.271675,0.0137751,0.0244099,1000,1646,3.00982,-14.1217
-217,-622,3.09833,14.1554,-0.00138786,-0.0232666,0.00846437,0.00150445,-0.0261589,0.329265,0.0179618,0.0359613,1007,1646,3.09835,-14.1554
-210,-622,3.07483,14.3068,-0.00249769,-0.0283514,0.0120061,0.00221774,-0.0330669,0.374243,0.0228198,0.0492077,1014,1646,3.07483,-14.3067
-203,-622,3.203,14.3809,0,0,0,0,0,0,0,-1,1021,1646,3.20306,-14.3808
-196,-622,3.83801,13.7382,-0.00524864,-0.0391955,0.0193002,0.00348001,-0.0479241,0.424728,0.0331703,0.0477602,1028,1646,3.83796,-13.7382
-189,-622,3.92371,14.0771,-0.00662202,-0.0436065,0.0227609,0.0042119,-0.0544404,0.444254,0.0377759,0.0495223,1035,1646,3.92369,-14.0771
-182,-622,3.32336,14.4012,0,0,0,0,0,0,0,-1,1042,1646,3.32331,-14.4012
-175,-622,2.56091,11.0195,0,0,0,0,0,0,0,-1,1049,1646,2.56095,-11.0195
-168,-622,4.76489,10.7617,0,0,0,0,0,0,0,-1,1056,1646,4.76491,-10.7617
-161,-622,1.81116,14.7632,0,0,0,0,0,0,0,-1,1063,1646,1.81115,-14.7632
-154,-622,1.3241,13.7522,0,0,0,0,0,0,0,-1,1070,1646,1.32404,-13.7522
-147,-622,1.51526,12.8514,0,0,0,0,0,0,0,-1,1077,1646,1.51522,-12.8515
-140,-622,3.15784,10.7809,0,0,0,0,0,0,0,-1,1084,1646,3.15778,-10.7809
-133,-622,3.40173,10.0699,0,0,0,0,0,0,0,-1,1091,1646,3.40173,-10.0699
-126,-622,4.83423,11.7699,0,0,0,0,0,0,0,-1,1098,1646,4.83428,-11.7699
-119,-622,4.06384,13.1715,0,0,0,0,0,0,0,-1,1105,1646,4.06379,-13.1716
-112,-622,4.33276,14.6605,0,0,0,0,0,0,0,-1,1112,1646,4.33281,-14.6605
-105,-622,0.306519,4.38159,0,0,0,0,0,0,0,-1,1119,1646,0.306536,-4.38159
-98,-622,-0.510376,3.5033,0,0,0,0,0,0,0,-1,1126,1646,-0.510393,-3.50324
-91,-622,-1.146,0.975952,0,0,0,0,0,0,0,-1,1133,1646,-1.14599,-0.97597
-84,-622,-2.04895,1.31787,0,0,0,0,0,0,0,-1,1140,1646,-2.0489,-1.31781
-77,-622,-1.80627,0.332275,0,0,0,0,0,0,0,-1,1147,1646,-1.80622,-0.33223
-70,-622,-3.65588,2.28149,0,0,0,0,0,0,0,-1,1154,1646,-3.65589,-2.28155
-63,-622,-2.49683,1.27087,0,0,0,0,0,0,0,-1,1161,1646,-2.49679,-1.27093
-56,-622,-2.44238,-0.575562,0,0,0,0,0,0,0,-1,1168,1646,-2.44242,0.575508
-49,-622,-2.41089,1.38818,0,0,0,0,0,0,0,-1,1175,1646,-2.41088,-1.38815
-42,-622,-2.71497,2.85242,0,0,0,0,0,0,0,-1,1182,1646,-2.71491,-2.85247
-35,-622,-3.0177,4.25842,0,0,0,0,0,0,0,-1,1189,1646,-3.01773,-4.25838
-28,-622,-0.896606,0.678833,0,0,0,0,0,0,0,-1,1196,1646,-0.89661,-0.678835
-21,-622,6.63062,12.6195,0,0,0,0,0,0,0,-1,1203,1646,6.63065,-12.6195
-14,-622,11.2815,16.8484,0,0,0,0,0,0,0,-1,1210,1646,11.2815,-16.8484
-7,-622,3.27808,21.5393,0,0,0,0,0,0,0,-1,1217,1646,3.27808,-21.5393
0,-622,0,0,0,0,0,0,0,0,0,-1,1224,1646,0,0
7,-622,0,0,0,0,0,0,0,0,0,-1,1231,1646,0,0
14,-622,0,0,0,0,0,0,0,0,0,-1,1238,1646,0,0
21,-622,0,0,0,0,0,0,0,0,0,-1,1245,1646,0,0
28,-622,0,0,0,0,0,0,0,0,0,-1,1252,1646,0,0
35,-622,0,0,0,0,0,0,0,0,0,-1,1259,1646,0,0
42,-622,0,0,0,0,0,0,0,0,0,-1,1266,1646,0,0
49,-622,0,0,0,0,0,0,0,0,0,-1,1273,1646,0,0
56,-622,0,0,0,0,0,0,0,0,0,-1,1280,1646,0,0
63,-622,0,0,0,0,0,0,0,0,0,-1,1287,1646,0,0
70,-622,0,0,0,0,0,0,0,0,0,-1,1294,1646,0,0
77,-622,0,0,0,0,0,0,0,0,0,-1,1301,1646,0,0
84,-622,0,0,0,0,0,0,0,0,0,-1,1308,1646,0,0
91,-622,0,0,0,0,0,0,0,0,0,-1,1315,1646,0,0
98,-622,0,0,0,0,0,0,0,0,0,-1,1322,1646,0,0
105,-622,0,0,0,0,0,0,0,0,0,-1,1329,1646,0,0
112,-622,0,0,0,0,0,0,0,0,0,-1,1336,1646,0,0
119,-622,0,0,0,0,0,0,0,0,0,-1,1343,1646,0,0
126,-622,4.38196,17.0137,0,0,0,0,0,0,0,-1,1350,1646,4.38191,-17.0136
133,-622,4.18494,16.8749,0,0,0,0,0,0,0,-1,1357,1646,4.18491,-16.8748
140,-622,12.8459,1.9198,0,0,0,0,0,0,0,-1,1364,1646,12.846,-1.91975
147,-622,13.3405,1.70886,0,0,0,0,0,0,0,-1,1371,1646,13.3405,-1.7088
154,-622,17.1903,-3.24805,0,0,0,0,0,0,0,-1,1378,1646,17.1903,3.24802
161,-622,10.6884,6.46448,0,0,0,0,0,0,0,-1,1385,1646,10.6883,-6.46442
168,-622,12.2402,5.18091,0,0,0,0,0,0,0,-1,1392,1646,12.2403,-5.1809
175,-622,5.64355,-1.77075,0,0,0,0,0,0,0,-1,1399,1646,5.64351,1.77077
182,-622,5.88586,-1.32251,0,0,0,0,0,0,0,-1,1406,1646,5.88587,1.32256
189,-622,5.97986,-1.18005,0,0,0,0,0,0,0,-1,1413,1646,5.97986,1.18003
196,-622,5.85022,-0.244507,0,0,0,0,0,0,0,-1,1420,1646,5.85026,0.244478
203,-622,5.25159,0.138794,0,0,0,0,0,0,0,-1,1427,1646,5.25162,-0.138822
210,-622,6.66833,0.0397949,0,0,0,0,0,0,0,-1,1434,1646,6.6684,-0.0398278
217,-622,6.12061,0.0506592,0,0,0,0,0,0,0,-1,1441,1646,6.12058,-0.0507181
224,-622,5.57275,0.0616455,0,0,0,0,0,0,0,-1,1448,1646,5.57276,-0.0616084
231,-622,5.31348,1.3949,0,0,0,0,0,0,0,-1,1455,1646,5.31342,-1.39495
238,-622,3.76477,2.90686,0,0,0,0,0,0,0,-1,1462,1646,3.7648,-2.90686
245,-622,5.13794,2.67993,0,0,0,0,0,0,0,-1,1469,1646,5.13796,-2.67992
252,-622,6.66528,2.53992,0,0,0,0,0,0,0,-1,1476,1646,6.66522,-2.53991
259,-622,8.93787,3.31458,0,0,0,0,0,0,0,-1,1483,1646,8.93791,-3.31454
266,-622,5.72644,3.11926,0,0,0,0,0,0,0,-1,1490,1646,5.72647,-3.1192
273,-622,7.28076,3.61218,0,0,0,0,0,0,0,-1,1497,1646,7.28071,-3.61212
280,-622,8.43127,4.4447,0,0,0,0,0,0,0,-1,1504,1646,8.43123,-4.44467
287,-622,8.60315,5.94617,0,0,0,0,0,0,0,-1,1511,1646,8.60319,-5.94622
294,-622,7.62756,11.5143,0,0,0,0,0,0,0,-1,1518,1646,7.62762,-11.5143
301,-622,7.36548,11.6569,0,0,0,0,0,0,0,-1,1525,1646,7.36549,-11.6569
308,-622,7.10339,11.7994,0,0,0,0,0,0,0,-1,1532,1646,7.10335,-11.7995
315,-622,5.92334,15.1876,0,0,0,0,0,0,0,-1,1539,1646,5.92336,-15.1877
322,-622,6.33984,15.3625,0.0341387,-0.000536003,0.00861826,0.0361626,-0.00255991,0.230659,0.0250054,0.0470719,1546,1646,6.3399,-15.3626
329,-622,6.84619,15.6149,0.0282377,0.000109742,0.0072986,0.0300188,-0.00167131,0.239349,0.0205922,0.044533,1553,1646,6.8462,-15.6149
336,-622,6.74438,15.2808,0,0,0,0,0,0,0,-1,1560,1646,6.7444,-15.2808
343,-622,6.46936,15.6437,0,0,0,0,0,0,0,-1,1567,1646,6.46939,-15.6437
350,-622,6.51208,15.3086,0.0125073,-0.00168173,0.00488955,0.014029,-0.00320347,0.301721,0.0105834,0.0498587,1574,1646,6.51206,-15.3086
357,-622,6.7804,14.848,0.00883069,-0.00232358,0.00458248,0.0104718,-0.00396472,0.343903,0.00861255,0.0409162,1581,1646,6.78044,-14.848
364,-622,6.79688,14.6611,0.00581492,-0.00269063,0.00443594,0.00770736,-0.00458307,0.403237,0.0071719,0.0337342,1588,1646,6.79692,-14.6611
371,-622,6.76282,14.5762,0.00356048,-0.0028651,0.00444978,0.00583609,-0.00514071,0.472725,0.0063417,0.0202773,1595,1646,6.76282,-14.5762
378,-622,6.73376,14.4756,0.001218,-0.00290289,0.00431307,0.00393751,-0.00562241,0.562565,0.00554792,0.0106253,1602,1646,6.73376,-14.4756
385,-622,6.7345,14.3441,-0.000151888,-0.00338846,0.00397882,0.00252516,-0.0060655,0.592253,0.00509828,0.00951668,1609,1646,6.73445,-14.3441
392,-622,6.75159,14.1995,-0.000427936,-0.00316158,0.00383205,0.00227376,-0.00586327,0.614091,0.00484789,0.0114082,1616,1646,6.75163,-14.1994
399,-622,6.75867,14.0365,-0.00055862,-0.00254866,0.00352781,0.0021118,-0.00521909,0.647943,0.00435738,0.0116846,1623,1646,6.75872,-14.0365
406,-622,6.74951,13.8479,-0.000786042,-0.00217841,0.00331917,0.00190917,-0.00487362,0.682023,0.00403879,0.0141384,1630,1646,6.74952,-13.8479
413,-622,6.75525,13.677,-0.000741117,-0.00153063,0.00282562,0.00171719,-0.00398893,0.715994,0.00338034,0.0154709,1637,1646,6.75526,-13.677
420,-622,6.75879,13.5282,-0.000485141,-0.000964701,0.00224665,0.00153449,-0.00298433,0.732236,0.00265332,0.0151273,1644,1646,6.75878,-13.5282
427,-622,6.76709,13.3429,-0.000227779,-0.000713075,0.00174296,0.00128934,-0.00223019,0.716235,0.00205606,0.0113815,1651,1646,6.76711,-13.3428
434,-622,6.78735,13.1665,1.37636e-05,-0.000497055,0.00120995,0.000994966,-0.00147826,0.68138,0.00143698,0.0124441,1658,1646,6.78737,-13.1666
441,-622,6.80359,12.9854,0.000631438,-8.97065e-05,0.00117949,0.00150424,-0.000962512,0.637059,0.00143558,0.0136577,1665,1646,6.80361,-12.9854
448,-622,6.77808,12.818,0.00132025,0.000397104,0.00159628,0.00252035,-0.000802996,0.644659,0.00200231,0.0120294,1672,1646,6.77806,-12.8179
455,-622,6.74426,12.6129,0.0020982,0.000621912,0.00193484,0.00343091,-0.000710803,0.603169,0.00255735,0.0140766,1679,1646,6.74422,-12.6129
462,-622,6.77856,12.4725,0.00309649,0.00100978,0.00250096,0.004763,-0.000656731,0.587783,0.00341536,0.0163644,1686,1646,6.77855,-12.4725
469,-622,6.76245,12.2854,0.00431828,0.00189059,0.00318464,0.00651256,-0.000303689,0.60332,0.0044464,0.0173131,1693,1646,6.76241,-12.2854
476,-622,6.76868,12.0573,0.00568492,0.00301389,0.00433622,0.00888663,-0.000187816,0.636012,0.00598801,0.0167474,1700,1646,6.76869,-12.0573
483,-622,6.74731,11.8367,0.00720635,0.00430791,0.00572279,0.0116606,-0.000146308,0.661387,0.00782294,0.0234916,1707,1646,6.74733,-11.8367
490,-622,6.71985,11.6034,0.00901175,0.00574581,0.00719841,0.0147601,-2.52435e-06,0.67386,0.0098409,0.0315778,1714,1646,6.71988,-11.6034
497,-622,6.64111,11.4152,0.0109958,0.00738458,0.00871296,0.0180883,0.000292125,0.683227,0.0119627,0.0408287,1721,1646,6.64115,-11.4152
504,-622,6.75464,11.3903,0,0,0,0,0,0,0,-1,1728,1646,6.75465,-11.3903
511,-622,5.29004,4.14587,0,0,0,0,0,0,0,-1,1735,1646,5.29008,-4.14589
518,-622,5.6001,1.55359,0,0,0,0,0,0,0,-1,1742,1646,5.60015,-1.5536
525,-622,5.68213,1.32361,0,0,0,0,0,0,0,-1,1749,1646,5.68209,-1.32361
532,-622,5.44202,0.57373,0,0,0,0,0,0,0,-1,1756,1646,5.44196,-0.573705
539,-622,9.32129,1.06116,0,0,0,0,0,0,0,-1,1763,1646,9.32131,-1.0612
546,-622,6.50977,-3.45618,0,0,0,0,0,0,0,-1,1770,1646,6.50981,3.4562
553,-622,0,0,0,0,0,0,0,0,0,-1,1777,1646,0,0
560,-622,0,0,0,0,0,0,0,0,0,-1,1784,1646,0,0
567,-622,0,0,0,0,0,0,0,0,0,-1,1791,1646,0,0
574,-622,0,0,0,0,0,0,0,0,0,-1,1798,1646,0,0
581,-622,0,0,0,0,0,0,0,0,0,-1,1805,1646,0,0
588,-622,0,0,0,0,0,0,0,0,0,-1,1812,1646,0,0
595,-622,0,0,0,0,0,0,0,0,0,-1,1819,1646,0,0
602,-622,0,0,0,0,0,0,0,0,0,-1,1826,1646,0,0
609,-622,0,0,0,0,0,0,0,0,0,-1,1833,1646,0,0
616,-622,0,0,0,0,0,0,0,0,0,-1,1840,1646,0,0
623,-622,0,0,0,0,0,0,0,0,0,-1,1847,1646,0,0
630,-622,0,0,0,0,0,0,0,0,0,-1,1854,1646,0,0
637,-622,0,0,0,0,0,0,0,0,0,-1,1861,1646,0,0
644,-622,0,0,0,0,0,0,0,0,0,-1,1868,1646,0,0
651,-622,0,0,0,0,0,0,0,0,0,-1,1875,1646,0,0
658,-622,0,0,0,0,0,0,0,0,0,-1,1882,1646,0,0
665,-622,0,0,0,0,0,0,0,0,0,-1,1889,1646,0,0
672,-622,0,0,0,0,0,0,0,0,0,-1,1896,1646,0,0
679,-622,0,0,0,0,0,0,0,0,0,-1,1903,1646,0,0
686,-622,0,0,0,0,0,0,0,0,0,-1,1910,1646,0,0
693,-622,0,0,0,0,0,0,0,0,0,-1,1917,1646,0,0
700,-622,0,0,0,0,0,0,0,0,0,-1,1924,1646,0,0
707,-622,0,0,0,0,0,0,0,0,0,-1,1931,1646,0,0
714,-622,0,0,0,0,0,0,0,0,0,-1,1938,1646,0,0
721,-622,0,0,0,0,0,0,0,0,0,-1,1945,1646,0,0
728,-622,0,0,0,0,0,0,0,0,0,-1,1952,1646,0,0
735,-622,0,0,0,0,0,0,0,0,0,-1,1959,1646,0,0
742,-622,0,0,0,0,0,0,0,0,0,-1,1966,1646,0,0
749,-622,0,0,0,0,0,0,0,0,0,-1,1973,1646,0,0
756,-622,0,0,0,0,0,0,0,0,0,-1,1980,1646,0,0
763,-622,0,0,0,0,0,0,0,0,0,-1,1987,1646,0,0
770,-622,0,0,0,0,0,0,0,0,0,-1,1994,1646,0,0
777,-622,0,0,0,0,0,0,0,0,0,-1,2001,1646,0,0
784,-622,0,0,0,0,0,0,0,0,0,-1,2008,1646,0,0
791,-622,0,0,0,0,0,0,0,0,0,-1,2015,1646,0,0
798,-622,0,0,0,0,0,0,0,0,0,-1,2022,1646,0,0
805,-622,0,0,0,0,0,0,0,0,0,-1,2029,1646,0,0
812,-622,0,0,0,0,0,0,0,0,0,-1,2036,1646,0,0
-700,-629,0,0,0,0,0,0,0,0,0,-1,524,1653,0,0
-693,-629,0,0,0,0,0,0,0,0,0,-1,531,1653,0,0
-686,-629,0,0,0,0,0,0,0,0,0,-1,538,1653,0,0
-679,-629,0,0,0,0,0,0,0,0,0,-1,545,1653,0,0
-672,-629,0,0,0,0,0,0,0,0,0,-1,552,1653,0,0
-665,-629,0,0,0,0,0,0,0,0,0,-1,559,1653,0,0
-658,-629,0,0,0,0,0,0,0,0,0,-1,566,1653,0,0
-651,-629,0,0,0,0,0,0,0,0,0,-1,573,1653,0,0
-644,-629,0,0,0,0,0,0,0,0,0,-1,580,1653,0,0
-637,-629,0,0,0,0,0,0,0,0,0,-1,587,1653,0,0
-630,-629,0,0,0,0,0,0,0,0,0,-1,594,1653,0,0
-623,-629,0,0,0,0,0,0,0,0,0,-1,601,1653,0,0
-616,-629,0,0,0,0,0,0,0,0,0,-1,608,1653,0,0
-609,-629,0,0,0,0,0,0,0,0,0,-1,615,1653,0,0
-602,-629,0,0,0,0,0,0,0,0,0,-1,622,1653,0,0
-595,-629,0,0,0,0,0,0,0,0,0,-1,629,1653,0,0
-588,-629,0,0,0,0,0,0,0,0,0,-1,636,1653,0,0
-581,-629,0,0,0,0,0,0,0,0,0,-1,643,1653,0,0
-574,-629,0,0,0,0,0,0,0,0,0,-1,650,1653,0,0
-567,-629,0,0,0,0,0,0,0,0,0,-1,657,1653,0,0
-560,-629,0,0,0,0,0,0,0,0,0,-1,664,1653,0,0
-553,-629,0,0,0,0,0,0,0,0,0,-1,671,1653,0,0
-546,-629,0,0,0,0,0,0,0,0,0,-1,678,1653,0,0
-539,-629,0,0,0,0,0,0,0,0,0,-1,685,1653,0,0
-532,-629,0,0,0,0,0,0,0,0,0,-1,692,1653,0,0
-525,-629,0,0,0,0,0,0,0,0,0,-1,699,1653,0,0
-518,-629,0,0,0,0,0,0,0,0,0,-1,706,1653,0,0
-511,-629,0,0,0,0,0,0,0,0,0,-1,713,1653,0,0
-504,-629,0,0,0,0,0,0,0,0,0,-1,720,1653,0,0
-497,-629,0,0,0,0,0,0,0,0,0,-1,727,1653,0,0
-490,-629,0,0,0,0,0,0,0,0,0,-1,734,1653,0,0
-483,-629,0,0,0,0,0,0,0,0,0,-1,741,1653,0,0
-476,-629,0,0,0,0,0,0,0,0,0,-1,748,1653,0,0
-469,-629,0,0,0,0,0,0,0,0,0,-1,755,1653,0,0
-462,-629,0,0,0,0,0,0,0,0,0,-1,762,1653,0,0
-455,-629,0,0,0,0,0,0,0,0,0,-1,769,1653,0,0
-448,-629,0,0,0,0,0,0,0,0,0,-1,776,1653,0,0
-441,-629,0,0,0,0,0,0,0,0,0,-1,783,1653,0,0
-434,-629,0,0,0,0,0,0,0,0,0,-1,790,1653,0,0
-427,-629,0,0,0,0,0,0,0,0,0,-1,797,1653,0,0
-420,-629,-3.87103,3.37634,0,0,0,0,0,0,0,-1,804,1653,-3.87101,-3.37633
-413,-629,-5.69751,1.33582,0,0,0,0,0,0,0,-1,811,1653,-5.69754,-1.3358
-406,-629,2.85406,6.01501,0,0,0,0,0,0,0,-1,818,1653,2.85405,-6.01507
-399,-629,3.37085,6.61816,0,0,0,0,0,0,0,-1,825,1653,3.37087,-6.61822
-392,-629,3.80743,7.15393,0,0,0,0,0,0,0,-1,832,1653,3.80741,-7.15391
-385,-629,4.31525,7.66785,0,0,0,0,0,0,0,-1,839,1653,4.31525,-7.6679
-378,-629,4.29962,8.28577,0,0,0,0,0,0,0,-1,846,1653,4.29962,-8.28577
-371,-629,3.28503,9.20544,0,0,0,0,0,0,0,-1,853,1653,3.28502,-9.2054
-364,-629,2.87762,9.81152,0,0,0,0,0,0,0,-1,860,1653,2.87763,-9.81147
-357,-629,3.09845,10.5728,0,0,0,0,0,0,0,-1,867,1653,3.09847,-10.5727
-350,-629,3.29242,10.8279,-0.00310147,-0.00623195,-0.0018606,-0.00223529,-0.00709813,-0.4357,0.00419065,0.048167,874,1653,3.29241,-10.8279
-343,-629,3.08063,11.0935,-0.00207526,-0.00593721,-0.00102691,-0.00181918,-0.00619329,-0.244385,0.00367572,0.0413617,881,1653,3.08063,-11.0935
-336,-629,3.02179,11.2043,-0.00121243,-0.0054674,-0.000550298,-0.00114241,-0.00553742,-0.126557,0.00337587,0.0185478,888,1653,3.02181,-11.2044
-329,-629,3.0589,11.405,-0.000491398,-0.00488917,-0.000318754,-0.000468415,-0.00491216,-0.0719793,0.00313034,0.0110734,895,1653,3.0589,-11.405
-322,-629,3.0564,11.6128,-0.000137449,-0.0042144,-0.000119126,-0.000133971,-0.00421788,-0.0291861,0.00276835,0.0119831,902,1653,3.05642,-11.6128
-315,-629,3.02917,11.802,-1.71835e-05,-0.00355025,8.59038e-05,-1.50962e-05,-0.00355234,0.0242951,0.00236321,0.0152555,909,1653,3.02919,-11.802
-308,-629,3.03973,11.9963,0.000137113,-0.00301329,9.04861e-05,0.00013971,-0.00301589,0.0286906,0.00205874,0.011412,916,1653,3.03973,-11.9963
-301,-629,3.06067,12.2042,0.00028106,-0.00254559,2.86487e-06,0.000281063,-0.00254559,0.00101352,0.00179808,0.010595,923,1653,3.0607,-12.2042
-294,-629,3.04736,12.3956,0.000491812,-0.00223557,-0.000102454,0.000495656,-0.00223941,-0.0374944,0.00168267,0.0115283,930,1653,3.04735,-12.3957
-287,-629,3.02667,12.5881,0.000550362,-0.00204358,-0.000253922,0.000574985,-0.0020682,-0.0966678,0.00160516,0.00917369,937,1653,3.02669,-12.5882
-280,-629,3.02063,12.7822,0.000520259,-0.00197594,-0.000474702,0.000607485,-0.00206316,-0.181722,0.00161645,0.00958895,944,1653,3.02062,-12.7823
-273,-629,3.03198,12.9333,0.000636516,-0.00210744,-0.000688713,0.000799677,-0.0022706,-0.232618,0.00183918,0.0130844,951,1653,3.03195,-12.9333
-266,-629,3.02344,13.1202,0.000808891,-0.00244869,-0.000860391,0.00102217,-0.00266197,-0.242991,0.00219615,0.0133235,958,1653,3.02343,-13.1202
-259,-629,3.01685,13.3184,0.00100327,-0.00294011,-0.000989452,0.00123761,-0.00317445,-0.232555,0.00262785,0.0141995,965,1653,3.01684,-13.3184
-252,-629,3.03912,13.5027,0.0012048,-0.00349562,-0.00115234,0.0014721,-0.00376292,-0.227934,0.00311741,0.0117487,972,1653,3.0391,-13.5027
-245,-629,3.07343,13.6937,0.00122627,-0.0053474,-0.000224712,0.00123394,-0.00535507,-0.0341306,0.0040446,0.00875303,979,1653,3.0734,-13.6937
-238,-629,3.06818,13.8556,0.000920541,-0.0080791,0.0012291,0.00108538,-0.00824394,0.13332,0.00589118,0.0101867,986,1653,3.0682,-13.8556
-231,-629,3.05029,14.0088,0.000337319,-0.0107069,0.00238277,0.000829467,-0.0111991,0.20368,0.00775733,0.010502,993,1653,3.05029,-14.0088
-224,-629,3.10193,14.1876,-0.000163638,-0.0137017,0.00407153,0.000966514,-0.0148319,0.270758,0.0102253,0.0103403,1000,1653,3.10192,-14.1877
-217,-629,3.10071,14.3405,-0.000872213,-0.0171476,0.0062183,0.00123164,-0.0192514,0.326243,0.0132639,0.0157163,1007,1653,3.10072,-14.3405
-210,-629,3.07184,14.4625,-0.00166874,-0.0208852,0.00872724,0.00170313,-0.024257,0.368694,0.0167679,0.0321658,1014,1653,3.07182,-14.4625
-203,-629,3.52612,14.0853,0,0,0,0,0,0,0,-1,1021,1653,3.52608,-14.0853
-196,-629,3.52319,14.2611,-0.00357463,-0.0287098,0.0137257,0.00246796,-0.0347524,0.414708,0.0240332,0.042839,1028,1653,3.52316,-14.2611
-189,-629,3.47949,14.4565,-0.00457239,-0.031698,0.0160727,0.00289532,-0.0391657,0.434945,0.0271271,0.0419034,1035,1653,3.47947,-14.4565
-182,-629,3.12268,14.5746,-0.00533481,-0.0330294,0.0178359,0.0033981,-0.0417623,0.455315,0.0290406,0.0492157,1042,1653,3.12264,-14.5746
-175,-629,2.80432,14.5713,0,0,0,0,0,0,0,-1,1049,1653,2.80431,-14.5713
-168,-629,2.4762,16.0846,0,0,0,0,0,0,0,-1,1056,1653,2.4762,-16.0846
-161,-629,3.83118,15.3682,0,0,0,0,0,0,0,-1,1063,1653,3.83116,-15.3681
-154,-629,2.0813,13.5175,0,0,0,0,0,0,0,-1,1070,1653,2.08132,-13.5174
-147,-629,1.86353,12.248,0,0,0,0,0,0,0,-1,1077,1653,1.86353,-12.248
-140,-629,3.36853,13.7708,0,0,0,0,0,0,0,-1,1084,1653,3.36847,-13.7707
-133,-629,3.68933,15.5042,0,0,0,0,0,0,0,-1,1091,1653,3.68937,-15.5042
-126,-629,2.69519,10.2487,0,0,0,0,0,0,0,-1,1098,1653,2.69515,-10.2486
-119,-629,4.94177,13.5525,0,0,0,0,0,0,0,-1,1105,1653,4.94172,-13.5525
-112,-629,5.63123,15.9187,0,0,0,0,0,0,0,-1,1112,1653,5.63118,-15.9187
-105,-629,2.15881,4.38342,0,0,0,0,0,0,0,-1,1119,1653,2.15878,-4.38347
-98,-629,0.825806,4.19385,0,0,0,0,0,0,0,-1,1126,1653,0.825779,-4.1939
-91,-629,-0.452271,3.64465,0,0,0,0,0,0,0,-1,1133,1653,-0.452278,-3.6446
-84,-629,-2.6084,0.466797,0,0,0,0,0,0,0,-1,1140,1653,-2.6084,-0.466786
-77,-629,-3.50903,2.10706,0,0,0,0,0,0,0,-1,1147,1653,-3.509,-2.10707
-70,-629,-1.20886,2.52502,0,0,0,0,0,0,0,-1,1154,1653,-1.20886,-2.525
-63,-629,-0.960693,4.30212,0,0,0,0,0,0,0,-1,1161,1653,-0.960691,-4.30215
-56,-629,-1.31934,5.64343,0,0,0,0,0,0,0,-1,1168,1653,-1.31928,-5.6434
-49,-629,-2.15662,2.57458,0,0,0,0,0,0,0,-1,1175,1653,-2.15656,-2.57459
-42,-629,-2.46326,3.91467,0,0,0,0,0,0,0,-1,1182,1653,-2.4633,-3.91466
-35,-629,-2.67261,5.24292,0,0,0,0,0,0,0,-1,1189,1653,-2.67257,-5.24298
-28,-629,-0.402954,-0.866577,0,0,0,0,0,0,0,-1,1196,1653,-0.402943,0.866612
-21,-629,10.063,9.59705,0,0,0,0,0,0,0,-1,1203,1653,10.063,-9.59708
-14,-629,3.80591,22.7656,0,0,0,0,0,0,0,-1,1210,1653,3.80596,-22.7657
-7,-629,3.74707,22.1599,0,0,0,0,0,0,0,-1,1217,1653,3.74701,-22.16
0,-629,3.43176,22.7882,0,0,0,0,0,0,0,-1,1224,1653,3.43182,-22.7882
7,-629,3.92651,22.1239,0,0,0,0,0,0,0,-1,1231,1653,3.92647,-22.1239
14,-629,8.56616,22.6483,0,0,0,0,0,0,0,-1,1238,1653,8.56618,-22.6483
21,-629,7.89832,21.8461,0,0,0,0,0,0,0,-1,1245,1653,7.89831,-21.846
28,-629,7.23047,21.0438,0,0,0,0,0,0,0,-1,1252,1653,7.23045,-21.0438
35,-629,9.09534,20.0671,0,0,0,0,0,0,0,-1,1259,1653,9.0953,-20.0671
42,-629,8.53845,19.5637,0,0,0,0,0,0,0,-1,1266,1653,8.53841,-19.5637
49,-629,8.18005,18.7335,0,0,0,0,0,0,0,-1,1273,1653,8.18002,-18.7335
56,-629,13.309,17.4542,0,0,0,0,0,0,0,-1,1280,1653,13.309,-17.4542
63,-629,12.0732,16.6667,-0.0499354,0.100544,0.0830883,0.137397,-0.086788,1.15333,0.130528,0.0457432,1287,1653,12.0733,-16.6667
70,-629,10.7025,16.4596,-0.0631711,0.0740643,0.0656889,0.100438,-0.089545,1.189,0.109747,0.0461566,1294,1653,10.7025,-16.4596
77,-629,9.6626,16.1804,-0.0760807,0.0501243,0.0527917,0.0692951,-0.0952514,1.22246,0.0953942,0.045786,1301,1653,9.66265,-16.1805
84,-629,8.20642,15.7533,-0.0858566,0.0368613,0.0440237,0.0510206,-0.100016,1.25962,0.0887172,0.0440192,1308,1653,8.20647,-15.7533
91,-629,6.92444,15.4325,-0.0933678,0.0340092,0.0336878,0.0423699,-0.101729,1.32753,0.0855158,0.0457217,1315,1653,6.92443,-15.4325
98,-629,5.55762,15.6371,0,0,0,0,0,0,0,-1,1322,1653,5.55756,-15.6371
105,-629,4.55444,16.205,-0.0919032,0.0414685,0.0133487,0.0427914,-0.0932261,1.47202,0.0803091,0.0481527,1329,1653,4.55449,-16.205
112,-629,4.26062,16.218,0,0,0,0,0,0,0,-1,1336,1653,4.26058,-16.218
119,-629,4.32556,15.9309,-0.0482124,0.0963774,0.0119866,0.0973644,-0.0491994,1.48864,0.0861282,0.0439246,1343,1653,4.32562,-15.9309
126,-629,4.25793,15.7654,-0.0264985,0.125259,0.0120355,0.126208,-0.0274471,1.49214,0.0946237,0.0434001,1350,1653,4.25788,-15.7653
133,-629,4.06055,15.5481,-0.00826527,0.151054,0.0112726,0.151848,-0.00905891,1.50051,0.104383,0.0488339,1357,1653,4.06052,-15.5481
140,-629,3.83252,15.317,0,0,0,0,0,0,0,-1,1364,1653,3.83251,-15.317
147,-629,4.29883,14.8944,0,0,0,0,0,0,0,-1,1371,1653,4.29884,-14.8944
154,-629,18.5643,-3.15576,0,0,0,0,0,0,0,-1,1378,1653,18.5643,3.15579
161,-629,10.5461,6.83752,0,0,0,0,0,0,0,-1,1385,1653,10.5461,-6.83758
168,-629,12.0059,5.56348,0,0,0,0,0,0,0,-1,1392,1653,12.0059,-5.56352
175,-629,5.84485,-1.78845,0,0,0,0,0,0,0,-1,1399,1653,5.84479,1.7884
182,-629,5.99036,-1.27783,0,0,0,0,0,0,0,-1,1406,1653,5.99041,1.27778
189,-629,5.97668,-0.748535,0,0,0,0,0,0,0,-1,1413,1653,5.97671,0.748544
196,-629,4.52869,9.24695,0,0,0,0,0,0,0,-1,1420,1653,4.52869,-9.2469
203,-629,3.75085,6.88037,0,0,0,0,0,0,0,-1,1427,1653,3.75087,-6.88032
210,-629,3.5907,6.52637,0,0,0,0,0,0,0,-1,1434,1653,3.59067,-6.52642
217,-629,2.4585,4.84448,0,0,0,0,0,0,0,-1,1441,1653,2.45855,-4.84448
224,-629,1.31982,3.68481,0,0,0,0,0,0,0,-1,1448,1653,1.31986,-3.68487
231,-629,3.63025,1.73499,0,0,0,0,0,0,0,-1,1455,1653,3.6303,-1.735
238,-629,4.26428,2.11255,0,0,0,0,0,0,0,-1,1462,1653,4.26429,-2.11253
245,-629,5.61816,1.95361,0,0,0,0,0,0,0,-1,1469,1653,5.61815,-1.95359
252,-629,7.27136,2.18982,0,0,0,0,0,0,0,-1,1476,1653,7.27131,-2.18985
259,-629,8.67334,2.18628,0,0,0,0,0,0,0,-1,1483,1653,8.6733,-2.18633
266,-629,6.86475,3.72058,0,0,0,0,0,0,0,-1,1490,1653,6.86479,-3.72063
273,-629,7.9021,3.8717,0,0,0,0,0,0,0,-1,1497,1653,7.90205,-3.87171
280,-629,9.70837,4.39087,0,0,0,0,0,0,0,-1,1504,1653,9.7084,-4.39082
287,-629,9.82947,7.19348,0,0,0,0,0,0,0,-1,1511,1653,9.8295,-7.19347
294,-629,6.56555,11.6359,0,0,0,0,0,0,0,-1,1518,1653,6.5656,-11.6358
301,-629,6.72852,16.1338,0,0,0,0,0,0,0,-1,1525,1653,6.72849,-16.1337
308,-629,6.08264,12.1423,0,0,0,0,0,0,0,-1,1532,1653,6.08263,-12.1423
315,-629,5.87488,15.2986,0,0,0,0,0,0,0,-1,1539,1653,5.87487,-15.2985
322,-629,6.20129,15.4008,0.0245867,-0.00191549,0.00612928,0.0259356,-0.00326438,0.21662,0.0184749,0.045898,1546,1653,6.20133,-15.4008
329,-629,6.59265,15.475,0.0204858,-0.000975619,0.0052529,0.0217025,-0.00219234,0.227615,0.0152517,0.0403964,1553,1653,6.59263,-15.475
336,-629,6.61987,15.2933,0.0165682,-0.000488851,0.00446511,0.0176663,-0.00158701,0.241156,0.0123406,0.041447,1560,1653,6.61984,-15.2933
343,-629,6.60779,15.0988,0.0125456,-0.000848745,0.00403069,0.013665,-0.00196813,0.270889,0.0098319,0.0401241,1567,1653,6.60783,-15.0987
350,-629,6.58838,14.9919,0.00936098,-0.00117065,0.0035261,0.0104325,-0.0022422,0.295023,0.00781045,0.0243322,1574,1653,6.58838,-14.9919
357,-629,6.6062,14.8567,0.00681049,-0.00152622,0.00322481,0.00791229,-0.00262802,0.32923,0.00633525,0.0148447,1581,1653,6.60623,-14.8567
364,-629,6.60229,14.7426,0.0046337,-0.00180018,0.00307796,0.00586901,-0.00303549,0.381662,0.00522706,0.0132601,1588,1653,6.60228,-14.7426
371,-629,6.58948,14.6135,0.00297426,-0.00196376,0.00302959,0.0044135,-0.003403,0.443498,0.00452541,0.0110729,1595,1653,6.58949,-14.6135
378,-629,6.58276,14.4758,0.00118496,-0.00199332,0.00287843,0.00288379,-0.00369214,0.533177,0.00380617,0.0101989,1602,1653,6.58271,-14.4758
385,-629,6.60327,14.3478,0.000121941,-0.00223801,0.00255575,0.00175696,-0.00387303,0.56913,0.00332613,0.0120376,1609,1653,6.60327,-14.3478
392,-629,6.59583,14.2043,-8.49432e-05,-0.00188408,0.00236455,0.00154537,-0.00351439,0.603633,0.00299408,0.0112081,1616,1653,6.59583,-14.2044
399,-629,6.59473,14.0403,-0.00022686,-0.00130433,0.002085,0.00138788,-0.00291907,0.658971,0.00253846,0.0114094,1623,1653,6.59474,-14.0403
406,-629,6.59192,13.8433,-0.000446939,-0.000983275,0.00193409,0.00123749,-0.0026677,0.716511,0.00230451,0.013647,1630,1653,6.59196,-13.8433
413,-629,6.57922,13.6731,-0.000381323,-0.000422761,0.00153702,0.00113512,-0.0019392,0.778659,0.00179508,0.0223747,1637,1653,6.57926,-13.6731
420,-629,6.57397,13.5385,-0.000123282,7.61047e-05,0.00107574,0.00105676,-0.00110394,0.831603,0.00124758,0.0210218,1644,1653,6.57393,-13.5384
427,-629,6.60535,13.3677,0.000126846,0.000221606,0.000721615,0.000897394,-0.000548943,0.81818,0.000843082,0.012619,1651,1653,6.60529,-13.3677
434,-629,6.60034,13.1896,0.00037491,0.000332565,0.000344162,0.00069855,8.92524e-06,0.754677,0.000462753,0.010193,1658,1653,6.6003,-13.1896
441,-629,6.62524,13.0326,0.00121592,0.000708971,0.000660603,0.00167001,0.000254882,0.60221,0.00103885,0.0136475,1665,1653,6.62522,-13.0326
448,-629,6.61438,12.8308,0.00218711,0.00118714,0.00154723,0.00331314,6.11218e-05,0.62912,0.00218867,0.0129251,1672,1653,6.61435,-12.8309
455,-629,6.59839,12.6301,0.00330746,0.0013938,0.00233003,0.00486947,-0.00016822,0.590571,0.00330381,0.0131944,1679,1653,6.59842,-12.6302
462,-629,6.60999,12.4823,0.00477728,0.00185201,0.00345838,0.0070696,-0.000440317,0.585343,0.00486648,0.017011,1686,1653,6.60995,-12.4823
469,-629,6.58289,12.2629,0.00661981,0.00287123,0.00484954,0.00994466,-0.000453619,0.600996,0.00678603,0.0200865,1693,1653,6.58294,-12.2629
476,-629,6.59863,12.057,0.00879276,0.0043409,0.00679509,0.0137172,-0.000583556,0.627117,0.0093454,0.0259563,1700,1653,6.59862,-12.057
483,-629,6.62402,11.7312,0.0112605,0.00616909,0.00904753,0.0181137,-0.000684043,0.648258,0.0123101,0.0380002,1707,1653,6.62403,-11.7312
490,-629,6.51428,11.3729,0.0140582,0.00827497,0.0114729,0.0229983,-0.000665154,0.661951,0.0155586,0.0451819,1714,1653,6.51431,-11.3729
497,-629,6.21521,11.5653,0.017119,0.0108287,0.0140076,0.0283302,-0.000382512,0.674964,0.0190156,0.0453166,1721,1653,6.21524,-11.5653
504,-629,6.37402,11.9226,0,0,0,0,0,0,0,-1,1728,1653,6.37401,-11.9226
511,-629,6.29138,3.40295,0,0,0,0,0,0,0,-1,1735,1653,6.29137,-3.403
518,-629,5.84387,1.41858,0,0,0,0,0,0,0,-1,1742,1653,5.84391,-1.4186
525,-629,6.4729,1.02319,0,0,0,0,0,0,0,-1,1749,1653,6.47284,-1.02316
532,-629,6.86511,0.903687,0,0,0,0,0,0,0,-1,1756,1653,6.86514,-0.903691
539,-629,6.60803,0.746704,0,0,0,0,0,0,0,-1,1763,1653,6.60809,-0.746691
546,-629,0,0,0,0,0,0,0,0,0,-1,1770,1653,0,0
553,-629,0,0,0,0,0,0,0,0,0,-1,1777,1653,0,0
560,-629,0,0,0,0,0,0,0,0,0,-1,1784,1653,0,0
567,-629,0,0,0,0,0,0,0,0,0,-1,1791,1653,0,0
574,-629,0,0,0,0,0,0,0,0,0,-1,1798,1653,0,0
581,-629,0,0,0,0,0,0,0,0,0,-1,1805,1653,0,0
588,-629,0,0,0,0,0,0,0,0,0,-1,1812,1653,0,0
595,-629,0,0,0,0,0,0,0,0,0,-1,1819,1653,0,0
602,-629,0,0,0,0,0,0,0,0,0,-1,1826,1653,0,0
609,-629,0,0,0,0,0,0,0,0,0,-1,1833,1653,0,0
616,-629,0,0,0,0,0,0,0,0,0,-1,1840,1653,0,0
623,-629,0,0,0,0,0,0,0,0,0,-1,1847,1653,0,0
630,-629,0,0,0,0,0,0,0,0,0,-1,1854,1653,0,0
637,-629,0,0,0,0,0,0,0,0,0,-1,1861,1653,0,0
644,-629,0,0,0,0,0,0,0,0,0,-1,1868,1653,0,0
651,-629,0,0,0,0,0,0,0,0,0,-1,1875,1653,0,0
658,-629,0,0,0,0,0,0,0,0,0,-1,1882,1653,0,0
665,-629,0,0,0,0,0,0,0,0,0,-1,1889,1653,0,0
672,-629,0,0,0,0,0,0,0,0,0,-1,1896,1653,0,0
679,-629,0,0,0,0,0,0,0,0,0,-1,1903,1653,0,0
686,-629,0,0,0,0,0,0,0,0,0,-1,1910,1653,0,0
693,-629,0,0,0,0,0,0,0,0,0,-1,1917,1653,0,0
700,-629,0,0,0,0,0,0,0,0,0,-1,1924,1653,0,0
707,-629,0,0,0,0,0,0,0,0,0,-1,1931,1653,0,0
714,-629,0,0,0,0,0,0,0,0,0,-1,1938,1653,0,0
721,-629,0,0,0,0,0,0,0,0,0,-1,1945,1653,0,0
728,-629,0,0,0,0,0,0,0,0,0,-1,1952,1653,0,0
735,-629,0,0,0,0,0,0,0,0,0,-1,1959,1653,0,0
742,-629,0,0,0,0,0,0,0,0,0,-1,1966,1653,0,0
749,-629,0,0,0,0,0,0,0,0,0,-1,1973,1653,0,0
756,-629,0,0,0,0,0,0,0,0,0,-1,1980,1653,0,0
763,-629,0,0,0,0,0,0,0,0,0,-1,1987,1653,0,0
770,-629,0,0,0,0,0,0,0,0,0,-1,1994,1653,0,0
777,-629,0,0,0,0,0,0,0,0,0,-1,2001,1653,0,0
784,-629,0,0,0,0,0,0,0,0,0,-1,2008,1653,0,0
791,-629,0,0,0,0,0,0,0,0,0,-1,2015,1653,0,0
798,-629,0,0,0,0,0,0,0,0,0,-1,2022,1653,0,0
805,-629,0,0,0,0,0,0,0,0,0,-1,2029,1653,0,0
812,-629,0,0,0,0,0,0,0,0,0,-1,2036,1653,0,0
-700,-636,0,0,0,0,0,0,0,0,0,-1,524,1660,0,0
-693,-636,0,0,0,0,0,0,0,0,0,-1,531,1660,0,0
-686,-636,0,0,0,0,0,0,0,0,0,-1,538,1660,0,0
-679,-636,0,0,0,0,0,0,0,0,0,-1,545,1660,0,0
-672,-636,0,0,0,0,0,0,0,0,0,-1,552,1660,0,0
-665,-636,0,0,0,0,0,0,0,0,0,-1,559,1660,0,0
-658,-636,0,0,0,0,0,0,0,0,0,-1,566,1660,0,0
-651,-636,0,0,0,0,0,0,0,0,0,-1,573,1660,0,0
-644,-636,0,0,0,0,0,0,0,0,0,-1,580,1660,0,0
-637,-636,0,0,0,0,0,0,0,0,0,-1,587,1660,0,0
-630,-636,0,0,0,0,0,0,0,0,0,-1,594,1660,0,0
-623,-636,0,0,0,0,0,0,0,0,0,-1,601,1660,0,0
-616,-636,0,0,0,0,0,0,0,0,0,-1,608,1660,0,0
-609,-636,0,0,0,0,0,0,0,0,0,-1,615,1660,0,0
-602,-636,0,0,0,0,0,0,0,0,0,-1,622,1660,0,0
-595,-636,0,0,0,0,0,0,0,0,0,-1,629,1660,0,0
-588,-636,0,0,0,0,0,0,0,0,0,-1,636,1660,0,0
-581,-636,0,0,0,0,0,0,0,0,0,-1,643,1660,0,0
-574,-636,0,0,0,0,0,0,0,0,0,-1,650,1660,0,0
-567,-636,0,0,0,0,0,0,0,0,0,-1,657,1660,0,0
-560,-636,0,0,0,0,0,0,0,0,0,-1,664,1660,0,0
-553,-636,0,0,0,0,0,0,0,0,0,-1,671,1660,0,0
-546,-636,0,0,0,0,0,0,0,0,0,-1,678,1660,0,0
-539,-636,0,0,0,0,0,0,0,0,0,-1,685,1660,0,0
-532,-636,0,0,0,0,0,0,0,0,0,-1,692,1660,0,0
-525,-636,0,0,0,0,0,0,0,0,0,-1,699,1660,0,0
-518,-636,0,0,0,0,0,0,0,0,0,-1,706,1660,0,0
-511,-636,0,0,0,0,0,0,0,0,0,-1,713,1660,0,0
-504,-636,0,0,0,0,0,0,0,0,0,-1,720,1660,0,0
-497,-636,0,0,0,0,0,0,0,0,0,-1,727,1660,0,0
-490,-636,0,0,0,0,0,0,0,0,0,-1,734,1660,0,0
-483,-636,0,0,0,0,0,0,0,0,0,-1,741,1660,0,0
-476,-636,0,0,0,0,0,0,0,0,0,-1,748,1660,0,0
-469,-636,0,0,0,0,0,0,0,0,0,-1,755,1660,0,0
-462,-636,0,0,0,0,0,0,0,0,0,-1,762,1660,0,0
-455,-636,0,0,0,0,0,0,0,0,0,-1,769,1660,0,0
-448,-636,0,0,0,0,0,0,0,0,0,-1,776,1660,0,0
-441,-636,0,0,0,0,0,0,0,0,0,-1,783,1660,0,0
-434,-636,0,0,0,0,0,0,0,0,0,-1,790,1660,0,0
-427,-636,0,0,0,0,0,0,0,0,0,-1,797,1660,0,0
-420,-636,0,0,0,0,0,0,0,0,0,-1,804,1660,0,0
-413,-636,0,0,0,0,0,0,0,0,0,-1,811,1660,0,0
-406,-636,3.46503,5.84583,0,0,0,0,0,0,0,-1,818,1660,3.46501,-5.84583
-399,-636,3.95544,6.48499,0,0,0,0,0,0,0,-1,825,1660,3.95546,-6.48502
-392,-636,4.35114,7.07495,0,0,0,0,0,0,0,-1,832,1660,4.35115,-7.07492
-385,-636,4.50122,7.78625,0,0,0,0,0,0,0,-1,839,1660,4.50125,-7.78625
-378,-636,4.69141,9.34131,0,0,0,0,0,0,0,-1,846,1660,4.69143,-9.34136
-371,-636,5.07294,9.22888,0,0,0,0,0,0,0,-1,853,1660,5.07297,-9.2289
-364,-636,0.869751,10.2457,0,0,0,0,0,0,0,-1,860,1660,0.869734,-10.2458
-357,-636,1.55328,10.0951,0,0,0,0,0,0,0,-1,867,1660,1.55329,-10.0951
-350,-636,3.62256,10.8362,0,0,0,0,0,0,0,-1,874,1660,3.62256,-10.8362
-343,-636,3.38434,11.2407,0,0,0,0,0,0,0,-1,881,1660,3.38434,-11.2407
-336,-636,3.06152,11.3296,-0.00144632,-0.00766034,-0.000817121,-0.00134067,-0.00776599,-0.128585,0.00479335,0.0384499,888,1660,3.06153,-11.3296
-329,-636,3.24078,11.4149,-0.00075172,-0.0067884,-0.000564514,-0.000699384,-0.00684073,-0.092446,0.00434616,0.0187513,895,1660,3.24078,-11.4149
-322,-636,3.26361,11.6147,-0.000373116,-0.00586735,-0.000121359,-0.000370437,-0.00587002,-0.0220742,0.0037959,0.0117836,902,1660,3.2636,-11.6148
-315,-636,3.23956,11.8002,-9.8918e-05,-0.00489769,0.00028866,-8.16167e-05,-0.004915,0.0598652,0.0032498,0.0121552,909,1660,3.23954,-11.8002
-308,-636,3.24072,11.9937,0.000197978,-0.00408036,0.000411026,0.000237108,-0.00411949,0.0949147,0.00282868,0.0113027,916,1660,3.24072,-11.9937
-301,-636,3.24823,12.1987,0.000403304,-0.00334884,0.000427767,0.000451454,-0.00339699,0.11209,0.00242917,0.0106277,923,1660,3.24822,-12.1987
-294,-636,3.2262,12.4082,0.000690328,-0.00276486,0.000436421,0.000744599,-0.00281914,0.12372,0.00217062,0.0126556,930,1660,3.22623,-12.4082
-287,-636,3.21075,12.5967,0.00080385,-0.00231907,0.000381668,0.000849819,-0.00236504,0.119865,0.00192359,0.0119878,937,1660,3.21074,-12.5967
-280,-636,3.20917,12.7902,0.000782732,-0.0020182,0.000231847,0.000801793,-0.00203726,0.0820312,0.00169007,0.0113462,944,1660,3.20919,-12.7901
-273,-636,3.22443,12.9406,0.000875501,-0.00193314,6.51958e-05,0.000877014,-0.00193466,0.0231959,0.00166116,0.0118378,951,1660,3.22443,-12.9405
-266,-636,3.23279,13.11,0.000998047,-0.002032,-8.74815e-05,0.00100057,-0.00203452,-0.0288393,0.00178588,0.013227,958,1660,3.23278,-13.11
-259,-636,3.2326,13.313,0.00114315,-0.00224948,-0.000218911,0.00115722,-0.00226355,-0.0641708,0.00200912,0.0140703,965,1660,3.23259,-13.3129
-252,-636,3.22583,13.506,0.00121778,-0.00253415,-0.000419777,0.00126418,-0.00258054,-0.11007,0.0022627,0.0113405,972,1660,3.2258,-13.5059
-245,-636,3.24872,13.7062,0.00115811,-0.003846,0.000179216,0.00116452,-0.00385241,0.0357527,0.00303193,0.0107814,979,1660,3.2487,-13.7062
-238,-636,3.25598,13.871,0.000881281,-0.00583326,0.00116749,0.00107849,-0.00603047,0.167335,0.00442385,0.0118357,986,1660,3.25601,-13.8709
-231,-636,3.24048,14.0227,0.000411516,-0.00776193,0.00191783,0.000839143,-0.00818956,0.219386,0.00575983,0.0114856,993,1660,3.24049,-14.0227
-224,-636,3.25159,14.1831,1.96486e-05,-0.00990905,0.00306177,0.000887899,-0.0107773,0.276323,0.00749838,0.00899524,1000,1660,3.25161,-14.1831
-217,-636,3.25653,14.3663,-0.000496483,-0.0123762,0.00449976,0.00101549,-0.0138882,0.324159,0.00961516,0.0108087,1007,1660,3.25654,-14.3663
-210,-636,3.26593,14.4971,-0.00102644,-0.0150322,0.00617884,0.00130976,-0.0173684,0.361483,0.0120393,0.0160412,1014,1660,3.26593,-14.4971
-203,-636,3.29297,14.6484,-0.00161021,-0.0178318,0.00786624,0.00157778,-0.0210198,0.385046,0.0145677,0.0194312,1021,1660,3.29293,-14.6484
-196,-636,3.37769,14.6349,0,0,0,0,0,0,0,-1,1028,1660,3.37768,-14.6348
-189,-636,3.34717,14.8546,-0.00297875,-0.0224366,0.011008,0.00198341,-0.0273988,0.4235,0.0189616,0.0237274,1035,1660,3.34715,-14.8546
-182,-636,3.20801,14.8169,-0.00344594,-0.0229799,0.0121523,0.00237788,-0.0288037,0.446898,0.0200422,0.0405412,1042,1660,3.20803,-14.8169
-175,-636,3.46423,15.2875,0,0,0,0,0,0,0,-1,1049,1660,3.46422,-15.2875
-168,-636,3.55176,15.3495,0,0,0,0,0,0,0,-1,1056,1660,3.55181,-15.3495
-161,-636,3.77051,15.3964,0,0,0,0,0,0,0,-1,1063,1660,3.77046,-15.3964
-154,-636,3.75317,15.2872,0,0,0,0,0,0,0,-1,1070,1660,3.75312,-15.2873
-147,-636,3.07971,12.1926,0,0,0,0,0,0,0,-1,1077,1660,3.07977,-12.1927
-140,-636,3.1925,14.9642,0,0,0,0,0,0,0,-1,1084,1660,3.1925,-14.9642
-133,-636,3.35303,14.6368,0,0,0,0,0,0,0,-1,1091,1660,3.35299,-14.6368
-126,-636,2.91223,13.5231,0,0,0,0,0,0,0,-1,1098,1660,2.91227,-13.523
-119,-636,1.8667,13.8916,0,0,0,0,0,0,0,-1,1105,1660,1.86668,-13.8916
-112,-636,-1.24963,9.7998,0,0,0,0,0,0,0,-1,1112,1660,-1.24968,-9.79978
-105,-636,3.51624,4.72791,0,0,0,0,0,0,0,-1,1119,1660,3.51618,-4.7279
-98,-636,1.54504,5.11914,0,0,0,0,0,0,0,-1,1126,1660,1.54503,-5.11912
-91,-636,-1.87964,-2.25012,0,0,0,0,0,0,0,-1,1133,1660,-1.87966,2.25016
-84,-636,-2.84143,0.133667,0,0,0,0,0,0,0,-1,1140,1660,-2.84144,-0.133701
-77,-636,-3.57349,2.45935,0,0,0,0,0,0,0,-1,1147,1660,-3.57345,-2.45939
-70,-636,-4.23682,4.82312,0,0,0,0,0,0,0,-1,1154,1660,-4.23681,-4.82307
-63,-636,-2.21033,6.97168,0,0,0,0,0,0,0,-1,1161,1660,-2.21034,-6.97165
-56,-636,-2.51917,8.80359,0,0,0,0,0,0,0,-1,1168,1660,-2.51916,-8.80361
-49,-636,-3.13,10.4113,0,0,0,0,0,0,0,-1,1175,1660,-3.12996,-10.4112
-42,-636,-2.27771,4.90173,0,0,0,0,0,0,0,-1,1182,1660,-2.27775,-4.90173
-35,-636,-2.27698,5.89685,0,0,0,0,0,0,0,-1,1189,1660,-2.27695,-5.89686
-28,-636,-1.70654,4.83936,0,0,0,0,0,0,0,-1,1196,1660,-1.70656,-4.8393
-21,-636,4.10999,24.0377,0,0,0,0,0,0,0,-1,1203,1660,4.11004,-24.0377
-14,-636,4.21021,23.3159,0,0,0,0,0,0,0,-1,1210,1660,4.21026,-23.3159
-7,-636,4.07153,22.6296,0,0,0,0,0,0,0,-1,1217,1660,4.07159,-22.6296
0,-636,4.13318,21.9158,0,0,0,0,0,0,0,-1,1224,1660,4.13318,-21.9157
7,-636,8.47656,18.0237,0,0,0,0,0,0,0,-1,1231,1660,8.47651,-18.0237
14,-636,9.92224,17.7255,-0.0152412,0.189005,0.107512,0.235165,-0.0614014,1.16525,0.180754,0.0439172,1238,1660,9.9222,-17.7254
21,-636,7.24548,20.6736,0.00830685,0.198685,0.109389,0.248503,-0.0415107,1.14345,0.181098,0.0463397,1245,1660,7.24553,-20.6736
28,-636,6.55164,19.8987,0.0191926,0.195583,0.107338,0.246312,-0.0315365,1.1293,0.175666,0.0467989,1252,1660,6.55164,-19.8987
35,-636,5.93689,19.2169,0,0,0,0,0,0,0,-1,1259,1660,5.93693,-19.2169
42,-636,7.81067,18.1445,0.0145032,0.16463,0.0952651,0.210851,-0.031718,1.11907,0.152245,0.0483502,1266,1660,7.81063,-18.1446
49,-636,13.7688,18.1368,0.00542114,0.141905,0.0879374,0.184973,-0.037647,1.11537,0.137592,0.0466734,1273,1660,13.7688,-18.1369
56,-636,12.6125,17.774,0,0,0,0,0,0,0,-1,1280,1660,12.6126,-17.774
63,-636,11.3383,17.3485,-0.0334749,0.0846142,0.0682016,0.115779,-0.0646397,1.14218,0.10555,0.0471826,1287,1660,11.3383,-17.3485
70,-636,10.0635,16.9442,-0.0479257,0.0613866,0.0546656,0.0840326,-0.0705717,1.17805,0.0893735,0.0474815,1294,1660,10.0635,-16.9442
77,-636,8.75208,16.5377,-0.0626463,0.0387068,0.0445421,0.0554996,-0.0794391,1.21027,0.0783145,0.0477968,1301,1660,8.75207,-16.5377
84,-636,7.41565,16.1188,-0.0755311,0.0252875,0.0375645,0.0377446,-0.0879882,1.25059,0.0744988,0.0446697,1308,1660,7.4157,-16.1188
91,-636,6.21008,15.6847,-0.0861886,0.0216689,0.0290665,0.0290033,-0.093523,1.32362,0.0739376,0.0420315,1315,1660,6.21003,-15.6847
98,-636,5.0033,15.2245,0,0,0,0,0,0,0,-1,1322,1660,5.00325,-15.2245
105,-636,4.71765,16.426,0,0,0,0,0,0,0,-1,1329,1660,4.71766,-16.4261
112,-636,4.38757,16.5997,0,0,0,0,0,0,0,-1,1336,1660,4.38757,-16.5997
119,-636,4.09131,14.7686,-0.0577128,0.0793753,0.0102796,0.0801418,-0.0584793,1.49637,0.0803581,0.0499086,1343,1660,4.09128,-14.7685
126,-636,4.00488,14.6409,-0.0396652,0.104829,0.00981705,0.105493,-0.0403291,1.50327,0.0869474,0.0443378,1350,1660,4.00485,-14.6409
133,-636,4.00269,14.4749,-0.0231182,0.12837,0.00907048,0.128911,-0.0236594,1.5112,0.094816,0.0455686,1357,1660,4.00271,-14.4748
140,-636,3.98181,14.2795,-0.00738856,0.148442,0.00874375,0.148931,-0.00787765,1.51492,0.102015,0.0446531,1364,1660,3.98177,-14.2795
147,-636,3.94897,14.1305,0.00842847,0.157114,0.011015,0.157925,0.00761687,1.49725,0.102839,0.047338,1371,1660,3.94899,-14.1305
154,-636,3.90894,13.9911,0,0,0,0,0,0,0,-1,1378,1660,3.90899,-13.9911
161,-636,10.2961,7.13025,0,0,0,0,0,0,0,-1,1385,1660,10.2961,-7.13021
168,-636,11.7659,5.83899,0,0,0,0,0,0,0,-1,1392,1660,11.7658,-5.83899
175,-636,5.94592,-1.72888,0,0,0,0,0,0,0,-1,1399,1660,5.94598,1.72886
182,-636,5.93994,-1.11938,0,0,0,0,0,0,0,-1,1406,1660,5.93998,1.11936
189,-636,5.32544,11.9595,0,0,0,0,0,0,0,-1,1413,1660,5.32542,-11.9595
196,-636,5.3623,9.38025,0,0,0,0,0,0,0,-1,1420,1660,5.36225,-9.38027
203,-636,5.18542,9.02429,0,0,0,0,0,0,0,-1,1427,1660,5.18547,-9.0243
210,-636,4.09167,7.17041,0,0,0,0,0,0,0,-1,1434,1660,4.09173,-7.17041
217,-636,2.94897,5.28992,0,0,0,0,0,0,0,-1,1441,1660,2.94899,-5.28991
224,-636,1.49194,3.63916,0,0,0,0,0,0,0,-1,1448,1660,1.49197,-3.63918
231,-636,0.17749,2.24854,0,0,0,0,0,0,0,-1,1455,1660,0.177501,-2.24855
238,-636,-0.764648,1.00598,0,0,0,0,0,0,0,-1,1462,1660,-0.764704,-1.00595
245,-636,6.21204,1.18005,0,0,0,0,0,0,0,-1,1469,1660,6.21206,-1.18001
252,-636,7.70251,0.865723,0,0,0,0,0,0,0,-1,1476,1660,7.7025,-0.865692
259,-636,9.03601,0.787231,0,0,0,0,0,0,0,-1,1483,1660,9.03598,-0.787243
266,-636,10.1071,3.24109,0,0,0,0,0,0,0,-1,1490,1660,10.1071,-3.24103
273,-636,8.48535,5.02466,0,0,0,0,0,0,0,-1,1497,1660,8.48533,-5.02472
280,-636,8.81384,5.66992,0,0,0,0,0,0,0,-1,1504,1660,8.81381,-5.66998
287,-636,6.08606,11.49,0,0,0,0,0,0,0,-1,1511,1660,6.08606,-11.49
294,-636,6.42419,16.0876,0,0,0,0,0,0,0,-1,1518,1660,6.42424,-16.0877
301,-636,6.48376,15.9677,0,0,0,0,0,0,0,-1,1525,1660,6.48376,-15.9677
308,-636,6.5199,15.824,0,0,0,0,0,0,0,-1,1532,1660,6.51991,-15.824
315,-636,6.34363,15.6666,0,0,0,0,0,0,0,-1,1539,1660,6.34364,-15.6667
322,-636,6.20813,15.5229,0.0176243,-0.00257278,0.0043619,0.018526,-0.00347455,0.203865,0.013657,0.0391118,1546,1660,6.20819,-15.523
329,-636,6.36523,15.3914,0.0147694,-0.00152501,0.00376994,0.0155994,-0.00235496,0.216694,0.0112669,0.0275103,1553,1660,6.36518,-15.3913
336,-636,6.45215,15.2815,0.0119637,-0.000831251,0.00325755,0.0127453,-0.00161287,0.235488,0.00908235,0.0230929,1560,1660,6.45216,-15.2815
343,-636,6.40955,15.1943,0.00901988,-0.000808813,0.00301539,0.00987124,-0.00166017,0.275176,0.00719832,0.0192465,1567,1660,6.40957,-15.1944
350,-636,6.40259,15.038,0.00682126,-0.000860432,0.00257009,0.00760182,-0.001641,0.294859,0.00569425,0.0110303,1574,1660,6.40259,-15.038
357,-636,6.41809,14.8959,0.00510887,-0.00103817,0.00226017,0.00585044,-0.00177974,0.317036,0.00460953,0.00936243,1581,1660,6.41813,-14.8959
364,-636,6.41602,14.7594,0.00361683,-0.00121337,0.00203771,0.00436163,-0.00195817,0.350424,0.00373566,0.0100427,1588,1660,6.41603,-14.7594
371,-636,6.41443,14.6271,0.00245918,-0.00135298,0.00187606,0.00322756,-0.00212136,0.388731,0.00311014,0.00947143,1595,1660,6.41442,-14.627
378,-636,6.44373,14.4661,0.00115849,-0.00135885,0.00165301,0.00197748,-0.00217785,0.460006,0.00240001,0.00954493,1602,1660,6.44377,-14.466
385,-636,6.45813,14.3107,0.000430403,-0.0013848,0.00129006,0.00110014,-0.00205453,0.478851,0.00184893,0.014527,1609,1660,6.45814,-14.3107
392,-636,6.44702,14.158,0.000350255,-0.000862214,0.0010276,0.000937116,-0.00144908,0.518898,0.0013882,0.016055,1616,1660,6.44705,-14.158
399,-636,6.42114,14.0024,0.000235809,-0.000269956,0.000739633,0.000764595,-0.000798742,0.620677,0.000902665,0.0121582,1623,1660,6.42117,-14.0024
406,-636,6.44116,13.8561,4.80728e-05,6.48996e-05,0.000618282,0.000674825,-0.000561853,0.792202,0.000714989,0.0132386,1630,1660,6.44111,-13.856
413,-636,6.43689,13.6884,0.000150105,0.000596851,0.000301877,0.000749011,-2.05496e-06,1.10392,0.000500027,0.0218315,1637,1660,6.43693,-13.6883
420,-636,6.41614,13.5304,0.000407857,0.00108981,-4.31612e-05,0.00109253,0.000405137,-1.50784,0.000637751,0.0219189,1644,1660,6.41615,-13.5304
427,-636,6.43066,13.3457,0.000641067,0.00119846,-0.00024009,0.00128762,0.000551912,-1.21524,0.000745925,0.0125744,1651,1660,6.43061,-13.3457
434,-636,6.42126,13.1724,0.000885418,0.00127601,-0.000444481,0.00156621,0.000595221,-0.992393,0.000912885,0.0108424,1658,1660,6.42122,-13.1724
441,-636,6.43396,12.996,0.00198102,0.00169441,0.000278938,0.00215131,0.00152412,0.548108,0.00127754,0.0111364,1665,1660,6.43402,-12.9959
448,-636,6.46814,12.8134,0.00328416,0.00223483,0.00174774,0.00458429,0.000934701,0.639581,0.00279718,0.0130888,1672,1660,6.4681,-12.8133
455,-636,6.45959,12.6086,0.00489137,0.00251858,0.00306321,0.00698991,0.000420045,0.600641,0.00452643,0.014462,1679,1660,6.45961,-12.6086
462,-636,6.38354,12.4255,0.00704625,0.00316299,0.00488971,0.0103657,-0.000156488,0.596403,0.00696323,0.019505,1686,1660,6.38356,-12.4255
469,-636,6.4187,12.3033,0.00976774,0.00442945,0.00716167,0.0147415,-0.000544304,0.607023,0.010014,0.0310848,1693,1660,6.41871,-12.3033
476,-636,6.45117,12.324,0.0130683,0.00637473,0.010108,0.0203691,-0.000926115,0.625527,0.0138984,0.0450099,1700,1660,6.45113,-12.3239
483,-636,6.43018,12.1791,0,0,0,0,0,0,0,-1,1707,1660,6.43015,-12.1791
490,-636,6.30774,11.1458,0,0,0,0,0,0,0,-1,1714,1660,6.30778,-11.1458
497,-636,5.67529,11.4598,0,0,0,0,0,0,0,-1,1721,1660,5.67528,-11.4599
504,-636,5.95276,11.8416,0,0,0,0,0,0,0,-1,1728,1660,5.95275,-11.8416
511,-636,5.65466,9.23218,0,0,0,0,0,0,0,-1,1735,1660,5.65461,-9.23216
518,-636,6.72791,1.07605,0,0,0,0,0,0,0,-1,1742,1660,6.7279,-1.0761
525,-636,7.04309,0.93335,0,0,0,0,0,0,0,-1,1749,1660,7.04308,-0.933298
532,-636,0,0,0,0,0,0,0,0,0,-1,1756,1660,0,0
539,-636,0,0,0,0,0,0,0,0,0,-1,1763,1660,0,0
546,-636,0,0,0,0,0,0,0,0,0,-1,1770,1660,0,0
553,-636,0,0,0,0,0,0,0,0,0,-1,1777,1660,0,0
560,-636,0,0,0,0,0,0,0,0,0,-1,1784,1660,0,0
567,-636,0,0,0,0,0,0,0,0,0,-1,1791,1660,0,0
574,-636,0,0,0,0,0,0,0,0,0,-1,1798,1660,0,0
581,-636,0,0,0,0,0,0,0,0,0,-1,1805,1660,0,0
588,-636,0,0,0,0,0,0,0,0,0,-1,1812,1660,0,0
595,-636,0,0,0,0,0,0,0,0,0,-1,1819,1660,0,0
602,-636,0,0,0,0,0,0,0,0,0,-1,1826,1660,0,0
609,-636,0,0,0,0,0,0,0,0,0,-1,1833,1660,0,0
616,-636,0,0,0,0,0,0,0,0,0,-1,1840,1660,0,0
623,-636,0,0,0,0,0,0,0,0,0,-1,1847,1660,0,0
630,-636,0,0,0,0,0,0,0,0,0,-1,1854,1660,0,0
637,-636,0,0,0,0,0,0,0,0,0,-1,1861,1660,0,0
644,-636,0,0,0,0,0,0,0,0,0,-1,1868,1660,0,0
651,-636,0,0,0,0,0,0,0,0,0,-1,1875,1660,0,0
658,-636,0,0,0,0,0,0,0,0,0,-1,1882,1660,0,0
665,-636,0,0,0,0,0,0,0,0,0,-1,1889,1660,0,0
672,-636,0,0,0,0,0,0,0,0,0,-1,1896,1660,0,0
679,-636,0,0,0,0,0,0,0,0,0,-1,1903,1660,0,0
686,-636,0,0,0,0,0,0,0,0,0,-1,1910,1660,0,0
693,-636,0,0,0,0,0,0,0,0,0,-1,1917,1660,0,0
700,-636,0,0,0,0,0,0,0,0,0,-1,1924,1660,0,0
707,-636,0,0,0,0,0,0,0,0,0,-1,1931,1660,0,0
714,-636,0,0,0,0,0,0,0,0,0,-1,1938,1660,0,0
721,-636,0,0,0,0,0,0,0,0,0,-1,1945,1660,0,0
728,-636,0,0,0,0,0,0,0,0,0,-1,1952,1660,0,0
735,-636,0,0,0,0,0,0,0,0,0,-1,1959,1660,0,0
742,-636,0,0,0,0,0,0,0,0,0,-1,1966,1660,0,0
749,-636,0,0,0,0,0,0,0,0,0,-1,1973,1660,0,0
756,-636,0,0,0,0,0,0,0,0,0,-1,1980,1660,0,0
763,-636,0,0,0,0,0,0,0,0,0,-1,1987,1660,0,0
770,-636,0,0,0,0,0,0,0,0,0,-1,1994,1660,0,0
777,-636,0,0,0,0,0,0,0,0,0,-1,2001,1660,0,0
784,-636,0,0,0,0,0,0,0,0,0,-1,2008,1660,0,0
791,-636,0,0,0,0,0,0,0,0,0,-1,2015,1660,0,0
798,-636,0,0,0,0,0,0,0,0,0,-1,2022,1660,0,0
805,-636,0,0,0,0,0,0,0,0,0,-1,2029,1660,0,0
812,-636,0,0,0,0,0,0,0,0,0,-1,2036,1660,0,0
-700,-643,0,0,0,0,0,0,0,0,0,-1,524,1667,0,0
-693,-643,0,0,0,0,0,0,0,0,0,-1,531,1667,0,0
-686,-643,0,0,0,0,0,0,0,0,0,-1,538,1667,0,0
-679,-643,0,0,0,0,0,0,0,0,0,-1,545,1667,0,0
-672,-643,0,0,0,0,0,0,0,0,0,-1,552,1667,0,0
-665,-643,0,0,0,0,0,0,0,0,0,-1,559,1667,0,0
-658,-643,0,0,0,0,0,0,0,0,0,-1,566,1667,0,0
-651,-643,0,0,0,0,0,0,0,0,0,-1,573,1667,0,0
-644,-643,0,0,0,0,0,0,0,0,0,-1,580,1667,0,0
-637,-643,0,0,0,0,0,0,0,0,0,-1,587,1667,0,0
-630,-643,0,0,0,0,0,0,0,0,0,-1,594,1667,0,0
-623,-643,0,0,0,0,0,0,0,0,0,-1,601,1667,0,0
-616,-643,0,0,0,0,0,0,0,0,0,-1,608,1667,0,0
-609,-643,0,0,0,0,0,0,0,0,0,-1,615,1667,0,0
-602,-643,0,0,0,0,0,0,0,0,0,-1,622,1667,0,0
-595,-643,0,0,0,0,0,0,0,0,0,-1,629,1667,0,0
-588,-643,0,0,0,0,0,0,0,0,0,-1,636,1667,0,0
-581,-643,0,0,0,0,0,0,0,0,0,-1,643,1667,0,0
-574,-643,0,0,0,0,0,0,0,0,0,-1,650,1667,0,0
-567,-643,0,0,0,0,0,0,0,0,0,-1,657,1667,0,0
-560,-643,0,0,0,0,0,0,0,0,0,-1,664,1667,0,0
-553,-643,0,0,0,0,0,0,0,0,0,-1,671,1667,0,0
-546,-643,0,0,0,0,0,0,0,0,0,-1,678,1667,0,0
-539,-643,0,0,0,0,0,0,0,0,0,-1,685,1667,0,0
-532,-643,0,0,0,0,0,0,0,0,0,-1,692,1667,0,0
-525,-643,0,0,0,0,0,0,0,0,0,-1,699,1667,0,0
-518,-643,0,0,0,0,0,0,0,0,0,-1,706,1667,0,0
-511,-643,0,0,0,0,0,0,0,0,0,-1,713,1667,0,0
-504,-643,0,0,0,0,0,0,0,0,0,-1,720,1667,0,0
-497,-643,0,0,0,0,0,0,0,0,0,-1,727,1667,0,0
-490,-643,0,0,0,0,0,0,0,0,0,-1,734,1667,0,0
-483,-643,0,0,0,0,0,0,0,0,0,-1,741,1667,0,0
-476,-643,0,0,0,0,0,0,0,0,0,-1,748,1667,0,0
-469,-643,0,0,0,0,0,0,0,0,0,-1,755,1667,0,0
-462,-643,0,0,0,0,0,0,0,0,0,-1,762,1667,0,0
-455,-643,0,0,0,0,0,0,0,0,0,-1,769,1667,0,0
-448,-643,0,0,0,0,0,0,0,0,0,-1,776,1667,0,0
-441,-643,0,0,0,0,0,0,0,0,0,-1,783,1667,0,0
-434,-643,0,0,0,0,0,0,0,0,0,-1,790,1667,0,0
-427,-643,0,0,0,0,0,0,0,0,0,-1,797,1667,0,0
-420,-643,0,0,0,0,0,0,0,0,0,-1,804,1667,0,0
-413,-643,0,0,0,0,0,0,0,0,0,-1,811,1667,0,0
-406,-643,0,0,0,0,0,0,0,0,0,-1,818,1667,0,0
-399,-643,4.40393,6.401,0,0,0,0,0,0,0,-1,825,1667,4.40396,-6.40101
-392,-643,4.9093,7.02441,0,0,0,0,0,0,0,-1,832,1667,4.90932,-7.02443
-385,-643,4.9585,7.77661,0,0,0,0,0,0,0,-1,839,1667,4.95849,-7.77664
-378,-643,4.92444,8.92029,0,0,0,0,0,0,0,-1,846,1667,4.92446,-8.92025
-371,-643,0.5849,3.26428,0,0,0,0,0,0,0,-1,853,1667,0.584909,-3.26426
-364,-643,1.69513,9.922,0,0,0,0,0,0,0,-1,860,1667,1.69511,-9.92205
-357,-643,1.14227,10.8429,0,0,0,0,0,0,0,-1,867,1667,1.14228,-10.8429
-350,-643,2.50061,9.96948,0,0,0,0,0,0,0,-1,874,1667,2.50059,-9.96954
-343,-643,2.61505,6.17407,0,0,0,0,0,0,0,-1,881,1667,2.61504,-6.17412
-336,-643,3.28302,11.2937,0,0,0,0,0,0,0,-1,888,1667,3.28305,-11.2936
-329,-643,3.34143,11.462,-0.00120287,-0.00930616,-0.000799303,-0.00112478,-0.00938424,-0.0973888,0.00591698,0.039476,895,1667,3.34146,-11.462
-322,-643,3.40112,11.6506,-0.000612634,-0.00798992,-0.000127532,-0.00061043,-0.00799212,-0.0172803,0.00513671,0.0258944,902,1667,3.40115,-11.6506
-315,-643,3.4364,11.8115,-1.70197e-05,-0.00658054,0.000444577,1.29566e-05,-0.00661051,0.0673247,0.00441133,0.0166345,909,1667,3.43639,-11.8115
-308,-643,3.4397,11.9821,0.000467814,-0.00538681,0.000644475,0.000537918,-0.00545692,0.108351,0.00382986,0.0129237,916,1667,3.43972,-11.982
-301,-643,3.4397,12.1874,0.000776598,-0.00431922,0.000715269,0.000875092,-0.00441771,0.136842,0.00327603,0.0141474,923,1667,3.43969,-12.1873
-294,-643,3.42865,12.3932,0.00115669,-0.00341646,0.000793644,0.00129051,-0.00355028,0.167039,0.00289456,0.0122092,930,1667,3.42864,-12.3932
-287,-643,3.41656,12.5872,0.00134006,-0.00269409,0.000807114,0.00149555,-0.00284957,0.190314,0.00254894,0.0102081,937,1667,3.41659,-12.5872
-280,-643,3.42303,12.7769,0.00133888,-0.00216493,0.000710857,0.0014776,-0.00230365,0.192732,0.00220041,0.0135029,944,1667,3.42301,-12.7769
-273,-643,3.41357,12.9594,0.00140637,-0.00188675,0.000587221,0.00150795,-0.00198833,0.171287,0.00202492,0.0123824,951,1667,3.41358,-12.9594
-266,-643,3.41669,13.1421,0.00147631,-0.00178125,0.000459725,0.00153994,-0.00184488,0.137548,0.00195687,0.0120616,958,1667,3.41671,-13.1421
-259,-643,3.42145,13.33,0.00157642,-0.00177917,0.000338558,0.00161024,-0.00181299,0.0995568,0.00197756,0.0112656,965,1667,3.42144,-13.33
-252,-643,3.41406,13.5195,0.00153327,-0.00185805,0.000124176,0.00153781,-0.00186259,0.0365506,0.0019662,0.012939,972,1667,3.41404,-13.5195
-245,-643,3.41754,13.7053,0.00137372,-0.00274652,0.000473215,0.00142737,-0.00280017,0.112893,0.0024833,0.0127566,979,1667,3.41757,-13.7054
-238,-643,3.45844,13.8632,0.00107239,-0.00415924,0.00110566,0.00129647,-0.00438331,0.199953,0.00343686,0.014798,986,1667,3.45845,-13.8631
-231,-643,3.4259,14.0183,0.00065374,-0.00556106,0.00157989,0.00103231,-0.00593963,0.235184,0.00434492,0.0113281,993,1667,3.42589,-14.0183
-224,-643,3.41766,14.1691,0.000322106,-0.00706352,0.00232265,0.00099181,-0.00773323,0.280722,0.00551589,0.00965189,1000,1667,3.41768,-14.1691
-217,-643,3.41705,14.314,-9.10456e-05,-0.00875508,0.00319105,0.00095738,-0.0098035,0.317441,0.00687704,0.00866457,1007,1667,3.41703,-14.3139
-210,-643,3.43164,14.4886,-0.000509176,-0.0105797,0.00424032,0.00103843,-0.0121273,0.349951,0.00845233,0.0111676,1014,1667,3.43167,-14.4886
-203,-643,3.45264,14.6738,-0.00092289,-0.0124608,0.00532325,0.00115786,-0.0145415,0.37262,0.0101024,0.0119727,1021,1667,3.45262,-14.6738
-196,-643,3.46179,14.8131,-0.00135735,-0.0142482,0.00635351,0.00124766,-0.0168533,0.389107,0.0116736,0.0120718,1028,1667,3.46183,-14.8131
-189,-643,3.48816,14.9452,-0.00181729,-0.0154376,0.00731889,0.00136978,-0.0186246,0.410695,0.0128973,0.0120953,1035,1667,3.48821,-14.9452
-182,-643,3.51416,15.0801,-0.00205939,-0.0154893,0.00802549,0.00168983,-0.0192386,0.437036,0.0134245,0.0197854,1042,1667,3.5142,-15.0801
-175,-643,3.56873,15.2262,-0.00181435,-0.0151472,0.00840392,0.00224615,-0.0192077,0.450091,0.0136158,0.0346165,1049,1667,3.56871,-15.2262
-168,-643,3.60132,15.3445,-0.00108014,-0.0141468,0.00859086,0.00317944,-0.0184064,0.460304,0.0134566,0.0405328,1056,1667,3.60137,-15.3445
-161,-643,3.66736,15.4269,-0.000156113,-0.012415,0.00876236,0.00440785,-0.016979,0.480196,0.0130393,0.0455309,1063,1667,3.66732,-15.4269
-154,-643,3.6366,15.3574,0,0,0,0,0,0,0,-1,1070,1667,3.63664,-15.3574
-147,-643,3.60669,15.6283,0,0,0,0,0,0,0,-1,1077,1667,3.60666,-15.6283
-140,-643,3.45532,15.9305,0,0,0,0,0,0,0,-1,1084,1667,3.45529,-15.9306
-133,-643,3.18872,16.8103,0,0,0,0,0,0,0,-1,1091,1667,3.18868,-16.8103
-126,-643,2.43152,14.6208,0,0,0,0,0,0,0,-1,1098,1667,2.43146,-14.6208
-119,-643,3.76282,14.1458,0,0,0,0,0,0,0,-1,1105,1667,3.76283,-14.1458
-112,-643,3.81458,16.2069,0,0,0,0,0,0,0,-1,1112,1667,3.81463,-16.2069
-105,-643,-2.23413,10.0996,0,0,0,0,0,0,0,-1,1119,1667,-2.23415,-10.0996
-98,-643,3.11035,4.68066,0,0,0,0,0,0,0,-1,1126,1667,3.11041,-4.68071
-91,-643,-1.74146,-2.5885,0,0,0,0,0,0,0,-1,1133,1667,-1.74146,2.58856
-84,-643,-3.07446,-0.199341,0,0,0,0,0,0,0,-1,1140,1667,-3.07449,0.199383
-77,-643,-3.63794,2.81165,0,0,0,0,0,0,0,-1,1147,1667,-3.63791,-2.8117
-70,-643,-3.36938,4.45203,0,0,0,0,0,0,0,-1,1154,1667,-3.36941,-4.452
-63,-643,-3.67822,6.26855,0,0,0,0,0,0,0,-1,1161,1667,-3.67823,-6.26856
-56,-643,-3.95142,8.1073,0,0,0,0,0,0,0,-1,1168,1667,-3.95139,-8.10732
-49,-643,-4.23535,9.90552,0,0,0,0,0,0,0,-1,1175,1667,-4.23537,-9.90557
-42,-643,-4.25195,10.7059,0,0,0,0,0,0,0,-1,1182,1667,-4.25192,-10.706
-35,-643,-4.10986,11.6588,0,0,0,0,0,0,0,-1,1189,1667,-4.10982,-11.6589
-28,-643,-1.38513,5.604,0,0,0,0,0,0,0,-1,1196,1667,-1.3851,-5.60403
-21,-643,3.87097,18.0372,0,0,0,0,0,0,0,-1,1203,1667,3.87098,-18.0373
-14,-643,5.56995,17.443,0,0,0,0,0,0,0,-1,1210,1667,5.5699,-17.443
-7,-643,4.20105,17.4849,0,0,0,0,0,0,0,-1,1217,1667,4.20109,-17.4849
0,-643,6.84558,17.6228,0,0,0,0,0,0,0,-1,1224,1667,6.84552,-17.6228
7,-643,7.62964,17.5038,-0.0320815,0.131493,0.0733469,0.159564,-0.0601529,1.20527,0.13111,0.0430764,1231,1667,7.6297,-17.5038
14,-643,8.61255,17.1838,-0.00770377,0.149117,0.0784035,0.181591,-0.0401776,1.17812,0.136439,0.0422716,1238,1667,8.61253,-17.1838
21,-643,6.7146,19.3831,0.0126346,0.158294,0.0811496,0.194503,-0.0235745,1.15111,0.138198,0.045144,1245,1667,6.71462,-19.3831
28,-643,5.88074,19.2397,0.0221657,0.156663,0.0805277,0.194329,-0.0155003,1.13329,0.135017,0.0464201,1252,1667,5.88074,-19.2397
35,-643,7.21191,17.6079,0,0,0,0,0,0,0,-1,1259,1667,7.21186,-17.6079
42,-643,7.02246,16.7571,0.0197777,0.132159,0.0733117,0.168337,-0.0164004,1.11238,0.118072,0.0466738,1266,1667,7.0224,-16.7571
49,-643,6.92749,15.8013,0.0128967,0.114143,0.0687329,0.148883,-0.0218436,1.10281,0.107281,0.0446218,1273,1667,6.92751,-15.8013
56,-643,5.18445,17.3463,0,0,0,0,0,0,0,-1,1280,1667,5.18441,-17.3464
63,-643,10.5353,17.8354,0,0,0,0,0,0,0,-1,1287,1667,10.5353,-17.8355
70,-643,9.50806,17.3077,0,0,0,0,0,0,0,-1,1294,1667,9.50809,-17.3078
77,-643,8.26135,16.8893,-0.0512975,0.0277976,0.0362848,0.0419212,-0.0654211,1.1996,0.0624672,0.0455495,1301,1667,8.26134,-16.8893
84,-643,7.03809,16.4448,-0.065627,0.0155131,0.0307141,0.0258281,-0.075942,1.24679,0.0610854,0.0426056,1308,1667,7.03803,-16.4448
91,-643,6.01025,16.2902,-0.0778129,0.0118653,0.0238324,0.0178054,-0.083753,1.32653,0.06262,0.0415981,1315,1667,6.01024,-16.2902
98,-643,5.32129,16.361,-0.0879218,0.0148211,0.0184637,0.0180385,-0.0911391,1.39828,0.0675795,0.044934,1322,1667,5.32129,-16.3609
105,-643,4.74854,16.6252,-0.0868204,0.0204623,0.010398,0.0214608,-0.0878189,1.47506,0.0668577,0.0474362,1329,1667,4.74855,-16.6252
112,-643,4.57776,16.882,0,0,0,0,0,0,0,-1,1336,1667,4.57782,-16.8819
119,-643,3.82764,13.6512,0,0,0,0,0,0,0,-1,1343,1667,3.82767,-13.6512
126,-643,2.07532,16.7687,0,0,0,0,0,0,0,-1,1350,1667,2.07528,-16.7687
133,-643,3.63843,13.6912,-0.0293123,0.105091,0.0070342,0.105458,-0.0296795,1.51865,0.0820088,0.0470485,1357,1667,3.63848,-13.6912
140,-643,3.59509,13.4913,-0.0128527,0.123103,0.00763407,0.12353,-0.01328,1.51488,0.0871181,0.0445938,1364,1667,3.59511,-13.4914
147,-643,3.54919,13.3881,0.00378344,0.130998,0.0109412,0.131932,0.00284929,1.48562,0.0870203,0.0439877,1371,1667,3.54924,-13.388
154,-643,3.45728,13.2411,0,0,0,0,0,0,0,-1,1378,1667,3.45725,-13.2411
161,-643,17.8325,-2.83704,0,0,0,0,0,0,0,-1,1385,1667,17.8325,2.83699
168,-643,10.5563,10.9818,0,0,0,0,0,0,0,-1,1392,1667,10.5562,-10.9819
175,-643,5.88525,-1.1698,0,0,0,0,0,0,0,-1,1399,1667,5.88526,1.16977
182,-643,5.80945,-0.418701,0,0,0,0,0,0,0,-1,1406,1667,5.80949,0.418712
189,-643,5.42297,12.9208,0,0,0,0,0,0,0,-1,1413,1667,5.42298,-12.9208
196,-643,5.51953,11.2415,0,0,0,0,0,0,0,-1,1420,1667,5.51948,-11.2414
203,-643,5.60828,9.82153,0,0,0,0,0,0,0,-1,1427,1667,5.60833,-9.82148
210,-643,4.73218,7.58728,0,0,0,0,0,0,0,-1,1434,1667,4.73222,-7.58728
217,-643,3.8031,5.28955,0,0,0,0,0,0,0,-1,1441,1667,3.80305,-5.28955
224,-643,2.96436,2.97095,0,0,0,0,0,0,0,-1,1448,1667,2.96432,-2.97095
231,-643,2.13403,1.08472,0,0,0,0,0,0,0,-1,1455,1667,2.13403,-1.08467
238,-643,1.18152,-0.261963,0,0,0,0,0,0,0,-1,1462,1667,1.18152,0.26192
245,-643,-0.157471,-1.79016,0,0,0,0,0,0,0,-1,1469,1667,-0.157517,1.7901
252,-643,8.08789,0.0202637,0,0,0,0,0,0,0,-1,1476,1667,8.08791,-0.0203056
259,-643,9.02979,-0.46936,0,0,0,0,0,0,0,-1,1483,1667,9.02974,0.46933
266,-643,4.55066,5.17554,0,0,0,0,0,0,0,-1,1490,1667,4.55063,-5.17556
273,-643,4.34363,6.56836,0,0,0,0,0,0,0,-1,1497,1667,4.34363,-6.5684
280,-643,5.75854,14.5217,0,0,0,0,0,0,0,-1,1504,1667,5.75854,-14.5218
287,-643,5.11548,15.7411,0,0,0,0,0,0,0,-1,1511,1667,5.11548,-15.7411
294,-643,6.31372,15.9148,0,0,0,0,0,0,0,-1,1518,1667,6.31369,-15.9148
301,-643,6.25537,15.7943,0.0190994,-0.0077525,0.00369229,0.0195979,-0.00825096,0.134188,0.0165174,0.0396621,1525,1667,6.25539,-15.7943
308,-643,6.24927,15.7101,0.0168974,-0.00567994,0.0035968,0.0174565,-0.0062391,0.154226,0.0141824,0.0401231,1532,1667,6.24925,-15.7101
315,-643,6.21045,15.6575,0.0146771,-0.00407694,0.00339787,0.0152737,-0.00467359,0.173823,0.0120464,0.0317482,1539,1667,6.21048,-15.6574
322,-643,6.21533,15.5747,0.0125427,-0.00278522,0.00303988,0.0131235,-0.00336609,0.188806,0.0100605,0.0154429,1546,1667,6.21536,-15.5747
329,-643,6.23828,15.4325,0.0105436,-0.00173102,0.0026395,0.0110871,-0.00227454,0.203081,0.00825471,0.0115565,1553,1667,6.23832,-15.4325
336,-643,6.21667,15.3395,0.00857399,-0.000970988,0.0023102,0.00910374,-0.00150073,0.225409,0.00662629,0.0108491,1560,1667,6.2167,-15.3395
343,-643,6.22729,15.2212,0.00649949,-0.000696119,0.00214748,0.00709166,-0.00128828,0.269063,0.00521056,0.0127141,1567,1667,6.22728,-15.2212
350,-643,6.25037,15.0457,0.00499538,-0.00058194,0.00176786,0.00550853,-0.00109509,0.282503,0.00408659,0.012011,1574,1667,6.25034,-15.0457
357,-643,6.26196,14.9091,0.00389737,-0.000644629,0.00145608,0.00432408,-0.00107134,0.28507,0.00329835,0.0101978,1581,1667,6.26201,-14.9091
364,-643,6.26086,14.7699,0.00292739,-0.000721049,0.00119752,0.00328533,-0.00107899,0.29045,0.00262488,0.00931925,1588,1667,6.26085,-14.7699
371,-643,6.2605,14.6309,0.00216465,-0.000823545,0.000976897,0.00245568,-0.00111457,0.289534,0.0021092,0.00798658,1595,1667,6.26046,-14.6309
378,-643,6.28564,14.4868,0.00126319,-0.000820123,0.000694753,0.00147362,-0.00103056,0.294106,0.00145331,0.00955168,1602,1667,6.28564,-14.4868
385,-643,6.29407,14.324,0.000790936,-0.000668182,0.00029882,0.000849761,-0.000727007,0.194373,0.000911267,0.0154067,1609,1667,6.29401,-14.324
392,-643,6.28064,14.1564,0.000795052,3.19198e-05,-2.2754e-05,0.00079573,3.1242e-05,-0.0297814,0.000520385,0.016834,1616,1667,6.28064,-14.1564
399,-643,6.25232,14.001,0.000683107,0.000663916,-0.000329298,0.00100295,0.000344074,-0.770833,0.000588484,0.0145991,1623,1667,6.25226,-14.001
406,-643,6.28064,13.8431,0.000510112,0.00106528,-0.000450671,0.001317,0.000258398,-1.06143,0.000805797,0.0128411,1630,1667,6.28069,-13.8431
413,-643,6.29395,13.6832,0.000638851,0.0016278,-0.000734161,0.00201848,0.000248172,-1.08177,0.00127103,0.0181893,1637,1667,6.29396,-13.6832
420,-643,6.26489,13.5115,0.000884312,0.00218363,-0.00100162,0.00272783,0.00034011,-1.0731,0.00171645,0.0172168,1644,1667,6.26495,-13.5114
427,-643,6.25452,13.3326,0.00108813,0.00235841,-0.00108057,0.00297668,0.00046986,-1.05109,0.00184785,0.0138457,1651,1667,6.25446,-13.3326
434,-643,6.25537,13.1602,0.00132486,0.00255919,-0.00113498,0.00323395,0.000650094,-1.03442,0.00197526,0.0147464,1658,1667,6.2554,-13.1601
441,-643,6.27515,12.9674,0.0027678,0.00315426,2.34195e-05,0.00315567,0.00276638,1.51049,0.00198677,0.0145412,1665,1667,6.27509,-12.9674
448,-643,6.29016,12.7744,0.00456627,0.00390194,0.00214539,0.00640506,0.00206315,0.708594,0.00377517,0.0187374,1672,1667,6.29017,-12.7744
455,-643,6.22034,12.6549,0.00686449,0.00439945,0.00411402,0.00992665,0.00133729,0.639858,0.0062201,0.0279034,1679,1667,6.22036,-12.6549
462,-643,6.14294,12.5735,0.0100145,0.00536689,0.00678128,0.0148591,0.000522319,0.620328,0.00973664,0.0348775,1686,1667,6.14291,-12.5734
469,-643,6.44226,12.3853,0.0140009,0.0069799,0.0101926,0.0212706,-0.000289804,0.619552,0.014278,0.041579,1693,1667,6.44222,-12.3853
476,-643,6.30212,12.5587,0,0,0,0,0,0,0,-1,1700,1667,6.30214,-12.5587
483,-643,4.21387,10.938,0,0,0,0,0,0,0,-1,1707,1667,4.21385,-10.938
490,-643,4.57397,10.8843,0.0308756,0.0168612,0.0247346,0.0495764,-0.00183962,0.647367,0.0336809,0.0494108,1714,1667,4.574,-10.8843
497,-643,5.08691,11.1222,0.0372075,0.0218264,0.0304244,0.0608983,-0.00186443,0.661603,0.0412344,0.0457732,1721,1667,5.08695,-11.1222
504,-643,5.39294,11.4795,0,0,0,0,0,0,0,-1,1728,1667,5.39295,-11.4795
511,-643,6.32056,9.37439,0,0,0,0,0,0,0,-1,1735,1667,6.32061,-9.37435
518,-643,7.40564,0.922607,0,0,0,0,0,0,0,-1,1742,1667,7.4057,-0.922598
525,-643,0,0,0,0,0,0,0,0,0,-1,1749,1667,0,0
532,-643,0,0,0,0,0,0,0,0,0,-1,1756,1667,0,0
539,-643,0,0,0,0,0,0,0,0,0,-1,1763,1667,0,0
546,-643,0,0,0,0,0,0,0,0,0,-1,1770,1667,0,0
553,-643,0,0,0,0,0,0,0,0,0,-1,1777,1667,0,0
560,-643,0,0,0,0,0,0,0,0,0,-1,1784,1667,0,0
567,-643,0,0,0,0,0,0,0,0,0,-1,1791,1667,0,0
574,-643,0,0,0,0,0,0,0,0,0,-1,1798,1667,0,0
581,-643,0,0,0,0,0,0,0,0,0,-1,1805,1667,0,0
588,-643,0,0,0,0,0,0,0,0,0,-1,1812,1667,0,0
595,-643,0,0,0,0,0,0,0,0,0,-1,1819,1667,0,0
602,-643,0,0,0,0,0,0,0,0,0,-1,1826,1667,0,0
609,-643,0,0,0,0,0,0,0,0,0,-1,1833,1667,0,0
616,-643,0,0,0,0,0,0,0,0,0,-1,1840,1667,0,0
623,-643,0,0,0,0,0,0,0,0,0,-1,1847,1667,0,0
630,-643,0,0,0,0,0,0,0,0,0,-1,1854,1667,0,0
637,-643,0,0,0,0,0,0,0,0,0,-1,1861,1667,0,0
644,-643,0,0,0,0,0,0,0,0,0,-1,1868,1667,0,0
651,-643,0,0,0,0,0,0,0,0,0,-1,1875,1667,0,0
658,-643,0,0,0,0,0,0,0,0,0,-1,1882,1667,0,0
665,-643,0,0,0,0,0,0,0,0,0,-1,1889,1667,0,0
672,-643,0,0,0,0,0,0,0,0,0,-1,1896,1667,0,0
679,-643,0,0,0,0,0,0,0,0,0,-1,1903,1667,0,0
686,-643,0,0,0,0,0,0,0,0,0,-1,1910,1667,0,0
693,-643,0,0,0,0,0,0,0,0,0,-1,1917,1667,0,0
700,-643,0,0,0,0,0,0,0,0,0,-1,1924,1667,0,0
707,-643,0,0,0,0,0,0,0,0,0,-1,1931,1667,0,0
714,-643,0,0,0,0,0,0,0,0,0,-1,1938,1667,0,0
721,-643,0,0,0,0,0,0,0,0,0,-1,1945,1667,0,0
728,-643,0,0,0,0,0,0,0,0,0,-1,1952,1667,0,0
735,-643,0,0,0,0,0,0,0,0,0,-1,1959,1667,0,0
742,-643,0,0,0,0,0,0,0,0,0,-1,1966,1667,0,0
749,-643,0,0,0,0,0,0,0,0,0,-1,1973,1667,0,0
756,-643,0,0,0,0,0,0,0,0,0,-1,1980,1667,0,0
763,-643,0,0,0,0,0,0,0,0,0,-1,1987,1667,0,0
770,-643,0,0,0,0,0,0,0,0,0,-1,1994,1667,0,0
777,-643,0,0,0,0,0,0,0,0,0,-1,2001,1667,0,0
784,-643,0,0,0,0,0,0,0,0,0,-1,2008,1667,0,0
791,-643,0,0,0,0,0,0,0,0,0,-1,2015,1667,0,0
798,-643,0,0,0,0,0,0,0,0,0,-1,2022,1667,0,0
805,-643,0,0,0,0,0,0,0,0,0,-1,2029,1667,0,0
812,-643,0,0,0,0,0,0,0,0,0,-1,2036,1667,0,0
-700,-650,0,0,0,0,0,0,0,0,0,-1,524,1674,0,0
-693,-650,0,0,0,0,0,0,0,0,0,-1,531,1674,0,0
-686,-650,0,0,0,0,0,0,0,0,0,-1,538,1674,0,0
-679,-650,0,0,0,0,0,0,0,0,0,-1,545,1674,0,0
-672,-650,0,0,0,0,0,0,0,0,0,-1,552,1674,0,0
-665,-650,0,0,0,0,0,0,0,0,0,-1,559,1674,0,0
-658,-650,0,0,0,0,0,0,0,0,0,-1,566,1674,0,0
-651,-650,0,0,0,0,0,0,0,0,0,-1,573,1674,0,0
-644,-650,0,0,0,0,0,0,0,0,0,-1,580,1674,0,0
-637,-650,0,0,0,0,0,0,0,0,0,-1,587,1674,0,0
-630,-650,0,0,0,0,0,0,0,0,0,-1,594,1674,0,0
-623,-650,0,0,0,0,0,0,0,0,0,-1,601,1674,0,0
-616,-650,0,0,0,0,0,0,0,0,0,-1,608,1674,0,0
-609,-650,0,0,0,0,0,0,0,0,0,-1,615,1674,0,0
-602,-650,0,0,0,0,0,0,0,0,0,-1,622,1674,0,0
-595,-650,0,0,0,0,0,0,0,0,0,-1,629,1674,0,0
-588,-650,0,0,0,0,0,0,0,0,0,-1,636,1674,0,0
-581,-650,0,0,0,0,0,0,0,0,0,-1,643,1674,0,0
-574,-650,0,0,0,0,0,0,0,0,0,-1,650,1674,0,0
-567,-650,0,0,0,0,0,0,0,0,0,-1,657,1674,0,0
-560,-650,0,0,0,0,0,0,0,0,0,-1,664,1674,0,0
-553,-650,0,0,0,0,0,0,0,0,0,-1,671,1674,0,0
-546,-650,0,0,0,0,0,0,0,0,0,-1,678,1674,0,0
-539,-650,0,0,0,0,0,0,0,0,0,-1,685,1674,0,0
-532,-650,0,0,0,0,0,0,0,0,0,-1,692,1674,0,0
-525,-650,0,0,0,0,0,0,0,0,0,-1,699,1674,0,0
-518,-650,0,0,0,0,0,0,0,0,0,-1,706,1674,0,0
-511,-650,0,0,0,0,0,0,0,0,0,-1,713,1674,0,0
-504,-650,0,0,0,0,0,0,0,0,0,-1,720,1674,0,0
-497,-650,0,0,0,0,0,0,0,0,0,-1,727,1674,0,0
-490,-650,0,0,0,0,0,0,0,0,0,-1,734,1674,0,0
-483,-650,0,0,0,0,0,0,0,0,0,-1,741,1674,0,0
-476,-650,0,0,0,0,0,0,0,0,0,-1,748,1674,0,0
-469,-650,0,0,0,0,0,0,0,0,0,-1,755,1674,0,0
-462,-650,0,0,0,0,0,0,0,0,0,-1,762,1674,0,0
-455,-650,0,0,0,0,0,0,0,0,0,-1,769,1674,0,0
-448,-650,0,0,0,0,0,0,0,0,0,-1,776,1674,0,0
-441,-650,0,0,0,0,0,0,0,0,0,-1,783,1674,0,0
-434,-650,0,0,0,0,0,0,0,0,0,-1,790,1674,0,0
-427,-650,0,0,0,0,0,0,0,0,0,-1,797,1674,0,0
-420,-650,0,0,0,0,0,0,0,0,0,-1,804,1674,0,0
-413,-650,0,0,0,0,0,0,0,0,0,-1,811,1674,0,0
-406,-650,0,0,0,0,0,0,0,0,0,-1,818,1674,0,0
-399,-650,0,0,0,0,0,0,0,0,0,-1,825,1674,0,0
-392,-650,5.44415,6.85669,0,0,0,0,0,0,0,-1,832,1674,5.44414,-6.85674
-385,-650,8.7821,8.6189,0,0,0,0,0,0,0,-1,839,1674,8.78213,-8.61893
-378,-650,0.997986,4.11108,0,0,0,0,0,0,0,-1,846,1674,0.998006,-4.11113
-371,-650,-1.80096,3.78625,0,0,0,0,0,0,0,-1,853,1674,-1.80094,-3.78625
-364,-650,-2.95679,2.57507,0,0,0,0,0,0,0,-1,860,1674,-2.95681,-2.57506
-357,-650,1.97833,10.8362,0,0,0,0,0,0,0,-1,867,1674,1.97835,-10.8362
-350,-650,-5.30243,0.159912,0,0,0,0,0,0,0,-1,874,1674,-5.30244,-0.159866
-343,-650,-6.21338,-1.4425,0,0,0,0,0,0,0,-1,881,1674,-6.21341,1.44248
-336,-650,3.39105,10.7294,0,0,0,0,0,0,0,-1,888,1674,3.39105,-10.7293
-329,-650,3.44934,11.7053,0,0,0,0,0,0,0,-1,895,1674,3.44933,-11.7053
-322,-650,3.52747,11.7668,-0.000201686,-0.0103533,-0.00030279,-0.000192662,-0.0103623,-0.0297916,0.00684489,0.0465912,902,1674,3.52746,-11.7669
-315,-650,3.59589,11.8572,0.000890369,-0.00841195,0.000437928,0.00091094,-0.00843253,0.0469389,0.00594863,0.0404339,909,1674,3.59586,-11.8572
-308,-650,3.61151,12.0013,0.00174224,-0.00676054,0.000737356,0.00180571,-0.00682401,0.0858653,0.00525568,0.0225876,916,1674,3.61151,-12.0014
-301,-650,3.61859,12.1997,0.00223271,-0.00526411,0.000904482,0.00234029,-0.00537169,0.118386,0.00456573,0.0115853,923,1674,3.61861,-12.1997
-294,-650,3.62073,12.4011,0.00272681,-0.00399264,0.00108798,0.00289858,-0.00416441,0.156587,0.00409959,0.00916846,930,1674,3.62071,-12.4011
-287,-650,3.62415,12.5912,0.00296258,-0.00297537,0.00120328,0.00319715,-0.00320994,0.192527,0.00369913,0.0120289,937,1674,3.62412,-12.5912
-280,-650,3.62183,12.7618,0.00288653,-0.00223071,0.00118469,0.00314749,-0.00249167,0.216815,0.0032631,0.013384,944,1674,3.6218,-12.7618
-273,-650,3.61212,12.959,0.00280913,-0.00180298,0.00112184,0.00306752,-0.00206137,0.226385,0.0029801,0.0129531,951,1674,3.61213,-12.9589
-266,-650,3.5683,13.1493,0.00269636,-0.00154387,0.00102573,0.00293145,-0.00177897,0.225306,0.00274656,0.011004,958,1674,3.56829,-13.1493
-259,-650,3.58893,13.3214,0.00261825,-0.00137057,0.000910516,0.00281626,-0.00156858,0.214137,0.00256552,0.0134636,965,1674,3.58894,-13.3214
-252,-650,3.59314,13.5065,0.00231774,-0.0013084,0.000669609,0.00243744,-0.0014281,0.176892,0.00225699,0.0127381,972,1674,3.59313,-13.5064
-245,-650,3.60022,13.667,0.00191342,-0.00188507,0.000800566,0.00207525,-0.00204691,0.199459,0.00237995,0.0124924,979,1674,3.60022,-13.667
-238,-650,3.60461,13.8442,0.00145322,-0.00286563,0.00112794,0.00173005,-0.00314246,0.240677,0.00285227,0.0127446,986,1674,3.60461,-13.8442
-231,-650,3.56995,14.0237,0.000976539,-0.00386888,0.00137319,0.00133864,-0.00423098,0.257824,0.00335704,0.0169282,993,1674,3.56995,-14.0237
-224,-650,3.57043,14.1913,0.000591075,-0.0049012,0.00180726,0.00113241,-0.00544253,0.291027,0.00405883,0.0148122,1000,1674,3.57043,-14.1913
-217,-650,3.59137,14.3481,0.000171364,-0.00601747,0.00222308,0.000887129,-0.00673323,0.31149,0.00481187,0.0100999,1007,1674,3.5914,-14.3481
-210,-650,3.59839,14.4968,-0.000223468,-0.00724547,0.0027998,0.00075619,-0.00822513,0.336588,0.00575208,0.00936738,1014,1674,3.5984,-14.4969
-203,-650,3.62537,14.6533,-0.000525576,-0.00847468,0.00347903,0.000781983,-0.00978224,0.359507,0.00679716,0.0137324,1021,1674,3.62539,-14.6533
-196,-650,3.63611,14.7914,-0.000773971,-0.00963148,0.00413607,0.000857053,-0.0112625,0.375619,0.00780971,0.0136922,1028,1674,3.63612,-14.7914
-189,-650,3.6145,14.9381,-0.00104195,-0.010316,0.00473457,0.000948112,-0.012306,0.397904,0.00853761,0.0109488,1035,1674,3.61452,-14.9382
-182,-650,3.66003,15.1154,-0.00110944,-0.0100951,0.00515129,0.00123303,-0.0124376,0.426785,0.00873179,0.00927664,1042,1674,3.66,-15.1154
-175,-650,3.68958,15.2472,-0.000775769,-0.00964453,0.00534387,0.00173396,-0.0121543,0.439071,0.00873836,0.0139715,1049,1674,3.68961,-15.2471
-168,-650,3.66309,15.377,-7.50546e-05,-0.00880356,0.0054464,0.00253994,-0.0114186,0.447628,0.00858519,0.0186261,1056,1674,3.66304,-15.377
-161,-650,3.60986,15.4911,0.000773526,-0.00744428,0.00556022,0.00357831,-0.0102491,0.467192,0.00828713,0.0270565,1063,1674,3.60992,-15.491
-154,-650,3.67383,15.6233,0.00208764,-0.00562423,0.00558365,0.00501738,-0.00855397,0.483212,0.00792361,0.030095,1070,1674,3.67385,-15.6233
-147,-650,3.75085,15.7041,0.00357262,-0.00377112,0.00565159,0.00664042,-0.00683892,0.497314,0.00778258,0.0414696,1077,1674,3.75081,-15.7041
-140,-650,3.62634,16.0475,0.00514348,-0.00106652,0.00480201,0.0077569,-0.00367994,0.498406,0.00674146,0.047153,1084,1674,3.62631,-16.0475
-133,-650,3.51929,16.5225,0.00756207,0.00241993,0.00407634,0.00981043,0.000171566,0.504043,0.00648386,0.0446193,1091,1674,3.51933,-16.5225
-126,-650,3.46741,16.6469,0,0,0,0,0,0,0,-1,1098,1674,3.46739,-16.6469
-119,-650,4.52197,15.9855,0,0,0,0,0,0,0,-1,1105,1674,4.52192,-15.9854
-112,-650,3.86292,14.4513,0,0,0,0,0,0,0,-1,1112,1674,3.8629,-14.4513
-105,-650,4.9259,12.0626,0,0,0,0,0,0,0,-1,1119,1674,4.92591,-12.0626
-98,-650,3.3761,6.78003,0,0,0,0,0,0,0,-1,1126,1674,3.37611,-6.78009
-91,-650,3.66809,7.04443,0,0,0,0,0,0,0,-1,1133,1674,3.66806,-7.04439
-84,-650,-3.82666,-1.59521,0,0,0,0,0,0,0,-1,1140,1674,-3.82661,1.59517
-77,-650,-4.70557,1.90198,0,0,0,0,0,0,0,-1,1147,1674,-4.7056,-1.90194
-70,-650,-4.88171,3.81653,0,0,0,0,0,0,0,-1,1154,1674,-4.88176,-3.81651
-63,-650,-5.14612,5.56543,0,0,0,0,0,0,0,-1,1161,1674,-5.14612,-5.56547
-56,-650,-5.38367,7.41101,0,0,0,0,0,0,0,-1,1168,1674,-5.38361,-7.41102
-49,-650,-5.11316,8.23706,0,0,0,0,0,0,0,-1,1175,1674,-5.11317,-8.23708
-42,-650,-4.99487,9.6792,0,0,0,0,0,0,0,-1,1182,1674,-4.99484,-9.67921
-35,-650,-4.77771,11.3369,0,0,0,0,0,0,0,-1,1189,1674,-4.77769,-11.3369
-28,-650,-4.1936,13.1501,0,0,0,0,0,0,0,-1,1196,1674,-4.19358,-13.1501
-21,-650,7.1488,17.3998,0,0,0,0,0,0,0,-1,1203,1674,7.14875,-17.3997
-14,-650,5.76807,17.4005,-0.0806406,0.0393114,0.0315454,0.0471014,-0.0884306,1.32869,0.0794529,0.0498191,1210,1674,5.76811,-17.4005
-7,-650,4.3573,17.4292,-0.0639694,0.0573021,0.0392752,0.0689106,-0.0755779,1.28341,0.0834501,0.0480705,1217,1674,4.35734,-17.4292
0,-650,6.20007,17.6837,0,0,0,0,0,0,0,-1,1224,1674,6.20011,-17.6837
7,-650,6.80188,17.2111,-0.0220128,0.10203,0.0534465,0.121882,-0.0418643,1.21516,0.0982294,0.041543,1231,1674,6.80191,-17.211
14,-650,7.46167,16.4904,-0.00207094,0.115448,0.0575392,0.138929,-0.0255515,1.18334,0.102207,0.040512,1238,1674,7.46172,-16.4903
21,-650,6.13733,18.0383,0.01495,0.123194,0.0602243,0.150042,-0.011898,1.15144,0.104221,0.0453372,1245,1674,6.13736,-18.0383
28,-650,6.49915,17.0144,0.0231439,0.122289,0.0602378,0.15073,-0.00529654,1.12969,0.102298,0.0492609,1252,1674,6.49912,-17.0144
35,-650,6.2699,16.298,0.0245617,0.114715,0.0583929,0.143406,-0.0041291,1.1141,0.0970096,0.0483688,1259,1674,6.26986,-16.298
42,-650,6.0481,15.5786,0.0225845,0.103157,0.0560719,0.131914,-0.00617301,1.09691,0.0900712,0.0451426,1266,1674,6.04806,-15.5786
49,-650,5.97168,14.7574,0,0,0,0,0,0,0,-1,1273,1674,5.97171,-14.7574
56,-650,5.59424,17.3293,0,0,0,0,0,0,0,-1,1280,1674,5.5943,-17.3293
63,-650,7.39319,17.645,0,0,0,0,0,0,0,-1,1287,1674,7.39318,-17.645
70,-650,9.09094,17.7942,0,0,0,0,0,0,0,-1,1294,1674,9.09097,-17.7942
77,-650,7.88403,17.2577,-0.0410777,0.018535,0.0290671,0.0303617,-0.0529045,1.18438,0.0486575,0.0471891,1301,1674,7.88404,-17.2576
84,-650,6.67297,16.7693,-0.0555939,0.007916,0.0246744,0.0163755,-0.0640535,1.24051,0.04908,0.045469,1308,1674,6.67293,-16.7692
91,-650,5.86438,16.6469,-0.0681924,0.00453364,0.0191823,0.009283,-0.0729418,1.32809,0.0519991,0.0435088,1315,1674,5.86438,-16.6468
98,-650,5.34851,16.6965,-0.0787205,0.0069505,0.0147198,0.00940906,-0.0811791,1.4053,0.0575128,0.0431222,1322,1674,5.34857,-16.6965
105,-650,4.67761,16.4734,-0.0803071,0.0118515,0.00816398,0.0125691,-0.0810247,1.48312,0.0586568,0.0460236,1329,1674,4.67759,-16.4734
112,-650,4.02502,16.9021,-0.0732025,0.0280895,0.00654325,0.0285104,-0.0736234,1.50655,0.0608542,0.0457034,1336,1674,4.02498,-16.9021
119,-650,3.10559,17.028,0,0,0,0,0,0,0,-1,1343,1674,3.10563,-17.0279
126,-650,1.69897,16.506,0,0,0,0,0,0,0,-1,1350,1674,1.69896,-16.5059
133,-650,0.703369,16.0369,0,0,0,0,0,0,0,-1,1357,1674,0.70335,-16.0369
140,-650,-0.113159,15.6272,0,0,0,0,0,0,0,-1,1364,1674,-0.113173,-15.6272
147,-650,3.09644,12.6979,0,0,0,0,0,0,0,-1,1371,1674,3.09649,-12.6978
154,-650,18.8168,-4.73914,0,0,0,0,0,0,0,-1,1378,1674,18.8168,4.73914
161,-650,11.2434,8.83008,0,0,0,0,0,0,0,-1,1385,1674,11.2434,-8.83004
168,-650,11.2113,7.87231,0,0,0,0,0,0,0,-1,1392,1674,11.2113,-7.87236
175,-650,5.62537,-0.230713,0,0,0,0,0,0,0,-1,1399,1674,5.62538,0.230745
182,-650,5.56006,0.421631,0,0,0,0,0,0,0,-1,1406,1674,5.56,-0.421652
189,-650,4.81543,11.0654,0,0,0,0,0,0,0,-1,1413,1674,4.81542,-11.0654
196,-650,5.39575,11.9077,0,0,0,0,0,0,0,-1,1420,1674,5.39575,-11.9078
203,-650,3.93628,11.8215,0,0,0,0,0,0,0,-1,1427,1674,3.93624,-11.8216
210,-650,5.40955,8.08594,0,0,0,0,0,0,0,-1,1434,1674,5.40958,-8.086
217,-650,5.12451,4.69739,0,0,0,0,0,0,0,-1,1441,1674,5.12451,-4.69738
224,-650,4.79041,1.45813,0,0,0,0,0,0,0,-1,1448,1674,4.79046,-1.45816
231,-650,4.04102,-0.642212,0,0,0,0,0,0,0,-1,1455,1674,4.04101,0.642209
238,-650,3.23022,-1.43396,0,0,0,0,0,0,0,-1,1462,1674,3.23023,1.43394
245,-650,1.65894,-2.55042,0,0,0,0,0,0,0,-1,1469,1674,1.65889,2.55036
252,-650,8.75342,0.355103,0,0,0,0,0,0,0,-1,1476,1674,8.75337,-0.355147
259,-650,5.61255,3.17566,0,0,0,0,0,0,0,-1,1483,1674,5.61257,-3.17572
266,-650,4.00403,6.10229,0,0,0,0,0,0,0,-1,1490,1674,4.00401,-6.10225
273,-650,5.4093,14.3718,0,0,0,0,0,0,0,-1,1497,1674,5.40929,-14.3718
280,-650,5.36694,15.9132,0,0,0,0,0,0,0,-1,1504,1674,5.36695,-15.9132
287,-650,5.49536,15.859,0.0166599,-0.0100019,0.00228408,0.0168541,-0.0101961,0.084845,0.0157744,0.0478362,1511,1674,5.49542,-15.859
294,-650,6.07947,15.8746,0.0150866,-0.00867087,0.00258599,0.0153648,-0.00894909,0.107177,0.0141996,0.0386784,1518,1674,6.07952,-15.8746
301,-650,6.0603,15.7499,0.0136301,-0.00665117,0.00256528,0.0139495,-0.00697061,0.123886,0.0123002,0.0308861,1525,1674,6.06033,-15.7498
308,-650,6.0592,15.7704,0.0120709,-0.0049962,0.00255003,0.0124437,-0.00536906,0.145189,0.0105511,0.0197604,1532,1674,6.05918,-15.7703
315,-650,6.08398,15.7236,0.0104143,-0.00371388,0.00240081,0.0108111,-0.00411071,0.163807,0.00889994,0.0113834,1539,1674,6.08397,-15.7237
322,-650,6.09705,15.5874,0.00885005,-0.00258474,0.00212653,0.00923272,-0.0029674,0.178043,0.00734683,0.00963677,1546,1674,6.09704,-15.5875
329,-650,6.09839,15.4384,0.00742646,-0.00157677,0.00181778,0.00777962,-0.00192994,0.191892,0.00593526,0.0155545,1553,1674,6.09836,-15.4384
336,-650,6.078,15.3396,0.00605811,-0.000835726,0.00161234,0.00641657,-0.00119418,0.218763,0.00472633,0.0136942,1560,1674,6.07801,-15.3395
343,-650,6.07898,15.2273,0.00461619,-0.000424838,0.00149869,0.00502809,-0.00083674,0.268219,0.00366297,0.0128688,1567,1674,6.07902,-15.2273
350,-650,6.09753,15.061,0.00362754,-0.000219098,0.00118372,0.00396262,-0.000554177,0.275855,0.00284452,0.015078,1574,1674,6.09748,-15.0611
357,-650,6.11914,14.9017,0.00295865,-0.000214002,0.000916817,0.00320453,-0.000459883,0.262024,0.00230499,0.0127826,1581,1674,6.11919,-14.9017
364,-650,6.13086,14.7749,0.00239043,-0.000225261,0.00066811,0.0025512,-0.000386031,0.236144,0.001843,0.00860383,1588,1674,6.13091,-14.7749
371,-650,6.1167,14.6287,0.00196562,-0.000303483,0.000437324,0.00204699,-0.000384851,0.183955,0.00150938,0.0103664,1595,1674,6.11673,-14.6287
378,-650,6.12512,14.4731,0.00141402,-0.000307977,0.000122271,0.00142265,-0.000316615,0.0705337,0.00106971,0.0119583,1602,1674,6.12513,-14.4731
385,-650,6.13159,14.3231,0.00116782,-6.22788e-06,-0.00029268,0.00123673,-7.51451e-05,-0.231257,0.000850645,0.0128141,1609,1674,6.13162,-14.3231
392,-650,6.13367,14.1626,0.00125905,0.000876302,-0.000670433,0.00176489,0.000370464,-0.646371,0.00107461,0.016884,1616,1674,6.13368,-14.1626
399,-650,6.12732,14.0092,0.00115989,0.00157424,-0.00101873,0.00240665,0.000327476,-0.885713,0.00150718,0.0161175,1623,1674,6.12735,-14.0092
406,-650,6.1228,13.8503,0.00102801,0.00209781,-0.00118199,0.0028603,0.000265521,-0.997882,0.00182481,0.0136772,1630,1674,6.12285,-13.8503
413,-650,6.14001,13.702,0.00119558,0.00275319,-0.00146945,0.00363747,0.000311309,-1.02908,0.00232816,0.0145499,1637,1674,6.14,-13.702
420,-650,6.13,13.533,0.0014068,0.00341319,-0.00174489,0.00442271,0.000397279,-1.04629,0.00282537,0.015017,1644,1674,6.13,-13.533
427,-650,6.08813,13.349,0.0015782,0.00374777,-0.00181311,0.00477584,0.000550134,-1.05498,0.00301728,0.013601,1651,1674,6.0881,-13.349
434,-650,6.06921,13.1689,0.00182011,0.00434405,-0.00184576,0.00531801,0.000846145,-1.08525,0.00329966,0.0164578,1658,1674,6.06917,-13.169
441,-650,6.09326,12.9644,0.00373925,0.00525274,-0.000202883,0.00527946,0.00371253,-1.43983,0.00313088,0.0272716,1665,1674,6.09331,-12.9644
448,-650,6.04309,13.0059,0.00620987,0.00639259,0.00269778,0.00900056,0.0036019,0.802324,0.00523088,0.0426627,1672,1674,6.04307,-13.0059
455,-650,5.73706,13.1658,0.0094641,0.00732204,0.00539818,0.0138965,0.00288966,0.687467,0.00846709,0.0442412,1679,1674,5.73708,-13.1658
462,-650,6.01807,12.8018,0.0139439,0.00885765,0.0090726,0.0208231,0.0019785,0.64875,0.0132718,0.0468792,1686,1674,6.01811,-12.8017
469,-650,6.63,12.4722,0,0,0,0,0,0,0,-1,1693,1674,6.63,-12.4722
476,-650,4.55273,11.8104,0,0,0,0,0,0,0,-1,1700,1674,4.55268,-11.8104
483,-650,3.49097,10.5712,0,0,0,0,0,0,0,-1,1707,1674,3.491,-10.5712
490,-650,3.98425,10.6481,0.0436782,0.0234182,0.0339222,0.0689506,-0.00185422,0.640301,0.0465975,0.0476983,1714,1674,3.98428,-10.648
497,-650,4.64648,10.8466,0.052411,0.0295272,0.041679,0.0841902,-0.00225192,0.651436,0.0568923,0.0430698,1721,1674,4.64643,-10.8465
504,-650,4.71448,10.8973,0,0,0,0,0,0,0,-1,1728,1674,4.71444,-10.8974
511,-650,4.76782,10.7681,0,0,0,0,0,0,0,-1,1735,1674,4.76776,-10.7681
518,-650,0,0,0,0,0,0,0,0,0,-1,1742,1674,0,0
525,-650,0,0,0,0,0,0,0,0,0,-1,1749,1674,0,0
532,-650,0,0,0,0,0,0,0,0,0,-1,1756,1674,0,0
539,-650,0,0,0,0,0,0,0,0,0,-1,1763,1674,0,0
546,-650,0,0,0,0,0,0,0,0,0,-1,1770,1674,0,0
553,-650,0,0,0,0,0,0,0,0,0,-1,1777,1674,0,0
560,-650,0,0,0,0,0,0,0,0,0,-1,1784,1674,0,0
567,-650,0,0,0,0,0,0,0,0,0,-1,1791,1674,0,0
574,-650,0,0,0,0,0,0,0,0,0,-1,1798,1674,0,0
581,-650,0,0,0,0,0,0,0,0,0,-1,1805,1674,0,0
588,-650,0,0,0,0,0,0,0,0,0,-1,1812,1674,0,0
595,-650,0,0,0,0,0,0,0,0,0,-1,1819,1674,0,0
602,-650,0,0,0,0,0,0,0,0,0,-1,1826,1674,0,0
609,-650,0,0,0,0,0,0,0,0,0,-1,1833,1674,0,0
616,-650,0,0,0,0,0,0,0,0,0,-1,1840,1674,0,0
623,-650,0,0,0,0,0,0,0,0,0,-1,1847,1674,0,0
630,-650,0,0,0,0,0,0,0,0,0,-1,1854,1674,0,0
637,-650,0,0,0,0,0,0,0,0,0,-1,1861,1674,0,0
644,-650,0,0,0,0,0,0,0,0,0,-1,1868,1674,0,0
651,-650,0,0,0,0,0,0,0,0,0,-1,1875,1674,0,0
658,-650,0,0,0,0,0,0,0,0,0,-1,1882,1674,0,0
665,-650,0,0,0,0,0,0,0,0,0,-1,1889,1674,0,0
672,-650,0,0,0,0,0,0,0,0,0,-1,1896,1674,0,0
679,-650,0,0,0,0,0,0,0,0,0,-1,1903,1674,0,0
686,-650,0,0,0,0,0,0,0,0,0,-1,1910,1674,0,0
693,-650,0,0,0,0,0,0,0,0,0,-1,1917,1674,0,0
700,-650,0,0,0,0,0,0,0,0,0,-1,1924,1674,0,0
707,-650,0,0,0,0,0,0,0,0,0,-1,1931,1674,0,0
714,-650,0,0,0,0,0,0,0,0,0,-1,1938,1674,0,0
721,-650,0,0,0,0,0,0,0,0,0,-1,1945,1674,0,0
728,-650,0,0,0,0,0,0,0,0,0,-1,1952,1674,0,0
735,-650,0,0,0,0,0,0,0,0,0,-1,1959,1674,0,0
742,-650,0,0,0,0,0,0,0,0,0,-1,1966,1674,0,0
749,-650,0,0,0,0,0,0,0,0,0,-1,1973,1674,0,0
756,-650,0,0,0,0,0,0,0,0,0,-1,1980,1674,0,0
763,-650,0,0,0,0,0,0,0,0,0,-1,1987,1674,0,0
770,-650,0,0,0,0,0,0,0,0,0,-1,1994,1674,0,0
777,-650,0,0,0,0,0,0,0,0,0,-1,2001,1674,0,0
784,-650,0,0,0,0,0,0,0,0,0,-1,2008,1674,0,0
791,-650,0,0,0,0,0,0,0,0,0,-1,2015,1674,0,0
798,-650,0,0,0,0,0,0,0,0,0,-1,2022,1674,0,0
805,-650,0,0,0,0,0,0,0,0,0,-1,2029,1674,0,0
812,-650,0,0,0,0,0,0,0,0,0,-1,2036,1674,0,0
-700,-657,0,0,0,0,0,0,0,0,0,-1,524,1681,0,0
-693,-657,0,0,0,0,0,0,0,0,0,-1,531,1681,0,0
-686,-657,0,0,0,0,0,0,0,0,0,-1,538,1681,0,0
-679,-657,0,0,0,0,0,0,0,0,0,-1,545,1681,0,0
-672,-657,0,0,0,0,0,0,0,0,0,-1,552,1681,0,0
-665,-657,0,0,0,0,0,0,0,0,0,-1,559,1681,0,0
-658,-657,0,0,0,0,0,0,0,0,0,-1,566,1681,0,0
-651,-657,0,0,0,0,0,0,0,0,0,-1,573,1681,0,0
-644,-657,0,0,0,0,0,0,0,0,0,-1,580,1681,0,0
-637,-657,0,0,0,0,0,0,0,0,0,-1,587,1681,0,0
-630,-657,0,0,0,0,0,0,0,0,0,-1,594,1681,0,0
-623,-657,0,0,0,0,0,0,0,0,0,-1,601,1681,0,0
-616,-657,0,0,0,0,0,0,0,0,0,-1,608,1681,0,0
-609,-657,0,0,0,0,0,0,0,0,0,-1,615,1681,0,0
-602,-657,0,0,0,0,0,0,0,0,0,-1,622,1681,0,0
-595,-657,0,0,0,0,0,0,0,0,0,-1,629,1681,0,0
-588,-657,0,0,0,0,0,0,0,0,0,-1,636,1681,0,0
-581,-657,0,0,0,0,0,0,0,0,0,-1,643,1681,0,0
-574,-657,0,0,0,0,0,0,0,0,0,-1,650,1681,0,0
-567,-657,0,0,0,0,0,0,0,0,0,-1,657,1681,0,0
-560,-657,0,0,0,0,0,0,0,0,0,-1,664,1681,0,0
-553,-657,0,0,0,0,0,0,0,0,0,-1,671,1681,0,0
-546,-657,0,0,0,0,0,0,0,0,0,-1,678,1681,0,0
-539,-657,0,0,0,0,0,0,0,0,0,-1,685,1681,0,0
-532,-657,0,0,0,0,0,0,0,0,0,-1,692,1681,0,0
-525,-657,0,0,0,0,0,0,0,0,0,-1,699,1681,0,0
-518,-657,0,0,0,0,0,0,0,0,0,-1,706,1681,0,0
-511,-657,0,0,0,0,0,0,0,0,0,-1,713,1681,0,0
-504,-657,0,0,0,0,0,0,0,0,0,-1,720,1681,0,0
-497,-657,0,0,0,0,0,0,0,0,0,-1,727,1681,0,0
-490,-657,0,0,0,0,0,0,0,0,0,-1,734,1681,0,0
-483,-657,0,0,0,0,0,0,0,0,0,-1,741,1681,0,0
-476,-657,0,0,0,0,0,0,0,0,0,-1,748,1681,0,0
-469,-657,0,0,0,0,0,0,0,0,0,-1,755,1681,0,0
-462,-657,0,0,0,0,0,0,0,0,0,-1,762,1681,0,0
-455,-657,0,0,0,0,0,0,0,0,0,-1,769,1681,0,0
-448,-657,0,0,0,0,0,0,0,0,0,-1,776,1681,0,0
-441,-657,0,0,0,0,0,0,0,0,0,-1,783,1681,0,0
-434,-657,0,0,0,0,0,0,0,0,0,-1,790,1681,0,0
-427,-657,0,0,0,0,0,0,0,0,0,-1,797,1681,0,0
-420,-657,0,0,0,0,0,0,0,0,0,-1,804,1681,0,0
-413,-657,0,0,0,0,0,0,0,0,0,-1,811,1681,0,0
-406,-657,0,0,0,0,0,0,0,0,0,-1,818,1681,0,0
-399,-657,0,0,0,0,0,0,0,0,0,-1,825,1681,0,0
-392,-657,0,0,0,0,0,0,0,0,0,-1,832,1681,0,0
-385,-657,1.09814,6.18896,0,0,0,0,0,0,0,-1,839,1681,1.09814,-6.18894
-378,-657,0.31488,4.46753,0,0,0,0,0,0,0,-1,846,1681,0.31487,-4.46755
-371,-657,-0.519043,2.69421,0,0,0,0,0,0,0,-1,853,1681,-0.519064,-2.69422
-364,-657,-3.42017,4.18323,0,0,0,0,0,0,0,-1,860,1681,-3.42019,-4.18319
-357,-657,-4.41913,2.97168,0,0,0,0,0,0,0,-1,867,1681,-4.41913,-2.97165
-350,-657,-5.42291,1.70276,0,0,0,0,0,0,0,-1,874,1681,-5.42291,-1.70277
-343,-657,-6.51294,0.397339,0,0,0,0,0,0,0,-1,881,1681,-6.51295,-0.397335
-336,-657,3.52148,10.3204,0,0,0,0,0,0,0,-1,888,1681,3.52147,-10.3204
-329,-657,3.45038,10.5112,0,0,0,0,0,0,0,-1,895,1681,3.4504,-10.5113
-322,-657,3.62952,11.8407,0,0,0,0,0,0,0,-1,902,1681,3.62949,-11.8407
-315,-657,3.64972,12.0696,0.00367813,-0.0099847,0.000107973,0.00367898,-0.00998555,0.00790202,0.0081645,0.0438686,909,1681,3.64973,-12.0696
-308,-657,3.63489,12.2523,0.00496809,-0.00777879,0.00052344,0.00498955,-0.00780025,0.0409722,0.00744339,0.035115,916,1681,3.6349,-12.2523
-301,-657,3.70953,12.2931,0.00563375,-0.0058386,0.000803093,0.00568969,-0.00589455,0.0695504,0.00668851,0.0259833,923,1681,3.70952,-12.2931
-294,-657,3.76611,12.4279,0.00616492,-0.00423735,0.00110365,0.00628072,-0.00435315,0.104547,0.006173,0.0147245,930,1681,3.76612,-12.4278
-287,-657,3.77649,12.6145,0.00634099,-0.002945,0.00135122,0.00653361,-0.00313762,0.141601,0.00569728,0.0102552,937,1681,3.7765,-12.6145
-280,-657,3.78198,12.7894,0.00606019,-0.00203014,0.00144083,0.00630913,-0.00227908,0.171087,0.00513716,0.0131851,944,1681,3.78197,-12.7894
-273,-657,3.78076,12.9771,0.00566977,-0.00152706,0.00144055,0.00594741,-0.0018047,0.190394,0.00468387,0.0100542,951,1681,3.78076,-12.977
-266,-657,3.75629,13.1356,0.00519552,-0.00119435,0.00137349,0.00547824,-0.00147707,0.203006,0.00423134,0.0134795,958,1681,3.75631,-13.1356
-259,-657,3.76807,13.2954,0.00477696,-0.000910314,0.00124996,0.00503955,-0.00117291,0.20707,0.00381131,0.0172815,965,1681,3.76807,-13.2955
-252,-657,3.74805,13.4916,0.00405791,-0.000781628,0.000985228,0.00425079,-0.000974512,0.193331,0.00320842,0.0127071,972,1681,3.74805,-13.4915
-245,-657,3.76141,13.6638,0.00322714,-0.00114718,0.000941384,0.00342113,-0.00134116,0.203224,0.00283558,0.0152742,979,1681,3.7614,-13.6638
-238,-657,3.74738,13.8451,0.00243184,-0.00181156,0.00102636,0.00266705,-0.00204677,0.22528,0.00272937,0.0192468,986,1681,3.74736,-13.8452
-231,-657,3.74347,14.0225,0.00174722,-0.00252052,0.00110059,0.00201432,-0.00278763,0.238092,0.00278437,0.0193937,993,1681,3.74348,-14.0224
-224,-657,3.74396,14.2036,0.00112059,-0.00321482,0.00132261,0.00149222,-0.00358646,0.273921,0.00301413,0.0158736,1000,1681,3.74394,-14.2037
-217,-657,3.75531,14.3805,0.000529801,-0.00391857,0.00140452,0.000936144,-0.00432491,0.281622,0.00324071,0.0102789,1007,1681,3.7553,-14.3805
-210,-657,3.76373,14.528,4.81112e-05,-0.00471043,0.00165973,0.000569813,-0.00523213,0.30455,0.00369271,0.0102582,1014,1681,3.76373,-14.528
-203,-657,3.78198,14.6685,-0.000263081,-0.00548362,0.00210766,0.000481607,-0.00622831,0.339633,0.0043217,0.0126106,1021,1681,3.78193,-14.6685
-196,-657,3.80029,14.8035,-0.00041785,-0.00622205,0.00254761,0.000541718,-0.00718162,0.360221,0.00497815,0.0137458,1028,1681,3.80034,-14.8035
-189,-657,3.78564,14.9479,-0.0005802,-0.00662789,0.00293011,0.00060656,-0.00781466,0.384828,0.00542328,0.0102889,1035,1681,3.78561,-14.9479
-182,-657,3.79175,15.097,-0.000551867,-0.00632559,0.00319812,0.000869626,-0.00774708,0.418253,0.00547765,0.00812172,1042,1681,3.7918,-15.097
-175,-657,3.81335,15.2444,-0.000165732,-0.00589027,0.0033094,0.00134747,-0.00740347,0.42886,0.00544071,0.00942306,1049,1681,3.8133,-15.2444
-168,-657,3.79358,15.3938,0.000485292,-0.00524785,0.00337943,0.00205017,-0.00681273,0.433662,0.0053576,0.0112406,1056,1681,3.79357,-15.3938
-161,-657,3.771,15.5062,0.00123518,-0.00427891,0.00347692,0.00291551,-0.00595924,0.450183,0.00522332,0.0112136,1063,1681,3.77104,-15.5062
-154,-657,3.79907,15.6368,0.00238389,-0.00300844,0.00351249,0.00411569,-0.00474025,0.458065,0.00511721,0.0117517,1070,1681,3.79912,-15.6368
-147,-657,3.82739,15.7551,0.00358972,-0.00188679,0.00363817,0.00540497,-0.00370203,0.462802,0.00528848,0.0168039,1077,1681,3.82736,-15.7551
-140,-657,3.79138,15.9124,0.00478688,-0.000510639,0.0032447,0.00632668,-0.00205044,0.443087,0.00504221,0.027126,1084,1681,3.79143,-15.9124
-133,-657,3.78369,16.1501,0.00652857,0.00100161,0.00304016,0.00787354,-0.000343363,0.416517,0.00536714,0.0341171,1091,1681,3.78374,-16.1501
-126,-657,4.03186,16.1859,0.00835797,0.000809538,0.00392992,0.0100325,-0.000865002,0.402803,0.00699453,0.0397347,1098,1681,4.03186,-16.1859
-119,-657,4.38049,16.0244,0.00955597,-0.000691881,0.00472019,0.0113987,-0.00253465,0.372204,0.0085699,0.0470756,1105,1681,4.38049,-16.0244
-112,-657,4.38379,16.0895,0,0,0,0,0,0,0,-1,1112,1681,4.38374,-16.0894
-105,-657,3.82434,14.4906,0,0,0,0,0,0,0,-1,1119,1681,3.8244,-14.4906
-98,-657,3.78662,8.16785,0,0,0,0,0,0,0,-1,1126,1681,3.78663,-8.16786
-91,-657,4.93604,14.6879,0,0,0,0,0,0,0,-1,1133,1681,4.93605,-14.6878
-84,-657,4.08008,10.4579,0,0,0,0,0,0,0,-1,1140,1681,4.08006,-10.4579
-77,-657,-5.29846,0.396606,0,0,0,0,0,0,0,-1,1147,1681,-5.29842,-0.396573
-70,-657,-4.14893,2.14575,0,0,0,0,0,0,0,-1,1154,1681,-4.14893,-2.1458
-63,-657,-4.1239,3.177,0,0,0,0,0,0,0,-1,1161,1681,-4.12391,-3.17698
-56,-657,-6.40576,5.73987,0,0,0,0,0,0,0,-1,1168,1681,-6.40577,-5.7399
-49,-657,-5.98462,7.54053,0,0,0,0,0,0,0,-1,1175,1681,-5.98466,-7.5405
-42,-657,-5.71948,9.28955,0,0,0,0,0,0,0,-1,1182,1681,-5.71951,-9.2895
-35,-657,-5.44556,11.015,0,0,0,0,0,0,0,-1,1189,1681,-5.44555,-11.015
-28,-657,-1.3446,8.92847,0,0,0,0,0,0,0,-1,1196,1681,-1.34459,-8.92848
-21,-657,7.3501,17.3489,0,0,0,0,0,0,0,-1,1203,1681,7.35005,-17.3489
-14,-657,5.98352,17.3348,-0.0581285,0.0344652,0.023827,0.0402368,-0.0639001,1.33314,0.0606387,0.0460615,1210,1681,5.98346,-17.3348
-7,-657,4.53955,17.3619,-0.0452392,0.046181,0.0286534,0.0544193,-0.0534775,1.29083,0.062295,0.0434241,1217,1681,4.5395,-17.362
0,-657,4.42517,17.0355,0,0,0,0,0,0,0,-1,1224,1681,4.42518,-17.0355
7,-657,5.83569,17.0438,-0.0138275,0.0778618,0.0389796,0.092193,-0.0281587,1.21848,0.0726896,0.0442033,1231,1681,5.83574,-17.0438
14,-657,6.81262,16.1547,0.00207821,0.0875335,0.042047,0.104752,-0.0151408,1.18211,0.0753904,0.0414826,1238,1681,6.81262,-16.1547
21,-657,5.47791,16.8646,0.0159553,0.0935929,0.044331,0.113699,-0.00415078,1.145,0.0772201,0.0428306,1245,1681,5.47788,-16.8647
28,-657,5.41431,16.035,0.0228622,0.093019,0.0446095,0.11469,0.00119115,1.11858,0.0760661,0.0447343,1252,1681,5.41435,-16.0351
35,-657,5.19336,15.3306,0.0245856,0.0873353,0.0436045,0.109679,0.00224141,1.09726,0.0723841,0.0437383,1259,1681,5.19336,-15.3306
42,-657,4.97778,14.7009,0,0,0,0,0,0,0,-1,1266,1681,4.97782,-14.7009
49,-657,4.56335,16.8534,0.0198229,0.067342,0.0407622,0.0907636,-0.00359884,1.04927,0.0617437,0.0450735,1273,1681,4.56339,-16.8534
56,-657,5.97302,17.3282,0.00973405,0.0529168,0.0374371,0.0745426,-0.0118917,1.04697,0.0540964,0.0437419,1280,1681,5.97307,-17.3283
63,-657,7.59436,17.6932,-0.00467741,0.0388446,0.033927,0.0573898,-0.0232225,1.07055,0.0479148,0.0446152,1287,1681,7.59436,-17.6932
70,-657,8.38086,18.6044,-0.0178641,0.0253694,0.0275292,0.0387546,-0.0312493,1.11823,0.0404941,0.0486429,1294,1681,8.3809,-18.6044
77,-657,7.45129,17.7688,-0.032039,0.0111447,0.0228404,0.0209837,-0.0418779,1.16405,0.0369554,0.0441677,1301,1681,7.45124,-17.7688
84,-657,6.31262,17.1571,-0.0458845,0.00234715,0.0194159,0.0091918,-0.0527291,1.23187,0.0385834,0.0433234,1308,1681,6.31264,-17.1571
91,-657,5.61169,16.8916,-0.0581069,-0.000658631,0.0150905,0.00306409,-0.0618296,1.32893,0.0422781,0.0440215,1315,1681,5.61169,-16.8916
98,-657,5.17322,16.7394,-0.0686634,0.00112505,0.0114391,0.00295221,-0.0704905,1.41241,0.048008,0.0447391,1322,1681,5.17327,-16.7394
105,-657,4.39868,16.6488,-0.0722464,0.00478761,0.00606044,0.00526149,-0.0727203,1.49276,0.0503258,0.0453659,1329,1681,4.3987,-16.6488
112,-657,3.50024,16.924,-0.0681738,0.0173039,0.00449443,0.0175396,-0.0684095,1.51841,0.0524399,0.0432048,1336,1681,3.50025,-16.9239
119,-657,2.3241,16.7618,-0.0597814,0.0314942,0.00351704,0.0316295,-0.0599167,1.53234,0.0536887,0.0444164,1343,1681,2.32407,-16.7619
126,-657,1.33191,16.2665,0,0,0,0,0,0,0,-1,1350,1681,1.33193,-16.2665
133,-657,0.337769,15.7833,0,0,0,0,0,0,0,-1,1357,1681,0.337709,-15.7834
140,-657,-0.529541,15.1368,0,0,0,0,0,0,0,-1,1364,1681,-0.52952,-15.1368
147,-657,-1.53259,14.7609,0,0,0,0,0,0,0,-1,1371,1681,-1.53256,-14.7608
154,-657,12.2501,7.70422,0,0,0,0,0,0,0,-1,1378,1681,12.2501,-7.70418
161,-657,12.8524,6.43372,0,0,0,0,0,0,0,-1,1385,1681,12.8524,-6.43366
168,-657,5.21643,0.70105,0,0,0,0,0,0,0,-1,1392,1681,5.21648,-0.7011
175,-657,5.52771,0.649048,0,0,0,0,0,0,0,-1,1399,1681,5.52774,-0.649019
182,-657,5.73999,1.02612,0,0,0,0,0,0,0,-1,1406,1681,5.73995,-1.02611
189,-657,5.92126,1.44116,0,0,0,0,0,0,0,-1,1413,1681,5.92126,-1.44115
196,-657,4.92834,9.59021,0,0,0,0,0,0,0,-1,1420,1681,4.9284,-9.59018
203,-657,6.26343,5.16492,0,0,0,0,0,0,0,-1,1427,1681,6.26345,-5.16488
210,-657,3.9856,5.28088,0,0,0,0,0,0,0,-1,1434,1681,3.98555,-5.28084
217,-657,3.95178,5.2843,0,0,0,0,0,0,0,-1,1441,1681,3.95174,-5.28431
224,-657,6.66736,-0.250244,0,0,0,0,0,0,0,-1,1448,1681,6.66737,0.250229
231,-657,6.85498,-1.70752,0,0,0,0,0,0,0,-1,1455,1681,6.855,1.70758
238,-657,5.34143,-2.89819,0,0,0,0,0,0,0,-1,1462,1681,5.34143,2.89813
245,-657,8.66003,-0.102783,0,0,0,0,0,0,0,-1,1469,1681,8.66,0.102824
252,-657,4.78955,0.623779,0,0,0,0,0,0,0,-1,1476,1681,4.7895,-0.623826
259,-657,2.61523,4.31909,0,0,0,0,0,0,0,-1,1483,1681,2.61523,-4.31908
266,-657,5.35437,11.4742,0,0,0,0,0,0,0,-1,1490,1681,5.35441,-11.4742
273,-657,5.65344,15.9528,0,0,0,0,0,0,0,-1,1497,1681,5.6535,-15.9528
280,-657,5.67444,16.0122,0.0125528,-0.00908484,0.00139131,0.0126419,-0.00917393,0.0639494,0.0126483,0.0372845,1504,1681,5.67445,-16.0122
287,-657,5.87964,16.0483,0.011605,-0.00792007,0.00159604,0.0117346,-0.00804968,0.081026,0.0114883,0.0334663,1511,1681,5.87965,-16.0483
294,-657,5.92627,16.0214,0.0105874,-0.00697271,0.00174638,0.0107594,-0.00714471,0.0981701,0.0104069,0.0261577,1518,1681,5.92622,-16.0213
301,-657,5.91626,15.9467,0.00955573,-0.00547106,0.00171916,0.0097499,-0.00566524,0.11247,0.00900348,0.015697,1525,1681,5.91624,-15.9466
308,-657,5.94727,15.8373,0.00848048,-0.00414233,0.0017661,0.00872293,-0.00438477,0.136424,0.00770465,0.011455,1532,1681,5.94724,-15.8372
315,-657,5.96802,15.7188,0.00734493,-0.00306811,0.00165141,0.00760055,-0.00332374,0.153572,0.00646625,0.0105951,1539,1681,5.96805,-15.7188
322,-657,5.96912,15.5776,0.00618537,-0.00202959,0.00143398,0.00642849,-0.00227271,0.167943,0.00521113,0.0128972,1546,1681,5.96917,-15.5776
329,-657,5.96936,15.4257,0.00512963,-0.00115378,0.00119503,0.00534923,-0.00137339,0.181738,0.00410133,0.0196352,1553,1681,5.96937,-15.4257
336,-657,5.94958,15.3147,0.00411614,-0.000455149,0.00102338,0.00433479,-0.000673796,0.210487,0.00313866,0.0171218,1560,1681,5.94958,-15.3147
343,-657,5.96887,15.2041,0.00307576,6.68705e-05,0.000861429,0.00330493,-0.000162298,0.26001,0.00225933,0.0124402,1567,1681,5.96883,-15.2041
350,-657,5.98596,15.0466,0.00236192,0.000331998,0.00054709,0.00249998,0.00019394,0.247189,0.00160592,0.0147621,1574,1681,5.98602,-15.0466
357,-657,5.98071,14.8955,0.00191451,0.000386808,0.000272066,0.00196152,0.000339802,0.171083,0.00121042,0.0144018,1581,1681,5.98075,-14.8955
364,-657,5.9884,14.7828,0.0015832,0.000427444,-1.65325e-05,0.00158343,0.000427208,-0.0143006,0.000945942,0.00994646,1588,1681,5.98841,-14.7829
371,-657,5.98804,14.6453,0.00138324,0.000368247,-0.000290832,0.00146067,0.000290819,-0.260192,0.00089277,0.0137611,1595,1681,5.98808,-14.6452
378,-657,5.97058,14.4711,0.00111404,0.000341517,-0.000655587,0.00148869,-3.31367e-05,-0.519184,0.00100369,0.0140208,1602,1681,5.97063,-14.4711
385,-657,5.9552,14.3053,0.00108045,0.000757382,-0.00109361,0.00202439,-0.000186562,-0.712076,0.00141588,0.0115529,1609,1681,5.95525,-14.3053
392,-657,5.96936,14.1603,0.00130171,0.00180331,-0.00151394,0.00308708,1.79384e-05,-0.867482,0.0020521,0.0120463,1616,1681,5.96933,-14.1602
399,-657,5.99634,14.0099,0.00129102,0.00255393,-0.0018852,0.00391062,-6.56655e-05,-0.947002,0.00262924,0.0124963,1623,1681,5.9963,-14.0099
406,-657,5.9967,13.8472,0.00127086,0.00321003,-0.00207131,0.00452745,-4.65631e-05,-1.0043,0.00303394,0.0132442,1630,1681,5.99673,-13.8472
413,-657,5.99597,13.6821,0.00163408,0.0039865,-0.00227749,0.00537357,0.000247008,-1.02376,0.00350295,0.0131128,1637,1681,5.99592,-13.6821
420,-657,6.00708,13.4886,0.00208368,0.00473441,-0.00255176,0.00628447,0.000533619,-1.02492,0.00402358,0.0147099,1644,1681,6.00713,-13.4887
427,-657,5.95337,13.2793,0.00226743,0.00534384,-0.00264245,0.00686319,0.000748081,-1.04898,0.0043476,0.0181366,1651,1681,5.95333,-13.2793
434,-657,5.94702,13.0934,0.00256879,0.00651293,-0.00269145,0.00787746,0.00120426,-1.10157,0.0048998,0.0256626,1658,1681,5.94699,-13.0934
441,-657,5.953,12.8405,0.00510095,0.00797418,-0.000531675,0.00806941,0.00500572,-1.39357,0.00470363,0.0431366,1665,1681,5.95296,-12.8404
448,-657,5.72949,13.2792,0,0,0,0,0,0,0,-1,1672,1681,5.72943,-13.2792
455,-657,5.26318,13.7318,0,0,0,0,0,0,0,-1,1679,1681,5.26315,-13.7318
462,-657,5.89697,13.0681,0,0,0,0,0,0,0,-1,1686,1681,5.89703,-13.0681
469,-657,4.26965,11.9387,0,0,0,0,0,0,0,-1,1693,1681,4.2697,-11.9387
476,-657,8.37659,10.886,0,0,0,0,0,0,0,-1,1700,1681,8.37653,-10.886
483,-657,7.65344,7.35059,0,0,0,0,0,0,0,-1,1707,1681,7.65347,-7.3506
490,-657,3.58337,10.4789,0,0,0,0,0,0,0,-1,1714,1681,3.58338,-10.4789
497,-657,4.08655,10.1487,0,0,0,0,0,0,0,-1,1721,1681,4.08655,-10.1487
504,-657,0,0,0,0,0,0,0,0,0,-1,1728,1681,0,0
511,-657,0,0,0,0,0,0,0,0,0,-1,1735,1681,0,0
518,-657,0,0,0,0,0,0,0,0,0,-1,1742,1681,0,0
525,-657,0,0,0,0,0,0,0,0,0,-1,1749,1681,0,0
532,-657,0,0,0,0,0,0,0,0,0,-1,1756,1681,0,0
539,-657,0,0,0,0,0,0,0,0,0,-1,1763,1681,0,0
546,-657,0,0,0,0,0,0,0,0,0,-1,1770,1681,0,0
553,-657,0,0,0,0,0,0,0,0,0,-1,1777,1681,0,0
560,-657,0,0,0,0,0,0,0,0,0,-1,1784,1681,0,0
567,-657,0,0,0,0,0,0,0,0,0,-1,1791,1681,0,0
574,-657,0,0,0,0,0,0,0,0,0,-1,1798,1681,0,0
581,-657,0,0,0,0,0,0,0,0,0,-1,1805,1681,0,0
588,-657,0,0,0,0,0,0,0,0,0,-1,1812,1681,0,0
595,-657,0,0,0,0,0,0,0,0,0,-1,1819,1681,0,0
602,-657,0,0,0,0,0,0,0,0,0,-1,1826,1681,0,0
609,-657,0,0,0,0,0,0,0,0,0,-1,1833,1681,0,0
616,-657,0,0,0,0,0,0,0,0,0,-1,1840,1681,0,0
623,-657,0,0,0,0,0,0,0,0,0,-1,1847,1681,0,0
630,-657,0,0,0,0,0,0,0,0,0,-1,1854,1681,0,0
637,-657,0,0,0,0,0,0,0,0,0,-1,1861,1681,0,0
644,-657,0,0,0,0,0,0,0,0,0,-1,1868,1681,0,0
651,-657,0,0,0,0,0,0,0,0,0,-1,1875,1681,0,0
658,-657,0,0,0,0,0,0,0,0,0,-1,1882,1681,0,0
665,-657,0,0,0,0,0,0,0,0,0,-1,1889,1681,0,0
672,-657,0,0,0,0,0,0,0,0,0,-1,1896,1681,0,0
679,-657,0,0,0,0,0,0,0,0,0,-1,1903,1681,0,0
686,-657,0,0,0,0,0,0,0,0,0,-1,1910,1681,0,0
693,-657,0,0,0,0,0,0,0,0,0,-1,1917,1681,0,0
700,-657,0,0,0,0,0,0,0,0,0,-1,1924,1681,0,0
707,-657,0,0,0,0,0,0,0,0,0,-1,1931,1681,0,0
714,-657,0,0,0,0,0,0,0,0,0,-1,1938,1681,0,0
721,-657,0,0,0,0,0,0,0,0,0,-1,1945,1681,0,0
728,-657,0,0,0,0,0,0,0,0,0,-1,1952,1681,0,0
735,-657,0,0,0,0,0,0,0,0,0,-1,1959,1681,0,0
742,-657,0,0,0,0,0,0,0,0,0,-1,1966,1681,0,0
749,-657,0,0,0,0,0,0,0,0,0,-1,1973,1681,0,0
756,-657,0,0,0,0,0,0,0,0,0,-1,1980,1681,0,0
763,-657,0,0,0,0,0,0,0,0,0,-1,1987,1681,0,0
770,-657,0,0,0,0,0,0,0,0,0,-1,1994,1681,0,0
777,-657,0,0,0,0,0,0,0,0,0,-1,2001,1681,0,0
784,-657,0,0,0,0,0,0,0,0,0,-1,2008,1681,0,0
791,-657,0,0,0,0,0,0,0,0,0,-1,2015,1681,0,0
798,-657,0,0,0,0,0,0,0,0,0,-1,2022,1681,0,0
805,-657,0,0,0,0,0,0,0,0,0,-1,2029,1681,0,0
812,-657,0,0,0,0,0,0,0,0,0,-1,2036,1681,0,0
-700,-664,0,0,0,0,0,0,0,0,0,-1,524,1688,0,0
-693,-664,0,0,0,0,0,0,0,0,0,-1,531,1688,0,0
-686,-664,0,0,0,0,0,0,0,0,0,-1,538,1688,0,0
-679,-664,0,0,0,0,0,0,0,0,0,-1,545,1688,0,0
-672,-664,0,0,0,0,0,0,0,0,0,-1,552,1688,0,0
-665,-664,0,0,0,0,0,0,0,0,0,-1,559,1688,0,0
-658,-664,0,0,0,0,0,0,0,0,0,-1,566,1688,0,0
-651,-664,0,0,0,0,0,0,0,0,0,-1,573,1688,0,0
-644,-664,0,0,0,0,0,0,0,0,0,-1,580,1688,0,0
-637,-664,0,0,0,0,0,0,0,0,0,-1,587,1688,0,0
-630,-664,0,0,0,0,0,0,0,0,0,-1,594,1688,0,0
-623,-664,0,0,0,0,0,0,0,0,0,-1,601,1688,0,0
-616,-664,0,0,0,0,0,0,0,0,0,-1,608,1688,0,0
-609,-664,0,0,0,0,0,0,0,0,0,-1,615,1688,0,0
-602,-664,0,0,0,0,0,0,0,0,0,-1,622,1688,0,0
-595,-664,0,0,0,0,0,0,0,0,0,-1,629,1688,0,0
-588,-664,0,0,0,0,0,0,0,0,0,-1,636,1688,0,0
-581,-664,0,0,0,0,0,0,0,0,0,-1,643,1688,0,0
-574,-664,0,0,0,0,0,0,0,0,0,-1,650,1688,0,0
-567,-664,0,0,0,0,0,0,0,0,0,-1,657,1688,0,0
-560,-664,0,0,0,0,0,0,0,0,0,-1,664,1688,0,0
-553,-664,0,0,0,0,0,0,0,0,0,-1,671,1688,0,0
-546,-664,0,0,0,0,0,0,0,0,0,-1,678,1688,0,0
-539,-664,0,0,0,0,0,0,0,0,0,-1,685,1688,0,0
-532,-664,0,0,0,0,0,0,0,0,0,-1,692,1688,0,0
-525,-664,0,0,0,0,0,0,0,0,0,-1,699,1688,0,0
-518,-664,0,0,0,0,0,0,0,0,0,-1,706,1688,0,0
-511,-664,0,0,0,0,0,0,0,0,0,-1,713,1688,0,0
-504,-664,0,0,0,0,0,0,0,0,0,-1,720,1688,0,0
-497,-664,0,0,0,0,0,0,0,0,0,-1,727,1688,0,0
-490,-664,0,0,0,0,0,0,0,0,0,-1,734,1688,0,0
-483,-664,0,0,0,0,0,0,0,0,0,-1,741,1688,0,0
-476,-664,0,0,0,0,0,0,0,0,0,-1,748,1688,0,0
-469,-664,0,0,0,0,0,0,0,0,0,-1,755,1688,0,0
-462,-664,0,0,0,0,0,0,0,0,0,-1,762,1688,0,0
-455,-664,0,0,0,0,0,0,0,0,0,-1,769,1688,0,0
-448,-664,0,0,0,0,0,0,0,0,0,-1,776,1688,0,0
-441,-664,0,0,0,0,0,0,0,0,0,-1,783,1688,0,0
-434,-664,0,0,0,0,0,0,0,0,0,-1,790,1688,0,0
-427,-664,0,0,0,0,0,0,0,0,0,-1,797,1688,0,0
-420,-664,0,0,0,0,0,0,0,0,0,-1,804,1688,0,0
-413,-664,0,0,0,0,0,0,0,0,0,-1,811,1688,0,0
-406,-664,0,0,0,0,0,0,0,0,0,-1,818,1688,0,0
-399,-664,0,0,0,0,0,0,0,0,0,-1,825,1688,0,0
-392,-664,0,0,0,0,0,0,0,0,0,-1,832,1688,0,0
-385,-664,0,0,0,0,0,0,0,0,0,-1,839,1688,0,0
-378,-664,0,0,0,0,0,0,0,0,0,-1,846,1688,0,0
-371,-664,-1.61676,5.92737,0,0,0,0,0,0,0,-1,853,1688,-1.61675,-5.92735
-364,-664,-3.901,5.87024,0,0,0,0,0,0,0,-1,860,1688,-3.90097,-5.87027
-357,-664,-4.81012,4.53479,0,0,0,0,0,0,0,-1,867,1688,-4.81012,-4.5348
-350,-664,-5.7193,3.19934,0,0,0,0,0,0,0,-1,874,1688,-5.71927,-3.19932
-343,-664,-6.37476,1.54712,0,0,0,0,0,0,0,-1,881,1688,-6.37479,-1.54714
-336,-664,3.33313,10.5156,0,0,0,0,0,0,0,-1,888,1688,3.33311,-10.5156
-329,-664,3.43506,10.6934,0,0,0,0,0,0,0,-1,895,1688,3.43506,-10.6934
-322,-664,4.07983,11.6534,0,0,0,0,0,0,0,-1,902,1688,4.07986,-11.6535
-315,-664,4.04169,12.2666,0.00726126,-0.011731,-0.000312158,0.00726639,-0.0117362,-0.0164301,0.0110718,0.0466952,909,1688,4.04171,-12.2666
-308,-664,3.64868,12.5159,0.00906589,-0.00885595,0.000298851,0.00907087,-0.00886094,0.016669,0.0103532,0.045165,916,1688,3.64865,-12.5159
-301,-664,3.75739,12.3861,0.00994551,-0.00644373,0.000757892,0.00998049,-0.00647871,0.0461121,0.00957414,0.0421562,923,1688,3.75739,-12.3861
-294,-664,3.90625,12.4279,0.010511,-0.00451424,0.00121527,0.0106087,-0.0046119,0.0801873,0.00901208,0.0394624,930,1688,3.90624,-12.4278
-287,-664,4.01227,12.6487,0.0105975,-0.00300044,0.00160027,0.0107833,-0.00318623,0.115581,0.00845354,0.02812,937,1688,4.01229,-12.6487
-280,-664,3.92615,12.8059,0.0100103,-0.0020032,0.00178374,0.0102695,-0.00226245,0.144332,0.00771193,0.019263,944,1688,3.92612,-12.8059
-273,-664,3.95178,12.939,0.00918963,-0.00149706,0.0017874,0.00948066,-0.00178808,0.161405,0.00699309,0.0153998,951,1688,3.9518,-12.939
-266,-664,3.91003,13.101,0.00824731,-0.001153,0.0017045,0.00854683,-0.00145252,0.173948,0.00623868,0.0213323,958,1688,3.91001,-13.1009
-259,-664,3.91211,13.2927,0.00738288,-0.000819421,0.00153184,0.00765963,-0.00109616,0.178733,0.00550828,0.0177156,965,1688,3.9121,-13.2928
-252,-664,3.93182,13.4929,0.00616406,-0.000672312,0.00119925,0.00636833,-0.000876582,0.168713,0.00456588,0.0158885,972,1688,3.93185,-13.4929
-245,-664,3.89178,13.6874,0.00480219,-0.00085841,0.000970167,0.00496385,-0.00102007,0.165114,0.00369647,0.0200104,979,1688,3.89176,-13.6873
-238,-664,3.91785,13.8597,0.0035705,-0.00121675,0.000829994,0.00371032,-0.00135657,0.166889,0.00302876,0.02243,986,1688,3.91782,-13.8598
-231,-664,3.92212,14.0184,0.00260323,-0.00161208,0.000763168,0.00273714,-0.00174599,0.173704,0.00260934,0.0191993,993,1688,3.92214,-14.0184
-224,-664,3.91449,14.1989,0.00168188,-0.00197518,0.000818658,0.00185678,-0.00215008,0.210476,0.00231542,0.0137762,1000,1688,3.91451,-14.1988
-217,-664,3.92108,14.3671,0.000855843,-0.0022781,0.000632354,0.000978626,-0.00240088,0.191782,0.00200793,0.0102618,1007,1688,3.92109,-14.3671
-210,-664,3.92859,14.5175,0.000241232,-0.00264194,0.000652714,0.000382114,-0.00278282,0.21258,0.00199482,0.0110929,1014,1688,3.92857,-14.5174
-203,-664,3.91797,14.6598,-0.000104433,-0.00298649,0.00095602,0.000183855,-0.00327478,0.292879,0.00224698,0.0133761,1021,1688,3.91793,-14.6598
-196,-664,3.92554,14.7941,-0.000182914,-0.00336838,0.00126774,0.000260023,-0.00381132,0.336133,0.00263184,0.0136086,1028,1688,3.92553,-14.7941
-189,-664,3.93774,14.9489,-0.000255659,-0.00355944,0.00152721,0.000342143,-0.00415724,0.3731,0.0028923,0.00950185,1035,1688,3.93773,-14.9489
-182,-664,3.93799,15.0862,-0.000161813,-0.00325627,0.00169846,0.000588492,-0.00400658,0.415978,0.00288728,0.00898566,1042,1688,3.938,-15.0862
-175,-664,3.94604,15.1969,0.000244696,-0.0029057,0.00177873,0.00104545,-0.00370645,0.423004,0.00288333,0.0116256,1049,1688,3.94602,-15.1969
-168,-664,3.94031,15.3464,0.000819629,-0.00247955,0.0018558,0.00165301,-0.00331293,0.422079,0.00291999,0.0135838,1056,1688,3.94025,-15.3465
-161,-664,3.91943,15.4911,0.00144258,-0.00189076,0.00197217,0.00235801,-0.00280619,0.434578,0.00298529,0.00984511,1063,1688,3.91945,-15.4911
-154,-664,3.93982,15.6176,0.00239058,-0.00115312,0.00206005,0.00333594,-0.00209849,0.430234,0.00316457,0.00971611,1070,1688,3.93984,-15.6175
-147,-664,3.94556,15.7496,0.00335511,-0.000614304,0.00224182,0.00436454,-0.00162373,0.423078,0.003576,0.0107864,1077,1688,3.94551,-15.7497
-140,-664,3.95898,15.8619,0.0042217,-0.000180942,0.0021629,0.00510647,-0.00106571,0.388297,0.00380956,0.0102491,1084,1688,3.95892,-15.8619
-133,-664,3.98975,15.9622,0.00542273,0.000101799,0.00224715,0.00624476,-0.00072023,0.350689,0.00442284,0.0108096,1091,1688,3.98978,-15.9621
-126,-664,4.10132,16.0508,0.00669945,-0.000403875,0.00292291,0.00774754,-0.00145196,0.344295,0.00571088,0.0203346,1098,1688,4.10127,-16.0508
-119,-664,4.28247,16.0276,0.00763683,-0.00170577,0.00355656,0.00883666,-0.00290559,0.325367,0.00706178,0.0355157,1105,1688,4.28241,-16.0276
-112,-664,4.29785,16.1937,0.00836307,-0.00360246,0.00416998,0.00967292,-0.00491231,0.304354,0.008569,0.0457116,1112,1688,4.29786,-16.1937
-105,-664,4.10986,16.3108,0,0,0,0,0,0,0,-1,1119,1688,4.10985,-16.3107
-98,-664,4.84473,15.4922,0,0,0,0,0,0,0,-1,1126,1688,4.84468,-15.4922
-91,-664,4.63745,15.4751,0,0,0,0,0,0,0,-1,1133,1688,4.63747,-15.4751
-84,-664,4.31238,15.2491,0,0,0,0,0,0,0,-1,1140,1688,4.31241,-15.2491
-77,-664,4.52014,11.2122,0,0,0,0,0,0,0,-1,1147,1688,4.5202,-11.2122
-70,-664,4.20374,8.24524,0,0,0,0,0,0,0,-1,1154,1688,4.20379,-8.24519
-63,-664,-4.677,2.40503,0,0,0,0,0,0,0,-1,1161,1688,-4.67702,-2.40498
-56,-664,-4.66504,3.32727,0,0,0,0,0,0,0,-1,1168,1688,-4.6651,-3.32724
-49,-664,-2.54297,3.31848,0,0,0,0,0,0,0,-1,1175,1688,-2.54297,-3.31852
-42,-664,-0.359253,4.38684,0,0,0,0,0,0,0,-1,1182,1688,-0.359261,-4.38685
-35,-664,-0.705566,3.55017,0,0,0,0,0,0,0,-1,1189,1688,-0.705567,-3.55023
-28,-664,-1.54236,10.2538,0,0,0,0,0,0,0,-1,1196,1688,-1.54236,-10.2538
-21,-664,4.25073,21.5817,0,0,0,0,0,0,0,-1,1203,1688,4.25078,-21.5816
-14,-664,4.57117,16.8777,0,0,0,0,0,0,0,-1,1210,1688,4.57113,-16.8776
-7,-664,4.53259,17.2925,-0.0310403,0.0359333,0.0207155,0.0418229,-0.0369298,1.2938,0.0454971,0.0470102,1217,1688,4.53262,-17.2924
0,-664,4.55981,16.9735,-0.0200452,0.0483522,0.0253831,0.0567428,-0.0284358,1.25154,0.0500749,0.0472815,1224,1688,4.55978,-16.9735
7,-664,4.81677,16.6495,-0.0075458,0.0579483,0.0281459,0.0683818,-0.0179793,1.21581,0.0526151,0.0462246,1231,1688,4.81675,-16.6495
14,-664,4.96606,16.1942,0.00491139,0.0646184,0.0303503,0.0773368,-0.00780704,1.17397,0.0543475,0.0432632,1238,1688,4.96604,-16.1942
21,-664,4.81555,15.9507,0.0159821,0.0691249,0.0321765,0.0842831,0.000823818,1.13054,0.0559162,0.043542,1245,1688,4.81554,-15.9506
28,-664,4.70923,15.5758,0.0216767,0.0687033,0.0325531,0.085347,0.00503302,1.09817,0.0552967,0.0461373,1252,1688,4.70923,-15.5759
35,-664,4.57458,15.1963,0,0,0,0,0,0,0,-1,1259,1688,4.57464,-15.1963
42,-664,3.80823,16.2103,0.0232976,0.0575322,0.0316238,0.0763742,0.00445564,1.03346,0.0494978,0.0456056,1266,1688,3.80825,-16.2104
49,-664,5.24536,16.7112,0.0205346,0.0492251,0.0307299,0.0687932,0.000966512,1.00377,0.0455434,0.044327,1273,1688,5.24534,-16.7112
56,-664,6.32019,17.4746,0.0124366,0.0383332,0.028608,0.0567867,-0.00601688,0.99791,0.0400145,0.0457297,1280,1688,6.32019,-17.4746
63,-664,7.49365,17.8016,0.000276983,0.0274637,0.0260041,0.043213,-0.0154724,1.02623,0.0351212,0.0493025,1287,1688,7.49367,-17.8016
70,-664,7.85681,18.8699,-0.0115309,0.0168193,0.0210959,0.0280602,-0.0227717,1.08122,0.0294007,0.0492513,1294,1688,7.85681,-18.8699
77,-664,6.53833,18.0431,-0.024195,0.00559626,0.0175736,0.0137378,-0.0323366,1.13695,0.0273139,0.0427341,1301,1688,6.53833,-18.0431
84,-664,6.05249,17.6392,-0.0367748,-0.00144642,0.0149225,0.00401309,-0.0422343,1.22007,0.0295847,0.0428817,1308,1688,6.05246,-17.6392
91,-664,5.35535,17.1833,-0.0480427,-0.00406123,0.0115505,-0.00121237,-0.0508916,1.32898,0.0335309,0.0435204,1315,1688,5.3554,-17.1833
98,-664,4.66052,18.9966,-0.0582003,-0.00292022,0.00860918,-0.00161048,-0.05951,1.41982,0.0391476,0.0493252,1322,1688,4.66047,-18.9965
105,-664,3.91931,16.6683,0,0,0,0,0,0,0,-1,1329,1688,3.91935,-16.6683
112,-664,3.05286,16.8417,-0.0614522,0.00853841,0.00273472,0.0086451,-0.0615589,1.5318,0.0442036,0.0429985,1336,1688,3.05285,-16.8417
119,-664,1.8988,16.5414,-0.0559318,0.0192387,0.00187649,0.0192855,-0.0559786,1.54585,0.0451423,0.0494188,1343,1688,1.89885,-16.5413
126,-664,0.797729,16.1571,0,0,0,0,0,0,0,-1,1350,1688,0.797744,-16.1571
133,-664,-0.046875,15.3007,0,0,0,0,0,0,0,-1,1357,1688,-0.0468317,-15.3007
140,-664,-0.945923,14.6464,0,0,0,0,0,0,0,-1,1364,1688,-0.945867,-14.6464
147,-664,5.8739,17.0895,0,0,0,0,0,0,0,-1,1371,1688,5.8739,-17.0894
154,-664,13.5482,5.89453,0,0,0,0,0,0,0,-1,1378,1688,13.5482,-5.8945
161,-664,4.60132,1.56238,0,0,0,0,0,0,0,-1,1385,1688,4.60134,-1.56233
168,-664,5.172,1.25488,0,0,0,0,0,0,0,-1,1392,1688,5.17203,-1.25484
175,-664,5.58313,1.16467,0,0,0,0,0,0,0,-1,1399,1688,5.58317,-1.16466
182,-664,5.74268,1.41113,0,0,0,0,0,0,0,-1,1406,1688,5.74263,-1.41115
189,-664,5.87744,1.87061,0,0,0,0,0,0,0,-1,1413,1688,5.87745,-1.87065
196,-664,6.7594,5.97473,0,0,0,0,0,0,0,-1,1420,1688,6.75943,-5.97478
203,-664,5.38452,5.22034,0,0,0,0,0,0,0,-1,1427,1688,5.38453,-5.2203
210,-664,5.25549,6.45715,0,0,0,0,0,0,0,-1,1434,1688,5.25549,-6.45721
217,-664,5.72009,6.73975,0,0,0,0,0,0,0,-1,1441,1688,5.72014,-6.73972
224,-664,5.05725,7.42908,0,0,0,0,0,0,0,-1,1448,1688,5.05723,-7.42912
231,-664,5.13318,7.60864,0,0,0,0,0,0,0,-1,1455,1688,5.13313,-7.60862
238,-664,4.23193,6.45471,0,0,0,0,0,0,0,-1,1462,1688,4.23197,-6.45476
245,-664,4.42004,6.80896,0,0,0,0,0,0,0,-1,1469,1688,4.4201,-6.80901
252,-664,3.67346,6.85461,0,0,0,0,0,0,0,-1,1476,1688,3.6734,-6.85462
259,-664,4.55823,11.7435,0,0,0,0,0,0,0,-1,1483,1688,4.55826,-11.7435
266,-664,5.7384,16.2306,0,0,0,0,0,0,0,-1,1490,1688,5.73837,-16.2306
273,-664,5.76013,16.2518,0.00853401,-0.00784097,0.000762629,0.00856945,-0.00787641,0.0464388,0.00949783,0.0320859,1497,1688,5.76013,-16.2519
280,-664,5.7594,16.2397,0.00862287,-0.00697511,0.00101503,0.00868865,-0.00704089,0.0647104,0.00909805,0.0225949,1504,1688,5.75936,-16.2397
287,-664,5.72949,16.1251,0.00808218,-0.00611866,0.00107672,0.00816335,-0.00619983,0.0752473,0.00831838,0.0202869,1511,1688,5.72948,-16.1251
294,-664,5.77197,16.0363,0.00744166,-0.00541332,0.00112847,0.00753997,-0.00551163,0.0868988,0.00756562,0.0144991,1518,1688,5.77199,-16.0363
301,-664,5.79919,15.9471,0.00671274,-0.00428105,0.00108161,0.00681814,-0.00438645,0.0971427,0.00651955,0.0101385,1525,1688,5.79915,-15.9471
308,-664,5.82996,15.8289,0.00587993,-0.00319244,0.00106713,0.00600376,-0.00331627,0.115524,0.00545498,0.0105359,1532,1688,5.82993,-15.8289
315,-664,5.8396,15.7159,0.00495658,-0.00220982,0.000959138,0.00508272,-0.00233597,0.130772,0.00437995,0.0115165,1539,1688,5.83961,-15.7159
322,-664,5.85486,15.5923,0.00403148,-0.00122913,0.000795236,0.00414906,-0.00134671,0.146799,0.00330763,0.0148345,1546,1688,5.85492,-15.5923
329,-664,5.85376,15.4629,0.00320352,-0.000491058,0.000636381,0.00331006,-0.0005976,0.165881,0.00243052,0.0171624,1553,1688,5.85378,-15.4629
336,-664,5.84839,15.3167,0.00244307,0.00014322,0.000507741,0.00255017,3.61134e-05,0.2079,0.00168821,0.0140696,1560,1688,5.84845,-15.3167
343,-664,5.84802,15.1897,0.00172088,0.000688139,0.000336123,0.00182064,0.00058838,0.288515,0.00107284,0.010983,1567,1688,5.84797,-15.1897
350,-664,5.85889,15.0417,0.00124393,0.000943848,8.01941e-05,0.00126401,0.000923762,0.245427,0.000755254,0.0129423,1574,1688,5.85893,-15.0418
357,-664,5.84558,14.8901,0.00101726,0.000979601,-0.000151731,0.00115132,0.000845534,-0.723672,0.000688634,0.0130497,1581,1688,5.84558,-14.8901
364,-664,5.84314,14.7599,0.000934414,0.00100542,-0.000433989,0.00140536,0.000534479,-0.826212,0.000819094,0.0106863,1588,1688,5.84317,-14.7599
371,-664,5.86255,14.6321,0.000983675,0.00089812,-0.000713542,0.00165572,0.000226075,-0.755458,0.0010367,0.0135797,1595,1688,5.86254,-14.632
378,-664,5.8385,14.4763,0.00101559,0.000785045,-0.0011103,0.00201658,-0.000215947,-0.733673,0.00142185,0.013266,1602,1688,5.8385,-14.4764
385,-664,5.81934,14.3168,0.0012242,0.0012337,-0.00157925,0.00280821,-0.000350308,-0.786902,0.00199917,0.0131693,1609,1688,5.81939,-14.3168
392,-664,5.81787,14.1697,0.00162353,0.00240059,-0.0020828,0.00413079,-0.000106662,-0.87761,0.00279009,0.0160333,1616,1688,5.8179,-14.1697
399,-664,5.8446,14.0255,0.00171399,0.00320968,-0.00253126,0.00510127,-0.000177588,-0.929034,0.00346156,0.0140519,1623,1688,5.84455,-14.0255
406,-664,5.86707,13.8558,0.0018215,0.004056,-0.00282406,0.00597578,-9.82836e-05,-0.97376,0.00401702,0.0131218,1630,1688,5.86704,-13.8558
413,-664,5.87012,13.6539,0.00237771,0.00505277,-0.00305273,0.00704813,0.000382349,-0.991873,0.00457663,0.0133377,1637,1688,5.87016,-13.6539
420,-664,5.8949,13.4417,0.00304585,0.00601545,-0.00343973,0.00827717,0.00078413,-0.989148,0.00527619,0.0278974,1644,1688,5.89494,-13.4417
427,-664,5.83521,13.2366,0.003251,0.00711096,-0.00369977,0.00935388,0.00100808,-1.02581,0.00592853,0.0442134,1651,1688,5.83526,-13.2365
434,-664,5.50879,12.5265,0.00362965,0.00934365,-0.00397056,0.0113783,0.00159504,-1.09726,0.00711368,0.0412909,1658,1688,5.50875,-12.5265
441,-664,5.56836,12.0571,0.00692713,0.0117951,-0.00131342,0.0121268,0.00659536,-1.32338,0.0070104,0.0438214,1665,1688,5.56832,-12.0571
448,-664,5.82117,11.6675,0,0,0,0,0,0,0,-1,1672,1688,5.82114,-11.6675
455,-664,4.625,14.0363,0,0,0,0,0,0,0,-1,1679,1688,4.62504,-14.0362
462,-664,4.3147,4.25439,0,0,0,0,0,0,0,-1,1686,1688,4.31467,-4.25435
469,-664,6.05469,7.49341,0,0,0,0,0,0,0,-1,1693,1688,6.05474,-7.49339
476,-664,9.76514,11.5648,0,0,0,0,0,0,0,-1,1700,1688,9.76511,-11.5648
483,-664,8.41895,10.9768,0,0,0,0,0,0,0,-1,1707,1688,8.41897,-10.9769
490,-664,6.82959,10.4489,0,0,0,0,0,0,0,-1,1714,1688,6.82961,-10.4488
497,-664,0,0,0,0,0,0,0,0,0,-1,1721,1688,0,0
504,-664,0,0,0,0,0,0,0,0,0,-1,1728,1688,0,0
511,-664,0,0,0,0,0,0,0,0,0,-1,1735,1688,0,0
518,-664,0,0,0,0,0,0,0,0,0,-1,1742,1688,0,0
525,-664,0,0,0,0,0,0,0,0,0,-1,1749,1688,0,0
532,-664,0,0,0,0,0,0,0,0,0,-1,1756,1688,0,0
539,-664,0,0,0,0,0,0,0,0,0,-1,1763,1688,0,0
546,-664,0,0,0,0,0,0,0,0,0,-1,1770,1688,0,0
553,-664,0,0,0,0,0,0,0,0,0,-1,1777,1688,0,0
560,-664,0,0,0,0,0,0,0,0,0,-1,1784,1688,0,0
567,-664,0,0,0,0,0,0,0,0,0,-1,1791,1688,0,0
574,-664,0,0,0,0,0,0,0,0,0,-1,1798,1688,0,0
581,-664,0,0,0,0,0,0,0,0,0,-1,1805,1688,0,0
588,-664,0,0,0,0,0,0,0,0,0,-1,1812,1688,0,0
595,-664,0,0,0,0,0,0,0,0,0,-1,1819,1688,0,0
602,-664,0,0,0,0,0,0,0,0,0,-1,1826,1688,0,0
609,-664,0,0,0,0,0,0,0,0,0,-1,1833,1688,0,0
616,-664,0,0,0,0,0,0,0,0,0,-1,1840,1688,0,0
623,-664,0,0,0,0,0,0,0,0,0,-1,1847,1688,0,0
630,-664,0,0,0,0,0,0,0,0,0,-1,1854,1688,0,0
637,-664,0,0,0,0,0,0,0,0,0,-1,1861,1688,0,0
644,-664,0,0,0,0,0,0,0,0,0,-1,1868,1688,0,0
651,-664,0,0,0,0,0,0,0,0,0,-1,1875,1688,0,0
658,-664,0,0,0,0,0,0,0,0,0,-1,1882,1688,0,0
665,-664,0,0,0,0,0,0,0,0,0,-1,1889,1688,0,0
672,-664,0,0,0,0,0,0,0,0,0,-1,1896,1688,0,0
679,-664,0,0,0,0,0,0,0,0,0,-1,1903,1688,0,0
686,-664,0,0,0,0,0,0,0,0,0,-1,1910,1688,0,0
693,-664,0,0,0,0,0,0,0,0,0,-1,1917,1688,0,0
700,-664,0,0,0,0,0,0,0,0,0,-1,1924,1688,0,0
707,-664,0,0,0,0,0,0,0,0,0,-1,1931,1688,0,0
714,-664,0,0,0,0,0,0,0,0,0,-1,1938,1688,0,0
721,-664,0,0,0,0,0,0,0,0,0,-1,1945,1688,0,0
728,-664,0,0,0,0,0,0,0,0,0,-1,1952,1688,0,0
735,-664,0,0,0,0,0,0,0,0,0,-1,1959,1688,0,0
742,-664,0,0,0,0,0,0,0,0,0,-1,1966,1688,0,0
749,-664,0,0,0,0,0,0,0,0,0,-1,1973,1688,0,0
756,-664,0,0,0,0,0,0,0,0,0,-1,1980,1688,0,0
763,-664,0,0,0,0,0,0,0,0,0,-1,1987,1688,0,0
770,-664,0,0,0,0,0,0,0,0,0,-1,1994,1688,0,0
777,-664,0,0,0,0,0,0,0,0,0,-1,2001,1688,0,0
784,-664,0,0,0,0,0,0,0,0,0,-1,2008,1688,0,0
791,-664,0,0,0,0,0,0,0,0,0,-1,2015,1688,0,0
798,-664,0,0,0,0,0,0,0,0,0,-1,2022,1688,0,0
805,-664,0,0,0,0,0,0,0,0,0,-1,2029,1688,0,0
812,-664,0,0,0,0,0,0,0,0,0,-1,2036,1688,0,0
-700,-671,0,0,0,0,0,0,0,0,0,-1,524,1695,0,0
-693,-671,0,0,0,0,0,0,0,0,0,-1,531,1695,0,0
-686,-671,0,0,0,0,0,0,0,0,0,-1,538,1695,0,0
-679,-671,0,0,0,0,0,0,0,0,0,-1,545,1695,0,0
-672,-671,0,0,0,0,0,0,0,0,0,-1,552,1695,0,0
-665,-671,0,0,0,0,0,0,0,0,0,-1,559,1695,0,0
-658,-671,0,0,0,0,0,0,0,0,0,-1,566,1695,0,0
-651,-671,0,0,0,0,0,0,0,0,0,-1,573,1695,0,0
-644,-671,0,0,0,0,0,0,0,0,0,-1,580,1695,0,0
-637,-671,0,0,0,0,0,0,0,0,0,-1,587,1695,0,0
-630,-671,0,0,0,0,0,0,0,0,0,-1,594,1695,0,0
-623,-671,0,0,0,0,0,0,0,0,0,-1,601,1695,0,0
-616,-671,0,0,0,0,0,0,0,0,0,-1,608,1695,0,0
-609,-671,0,0,0,0,0,0,0,0,0,-1,615,1695,0,0
-602,-671,0,0,0,0,0,0,0,0,0,-1,622,1695,0,0
-595,-671,0,0,0,0,0,0,0,0,0,-1,629,1695,0,0
-588,-671,0,0,0,0,0,0,0,0,0,-1,636,1695,0,0
-581,-671,0,0,0,0,0,0,0,0,0,-1,643,1695,0,0
-574,-671,0,0,0,0,0,0,0,0,0,-1,650,1695,0,0
-567,-671,0,0,0,0,0,0,0,0,0,-1,657,1695,0,0
-560,-671,0,0,0,0,0,0,0,0,0,-1,664,1695,0,0
-553,-671,0,0,0,0,0,0,0,0,0,-1,671,1695,0,0
-546,-671,0,0,0,0,0,0,0,0,0,-1,678,1695,0,0
-539,-671,0,0,0,0,0,0,0,0,0,-1,685,1695,0,0
-532,-671,0,0,0,0,0,0,0,0,0,-1,692,1695,0,0
-525,-671,0,0,0,0,0,0,0,0,0,-1,699,1695,0,0
-518,-671,0,0,0,0,0,0,0,0,0,-1,706,1695,0,0
-511,-671,0,0,0,0,0,0,0,0,0,-1,713,1695,0,0
-504,-671,0,0,0,0,0,0,0,0,0,-1,720,1695,0,0
-497,-671,0,0,0,0,0,0,0,0,0,-1,727,1695,0,0
-490,-671,0,0,0,0,0,0,0,0,0,-1,734,1695,0,0
-483,-671,0,0,0,0,0,0,0,0,0,-1,741,1695,0,0
-476,-671,0,0,0,0,0,0,0,0,0,-1,748,1695,0,0
-469,-671,0,0,0,0,0,0,0,0,0,-1,755,1695,0,0
-462,-671,0,0,0,0,0,0,0,0,0,-1,762,1695,0,0
-455,-671,0,0,0,0,0,0,0,0,0,-1,769,1695,0,0
-448,-671,0,0,0,0,0,0,0,0,0,-1,776,1695,0,0
-441,-671,0,0,0,0,0,0,0,0,0,-1,783,1695,0,0
-434,-671,0,0,0,0,0,0,0,0,0,-1,790,1695,0,0
-427,-671,0,0,0,0,0,0,0,0,0,-1,797,1695,0,0
-420,-671,0,0,0,0,0,0,0,0,0,-1,804,1695,0,0
-413,-671,0,0,0,0,0,0,0,0,0,-1,811,1695,0,0
-406,-671,0,0,0,0,0,0,0,0,0,-1,818,1695,0,0
-399,-671,0,0,0,0,0,0,0,0,0,-1,825,1695,0,0
-392,-671,0,0,0,0,0,0,0,0,0,-1,832,1695,0,0
-385,-671,0,0,0,0,0,0,0,0,0,-1,839,1695,0,0
-378,-671,0,0,0,0,0,0,0,0,0,-1,846,1695,0,0
-371,-671,0,0,0,0,0,0,0,0,0,-1,853,1695,0,0
-364,-671,-4.18738,7.51416,0,0,0,0,0,0,0,-1,860,1695,-4.18739,-7.51419
-357,-671,-5.02393,6.07129,0,0,0,0,0,0,0,-1,867,1695,-5.0239,-6.07135
-350,-671,-5.72333,4.58386,0,0,0,0,0,0,0,-1,874,1695,-5.72333,-4.58386
-343,-671,-6.4884,3.11353,0,0,0,0,0,0,0,-1,881,1695,-6.48839,-3.11349
-336,-671,-7.30127,1.64417,0,0,0,0,0,0,0,-1,888,1695,-7.30127,-1.64414
-329,-671,3.58337,10.6238,0,0,0,0,0,0,0,-1,895,1695,3.58338,-10.6238
-322,-671,3.75763,10.859,0,0,0,0,0,0,0,-1,902,1695,3.75766,-10.8591
-315,-671,4.39355,12.6897,0,0,0,0,0,0,0,-1,909,1695,4.39353,-12.6897
-308,-671,3.70532,12.7622,0,0,0,0,0,0,0,-1,916,1695,3.70531,-12.7621
-301,-671,3.85052,12.4281,0,0,0,0,0,0,0,-1,923,1695,3.85051,-12.4281
-294,-671,4.41559,12.5356,0,0,0,0,0,0,0,-1,930,1695,4.41558,-12.5356
-287,-671,4.37018,12.6099,0.0172863,-0.00254782,0.00166611,0.0174253,-0.0026868,0.0832249,0.0126082,0.0445752,937,1695,4.37015,-12.6099
-280,-671,4.30139,12.7357,0.0161586,-0.00158962,0.00197487,0.0163757,-0.00180671,0.109487,0.0115665,0.035771,944,1695,4.30138,-12.7357
-273,-671,4.14832,12.8875,0.0145952,-0.00120857,0.00200814,0.0148463,-0.00145975,0.124433,0.0104183,0.0346527,951,1695,4.14834,-12.8874
-266,-671,4.12756,13.1855,0.0128668,-0.000974988,0.00191273,0.0131263,-0.00123443,0.13482,0.00918999,0.0267225,958,1695,4.12756,-13.1856
-259,-671,4.03473,13.3519,0.0112388,-0.000687483,0.00168195,0.0114715,-0.000920148,0.137458,0.00797208,0.0229661,965,1695,4.03472,-13.3519
-252,-671,4.0755,13.4979,0.00923352,-0.000609178,0.00127654,0.00939638,-0.000772042,0.126897,0.00653682,0.0166609,972,1695,4.0755,-13.4979
-245,-671,4.06433,13.675,0.00708005,-0.000729322,0.000900613,0.00718257,-0.000831839,0.113342,0.00508837,0.0188492,979,1695,4.06431,-13.675
-238,-671,4.08228,13.8525,0.005183,-0.000915982,0.000584048,0.00523843,-0.000971407,0.0946158,0.00385708,0.0194165,986,1695,4.08229,-13.8526
-231,-671,4.08472,14.024,0.00378963,-0.00102783,0.000448944,0.00383111,-0.00106931,0.092134,0.00297526,0.0154729,993,1695,4.0847,-14.0241
-224,-671,4.06097,14.1735,0.00243099,-0.00115394,0.000417912,0.00247906,-0.00120201,0.114529,0.00216748,0.0119375,1000,1695,4.06099,-14.1735
-217,-671,4.06744,14.3212,0.0012361,-0.00116462,2.88883e-05,0.00123644,-0.00116497,0.0120309,0.00138666,0.0114025,1007,1695,4.06746,-14.3211
-210,-671,4.08215,14.4869,0.000422849,-0.0011967,-0.000111636,0.000430508,-0.00120436,-0.068498,0.000978506,0.011326,1014,1695,4.08215,-14.4869
-203,-671,4.02808,14.6112,6.39229e-06,-0.00121656,0.000124199,1.88781e-05,-0.00122904,0.100194,0.000825727,0.0188573,1021,1695,4.02803,-14.6112
-196,-671,4.04932,14.7882,-3.55713e-05,-0.0013477,0.000374158,6.36223e-05,-0.00144689,0.25915,0.000986488,0.0158121,1028,1695,4.04937,-14.7882
-189,-671,4.10071,14.9796,-6.6581e-05,-0.00141587,0.000569867,0.00014189,-0.00162434,0.350702,0.00113316,0.0121616,1035,1695,4.10067,-14.9796
-182,-671,4.0636,15.0962,3.65842e-05,-0.00118632,0.000690931,0.000347769,-0.00149751,0.423174,0.00113221,0.00991082,1042,1695,4.06357,-15.0962
-175,-671,4.05688,15.2096,0.000394489,-0.000954169,0.00075436,0.00073198,-0.00129166,0.420678,0.00118315,0.0125709,1049,1695,4.05686,-15.2096
-168,-671,4.05603,15.344,0.000832943,-0.000730447,0.000847079,0.00120389,-0.0011014,0.41276,0.0013314,0.0139355,1056,1695,4.05602,-15.344
-161,-671,4.05212,15.496,0.00129441,-0.000471291,0.000971453,0.00172425,-0.000901127,0.416572,0.00154039,0.00930483,1063,1695,4.05207,-15.4959
-154,-671,4.0697,15.6068,0.00203363,-0.000166484,0.00109109,0.00248296,-0.000615814,0.390652,0.00189424,0.00888792,1070,1695,4.06969,-15.6068
-147,-671,4.08618,15.7566,0.00279405,-3.62704e-05,0.00129264,0.00329555,-0.000537775,0.370092,0.00239649,0.0107277,1077,1695,4.08616,-15.7566
-140,-671,4.10596,15.8855,0.00343781,-0.000159914,0.0013935,0.00391442,-0.000636518,0.329548,0.00284561,0.0111138,1084,1695,4.10597,-15.8855
-133,-671,4.11426,15.9928,0.00429613,-0.000427341,0.00159888,0.00478645,-0.000917657,0.297558,0.00353676,0.0120786,1091,1695,4.11431,-15.9928
-126,-671,4.15479,16.1385,0.00522926,-0.00105398,0.00212694,0.00588154,-0.00170625,0.297568,0.00459658,0.014894,1098,1695,4.15478,-16.1386
-119,-671,4.21558,16.2051,0.00597506,-0.00213215,0.00265552,0.00676744,-0.00292453,0.289976,0.00574041,0.0271506,1105,1695,4.21552,-16.2051
-112,-671,4.19641,16.3374,0.00649559,-0.0036364,0.0031356,0.00738747,-0.00452828,0.277119,0.00694527,0.0353979,1112,1695,4.19646,-16.3374
-105,-671,4.44031,16.3262,0.00673641,-0.00543744,0.00369508,0.00777017,-0.0064712,0.272794,0.00823366,0.0438164,1119,1695,4.44028,-16.3262
-98,-671,4.55542,16.2382,0.00677266,-0.00744154,0.00434823,0.00799731,-0.00866619,0.274531,0.00962326,0.0421433,1126,1695,4.55542,-16.2382
-91,-671,4.3761,16.1842,0.00683491,-0.00928788,0.00492395,0.00821976,-0.0106727,0.274164,0.0109382,0.0423261,1133,1695,4.37604,-16.1842
-84,-671,4.38306,16.1901,0,0,0,0,0,0,0,-1,1140,1695,4.38311,-16.19
-77,-671,4.31763,16.489,0,0,0,0,0,0,0,-1,1147,1695,4.31757,-16.489
-70,-671,3.06067,10.7737,0,0,0,0,0,0,0,-1,1154,1695,3.0607,-10.7737
-63,-671,2.94592,6.90198,0,0,0,0,0,0,0,-1,1161,1695,2.94594,-6.90198
-56,-671,-3.07678,2.87976,0,0,0,0,0,0,0,-1,1168,1695,-3.07675,-2.87979
-49,-671,-1.05957,4.76917,0,0,0,0,0,0,0,-1,1175,1695,-1.05958,-4.76921
-42,-671,0.539307,3.7865,0,0,0,0,0,0,0,-1,1182,1695,0.539266,-3.78648
-35,-671,-0.272461,0.347534,0,0,0,0,0,0,0,-1,1189,1695,-0.272434,-0.347569
-28,-671,-10.4878,17.2009,0,0,0,0,0,0,0,-1,1196,1695,-10.4878,-17.2009
-21,-671,4.69397,16.8569,0,0,0,0,0,0,0,-1,1203,1695,4.69398,-16.8569
-14,-671,4.63452,16.9558,-0.0277297,0.0215877,0.0128904,0.0247537,-0.0308957,1.32996,0.0321943,0.0454031,1210,1695,4.63451,-16.9558
-7,-671,4.61194,17.1927,-0.0204372,0.0266939,0.0147158,0.0309113,-0.0246545,1.29169,0.0321487,0.0447615,1217,1695,4.61191,-17.1927
0,-671,4.73486,17.0652,-0.0121948,0.035412,0.0181149,0.041521,-0.0183038,1.24554,0.0353963,0.046131,1224,1695,4.73486,-17.0652
7,-671,4.54321,16.8094,-0.00300104,0.041633,0.0199631,0.0492588,-0.0106269,1.20591,0.0368952,0.0468863,1231,1695,4.54325,-16.8094
14,-671,4.47827,16.8405,0,0,0,0,0,0,0,-1,1238,1695,4.47831,-16.8405
21,-671,4.00195,15.2205,0,0,0,0,0,0,0,-1,1245,1695,4.00193,-15.2204
28,-671,3.93616,14.8389,0,0,0,0,0,0,0,-1,1252,1695,3.93615,-14.8389
35,-671,5.01672,17.8179,0.0216276,0.0459355,0.0231831,0.0599574,0.00760568,1.02683,0.037693,0.0457142,1259,1695,5.01678,-17.8178
42,-671,4.46619,16.8805,0.0218935,0.040692,0.0231753,0.0563016,0.00628391,0.978048,0.035625,0.0441739,1266,1695,4.46624,-16.8805
49,-671,5.58264,16.9901,0.0199327,0.0345375,0.0227642,0.0511419,0.00332834,0.940605,0.0330411,0.0435766,1273,1695,5.5827,-16.9901
56,-671,6.31482,17.6742,0.0135839,0.0265588,0.021482,0.0425116,-0.0023689,0.932041,0.0291628,0.0465491,1280,1695,6.31487,-17.6742
63,-671,7.01465,18.3176,0,0,0,0,0,0,0,-1,1287,1695,7.01465,-18.3177
70,-671,6.69348,17.7178,-0.00667601,0.0101966,0.0158183,0.0196876,-0.0161671,1.03037,0.020734,0.0466877,1294,1695,6.69351,-17.7177
77,-671,6.16272,17.8922,-0.01754,0.00166738,0.0132014,0.0083888,-0.0242614,1.09986,0.019579,0.0436453,1301,1695,6.16273,-17.8922
84,-671,5.65125,17.9453,-0.0284766,-0.0037993,0.0111526,0.000494037,-0.0327699,1.20332,0.0220131,0.0478608,1308,1695,5.65122,-17.9453
91,-671,5,18.7439,-0.0383943,-0.00603653,0.00854271,-0.00391967,-0.0405111,1.32789,0.0258003,0.0454603,1315,1695,5.00004,-18.7439
98,-671,4.89746,18.6416,-0.0477288,-0.00545237,0.00620631,-0.0045601,-0.0486211,1.42801,0.031006,0.0451239,1322,1695,4.89744,-18.6416
105,-671,4.83313,18.6635,0,0,0,0,0,0,0,-1,1329,1695,4.83312,-18.6635
112,-671,3.09363,16.5306,-0.0533452,0.0019899,0.00126716,0.00201891,-0.0533742,1.54791,0.0362745,0.0428214,1336,1695,3.09359,-16.5306
119,-671,1.25854,15.9659,-0.0502724,0.00956232,0.000478223,0.00956614,-0.0502762,1.5628,0.0371194,0.0462405,1343,1695,1.25851,-15.966
126,-671,2.7052,18.0059,0,0,0,0,0,0,0,-1,1350,1695,2.70523,-18.0059
133,-671,2.29846,18.7666,0,0,0,0,0,0,0,-1,1357,1695,2.29845,-18.7666
140,-671,5.06567,17.1169,0,0,0,0,0,0,0,-1,1364,1695,5.06562,-17.117
147,-671,6.0343,17.3439,0,0,0,0,0,0,0,-1,1371,1695,6.03425,-17.3439
154,-671,6.93958,17.6266,0,0,0,0,0,0,0,-1,1378,1695,6.93958,-17.6266
161,-671,4.49292,4.91272,0,0,0,0,0,0,0,-1,1385,1695,4.49297,-4.91273
168,-671,5.17639,6.1416,0,0,0,0,0,0,0,-1,1392,1695,5.1764,-6.14164
175,-671,5.6731,1.64685,0,0,0,0,0,0,0,-1,1399,1695,5.67313,-1.64691
182,-671,5.56812,1.71692,0,0,0,0,0,0,0,-1,1406,1695,5.56809,-1.71686
189,-671,6.98315,6.36169,0,0,0,0,0,0,0,-1,1413,1695,6.98312,-6.36175
196,-671,5.38123,5.69775,0,0,0,0,0,0,0,-1,1420,1695,5.38125,-5.69769
203,-671,5.95117,8.11658,0,0,0,0,0,0,0,-1,1427,1695,5.9512,-8.11662
210,-671,4.73596,8.39624,0,0,0,0,0,0,0,-1,1434,1695,4.736,-8.39618
217,-671,5.37097,11.863,0,0,0,0,0,0,0,-1,1441,1695,5.37094,-11.863
224,-671,5.08167,13.6694,0,0,0,0,0,0,0,-1,1448,1695,5.08165,-13.6695
231,-671,5.66663,15.3348,0,0,0,0,0,0,0,-1,1455,1695,5.66667,-15.3349
238,-671,6.32959,16.2036,0,0,0,0,0,0,0,-1,1462,1695,6.32961,-16.2037
245,-671,5.95264,15.9324,0,0,0,0,0,0,0,-1,1469,1695,5.95259,-15.9324
252,-671,5.62537,16.2468,0,0,0,0,0,0,0,-1,1476,1695,5.62541,-16.2469
259,-671,5.57837,16.2562,0,0,0,0,0,0,0,-1,1483,1695,5.57841,-16.2562
266,-671,5.61328,16.4055,0.00530822,-0.00589896,0.000660758,0.00534705,-0.00593778,0.0586875,0.00651827,0.0208534,1490,1695,5.61326,-16.4055
273,-671,5.64917,16.3696,0.00573596,-0.00570579,0.000676249,0.00577579,-0.00574562,0.0588306,0.0066519,0.00933683,1497,1695,5.64912,-16.3696
280,-671,5.66467,16.2911,0.00581064,-0.00512394,0.000741229,0.00586066,-0.00517396,0.0673768,0.00637495,0.00894999,1504,1695,5.66472,-16.2912
287,-671,5.6604,16.1414,0.00547576,-0.00447336,0.000722438,0.00552794,-0.00452555,0.0721092,0.00581399,0.0104594,1511,1695,5.66044,-16.1413
294,-671,5.64954,16.0212,0.00507375,-0.00391522,0.000690028,0.00512641,-0.00396788,0.0761692,0.00526477,0.0104575,1518,1695,5.64954,-16.0212
301,-671,5.66089,15.939,0.00454742,-0.0030376,0.00059972,0.00459455,-0.00308473,0.0784169,0.00446211,0.0102461,1525,1695,5.66093,-15.9389
308,-671,5.67871,15.8351,0.00386667,-0.00212916,0.000485421,0.00390571,-0.00216821,0.0802632,0.00355429,0.0112521,1532,1695,5.6787,-15.835
315,-671,5.71021,15.7147,0.00306037,-0.00119281,0.000343433,0.00308792,-0.00122036,0.0800563,0.0025641,0.0129921,1539,1695,5.71021,-15.7147
322,-671,5.73108,15.6063,0.0022943,-0.00024329,0.000196546,0.00230943,-0.000258423,0.076843,0.00163259,0.0153969,1546,1695,5.73113,-15.6063
329,-671,5.6925,15.4823,0.00160774,0.00034787,9.85921e-05,0.00161541,0.000340202,0.0776258,0.000983357,0.0138945,1553,1695,5.69248,-15.4823
336,-671,5.6875,15.3264,0.00101023,0.000895302,-8.82675e-06,0.0010109,0.000894628,-0.0762074,0.000638715,0.0106059,1560,1695,5.68755,-15.3264
343,-671,5.71667,15.1816,0.000516143,0.00142223,-0.000203786,0.00146595,0.00047242,-1.35945,0.000864007,0.0103983,1567,1695,5.71673,-15.1816
350,-671,5.72168,15.0352,0.000193222,0.0016339,-0.000405687,0.00174029,8.68386e-05,-1.31434,0.00113236,0.0107128,1574,1695,5.72165,-15.0351
357,-671,5.7113,14.873,0.000116928,0.00162313,-0.000585399,0.00182389,-8.3833e-05,-1.24042,0.00124481,0.0105993,1581,1695,5.71134,-14.8731
364,-671,5.7002,14.7299,0.000226924,0.00160126,-0.000838868,0.00199848,-0.000170296,-1.12856,0.00139256,0.0127527,1588,1695,5.70014,-14.7299
371,-671,5.70056,14.6205,0.000501512,0.00141197,-0.00108768,0.00213585,-0.000222364,-0.983587,0.00150351,0.0149861,1595,1695,5.7006,-14.6204
378,-671,5.69519,14.4784,0.000837547,0.00117285,-0.00149571,0.00251027,-0.000499878,-0.841209,0.00186264,0.0128728,1602,1695,5.69525,-14.4784
385,-671,5.68689,14.3086,0.00131137,0.00159537,-0.00198711,0.00344555,-0.000538807,-0.821069,0.00249609,0.0138489,1609,1695,5.68695,-14.3086
392,-671,5.66736,14.1898,0.00194781,0.00284549,-0.00256988,0.00500543,-0.000212134,-0.871853,0.00340987,0.0194039,1616,1695,5.66738,-14.1898
399,-671,5.66943,14.0237,0.00223905,0.00372238,-0.00312042,0.00618807,-0.000226636,-0.902073,0.00420296,0.0157704,1623,1695,5.66939,-14.0237
406,-671,5.70532,13.8365,0.00258201,0.00482359,-0.00356697,0.0074417,-3.61076e-05,-0.937621,0.00497321,0.021547,1630,1695,5.70527,-13.8366
413,-671,5.68652,13.6771,0.00347952,0.00615099,-0.00382125,0.00886324,0.000767278,-0.953537,0.00567039,0.0325662,1637,1695,5.68658,-13.6772
420,-671,5.79187,13.4703,0.00458945,0.00740026,-0.0044138,0.010627,0.00136271,-0.939529,0.00667695,0.0469174,1644,1695,5.7919,-13.4704
427,-671,5.77954,13.2631,0,0,0,0,0,0,0,-1,1651,1695,5.77955,-13.2631
434,-671,5.14966,12.1788,0,0,0,0,0,0,0,-1,1658,1695,5.1497,-12.1788
441,-671,5.02881,11.5698,0,0,0,0,0,0,0,-1,1665,1695,5.02884,-11.5698
448,-671,5.27502,11.249,0,0,0,0,0,0,0,-1,1672,1695,5.27497,-11.249
455,-671,3.40137,9.28076,0,0,0,0,0,0,0,-1,1679,1695,3.40135,-9.28082
462,-671,5.86255,4.47961,0,0,0,0,0,0,0,-1,1686,1695,5.8625,-4.4796
469,-671,3.71301,3.76978,0,0,0,0,0,0,0,-1,1693,1695,3.71297,-3.76974
476,-671,3.75574,3.18848,0,0,0,0,0,0,0,-1,1700,1695,3.7558,-3.18847
483,-671,7.81824,12.1041,0,0,0,0,0,0,0,-1,1707,1695,7.81826,-12.1041
490,-671,0,0,0,0,0,0,0,0,0,-1,1714,1695,0,0
497,-671,0,0,0,0,0,0,0,0,0,-1,1721,1695,0,0
504,-671,0,0,0,0,0,0,0,0,0,-1,1728,1695,0,0
511,-671,0,0,0,0,0,0,0,0,0,-1,1735,1695,0,0
518,-671,0,0,0,0,0,0,0,0,0,-1,1742,1695,0,0
525,-671,0,0,0,0,0,0,0,0,0,-1,1749,1695,0,0
532,-671,0,0,0,0,0,0,0,0,0,-1,1756,1695,0,0
539,-671,0,0,0,0,0,0,0,0,0,-1,1763,1695,0,0
546,-671,0,0,0,0,0,0,0,0,0,-1,1770,1695,0,0
553,-671,0,0,0,0,0,0,0,0,0,-1,1777,1695,0,0
560,-671,0,0,0,0,0,0,0,0,0,-1,1784,1695,0,0
567,-671,0,0,0,0,0,0,0,0,0,-1,1791,1695,0,0
574,-671,0,0,0,0,0,0,0,0,0,-1,1798,1695,0,0
581,-671,0,0,0,0,0,0,0,0,0,-1,1805,1695,0,0
588,-671,0,0,0,0,0,0,0,0,0,-1,1812,1695,0,0
595,-671,0,0,0,0,0,0,0,0,0,-1,1819,1695,0,0
602,-671,0,0,0,0,0,0,0,0,0,-1,1826,1695,0,0
609,-671,0,0,0,0,0,0,0,0,0,-1,1833,1695,0,0
616,-671,0,0,0,0,0,0,0,0,0,-1,1840,1695,0,0
623,-671,0,0,0,0,0,0,0,0,0,-1,1847,1695,0,0
630,-671,0,0,0,0,0,0,0,0,0,-1,1854,1695,0,0
637,-671,0,0,0,0,0,0,0,0,0,-1,1861,1695,0,0
644,-671,0,0,0,0,0,0,0,0,0,-1,1868,1695,0,0
651,-671,0,0,0,0,0,0,0,0,0,-1,1875,1695,0,0
658,-671,0,0,0,0,0,0,0,0,0,-1,1882,1695,0,0
665,-671,0,0,0,0,0,0,0,0,0,-1,1889,1695,0,0
672,-671,0,0,0,0,0,0,0,0,0,-1,1896,1695,0,0
679,-671,0,0,0,0,0,0,0,0,0,-1,1903,1695,0,0
686,-671,0,0,0,0,0,0,0,0,0,-1,1910,1695,0,0
693,-671,0,0,0,0,0,0,0,0,0,-1,1917,1695,0,0
700,-671,0,0,0,0,0,0,0,0,0,-1,1924,1695,0,0
707,-671,0,0,0,0,0,0,0,0,0,-1,1931,1695,0,0
714,-671,0,0,0,0,0,0,0,0,0,-1,1938,1695,0,0
721,-671,0,0,0,0,0,0,0,0,0,-1,1945,1695,0,0
728,-671,0,0,0,0,0,0,0,0,0,-1,1952,1695,0,0
735,-671,0,0,0,0,0,0,0,0,0,-1,1959,1695,0,0
742,-671,0,0,0,0,0,0,0,0,0,-1,1966,1695,0,0
749,-671,0,0,0,0,0,0,0,0,0,-1,1973,1695,0,0
756,-671,0,0,0,0,0,0,0,0,0,-1,1980,1695,0,0
763,-671,0,0,0,0,0,0,0,0,0,-1,1987,1695,0,0
770,-671,0,0,0,0,0,0,0,0,0,-1,1994,1695,0,0
777,-671,0,0,0,0,0,0,0,0,0,-1,2001,1695,0,0
784,-671,0,0,0,0,0,0,0,0,0,-1,2008,1695,0,0
791,-671,0,0,0,0,0,0,0,0,0,-1,2015,1695,0,0
798,-671,0,0,0,0,0,0,0,0,0,-1,2022,1695,0,0
805,-671,0,0,0,0,0,0,0,0,0,-1,2029,1695,0,0
812,-671,0,0,0,0,0,0,0,0,0,-1,2036,1695,0,0
-700,-678,0,0,0,0,0,0,0,0,0,-1,524,1702,0,0
-693,-678,0,0,0,0,0,0,0,0,0,-1,531,1702,0,0
-686,-678,0,0,0,0,0,0,0,0,0,-1,538,1702,0,0
-679,-678,0,0,0,0,0,0,0,0,0,-1,545,1702,0,0
-672,-678,0,0,0,0,0,0,0,0,0,-1,552,1702,0,0
-665,-678,0,0,0,0,0,0,0,0,0,-1,559,1702,0,0
-658,-678,0,0,0,0,0,0,0,0,0,-1,566,1702,0,0
-651,-678,0,0,0,0,0,0,0,0,0,-1,573,1702,0,0
-644,-678,0,0,0,0,0,0,0,0,0,-1,580,1702,0,0
-637,-678,0,0,0,0,0,0,0,0,0,-1,587,1702,0,0
-630,-678,0,0,0,0,0,0,0,0,0,-1,594,1702,0,0
-623,-678,0,0,0,0,0,0,0,0,0,-1,601,1702,0,0
-616,-678,0,0,0,0,0,0,0,0,0,-1,608,1702,0,0
-609,-678,0,0,0,0,0,0,0,0,0,-1,615,1702,0,0
-602,-678,0,0,0,0,0,0,0,0,0,-1,622,1702,0,0
-595,-678,0,0,0,0,0,0,0,0,0,-1,629,1702,0,0
-588,-678,0,0,0,0,0,0,0,0,0,-1,636,1702,0,0
-581,-678,0,0,0,0,0,0,0,0,0,-1,643,1702,0,0
-574,-678,0,0,0,0,0,0,0,0,0,-1,650,1702,0,0
-567,-678,0,0,0,0,0,0,0,0,0,-1,657,1702,0,0
-560,-678,0,0,0,0,0,0,0,0,0,-1,664,1702,0,0
-553,-678,0,0,0,0,0,0,0,0,0,-1,671,1702,0,0
-546,-678,0,0,0,0,0,0,0,0,0,-1,678,1702,0,0
-539,-678,0,0,0,0,0,0,0,0,0,-1,685,1702,0,0
-532,-678,0,0,0,0,0,0,0,0,0,-1,692,1702,0,0
-525,-678,0,0,0,0,0,0,0,0,0,-1,699,1702,0,0
-518,-678,0,0,0,0,0,0,0,0,0,-1,706,1702,0,0
-511,-678,0,0,0,0,0,0,0,0,0,-1,713,1702,0,0
-504,-678,0,0,0,0,0,0,0,0,0,-1,720,1702,0,0
-497,-678,0,0,0,0,0,0,0,0,0,-1,727,1702,0,0
-490,-678,0,0,0,0,0,0,0,0,0,-1,734,1702,0,0
-483,-678,0,0,0,0,0,0,0,0,0,-1,741,1702,0,0
-476,-678,0,0,0,0,0,0,0,0,0,-1,748,1702,0,0
-469,-678,0,0,0,0,0,0,0,0,0,-1,755,1702,0,0
-462,-678,0,0,0,0,0,0,0,0,0,-1,762,1702,0,0
-455,-678,0,0,0,0,0,0,0,0,0,-1,769,1702,0,0
-448,-678,0,0,0,0,0,0,0,0,0,-1,776,1702,0,0
-441,-678,0,0,0,0,0,0,0,0,0,-1,783,1702,0,0
-434,-678,0,0,0,0,0,0,0,0,0,-1,790,1702,0,0
-427,-678,0,0,0,0,0,0,0,0,0,-1,797,1702,0,0
-420,-678,0,0,0,0,0,0,0,0,0,-1,804,1702,0,0
-413,-678,0,0,0,0,0,0,0,0,0,-1,811,1702,0,0
-406,-678,0,0,0,0,0,0,0,0,0,-1,818,1702,0,0
-399,-678,0,0,0,0,0,0,0,0,0,-1,825,1702,0,0
-392,-678,0,0,0,0,0,0,0,0,0,-1,832,1702,0,0
-385,-678,0,0,0,0,0,0,0,0,0,-1,839,1702,0,0
-378,-678,0,0,0,0,0,0,0,0,0,-1,846,1702,0,0
-371,-678,0,0,0,0,0,0,0,0,0,-1,853,1702,0,0
-364,-678,0,0,0,0,0,0,0,0,0,-1,860,1702,0,0
-357,-678,0,0,0,0,0,0,0,0,0,-1,867,1702,0,0
-350,-678,-5.79944,6.11865,0,0,0,0,0,0,0,-1,874,1702,-5.79942,-6.11864
-343,-678,-6.44891,4.52759,0,0,0,0,0,0,0,-1,881,1702,-6.4489,-4.52758
-336,-678,-6.91888,2.99438,0,0,0,0,0,0,0,-1,888,1702,-6.9189,-2.99435
-329,-678,-7.14575,1.29761,0,0,0,0,0,0,0,-1,895,1702,-7.14577,-1.29755
-322,-678,-7.38513,-0.420044,0,0,0,0,0,0,0,-1,902,1702,-7.38514,0.420091
-315,-678,5.38995,10.121,0,0,0,0,0,0,0,-1,909,1702,5.38998,-10.121
-308,-678,4.63892,11.5948,0,0,0,0,0,0,0,-1,916,1702,4.6389,-11.5948
-301,-678,4.53772,12.379,0,0,0,0,0,0,0,-1,923,1702,4.53773,-12.379
-294,-678,4.81891,12.3717,0,0,0,0,0,0,0,-1,930,1702,4.8189,-12.3717
-287,-678,4.74487,12.5284,0.0272702,-0.00127984,0.00136413,0.0273352,-0.00134487,0.0476357,0.0186879,0.0465335,937,1702,4.74489,-12.5285
-280,-678,4.66614,12.6888,0.0252611,-0.000545131,0.00185876,0.0253943,-0.000678326,0.0715356,0.0171601,0.0456428,944,1702,4.66617,-12.6888
-273,-678,4.21643,12.7834,0.0225433,-0.000492334,0.00194277,0.022706,-0.000655034,0.0835511,0.0153603,0.0473245,951,1702,4.21642,-12.7834
-266,-678,3.60785,13.2922,0.0196013,-0.000558474,0.00185852,0.0197712,-0.000728376,0.0911655,0.0134302,0.0359741,958,1702,3.60787,-13.2923
-259,-678,4.16217,13.3855,0.0167721,-0.000462814,0.00158176,0.016916,-0.00060678,0.0907665,0.011485,0.0236056,965,1702,4.16216,-13.3855
-252,-678,4.18982,13.5017,0.0135728,-0.000569543,0.00111393,0.01366,-0.000656745,0.0781236,0.00933332,0.0199932,972,1702,4.18979,-13.5017
-245,-678,4.2536,13.6714,0.0102701,-0.000740153,0.00064948,0.0103083,-0.000778332,0.0587171,0.00714579,0.0189614,979,1702,4.25357,-13.6713
-238,-678,4.26172,13.8462,0.00740493,-0.000854082,0.000237006,0.00741173,-0.000860877,0.0286652,0.00525168,0.0149691,986,1702,4.26174,-13.8462
-231,-678,4.22089,14.0372,0.00533769,-0.000750258,8.89164e-05,0.00533899,-0.000751557,0.0146012,0.00383447,0.0126709,993,1702,4.22087,-14.0373
-224,-678,4.20233,14.1857,0.00331067,-0.000717254,4.50651e-05,0.00331117,-0.000717758,0.0111863,0.00248155,0.0123272,1000,1702,4.2023,-14.1857
-217,-678,4.21552,14.3373,0.00157014,-0.000518458,-0.000465291,0.00166911,-0.000617424,-0.209575,0.00136588,0.0134579,1007,1702,4.21552,-14.3373
-210,-678,4.20667,14.5139,0.000486249,-0.000264522,-0.000692744,0.000898777,-0.00067705,-0.537103,0.000912802,0.0136836,1014,1702,4.20665,-14.514
-203,-678,4.18274,14.6321,-5.10781e-05,9.35363e-06,-0.000454365,0.000434506,-0.00047623,-0.8186,0.000525998,0.0170905,1021,1702,4.18272,-14.6321
-196,-678,4.19348,14.787,-0.000101009,0.000105868,-0.000205795,0.000232758,-0.000227898,-1.01827,0.000265965,0.0167017,1028,1702,4.19343,-14.7869
-189,-678,4.2229,14.9597,-0.000121761,0.000144518,-2.71644e-05,0.000147261,-0.000124504,-1.47016,0.000157087,0.0109709,1035,1702,4.22284,-14.9597
-182,-678,4.20691,15.1169,-2.97196e-05,0.000311915,8.35877e-05,0.00033127,-4.90744e-05,1.34325,0.000238891,0.0104413,1042,1702,4.20695,-15.1169
-175,-678,4.18726,15.2505,0.000270265,0.000459433,0.000170463,0.000559794,0.000169903,1.03868,0.000331412,0.0109367,1049,1702,4.18731,-15.2505
-168,-678,4.18591,15.3904,0.00058192,0.000546245,0.000299174,0.000863788,0.000264377,0.755622,0.000511059,0.0102216,1056,1702,4.18588,-15.3904
-161,-678,4.19104,15.5159,0.000906106,0.000554344,0.000435834,0.00120021,0.00026024,0.593616,0.000729043,0.00856681,1063,1702,4.19102,-15.5158
-154,-678,4.19971,15.6238,0.0014739,0.0005371,0.000582317,0.00175283,0.000258177,0.446697,0.00109271,0.0084775,1070,1702,4.19967,-15.6238
-147,-678,4.20117,15.7643,0.00209442,0.000410235,0.000776289,0.00239764,0.000107014,0.37238,0.00156398,0.0108603,1077,1702,4.20122,-15.7643
-140,-678,4.22363,15.8938,0.00261427,-2.56929e-06,0.000937561,0.0029155,-0.000303803,0.310877,0.00205244,0.0124451,1084,1702,4.22367,-15.8938
-133,-678,4.24109,16.0059,0.00326749,-0.000503652,0.00115813,0.00359476,-0.000830918,0.275401,0.00271618,0.012222,1091,1702,4.24107,-16.0058
-126,-678,4.25256,16.1361,0.00393974,-0.00121749,0.00153739,0.00436326,-0.00164101,0.268814,0.00358336,0.00895775,1098,1702,4.25251,-16.1361
-119,-678,4.27661,16.2828,0.0045128,-0.0021016,0.00196154,0.00505075,-0.00263955,0.267669,0.00451216,0.0182929,1105,1702,4.27663,-16.2829
-112,-678,4.2854,16.3735,0.00491134,-0.00328348,0.00233474,0.00552983,-0.00390197,0.258962,0.00547242,0.0270697,1112,1702,4.28543,-16.3736
-105,-678,4.32166,16.455,0.00510392,-0.00463007,0.0027493,0.00582677,-0.00535291,0.2571,0.00645653,0.0299929,1119,1702,4.3217,-16.4549
-98,-678,4.31384,16.4286,0.00514685,-0.00601861,0.00322539,0.0060116,-0.00688336,0.261947,0.00745058,0.0222469,1126,1702,4.31382,-16.4286
-91,-678,4.31372,16.5499,0.00519911,-0.00721438,0.00363056,0.00618296,-0.00819823,0.264635,0.00833012,0.021029,1133,1702,4.31375,-16.5499
-84,-678,4.36792,16.5453,0.00533149,-0.00832393,0.00393648,0.00638499,-0.00937743,0.261497,0.00915494,0.0333994,1140,1702,4.36795,-16.5453
-77,-678,4.37708,16.7412,0.00563224,-0.00939895,0.00387829,0.00657391,-0.0103406,0.238195,0.00984599,0.0477005,1147,1702,4.37712,-16.7412
-70,-678,4.51758,17.2299,0,0,0,0,0,0,0,-1,1154,1702,4.51758,-17.2299
-63,-678,3.41687,11.0365,0,0,0,0,0,0,0,-1,1161,1702,3.41682,-11.0365
-56,-678,1.72388,6.13159,0,0,0,0,0,0,0,-1,1168,1702,1.72388,-6.13157
-49,-678,-0.241699,5.29895,0,0,0,0,0,0,0,-1,1175,1702,-0.241682,-5.29897
-42,-678,0.297119,3.90649,0,0,0,0,0,0,0,-1,1182,1702,0.297139,-3.90655
-35,-678,0.498413,3.64038,0,0,0,0,0,0,0,-1,1189,1702,0.498471,-3.64038
-28,-678,0.132446,3.55994,0,0,0,0,0,0,0,-1,1196,1702,0.132432,-3.55993
-21,-678,4.80811,17.0248,0,0,0,0,0,0,0,-1,1203,1702,4.80816,-17.0248
-14,-678,4.70227,17.0941,-0.0179475,0.0153403,0.00908872,0.0176602,-0.0202674,1.32089,0.0219147,0.0387793,1210,1702,4.70222,-17.0941
-7,-678,4.72546,17.1805,-0.0127175,0.0186931,0.0101798,0.0217037,-0.0157281,1.28325,0.0217029,0.040741,1217,1702,4.72548,-17.1806
0,-678,4.78882,17.2277,-0.00660332,0.024635,0.0125822,0.0290725,-0.0110408,1.23173,0.0239267,0.0449408,1224,1702,4.78884,-17.2276
7,-678,4.87036,17.3274,0,0,0,0,0,0,0,-1,1231,1702,4.87033,-17.3274
14,-678,4.44653,17.4761,0,0,0,0,0,0,0,-1,1238,1702,4.44656,-17.4761
21,-678,3.18176,14.4742,0,0,0,0,0,0,0,-1,1245,1702,3.18178,-14.4742
28,-678,4.90967,17.6943,0.017475,0.0333391,0.0163277,0.0435595,0.0072546,1.01151,0.0269489,0.0447906,1252,1702,4.90962,-17.6943
35,-678,4.91638,17.6987,0.0191375,0.0312527,0.016401,0.042679,0.00771112,0.962299,0.0262624,0.0429917,1259,1702,4.91635,-17.6987
42,-678,4.81433,17.692,0.0196881,0.027427,0.0166483,0.0406496,0.00646546,0.899583,0.0252223,0.0447838,1266,1702,4.81429,-17.692
49,-678,5.80164,17.1606,0.0183405,0.0230204,0.0165327,0.0373779,0.00398302,0.855699,0.0237027,0.0446243,1273,1702,5.80159,-17.1606
56,-678,4.8667,17.3545,0,0,0,0,0,0,0,-1,1280,1702,4.86667,-17.3545
63,-678,4.94336,17.6163,0.00542126,0.0113433,0.0143598,0.0230442,-0.00627957,0.887075,0.0178285,0.0467642,1287,1702,4.94341,-17.6164
70,-678,6.29346,17.4014,-0.00311421,0.00532353,0.0115819,0.013431,-0.0112217,0.960061,0.0142523,0.0458944,1294,1702,6.29342,-17.4014
77,-678,5.39551,17.733,0,0,0,0,0,0,0,-1,1301,1702,5.3955,-17.733
84,-678,5.27124,17.8461,0,0,0,0,0,0,0,-1,1308,1702,5.27128,-17.846
91,-678,5.11572,17.7935,0,0,0,0,0,0,0,-1,1315,1702,5.11574,-17.7934
98,-678,5.15674,18.2765,-0.0376754,-0.00672585,0.00422423,-0.00615965,-0.0382416,1.43755,0.0237094,0.0433296,1322,1702,5.1567,-18.2765
105,-678,4.95398,17.3639,-0.043119,-0.0063656,0.0013314,-0.00631743,-0.0431672,1.53463,0.0269205,0.0438723,1329,1702,4.95402,-17.3639
112,-678,3.37,16.5474,-0.0443133,-0.00234655,0.000117347,-0.00234622,-0.0443136,1.568,0.0287922,0.0406113,1336,1702,3.36999,-16.5474
119,-678,2.81567,17.016,-0.0430651,0.00262751,-0.000628163,0.00263614,-0.0430737,-1.55705,0.0296336,0.0410757,1343,1702,2.81565,-17.016
126,-678,2.35876,17.3418,0,0,0,0,0,0,0,-1,1350,1702,2.35873,-17.3418
133,-678,2.11353,17.5988,0,0,0,0,0,0,0,-1,1357,1702,2.11356,-17.5987
140,-678,5.19897,17.0961,0,0,0,0,0,0,0,-1,1364,1702,5.19894,-17.0961
147,-678,5.10315,17.2947,0,0,0,0,0,0,0,-1,1371,1702,5.10315,-17.2947
154,-678,5.02588,16.8392,0,0,0,0,0,0,0,-1,1378,1702,5.02582,-16.8392
161,-678,3.44202,4.53992,0,0,0,0,0,0,0,-1,1385,1702,3.442,-4.53996
168,-678,4.21863,5.25781,0,0,0,0,0,0,0,-1,1392,1702,4.21865,-5.25781
175,-678,5.21899,5.9635,0,0,0,0,0,0,0,-1,1399,1702,5.21894,-5.96346
182,-678,7.31262,6.75122,0,0,0,0,0,0,0,-1,1406,1702,7.3126,-6.75123
189,-678,5.96021,6.36853,0,0,0,0,0,0,0,-1,1413,1702,5.96018,-6.36851
196,-678,5.01599,8.15771,0,0,0,0,0,0,0,-1,1420,1702,5.01596,-8.15767
203,-678,4.64771,13.0559,0,0,0,0,0,0,0,-1,1427,1702,4.64766,-13.0559
210,-678,5.58997,17.7506,0,0,0,0,0,0,0,-1,1434,1702,5.58997,-17.7506
217,-678,5.60754,17.0837,0,0,0,0,0,0,0,-1,1441,1702,5.6075,-17.0838
224,-678,5.45813,16.8788,0,0,0,0,0,0,0,-1,1448,1702,5.45815,-16.8788
231,-678,5.48462,16.8135,0,0,0,0,0,0,0,-1,1455,1702,5.48464,-16.8135
238,-678,5.62451,16.9353,0.00194714,-0.000781759,0.000250882,0.00197002,-0.000804632,0.0909196,0.00164837,0.0493854,1462,1702,5.62454,-16.9354
245,-678,5.55713,16.7974,0.00268109,-0.00200278,0.000362238,0.00270894,-0.00203063,0.0767294,0.00274571,0.0388481,1469,1702,5.55719,-16.7974
252,-678,5.52808,16.6328,0.00304017,-0.00281089,0.000433725,0.00307214,-0.00284287,0.0735916,0.00341589,0.0277244,1476,1702,5.52805,-16.6328
259,-678,5.50891,16.5714,0.0033113,-0.00340535,0.00046822,0.00334378,-0.00343783,0.0692638,0.00391549,0.0161944,1483,1702,5.50893,-16.5714
266,-678,5.54211,16.476,0.00347554,-0.00398697,0.000554705,0.00351655,-0.00402797,0.0737917,0.00435917,0.0106095,1490,1702,5.54206,-16.476
273,-678,5.56641,16.3976,0.00371539,-0.00388483,0.000441996,0.00374101,-0.00391045,0.0578955,0.00441793,0.0108174,1497,1702,5.56639,-16.3976
280,-678,5.56348,16.2941,0.00368412,-0.0035063,0.00034952,0.00370107,-0.00352325,0.0484569,0.00417138,0.0113791,1504,1702,5.56351,-16.2941
287,-678,5.54956,16.156,0.0034094,-0.003005,0.000271859,0.0034209,-0.0030165,0.0422815,0.00371908,0.0106072,1511,1702,5.54958,-16.156
294,-678,5.55017,16.033,0.00309844,-0.00255312,0.000177299,0.003104,-0.00255868,0.0313307,0.0032744,0.0108457,1518,1702,5.55013,-16.033
301,-678,5.55688,15.9365,0.00263651,-0.00190714,7.25966e-05,0.00263767,-0.0019083,0.0159721,0.00263586,0.0117913,1525,1702,5.55689,-15.9366
308,-678,5.55811,15.8298,0.00198943,-0.00116184,-0.000136716,0.00199535,-0.00116776,-0.0432762,0.00184694,0.0128178,1532,1702,5.55808,-15.8298
315,-678,5.58325,15.7129,0.00119647,-0.000231193,-0.000305966,0.00125928,-0.000294002,-0.202468,0.000952763,0.0140006,1539,1702,5.58328,-15.7129
322,-678,5.57483,15.6163,0.000523191,0.000718706,-0.000426603,0.00105861,0.000183288,-0.89803,0.000653271,0.0175971,1546,1702,5.57481,-15.6164
329,-678,5.54114,15.4631,-6.80106e-05,0.00118101,-0.000439521,0.00132017,-0.00020717,-1.26417,0.000956679,0.0163283,1553,1702,5.54118,-15.4631
336,-678,5.52539,15.3127,-0.000525974,0.00166226,-0.000515382,0.00177757,-0.000641283,-1.35069,0.00144698,0.0136017,1560,1702,5.52538,-15.3127
343,-678,5.54639,15.1942,-0.000808859,0.00219862,-0.000722868,0.00236334,-0.000973583,-1.34675,0.00198149,0.0115165,1567,1702,5.54643,-15.1942
350,-678,5.56628,15.058,-0.000975477,0.00240397,-0.000863614,0.00261187,-0.00118338,-1.33455,0.00224233,0.0111206,1574,1702,5.56629,-15.058
357,-678,5.58069,14.9005,-0.000888367,0.00238146,-0.000984825,0.00265516,-0.00116207,-1.29972,0.00225938,0.00910606,1581,1702,5.58067,-14.9005
364,-678,5.56189,14.7563,-0.000567034,0.00233603,-0.00120537,0.00277125,-0.00100226,-1.22429,0.00225703,0.0112172,1588,1702,5.5619,-14.7564
371,-678,5.5304,14.6146,-3.3981e-05,0.00207849,-0.00142273,0.0027942,-0.000749691,-1.10471,0.00215658,0.0125131,1595,1702,5.53036,-14.6146
378,-678,5.52637,14.4469,0.000619169,0.00171398,-0.00185534,0.00310098,-0.000767832,-0.92885,0.00236518,0.0138272,1602,1702,5.52637,-14.4469
385,-678,5.54407,14.3096,0.00137861,0.00204541,-0.00240913,0.0041441,-0.000720083,-0.854156,0.0030314,0.0171142,1609,1702,5.5441,-14.3096
392,-678,5.5697,14.2325,0.00235608,0.00333866,-0.00310449,0.00599049,-0.000295753,-0.863873,0.00409581,0.0293112,1616,1702,5.56966,-14.2326
399,-678,5.56848,14.126,0.00296284,0.00427297,-0.00379651,0.00747051,-0.000234702,-0.87083,0.00506039,0.0390431,1623,1702,5.56854,-14.1259
406,-678,5.55408,13.9928,0.00357306,0.0055607,-0.00436385,0.00904246,9.12948e-05,-0.897358,0.00599811,0.0411954,1630,1702,5.55405,-13.9928
413,-678,5.63782,13.587,0.00494221,0.007264,-0.00457027,0.0108185,0.0013877,-0.909773,0.00679716,0.0449626,1637,1702,5.6378,-13.587
420,-678,5.72229,13.4197,0,0,0,0,0,0,0,-1,1644,1702,5.72235,-13.4197
427,-678,4.57483,10.1555,0,0,0,0,0,0,0,-1,1651,1702,4.57485,-10.1555
434,-678,5.73999,11.7773,0,0,0,0,0,0,0,-1,1658,1702,5.73994,-11.7774
441,-678,4.47729,11.1503,0,0,0,0,0,0,0,-1,1665,1702,4.47728,-11.1503
448,-678,3.25525,9.74719,0,0,0,0,0,0,0,-1,1672,1702,3.25522,-9.7472
455,-678,5.44678,5.54297,0,0,0,0,0,0,0,-1,1679,1702,5.44676,-5.54294
462,-678,3.86792,2.87402,0,0,0,0,0,0,0,-1,1686,1702,3.86796,-2.87406
469,-678,2.26587,1.98755,0,0,0,0,0,0,0,-1,1693,1702,2.26592,-1.98755
476,-678,0,0,0,0,0,0,0,0,0,-1,1700,1702,0,0
483,-678,0,0,0,0,0,0,0,0,0,-1,1707,1702,0,0
490,-678,0,0,0,0,0,0,0,0,0,-1,1714,1702,0,0
497,-678,0,0,0,0,0,0,0,0,0,-1,1721,1702,0,0
504,-678,0,0,0,0,0,0,0,0,0,-1,1728,1702,0,0
511,-678,0,0,0,0,0,0,0,0,0,-1,1735,1702,0,0
518,-678,0,0,0,0,0,0,0,0,0,-1,1742,1702,0,0
525,-678,0,0,0,0,0,0,0,0,0,-1,1749,1702,0,0
532,-678,0,0,0,0,0,0,0,0,0,-1,1756,1702,0,0
539,-678,0,0,0,0,0,0,0,0,0,-1,1763,1702,0,0
546,-678,0,0,0,0,0,0,0,0,0,-1,1770,1702,0,0
553,-678,0,0,0,0,0,0,0,0,0,-1,1777,1702,0,0
560,-678,0,0,0,0,0,0,0,0,0,-1,1784,1702,0,0
567,-678,0,0,0,0,0,0,0,0,0,-1,1791,1702,0,0
574,-678,0,0,0,0,0,0,0,0,0,-1,1798,1702,0,0
581,-678,0,0,0,0,0,0,0,0,0,-1,1805,1702,0,0
588,-678,0,0,0,0,0,0,0,0,0,-1,1812,1702,0,0
595,-678,0,0,0,0,0,0,0,0,0,-1,1819,1702,0,0
602,-678,0,0,0,0,0,0,0,0,0,-1,1826,1702,0,0
609,-678,0,0,0,0,0,0,0,0,0,-1,1833,1702,0,0
616,-678,0,0,0,0,0,0,0,0,0,-1,1840,1702,0,0
623,-678,0,0,0,0,0,0,0,0,0,-1,1847,1702,0,0
630,-678,0,0,0,0,0,0,0,0,0,-1,1854,1702,0,0
637,-678,0,0,0,0,0,0,0,0,0,-1,1861,1702,0,0
644,-678,0,0,0,0,0,0,0,0,0,-1,1868,1702,0,0
651,-678,0,0,0,0,0,0,0,0,0,-1,1875,1702,0,0
658,-678,0,0,0,0,0,0,0,0,0,-1,1882,1702,0,0
665,-678,0,0,0,0,0,0,0,0,0,-1,1889,1702,0,0
672,-678,0,0,0,0,0,0,0,0,0,-1,1896,1702,0,0
679,-678,0,0,0,0,0,0,0,0,0,-1,1903,1702,0,0
686,-678,0,0,0,0,0,0,0,0,0,-1,1910,1702,0,0
693,-678,0,0,0,0,0,0,0,0,0,-1,1917,1702,0,0
700,-678,0,0,0,0,0,0,0,0,0,-1,1924,1702,0,0
707,-678,0,0,0,0,0,0,0,0,0,-1,1931,1702,0,0
714,-678,0,0,0,0,0,0,0,0,0,-1,1938,1702,0,0
721,-678,0,0,0,0,0,0,0,0,0,-1,1945,1702,0,0
728,-678,0,0,0,0,0,0,0,0,0,-1,1952,1702,0,0
735,-678,0,0,0,0,0,0,0,0,0,-1,1959,1702,0,0
742,-678,0,0,0,0,0,0,0,0,0,-1,1966,1702,0,0
749,-678,0,0,0,0,0,0,0,0,0,-1,1973,1702,0,0
756,-678,0,0,0,0,0,0,0,0,0,-1,1980,1702,0,0
763,-678,0,0,0,0,0,0,0,0,0,-1,1987,1702,0,0
770,-678,0,0,0,0,0,0,0,0,0,-1,1994,1702,0,0
777,-678,0,0,0,0,0,0,0,0,0,-1,2001,1702,0,0
784,-678,0,0,0,0,0,0,0,0,0,-1,2008,1702,0,0
791,-678,0,0,0,0,0,0,0,0,0,-1,2015,1702,0,0
798,-678,0,0,0,0,0,0,0,0,0,-1,2022,1702,0,0
805,-678,0,0,0,0,0,0,0,0,0,-1,2029,1702,0,0
812,-678,0,0,0,0,0,0,0,0,0,-1,2036,1702,0,0
-700,-685,0,0,0,0,0,0,0,0,0,-1,524,1709,0,0
-693,-685,0,0,0,0,0,0,0,0,0,-1,531,1709,0,0
-686,-685,0,0,0,0,0,0,0,0,0,-1,538,1709,0,0
-679,-685,0,0,0,0,0,0,0,0,0,-1,545,1709,0,0
-672,-685,0,0,0,0,0,0,0,0,0,-1,552,1709,0,0
-665,-685,0,0,0,0,0,0,0,0,0,-1,559,1709,0,0
-658,-685,0,0,0,0,0,0,0,0,0,-1,566,1709,0,0
-651,-685,0,0,0,0,0,0,0,0,0,-1,573,1709,0,0
-644,-685,0,0,0,0,0,0,0,0,0,-1,580,1709,0,0
-637,-685,0,0,0,0,0,0,0,0,0,-1,587,1709,0,0
-630,-685,0,0,0,0,0,0,0,0,0,-1,594,1709,0,0
-623,-685,0,0,0,0,0,0,0,0,0,-1,601,1709,0,0
-616,-685,0,0,0,0,0,0,0,0,0,-1,608,1709,0,0
-609,-685,0,0,0,0,0,0,0,0,0,-1,615,1709,0,0
-602,-685,0,0,0,0,0,0,0,0,0,-1,622,1709,0,0
-595,-685,0,0,0,0,0,0,0,0,0,-1,629,1709,0,0
-588,-685,0,0,0,0,0,0,0,0,0,-1,636,1709,0,0
-581,-685,0,0,0,0,0,0,0,0,0,-1,643,1709,0,0
-574,-685,0,0,0,0,0,0,0,0,0,-1,650,1709,0,0
-567,-685,0,0,0,0,0,0,0,0,0,-1,657,1709,0,0
-560,-685,0,0,0,0,0,0,0,0,0,-1,664,1709,0,0
-553,-685,0,0,0,0,0,0,0,0,0,-1,671,1709,0,0
-546,-685,0,0,0,0,0,0,0,0,0,-1,678,1709,0,0
-539,-685,0,0,0,0,0,0,0,0,0,-1,685,1709,0,0
-532,-685,0,0,0,0,0,0,0,0,0,-1,692,1709,0,0
-525,-685,0,0,0,0,0,0,0,0,0,-1,699,1709,0,0
-518,-685,0,0,0,0,0,0,0,0,0,-1,706,1709,0,0
-511,-685,0,0,0,0,0,0,0,0,0,-1,713,1709,0,0
-504,-685,0,0,0,0,0,0,0,0,0,-1,720,1709,0,0
-497,-685,0,0,0,0,0,0,0,0,0,-1,727,1709,0,0
-490,-685,0,0,0,0,0,0,0,0,0,-1,734,1709,0,0
-483,-685,0,0,0,0,0,0,0,0,0,-1,741,1709,0,0
-476,-685,0,0,0,0,0,0,0,0,0,-1,748,1709,0,0
-469,-685,0,0,0,0,0,0,0,0,0,-1,755,1709,0,0
-462,-685,0,0,0,0,0,0,0,0,0,-1,762,1709,0,0
-455,-685,0,0,0,0,0,0,0,0,0,-1,769,1709,0,0
-448,-685,0,0,0,0,0,0,0,0,0,-1,776,1709,0,0
-441,-685,0,0,0,0,0,0,0,0,0,-1,783,1709,0,0
-434,-685,0,0,0,0,0,0,0,0,0,-1,790,1709,0,0
-427,-685,0,0,0,0,0,0,0,0,0,-1,797,1709,0,0
-420,-685,0,0,0,0,0,0,0,0,0,-1,804,1709,0,0
-413,-685,0,0,0,0,0,0,0,0,0,-1,811,1709,0,0
-406,-685,0,0,0,0,0,0,0,0,0,-1,818,1709,0,0
-399,-685,0,0,0,0,0,0,0,0,0,-1,825,1709,0,0
-392,-685,0,0,0,0,0,0,0,0,0,-1,832,1709,0,0
-385,-685,0,0,0,0,0,0,0,0,0,-1,839,1709,0,0
-378,-685,0,0,0,0,0,0,0,0,0,-1,846,1709,0,0
-371,-685,0,0,0,0,0,0,0,0,0,-1,853,1709,0,0
-364,-685,0,0,0,0,0,0,0,0,0,-1,860,1709,0,0
-357,-685,0,0,0,0,0,0,0,0,0,-1,867,1709,0,0
-350,-685,0,0,0,0,0,0,0,0,0,-1,874,1709,0,0
-343,-685,-5.98505,6.56335,0,0,0,0,0,0,0,-1,881,1709,-5.98505,-6.56329
-336,-685,-6.51312,5.10571,0,0,0,0,0,0,0,-1,888,1709,-6.51311,-5.10575
-329,-685,-6.81384,3.34106,0,0,0,0,0,0,0,-1,895,1709,-6.81385,-3.341
-322,-685,3.48425,16.3307,0,0,0,0,0,0,0,-1,902,1709,3.48425,-16.3307
-315,-685,3.66089,14.3413,0,0,0,0,0,0,0,-1,909,1709,3.66091,-14.3413
-308,-685,6.0274,11.0804,0,0,0,0,0,0,0,-1,916,1709,6.02742,-11.0804
-301,-685,4.46869,12.7168,0,0,0,0,0,0,0,-1,923,1709,4.46871,-12.7167
-294,-685,5.03156,12.2268,0,0,0,0,0,0,0,-1,930,1709,5.03157,-12.2268
-287,-685,4.77045,12.4103,0,0,0,0,0,0,0,-1,937,1709,4.77047,-12.4103
-280,-685,4.99536,12.6661,0,0,0,0,0,0,0,-1,944,1709,4.99538,-12.6661
-273,-685,2.83856,13.2123,0.0336015,0.000906753,0.0014039,0.0336616,0.000846582,0.0428347,0.0221643,0.0476294,951,1709,2.83857,-13.2122
-266,-685,3.19934,13.2349,0.0289272,0.000312733,0.00137114,0.0289928,0.00024718,0.0477718,0.0192467,0.0436577,958,1709,3.19936,-13.2349
-259,-685,4.40845,13.4987,0.0243808,1.9759e-05,0.00107426,0.0244281,-2.75215e-05,0.0439837,0.0162946,0.0399351,965,1709,4.40843,-13.4986
-252,-685,4.43781,13.5704,0.0195026,-0.000449386,0.000581354,0.0195195,-0.00046631,0.0291048,0.0131712,0.0373713,972,1709,4.43782,-13.5704
-245,-685,4.4884,13.678,0.0146404,-0.000841827,0.000100128,0.0146411,-0.000842475,0.0064669,0.0100533,0.0341449,979,1709,4.48839,-13.678
-238,-685,4.45575,13.8547,0.0104568,-0.0010208,-0.000320512,0.0104657,-0.00102975,-0.0278961,0.00734449,0.0252537,986,1709,4.45574,-13.8548
-231,-685,4.40106,14.0486,0.0074533,-0.000747163,-0.000386472,0.00747147,-0.000765337,-0.0469892,0.0052547,0.0162748,993,1709,4.40107,-14.0485
-224,-685,4.37537,14.1995,0.00451892,-0.000623596,-0.00035245,0.00454296,-0.000647639,-0.0681121,0.00326599,0.0142144,1000,1709,4.37537,-14.1995
-217,-685,4.35999,14.3591,0.00205331,-0.000275733,-0.000896737,0.00235856,-0.00058099,-0.328105,0.00179761,0.0112512,1007,1709,4.36001,-14.3591
-210,-685,4.34674,14.5251,0.000682746,0.000275589,-0.00112556,0.00162298,-0.00066465,-0.695931,0.00135885,0.0143963,1014,1709,4.34673,-14.5251
-203,-685,4.34985,14.6572,5.16077e-05,0.000859792,-0.000817837,0.00136792,-0.000456522,-1.01486,0.00109628,0.0141679,1021,1709,4.34991,-14.6572
-196,-685,4.35352,14.797,9.88188e-06,0.00120201,-0.000516959,0.00139496,-0.000183066,-1.21357,0.000996614,0.0121518,1028,1709,4.35358,-14.7969
-189,-685,4.34851,14.9446,9.03642e-06,0.0013626,-0.000324991,0.00143658,-6.495e-05,-1.34695,0.00098009,0.00869036,1035,1709,4.34848,-14.9446
-182,-685,4.34265,15.0898,6.87549e-05,0.00149041,-0.00021611,0.00152253,3.66293e-05,-1.42322,0.00100303,0.0136431,1042,1709,4.34268,-15.0898
-175,-685,4.33521,15.236,0.000265184,0.00160374,-0.000104083,0.00161179,0.00025714,-1.49366,0.000999896,0.0134944,1049,1709,4.33516,-15.236
-168,-685,4.3291,15.38,0.0004161,0.00161249,6.26309e-05,0.00161576,0.00041283,1.51864,0.000969323,0.0101042,1056,1709,4.32908,-15.38
-161,-685,4.33984,15.5276,0.000583768,0.00143222,0.000186958,0.00147159,0.000544398,1.36325,0.000859149,0.0105941,1063,1709,4.33987,-15.5275
-154,-685,4.35461,15.6487,0.000962456,0.00117954,0.000321323,0.00141016,0.000731839,0.94828,0.000814351,0.00997833,1070,1709,4.35464,-15.6487
-147,-685,4.3363,15.77,0.00143558,0.000895105,0.000470708,0.00170811,0.000622578,0.524815,0.000998179,0.00960603,1077,1709,4.3363,-15.7701
-140,-685,4.3313,15.8888,0.0018288,0.00035884,0.000625701,0.00205907,0.000128575,0.352629,0.00133192,0.0122229,1084,1709,4.33124,-15.8887
-133,-685,4.35522,15.9923,0.00229945,-0.000219436,0.000811311,0.00253815,-0.000458132,0.286137,0.00186367,0.0105807,1091,1709,4.35525,-15.9923
-126,-685,4.36816,16.1219,0.00275594,-0.000954887,0.00107459,0.00304466,-0.00124361,0.26248,0.00254758,0.00947666,1098,1709,4.36811,-16.122
-119,-685,4.37366,16.2219,0.00320992,-0.0016444,0.00142202,0.00359581,-0.00203029,0.264986,0.00328988,0.0136989,1105,1709,4.3736,-16.2219
-112,-685,4.36121,16.3195,0.00354534,-0.0025497,0.00172843,0.00400137,-0.00300573,0.25796,0.00405914,0.0132529,1112,1709,4.36118,-16.3194
-105,-685,4.34351,16.4257,0.00373023,-0.00354648,0.0020449,0.00426551,-0.00408176,0.25602,0.00481969,0.0110265,1119,1709,4.34354,-16.4256
-98,-685,4.41968,16.4844,0.00379544,-0.00452206,0.00240418,0.00444037,-0.00516699,0.262081,0.00555209,0.014185,1126,1709,4.41966,-16.4843
-91,-685,4.40723,16.6006,0.00386412,-0.00531401,0.00271077,0.00460495,-0.00605484,0.266778,0.00617338,0.0166754,1133,1709,4.40719,-16.6006
-84,-685,4.38611,16.7147,0.0039832,-0.00599894,0.00293033,0.00477984,-0.00679558,0.265446,0.00671677,0.0148368,1140,1709,4.38606,-16.7148
-77,-685,4.43579,16.8616,0.0041978,-0.00655837,0.00284717,0.00490496,-0.00726553,0.243446,0.00707055,0.0153432,1147,1709,4.43583,-16.8616
-70,-685,4.57971,17.0874,0.00421464,-0.00673922,0.00283488,0.00490482,-0.00742941,0.238816,0.00717072,0.0343492,1154,1709,4.57974,-17.0874
-63,-685,4.5365,17.1881,0,0,0,0,0,0,0,-1,1161,1709,4.5365,-17.1881
-56,-685,3.93909,15.8704,0,0,0,0,0,0,0,-1,1168,1709,3.93905,-15.8704
-49,-685,3.07471,9.86011,0,0,0,0,0,0,0,-1,1175,1709,3.07467,-9.86009
-42,-685,2.70618,7.54504,0,0,0,0,0,0,0,-1,1182,1709,2.7062,-7.54504
-35,-685,2.95264,7.91516,0,0,0,0,0,0,0,-1,1189,1709,2.95262,-7.91517
-28,-685,4.43152,17.3594,0,0,0,0,0,0,0,-1,1196,1709,4.43147,-17.3593
-21,-685,4.66772,17.2251,-0.0113326,0.00829828,0.00555909,0.0097632,-0.0127975,1.31314,0.0130646,0.0429696,1203,1709,4.66777,-17.2251
-14,-685,4.74646,17.2428,-0.0108858,0.00998529,0.00617593,0.0116759,-0.0125764,1.30361,0.0140052,0.0253781,1210,1709,4.7465,-17.2428
-7,-685,4.71252,17.3235,-0.00728668,0.0121301,0.00680654,0.0142784,-0.00943501,1.26506,0.0137858,0.0349847,1217,1709,4.71253,-17.3235
0,-685,4.76599,17.3453,-0.00284667,0.0160272,0.00844874,0.0192567,-0.00607609,1.2057,0.0152715,0.0405394,1224,1709,4.76599,-17.3453
7,-685,4.79016,17.3777,0.00184687,0.0183972,0.00927778,0.0225541,-0.00231001,1.14957,0.0158622,0.0375117,1231,1709,4.7902,-17.3776
14,-685,4.77478,17.5238,0.00735142,0.0202496,0.00999692,0.0256971,0.00190391,1.07186,0.0165334,0.0393729,1238,1709,4.77481,-17.5238
21,-685,4.9115,17.5552,0.0125052,0.0219713,0.0108338,0.0290608,0.0054157,0.991344,0.0178447,0.0386095,1245,1709,4.91151,-17.5552
28,-685,4.89404,17.5439,0.0155394,0.0219847,0.0112252,0.0304407,0.00708345,0.925183,0.0183931,0.0378739,1252,1709,4.89407,-17.5439
35,-685,4.88013,17.556,0.0173322,0.0208135,0.0114431,0.0306476,0.00749811,0.860878,0.0184475,0.0385335,1259,1709,4.88016,-17.556
42,-685,4.90894,17.5635,0.0183688,0.0182736,0.0118391,0.0301604,0.00648202,0.783389,0.0183323,0.0417928,1266,1709,4.90899,-17.5635
49,-685,5.30737,17.3376,0.0176955,0.0153278,0.0119034,0.0284737,0.00454957,0.735835,0.0176624,0.0437477,1273,1709,5.30734,-17.3377
56,-685,4.85803,17.45,0.014274,0.0115486,0.0115662,0.0245575,0.00126505,0.726761,0.0159667,0.045103,1280,1709,4.85806,-17.45
63,-685,4.98206,17.5983,0.00795455,0.00723892,0.0104622,0.018065,-0.00287155,0.768304,0.0131058,0.0438336,1287,1709,4.98203,-17.5983
70,-685,5.13696,17.5613,0,0,0,0,0,0,0,-1,1294,1709,5.13696,-17.5613
77,-685,5.22998,17.6611,-0.0063157,-0.00196452,0.00693193,0.0031252,-0.0114054,0.937455,0.00883163,0.041994,1301,1709,5.22994,-17.6611
84,-685,5.10413,17.6801,-0.0139533,-0.00539498,0.00569922,-0.00254726,-0.016801,1.10741,0.0104555,0.0461472,1308,1709,5.10412,-17.6801
91,-685,5.04395,17.7437,-0.0210902,-0.0072785,0.00413336,-0.00613603,-0.0222327,1.30113,0.0132585,0.0447427,1315,1709,5.04389,-17.7436
98,-685,5.12891,17.8989,-0.0283998,-0.00771725,0.00269813,-0.00737106,-0.028746,1.44319,0.0172405,0.0380981,1322,1709,5.12887,-17.8989
105,-685,4.93127,17.439,-0.0338404,-0.00833486,0.00033355,-0.0083305,-0.0338447,1.55772,0.0203625,0.0395336,1329,1709,4.93128,-17.439
112,-685,4.92029,17.2644,-0.0358774,-0.00629378,-0.00073996,-0.00627528,-0.0358959,-1.5458,0.0221373,0.0407719,1336,1709,4.92029,-17.2644
119,-685,2.65259,16.8636,0,0,0,0,0,0,0,-1,1343,1709,2.6526,-16.8636
126,-685,2.01221,16.6777,0,0,0,0,0,0,0,-1,1350,1709,2.01222,-16.6778
133,-685,5.2312,17.3959,-0.0301601,0.0030018,-0.00118331,0.00304397,-0.0302023,-1.53517,0.0212224,0.0443454,1357,1709,5.23116,-17.3959
140,-685,5.15942,17.3241,-0.0258829,0.00705396,-0.000491738,0.00706129,-0.0258903,-1.55587,0.0200332,0.0466902,1364,1709,5.15939,-17.3241
147,-685,5.10254,17.4343,-0.0217459,0.0113971,-5.47637e-05,0.0113972,-0.021746,-1.56914,0.0194437,0.0476416,1371,1709,5.10256,-17.4343
154,-685,5.14148,17.432,0,0,0,0,0,0,0,-1,1378,1709,5.14145,-17.432
161,-685,5.6283,17.5524,0,0,0,0,0,0,0,-1,1385,1709,5.62826,-17.5523
168,-685,4.37524,10.8778,0,0,0,0,0,0,0,-1,1392,1709,4.37525,-10.8778
175,-685,3.97522,8.94324,0,0,0,0,0,0,0,-1,1399,1709,3.97519,-8.94328
182,-685,3.98218,9.19739,0,0,0,0,0,0,0,-1,1406,1709,3.98221,-9.1974
189,-685,4.53479,15.2343,0,0,0,0,0,0,0,-1,1413,1709,4.53474,-15.2343
196,-685,5.32947,17.4551,0,0,0,0,0,0,0,-1,1420,1709,5.32947,-17.4551
203,-685,5.47241,17.7557,0,0,0,0,0,0,0,-1,1427,1709,5.47237,-17.7557
210,-685,5.39038,17.387,0.00107857,0.00308542,0.000262887,0.00311929,0.00104471,1.44268,0.00183335,0.0428325,1434,1709,5.3904,-17.387
217,-685,5.41406,17.0592,0.000374706,0.00246508,0.000170944,0.00247896,0.000360819,1.48974,0.00154646,0.0248573,1441,1709,5.41405,-17.0592
224,-685,5.35608,16.9457,0.000226009,0.00169421,0.000468618,0.00183103,8.9187e-05,1.28672,0.00119207,0.0160239,1448,1709,5.35611,-16.9456
231,-685,5.38696,16.8859,0.000404241,0.000651344,0.000512268,0.00105475,8.35047e-07,0.903731,0.000702888,0.0157446,1455,1709,5.38694,-16.8858
238,-685,5.41553,16.7994,0.00111485,-0.000299588,0.000292755,0.00117305,-0.000357787,0.196238,0.000924661,0.0180097,1462,1709,5.41551,-16.7995
245,-685,5.41016,16.7341,0.00157435,-0.00109181,0.000322604,0.00161283,-0.00113029,0.118717,0.00159188,0.0199281,1469,1709,5.41012,-16.7341
252,-685,5.41431,16.6895,0.00186618,-0.00165902,0.000322393,0.00189542,-0.00168826,0.0904538,0.00207019,0.0151385,1476,1709,5.41436,-16.6895
259,-685,5.422,16.5853,0.00211985,-0.00205709,0.000296791,0.00214083,-0.00207807,0.0705821,0.00243587,0.0104119,1483,1709,5.42203,-16.5854
266,-685,5.43945,16.48,0.00228379,-0.00246361,0.000308698,0.00230378,-0.00248359,0.0646617,0.00276464,0.0115225,1490,1709,5.43947,-16.48
273,-685,5.45264,16.3936,0.00239707,-0.00233151,0.000170679,0.00240322,-0.00233766,0.0360327,0.00273724,0.0142694,1497,1709,5.4526,-16.3936
280,-685,5.43604,16.2775,0.00231029,-0.00200797,3.71013e-05,0.00231061,-0.00200829,0.00859086,0.00249556,0.0157324,1504,1709,5.43609,-16.2774
287,-685,5.44653,16.1658,0.00205073,-0.00158762,-4.20046e-05,0.00205121,-0.0015881,-0.0115429,0.00210682,0.0111999,1511,1709,5.44651,-16.1657
294,-685,5.44482,16.0537,0.00179787,-0.00118249,-0.00015493,0.0018059,-0.00119053,-0.0517974,0.00174211,0.00987677,1518,1709,5.44478,-16.0537
301,-685,5.45032,15.9375,0.00140441,-0.000683654,-0.000294587,0.00144517,-0.000724419,-0.137507,0.00127545,0.0127578,1525,1709,5.45035,-15.9375
308,-685,5.45435,15.8147,0.000769891,-5.37643e-05,-0.000631956,0.00111236,-0.000396238,-0.496624,0.000903111,0.0134826,1532,1709,5.45433,-15.8147
315,-685,5.46313,15.7067,-7.4465e-05,0.00092901,-0.000859921,0.00142287,-0.00056832,-1.04949,0.00118438,0.0118657,1539,1709,5.46316,-15.7066
322,-685,5.44287,15.5754,-0.000709428,0.00191784,-0.00098989,0.00224905,-0.00104064,-1.24791,0.00194155,0.0196022,1546,1709,5.44289,-15.5754
329,-685,5.42371,15.436,-0.00127912,0.00226913,-0.00095316,0.00250897,-0.00151896,-1.32429,0.00234882,0.020028,1553,1709,5.42367,-15.4361
336,-685,5.41968,15.3066,-0.00170075,0.0027043,-0.00104187,0.00293829,-0.00193474,-1.34987,0.00283326,0.0135366,1560,1709,5.4197,-15.3067
343,-685,5.41187,15.2003,-0.00189699,0.00325756,-0.00129687,0.00356546,-0.00220489,-1.3377,0.00336224,0.0112782,1567,1709,5.41186,-15.2003
350,-685,5.42993,15.0432,-0.00204244,0.00346014,-0.00140104,0.00379632,-0.00237863,-1.33529,0.00359629,0.0113466,1574,1709,5.42996,-15.0432
357,-685,5.44434,14.8994,-0.00192435,0.00342889,-0.00146591,0.00380402,-0.00229948,-1.32027,0.00355936,0.00921653,1581,1709,5.44429,-14.8994
364,-685,5.4209,14.7568,-0.00151104,0.00334566,-0.00163071,0.00384239,-0.00200777,-1.27512,0.00343251,0.0088915,1588,1709,5.42088,-14.7568
371,-685,5.43152,14.6013,-0.000807655,0.00299248,-0.00177113,0.00368995,-0.00150512,-1.19565,0.00308652,0.0154071,1595,1709,5.43153,-14.6013
378,-685,5.35571,14.5057,8.16056e-05,0.00246445,-0.00217806,0.00375565,-0.0012096,-1.03567,0.00298968,0.0226132,1602,1709,5.3557,-14.5057
385,-685,5.39758,14.4038,0.00113793,0.00260251,-0.00274699,0.00471314,-0.000972702,-0.915659,0.00351153,0.0372934,1609,1709,5.39754,-14.4038
392,-685,5.78479,14.0084,0.00253715,0.00385921,-0.00352855,0.00678811,-0.000391749,-0.877993,0.00466148,0.0415516,1616,1709,5.78476,-14.0084
399,-685,6.04663,13.8823,0,0,0,0,0,0,0,-1,1623,1709,6.04667,-13.8823
406,-685,5.44141,14.1665,0,0,0,0,0,0,0,-1,1630,1709,5.44142,-14.1665
413,-685,5.50183,13.8282,0,0,0,0,0,0,0,-1,1637,1709,5.5018,-13.8283
420,-685,4.84631,10.3781,0,0,0,0,0,0,0,-1,1644,1709,4.84634,-10.378
427,-685,6.05151,9.21155,0,0,0,0,0,0,0,-1,1651,1709,6.05156,-9.21156
434,-685,4.87769,8.91418,0,0,0,0,0,0,0,-1,1658,1709,4.87768,-8.91413
441,-685,5.62,8.75549,0,0,0,0,0,0,0,-1,1665,1709,5.61996,-8.75545
448,-685,6.4043,8.58972,0,0,0,0,0,0,0,-1,1672,1709,6.40435,-8.58971
455,-685,2.31958,4.09802,0,0,0,0,0,0,0,-1,1679,1709,2.31957,-4.09803
462,-685,0,0,0,0,0,0,0,0,0,-1,1686,1709,0,0
469,-685,0,0,0,0,0,0,0,0,0,-1,1693,1709,0,0
476,-685,0,0,0,0,0,0,0,0,0,-1,1700,1709,0,0
483,-685,0,0,0,0,0,0,0,0,0,-1,1707,1709,0,0
490,-685,0,0,0,0,0,0,0,0,0,-1,1714,1709,0,0
497,-685,0,0,0,0,0,0,0,0,0,-1,1721,1709,0,0
504,-685,0,0,0,0,0,0,0,0,0,-1,1728,1709,0,0
511,-685,0,0,0,0,0,0,0,0,0,-1,1735,1709,0,0
518,-685,0,0,0,0,0,0,0,0,0,-1,1742,1709,0,0
525,-685,0,0,0,0,0,0,0,0,0,-1,1749,1709,0,0
532,-685,0,0,0,0,0,0,0,0,0,-1,1756,1709,0,0
539,-685,0,0,0,0,0,0,0,0,0,-1,1763,1709,0,0
546,-685,0,0,0,0,0,0,0,0,0,-1,1770,1709,0,0
553,-685,0,0,0,0,0,0,0,0,0,-1,1777,1709,0,0
560,-685,0,0,0,0,0,0,0,0,0,-1,1784,1709,0,0
567,-685,0,0,0,0,0,0,0,0,0,-1,1791,1709,0,0
574,-685,0,0,0,0,0,0,0,0,0,-1,1798,1709,0,0
581,-685,0,0,0,0,0,0,0,0,0,-1,1805,1709,0,0
588,-685,0,0,0,0,0,0,0,0,0,-1,1812,1709,0,0
595,-685,0,0,0,0,0,0,0,0,0,-1,1819,1709,0,0
602,-685,0,0,0,0,0,0,0,0,0,-1,1826,1709,0,0
609,-685,0,0,0,0,0,0,0,0,0,-1,1833,1709,0,0
616,-685,0,0,0,0,0,0,0,0,0,-1,1840,1709,0,0
623,-685,0,0,0,0,0,0,0,0,0,-1,1847,1709,0,0
630,-685,0,0,0,0,0,0,0,0,0,-1,1854,1709,0,0
637,-685,0,0,0,0,0,0,0,0,0,-1,1861,1709,0,0
644,-685,0,0,0,0,0,0,0,0,0,-1,1868,1709,0,0
651,-685,0,0,0,0,0,0,0,0,0,-1,1875,1709,0,0
658,-685,0,0,0,0,0,0,0,0,0,-1,1882,1709,0,0
665,-685,0,0,0,0,0,0,0,0,0,-1,1889,1709,0,0
672,-685,0,0,0,0,0,0,0,0,0,-1,1896,1709,0,0
679,-685,0,0,0,0,0,0,0,0,0,-1,1903,1709,0,0
686,-685,0,0,0,0,0,0,0,0,0,-1,1910,1709,0,0
693,-685,0,0,0,0,0,0,0,0,0,-1,1917,1709,0,0
700,-685,0,0,0,0,0,0,0,0,0,-1,1924,1709,0,0
707,-685,0,0,0,0,0,0,0,0,0,-1,1931,1709,0,0
714,-685,0,0,0,0,0,0,0,0,0,-1,1938,1709,0,0
721,-685,0,0,0,0,0,0,0,0,0,-1,1945,1709,0,0
728,-685,0,0,0,0,0,0,0,0,0,-1,1952,1709,0,0
735,-685,0,0,0,0,0,0,0,0,0,-1,1959,1709,0,0
742,-685,0,0,0,0,0,0,0,0,0,-1,1966,1709,0,0
749,-685,0,0,0,0,0,0,0,0,0,-1,1973,1709,0,0
756,-685,0,0,0,0,0,0,0,0,0,-1,1980,1709,0,0
763,-685,0,0,0,0,0,0,0,0,0,-1,1987,1709,0,0
770,-685,0,0,0,0,0,0,0,0,0,-1,1994,1709,0,0
777,-685,0,0,0,0,0,0,0,0,0,-1,2001,1709,0,0
784,-685,0,0,0,0,0,0,0,0,0,-1,2008,1709,0,0
791,-685,0,0,0,0,0,0,0,0,0,-1,2015,1709,0,0
798,-685,0,0,0,0,0,0,0,0,0,-1,2022,1709,0,0
805,-685,0,0,0,0,0,0,0,0,0,-1,2029,1709,0,0
812,-685,0,0,0,0,0,0,0,0,0,-1,2036,1709,0,0
-700,-692,0,0,0,0,0,0,0,0,0,-1,524,1716,0,0
-693,-692,0,0,0,0,0,0,0,0,0,-1,531,1716,0,0
-686,-692,0,0,0,0,0,0,0,0,0,-1,538,1716,0,0
-679,-692,0,0,0,0,0,0,0,0,0,-1,545,1716,0,0
-672,-692,0,0,0,0,0,0,0,0,0,-1,552,1716,0,0
-665,-692,0,0,0,0,0,0,0,0,0,-1,559,1716,0,0
-658,-692,0,0,0,0,0,0,0,0,0,-1,566,1716,0,0
-651,-692,0,0,0,0,0,0,0,0,0,-1,573,1716,0,0
-644,-692,0,0,0,0,0,0,0,0,0,-1,580,1716,0,0
-637,-692,0,0,0,0,0,0,0,0,0,-1,587,1716,0,0
-630,-692,0,0,0,0,0,0,0,0,0,-1,594,1716,0,0
-623,-692,0,0,0,0,0,0,0,0,0,-1,601,1716,0,0
-616,-692,0,0,0,0,0,0,0,0,0,-1,608,1716,0,0
-609,-692,0,0,0,0,0,0,0,0,0,-1,615,1716,0,0
-602,-692,0,0,0,0,0,0,0,0,0,-1,622,1716,0,0
-595,-692,0,0,0,0,0,0,0,0,0,-1,629,1716,0,0
-588,-692,0,0,0,0,0,0,0,0,0,-1,636,1716,0,0
-581,-692,0,0,0,0,0,0,0,0,0,-1,643,1716,0,0
-574,-692,0,0,0,0,0,0,0,0,0,-1,650,1716,0,0
-567,-692,0,0,0,0,0,0,0,0,0,-1,657,1716,0,0
-560,-692,0,0,0,0,0,0,0,0,0,-1,664,1716,0,0
-553,-692,0,0,0,0,0,0,0,0,0,-1,671,1716,0,0
-546,-692,0,0,0,0,0,0,0,0,0,-1,678,1716,0,0
-539,-692,0,0,0,0,0,0,0,0,0,-1,685,1716,0,0
-532,-692,0,0,0,0,0,0,0,0,0,-1,692,1716,0,0
-525,-692,0,0,0,0,0,0,0,0,0,-1,699,1716,0,0
-518,-692,0,0,0,0,0,0,0,0,0,-1,706,1716,0,0
-511,-692,0,0,0,0,0,0,0,0,0,-1,713,1716,0,0
-504,-692,0,0,0,0,0,0,0,0,0,-1,720,1716,0,0
-497,-692,0,0,0,0,0,0,0,0,0,-1,727,1716,0,0
-490,-692,0,0,0,0,0,0,0,0,0,-1,734,1716,0,0
-483,-692,0,0,0,0,0,0,0,0,0,-1,741,1716,0,0
-476,-692,0,0,0,0,0,0,0,0,0,-1,748,1716,0,0
-469,-692,0,0,0,0,0,0,0,0,0,-1,755,1716,0,0
-462,-692,0,0,0,0,0,0,0,0,0,-1,762,1716,0,0
-455,-692,0,0,0,0,0,0,0,0,0,-1,769,1716,0,0
-448,-692,0,0,0,0,0,0,0,0,0,-1,776,1716,0,0
-441,-692,0,0,0,0,0,0,0,0,0,-1,783,1716,0,0
-434,-692,0,0,0,0,0,0,0,0,0,-1,790,1716,0,0
-427,-692,0,0,0,0,0,0,0,0,0,-1,797,1716,0,0
-420,-692,0,0,0,0,0,0,0,0,0,-1,804,1716,0,0
-413,-692,0,0,0,0,0,0,0,0,0,-1,811,1716,0,0
-406,-692,0,0,0,0,0,0,0,0,0,-1,818,1716,0,0
-399,-692,0,0,0,0,0,0,0,0,0,-1,825,1716,0,0
-392,-692,0,0,0,0,0,0,0,0,0,-1,832,1716,0,0
-385,-692,0,0,0,0,0,0,0,0,0,-1,839,1716,0,0
-378,-692,0,0,0,0,0,0,0,0,0,-1,846,1716,0,0
-371,-692,0,0,0,0,0,0,0,0,0,-1,853,1716,0,0
-364,-692,0,0,0,0,0,0,0,0,0,-1,860,1716,0,0
-357,-692,0,0,0,0,0,0,0,0,0,-1,867,1716,0,0
-350,-692,0,0,0,0,0,0,0,0,0,-1,874,1716,0,0
-343,-692,0,0,0,0,0,0,0,0,0,-1,881,1716,0,0
-336,-692,0,0,0,0,0,0,0,0,0,-1,888,1716,0,0
-329,-692,3.12396,3.50745,0,0,0,0,0,0,0,-1,895,1716,3.12398,-3.50748
-322,-692,3.67346,17.0139,0,0,0,0,0,0,0,-1,902,1716,3.67349,-17.0139
-315,-692,3.98718,15.2626,0,0,0,0,0,0,0,-1,909,1716,3.98716,-15.2626
-308,-692,4.28339,13.5061,0,0,0,0,0,0,0,-1,916,1716,4.2834,-13.5061
-301,-692,1.8653,11.0195,0,0,0,0,0,0,0,-1,923,1716,1.86532,-11.0195
-294,-692,5.69696,10.3323,0,0,0,0,0,0,0,-1,930,1716,5.69695,-10.3323
-287,-692,4.94165,11.9883,0,0,0,0,0,0,0,-1,937,1716,4.94166,-11.9883
-280,-692,1.89563,13.6199,0,0,0,0,0,0,0,-1,944,1716,1.89565,-13.6199
-273,-692,2.50732,13.3907,0.0483014,0.00320214,8.95513e-05,0.0483016,0.00320196,0.00198564,0.0311886,0.0432914,951,1716,2.50734,-13.3908
-266,-692,3.02612,13.1844,0.0413154,0.0018487,0.000166154,0.0413161,0.001848,0.00420988,0.0269492,0.046619,958,1716,3.02611,-13.1844
-259,-692,4.68774,13.5726,0,0,0,0,0,0,0,-1,965,1716,4.68774,-13.5726
-252,-692,4.71069,13.6411,0.0273917,-7.50781e-05,-0.000548727,0.0274026,-8.60356e-05,-0.0199672,0.0182972,0.0477896,972,1716,4.71072,-13.6411
-245,-692,4.70343,13.7255,0.020426,-0.000799913,-0.00097774,0.020471,-0.000844856,-0.0459338,0.0139375,0.0462543,979,1716,4.70345,-13.7254
-238,-692,4.62653,13.8839,0.0144943,-0.00117756,-0.00132717,0.0146059,-0.00128916,-0.0838887,0.0101942,0.0460168,986,1716,4.62651,-13.8839
-231,-692,4.61938,14.0553,0.0102377,-0.000775907,-0.00120193,0.0103674,-0.000905549,-0.107446,0.00723236,0.0358076,993,1716,4.61941,-14.0553
-224,-692,4.51898,14.2101,0.00607481,-0.000640343,-0.00099085,0.00621797,-0.000783495,-0.143482,0.00442963,0.0175482,1000,1716,4.51895,-14.2101
-217,-692,4.49127,14.363,0.00262708,-0.000228868,-0.00146966,0.00324825,-0.000850044,-0.399892,0.00249754,0.0123348,1007,1716,4.49124,-14.3631
-210,-692,4.49005,14.4996,0.000896818,0.000601071,-0.0015938,0.00234959,-0.000851698,-0.73914,0.00191452,0.0129845,1014,1716,4.49004,-14.4997
-203,-692,4.48206,14.6497,0.000123128,0.00147512,-0.00113488,0.00212008,-0.00052183,-1.05401,0.00161567,0.0149932,1021,1716,4.48203,-14.6497
-196,-692,4.48401,14.8165,2.54543e-05,0.00204326,-0.000715226,0.00227106,-0.000202346,-1.26245,0.0015858,0.0161227,1028,1716,4.48402,-14.8166
-189,-692,4.46582,14.9314,-1.24237e-05,0.00231815,-0.000455765,0.00240411,-9.8382e-05,-1.38438,0.00163652,0.00845935,1035,1716,4.46579,-14.9314
-182,-692,4.46863,15.0774,-2.57615e-05,0.00241955,-0.000311006,0.00245848,-6.46967e-05,-1.44625,0.00166097,0.0137394,1042,1716,4.46866,-15.0774
-175,-692,4.4563,15.2419,3.88092e-06,0.00240128,-0.000160691,0.002412,-6.84196e-06,-1.50417,0.00161029,0.0150448,1049,1716,4.45635,-15.242
-168,-692,4.47571,15.3782,-9.59435e-07,0.00227283,3.7e-05,0.00227343,-1.56136e-06,1.55453,0.00151614,0.0112556,1056,1716,4.47572,-15.3782
-161,-692,4.49756,15.5254,7.898e-05,0.00187828,0.000106652,0.00188458,7.26803e-05,1.5118,0.00123287,0.0128003,1063,1716,4.49759,-15.5254
-154,-692,4.49609,15.6691,0.000338494,0.00139474,0.000159971,0.00141844,0.000314797,1.42374,0.000860116,0.0135629,1070,1716,4.4961,-15.669
-147,-692,4.47644,15.7695,0.000736953,0.000977482,0.000198647,0.00108943,0.000625001,1.05759,0.000631258,0.0137237,1077,1716,4.47646,-15.7695
-140,-692,4.45789,15.8748,0.00109548,0.000405059,0.000274699,0.00119144,0.0003091,0.336071,0.000713921,0.0105704,1084,1716,4.45785,-15.8748
-133,-692,4.46936,15.9934,0.00148658,-0.000168283,0.000373002,0.00156677,-0.000248471,0.211757,0.00113643,0.00906285,1091,1716,4.4694,-15.9935
-126,-692,4.48315,16.118,0.00183286,-0.000851928,0.000512644,0.00192742,-0.000946484,0.182398,0.00169116,0.00829327,1098,1716,4.48315,-16.1181
-119,-692,4.49133,16.2219,0.00219576,-0.00130192,0.000801503,0.00237068,-0.00147684,0.214869,0.00224126,0.0126219,1105,1716,4.49136,-16.2219
-112,-692,4.48535,16.3353,0.00248135,-0.00187376,0.00108439,0.00273642,-0.00212883,0.231017,0.00281624,0.0116285,1112,1716,4.48531,-16.3353
-105,-692,4.48755,16.433,0.00263709,-0.00246724,0.00136997,0.00298154,-0.00281169,0.24632,0.0033452,0.0161065,1119,1716,4.4876,-16.433
-98,-692,4.55774,16.5068,0.00266721,-0.00301044,0.00171045,0.00314268,-0.00348591,0.271135,0.00382873,0.0186105,1126,1716,4.55775,-16.5068
-91,-692,4.53296,16.631,0.00268216,-0.00340542,0.00203005,0.00329703,-0.00402029,0.294099,0.00423153,0.0206747,1133,1716,4.53294,-16.631
-84,-692,4.51611,16.7291,0.00271871,-0.00372851,0.00228877,0.0034486,-0.00445839,0.308704,0.0045775,0.0207473,1140,1716,4.51612,-16.7291
-77,-692,4.526,16.8287,0.00285276,-0.00398953,0.00229492,0.00355119,-0.00468796,0.29543,0.00477194,0.0139716,1147,1716,4.52598,-16.8287
-70,-692,4.57153,16.9437,0.00289425,-0.00425729,0.00229151,0.0035655,-0.00492854,0.284956,0.00492504,0.0178774,1154,1716,4.57154,-16.9437
-63,-692,4.59277,17.0167,-0.00010736,-0.00427679,0.00196177,0.000670546,-0.0050547,0.377513,0.00361411,0.0277992,1161,1716,4.59279,-17.0167
-56,-692,4.55139,17.0087,0,0,0,0,0,0,0,-1,1168,1716,4.55135,-17.0086
-49,-692,4.57056,17.1218,0,0,0,0,0,0,0,-1,1175,1716,4.57053,-17.1219
-42,-692,4.63672,17.3094,0,0,0,0,0,0,0,-1,1182,1716,4.6367,-17.3095
-35,-692,4.66687,17.3774,0,0,0,0,0,0,0,-1,1189,1716,4.6669,-17.3774
-28,-692,4.54626,17.3685,-0.00490362,0.00189985,0.00248416,0.00271034,-0.00571411,1.25542,0.00496584,0.04107,1196,1716,4.5463,-17.3686
-21,-692,4.68213,17.3264,-0.00512162,0.00387042,0.00269182,0.00461464,-0.00586584,1.30106,0.00606526,0.0276606,1203,1716,4.68214,-17.3265
-14,-692,4.71887,17.3533,-0.00501409,0.00504093,0.00302888,0.00588283,-0.00585599,1.29968,0.00677742,0.015071,1210,1716,4.71887,-17.3532
-7,-692,4.70935,17.4343,-0.00351504,0.00620766,0.00327927,0.0072103,-0.00451768,1.27407,0.00683037,0.0139811,1217,1716,4.7093,-17.4344
0,-692,4.69592,17.4749,-0.000940439,0.00812275,0.00394854,0.00960167,-0.00241936,1.21242,0.00734167,0.0174029,1224,1716,4.6959,-17.4748
7,-692,4.74353,17.489,0.00189082,0.00929436,0.00435777,0.0113104,-0.000125211,1.13749,0.00758234,0.0216049,1231,1716,4.74357,-17.489
14,-692,4.85278,17.584,0.00551177,0.0102081,0.00468735,0.0131026,0.00261732,1.01761,0.00800651,0.0237849,1238,1716,4.85279,-17.584
21,-692,4.90833,17.5719,0.00888965,0.0111994,0.00518782,0.0153594,0.00472973,0.89492,0.00908319,0.0256272,1245,1716,4.90834,-17.5719
28,-692,4.8656,17.5342,0.0108214,0.0110726,0.00544803,0.0163965,0.00549752,0.796922,0.00963621,0.0244857,1252,1716,4.86563,-17.5342
35,-692,4.84814,17.5836,0.0120973,0.0102701,0.00567142,0.0169282,0.00543919,0.705542,0.00997941,0.022139,1259,1716,4.84817,-17.5836
42,-692,4.90222,17.6355,0.0130569,0.00851772,0.00611619,0.017311,0.00426359,0.607735,0.0104146,0.020453,1266,1716,4.90219,-17.6355
49,-692,4.93091,17.6099,0.0127658,0.00666203,0.00635704,0.0167656,0.00266225,0.561606,0.0104038,0.0253283,1273,1716,4.93085,-17.6099
56,-692,4.86511,17.6271,0.0105497,0.00436866,0.00639288,0.0145599,0.000358459,0.560246,0.00958934,0.0313732,1280,1716,4.86511,-17.6271
63,-692,4.92542,17.7131,0.00605474,0.00166217,0.00578698,0.0100482,-0.00233128,0.604034,0.00759609,0.0296766,1287,1716,4.92538,-17.7132
70,-692,5.01599,17.7184,0.000914105,-0.00117031,0.0046169,0.00460497,-0.00486118,0.67439,0.00546595,0.0254514,1294,1716,5.01595,-17.7183
77,-692,5.047,17.7002,-0.00424535,-0.00416579,0.00382426,-0.000381107,-0.00803004,0.790599,0.00523095,0.0282081,1301,1716,5.04703,-17.7002
84,-692,5.08191,17.6323,-0.00980238,-0.00649931,0.00305845,-0.00467498,-0.0116267,1.03296,0.00675545,0.0350501,1308,1716,5.08185,-17.6324
91,-692,5.02002,17.6425,-0.0151182,-0.00800606,0.00204622,-0.00745936,-0.0156649,1.30972,0.00904753,0.0331544,1315,1716,5.01997,-17.6425
98,-692,5.0199,17.6899,-0.0204195,-0.00855553,0.0011057,-0.00845336,-0.0205216,1.47865,0.0119093,0.0250985,1322,1716,5.01989,-17.6899
105,-692,4.97937,17.6658,-0.0249845,-0.00919783,-0.000403983,-0.0091875,-0.0249948,-1.54523,0.0145985,0.0313961,1329,1716,4.97937,-17.6658
112,-692,4.92102,17.6709,-0.0273468,-0.00870308,-0.00139956,-0.0085986,-0.0274513,-1.49628,0.0162134,0.0346634,1336,1716,4.92104,-17.6709
119,-692,5.03442,17.6812,-0.0285496,-0.00800729,-0.00208872,-0.00779706,-0.0287598,-1.47049,0.0171746,0.0289452,1343,1716,5.0344,-17.6812
126,-692,5.1001,17.6283,-0.0277286,-0.00729538,-0.00250133,-0.00699363,-0.0280303,-1.45074,0.0168467,0.0277928,1350,1716,5.10006,-17.6283
133,-692,5.15308,17.5853,-0.0250902,-0.00564445,-0.00226243,-0.00538469,-0.0253499,-1.45648,0.0154217,0.0220223,1357,1716,5.15308,-17.5854
140,-692,5.14319,17.5701,-0.022,-0.00366773,-0.00185444,-0.00348202,-0.0221857,-1.47099,0.0137772,0.0268679,1364,1716,5.14323,-17.5701
147,-692,5.13342,17.6437,-0.0187734,-0.000963707,-0.00164617,-0.000812828,-0.0189242,-1.4794,0.0123541,0.0310225,1371,1716,5.13337,-17.6436
154,-692,5.16675,17.6768,-0.0155517,0.000621373,-0.00120629,0.000710849,-0.0156412,-1.49676,0.0106723,0.0281279,1378,1716,5.16678,-17.6767
161,-692,5.37878,17.5546,-0.0112137,0.00222427,-0.000696061,0.00226023,-0.0112497,-1.51918,0.00835574,0.0410833,1385,1716,5.37878,-17.5546
168,-692,5.25085,17.528,0,0,0,0,0,0,0,-1,1392,1716,5.25087,-17.5279
175,-692,5.27966,17.4473,0,0,0,0,0,0,0,-1,1399,1716,5.2796,-17.4473
182,-692,5.24133,17.3781,0,0,0,0,0,0,0,-1,1406,1716,5.24128,-17.3781
189,-692,5.31079,17.4231,0,0,0,0,0,0,0,-1,1413,1716,5.31075,-17.4231
196,-692,5.25537,17.3076,0.00181379,0.00318063,0.000656869,0.00344512,0.0015493,1.188,0.00199239,0.0263729,1420,1716,5.25535,-17.3076
203,-692,5.25012,17.238,0.00163798,0.00259388,0.000289181,0.00267456,0.00155731,1.29874,0.00155111,0.0168522,1427,1716,5.2501,-17.238
210,-692,5.28821,17.1595,0.00106216,0.00212776,0.000193995,0.00216198,0.00102794,1.3962,0.00124872,0.0155104,1434,1716,5.28821,-17.1596
217,-692,5.27405,17.0652,0.000568366,0.00170723,8.29336e-05,0.00171324,0.000562358,1.49848,0.00100841,0.0160432,1441,1716,5.274,-17.0651
224,-692,5.27869,17.0077,0.000447686,0.00123074,0.000230544,0.00129357,0.000384852,1.30471,0.000766986,0.0131466,1448,1716,5.27872,-17.0077
231,-692,5.30811,16.9456,0.000492572,0.000615564,0.000237248,0.000799156,0.00030898,0.91221,0.00046533,0.0107208,1455,1716,5.30811,-16.9456
238,-692,5.30212,16.8257,0.000826992,6.8148e-05,0.000110077,0.000842637,5.2503e-05,0.141183,0.0005451,0.0172689,1462,1716,5.30218,-16.8256
245,-692,5.27637,16.7454,0.00105166,-0.000372728,0.000114811,0.00106085,-0.000381923,0.0799163,0.000863183,0.0204283,1469,1716,5.2764,-16.7454
252,-692,5.30017,16.6796,0.00119909,-0.000695626,9.48181e-05,0.00120382,-0.000700359,0.0498774,0.00111211,0.0185946,1476,1716,5.30013,-16.6796
259,-692,5.32458,16.5857,0.00135083,-0.000886219,4.86381e-05,0.00135189,-0.000887276,0.0217284,0.00130203,0.00981645,1483,1716,5.32464,-16.5857
266,-692,5.31885,16.499,0.00143856,-0.00109673,4.83263e-06,0.00143857,-0.00109674,0.00190613,0.00146819,0.00970181,1490,1716,5.31881,-16.499
273,-692,5.31519,16.3849,0.00144751,-0.00090437,-0.000127708,0.00145442,-0.000911285,-0.0540883,0.00137779,0.0142593,1497,1716,5.31514,-16.3849
280,-692,5.3324,16.2689,0.00130423,-0.000558709,-0.000269352,0.00134239,-0.000596872,-0.140745,0.00114688,0.0135018,1504,1716,5.3324,-16.2689
287,-692,5.33801,16.1725,0.00103468,-0.000182165,-0.00033261,0.00111966,-0.000267145,-0.250144,0.000849607,0.010711,1511,1716,5.33804,-16.1724
294,-692,5.33899,16.0702,0.000832774,0.000184655,-0.000468579,0.00107843,-6.10059e-05,-0.482872,0.00074013,0.010509,1518,1716,5.33893,-16.0701
301,-692,5.33105,15.9543,0.000509011,0.000553916,-0.000635566,0.00116743,-0.000104499,-0.803054,0.000815352,0.0128953,1525,1716,5.33103,-15.9544
308,-692,5.3241,15.8497,-0.000161052,0.00110865,-0.00111126,0.00175361,-0.000806021,-1.04492,0.00151119,0.0155677,1532,1716,5.32404,-15.8498
315,-692,5.33398,15.7157,-0.00113845,0.00218471,-0.00141123,0.00270314,-0.00165687,-1.21874,0.0025413,0.0148812,1539,1716,5.33403,-15.7157
322,-692,5.29529,15.5441,-0.00181335,0.00324443,-0.00156892,0.00369157,-0.00226049,-1.29315,0.00346938,0.0200746,1546,1716,5.29533,-15.5441
329,-692,5.28625,15.4167,-0.00244942,0.00351513,-0.0014974,0.00386994,-0.00280423,-1.33813,0.00386968,0.017866,1553,1716,5.28631,-15.4167
336,-692,5.29407,15.3063,-0.00293594,0.00393177,-0.00162664,0.00429757,-0.00330173,-1.3496,0.0044,0.0123998,1560,1716,5.29404,-15.3062
343,-692,5.30945,15.1713,-0.00316323,0.00451718,-0.00194862,0.00498329,-0.00362933,-1.33601,0.00499294,0.0124632,1567,1716,5.30949,-15.1712
350,-692,5.32983,15.0209,-0.00340062,0.00473316,-0.00203417,0.00521351,-0.00388097,-1.3389,0.00526946,0.0128819,1574,1716,5.32981,-15.0208
357,-692,5.30652,14.8845,-0.00335593,0.00471322,-0.00204495,0.00520188,-0.00384459,-1.33624,0.00524254,0.0168566,1581,1716,5.30653,-14.8845
364,-692,5.25049,14.7385,-0.00293837,0.00459368,-0.00213214,0.00515535,-0.00350005,-1.31322,0.00502757,0.0225937,1588,1716,5.25046,-14.7385
371,-692,5.2832,14.5386,-0.00211614,0.00413351,-0.00214758,0.00480034,-0.00278297,-1.26973,0.00442956,0.0329407,1595,1716,5.28322,-14.5385
378,-692,5.2627,14.6213,-0.000994227,0.00341595,-0.00244516,0.00450346,-0.00208174,-1.15231,0.00388672,0.039576,1602,1716,5.26268,-14.6214
385,-692,5.29529,14.5013,0.00041523,0.00325942,-0.00296269,0.00512365,-0.00144899,-1.00916,0.00398751,0.0458375,1609,1716,5.29529,-14.5013
392,-692,5.47974,14.1816,0,0,0,0,0,0,0,-1,1616,1716,5.47972,-14.1816
399,-692,5.2627,10.4279,0,0,0,0,0,0,0,-1,1623,1716,5.26267,-10.4278
406,-692,4.73633,10.6808,0,0,0,0,0,0,0,-1,1630,1716,4.73637,-10.6808
413,-692,4.25085,10.5685,0,0,0,0,0,0,0,-1,1637,1716,4.2508,-10.5685
420,-692,5.48901,10.4845,0,0,0,0,0,0,0,-1,1644,1716,5.48906,-10.4845
427,-692,3.79578,8.60339,0,0,0,0,0,0,0,-1,1651,1716,3.79577,-8.6034
434,-692,4.78516,8.64636,0,0,0,0,0,0,0,-1,1658,1716,4.78512,-8.64634
441,-692,5.8208,8.74036,0,0,0,0,0,0,0,-1,1665,1716,5.82084,-8.7404
448,-692,6.73792,8.51013,0,0,0,0,0,0,0,-1,1672,1716,6.73793,-8.5101
455,-692,0,0,0,0,0,0,0,0,0,-1,1679,1716,0,0
462,-692,0,0,0,0,0,0,0,0,0,-1,1686,1716,0,0
469,-692,0,0,0,0,0,0,0,0,0,-1,1693,1716,0,0
476,-692,0,0,0,0,0,0,0,0,0,-1,1700,1716,0,0
483,-692,0,0,0,0,0,0,0,0,0,-1,1707,1716,0,0
490,-692,0,0,0,0,0,0,0,0,0,-1,1714,1716,0,0
497,-692,0,0,0,0,0,0,0,0,0,-1,1721,1716,0,0
504,-692,0,0,0,0,0,0,0,0,0,-1,1728,1716,0,0
511,-692,0,0,0,0,0,0,0,0,0,-1,1735,1716,0,0
518,-692,0,0,0,0,0,0,0,0,0,-1,1742,1716,0,0
525,-692,0,0,0,0,0,0,0,0,0,-1,1749,1716,0,0
532,-692,0,0,0,0,0,0,0,0,0,-1,1756,1716,0,0
539,-692,0,0,0,0,0,0,0,0,0,-1,1763,1716,0,0
546,-692,0,0,0,0,0,0,0,0,0,-1,1770,1716,0,0
553,-692,0,0,0,0,0,0,0,0,0,-1,1777,1716,0,0
560,-692,0,0,0,0,0,0,0,0,0,-1,1784,1716,0,0
567,-692,0,0,0,0,0,0,0,0,0,-1,1791,1716,0,0
574,-692,0,0,0,0,0,0,0,0,0,-1,1798,1716,0,0
581,-692,0,0,0,0,0,0,0,0,0,-1,1805,1716,0,0
588,-692,0,0,0,0,0,0,0,0,0,-1,1812,1716,0,0
595,-692,0,0,0,0,0,0,0,0,0,-1,1819,1716,0,0
602,-692,0,0,0,0,0,0,0,0,0,-1,1826,1716,0,0
609,-692,0,0,0,0,0,0,0,0,0,-1,1833,1716,0,0
616,-692,0,0,0,0,0,0,0,0,0,-1,1840,1716,0,0
623,-692,0,0,0,0,0,0,0,0,0,-1,1847,1716,0,0
630,-692,0,0,0,0,0,0,0,0,0,-1,1854,1716,0,0
637,-692,0,0,0,0,0,0,0,0,0,-1,1861,1716,0,0
644,-692,0,0,0,0,0,0,0,0,0,-1,1868,1716,0,0
651,-692,0,0,0,0,0,0,0,0,0,-1,1875,1716,0,0
658,-692,0,0,0,0,0,0,0,0,0,-1,1882,1716,0,0
665,-692,0,0,0,0,0,0,0,0,0,-1,1889,1716,0,0
672,-692,0,0,0,0,0,0,0,0,0,-1,1896,1716,0,0
679,-692,0,0,0,0,0,0,0,0,0,-1,1903,1716,0,0
686,-692,0,0,0,0,0,0,0,0,0,-1,1910,1716,0,0
693,-692,0,0,0,0,0,0,0,0,0,-1,1917,1716,0,0
700,-692,0,0,0,0,0,0,0,0,0,-1,1924,1716,0,0
707,-692,0,0,0,0,0,0,0,0,0,-1,1931,1716,0,0
714,-692,0,0,0,0,0,0,0,0,0,-1,1938,1716,0,0
721,-692,0,0,0,0,0,0,0,0,0,-1,1945,1716,0,0
728,-692,0,0,0,0,0,0,0,0,0,-1,1952,1716,0,0
735,-692,0,0,0,0,0,0,0,0,0,-1,1959,1716,0,0
742,-692,0,0,0,0,0,0,0,0,0,-1,1966,1716,0,0
749,-692,0,0,0,0,0,0,0,0,0,-1,1973,1716,0,0
756,-692,0,0,0,0,0,0,0,0,0,-1,1980,1716,0,0
763,-692,0,0,0,0,0,0,0,0,0,-1,1987,1716,0,0
770,-692,0,0,0,0,0,0,0,0,0,-1,1994,1716,0,0
777,-692,0,0,0,0,0,0,0,0,0,-1,2001,1716,0,0
784,-692,0,0,0,0,0,0,0,0,0,-1,2008,1716,0,0
791,-692,0,0,0,0,0,0,0,0,0,-1,2015,1716,0,0
798,-692,0,0,0,0,0,0,0,0,0,-1,2022,1716,0,0
805,-692,0,0,0,0,0,0,0,0,0,-1,2029,1716,0,0
812,-692,0,0,0,0,0,0,0,0,0,-1,2036,1716,0,0
-700,-699,0,0,0,0,0,0,0,0,0,-1,524,1723,0,0
-693,-699,0,0,0,0,0,0,0,0,0,-1,531,1723,0,0
-686,-699,0,0,0,0,0,0,0,0,0,-1,538,1723,0,0
-679,-699,0,0,0,0,0,0,0,0,0,-1,545,1723,0,0
-672,-699,0,0,0,0,0,0,0,0,0,-1,552,1723,0,0
-665,-699,0,0,0,0,0,0,0,0,0,-1,559,1723,0,0
-658,-699,0,0,0,0,0,0,0,0,0,-1,566,1723,0,0
-651,-699,0,0,0,0,0,0,0,0,0,-1,573,1723,0,0
-644,-699,0,0,0,0,0,0,0,0,0,-1,580,1723,0,0
-637,-699,0,0,0,0,0,0,0,0,0,-1,587,1723,0,0
-630,-699,0,0,0,0,0,0,0,0,0,-1,594,1723,0,0
-623,-699,0,0,0,0,0,0,0,0,0,-1,601,1723,0,0
-616,-699,0,0,0,0,0,0,0,0,0,-1,608,1723,0,0
-609,-699,0,0,0,0,0,0,0,0,0,-1,615,1723,0,0
-602,-699,0,0,0,0,0,0,0,0,0,-1,622,1723,0,0
-595,-699,0,0,0,0,0,0,0,0,0,-1,629,1723,0,0
-588,-699,0,0,0,0,0,0,0,0,0,-1,636,1723,0,0
-581,-699,0,0,0,0,0,0,0,0,0,-1,643,1723,0,0
-574,-699,0,0,0,0,0,0,0,0,0,-1,650,1723,0,0
-567,-699,0,0,0,0,0,0,0,0,0,-1,657,1723,0,0
-560,-699,0,0,0,0,0,0,0,0,0,-1,664,1723,0,0
-553,-699,0,0,0,0,0,0,0,0,0,-1,671,1723,0,0
-546,-699,0,0,0,0,0,0,0,0,0,-1,678,1723,0,0
-539,-699,0,0,0,0,0,0,0,0,0,-1,685,1723,0,0
-532,-699,0,0,0,0,0,0,0,0,0,-1,692,1723,0,0
-525,-699,0,0,0,0,0,0,0,0,0,-1,699,1723,0,0
-518,-699,0,0,0,0,0,0,0,0,0,-1,706,1723,0,0
-511,-699,0,0,0,0,0,0,0,0,0,-1,713,1723,0,0
-504,-699,0,0,0,0,0,0,0,0,0,-1,720,1723,0,0
-497,-699,0,0,0,0,0,0,0,0,0,-1,727,1723,0,0
-490,-699,0,0,0,0,0,0,0,0,0,-1,734,1723,0,0
-483,-699,0,0,0,0,0,0,0,0,0,-1,741,1723,0,0
-476,-699,0,0,0,0,0,0,0,0,0,-1,748,1723,0,0
-469,-699,0,0,0,0,0,0,0,0,0,-1,755,1723,0,0
-462,-699,0,0,0,0,0,0,0,0,0,-1,762,1723,0,0
-455,-699,0,0,0,0,0,0,0,0,0,-1,769,1723,0,0
-448,-699,0,0,0,0,0,0,0,0,0,-1,776,1723,0,0
-441,-699,0,0,0,0,0,0,0,0,0,-1,783,1723,0,0
-434,-699,0,0,0,0,0,0,0,0,0,-1,790,1723,0,0
-427,-699,0,0,0,0,0,0,0,0,0,-1,797,1723,0,0
-420,-699,0,0,0,0,0,0,0,0,0,-1,804,1723,0,0
-413,-699,0,0,0,0,0,0,0,0,0,-1,811,1723,0,0
-406,-699,0,0,0,0,0,0,0,0,0,-1,818,1723,0,0
-399,-699,0,0,0,0,0,0,0,0,0,-1,825,1723,0,0
-392,-699,0,0,0,0,0,0,0,0,0,-1,832,1723,0,0
-385,-699,0,0,0,0,0,0,0,0,0,-1,839,1723,0,0
-378,-699,0,0,0,0,0,0,0,0,0,-1,846,1723,0,0
-371,-699,0,0,0,0,0,0,0,0,0,-1,853,1723,0,0
-364,-699,0,0,0,0,0,0,0,0,0,-1,860,1723,0,0
-357,-699,0,0,0,0,0,0,0,0,0,-1,867,1723,0,0
-350,-699,0,0,0,0,0,0,0,0,0,-1,874,1723,0,0
-343,-699,0,0,0,0,0,0,0,0,0,-1,881,1723,0,0
-336,-699,0,0,0,0,0,0,0,0,0,-1,888,1723,0,0
-329,-699,0,0,0,0,0,0,0,0,0,-1,895,1723,0,0
-322,-699,0,0,0,0,0,0,0,0,0,-1,902,1723,0,0
-315,-699,4.27734,16.1066,0,0,0,0,0,0,0,-1,909,1723,4.27737,-16.1066
-308,-699,4.55981,14.3354,0,0,0,0,0,0,0,-1,916,1723,4.55981,-14.3355
-301,-699,4.72729,12.8752,0,0,0,0,0,0,0,-1,923,1723,4.72732,-12.8752
-294,-699,6.0799,10.2083,0,0,0,0,0,0,0,-1,930,1723,6.07988,-10.2082
-287,-699,1.09161,13.8101,0,0,0,0,0,0,0,-1,937,1723,1.09159,-13.8101
-280,-699,1.73981,13.5779,0.0766485,0.00924205,-0.00280512,0.076765,0.00912552,-0.0415194,0.0484223,0.0478167,944,1723,1.7398,-13.5779
-273,-699,2.43268,13.3428,0.0669845,0.00667651,-0.00227412,0.0670701,0.00659088,-0.0376372,0.0426864,0.0440888,951,1723,2.43265,-13.3428
-266,-699,2.98584,13.1051,0,0,0,0,0,0,0,-1,958,1723,2.98585,-13.1051
-259,-699,5.67737,10.8545,0,0,0,0,0,0,0,-1,965,1723,5.67736,-10.8545
-252,-699,5.03058,13.7029,0,0,0,0,0,0,0,-1,972,1723,5.03059,-13.7029
-245,-699,4.96722,13.7695,0,0,0,0,0,0,0,-1,979,1723,4.96723,-13.7696
-238,-699,4.8219,13.9086,0,0,0,0,0,0,0,-1,986,1723,4.82188,-13.9085
-231,-699,4.83228,14.0975,0.0139896,-0.000638677,-0.00244834,0.0143885,-0.00103758,-0.161509,0.0099562,0.0449191,993,1723,4.83226,-14.0975
-224,-699,4.56891,14.2806,0.00827235,-0.000548865,-0.00195024,0.00868428,-0.000960797,-0.208162,0.00613492,0.0357841,1000,1723,4.56891,-14.2806
-217,-699,4.62097,14.3395,0.00355925,-0.000139945,-0.00226287,0.00463226,-0.00121294,-0.442777,0.003562,0.0257258,1007,1723,4.62094,-14.3395
-210,-699,4.67926,14.478,0.00141299,0.00101011,-0.00219096,0.00341175,-0.000988646,-0.739556,0.00266587,0.0169631,1014,1723,4.67928,-14.478
-203,-699,4.67517,14.6301,0.000446137,0.00221227,-0.00153162,0.00309716,-0.000438755,-1.0469,0.00222549,0.0195922,1021,1723,4.67519,-14.6301
-196,-699,4.64795,14.7599,0.000215318,0.00301638,-0.000959238,0.00331339,-8.16856e-05,-1.27053,0.00223665,0.016951,1028,1723,4.64792,-14.7599
-189,-699,4.61316,14.9369,6.18541e-05,0.00339005,-0.000614006,0.00349972,-4.7808e-05,-1.39406,0.00234924,0.00883194,1035,1723,4.61311,-14.9369
-182,-699,4.61304,15.0936,-0.000104135,0.00344604,-0.000423373,0.00349583,-0.000153925,-1.45373,0.00238352,0.0118162,1042,1723,4.61302,-15.0936
-175,-699,4.60583,15.2595,-0.000272564,0.00293384,-0.000346578,0.00297087,-0.000309598,-1.46435,0.00209143,0.013964,1049,1723,4.60579,-15.2595
-168,-699,4.61938,15.3931,-0.000414663,0.00251952,-0.000262766,0.00254287,-0.000438008,-1.48218,0.00185853,0.0146885,1056,1723,4.61941,-15.3931
-161,-699,4.62695,15.5179,-0.000362324,0.00177152,-0.000418048,0.00185049,-0.000441302,-1.38408,0.00140407,0.0126545,1063,1723,4.62691,-15.518
-154,-699,4.60791,15.6586,-0.000126879,0.000974267,-0.000605484,0.00124207,-0.000394683,-1.15437,0.000986293,0.0126012,1070,1723,4.60796,-15.6586
-147,-699,4.59924,15.7662,0.000266174,0.000355477,-0.000776952,0.00108906,-0.000467409,-0.814102,0.000922209,0.0150057,1077,1723,4.59929,-15.7663
-140,-699,4.58594,15.8696,0.000671968,-0.000309892,-0.000868644,0.00117881,-0.000816737,-0.528191,0.00115844,0.0100272,1084,1723,4.58597,-15.8697
-133,-699,4.59265,15.9865,0.00107806,-0.00088446,-0.000907412,0.00143332,-0.00123971,-0.373158,0.00154462,0.00847353,1091,1723,4.59263,-15.9864
-126,-699,4.60547,16.1177,0.00139084,-0.00151495,-0.000896309,0.00164507,-0.00176918,-0.276382,0.00197165,0.0115902,1098,1723,4.60552,-16.1177
-119,-699,4.60852,16.2378,0.00170459,-0.00172384,-0.00063474,0.00181833,-0.00183758,-0.177313,0.00211075,0.0171793,1105,1723,4.6085,-16.2378
-112,-699,4.60413,16.3336,0.00196641,-0.00193506,-0.000293007,0.00198829,-0.00195694,-0.0745443,0.00227781,0.0117082,1112,1723,4.60418,-16.3336
-105,-699,4.60449,16.4349,0.0020901,-0.00208449,9.01421e-05,0.00209205,-0.00208643,0.0215796,0.00241245,0.0126721,1119,1723,4.60449,-16.4349
-98,-699,4.64307,16.5349,0.00205703,-0.00216124,0.000564414,0.00213124,-0.00223545,0.130739,0.00252135,0.0149118,1126,1723,4.64307,-16.5349
-91,-699,4.65649,16.6488,0.00198152,-0.00212215,0.00105264,0.00223578,-0.00237641,0.237005,0.00266326,0.0202341,1133,1723,4.65649,-16.6489
-84,-699,4.62927,16.7676,0.00190089,-0.00206526,0.00149013,0.00239836,-0.00256272,0.322206,0.00286481,0.0236217,1140,1723,4.62928,-16.7676
-77,-699,4.62903,16.8134,0.00192997,-0.00205339,0.00168185,0.0025451,-0.00266851,0.350628,0.00301036,0.0160082,1147,1723,4.62904,-16.8133
-70,-699,4.6416,16.921,0.00198306,-0.00231744,0.00171143,0.002581,-0.00291538,0.336124,0.00317529,0.0168366,1154,1723,4.6416,-16.921
-63,-699,4.66003,17.0073,0.000617228,-0.00244648,0.00142617,0.00117835,-0.0030076,0.374842,0.00249249,0.0145369,1161,1723,4.65998,-17.0073
-56,-699,4.6377,17.0385,-0.000975637,-0.00210988,0.000855706,-0.000516182,-0.00256934,0.492754,0.00156939,0.0104325,1168,1723,4.63765,-17.0384
-49,-699,4.64526,17.1263,-0.00174841,-0.00217716,0.000306037,-0.00158914,-0.00233644,0.479872,0.00137782,0.0213143,1175,1723,4.64527,-17.1263
-42,-699,4.68054,17.2404,-0.00159053,-0.00173641,0.000196344,-0.00145401,-0.00187292,0.607557,0.00113505,0.0248051,1182,1723,4.68055,-17.2404
-35,-699,4.69055,17.2955,-0.0017369,-0.00107502,0.000758576,-0.000578335,-0.00223358,0.991087,0.00133859,0.0222578,1189,1723,4.69058,-17.2955
-28,-699,4.71399,17.3259,-0.00216904,-7.02866e-05,0.00105136,0.000365782,-0.00260511,1.17763,0.00187062,0.0172916,1196,1723,4.71398,-17.3259
-21,-699,4.73401,17.3508,-0.00231669,0.000803156,0.00116253,0.0011887,-0.00270223,1.25057,0.00230238,0.0125462,1203,1723,4.73399,-17.3508
-14,-699,4.73755,17.4027,-0.00239506,0.001412,0.00131776,0.00182362,-0.00280668,1.26804,0.00269331,0.0112827,1210,1723,4.73751,-17.4028
-7,-699,4.73621,17.467,-0.00134547,0.00183485,0.0014168,0.00237446,-0.00188508,1.20689,0.00246466,0.0080748,1217,1723,4.73621,-17.4671
0,-699,4.73999,17.5079,0.000580274,0.00233627,0.00162035,0.0033012,-0.000384662,1.03368,0.00233959,0.00957726,1224,1723,4.73996,-17.5079
7,-699,4.76367,17.5378,0.00265975,0.0026774,0.00183222,0.00450082,0.000836328,0.787806,0.00276427,0.0146399,1231,1723,4.76365,-17.5378
14,-699,4.80652,17.5991,0.00541364,0.00286162,0.00199195,0.00650323,0.00177203,0.500535,0.00388205,0.0164367,1238,1723,4.80648,-17.5991
21,-699,4.8197,17.6298,0.00796123,0.00322786,0.00233201,0.00891712,0.00227198,0.389009,0.00535069,0.016454,1245,1723,4.81971,-17.6298
28,-699,4.83252,17.6415,0.00952566,0.00294849,0.00255242,0.0104,0.00207419,0.330013,0.00635575,0.0159058,1252,1723,4.83252,-17.6415
35,-699,4.85791,17.6658,0.0106779,0.00235834,0.00277753,0.01152,0.00151628,0.294361,0.00722778,0.0132581,1259,1723,4.85797,-17.6658
42,-699,4.89014,17.6769,0.0116309,0.00118589,0.00319071,0.0125285,0.000288327,0.274217,0.00825789,0.0117853,1266,1723,4.89018,-17.6769
49,-699,4.91821,17.7004,0.0116088,0.000202122,0.00347959,0.0125865,-0.00077553,0.273905,0.00866107,0.0145762,1273,1723,4.91823,-17.7005
56,-699,4.93213,17.7407,0.0101362,-0.000970627,0.00364201,0.011224,-0.00205834,0.290225,0.00825474,0.0159064,1280,1723,4.93215,-17.7408
63,-699,4.95129,17.7433,0.00684251,-0.0023611,0.00329996,0.00790342,-0.00342201,0.311055,0.0067072,0.013232,1287,1723,4.95127,-17.7433
70,-699,4.97705,17.7628,0.00291449,-0.00372967,0.00260503,0.00381406,-0.00462925,0.332502,0.00488232,0.0112529,1294,1723,4.97707,-17.7628
77,-699,4.95691,17.7598,-0.000962702,-0.00516908,0.00213093,-7.18534e-05,-0.00605993,0.395975,0.00401622,0.0114505,1301,1723,4.95697,-17.7598
84,-699,4.9646,17.7301,-0.00515668,-0.00637823,0.00156619,-0.00408639,-0.00744852,0.599482,0.00430718,0.0133494,1308,1723,4.96465,-17.7301
91,-699,4.99512,17.7462,-0.0091579,-0.00732207,0.00082937,-0.00700288,-0.00947709,1.20341,0.00567602,0.0131384,1315,1723,4.99511,-17.7462
98,-699,5.02563,17.7565,-0.0133017,-0.00762212,0.000113728,-0.00761985,-0.013304,1.55078,0.00770812,0.0108024,1322,1723,5.0256,-17.7565
105,-699,5.03064,17.7582,-0.0169018,-0.00781784,-0.000885891,-0.00773225,-0.0169874,-1.47448,0.00982079,0.0143647,1329,1723,5.0306,-17.7582
112,-699,5.0116,17.7485,-0.0188609,-0.00791179,-0.00175568,-0.00763715,-0.0191355,-1.41563,0.0111226,0.0205705,1336,1723,5.0116,-17.7486
119,-699,5.02527,17.7291,-0.0200645,-0.00799502,-0.00239548,-0.00753696,-0.0205225,-1.38186,0.0119871,0.0153162,1343,1723,5.02531,-17.7291
126,-699,5.07178,17.6821,-0.0196189,-0.00820062,-0.0028507,-0.00752847,-0.020291,-1.33924,0.0118442,0.0162306,1350,1723,5.07182,-17.6821
133,-699,5.09412,17.6548,-0.0176674,-0.0076446,-0.00277037,-0.00692983,-0.0183822,-1.3183,0.0107195,0.0151587,1357,1723,5.09408,-17.6548
140,-699,5.10974,17.6315,-0.0153466,-0.00678894,-0.00251489,-0.0061046,-0.0160309,-1.30511,0.00934273,0.0171709,1364,1723,5.10977,-17.6315
147,-699,5.10669,17.6235,-0.0128588,-0.00520775,-0.00233703,-0.00455039,-0.0135162,-1.2966,0.00794116,0.0145667,1371,1723,5.1067,-17.6235
154,-699,5.10364,17.5944,-0.0103295,-0.00451262,-0.00183682,-0.00398116,-0.010861,-1.28915,0.00634458,0.0139397,1378,1723,5.10363,-17.5944
161,-699,5.14075,17.5341,-0.00704405,-0.00306647,-0.00116906,-0.00274831,-0.0073622,-1.30509,0.00429582,0.00991105,1385,1723,5.14077,-17.5341
168,-699,5.1571,17.4972,-0.00213156,-0.00195082,-0.000113932,-0.00189576,-0.00218661,-1.12069,0.00137111,0.0107297,1392,1723,5.15706,-17.4971
175,-699,5.16406,17.4587,0.00200677,-0.000863644,0.000929884,0.00228168,-0.00113855,0.287452,0.0020111,0.0128947,1399,1723,5.16407,-17.4588
182,-699,5.17102,17.3992,0.00184313,-3.75712e-05,0.000729234,0.00209275,-0.000287196,0.329809,0.00150009,0.0139099,1406,1723,5.17096,-17.3991
189,-699,5.1792,17.3304,0.00157656,0.00103204,0.000494068,0.00186842,0.000740185,0.533574,0.00108646,0.015914,1413,1723,5.17924,-17.3305
196,-699,5.18542,17.281,0.00131084,0.00166729,0.000296877,0.00183533,0.00114279,1.05573,0.0010702,0.0157995,1420,1723,5.18543,-17.281
203,-699,5.16687,17.2275,0.00105815,0.00184382,0.00010274,0.00185704,0.00104493,1.44289,0.00107497,0.0128987,1427,1723,5.16687,-17.2275
210,-699,5.18237,17.1611,0.000644014,0.00154266,4.10453e-06,0.00154268,0.000643996,1.56623,0.000894704,0.0125378,1434,1723,5.18235,-17.1611
217,-699,5.20508,17.085,0.000292948,0.00132513,-0.000100577,0.00133484,0.000283239,-1.47456,0.000812115,0.0141328,1441,1723,5.20513,-17.085
224,-699,5.20667,17.0237,0.000240479,0.0011127,-3.60248e-05,0.00111418,0.000238994,-1.52959,0.000677326,0.015842,1448,1723,5.20662,-17.0237
231,-699,5.23206,16.951,0.00028158,0.000846935,-4.18826e-05,0.000850021,0.000278495,-1.49725,0.000500386,0.0111679,1455,1723,5.23206,-16.9511
238,-699,5.22424,16.8461,0.000501864,0.000638846,-0.000108782,0.000698903,0.000441808,-1.06635,0.000408182,0.0101852,1462,1723,5.22429,-16.8461
245,-699,5.21179,16.7594,0.000686147,0.000512395,-0.000109821,0.000739299,0.000459242,-0.450763,0.000430993,0.0124029,1469,1723,5.21184,-16.7594
252,-699,5.2168,16.6776,0.000825819,0.000407182,-0.000141804,0.00086933,0.000363671,-0.297718,0.000504134,0.0107189,1476,1723,5.21679,-16.6776
259,-699,5.2218,16.5912,0.000981007,0.00039635,-0.00020845,0.00104772,0.000329642,-0.309721,0.000618601,0.0107233,1483,1723,5.22182,-16.5911
266,-699,5.21289,16.4974,0.00105898,0.000349445,-0.000313706,0.00117779,0.00023064,-0.362024,0.00072072,0.0122777,1490,1723,5.21291,-16.4975
273,-699,5.2113,16.3748,0.00100256,0.000569745,-0.000463482,0.00129767,0.000274638,-0.56698,0.000789652,0.0112028,1497,1723,5.21125,-16.3748
280,-699,5.21729,16.2588,0.000794628,0.000924403,-0.000619631,0.00148253,0.000236496,-0.837568,0.000919716,0.0114026,1504,1723,5.21726,-16.2588
287,-699,5.22424,16.1383,0.000455219,0.00125102,-0.00066279,0.00162618,8.00643e-05,-1.05573,0.00105844,0.0105422,1511,1723,5.22423,-16.1383
294,-699,5.23438,16.0442,0.000179105,0.00154899,-0.000845773,0.00195238,-0.000224291,-1.12575,0.00138243,0.0106793,1518,1723,5.23442,-16.0442
301,-699,5.23438,15.9543,-0.000179814,0.00174254,-0.00101193,0.00217702,-0.000614294,-1.16524,0.00169366,0.0117985,1525,1723,5.23435,-15.9544
308,-699,5.22998,15.8512,-0.000950453,0.00225245,-0.00162495,0.00293247,-0.00163047,-1.17446,0.00266993,0.0166993,1532,1723,5.23004,-15.8512
315,-699,5.23328,15.7078,-0.00215949,0.00346327,-0.00200208,0.00410329,-0.00279951,-1.26138,0.00400896,0.0194293,1539,1723,5.23331,-15.7078
322,-699,5.20386,15.5618,-0.00296745,0.00462805,-0.00220108,0.00521979,-0.00355919,-1.30816,0.00509868,0.0199544,1546,1723,5.20391,-15.5618
329,-699,5.17346,15.4208,-0.00377647,0.00486616,-0.00210712,0.00535252,-0.00426282,-1.34395,0.00556329,0.0150944,1553,1723,5.17347,-15.4207
336,-699,5.17627,15.2963,-0.00445257,0.0053102,-0.00230516,0.00582712,-0.00496948,-1.3502,0.00623998,0.0130527,1560,1723,5.17633,-15.2963
343,-699,5.19397,15.1598,-0.00486055,0.0059657,-0.00271632,0.006609,-0.00550385,-1.33825,0.00700305,0.0169987,1567,1723,5.19394,-15.1598
350,-699,5.22681,15.0264,-0.0053364,0.00624011,-0.00280787,0.00688521,-0.0059815,-1.34497,0.0074347,0.0274409,1574,1723,5.22677,-15.0264
357,-699,4.76416,14.7218,-0.00549646,0.00627263,-0.00278167,0.00689697,-0.0061208,-1.35001,0.00752026,0.0374168,1581,1723,4.76422,-14.7218
364,-699,4.95923,14.3352,-0.00519231,0.00616167,-0.0027875,0.00680911,-0.00583975,-1.34258,0.00730997,0.0399197,1588,1723,4.95925,-14.3353
371,-699,5.12219,14.2537,-0.00434307,0.00563266,-0.00263277,0.00628485,-0.00499526,-1.32796,0.00652675,0.0469362,1595,1723,5.12217,-14.2537
378,-699,5.23181,14.9895,-0.00300905,0.00469988,-0.00274716,0.00557868,-0.00388785,-1.26119,0.00549448,0.0469031,1602,1723,5.23179,-14.9895
385,-699,5.10718,14.6403,0,0,0,0,0,0,0,-1,1609,1723,5.10717,-14.6403
392,-699,4.98376,12.5409,0,0,0,0,0,0,0,-1,1616,1723,4.98372,-12.5409
399,-699,3.91516,9.81726,0,0,0,0,0,0,0,-1,1623,1723,3.9152,-9.81721
406,-699,5.50757,21.6672,0,0,0,0,0,0,0,-1,1630,1723,5.50755,-21.6672
413,-699,4.92773,3.5918,0,0,0,0,0,0,0,-1,1637,1723,4.92777,-3.59182
420,-699,2.15076,7.65527,0,0,0,0,0,0,0,-1,1644,1723,2.15079,-7.65522
427,-699,3.36328,8.2428,0,0,0,0,0,0,0,-1,1651,1723,3.36332,-8.24283
434,-699,4.66455,8.90222,0,0,0,0,0,0,0,-1,1658,1723,4.66456,-8.90223
441,-699,0,0,0,0,0,0,0,0,0,-1,1665,1723,0,0
448,-699,0,0,0,0,0,0,0,0,0,-1,1672,1723,0,0
455,-699,0,0,0,0,0,0,0,0,0,-1,1679,1723,0,0
462,-699,0,0,0,0,0,0,0,0,0,-1,1686,1723,0,0
469,-699,0,0,0,0,0,0,0,0,0,-1,1693,1723,0,0
476,-699,0,0,0,0,0,0,0,0,0,-1,1700,1723,0,0
483,-699,0,0,0,0,0,0,0,0,0,-1,1707,1723,0,0
490,-699,0,0,0,0,0,0,0,0,0,-1,1714,1723,0,0
497,-699,0,0,0,0,0,0,0,0,0,-1,1721,1723,0,0
504,-699,0,0,0,0,0,0,0,0,0,-1,1728,1723,0,0
511,-699,0,0,0,0,0,0,0,0,0,-1,1735,1723,0,0
518,-699,0,0,0,0,0,0,0,0,0,-1,1742,1723,0,0
525,-699,0,0,0,0,0,0,0,0,0,-1,1749,1723,0,0
532,-699,0,0,0,0,0,0,0,0,0,-1,1756,1723,0,0
539,-699,0,0,0,0,0,0,0,0,0,-1,1763,1723,0,0
546,-699,0,0,0,0,0,0,0,0,0,-1,1770,1723,0,0
553,-699,0,0,0,0,0,0,0,0,0,-1,1777,1723,0,0
560,-699,0,0,0,0,0,0,0,0,0,-1,1784,1723,0,0
567,-699,0,0,0,0,0,0,0,0,0,-1,1791,1723,0,0
574,-699,0,0,0,0,0,0,0,0,0,-1,1798,1723,0,0
581,-699,0,0,0,0,0,0,0,0,0,-1,1805,1723,0,0
588,-699,0,0,0,0,0,0,0,0,0,-1,1812,1723,0,0
595,-699,0,0,0,0,0,0,0,0,0,-1,1819,1723,0,0
602,-699,0,0,0,0,0,0,0,0,0,-1,1826,1723,0,0
609,-699,0,0,0,0,0,0,0,0,0,-1,1833,1723,0,0
616,-699,0,0,0,0,0,0,0,0,0,-1,1840,1723,0,0
623,-699,0,0,0,0,0,0,0,0,0,-1,1847,1723,0,0
630,-699,0,0,0,0,0,0,0,0,0,-1,1854,1723,0,0
637,-699,0,0,0,0,0,0,0,0,0,-1,1861,1723,0,0
644,-699,0,0,0,0,0,0,0,0,0,-1,1868,1723,0,0
651,-699,0,0,0,0,0,0,0,0,0,-1,1875,1723,0,0
658,-699,0,0,0,0,0,0,0,0,0,-1,1882,1723,0,0
665,-699,0,0,0,0,0,0,0,0,0,-1,1889,1723,0,0
672,-699,0,0,0,0,0,0,0,0,0,-1,1896,1723,0,0
679,-699,0,0,0,0,0,0,0,0,0,-1,1903,1723,0,0
686,-699,0,0,0,0,0,0,0,0,0,-1,1910,1723,0,0
693,-699,0,0,0,0,0,0,0,0,0,-1,1917,1723,0,0
700,-699,0,0,0,0,0,0,0,0,0,-1,1924,1723,0,0
707,-699,0,0,0,0,0,0,0,0,0,-1,1931,1723,0,0
714,-699,0,0,0,0,0,0,0,0,0,-1,1938,1723,0,0
721,-699,0,0,0,0,0,0,0,0,0,-1,1945,1723,0,0
728,-699,0,0,0,0,0,0,0,0,0,-1,1952,1723,0,0
735,-699,0,0,0,0,0,0,0,0,0,-1,1959,1723,0,0
742,-699,0,0,0,0,0,0,0,0,0,-1,1966,1723,0,0
749,-699,0,0,0,0,0,0,0,0,0,-1,1973,1723,0,0
756,-699,0,0,0,0,0,0,0,0,0,-1,1980,1723,0,0
763,-699,0,0,0,0,0,0,0,0,0,-1,1987,1723,0,0
770,-699,0,0,0,0,0,0,0,0,0,-1,1994,1723,0,0
777,-699,0,0,0,0,0,0,0,0,0,-1,2001,1723,0,0
784,-699,0,0,0,0,0,0,0,0,0,-1,2008,1723,0,0
791,-699,0,0,0,0,0,0,0,0,0,-1,2015,1723,0,0
798,-699,0,0,0,0,0,0,0,0,0,-1,2022,1723,0,0
805,-699,0,0,0,0,0,0,0,0,0,-1,2029,1723,0,0
812,-699,0,0,0,0,0,0,0,0,0,-1,2036,1723,0,0
-700,-706,0,0,0,0,0,0,0,0,0,-1,524,1730,0,0
-693,-706,0,0,0,0,0,0,0,0,0,-1,531,1730,0,0
-686,-706,0,0,0,0,0,0,0,0,0,-1,538,1730,0,0
-679,-706,0,0,0,0,0,0,0,0,0,-1,545,1730,0,0
-672,-706,0,0,0,0,0,0,0,0,0,-1,552,1730,0,0
-665,-706,0,0,0,0,0,0,0,0,0,-1,559,1730,0,0
-658,-706,0,0,0,0,0,0,0,0,0,-1,566,1730,0,0
-651,-706,0,0,0,0,0,0,0,0,0,-1,573,1730,0,0
-644,-706,0,0,0,0,0,0,0,0,0,-1,580,1730,0,0
-637,-706,0,0,0,0,0,0,0,0,0,-1,587,1730,0,0
-630,-706,0,0,0,0,0,0,0,0,0,-1,594,1730,0,0
-623,-706,0,0,0,0,0,0,0,0,0,-1,601,1730,0,0
-616,-706,0,0,0,0,0,0,0,0,0,-1,608,1730,0,0
-609,-706,0,0,0,0,0,0,0,0,0,-1,615,1730,0,0
-602,-706,0,0,0,0,0,0,0,0,0,-1,622,1730,0,0
-595,-706,0,0,0,0,0,0,0,0,0,-1,629,1730,0,0
-588,-706,0,0,0,0,0,0,0,0,0,-1,636,1730,0,0
-581,-706,0,0,0,0,0,0,0,0,0,-1,643,1730,0,0
-574,-706,0,0,0,0,0,0,0,0,0,-1,650,1730,0,0
-567,-706,0,0,0,0,0,0,0,0,0,-1,657,1730,0,0
-560,-706,0,0,0,0,0,0,0,0,0,-1,664,1730,0,0
-553,-706,0,0,0,0,0,0,0,0,0,-1,671,1730,0,0
-546,-706,0,0,0,0,0,0,0,0,0,-1,678,1730,0,0
-539,-706,0,0,0,0,0,0,0,0,0,-1,685,1730,0,0
-532,-706,0,0,0,0,0,0,0,0,0,-1,692,1730,0,0
-525,-706,0,0,0,0,0,0,0,0,0,-1,699,1730,0,0
-518,-706,0,0,0,0,0,0,0,0,0,-1,706,1730,0,0
-511,-706,0,0,0,0,0,0,0,0,0,-1,713,1730,0,0
-504,-706,0,0,0,0,0,0,0,0,0,-1,720,1730,0,0
-497,-706,0,0,0,0,0,0,0,0,0,-1,727,1730,0,0
-490,-706,0,0,0,0,0,0,0,0,0,-1,734,1730,0,0
-483,-706,0,0,0,0,0,0,0,0,0,-1,741,1730,0,0
-476,-706,0,0,0,0,0,0,0,0,0,-1,748,1730,0,0
-469,-706,0,0,0,0,0,0,0,0,0,-1,755,1730,0,0
-462,-706,0,0,0,0,0,0,0,0,0,-1,762,1730,0,0
-455,-706,0,0,0,0,0,0,0,0,0,-1,769,1730,0,0
-448,-706,0,0,0,0,0,0,0,0,0,-1,776,1730,0,0
-441,-706,0,0,0,0,0,0,0,0,0,-1,783,1730,0,0
-434,-706,0,0,0,0,0,0,0,0,0,-1,790,1730,0,0
-427,-706,0,0,0,0,0,0,0,0,0,-1,797,1730,0,0
-420,-706,0,0,0,0,0,0,0,0,0,-1,804,1730,0,0
-413,-706,0,0,0,0,0,0,0,0,0,-1,811,1730,0,0
-406,-706,0,0,0,0,0,0,0,0,0,-1,818,1730,0,0
-399,-706,0,0,0,0,0,0,0,0,0,-1,825,1730,0,0
-392,-706,0,0,0,0,0,0,0,0,0,-1,832,1730,0,0
-385,-706,0,0,0,0,0,0,0,0,0,-1,839,1730,0,0
-378,-706,0,0,0,0,0,0,0,0,0,-1,846,1730,0,0
-371,-706,0,0,0,0,0,0,0,0,0,-1,853,1730,0,0
-364,-706,0,0,0,0,0,0,0,0,0,-1,860,1730,0,0
-357,-706,0,0,0,0,0,0,0,0,0,-1,867,1730,0,0
-350,-706,0,0,0,0,0,0,0,0,0,-1,874,1730,0,0
-343,-706,0,0,0,0,0,0,0,0,0,-1,881,1730,0,0
-336,-706,0,0,0,0,0,0,0,0,0,-1,888,1730,0,0
-329,-706,0,0,0,0,0,0,0,0,0,-1,895,1730,0,0
-322,-706,0,0,0,0,0,0,0,0,0,-1,902,1730,0,0
-315,-706,0,0,0,0,0,0,0,0,0,-1,909,1730,0,0
-308,-706,5.08191,14.6245,0,0,0,0,0,0,0,-1,916,1730,5.08188,-14.6245
-301,-706,5.28516,13.4028,0,0,0,0,0,0,0,-1,923,1730,5.28516,-13.4029
-294,-706,7.08746,11.6641,0,0,0,0,0,0,0,-1,930,1730,7.08747,-11.664
-287,-706,1.66724,14.0443,0,0,0,0,0,0,0,-1,937,1730,1.66722,-14.0444
-280,-706,1.6427,13.4705,0.10306,0.0156154,-0.0066965,0.10357,0.0151055,-0.075989,0.064603,0.0489053,944,1730,1.6427,-13.4705
-273,-706,2.46552,13.0911,0.0897176,0.0114597,-0.00598123,0.0901721,0.0110052,-0.0758426,0.0568028,0.0457434,951,1730,2.46551,-13.091
-266,-706,3.41382,12.8877,0,0,0,0,0,0,0,-1,958,1730,3.41385,-12.8877
-259,-706,3.3598,9.72961,0,0,0,0,0,0,0,-1,965,1730,3.35979,-9.72962
-252,-706,3.05963,10.0499,0,0,0,0,0,0,0,-1,972,1730,3.05962,-10.05
-245,-706,2.28943,16.1493,0,0,0,0,0,0,0,-1,979,1730,2.28944,-16.1493
-238,-706,5.05334,13.2124,0,0,0,0,0,0,0,-1,986,1730,5.05333,-13.2124
-231,-706,5.04797,14.1656,0,0,0,0,0,0,0,-1,993,1730,5.04797,-14.1656
-224,-706,4.61401,14.4924,0.0112414,-0.000279058,-0.00325794,0.0120989,-0.00113657,-0.257368,0.00847023,0.0405395,1000,1730,4.614,-14.4925
-217,-706,4.70221,14.3711,0.0049049,6.3802e-05,-0.00326413,0.00654805,-0.00157934,-0.466359,0.00497607,0.0427795,1007,1730,4.70223,-14.3711
-210,-706,4.89032,14.2954,0.00229346,0.00163804,-0.00288249,0.00486681,-0.000935313,-0.728796,0.00359708,0.0410099,1014,1730,4.89032,-14.2955
-203,-706,5.04175,14.3634,0,0,0,0,0,0,0,-1,1021,1730,5.04178,-14.3634
-196,-706,4.84937,14.7816,0.000672942,0.00432768,-0.00118728,0.00467951,0.00032111,-1.28271,0.00301834,0.0214152,1028,1730,4.84939,-14.7816
-189,-706,4.75281,14.9429,0.000320771,0.00482165,-0.00071167,0.00493149,0.000210924,-1.41765,0.00321966,0.0175089,1035,1730,4.75286,-14.9429
-182,-706,4.75977,15.1091,-8.43969e-05,0.00485462,-0.000447567,0.00489485,-0.000124627,-1.48115,0.00330556,0.0129042,1042,1730,4.75971,-15.1091
-175,-706,4.75098,15.2491,-0.000547421,0.00377541,-0.000426429,0.00381708,-0.000589085,-1.4734,0.0027621,0.0140838,1049,1730,4.75093,-15.2491
-168,-706,4.76086,15.3768,-0.00063913,0.00308685,-0.000496377,0.00315184,-0.000704124,-1.4406,0.00237104,0.0155065,1056,1730,4.7609,-15.3768
-161,-706,4.74609,15.5232,-0.000375621,0.00192229,-0.00100759,0.00230152,-0.000754843,-1.21083,0.00183836,0.0128525,1063,1730,4.74613,-15.5232
-154,-706,4.72192,15.6613,-6.68619e-05,0.000792445,-0.00146825,0.00189261,-0.00116703,-0.927739,0.00178297,0.012357,1070,1730,4.72193,-15.6613
-147,-706,4.71375,15.7603,0.000432224,-4.75928e-05,-0.00189613,0.00210357,-0.00171894,-0.72247,0.00221064,0.0123292,1077,1730,4.71372,-15.7602
-140,-706,4.71655,15.8838,0.00099111,-0.000842147,-0.00219589,0.002454,-0.00230504,-0.587678,0.00274808,0.010934,1084,1730,4.71655,-15.8837
-133,-706,4.71362,15.9865,0.0015023,-0.00147387,-0.00241839,0.00285376,-0.00282533,-0.509594,0.00327883,0.00787984,1091,1730,4.71366,-15.9864
-126,-706,4.71826,16.1202,0.00184607,-0.00213382,-0.00259108,0.00312317,-0.00341092,-0.457938,0.00377368,0.0125315,1098,1730,4.71831,-16.1202
-119,-706,4.69995,16.2427,0.00215052,-0.00222529,-0.00242868,0.00323147,-0.00330625,-0.418753,0.00377463,0.0180031,1105,1730,4.69995,-16.2427
-112,-706,4.70081,16.3556,0.00239464,-0.00222569,-0.00211079,0.00321374,-0.0030448,-0.370166,0.00361381,0.0125604,1112,1730,4.70079,-16.3555
-105,-706,4.70398,16.4475,0.00245275,-0.00209662,-0.00171752,0.00302834,-0.00267221,-0.323365,0.00329336,0.00905015,1119,1730,4.70392,-16.4476
-98,-706,4.72839,16.5439,0.00230154,-0.00187858,-0.00119148,0.0026173,-0.00219434,-0.25906,0.00278158,0.00995158,1126,1730,4.72835,-16.5439
-91,-706,4.73328,16.6609,0.00206057,-0.00155106,-0.000600994,0.00215796,-0.00164845,-0.16064,0.00220418,0.0132888,1133,1730,4.73322,-16.6609
-84,-706,4.70239,16.7651,0.00178389,-0.00122493,-2.76273e-05,0.00178414,-0.00122518,-0.00918108,0.0017474,0.0170067,1140,1730,4.70244,-16.7652
-77,-706,4.69556,16.8195,0.00162709,-0.000978753,0.000360633,0.00167608,-0.00102774,0.135014,0.00157594,0.0161996,1147,1730,4.69558,-16.8195
-70,-706,4.71033,16.92,0.00158188,-0.000911424,0.000586643,0.00171302,-0.00104256,0.219916,0.00160655,0.0184178,1154,1730,4.71037,-16.92
-63,-706,4.7063,16.9904,0.00120566,-0.00103044,0.000613592,0.00136296,-0.00118774,0.250963,0.00147381,0.0137868,1161,1730,4.70632,-16.9904
-56,-706,4.7262,17.0444,0.000764194,-0.00097228,0.000474073,0.000885189,-0.00109328,0.24989,0.00114437,0.0127794,1168,1730,4.72619,-17.0444
-49,-706,4.72217,17.1281,0.000521592,-0.00118121,0.000286352,0.000568457,-0.00122807,0.162223,0.00106027,0.0126068,1175,1730,4.72218,-17.1281
-42,-706,4.71899,17.2262,0.000648461,-0.00119802,0.00023064,0.000676833,-0.0012264,0.122402,0.001114,0.0172441,1182,1730,4.71896,-17.2262
-35,-706,4.74109,17.2645,0.000770545,-0.00110755,0.000437009,0.000867251,-0.00120426,0.217783,0.00120125,0.0158672,1189,1730,4.74111,-17.2646
-28,-706,4.77368,17.2946,0.000618135,-0.000905261,0.00053718,0.000788502,-0.00107563,0.307117,0.0010805,0.0100866,1196,1730,4.77363,-17.2946
-21,-706,4.78015,17.3591,0.000459587,-0.000770788,0.000641145,0.000732951,-0.00104415,0.403028,0.00103124,0.0105766,1203,1730,4.78012,-17.3591
-14,-706,4.78699,17.4088,0.00025974,-0.00072802,0.000712155,0.000632509,-0.00110079,0.482223,0.00101282,0.0103609,1210,1730,4.78697,-17.4088
-7,-706,4.79102,17.4636,0.000822554,-0.000846786,0.000729184,0.00109621,-0.00112044,0.359024,0.00127981,0.00815526,1217,1730,4.79102,-17.4636
0,-706,4.80042,17.5133,0.00198018,-0.00080794,0.000863607,0.002226,-0.00105376,0.277314,0.00193347,0.0113622,1224,1730,4.80046,-17.5133
7,-706,4.82104,17.559,0.00322758,-0.000854564,0.00101379,0.00346548,-0.00109247,0.2305,0.00274785,0.0129464,1231,1730,4.82102,-17.559
14,-706,4.83887,17.5986,0.00503265,-0.000933648,0.00113729,0.00524209,-0.00114308,0.182114,0.00393154,0.013113,1238,1730,4.83889,-17.5986
21,-706,4.8479,17.6279,0.00671253,-0.000759023,0.0014232,0.00697444,-0.00102094,0.181995,0.00502463,0.011339,1245,1730,4.8479,-17.628
28,-706,4.85046,17.6563,0.00781561,-0.000905862,0.00165313,0.00811844,-0.00120869,0.181177,0.00585691,0.0119371,1252,1730,4.85047,-17.6562
35,-706,4.86475,17.687,0.00870906,-0.00115235,0.00188265,0.00905626,-0.00149955,0.182369,0.00659443,0.0137004,1259,1730,4.8647,-17.687
42,-706,4.88965,17.7233,0.00941935,-0.00174804,0.00223554,0.00985024,-0.00217893,0.190413,0.00740084,0.0122153,1266,1730,4.88962,-17.7233
49,-706,4.91589,17.7413,0.00946893,-0.00207569,0.00248911,0.00998273,-0.0025895,0.203561,0.00766553,0.0143598,1273,1730,4.91585,-17.7413
56,-706,4.93237,17.7415,0.00862382,-0.00251566,0.00263556,0.00921591,-0.00310775,0.220986,0.00740066,0.0135154,1280,1730,4.93235,-17.7414
63,-706,4.95313,17.7452,0.00644424,-0.00310503,0.00234078,0.00698716,-0.00364795,0.22791,0.00624026,0.0115577,1287,1730,4.95317,-17.7453
70,-706,4.94653,17.7432,0.00367777,-0.00367779,0.00183123,0.00410845,-0.00410847,0.23099,0.00474404,0.0122842,1294,1730,4.94657,-17.7432
77,-706,4.9292,17.7671,0.00100773,-0.0043016,0.00143411,0.00137034,-0.00466421,0.247653,0.00365296,0.0113162,1301,1730,4.92925,-17.7671
84,-706,4.9469,17.7864,-0.00189285,-0.00487693,0.00090094,-0.00164194,-0.00512784,0.271616,0.00302369,0.0100063,1308,1730,4.9469,-17.7863
91,-706,4.98779,17.7887,-0.00468842,-0.00542191,0.000291861,-0.00458646,-0.00552387,0.33609,0.00341329,0.0113786,1315,1730,4.98775,-17.7888
98,-706,4.99292,17.7845,-0.00762828,-0.00554591,-0.00028191,-0.00550842,-0.00766577,-1.43859,0.00456462,0.0135834,1322,1730,4.99287,-17.7845
105,-706,4.99463,17.7838,-0.0101706,-0.00571427,-0.00108476,-0.00546424,-0.0104206,-1.34426,0.00601872,0.0140352,1329,1730,4.99459,-17.7839
112,-706,4.99231,17.772,-0.0114962,-0.00582294,-0.00175942,-0.0053216,-0.0119975,-1.29321,0.00694146,0.0141842,1336,1730,4.99227,-17.772
119,-706,5.02112,17.7633,-0.0123215,-0.00593504,-0.00223529,-0.00523042,-0.0130262,-1.26543,0.00756911,0.0124912,1343,1730,5.02112,-17.7633
126,-706,5.03345,17.7183,-0.0118844,-0.00612587,-0.00255418,-0.00515623,-0.012854,-1.20798,0.00746946,0.0138346,1350,1730,5.03345,-17.7182
133,-706,5.03479,17.675,-0.0103877,-0.00571306,-0.00245161,-0.00466314,-0.0114377,-1.16617,0.00664093,0.0130035,1357,1730,5.03484,-17.6751
140,-706,5.06116,17.6306,-0.00867541,-0.00504505,-0.00217423,-0.00402789,-0.00969257,-1.13322,0.00562254,0.0131895,1364,1730,5.06115,-17.6306
147,-706,5.08948,17.5859,-0.00690978,-0.00388134,-0.00189834,-0.00296727,-0.00782385,-1.12205,0.00456079,0.0227056,1371,1730,5.08944,-17.5859
154,-706,5.09082,17.5768,-0.00520198,-0.00333321,-0.00138245,-0.002599,-0.0059362,-1.08258,0.00343609,0.0215108,1378,1730,5.09081,-17.5768
161,-706,5.08142,17.537,-0.00325389,-0.00215083,-0.000787826,-0.00174066,-0.00366405,-1.09078,0.00211632,0.0102286,1385,1730,5.08137,-17.537
168,-706,5.0885,17.481,-0.000644701,-0.00117485,3.58449e-05,-0.000642288,-0.00117726,0.0672049,0.000680635,0.00987486,1392,1730,5.08852,-17.481
175,-706,5.10291,17.4392,0.00141586,-0.00035738,0.000581208,0.00158938,-0.0005309,0.290127,0.00127398,0.0106472,1399,1730,5.10292,-17.4392
182,-706,5.10498,17.391,0.00129192,0.000200019,0.0004287,0.00144012,5.18186e-05,0.332837,0.000943283,0.0109896,1406,1730,5.10498,-17.391
189,-706,5.10352,17.3221,0.00111698,0.000926718,0.000278715,0.00131635,0.000727345,0.620938,0.000761394,0.0134935,1413,1730,5.10353,-17.3221
196,-706,5.10803,17.2611,0.000931954,0.00146029,0.000129063,0.00149013,0.000902112,1.34357,0.000866677,0.0119542,1420,1730,5.10808,-17.2611
203,-706,5.10962,17.2112,0.000780304,0.0016785,-2.28913e-05,0.00167908,0.000779721,-1.54533,0.000970238,0.0132766,1427,1730,5.1096,-17.2112
210,-706,5.11072,17.1516,0.000532568,0.00160062,-0.000111837,0.00161221,0.000520983,-1.46758,0.00095002,0.0126381,1434,1730,5.11075,-17.1517
217,-706,5.13049,17.0873,0.000316314,0.00160375,-0.000207965,0.00163651,0.000283554,-1.41455,0.00100985,0.0133338,1441,1730,5.13055,-17.0873
224,-706,5.10461,17.0223,0.000311642,0.00160101,-0.000213586,0.00163547,0.000277182,-1.41084,0.00101067,0.017719,1448,1730,5.10458,-17.0223
231,-706,5.13086,16.9238,0.000335531,0.00157487,-0.000246819,0.00162222,0.000288185,-1.38127,0.000999364,0.0123515,1455,1730,5.13082,-16.9238
238,-706,5.12866,16.8342,0.000409681,0.00158687,-0.000281685,0.0016508,0.00034575,-1.34762,0.0010053,0.00836868,1462,1730,5.12867,-16.8343
245,-706,5.13586,16.7466,0.000506081,0.00165739,-0.000306764,0.00173403,0.000429445,-1.32599,0.00104277,0.0107652,1469,1730,5.13588,-16.7465
252,-706,5.13428,16.6685,0.000589006,0.00168868,-0.000360478,0.00179631,0.000481374,-1.28064,0.00107368,0.0102234,1476,1730,5.1343,-16.6684
259,-706,5.14026,16.5804,0.000710333,0.00177276,-0.000455629,0.00194139,0.0005417,-1.21632,0.00115678,0.0116678,1483,1730,5.14025,-16.5805
266,-706,5.13049,16.4895,0.000769216,0.00181996,-0.000633773,0.0021178,0.000471372,-1.13147,0.00128392,0.0120747,1490,1730,5.13049,-16.4895
273,-706,5.12256,16.3771,0.000667055,0.00202753,-0.000815533,0.00240928,0.000285306,-1.13299,0.00152004,0.0111147,1497,1730,5.12259,-16.377
280,-706,5.11475,16.2603,0.00043312,0.00237613,-0.000994358,0.00279479,1.44561e-05,-1.17228,0.00185839,0.00971387,1504,1730,5.11476,-16.2602
287,-706,5.10925,16.127,6.09094e-05,0.00264378,-0.0010151,0.00299497,-0.000290283,-1.23772,0.00210011,0.0109423,1511,1730,5.10931,-16.127
294,-706,5.13623,16.0487,-0.000242179,0.00286917,-0.00125446,0.00331194,-0.000684951,-1.23149,0.00246817,0.0101819,1518,1730,5.13618,-16.0487
301,-706,5.13391,15.9583,-0.000599579,0.00286589,-0.00142171,0.0033745,-0.00110819,-1.22724,0.00269608,0.00975944,1525,1730,5.13389,-15.9582
308,-706,5.12915,15.8372,-0.00149633,0.00334574,-0.00218303,0.00418462,-0.0023352,-1.20392,0.00381437,0.0124008,1532,1730,5.12913,-15.8371
315,-706,5.15625,15.7096,-0.00302007,0.00473197,-0.00265808,0.00555584,-0.00384393,-1.27024,0.00545688,0.0188958,1539,1730,5.15621,-15.7096
322,-706,5.15076,15.5742,-0.00405091,0.00604158,-0.00293013,0.00683059,-0.00483992,-1.30776,0.00677057,0.0188463,1546,1730,5.15074,-15.5742
329,-706,5.10962,15.4164,-0.00515505,0.00631567,-0.00284098,0.00698074,-0.00582013,-1.34084,0.0074007,0.0156164,1553,1730,5.10961,-15.4164
336,-706,5.07617,15.2573,-0.0061735,0.00685569,-0.00315836,0.00758093,-0.00689874,-1.34508,0.00836293,0.0217446,1560,1730,5.07616,-15.2574
343,-706,5.09387,15.1033,-0.0070619,0.00766896,-0.00365877,0.00852765,-0.00792059,-1.34027,0.00949855,0.0312227,1567,1730,5.09385,-15.1032
350,-706,5.14734,15.0276,-0.00803189,0.00810026,-0.00382205,0.00895997,-0.00889159,-1.34954,0.0103066,0.0405054,1574,1730,5.14735,-15.0276
357,-706,5.43616,14.7419,-0.00858682,0.00830353,-0.00380716,0.00912202,-0.00940531,-1.35903,0.0106972,0.0462816,1581,1730,5.4362,-14.7419
364,-706,4.37268,13.9424,-0.00861407,0.00828407,-0.00374637,0.00907741,-0.0094074,-1.36212,0.0106728,0.0459297,1588,1730,4.37264,-13.9424
371,-706,4.96484,13.9756,0,0,0,0,0,0,0,-1,1595,1730,4.96483,-13.9756
378,-706,4.92493,15.8813,0,0,0,0,0,0,0,-1,1602,1730,4.92492,-15.8813
385,-706,4.94543,15.7039,0,0,0,0,0,0,0,-1,1609,1730,4.94547,-15.7039
392,-706,3.42236,11.9617,0,0,0,0,0,0,0,-1,1616,1730,3.42241,-11.9617
399,-706,3.21667,13.4043,0,0,0,0,0,0,0,-1,1623,1730,3.21671,-13.4043
406,-706,3.80188,18.3816,0,0,0,0,0,0,0,-1,1630,1730,3.80184,-18.3815
413,-706,4.23645,20.028,0,0,0,0,0,0,0,-1,1637,1730,4.23649,-20.0279
420,-706,5.7926,4.15125,0,0,0,0,0,0,0,-1,1644,1730,5.79255,-4.15128
427,-706,0,0,0,0,0,0,0,0,0,-1,1651,1730,0,0
434,-706,0,0,0,0,0,0,0,0,0,-1,1658,1730,0,0
441,-706,0,0,0,0,0,0,0,0,0,-1,1665,1730,0,0
448,-706,0,0,0,0,0,0,0,0,0,-1,1672,1730,0,0
455,-706,0,0,0,0,0,0,0,0,0,-1,1679,1730,0,0
462,-706,0,0,0,0,0,0,0,0,0,-1,1686,1730,0,0
469,-706,0,0,0,0,0,0,0,0,0,-1,1693,1730,0,0
476,-706,0,0,0,0,0,0,0,0,0,-1,1700,1730,0,0
483,-706,0,0,0,0,0,0,0,0,0,-1,1707,1730,0,0
490,-706,0,0,0,0,0,0,0,0,0,-1,1714,1730,0,0
497,-706,0,0,0,0,0,0,0,0,0,-1,1721,1730,0,0
504,-706,0,0,0,0,0,0,0,0,0,-1,1728,1730,0,0
511,-706,0,0,0,0,0,0,0,0,0,-1,1735,1730,0,0
518,-706,0,0,0,0,0,0,0,0,0,-1,1742,1730,0,0
525,-706,0,0,0,0,0,0,0,0,0,-1,1749,1730,0,0
532,-706,0,0,0,0,0,0,0,0,0,-1,1756,1730,0,0
539,-706,0,0,0,0,0,0,0,0,0,-1,1763,1730,0,0
546,-706,0,0,0,0,0,0,0,0,0,-1,1770,1730,0,0
553,-706,0,0,0,0,0,0,0,0,0,-1,1777,1730,0,0
560,-706,0,0,0,0,0,0,0,0,0,-1,1784,1730,0,0
567,-706,0,0,0,0,0,0,0,0,0,-1,1791,1730,0,0
574,-706,0,0,0,0,0,0,0,0,0,-1,1798,1730,0,0
581,-706,0,0,0,0,0,0,0,0,0,-1,1805,1730,0,0
588,-706,0,0,0,0,0,0,0,0,0,-1,1812,1730,0,0
595,-706,0,0,0,0,0,0,0,0,0,-1,1819,1730,0,0
602,-706,0,0,0,0,0,0,0,0,0,-1,1826,1730,0,0
609,-706,0,0,0,0,0,0,0,0,0,-1,1833,1730,0,0
616,-706,0,0,0,0,0,0,0,0,0,-1,1840,1730,0,0
623,-706,0,0,0,0,0,0,0,0,0,-1,1847,1730,0,0
630,-706,0,0,0,0,0,0,0,0,0,-1,1854,1730,0,0
637,-706,0,0,0,0,0,0,0,0,0,-1,1861,1730,0,0
644,-706,0,0,0,0,0,0,0,0,0,-1,1868,1730,0,0
651,-706,0,0,0,0,0,0,0,0,0,-1,1875,1730,0,0
658,-706,0,0,0,0,0,0,0,0,0,-1,1882,1730,0,0
665,-706,0,0,0,0,0,0,0,0,0,-1,1889,1730,0,0
672,-706,0,0,0,0,0,0,0,0,0,-1,1896,1730,0,0
679,-706,0,0,0,0,0,0,0,0,0,-1,1903,1730,0,0
686,-706,0,0,0,0,0,0,0,0,0,-1,1910,1730,0,0
693,-706,0,0,0,0,0,0,0,0,0,-1,1917,1730,0,0
700,-706,0,0,0,0,0,0,0,0,0,-1,1924,1730,0,0
707,-706,0,0,0,0,0,0,0,0,0,-1,1931,1730,0,0
714,-706,0,0,0,0,0,0,0,0,0,-1,1938,1730,0,0
721,-706,0,0,0,0,0,0,0,0,0,-1,1945,1730,0,0
728,-706,0,0,0,0,0,0,0,0,0,-1,1952,1730,0,0
735,-706,0,0,0,0,0,0,0,0,0,-1,1959,1730,0,0
742,-706,0,0,0,0,0,0,0,0,0,-1,1966,1730,0,0
749,-706,0,0,0,0,0,0,0,0,0,-1,1973,1730,0,0
756,-706,0,0,0,0,0,0,0,0,0,-1,1980,1730,0,0
763,-706,0,0,0,0,0,0,0,0,0,-1,1987,1730,0,0
770,-706,0,0,0,0,0,0,0,0,0,-1,1994,1730,0,0
777,-706,0,0,0,0,0,0,0,0,0,-1,2001,1730,0,0
784,-706,0,0,0,0,0,0,0,0,0,-1,2008,1730,0,0
791,-706,0,0,0,0,0,0,0,0,0,-1,2015,1730,0,0
798,-706,0,0,0,0,0,0,0,0,0,-1,2022,1730,0,0
805,-706,0,0,0,0,0,0,0,0,0,-1,2029,1730,0,0
812,-706,0,0,0,0,0,0,0,0,0,-1,2036,1730,0,0
-700,-713,0,0,0,0,0,0,0,0,0,-1,524,1737,0,0
-693,-713,0,0,0,0,0,0,0,0,0,-1,531,1737,0,0
-686,-713,0,0,0,0,0,0,0,0,0,-1,538,1737,0,0
-679,-713,0,0,0,0,0,0,0,0,0,-1,545,1737,0,0
-672,-713,0,0,0,0,0,0,0,0,0,-1,552,1737,0,0
-665,-713,0,0,0,0,0,0,0,0,0,-1,559,1737,0,0
-658,-713,0,0,0,0,0,0,0,0,0,-1,566,1737,0,0
-651,-713,0,0,0,0,0,0,0,0,0,-1,573,1737,0,0
-644,-713,0,0,0,0,0,0,0,0,0,-1,580,1737,0,0
-637,-713,0,0,0,0,0,0,0,0,0,-1,587,1737,0,0
-630,-713,0,0,0,0,0,0,0,0,0,-1,594,1737,0,0
-623,-713,0,0,0,0,0,0,0,0,0,-1,601,1737,0,0
-616,-713,0,0,0,0,0,0,0,0,0,-1,608,1737,0,0
-609,-713,0,0,0,0,0,0,0,0,0,-1,615,1737,0,0
-602,-713,0,0,0,0,0,0,0,0,0,-1,622,1737,0,0
-595,-713,0,0,0,0,0,0,0,0,0,-1,629,1737,0,0
-588,-713,0,0,0,0,0,0,0,0,0,-1,636,1737,0,0
-581,-713,0,0,0,0,0,0,0,0,0,-1,643,1737,0,0
-574,-713,0,0,0,0,0,0,0,0,0,-1,650,1737,0,0
-567,-713,0,0,0,0,0,0,0,0,0,-1,657,1737,0,0
-560,-713,0,0,0,0,0,0,0,0,0,-1,664,1737,0,0
-553,-713,0,0,0,0,0,0,0,0,0,-1,671,1737,0,0
-546,-713,0,0,0,0,0,0,0,0,0,-1,678,1737,0,0
-539,-713,0,0,0,0,0,0,0,0,0,-1,685,1737,0,0
-532,-713,0,0,0,0,0,0,0,0,0,-1,692,1737,0,0
-525,-713,0,0,0,0,0,0,0,0,0,-1,699,1737,0,0
-518,-713,0,0,0,0,0,0,0,0,0,-1,706,1737,0,0
-511,-713,0,0,0,0,0,0,0,0,0,-1,713,1737,0,0
-504,-713,0,0,0,0,0,0,0,0,0,-1,720,1737,0,0
-497,-713,0,0,0,0,0,0,0,0,0,-1,727,1737,0,0
-490,-713,0,0,0,0,0,0,0,0,0,-1,734,1737,0,0
-483,-713,0,0,0,0,0,0,0,0,0,-1,741,1737,0,0
-476,-713,0,0,0,0,0,0,0,0,0,-1,748,1737,0,0
-469,-713,0,0,0,0,0,0,0,0,0,-1,755,1737,0,0
-462,-713,0,0,0,0,0,0,0,0,0,-1,762,1737,0,0
-455,-713,0,0,0,0,0,0,0,0,0,-1,769,1737,0,0
-448,-713,0,0,0,0,0,0,0,0,0,-1,776,1737,0,0
-441,-713,0,0,0,0,0,0,0,0,0,-1,783,1737,0,0
-434,-713,0,0,0,0,0,0,0,0,0,-1,790,1737,0,0
-427,-713,0,0,0,0,0,0,0,0,0,-1,797,1737,0,0
-420,-713,0,0,0,0,0,0,0,0,0,-1,804,1737,0,0
-413,-713,0,0,0,0,0,0,0,0,0,-1,811,1737,0,0
-406,-713,0,0,0,0,0,0,0,0,0,-1,818,1737,0,0
-399,-713,0,0,0,0,0,0,0,0,0,-1,825,1737,0,0
-392,-713,0,0,0,0,0,0,0,0,0,-1,832,1737,0,0
-385,-713,0,0,0,0,0,0,0,0,0,-1,839,1737,0,0
-378,-713,0,0,0,0,0,0,0,0,0,-1,846,1737,0,0
-371,-713,0,0,0,0,0,0,0,0,0,-1,853,1737,0,0
-364,-713,0,0,0,0,0,0,0,0,0,-1,860,1737,0,0
-357,-713,0,0,0,0,0,0,0,0,0,-1,867,1737,0,0
-350,-713,0,0,0,0,0,0,0,0,0,-1,874,1737,0,0
-343,-713,0,0,0,0,0,0,0,0,0,-1,881,1737,0,0
-336,-713,0,0,0,0,0,0,0,0,0,-1,888,1737,0,0
-329,-713,0,0,0,0,0,0,0,0,0,-1,895,1737,0,0
-322,-713,0,0,0,0,0,0,0,0,0,-1,902,1737,0,0
-315,-713,0,0,0,0,0,0,0,0,0,-1,909,1737,0,0
-308,-713,0,0,0,0,0,0,0,0,0,-1,916,1737,0,0
-301,-713,0,0,0,0,0,0,0,0,0,-1,923,1737,0,0
-294,-713,6.3161,13.046,0,0,0,0,0,0,0,-1,930,1737,6.31612,-13.046
-287,-713,6.33917,12.5209,0,0,0,0,0,0,0,-1,937,1737,6.33916,-12.5208
-280,-713,1.63538,13.2765,0,0,0,0,0,0,0,-1,944,1737,1.63538,-13.2765
-273,-713,2.23798,12.5815,0,0,0,0,0,0,0,-1,951,1737,2.23795,-12.5815
-266,-713,3.0343,12.2877,0,0,0,0,0,0,0,-1,958,1737,3.03429,-12.2877
-259,-713,2.67322,10.5743,0,0,0,0,0,0,0,-1,965,1737,2.67324,-10.5743
-252,-713,3.55267,8.86694,0,0,0,0,0,0,0,-1,972,1737,3.55265,-8.86693
-245,-713,5.05389,17.6932,0,0,0,0,0,0,0,-1,979,1737,5.05392,-17.6932
-238,-713,4.45013,14.9313,0,0,0,0,0,0,0,-1,986,1737,4.45013,-14.9313
-231,-713,4.63519,14.7144,0.0251336,0.000472659,-0.00653316,0.0267575,-0.00115118,-0.243616,0.0182342,0.0452584,993,1737,4.63522,-14.7143
-224,-713,4.75519,14.5603,0.015216,0.00030582,-0.00496471,0.0167178,-0.00119603,-0.293753,0.0115645,0.0464921,1000,1737,4.75516,-14.5603
-217,-713,4.83856,14.3234,0,0,0,0,0,0,0,-1,1007,1737,4.83855,-14.3233
-210,-713,5.07349,14.0791,0,0,0,0,0,0,0,-1,1014,1737,5.07349,-14.0791
-203,-713,5.2074,14.514,0,0,0,0,0,0,0,-1,1021,1737,5.20742,-14.5141
-196,-713,5.08423,14.702,0.00150311,0.00621535,-0.00139592,0.00659783,0.00112063,-1.30337,0.00407668,0.0415278,1028,1737,5.08421,-14.7021
-189,-713,4.95923,14.8794,0.000845145,0.00683923,-0.000781515,0.00693945,0.000744925,-1.44326,0.00439906,0.038981,1035,1737,4.95924,-14.8794
-182,-713,4.85791,15.1017,0.000118221,0.0068581,-0.000459544,0.00688929,8.70326e-05,-1.50303,0.00456413,0.0257866,1042,1737,4.85786,-15.1017
-175,-713,4.9397,15.21,-0.000700422,0.00476678,-0.000599672,0.00483178,-0.000765424,-1.46282,0.0035043,0.022214,1049,1737,4.93974,-15.21
-168,-713,5.00928,15.2971,-0.000687163,0.00360585,-0.000903572,0.00378828,-0.00086959,-1.37158,0.0028598,0.0243864,1056,1737,5.00928,-15.2972
-161,-713,4.90259,15.4987,-0.000205783,0.00184723,-0.001841,0.00292857,-0.00128711,-1.03972,0.00249467,0.013009,1063,1737,4.90261,-15.4987
-154,-713,4.83533,15.6254,0.000153596,0.000271202,-0.00263041,0.00284346,-0.00241867,-0.796574,0.00304139,0.0109466,1070,1737,4.83539,-15.6254
-147,-713,4.82495,15.7736,0.000705403,-0.000874142,-0.00332867,0.00333671,-0.00350545,-0.66892,0.00395072,0.0186865,1077,1737,4.82501,-15.7736
-140,-713,4.83789,15.913,0.00137817,-0.00185832,-0.00383843,0.00392553,-0.00440568,-0.585909,0.00481269,0.0180981,1084,1737,4.83791,-15.913
-133,-713,4.81934,16.0015,0.00196975,-0.00257302,-0.0042454,0.0045132,-0.00511647,-0.539762,0.00556332,0.0101775,1091,1737,4.81931,-16.0015
-126,-713,4.83569,16.1046,0.00234568,-0.00326588,-0.00460943,0.00493613,-0.00585633,-0.512001,0.00623857,0.0165481,1098,1737,4.83569,-16.1046
-119,-713,4.81934,16.186,0.00268743,-0.00321691,-0.0045618,0.00516898,-0.00569847,-0.498214,0.00627681,0.0279577,1105,1737,4.81928,-16.186
-112,-713,4.79578,16.3364,0.00299318,-0.00297236,-0.00429338,0.00523822,-0.0052174,-0.481805,0.00603656,0.014045,1112,1737,4.79584,-16.3364
-105,-713,4.81494,16.4325,0.0030758,-0.00253226,-0.00391447,0.00508692,-0.00454338,-0.474599,0.00556301,0.0105518,1119,1737,4.81488,-16.4325
-98,-713,4.82202,16.5397,0.00289682,-0.00200049,-0.00335355,0.00460054,-0.00370421,-0.470055,0.00480405,0.00905351,1126,1737,4.82198,-16.5396
-91,-713,4.80139,16.6415,0.00257904,-0.00137135,-0.00267269,0.00392719,-0.00271951,-0.467177,0.00385853,0.00914835,1133,1737,4.80139,-16.6414
-84,-713,4.78955,16.7362,0.00218082,-0.000799409,-0.00196457,0.00315646,-0.00177505,-0.46094,0.00288421,0.00940148,1140,1737,4.78958,-16.7362
-77,-713,4.7959,16.8278,0.00187467,-0.000386285,-0.00135477,0.00250867,-0.00102028,-0.437701,0.00209698,0.012926,1147,1737,4.79592,-16.8277
-70,-713,4.80164,16.9054,0.00170718,0.000127438,-0.000862514,0.00208685,-0.000252232,-0.414666,0.00148248,0.0147253,1154,1737,4.80163,-16.9054
-63,-713,4.79456,16.973,0.0013745,9.95555e-05,-0.000447751,0.00151603,-4.19795e-05,-0.306163,0.00102497,0.0125207,1161,1737,4.79455,-16.973
-56,-713,4.81409,17.052,0.00105211,8.01363e-05,-5.00459e-05,0.00105468,7.75663e-05,-0.0513082,0.000678742,0.0121197,1168,1737,4.81406,-17.0521
-49,-713,4.79834,17.1365,0.000963063,-0.000205216,0.00016986,0.000987258,-0.000229411,0.141491,0.000746487,0.0145349,1175,1737,4.79833,-17.1365
-42,-713,4.79053,17.1989,0.00110656,-0.000443729,0.000222133,0.00113777,-0.000474929,0.139545,0.000956945,0.0172018,1182,1737,4.79055,-17.1988
-35,-713,4.81885,17.2393,0.00138699,-0.000574835,0.000274299,0.00142462,-0.000612466,0.136336,0.00120687,0.0137359,1189,1737,4.81889,-17.2393
-28,-713,4.8363,17.3074,0.00149868,-0.000786871,0.000280882,0.00153269,-0.000820883,0.120506,0.00137939,0.012291,1196,1737,4.8363,-17.3074
-21,-713,4.82019,17.3704,0.00148362,-0.000970828,0.000312986,0.0015229,-0.00101011,0.124856,0.00147239,0.00903274,1203,1737,4.82019,-17.3704
-14,-713,4.81909,17.4167,0.00138407,-0.00122723,0.000330655,0.00142529,-0.00126844,0.124017,0.0015561,0.00994012,1210,1737,4.81914,-17.4167
-7,-713,4.84473,17.4719,0.00168422,-0.00148617,0.000311291,0.0017145,-0.00151644,0.0969533,0.00186655,0.00928941,1217,1737,4.84476,-17.4719
0,-713,4.84338,17.5259,0.00222398,-0.00165197,0.000388097,0.00226246,-0.00169044,0.0988222,0.00229016,0.0139361,1224,1737,4.84334,-17.5258
7,-713,4.84692,17.5624,0.00275569,-0.00184745,0.000458369,0.00280089,-0.00189265,0.0982914,0.00272668,0.0166388,1231,1737,4.84689,-17.5623
14,-713,4.87512,17.5983,0.00366694,-0.00203182,0.000496595,0.00370989,-0.00207477,0.0862744,0.00338396,0.0120495,1238,1737,4.87514,-17.5983
21,-713,4.88232,17.634,0.00456949,-0.00197167,0.000668985,0.00463721,-0.00203939,0.100882,0.0039508,0.00993134,1245,1737,4.88232,-17.6341
28,-713,4.87341,17.6699,0.00515741,-0.00207428,0.00085301,0.00525666,-0.00217353,0.115837,0.00441121,0.0102821,1252,1737,4.87341,-17.6699
35,-713,4.87756,17.6978,0.00567902,-0.00216115,0.00104213,0.00581518,-0.00229731,0.129917,0.0048283,0.0108378,1259,1737,4.8776,-17.6977
42,-713,4.89624,17.7412,0.00604396,-0.00244183,0.00131831,0.00624405,-0.00264191,0.150627,0.00526895,0.0112981,1266,1737,4.89629,-17.7413
49,-713,4.90759,17.7391,0.00603938,-0.00239718,0.00152672,0.00630716,-0.00266496,0.173631,0.00532043,0.0114322,1273,1737,4.9076,-17.7391
56,-713,4.92676,17.7306,0.00560116,-0.00248437,0.00164858,0.00592437,-0.00280758,0.193599,0.00514733,0.0117701,1280,1737,4.9267,-17.7306
63,-713,4.94116,17.7504,0.00436345,-0.00267212,0.00141928,0.00463897,-0.00294765,0.191743,0.00441627,0.0122199,1287,1737,4.94114,-17.7504
70,-713,4.93188,17.7555,0.00269486,-0.00289208,0.00106771,0.00289195,-0.00308918,0.182542,0.00345383,0.011983,1294,1737,4.93185,-17.7555
77,-713,4.92505,17.7708,0.00110482,-0.00305463,0.000787466,0.00124891,-0.00319872,0.180979,0.00264882,0.0118667,1301,1737,4.92499,-17.7707
84,-713,4.96643,17.7961,-0.000602424,-0.0033093,0.00039138,-0.000546971,-0.00336475,0.140748,0.0020849,0.0131694,1308,1737,4.96645,-17.7962
91,-713,4.97998,17.8041,-0.0022351,-0.00360849,-5.72554e-05,-0.00223272,-0.00361087,-0.0415929,0.00210411,0.0135,1315,1737,4.97997,-17.8041
98,-713,4.96375,17.7878,-0.00399996,-0.00372365,-0.000459556,-0.00338193,-0.00434168,-0.931412,0.00263349,0.0115873,1322,1737,4.96376,-17.7879
105,-713,4.95728,17.7795,-0.00541714,-0.00385124,-0.00105351,-0.00332159,-0.00594678,-1.10496,0.00344122,0.0121498,1329,1737,4.95732,-17.7796
112,-713,4.98486,17.7765,-0.00603608,-0.00399275,-0.00149698,-0.00320203,-0.0068268,-1.08484,0.00394397,0.0131262,1336,1737,4.98482,-17.7765
119,-713,5.00964,17.7639,-0.00643072,-0.00413787,-0.00175527,-0.0031878,-0.00738078,-1.07469,0.00427445,0.0140223,1343,1737,5.0096,-17.7639
126,-713,4.99524,17.7512,-0.00606698,-0.00432319,-0.00188958,-0.00311405,-0.00727612,-1.00155,0.00421537,0.0137851,1350,1737,4.99523,-17.7512
133,-713,4.97974,17.7117,-0.00507736,-0.0040474,-0.00174839,-0.00273973,-0.00638503,-0.92862,0.00369874,0.0144209,1357,1737,4.9797,-17.7116
140,-713,5.02039,17.6554,-0.0039899,-0.00357753,-0.00146533,-0.00230395,-0.00526349,-0.855294,0.00304672,0.0150929,1364,1737,5.02041,-17.6554
147,-713,5.03369,17.5927,-0.00290538,-0.00277546,-0.00116734,-0.00167128,-0.00400956,-0.813192,0.00232558,0.0151913,1371,1737,5.03372,-17.5926
154,-713,5.01355,17.5897,-0.00191542,-0.00238927,-0.000733938,-0.00138111,-0.00292357,-0.629272,0.00168878,0.015133,1378,1737,5.01353,-17.5897
161,-713,5.00769,17.5542,-0.00094575,-0.00147195,-0.000320297,-0.000794348,-0.00162335,-0.441563,0.000937313,0.0100452,1385,1737,5.00772,-17.5541
168,-713,5.01672,17.4828,0.000176866,-0.000700157,0.000140037,0.000198683,-0.000721975,0.154555,0.000559431,0.00942449,1392,1737,5.01678,-17.4828
175,-713,5.04102,17.4232,0.000908037,-0.000125924,0.000330576,0.00100469,-0.000222579,0.284456,0.000755005,0.012995,1399,1737,5.04102,-17.4232
182,-713,5.04248,17.3883,0.000826258,0.000242194,0.000176695,0.000875553,0.000192899,0.272063,0.000531208,0.0120037,1406,1737,5.04251,-17.3883
189,-713,5.03613,17.3368,0.000748812,0.000776104,0.000104024,0.000867374,0.000657543,0.850616,0.000522543,0.0110626,1413,1737,5.03608,-17.3368
196,-713,5.0614,17.2782,0.000636468,0.00137626,-3.17312e-05,0.00137762,0.000635109,-1.52801,0.000796175,0.0118651,1420,1737,5.06137,-17.2782
203,-713,5.06958,17.2158,0.00057127,0.0017512,-0.000169971,0.0017752,0.000547273,-1.43054,0.00104972,0.0145293,1427,1737,5.06955,-17.2158
210,-713,5.05933,17.1448,0.000469655,0.00193219,-0.000237253,0.00196971,0.00043213,-1.41393,0.00119542,0.0120623,1434,1737,5.05931,-17.1448
217,-713,5.06628,17.0781,0.000386871,0.00218095,-0.000315901,0.00223495,0.000332872,-1.4015,0.00139233,0.0107168,1441,1737,5.06627,-17.0781
224,-713,5.05725,16.9928,0.000442169,0.0023965,-0.000369216,0.00246393,0.000374743,-1.39017,0.00153305,0.0113507,1448,1737,5.0573,-16.9927
231,-713,5.05457,16.9198,0.000463516,0.00260797,-0.000421187,0.00268773,0.000383758,-1.38365,0.00167859,0.0102073,1455,1737,5.05462,-16.9198
238,-713,5.03625,16.8434,0.000545917,0.00280391,-0.000469984,0.00289783,0.000452,-1.37356,0.00180023,0.00792704,1462,1737,5.03625,-16.8434
245,-713,5.04541,16.7577,0.000661812,0.00303247,-0.000521977,0.00314231,0.000551971,-1.36339,0.00193727,0.00982458,1469,1737,5.04546,-16.7577
252,-713,5.05457,16.6659,0.00074925,0.0031651,-0.00060176,0.00330669,0.000607657,-1.3397,0.00203242,0.0102254,1476,1737,5.05455,-16.6659
259,-713,5.06531,16.5653,0.000888164,0.00329824,-0.000728338,0.00350125,0.000685156,-1.29897,0.00214261,0.0115356,1483,1737,5.06528,-16.5653
266,-713,5.05115,16.481,0.000965704,0.00338782,-0.000989067,0.00374038,0.000613139,-1.22838,0.00231642,0.0106334,1490,1737,5.05116,-16.481
273,-713,5.02979,16.3945,0.000829896,0.00353773,-0.00121243,0.00400125,0.000366375,-1.20563,0.00255415,0.0083146,1497,1737,5.02984,-16.3946
280,-713,5.01953,16.2825,0.000554262,0.00385032,-0.00142016,0.0043778,2.67811e-05,-1.21516,0.00290965,0.00936561,1504,1737,5.0195,-16.2824
287,-713,5.01184,16.1515,0.000103119,0.00402941,-0.00141768,0.00448778,-0.000355255,-1.25808,0.00311703,0.011051,1511,1737,5.0119,-16.1515
294,-713,5.03564,16.051,-0.000313715,0.0041288,-0.00176155,0.00474251,-0.000927423,-1.23555,0.00351187,0.0149577,1518,1737,5.03564,-16.051
301,-713,5.01147,15.9357,-0.000745555,0.0038227,-0.00192096,0.00452308,-0.00144594,-1.22117,0.00359563,0.0158914,1525,1737,5.0115,-15.9356
308,-713,4.97925,15.7988,-0.00187285,0.00431396,-0.00283891,0.00541919,-0.00297808,-1.19953,0.00491598,0.0179121,1532,1737,4.97924,-15.7989
315,-713,5.05017,15.7036,-0.0038695,0.00595087,-0.00343776,0.00703469,-0.00495332,-1.26539,0.00695597,0.0239864,1539,1737,5.05018,-15.7037
322,-713,5.03015,15.554,-0.00528716,0.00747457,-0.00382991,0.00853573,-0.00634831,-1.30051,0.00862418,0.030895,1546,1737,5.03016,-15.554
329,-713,4.98547,15.311,-0.00688017,0.00789559,-0.00379429,0.00881298,-0.00779755,-1.33357,0.00959607,0.0361772,1553,1737,4.98548,-15.311
336,-713,4.74866,15.2528,-0.00849977,0.00867737,-0.00429496,0.00969141,-0.00951382,-1.33894,0.0110883,0.0412888,1560,1737,4.74862,-15.2529
343,-713,4.96033,15.02,0,0,0,0,0,0,0,-1,1567,1737,4.96031,-15.02
350,-713,5.05566,15.0159,0,0,0,0,0,0,0,-1,1574,1737,5.0557,-15.0158
357,-713,5.78638,14.8418,0,0,0,0,0,0,0,-1,1581,1737,5.78636,-14.8418
364,-713,3.70093,13.8348,0,0,0,0,0,0,0,-1,1588,1737,3.70093,-13.8348
371,-713,4.76038,14.5554,0,0,0,0,0,0,0,-1,1595,1737,4.76039,-14.5554
378,-713,4.31567,16.7935,0,0,0,0,0,0,0,-1,1602,1737,4.31563,-16.7934
385,-713,5.3429,14.0168,0,0,0,0,0,0,0,-1,1609,1737,5.34292,-14.0169
392,-713,4.18201,13.3433,0,0,0,0,0,0,0,-1,1616,1737,4.18198,-13.3433
399,-713,1.93323,14.2748,0,0,0,0,0,0,0,-1,1623,1737,1.93325,-14.2748
406,-713,2.13525,15.2334,0,0,0,0,0,0,0,-1,1630,1737,2.13526,-15.2334
413,-713,2.59546,16.7579,0,0,0,0,0,0,0,-1,1637,1737,2.5955,-16.7579
420,-713,0,0,0,0,0,0,0,0,0,-1,1644,1737,0,0
427,-713,0,0,0,0,0,0,0,0,0,-1,1651,1737,0,0
434,-713,0,0,0,0,0,0,0,0,0,-1,1658,1737,0,0
441,-713,0,0,0,0,0,0,0,0,0,-1,1665,1737,0,0
448,-713,0,0,0,0,0,0,0,0,0,-1,1672,1737,0,0
455,-713,0,0,0,0,0,0,0,0,0,-1,1679,1737,0,0
462,-713,0,0,0,0,0,0,0,0,0,-1,1686,1737,0,0
469,-713,0,0,0,0,0,0,0,0,0,-1,1693,1737,0,0
476,-713,0,0,0,0,0,0,0,0,0,-1,1700,1737,0,0
483,-713,0,0,0,0,0,0,0,0,0,-1,1707,1737,0,0
490,-713,0,0,0,0,0,0,0,0,0,-1,1714,1737,0,0
497,-713,0,0,0,0,0,0,0,0,0,-1,1721,1737,0,0
504,-713,0,0,0,0,0,0,0,0,0,-1,1728,1737,0,0
511,-713,0,0,0,0,0,0,0,0,0,-1,1735,1737,0,0
518,-713,0,0,0,0,0,0,0,0,0,-1,1742,1737,0,0
525,-713,0,0,0,0,0,0,0,0,0,-1,1749,1737,0,0
532,-713,0,0,0,0,0,0,0,0,0,-1,1756,1737,0,0
539,-713,0,0,0,0,0,0,0,0,0,-1,1763,1737,0,0
546,-713,0,0,0,0,0,0,0,0,0,-1,1770,1737,0,0
553,-713,0,0,0,0,0,0,0,0,0,-1,1777,1737,0,0
560,-713,0,0,0,0,0,0,0,0,0,-1,1784,1737,0,0
567,-713,0,0,0,0,0,0,0,0,0,-1,1791,1737,0,0
574,-713,0,0,0,0,0,0,0,0,0,-1,1798,1737,0,0
581,-713,0,0,0,0,0,0,0,0,0,-1,1805,1737,0,0
588,-713,0,0,0,0,0,0,0,0,0,-1,1812,1737,0,0
595,-713,0,0,0,0,0,0,0,0,0,-1,1819,1737,0,0
602,-713,0,0,0,0,0,0,0,0,0,-1,1826,1737,0,0
609,-713,0,0,0,0,0,0,0,0,0,-1,1833,1737,0,0
616,-713,0,0,0,0,0,0,0,0,0,-1,1840,1737,0,0
623,-713,0,0,0,0,0,0,0,0,0,-1,1847,1737,0,0
630,-713,0,0,0,0,0,0,0,0,0,-1,1854,1737,0,0
637,-713,0,0,0,0,0,0,0,0,0,-1,1861,1737,0,0
644,-713,0,0,0,0,0,0,0,0,0,-1,1868,1737,0,0
651,-713,0,0,0,0,0,0,0,0,0,-1,1875,1737,0,0
658,-713,0,0,0,0,0,0,0,0,0,-1,1882,1737,0,0
665,-713,0,0,0,0,0,0,0,0,0,-1,1889,1737,0,0
672,-713,0,0,0,0,0,0,0,0,0,-1,1896,1737,0,0
679,-713,0,0,0,0,0,0,0,0,0,-1,1903,1737,0,0
686,-713,0,0,0,0,0,0,0,0,0,-1,1910,1737,0,0
693,-713,0,0,0,0,0,0,0,0,0,-1,1917,1737,0,0
700,-713,0,0,0,0,0,0,0,0,0,-1,1924,1737,0,0
707,-713,0,0,0,0,0,0,0,0,0,-1,1931,1737,0,0
714,-713,0,0,0,0,0,0,0,0,0,-1,1938,1737,0,0
721,-713,0,0,0,0,0,0,0,0,0,-1,1945,1737,0,0
728,-713,0,0,0,0,0,0,0,0,0,-1,1952,1737,0,0
735,-713,0,0,0,0,0,0,0,0,0,-1,1959,1737,0,0
742,-713,0,0,0,0,0,0,0,0,0,-1,1966,1737,0,0
749,-713,0,0,0,0,0,0,0,0,0,-1,1973,1737,0,0
756,-713,0,0,0,0,0,0,0,0,0,-1,1980,1737,0,0
763,-713,0,0,0,0,0,0,0,0,0,-1,1987,1737,0,0
770,-713,0,0,0,0,0,0,0,0,0,-1,1994,1737,0,0
777,-713,0,0,0,0,0,0,0,0,0,-1,2001,1737,0,0
784,-713,0,0,0,0,0,0,0,0,0,-1,2008,1737,0,0
791,-713,0,0,0,0,0,0,0,0,0,-1,2015,1737,0,0
798,-713,0,0,0,0,0,0,0,0,0,-1,2022,1737,0,0
805,-713,0,0,0,0,0,0,0,0,0,-1,2029,1737,0,0
812,-713,0,0,0,0,0,0,0,0,0,-1,2036,1737,0,0
-700,-720,0,0,0,0,0,0,0,0,0,-1,524,1744,0,0
-693,-720,0,0,0,0,0,0,0,0,0,-1,531,1744,0,0
-686,-720,0,0,0,0,0,0,0,0,0,-1,538,1744,0,0
-679,-720,0,0,0,0,0,0,0,0,0,-1,545,1744,0,0
-672,-720,0,0,0,0,0,0,0,0,0,-1,552,1744,0,0
-665,-720,0,0,0,0,0,0,0,0,0,-1,559,1744,0,0
-658,-720,0,0,0,0,0,0,0,0,0,-1,566,1744,0,0
-651,-720,0,0,0,0,0,0,0,0,0,-1,573,1744,0,0
-644,-720,0,0,0,0,0,0,0,0,0,-1,580,1744,0,0
-637,-720,0,0,0,0,0,0,0,0,0,-1,587,1744,0,0
-630,-720,0,0,0,0,0,0,0,0,0,-1,594,1744,0,0
-623,-720,0,0,0,0,0,0,0,0,0,-1,601,1744,0,0
-616,-720,0,0,0,0,0,0,0,0,0,-1,608,1744,0,0
-609,-720,0,0,0,0,0,0,0,0,0,-1,615,1744,0,0
-602,-720,0,0,0,0,0,0,0,0,0,-1,622,1744,0,0
-595,-720,0,0,0,0,0,0,0,0,0,-1,629,1744,0,0
-588,-720,0,0,0,0,0,0,0,0,0,-1,636,1744,0,0
-581,-720,0,0,0,0,0,0,0,0,0,-1,643,1744,0,0
-574,-720,0,0,0,0,0,0,0,0,0,-1,650,1744,0,0
-567,-720,0,0,0,0,0,0,0,0,0,-1,657,1744,0,0
-560,-720,0,0,0,0,0,0,0,0,0,-1,664,1744,0,0
-553,-720,0,0,0,0,0,0,0,0,0,-1,671,1744,0,0
-546,-720,0,0,0,0,0,0,0,0,0,-1,678,1744,0,0
-539,-720,0,0,0,0,0,0,0,0,0,-1,685,1744,0,0
-532,-720,0,0,0,0,0,0,0,0,0,-1,692,1744,0,0
-525,-720,0,0,0,0,0,0,0,0,0,-1,699,1744,0,0
-518,-720,0,0,0,0,0,0,0,0,0,-1,706,1744,0,0
-511,-720,0,0,0,0,0,0,0,0,0,-1,713,1744,0,0
-504,-720,0,0,0,0,0,0,0,0,0,-1,720,1744,0,0
-497,-720,0,0,0,0,0,0,0,0,0,-1,727,1744,0,0
-490,-720,0,0,0,0,0,0,0,0,0,-1,734,1744,0,0
-483,-720,0,0,0,0,0,0,0,0,0,-1,741,1744,0,0
-476,-720,0,0,0,0,0,0,0,0,0,-1,748,1744,0,0
-469,-720,0,0,0,0,0,0,0,0,0,-1,755,1744,0,0
-462,-720,0,0,0,0,0,0,0,0,0,-1,762,1744,0,0
-455,-720,0,0,0,0,0,0,0,0,0,-1,769,1744,0,0
-448,-720,0,0,0,0,0,0,0,0,0,-1,776,1744,0,0
-441,-720,0,0,0,0,0,0,0,0,0,-1,783,1744,0,0
-434,-720,0,0,0,0,0,0,0,0,0,-1,790,1744,0,0
-427,-720,0,0,0,0,0,0,0,0,0,-1,797,1744,0,0
-420,-720,0,0,0,0,0,0,0,0,0,-1,804,1744,0,0
-413,-720,0,0,0,0,0,0,0,0,0,-1,811,1744,0,0
-406,-720,0,0,0,0,0,0,0,0,0,-1,818,1744,0,0
-399,-720,0,0,0,0,0,0,0,0,0,-1,825,1744,0,0
-392,-720,0,0,0,0,0,0,0,0,0,-1,832,1744,0,0
-385,-720,0,0,0,0,0,0,0,0,0,-1,839,1744,0,0
-378,-720,0,0,0,0,0,0,0,0,0,-1,846,1744,0,0
-371,-720,0,0,0,0,0,0,0,0,0,-1,853,1744,0,0
-364,-720,0,0,0,0,0,0,0,0,0,-1,860,1744,0,0
-357,-720,0,0,0,0,0,0,0,0,0,-1,867,1744,0,0
-350,-720,0,0,0,0,0,0,0,0,0,-1,874,1744,0,0
-343,-720,0,0,0,0,0,0,0,0,0,-1,881,1744,0,0
-336,-720,0,0,0,0,0,0,0,0,0,-1,888,1744,0,0
-329,-720,0,0,0,0,0,0,0,0,0,-1,895,1744,0,0
-322,-720,0,0,0,0,0,0,0,0,0,-1,902,1744,0,0
-315,-720,0,0,0,0,0,0,0,0,0,-1,909,1744,0,0
-308,-720,0,0,0,0,0,0,0,0,0,-1,916,1744,0,0
-301,-720,0,0,0,0,0,0,0,0,0,-1,923,1744,0,0
-294,-720,0,0,0,0,0,0,0,0,0,-1,930,1744,0,0
-287,-720,0,0,0,0,0,0,0,0,0,-1,937,1744,0,0
-280,-720,6.13525,11.8578,0,0,0,0,0,0,0,-1,944,1744,6.13524,-11.8578
-273,-720,2.15863,12.3907,0,0,0,0,0,0,0,-1,951,1744,2.15865,-12.3907
-266,-720,4.37134,7.47217,0,0,0,0,0,0,0,-1,958,1744,4.37132,-7.47215
-259,-720,2.38904,5.20947,0,0,0,0,0,0,0,-1,965,1744,2.38906,-5.20952
-252,-720,3.71014,6.78967,0,0,0,0,0,0,0,-1,972,1744,3.71016,-6.78973
-245,-720,5.77435,17.4977,0,0,0,0,0,0,0,-1,979,1744,5.77436,-17.4977
-238,-720,3.93689,16.0585,0,0,0,0,0,0,0,-1,986,1744,3.93691,-16.0585
-231,-720,4.44232,14.9048,0,0,0,0,0,0,0,-1,993,1744,4.44232,-14.9047
-224,-720,4.86407,14.6074,0,0,0,0,0,0,0,-1,1000,1744,4.86409,-14.6074
-217,-720,5.15948,13.595,0,0,0,0,0,0,0,-1,1007,1744,5.15948,-13.5949
-210,-720,6.45734,12.3599,0,0,0,0,0,0,0,-1,1014,1744,6.45737,-12.3599
-203,-720,4.76208,12.6395,0,0,0,0,0,0,0,-1,1021,1744,4.76213,-12.6395
-196,-720,5.3053,14.6295,0,0,0,0,0,0,0,-1,1028,1744,5.30531,-14.6295
-189,-720,4.57568,14.202,0,0,0,0,0,0,0,-1,1035,1744,4.57566,-14.202
-182,-720,4.90686,14.6455,0.000570064,0.00956904,-0.000400274,0.00958681,0.000552295,-1.52643,0.00621529,0.044418,1042,1744,4.90682,-14.6455
-175,-720,5.14258,15.1934,-0.000756397,0.00555507,-0.000912172,0.00568426,-0.000885586,-1.4301,0.00411658,0.0489601,1049,1744,5.14254,-15.1934
-168,-720,5.26086,15.2865,-0.000424688,0.00365564,-0.0016616,0.00424667,-0.00101572,-1.22905,0.00322348,0.0372449,1056,1744,5.26092,-15.2866
-161,-720,4.99548,15.4747,0.000514116,0.00106875,-0.00325684,0.00406006,-0.00247719,-0.82787,0.00381099,0.0287239,1063,1744,4.99552,-15.4748
-154,-720,5.00415,15.671,0.00102173,-0.00104194,-0.00451725,0.0046235,-0.00464371,-0.673114,0.00535043,0.0217789,1070,1744,5.00415,-15.671
-147,-720,4.96631,15.856,0.00170771,-0.00253136,-0.00557575,0.00555319,-0.00637685,-0.603766,0.00689328,0.0216849,1077,1744,4.96628,-15.856
-140,-720,4.96143,15.9703,0.0025836,-0.00370996,-0.00636261,0.00653507,-0.00766142,-0.55575,0.00820494,0.018008,1084,1744,4.96148,-15.9703
-133,-720,4.92517,16.0131,0.00334222,-0.0044724,-0.00700311,0.0074543,-0.00858448,-0.530939,0.00926766,0.0121454,1091,1744,4.92517,-16.0131
-126,-720,4.93689,16.1196,0.00381959,-0.0051398,-0.0075853,0.00814923,-0.00946945,-0.518668,0.0101817,0.0116564,1098,1744,4.93688,-16.1197
-119,-720,4.9303,16.2228,0.00425414,-0.00488151,-0.00766007,0.00860493,-0.0092323,-0.516545,0.0103005,0.0149105,1105,1744,4.93034,-16.2227
-112,-720,4.89954,16.3041,0.00463738,-0.0043235,-0.0074261,0.00882996,-0.00851608,-0.513963,0.0100153,0.013545,1112,1744,4.89956,-16.304
-105,-720,4.89624,16.4132,0.0047125,-0.00351473,-0.00701079,0.00872742,-0.00752964,-0.520086,0.00939451,0.0131624,1119,1744,4.89619,-16.4132
-98,-720,4.90198,16.5156,0.00444006,-0.00262289,-0.00634145,0.00816705,-0.00634988,-0.53134,0.00840321,0.0103663,1126,1744,4.90203,-16.5157
-91,-720,4.89392,16.6261,0.00395669,-0.00165612,-0.00547749,0.00730486,-0.00500429,-0.548658,0.00714795,0.00930202,1133,1744,4.89388,-16.6261
-84,-720,4.89795,16.7335,0.00333686,-0.00082204,-0.00452873,0.00624073,-0.00372591,-0.570172,0.00581498,0.0104837,1140,1744,4.89792,-16.7335
-77,-720,4.90906,16.8363,0.00277156,-0.000250431,-0.00357756,0.00514413,-0.002623,-0.585585,0.00456242,0.0132288,1147,1744,4.9091,-16.8363
-70,-720,4.89014,16.9064,0.00237131,0.000841307,-0.00268987,0.00440285,-0.00119023,-0.646856,0.0034021,0.0110917,1154,1744,4.89012,-16.9063
-63,-720,4.86438,16.9634,0.00146553,0.000957232,-0.00177736,0.00300682,-0.000584059,-0.714383,0.00222494,0.0101424,1161,1744,4.86434,-16.9634
-56,-720,4.87366,17.0513,0.000530102,0.0010074,-0.000706337,0.00151432,2.31883e-05,-0.948313,0.0010019,0.0121834,1168,1744,4.87372,-17.0513
-49,-720,4.85132,17.1444,0.000177028,0.000735116,-2.43828e-05,0.000736179,0.000175965,-1.52722,0.000443913,0.0187737,1175,1744,4.85136,-17.1444
-42,-720,4.8761,17.1879,0.000243189,0.000570016,0.000180499,0.000650085,0.00016312,1.15328,0.000390542,0.0207135,1182,1744,4.87609,-17.1878
-35,-720,4.89575,17.2413,0.000586916,0.000591563,0.000316645,0.000905893,0.000272586,0.789067,0.000536661,0.0178559,1189,1744,4.89577,-17.2413
-28,-720,4.89746,17.3062,0.000863859,0.000258174,0.000310248,0.000994569,0.000127465,0.398738,0.000624906,0.0106874,1196,1744,4.89751,-17.3062
-21,-720,4.87268,17.387,0.000927046,-1.2608e-05,0.000249316,0.000989099,-7.46608e-05,0.243935,0.000685642,0.0089595,1203,1744,4.87269,-17.3869
-14,-720,4.87622,17.4297,0.000922276,-0.000282804,0.000200508,0.000954762,-0.00031529,0.160622,0.000763619,0.0103655,1210,1744,4.87625,-17.4297
-7,-720,4.89648,17.4877,0.00103309,-0.000527875,0.000177406,0.00105299,-0.000547784,0.111753,0.000939428,0.0113986,1217,1744,4.89647,-17.4877
0,-720,4.89832,17.5475,0.00126273,-0.000738079,0.000164886,0.00127623,-0.000751576,0.0816754,0.00118374,0.012149,1224,1744,4.89829,-17.5474
7,-720,4.88599,17.5698,0.001449,-0.000980815,0.000117616,0.00145468,-0.000986495,0.0482551,0.00141803,0.0146662,1231,1744,4.88595,-17.5698
14,-720,4.90747,17.5997,0.00185011,-0.00122481,4.09664e-05,0.00185066,-0.00122535,0.0133196,0.00178813,0.0138015,1238,1744,4.90748,-17.5997
21,-720,4.91516,17.6473,0.00228977,-0.00133912,5.754e-05,0.00229068,-0.00134003,0.0158508,0.00212001,0.0107432,1245,1744,4.91522,-17.6474
28,-720,4.89819,17.6761,0.00260485,-0.00155956,0.000141939,0.00260969,-0.00156439,0.0340312,0.00243496,0.0106738,1252,1744,4.89815,-17.6762
35,-720,4.90637,17.7048,0.00294085,-0.00170105,0.000223908,0.00295162,-0.00171183,0.0480874,0.00272397,0.0114557,1259,1744,4.90641,-17.7049
42,-720,4.89819,17.7388,0.00320383,-0.00190162,0.000364443,0.00322972,-0.0019275,0.070904,0.003009,0.0113028,1266,1744,4.89813,-17.7388
49,-720,4.89966,17.7378,0.00328456,-0.00182112,0.000426138,0.00331988,-0.00185644,0.0827011,0.0030281,0.0114092,1273,1744,4.89972,-17.7378
56,-720,4.91907,17.7534,0.00314579,-0.00189649,0.000472072,0.0031896,-0.00194031,0.092551,0.00299089,0.0102789,1280,1744,4.91912,-17.7534
63,-720,4.94067,17.7572,0.00264767,-0.00204191,0.000297931,0.00266652,-0.00206076,0.0631918,0.00273676,0.0122942,1287,1744,4.94065,-17.7572
70,-720,4.94592,17.7747,0.00185643,-0.00221983,3.64449e-05,0.00185676,-0.00222015,0.00893983,0.00235692,0.012959,1294,1744,4.94598,-17.7747
77,-720,4.93933,17.8041,0.00108844,-0.00215308,-0.000129591,0.00109361,-0.00215826,-0.0398936,0.00191071,0.0135664,1301,1744,4.93938,-17.8041
84,-720,4.96155,17.7898,0.000312887,-0.00225008,-0.000320181,0.00035228,-0.00228948,-0.122419,0.00165628,0.0138161,1308,1744,4.9615,-17.7897
91,-720,4.97681,17.7885,-0.000437111,-0.00247126,-0.000557047,-0.000294555,-0.00261381,-0.250536,0.00165313,0.0132027,1315,1744,4.97681,-17.7884
98,-720,4.95459,17.7827,-0.00127326,-0.00258473,-0.000792191,-0.00090062,-0.00295737,-0.439681,0.00175039,0.0114798,1322,1744,4.95462,-17.7827
105,-720,4.94006,17.7795,-0.00200303,-0.00267615,-0.00111128,-0.00117847,-0.00350072,-0.638359,0.00205678,0.0111559,1329,1744,4.94011,-17.7796
112,-720,4.96204,17.7649,-0.00231875,-0.00280435,-0.00127017,-0.00126839,-0.00385472,-0.69096,0.00226847,0.0110549,1336,1744,4.96208,-17.7649
119,-720,4.97339,17.7534,-0.00258154,-0.00292702,-0.00128827,-0.00145448,-0.00405408,-0.718753,0.00237154,0.0110485,1343,1744,4.97335,-17.7534
126,-720,4.97888,17.7423,-0.00244254,-0.00301621,-0.0012077,-0.00148808,-0.00397067,-0.668806,0.00231631,0.0113943,1350,1744,4.97888,-17.7423
133,-720,4.96716,17.7207,-0.00197925,-0.00280267,-0.000997666,-0.00131168,-0.00347024,-0.589707,0.00202333,0.0145615,1357,1744,4.96721,-17.7207
140,-720,4.98291,17.679,-0.00144844,-0.00249923,-0.000680328,-0.00111425,-0.00283342,-0.456598,0.00164825,0.0215719,1364,1744,4.98288,-17.679
147,-720,4.98718,17.6261,-0.000892239,-0.00201397,-0.000369105,-0.000781681,-0.00212453,-0.291024,0.00124078,0.0207777,1371,1744,4.98716,-17.6261
154,-720,4.97583,17.5907,-0.000405372,-0.00166309,-4.65999e-05,-0.000403647,-0.00166482,-0.0369834,0.00100279,0.0133669,1378,1744,4.97584,-17.5907
161,-720,4.98169,17.5463,-4.79429e-06,-0.000966458,0.000143035,1.60295e-05,-0.000987282,0.144569,0.000663596,0.00911916,1385,1744,4.98169,-17.5463
168,-720,4.98169,17.4888,0.000286754,-0.000419632,0.000262931,0.000373877,-0.000506755,0.319967,0.000510359,0.00909076,1392,1744,4.98163,-17.4888
175,-720,4.96936,17.4182,0.000426323,-0.000114013,0.000195525,0.000489652,-0.000177343,0.313233,0.000398913,0.0146458,1399,1744,4.96931,-17.4182
182,-720,4.97119,17.3835,0.000406541,0.000128815,-3.95624e-06,0.000406597,0.000128759,-0.0142413,0.000239951,0.0145371,1406,1744,4.97114,-17.3836
189,-720,4.99219,17.3328,0.000459122,0.000602801,-7.14502e-06,0.000603156,0.000458768,-1.52123,0.000363658,0.0126501,1413,1744,4.99215,-17.3328
196,-720,5.005,17.2557,0.000430209,0.00143069,-0.000169534,0.00145864,0.000402262,-1.40742,0.000869914,0.0135166,1420,1744,5.00506,-17.2557
203,-720,5.00525,17.1809,0.000449101,0.00206431,-0.000319232,0.00212512,0.000388297,-1.38258,0.00130669,0.0147741,1427,1744,5.00522,-17.181
210,-720,4.99353,17.1569,0.000483531,0.00254756,-0.000352072,0.00260597,0.000425129,-1.40641,0.00161437,0.0126543,1434,1744,4.99353,-17.1569
217,-720,4.98425,17.0818,0.000538709,0.00308128,-0.000403205,0.00314368,0.0004763,-1.41723,0.00195645,0.0118953,1441,1744,4.9843,-17.0818
224,-720,4.98547,16.9767,0.000667624,0.00354507,-0.000481594,0.00362353,0.000589159,-1.40929,0.00224522,0.00908687,1448,1744,4.98548,-16.9767
231,-720,4.9856,16.9017,0.000732832,0.00398856,-0.000546565,0.00407786,0.000643525,-1.40883,0.00253148,0.00915853,1455,1744,4.98561,-16.9017
238,-720,4.97595,16.8319,0.000861966,0.00436597,-0.000613986,0.00447044,0.000757496,-1.40226,0.00276263,0.00793784,1462,1744,4.97597,-16.832
245,-720,4.95825,16.7563,0.00102491,0.00474172,-0.000689905,0.00486565,0.00090098,-1.39306,0.00298905,0.010202,1469,1744,4.95823,-16.7564
252,-720,4.9624,16.6656,0.00114158,0.00495553,-0.00079762,0.00511562,0.000981488,-1.37272,0.00313489,0.0104975,1476,1744,4.96237,-16.6656
259,-720,4.97424,16.5757,0.00131139,0.00511255,-0.000959996,0.00534124,0.0010827,-1.33693,0.00326041,0.00985709,1483,1744,4.97429,-16.5756
266,-720,4.95618,16.4802,0.0014089,0.00521884,-0.0013093,0.0056254,0.00100234,-1.26972,0.00346483,0.00877876,1490,1744,4.95622,-16.4803
273,-720,4.94116,16.377,0.00122705,0.00529342,-0.00158101,0.00583578,0.00068469,-1.24033,0.00368356,0.0150426,1497,1744,4.94121,-16.377
280,-720,4.89465,16.276,0.000887238,0.00557246,-0.00182323,0.00619835,0.000261349,-1.24012,0.00404793,0.0209521,1504,1744,4.8947,-16.2761
287,-720,4.84827,16.0919,0.000325418,0.00565991,-0.00179709,0.00620883,-0.000223502,-1.27435,0.0042157,0.0325902,1511,1744,4.84826,-16.0919
294,-720,4.8938,15.9067,-0.000281671,0.0055792,-0.00232618,0.00639023,-0.0010927,-1.23532,0.00466722,0.0376138,1518,1744,4.89385,-15.9067
301,-720,4.9115,15.8939,-0.000825424,0.00478842,-0.00245878,0.00571304,-0.00175005,-1.21111,0.00450676,0.0364173,1525,1744,4.91153,-15.8939
308,-720,4.92725,15.748,-0.00224954,0.00534761,-0.00353243,0.00673625,-0.00363818,-1.19624,0.00607806,0.0362204,1532,1744,4.92728,-15.7481
315,-720,4.97961,15.6586,-0.00485457,0.00732464,-0.00427742,0.00867678,-0.00620671,-1.26462,0.00863234,0.0415672,1539,1744,4.97963,-15.6585
322,-720,4.89441,15.4882,-0.00682559,0.00913247,-0.00484051,0.0104859,-0.00817905,-1.29815,0.0108036,0.0495916,1546,1744,4.89444,-15.4882
329,-720,4.81995,15.171,0,0,0,0,0,0,0,-1,1553,1744,4.81994,-15.1711
336,-720,4.4613,15.2913,0,0,0,0,0,0,0,-1,1560,1744,4.4613,-15.2913
343,-720,5.19104,15.8707,0,0,0,0,0,0,0,-1,1567,1744,5.19098,-15.8707
350,-720,4.0741,11.1836,0,0,0,0,0,0,0,-1,1574,1744,4.07412,-11.1836
357,-720,3.94836,13.0232,0,0,0,0,0,0,0,-1,1581,1744,3.94832,-13.0232
364,-720,4.34363,15.1404,0,0,0,0,0,0,0,-1,1588,1744,4.34367,-15.1404
371,-720,4.60352,14.8754,0,0,0,0,0,0,0,-1,1595,1744,4.60355,-14.8753
378,-720,4.03125,13.9476,0,0,0,0,0,0,0,-1,1602,1744,4.03122,-13.9476
385,-720,4.19629,14.5133,0,0,0,0,0,0,0,-1,1609,1744,4.19627,-14.5133
392,-720,0.0194092,12.0704,0,0,0,0,0,0,0,-1,1616,1744,0.019362,-12.0704
399,-720,-0.525269,12.6698,0,0,0,0,0,0,0,-1,1623,1744,-0.525208,-12.6698
406,-720,0,0,0,0,0,0,0,0,0,-1,1630,1744,0,0
413,-720,0,0,0,0,0,0,0,0,0,-1,1637,1744,0,0
420,-720,0,0,0,0,0,0,0,0,0,-1,1644,1744,0,0
427,-720,0,0,0,0,0,0,0,0,0,-1,1651,1744,0,0
434,-720,0,0,0,0,0,0,0,0,0,-1,1658,1744,0,0
441,-720,0,0,0,0,0,0,0,0,0,-1,1665,1744,0,0
448,-720,0,0,0,0,0,0,0,0,0,-1,1672,1744,0,0
455,-720,0,0,0,0,0,0,0,0,0,-1,1679,1744,0,0
462,-720,0,0,0,0,0,0,0,0,0,-1,1686,1744,0,0
469,-720,0,0,0,0,0,0,0,0,0,-1,1693,1744,0,0
476,-720,0,0,0,0,0,0,0,0,0,-1,1700,1744,0,0
483,-720,0,0,0,0,0,0,0,0,0,-1,1707,1744,0,0
490,-720,0,0,0,0,0,0,0,0,0,-1,1714,1744,0,0
497,-720,0,0,0,0,0,0,0,0,0,-1,1721,1744,0,0
504,-720,0,0,0,0,0,0,0,0,0,-1,1728,1744,0,0
511,-720,0,0,0,0,0,0,0,0,0,-1,1735,1744,0,0
518,-720,0,0,0,0,0,0,0,0,0,-1,1742,1744,0,0
525,-720,0,0,0,0,0,0,0,0,0,-1,1749,1744,0,0
532,-720,0,0,0,0,0,0,0,0,0,-1,1756,1744,0,0
539,-720,0,0,0,0,0,0,0,0,0,-1,1763,1744,0,0
546,-720,0,0,0,0,0,0,0,0,0,-1,1770,1744,0,0
553,-720,0,0,0,0,0,0,0,0,0,-1,1777,1744,0,0
560,-720,0,0,0,0,0,0,0,0,0,-1,1784,1744,0,0
567,-720,0,0,0,0,0,0,0,0,0,-1,1791,1744,0,0
574,-720,0,0,0,0,0,0,0,0,0,-1,1798,1744,0,0
581,-720,0,0,0,0,0,0,0,0,0,-1,1805,1744,0,0
588,-720,0,0,0,0,0,0,0,0,0,-1,1812,1744,0,0
595,-720,0,0,0,0,0,0,0,0,0,-1,1819,1744,0,0
602,-720,0,0,0,0,0,0,0,0,0,-1,1826,1744,0,0
609,-720,0,0,0,0,0,0,0,0,0,-1,1833,1744,0,0
616,-720,0,0,0,0,0,0,0,0,0,-1,1840,1744,0,0
623,-720,0,0,0,0,0,0,0,0,0,-1,1847,1744,0,0
630,-720,0,0,0,0,0,0,0,0,0,-1,1854,1744,0,0
637,-720,0,0,0,0,0,0,0,0,0,-1,1861,1744,0,0
644,-720,0,0,0,0,0,0,0,0,0,-1,1868,1744,0,0
651,-720,0,0,0,0,0,0,0,0,0,-1,1875,1744,0,0
658,-720,0,0,0,0,0,0,0,0,0,-1,1882,1744,0,0
665,-720,0,0,0,0,0,0,0,0,0,-1,1889,1744,0,0
672,-720,0,0,0,0,0,0,0,0,0,-1,1896,1744,0,0
679,-720,0,0,0,0,0,0,0,0,0,-1,1903,1744,0,0
686,-720,0,0,0,0,0,0,0,0,0,-1,1910,1744,0,0
693,-720,0,0,0,0,0,0,0,0,0,-1,1917,1744,0,0
700,-720,0,0,0,0,0,0,0,0,0,-1,1924,1744,0,0
707,-720,0,0,0,0,0,0,0,0,0,-1,1931,1744,0,0
714,-720,0,0,0,0,0,0,0,0,0,-1,1938,1744,0,0
721,-720,0,0,0,0,0,0,0,0,0,-1,1945,1744,0,0
728,-720,0,0,0,0,0,0,0,0,0,-1,1952,1744,0,0
735,-720,0,0,0,0,0,0,0,0,0,-1,1959,1744,0,0
742,-720,0,0,0,0,0,0,0,0,0,-1,1966,1744,0,0
749,-720,0,0,0,0,0,0,0,0,0,-1,1973,1744,0,0
756,-720,0,0,0,0,0,0,0,0,0,-1,1980,1744,0,0
763,-720,0,0,0,0,0,0,0,0,0,-1,1987,1744,0,0
770,-720,0,0,0,0,0,0,0,0,0,-1,1994,1744,0,0
777,-720,0,0,0,0,0,0,0,0,0,-1,2001,1744,0,0
784,-720,0,0,0,0,0,0,0,0,0,-1,2008,1744,0,0
791,-720,0,0,0,0,0,0,0,0,0,-1,2015,1744,0,0
798,-720,0,0,0,0,0,0,0,0,0,-1,2022,1744,0,0
805,-720,0,0,0,0,0,0,0,0,0,-1,2029,1744,0,0
812,-720,0,0,0,0,0,0,0,0,0,-1,2036,1744,0,0
-700,-727,0,0,0,0,0,0,0,0,0,-1,524,1751,0,0
-693,-727,0,0,0,0,0,0,0,0,0,-1,531,1751,0,0
-686,-727,0,0,0,0,0,0,0,0,0,-1,538,1751,0,0
-679,-727,0,0,0,0,0,0,0,0,0,-1,545,1751,0,0
-672,-727,0,0,0,0,0,0,0,0,0,-1,552,1751,0,0
-665,-727,0,0,0,0,0,0,0,0,0,-1,559,1751,0,0
-658,-727,0,0,0,0,0,0,0,0,0,-1,566,1751,0,0
-651,-727,0,0,0,0,0,0,0,0,0,-1,573,1751,0,0
-644,-727,0,0,0,0,0,0,0,0,0,-1,580,1751,0,0
-637,-727,0,0,0,0,0,0,0,0,0,-1,587,1751,0,0
-630,-727,0,0,0,0,0,0,0,0,0,-1,594,1751,0,0
-623,-727,0,0,0,0,0,0,0,0,0,-1,601,1751,0,0
-616,-727,0,0,0,0,0,0,0,0,0,-1,608,1751,0,0
-609,-727,0,0,0,0,0,0,0,0,0,-1,615,1751,0,0
-602,-727,0,0,0,0,0,0,0,0,0,-1,622,1751,0,0
-595,-727,0,0,0,0,0,0,0,0,0,-1,629,1751,0,0
-588,-727,0,0,0,0,0,0,0,0,0,-1,636,1751,0,0
-581,-727,0,0,0,0,0,0,0,0,0,-1,643,1751,0,0
-574,-727,0,0,0,0,0,0,0,0,0,-1,650,1751,0,0
-567,-727,0,0,0,0,0,0,0,0,0,-1,657,1751,0,0
-560,-727,0,0,0,0,0,0,0,0,0,-1,664,1751,0,0
-553,-727,0,0,0,0,0,0,0,0,0,-1,671,1751,0,0
-546,-727,0,0,0,0,0,0,0,0,0,-1,678,1751,0,0
-539,-727,0,0,0,0,0,0,0,0,0,-1,685,1751,0,0
-532,-727,0,0,0,0,0,0,0,0,0,-1,692,1751,0,0
-525,-727,0,0,0,0,0,0,0,0,0,-1,699,1751,0,0
-518,-727,0,0,0,0,0,0,0,0,0,-1,706,1751,0,0
-511,-727,0,0,0,0,0,0,0,0,0,-1,713,1751,0,0
-504,-727,0,0,0,0,0,0,0,0,0,-1,720,1751,0,0
-497,-727,0,0,0,0,0,0,0,0,0,-1,727,1751,0,0
-490,-727,0,0,0,0,0,0,0,0,0,-1,734,1751,0,0
-483,-727,0,0,0,0,0,0,0,0,0,-1,741,1751,0,0
-476,-727,0,0,0,0,0,0,0,0,0,-1,748,1751,0,0
-469,-727,0,0,0,0,0,0,0,0,0,-1,755,1751,0,0
-462,-727,0,0,0,0,0,0,0,0,0,-1,762,1751,0,0
-455,-727,0,0,0,0,0,0,0,0,0,-1,769,1751,0,0
-448,-727,0,0,0,0,0,0,0,0,0,-1,776,1751,0,0
-441,-727,0,0,0,0,0,0,0,0,0,-1,783,1751,0,0
-434,-727,0,0,0,0,0,0,0,0,0,-1,790,1751,0,0
-427,-727,0,0,0,0,0,0,0,0,0,-1,797,1751,0,0
-420,-727,0,0,0,0,0,0,0,0,0,-1,804,1751,0,0
-413,-727,0,0,0,0,0,0,0,0,0,-1,811,1751,0,0
-406,-727,0,0,0,0,0,0,0,0,0,-1,818,1751,0,0
-399,-727,0,0,0,0,0,0,0,0,0,-1,825,1751,0,0
-392,-727,0,0,0,0,0,0,0,0,0,-1,832,1751,0,0
-385,-727,0,0,0,0,0,0,0,0,0,-1,839,1751,0,0
-378,-727,0,0,0,0,0,0,0,0,0,-1,846,1751,0,0
-371,-727,0,0,0,0,0,0,0,0,0,-1,853,1751,0,0
-364,-727,0,0,0,0,0,0,0,0,0,-1,860,1751,0,0
-357,-727,0,0,0,0,0,0,0,0,0,-1,867,1751,0,0
-350,-727,0,0,0,0,0,0,0,0,0,-1,874,1751,0,0
-343,-727,0,0,0,0,0,0,0,0,0,-1,881,1751,0,0
-336,-727,0,0,0,0,0,0,0,0,0,-1,888,1751,0,0
-329,-727,0,0,0,0,0,0,0,0,0,-1,895,1751,0,0
-322,-727,0,0,0,0,0,0,0,0,0,-1,902,1751,0,0
-315,-727,0,0,0,0,0,0,0,0,0,-1,909,1751,0,0
-308,-727,0,0,0,0,0,0,0,0,0,-1,916,1751,0,0
-301,-727,0,0,0,0,0,0,0,0,0,-1,923,1751,0,0
-294,-727,0,0,0,0,0,0,0,0,0,-1,930,1751,0,0
-287,-727,0,0,0,0,0,0,0,0,0,-1,937,1751,0,0
-280,-727,0,0,0,0,0,0,0,0,0,-1,944,1751,0,0
-273,-727,0,0,0,0,0,0,0,0,0,-1,951,1751,0,0
-266,-727,4.24805,7.61145,0,0,0,0,0,0,0,-1,958,1751,4.24802,-7.6115
-259,-727,3.65228,5.4082,0,0,0,0,0,0,0,-1,965,1751,3.65229,-5.40818
-252,-727,7.05829,12.9366,0,0,0,0,0,0,0,-1,972,1751,7.0583,-12.9366
-245,-727,5.67279,14.0586,0,0,0,0,0,0,0,-1,979,1751,5.67278,-14.0586
-238,-727,6.02545,16.3462,0,0,0,0,0,0,0,-1,986,1751,6.02544,-16.3462
-231,-727,4.25702,15.3403,0,0,0,0,0,0,0,-1,993,1751,4.25701,-15.3403
-224,-727,5.15515,15.0778,0,0,0,0,0,0,0,-1,1000,1751,5.15517,-15.0777
-217,-727,5.04993,14.24,0,0,0,0,0,0,0,-1,1007,1751,5.04995,-14.24
-210,-727,4.99561,13.3716,0,0,0,0,0,0,0,-1,1014,1751,4.9956,-13.3716
-203,-727,2.81818,11.854,0,0,0,0,0,0,0,-1,1021,1751,2.81818,-11.854
-196,-727,4.10425,13.3547,0,0,0,0,0,0,0,-1,1028,1751,4.1043,-13.3548
-189,-727,4.57507,13.876,0,0,0,0,0,0,0,-1,1035,1751,4.57506,-13.876
-182,-727,5.05322,14.2275,0,0,0,0,0,0,0,-1,1042,1751,5.05325,-14.2275
-175,-727,5.32153,15.1746,0,0,0,0,0,0,0,-1,1049,1751,5.32154,-15.1746
-168,-727,5.46411,15.2896,0,0,0,0,0,0,0,-1,1056,1751,5.46412,-15.2896
-161,-727,5.073,15.5535,0,0,0,0,0,0,0,-1,1063,1751,5.07294,-15.5535
-154,-727,5.21216,15.5459,0.00293184,-0.003892,-0.00753327,0.00778983,-0.00874999,-0.572761,0.00955463,0.0448211,1070,1751,5.2121,-15.5459
-147,-727,5.15186,15.7451,0.0037982,-0.00578079,-0.00902749,0.00922804,-0.0112106,-0.541506,0.0118188,0.0376114,1077,1751,5.15183,-15.7451
-140,-727,5.0304,15.7939,0.00490368,-0.00719237,-0.0101589,0.0106786,-0.0129673,-0.516904,0.0136733,0.025794,1084,1751,5.03037,-15.794
-133,-727,5.0614,15.9138,0.00587809,-0.00790833,-0.0110599,0.012017,-0.0140473,-0.506723,0.0150634,0.0191832,1091,1751,5.06142,-15.9138
-126,-727,4.99573,16.0872,0.00649193,-0.00841075,-0.0118544,0.0130424,-0.0149612,-0.504817,0.0161805,0.0135968,1098,1751,4.99576,-16.0872
-119,-727,5.00574,16.2506,0.00704813,-0.00778957,-0.0120265,0.01376,-0.0145014,-0.50903,0.0163186,0.0111181,1105,1751,5.00577,-16.2506
-112,-727,5.00769,16.3262,0.00750173,-0.00677168,-0.0117878,0.0141449,-0.0134148,-0.513195,0.0159134,0.0118135,1112,1751,5.00769,-16.3261
-105,-727,4.99158,16.4182,0.00752178,-0.00547376,-0.0112669,0.0140303,-0.0119823,-0.523838,0.0150339,0.0125595,1119,1751,4.99157,-16.4182
-98,-727,4.99402,16.5422,0.0070785,-0.00412388,-0.0104001,0.0132898,-0.0103352,-0.538384,0.0136754,0.0109869,1126,1751,4.99404,-16.5423
-91,-727,4.99475,16.6392,0.00632302,-0.00274759,-0.00924317,0.0120836,-0.00850817,-0.557322,0.0119483,0.0106265,1133,1751,4.99473,-16.6392
-84,-727,4.97754,16.7209,0.00534975,-0.00159226,-0.00791851,0.0105246,-0.0067671,-0.57884,0.0100616,0.0112668,1140,1751,4.97752,-16.721
-77,-727,4.9801,16.8169,0.00438822,-0.000808657,-0.00646898,0.00876112,-0.00518156,-0.594423,0.00813776,0.0121614,1147,1751,4.9801,-16.8169
-70,-727,4.97424,16.9028,0.00364783,0.00108137,-0.00502737,0.00755316,-0.00282395,-0.660442,0.00619515,0.0120374,1154,1751,4.97429,-16.9029
-63,-727,4.95544,16.9779,0.00233245,0.00152992,-0.00402143,0.00597258,-0.00211021,-0.735671,0.00484095,0.00981274,1161,1751,4.9555,-16.978
-56,-727,4.93933,17.0529,0.00104532,0.0018581,-0.00278539,0.0042666,-0.00136317,-0.857838,0.00339137,0.0105752,1168,1751,4.93937,-17.0529
-49,-727,4.91711,17.1255,0.000537003,0.00168591,-0.00186346,0.00306145,-0.000838538,-0.934913,0.00237044,0.0142279,1175,1751,4.91707,-17.1255
-42,-727,4.9281,17.1913,0.000653095,0.00170356,-0.00167509,0.00293383,-0.00057718,-0.93732,0.00217397,0.0175597,1182,1751,4.92809,-17.1913
-35,-727,4.93225,17.2429,0.00115862,0.00201574,-0.00145375,0.00310279,7.15726e-05,-0.928736,0.00204508,0.015102,1189,1751,4.9323,-17.2429
-28,-727,4.92554,17.301,0.00163427,0.00170811,-0.00145776,0.00312941,0.000212964,-0.798059,0.00201903,0.00873254,1196,1751,4.92549,-17.3011
-21,-727,4.91199,17.3781,0.00185265,0.00143901,-0.00162811,0.00328703,4.6338e-06,-0.722222,0.00218981,0.0101035,1203,1751,4.91195,-17.3781
-14,-727,4.92505,17.4247,0.00180657,0.00125461,-0.00173275,0.00328518,-0.000223997,-0.706424,0.00226847,0.0112081,1210,1751,4.92511,-17.4247
-7,-727,4.95337,17.4781,0.001702,0.00102689,-0.00158663,0.00298658,-0.000257691,-0.680587,0.00208227,0.0142132,1217,1751,4.95339,-17.4782
0,-727,4.95715,17.545,0.00165289,0.000824527,-0.00148133,0.00277685,-0.000299433,-0.649079,0.00195869,0.0139429,1224,1751,4.95717,-17.5451
7,-727,4.93103,17.5845,0.00149555,0.000527725,-0.00134098,0.00243726,-0.000413986,-0.612238,0.00177896,0.0136189,1231,1751,4.93106,-17.5845
14,-727,4.94409,17.6272,0.001423,0.0001944,-0.00118899,0.002147,-0.000529602,-0.546956,0.00163668,0.0140111,1238,1751,4.9441,-17.6273
21,-727,4.93372,17.6698,0.0013887,-0.000145272,-0.00100442,0.00188549,-0.000642061,-0.45932,0.001517,0.0123909,1245,1751,4.93375,-17.6697
28,-727,4.93555,17.6752,0.00136588,-0.000565858,-0.000770282,0.00163542,-0.000835399,-0.336608,0.00145124,0.0109825,1252,1751,4.93558,-17.6752
35,-727,4.96277,17.6974,0.00145138,-0.000901764,-0.000578486,0.0015859,-0.00103629,-0.228481,0.00152497,0.0117129,1259,1751,4.9628,-17.6974
42,-727,4.93213,17.7183,0.00146205,-0.00118939,-0.000269637,0.00148919,-0.00121653,-0.100326,0.00156479,0.0120051,1266,1751,4.93219,-17.7183
49,-727,4.90906,17.7247,0.00151181,-0.00133554,-1.11737e-05,0.00151185,-0.00133558,-0.00392416,0.00164502,0.0111324,1273,1751,4.90911,-17.7247
56,-727,4.9137,17.772,0.00161951,-0.00158263,0.000126834,0.00162452,-0.00158765,0.0395266,0.00185459,0.00975555,1280,1751,4.91364,-17.772
63,-727,4.93604,17.7767,0.00163505,-0.00185027,0.000115518,0.00163887,-0.00185409,0.0330959,0.00201794,0.0115207,1287,1751,4.93609,-17.7767
70,-727,4.94202,17.7847,0.00148597,-0.00208285,2.66352e-05,0.00148617,-0.00208304,0.00746277,0.00207027,0.012972,1294,1751,4.94203,-17.7847
77,-727,4.94604,17.8199,0.0012972,-0.00196806,5.56386e-05,0.00129815,-0.00196901,0.0170329,0.00189951,0.014147,1301,1751,4.94601,-17.8199
84,-727,4.94995,17.7748,0.00111317,-0.00197391,0.000155687,0.001121,-0.00198174,0.0502617,0.0018142,0.01506,1308,1751,4.94995,-17.7747
91,-727,4.96484,17.7604,0.00101813,-0.00213145,0.000171132,0.0010274,-0.00214072,0.0541224,0.00186638,0.0161258,1315,1751,4.96487,-17.7604
98,-727,4.9624,17.7781,0.000824521,-0.00219465,3.46394e-05,0.000824918,-0.00219505,0.0114711,0.0018024,0.0131181,1322,1751,4.96242,-17.7781
105,-727,4.94995,17.7717,0.000508821,-0.00222283,-0.000109145,0.000513175,-0.00222719,-0.0398708,0.00168215,0.0124659,1329,1751,4.94991,-17.7717
112,-727,4.94714,17.762,0.00032301,-0.00225211,-0.000159087,0.000332801,-0.0022619,-0.0614671,0.00163023,0.0110595,1336,1751,4.94713,-17.762
119,-727,4.94849,17.7533,4.81161e-05,-0.00228159,-0.000134121,5.5812e-05,-0.00228928,-0.0573175,0.00154513,0.00863554,1343,1751,4.94851,-17.7533
126,-727,4.97644,17.7244,-5.03592e-05,-0.00224336,-1.07007e-05,-5.03069e-05,-0.00224341,-0.00487931,0.00147912,0.010579,1350,1751,4.97646,-17.7243
133,-727,4.97937,17.6947,-6.92301e-05,-0.00202656,0.000151147,-5.76272e-05,-0.00203817,0.0766153,0.00133998,0.0162498,1357,1751,4.9794,-17.6947
140,-727,4.95178,17.6731,-5.72079e-05,-0.00181393,0.000388375,2.48229e-05,-0.00189596,0.208156,0.00127233,0.0239349,1364,1751,4.95175,-17.6731
147,-727,4.95007,17.6366,5.84756e-05,-0.00151739,0.000552808,0.000233058,-0.00169197,0.305897,0.00121315,0.0189306,1371,1751,4.95013,-17.6366
154,-727,4.94043,17.578,8.72377e-05,-0.00115694,0.000601069,0.000330179,-0.00139988,0.384107,0.00106059,0.0107603,1378,1751,4.94046,-17.578
161,-727,4.95703,17.5353,2.47354e-05,-0.000656353,0.000550306,0.000331344,-0.000962962,0.508324,0.000776361,0.00897915,1385,1751,4.95702,-17.5353
168,-727,4.95178,17.4816,-2.68025e-05,-0.00034828,0.000422782,0.000264766,-0.000639849,0.60374,0.000537036,0.0118977,1392,1751,4.95184,-17.4816
175,-727,4.94275,17.4307,-5.1489e-06,-0.000304291,0.00017124,7.26442e-05,-0.000382084,0.426419,0.000282073,0.0168228,1399,1751,4.9428,-17.4307
182,-727,4.93542,17.389,5.13689e-05,-0.000133431,-0.000105918,9.95267e-05,-0.000181589,-0.426729,0.000164591,0.0178428,1406,1751,4.93537,-17.3891
189,-727,4.927,17.318,0.000271333,0.000406486,-3.04511e-05,0.000413031,0.000264789,-1.35911,0.000241607,0.0116837,1413,1751,4.92695,-17.318
196,-727,4.92578,17.245,0.000339878,0.00162089,-0.000258904,0.00167124,0.00028953,-1.37873,0.00103128,0.0132019,1420,1751,4.92576,-17.245
203,-727,4.92822,17.1764,0.000441553,0.00262276,-0.000452094,0.00271275,0.000351562,-1.37431,0.00170345,0.0161384,1427,1751,4.92819,-17.1764
210,-727,4.92432,17.152,0.000607444,0.00346614,-0.00043453,0.00353073,0.000542853,-1.42323,0.00219535,0.0160461,1434,1751,4.92431,-17.1519
217,-727,4.91687,17.0863,0.000815485,0.00433429,-0.000444976,0.00438969,0.000760088,-1.44694,0.00270888,0.0113616,1441,1751,4.91687,-17.0863
224,-727,4.90759,16.9668,0.00103775,0.00509156,-0.00052047,0.00515732,0.000971992,-1.44512,0.00316437,0.0115087,1448,1751,4.9076,-16.9668
231,-727,4.91028,16.8981,0.00116311,0.00581051,-0.000585217,0.00588307,0.00109055,-1.44744,0.0036138,0.00931665,1455,1751,4.91022,-16.898
238,-727,4.91272,16.8091,0.00135392,0.00640859,-0.00066322,0.00649416,0.00126835,-1.44248,0.00397469,0.00941348,1462,1751,4.91267,-16.809
245,-727,4.89343,16.734,0.00158384,0.00695995,-0.00075997,0.00706531,0.00147848,-1.43303,0.0043029,0.00952632,1469,1751,4.89345,-16.7341
252,-727,4.88,16.6515,0.00175724,0.00727947,-0.000896913,0.00742149,0.00161522,-1.41375,0.00450679,0.0109785,1476,1751,4.88005,-16.6515
259,-727,4.89636,16.556,0.00198431,0.00747234,-0.00110089,0.00768494,0.00177171,-1.38003,0.00464671,0.0146116,1483,1751,4.8963,-16.5561
266,-727,4.93945,16.4941,0.00213127,0.00760281,-0.00155064,0.0080117,0.00172238,-1.31297,0.00486962,0.0235328,1490,1751,4.93949,-16.4942
273,-727,5.04834,16.4625,0.00192695,0.00760897,-0.00188846,0.00817936,0.00135656,-1.27747,0.00506168,0.0425461,1497,1751,5.04833,-16.4625
280,-727,4.74902,16.3002,0,0,0,0,0,0,0,-1,1504,1751,4.74902,-16.3002
287,-727,4.68726,16.0493,0,0,0,0,0,0,0,-1,1511,1751,4.68721,-16.0493
294,-727,4.68628,15.7239,0,0,0,0,0,0,0,-1,1518,1751,4.6863,-15.7239
301,-727,4.81567,15.8976,0,0,0,0,0,0,0,-1,1525,1751,4.81568,-15.8976
308,-727,4.90271,15.6169,0,0,0,0,0,0,0,-1,1532,1751,4.90269,-15.617
315,-727,5.23865,15.6201,0,0,0,0,0,0,0,-1,1539,1751,5.23868,-15.6201
322,-727,5.12561,15.7411,0,0,0,0,0,0,0,-1,1546,1751,5.12565,-15.7411
329,-727,6.61853,11.6267,0,0,0,0,0,0,0,-1,1553,1751,6.61859,-11.6267
336,-727,3.34875,7.61792,0,0,0,0,0,0,0,-1,1560,1751,3.34872,-7.61791
343,-727,2.41699,8.72095,0,0,0,0,0,0,0,-1,1567,1751,2.41702,-8.72098
350,-727,3.89783,7.50195,0,0,0,0,0,0,0,-1,1574,1751,3.89782,-7.50193
357,-727,4.48462,10.2948,0,0,0,0,0,0,0,-1,1581,1751,4.48464,-10.2948
364,-727,4.47852,11.4702,0,0,0,0,0,0,0,-1,1588,1751,4.47846,-11.4703
371,-727,3.57446,12.9564,0,0,0,0,0,0,0,-1,1595,1751,3.57443,-12.9564
378,-727,3.19482,14.0498,0,0,0,0,0,0,0,-1,1602,1751,3.19486,-14.0498
385,-727,3.19275,14.7679,0,0,0,0,0,0,0,-1,1609,1751,3.19274,-14.768
392,-727,0,0,0,0,0,0,0,0,0,-1,1616,1751,0,0
399,-727,0,0,0,0,0,0,0,0,0,-1,1623,1751,0,0
406,-727,0,0,0,0,0,0,0,0,0,-1,1630,1751,0,0
413,-727,0,0,0,0,0,0,0,0,0,-1,1637,1751,0,0
420,-727,0,0,0,0,0,0,0,0,0,-1,1644,1751,0,0
427,-727,0,0,0,0,0,0,0,0,0,-1,1651,1751,0,0
434,-727,0,0,0,0,0,0,0,0,0,-1,1658,1751,0,0
441,-727,0,0,0,0,0,0,0,0,0,-1,1665,1751,0,0
448,-727,0,0,0,0,0,0,0,0,0,-1,1672,1751,0,0
455,-727,0,0,0,0,0,0,0,0,0,-1,1679,1751,0,0
462,-727,0,0,0,0,0,0,0,0,0,-1,1686,1751,0,0
469,-727,0,0,0,0,0,0,0,0,0,-1,1693,1751,0,0
476,-727,0,0,0,0,0,0,0,0,0,-1,1700,1751,0,0
483,-727,0,0,0,0,0,0,0,0,0,-1,1707,1751,0,0
490,-727,0,0,0,0,0,0,0,0,0,-1,1714,1751,0,0
497,-727,0,0,0,0,0,0,0,0,0,-1,1721,1751,0,0
504,-727,0,0,0,0,0,0,0,0,0,-1,1728,1751,0,0
511,-727,0,0,0,0,0,0,0,0,0,-1,1735,1751,0,0
518,-727,0,0,0,0,0,0,0,0,0,-1,1742,1751,0,0
525,-727,0,0,0,0,0,0,0,0,0,-1,1749,1751,0,0
532,-727,0,0,0,0,0,0,0,0,0,-1,1756,1751,0,0
539,-727,0,0,0,0,0,0,0,0,0,-1,1763,1751,0,0
546,-727,0,0,0,0,0,0,0,0,0,-1,1770,1751,0,0
553,-727,0,0,0,0,0,0,0,0,0,-1,1777,1751,0,0
560,-727,0,0,0,0,0,0,0,0,0,-1,1784,1751,0,0
567,-727,0,0,0,0,0,0,0,0,0,-1,1791,1751,0,0
574,-727,0,0,0,0,0,0,0,0,0,-1,1798,1751,0,0
581,-727,0,0,0,0,0,0,0,0,0,-1,1805,1751,0,0
588,-727,0,0,0,0,0,0,0,0,0,-1,1812,1751,0,0
595,-727,0,0,0,0,0,0,0,0,0,-1,1819,1751,0,0
602,-727,0,0,0,0,0,0,0,0,0,-1,1826,1751,0,0
609,-727,0,0,0,0,0,0,0,0,0,-1,1833,1751,0,0
616,-727,0,0,0,0,0,0,0,0,0,-1,1840,1751,0,0
623,-727,0,0,0,0,0,0,0,0,0,-1,1847,1751,0,0
630,-727,0,0,0,0,0,0,0,0,0,-1,1854,1751,0,0
637,-727,0,0,0,0,0,0,0,0,0,-1,1861,1751,0,0
644,-727,0,0,0,0,0,0,0,0,0,-1,1868,1751,0,0
651,-727,0,0,0,0,0,0,0,0,0,-1,1875,1751,0,0
658,-727,0,0,0,0,0,0,0,0,0,-1,1882,1751,0,0
665,-727,0,0,0,0,0,0,0,0,0,-1,1889,1751,0,0
672,-727,0,0,0,0,0,0,0,0,0,-1,1896,1751,0,0
679,-727,0,0,0,0,0,0,0,0,0,-1,1903,1751,0,0
686,-727,0,0,0,0,0,0,0,0,0,-1,1910,1751,0,0
693,-727,0,0,0,0,0,0,0,0,0,-1,1917,1751,0,0
700,-727,0,0,0,0,0,0,0,0,0,-1,1924,1751,0,0
707,-727,0,0,0,0,0,0,0,0,0,-1,1931,1751,0,0
714,-727,0,0,0,0,0,0,0,0,0,-1,1938,1751,0,0
721,-727,0,0,0,0,0,0,0,0,0,-1,1945,1751,0,0
728,-727,0,0,0,0,0,0,0,0,0,-1,1952,1751,0,0
735,-727,0,0,0,0,0,0,0,0,0,-1,1959,1751,0,0
742,-727,0,0,0,0,0,0,0,0,0,-1,1966,1751,0,0
749,-727,0,0,0,0,0,0,0,0,0,-1,1973,1751,0,0
756,-727,0,0,0,0,0,0,0,0,0,-1,1980,1751,0,0
763,-727,0,0,0,0,0,0,0,0,0,-1,1987,1751,0,0
770,-727,0,0,0,0,0,0,0,0,0,-1,1994,1751,0,0
777,-727,0,0,0,0,0,0,0,0,0,-1,2001,1751,0,0
784,-727,0,0,0,0,0,0,0,0,0,-1,2008,1751,0,0
791,-727,0,0,0,0,0,0,0,0,0,-1,2015,1751,0,0
798,-727,0,0,0,0,0,0,0,0,0,-1,2022,1751,0,0
805,-727,0,0,0,0,0,0,0,0,0,-1,2029,1751,0,0
812,-727,0,0,0,0,0,0,0,0,0,-1,2036,1751,0,0
-700,-734,0,0,0,0,0,0,0,0,0,-1,524,1758,0,0
-693,-734,0,0,0,0,0,0,0,0,0,-1,531,1758,0,0
-686,-734,0,0,0,0,0,0,0,0,0,-1,538,1758,0,0
-679,-734,0,0,0,0,0,0,0,0,0,-1,545,1758,0,0
-672,-734,0,0,0,0,0,0,0,0,0,-1,552,1758,0,0
-665,-734,0,0,0,0,0,0,0,0,0,-1,559,1758,0,0
-658,-734,0,0,0,0,0,0,0,0,0,-1,566,1758,0,0
-651,-734,0,0,0,0,0,0,0,0,0,-1,573,1758,0,0
-644,-734,0,0,0,0,0,0,0,0,0,-1,580,1758,0,0
-637,-734,0,0,0,0,0,0,0,0,0,-1,587,1758,0,0
-630,-734,0,0,0,0,0,0,0,0,0,-1,594,1758,0,0
-623,-734,0,0,0,0,0,0,0,0,0,-1,601,1758,0,0
-616,-734,0,0,0,0,0,0,0,0,0,-1,608,1758,0,0
-609,-734,0,0,0,0,0,0,0,0,0,-1,615,1758,0,0
-602,-734,0,0,0,0,0,0,0,0,0,-1,622,1758,0,0
-595,-734,0,0,0,0,0,0,0,0,0,-1,629,1758,0,0
-588,-734,0,0,0,0,0,0,0,0,0,-1,636,1758,0,0
-581,-734,0,0,0,0,0,0,0,0,0,-1,643,1758,0,0
-574,-734,0,0,0,0,0,0,0,0,0,-1,650,1758,0,0
-567,-734,0,0,0,0,0,0,0,0,0,-1,657,1758,0,0
-560,-734,0,0,0,0,0,0,0,0,0,-1,664,1758,0,0
-553,-734,0,0,0,0,0,0,0,0,0,-1,671,1758,0,0
-546,-734,0,0,0,0,0,0,0,0,0,-1,678,1758,0,0
-539,-734,0,0,0,0,0,0,0,0,0,-1,685,1758,0,0
-532,-734,0,0,0,0,0,0,0,0,0,-1,692,1758,0,0
-525,-734,0,0,0,0,0,0,0,0,0,-1,699,1758,0,0
-518,-734,0,0,0,0,0,0,0,0,0,-1,706,1758,0,0
-511,-734,0,0,0,0,0,0,0,0,0,-1,713,1758,0,0
-504,-734,0,0,0,0,0,0,0,0,0,-1,720,1758,0,0
-497,-734,0,0,0,0,0,0,0,0,0,-1,727,1758,0,0
-490,-734,0,0,0,0,0,0,0,0,0,-1,734,1758,0,0
-483,-734,0,0,0,0,0,0,0,0,0,-1,741,1758,0,0
-476,-734,0,0,0,0,0,0,0,0,0,-1,748,1758,0,0
-469,-734,0,0,0,0,0,0,0,0,0,-1,755,1758,0,0
-462,-734,0,0,0,0,0,0,0,0,0,-1,762,1758,0,0
-455,-734,0,0,0,0,0,0,0,0,0,-1,769,1758,0,0
-448,-734,0,0,0,0,0,0,0,0,0,-1,776,1758,0,0
-441,-734,0,0,0,0,0,0,0,0,0,-1,783,1758,0,0
-434,-734,0,0,0,0,0,0,0,0,0,-1,790,1758,0,0
-427,-734,0,0,0,0,0,0,0,0,0,-1,797,1758,0,0
-420,-734,0,0,0,0,0,0,0,0,0,-1,804,1758,0,0
-413,-734,0,0,0,0,0,0,0,0,0,-1,811,1758,0,0
-406,-734,0,0,0,0,0,0,0,0,0,-1,818,1758,0,0
-399,-734,0,0,0,0,0,0,0,0,0,-1,825,1758,0,0
-392,-734,0,0,0,0,0,0,0,0,0,-1,832,1758,0,0
-385,-734,0,0,0,0,0,0,0,0,0,-1,839,1758,0,0
-378,-734,0,0,0,0,0,0,0,0,0,-1,846,1758,0,0
-371,-734,0,0,0,0,0,0,0,0,0,-1,853,1758,0,0
-364,-734,0,0,0,0,0,0,0,0,0,-1,860,1758,0,0
-357,-734,0,0,0,0,0,0,0,0,0,-1,867,1758,0,0
-350,-734,0,0,0,0,0,0,0,0,0,-1,874,1758,0,0
-343,-734,0,0,0,0,0,0,0,0,0,-1,881,1758,0,0
-336,-734,0,0,0,0,0,0,0,0,0,-1,888,1758,0,0
-329,-734,0,0,0,0,0,0,0,0,0,-1,895,1758,0,0
-322,-734,0,0,0,0,0,0,0,0,0,-1,902,1758,0,0
-315,-734,0,0,0,0,0,0,0,0,0,-1,909,1758,0,0
-308,-734,0,0,0,0,0,0,0,0,0,-1,916,1758,0,0
-301,-734,0,0,0,0,0,0,0,0,0,-1,923,1758,0,0
-294,-734,0,0,0,0,0,0,0,0,0,-1,930,1758,0,0
-287,-734,0,0,0,0,0,0,0,0,0,-1,937,1758,0,0
-280,-734,0,0,0,0,0,0,0,0,0,-1,944,1758,0,0
-273,-734,0,0,0,0,0,0,0,0,0,-1,951,1758,0,0
-266,-734,0,0,0,0,0,0,0,0,0,-1,958,1758,0,0
-259,-734,0,0,0,0,0,0,0,0,0,-1,965,1758,0,0
-252,-734,6.44257,12.0737,0,0,0,0,0,0,0,-1,972,1758,6.44255,-12.0737
-245,-734,5.9212,12.6437,0,0,0,0,0,0,0,-1,979,1758,5.9212,-12.6437
-238,-734,2.90552,15.4933,0,0,0,0,0,0,0,-1,986,1758,2.90554,-15.4933
-231,-734,3.7489,15.7021,0,0,0,0,0,0,0,-1,993,1758,3.74889,-15.7022
-224,-734,5.53961,15.557,0,0,0,0,0,0,0,-1,1000,1758,5.53962,-15.557
-217,-734,5.44537,14.7571,0,0,0,0,0,0,0,-1,1007,1758,5.44536,-14.757
-210,-734,5.39703,13.9022,0,0,0,0,0,0,0,-1,1014,1758,5.39705,-13.9022
-203,-734,1.61005,12.5138,0,0,0,0,0,0,0,-1,1021,1758,1.61005,-12.5138
-196,-734,1.82971,12.6195,0,0,0,0,0,0,0,-1,1028,1758,1.82974,-12.6195
-189,-734,5.8573,13.1915,0,0,0,0,0,0,0,-1,1035,1758,5.85734,-13.1915
-182,-734,5.30322,14.0447,0,0,0,0,0,0,0,-1,1042,1758,5.3032,-14.0447
-175,-734,4.53308,12.047,0,0,0,0,0,0,0,-1,1049,1758,4.53303,-12.0469
-168,-734,-1.01404,9.38818,0,0,0,0,0,0,0,-1,1056,1758,-1.01403,-9.38817
-161,-734,3.51257,9.94104,0,0,0,0,0,0,0,-1,1063,1758,3.51257,-9.94101
-154,-734,5.41309,15.547,0,0,0,0,0,0,0,-1,1070,1758,5.41305,-15.547
-147,-734,5.48071,15.8129,0,0,0,0,0,0,0,-1,1077,1758,5.48075,-15.8128
-140,-734,5.27515,15.8157,0.00876944,-0.0126258,-0.0158059,0.0171575,-0.0210139,-0.4879,0.0220757,0.0414683,1084,1758,5.27515,-15.8157
-133,-734,5.2876,15.9558,0.0100223,-0.0132582,-0.016971,0.0189614,-0.0221973,-0.484801,0.0237874,0.0362464,1091,1758,5.2876,-15.9558
-126,-734,5.03381,16.0044,0.0108271,-0.0134867,-0.0179579,0.0203561,-0.0230157,-0.487849,0.0250564,0.0345205,1098,1758,5.03384,-16.0044
-119,-734,4.8988,16.1918,0.0115424,-0.0123282,-0.0181935,0.021366,-0.0221519,-0.4951,0.0251265,0.0337341,1105,1758,4.89878,-16.1918
-112,-734,5.06177,16.2886,0.0120617,-0.0106706,-0.017913,0.0219103,-0.0205191,-0.502691,0.024501,0.0259621,1112,1758,5.06181,-16.2886
-105,-734,5.10852,16.4125,0.0119767,-0.00872119,-0.017218,0.0217165,-0.018461,-0.514801,0.0232219,0.0191681,1119,1758,5.10854,-16.4125
-98,-734,5.13843,16.5042,0.0112752,-0.00675922,-0.0160501,0.0206676,-0.0161517,-0.529463,0.0213109,0.0189689,1126,1758,5.13843,-16.5041
-91,-734,5.11621,16.5862,0.0101202,-0.00485637,-0.0144589,0.0189148,-0.013651,-0.546466,0.0188836,0.0223554,1133,1758,5.11621,-16.5862
-84,-734,5.06287,16.6765,0.00861812,-0.00329594,-0.0125586,0.0165609,-0.0112387,-0.563943,0.0161478,0.0183455,1140,1758,5.06292,-16.6765
-77,-734,5.0509,16.8019,0.00705955,-0.00224582,-0.0103535,0.0137577,-0.00894398,-0.574227,0.0132047,0.0156019,1147,1758,5.05086,-16.8018
-70,-734,5.04773,16.8423,0.00581772,0.000716848,-0.00810251,0.0117617,-0.00522715,-0.632922,0.0100475,0.0120528,1154,1758,5.04771,-16.8423
-63,-734,5.02722,16.9478,0.00426614,0.0017896,-0.00758784,0.0107161,-0.00466034,-0.704516,0.00910418,0.0110824,1161,1758,5.02721,-16.9478
-56,-734,5.00354,17.0408,0.002872,0.00259346,-0.00673794,0.00947211,-0.00400666,-0.775065,0.00799238,0.01178,1168,1758,5.00349,-17.0407
-49,-734,4.98779,17.1119,0.00221199,0.00263592,-0.00570123,0.00812912,-0.00328121,-0.803979,0.00678306,0.0123219,1175,1758,4.98781,-17.112
-42,-734,4.97546,17.1976,0.00240189,0.00295327,-0.00562769,0.00831201,-0.00295686,-0.809873,0.00674652,0.013961,1182,1758,4.97551,-17.1977
-35,-734,4.9707,17.228,0.0031112,0.00367377,-0.00528171,0.00868168,-0.00189671,-0.812001,0.00651275,0.0133492,1189,1758,4.97065,-17.2281
-28,-734,4.97693,17.2948,0.0039195,0.00327143,-0.00542416,0.0090293,-0.00183836,-0.755564,0.00671671,0.0092801,1196,1758,4.9769,-17.2948
-21,-734,4.98157,17.3817,0.00428361,0.00291173,-0.00573766,0.00937618,-0.00218085,-0.725905,0.00709043,0.0146225,1203,1758,4.98155,-17.3817
-14,-734,4.97693,17.4398,0.00405831,0.00278111,-0.00575996,0.00921497,-0.00237554,-0.730189,0.00706947,0.015309,1210,1758,4.97693,-17.4398
-7,-734,5.0011,17.4622,0.00367967,0.00247342,-0.0053388,0.00844931,-0.00229622,-0.729152,0.00653418,0.0177686,1217,1758,5.00108,-17.4622
0,-734,4.99854,17.5099,0.0033483,0.00217548,-0.00500182,0.00779797,-0.00227419,-0.727045,0.0060997,0.0175089,1224,1758,4.99848,-17.5099
7,-734,4.96838,17.5785,0.00283263,0.00170972,-0.0044717,0.00677798,-0.00223563,-0.722946,0.00541981,0.0132102,1231,1758,4.96834,-17.5785
14,-734,4.96594,17.6328,0.00224149,0.00117968,-0.0038823,0.00562902,-0.00220785,-0.717444,0.00466612,0.0138773,1238,1758,4.96593,-17.6328
21,-734,4.94446,17.6671,0.00161787,0.000599151,-0.00327294,0.00442085,-0.00220383,-0.708204,0.0038955,0.0123062,1245,1758,4.94442,-17.6672
28,-734,4.95154,17.6851,0.00111145,-4.00173e-05,-0.0026306,0.00322858,-0.00215715,-0.677667,0.0031299,0.0110677,1252,1758,4.9515,-17.685
35,-734,4.98376,17.7238,0.000742405,-0.000563786,-0.00202636,0.00221831,-0.00203969,-0.629504,0.00245908,0.0129306,1259,1758,4.98371,-17.7238
42,-734,4.97168,17.7268,0.000262723,-0.00105034,-0.00119629,0.000970798,-0.00175841,-0.534436,0.00159743,0.0118028,1266,1758,4.97164,-17.7268
49,-734,4.93848,17.7349,6.17841e-05,-0.00139126,-0.000380549,0.000155415,-0.00148489,-0.241251,0.00104559,0.0103168,1273,1758,4.93851,-17.7349
56,-734,4.92993,17.7648,0.000285951,-0.00176319,0.000172993,0.000300452,-0.0017777,0.0836331,0.00129693,0.00921319,1280,1758,4.92991,-17.7648
63,-734,4.9436,17.7648,0.000546617,-0.00202975,0.000587597,0.000674303,-0.00215744,0.213976,0.00170802,0.0110373,1287,1758,4.94364,-17.7647
70,-734,4.93372,17.782,0.000698048,-0.00223259,0.000849332,0.000926401,-0.00246095,0.26265,0.00202147,0.011582,1294,1758,4.93373,-17.782
77,-734,4.95166,17.8224,0.000789575,-0.00194851,0.00129477,0.00130487,-0.0024638,0.378762,0.00220987,0.0160575,1301,1758,4.95171,-17.8224
84,-734,4.93445,17.7913,0.00100047,-0.00176314,0.0017942,0.0018833,-0.00264597,0.457261,0.0026273,0.015848,1308,1758,4.93441,-17.7913
91,-734,4.9165,17.7781,0.00145296,-0.00180774,0.00200998,0.00241067,-0.00276545,0.444654,0.00299077,0.0179584,1315,1758,4.91645,-17.778
98,-734,4.95654,17.7888,0.00173899,-0.00173623,0.00188634,0.00256605,-0.0025633,0.413207,0.00296143,0.0129613,1322,1758,4.95657,-17.7888
105,-734,4.96045,17.7695,0.00169941,-0.00166454,0.00175065,0.00244515,-0.00241028,0.402701,0.00280331,0.0139087,1329,1758,4.96046,-17.7695
112,-734,4.95093,17.7555,0.00158898,-0.00158141,0.00158014,0.00224202,-0.00223445,0.391901,0.00258449,0.0123176,1336,1758,4.95091,-17.7555
119,-734,4.92798,17.7158,0.00134305,-0.00154222,0.00146627,0.00195739,-0.00215656,0.396761,0.00237612,0.0129532,1343,1758,4.92803,-17.7158
126,-734,4.94226,17.6736,0.00108732,-0.00147619,0.0014515,0.00174199,-0.00213086,0.423711,0.00223975,0.0156991,1350,1758,4.9422,-17.6736
133,-734,4.95251,17.6509,0.000700615,-0.00131433,0.00144353,0.00145348,-0.0020672,0.480733,0.00204293,0.0140441,1357,1758,4.95251,-17.6509
140,-734,4.92407,17.6349,0.000342398,-0.00126594,0.00150292,0.00124277,-0.00216631,0.539743,0.00199216,0.0188732,1364,1758,4.9241,-17.6348
147,-734,4.91833,17.6101,0.000186237,-0.00116614,0.00145539,0.00111485,-0.00209475,0.567929,0.00188163,0.0133281,1371,1758,4.91839,-17.6101
154,-734,4.91296,17.5875,-0.000140338,-0.000959299,0.00122473,0.000741548,-0.00184118,0.624068,0.00153553,0.00914028,1378,1758,4.91302,-17.5876
161,-734,4.9104,17.5394,-0.000469556,-0.000689716,0.000928852,0.000355716,-0.00151499,0.726417,0.0011471,0.00919324,1385,1758,4.91035,-17.5394
168,-734,4.875,17.4821,-0.00050323,-0.000674513,0.000602835,2.00162e-05,-0.00119776,0.714838,0.000805261,0.0151568,1392,1758,4.87506,-17.482
175,-734,4.89844,17.4443,-0.000372946,-0.000706188,0.000288405,-0.000206491,-0.000872643,0.523456,0.000526604,0.0176286,1399,1758,4.89842,-17.4443
182,-734,4.92725,17.3702,-0.000223744,-0.000555044,-9.57164e-05,-0.000198078,-0.00058071,-0.261976,0.00034087,0.014074,1406,1758,4.92721,-17.3702
189,-734,4.89246,17.3063,0.00020347,0.000190082,8.05515e-05,0.000277605,0.000115947,0.743944,0.000160998,0.0104181,1413,1758,4.89245,-17.3062
196,-734,4.87292,17.2549,0.000376101,0.00197094,-0.000259276,0.00201203,0.000335008,-1.41362,0.0012448,0.0110903,1420,1758,4.87288,-17.2548
203,-734,4.87805,17.1931,0.000544491,0.00348164,-0.000539986,0.00357777,0.000448362,-1.39462,0.00225066,0.0119671,1427,1758,4.87806,-17.1931
210,-734,4.88354,17.1337,0.000833426,0.00478651,-0.000445626,0.00483612,0.000783813,-1.45992,0.00299717,0.0135231,1434,1758,4.88356,-17.1336
217,-734,4.84741,17.066,0.00121859,0.00608959,-0.000396762,0.00612169,0.00118648,-1.49005,0.00374875,0.0107574,1441,1758,4.84744,-17.066
224,-734,4.8551,16.9801,0.00155952,0.00725612,-0.000438585,0.00728969,0.00152595,-1.49441,0.00443944,0.0112299,1448,1758,4.85514,-16.9801
231,-734,4.83545,16.9116,0.00176919,0.00836356,-0.000483064,0.00839876,0.00173399,-1.49806,0.00512001,0.0127739,1455,1758,4.8354,-16.9116
238,-734,4.81836,16.8004,0.00204098,0.00929369,-0.000559393,0.00933659,0.00199809,-1.49427,0.00567681,0.0162856,1462,1758,4.81841,-16.8004
245,-734,4.83093,16.6438,0.00235664,0.0101295,-0.000674035,0.0101876,0.00229863,-1.48493,0.00616991,0.0221985,1469,1758,4.83094,-16.6438
252,-734,4.88245,16.5632,0.00261042,0.0106765,-0.000842125,0.0107635,0.00252343,-1.46787,0.00649992,0.0292654,1476,1758,4.88244,-16.5632
259,-734,4.94275,16.5802,0.00291582,0.0110107,-0.00109729,0.0111568,0.00276971,-1.43842,0.00670801,0.0384713,1483,1758,4.94274,-16.5802
266,-734,4.86133,16.5099,0,0,0,0,0,0,0,-1,1490,1758,4.86138,-16.5099
273,-734,5.14404,16.6797,0,0,0,0,0,0,0,-1,1497,1758,5.14407,-16.6797
280,-734,16.6191,7.38013,0,0,0,0,0,0,0,-1,1504,1758,16.6192,-7.38011
287,-734,14.1356,7.42139,0,0,0,0,0,0,0,-1,1511,1758,14.1356,-7.42135
294,-734,12.1967,6.48743,0,0,0,0,0,0,0,-1,1518,1758,12.1967,-6.48738
301,-734,10.1635,5.59741,0,0,0,0,0,0,0,-1,1525,1758,10.1634,-5.59746
308,-734,5.66711,14.3765,0,0,0,0,0,0,0,-1,1532,1758,5.66712,-14.3764
315,-734,5.74011,15.4298,0,0,0,0,0,0,0,-1,1539,1758,5.74005,-15.4298
322,-734,4.17163,11.5508,0,0,0,0,0,0,0,-1,1546,1758,4.17163,-11.5508
329,-734,5.45972,12.4125,0,0,0,0,0,0,0,-1,1553,1758,5.45969,-12.4125
336,-734,5.92188,13.8751,0,0,0,0,0,0,0,-1,1560,1758,5.92183,-13.8751
343,-734,5.54968,5.14221,0,0,0,0,0,0,0,-1,1567,1758,5.54973,-5.14225
350,-734,5.07397,6.73242,0,0,0,0,0,0,0,-1,1574,1758,5.07402,-6.73243
357,-734,5.05542,7.19189,0,0,0,0,0,0,0,-1,1581,1758,5.05541,-7.19184
364,-734,4.43896,10.4904,0,0,0,0,0,0,0,-1,1588,1758,4.43893,-10.4904
371,-734,4.22766,11.9165,0,0,0,0,0,0,0,-1,1595,1758,4.22769,-11.9165
378,-734,0,0,0,0,0,0,0,0,0,-1,1602,1758,0,0
385,-734,0,0,0,0,0,0,0,0,0,-1,1609,1758,0,0
392,-734,0,0,0,0,0,0,0,0,0,-1,1616,1758,0,0
399,-734,0,0,0,0,0,0,0,0,0,-1,1623,1758,0,0
406,-734,0,0,0,0,0,0,0,0,0,-1,1630,1758,0,0
413,-734,0,0,0,0,0,0,0,0,0,-1,1637,1758,0,0
420,-734,0,0,0,0,0,0,0,0,0,-1,1644,1758,0,0
427,-734,0,0,0,0,0,0,0,0,0,-1,1651,1758,0,0
434,-734,0,0,0,0,0,0,0,0,0,-1,1658,1758,0,0
441,-734,0,0,0,0,0,0,0,0,0,-1,1665,1758,0,0
448,-734,0,0,0,0,0,0,0,0,0,-1,1672,1758,0,0
455,-734,0,0,0,0,0,0,0,0,0,-1,1679,1758,0,0
462,-734,0,0,0,0,0,0,0,0,0,-1,1686,1758,0,0
469,-734,0,0,0,0,0,0,0,0,0,-1,1693,1758,0,0
476,-734,0,0,0,0,0,0,0,0,0,-1,1700,1758,0,0
483,-734,0,0,0,0,0,0,0,0,0,-1,1707,1758,0,0
490,-734,0,0,0,0,0,0,0,0,0,-1,1714,1758,0,0
497,-734,0,0,0,0,0,0,0,0,0,-1,1721,1758,0,0
504,-734,0,0,0,0,0,0,0,0,0,-1,1728,1758,0,0
511,-734,0,0,0,0,0,0,0,0,0,-1,1735,1758,0,0
518,-734,0,0,0,0,0,0,0,0,0,-1,1742,1758,0,0
525,-734,0,0,0,0,0,0,0,0,0,-1,1749,1758,0,0
532,-734,0,0,0,0,0,0,0,0,0,-1,1756,1758,0,0
539,-734,0,0,0,0,0,0,0,0,0,-1,1763,1758,0,0
546,-734,0,0,0,0,0,0,0,0,0,-1,1770,1758,0,0
553,-734,0,0,0,0,0,0,0,0,0,-1,1777,1758,0,0
560,-734,0,0,0,0,0,0,0,0,0,-1,1784,1758,0,0
567,-734,0,0,0,0,0,0,0,0,0,-1,1791,1758,0,0
574,-734,0,0,0,0,0,0,0,0,0,-1,1798,1758,0,0
581,-734,0,0,0,0,0,0,0,0,0,-1,1805,1758,0,0
588,-734,0,0,0,0,0,0,0,0,0,-1,1812,1758,0,0
595,-734,0,0,0,0,0,0,0,0,0,-1,1819,1758,0,0
602,-734,0,0,0,0,0,0,0,0,0,-1,1826,1758,0,0
609,-734,0,0,0,0,0,0,0,0,0,-1,1833,1758,0,0
616,-734,0,0,0,0,0,0,0,0,0,-1,1840,1758,0,0
623,-734,0,0,0,0,0,0,0,0,0,-1,1847,1758,0,0
630,-734,0,0,0,0,0,0,0,0,0,-1,1854,1758,0,0
637,-734,0,0,0,0,0,0,0,0,0,-1,1861,1758,0,0
644,-734,0,0,0,0,0,0,0,0,0,-1,1868,1758,0,0
651,-734,0,0,0,0,0,0,0,0,0,-1,1875,1758,0,0
658,-734,0,0,0,0,0,0,0,0,0,-1,1882,1758,0,0
665,-734,0,0,0,0,0,0,0,0,0,-1,1889,1758,0,0
672,-734,0,0,0,0,0,0,0,0,0,-1,1896,1758,0,0
679,-734,0,0,0,0,0,0,0,0,0,-1,1903,1758,0,0
686,-734,0,0,0,0,0,0,0,0,0,-1,1910,1758,0,0
693,-734,0,0,0,0,0,0,0,0,0,-1,1917,1758,0,0
700,-734,0,0,0,0,0,0,0,0,0,-1,1924,1758,0,0
707,-734,0,0,0,0,0,0,0,0,0,-1,1931,1758,0,0
714,-734,0,0,0,0,0,0,0,0,0,-1,1938,1758,0,0
721,-734,0,0,0,0,0,0,0,0,0,-1,1945,1758,0,0
728,-734,0,0,0,0,0,0,0,0,0,-1,1952,1758,0,0
735,-734,0,0,0,0,0,0,0,0,0,-1,1959,1758,0,0
742,-734,0,0,0,0,0,0,0,0,0,-1,1966,1758,0,0
749,-734,0,0,0,0,0,0,0,0,0,-1,1973,1758,0,0
756,-734,0,0,0,0,0,0,0,0,0,-1,1980,1758,0,0
763,-734,0,0,0,0,0,0,0,0,0,-1,1987,1758,0,0
770,-734,0,0,0,0,0,0,0,0,0,-1,1994,1758,0,0
777,-734,0,0,0,0,0,0,0,0,0,-1,2001,1758,0,0
784,-734,0,0,0,0,0,0,0,0,0,-1,2008,1758,0,0
791,-734,0,0,0,0,0,0,0,0,0,-1,2015,1758,0,0
798,-734,0,0,0,0,0,0,0,0,0,-1,2022,1758,0,0
805,-734,0,0,0,0,0,0,0,0,0,-1,2029,1758,0,0
812,-734,0,0,0,0,0,0,0,0,0,-1,2036,1758,0,0
-700,-741,0,0,0,0,0,0,0,0,0,-1,524,1765,0,0
-693,-741,0,0,0,0,0,0,0,0,0,-1,531,1765,0,0
-686,-741,0,0,0,0,0,0,0,0,0,-1,538,1765,0,0
-679,-741,0,0,0,0,0,0,0,0,0,-1,545,1765,0,0
-672,-741,0,0,0,0,0,0,0,0,0,-1,552,1765,0,0
-665,-741,0,0,0,0,0,0,0,0,0,-1,559,1765,0,0
-658,-741,0,0,0,0,0,0,0,0,0,-1,566,1765,0,0
-651,-741,0,0,0,0,0,0,0,0,0,-1,573,1765,0,0
-644,-741,0,0,0,0,0,0,0,0,0,-1,580,1765,0,0
-637,-741,0,0,0,0,0,0,0,0,0,-1,587,1765,0,0
-630,-741,0,0,0,0,0,0,0,0,0,-1,594,1765,0,0
-623,-741,0,0,0,0,0,0,0,0,0,-1,601,1765,0,0
-616,-741,0,0,0,0,0,0,0,0,0,-1,608,1765,0,0
-609,-741,0,0,0,0,0,0,0,0,0,-1,615,1765,0,0
-602,-741,0,0,0,0,0,0,0,0,0,-1,622,1765,0,0
-595,-741,0,0,0,0,0,0,0,0,0,-1,629,1765,0,0
-588,-741,0,0,0,0,0,0,0,0,0,-1,636,1765,0,0
-581,-741,0,0,0,0,0,0,0,0,0,-1,643,1765,0,0
-574,-741,0,0,0,0,0,0,0,0,0,-1,650,1765,0,0
-567,-741,0,0,0,0,0,0,0,0,0,-1,657,1765,0,0
-560,-741,0,0,0,0,0,0,0,0,0,-1,664,1765,0,0
-553,-741,0,0,0,0,0,0,0,0,0,-1,671,1765,0,0
-546,-741,0,0,0,0,0,0,0,0,0,-1,678,1765,0,0
-539,-741,0,0,0,0,0,0,0,0,0,-1,685,1765,0,0
-532,-741,0,0,0,0,0,0,0,0,0,-1,692,1765,0,0
-525,-741,0,0,0,0,0,0,0,0,0,-1,699,1765,0,0
-518,-741,0,0,0,0,0,0,0,0,0,-1,706,1765,0,0
-511,-741,0,0,0,0,0,0,0,0,0,-1,713,1765,0,0
-504,-741,0,0,0,0,0,0,0,0,0,-1,720,1765,0,0
-497,-741,0,0,0,0,0,0,0,0,0,-1,727,1765,0,0
-490,-741,0,0,0,0,0,0,0,0,0,-1,734,1765,0,0
-483,-741,0,0,0,0,0,0,0,0,0,-1,741,1765,0,0
-476,-741,0,0,0,0,0,0,0,0,0,-1,748,1765,0,0
-469,-741,0,0,0,0,0,0,0,0,0,-1,755,1765,0,0
-462,-741,0,0,0,0,0,0,0,0,0,-1,762,1765,0,0
-455,-741,0,0,0,0,0,0,0,0,0,-1,769,1765,0,0
-448,-741,0,0,0,0,0,0,0,0,0,-1,776,1765,0,0
-441,-741,0,0,0,0,0,0,0,0,0,-1,783,1765,0,0
-434,-741,0,0,0,0,0,0,0,0,0,-1,790,1765,0,0
-427,-741,0,0,0,0,0,0,0,0,0,-1,797,1765,0,0
-420,-741,0,0,0,0,0,0,0,0,0,-1,804,1765,0,0
-413,-741,0,0,0,0,0,0,0,0,0,-1,811,1765,0,0
-406,-741,0,0,0,0,0,0,0,0,0,-1,818,1765,0,0
-399,-741,0,0,0,0,0,0,0,0,0,-1,825,1765,0,0
-392,-741,0,0,0,0,0,0,0,0,0,-1,832,1765,0,0
-385,-741,0,0,0,0,0,0,0,0,0,-1,839,1765,0,0
-378,-741,0,0,0,0,0,0,0,0,0,-1,846,1765,0,0
-371,-741,0,0,0,0,0,0,0,0,0,-1,853,1765,0,0
-364,-741,0,0,0,0,0,0,0,0,0,-1,860,1765,0,0
-357,-741,0,0,0,0,0,0,0,0,0,-1,867,1765,0,0
-350,-741,0,0,0,0,0,0,0,0,0,-1,874,1765,0,0
-343,-741,0,0,0,0,0,0,0,0,0,-1,881,1765,0,0
-336,-741,0,0,0,0,0,0,0,0,0,-1,888,1765,0,0
-329,-741,0,0,0,0,0,0,0,0,0,-1,895,1765,0,0
-322,-741,0,0,0,0,0,0,0,0,0,-1,902,1765,0,0
-315,-741,0,0,0,0,0,0,0,0,0,-1,909,1765,0,0
-308,-741,0,0,0,0,0,0,0,0,0,-1,916,1765,0,0
-301,-741,0,0,0,0,0,0,0,0,0,-1,923,1765,0,0
-294,-741,0,0,0,0,0,0,0,0,0,-1,930,1765,0,0
-287,-741,0,0,0,0,0,0,0,0,0,-1,937,1765,0,0
-280,-741,0,0,0,0,0,0,0,0,0,-1,944,1765,0,0
-273,-741,0,0,0,0,0,0,0,0,0,-1,951,1765,0,0
-266,-741,0,0,0,0,0,0,0,0,0,-1,958,1765,0,0
-259,-741,0,0,0,0,0,0,0,0,0,-1,965,1765,0,0
-252,-741,0,0,0,0,0,0,0,0,0,-1,972,1765,0,0
-245,-741,0,0,0,0,0,0,0,0,0,-1,979,1765,0,0
-238,-741,1.66083,15.1331,0,0,0,0,0,0,0,-1,986,1765,1.66083,-15.1331
-231,-741,2.35559,15.3511,0,0,0,0,0,0,0,-1,993,1765,2.35558,-15.351
-224,-741,5.71527,15.6881,0,0,0,0,0,0,0,-1,1000,1765,5.71528,-15.6881
-217,-741,5.78229,15.248,0,0,0,0,0,0,0,-1,1007,1765,5.78231,-15.2481
-210,-741,5.8493,14.8081,0,0,0,0,0,0,0,-1,1014,1765,5.84933,-14.8081
-203,-741,0.0250854,12.8517,0,0,0,0,0,0,0,-1,1021,1765,0.0250615,-12.8517
-196,-741,0.178589,13.0951,0,0,0,0,0,0,0,-1,1028,1765,0.178619,-13.0951
-189,-741,0.345947,13.1218,0,0,0,0,0,0,0,-1,1035,1765,0.345937,-13.1219
-182,-741,1.48218,11.8832,0,0,0,0,0,0,0,-1,1042,1765,1.48213,-11.8832
-175,-741,-0.73584,11.2106,0,0,0,0,0,0,0,-1,1049,1765,-0.735797,-11.2106
-168,-741,-1.35522,10.4541,0,0,0,0,0,0,0,-1,1056,1765,-1.35521,-10.4542
-161,-741,-2.08435,10.4089,0,0,0,0,0,0,0,-1,1063,1765,-2.08432,-10.4089
-154,-741,2.46143,9.75415,0,0,0,0,0,0,0,-1,1070,1765,2.46145,-9.75416
-147,-741,4.5166,13.2251,0,0,0,0,0,0,0,-1,1077,1765,4.51657,-13.2251
-140,-741,5.51221,15.9272,0,0,0,0,0,0,0,-1,1084,1765,5.51216,-15.9273
-133,-741,5.14709,16.1661,0,0,0,0,0,0,0,-1,1091,1765,5.14707,-16.1661
-126,-741,5.00415,15.8496,0.0174665,-0.0205681,-0.0266466,0.031186,-0.0342876,-0.475471,0.0378153,0.0458647,1098,1765,5.00411,-15.8497
-119,-741,4.7384,16.1459,0.018434,-0.0185902,-0.0268865,0.0325651,-0.0327213,-0.483906,0.0376932,0.0443154,1105,1765,4.73839,-16.1459
-112,-741,5.20081,16.4425,0.0190244,-0.0160194,-0.026521,0.033289,-0.030284,-0.493475,0.0367175,0.0392779,1112,1765,5.20079,-16.4425
-105,-741,5.5282,16.3185,0.0188112,-0.013175,-0.0255934,0.0329976,-0.0273614,-0.506138,0.0348988,0.0364575,1119,1765,5.52821,-16.3185
-98,-741,5.55823,16.3873,0.0177954,-0.0103475,-0.0240208,0.0315629,-0.024115,-0.520441,0.0322414,0.0435906,1126,1765,5.55819,-16.3873
-91,-741,5.18579,16.5338,0,0,0,0,0,0,0,-1,1133,1765,5.18574,-16.5338
-84,-741,5.1178,16.4911,0,0,0,0,0,0,0,-1,1140,1765,5.11781,-16.4911
-77,-741,5.12415,16.5337,0,0,0,0,0,0,0,-1,1147,1765,5.1241,-16.5337
-70,-741,5.09961,16.6881,0,0,0,0,0,0,0,-1,1154,1765,5.09959,-16.6881
-63,-741,5.06055,16.8752,0,0,0,0,0,0,0,-1,1161,1765,5.06061,-16.8753
-56,-741,5.06042,16.9955,0,0,0,0,0,0,0,-1,1168,1765,5.0604,-16.9954
-49,-741,5.05823,17.1075,0,0,0,0,0,0,0,-1,1175,1765,5.05828,-17.1076
-42,-741,5.04248,17.1881,0,0,0,0,0,0,0,-1,1182,1765,5.04249,-17.1881
-35,-741,5.05396,17.255,0.00732565,0.00486031,-0.012676,0.0188288,-0.00664281,-0.736928,0.0152567,0.0200574,1189,1765,5.05393,-17.255
-28,-741,5.05176,17.3204,0.00849711,0.0043318,-0.0130596,0.0196391,-0.00681021,-0.706328,0.015858,0.0134113,1196,1765,5.05175,-17.3204
-21,-741,5.05261,17.3752,0.0089981,0.00388883,-0.0134051,0.0200898,-0.0072029,-0.691241,0.0163325,0.0172677,1203,1765,5.05257,-17.3753
-14,-741,5.04431,17.4355,0.0086613,0.00383454,-0.0132137,0.0196802,-0.00718438,-0.695073,0.0160598,0.0176282,1210,1765,5.04432,-17.4356
-7,-741,5.05701,17.4564,0.00798235,0.00350651,-0.0123522,0.0182978,-0.00680891,-0.695783,0.0149927,0.0154937,1217,1765,5.05698,-17.4565
0,-741,5.04468,17.5027,0.00732957,0.00309357,-0.0114661,0.0168716,-0.00644846,-0.694068,0.0139049,0.0153031,1224,1765,5.04467,-17.5027
7,-741,5.02246,17.5815,0.00640597,0.00247526,-0.0102152,0.0148432,-0.00596194,-0.690362,0.0123713,0.0172331,1231,1765,5.02251,-17.5815
14,-741,5.00342,17.6216,0.0054156,0.00177596,-0.00883782,0.012619,-0.00542746,-0.683861,0.0106914,0.0165006,1238,1765,5.00337,-17.6216
21,-741,4.97791,17.6356,0.00440702,0.000996623,-0.00741932,0.0103146,-0.00491094,-0.672444,0.0089731,0.0124601,1245,1765,4.97795,-17.6357
28,-741,4.95081,17.6813,0.00353159,0.000158554,-0.00599578,0.00807354,-0.00438339,-0.648299,0.00729644,0.0127371,1252,1765,4.95082,-17.6813
35,-741,4.98267,17.7014,0.00284616,-0.000523867,-0.00452578,0.00599043,-0.00366813,-0.607191,0.00562984,0.0139408,1259,1765,4.98271,-17.7014
42,-741,5.00806,17.7161,0.00203927,-0.00115082,-0.00270879,0.00358774,-0.00269929,-0.519312,0.00364188,0.0140343,1266,1765,5.00805,-17.7161
49,-741,4.96375,17.7324,0.00165609,-0.00154902,-0.000944254,0.00191358,-0.00180652,-0.266227,0.0021481,0.00911369,1273,1765,4.96377,-17.7325
56,-741,4.94141,17.7533,0.0019276,-0.00189521,0.000372454,0.00196355,-0.00193116,0.0962237,0.00224863,0.0085721,1280,1765,4.9414,-17.7533
63,-741,4.96118,17.7476,0.00221145,-0.0019409,0.00161697,0.00276683,-0.00249628,0.330846,0.00304,0.0122705,1287,1765,4.96114,-17.7476
70,-741,4.95776,17.7701,0.00239407,-0.00203901,0.00250046,0.00351899,-0.00316393,0.422758,0.0038602,0.0153598,1294,1765,4.95775,-17.7701
77,-741,4.94714,17.8203,0.00250772,-0.00144541,0.00350995,0.00455938,-0.00349707,0.528963,0.00466485,0.0141123,1301,1765,4.94714,-17.8203
84,-741,4.91541,17.8258,0.00279767,-0.000924365,0.00448277,0.00579038,-0.00391707,0.588649,0.00563927,0.0163811,1308,1765,4.91543,-17.8258
91,-741,4.91284,17.816,0.00342626,-0.000731872,0.00494132,0.00670808,-0.0040137,0.586265,0.00625503,0.0127669,1315,1765,4.91283,-17.816
98,-741,4.93286,17.7733,0.00388801,-0.000415523,0.00476759,0.00696693,-0.00349444,0.573418,0.00614978,0.00959736,1322,1765,4.93281,-17.7733
105,-741,4.94385,17.7394,0.00383287,-0.000163843,0.00449293,0.00675181,-0.00308279,0.576147,0.00580823,0.0103946,1329,1765,4.94383,-17.7394
112,-741,4.95459,17.7258,0.00363018,3.90953e-05,0.00412323,0.00633186,-0.00266259,0.580046,0.00533504,0.0107707,1336,1765,4.95461,-17.7258
119,-741,4.93201,17.7152,0.00315666,0.000103301,0.00382594,0.00574927,-0.00248931,0.595562,0.0048791,0.0135236,1343,1765,4.93199,-17.7152
126,-741,4.9325,17.6678,0.00259622,0.0001227,0.0036537,0.0052168,-0.00249788,0.622203,0.00454534,0.0181402,1350,1765,4.93256,-17.6678
133,-741,4.9292,17.6387,0.00187145,0.000108798,0.00348218,0.0045821,-0.00260186,0.661453,0.00419986,0.0133401,1357,1765,4.92925,-17.6387
140,-741,4.89111,17.6195,0.00114025,-0.000176629,0.00331947,0.00386595,-0.00290234,0.687491,0.00392085,0.0102177,1364,1765,4.8911,-17.6195
147,-741,4.89001,17.6119,0.000662064,-0.000502661,0.0030042,0.00313983,-0.00298042,0.689661,0.00353393,0.00950484,1371,1765,4.88999,-17.6119
154,-741,4.88867,17.5972,-9.97312e-05,-0.000705607,0.00244117,0.00205723,-0.00286257,0.723666,0.0028531,0.0082762,1378,1765,4.8887,-17.5972
161,-741,4.87964,17.5402,-0.000820678,-0.000906786,0.00175028,0.000887081,-0.00261455,0.773101,0.00210207,0.0104349,1385,1765,4.87958,-17.5401
168,-741,4.85144,17.5006,-0.00101271,-0.00152548,0.00102409,-0.000213401,-0.00232478,0.662743,0.00148385,0.0234613,1392,1765,4.85146,-17.5006
175,-741,4.81433,17.4662,0,0,0,0,0,0,0,-1,1399,1765,4.81434,-17.4662
182,-741,4.88013,17.3822,0,0,0,0,0,0,0,-1,1406,1765,4.88008,-17.3822
189,-741,4.84827,17.3359,0,0,0,0,0,0,0,-1,1413,1765,4.84829,-17.3359
196,-741,4.8186,17.2896,0,0,0,0,0,0,0,-1,1420,1765,4.81864,-17.2895
203,-741,4.90784,16.9417,0,0,0,0,0,0,0,-1,1427,1765,4.90784,-16.9416
210,-741,4.78467,17.0865,0.00137586,0.00672559,-0.000490301,0.00677016,0.0013313,-1.48015,0.00414162,0.0475762,1434,1765,4.78461,-17.0865
217,-741,4.82703,17.0376,0.00202573,0.00863713,-0.000322439,0.00865282,0.00201004,-1.52218,0.00522894,0.0226394,1441,1765,4.82708,-17.0376
224,-741,4.87683,16.9532,0.00254102,0.0104009,-0.000253239,0.010409,0.00253287,-1.53862,0.00626803,0.0240809,1448,1765,4.87678,-16.9532
231,-741,4.89551,16.8961,0.00288537,0.0120745,-0.000225375,0.01208,0.00287984,-1.54629,0.00728566,0.0330519,1455,1765,4.89547,-16.8961
238,-741,4.84045,16.7809,0.00329425,0.0135066,-0.000263098,0.0135133,0.00328748,-1.54506,0.00813751,0.0362506,1462,1765,4.84048,-16.7809
245,-741,4.58411,16.4077,0.00376548,0.0147804,-0.000371416,0.0147929,0.00375297,-1.53713,0.0088794,0.0439833,1469,1765,4.58415,-16.4077
252,-741,4.89063,16.4323,0,0,0,0,0,0,0,-1,1476,1765,4.89066,-16.4323
259,-741,4.9696,16.6471,0,0,0,0,0,0,0,-1,1483,1765,4.96961,-16.6471
266,-741,4.40173,15.2345,0,0,0,0,0,0,0,-1,1490,1765,4.40175,-15.2345
273,-741,17.0328,7.54468,0,0,0,0,0,0,0,-1,1497,1765,17.0328,-7.54474
280,-741,15.7959,7.14307,0,0,0,0,0,0,0,-1,1504,1765,15.7959,-7.14305
287,-741,13.988,6.99292,0,0,0,0,0,0,0,-1,1511,1765,13.988,-6.99287
294,-741,12.3752,7.18066,0,0,0,0,0,0,0,-1,1518,1765,12.3752,-7.18061
301,-741,10.2242,6.40942,0,0,0,0,0,0,0,-1,1525,1765,10.2242,-6.40947
308,-741,8.27747,6.42419,0,0,0,0,0,0,0,-1,1532,1765,8.27746,-6.42424
315,-741,7.94568,6.22974,0,0,0,0,0,0,0,-1,1539,1765,7.94567,-6.22972
322,-741,3.08521,12.3561,0,0,0,0,0,0,0,-1,1546,1765,3.08526,-12.3561
329,-741,4.46472,13.5316,0,0,0,0,0,0,0,-1,1553,1765,4.46467,-13.5316
336,-741,4.74475,14.6453,0,0,0,0,0,0,0,-1,1560,1765,4.7447,-14.6452
343,-741,5.42297,5.93701,0,0,0,0,0,0,0,-1,1567,1765,5.42296,-5.937
350,-741,4.90369,5.44666,0,0,0,0,0,0,0,-1,1574,1765,4.90368,-5.44664
357,-741,4.02063,5.16626,0,0,0,0,0,0,0,-1,1581,1765,4.02058,-5.1662
364,-741,0,0,0,0,0,0,0,0,0,-1,1588,1765,0,0
371,-741,0,0,0,0,0,0,0,0,0,-1,1595,1765,0,0
378,-741,0,0,0,0,0,0,0,0,0,-1,1602,1765,0,0
385,-741,0,0,0,0,0,0,0,0,0,-1,1609,1765,0,0
392,-741,0,0,0,0,0,0,0,0,0,-1,1616,1765,0,0
399,-741,0,0,0,0,0,0,0,0,0,-1,1623,1765,0,0
406,-741,0,0,0,0,0,0,0,0,0,-1,1630,1765,0,0
413,-741,0,0,0,0,0,0,0,0,0,-1,1637,1765,0,0
420,-741,0,0,0,0,0,0,0,0,0,-1,1644,1765,0,0
427,-741,0,0,0,0,0,0,0,0,0,-1,1651,1765,0,0
434,-741,0,0,0,0,0,0,0,0,0,-1,1658,1765,0,0
441,-741,0,0,0,0,0,0,0,0,0,-1,1665,1765,0,0
448,-741,0,0,0,0,0,0,0,0,0,-1,1672,1765,0,0
455,-741,0,0,0,0,0,0,0,0,0,-1,1679,1765,0,0
462,-741,0,0,0,0,0,0,0,0,0,-1,1686,1765,0,0
469,-741,0,0,0,0,0,0,0,0,0,-1,1693,1765,0,0
476,-741,0,0,0,0,0,0,0,0,0,-1,1700,1765,0,0
483,-741,0,0,0,0,0,0,0,0,0,-1,1707,1765,0,0
490,-741,0,0,0,0,0,0,0,0,0,-1,1714,1765,0,0
497,-741,0,0,0,0,0,0,0,0,0,-1,1721,1765,0,0
504,-741,0,0,0,0,0,0,0,0,0,-1,1728,1765,0,0
511,-741,0,0,0,0,0,0,0,0,0,-1,1735,1765,0,0
518,-741,0,0,0,0,0,0,0,0,0,-1,1742,1765,0,0
525,-741,0,0,0,0,0,0,0,0,0,-1,1749,1765,0,0
532,-741,0,0,0,0,0,0,0,0,0,-1,1756,1765,0,0
539,-741,0,0,0,0,0,0,0,0,0,-1,1763,1765,0,0
546,-741,0,0,0,0,0,0,0,0,0,-1,1770,1765,0,0
553,-741,0,0,0,0,0,0,0,0,0,-1,1777,1765,0,0
560,-741,0,0,0,0,0,0,0,0,0,-1,1784,1765,0,0
567,-741,0,0,0,0,0,0,0,0,0,-1,1791,1765,0,0
574,-741,0,0,0,0,0,0,0,0,0,-1,1798,1765,0,0
581,-741,0,0,0,0,0,0,0,0,0,-1,1805,1765,0,0
588,-741,0,0,0,0,0,0,0,0,0,-1,1812,1765,0,0
595,-741,0,0,0,0,0,0,0,0,0,-1,1819,1765,0,0
602,-741,0,0,0,0,0,0,0,0,0,-1,1826,1765,0,0
609,-741,0,0,0,0,0,0,0,0,0,-1,1833,1765,0,0
616,-741,0,0,0,0,0,0,0,0,0,-1,1840,1765,0,0
623,-741,0,0,0,0,0,0,0,0,0,-1,1847,1765,0,0
630,-741,0,0,0,0,0,0,0,0,0,-1,1854,1765,0,0
637,-741,0,0,0,0,0,0,0,0,0,-1,1861,1765,0,0
644,-741,0,0,0,0,0,0,0,0,0,-1,1868,1765,0,0
651,-741,0,0,0,0,0,0,0,0,0,-1,1875,1765,0,0
658,-741,0,0,0,0,0,0,0,0,0,-1,1882,1765,0,0
665,-741,0,0,0,0,0,0,0,0,0,-1,1889,1765,0,0
672,-741,0,0,0,0,0,0,0,0,0,-1,1896,1765,0,0
679,-741,0,0,0,0,0,0,0,0,0,-1,1903,1765,0,0
686,-741,0,0,0,0,0,0,0,0,0,-1,1910,1765,0,0
693,-741,0,0,0,0,0,0,0,0,0,-1,1917,1765,0,0
700,-741,0,0,0,0,0,0,0,0,0,-1,1924,1765,0,0
707,-741,0,0,0,0,0,0,0,0,0,-1,1931,1765,0,0
714,-741,0,0,0,0,0,0,0,0,0,-1,1938,1765,0,0
721,-741,0,0,0,0,0,0,0,0,0,-1,1945,1765,0,0
728,-741,0,0,0,0,0,0,0,0,0,-1,1952,1765,0,0
735,-741,0,0,0,0,0,0,0,0,0,-1,1959,1765,0,0
742,-741,0,0,0,0,0,0,0,0,0,-1,1966,1765,0,0
749,-741,0,0,0,0,0,0,0,0,0,-1,1973,1765,0,0
756,-741,0,0,0,0,0,0,0,0,0,-1,1980,1765,0,0
763,-741,0,0,0,0,0,0,0,0,0,-1,1987,1765,0,0
770,-741,0,0,0,0,0,0,0,0,0,-1,1994,1765,0,0
777,-741,0,0,0,0,0,0,0,0,0,-1,2001,1765,0,0
784,-741,0,0,0,0,0,0,0,0,0,-1,2008,1765,0,0
791,-741,0,0,0,0,0,0,0,0,0,-1,2015,1765,0,0
798,-741,0,0,0,0,0,0,0,0,0,-1,2022,1765,0,0
805,-741,0,0,0,0,0,0,0,0,0,-1,2029,1765,0,0
812,-741,0,0,0,0,0,0,0,0,0,-1,2036,1765,0,0
-700,-748,0,0,0,0,0,0,0,0,0,-1,524,1772,0,0
-693,-748,0,0,0,0,0,0,0,0,0,-1,531,1772,0,0
-686,-748,0,0,0,0,0,0,0,0,0,-1,538,1772,0,0
-679,-748,0,0,0,0,0,0,0,0,0,-1,545,1772,0,0
-672,-748,0,0,0,0,0,0,0,0,0,-1,552,1772,0,0
-665,-748,0,0,0,0,0,0,0,0,0,-1,559,1772,0,0
-658,-748,0,0,0,0,0,0,0,0,0,-1,566,1772,0,0
-651,-748,0,0,0,0,0,0,0,0,0,-1,573,1772,0,0
-644,-748,0,0,0,0,0,0,0,0,0,-1,580,1772,0,0
-637,-748,0,0,0,0,0,0,0,0,0,-1,587,1772,0,0
-630,-748,0,0,0,0,0,0,0,0,0,-1,594,1772,0,0
-623,-748,0,0,0,0,0,0,0,0,0,-1,601,1772,0,0
-616,-748,0,0,0,0,0,0,0,0,0,-1,608,1772,0,0
-609,-748,0,0,0,0,0,0,0,0,0,-1,615,1772,0,0
-602,-748,0,0,0,0,0,0,0,0,0,-1,622,1772,0,0
-595,-748,0,0,0,0,0,0,0,0,0,-1,629,1772,0,0
-588,-748,0,0,0,0,0,0,0,0,0,-1,636,1772,0,0
-581,-748,0,0,0,0,0,0,0,0,0,-1,643,1772,0,0
-574,-748,0,0,0,0,0,0,0,0,0,-1,650,1772,0,0
-567,-748,0,0,0,0,0,0,0,0,0,-1,657,1772,0,0
-560,-748,0,0,0,0,0,0,0,0,0,-1,664,1772,0,0
-553,-748,0,0,0,0,0,0,0,0,0,-1,671,1772,0,0
-546,-748,0,0,0,0,0,0,0,0,0,-1,678,1772,0,0
-539,-748,0,0,0,0,0,0,0,0,0,-1,685,1772,0,0
-532,-748,0,0,0,0,0,0,0,0,0,-1,692,1772,0,0
-525,-748,0,0,0,0,0,0,0,0,0,-1,699,1772,0,0
-518,-748,0,0,0,0,0,0,0,0,0,-1,706,1772,0,0
-511,-748,0,0,0,0,0,0,0,0,0,-1,713,1772,0,0
-504,-748,0,0,0,0,0,0,0,0,0,-1,720,1772,0,0
-497,-748,0,0,0,0,0,0,0,0,0,-1,727,1772,0,0
-490,-748,0,0,0,0,0,0,0,0,0,-1,734,1772,0,0
-483,-748,0,0,0,0,0,0,0,0,0,-1,741,1772,0,0
-476,-748,0,0,0,0,0,0,0,0,0,-1,748,1772,0,0
-469,-748,0,0,0,0,0,0,0,0,0,-1,755,1772,0,0
-462,-748,0,0,0,0,0,0,0,0,0,-1,762,1772,0,0
-455,-748,0,0,0,0,0,0,0,0,0,-1,769,1772,0,0
-448,-748,0,0,0,0,0,0,0,0,0,-1,776,1772,0,0
-441,-748,0,0,0,0,0,0,0,0,0,-1,783,1772,0,0
-434,-748,0,0,0,0,0,0,0,0,0,-1,790,1772,0,0
-427,-748,0,0,0,0,0,0,0,0,0,-1,797,1772,0,0
-420,-748,0,0,0,0,0,0,0,0,0,-1,804,1772,0,0
-413,-748,0,0,0,0,0,0,0,0,0,-1,811,1772,0,0
-406,-748,0,0,0,0,0,0,0,0,0,-1,818,1772,0,0
-399,-748,0,0,0,0,0,0,0,0,0,-1,825,1772,0,0
-392,-748,0,0,0,0,0,0,0,0,0,-1,832,1772,0,0
-385,-748,0,0,0,0,0,0,0,0,0,-1,839,1772,0,0
-378,-748,0,0,0,0,0,0,0,0,0,-1,846,1772,0,0
-371,-748,0,0,0,0,0,0,0,0,0,-1,853,1772,0,0
-364,-748,0,0,0,0,0,0,0,0,0,-1,860,1772,0,0
-357,-748,0,0,0,0,0,0,0,0,0,-1,867,1772,0,0
-350,-748,0,0,0,0,0,0,0,0,0,-1,874,1772,0,0
-343,-748,0,0,0,0,0,0,0,0,0,-1,881,1772,0,0
-336,-748,0,0,0,0,0,0,0,0,0,-1,888,1772,0,0
-329,-748,0,0,0,0,0,0,0,0,0,-1,895,1772,0,0
-322,-748,0,0,0,0,0,0,0,0,0,-1,902,1772,0,0
-315,-748,0,0,0,0,0,0,0,0,0,-1,909,1772,0,0
-308,-748,0,0,0,0,0,0,0,0,0,-1,916,1772,0,0
-301,-748,0,0,0,0,0,0,0,0,0,-1,923,1772,0,0
-294,-748,0,0,0,0,0,0,0,0,0,-1,930,1772,0,0
-287,-748,0,0,0,0,0,0,0,0,0,-1,937,1772,0,0
-280,-748,0,0,0,0,0,0,0,0,0,-1,944,1772,0,0
-273,-748,0,0,0,0,0,0,0,0,0,-1,951,1772,0,0
-266,-748,0,0,0,0,0,0,0,0,0,-1,958,1772,0,0
-259,-748,0,0,0,0,0,0,0,0,0,-1,965,1772,0,0
-252,-748,0,0,0,0,0,0,0,0,0,-1,972,1772,0,0
-245,-748,0,0,0,0,0,0,0,0,0,-1,979,1772,0,0
-238,-748,0,0,0,0,0,0,0,0,0,-1,986,1772,0,0
-231,-748,0,0,0,0,0,0,0,0,0,-1,993,1772,0,0
-224,-748,0,0,0,0,0,0,0,0,0,-1,1000,1772,0,0
-217,-748,6.0882,15.7745,0,0,0,0,0,0,0,-1,1007,1772,6.08817,-15.7745
-210,-748,6.56482,15.8542,0,0,0,0,0,0,0,-1,1014,1772,6.56483,-15.8542
-203,-748,7.08105,16.2065,0,0,0,0,0,0,0,-1,1021,1772,7.0811,-16.2065
-196,-748,-1.09497,13.6892,0,0,0,0,0,0,0,-1,1028,1772,-1.09499,-13.6892
-189,-748,2.37354,13.27,0,0,0,0,0,0,0,-1,1035,1772,2.37358,-13.27
-182,-748,-0.0217285,13.3839,0,0,0,0,0,0,0,-1,1042,1772,-0.0216734,-13.3839
-175,-748,-0.924438,12.27,0,0,0,0,0,0,0,-1,1049,1772,-0.924469,-12.2701
-168,-748,-1.58691,11.4213,0,0,0,0,0,0,0,-1,1056,1772,-1.58695,-11.4212
-161,-748,-2.52185,11.0562,0,0,0,0,0,0,0,-1,1063,1772,-2.52188,-11.0561
-154,-748,-3.38562,10.6989,0,0,0,0,0,0,0,-1,1070,1772,-3.38564,-10.6989
-147,-748,-4.87122,10.7748,0,0,0,0,0,0,0,-1,1077,1772,-4.87117,-10.7748
-140,-748,5.61768,19.319,0,0,0,0,0,0,0,-1,1084,1772,5.6177,-19.319
-133,-748,5.62866,18.3196,0,0,0,0,0,0,0,-1,1091,1772,5.62866,-18.3196
-126,-748,5.59692,17.7343,0.0272759,-0.0302766,-0.0387467,0.0467633,-0.049764,-0.465999,0.055739,0.0441976,1098,1772,5.59698,-17.7343
-119,-748,5.672,17.124,0.0285351,-0.0270542,-0.0389658,0.0486036,-0.0471227,-0.475597,0.0552698,0.0406497,1105,1772,5.67201,-17.124
-112,-748,5.89307,16.58,0.0292495,-0.0232224,-0.0385523,0.0496462,-0.0436191,-0.486629,0.0538842,0.0409207,1112,1772,5.89307,-16.5799
-105,-748,6.26343,16.2991,0.0288994,-0.0191586,-0.0373838,0.0493107,-0.0395699,-0.499762,0.0514179,0.0492761,1119,1772,6.26342,-16.2991
-98,-748,6.4729,15.9026,0,0,0,0,0,0,0,-1,1126,1772,6.47287,-15.9026
-91,-748,4.85352,15.3033,0,0,0,0,0,0,0,-1,1133,1772,4.85351,-15.3033
-84,-748,-0.192017,7.26196,0,0,0,0,0,0,0,-1,1140,1772,-0.192047,-7.26201
-77,-748,4.42615,13.5537,0,0,0,0,0,0,0,-1,1147,1772,4.4261,-13.5538
-70,-748,4.46191,13.7446,0,0,0,0,0,0,0,-1,1154,1772,4.4619,-13.7446
-63,-748,4.49768,13.9355,0,0,0,0,0,0,0,-1,1161,1772,4.49769,-13.9355
-56,-748,3.05762,7.87817,0,0,0,0,0,0,0,-1,1168,1772,3.05768,-7.87822
-49,-748,3.04102,7.82471,0,0,0,0,0,0,0,-1,1175,1772,3.04096,-7.82468
-42,-748,0.793457,14.9474,0,0,0,0,0,0,0,-1,1182,1772,0.793413,-14.9474
-35,-748,5.12659,17.2147,0,0,0,0,0,0,0,-1,1189,1772,5.12661,-17.2148
-28,-748,5.08167,17.3982,0.0149933,0.00445794,-0.0240673,0.0343627,-0.0149115,-0.677661,0.0291779,0.0487286,1196,1772,5.08167,-17.3982
-21,-748,5.14099,17.3997,0.0154238,0.00401231,-0.0240782,0.0344631,-0.015027,-0.66906,0.0292984,0.0229225,1203,1772,5.14103,-17.3996
-14,-748,5.11707,17.3995,0.0149081,0.00405564,-0.0233926,0.0334955,-0.0145318,-0.671431,0.02844,0.0150388,1210,1772,5.1171,-17.3996
-7,-748,5.08447,17.4441,0.0139086,0.00383243,-0.0219498,0.0313911,-0.01365,-0.672588,0.0266685,0.0150117,1217,1772,5.08445,-17.4441
0,-748,5.07422,17.5045,0.0128062,0.00339204,-0.0202513,0.0288903,-0.0126921,-0.671209,0.0246073,0.0147459,1224,1772,5.07419,-17.5045
7,-748,5.07361,17.5532,0.0113203,0.00269082,-0.0180154,0.0255305,-0.0115193,-0.667861,0.0218946,0.0138669,1231,1772,5.07365,-17.5533
14,-748,5.03625,17.6034,0.009766,0.00188942,-0.0156661,0.0219813,-0.0103259,-0.662256,0.0190529,0.0149356,1238,1772,5.0363,-17.6033
21,-748,5.00452,17.6213,0.00816404,0.000963122,-0.0132064,0.018252,-0.00912483,-0.652318,0.0160962,0.0114101,1245,1772,5.00454,-17.6213
28,-748,4.98792,17.6611,0.00672127,-6.13708e-05,-0.010731,0.014584,-0.00792415,-0.632349,0.0131834,0.0116713,1252,1772,4.98795,-17.6611
35,-748,5.00061,17.6936,0.00553206,-0.000900776,-0.00807115,0.0110041,-0.00637279,-0.595788,0.0101506,0.011894,1259,1772,5.00065,-17.6936
42,-748,5.00073,17.7112,0.00425,-0.00163393,-0.00496617,0.00708021,-0.00446414,-0.517991,0.00672193,0.0129432,1266,1772,5.00079,-17.7112
49,-748,4.98364,17.7211,0.00353458,-0.00196991,-0.00193665,0.00414767,-0.00258299,-0.30659,0.00392079,0.00977738,1273,1772,4.9837,-17.721
56,-748,4.95654,17.748,0.00368593,-0.00217068,0.000420626,0.00371599,-0.00220073,0.0713328,0.00345316,0.00912359,1280,1772,4.95656,-17.748
63,-748,4.9657,17.7388,0.00377994,-0.00175549,0.0027641,0.00492381,-0.00289936,0.392372,0.00456684,0.0108614,1287,1772,4.96572,-17.7388
70,-748,4.96594,17.7533,0.00388638,-0.00157462,0.00451353,0.00643107,-0.00411931,0.513369,0.00613981,0.0137816,1294,1772,4.96599,-17.7533
77,-748,4.95862,17.7732,0.0039821,-0.000461995,0.00626264,0.00840521,-0.00488511,0.614921,0.00776237,0.0134638,1301,1772,4.95867,-17.7732
84,-748,4.92639,17.8108,0.00433111,0.000637997,0.00783801,0.0105371,-0.00556803,0.669713,0.00944471,0.0145021,1308,1772,4.92636,-17.8108
91,-748,4.92102,17.8,0.00513524,0.00131358,0.00863616,0.0120694,-0.00562062,0.676523,0.0104371,0.0112934,1315,1772,4.921,-17.8
98,-748,4.91772,17.7715,0.00578026,0.00208367,0.00842396,0.0125563,-0.00469237,0.677405,0.0102977,0.0107659,1322,1772,4.91774,-17.7715
105,-748,4.92383,17.7395,0.00576368,0.0027402,0.00801397,0.0124073,-0.00390337,0.692175,0.00983432,0.0123594,1329,1772,4.92387,-17.7395
112,-748,4.94836,17.71,0.00554039,0.00326518,0.00749191,0.0119806,-0.003175,0.710051,0.00922926,0.0152178,1336,1772,4.94842,-17.7099
119,-748,4.92273,17.7167,0.00488839,0.00345882,0.00715489,0.0113641,-0.00301689,0.735613,0.00875669,0.0130324,1343,1772,4.9227,-17.7167
126,-748,4.90564,17.7073,0.00408919,0.00347075,0.00695053,0.0107374,-0.00317744,0.763169,0.00841968,0.0145897,1350,1772,4.90569,-17.7072
133,-748,4.86121,17.6583,0.00308652,0.00322437,0.00668562,0.00984142,-0.00353053,0.790553,0.00800177,0.00857889,1357,1772,4.86125,-17.6583
140,-748,4.8407,17.6486,0.0020285,0.00257111,0.00634718,0.00865278,-0.00405317,0.806757,0.00749429,0.010647,1364,1772,4.84066,-17.6486
147,-748,4.88416,17.6187,0.0012963,0.00162972,0.00576585,0.00723127,-0.00430525,0.799851,0.00673164,0.0121287,1371,1772,4.88413,-17.6187
154,-748,4.85425,17.5857,0.000167312,0.000761653,0.00477365,0.00524738,-0.00431841,0.816484,0.00553149,0.0111417,1378,1772,4.85427,-17.5857
161,-748,4.83496,17.5579,-0.000842498,-0.00031044,0.00343723,0.00287104,-0.00402398,0.824019,0.00399935,0.0190842,1385,1772,4.83491,-17.5578
168,-748,4.83838,17.5549,0,0,0,0,0,0,0,-1,1392,1772,4.83838,-17.5549
175,-748,10.4908,15.5613,0,0,0,0,0,0,0,-1,1399,1772,10.4909,-15.5612
182,-748,7.62476,10.3058,0,0,0,0,0,0,0,-1,1406,1772,7.62476,-10.3058
189,-748,6.15857,6.95898,0,0,0,0,0,0,0,-1,1413,1772,6.15862,-6.95896
196,-748,3.9425,8.46021,0,0,0,0,0,0,0,-1,1420,1772,3.9425,-8.46026
203,-748,3.9668,12.9835,0,0,0,0,0,0,0,-1,1427,1772,3.96678,-12.9836
210,-748,4.71472,16.8318,0,0,0,0,0,0,0,-1,1434,1772,4.71471,-16.8317
217,-748,4.89648,16.9596,0,0,0,0,0,0,0,-1,1441,1772,4.89646,-16.9596
224,-748,4.92822,17.2616,0,0,0,0,0,0,0,-1,1448,1772,4.92817,-17.2616
231,-748,3.71594,17.1621,0,0,0,0,0,0,0,-1,1455,1772,3.71596,-17.1622
238,-748,3.79626,16.5718,0.00537753,0.0194619,0.00054799,0.0194832,0.00535624,1.53197,0.0116224,0.0476679,1462,1772,3.79624,-16.5718
245,-748,4.06714,15.9716,0.00608678,0.0214242,0.00045895,0.021438,0.00607306,1.54091,0.0127589,0.0498029,1469,1772,4.06713,-15.9716
252,-748,4.15894,15.2162,0,0,0,0,0,0,0,-1,1476,1772,4.15889,-15.2162
259,-748,4.37708,14.7086,0,0,0,0,0,0,0,-1,1483,1772,4.37712,-14.7086
266,-748,17.9011,7.59448,0,0,0,0,0,0,0,-1,1490,1772,17.9011,-7.59452
273,-748,16.4131,7.57129,0,0,0,0,0,0,0,-1,1497,1772,16.413,-7.57125
280,-748,15.2177,7.24829,0,0,0,0,0,0,0,-1,1504,1772,15.2176,-7.24833
287,-748,13.697,6.93396,0,0,0,0,0,0,0,-1,1511,1772,13.697,-6.93401
294,-748,11.8735,6.83142,0,0,0,0,0,0,0,-1,1518,1772,11.8735,-6.83142
301,-748,10.1475,7.08789,0,0,0,0,0,0,0,-1,1525,1772,10.1474,-7.08787
308,-748,8.37451,7.6344,0,0,0,0,0,0,0,-1,1532,1772,8.37447,-7.63443
315,-748,6.65149,8.06299,0,0,0,0,0,0,0,-1,1539,1772,6.65144,-8.063
322,-748,2.9469,13.4518,0,0,0,0,0,0,0,-1,1546,1772,2.94694,-13.4518
329,-748,3.48315,14.6533,0,0,0,0,0,0,0,-1,1553,1772,3.48316,-14.6534
336,-748,3.76001,15.8163,0,0,0,0,0,0,0,-1,1560,1772,3.75995,-15.8163
343,-748,0,0,0,0,0,0,0,0,0,-1,1567,1772,0,0
350,-748,0,0,0,0,0,0,0,0,0,-1,1574,1772,0,0
357,-748,0,0,0,0,0,0,0,0,0,-1,1581,1772,0,0
364,-748,0,0,0,0,0,0,0,0,0,-1,1588,1772,0,0
371,-748,0,0,0,0,0,0,0,0,0,-1,1595,1772,0,0
378,-748,0,0,0,0,0,0,0,0,0,-1,1602,1772,0,0
385,-748,0,0,0,0,0,0,0,0,0,-1,1609,1772,0,0
392,-748,0,0,0,0,0,0,0,0,0,-1,1616,1772,0,0
399,-748,0,0,0,0,0,0,0,0,0,-1,1623,1772,0,0
406,-748,0,0,0,0,0,0,0,0,0,-1,1630,1772,0,0
413,-748,0,0,0,0,0,0,0,0,0,-1,1637,1772,0,0
420,-748,0,0,0,0,0,0,0,0,0,-1,1644,1772,0,0
427,-748,0,0,0,0,0,0,0,0,0,-1,1651,1772,0,0
434,-748,0,0,0,0,0,0,0,0,0,-1,1658,1772,0,0
441,-748,0,0,0,0,0,0,0,0,0,-1,1665,1772,0,0
448,-748,0,0,0,0,0,0,0,0,0,-1,1672,1772,0,0
455,-748,0,0,0,0,0,0,0,0,0,-1,1679,1772,0,0
462,-748,0,0,0,0,0,0,0,0,0,-1,1686,1772,0,0
469,-748,0,0,0,0,0,0,0,0,0,-1,1693,1772,0,0
476,-748,0,0,0,0,0,0,0,0,0,-1,1700,1772,0,0
483,-748,0,0,0,0,0,0,0,0,0,-1,1707,1772,0,0
490,-748,0,0,0,0,0,0,0,0,0,-1,1714,1772,0,0
497,-748,0,0,0,0,0,0,0,0,0,-1,1721,1772,0,0
504,-748,0,0,0,0,0,0,0,0,0,-1,1728,1772,0,0
511,-748,0,0,0,0,0,0,0,0,0,-1,1735,1772,0,0
518,-748,0,0,0,0,0,0,0,0,0,-1,1742,1772,0,0
525,-748,0,0,0,0,0,0,0,0,0,-1,1749,1772,0,0
532,-748,0,0,0,0,0,0,0,0,0,-1,1756,1772,0,0
539,-748,0,0,0,0,0,0,0,0,0,-1,1763,1772,0,0
546,-748,0,0,0,0,0,0,0,0,0,-1,1770,1772,0,0
553,-748,0,0,0,0,0,0,0,0,0,-1,1777,1772,0,0
560,-748,0,0,0,0,0,0,0,0,0,-1,1784,1772,0,0
567,-748,0,0,0,0,0,0,0,0,0,-1,1791,1772,0,0
574,-748,0,0,0,0,0,0,0,0,0,-1,1798,1772,0,0
581,-748,0,0,0,0,0,0,0,0,0,-1,1805,1772,0,0
588,-748,0,0,0,0,0,0,0,0,0,-1,1812,1772,0,0
595,-748,0,0,0,0,0,0,0,0,0,-1,1819,1772,0,0
602,-748,0,0,0,0,0,0,0,0,0,-1,1826,1772,0,0
609,-748,0,0,0,0,0,0,0,0,0,-1,1833,1772,0,0
616,-748,0,0,0,0,0,0,0,0,0,-1,1840,1772,0,0
623,-748,0,0,0,0,0,0,0,0,0,-1,1847,1772,0,0
630,-748,0,0,0,0,0,0,0,0,0,-1,1854,1772,0,0
637,-748,0,0,0,0,0,0,0,0,0,-1,1861,1772,0,0
644,-748,0,0,0,0,0,0,0,0,0,-1,1868,1772,0,0
651,-748,0,0,0,0,0,0,0,0,0,-1,1875,1772,0,0
658,-748,0,0,0,0,0,0,0,0,0,-1,1882,1772,0,0
665,-748,0,0,0,0,0,0,0,0,0,-1,1889,1772,0,0
672,-748,0,0,0,0,0,0,0,0,0,-1,1896,1772,0,0
679,-748,0,0,0,0,0,0,0,0,0,-1,1903,1772,0,0
686,-748,0,0,0,0,0,0,0,0,0,-1,1910,1772,0,0
693,-748,0,0,0,0,0,0,0,0,0,-1,1917,1772,0,0
700,-748,0,0,0,0,0,0,0,0,0,-1,1924,1772,0,0
707,-748,0,0,0,0,0,0,0,0,0,-1,1931,1772,0,0
714,-748,0,0,0,0,0,0,0,0,0,-1,1938,1772,0,0
721,-748,0,0,0,0,0,0,0,0,0,-1,1945,1772,0,0
728,-748,0,0,0,0,0,0,0,0,0,-1,1952,1772,0,0
735,-748,0,0,0,0,0,0,0,0,0,-1,1959,1772,0,0
742,-748,0,0,0,0,0,0,0,0,0,-1,1966,1772,0,0
749,-748,0,0,0,0,0,0,0,0,0,-1,1973,1772,0,0
756,-748,0,0,0,0,0,0,0,0,0,-1,1980,1772,0,0
763,-748,0,0,0,0,0,0,0,0,0,-1,1987,1772,0,0
770,-748,0,0,0,0,0,0,0,0,0,-1,1994,1772,0,0
777,-748,0,0,0,0,0,0,0,0,0,-1,2001,1772,0,0
784,-748,0,0,0,0,0,0,0,0,0,-1,2008,1772,0,0
791,-748,0,0,0,0,0,0,0,0,0,-1,2015,1772,0,0
798,-748,0,0,0,0,0,0,0,0,0,-1,2022,1772,0,0
805,-748,0,0,0,0,0,0,0,0,0,-1,2029,1772,0,0
812,-748,0,0,0,0,0,0,0,0,0,-1,2036,1772,0,0
-700,-755,0,0,0,0,0,0,0,0,0,-1,524,1779,0,0
-693,-755,0,0,0,0,0,0,0,0,0,-1,531,1779,0,0
-686,-755,0,0,0,0,0,0,0,0,0,-1,538,1779,0,0
-679,-755,0,0,0,0,0,0,0,0,0,-1,545,1779,0,0
-672,-755,0,0,0,0,0,0,0,0,0,-1,552,1779,0,0
-665,-755,0,0,0,0,0,0,0,0,0,-1,559,1779,0,0
-658,-755,0,0,0,0,0,0,0,0,0,-1,566,1779,0,0
-651,-755,0,0,0,0,0,0,0,0,0,-1,573,1779,0,0
-644,-755,0,0,0,0,0,0,0,0,0,-1,580,1779,0,0
-637,-755,0,0,0,0,0,0,0,0,0,-1,587,1779,0,0
-630,-755,0,0,0,0,0,0,0,0,0,-1,594,1779,0,0
-623,-755,0,0,0,0,0,0,0,0,0,-1,601,1779,0,0
-616,-755,0,0,0,0,0,0,0,0,0,-1,608,1779,0,0
-609,-755,0,0,0,0,0,0,0,0,0,-1,615,1779,0,0
-602,-755,0,0,0,0,0,0,0,0,0,-1,622,1779,0,0
-595,-755,0,0,0,0,0,0,0,0,0,-1,629,1779,0,0
-588,-755,0,0,0,0,0,0,0,0,0,-1,636,1779,0,0
-581,-755,0,0,0,0,0,0,0,0,0,-1,643,1779,0,0
-574,-755,0,0,0,0,0,0,0,0,0,-1,650,1779,0,0
-567,-755,0,0,0,0,0,0,0,0,0,-1,657,1779,0,0
-560,-755,0,0,0,0,0,0,0,0,0,-1,664,1779,0,0
-553,-755,0,0,0,0,0,0,0,0,0,-1,671,1779,0,0
-546,-755,0,0,0,0,0,0,0,0,0,-1,678,1779,0,0
-539,-755,0,0,0,0,0,0,0,0,0,-1,685,1779,0,0
-532,-755,0,0,0,0,0,0,0,0,0,-1,692,1779,0,0
-525,-755,0,0,0,0,0,0,0,0,0,-1,699,1779,0,0
-518,-755,0,0,0,0,0,0,0,0,0,-1,706,1779,0,0
-511,-755,0,0,0,0,0,0,0,0,0,-1,713,1779,0,0
-504,-755,0,0,0,0,0,0,0,0,0,-1,720,1779,0,0
-497,-755,0,0,0,0,0,0,0,0,0,-1,727,1779,0,0
-490,-755,0,0,0,0,0,0,0,0,0,-1,734,1779,0,0
-483,-755,0,0,0,0,0,0,0,0,0,-1,741,1779,0,0
-476,-755,0,0,0,0,0,0,0,0,0,-1,748,1779,0,0
-469,-755,0,0,0,0,0,0,0,0,0,-1,755,1779,0,0
-462,-755,0,0,0,0,0,0,0,0,0,-1,762,1779,0,0
-455,-755,0,0,0,0,0,0,0,0,0,-1,769,1779,0,0
-448,-755,0,0,0,0,0,0,0,0,0,-1,776,1779,0,0
-441,-755,0,0,0,0,0,0,0,0,0,-1,783,1779,0,0
-434,-755,0,0,0,0,0,0,0,0,0,-1,790,1779,0,0
-427,-755,0,0,0,0,0,0,0,0,0,-1,797,1779,0,0
-420,-755,0,0,0,0,0,0,0,0,0,-1,804,1779,0,0
-413,-755,0,0,0,0,0,0,0,0,0,-1,811,1779,0,0
-406,-755,0,0,0,0,0,0,0,0,0,-1,818,1779,0,0
-399,-755,0,0,0,0,0,0,0,0,0,-1,825,1779,0,0
-392,-755,0,0,0,0,0,0,0,0,0,-1,832,1779,0,0
-385,-755,0,0,0,0,0,0,0,0,0,-1,839,1779,0,0
-378,-755,0,0,0,0,0,0,0,0,0,-1,846,1779,0,0
-371,-755,0,0,0,0,0,0,0,0,0,-1,853,1779,0,0
-364,-755,0,0,0,0,0,0,0,0,0,-1,860,1779,0,0
-357,-755,0,0,0,0,0,0,0,0,0,-1,867,1779,0,0
-350,-755,0,0,0,0,0,0,0,0,0,-1,874,1779,0,0
-343,-755,0,0,0,0,0,0,0,0,0,-1,881,1779,0,0
-336,-755,0,0,0,0,0,0,0,0,0,-1,888,1779,0,0
-329,-755,0,0,0,0,0,0,0,0,0,-1,895,1779,0,0
-322,-755,0,0,0,0,0,0,0,0,0,-1,902,1779,0,0
-315,-755,0,0,0,0,0,0,0,0,0,-1,909,1779,0,0
-308,-755,0,0,0,0,0,0,0,0,0,-1,916,1779,0,0
-301,-755,0,0,0,0,0,0,0,0,0,-1,923,1779,0,0
-294,-755,0,0,0,0,0,0,0,0,0,-1,930,1779,0,0
-287,-755,0,0,0,0,0,0,0,0,0,-1,937,1779,0,0
-280,-755,0,0,0,0,0,0,0,0,0,-1,944,1779,0,0
-273,-755,0,0,0,0,0,0,0,0,0,-1,951,1779,0,0
-266,-755,0,0,0,0,0,0,0,0,0,-1,958,1779,0,0
-259,-755,0,0,0,0,0,0,0,0,0,-1,965,1779,0,0
-252,-755,0,0,0,0,0,0,0,0,0,-1,972,1779,0,0
-245,-755,0,0,0,0,0,0,0,0,0,-1,979,1779,0,0
-238,-755,0,0,0,0,0,0,0,0,0,-1,986,1779,0,0
-231,-755,0,0,0,0,0,0,0,0,0,-1,993,1779,0,0
-224,-755,0,0,0,0,0,0,0,0,0,-1,1000,1779,0,0
-217,-755,0,0,0,0,0,0,0,0,0,-1,1007,1779,0,0
-210,-755,0,0,0,0,0,0,0,0,0,-1,1014,1779,0,0
-203,-755,-3.07153,13.8969,0,0,0,0,0,0,0,-1,1021,1779,-3.07152,-13.8969
-196,-755,4.91333,14.9064,0,0,0,0,0,0,0,-1,1028,1779,4.91327,-14.9063
-189,-755,4.85864,12.9271,0,0,0,0,0,0,0,-1,1035,1779,4.85866,-12.9272
-182,-755,0.733154,13.2736,0,0,0,0,0,0,0,-1,1042,1779,0.733112,-13.2735
-175,-755,-1.11841,13.101,0,0,0,0,0,0,0,-1,1049,1779,-1.11847,-13.1009
-168,-755,-1.94446,12.3301,0,0,0,0,0,0,0,-1,1056,1779,-1.94441,-12.3301
-161,-755,-2.85889,11.5868,0,0,0,0,0,0,0,-1,1063,1779,-2.85887,-11.5868
-154,-755,-3.83704,10.8331,0,0,0,0,0,0,0,-1,1070,1779,-3.83702,-10.8332
-147,-755,-5.40332,10.7094,0,0,0,0,0,0,0,-1,1077,1779,-5.40328,-10.7094
-140,-755,3.29346,10.2112,0,0,0,0,0,0,0,-1,1084,1779,3.2935,-10.2112
-133,-755,7.55225,16.4945,0,0,0,0,0,0,0,-1,1091,1779,7.55225,-16.4946
-126,-755,7.15491,16.7509,0,0,0,0,0,0,0,-1,1098,1779,7.15496,-16.7509
-119,-755,6.20374,16.9153,0.0430985,-0.0382007,-0.0552238,0.0710204,-0.0661227,-0.468129,0.0791964,0.0435143,1105,1779,6.20372,-16.9152
-112,-755,6.88074,16.948,0.0440179,-0.0326464,-0.0548521,0.0726044,-0.0612329,-0.480429,0.077364,0.041932,1112,1779,6.88078,-16.9481
-105,-755,6.65369,16.332,0,0,0,0,0,0,0,-1,1119,1779,6.65369,-16.332
-98,-755,4.53394,15.8923,0,0,0,0,0,0,0,-1,1126,1779,4.53397,-15.8923
-91,-755,0.160522,10.7096,0,0,0,0,0,0,0,-1,1133,1779,0.160512,-10.7096
-84,-755,0.169312,8.66443,0,0,0,0,0,0,0,-1,1140,1779,0.16932,-8.66446
-77,-755,-0.0491943,6.87439,0,0,0,0,0,0,0,-1,1147,1779,-0.0491385,-6.87443
-70,-755,4.5686,13.2169,0,0,0,0,0,0,0,-1,1154,1779,4.56865,-13.2169
-63,-755,-1.36316,7.3147,0,0,0,0,0,0,0,-1,1161,1779,-1.36312,-7.31473
-56,-755,0.0483398,5.06079,0,0,0,0,0,0,0,-1,1168,1779,0.0483138,-5.06084
-49,-755,-1.32263,5.33716,0,0,0,0,0,0,0,-1,1175,1779,-1.32264,-5.33718
-42,-755,-2.03613,4.01672,0,0,0,0,0,0,0,-1,1182,1779,-2.0361,-4.01671
-35,-755,-2.72498,2.37476,0,0,0,0,0,0,0,-1,1189,1779,-2.72502,-2.37473
-28,-755,4.95166,17.5629,0,0,0,0,0,0,0,-1,1196,1779,4.95165,-17.5629
-21,-755,5.13452,17.5078,0,0,0,0,0,0,0,-1,1203,1779,5.13456,-17.5078
-14,-755,5.16895,17.3802,0.0224811,0.00455785,-0.0353272,0.0499656,-0.0229267,-0.661181,0.0430387,0.0317511,1210,1779,5.16894,-17.3802
-7,-755,5.06482,17.396,0.0211411,0.00436798,-0.0331254,0.0469251,-0.021416,-0.661415,0.0403625,0.0235243,1217,1779,5.06486,-17.396
0,-755,5.07886,17.4734,0.0195474,0.00381273,-0.0305135,0.0431915,-0.0198313,-0.65923,0.0372101,0.0147666,1224,1779,5.07887,-17.4734
7,-755,5.11108,17.5537,0.0174402,0.00291711,-0.0271888,0.0383205,-0.0179631,-0.654905,0.0331963,0.0121526,1231,1779,5.11111,-17.5538
14,-755,5.08191,17.5956,0.0152393,0.00189343,-0.0236845,0.033173,-0.0160402,-0.648086,0.0289815,0.0103077,1238,1779,5.08196,-17.5956
21,-755,5.06445,17.6381,0.0129542,0.000709906,-0.0199762,0.0277253,-0.0140612,-0.636706,0.0245517,0.0145788,1245,1779,5.06444,-17.638
28,-755,5.04932,17.6553,0.0108499,-0.000599348,-0.0162349,0.0223399,-0.0120893,-0.615897,0.0201692,0.0174894,1252,1779,5.04928,-17.6553
35,-755,5.01917,17.7205,0.00906585,-0.00164588,-0.0121828,0.0170181,-0.0095981,-0.578301,0.0155646,0.0182435,1259,1779,5.01915,-17.7204
42,-755,5.01465,17.7361,0.00722737,-0.0025259,-0.00757914,0.0113632,-0.00666176,-0.499527,0.0105241,0.0142176,1266,1779,5.01466,-17.7361
49,-755,5.00513,17.6941,0.00614386,-0.00281021,-0.00308684,0.00710488,-0.00377123,-0.301816,0.00637689,0.00961595,1273,1779,5.00508,-17.6941
56,-755,4.97729,17.7294,0.00616765,-0.00285188,0.000480452,0.00619317,-0.0028774,0.0530678,0.00535226,0.00839171,1280,1779,4.97726,-17.7293
63,-755,4.96985,17.7443,0.00608925,-0.00197976,0.00404798,0.00776993,-0.00366045,0.393532,0.00674,0.00891354,1287,1779,4.96989,-17.7443
70,-755,4.97839,17.7509,0.00613332,-0.0014978,0.00680053,0.0101156,-0.00548004,0.529747,0.00913574,0.0114825,1294,1779,4.97838,-17.7509
77,-755,4.95764,17.7626,0.00621486,0.000171803,0.0094336,0.013099,-0.00671234,0.630413,0.0116345,0.0106587,1301,1779,4.95759,-17.7626
84,-755,4.95142,17.7756,0.0066439,0.00188499,0.011744,0.0162471,-0.00771817,0.685446,0.0141254,0.0113335,1308,1779,4.95142,-17.7756
91,-755,4.93457,17.7698,0.00761917,0.00309556,0.0130836,0.018635,-0.00792026,0.699807,0.0157422,0.011674,1315,1779,4.93455,-17.7698
98,-755,4.88721,17.7693,0.00852997,0.00436009,0.0128204,0.0194338,-0.00654377,0.70479,0.0156015,0.0134278,1322,1779,4.88715,-17.7692
105,-755,4.88916,17.7516,0.00859802,0.00549833,0.0122996,0.0194451,-0.00534873,0.722725,0.0150662,0.0176394,1329,1779,4.88918,-17.7516
112,-755,4.91309,17.7217,0.00840252,0.0064416,0.0116589,0.0191221,-0.00427802,0.743449,0.0143877,0.0222845,1336,1779,4.91308,-17.7216
119,-755,4.90308,17.7054,0.00756538,0.00687028,0.011301,0.0185242,-0.00408856,0.770026,0.013914,0.0210948,1343,1779,4.90304,-17.7054
126,-755,4.83801,17.7051,0.00649243,0.00700726,0.0111184,0.0178712,-0.00437156,0.796972,0.0136075,0.0239124,1350,1779,4.838,-17.7051
133,-755,4.76929,17.6771,0.00515846,0.00662755,0.010818,0.0167359,-0.0049499,0.819296,0.0131222,0.0238657,1357,1779,4.76929,-17.6771
140,-755,4.74475,17.6707,0.00372836,0.00576071,0.010362,0.0151562,-0.00566717,0.834276,0.0124315,0.0278222,1364,1779,4.74478,-17.6707
147,-755,4.79663,17.6854,0.00263273,0.00436524,0.0095676,0.0131057,-0.00610775,0.830545,0.0113355,0.0297896,1371,1779,4.7966,-17.6854
154,-755,4.87415,17.6508,0.000895574,0.00302105,0.00819011,0.0102171,-0.00630047,0.849917,0.00962536,0.0340428,1378,1779,4.87419,-17.6508
161,-755,4.78198,17.6379,0,0,0,0,0,0,0,-1,1385,1779,4.782,-17.638
168,-755,3.98181,7.35901,0,0,0,0,0,0,0,-1,1392,1779,3.98184,-7.35904
175,-755,8.17065,1.34363,0,0,0,0,0,0,0,-1,1399,1779,8.1706,-1.34368
182,-755,8.09216,2.96924,0,0,0,0,0,0,0,-1,1406,1779,8.09213,-2.9693
189,-755,8.04419,4.68042,0,0,0,0,0,0,0,-1,1413,1779,8.04419,-4.68046
196,-755,7.74841,7.4541,0,0,0,0,0,0,0,-1,1420,1779,7.74842,-7.45405
203,-755,4.80554,6.88696,0,0,0,0,0,0,0,-1,1427,1779,4.80554,-6.88697
210,-755,25.1694,7.35693,0,0,0,0,0,0,0,-1,1434,1779,25.1694,-7.35688
217,-755,5.01648,16.411,0,0,0,0,0,0,0,-1,1441,1779,5.01646,-16.411
224,-755,5.03857,17.5697,0,0,0,0,0,0,0,-1,1448,1779,5.03852,-17.5697
231,-755,4.9292,16.7155,0,0,0,0,0,0,0,-1,1455,1779,4.92925,-16.7155
238,-755,3.21045,16.3856,0,0,0,0,0,0,0,-1,1462,1779,3.21042,-16.3856
245,-755,3.52185,15.5437,0,0,0,0,0,0,0,-1,1469,1779,3.52183,-15.5437
252,-755,3.99756,13.9052,0,0,0,0,0,0,0,-1,1476,1779,3.99754,-13.9051
259,-755,18.481,8.25134,0,0,0,0,0,0,0,-1,1483,1779,18.4809,-8.25139
266,-755,17.255,7.86096,0,0,0,0,0,0,0,-1,1490,1779,17.255,-7.86092
273,-755,15.7932,7.59778,0,0,0,0,0,0,0,-1,1497,1779,15.7932,-7.59777
280,-755,14.6255,7.34802,0,0,0,0,0,0,0,-1,1504,1779,14.6254,-7.34806
287,-755,13.1736,7.34705,0,0,0,0,0,0,0,-1,1511,1779,13.1736,-7.34709
294,-755,11.4563,7.27002,0,0,0,0,0,0,0,-1,1518,1779,11.4563,-7.26998
301,-755,9.98267,7.87927,0,0,0,0,0,0,0,-1,1525,1779,9.98265,-7.87925
308,-755,8.23889,8.34631,0,0,0,0,0,0,0,-1,1532,1779,8.23889,-8.34626
315,-755,6.46362,8.76587,0,0,0,0,0,0,0,-1,1539,1779,6.46364,-8.76592
322,-755,0,0,0,0,0,0,0,0,0,-1,1546,1779,0,0
329,-755,0,0,0,0,0,0,0,0,0,-1,1553,1779,0,0
336,-755,0,0,0,0,0,0,0,0,0,-1,1560,1779,0,0
343,-755,0,0,0,0,0,0,0,0,0,-1,1567,1779,0,0
350,-755,0,0,0,0,0,0,0,0,0,-1,1574,1779,0,0
357,-755,0,0,0,0,0,0,0,0,0,-1,1581,1779,0,0
364,-755,0,0,0,0,0,0,0,0,0,-1,1588,1779,0,0
371,-755,0,0,0,0,0,0,0,0,0,-1,1595,1779,0,0
378,-755,0,0,0,0,0,0,0,0,0,-1,1602,1779,0,0
385,-755,0,0,0,0,0,0,0,0,0,-1,1609,1779,0,0
392,-755,0,0,0,0,0,0,0,0,0,-1,1616,1779,0,0
399,-755,0,0,0,0,0,0,0,0,0,-1,1623,1779,0,0
406,-755,0,0,0,0,0,0,0,0,0,-1,1630,1779,0,0
413,-755,0,0,0,0,0,0,0,0,0,-1,1637,1779,0,0
420,-755,0,0,0,0,0,0,0,0,0,-1,1644,1779,0,0
427,-755,0,0,0,0,0,0,0,0,0,-1,1651,1779,0,0
434,-755,0,0,0,0,0,0,0,0,0,-1,1658,1779,0,0
441,-755,0,0,0,0,0,0,0,0,0,-1,1665,1779,0,0
448,-755,0,0,0,0,0,0,0,0,0,-1,1672,1779,0,0
455,-755,0,0,0,0,0,0,0,0,0,-1,1679,1779,0,0
462,-755,0,0,0,0,0,0,0,0,0,-1,1686,1779,0,0
469,-755,0,0,0,0,0,0,0,0,0,-1,1693,1779,0,0
476,-755,0,0,0,0,0,0,0,0,0,-1,1700,1779,0,0
483,-755,0,0,0,0,0,0,0,0,0,-1,1707,1779,0,0
490,-755,0,0,0,0,0,0,0,0,0,-1,1714,1779,0,0
497,-755,0,0,0,0,0,0,0,0,0,-1,1721,1779,0,0
504,-755,0,0,0,0,0,0,0,0,0,-1,1728,1779,0,0
511,-755,0,0,0,0,0,0,0,0,0,-1,1735,1779,0,0
518,-755,0,0,0,0,0,0,0,0,0,-1,1742,1779,0,0
525,-755,0,0,0,0,0,0,0,0,0,-1,1749,1779,0,0
532,-755,0,0,0,0,0,0,0,0,0,-1,1756,1779,0,0
539,-755,0,0,0,0,0,0,0,0,0,-1,1763,1779,0,0
546,-755,0,0,0,0,0,0,0,0,0,-1,1770,1779,0,0
553,-755,0,0,0,0,0,0,0,0,0,-1,1777,1779,0,0
560,-755,0,0,0,0,0,0,0,0,0,-1,1784,1779,0,0
567,-755,0,0,0,0,0,0,0,0,0,-1,1791,1779,0,0
574,-755,0,0,0,0,0,0,0,0,0,-1,1798,1779,0,0
581,-755,0,0,0,0,0,0,0,0,0,-1,1805,1779,0,0
588,-755,0,0,0,0,0,0,0,0,0,-1,1812,1779,0,0
595,-755,0,0,0,0,0,0,0,0,0,-1,1819,1779,0,0
602,-755,0,0,0,0,0,0,0,0,0,-1,1826,1779,0,0
609,-755,0,0,0,0,0,0,0,0,0,-1,1833,1779,0,0
616,-755,0,0,0,0,0,0,0,0,0,-1,1840,1779,0,0
623,-755,0,0,0,0,0,0,0,0,0,-1,1847,1779,0,0
630,-755,0,0,0,0,0,0,0,0,0,-1,1854,1779,0,0
637,-755,0,0,0,0,0,0,0,0,0,-1,1861,1779,0,0
644,-755,0,0,0,0,0,0,0,0,0,-1,1868,1779,0,0
651,-755,0,0,0,0,0,0,0,0,0,-1,1875,1779,0,0
658,-755,0,0,0,0,0,0,0,0,0,-1,1882,1779,0,0
665,-755,0,0,0,0,0,0,0,0,0,-1,1889,1779,0,0
672,-755,0,0,0,0,0,0,0,0,0,-1,1896,1779,0,0
679,-755,0,0,0,0,0,0,0,0,0,-1,1903,1779,0,0
686,-755,0,0,0,0,0,0,0,0,0,-1,1910,1779,0,0
693,-755,0,0,0,0,0,0,0,0,0,-1,1917,1779,0,0
700,-755,0,0,0,0,0,0,0,0,0,-1,1924,1779,0,0
707,-755,0,0,0,0,0,0,0,0,0,-1,1931,1779,0,0
714,-755,0,0,0,0,0,0,0,0,0,-1,1938,1779,0,0
721,-755,0,0,0,0,0,0,0,0,0,-1,1945,1779,0,0
728,-755,0,0,0,0,0,0,0,0,0,-1,1952,1779,0,0
735,-755,0,0,0,0,0,0,0,0,0,-1,1959,1779,0,0
742,-755,0,0,0,0,0,0,0,0,0,-1,1966,1779,0,0
749,-755,0,0,0,0,0,0,0,0,0,-1,1973,1779,0,0
756,-755,0,0,0,0,0,0,0,0,0,-1,1980,1779,0,0
763,-755,0,0,0,0,0,0,0,0,0,-1,1987,1779,0,0
770,-755,0,0,0,0,0,0,0,0,0,-1,1994,1779,0,0
777,-755,0,0,0,0,0,0,0,0,0,-1,2001,1779,0,0
784,-755,0,0,0,0,0,0,0,0,0,-1,2008,1779,0,0
791,-755,0,0,0,0,0,0,0,0,0,-1,2015,1779,0,0
798,-755,0,0,0,0,0,0,0,0,0,-1,2022,1779,0,0
805,-755,0,0,0,0,0,0,0,0,0,-1,2029,1779,0,0
812,-755,0,0,0,0,0,0,0,0,0,-1,2036,1779,0,0
-700,-762,0,0,0,0,0,0,0,0,0,-1,524,1786,0,0
-693,-762,0,0,0,0,0,0,0,0,0,-1,531,1786,0,0
-686,-762,0,0,0,0,0,0,0,0,0,-1,538,1786,0,0
-679,-762,0,0,0,0,0,0,0,0,0,-1,545,1786,0,0
-672,-762,0,0,0,0,0,0,0,0,0,-1,552,1786,0,0
-665,-762,0,0,0,0,0,0,0,0,0,-1,559,1786,0,0
-658,-762,0,0,0,0,0,0,0,0,0,-1,566,1786,0,0
-651,-762,0,0,0,0,0,0,0,0,0,-1,573,1786,0,0
-644,-762,0,0,0,0,0,0,0,0,0,-1,580,1786,0,0
-637,-762,0,0,0,0,0,0,0,0,0,-1,587,1786,0,0
-630,-762,0,0,0,0,0,0,0,0,0,-1,594,1786,0,0
-623,-762,0,0,0,0,0,0,0,0,0,-1,601,1786,0,0
-616,-762,0,0,0,0,0,0,0,0,0,-1,608,1786,0,0
-609,-762,0,0,0,0,0,0,0,0,0,-1,615,1786,0,0
-602,-762,0,0,0,0,0,0,0,0,0,-1,622,1786,0,0
-595,-762,0,0,0,0,0,0,0,0,0,-1,629,1786,0,0
-588,-762,0,0,0,0,0,0,0,0,0,-1,636,1786,0,0
-581,-762,0,0,0,0,0,0,0,0,0,-1,643,1786,0,0
-574,-762,0,0,0,0,0,0,0,0,0,-1,650,1786,0,0
-567,-762,0,0,0,0,0,0,0,0,0,-1,657,1786,0,0
-560,-762,0,0,0,0,0,0,0,0,0,-1,664,1786,0,0
-553,-762,0,0,0,0,0,0,0,0,0,-1,671,1786,0,0
-546,-762,0,0,0,0,0,0,0,0,0,-1,678,1786,0,0
-539,-762,0,0,0,0,0,0,0,0,0,-1,685,1786,0,0
-532,-762,0,0,0,0,0,0,0,0,0,-1,692,1786,0,0
-525,-762,0,0,0,0,0,0,0,0,0,-1,699,1786,0,0
-518,-762,0,0,0,0,0,0,0,0,0,-1,706,1786,0,0
-511,-762,0,0,0,0,0,0,0,0,0,-1,713,1786,0,0
-504,-762,0,0,0,0,0,0,0,0,0,-1,720,1786,0,0
-497,-762,0,0,0,0,0,0,0,0,0,-1,727,1786,0,0
-490,-762,0,0,0,0,0,0,0,0,0,-1,734,1786,0,0
-483,-762,0,0,0,0,0,0,0,0,0,-1,741,1786,0,0
-476,-762,0,0,0,0,0,0,0,0,0,-1,748,1786,0,0
-469,-762,0,0,0,0,0,0,0,0,0,-1,755,1786,0,0
-462,-762,0,0,0,0,0,0,0,0,0,-1,762,1786,0,0
-455,-762,0,0,0,0,0,0,0,0,0,-1,769,1786,0,0
-448,-762,0,0,0,0,0,0,0,0,0,-1,776,1786,0,0
-441,-762,0,0,0,0,0,0,0,0,0,-1,783,1786,0,0
-434,-762,0,0,0,0,0,0,0,0,0,-1,790,1786,0,0
-427,-762,0,0,0,0,0,0,0,0,0,-1,797,1786,0,0
-420,-762,0,0,0,0,0,0,0,0,0,-1,804,1786,0,0
-413,-762,0,0,0,0,0,0,0,0,0,-1,811,1786,0,0
-406,-762,0,0,0,0,0,0,0,0,0,-1,818,1786,0,0
-399,-762,0,0,0,0,0,0,0,0,0,-1,825,1786,0,0
-392,-762,0,0,0,0,0,0,0,0,0,-1,832,1786,0,0
-385,-762,0,0,0,0,0,0,0,0,0,-1,839,1786,0,0
-378,-762,0,0,0,0,0,0,0,0,0,-1,846,1786,0,0
-371,-762,0,0,0,0,0,0,0,0,0,-1,853,1786,0,0
-364,-762,0,0,0,0,0,0,0,0,0,-1,860,1786,0,0
-357,-762,0,0,0,0,0,0,0,0,0,-1,867,1786,0,0
-350,-762,0,0,0,0,0,0,0,0,0,-1,874,1786,0,0
-343,-762,0,0,0,0,0,0,0,0,0,-1,881,1786,0,0
-336,-762,0,0,0,0,0,0,0,0,0,-1,888,1786,0,0
-329,-762,0,0,0,0,0,0,0,0,0,-1,895,1786,0,0
-322,-762,0,0,0,0,0,0,0,0,0,-1,902,1786,0,0
-315,-762,0,0,0,0,0,0,0,0,0,-1,909,1786,0,0
-308,-762,0,0,0,0,0,0,0,0,0,-1,916,1786,0,0
-301,-762,0,0,0,0,0,0,0,0,0,-1,923,1786,0,0
-294,-762,0,0,0,0,0,0,0,0,0,-1,930,1786,0,0
-287,-762,0,0,0,0,0,0,0,0,0,-1,937,1786,0,0
-280,-762,0,0,0,0,0,0,0,0,0,-1,944,1786,0,0
-273,-762,0,0,0,0,0,0,0,0,0,-1,951,1786,0,0
-266,-762,0,0,0,0,0,0,0,0,0,-1,958,1786,0,0
-259,-762,0,0,0,0,0,0,0,0,0,-1,965,1786,0,0
-252,-762,0,0,0,0,0,0,0,0,0,-1,972,1786,0,0
-245,-762,0,0,0,0,0,0,0,0,0,-1,979,1786,0,0
-238,-762,0,0,0,0,0,0,0,0,0,-1,986,1786,0,0
-231,-762,0,0,0,0,0,0,0,0,0,-1,993,1786,0,0
-224,-762,0,0,0,0,0,0,0,0,0,-1,1000,1786,0,0
-217,-762,0,0,0,0,0,0,0,0,0,-1,1007,1786,0,0
-210,-762,0,0,0,0,0,0,0,0,0,-1,1014,1786,0,0
-203,-762,0,0,0,0,0,0,0,0,0,-1,1021,1786,0,0
-196,-762,0,0,0,0,0,0,0,0,0,-1,1028,1786,0,0
-189,-762,0,0,0,0,0,0,0,0,0,-1,1035,1786,0,0
-182,-762,4.44226,13.2462,0,0,0,0,0,0,0,-1,1042,1786,4.44227,-13.2462
-175,-762,-1.29956,14.1766,0,0,0,0,0,0,0,-1,1049,1786,-1.29956,-14.1767
-168,-762,-2.08618,13.0768,0,0,0,0,0,0,0,-1,1056,1786,-2.08623,-13.0768
-161,-762,-3.29077,11.9508,0,0,0,0,0,0,0,-1,1063,1786,-3.29076,-11.9508
-154,-762,-4.55823,11.1176,0,0,0,0,0,0,0,-1,1070,1786,-4.55828,-11.1175
-147,-762,-1.09119,4.58313,0,0,0,0,0,0,0,-1,1077,1786,-1.09124,-4.58313
-140,-762,4.99792,5.28589,0,0,0,0,0,0,0,-1,1084,1786,4.99793,-5.28587
-133,-762,3.5116,9.3252,0,0,0,0,0,0,0,-1,1091,1786,3.51165,-9.32522
-126,-762,6.12231,12.5032,0,0,0,0,0,0,0,-1,1098,1786,6.12238,-12.5032
-119,-762,7.31201,16.389,0,0,0,0,0,0,0,-1,1105,1786,7.31207,-16.3891
-112,-762,8.02356,17.0438,0,0,0,0,0,0,0,-1,1112,1786,8.0236,-17.0438
-105,-762,8.72009,17.3134,0,0,0,0,0,0,0,-1,1119,1786,8.72015,-17.3134
-98,-762,4.81543,16.9463,0,0,0,0,0,0,0,-1,1126,1786,4.81547,-16.9463
-91,-762,3.979,11.474,0,0,0,0,0,0,0,-1,1133,1786,3.97904,-11.474
-84,-762,0.415161,10.0322,0,0,0,0,0,0,0,-1,1140,1786,0.415179,-10.0322
-77,-762,0.305054,8.49365,0,0,0,0,0,0,0,-1,1147,1786,0.305008,-8.49362
-70,-762,0.183716,6.74622,0,0,0,0,0,0,0,-1,1154,1786,0.183696,-6.74621
-63,-762,-0.883057,9.08813,0,0,0,0,0,0,0,-1,1161,1786,-0.88311,-9.08808
-56,-762,-0.578979,5.10254,0,0,0,0,0,0,0,-1,1168,1786,-0.578951,-5.10249
-49,-762,-2.04541,3.66321,0,0,0,0,0,0,0,-1,1175,1786,-2.0454,-3.66319
-42,-762,-2.23462,3.474,0,0,0,0,0,0,0,-1,1182,1786,-2.23459,-3.47399
-35,-762,-3.28992,1.68164,0,0,0,0,0,0,0,-1,1189,1786,-3.28998,-1.68164
-28,-762,-3.75378,1.37769,0,0,0,0,0,0,0,-1,1196,1786,-3.75373,-1.37767
-21,-762,5.70203,17.4232,0,0,0,0,0,0,0,-1,1203,1786,5.70206,-17.4232
-14,-762,5.2063,17.3533,0,0,0,0,0,0,0,-1,1210,1786,5.20636,-17.3533
-7,-762,5.0448,17.313,0,0,0,0,0,0,0,-1,1217,1786,5.04485,-17.313
0,-762,5.09656,17.4026,0.0280553,0.00391296,-0.04346,0.0610894,-0.0291211,-0.649936,0.053162,0.0363076,1224,1786,5.09656,-17.4026
7,-762,5.15491,17.5188,0.0252837,0.00278765,-0.0388705,0.0545009,-0.0264295,-0.644559,0.0476529,0.0202063,1231,1786,5.15486,-17.5189
14,-762,5.15625,17.6477,0.0223454,0.00150159,-0.0339274,0.0474155,-0.0235685,-0.636382,0.0417464,0.0327748,1238,1786,5.1562,-17.6477
21,-762,5.30359,17.8246,0.0192427,2.53207e-05,-0.0285835,0.0397893,-0.0205213,-0.623251,0.0354077,0.0382651,1245,1786,5.3036,-17.8246
28,-762,5.28308,17.7229,0.0163022,-0.00160276,-0.0231273,0.0321493,-0.0174499,-0.600732,0.0290523,0.0374043,1252,1786,5.28303,-17.7229
35,-762,5.12183,17.6714,0.0137598,-0.00286409,-0.0171854,0.0245378,-0.0136421,-0.560153,0.0223404,0.0422695,1259,1786,5.12179,-17.6714
42,-762,5.01965,17.8074,0.0112411,-0.00386443,-0.0106051,0.016708,-0.00933132,-0.475969,0.0152336,0.0409759,1266,1786,5.01965,-17.8074
49,-762,4.98779,17.7311,0.00969685,-0.00400744,-0.00421548,0.0108897,-0.00520031,-0.275763,0.00948119,0.0311571,1273,1786,4.98785,-17.7311
56,-762,5.01111,17.7281,0.00949864,-0.00375577,0.000939712,0.00956493,-0.00382207,0.0704285,0.00796252,0.020779,1280,1786,5.01106,-17.7282
63,-762,4.99927,17.7722,0.00913294,-0.00218754,0.00608902,0.0117862,-0.00484081,0.410938,0.00987484,0.0202556,1287,1786,4.99925,-17.7722
70,-762,4.99536,17.8062,0.00907247,-0.00123065,0.0101472,0.0153009,-0.00745908,0.550511,0.0133979,0.0202352,1294,1786,4.99541,-17.8062
77,-762,4.948,17.7806,0.00914254,0.0011954,0.0138775,0.0196042,-0.00926622,0.645963,0.0170208,0.0257899,1301,1786,4.94798,-17.7806
84,-762,4.98474,17.7467,0.00966298,0.00376591,0.0170521,0.0240196,-0.0105907,0.699788,0.0204775,0.0321786,1308,1786,4.98477,-17.7467
91,-762,5.03992,17.7323,0.0108637,0.0057683,0.0189524,0.0274389,-0.0108069,0.718586,0.0227666,0.0407484,1315,1786,5.03986,-17.7324
98,-762,4.83215,17.7643,0.012066,0.00779016,0.0186279,0.0286783,-0.00882214,0.728264,0.02264,0.0433628,1322,1786,4.83221,-17.7643
105,-762,4.80701,17.8715,0.0122618,0.00971375,0.0180121,0.0290449,-0.00706933,0.750091,0.0220999,0.043394,1329,1786,4.80707,-17.8715
112,-762,4.92871,17.796,0.012111,0.0113645,0.0173173,0.0290591,-0.0055836,0.774623,0.0214772,0.0452371,1336,1786,4.92875,-17.7961
119,-762,4.94324,17.7452,0,0,0,0,0,0,0,-1,1343,1786,4.94327,-17.7452
126,-762,4.79565,17.7916,0.00967949,0.012771,0.0169967,0.0282921,-0.00584165,0.830745,0.0210802,0.0476327,1350,1786,4.79561,-17.7917
133,-762,4.6792,17.714,0.00801551,0.0123619,0.0167545,0.0270835,-0.00670611,0.849892,0.0206571,0.0484147,1357,1786,4.67914,-17.714
140,-762,4.6084,17.6655,0.00622635,0.0114765,0.0162562,0.0253182,-0.00761531,0.865448,0.0199088,0.0451476,1364,1786,4.60846,-17.6655
147,-762,4.61963,17.8291,0.00470012,0.00971346,0.015339,0.0227493,-0.00833568,0.866391,0.0185789,0.0423329,1371,1786,4.61962,-17.8291
154,-762,4.87146,17.7491,0,0,0,0,0,0,0,-1,1378,1786,4.87142,-17.7491
161,-762,7.93408,-0.126221,0,0,0,0,0,0,0,-1,1385,1786,7.93402,0.126232
168,-762,8.19287,0.880615,0,0,0,0,0,0,0,-1,1392,1786,8.19291,-0.880603
175,-762,8.33997,1.95947,0,0,0,0,0,0,0,-1,1399,1786,8.33997,-1.95942
182,-762,8.28418,3.56482,0,0,0,0,0,0,0,-1,1406,1786,8.28415,-3.56485
189,-762,8.21179,5.23389,0,0,0,0,0,0,0,-1,1413,1786,8.21183,-5.23383
196,-762,8.05969,6.95483,0,0,0,0,0,0,0,-1,1420,1786,8.05972,-6.9548
203,-762,24.0077,7.10425,0,0,0,0,0,0,0,-1,1427,1786,24.0077,-7.10426
210,-762,23.8073,7.6499,0,0,0,0,0,0,0,-1,1434,1786,23.8073,-7.64987
217,-762,23.3193,8.24426,0,0,0,0,0,0,0,-1,1441,1786,23.3194,-8.2442
224,-762,4.64465,18.4674,0,0,0,0,0,0,0,-1,1448,1786,4.64462,-18.4674
231,-762,4.95935,16.819,0,0,0,0,0,0,0,-1,1455,1786,4.95932,-16.8189
238,-762,6.01721,15.6074,0,0,0,0,0,0,0,-1,1462,1786,6.01719,-15.6075
245,-762,3.28296,15.0782,0,0,0,0,0,0,0,-1,1469,1786,3.28293,-15.0783
252,-762,18.4817,8.25159,0,0,0,0,0,0,0,-1,1476,1786,18.4816,-8.25162
259,-762,17.4619,7.89832,0,0,0,0,0,0,0,-1,1483,1786,17.462,-7.89836
266,-762,16.451,7.67773,0,0,0,0,0,0,0,-1,1490,1786,16.4511,-7.67773
273,-762,15.287,7.5304,0,0,0,0,0,0,0,-1,1497,1786,15.2869,-7.53044
280,-762,14.1501,7.38379,0,0,0,0,0,0,0,-1,1504,1786,14.1502,-7.38376
287,-762,12.6891,7.99133,0,0,0,0,0,0,0,-1,1511,1786,12.6891,-7.99135
294,-762,11.6133,8.5918,0,0,0,0,0,0,0,-1,1518,1786,11.6133,-8.59175
301,-762,9.90637,8.80591,0,0,0,0,0,0,0,-1,1525,1786,9.90636,-8.80596
308,-762,0,0,0,0,0,0,0,0,0,-1,1532,1786,0,0
315,-762,0,0,0,0,0,0,0,0,0,-1,1539,1786,0,0
322,-762,0,0,0,0,0,0,0,0,0,-1,1546,1786,0,0
329,-762,0,0,0,0,0,0,0,0,0,-1,1553,1786,0,0
336,-762,0,0,0,0,0,0,0,0,0,-1,1560,1786,0,0
343,-762,0,0,0,0,0,0,0,0,0,-1,1567,1786,0,0
350,-762,0,0,0,0,0,0,0,0,0,-1,1574,1786,0,0
357,-762,0,0,0,0,0,0,0,0,0,-1,1581,1786,0,0
364,-762,0,0,0,0,0,0,0,0,0,-1,1588,1786,0,0
371,-762,0,0,0,0,0,0,0,0,0,-1,1595,1786,0,0
378,-762,0,0,0,0,0,0,0,0,0,-1,1602,1786,0,0
385,-762,0,0,0,0,0,0,0,0,0,-1,1609,1786,0,0
392,-762,0,0,0,0,0,0,0,0,0,-1,1616,1786,0,0
399,-762,0,0,0,0,0,0,0,0,0,-1,1623,1786,0,0
406,-762,0,0,0,0,0,0,0,0,0,-1,1630,1786,0,0
413,-762,0,0,0,0,0,0,0,0,0,-1,1637,1786,0,0
420,-762,0,0,0,0,0,0,0,0,0,-1,1644,1786,0,0
427,-762,0,0,0,0,0,0,0,0,0,-1,1651,1786,0,0
434,-762,0,0,0,0,0,0,0,0,0,-1,1658,1786,0,0
441,-762,0,0,0,0,0,0,0,0,0,-1,1665,1786,0,0
448,-762,0,0,0,0,0,0,0,0,0,-1,1672,1786,0,0
455,-762,0,0,0,0,0,0,0,0,0,-1,1679,1786,0,0
462,-762,0,0,0,0,0,0,0,0,0,-1,1686,1786,0,0
469,-762,0,0,0,0,0,0,0,0,0,-1,1693,1786,0,0
476,-762,0,0,0,0,0,0,0,0,0,-1,1700,1786,0,0
483,-762,0,0,0,0,0,0,0,0,0,-1,1707,1786,0,0
490,-762,0,0,0,0,0,0,0,0,0,-1,1714,1786,0,0
497,-762,0,0,0,0,0,0,0,0,0,-1,1721,1786,0,0
504,-762,0,0,0,0,0,0,0,0,0,-1,1728,1786,0,0
511,-762,0,0,0,0,0,0,0,0,0,-1,1735,1786,0,0
518,-762,0,0,0,0,0,0,0,0,0,-1,1742,1786,0,0
525,-762,0,0,0,0,0,0,0,0,0,-1,1749,1786,0,0
532,-762,0,0,0,0,0,0,0,0,0,-1,1756,1786,0,0
539,-762,0,0,0,0,0,0,0,0,0,-1,1763,1786,0,0
546,-762,0,0,0,0,0,0,0,0,0,-1,1770,1786,0,0
553,-762,0,0,0,0,0,0,0,0,0,-1,1777,1786,0,0
560,-762,0,0,0,0,0,0,0,0,0,-1,1784,1786,0,0
567,-762,0,0,0,0,0,0,0,0,0,-1,1791,1786,0,0
574,-762,0,0,0,0,0,0,0,0,0,-1,1798,1786,0,0
581,-762,0,0,0,0,0,0,0,0,0,-1,1805,1786,0,0
588,-762,0,0,0,0,0,0,0,0,0,-1,1812,1786,0,0
595,-762,0,0,0,0,0,0,0,0,0,-1,1819,1786,0,0
602,-762,0,0,0,0,0,0,0,0,0,-1,1826,1786,0,0
609,-762,0,0,0,0,0,0,0,0,0,-1,1833,1786,0,0
616,-762,0,0,0,0,0,0,0,0,0,-1,1840,1786,0,0
623,-762,0,0,0,0,0,0,0,0,0,-1,1847,1786,0,0
630,-762,0,0,0,0,0,0,0,0,0,-1,1854,1786,0,0
637,-762,0,0,0,0,0,0,0,0,0,-1,1861,1786,0,0
644,-762,0,0,0,0,0,0,0,0,0,-1,1868,1786,0,0
651,-762,0,0,0,0,0,0,0,0,0,-1,1875,1786,0,0
658,-762,0,0,0,0,0,0,0,0,0,-1,1882,1786,0,0
665,-762,0,0,0,0,0,0,0,0,0,-1,1889,1786,0,0
672,-762,0,0,0,0,0,0,0,0,0,-1,1896,1786,0,0
679,-762,0,0,0,0,0,0,0,0,0,-1,1903,1786,0,0
686,-762,0,0,0,0,0,0,0,0,0,-1,1910,1786,0,0
693,-762,0,0,0,0,0,0,0,0,0,-1,1917,1786,0,0
700,-762,0,0,0,0,0,0,0,0,0,-1,1924,1786,0,0
707,-762,0,0,0,0,0,0,0,0,0,-1,1931,1786,0,0
714,-762,0,0,0,0,0,0,0,0,0,-1,1938,1786,0,0
721,-762,0,0,0,0,0,0,0,0,0,-1,1945,1786,0,0
728,-762,0,0,0,0,0,0,0,0,0,-1,1952,1786,0,0
735,-762,0,0,0,0,0,0,0,0,0,-1,1959,1786,0,0
742,-762,0,0,0,0,0,0,0,0,0,-1,1966,1786,0,0
749,-762,0,0,0,0,0,0,0,0,0,-1,1973,1786,0,0
756,-762,0,0,0,0,0,0,0,0,0,-1,1980,1786,0,0
763,-762,0,0,0,0,0,0,0,0,0,-1,1987,1786,0,0
770,-762,0,0,0,0,0,0,0,0,0,-1,1994,1786,0,0
777,-762,0,0,0,0,0,0,0,0,0,-1,2001,1786,0,0
784,-762,0,0,0,0,0,0,0,0,0,-1,2008,1786,0,0
791,-762,0,0,0,0,0,0,0,0,0,-1,2015,1786,0,0
798,-762,0,0,0,0,0,0,0,0,0,-1,2022,1786,0,0
805,-762,0,0,0,0,0,0,0,0,0,-1,2029,1786,0,0
812,-762,0,0,0,0,0,0,0,0,0,-1,2036,1786,0,0
-700,-769,0,0,0,0,0,0,0,0,0,-1,524,1793,0,0
-693,-769,0,0,0,0,0,0,0,0,0,-1,531,1793,0,0
-686,-769,0,0,0,0,0,0,0,0,0,-1,538,1793,0,0
-679,-769,0,0,0,0,0,0,0,0,0,-1,545,1793,0,0
-672,-769,0,0,0,0,0,0,0,0,0,-1,552,1793,0,0
-665,-769,0,0,0,0,0,0,0,0,0,-1,559,1793,0,0
-658,-769,0,0,0,0,0,0,0,0,0,-1,566,1793,0,0
-651,-769,0,0,0,0,0,0,0,0,0,-1,573,1793,0,0
-644,-769,0,0,0,0,0,0,0,0,0,-1,580,1793,0,0
-637,-769,0,0,0,0,0,0,0,0,0,-1,587,1793,0,0
-630,-769,0,0,0,0,0,0,0,0,0,-1,594,1793,0,0
-623,-769,0,0,0,0,0,0,0,0,0,-1,601,1793,0,0
-616,-769,0,0,0,0,0,0,0,0,0,-1,608,1793,0,0
-609,-769,0,0,0,0,0,0,0,0,0,-1,615,1793,0,0
-602,-769,0,0,0,0,0,0,0,0,0,-1,622,1793,0,0
-595,-769,0,0,0,0,0,0,0,0,0,-1,629,1793,0,0
-588,-769,0,0,0,0,0,0,0,0,0,-1,636,1793,0,0
-581,-769,0,0,0,0,0,0,0,0,0,-1,643,1793,0,0
-574,-769,0,0,0,0,0,0,0,0,0,-1,650,1793,0,0
-567,-769,0,0,0,0,0,0,0,0,0,-1,657,1793,0,0
-560,-769,0,0,0,0,0,0,0,0,0,-1,664,1793,0,0
-553,-769,0,0,0,0,0,0,0,0,0,-1,671,1793,0,0
-546,-769,0,0,0,0,0,0,0,0,0,-1,678,1793,0,0
-539,-769,0,0,0,0,0,0,0,0,0,-1,685,1793,0,0
-532,-769,0,0,0,0,0,0,0,0,0,-1,692,1793,0,0
-525,-769,0,0,0,0,0,0,0,0,0,-1,699,1793,0,0
-518,-769,0,0,0,0,0,0,0,0,0,-1,706,1793,0,0
-511,-769,0,0,0,0,0,0,0,0,0,-1,713,1793,0,0
-504,-769,0,0,0,0,0,0,0,0,0,-1,720,1793,0,0
-497,-769,0,0,0,0,0,0,0,0,0,-1,727,1793,0,0
-490,-769,0,0,0,0,0,0,0,0,0,-1,734,1793,0,0
-483,-769,0,0,0,0,0,0,0,0,0,-1,741,1793,0,0
-476,-769,0,0,0,0,0,0,0,0,0,-1,748,1793,0,0
-469,-769,0,0,0,0,0,0,0,0,0,-1,755,1793,0,0
-462,-769,0,0,0,0,0,0,0,0,0,-1,762,1793,0,0
-455,-769,0,0,0,0,0,0,0,0,0,-1,769,1793,0,0
-448,-769,0,0,0,0,0,0,0,0,0,-1,776,1793,0,0
-441,-769,0,0,0,0,0,0,0,0,0,-1,783,1793,0,0
-434,-769,0,0,0,0,0,0,0,0,0,-1,790,1793,0,0
-427,-769,0,0,0,0,0,0,0,0,0,-1,797,1793,0,0
-420,-769,0,0,0,0,0,0,0,0,0,-1,804,1793,0,0
-413,-769,0,0,0,0,0,0,0,0,0,-1,811,1793,0,0
-406,-769,0,0,0,0,0,0,0,0,0,-1,818,1793,0,0
-399,-769,0,0,0,0,0,0,0,0,0,-1,825,1793,0,0
-392,-769,0,0,0,0,0,0,0,0,0,-1,832,1793,0,0
-385,-769,0,0,0,0,0,0,0,0,0,-1,839,1793,0,0
-378,-769,0,0,0,0,0,0,0,0,0,-1,846,1793,0,0
-371,-769,0,0,0,0,0,0,0,0,0,-1,853,1793,0,0
-364,-769,0,0,0,0,0,0,0,0,0,-1,860,1793,0,0
-357,-769,0,0,0,0,0,0,0,0,0,-1,867,1793,0,0
-350,-769,0,0,0,0,0,0,0,0,0,-1,874,1793,0,0
-343,-769,0,0,0,0,0,0,0,0,0,-1,881,1793,0,0
-336,-769,0,0,0,0,0,0,0,0,0,-1,888,1793,0,0
-329,-769,0,0,0,0,0,0,0,0,0,-1,895,1793,0,0
-322,-769,0,0,0,0,0,0,0,0,0,-1,902,1793,0,0
-315,-769,0,0,0,0,0,0,0,0,0,-1,909,1793,0,0
-308,-769,0,0,0,0,0,0,0,0,0,-1,916,1793,0,0
-301,-769,0,0,0,0,0,0,0,0,0,-1,923,1793,0,0
-294,-769,0,0,0,0,0,0,0,0,0,-1,930,1793,0,0
-287,-769,0,0,0,0,0,0,0,0,0,-1,937,1793,0,0
-280,-769,0,0,0,0,0,0,0,0,0,-1,944,1793,0,0
-273,-769,0,0,0,0,0,0,0,0,0,-1,951,1793,0,0
-266,-769,0,0,0,0,0,0,0,0,0,-1,958,1793,0,0
-259,-769,0,0,0,0,0,0,0,0,0,-1,965,1793,0,0
-252,-769,0,0,0,0,0,0,0,0,0,-1,972,1793,0,0
-245,-769,0,0,0,0,0,0,0,0,0,-1,979,1793,0,0
-238,-769,0,0,0,0,0,0,0,0,0,-1,986,1793,0,0
-231,-769,0,0,0,0,0,0,0,0,0,-1,993,1793,0,0
-224,-769,0,0,0,0,0,0,0,0,0,-1,1000,1793,0,0
-217,-769,0,0,0,0,0,0,0,0,0,-1,1007,1793,0,0
-210,-769,0,0,0,0,0,0,0,0,0,-1,1014,1793,0,0
-203,-769,0,0,0,0,0,0,0,0,0,-1,1021,1793,0,0
-196,-769,0,0,0,0,0,0,0,0,0,-1,1028,1793,0,0
-189,-769,0,0,0,0,0,0,0,0,0,-1,1035,1793,0,0
-182,-769,0,0,0,0,0,0,0,0,0,-1,1042,1793,0,0
-175,-769,0,0,0,0,0,0,0,0,0,-1,1049,1793,0,0
-168,-769,0,0,0,0,0,0,0,0,0,-1,1056,1793,0,0
-161,-769,-3.61145,12.4761,0,0,0,0,0,0,0,-1,1063,1793,-3.6114,-12.476
-154,-769,-0.813232,5.32874,0,0,0,0,0,0,0,-1,1070,1793,-0.813269,-5.32872
-147,-769,4.26587,4.7002,0,0,0,0,0,0,0,-1,1077,1793,4.26593,-4.70022
-140,-769,4.10376,5.28589,0,0,0,0,0,0,0,-1,1084,1793,4.10371,-5.28584
-133,-769,6.422,8.21777,0,0,0,0,0,0,0,-1,1091,1793,6.42198,-8.21773
-126,-769,5.93201,12.4241,0,0,0,0,0,0,0,-1,1098,1793,5.93198,-12.424
-119,-769,7.8894,17.3041,0,0,0,0,0,0,0,-1,1105,1793,7.88941,-17.304
-112,-769,9.03577,17.1554,0,0,0,0,0,0,0,-1,1112,1793,9.03582,-17.1554
-105,-769,6.08484,17.6558,0,0,0,0,0,0,0,-1,1119,1793,6.08489,-17.6558
-98,-769,5.22229,17.7552,0,0,0,0,0,0,0,-1,1126,1793,5.2223,-17.7552
-91,-769,3.25049,12.1672,0,0,0,0,0,0,0,-1,1133,1793,3.25045,-12.1673
-84,-769,3.25684,11.7041,0,0,0,0,0,0,0,-1,1140,1793,3.25681,-11.7041
-77,-769,0.406616,9.9126,0,0,0,0,0,0,0,-1,1147,1793,0.406638,-9.91265
-70,-769,1.04944,11.9852,0,0,0,0,0,0,0,-1,1154,1793,1.04947,-11.9852
-63,-769,-2.39709,9.60339,0,0,0,0,0,0,0,-1,1161,1793,-2.39706,-9.6034
-56,-769,-5.84363,7.22156,0,0,0,0,0,0,0,-1,1168,1793,-5.84359,-7.22157
-49,-769,-2.41443,3.95471,0,0,0,0,0,0,0,-1,1175,1793,-2.41446,-3.95471
-42,-769,-3.1991,2.64941,0,0,0,0,0,0,0,-1,1182,1793,-3.19914,-2.64944
-35,-769,-3.50183,1.73389,0,0,0,0,0,0,0,-1,1189,1793,-3.50189,-1.7339
-28,-769,-3.96985,1.14075,0,0,0,0,0,0,0,-1,1196,1793,-3.96985,-1.14078
-21,-769,3.54541,10.4323,0,0,0,0,0,0,0,-1,1203,1793,3.54539,-10.4322
-14,-769,2.20728,26.2928,0,0,0,0,0,0,0,-1,1210,1793,2.20723,-26.2929
-7,-769,5.43933,17.2612,0,0,0,0,0,0,0,-1,1217,1793,5.43932,-17.2613
0,-769,5.13269,17.14,0.0382589,0.00351074,-0.0589344,0.0823268,-0.0405572,-0.642057,0.0723004,0.046724,1224,1793,5.13271,-17.1401
7,-769,4.80347,16.9883,0.0349257,0.00212751,-0.0530749,0.0740773,-0.037024,-0.63556,0.0653226,0.0438855,1231,1793,4.80348,-16.9882
14,-769,4.41113,16.5483,0.0312712,0.000556806,-0.0465146,0.0648981,-0.0330702,-0.625953,0.0575484,0.0425859,1238,1793,4.41109,-16.5483
21,-769,5.82263,18.2598,0.027305,-0.00121813,-0.0392136,0.0547699,-0.0286831,-0.61099,0.04896,0.0434165,1245,1793,5.82261,-18.2598
28,-769,6.06519,17.9623,0.0234073,-0.00316149,-0.0316094,0.0444104,-0.0241646,-0.586471,0.0401628,0.039816,1252,1793,6.06514,-17.9623
35,-769,5.35107,17.4406,0.0199741,-0.00460623,-0.0232806,0.0340095,-0.0186416,-0.542534,0.0308267,0.0453427,1259,1793,5.35102,-17.4406
42,-769,5.03723,17.9025,0.0166875,-0.0056541,-0.0142726,0.0236411,-0.0126077,-0.453356,0.021249,0.0473262,1266,1793,5.03723,-17.9025
49,-769,5.10779,17.9053,0,0,0,0,0,0,0,-1,1273,1793,5.10774,-17.9053
56,-769,5.39258,17.588,0,0,0,0,0,0,0,-1,1280,1793,5.39258,-17.588
63,-769,5.63245,18.8889,0,0,0,0,0,0,0,-1,1287,1793,5.63249,-18.8889
70,-769,5.45447,19.0627,0,0,0,0,0,0,0,-1,1294,1793,5.45447,-19.0627
77,-769,4.48169,18.205,0.0128866,0.00284096,0.0195153,0.0280151,-0.0122876,0.659443,0.023852,0.0459934,1301,1793,4.48174,-18.2049
84,-769,4.98022,17.7612,0.0134488,0.00655006,0.0236924,0.0339416,-0.0139428,0.713111,0.0284384,0.0491977,1308,1793,4.9802,-17.7612
91,-769,5.12622,17.7567,0,0,0,0,0,0,0,-1,1315,1793,5.12625,-17.7568
98,-769,4.76611,17.6985,0,0,0,0,0,0,0,-1,1322,1793,4.76614,-17.6985
105,-769,3.15393,24.71,0,0,0,0,0,0,0,-1,1329,1793,3.15394,-24.71
112,-769,4.93005,17.8524,0,0,0,0,0,0,0,-1,1336,1793,4.93009,-17.8525
119,-769,4.99854,17.2415,0,0,0,0,0,0,0,-1,1343,1793,4.99854,-17.2415
126,-769,4.74634,17.8601,0,0,0,0,0,0,0,-1,1350,1793,4.74628,-17.8601
133,-769,4.61023,17.7533,0,0,0,0,0,0,0,-1,1357,1793,4.61028,-17.7533
140,-769,4.55151,17.7086,0,0,0,0,0,0,0,-1,1364,1793,4.55157,-17.7086
147,-769,4.48816,17.9713,0,0,0,0,0,0,0,-1,1371,1793,4.4882,-17.9713
154,-769,6.37561,1.00024,0,0,0,0,0,0,0,-1,1378,1793,6.37566,-1.00028
161,-769,6.57019,1.53223,0,0,0,0,0,0,0,-1,1385,1793,6.57019,-1.53226
168,-769,8.27637,0.756958,0,0,0,0,0,0,0,-1,1392,1793,8.27639,-0.756944
175,-769,8.47144,2.41174,0,0,0,0,0,0,0,-1,1399,1793,8.47147,-2.4118
182,-769,8.41479,4.05994,0,0,0,0,0,0,0,-1,1406,1793,8.41479,-4.05997
189,-769,8.25049,5.68433,0,0,0,0,0,0,0,-1,1413,1793,8.25054,-5.68428
196,-769,7.97729,7.42847,0,0,0,0,0,0,0,-1,1420,1793,7.9773,-7.42848
203,-769,22.0977,6.73889,0,0,0,0,0,0,0,-1,1427,1793,22.0977,-6.7389
210,-769,22.1115,7.77246,0,0,0,0,0,0,0,-1,1434,1793,22.1115,-7.77248
217,-769,22.4723,8.79102,0,0,0,0,0,0,0,-1,1441,1793,22.4723,-8.79099
224,-769,22.1348,9.35278,0,0,0,0,0,0,0,-1,1448,1793,22.1348,-9.35283
231,-769,5.99573,17.9962,0,0,0,0,0,0,0,-1,1455,1793,5.99578,-17.9962
238,-769,21.7686,9.32788,0,0,0,0,0,0,0,-1,1462,1793,21.7685,-9.3279
245,-769,18.8502,7.89856,0,0,0,0,0,0,0,-1,1469,1793,18.8502,-7.89854
252,-769,17.4956,7.51794,0,0,0,0,0,0,0,-1,1476,1793,17.4956,-7.51795
259,-769,16.4871,7.42102,0,0,0,0,0,0,0,-1,1483,1793,16.4871,-7.42104
266,-769,15.8488,7.3905,0,0,0,0,0,0,0,-1,1490,1793,15.8488,-7.39046
273,-769,14.8075,7.56152,0,0,0,0,0,0,0,-1,1497,1793,14.8075,-7.56152
280,-769,13.6519,7.43054,0,0,0,0,0,0,0,-1,1504,1793,13.6518,-7.43058
287,-769,0,0,0,0,0,0,0,0,0,-1,1511,1793,0,0
294,-769,0,0,0,0,0,0,0,0,0,-1,1518,1793,0,0
301,-769,0,0,0,0,0,0,0,0,0,-1,1525,1793,0,0
308,-769,0,0,0,0,0,0,0,0,0,-1,1532,1793,0,0
315,-769,0,0,0,0,0,0,0,0,0,-1,1539,1793,0,0
322,-769,0,0,0,0,0,0,0,0,0,-1,1546,1793,0,0
329,-769,0,0,0,0,0,0,0,0,0,-1,1553,1793,0,0
336,-769,0,0,0,0,0,0,0,0,0,-1,1560,1793,0,0
343,-769,0,0,0,0,0,0,0,0,0,-1,1567,1793,0,0
350,-769,0,0,0,0,0,0,0,0,0,-1,1574,1793,0,0
357,-769,0,0,0,0,0,0,0,0,0,-1,1581,1793,0,0
364,-769,0,0,0,0,0,0,0,0,0,-1,1588,1793,0,0
371,-769,0,0,0,0,0,0,0,0,0,-1,1595,1793,0,0
378,-769,0,0,0,0,0,0,0,0,0,-1,1602,1793,0,0
385,-769,0,0,0,0,0,0,0,0,0,-1,1609,1793,0,0
392,-769,0,0,0,0,0,0,0,0,0,-1,1616,1793,0,0
399,-769,0,0,0,0,0,0,0,0,0,-1,1623,1793,0,0
406,-769,0,0,0,0,0,0,0,0,0,-1,1630,1793,0,0
413,-769,0,0,0,0,0,0,0,0,0,-1,1637,1793,0,0
420,-769,0,0,0,0,0,0,0,0,0,-1,1644,1793,0,0
427,-769,0,0,0,0,0,0,0,0,0,-1,1651,1793,0,0
434,-769,0,0,0,0,0,0,0,0,0,-1,1658,1793,0,0
441,-769,0,0,0,0,0,0,0,0,0,-1,1665,1793,0,0
448,-769,0,0,0,0,0,0,0,0,0,-1,1672,1793,0,0
455,-769,0,0,0,0,0,0,0,0,0,-1,1679,1793,0,0
462,-769,0,0,0,0,0,0,0,0,0,-1,1686,1793,0,0
469,-769,0,0,0,0,0,0,0,0,0,-1,1693,1793,0,0
476,-769,0,0,0,0,0,0,0,0,0,-1,1700,1793,0,0
483,-769,0,0,0,0,0,0,0,0,0,-1,1707,1793,0,0
490,-769,0,0,0,0,0,0,0,0,0,-1,1714,1793,0,0
497,-769,0,0,0,0,0,0,0,0,0,-1,1721,1793,0,0
504,-769,0,0,0,0,0,0,0,0,0,-1,1728,1793,0,0
511,-769,0,0,0,0,0,0,0,0,0,-1,1735,1793,0,0
518,-769,0,0,0,0,0,0,0,0,0,-1,1742,1793,0,0
525,-769,0,0,0,0,0,0,0,0,0,-1,1749,1793,0,0
532,-769,0,0,0,0,0,0,0,0,0,-1,1756,1793,0,0
539,-769,0,0,0,0,0,0,0,0,0,-1,1763,1793,0,0
546,-769,0,0,0,0,0,0,0,0,0,-1,1770,1793,0,0
553,-769,0,0,0,0,0,0,0,0,0,-1,1777,1793,0,0
560,-769,0,0,0,0,0,0,0,0,0,-1,1784,1793,0,0
567,-769,0,0,0,0,0,0,0,0,0,-1,1791,1793,0,0
574,-769,0,0,0,0,0,0,0,0,0,-1,1798,1793,0,0
581,-769,0,0,0,0,0,0,0,0,0,-1,1805,1793,0,0
588,-769,0,0,0,0,0,0,0,0,0,-1,1812,1793,0,0
595,-769,0,0,0,0,0,0,0,0,0,-1,1819,1793,0,0
602,-769,0,0,0,0,0,0,0,0,0,-1,1826,1793,0,0
609,-769,0,0,0,0,0,0,0,0,0,-1,1833,1793,0,0
616,-769,0,0,0,0,0,0,0,0,0,-1,1840,1793,0,0
623,-769,0,0,0,0,0,0,0,0,0,-1,1847,1793,0,0
630,-769,0,0,0,0,0,0,0,0,0,-1,1854,1793,0,0
637,-769,0,0,0,0,0,0,0,0,0,-1,1861,1793,0,0
644,-769,0,0,0,0,0,0,0,0,0,-1,1868,1793,0,0
651,-769,0,0,0,0,0,0,0,0,0,-1,1875,1793,0,0
658,-769,0,0,0,0,0,0,0,0,0,-1,1882,1793,0,0
665,-769,0,0,0,0,0,0,0,0,0,-1,1889,1793,0,0
672,-769,0,0,0,0,0,0,0,0,0,-1,1896,1793,0,0
679,-769,0,0,0,0,0,0,0,0,0,-1,1903,1793,0,0
686,-769,0,0,0,0,0,0,0,0,0,-1,1910,1793,0,0
693,-769,0,0,0,0,0,0,0,0,0,-1,1917,1793,0,0
700,-769,0,0,0,0,0,0,0,0,0,-1,1924,1793,0,0
707,-769,0,0,0,0,0,0,0,0,0,-1,1931,1793,0,0
714,-769,0,0,0,0,0,0,0,0,0,-1,1938,1793,0,0
721,-769,0,0,0,0,0,0,0,0,0,-1,1945,1793,0,0
728,-769,0,0,0,0,0,0,0,0,0,-1,1952,1793,0,0
735,-769,0,0,0,0,0,0,0,0,0,-1,1959,1793,0,0
742,-769,0,0,0,0,0,0,0,0,0,-1,1966,1793,0,0
749,-769,0,0,0,0,0,0,0,0,0,-1,1973,1793,0,0
756,-769,0,0,0,0,0,0,0,0,0,-1,1980,1793,0,0
763,-769,0,0,0,0,0,0,0,0,0,-1,1987,1793,0,0
770,-769,0,0,0,0,0,0,0,0,0,-1,1994,1793,0,0
777,-769,0,0,0,0,0,0,0,0,0,-1,2001,1793,0,0
784,-769,0,0,0,0,0,0,0,0,0,-1,2008,1793,0,0
791,-769,0,0,0,0,0,0,0,0,0,-1,2015,1793,0,0
798,-769,0,0,0,0,0,0,0,0,0,-1,2022,1793,0,0
805,-769,0,0,0,0,0,0,0,0,0,-1,2029,1793,0,0
812,-769,0,0,0,0,0,0,0,0,0,-1,2036,1793,0,0
-700,-776,0,0,0,0,0,0,0,0,0,-1,524,1800,0,0
-693,-776,0,0,0,0,0,0,0,0,0,-1,531,1800,0,0
-686,-776,0,0,0,0,0,0,0,0,0,-1,538,1800,0,0
-679,-776,0,0,0,0,0,0,0,0,0,-1,545,1800,0,0
-672,-776,0,0,0,0,0,0,0,0,0,-1,552,1800,0,0
-665,-776,0,0,0,0,0,0,0,0,0,-1,559,1800,0,0
-658,-776,0,0,0,0,0,0,0,0,0,-1,566,1800,0,0
-651,-776,0,0,0,0,0,0,0,0,0,-1,573,1800,0,0
-644,-776,0,0,0,0,0,0,0,0,0,-1,580,1800,0,0
-637,-776,0,0,0,0,0,0,0,0,0,-1,587,1800,0,0
-630,-776,0,0,0,0,0,0,0,0,0,-1,594,1800,0,0
-623,-776,0,0,0,0,0,0,0,0,0,-1,601,1800,0,0
-616,-776,0,0,0,0,0,0,0,0,0,-1,608,1800,0,0
-609,-776,0,0,0,0,0,0,0,0,0,-1,615,1800,0,0
-602,-776,0,0,0,0,0,0,0,0,0,-1,622,1800,0,0
-595,-776,0,0,0,0,0,0,0,0,0,-1,629,1800,0,0
-588,-776,0,0,0,0,0,0,0,0,0,-1,636,1800,0,0
-581,-776,0,0,0,0,0,0,0,0,0,-1,643,1800,0,0
-574,-776,0,0,0,0,0,0,0,0,0,-1,650,1800,0,0
-567,-776,0,0,0,0,0,0,0,0,0,-1,657,1800,0,0
-560,-776,0,0,0,0,0,0,0,0,0,-1,664,1800,0,0
-553,-776,0,0,0,0,0,0,0,0,0,-1,671,1800,0,0
-546,-776,0,0,0,0,0,0,0,0,0,-1,678,1800,0,0
-539,-776,0,0,0,0,0,0,0,0,0,-1,685,1800,0,0
-532,-776,0,0,0,0,0,0,0,0,0,-1,692,1800,0,0
-525,-776,0,0,0,0,0,0,0,0,0,-1,699,1800,0,0
-518,-776,0,0,0,0,0,0,0,0,0,-1,706,1800,0,0
-511,-776,0,0,0,0,0,0,0,0,0,-1,713,1800,0,0
-504,-776,0,0,0,0,0,0,0,0,0,-1,720,1800,0,0
-497,-776,0,0,0,0,0,0,0,0,0,-1,727,1800,0,0
-490,-776,0,0,0,0,0,0,0,0,0,-1,734,1800,0,0
-483,-776,0,0,0,0,0,0,0,0,0,-1,741,1800,0,0
-476,-776,0,0,0,0,0,0,0,0,0,-1,748,1800,0,0
-469,-776,0,0,0,0,0,0,0,0,0,-1,755,1800,0,0
-462,-776,0,0,0,0,0,0,0,0,0,-1,762,1800,0,0
-455,-776,0,0,0,0,0,0,0,0,0,-1,769,1800,0,0
-448,-776,0,0,0,0,0,0,0,0,0,-1,776,1800,0,0
-441,-776,0,0,0,0,0,0,0,0,0,-1,783,1800,0,0
-434,-776,0,0,0,0,0,0,0,0,0,-1,790,1800,0,0
-427,-776,0,0,0,0,0,0,0,0,0,-1,797,1800,0,0
-420,-776,0,0,0,0,0,0,0,0,0,-1,804,1800,0,0
-413,-776,0,0,0,0,0,0,0,0,0,-1,811,1800,0,0
-406,-776,0,0,0,0,0,0,0,0,0,-1,818,1800,0,0
-399,-776,0,0,0,0,0,0,0,0,0,-1,825,1800,0,0
-392,-776,0,0,0,0,0,0,0,0,0,-1,832,1800,0,0
-385,-776,0,0,0,0,0,0,0,0,0,-1,839,1800,0,0
-378,-776,0,0,0,0,0,0,0,0,0,-1,846,1800,0,0
-371,-776,0,0,0,0,0,0,0,0,0,-1,853,1800,0,0
-364,-776,0,0,0,0,0,0,0,0,0,-1,860,1800,0,0
-357,-776,0,0,0,0,0,0,0,0,0,-1,867,1800,0,0
-350,-776,0,0,0,0,0,0,0,0,0,-1,874,1800,0,0
-343,-776,0,0,0,0,0,0,0,0,0,-1,881,1800,0,0
-336,-776,0,0,0,0,0,0,0,0,0,-1,888,1800,0,0
-329,-776,0,0,0,0,0,0,0,0,0,-1,895,1800,0,0
-322,-776,0,0,0,0,0,0,0,0,0,-1,902,1800,0,0
-315,-776,0,0,0,0,0,0,0,0,0,-1,909,1800,0,0
-308,-776,0,0,0,0,0,0,0,0,0,-1,916,1800,0,0
-301,-776,0,0,0,0,0,0,0,0,0,-1,923,1800,0,0
-294,-776,0,0,0,0,0,0,0,0,0,-1,930,1800,0,0
-287,-776,0,0,0,0,0,0,0,0,0,-1,937,1800,0,0
-280,-776,0,0,0,0,0,0,0,0,0,-1,944,1800,0,0
-273,-776,0,0,0,0,0,0,0,0,0,-1,951,1800,0,0
-266,-776,0,0,0,0,0,0,0,0,0,-1,958,1800,0,0
-259,-776,0,0,0,0,0,0,0,0,0,-1,965,1800,0,0
-252,-776,0,0,0,0,0,0,0,0,0,-1,972,1800,0,0
-245,-776,0,0,0,0,0,0,0,0,0,-1,979,1800,0,0
-238,-776,0,0,0,0,0,0,0,0,0,-1,986,1800,0,0
-231,-776,0,0,0,0,0,0,0,0,0,-1,993,1800,0,0
-224,-776,0,0,0,0,0,0,0,0,0,-1,1000,1800,0,0
-217,-776,0,0,0,0,0,0,0,0,0,-1,1007,1800,0,0
-210,-776,0,0,0,0,0,0,0,0,0,-1,1014,1800,0,0
-203,-776,0,0,0,0,0,0,0,0,0,-1,1021,1800,0,0
-196,-776,0,0,0,0,0,0,0,0,0,-1,1028,1800,0,0
-189,-776,0,0,0,0,0,0,0,0,0,-1,1035,1800,0,0
-182,-776,0,0,0,0,0,0,0,0,0,-1,1042,1800,0,0
-175,-776,0,0,0,0,0,0,0,0,0,-1,1049,1800,0,0
-168,-776,0,0,0,0,0,0,0,0,0,-1,1056,1800,0,0
-161,-776,0,0,0,0,0,0,0,0,0,-1,1063,1800,0,0
-154,-776,0,0,0,0,0,0,0,0,0,-1,1070,1800,0,0
-147,-776,0,0,0,0,0,0,0,0,0,-1,1077,1800,0,0
-140,-776,2.98499,5.20911,0,0,0,0,0,0,0,-1,1084,1800,2.98493,-5.2091
-133,-776,6.72363,9.35828,0,0,0,0,0,0,0,-1,1091,1800,6.72358,-9.35824
-126,-776,6.55029,13.7832,0,0,0,0,0,0,0,-1,1098,1800,6.55029,-13.7832
-119,-776,5.72107,13.7787,0,0,0,0,0,0,0,-1,1105,1800,5.72106,-13.7787
-112,-776,7.11792,18.3749,0,0,0,0,0,0,0,-1,1112,1800,7.11789,-18.3749
-105,-776,6.26868,18.3521,0,0,0,0,0,0,0,-1,1119,1800,6.26871,-18.352
-98,-776,3.68726,13.4067,0,0,0,0,0,0,0,-1,1126,1800,3.6873,-13.4068
-91,-776,3.00159,13.1172,0,0,0,0,0,0,0,-1,1133,1800,3.00159,-13.1171
-84,-776,2.27747,12.7086,0,0,0,0,0,0,0,-1,1140,1800,2.27747,-12.7087
-77,-776,0.580078,11.1272,0,0,0,0,0,0,0,-1,1147,1800,0.58002,-11.1272
-70,-776,-0.562866,12.3163,0,0,0,0,0,0,0,-1,1154,1800,-0.562897,-12.3163
-63,-776,-3.96106,9.97656,0,0,0,0,0,0,0,-1,1161,1800,-3.961,-9.97654
-56,-776,-7.35913,7.63672,0,0,0,0,0,0,0,-1,1168,1800,-7.3591,-7.63676
-49,-776,-7.62952,3.1908,0,0,0,0,0,0,0,-1,1175,1800,-7.62955,-3.19076
-42,-776,-3.41272,3.0249,0,0,0,0,0,0,0,-1,1182,1800,-3.41269,-3.02488
-35,-776,-3.71753,1.63635,0,0,0,0,0,0,0,-1,1189,1800,-3.71755,-1.63631
-28,-776,-4.03979,0.716064,0,0,0,0,0,0,0,-1,1196,1800,-4.03977,-0.716055
-21,-776,3.00098,27.3224,0,0,0,0,0,0,0,-1,1203,1800,3.00099,-27.3224
-14,-776,3.73706,26.2198,0.0529205,0.00343078,-0.0851028,0.116803,-0.0604517,-0.643917,0.104048,0.0481802,1210,1800,3.73702,-26.2198
-7,-776,4.38953,24.7822,0.0522434,0.00346963,-0.0816642,0.113084,-0.0573712,-0.640301,0.100149,0.0482173,1217,1800,4.38952,-24.7822
0,-776,4.90344,16.745,0,0,0,0,0,0,0,-1,1224,1800,4.90343,-16.745
7,-776,4.54126,16.5575,0,0,0,0,0,0,0,-1,1231,1800,4.54121,-16.5575
14,-776,4.19702,16.1102,0,0,0,0,0,0,0,-1,1238,1800,4.19702,-16.1102
21,-776,6.05554,18.5903,0,0,0,0,0,0,0,-1,1245,1800,6.05554,-18.5904
28,-776,6.72961,18.145,0.0322352,-0.00536271,-0.0416172,0.0591024,-0.0322299,-0.57326,0.0534861,0.0404784,1252,1800,6.72956,-18.145
35,-776,7.43518,17.545,0.0278186,-0.00692196,-0.0304181,0.0454768,-0.0245801,-0.525968,0.0410427,0.0413676,1259,1800,7.43518,-17.545
42,-776,4.96704,18.0397,0.0237186,-0.00789772,-0.0185813,0.0323064,-0.0164855,-0.432932,0.0286594,0.0465457,1266,1800,4.96702,-18.0396
49,-776,5.27454,18.1698,0,0,0,0,0,0,0,-1,1273,1800,5.27454,-18.1698
56,-776,5.38428,18.661,0.0198065,-0.00585696,0.00238047,0.0200255,-0.0060759,0.0917144,0.0157707,0.0462604,1280,1800,5.38425,-18.661
63,-776,5.12378,19.198,0.0182551,-0.00195397,0.0118667,0.0237364,-0.00743531,0.432715,0.0187994,0.0442997,1287,1800,5.12381,-19.198
70,-776,4.97717,19.3656,0.0176018,0.000654982,0.0196324,0.0305113,-0.0122546,0.581674,0.0254298,0.0464304,1294,1800,4.97714,-19.3655
77,-776,4.83521,19.5634,0,0,0,0,0,0,0,-1,1301,1800,4.83523,-19.5633
84,-776,4.19336,21.5793,0,0,0,0,0,0,0,-1,1308,1800,4.19335,-21.5794
91,-776,3.52222,22.1099,0,0,0,0,0,0,0,-1,1315,1800,3.52227,-22.1099
98,-776,3.43274,23.2664,0.0210683,0.0197279,0.0344287,0.0548333,-0.0140371,0.775667,0.0420234,0.0442093,1322,1800,3.43275,-23.2664
105,-776,3.80859,24.8602,0.0215552,0.0244251,0.0337167,0.0567374,-0.010757,0.806665,0.0418737,0.0494276,1329,1800,3.80859,-24.8603
112,-776,4.42004,27.0011,0,0,0,0,0,0,0,-1,1336,1800,4.42005,-27.0011
119,-776,3.8158,28.1921,0,0,0,0,0,0,0,-1,1343,1800,3.81581,-28.1921
126,-776,3.29163,29.5763,0,0,0,0,0,0,0,-1,1350,1800,3.29166,-29.5763
133,-776,5.96814,15.629,0,0,0,0,0,0,0,-1,1357,1800,5.96817,-15.629
140,-776,4.39331,10.0631,0,0,0,0,0,0,0,-1,1364,1800,4.39332,-10.0631
147,-776,6.46301,-0.617188,0,0,0,0,0,0,0,-1,1371,1800,6.46305,0.61724
154,-776,6.43774,0.344116,0,0,0,0,0,0,0,-1,1378,1800,6.43776,-0.344162
161,-776,6.50293,1.1731,0,0,0,0,0,0,0,-1,1385,1800,6.5029,-1.17313
168,-776,8.44971,1.22913,0,0,0,0,0,0,0,-1,1392,1800,8.44974,-1.22915
175,-776,8.61523,2.87061,0,0,0,0,0,0,0,-1,1399,1800,8.6152,-2.87063
182,-776,8.54065,4.60645,0,0,0,0,0,0,0,-1,1406,1800,8.5407,-4.60643
189,-776,8.35303,6.28223,0,0,0,0,0,0,0,-1,1413,1800,8.35297,-6.28225
196,-776,8.0387,8.21704,0,0,0,0,0,0,0,-1,1420,1800,8.03865,-8.217
203,-776,7.91736,9.79919,0,0,0,0,0,0,0,-1,1427,1800,7.91735,-9.79922
210,-776,20.2479,7.85718,0,0,0,0,0,0,0,-1,1434,1800,20.248,-7.85719
217,-776,21.5171,9.3418,0,0,0,0,0,0,0,-1,1441,1800,21.5171,-9.34182
224,-776,3.09253,14.9313,0,0,0,0,0,0,0,-1,1448,1800,3.09254,-14.9313
231,-776,20.8671,9.21057,0,0,0,0,0,0,0,-1,1455,1800,20.867,-9.21054
238,-776,20.7511,9.05847,0,0,0,0,0,0,0,-1,1462,1800,20.7511,-9.05848
245,-776,21.0875,9.85986,0,0,0,0,0,0,0,-1,1469,1800,21.0875,-9.8599
252,-776,16.6313,6.47168,0,0,0,0,0,0,0,-1,1476,1800,16.6313,-6.47165
259,-776,14.1882,7.69055,0,0,0,0,0,0,0,-1,1483,1800,14.1882,-7.69061
266,-776,0,0,0,0,0,0,0,0,0,-1,1490,1800,0,0
273,-776,0,0,0,0,0,0,0,0,0,-1,1497,1800,0,0
280,-776,0,0,0,0,0,0,0,0,0,-1,1504,1800,0,0
287,-776,0,0,0,0,0,0,0,0,0,-1,1511,1800,0,0
294,-776,0,0,0,0,0,0,0,0,0,-1,1518,1800,0,0
301,-776,0,0,0,0,0,0,0,0,0,-1,1525,1800,0,0
308,-776,0,0,0,0,0,0,0,0,0,-1,1532,1800,0,0
315,-776,0,0,0,0,0,0,0,0,0,-1,1539,1800,0,0
322,-776,0,0,0,0,0,0,0,0,0,-1,1546,1800,0,0
329,-776,0,0,0,0,0,0,0,0,0,-1,1553,1800,0,0
336,-776,0,0,0,0,0,0,0,0,0,-1,1560,1800,0,0
343,-776,0,0,0,0,0,0,0,0,0,-1,1567,1800,0,0
350,-776,0,0,0,0,0,0,0,0,0,-1,1574,1800,0,0
357,-776,0,0,0,0,0,0,0,0,0,-1,1581,1800,0,0
364,-776,0,0,0,0,0,0,0,0,0,-1,1588,1800,0,0
371,-776,0,0,0,0,0,0,0,0,0,-1,1595,1800,0,0
378,-776,0,0,0,0,0,0,0,0,0,-1,1602,1800,0,0
385,-776,0,0,0,0,0,0,0,0,0,-1,1609,1800,0,0
392,-776,0,0,0,0,0,0,0,0,0,-1,1616,1800,0,0
399,-776,0,0,0,0,0,0,0,0,0,-1,1623,1800,0,0
406,-776,0,0,0,0,0,0,0,0,0,-1,1630,1800,0,0
413,-776,0,0,0,0,0,0,0,0,0,-1,1637,1800,0,0
420,-776,0,0,0,0,0,0,0,0,0,-1,1644,1800,0,0
427,-776,0,0,0,0,0,0,0,0,0,-1,1651,1800,0,0
434,-776,0,0,0,0,0,0,0,0,0,-1,1658,1800,0,0
441,-776,0,0,0,0,0,0,0,0,0,-1,1665,1800,0,0
448,-776,0,0,0,0,0,0,0,0,0,-1,1672,1800,0,0
455,-776,0,0,0,0,0,0,0,0,0,-1,1679,1800,0,0
462,-776,0,0,0,0,0,0,0,0,0,-1,1686,1800,0,0
469,-776,0,0,0,0,0,0,0,0,0,-1,1693,1800,0,0
476,-776,0,0,0,0,0,0,0,0,0,-1,1700,1800,0,0
483,-776,0,0,0,0,0,0,0,0,0,-1,1707,1800,0,0
490,-776,0,0,0,0,0,0,0,0,0,-1,1714,1800,0,0
497,-776,0,0,0,0,0,0,0,0,0,-1,1721,1800,0,0
504,-776,0,0,0,0,0,0,0,0,0,-1,1728,1800,0,0
511,-776,0,0,0,0,0,0,0,0,0,-1,1735,1800,0,0
518,-776,0,0,0,0,0,0,0,0,0,-1,1742,1800,0,0
525,-776,0,0,0,0,0,0,0,0,0,-1,1749,1800,0,0
532,-776,0,0,0,0,0,0,0,0,0,-1,1756,1800,0,0
539,-776,0,0,0,0,0,0,0,0,0,-1,1763,1800,0,0
546,-776,0,0,0,0,0,0,0,0,0,-1,1770,1800,0,0
553,-776,0,0,0,0,0,0,0,0,0,-1,1777,1800,0,0
560,-776,0,0,0,0,0,0,0,0,0,-1,1784,1800,0,0
567,-776,0,0,0,0,0,0,0,0,0,-1,1791,1800,0,0
574,-776,0,0,0,0,0,0,0,0,0,-1,1798,1800,0,0
581,-776,0,0,0,0,0,0,0,0,0,-1,1805,1800,0,0
588,-776,0,0,0,0,0,0,0,0,0,-1,1812,1800,0,0
595,-776,0,0,0,0,0,0,0,0,0,-1,1819,1800,0,0
602,-776,0,0,0,0,0,0,0,0,0,-1,1826,1800,0,0
609,-776,0,0,0,0,0,0,0,0,0,-1,1833,1800,0,0
616,-776,0,0,0,0,0,0,0,0,0,-1,1840,1800,0,0
623,-776,0,0,0,0,0,0,0,0,0,-1,1847,1800,0,0
630,-776,0,0,0,0,0,0,0,0,0,-1,1854,1800,0,0
637,-776,0,0,0,0,0,0,0,0,0,-1,1861,1800,0,0
644,-776,0,0,0,0,0,0,0,0,0,-1,1868,1800,0,0
651,-776,0,0,0,0,0,0,0,0,0,-1,1875,1800,0,0
658,-776,0,0,0,0,0,0,0,0,0,-1,1882,1800,0,0
665,-776,0,0,0,0,0,0,0,0,0,-1,1889,1800,0,0
672,-776,0,0,0,0,0,0,0,0,0,-1,1896,1800,0,0
679,-776,0,0,0,0,0,0,0,0,0,-1,1903,1800,0,0
686,-776,0,0,0,0,0,0,0,0,0,-1,1910,1800,0,0
693,-776,0,0,0,0,0,0,0,0,0,-1,1917,1800,0,0
700,-776,0,0,0,0,0,0,0,0,0,-1,1924,1800,0,0
707,-776,0,0,0,0,0,0,0,0,0,-1,1931,1800,0,0
714,-776,0,0,0,0,0,0,0,0,0,-1,1938,1800,0,0
721,-776,0,0,0,0,0,0,0,0,0,-1,1945,1800,0,0
728,-776,0,0,0,0,0,0,0,0,0,-1,1952,1800,0,0
735,-776,0,0,0,0,0,0,0,0,0,-1,1959,1800,0,0
742,-776,0,0,0,0,0,0,0,0,0,-1,1966,1800,0,0
749,-776,0,0,0,0,0,0,0,0,0,-1,1973,1800,0,0
756,-776,0,0,0,0,0,0,0,0,0,-1,1980,1800,0,0
763,-776,0,0,0,0,0,0,0,0,0,-1,1987,1800,0,0
770,-776,0,0,0,0,0,0,0,0,0,-1,1994,1800,0,0
777,-776,0,0,0,0,0,0,0,0,0,-1,2001,1800,0,0
784,-776,0,0,0,0,0,0,0,0,0,-1,2008,1800,0,0
791,-776,0,0,0,0,0,0,0,0,0,-1,2015,1800,0,0
798,-776,0,0,0,0,0,0,0,0,0,-1,2022,1800,0,0
805,-776,0,0,0,0,0,0,0,0,0,-1,2029,1800,0,0
812,-776,0,0,0,0,0,0,0,0,0,-1,2036,1800,0,0
-700,-783,0,0,0,0,0,0,0,0,0,-1,524,1807,0,0
-693,-783,0,0,0,0,0,0,0,0,0,-1,531,1807,0,0
-686,-783,0,0,0,0,0,0,0,0,0,-1,538,1807,0,0
-679,-783,0,0,0,0,0,0,0,0,0,-1,545,1807,0,0
-672,-783,0,0,0,0,0,0,0,0,0,-1,552,1807,0,0
-665,-783,0,0,0,0,0,0,0,0,0,-1,559,1807,0,0
-658,-783,0,0,0,0,0,0,0,0,0,-1,566,1807,0,0
-651,-783,0,0,0,0,0,0,0,0,0,-1,573,1807,0,0
-644,-783,0,0,0,0,0,0,0,0,0,-1,580,1807,0,0
-637,-783,0,0,0,0,0,0,0,0,0,-1,587,1807,0,0
-630,-783,0,0,0,0,0,0,0,0,0,-1,594,1807,0,0
-623,-783,0,0,0,0,0,0,0,0,0,-1,601,1807,0,0
-616,-783,0,0,0,0,0,0,0,0,0,-1,608,1807,0,0
-609,-783,0,0,0,0,0,0,0,0,0,-1,615,1807,0,0
-602,-783,0,0,0,0,0,0,0,0,0,-1,622,1807,0,0
-595,-783,0,0,0,0,0,0,0,0,0,-1,629,1807,0,0
-588,-783,0,0,0,0,0,0,0,0,0,-1,636,1807,0,0
-581,-783,0,0,0,0,0,0,0,0,0,-1,643,1807,0,0
-574,-783,0,0,0,0,0,0,0,0,0,-1,650,1807,0,0
-567,-783,0,0,0,0,0,0,0,0,0,-1,657,1807,0,0
-560,-783,0,0,0,0,0,0,0,0,0,-1,664,1807,0,0
-553,-783,0,0,0,0,0,0,0,0,0,-1,671,1807,0,0
-546,-783,0,0,0,0,0,0,0,0,0,-1,678,1807,0,0
-539,-783,0,0,0,0,0,0,0,0,0,-1,685,1807,0,0
-532,-783,0,0,0,0,0,0,0,0,0,-1,692,1807,0,0
-525,-783,0,0,0,0,0,0,0,0,0,-1,699,1807,0,0
-518,-783,0,0,0,0,0,0,0,0,0,-1,706,1807,0,0
-511,-783,0,0,0,0,0,0,0,0,0,-1,713,1807,0,0
-504,-783,0,0,0,0,0,0,0,0,0,-1,720,1807,0,0
-497,-783,0,0,0,0,0,0,0,0,0,-1,727,1807,0,0
-490,-783,0,0,0,0,0,0,0,0,0,-1,734,1807,0,0
-483,-783,0,0,0,0,0,0,0,0,0,-1,741,1807,0,0
-476,-783,0,0,0,0,0,0,0,0,0,-1,748,1807,0,0
-469,-783,0,0,0,0,0,0,0,0,0,-1,755,1807,0,0
-462,-783,0,0,0,0,0,0,0,0,0,-1,762,1807,0,0
-455,-783,0,0,0,0,0,0,0,0,0,-1,769,1807,0,0
-448,-783,0,0,0,0,0,0,0,0,0,-1,776,1807,0,0
-441,-783,0,0,0,0,0,0,0,0,0,-1,783,1807,0,0
-434,-783,0,0,0,0,0,0,0,0,0,-1,790,1807,0,0
-427,-783,0,0,0,0,0,0,0,0,0,-1,797,1807,0,0
-420,-783,0,0,0,0,0,0,0,0,0,-1,804,1807,0,0
-413,-783,0,0,0,0,0,0,0,0,0,-1,811,1807,0,0
-406,-783,0,0,0,0,0,0,0,0,0,-1,818,1807,0,0
-399,-783,0,0,0,0,0,0,0,0,0,-1,825,1807,0,0
-392,-783,0,0,0,0,0,0,0,0,0,-1,832,1807,0,0
-385,-783,0,0,0,0,0,0,0,0,0,-1,839,1807,0,0
-378,-783,0,0,0,0,0,0,0,0,0,-1,846,1807,0,0
-371,-783,0,0,0,0,0,0,0,0,0,-1,853,1807,0,0
-364,-783,0,0,0,0,0,0,0,0,0,-1,860,1807,0,0
-357,-783,0,0,0,0,0,0,0,0,0,-1,867,1807,0,0
-350,-783,0,0,0,0,0,0,0,0,0,-1,874,1807,0,0
-343,-783,0,0,0,0,0,0,0,0,0,-1,881,1807,0,0
-336,-783,0,0,0,0,0,0,0,0,0,-1,888,1807,0,0
-329,-783,0,0,0,0,0,0,0,0,0,-1,895,1807,0,0
-322,-783,0,0,0,0,0,0,0,0,0,-1,902,1807,0,0
-315,-783,0,0,0,0,0,0,0,0,0,-1,909,1807,0,0
-308,-783,0,0,0,0,0,0,0,0,0,-1,916,1807,0,0
-301,-783,0,0,0,0,0,0,0,0,0,-1,923,1807,0,0
-294,-783,0,0,0,0,0,0,0,0,0,-1,930,1807,0,0
-287,-783,0,0,0,0,0,0,0,0,0,-1,937,1807,0,0
-280,-783,0,0,0,0,0,0,0,0,0,-1,944,1807,0,0
-273,-783,0,0,0,0,0,0,0,0,0,-1,951,1807,0,0
-266,-783,0,0,0,0,0,0,0,0,0,-1,958,1807,0,0
-259,-783,0,0,0,0,0,0,0,0,0,-1,965,1807,0,0
-252,-783,0,0,0,0,0,0,0,0,0,-1,972,1807,0,0
-245,-783,0,0,0,0,0,0,0,0,0,-1,979,1807,0,0
-238,-783,0,0,0,0,0,0,0,0,0,-1,986,1807,0,0
-231,-783,0,0,0,0,0,0,0,0,0,-1,993,1807,0,0
-224,-783,0,0,0,0,0,0,0,0,0,-1,1000,1807,0,0
-217,-783,0,0,0,0,0,0,0,0,0,-1,1007,1807,0,0
-210,-783,0,0,0,0,0,0,0,0,0,-1,1014,1807,0,0
-203,-783,0,0,0,0,0,0,0,0,0,-1,1021,1807,0,0
-196,-783,0,0,0,0,0,0,0,0,0,-1,1028,1807,0,0
-189,-783,0,0,0,0,0,0,0,0,0,-1,1035,1807,0,0
-182,-783,0,0,0,0,0,0,0,0,0,-1,1042,1807,0,0
-175,-783,0,0,0,0,0,0,0,0,0,-1,1049,1807,0,0
-168,-783,0,0,0,0,0,0,0,0,0,-1,1056,1807,0,0
-161,-783,0,0,0,0,0,0,0,0,0,-1,1063,1807,0,0
-154,-783,0,0,0,0,0,0,0,0,0,-1,1070,1807,0,0
-147,-783,0,0,0,0,0,0,0,0,0,-1,1077,1807,0,0
-140,-783,0,0,0,0,0,0,0,0,0,-1,1084,1807,0,0
-133,-783,0,0,0,0,0,0,0,0,0,-1,1091,1807,0,0
-126,-783,0,0,0,0,0,0,0,0,0,-1,1098,1807,0,0
-119,-783,0,0,0,0,0,0,0,0,0,-1,1105,1807,0,0
-112,-783,5.33936,14.7699,0,0,0,0,0,0,0,-1,1112,1807,5.33931,-14.7699
-105,-783,4.53088,14.7312,0,0,0,0,0,0,0,-1,1119,1807,4.53083,-14.7312
-98,-783,3.57434,14.3257,0,0,0,0,0,0,0,-1,1126,1807,3.57437,-14.3257
-91,-783,2.78186,14.2633,0,0,0,0,0,0,0,-1,1133,1807,2.78186,-14.2633
-84,-783,-0.0491943,14.5743,0,0,0,0,0,0,0,-1,1140,1807,-0.0491562,-14.5743
-77,-783,0.332764,12.7788,0,0,0,0,0,0,0,-1,1147,1807,0.332743,-12.7788
-70,-783,-1.93176,5.12817,0,0,0,0,0,0,0,-1,1154,1807,-1.93171,-5.12813
-63,-783,-5.31702,10.54,0,0,0,0,0,0,0,-1,1161,1807,-5.31703,-10.54
-56,-783,-6.26135,6.9679,0,0,0,0,0,0,0,-1,1168,1807,-6.26136,-6.96785
-49,-783,-3.17688,4.59705,0,0,0,0,0,0,0,-1,1175,1807,-3.17685,-4.5971
-42,-783,-3.72876,3.1405,0,0,0,0,0,0,0,-1,1182,1807,-3.72874,-3.14055
-35,-783,-3.97046,1.59399,0,0,0,0,0,0,0,-1,1189,1807,-3.97041,-1.59401
-28,-783,-4.12195,0.270386,0,0,0,0,0,0,0,-1,1196,1807,-4.12197,-0.270408
-21,-783,4.06482,27.2424,0,0,0,0,0,0,0,-1,1203,1807,4.0648,-27.2424
-14,-783,4.70923,26.0194,0.0638081,0.00189819,-0.103937,0.141301,-0.0755951,-0.640668,0.127126,0.0479661,1210,1807,4.70922,-26.0195
-7,-783,5.19128,24.8019,0.0645363,0.00181436,-0.101233,0.139155,-0.0728044,-0.635192,0.124357,0.0463429,1217,1807,5.1913,-24.8019
0,-783,5.7229,23.5479,0,0,0,0,0,0,0,-1,1224,1807,5.72291,-23.5478
7,-783,6.24329,22.3635,0,0,0,0,0,0,0,-1,1231,1807,6.24334,-22.3636
14,-783,3.99329,15.7435,0,0,0,0,0,0,0,-1,1238,1807,3.99326,-15.7436
21,-783,7.0719,19.6744,0.0487708,-0.00587523,-0.0661209,0.0929917,-0.0500961,-0.589469,0.08384,0.0473237,1245,1807,7.07195,-19.6744
28,-783,7.69678,18.6294,0.0428167,-0.00828726,-0.052997,0.0760999,-0.0415705,-0.560769,0.0689051,0.0417555,1252,1807,7.69675,-18.6294
35,-783,4.7771,18.0745,0,0,0,0,0,0,0,-1,1259,1807,4.77712,-18.0744
42,-783,4.86865,18.0997,0,0,0,0,0,0,0,-1,1266,1807,4.86862,-18.0997
49,-783,4.96008,18.1249,0,0,0,0,0,0,0,-1,1273,1807,4.96011,-18.1249
56,-783,4.72583,19.0032,0.0270419,-0.0068859,0.00321474,0.0273438,-0.00718782,0.093642,0.0210385,0.0467696,1280,1807,4.72585,-19.0032
63,-783,4.58789,19.2877,0.0244959,-0.00125649,0.0154264,0.0317137,-0.00847429,0.437629,0.0244615,0.0440306,1287,1807,4.58788,-19.2877
70,-783,4.68274,19.5125,0.0232482,0.00258895,0.0256211,0.0405436,-0.0147065,0.593781,0.0330408,0.0428576,1294,1807,4.68275,-19.5124
77,-783,4.72571,19.8151,0,0,0,0,0,0,0,-1,1301,1807,4.7257,-19.8151
84,-783,4.36877,21.4252,0,0,0,0,0,0,0,-1,1308,1807,4.36879,-21.4252
91,-783,4.47009,22.2772,0,0,0,0,0,0,0,-1,1315,1807,4.47015,-22.2772
98,-783,4.44421,23.5288,0.0261516,0.0289641,0.0442237,0.0718039,-0.0166882,0.801292,0.0542938,0.0461455,1322,1807,4.44423,-23.5288
105,-783,4.72742,25.0267,0.0267221,0.0358114,0.043496,0.0749995,-0.012466,0.837452,0.0546312,0.0474518,1329,1807,4.72746,-25.0268
112,-783,4.80493,26.4425,0.026127,0.0420161,0.0433933,0.0781861,-0.010043,0.875937,0.0557739,0.0452574,1336,1807,4.80497,-26.4425
119,-783,4.45386,27.6564,0,0,0,0,0,0,0,-1,1343,1807,4.45386,-27.6563
126,-783,3.91028,28.9814,0,0,0,0,0,0,0,-1,1350,1807,3.91024,-28.9814
133,-783,3.48975,30.3324,0,0,0,0,0,0,0,-1,1357,1807,3.48977,-30.3324
140,-783,2.6543,15.261,0,0,0,0,0,0,0,-1,1364,1807,2.65435,-15.261
147,-783,6.45825,-1.2334,0,0,0,0,0,0,0,-1,1371,1807,6.45822,1.23339
154,-783,6.37024,-0.145874,0,0,0,0,0,0,0,-1,1378,1807,6.37018,0.145866
161,-783,6.57568,1.16174,0,0,0,0,0,0,0,-1,1385,1807,6.57562,-1.1617
168,-783,8.62561,1.79944,0,0,0,0,0,0,0,-1,1392,1807,8.62561,-1.79946
175,-783,8.78699,3.40857,0,0,0,0,0,0,0,-1,1399,1807,8.78697,-3.40854
182,-783,8.70984,5.14661,0,0,0,0,0,0,0,-1,1406,1807,8.70989,-5.14666
189,-783,8.55762,6.79871,0,0,0,0,0,0,0,-1,1413,1807,8.55766,-6.79872
196,-783,8.25488,8.66626,0,0,0,0,0,0,0,-1,1420,1807,8.25492,-8.66628
203,-783,7.86755,10.5735,0,0,0,0,0,0,0,-1,1427,1807,7.8676,-10.5734
210,-783,5.6969,8.99231,0,0,0,0,0,0,0,-1,1434,1807,5.69693,-8.99234
217,-783,5.28503,3.80872,0,0,0,0,0,0,0,-1,1441,1807,5.285,-3.80868
224,-783,3.22571,6.62903,0,0,0,0,0,0,0,-1,1448,1807,3.2257,-6.62907
231,-783,4.27942,4.56262,0,0,0,0,0,0,0,-1,1455,1807,4.27948,-4.56267
238,-783,0,0,0,0,0,0,0,0,0,-1,1462,1807,0,0
245,-783,0,0,0,0,0,0,0,0,0,-1,1469,1807,0,0
252,-783,0,0,0,0,0,0,0,0,0,-1,1476,1807,0,0
259,-783,0,0,0,0,0,0,0,0,0,-1,1483,1807,0,0
266,-783,0,0,0,0,0,0,0,0,0,-1,1490,1807,0,0
273,-783,0,0,0,0,0,0,0,0,0,-1,1497,1807,0,0
280,-783,0,0,0,0,0,0,0,0,0,-1,1504,1807,0,0
287,-783,0,0,0,0,0,0,0,0,0,-1,1511,1807,0,0
294,-783,0,0,0,0,0,0,0,0,0,-1,1518,1807,0,0
301,-783,0,0,0,0,0,0,0,0,0,-1,1525,1807,0,0
308,-783,0,0,0,0,0,0,0,0,0,-1,1532,1807,0,0
315,-783,0,0,0,0,0,0,0,0,0,-1,1539,1807,0,0
322,-783,0,0,0,0,0,0,0,0,0,-1,1546,1807,0,0
329,-783,0,0,0,0,0,0,0,0,0,-1,1553,1807,0,0
336,-783,0,0,0,0,0,0,0,0,0,-1,1560,1807,0,0
343,-783,0,0,0,0,0,0,0,0,0,-1,1567,1807,0,0
350,-783,0,0,0,0,0,0,0,0,0,-1,1574,1807,0,0
357,-783,0,0,0,0,0,0,0,0,0,-1,1581,1807,0,0
364,-783,0,0,0,0,0,0,0,0,0,-1,1588,1807,0,0
371,-783,0,0,0,0,0,0,0,0,0,-1,1595,1807,0,0
378,-783,0,0,0,0,0,0,0,0,0,-1,1602,1807,0,0
385,-783,0,0,0,0,0,0,0,0,0,-1,1609,1807,0,0
392,-783,0,0,0,0,0,0,0,0,0,-1,1616,1807,0,0
399,-783,0,0,0,0,0,0,0,0,0,-1,1623,1807,0,0
406,-783,0,0,0,0,0,0,0,0,0,-1,1630,1807,0,0
413,-783,0,0,0,0,0,0,0,0,0,-1,1637,1807,0,0
420,-783,0,0,0,0,0,0,0,0,0,-1,1644,1807,0,0
427,-783,0,0,0,0,0,0,0,0,0,-1,1651,1807,0,0
434,-783,0,0,0,0,0,0,0,0,0,-1,1658,1807,0,0
441,-783,0,0,0,0,0,0,0,0,0,-1,1665,1807,0,0
448,-783,0,0,0,0,0,0,0,0,0,-1,1672,1807,0,0
455,-783,0,0,0,0,0,0,0,0,0,-1,1679,1807,0,0
462,-783,0,0,0,0,0,0,0,0,0,-1,1686,1807,0,0
469,-783,0,0,0,0,0,0,0,0,0,-1,1693,1807,0,0
476,-783,0,0,0,0,0,0,0,0,0,-1,1700,1807,0,0
483,-783,0,0,0,0,0,0,0,0,0,-1,1707,1807,0,0
490,-783,0,0,0,0,0,0,0,0,0,-1,1714,1807,0,0
497,-783,0,0,0,0,0,0,0,0,0,-1,1721,1807,0,0
504,-783,0,0,0,0,0,0,0,0,0,-1,1728,1807,0,0
511,-783,0,0,0,0,0,0,0,0,0,-1,1735,1807,0,0
518,-783,0,0,0,0,0,0,0,0,0,-1,1742,1807,0,0
525,-783,0,0,0,0,0,0,0,0,0,-1,1749,1807,0,0
532,-783,0,0,0,0,0,0,0,0,0,-1,1756,1807,0,0
539,-783,0,0,0,0,0,0,0,0,0,-1,1763,1807,0,0
546,-783,0,0,0,0,0,0,0,0,0,-1,1770,1807,0,0
553,-783,0,0,0,0,0,0,0,0,0,-1,1777,1807,0,0
560,-783,0,0,0,0,0,0,0,0,0,-1,1784,1807,0,0
567,-783,0,0,0,0,0,0,0,0,0,-1,1791,1807,0,0
574,-783,0,0,0,0,0,0,0,0,0,-1,1798,1807,0,0
581,-783,0,0,0,0,0,0,0,0,0,-1,1805,1807,0,0
588,-783,0,0,0,0,0,0,0,0,0,-1,1812,1807,0,0
595,-783,0,0,0,0,0,0,0,0,0,-1,1819,1807,0,0
602,-783,0,0,0,0,0,0,0,0,0,-1,1826,1807,0,0
609,-783,0,0,0,0,0,0,0,0,0,-1,1833,1807,0,0
616,-783,0,0,0,0,0,0,0,0,0,-1,1840,1807,0,0
623,-783,0,0,0,0,0,0,0,0,0,-1,1847,1807,0,0
630,-783,0,0,0,0,0,0,0,0,0,-1,1854,1807,0,0
637,-783,0,0,0,0,0,0,0,0,0,-1,1861,1807,0,0
644,-783,0,0,0,0,0,0,0,0,0,-1,1868,1807,0,0
651,-783,0,0,0,0,0,0,0,0,0,-1,1875,1807,0,0
658,-783,0,0,0,0,0,0,0,0,0,-1,1882,1807,0,0
665,-783,0,0,0,0,0,0,0,0,0,-1,1889,1807,0,0
672,-783,0,0,0,0,0,0,0,0,0,-1,1896,1807,0,0
679,-783,0,0,0,0,0,0,0,0,0,-1,1903,1807,0,0
686,-783,0,0,0,0,0,0,0,0,0,-1,1910,1807,0,0
693,-783,0,0,0,0,0,0,0,0,0,-1,1917,1807,0,0
700,-783,0,0,0,0,0,0,0,0,0,-1,1924,1807,0,0
707,-783,0,0,0,0,0,0,0,0,0,-1,1931,1807,0,0
714,-783,0,0,0,0,0,0,0,0,0,-1,1938,1807,0,0
721,-783,0,0,0,0,0,0,0,0,0,-1,1945,1807,0,0
728,-783,0,0,0,0,0,0,0,0,0,-1,1952,1807,0,0
735,-783,0,0,0,0,0,0,0,0,0,-1,1959,1807,0,0
742,-783,0,0,0,0,0,0,0,0,0,-1,1966,1807,0,0
749,-783,0,0,0,0,0,0,0,0,0,-1,1973,1807,0,0
756,-783,0,0,0,0,0,0,0,0,0,-1,1980,1807,0,0
763,-783,0,0,0,0,0,0,0,0,0,-1,1987,1807,0,0
770,-783,0,0,0,0,0,0,0,0,0,-1,1994,1807,0,0
777,-783,0,0,0,0,0,0,0,0,0,-1,2001,1807,0,0
784,-783,0,0,0,0,0,0,0,0,0,-1,2008,1807,0,0
791,-783,0,0,0,0,0,0,0,0,0,-1,2015,1807,0,0
798,-783,0,0,0,0,0,0,0,0,0,-1,2022,1807,0,0
805,-783,0,0,0,0,0,0,0,0,0,-1,2029,1807,0,0
812,-783,0,0,0,0,0,0,0,0,0,-1,2036,1807,0,0
-700,-790,0,0,0,0,0,0,0,0,0,-1,524,1814,0,0
-693,-790,0,0,0,0,0,0,0,0,0,-1,531,1814,0,0
-686,-790,0,0,0,0,0,0,0,0,0,-1,538,1814,0,0
-679,-790,0,0,0,0,0,0,0,0,0,-1,545,1814,0,0
-672,-790,0,0,0,0,0,0,0,0,0,-1,552,1814,0,0
-665,-790,0,0,0,0,0,0,0,0,0,-1,559,1814,0,0
-658,-790,0,0,0,0,0,0,0,0,0,-1,566,1814,0,0
-651,-790,0,0,0,0,0,0,0,0,0,-1,573,1814,0,0
-644,-790,0,0,0,0,0,0,0,0,0,-1,580,1814,0,0
-637,-790,0,0,0,0,0,0,0,0,0,-1,587,1814,0,0
-630,-790,0,0,0,0,0,0,0,0,0,-1,594,1814,0,0
-623,-790,0,0,0,0,0,0,0,0,0,-1,601,1814,0,0
-616,-790,0,0,0,0,0,0,0,0,0,-1,608,1814,0,0
-609,-790,0,0,0,0,0,0,0,0,0,-1,615,1814,0,0
-602,-790,0,0,0,0,0,0,0,0,0,-1,622,1814,0,0
-595,-790,0,0,0,0,0,0,0,0,0,-1,629,1814,0,0
-588,-790,0,0,0,0,0,0,0,0,0,-1,636,1814,0,0
-581,-790,0,0,0,0,0,0,0,0,0,-1,643,1814,0,0
-574,-790,0,0,0,0,0,0,0,0,0,-1,650,1814,0,0
-567,-790,0,0,0,0,0,0,0,0,0,-1,657,1814,0,0
-560,-790,0,0,0,0,0,0,0,0,0,-1,664,1814,0,0
-553,-790,0,0,0,0,0,0,0,0,0,-1,671,1814,0,0
-546,-790,0,0,0,0,0,0,0,0,0,-1,678,1814,0,0
-539,-790,0,0,0,0,0,0,0,0,0,-1,685,1814,0,0
-532,-790,0,0,0,0,0,0,0,0,0,-1,692,1814,0,0
-525,-790,0,0,0,0,0,0,0,0,0,-1,699,1814,0,0
-518,-790,0,0,0,0,0,0,0,0,0,-1,706,1814,0,0
-511,-790,0,0,0,0,0,0,0,0,0,-1,713,1814,0,0
-504,-790,0,0,0,0,0,0,0,0,0,-1,720,1814,0,0
-497,-790,0,0,0,0,0,0,0,0,0,-1,727,1814,0,0
-490,-790,0,0,0,0,0,0,0,0,0,-1,734,1814,0,0
-483,-790,0,0,0,0,0,0,0,0,0,-1,741,1814,0,0
-476,-790,0,0,0,0,0,0,0,0,0,-1,748,1814,0,0
-469,-790,0,0,0,0,0,0,0,0,0,-1,755,1814,0,0
-462,-790,0,0,0,0,0,0,0,0,0,-1,762,1814,0,0
-455,-790,0,0,0,0,0,0,0,0,0,-1,769,1814,0,0
-448,-790,0,0,0,0,0,0,0,0,0,-1,776,1814,0,0
-441,-790,0,0,0,0,0,0,0,0,0,-1,783,1814,0,0
-434,-790,0,0,0,0,0,0,0,0,0,-1,790,1814,0,0
-427,-790,0,0,0,0,0,0,0,0,0,-1,797,1814,0,0
-420,-790,0,0,0,0,0,0,0,0,0,-1,804,1814,0,0
-413,-790,0,0,0,0,0,0,0,0,0,-1,811,1814,0,0
-406,-790,0,0,0,0,0,0,0,0,0,-1,818,1814,0,0
-399,-790,0,0,0,0,0,0,0,0,0,-1,825,1814,0,0
-392,-790,0,0,0,0,0,0,0,0,0,-1,832,1814,0,0
-385,-790,0,0,0,0,0,0,0,0,0,-1,839,1814,0,0
-378,-790,0,0,0,0,0,0,0,0,0,-1,846,1814,0,0
-371,-790,0,0,0,0,0,0,0,0,0,-1,853,1814,0,0
-364,-790,0,0,0,0,0,0,0,0,0,-1,860,1814,0,0
-357,-790,0,0,0,0,0,0,0,0,0,-1,867,1814,0,0
-350,-790,0,0,0,0,0,0,0,0,0,-1,874,1814,0,0
-343,-790,0,0,0,0,0,0,0,0,0,-1,881,1814,0,0
-336,-790,0,0,0,0,0,0,0,0,0,-1,888,1814,0,0
-329,-790,0,0,0,0,0,0,0,0,0,-1,895,1814,0,0
-322,-790,0,0,0,0,0,0,0,0,0,-1,902,1814,0,0
-315,-790,0,0,0,0,0,0,0,0,0,-1,909,1814,0,0
-308,-790,0,0,0,0,0,0,0,0,0,-1,916,1814,0,0
-301,-790,0,0,0,0,0,0,0,0,0,-1,923,1814,0,0
-294,-790,0,0,0,0,0,0,0,0,0,-1,930,1814,0,0
-287,-790,0,0,0,0,0,0,0,0,0,-1,937,1814,0,0
-280,-790,0,0,0,0,0,0,0,0,0,-1,944,1814,0,0
-273,-790,0,0,0,0,0,0,0,0,0,-1,951,1814,0,0
-266,-790,0,0,0,0,0,0,0,0,0,-1,958,1814,0,0
-259,-790,0,0,0,0,0,0,0,0,0,-1,965,1814,0,0
-252,-790,0,0,0,0,0,0,0,0,0,-1,972,1814,0,0
-245,-790,0,0,0,0,0,0,0,0,0,-1,979,1814,0,0
-238,-790,0,0,0,0,0,0,0,0,0,-1,986,1814,0,0
-231,-790,0,0,0,0,0,0,0,0,0,-1,993,1814,0,0
-224,-790,0,0,0,0,0,0,0,0,0,-1,1000,1814,0,0
-217,-790,0,0,0,0,0,0,0,0,0,-1,1007,1814,0,0
-210,-790,0,0,0,0,0,0,0,0,0,-1,1014,1814,0,0
-203,-790,0,0,0,0,0,0,0,0,0,-1,1021,1814,0,0
-196,-790,0,0,0,0,0,0,0,0,0,-1,1028,1814,0,0
-189,-790,0,0,0,0,0,0,0,0,0,-1,1035,1814,0,0
-182,-790,0,0,0,0,0,0,0,0,0,-1,1042,1814,0,0
-175,-790,0,0,0,0,0,0,0,0,0,-1,1049,1814,0,0
-168,-790,0,0,0,0,0,0,0,0,0,-1,1056,1814,0,0
-161,-790,0,0,0,0,0,0,0,0,0,-1,1063,1814,0,0
-154,-790,0,0,0,0,0,0,0,0,0,-1,1070,1814,0,0
-147,-790,0,0,0,0,0,0,0,0,0,-1,1077,1814,0,0
-140,-790,0,0,0,0,0,0,0,0,0,-1,1084,1814,0,0
-133,-790,0,0,0,0,0,0,0,0,0,-1,1091,1814,0,0
-126,-790,0,0,0,0,0,0,0,0,0,-1,1098,1814,0,0
-119,-790,0,0,0,0,0,0,0,0,0,-1,1105,1814,0,0
-112,-790,0,0,0,0,0,0,0,0,0,-1,1112,1814,0,0
-105,-790,0,0,0,0,0,0,0,0,0,-1,1119,1814,0,0
-98,-790,0,0,0,0,0,0,0,0,0,-1,1126,1814,0,0
-91,-790,0,0,0,0,0,0,0,0,0,-1,1133,1814,0,0
-84,-790,0,0,0,0,0,0,0,0,0,-1,1140,1814,0,0
-77,-790,-0.969238,5.30847,0,0,0,0,0,0,0,-1,1147,1814,-0.969277,-5.3085
-70,-790,-1.23169,4.98914,0,0,0,0,0,0,0,-1,1154,1814,-1.23163,-4.98916
-63,-790,-1.69128,4.32263,0,0,0,0,0,0,0,-1,1161,1814,-1.69128,-4.32258
-56,-790,-2.24756,3.75305,0,0,0,0,0,0,0,-1,1168,1814,-2.24758,-3.75302
-49,-790,-3.11011,3.35779,0,0,0,0,0,0,0,-1,1175,1814,-3.11006,-3.35781
-42,-790,0.593262,1.19165,0,0,0,0,0,0,0,-1,1182,1814,0.593225,-1.19165
-35,-790,0.307129,-0.20105,0,0,0,0,0,0,0,-1,1189,1814,0.307178,0.201006
-28,-790,-2.78467,0.785156,0,0,0,0,0,0,0,-1,1196,1814,-2.78471,-0.785183
-21,-790,4.47363,27.0929,0,0,0,0,0,0,0,-1,1203,1814,4.47365,-27.0929
-14,-790,5.33899,25.8253,0.0742341,-0.000234059,-0.122841,0.16536,-0.0913596,-0.638245,0.150255,0.0456061,1210,1814,5.33896,-25.8253
-7,-790,5.63599,24.864,0.0772655,-0.000852979,-0.121754,0.166072,-0.08966,-0.630183,0.149828,0.0458897,1217,1814,5.63594,-24.864
0,-790,6.38074,23.7495,0,0,0,0,0,0,0,-1,1224,1814,6.3807,-23.7496
7,-790,6.9231,22.5244,0.0728746,-0.00493413,-0.108138,0.148894,-0.0809532,-0.612724,0.134621,0.0479318,1231,1814,6.92307,-22.5244
14,-790,7.4834,21.3104,0.0680804,-0.00721093,-0.0963433,0.133872,-0.0730023,-0.599147,0.12115,0.0462432,1238,1814,7.48342,-21.3104
21,-790,7.99133,20.0479,0.0621035,-0.00954819,-0.081884,0.115656,-0.0631006,-0.579185,0.104681,0.0463674,1245,1814,7.99136,-20.0478
28,-790,8.58777,19.0225,0.0551769,-0.0120061,-0.0654871,0.0951854,-0.0520146,-0.548422,0.0861956,0.0423328,1252,1814,8.58782,-19.0224
35,-790,9.33826,18.1233,0.0487347,-0.0134139,-0.0473424,0.0742901,-0.0389692,-0.494977,0.0664418,0.0438313,1259,1814,9.3382,-18.1232
42,-790,4.79822,18.1205,0,0,0,0,0,0,0,-1,1266,1814,4.79828,-18.1205
49,-790,3.79993,18.4506,0.0390045,-0.0115059,-0.0117207,0.0415917,-0.0140931,-0.217254,0.0334308,0.0467197,1273,1814,3.79995,-18.4506
56,-790,3.6272,18.9408,0.0358804,-0.00774234,0.00394597,0.0362345,-0.00809641,0.0894888,0.0272589,0.044444,1280,1814,3.62721,-18.9408
63,-790,3.77429,19.2996,0.031998,4.83676e-05,0.019207,0.0410052,-0.00895889,0.438506,0.0307611,0.042508,1287,1814,3.77424,-19.2995
70,-790,4.5304,19.5691,0.0298721,0.00543426,0.0322272,0.0521191,-0.0168127,0.604197,0.0415014,0.038804,1294,1814,4.53041,-19.5691
77,-790,4.62061,20.4923,0,0,0,0,0,0,0,-1,1301,1814,4.62056,-20.4923
84,-790,4.5592,21.2738,0.0286159,0.0224524,0.0507836,0.0764112,-0.0253428,0.755093,0.0611642,0.0454337,1308,1814,4.55922,-21.2738
91,-790,4.72791,22.3473,0.0292448,0.0316977,0.056239,0.0867236,-0.0257811,0.7963,0.0680571,0.0457805,1315,1814,4.72786,-22.3473
98,-790,5.14893,23.4966,0.0312452,0.0409583,0.055127,0.0914423,-0.0192388,0.829333,0.0682839,0.0453485,1322,1814,5.1489,-23.4965
105,-790,5.3335,24.6155,0.0317975,0.0505998,0.0543653,0.0963708,-0.0139735,0.871014,0.0693757,0.0486875,1329,1814,5.33347,-24.6154
112,-790,5.52588,25.9973,0.0304992,0.0594519,0.0548238,0.101678,-0.0117273,0.914478,0.0720137,0.046819,1336,1814,5.52592,-25.9973
119,-790,4.79443,26.1287,0,0,0,0,0,0,0,-1,1343,1814,4.79446,-26.1287
126,-790,4.52686,28.2618,0,0,0,0,0,0,0,-1,1350,1814,4.5269,-28.2619
133,-790,4.25366,29.5854,0,0,0,0,0,0,0,-1,1357,1814,4.25366,-29.5855
140,-790,5.39819,15.8282,0,0,0,0,0,0,0,-1,1364,1814,5.39814,-15.8282
147,-790,3.4906,13.9751,0,0,0,0,0,0,0,-1,1371,1814,3.49064,-13.9751
154,-790,6.34485,-0.540405,0,0,0,0,0,0,0,-1,1378,1814,6.34482,0.540409
161,-790,6.62683,1.1134,0,0,0,0,0,0,0,-1,1385,1814,6.62682,-1.11344
168,-790,7.04077,2.23279,0,0,0,0,0,0,0,-1,1392,1814,7.04082,-2.23275
175,-790,9.03918,3.98535,0,0,0,0,0,0,0,-1,1399,1814,9.0392,-3.98535
182,-790,8.96997,5.67896,0,0,0,0,0,0,0,-1,1406,1814,8.97001,-5.6789
189,-790,8.59729,6.86975,0,0,0,0,0,0,0,-1,1413,1814,8.59728,-6.86972
196,-790,8.21924,9.29053,0,0,0,0,0,0,0,-1,1420,1814,8.21924,-9.29048
203,-790,0,0,0,0,0,0,0,0,0,-1,1427,1814,0,0
210,-790,0,0,0,0,0,0,0,0,0,-1,1434,1814,0,0
217,-790,0,0,0,0,0,0,0,0,0,-1,1441,1814,0,0
224,-790,0,0,0,0,0,0,0,0,0,-1,1448,1814,0,0
231,-790,0,0,0,0,0,0,0,0,0,-1,1455,1814,0,0
238,-790,0,0,0,0,0,0,0,0,0,-1,1462,1814,0,0
245,-790,0,0,0,0,0,0,0,0,0,-1,1469,1814,0,0
252,-790,0,0,0,0,0,0,0,0,0,-1,1476,1814,0,0
259,-790,0,0,0,0,0,0,0,0,0,-1,1483,1814,0,0
266,-790,0,0,0,0,0,0,0,0,0,-1,1490,1814,0,0
273,-790,0,0,0,0,0,0,0,0,0,-1,1497,1814,0,0
280,-790,0,0,0,0,0,0,0,0,0,-1,1504,1814,0,0
287,-790,0,0,0,0,0,0,0,0,0,-1,1511,1814,0,0
294,-790,0,0,0,0,0,0,0,0,0,-1,1518,1814,0,0
301,-790,0,0,0,0,0,0,0,0,0,-1,1525,1814,0,0
308,-790,0,0,0,0,0,0,0,0,0,-1,1532,1814,0,0
315,-790,0,0,0,0,0,0,0,0,0,-1,1539,1814,0,0
322,-790,0,0,0,0,0,0,0,0,0,-1,1546,1814,0,0
329,-790,0,0,0,0,0,0,0,0,0,-1,1553,1814,0,0
336,-790,0,0,0,0,0,0,0,0,0,-1,1560,1814,0,0
343,-790,0,0,0,0,0,0,0,0,0,-1,1567,1814,0,0
350,-790,0,0,0,0,0,0,0,0,0,-1,1574,1814,0,0
357,-790,0,0,0,0,0,0,0,0,0,-1,1581,1814,0,0
364,-790,0,0,0,0,0,0,0,0,0,-1,1588,1814,0,0
371,-790,0,0,0,0,0,0,0,0,0,-1,1595,1814,0,0
378,-790,0,0,0,0,0,0,0,0,0,-1,1602,1814,0,0
385,-790,0,0,0,0,0,0,0,0,0,-1,1609,1814,0,0
392,-790,0,0,0,0,0,0,0,0,0,-1,1616,1814,0,0
399,-790,0,0,0,0,0,0,0,0,0,-1,1623,1814,0,0
406,-790,0,0,0,0,0,0,0,0,0,-1,1630,1814,0,0
413,-790,0,0,0,0,0,0,0,0,0,-1,1637,1814,0,0
420,-790,0,0,0,0,0,0,0,0,0,-1,1644,1814,0,0
427,-790,0,0,0,0,0,0,0,0,0,-1,1651,1814,0,0
434,-790,0,0,0,0,0,0,0,0,0,-1,1658,1814,0,0
441,-790,0,0,0,0,0,0,0,0,0,-1,1665,1814,0,0
448,-790,0,0,0,0,0,0,0,0,0,-1,1672,1814,0,0
455,-790,0,0,0,0,0,0,0,0,0,-1,1679,1814,0,0
462,-790,0,0,0,0,0,0,0,0,0,-1,1686,1814,0,0
469,-790,0,0,0,0,0,0,0,0,0,-1,1693,1814,0,0
476,-790,0,0,0,0,0,0,0,0,0,-1,1700,1814,0,0
483,-790,0,0,0,0,0,0,0,0,0,-1,1707,1814,0,0
490,-790,0,0,0,0,0,0,0,0,0,-1,1714,1814,0,0
497,-790,0,0,0,0,0,0,0,0,0,-1,1721,1814,0,0
504,-790,0,0,0,0,0,0,0,0,0,-1,1728,1814,0,0
511,-790,0,0,0,0,0,0,0,0,0,-1,1735,1814,0,0
518,-790,0,0,0,0,0,0,0,0,0,-1,1742,1814,0,0
525,-790,0,0,0,0,0,0,0,0,0,-1,1749,1814,0,0
532,-790,0,0,0,0,0,0,0,0,0,-1,1756,1814,0,0
539,-790,0,0,0,0,0,0,0,0,0,-1,1763,1814,0,0
546,-790,0,0,0,0,0,0,0,0,0,-1,1770,1814,0,0
553,-790,0,0,0,0,0,0,0,0,0,-1,1777,1814,0,0
560,-790,0,0,0,0,0,0,0,0,0,-1,1784,1814,0,0
567,-790,0,0,0,0,0,0,0,0,0,-1,1791,1814,0,0
574,-790,0,0,0,0,0,0,0,0,0,-1,1798,1814,0,0
581,-790,0,0,0,0,0,0,0,0,0,-1,1805,1814,0,0
588,-790,0,0,0,0,0,0,0,0,0,-1,1812,1814,0,0
595,-790,0,0,0,0,0,0,0,0,0,-1,1819,1814,0,0
602,-790,0,0,0,0,0,0,0,0,0,-1,1826,1814,0,0
609,-790,0,0,0,0,0,0,0,0,0,-1,1833,1814,0,0
616,-790,0,0,0,0,0,0,0,0,0,-1,1840,1814,0,0
623,-790,0,0,0,0,0,0,0,0,0,-1,1847,1814,0,0
630,-790,0,0,0,0,0,0,0,0,0,-1,1854,1814,0,0
637,-790,0,0,0,0,0,0,0,0,0,-1,1861,1814,0,0
644,-790,0,0,0,0,0,0,0,0,0,-1,1868,1814,0,0
651,-790,0,0,0,0,0,0,0,0,0,-1,1875,1814,0,0
658,-790,0,0,0,0,0,0,0,0,0,-1,1882,1814,0,0
665,-790,0,0,0,0,0,0,0,0,0,-1,1889,1814,0,0
672,-790,0,0,0,0,0,0,0,0,0,-1,1896,1814,0,0
679,-790,0,0,0,0,0,0,0,0,0,-1,1903,1814,0,0
686,-790,0,0,0,0,0,0,0,0,0,-1,1910,1814,0,0
693,-790,0,0,0,0,0,0,0,0,0,-1,1917,1814,0,0
700,-790,0,0,0,0,0,0,0,0,0,-1,1924,1814,0,0
707,-790,0,0,0,0,0,0,0,0,0,-1,1931,1814,0,0
714,-790,0,0,0,0,0,0,0,0,0,-1,1938,1814,0,0
721,-790,0,0,0,0,0,0,0,0,0,-1,1945,1814,0,0
728,-790,0,0,0,0,0,0,0,0,0,-1,1952,1814,0,0
735,-790,0,0,0,0,0,0,0,0,0,-1,1959,1814,0,0
742,-790,0,0,0,0,0,0,0,0,0,-1,1966,1814,0,0
749,-790,0,0,0,0,0,0,0,0,0,-1,1973,1814,0,0
756,-790,0,0,0,0,0,0,0,0,0,-1,1980,1814,0,0
763,-790,0,0,0,0,0,0,0,0,0,-1,1987,1814,0,0
770,-790,0,0,0,0,0,0,0,0,0,-1,1994,1814,0,0
777,-790,0,0,0,0,0,0,0,0,0,-1,2001,1814,0,0
784,-790,0,0,0,0,0,0,0,0,0,-1,2008,1814,0,0
791,-790,0,0,0,0,0,0,0,0,0,-1,2015,1814,0,0
798,-790,0,0,0,0,0,0,0,0,0,-1,2022,1814,0,0
805,-790,0,0,0,0,0,0,0,0,0,-1,2029,1814,0,0
812,-790,0,0,0,0,0,0,0,0,0,-1,2036,1814,0,0
-700,-797,0,0,0,0,0,0,0,0,0,-1,524,1821,0,0
-693,-797,0,0,0,0,0,0,0,0,0,-1,531,1821,0,0
-686,-797,0,0,0,0,0,0,0,0,0,-1,538,1821,0,0
-679,-797,0,0,0,0,0,0,0,0,0,-1,545,1821,0,0
-672,-797,0,0,0,0,0,0,0,0,0,-1,552,1821,0,0
-665,-797,0,0,0,0,0,0,0,0,0,-1,559,1821,0,0
-658,-797,0,0,0,0,0,0,0,0,0,-1,566,1821,0,0
-651,-797,0,0,0,0,0,0,0,0,0,-1,573,1821,0,0
-644,-797,0,0,0,0,0,0,0,0,0,-1,580,1821,0,0
-637,-797,0,0,0,0,0,0,0,0,0,-1,587,1821,0,0
-630,-797,0,0,0,0,0,0,0,0,0,-1,594,1821,0,0
-623,-797,0,0,0,0,0,0,0,0,0,-1,601,1821,0,0
-616,-797,0,0,0,0,0,0,0,0,0,-1,608,1821,0,0
-609,-797,0,0,0,0,0,0,0,0,0,-1,615,1821,0,0
-602,-797,0,0,0,0,0,0,0,0,0,-1,622,1821,0,0
-595,-797,0,0,0,0,0,0,0,0,0,-1,629,1821,0,0
-588,-797,0,0,0,0,0,0,0,0,0,-1,636,1821,0,0
-581,-797,0,0,0,0,0,0,0,0,0,-1,643,1821,0,0
-574,-797,0,0,0,0,0,0,0,0,0,-1,650,1821,0,0
-567,-797,0,0,0,0,0,0,0,0,0,-1,657,1821,0,0
-560,-797,0,0,0,0,0,0,0,0,0,-1,664,1821,0,0
-553,-797,0,0,0,0,0,0,0,0,0,-1,671,1821,0,0
-546,-797,0,0,0,0,0,0,0,0,0,-1,678,1821,0,0
-539,-797,0,0,0,0,0,0,0,0,0,-1,685,1821,0,0
-532,-797,0,0,0,0,0,0,0,0,0,-1,692,1821,0,0
-525,-797,0,0,0,0,0,0,0,0,0,-1,699,1821,0,0
-518,-797,0,0,0,0,0,0,0,0,0,-1,706,1821,0,0
-511,-797,0,0,0,0,0,0,0,0,0,-1,713,1821,0,0
-504,-797,0,0,0,0,0,0,0,0,0,-1,720,1821,0,0
-497,-797,0,0,0,0,0,0,0,0,0,-1,727,1821,0,0
-490,-797,0,0,0,0,0,0,0,0,0,-1,734,1821,0,0
-483,-797,0,0,0,0,0,0,0,0,0,-1,741,1821,0,0
-476,-797,0,0,0,0,0,0,0,0,0,-1,748,1821,0,0
-469,-797,0,0,0,0,0,0,0,0,0,-1,755,1821,0,0
-462,-797,0,0,0,0,0,0,0,0,0,-1,762,1821,0,0
-455,-797,0,0,0,0,0,0,0,0,0,-1,769,1821,0,0
-448,-797,0,0,0,0,0,0,0,0,0,-1,776,1821,0,0
-441,-797,0,0,0,0,0,0,0,0,0,-1,783,1821,0,0
-434,-797,0,0,0,0,0,0,0,0,0,-1,790,1821,0,0
-427,-797,0,0,0,0,0,0,0,0,0,-1,797,1821,0,0
-420,-797,0,0,0,0,0,0,0,0,0,-1,804,1821,0,0
-413,-797,0,0,0,0,0,0,0,0,0,-1,811,1821,0,0
-406,-797,0,0,0,0,0,0,0,0,0,-1,818,1821,0,0
-399,-797,0,0,0,0,0,0,0,0,0,-1,825,1821,0,0
-392,-797,0,0,0,0,0,0,0,0,0,-1,832,1821,0,0
-385,-797,0,0,0,0,0,0,0,0,0,-1,839,1821,0,0
-378,-797,0,0,0,0,0,0,0,0,0,-1,846,1821,0,0
-371,-797,0,0,0,0,0,0,0,0,0,-1,853,1821,0,0
-364,-797,0,0,0,0,0,0,0,0,0,-1,860,1821,0,0
-357,-797,0,0,0,0,0,0,0,0,0,-1,867,1821,0,0
-350,-797,0,0,0,0,0,0,0,0,0,-1,874,1821,0,0
-343,-797,0,0,0,0,0,0,0,0,0,-1,881,1821,0,0
-336,-797,0,0,0,0,0,0,0,0,0,-1,888,1821,0,0
-329,-797,0,0,0,0,0,0,0,0,0,-1,895,1821,0,0
-322,-797,0,0,0,0,0,0,0,0,0,-1,902,1821,0,0
-315,-797,0,0,0,0,0,0,0,0,0,-1,909,1821,0,0
-308,-797,0,0,0,0,0,0,0,0,0,-1,916,1821,0,0
-301,-797,0,0,0,0,0,0,0,0,0,-1,923,1821,0,0
-294,-797,0,0,0,0,0,0,0,0,0,-1,930,1821,0,0
-287,-797,0,0,0,0,0,0,0,0,0,-1,937,1821,0,0
-280,-797,0,0,0,0,0,0,0,0,0,-1,944,1821,0,0
-273,-797,0,0,0,0,0,0,0,0,0,-1,951,1821,0,0
-266,-797,0,0,0,0,0,0,0,0,0,-1,958,1821,0,0
-259,-797,0,0,0,0,0,0,0,0,0,-1,965,1821,0,0
-252,-797,0,0,0,0,0,0,0,0,0,-1,972,1821,0,0
-245,-797,0,0,0,0,0,0,0,0,0,-1,979,1821,0,0
-238,-797,0,0,0,0,0,0,0,0,0,-1,986,1821,0,0
-231,-797,0,0,0,0,0,0,0,0,0,-1,993,1821,0,0
-224,-797,0,0,0,0,0,0,0,0,0,-1,1000,1821,0,0
-217,-797,0,0,0,0,0,0,0,0,0,-1,1007,1821,0,0
-210,-797,0,0,0,0,0,0,0,0,0,-1,1014,1821,0,0
-203,-797,0,0,0,0,0,0,0,0,0,-1,1021,1821,0,0
-196,-797,0,0,0,0,0,0,0,0,0,-1,1028,1821,0,0
-189,-797,0,0,0,0,0,0,0,0,0,-1,1035,1821,0,0
-182,-797,0,0,0,0,0,0,0,0,0,-1,1042,1821,0,0
-175,-797,0,0,0,0,0,0,0,0,0,-1,1049,1821,0,0
-168,-797,0,0,0,0,0,0,0,0,0,-1,1056,1821,0,0
-161,-797,0,0,0,0,0,0,0,0,0,-1,1063,1821,0,0
-154,-797,0,0,0,0,0,0,0,0,0,-1,1070,1821,0,0
-147,-797,0,0,0,0,0,0,0,0,0,-1,1077,1821,0,0
-140,-797,0,0,0,0,0,0,0,0,0,-1,1084,1821,0,0
-133,-797,0,0,0,0,0,0,0,0,0,-1,1091,1821,0,0
-126,-797,0,0,0,0,0,0,0,0,0,-1,1098,1821,0,0
-119,-797,0,0,0,0,0,0,0,0,0,-1,1105,1821,0,0
-112,-797,0,0,0,0,0,0,0,0,0,-1,1112,1821,0,0
-105,-797,0,0,0,0,0,0,0,0,0,-1,1119,1821,0,0
-98,-797,0,0,0,0,0,0,0,0,0,-1,1126,1821,0,0
-91,-797,0,0,0,0,0,0,0,0,0,-1,1133,1821,0,0
-84,-797,0,0,0,0,0,0,0,0,0,-1,1140,1821,0,0
-77,-797,0,0,0,0,0,0,0,0,0,-1,1147,1821,0,0
-70,-797,0,0,0,0,0,0,0,0,0,-1,1154,1821,0,0
-63,-797,0,0,0,0,0,0,0,0,0,-1,1161,1821,0,0
-56,-797,0,0,0,0,0,0,0,0,0,-1,1168,1821,0,0
-49,-797,0,0,0,0,0,0,0,0,0,-1,1175,1821,0,0
-42,-797,0.579834,0.692871,0,0,0,0,0,0,0,-1,1182,1821,0.579856,-0.692816
-35,-797,-0.185425,5.55396,0,0,0,0,0,0,0,-1,1189,1821,-0.18542,-5.55396
-28,-797,-0.310181,4.71509,0,0,0,0,0,0,0,-1,1196,1821,-0.310228,-4.71503
-21,-797,4.86731,27.1334,0,0,0,0,0,0,0,-1,1203,1821,4.86733,-27.1334
-14,-797,5.7561,25.877,0.0848904,-0.00475878,-0.14236,0.189316,-0.109184,-0.632877,0.174396,0.0466336,1210,1821,5.75616,-25.8769
-7,-797,5.89844,25.2725,0.0904469,-0.0057386,-0.14319,0.193404,-0.108696,-0.623383,0.176689,0.0495239,1217,1821,5.89841,-25.2725
0,-797,7.02124,24.2994,0,0,0,0,0,0,0,-1,1224,1821,7.02127,-24.2995
7,-797,7.70361,22.7361,0.0877697,-0.0100545,-0.128937,0.17676,-0.0990452,-0.604109,0.16133,0.0490101,1231,1821,7.70361,-22.736
14,-797,8.44507,21.182,0.0832004,-0.0122313,-0.115466,0.160421,-0.0894518,-0.589461,0.146191,0.0446248,1238,1821,8.44508,-21.182
21,-797,8.8811,20.0693,0.0770699,-0.0143826,-0.0985121,0.139951,-0.0772635,-0.568111,0.127138,0.0455073,1245,1821,8.88105,-20.0694
28,-797,9.15784,19.2307,0.0693214,-0.0166079,-0.078645,0.115973,-0.0632591,-0.535395,0.104961,0.0455782,1252,1821,9.15787,-19.2307
35,-797,9.67676,18.1692,0.0620044,-0.0176028,-0.0566938,0.0914721,-0.0470705,-0.479338,0.0813454,0.0494755,1259,1821,9.67678,-18.1693
42,-797,10.3247,17.3035,0,0,0,0,0,0,0,-1,1266,1821,10.3248,-17.3035
49,-797,2.6803,18.7834,0.0511523,-0.0136507,-0.0148673,0.0544004,-0.0168988,-0.215093,0.0430208,0.048265,1273,1821,2.68025,-18.7834
56,-797,2.46912,19.2181,0.0465796,-0.00815818,0.00432205,0.0469188,-0.00849734,0.0783126,0.0344626,0.0463321,1280,1821,2.46911,-19.2182
63,-797,3.01758,19.4027,0,0,0,0,0,0,0,-1,1287,1821,3.01761,-19.4027
70,-797,4.49536,19.77,0,0,0,0,0,0,0,-1,1294,1821,4.4954,-19.7701
77,-797,4.70898,20.7793,0,0,0,0,0,0,0,-1,1301,1821,4.70894,-20.7792
84,-797,4.93298,21.1866,0.0345089,0.0312214,0.061644,0.094531,-0.0288007,0.772069,0.0745003,0.0452762,1308,1821,4.93302,-21.1867
91,-797,5.23779,22.1375,0.0339214,0.0436779,0.0687,0.107673,-0.0300734,0.820842,0.0836285,0.0458823,1315,1821,5.23785,-22.1375
98,-797,5.40735,23.0786,0.035836,0.0564422,0.0670169,0.113943,-0.0216651,0.86167,0.0841191,0.0442848,1322,1821,5.40735,-23.0786
105,-797,5.36438,23.9976,0.0362415,0.0696783,0.0661415,0.121182,-0.0152618,0.909189,0.0863259,0.0443815,1329,1821,5.36436,-23.9976
112,-797,5.15808,24.689,0.0337014,0.0821333,0.0674112,0.129546,-0.0137114,0.957834,0.0912785,0.04289,1336,1821,5.15807,-24.689
119,-797,4.98462,25.225,0,0,0,0,0,0,0,-1,1343,1821,4.98458,-25.225
126,-797,4.82043,25.7766,0,0,0,0,0,0,0,-1,1350,1821,4.8204,-25.7766
133,-797,5.41943,15.9801,0,0,0,0,0,0,0,-1,1357,1821,5.4194,-15.9801
140,-797,4.93518,16.1045,0,0,0,0,0,0,0,-1,1364,1821,4.93516,-16.1045
147,-797,5.44116,15.9459,0,0,0,0,0,0,0,-1,1371,1821,5.44118,-15.9459
154,-797,14.49,10.5256,0,0,0,0,0,0,0,-1,1378,1821,14.49,-10.5256
161,-797,6.79199,1.12952,0,0,0,0,0,0,0,-1,1385,1821,6.79203,-1.12957
168,-797,0,0,0,0,0,0,0,0,0,-1,1392,1821,0,0
175,-797,0,0,0,0,0,0,0,0,0,-1,1399,1821,0,0
182,-797,0,0,0,0,0,0,0,0,0,-1,1406,1821,0,0
189,-797,0,0,0,0,0,0,0,0,0,-1,1413,1821,0,0
196,-797,0,0,0,0,0,0,0,0,0,-1,1420,1821,0,0
203,-797,0,0,0,0,0,0,0,0,0,-1,1427,1821,0,0
210,-797,0,0,0,0,0,0,0,0,0,-1,1434,1821,0,0
217,-797,0,0,0,0,0,0,0,0,0,-1,1441,1821,0,0
224,-797,0,0,0,0,0,0,0,0,0,-1,1448,1821,0,0
231,-797,0,0,0,0,0,0,0,0,0,-1,1455,1821,0,0
238,-797,0,0,0,0,0,0,0,0,0,-1,1462,1821,0,0
245,-797,0,0,0,0,0,0,0,0,0,-1,1469,1821,0,0
252,-797,0,0,0,0,0,0,0,0,0,-1,1476,1821,0,0
259,-797,0,0,0,0,0,0,0,0,0,-1,1483,1821,0,0
266,-797,0,0,0,0,0,0,0,0,0,-1,1490,1821,0,0
273,-797,0,0,0,0,0,0,0,0,0,-1,1497,1821,0,0
280,-797,0,0,0,0,0,0,0,0,0,-1,1504,1821,0,0
287,-797,0,0,0,0,0,0,0,0,0,-1,1511,1821,0,0
294,-797,0,0,0,0,0,0,0,0,0,-1,1518,1821,0,0
301,-797,0,0,0,0,0,0,0,0,0,-1,1525,1821,0,0
308,-797,0,0,0,0,0,0,0,0,0,-1,1532,1821,0,0
315,-797,0,0,0,0,0,0,0,0,0,-1,1539,1821,0,0
322,-797,0,0,0,0,0,0,0,0,0,-1,1546,1821,0,0
329,-797,0,0,0,0,0,0,0,0,0,-1,1553,1821,0,0
336,-797,0,0,0,0,0,0,0,0,0,-1,1560,1821,0,0
343,-797,0,0,0,0,0,0,0,0,0,-1,1567,1821,0,0
350,-797,0,0,0,0,0,0,0,0,0,-1,1574,1821,0,0
357,-797,0,0,0,0,0,0,0,0,0,-1,1581,1821,0,0
364,-797,0,0,0,0,0,0,0,0,0,-1,1588,1821,0,0
371,-797,0,0,0,0,0,0,0,0,0,-1,1595,1821,0,0
378,-797,0,0,0,0,0,0,0,0,0,-1,1602,1821,0,0
385,-797,0,0,0,0,0,0,0,0,0,-1,1609,1821,0,0
392,-797,0,0,0,0,0,0,0,0,0,-1,1616,1821,0,0
399,-797,0,0,0,0,0,0,0,0,0,-1,1623,1821,0,0
406,-797,0,0,0,0,0,0,0,0,0,-1,1630,1821,0,0
413,-797,0,0,0,0,0,0,0,0,0,-1,1637,1821,0,0
420,-797,0,0,0,0,0,0,0,0,0,-1,1644,1821,0,0
427,-797,0,0,0,0,0,0,0,0,0,-1,1651,1821,0,0
434,-797,0,0,0,0,0,0,0,0,0,-1,1658,1821,0,0
441,-797,0,0,0,0,0,0,0,0,0,-1,1665,1821,0,0
448,-797,0,0,0,0,0,0,0,0,0,-1,1672,1821,0,0
455,-797,0,0,0,0,0,0,0,0,0,-1,1679,1821,0,0
462,-797,0,0,0,0,0,0,0,0,0,-1,1686,1821,0,0
469,-797,0,0,0,0,0,0,0,0,0,-1,1693,1821,0,0
476,-797,0,0,0,0,0,0,0,0,0,-1,1700,1821,0,0
483,-797,0,0,0,0,0,0,0,0,0,-1,1707,1821,0,0
490,-797,0,0,0,0,0,0,0,0,0,-1,1714,1821,0,0
497,-797,0,0,0,0,0,0,0,0,0,-1,1721,1821,0,0
504,-797,0,0,0,0,0,0,0,0,0,-1,1728,1821,0,0
511,-797,0,0,0,0,0,0,0,0,0,-1,1735,1821,0,0
518,-797,0,0,0,0,0,0,0,0,0,-1,1742,1821,0,0
525,-797,0,0,0,0,0,0,0,0,0,-1,1749,1821,0,0
532,-797,0,0,0,0,0,0,0,0,0,-1,1756,1821,0,0
539,-797,0,0,0,0,0,0,0,0,0,-1,1763,1821,0,0
546,-797,0,0,0,0,0,0,0,0,0,-1,1770,1821,0,0
553,-797,0,0,0,0,0,0,0,0,0,-1,1777,1821,0,0
560,-797,0,0,0,0,0,0,0,0,0,-1,1784,1821,0,0
567,-797,0,0,0,0,0,0,0,0,0,-1,1791,1821,0,0
574,-797,0,0,0,0,0,0,0,0,0,-1,1798,1821,0,0
581,-797,0,0,0,0,0,0,0,0,0,-1,1805,1821,0,0
588,-797,0,0,0,0,0,0,0,0,0,-1,1812,1821,0,0
595,-797,0,0,0,0,0,0,0,0,0,-1,1819,1821,0,0
602,-797,0,0,0,0,0,0,0,0,0,-1,1826,1821,0,0
609,-797,0,0,0,0,0,0,0,0,0,-1,1833,1821,0,0
616,-797,0,0,0,0,0,0,0,0,0,-1,1840,1821,0,0
623,-797,0,0,0,0,0,0,0,0,0,-1,1847,1821,0,0
630,-797,0,0,0,0,0,0,0,0,0,-1,1854,1821,0,0
637,-797,0,0,0,0,0,0,0,0,0,-1,1861,1821,0,0
644,-797,0,0,0,0,0,0,0,0,0,-1,1868,1821,0,0
651,-797,0,0,0,0,0,0,0,0,0,-1,1875,1821,0,0
658,-797,0,0,0,0,0,0,0,0,0,-1,1882,1821,0,0
665,-797,0,0,0,0,0,0,0,0,0,-1,1889,1821,0,0
672,-797,0,0,0,0,0,0,0,0,0,-1,1896,1821,0,0
679,-797,0,0,0,0,0,0,0,0,0,-1,1903,1821,0,0
686,-797,0,0,0,0,0,0,0,0,0,-1,1910,1821,0,0
693,-797,0,0,0,0,0,0,0,0,0,-1,1917,1821,0,0
700,-797,0,0,0,0,0,0,0,0,0,-1,1924,1821,0,0
707,-797,0,0,0,0,0,0,0,0,0,-1,1931,1821,0,0
714,-797,0,0,0,0,0,0,0,0,0,-1,1938,1821,0,0
721,-797,0,0,0,0,0,0,0,0,0,-1,1945,1821,0,0
728,-797,0,0,0,0,0,0,0,0,0,-1,1952,1821,0,0
735,-797,0,0,0,0,0,0,0,0,0,-1,1959,1821,0,0
742,-797,0,0,0,0,0,0,0,0,0,-1,1966,1821,0,0
749,-797,0,0,0,0,0,0,0,0,0,-1,1973,1821,0,0
756,-797,0,0,0,0,0,0,0,0,0,-1,1980,1821,0,0
763,-797,0,0,0,0,0,0,0,0,0,-1,1987,1821,0,0
770,-797,0,0,0,0,0,0,0,0,0,-1,1994,1821,0,0
777,-797,0,0,0,0,0,0,0,0,0,-1,2001,1821,0,0
784,-797,0,0,0,0,0,0,0,0,0,-1,2008,1821,0,0
791,-797,0,0,0,0,0,0,0,0,0,-1,2015,1821,0,0
798,-797,0,0,0,0,0,0,0,0,0,-1,2022,1821,0,0
805,-797,0,0,0,0,0,0,0,0,0,-1,2029,1821,0,0
812,-797,0,0,0,0,0,0,0,0,0,-1,2036,1821,0,0
-700,-804,0,0,0,0,0,0,0,0,0,-1,524,1828,0,0
-693,-804,0,0,0,0,0,0,0,0,0,-1,531,1828,0,0
-686,-804,0,0,0,0,0,0,0,0,0,-1,538,1828,0,0
-679,-804,0,0,0,0,0,0,0,0,0,-1,545,1828,0,0
-672,-804,0,0,0,0,0,0,0,0,0,-1,552,1828,0,0
-665,-804,0,0,0,0,0,0,0,0,0,-1,559,1828,0,0
-658,-804,0,0,0,0,0,0,0,0,0,-1,566,1828,0,0
-651,-804,0,0,0,0,0,0,0,0,0,-1,573,1828,0,0
-644,-804,0,0,0,0,0,0,0,0,0,-1,580,1828,0,0
-637,-804,0,0,0,0,0,0,0,0,0,-1,587,1828,0,0
-630,-804,0,0,0,0,0,0,0,0,0,-1,594,1828,0,0
-623,-804,0,0,0,0,0,0,0,0,0,-1,601,1828,0,0
-616,-804,0,0,0,0,0,0,0,0,0,-1,608,1828,0,0
-609,-804,0,0,0,0,0,0,0,0,0,-1,615,1828,0,0
-602,-804,0,0,0,0,0,0,0,0,0,-1,622,1828,0,0
-595,-804,0,0,0,0,0,0,0,0,0,-1,629,1828,0,0
-588,-804,0,0,0,0,0,0,0,0,0,-1,636,1828,0,0
-581,-804,0,0,0,0,0,0,0,0,0,-1,643,1828,0,0
-574,-804,0,0,0,0,0,0,0,0,0,-1,650,1828,0,0
-567,-804,0,0,0,0,0,0,0,0,0,-1,657,1828,0,0
-560,-804,0,0,0,0,0,0,0,0,0,-1,664,1828,0,0
-553,-804,0,0,0,0,0,0,0,0,0,-1,671,1828,0,0
-546,-804,0,0,0,0,0,0,0,0,0,-1,678,1828,0,0
-539,-804,0,0,0,0,0,0,0,0,0,-1,685,1828,0,0
-532,-804,0,0,0,0,0,0,0,0,0,-1,692,1828,0,0
-525,-804,0,0,0,0,0,0,0,0,0,-1,699,1828,0,0
-518,-804,0,0,0,0,0,0,0,0,0,-1,706,1828,0,0
-511,-804,0,0,0,0,0,0,0,0,0,-1,713,1828,0,0
-504,-804,0,0,0,0,0,0,0,0,0,-1,720,1828,0,0
-497,-804,0,0,0,0,0,0,0,0,0,-1,727,1828,0,0
-490,-804,0,0,0,0,0,0,0,0,0,-1,734,1828,0,0
-483,-804,0,0,0,0,0,0,0,0,0,-1,741,1828,0,0
-476,-804,0,0,0,0,0,0,0,0,0,-1,748,1828,0,0
-469,-804,0,0,0,0,0,0,0,0,0,-1,755,1828,0,0
-462,-804,0,0,0,0,0,0,0,0,0,-1,762,1828,0,0
-455,-804,0,0,0,0,0,0,0,0,0,-1,769,1828,0,0
-448,-804,0,0,0,0,0,0,0,0,0,-1,776,1828,0,0
-441,-804,0,0,0,0,0,0,0,0,0,-1,783,1828,0,0
-434,-804,0,0,0,0,0,0,0,0,0,-1,790,1828,0,0
-427,-804,0,0,0,0,0,0,0,0,0,-1,797,1828,0,0
-420,-804,0,0,0,0,0,0,0,0,0,-1,804,1828,0,0
-413,-804,0,0,0,0,0,0,0,0,0,-1,811,1828,0,0
-406,-804,0,0,0,0,0,0,0,0,0,-1,818,1828,0,0
-399,-804,0,0,0,0,0,0,0,0,0,-1,825,1828,0,0
-392,-804,0,0,0,0,0,0,0,0,0,-1,832,1828,0,0
-385,-804,0,0,0,0,0,0,0,0,0,-1,839,1828,0,0
-378,-804,0,0,0,0,0,0,0,0,0,-1,846,1828,0,0
-371,-804,0,0,0,0,0,0,0,0,0,-1,853,1828,0,0
-364,-804,0,0,0,0,0,0,0,0,0,-1,860,1828,0,0
-357,-804,0,0,0,0,0,0,0,0,0,-1,867,1828,0,0
-350,-804,0,0,0,0,0,0,0,0,0,-1,874,1828,0,0
-343,-804,0,0,0,0,0,0,0,0,0,-1,881,1828,0,0
-336,-804,0,0,0,0,0,0,0,0,0,-1,888,1828,0,0
-329,-804,0,0,0,0,0,0,0,0,0,-1,895,1828,0,0
-322,-804,0,0,0,0,0,0,0,0,0,-1,902,1828,0,0
-315,-804,0,0,0,0,0,0,0,0,0,-1,909,1828,0,0
-308,-804,0,0,0,0,0,0,0,0,0,-1,916,1828,0,0
-301,-804,0,0,0,0,0,0,0,0,0,-1,923,1828,0,0
-294,-804,0,0,0,0,0,0,0,0,0,-1,930,1828,0,0
-287,-804,0,0,0,0,0,0,0,0,0,-1,937,1828,0,0
-280,-804,0,0,0,0,0,0,0,0,0,-1,944,1828,0,0
-273,-804,0,0,0,0,0,0,0,0,0,-1,951,1828,0,0
-266,-804,0,0,0,0,0,0,0,0,0,-1,958,1828,0,0
-259,-804,0,0,0,0,0,0,0,0,0,-1,965,1828,0,0
-252,-804,0,0,0,0,0,0,0,0,0,-1,972,1828,0,0
-245,-804,0,0,0,0,0,0,0,0,0,-1,979,1828,0,0
-238,-804,0,0,0,0,0,0,0,0,0,-1,986,1828,0,0
-231,-804,0,0,0,0,0,0,0,0,0,-1,993,1828,0,0
-224,-804,0,0,0,0,0,0,0,0,0,-1,1000,1828,0,0
-217,-804,0,0,0,0,0,0,0,0,0,-1,1007,1828,0,0
-210,-804,0,0,0,0,0,0,0,0,0,-1,1014,1828,0,0
-203,-804,0,0,0,0,0,0,0,0,0,-1,1021,1828,0,0
-196,-804,0,0,0,0,0,0,0,0,0,-1,1028,1828,0,0
-189,-804,0,0,0,0,0,0,0,0,0,-1,1035,1828,0,0
-182,-804,0,0,0,0,0,0,0,0,0,-1,1042,1828,0,0
-175,-804,0,0,0,0,0,0,0,0,0,-1,1049,1828,0,0
-168,-804,0,0,0,0,0,0,0,0,0,-1,1056,1828,0,0
-161,-804,0,0,0,0,0,0,0,0,0,-1,1063,1828,0,0
-154,-804,0,0,0,0,0,0,0,0,0,-1,1070,1828,0,0
-147,-804,0,0,0,0,0,0,0,0,0,-1,1077,1828,0,0
-140,-804,0,0,0,0,0,0,0,0,0,-1,1084,1828,0,0
-133,-804,0,0,0,0,0,0,0,0,0,-1,1091,1828,0,0
-126,-804,0,0,0,0,0,0,0,0,0,-1,1098,1828,0,0
-119,-804,0,0,0,0,0,0,0,0,0,-1,1105,1828,0,0
-112,-804,0,0,0,0,0,0,0,0,0,-1,1112,1828,0,0
-105,-804,0,0,0,0,0,0,0,0,0,-1,1119,1828,0,0
-98,-804,0,0,0,0,0,0,0,0,0,-1,1126,1828,0,0
-91,-804,0,0,0,0,0,0,0,0,0,-1,1133,1828,0,0
-84,-804,0,0,0,0,0,0,0,0,0,-1,1140,1828,0,0
-77,-804,0,0,0,0,0,0,0,0,0,-1,1147,1828,0,0
-70,-804,0,0,0,0,0,0,0,0,0,-1,1154,1828,0,0
-63,-804,0,0,0,0,0,0,0,0,0,-1,1161,1828,0,0
-56,-804,0,0,0,0,0,0,0,0,0,-1,1168,1828,0,0
-49,-804,0,0,0,0,0,0,0,0,0,-1,1175,1828,0,0
-42,-804,0,0,0,0,0,0,0,0,0,-1,1182,1828,0,0
-35,-804,0,0,0,0,0,0,0,0,0,-1,1189,1828,0,0
-28,-804,0,0,0,0,0,0,0,0,0,-1,1196,1828,0,0
-21,-804,0,0,0,0,0,0,0,0,0,-1,1203,1828,0,0
-14,-804,0,0,0,0,0,0,0,0,0,-1,1210,1828,0,0
-7,-804,0,0,0,0,0,0,0,0,0,-1,1217,1828,0,0
0,-804,0,0,0,0,0,0,0,0,0,-1,1224,1828,0,0
7,-804,0,0,0,0,0,0,0,0,0,-1,1231,1828,0,0
14,-804,0,0,0,0,0,0,0,0,0,-1,1238,1828,0,0
21,-804,0,0,0,0,0,0,0,0,0,-1,1245,1828,0,0
28,-804,0,0,0,0,0,0,0,0,0,-1,1252,1828,0,0
35,-804,10.1422,18.3805,0.0772818,-0.0225804,-0.0659704,0.110086,-0.0553851,-0.461456,0.0972595,0.0480379,1259,1828,10.1423,-18.3805
42,-804,10.7847,17.4886,0,0,0,0,0,0,0,-1,1266,1828,10.7846,-17.4887
49,-804,1.51965,19.1105,0,0,0,0,0,0,0,-1,1273,1828,1.51964,-19.1104
56,-804,3.87512,18.6748,0,0,0,0,0,0,0,-1,1280,1828,3.87508,-18.6749
63,-804,4.15161,19.2191,0,0,0,0,0,0,0,-1,1287,1828,4.15164,-19.2191
70,-804,4.44104,19.9729,0,0,0,0,0,0,0,-1,1294,1828,4.44103,-19.9729
77,-804,4.76953,20.8672,0,0,0,0,0,0,0,-1,1301,1828,4.76949,-20.8672
84,-804,5.35181,21.4675,0,0,0,0,0,0,0,-1,1308,1828,5.35181,-21.4676
91,-804,0,0,0,0,0,0,0,0,0,-1,1315,1828,0,0
98,-804,0,0,0,0,0,0,0,0,0,-1,1322,1828,0,0
105,-804,0,0,0,0,0,0,0,0,0,-1,1329,1828,0,0
112,-804,0,0,0,0,0,0,0,0,0,-1,1336,1828,0,0
119,-804,0,0,0,0,0,0,0,0,0,-1,1343,1828,0,0
126,-804,0,0,0,0,0,0,0,0,0,-1,1350,1828,0,0
133,-804,0,0,0,0,0,0,0,0,0,-1,1357,1828,0,0
140,-804,0,0,0,0,0,0,0,0,0,-1,1364,1828,0,0
147,-804,0,0,0,0,0,0,0,0,0,-1,1371,1828,0,0
154,-804,0,0,0,0,0,0,0,0,0,-1,1378,1828,0,0
161,-804,0,0,0,0,0,0,0,0,0,-1,1385,1828,0,0
168,-804,0,0,0,0,0,0,0,0,0,-1,1392,1828,0,0
175,-804,0,0,0,0,0,0,0,0,0,-1,1399,1828,0,0
182,-804,0,0,0,0,0,0,0,0,0,-1,1406,1828,0,0
189,-804,0,0,0,0,0,0,0,0,0,-1,1413,1828,0,0
196,-804,0,0,0,0,0,0,0,0,0,-1,1420,1828,0,0
203,-804,0,0,0,0,0,0,0,0,0,-1,1427,1828,0,0
210,-804,0,0,0,0,0,0,0,0,0,-1,1434,1828,0,0
217,-804,0,0,0,0,0,0,0,0,0,-1,1441,1828,0,0
224,-804,0,0,0,0,0,0,0,0,0,-1,1448,1828,0,0
231,-804,0,0,0,0,0,0,0,0,0,-1,1455,1828,0,0
238,-804,0,0,0,0,0,0,0,0,0,-1,1462,1828,0,0
245,-804,0,0,0,0,0,0,0,0,0,-1,1469,1828,0,0
252,-804,0,0,0,0,0,0,0,0,0,-1,1476,1828,0,0
259,-804,0,0,0,0,0,0,0,0,0,-1,1483,1828,0,0
266,-804,0,0,0,0,0,0,0,0,0,-1,1490,1828,0,0
273,-804,0,0,0,0,0,0,0,0,0,-1,1497,1828,0,0
280,-804,0,0,0,0,0,0,0,0,0,-1,1504,1828,0,0
287,-804,0,0,0,0,0,0,0,0,0,-1,1511,1828,0,0
294,-804,0,0,0,0,0,0,0,0,0,-1,1518,1828,0,0
301,-804,0,0,0,0,0,0,0,0,0,-1,1525,1828,0,0
308,-804,0,0,0,0,0,0,0,0,0,-1,1532,1828,0,0
315,-804,0,0,0,0,0,0,0,0,0,-1,1539,1828,0,0
322,-804,0,0,0,0,0,0,0,0,0,-1,1546,1828,0,0
329,-804,0,0,0,0,0,0,0,0,0,-1,1553,1828,0,0
336,-804,0,0,0,0,0,0,0,0,0,-1,1560,1828,0,0
343,-804,0,0,0,0,0,0,0,0,0,-1,1567,1828,0,0
350,-804,0,0,0,0,0,0,0,0,0,-1,1574,1828,0,0
357,-804,0,0,0,0,0,0,0,0,0,-1,1581,1828,0,0
364,-804,0,0,0,0,0,0,0,0,0,-1,1588,1828,0,0
371,-804,0,0,0,0,0,0,0,0,0,-1,1595,1828,0,0
378,-804,0,0,0,0,0,0,0,0,0,-1,1602,1828,0,0
385,-804,0,0,0,0,0,0,0,0,0,-1,1609,1828,0,0
392,-804,0,0,0,0,0,0,0,0,0,-1,1616,1828,0,0
399,-804,0,0,0,0,0,0,0,0,0,-1,1623,1828,0,0
406,-804,0,0,0,0,0,0,0,0,0,-1,1630,1828,0,0
413,-804,0,0,0,0,0,0,0,0,0,-1,1637,1828,0,0
420,-804,0,0,0,0,0,0,0,0,0,-1,1644,1828,0,0
427,-804,0,0,0,0,0,0,0,0,0,-1,1651,1828,0,0
434,-804,0,0,0,0,0,0,0,0,0,-1,1658,1828,0,0
441,-804,0,0,0,0,0,0,0,0,0,-1,1665,1828,0,0
448,-804,0,0,0,0,0,0,0,0,0,-1,1672,1828,0,0
455,-804,0,0,0,0,0,0,0,0,0,-1,1679,1828,0,0
462,-804,0,0,0,0,0,0,0,0,0,-1,1686,1828,0,0
469,-804,0,0,0,0,0,0,0,0,0,-1,1693,1828,0,0
476,-804,0,0,0,0,0,0,0,0,0,-1,1700,1828,0,0
483,-804,0,0,0,0,0,0,0,0,0,-1,1707,1828,0,0
490,-804,0,0,0,0,0,0,0,0,0,-1,1714,1828,0,0
497,-804,0,0,0,0,0,0,0,0,0,-1,1721,1828,0,0
504,-804,0,0,0,0,0,0,0,0,0,-1,1728,1828,0,0
511,-804,0,0,0,0,0,0,0,0,0,-1,1735,1828,0,0
518,-804,0,0,0,0,0,0,0,0,0,-1,1742,1828,0,0
525,-804,0,0,0,0,0,0,0,0,0,-1,1749,1828,0,0
532,-804,0,0,0,0,0,0,0,0,0,-1,1756,1828,0,0
539,-804,0,0,0,0,0,0,0,0,0,-1,1763,1828,0,0
546,-804,0,0,0,0,0,0,0,0,0,-1,1770,1828,0,0
553,-804,0,0,0,0,0,0,0,0,0,-1,1777,1828,0,0
560,-804,0,0,0,0,0,0,0,0,0,-1,1784,1828,0,0
567,-804,0,0,0,0,0,0,0,0,0,-1,1791,1828,0,0
574,-804,0,0,0,0,0,0,0,0,0,-1,1798,1828,0,0
581,-804,0,0,0,0,0,0,0,0,0,-1,1805,1828,0,0
588,-804,0,0,0,0,0,0,0,0,0,-1,1812,1828,0,0
595,-804,0,0,0,0,0,0,0,0,0,-1,1819,1828,0,0
602,-804,0,0,0,0,0,0,0,0,0,-1,1826,1828,0,0
609,-804,0,0,0,0,0,0,0,0,0,-1,1833,1828,0,0
616,-804,0,0,0,0,0,0,0,0,0,-1,1840,1828,0,0
623,-804,0,0,0,0,0,0,0,0,0,-1,1847,1828,0,0
630,-804,0,0,0,0,0,0,0,0,0,-1,1854,1828,0,0
637,-804,0,0,0,0,0,0,0,0,0,-1,1861,1828,0,0
644,-804,0,0,0,0,0,0,0,0,0,-1,1868,1828,0,0
651,-804,0,0,0,0,0,0,0,0,0,-1,1875,1828,0,0
658,-804,0,0,0,0,0,0,0,0,0,-1,1882,1828,0,0
665,-804,0,0,0,0,0,0,0,0,0,-1,1889,1828,0,0
672,-804,0,0,0,0,0,0,0,0,0,-1,1896,1828,0,0
679,-804,0,0,0,0,0,0,0,0,0,-1,1903,1828,0,0
686,-804,0,0,0,0,0,0,0,0,0,-1,1910,1828,0,0
693,-804,0,0,0,0,0,0,0,0,0,-1,1917,1828,0,0
700,-804,0,0,0,0,0,0,0,0,0,-1,1924,1828,0,0
707,-804,0,0,0,0,0,0,0,0,0,-1,1931,1828,0,0
714,-804,0,0,0,0,0,0,0,0,0,-1,1938,1828,0,0
721,-804,0,0,0,0,0,0,0,0,0,-1,1945,1828,0,0
728,-804,0,0,0,0,0,0,0,0,0,-1,1952,1828,0,0
735,-804,0,0,0,0,0,0,0,0,0,-1,1959,1828,0,0
742,-804,0,0,0,0,0,0,0,0,0,-1,1966,1828,0,0
749,-804,0,0,0,0,0,0,0,0,0,-1,1973,1828,0,0
756,-804,0,0,0,0,0,0,0,0,0,-1,1980,1828,0,0
763,-804,0,0,0,0,0,0,0,0,0,-1,1987,1828,0,0
770,-804,0,0,0,0,0,0,0,0,0,-1,1994,1828,0,0
777,-804,0,0,0,0,0,0,0,0,0,-1,2001,1828,0,0
784,-804,0,0,0,0,0,0,0,0,0,-1,2008,1828,0,0
791,-804,0,0,0,0,0,0,0,0,0,-1,2015,1828,0,0
798,-804,0,0,0,0,0,0,0,0,0,-1,2022,1828,0,0
805,-804,0,0,0,0,0,0,0,0,0,-1,2029,1828,0,0
812,-804,0,0,0,0,0,0,0,0,0,-1,2036,1828,0,0

