 "x_c",  "y_c",  "u_c",  "v_c",  "exx",  "eyy",  "exy",  "e1",  "e2",  "gamma",  "e_vonmises",  "sigma",  "x",  "y",  "u",  "v"
-700,715,0,0,0,0,0,0,0,0,0,-1,524,309,0,0
-693,715,0,0,0,0,0,0,0,0,0,-1,531,309,0,0
-686,715,0,0,0,0,0,0,0,0,0,-1,538,309,0,0
-679,715,0,0,0,0,0,0,0,0,0,-1,545,309,0,0
-672,715,0,0,0,0,0,0,0,0,0,-1,552,309,0,0
-665,715,0,0,0,0,0,0,0,0,0,-1,559,309,0,0
-658,715,0,0,0,0,0,0,0,0,0,-1,566,309,0,0
-651,715,0,0,0,0,0,0,0,0,0,-1,573,309,0,0
-644,715,0,0,0,0,0,0,0,0,0,-1,580,309,0,0
-637,715,0,0,0,0,0,0,0,0,0,-1,587,309,0,0
-630,715,0,0,0,0,0,0,0,0,0,-1,594,309,0,0
-623,715,0,0,0,0,0,0,0,0,0,-1,601,309,0,0
-616,715,0,0,0,0,0,0,0,0,0,-1,608,309,0,0
-609,715,0,0,0,0,0,0,0,0,0,-1,615,309,0,0
-602,715,0,0,0,0,0,0,0,0,0,-1,622,309,0,0
-595,715,0,0,0,0,0,0,0,0,0,-1,629,309,0,0
-588,715,0,0,0,0,0,0,0,0,0,-1,636,309,0,0
-581,715,0,0,0,0,0,0,0,0,0,-1,643,309,0,0
-574,715,0,0,0,0,0,0,0,0,0,-1,650,309,0,0
-567,715,0,0,0,0,0,0,0,0,0,-1,657,309,0,0
-560,715,0,0,0,0,0,0,0,0,0,-1,664,309,0,0
-553,715,0,0,0,0,0,0,0,0,0,-1,671,309,0,0
-546,715,0,0,0,0,0,0,0,0,0,-1,678,309,0,0
-539,715,0,0,0,0,0,0,0,0,0,-1,685,309,0,0
-532,715,0,0,0,0,0,0,0,0,0,-1,692,309,0,0
-525,715,0,0,0,0,0,0,0,0,0,-1,699,309,0,0
-518,715,0,0,0,0,0,0,0,0,0,-1,706,309,0,0
-511,715,0,0,0,0,0,0,0,0,0,-1,713,309,0,0
-504,715,0,0,0,0,0,0,0,0,0,-1,720,309,0,0
-497,715,0,0,0,0,0,0,0,0,0,-1,727,309,0,0
-490,715,0,0,0,0,0,0,0,0,0,-1,734,309,0,0
-483,715,0,0,0,0,0,0,0,0,0,-1,741,309,0,0
-476,715,0,0,0,0,0,0,0,0,0,-1,748,309,0,0
-469,715,0,0,0,0,0,0,0,0,0,-1,755,309,0,0
-462,715,0,0,0,0,0,0,0,0,0,-1,762,309,0,0
-455,715,0,0,0,0,0,0,0,0,0,-1,769,309,0,0
-448,715,0,0,0,0,0,0,0,0,0,-1,776,309,0,0
-441,715,0,0,0,0,0,0,0,0,0,-1,783,309,0,0
-434,715,0,0,0,0,0,0,0,0,0,-1,790,309,0,0
-427,715,0,0,0,0,0,0,0,0,0,-1,797,309,0,0
-420,715,0,0,0,0,0,0,0,0,0,-1,804,309,0,0
-413,715,0,0,0,0,0,0,0,0,0,-1,811,309,0,0
-406,715,0,0,0,0,0,0,0,0,0,-1,818,309,0,0
-399,715,0,0,0,0,0,0,0,0,0,-1,825,309,0,0
-392,715,0,0,0,0,0,0,0,0,0,-1,832,309,0,0
-385,715,0,0,0,0,0,0,0,0,0,-1,839,309,0,0
-378,715,0,0,0,0,0,0,0,0,0,-1,846,309,0,0
-371,715,0,0,0,0,0,0,0,0,0,-1,853,309,0,0
-364,715,0,0,0,0,0,0,0,0,0,-1,860,309,0,0
-357,715,0,0,0,0,0,0,0,0,0,-1,867,309,0,0
-350,715,0,0,0,0,0,0,0,0,0,-1,874,309,0,0
-343,715,0,0,0,0,0,0,0,0,0,-1,881,309,0,0
-336,715,0,0,0,0,0,0,0,0,0,-1,888,309,0,0
-329,715,0,0,0,0,0,0,0,0,0,-1,895,309,0,0
-322,715,0,0,0,0,0,0,0,0,0,-1,902,309,0,0
-315,715,0,0,0,0,0,0,0,0,0,-1,909,309,0,0
-308,715,0,0,0,0,0,0,0,0,0,-1,916,309,0,0
-301,715,0,0,0,0,0,0,0,0,0,-1,923,309,0,0
-294,715,0,0,0,0,0,0,0,0,0,-1,930,309,0,0
-287,715,0,0,0,0,0,0,0,0,0,-1,937,309,0,0
-280,715,0,0,0,0,0,0,0,0,0,-1,944,309,0,0
-273,715,0,0,0,0,0,0,0,0,0,-1,951,309,0,0
-266,715,0,0,0,0,0,0,0,0,0,-1,958,309,0,0
-259,715,0,0,0,0,0,0,0,0,0,-1,965,309,0,0
-252,715,0,0,0,0,0,0,0,0,0,-1,972,309,0,0
-245,715,0,0,0,0,0,0,0,0,0,-1,979,309,0,0
-238,715,0,0,0,0,0,0,0,0,0,-1,986,309,0,0
-231,715,0,0,0,0,0,0,0,0,0,-1,993,309,0,0
-224,715,0,0,0,0,0,0,0,0,0,-1,1000,309,0,0
-217,715,0,0,0,0,0,0,0,0,0,-1,1007,309,0,0
-210,715,0,0,0,0,0,0,0,0,0,-1,1014,309,0,0
-203,715,0,0,0,0,0,0,0,0,0,-1,1021,309,0,0
-196,715,0,0,0,0,0,0,0,0,0,-1,1028,309,0,0
-189,715,0,0,0,0,0,0,0,0,0,-1,1035,309,0,0
-182,715,0,0,0,0,0,0,0,0,0,-1,1042,309,0,0
-175,715,0,0,0,0,0,0,0,0,0,-1,1049,309,0,0
-168,715,0,0,0,0,0,0,0,0,0,-1,1056,309,0,0
-161,715,0,0,0,0,0,0,0,0,0,-1,1063,309,0,0
-154,715,0,0,0,0,0,0,0,0,0,-1,1070,309,0,0
-147,715,0,0,0,0,0,0,0,0,0,-1,1077,309,0,0
-140,715,0,0,0,0,0,0,0,0,0,-1,1084,309,0,0
-133,715,0,0,0,0,0,0,0,0,0,-1,1091,309,0,0
-126,715,0,0,0,0,0,0,0,0,0,-1,1098,309,0,0
-119,715,0,0,0,0,0,0,0,0,0,-1,1105,309,0,0
-112,715,0,0,0,0,0,0,0,0,0,-1,1112,309,0,0
-105,715,0,0,0,0,0,0,0,0,0,-1,1119,309,0,0
-98,715,0,0,0,0,0,0,0,0,0,-1,1126,309,0,0
-91,715,0,0,0,0,0,0,0,0,0,-1,1133,309,0,0
-84,715,0,0,0,0,0,0,0,0,0,-1,1140,309,0,0
-77,715,0,0,0,0,0,0,0,0,0,-1,1147,309,0,0
-70,715,0,0,0,0,0,0,0,0,0,-1,1154,309,0,0
-63,715,0,0,0,0,0,0,0,0,0,-1,1161,309,0,0
-56,715,0,0,0,0,0,0,0,0,0,-1,1168,309,0,0
-49,715,0,0,0,0,0,0,0,0,0,-1,1175,309,0,0
-42,715,0,0,0,0,0,0,0,0,0,-1,1182,309,0,0
-35,715,0,0,0,0,0,0,0,0,0,-1,1189,309,0,0
-28,715,0,0,0,0,0,0,0,0,0,-1,1196,309,0,0
-21,715,0,0,0,0,0,0,0,0,0,-1,1203,309,0,0
-14,715,0,0,0,0,0,0,0,0,0,-1,1210,309,0,0
-7,715,0,0,0,0,0,0,0,0,0,-1,1217,309,0,0
0,715,0,0,0,0,0,0,0,0,0,-1,1224,309,0,0
7,715,0,0,0,0,0,0,0,0,0,-1,1231,309,0,0
14,715,0,0,0,0,0,0,0,0,0,-1,1238,309,0,0
21,715,0,0,0,0,0,0,0,0,0,-1,1245,309,0,0
28,715,0,0,0,0,0,0,0,0,0,-1,1252,309,0,0
35,715,0,0,0,0,0,0,0,0,0,-1,1259,309,0,0
42,715,0,0,0,0,0,0,0,0,0,-1,1266,309,0,0
49,715,0,0,0,0,0,0,0,0,0,-1,1273,309,0,0
56,715,0,0,0,0,0,0,0,0,0,-1,1280,309,0,0
63,715,8.66919,-53.0831,0,0,0,0,0,0,0,-1,1287,309,8.66924,53.0831
70,715,9.36511,-53.576,0,0,0,0,0,0,0,-1,1294,309,9.36508,53.576
77,715,0,0,0,0,0,0,0,0,0,-1,1301,309,0,0
84,715,0,0,0,0,0,0,0,0,0,-1,1308,309,0,0
91,715,0,0,0,0,0,0,0,0,0,-1,1315,309,0,0
98,715,0,0,0,0,0,0,0,0,0,-1,1322,309,0,0
105,715,0,0,0,0,0,0,0,0,0,-1,1329,309,0,0
112,715,0,0,0,0,0,0,0,0,0,-1,1336,309,0,0
119,715,0,0,0,0,0,0,0,0,0,-1,1343,309,0,0
126,715,0,0,0,0,0,0,0,0,0,-1,1350,309,0,0
133,715,0,0,0,0,0,0,0,0,0,-1,1357,309,0,0
140,715,0,0,0,0,0,0,0,0,0,-1,1364,309,0,0
147,715,0,0,0,0,0,0,0,0,0,-1,1371,309,0,0
154,715,0,0,0,0,0,0,0,0,0,-1,1378,309,0,0
161,715,0,0,0,0,0,0,0,0,0,-1,1385,309,0,0
168,715,0,0,0,0,0,0,0,0,0,-1,1392,309,0,0
175,715,0,0,0,0,0,0,0,0,0,-1,1399,309,0,0
182,715,0,0,0,0,0,0,0,0,0,-1,1406,309,0,0
189,715,0,0,0,0,0,0,0,0,0,-1,1413,309,0,0
196,715,0,0,0,0,0,0,0,0,0,-1,1420,309,0,0
203,715,0,0,0,0,0,0,0,0,0,-1,1427,309,0,0
210,715,0,0,0,0,0,0,0,0,0,-1,1434,309,0,0
217,715,0,0,0,0,0,0,0,0,0,-1,1441,309,0,0
224,715,0,0,0,0,0,0,0,0,0,-1,1448,309,0,0
231,715,0,0,0,0,0,0,0,0,0,-1,1455,309,0,0
238,715,0,0,0,0,0,0,0,0,0,-1,1462,309,0,0
245,715,0,0,0,0,0,0,0,0,0,-1,1469,309,0,0
252,715,0,0,0,0,0,0,0,0,0,-1,1476,309,0,0
259,715,0,0,0,0,0,0,0,0,0,-1,1483,309,0,0
266,715,0,0,0,0,0,0,0,0,0,-1,1490,309,0,0
273,715,0,0,0,0,0,0,0,0,0,-1,1497,309,0,0
280,715,0,0,0,0,0,0,0,0,0,-1,1504,309,0,0
287,715,0,0,0,0,0,0,0,0,0,-1,1511,309,0,0
294,715,0,0,0,0,0,0,0,0,0,-1,1518,309,0,0
301,715,0,0,0,0,0,0,0,0,0,-1,1525,309,0,0
308,715,0,0,0,0,0,0,0,0,0,-1,1532,309,0,0
315,715,0,0,0,0,0,0,0,0,0,-1,1539,309,0,0
322,715,0,0,0,0,0,0,0,0,0,-1,1546,309,0,0
329,715,0,0,0,0,0,0,0,0,0,-1,1553,309,0,0
336,715,0,0,0,0,0,0,0,0,0,-1,1560,309,0,0
343,715,0,0,0,0,0,0,0,0,0,-1,1567,309,0,0
350,715,0,0,0,0,0,0,0,0,0,-1,1574,309,0,0
357,715,0,0,0,0,0,0,0,0,0,-1,1581,309,0,0
364,715,0,0,0,0,0,0,0,0,0,-1,1588,309,0,0
371,715,0,0,0,0,0,0,0,0,0,-1,1595,309,0,0
378,715,0,0,0,0,0,0,0,0,0,-1,1602,309,0,0
385,715,0,0,0,0,0,0,0,0,0,-1,1609,309,0,0
392,715,0,0,0,0,0,0,0,0,0,-1,1616,309,0,0
399,715,0,0,0,0,0,0,0,0,0,-1,1623,309,0,0
406,715,0,0,0,0,0,0,0,0,0,-1,1630,309,0,0
413,715,0,0,0,0,0,0,0,0,0,-1,1637,309,0,0
420,715,0,0,0,0,0,0,0,0,0,-1,1644,309,0,0
427,715,0,0,0,0,0,0,0,0,0,-1,1651,309,0,0
434,715,0,0,0,0,0,0,0,0,0,-1,1658,309,0,0
441,715,0,0,0,0,0,0,0,0,0,-1,1665,309,0,0
448,715,0,0,0,0,0,0,0,0,0,-1,1672,309,0,0
455,715,0,0,0,0,0,0,0,0,0,-1,1679,309,0,0
462,715,0,0,0,0,0,0,0,0,0,-1,1686,309,0,0
469,715,0,0,0,0,0,0,0,0,0,-1,1693,309,0,0
476,715,0,0,0,0,0,0,0,0,0,-1,1700,309,0,0
483,715,0,0,0,0,0,0,0,0,0,-1,1707,309,0,0
490,715,0,0,0,0,0,0,0,0,0,-1,1714,309,0,0
497,715,0,0,0,0,0,0,0,0,0,-1,1721,309,0,0
504,715,0,0,0,0,0,0,0,0,0,-1,1728,309,0,0
511,715,0,0,0,0,0,0,0,0,0,-1,1735,309,0,0
518,715,0,0,0,0,0,0,0,0,0,-1,1742,309,0,0
525,715,0,0,0,0,0,0,0,0,0,-1,1749,309,0,0
532,715,0,0,0,0,0,0,0,0,0,-1,1756,309,0,0
539,715,0,0,0,0,0,0,0,0,0,-1,1763,309,0,0
546,715,0,0,0,0,0,0,0,0,0,-1,1770,309,0,0
553,715,0,0,0,0,0,0,0,0,0,-1,1777,309,0,0
560,715,0,0,0,0,0,0,0,0,0,-1,1784,309,0,0
567,715,0,0,0,0,0,0,0,0,0,-1,1791,309,0,0
574,715,0,0,0,0,0,0,0,0,0,-1,1798,309,0,0
581,715,0,0,0,0,0,0,0,0,0,-1,1805,309,0,0
588,715,0,0,0,0,0,0,0,0,0,-1,1812,309,0,0
595,715,0,0,0,0,0,0,0,0,0,-1,1819,309,0,0
602,715,0,0,0,0,0,0,0,0,0,-1,1826,309,0,0
609,715,0,0,0,0,0,0,0,0,0,-1,1833,309,0,0
616,715,0,0,0,0,0,0,0,0,0,-1,1840,309,0,0
623,715,0,0,0,0,0,0,0,0,0,-1,1847,309,0,0
630,715,0,0,0,0,0,0,0,0,0,-1,1854,309,0,0
637,715,0,0,0,0,0,0,0,0,0,-1,1861,309,0,0
644,715,0,0,0,0,0,0,0,0,0,-1,1868,309,0,0
651,715,0,0,0,0,0,0,0,0,0,-1,1875,309,0,0
658,715,0,0,0,0,0,0,0,0,0,-1,1882,309,0,0
665,715,0,0,0,0,0,0,0,0,0,-1,1889,309,0,0
672,715,0,0,0,0,0,0,0,0,0,-1,1896,309,0,0
679,715,0,0,0,0,0,0,0,0,0,-1,1903,309,0,0
686,715,0,0,0,0,0,0,0,0,0,-1,1910,309,0,0
693,715,0,0,0,0,0,0,0,0,0,-1,1917,309,0,0
700,715,0,0,0,0,0,0,0,0,0,-1,1924,309,0,0
707,715,0,0,0,0,0,0,0,0,0,-1,1931,309,0,0
714,715,0,0,0,0,0,0,0,0,0,-1,1938,309,0,0
721,715,0,0,0,0,0,0,0,0,0,-1,1945,309,0,0
728,715,0,0,0,0,0,0,0,0,0,-1,1952,309,0,0
735,715,0,0,0,0,0,0,0,0,0,-1,1959,309,0,0
742,715,0,0,0,0,0,0,0,0,0,-1,1966,309,0,0
749,715,0,0,0,0,0,0,0,0,0,-1,1973,309,0,0
756,715,0,0,0,0,0,0,0,0,0,-1,1980,309,0,0
763,715,0,0,0,0,0,0,0,0,0,-1,1987,309,0,0
770,715,0,0,0,0,0,0,0,0,0,-1,1994,309,0,0
777,715,0,0,0,0,0,0,0,0,0,-1,2001,309,0,0
784,715,0,0,0,0,0,0,0,0,0,-1,2008,309,0,0
791,715,0,0,0,0,0,0,0,0,0,-1,2015,309,0,0
798,715,0,0,0,0,0,0,0,0,0,-1,2022,309,0,0
805,715,0,0,0,0,0,0,0,0,0,-1,2029,309,0,0
812,715,0,0,0,0,0,0,0,0,0,-1,2036,309,0,0
-700,708,0,0,0,0,0,0,0,0,0,-1,524,316,0,0
-693,708,0,0,0,0,0,0,0,0,0,-1,531,316,0,0
-686,708,0,0,0,0,0,0,0,0,0,-1,538,316,0,0
-679,708,0,0,0,0,0,0,0,0,0,-1,545,316,0,0
-672,708,0,0,0,0,0,0,0,0,0,-1,552,316,0,0
-665,708,0,0,0,0,0,0,0,0,0,-1,559,316,0,0
-658,708,0,0,0,0,0,0,0,0,0,-1,566,316,0,0
-651,708,0,0,0,0,0,0,0,0,0,-1,573,316,0,0
-644,708,0,0,0,0,0,0,0,0,0,-1,580,316,0,0
-637,708,0,0,0,0,0,0,0,0,0,-1,587,316,0,0
-630,708,0,0,0,0,0,0,0,0,0,-1,594,316,0,0
-623,708,0,0,0,0,0,0,0,0,0,-1,601,316,0,0
-616,708,0,0,0,0,0,0,0,0,0,-1,608,316,0,0
-609,708,0,0,0,0,0,0,0,0,0,-1,615,316,0,0
-602,708,0,0,0,0,0,0,0,0,0,-1,622,316,0,0
-595,708,0,0,0,0,0,0,0,0,0,-1,629,316,0,0
-588,708,0,0,0,0,0,0,0,0,0,-1,636,316,0,0
-581,708,0,0,0,0,0,0,0,0,0,-1,643,316,0,0
-574,708,0,0,0,0,0,0,0,0,0,-1,650,316,0,0
-567,708,0,0,0,0,0,0,0,0,0,-1,657,316,0,0
-560,708,0,0,0,0,0,0,0,0,0,-1,664,316,0,0
-553,708,0,0,0,0,0,0,0,0,0,-1,671,316,0,0
-546,708,0,0,0,0,0,0,0,0,0,-1,678,316,0,0
-539,708,0,0,0,0,0,0,0,0,0,-1,685,316,0,0
-532,708,0,0,0,0,0,0,0,0,0,-1,692,316,0,0
-525,708,0,0,0,0,0,0,0,0,0,-1,699,316,0,0
-518,708,0,0,0,0,0,0,0,0,0,-1,706,316,0,0
-511,708,0,0,0,0,0,0,0,0,0,-1,713,316,0,0
-504,708,0,0,0,0,0,0,0,0,0,-1,720,316,0,0
-497,708,0,0,0,0,0,0,0,0,0,-1,727,316,0,0
-490,708,0,0,0,0,0,0,0,0,0,-1,734,316,0,0
-483,708,0,0,0,0,0,0,0,0,0,-1,741,316,0,0
-476,708,0,0,0,0,0,0,0,0,0,-1,748,316,0,0
-469,708,0,0,0,0,0,0,0,0,0,-1,755,316,0,0
-462,708,0,0,0,0,0,0,0,0,0,-1,762,316,0,0
-455,708,0,0,0,0,0,0,0,0,0,-1,769,316,0,0
-448,708,0,0,0,0,0,0,0,0,0,-1,776,316,0,0
-441,708,0,0,0,0,0,0,0,0,0,-1,783,316,0,0
-434,708,0,0,0,0,0,0,0,0,0,-1,790,316,0,0
-427,708,0,0,0,0,0,0,0,0,0,-1,797,316,0,0
-420,708,0,0,0,0,0,0,0,0,0,-1,804,316,0,0
-413,708,0,0,0,0,0,0,0,0,0,-1,811,316,0,0
-406,708,0,0,0,0,0,0,0,0,0,-1,818,316,0,0
-399,708,0,0,0,0,0,0,0,0,0,-1,825,316,0,0
-392,708,0,0,0,0,0,0,0,0,0,-1,832,316,0,0
-385,708,0,0,0,0,0,0,0,0,0,-1,839,316,0,0
-378,708,0,0,0,0,0,0,0,0,0,-1,846,316,0,0
-371,708,0,0,0,0,0,0,0,0,0,-1,853,316,0,0
-364,708,0,0,0,0,0,0,0,0,0,-1,860,316,0,0
-357,708,0,0,0,0,0,0,0,0,0,-1,867,316,0,0
-350,708,0,0,0,0,0,0,0,0,0,-1,874,316,0,0
-343,708,0,0,0,0,0,0,0,0,0,-1,881,316,0,0
-336,708,0,0,0,0,0,0,0,0,0,-1,888,316,0,0
-329,708,0,0,0,0,0,0,0,0,0,-1,895,316,0,0
-322,708,0,0,0,0,0,0,0,0,0,-1,902,316,0,0
-315,708,0,0,0,0,0,0,0,0,0,-1,909,316,0,0
-308,708,0,0,0,0,0,0,0,0,0,-1,916,316,0,0
-301,708,0,0,0,0,0,0,0,0,0,-1,923,316,0,0
-294,708,0,0,0,0,0,0,0,0,0,-1,930,316,0,0
-287,708,0,0,0,0,0,0,0,0,0,-1,937,316,0,0
-280,708,0,0,0,0,0,0,0,0,0,-1,944,316,0,0
-273,708,0,0,0,0,0,0,0,0,0,-1,951,316,0,0
-266,708,0,0,0,0,0,0,0,0,0,-1,958,316,0,0
-259,708,0,0,0,0,0,0,0,0,0,-1,965,316,0,0
-252,708,0,0,0,0,0,0,0,0,0,-1,972,316,0,0
-245,708,0,0,0,0,0,0,0,0,0,-1,979,316,0,0
-238,708,0,0,0,0,0,0,0,0,0,-1,986,316,0,0
-231,708,0,0,0,0,0,0,0,0,0,-1,993,316,0,0
-224,708,0,0,0,0,0,0,0,0,0,-1,1000,316,0,0
-217,708,0,0,0,0,0,0,0,0,0,-1,1007,316,0,0
-210,708,0,0,0,0,0,0,0,0,0,-1,1014,316,0,0
-203,708,0,0,0,0,0,0,0,0,0,-1,1021,316,0,0
-196,708,0,0,0,0,0,0,0,0,0,-1,1028,316,0,0
-189,708,0,0,0,0,0,0,0,0,0,-1,1035,316,0,0
-182,708,0,0,0,0,0,0,0,0,0,-1,1042,316,0,0
-175,708,0,0,0,0,0,0,0,0,0,-1,1049,316,0,0
-168,708,0,0,0,0,0,0,0,0,0,-1,1056,316,0,0
-161,708,0,0,0,0,0,0,0,0,0,-1,1063,316,0,0
-154,708,0,0,0,0,0,0,0,0,0,-1,1070,316,0,0
-147,708,0,0,0,0,0,0,0,0,0,-1,1077,316,0,0
-140,708,0,0,0,0,0,0,0,0,0,-1,1084,316,0,0
-133,708,0,0,0,0,0,0,0,0,0,-1,1091,316,0,0
-126,708,0,0,0,0,0,0,0,0,0,-1,1098,316,0,0
-119,708,0,0,0,0,0,0,0,0,0,-1,1105,316,0,0
-112,708,0,0,0,0,0,0,0,0,0,-1,1112,316,0,0
-105,708,0,0,0,0,0,0,0,0,0,-1,1119,316,0,0
-98,708,0,0,0,0,0,0,0,0,0,-1,1126,316,0,0
-91,708,0,0,0,0,0,0,0,0,0,-1,1133,316,0,0
-84,708,0,0,0,0,0,0,0,0,0,-1,1140,316,0,0
-77,708,0,0,0,0,0,0,0,0,0,-1,1147,316,0,0
-70,708,0,0,0,0,0,0,0,0,0,-1,1154,316,0,0
-63,708,0,0,0,0,0,0,0,0,0,-1,1161,316,0,0
-56,708,0,0,0,0,0,0,0,0,0,-1,1168,316,0,0
-49,708,0,0,0,0,0,0,0,0,0,-1,1175,316,0,0
-42,708,0,0,0,0,0,0,0,0,0,-1,1182,316,0,0
-35,708,-2.71204,-6.31558,0,0,0,0,0,0,0,-1,1189,316,-2.712,6.3156
-28,708,-2.92371,-5.53253,0,0,0,0,0,0,0,-1,1196,316,-2.92375,5.53254
-21,708,-0.417969,-24.5911,0,0,0,0,0,0,0,-1,1203,316,-0.418022,24.5911
-14,708,6.53772,-50.2347,0,0,0,0,0,0,0,-1,1210,316,6.53775,50.2347
-7,708,6.74634,-50.4775,0,0,0,0,0,0,0,-1,1217,316,6.74632,50.4775
0,708,5.49475,-46.6815,0,0,0,0,0,0,0,-1,1224,316,5.49478,46.6815
7,708,5.96912,-47.4771,0.0549718,0.151846,-0.0427581,0.168018,0.0387992,-1.20919,0.10158,0.0464537,1231,316,5.9691,47.4771
14,708,6.66821,-48.6139,0.0473193,0.130933,-0.0383081,0.14583,0.0324223,-1.19992,0.088417,0.0433165,1238,316,6.66823,48.6139
21,708,7.34241,-49.5221,0,0,0,0,0,0,0,-1,1245,316,7.34235,49.5221
28,708,8.02039,-50.2798,0.0428308,0.0862621,-0.026985,0.099184,0.0299089,-1.12421,0.0587481,0.0460524,1252,316,8.02034,50.2797
35,708,6.25671,-50.5009,0.0449,0.0627187,-0.0206688,0.0763165,0.0313021,-0.988891,0.0442978,0.0447254,1259,316,6.25676,50.5009
42,708,6.0437,-50.9481,0,0,0,0,0,0,0,-1,1266,316,6.04365,50.9481
49,708,7.19775,-52.059,0,0,0,0,0,0,0,-1,1273,316,7.19772,52.059
56,708,7.78638,-52.3573,0.0471895,0.0209698,-0.0089277,0.0499407,0.0182186,-0.298927,0.0291825,0.0438431,1280,316,7.78643,52.3573
63,708,8.49951,-52.8803,0.0386236,0.0210919,-0.00810103,0.0417937,0.0179218,-0.373002,0.024211,0.0443432,1287,316,8.49952,52.8803
70,708,9.20593,-53.3377,0.0279488,0.0262372,-0.0084955,0.0356315,0.0185545,-0.735198,0.0205777,0.0445456,1294,316,9.20599,53.3377
77,708,9.91943,-53.8122,0,0,0,0,0,0,0,-1,1301,316,9.91946,53.8122
84,708,10.5809,-54.8124,0,0,0,0,0,0,0,-1,1308,316,10.581,54.8124
91,708,10.1344,-48.4655,0,0,0,0,0,0,0,-1,1315,316,10.1344,48.4655
98,708,4.75232,-49.3888,0,0,0,0,0,0,0,-1,1322,316,4.75234,49.3888
105,708,4.07983,-48.9384,-0.0433374,0.0957217,-0.0165529,0.097665,-0.0452806,-1.45394,0.0843567,0.0477739,1329,316,4.07986,48.9384
112,708,3.41565,-48.9971,-0.0618303,0.112855,-0.0175836,0.114607,-0.0635826,-1.47147,0.104275,0.0456921,1336,316,3.4157,48.9971
119,708,2.76257,-49.0415,-0.0750249,0.126673,-0.0178668,0.128243,-0.0765954,-1.48312,0.11951,0.0471051,1343,316,2.76261,49.0415
126,708,2.07837,-49.0882,0,0,0,0,0,0,0,-1,1350,316,2.07837,49.0882
133,708,8.12305,-46.5923,0,0,0,0,0,0,0,-1,1357,316,8.1231,46.5923
140,708,7.91956,-43.1792,0,0,0,0,0,0,0,-1,1364,316,7.9196,43.1792
147,708,5.13818,-46.0465,0,0,0,0,0,0,0,-1,1371,316,5.13814,46.0465
154,708,0,0,0,0,0,0,0,0,0,-1,1378,316,0,0
161,708,0,0,0,0,0,0,0,0,0,-1,1385,316,0,0
168,708,0,0,0,0,0,0,0,0,0,-1,1392,316,0,0
175,708,0,0,0,0,0,0,0,0,0,-1,1399,316,0,0
182,708,0,0,0,0,0,0,0,0,0,-1,1406,316,0,0
189,708,0,0,0,0,0,0,0,0,0,-1,1413,316,0,0
196,708,0,0,0,0,0,0,0,0,0,-1,1420,316,0,0
203,708,0,0,0,0,0,0,0,0,0,-1,1427,316,0,0
210,708,0,0,0,0,0,0,0,0,0,-1,1434,316,0,0
217,708,0,0,0,0,0,0,0,0,0,-1,1441,316,0,0
224,708,0,0,0,0,0,0,0,0,0,-1,1448,316,0,0
231,708,0,0,0,0,0,0,0,0,0,-1,1455,316,0,0
238,708,0,0,0,0,0,0,0,0,0,-1,1462,316,0,0
245,708,0,0,0,0,0,0,0,0,0,-1,1469,316,0,0
252,708,0,0,0,0,0,0,0,0,0,-1,1476,316,0,0
259,708,0,0,0,0,0,0,0,0,0,-1,1483,316,0,0
266,708,0,0,0,0,0,0,0,0,0,-1,1490,316,0,0
273,708,0,0,0,0,0,0,0,0,0,-1,1497,316,0,0
280,708,0,0,0,0,0,0,0,0,0,-1,1504,316,0,0
287,708,0,0,0,0,0,0,0,0,0,-1,1511,316,0,0
294,708,0,0,0,0,0,0,0,0,0,-1,1518,316,0,0
301,708,0,0,0,0,0,0,0,0,0,-1,1525,316,0,0
308,708,0,0,0,0,0,0,0,0,0,-1,1532,316,0,0
315,708,0,0,0,0,0,0,0,0,0,-1,1539,316,0,0
322,708,0,0,0,0,0,0,0,0,0,-1,1546,316,0,0
329,708,0,0,0,0,0,0,0,0,0,-1,1553,316,0,0
336,708,0,0,0,0,0,0,0,0,0,-1,1560,316,0,0
343,708,0,0,0,0,0,0,0,0,0,-1,1567,316,0,0
350,708,0,0,0,0,0,0,0,0,0,-1,1574,316,0,0
357,708,0,0,0,0,0,0,0,0,0,-1,1581,316,0,0
364,708,0,0,0,0,0,0,0,0,0,-1,1588,316,0,0
371,708,0,0,0,0,0,0,0,0,0,-1,1595,316,0,0
378,708,0,0,0,0,0,0,0,0,0,-1,1602,316,0,0
385,708,0,0,0,0,0,0,0,0,0,-1,1609,316,0,0
392,708,0,0,0,0,0,0,0,0,0,-1,1616,316,0,0
399,708,0,0,0,0,0,0,0,0,0,-1,1623,316,0,0
406,708,0,0,0,0,0,0,0,0,0,-1,1630,316,0,0
413,708,0,0,0,0,0,0,0,0,0,-1,1637,316,0,0
420,708,0,0,0,0,0,0,0,0,0,-1,1644,316,0,0
427,708,0,0,0,0,0,0,0,0,0,-1,1651,316,0,0
434,708,0,0,0,0,0,0,0,0,0,-1,1658,316,0,0
441,708,0,0,0,0,0,0,0,0,0,-1,1665,316,0,0
448,708,0,0,0,0,0,0,0,0,0,-1,1672,316,0,0
455,708,0,0,0,0,0,0,0,0,0,-1,1679,316,0,0
462,708,0,0,0,0,0,0,0,0,0,-1,1686,316,0,0
469,708,0,0,0,0,0,0,0,0,0,-1,1693,316,0,0
476,708,0,0,0,0,0,0,0,0,0,-1,1700,316,0,0
483,708,0,0,0,0,0,0,0,0,0,-1,1707,316,0,0
490,708,0,0,0,0,0,0,0,0,0,-1,1714,316,0,0
497,708,0,0,0,0,0,0,0,0,0,-1,1721,316,0,0
504,708,0,0,0,0,0,0,0,0,0,-1,1728,316,0,0
511,708,0,0,0,0,0,0,0,0,0,-1,1735,316,0,0
518,708,0,0,0,0,0,0,0,0,0,-1,1742,316,0,0
525,708,0,0,0,0,0,0,0,0,0,-1,1749,316,0,0
532,708,0,0,0,0,0,0,0,0,0,-1,1756,316,0,0
539,708,0,0,0,0,0,0,0,0,0,-1,1763,316,0,0
546,708,0,0,0,0,0,0,0,0,0,-1,1770,316,0,0
553,708,0,0,0,0,0,0,0,0,0,-1,1777,316,0,0
560,708,0,0,0,0,0,0,0,0,0,-1,1784,316,0,0
567,708,0,0,0,0,0,0,0,0,0,-1,1791,316,0,0
574,708,0,0,0,0,0,0,0,0,0,-1,1798,316,0,0
581,708,0,0,0,0,0,0,0,0,0,-1,1805,316,0,0
588,708,0,0,0,0,0,0,0,0,0,-1,1812,316,0,0
595,708,0,0,0,0,0,0,0,0,0,-1,1819,316,0,0
602,708,0,0,0,0,0,0,0,0,0,-1,1826,316,0,0
609,708,0,0,0,0,0,0,0,0,0,-1,1833,316,0,0
616,708,0,0,0,0,0,0,0,0,0,-1,1840,316,0,0
623,708,0,0,0,0,0,0,0,0,0,-1,1847,316,0,0
630,708,0,0,0,0,0,0,0,0,0,-1,1854,316,0,0
637,708,0,0,0,0,0,0,0,0,0,-1,1861,316,0,0
644,708,0,0,0,0,0,0,0,0,0,-1,1868,316,0,0
651,708,0,0,0,0,0,0,0,0,0,-1,1875,316,0,0
658,708,0,0,0,0,0,0,0,0,0,-1,1882,316,0,0
665,708,0,0,0,0,0,0,0,0,0,-1,1889,316,0,0
672,708,0,0,0,0,0,0,0,0,0,-1,1896,316,0,0
679,708,0,0,0,0,0,0,0,0,0,-1,1903,316,0,0
686,708,0,0,0,0,0,0,0,0,0,-1,1910,316,0,0
693,708,0,0,0,0,0,0,0,0,0,-1,1917,316,0,0
700,708,0,0,0,0,0,0,0,0,0,-1,1924,316,0,0
707,708,0,0,0,0,0,0,0,0,0,-1,1931,316,0,0
714,708,0,0,0,0,0,0,0,0,0,-1,1938,316,0,0
721,708,0,0,0,0,0,0,0,0,0,-1,1945,316,0,0
728,708,0,0,0,0,0,0,0,0,0,-1,1952,316,0,0
735,708,0,0,0,0,0,0,0,0,0,-1,1959,316,0,0
742,708,0,0,0,0,0,0,0,0,0,-1,1966,316,0,0
749,708,0,0,0,0,0,0,0,0,0,-1,1973,316,0,0
756,708,0,0,0,0,0,0,0,0,0,-1,1980,316,0,0
763,708,0,0,0,0,0,0,0,0,0,-1,1987,316,0,0
770,708,0,0,0,0,0,0,0,0,0,-1,1994,316,0,0
777,708,0,0,0,0,0,0,0,0,0,-1,2001,316,0,0
784,708,0,0,0,0,0,0,0,0,0,-1,2008,316,0,0
791,708,0,0,0,0,0,0,0,0,0,-1,2015,316,0,0
798,708,0,0,0,0,0,0,0,0,0,-1,2022,316,0,0
805,708,0,0,0,0,0,0,0,0,0,-1,2029,316,0,0
812,708,0,0,0,0,0,0,0,0,0,-1,2036,316,0,0
-700,701,0,0,0,0,0,0,0,0,0,-1,524,323,0,0
-693,701,0,0,0,0,0,0,0,0,0,-1,531,323,0,0
-686,701,0,0,0,0,0,0,0,0,0,-1,538,323,0,0
-679,701,0,0,0,0,0,0,0,0,0,-1,545,323,0,0
-672,701,0,0,0,0,0,0,0,0,0,-1,552,323,0,0
-665,701,0,0,0,0,0,0,0,0,0,-1,559,323,0,0
-658,701,0,0,0,0,0,0,0,0,0,-1,566,323,0,0
-651,701,0,0,0,0,0,0,0,0,0,-1,573,323,0,0
-644,701,0,0,0,0,0,0,0,0,0,-1,580,323,0,0
-637,701,0,0,0,0,0,0,0,0,0,-1,587,323,0,0
-630,701,0,0,0,0,0,0,0,0,0,-1,594,323,0,0
-623,701,0,0,0,0,0,0,0,0,0,-1,601,323,0,0
-616,701,0,0,0,0,0,0,0,0,0,-1,608,323,0,0
-609,701,0,0,0,0,0,0,0,0,0,-1,615,323,0,0
-602,701,0,0,0,0,0,0,0,0,0,-1,622,323,0,0
-595,701,0,0,0,0,0,0,0,0,0,-1,629,323,0,0
-588,701,0,0,0,0,0,0,0,0,0,-1,636,323,0,0
-581,701,0,0,0,0,0,0,0,0,0,-1,643,323,0,0
-574,701,0,0,0,0,0,0,0,0,0,-1,650,323,0,0
-567,701,0,0,0,0,0,0,0,0,0,-1,657,323,0,0
-560,701,0,0,0,0,0,0,0,0,0,-1,664,323,0,0
-553,701,0,0,0,0,0,0,0,0,0,-1,671,323,0,0
-546,701,0,0,0,0,0,0,0,0,0,-1,678,323,0,0
-539,701,0,0,0,0,0,0,0,0,0,-1,685,323,0,0
-532,701,0,0,0,0,0,0,0,0,0,-1,692,323,0,0
-525,701,0,0,0,0,0,0,0,0,0,-1,699,323,0,0
-518,701,0,0,0,0,0,0,0,0,0,-1,706,323,0,0
-511,701,0,0,0,0,0,0,0,0,0,-1,713,323,0,0
-504,701,0,0,0,0,0,0,0,0,0,-1,720,323,0,0
-497,701,0,0,0,0,0,0,0,0,0,-1,727,323,0,0
-490,701,0,0,0,0,0,0,0,0,0,-1,734,323,0,0
-483,701,0,0,0,0,0,0,0,0,0,-1,741,323,0,0
-476,701,0,0,0,0,0,0,0,0,0,-1,748,323,0,0
-469,701,0,0,0,0,0,0,0,0,0,-1,755,323,0,0
-462,701,0,0,0,0,0,0,0,0,0,-1,762,323,0,0
-455,701,0,0,0,0,0,0,0,0,0,-1,769,323,0,0
-448,701,0,0,0,0,0,0,0,0,0,-1,776,323,0,0
-441,701,0,0,0,0,0,0,0,0,0,-1,783,323,0,0
-434,701,0,0,0,0,0,0,0,0,0,-1,790,323,0,0
-427,701,0,0,0,0,0,0,0,0,0,-1,797,323,0,0
-420,701,0,0,0,0,0,0,0,0,0,-1,804,323,0,0
-413,701,0,0,0,0,0,0,0,0,0,-1,811,323,0,0
-406,701,0,0,0,0,0,0,0,0,0,-1,818,323,0,0
-399,701,0,0,0,0,0,0,0,0,0,-1,825,323,0,0
-392,701,0,0,0,0,0,0,0,0,0,-1,832,323,0,0
-385,701,0,0,0,0,0,0,0,0,0,-1,839,323,0,0
-378,701,0,0,0,0,0,0,0,0,0,-1,846,323,0,0
-371,701,0,0,0,0,0,0,0,0,0,-1,853,323,0,0
-364,701,0,0,0,0,0,0,0,0,0,-1,860,323,0,0
-357,701,0,0,0,0,0,0,0,0,0,-1,867,323,0,0
-350,701,0,0,0,0,0,0,0,0,0,-1,874,323,0,0
-343,701,0,0,0,0,0,0,0,0,0,-1,881,323,0,0
-336,701,0,0,0,0,0,0,0,0,0,-1,888,323,0,0
-329,701,0,0,0,0,0,0,0,0,0,-1,895,323,0,0
-322,701,0,0,0,0,0,0,0,0,0,-1,902,323,0,0
-315,701,0,0,0,0,0,0,0,0,0,-1,909,323,0,0
-308,701,0,0,0,0,0,0,0,0,0,-1,916,323,0,0
-301,701,0,0,0,0,0,0,0,0,0,-1,923,323,0,0
-294,701,0,0,0,0,0,0,0,0,0,-1,930,323,0,0
-287,701,0,0,0,0,0,0,0,0,0,-1,937,323,0,0
-280,701,0,0,0,0,0,0,0,0,0,-1,944,323,0,0
-273,701,0,0,0,0,0,0,0,0,0,-1,951,323,0,0
-266,701,0,0,0,0,0,0,0,0,0,-1,958,323,0,0
-259,701,0,0,0,0,0,0,0,0,0,-1,965,323,0,0
-252,701,0,0,0,0,0,0,0,0,0,-1,972,323,0,0
-245,701,0,0,0,0,0,0,0,0,0,-1,979,323,0,0
-238,701,0,0,0,0,0,0,0,0,0,-1,986,323,0,0
-231,701,0,0,0,0,0,0,0,0,0,-1,993,323,0,0
-224,701,0,0,0,0,0,0,0,0,0,-1,1000,323,0,0
-217,701,0,0,0,0,0,0,0,0,0,-1,1007,323,0,0
-210,701,0,0,0,0,0,0,0,0,0,-1,1014,323,0,0
-203,701,0,0,0,0,0,0,0,0,0,-1,1021,323,0,0
-196,701,0,0,0,0,0,0,0,0,0,-1,1028,323,0,0
-189,701,0,0,0,0,0,0,0,0,0,-1,1035,323,0,0
-182,701,0,0,0,0,0,0,0,0,0,-1,1042,323,0,0
-175,701,0,0,0,0,0,0,0,0,0,-1,1049,323,0,0
-168,701,0,0,0,0,0,0,0,0,0,-1,1056,323,0,0
-161,701,0,0,0,0,0,0,0,0,0,-1,1063,323,0,0
-154,701,0,0,0,0,0,0,0,0,0,-1,1070,323,0,0
-147,701,0,0,0,0,0,0,0,0,0,-1,1077,323,0,0
-140,701,0,0,0,0,0,0,0,0,0,-1,1084,323,0,0
-133,701,0,0,0,0,0,0,0,0,0,-1,1091,323,0,0
-126,701,0,0,0,0,0,0,0,0,0,-1,1098,323,0,0
-119,701,0,0,0,0,0,0,0,0,0,-1,1105,323,0,0
-112,701,0,0,0,0,0,0,0,0,0,-1,1112,323,0,0
-105,701,0,0,0,0,0,0,0,0,0,-1,1119,323,0,0
-98,701,0,0,0,0,0,0,0,0,0,-1,1126,323,0,0
-91,701,0,0,0,0,0,0,0,0,0,-1,1133,323,0,0
-84,701,0,0,0,0,0,0,0,0,0,-1,1140,323,0,0
-77,701,0,0,0,0,0,0,0,0,0,-1,1147,323,0,0
-70,701,-12.7566,-30.413,0,0,0,0,0,0,0,-1,1154,323,-12.7566,30.413
-63,701,-18.3169,-21.2322,0,0,0,0,0,0,0,-1,1161,323,-18.3169,21.2322
-56,701,-0.420166,-0.101776,0,0,0,0,0,0,0,-1,1168,323,-0.420119,0.101777
-49,701,-1.09021,-0.155762,0,0,0,0,0,0,0,-1,1175,323,-1.09024,0.155768
-42,701,-0.210327,-0.299133,0,0,0,0,0,0,0,-1,1182,323,-0.210379,0.29914
-35,701,-2.9635,-7.98676,0,0,0,0,0,0,0,-1,1189,323,-2.9635,7.98676
-28,701,-6.64417,-5.4917,0,0,0,0,0,0,0,-1,1196,323,-6.64411,5.4917
-21,701,7.48828,-47.0165,0,0,0,0,0,0,0,-1,1203,323,7.48826,47.0165
-14,701,6.47754,-49.7307,0,0,0,0,0,0,0,-1,1210,323,6.47754,49.7307
-7,701,4.69641,-47.3388,0,0,0,0,0,0,0,-1,1217,323,4.69637,47.3388
0,701,5.34875,-47.9855,0.0463911,0.141173,-0.0400583,0.155835,0.031729,-1.21992,0.0950945,0.0494809,1224,323,5.34877,47.9855
7,701,5.9928,-48.6229,0.0391798,0.12847,-0.037827,0.14234,0.0253094,-1.21934,0.0876833,0.0433212,1231,323,5.99282,48.6229
14,701,6.58679,-49.3612,0.034662,0.112611,-0.0343844,0.12561,0.0216625,-1.20934,0.0775348,0.0469087,1238,323,6.58684,49.3612
21,701,5.5603,-50.2466,0,0,0,0,0,0,0,-1,1245,323,5.56025,50.2466
28,701,5.71667,-50.4792,0.0327691,0.0774301,-0.0246248,0.0883416,0.0218576,-1.15369,0.053129,0.0432923,1252,323,5.71662,50.4792
35,701,5.92578,-50.9485,0.0347099,0.0593195,-0.0191338,0.0697635,0.0242659,-1.07115,0.040895,0.0425956,1259,323,5.92576,50.9485
42,701,6.31042,-51.2071,0.0387485,0.0416659,-0.0137264,0.054011,0.0264035,-0.838335,0.0311858,0.0454841,1266,323,6.31043,51.2071
49,701,6.63232,-51.2278,0,0,0,0,0,0,0,-1,1273,323,6.63228,51.2278
56,701,7.64905,-52.1715,0.0355548,0.0266872,-0.00741513,0.0397606,0.0224814,-0.515945,0.0230212,0.0410437,1280,323,7.64902,52.1715
63,701,8.33569,-52.6361,0.028336,0.02679,-0.00600997,0.0336225,0.0215035,-0.721443,0.0196624,0.0426604,1287,323,8.33575,52.6361
70,701,9.02295,-53.2449,0.0193136,0.0314777,-0.00569582,0.0337283,0.0170629,-1.19449,0.0194735,0.0434302,1294,323,9.02297,53.2449
77,701,9.86145,-54.0581,0,0,0,0,0,0,0,-1,1301,323,9.86144,54.0581
84,701,10.7667,-54.9299,0,0,0,0,0,0,0,-1,1308,323,10.7668,54.9299
91,701,11.6852,-55.7219,0,0,0,0,0,0,0,-1,1315,323,11.6852,55.7219
98,701,5.02856,-50.1074,-0.0237666,0.0739307,-0.00972774,0.0748899,-0.0247258,-1.47251,0.0598946,0.0462924,1322,323,5.02854,50.1074
105,701,4.52124,-49.9914,-0.0374153,0.0876518,-0.0109331,0.0886004,-0.0383638,-1.48425,0.0751912,0.0467293,1329,323,4.52128,49.9914
112,701,3.90283,-49.6465,-0.0516675,0.101942,-0.0117654,0.102837,-0.0525634,-1.49479,0.0912723,0.0447367,1336,323,3.90277,49.6465
119,701,3.22839,-49.6064,-0.0619916,0.113911,-0.0122451,0.114759,-0.0628399,-1.50163,0.103987,0.0450343,1343,323,3.22836,49.6065
126,701,4.8877,-48.9078,0,0,0,0,0,0,0,-1,1350,323,4.88765,48.9078
133,701,5.08228,-48.3438,0,0,0,0,0,0,0,-1,1357,323,5.08234,48.3437
140,701,4.8147,-47.8304,0,0,0,0,0,0,0,-1,1364,323,4.81473,47.8304
147,701,4.62097,-47.1359,0,0,0,0,0,0,0,-1,1371,323,4.62102,47.1359
154,701,4.35193,-46.6961,0,0,0,0,0,0,0,-1,1378,323,4.35194,46.6961
161,701,-0.704102,-37.5125,0,0,0,0,0,0,0,-1,1385,323,-0.704147,37.5126
168,701,30.7272,1.76184,0,0,0,0,0,0,0,-1,1392,323,30.7272,-1.76184
175,701,31.5035,2.25711,0,0,0,0,0,0,0,-1,1399,323,31.5036,-2.25712
182,701,8.80652,5.42807,0,0,0,0,0,0,0,-1,1406,323,8.8065,-5.42808
189,701,8.58081,4.24493,0,0,0,0,0,0,0,-1,1413,323,8.58082,-4.24494
196,701,0,0,0,0,0,0,0,0,0,-1,1420,323,0,0
203,701,0,0,0,0,0,0,0,0,0,-1,1427,323,0,0
210,701,0,0,0,0,0,0,0,0,0,-1,1434,323,0,0
217,701,0,0,0,0,0,0,0,0,0,-1,1441,323,0,0
224,701,0,0,0,0,0,0,0,0,0,-1,1448,323,0,0
231,701,0,0,0,0,0,0,0,0,0,-1,1455,323,0,0
238,701,0,0,0,0,0,0,0,0,0,-1,1462,323,0,0
245,701,0,0,0,0,0,0,0,0,0,-1,1469,323,0,0
252,701,0,0,0,0,0,0,0,0,0,-1,1476,323,0,0
259,701,0,0,0,0,0,0,0,0,0,-1,1483,323,0,0
266,701,0,0,0,0,0,0,0,0,0,-1,1490,323,0,0
273,701,0,0,0,0,0,0,0,0,0,-1,1497,323,0,0
280,701,0,0,0,0,0,0,0,0,0,-1,1504,323,0,0
287,701,0,0,0,0,0,0,0,0,0,-1,1511,323,0,0
294,701,0,0,0,0,0,0,0,0,0,-1,1518,323,0,0
301,701,0,0,0,0,0,0,0,0,0,-1,1525,323,0,0
308,701,0,0,0,0,0,0,0,0,0,-1,1532,323,0,0
315,701,0,0,0,0,0,0,0,0,0,-1,1539,323,0,0
322,701,0,0,0,0,0,0,0,0,0,-1,1546,323,0,0
329,701,0,0,0,0,0,0,0,0,0,-1,1553,323,0,0
336,701,0,0,0,0,0,0,0,0,0,-1,1560,323,0,0
343,701,0,0,0,0,0,0,0,0,0,-1,1567,323,0,0
350,701,0,0,0,0,0,0,0,0,0,-1,1574,323,0,0
357,701,0,0,0,0,0,0,0,0,0,-1,1581,323,0,0
364,701,0,0,0,0,0,0,0,0,0,-1,1588,323,0,0
371,701,0,0,0,0,0,0,0,0,0,-1,1595,323,0,0
378,701,0,0,0,0,0,0,0,0,0,-1,1602,323,0,0
385,701,0,0,0,0,0,0,0,0,0,-1,1609,323,0,0
392,701,0,0,0,0,0,0,0,0,0,-1,1616,323,0,0
399,701,0,0,0,0,0,0,0,0,0,-1,1623,323,0,0
406,701,0,0,0,0,0,0,0,0,0,-1,1630,323,0,0
413,701,0,0,0,0,0,0,0,0,0,-1,1637,323,0,0
420,701,0,0,0,0,0,0,0,0,0,-1,1644,323,0,0
427,701,0,0,0,0,0,0,0,0,0,-1,1651,323,0,0
434,701,0,0,0,0,0,0,0,0,0,-1,1658,323,0,0
441,701,0,0,0,0,0,0,0,0,0,-1,1665,323,0,0
448,701,0,0,0,0,0,0,0,0,0,-1,1672,323,0,0
455,701,0,0,0,0,0,0,0,0,0,-1,1679,323,0,0
462,701,0,0,0,0,0,0,0,0,0,-1,1686,323,0,0
469,701,0,0,0,0,0,0,0,0,0,-1,1693,323,0,0
476,701,0,0,0,0,0,0,0,0,0,-1,1700,323,0,0
483,701,0,0,0,0,0,0,0,0,0,-1,1707,323,0,0
490,701,0,0,0,0,0,0,0,0,0,-1,1714,323,0,0
497,701,0,0,0,0,0,0,0,0,0,-1,1721,323,0,0
504,701,0,0,0,0,0,0,0,0,0,-1,1728,323,0,0
511,701,0,0,0,0,0,0,0,0,0,-1,1735,323,0,0
518,701,0,0,0,0,0,0,0,0,0,-1,1742,323,0,0
525,701,0,0,0,0,0,0,0,0,0,-1,1749,323,0,0
532,701,0,0,0,0,0,0,0,0,0,-1,1756,323,0,0
539,701,0,0,0,0,0,0,0,0,0,-1,1763,323,0,0
546,701,0,0,0,0,0,0,0,0,0,-1,1770,323,0,0
553,701,0,0,0,0,0,0,0,0,0,-1,1777,323,0,0
560,701,0,0,0,0,0,0,0,0,0,-1,1784,323,0,0
567,701,0,0,0,0,0,0,0,0,0,-1,1791,323,0,0
574,701,0,0,0,0,0,0,0,0,0,-1,1798,323,0,0
581,701,0,0,0,0,0,0,0,0,0,-1,1805,323,0,0
588,701,0,0,0,0,0,0,0,0,0,-1,1812,323,0,0
595,701,0,0,0,0,0,0,0,0,0,-1,1819,323,0,0
602,701,0,0,0,0,0,0,0,0,0,-1,1826,323,0,0
609,701,0,0,0,0,0,0,0,0,0,-1,1833,323,0,0
616,701,0,0,0,0,0,0,0,0,0,-1,1840,323,0,0
623,701,0,0,0,0,0,0,0,0,0,-1,1847,323,0,0
630,701,0,0,0,0,0,0,0,0,0,-1,1854,323,0,0
637,701,0,0,0,0,0,0,0,0,0,-1,1861,323,0,0
644,701,0,0,0,0,0,0,0,0,0,-1,1868,323,0,0
651,701,0,0,0,0,0,0,0,0,0,-1,1875,323,0,0
658,701,0,0,0,0,0,0,0,0,0,-1,1882,323,0,0
665,701,0,0,0,0,0,0,0,0,0,-1,1889,323,0,0
672,701,0,0,0,0,0,0,0,0,0,-1,1896,323,0,0
679,701,0,0,0,0,0,0,0,0,0,-1,1903,323,0,0
686,701,0,0,0,0,0,0,0,0,0,-1,1910,323,0,0
693,701,0,0,0,0,0,0,0,0,0,-1,1917,323,0,0
700,701,0,0,0,0,0,0,0,0,0,-1,1924,323,0,0
707,701,0,0,0,0,0,0,0,0,0,-1,1931,323,0,0
714,701,0,0,0,0,0,0,0,0,0,-1,1938,323,0,0
721,701,0,0,0,0,0,0,0,0,0,-1,1945,323,0,0
728,701,0,0,0,0,0,0,0,0,0,-1,1952,323,0,0
735,701,0,0,0,0,0,0,0,0,0,-1,1959,323,0,0
742,701,0,0,0,0,0,0,0,0,0,-1,1966,323,0,0
749,701,0,0,0,0,0,0,0,0,0,-1,1973,323,0,0
756,701,0,0,0,0,0,0,0,0,0,-1,1980,323,0,0
763,701,0,0,0,0,0,0,0,0,0,-1,1987,323,0,0
770,701,0,0,0,0,0,0,0,0,0,-1,1994,323,0,0
777,701,0,0,0,0,0,0,0,0,0,-1,2001,323,0,0
784,701,0,0,0,0,0,0,0,0,0,-1,2008,323,0,0
791,701,0,0,0,0,0,0,0,0,0,-1,2015,323,0,0
798,701,0,0,0,0,0,0,0,0,0,-1,2022,323,0,0
805,701,0,0,0,0,0,0,0,0,0,-1,2029,323,0,0
812,701,0,0,0,0,0,0,0,0,0,-1,2036,323,0,0
-700,694,0,0,0,0,0,0,0,0,0,-1,524,330,0,0
-693,694,0,0,0,0,0,0,0,0,0,-1,531,330,0,0
-686,694,0,0,0,0,0,0,0,0,0,-1,538,330,0,0
-679,694,0,0,0,0,0,0,0,0,0,-1,545,330,0,0
-672,694,0,0,0,0,0,0,0,0,0,-1,552,330,0,0
-665,694,0,0,0,0,0,0,0,0,0,-1,559,330,0,0
-658,694,0,0,0,0,0,0,0,0,0,-1,566,330,0,0
-651,694,0,0,0,0,0,0,0,0,0,-1,573,330,0,0
-644,694,0,0,0,0,0,0,0,0,0,-1,580,330,0,0
-637,694,0,0,0,0,0,0,0,0,0,-1,587,330,0,0
-630,694,0,0,0,0,0,0,0,0,0,-1,594,330,0,0
-623,694,0,0,0,0,0,0,0,0,0,-1,601,330,0,0
-616,694,0,0,0,0,0,0,0,0,0,-1,608,330,0,0
-609,694,0,0,0,0,0,0,0,0,0,-1,615,330,0,0
-602,694,0,0,0,0,0,0,0,0,0,-1,622,330,0,0
-595,694,0,0,0,0,0,0,0,0,0,-1,629,330,0,0
-588,694,0,0,0,0,0,0,0,0,0,-1,636,330,0,0
-581,694,0,0,0,0,0,0,0,0,0,-1,643,330,0,0
-574,694,0,0,0,0,0,0,0,0,0,-1,650,330,0,0
-567,694,0,0,0,0,0,0,0,0,0,-1,657,330,0,0
-560,694,0,0,0,0,0,0,0,0,0,-1,664,330,0,0
-553,694,0,0,0,0,0,0,0,0,0,-1,671,330,0,0
-546,694,0,0,0,0,0,0,0,0,0,-1,678,330,0,0
-539,694,0,0,0,0,0,0,0,0,0,-1,685,330,0,0
-532,694,0,0,0,0,0,0,0,0,0,-1,692,330,0,0
-525,694,0,0,0,0,0,0,0,0,0,-1,699,330,0,0
-518,694,0,0,0,0,0,0,0,0,0,-1,706,330,0,0
-511,694,0,0,0,0,0,0,0,0,0,-1,713,330,0,0
-504,694,0,0,0,0,0,0,0,0,0,-1,720,330,0,0
-497,694,0,0,0,0,0,0,0,0,0,-1,727,330,0,0
-490,694,0,0,0,0,0,0,0,0,0,-1,734,330,0,0
-483,694,0,0,0,0,0,0,0,0,0,-1,741,330,0,0
-476,694,0,0,0,0,0,0,0,0,0,-1,748,330,0,0
-469,694,0,0,0,0,0,0,0,0,0,-1,755,330,0,0
-462,694,0,0,0,0,0,0,0,0,0,-1,762,330,0,0
-455,694,0,0,0,0,0,0,0,0,0,-1,769,330,0,0
-448,694,0,0,0,0,0,0,0,0,0,-1,776,330,0,0
-441,694,0,0,0,0,0,0,0,0,0,-1,783,330,0,0
-434,694,0,0,0,0,0,0,0,0,0,-1,790,330,0,0
-427,694,0,0,0,0,0,0,0,0,0,-1,797,330,0,0
-420,694,0,0,0,0,0,0,0,0,0,-1,804,330,0,0
-413,694,0,0,0,0,0,0,0,0,0,-1,811,330,0,0
-406,694,0,0,0,0,0,0,0,0,0,-1,818,330,0,0
-399,694,0,0,0,0,0,0,0,0,0,-1,825,330,0,0
-392,694,0,0,0,0,0,0,0,0,0,-1,832,330,0,0
-385,694,0,0,0,0,0,0,0,0,0,-1,839,330,0,0
-378,694,0,0,0,0,0,0,0,0,0,-1,846,330,0,0
-371,694,0,0,0,0,0,0,0,0,0,-1,853,330,0,0
-364,694,0,0,0,0,0,0,0,0,0,-1,860,330,0,0
-357,694,0,0,0,0,0,0,0,0,0,-1,867,330,0,0
-350,694,0,0,0,0,0,0,0,0,0,-1,874,330,0,0
-343,694,0,0,0,0,0,0,0,0,0,-1,881,330,0,0
-336,694,0,0,0,0,0,0,0,0,0,-1,888,330,0,0
-329,694,0,0,0,0,0,0,0,0,0,-1,895,330,0,0
-322,694,0,0,0,0,0,0,0,0,0,-1,902,330,0,0
-315,694,0,0,0,0,0,0,0,0,0,-1,909,330,0,0
-308,694,0,0,0,0,0,0,0,0,0,-1,916,330,0,0
-301,694,0,0,0,0,0,0,0,0,0,-1,923,330,0,0
-294,694,0,0,0,0,0,0,0,0,0,-1,930,330,0,0
-287,694,0,0,0,0,0,0,0,0,0,-1,937,330,0,0
-280,694,0,0,0,0,0,0,0,0,0,-1,944,330,0,0
-273,694,0,0,0,0,0,0,0,0,0,-1,951,330,0,0
-266,694,0,0,0,0,0,0,0,0,0,-1,958,330,0,0
-259,694,0,0,0,0,0,0,0,0,0,-1,965,330,0,0
-252,694,0,0,0,0,0,0,0,0,0,-1,972,330,0,0
-245,694,0,0,0,0,0,0,0,0,0,-1,979,330,0,0
-238,694,0,0,0,0,0,0,0,0,0,-1,986,330,0,0
-231,694,0,0,0,0,0,0,0,0,0,-1,993,330,0,0
-224,694,0,0,0,0,0,0,0,0,0,-1,1000,330,0,0
-217,694,0,0,0,0,0,0,0,0,0,-1,1007,330,0,0
-210,694,0,0,0,0,0,0,0,0,0,-1,1014,330,0,0
-203,694,0,0,0,0,0,0,0,0,0,-1,1021,330,0,0
-196,694,0,0,0,0,0,0,0,0,0,-1,1028,330,0,0
-189,694,0,0,0,0,0,0,0,0,0,-1,1035,330,0,0
-182,694,0,0,0,0,0,0,0,0,0,-1,1042,330,0,0
-175,694,0,0,0,0,0,0,0,0,0,-1,1049,330,0,0
-168,694,0,0,0,0,0,0,0,0,0,-1,1056,330,0,0
-161,694,0,0,0,0,0,0,0,0,0,-1,1063,330,0,0
-154,694,0,0,0,0,0,0,0,0,0,-1,1070,330,0,0
-147,694,0,0,0,0,0,0,0,0,0,-1,1077,330,0,0
-140,694,0,0,0,0,0,0,0,0,0,-1,1084,330,0,0
-133,694,0,0,0,0,0,0,0,0,0,-1,1091,330,0,0
-126,694,0,0,0,0,0,0,0,0,0,-1,1098,330,0,0
-119,694,0,0,0,0,0,0,0,0,0,-1,1105,330,0,0
-112,694,0,0,0,0,0,0,0,0,0,-1,1112,330,0,0
-105,694,2.5188,-19.3963,0,0,0,0,0,0,0,-1,1119,330,2.51882,19.3963
-98,694,1.34875,-10.1051,0,0,0,0,0,0,0,-1,1126,330,1.34874,10.1051
-91,694,6.62366,-46.8039,0,0,0,0,0,0,0,-1,1133,330,6.62363,46.8039
-84,694,0.0577393,-40.8823,0,0,0,0,0,0,0,-1,1140,330,0.0577026,40.8823
-77,694,-5.51379,-31.2714,0,0,0,0,0,0,0,-1,1147,330,-5.51383,31.2714
-70,694,-11.9945,-25.5143,0,0,0,0,0,0,0,-1,1154,330,-11.9945,25.5143
-63,694,-18.4752,-19.7572,0,0,0,0,0,0,0,-1,1161,330,-18.4752,19.7572
-56,694,-6.50623,-0.649139,0,0,0,0,0,0,0,-1,1168,330,-6.5062,0.649126
-49,694,-1.11426,0.0341797,0,0,0,0,0,0,0,-1,1175,330,-1.11424,-0.0341846
-42,694,-0.346313,-0.709595,0,0,0,0,0,0,0,-1,1182,330,-0.346298,0.709581
-35,694,-0.459106,-1.24713,0,0,0,0,0,0,0,-1,1189,330,-0.459142,1.24714
-28,694,-6.48413,-3.95972,0,0,0,0,0,0,0,-1,1196,330,-6.48414,3.9597
-21,694,6.61938,-46.884,0,0,0,0,0,0,0,-1,1203,330,6.61943,46.884
-14,694,6.43579,-49.4582,0,0,0,0,0,0,0,-1,1210,330,6.43585,49.4582
-7,694,4.02563,-49.0645,0,0,0,0,0,0,0,-1,1217,330,4.02564,49.0645
0,694,5.03101,-49.3901,0.0301749,0.115981,-0.0338516,0.127728,0.0184281,-1.23679,0.0797223,0.0476643,1224,330,5.03104,49.3901
7,694,5.94141,-49.8099,0.0262046,0.106683,-0.032316,0.118053,0.0148345,-1.23248,0.0742529,0.0466577,1231,330,5.94136,49.8099
14,694,5.72949,-50.5171,0,0,0,0,0,0,0,-1,1238,330,5.7295,50.5171
21,694,5.85547,-50.7462,0.0233356,0.0816457,-0.0258095,0.0914284,0.0135529,-1.20849,0.0569745,0.0459928,1245,330,5.85551,50.7462
28,694,5.95752,-51.007,0.0237013,0.0680567,-0.021502,0.0767689,0.0149891,-1.18583,0.0469867,0.0421649,1252,330,5.95751,51.007
35,694,6.0072,-51.2406,0.0254393,0.0545809,-0.0169513,0.0623631,0.0176572,-1.14041,0.0371171,0.0422011,1259,330,6.00721,51.2406
42,694,6.59448,-51.4347,0.0286797,0.0413734,-0.0123607,0.0489215,0.0211316,-1.02258,0.0283319,0.0442398,1266,330,6.59454,51.4347
49,694,6.92236,-51.6191,0.0293177,0.0330369,-0.00837364,0.0397549,0.0225996,-0.894665,0.0230242,0.0431257,1273,330,6.92231,51.6191
56,694,7.28796,-52.0143,0.0255732,0.0295938,-0.00618172,0.0340839,0.0210831,-0.942605,0.0198619,0.0412007,1280,330,7.288,52.0143
63,694,7.80774,-52.2234,0.0197676,0.0294572,-0.00450755,0.0312298,0.017995,-1.19612,0.0181002,0.0430481,1287,330,7.80777,52.2234
70,694,8.26563,-52.4125,0.0124929,0.0333171,-0.00377282,0.0339795,0.0118304,-1.39698,0.0199173,0.0454062,1294,330,8.26562,52.4125
77,694,8.76221,-52.6182,0,0,0,0,0,0,0,-1,1301,330,8.76215,52.6182
84,694,10.968,-55.0496,0,0,0,0,0,0,0,-1,1308,330,10.968,55.0496
91,694,11.9408,-55.8802,0,0,0,0,0,0,0,-1,1315,330,11.9409,55.8802
98,694,5.05396,-50.7575,-0.0225227,0.0677988,-0.00629575,0.0682355,-0.0229595,-1.50154,0.0547717,0.0434085,1322,330,5.05391,50.7575
105,694,4.78247,-50.8201,-0.0325313,0.0785795,-0.00715627,0.0790385,-0.0329903,-1.50674,0.0664763,0.0437961,1329,330,4.78242,50.8201
112,694,4.47791,-50.8299,-0.0434089,0.0902322,-0.00779976,0.0906859,-0.0438626,-1.5127,0.0792341,0.0426156,1336,330,4.47785,50.8299
119,694,5.35815,-49.613,0,0,0,0,0,0,0,-1,1343,330,5.35817,49.613
126,694,5.09509,-49.4967,-0.0555339,0.107338,-0.00797516,0.107727,-0.0559235,-1.52199,0.0960487,0.0493507,1350,330,5.09504,49.4967
133,694,4.79529,-49.1096,-0.0536616,0.109394,-0.00561647,0.109587,-0.0538549,-1.53641,0.0961747,0.0487598,1357,330,4.79534,49.1096
140,694,4.45313,-48.7116,0,0,0,0,0,0,0,-1,1364,330,4.45307,48.7116
147,694,4.13831,-48.317,0,0,0,0,0,0,0,-1,1371,330,4.13836,48.317
154,694,3.90356,-47.8369,0,0,0,0,0,0,0,-1,1378,330,3.90356,47.8369
161,694,0.0187988,-38.6779,0,0,0,0,0,0,0,-1,1385,330,0.0187579,38.6779
168,694,30.451,0.196686,0,0,0,0,0,0,0,-1,1392,330,30.4511,-0.196674
175,694,31.0701,0.869873,0,0,0,0,0,0,0,-1,1399,330,31.07,-0.869874
182,694,8.29028,5.75238,0,0,0,0,0,0,0,-1,1406,330,8.29034,-5.75237
189,694,7.9801,4.46118,0,0,0,0,0,0,0,-1,1413,330,7.9801,-4.46118
196,694,7.39331,3.32632,0,0,0,0,0,0,0,-1,1420,330,7.39329,-3.32633
203,694,7.04492,2.20529,0,0,0,0,0,0,0,-1,1427,330,7.04496,-2.20529
210,694,6.44714,0.646912,0,0,0,0,0,0,0,-1,1434,330,6.44717,-0.646903
217,694,7.12061,-0.644958,0,0,0,0,0,0,0,-1,1441,330,7.12059,0.644961
224,694,6.74011,-1.70544,0,0,0,0,0,0,0,-1,1448,330,6.74013,1.70546
231,694,0,0,0,0,0,0,0,0,0,-1,1455,330,0,0
238,694,0,0,0,0,0,0,0,0,0,-1,1462,330,0,0
245,694,0,0,0,0,0,0,0,0,0,-1,1469,330,0,0
252,694,0,0,0,0,0,0,0,0,0,-1,1476,330,0,0
259,694,0,0,0,0,0,0,0,0,0,-1,1483,330,0,0
266,694,0,0,0,0,0,0,0,0,0,-1,1490,330,0,0
273,694,0,0,0,0,0,0,0,0,0,-1,1497,330,0,0
280,694,0,0,0,0,0,0,0,0,0,-1,1504,330,0,0
287,694,0,0,0,0,0,0,0,0,0,-1,1511,330,0,0
294,694,0,0,0,0,0,0,0,0,0,-1,1518,330,0,0
301,694,0,0,0,0,0,0,0,0,0,-1,1525,330,0,0
308,694,0,0,0,0,0,0,0,0,0,-1,1532,330,0,0
315,694,0,0,0,0,0,0,0,0,0,-1,1539,330,0,0
322,694,0,0,0,0,0,0,0,0,0,-1,1546,330,0,0
329,694,0,0,0,0,0,0,0,0,0,-1,1553,330,0,0
336,694,0,0,0,0,0,0,0,0,0,-1,1560,330,0,0
343,694,0,0,0,0,0,0,0,0,0,-1,1567,330,0,0
350,694,0,0,0,0,0,0,0,0,0,-1,1574,330,0,0
357,694,0,0,0,0,0,0,0,0,0,-1,1581,330,0,0
364,694,0,0,0,0,0,0,0,0,0,-1,1588,330,0,0
371,694,0,0,0,0,0,0,0,0,0,-1,1595,330,0,0
378,694,0,0,0,0,0,0,0,0,0,-1,1602,330,0,0
385,694,0,0,0,0,0,0,0,0,0,-1,1609,330,0,0
392,694,0,0,0,0,0,0,0,0,0,-1,1616,330,0,0
399,694,0,0,0,0,0,0,0,0,0,-1,1623,330,0,0
406,694,0,0,0,0,0,0,0,0,0,-1,1630,330,0,0
413,694,0,0,0,0,0,0,0,0,0,-1,1637,330,0,0
420,694,0,0,0,0,0,0,0,0,0,-1,1644,330,0,0
427,694,0,0,0,0,0,0,0,0,0,-1,1651,330,0,0
434,694,0,0,0,0,0,0,0,0,0,-1,1658,330,0,0
441,694,0,0,0,0,0,0,0,0,0,-1,1665,330,0,0
448,694,0,0,0,0,0,0,0,0,0,-1,1672,330,0,0
455,694,0,0,0,0,0,0,0,0,0,-1,1679,330,0,0
462,694,0,0,0,0,0,0,0,0,0,-1,1686,330,0,0
469,694,0,0,0,0,0,0,0,0,0,-1,1693,330,0,0
476,694,0,0,0,0,0,0,0,0,0,-1,1700,330,0,0
483,694,0,0,0,0,0,0,0,0,0,-1,1707,330,0,0
490,694,0,0,0,0,0,0,0,0,0,-1,1714,330,0,0
497,694,0,0,0,0,0,0,0,0,0,-1,1721,330,0,0
504,694,0,0,0,0,0,0,0,0,0,-1,1728,330,0,0
511,694,0,0,0,0,0,0,0,0,0,-1,1735,330,0,0
518,694,0,0,0,0,0,0,0,0,0,-1,1742,330,0,0
525,694,0,0,0,0,0,0,0,0,0,-1,1749,330,0,0
532,694,0,0,0,0,0,0,0,0,0,-1,1756,330,0,0
539,694,0,0,0,0,0,0,0,0,0,-1,1763,330,0,0
546,694,0,0,0,0,0,0,0,0,0,-1,1770,330,0,0
553,694,0,0,0,0,0,0,0,0,0,-1,1777,330,0,0
560,694,0,0,0,0,0,0,0,0,0,-1,1784,330,0,0
567,694,0,0,0,0,0,0,0,0,0,-1,1791,330,0,0
574,694,0,0,0,0,0,0,0,0,0,-1,1798,330,0,0
581,694,0,0,0,0,0,0,0,0,0,-1,1805,330,0,0
588,694,0,0,0,0,0,0,0,0,0,-1,1812,330,0,0
595,694,0,0,0,0,0,0,0,0,0,-1,1819,330,0,0
602,694,0,0,0,0,0,0,0,0,0,-1,1826,330,0,0
609,694,0,0,0,0,0,0,0,0,0,-1,1833,330,0,0
616,694,0,0,0,0,0,0,0,0,0,-1,1840,330,0,0
623,694,0,0,0,0,0,0,0,0,0,-1,1847,330,0,0
630,694,0,0,0,0,0,0,0,0,0,-1,1854,330,0,0
637,694,0,0,0,0,0,0,0,0,0,-1,1861,330,0,0
644,694,0,0,0,0,0,0,0,0,0,-1,1868,330,0,0
651,694,0,0,0,0,0,0,0,0,0,-1,1875,330,0,0
658,694,0,0,0,0,0,0,0,0,0,-1,1882,330,0,0
665,694,0,0,0,0,0,0,0,0,0,-1,1889,330,0,0
672,694,0,0,0,0,0,0,0,0,0,-1,1896,330,0,0
679,694,0,0,0,0,0,0,0,0,0,-1,1903,330,0,0
686,694,0,0,0,0,0,0,0,0,0,-1,1910,330,0,0
693,694,0,0,0,0,0,0,0,0,0,-1,1917,330,0,0
700,694,0,0,0,0,0,0,0,0,0,-1,1924,330,0,0
707,694,0,0,0,0,0,0,0,0,0,-1,1931,330,0,0
714,694,0,0,0,0,0,0,0,0,0,-1,1938,330,0,0
721,694,0,0,0,0,0,0,0,0,0,-1,1945,330,0,0
728,694,0,0,0,0,0,0,0,0,0,-1,1952,330,0,0
735,694,0,0,0,0,0,0,0,0,0,-1,1959,330,0,0
742,694,0,0,0,0,0,0,0,0,0,-1,1966,330,0,0
749,694,0,0,0,0,0,0,0,0,0,-1,1973,330,0,0
756,694,0,0,0,0,0,0,0,0,0,-1,1980,330,0,0
763,694,0,0,0,0,0,0,0,0,0,-1,1987,330,0,0
770,694,0,0,0,0,0,0,0,0,0,-1,1994,330,0,0
777,694,0,0,0,0,0,0,0,0,0,-1,2001,330,0,0
784,694,0,0,0,0,0,0,0,0,0,-1,2008,330,0,0
791,694,0,0,0,0,0,0,0,0,0,-1,2015,330,0,0
798,694,0,0,0,0,0,0,0,0,0,-1,2022,330,0,0
805,694,0,0,0,0,0,0,0,0,0,-1,2029,330,0,0
812,694,0,0,0,0,0,0,0,0,0,-1,2036,330,0,0
-700,687,0,0,0,0,0,0,0,0,0,-1,524,337,0,0
-693,687,0,0,0,0,0,0,0,0,0,-1,531,337,0,0
-686,687,0,0,0,0,0,0,0,0,0,-1,538,337,0,0
-679,687,0,0,0,0,0,0,0,0,0,-1,545,337,0,0
-672,687,0,0,0,0,0,0,0,0,0,-1,552,337,0,0
-665,687,0,0,0,0,0,0,0,0,0,-1,559,337,0,0
-658,687,0,0,0,0,0,0,0,0,0,-1,566,337,0,0
-651,687,0,0,0,0,0,0,0,0,0,-1,573,337,0,0
-644,687,0,0,0,0,0,0,0,0,0,-1,580,337,0,0
-637,687,0,0,0,0,0,0,0,0,0,-1,587,337,0,0
-630,687,0,0,0,0,0,0,0,0,0,-1,594,337,0,0
-623,687,0,0,0,0,0,0,0,0,0,-1,601,337,0,0
-616,687,0,0,0,0,0,0,0,0,0,-1,608,337,0,0
-609,687,0,0,0,0,0,0,0,0,0,-1,615,337,0,0
-602,687,0,0,0,0,0,0,0,0,0,-1,622,337,0,0
-595,687,0,0,0,0,0,0,0,0,0,-1,629,337,0,0
-588,687,0,0,0,0,0,0,0,0,0,-1,636,337,0,0
-581,687,0,0,0,0,0,0,0,0,0,-1,643,337,0,0
-574,687,0,0,0,0,0,0,0,0,0,-1,650,337,0,0
-567,687,0,0,0,0,0,0,0,0,0,-1,657,337,0,0
-560,687,0,0,0,0,0,0,0,0,0,-1,664,337,0,0
-553,687,0,0,0,0,0,0,0,0,0,-1,671,337,0,0
-546,687,0,0,0,0,0,0,0,0,0,-1,678,337,0,0
-539,687,0,0,0,0,0,0,0,0,0,-1,685,337,0,0
-532,687,0,0,0,0,0,0,0,0,0,-1,692,337,0,0
-525,687,0,0,0,0,0,0,0,0,0,-1,699,337,0,0
-518,687,0,0,0,0,0,0,0,0,0,-1,706,337,0,0
-511,687,0,0,0,0,0,0,0,0,0,-1,713,337,0,0
-504,687,0,0,0,0,0,0,0,0,0,-1,720,337,0,0
-497,687,0,0,0,0,0,0,0,0,0,-1,727,337,0,0
-490,687,0,0,0,0,0,0,0,0,0,-1,734,337,0,0
-483,687,0,0,0,0,0,0,0,0,0,-1,741,337,0,0
-476,687,0,0,0,0,0,0,0,0,0,-1,748,337,0,0
-469,687,0,0,0,0,0,0,0,0,0,-1,755,337,0,0
-462,687,0,0,0,0,0,0,0,0,0,-1,762,337,0,0
-455,687,0,0,0,0,0,0,0,0,0,-1,769,337,0,0
-448,687,0,0,0,0,0,0,0,0,0,-1,776,337,0,0
-441,687,0,0,0,0,0,0,0,0,0,-1,783,337,0,0
-434,687,0,0,0,0,0,0,0,0,0,-1,790,337,0,0
-427,687,0,0,0,0,0,0,0,0,0,-1,797,337,0,0
-420,687,0,0,0,0,0,0,0,0,0,-1,804,337,0,0
-413,687,0,0,0,0,0,0,0,0,0,-1,811,337,0,0
-406,687,0,0,0,0,0,0,0,0,0,-1,818,337,0,0
-399,687,0,0,0,0,0,0,0,0,0,-1,825,337,0,0
-392,687,0,0,0,0,0,0,0,0,0,-1,832,337,0,0
-385,687,0,0,0,0,0,0,0,0,0,-1,839,337,0,0
-378,687,0,0,0,0,0,0,0,0,0,-1,846,337,0,0
-371,687,0,0,0,0,0,0,0,0,0,-1,853,337,0,0
-364,687,0,0,0,0,0,0,0,0,0,-1,860,337,0,0
-357,687,0,0,0,0,0,0,0,0,0,-1,867,337,0,0
-350,687,0,0,0,0,0,0,0,0,0,-1,874,337,0,0
-343,687,0,0,0,0,0,0,0,0,0,-1,881,337,0,0
-336,687,0,0,0,0,0,0,0,0,0,-1,888,337,0,0
-329,687,0,0,0,0,0,0,0,0,0,-1,895,337,0,0
-322,687,0,0,0,0,0,0,0,0,0,-1,902,337,0,0
-315,687,0,0,0,0,0,0,0,0,0,-1,909,337,0,0
-308,687,0,0,0,0,0,0,0,0,0,-1,916,337,0,0
-301,687,0,0,0,0,0,0,0,0,0,-1,923,337,0,0
-294,687,0,0,0,0,0,0,0,0,0,-1,930,337,0,0
-287,687,0,0,0,0,0,0,0,0,0,-1,937,337,0,0
-280,687,0,0,0,0,0,0,0,0,0,-1,944,337,0,0
-273,687,0,0,0,0,0,0,0,0,0,-1,951,337,0,0
-266,687,0,0,0,0,0,0,0,0,0,-1,958,337,0,0
-259,687,0,0,0,0,0,0,0,0,0,-1,965,337,0,0
-252,687,0,0,0,0,0,0,0,0,0,-1,972,337,0,0
-245,687,0,0,0,0,0,0,0,0,0,-1,979,337,0,0
-238,687,0,0,0,0,0,0,0,0,0,-1,986,337,0,0
-231,687,0,0,0,0,0,0,0,0,0,-1,993,337,0,0
-224,687,0,0,0,0,0,0,0,0,0,-1,1000,337,0,0
-217,687,0,0,0,0,0,0,0,0,0,-1,1007,337,0,0
-210,687,0,0,0,0,0,0,0,0,0,-1,1014,337,0,0
-203,687,0,0,0,0,0,0,0,0,0,-1,1021,337,0,0
-196,687,0,0,0,0,0,0,0,0,0,-1,1028,337,0,0
-189,687,0,0,0,0,0,0,0,0,0,-1,1035,337,0,0
-182,687,0,0,0,0,0,0,0,0,0,-1,1042,337,0,0
-175,687,0,0,0,0,0,0,0,0,0,-1,1049,337,0,0
-168,687,0,0,0,0,0,0,0,0,0,-1,1056,337,0,0
-161,687,0,0,0,0,0,0,0,0,0,-1,1063,337,0,0
-154,687,0,0,0,0,0,0,0,0,0,-1,1070,337,0,0
-147,687,0,0,0,0,0,0,0,0,0,-1,1077,337,0,0
-140,687,0,0,0,0,0,0,0,0,0,-1,1084,337,0,0
-133,687,7.93958,-37.548,0,0,0,0,0,0,0,-1,1091,337,7.93957,37.548
-126,687,0.688477,-38.7298,0,0,0,0,0,0,0,-1,1098,337,0.688509,38.7298
-119,687,7.70825,-33.9236,0,0,0,0,0,0,0,-1,1105,337,7.70826,33.9236
-112,687,7.99866,-32.2983,0,0,0,0,0,0,0,-1,1112,337,7.99866,32.2983
-105,687,1.3208,-29.8313,0,0,0,0,0,0,0,-1,1119,337,1.3208,29.8313
-98,687,13.7111,-47.5645,0,0,0,0,0,0,0,-1,1126,337,13.711,47.5645
-91,687,7.22083,-41.1667,0,0,0,0,0,0,0,-1,1133,337,7.22079,41.1666
-84,687,0.745117,-35.0345,0,0,0,0,0,0,0,-1,1140,337,0.745155,35.0345
-77,687,-5.74353,-28.9553,0,0,0,0,0,0,0,-1,1147,337,-5.74357,28.9553
-70,687,-11.6842,-19.8473,0,0,0,0,0,0,0,-1,1154,337,-11.6842,19.8473
-63,687,-17.6757,-14.8966,0,0,0,0,0,0,0,-1,1161,337,-17.6756,14.8966
-56,687,-18.104,7.81931,0,0,0,0,0,0,0,-1,1168,337,-18.104,-7.81931
-49,687,-15.6449,-9.94391,0,0,0,0,0,0,0,-1,1175,337,-15.6449,9.94392
-42,687,-4.2019,-0.405609,0,0,0,0,0,0,0,-1,1182,337,-4.20192,0.405614
-35,687,-4.42273,-0.688171,0,0,0,0,0,0,0,-1,1189,337,-4.42276,0.688178
-28,687,-1.14038,-1.39072,0,0,0,0,0,0,0,-1,1196,337,-1.14035,1.3907
-21,687,5.96765,-49.0481,0,0,0,0,0,0,0,-1,1203,337,5.96762,49.0481
-14,687,7.927,-50.6295,0,0,0,0,0,0,0,-1,1210,337,7.927,50.6295
-7,687,7.42786,-50.6378,0,0,0,0,0,0,0,-1,1217,337,7.42785,50.6379
0,687,6.24011,-51.0111,0,0,0,0,0,0,0,-1,1224,337,6.24016,51.0111
7,687,6.38245,-51.0836,0.0159867,0.0871286,-0.0268113,0.0961014,0.00701397,-1.24785,0.0618623,0.0493083,1231,337,6.38242,51.0836
14,687,6.20569,-51.0923,0.0151086,0.0786157,-0.0247204,0.0871038,0.00662052,-1.24005,0.0559929,0.0465499,1238,337,6.20573,51.0923
21,687,6.19592,-51.2032,0.0153633,0.0686361,-0.0215908,0.0762876,0.00771175,-1.23022,0.0484927,0.0427354,1245,337,6.19589,51.2031
28,687,6.2157,-51.4899,0.016029,0.0588105,-0.0181469,0.065471,0.00936846,-1.21903,0.0408839,0.0405399,1252,337,6.21564,51.4899
35,687,6.32117,-51.7496,0.0175311,0.0491242,-0.0145162,0.0547811,0.0118742,-1.1992,0.0332765,0.0428381,1259,337,6.32113,51.7496
42,687,6.69043,-51.8261,0.0200811,0.0395311,-0.0107742,0.0443202,0.015292,-1.15253,0.0259947,0.0445176,1266,337,6.69039,51.8261
49,687,6.89624,-51.7265,0.0204044,0.0334018,-0.00730164,0.0366779,0.0171283,-1.14904,0.0211914,0.0436781,1273,337,6.89629,51.7265
56,687,7.15234,-51.8793,0.0173393,0.0304448,-0.0051312,0.0322148,0.0155693,-1.23863,0.0186027,0.0441225,1280,337,7.15231,51.8793
63,687,7.31262,-52.0138,0.0128295,0.0300777,-0.00339784,0.0307229,0.0121843,-1.38314,0.0178639,0.0458838,1287,337,7.31268,52.0138
70,687,7.1637,-51.8222,0.00718505,0.0330463,-0.00242952,0.0332726,0.00695879,-1.47793,0.0202644,0.0428197,1294,337,7.1637,51.8222
77,687,7.10938,-51.5871,0,0,0,0,0,0,0,-1,1301,337,7.1094,51.5871
84,687,11.2003,-55.0146,0,0,0,0,0,0,0,-1,1308,337,11.2003,55.0146
91,687,5.88977,-51.7727,0,0,0,0,0,0,0,-1,1315,337,5.88977,51.7727
98,687,5.53442,-51.6339,-0.0208843,0.060666,-0.00395183,0.0608571,-0.0210754,-1.52249,0.0491272,0.0446137,1322,337,5.53439,51.6339
105,687,5.30859,-51.3932,-0.0281962,0.0690905,-0.00454946,0.0693027,-0.0284085,-1.52417,0.0580371,0.0444764,1329,337,5.30858,51.3932
112,687,4.96375,-50.9228,0,0,0,0,0,0,0,-1,1336,337,4.96378,50.9228
119,687,5.62231,-50.223,-0.0421391,0.0861942,-0.00550444,0.0864298,-0.0423748,-1.52801,0.0758015,0.0452151,1343,337,5.62233,50.223
126,687,5.37,-50.0991,-0.0451945,0.0924136,-0.00542731,0.0926273,-0.0454083,-1.53144,0.0812343,0.0454329,1350,337,5.36997,50.0991
133,687,4.62854,-49.9834,-0.0433666,0.0938758,-0.00364061,0.0939723,-0.0434631,-1.54429,0.0811149,0.0465589,1357,337,4.62848,49.9834
140,687,5.20129,-49.555,0,0,0,0,0,0,0,-1,1364,337,5.20127,49.555
147,687,4.43079,-49.6652,0,0,0,0,0,0,0,-1,1371,337,4.43075,49.6652
154,687,4.32007,-48.895,0,0,0,0,0,0,0,-1,1378,337,4.32001,48.895
161,687,29.3895,-1.90628,0,0,0,0,0,0,0,-1,1385,337,29.3895,1.90628
168,687,29.8564,-1.19434,0,0,0,0,0,0,0,-1,1392,337,29.8564,1.19434
175,687,30.3419,-0.453583,0,0,0,0,0,0,0,-1,1399,337,30.3419,0.45357
182,687,6.67249,0.289917,0,0,0,0,0,0,0,-1,1406,337,6.67247,-0.289916
189,687,7.76062,4.53635,0,0,0,0,0,0,0,-1,1413,337,7.76064,-4.53636
196,687,6.99048,3.2966,0,0,0,0,0,0,0,-1,1420,337,6.99046,-3.2966
203,687,6.36499,2.1445,0,0,0,0,0,0,0,-1,1427,337,6.36499,-2.14451
210,687,6.68066,0.674652,0,0,0,0,0,0,0,-1,1434,337,6.68062,-0.674655
217,687,5.99683,-0.630493,0,0,0,0,0,0,0,-1,1441,337,5.99684,0.630497
224,687,5.52917,0.524902,0,0,0,0,0,0,0,-1,1448,337,5.5292,-0.524915
231,687,5.85583,-1.73651,0,0,0,0,0,0,0,-1,1455,337,5.85577,1.73651
238,687,5.96582,-2.96774,0,0,0,0,0,0,0,-1,1462,337,5.96577,2.96773
245,687,1.28259,2.32211,0,0,0,0,0,0,0,-1,1469,337,1.28258,-2.32211
252,687,1.97278,3.88422,0,0,0,0,0,0,0,-1,1476,337,1.97281,-3.88421
259,687,0,0,0,0,0,0,0,0,0,-1,1483,337,0,0
266,687,0,0,0,0,0,0,0,0,0,-1,1490,337,0,0
273,687,0,0,0,0,0,0,0,0,0,-1,1497,337,0,0
280,687,0,0,0,0,0,0,0,0,0,-1,1504,337,0,0
287,687,0,0,0,0,0,0,0,0,0,-1,1511,337,0,0
294,687,0,0,0,0,0,0,0,0,0,-1,1518,337,0,0
301,687,0,0,0,0,0,0,0,0,0,-1,1525,337,0,0
308,687,0,0,0,0,0,0,0,0,0,-1,1532,337,0,0
315,687,0,0,0,0,0,0,0,0,0,-1,1539,337,0,0
322,687,0,0,0,0,0,0,0,0,0,-1,1546,337,0,0
329,687,0,0,0,0,0,0,0,0,0,-1,1553,337,0,0
336,687,0,0,0,0,0,0,0,0,0,-1,1560,337,0,0
343,687,0,0,0,0,0,0,0,0,0,-1,1567,337,0,0
350,687,0,0,0,0,0,0,0,0,0,-1,1574,337,0,0
357,687,0,0,0,0,0,0,0,0,0,-1,1581,337,0,0
364,687,0,0,0,0,0,0,0,0,0,-1,1588,337,0,0
371,687,0,0,0,0,0,0,0,0,0,-1,1595,337,0,0
378,687,0,0,0,0,0,0,0,0,0,-1,1602,337,0,0
385,687,0,0,0,0,0,0,0,0,0,-1,1609,337,0,0
392,687,0,0,0,0,0,0,0,0,0,-1,1616,337,0,0
399,687,0,0,0,0,0,0,0,0,0,-1,1623,337,0,0
406,687,0,0,0,0,0,0,0,0,0,-1,1630,337,0,0
413,687,0,0,0,0,0,0,0,0,0,-1,1637,337,0,0
420,687,0,0,0,0,0,0,0,0,0,-1,1644,337,0,0
427,687,0,0,0,0,0,0,0,0,0,-1,1651,337,0,0
434,687,0,0,0,0,0,0,0,0,0,-1,1658,337,0,0
441,687,0,0,0,0,0,0,0,0,0,-1,1665,337,0,0
448,687,0,0,0,0,0,0,0,0,0,-1,1672,337,0,0
455,687,0,0,0,0,0,0,0,0,0,-1,1679,337,0,0
462,687,0,0,0,0,0,0,0,0,0,-1,1686,337,0,0
469,687,0,0,0,0,0,0,0,0,0,-1,1693,337,0,0
476,687,0,0,0,0,0,0,0,0,0,-1,1700,337,0,0
483,687,0,0,0,0,0,0,0,0,0,-1,1707,337,0,0
490,687,0,0,0,0,0,0,0,0,0,-1,1714,337,0,0
497,687,0,0,0,0,0,0,0,0,0,-1,1721,337,0,0
504,687,0,0,0,0,0,0,0,0,0,-1,1728,337,0,0
511,687,0,0,0,0,0,0,0,0,0,-1,1735,337,0,0
518,687,0,0,0,0,0,0,0,0,0,-1,1742,337,0,0
525,687,0,0,0,0,0,0,0,0,0,-1,1749,337,0,0
532,687,0,0,0,0,0,0,0,0,0,-1,1756,337,0,0
539,687,0,0,0,0,0,0,0,0,0,-1,1763,337,0,0
546,687,0,0,0,0,0,0,0,0,0,-1,1770,337,0,0
553,687,0,0,0,0,0,0,0,0,0,-1,1777,337,0,0
560,687,0,0,0,0,0,0,0,0,0,-1,1784,337,0,0
567,687,0,0,0,0,0,0,0,0,0,-1,1791,337,0,0
574,687,0,0,0,0,0,0,0,0,0,-1,1798,337,0,0
581,687,0,0,0,0,0,0,0,0,0,-1,1805,337,0,0
588,687,0,0,0,0,0,0,0,0,0,-1,1812,337,0,0
595,687,0,0,0,0,0,0,0,0,0,-1,1819,337,0,0
602,687,0,0,0,0,0,0,0,0,0,-1,1826,337,0,0
609,687,0,0,0,0,0,0,0,0,0,-1,1833,337,0,0
616,687,0,0,0,0,0,0,0,0,0,-1,1840,337,0,0
623,687,0,0,0,0,0,0,0,0,0,-1,1847,337,0,0
630,687,0,0,0,0,0,0,0,0,0,-1,1854,337,0,0
637,687,0,0,0,0,0,0,0,0,0,-1,1861,337,0,0
644,687,0,0,0,0,0,0,0,0,0,-1,1868,337,0,0
651,687,0,0,0,0,0,0,0,0,0,-1,1875,337,0,0
658,687,0,0,0,0,0,0,0,0,0,-1,1882,337,0,0
665,687,0,0,0,0,0,0,0,0,0,-1,1889,337,0,0
672,687,0,0,0,0,0,0,0,0,0,-1,1896,337,0,0
679,687,0,0,0,0,0,0,0,0,0,-1,1903,337,0,0
686,687,0,0,0,0,0,0,0,0,0,-1,1910,337,0,0
693,687,0,0,0,0,0,0,0,0,0,-1,1917,337,0,0
700,687,0,0,0,0,0,0,0,0,0,-1,1924,337,0,0
707,687,0,0,0,0,0,0,0,0,0,-1,1931,337,0,0
714,687,0,0,0,0,0,0,0,0,0,-1,1938,337,0,0
721,687,0,0,0,0,0,0,0,0,0,-1,1945,337,0,0
728,687,0,0,0,0,0,0,0,0,0,-1,1952,337,0,0
735,687,0,0,0,0,0,0,0,0,0,-1,1959,337,0,0
742,687,0,0,0,0,0,0,0,0,0,-1,1966,337,0,0
749,687,0,0,0,0,0,0,0,0,0,-1,1973,337,0,0
756,687,0,0,0,0,0,0,0,0,0,-1,1980,337,0,0
763,687,0,0,0,0,0,0,0,0,0,-1,1987,337,0,0
770,687,0,0,0,0,0,0,0,0,0,-1,1994,337,0,0
777,687,0,0,0,0,0,0,0,0,0,-1,2001,337,0,0
784,687,0,0,0,0,0,0,0,0,0,-1,2008,337,0,0
791,687,0,0,0,0,0,0,0,0,0,-1,2015,337,0,0
798,687,0,0,0,0,0,0,0,0,0,-1,2022,337,0,0
805,687,0,0,0,0,0,0,0,0,0,-1,2029,337,0,0
812,687,0,0,0,0,0,0,0,0,0,-1,2036,337,0,0
-700,680,0,0,0,0,0,0,0,0,0,-1,524,344,0,0
-693,680,0,0,0,0,0,0,0,0,0,-1,531,344,0,0
-686,680,0,0,0,0,0,0,0,0,0,-1,538,344,0,0
-679,680,0,0,0,0,0,0,0,0,0,-1,545,344,0,0
-672,680,0,0,0,0,0,0,0,0,0,-1,552,344,0,0
-665,680,0,0,0,0,0,0,0,0,0,-1,559,344,0,0
-658,680,0,0,0,0,0,0,0,0,0,-1,566,344,0,0
-651,680,0,0,0,0,0,0,0,0,0,-1,573,344,0,0
-644,680,0,0,0,0,0,0,0,0,0,-1,580,344,0,0
-637,680,0,0,0,0,0,0,0,0,0,-1,587,344,0,0
-630,680,0,0,0,0,0,0,0,0,0,-1,594,344,0,0
-623,680,0,0,0,0,0,0,0,0,0,-1,601,344,0,0
-616,680,0,0,0,0,0,0,0,0,0,-1,608,344,0,0
-609,680,0,0,0,0,0,0,0,0,0,-1,615,344,0,0
-602,680,0,0,0,0,0,0,0,0,0,-1,622,344,0,0
-595,680,0,0,0,0,0,0,0,0,0,-1,629,344,0,0
-588,680,0,0,0,0,0,0,0,0,0,-1,636,344,0,0
-581,680,0,0,0,0,0,0,0,0,0,-1,643,344,0,0
-574,680,0,0,0,0,0,0,0,0,0,-1,650,344,0,0
-567,680,0,0,0,0,0,0,0,0,0,-1,657,344,0,0
-560,680,0,0,0,0,0,0,0,0,0,-1,664,344,0,0
-553,680,0,0,0,0,0,0,0,0,0,-1,671,344,0,0
-546,680,0,0,0,0,0,0,0,0,0,-1,678,344,0,0
-539,680,0,0,0,0,0,0,0,0,0,-1,685,344,0,0
-532,680,0,0,0,0,0,0,0,0,0,-1,692,344,0,0
-525,680,0,0,0,0,0,0,0,0,0,-1,699,344,0,0
-518,680,0,0,0,0,0,0,0,0,0,-1,706,344,0,0
-511,680,0,0,0,0,0,0,0,0,0,-1,713,344,0,0
-504,680,0,0,0,0,0,0,0,0,0,-1,720,344,0,0
-497,680,0,0,0,0,0,0,0,0,0,-1,727,344,0,0
-490,680,0,0,0,0,0,0,0,0,0,-1,734,344,0,0
-483,680,0,0,0,0,0,0,0,0,0,-1,741,344,0,0
-476,680,0,0,0,0,0,0,0,0,0,-1,748,344,0,0
-469,680,0,0,0,0,0,0,0,0,0,-1,755,344,0,0
-462,680,0,0,0,0,0,0,0,0,0,-1,762,344,0,0
-455,680,0,0,0,0,0,0,0,0,0,-1,769,344,0,0
-448,680,0,0,0,0,0,0,0,0,0,-1,776,344,0,0
-441,680,0,0,0,0,0,0,0,0,0,-1,783,344,0,0
-434,680,0,0,0,0,0,0,0,0,0,-1,790,344,0,0
-427,680,0,0,0,0,0,0,0,0,0,-1,797,344,0,0
-420,680,0,0,0,0,0,0,0,0,0,-1,804,344,0,0
-413,680,0,0,0,0,0,0,0,0,0,-1,811,344,0,0
-406,680,0,0,0,0,0,0,0,0,0,-1,818,344,0,0
-399,680,0,0,0,0,0,0,0,0,0,-1,825,344,0,0
-392,680,0,0,0,0,0,0,0,0,0,-1,832,344,0,0
-385,680,0,0,0,0,0,0,0,0,0,-1,839,344,0,0
-378,680,0,0,0,0,0,0,0,0,0,-1,846,344,0,0
-371,680,0,0,0,0,0,0,0,0,0,-1,853,344,0,0
-364,680,0,0,0,0,0,0,0,0,0,-1,860,344,0,0
-357,680,0,0,0,0,0,0,0,0,0,-1,867,344,0,0
-350,680,0,0,0,0,0,0,0,0,0,-1,874,344,0,0
-343,680,0,0,0,0,0,0,0,0,0,-1,881,344,0,0
-336,680,0,0,0,0,0,0,0,0,0,-1,888,344,0,0
-329,680,0,0,0,0,0,0,0,0,0,-1,895,344,0,0
-322,680,0,0,0,0,0,0,0,0,0,-1,902,344,0,0
-315,680,0,0,0,0,0,0,0,0,0,-1,909,344,0,0
-308,680,0,0,0,0,0,0,0,0,0,-1,916,344,0,0
-301,680,0,0,0,0,0,0,0,0,0,-1,923,344,0,0
-294,680,0,0,0,0,0,0,0,0,0,-1,930,344,0,0
-287,680,0,0,0,0,0,0,0,0,0,-1,937,344,0,0
-280,680,0,0,0,0,0,0,0,0,0,-1,944,344,0,0
-273,680,0,0,0,0,0,0,0,0,0,-1,951,344,0,0
-266,680,0,0,0,0,0,0,0,0,0,-1,958,344,0,0
-259,680,0,0,0,0,0,0,0,0,0,-1,965,344,0,0
-252,680,0,0,0,0,0,0,0,0,0,-1,972,344,0,0
-245,680,0,0,0,0,0,0,0,0,0,-1,979,344,0,0
-238,680,0,0,0,0,0,0,0,0,0,-1,986,344,0,0
-231,680,0,0,0,0,0,0,0,0,0,-1,993,344,0,0
-224,680,0,0,0,0,0,0,0,0,0,-1,1000,344,0,0
-217,680,0,0,0,0,0,0,0,0,0,-1,1007,344,0,0
-210,680,0,0,0,0,0,0,0,0,0,-1,1014,344,0,0
-203,680,0,0,0,0,0,0,0,0,0,-1,1021,344,0,0
-196,680,0,0,0,0,0,0,0,0,0,-1,1028,344,0,0
-189,680,0,0,0,0,0,0,0,0,0,-1,1035,344,0,0
-182,680,0,0,0,0,0,0,0,0,0,-1,1042,344,0,0
-175,680,0,0,0,0,0,0,0,0,0,-1,1049,344,0,0
-168,680,0,0,0,0,0,0,0,0,0,-1,1056,344,0,0
-161,680,0,0,0,0,0,0,0,0,0,-1,1063,344,0,0
-154,680,2.25244,-29.1442,0,0,0,0,0,0,0,-1,1070,344,2.25241,29.1442
-147,680,9.29614,-33.0369,0,0,0,0,0,0,0,-1,1077,344,9.29612,33.0369
-140,680,6.98022,-36.6899,0,0,0,0,0,0,0,-1,1084,344,6.98023,36.6899
-133,680,1.85693,-39.7233,0,0,0,0,0,0,0,-1,1091,344,1.85699,39.7233
-126,680,2.30017,-38.3751,0,0,0,0,0,0,0,-1,1098,344,2.30011,38.3751
-119,680,2.74329,-37.0269,0,0,0,0,0,0,0,-1,1105,344,2.74323,37.0269
-112,680,7.7467,-32.4407,0,0,0,0,0,0,0,-1,1112,344,7.74668,32.4407
-105,680,20.6371,-48.461,0,0,0,0,0,0,0,-1,1119,344,20.6371,48.461
-98,680,14.2684,-41.9997,0,0,0,0,0,0,0,-1,1126,344,14.2685,41.9997
-91,680,7.89648,-35.5147,0,0,0,0,0,0,0,-1,1133,344,7.8965,35.5147
-84,680,1.47168,-29.471,0,0,0,0,0,0,0,-1,1140,344,1.47163,29.471
-77,680,-4.95337,-23.3355,0,0,0,0,0,0,0,-1,1147,344,-4.9534,23.3356
-70,680,-11.5099,-17.4337,0,0,0,0,0,0,0,-1,1154,344,-11.5098,17.4338
-63,680,-17.2391,-1.43134,0,0,0,0,0,0,0,-1,1161,344,-17.2392,1.43133
-56,680,-6.96912,-8.83356,0,0,0,0,0,0,0,-1,1168,344,-6.96907,8.83354
-49,680,-6.7677,-2.24063,0,0,0,0,0,0,0,-1,1175,344,-6.76772,2.24063
-42,680,-1.02368,0.618805,0,0,0,0,0,0,0,-1,1182,344,-1.0237,-0.618797
-35,680,-0.947876,-0.942719,0,0,0,0,0,0,0,-1,1189,344,-0.947842,0.942731
-28,680,-1.46118,-1.10574,0,0,0,0,0,0,0,-1,1196,344,-1.4612,1.10575
-21,680,8.6012,-50.9716,0,0,0,0,0,0,0,-1,1203,344,8.60124,50.9716
-14,680,7.97375,-51.0661,0.0109637,0.0784516,-0.0217564,0.0848573,0.00455803,-1.28446,0.055115,0.0447516,1210,344,7.97373,51.0661
-7,680,7.34143,-51.1802,0.0100542,0.0768741,-0.022348,0.0836594,0.0032689,-1.27602,0.0547159,0.047854,1217,344,7.34137,51.1802
0,680,6.73523,-51.2979,0,0,0,0,0,0,0,-1,1224,344,6.73527,51.2979
7,680,7.06714,-52.2475,0,0,0,0,0,0,0,-1,1231,344,7.06709,52.2475
14,680,7.46143,-51.041,0.00835363,0.0640525,-0.0199863,0.070482,0.00192414,-1.25956,0.0463599,0.0438666,1238,344,7.46144,51.041
21,680,6.62817,-51.6686,0.00907946,0.0568046,-0.0175055,0.062537,0.00334704,-1.25434,0.0406217,0.0475432,1245,344,6.62812,51.6686
28,680,7.29858,-51.7895,0,0,0,0,0,0,0,-1,1252,344,7.2986,51.7894
35,680,6.66125,-52.2332,0,0,0,0,0,0,0,-1,1259,344,6.66131,52.2331
42,680,6.83801,-52.1391,0.013099,0.0365357,-0.0090902,0.0396481,0.0099866,-1.24091,0.0238118,0.0457817,1266,344,6.83801,52.1391
49,680,6.65771,-52.1013,0.0132502,0.0321328,-0.00618552,0.0339786,0.0114044,-1.2808,0.0199678,0.0445802,1273,344,6.65767,52.1013
56,680,7.06311,-52.0383,0,0,0,0,0,0,0,-1,1280,344,7.06306,52.0383
63,680,7.20068,-52.0617,0,0,0,0,0,0,0,-1,1287,344,7.2007,52.0617
70,680,6.9668,-51.8377,0,0,0,0,0,0,0,-1,1294,344,6.96679,51.8377
77,680,6.52551,-51.2025,0,0,0,0,0,0,0,-1,1301,344,6.52554,51.2024
84,680,5.33423,-51.0795,0,0,0,0,0,0,0,-1,1308,344,5.33419,51.0795
91,680,5.98987,-52.4378,0,0,0,0,0,0,0,-1,1315,344,5.98989,52.4378
98,680,5.63965,-51.9998,-0.0188628,0.053041,-0.00232709,0.0531163,-0.018938,-1.53848,0.0431324,0.0435614,1322,344,5.63962,51.9998
105,680,5.36877,-51.591,-0.0241256,0.0595467,-0.00272329,0.0596352,-0.0242142,-1.5383,0.0498295,0.0420624,1329,344,5.36878,51.591
112,680,5.1261,-51.3563,0,0,0,0,0,0,0,-1,1336,344,5.12614,51.3563
119,680,5.78625,-50.6203,-0.0341389,0.0726608,-0.00346729,0.0727732,-0.0342513,-1.53838,0.0631108,0.0428274,1343,344,5.78626,50.6203
126,680,5.59192,-50.5854,-0.0361433,0.0776291,-0.00349676,0.0777364,-0.0362506,-1.5401,0.0672477,0.0415973,1350,344,5.59196,50.5854
133,680,5.51587,-50.468,-0.0345059,0.0785724,-0.00217238,0.0786142,-0.0345476,-1.55159,0.0669648,0.0446626,1357,344,5.51593,50.468
140,680,5.34375,-50.1689,-0.0325576,0.0795749,-0.00052952,0.0795774,-0.0325601,-1.56607,0.0666126,0.0496463,1364,344,5.3437,50.169
147,680,4.64038,-50.3719,-0.0303776,0.0802651,0.00141562,0.0802832,-0.0303957,1.558,0.0660288,0.0440176,1371,344,4.64037,50.3719
154,680,4.73242,-49.5112,-0.028025,0.0802957,0.00361659,0.0804164,-0.0281456,1.53746,0.065055,0.0488652,1378,344,4.73242,49.5112
161,680,4.76587,-49.0076,0,0,0,0,0,0,0,-1,1385,344,4.76585,49.0076
168,680,29.4142,-2.51651,0,0,0,0,0,0,0,-1,1392,344,29.4142,2.51652
175,680,6.66541,0.942078,0,0,0,0,0,0,0,-1,1399,344,6.66538,-0.942088
182,680,6.52917,0.532379,0,0,0,0,0,0,0,-1,1406,344,6.52922,-0.532385
189,680,7.55884,4.77695,0,0,0,0,0,0,0,-1,1413,344,7.55886,-4.77694
196,680,6.55627,3.35254,0,0,0,0,0,0,0,-1,1420,344,6.55622,-3.35255
203,680,5.7334,1.90753,0,0,0,0,0,0,0,-1,1427,344,5.73341,-1.90754
210,680,5.27515,0.493622,0,0,0,0,0,0,0,-1,1434,344,5.27514,-0.493632
217,680,6.56384,-0.374176,0,0,0,0,0,0,0,-1,1441,344,6.56379,0.374176
224,680,3.9491,-0.640228,0,0,0,0,0,0,0,-1,1448,344,3.94908,0.64024
231,680,4.24866,-1.96881,0,0,0,0,0,0,0,-1,1455,344,4.2486,1.96882
238,680,4.29333,-3.23984,0,0,0,0,0,0,0,-1,1462,344,4.29332,3.23984
245,680,2.44397,0.985382,0,0,0,0,0,0,0,-1,1469,344,2.44402,-0.985394
252,680,3.07349,2.18951,0,0,0,0,0,0,0,-1,1476,344,3.0735,-2.18952
259,680,2.82971,1.30682,0,0,0,0,0,0,0,-1,1483,344,2.82972,-1.30684
266,680,2.67554,1.44067,0,0,0,0,0,0,0,-1,1490,344,2.67551,-1.44066
273,680,2.46411,1.54666,0,0,0,0,0,0,0,-1,1497,344,2.46407,-1.54666
280,680,0,0,0,0,0,0,0,0,0,-1,1504,344,0,0
287,680,0,0,0,0,0,0,0,0,0,-1,1511,344,0,0
294,680,0,0,0,0,0,0,0,0,0,-1,1518,344,0,0
301,680,0,0,0,0,0,0,0,0,0,-1,1525,344,0,0
308,680,0,0,0,0,0,0,0,0,0,-1,1532,344,0,0
315,680,0,0,0,0,0,0,0,0,0,-1,1539,344,0,0
322,680,0,0,0,0,0,0,0,0,0,-1,1546,344,0,0
329,680,0,0,0,0,0,0,0,0,0,-1,1553,344,0,0
336,680,0,0,0,0,0,0,0,0,0,-1,1560,344,0,0
343,680,0,0,0,0,0,0,0,0,0,-1,1567,344,0,0
350,680,0,0,0,0,0,0,0,0,0,-1,1574,344,0,0
357,680,0,0,0,0,0,0,0,0,0,-1,1581,344,0,0
364,680,0,0,0,0,0,0,0,0,0,-1,1588,344,0,0
371,680,0,0,0,0,0,0,0,0,0,-1,1595,344,0,0
378,680,0,0,0,0,0,0,0,0,0,-1,1602,344,0,0
385,680,0,0,0,0,0,0,0,0,0,-1,1609,344,0,0
392,680,0,0,0,0,0,0,0,0,0,-1,1616,344,0,0
399,680,0,0,0,0,0,0,0,0,0,-1,1623,344,0,0
406,680,0,0,0,0,0,0,0,0,0,-1,1630,344,0,0
413,680,0,0,0,0,0,0,0,0,0,-1,1637,344,0,0
420,680,0,0,0,0,0,0,0,0,0,-1,1644,344,0,0
427,680,0,0,0,0,0,0,0,0,0,-1,1651,344,0,0
434,680,0,0,0,0,0,0,0,0,0,-1,1658,344,0,0
441,680,0,0,0,0,0,0,0,0,0,-1,1665,344,0,0
448,680,0,0,0,0,0,0,0,0,0,-1,1672,344,0,0
455,680,0,0,0,0,0,0,0,0,0,-1,1679,344,0,0
462,680,0,0,0,0,0,0,0,0,0,-1,1686,344,0,0
469,680,0,0,0,0,0,0,0,0,0,-1,1693,344,0,0
476,680,0,0,0,0,0,0,0,0,0,-1,1700,344,0,0
483,680,0,0,0,0,0,0,0,0,0,-1,1707,344,0,0
490,680,0,0,0,0,0,0,0,0,0,-1,1714,344,0,0
497,680,0,0,0,0,0,0,0,0,0,-1,1721,344,0,0
504,680,0,0,0,0,0,0,0,0,0,-1,1728,344,0,0
511,680,0,0,0,0,0,0,0,0,0,-1,1735,344,0,0
518,680,0,0,0,0,0,0,0,0,0,-1,1742,344,0,0
525,680,0,0,0,0,0,0,0,0,0,-1,1749,344,0,0
532,680,0,0,0,0,0,0,0,0,0,-1,1756,344,0,0
539,680,0,0,0,0,0,0,0,0,0,-1,1763,344,0,0
546,680,0,0,0,0,0,0,0,0,0,-1,1770,344,0,0
553,680,0,0,0,0,0,0,0,0,0,-1,1777,344,0,0
560,680,0,0,0,0,0,0,0,0,0,-1,1784,344,0,0
567,680,0,0,0,0,0,0,0,0,0,-1,1791,344,0,0
574,680,0,0,0,0,0,0,0,0,0,-1,1798,344,0,0
581,680,0,0,0,0,0,0,0,0,0,-1,1805,344,0,0
588,680,0,0,0,0,0,0,0,0,0,-1,1812,344,0,0
595,680,0,0,0,0,0,0,0,0,0,-1,1819,344,0,0
602,680,0,0,0,0,0,0,0,0,0,-1,1826,344,0,0
609,680,0,0,0,0,0,0,0,0,0,-1,1833,344,0,0
616,680,0,0,0,0,0,0,0,0,0,-1,1840,344,0,0
623,680,0,0,0,0,0,0,0,0,0,-1,1847,344,0,0
630,680,0,0,0,0,0,0,0,0,0,-1,1854,344,0,0
637,680,0,0,0,0,0,0,0,0,0,-1,1861,344,0,0
644,680,0,0,0,0,0,0,0,0,0,-1,1868,344,0,0
651,680,0,0,0,0,0,0,0,0,0,-1,1875,344,0,0
658,680,0,0,0,0,0,0,0,0,0,-1,1882,344,0,0
665,680,0,0,0,0,0,0,0,0,0,-1,1889,344,0,0
672,680,0,0,0,0,0,0,0,0,0,-1,1896,344,0,0
679,680,0,0,0,0,0,0,0,0,0,-1,1903,344,0,0
686,680,0,0,0,0,0,0,0,0,0,-1,1910,344,0,0
693,680,0,0,0,0,0,0,0,0,0,-1,1917,344,0,0
700,680,0,0,0,0,0,0,0,0,0,-1,1924,344,0,0
707,680,0,0,0,0,0,0,0,0,0,-1,1931,344,0,0
714,680,0,0,0,0,0,0,0,0,0,-1,1938,344,0,0
721,680,0,0,0,0,0,0,0,0,0,-1,1945,344,0,0
728,680,0,0,0,0,0,0,0,0,0,-1,1952,344,0,0
735,680,0,0,0,0,0,0,0,0,0,-1,1959,344,0,0
742,680,0,0,0,0,0,0,0,0,0,-1,1966,344,0,0
749,680,0,0,0,0,0,0,0,0,0,-1,1973,344,0,0
756,680,0,0,0,0,0,0,0,0,0,-1,1980,344,0,0
763,680,0,0,0,0,0,0,0,0,0,-1,1987,344,0,0
770,680,0,0,0,0,0,0,0,0,0,-1,1994,344,0,0
777,680,0,0,0,0,0,0,0,0,0,-1,2001,344,0,0
784,680,0,0,0,0,0,0,0,0,0,-1,2008,344,0,0
791,680,0,0,0,0,0,0,0,0,0,-1,2015,344,0,0
798,680,0,0,0,0,0,0,0,0,0,-1,2022,344,0,0
805,680,0,0,0,0,0,0,0,0,0,-1,2029,344,0,0
812,680,0,0,0,0,0,0,0,0,0,-1,2036,344,0,0
-700,673,0,0,0,0,0,0,0,0,0,-1,524,351,0,0
-693,673,0,0,0,0,0,0,0,0,0,-1,531,351,0,0
-686,673,0,0,0,0,0,0,0,0,0,-1,538,351,0,0
-679,673,0,0,0,0,0,0,0,0,0,-1,545,351,0,0
-672,673,0,0,0,0,0,0,0,0,0,-1,552,351,0,0
-665,673,0,0,0,0,0,0,0,0,0,-1,559,351,0,0
-658,673,0,0,0,0,0,0,0,0,0,-1,566,351,0,0
-651,673,0,0,0,0,0,0,0,0,0,-1,573,351,0,0
-644,673,0,0,0,0,0,0,0,0,0,-1,580,351,0,0
-637,673,0,0,0,0,0,0,0,0,0,-1,587,351,0,0
-630,673,0,0,0,0,0,0,0,0,0,-1,594,351,0,0
-623,673,0,0,0,0,0,0,0,0,0,-1,601,351,0,0
-616,673,0,0,0,0,0,0,0,0,0,-1,608,351,0,0
-609,673,0,0,0,0,0,0,0,0,0,-1,615,351,0,0
-602,673,0,0,0,0,0,0,0,0,0,-1,622,351,0,0
-595,673,0,0,0,0,0,0,0,0,0,-1,629,351,0,0
-588,673,0,0,0,0,0,0,0,0,0,-1,636,351,0,0
-581,673,0,0,0,0,0,0,0,0,0,-1,643,351,0,0
-574,673,0,0,0,0,0,0,0,0,0,-1,650,351,0,0
-567,673,0,0,0,0,0,0,0,0,0,-1,657,351,0,0
-560,673,0,0,0,0,0,0,0,0,0,-1,664,351,0,0
-553,673,0,0,0,0,0,0,0,0,0,-1,671,351,0,0
-546,673,0,0,0,0,0,0,0,0,0,-1,678,351,0,0
-539,673,0,0,0,0,0,0,0,0,0,-1,685,351,0,0
-532,673,0,0,0,0,0,0,0,0,0,-1,692,351,0,0
-525,673,0,0,0,0,0,0,0,0,0,-1,699,351,0,0
-518,673,0,0,0,0,0,0,0,0,0,-1,706,351,0,0
-511,673,0,0,0,0,0,0,0,0,0,-1,713,351,0,0
-504,673,0,0,0,0,0,0,0,0,0,-1,720,351,0,0
-497,673,0,0,0,0,0,0,0,0,0,-1,727,351,0,0
-490,673,0,0,0,0,0,0,0,0,0,-1,734,351,0,0
-483,673,0,0,0,0,0,0,0,0,0,-1,741,351,0,0
-476,673,0,0,0,0,0,0,0,0,0,-1,748,351,0,0
-469,673,0,0,0,0,0,0,0,0,0,-1,755,351,0,0
-462,673,0,0,0,0,0,0,0,0,0,-1,762,351,0,0
-455,673,0,0,0,0,0,0,0,0,0,-1,769,351,0,0
-448,673,0,0,0,0,0,0,0,0,0,-1,776,351,0,0
-441,673,0,0,0,0,0,0,0,0,0,-1,783,351,0,0
-434,673,0,0,0,0,0,0,0,0,0,-1,790,351,0,0
-427,673,0,0,0,0,0,0,0,0,0,-1,797,351,0,0
-420,673,0,0,0,0,0,0,0,0,0,-1,804,351,0,0
-413,673,0,0,0,0,0,0,0,0,0,-1,811,351,0,0
-406,673,0,0,0,0,0,0,0,0,0,-1,818,351,0,0
-399,673,0,0,0,0,0,0,0,0,0,-1,825,351,0,0
-392,673,0,0,0,0,0,0,0,0,0,-1,832,351,0,0
-385,673,0,0,0,0,0,0,0,0,0,-1,839,351,0,0
-378,673,0,0,0,0,0,0,0,0,0,-1,846,351,0,0
-371,673,0,0,0,0,0,0,0,0,0,-1,853,351,0,0
-364,673,0,0,0,0,0,0,0,0,0,-1,860,351,0,0
-357,673,0,0,0,0,0,0,0,0,0,-1,867,351,0,0
-350,673,0,0,0,0,0,0,0,0,0,-1,874,351,0,0
-343,673,0,0,0,0,0,0,0,0,0,-1,881,351,0,0
-336,673,0,0,0,0,0,0,0,0,0,-1,888,351,0,0
-329,673,0,0,0,0,0,0,0,0,0,-1,895,351,0,0
-322,673,0,0,0,0,0,0,0,0,0,-1,902,351,0,0
-315,673,0,0,0,0,0,0,0,0,0,-1,909,351,0,0
-308,673,0,0,0,0,0,0,0,0,0,-1,916,351,0,0
-301,673,0,0,0,0,0,0,0,0,0,-1,923,351,0,0
-294,673,0,0,0,0,0,0,0,0,0,-1,930,351,0,0
-287,673,0,0,0,0,0,0,0,0,0,-1,937,351,0,0
-280,673,0,0,0,0,0,0,0,0,0,-1,944,351,0,0
-273,673,0,0,0,0,0,0,0,0,0,-1,951,351,0,0
-266,673,0,0,0,0,0,0,0,0,0,-1,958,351,0,0
-259,673,0,0,0,0,0,0,0,0,0,-1,965,351,0,0
-252,673,0,0,0,0,0,0,0,0,0,-1,972,351,0,0
-245,673,0,0,0,0,0,0,0,0,0,-1,979,351,0,0
-238,673,0,0,0,0,0,0,0,0,0,-1,986,351,0,0
-231,673,0,0,0,0,0,0,0,0,0,-1,993,351,0,0
-224,673,0,0,0,0,0,0,0,0,0,-1,1000,351,0,0
-217,673,0,0,0,0,0,0,0,0,0,-1,1007,351,0,0
-210,673,0,0,0,0,0,0,0,0,0,-1,1014,351,0,0
-203,673,0,0,0,0,0,0,0,0,0,-1,1021,351,0,0
-196,673,0,0,0,0,0,0,0,0,0,-1,1028,351,0,0
-189,673,0,0,0,0,0,0,0,0,0,-1,1035,351,0,0
-182,673,0,0,0,0,0,0,0,0,0,-1,1042,351,0,0
-175,673,7.10449,-31.8279,0,0,0,0,0,0,0,-1,1049,351,7.10448,31.8279
-168,673,7.33081,-32.7122,0,0,0,0,0,0,0,-1,1056,351,7.33085,32.7122
-161,673,7.8938,-33.5352,0,0,0,0,0,0,0,-1,1063,351,7.89385,33.5352
-154,673,8.80566,-35.3518,0,0,0,0,0,0,0,-1,1070,351,8.80563,35.3518
-147,673,2.89221,-37.7351,0,0,0,0,0,0,0,-1,1077,351,2.89224,37.7351
-140,673,3.35046,-37.7151,0,0,0,0,0,0,0,-1,1084,351,3.35046,37.715
-133,673,3.35339,-39.0288,0,0,0,0,0,0,0,-1,1091,351,3.35342,39.0288
-126,673,3.7533,-38.0453,0,0,0,0,0,0,0,-1,1098,351,3.7533,38.0453
-119,673,4.1532,-37.0618,0,0,0,0,0,0,0,-1,1105,351,4.15318,37.0618
-112,673,7.27234,-32.5801,0,0,0,0,0,0,0,-1,1112,351,7.27231,32.5801
-105,673,21.1144,-43.3143,0,0,0,0,0,0,0,-1,1119,351,21.1143,43.3143
-98,673,14.8014,-36.7519,0,0,0,0,0,0,0,-1,1126,351,14.8014,36.7519
-91,673,8.54944,-29.9639,0,0,0,0,0,0,0,-1,1133,351,8.54949,29.9639
-84,673,2.17102,-24.3204,0,0,0,0,0,0,0,-1,1140,351,2.17107,24.3204
-77,673,-4.25378,-18.8346,0,0,0,0,0,0,0,-1,1147,351,-4.25381,18.8346
-70,673,-10.7933,-13.6681,0,0,0,0,0,0,0,-1,1154,351,-10.7934,13.6681
-63,673,-17.3896,-8.24469,0,0,0,0,0,0,0,-1,1161,351,-17.3896,8.2447
-56,673,-18.0282,2.79053,0,0,0,0,0,0,0,-1,1168,351,-18.0283,-2.79052
-49,673,-0.926758,-0.115448,0,0,0,0,0,0,0,-1,1175,351,-0.926732,0.115444
-42,673,-1.15015,0.289917,0,0,0,0,0,0,0,-1,1182,351,-1.15017,-0.289932
-35,673,-0.919556,-1.00711,0,0,0,0,0,0,0,-1,1189,351,-0.919514,1.00711
-28,673,5.28918,-39.2331,0,0,0,0,0,0,0,-1,1196,351,5.28924,39.2331
-21,673,7.75269,-50.8882,0,0,0,0,0,0,0,-1,1203,351,7.75264,50.8882
-14,673,7.50488,-51.1165,0.00293967,0.0597841,-0.0167093,0.0643319,-0.00160813,-1.30506,0.0434339,0.0485572,1210,351,7.50485,51.1165
-7,673,7.45654,-51.5776,0.00297869,0.0591918,-0.0172495,0.0640629,-0.00189238,-1.29557,0.0433532,0.0468311,1217,351,7.45656,51.5776
0,673,7.40356,-51.8954,0,0,0,0,0,0,0,-1,1224,351,7.40358,51.8954
7,673,7.36035,-51.5231,0,0,0,0,0,0,0,-1,1231,351,7.36038,51.5231
14,673,7.28906,-51.6108,0.00351314,0.0512397,-0.0156391,0.0559077,-0.00115494,-1.28073,0.0376627,0.0478969,1238,351,7.2891,51.6108
21,673,7.14429,-52.0254,0.0044598,0.0462023,-0.0137476,0.0503231,0.000338953,-1.27957,0.0334364,0.0346195,1245,351,7.14429,52.0254
28,673,7.13623,-52.1405,0.00527027,0.0416845,-0.0117412,0.0451419,0.00181281,-1.28442,0.0295089,0.0357171,1252,351,7.13628,52.1405
35,673,7.05847,-52.1171,0,0,0,0,0,0,0,-1,1259,351,7.05844,52.1171
42,673,6.82092,-52.2242,0.00776657,0.032679,-0.00740959,0.0347162,0.00572936,-1.30248,0.0214904,0.0399505,1266,351,6.82092,52.2242
49,673,6.70142,-52.3625,0.00782815,0.029612,-0.00506762,0.0307331,0.00670696,-1.35306,0.0186593,0.0253155,1273,351,6.70137,52.3625
56,673,6.68506,-52.3654,0.00595846,0.0277319,-0.00337306,0.0282425,0.00544789,-1.42057,0.0173007,0.0193361,1280,351,6.68509,52.3654
63,673,6.72156,-52.1594,0.00346955,0.0271867,-0.0019112,0.0273397,0.00331652,-1.4909,0.0172277,0.0225195,1287,351,6.72159,52.1593
70,673,6.64355,-52.0899,0,0,0,0,0,0,0,-1,1294,351,6.64351,52.09
77,673,6.53186,-51.8612,-0.00293348,0.0317943,-0.000303694,0.031797,-0.00293614,-1.56205,0.0222414,0.0411233,1301,351,6.5318,51.8612
84,673,6.00452,-51.8074,-0.00700777,0.0358086,-0.00076035,0.0358221,-0.00702127,-1.55305,0.0265333,0.0483345,1308,351,6.0045,51.8074
91,673,6.48499,-52.468,0,0,0,0,0,0,0,-1,1315,351,6.48493,52.468
98,673,6.15674,-52.3839,0,0,0,0,0,0,0,-1,1322,351,6.15668,52.3839
105,673,5.70068,-52.0582,0,0,0,0,0,0,0,-1,1329,351,5.70063,52.0582
112,673,5.56067,-51.8659,0,0,0,0,0,0,0,-1,1336,351,5.56068,51.8659
119,673,5.85168,-51.1686,0,0,0,0,0,0,0,-1,1343,351,5.85167,51.1686
126,673,5.68958,-51.0661,-0.0282389,0.0636354,-0.00204151,0.0636807,-0.0282842,-1.54859,0.0543911,0.0444833,1350,351,5.6896,51.0661
133,673,5.51892,-50.9072,-0.0268724,0.0642109,-0.00107625,0.0642236,-0.0268851,-1.55898,0.054054,0.0436925,1357,351,5.51889,50.9072
140,673,5.10022,-50.9793,-0.0252616,0.0646771,0.000188594,0.0646775,-0.025262,1.5687,0.053563,0.0451948,1364,351,5.10019,50.9793
147,673,5.03247,-50.7908,-0.0235331,0.0650097,0.00156569,0.0650374,-0.0235608,1.55312,0.0529876,0.0427358,1371,351,5.03247,50.7908
154,673,5.09399,-50.1043,-0.0216778,0.0646905,0.00308007,0.0648002,-0.0217875,1.53519,0.0520068,0.0423839,1378,351,5.09403,50.1043
161,673,5.50256,-49.8443,0,0,0,0,0,0,0,-1,1385,351,5.50252,49.8443
168,673,6.87061,1.83954,0,0,0,0,0,0,0,-1,1392,351,6.87063,-1.83953
175,673,6.6228,1.1459,0,0,0,0,0,0,0,-1,1399,351,6.62276,-1.14591
182,673,6.37244,0.796112,0,0,0,0,0,0,0,-1,1406,351,6.3724,-0.796102
189,673,6.12097,0.265472,0,0,0,0,0,0,0,-1,1413,351,6.121,-0.265482
196,673,6.02173,3.12717,0,0,0,0,0,0,0,-1,1420,351,6.02176,-3.12717
203,673,5.04456,1.6351,0,0,0,0,0,0,0,-1,1427,351,5.04455,-1.63509
210,673,4.79224,0.447479,0,0,0,0,0,0,0,-1,1434,351,4.79229,-0.447469
217,673,2.01648,0.972687,0,0,0,0,0,0,0,-1,1441,351,2.01644,-0.972691
224,673,2.3689,-1.80539,0,0,0,0,0,0,0,-1,1448,351,2.36896,1.80539
231,673,2.65857,-2.18497,0,0,0,0,0,0,0,-1,1455,351,2.65852,2.18496
238,673,3.77844,-2.06088,0,0,0,0,0,0,0,-1,1462,351,3.77839,2.06088
245,673,3.5376,-0.190399,0,0,0,0,0,0,0,-1,1469,351,3.53759,0.1904
252,673,3.80518,0.55603,0,0,0,0,0,0,0,-1,1476,351,3.80519,-0.556022
259,673,3.88562,1.29617,0,0,0,0,0,0,0,-1,1483,351,3.88562,-1.29618
266,673,4.22424,2.04834,0,0,0,0,0,0,0,-1,1490,351,4.22429,-2.04834
273,673,6.07886,0.385895,0,0,0,0,0,0,0,-1,1497,351,6.0789,-0.385906
280,673,6.97534,-0.0820007,0,0,0,0,0,0,0,-1,1504,351,6.97536,0.0820122
287,673,7.66968,-0.348541,0,0,0,0,0,0,0,-1,1511,351,7.66969,0.348534
294,673,8.20996,0.28537,0,0,0,0,0,0,0,-1,1518,351,8.20993,-0.28536
301,673,0,0,0,0,0,0,0,0,0,-1,1525,351,0,0
308,673,0,0,0,0,0,0,0,0,0,-1,1532,351,0,0
315,673,0,0,0,0,0,0,0,0,0,-1,1539,351,0,0
322,673,0,0,0,0,0,0,0,0,0,-1,1546,351,0,0
329,673,0,0,0,0,0,0,0,0,0,-1,1553,351,0,0
336,673,0,0,0,0,0,0,0,0,0,-1,1560,351,0,0
343,673,0,0,0,0,0,0,0,0,0,-1,1567,351,0,0
350,673,0,0,0,0,0,0,0,0,0,-1,1574,351,0,0
357,673,0,0,0,0,0,0,0,0,0,-1,1581,351,0,0
364,673,0,0,0,0,0,0,0,0,0,-1,1588,351,0,0
371,673,0,0,0,0,0,0,0,0,0,-1,1595,351,0,0
378,673,0,0,0,0,0,0,0,0,0,-1,1602,351,0,0
385,673,0,0,0,0,0,0,0,0,0,-1,1609,351,0,0
392,673,0,0,0,0,0,0,0,0,0,-1,1616,351,0,0
399,673,0,0,0,0,0,0,0,0,0,-1,1623,351,0,0
406,673,0,0,0,0,0,0,0,0,0,-1,1630,351,0,0
413,673,0,0,0,0,0,0,0,0,0,-1,1637,351,0,0
420,673,0,0,0,0,0,0,0,0,0,-1,1644,351,0,0
427,673,0,0,0,0,0,0,0,0,0,-1,1651,351,0,0
434,673,0,0,0,0,0,0,0,0,0,-1,1658,351,0,0
441,673,0,0,0,0,0,0,0,0,0,-1,1665,351,0,0
448,673,0,0,0,0,0,0,0,0,0,-1,1672,351,0,0
455,673,0,0,0,0,0,0,0,0,0,-1,1679,351,0,0
462,673,0,0,0,0,0,0,0,0,0,-1,1686,351,0,0
469,673,0,0,0,0,0,0,0,0,0,-1,1693,351,0,0
476,673,0,0,0,0,0,0,0,0,0,-1,1700,351,0,0
483,673,0,0,0,0,0,0,0,0,0,-1,1707,351,0,0
490,673,0,0,0,0,0,0,0,0,0,-1,1714,351,0,0
497,673,0,0,0,0,0,0,0,0,0,-1,1721,351,0,0
504,673,0,0,0,0,0,0,0,0,0,-1,1728,351,0,0
511,673,0,0,0,0,0,0,0,0,0,-1,1735,351,0,0
518,673,0,0,0,0,0,0,0,0,0,-1,1742,351,0,0
525,673,0,0,0,0,0,0,0,0,0,-1,1749,351,0,0
532,673,0,0,0,0,0,0,0,0,0,-1,1756,351,0,0
539,673,0,0,0,0,0,0,0,0,0,-1,1763,351,0,0
546,673,0,0,0,0,0,0,0,0,0,-1,1770,351,0,0
553,673,0,0,0,0,0,0,0,0,0,-1,1777,351,0,0
560,673,0,0,0,0,0,0,0,0,0,-1,1784,351,0,0
567,673,0,0,0,0,0,0,0,0,0,-1,1791,351,0,0
574,673,0,0,0,0,0,0,0,0,0,-1,1798,351,0,0
581,673,0,0,0,0,0,0,0,0,0,-1,1805,351,0,0
588,673,0,0,0,0,0,0,0,0,0,-1,1812,351,0,0
595,673,0,0,0,0,0,0,0,0,0,-1,1819,351,0,0
602,673,0,0,0,0,0,0,0,0,0,-1,1826,351,0,0
609,673,0,0,0,0,0,0,0,0,0,-1,1833,351,0,0
616,673,0,0,0,0,0,0,0,0,0,-1,1840,351,0,0
623,673,0,0,0,0,0,0,0,0,0,-1,1847,351,0,0
630,673,0,0,0,0,0,0,0,0,0,-1,1854,351,0,0
637,673,0,0,0,0,0,0,0,0,0,-1,1861,351,0,0
644,673,0,0,0,0,0,0,0,0,0,-1,1868,351,0,0
651,673,0,0,0,0,0,0,0,0,0,-1,1875,351,0,0
658,673,0,0,0,0,0,0,0,0,0,-1,1882,351,0,0
665,673,0,0,0,0,0,0,0,0,0,-1,1889,351,0,0
672,673,0,0,0,0,0,0,0,0,0,-1,1896,351,0,0
679,673,0,0,0,0,0,0,0,0,0,-1,1903,351,0,0
686,673,0,0,0,0,0,0,0,0,0,-1,1910,351,0,0
693,673,0,0,0,0,0,0,0,0,0,-1,1917,351,0,0
700,673,0,0,0,0,0,0,0,0,0,-1,1924,351,0,0
707,673,0,0,0,0,0,0,0,0,0,-1,1931,351,0,0
714,673,0,0,0,0,0,0,0,0,0,-1,1938,351,0,0
721,673,0,0,0,0,0,0,0,0,0,-1,1945,351,0,0
728,673,0,0,0,0,0,0,0,0,0,-1,1952,351,0,0
735,673,0,0,0,0,0,0,0,0,0,-1,1959,351,0,0
742,673,0,0,0,0,0,0,0,0,0,-1,1966,351,0,0
749,673,0,0,0,0,0,0,0,0,0,-1,1973,351,0,0
756,673,0,0,0,0,0,0,0,0,0,-1,1980,351,0,0
763,673,0,0,0,0,0,0,0,0,0,-1,1987,351,0,0
770,673,0,0,0,0,0,0,0,0,0,-1,1994,351,0,0
777,673,0,0,0,0,0,0,0,0,0,-1,2001,351,0,0
784,673,0,0,0,0,0,0,0,0,0,-1,2008,351,0,0
791,673,0,0,0,0,0,0,0,0,0,-1,2015,351,0,0
798,673,0,0,0,0,0,0,0,0,0,-1,2022,351,0,0
805,673,0,0,0,0,0,0,0,0,0,-1,2029,351,0,0
812,673,0,0,0,0,0,0,0,0,0,-1,2036,351,0,0
-700,666,0,0,0,0,0,0,0,0,0,-1,524,358,0,0
-693,666,0,0,0,0,0,0,0,0,0,-1,531,358,0,0
-686,666,0,0,0,0,0,0,0,0,0,-1,538,358,0,0
-679,666,0,0,0,0,0,0,0,0,0,-1,545,358,0,0
-672,666,0,0,0,0,0,0,0,0,0,-1,552,358,0,0
-665,666,0,0,0,0,0,0,0,0,0,-1,559,358,0,0
-658,666,0,0,0,0,0,0,0,0,0,-1,566,358,0,0
-651,666,0,0,0,0,0,0,0,0,0,-1,573,358,0,0
-644,666,0,0,0,0,0,0,0,0,0,-1,580,358,0,0
-637,666,0,0,0,0,0,0,0,0,0,-1,587,358,0,0
-630,666,0,0,0,0,0,0,0,0,0,-1,594,358,0,0
-623,666,0,0,0,0,0,0,0,0,0,-1,601,358,0,0
-616,666,0,0,0,0,0,0,0,0,0,-1,608,358,0,0
-609,666,0,0,0,0,0,0,0,0,0,-1,615,358,0,0
-602,666,0,0,0,0,0,0,0,0,0,-1,622,358,0,0
-595,666,0,0,0,0,0,0,0,0,0,-1,629,358,0,0
-588,666,0,0,0,0,0,0,0,0,0,-1,636,358,0,0
-581,666,0,0,0,0,0,0,0,0,0,-1,643,358,0,0
-574,666,0,0,0,0,0,0,0,0,0,-1,650,358,0,0
-567,666,0,0,0,0,0,0,0,0,0,-1,657,358,0,0
-560,666,0,0,0,0,0,0,0,0,0,-1,664,358,0,0
-553,666,0,0,0,0,0,0,0,0,0,-1,671,358,0,0
-546,666,0,0,0,0,0,0,0,0,0,-1,678,358,0,0
-539,666,0,0,0,0,0,0,0,0,0,-1,685,358,0,0
-532,666,0,0,0,0,0,0,0,0,0,-1,692,358,0,0
-525,666,0,0,0,0,0,0,0,0,0,-1,699,358,0,0
-518,666,0,0,0,0,0,0,0,0,0,-1,706,358,0,0
-511,666,0,0,0,0,0,0,0,0,0,-1,713,358,0,0
-504,666,0,0,0,0,0,0,0,0,0,-1,720,358,0,0
-497,666,0,0,0,0,0,0,0,0,0,-1,727,358,0,0
-490,666,0,0,0,0,0,0,0,0,0,-1,734,358,0,0
-483,666,0,0,0,0,0,0,0,0,0,-1,741,358,0,0
-476,666,0,0,0,0,0,0,0,0,0,-1,748,358,0,0
-469,666,0,0,0,0,0,0,0,0,0,-1,755,358,0,0
-462,666,0,0,0,0,0,0,0,0,0,-1,762,358,0,0
-455,666,0,0,0,0,0,0,0,0,0,-1,769,358,0,0
-448,666,0,0,0,0,0,0,0,0,0,-1,776,358,0,0
-441,666,0,0,0,0,0,0,0,0,0,-1,783,358,0,0
-434,666,0,0,0,0,0,0,0,0,0,-1,790,358,0,0
-427,666,0,0,0,0,0,0,0,0,0,-1,797,358,0,0
-420,666,0,0,0,0,0,0,0,0,0,-1,804,358,0,0
-413,666,0,0,0,0,0,0,0,0,0,-1,811,358,0,0
-406,666,0,0,0,0,0,0,0,0,0,-1,818,358,0,0
-399,666,0,0,0,0,0,0,0,0,0,-1,825,358,0,0
-392,666,0,0,0,0,0,0,0,0,0,-1,832,358,0,0
-385,666,0,0,0,0,0,0,0,0,0,-1,839,358,0,0
-378,666,0,0,0,0,0,0,0,0,0,-1,846,358,0,0
-371,666,0,0,0,0,0,0,0,0,0,-1,853,358,0,0
-364,666,0,0,0,0,0,0,0,0,0,-1,860,358,0,0
-357,666,0,0,0,0,0,0,0,0,0,-1,867,358,0,0
-350,666,0,0,0,0,0,0,0,0,0,-1,874,358,0,0
-343,666,0,0,0,0,0,0,0,0,0,-1,881,358,0,0
-336,666,0,0,0,0,0,0,0,0,0,-1,888,358,0,0
-329,666,0,0,0,0,0,0,0,0,0,-1,895,358,0,0
-322,666,0,0,0,0,0,0,0,0,0,-1,902,358,0,0
-315,666,0,0,0,0,0,0,0,0,0,-1,909,358,0,0
-308,666,0,0,0,0,0,0,0,0,0,-1,916,358,0,0
-301,666,0,0,0,0,0,0,0,0,0,-1,923,358,0,0
-294,666,0,0,0,0,0,0,0,0,0,-1,930,358,0,0
-287,666,0,0,0,0,0,0,0,0,0,-1,937,358,0,0
-280,666,0,0,0,0,0,0,0,0,0,-1,944,358,0,0
-273,666,0,0,0,0,0,0,0,0,0,-1,951,358,0,0
-266,666,0,0,0,0,0,0,0,0,0,-1,958,358,0,0
-259,666,0,0,0,0,0,0,0,0,0,-1,965,358,0,0
-252,666,0,0,0,0,0,0,0,0,0,-1,972,358,0,0
-245,666,0,0,0,0,0,0,0,0,0,-1,979,358,0,0
-238,666,0,0,0,0,0,0,0,0,0,-1,986,358,0,0
-231,666,0,0,0,0,0,0,0,0,0,-1,993,358,0,0
-224,666,0,0,0,0,0,0,0,0,0,-1,1000,358,0,0
-217,666,0,0,0,0,0,0,0,0,0,-1,1007,358,0,0
-210,666,0,0,0,0,0,0,0,0,0,-1,1014,358,0,0
-203,666,0,0,0,0,0,0,0,0,0,-1,1021,358,0,0
-196,666,4.03418,-28.8724,0,0,0,0,0,0,0,-1,1028,358,4.03422,28.8724
-189,666,5.00366,-29.597,0,0,0,0,0,0,0,-1,1035,358,5.00363,29.597
-182,666,6.83252,-30.9843,0,0,0,0,0,0,0,-1,1042,358,6.83247,30.9844
-175,666,7.01611,-31.8763,0,0,0,0,0,0,0,-1,1049,358,7.01617,31.8762
-168,666,7.21545,-32.7414,0,0,0,0,0,0,0,-1,1056,358,7.2154,32.7414
-161,666,7.69116,-33.6269,0,0,0,0,0,0,0,-1,1063,358,7.69121,33.6269
-154,666,3.79041,-37.9204,0,0,0,0,0,0,0,-1,1070,358,3.79034,37.9204
-147,666,4.17908,-37.7466,0,0,0,0,0,0,0,-1,1077,358,4.17912,37.7466
-140,666,4.54309,-37.735,0,0,0,0,0,0,0,-1,1084,358,4.54304,37.735
-133,666,4.65723,-39.0643,0,0,0,0,0,0,0,-1,1091,358,4.65727,39.0643
-126,666,5.02368,-38.0699,0,0,0,0,0,0,0,-1,1098,358,5.02363,38.0698
-119,666,5.39001,-37.0754,0,0,0,0,0,0,0,-1,1105,358,5.38999,37.0754
-112,666,6.77014,-32.8165,0,0,0,0,0,0,0,-1,1112,358,6.77013,32.8165
-105,666,6.30908,-29.0855,0,0,0,0,0,0,0,-1,1119,358,6.30905,29.0855
-98,666,15.4427,-31.5168,0,0,0,0,0,0,0,-1,1126,358,15.4428,31.5168
-91,666,9.5127,-25.1347,0,0,0,0,0,0,0,-1,1133,358,9.51269,25.1347
-84,666,2.91589,-19.4071,0,0,0,0,0,0,0,-1,1140,358,2.91592,19.4071
-77,666,-3.48083,-14.0782,0,0,0,0,0,0,0,-1,1147,358,-3.48081,14.0782
-70,666,-9.99438,-8.90146,0,0,0,0,0,0,0,-1,1154,358,-9.99433,8.90146
-63,666,-11.7778,-0.975189,0,0,0,0,0,0,0,-1,1161,358,-11.7778,0.97519
-56,666,0.424683,-2.04132,0,0,0,0,0,0,0,-1,1168,358,0.424665,2.04132
-49,666,0.754395,-2.23169,0,0,0,0,0,0,0,-1,1175,358,0.754383,2.23169
-42,666,1.34473,-3.53897,0,0,0,0,0,0,0,-1,1182,358,1.34476,3.53896
-35,666,7.44666,-51.172,0,0,0,0,0,0,0,-1,1189,358,7.4467,51.172
-28,666,7.58655,-51.246,0,0,0,0,0,0,0,-1,1196,358,7.58651,51.246
-21,666,7.51819,-51.2654,-0.00186403,0.0436313,-0.0116058,0.0464208,-0.0046536,-1.33491,0.0326093,0.0410552,1203,358,7.51824,51.2654
-14,666,7.32874,-51.486,-0.00168995,0.0444688,-0.0123105,0.0475468,-0.00476792,-1.32579,0.0334008,0.0364848,1210,358,7.32875,51.486
-7,666,7.29858,-51.7307,-0.00120389,0.04454,-0.0128092,0.0478826,-0.0045465,-1.31554,0.0335401,0.0223007,1217,358,7.2986,51.7307
0,666,7.28296,-51.9845,-0.000998308,0.0440509,-0.0129088,0.0474877,-0.0044351,-1.3106,0.0332356,0.015389,1224,358,7.28295,51.9845
7,666,7.15527,-52.0729,-0.00032597,0.0424555,-0.0126553,0.0459188,-0.00378921,-1.30368,0.0319506,0.0217227,1231,358,7.15523,52.0729
14,666,7.08899,-52.1198,0.000428466,0.0400896,-0.0118202,0.0433452,-0.00282708,-1.30204,0.0298837,0.0211819,1238,358,7.08902,52.1198
21,666,7.0166,-52.3614,0.00140956,0.0367609,-0.0104471,0.0396175,-0.00144698,-1.30389,0.026907,0.016108,1245,358,7.01658,52.3614
28,666,6.97034,-52.5081,0.0021606,0.0339267,-0.00899459,0.0362967,-0.000209399,-1.31316,0.0242679,0.0239603,1252,358,6.97035,52.5081
35,666,6.92175,-52.4916,0.00297782,0.0311499,-0.00750124,0.0330227,0.001105,-1.32613,0.0216562,0.0221815,1259,358,6.92173,52.4916
42,666,6.79846,-52.5836,0.00404538,0.0281564,-0.0058355,0.0294945,0.00270729,-1.34539,0.0188256,0.0169563,1266,358,6.79851,52.5836
49,666,6.71069,-52.679,0.00406362,0.0261023,-0.0040168,0.0268115,0.00335433,-1.39602,0.0168678,0.0169142,1273,358,6.71073,52.679
56,666,6.67847,-52.7066,0.00267156,0.0247328,-0.00264871,0.0250463,0.00235801,-1.45297,0.0159697,0.0180194,1280,358,6.67843,52.7066
63,666,6.63916,-52.7832,0.000895038,0.0242355,-0.00142968,0.0243227,0.000807792,-1.50985,0.0159527,0.0189599,1287,358,6.63916,52.7832
70,666,6.51563,-52.9041,0,0,0,0,0,0,0,-1,1294,358,6.51558,52.9041
77,666,6.52539,-52.6118,-0.00370655,0.0274712,0.000104841,0.0274716,-0.00370691,1.56743,0.0196668,0.0232185,1301,358,6.5254,52.6118
84,666,6.52844,-52.6595,-0.00684742,0.0304919,-0.000183118,0.0304928,-0.00684831,-1.56589,0.0229544,0.0327173,1308,358,6.52839,52.6595
91,666,6.41785,-52.6641,-0.0103316,0.0340245,-0.000318674,0.0340267,-0.0103339,-1.56361,0.0268016,0.0275356,1315,358,6.4179,52.6641
98,666,6.22803,-52.5561,-0.0137799,0.0374547,-0.000510227,0.0374598,-0.013785,-1.56084,0.0306206,0.0243334,1322,358,6.22803,52.5561
105,666,6.05798,-52.3862,-0.0162837,0.0411193,-0.000633543,0.0411263,-0.0162907,-1.55976,0.0341678,0.0275616,1329,358,6.05804,52.3862
112,666,5.99207,-52.2223,0,0,0,0,0,0,0,-1,1336,358,5.99212,52.2223
119,666,5.80884,-51.7399,0,0,0,0,0,0,0,-1,1343,358,5.80883,51.7399
126,666,5.78418,-51.5818,-0.0213783,0.0507804,-0.000999114,0.0507942,-0.0213922,-1.55695,0.0428137,0.0350952,1350,358,5.78423,51.5818
133,666,5.72375,-51.4576,-0.0203102,0.0511202,-0.000302107,0.0511215,-0.0203115,-1.56657,0.0425013,0.0296347,1357,358,5.72375,51.4576
140,666,5.64966,-51.381,-0.0190585,0.0512621,0.000664823,0.0512684,-0.0190648,1.56134,0.0420018,0.0316303,1364,358,5.64967,51.3809
147,666,5.51587,-51.173,-0.0177618,0.0513817,0.00162976,0.0514201,-0.0178002,1.54724,0.0415059,0.028323,1371,358,5.51591,51.173
154,666,5.547,-50.692,-0.0163509,0.0508785,0.00266919,0.0509843,-0.0164567,1.53118,0.0406024,0.0259613,1378,358,5.54697,50.692
161,666,5.60132,-50.3843,-0.0147162,0.0498135,0.00400312,0.0500609,-0.0149636,1.50908,0.0393226,0.0341019,1385,358,5.60132,50.3843
168,666,5.48376,-50.455,0,0,0,0,0,0,0,-1,1392,358,5.48383,50.4549
175,666,5.5509,-50.2256,0,0,0,0,0,0,0,-1,1399,358,5.55094,50.2256
182,666,2.60876,-5.17068,0,0,0,0,0,0,0,-1,1406,358,2.6088,5.17068
189,666,2.46973,-5.49979,0,0,0,0,0,0,0,-1,1413,358,2.46975,5.49979
196,666,2.32458,-5.23651,0,0,0,0,0,0,0,-1,1420,358,2.32461,5.23653
203,666,2.28064,-3.88004,0,0,0,0,0,0,0,-1,1427,358,2.28059,3.88003
210,666,3.02576,-5.83548,0,0,0,0,0,0,0,-1,1434,358,3.02581,5.83547
217,666,2.30444,-5.36011,0,0,0,0,0,0,0,-1,1441,358,2.30447,5.3601
224,666,1.82324,-6.03101,0,0,0,0,0,0,0,-1,1448,358,1.82322,6.031
231,666,2.29797,-10.1093,0,0,0,0,0,0,0,-1,1455,358,2.29801,10.1093
238,666,2.52429,-6.10568,0,0,0,0,0,0,0,-1,1462,358,2.52423,6.10567
245,666,4.53345,-1.38205,0,0,0,0,0,0,0,-1,1469,358,4.53349,1.38204
252,666,4.77405,-0.246979,0,0,0,0,0,0,0,-1,1476,358,4.77405,0.246993
259,666,4.83655,1.14087,0,0,0,0,0,0,0,-1,1483,358,4.83652,-1.14087
266,666,6.14148,0.749512,0,0,0,0,0,0,0,-1,1490,358,6.14144,-0.749519
273,666,3.17737,-33.7881,0,0,0,0,0,0,0,-1,1497,358,3.17735,33.7881
280,666,3.37268,-35.2123,0,0,0,0,0,0,0,-1,1504,358,3.37266,35.2123
287,666,-7.06934,-20.3464,0,0,0,0,0,0,0,-1,1511,358,-7.06933,20.3464
294,666,-2.75305,-22.1353,0,0,0,0,0,0,0,-1,1518,358,-2.75305,22.1353
301,666,-4.77222,-21.6957,0,0,0,0,0,0,0,-1,1525,358,-4.77218,21.6957
308,666,-7.45471,-24.766,0,0,0,0,0,0,0,-1,1532,358,-7.45475,24.766
315,666,1.76294,-0.284027,0,0,0,0,0,0,0,-1,1539,358,1.76291,0.284016
322,666,0,0,0,0,0,0,0,0,0,-1,1546,358,0,0
329,666,0,0,0,0,0,0,0,0,0,-1,1553,358,0,0
336,666,0,0,0,0,0,0,0,0,0,-1,1560,358,0,0
343,666,0,0,0,0,0,0,0,0,0,-1,1567,358,0,0
350,666,0,0,0,0,0,0,0,0,0,-1,1574,358,0,0
357,666,0,0,0,0,0,0,0,0,0,-1,1581,358,0,0
364,666,0,0,0,0,0,0,0,0,0,-1,1588,358,0,0
371,666,0,0,0,0,0,0,0,0,0,-1,1595,358,0,0
378,666,0,0,0,0,0,0,0,0,0,-1,1602,358,0,0
385,666,0,0,0,0,0,0,0,0,0,-1,1609,358,0,0
392,666,0,0,0,0,0,0,0,0,0,-1,1616,358,0,0
399,666,0,0,0,0,0,0,0,0,0,-1,1623,358,0,0
406,666,0,0,0,0,0,0,0,0,0,-1,1630,358,0,0
413,666,0,0,0,0,0,0,0,0,0,-1,1637,358,0,0
420,666,0,0,0,0,0,0,0,0,0,-1,1644,358,0,0
427,666,0,0,0,0,0,0,0,0,0,-1,1651,358,0,0
434,666,0,0,0,0,0,0,0,0,0,-1,1658,358,0,0
441,666,0,0,0,0,0,0,0,0,0,-1,1665,358,0,0
448,666,0,0,0,0,0,0,0,0,0,-1,1672,358,0,0
455,666,0,0,0,0,0,0,0,0,0,-1,1679,358,0,0
462,666,0,0,0,0,0,0,0,0,0,-1,1686,358,0,0
469,666,0,0,0,0,0,0,0,0,0,-1,1693,358,0,0
476,666,0,0,0,0,0,0,0,0,0,-1,1700,358,0,0
483,666,0,0,0,0,0,0,0,0,0,-1,1707,358,0,0
490,666,0,0,0,0,0,0,0,0,0,-1,1714,358,0,0
497,666,0,0,0,0,0,0,0,0,0,-1,1721,358,0,0
504,666,0,0,0,0,0,0,0,0,0,-1,1728,358,0,0
511,666,0,0,0,0,0,0,0,0,0,-1,1735,358,0,0
518,666,0,0,0,0,0,0,0,0,0,-1,1742,358,0,0
525,666,0,0,0,0,0,0,0,0,0,-1,1749,358,0,0
532,666,0,0,0,0,0,0,0,0,0,-1,1756,358,0,0
539,666,0,0,0,0,0,0,0,0,0,-1,1763,358,0,0
546,666,0,0,0,0,0,0,0,0,0,-1,1770,358,0,0
553,666,0,0,0,0,0,0,0,0,0,-1,1777,358,0,0
560,666,0,0,0,0,0,0,0,0,0,-1,1784,358,0,0
567,666,0,0,0,0,0,0,0,0,0,-1,1791,358,0,0
574,666,0,0,0,0,0,0,0,0,0,-1,1798,358,0,0
581,666,0,0,0,0,0,0,0,0,0,-1,1805,358,0,0
588,666,0,0,0,0,0,0,0,0,0,-1,1812,358,0,0
595,666,0,0,0,0,0,0,0,0,0,-1,1819,358,0,0
602,666,0,0,0,0,0,0,0,0,0,-1,1826,358,0,0
609,666,0,0,0,0,0,0,0,0,0,-1,1833,358,0,0
616,666,0,0,0,0,0,0,0,0,0,-1,1840,358,0,0
623,666,0,0,0,0,0,0,0,0,0,-1,1847,358,0,0
630,666,0,0,0,0,0,0,0,0,0,-1,1854,358,0,0
637,666,0,0,0,0,0,0,0,0,0,-1,1861,358,0,0
644,666,0,0,0,0,0,0,0,0,0,-1,1868,358,0,0
651,666,0,0,0,0,0,0,0,0,0,-1,1875,358,0,0
658,666,0,0,0,0,0,0,0,0,0,-1,1882,358,0,0
665,666,0,0,0,0,0,0,0,0,0,-1,1889,358,0,0
672,666,0,0,0,0,0,0,0,0,0,-1,1896,358,0,0
679,666,0,0,0,0,0,0,0,0,0,-1,1903,358,0,0
686,666,0,0,0,0,0,0,0,0,0,-1,1910,358,0,0
693,666,0,0,0,0,0,0,0,0,0,-1,1917,358,0,0
700,666,0,0,0,0,0,0,0,0,0,-1,1924,358,0,0
707,666,0,0,0,0,0,0,0,0,0,-1,1931,358,0,0
714,666,0,0,0,0,0,0,0,0,0,-1,1938,358,0,0
721,666,0,0,0,0,0,0,0,0,0,-1,1945,358,0,0
728,666,0,0,0,0,0,0,0,0,0,-1,1952,358,0,0
735,666,0,0,0,0,0,0,0,0,0,-1,1959,358,0,0
742,666,0,0,0,0,0,0,0,0,0,-1,1966,358,0,0
749,666,0,0,0,0,0,0,0,0,0,-1,1973,358,0,0
756,666,0,0,0,0,0,0,0,0,0,-1,1980,358,0,0
763,666,0,0,0,0,0,0,0,0,0,-1,1987,358,0,0
770,666,0,0,0,0,0,0,0,0,0,-1,1994,358,0,0
777,666,0,0,0,0,0,0,0,0,0,-1,2001,358,0,0
784,666,0,0,0,0,0,0,0,0,0,-1,2008,358,0,0
791,666,0,0,0,0,0,0,0,0,0,-1,2015,358,0,0
798,666,0,0,0,0,0,0,0,0,0,-1,2022,358,0,0
805,666,0,0,0,0,0,0,0,0,0,-1,2029,358,0,0
812,666,0,0,0,0,0,0,0,0,0,-1,2036,358,0,0
-700,659,0,0,0,0,0,0,0,0,0,-1,524,365,0,0
-693,659,0,0,0,0,0,0,0,0,0,-1,531,365,0,0
-686,659,0,0,0,0,0,0,0,0,0,-1,538,365,0,0
-679,659,0,0,0,0,0,0,0,0,0,-1,545,365,0,0
-672,659,0,0,0,0,0,0,0,0,0,-1,552,365,0,0
-665,659,0,0,0,0,0,0,0,0,0,-1,559,365,0,0
-658,659,0,0,0,0,0,0,0,0,0,-1,566,365,0,0
-651,659,0,0,0,0,0,0,0,0,0,-1,573,365,0,0
-644,659,0,0,0,0,0,0,0,0,0,-1,580,365,0,0
-637,659,0,0,0,0,0,0,0,0,0,-1,587,365,0,0
-630,659,0,0,0,0,0,0,0,0,0,-1,594,365,0,0
-623,659,0,0,0,0,0,0,0,0,0,-1,601,365,0,0
-616,659,0,0,0,0,0,0,0,0,0,-1,608,365,0,0
-609,659,0,0,0,0,0,0,0,0,0,-1,615,365,0,0
-602,659,0,0,0,0,0,0,0,0,0,-1,622,365,0,0
-595,659,0,0,0,0,0,0,0,0,0,-1,629,365,0,0
-588,659,0,0,0,0,0,0,0,0,0,-1,636,365,0,0
-581,659,0,0,0,0,0,0,0,0,0,-1,643,365,0,0
-574,659,0,0,0,0,0,0,0,0,0,-1,650,365,0,0
-567,659,0,0,0,0,0,0,0,0,0,-1,657,365,0,0
-560,659,0,0,0,0,0,0,0,0,0,-1,664,365,0,0
-553,659,0,0,0,0,0,0,0,0,0,-1,671,365,0,0
-546,659,0,0,0,0,0,0,0,0,0,-1,678,365,0,0
-539,659,0,0,0,0,0,0,0,0,0,-1,685,365,0,0
-532,659,0,0,0,0,0,0,0,0,0,-1,692,365,0,0
-525,659,0,0,0,0,0,0,0,0,0,-1,699,365,0,0
-518,659,0,0,0,0,0,0,0,0,0,-1,706,365,0,0
-511,659,0,0,0,0,0,0,0,0,0,-1,713,365,0,0
-504,659,0,0,0,0,0,0,0,0,0,-1,720,365,0,0
-497,659,0,0,0,0,0,0,0,0,0,-1,727,365,0,0
-490,659,0,0,0,0,0,0,0,0,0,-1,734,365,0,0
-483,659,0,0,0,0,0,0,0,0,0,-1,741,365,0,0
-476,659,0,0,0,0,0,0,0,0,0,-1,748,365,0,0
-469,659,0,0,0,0,0,0,0,0,0,-1,755,365,0,0
-462,659,0,0,0,0,0,0,0,0,0,-1,762,365,0,0
-455,659,0,0,0,0,0,0,0,0,0,-1,769,365,0,0
-448,659,0,0,0,0,0,0,0,0,0,-1,776,365,0,0
-441,659,0,0,0,0,0,0,0,0,0,-1,783,365,0,0
-434,659,0,0,0,0,0,0,0,0,0,-1,790,365,0,0
-427,659,0,0,0,0,0,0,0,0,0,-1,797,365,0,0
-420,659,0,0,0,0,0,0,0,0,0,-1,804,365,0,0
-413,659,0,0,0,0,0,0,0,0,0,-1,811,365,0,0
-406,659,0,0,0,0,0,0,0,0,0,-1,818,365,0,0
-399,659,0,0,0,0,0,0,0,0,0,-1,825,365,0,0
-392,659,0,0,0,0,0,0,0,0,0,-1,832,365,0,0
-385,659,0,0,0,0,0,0,0,0,0,-1,839,365,0,0
-378,659,0,0,0,0,0,0,0,0,0,-1,846,365,0,0
-371,659,0,0,0,0,0,0,0,0,0,-1,853,365,0,0
-364,659,0,0,0,0,0,0,0,0,0,-1,860,365,0,0
-357,659,0,0,0,0,0,0,0,0,0,-1,867,365,0,0
-350,659,0,0,0,0,0,0,0,0,0,-1,874,365,0,0
-343,659,0,0,0,0,0,0,0,0,0,-1,881,365,0,0
-336,659,0,0,0,0,0,0,0,0,0,-1,888,365,0,0
-329,659,0,0,0,0,0,0,0,0,0,-1,895,365,0,0
-322,659,0,0,0,0,0,0,0,0,0,-1,902,365,0,0
-315,659,0,0,0,0,0,0,0,0,0,-1,909,365,0,0
-308,659,0,0,0,0,0,0,0,0,0,-1,916,365,0,0
-301,659,0,0,0,0,0,0,0,0,0,-1,923,365,0,0
-294,659,0,0,0,0,0,0,0,0,0,-1,930,365,0,0
-287,659,0,0,0,0,0,0,0,0,0,-1,937,365,0,0
-280,659,0,0,0,0,0,0,0,0,0,-1,944,365,0,0
-273,659,0,0,0,0,0,0,0,0,0,-1,951,365,0,0
-266,659,0,0,0,0,0,0,0,0,0,-1,958,365,0,0
-259,659,0,0,0,0,0,0,0,0,0,-1,965,365,0,0
-252,659,0,0,0,0,0,0,0,0,0,-1,972,365,0,0
-245,659,0,0,0,0,0,0,0,0,0,-1,979,365,0,0
-238,659,0,0,0,0,0,0,0,0,0,-1,986,365,0,0
-231,659,0,0,0,0,0,0,0,0,0,-1,993,365,0,0
-224,659,0,0,0,0,0,0,0,0,0,-1,1000,365,0,0
-217,659,10.1305,-25.2622,0,0,0,0,0,0,0,-1,1007,365,10.1305,25.2622
-210,659,9.65643,-25.515,0,0,0,0,0,0,0,-1,1014,365,9.65642,25.515
-203,659,8.58911,-25.7432,0,0,0,0,0,0,0,-1,1021,365,8.58916,25.7432
-196,659,2.68323,-27.8121,0,0,0,0,0,0,0,-1,1028,365,2.6832,27.8121
-189,659,6.88049,-28.9412,0,0,0,0,0,0,0,-1,1035,365,6.88045,28.9412
-182,659,6.94189,-30.6316,0,0,0,0,0,0,0,-1,1042,365,6.94189,30.6316
-175,659,6.948,-32.0092,0,0,0,0,0,0,0,-1,1049,365,6.94798,32.0093
-168,659,7.1416,-32.7405,0,0,0,0,0,0,0,-1,1056,365,7.14157,32.7405
-161,659,7.57361,-33.7099,0,0,0,0,0,0,0,-1,1063,365,7.57355,33.7099
-154,659,7.71448,-34.8995,0,0,0,0,0,0,0,-1,1070,365,7.7145,34.8995
-147,659,5.46606,-37.758,0,0,0,0,0,0,0,-1,1077,365,5.46601,37.758
-140,659,5.7356,-37.755,0,0,0,0,0,0,0,-1,1084,365,5.73562,37.755
-133,659,5.91455,-37.9017,0,0,0,0,0,0,0,-1,1091,365,5.9146,37.9017
-126,659,6.31226,-37.9904,0,0,0,0,0,0,0,-1,1098,365,6.3122,37.9904
-119,659,6.26941,-35.0837,0,0,0,0,0,0,0,-1,1105,365,6.26943,35.0837
-112,659,6.24353,-35.0562,0,0,0,0,0,0,0,-1,1112,365,6.24349,35.0562
-105,659,5.38696,-30.5854,0,0,0,0,0,0,0,-1,1119,365,5.387,30.5854
-98,659,4.68042,-26.2438,0,0,0,0,0,0,0,-1,1126,365,4.68041,26.2438
-91,659,4.20776,-20.8654,0,0,0,0,0,0,0,-1,1133,365,4.20777,20.8654
-84,659,2.8584,-17.8303,0,0,0,0,0,0,0,-1,1140,365,2.85836,17.8303
-77,659,2.80139,-15.3457,0,0,0,0,0,0,0,-1,1147,365,2.80139,15.3457
-70,659,2.9353,-12.7028,0,0,0,0,0,0,0,-1,1154,365,2.93533,12.7028
-63,659,2.11267,-9.7796,0,0,0,0,0,0,0,-1,1161,365,2.11266,9.7796
-56,659,2.11182,-9.91541,0,0,0,0,0,0,0,-1,1168,365,2.11178,9.91541
-49,659,7.49902,-50.4968,0,0,0,0,0,0,0,-1,1175,365,7.499,50.4968
-42,659,7.25745,-51.0233,0,0,0,0,0,0,0,-1,1182,365,7.25745,51.0233
-35,659,7.40723,-51.0947,-0.00532833,0.0275055,-0.00644612,0.0287257,-0.00654853,-1.38372,0.0216658,0.0430922,1189,365,7.40722,51.0947
-28,659,7.38879,-51.2772,-0.00473914,0.0295741,-0.00773006,0.0312351,-0.00640015,-1.35914,0.0232523,0.0169234,1196,365,7.38883,51.2772
-21,659,7.31201,-51.5379,-0.00422225,0.0312098,-0.00810817,0.0329771,-0.00598955,-1.35619,0.0242293,0.0148511,1203,365,7.31205,51.5379
-14,659,7.21643,-51.7882,-0.00374467,0.0322242,-0.00868695,0.0342123,-0.00573279,-1.34581,0.0249398,0.0123802,1210,365,7.21642,51.7882
-7,659,7.15271,-51.9772,-0.00310136,0.0325891,-0.00910746,0.0347787,-0.00529106,-1.33485,0.0251358,0.0117295,1217,365,7.15265,51.9772
0,659,7.11658,-52.1501,-0.00265395,0.0325004,-0.00923435,0.0347784,-0.004932,-1.32893,0.0249924,0.00964236,1224,365,7.11654,52.1501
7,659,7.06555,-52.2856,-0.0018788,0.0316656,-0.00913445,0.0339917,-0.0042049,-1.32144,0.0241849,0.00923972,1231,365,7.06558,52.2856
14,659,6.98962,-52.3846,-0.00109933,0.0302869,-0.00858786,0.032483,-0.00329546,-1.32044,0.0228333,0.0114886,1238,365,6.98958,52.3846
21,659,6.93689,-52.5175,-0.000201871,0.0281664,-0.00765101,0.0300983,-0.0021338,-1.32346,0.0208133,0.0113091,1245,365,6.93688,52.5175
28,659,6.87146,-52.6418,0.000452951,0.0264677,-0.00665228,0.0280701,-0.00114942,-1.33442,0.019108,0.0115592,1252,365,6.8715,52.6419
35,659,6.82349,-52.7222,0.00108662,0.0248206,-0.00563312,0.0260897,-0.0001825,-1.3492,0.0174543,0.0132755,1259,365,6.82348,52.7222
42,659,6.77942,-52.8035,0.00184063,0.0229648,-0.00444359,0.0238615,0.000943953,-1.37168,0.0156025,0.0144131,1266,365,6.77942,52.8035
49,659,6.70642,-52.8831,0.00184269,0.0216832,-0.00309127,0.0221537,0.00137221,-1.41976,0.0143336,0.0159685,1273,365,6.70639,52.883
56,659,6.62463,-52.9059,0.000842572,0.020789,-0.00205078,0.0209977,0.000633907,-1.4694,0.013792,0.019717,1280,365,6.62463,52.9059
63,659,6.61633,-52.9466,-0.000395159,0.0204235,-0.00109728,0.0204812,-0.000452834,-1.51828,0.0138075,0.0182034,1287,365,6.61636,52.9466
70,659,6.51367,-52.9369,-0.0018371,0.021013,-0.000260995,0.021016,-0.00184008,-1.55938,0.0146625,0.018653,1294,365,6.51373,52.9369
77,659,6.40564,-52.8828,-0.00360213,0.0226583,0.000251069,0.0226607,-0.00360453,1.56124,0.0164409,0.0193292,1301,365,6.4056,52.8828
84,659,6.40186,-52.8694,-0.00592024,0.0248538,7.88315e-05,0.024854,-0.00592044,1.56823,0.0188553,0.0143728,1308,365,6.40185,52.8694
91,659,6.3606,-52.8096,-0.00844027,0.0273878,-1.95106e-05,0.0273878,-0.00844028,-1.57025,0.0216281,0.0128836,1315,365,6.36065,52.8096
98,659,6.29761,-52.6973,-0.0108284,0.0298168,-0.000146634,0.0298173,-0.0108289,-1.56719,0.0243057,0.00957595,1322,365,6.29756,52.6973
105,659,6.24475,-52.541,-0.0124586,0.0324631,-0.000187978,0.0324639,-0.0124593,-1.56661,0.0267799,0.0106078,1329,365,6.24478,52.541
112,659,6.19763,-52.3799,-0.0141924,0.0351829,-0.000239093,0.0351841,-0.0141936,-1.56595,0.0293543,0.0166199,1336,365,6.19763,52.3799
119,659,6.11926,-52.215,-0.0152296,0.0372743,-0.000356932,0.0372767,-0.0152321,-1.564,0.0311938,0.0191879,1343,365,6.1192,52.215
126,659,6.02515,-52.0165,-0.0154778,0.0391629,-0.00035871,0.0391652,-0.0154802,-1.56423,0.0325224,0.0149794,1350,365,6.02513,52.0165
133,659,5.94824,-51.832,-0.0147008,0.0393792,0.000146646,0.0393796,-0.0147012,1.56808,0.0322891,0.0135159,1357,365,5.94824,51.832
140,659,5.89307,-51.6616,-0.0137914,0.0393884,0.000882583,0.0394031,-0.0138061,1.55421,0.0318832,0.0119842,1364,365,5.89304,51.6616
147,659,5.84985,-51.4424,-0.0128762,0.0394691,0.00156411,0.0395158,-0.0129229,1.54095,0.0315465,0.010689,1371,365,5.84988,51.4424
154,659,5.77173,-51.1613,-0.0118631,0.0390319,0.00230023,0.0391357,-0.0119669,1.52572,0.0308627,0.0122471,1378,365,5.77175,51.1613
161,659,5.74219,-50.8651,-0.0107405,0.0381955,0.00326462,0.0384123,-0.0109573,1.50448,0.0299367,0.0139388,1385,365,5.74218,50.8651
168,659,5.70361,-50.5517,-0.00970351,0.0365087,0.00429381,0.0369043,-0.0100991,1.47893,0.0285705,0.0202344,1392,365,5.70366,50.5517
175,659,5.65417,-50.2502,-0.00874649,0.0351303,0.00524671,0.035749,-0.00936515,1.45342,0.0274913,0.0427266,1399,365,5.65423,50.2502
182,659,5.47253,-50.0275,0,0,0,0,0,0,0,-1,1406,365,5.47254,50.0275
189,659,5.49426,-49.5262,0,0,0,0,0,0,0,-1,1413,365,5.49421,49.5262
196,659,2.41248,-13.4371,0,0,0,0,0,0,0,-1,1420,365,2.41243,13.4371
203,659,2.38623,-12.2163,0,0,0,0,0,0,0,-1,1427,365,2.38617,12.2163
210,659,2.20789,-13.9792,0,0,0,0,0,0,0,-1,1434,365,2.20794,13.9792
217,659,2.24121,-13.487,0,0,0,0,0,0,0,-1,1441,365,2.24116,13.487
224,659,2.3479,-15.2926,0,0,0,0,0,0,0,-1,1448,365,2.34793,15.2926
231,659,2.47974,-17.8629,0,0,0,0,0,0,0,-1,1455,365,2.47976,17.8628
238,659,3.57886,-21.1258,0,0,0,0,0,0,0,-1,1462,365,3.57889,21.1258
245,659,3.29883,-25.0283,0,0,0,0,0,0,0,-1,1469,365,3.29889,25.0283
252,659,2.81909,-24.1604,0,0,0,0,0,0,0,-1,1476,365,2.81905,24.1604
259,659,2.33069,-3.36703,0,0,0,0,0,0,0,-1,1483,365,2.33073,3.36702
266,659,3.40918,-35.2544,0,0,0,0,0,0,0,-1,1490,365,3.40913,35.2544
273,659,4.45557,-42.3683,0,0,0,0,0,0,0,-1,1497,365,4.45554,42.3683
280,659,4.87903,-41.4995,0,0,0,0,0,0,0,-1,1504,365,4.87898,41.4995
287,659,1.14026,-22.5556,0,0,0,0,0,0,0,-1,1511,365,1.14021,22.5556
294,659,-0.6521,-22.2559,0,0,0,0,0,0,0,-1,1518,365,-0.652115,22.2559
301,659,-2.75232,-21.7347,0,0,0,0,0,0,0,-1,1525,365,-2.75235,21.7347
308,659,-4.59692,-21.4031,0,0,0,0,0,0,0,-1,1532,365,-4.59689,21.4031
315,659,-6.78564,-21.0916,0,0,0,0,0,0,0,-1,1539,365,-6.78563,21.0916
322,659,-8.245,-20.894,0,0,0,0,0,0,0,-1,1546,365,-8.245,20.894
329,659,-7.67749,-23.0449,0,0,0,0,0,0,0,-1,1553,365,-7.67745,23.0449
336,659,-7.71436,-22.4188,0,0,0,0,0,0,0,-1,1560,365,-7.71432,22.4188
343,659,0,0,0,0,0,0,0,0,0,-1,1567,365,0,0
350,659,0,0,0,0,0,0,0,0,0,-1,1574,365,0,0
357,659,0,0,0,0,0,0,0,0,0,-1,1581,365,0,0
364,659,0,0,0,0,0,0,0,0,0,-1,1588,365,0,0
371,659,0,0,0,0,0,0,0,0,0,-1,1595,365,0,0
378,659,0,0,0,0,0,0,0,0,0,-1,1602,365,0,0
385,659,0,0,0,0,0,0,0,0,0,-1,1609,365,0,0
392,659,0,0,0,0,0,0,0,0,0,-1,1616,365,0,0
399,659,0,0,0,0,0,0,0,0,0,-1,1623,365,0,0
406,659,0,0,0,0,0,0,0,0,0,-1,1630,365,0,0
413,659,0,0,0,0,0,0,0,0,0,-1,1637,365,0,0
420,659,0,0,0,0,0,0,0,0,0,-1,1644,365,0,0
427,659,0,0,0,0,0,0,0,0,0,-1,1651,365,0,0
434,659,0,0,0,0,0,0,0,0,0,-1,1658,365,0,0
441,659,0,0,0,0,0,0,0,0,0,-1,1665,365,0,0
448,659,0,0,0,0,0,0,0,0,0,-1,1672,365,0,0
455,659,0,0,0,0,0,0,0,0,0,-1,1679,365,0,0
462,659,0,0,0,0,0,0,0,0,0,-1,1686,365,0,0
469,659,0,0,0,0,0,0,0,0,0,-1,1693,365,0,0
476,659,0,0,0,0,0,0,0,0,0,-1,1700,365,0,0
483,659,0,0,0,0,0,0,0,0,0,-1,1707,365,0,0
490,659,0,0,0,0,0,0,0,0,0,-1,1714,365,0,0
497,659,0,0,0,0,0,0,0,0,0,-1,1721,365,0,0
504,659,0,0,0,0,0,0,0,0,0,-1,1728,365,0,0
511,659,0,0,0,0,0,0,0,0,0,-1,1735,365,0,0
518,659,0,0,0,0,0,0,0,0,0,-1,1742,365,0,0
525,659,0,0,0,0,0,0,0,0,0,-1,1749,365,0,0
532,659,0,0,0,0,0,0,0,0,0,-1,1756,365,0,0
539,659,0,0,0,0,0,0,0,0,0,-1,1763,365,0,0
546,659,0,0,0,0,0,0,0,0,0,-1,1770,365,0,0
553,659,0,0,0,0,0,0,0,0,0,-1,1777,365,0,0
560,659,0,0,0,0,0,0,0,0,0,-1,1784,365,0,0
567,659,0,0,0,0,0,0,0,0,0,-1,1791,365,0,0
574,659,0,0,0,0,0,0,0,0,0,-1,1798,365,0,0
581,659,0,0,0,0,0,0,0,0,0,-1,1805,365,0,0
588,659,0,0,0,0,0,0,0,0,0,-1,1812,365,0,0
595,659,0,0,0,0,0,0,0,0,0,-1,1819,365,0,0
602,659,0,0,0,0,0,0,0,0,0,-1,1826,365,0,0
609,659,0,0,0,0,0,0,0,0,0,-1,1833,365,0,0
616,659,0,0,0,0,0,0,0,0,0,-1,1840,365,0,0
623,659,0,0,0,0,0,0,0,0,0,-1,1847,365,0,0
630,659,0,0,0,0,0,0,0,0,0,-1,1854,365,0,0
637,659,0,0,0,0,0,0,0,0,0,-1,1861,365,0,0
644,659,0,0,0,0,0,0,0,0,0,-1,1868,365,0,0
651,659,0,0,0,0,0,0,0,0,0,-1,1875,365,0,0
658,659,0,0,0,0,0,0,0,0,0,-1,1882,365,0,0
665,659,0,0,0,0,0,0,0,0,0,-1,1889,365,0,0
672,659,0,0,0,0,0,0,0,0,0,-1,1896,365,0,0
679,659,0,0,0,0,0,0,0,0,0,-1,1903,365,0,0
686,659,0,0,0,0,0,0,0,0,0,-1,1910,365,0,0
693,659,0,0,0,0,0,0,0,0,0,-1,1917,365,0,0
700,659,0,0,0,0,0,0,0,0,0,-1,1924,365,0,0
707,659,0,0,0,0,0,0,0,0,0,-1,1931,365,0,0
714,659,0,0,0,0,0,0,0,0,0,-1,1938,365,0,0
721,659,0,0,0,0,0,0,0,0,0,-1,1945,365,0,0
728,659,0,0,0,0,0,0,0,0,0,-1,1952,365,0,0
735,659,0,0,0,0,0,0,0,0,0,-1,1959,365,0,0
742,659,0,0,0,0,0,0,0,0,0,-1,1966,365,0,0
749,659,0,0,0,0,0,0,0,0,0,-1,1973,365,0,0
756,659,0,0,0,0,0,0,0,0,0,-1,1980,365,0,0
763,659,0,0,0,0,0,0,0,0,0,-1,1987,365,0,0
770,659,0,0,0,0,0,0,0,0,0,-1,1994,365,0,0
777,659,0,0,0,0,0,0,0,0,0,-1,2001,365,0,0
784,659,0,0,0,0,0,0,0,0,0,-1,2008,365,0,0
791,659,0,0,0,0,0,0,0,0,0,-1,2015,365,0,0
798,659,0,0,0,0,0,0,0,0,0,-1,2022,365,0,0
805,659,0,0,0,0,0,0,0,0,0,-1,2029,365,0,0
812,659,0,0,0,0,0,0,0,0,0,-1,2036,365,0,0
-700,652,0,0,0,0,0,0,0,0,0,-1,524,372,0,0
-693,652,0,0,0,0,0,0,0,0,0,-1,531,372,0,0
-686,652,0,0,0,0,0,0,0,0,0,-1,538,372,0,0
-679,652,0,0,0,0,0,0,0,0,0,-1,545,372,0,0
-672,652,0,0,0,0,0,0,0,0,0,-1,552,372,0,0
-665,652,0,0,0,0,0,0,0,0,0,-1,559,372,0,0
-658,652,0,0,0,0,0,0,0,0,0,-1,566,372,0,0
-651,652,0,0,0,0,0,0,0,0,0,-1,573,372,0,0
-644,652,0,0,0,0,0,0,0,0,0,-1,580,372,0,0
-637,652,0,0,0,0,0,0,0,0,0,-1,587,372,0,0
-630,652,0,0,0,0,0,0,0,0,0,-1,594,372,0,0
-623,652,0,0,0,0,0,0,0,0,0,-1,601,372,0,0
-616,652,0,0,0,0,0,0,0,0,0,-1,608,372,0,0
-609,652,0,0,0,0,0,0,0,0,0,-1,615,372,0,0
-602,652,0,0,0,0,0,0,0,0,0,-1,622,372,0,0
-595,652,0,0,0,0,0,0,0,0,0,-1,629,372,0,0
-588,652,0,0,0,0,0,0,0,0,0,-1,636,372,0,0
-581,652,0,0,0,0,0,0,0,0,0,-1,643,372,0,0
-574,652,0,0,0,0,0,0,0,0,0,-1,650,372,0,0
-567,652,0,0,0,0,0,0,0,0,0,-1,657,372,0,0
-560,652,0,0,0,0,0,0,0,0,0,-1,664,372,0,0
-553,652,0,0,0,0,0,0,0,0,0,-1,671,372,0,0
-546,652,0,0,0,0,0,0,0,0,0,-1,678,372,0,0
-539,652,0,0,0,0,0,0,0,0,0,-1,685,372,0,0
-532,652,0,0,0,0,0,0,0,0,0,-1,692,372,0,0
-525,652,0,0,0,0,0,0,0,0,0,-1,699,372,0,0
-518,652,0,0,0,0,0,0,0,0,0,-1,706,372,0,0
-511,652,0,0,0,0,0,0,0,0,0,-1,713,372,0,0
-504,652,0,0,0,0,0,0,0,0,0,-1,720,372,0,0
-497,652,0,0,0,0,0,0,0,0,0,-1,727,372,0,0
-490,652,0,0,0,0,0,0,0,0,0,-1,734,372,0,0
-483,652,0,0,0,0,0,0,0,0,0,-1,741,372,0,0
-476,652,0,0,0,0,0,0,0,0,0,-1,748,372,0,0
-469,652,0,0,0,0,0,0,0,0,0,-1,755,372,0,0
-462,652,0,0,0,0,0,0,0,0,0,-1,762,372,0,0
-455,652,0,0,0,0,0,0,0,0,0,-1,769,372,0,0
-448,652,0,0,0,0,0,0,0,0,0,-1,776,372,0,0
-441,652,0,0,0,0,0,0,0,0,0,-1,783,372,0,0
-434,652,0,0,0,0,0,0,0,0,0,-1,790,372,0,0
-427,652,0,0,0,0,0,0,0,0,0,-1,797,372,0,0
-420,652,0,0,0,0,0,0,0,0,0,-1,804,372,0,0
-413,652,0,0,0,0,0,0,0,0,0,-1,811,372,0,0
-406,652,0,0,0,0,0,0,0,0,0,-1,818,372,0,0
-399,652,0,0,0,0,0,0,0,0,0,-1,825,372,0,0
-392,652,0,0,0,0,0,0,0,0,0,-1,832,372,0,0
-385,652,0,0,0,0,0,0,0,0,0,-1,839,372,0,0
-378,652,0,0,0,0,0,0,0,0,0,-1,846,372,0,0
-371,652,0,0,0,0,0,0,0,0,0,-1,853,372,0,0
-364,652,0,0,0,0,0,0,0,0,0,-1,860,372,0,0
-357,652,0,0,0,0,0,0,0,0,0,-1,867,372,0,0
-350,652,0,0,0,0,0,0,0,0,0,-1,874,372,0,0
-343,652,0,0,0,0,0,0,0,0,0,-1,881,372,0,0
-336,652,0,0,0,0,0,0,0,0,0,-1,888,372,0,0
-329,652,0,0,0,0,0,0,0,0,0,-1,895,372,0,0
-322,652,0,0,0,0,0,0,0,0,0,-1,902,372,0,0
-315,652,0,0,0,0,0,0,0,0,0,-1,909,372,0,0
-308,652,0,0,0,0,0,0,0,0,0,-1,916,372,0,0
-301,652,0,0,0,0,0,0,0,0,0,-1,923,372,0,0
-294,652,0,0,0,0,0,0,0,0,0,-1,930,372,0,0
-287,652,0,0,0,0,0,0,0,0,0,-1,937,372,0,0
-280,652,0,0,0,0,0,0,0,0,0,-1,944,372,0,0
-273,652,0,0,0,0,0,0,0,0,0,-1,951,372,0,0
-266,652,0,0,0,0,0,0,0,0,0,-1,958,372,0,0
-259,652,0,0,0,0,0,0,0,0,0,-1,965,372,0,0
-252,652,0,0,0,0,0,0,0,0,0,-1,972,372,0,0
-245,652,0,0,0,0,0,0,0,0,0,-1,979,372,0,0
-238,652,0,0,0,0,0,0,0,0,0,-1,986,372,0,0
-231,652,8.79358,-27.1656,0,0,0,0,0,0,0,-1,993,372,8.79357,27.1656
-224,652,8.84552,-27.675,0,0,0,0,0,0,0,-1,1000,372,8.84555,27.675
-217,652,9.03113,-27.7474,0,0,0,0,0,0,0,-1,1007,372,9.0311,27.7474
-210,652,9.72803,-30.4624,0,0,0,0,0,0,0,-1,1014,372,9.72805,30.4624
-203,652,7.2677,-26.0732,0,0,0,0,0,0,0,-1,1021,372,7.26775,26.0732
-196,652,5.90686,-26.957,0,0,0,0,0,0,0,-1,1028,372,5.9068,26.957
-189,652,6.21326,-28.3035,0,0,0,0,0,0,0,-1,1035,372,6.21331,28.3035
-182,652,6.45068,-29.9377,0,0,0,0,0,0,0,-1,1042,372,6.45074,29.9377
-175,652,6.72559,-31.6948,0,0,0,0,0,0,0,-1,1049,372,6.72563,31.6948
-168,652,7.08533,-32.8669,0,0,0,0,0,0,0,-1,1056,372,7.08532,32.8669
-161,652,7.85291,-37.3545,0,0,0,0,0,0,0,-1,1063,372,7.85294,37.3545
-154,652,7.54639,-37.9586,0,0,0,0,0,0,0,-1,1070,372,7.54642,37.9586
-147,652,7.85571,-42.3712,0,0,0,0,0,0,0,-1,1077,372,7.8557,42.3712
-140,652,5.6842,-33.9781,0,0,0,0,0,0,0,-1,1084,372,5.68421,33.9781
-133,652,6.3009,-35.2887,0,0,0,0,0,0,0,-1,1091,372,6.30093,35.2887
-126,652,5.86841,-37.0981,0,0,0,0,0,0,0,-1,1098,372,5.86845,37.0981
-119,652,7.9762,-46.1061,0,0,0,0,0,0,0,-1,1105,372,7.97619,46.1061
-112,652,7.75159,-46.4601,0,0,0,0,0,0,0,-1,1112,372,7.75156,46.4601
-105,652,6.63855,-39.9965,0,0,0,0,0,0,0,-1,1119,372,6.63852,39.9965
-98,652,5.84302,-35.2455,0,0,0,0,0,0,0,-1,1126,372,5.84307,35.2455
-91,652,5.66296,-32.9003,0,0,0,0,0,0,0,-1,1133,372,5.66297,32.9003
-84,652,5.46057,-34.9186,0,0,0,0,0,0,0,-1,1140,372,5.46057,34.9186
-77,652,7.52979,-48.9684,0,0,0,0,0,0,0,-1,1147,372,7.52973,48.9684
-70,652,7.47961,-49.4825,0,0,0,0,0,0,0,-1,1154,372,7.4796,49.4826
-63,652,7.43384,-49.796,0,0,0,0,0,0,0,-1,1161,372,7.43384,49.796
-56,652,7.31421,-50.1826,0,0,0,0,0,0,0,-1,1168,372,7.31417,50.1826
-49,652,7.30078,-50.528,-0.00838595,0.0129597,-0.00237264,0.0132203,-0.0086465,-1.46142,0.0127165,0.0381093,1175,372,7.30084,50.528
-42,652,7.23315,-50.777,-0.00663052,0.0164505,-0.00296489,0.0168252,-0.00700529,-1.44506,0.0141426,0.0130402,1182,372,7.23321,50.777
-35,652,7.20447,-51.0521,-0.00614873,0.0181751,-0.00391633,0.0187901,-0.00676374,-1.41503,0.0152885,0.0103323,1189,372,7.20448,51.0521
-28,652,7.14685,-51.3205,-0.00576966,0.0197116,-0.00470615,0.020553,-0.00661106,-1.39388,0.0163573,0.00828987,1196,372,7.14681,51.3204
-21,652,7.08154,-51.5865,-0.00501749,0.0209998,-0.00511457,0.0219691,-0.00598682,-1.3835,0.0169968,0.00879963,1203,372,7.08149,51.5865
-14,652,7.04419,-51.8029,-0.00425261,0.0218943,-0.00558067,0.0230356,-0.0053939,-1.36907,0.0174354,0.010621,1210,372,7.04419,51.8029
-7,652,6.98669,-52.0165,-0.00351349,0.0222989,-0.00594484,0.0236022,-0.00481683,-1.35497,0.017562,0.0130712,1217,372,6.98675,52.0165
0,652,6.94055,-52.201,-0.00286595,0.0223817,-0.00614377,0.0237974,-0.00428159,-1.34433,0.0174679,0.0130504,1224,372,6.94051,52.201
7,652,6.9071,-52.3221,-0.00206272,0.0220525,-0.00621103,0.0235582,-0.0035684,-1.33296,0.0170201,0.0135343,1231,372,6.90705,52.3221
14,652,6.87158,-52.4663,-0.00130812,0.02138,-0.00594421,0.022843,-0.00277115,-1.32947,0.0162314,0.0114009,1238,372,6.87159,52.4663
21,652,6.82349,-52.6148,-0.000547505,0.0201621,-0.00539241,0.0214821,-0.00186747,-1.33074,0.0149827,0.010137,1245,372,6.82348,52.6148
28,652,6.7854,-52.7431,-6.05723e-06,0.0192996,-0.00477763,0.0204172,-0.00112369,-1.341,0.0140011,0.00955817,1252,372,6.78535,52.7431
35,652,6.73914,-52.8186,0.000419464,0.0185128,-0.00413278,0.0194121,-0.000479826,-1.35654,0.0131043,0.0108432,1259,372,6.7391,52.8186
42,652,6.7002,-52.8877,0.000835272,0.0175586,-0.00330138,0.0181868,0.000207135,-1.38278,0.0120561,0.012345,1266,372,6.70023,52.8877
49,652,6.68713,-52.948,0.000677311,0.0169564,-0.00230451,0.0172764,0.000357369,-1.43284,0.0114003,0.0147312,1273,372,6.68713,52.948
56,652,6.64771,-52.9516,-0.000128228,0.0164775,-0.00150224,0.0166123,-0.000263035,-1.4813,0.0111636,0.0168295,1280,372,6.6477,52.9516
63,652,6.60059,-53.007,-0.000973299,0.0163318,-0.00076996,0.016366,-0.00100749,-1.52642,0.0112615,0.021306,1287,372,6.60058,53.007
70,652,6.52295,-52.9735,-0.00187187,0.016669,-4.32426e-05,0.0166691,-0.00187197,-1.56846,0.0117864,0.0186894,1294,372,6.523,52.9735
77,652,6.43677,-52.9413,-0.00308098,0.0177782,0.000468017,0.0177887,-0.00309147,1.54837,0.0130126,0.017198,1301,372,6.43681,52.9413
84,652,6.474,-52.9173,-0.00473011,0.0192301,0.000471415,0.0192394,-0.00473938,1.55113,0.0146636,0.015395,1308,372,6.47401,52.9173
91,652,6.43079,-52.8907,-0.00643373,0.0208334,0.000412248,0.0208396,-0.00643996,1.55568,0.016465,0.0193543,1315,372,6.43083,52.8907
98,652,6.38916,-52.7843,-0.00785897,0.0223461,0.000355518,0.0223503,-0.00786316,1.55903,0.0180998,0.0151845,1322,372,6.38914,52.7843
105,652,6.34485,-52.6275,-0.00869772,0.024089,0.000358406,0.0240929,-0.00870164,1.55987,0.0196167,0.0123017,1329,372,6.34485,52.6275
112,652,6.30847,-52.4734,-0.00951616,0.0258366,0.000311714,0.0258393,-0.00951891,1.56198,0.0211265,0.0110767,1336,372,6.30846,52.4734
119,652,6.26843,-52.3135,-0.00995512,0.0271526,0.000213434,0.0271538,-0.00995635,1.56504,0.0221792,0.0117722,1343,372,6.26842,52.3135
126,652,6.20093,-52.1317,-0.00994828,0.0284541,0.000179848,0.0284549,-0.00994912,1.56611,0.0230147,0.0129464,1350,372,6.20092,52.1317
133,652,6.13367,-51.9331,-0.00948693,0.0286983,0.000508987,0.0287051,-0.00949372,1.55747,0.022965,0.0134466,1357,372,6.13368,51.9331
140,652,6.1012,-51.7315,-0.00894339,0.0287656,0.00103488,0.028794,-0.00897177,1.54338,0.0227832,0.0104065,1364,372,6.1012,51.7315
147,652,6.07593,-51.5039,-0.00842723,0.0289565,0.00149143,0.0290159,-0.00848664,1.53099,0.0227078,0.00963921,1371,372,6.07596,51.5039
154,652,6.03418,-51.2515,-0.00782112,0.0287291,0.00200959,0.0288392,-0.00793128,1.51603,0.0223442,0.00989485,1378,372,6.03413,51.2515
161,652,5.97388,-50.9604,-0.00721761,0.0282862,0.00268661,0.0284884,-0.00741976,1.4957,0.0218888,0.0121572,1385,372,5.97385,50.9603
168,652,5.92761,-50.6373,-0.00675828,0.027151,0.00339868,0.0274883,-0.00709557,1.47188,0.0210924,0.0131284,1392,372,5.92756,50.6373
175,652,5.88818,-50.3168,-0.00639566,0.0260857,0.00405306,0.0265838,-0.00689377,1.44851,0.0204123,0.0130405,1399,372,5.88821,50.3168
182,652,5.80493,-50.0237,-0.00611603,0.0244359,0.00465255,0.0251287,-0.00680883,1.42298,0.019424,0.0193193,1406,372,5.80499,50.0237
189,652,5.77039,-49.6861,-0.00533281,0.0219875,0.0052661,0.0229675,-0.00631272,1.38682,0.0177932,0.0313248,1413,372,5.77033,49.6861
196,652,5.71484,-49.3183,0,0,0,0,0,0,0,-1,1420,372,5.71488,49.3183
203,652,5.65881,-48.9099,0,0,0,0,0,0,0,-1,1427,372,5.65882,48.9098
210,652,5.68311,-48.4111,0,0,0,0,0,0,0,-1,1434,372,5.68306,48.4111
217,652,5.552,-46.4379,0,0,0,0,0,0,0,-1,1441,372,5.55203,46.4379
224,652,3.63794,-31.2791,0,0,0,0,0,0,0,-1,1448,372,3.63799,31.2791
231,652,3.83936,-30.4812,0,0,0,0,0,0,0,-1,1455,372,3.8393,30.4812
238,652,4.42358,-36.4103,0,0,0,0,0,0,0,-1,1462,372,4.4236,36.4103
245,652,4.53296,-41.8512,0,0,0,0,0,0,0,-1,1469,372,4.5329,41.8512
252,652,5.15295,-45.5712,0,0,0,0,0,0,0,-1,1476,372,5.1529,45.5712
259,652,3.44922,-31.2655,0,0,0,0,0,0,0,-1,1483,372,3.44921,31.2655
266,652,4.7323,-44.1472,0,0,0,0,0,0,0,-1,1490,372,4.7323,44.1472
273,652,4.95496,-43.7052,0,0,0,0,0,0,0,-1,1497,372,4.95491,43.7052
280,652,4.05066,-24.6993,0,0,0,0,0,0,0,-1,1504,372,4.05066,24.6993
287,652,3.19897,-22.5679,0,0,0,0,0,0,0,-1,1511,372,3.19892,22.5679
294,652,1.36951,-22.3085,0,0,0,0,0,0,0,-1,1518,372,1.36947,22.3085
301,652,-0.737549,-21.8051,0,0,0,0,0,0,0,-1,1525,372,-0.737578,21.8051
308,652,-2.57666,-21.5525,0,0,0,0,0,0,0,-1,1532,372,-2.5766,21.5525
315,652,-4.21008,-21.5407,0,0,0,0,0,0,0,-1,1539,372,-4.21006,21.5407
322,652,-5.69116,-21.7166,0,0,0,0,0,0,0,-1,1546,372,-5.6911,21.7166
329,652,-7.12329,-21.7065,0,0,0,0,0,0,0,-1,1553,372,-7.12334,21.7065
336,652,-3.56519,-22.3688,0,0,0,0,0,0,0,-1,1560,372,-3.56517,22.3688
343,652,-3.58069,-21.9185,0,0,0,0,0,0,0,-1,1567,372,-3.58069,21.9185
350,652,5.28394,-25.6715,0,0,0,0,0,0,0,-1,1574,372,5.28393,25.6715
357,652,0,0,0,0,0,0,0,0,0,-1,1581,372,0,0
364,652,0,0,0,0,0,0,0,0,0,-1,1588,372,0,0
371,652,0,0,0,0,0,0,0,0,0,-1,1595,372,0,0
378,652,0,0,0,0,0,0,0,0,0,-1,1602,372,0,0
385,652,0,0,0,0,0,0,0,0,0,-1,1609,372,0,0
392,652,0,0,0,0,0,0,0,0,0,-1,1616,372,0,0
399,652,0,0,0,0,0,0,0,0,0,-1,1623,372,0,0
406,652,0,0,0,0,0,0,0,0,0,-1,1630,372,0,0
413,652,0,0,0,0,0,0,0,0,0,-1,1637,372,0,0
420,652,0,0,0,0,0,0,0,0,0,-1,1644,372,0,0
427,652,0,0,0,0,0,0,0,0,0,-1,1651,372,0,0
434,652,0,0,0,0,0,0,0,0,0,-1,1658,372,0,0
441,652,0,0,0,0,0,0,0,0,0,-1,1665,372,0,0
448,652,0,0,0,0,0,0,0,0,0,-1,1672,372,0,0
455,652,0,0,0,0,0,0,0,0,0,-1,1679,372,0,0
462,652,0,0,0,0,0,0,0,0,0,-1,1686,372,0,0
469,652,0,0,0,0,0,0,0,0,0,-1,1693,372,0,0
476,652,0,0,0,0,0,0,0,0,0,-1,1700,372,0,0
483,652,0,0,0,0,0,0,0,0,0,-1,1707,372,0,0
490,652,0,0,0,0,0,0,0,0,0,-1,1714,372,0,0
497,652,0,0,0,0,0,0,0,0,0,-1,1721,372,0,0
504,652,0,0,0,0,0,0,0,0,0,-1,1728,372,0,0
511,652,0,0,0,0,0,0,0,0,0,-1,1735,372,0,0
518,652,0,0,0,0,0,0,0,0,0,-1,1742,372,0,0
525,652,0,0,0,0,0,0,0,0,0,-1,1749,372,0,0
532,652,0,0,0,0,0,0,0,0,0,-1,1756,372,0,0
539,652,0,0,0,0,0,0,0,0,0,-1,1763,372,0,0
546,652,0,0,0,0,0,0,0,0,0,-1,1770,372,0,0
553,652,0,0,0,0,0,0,0,0,0,-1,1777,372,0,0
560,652,0,0,0,0,0,0,0,0,0,-1,1784,372,0,0
567,652,0,0,0,0,0,0,0,0,0,-1,1791,372,0,0
574,652,0,0,0,0,0,0,0,0,0,-1,1798,372,0,0
581,652,0,0,0,0,0,0,0,0,0,-1,1805,372,0,0
588,652,0,0,0,0,0,0,0,0,0,-1,1812,372,0,0
595,652,0,0,0,0,0,0,0,0,0,-1,1819,372,0,0
602,652,0,0,0,0,0,0,0,0,0,-1,1826,372,0,0
609,652,0,0,0,0,0,0,0,0,0,-1,1833,372,0,0
616,652,0,0,0,0,0,0,0,0,0,-1,1840,372,0,0
623,652,0,0,0,0,0,0,0,0,0,-1,1847,372,0,0
630,652,0,0,0,0,0,0,0,0,0,-1,1854,372,0,0
637,652,0,0,0,0,0,0,0,0,0,-1,1861,372,0,0
644,652,0,0,0,0,0,0,0,0,0,-1,1868,372,0,0
651,652,0,0,0,0,0,0,0,0,0,-1,1875,372,0,0
658,652,0,0,0,0,0,0,0,0,0,-1,1882,372,0,0
665,652,0,0,0,0,0,0,0,0,0,-1,1889,372,0,0
672,652,0,0,0,0,0,0,0,0,0,-1,1896,372,0,0
679,652,0,0,0,0,0,0,0,0,0,-1,1903,372,0,0
686,652,0,0,0,0,0,0,0,0,0,-1,1910,372,0,0
693,652,0,0,0,0,0,0,0,0,0,-1,1917,372,0,0
700,652,0,0,0,0,0,0,0,0,0,-1,1924,372,0,0
707,652,0,0,0,0,0,0,0,0,0,-1,1931,372,0,0
714,652,0,0,0,0,0,0,0,0,0,-1,1938,372,0,0
721,652,0,0,0,0,0,0,0,0,0,-1,1945,372,0,0
728,652,0,0,0,0,0,0,0,0,0,-1,1952,372,0,0
735,652,0,0,0,0,0,0,0,0,0,-1,1959,372,0,0
742,652,0,0,0,0,0,0,0,0,0,-1,1966,372,0,0
749,652,0,0,0,0,0,0,0,0,0,-1,1973,372,0,0
756,652,0,0,0,0,0,0,0,0,0,-1,1980,372,0,0
763,652,0,0,0,0,0,0,0,0,0,-1,1987,372,0,0
770,652,0,0,0,0,0,0,0,0,0,-1,1994,372,0,0
777,652,0,0,0,0,0,0,0,0,0,-1,2001,372,0,0
784,652,0,0,0,0,0,0,0,0,0,-1,2008,372,0,0
791,652,0,0,0,0,0,0,0,0,0,-1,2015,372,0,0
798,652,0,0,0,0,0,0,0,0,0,-1,2022,372,0,0
805,652,0,0,0,0,0,0,0,0,0,-1,2029,372,0,0
812,652,0,0,0,0,0,0,0,0,0,-1,2036,372,0,0
-700,645,0,0,0,0,0,0,0,0,0,-1,524,379,0,0
-693,645,0,0,0,0,0,0,0,0,0,-1,531,379,0,0
-686,645,0,0,0,0,0,0,0,0,0,-1,538,379,0,0
-679,645,0,0,0,0,0,0,0,0,0,-1,545,379,0,0
-672,645,0,0,0,0,0,0,0,0,0,-1,552,379,0,0
-665,645,0,0,0,0,0,0,0,0,0,-1,559,379,0,0
-658,645,0,0,0,0,0,0,0,0,0,-1,566,379,0,0
-651,645,0,0,0,0,0,0,0,0,0,-1,573,379,0,0
-644,645,0,0,0,0,0,0,0,0,0,-1,580,379,0,0
-637,645,0,0,0,0,0,0,0,0,0,-1,587,379,0,0
-630,645,0,0,0,0,0,0,0,0,0,-1,594,379,0,0
-623,645,0,0,0,0,0,0,0,0,0,-1,601,379,0,0
-616,645,0,0,0,0,0,0,0,0,0,-1,608,379,0,0
-609,645,0,0,0,0,0,0,0,0,0,-1,615,379,0,0
-602,645,0,0,0,0,0,0,0,0,0,-1,622,379,0,0
-595,645,0,0,0,0,0,0,0,0,0,-1,629,379,0,0
-588,645,0,0,0,0,0,0,0,0,0,-1,636,379,0,0
-581,645,0,0,0,0,0,0,0,0,0,-1,643,379,0,0
-574,645,0,0,0,0,0,0,0,0,0,-1,650,379,0,0
-567,645,0,0,0,0,0,0,0,0,0,-1,657,379,0,0
-560,645,0,0,0,0,0,0,0,0,0,-1,664,379,0,0
-553,645,0,0,0,0,0,0,0,0,0,-1,671,379,0,0
-546,645,0,0,0,0,0,0,0,0,0,-1,678,379,0,0
-539,645,0,0,0,0,0,0,0,0,0,-1,685,379,0,0
-532,645,0,0,0,0,0,0,0,0,0,-1,692,379,0,0
-525,645,0,0,0,0,0,0,0,0,0,-1,699,379,0,0
-518,645,0,0,0,0,0,0,0,0,0,-1,706,379,0,0
-511,645,0,0,0,0,0,0,0,0,0,-1,713,379,0,0
-504,645,0,0,0,0,0,0,0,0,0,-1,720,379,0,0
-497,645,0,0,0,0,0,0,0,0,0,-1,727,379,0,0
-490,645,0,0,0,0,0,0,0,0,0,-1,734,379,0,0
-483,645,0,0,0,0,0,0,0,0,0,-1,741,379,0,0
-476,645,0,0,0,0,0,0,0,0,0,-1,748,379,0,0
-469,645,0,0,0,0,0,0,0,0,0,-1,755,379,0,0
-462,645,0,0,0,0,0,0,0,0,0,-1,762,379,0,0
-455,645,0,0,0,0,0,0,0,0,0,-1,769,379,0,0
-448,645,0,0,0,0,0,0,0,0,0,-1,776,379,0,0
-441,645,0,0,0,0,0,0,0,0,0,-1,783,379,0,0
-434,645,0,0,0,0,0,0,0,0,0,-1,790,379,0,0
-427,645,0,0,0,0,0,0,0,0,0,-1,797,379,0,0
-420,645,0,0,0,0,0,0,0,0,0,-1,804,379,0,0
-413,645,0,0,0,0,0,0,0,0,0,-1,811,379,0,0
-406,645,0,0,0,0,0,0,0,0,0,-1,818,379,0,0
-399,645,0,0,0,0,0,0,0,0,0,-1,825,379,0,0
-392,645,0,0,0,0,0,0,0,0,0,-1,832,379,0,0
-385,645,0,0,0,0,0,0,0,0,0,-1,839,379,0,0
-378,645,0,0,0,0,0,0,0,0,0,-1,846,379,0,0
-371,645,0,0,0,0,0,0,0,0,0,-1,853,379,0,0
-364,645,0,0,0,0,0,0,0,0,0,-1,860,379,0,0
-357,645,0,0,0,0,0,0,0,0,0,-1,867,379,0,0
-350,645,0,0,0,0,0,0,0,0,0,-1,874,379,0,0
-343,645,0,0,0,0,0,0,0,0,0,-1,881,379,0,0
-336,645,0,0,0,0,0,0,0,0,0,-1,888,379,0,0
-329,645,0,0,0,0,0,0,0,0,0,-1,895,379,0,0
-322,645,0,0,0,0,0,0,0,0,0,-1,902,379,0,0
-315,645,0,0,0,0,0,0,0,0,0,-1,909,379,0,0
-308,645,0,0,0,0,0,0,0,0,0,-1,916,379,0,0
-301,645,0,0,0,0,0,0,0,0,0,-1,923,379,0,0
-294,645,0,0,0,0,0,0,0,0,0,-1,930,379,0,0
-287,645,0,0,0,0,0,0,0,0,0,-1,937,379,0,0
-280,645,0,0,0,0,0,0,0,0,0,-1,944,379,0,0
-273,645,0,0,0,0,0,0,0,0,0,-1,951,379,0,0
-266,645,0,0,0,0,0,0,0,0,0,-1,958,379,0,0
-259,645,0,0,0,0,0,0,0,0,0,-1,965,379,0,0
-252,645,2.95691,-26.9133,0,0,0,0,0,0,0,-1,972,379,2.9569,26.9133
-245,645,2.73169,-27.0215,0,0,0,0,0,0,0,-1,979,379,2.73172,27.0215
-238,645,2.6665,-26.9464,0,0,0,0,0,0,0,-1,986,379,2.66649,26.9464
-231,645,7.26807,-29.1054,0,0,0,0,0,0,0,-1,993,379,7.26806,29.1054
-224,645,7.69073,-29.5737,0,0,0,0,0,0,0,-1,1000,379,7.69071,29.5737
-217,645,8.65485,-33.4136,0,0,0,0,0,0,0,-1,1007,379,8.65487,33.4136
-210,645,9.21594,-32.5157,0,0,0,0,0,0,0,-1,1014,379,9.21591,32.5156
-203,645,9.77698,-31.6176,0,0,0,0,0,0,0,-1,1021,379,9.77696,31.6177
-196,645,10.2664,-29.7741,0,0,0,0,0,0,0,-1,1028,379,10.2664,29.7741
-189,645,5.88062,-28.2191,0,0,0,0,0,0,0,-1,1035,379,5.88062,28.2191
-182,645,6.34167,-29.2525,0,0,0,0,0,0,0,-1,1042,379,6.3417,29.2525
-175,645,6.36462,-35.5586,0,0,0,0,0,0,0,-1,1049,379,6.3646,35.5586
-168,645,7.19116,-39.5785,0,0,0,0,0,0,0,-1,1056,379,7.19115,39.5785
-161,645,7.22083,-37.6093,0,0,0,0,0,0,0,-1,1063,379,7.22085,37.6094
-154,645,7.42102,-41.6806,0,0,0,0,0,0,0,-1,1070,379,7.42105,41.6806
-147,645,7.49707,-42.1218,0,0,0,0,0,0,0,-1,1077,379,7.49713,42.1218
-140,645,7.66309,-44.5599,0,0,0,0,0,0,0,-1,1084,379,7.66308,44.5599
-133,645,7.69336,-45.472,0,0,0,0,0,0,0,-1,1091,379,7.69336,45.472
-126,645,7.68579,-45.9401,0,0,0,0,0,0,0,-1,1098,379,7.68573,45.9401
-119,645,7.50793,-46.395,-0.00790655,0.0194958,-0.00486571,0.0203341,-0.00874489,-1.40018,0.0172275,0.0365573,1105,379,7.50797,46.395
-112,645,7.41797,-46.7585,-0.0078484,0.017572,-0.00406531,0.0182063,-0.00848272,-1.41601,0.0157461,0.0385754,1112,379,7.41792,46.7585
-105,645,7.38855,-47.5023,0,0,0,0,0,0,0,-1,1119,379,7.38854,47.5023
-98,645,7.3053,-47.9374,0,0,0,0,0,0,0,-1,1126,379,7.30528,47.9374
-91,645,7.20032,-48.3684,0,0,0,0,0,0,0,-1,1133,379,7.20027,48.3685
-84,645,7.14795,-48.7927,0,0,0,0,0,0,0,-1,1140,379,7.14797,48.7926
-77,645,7.24683,-49.1859,-0.00676147,0.00728208,-0.00160448,0.00746306,-0.00694245,-1.45847,0.00831884,0.0432288,1147,379,7.2468,49.1858
-70,645,7.14185,-49.5367,-0.00665892,0.00690713,-0.00157475,0.00708753,-0.00683932,-1.45674,0.00804109,0.0153056,1154,379,7.1419,49.5367
-63,645,7.09705,-49.8553,-0.00691139,0.00682342,-0.00151794,0.00698918,-0.00707715,-1.46203,0.00812125,0.0117966,1161,379,7.09709,49.8552
-56,645,7.05347,-50.1629,-0.00702841,0.00708938,-0.00176751,0.00730731,-0.00724633,-1.44812,0.00840257,0.0137328,1168,379,7.05352,50.1629
-49,645,7.02417,-50.4874,-0.0062164,0.00827048,-0.00168018,0.00846279,-0.00640871,-1.45683,0.00861332,0.0113335,1175,379,7.02422,50.4874
-42,645,6.96667,-50.7873,-0.00543141,0.00983863,-0.00179477,0.0100467,-0.00563953,-1.45536,0.00917485,0.0106732,1182,379,6.96667,50.7873
-35,645,6.93835,-51.0896,-0.00532856,0.0107334,-0.00220654,0.0110311,-0.00562617,-1.43673,0.00978435,0.0107211,1189,379,6.93831,51.0896
-28,645,6.89429,-51.3837,-0.00510137,0.0115873,-0.00263016,0.011992,-0.00550607,-1.41812,0.0103313,0.00843879,1196,379,6.89424,51.3837
-21,645,6.84253,-51.6211,-0.0046504,0.0122855,-0.00289122,0.0127655,-0.00513038,-1.40629,0.010641,0.00985008,1203,379,6.84252,51.6211
-14,645,6.82544,-51.8593,-0.00418502,0.0128054,-0.00316947,0.0133774,-0.00475701,-1.39225,0.010857,0.00956682,1210,379,6.82544,51.8593
-7,645,6.81213,-52.0848,-0.00368058,0.0131146,-0.00343417,0.0137897,-0.00435564,-1.3767,0.010938,0.0126053,1217,379,6.81211,52.0848
0,645,6.77405,-52.2414,-0.00318461,0.0132895,-0.00364307,0.0140592,-0.00395427,-1.36259,0.0109319,0.0256524,1224,379,6.77403,52.2414
7,645,6.75574,-52.3893,-0.00265326,0.0133081,-0.00378707,0.0141611,-0.00350621,-1.34926,0.0108008,0.0183212,1231,379,6.75577,52.3893
14,645,6.72681,-52.5243,-0.0021542,0.0132015,-0.00372161,0.014056,-0.00300862,-1.34512,0.010518,0.0169085,1238,379,6.72684,52.5243
21,645,6.69336,-52.6661,-0.0016815,0.0127825,-0.00347782,0.0135752,-0.00247428,-1.34667,0.00997771,0.0107029,1245,379,6.69335,52.6661
28,645,6.68481,-52.7861,-0.00129904,0.0126025,-0.00318164,0.0132961,-0.00199262,-1.35616,0.00959746,0.00929021,1252,379,6.68477,52.7861
35,645,6.65039,-52.8712,-0.00101354,0.0124863,-0.00284961,0.0130632,-0.0015904,-1.37106,0.00928445,0.00935841,1259,379,6.65041,52.8712
42,645,6.62854,-52.9477,-0.000759919,0.0122166,-0.00233301,0.0126233,-0.00116662,-1.39821,0.00883011,0.009729,1266,379,6.62848,52.9477
49,645,6.65063,-52.9955,-0.000796757,0.0120982,-0.0016835,0.0123144,-0.00101292,-1.44309,0.00856723,0.0133288,1273,379,6.65058,52.9955
56,645,6.64355,-53.0032,-0.00116067,0.0120105,-0.00116777,0.0121132,-0.00126341,-1.48305,0.00852787,0.0135443,1280,379,6.64356,53.0032
63,645,6.6084,-53.0404,-0.00149978,0.0119653,-0.000679964,0.0119996,-0.00153403,-1.52047,0.00855702,0.0134044,1287,379,6.60843,53.0404
70,645,6.55103,-53.0282,-0.00181753,0.0120737,-0.000139859,0.0120751,-0.00181893,-1.56073,0.00871984,0.0170986,1294,379,6.551,53.0282
77,645,6.52014,-53.0186,-0.00237892,0.0127313,0.000271076,0.0127362,-0.00238378,1.55286,0.00938684,0.0193809,1301,379,6.52014,53.0186
84,645,6.56641,-52.9556,-0.00314987,0.0135375,0.000311177,0.0135433,-0.00315567,1.55216,0.0102441,0.0151385,1308,379,6.56635,52.9556
91,645,6.51746,-52.9139,-0.00397156,0.0143376,0.000257628,0.0143413,-0.00397519,1.55673,0.0111252,0.018003,1315,379,6.51751,52.9139
98,645,6.48425,-52.8039,-0.0046171,0.0150234,0.000248933,0.0150265,-0.00462026,1.55812,0.0118616,0.01523,1322,379,6.48421,52.8039
105,645,6.45801,-52.6569,-0.00489927,0.0159803,0.000294661,0.0159845,-0.00490343,1.55669,0.0126126,0.0113014,1329,379,6.45799,52.6569
112,645,6.42578,-52.525,-0.00514995,0.016995,0.000267043,0.0169982,-0.00515317,1.55874,0.0133847,0.00978124,1336,379,6.42583,52.525
119,645,6.41541,-52.3575,-0.00525502,0.0177375,0.000210835,0.0177395,-0.00525695,1.56163,0.0139137,0.009455,1343,379,6.41543,52.3575
126,645,6.38037,-52.1678,-0.00516328,0.0185699,0.0001837,0.0185713,-0.00516471,1.56306,0.0144142,0.0123937,1350,379,6.38039,52.1678
133,645,6.36353,-51.9691,-0.00497531,0.0188501,0.000401766,0.0188569,-0.00498208,1.55394,0.0145197,0.0131875,1357,379,6.36355,51.9691
140,645,6.35657,-51.7661,-0.00474616,0.0190034,0.00076902,0.0190283,-0.00477103,1.53846,0.0145392,0.0122377,1364,379,6.35653,51.7661
147,645,6.2915,-51.5469,-0.00456084,0.0193037,0.00106888,0.0193514,-0.00460862,1.52613,0.0146803,0.0137664,1371,379,6.29153,51.5469
154,645,6.26184,-51.2895,-0.00432686,0.0193271,0.00142169,0.0194123,-0.004412,1.51098,0.0146356,0.012967,1378,379,6.26183,51.2895
161,645,6.23254,-51.0031,-0.00411163,0.0192791,0.00189925,0.0194323,-0.00426484,1.4903,0.0145858,0.0159915,1385,379,6.23254,51.0031
168,645,6.19189,-50.7046,-0.00405657,0.0187885,0.00239775,0.0190374,-0.00430551,1.46734,0.0143438,0.0179754,1392,379,6.19184,50.7046
175,645,6.19421,-50.3951,-0.00407938,0.0182356,0.00286694,0.018598,-0.00444183,1.44504,0.0141142,0.0148582,1399,379,6.19423,50.3951
182,645,6.13489,-50.0626,-0.00409323,0.0172578,0.00335828,0.0177735,-0.00460899,1.41841,0.0136473,0.0112486,1406,379,6.13494,50.0626
189,645,6.08057,-49.6821,-0.00379155,0.015794,0.00388151,0.0165352,-0.00453275,1.38211,0.0128047,0.0120718,1413,379,6.08058,49.6821
196,645,6.03027,-49.3445,-0.0035822,0.0143994,0.00426939,0.0153616,-0.0045444,1.34913,0.0120451,0.0124281,1420,379,6.03029,49.3445
203,645,5.97083,-48.9484,-0.00380494,0.0134864,0.00469519,0.0146791,-0.00499758,1.32204,0.0118098,0.0128093,1427,379,5.97083,48.9484
210,645,5.97864,-48.4616,-0.00470473,0.0114534,0.00447544,0.0126102,-0.00586151,1.31786,0.0108993,0.0225061,1434,379,5.97859,48.4616
217,645,5.99231,-47.9866,0,0,0,0,0,0,0,-1,1441,379,5.99225,47.9866
224,645,5.83826,-47.7278,0,0,0,0,0,0,0,-1,1448,379,5.83829,47.7279
231,645,5.74475,-47.2238,0,0,0,0,0,0,0,-1,1455,379,5.74477,47.2238
238,645,5.66724,-46.7285,0,0,0,0,0,0,0,-1,1462,379,5.66728,46.7286
245,645,5.65649,-46.1263,0,0,0,0,0,0,0,-1,1469,379,5.65649,46.1263
252,645,5.66345,-45.6428,0,0,0,0,0,0,0,-1,1476,379,5.6635,45.6428
259,645,5.76001,-45.2079,0,0,0,0,0,0,0,-1,1483,379,5.76005,45.2079
266,645,5.31787,-44.4863,0.00200095,0.0287435,0.00764821,0.0307763,-3.18699e-05,1.31101,0.0205282,0.0393355,1490,379,5.31791,44.4863
273,645,5.42065,-44.0016,0.00354718,0.0317809,0.0092079,0.0345185,0.000809632,1.28181,0.0227472,0.0304373,1497,379,5.42061,44.0016
280,645,5.57495,-43.4757,0,0,0,0,0,0,0,-1,1504,379,5.57499,43.4757
287,645,5.25439,-22.6157,0,0,0,0,0,0,0,-1,1511,379,5.25445,22.6157
294,645,3.40979,-22.4114,0,0,0,0,0,0,0,-1,1518,379,3.40984,22.4114
301,645,1.35217,-22.1208,0,0,0,0,0,0,0,-1,1525,379,1.3522,22.1208
308,645,-0.529297,-21.7611,0,0,0,0,0,0,0,-1,1532,379,-0.529316,21.7611
315,645,-2.39441,-21.3959,0,0,0,0,0,0,0,-1,1539,379,-2.39445,21.3959
322,645,-3.10815,-22.5803,0,0,0,0,0,0,0,-1,1546,379,-3.10812,22.5803
329,645,-4.45581,-22.707,0,0,0,0,0,0,0,-1,1553,379,-4.45579,22.707
336,645,-5.83154,-22.8404,0,0,0,0,0,0,0,-1,1560,379,-5.83149,22.8404
343,645,4.03186,-38.0623,0,0,0,0,0,0,0,-1,1567,379,4.03187,38.0623
350,645,4.76404,-22.1987,0,0,0,0,0,0,0,-1,1574,379,4.76399,22.1987
357,645,4.61316,-21.967,0,0,0,0,0,0,0,-1,1581,379,4.61316,21.967
364,645,-0.0794678,-3.22021,0,0,0,0,0,0,0,-1,1588,379,-0.0794987,3.22021
371,645,0,0,0,0,0,0,0,0,0,-1,1595,379,0,0
378,645,0,0,0,0,0,0,0,0,0,-1,1602,379,0,0
385,645,0,0,0,0,0,0,0,0,0,-1,1609,379,0,0
392,645,0,0,0,0,0,0,0,0,0,-1,1616,379,0,0
399,645,0,0,0,0,0,0,0,0,0,-1,1623,379,0,0
406,645,0,0,0,0,0,0,0,0,0,-1,1630,379,0,0
413,645,0,0,0,0,0,0,0,0,0,-1,1637,379,0,0
420,645,0,0,0,0,0,0,0,0,0,-1,1644,379,0,0
427,645,0,0,0,0,0,0,0,0,0,-1,1651,379,0,0
434,645,0,0,0,0,0,0,0,0,0,-1,1658,379,0,0
441,645,0,0,0,0,0,0,0,0,0,-1,1665,379,0,0
448,645,0,0,0,0,0,0,0,0,0,-1,1672,379,0,0
455,645,0,0,0,0,0,0,0,0,0,-1,1679,379,0,0
462,645,0,0,0,0,0,0,0,0,0,-1,1686,379,0,0
469,645,0,0,0,0,0,0,0,0,0,-1,1693,379,0,0
476,645,0,0,0,0,0,0,0,0,0,-1,1700,379,0,0
483,645,0,0,0,0,0,0,0,0,0,-1,1707,379,0,0
490,645,0,0,0,0,0,0,0,0,0,-1,1714,379,0,0
497,645,0,0,0,0,0,0,0,0,0,-1,1721,379,0,0
504,645,0,0,0,0,0,0,0,0,0,-1,1728,379,0,0
511,645,0,0,0,0,0,0,0,0,0,-1,1735,379,0,0
518,645,0,0,0,0,0,0,0,0,0,-1,1742,379,0,0
525,645,0,0,0,0,0,0,0,0,0,-1,1749,379,0,0
532,645,0,0,0,0,0,0,0,0,0,-1,1756,379,0,0
539,645,0,0,0,0,0,0,0,0,0,-1,1763,379,0,0
546,645,0,0,0,0,0,0,0,0,0,-1,1770,379,0,0
553,645,0,0,0,0,0,0,0,0,0,-1,1777,379,0,0
560,645,0,0,0,0,0,0,0,0,0,-1,1784,379,0,0
567,645,0,0,0,0,0,0,0,0,0,-1,1791,379,0,0
574,645,0,0,0,0,0,0,0,0,0,-1,1798,379,0,0
581,645,0,0,0,0,0,0,0,0,0,-1,1805,379,0,0
588,645,0,0,0,0,0,0,0,0,0,-1,1812,379,0,0
595,645,0,0,0,0,0,0,0,0,0,-1,1819,379,0,0
602,645,0,0,0,0,0,0,0,0,0,-1,1826,379,0,0
609,645,0,0,0,0,0,0,0,0,0,-1,1833,379,0,0
616,645,0,0,0,0,0,0,0,0,0,-1,1840,379,0,0
623,645,0,0,0,0,0,0,0,0,0,-1,1847,379,0,0
630,645,0,0,0,0,0,0,0,0,0,-1,1854,379,0,0
637,645,0,0,0,0,0,0,0,0,0,-1,1861,379,0,0
644,645,0,0,0,0,0,0,0,0,0,-1,1868,379,0,0
651,645,0,0,0,0,0,0,0,0,0,-1,1875,379,0,0
658,645,0,0,0,0,0,0,0,0,0,-1,1882,379,0,0
665,645,0,0,0,0,0,0,0,0,0,-1,1889,379,0,0
672,645,0,0,0,0,0,0,0,0,0,-1,1896,379,0,0
679,645,0,0,0,0,0,0,0,0,0,-1,1903,379,0,0
686,645,0,0,0,0,0,0,0,0,0,-1,1910,379,0,0
693,645,0,0,0,0,0,0,0,0,0,-1,1917,379,0,0
700,645,0,0,0,0,0,0,0,0,0,-1,1924,379,0,0
707,645,0,0,0,0,0,0,0,0,0,-1,1931,379,0,0
714,645,0,0,0,0,0,0,0,0,0,-1,1938,379,0,0
721,645,0,0,0,0,0,0,0,0,0,-1,1945,379,0,0
728,645,0,0,0,0,0,0,0,0,0,-1,1952,379,0,0
735,645,0,0,0,0,0,0,0,0,0,-1,1959,379,0,0
742,645,0,0,0,0,0,0,0,0,0,-1,1966,379,0,0
749,645,0,0,0,0,0,0,0,0,0,-1,1973,379,0,0
756,645,0,0,0,0,0,0,0,0,0,-1,1980,379,0,0
763,645,0,0,0,0,0,0,0,0,0,-1,1987,379,0,0
770,645,0,0,0,0,0,0,0,0,0,-1,1994,379,0,0
777,645,0,0,0,0,0,0,0,0,0,-1,2001,379,0,0
784,645,0,0,0,0,0,0,0,0,0,-1,2008,379,0,0
791,645,0,0,0,0,0,0,0,0,0,-1,2015,379,0,0
798,645,0,0,0,0,0,0,0,0,0,-1,2022,379,0,0
805,645,0,0,0,0,0,0,0,0,0,-1,2029,379,0,0
812,645,0,0,0,0,0,0,0,0,0,-1,2036,379,0,0
-700,638,0,0,0,0,0,0,0,0,0,-1,524,386,0,0
-693,638,0,0,0,0,0,0,0,0,0,-1,531,386,0,0
-686,638,0,0,0,0,0,0,0,0,0,-1,538,386,0,0
-679,638,0,0,0,0,0,0,0,0,0,-1,545,386,0,0
-672,638,0,0,0,0,0,0,0,0,0,-1,552,386,0,0
-665,638,0,0,0,0,0,0,0,0,0,-1,559,386,0,0
-658,638,0,0,0,0,0,0,0,0,0,-1,566,386,0,0
-651,638,0,0,0,0,0,0,0,0,0,-1,573,386,0,0
-644,638,0,0,0,0,0,0,0,0,0,-1,580,386,0,0
-637,638,0,0,0,0,0,0,0,0,0,-1,587,386,0,0
-630,638,0,0,0,0,0,0,0,0,0,-1,594,386,0,0
-623,638,0,0,0,0,0,0,0,0,0,-1,601,386,0,0
-616,638,0,0,0,0,0,0,0,0,0,-1,608,386,0,0
-609,638,0,0,0,0,0,0,0,0,0,-1,615,386,0,0
-602,638,0,0,0,0,0,0,0,0,0,-1,622,386,0,0
-595,638,0,0,0,0,0,0,0,0,0,-1,629,386,0,0
-588,638,0,0,0,0,0,0,0,0,0,-1,636,386,0,0
-581,638,0,0,0,0,0,0,0,0,0,-1,643,386,0,0
-574,638,0,0,0,0,0,0,0,0,0,-1,650,386,0,0
-567,638,0,0,0,0,0,0,0,0,0,-1,657,386,0,0
-560,638,0,0,0,0,0,0,0,0,0,-1,664,386,0,0
-553,638,0,0,0,0,0,0,0,0,0,-1,671,386,0,0
-546,638,0,0,0,0,0,0,0,0,0,-1,678,386,0,0
-539,638,0,0,0,0,0,0,0,0,0,-1,685,386,0,0
-532,638,0,0,0,0,0,0,0,0,0,-1,692,386,0,0
-525,638,0,0,0,0,0,0,0,0,0,-1,699,386,0,0
-518,638,0,0,0,0,0,0,0,0,0,-1,706,386,0,0
-511,638,0,0,0,0,0,0,0,0,0,-1,713,386,0,0
-504,638,0,0,0,0,0,0,0,0,0,-1,720,386,0,0
-497,638,0,0,0,0,0,0,0,0,0,-1,727,386,0,0
-490,638,0,0,0,0,0,0,0,0,0,-1,734,386,0,0
-483,638,0,0,0,0,0,0,0,0,0,-1,741,386,0,0
-476,638,0,0,0,0,0,0,0,0,0,-1,748,386,0,0
-469,638,0,0,0,0,0,0,0,0,0,-1,755,386,0,0
-462,638,0,0,0,0,0,0,0,0,0,-1,762,386,0,0
-455,638,0,0,0,0,0,0,0,0,0,-1,769,386,0,0
-448,638,0,0,0,0,0,0,0,0,0,-1,776,386,0,0
-441,638,0,0,0,0,0,0,0,0,0,-1,783,386,0,0
-434,638,0,0,0,0,0,0,0,0,0,-1,790,386,0,0
-427,638,0,0,0,0,0,0,0,0,0,-1,797,386,0,0
-420,638,0,0,0,0,0,0,0,0,0,-1,804,386,0,0
-413,638,0,0,0,0,0,0,0,0,0,-1,811,386,0,0
-406,638,0,0,0,0,0,0,0,0,0,-1,818,386,0,0
-399,638,0,0,0,0,0,0,0,0,0,-1,825,386,0,0
-392,638,0,0,0,0,0,0,0,0,0,-1,832,386,0,0
-385,638,0,0,0,0,0,0,0,0,0,-1,839,386,0,0
-378,638,0,0,0,0,0,0,0,0,0,-1,846,386,0,0
-371,638,0,0,0,0,0,0,0,0,0,-1,853,386,0,0
-364,638,0,0,0,0,0,0,0,0,0,-1,860,386,0,0
-357,638,0,0,0,0,0,0,0,0,0,-1,867,386,0,0
-350,638,0,0,0,0,0,0,0,0,0,-1,874,386,0,0
-343,638,0,0,0,0,0,0,0,0,0,-1,881,386,0,0
-336,638,0,0,0,0,0,0,0,0,0,-1,888,386,0,0
-329,638,0,0,0,0,0,0,0,0,0,-1,895,386,0,0
-322,638,0,0,0,0,0,0,0,0,0,-1,902,386,0,0
-315,638,0,0,0,0,0,0,0,0,0,-1,909,386,0,0
-308,638,0,0,0,0,0,0,0,0,0,-1,916,386,0,0
-301,638,0,0,0,0,0,0,0,0,0,-1,923,386,0,0
-294,638,0,0,0,0,0,0,0,0,0,-1,930,386,0,0
-287,638,0,0,0,0,0,0,0,0,0,-1,937,386,0,0
-280,638,0,0,0,0,0,0,0,0,0,-1,944,386,0,0
-273,638,0,0,0,0,0,0,0,0,0,-1,951,386,0,0
-266,638,10.1613,-36.3326,0,0,0,0,0,0,0,-1,958,386,10.1612,36.3326
-259,638,9.95282,-34.6103,0,0,0,0,0,0,0,-1,965,386,9.9528,34.6103
-252,638,9.95746,-33.6964,0,0,0,0,0,0,0,-1,972,386,9.95744,33.6965
-245,638,9.84143,-32.9009,0,0,0,0,0,0,0,-1,979,386,9.84145,32.9009
-238,638,2.93518,-26.3649,0,0,0,0,0,0,0,-1,986,386,2.93516,26.3649
-231,638,2.36829,-26.0088,0,0,0,0,0,0,0,-1,993,386,2.3683,26.0088
-224,638,6.3465,-30.9124,0,0,0,0,0,0,0,-1,1000,386,6.34648,30.9124
-217,638,7.41205,-32.7263,0,0,0,0,0,0,0,-1,1007,386,7.41204,32.7262
-210,638,8.7038,-34.5688,0,0,0,0,0,0,0,-1,1014,386,8.70378,34.5689
-203,638,4.32593,-27.5803,0,0,0,0,0,0,0,-1,1021,386,4.32594,27.5803
-196,638,6.0614,-28.4651,0,0,0,0,0,0,0,-1,1028,386,6.06143,28.4651
-189,638,11.4561,-30.1556,0,0,0,0,0,0,0,-1,1035,386,11.456,30.1556
-182,638,6.45471,-33.4271,0,0,0,0,0,0,0,-1,1042,386,6.45473,33.427
-175,638,6.49841,-38.5815,0,0,0,0,0,0,0,-1,1049,386,6.49845,38.5815
-168,638,7.44824,-43.1551,0,0,0,0,0,0,0,-1,1056,386,7.44827,43.1551
-161,638,7.43921,-43.7724,0,0,0,0,0,0,0,-1,1063,386,7.43915,43.7724
-154,638,7.32971,-44.2444,0,0,0,0,0,0,0,-1,1070,386,7.32974,44.2444
-147,638,7.32141,-44.7229,0,0,0,0,0,0,0,-1,1077,386,7.32143,44.7229
-140,638,7.30383,-44.8146,-0.00507052,0.0184557,-0.00659921,0.0201804,-0.00679519,-1.31517,0.0162008,0.0403804,1084,386,7.30384,44.8146
-133,638,7.22961,-45.6288,-0.00524734,0.0173583,-0.00567329,0.0187022,-0.00659126,-1.3382,0.0151509,0.0342529,1091,386,7.22967,45.6287
-126,638,7.17859,-46.1104,-0.00558462,0.0158042,-0.00462017,0.0167595,-0.00653995,-1.3669,0.0138766,0.0223899,1098,386,7.17863,46.1104
-119,638,7.09058,-46.619,-0.00561735,0.0143848,-0.00394386,0.0151343,-0.00636689,-1.38299,0.0127531,0.0198568,1105,386,7.09059,46.619
-112,638,7.05469,-47.0832,-0.00546305,0.0129888,-0.00330842,0.013564,-0.00603832,-1.39864,0.0115921,0.0174441,1112,386,7.05465,47.0832
-105,638,7.02209,-47.5392,-0.00526888,0.0116092,-0.00284508,0.0120759,-0.00573556,-1.40821,0.0104984,0.0164789,1119,386,7.02209,47.5392
-98,638,6.96375,-47.9693,-0.0051287,0.0100333,-0.00241967,0.0104101,-0.00550549,-1.41632,0.00933315,0.0163437,1126,386,6.96379,47.9693
-91,638,6.87305,-48.3775,-0.00494275,0.00851616,-0.00207001,0.00882734,-0.00525393,-1.42159,0.00821662,0.0133659,1133,386,6.87301,48.3775
-84,638,6.83472,-48.7779,-0.00464043,0.00645167,-0.00161029,0.00668072,-0.00486947,-1.42951,0.00669578,0.0156387,1140,386,6.83471,48.7779
-77,638,6.81787,-49.1812,-0.00434471,0.00547582,-0.00137151,0.00566377,-0.00453266,-1.43461,0.00589897,0.0130223,1147,386,6.81791,49.1812
-70,638,6.78516,-49.5566,-0.00416507,0.00504505,-0.00128441,0.00522081,-0.00434084,-1.4348,0.00552821,0.0119705,1154,386,6.78512,49.5566
-63,638,6.75269,-49.9047,-0.00403199,0.00494136,-0.00116614,0.00509043,-0.00418106,-1.44365,0.00536148,0.0121495,1161,386,6.75263,49.9047
-56,638,6.76038,-50.2244,-0.00390837,0.00483368,-0.00121569,0.00499959,-0.00407428,-1.43516,0.00524787,0.0159775,1168,386,6.76037,50.2244
-49,638,6.72986,-50.5246,-0.00363081,0.00491242,-0.00104717,0.0050389,-0.00375729,-1.45059,0.00509642,0.0135992,1175,386,6.72982,50.5246
-42,638,6.69861,-50.8231,-0.0033483,0.00520039,-0.000917616,0.00529778,-0.00344569,-1.46506,0.00508565,0.0120544,1182,386,6.69855,50.8231
-35,638,6.6814,-51.1122,-0.00325935,0.00539747,-0.00102603,0.00551742,-0.0033793,-1.45442,0.00518573,0.0111349,1189,386,6.68139,51.1123
-28,638,6.67297,-51.389,-0.00315034,0.00544599,-0.00117016,0.00560242,-0.00330678,-1.43789,0.00520034,0.00985565,1196,386,6.673,51.389
-21,638,6.62427,-51.6321,-0.00291026,0.00545677,-0.00129495,0.00565261,-0.0031061,-1.42071,0.00512759,0.0111346,1203,386,6.62425,51.6321
-14,638,6.60291,-51.8904,-0.00267955,0.00552837,-0.00151558,0.00579928,-0.00295046,-1.39392,0.00514014,0.0118563,1210,386,6.60291,51.8904
-7,638,6.6084,-52.1496,-0.00242677,0.00570915,-0.00186142,0.0061148,-0.00283242,-1.35623,0.00528028,0.0177746,1217,386,6.60844,52.1496
0,638,6.62183,-52.2108,-0.00220703,0.00599133,-0.00220893,0.00654862,-0.00276431,-1.32367,0.00552281,0.0337554,1224,386,6.62186,52.2108
7,638,6.5885,-52.3841,-0.00199152,0.00630219,-0.00252261,0.0070092,-0.00269852,-1.29754,0.00578601,0.0262649,1231,386,6.58855,52.3841
14,638,6.56628,-52.5514,-0.00179999,0.00670825,-0.00274186,0.00751529,-0.00260703,-1.28454,0.00606882,0.0141513,1238,386,6.5663,52.5514
21,638,6.56311,-52.7133,-0.00163098,0.00701495,-0.00287447,0.00788338,-0.00249941,-1.2774,0.00625739,0.0117303,1245,386,6.56314,52.7133
28,638,6.57629,-52.8137,-0.00144772,0.00743445,-0.00290213,0.00829861,-0.00231187,-1.28139,0.00644281,0.00949008,1252,386,6.57624,52.8137
35,638,6.57825,-52.8848,-0.00129161,0.00788104,-0.00298799,0.00876851,-0.00217908,-1.28208,0.00669137,0.0114301,1259,386,6.57822,52.8848
42,638,6.59583,-52.9656,-0.00113568,0.00818821,-0.00279088,0.00895975,-0.00190721,-1.30108,0.00670001,0.0113372,1266,386,6.59584,52.9656
49,638,6.6123,-53.0009,-0.00111665,0.0084137,-0.00247271,0.00901706,-0.00172001,-1.33146,0.00665917,0.0102299,1273,386,6.61226,53.0008
56,638,6.58984,-53.0275,-0.00121997,0.00869341,-0.00222009,0.00916789,-0.00169444,-1.36024,0.00674803,0.0128852,1280,386,6.58984,53.0275
63,638,6.57861,-53.0703,-0.00126433,0.00879906,-0.00190346,0.00914706,-0.00161233,-1.38997,0.00670046,0.0151243,1287,386,6.57866,53.0703
70,638,6.55298,-53.0633,-0.00129898,0.00875681,-0.00147985,0.00897007,-0.00151224,-1.42767,0.00654264,0.0196853,1294,386,6.55295,53.0633
77,638,6.578,-53.0247,-0.00141528,0.00908692,-0.0011277,0.00920664,-0.00153501,-1.46503,0.00670823,0.0189448,1301,386,6.57802,53.0246
84,638,6.61792,-52.9633,-0.00158727,0.00934675,-0.00101059,0.00943937,-0.00167989,-1.4794,0.00692117,0.0143431,1308,386,6.61796,52.9633
91,638,6.62036,-52.8793,-0.0018433,0.00947676,-0.000904288,0.00954854,-0.00191508,-1.49158,0.00709079,0.0160909,1315,386,6.62034,52.8793
98,638,6.60889,-52.7759,-0.00200412,0.00947889,-0.00073904,0.00952626,-0.00205149,-1.50679,0.00713369,0.013612,1322,386,6.60892,52.7759
105,638,6.58252,-52.6703,-0.00189088,0.009739,-0.000575015,0.00976736,-0.00191924,-1.52151,0.00723665,0.00993025,1329,386,6.5825,52.6703
112,638,6.56555,-52.5453,-0.00181086,0.0101025,-0.000468471,0.0101209,-0.00182925,-1.53155,0.00743243,0.00946274,1336,386,6.56559,52.5452
119,638,6.58386,-52.3794,-0.0017207,0.0102587,-0.000355913,0.0102693,-0.00173126,-1.54112,0.00749026,0.0119231,1343,386,6.58383,52.3794
126,638,6.5708,-52.1847,-0.0015893,0.0105472,-0.000249876,0.0105523,-0.00159444,-1.55022,0.00762217,0.0167109,1350,386,6.57083,52.1847
133,638,6.56274,-51.9917,-0.00153235,0.0106658,-7.13229e-05,0.0106662,-0.00153277,-1.56495,0.00767294,0.0167972,1357,386,6.56277,51.9917
140,638,6.56067,-51.7955,-0.00147443,0.0106938,0.00027668,0.0107001,-0.00148072,1.54807,0.00767471,0.0166099,1364,386,6.56071,51.7955
147,638,6.52417,-51.5685,-0.00143783,0.0108886,0.00044139,0.0109044,-0.00145361,1.53505,0.00779939,0.0189124,1371,386,6.52415,51.5686
154,638,6.49548,-51.3338,-0.00138801,0.0110029,0.000644002,0.0110363,-0.0014214,1.51901,0.0078742,0.016769,1378,386,6.49552,51.3338
161,638,6.51172,-51.0478,-0.00136976,0.0111623,0.000958205,0.0112352,-0.00144261,1.49492,0.00801437,0.0203942,1385,386,6.51176,51.0478
168,638,6.5011,-50.7283,-0.00153465,0.0112286,0.00131299,0.0113622,-0.00166832,1.46934,0.00818779,0.0264215,1392,386,6.50116,50.7283
175,638,6.51855,-50.4268,-0.00175863,0.0111993,0.00170589,0.0114201,-0.00197945,1.44207,0.00835179,0.0206863,1399,386,6.51861,50.4268
182,638,6.44189,-50.076,-0.00202169,0.0109102,0.00211324,0.0112467,-0.00235826,1.41285,0.00839505,0.0137856,1406,386,6.44185,50.0759
189,638,6.39978,-49.7079,-0.00211051,0.0104291,0.00259404,0.0109446,-0.00262595,1.37465,0.00831115,0.0121271,1413,386,6.3998,49.7079
196,638,6.37,-49.3459,-0.00212541,0.00990035,0.00297048,0.0105941,-0.00281913,1.34137,0.00816627,0.0139589,1420,386,6.36998,49.3459
203,638,6.3324,-48.99,-0.0023984,0.0096403,0.00335352,0.0105114,-0.00326953,1.31665,0.00831458,0.0197763,1427,386,6.33237,48.99
210,638,6.32581,-48.6217,-0.00308088,0.00870859,0.00336778,0.00960281,-0.0039751,1.31126,0.00806054,0.0169896,1434,386,6.32583,48.6217
217,638,6.30066,-48.1932,-0.00310078,0.00934016,0.00328557,0.0101545,-0.00391517,1.32783,0.00838518,0.0137922,1441,386,6.30066,48.1932
224,638,6.2478,-47.7351,-0.00266842,0.0108339,0.00340723,0.011645,-0.00347949,1.3371,0.0091465,0.011609,1448,386,6.24785,47.7351
231,638,6.14685,-47.2658,-0.00219486,0.0121887,0.00369245,0.0130813,-0.00308738,1.33363,0.00991157,0.0123422,1455,386,6.14691,47.2659
238,638,6.08362,-46.806,-0.00182006,0.0137469,0.00396049,0.0146965,-0.00276975,1.33545,0.0108395,0.0145472,1462,386,6.08364,46.806
245,638,6.07068,-46.277,-0.00150769,0.0156243,0.0043162,0.0166503,-0.00253366,1.33742,0.012034,0.0190526,1469,386,6.07073,46.277
252,638,6.12988,-45.7614,-0.000928336,0.0176319,0.00477531,0.0187884,-0.0020849,1.33318,0.0132753,0.02748,1476,386,6.12984,45.7615
259,638,6.03711,-45.3691,-4.92399e-05,0.0199597,0.00555207,0.021397,-0.00148658,1.31747,0.0147851,0.0241606,1483,386,6.03712,45.3691
266,638,5.87952,-44.8246,0.00098979,0.0221936,0.00669747,0.0241319,-0.000948495,1.28909,0.0164132,0.0136705,1490,386,5.87955,44.8245
273,638,5.8584,-44.3083,0.00199922,0.0245171,0.00796571,0.0270501,-0.000533727,1.26293,0.0182139,0.012312,1497,386,5.85844,44.3083
280,638,5.93445,-43.6703,0.00326409,0.0269103,0.00947746,0.03024,-6.56238e-05,1.23294,0.0201819,0.0264332,1504,386,5.93444,43.6703
287,638,5.87292,-42.9767,0,0,0,0,0,0,0,-1,1511,386,5.87295,42.9767
294,638,5.74866,-42.3384,0,0,0,0,0,0,0,-1,1518,386,5.74862,42.3384
301,638,5.56787,-41.6404,0,0,0,0,0,0,0,-1,1525,386,5.56787,41.6404
308,638,6.11914,-40.7402,0,0,0,0,0,0,0,-1,1532,386,6.11913,40.7402
315,638,6.5968,-40.3303,0,0,0,0,0,0,0,-1,1539,386,6.59681,40.3303
322,638,-0.569702,-23.5225,0,0,0,0,0,0,0,-1,1546,386,-0.569736,23.5225
329,638,-1.92957,-23.7096,0,0,0,0,0,0,0,-1,1553,386,-1.92951,23.7096
336,638,5.15234,-38.1966,0,0,0,0,0,0,0,-1,1560,386,5.15238,38.1966
343,638,4.8208,-37.2159,0,0,0,0,0,0,0,-1,1567,386,4.82078,37.2159
350,638,4.35254,-37.1565,0,0,0,0,0,0,0,-1,1574,386,4.35259,37.1565
357,638,0.387329,-3.01077,0,0,0,0,0,0,0,-1,1581,386,0.387332,3.01077
364,638,3.78149,-6.45215,0,0,0,0,0,0,0,-1,1588,386,3.78155,6.45216
371,638,4.18604,-6.71164,0,0,0,0,0,0,0,-1,1595,386,4.18598,6.71164
378,638,4.59045,-6.97113,0,0,0,0,0,0,0,-1,1602,386,4.5904,6.97112
385,638,0,0,0,0,0,0,0,0,0,-1,1609,386,0,0
392,638,0,0,0,0,0,0,0,0,0,-1,1616,386,0,0
399,638,0,0,0,0,0,0,0,0,0,-1,1623,386,0,0
406,638,0,0,0,0,0,0,0,0,0,-1,1630,386,0,0
413,638,0,0,0,0,0,0,0,0,0,-1,1637,386,0,0
420,638,0,0,0,0,0,0,0,0,0,-1,1644,386,0,0
427,638,0,0,0,0,0,0,0,0,0,-1,1651,386,0,0
434,638,0,0,0,0,0,0,0,0,0,-1,1658,386,0,0
441,638,0,0,0,0,0,0,0,0,0,-1,1665,386,0,0
448,638,0,0,0,0,0,0,0,0,0,-1,1672,386,0,0
455,638,0,0,0,0,0,0,0,0,0,-1,1679,386,0,0
462,638,0,0,0,0,0,0,0,0,0,-1,1686,386,0,0
469,638,0,0,0,0,0,0,0,0,0,-1,1693,386,0,0
476,638,0,0,0,0,0,0,0,0,0,-1,1700,386,0,0
483,638,0,0,0,0,0,0,0,0,0,-1,1707,386,0,0
490,638,0,0,0,0,0,0,0,0,0,-1,1714,386,0,0
497,638,0,0,0,0,0,0,0,0,0,-1,1721,386,0,0
504,638,0,0,0,0,0,0,0,0,0,-1,1728,386,0,0
511,638,0,0,0,0,0,0,0,0,0,-1,1735,386,0,0
518,638,0,0,0,0,0,0,0,0,0,-1,1742,386,0,0
525,638,0,0,0,0,0,0,0,0,0,-1,1749,386,0,0
532,638,0,0,0,0,0,0,0,0,0,-1,1756,386,0,0
539,638,0,0,0,0,0,0,0,0,0,-1,1763,386,0,0
546,638,0,0,0,0,0,0,0,0,0,-1,1770,386,0,0
553,638,0,0,0,0,0,0,0,0,0,-1,1777,386,0,0
560,638,0,0,0,0,0,0,0,0,0,-1,1784,386,0,0
567,638,0,0,0,0,0,0,0,0,0,-1,1791,386,0,0
574,638,0,0,0,0,0,0,0,0,0,-1,1798,386,0,0
581,638,0,0,0,0,0,0,0,0,0,-1,1805,386,0,0
588,638,0,0,0,0,0,0,0,0,0,-1,1812,386,0,0
595,638,0,0,0,0,0,0,0,0,0,-1,1819,386,0,0
602,638,0,0,0,0,0,0,0,0,0,-1,1826,386,0,0
609,638,0,0,0,0,0,0,0,0,0,-1,1833,386,0,0
616,638,0,0,0,0,0,0,0,0,0,-1,1840,386,0,0
623,638,0,0,0,0,0,0,0,0,0,-1,1847,386,0,0
630,638,0,0,0,0,0,0,0,0,0,-1,1854,386,0,0
637,638,0,0,0,0,0,0,0,0,0,-1,1861,386,0,0
644,638,0,0,0,0,0,0,0,0,0,-1,1868,386,0,0
651,638,0,0,0,0,0,0,0,0,0,-1,1875,386,0,0
658,638,0,0,0,0,0,0,0,0,0,-1,1882,386,0,0
665,638,0,0,0,0,0,0,0,0,0,-1,1889,386,0,0
672,638,0,0,0,0,0,0,0,0,0,-1,1896,386,0,0
679,638,0,0,0,0,0,0,0,0,0,-1,1903,386,0,0
686,638,0,0,0,0,0,0,0,0,0,-1,1910,386,0,0
693,638,0,0,0,0,0,0,0,0,0,-1,1917,386,0,0
700,638,0,0,0,0,0,0,0,0,0,-1,1924,386,0,0
707,638,0,0,0,0,0,0,0,0,0,-1,1931,386,0,0
714,638,0,0,0,0,0,0,0,0,0,-1,1938,386,0,0
721,638,0,0,0,0,0,0,0,0,0,-1,1945,386,0,0
728,638,0,0,0,0,0,0,0,0,0,-1,1952,386,0,0
735,638,0,0,0,0,0,0,0,0,0,-1,1959,386,0,0
742,638,0,0,0,0,0,0,0,0,0,-1,1966,386,0,0
749,638,0,0,0,0,0,0,0,0,0,-1,1973,386,0,0
756,638,0,0,0,0,0,0,0,0,0,-1,1980,386,0,0
763,638,0,0,0,0,0,0,0,0,0,-1,1987,386,0,0
770,638,0,0,0,0,0,0,0,0,0,-1,1994,386,0,0
777,638,0,0,0,0,0,0,0,0,0,-1,2001,386,0,0
784,638,0,0,0,0,0,0,0,0,0,-1,2008,386,0,0
791,638,0,0,0,0,0,0,0,0,0,-1,2015,386,0,0
798,638,0,0,0,0,0,0,0,0,0,-1,2022,386,0,0
805,638,0,0,0,0,0,0,0,0,0,-1,2029,386,0,0
812,638,0,0,0,0,0,0,0,0,0,-1,2036,386,0,0
-700,631,0,0,0,0,0,0,0,0,0,-1,524,393,0,0
-693,631,0,0,0,0,0,0,0,0,0,-1,531,393,0,0
-686,631,0,0,0,0,0,0,0,0,0,-1,538,393,0,0
-679,631,0,0,0,0,0,0,0,0,0,-1,545,393,0,0
-672,631,0,0,0,0,0,0,0,0,0,-1,552,393,0,0
-665,631,0,0,0,0,0,0,0,0,0,-1,559,393,0,0
-658,631,0,0,0,0,0,0,0,0,0,-1,566,393,0,0
-651,631,0,0,0,0,0,0,0,0,0,-1,573,393,0,0
-644,631,0,0,0,0,0,0,0,0,0,-1,580,393,0,0
-637,631,0,0,0,0,0,0,0,0,0,-1,587,393,0,0
-630,631,0,0,0,0,0,0,0,0,0,-1,594,393,0,0
-623,631,0,0,0,0,0,0,0,0,0,-1,601,393,0,0
-616,631,0,0,0,0,0,0,0,0,0,-1,608,393,0,0
-609,631,0,0,0,0,0,0,0,0,0,-1,615,393,0,0
-602,631,0,0,0,0,0,0,0,0,0,-1,622,393,0,0
-595,631,0,0,0,0,0,0,0,0,0,-1,629,393,0,0
-588,631,0,0,0,0,0,0,0,0,0,-1,636,393,0,0
-581,631,0,0,0,0,0,0,0,0,0,-1,643,393,0,0
-574,631,0,0,0,0,0,0,0,0,0,-1,650,393,0,0
-567,631,0,0,0,0,0,0,0,0,0,-1,657,393,0,0
-560,631,0,0,0,0,0,0,0,0,0,-1,664,393,0,0
-553,631,0,0,0,0,0,0,0,0,0,-1,671,393,0,0
-546,631,0,0,0,0,0,0,0,0,0,-1,678,393,0,0
-539,631,0,0,0,0,0,0,0,0,0,-1,685,393,0,0
-532,631,0,0,0,0,0,0,0,0,0,-1,692,393,0,0
-525,631,0,0,0,0,0,0,0,0,0,-1,699,393,0,0
-518,631,0,0,0,0,0,0,0,0,0,-1,706,393,0,0
-511,631,0,0,0,0,0,0,0,0,0,-1,713,393,0,0
-504,631,0,0,0,0,0,0,0,0,0,-1,720,393,0,0
-497,631,0,0,0,0,0,0,0,0,0,-1,727,393,0,0
-490,631,0,0,0,0,0,0,0,0,0,-1,734,393,0,0
-483,631,0,0,0,0,0,0,0,0,0,-1,741,393,0,0
-476,631,0,0,0,0,0,0,0,0,0,-1,748,393,0,0
-469,631,0,0,0,0,0,0,0,0,0,-1,755,393,0,0
-462,631,0,0,0,0,0,0,0,0,0,-1,762,393,0,0
-455,631,0,0,0,0,0,0,0,0,0,-1,769,393,0,0
-448,631,0,0,0,0,0,0,0,0,0,-1,776,393,0,0
-441,631,0,0,0,0,0,0,0,0,0,-1,783,393,0,0
-434,631,0,0,0,0,0,0,0,0,0,-1,790,393,0,0
-427,631,0,0,0,0,0,0,0,0,0,-1,797,393,0,0
-420,631,0,0,0,0,0,0,0,0,0,-1,804,393,0,0
-413,631,0,0,0,0,0,0,0,0,0,-1,811,393,0,0
-406,631,0,0,0,0,0,0,0,0,0,-1,818,393,0,0
-399,631,0,0,0,0,0,0,0,0,0,-1,825,393,0,0
-392,631,0,0,0,0,0,0,0,0,0,-1,832,393,0,0
-385,631,0,0,0,0,0,0,0,0,0,-1,839,393,0,0
-378,631,0,0,0,0,0,0,0,0,0,-1,846,393,0,0
-371,631,0,0,0,0,0,0,0,0,0,-1,853,393,0,0
-364,631,0,0,0,0,0,0,0,0,0,-1,860,393,0,0
-357,631,0,0,0,0,0,0,0,0,0,-1,867,393,0,0
-350,631,0,0,0,0,0,0,0,0,0,-1,874,393,0,0
-343,631,0,0,0,0,0,0,0,0,0,-1,881,393,0,0
-336,631,0,0,0,0,0,0,0,0,0,-1,888,393,0,0
-329,631,0,0,0,0,0,0,0,0,0,-1,895,393,0,0
-322,631,0,0,0,0,0,0,0,0,0,-1,902,393,0,0
-315,631,0,0,0,0,0,0,0,0,0,-1,909,393,0,0
-308,631,0,0,0,0,0,0,0,0,0,-1,916,393,0,0
-301,631,0,0,0,0,0,0,0,0,0,-1,923,393,0,0
-294,631,0,0,0,0,0,0,0,0,0,-1,930,393,0,0
-287,631,0,0,0,0,0,0,0,0,0,-1,937,393,0,0
-280,631,7.71283,-34.969,0,0,0,0,0,0,0,-1,944,393,7.71282,34.969
-273,631,8.04437,-34.934,0,0,0,0,0,0,0,-1,951,393,8.04436,34.9339
-266,631,8.40277,-34.7584,0,0,0,0,0,0,0,-1,958,393,8.40275,34.7584
-259,631,8.56659,-34.037,0,0,0,0,0,0,0,-1,965,393,8.56662,34.037
-252,631,8.44446,-33.2643,0,0,0,0,0,0,0,-1,972,393,8.44445,33.2644
-245,631,8.34705,-32.527,0,0,0,0,0,0,0,-1,979,393,8.34704,32.527
-238,631,8.41888,-31.8855,0,0,0,0,0,0,0,-1,986,393,8.41887,31.8855
-231,631,2.14966,-25.2306,0,0,0,0,0,0,0,-1,993,393,2.14968,25.2306
-224,631,6.83575,-19.7909,0,0,0,0,0,0,0,-1,1000,393,6.83575,19.7909
-217,631,5.05188,-18.3867,0,0,0,0,0,0,0,-1,1007,393,5.0519,18.3866
-210,631,3.37842,-26.3769,0,0,0,0,0,0,0,-1,1014,393,3.37839,26.3769
-203,631,5.05298,-26.4169,0,0,0,0,0,0,0,-1,1021,393,5.05302,26.4169
-196,631,7.31018,-40.0428,0,0,0,0,0,0,0,-1,1028,393,7.31021,40.0428
-189,631,7.11914,-38.4874,0,0,0,0,0,0,0,-1,1035,393,7.11912,38.4874
-182,631,6.75781,-41.4555,0,0,0,0,0,0,0,-1,1042,393,6.75782,41.4555
-175,631,7.10608,-42.3585,0,0,0,0,0,0,0,-1,1049,393,7.1061,42.3585
-168,631,6.99463,-42.9926,-0.0028456,0.0178872,-0.00929433,0.0214437,-0.0064021,-1.20533,0.0168404,0.0313798,1056,393,6.99459,42.9926
-161,631,6.9386,-43.6478,-0.00316953,0.0171093,-0.00817526,0.0199946,-0.00605481,-1.23152,0.0157411,0.0181087,1063,393,6.93862,43.6478
-154,631,6.86841,-44.229,-0.00335613,0.0159481,-0.00723388,0.018358,-0.00576603,-1.24922,0.0145467,0.0162945,1070,393,6.86846,44.229
-147,631,6.83679,-44.7156,-0.00354471,0.0149698,-0.0062944,0.016907,-0.00548193,-1.27223,0.0134756,0.014578,1077,393,6.83684,44.7156
-140,631,6.80249,-45.2094,-0.00362841,0.0140288,-0.00542268,0.0155611,-0.00516078,-1.29539,0.012456,0.0112118,1084,393,6.80247,45.2094
-133,631,6.73291,-45.7008,-0.0036521,0.0130496,-0.00465922,0.0142615,-0.00486394,-1.31634,0.0114778,0.00830782,1091,393,6.73291,45.7008
-126,631,6.69128,-46.1892,-0.00380412,0.01176,-0.00379323,0.0126353,-0.00467937,-1.34402,0.0103424,0.012028,1098,393,6.69128,46.1892
-119,631,6.66748,-46.6642,-0.00369561,0.0106179,-0.00322303,0.0113102,-0.00438787,-1.35923,0.00935239,0.0163362,1105,393,6.66746,46.6642
-112,631,6.63721,-47.1154,-0.00345,0.00950512,-0.00269359,0.0100428,-0.00398772,-1.37376,0.00834822,0.0152795,1112,393,6.63717,47.1154
-105,631,6.66772,-47.5516,-0.0031848,0.00841625,-0.00231433,0.0088609,-0.00362945,-1.38098,0.00741916,0.019834,1119,393,6.66775,47.5516
-98,631,6.59473,-47.9888,-0.00295326,0.00721267,-0.00197818,0.00758403,-0.00332463,-1.38523,0.00645617,0.0173692,1126,393,6.59468,47.9888
-91,631,6.53821,-48.383,-0.00270446,0.00605762,-0.00168929,0.00637203,-0.00301887,-1.38678,0.00553585,0.0183243,1133,393,6.53816,48.383
-84,631,6.51062,-48.7908,-0.00238372,0.0045357,-0.0013054,0.00477379,-0.0026218,-1.3904,0.00432968,0.0181713,1140,393,6.51063,48.7908
-77,631,6.47229,-49.1855,-0.00204876,0.00374229,-0.00106446,0.00393176,-0.00223822,-1.39465,0.00360669,0.0125905,1147,393,6.47227,49.1855
-70,631,6.45007,-49.551,-0.00175556,0.00326249,-0.000912445,0.00342325,-0.00191632,-1.3964,0.00312346,0.0139775,1154,393,6.45008,49.551
-63,631,6.43359,-49.9105,-0.00146268,0.00284222,-0.000773147,0.00297687,-0.00159732,-1.39838,0.00268065,0.0143822,1161,393,6.43359,49.9105
-56,631,6.41113,-50.2731,-0.00118768,0.0023391,-0.000682515,0.00246658,-0.00131515,-1.38615,0.00221686,0.0151364,1168,393,6.41118,50.2731
-49,631,6.40442,-50.5602,-0.000895102,0.00201064,-0.000460162,0.00208177,-0.000966234,-1.41743,0.00179862,0.0116285,1175,393,6.40442,50.5602
-42,631,6.4187,-50.831,-0.000568359,0.0015576,-0.000237928,0.0015839,-0.000594662,-1.4607,0.0013003,0.00929858,1182,393,6.41865,50.831
-35,631,6.41492,-51.1091,-0.000320834,0.00125619,-0.000199825,0.00128111,-0.00034576,-1.4467,0.00098967,0.0112149,1189,393,6.41498,51.1091
-28,631,6.41235,-51.3813,-0.00012498,0.00084303,-0.000305835,0.000931559,-0.000213509,-1.28903,0.0007031,0.0140997,1196,393,6.41234,51.3813
-21,631,6.39038,-51.6325,0.000100185,0.000551777,-0.000552242,0.0009226,-0.000270639,-0.979464,0.000722381,0.0117623,1203,393,6.39039,51.6325
-14,631,6.39075,-51.8727,0.000340218,0.000550664,-0.00102622,0.00147704,-0.000586162,-0.836487,0.00122765,0.0140608,1210,393,6.39073,51.8728
-7,631,6.41077,-52.1302,0.000510779,0.000817057,-0.00165941,0.00233038,-0.00100255,-0.83141,0.00197451,0.0222346,1217,393,6.41075,52.1302
0,631,6.39453,-52.3369,0.000512474,0.00130797,-0.00230622,0.00325049,-0.00143004,-0.870792,0.0027696,0.0254234,1224,393,6.39459,52.3369
7,631,6.40259,-52.4363,0.000453647,0.0018899,-0.002889,0.00414869,-0.00180514,-0.907216,0.00352509,0.020232,1231,393,6.40264,52.4363
14,631,6.42761,-52.5888,0.000345335,0.00267683,-0.00343233,0.00513597,-0.00211381,-0.949105,0.00430518,0.0118136,1238,393,6.42765,52.5888
21,631,6.43665,-52.7245,0.000199404,0.00347685,-0.00390666,0.00607457,-0.00239832,-0.983986,0.00504297,0.0147084,1245,393,6.43663,52.7244
28,631,6.44495,-52.7988,0.000101141,0.00425202,-0.00421001,0.00687037,-0.00251721,-1.01441,0.0056108,0.016742,1252,393,6.44499,52.7988
35,631,6.49939,-52.8779,1.17173e-05,0.00499883,-0.00456124,0.00770361,-0.00269307,-1.03554,0.00623055,0.0159047,1259,393,6.49944,52.8779
42,631,6.54651,-52.9557,-4.11078e-05,0.00564471,-0.00455983,0.00817527,-0.00257167,-1.06415,0.0064798,0.0139174,1266,393,6.54656,52.9558
49,631,6.55554,-53.0147,-0.000199269,0.00620193,-0.00442279,0.00846071,-0.00245806,-1.09861,0.00661388,0.0126207,1273,393,6.55551,53.0147
56,631,6.57373,-53.0792,-0.000426946,0.00680024,-0.00426381,0.00877576,-0.00240246,-1.13692,0.00679442,0.01442,1280,393,6.57378,53.0791
63,631,6.57458,-53.1346,-0.000612215,0.00727146,-0.00394777,0.00890842,-0.00224917,-1.17772,0.00681356,0.0167202,1287,393,6.57457,53.1346
70,631,6.58276,-53.0832,-0.0006343,0.00726408,-0.00351111,0.0085992,-0.00196943,-1.20742,0.00648967,0.0167902,1294,393,6.58281,53.0832
77,631,6.6311,-53.0135,-0.000633195,0.00758351,-0.00305685,0.00859599,-0.00164567,-1.25095,0.00635069,0.0168744,1301,393,6.63114,53.0135
84,631,6.66162,-52.9691,-0.000629977,0.0077921,-0.00270423,0.00858563,-0.00142351,-1.28537,0.0062525,0.0148249,1308,393,6.66166,52.969
91,631,6.66602,-52.8918,-0.000769964,0.00773207,-0.0023138,0.00832098,-0.00135887,-1.32157,0.00605135,0.0175706,1315,393,6.66603,52.8918
98,631,6.698,-52.7932,-0.000803673,0.00765595,-0.00188188,0.00805569,-0.00120342,-1.36149,0.00581327,0.0138434,1322,393,6.69803,52.7932
105,631,6.68896,-52.6833,-0.000552815,0.00783409,-0.00146741,0.00808342,-0.000802145,-1.40249,0.00567526,0.0112633,1329,393,6.68891,52.6832
112,631,6.71069,-52.556,-0.000338013,0.00795572,-0.00116093,0.00811515,-0.000497451,-1.43431,0.00558331,0.0121281,1336,393,6.71068,52.556
119,631,6.73633,-52.4228,-0.000146265,0.00781802,-0.000810629,0.00789969,-0.000227936,-1.47039,0.00534406,0.0130786,1343,393,6.73631,52.4228
126,631,6.73291,-52.2232,5.00706e-05,0.00776639,-0.000495621,0.00779809,1.83668e-05,-1.50692,0.00519262,0.0190414,1350,393,6.73293,52.2232
133,631,6.75024,-52.016,0.000153789,0.00768771,-0.000249974,0.007696,0.000145504,-1.53767,0.00508286,0.0201376,1357,393,6.75025,52.016
140,631,6.76453,-51.823,0.000247308,0.00744218,0.000169179,0.00744616,0.000243332,1.5473,0.00488501,0.0205538,1364,393,6.76448,51.823
147,631,6.73572,-51.5857,0.0003785,0.00717723,0.00027895,0.00718866,0.000367074,1.52986,0.00467489,0.0235013,1371,393,6.73577,51.5857
154,631,6.74231,-51.3455,0.000551131,0.0067596,0.000383842,0.00678324,0.000527489,1.50928,0.00435699,0.0219073,1378,393,6.74235,51.3455
161,631,6.8092,-51.0245,0.00067731,0.00641976,0.000533841,0.00646896,0.000628104,1.47888,0.00411927,0.0244071,1385,393,6.8092,51.0245
168,631,6.8186,-50.698,0.000589225,0.00615787,0.000682701,0.00624034,0.000506749,1.45057,0.00400202,0.0304945,1392,393,6.81861,50.698
175,631,6.80017,-50.4222,0.000321771,0.00606754,0.000891581,0.00620271,0.000186602,1.42034,0.00407436,0.0228629,1399,393,6.80017,50.4222
182,631,6.76331,-50.1122,-2.01477e-05,0.00588828,0.00109452,0.00608452,-0.000216387,1.39339,0.00413037,0.0117231,1406,393,6.76327,50.1123
189,631,6.74402,-49.7391,-0.000333399,0.00580003,0.00137675,0.00609488,-0.000628256,1.35981,0.00428804,0.0109237,1413,393,6.74403,49.7391
196,631,6.71338,-49.3803,-0.000490345,0.00582428,0.00169287,0.00624948,-0.000915552,1.32471,0.00450264,0.011891,1420,393,6.71335,49.3803
203,631,6.71008,-49.021,-0.000795336,0.00608885,0.00205562,0.00665594,-0.00136243,1.30162,0.00495428,0.0136929,1427,393,6.71006,49.021
210,631,6.70044,-48.6348,-0.00139895,0.00606376,0.00225766,0.0066936,-0.00202879,1.29873,0.00527047,0.0158307,1434,393,6.7004,48.6348
217,631,6.68994,-48.2233,-0.00157842,0.00676173,0.00232405,0.00736562,-0.00218231,1.31658,0.00577692,0.0179241,1441,393,6.68998,48.2233
224,631,6.65137,-47.7846,-0.00142493,0.00792934,0.00252285,0.00856637,-0.00206196,1.32346,0.00650804,0.0138583,1448,393,6.65138,47.7846
231,631,6.58179,-47.3236,-0.00122496,0.00900024,0.00285055,0.00974121,-0.00196593,1.31648,0.00723899,0.0105842,1455,393,6.58182,47.3236
238,631,6.52515,-46.837,-0.00107237,0.0101869,0.00314562,0.0110061,-0.00189159,1.31602,0.00804244,0.017694,1462,393,6.5252,46.837
245,631,6.5332,-46.3861,-0.000952892,0.0116026,0.00349304,0.012509,-0.00185926,1.31692,0.00902313,0.0193456,1469,393,6.53319,46.3861
252,631,6.50281,-45.9241,-0.000642618,0.0131771,0.00391791,0.0142106,-0.00167607,1.3129,0.010079,0.0186325,1476,393,6.50275,45.9241
259,631,6.45032,-45.4228,-0.000113917,0.0150233,0.00460647,0.0163149,-0.00140553,1.29743,0.0113741,0.0139327,1483,393,6.45027,45.4228
266,631,6.40063,-44.9208,0.000545311,0.0167983,0.00558325,0.0185315,-0.00118783,1.26981,0.0127687,0.011904,1490,393,6.40066,44.9208
273,631,6.37244,-44.3752,0.0011732,0.0186222,0.00660826,0.0208424,-0.00104698,1.24667,0.0142567,0.0150659,1497,393,6.37241,44.3752
280,631,6.3512,-43.7872,0.00200838,0.0204804,0.00780757,0.0233383,-0.000849487,1.21991,0.0158496,0.0149769,1504,393,6.35116,43.7872
287,631,6.29382,-43.196,0.00298563,0.0226442,0.0093127,0.0263552,-0.000725445,1.19159,0.0178169,0.0184955,1511,393,6.29378,43.196
294,631,6.21265,-42.5245,0.00390049,0.0247122,0.0108736,0.0293569,-0.000744141,1.16711,0.0198239,0.0251237,1518,393,6.21261,42.5245
301,631,6.11572,-41.8078,0.00479354,0.0266452,0.0125089,0.032328,-0.000889249,1.14437,0.0218545,0.0344752,1525,393,6.11571,41.8078
308,631,6.41113,-41.0622,0.00582401,0.028512,0.014221,0.0353593,-0.00102326,1.12207,0.0239212,0.0374792,1532,393,6.41114,41.0622
315,631,6.65625,-40.5779,0.00688323,0.0305887,0.0159939,0.038643,-0.00117109,1.10428,0.0261611,0.0434218,1539,393,6.65625,40.5779
322,631,6.58008,-40.0388,0,0,0,0,0,0,0,-1,1546,393,6.58005,40.0388
329,631,5.70972,-38.2651,0,0,0,0,0,0,0,-1,1553,393,5.70967,38.2651
336,631,5.96265,-38.4965,0,0,0,0,0,0,0,-1,1560,393,5.96262,38.4965
343,631,6.21558,-38.7278,0,0,0,0,0,0,0,-1,1567,393,6.21558,38.7278
350,631,5.18359,-35.9677,0,0,0,0,0,0,0,-1,1574,393,5.18355,35.9677
357,631,2.6449,-9.60303,0,0,0,0,0,0,0,-1,1581,393,2.64491,9.60304
364,631,3.39136,-5.7594,0,0,0,0,0,0,0,-1,1588,393,3.39137,5.75939
371,631,3.72839,-6.0574,0,0,0,0,0,0,0,-1,1595,393,3.72845,6.05742
378,631,4.06555,-6.35544,0,0,0,0,0,0,0,-1,1602,393,4.06553,6.35544
385,631,3.90442,-3.58298,0,0,0,0,0,0,0,-1,1609,393,3.90437,3.58299
392,631,0.352295,-2.21301,0,0,0,0,0,0,0,-1,1616,393,0.352345,2.213
399,631,0,0,0,0,0,0,0,0,0,-1,1623,393,0,0
406,631,0,0,0,0,0,0,0,0,0,-1,1630,393,0,0
413,631,0,0,0,0,0,0,0,0,0,-1,1637,393,0,0
420,631,0,0,0,0,0,0,0,0,0,-1,1644,393,0,0
427,631,0,0,0,0,0,0,0,0,0,-1,1651,393,0,0
434,631,0,0,0,0,0,0,0,0,0,-1,1658,393,0,0
441,631,0,0,0,0,0,0,0,0,0,-1,1665,393,0,0
448,631,0,0,0,0,0,0,0,0,0,-1,1672,393,0,0
455,631,0,0,0,0,0,0,0,0,0,-1,1679,393,0,0
462,631,0,0,0,0,0,0,0,0,0,-1,1686,393,0,0
469,631,0,0,0,0,0,0,0,0,0,-1,1693,393,0,0
476,631,0,0,0,0,0,0,0,0,0,-1,1700,393,0,0
483,631,0,0,0,0,0,0,0,0,0,-1,1707,393,0,0
490,631,0,0,0,0,0,0,0,0,0,-1,1714,393,0,0
497,631,0,0,0,0,0,0,0,0,0,-1,1721,393,0,0
504,631,0,0,0,0,0,0,0,0,0,-1,1728,393,0,0
511,631,0,0,0,0,0,0,0,0,0,-1,1735,393,0,0
518,631,0,0,0,0,0,0,0,0,0,-1,1742,393,0,0
525,631,0,0,0,0,0,0,0,0,0,-1,1749,393,0,0
532,631,0,0,0,0,0,0,0,0,0,-1,1756,393,0,0
539,631,0,0,0,0,0,0,0,0,0,-1,1763,393,0,0
546,631,0,0,0,0,0,0,0,0,0,-1,1770,393,0,0
553,631,0,0,0,0,0,0,0,0,0,-1,1777,393,0,0
560,631,0,0,0,0,0,0,0,0,0,-1,1784,393,0,0
567,631,0,0,0,0,0,0,0,0,0,-1,1791,393,0,0
574,631,0,0,0,0,0,0,0,0,0,-1,1798,393,0,0
581,631,0,0,0,0,0,0,0,0,0,-1,1805,393,0,0
588,631,0,0,0,0,0,0,0,0,0,-1,1812,393,0,0
595,631,0,0,0,0,0,0,0,0,0,-1,1819,393,0,0
602,631,0,0,0,0,0,0,0,0,0,-1,1826,393,0,0
609,631,0,0,0,0,0,0,0,0,0,-1,1833,393,0,0
616,631,0,0,0,0,0,0,0,0,0,-1,1840,393,0,0
623,631,0,0,0,0,0,0,0,0,0,-1,1847,393,0,0
630,631,0,0,0,0,0,0,0,0,0,-1,1854,393,0,0
637,631,0,0,0,0,0,0,0,0,0,-1,1861,393,0,0
644,631,0,0,0,0,0,0,0,0,0,-1,1868,393,0,0
651,631,0,0,0,0,0,0,0,0,0,-1,1875,393,0,0
658,631,0,0,0,0,0,0,0,0,0,-1,1882,393,0,0
665,631,0,0,0,0,0,0,0,0,0,-1,1889,393,0,0
672,631,0,0,0,0,0,0,0,0,0,-1,1896,393,0,0
679,631,0,0,0,0,0,0,0,0,0,-1,1903,393,0,0
686,631,0,0,0,0,0,0,0,0,0,-1,1910,393,0,0
693,631,0,0,0,0,0,0,0,0,0,-1,1917,393,0,0
700,631,0,0,0,0,0,0,0,0,0,-1,1924,393,0,0
707,631,0,0,0,0,0,0,0,0,0,-1,1931,393,0,0
714,631,0,0,0,0,0,0,0,0,0,-1,1938,393,0,0
721,631,0,0,0,0,0,0,0,0,0,-1,1945,393,0,0
728,631,0,0,0,0,0,0,0,0,0,-1,1952,393,0,0
735,631,0,0,0,0,0,0,0,0,0,-1,1959,393,0,0
742,631,0,0,0,0,0,0,0,0,0,-1,1966,393,0,0
749,631,0,0,0,0,0,0,0,0,0,-1,1973,393,0,0
756,631,0,0,0,0,0,0,0,0,0,-1,1980,393,0,0
763,631,0,0,0,0,0,0,0,0,0,-1,1987,393,0,0
770,631,0,0,0,0,0,0,0,0,0,-1,1994,393,0,0
777,631,0,0,0,0,0,0,0,0,0,-1,2001,393,0,0
784,631,0,0,0,0,0,0,0,0,0,-1,2008,393,0,0
791,631,0,0,0,0,0,0,0,0,0,-1,2015,393,0,0
798,631,0,0,0,0,0,0,0,0,0,-1,2022,393,0,0
805,631,0,0,0,0,0,0,0,0,0,-1,2029,393,0,0
812,631,0,0,0,0,0,0,0,0,0,-1,2036,393,0,0
-700,624,0,0,0,0,0,0,0,0,0,-1,524,400,0,0
-693,624,0,0,0,0,0,0,0,0,0,-1,531,400,0,0
-686,624,0,0,0,0,0,0,0,0,0,-1,538,400,0,0
-679,624,0,0,0,0,0,0,0,0,0,-1,545,400,0,0
-672,624,0,0,0,0,0,0,0,0,0,-1,552,400,0,0
-665,624,0,0,0,0,0,0,0,0,0,-1,559,400,0,0
-658,624,0,0,0,0,0,0,0,0,0,-1,566,400,0,0
-651,624,0,0,0,0,0,0,0,0,0,-1,573,400,0,0
-644,624,0,0,0,0,0,0,0,0,0,-1,580,400,0,0
-637,624,0,0,0,0,0,0,0,0,0,-1,587,400,0,0
-630,624,0,0,0,0,0,0,0,0,0,-1,594,400,0,0
-623,624,0,0,0,0,0,0,0,0,0,-1,601,400,0,0
-616,624,0,0,0,0,0,0,0,0,0,-1,608,400,0,0
-609,624,0,0,0,0,0,0,0,0,0,-1,615,400,0,0
-602,624,0,0,0,0,0,0,0,0,0,-1,622,400,0,0
-595,624,0,0,0,0,0,0,0,0,0,-1,629,400,0,0
-588,624,0,0,0,0,0,0,0,0,0,-1,636,400,0,0
-581,624,0,0,0,0,0,0,0,0,0,-1,643,400,0,0
-574,624,0,0,0,0,0,0,0,0,0,-1,650,400,0,0
-567,624,0,0,0,0,0,0,0,0,0,-1,657,400,0,0
-560,624,0,0,0,0,0,0,0,0,0,-1,664,400,0,0
-553,624,0,0,0,0,0,0,0,0,0,-1,671,400,0,0
-546,624,0,0,0,0,0,0,0,0,0,-1,678,400,0,0
-539,624,0,0,0,0,0,0,0,0,0,-1,685,400,0,0
-532,624,0,0,0,0,0,0,0,0,0,-1,692,400,0,0
-525,624,0,0,0,0,0,0,0,0,0,-1,699,400,0,0
-518,624,0,0,0,0,0,0,0,0,0,-1,706,400,0,0
-511,624,0,0,0,0,0,0,0,0,0,-1,713,400,0,0
-504,624,0,0,0,0,0,0,0,0,0,-1,720,400,0,0
-497,624,0,0,0,0,0,0,0,0,0,-1,727,400,0,0
-490,624,0,0,0,0,0,0,0,0,0,-1,734,400,0,0
-483,624,0,0,0,0,0,0,0,0,0,-1,741,400,0,0
-476,624,0,0,0,0,0,0,0,0,0,-1,748,400,0,0
-469,624,0,0,0,0,0,0,0,0,0,-1,755,400,0,0
-462,624,0,0,0,0,0,0,0,0,0,-1,762,400,0,0
-455,624,0,0,0,0,0,0,0,0,0,-1,769,400,0,0
-448,624,0,0,0,0,0,0,0,0,0,-1,776,400,0,0
-441,624,0,0,0,0,0,0,0,0,0,-1,783,400,0,0
-434,624,0,0,0,0,0,0,0,0,0,-1,790,400,0,0
-427,624,0,0,0,0,0,0,0,0,0,-1,797,400,0,0
-420,624,0,0,0,0,0,0,0,0,0,-1,804,400,0,0
-413,624,0,0,0,0,0,0,0,0,0,-1,811,400,0,0
-406,624,0,0,0,0,0,0,0,0,0,-1,818,400,0,0
-399,624,0,0,0,0,0,0,0,0,0,-1,825,400,0,0
-392,624,0,0,0,0,0,0,0,0,0,-1,832,400,0,0
-385,624,0,0,0,0,0,0,0,0,0,-1,839,400,0,0
-378,624,0,0,0,0,0,0,0,0,0,-1,846,400,0,0
-371,624,0,0,0,0,0,0,0,0,0,-1,853,400,0,0
-364,624,0,0,0,0,0,0,0,0,0,-1,860,400,0,0
-357,624,0,0,0,0,0,0,0,0,0,-1,867,400,0,0
-350,624,0,0,0,0,0,0,0,0,0,-1,874,400,0,0
-343,624,0,0,0,0,0,0,0,0,0,-1,881,400,0,0
-336,624,0,0,0,0,0,0,0,0,0,-1,888,400,0,0
-329,624,0,0,0,0,0,0,0,0,0,-1,895,400,0,0
-322,624,0,0,0,0,0,0,0,0,0,-1,902,400,0,0
-315,624,0,0,0,0,0,0,0,0,0,-1,909,400,0,0
-308,624,0,0,0,0,0,0,0,0,0,-1,916,400,0,0
-301,624,0,0,0,0,0,0,0,0,0,-1,923,400,0,0
-294,624,5.08527,-28.5311,0,0,0,0,0,0,0,-1,930,400,5.08525,28.5311
-287,624,6.70825,-33.8,0,0,0,0,0,0,0,-1,937,400,6.70827,33.8
-280,624,6.92474,-33.8738,0,0,0,0,0,0,0,-1,944,400,6.92477,33.8739
-273,624,8.617,-37.3463,0,0,0,0,0,0,0,-1,951,400,8.61697,37.3463
-266,624,7.71747,-37.0599,0,0,0,0,0,0,0,-1,958,400,7.7175,37.0599
-259,624,7.33569,-33.1199,0,0,0,0,0,0,0,-1,965,400,7.33567,33.1199
-252,624,7.5528,-32.8158,0,0,0,0,0,0,0,-1,972,400,7.5528,32.8158
-245,624,6.8396,-32.02,0,0,0,0,0,0,0,-1,979,400,6.83963,32.02
-238,624,6.99402,-31.5278,0,0,0,0,0,0,0,-1,986,400,6.99404,31.5278
-231,624,3.86121,-29.6032,0,0,0,0,0,0,0,-1,993,400,3.86122,29.6032
-224,624,4.59351,-27.4048,0,0,0,0,0,0,0,-1,1000,400,4.59353,27.4048
-217,624,5.90167,-32.048,0,0,0,0,0,0,0,-1,1007,400,5.90167,32.048
-210,624,6.9433,-39.2843,0,0,0,0,0,0,0,-1,1014,400,6.94333,39.2843
-203,624,6.95227,-39.8629,0,0,0,0,0,0,0,-1,1021,400,6.95222,39.8629
-196,624,6.71594,-40.4648,0,0,0,0,0,0,0,-1,1028,400,6.716,40.4648
-189,624,6.57922,-41.0708,0,0,0,0,0,0,0,-1,1035,400,6.57921,41.0708
-182,624,6.43005,-41.7064,-0.00150314,0.0174382,-0.00972595,0.0215428,-0.00560773,-1.17145,0.0165509,0.0430918,1042,400,6.43,41.7064
-175,624,6.56763,-42.4099,-0.00180749,0.0151534,-0.00859872,0.01875,-0.00540413,-1.17463,0.0146378,0.0252789,1049,400,6.56761,42.4099
-168,624,6.54883,-43.0893,-0.00211369,0.0138244,-0.00755801,0.0168385,-0.00512779,-1.19133,0.0132694,0.0172375,1056,400,6.54888,43.0893
-161,624,6.44666,-43.7083,-0.00227827,0.0130327,-0.00667698,0.0155354,-0.00478097,-1.21218,0.0122652,0.0117234,1063,400,6.4467,43.7083
-154,624,6.40063,-44.2224,-0.0023301,0.0119677,-0.00588531,0.0140786,-0.00444098,-1.22642,0.0111645,0.0113756,1070,400,6.40064,44.2224
-147,624,6.37146,-44.736,-0.00237481,0.011027,-0.00507867,0.0127341,-0.00408194,-1.24653,0.0101281,0.0122594,1077,400,6.37144,44.736
-140,624,6.33215,-45.2313,-0.00233816,0.0100843,-0.00430056,0.0114278,-0.00368167,-1.268,0.00909759,0.0100512,1084,400,6.33215,45.2313
-133,624,6.25891,-45.7257,-0.00226405,0.00912956,-0.00361158,0.0101779,-0.00331241,-1.28829,0.00811789,0.0107272,1091,400,6.25886,45.7257
-126,624,6.22925,-46.2047,-0.00227187,0.00799034,-0.0028626,0.00873484,-0.00301637,-1.31636,0.00704725,0.0130623,1098,400,6.2293,46.2047
-119,624,6.20898,-46.6729,-0.00205274,0.00701242,-0.00234519,0.00758319,-0.00262351,-1.33206,0.00612035,0.0159933,1105,400,6.20894,46.6729
-112,624,6.19775,-47.1136,-0.00173073,0.00609043,-0.00188622,0.00652156,-0.00216187,-1.34609,0.00521975,0.0184109,1112,400,6.1977,47.1136
-105,624,6.22266,-47.5438,-0.00139181,0.00521777,-0.00157184,0.00557253,-0.00174657,-1.34882,0.00441394,0.014617,1119,400,6.22265,47.5438
-98,624,6.16223,-47.9747,-0.00105566,0.00430365,-0.00130845,0.00460604,-0.00135805,-1.34368,0.00360957,0.014673,1126,400,6.16221,47.9747
-91,624,6.15466,-48.3841,-0.000709609,0.00346969,-0.0010857,0.00373491,-0.00097482,-1.33121,0.00287059,0.0201951,1133,400,6.15469,48.3841
-84,624,6.1571,-48.8011,-0.000309143,0.00245987,-0.000794247,0.00267151,-0.000520784,-1.31038,0.00197759,0.0190766,1140,400,6.1571,48.8011
-77,624,6.13452,-49.1846,0.000128466,0.00190066,-0.000603139,0.00208645,-5.73256e-05,-1.27198,0.00141046,0.0143242,1147,400,6.13455,49.1846
-70,624,6.14661,-49.5216,0.000589213,0.00150483,-0.000454956,0.00169245,0.000401597,-1.17966,0.00102111,0.0164349,1154,400,6.14664,49.5216
-63,624,6.14856,-49.9004,0.000991183,0.000706154,-0.000320324,0.00119927,0.000498072,-0.576093,0.000695698,0.0169818,1161,400,6.14852,49.9004
-56,624,6.09363,-50.2636,0.0013328,-2.61955e-05,-0.000330916,0.0014091,-0.00010249,-0.226596,0.000975358,0.0135476,1168,400,6.09361,50.2636
-49,624,6.10461,-50.5813,0.0015313,-0.000527648,-0.000321094,0.00158021,-0.000576561,-0.15117,0.00128937,0.0106251,1175,400,6.10463,50.5813
-42,624,6.12366,-50.8484,0.00181089,-0.00107712,-0.000455293,0.00188097,-0.00114719,-0.152716,0.00176534,0.009876,1182,400,6.1237,50.8485
-35,624,6.11658,-51.1161,0.00208436,-0.00123427,-0.000902067,0.00231371,-0.00146362,-0.248973,0.00219917,0.0160679,1189,400,6.11664,51.1162
-28,624,6.11511,-51.4125,0.00226973,-0.00143589,-0.00149326,0.00279656,-0.00196272,-0.339177,0.0027618,0.0215926,1196,400,6.11516,51.4125
-21,624,6.14709,-51.6435,0.00246344,-0.00140502,-0.00234101,0.00356592,-0.0025075,-0.44013,0.00352419,0.0147958,1203,400,6.14706,51.6435
-14,624,6.19897,-51.8632,0.00272865,-0.000934514,-0.0034734,0.00482379,-0.00302966,-0.542767,0.00457346,0.0147097,1210,400,6.19897,51.8632
-7,624,6.21826,-52.0742,0.00289025,-0.000252147,-0.00457605,0.00615732,-0.00351922,-0.620028,0.00565554,0.0197769,1217,400,6.2182,52.0742
0,624,6.23779,-52.2666,0.00275536,0.000619023,-0.0055598,0.00734867,-0.00397429,-0.690493,0.00663337,0.0218232,1224,400,6.23782,52.2666
7,624,6.24438,-52.4245,0.00252977,0.00150868,-0.00635378,0.00839348,-0.00435504,-0.745308,0.00748245,0.0159738,1231,400,6.24437,52.4245
14,624,6.30164,-52.6082,0.00225567,0.00250883,-0.00705307,0.00943646,-0.00467196,-0.794371,0.00829888,0.0136566,1238,400,6.30165,52.6083
21,624,6.31592,-52.7194,0.00191686,0.00347081,-0.00760454,0.010338,-0.00495029,-0.836308,0.00900752,0.0155654,1245,400,6.31586,52.7194
28,624,6.33154,-52.8124,0.00158347,0.00429418,-0.00792642,0.0109803,-0.00510264,-0.870075,0.00948993,0.0144722,1252,400,6.33159,52.8124
35,624,6.38489,-52.8889,0.00120241,0.00537786,-0.00829327,0.0118421,-0.00526187,-0.908705,0.0101157,0.0179521,1259,400,6.38484,52.889
42,624,6.45166,-52.9786,0.000816126,0.00631659,-0.00818676,0.0122027,-0.00507001,-0.947444,0.0102519,0.0198023,1266,400,6.45168,52.9786
49,624,6.50867,-53.0083,0.000320285,0.00718069,-0.00782544,0.0122947,-0.00479374,-0.991956,0.0101779,0.0204747,1273,400,6.50873,53.0083
56,624,6.56226,-53.0804,-0.000250411,0.00820719,-0.00739244,0.0124949,-0.00453812,-1.0452,0.0101854,0.0197766,1280,400,6.56224,53.0804
63,624,6.6062,-53.093,-0.00082501,0.00923331,-0.00672631,0.0126027,-0.0041944,-1.10641,0.0100947,0.0161011,1287,400,6.6062,53.0931
70,624,6.61023,-53.1032,-0.00121177,0.00970352,-0.00593762,0.0123107,-0.00381894,-1.15705,0.00973313,0.0148866,1294,400,6.61026,53.1032
77,624,6.65857,-53.0524,-0.00159685,0.0107165,-0.00512185,0.0125684,-0.0034488,-1.22384,0.00973437,0.0157682,1301,400,6.6586,53.0524
84,624,6.71765,-52.9742,-0.00189502,0.0114547,-0.00428723,0.0127129,-0.00315326,-1.28533,0.00969878,0.0141399,1308,400,6.71764,52.9742
91,624,6.74548,-52.8863,-0.00226723,0.0116726,-0.00342443,0.0124684,-0.00306303,-1.34246,0.00949937,0.0141553,1315,400,6.74547,52.8863
98,624,6.77307,-52.7903,-0.00246283,0.0119141,-0.00263816,0.0123829,-0.00293164,-1.39493,0.00938636,0.0133097,1322,400,6.77307,52.7903
105,624,6.8031,-52.6993,-0.00228094,0.0123331,-0.00189701,0.0125753,-0.00252317,-1.44379,0.0093389,0.0147004,1329,400,6.80313,52.6993
112,624,6.849,-52.5782,-0.00205069,0.0123378,-0.00135393,0.0124641,-0.00217699,-1.47779,0.00912205,0.0154637,1336,400,6.84897,52.5782
119,624,6.88696,-52.4787,-0.0017884,0.011888,-0.000790796,0.0119336,-0.00183397,-1.51323,0.00863224,0.0154744,1343,400,6.88693,52.4787
126,624,6.8739,-52.2818,-0.00144388,0.0113876,-0.000312064,0.0113952,-0.00145146,-1.5465,0.00812393,0.0197947,1350,400,6.87387,52.2818
133,624,6.93958,-52.0351,-0.00107751,0.0107053,6.5004e-07,0.0107053,-0.00107751,1.57074,0.00752182,0.0197477,1357,400,6.93962,52.0351
140,624,6.98596,-51.8274,-0.000671936,0.00953055,0.00053533,0.00955856,-0.000699949,1.51852,0.00661804,0.0187697,1364,400,6.98597,51.8273
147,624,6.96558,-51.5918,-0.000152897,0.0084809,0.000554743,0.0085164,-0.000188395,1.50689,0.00574143,0.0238024,1371,400,6.96562,51.5918
154,624,7.02478,-51.3383,0.000431479,0.00720292,0.00054129,0.00724592,0.000388483,1.49153,0.00470647,0.0260274,1378,400,7.02484,51.3383
161,624,7.10583,-51.0333,0.000999564,0.00602305,0.000542075,0.00608088,0.000941735,1.46452,0.00377933,0.0239793,1385,400,7.10578,51.0333
168,624,7.12622,-50.7088,0.00134608,0.00497034,0.000488312,0.00503498,0.00128144,1.43919,0.00302148,0.0245673,1392,400,7.12625,50.7088
175,624,7.13452,-50.4363,0.00137759,0.004307,0.00050261,0.00439084,0.00129376,1.40552,0.00260534,0.0185941,1399,400,7.13452,50.4363
182,624,7.10925,-50.135,0.00129033,0.00362068,0.00048545,0.00371776,0.00119324,1.37342,0.00219184,0.0105259,1406,400,7.10924,50.1351
189,624,7.08423,-49.7727,0.00115339,0.00323737,0.000576498,0.00338622,0.00100454,1.31812,0.00200821,0.0105979,1413,400,7.08421,49.7727
196,624,7.05627,-49.4008,0.00105261,0.00322785,0.000761279,0.00346781,0.000812655,1.26545,0.00209422,0.0121347,1420,400,7.05624,49.4008
203,624,7.07825,-49.0131,0.000818771,0.0033627,0.000943734,0.00367457,0.000506903,1.25163,0.00229945,0.0150643,1427,400,7.0783,49.0131
210,624,7.10315,-48.6391,0.000322668,0.00348963,0.00114214,0.00385856,-4.62611e-05,1.25836,0.00258793,0.0178703,1434,400,7.1031,48.6391
217,624,7.07654,-48.2181,-2.9766e-05,0.0042413,0.00134189,0.0046279,-0.000416369,1.29029,0.00323301,0.0211654,1441,400,7.07659,48.2181
224,624,7.05994,-47.7834,-0.000130005,0.00520033,0.00161681,0.00565241,-0.000582081,1.29815,0.00397653,0.0175978,1448,400,7.05993,47.7834
231,624,7.03101,-47.3477,-0.000171258,0.0061006,0.00199112,0.00667932,-0.000749975,1.28794,0.00472276,0.0119034,1455,400,7.03105,47.3477
238,624,6.99243,-46.8853,-0.000184658,0.00706004,0.0023162,0.00773725,-0.000861869,1.28635,0.00546815,0.0182506,1462,400,6.99239,46.8853
245,624,6.98779,-46.4404,-0.000198622,0.00818454,0.00264953,0.00895173,-0.000965809,1.28895,0.00631442,0.0192816,1469,400,6.98775,46.4404
252,624,6.96887,-45.9382,-9.83615e-05,0.00946268,0.00303411,0.0103442,-0.000979926,1.28803,0.00724493,0.0137233,1476,400,6.96883,45.9382
259,624,6.92249,-45.4449,0.000146198,0.0109481,0.00362534,0.012052,-0.000957722,1.27522,0.0083722,0.00985515,1483,400,6.92254,45.4449
266,624,6.89099,-44.9276,0.000505436,0.0123832,0.00443034,0.0138537,-0.000965012,1.25033,0.00957368,0.0142005,1490,400,6.89104,44.9276
273,624,6.86389,-44.3764,0.000855985,0.0138666,0.00525736,0.0157254,-0.00100285,1.23095,0.0108334,0.0174384,1497,400,6.86389,44.3764
280,624,6.8147,-43.8448,0.00137812,0.0153684,0.00621916,0.0177332,-0.000986759,1.20742,0.0121644,0.0159152,1504,400,6.81465,43.8447
287,624,6.76318,-43.33,0.00201033,0.0170968,0.00740585,0.0201246,-0.00101749,1.18269,0.0137681,0.0124117,1511,400,6.76315,43.33
294,624,6.71313,-42.7658,0.00254781,0.0186973,0.00859979,0.0224191,-0.00117396,1.16236,0.0153523,0.0103293,1518,400,6.71311,42.7659
301,624,6.67151,-42.1297,0.0030476,0.0201638,0.00982,0.0246316,-0.00142018,1.14382,0.0169143,0.0117312,1525,400,6.67145,42.1297
308,624,6.65979,-41.4801,0.00363957,0.0215385,0.0110661,0.0268211,-0.00164302,1.12542,0.0184528,0.0168359,1532,400,6.65981,41.4801
315,624,6.66663,-40.8898,0.00420642,0.0230185,0.0123173,0.0291105,-0.00188557,1.11149,0.0200651,0.022019,1539,400,6.66659,40.8898
322,624,6.63037,-40.3029,0.00450695,0.024184,0.0136242,0.0311508,-0.00245977,1.09811,0.0216338,0.0409672,1546,400,6.63038,40.3029
329,624,6.58496,-39.6944,0,0,0,0,0,0,0,-1,1553,400,6.58491,39.6944
336,624,6.58447,-38.6458,0,0,0,0,0,0,0,-1,1560,400,6.58444,38.6458
343,624,6.74976,-38.2964,0,0,0,0,0,0,0,-1,1567,400,6.74981,38.2964
350,624,1.99194,-7.29742,0,0,0,0,0,0,0,-1,1574,400,1.99198,7.29741
357,624,2.64075,-3.13092,0,0,0,0,0,0,0,-1,1581,400,2.64076,3.13091
364,624,3.16565,-4.9458,0,0,0,0,0,0,0,-1,1588,400,3.16564,4.94579
371,624,3.37561,-5.23529,0,0,0,0,0,0,0,-1,1595,400,3.37563,5.23529
378,624,1.50439,-5.22165,0,0,0,0,0,0,0,-1,1602,400,1.50438,5.22164
385,624,1.2301,-10.5866,0,0,0,0,0,0,0,-1,1609,400,1.2301,10.5866
392,624,4.26819,-5.14236,0,0,0,0,0,0,0,-1,1616,400,4.26818,5.14236
399,624,2.22168,-9.19293,0,0,0,0,0,0,0,-1,1623,400,2.22173,9.19294
406,624,2.68213,-9.91171,0,0,0,0,0,0,0,-1,1630,400,2.68213,9.91171
413,624,0,0,0,0,0,0,0,0,0,-1,1637,400,0,0
420,624,0,0,0,0,0,0,0,0,0,-1,1644,400,0,0
427,624,0,0,0,0,0,0,0,0,0,-1,1651,400,0,0
434,624,0,0,0,0,0,0,0,0,0,-1,1658,400,0,0
441,624,0,0,0,0,0,0,0,0,0,-1,1665,400,0,0
448,624,0,0,0,0,0,0,0,0,0,-1,1672,400,0,0
455,624,0,0,0,0,0,0,0,0,0,-1,1679,400,0,0
462,624,0,0,0,0,0,0,0,0,0,-1,1686,400,0,0
469,624,0,0,0,0,0,0,0,0,0,-1,1693,400,0,0
476,624,0,0,0,0,0,0,0,0,0,-1,1700,400,0,0
483,624,0,0,0,0,0,0,0,0,0,-1,1707,400,0,0
490,624,0,0,0,0,0,0,0,0,0,-1,1714,400,0,0
497,624,0,0,0,0,0,0,0,0,0,-1,1721,400,0,0
504,624,0,0,0,0,0,0,0,0,0,-1,1728,400,0,0
511,624,0,0,0,0,0,0,0,0,0,-1,1735,400,0,0
518,624,0,0,0,0,0,0,0,0,0,-1,1742,400,0,0
525,624,0,0,0,0,0,0,0,0,0,-1,1749,400,0,0
532,624,0,0,0,0,0,0,0,0,0,-1,1756,400,0,0
539,624,0,0,0,0,0,0,0,0,0,-1,1763,400,0,0
546,624,0,0,0,0,0,0,0,0,0,-1,1770,400,0,0
553,624,0,0,0,0,0,0,0,0,0,-1,1777,400,0,0
560,624,0,0,0,0,0,0,0,0,0,-1,1784,400,0,0
567,624,0,0,0,0,0,0,0,0,0,-1,1791,400,0,0
574,624,0,0,0,0,0,0,0,0,0,-1,1798,400,0,0
581,624,0,0,0,0,0,0,0,0,0,-1,1805,400,0,0
588,624,0,0,0,0,0,0,0,0,0,-1,1812,400,0,0
595,624,0,0,0,0,0,0,0,0,0,-1,1819,400,0,0
602,624,0,0,0,0,0,0,0,0,0,-1,1826,400,0,0
609,624,0,0,0,0,0,0,0,0,0,-1,1833,400,0,0
616,624,0,0,0,0,0,0,0,0,0,-1,1840,400,0,0
623,624,0,0,0,0,0,0,0,0,0,-1,1847,400,0,0
630,624,0,0,0,0,0,0,0,0,0,-1,1854,400,0,0
637,624,0,0,0,0,0,0,0,0,0,-1,1861,400,0,0
644,624,0,0,0,0,0,0,0,0,0,-1,1868,400,0,0
651,624,0,0,0,0,0,0,0,0,0,-1,1875,400,0,0
658,624,0,0,0,0,0,0,0,0,0,-1,1882,400,0,0
665,624,0,0,0,0,0,0,0,0,0,-1,1889,400,0,0
672,624,0,0,0,0,0,0,0,0,0,-1,1896,400,0,0
679,624,0,0,0,0,0,0,0,0,0,-1,1903,400,0,0
686,624,0,0,0,0,0,0,0,0,0,-1,1910,400,0,0
693,624,0,0,0,0,0,0,0,0,0,-1,1917,400,0,0
700,624,0,0,0,0,0,0,0,0,0,-1,1924,400,0,0
707,624,0,0,0,0,0,0,0,0,0,-1,1931,400,0,0
714,624,0,0,0,0,0,0,0,0,0,-1,1938,400,0,0
721,624,0,0,0,0,0,0,0,0,0,-1,1945,400,0,0
728,624,0,0,0,0,0,0,0,0,0,-1,1952,400,0,0
735,624,0,0,0,0,0,0,0,0,0,-1,1959,400,0,0
742,624,0,0,0,0,0,0,0,0,0,-1,1966,400,0,0
749,624,0,0,0,0,0,0,0,0,0,-1,1973,400,0,0
756,624,0,0,0,0,0,0,0,0,0,-1,1980,400,0,0
763,624,0,0,0,0,0,0,0,0,0,-1,1987,400,0,0
770,624,0,0,0,0,0,0,0,0,0,-1,1994,400,0,0
777,624,0,0,0,0,0,0,0,0,0,-1,2001,400,0,0
784,624,0,0,0,0,0,0,0,0,0,-1,2008,400,0,0
791,624,0,0,0,0,0,0,0,0,0,-1,2015,400,0,0
798,624,0,0,0,0,0,0,0,0,0,-1,2022,400,0,0
805,624,0,0,0,0,0,0,0,0,0,-1,2029,400,0,0
812,624,0,0,0,0,0,0,0,0,0,-1,2036,400,0,0
-700,617,0,0,0,0,0,0,0,0,0,-1,524,407,0,0
-693,617,0,0,0,0,0,0,0,0,0,-1,531,407,0,0
-686,617,0,0,0,0,0,0,0,0,0,-1,538,407,0,0
-679,617,0,0,0,0,0,0,0,0,0,-1,545,407,0,0
-672,617,0,0,0,0,0,0,0,0,0,-1,552,407,0,0
-665,617,0,0,0,0,0,0,0,0,0,-1,559,407,0,0
-658,617,0,0,0,0,0,0,0,0,0,-1,566,407,0,0
-651,617,0,0,0,0,0,0,0,0,0,-1,573,407,0,0
-644,617,0,0,0,0,0,0,0,0,0,-1,580,407,0,0
-637,617,0,0,0,0,0,0,0,0,0,-1,587,407,0,0
-630,617,0,0,0,0,0,0,0,0,0,-1,594,407,0,0
-623,617,0,0,0,0,0,0,0,0,0,-1,601,407,0,0
-616,617,0,0,0,0,0,0,0,0,0,-1,608,407,0,0
-609,617,0,0,0,0,0,0,0,0,0,-1,615,407,0,0
-602,617,0,0,0,0,0,0,0,0,0,-1,622,407,0,0
-595,617,0,0,0,0,0,0,0,0,0,-1,629,407,0,0
-588,617,0,0,0,0,0,0,0,0,0,-1,636,407,0,0
-581,617,0,0,0,0,0,0,0,0,0,-1,643,407,0,0
-574,617,0,0,0,0,0,0,0,0,0,-1,650,407,0,0
-567,617,0,0,0,0,0,0,0,0,0,-1,657,407,0,0
-560,617,0,0,0,0,0,0,0,0,0,-1,664,407,0,0
-553,617,0,0,0,0,0,0,0,0,0,-1,671,407,0,0
-546,617,0,0,0,0,0,0,0,0,0,-1,678,407,0,0
-539,617,0,0,0,0,0,0,0,0,0,-1,685,407,0,0
-532,617,0,0,0,0,0,0,0,0,0,-1,692,407,0,0
-525,617,0,0,0,0,0,0,0,0,0,-1,699,407,0,0
-518,617,0,0,0,0,0,0,0,0,0,-1,706,407,0,0
-511,617,0,0,0,0,0,0,0,0,0,-1,713,407,0,0
-504,617,0,0,0,0,0,0,0,0,0,-1,720,407,0,0
-497,617,0,0,0,0,0,0,0,0,0,-1,727,407,0,0
-490,617,0,0,0,0,0,0,0,0,0,-1,734,407,0,0
-483,617,0,0,0,0,0,0,0,0,0,-1,741,407,0,0
-476,617,0,0,0,0,0,0,0,0,0,-1,748,407,0,0
-469,617,0,0,0,0,0,0,0,0,0,-1,755,407,0,0
-462,617,0,0,0,0,0,0,0,0,0,-1,762,407,0,0
-455,617,0,0,0,0,0,0,0,0,0,-1,769,407,0,0
-448,617,0,0,0,0,0,0,0,0,0,-1,776,407,0,0
-441,617,0,0,0,0,0,0,0,0,0,-1,783,407,0,0
-434,617,0,0,0,0,0,0,0,0,0,-1,790,407,0,0
-427,617,0,0,0,0,0,0,0,0,0,-1,797,407,0,0
-420,617,0,0,0,0,0,0,0,0,0,-1,804,407,0,0
-413,617,0,0,0,0,0,0,0,0,0,-1,811,407,0,0
-406,617,0,0,0,0,0,0,0,0,0,-1,818,407,0,0
-399,617,0,0,0,0,0,0,0,0,0,-1,825,407,0,0
-392,617,0,0,0,0,0,0,0,0,0,-1,832,407,0,0
-385,617,0,0,0,0,0,0,0,0,0,-1,839,407,0,0
-378,617,0,0,0,0,0,0,0,0,0,-1,846,407,0,0
-371,617,0,0,0,0,0,0,0,0,0,-1,853,407,0,0
-364,617,0,0,0,0,0,0,0,0,0,-1,860,407,0,0
-357,617,0,0,0,0,0,0,0,0,0,-1,867,407,0,0
-350,617,0,0,0,0,0,0,0,0,0,-1,874,407,0,0
-343,617,0,0,0,0,0,0,0,0,0,-1,881,407,0,0
-336,617,0,0,0,0,0,0,0,0,0,-1,888,407,0,0
-329,617,0,0,0,0,0,0,0,0,0,-1,895,407,0,0
-322,617,0,0,0,0,0,0,0,0,0,-1,902,407,0,0
-315,617,0,0,0,0,0,0,0,0,0,-1,909,407,0,0
-308,617,0,0,0,0,0,0,0,0,0,-1,916,407,0,0
-301,617,6.81897,-24.525,0,0,0,0,0,0,0,-1,923,407,6.81899,24.525
-294,617,6.19263,-26.917,0,0,0,0,0,0,0,-1,930,407,6.19261,26.917
-287,617,7.00409,-31.9773,0,0,0,0,0,0,0,-1,937,407,7.00406,31.9773
-280,617,9.1106,-36.5021,0,0,0,0,0,0,0,-1,944,407,9.11059,36.5021
-273,617,8.35004,-36.2751,0,0,0,0,0,0,0,-1,951,407,8.35003,36.2751
-266,617,7.61749,-36.1671,0,0,0,0,0,0,0,-1,958,407,7.61746,36.1671
-259,617,6.83643,-36.3605,0,0,0,0,0,0,0,-1,965,407,6.83643,36.3605
-252,617,6.02264,-36.5001,0,0,0,0,0,0,0,-1,972,407,6.02265,36.5001
-245,617,6.72626,-34.4465,0,0,0,0,0,0,0,-1,979,407,6.72627,34.4465
-238,617,5.6474,-34.6842,0,0,0,0,0,0,0,-1,986,407,5.64741,34.6842
-231,617,6.1778,-36.753,0,0,0,0,0,0,0,-1,993,407,6.17781,36.753
-224,617,6.13214,-37.8053,0,0,0,0,0,0,0,-1,1000,407,6.13214,37.8053
-217,617,6.32513,-38.8572,0,0,0,0,0,0,0,-1,1007,407,6.32514,38.8572
-210,617,6.32391,-39.5414,-0.000748597,0.0239641,-0.0113638,0.028395,-0.00517958,-1.19901,0.0208719,0.0368505,1014,407,6.32392,39.5414
-203,617,6.25549,-40.2306,-0.000841757,0.0201413,-0.0099261,0.0240927,-0.00479321,-1.19194,0.0178751,0.025304,1021,407,6.25555,40.2306
-196,617,6.11584,-40.8087,-0.000953968,0.0171068,-0.00876441,0.0206606,-0.00450781,-1.18557,0.0154965,0.0236789,1028,407,6.11586,40.8087
-189,617,6.07434,-41.3603,-0.000927221,0.0152002,-0.00817513,0.0186194,-0.00434638,-1.17467,0.014087,0.020249,1035,407,6.07435,41.3602
-182,617,6.07703,-41.9815,-0.000906213,0.0133586,-0.00756179,0.016621,-0.0041686,-1.16349,0.0127003,0.0198366,1042,407,6.07705,41.9815
-175,617,6.0553,-42.5453,-0.00102381,0.0113857,-0.00669575,0.0143096,-0.00394769,-1.15908,0.0110923,0.0162598,1049,407,6.05526,42.5453
-168,617,5.9967,-43.1439,-0.00119596,0.0100749,-0.00584023,0.0125553,-0.00367634,-1.16918,0.00982759,0.0123327,1056,407,5.99668,43.1439
-161,617,5.93311,-43.7259,-0.00128625,0.00920228,-0.00506778,0.0112508,-0.00333477,-1.18665,0.00882471,0.0112339,1063,407,5.93312,43.7259
-154,617,5.88782,-44.2253,-0.0012918,0.00813549,-0.00431582,0.00981283,-0.00296915,-1.20011,0.00772423,0.0127352,1070,407,5.88787,44.2253
-147,617,5.85669,-44.7238,-0.001292,0.00715904,-0.00353217,0.0084409,-0.00257385,-1.22267,0.00665329,0.0177702,1077,407,5.85672,44.7238
-140,617,5.83765,-45.2612,-0.00123492,0.00615944,-0.00274493,0.00706701,-0.00214249,-1.25147,0.00556473,0.0125703,1084,407,5.83766,45.2612
-133,617,5.8075,-45.7574,-0.00114682,0.00517749,-0.00204163,0.0057793,-0.00174864,-1.28414,0.00454919,0.0143444,1091,407,5.80756,45.7574
-126,617,5.78284,-46.2022,-0.00108076,0.00412317,-0.00134098,0.0044484,-0.00140599,-1.33286,0.00352889,0.0149843,1098,407,5.78286,46.2022
-119,617,5.7644,-46.665,-0.000807554,0.00324241,-0.000833234,0.00340714,-0.000972282,-1.37562,0.00265553,0.0151649,1105,407,5.76445,46.665
-112,617,5.73157,-47.0988,-0.000442088,0.00246199,-0.000426156,0.00252324,-0.000503332,-1.42806,0.00187262,0.0159357,1112,407,5.73151,47.0988
-105,617,5.72058,-47.5308,-4.38195e-05,0.00177062,-0.000177743,0.00178786,-6.10673e-05,-1.47406,0.00121278,0.0168852,1119,407,5.72053,47.5308
-98,617,5.71814,-47.9667,0.00039569,0.00108584,-1.00822e-06,0.00108584,0.000395689,-1.56934,0.00063455,0.013526,1126,407,5.71811,47.9667
-91,617,5.74597,-48.3768,0.000870986,0.000530479,0.000101836,0.000899118,0.000502347,0.269527,0.000520298,0.0181673,1133,407,5.74601,48.3768
-84,617,5.77515,-48.7948,0.00146793,1.24211e-05,0.000196903,0.0014941,-1.37456e-05,0.132117,0.00100068,0.0180017,1140,407,5.77519,48.7948
-77,617,5.75903,-49.18,0.00215518,-0.000150779,0.000134063,0.00216295,-0.000158547,0.0578774,0.00149762,0.0147489,1147,407,5.75903,49.18
-70,617,5.80212,-49.5486,0.0028762,-0.000230979,7.8492e-05,0.00287818,-0.00023296,0.0252401,0.00200097,0.0166742,1154,407,5.80215,49.5486
-63,617,5.85205,-49.919,0.00298746,-0.0010916,3.2199e-05,0.00298771,-0.00109185,0.00789307,0.00243864,0.0186777,1161,407,5.8521,49.919
-56,617,5.78882,-50.2484,0.00295649,-0.00131708,-0.000724964,0.00307612,-0.00143672,-0.163545,0.00266218,0.0140802,1168,407,5.78886,50.2483
-49,617,5.8009,-50.5752,0.00271189,-0.00136565,-0.00148279,0.00319408,-0.00184784,-0.314405,0.00294534,0.0111791,1175,407,5.80086,50.5752
-42,617,5.84229,-50.878,0.00273657,-0.00124914,-0.00251027,0.00394886,-0.00246143,-0.449899,0.00373404,0.0118572,1182,407,5.84231,50.878
-35,617,5.87085,-51.1402,0.00281261,-0.000496936,-0.00393862,0.00542996,-0.00311428,-0.586525,0.00499305,0.0172414,1189,407,5.87084,51.1402
-28,617,5.86096,-51.4001,0.00284128,-0.000178725,-0.00518278,0.00672955,-0.004067,-0.643647,0.00629625,0.0206107,1196,407,5.86097,51.4001
-21,617,5.94189,-51.62,0.00290341,0.00037021,-0.00674973,0.00850436,-0.00523073,-0.692651,0.00800468,0.0148206,1203,407,5.94187,51.62
-14,617,5.97632,-51.8339,0.0031305,0.00128081,-0.00855041,0.0108059,-0.00639463,-0.731526,0.010039,0.0152992,1210,407,5.9763,51.8339
-7,617,6.00037,-52.0242,0.00329429,0.0022192,-0.0100613,0.0128324,-0.00731891,-0.75871,0.0117786,0.0192191,1217,407,6.00042,52.0242
0,617,6.06042,-52.1819,0.00302674,0.00319378,-0.0112658,0.0143764,-0.00815587,-0.789105,0.0131732,0.0178617,1224,407,6.0604,52.182
7,617,6.11487,-52.4009,0.00262822,0.00404661,-0.0121167,0.0154748,-0.0088,-0.81463,0.0141906,0.0127605,1231,407,6.11487,52.4009
14,617,6.1665,-52.5854,0.00210853,0.00485893,-0.0127682,0.0163257,-0.00935827,-0.839044,0.0150094,0.0146077,1238,407,6.16648,52.5854
21,617,6.21204,-52.6917,0.00155814,0.00566257,-0.0132331,0.0170017,-0.00978096,-0.862326,0.0156492,0.0136307,1245,407,6.21198,52.6917
28,617,6.26697,-52.8277,0.000817538,0.00604843,-0.0133669,0.0170534,-0.0101874,-0.88201,0.0158931,0.0126699,1252,407,6.26691,52.8277
35,617,6.26746,-52.9348,-4.54404e-05,0.00690902,-0.0134701,0.0173435,-0.0104799,-0.911713,0.0162259,0.0158106,1259,407,6.26747,52.9347
42,617,6.39221,-52.9507,-0.000983903,0.00769458,-0.0129209,0.0169854,-0.0102747,-0.947396,0.0158968,0.0226512,1266,407,6.39218,52.9507
49,617,6.46472,-52.991,-0.00211439,0.0084932,-0.0119774,0.0162886,-0.00990978,-0.99383,0.0152744,0.021717,1273,407,6.46475,52.991
56,617,6.52759,-53.0441,-0.00330245,0.00960054,-0.0109726,0.0158777,-0.00957964,-1.05116,0.014847,0.0151708,1280,407,6.52764,53.0441
63,617,6.58325,-53.0677,-0.00455324,0.0109468,-0.00964962,0.0155733,-0.00917973,-1.12373,0.0144492,0.0116594,1287,407,6.5833,53.0677
70,617,6.62756,-53.1017,-0.00554326,0.0118896,-0.00823567,0.0151649,-0.00881859,-1.19227,0.0140076,0.0178639,1294,407,6.62751,53.1017
77,617,6.73621,-53.0541,-0.00645249,0.0137729,-0.00691802,0.0159128,-0.00859237,-1.27081,0.014357,0.0147743,1301,407,6.73621,53.0541
84,617,6.79468,-52.9739,-0.0070445,0.0152145,-0.00552062,0.0165085,-0.00833849,-1.34056,0.0146016,0.0112487,1308,407,6.79468,52.9739
91,617,6.82776,-52.899,-0.00753222,0.0161359,-0.00408351,0.0168207,-0.00821694,-1.40466,0.0147372,0.0106689,1315,407,6.82778,52.899
98,617,6.8728,-52.8097,-0.00763977,0.0171859,-0.00293307,0.0175277,-0.0079816,-1.45478,0.0150677,0.011821,1322,407,6.87282,52.8097
105,617,6.94031,-52.69,-0.00722965,0.0183896,-0.00180831,0.0185166,-0.00735666,-1.50068,0.0153942,0.0137409,1329,407,6.94035,52.69
112,617,7.01746,-52.5693,-0.00667312,0.0189671,-0.00102968,0.0190084,-0.0067144,-1.53072,0.0154061,0.0171106,1336,407,7.01747,52.5693
119,617,7.06067,-52.4338,-0.00596489,0.0188903,-0.000273274,0.0188933,-0.0059679,-1.5598,0.0149863,0.0195295,1343,407,7.06061,52.4338
126,617,7.07117,-52.2573,-0.00523769,0.0183895,0.000378561,0.0183955,-0.00524375,1.55478,0.0143349,0.0228581,1350,407,7.07112,52.2573
133,617,7.11401,-52.024,-0.00430424,0.0177141,0.000808709,0.0177437,-0.0043339,1.53413,0.0135076,0.0202408,1357,407,7.11398,52.024
140,617,7.19531,-51.81,-0.0034148,0.0160966,0.00148672,0.0162092,-0.00352743,1.49518,0.0121538,0.0163409,1364,407,7.19526,51.81
147,617,7.21582,-51.5633,-0.00238039,0.0144566,0.00140867,0.0145737,-0.00249743,1.4879,0.0106463,0.0203712,1371,407,7.21583,51.5633
154,617,7.27649,-51.3584,-0.00130052,0.0124716,0.00134763,0.0126022,-0.00143115,1.47417,0.00891689,0.0233828,1378,407,7.27653,51.3584
161,617,7.35938,-51.1046,-0.000264729,0.0105329,0.00127413,0.0106813,-0.000413041,1.45492,0.00726243,0.0245586,1385,407,7.35942,51.1046
168,617,7.38672,-50.7916,0.000683825,0.0085047,0.00105574,0.0086447,0.000543815,1.43895,0.00559069,0.0246878,1392,407,7.38677,50.7916
175,617,7.4165,-50.4893,0.00123534,0.00682184,0.000890756,0.00696043,0.00109675,1.41645,0.00432135,0.0201424,1399,407,7.41648,50.4893
182,617,7.44775,-50.1591,0.00166405,0.00493916,0.000628516,0.00505564,0.00154757,1.38756,0.00299113,0.0120619,1406,407,7.44769,50.1591
189,617,7.41772,-49.7818,0.00192409,0.00369078,0.000472416,0.00380917,0.0018057,1.32525,0.00220021,0.011739,1413,407,7.41767,49.7818
196,617,7.40283,-49.4085,0.00221359,0.00272927,0.00034859,0.00290501,0.00203784,1.10382,0.00172201,0.0165063,1420,407,7.40288,49.4085
203,617,7.4209,-49.045,0.00232314,0.00170059,0.000131391,0.00234973,0.00167399,0.199708,0.00139683,0.0171328,1427,407,7.42084,49.045
210,617,7.46924,-48.6484,0.00206915,0.000952758,9.93997e-06,0.00206924,0.000952669,0.00890269,0.00119593,0.015704,1434,407,7.46925,48.6484
217,617,7.4873,-48.224,0.00153845,0.00176429,0.000327717,0.00199799,0.00130474,0.951309,0.00117141,0.0206756,1441,407,7.4873,48.224
224,617,7.48669,-47.8192,0.00121355,0.00261559,0.000670699,0.00288476,0.000944382,1.18915,0.00169828,0.0214136,1448,407,7.48667,47.8192
231,617,7.46643,-47.3802,0.000958164,0.00345399,0.00110319,0.0038717,0.000540448,1.20884,0.00242118,0.0154664,1455,407,7.46641,47.3802
238,617,7.44604,-46.9363,0.000818364,0.00426269,0.00145043,0.0047921,0.000288951,1.22082,0.00310291,0.0160996,1462,407,7.44607,46.9363
245,617,7.46155,-46.4655,0.000713799,0.00518866,0.0017557,0.00579527,0.000107184,1.23813,0.00382829,0.0133428,1469,407,7.46157,46.4655
252,617,7.4386,-45.9378,0.000646485,0.00623997,0.00209589,0.00693816,-5.17017e-05,1.24924,0.00464277,0.0134851,1476,407,7.4386,45.9378
259,617,7.3949,-45.4318,0.000655775,0.00743197,0.00258369,0.0083047,-0.000216954,1.24505,0.00561018,0.0119035,1483,407,7.39485,45.4318
266,617,7.36206,-44.9138,0.000773088,0.0085996,0.00321759,0.00975255,-0.000379866,1.22672,0.00663195,0.0150246,1490,407,7.36202,44.9138
273,617,7.34485,-44.3617,0.000919477,0.00984566,0.00387688,0.0112944,-0.00052923,1.21318,0.00771204,0.0159729,1497,407,7.34482,44.3617
280,617,7.30713,-43.8418,0.00121282,0.0111127,0.00464984,0.0129542,-0.000628624,1.19372,0.00885309,0.0141542,1504,407,7.30713,43.8418
287,617,7.27209,-43.3182,0.00159922,0.0125482,0.00558872,0.014897,-0.000749571,1.17294,0.0101904,0.0130703,1511,407,7.27206,43.3182
294,617,7.229,-42.7623,0.00188365,0.0138646,0.00651399,0.0167238,-0.00097562,1.15718,0.0114883,0.0102418,1518,407,7.22895,42.7623
301,617,7.19495,-42.1873,0.00212797,0.0150688,0.00744076,0.018459,-0.0012622,1.14328,0.0127476,0.00796465,1525,407,7.19495,42.1873
308,617,7.15967,-41.6048,0.00243723,0.0161878,0.00837007,0.0201443,-0.00151927,1.12923,0.0139635,0.00811273,1532,407,7.15964,41.6048
315,617,7.1123,-41.0243,0.00269757,0.0173553,0.00927845,0.0218502,-0.00179736,1.11967,0.0152014,0.00990672,1539,407,7.11236,41.0243
322,617,7.04724,-40.4221,0.00273182,0.0183185,0.0101754,0.0233421,-0.00229181,1.1122,0.0163789,0.0150729,1546,407,7.04726,40.4221
329,617,7.01367,-39.7635,0.00268427,0.0191434,0.0109237,0.0245905,-0.00276286,1.10823,0.017388,0.0216739,1553,407,7.01365,39.7635
336,617,7.07349,-38.9389,0.00271016,0.0203623,0.0117458,0.0262285,-0.00315606,1.1076,0.018627,0.0416692,1560,407,7.07347,38.9389
343,617,6.88916,-38.5873,0,0,0,0,0,0,0,-1,1567,407,6.88917,38.5873
350,617,6.83777,-37.8271,0,0,0,0,0,0,0,-1,1574,407,6.83782,37.8271
357,617,2.1748,-7.16504,0,0,0,0,0,0,0,-1,1581,407,2.1748,7.16505
364,617,2.30127,-7.60257,0,0,0,0,0,0,0,-1,1588,407,2.30125,7.60258
371,617,2.60266,-6.20667,0,0,0,0,0,0,0,-1,1595,407,2.60261,6.20668
378,617,1.56921,-10.3601,0,0,0,0,0,0,0,-1,1602,407,1.56918,10.3601
385,617,1.74146,-10.3561,0,0,0,0,0,0,0,-1,1609,407,1.7414,10.3561
392,617,1.96936,-5.10449,0,0,0,0,0,0,0,-1,1616,407,1.96931,5.10451
399,617,2.48889,-5.81256,0,0,0,0,0,0,0,-1,1623,407,2.48888,5.81255
406,617,3.01465,-6.51642,0,0,0,0,0,0,0,-1,1630,407,3.01461,6.51643
413,617,3.6427,-7.2074,0,0,0,0,0,0,0,-1,1637,407,3.64274,7.20739
420,617,3.42737,-4.47391,0,0,0,0,0,0,0,-1,1644,407,3.42737,4.47391
427,617,0,0,0,0,0,0,0,0,0,-1,1651,407,0,0
434,617,0,0,0,0,0,0,0,0,0,-1,1658,407,0,0
441,617,0,0,0,0,0,0,0,0,0,-1,1665,407,0,0
448,617,0,0,0,0,0,0,0,0,0,-1,1672,407,0,0
455,617,0,0,0,0,0,0,0,0,0,-1,1679,407,0,0
462,617,0,0,0,0,0,0,0,0,0,-1,1686,407,0,0
469,617,0,0,0,0,0,0,0,0,0,-1,1693,407,0,0
476,617,0,0,0,0,0,0,0,0,0,-1,1700,407,0,0
483,617,0,0,0,0,0,0,0,0,0,-1,1707,407,0,0
490,617,0,0,0,0,0,0,0,0,0,-1,1714,407,0,0
497,617,0,0,0,0,0,0,0,0,0,-1,1721,407,0,0
504,617,0,0,0,0,0,0,0,0,0,-1,1728,407,0,0
511,617,0,0,0,0,0,0,0,0,0,-1,1735,407,0,0
518,617,0,0,0,0,0,0,0,0,0,-1,1742,407,0,0
525,617,0,0,0,0,0,0,0,0,0,-1,1749,407,0,0
532,617,0,0,0,0,0,0,0,0,0,-1,1756,407,0,0
539,617,0,0,0,0,0,0,0,0,0,-1,1763,407,0,0
546,617,0,0,0,0,0,0,0,0,0,-1,1770,407,0,0
553,617,0,0,0,0,0,0,0,0,0,-1,1777,407,0,0
560,617,0,0,0,0,0,0,0,0,0,-1,1784,407,0,0
567,617,0,0,0,0,0,0,0,0,0,-1,1791,407,0,0
574,617,0,0,0,0,0,0,0,0,0,-1,1798,407,0,0
581,617,0,0,0,0,0,0,0,0,0,-1,1805,407,0,0
588,617,0,0,0,0,0,0,0,0,0,-1,1812,407,0,0
595,617,0,0,0,0,0,0,0,0,0,-1,1819,407,0,0
602,617,0,0,0,0,0,0,0,0,0,-1,1826,407,0,0
609,617,0,0,0,0,0,0,0,0,0,-1,1833,407,0,0
616,617,0,0,0,0,0,0,0,0,0,-1,1840,407,0,0
623,617,0,0,0,0,0,0,0,0,0,-1,1847,407,0,0
630,617,0,0,0,0,0,0,0,0,0,-1,1854,407,0,0
637,617,0,0,0,0,0,0,0,0,0,-1,1861,407,0,0
644,617,0,0,0,0,0,0,0,0,0,-1,1868,407,0,0
651,617,0,0,0,0,0,0,0,0,0,-1,1875,407,0,0
658,617,0,0,0,0,0,0,0,0,0,-1,1882,407,0,0
665,617,0,0,0,0,0,0,0,0,0,-1,1889,407,0,0
672,617,0,0,0,0,0,0,0,0,0,-1,1896,407,0,0
679,617,0,0,0,0,0,0,0,0,0,-1,1903,407,0,0
686,617,0,0,0,0,0,0,0,0,0,-1,1910,407,0,0
693,617,0,0,0,0,0,0,0,0,0,-1,1917,407,0,0
700,617,0,0,0,0,0,0,0,0,0,-1,1924,407,0,0
707,617,0,0,0,0,0,0,0,0,0,-1,1931,407,0,0
714,617,0,0,0,0,0,0,0,0,0,-1,1938,407,0,0
721,617,0,0,0,0,0,0,0,0,0,-1,1945,407,0,0
728,617,0,0,0,0,0,0,0,0,0,-1,1952,407,0,0
735,617,0,0,0,0,0,0,0,0,0,-1,1959,407,0,0
742,617,0,0,0,0,0,0,0,0,0,-1,1966,407,0,0
749,617,0,0,0,0,0,0,0,0,0,-1,1973,407,0,0
756,617,0,0,0,0,0,0,0,0,0,-1,1980,407,0,0
763,617,0,0,0,0,0,0,0,0,0,-1,1987,407,0,0
770,617,0,0,0,0,0,0,0,0,0,-1,1994,407,0,0
777,617,0,0,0,0,0,0,0,0,0,-1,2001,407,0,0
784,617,0,0,0,0,0,0,0,0,0,-1,2008,407,0,0
791,617,0,0,0,0,0,0,0,0,0,-1,2015,407,0,0
798,617,0,0,0,0,0,0,0,0,0,-1,2022,407,0,0
805,617,0,0,0,0,0,0,0,0,0,-1,2029,407,0,0
812,617,0,0,0,0,0,0,0,0,0,-1,2036,407,0,0
-700,610,0,0,0,0,0,0,0,0,0,-1,524,414,0,0
-693,610,0,0,0,0,0,0,0,0,0,-1,531,414,0,0
-686,610,0,0,0,0,0,0,0,0,0,-1,538,414,0,0
-679,610,0,0,0,0,0,0,0,0,0,-1,545,414,0,0
-672,610,0,0,0,0,0,0,0,0,0,-1,552,414,0,0
-665,610,0,0,0,0,0,0,0,0,0,-1,559,414,0,0
-658,610,0,0,0,0,0,0,0,0,0,-1,566,414,0,0
-651,610,0,0,0,0,0,0,0,0,0,-1,573,414,0,0
-644,610,0,0,0,0,0,0,0,0,0,-1,580,414,0,0
-637,610,0,0,0,0,0,0,0,0,0,-1,587,414,0,0
-630,610,0,0,0,0,0,0,0,0,0,-1,594,414,0,0
-623,610,0,0,0,0,0,0,0,0,0,-1,601,414,0,0
-616,610,0,0,0,0,0,0,0,0,0,-1,608,414,0,0
-609,610,0,0,0,0,0,0,0,0,0,-1,615,414,0,0
-602,610,0,0,0,0,0,0,0,0,0,-1,622,414,0,0
-595,610,0,0,0,0,0,0,0,0,0,-1,629,414,0,0
-588,610,0,0,0,0,0,0,0,0,0,-1,636,414,0,0
-581,610,0,0,0,0,0,0,0,0,0,-1,643,414,0,0
-574,610,0,0,0,0,0,0,0,0,0,-1,650,414,0,0
-567,610,0,0,0,0,0,0,0,0,0,-1,657,414,0,0
-560,610,0,0,0,0,0,0,0,0,0,-1,664,414,0,0
-553,610,0,0,0,0,0,0,0,0,0,-1,671,414,0,0
-546,610,0,0,0,0,0,0,0,0,0,-1,678,414,0,0
-539,610,0,0,0,0,0,0,0,0,0,-1,685,414,0,0
-532,610,0,0,0,0,0,0,0,0,0,-1,692,414,0,0
-525,610,0,0,0,0,0,0,0,0,0,-1,699,414,0,0
-518,610,0,0,0,0,0,0,0,0,0,-1,706,414,0,0
-511,610,0,0,0,0,0,0,0,0,0,-1,713,414,0,0
-504,610,0,0,0,0,0,0,0,0,0,-1,720,414,0,0
-497,610,0,0,0,0,0,0,0,0,0,-1,727,414,0,0
-490,610,0,0,0,0,0,0,0,0,0,-1,734,414,0,0
-483,610,0,0,0,0,0,0,0,0,0,-1,741,414,0,0
-476,610,0,0,0,0,0,0,0,0,0,-1,748,414,0,0
-469,610,0,0,0,0,0,0,0,0,0,-1,755,414,0,0
-462,610,0,0,0,0,0,0,0,0,0,-1,762,414,0,0
-455,610,0,0,0,0,0,0,0,0,0,-1,769,414,0,0
-448,610,0,0,0,0,0,0,0,0,0,-1,776,414,0,0
-441,610,0,0,0,0,0,0,0,0,0,-1,783,414,0,0
-434,610,0,0,0,0,0,0,0,0,0,-1,790,414,0,0
-427,610,0,0,0,0,0,0,0,0,0,-1,797,414,0,0
-420,610,0,0,0,0,0,0,0,0,0,-1,804,414,0,0
-413,610,0,0,0,0,0,0,0,0,0,-1,811,414,0,0
-406,610,0,0,0,0,0,0,0,0,0,-1,818,414,0,0
-399,610,0,0,0,0,0,0,0,0,0,-1,825,414,0,0
-392,610,0,0,0,0,0,0,0,0,0,-1,832,414,0,0
-385,610,0,0,0,0,0,0,0,0,0,-1,839,414,0,0
-378,610,0,0,0,0,0,0,0,0,0,-1,846,414,0,0
-371,610,0,0,0,0,0,0,0,0,0,-1,853,414,0,0
-364,610,0,0,0,0,0,0,0,0,0,-1,860,414,0,0
-357,610,0,0,0,0,0,0,0,0,0,-1,867,414,0,0
-350,610,0,0,0,0,0,0,0,0,0,-1,874,414,0,0
-343,610,0,0,0,0,0,0,0,0,0,-1,881,414,0,0
-336,610,0,0,0,0,0,0,0,0,0,-1,888,414,0,0
-329,610,0,0,0,0,0,0,0,0,0,-1,895,414,0,0
-322,610,0,0,0,0,0,0,0,0,0,-1,902,414,0,0
-315,610,7.68475,-21.5402,0,0,0,0,0,0,0,-1,909,414,7.68475,21.5402
-308,610,3.97211,-23.4133,0,0,0,0,0,0,0,-1,916,414,3.9721,23.4133
-301,610,7.38513,-22.4166,0,0,0,0,0,0,0,-1,923,414,7.38516,22.4166
-294,610,6.77832,-24.1945,0,0,0,0,0,0,0,-1,930,414,6.77829,24.1946
-287,610,3.39276,-28.5804,0,0,0,0,0,0,0,-1,937,414,3.39276,28.5803
-280,610,8.8728,-35.4336,0,0,0,0,0,0,0,-1,944,414,8.87283,35.4336
-273,610,8.14722,-35.5264,0,0,0,0,0,0,0,-1,951,414,8.14723,35.5264
-266,610,7.38361,-35.6366,0,0,0,0,0,0,0,-1,958,414,7.38359,35.6366
-259,610,6.47375,-35.762,0,0,0,0,0,0,0,-1,965,414,6.47373,35.762
-252,610,5.65308,-35.8931,0,0,0,0,0,0,0,-1,972,414,5.65305,35.8931
-245,610,6.18207,-36.4915,0,0,0,0,0,0,0,-1,979,414,6.18204,36.4915
-238,610,5.78247,-36.998,0,0,0,0,0,0,0,-1,986,414,5.78245,36.998
-231,610,5.6853,-37.233,-0.000936694,0.0273146,-0.0120994,0.0317881,-0.0054102,-1.21665,0.0232067,0.0476873,993,414,5.68532,37.233
-224,610,5.69757,-38.1403,-0.00064624,0.0245585,-0.0109926,0.0286791,-0.00476682,-1.21216,0.0208904,0.0324101,1000,414,5.69759,38.1403
-217,610,5.7453,-38.9799,-0.000584215,0.0215516,-0.00992927,0.0253528,-0.00438537,-1.20518,0.0185373,0.0212897,1007,414,5.7453,38.9799
-210,610,5.70929,-39.6871,-0.00055508,0.018689,-0.00881728,0.022118,-0.00398402,-1.19991,0.0162371,0.014652,1014,414,5.70926,39.6871
-203,610,5.67993,-40.3071,-0.000536644,0.0156302,-0.00764197,0.0186707,-0.00357713,-1.19213,0.013795,0.0166233,1021,414,5.67997,40.3071
-196,610,5.63574,-40.8794,-0.000543628,0.0131875,-0.00668435,0.015904,-0.00326015,-1.18478,0.01184,0.0146986,1028,414,5.6358,40.8794
-189,610,5.58997,-41.4538,-0.000468102,0.0114529,-0.00615283,0.0140589,-0.0030741,-1.17016,0.0105477,0.0116912,1035,414,5.58991,41.4538
-182,610,5.55432,-42.0222,-0.000414435,0.00973307,-0.00554632,0.0121763,-0.00285764,-1.15586,0.00921889,0.013173,1042,414,5.55427,42.0222
-175,610,5.51807,-42.5664,-0.000476365,0.00783401,-0.00469915,0.00995159,-0.00259394,-1.14742,0.00764712,0.015041,1049,414,5.51805,42.5664
-168,610,5.45081,-43.1339,-0.000604014,0.00646674,-0.00389057,0.0081883,-0.00232558,-1.1542,0.00637701,0.0132675,1056,414,5.45079,43.1339
-161,610,5.42139,-43.7117,-0.000680498,0.0054687,-0.00312209,0.00677595,-0.00198775,-1.17427,0.00530549,0.011513,1063,414,5.42134,43.7117
-154,610,5.39063,-44.2145,-0.000680965,0.00433598,-0.00233327,0.00525338,-0.00159836,-1.19618,0.00413922,0.0146393,1070,414,5.39058,44.2145
-147,610,5.36816,-44.7055,-0.000656168,0.00328037,-0.00151996,0.00379893,-0.00117473,-1.24201,0.00300182,0.0169172,1077,414,5.36822,44.7055
-140,610,5.36926,-45.2266,-0.000581951,0.00219757,-0.000696321,0.00236226,-0.000746635,-1.33856,0.00187397,0.0127728,1084,414,5.36925,45.2266
-133,610,5.35657,-45.705,-0.000470414,0.00117113,3.49841e-05,0.00117187,-0.000471159,1.5495,0.000976937,0.0141288,1091,414,5.35659,45.705
-126,610,5.34521,-46.1577,-0.000310318,0.000178167,0.000693045,0.000668748,-0.000800899,0.954813,0.000849644,0.0133614,1098,414,5.34516,46.1577
-119,610,5.31641,-46.6335,5.23506e-05,-0.000631372,0.00117249,0.000931805,-0.00151083,0.643547,0.0014234,0.0111879,1105,414,5.3164,46.6335
-112,610,5.28564,-47.0787,0.000486008,-0.00128987,0.00150044,0.00134156,-0.00214542,0.518219,0.00203096,0.0186952,1112,414,5.2857,47.0787
-105,610,5.27234,-47.5065,0.000970376,-0.00181226,0.00164954,0.001737,-0.00257889,0.435056,0.00250753,0.0186631,1119,414,5.27237,47.5065
-98,610,5.30579,-47.9499,0.00154239,-0.00229773,0.00170288,0.00218873,-0.00294407,0.362762,0.0029741,0.0127587,1126,414,5.3058,47.9499
-91,610,5.34204,-48.3658,0.00218494,-0.00260209,0.00163649,0.00269091,-0.00310806,0.299857,0.00335092,0.0141499,1133,414,5.34209,48.3658
-84,610,5.36853,-48.7644,0.00304393,-0.00266656,0.0014822,0.00340572,-0.00302835,0.239411,0.00371684,0.01507,1140,414,5.36859,48.7644
-77,610,5.36499,-49.2125,0.00405018,-0.00235841,0.00106285,0.00422185,-0.00253008,0.160138,0.00393881,0.0125157,1147,414,5.36502,49.2125
-70,610,5.42542,-49.5841,0.00507694,-0.00193588,0.000687659,0.00514373,-0.00200267,0.0968286,0.00425675,0.0154317,1154,414,5.42537,49.5841
-63,610,5.4552,-49.9074,0.00475276,-0.00277942,0.00032715,0.00476694,-0.0027936,0.043325,0.00441436,0.0150646,1161,414,5.45522,49.9074
-56,610,5.47168,-50.2126,0.00425629,-0.00212938,-0.00158746,0.00462916,-0.00250225,-0.230701,0.00417791,0.0138048,1168,414,5.47168,50.2126
-49,610,5.49719,-50.523,0.00349939,-0.00150245,-0.00336358,0.00518992,-0.00319298,-0.465725,0.00488543,0.0135731,1175,414,5.49715,50.523
-42,610,5.53418,-50.8282,0.00324661,0.00023511,-0.00583093,0.00776307,-0.00428136,-0.659041,0.00705004,0.0160428,1182,414,5.53412,50.8281
-35,610,5.5769,-51.1165,0.00326364,0.00252754,-0.00833393,0.0112376,-0.00544647,-0.763331,0.0098241,0.0164563,1189,414,5.57685,51.1165
-28,610,5.62683,-51.3676,0.00321108,0.00346263,-0.0102396,0.0135772,-0.00690347,-0.79154,0.0120319,0.0140054,1196,414,5.6268,51.3676
-21,610,5.69531,-51.5622,0.0031572,0.00457929,-0.0124933,0.0163818,-0.0086453,-0.813825,0.0146777,0.0117044,1203,414,5.69534,51.5622
-14,610,5.74939,-51.7804,0.00338026,0.00579466,-0.014835,0.0194715,-0.0102966,-0.825996,0.0174566,0.0132603,1210,414,5.74941,51.7804
-7,610,5.8147,-51.9682,0.00358006,0.00688114,-0.016638,0.0219502,-0.011489,-0.834838,0.0196185,0.0161472,1217,414,5.81475,51.9682
0,610,5.86597,-52.1618,0.0032586,0.00779848,-0.0179587,0.0236301,-0.0125731,-0.848264,0.0212244,0.0127162,1224,414,5.86595,52.1618
7,610,5.9292,-52.3586,0.00259756,0.0084038,-0.0187496,0.0244737,-0.0134723,-0.862207,0.0222129,0.0145074,1231,414,5.92917,52.3586
14,610,6.09729,-52.4797,0.00169522,0.00884925,-0.0192589,0.0248605,-0.014316,-0.877219,0.02289,0.0192528,1238,414,6.09729,52.4797
21,610,6.16992,-52.5787,0.000641181,0.009262,-0.0195814,0.0250018,-0.0150986,-0.893734,0.0233862,0.0188724,1245,414,6.16992,52.5787
28,610,6.13721,-52.7324,-0.000801366,0.00898432,-0.0194325,0.0241305,-0.0159475,-0.908728,0.0232993,0.0191606,1252,414,6.13723,52.7324
35,610,6.29712,-52.811,-0.00243872,0.00926398,-0.01917,0.0234557,-0.0166305,-0.933525,0.0232553,0.0217086,1259,414,6.29712,52.811
42,610,6.35864,-52.883,-0.0042067,0.00956143,-0.0181595,0.0220979,-0.0167432,-0.966573,0.0224959,0.0191164,1266,414,6.35866,52.883
49,610,6.43604,-53.0133,-0.00618982,0.00990868,-0.0166242,0.0203298,-0.0166109,-1.01086,0.0213637,0.0179345,1273,414,6.43608,53.0133
56,610,6.51721,-53.0063,-0.00816113,0.0107478,-0.0150388,0.0190571,-0.0164705,-1.06602,0.02053,0.0173743,1280,414,6.51722,53.0063
63,610,6.53052,-52.9746,-0.0100844,0.0121159,-0.0130513,0.018149,-0.0161175,-1.13779,0.0197954,0.0269362,1287,414,6.53049,52.9746
70,610,6.69043,-52.9716,-0.0116395,0.013425,-0.0110816,0.0176217,-0.0158362,-1.20877,0.0193261,0.0380726,1294,414,6.69043,52.9715
77,610,6.88281,-52.8431,-0.0129228,0.016054,-0.00925964,0.0187603,-0.015629,-1.28646,0.019882,0.0403656,1301,414,6.88279,52.8431
84,610,6.83386,-52.9228,-0.013668,0.0182772,-0.00730467,0.0198683,-0.015259,-1.35633,0.0203389,0.036934,1308,414,6.83382,52.9228
91,610,6.91724,-52.9502,-0.0141243,0.0201369,-0.00529879,0.0209377,-0.0149251,-1.42081,0.0208022,0.0285089,1315,414,6.91722,52.9502
98,610,7.06714,-52.8581,-0.0139213,0.0222561,-0.00380089,0.0226512,-0.0143163,-1.46724,0.0215232,0.0258279,1322,414,7.06717,52.8581
105,610,7.11621,-52.6949,-0.0131694,0.0245811,-0.00230772,0.0247217,-0.01331,-1.50997,0.0222846,0.0217751,1329,414,7.11615,52.6948
112,610,7.16577,-52.5264,-0.0121485,0.0262807,-0.00123136,0.0263201,-0.0121879,-1.5388,0.0227262,0.014627,1336,414,7.16574,52.5264
119,610,7.21631,-52.3817,-0.0109162,0.027123,-0.000160003,0.0271237,-0.0109169,-1.56659,0.0226174,0.0209735,1343,414,7.21635,52.3817
126,610,7.29041,-52.1921,-0.00968265,0.0271683,0.000830333,0.027187,-0.00970135,1.54828,0.0220806,0.0304698,1350,414,7.29035,52.1921
133,610,7.36536,-52.0057,-0.00822195,0.0269399,0.00148004,0.0270021,-0.00828414,1.5288,0.0213065,0.0231446,1357,414,7.3654,52.0057
140,610,7.4541,-51.8115,-0.00693317,0.0253062,0.00240608,0.0254848,-0.00711175,1.49671,0.0197911,0.0189062,1364,414,7.45408,51.8115
147,610,7.43457,-51.5273,-0.00546153,0.0232934,0.00234238,0.023483,-0.00565109,1.49005,0.0178399,0.019919,1371,414,7.43452,51.5272
154,610,7.50024,-51.3001,-0.00391302,0.0208014,0.00230689,0.0210149,-0.0041265,1.47852,0.0155688,0.0235979,1378,414,7.50021,51.3001
161,610,7.6189,-51.042,-0.00236818,0.0182274,0.00222668,0.0184653,-0.00260617,1.46432,0.0132646,0.0285601,1385,414,7.61895,51.042
168,610,7.66382,-50.7502,-0.000727713,0.0152065,0.00193863,0.0154389,-0.000960183,1.45145,0.0106272,0.0296347,1392,414,7.66377,50.7502
175,610,7.71289,-50.4655,0.000470491,0.012234,0.00167352,0.0124674,0.000237041,1.43219,0.00823374,0.0226618,1399,414,7.71289,50.4655
182,610,7.79236,-50.1345,0.00149473,0.00893127,0.00118357,0.0091151,0.00131091,1.41671,0.00569032,0.0155968,1406,414,7.79238,50.1345
189,610,7.78809,-49.7509,0.0023061,0.00640978,0.000790351,0.00655674,0.00215914,1.38696,0.00385837,0.0151738,1413,414,7.78813,49.7509
196,610,7.80554,-49.4032,0.00312536,0.00400919,0.000325597,0.00411618,0.00301836,1.2533,0.0024612,0.0156622,1420,414,7.8055,49.4032
203,610,7.81641,-49.0263,0.00370966,0.00103626,-0.000459357,0.00378638,0.000959534,-0.165503,0.00227296,0.014891,1427,414,7.81645,49.0263
210,610,7.83386,-48.6602,0.0038362,-0.00152332,-0.00114021,0.00406869,-0.00175581,-0.201143,0.00345002,0.0107145,1434,414,7.83389,48.6602
217,610,7.88721,-48.2143,0.00311208,-0.0006678,-0.000722326,0.00324541,-0.000801132,-0.182532,0.00247427,0.0174618,1441,414,7.88726,48.2143
224,610,7.9115,-47.8047,0.0025869,0.000170065,-0.000315538,0.00262741,0.000129548,-0.127707,0.00171006,0.0213808,1448,414,7.91151,47.8047
231,610,7.90723,-47.3808,0.0021414,0.00103167,0.000191763,0.0021736,0.000999471,0.166377,0.00125628,0.0168286,1455,414,7.90719,47.3808
238,610,7.88464,-46.9037,0.00190642,0.00174582,0.000568699,0.00240046,0.00125178,0.71526,0.00138633,0.0118593,1462,414,7.88469,46.9037
245,610,7.93274,-46.4201,0.00173784,0.0025304,0.000850279,0.00307221,0.00119603,1.00346,0.00178817,0.0122393,1469,414,7.9328,46.4201
252,610,7.8988,-45.9242,0.00155749,0.00335634,0.00116545,0.00392906,0.000984763,1.11403,0.00236061,0.0132933,1476,414,7.89883,45.9242
259,610,7.88123,-45.4199,0.00138259,0.00424394,0.00156425,0.0049331,0.000693429,1.15581,0.00308369,0.0120852,1483,414,7.88128,45.4199
266,610,7.87146,-44.9022,0.00130107,0.00515063,0.0020457,0.0060347,0.000416994,1.16287,0.00389159,0.0122675,1490,414,7.87148,44.9022
273,610,7.85034,-44.3796,0.0012892,0.00618594,0.00257439,0.00729032,0.000184826,1.16555,0.00479979,0.0107134,1497,414,7.85039,44.3796
280,610,7.81665,-43.8258,0.00140376,0.00726145,0.00321037,0.00867824,-1.30348e-05,1.15518,0.00578985,0.010102,1504,414,7.81659,43.8258
287,610,7.78601,-43.2891,0.00159535,0.00846499,0.00396889,0.010279,-0.00021864,1.14209,0.00692669,0.0123216,1511,414,7.78605,43.2891
294,610,7.76794,-42.7446,0.00168384,0.00959935,0.00471416,0.0117968,-0.000513656,1.13459,0.00804125,0.0112488,1518,414,7.76798,42.7446
301,610,7.76538,-42.2058,0.001729,0.0106683,0.00545152,0.0132482,-0.000850954,1.12877,0.00912902,0.0102606,1525,414,7.76544,42.2058
308,610,7.72021,-41.6306,0.00181687,0.0116891,0.00618303,0.0146647,-0.00115872,1.12226,0.0101847,0.0117448,1532,414,7.72025,41.6306
315,610,7.66064,-41.054,0.00184414,0.0127452,0.00688228,0.0160739,-0.00148451,1.12031,0.0112435,0.0127218,1539,414,7.6607,41.054
322,610,7.61279,-40.4218,0.00168464,0.0136994,0.00754537,0.0173368,-0.00195273,1.1216,0.0122607,0.011921,1546,414,7.61274,40.4218
329,610,7.57629,-39.8031,0.00149115,0.0144924,0.00810511,0.0183817,-0.00239817,1.12339,0.0131271,0.011918,1553,414,7.57632,39.8031
336,610,7.55945,-39.1963,0.00138722,0.01557,0.00876653,0.0197542,-0.00279703,1.12547,0.014194,0.0141284,1560,414,7.55943,39.1963
343,610,7.49426,-38.5541,0.00123609,0.0166006,0.00940237,0.0210601,-0.00322338,1.12793,0.0152287,0.0196896,1567,414,7.49425,38.5541
350,610,7.43713,-37.8842,0.00119037,0.0181209,0.0102151,0.0229225,-0.00361124,1.1314,0.0166168,0.033223,1574,414,7.4371,37.8842
357,610,7.45422,-37.0195,0,0,0,0,0,0,0,-1,1581,414,7.45423,37.0195
364,610,7.56873,-36.3836,0,0,0,0,0,0,0,-1,1588,414,7.56869,36.3836
371,610,7.38708,-35.4971,0,0,0,0,0,0,0,-1,1595,414,7.38704,35.4971
378,610,3.5752,-12.1958,0,0,0,0,0,0,0,-1,1602,414,3.57517,12.1958
385,610,2.57104,-10.3878,0,0,0,0,0,0,0,-1,1609,414,2.57109,10.3878
392,610,1.99744,-1.83582,0,0,0,0,0,0,0,-1,1616,414,1.99741,1.8358
399,610,2.77136,-2.60333,0,0,0,0,0,0,0,-1,1623,414,2.77133,2.60332
406,610,3.54529,-3.37085,0,0,0,0,0,0,0,-1,1630,414,3.54525,3.37084
413,610,3.01929,-3.20306,0,0,0,0,0,0,0,-1,1637,414,3.01929,3.20306
420,610,4.78149,-3.64041,0,0,0,0,0,0,0,-1,1644,414,4.78152,3.64042
427,610,8.85168,-23.3853,0,0,0,0,0,0,0,-1,1651,414,8.85174,23.3853
434,610,8.73706,-22.6227,0,0,0,0,0,0,0,-1,1658,414,8.73703,22.6227
441,610,0,0,0,0,0,0,0,0,0,-1,1665,414,0,0
448,610,0,0,0,0,0,0,0,0,0,-1,1672,414,0,0
455,610,0,0,0,0,0,0,0,0,0,-1,1679,414,0,0
462,610,0,0,0,0,0,0,0,0,0,-1,1686,414,0,0
469,610,0,0,0,0,0,0,0,0,0,-1,1693,414,0,0
476,610,0,0,0,0,0,0,0,0,0,-1,1700,414,0,0
483,610,0,0,0,0,0,0,0,0,0,-1,1707,414,0,0
490,610,0,0,0,0,0,0,0,0,0,-1,1714,414,0,0
497,610,0,0,0,0,0,0,0,0,0,-1,1721,414,0,0
504,610,0,0,0,0,0,0,0,0,0,-1,1728,414,0,0
511,610,0,0,0,0,0,0,0,0,0,-1,1735,414,0,0
518,610,0,0,0,0,0,0,0,0,0,-1,1742,414,0,0
525,610,0,0,0,0,0,0,0,0,0,-1,1749,414,0,0
532,610,0,0,0,0,0,0,0,0,0,-1,1756,414,0,0
539,610,0,0,0,0,0,0,0,0,0,-1,1763,414,0,0
546,610,0,0,0,0,0,0,0,0,0,-1,1770,414,0,0
553,610,0,0,0,0,0,0,0,0,0,-1,1777,414,0,0
560,610,0,0,0,0,0,0,0,0,0,-1,1784,414,0,0
567,610,0,0,0,0,0,0,0,0,0,-1,1791,414,0,0
574,610,0,0,0,0,0,0,0,0,0,-1,1798,414,0,0
581,610,0,0,0,0,0,0,0,0,0,-1,1805,414,0,0
588,610,0,0,0,0,0,0,0,0,0,-1,1812,414,0,0
595,610,0,0,0,0,0,0,0,0,0,-1,1819,414,0,0
602,610,0,0,0,0,0,0,0,0,0,-1,1826,414,0,0
609,610,0,0,0,0,0,0,0,0,0,-1,1833,414,0,0
616,610,0,0,0,0,0,0,0,0,0,-1,1840,414,0,0
623,610,0,0,0,0,0,0,0,0,0,-1,1847,414,0,0
630,610,0,0,0,0,0,0,0,0,0,-1,1854,414,0,0
637,610,0,0,0,0,0,0,0,0,0,-1,1861,414,0,0
644,610,0,0,0,0,0,0,0,0,0,-1,1868,414,0,0
651,610,0,0,0,0,0,0,0,0,0,-1,1875,414,0,0
658,610,0,0,0,0,0,0,0,0,0,-1,1882,414,0,0
665,610,0,0,0,0,0,0,0,0,0,-1,1889,414,0,0
672,610,0,0,0,0,0,0,0,0,0,-1,1896,414,0,0
679,610,0,0,0,0,0,0,0,0,0,-1,1903,414,0,0
686,610,0,0,0,0,0,0,0,0,0,-1,1910,414,0,0
693,610,0,0,0,0,0,0,0,0,0,-1,1917,414,0,0
700,610,0,0,0,0,0,0,0,0,0,-1,1924,414,0,0
707,610,0,0,0,0,0,0,0,0,0,-1,1931,414,0,0
714,610,0,0,0,0,0,0,0,0,0,-1,1938,414,0,0
721,610,0,0,0,0,0,0,0,0,0,-1,1945,414,0,0
728,610,0,0,0,0,0,0,0,0,0,-1,1952,414,0,0
735,610,0,0,0,0,0,0,0,0,0,-1,1959,414,0,0
742,610,0,0,0,0,0,0,0,0,0,-1,1966,414,0,0
749,610,0,0,0,0,0,0,0,0,0,-1,1973,414,0,0
756,610,0,0,0,0,0,0,0,0,0,-1,1980,414,0,0
763,610,0,0,0,0,0,0,0,0,0,-1,1987,414,0,0
770,610,0,0,0,0,0,0,0,0,0,-1,1994,414,0,0
777,610,0,0,0,0,0,0,0,0,0,-1,2001,414,0,0
784,610,0,0,0,0,0,0,0,0,0,-1,2008,414,0,0
791,610,0,0,0,0,0,0,0,0,0,-1,2015,414,0,0
798,610,0,0,0,0,0,0,0,0,0,-1,2022,414,0,0
805,610,0,0,0,0,0,0,0,0,0,-1,2029,414,0,0
812,610,0,0,0,0,0,0,0,0,0,-1,2036,414,0,0
-700,603,0,0,0,0,0,0,0,0,0,-1,524,421,0,0
-693,603,0,0,0,0,0,0,0,0,0,-1,531,421,0,0
-686,603,0,0,0,0,0,0,0,0,0,-1,538,421,0,0
-679,603,0,0,0,0,0,0,0,0,0,-1,545,421,0,0
-672,603,0,0,0,0,0,0,0,0,0,-1,552,421,0,0
-665,603,0,0,0,0,0,0,0,0,0,-1,559,421,0,0
-658,603,0,0,0,0,0,0,0,0,0,-1,566,421,0,0
-651,603,0,0,0,0,0,0,0,0,0,-1,573,421,0,0
-644,603,0,0,0,0,0,0,0,0,0,-1,580,421,0,0
-637,603,0,0,0,0,0,0,0,0,0,-1,587,421,0,0
-630,603,0,0,0,0,0,0,0,0,0,-1,594,421,0,0
-623,603,0,0,0,0,0,0,0,0,0,-1,601,421,0,0
-616,603,0,0,0,0,0,0,0,0,0,-1,608,421,0,0
-609,603,0,0,0,0,0,0,0,0,0,-1,615,421,0,0
-602,603,0,0,0,0,0,0,0,0,0,-1,622,421,0,0
-595,603,0,0,0,0,0,0,0,0,0,-1,629,421,0,0
-588,603,0,0,0,0,0,0,0,0,0,-1,636,421,0,0
-581,603,0,0,0,0,0,0,0,0,0,-1,643,421,0,0
-574,603,0,0,0,0,0,0,0,0,0,-1,650,421,0,0
-567,603,0,0,0,0,0,0,0,0,0,-1,657,421,0,0
-560,603,0,0,0,0,0,0,0,0,0,-1,664,421,0,0
-553,603,0,0,0,0,0,0,0,0,0,-1,671,421,0,0
-546,603,0,0,0,0,0,0,0,0,0,-1,678,421,0,0
-539,603,0,0,0,0,0,0,0,0,0,-1,685,421,0,0
-532,603,0,0,0,0,0,0,0,0,0,-1,692,421,0,0
-525,603,0,0,0,0,0,0,0,0,0,-1,699,421,0,0
-518,603,0,0,0,0,0,0,0,0,0,-1,706,421,0,0
-511,603,0,0,0,0,0,0,0,0,0,-1,713,421,0,0
-504,603,0,0,0,0,0,0,0,0,0,-1,720,421,0,0
-497,603,0,0,0,0,0,0,0,0,0,-1,727,421,0,0
-490,603,0,0,0,0,0,0,0,0,0,-1,734,421,0,0
-483,603,0,0,0,0,0,0,0,0,0,-1,741,421,0,0
-476,603,0,0,0,0,0,0,0,0,0,-1,748,421,0,0
-469,603,0,0,0,0,0,0,0,0,0,-1,755,421,0,0
-462,603,0,0,0,0,0,0,0,0,0,-1,762,421,0,0
-455,603,0,0,0,0,0,0,0,0,0,-1,769,421,0,0
-448,603,0,0,0,0,0,0,0,0,0,-1,776,421,0,0
-441,603,0,0,0,0,0,0,0,0,0,-1,783,421,0,0
-434,603,0,0,0,0,0,0,0,0,0,-1,790,421,0,0
-427,603,0,0,0,0,0,0,0,0,0,-1,797,421,0,0
-420,603,0,0,0,0,0,0,0,0,0,-1,804,421,0,0
-413,603,0,0,0,0,0,0,0,0,0,-1,811,421,0,0
-406,603,0,0,0,0,0,0,0,0,0,-1,818,421,0,0
-399,603,0,0,0,0,0,0,0,0,0,-1,825,421,0,0
-392,603,0,0,0,0,0,0,0,0,0,-1,832,421,0,0
-385,603,0,0,0,0,0,0,0,0,0,-1,839,421,0,0
-378,603,0,0,0,0,0,0,0,0,0,-1,846,421,0,0
-371,603,0,0,0,0,0,0,0,0,0,-1,853,421,0,0
-364,603,0,0,0,0,0,0,0,0,0,-1,860,421,0,0
-357,603,0,0,0,0,0,0,0,0,0,-1,867,421,0,0
-350,603,0,0,0,0,0,0,0,0,0,-1,874,421,0,0
-343,603,0,0,0,0,0,0,0,0,0,-1,881,421,0,0
-336,603,0,0,0,0,0,0,0,0,0,-1,888,421,0,0
-329,603,4.09686,-17.9702,0,0,0,0,0,0,0,-1,895,421,4.09687,17.9702
-322,603,8.83179,-28.7376,0,0,0,0,0,0,0,-1,902,421,8.83179,28.7376
-315,603,5.99744,-20.4501,0,0,0,0,0,0,0,-1,909,421,5.99745,20.4501
-308,603,5.92249,-20.778,0,0,0,0,0,0,0,-1,916,421,5.92248,20.778
-301,603,2.72424,-20.9059,0,0,0,0,0,0,0,-1,923,421,2.72424,20.9059
-294,603,2.41553,-20.6767,0,0,0,0,0,0,0,-1,930,421,2.41554,20.6767
-287,603,1.91766,-21.2242,0,0,0,0,0,0,0,-1,937,421,1.91767,21.2242
-280,603,2.36121,-27.3314,0,0,0,0,0,0,0,-1,944,421,2.36119,27.3314
-273,603,7.96613,-34.8225,0,0,0,0,0,0,0,-1,951,421,7.96613,34.8225
-266,603,7.18787,-34.9736,0,0,0,0,0,0,0,-1,958,421,7.18788,34.9736
-259,603,5.55621,-34.5466,0,0,0,0,0,0,0,-1,965,421,5.55621,34.5466
-252,603,5.36902,-35.9711,0,0,0,0,0,0,0,-1,972,421,5.36901,35.9711
-245,603,5.41577,-36.452,-0.00124415,0.0249071,-0.011384,0.0291683,-0.00550543,-1.21262,0.0215168,0.0367139,979,421,5.41574,36.452
-238,603,5.31409,-37.0473,-0.00117554,0.0228667,-0.0103534,0.0267106,-0.00501946,-1.2153,0.0196946,0.0250508,986,421,5.3141,37.0473
-231,603,5.22363,-37.7535,-0.000865404,0.0209058,-0.00942405,0.0244184,-0.00437803,-1.21402,0.0179175,0.0154831,993,421,5.22366,37.7535
-224,603,5.1861,-38.4387,-0.000598475,0.0187867,-0.00853082,0.0220062,-0.00381794,-1.20993,0.0160951,0.0151471,1000,421,5.18611,38.4387
-217,603,5.17523,-39.0519,-0.000454416,0.0163702,-0.0076466,0.0193262,-0.00341036,-1.20192,0.0141585,0.0139933,1007,421,5.17526,39.0519
-210,603,5.14539,-39.6928,-0.000331375,0.0139867,-0.00671016,0.0166398,-0.00298448,-1.19427,0.0122102,0.0117334,1014,421,5.14538,39.6928
-203,603,5.11877,-40.326,-0.000217622,0.0114187,-0.00571315,0.0137548,-0.00255366,-1.18265,0.0101289,0.0169232,1021,421,5.11875,40.326
-196,603,5.11609,-40.9362,-0.000129059,0.00935604,-0.00488409,0.0114213,-0.00219431,-1.17075,0.00844124,0.0179982,1028,421,5.11614,40.9362
-189,603,5.08057,-41.4563,-1.85471e-05,0.00774172,-0.00435729,0.00969609,-0.00197292,-1.14917,0.00721222,0.0157019,1035,421,5.08056,41.4563
-182,603,5.02063,-42.0136,5.24072e-05,0.00607238,-0.00369156,0.00782555,-0.00170076,-1.12742,0.00586671,0.011843,1042,421,5.02068,42.0137
-175,603,4.97461,-42.5636,3.26997e-05,0.00420711,-0.00278982,0.00560409,-0.00136427,-1.10656,0.00426419,0.0128025,1049,421,4.97462,42.5636
-168,603,4.9353,-43.1182,-6.7992e-05,0.00278827,-0.00195507,0.00378127,-0.00106099,-1.10084,0.00293905,0.0155568,1056,421,4.93525,43.1182
-161,603,4.91016,-43.6769,-0.000152148,0.00168175,-0.00111872,0.00221129,-0.000681688,-1.1287,0.00174635,0.0145795,1063,421,4.91021,43.6769
-154,603,4.88477,-44.1855,-0.000178328,0.000477054,-0.000223571,0.000546057,-0.000247331,-1.27144,0.00046876,0.0131235,1070,421,4.88475,44.1855
-147,603,4.86877,-44.6892,-0.000170318,-0.000661084,0.000693053,0.00031951,-0.00115091,0.615254,0.000893038,0.0148206,1077,421,4.86873,44.6892
-140,603,4.90979,-45.1797,-0.000133931,-0.00185009,0.00162818,0.000848442,-0.00283246,0.542885,0.00222569,0.0129113,1084,421,4.90976,45.1796
-133,603,4.8855,-45.6621,-5.2217e-05,-0.00294519,0.00246469,0.0013591,-0.0043565,0.520039,0.00344784,0.0124123,1091,421,4.8855,45.6621
-126,603,4.87183,-46.1245,0.000157578,-0.00391297,0.0031529,0.00187505,-0.00563044,0.498787,0.00451048,0.0111814,1098,421,4.87185,46.1245
-119,603,4.87781,-46.6083,0.000581774,-0.00470734,0.00365122,0.00244555,-0.00657111,0.471975,0.00538435,0.0114093,1105,421,4.87777,46.6083
-112,603,4.86926,-47.0737,0.00106566,-0.00528887,0.00393071,0.00294265,-0.00716586,0.445502,0.00600353,0.0164658,1112,421,4.86924,47.0737
-105,603,4.88171,-47.5012,0.00162563,-0.00567758,0.00399757,0.00338834,-0.00744029,0.415298,0.00639615,0.0168905,1119,421,4.88174,47.5012
-98,603,4.89514,-47.9044,0.00232329,-0.00601454,0.00393928,0.00389003,-0.00758129,0.378542,0.00673629,0.0140633,1126,421,4.89518,47.9045
-91,603,4.92053,-48.3269,0.00314285,-0.00612552,0.00369283,0.00443426,-0.00741693,0.336414,0.00691414,0.0106686,1133,421,4.92053,48.3269
-84,603,4.96729,-48.7666,0.00433047,-0.00581737,0.00325425,0.00528438,-0.00677128,0.285141,0.00697797,0.0119549,1140,421,4.96729,48.7666
-77,603,5.021,-49.1996,0.00576542,-0.00492251,0.00232445,0.00624906,-0.00540615,0.205141,0.00673501,0.0186328,1147,421,5.02104,49.1996
-70,603,5.07581,-49.6331,0,0,0,0,0,0,0,-1,1154,421,5.07585,49.6331
-63,603,4.98669,-49.8042,0,0,0,0,0,0,0,-1,1161,421,4.9867,49.8042
-56,603,5.08313,-50.1535,0,0,0,0,0,0,0,-1,1168,421,5.08313,50.1535
-49,603,5.19202,-50.4664,0,0,0,0,0,0,0,-1,1175,421,5.19198,50.4664
-42,603,5.23511,-50.736,0,0,0,0,0,0,0,-1,1182,421,5.23509,50.736
-35,603,5.19043,-50.9764,0.00270839,0.00799299,-0.0149095,0.0204925,-0.00979117,-0.873099,0.0178445,0.0437102,1189,421,5.19037,50.9764
-28,603,5.27124,-51.209,0.00232807,0.00939867,-0.0176517,0.0238656,-0.0121389,-0.884231,0.0211515,0.0301856,1196,421,5.27118,51.209
-21,603,5.35474,-51.4496,0.00206908,0.0109397,-0.0205506,0.0275282,-0.0145193,-0.89168,0.0246604,0.0248304,1203,421,5.3547,51.4496
-14,603,5.48315,-51.6544,0.002091,0.0121097,-0.0230604,0.0306986,-0.0164979,-0.89235,0.027657,0.0237989,1210,421,5.4831,51.6544
-7,603,5.58936,-51.8366,0.00232565,0.013076,-0.0249939,0.0332662,-0.0178646,-0.891314,0.0299634,0.0281596,1217,421,5.58936,51.8367
0,603,5.599,-52.1013,0.00198662,0.0137461,-0.026317,0.0348321,-0.0190994,-0.895303,0.0315759,0.0341065,1224,421,5.599,52.1014
7,603,5.63184,-52.1061,0.0010527,0.013925,-0.0268893,0.0351376,-0.02016,-0.902867,0.0323141,0.0468906,1231,421,5.63186,52.1062
14,603,5.89355,-52.1036,0,0,0,0,0,0,0,-1,1238,421,5.89355,52.1036
21,603,6.04688,-52.0572,-0.00192142,0.0137152,-0.0270699,0.0340732,-0.0222794,-0.925983,0.0327719,0.0409117,1245,421,6.04692,52.0572
28,603,6.09705,-52.2218,-0.00418008,0.0126085,-0.0264508,0.031965,-0.0235366,-0.939049,0.0321668,0.0441616,1252,421,6.097,52.2218
35,603,6.25745,-52.3064,0,0,0,0,0,0,0,-1,1259,421,6.25742,52.3064
42,603,6.31042,-52.5482,-0.00940553,0.0119977,-0.0239732,0.0275494,-0.0249573,-0.995326,0.0303271,0.0454707,1266,421,6.31042,52.5482
49,603,6.4679,-52.814,-0.0123021,0.011839,-0.0217045,0.0246036,-0.0250667,-1.03917,0.0286776,0.0240763,1273,421,6.46795,52.814
56,603,6.39417,-52.675,-0.0150839,0.0123872,-0.0194646,0.0224747,-0.0251713,-1.09266,0.0275231,0.0483221,1280,421,6.39417,52.675
63,603,6.44824,-52.8081,0,0,0,0,0,0,0,-1,1287,421,6.44823,52.8081
70,603,6.70349,-52.7774,0,0,0,0,0,0,0,-1,1294,421,6.70349,52.7774
77,603,7.03821,-52.5669,0,0,0,0,0,0,0,-1,1301,421,7.03823,52.5669
84,603,6.86108,-52.9059,0,0,0,0,0,0,0,-1,1308,421,6.86112,52.9059
91,603,6.98853,-53.0551,0,0,0,0,0,0,0,-1,1315,421,6.98858,53.0551
98,603,7.28223,-53.0598,0,0,0,0,0,0,0,-1,1322,421,7.28217,53.0598
105,603,7.29749,-52.8021,0,0,0,0,0,0,0,-1,1329,421,7.29751,52.8021
112,603,7.41003,-52.2394,-0.0185211,0.0362964,-0.00159468,0.0363428,-0.0185675,-1.54174,0.0322514,0.0468651,1336,421,7.40999,52.2394
119,603,7.6073,-52.0637,-0.0167049,0.0388211,-6.24075e-06,0.0388211,-0.0167049,-1.57068,0.0328947,0.0484499,1343,421,7.60724,52.0637
126,603,7.55103,-51.8335,0,0,0,0,0,0,0,-1,1350,421,7.55102,51.8335
133,603,7.66882,-51.6772,-0.0130057,0.0413867,0.00278703,0.0415291,-0.0131481,1.51974,0.032955,0.0485455,1357,421,7.66887,51.6772
140,603,7.89673,-51.3998,-0.0114011,0.0405822,0.00426661,0.0409301,-0.011749,1.48945,0.0319319,0.0403614,1364,421,7.89671,51.3998
147,603,7.74792,-51.2255,-0.00973944,0.0390814,0.00455708,0.0395031,-0.0101612,1.47852,0.0302959,0.0320376,1371,421,7.74787,51.2255
154,603,7.69714,-51.1509,-0.00804521,0.0370192,0.00489398,0.0375446,-0.00857057,1.46386,0.0283222,0.0360842,1378,421,7.6972,51.1509
161,603,7.91284,-50.9066,-0.00634412,0.0346491,0.00512789,0.0352809,-0.00697584,1.44822,0.0261578,0.0360327,1385,421,7.91281,50.9066
168,603,8.01184,-50.615,-0.00439679,0.0314789,0.00508236,0.032185,-0.00510289,1.43275,0.0233443,0.0375488,1392,421,8.01184,50.615
175,603,8.22852,-50.3326,-0.00279039,0.0274213,0.00501547,0.0282322,-0.00360126,1.41051,0.0201295,0.0401418,1399,421,8.22856,50.3326
182,603,8.31458,-50.0356,-0.00113236,0.0222667,0.0044392,0.0230806,-0.00194624,1.38947,0.0160751,0.046768,1406,421,8.31458,50.0356
189,603,8.25403,-49.6571,0.000499304,0.0175871,0.00378928,0.0183897,-0.000303285,1.36208,0.0123621,0.0402591,1413,421,8.25401,49.6571
196,603,8.19019,-49.2737,0.00210174,0.012839,0.00273711,0.0134965,0.00144427,1.33505,0.00855696,0.029673,1420,421,8.19013,49.2737
203,603,8.21423,-48.9641,0.0035555,0.00637607,0.000934121,0.00665738,0.00327419,1.27829,0.00384381,0.017326,1427,421,8.21418,48.9641
210,603,8.25671,-48.7011,0.00499466,-0.00155973,-0.00150937,0.00532554,-0.00189062,-0.215804,0.00432072,0.0130769,1434,421,8.2567,48.7011
217,603,8.27527,-48.2287,0.00467902,-0.00305281,-0.00181189,0.00508256,-0.00345635,-0.219141,0.00495965,0.0135355,1441,421,8.27528,48.2287
224,603,8.33997,-47.7793,0.00397607,-0.00213991,-0.00135161,0.00426146,-0.00242529,-0.208088,0.00390881,0.0172963,1448,421,8.33999,47.7793
231,603,8.349,-47.3468,0.00336196,-0.00117277,-0.000747219,0.00348191,-0.00129272,-0.159172,0.00285159,0.0154883,1455,421,8.34895,47.3468
238,603,8.34631,-46.8825,0.00305988,-0.000518386,-0.000332915,0.00309059,-0.000549096,-0.091986,0.00226572,0.0116518,1462,421,8.3463,46.8825
245,603,8.37964,-46.4119,0.00285044,0.00016479,-6.99083e-05,0.00285226,0.000162971,-0.0260068,0.00184958,0.0118096,1469,421,8.3797,46.4119
252,603,8.38989,-45.918,0.00258611,0.00078093,0.000233784,0.0026159,0.000751145,0.126722,0.00155524,0.0103845,1476,421,8.38987,45.918
259,603,8.38831,-45.4265,0.00230078,0.00127511,0.000536824,0.00253036,0.00104553,0.404125,0.00146822,0.010332,1483,421,8.38836,45.4265
266,603,8.37549,-44.908,0.00207866,0.00188739,0.00086639,0.00285468,0.00111137,0.730427,0.00166156,0.0119968,1490,421,8.37554,44.908
273,603,8.3761,-44.3885,0.00196031,0.0026892,0.00128294,0.00365845,0.000991054,0.923787,0.00218487,0.0113659,1497,421,8.37613,44.3885
280,603,8.36462,-43.845,0.00195383,0.00355399,0.00181713,0.00473938,0.000768436,0.992776,0.00293714,0.0121741,1504,421,8.36464,43.845
287,603,8.34155,-43.2756,0.00200691,0.00452486,0.0024314,0.0060039,0.000527867,1.02429,0.00383876,0.011073,1511,421,8.34152,43.2756
294,603,8.31018,-42.7381,0.00196369,0.00550482,0.00304995,0.00726088,0.000207624,1.04839,0.00477289,0.00980141,1518,421,8.3102,42.7381
301,603,8.30115,-42.1966,0.0018749,0.00647888,0.00366635,0.008506,-0.00015223,1.06573,0.00572209,0.0115399,1525,421,8.30116,42.1966
308,603,8.26038,-41.6196,0.00180922,0.00746159,0.00428103,0.00976518,-0.000494362,1.07714,0.00668101,0.0164965,1532,421,8.26033,41.6196
315,603,8.21521,-41.0338,0.00167669,0.00848998,0.00486648,0.0110237,-0.000857024,1.09077,0.00765082,0.0155394,1539,421,8.21517,41.0337
322,603,8.19128,-40.406,0.00138679,0.00950582,0.00542172,0.0122194,-0.00132678,1.10675,0.00862262,0.0139559,1546,421,8.19123,40.406
329,603,8.16748,-39.7962,0.00108597,0.0103738,0.00591363,0.013249,-0.00178923,1.11825,0.00948547,0.0105418,1553,421,8.16753,39.7962
336,603,8.13428,-39.2027,0.000876604,0.011448,0.00650989,0.0145478,-0.00222325,1.12639,0.0105182,0.00989485,1560,421,8.13426,39.2027
343,603,8.09741,-38.5758,0.000635719,0.0125287,0.00708915,0.0158351,-0.00267073,1.13438,0.0115504,0.0110282,1567,421,8.09739,38.5758
350,603,8.05261,-37.9418,0.0005097,0.0139974,0.00782585,0.0175843,-0.00307715,1.14103,0.0128718,0.0140852,1574,421,8.05266,37.9418
357,603,8.01917,-37.2383,0.000399852,0.0151614,0.00867121,0.0191677,-0.00360646,1.13799,0.0141348,0.0196681,1581,421,8.01915,37.2383
364,603,7.97778,-36.5025,0.000326711,0.0162086,0.00940657,0.0205779,-0.0040426,1.13595,0.0152458,0.0277401,1588,421,7.97776,36.5025
371,603,7.90369,-35.78,0.00033997,0.0179958,0.0101402,0.0226124,-0.00427663,1.14356,0.0166842,0.0382908,1595,421,7.90367,35.78
378,603,7.83752,-35.2479,0,0,0,0,0,0,0,-1,1602,421,7.83749,35.2479
385,603,7.97168,-34.4237,0,0,0,0,0,0,0,-1,1609,421,7.97165,34.4237
392,603,4.90527,-19.605,0,0,0,0,0,0,0,-1,1616,421,4.90526,19.605
399,603,2.94299,0.638214,0,0,0,0,0,0,0,-1,1623,421,2.94293,-0.638215
406,603,3.01917,-2.37219,0,0,0,0,0,0,0,-1,1630,421,3.01915,2.37219
413,603,2.38928,-2.41275,0,0,0,0,0,0,0,-1,1637,421,2.38926,2.41274
420,603,8.22217,-23.7068,0,0,0,0,0,0,0,-1,1644,421,8.22215,23.7068
427,603,8.20386,-23.1278,0,0,0,0,0,0,0,-1,1651,421,8.2039,23.1278
434,603,8.01489,-22.5655,0,0,0,0,0,0,0,-1,1658,421,8.01493,22.5655
441,603,8.00122,-22.3072,0,0,0,0,0,0,0,-1,1665,421,8.00116,22.3071
448,603,1.14355,-4.59842,0,0,0,0,0,0,0,-1,1672,421,1.14355,4.59841
455,603,0,0,0,0,0,0,0,0,0,-1,1679,421,0,0
462,603,0,0,0,0,0,0,0,0,0,-1,1686,421,0,0
469,603,0,0,0,0,0,0,0,0,0,-1,1693,421,0,0
476,603,0,0,0,0,0,0,0,0,0,-1,1700,421,0,0
483,603,0,0,0,0,0,0,0,0,0,-1,1707,421,0,0
490,603,0,0,0,0,0,0,0,0,0,-1,1714,421,0,0
497,603,0,0,0,0,0,0,0,0,0,-1,1721,421,0,0
504,603,0,0,0,0,0,0,0,0,0,-1,1728,421,0,0
511,603,0,0,0,0,0,0,0,0,0,-1,1735,421,0,0
518,603,0,0,0,0,0,0,0,0,0,-1,1742,421,0,0
525,603,0,0,0,0,0,0,0,0,0,-1,1749,421,0,0
532,603,0,0,0,0,0,0,0,0,0,-1,1756,421,0,0
539,603,0,0,0,0,0,0,0,0,0,-1,1763,421,0,0
546,603,0,0,0,0,0,0,0,0,0,-1,1770,421,0,0
553,603,0,0,0,0,0,0,0,0,0,-1,1777,421,0,0
560,603,0,0,0,0,0,0,0,0,0,-1,1784,421,0,0
567,603,0,0,0,0,0,0,0,0,0,-1,1791,421,0,0
574,603,0,0,0,0,0,0,0,0,0,-1,1798,421,0,0
581,603,0,0,0,0,0,0,0,0,0,-1,1805,421,0,0
588,603,0,0,0,0,0,0,0,0,0,-1,1812,421,0,0
595,603,0,0,0,0,0,0,0,0,0,-1,1819,421,0,0
602,603,0,0,0,0,0,0,0,0,0,-1,1826,421,0,0
609,603,0,0,0,0,0,0,0,0,0,-1,1833,421,0,0
616,603,0,0,0,0,0,0,0,0,0,-1,1840,421,0,0
623,603,0,0,0,0,0,0,0,0,0,-1,1847,421,0,0
630,603,0,0,0,0,0,0,0,0,0,-1,1854,421,0,0
637,603,0,0,0,0,0,0,0,0,0,-1,1861,421,0,0
644,603,0,0,0,0,0,0,0,0,0,-1,1868,421,0,0
651,603,0,0,0,0,0,0,0,0,0,-1,1875,421,0,0
658,603,0,0,0,0,0,0,0,0,0,-1,1882,421,0,0
665,603,0,0,0,0,0,0,0,0,0,-1,1889,421,0,0
672,603,0,0,0,0,0,0,0,0,0,-1,1896,421,0,0
679,603,0,0,0,0,0,0,0,0,0,-1,1903,421,0,0
686,603,0,0,0,0,0,0,0,0,0,-1,1910,421,0,0
693,603,0,0,0,0,0,0,0,0,0,-1,1917,421,0,0
700,603,0,0,0,0,0,0,0,0,0,-1,1924,421,0,0
707,603,0,0,0,0,0,0,0,0,0,-1,1931,421,0,0
714,603,0,0,0,0,0,0,0,0,0,-1,1938,421,0,0
721,603,0,0,0,0,0,0,0,0,0,-1,1945,421,0,0
728,603,0,0,0,0,0,0,0,0,0,-1,1952,421,0,0
735,603,0,0,0,0,0,0,0,0,0,-1,1959,421,0,0
742,603,0,0,0,0,0,0,0,0,0,-1,1966,421,0,0
749,603,0,0,0,0,0,0,0,0,0,-1,1973,421,0,0
756,603,0,0,0,0,0,0,0,0,0,-1,1980,421,0,0
763,603,0,0,0,0,0,0,0,0,0,-1,1987,421,0,0
770,603,0,0,0,0,0,0,0,0,0,-1,1994,421,0,0
777,603,0,0,0,0,0,0,0,0,0,-1,2001,421,0,0
784,603,0,0,0,0,0,0,0,0,0,-1,2008,421,0,0
791,603,0,0,0,0,0,0,0,0,0,-1,2015,421,0,0
798,603,0,0,0,0,0,0,0,0,0,-1,2022,421,0,0
805,603,0,0,0,0,0,0,0,0,0,-1,2029,421,0,0
812,603,0,0,0,0,0,0,0,0,0,-1,2036,421,0,0
-700,596,0,0,0,0,0,0,0,0,0,-1,524,428,0,0
-693,596,0,0,0,0,0,0,0,0,0,-1,531,428,0,0
-686,596,0,0,0,0,0,0,0,0,0,-1,538,428,0,0
-679,596,0,0,0,0,0,0,0,0,0,-1,545,428,0,0
-672,596,0,0,0,0,0,0,0,0,0,-1,552,428,0,0
-665,596,0,0,0,0,0,0,0,0,0,-1,559,428,0,0
-658,596,0,0,0,0,0,0,0,0,0,-1,566,428,0,0
-651,596,0,0,0,0,0,0,0,0,0,-1,573,428,0,0
-644,596,0,0,0,0,0,0,0,0,0,-1,580,428,0,0
-637,596,0,0,0,0,0,0,0,0,0,-1,587,428,0,0
-630,596,0,0,0,0,0,0,0,0,0,-1,594,428,0,0
-623,596,0,0,0,0,0,0,0,0,0,-1,601,428,0,0
-616,596,0,0,0,0,0,0,0,0,0,-1,608,428,0,0
-609,596,0,0,0,0,0,0,0,0,0,-1,615,428,0,0
-602,596,0,0,0,0,0,0,0,0,0,-1,622,428,0,0
-595,596,0,0,0,0,0,0,0,0,0,-1,629,428,0,0
-588,596,0,0,0,0,0,0,0,0,0,-1,636,428,0,0
-581,596,0,0,0,0,0,0,0,0,0,-1,643,428,0,0
-574,596,0,0,0,0,0,0,0,0,0,-1,650,428,0,0
-567,596,0,0,0,0,0,0,0,0,0,-1,657,428,0,0
-560,596,0,0,0,0,0,0,0,0,0,-1,664,428,0,0
-553,596,0,0,0,0,0,0,0,0,0,-1,671,428,0,0
-546,596,0,0,0,0,0,0,0,0,0,-1,678,428,0,0
-539,596,0,0,0,0,0,0,0,0,0,-1,685,428,0,0
-532,596,0,0,0,0,0,0,0,0,0,-1,692,428,0,0
-525,596,0,0,0,0,0,0,0,0,0,-1,699,428,0,0
-518,596,0,0,0,0,0,0,0,0,0,-1,706,428,0,0
-511,596,0,0,0,0,0,0,0,0,0,-1,713,428,0,0
-504,596,0,0,0,0,0,0,0,0,0,-1,720,428,0,0
-497,596,0,0,0,0,0,0,0,0,0,-1,727,428,0,0
-490,596,0,0,0,0,0,0,0,0,0,-1,734,428,0,0
-483,596,0,0,0,0,0,0,0,0,0,-1,741,428,0,0
-476,596,0,0,0,0,0,0,0,0,0,-1,748,428,0,0
-469,596,0,0,0,0,0,0,0,0,0,-1,755,428,0,0
-462,596,0,0,0,0,0,0,0,0,0,-1,762,428,0,0
-455,596,0,0,0,0,0,0,0,0,0,-1,769,428,0,0
-448,596,0,0,0,0,0,0,0,0,0,-1,776,428,0,0
-441,596,0,0,0,0,0,0,0,0,0,-1,783,428,0,0
-434,596,0,0,0,0,0,0,0,0,0,-1,790,428,0,0
-427,596,0,0,0,0,0,0,0,0,0,-1,797,428,0,0
-420,596,0,0,0,0,0,0,0,0,0,-1,804,428,0,0
-413,596,0,0,0,0,0,0,0,0,0,-1,811,428,0,0
-406,596,0,0,0,0,0,0,0,0,0,-1,818,428,0,0
-399,596,0,0,0,0,0,0,0,0,0,-1,825,428,0,0
-392,596,0,0,0,0,0,0,0,0,0,-1,832,428,0,0
-385,596,0,0,0,0,0,0,0,0,0,-1,839,428,0,0
-378,596,0,0,0,0,0,0,0,0,0,-1,846,428,0,0
-371,596,0,0,0,0,0,0,0,0,0,-1,853,428,0,0
-364,596,0,0,0,0,0,0,0,0,0,-1,860,428,0,0
-357,596,0,0,0,0,0,0,0,0,0,-1,867,428,0,0
-350,596,0,0,0,0,0,0,0,0,0,-1,874,428,0,0
-343,596,0,0,0,0,0,0,0,0,0,-1,881,428,0,0
-336,596,6.81445,-30.5258,0,0,0,0,0,0,0,-1,888,428,6.81446,30.5258
-329,596,6.84772,-28.9253,0,0,0,0,0,0,0,-1,895,428,6.84773,28.9253
-322,596,6.97449,-27.9047,0,0,0,0,0,0,0,-1,902,428,6.97451,27.9047
-315,596,7.10132,-26.8841,0,0,0,0,0,0,0,-1,909,428,7.10129,26.8841
-308,596,0.254761,-20.841,0,0,0,0,0,0,0,-1,916,428,0.254731,20.841
-301,596,3.43213,-26.756,0,0,0,0,0,0,0,-1,923,428,3.43214,26.756
-294,596,4.1767,-27.6454,0,0,0,0,0,0,0,-1,930,428,4.17667,27.6454
-287,596,4.36041,-27.6119,0,0,0,0,0,0,0,-1,937,428,4.3604,27.6119
-280,596,5.00519,-33.3721,0,0,0,0,0,0,0,-1,944,428,5.0052,33.3721
-273,596,4.93896,-33.8271,0,0,0,0,0,0,0,-1,951,428,4.93896,33.8271
-266,596,4.86182,-34.0174,0,0,0,0,0,0,0,-1,958,428,4.86179,34.0174
-259,596,4.81104,-34.8353,-0.00126064,0.021026,-0.0103632,0.0251,-0.0053347,-1.19623,0.0187661,0.049968,965,428,4.81106,34.8353
-252,596,4.70044,-35.818,-0.00112496,0.0199878,-0.00963753,0.0237255,-0.0048626,-1.20083,0.0176624,0.0243675,972,428,4.70041,35.818
-245,596,4.7276,-36.5641,-0.000956959,0.0185941,-0.00892,0.0220521,-0.004415,-1.20096,0.0163727,0.0159964,979,428,4.72759,36.5642
-238,596,4.71692,-37.1967,-0.000791533,0.0169903,-0.00807536,0.0201102,-0.00391144,-1.20211,0.0148829,0.0133143,986,428,4.71692,37.1967
-231,596,4.63812,-37.856,-0.000501794,0.0153564,-0.00725737,0.0181762,-0.00332165,-1.2002,0.013363,0.0132489,993,428,4.63815,37.856
-224,596,4.60425,-38.4884,-0.000245721,0.0135768,-0.00646804,0.0161313,-0.00280025,-1.19465,0.0117989,0.0135634,1000,428,4.60423,38.4884
-217,596,4.58716,-39.0817,-4.93545e-05,0.0114915,-0.0056648,0.0138073,-0.0023652,-1.18271,0.0100861,0.0144499,1007,428,4.58715,39.0817
-210,596,4.57825,-39.7008,0.000128721,0.00938579,-0.00481687,0.0114375,-0.00192298,-1.16813,0.00834022,0.0124755,1014,428,4.57824,39.7008
-203,596,4.55078,-40.3057,0.0002989,0.00715631,-0.00392923,0.00894247,-0.00148727,-1.14414,0.00651424,0.0153792,1021,428,4.55077,40.3057
-196,596,4.54944,-40.8795,0.000442604,0.00537485,-0.0031746,0.00692866,-0.00111121,-1.11562,0.00503059,0.0162203,1028,428,4.5494,40.8795
-189,596,4.50232,-41.4365,0.000538127,0.00389669,-0.00261906,0.0053286,-0.000893777,-1.07047,0.00388475,0.0134476,1035,428,4.50235,41.4365
-182,596,4.46411,-41.9935,0.000569283,0.00227831,-0.0018533,0.00346461,-0.000617021,-1.00141,0.00254051,0.0124335,1042,428,4.46414,41.9935
-175,596,4.44055,-42.5558,0.000540364,0.000451706,-0.000847558,0.00134475,-0.000352682,-0.759271,0.0010343,0.0149831,1049,428,4.44056,42.5558
-168,596,4.42749,-43.1222,0.000415844,-0.00099016,6.11224e-05,0.000418496,-0.000992812,0.0433633,0.000837006,0.0175762,1056,428,4.42748,43.1222
-161,596,4.41614,-43.6619,0.000276787,-0.00217944,0.00101828,0.000644029,-0.00254668,0.34613,0.00194827,0.0160304,1063,428,4.41609,43.6619
-154,596,4.38416,-44.1671,0.000176181,-0.00346173,0.00207718,0.00111825,-0.0044038,0.425789,0.00337102,0.0128104,1070,428,4.38417,44.1671
-147,596,4.41663,-44.6451,0.000113787,-0.00470835,0.00316497,0.00168145,-0.00627601,0.459894,0.00484279,0.0133373,1077,428,4.41661,44.6451
-140,596,4.43774,-45.1382,5.70387e-05,-0.00605694,0.00430261,0.00227808,-0.00827799,0.47653,0.00641431,0.0155675,1084,428,4.43773,45.1382
-133,596,4.42578,-45.6638,5.73652e-05,-0.00728335,0.00533717,0.00286443,-0.0100904,0.484188,0.00785775,0.0150054,1091,428,4.42575,45.6638
-126,596,4.40881,-46.1324,0.000269452,-0.0083014,0.00614692,0.00347732,-0.0115093,0.480987,0.00905726,0.0112754,1098,428,4.40878,46.1324
-119,596,4.4303,-46.6093,0.00072456,-0.0091525,0.00672891,0.00413273,-0.0125607,0.468831,0.010039,0.0147623,1105,428,4.43032,46.6093
-112,596,4.40881,-47.06,0.00123688,-0.00971412,0.00700306,0.00465092,-0.0131282,0.453603,0.0106466,0.0168447,1112,428,4.40885,47.06
-105,596,4.41284,-47.5129,0.00185863,-0.0100102,0.00701392,0.00511184,-0.0132634,0.434289,0.0109514,0.0225263,1119,428,4.41282,47.5129
-98,596,4.49133,-47.9371,0.00267239,-0.0102469,0.00686203,0.00563689,-0.0132114,0.407797,0.0111711,0.0287914,1126,428,4.49135,47.9371
-91,596,4.44409,-48.4489,0,0,0,0,0,0,0,-1,1133,428,4.44407,48.4489
-84,596,4.55908,-48.756,0,0,0,0,0,0,0,-1,1140,428,4.55907,48.756
-77,596,4.65039,-49.2074,0,0,0,0,0,0,0,-1,1147,428,4.65043,49.2074
-70,596,3.50696,-32.137,0,0,0,0,0,0,0,-1,1154,428,3.50696,32.137
-63,596,1.95569,-12.2758,0,0,0,0,0,0,0,-1,1161,428,1.95563,12.2759
-56,596,1.60107,-10.5827,0,0,0,0,0,0,0,-1,1168,428,1.60108,10.5827
-49,596,1.59473,-10.0393,0,0,0,0,0,0,0,-1,1175,428,1.59472,10.0393
-42,596,1.99585,-6.6246,0,0,0,0,0,0,0,-1,1182,428,1.99586,6.62459
-35,596,4.63293,-50.6494,0,0,0,0,0,0,0,-1,1189,428,4.63291,50.6494
-28,596,4.92236,-50.9955,0,0,0,0,0,0,0,-1,1196,428,4.92236,50.9955
-21,596,4.97839,-51.2867,0,0,0,0,0,0,0,-1,1203,428,4.97841,51.2867
-14,596,5.19434,-51.471,0,0,0,0,0,0,0,-1,1210,428,5.19436,51.471
-7,596,5.33997,-51.5739,0,0,0,0,0,0,0,-1,1217,428,5.34002,51.5739
0,596,5.3064,-52.0106,0,0,0,0,0,0,0,-1,1224,428,5.30635,52.0106
7,596,5.30115,-51.8553,0,0,0,0,0,0,0,-1,1231,428,5.30111,51.8552
14,596,7.10828,-51.3293,0,0,0,0,0,0,0,-1,1238,428,7.1083,51.3293
21,596,5.97437,-51.2444,0,0,0,0,0,0,0,-1,1245,428,5.97437,51.2443
28,596,6.02832,-51.5337,0,0,0,0,0,0,0,-1,1252,428,6.02837,51.5337
35,596,7.10938,-52.4165,0,0,0,0,0,0,0,-1,1259,428,7.10935,52.4165
42,596,6.96411,-52.8353,-0.0147424,0.0160868,-0.0305765,0.0349145,-0.0335701,-1.01887,0.0395421,0.044663,1266,428,6.9641,52.8353
49,596,6.6947,-52.9539,-0.0186586,0.0152979,-0.0273271,0.0304916,-0.0338522,-1.06336,0.0371658,0.0459444,1273,428,6.69476,52.9539
56,596,6.30725,-52.4113,0,0,0,0,0,0,0,-1,1280,428,6.30725,52.4113
63,596,5.9895,-53.3228,0,0,0,0,0,0,0,-1,1287,428,5.98944,53.3228
70,596,5.64624,-53.6617,0,0,0,0,0,0,0,-1,1294,428,5.64623,53.6617
77,596,5.13074,-54.156,0,0,0,0,0,0,0,-1,1301,428,5.13079,54.156
84,596,4.55701,-54.8151,0,0,0,0,0,0,0,-1,1308,428,4.55703,54.815
91,596,4.9469,-56.2047,0,0,0,0,0,0,0,-1,1315,428,4.94684,56.2047
98,596,5.33667,-50.3845,0,0,0,0,0,0,0,-1,1322,428,5.33664,50.3845
105,596,0.0565186,-52.7048,0,0,0,0,0,0,0,-1,1329,428,0.0565368,52.7048
112,596,7.68262,-51.8969,0,0,0,0,0,0,0,-1,1336,428,7.6826,51.8969
119,596,8.07996,-51.5084,0,0,0,0,0,0,0,-1,1343,428,8.07998,51.5084
126,596,8.4043,-48.4824,0,0,0,0,0,0,0,-1,1350,428,8.40429,48.4824
133,596,8.01465,-51.1866,0,0,0,0,0,0,0,-1,1357,428,8.01463,51.1866
140,596,8.40295,-50.6928,0,0,0,0,0,0,0,-1,1364,428,8.40292,50.6929
147,596,8.04785,-50.46,0,0,0,0,0,0,0,-1,1371,428,8.04782,50.46
154,596,7.72766,-50.7446,0,0,0,0,0,0,0,-1,1378,428,7.72769,50.7446
161,596,8.22668,-50.5882,0,0,0,0,0,0,0,-1,1385,428,8.22668,50.5882
168,596,8.42969,-50.2366,0,0,0,0,0,0,0,-1,1392,428,8.4297,50.2366
175,596,8.68494,-49.9555,0,0,0,0,0,0,0,-1,1399,428,8.68495,49.9555
182,596,8.82544,-49.8651,0,0,0,0,0,0,0,-1,1406,428,8.82541,49.8651
189,596,8.74109,-49.5395,0,0,0,0,0,0,0,-1,1413,428,8.74105,49.5395
196,596,8.6283,-48.9659,0,0,0,0,0,0,0,-1,1420,428,8.62827,48.9658
203,596,8.56506,-48.9048,0,0,0,0,0,0,0,-1,1427,428,8.56509,48.9048
210,596,8.63501,-48.7226,0,0,0,0,0,0,0,-1,1434,428,8.63496,48.7226
217,596,8.67725,-48.2286,0,0,0,0,0,0,0,-1,1441,428,8.67722,48.2286
224,596,8.76245,-47.7747,0,0,0,0,0,0,0,-1,1448,428,8.76244,47.7747
231,596,8.83179,-47.3538,0.00460334,-0.00317953,-0.00172262,0.00496757,-0.00354376,-0.208371,0.00493688,0.0270676,1455,428,8.83183,47.3537
238,596,8.83508,-46.8586,0.00426062,-0.00256247,-0.00125577,0.0044844,-0.00278625,-0.176351,0.0042357,0.0171171,1462,428,8.83504,46.8586
245,596,8.85266,-46.3891,0.00402945,-0.00195295,-0.00100267,0.00419303,-0.00211653,-0.161718,0.003708,0.0141768,1469,428,8.85263,46.3891
252,596,8.87292,-45.8974,0.00371977,-0.00155431,-0.000690795,0.00380875,-0.00164329,-0.128101,0.00322944,0.0103684,1476,428,8.8729,45.8974
259,596,8.8833,-45.4065,0.0033641,-0.00146203,-0.000466345,0.00340875,-0.00150668,-0.0954523,0.00290789,0.00883874,1483,428,8.8833,45.4065
266,596,8.86804,-44.8976,0.00303496,-0.00114373,-0.000266345,0.00305186,-0.00116063,-0.063397,0.00251246,0.0105556,1490,428,8.86801,44.8976
273,596,8.89575,-44.3822,0.00283666,-0.000577167,6.23151e-05,0.0028378,-0.000578304,0.0182456,0.0021112,0.0127201,1497,428,8.89572,44.3822
280,596,8.90295,-43.8643,0.0028221,5.39661e-05,0.000533489,0.00292135,-4.52916e-05,0.183951,0.00196284,0.0131923,1504,428,8.903,43.8643
287,596,8.88208,-43.3038,0.00282441,0.00079425,0.00101281,0.00324327,0.000375397,0.392138,0.00204854,0.0115457,1511,428,8.88211,43.3038
294,596,8.83801,-42.7387,0.0027107,0.00163766,0.00152233,0.00378829,0.000560076,0.615978,0.00236108,0.00914106,1518,428,8.83798,42.7387
301,596,8.83899,-42.1761,0.00254628,0.00252998,0.00204227,0.00458042,0.000495848,0.783403,0.00290248,0.0105024,1525,428,8.83904,42.1762
308,596,8.83813,-41.6013,0.0023852,0.00347422,0.00256258,0.0055495,0.000309919,0.890084,0.00360081,0.0164673,1532,428,8.83811,41.6013
315,596,8.78101,-40.9922,0.00214482,0.0044758,0.00306186,0.00658649,3.41239e-05,0.967254,0.00437966,0.0160892,1539,428,8.78098,40.9922
322,596,8.776,-40.3893,0.00175213,0.00553318,0.00355188,0.00766633,-0.000381012,1.02996,0.0052425,0.0127181,1546,428,8.77599,40.3893
329,596,8.74829,-39.796,0.00133437,0.00647348,0.00401161,0.00866791,-0.000860062,1.07024,0.00608559,0.00991845,1553,428,8.74832,39.796
336,596,8.70508,-39.2027,0.000984965,0.00756744,0.00456758,0.00990603,-0.00135363,1.0976,0.00709838,0.00940962,1560,428,8.70508,39.2027
343,596,8.68164,-38.5929,0.000602227,0.00872104,0.00512432,0.011199,-0.00187576,1.12038,0.00816342,0.0116002,1567,428,8.68159,38.5929
350,596,8.65417,-37.9368,0.000337625,0.0101841,0.00582442,0.0128873,-0.00236554,1.13627,0.00947895,0.0117033,1574,428,8.65412,37.9368
357,596,8.60181,-37.2876,0.000120169,0.0113995,0.00659177,0.0144349,-0.00291527,1.13925,0.0107279,0.00999196,1581,428,8.6018,37.2876
364,596,8.54907,-36.6111,-1.99132e-05,0.0125189,0.00729719,0.0158701,-0.00337102,1.14029,0.0118644,0.0116843,1588,428,8.54907,36.6111
371,596,8.50464,-35.9669,-5.41362e-05,0.0140673,0.00801376,0.0176871,-0.00367397,1.14653,0.0131878,0.013189,1595,428,8.50469,35.9669
378,596,8.47241,-35.3028,5.75134e-05,0.0159095,0.00886671,0.0198763,-0.00390935,1.15012,0.014728,0.0170541,1602,428,8.47244,35.3028
385,596,8.54834,-34.4201,0.000434398,0.0180954,0.0094799,0.0222204,-0.00369066,1.16037,0.0161847,0.0403004,1609,428,8.54831,34.4201
392,596,8.4375,-33.4052,0,0,0,0,0,0,0,-1,1616,428,8.43747,33.4051
399,596,8.37903,-32.4581,0,0,0,0,0,0,0,-1,1623,428,8.37906,32.4581
406,596,3.60034,-10.1525,0,0,0,0,0,0,0,-1,1630,428,3.60028,10.1525
413,596,3.39124,-2.63528,0,0,0,0,0,0,0,-1,1637,428,3.39122,2.6353
420,596,2.6344,-3.06308,0,0,0,0,0,0,0,-1,1644,428,2.63439,3.06308
427,596,7.61975,-22.7222,0,0,0,0,0,0,0,-1,1651,428,7.61974,22.7222
434,596,5.09753,-22.5213,0,0,0,0,0,0,0,-1,1658,428,5.09755,22.5213
441,596,7.19043,-22.087,0,0,0,0,0,0,0,-1,1665,428,7.19046,22.087
448,596,1.0769,0.0083313,0,0,0,0,0,0,0,-1,1672,428,1.07684,-0.00832231
455,596,2.00769,-1.43329,0,0,0,0,0,0,0,-1,1679,428,2.00765,1.4333
462,596,0,0,0,0,0,0,0,0,0,-1,1686,428,0,0
469,596,0,0,0,0,0,0,0,0,0,-1,1693,428,0,0
476,596,0,0,0,0,0,0,0,0,0,-1,1700,428,0,0
483,596,0,0,0,0,0,0,0,0,0,-1,1707,428,0,0
490,596,0,0,0,0,0,0,0,0,0,-1,1714,428,0,0
497,596,0,0,0,0,0,0,0,0,0,-1,1721,428,0,0
504,596,0,0,0,0,0,0,0,0,0,-1,1728,428,0,0
511,596,0,0,0,0,0,0,0,0,0,-1,1735,428,0,0
518,596,0,0,0,0,0,0,0,0,0,-1,1742,428,0,0
525,596,0,0,0,0,0,0,0,0,0,-1,1749,428,0,0
532,596,0,0,0,0,0,0,0,0,0,-1,1756,428,0,0
539,596,0,0,0,0,0,0,0,0,0,-1,1763,428,0,0
546,596,0,0,0,0,0,0,0,0,0,-1,1770,428,0,0
553,596,0,0,0,0,0,0,0,0,0,-1,1777,428,0,0
560,596,0,0,0,0,0,0,0,0,0,-1,1784,428,0,0
567,596,0,0,0,0,0,0,0,0,0,-1,1791,428,0,0
574,596,0,0,0,0,0,0,0,0,0,-1,1798,428,0,0
581,596,0,0,0,0,0,0,0,0,0,-1,1805,428,0,0
588,596,0,0,0,0,0,0,0,0,0,-1,1812,428,0,0
595,596,0,0,0,0,0,0,0,0,0,-1,1819,428,0,0
602,596,0,0,0,0,0,0,0,0,0,-1,1826,428,0,0
609,596,0,0,0,0,0,0,0,0,0,-1,1833,428,0,0
616,596,0,0,0,0,0,0,0,0,0,-1,1840,428,0,0
623,596,0,0,0,0,0,0,0,0,0,-1,1847,428,0,0
630,596,0,0,0,0,0,0,0,0,0,-1,1854,428,0,0
637,596,0,0,0,0,0,0,0,0,0,-1,1861,428,0,0
644,596,0,0,0,0,0,0,0,0,0,-1,1868,428,0,0
651,596,0,0,0,0,0,0,0,0,0,-1,1875,428,0,0
658,596,0,0,0,0,0,0,0,0,0,-1,1882,428,0,0
665,596,0,0,0,0,0,0,0,0,0,-1,1889,428,0,0
672,596,0,0,0,0,0,0,0,0,0,-1,1896,428,0,0
679,596,0,0,0,0,0,0,0,0,0,-1,1903,428,0,0
686,596,0,0,0,0,0,0,0,0,0,-1,1910,428,0,0
693,596,0,0,0,0,0,0,0,0,0,-1,1917,428,0,0
700,596,0,0,0,0,0,0,0,0,0,-1,1924,428,0,0
707,596,0,0,0,0,0,0,0,0,0,-1,1931,428,0,0
714,596,0,0,0,0,0,0,0,0,0,-1,1938,428,0,0
721,596,0,0,0,0,0,0,0,0,0,-1,1945,428,0,0
728,596,0,0,0,0,0,0,0,0,0,-1,1952,428,0,0
735,596,0,0,0,0,0,0,0,0,0,-1,1959,428,0,0
742,596,0,0,0,0,0,0,0,0,0,-1,1966,428,0,0
749,596,0,0,0,0,0,0,0,0,0,-1,1973,428,0,0
756,596,0,0,0,0,0,0,0,0,0,-1,1980,428,0,0
763,596,0,0,0,0,0,0,0,0,0,-1,1987,428,0,0
770,596,0,0,0,0,0,0,0,0,0,-1,1994,428,0,0
777,596,0,0,0,0,0,0,0,0,0,-1,2001,428,0,0
784,596,0,0,0,0,0,0,0,0,0,-1,2008,428,0,0
791,596,0,0,0,0,0,0,0,0,0,-1,2015,428,0,0
798,596,0,0,0,0,0,0,0,0,0,-1,2022,428,0,0
805,596,0,0,0,0,0,0,0,0,0,-1,2029,428,0,0
812,596,0,0,0,0,0,0,0,0,0,-1,2036,428,0,0
-700,589,0,0,0,0,0,0,0,0,0,-1,524,435,0,0
-693,589,0,0,0,0,0,0,0,0,0,-1,531,435,0,0
-686,589,0,0,0,0,0,0,0,0,0,-1,538,435,0,0
-679,589,0,0,0,0,0,0,0,0,0,-1,545,435,0,0
-672,589,0,0,0,0,0,0,0,0,0,-1,552,435,0,0
-665,589,0,0,0,0,0,0,0,0,0,-1,559,435,0,0
-658,589,0,0,0,0,0,0,0,0,0,-1,566,435,0,0
-651,589,0,0,0,0,0,0,0,0,0,-1,573,435,0,0
-644,589,0,0,0,0,0,0,0,0,0,-1,580,435,0,0
-637,589,0,0,0,0,0,0,0,0,0,-1,587,435,0,0
-630,589,0,0,0,0,0,0,0,0,0,-1,594,435,0,0
-623,589,0,0,0,0,0,0,0,0,0,-1,601,435,0,0
-616,589,0,0,0,0,0,0,0,0,0,-1,608,435,0,0
-609,589,0,0,0,0,0,0,0,0,0,-1,615,435,0,0
-602,589,0,0,0,0,0,0,0,0,0,-1,622,435,0,0
-595,589,0,0,0,0,0,0,0,0,0,-1,629,435,0,0
-588,589,0,0,0,0,0,0,0,0,0,-1,636,435,0,0
-581,589,0,0,0,0,0,0,0,0,0,-1,643,435,0,0
-574,589,0,0,0,0,0,0,0,0,0,-1,650,435,0,0
-567,589,0,0,0,0,0,0,0,0,0,-1,657,435,0,0
-560,589,0,0,0,0,0,0,0,0,0,-1,664,435,0,0
-553,589,0,0,0,0,0,0,0,0,0,-1,671,435,0,0
-546,589,0,0,0,0,0,0,0,0,0,-1,678,435,0,0
-539,589,0,0,0,0,0,0,0,0,0,-1,685,435,0,0
-532,589,0,0,0,0,0,0,0,0,0,-1,692,435,0,0
-525,589,0,0,0,0,0,0,0,0,0,-1,699,435,0,0
-518,589,0,0,0,0,0,0,0,0,0,-1,706,435,0,0
-511,589,0,0,0,0,0,0,0,0,0,-1,713,435,0,0
-504,589,0,0,0,0,0,0,0,0,0,-1,720,435,0,0
-497,589,0,0,0,0,0,0,0,0,0,-1,727,435,0,0
-490,589,0,0,0,0,0,0,0,0,0,-1,734,435,0,0
-483,589,0,0,0,0,0,0,0,0,0,-1,741,435,0,0
-476,589,0,0,0,0,0,0,0,0,0,-1,748,435,0,0
-469,589,0,0,0,0,0,0,0,0,0,-1,755,435,0,0
-462,589,0,0,0,0,0,0,0,0,0,-1,762,435,0,0
-455,589,0,0,0,0,0,0,0,0,0,-1,769,435,0,0
-448,589,0,0,0,0,0,0,0,0,0,-1,776,435,0,0
-441,589,0,0,0,0,0,0,0,0,0,-1,783,435,0,0
-434,589,0,0,0,0,0,0,0,0,0,-1,790,435,0,0
-427,589,0,0,0,0,0,0,0,0,0,-1,797,435,0,0
-420,589,0,0,0,0,0,0,0,0,0,-1,804,435,0,0
-413,589,0,0,0,0,0,0,0,0,0,-1,811,435,0,0
-406,589,0,0,0,0,0,0,0,0,0,-1,818,435,0,0
-399,589,0,0,0,0,0,0,0,0,0,-1,825,435,0,0
-392,589,0,0,0,0,0,0,0,0,0,-1,832,435,0,0
-385,589,0,0,0,0,0,0,0,0,0,-1,839,435,0,0
-378,589,0,0,0,0,0,0,0,0,0,-1,846,435,0,0
-371,589,0,0,0,0,0,0,0,0,0,-1,853,435,0,0
-364,589,0,0,0,0,0,0,0,0,0,-1,860,435,0,0
-357,589,0,0,0,0,0,0,0,0,0,-1,867,435,0,0
-350,589,-0.799927,-20.664,0,0,0,0,0,0,0,-1,874,435,-0.799952,20.664
-343,589,5.15289,-30.4847,0,0,0,0,0,0,0,-1,881,435,5.15291,30.4847
-336,589,5.07684,-29.2368,0,0,0,0,0,0,0,-1,888,435,5.07687,29.2368
-329,589,4.9624,-28.1366,0,0,0,0,0,0,0,-1,895,435,4.96242,28.1366
-322,589,5.10156,-27.065,0,0,0,0,0,0,0,-1,902,435,5.10155,27.065
-315,589,4.22705,-27.9655,0,0,0,0,0,0,0,-1,909,435,4.22705,27.9655
-308,589,4.46698,-29.037,0,0,0,0,0,0,0,-1,916,435,4.46696,29.037
-301,589,4.56573,-32.0101,0,0,0,0,0,0,0,-1,923,435,4.56575,32.0101
-294,589,4.1037,-31.2976,0,0,0,0,0,0,0,-1,930,435,4.10371,31.2976
-287,589,4.21912,-32.5273,0,0,0,0,0,0,0,-1,937,435,4.21913,32.5273
-280,589,4.32977,-33.1998,-0.00159005,0.0173107,-0.00898911,0.0209031,-0.00518244,-1.1906,0.0159461,0.0414916,944,435,4.32976,33.1998
-273,589,4.31482,-33.7914,-0.00116617,0.0172528,-0.00891253,0.0208593,-0.00477261,-1.18629,0.0157401,0.0262945,951,435,4.31484,33.7914
-266,589,4.23486,-34.4904,-0.00109063,0.0165498,-0.008514,0.0199886,-0.00452947,-1.18693,0.0150643,0.0257694,958,435,4.23486,34.4904
-259,589,4.16809,-35.2043,-0.0010027,0.0156196,-0.00806954,0.0188926,-0.00427571,-1.18547,0.014236,0.0221715,965,435,4.16812,35.2043
-252,589,4.16742,-35.9661,-0.000800771,0.0146805,-0.00742413,0.0176653,-0.00378558,-1.18853,0.0132206,0.0118346,972,435,4.1674,35.9661
-245,589,4.16211,-36.6223,-0.000573214,0.013464,-0.00677439,0.0162001,-0.00330925,-1.18695,0.0120555,0.0105306,979,435,4.16212,36.6223
-238,589,4.10828,-37.2331,-0.000340589,0.0120128,-0.00601592,0.0144583,-0.00278612,-1.18469,0.0106893,0.0142898,986,435,4.10828,37.2331
-231,589,4.06793,-37.8398,-6.31985e-05,0.0104698,-0.00524277,0.0126345,-0.0022279,-1.17923,0.00925543,0.0146043,993,435,4.06793,37.8397
-224,589,4.02539,-38.457,0.000179478,0.00881426,-0.00448885,0.010725,-0.00173127,-1.16836,0.00779147,0.0146337,1000,435,4.0254,38.457
-217,589,4.00366,-39.0723,0.000405266,0.00688214,-0.00371772,0.00857411,-0.0012867,-1.1437,0.00618972,0.0158872,1007,435,4.00368,39.0723
-210,589,3.98749,-39.6701,0.000615019,0.00491734,-0.00292337,0.00639572,-0.000863362,-1.10259,0.00457881,0.0150063,1014,435,3.98747,39.6701
-203,589,3.97168,-40.2622,0.000823963,0.00292131,-0.0021245,0.00424186,-0.00049659,-1.01466,0.00300713,0.0110437,1021,435,3.97163,40.2622
-196,589,3.94177,-40.8419,0.00100979,0.00134285,-0.00143326,0.00261922,-0.000266577,-0.843234,0.00184145,0.0138233,1028,435,3.94179,40.8419
-189,589,3.91174,-41.4486,0.00107299,-1.16064e-05,-0.000847708,0.00153702,-0.000475637,-0.500841,0.00121467,0.0176052,1035,435,3.91175,41.4486
-182,589,3.92297,-41.9605,0.00103802,-0.00160191,3.52439e-05,0.00103849,-0.00160238,0.0133472,0.00153625,0.013531,1042,435,3.92296,41.9605
-175,589,3.91333,-42.5246,0.000973981,-0.00340549,0.00117674,0.00127014,-0.00370165,0.246555,0.00298269,0.0173226,1049,435,3.91336,42.5246
-168,589,3.91162,-43.1188,0.000799601,-0.00487241,0.00218609,0.00154437,-0.00561718,0.328351,0.00435189,0.0145372,1056,435,3.91163,43.1188
-161,589,3.90503,-43.6423,0.000575208,-0.0061635,0.00330691,0.00192689,-0.00751518,0.388023,0.00576086,0.0131575,1063,435,3.90508,43.6423
-154,589,3.88281,-44.1366,0.000362498,-0.0075711,0.00458883,0.00246141,-0.00967001,0.428987,0.00740479,0.0127704,1070,435,3.88277,44.1366
-147,589,3.90759,-44.6347,0.000183282,-0.00899104,0.00594091,0.00310189,-0.0119096,0.456641,0.00915068,0.0131104,1077,435,3.90753,44.6347
-140,589,3.9364,-45.1284,-3.86291e-05,-0.0105536,0.0073937,0.00377627,-0.0143685,0.476338,0.0110549,0.0155399,1084,435,3.93639,45.1284
-133,589,3.93872,-45.649,-0.000197664,-0.011966,0.00875611,0.0044677,-0.0166314,0.489552,0.0128386,0.0143352,1091,435,3.93867,45.6491
-126,589,3.95532,-46.1168,-6.08217e-05,-0.0130886,0.00983022,0.00521783,-0.0183673,0.492793,0.0143049,0.0112904,1098,435,3.95531,46.1168
-119,589,3.92004,-46.5739,0.00036166,-0.0140421,0.010621,0.00599228,-0.0196727,0.487468,0.0155035,0.0188608,1105,435,3.92001,46.5739
-112,589,3.8916,-47.0882,0.000834132,-0.0145927,0.0110045,0.00655931,-0.0203179,0.479722,0.0161811,0.0324008,1112,435,3.89154,47.0882
-105,589,3.91016,-47.5491,0,0,0,0,0,0,0,-1,1119,435,3.91022,47.5491
-98,589,4.0011,-48.1687,0,0,0,0,0,0,0,-1,1126,435,4.00112,48.1687
-91,589,3.39563,-37.8231,0,0,0,0,0,0,0,-1,1133,435,3.39565,37.8231
-84,589,2.76538,-22.6013,0,0,0,0,0,0,0,-1,1140,435,2.76539,22.6014
-77,589,2.18152,-14.8023,0,0,0,0,0,0,0,-1,1147,435,2.18155,14.8023
-70,589,1.48267,-9.90961,0,0,0,0,0,0,0,-1,1154,435,1.48264,9.9096
-63,589,0.880127,-5.50586,0,0,0,0,0,0,0,-1,1161,435,0.880186,5.50587
-56,589,-2.78052,-7.28082,0,0,0,0,0,0,0,-1,1168,435,-2.78053,7.28082
-49,589,-0.525757,-2.76703,0,0,0,0,0,0,0,-1,1175,435,-0.525771,2.76702
-42,589,-2.7738,-2.87921,0,0,0,0,0,0,0,-1,1182,435,-2.77383,2.87922
-35,589,-2.55225,-3.27551,0,0,0,0,0,0,0,-1,1189,435,-2.55223,3.27552
-28,589,-0.0632324,-3.42938,0,0,0,0,0,0,0,-1,1196,435,-0.063241,3.42938
-21,589,6.23206,-49.934,0,0,0,0,0,0,0,-1,1203,435,6.2321,49.934
-14,589,6.02014,-50.0851,-0.00322661,0.0342078,-0.0448892,0.0641257,-0.0331445,-0.982921,0.0571006,0.0450952,1210,435,6.02011,50.0852
-7,589,5.78833,-50.2263,0,0,0,0,0,0,0,-1,1217,435,5.7883,50.2263
0,589,6.71191,-50.1778,0,0,0,0,0,0,0,-1,1224,435,6.71192,50.1778
7,589,7.06738,-50.6028,-0.00295787,0.0324952,-0.0478189,0.0657674,-0.0362301,-0.962896,0.0597057,0.0477224,1231,435,7.06735,50.6028
14,589,7.18054,-50.7726,-0.00502509,0.0307755,-0.0471183,0.0632792,-0.0375288,-0.966928,0.058831,0.0471447,1238,435,7.18051,50.7726
21,589,7.39612,-51.1325,-0.00791739,0.0288561,-0.0460173,0.0600241,-0.0390853,-0.975462,0.0576449,0.0467842,1245,435,7.39617,51.1325
28,589,7.34155,-51.6637,-0.0120639,0.0251804,-0.0439029,0.0542473,-0.0411308,-0.98598,0.0552399,0.0467412,1252,435,7.3416,51.6637
35,589,7.18604,-52.5367,-0.0166998,0.0228213,-0.041345,0.0488853,-0.0427638,-1.00832,0.052953,0.0466282,1259,435,7.18602,52.5367
42,589,7.24451,-53.3299,-0.0216128,0.0205529,-0.0377287,0.0426897,-0.0437497,-1.04019,0.0499071,0.0474574,1266,435,7.24448,53.3299
49,589,6.86304,-53.1948,-0.0266697,0.0188053,-0.0333064,0.0363954,-0.0442598,-1.0849,0.04664,0.0464114,1273,435,6.86301,53.1948
56,589,6.54712,-53.2614,-0.0313956,0.0183728,-0.0291538,0.0318183,-0.0448411,-1.13867,0.0444717,0.0448497,1280,435,6.54706,53.2615
63,589,6.37,-53.3396,-0.0352939,0.0198331,-0.0247423,0.0293092,-0.0447699,-1.20504,0.043079,0.0445185,1287,435,6.37002,53.3396
70,589,6.10742,-53.4326,-0.0381014,0.0227209,-0.0207019,0.0290984,-0.044479,-1.27196,0.0427882,0.0438309,1294,435,6.10747,53.4326
77,589,6.07361,-53.9541,0,0,0,0,0,0,0,-1,1301,435,6.07362,53.9541
84,589,5.96118,-54.5016,-0.0403879,0.0340806,-0.0131383,0.0363306,-0.0426379,-1.40119,0.0456409,0.0395797,1308,435,5.96121,54.5016
91,589,6.28186,-55.4847,0,0,0,0,0,0,0,-1,1315,435,6.28191,55.4847
98,589,0.624634,-53.1271,0,0,0,0,0,0,0,-1,1322,435,0.624634,53.1271
105,589,-0.0648193,-53.667,-0.0361946,0.0537461,-0.0037026,0.0538983,-0.0363468,-1.52972,0.0524305,0.0489921,1329,435,-0.0648483,53.667
112,589,-0.294189,-53.6974,-0.0334251,0.0612851,-0.000992256,0.0612955,-0.0334355,-1.56032,0.0554758,0.0438174,1336,435,-0.294203,53.6974
119,589,-0.516846,-53.5957,0,0,0,0,0,0,0,-1,1343,435,-0.516892,53.5957
126,589,-1.0553,-53.2556,0,0,0,0,0,0,0,-1,1350,435,-1.05529,53.2556
133,589,-2.2572,-53.3094,0,0,0,0,0,0,0,-1,1357,435,-2.2572,53.3094
140,589,-2.95056,-53.5899,0,0,0,0,0,0,0,-1,1364,435,-2.95061,53.5899
147,589,-2.62756,-53.276,0,0,0,0,0,0,0,-1,1371,435,-2.62758,53.276
154,589,-2.75134,-52.5799,0,0,0,0,0,0,0,-1,1378,435,-2.75132,52.5799
161,589,-2.87488,-52.599,0,0,0,0,0,0,0,-1,1385,435,-2.87491,52.599
168,589,20.0441,-47.9614,0,0,0,0,0,0,0,-1,1392,435,20.044,47.9613
175,589,8.66992,-7.65527,0,0,0,0,0,0,0,-1,1399,435,8.66994,7.65528
182,589,3.8136,-2.45389,0,0,0,0,0,0,0,-1,1406,435,3.81363,2.4539
189,589,3.69983,-3.68149,0,0,0,0,0,0,0,-1,1413,435,3.69987,3.68147
196,589,3.31055,-5.31677,0,0,0,0,0,0,0,-1,1420,435,3.31059,5.31678
203,589,2.72559,-8.84338,0,0,0,0,0,0,0,-1,1427,435,2.72558,8.84338
210,589,3.62378,-14.4032,0,0,0,0,0,0,0,-1,1434,435,3.62378,14.4032
217,589,4.65601,-22.3745,0,0,0,0,0,0,0,-1,1441,435,4.65607,22.3745
224,589,6.79028,-33.9412,0,0,0,0,0,0,0,-1,1448,435,6.79028,33.9412
231,589,9.33215,-47.3893,0,0,0,0,0,0,0,-1,1455,435,9.33215,47.3893
238,589,9.32776,-46.8321,0,0,0,0,0,0,0,-1,1462,435,9.32778,46.8321
245,589,9.38928,-46.2582,0,0,0,0,0,0,0,-1,1469,435,9.38925,46.2582
252,589,9.36072,-45.8202,0.0051717,-0.00336932,-0.00166904,0.00548626,-0.00368389,-0.186288,0.00532837,0.0191143,1476,435,9.36076,45.8202
259,589,9.38391,-45.3818,0.00474098,-0.00387334,-0.00150254,0.00499554,-0.00412789,-0.167823,0.00527535,0.00955189,1483,435,9.38387,45.3818
266,589,9.38708,-44.8686,0.00428551,-0.00397054,-0.00139911,0.00451616,-0.0042012,-0.16339,0.00503407,0.00931802,1490,435,9.38712,44.8686
273,589,9.41028,-44.3854,0.00398806,-0.0037372,-0.00112112,0.00414747,-0.00389661,-0.141243,0.00464501,0.0116814,1497,435,9.41026,44.3854
280,589,9.41394,-43.8626,0.00395055,-0.003407,-0.000676583,0.00401224,-0.0034687,-0.0909413,0.00432293,0.0132209,1504,435,9.41398,43.8626
287,589,9.41479,-43.3187,0.00389819,-0.00292949,-0.000298161,0.00391119,-0.00294249,-0.0435589,0.00397012,0.01194,1511,435,9.41485,43.3187
294,589,9.40686,-42.7315,0.00372738,-0.00222678,0.000131994,0.0037303,-0.0022297,0.0221539,0.00347718,0.0106059,1518,435,9.40686,42.7315
301,589,9.39563,-42.1434,0.00350938,-0.00140334,0.000579204,0.00357674,-0.0014707,0.115784,0.00299751,0.0114393,1525,435,9.39558,42.1434
308,589,9.39172,-41.5649,0.00326287,-0.000476531,0.00101571,0.00352095,-0.000734608,0.248821,0.00262664,0.0111443,1532,435,9.39167,41.5649
315,589,9.37952,-40.9797,0.0029409,0.00054214,0.00144209,0.00361719,-0.00013415,0.438513,0.0024574,0.0103478,1539,435,9.37953,40.9798
322,589,9.37061,-40.4003,0.00249405,0.00170082,0.0018821,0.00402087,0.000174006,0.681553,0.0026245,0.0108216,1546,435,9.37057,40.4003
329,589,9.34229,-39.7972,0.0020133,0.00278951,0.00232293,0.00475653,4.6276e-05,0.868171,0.00315571,0.00995916,1553,435,9.34225,39.7972
336,589,9.323,-39.1997,0.00157506,0.00397755,0.00284057,0.00586043,-0.000307818,0.985438,0.00401349,0.00989372,1560,435,9.32304,39.1997
343,589,9.2915,-38.5934,0.00111133,0.00527515,0.00338142,0.00716418,-0.000777696,1.06134,0.00505533,0.0112075,1567,435,9.29152,38.5934
350,589,9.24133,-37.954,0.000768219,0.00679842,0.00405076,0.00883302,-0.00126639,1.10533,0.00635302,0.0164859,1574,435,9.24135,37.954
357,589,9.22107,-37.2816,0.000486508,0.00812806,0.0047634,0.0104137,-0.00179913,1.12341,0.00761337,0.0146175,1581,435,9.22108,37.2816
364,589,9.20679,-36.6257,0.000296386,0.00937047,0.00545652,0.0119298,-0.00226294,1.13222,0.00880498,0.0119349,1588,435,9.20675,36.6257
371,589,9.15247,-35.9851,0.000222494,0.0107987,0.0061618,0.0136305,-0.00260924,1.14002,0.01007,0.0116873,1595,435,9.15247,35.9851
378,589,9.11401,-35.3189,0.000213527,0.0123292,0.00687546,0.0154348,-0.00289211,1.14653,0.0113771,0.0123771,1602,435,9.11406,35.3189
385,589,9.09863,-34.6061,0.000416191,0.0140661,0.00733116,0.0172574,-0.00277513,1.16023,0.0125328,0.0227019,1609,435,9.09864,34.6061
392,589,9.05481,-33.7494,0.000806598,0.0150089,0.00742339,0.0181807,-0.00236517,1.16701,0.0129809,0.0314659,1616,435,9.05482,33.7494
399,589,9.05786,-32.8857,0.00105548,0.0160539,0.00760427,0.0192348,-0.00212533,1.17462,0.0135871,0.0401753,1623,435,9.05785,32.8857
406,589,9.10071,-32.1301,0,0,0,0,0,0,0,-1,1630,435,9.10074,32.1301
413,589,5.61377,-19.0606,0,0,0,0,0,0,0,-1,1637,435,5.61372,19.0606
420,589,2.79724,-5.79956,0,0,0,0,0,0,0,-1,1644,435,2.7973,5.79955
427,589,8.28174,-30.5281,0,0,0,0,0,0,0,-1,1651,435,8.28173,30.5281
434,589,8.22217,-29.3448,0,0,0,0,0,0,0,-1,1658,435,8.22218,29.3449
441,589,8.02429,-27.7831,0,0,0,0,0,0,0,-1,1665,435,8.02424,27.7832
448,589,0.453735,-3.2868,0,0,0,0,0,0,0,-1,1672,435,0.453701,3.28681
455,589,0.664307,-3.46848,0,0,0,0,0,0,0,-1,1679,435,0.66425,3.46846
462,589,3.46716,-4.41891,0,0,0,0,0,0,0,-1,1686,435,3.4672,4.41891
469,589,0.0238037,-3.81497,0,0,0,0,0,0,0,-1,1693,435,0.0237965,3.81498
476,589,0,0,0,0,0,0,0,0,0,-1,1700,435,0,0
483,589,0,0,0,0,0,0,0,0,0,-1,1707,435,0,0
490,589,0,0,0,0,0,0,0,0,0,-1,1714,435,0,0
497,589,0,0,0,0,0,0,0,0,0,-1,1721,435,0,0
504,589,0,0,0,0,0,0,0,0,0,-1,1728,435,0,0
511,589,0,0,0,0,0,0,0,0,0,-1,1735,435,0,0
518,589,0,0,0,0,0,0,0,0,0,-1,1742,435,0,0
525,589,0,0,0,0,0,0,0,0,0,-1,1749,435,0,0
532,589,0,0,0,0,0,0,0,0,0,-1,1756,435,0,0
539,589,0,0,0,0,0,0,0,0,0,-1,1763,435,0,0
546,589,0,0,0,0,0,0,0,0,0,-1,1770,435,0,0
553,589,0,0,0,0,0,0,0,0,0,-1,1777,435,0,0
560,589,0,0,0,0,0,0,0,0,0,-1,1784,435,0,0
567,589,0,0,0,0,0,0,0,0,0,-1,1791,435,0,0
574,589,0,0,0,0,0,0,0,0,0,-1,1798,435,0,0
581,589,0,0,0,0,0,0,0,0,0,-1,1805,435,0,0
588,589,0,0,0,0,0,0,0,0,0,-1,1812,435,0,0
595,589,0,0,0,0,0,0,0,0,0,-1,1819,435,0,0
602,589,0,0,0,0,0,0,0,0,0,-1,1826,435,0,0
609,589,0,0,0,0,0,0,0,0,0,-1,1833,435,0,0
616,589,0,0,0,0,0,0,0,0,0,-1,1840,435,0,0
623,589,0,0,0,0,0,0,0,0,0,-1,1847,435,0,0
630,589,0,0,0,0,0,0,0,0,0,-1,1854,435,0,0
637,589,0,0,0,0,0,0,0,0,0,-1,1861,435,0,0
644,589,0,0,0,0,0,0,0,0,0,-1,1868,435,0,0
651,589,0,0,0,0,0,0,0,0,0,-1,1875,435,0,0
658,589,0,0,0,0,0,0,0,0,0,-1,1882,435,0,0
665,589,0,0,0,0,0,0,0,0,0,-1,1889,435,0,0
672,589,0,0,0,0,0,0,0,0,0,-1,1896,435,0,0
679,589,0,0,0,0,0,0,0,0,0,-1,1903,435,0,0
686,589,0,0,0,0,0,0,0,0,0,-1,1910,435,0,0
693,589,0,0,0,0,0,0,0,0,0,-1,1917,435,0,0
700,589,0,0,0,0,0,0,0,0,0,-1,1924,435,0,0
707,589,0,0,0,0,0,0,0,0,0,-1,1931,435,0,0
714,589,0,0,0,0,0,0,0,0,0,-1,1938,435,0,0
721,589,0,0,0,0,0,0,0,0,0,-1,1945,435,0,0
728,589,0,0,0,0,0,0,0,0,0,-1,1952,435,0,0
735,589,0,0,0,0,0,0,0,0,0,-1,1959,435,0,0
742,589,0,0,0,0,0,0,0,0,0,-1,1966,435,0,0
749,589,0,0,0,0,0,0,0,0,0,-1,1973,435,0,0
756,589,0,0,0,0,0,0,0,0,0,-1,1980,435,0,0
763,589,0,0,0,0,0,0,0,0,0,-1,1987,435,0,0
770,589,0,0,0,0,0,0,0,0,0,-1,1994,435,0,0
777,589,0,0,0,0,0,0,0,0,0,-1,2001,435,0,0
784,589,0,0,0,0,0,0,0,0,0,-1,2008,435,0,0
791,589,0,0,0,0,0,0,0,0,0,-1,2015,435,0,0
798,589,0,0,0,0,0,0,0,0,0,-1,2022,435,0,0
805,589,0,0,0,0,0,0,0,0,0,-1,2029,435,0,0
812,589,0,0,0,0,0,0,0,0,0,-1,2036,435,0,0
-700,582,0,0,0,0,0,0,0,0,0,-1,524,442,0,0
-693,582,0,0,0,0,0,0,0,0,0,-1,531,442,0,0
-686,582,0,0,0,0,0,0,0,0,0,-1,538,442,0,0
-679,582,0,0,0,0,0,0,0,0,0,-1,545,442,0,0
-672,582,0,0,0,0,0,0,0,0,0,-1,552,442,0,0
-665,582,0,0,0,0,0,0,0,0,0,-1,559,442,0,0
-658,582,0,0,0,0,0,0,0,0,0,-1,566,442,0,0
-651,582,0,0,0,0,0,0,0,0,0,-1,573,442,0,0
-644,582,0,0,0,0,0,0,0,0,0,-1,580,442,0,0
-637,582,0,0,0,0,0,0,0,0,0,-1,587,442,0,0
-630,582,0,0,0,0,0,0,0,0,0,-1,594,442,0,0
-623,582,0,0,0,0,0,0,0,0,0,-1,601,442,0,0
-616,582,0,0,0,0,0,0,0,0,0,-1,608,442,0,0
-609,582,0,0,0,0,0,0,0,0,0,-1,615,442,0,0
-602,582,0,0,0,0,0,0,0,0,0,-1,622,442,0,0
-595,582,0,0,0,0,0,0,0,0,0,-1,629,442,0,0
-588,582,0,0,0,0,0,0,0,0,0,-1,636,442,0,0
-581,582,0,0,0,0,0,0,0,0,0,-1,643,442,0,0
-574,582,0,0,0,0,0,0,0,0,0,-1,650,442,0,0
-567,582,0,0,0,0,0,0,0,0,0,-1,657,442,0,0
-560,582,0,0,0,0,0,0,0,0,0,-1,664,442,0,0
-553,582,0,0,0,0,0,0,0,0,0,-1,671,442,0,0
-546,582,0,0,0,0,0,0,0,0,0,-1,678,442,0,0
-539,582,0,0,0,0,0,0,0,0,0,-1,685,442,0,0
-532,582,0,0,0,0,0,0,0,0,0,-1,692,442,0,0
-525,582,0,0,0,0,0,0,0,0,0,-1,699,442,0,0
-518,582,0,0,0,0,0,0,0,0,0,-1,706,442,0,0
-511,582,0,0,0,0,0,0,0,0,0,-1,713,442,0,0
-504,582,0,0,0,0,0,0,0,0,0,-1,720,442,0,0
-497,582,0,0,0,0,0,0,0,0,0,-1,727,442,0,0
-490,582,0,0,0,0,0,0,0,0,0,-1,734,442,0,0
-483,582,0,0,0,0,0,0,0,0,0,-1,741,442,0,0
-476,582,0,0,0,0,0,0,0,0,0,-1,748,442,0,0
-469,582,0,0,0,0,0,0,0,0,0,-1,755,442,0,0
-462,582,0,0,0,0,0,0,0,0,0,-1,762,442,0,0
-455,582,0,0,0,0,0,0,0,0,0,-1,769,442,0,0
-448,582,0,0,0,0,0,0,0,0,0,-1,776,442,0,0
-441,582,0,0,0,0,0,0,0,0,0,-1,783,442,0,0
-434,582,0,0,0,0,0,0,0,0,0,-1,790,442,0,0
-427,582,0,0,0,0,0,0,0,0,0,-1,797,442,0,0
-420,582,0,0,0,0,0,0,0,0,0,-1,804,442,0,0
-413,582,0,0,0,0,0,0,0,0,0,-1,811,442,0,0
-406,582,0,0,0,0,0,0,0,0,0,-1,818,442,0,0
-399,582,0,0,0,0,0,0,0,0,0,-1,825,442,0,0
-392,582,0,0,0,0,0,0,0,0,0,-1,832,442,0,0
-385,582,0,0,0,0,0,0,0,0,0,-1,839,442,0,0
-378,582,0,0,0,0,0,0,0,0,0,-1,846,442,0,0
-371,582,0,0,0,0,0,0,0,0,0,-1,853,442,0,0
-364,582,0,0,0,0,0,0,0,0,0,-1,860,442,0,0
-357,582,-1.4903,-21.5295,0,0,0,0,0,0,0,-1,867,442,-1.49031,21.5295
-350,582,-0.880859,-19.7966,0,0,0,0,0,0,0,-1,874,442,-0.880885,19.7966
-343,582,0.939941,-19.1705,0,0,0,0,0,0,0,-1,881,442,0.939935,19.1705
-336,582,3.33929,-27.9479,0,0,0,0,0,0,0,-1,888,442,3.33928,27.9479
-329,582,3.63544,-26.4736,0,0,0,0,0,0,0,-1,895,442,3.63546,26.4736
-322,582,3.67145,-27.1796,0,0,0,0,0,0,0,-1,902,442,3.67143,27.1796
-315,582,3.90686,-27.6446,0,0,0,0,0,0,0,-1,909,442,3.90689,27.6446
-308,582,3.92242,-30.7872,0,0,0,0,0,0,0,-1,916,442,3.92245,30.7872
-301,582,3.93286,-31.5527,0,0,0,0,0,0,0,-1,923,442,3.93288,31.5527
-294,582,3.6546,-31.7155,0,0,0,0,0,0,0,-1,930,442,3.65457,31.7155
-287,582,3.71051,-32.4725,-0.00176713,0.0131698,-0.00725779,0.0161154,-0.00471276,-1.18525,0.0126116,0.0428815,937,442,3.7105,32.4725
-280,582,3.70807,-33.1609,-0.00136414,0.0132927,-0.00715296,0.0162049,-0.00427635,-1.18416,0.0124755,0.0197142,944,442,3.70808,33.1609
-273,582,3.71887,-33.8831,-0.000905901,0.0131227,-0.00697924,0.0160033,-0.00378656,-1.17935,0.0121297,0.0119853,951,442,3.7189,33.8831
-266,582,3.67584,-34.5712,-0.000793903,0.0123214,-0.0065495,0.0150319,-0.0035044,-1.17841,0.0113709,0.011058,958,442,3.67584,34.5712
-259,582,3.62036,-35.2614,-0.000682176,0.0113003,-0.00609688,0.0138569,-0.00323886,-1.17373,0.0104857,0.00910879,965,442,3.62039,35.2614
-252,582,3.58081,-35.9592,-0.000467547,0.0103051,-0.00544341,0.0125766,-0.00273911,-1.17546,0.00943099,0.00853892,972,442,3.5808,35.9592
-245,582,3.55762,-36.5788,-0.000209028,0.00907333,-0.00479539,0.0111057,-0.0022414,-1.16993,0.00825302,0.0121174,979,442,3.55761,36.5788
-238,582,3.51154,-37.1741,6.52893e-05,0.0075814,-0.00406179,0.00935699,-0.00171029,-1.15869,0.00687932,0.0168042,986,442,3.51152,37.1741
-231,582,3.47845,-37.8067,0.000338343,0.00595708,-0.00329815,0.00748019,-0.00118476,-1.13817,0.00542501,0.013381,993,442,3.47843,37.8067
-224,582,3.4447,-38.4499,0.000574116,0.00425678,-0.00254647,0.00555791,-0.000727005,-1.09843,0.00396986,0.0104915,1000,442,3.44468,38.4499
-217,582,3.41156,-39.0551,0.000825533,0.00232543,-0.00178758,0.003514,-0.000363038,-0.984014,0.00247258,0.0125757,1007,442,3.41154,39.0551
-210,582,3.39423,-39.637,0.00106444,0.000374506,-0.00103637,0.00181175,-0.000372796,-0.624734,0.00134937,0.0131581,1014,442,3.39422,39.637
-203,582,3.40002,-40.2307,0.00131484,-0.0014856,-0.000321249,0.00135122,-0.00152198,-0.112762,0.00165982,0.0102265,1021,442,3.40007,40.2306
-196,582,3.35596,-40.8447,0.00155314,-0.00293449,0.000308627,0.00157427,-0.00295562,0.0683439,0.00265555,0.0152407,1028,442,3.356,40.8447
-189,582,3.33728,-41.4188,0.00158089,-0.00420482,0.000927782,0.00172602,-0.00434996,0.155176,0.00361536,0.0233889,1035,442,3.33729,41.4188
-182,582,3.36353,-41.9577,0.00145904,-0.00578093,0.00194738,0.00194961,-0.00627149,0.246773,0.00496026,0.0168113,1042,442,3.36351,41.9577
-175,582,3.3512,-42.4901,0.00134914,-0.00753268,0.00326305,0.00241906,-0.0086026,0.316842,0.00668885,0.0146149,1049,442,3.35117,42.49
-168,582,3.36829,-43.0717,0.0011047,-0.00897031,0.00443103,0.00277618,-0.0106418,0.360717,0.00817852,0.012078,1056,442,3.3683,43.0717
-161,582,3.36206,-43.61,0.000741093,-0.0103549,0.00578055,0.00320528,-0.0128191,0.402962,0.00979097,0.012847,1063,442,3.36202,43.6101
-154,582,3.36011,-44.1104,0.000351315,-0.0118952,0.00736519,0.00380617,-0.0153501,0.438606,0.0117102,0.0122161,1070,442,3.36015,44.1104
-147,582,3.37793,-44.6298,-2.92156e-05,-0.0135031,0.00908428,0.0045436,-0.0180759,0.466345,0.0138164,0.0126009,1077,442,3.37788,44.6298
-140,582,3.37622,-45.1131,-0.000519568,-0.015332,0.0109913,0.00532791,-0.0211795,0.488927,0.0161905,0.0147265,1084,442,3.37616,45.1131
-133,582,3.43896,-45.5971,-0.000956664,-0.0170115,0.0128519,0.00616885,-0.024137,0.506239,0.0184938,0.0182677,1091,442,3.43892,45.5971
-126,582,3.47168,-45.9677,-0.00102729,-0.0183745,0.0143946,0.00710495,-0.0265067,0.514249,0.020455,0.0169514,1098,442,3.47167,45.9677
-119,582,3.41211,-46.3359,-0.000752577,-0.019628,0.0155806,0.00802582,-0.0284064,0.513086,0.022104,0.026127,1105,442,3.41207,46.3359
-112,582,3.33948,-46.8172,0,0,0,0,0,0,0,-1,1112,442,3.33944,46.8172
-105,582,2.87219,-43.073,0,0,0,0,0,0,0,-1,1119,442,2.87217,43.073
-98,582,2.61938,-32.8673,0,0,0,0,0,0,0,-1,1126,442,2.61944,32.8673
-91,582,2.16492,-24.1119,0,0,0,0,0,0,0,-1,1133,442,2.16496,24.1119
-84,582,2.10278,-16.7533,0,0,0,0,0,0,0,-1,1140,442,2.10279,16.7533
-77,582,2.30212,-11.4907,0,0,0,0,0,0,0,-1,1147,442,2.30207,11.4907
-70,582,1.49255,-6.36548,0,0,0,0,0,0,0,-1,1154,442,1.49251,6.36549
-63,582,-4.62915,-4.0347,0,0,0,0,0,0,0,-1,1161,442,-4.6292,4.03471
-56,582,-5.81714,-5.24149,0,0,0,0,0,0,0,-1,1168,442,-5.81718,5.24149
-49,582,-3.88672,-10.1064,0,0,0,0,0,0,0,-1,1175,442,-3.88678,10.1064
-42,582,-0.948975,1.13968,0,0,0,0,0,0,0,-1,1182,442,-0.949003,-1.13969
-35,582,-2.58435,-3.86911,0,0,0,0,0,0,0,-1,1189,442,-2.58437,3.86912
-28,582,-0.825317,-3.45941,0,0,0,0,0,0,0,-1,1196,442,-0.825377,3.45942
-21,582,6.03479,-49.1085,0,0,0,0,0,0,0,-1,1203,442,6.03482,49.1085
-14,582,6.11829,-49.2427,0,0,0,0,0,0,0,-1,1210,442,6.11833,49.2427
-7,582,7.68237,-49.1675,0,0,0,0,0,0,0,-1,1217,442,7.68243,49.1675
0,582,6.74792,-49.9718,0,0,0,0,0,0,0,-1,1224,442,6.74798,49.9718
7,582,6.89905,-50.2105,-0.00630798,0.0452294,-0.060502,0.0852218,-0.0463004,-0.986721,0.0770347,0.0497997,1231,442,6.89907,50.2105
14,582,7.26184,-50.1911,-0.00881142,0.0421777,-0.0591499,0.0810934,-0.0477271,-0.988876,0.0752015,0.0479932,1238,442,7.26182,50.1911
21,582,7.41638,-51.1543,-0.0125643,0.0387254,-0.057189,0.0757562,-0.0495951,-0.996169,0.0728951,0.0442798,1245,442,7.41635,51.1543
28,582,7.25134,-51.9362,-0.0179298,0.0330096,-0.0539811,0.067228,-0.0521482,-1.00583,0.0691049,0.0447746,1252,442,7.25129,51.9362
35,582,7.58618,-52.9626,-0.0238913,0.0289136,-0.0501723,0.0592064,-0.0541841,-1.02761,0.0654874,0.0452099,1259,442,7.58612,52.9627
42,582,7.54846,-53.8167,0,0,0,0,0,0,0,-1,1266,442,7.54841,53.8167
49,582,7.02222,-53.4107,-0.036421,0.0218959,-0.039528,0.0418564,-0.0563816,-1.10318,0.056924,0.0453298,1273,442,7.02225,53.4107
56,582,6.73816,-53.5861,-0.0422686,0.0204652,-0.0342045,0.0355077,-0.057311,-1.15647,0.0540795,0.0455083,1280,442,6.73812,53.5861
63,582,6.71082,-53.7104,-0.0469071,0.0216444,-0.0287647,0.0321149,-0.0573777,-1.2217,0.0523503,0.0443337,1287,442,6.71078,53.7104
70,582,6.47388,-53.6512,-0.0500696,0.0251222,-0.0239018,0.0320769,-0.0570242,-1.28765,0.0521103,0.0479953,1294,442,6.47386,53.6512
77,582,6.20642,-53.5832,0,0,0,0,0,0,0,-1,1301,442,6.20638,53.5832
84,582,7.36304,-54.1596,0,0,0,0,0,0,0,-1,1308,442,7.36309,54.1596
91,582,0.0760498,-54.5345,0,0,0,0,0,0,0,-1,1315,442,0.0760575,54.5345
98,582,0.427124,-53.8994,-0.0489895,0.0555056,-0.00765713,0.0560637,-0.0495476,-1.49804,0.0610134,0.0451142,1322,442,0.427086,53.8994
105,582,-0.039917,-54.3904,-0.0458591,0.065033,-0.00387067,0.0651679,-0.045994,-1.53595,0.0644968,0.0426976,1329,442,-0.0399587,54.3904
112,582,-0.635254,-54.4148,-0.0422424,0.075057,-0.000550271,0.0750596,-0.042245,-1.56611,0.0686034,0.0442383,1336,442,-0.63528,54.4148
119,582,-1.13928,-54.6096,0,0,0,0,0,0,0,-1,1343,442,-1.13926,54.6096
126,582,-1.56519,-54.3986,0,0,0,0,0,0,0,-1,1350,442,-1.56514,54.3986
133,582,-2.49524,-54.1727,-0.0302908,0.096983,0.00995807,0.0977575,-0.0310652,1.49318,0.0776271,0.0484596,1357,442,-2.49521,54.1727
140,582,-2.95032,-54.6078,-0.0271729,0.0995659,0.0135053,0.100989,-0.0285961,1.46581,0.0786113,0.046731,1364,442,-2.95037,54.6078
147,582,-2.9386,-54.1848,-0.0244998,0.100898,0.0159771,0.102901,-0.0265035,1.44604,0.0789328,0.0489174,1371,442,-2.93861,54.1848
154,582,-3.04919,-53.8899,-0.0223478,0.101962,0.0185525,0.104672,-0.0250575,1.42576,0.0794618,0.0457038,1378,442,-3.04915,53.8899
161,582,-3.18518,-53.8596,0,0,0,0,0,0,0,-1,1385,442,-3.18522,53.8596
168,582,0.081665,-40.4535,0,0,0,0,0,0,0,-1,1392,442,0.0816215,40.4535
175,582,6.50549,-2.00424,0,0,0,0,0,0,0,-1,1399,442,6.50546,2.00425
182,582,5.18958,-2.18652,0,0,0,0,0,0,0,-1,1406,442,5.1896,2.18652
189,582,6.19751,-0.880951,0,0,0,0,0,0,0,-1,1413,442,6.19754,0.88096
196,582,4.87354,-2.22327,0,0,0,0,0,0,0,-1,1420,442,4.87348,2.22325
203,582,3.11401,-4.48257,0,0,0,0,0,0,0,-1,1427,442,3.11404,4.48259
210,582,2.93115,-11.0731,0,0,0,0,0,0,0,-1,1434,442,2.93113,11.0731
217,582,4.94092,-16.5476,0,0,0,0,0,0,0,-1,1441,442,4.94087,16.5476
224,582,5.21008,-20.9908,0,0,0,0,0,0,0,-1,1448,442,5.21006,20.9908
231,582,5.70032,-25.622,0,0,0,0,0,0,0,-1,1455,442,5.70026,25.6221
238,582,6.44189,-30.7028,0,0,0,0,0,0,0,-1,1462,442,6.44195,30.7028
245,582,10.0378,-45.1569,0,0,0,0,0,0,0,-1,1469,442,10.0379,45.1568
252,582,9.91846,-45.8456,0,0,0,0,0,0,0,-1,1476,442,9.9185,45.8456
259,582,9.90552,-45.3837,0.00630294,-0.00621475,-0.00243619,0.00676036,-0.00667217,-0.185598,0.00775533,0.0228424,1483,442,9.90553,45.3837
266,582,9.91638,-44.8497,0.00579256,-0.00679818,-0.00246009,0.00625616,-0.00726178,-0.186265,0.00781178,0.0125419,1490,442,9.91636,44.8497
273,582,9.93958,-44.3587,0.0054447,-0.00693766,-0.00224092,0.00583778,-0.00733074,-0.173642,0.00761912,0.0106885,1497,442,9.93953,44.3587
280,582,9.9574,-43.8525,0.00546278,-0.00694101,-0.00181435,0.00572272,-0.00720095,-0.142303,0.00747774,0.0111686,1504,442,9.95736,43.8525
287,582,9.98315,-43.3013,0.00539703,-0.00672149,-0.00154292,0.00559039,-0.00691484,-0.12467,0.00723338,0.0118455,1511,442,9.98314,43.3013
294,582,9.99194,-42.7195,0.00518806,-0.00613992,-0.00118731,0.00531117,-0.00626303,-0.103317,0.00668989,0.00994991,1518,442,9.992,42.7195
301,582,9.9751,-42.1301,0.00492584,-0.0053584,-0.000800027,0.00498771,-0.00542026,-0.0771728,0.00601077,0.0107155,1525,442,9.97505,42.1301
308,582,9.9657,-41.5366,0.00459482,-0.00441666,-0.000432737,0.00461556,-0.00443739,-0.0478738,0.00522706,0.0129945,1532,442,9.96567,41.5366
315,582,9.96887,-40.9541,0.00417904,-0.00334522,-6.47127e-05,0.0041796,-0.00334577,-0.00859969,0.00435366,0.0127458,1539,442,9.96889,40.9541
322,582,9.95142,-40.3816,0.00364073,-0.00206758,0.000348889,0.00366197,-0.00208883,0.0608178,0.00336138,0.00973096,1546,442,9.95136,40.3816
329,582,9.93652,-39.7861,0.0030646,-0.000787806,0.000794147,0.00322189,-0.000945092,0.195526,0.00252267,0.00956153,1553,442,9.93658,39.7861
336,582,9.93628,-39.1775,0.00250811,0.000548881,0.00127788,0.00313866,-8.1666e-05,0.45838,0.00212018,0.0104397,1560,442,9.93625,39.1775
343,582,9.91077,-38.5435,0.00191485,0.00203332,0.00180333,0.00377838,0.000169787,0.801815,0.00246428,0.0133442,1567,442,9.91076,38.5435
350,582,9.87024,-37.9208,0.00143531,0.003636,0.00244122,0.0052134,-0.000142095,0.997131,0.00352392,0.0168815,1574,442,9.87029,37.9208
357,582,9.85889,-37.2705,0.00101136,0.00508181,0.00310355,0.00675794,-0.000664769,1.07561,0.00474244,0.0145999,1581,442,9.85889,37.2705
364,582,9.83325,-36.6246,0.000676027,0.00643983,0.00378464,0.00831491,-0.00119905,1.1108,0.00598314,0.0111242,1588,442,9.83324,36.6246
371,582,9.78308,-35.9773,0.000479225,0.00776663,0.00447337,0.00989247,-0.00164662,1.12717,0.00720683,0.014892,1595,442,9.78309,35.9773
378,582,9.7373,-35.3197,0.000324143,0.00908158,0.00510219,0.0114264,-0.00202064,1.14002,0.0083728,0.0154277,1602,442,9.73734,35.3197
385,582,9.70923,-34.6431,0.000334241,0.0105146,0.00548103,0.0129045,-0.00205565,1.15962,0.00936375,0.0114978,1609,442,9.70921,34.6431
392,582,9.65796,-33.9616,0.000566483,0.0112507,0.0056029,0.01365,-0.0018329,1.16619,0.00976848,0.0101659,1616,442,9.65802,33.9616
399,582,9.60889,-33.3037,0.000699891,0.0119405,0.00575618,0.0143651,-0.00172477,1.17212,0.0102004,0.0187646,1623,442,9.60884,33.3037
406,582,9.58252,-32.5067,0.000685137,0.0125622,0.00567279,0.0148362,-0.00158893,1.18954,0.0104608,0.0360295,1630,442,9.58249,32.5066
413,582,9.55359,-31.6898,0,0,0,0,0,0,0,-1,1637,442,9.55355,31.6898
420,582,9.30945,-31.1419,0,0,0,0,0,0,0,-1,1644,442,9.30945,31.1419
427,582,9.22241,-30.3742,0.000639159,0.0106169,0.00393784,0.0119837,-0.000727711,1.2367,0.00824245,0.0477428,1651,442,9.22241,30.3742
434,582,9.09326,-29.5351,0.000623148,0.00920364,0.00310469,0.0102092,-0.000382385,1.25758,0.00693709,0.0477794,1658,442,9.09324,29.5351
441,582,9.07251,-29.3475,0,0,0,0,0,0,0,-1,1665,442,9.07257,29.3475
448,582,9.65515,-27.6094,0,0,0,0,0,0,0,-1,1672,442,9.65518,27.6094
455,582,6.4585,-19.4734,0,0,0,0,0,0,0,-1,1679,442,6.45854,19.4734
462,582,5.35022,-19.2616,0,0,0,0,0,0,0,-1,1686,442,5.35025,19.2616
469,582,6.28601,-21.5695,0,0,0,0,0,0,0,-1,1693,442,6.28597,21.5695
476,582,1.93579,-8.53891,0,0,0,0,0,0,0,-1,1700,442,1.93579,8.53892
483,582,0,0,0,0,0,0,0,0,0,-1,1707,442,0,0
490,582,0,0,0,0,0,0,0,0,0,-1,1714,442,0,0
497,582,0,0,0,0,0,0,0,0,0,-1,1721,442,0,0
504,582,0,0,0,0,0,0,0,0,0,-1,1728,442,0,0
511,582,0,0,0,0,0,0,0,0,0,-1,1735,442,0,0
518,582,0,0,0,0,0,0,0,0,0,-1,1742,442,0,0
525,582,0,0,0,0,0,0,0,0,0,-1,1749,442,0,0
532,582,0,0,0,0,0,0,0,0,0,-1,1756,442,0,0
539,582,0,0,0,0,0,0,0,0,0,-1,1763,442,0,0
546,582,0,0,0,0,0,0,0,0,0,-1,1770,442,0,0
553,582,0,0,0,0,0,0,0,0,0,-1,1777,442,0,0
560,582,0,0,0,0,0,0,0,0,0,-1,1784,442,0,0
567,582,0,0,0,0,0,0,0,0,0,-1,1791,442,0,0
574,582,0,0,0,0,0,0,0,0,0,-1,1798,442,0,0
581,582,0,0,0,0,0,0,0,0,0,-1,1805,442,0,0
588,582,0,0,0,0,0,0,0,0,0,-1,1812,442,0,0
595,582,0,0,0,0,0,0,0,0,0,-1,1819,442,0,0
602,582,0,0,0,0,0,0,0,0,0,-1,1826,442,0,0
609,582,0,0,0,0,0,0,0,0,0,-1,1833,442,0,0
616,582,0,0,0,0,0,0,0,0,0,-1,1840,442,0,0
623,582,0,0,0,0,0,0,0,0,0,-1,1847,442,0,0
630,582,0,0,0,0,0,0,0,0,0,-1,1854,442,0,0
637,582,0,0,0,0,0,0,0,0,0,-1,1861,442,0,0
644,582,0,0,0,0,0,0,0,0,0,-1,1868,442,0,0
651,582,0,0,0,0,0,0,0,0,0,-1,1875,442,0,0
658,582,0,0,0,0,0,0,0,0,0,-1,1882,442,0,0
665,582,0,0,0,0,0,0,0,0,0,-1,1889,442,0,0
672,582,0,0,0,0,0,0,0,0,0,-1,1896,442,0,0
679,582,0,0,0,0,0,0,0,0,0,-1,1903,442,0,0
686,582,0,0,0,0,0,0,0,0,0,-1,1910,442,0,0
693,582,0,0,0,0,0,0,0,0,0,-1,1917,442,0,0
700,582,0,0,0,0,0,0,0,0,0,-1,1924,442,0,0
707,582,0,0,0,0,0,0,0,0,0,-1,1931,442,0,0
714,582,0,0,0,0,0,0,0,0,0,-1,1938,442,0,0
721,582,0,0,0,0,0,0,0,0,0,-1,1945,442,0,0
728,582,0,0,0,0,0,0,0,0,0,-1,1952,442,0,0
735,582,0,0,0,0,0,0,0,0,0,-1,1959,442,0,0
742,582,0,0,0,0,0,0,0,0,0,-1,1966,442,0,0
749,582,0,0,0,0,0,0,0,0,0,-1,1973,442,0,0
756,582,0,0,0,0,0,0,0,0,0,-1,1980,442,0,0
763,582,0,0,0,0,0,0,0,0,0,-1,1987,442,0,0
770,582,0,0,0,0,0,0,0,0,0,-1,1994,442,0,0
777,582,0,0,0,0,0,0,0,0,0,-1,2001,442,0,0
784,582,0,0,0,0,0,0,0,0,0,-1,2008,442,0,0
791,582,0,0,0,0,0,0,0,0,0,-1,2015,442,0,0
798,582,0,0,0,0,0,0,0,0,0,-1,2022,442,0,0
805,582,0,0,0,0,0,0,0,0,0,-1,2029,442,0,0
812,582,0,0,0,0,0,0,0,0,0,-1,2036,442,0,0
-700,575,0,0,0,0,0,0,0,0,0,-1,524,449,0,0
-693,575,0,0,0,0,0,0,0,0,0,-1,531,449,0,0
-686,575,0,0,0,0,0,0,0,0,0,-1,538,449,0,0
-679,575,0,0,0,0,0,0,0,0,0,-1,545,449,0,0
-672,575,0,0,0,0,0,0,0,0,0,-1,552,449,0,0
-665,575,0,0,0,0,0,0,0,0,0,-1,559,449,0,0
-658,575,0,0,0,0,0,0,0,0,0,-1,566,449,0,0
-651,575,0,0,0,0,0,0,0,0,0,-1,573,449,0,0
-644,575,0,0,0,0,0,0,0,0,0,-1,580,449,0,0
-637,575,0,0,0,0,0,0,0,0,0,-1,587,449,0,0
-630,575,0,0,0,0,0,0,0,0,0,-1,594,449,0,0
-623,575,0,0,0,0,0,0,0,0,0,-1,601,449,0,0
-616,575,0,0,0,0,0,0,0,0,0,-1,608,449,0,0
-609,575,0,0,0,0,0,0,0,0,0,-1,615,449,0,0
-602,575,0,0,0,0,0,0,0,0,0,-1,622,449,0,0
-595,575,0,0,0,0,0,0,0,0,0,-1,629,449,0,0
-588,575,0,0,0,0,0,0,0,0,0,-1,636,449,0,0
-581,575,0,0,0,0,0,0,0,0,0,-1,643,449,0,0
-574,575,0,0,0,0,0,0,0,0,0,-1,650,449,0,0
-567,575,0,0,0,0,0,0,0,0,0,-1,657,449,0,0
-560,575,0,0,0,0,0,0,0,0,0,-1,664,449,0,0
-553,575,0,0,0,0,0,0,0,0,0,-1,671,449,0,0
-546,575,0,0,0,0,0,0,0,0,0,-1,678,449,0,0
-539,575,0,0,0,0,0,0,0,0,0,-1,685,449,0,0
-532,575,0,0,0,0,0,0,0,0,0,-1,692,449,0,0
-525,575,0,0,0,0,0,0,0,0,0,-1,699,449,0,0
-518,575,0,0,0,0,0,0,0,0,0,-1,706,449,0,0
-511,575,0,0,0,0,0,0,0,0,0,-1,713,449,0,0
-504,575,0,0,0,0,0,0,0,0,0,-1,720,449,0,0
-497,575,0,0,0,0,0,0,0,0,0,-1,727,449,0,0
-490,575,0,0,0,0,0,0,0,0,0,-1,734,449,0,0
-483,575,0,0,0,0,0,0,0,0,0,-1,741,449,0,0
-476,575,0,0,0,0,0,0,0,0,0,-1,748,449,0,0
-469,575,0,0,0,0,0,0,0,0,0,-1,755,449,0,0
-462,575,0,0,0,0,0,0,0,0,0,-1,762,449,0,0
-455,575,0,0,0,0,0,0,0,0,0,-1,769,449,0,0
-448,575,0,0,0,0,0,0,0,0,0,-1,776,449,0,0
-441,575,0,0,0,0,0,0,0,0,0,-1,783,449,0,0
-434,575,0,0,0,0,0,0,0,0,0,-1,790,449,0,0
-427,575,0,0,0,0,0,0,0,0,0,-1,797,449,0,0
-420,575,0,0,0,0,0,0,0,0,0,-1,804,449,0,0
-413,575,0,0,0,0,0,0,0,0,0,-1,811,449,0,0
-406,575,0,0,0,0,0,0,0,0,0,-1,818,449,0,0
-399,575,0,0,0,0,0,0,0,0,0,-1,825,449,0,0
-392,575,0,0,0,0,0,0,0,0,0,-1,832,449,0,0
-385,575,0,0,0,0,0,0,0,0,0,-1,839,449,0,0
-378,575,0,0,0,0,0,0,0,0,0,-1,846,449,0,0
-371,575,0.56897,-3.52304,0,0,0,0,0,0,0,-1,853,449,0.568955,3.52306
-364,575,1.49805,-4.67191,0,0,0,0,0,0,0,-1,860,449,1.49803,4.6719
-357,575,3.15521,-8.29892,0,0,0,0,0,0,0,-1,867,449,3.15521,8.29891
-350,575,-0.825928,-18.5347,0,0,0,0,0,0,0,-1,874,449,-0.825948,18.5347
-343,575,0.465393,-16.3569,0,0,0,0,0,0,0,-1,881,449,0.465397,16.3569
-336,575,3.1994,-17.5725,0,0,0,0,0,0,0,-1,888,449,3.19941,17.5725
-329,575,3.63751,-27.7032,0,0,0,0,0,0,0,-1,895,449,3.63749,27.7032
-322,575,2.74518,-28.1267,0,0,0,0,0,0,0,-1,902,449,2.7452,28.1267
-315,575,4.09875,-27.6962,0,0,0,0,0,0,0,-1,909,449,4.09874,27.6962
-308,575,3.16901,-30.5134,0,0,0,0,0,0,0,-1,916,449,3.16902,30.5134
-301,575,3.30573,-31.1513,-0.00251737,0.0125621,-0.006736,0.0151329,-0.00508808,-1.20622,0.0121452,0.0381285,923,449,3.30572,31.1513
-294,575,3.21234,-31.8045,-0.00191032,0.0111033,-0.00618192,0.0135717,-0.00437874,-1.1909,0.0108072,0.0282762,930,449,3.21237,31.8045
-287,575,3.14679,-32.5412,-0.00152716,0.0101936,-0.00572308,0.0125245,-0.0038581,-1.18402,0.00988983,0.0200528,937,449,3.14681,32.5412
-280,575,3.11755,-33.2267,-0.00111966,0.0100867,-0.00549949,0.0123346,-0.0033676,-1.18277,0.00954571,0.0147346,944,449,3.11752,33.2267
-273,575,3.09686,-33.9063,-0.000706095,0.00973609,-0.00523908,0.0119115,-0.00288147,-1.17724,0.0090556,0.0119536,951,449,3.09684,33.9063
-266,575,3.06696,-34.5696,-0.000546418,0.00876837,-0.00478027,0.010785,-0.00256303,-1.17159,0.0081793,0.0138064,958,449,3.06697,34.5696
-259,575,3.00494,-35.2567,-0.000389874,0.00754698,-0.00430569,0.00943409,-0.00227699,-1.15773,0.00716994,0.0138756,965,449,3.00494,35.2567
-252,575,2.93658,-35.9154,-0.000139416,0.00634154,-0.00363449,0.00797038,-0.00176826,-1.14947,0.00599063,0.0121598,972,449,2.93659,35.9154
-245,575,2.89764,-36.5421,0.000173065,0.0049285,-0.00297712,0.00636087,-0.00125931,-1.12236,0.00471672,0.0153465,979,449,2.89763,36.5422
-238,575,2.89557,-37.162,0.000514507,0.00323914,-0.00225326,0.0045099,-0.000756257,-1.05729,0.00328781,0.015669,986,449,2.89558,37.1619
-231,575,2.8822,-37.8041,0.000823822,0.00139957,-0.00149153,0.00263075,-0.000407356,-0.88073,0.0019042,0.0135106,993,449,2.88219,37.8041
-224,575,2.8465,-38.4205,0.00108307,-0.000469291,-0.000724799,0.00136887,-0.000755084,-0.375589,0.00124321,0.0129589,1000,449,2.84652,38.4205
-217,575,2.82794,-39.0251,0.00137815,-0.00250176,4.78086e-05,0.00137874,-0.00250235,0.0123196,0.00227184,0.0107108,1007,449,2.82796,39.0251
-210,575,2.83337,-39.6404,0.00165058,-0.00451397,0.000780282,0.00174782,-0.0046112,0.123971,0.00379342,0.00955173,1014,449,2.83335,39.6404
-203,575,2.8252,-40.2185,0.00193157,-0.00628904,0.00143656,0.00217538,-0.00653285,0.168116,0.0052333,0.0130478,1021,449,2.8252,40.2185
-196,575,2.78552,-40.799,0.00220966,-0.00762337,0.00202244,0.00260938,-0.00802309,0.195129,0.00639841,0.0173964,1028,449,2.78558,40.7991
-189,575,2.77112,-41.3773,0.00217681,-0.0087739,0.00268236,0.00279854,-0.00939564,0.227766,0.00737576,0.0185519,1035,449,2.77118,41.3773
-182,575,2.77124,-41.924,0.0019235,-0.0103384,0.00387011,0.00304281,-0.0114577,0.281537,0.00882928,0.0159142,1042,449,2.77125,41.924
-175,575,2.77795,-42.4607,0.00170815,-0.0119807,0.00542937,0.0036001,-0.0138726,0.335307,0.0106532,0.0125387,1049,449,2.77795,42.4607
-168,575,2.8031,-43.0064,0.00127982,-0.0133402,0.00683574,0.003978,-0.0160383,0.375942,0.0122357,0.0109046,1056,449,2.80307,43.0064
-161,575,2.80493,-43.5519,0.000713703,-0.0148803,0.00849493,0.0044474,-0.018614,0.414106,0.0141271,0.014822,1063,449,2.80496,43.5519
-154,575,2.81555,-44.0766,5.85379e-05,-0.0166576,0.0105092,0.00512805,-0.0217271,0.449461,0.0164625,0.0158634,1070,449,2.81556,44.0766
-147,575,2.83984,-44.5354,-0.000648043,-0.0186097,0.0128022,0.00600932,-0.025267,0.479531,0.0191645,0.0147338,1077,449,2.83989,44.5354
-140,575,2.83252,-44.9171,-0.00158174,-0.0209195,0.015462,0.00698561,-0.0294868,0.505979,0.0223533,0.0226064,1084,449,2.83255,44.917
-133,575,2.77161,-45.19,-0.00249341,-0.0231496,0.018206,0.00811002,-0.033753,0.527388,0.0256366,0.034918,1091,449,2.77166,45.19
-126,575,2.78101,-45.4561,-0.00295617,-0.0251238,0.0206771,0.00942049,-0.0375005,0.539366,0.0286613,0.0399539,1098,449,2.78105,45.4561
-119,575,2.84656,-45.8312,0,0,0,0,0,0,0,-1,1105,449,2.84655,45.8312
-112,575,2.70337,-43.3701,0,0,0,0,0,0,0,-1,1112,449,2.70333,43.3701
-105,575,2.18347,-36.5414,0,0,0,0,0,0,0,-1,1119,449,2.18351,36.5414
-98,575,1.521,-25.6961,0,0,0,0,0,0,0,-1,1126,449,1.52105,25.6961
-91,575,1.60803,-16.4247,0,0,0,0,0,0,0,-1,1133,449,1.60802,16.4247
-84,575,1.16553,-11.9056,0,0,0,0,0,0,0,-1,1140,449,1.16558,11.9056
-77,575,0.205078,-11.2584,0,0,0,0,0,0,0,-1,1147,449,0.205117,11.2584
-70,575,-4.2467,-1.78738,0,0,0,0,0,0,0,-1,1154,449,-4.24674,1.78739
-63,575,-4.52209,-3.48798,0,0,0,0,0,0,0,-1,1161,449,-4.5221,3.48796
-56,575,-5.5968,-5.4928,0,0,0,0,0,0,0,-1,1168,449,-5.59683,5.49281
-49,575,-5.96863,-7.17612,0,0,0,0,0,0,0,-1,1175,449,-5.96868,7.1761
-42,575,-0.830322,0.773499,0,0,0,0,0,0,0,-1,1182,449,-0.83038,-0.77351
-35,575,-0.62085,0.205139,0,0,0,0,0,0,0,-1,1189,449,-0.620855,-0.205126
-28,575,0.49292,-3.87988,0,0,0,0,0,0,0,-1,1196,449,0.492941,3.87989
-21,575,6.21387,-46.4871,0,0,0,0,0,0,0,-1,1203,449,6.21387,46.4871
-14,575,8.40503,-48.7384,0,0,0,0,0,0,0,-1,1210,449,8.405,48.7384
-7,575,8.3772,-49.4203,-0.0121021,0.0666728,-0.073688,0.110839,-0.0562688,-1.03084,0.0981798,0.0454664,1217,449,8.37722,49.4203
0,575,8.33948,-50.1106,-0.00999942,0.0639625,-0.0749747,0.110581,-0.0566175,-1.01451,0.0981934,0.0461312,1224,449,8.3395,50.1106
7,575,8.16907,-50.533,-0.0107457,0.0602456,-0.0744269,0.107208,-0.057708,-1.0079,0.0966333,0.0498713,1231,449,8.16911,50.533
14,575,8.07666,-51.3136,-0.013793,0.0553946,-0.0722582,0.100913,-0.0593115,-1.00865,0.0935393,0.0478209,1238,449,8.07661,51.3136
21,575,7.87598,-51.8286,-0.0186348,0.0498065,-0.0691698,0.0927579,-0.0615861,-1.01511,0.0897143,0.0458482,1245,449,7.87602,51.8286
28,575,8.11255,-52.4444,-0.025404,0.0414312,-0.0646353,0.0807766,-0.0647495,-1.02398,0.0841892,0.0442402,1252,449,8.11249,52.4444
35,575,8.10229,-53.3134,-0.0328409,0.0349982,-0.059321,0.0694126,-0.0672553,-1.04511,0.0789085,0.042358,1259,449,8.10235,53.3134
42,575,7.62781,-53.4139,0,0,0,0,0,0,0,-1,1266,449,7.62781,53.4139
49,575,7.28503,-53.6381,-0.0480769,0.0239779,-0.0458374,0.0462518,-0.0703508,-1.11847,0.0677981,0.0456254,1273,449,7.28507,53.6381
56,575,6.95178,-53.9106,-0.0551464,0.0210499,-0.0392351,0.0376405,-0.071737,-1.17075,0.0641638,0.0454016,1280,449,6.95177,53.9105
63,575,6.61633,-54.0982,0,0,0,0,0,0,0,-1,1287,449,6.61629,54.0982
70,575,6.94128,-54.2218,0,0,0,0,0,0,0,-1,1294,449,6.94132,54.2218
77,575,6.65588,-54.142,0,0,0,0,0,0,0,-1,1301,449,6.65585,54.142
84,575,0.780762,-55.4133,-0.0651969,0.0427584,-0.016581,0.0452477,-0.0676862,-1.42178,0.06563,0.0484826,1308,449,0.780764,55.4133
91,575,0.314209,-55.0754,-0.0641487,0.0521686,-0.0118465,0.0533629,-0.065343,-1.47032,0.0686511,0.046681,1315,449,0.314149,55.0754
98,575,0.101074,-54.7517,-0.0604357,0.0640717,-0.00844723,0.0646422,-0.0610062,-1.50336,0.0725532,0.0420498,1322,449,0.101047,54.7517
105,575,-0.374512,-54.9372,-0.0562298,0.0763716,-0.00397488,0.0764906,-0.0563489,-1.54086,0.0769882,0.0419317,1329,449,-0.374504,54.9372
112,575,-0.90686,-55.1735,-0.0515189,0.0893792,1.565e-05,0.0893792,-0.0515189,1.57069,0.0823207,0.0471041,1336,449,-0.906874,55.1735
119,575,-1.57495,-55.2223,-0.0462883,0.101335,0.00402063,0.101444,-0.0463978,1.54359,0.0873065,0.0481412,1343,449,-1.5749,55.2223
126,575,-2.16028,-55.0604,-0.0412835,0.110933,0.00863511,0.111421,-0.0417718,1.51431,0.0914423,0.0495374,1350,449,-2.16032,55.0604
133,575,-2.76221,-54.9736,-0.03646,0.119444,0.0131813,0.12055,-0.0375666,1.48704,0.0953875,0.0477513,1357,449,-2.76223,54.9736
140,575,-3.06018,-55.1564,-0.0325865,0.123575,0.0177024,0.125557,-0.0345681,1.45932,0.0972962,0.0467145,1364,449,-3.06014,55.1564
147,575,-3.27283,-55.0912,-0.0294025,0.126119,0.0214935,0.129035,-0.0323183,1.43596,0.0985783,0.0493184,1371,449,-3.27279,55.0912
154,575,-3.44128,-55.0713,-0.0269733,0.128551,0.0254124,0.132598,-0.0310203,1.41287,0.10035,0.0472035,1378,449,-3.4413,55.0713
161,575,-3.56165,-55.0763,0,0,0,0,0,0,0,-1,1385,449,-3.56168,55.0763
168,575,7.5509,-35.3165,0,0,0,0,0,0,0,-1,1392,449,7.5509,35.3165
175,575,4.32617,1.93634,0,0,0,0,0,0,0,-1,1399,449,4.32612,-1.93634
182,575,6.3147,-2.88345,0,0,0,0,0,0,0,-1,1406,449,6.31466,2.88346
189,575,6.10449,-1.30817,0,0,0,0,0,0,0,-1,1413,449,6.10455,1.30817
196,575,5.79895,0.818359,0,0,0,0,0,0,0,-1,1420,449,5.79895,-0.81837
203,575,3.29724,-1.46378,0,0,0,0,0,0,0,-1,1427,449,3.29722,1.46377
210,575,2.32739,-7.74503,0,0,0,0,0,0,0,-1,1434,449,2.32741,7.74502
217,575,3.33618,-11.5521,0,0,0,0,0,0,0,-1,1441,449,3.3362,11.5521
224,575,5.51709,-16.3903,0,0,0,0,0,0,0,-1,1448,449,5.51713,16.3903
231,575,5.48572,-20.4595,0,0,0,0,0,0,0,-1,1455,449,5.48571,20.4595
238,575,5.33484,-22.3575,0,0,0,0,0,0,0,-1,1462,449,5.33478,22.3575
245,575,5.59741,-23.513,0,0,0,0,0,0,0,-1,1469,449,5.5974,23.513
252,575,10.5602,-44.9309,0,0,0,0,0,0,0,-1,1476,449,10.5602,44.9309
259,575,10.4701,-45.4526,0,0,0,0,0,0,0,-1,1483,449,10.4701,45.4526
266,575,10.4736,-44.7637,0.00802016,-0.00932607,-0.0031292,0.00856739,-0.0098733,-0.173129,0.0106556,0.0364555,1490,449,10.4736,44.7637
273,575,10.5343,-44.3332,0.00763883,-0.0099549,-0.0029989,0.00813595,-0.010452,-0.164275,0.0107595,0.0230709,1497,449,10.5342,44.3332
280,575,10.5764,-43.7628,0.00777651,-0.0104225,-0.00261046,0.00814355,-0.0107896,-0.139688,0.0109666,0.0175035,1504,449,10.5764,43.7628
287,575,10.5355,-43.288,0.00768134,-0.0105408,-0.00251429,0.00802189,-0.0108814,-0.134629,0.0109554,0.0150965,1511,449,10.5356,43.288
294,575,10.5575,-42.7234,0.0073703,-0.0101233,-0.00229002,0.00766511,-0.0104181,-0.128032,0.0104806,0.0113087,1518,449,10.5574,42.7234
301,575,10.5673,-42.1272,0.00697892,-0.00941251,-0.00200927,0.00722163,-0.00965521,-0.120209,0.00977756,0.0101392,1525,449,10.5673,42.1272
308,575,10.5669,-41.5295,0.00646156,-0.00847713,-0.00175765,0.00666557,-0.00868115,-0.115556,0.00888587,0.0108069,1532,449,10.5669,41.5295
315,575,10.5594,-40.9542,0.00586201,-0.00734384,-0.00147826,0.00602546,-0.00750729,-0.110124,0.00782874,0.0112995,1539,449,10.5595,40.9542
322,575,10.5515,-40.3772,0.0051499,-0.00593779,-0.00110851,0.00525964,-0.00604753,-0.0986755,0.00653348,0.00970382,1546,449,10.5515,40.3772
329,575,10.5507,-39.7753,0.00439191,-0.00444372,-0.000676438,0.0044434,-0.00449521,-0.0759679,0.00516074,0.00966392,1553,449,10.5507,39.7753
336,575,10.5439,-39.1547,0.00364319,-0.00292097,-0.00023936,0.0036519,-0.00292969,-0.0364002,0.0038075,0.0118036,1560,449,10.5439,39.1547
343,575,10.5382,-38.4948,0.00285416,-0.00118922,0.000273144,0.00287253,-0.00120758,0.0671469,0.00242015,0.013093,1567,449,10.5382,38.4947
350,575,10.5118,-37.8619,0.00219263,0.000544315,0.000889988,0.00258145,0.000155495,0.411892,0.00167155,0.0126191,1574,449,10.5119,37.8619
357,575,10.4836,-37.2423,0.00160693,0.00216764,0.00152519,0.00343803,0.000336547,0.876292,0.00218848,0.0116987,1581,449,10.4836,37.2423
364,575,10.4468,-36.6075,0.0011289,0.00371889,0.00222516,0.00499846,-0.000150669,1.04893,0.00338364,0.0107353,1588,449,10.4468,36.6075
371,575,10.4309,-35.9601,0.000840379,0.0050268,0.00293248,0.0065365,-0.000669323,1.09536,0.00459705,0.0191914,1595,449,10.431,35.9601
378,575,10.3988,-35.2872,0.000590287,0.00623297,0.00352876,0.00792961,-0.00110635,1.12262,0.00569115,0.0187924,1602,449,10.3988,35.2872
385,575,10.3514,-34.6125,0.000460689,0.00749564,0.00389882,0.00922921,-0.00127288,1.15241,0.00661803,0.0119221,1609,449,10.3514,34.6126
392,575,10.3004,-33.9594,0.000606216,0.00814417,0.00410882,0.00995081,-0.00120043,1.15654,0.00706808,0.00953166,1616,449,10.3004,33.9593
399,575,10.2433,-33.3099,0.000713578,0.00866001,0.00430237,0.0105431,-0.00116956,1.15822,0.00744928,0.0100861,1623,449,10.2432,33.3099
406,575,10.2068,-32.5865,0.000680301,0.00913716,0.00428915,0.0109317,-0.00111426,1.17453,0.0076862,0.0119958,1630,449,10.2068,32.5865
413,575,10.1674,-31.8716,0.000513968,0.00923743,0.00396235,0.0107685,-0.00101709,1.20207,0.00754092,0.0150089,1637,449,10.1673,31.8716
420,575,10.1127,-31.155,0.000433534,0.00888259,0.00357921,0.010195,-0.000878848,1.21935,0.00710773,0.0151951,1644,449,10.1126,31.155
427,575,10.0619,-30.3714,0.000492208,0.00766624,0.003289,0.00894586,-0.000787415,1.19975,0.00624296,0.0179678,1651,449,10.0619,30.3714
434,575,9.96423,-29.7131,0.000450562,0.00661452,0.00284842,0.00772922,-0.000664133,1.19778,0.00538785,0.0292826,1658,449,9.96423,29.7131
441,575,10.1194,-29.1958,0.000258123,0.0048051,0.00219145,0.00568934,-0.00062611,1.18728,0.00401789,0.049392,1665,449,10.1194,29.1958
448,575,10.3911,-28.5779,0,0,0,0,0,0,0,-1,1672,449,10.3912,28.5779
455,575,11.4244,-26.6485,0,0,0,0,0,0,0,-1,1679,449,11.4244,26.6485
462,575,7.12781,-21.7179,0,0,0,0,0,0,0,-1,1686,449,7.12778,21.7178
469,575,8.80627,-23.9187,0,0,0,0,0,0,0,-1,1693,449,8.80622,23.9187
476,575,9.95032,-24.84,0,0,0,0,0,0,0,-1,1700,449,9.95026,24.84
483,575,7.52368,-25.9372,0,0,0,0,0,0,0,-1,1707,449,7.52367,25.9372
490,575,7.42871,-25.5027,0,0,0,0,0,0,0,-1,1714,449,7.42869,25.5027
497,575,0,0,0,0,0,0,0,0,0,-1,1721,449,0,0
504,575,0,0,0,0,0,0,0,0,0,-1,1728,449,0,0
511,575,0,0,0,0,0,0,0,0,0,-1,1735,449,0,0
518,575,0,0,0,0,0,0,0,0,0,-1,1742,449,0,0
525,575,0,0,0,0,0,0,0,0,0,-1,1749,449,0,0
532,575,0,0,0,0,0,0,0,0,0,-1,1756,449,0,0
539,575,0,0,0,0,0,0,0,0,0,-1,1763,449,0,0
546,575,0,0,0,0,0,0,0,0,0,-1,1770,449,0,0
553,575,0,0,0,0,0,0,0,0,0,-1,1777,449,0,0
560,575,0,0,0,0,0,0,0,0,0,-1,1784,449,0,0
567,575,0,0,0,0,0,0,0,0,0,-1,1791,449,0,0
574,575,0,0,0,0,0,0,0,0,0,-1,1798,449,0,0
581,575,0,0,0,0,0,0,0,0,0,-1,1805,449,0,0
588,575,0,0,0,0,0,0,0,0,0,-1,1812,449,0,0
595,575,0,0,0,0,0,0,0,0,0,-1,1819,449,0,0
602,575,0,0,0,0,0,0,0,0,0,-1,1826,449,0,0
609,575,0,0,0,0,0,0,0,0,0,-1,1833,449,0,0
616,575,0,0,0,0,0,0,0,0,0,-1,1840,449,0,0
623,575,0,0,0,0,0,0,0,0,0,-1,1847,449,0,0
630,575,0,0,0,0,0,0,0,0,0,-1,1854,449,0,0
637,575,0,0,0,0,0,0,0,0,0,-1,1861,449,0,0
644,575,0,0,0,0,0,0,0,0,0,-1,1868,449,0,0
651,575,0,0,0,0,0,0,0,0,0,-1,1875,449,0,0
658,575,0,0,0,0,0,0,0,0,0,-1,1882,449,0,0
665,575,0,0,0,0,0,0,0,0,0,-1,1889,449,0,0
672,575,0,0,0,0,0,0,0,0,0,-1,1896,449,0,0
679,575,0,0,0,0,0,0,0,0,0,-1,1903,449,0,0
686,575,0,0,0,0,0,0,0,0,0,-1,1910,449,0,0
693,575,0,0,0,0,0,0,0,0,0,-1,1917,449,0,0
700,575,0,0,0,0,0,0,0,0,0,-1,1924,449,0,0
707,575,0,0,0,0,0,0,0,0,0,-1,1931,449,0,0
714,575,0,0,0,0,0,0,0,0,0,-1,1938,449,0,0
721,575,0,0,0,0,0,0,0,0,0,-1,1945,449,0,0
728,575,0,0,0,0,0,0,0,0,0,-1,1952,449,0,0
735,575,0,0,0,0,0,0,0,0,0,-1,1959,449,0,0
742,575,0,0,0,0,0,0,0,0,0,-1,1966,449,0,0
749,575,0,0,0,0,0,0,0,0,0,-1,1973,449,0,0
756,575,0,0,0,0,0,0,0,0,0,-1,1980,449,0,0
763,575,0,0,0,0,0,0,0,0,0,-1,1987,449,0,0
770,575,0,0,0,0,0,0,0,0,0,-1,1994,449,0,0
777,575,0,0,0,0,0,0,0,0,0,-1,2001,449,0,0
784,575,0,0,0,0,0,0,0,0,0,-1,2008,449,0,0
791,575,0,0,0,0,0,0,0,0,0,-1,2015,449,0,0
798,575,0,0,0,0,0,0,0,0,0,-1,2022,449,0,0
805,575,0,0,0,0,0,0,0,0,0,-1,2029,449,0,0
812,575,0,0,0,0,0,0,0,0,0,-1,2036,449,0,0
-700,568,0,0,0,0,0,0,0,0,0,-1,524,456,0,0
-693,568,0,0,0,0,0,0,0,0,0,-1,531,456,0,0
-686,568,0,0,0,0,0,0,0,0,0,-1,538,456,0,0
-679,568,0,0,0,0,0,0,0,0,0,-1,545,456,0,0
-672,568,0,0,0,0,0,0,0,0,0,-1,552,456,0,0
-665,568,0,0,0,0,0,0,0,0,0,-1,559,456,0,0
-658,568,0,0,0,0,0,0,0,0,0,-1,566,456,0,0
-651,568,0,0,0,0,0,0,0,0,0,-1,573,456,0,0
-644,568,0,0,0,0,0,0,0,0,0,-1,580,456,0,0
-637,568,0,0,0,0,0,0,0,0,0,-1,587,456,0,0
-630,568,0,0,0,0,0,0,0,0,0,-1,594,456,0,0
-623,568,0,0,0,0,0,0,0,0,0,-1,601,456,0,0
-616,568,0,0,0,0,0,0,0,0,0,-1,608,456,0,0
-609,568,0,0,0,0,0,0,0,0,0,-1,615,456,0,0
-602,568,0,0,0,0,0,0,0,0,0,-1,622,456,0,0
-595,568,0,0,0,0,0,0,0,0,0,-1,629,456,0,0
-588,568,0,0,0,0,0,0,0,0,0,-1,636,456,0,0
-581,568,0,0,0,0,0,0,0,0,0,-1,643,456,0,0
-574,568,0,0,0,0,0,0,0,0,0,-1,650,456,0,0
-567,568,0,0,0,0,0,0,0,0,0,-1,657,456,0,0
-560,568,0,0,0,0,0,0,0,0,0,-1,664,456,0,0
-553,568,0,0,0,0,0,0,0,0,0,-1,671,456,0,0
-546,568,0,0,0,0,0,0,0,0,0,-1,678,456,0,0
-539,568,0,0,0,0,0,0,0,0,0,-1,685,456,0,0
-532,568,0,0,0,0,0,0,0,0,0,-1,692,456,0,0
-525,568,0,0,0,0,0,0,0,0,0,-1,699,456,0,0
-518,568,0,0,0,0,0,0,0,0,0,-1,706,456,0,0
-511,568,0,0,0,0,0,0,0,0,0,-1,713,456,0,0
-504,568,0,0,0,0,0,0,0,0,0,-1,720,456,0,0
-497,568,0,0,0,0,0,0,0,0,0,-1,727,456,0,0
-490,568,0,0,0,0,0,0,0,0,0,-1,734,456,0,0
-483,568,0,0,0,0,0,0,0,0,0,-1,741,456,0,0
-476,568,0,0,0,0,0,0,0,0,0,-1,748,456,0,0
-469,568,0,0,0,0,0,0,0,0,0,-1,755,456,0,0
-462,568,0,0,0,0,0,0,0,0,0,-1,762,456,0,0
-455,568,0,0,0,0,0,0,0,0,0,-1,769,456,0,0
-448,568,0,0,0,0,0,0,0,0,0,-1,776,456,0,0
-441,568,0,0,0,0,0,0,0,0,0,-1,783,456,0,0
-434,568,0,0,0,0,0,0,0,0,0,-1,790,456,0,0
-427,568,0,0,0,0,0,0,0,0,0,-1,797,456,0,0
-420,568,0,0,0,0,0,0,0,0,0,-1,804,456,0,0
-413,568,0,0,0,0,0,0,0,0,0,-1,811,456,0,0
-406,568,0,0,0,0,0,0,0,0,0,-1,818,456,0,0
-399,568,0,0,0,0,0,0,0,0,0,-1,825,456,0,0
-392,568,0,0,0,0,0,0,0,0,0,-1,832,456,0,0
-385,568,0,0,0,0,0,0,0,0,0,-1,839,456,0,0
-378,568,0.321777,-7.29929,0,0,0,0,0,0,0,-1,846,456,0.321806,7.29927
-371,568,1.09595,-7.46707,0,0,0,0,0,0,0,-1,853,456,1.09597,7.46707
-364,568,2.85236,-24.0422,0,0,0,0,0,0,0,-1,860,456,2.85238,24.0422
-357,568,2.14166,-7.67645,0,0,0,0,0,0,0,-1,867,456,2.14167,7.67646
-350,568,2.7467,-11.2507,0,0,0,0,0,0,0,-1,874,456,2.7467,11.2507
-343,568,2.16516,-11.3762,0,0,0,0,0,0,0,-1,881,456,2.16514,11.3762
-336,568,2.10144,-27.6092,0,0,0,0,0,0,0,-1,888,456,2.10147,27.6091
-329,568,2.80701,-28.3477,0,0,0,0,0,0,0,-1,895,456,2.80702,28.3477
-322,568,2.38452,-28.4427,0,0,0,0,0,0,0,-1,902,456,2.38455,28.4427
-315,568,2.66193,-29.25,0,0,0,0,0,0,0,-1,909,456,2.66191,29.25
-308,568,2.6723,-30.3469,-0.00267475,0.0121568,-0.00541573,0.0139238,-0.00444179,-1.25541,0.0110644,0.0396198,916,456,2.67228,30.3469
-301,568,2.65417,-31.1921,-0.00217211,0.0101429,-0.00538617,0.0121662,-0.00419542,-1.21146,0.00981295,0.0231366,923,456,2.65416,31.1921
-294,568,2.57703,-31.8427,-0.00158203,0.0087008,-0.00482916,0.0106131,-0.00349433,-1.19375,0.00848355,0.0142418,930,456,2.57701,31.8427
-287,568,2.53528,-32.5573,-0.00115284,0.0077718,-0.0043647,0.00955151,-0.00293255,-1.18363,0.0075378,0.0109976,937,456,2.53527,32.5573
-280,568,2.50543,-33.2581,-0.000747762,0.00732792,-0.00406821,0.00902196,-0.0024418,-1.17622,0.00697258,0.0106711,944,456,2.50544,33.2581
-273,568,2.46344,-33.9205,-0.000334324,0.00667984,-0.00375214,0.00830872,-0.00196321,-1.16122,0.00629641,0.0124135,951,456,2.46346,33.9205
-266,568,2.41766,-34.5801,-0.000140345,0.00551909,-0.0032576,0.00700438,-0.00162563,-1.14301,0.0052953,0.0124138,958,456,2.41768,34.5802
-259,568,2.36682,-35.24,4.11548e-05,0.00407051,-0.00273288,0.00545106,-0.00133939,-1.10303,0.00415313,0.0137407,965,456,2.36683,35.24
-252,568,2.30878,-35.8724,0.000298017,0.00260618,-0.00201191,0.00377152,-0.000867316,-1.0458,0.00284782,0.0131725,972,456,2.30876,35.8724
-245,568,2.27728,-36.4857,0.000631178,0.000954239,-0.00130768,0.00211033,-0.000524911,-0.846849,0.00161062,0.0147946,979,456,2.27728,36.4856
-238,568,2.27783,-37.1244,0.00100497,-0.000982058,-0.000547419,0.0011458,-0.00112289,-0.251802,0.00130985,0.0141664,986,456,2.27784,37.1244
-231,568,2.25977,-37.7656,0.00131782,-0.00309185,0.000262421,0.00133338,-0.00310741,0.0592317,0.0026312,0.0127972,993,456,2.25975,37.7656
-224,568,2.22174,-38.3673,0.00156917,-0.00519468,0.00109454,0.00174188,-0.00536738,0.156502,0.00427875,0.0142469,1000,456,2.22176,38.3673
-217,568,2.23132,-38.9757,0.00187682,-0.00739526,0.00192546,0.00226077,-0.00777921,0.196823,0.00608145,0.0122723,1007,456,2.23131,38.9757
-210,568,2.22998,-39.6043,0.00216612,-0.00951555,0.00266998,0.00274744,-0.0100969,0.214381,0.00780985,0.012622,1014,456,2.23,39.6043
-203,568,2.21527,-40.2042,0.00247102,-0.0112689,0.00329051,0.00321839,-0.0120163,0.223341,0.00927176,0.0118247,1021,456,2.21526,40.2042
-196,568,2.24438,-40.7599,0.0027951,-0.0125506,0.00384451,0.00370437,-0.0134599,0.232245,0.0104297,0.0162765,1028,456,2.24442,40.7599
-189,568,2.22424,-41.3003,0.00271504,-0.0136185,0.00454701,0.00389553,-0.014799,0.254012,0.0113888,0.0163995,1035,456,2.2242,41.3003
-182,568,2.2301,-41.8899,0.00233493,-0.0152152,0.00591594,0.00414287,-0.0170232,0.296591,0.0129525,0.0165166,1042,456,2.23012,41.8899
-175,568,2.23035,-42.4196,0.00202081,-0.0167884,0.00775555,0.00480617,-0.0195738,0.344797,0.0149117,0.0165133,1049,456,2.23037,42.4196
-168,568,2.23755,-42.8457,0.00140346,-0.0180964,0.00945851,0.00523751,-0.0219304,0.385114,0.0166431,0.0216513,1056,456,2.2376,42.8457
-161,568,2.23108,-43.3519,0.000579448,-0.0198846,0.0115255,0.00575948,-0.0250646,0.422389,0.018924,0.030447,1063,456,2.2311,43.3519
-154,568,2.2915,-44.0567,-0.000439961,-0.0220423,0.0141262,0.00654131,-0.0290236,0.459003,0.0218582,0.035919,1070,456,2.29156,44.0567
-147,568,2.30859,-44.5848,-0.00163391,-0.0245593,0.0172556,0.00761932,-0.0338125,0.492221,0.0254643,0.0382917,1077,456,2.3086,44.5848
-140,568,2.3053,-44.8669,-0.00325869,-0.027627,0.0210579,0.00888592,-0.0397716,0.523129,0.0299195,0.039508,1084,456,2.30526,44.8669
-133,568,1.70667,-44.5922,-0.00493901,-0.0307691,0.0251896,0.0104535,-0.0461616,0.548515,0.0347864,0.0420238,1091,456,1.70671,44.5922
-126,568,1.63477,-44.824,-0.00615704,-0.0338831,0.0291823,0.0122876,-0.0523278,0.563654,0.0396214,0.0471329,1098,456,1.63482,44.824
-119,568,1.6449,-45.1401,0,0,0,0,0,0,0,-1,1105,456,1.64493,45.1401
-112,568,1.98242,-35.0942,0,0,0,0,0,0,0,-1,1112,456,1.98247,35.0942
-105,568,2.02454,-25.038,0,0,0,0,0,0,0,-1,1119,456,2.02459,25.038
-98,568,1.58618,-14.7874,0,0,0,0,0,0,0,-1,1126,456,1.58617,14.7874
-91,568,1.11621,-11.1853,0,0,0,0,0,0,0,-1,1133,456,1.11626,11.1853
-84,568,0.461792,-9.7959,0,0,0,0,0,0,0,-1,1140,456,0.461793,9.7959
-77,568,-1.13806,-8.57822,0,0,0,0,0,0,0,-1,1147,456,-1.13807,8.57821
-70,568,-4.09766,-1.42911,0,0,0,0,0,0,0,-1,1154,456,-4.09767,1.4291
-63,568,-5.92273,-3.70752,0,0,0,0,0,0,0,-1,1161,456,-5.92272,3.70751
-56,568,-5.24158,-6.01385,0,0,0,0,0,0,0,-1,1168,456,-5.24161,6.01386
-49,568,-5.24365,-8.33557,0,0,0,0,0,0,0,-1,1175,456,-5.24371,8.33557
-42,568,-0.664795,0.521973,0,0,0,0,0,0,0,-1,1182,456,-0.664829,-0.521984
-35,568,-0.153076,-1.67731,0,0,0,0,0,0,0,-1,1189,456,-0.153068,1.67731
-28,568,1.25439,-4.48798,0,0,0,0,0,0,0,-1,1196,456,1.2544,4.48797
-21,568,9.94568,-49.131,0,0,0,0,0,0,0,-1,1203,456,9.94571,49.131
-14,568,9.80884,-49.5646,-0.0240197,0.0934871,-0.0881109,0.140637,-0.0711695,-1.07945,0.12446,0.0440823,1210,456,9.8088,49.5646
-7,568,9.4043,-50.0213,-0.0196952,0.0877094,-0.0886299,0.137637,-0.069623,-1.05778,0.12179,0.0458809,1217,456,9.40433,50.0213
0,568,9.06396,-50.5242,-0.0161214,0.0831316,-0.0901565,0.136418,-0.0694074,-1.03699,0.120914,0.0494154,1224,456,9.0639,50.5242
7,568,8.96606,-51.3637,-0.0166083,0.0774028,-0.0892768,0.131293,-0.0704981,-1.02771,0.118253,0.0468394,1231,456,8.96601,51.3637
14,568,8.92334,-52.443,-0.0203849,0.070089,-0.08604,0.122059,-0.0723552,-1.02742,0.113461,0.0460088,1238,456,8.92329,52.443
21,568,8.37073,-52.7006,0,0,0,0,0,0,0,-1,1245,456,8.37079,52.7006
28,568,8.78552,-52.7959,-0.0349139,0.0498218,-0.0754106,0.0939513,-0.0790434,-1.04134,0.100002,0.0437925,1252,456,8.78557,52.7959
35,568,8.63599,-53.6224,-0.0439135,0.040349,-0.0683555,0.0785142,-0.0820787,-1.06158,0.0927259,0.042497,1259,456,8.63604,53.6224
42,568,7.89319,-53.6008,0,0,0,0,0,0,0,-1,1266,456,7.89317,53.6008
49,568,7.53357,-53.8942,-0.0619076,0.0241164,-0.0519653,0.0485613,-0.0863525,-1.1311,0.0789045,0.048049,1273,456,7.53357,53.8942
56,568,6.92871,-54.5103,-0.0703061,0.0189868,-0.0440172,0.0370366,-0.0883558,-1.18165,0.074389,0.044504,1280,456,6.92875,54.5103
63,568,5.95789,-54.8759,-0.0766769,0.0180735,-0.0362774,0.0303679,-0.0889713,-1.24404,0.0716161,0.04225,1287,456,5.95793,54.8759
70,568,7.40662,-54.768,0,0,0,0,0,0,0,-1,1294,456,7.40667,54.768
77,568,3.16016,-56.976,-0.0808827,0.0328798,-0.0239129,0.0377019,-0.0857048,-1.37181,0.0730235,0.0427813,1301,456,3.1602,56.976
84,568,1.9834,-57.7377,-0.0799539,0.0431899,-0.0180946,0.0457936,-0.0825576,-1.42788,0.0751101,0.0437437,1308,456,1.98345,57.7377
91,568,0.457275,-55.6622,-0.0779037,0.0551752,-0.0129679,0.0564271,-0.0791556,-1.47456,0.0786445,0.0441747,1315,456,0.457241,55.6622
98,568,-0.137207,-55.3746,-0.0725927,0.0709495,-0.00930524,0.0715502,-0.0731934,-1.50633,0.0835695,0.0429871,1322,456,-0.137248,55.3746
105,568,-0.711426,-55.0773,0,0,0,0,0,0,0,-1,1329,456,-0.711431,55.0773
112,568,-1.14612,-55.9859,-0.0607525,0.103637,0.00067196,0.103639,-0.0607552,1.56671,0.0959836,0.0489154,1336,456,-1.1461,55.9859
119,568,-1.77979,-56.0654,-0.0541384,0.119283,0.00537846,0.119449,-0.0543051,1.53982,0.10264,0.0445181,1343,456,-1.77984,56.0654
126,568,-2.28003,-56.2909,-0.0479026,0.132238,0.0110192,0.13291,-0.0485742,1.50993,0.108485,0.0469426,1350,456,-2.28002,56.2909
133,568,-2.86975,-56.2184,0,0,0,0,0,0,0,-1,1357,456,-2.86974,56.2184
140,568,-3.37061,-55.9552,-0.037444,0.149548,0.0225356,0.152225,-0.0401216,1.45254,0.11717,0.0494917,1364,456,-3.37061,55.9552
147,568,-3.61731,-55.8337,-0.0337051,0.153424,0.0280918,0.15755,-0.0378313,1.42496,0.119654,0.0495657,1371,456,-3.6173,55.8337
154,568,-3.90466,-55.7553,-0.0309042,0.157365,0.0338734,0.163274,-0.0368132,1.39809,0.122971,0.0476469,1378,456,-3.90472,55.7553
161,568,-4.13171,-55.7045,0,0,0,0,0,0,0,-1,1385,456,-4.13169,55.7045
168,568,-1.74231,-39.2641,0,0,0,0,0,0,0,-1,1392,456,-1.74226,39.2641
175,568,10.5151,0.747498,0,0,0,0,0,0,0,-1,1399,456,10.5152,-0.747501
182,568,6.35095,-3.63361,0,0,0,0,0,0,0,-1,1406,456,6.35093,3.63359
189,568,6.17493,-1.70911,0,0,0,0,0,0,0,-1,1413,456,6.17497,1.70911
196,568,6.04724,0.200836,0,0,0,0,0,0,0,-1,1420,456,6.04724,-0.200835
203,568,5.9281,2.08649,0,0,0,0,0,0,0,-1,1427,456,5.92812,-2.08648
210,568,1.46216,-2.50446,0,0,0,0,0,0,0,-1,1434,456,1.46219,2.50446
217,568,2.62366,-7.86703,0,0,0,0,0,0,0,-1,1441,456,2.62365,7.86704
224,568,3.43494,-12.1555,0,0,0,0,0,0,0,-1,1448,456,3.43492,12.1555
231,568,4.38245,-9.3205,0,0,0,0,0,0,0,-1,1455,456,4.38244,9.32048
238,568,5.88879,-20.7448,0,0,0,0,0,0,0,-1,1462,456,5.88876,20.7449
245,568,3.34387,-10.6774,0,0,0,0,0,0,0,-1,1469,456,3.34389,10.6774
252,568,3.56946,-9.28928,0,0,0,0,0,0,0,-1,1476,456,3.56948,9.28928
259,568,3.38843,-8.73068,0,0,0,0,0,0,0,-1,1483,456,3.38842,8.73068
266,568,11.0382,-44.6738,0,0,0,0,0,0,0,-1,1490,456,11.0382,44.6738
273,568,11.0804,-44.3332,0,0,0,0,0,0,0,-1,1497,456,11.0804,44.3332
280,568,11.1544,-43.8003,0.0104131,-0.0147452,-0.00330185,0.0108392,-0.0151713,-0.128348,0.0150864,0.0430804,1504,456,11.1544,43.8003
287,568,11.1516,-43.0681,0.0104077,-0.0150716,-0.00338291,0.0108492,-0.0155131,-0.129776,0.0152995,0.0322331,1511,456,11.1516,43.0681
294,568,11.1428,-42.5732,0.0100705,-0.0146572,-0.00327674,0.0104973,-0.0150841,-0.129535,0.0148483,0.0277453,1518,456,11.1428,42.5732
301,568,11.1277,-42.0458,0.0096098,-0.0138554,-0.00308441,0.0100085,-0.014254,-0.128538,0.0140793,0.0199371,1525,456,11.1277,42.0458
308,568,11.1448,-41.4796,0.00892005,-0.0127847,-0.0029483,0.00931341,-0.013178,-0.132636,0.0130492,0.0142321,1532,456,11.1448,41.4795
315,568,11.1571,-40.9407,0.00812833,-0.0114531,-0.00275367,0.0085082,-0.011833,-0.137085,0.0117962,0.00901277,1539,456,11.1571,40.9407
322,568,11.1528,-40.3599,0.00721273,-0.00980513,-0.00242562,0.00755171,-0.0101441,-0.138851,0.0102532,0.0101583,1546,456,11.1528,40.3599
329,568,11.1583,-39.7448,0.00622865,-0.0079993,-0.00200335,0.00650535,-0.008276,-0.13725,0.0085544,0.0101576,1553,456,11.1583,39.7449
336,568,11.1599,-39.1069,0.00522668,-0.00623033,-0.00161951,0.0054512,-0.00645486,-0.13776,0.0068821,0.0114789,1560,456,11.1599,39.1069
343,568,11.17,-38.4669,0.00417647,-0.00422434,-0.00112695,0.00432502,-0.00437289,-0.131061,0.00502177,0.0122789,1567,456,11.1701,38.4669
350,568,11.141,-37.8599,0.00323332,-0.00236811,-0.000561703,0.00328909,-0.00242388,-0.0989654,0.00331097,0.010978,1574,456,11.141,37.8599
357,568,11.1094,-37.2239,0.00238633,-0.000568903,3.82551e-05,0.00238682,-0.000569398,0.012942,0.0018111,0.0101586,1581,456,11.1094,37.2239
364,568,11.1005,-36.5912,0.0016691,0.00118262,0.000744785,0.00220936,0.00064236,0.627564,0.00131228,0.0119376,1588,456,11.1005,36.5912
371,568,11.0825,-35.9356,0.00121405,0.00251013,0.00145687,0.00345659,0.000267591,0.994665,0.00222058,0.0207835,1595,456,11.0825,35.9356
378,568,11.0594,-35.2401,0.000855654,0.00369732,0.00205039,0.00477105,-0.000218081,1.08839,0.00325583,0.0199061,1602,456,11.0595,35.2401
385,568,11.0065,-34.5829,0.000566907,0.00489495,0.00244978,0.00599963,-0.000537775,1.14717,0.00419053,0.0103747,1609,456,11.0065,34.5829
392,568,10.9404,-33.9411,0.000623374,0.00554909,0.0027828,0.00680237,-0.000629903,1.14764,0.00475879,0.0112738,1616,456,10.9404,33.9411
399,568,10.8793,-33.3091,0.00072161,0.00602172,0.00305701,0.00741741,-0.000674085,1.1425,0.00518427,0.0171934,1623,456,10.8793,33.3091
406,568,10.8959,-32.5769,0.000693963,0.00646968,0.00315036,0.00785552,-0.000691877,1.15637,0.00548221,0.0153246,1630,456,10.8959,32.5769
413,568,10.8665,-31.8489,0.000548385,0.00665114,0.00302414,0.00789585,-0.000696322,1.18034,0.00551069,0.0126957,1637,456,10.8665,31.8489
420,568,10.8027,-31.1516,0.000459753,0.00644126,0.00286482,0.00759197,-0.000690965,1.18885,0.00530665,0.0113994,1644,456,10.8028,31.1516
427,568,10.7462,-30.4227,0.000476397,0.00557075,0.00280934,0.00681574,-0.000768585,1.15365,0.00482049,0.0138541,1651,456,10.7462,30.4227
434,568,10.7426,-29.6741,0.000430891,0.00483192,0.00266328,0.00608616,-0.000823349,1.13067,0.00435789,0.020998,1658,456,10.7425,29.6741
441,568,10.7524,-29.0283,0.000277028,0.00359102,0.00242417,0.00487039,-0.00100234,1.08519,0.0036275,0.0291629,1665,456,10.7525,29.0283
448,568,10.8152,-28.4057,0.000150914,0.00202483,0.00245623,0.00371675,-0.001541,0.96761,0.003121,0.0450806,1672,456,10.8151,28.4057
455,568,10.6169,-27.3738,0,0,0,0,0,0,0,-1,1679,456,10.6169,27.3738
462,568,10.3907,-26.5844,0,0,0,0,0,0,0,-1,1686,456,10.3907,26.5844
469,568,10.2026,-26.1427,0,0,0,0,0,0,0,-1,1693,456,10.2027,26.1427
476,568,10.3446,-25.619,0,0,0,0,0,0,0,-1,1700,456,10.3446,25.619
483,568,10.0046,-24.3619,0,0,0,0,0,0,0,-1,1707,456,10.0046,24.3619
490,568,10.2104,-23.4537,0,0,0,0,0,0,0,-1,1714,456,10.2105,23.4537
497,568,8.87415,-22.5536,0,0,0,0,0,0,0,-1,1721,456,8.87413,22.5537
504,568,0,0,0,0,0,0,0,0,0,-1,1728,456,0,0
511,568,0,0,0,0,0,0,0,0,0,-1,1735,456,0,0
518,568,0,0,0,0,0,0,0,0,0,-1,1742,456,0,0
525,568,0,0,0,0,0,0,0,0,0,-1,1749,456,0,0
532,568,0,0,0,0,0,0,0,0,0,-1,1756,456,0,0
539,568,0,0,0,0,0,0,0,0,0,-1,1763,456,0,0
546,568,0,0,0,0,0,0,0,0,0,-1,1770,456,0,0
553,568,0,0,0,0,0,0,0,0,0,-1,1777,456,0,0
560,568,0,0,0,0,0,0,0,0,0,-1,1784,456,0,0
567,568,0,0,0,0,0,0,0,0,0,-1,1791,456,0,0
574,568,0,0,0,0,0,0,0,0,0,-1,1798,456,0,0
581,568,0,0,0,0,0,0,0,0,0,-1,1805,456,0,0
588,568,0,0,0,0,0,0,0,0,0,-1,1812,456,0,0
595,568,0,0,0,0,0,0,0,0,0,-1,1819,456,0,0
602,568,0,0,0,0,0,0,0,0,0,-1,1826,456,0,0
609,568,0,0,0,0,0,0,0,0,0,-1,1833,456,0,0
616,568,0,0,0,0,0,0,0,0,0,-1,1840,456,0,0
623,568,0,0,0,0,0,0,0,0,0,-1,1847,456,0,0
630,568,0,0,0,0,0,0,0,0,0,-1,1854,456,0,0
637,568,0,0,0,0,0,0,0,0,0,-1,1861,456,0,0
644,568,0,0,0,0,0,0,0,0,0,-1,1868,456,0,0
651,568,0,0,0,0,0,0,0,0,0,-1,1875,456,0,0
658,568,0,0,0,0,0,0,0,0,0,-1,1882,456,0,0
665,568,0,0,0,0,0,0,0,0,0,-1,1889,456,0,0
672,568,0,0,0,0,0,0,0,0,0,-1,1896,456,0,0
679,568,0,0,0,0,0,0,0,0,0,-1,1903,456,0,0
686,568,0,0,0,0,0,0,0,0,0,-1,1910,456,0,0
693,568,0,0,0,0,0,0,0,0,0,-1,1917,456,0,0
700,568,0,0,0,0,0,0,0,0,0,-1,1924,456,0,0
707,568,0,0,0,0,0,0,0,0,0,-1,1931,456,0,0
714,568,0,0,0,0,0,0,0,0,0,-1,1938,456,0,0
721,568,0,0,0,0,0,0,0,0,0,-1,1945,456,0,0
728,568,0,0,0,0,0,0,0,0,0,-1,1952,456,0,0
735,568,0,0,0,0,0,0,0,0,0,-1,1959,456,0,0
742,568,0,0,0,0,0,0,0,0,0,-1,1966,456,0,0
749,568,0,0,0,0,0,0,0,0,0,-1,1973,456,0,0
756,568,0,0,0,0,0,0,0,0,0,-1,1980,456,0,0
763,568,0,0,0,0,0,0,0,0,0,-1,1987,456,0,0
770,568,0,0,0,0,0,0,0,0,0,-1,1994,456,0,0
777,568,0,0,0,0,0,0,0,0,0,-1,2001,456,0,0
784,568,0,0,0,0,0,0,0,0,0,-1,2008,456,0,0
791,568,0,0,0,0,0,0,0,0,0,-1,2015,456,0,0
798,568,0,0,0,0,0,0,0,0,0,-1,2022,456,0,0
805,568,0,0,0,0,0,0,0,0,0,-1,2029,456,0,0
812,568,0,0,0,0,0,0,0,0,0,-1,2036,456,0,0
-700,561,0,0,0,0,0,0,0,0,0,-1,524,463,0,0
-693,561,0,0,0,0,0,0,0,0,0,-1,531,463,0,0
-686,561,0,0,0,0,0,0,0,0,0,-1,538,463,0,0
-679,561,0,0,0,0,0,0,0,0,0,-1,545,463,0,0
-672,561,0,0,0,0,0,0,0,0,0,-1,552,463,0,0
-665,561,0,0,0,0,0,0,0,0,0,-1,559,463,0,0
-658,561,0,0,0,0,0,0,0,0,0,-1,566,463,0,0
-651,561,0,0,0,0,0,0,0,0,0,-1,573,463,0,0
-644,561,0,0,0,0,0,0,0,0,0,-1,580,463,0,0
-637,561,0,0,0,0,0,0,0,0,0,-1,587,463,0,0
-630,561,0,0,0,0,0,0,0,0,0,-1,594,463,0,0
-623,561,0,0,0,0,0,0,0,0,0,-1,601,463,0,0
-616,561,0,0,0,0,0,0,0,0,0,-1,608,463,0,0
-609,561,0,0,0,0,0,0,0,0,0,-1,615,463,0,0
-602,561,0,0,0,0,0,0,0,0,0,-1,622,463,0,0
-595,561,0,0,0,0,0,0,0,0,0,-1,629,463,0,0
-588,561,0,0,0,0,0,0,0,0,0,-1,636,463,0,0
-581,561,0,0,0,0,0,0,0,0,0,-1,643,463,0,0
-574,561,0,0,0,0,0,0,0,0,0,-1,650,463,0,0
-567,561,0,0,0,0,0,0,0,0,0,-1,657,463,0,0
-560,561,0,0,0,0,0,0,0,0,0,-1,664,463,0,0
-553,561,0,0,0,0,0,0,0,0,0,-1,671,463,0,0
-546,561,0,0,0,0,0,0,0,0,0,-1,678,463,0,0
-539,561,0,0,0,0,0,0,0,0,0,-1,685,463,0,0
-532,561,0,0,0,0,0,0,0,0,0,-1,692,463,0,0
-525,561,0,0,0,0,0,0,0,0,0,-1,699,463,0,0
-518,561,0,0,0,0,0,0,0,0,0,-1,706,463,0,0
-511,561,0,0,0,0,0,0,0,0,0,-1,713,463,0,0
-504,561,0,0,0,0,0,0,0,0,0,-1,720,463,0,0
-497,561,0,0,0,0,0,0,0,0,0,-1,727,463,0,0
-490,561,0,0,0,0,0,0,0,0,0,-1,734,463,0,0
-483,561,0,0,0,0,0,0,0,0,0,-1,741,463,0,0
-476,561,0,0,0,0,0,0,0,0,0,-1,748,463,0,0
-469,561,0,0,0,0,0,0,0,0,0,-1,755,463,0,0
-462,561,0,0,0,0,0,0,0,0,0,-1,762,463,0,0
-455,561,0,0,0,0,0,0,0,0,0,-1,769,463,0,0
-448,561,0,0,0,0,0,0,0,0,0,-1,776,463,0,0
-441,561,0,0,0,0,0,0,0,0,0,-1,783,463,0,0
-434,561,0,0,0,0,0,0,0,0,0,-1,790,463,0,0
-427,561,0,0,0,0,0,0,0,0,0,-1,797,463,0,0
-420,561,0,0,0,0,0,0,0,0,0,-1,804,463,0,0
-413,561,0,0,0,0,0,0,0,0,0,-1,811,463,0,0
-406,561,0,0,0,0,0,0,0,0,0,-1,818,463,0,0
-399,561,0,0,0,0,0,0,0,0,0,-1,825,463,0,0
-392,561,4.92407,-2.54578,0,0,0,0,0,0,0,-1,832,463,4.92408,2.54576
-385,561,5.55634,-1.02338,0,0,0,0,0,0,0,-1,839,463,5.55634,1.02338
-378,561,0.160522,-4.51785,0,0,0,0,0,0,0,-1,846,463,0.160542,4.51785
-371,561,2.04449,-23.4847,0,0,0,0,0,0,0,-1,853,463,2.04449,23.4847
-364,561,2.30212,-24.0637,0,0,0,0,0,0,0,-1,860,463,2.30213,24.0637
-357,561,2.55975,-24.6427,0,0,0,0,0,0,0,-1,867,463,2.55977,24.6427
-350,561,1.33124,-11.9406,0,0,0,0,0,0,0,-1,874,463,1.33127,11.9406
-343,561,1.13214,-14.1837,0,0,0,0,0,0,0,-1,881,463,1.13217,14.1837
-336,561,2.28278,-27.5922,0,0,0,0,0,0,0,-1,888,463,2.28277,27.5922
-329,561,2.12878,-28.3652,-0.00232525,0.0181916,-0.00488387,0.0192948,-0.00342849,-1.34863,0.0141452,0.0467395,895,463,2.12878,28.3652
-322,561,1.86456,-28.8878,-0.00225238,0.0148445,-0.00468806,0.0160456,-0.00345349,-1.31999,0.0120148,0.0398048,902,463,1.86457,28.8878
-315,561,2.1203,-29.4374,-0.00205928,0.0120685,-0.00442578,0.0133404,-0.00333122,-1.29094,0.0101872,0.0282556,909,463,2.12029,29.4374
-308,561,2.06281,-30.2945,-0.00201405,0.0100707,-0.00442141,0.0115156,-0.00345894,-1.25494,0.00905305,0.0253339,916,463,2.06283,30.2945
-301,561,1.98486,-31.1799,-0.00164784,0.00812329,-0.00425024,0.00971332,-0.00323786,-1.21281,0.00778268,0.0160101,923,463,1.98488,31.1799
-294,561,1.91754,-31.8773,-0.00112379,0.00672203,-0.00366422,0.00816715,-0.00256891,-1.19514,0.00647327,0.0110673,930,463,1.91751,31.8773
-287,561,1.88434,-32.5469,-0.000705203,0.00577296,-0.00316669,0.00706373,-0.00199597,-1.18375,0.00549663,0.0095755,937,463,1.88432,32.5469
-280,561,1.83447,-33.2065,-0.000340289,0.00500476,-0.0027923,0.00619738,-0.00153291,-1.16714,0.00472616,0.0122824,944,463,1.83449,33.2065
-273,561,1.77954,-33.8778,5.1671e-05,0.00400826,-0.00240974,0.00514774,-0.00108781,-1.12909,0.00384605,0.0147711,951,463,1.77956,33.8778
-266,561,1.76617,-34.5237,0.000274273,0.00259838,-0.00186532,0.003634,-0.000761348,-1.06397,0.0027123,0.00987689,958,463,1.76619,34.5238
-259,561,1.74213,-35.1947,0.000483951,0.000852336,-0.00126923,0.00195067,-0.000614383,-0.857456,0.00154647,0.0106117,965,463,1.74212,35.1947
-252,561,1.69141,-35.832,0.000752438,-0.000961491,-0.000483416,0.000879384,-0.00108844,-0.256803,0.00113826,0.0141338,972,463,1.6914,35.832
-245,561,1.66211,-36.4681,0.00111015,-0.00295903,0.000284412,0.00112994,-0.00297881,0.069444,0.00245094,0.0160892,979,463,1.66213,36.4681
-238,561,1.65533,-37.1061,0.00151968,-0.00524696,0.00110151,0.00169448,-0.00542175,0.157374,0.0042923,0.014055,986,463,1.65531,37.1061
-231,561,1.62537,-37.7401,0.00187103,-0.00770207,0.00196151,0.00225735,-0.00808838,0.194461,0.0062814,0.0124458,993,463,1.62536,37.7401
-224,561,1.60767,-38.3504,0.00212722,-0.0101156,0.00287745,0.00276979,-0.0107582,0.219707,0.00825181,0.0119719,1000,463,1.60765,38.3504
-217,561,1.62604,-38.9498,0.00244442,-0.0125622,0.00379126,0.00334786,-0.0134656,0.233931,0.0102764,0.0122265,1007,463,1.62602,38.9498
-210,561,1.62598,-39.5641,0.00273505,-0.0148719,0.00458239,0.00385626,-0.0159931,0.239964,0.0121532,0.0134689,1014,463,1.62595,39.5642
-203,561,1.6239,-40.1451,0.00303418,-0.0166997,0.00521069,0.00432555,-0.017991,0.242936,0.013666,0.0154549,1021,463,1.62392,40.1451
-196,561,1.58289,-40.6623,0.00336621,-0.0180149,0.00577472,0.00482618,-0.0194749,0.247632,0.0148557,0.018177,1028,463,1.58294,40.6623
-189,561,1.66956,-41.1769,0.00317996,-0.0190814,0.00656834,0.00497349,-0.0208749,0.266559,0.0158369,0.0242469,1035,463,1.66956,41.1769
-182,561,1.77319,-41.6807,0.00257533,-0.0207892,0.00820074,0.00516637,-0.0233803,0.306027,0.0175641,0.0267721,1042,463,1.7732,41.6807
-175,561,1.61096,-42.2087,0.00205377,-0.0223018,0.0104689,0.00593513,-0.0261832,0.355041,0.0197336,0.0413446,1049,463,1.61098,42.2087
-168,561,1.56665,-42.6385,0,0,0,0,0,0,0,-1,1056,463,1.56665,42.6385
-161,561,1.65308,-43.1616,0,0,0,0,0,0,0,-1,1063,463,1.65308,43.1616
-154,561,1.80457,-44.1242,0,0,0,0,0,0,0,-1,1070,463,1.80456,44.1242
-147,561,1.76587,-44.677,0,0,0,0,0,0,0,-1,1077,463,1.76584,44.677
-140,561,1.82178,-44.7895,0,0,0,0,0,0,0,-1,1084,463,1.82178,44.7895
-133,561,0.914551,-43.9711,0,0,0,0,0,0,0,-1,1091,463,0.91452,43.9711
-126,561,0.80481,-44.0662,0,0,0,0,0,0,0,-1,1098,463,0.804834,44.0662
-119,561,-0.336304,-35.422,0,0,0,0,0,0,0,-1,1105,463,-0.336245,35.422
-112,561,1.24365,-29.1982,0,0,0,0,0,0,0,-1,1112,463,1.2437,29.1981
-105,561,0.530518,-13.5379,0,0,0,0,0,0,0,-1,1119,463,0.530477,13.5379
-98,561,1.5387,-7.54352,0,0,0,0,0,0,0,-1,1126,463,1.53871,7.54351
-91,561,1.29553,-6.57968,0,0,0,0,0,0,0,-1,1133,463,1.29549,6.5797
-84,561,1.23364,-5.84555,0,0,0,0,0,0,0,-1,1140,463,1.23363,5.84556
-77,561,-2.36023,1.00204,0,0,0,0,0,0,0,-1,1147,463,-2.3602,-1.00205
-70,561,-3.90015,-1.41541,0,0,0,0,0,0,0,-1,1154,463,-3.90009,1.4154
-63,561,-6.95691,-4.02756,0,0,0,0,0,0,0,-1,1161,463,-6.95696,4.02756
-56,561,-5.37988,-6.66855,0,0,0,0,0,0,0,-1,1168,463,-5.37988,6.66854
-49,561,-5.7439,-9.11029,0,0,0,0,0,0,0,-1,1175,463,-5.74387,9.1103
-42,561,-1.72644,-5.63065,0,0,0,0,0,0,0,-1,1182,463,-1.72648,5.63064
-35,561,-1.65674,-4.87994,0,0,0,0,0,0,0,-1,1189,463,-1.6567,4.87993
-28,561,-1.91418,-3.86896,0,0,0,0,0,0,0,-1,1196,463,-1.91414,3.86895
-21,561,9.98401,-49.8173,0,0,0,0,0,0,0,-1,1203,463,9.98397,49.8173
-14,561,9.93152,-50.2567,0,0,0,0,0,0,0,-1,1210,463,9.93153,50.2567
-7,561,10.1091,-50.6064,0,0,0,0,0,0,0,-1,1217,463,10.1091,50.6065
0,561,9.72937,-51.3157,0,0,0,0,0,0,0,-1,1224,463,9.72939,51.3158
7,561,9.62646,-52.5211,-0.0245861,0.0959931,-0.104324,0.156196,-0.0847889,-1.04741,0.141154,0.0454031,1231,463,9.62641,52.5211
14,561,9.51978,-53.4035,-0.0293747,0.0851755,-0.0995991,0.142793,-0.0869927,-1.04634,0.133965,0.0410815,1238,463,9.5198,53.4035
21,561,9.92773,-52.4491,-0.0372658,0.0725758,-0.0931668,0.125805,-0.0904947,-1.05173,0.125434,0.0408543,1245,463,9.92768,52.4491
28,561,9.43066,-53.0801,-0.0471188,0.0567068,-0.0854088,0.104742,-0.095154,-1.05847,0.115454,0.0448161,1252,463,9.4307,53.0801
35,561,9.20398,-53.9255,-0.0576323,0.0433552,-0.0764266,0.0844619,-0.098739,-1.07732,0.105878,0.0426569,1259,463,9.20394,53.9255
42,561,9.0249,-54.6183,0,0,0,0,0,0,0,-1,1266,463,9.02492,54.6183
49,561,7.74438,-54.0835,0,0,0,0,0,0,0,-1,1273,463,7.74436,54.0835
56,561,6.55322,-54.0439,-0.0880948,0.0118386,-0.0480563,0.0311978,-0.107454,-1.18784,0.0839894,0.0418758,1280,463,6.55324,54.0439
63,561,5.43115,-54.4426,-0.095567,0.00814193,-0.0390664,0.021211,-0.108636,-1.24796,0.0804322,0.0408907,1287,463,5.4312,54.4426
70,561,4.18835,-55.0374,-0.0991483,0.0126012,-0.0320667,0.021149,-0.107696,-1.31029,0.0797869,0.043162,1294,463,4.18841,55.0374
77,561,2.90161,-55.7739,-0.0986298,0.0243767,-0.0256227,0.0295005,-0.103754,-1.37343,0.0808178,0.0438294,1301,463,2.90161,55.7739
84,561,2.48169,-55.3087,-0.0960916,0.0368105,-0.01934,0.0395677,-0.0988487,-1.42919,0.0823216,0.0459637,1308,463,2.48164,55.3087
91,561,1.52686,-55.5547,0,0,0,0,0,0,0,-1,1315,463,1.52682,55.5548
98,561,0.128906,-55.7932,0,0,0,0,0,0,0,-1,1322,463,0.128948,55.7932
105,561,-0.418091,-55.5045,0,0,0,0,0,0,0,-1,1329,463,-0.418115,55.5045
112,561,-1.42908,-56.8881,-0.0686815,0.115998,0.00122253,0.116006,-0.0686896,1.56418,0.107794,0.0465509,1336,463,-1.42912,56.8881
119,561,-1.79419,-57.2897,-0.0604792,0.136269,0.00663085,0.136492,-0.0607024,1.53715,0.11662,0.0439336,1343,463,-1.79417,57.2897
126,561,-2.12268,-57.6208,0,0,0,0,0,0,0,-1,1350,463,-2.12271,57.6208
133,561,-2.08557,-58.8792,0,0,0,0,0,0,0,-1,1357,463,-2.08552,58.8792
140,561,-3.69287,-56.8193,0,0,0,0,0,0,0,-1,1364,463,-3.69292,56.8193
147,561,-3.92126,-57.194,0,0,0,0,0,0,0,-1,1371,463,-3.92124,57.194
154,561,-4.30713,-56.666,0,0,0,0,0,0,0,-1,1378,463,-4.30709,56.6659
161,561,-5.35364,-55.2414,0,0,0,0,0,0,0,-1,1385,463,-5.35369,55.2414
168,561,11.7057,-58.3809,0,0,0,0,0,0,0,-1,1392,463,11.7057,58.3809
175,561,10.4185,0.276398,0,0,0,0,0,0,0,-1,1399,463,10.4185,-0.276394
182,561,6.45703,-4.02127,0,0,0,0,0,0,0,-1,1406,463,6.45704,4.02127
189,561,6.50854,-2.08685,0,0,0,0,0,0,0,-1,1413,463,6.50851,2.08686
196,561,6.44775,-0.27182,0,0,0,0,0,0,0,-1,1420,463,6.44773,0.271814
203,561,6.18591,1.1301,0,0,0,0,0,0,0,-1,1427,463,6.18592,-1.13009
210,561,5.68713,2.68427,0,0,0,0,0,0,0,-1,1434,463,5.6871,-2.68425
217,561,3.61743,-7.33582,0,0,0,0,0,0,0,-1,1441,463,3.61738,7.33581
224,561,4.27466,-8.59171,0,0,0,0,0,0,0,-1,1448,463,4.27466,8.59171
231,561,4.93188,-9.8476,0,0,0,0,0,0,0,-1,1455,463,4.93193,9.84761
238,561,2.18018,-5.18359,0,0,0,0,0,0,0,-1,1462,463,2.18023,5.18359
245,561,3.07568,-3.50238,0,0,0,0,0,0,0,-1,1469,463,3.0757,3.50238
252,561,3.47412,-3.71109,0,0,0,0,0,0,0,-1,1476,463,3.47413,3.71109
259,561,3.42212,-3.2334,0,0,0,0,0,0,0,-1,1483,463,3.42214,3.2334
266,561,4.44373,-5.90027,0,0,0,0,0,0,0,-1,1490,463,4.44372,5.90026
273,561,2.59485,-3.65268,0,0,0,0,0,0,0,-1,1497,463,2.5948,3.65268
280,561,11.678,-43.9845,0,0,0,0,0,0,0,-1,1504,463,11.678,43.9845
287,561,11.7399,-42.8569,0,0,0,0,0,0,0,-1,1511,463,11.7398,42.8569
294,561,11.6924,-42.3356,0,0,0,0,0,0,0,-1,1518,463,11.6924,42.3356
301,561,11.4796,-41.7413,0.0131075,-0.0194116,-0.0041903,0.0136388,-0.0199428,-0.126113,0.0195019,0.0434058,1525,463,11.4796,41.7413
308,561,11.7097,-41.3064,0.0121374,-0.017908,-0.00415128,0.0127004,-0.0184711,-0.134803,0.0180994,0.0316322,1532,463,11.7097,41.3064
315,561,11.7762,-40.8308,0.0110343,-0.0161078,-0.00401701,0.0116163,-0.0166898,-0.143891,0.0164298,0.0183449,1539,463,11.7763,40.8308
322,561,11.7465,-40.2873,0.00979456,-0.0139922,-0.00371268,0.0103606,-0.0145582,-0.151289,0.0144547,0.0149232,1546,463,11.7465,40.2873
329,561,11.7863,-39.7062,0.00847506,-0.0116908,-0.00327857,0.00899469,-0.0122105,-0.157188,0.0122897,0.0120873,1553,463,11.7863,39.7062
336,561,11.7992,-39.0656,0.00711873,-0.00955444,-0.00293836,0.00762141,-0.0100571,-0.169435,0.0102389,0.0119222,1560,463,11.7992,39.0656
343,561,11.7866,-38.4689,0.00570927,-0.00719419,-0.00246225,0.00616315,-0.00764807,-0.18229,0.00798926,0.0111831,1567,463,11.7866,38.4689
350,561,11.7518,-37.848,0.00441455,-0.00517648,-0.00194669,0.00479461,-0.00555654,-0.192808,0.00598163,0.010255,1574,463,11.7518,37.848
357,561,11.7343,-37.1906,0.00326041,-0.00318283,-0.00137663,0.00354221,-0.00346463,-0.201914,0.00404548,0.0102715,1581,463,11.7343,37.1906
364,561,11.736,-36.5805,0.0022726,-0.00120807,-0.000662495,0.00239443,-0.0013299,-0.181867,0.00217933,0.00945346,1588,463,11.736,36.5805
371,561,11.6984,-35.9364,0.00163072,0.000191512,5.41437e-05,0.00163275,0.000189478,0.0375498,0.00103116,0.0163326,1595,463,11.6984,35.9364
378,561,11.668,-35.2501,0.00114752,0.00143028,0.000661695,0.00196553,0.000612269,0.890647,0.00116137,0.0126779,1602,463,11.668,35.2501
385,561,11.6469,-34.553,0.000671336,0.00264397,0.00111018,0.00314268,0.000172624,1.14859,0.00204002,0.01073,1609,463,11.6468,34.553
392,561,11.5917,-33.8784,0.000623901,0.00338115,0.00157966,0.00409917,-9.41223e-05,1.14417,0.00276469,0.014314,1616,463,11.5917,33.8784
399,561,11.5922,-33.2402,0.000697673,0.00389486,0.00193138,0.0048034,-0.000210873,1.1311,0.00327482,0.0197872,1623,463,11.5922,33.2402
406,561,11.6082,-32.5484,0.000663028,0.0043808,0.0021171,0.00533928,-0.000295458,1.14567,0.00366198,0.0193148,1630,463,11.6082,32.5484
413,561,11.5656,-31.8378,0.000531633,0.00468362,0.00215345,0.0055988,-0.000383545,1.16894,0.00386672,0.0185895,1637,463,11.5656,31.8378
420,561,11.4862,-31.1435,0.000435355,0.00462994,0.00215575,0.00554028,-0.00047499,1.17123,0.0038616,0.0149949,1644,463,11.4862,31.1435
427,561,11.4481,-30.4106,0.000423998,0.00406244,0.00225641,0.00514166,-0.000655221,1.12467,0.00366575,0.0118198,1651,463,11.4482,30.4106
434,561,11.422,-29.6658,0.000378409,0.00357686,0.00230421,0.00478243,-0.000827169,1.08876,0.00349678,0.0134757,1658,463,11.422,29.6658
441,561,11.4242,-28.9607,0.000261803,0.00275303,0.00232647,0.00414636,-0.00113153,1.03118,0.00320863,0.0155005,1665,463,11.4241,28.9607
448,561,11.3671,-28.2088,0.000168761,0.00166752,0.00257742,0.00360229,-0.00176601,0.926872,0.00315925,0.0238266,1672,463,11.3671,28.2088
455,561,11.2906,-27.4714,5.31731e-05,8.62372e-05,0.00298568,0.00305543,-0.00291602,0.788167,0.00344793,0.0436881,1679,463,11.2906,27.4714
462,561,11.129,-26.7828,0.000158535,-0.00131817,0.00384194,0.00333243,-0.00449207,0.690464,0.00453398,0.0427375,1686,463,11.129,26.7828
469,561,11.0524,-26.1535,0.000466854,-0.00298143,0.00506534,0.00409345,-0.00660802,0.621359,0.00623509,0.0289997,1693,463,11.0523,26.1535
476,561,11.0277,-25.4436,0.000970624,-0.00513758,0.0066362,0.00522178,-0.00938873,0.569739,0.00854897,0.0453436,1700,463,11.0277,25.4436
483,561,10.9648,-24.7068,0,0,0,0,0,0,0,-1,1707,463,10.9648,24.7068
490,561,11.1727,-23.2773,0,0,0,0,0,0,0,-1,1714,463,11.1727,23.2773
497,561,11.3352,-22.4206,0,0,0,0,0,0,0,-1,1721,463,11.3352,22.4206
504,561,10.0769,-0.811401,0,0,0,0,0,0,0,-1,1728,463,10.0769,0.8114
511,561,0,0,0,0,0,0,0,0,0,-1,1735,463,0,0
518,561,0,0,0,0,0,0,0,0,0,-1,1742,463,0,0
525,561,0,0,0,0,0,0,0,0,0,-1,1749,463,0,0
532,561,0,0,0,0,0,0,0,0,0,-1,1756,463,0,0
539,561,0,0,0,0,0,0,0,0,0,-1,1763,463,0,0
546,561,0,0,0,0,0,0,0,0,0,-1,1770,463,0,0
553,561,0,0,0,0,0,0,0,0,0,-1,1777,463,0,0
560,561,0,0,0,0,0,0,0,0,0,-1,1784,463,0,0
567,561,0,0,0,0,0,0,0,0,0,-1,1791,463,0,0
574,561,0,0,0,0,0,0,0,0,0,-1,1798,463,0,0
581,561,0,0,0,0,0,0,0,0,0,-1,1805,463,0,0
588,561,0,0,0,0,0,0,0,0,0,-1,1812,463,0,0
595,561,0,0,0,0,0,0,0,0,0,-1,1819,463,0,0
602,561,0,0,0,0,0,0,0,0,0,-1,1826,463,0,0
609,561,0,0,0,0,0,0,0,0,0,-1,1833,463,0,0
616,561,0,0,0,0,0,0,0,0,0,-1,1840,463,0,0
623,561,0,0,0,0,0,0,0,0,0,-1,1847,463,0,0
630,561,0,0,0,0,0,0,0,0,0,-1,1854,463,0,0
637,561,0,0,0,0,0,0,0,0,0,-1,1861,463,0,0
644,561,0,0,0,0,0,0,0,0,0,-1,1868,463,0,0
651,561,0,0,0,0,0,0,0,0,0,-1,1875,463,0,0
658,561,0,0,0,0,0,0,0,0,0,-1,1882,463,0,0
665,561,0,0,0,0,0,0,0,0,0,-1,1889,463,0,0
672,561,0,0,0,0,0,0,0,0,0,-1,1896,463,0,0
679,561,0,0,0,0,0,0,0,0,0,-1,1903,463,0,0
686,561,0,0,0,0,0,0,0,0,0,-1,1910,463,0,0
693,561,0,0,0,0,0,0,0,0,0,-1,1917,463,0,0
700,561,0,0,0,0,0,0,0,0,0,-1,1924,463,0,0
707,561,0,0,0,0,0,0,0,0,0,-1,1931,463,0,0
714,561,0,0,0,0,0,0,0,0,0,-1,1938,463,0,0
721,561,0,0,0,0,0,0,0,0,0,-1,1945,463,0,0
728,561,0,0,0,0,0,0,0,0,0,-1,1952,463,0,0
735,561,0,0,0,0,0,0,0,0,0,-1,1959,463,0,0
742,561,0,0,0,0,0,0,0,0,0,-1,1966,463,0,0
749,561,0,0,0,0,0,0,0,0,0,-1,1973,463,0,0
756,561,0,0,0,0,0,0,0,0,0,-1,1980,463,0,0
763,561,0,0,0,0,0,0,0,0,0,-1,1987,463,0,0
770,561,0,0,0,0,0,0,0,0,0,-1,1994,463,0,0
777,561,0,0,0,0,0,0,0,0,0,-1,2001,463,0,0
784,561,0,0,0,0,0,0,0,0,0,-1,2008,463,0,0
791,561,0,0,0,0,0,0,0,0,0,-1,2015,463,0,0
798,561,0,0,0,0,0,0,0,0,0,-1,2022,463,0,0
805,561,0,0,0,0,0,0,0,0,0,-1,2029,463,0,0
812,561,0,0,0,0,0,0,0,0,0,-1,2036,463,0,0
-700,554,0,0,0,0,0,0,0,0,0,-1,524,470,0,0
-693,554,0,0,0,0,0,0,0,0,0,-1,531,470,0,0
-686,554,0,0,0,0,0,0,0,0,0,-1,538,470,0,0
-679,554,0,0,0,0,0,0,0,0,0,-1,545,470,0,0
-672,554,0,0,0,0,0,0,0,0,0,-1,552,470,0,0
-665,554,0,0,0,0,0,0,0,0,0,-1,559,470,0,0
-658,554,0,0,0,0,0,0,0,0,0,-1,566,470,0,0
-651,554,0,0,0,0,0,0,0,0,0,-1,573,470,0,0
-644,554,0,0,0,0,0,0,0,0,0,-1,580,470,0,0
-637,554,0,0,0,0,0,0,0,0,0,-1,587,470,0,0
-630,554,0,0,0,0,0,0,0,0,0,-1,594,470,0,0
-623,554,0,0,0,0,0,0,0,0,0,-1,601,470,0,0
-616,554,0,0,0,0,0,0,0,0,0,-1,608,470,0,0
-609,554,0,0,0,0,0,0,0,0,0,-1,615,470,0,0
-602,554,0,0,0,0,0,0,0,0,0,-1,622,470,0,0
-595,554,0,0,0,0,0,0,0,0,0,-1,629,470,0,0
-588,554,0,0,0,0,0,0,0,0,0,-1,636,470,0,0
-581,554,0,0,0,0,0,0,0,0,0,-1,643,470,0,0
-574,554,0,0,0,0,0,0,0,0,0,-1,650,470,0,0
-567,554,0,0,0,0,0,0,0,0,0,-1,657,470,0,0
-560,554,0,0,0,0,0,0,0,0,0,-1,664,470,0,0
-553,554,0,0,0,0,0,0,0,0,0,-1,671,470,0,0
-546,554,0,0,0,0,0,0,0,0,0,-1,678,470,0,0
-539,554,0,0,0,0,0,0,0,0,0,-1,685,470,0,0
-532,554,0,0,0,0,0,0,0,0,0,-1,692,470,0,0
-525,554,0,0,0,0,0,0,0,0,0,-1,699,470,0,0
-518,554,0,0,0,0,0,0,0,0,0,-1,706,470,0,0
-511,554,0,0,0,0,0,0,0,0,0,-1,713,470,0,0
-504,554,0,0,0,0,0,0,0,0,0,-1,720,470,0,0
-497,554,0,0,0,0,0,0,0,0,0,-1,727,470,0,0
-490,554,0,0,0,0,0,0,0,0,0,-1,734,470,0,0
-483,554,0,0,0,0,0,0,0,0,0,-1,741,470,0,0
-476,554,0,0,0,0,0,0,0,0,0,-1,748,470,0,0
-469,554,0,0,0,0,0,0,0,0,0,-1,755,470,0,0
-462,554,0,0,0,0,0,0,0,0,0,-1,762,470,0,0
-455,554,0,0,0,0,0,0,0,0,0,-1,769,470,0,0
-448,554,0,0,0,0,0,0,0,0,0,-1,776,470,0,0
-441,554,0,0,0,0,0,0,0,0,0,-1,783,470,0,0
-434,554,0,0,0,0,0,0,0,0,0,-1,790,470,0,0
-427,554,0,0,0,0,0,0,0,0,0,-1,797,470,0,0
-420,554,0,0,0,0,0,0,0,0,0,-1,804,470,0,0
-413,554,0,0,0,0,0,0,0,0,0,-1,811,470,0,0
-406,554,0,0,0,0,0,0,0,0,0,-1,818,470,0,0
-399,554,-1.32275,-3.95142,0,0,0,0,0,0,0,-1,825,470,-1.32275,3.95141
-392,554,-1.35632,-3.7406,0,0,0,0,0,0,0,-1,832,470,-1.35632,3.7406
-385,554,-0.849243,-4.14447,0,0,0,0,0,0,0,-1,839,470,-0.849262,4.14446
-378,554,1.64551,-21.6152,0,0,0,0,0,0,0,-1,846,470,1.64549,21.6152
-371,554,1.52734,-23.4219,0,0,0,0,0,0,0,-1,853,470,1.52733,23.4219
-364,554,1.75153,-24.035,0,0,0,0,0,0,0,-1,860,470,1.75153,24.035
-357,554,2.24457,-24.4369,0,0,0,0,0,0,0,-1,867,470,2.24457,24.4369
-350,554,1.17157,-18.1341,0,0,0,0,0,0,0,-1,874,470,1.17156,18.1341
-343,554,1.7395,-26.9019,0,0,0,0,0,0,0,-1,881,470,1.73952,26.9019
-336,554,1.60223,-27.5396,-0.00139835,0.0194958,-0.00472112,0.020513,-0.00241558,-1.35858,0.0145475,0.0413035,888,470,1.60226,27.5396
-329,554,1.45532,-28.3014,-0.00161686,0.0157952,-0.00449293,0.0168862,-0.00270784,-1.33259,0.0122601,0.0208584,895,470,1.45534,28.3014
-322,554,1.37433,-29.0336,-0.00166604,0.0126564,-0.00405275,0.0137237,-0.0027333,-1.3133,0.0101832,0.0139504,902,470,1.37432,29.0336
-315,554,1.36816,-29.737,-0.00154343,0.0100706,-0.00360675,0.0110995,-0.00257235,-1.2929,0.00838964,0.0141049,909,470,1.36817,29.737
-308,554,1.3208,-30.4443,-0.00150496,0.00811968,-0.00343057,0.00921728,-0.00260256,-1.26114,0.00717155,0.0150674,916,470,1.32081,30.4443
-301,554,1.30078,-31.1602,-0.00120098,0.00629689,-0.00316984,0.00745737,-0.00236146,-1.21985,0.00591793,0.0145026,923,470,1.30081,31.1602
-294,554,1.24768,-31.8507,-0.000705763,0.00498235,-0.00258172,0.00597938,-0.00170279,-1.20225,0.00465876,0.0120179,930,470,1.2477,31.8507
-287,554,1.21716,-32.5191,-0.000274779,0.00403834,-0.0020688,0.0048702,-0.00110664,-1.18848,0.0036717,0.0121675,937,470,1.21713,32.5191
-280,554,1.18103,-33.178,6.6626e-05,0.00291379,-0.00162021,0.00364698,-0.000666566,-1.14584,0.00268127,0.0123908,944,470,1.18103,33.178
-273,554,1.12793,-33.8681,0.000451945,0.00150559,-0.00116681,0.00225899,-0.000301463,-0.997451,0.00161588,0.01547,951,470,1.12794,33.8681
-266,554,1.10016,-34.5276,0.000716388,-0.000200194,-0.000562966,0.000984018,-0.000467824,-0.443769,0.000855699,0.0124601,958,470,1.10015,34.5276
-259,554,1.0907,-35.1187,0.000963577,-0.00228495,0.000120176,0.000968017,-0.00228939,0.0369267,0.00193155,0.0124434,965,470,1.09072,35.1187
-252,554,1.0257,-35.7514,0.00123855,-0.00451763,0.000981962,0.00140145,-0.00468054,0.1644,0.00367762,0.0141078,972,470,1.02568,35.7514
-245,554,0.985168,-36.4075,0.00161037,-0.00695866,0.00182743,0.00198382,-0.0073321,0.201579,0.0056663,0.0157043,979,470,0.985196,36.4075
-238,554,1.01862,-37.0746,0.00204709,-0.00967842,0.0027098,0.00264304,-0.0102744,0.216479,0.00787977,0.0123329,986,470,1.01862,37.0747
-231,554,1.00238,-37.7086,0.0024372,-0.0125561,0.00362582,0.003268,-0.0133869,0.225244,0.0101902,0.0109191,993,470,1.00241,37.7087
-224,554,1.00024,-38.3036,0.00270589,-0.0153755,0.00463463,0.00382462,-0.0164942,0.236854,0.0124681,0.0102064,1000,470,1.00024,38.3036
-217,554,1.02325,-38.8978,0.00304103,-0.0181632,0.00564738,0.00445132,-0.0195735,0.244719,0.0147582,0.0103301,1007,470,1.02323,38.8978
-210,554,1.02393,-39.4767,0.00334565,-0.0207412,0.00650096,0.00498822,-0.0223837,0.247487,0.0168334,0.0144228,1014,470,1.02395,39.4767
-203,554,0.996033,-39.9856,0.00364607,-0.0227338,0.00715899,0.00546365,-0.0245514,0.248634,0.0184603,0.0237158,1021,470,0.996003,39.9856
-196,554,1.00342,-40.4602,0.00399399,-0.0241678,0.00775407,0.00598783,-0.0261616,0.251683,0.0197421,0.03327,1028,470,1.00342,40.4602
-189,554,1.17065,-40.872,0.00368536,-0.0253312,0.00868144,0.0060844,-0.0277303,0.269613,0.0208136,0.039554,1035,470,1.1707,40.872
-182,554,1.22253,-41.3209,0.00277459,-0.0272938,0.0106898,0.00618756,-0.0307068,0.309045,0.0228151,0.048576,1042,470,1.22257,41.3208
-175,554,1.00122,-41.9293,0,0,0,0,0,0,0,-1,1049,470,1.00121,41.9293
-168,554,1.92175,-41.0667,0,0,0,0,0,0,0,-1,1056,470,1.92179,41.0667
-161,554,1.09583,-42.015,0,0,0,0,0,0,0,-1,1063,470,1.09577,42.015
-154,554,1.03186,-42.7216,0,0,0,0,0,0,0,-1,1070,470,1.03187,42.7216
-147,554,1.4552,-41.5187,0,0,0,0,0,0,0,-1,1077,470,1.45525,41.5187
-140,554,0.428101,-38.9893,0,0,0,0,0,0,0,-1,1084,470,0.428152,38.9893
-133,554,2.67163,-32.8187,0,0,0,0,0,0,0,-1,1091,470,2.67161,32.8187
-126,554,0.851929,-33.5393,0,0,0,0,0,0,0,-1,1098,470,0.851942,33.5393
-119,554,-1.03479,-32.1628,0,0,0,0,0,0,0,-1,1105,470,-1.03476,32.1628
-112,554,1.03162,-24.5784,0,0,0,0,0,0,0,-1,1112,470,1.03156,24.5784
-105,554,0.608765,-21.0475,0,0,0,0,0,0,0,-1,1119,470,0.608728,21.0475
-98,554,1.51929,-7.3624,0,0,0,0,0,0,0,-1,1126,470,1.51928,7.36241
-91,554,1.41089,-6.5864,0,0,0,0,0,0,0,-1,1133,470,1.41093,6.58638
-84,554,1.62305,-5.87186,0,0,0,0,0,0,0,-1,1140,470,1.62299,5.87186
-77,554,-2.56958,1.33258,0,0,0,0,0,0,0,-1,1147,470,-2.56959,-1.33257
-70,554,-3.68164,-1.18332,0,0,0,0,0,0,0,-1,1154,470,-3.68158,1.18331
-63,554,-4.86853,-3.88708,0,0,0,0,0,0,0,-1,1161,470,-4.86853,3.88708
-56,554,-5.69958,-6.45422,0,0,0,0,0,0,0,-1,1168,470,-5.69955,6.45422
-49,554,-6.23645,-8.8569,0,0,0,0,0,0,0,-1,1175,470,-6.23643,8.85689
-42,554,-6.62524,-11.5382,0,0,0,0,0,0,0,-1,1182,470,-6.62522,11.5382
-35,554,-2.40173,-4.59482,0,0,0,0,0,0,0,-1,1189,470,-2.40169,4.59481
-28,554,-0.760132,-1.65555,0,0,0,0,0,0,0,-1,1196,470,-0.760095,1.65556
-21,554,7.92444,-43.2634,0,0,0,0,0,0,0,-1,1203,470,7.92438,43.2634
-14,554,10.0321,-50.9433,0,0,0,0,0,0,0,-1,1210,470,10.0321,50.9433
-7,554,9.30151,-45.2542,0,0,0,0,0,0,0,-1,1217,470,9.30148,45.2542
0,554,10.5654,-52.9937,0,0,0,0,0,0,0,-1,1224,470,10.5655,52.9937
7,554,10.2345,-53.9803,0,0,0,0,0,0,0,-1,1231,470,10.2345,53.9803
14,554,9.90344,-54.9669,0,0,0,0,0,0,0,-1,1238,470,9.9035,54.9669
21,554,10.7125,-52.2708,-0.0520244,0.0775054,-0.101384,0.133045,-0.107564,-1.06963,0.139175,0.0446232,1245,470,10.7125,52.2708
28,554,10.0524,-53.4399,-0.0630076,0.0568509,-0.0921615,0.106855,-0.113011,-1.07368,0.126956,0.0463917,1252,470,10.0523,53.4399
35,554,9.76868,-54.2142,-0.0746658,0.0386726,-0.0813119,0.0811146,-0.117108,-1.08973,0.115071,0.0405753,1259,470,9.76862,54.2142
42,554,7.84399,-53.1074,0,0,0,0,0,0,0,-1,1266,470,7.84399,53.1074
49,554,6.85754,-53.5338,0,0,0,0,0,0,0,-1,1273,470,6.85759,53.5338
56,554,6.36963,-53.8,-0.108647,-0.0075379,-0.0499583,0.0129821,-0.129167,-1.18106,0.0907489,0.0433789,1280,470,6.36968,53.8
63,554,5.52173,-54.2,-0.11751,-0.0170552,-0.0397493,-0.00322945,-0.131335,-1.23606,0.0865006,0.0405114,1287,470,5.52168,54.2
70,554,4.40698,-54.5424,-0.120726,-0.0142299,-0.032692,-0.00499492,-0.12996,-1.29549,0.0850243,0.0418697,1294,470,4.40699,54.5424
77,554,3.48499,-54.9664,-0.117884,-0.00227714,-0.026216,0.00339001,-0.123551,-1.3579,0.0835203,0.0459989,1301,470,3.485,54.9664
84,554,2.57495,-55.4568,-0.112045,0.0122621,-0.020109,0.0154341,-0.115217,-1.41434,0.0824389,0.0467661,1308,470,2.57498,55.4568
91,554,1.61108,-55.9545,0,0,0,0,0,0,0,-1,1315,470,1.61105,55.9546
98,554,0.587158,-56.4533,0,0,0,0,0,0,0,-1,1322,470,0.587127,56.4533
105,554,-0.451782,-56.7284,0,0,0,0,0,0,0,-1,1329,470,-0.451784,56.7284
112,554,-1.47058,-57.0235,0,0,0,0,0,0,0,-1,1336,470,-1.47062,57.0235
119,554,-2.27332,-58.5601,-0.0616845,0.146203,0.00681551,0.146426,-0.0619077,1.53806,0.123537,0.040598,1343,470,-2.27334,58.5601
126,554,-2.35547,-59.3171,-0.053317,0.16965,0.0147734,0.170625,-0.0542916,1.50492,0.135522,0.0418312,1350,470,-2.35546,59.3171
133,554,-2.59546,-59.9185,-0.0467489,0.190199,0.0236267,0.192532,-0.0490818,1.47237,0.147463,0.0472804,1357,470,-2.59549,59.9184
140,554,-2.80017,-60.4884,0,0,0,0,0,0,0,-1,1364,470,-2.80023,60.4884
147,554,-3.91663,-59.0413,0,0,0,0,0,0,0,-1,1371,470,-3.91664,59.0413
154,554,-4.63855,-58.1931,-0.0349603,0.21922,0.0556371,0.230864,-0.0466051,1.36447,0.171568,0.0422711,1378,470,-4.63856,58.193
161,554,-5.14185,-56.9453,-0.0331355,0.227989,0.0672868,0.244308,-0.0494542,1.33287,0.181615,0.0455762,1385,470,-5.1418,56.9453
168,554,-5.64783,-55.7788,0,0,0,0,0,0,0,-1,1392,470,-5.64777,55.7788
175,554,10.663,0.286957,0,0,0,0,0,0,0,-1,1399,470,10.663,-0.286966
182,554,6.71106,-4.50217,0,0,0,0,0,0,0,-1,1406,470,6.71107,4.50215
189,554,6.90479,-2.50348,0,0,0,0,0,0,0,-1,1413,470,6.90477,2.50348
196,554,6.96216,-0.740906,0,0,0,0,0,0,0,-1,1420,470,6.96214,0.740912
203,554,6.43518,0.414154,0,0,0,0,0,0,0,-1,1427,470,6.43523,-0.414141
210,554,6.21167,1.96707,0,0,0,0,0,0,0,-1,1434,470,6.21165,-1.96706
217,554,5.64551,3.4989,0,0,0,0,0,0,0,-1,1441,470,5.64555,-3.49891
224,554,4.85144,-8.85172,0,0,0,0,0,0,0,-1,1448,470,4.85146,8.85173
231,554,3.25073,-5.29642,0,0,0,0,0,0,0,-1,1455,470,3.25078,5.29642
238,554,4.28625,-3.25253,0,0,0,0,0,0,0,-1,1462,470,4.28622,3.25252
245,554,4.0752,-2.90033,0,0,0,0,0,0,0,-1,1469,470,4.07515,2.90032
252,554,3.52112,-0.934998,0,0,0,0,0,0,0,-1,1476,470,3.52113,0.934996
259,554,3.96448,-2.16425,0,0,0,0,0,0,0,-1,1483,470,3.96446,2.16424
266,554,3.0592,-2.71716,0,0,0,0,0,0,0,-1,1490,470,3.05923,2.71718
273,554,2.58521,-3.06876,0,0,0,0,0,0,0,-1,1497,470,2.58524,3.06874
280,554,2.83301,-0.991699,0,0,0,0,0,0,0,-1,1504,470,2.83303,0.991704
287,554,3.54126,-4.12277,0,0,0,0,0,0,0,-1,1511,470,3.54123,4.12277
294,554,3.62036,-8.50146,0,0,0,0,0,0,0,-1,1518,470,3.62031,8.50145
301,554,11.7161,-41.1816,0,0,0,0,0,0,0,-1,1525,470,11.7161,41.1816
308,554,12.0652,-40.6832,0.0162224,-0.0245116,-0.00574232,0.0170165,-0.0253056,-0.137404,0.0245904,0.048735,1532,470,12.0651,40.6832
315,554,12.2998,-40.5664,0.0146317,-0.0218743,-0.00561042,0.0154745,-0.0227171,-0.149102,0.0221817,0.0475112,1539,470,12.2998,40.5664
322,554,12.3091,-40.0714,0.012909,-0.0189584,-0.00526674,0.0137569,-0.0198062,-0.159618,0.0194823,0.036523,1546,470,12.3091,40.0713
329,554,12.4313,-39.5428,0.0111273,-0.0158671,-0.00473755,0.0119346,-0.0166744,-0.168784,0.0165928,0.0232234,1553,470,12.4313,39.5427
336,554,12.4276,-39.0123,0.00930539,-0.013144,-0.00437426,0.0101276,-0.0139662,-0.185798,0.0139693,0.0144776,1560,470,12.4276,39.0123
343,554,12.4064,-38.4407,0.00743213,-0.0102579,-0.00385626,0.00823621,-0.011062,-0.205568,0.0111816,0.0115121,1567,470,12.4063,38.4407
350,554,12.3993,-37.7962,0.00569832,-0.00798115,-0.00335533,0.006477,-0.00875983,-0.228035,0.00882984,0.0100652,1574,470,12.3993,37.7962
357,554,12.3958,-37.1449,0.00419567,-0.00571343,-0.00277106,0.00491794,-0.00643571,-0.254976,0.00657453,0.0107134,1581,470,12.3958,37.1449
364,554,12.3771,-36.5442,0.00291974,-0.00344775,-0.00201708,0.00350493,-0.00403294,-0.282364,0.00435555,0.00878289,1588,470,12.3771,36.5442
371,554,12.353,-35.9005,0.00208227,-0.00192294,-0.00127435,0.00245335,-0.00229402,-0.283358,0.00274141,0.00901723,1595,470,12.353,35.9005
378,554,12.3296,-35.215,0.00146436,-0.000552301,-0.00062048,0.00163997,-0.000727916,-0.275817,0.0014005,0.0105164,1602,470,12.3295,35.215
385,554,12.3109,-34.5311,0.000780439,0.000743812,-9.45675e-05,0.00085845,0.000665801,-0.689755,0.000520116,0.00992065,1609,470,12.3109,34.5311
392,554,12.2876,-33.8413,0.000615987,0.00159776,0.000516425,0.00181938,0.000394368,1.16542,0.00110517,0.0132718,1616,470,12.2876,33.8413
399,554,12.2839,-33.1779,0.000669282,0.00221049,0.000955002,0.00266702,0.000212751,1.12487,0.00171151,0.0179098,1623,470,12.284,33.1779
406,554,12.2649,-32.5067,0.000635221,0.00277699,0.00123302,0.00333924,7.29709e-05,1.14297,0.00220224,0.0171264,1630,470,12.2649,32.5067
413,554,12.2341,-31.8067,0.000530803,0.00322577,0.00141537,0.00383251,-7.59319e-05,1.16581,0.00258069,0.0167051,1637,470,12.2341,31.8067
420,554,12.1913,-31.1158,0.000438628,0.00333447,0.00154096,0.00400103,-0.000227934,1.16254,0.00274648,0.0177437,1644,470,12.1913,31.1158
427,554,12.1508,-30.4044,0.000410709,0.00304052,0.00174078,0.00390719,-0.000455965,1.10886,0.00276932,0.0121984,1651,470,12.1508,30.4044
434,554,12.0916,-29.6935,0.000364358,0.00277054,0.00190787,0.00382298,-0.00068808,1.0667,0.00280628,0.010582,1658,470,12.0915,29.6935
441,554,12.0747,-28.9814,0.00027996,0.00226565,0.00208224,0.00357963,-0.00103402,1.00786,0.00279558,0.0119906,1665,470,12.0747,28.9814
448,554,12.0421,-28.2225,0.000227217,0.00152412,0.00244621,0.00340636,-0.00165503,0.91496,0.00297994,0.0179235,1672,470,12.0421,28.2225
455,554,11.9725,-27.5178,0.000172164,0.000468146,0.00297645,0.00330028,-0.00265997,0.810238,0.00344777,0.0205024,1679,470,11.9725,27.5178
462,554,11.8719,-26.8141,0.000328355,-0.000476228,0.00381429,0.00376151,-0.00390938,0.732858,0.00442907,0.0223465,1686,470,11.8719,26.8141
469,554,11.7664,-26.0893,0.000713337,-0.00155564,0.00491327,0.0046214,-0.0054637,0.671935,0.0058294,0.0247278,1693,470,11.7663,26.0893
476,554,11.7142,-24.9785,0.00128887,-0.00294354,0.00631285,0.00583077,-0.00748544,0.623673,0.00770788,0.0453816,1700,470,11.7142,24.9785
483,554,11.6484,-23.8417,0,0,0,0,0,0,0,-1,1707,470,11.6484,23.8417
490,554,12.1349,-23.101,0,0,0,0,0,0,0,-1,1714,470,12.1349,23.101
497,554,11.4208,1.03592,0,0,0,0,0,0,0,-1,1721,470,11.4208,-1.03593
504,554,2.13257,-3.81628,0,0,0,0,0,0,0,-1,1728,470,2.1326,3.8163
511,554,1.31396,-4.02713,0,0,0,0,0,0,0,-1,1735,470,1.31398,4.02712
518,554,5.04236,-5.9472,0,0,0,0,0,0,0,-1,1742,470,5.04231,5.94721
525,554,0,0,0,0,0,0,0,0,0,-1,1749,470,0,0
532,554,0,0,0,0,0,0,0,0,0,-1,1756,470,0,0
539,554,0,0,0,0,0,0,0,0,0,-1,1763,470,0,0
546,554,0,0,0,0,0,0,0,0,0,-1,1770,470,0,0
553,554,0,0,0,0,0,0,0,0,0,-1,1777,470,0,0
560,554,0,0,0,0,0,0,0,0,0,-1,1784,470,0,0
567,554,0,0,0,0,0,0,0,0,0,-1,1791,470,0,0
574,554,0,0,0,0,0,0,0,0,0,-1,1798,470,0,0
581,554,0,0,0,0,0,0,0,0,0,-1,1805,470,0,0
588,554,0,0,0,0,0,0,0,0,0,-1,1812,470,0,0
595,554,0,0,0,0,0,0,0,0,0,-1,1819,470,0,0
602,554,0,0,0,0,0,0,0,0,0,-1,1826,470,0,0
609,554,0,0,0,0,0,0,0,0,0,-1,1833,470,0,0
616,554,0,0,0,0,0,0,0,0,0,-1,1840,470,0,0
623,554,0,0,0,0,0,0,0,0,0,-1,1847,470,0,0
630,554,0,0,0,0,0,0,0,0,0,-1,1854,470,0,0
637,554,0,0,0,0,0,0,0,0,0,-1,1861,470,0,0
644,554,0,0,0,0,0,0,0,0,0,-1,1868,470,0,0
651,554,0,0,0,0,0,0,0,0,0,-1,1875,470,0,0
658,554,0,0,0,0,0,0,0,0,0,-1,1882,470,0,0
665,554,0,0,0,0,0,0,0,0,0,-1,1889,470,0,0
672,554,0,0,0,0,0,0,0,0,0,-1,1896,470,0,0
679,554,0,0,0,0,0,0,0,0,0,-1,1903,470,0,0
686,554,0,0,0,0,0,0,0,0,0,-1,1910,470,0,0
693,554,0,0,0,0,0,0,0,0,0,-1,1917,470,0,0
700,554,0,0,0,0,0,0,0,0,0,-1,1924,470,0,0
707,554,0,0,0,0,0,0,0,0,0,-1,1931,470,0,0
714,554,0,0,0,0,0,0,0,0,0,-1,1938,470,0,0
721,554,0,0,0,0,0,0,0,0,0,-1,1945,470,0,0
728,554,0,0,0,0,0,0,0,0,0,-1,1952,470,0,0
735,554,0,0,0,0,0,0,0,0,0,-1,1959,470,0,0
742,554,0,0,0,0,0,0,0,0,0,-1,1966,470,0,0
749,554,0,0,0,0,0,0,0,0,0,-1,1973,470,0,0
756,554,0,0,0,0,0,0,0,0,0,-1,1980,470,0,0
763,554,0,0,0,0,0,0,0,0,0,-1,1987,470,0,0
770,554,0,0,0,0,0,0,0,0,0,-1,1994,470,0,0
777,554,0,0,0,0,0,0,0,0,0,-1,2001,470,0,0
784,554,0,0,0,0,0,0,0,0,0,-1,2008,470,0,0
791,554,0,0,0,0,0,0,0,0,0,-1,2015,470,0,0
798,554,0,0,0,0,0,0,0,0,0,-1,2022,470,0,0
805,554,0,0,0,0,0,0,0,0,0,-1,2029,470,0,0
812,554,0,0,0,0,0,0,0,0,0,-1,2036,470,0,0
-700,547,0,0,0,0,0,0,0,0,0,-1,524,477,0,0
-693,547,0,0,0,0,0,0,0,0,0,-1,531,477,0,0
-686,547,0,0,0,0,0,0,0,0,0,-1,538,477,0,0
-679,547,0,0,0,0,0,0,0,0,0,-1,545,477,0,0
-672,547,0,0,0,0,0,0,0,0,0,-1,552,477,0,0
-665,547,0,0,0,0,0,0,0,0,0,-1,559,477,0,0
-658,547,0,0,0,0,0,0,0,0,0,-1,566,477,0,0
-651,547,0,0,0,0,0,0,0,0,0,-1,573,477,0,0
-644,547,0,0,0,0,0,0,0,0,0,-1,580,477,0,0
-637,547,0,0,0,0,0,0,0,0,0,-1,587,477,0,0
-630,547,0,0,0,0,0,0,0,0,0,-1,594,477,0,0
-623,547,0,0,0,0,0,0,0,0,0,-1,601,477,0,0
-616,547,0,0,0,0,0,0,0,0,0,-1,608,477,0,0
-609,547,0,0,0,0,0,0,0,0,0,-1,615,477,0,0
-602,547,0,0,0,0,0,0,0,0,0,-1,622,477,0,0
-595,547,0,0,0,0,0,0,0,0,0,-1,629,477,0,0
-588,547,0,0,0,0,0,0,0,0,0,-1,636,477,0,0
-581,547,0,0,0,0,0,0,0,0,0,-1,643,477,0,0
-574,547,0,0,0,0,0,0,0,0,0,-1,650,477,0,0
-567,547,0,0,0,0,0,0,0,0,0,-1,657,477,0,0
-560,547,0,0,0,0,0,0,0,0,0,-1,664,477,0,0
-553,547,0,0,0,0,0,0,0,0,0,-1,671,477,0,0
-546,547,0,0,0,0,0,0,0,0,0,-1,678,477,0,0
-539,547,0,0,0,0,0,0,0,0,0,-1,685,477,0,0
-532,547,0,0,0,0,0,0,0,0,0,-1,692,477,0,0
-525,547,0,0,0,0,0,0,0,0,0,-1,699,477,0,0
-518,547,0,0,0,0,0,0,0,0,0,-1,706,477,0,0
-511,547,0,0,0,0,0,0,0,0,0,-1,713,477,0,0
-504,547,0,0,0,0,0,0,0,0,0,-1,720,477,0,0
-497,547,0,0,0,0,0,0,0,0,0,-1,727,477,0,0
-490,547,0,0,0,0,0,0,0,0,0,-1,734,477,0,0
-483,547,0,0,0,0,0,0,0,0,0,-1,741,477,0,0
-476,547,0,0,0,0,0,0,0,0,0,-1,748,477,0,0
-469,547,0,0,0,0,0,0,0,0,0,-1,755,477,0,0
-462,547,0,0,0,0,0,0,0,0,0,-1,762,477,0,0
-455,547,0,0,0,0,0,0,0,0,0,-1,769,477,0,0
-448,547,0,0,0,0,0,0,0,0,0,-1,776,477,0,0
-441,547,0,0,0,0,0,0,0,0,0,-1,783,477,0,0
-434,547,0,0,0,0,0,0,0,0,0,-1,790,477,0,0
-427,547,0,0,0,0,0,0,0,0,0,-1,797,477,0,0
-420,547,0,0,0,0,0,0,0,0,0,-1,804,477,0,0
-413,547,0,0,0,0,0,0,0,0,0,-1,811,477,0,0
-406,547,0.144592,-11.0292,0,0,0,0,0,0,0,-1,818,477,0.144583,11.0292
-399,547,0.775513,-10.0294,0,0,0,0,0,0,0,-1,825,477,0.775482,10.0295
-392,547,-1.52271,-4.41675,0,0,0,0,0,0,0,-1,832,477,-1.52273,4.41674
-385,547,-1.73743,-4.6431,0,0,0,0,0,0,0,-1,839,477,-1.73743,4.64308
-378,547,1.79877,-21.2247,0,0,0,0,0,0,0,-1,846,477,1.79876,21.2247
-371,547,1.18964,-23.086,0,0,0,0,0,0,0,-1,853,477,1.18965,23.086
-364,547,1.31,-23.9151,0.00535685,0.0361026,-0.00643607,0.0373955,0.00406394,-1.37255,0.0236922,0.0495452,860,477,1.30999,23.9151
-357,547,1.42383,-24.5661,0.00297141,0.030302,-0.00600183,0.031562,0.00171148,-1.36388,0.0204946,0.0492805,867,477,1.42383,24.5661
-350,547,1.11536,-25.2808,0,0,0,0,0,0,0,-1,874,477,1.11533,25.2808
-343,547,0.964478,-26.6727,-7.62214e-05,0.020558,-0.00500263,0.0217068,-0.00122511,-1.34505,0.0148964,0.0471694,881,477,0.964458,26.6727
-336,547,0.851257,-27.5468,-0.000717579,0.0167961,-0.00458784,0.0179251,-0.00184662,-1.3295,0.0126108,0.0187682,888,477,0.851245,27.5467
-329,547,0.75238,-28.2993,-0.00100524,0.0134339,-0.00409278,0.0145133,-0.00208466,-1.31293,0.01044,0.0108207,895,477,0.752371,28.2993
-322,547,0.711121,-29.028,-0.0011334,0.0105192,-0.00345997,0.0114691,-0.00208332,-1.30285,0.0084268,0.0107117,902,477,0.711097,29.028
-315,547,0.669922,-29.7627,-0.00106255,0.00813121,-0.00286221,0.00894945,-0.0018808,-1.29235,0.00668205,0.0101941,909,477,0.669913,29.7627
-308,547,0.638611,-30.4475,-0.00101044,0.00628962,-0.00253437,0.00708321,-0.00180403,-1.26734,0.00542442,0.0121505,916,477,0.638596,30.4475
-301,547,0.612427,-31.1369,-0.000746157,0.00463047,-0.00218606,0.00540711,-0.00152279,-1.22944,0.00420527,0.0119116,923,477,0.61242,31.1369
-294,547,0.556152,-31.8113,-0.000275682,0.00342714,-0.00159646,0.0040204,-0.00086894,-1.215,0.00301199,0.0101302,930,477,0.556134,31.8113
-287,547,0.536499,-32.4807,0.000164836,0.00249201,-0.00106278,0.00290432,-0.000247472,-1.20072,0.00202375,0.0119291,937,477,0.536506,32.4807
-280,547,0.532959,-33.1577,0.000495559,0.00104942,-0.000570912,0.00140702,0.000137956,-1.01121,0.000895576,0.0140819,944,477,0.532928,33.1577
-273,547,0.486328,-33.835,0.000901666,-0.000776545,-7.52917e-05,0.000905037,-0.000779916,-0.0447445,0.000973702,0.0132784,951,477,0.486325,33.8349
-266,547,0.444824,-34.4869,0.00123355,-0.00278966,0.000574282,0.00131392,-0.00287003,0.139044,0.00247067,0.0128524,958,477,0.444847,34.4869
-259,547,0.421448,-35.1049,0.00153848,-0.00523087,0.00134497,0.00179592,-0.00548831,0.189119,0.00438195,0.0114693,965,477,0.421451,35.1049
-252,547,0.40686,-35.7429,0.00182938,-0.00794717,0.00228636,0.00233765,-0.00845544,0.218747,0.00655659,0.0114924,972,477,0.406847,35.7428
-245,547,0.385559,-36.3792,0.00221212,-0.0109437,0.00321834,0.00295723,-0.0116889,0.227511,0.00894281,0.0128907,979,477,0.385532,36.3792
-238,547,0.399597,-37.049,0.00266106,-0.0142464,0.00419622,0.00364522,-0.0152306,0.230372,0.0115619,0.00919559,986,477,0.399613,37.049
-231,547,0.379333,-37.6724,0.00307753,-0.0177287,0.00521551,0.00431169,-0.0189629,0.23236,0.0142975,0.00830644,993,477,0.379332,37.6724
-224,547,0.367432,-38.2397,0.00332735,-0.0211783,0.00639213,0.00489448,-0.0227455,0.240423,0.0170312,0.0103621,1000,477,0.367405,38.2397
-217,547,0.386047,-38.7798,0.00363345,-0.0245473,0.00760594,0.00555522,-0.0264691,0.247488,0.0197598,0.0164608,1007,477,0.386064,38.7798
-210,547,0.377014,-39.2223,0.00390094,-0.0276084,0.00863305,0.00611121,-0.0298187,0.250641,0.0221984,0.0270721,1014,477,0.377027,39.2223
-203,547,0.389832,-39.4979,0.00413767,-0.0299842,0.00944059,0.00657547,-0.032422,0.252704,0.0241073,0.039628,1021,477,0.389802,39.4979
-196,547,0.464233,-40.1056,0,0,0,0,0,0,0,-1,1028,477,0.464288,40.1056
-189,547,0.611938,-40.3918,0,0,0,0,0,0,0,-1,1035,477,0.611952,40.3919
-182,547,0.652588,-40.8564,0,0,0,0,0,0,0,-1,1042,477,0.652534,40.8565
-175,547,0.609131,-38.4625,0,0,0,0,0,0,0,-1,1049,477,0.609102,38.4625
-168,547,0.761719,-32.9387,0,0,0,0,0,0,0,-1,1056,477,0.761738,32.9387
-161,547,0.0430908,-34.6016,0,0,0,0,0,0,0,-1,1063,477,0.0431231,34.6016
-154,547,-0.284424,-31.1176,0,0,0,0,0,0,0,-1,1070,477,-0.284395,31.1176
-147,547,3.69434,-26.413,0,0,0,0,0,0,0,-1,1077,477,3.69437,26.413
-140,547,1.55676,-22.5229,0,0,0,0,0,0,0,-1,1084,477,1.5568,22.5229
-133,547,2.31665,-17.9421,0,0,0,0,0,0,0,-1,1091,477,2.31667,17.9421
-126,547,-1.15271,-30.6984,0,0,0,0,0,0,0,-1,1098,477,-1.15267,30.6984
-119,547,0.967651,-24.9351,0,0,0,0,0,0,0,-1,1105,477,0.967657,24.9351
-112,547,1.15674,-22.2276,0,0,0,0,0,0,0,-1,1112,477,1.15677,22.2276
-105,547,0.966797,-20.5777,0,0,0,0,0,0,0,-1,1119,477,0.966804,20.5777
-98,547,0.70166,-18.9755,0,0,0,0,0,0,0,-1,1126,477,0.701713,18.9755
-91,547,1.37805,-7.12024,0,0,0,0,0,0,0,-1,1133,477,1.37804,7.12025
-84,547,1.94202,-6.66241,0,0,0,0,0,0,0,-1,1140,477,1.94201,6.66241
-77,547,-2.28357,1.8588,0,0,0,0,0,0,0,-1,1147,477,-2.28356,-1.85879
-70,547,-3.70178,-0.874908,0,0,0,0,0,0,0,-1,1154,477,-3.70182,0.874918
-63,547,-5.12012,-3.60861,0,0,0,0,0,0,0,-1,1161,477,-5.12009,3.60862
-56,547,-6.01917,-6.2399,0,0,0,0,0,0,0,-1,1168,477,-6.01921,6.23991
-49,547,-6.729,-8.60349,0,0,0,0,0,0,0,-1,1175,477,-6.72899,8.60348
-42,547,-2.41736,-5.53012,0,0,0,0,0,0,0,-1,1182,477,-2.41734,5.53011
-35,547,-2.96838,-4.45734,0,0,0,0,0,0,0,-1,1189,477,-2.96839,4.45734
-28,547,-0.869141,-1.29901,0,0,0,0,0,0,0,-1,1196,477,-0.869135,1.29901
-21,547,-7.68262,-30.8089,0,0,0,0,0,0,0,-1,1203,477,-7.68256,30.8089
-14,547,9.56482,-44.7078,0,0,0,0,0,0,0,-1,1210,477,9.56486,44.7078
-7,547,9.69824,-45.5137,0,0,0,0,0,0,0,-1,1217,477,9.69819,45.5137
0,547,9.78687,-46.166,0,0,0,0,0,0,0,-1,1224,477,9.78691,46.166
7,547,11.0007,-55.4064,0,0,0,0,0,0,0,-1,1231,477,11.0007,55.4064
14,547,0,0,0,0,0,0,0,0,0,-1,1238,477,0,0
21,547,0,0,0,0,0,0,0,0,0,-1,1245,477,0,0
28,547,0,0,0,0,0,0,0,0,0,-1,1252,477,0,0
35,547,0,0,0,0,0,0,0,0,0,-1,1259,477,0,0
42,547,0,0,0,0,0,0,0,0,0,-1,1266,477,0,0
49,547,0,0,0,0,0,0,0,0,0,-1,1273,477,0,0
56,547,0,0,0,0,0,0,0,0,0,-1,1280,477,0,0
63,547,0,0,0,0,0,0,0,0,0,-1,1287,477,0,0
70,547,0,0,0,0,0,0,0,0,0,-1,1294,477,0,0
77,547,0,0,0,0,0,0,0,0,0,-1,1301,477,0,0
84,547,0,0,0,0,0,0,0,0,0,-1,1308,477,0,0
91,547,0,0,0,0,0,0,0,0,0,-1,1315,477,0,0
98,547,0,0,0,0,0,0,0,0,0,-1,1322,477,0,0
105,547,-0.0794678,-57.4594,0,0,0,0,0,0,0,-1,1329,477,-0.0794961,57.4593
112,547,-1.08606,-57.7089,0,0,0,0,0,0,0,-1,1336,477,-1.08605,57.7089
119,547,-2.85083,-59.5625,0,0,0,0,0,0,0,-1,1343,477,-2.85089,59.5625
126,547,-2.90625,-60.3185,-0.0449784,0.162975,0.0101535,0.16347,-0.045473,1.52212,0.126883,0.0446334,1350,477,-2.90624,60.3186
133,547,-3.08484,-60.8273,-0.0379722,0.191919,0.0200756,0.193659,-0.0397121,1.48434,0.144178,0.0471646,1357,477,-3.08486,60.8273
140,547,-3.28613,-61.3721,0,0,0,0,0,0,0,-1,1364,477,-3.28608,61.3721
147,547,-4.02319,-60.9532,0,0,0,0,0,0,0,-1,1371,477,-4.02319,60.9532
154,547,-4.40088,-59.8938,-0.0307208,0.239589,0.0626296,0.253395,-0.0445266,1.35383,0.185561,0.0486174,1378,477,-4.40094,59.8938
161,547,-4.76147,-58.6212,-0.0306257,0.256786,0.0827894,0.278928,-0.0527675,1.30947,0.205809,0.0479384,1385,477,-4.76147,58.6211
168,547,-4.80286,-57.2298,0,0,0,0,0,0,0,-1,1392,477,-4.80285,57.2298
175,547,3.35034,-0.26532,0,0,0,0,0,0,0,-1,1399,477,3.3503,0.265306
182,547,4.26038,3.72672,0,0,0,0,0,0,0,-1,1406,477,4.26039,-3.7267
189,547,3.40454,1.28671,0,0,0,0,0,0,0,-1,1413,477,3.40457,-1.28673
196,547,3.53931,1.87793,0,0,0,0,0,0,0,-1,1420,477,3.53928,-1.87794
203,547,6.49414,-0.425842,0,0,0,0,0,0,0,-1,1427,477,6.4941,0.425844
210,547,4.82092,0.53595,0,0,0,0,0,0,0,-1,1434,477,4.82096,-0.535942
217,547,4.68579,0.480072,0,0,0,0,0,0,0,-1,1441,477,4.68577,-0.480069
224,547,4.55615,0.739807,0,0,0,0,0,0,0,-1,1448,477,4.55613,-0.73981
231,547,5.90869,-3.57721,0,0,0,0,0,0,0,-1,1455,477,5.90871,3.57722
238,547,5.50049,-3.15356,0,0,0,0,0,0,0,-1,1462,477,5.50045,3.15356
245,547,5.13708,-2.65213,0,0,0,0,0,0,0,-1,1469,477,5.13708,2.65212
252,547,3.73511,-0.645233,0,0,0,0,0,0,0,-1,1476,477,3.73515,0.645237
259,547,5.86816,-3.20816,0,0,0,0,0,0,0,-1,1483,477,5.86815,3.20816
266,547,5.40222,-2.45731,0,0,0,0,0,0,0,-1,1490,477,5.40221,2.45732
273,547,3.05737,0.495789,0,0,0,0,0,0,0,-1,1497,477,3.05742,-0.49578
280,547,2.0885,1.47797,0,0,0,0,0,0,0,-1,1504,477,2.08848,-1.47795
287,547,2.31177,-2.21716,0,0,0,0,0,0,0,-1,1511,477,2.31174,2.21717
294,547,2.4823,-3.03659,0,0,0,0,0,0,0,-1,1518,477,2.48229,3.0366
301,547,4.72119,-3.93454,0,0,0,0,0,0,0,-1,1525,477,4.72119,3.93453
308,547,12.5525,-40.0369,0,0,0,0,0,0,0,-1,1532,477,12.5525,40.0369
315,547,12.7864,-40.2025,0,0,0,0,0,0,0,-1,1539,477,12.7863,40.2025
322,547,12.8568,-39.8303,0,0,0,0,0,0,0,-1,1546,477,12.8568,39.8303
329,547,12.6754,-39.2861,0.0144957,-0.0207946,-0.00636742,0.0156095,-0.0219083,-0.173158,0.0217624,0.048518,1553,477,12.6754,39.2861
336,547,13.1946,-38.9166,0.0119878,-0.0171692,-0.00592475,0.0131457,-0.0183271,-0.193007,0.0182528,0.0393555,1560,477,13.1945,38.9166
343,547,13.1819,-38.4305,0.00943898,-0.013498,-0.00531615,0.0106112,-0.0146702,-0.21703,0.0146588,0.0325538,1567,477,13.1819,38.4305
350,547,13.0743,-37.7816,0.0070797,-0.0108305,-0.00481875,0.00829387,-0.0120447,-0.246831,0.0118088,0.0233366,1574,477,13.0744,37.7816
357,547,13.0568,-37.1331,0.00513195,-0.0081751,-0.00418517,0.00633877,-0.00938192,-0.28074,0.00913286,0.0150535,1581,477,13.0567,37.133
364,547,13.0402,-36.504,0.00352574,-0.00553711,-0.00336759,0.00464006,-0.00665144,-0.319556,0.00655354,0.0102074,1588,477,13.0402,36.504
371,547,13.0355,-35.8441,0.00247525,-0.00382683,-0.00258404,0.00339929,-0.00475087,-0.343427,0.00472702,0.010106,1595,477,13.0355,35.8441
378,547,13.0155,-35.1847,0.00172077,-0.00229124,-0.00187335,0.00245949,-0.00302996,-0.375608,0.00317504,0.0104664,1602,477,13.0155,35.1847
385,547,12.989,-34.5241,0.00086139,-0.000879719,-0.0012366,0.00150313,-0.00152146,-0.478698,0.00174626,0.0106226,1609,477,12.9891,34.5241
392,547,12.9619,-33.8384,0.000618911,8.85339e-05,-0.000472397,0.000895463,-0.000188019,-0.529634,0.000668521,0.0117952,1616,477,12.9619,33.8384
399,547,12.9167,-33.1717,0.000681244,0.00082888,6.4595e-05,0.000853152,0.000656972,1.21137,0.00051596,0.0140805,1623,477,12.9167,33.1717
406,547,12.9073,-32.4997,0.000675027,0.0014893,0.000443444,0.00168416,0.000480165,1.15677,0.00100184,0.0133688,1630,477,12.9074,32.4997
413,547,12.9058,-31.7971,0.000618579,0.00209279,0.000769812,0.00242149,0.000289882,1.16725,0.0015269,0.0130658,1637,477,12.9058,31.7972
420,547,12.8877,-31.1125,0.000541328,0.00236632,0.00100708,0.00281281,9.48339e-05,1.15348,0.00184441,0.0156316,1644,477,12.8877,31.1125
427,547,12.8588,-30.397,0.000497315,0.00232361,0.00128238,0.00298474,-0.00016381,1.09479,0.00204662,0.0148908,1651,477,12.8588,30.397
434,547,12.7751,-29.7007,0.0004373,0.00223412,0.00153163,0.00311138,-0.000439969,1.05064,0.00223539,0.0104204,1658,477,12.7752,29.7007
441,547,12.7223,-29.0138,0.000364031,0.0019764,0.00180261,0.00314489,-0.000804459,0.995672,0.00240992,0.0112959,1665,477,12.7223,29.0138
448,547,12.6925,-28.2696,0.000327666,0.00148981,0.00222746,0.00321074,-0.00139327,0.912988,0.00272629,0.0120036,1672,477,12.6925,28.2696
455,547,12.6743,-27.5299,0.000294303,0.000813617,0.00281556,0.00338147,-0.00227355,0.831379,0.00328575,0.0119611,1679,477,12.6743,27.5299
462,547,12.6133,-26.8002,0.000452112,0.000199571,0.00360689,0.00393494,-0.00328326,0.767901,0.00417309,0.0111232,1686,477,12.6132,26.8002
469,547,12.5189,-26.049,0.000822365,-0.000478695,0.00458876,0.00480648,-0.00446281,0.714984,0.00535285,0.0195474,1693,477,12.519,26.049
476,547,12.4623,-25.1045,0.00131286,-0.00134429,0.00580635,0.00594069,-0.00597213,0.672927,0.00687787,0.0377951,1700,477,12.4623,25.1045
483,547,12.4612,-24.0818,0,0,0,0,0,0,0,-1,1707,477,12.4612,24.0818
490,547,3.65271,-3.71707,0,0,0,0,0,0,0,-1,1714,477,3.65277,3.71708
497,547,2.55481,-3.81421,0,0,0,0,0,0,0,-1,1721,477,2.55476,3.8142
504,547,4.01953,-2.22714,0,0,0,0,0,0,0,-1,1728,477,4.0195,2.22713
511,547,5.2146,-6.9552,0,0,0,0,0,0,0,-1,1735,477,5.21464,6.95521
518,547,5.24243,-6.56122,0,0,0,0,0,0,0,-1,1742,477,5.24241,6.56121
525,547,5.89368,-5.49866,0,0,0,0,0,0,0,-1,1749,477,5.89372,5.49866
532,547,0,0,0,0,0,0,0,0,0,-1,1756,477,0,0
539,547,0,0,0,0,0,0,0,0,0,-1,1763,477,0,0
546,547,0,0,0,0,0,0,0,0,0,-1,1770,477,0,0
553,547,0,0,0,0,0,0,0,0,0,-1,1777,477,0,0
560,547,0,0,0,0,0,0,0,0,0,-1,1784,477,0,0
567,547,0,0,0,0,0,0,0,0,0,-1,1791,477,0,0
574,547,0,0,0,0,0,0,0,0,0,-1,1798,477,0,0
581,547,0,0,0,0,0,0,0,0,0,-1,1805,477,0,0
588,547,0,0,0,0,0,0,0,0,0,-1,1812,477,0,0
595,547,0,0,0,0,0,0,0,0,0,-1,1819,477,0,0
602,547,0,0,0,0,0,0,0,0,0,-1,1826,477,0,0
609,547,0,0,0,0,0,0,0,0,0,-1,1833,477,0,0
616,547,0,0,0,0,0,0,0,0,0,-1,1840,477,0,0
623,547,0,0,0,0,0,0,0,0,0,-1,1847,477,0,0
630,547,0,0,0,0,0,0,0,0,0,-1,1854,477,0,0
637,547,0,0,0,0,0,0,0,0,0,-1,1861,477,0,0
644,547,0,0,0,0,0,0,0,0,0,-1,1868,477,0,0
651,547,0,0,0,0,0,0,0,0,0,-1,1875,477,0,0
658,547,0,0,0,0,0,0,0,0,0,-1,1882,477,0,0
665,547,0,0,0,0,0,0,0,0,0,-1,1889,477,0,0
672,547,0,0,0,0,0,0,0,0,0,-1,1896,477,0,0
679,547,0,0,0,0,0,0,0,0,0,-1,1903,477,0,0
686,547,0,0,0,0,0,0,0,0,0,-1,1910,477,0,0
693,547,0,0,0,0,0,0,0,0,0,-1,1917,477,0,0
700,547,0,0,0,0,0,0,0,0,0,-1,1924,477,0,0
707,547,0,0,0,0,0,0,0,0,0,-1,1931,477,0,0
714,547,0,0,0,0,0,0,0,0,0,-1,1938,477,0,0
721,547,0,0,0,0,0,0,0,0,0,-1,1945,477,0,0
728,547,0,0,0,0,0,0,0,0,0,-1,1952,477,0,0
735,547,0,0,0,0,0,0,0,0,0,-1,1959,477,0,0
742,547,0,0,0,0,0,0,0,0,0,-1,1966,477,0,0
749,547,0,0,0,0,0,0,0,0,0,-1,1973,477,0,0
756,547,0,0,0,0,0,0,0,0,0,-1,1980,477,0,0
763,547,0,0,0,0,0,0,0,0,0,-1,1987,477,0,0
770,547,0,0,0,0,0,0,0,0,0,-1,1994,477,0,0
777,547,0,0,0,0,0,0,0,0,0,-1,2001,477,0,0
784,547,0,0,0,0,0,0,0,0,0,-1,2008,477,0,0
791,547,0,0,0,0,0,0,0,0,0,-1,2015,477,0,0
798,547,0,0,0,0,0,0,0,0,0,-1,2022,477,0,0
805,547,0,0,0,0,0,0,0,0,0,-1,2029,477,0,0
812,547,0,0,0,0,0,0,0,0,0,-1,2036,477,0,0
-700,540,0,0,0,0,0,0,0,0,0,-1,524,484,0,0
-693,540,0,0,0,0,0,0,0,0,0,-1,531,484,0,0
-686,540,0,0,0,0,0,0,0,0,0,-1,538,484,0,0
-679,540,0,0,0,0,0,0,0,0,0,-1,545,484,0,0
-672,540,0,0,0,0,0,0,0,0,0,-1,552,484,0,0
-665,540,0,0,0,0,0,0,0,0,0,-1,559,484,0,0
-658,540,0,0,0,0,0,0,0,0,0,-1,566,484,0,0
-651,540,0,0,0,0,0,0,0,0,0,-1,573,484,0,0
-644,540,0,0,0,0,0,0,0,0,0,-1,580,484,0,0
-637,540,0,0,0,0,0,0,0,0,0,-1,587,484,0,0
-630,540,0,0,0,0,0,0,0,0,0,-1,594,484,0,0
-623,540,0,0,0,0,0,0,0,0,0,-1,601,484,0,0
-616,540,0,0,0,0,0,0,0,0,0,-1,608,484,0,0
-609,540,0,0,0,0,0,0,0,0,0,-1,615,484,0,0
-602,540,0,0,0,0,0,0,0,0,0,-1,622,484,0,0
-595,540,0,0,0,0,0,0,0,0,0,-1,629,484,0,0
-588,540,0,0,0,0,0,0,0,0,0,-1,636,484,0,0
-581,540,0,0,0,0,0,0,0,0,0,-1,643,484,0,0
-574,540,0,0,0,0,0,0,0,0,0,-1,650,484,0,0
-567,540,0,0,0,0,0,0,0,0,0,-1,657,484,0,0
-560,540,0,0,0,0,0,0,0,0,0,-1,664,484,0,0
-553,540,0,0,0,0,0,0,0,0,0,-1,671,484,0,0
-546,540,0,0,0,0,0,0,0,0,0,-1,678,484,0,0
-539,540,0,0,0,0,0,0,0,0,0,-1,685,484,0,0
-532,540,0,0,0,0,0,0,0,0,0,-1,692,484,0,0
-525,540,0,0,0,0,0,0,0,0,0,-1,699,484,0,0
-518,540,0,0,0,0,0,0,0,0,0,-1,706,484,0,0
-511,540,0,0,0,0,0,0,0,0,0,-1,713,484,0,0
-504,540,0,0,0,0,0,0,0,0,0,-1,720,484,0,0
-497,540,0,0,0,0,0,0,0,0,0,-1,727,484,0,0
-490,540,0,0,0,0,0,0,0,0,0,-1,734,484,0,0
-483,540,0,0,0,0,0,0,0,0,0,-1,741,484,0,0
-476,540,0,0,0,0,0,0,0,0,0,-1,748,484,0,0
-469,540,0,0,0,0,0,0,0,0,0,-1,755,484,0,0
-462,540,0,0,0,0,0,0,0,0,0,-1,762,484,0,0
-455,540,0,0,0,0,0,0,0,0,0,-1,769,484,0,0
-448,540,0,0,0,0,0,0,0,0,0,-1,776,484,0,0
-441,540,0,0,0,0,0,0,0,0,0,-1,783,484,0,0
-434,540,0,0,0,0,0,0,0,0,0,-1,790,484,0,0
-427,540,0,0,0,0,0,0,0,0,0,-1,797,484,0,0
-420,540,0.227051,-10.0402,0,0,0,0,0,0,0,-1,804,484,0.227063,10.0402
-413,540,-0.0393677,-10.3862,0,0,0,0,0,0,0,-1,811,484,-0.0393683,10.3862
-406,540,-0.518372,-11.5288,0,0,0,0,0,0,0,-1,818,484,-0.518402,11.5288
-399,540,0.0863037,-11.3801,0,0,0,0,0,0,0,-1,825,484,0.0863201,11.3801
-392,540,-0.517395,-10.6735,0,0,0,0,0,0,0,-1,832,484,-0.517377,10.6735
-385,540,-2.29407,-5.03418,0,0,0,0,0,0,0,-1,839,484,-2.29408,5.03418
-378,540,1.06445,-10.5824,0,0,0,0,0,0,0,-1,846,484,1.06446,10.5824
-371,540,0.381775,-23.109,0,0,0,0,0,0,0,-1,853,484,0.381746,23.109
-364,540,0.464844,-23.9944,0.00486036,0.0310631,-0.0076532,0.0331346,0.00278881,-1.30645,0.0212213,0.048077,860,484,0.464839,23.9944
-357,540,0.454834,-24.6846,0.00295298,0.0260949,-0.00670299,0.0278962,0.00115168,-1.30827,0.0182257,0.0458703,867,484,0.454847,24.6846
-350,540,0.315613,-25.6693,0.00144367,0.0215305,-0.00579641,0.0230831,-0.000108979,-1.30908,0.0154252,0.0371153,874,484,0.315598,25.6693
-343,540,0.177429,-26.7397,0.000416876,0.0175055,-0.00497788,0.0188498,-0.000927418,-1.30703,0.0128868,0.0199798,881,484,0.17743,26.7397
-336,540,0.0881958,-27.6221,-0.000198552,0.0141013,-0.0042702,0.0152794,-0.00137665,-1.3016,0.0106748,0.0129506,888,484,0.0881849,27.6221
-329,540,0.0405273,-28.3322,-0.000515194,0.0110591,-0.00359027,0.0120823,-0.00153841,-1.29316,0.00861361,0.0103002,895,484,0.0405041,28.3321
-322,540,0.00366211,-29.0463,-0.000688325,0.00837664,-0.00282255,0.00918365,-0.00149534,-1.29231,0.00667693,0.0141513,902,484,0.00365965,29.0462
-315,540,-0.0292358,-29.7542,-0.000650767,0.00619365,-0.00211635,0.00679518,-0.00125229,-1.29387,0.0050001,0.0127952,909,484,-0.02922,29.7542
-308,540,-0.0421143,-30.426,-0.000562652,0.00447261,-0.00165022,0.00496524,-0.00105529,-1.28069,0.00371226,0.0123139,916,484,-0.0421091,30.426
-301,540,-0.0913086,-31.0752,-0.000316261,0.00299635,-0.00121137,0.00339206,-0.000711971,-1.25506,0.00253229,0.0132038,923,484,-0.0913202,31.0752
-294,540,-0.110046,-31.7448,0.000118222,0.00193933,-0.000610835,0.00212524,-6.76856e-05,-1.27535,0.00143992,0.0121104,930,484,-0.110036,31.7448
-287,540,-0.109985,-32.443,0.000557766,0.0010493,-5.63317e-05,0.00105567,0.000551393,-1.45814,0.000609694,0.00876232,937,484,-0.109969,32.443
-280,540,-0.133667,-33.1397,0.000876319,-0.000684583,0.000462189,0.00100291,-0.000811172,0.267335,0.00104931,0.0104306,944,484,-0.133647,33.1397
-273,540,-0.165771,-33.8132,0.00131459,-0.00293425,0.000976815,0.0015284,-0.00314806,0.215488,0.00275341,0.0128495,951,484,-0.165755,33.8132
-266,540,-0.184326,-34.4542,0.00173235,-0.00525815,0.00165026,0.00210235,-0.00562815,0.220557,0.00461535,0.0137839,958,484,-0.184337,34.4541
-259,540,-0.206421,-35.1061,0.00213104,-0.00807393,0.00248613,0.00270449,-0.00864737,0.226694,0.00684683,0.0126596,965,484,-0.206419,35.1061
-252,540,-0.217957,-35.722,0.00246798,-0.0113574,0.00348192,0.00329538,-0.0121848,0.233302,0.00941586,0.0119386,972,484,-0.217967,35.722
-245,540,-0.237122,-36.3387,0.00288657,-0.0150947,0.00448835,0.00394465,-0.0161528,0.231513,0.0122962,0.0129444,979,484,-0.237109,36.3387
-238,540,-0.257019,-36.9761,0.00336716,-0.0192222,0.00556406,0.00466329,-0.0205183,0.228866,0.0154694,0.0102263,986,484,-0.256999,36.976
-231,540,-0.267151,-37.561,0.00384242,-0.0236018,0.00670116,0.00539126,-0.0251507,0.227141,0.0188233,0.0134439,993,484,-0.267136,37.561
-224,540,-0.284058,-38.1049,0.00408275,-0.0280332,0.00809447,0.00600752,-0.029958,0.233452,0.0222465,0.0219993,1000,484,-0.284069,38.1048
-217,540,-0.273743,-38.5025,0.00435513,-0.03235,0.00958935,0.00670939,-0.0347042,0.240746,0.0256666,0.0338391,1007,484,-0.273769,38.5025
-210,540,-0.263184,-38.9105,0.0045753,-0.0362119,0.0108881,0.00729984,-0.0389364,0.245198,0.028702,0.0430728,1014,484,-0.263179,38.9105
-203,540,-0.33197,-39.3892,0.00472602,-0.0393446,0.0120156,0.00778908,-0.0424077,0.249608,0.031194,0.046226,1021,484,-0.331987,39.3892
-196,540,-0.414673,-39.7066,0,0,0,0,0,0,0,-1,1028,484,-0.414658,39.7066
-189,540,0.349976,-37.5828,0,0,0,0,0,0,0,-1,1035,484,0.349993,37.5828
-182,540,0.109375,-15.2948,0,0,0,0,0,0,0,-1,1042,484,0.109331,15.2948
-175,540,1.73413,-10.728,0,0,0,0,0,0,0,-1,1049,484,1.73414,10.728
-168,540,1.18164,-7.65347,0,0,0,0,0,0,0,-1,1056,484,1.18163,7.65347
-161,540,-0.405884,-9.86481,0,0,0,0,0,0,0,-1,1063,484,-0.405886,9.8648
-154,540,1.96863,-22.0727,0,0,0,0,0,0,0,-1,1070,484,1.96859,22.0727
-147,540,1.32764,-21.9952,0,0,0,0,0,0,0,-1,1077,484,1.32762,21.9952
-140,540,1.40735,-15.6289,0,0,0,0,0,0,0,-1,1084,484,1.4073,15.6289
-133,540,2.28345,-17.6413,0,0,0,0,0,0,0,-1,1091,484,2.2835,17.6413
-126,540,1.25293,-23.9108,0,0,0,0,0,0,0,-1,1098,484,1.25288,23.9108
-119,540,1.55969,-23.0125,0,0,0,0,0,0,0,-1,1105,484,1.55968,23.0125
-112,540,1.4801,-21.6515,0,0,0,0,0,0,0,-1,1112,484,1.4801,21.6515
-105,540,1.30078,-19.8938,0,0,0,0,0,0,0,-1,1119,484,1.30077,19.8938
-98,540,1.08105,-18.1304,0,0,0,0,0,0,0,-1,1126,484,1.08101,18.1304
-91,540,1.56519,-7.48666,0,0,0,0,0,0,0,-1,1133,484,1.56514,7.48667
-84,540,-0.945923,4.43073,0,0,0,0,0,0,0,-1,1140,484,-0.945891,-4.43074
-77,540,-2.28894,2.14368,0,0,0,0,0,0,0,-1,1147,484,-2.28894,-2.14368
-70,540,-3.75244,-0.452576,0,0,0,0,0,0,0,-1,1154,484,-3.75244,0.452576
-63,540,-5.26257,-3.04767,0,0,0,0,0,0,0,-1,1161,484,-5.26262,3.04766
-56,540,-5.19055,-6.12595,0,0,0,0,0,0,0,-1,1168,484,-5.19057,6.12595
-49,540,-5.63867,-8.52298,0,0,0,0,0,0,0,-1,1175,484,-5.63871,8.52298
-42,540,0,0,0,0,0,0,0,0,0,-1,1182,484,0,0
-35,540,0,0,0,0,0,0,0,0,0,-1,1189,484,0,0
-28,540,0,0,0,0,0,0,0,0,0,-1,1196,484,0,0
-21,540,0,0,0,0,0,0,0,0,0,-1,1203,484,0,0
-14,540,0,0,0,0,0,0,0,0,0,-1,1210,484,0,0
-7,540,0,0,0,0,0,0,0,0,0,-1,1217,484,0,0
0,540,0,0,0,0,0,0,0,0,0,-1,1224,484,0,0
7,540,0,0,0,0,0,0,0,0,0,-1,1231,484,0,0
14,540,0,0,0,0,0,0,0,0,0,-1,1238,484,0,0
21,540,0,0,0,0,0,0,0,0,0,-1,1245,484,0,0
28,540,0,0,0,0,0,0,0,0,0,-1,1252,484,0,0
35,540,0,0,0,0,0,0,0,0,0,-1,1259,484,0,0
42,540,0,0,0,0,0,0,0,0,0,-1,1266,484,0,0
49,540,0,0,0,0,0,0,0,0,0,-1,1273,484,0,0
56,540,0,0,0,0,0,0,0,0,0,-1,1280,484,0,0
63,540,0,0,0,0,0,0,0,0,0,-1,1287,484,0,0
70,540,0,0,0,0,0,0,0,0,0,-1,1294,484,0,0
77,540,0,0,0,0,0,0,0,0,0,-1,1301,484,0,0
84,540,0,0,0,0,0,0,0,0,0,-1,1308,484,0,0
91,540,0,0,0,0,0,0,0,0,0,-1,1315,484,0,0
98,540,0,0,0,0,0,0,0,0,0,-1,1322,484,0,0
105,540,0,0,0,0,0,0,0,0,0,-1,1329,484,0,0
112,540,0,0,0,0,0,0,0,0,0,-1,1336,484,0,0
119,540,0,0,0,0,0,0,0,0,0,-1,1343,484,0,0
126,540,0,0,0,0,0,0,0,0,0,-1,1350,484,0,0
133,540,0,0,0,0,0,0,0,0,0,-1,1357,484,0,0
140,540,0,0,0,0,0,0,0,0,0,-1,1364,484,0,0
147,540,0,0,0,0,0,0,0,0,0,-1,1371,484,0,0
154,540,0,0,0,0,0,0,0,0,0,-1,1378,484,0,0
161,540,0,0,0,0,0,0,0,0,0,-1,1385,484,0,0
168,540,3.05078,-0.0010376,0,0,0,0,0,0,0,-1,1392,484,3.05084,0.00102554
175,540,3.37708,0.617035,0,0,0,0,0,0,0,-1,1399,484,3.37707,-0.617046
182,540,3.32678,1.23267,0,0,0,0,0,0,0,-1,1406,484,3.32678,-1.23266
189,540,3.5813,2.15619,0,0,0,0,0,0,0,-1,1413,484,3.58129,-2.1562
196,540,1.84448,-0.801483,0,0,0,0,0,0,0,-1,1420,484,1.84446,0.80148
203,540,4.14648,0.702087,0,0,0,0,0,0,0,-1,1427,484,4.14645,-0.702089
210,540,4.50671,-0.56076,0,0,0,0,0,0,0,-1,1434,484,4.50667,0.560771
217,540,5.00452,-0.278717,0,0,0,0,0,0,0,-1,1441,484,5.00452,0.278709
224,540,6.44458,-2.83527,0,0,0,0,0,0,0,-1,1448,484,6.44457,2.83525
231,540,6.9231,-3.10504,0,0,0,0,0,0,0,-1,1455,484,6.92307,3.10505
238,540,6.4823,-2.58365,0,0,0,0,0,0,0,-1,1462,484,6.48225,2.58363
245,540,6.02087,-1.97916,0,0,0,0,0,0,0,-1,1469,484,6.02088,1.97915
252,540,6.50647,-3.56006,0,0,0,0,0,0,0,-1,1476,484,6.50649,3.56006
259,540,6.01941,-2.798,0,0,0,0,0,0,0,-1,1483,484,6.01941,2.79801
266,540,5.5332,-2.02853,0,0,0,0,0,0,0,-1,1490,484,5.53323,2.02855
273,540,5.06787,-1.28137,0,0,0,0,0,0,0,-1,1497,484,5.06786,1.28136
280,540,1.62903,-2.14609,0,0,0,0,0,0,0,-1,1504,484,1.62906,2.1461
287,540,1.97156,-2.45053,0,0,0,0,0,0,0,-1,1511,484,1.97159,2.45053
294,540,2.44165,-2.6185,0,0,0,0,0,0,0,-1,1518,484,2.44167,2.6185
301,540,4.36169,-2.54272,0,0,0,0,0,0,0,-1,1525,484,4.36165,2.54272
308,540,4.2019,-4.30469,0,0,0,0,0,0,0,-1,1532,484,4.20193,4.3047
315,540,4.45923,-5.32101,0,0,0,0,0,0,0,-1,1539,484,4.45923,5.32103
322,540,4.71655,-6.33737,0,0,0,0,0,0,0,-1,1546,484,4.71653,6.33736
329,540,12.9161,-39.2255,0,0,0,0,0,0,0,-1,1553,484,12.9161,39.2255
336,540,14.0172,-38.9547,0,0,0,0,0,0,0,-1,1560,484,14.0172,38.9546
343,540,13.9966,-38.4927,0,0,0,0,0,0,0,-1,1567,484,13.9966,38.4927
350,540,13.6978,-37.8128,0,0,0,0,0,0,0,-1,1574,484,13.6978,37.8128
357,540,13.7928,-36.8812,0.00625277,-0.0106165,-0.0056517,0.00797121,-0.0123349,-0.295174,0.0118136,0.0428174,1581,484,13.7929,36.8812
364,540,13.6785,-36.3613,0.00423328,-0.00748211,-0.00471902,0.00589767,-0.0091465,-0.339076,0.00875301,0.0257668,1588,484,13.6784,36.3613
371,540,13.652,-35.7898,0.00290594,-0.00549202,-0.00386253,0.00441228,-0.00699835,-0.371844,0.00664409,0.0179004,1595,484,13.6519,35.7898
378,540,13.6693,-35.1362,0.00196587,-0.00371531,-0.003064,0.00330344,-0.00505288,-0.411608,0.00485964,0.0135344,1602,484,13.6693,35.1362
385,540,13.6519,-34.4878,0.000891468,-0.00216121,-0.00230271,0.00212777,-0.00339751,-0.492722,0.00321798,0.0143495,1609,484,13.6519,34.4878
392,540,13.6111,-33.8167,0.000544585,-0.00112088,-0.00142454,0.00136193,-0.00193822,-0.520903,0.001915,0.012107,1616,484,13.6111,33.8167
399,540,13.577,-33.151,0.000602947,-0.000255498,-0.000813977,0.00109394,-0.000746487,-0.542768,0.00106886,0.0167334,1623,484,13.577,33.151
406,540,13.5854,-32.4786,0.00063516,0.000475966,-0.000349773,0.000914278,0.000196847,-0.673519,0.00055565,0.0180913,1630,484,13.5854,32.4786
413,540,13.5641,-31.7631,0.000647394,0.00120605,9.6249e-05,0.00122217,0.000631276,1.40488,0.000705747,0.0142051,1637,484,13.5641,31.7631
420,540,13.5583,-31.0532,0.000610629,0.00160691,0.000421586,0.00176137,0.000456176,1.21962,0.00105557,0.0137135,1644,484,13.5583,31.0532
427,540,13.5125,-30.3635,0.000581946,0.00174821,0.000752097,0.00211676,0.000213398,1.11516,0.00134569,0.0141748,1651,484,13.5125,30.3634
434,540,13.4548,-29.663,0.000534289,0.0017961,0.00107189,0.00240897,-7.85835e-05,1.05139,0.00163281,0.0166438,1658,484,13.4548,29.663
441,540,13.4662,-28.944,0.000504839,0.00173155,0.00143137,0.00267545,-0.00043906,0.987817,0.00194656,0.0204605,1665,484,13.4662,28.944
448,540,13.4202,-28.2486,0.000509918,0.00142934,0.00190545,0.00292975,-0.000990493,0.903767,0.00235385,0.0121317,1672,484,13.4201,28.2486
455,540,13.3881,-27.5119,0.000519606,0.00102834,0.0025377,0.00332439,-0.00177645,0.835349,0.00298983,0.0108551,1679,484,13.388,27.5119
462,540,13.3188,-26.7788,0.000690404,0.000654503,0.00329337,0.00396587,-0.00262096,0.782673,0.00382924,0.0109856,1686,484,13.3189,26.7788
469,540,13.2643,-26.0364,0.0010523,0.000266676,0.00418948,0.00486735,-0.00354837,0.738654,0.00487867,0.0149466,1693,484,13.2643,26.0364
476,540,13.2354,-25.3022,0.00149521,-0.000236951,0.00527062,0.00597043,-0.00471217,0.703964,0.00618185,0.022394,1700,484,13.2353,25.3023
483,540,13.2721,-24.4841,0.00208118,-0.000768738,0.00650955,0.00731991,-0.00600747,0.677646,0.007707,0.0393274,1707,484,13.2721,24.4841
490,540,13.4299,-23.5905,0,0,0,0,0,0,0,-1,1714,484,13.4299,23.5904
497,540,10.3452,-16.9359,0,0,0,0,0,0,0,-1,1721,484,10.3453,16.9359
504,540,12.519,-18.0764,0,0,0,0,0,0,0,-1,1728,484,12.519,18.0765
511,540,5.82471,-6.83521,0,0,0,0,0,0,0,-1,1735,484,5.82465,6.83522
518,540,9.98181,-12.4608,0,0,0,0,0,0,0,-1,1742,484,9.98187,12.4608
525,540,12.4843,-16.3481,0,0,0,0,0,0,0,-1,1749,484,12.4842,16.3481
532,540,2.84265,-1.07925,0,0,0,0,0,0,0,-1,1756,484,2.84269,1.07927
539,540,0,0,0,0,0,0,0,0,0,-1,1763,484,0,0
546,540,0,0,0,0,0,0,0,0,0,-1,1770,484,0,0
553,540,0,0,0,0,0,0,0,0,0,-1,1777,484,0,0
560,540,0,0,0,0,0,0,0,0,0,-1,1784,484,0,0
567,540,0,0,0,0,0,0,0,0,0,-1,1791,484,0,0
574,540,0,0,0,0,0,0,0,0,0,-1,1798,484,0,0
581,540,0,0,0,0,0,0,0,0,0,-1,1805,484,0,0
588,540,0,0,0,0,0,0,0,0,0,-1,1812,484,0,0
595,540,0,0,0,0,0,0,0,0,0,-1,1819,484,0,0
602,540,0,0,0,0,0,0,0,0,0,-1,1826,484,0,0
609,540,0,0,0,0,0,0,0,0,0,-1,1833,484,0,0
616,540,0,0,0,0,0,0,0,0,0,-1,1840,484,0,0
623,540,0,0,0,0,0,0,0,0,0,-1,1847,484,0,0
630,540,0,0,0,0,0,0,0,0,0,-1,1854,484,0,0
637,540,0,0,0,0,0,0,0,0,0,-1,1861,484,0,0
644,540,0,0,0,0,0,0,0,0,0,-1,1868,484,0,0
651,540,0,0,0,0,0,0,0,0,0,-1,1875,484,0,0
658,540,0,0,0,0,0,0,0,0,0,-1,1882,484,0,0
665,540,0,0,0,0,0,0,0,0,0,-1,1889,484,0,0
672,540,0,0,0,0,0,0,0,0,0,-1,1896,484,0,0
679,540,0,0,0,0,0,0,0,0,0,-1,1903,484,0,0
686,540,0,0,0,0,0,0,0,0,0,-1,1910,484,0,0
693,540,0,0,0,0,0,0,0,0,0,-1,1917,484,0,0
700,540,0,0,0,0,0,0,0,0,0,-1,1924,484,0,0
707,540,0,0,0,0,0,0,0,0,0,-1,1931,484,0,0
714,540,0,0,0,0,0,0,0,0,0,-1,1938,484,0,0
721,540,0,0,0,0,0,0,0,0,0,-1,1945,484,0,0
728,540,0,0,0,0,0,0,0,0,0,-1,1952,484,0,0
735,540,0,0,0,0,0,0,0,0,0,-1,1959,484,0,0
742,540,0,0,0,0,0,0,0,0,0,-1,1966,484,0,0
749,540,0,0,0,0,0,0,0,0,0,-1,1973,484,0,0
756,540,0,0,0,0,0,0,0,0,0,-1,1980,484,0,0
763,540,0,0,0,0,0,0,0,0,0,-1,1987,484,0,0
770,540,0,0,0,0,0,0,0,0,0,-1,1994,484,0,0
777,540,0,0,0,0,0,0,0,0,0,-1,2001,484,0,0
784,540,0,0,0,0,0,0,0,0,0,-1,2008,484,0,0
791,540,0,0,0,0,0,0,0,0,0,-1,2015,484,0,0
798,540,0,0,0,0,0,0,0,0,0,-1,2022,484,0,0
805,540,0,0,0,0,0,0,0,0,0,-1,2029,484,0,0
812,540,0,0,0,0,0,0,0,0,0,-1,2036,484,0,0
-700,533,0,0,0,0,0,0,0,0,0,-1,524,491,0,0
-693,533,0,0,0,0,0,0,0,0,0,-1,531,491,0,0
-686,533,0,0,0,0,0,0,0,0,0,-1,538,491,0,0
-679,533,0,0,0,0,0,0,0,0,0,-1,545,491,0,0
-672,533,0,0,0,0,0,0,0,0,0,-1,552,491,0,0
-665,533,0,0,0,0,0,0,0,0,0,-1,559,491,0,0
-658,533,0,0,0,0,0,0,0,0,0,-1,566,491,0,0
-651,533,0,0,0,0,0,0,0,0,0,-1,573,491,0,0
-644,533,0,0,0,0,0,0,0,0,0,-1,580,491,0,0
-637,533,0,0,0,0,0,0,0,0,0,-1,587,491,0,0
-630,533,0,0,0,0,0,0,0,0,0,-1,594,491,0,0
-623,533,0,0,0,0,0,0,0,0,0,-1,601,491,0,0
-616,533,0,0,0,0,0,0,0,0,0,-1,608,491,0,0
-609,533,0,0,0,0,0,0,0,0,0,-1,615,491,0,0
-602,533,0,0,0,0,0,0,0,0,0,-1,622,491,0,0
-595,533,0,0,0,0,0,0,0,0,0,-1,629,491,0,0
-588,533,0,0,0,0,0,0,0,0,0,-1,636,491,0,0
-581,533,0,0,0,0,0,0,0,0,0,-1,643,491,0,0
-574,533,0,0,0,0,0,0,0,0,0,-1,650,491,0,0
-567,533,0,0,0,0,0,0,0,0,0,-1,657,491,0,0
-560,533,0,0,0,0,0,0,0,0,0,-1,664,491,0,0
-553,533,0,0,0,0,0,0,0,0,0,-1,671,491,0,0
-546,533,0,0,0,0,0,0,0,0,0,-1,678,491,0,0
-539,533,0,0,0,0,0,0,0,0,0,-1,685,491,0,0
-532,533,0,0,0,0,0,0,0,0,0,-1,692,491,0,0
-525,533,0,0,0,0,0,0,0,0,0,-1,699,491,0,0
-518,533,0,0,0,0,0,0,0,0,0,-1,706,491,0,0
-511,533,0,0,0,0,0,0,0,0,0,-1,713,491,0,0
-504,533,0,0,0,0,0,0,0,0,0,-1,720,491,0,0
-497,533,0,0,0,0,0,0,0,0,0,-1,727,491,0,0
-490,533,0,0,0,0,0,0,0,0,0,-1,734,491,0,0
-483,533,0,0,0,0,0,0,0,0,0,-1,741,491,0,0
-476,533,0,0,0,0,0,0,0,0,0,-1,748,491,0,0
-469,533,0,0,0,0,0,0,0,0,0,-1,755,491,0,0
-462,533,0,0,0,0,0,0,0,0,0,-1,762,491,0,0
-455,533,0,0,0,0,0,0,0,0,0,-1,769,491,0,0
-448,533,0,0,0,0,0,0,0,0,0,-1,776,491,0,0
-441,533,0,0,0,0,0,0,0,0,0,-1,783,491,0,0
-434,533,0,0,0,0,0,0,0,0,0,-1,790,491,0,0
-427,533,0.559814,-4.40222,0,0,0,0,0,0,0,-1,797,491,0.559816,4.40222
-420,533,-1.11127,-10.9054,0,0,0,0,0,0,0,-1,804,491,-1.11124,10.9054
-413,533,-0.704773,-11.0942,0,0,0,0,0,0,0,-1,811,491,-0.704742,11.0942
-406,533,-0.670898,-12.0899,0,0,0,0,0,0,0,-1,818,491,-0.670908,12.0899
-399,533,-0.455017,-12.4423,0,0,0,0,0,0,0,-1,825,491,-0.455032,12.4423
-392,533,-1.89661,-10.3905,0,0,0,0,0,0,0,-1,832,491,-1.89661,10.3905
-385,533,0.797729,-17.0485,0,0,0,0,0,0,0,-1,839,491,0.797746,17.0485
-378,533,-1.89435,-19.6771,0,0,0,0,0,0,0,-1,846,491,-1.89433,19.6771
-371,533,-0.450989,-23.3981,0,0,0,0,0,0,0,-1,853,491,-0.450966,23.3981
-364,533,-0.413879,-24.2747,0.00424617,0.0259925,-0.00785278,0.0285317,0.00170695,-1.25806,0.0184784,0.0452581,860,491,-0.413854,24.2747
-357,533,-0.387451,-25.1942,0.00277284,0.0218063,-0.00667013,0.0239111,0.00066809,-1.26514,0.0157227,0.027618,867,491,-0.387446,25.1942
-350,533,-0.43396,-26.046,0.00156139,0.0178973,-0.00557426,0.0196181,-0.000159428,-1.27137,0.0131322,0.0151991,874,491,-0.433937,26.046
-343,533,-0.496155,-26.8449,0.00071365,0.0143617,-0.00460387,0.0157695,-0.000694157,-1.27404,0.0107518,0.0130229,881,491,-0.496134,26.8449
-336,533,-0.582031,-27.6,0.000149883,0.0113343,-0.00373969,0.0124695,-0.000985321,-1.27608,0.00866013,0.0161617,888,491,-0.582038,27.6
-329,533,-0.638245,-28.3085,-0.000163409,0.00863467,-0.0029631,0.00953955,-0.00106829,-1.27441,0.00674406,0.0144368,895,491,-0.638266,28.3085
-322,533,-0.672485,-29.0233,-0.000344826,0.00621735,-0.00213171,0.00684903,-0.000976503,-1.28272,0.0049239,0.0118837,902,491,-0.67248,29.0233
-315,533,-0.701233,-29.7099,-0.000314772,0.00426837,-0.00136986,0.0046466,-0.000692995,-1.3014,0.00335269,0.0129183,909,491,-0.701216,29.7099
-308,533,-0.729736,-30.3943,-0.00017653,0.00275218,-0.000823871,0.00296804,-0.000392383,-1.31456,0.00212161,0.0123384,916,491,-0.729716,30.3944
-301,533,-0.776123,-31.0516,7.10966e-05,0.00151489,-0.00032892,0.00158629,-3.05707e-07,-1.35703,0.00105763,0.0142582,923,491,-0.776095,31.0516
-294,533,-0.771179,-31.7169,0.000479741,0.000648024,0.000266142,0.000843008,0.000284756,0.938503,0.000495175,0.0132891,930,491,-0.771202,31.7169
-287,533,-0.770203,-32.4064,0.0009214,-0.000163071,0.000837194,0.00137662,-0.000618289,0.498026,0.00117917,0.00973113,937,491,-0.770214,32.4064
-280,533,-0.800781,-33.1003,0.00123558,-0.00221007,0.00138764,0.00172492,-0.00269941,0.339027,0.00257496,0.00898514,944,491,-0.800753,33.1003
-273,533,-0.838867,-33.7795,0.00173094,-0.00495464,0.0019186,0.00224241,-0.00546611,0.260523,0.0045784,0.012729,951,491,-0.83889,33.7795
-266,533,-0.860901,-34.425,0.00225981,-0.00768163,0.00262824,0.00291187,-0.00833369,0.243189,0.00673947,0.012803,958,491,-0.860878,34.425
-259,533,-0.849487,-35.0653,0.00279354,-0.011006,0.00355083,0.00365361,-0.0118661,0.237641,0.00936916,0.0131382,965,491,-0.84947,35.0653
-252,533,-0.866516,-35.7032,0.00321589,-0.0150846,0.00461959,0.00431589,-0.0161846,0.233764,0.0124797,0.0196481,972,491,-0.866493,35.7032
-245,533,-0.9552,-36.3196,0.00369772,-0.0199181,0.00573137,0.00501518,-0.0212356,0.225943,0.0160914,0.0311623,979,491,-0.9552,36.3196
-238,533,-0.835266,-36.7877,0.00423266,-0.0252801,0.00693765,0.00578216,-0.0268296,0.21974,0.0200931,0.0318584,986,491,-0.83525,36.7877
-231,533,-0.846619,-37.0865,0.00480794,-0.0310087,0.00822307,0.00660563,-0.0328064,0.215229,0.024373,0.0386192,993,491,-0.846625,37.0865
-224,533,-0.953125,-37.6036,0.00502025,-0.0368132,0.00986843,0.00723133,-0.0390243,0.220415,0.0287316,0.0460301,1000,491,-0.953137,37.6036
-217,533,-0.84436,-38.3732,0,0,0,0,0,0,0,-1,1007,491,-0.844355,38.3732
-210,533,-1.20551,-38.8215,0,0,0,0,0,0,0,-1,1014,491,-1.20548,38.8215
-203,533,-0.960693,-39.3067,0,0,0,0,0,0,0,-1,1021,491,-0.960695,39.3067
-196,533,0.688354,-19.5743,0,0,0,0,0,0,0,-1,1028,491,0.688406,19.5743
-189,533,-0.169189,-15.0303,0,0,0,0,0,0,0,-1,1035,491,-0.169241,15.0303
-182,533,1.26123,-11.4969,0,0,0,0,0,0,0,-1,1042,491,1.26128,11.4969
-175,533,0.937744,-7.36966,0,0,0,0,0,0,0,-1,1049,491,0.937769,7.36965
-168,533,2.64807,-2.7543,0,0,0,0,0,0,0,-1,1056,491,2.64812,2.7543
-161,533,1.91833,-1.76553,0,0,0,0,0,0,0,-1,1063,491,1.91836,1.76554
-154,533,0.376709,-11.0633,0,0,0,0,0,0,0,-1,1070,491,0.376715,11.0632
-147,533,0.383789,-12.1586,0,0,0,0,0,0,0,-1,1077,491,0.383829,12.1586
-140,533,1.14001,-15.4608,0,0,0,0,0,0,0,-1,1084,491,1.14005,15.4608
-133,533,0.189941,-16.0795,0,0,0,0,0,0,0,-1,1091,491,0.18994,16.0795
-126,533,2.89612,-2.59003,0,0,0,0,0,0,0,-1,1098,491,2.89608,2.59003
-119,533,1.78284,-22.5394,0,0,0,0,0,0,0,-1,1105,491,1.78279,22.5394
-112,533,1.83862,-21.2401,0,0,0,0,0,0,0,-1,1112,491,1.83859,21.24
-105,533,1.67554,-19.4018,0,0,0,0,0,0,0,-1,1119,491,1.6755,19.4018
-98,533,-1.39392,-5.16367,0,0,0,0,0,0,0,-1,1126,491,-1.39394,5.16367
-91,533,0.367432,4.49753,0,0,0,0,0,0,0,-1,1133,491,0.367468,-4.49754
-84,533,-0.88623,3.03604,0,0,0,0,0,0,0,-1,1140,491,-0.886288,-3.03605
-77,533,0,0,0,0,0,0,0,0,0,-1,1147,491,0,0
-70,533,0,0,0,0,0,0,0,0,0,-1,1154,491,0,0
-63,533,0,0,0,0,0,0,0,0,0,-1,1161,491,0,0
-56,533,0,0,0,0,0,0,0,0,0,-1,1168,491,0,0
-49,533,0,0,0,0,0,0,0,0,0,-1,1175,491,0,0
-42,533,0,0,0,0,0,0,0,0,0,-1,1182,491,0,0
-35,533,0,0,0,0,0,0,0,0,0,-1,1189,491,0,0
-28,533,0,0,0,0,0,0,0,0,0,-1,1196,491,0,0
-21,533,0,0,0,0,0,0,0,0,0,-1,1203,491,0,0
-14,533,0,0,0,0,0,0,0,0,0,-1,1210,491,0,0
-7,533,0,0,0,0,0,0,0,0,0,-1,1217,491,0,0
0,533,0,0,0,0,0,0,0,0,0,-1,1224,491,0,0
7,533,0,0,0,0,0,0,0,0,0,-1,1231,491,0,0
14,533,0,0,0,0,0,0,0,0,0,-1,1238,491,0,0
21,533,0,0,0,0,0,0,0,0,0,-1,1245,491,0,0
28,533,0,0,0,0,0,0,0,0,0,-1,1252,491,0,0
35,533,0,0,0,0,0,0,0,0,0,-1,1259,491,0,0
42,533,0,0,0,0,0,0,0,0,0,-1,1266,491,0,0
49,533,0,0,0,0,0,0,0,0,0,-1,1273,491,0,0
56,533,0,0,0,0,0,0,0,0,0,-1,1280,491,0,0
63,533,0,0,0,0,0,0,0,0,0,-1,1287,491,0,0
70,533,0,0,0,0,0,0,0,0,0,-1,1294,491,0,0
77,533,0,0,0,0,0,0,0,0,0,-1,1301,491,0,0
84,533,0,0,0,0,0,0,0,0,0,-1,1308,491,0,0
91,533,0,0,0,0,0,0,0,0,0,-1,1315,491,0,0
98,533,0,0,0,0,0,0,0,0,0,-1,1322,491,0,0
105,533,0,0,0,0,0,0,0,0,0,-1,1329,491,0,0
112,533,0,0,0,0,0,0,0,0,0,-1,1336,491,0,0
119,533,0,0,0,0,0,0,0,0,0,-1,1343,491,0,0
126,533,0,0,0,0,0,0,0,0,0,-1,1350,491,0,0
133,533,0,0,0,0,0,0,0,0,0,-1,1357,491,0,0
140,533,0,0,0,0,0,0,0,0,0,-1,1364,491,0,0
147,533,0,0,0,0,0,0,0,0,0,-1,1371,491,0,0
154,533,0,0,0,0,0,0,0,0,0,-1,1378,491,0,0
161,533,0,0,0,0,0,0,0,0,0,-1,1385,491,0,0
168,533,0,0,0,0,0,0,0,0,0,-1,1392,491,0,0
175,533,0,0,0,0,0,0,0,0,0,-1,1399,491,0,0
182,533,0,0,0,0,0,0,0,0,0,-1,1406,491,0,0
189,533,0,0,0,0,0,0,0,0,0,-1,1413,491,0,0
196,533,0,0,0,0,0,0,0,0,0,-1,1420,491,0,0
203,533,3.7887,1.16193,0,0,0,0,0,0,0,-1,1427,491,3.78872,-1.16193
210,533,5.09558,-0.216034,0,0,0,0,0,0,0,-1,1434,491,5.09559,0.216028
217,533,6.91614,-2.46814,0,0,0,0,0,0,0,-1,1441,491,6.91618,2.46814
224,533,7.23621,-2.1857,0,0,0,0,0,0,0,-1,1448,491,7.23621,2.1857
231,533,7.23474,-1.92282,0,0,0,0,0,0,0,-1,1455,491,7.2347,1.92282
238,533,7.23535,-1.67258,0,0,0,0,0,0,0,-1,1462,491,7.23539,1.67258
245,533,6.86682,-1.2301,0,0,0,0,0,0,0,-1,1469,491,6.86686,1.23011
252,533,6.63354,-3.07825,0,0,0,0,0,0,0,-1,1476,491,6.6335,3.07824
259,533,6.16431,-2.35037,0,0,0,0,0,0,0,-1,1483,491,6.1643,2.35037
266,533,5.68884,-1.6214,0,0,0,0,0,0,0,-1,1490,491,5.68885,1.6214
273,533,5.21399,-0.864227,0,0,0,0,0,0,0,-1,1497,491,5.21403,0.864227
280,533,1.41089,-1.97946,0,0,0,0,0,0,0,-1,1504,491,1.41087,1.97946
287,533,1.6814,-2.44443,0,0,0,0,0,0,0,-1,1511,491,1.6814,2.44444
294,533,2.2384,-2.57626,0,0,0,0,0,0,0,-1,1518,491,2.23839,2.57625
301,533,3.39941,-4.0817,0,0,0,0,0,0,0,-1,1525,491,3.3994,4.08171
308,533,4.13733,-4.14752,0,0,0,0,0,0,0,-1,1532,491,4.13727,4.14752
315,533,4.80762,-5.29349,0,0,0,0,0,0,0,-1,1539,491,4.80762,5.29347
322,533,5.47803,-6.43942,0,0,0,0,0,0,0,-1,1546,491,5.47798,6.43943
329,533,3.88477,-3.86301,0,0,0,0,0,0,0,-1,1553,491,3.88475,3.86299
336,533,6.70923,-13.2003,0,0,0,0,0,0,0,-1,1560,491,6.70926,13.2004
343,533,7.06677,-17.1133,0,0,0,0,0,0,0,-1,1567,491,7.06673,17.1133
350,533,10.0876,-23.7254,0,0,0,0,0,0,0,-1,1574,491,10.0877,23.7254
357,533,14.4387,-36.6893,0,0,0,0,0,0,0,-1,1581,491,14.4387,36.6893
364,533,14.244,-36.3033,0,0,0,0,0,0,0,-1,1588,491,14.244,36.3033
371,533,14.254,-35.7632,0,0,0,0,0,0,0,-1,1595,491,14.254,35.7632
378,533,14.2252,-35.0963,0.00210157,-0.00443934,-0.00410764,0.00408169,-0.00641947,-0.449192,0.00611272,0.0455019,1602,491,14.2252,35.0963
385,533,14.3401,-34.4318,0.000847576,-0.00278498,-0.00318703,0.00269954,-0.00463695,-0.526402,0.00428467,0.0300239,1609,491,14.3401,34.4318
392,533,14.292,-33.7872,0.000437207,-0.00177346,-0.00221683,0.00180899,-0.00314524,-0.554131,0.0028948,0.0137951,1616,491,14.292,33.7872
399,533,14.2975,-33.1373,0.00052,-0.000890581,-0.0015671,0.00153321,-0.00190379,-0.573946,0.0019882,0.0122498,1623,491,14.2975,33.1373
406,533,14.2926,-32.4494,0.000614838,-0.000193934,-0.00105185,0.00133735,-0.00091645,-0.601882,0.00130878,0.0154803,1630,491,14.2926,32.4494
413,533,14.2542,-31.7178,0.000715076,0.000576311,-0.000515582,0.00116592,0.000125464,-0.718515,0.000739019,0.0146711,1637,491,14.2541,31.7178
420,533,14.2085,-31.0276,0.000727835,0.00103057,-0.000129374,0.00107833,0.00068008,-1.21719,0.000629621,0.0145391,1644,491,14.2084,31.0277
427,533,14.1938,-30.3021,0.000715115,0.00128111,0.00023244,0.00136433,0.000631895,1.22698,0.00078841,0.0149326,1651,491,14.1938,30.3021
434,533,14.1575,-29.6134,0.000667902,0.00141941,0.000588985,0.0017423,0.000345019,1.06933,0.00106531,0.0137965,1658,491,14.1575,29.6134
441,533,14.1599,-28.9039,0.000664406,0.0014815,0.00099553,0.00214905,-3.14799e-06,0.980109,0.00143375,0.0151323,1665,491,14.1599,28.9039
448,533,14.1534,-28.2146,0.000705819,0.00132336,0.00149658,0.00254269,-0.000513508,0.887129,0.00188969,0.01633,1672,491,14.1535,28.2146
455,533,14.101,-27.5098,0.000748246,0.00114017,0.00213993,0.00309309,-0.00120467,0.831058,0.00255991,0.0167502,1679,491,14.1009,27.5098
462,533,14.0298,-26.7503,0.000910244,0.000913565,0.0028259,0.00373781,-0.001914,0.785692,0.00331922,0.015711,1686,491,14.0298,26.7503
469,533,13.9962,-26.0208,0.00123709,0.000700018,0.00361815,0.00459666,-0.00265955,0.748356,0.00423884,0.00990049,1693,491,13.9962,26.0208
476,533,13.9746,-25.2437,0.00161392,0.000406689,0.00456106,0.00561113,-0.00359053,0.71961,0.0053551,0.0120923,1700,491,13.9745,25.2437
483,533,13.9807,-24.4453,0.00208794,0.000110765,0.00559222,0.00677828,-0.00457957,0.697913,0.00659829,0.0229311,1707,491,13.9807,24.4452
490,533,14.0598,-23.5102,0,0,0,0,0,0,0,-1,1714,491,14.0598,23.5102
497,533,14.2451,-23.0113,0,0,0,0,0,0,0,-1,1721,491,14.2452,23.0113
504,533,14.4619,-21.9455,0,0,0,0,0,0,0,-1,1728,491,14.4619,21.9455
511,533,13.6221,-19.2798,0,0,0,0,0,0,0,-1,1735,491,13.6221,19.2798
518,533,14.1954,-19.4995,0,0,0,0,0,0,0,-1,1742,491,14.1955,19.4995
525,533,13.7935,-19.6901,0,0,0,0,0,0,0,-1,1749,491,13.7934,19.6901
532,533,15.4377,-17.9016,0,0,0,0,0,0,0,-1,1756,491,15.4377,17.9015
539,533,12.8733,-18.2556,0,0,0,0,0,0,0,-1,1763,491,12.8733,18.2556
546,533,3.59607,1.65799,0,0,0,0,0,0,0,-1,1770,491,3.59605,-1.658
553,533,0,0,0,0,0,0,0,0,0,-1,1777,491,0,0
560,533,0,0,0,0,0,0,0,0,0,-1,1784,491,0,0
567,533,0,0,0,0,0,0,0,0,0,-1,1791,491,0,0
574,533,0,0,0,0,0,0,0,0,0,-1,1798,491,0,0
581,533,0,0,0,0,0,0,0,0,0,-1,1805,491,0,0
588,533,0,0,0,0,0,0,0,0,0,-1,1812,491,0,0
595,533,0,0,0,0,0,0,0,0,0,-1,1819,491,0,0
602,533,0,0,0,0,0,0,0,0,0,-1,1826,491,0,0
609,533,0,0,0,0,0,0,0,0,0,-1,1833,491,0,0
616,533,0,0,0,0,0,0,0,0,0,-1,1840,491,0,0
623,533,0,0,0,0,0,0,0,0,0,-1,1847,491,0,0
630,533,0,0,0,0,0,0,0,0,0,-1,1854,491,0,0
637,533,0,0,0,0,0,0,0,0,0,-1,1861,491,0,0
644,533,0,0,0,0,0,0,0,0,0,-1,1868,491,0,0
651,533,0,0,0,0,0,0,0,0,0,-1,1875,491,0,0
658,533,0,0,0,0,0,0,0,0,0,-1,1882,491,0,0
665,533,0,0,0,0,0,0,0,0,0,-1,1889,491,0,0
672,533,0,0,0,0,0,0,0,0,0,-1,1896,491,0,0
679,533,0,0,0,0,0,0,0,0,0,-1,1903,491,0,0
686,533,0,0,0,0,0,0,0,0,0,-1,1910,491,0,0
693,533,0,0,0,0,0,0,0,0,0,-1,1917,491,0,0
700,533,0,0,0,0,0,0,0,0,0,-1,1924,491,0,0
707,533,0,0,0,0,0,0,0,0,0,-1,1931,491,0,0
714,533,0,0,0,0,0,0,0,0,0,-1,1938,491,0,0
721,533,0,0,0,0,0,0,0,0,0,-1,1945,491,0,0
728,533,0,0,0,0,0,0,0,0,0,-1,1952,491,0,0
735,533,0,0,0,0,0,0,0,0,0,-1,1959,491,0,0
742,533,0,0,0,0,0,0,0,0,0,-1,1966,491,0,0
749,533,0,0,0,0,0,0,0,0,0,-1,1973,491,0,0
756,533,0,0,0,0,0,0,0,0,0,-1,1980,491,0,0
763,533,0,0,0,0,0,0,0,0,0,-1,1987,491,0,0
770,533,0,0,0,0,0,0,0,0,0,-1,1994,491,0,0
777,533,0,0,0,0,0,0,0,0,0,-1,2001,491,0,0
784,533,0,0,0,0,0,0,0,0,0,-1,2008,491,0,0
791,533,0,0,0,0,0,0,0,0,0,-1,2015,491,0,0
798,533,0,0,0,0,0,0,0,0,0,-1,2022,491,0,0
805,533,0,0,0,0,0,0,0,0,0,-1,2029,491,0,0
812,533,0,0,0,0,0,0,0,0,0,-1,2036,491,0,0
-700,526,0,0,0,0,0,0,0,0,0,-1,524,498,0,0
-693,526,0,0,0,0,0,0,0,0,0,-1,531,498,0,0
-686,526,0,0,0,0,0,0,0,0,0,-1,538,498,0,0
-679,526,0,0,0,0,0,0,0,0,0,-1,545,498,0,0
-672,526,0,0,0,0,0,0,0,0,0,-1,552,498,0,0
-665,526,0,0,0,0,0,0,0,0,0,-1,559,498,0,0
-658,526,0,0,0,0,0,0,0,0,0,-1,566,498,0,0
-651,526,0,0,0,0,0,0,0,0,0,-1,573,498,0,0
-644,526,0,0,0,0,0,0,0,0,0,-1,580,498,0,0
-637,526,0,0,0,0,0,0,0,0,0,-1,587,498,0,0
-630,526,0,0,0,0,0,0,0,0,0,-1,594,498,0,0
-623,526,0,0,0,0,0,0,0,0,0,-1,601,498,0,0
-616,526,0,0,0,0,0,0,0,0,0,-1,608,498,0,0
-609,526,0,0,0,0,0,0,0,0,0,-1,615,498,0,0
-602,526,0,0,0,0,0,0,0,0,0,-1,622,498,0,0
-595,526,0,0,0,0,0,0,0,0,0,-1,629,498,0,0
-588,526,0,0,0,0,0,0,0,0,0,-1,636,498,0,0
-581,526,0,0,0,0,0,0,0,0,0,-1,643,498,0,0
-574,526,0,0,0,0,0,0,0,0,0,-1,650,498,0,0
-567,526,0,0,0,0,0,0,0,0,0,-1,657,498,0,0
-560,526,0,0,0,0,0,0,0,0,0,-1,664,498,0,0
-553,526,0,0,0,0,0,0,0,0,0,-1,671,498,0,0
-546,526,0,0,0,0,0,0,0,0,0,-1,678,498,0,0
-539,526,0,0,0,0,0,0,0,0,0,-1,685,498,0,0
-532,526,0,0,0,0,0,0,0,0,0,-1,692,498,0,0
-525,526,0,0,0,0,0,0,0,0,0,-1,699,498,0,0
-518,526,0,0,0,0,0,0,0,0,0,-1,706,498,0,0
-511,526,0,0,0,0,0,0,0,0,0,-1,713,498,0,0
-504,526,0,0,0,0,0,0,0,0,0,-1,720,498,0,0
-497,526,0,0,0,0,0,0,0,0,0,-1,727,498,0,0
-490,526,0,0,0,0,0,0,0,0,0,-1,734,498,0,0
-483,526,0,0,0,0,0,0,0,0,0,-1,741,498,0,0
-476,526,0,0,0,0,0,0,0,0,0,-1,748,498,0,0
-469,526,0,0,0,0,0,0,0,0,0,-1,755,498,0,0
-462,526,0,0,0,0,0,0,0,0,0,-1,762,498,0,0
-455,526,0,0,0,0,0,0,0,0,0,-1,769,498,0,0
-448,526,0,0,0,0,0,0,0,0,0,-1,776,498,0,0
-441,526,0,0,0,0,0,0,0,0,0,-1,783,498,0,0
-434,526,-0.153564,-5.96649,0,0,0,0,0,0,0,-1,790,498,-0.153589,5.9665
-427,526,1.23206,-4.59808,0,0,0,0,0,0,0,-1,797,498,1.23208,4.59809
-420,526,-1.76373,-11.6241,0,0,0,0,0,0,0,-1,804,498,-1.76373,11.6241
-413,526,-1.38965,-11.7916,0,0,0,0,0,0,0,-1,811,498,-1.38963,11.7916
-406,526,-1.35187,-12.5182,0,0,0,0,0,0,0,-1,818,498,-1.35185,12.5181
-399,526,-1.32715,-13.2116,0,0,0,0,0,0,0,-1,825,498,-1.32713,13.2116
-392,526,0.197571,-15.303,0,0,0,0,0,0,0,-1,832,498,0.197598,15.303
-385,526,-2.69397,-19.6176,0,0,0,0,0,0,0,-1,839,498,-2.69399,19.6176
-378,526,-1.07263,-22.1061,0,0,0,0,0,0,0,-1,846,498,-1.07266,22.1061
-371,526,-1.10535,-23.256,0.00473742,0.0245998,-0.00879577,0.0279348,0.00140233,-1.20837,0.0181738,0.0406718,853,498,-1.10534,23.256
-364,526,-1.13965,-24.4224,0.00353475,0.0210759,-0.00738282,0.0237696,0.000841075,-1.22095,0.0155736,0.021674,860,498,-1.13968,24.4224
-357,526,-1.11652,-25.304,0.00244402,0.017579,-0.00615259,0.0197645,0.000258493,-1.22948,0.013091,0.014178,867,498,-1.11651,25.304
-350,526,-1.1424,-26.0458,0.00152752,0.0142835,-0.00502339,0.0160242,-0.000213185,-1.23723,0.0107546,0.0127232,874,498,-1.14241,26.0458
-343,526,-1.21198,-26.8037,0.000873214,0.0112294,-0.00401718,0.0126049,-0.000502354,-1.24089,0.00857564,0.0163664,881,498,-1.21197,26.8037
-336,526,-1.25873,-27.5363,0.000391334,0.0085773,-0.00308857,0.00961187,-0.000643237,-1.24758,0.00663273,0.0166073,888,498,-1.25874,27.5362
-329,526,-1.30963,-28.2654,0.000116996,0.0062075,-0.00226661,0.00695845,-0.000633947,-1.25087,0.00486407,0.0161428,895,498,-1.30962,28.2654
-322,526,-1.33148,-28.9477,-4.11691e-05,0.00408206,-0.00141955,0.00452351,-0.000482628,-1.26929,0.00318875,0.0107158,902,498,-1.33147,28.9477
-315,526,-1.37012,-29.6608,-3.17016e-06,0.00238936,-0.000644555,0.00255195,-0.000165766,-1.32369,0.00175916,0.00971463,909,498,-1.37013,29.6608
-308,526,-1.40741,-30.3796,0.00019685,0.00111344,-4.37391e-05,0.00111552,0.000194768,-1.52322,0.00068801,0.00901753,916,498,-1.40744,30.3796
-301,526,-1.45209,-31.0394,0.000460339,0.000146166,0.000496242,0.000823764,-0.000217259,0.632112,0.000634125,0.0104659,923,498,-1.45209,31.0393
-294,526,-1.46106,-31.7009,0.000838089,-0.00050876,0.00107569,0.00143377,-0.00110444,0.505725,0.00146954,0.0103651,930,498,-1.46107,31.7009
-287,526,-1.48138,-32.3658,0.00127015,-0.00123395,0.00166121,0.0020983,-0.00206211,0.462467,0.00240205,0.0100599,937,498,-1.48138,32.3658
-280,526,-1.5011,-33.0267,0.00157912,-0.00365387,0.00225276,0.0024153,-0.00449005,0.355418,0.00404635,0.0123979,944,498,-1.50112,33.0267
-273,526,-1.52057,-33.7186,0.00216216,-0.00701792,0.00277899,0.00293787,-0.00779363,0.272205,0.00640376,0.0110732,951,498,-1.52059,33.7186
-266,526,-1.56213,-34.3976,0.00284408,-0.0103024,0.00351619,0.00372544,-0.0111838,0.245598,0.00895966,0.0159409,958,498,-1.56212,34.3976
-259,526,-1.48267,-35.0068,0.00357748,-0.0143307,0.00452849,0.00465748,-0.0154107,0.234117,0.0121281,0.0413972,965,498,-1.48269,35.0068
-252,526,-1.33746,-35.6881,0,0,0,0,0,0,0,-1,972,498,-1.33747,35.6881
-245,526,-1.58093,-36.3737,0,0,0,0,0,0,0,-1,979,498,-1.58093,36.3737
-238,526,-1.12598,-35.9899,0,0,0,0,0,0,0,-1,986,498,-1.12598,35.9899
-231,526,-1.43329,-36.327,0.00608072,-0.0405975,0.00963535,0.00799144,-0.0425083,0.195763,0.0313441,0.0461129,993,498,-1.43328,36.327
-224,526,-1.41608,-36.9655,0.0062392,-0.0482871,0.0115682,0.00859196,-0.0506399,0.200645,0.0369583,0.0480885,1000,498,-1.4161,36.9655
-217,526,-0.974487,-37.4907,0,0,0,0,0,0,0,-1,1007,498,-0.974511,37.4907
-210,526,-2.10046,-38.6321,0,0,0,0,0,0,0,-1,1014,498,-2.10045,38.6321
-203,526,-0.659302,-18.8818,0,0,0,0,0,0,0,-1,1021,498,-0.659273,18.8818
-196,526,-0.328247,-12.179,0,0,0,0,0,0,0,-1,1028,498,-0.328238,12.179
-189,526,0.401245,-5.96826,0,0,0,0,0,0,0,-1,1035,498,0.401197,5.96826
-182,526,1.7323,-2.99405,0,0,0,0,0,0,0,-1,1042,498,1.73226,2.99404
-175,526,2.27637,-2.07983,0,0,0,0,0,0,0,-1,1049,498,2.27639,2.07984
-168,526,2.12036,-1.66049,0,0,0,0,0,0,0,-1,1056,498,2.12035,1.66048
-161,526,2.09082,-1.20572,0,0,0,0,0,0,0,-1,1063,498,2.09086,1.2057
-154,526,-1.3446,-5.37799,0,0,0,0,0,0,0,-1,1070,498,-1.34457,5.37799
-147,526,-0.472656,-6.64996,0,0,0,0,0,0,0,-1,1077,498,-0.472659,6.64997
-140,526,0.422852,-8.03339,0,0,0,0,0,0,0,-1,1084,498,0.422844,8.0334
-133,526,1.09583,-9.2215,0,0,0,0,0,0,0,-1,1091,498,1.09581,9.2215
-126,526,3.42529,-2.36053,0,0,0,0,0,0,0,-1,1098,498,3.42523,2.36052
-119,526,2.7771,-0.764099,0,0,0,0,0,0,0,-1,1105,498,2.7771,0.764107
-112,526,2.57715,-1.1893,0,0,0,0,0,0,0,-1,1112,498,2.57718,1.1893
-105,526,0,0,0,0,0,0,0,0,0,-1,1119,498,0,0
-98,526,0,0,0,0,0,0,0,0,0,-1,1126,498,0,0
-91,526,0,0,0,0,0,0,0,0,0,-1,1133,498,0,0
-84,526,0,0,0,0,0,0,0,0,0,-1,1140,498,0,0
-77,526,0,0,0,0,0,0,0,0,0,-1,1147,498,0,0
-70,526,0,0,0,0,0,0,0,0,0,-1,1154,498,0,0
-63,526,0,0,0,0,0,0,0,0,0,-1,1161,498,0,0
-56,526,0,0,0,0,0,0,0,0,0,-1,1168,498,0,0
-49,526,0,0,0,0,0,0,0,0,0,-1,1175,498,0,0
-42,526,0,0,0,0,0,0,0,0,0,-1,1182,498,0,0
-35,526,0,0,0,0,0,0,0,0,0,-1,1189,498,0,0
-28,526,0,0,0,0,0,0,0,0,0,-1,1196,498,0,0
-21,526,0,0,0,0,0,0,0,0,0,-1,1203,498,0,0
-14,526,0,0,0,0,0,0,0,0,0,-1,1210,498,0,0
-7,526,0,0,0,0,0,0,0,0,0,-1,1217,498,0,0
0,526,0,0,0,0,0,0,0,0,0,-1,1224,498,0,0
7,526,0,0,0,0,0,0,0,0,0,-1,1231,498,0,0
14,526,0,0,0,0,0,0,0,0,0,-1,1238,498,0,0
21,526,0,0,0,0,0,0,0,0,0,-1,1245,498,0,0
28,526,0,0,0,0,0,0,0,0,0,-1,1252,498,0,0
35,526,0,0,0,0,0,0,0,0,0,-1,1259,498,0,0
42,526,0,0,0,0,0,0,0,0,0,-1,1266,498,0,0
49,526,0,0,0,0,0,0,0,0,0,-1,1273,498,0,0
56,526,0,0,0,0,0,0,0,0,0,-1,1280,498,0,0
63,526,0,0,0,0,0,0,0,0,0,-1,1287,498,0,0
70,526,0,0,0,0,0,0,0,0,0,-1,1294,498,0,0
77,526,0,0,0,0,0,0,0,0,0,-1,1301,498,0,0
84,526,0,0,0,0,0,0,0,0,0,-1,1308,498,0,0
91,526,0,0,0,0,0,0,0,0,0,-1,1315,498,0,0
98,526,0,0,0,0,0,0,0,0,0,-1,1322,498,0,0
105,526,0,0,0,0,0,0,0,0,0,-1,1329,498,0,0
112,526,0,0,0,0,0,0,0,0,0,-1,1336,498,0,0
119,526,0,0,0,0,0,0,0,0,0,-1,1343,498,0,0
126,526,0,0,0,0,0,0,0,0,0,-1,1350,498,0,0
133,526,0,0,0,0,0,0,0,0,0,-1,1357,498,0,0
140,526,0,0,0,0,0,0,0,0,0,-1,1364,498,0,0
147,526,0,0,0,0,0,0,0,0,0,-1,1371,498,0,0
154,526,0,0,0,0,0,0,0,0,0,-1,1378,498,0,0
161,526,0,0,0,0,0,0,0,0,0,-1,1385,498,0,0
168,526,0,0,0,0,0,0,0,0,0,-1,1392,498,0,0
175,526,0,0,0,0,0,0,0,0,0,-1,1399,498,0,0
182,526,0,0,0,0,0,0,0,0,0,-1,1406,498,0,0
189,526,0,0,0,0,0,0,0,0,0,-1,1413,498,0,0
196,526,0,0,0,0,0,0,0,0,0,-1,1420,498,0,0
203,526,0,0,0,0,0,0,0,0,0,-1,1427,498,0,0
210,526,0,0,0,0,0,0,0,0,0,-1,1434,498,0,0
217,526,0,0,0,0,0,0,0,0,0,-1,1441,498,0,0
224,526,0,0,0,0,0,0,0,0,0,-1,1448,498,0,0
231,526,7.93237,-1.30618,0,0,0,0,0,0,0,-1,1455,498,7.93238,1.30618
238,526,7.97717,-1.08197,0,0,0,0,0,0,0,-1,1462,498,7.97723,1.08196
245,526,7.2793,-0.792938,0,0,0,0,0,0,0,-1,1469,498,7.27931,0.792926
252,526,6.73523,-2.23608,0,0,0,0,0,0,0,-1,1476,498,6.73525,2.23608
259,526,6.22949,-1.84967,0,0,0,0,0,0,0,-1,1483,498,6.22953,1.84968
266,526,5.72375,-1.46329,0,0,0,0,0,0,0,-1,1490,498,5.72381,1.46328
273,526,4.33984,0.49173,0,0,0,0,0,0,0,-1,1497,498,4.33979,-0.491727
280,526,1.4585,-1.59897,0,0,0,0,0,0,0,-1,1504,498,1.45846,1.59895
287,526,1.46411,-2.40134,0,0,0,0,0,0,0,-1,1511,498,1.46406,2.40133
294,526,5.57471,-4.59085,0,0,0,0,0,0,0,-1,1518,498,5.57466,4.59084
301,526,4.42786,-3.99677,0,0,0,0,0,0,0,-1,1525,498,4.42788,3.99676
308,526,5.79529,-4.19366,0,0,0,0,0,0,0,-1,1532,498,5.79528,4.19368
315,526,5.09851,-5.20068,0,0,0,0,0,0,0,-1,1539,498,5.09851,5.20068
322,526,5.50708,-4.72348,0,0,0,0,0,0,0,-1,1546,498,5.50713,4.72347
329,526,3.88672,-4.345,0,0,0,0,0,0,0,-1,1553,498,3.88674,4.34501
336,526,4.97876,-2.23828,0,0,0,0,0,0,0,-1,1560,498,4.97877,2.23828
343,526,3.31665,-2.69696,0,0,0,0,0,0,0,-1,1567,498,3.31667,2.69696
350,526,6.06287,-6.12015,0,0,0,0,0,0,0,-1,1574,498,6.06286,6.12014
357,526,12.9944,-29.1665,0,0,0,0,0,0,0,-1,1581,498,12.9943,29.1665
364,526,13.2582,-29.5416,0,0,0,0,0,0,0,-1,1588,498,13.2581,29.5416
371,526,12.4481,-29.0131,0,0,0,0,0,0,0,-1,1595,498,12.4481,29.0131
378,526,14.6885,-35.61,0,0,0,0,0,0,0,-1,1602,498,14.6884,35.61
385,526,14.9735,-34.5427,0,0,0,0,0,0,0,-1,1609,498,14.9735,34.5427
392,526,15.1003,-33.7894,6.91247e-05,-0.00204106,-0.00306291,0.00225357,-0.00422551,-0.619526,0.00379801,0.0403,1616,498,15.1004,33.7893
399,526,14.9712,-33.1092,0.000258389,-0.00110823,-0.00231825,0.00199193,-0.00284177,-0.64208,0.00280508,0.0199998,1623,498,14.9711,33.1092
406,526,14.9896,-32.3815,0.000498019,-0.00046134,-0.00171261,0.00179686,-0.00176018,-0.648853,0.00205369,0.0125144,1630,498,14.9896,32.3815
413,526,14.9512,-31.6854,0.000750091,0.0003034,-0.00107282,0.00162257,-0.000569081,-0.682772,0.00131318,0.0128142,1637,498,14.9511,31.6854
420,526,14.9086,-31.0067,0.000856703,0.000743644,-0.000626233,0.00142895,0.000171394,-0.740386,0.000900954,0.0141809,1644,498,14.9085,31.0066
427,526,14.8876,-30.3013,0.00089774,0.00101704,-0.000241194,0.00120585,0.00070893,-0.906624,0.000699777,0.0149385,1651,498,14.8876,30.3013
434,526,14.8522,-29.5795,0.00086891,0.00116525,0.000131534,0.00121521,0.000818949,1.2078,0.000715608,0.013469,1658,498,14.8522,29.5794
441,526,14.8282,-28.8562,0.000897782,0.00126299,0.000559611,0.00166904,0.000491737,0.943104,0.000990344,0.0114852,1665,498,14.8282,28.8562
448,526,14.8339,-28.1651,0.000968542,0.00117526,0.00105968,0.00213661,7.18888e-06,0.834013,0.00142202,0.0108146,1672,498,14.8339,28.1651
455,526,14.7905,-27.4684,0.00102766,0.00112623,0.00168231,0.00275998,-0.00060608,0.800042,0.00207177,0.0140242,1679,498,14.7905,27.4684
462,526,14.7549,-26.7184,0.0011598,0.00100798,0.0022994,0.00338454,-0.00121676,0.768897,0.00275309,0.0110218,1686,498,14.7549,26.7184
469,526,14.7283,-26.0014,0.0014217,0.00091424,0.00299901,0.00417769,-0.00184175,0.743197,0.00356149,0.00803389,1693,498,14.7283,26.0014
476,526,14.6886,-25.2546,0.00170398,0.000762757,0.00381908,0.00508134,-0.0026146,0.724094,0.00451869,0.00951491,1700,498,14.6886,25.2546
483,526,14.67,-24.4357,0.00203751,0.000615236,0.00467194,0.00605213,-0.00339938,0.709871,0.00552801,0.0140729,1707,498,14.6701,24.4357
490,526,14.9891,-24.0259,0,0,0,0,0,0,0,-1,1714,498,14.9892,24.0259
497,526,14.6716,-23.1357,0.00309708,-0.000165798,0.00664455,0.00830754,-0.00537626,0.665014,0.00796054,0.0465646,1721,498,14.6716,23.1357
504,526,14.6923,-22.2693,0.00381609,-0.000458631,0.00752862,0.00950487,-0.00614741,0.647088,0.00910588,0.047417,1728,498,14.6922,22.2693
511,526,14.9379,-21.3282,0,0,0,0,0,0,0,-1,1735,498,14.9379,21.3282
518,526,14.7889,-20.4046,0,0,0,0,0,0,0,-1,1742,498,14.7889,20.4046
525,526,14.7009,-19.7487,0,0,0,0,0,0,0,-1,1749,498,14.7009,19.7486
532,526,15.7457,-17.9624,0,0,0,0,0,0,0,-1,1756,498,15.7458,17.9624
539,526,16.1064,-16.42,0,0,0,0,0,0,0,-1,1763,498,16.1065,16.42
546,526,12.4675,-17.1617,0,0,0,0,0,0,0,-1,1770,498,12.4675,17.1617
553,526,3.40796,1.37137,0,0,0,0,0,0,0,-1,1777,498,3.40792,-1.37138
560,526,0,0,0,0,0,0,0,0,0,-1,1784,498,0,0
567,526,0,0,0,0,0,0,0,0,0,-1,1791,498,0,0
574,526,0,0,0,0,0,0,0,0,0,-1,1798,498,0,0
581,526,0,0,0,0,0,0,0,0,0,-1,1805,498,0,0
588,526,0,0,0,0,0,0,0,0,0,-1,1812,498,0,0
595,526,0,0,0,0,0,0,0,0,0,-1,1819,498,0,0
602,526,0,0,0,0,0,0,0,0,0,-1,1826,498,0,0
609,526,0,0,0,0,0,0,0,0,0,-1,1833,498,0,0
616,526,0,0,0,0,0,0,0,0,0,-1,1840,498,0,0
623,526,0,0,0,0,0,0,0,0,0,-1,1847,498,0,0
630,526,0,0,0,0,0,0,0,0,0,-1,1854,498,0,0
637,526,0,0,0,0,0,0,0,0,0,-1,1861,498,0,0
644,526,0,0,0,0,0,0,0,0,0,-1,1868,498,0,0
651,526,0,0,0,0,0,0,0,0,0,-1,1875,498,0,0
658,526,0,0,0,0,0,0,0,0,0,-1,1882,498,0,0
665,526,0,0,0,0,0,0,0,0,0,-1,1889,498,0,0
672,526,0,0,0,0,0,0,0,0,0,-1,1896,498,0,0
679,526,0,0,0,0,0,0,0,0,0,-1,1903,498,0,0
686,526,0,0,0,0,0,0,0,0,0,-1,1910,498,0,0
693,526,0,0,0,0,0,0,0,0,0,-1,1917,498,0,0
700,526,0,0,0,0,0,0,0,0,0,-1,1924,498,0,0
707,526,0,0,0,0,0,0,0,0,0,-1,1931,498,0,0
714,526,0,0,0,0,0,0,0,0,0,-1,1938,498,0,0
721,526,0,0,0,0,0,0,0,0,0,-1,1945,498,0,0
728,526,0,0,0,0,0,0,0,0,0,-1,1952,498,0,0
735,526,0,0,0,0,0,0,0,0,0,-1,1959,498,0,0
742,526,0,0,0,0,0,0,0,0,0,-1,1966,498,0,0
749,526,0,0,0,0,0,0,0,0,0,-1,1973,498,0,0
756,526,0,0,0,0,0,0,0,0,0,-1,1980,498,0,0
763,526,0,0,0,0,0,0,0,0,0,-1,1987,498,0,0
770,526,0,0,0,0,0,0,0,0,0,-1,1994,498,0,0
777,526,0,0,0,0,0,0,0,0,0,-1,2001,498,0,0
784,526,0,0,0,0,0,0,0,0,0,-1,2008,498,0,0
791,526,0,0,0,0,0,0,0,0,0,-1,2015,498,0,0
798,526,0,0,0,0,0,0,0,0,0,-1,2022,498,0,0
805,526,0,0,0,0,0,0,0,0,0,-1,2029,498,0,0
812,526,0,0,0,0,0,0,0,0,0,-1,2036,498,0,0
-700,519,0,0,0,0,0,0,0,0,0,-1,524,505,0,0
-693,519,0,0,0,0,0,0,0,0,0,-1,531,505,0,0
-686,519,0,0,0,0,0,0,0,0,0,-1,538,505,0,0
-679,519,0,0,0,0,0,0,0,0,0,-1,545,505,0,0
-672,519,0,0,0,0,0,0,0,0,0,-1,552,505,0,0
-665,519,0,0,0,0,0,0,0,0,0,-1,559,505,0,0
-658,519,0,0,0,0,0,0,0,0,0,-1,566,505,0,0
-651,519,0,0,0,0,0,0,0,0,0,-1,573,505,0,0
-644,519,0,0,0,0,0,0,0,0,0,-1,580,505,0,0
-637,519,0,0,0,0,0,0,0,0,0,-1,587,505,0,0
-630,519,0,0,0,0,0,0,0,0,0,-1,594,505,0,0
-623,519,0,0,0,0,0,0,0,0,0,-1,601,505,0,0
-616,519,0,0,0,0,0,0,0,0,0,-1,608,505,0,0
-609,519,0,0,0,0,0,0,0,0,0,-1,615,505,0,0
-602,519,0,0,0,0,0,0,0,0,0,-1,622,505,0,0
-595,519,0,0,0,0,0,0,0,0,0,-1,629,505,0,0
-588,519,0,0,0,0,0,0,0,0,0,-1,636,505,0,0
-581,519,0,0,0,0,0,0,0,0,0,-1,643,505,0,0
-574,519,0,0,0,0,0,0,0,0,0,-1,650,505,0,0
-567,519,0,0,0,0,0,0,0,0,0,-1,657,505,0,0
-560,519,0,0,0,0,0,0,0,0,0,-1,664,505,0,0
-553,519,0,0,0,0,0,0,0,0,0,-1,671,505,0,0
-546,519,0,0,0,0,0,0,0,0,0,-1,678,505,0,0
-539,519,0,0,0,0,0,0,0,0,0,-1,685,505,0,0
-532,519,0,0,0,0,0,0,0,0,0,-1,692,505,0,0
-525,519,0,0,0,0,0,0,0,0,0,-1,699,505,0,0
-518,519,0,0,0,0,0,0,0,0,0,-1,706,505,0,0
-511,519,0,0,0,0,0,0,0,0,0,-1,713,505,0,0
-504,519,0,0,0,0,0,0,0,0,0,-1,720,505,0,0
-497,519,0,0,0,0,0,0,0,0,0,-1,727,505,0,0
-490,519,0,0,0,0,0,0,0,0,0,-1,734,505,0,0
-483,519,0,0,0,0,0,0,0,0,0,-1,741,505,0,0
-476,519,0,0,0,0,0,0,0,0,0,-1,748,505,0,0
-469,519,0,0,0,0,0,0,0,0,0,-1,755,505,0,0
-462,519,0,0,0,0,0,0,0,0,0,-1,762,505,0,0
-455,519,0,0,0,0,0,0,0,0,0,-1,769,505,0,0
-448,519,0,0,0,0,0,0,0,0,0,-1,776,505,0,0
-441,519,1.34839,-5.29346,0,0,0,0,0,0,0,-1,783,505,1.3484,5.29347
-434,519,0.949585,-5.77313,0,0,0,0,0,0,0,-1,790,505,0.949598,5.77315
-427,519,-0.0523682,-9.31567,0,0,0,0,0,0,0,-1,797,505,-0.0523854,9.31568
-420,519,-2.38867,-12.1938,0,0,0,0,0,0,0,-1,804,505,-2.38867,12.1938
-413,519,-2.2298,-12.4998,0,0,0,0,0,0,0,-1,811,505,-2.22979,12.4998
-406,519,-1.44373,-12.3475,0,0,0,0,0,0,0,-1,818,505,-1.44376,12.3475
-399,519,-1.60516,-15.0849,0,0,0,0,0,0,0,-1,825,505,-1.60518,15.0849
-392,519,-1.48206,-21.3868,0,0,0,0,0,0,0,-1,832,505,-1.48206,21.3868
-385,519,-2.13629,-21.5814,0,0,0,0,0,0,0,-1,839,505,-2.13626,21.5814
-378,519,-1.97882,-22.5479,0.00468564,0.0226506,-0.00920045,0.0265263,0.000809926,-1.1721,0.0174205,0.0383856,846,505,-1.97883,22.5479
-371,519,-1.80951,-23.5651,0.00379872,0.0195897,-0.00791582,0.0228745,0.000513907,-1.17745,0.0150813,0.0207726,853,505,-1.80951,23.5651
-364,519,-1.80371,-24.5118,0.00293969,0.0165658,-0.00658685,0.0192292,0.000276234,-1.18654,0.0127284,0.0118421,860,505,-1.80368,24.5118
-357,519,-1.82446,-25.3137,0.00213716,0.0136243,-0.00538745,0.0157555,5.87851e-06,-1.19409,0.0105017,0.0112585,867,505,-1.82444,25.3137
-350,519,-1.86365,-26.0284,0.00145825,0.0108493,-0.00428664,0.0125117,-0.000204151,-1.20084,0.00841001,0.0131369,874,505,-1.86367,26.0284
-343,519,-1.94153,-26.7302,0.000964834,0.00822048,-0.00329093,0.00949075,-0.000305433,-1.20242,0.00643139,0.0159537,881,505,-1.9415,26.7302
-336,519,-2.00604,-27.4689,0.000566732,0.00590131,-0.00234379,0.00678477,-0.000316725,-1.21033,0.00463237,0.0161115,888,505,-2.00603,27.4689
-329,519,-1.99689,-28.1993,0.000341296,0.00382903,-0.00150693,0.00438992,-0.000219592,-1.21448,0.00300249,0.0139528,895,505,-1.9969,28.1993
-322,519,-2.00946,-28.9045,0.000222552,0.00199804,-0.000679998,0.00222854,-7.95606e-06,-1.24397,0.00148836,0.0116197,902,505,-2.00944,28.9046
-315,519,-2.05652,-29.6253,0.000275843,0.000565143,7.6168e-05,0.000583972,0.000257015,1.32846,0.000337961,0.00950576,909,505,-2.0565,29.6253
-308,519,-2.10175,-30.3444,0.000534849,-0.000471686,0.000710218,0.000902034,-0.000838872,0.477158,0.00100533,0.00783038,916,505,-2.10172,30.3444
-301,519,-2.1496,-31.0225,0.000804324,-0.00116023,0.00129451,0.00144705,-0.00180296,0.460842,0.00188014,0.0122311,923,505,-2.14962,31.0225
-294,519,-2.16425,-31.6504,0.00111503,-0.00159577,0.00186999,0.00206917,-0.00254991,0.471805,0.00267164,0.0155977,930,505,-2.16426,31.6504
-287,519,-2.19952,-32.3282,0.00149672,-0.00222565,0.00247172,0.00272963,-0.00345856,0.462692,0.003581,0.0111683,937,505,-2.19952,32.3282
-280,519,-2.22003,-33.0205,0.00176395,-0.00508467,0.00310769,0.00296389,-0.0062846,0.368482,0.00545314,0.0220938,944,505,-2.22005,33.0205
-273,519,-2.18335,-33.7191,0.00243007,-0.00923678,0.00362301,0.00346359,-0.0102703,0.277887,0.0082475,0.0482379,951,505,-2.18336,33.7191
-266,519,-2.25519,-34.403,0,0,0,0,0,0,0,-1,958,505,-2.25521,34.4029
-259,519,-2.0556,-35.1599,0,0,0,0,0,0,0,-1,965,505,-2.05561,35.1599
-252,519,-1.84009,-26.8372,0,0,0,0,0,0,0,-1,972,505,-1.8401,26.8372
-245,519,-1.23254,-23.2696,0,0,0,0,0,0,0,-1,979,505,-1.23256,23.2696
-238,519,-1.5415,-31.0349,0,0,0,0,0,0,0,-1,986,505,-1.5415,31.0348
-231,519,-1.96198,-35.7651,0,0,0,0,0,0,0,-1,993,505,-1.96199,35.765
-224,519,-1.90491,-36.3672,0,0,0,0,0,0,0,-1,1000,505,-1.90491,36.3672
-217,519,-1.52856,-36.7609,0,0,0,0,0,0,0,-1,1007,505,-1.52857,36.7609
-210,519,-0.883362,-34.799,0,0,0,0,0,0,0,-1,1014,505,-0.883379,34.799
-203,519,-0.513611,-5.39017,0,0,0,0,0,0,0,-1,1021,505,-0.513585,5.39017
-196,519,-0.374023,-5.41635,0,0,0,0,0,0,0,-1,1028,505,-0.374047,5.41635
-189,519,-0.234497,-5.44254,0,0,0,0,0,0,0,-1,1035,505,-0.234508,5.44253
-182,519,2.76697,-1.19659,0,0,0,0,0,0,0,-1,1042,505,2.76696,1.19661
-175,519,2.31323,-0.960938,0,0,0,0,0,0,0,-1,1049,505,2.31319,0.960941
-168,519,2.01074,-0.721405,0,0,0,0,0,0,0,-1,1056,505,2.01072,0.721407
-161,519,2.32056,-0.522339,0,0,0,0,0,0,0,-1,1063,505,2.32057,0.522328
-154,519,2.55566,0.116669,0,0,0,0,0,0,0,-1,1070,505,2.55563,-0.116661
-147,519,-0.55127,-6.14001,0,0,0,0,0,0,0,-1,1077,505,-0.551252,6.14001
-140,519,0.240601,-7.53503,0,0,0,0,0,0,0,-1,1084,505,0.240653,7.53501
-133,519,2.70911,-4.4516,0,0,0,0,0,0,0,-1,1091,505,2.70915,4.45161
-126,519,0,0,0,0,0,0,0,0,0,-1,1098,505,0,0
-119,519,0,0,0,0,0,0,0,0,0,-1,1105,505,0,0
-112,519,0,0,0,0,0,0,0,0,0,-1,1112,505,0,0
-105,519,0,0,0,0,0,0,0,0,0,-1,1119,505,0,0
-98,519,0,0,0,0,0,0,0,0,0,-1,1126,505,0,0
-91,519,0,0,0,0,0,0,0,0,0,-1,1133,505,0,0
-84,519,0,0,0,0,0,0,0,0,0,-1,1140,505,0,0
-77,519,0,0,0,0,0,0,0,0,0,-1,1147,505,0,0
-70,519,0,0,0,0,0,0,0,0,0,-1,1154,505,0,0
-63,519,0,0,0,0,0,0,0,0,0,-1,1161,505,0,0
-56,519,0,0,0,0,0,0,0,0,0,-1,1168,505,0,0
-49,519,0,0,0,0,0,0,0,0,0,-1,1175,505,0,0
-42,519,0,0,0,0,0,0,0,0,0,-1,1182,505,0,0
-35,519,0,0,0,0,0,0,0,0,0,-1,1189,505,0,0
-28,519,0,0,0,0,0,0,0,0,0,-1,1196,505,0,0
-21,519,0,0,0,0,0,0,0,0,0,-1,1203,505,0,0
-14,519,0,0,0,0,0,0,0,0,0,-1,1210,505,0,0
-7,519,0,0,0,0,0,0,0,0,0,-1,1217,505,0,0
0,519,0,0,0,0,0,0,0,0,0,-1,1224,505,0,0
7,519,0,0,0,0,0,0,0,0,0,-1,1231,505,0,0
14,519,0,0,0,0,0,0,0,0,0,-1,1238,505,0,0
21,519,0,0,0,0,0,0,0,0,0,-1,1245,505,0,0
28,519,0,0,0,0,0,0,0,0,0,-1,1252,505,0,0
35,519,0,0,0,0,0,0,0,0,0,-1,1259,505,0,0
42,519,0,0,0,0,0,0,0,0,0,-1,1266,505,0,0
49,519,0,0,0,0,0,0,0,0,0,-1,1273,505,0,0
56,519,0,0,0,0,0,0,0,0,0,-1,1280,505,0,0
63,519,0,0,0,0,0,0,0,0,0,-1,1287,505,0,0
70,519,0,0,0,0,0,0,0,0,0,-1,1294,505,0,0
77,519,0,0,0,0,0,0,0,0,0,-1,1301,505,0,0
84,519,0,0,0,0,0,0,0,0,0,-1,1308,505,0,0
91,519,0,0,0,0,0,0,0,0,0,-1,1315,505,0,0
98,519,0,0,0,0,0,0,0,0,0,-1,1322,505,0,0
105,519,0,0,0,0,0,0,0,0,0,-1,1329,505,0,0
112,519,0,0,0,0,0,0,0,0,0,-1,1336,505,0,0
119,519,0,0,0,0,0,0,0,0,0,-1,1343,505,0,0
126,519,0,0,0,0,0,0,0,0,0,-1,1350,505,0,0
133,519,0,0,0,0,0,0,0,0,0,-1,1357,505,0,0
140,519,0,0,0,0,0,0,0,0,0,-1,1364,505,0,0
147,519,0,0,0,0,0,0,0,0,0,-1,1371,505,0,0
154,519,0,0,0,0,0,0,0,0,0,-1,1378,505,0,0
161,519,0,0,0,0,0,0,0,0,0,-1,1385,505,0,0
168,519,0,0,0,0,0,0,0,0,0,-1,1392,505,0,0
175,519,0,0,0,0,0,0,0,0,0,-1,1399,505,0,0
182,519,0,0,0,0,0,0,0,0,0,-1,1406,505,0,0
189,519,0,0,0,0,0,0,0,0,0,-1,1413,505,0,0
196,519,0,0,0,0,0,0,0,0,0,-1,1420,505,0,0
203,519,0,0,0,0,0,0,0,0,0,-1,1427,505,0,0
210,519,0,0,0,0,0,0,0,0,0,-1,1434,505,0,0
217,519,0,0,0,0,0,0,0,0,0,-1,1441,505,0,0
224,519,0,0,0,0,0,0,0,0,0,-1,1448,505,0,0
231,519,0,0,0,0,0,0,0,0,0,-1,1455,505,0,0
238,519,0,0,0,0,0,0,0,0,0,-1,1462,505,0,0
245,519,0,0,0,0,0,0,0,0,0,-1,1469,505,0,0
252,519,5.26208,0.0938416,0,0,0,0,0,0,0,-1,1476,505,5.26207,-0.0938493
259,519,6.14246,-1.36441,0,0,0,0,0,0,0,-1,1483,505,6.14241,1.36441
266,519,5.31909,-0.400787,0,0,0,0,0,0,0,-1,1490,505,5.31912,0.400773
273,519,4.02393,0.325531,0,0,0,0,0,0,0,-1,1497,505,4.0239,-0.325522
280,519,4.68848,0.53006,0,0,0,0,0,0,0,-1,1504,505,4.68842,-0.530073
287,519,7.9519,-3.80801,0,0,0,0,0,0,0,-1,1511,505,7.95193,3.808
294,519,6.92273,-3.38889,0,0,0,0,0,0,0,-1,1518,505,6.92268,3.38888
301,519,5.35669,-2.92661,0,0,0,0,0,0,0,-1,1525,505,5.35675,2.9266
308,519,7.37549,-5.64529,0,0,0,0,0,0,0,-1,1532,505,7.3755,5.64529
315,519,6.30029,-4.53754,0,0,0,0,0,0,0,-1,1539,505,6.30024,4.53753
322,519,5.84302,-5.45117,0,0,0,0,0,0,0,-1,1546,505,5.84303,5.45116
329,519,4.92407,0.62384,0,0,0,0,0,0,0,-1,1553,505,4.92403,-0.623832
336,519,3.10095,-0.329285,0,0,0,0,0,0,0,-1,1560,505,3.1009,0.329283
343,519,2.49146,-2.31119,0,0,0,0,0,0,0,-1,1567,505,2.49145,2.31119
350,519,3.47729,-2.22516,0,0,0,0,0,0,0,-1,1574,505,3.47726,2.22515
357,519,13.271,-29.6344,0,0,0,0,0,0,0,-1,1581,505,13.271,29.6344
364,519,12.8292,-28.3627,0,0,0,0,0,0,0,-1,1588,505,12.8292,28.3627
371,519,12.3875,-27.0911,0,0,0,0,0,0,0,-1,1595,505,12.3874,27.091
378,519,6.36597,-10.0967,0,0,0,0,0,0,0,-1,1602,505,6.36597,10.0967
385,519,6.24756,-9.72186,0,0,0,0,0,0,0,-1,1609,505,6.24752,9.72183
392,519,15.6997,-34.0203,0,0,0,0,0,0,0,-1,1616,505,15.6997,34.0203
399,519,15.8433,-32.9125,-1.5933e-05,-0.00142243,-0.00338893,0.00274194,-0.00418031,-0.683093,0.00402522,0.048046,1623,505,15.8433,32.9126
406,519,15.672,-32.3714,0.000447487,-0.000734966,-0.00259729,0.00251999,-0.00280747,-0.673489,0.0030773,0.0326002,1630,505,15.672,32.3714
413,519,15.707,-31.663,0.000883105,9.33868e-05,-0.0017777,0.00230927,-0.00133277,-0.676113,0.00212778,0.0156876,1637,505,15.7071,31.6629
420,519,15.6549,-30.9446,0.00107342,0.000559567,-0.00121202,0.00205545,-0.000422462,-0.680953,0.00153068,0.0159298,1644,505,15.6549,30.9446
427,519,15.6224,-30.2998,0.00113507,0.000857243,-0.000761916,0.00177063,0.000221679,-0.695229,0.0011139,0.0149609,1651,505,15.6224,30.2998
434,519,15.563,-29.5786,0.0010763,0.00101193,-0.000348641,0.00139424,0.000693991,-0.739376,0.000804966,0.0131758,1658,505,15.563,29.5786
441,519,15.527,-28.8201,0.00109463,0.00113843,0.000116634,0.0012352,0.000997857,0.878219,0.000756861,0.0122127,1665,505,15.527,28.8201
448,519,15.5383,-28.1102,0.00115815,0.00110872,0.000620893,0.00175482,0.00051205,0.765506,0.00104201,0.00997263,1672,505,15.5383,28.1102
455,519,15.505,-27.4124,0.00120204,0.00115937,0.00121492,0.00239582,-3.44029e-05,0.77662,0.0016088,0.0112038,1679,505,15.505,27.4124
462,519,15.485,-26.687,0.00127538,0.00111459,0.00176042,0.00295724,-0.000567265,0.76258,0.00218527,0.0103809,1686,505,15.4849,26.687
469,519,15.475,-25.9544,0.00146408,0.00109944,0.00237992,0.00366865,-0.00110513,0.74717,0.00288557,0.0105683,1693,505,15.475,25.9544
476,519,15.4427,-25.2045,0.00166654,0.00104265,0.00309537,0.00446564,-0.00175645,0.735179,0.0037041,0.0128333,1700,505,15.4428,25.2046
483,519,15.3917,-24.4409,0.00189731,0.000982823,0.00379489,0.0052624,-0.00238227,0.725443,0.00451686,0.0146298,1707,505,15.3917,24.4409
490,519,15.3308,-23.6498,0.00221634,0.000768456,0.00457145,0.00612081,-0.00313602,0.70687,0.00543626,0.0131501,1714,505,15.3309,23.6498
497,519,15.2753,-22.9994,0.00263689,0.000498834,0.00529617,0.00697085,-0.00383513,0.685812,0.00632579,0.0273623,1721,505,15.2753,22.9994
504,519,15.193,-22.196,0.00311244,0.000338529,0.00595902,0.00784378,-0.00439282,0.671059,0.00715784,0.0289234,1728,505,15.193,22.196
511,519,15.2928,-21.2959,0.0035933,-1.48831e-05,0.00649522,0.00853033,-0.00495191,0.649934,0.00787483,0.0359422,1735,505,15.2929,21.2959
518,519,15.2881,-20.4976,0,0,0,0,0,0,0,-1,1742,505,15.2881,20.4976
525,519,15.4329,-19.8318,0,0,0,0,0,0,0,-1,1749,505,15.4329,19.8318
532,519,15.825,-19.0025,0,0,0,0,0,0,0,-1,1756,505,15.8249,19.0025
539,519,16.5902,-16.8075,0,0,0,0,0,0,0,-1,1763,505,16.5903,16.8075
546,519,12.4001,-16.5616,0,0,0,0,0,0,0,-1,1770,505,12.4002,16.5616
553,519,4.14136,0.0667419,0,0,0,0,0,0,0,-1,1777,505,4.14141,-0.0667503
560,519,3.77856,0.279724,0,0,0,0,0,0,0,-1,1784,505,3.77861,-0.279731
567,519,0,0,0,0,0,0,0,0,0,-1,1791,505,0,0
574,519,0,0,0,0,0,0,0,0,0,-1,1798,505,0,0
581,519,0,0,0,0,0,0,0,0,0,-1,1805,505,0,0
588,519,0,0,0,0,0,0,0,0,0,-1,1812,505,0,0
595,519,0,0,0,0,0,0,0,0,0,-1,1819,505,0,0
602,519,0,0,0,0,0,0,0,0,0,-1,1826,505,0,0
609,519,0,0,0,0,0,0,0,0,0,-1,1833,505,0,0
616,519,0,0,0,0,0,0,0,0,0,-1,1840,505,0,0
623,519,0,0,0,0,0,0,0,0,0,-1,1847,505,0,0
630,519,0,0,0,0,0,0,0,0,0,-1,1854,505,0,0
637,519,0,0,0,0,0,0,0,0,0,-1,1861,505,0,0
644,519,0,0,0,0,0,0,0,0,0,-1,1868,505,0,0
651,519,0,0,0,0,0,0,0,0,0,-1,1875,505,0,0
658,519,0,0,0,0,0,0,0,0,0,-1,1882,505,0,0
665,519,0,0,0,0,0,0,0,0,0,-1,1889,505,0,0
672,519,0,0,0,0,0,0,0,0,0,-1,1896,505,0,0
679,519,0,0,0,0,0,0,0,0,0,-1,1903,505,0,0
686,519,0,0,0,0,0,0,0,0,0,-1,1910,505,0,0
693,519,0,0,0,0,0,0,0,0,0,-1,1917,505,0,0
700,519,0,0,0,0,0,0,0,0,0,-1,1924,505,0,0
707,519,0,0,0,0,0,0,0,0,0,-1,1931,505,0,0
714,519,0,0,0,0,0,0,0,0,0,-1,1938,505,0,0
721,519,0,0,0,0,0,0,0,0,0,-1,1945,505,0,0
728,519,0,0,0,0,0,0,0,0,0,-1,1952,505,0,0
735,519,0,0,0,0,0,0,0,0,0,-1,1959,505,0,0
742,519,0,0,0,0,0,0,0,0,0,-1,1966,505,0,0
749,519,0,0,0,0,0,0,0,0,0,-1,1973,505,0,0
756,519,0,0,0,0,0,0,0,0,0,-1,1980,505,0,0
763,519,0,0,0,0,0,0,0,0,0,-1,1987,505,0,0
770,519,0,0,0,0,0,0,0,0,0,-1,1994,505,0,0
777,519,0,0,0,0,0,0,0,0,0,-1,2001,505,0,0
784,519,0,0,0,0,0,0,0,0,0,-1,2008,505,0,0
791,519,0,0,0,0,0,0,0,0,0,-1,2015,505,0,0
798,519,0,0,0,0,0,0,0,0,0,-1,2022,505,0,0
805,519,0,0,0,0,0,0,0,0,0,-1,2029,505,0,0
812,519,0,0,0,0,0,0,0,0,0,-1,2036,505,0,0
-700,512,0,0,0,0,0,0,0,0,0,-1,524,512,0,0
-693,512,0,0,0,0,0,0,0,0,0,-1,531,512,0,0
-686,512,0,0,0,0,0,0,0,0,0,-1,538,512,0,0
-679,512,0,0,0,0,0,0,0,0,0,-1,545,512,0,0
-672,512,0,0,0,0,0,0,0,0,0,-1,552,512,0,0
-665,512,0,0,0,0,0,0,0,0,0,-1,559,512,0,0
-658,512,0,0,0,0,0,0,0,0,0,-1,566,512,0,0
-651,512,0,0,0,0,0,0,0,0,0,-1,573,512,0,0
-644,512,0,0,0,0,0,0,0,0,0,-1,580,512,0,0
-637,512,0,0,0,0,0,0,0,0,0,-1,587,512,0,0
-630,512,0,0,0,0,0,0,0,0,0,-1,594,512,0,0
-623,512,0,0,0,0,0,0,0,0,0,-1,601,512,0,0
-616,512,0,0,0,0,0,0,0,0,0,-1,608,512,0,0
-609,512,0,0,0,0,0,0,0,0,0,-1,615,512,0,0
-602,512,0,0,0,0,0,0,0,0,0,-1,622,512,0,0
-595,512,0,0,0,0,0,0,0,0,0,-1,629,512,0,0
-588,512,0,0,0,0,0,0,0,0,0,-1,636,512,0,0
-581,512,0,0,0,0,0,0,0,0,0,-1,643,512,0,0
-574,512,0,0,0,0,0,0,0,0,0,-1,650,512,0,0
-567,512,0,0,0,0,0,0,0,0,0,-1,657,512,0,0
-560,512,0,0,0,0,0,0,0,0,0,-1,664,512,0,0
-553,512,0,0,0,0,0,0,0,0,0,-1,671,512,0,0
-546,512,0,0,0,0,0,0,0,0,0,-1,678,512,0,0
-539,512,0,0,0,0,0,0,0,0,0,-1,685,512,0,0
-532,512,0,0,0,0,0,0,0,0,0,-1,692,512,0,0
-525,512,0,0,0,0,0,0,0,0,0,-1,699,512,0,0
-518,512,0,0,0,0,0,0,0,0,0,-1,706,512,0,0
-511,512,0,0,0,0,0,0,0,0,0,-1,713,512,0,0
-504,512,0,0,0,0,0,0,0,0,0,-1,720,512,0,0
-497,512,0,0,0,0,0,0,0,0,0,-1,727,512,0,0
-490,512,0,0,0,0,0,0,0,0,0,-1,734,512,0,0
-483,512,0,0,0,0,0,0,0,0,0,-1,741,512,0,0
-476,512,0,0,0,0,0,0,0,0,0,-1,748,512,0,0
-469,512,0,0,0,0,0,0,0,0,0,-1,755,512,0,0
-462,512,0,0,0,0,0,0,0,0,0,-1,762,512,0,0
-455,512,0,0,0,0,0,0,0,0,0,-1,769,512,0,0
-448,512,1.96283,-4.15674,0,0,0,0,0,0,0,-1,776,512,1.96285,4.15677
-441,512,1.78198,-4.88824,0,0,0,0,0,0,0,-1,783,512,1.78201,4.88826
-434,512,0.0726929,-9.85822,0,0,0,0,0,0,0,-1,790,512,0.0727008,9.85819
-427,512,-0.384583,-9.94824,0,0,0,0,0,0,0,-1,797,512,-0.384552,9.94823
-420,512,-2.93219,-12.4855,0,0,0,0,0,0,0,-1,804,512,-2.93219,12.4855
-413,512,-2.22711,-11.4485,0,0,0,0,0,0,0,-1,811,512,-2.22712,11.4485
-406,512,-2.38037,-13.5743,0,0,0,0,0,0,0,-1,818,512,-2.38034,13.5743
-399,512,-2.67957,-20.5666,0,0,0,0,0,0,0,-1,825,512,-2.67958,20.5666
-392,512,-2.43439,-21.4014,0.00465484,0.0227886,-0.0104116,0.0275278,-8.44141e-05,-1.14363,0.0183801,0.047519,832,512,-2.43442,21.4014
-385,512,-2.37512,-22.1859,0.00408738,0.0201728,-0.00907897,0.0242591,1.07568e-06,-1.14787,0.0161724,0.0216525,839,512,-2.37513,22.1859
-378,512,-2.44519,-22.9324,0.00346858,0.0175827,-0.00787167,0.0210975,-4.62718e-05,-1.15084,0.0140805,0.0173919,846,512,-2.44517,22.9324
-371,512,-2.48187,-23.7382,0.00293868,0.0150256,-0.00674643,0.0180396,-7.53207e-05,-1.15064,0.0120516,0.0136251,853,512,-2.4819,23.7382
-364,512,-2.51398,-24.5681,0.00238422,0.0124503,-0.00555255,0.0149114,-7.68946e-05,-1.15358,0.00996666,0.0102505,860,512,-2.51398,24.5681
-357,512,-2.5509,-25.3073,0.00184633,0.00999954,-0.00443408,0.0119462,-0.000100333,-1.15711,0.00799779,0.0112194,867,512,-2.55088,25.3073
-350,512,-2.59399,-26.0146,0.00138265,0.00766937,-0.00340586,0.00916073,-0.000108702,-1.15807,0.00614371,0.0119478,874,512,-2.59399,26.0146
-343,512,-2.65729,-26.7214,0.0010361,0.00541423,-0.00246089,0.00651879,-6.84622e-05,-1.1489,0.00436886,0.0135642,881,512,-2.65726,26.7214
-336,512,-2.71228,-27.4582,0.000721906,0.00338006,-0.00153332,0.00408015,2.18193e-05,-1.14248,0.00271285,0.0147578,888,512,-2.71229,27.4582
-329,512,-2.69562,-28.1693,0.000548362,0.0015685,-0.00070829,0.00193127,0.000185593,-1.09746,0.00123032,0.0165536,895,512,-2.6956,28.1693
-322,512,-2.72302,-28.8678,0.000481527,1.43466e-05,6.11495e-05,0.000489399,6.47533e-06,0.128018,0.000324129,0.0139571,902,512,-2.72303,28.8678
-315,512,-2.76465,-29.6008,0.000559443,-0.00117756,0.000758132,0.000843789,-0.0014619,0.358826,0.00134704,0.0115394,909,512,-2.76465,29.6008
-308,512,-2.80432,-30.3031,0.000879498,-0.00201033,0.0013886,0.00143858,-0.00256941,0.382763,0.00234451,0.0110511,916,512,-2.80429,30.3031
-301,512,-2.85553,-31.0038,0.0011489,-0.00245325,0.00200285,0.00204139,-0.00334574,0.419196,0.0031405,0.0155028,923,512,-2.85555,31.0038
-294,512,-2.84875,-31.6215,0.00134473,-0.00271593,0.00258836,0.00260406,-0.00397526,0.452817,0.00382597,0.0163342,930,512,-2.84877,31.6215
-287,512,-2.97699,-32.1869,0.00165735,-0.00329138,0.00320069,0.00322859,-0.00486261,0.456346,0.0047031,0.0315004,937,512,-2.97698,32.1869
-280,512,-2.90741,-33.0372,0,0,0,0,0,0,0,-1,944,512,-2.90743,33.0372
-273,512,-2.64246,-33.8028,0,0,0,0,0,0,0,-1,951,512,-2.64246,33.8028
-266,512,-2.33594,-25.9839,0,0,0,0,0,0,0,-1,958,512,-2.33592,25.9839
-259,512,-0.525452,-14.0815,0,0,0,0,0,0,0,-1,965,512,-0.525475,14.0815
-252,512,1.45941,-3.43475,0,0,0,0,0,0,0,-1,972,512,1.45938,3.43475
-245,512,-1.6731,-22.8959,0,0,0,0,0,0,0,-1,979,512,-1.67312,22.8959
-238,512,0.227051,-8.92969,0,0,0,0,0,0,0,-1,986,512,0.227073,8.92968
-231,512,-0.907349,-32.3113,0,0,0,0,0,0,0,-1,993,512,-0.907339,32.3113
-224,512,-1.29974,-33.6304,0,0,0,0,0,0,0,-1,1000,512,-1.29974,33.6304
-217,512,-0.963196,-34.1697,0,0,0,0,0,0,0,-1,1007,512,-0.963226,34.1697
-210,512,-3.76642,-1.94702,0,0,0,0,0,0,0,-1,1014,512,-3.76641,1.94702
-203,512,-2.48328,-5.19061,0,0,0,0,0,0,0,-1,1021,512,-2.48328,5.19059
-196,512,-1.14929,-4.63202,0,0,0,0,0,0,0,-1,1028,512,-1.14934,4.632
-189,512,0.197998,4.55505,0,0,0,0,0,0,0,-1,1035,512,0.197996,-4.55506
-182,512,2.73938,0.0778503,0,0,0,0,0,0,0,-1,1042,512,2.73944,-0.077852
-175,512,2.29565,0.209808,0,0,0,0,0,0,0,-1,1049,512,2.29565,-0.209813
-168,512,2.09399,-0.302856,0,0,0,0,0,0,0,-1,1056,512,2.09403,0.302826
-161,512,2.76636,0.0921021,0,0,0,0,0,0,0,-1,1063,512,2.76633,-0.0921104
-154,512,3.41382,0.466187,0,0,0,0,0,0,0,-1,1070,512,3.41382,-0.466178
-147,512,0,0,0,0,0,0,0,0,0,-1,1077,512,0,0
-140,512,0,0,0,0,0,0,0,0,0,-1,1084,512,0,0
-133,512,0,0,0,0,0,0,0,0,0,-1,1091,512,0,0
-126,512,0,0,0,0,0,0,0,0,0,-1,1098,512,0,0
-119,512,0,0,0,0,0,0,0,0,0,-1,1105,512,0,0
-112,512,0,0,0,0,0,0,0,0,0,-1,1112,512,0,0
-105,512,0,0,0,0,0,0,0,0,0,-1,1119,512,0,0
-98,512,0,0,0,0,0,0,0,0,0,-1,1126,512,0,0
-91,512,0,0,0,0,0,0,0,0,0,-1,1133,512,0,0
-84,512,0,0,0,0,0,0,0,0,0,-1,1140,512,0,0
-77,512,0,0,0,0,0,0,0,0,0,-1,1147,512,0,0
-70,512,0,0,0,0,0,0,0,0,0,-1,1154,512,0,0
-63,512,0,0,0,0,0,0,0,0,0,-1,1161,512,0,0
-56,512,0,0,0,0,0,0,0,0,0,-1,1168,512,0,0
-49,512,0,0,0,0,0,0,0,0,0,-1,1175,512,0,0
-42,512,0,0,0,0,0,0,0,0,0,-1,1182,512,0,0
-35,512,0,0,0,0,0,0,0,0,0,-1,1189,512,0,0
-28,512,0,0,0,0,0,0,0,0,0,-1,1196,512,0,0
-21,512,0,0,0,0,0,0,0,0,0,-1,1203,512,0,0
-14,512,0,0,0,0,0,0,0,0,0,-1,1210,512,0,0
-7,512,0,0,0,0,0,0,0,0,0,-1,1217,512,0,0
0,512,0,0,0,0,0,0,0,0,0,-1,1224,512,0,0
7,512,0,0,0,0,0,0,0,0,0,-1,1231,512,0,0
14,512,0,0,0,0,0,0,0,0,0,-1,1238,512,0,0
21,512,0,0,0,0,0,0,0,0,0,-1,1245,512,0,0
28,512,0,0,0,0,0,0,0,0,0,-1,1252,512,0,0
35,512,0,0,0,0,0,0,0,0,0,-1,1259,512,0,0
42,512,0,0,0,0,0,0,0,0,0,-1,1266,512,0,0
49,512,0,0,0,0,0,0,0,0,0,-1,1273,512,0,0
56,512,0,0,0,0,0,0,0,0,0,-1,1280,512,0,0
63,512,0,0,0,0,0,0,0,0,0,-1,1287,512,0,0
70,512,0,0,0,0,0,0,0,0,0,-1,1294,512,0,0
77,512,0,0,0,0,0,0,0,0,0,-1,1301,512,0,0
84,512,0,0,0,0,0,0,0,0,0,-1,1308,512,0,0
91,512,0,0,0,0,0,0,0,0,0,-1,1315,512,0,0
98,512,0,0,0,0,0,0,0,0,0,-1,1322,512,0,0
105,512,0,0,0,0,0,0,0,0,0,-1,1329,512,0,0
112,512,0,0,0,0,0,0,0,0,0,-1,1336,512,0,0
119,512,0,0,0,0,0,0,0,0,0,-1,1343,512,0,0
126,512,0,0,0,0,0,0,0,0,0,-1,1350,512,0,0
133,512,0,0,0,0,0,0,0,0,0,-1,1357,512,0,0
140,512,0,0,0,0,0,0,0,0,0,-1,1364,512,0,0
147,512,0,0,0,0,0,0,0,0,0,-1,1371,512,0,0
154,512,0,0,0,0,0,0,0,0,0,-1,1378,512,0,0
161,512,0,0,0,0,0,0,0,0,0,-1,1385,512,0,0
168,512,0,0,0,0,0,0,0,0,0,-1,1392,512,0,0
175,512,0,0,0,0,0,0,0,0,0,-1,1399,512,0,0
182,512,0,0,0,0,0,0,0,0,0,-1,1406,512,0,0
189,512,0,0,0,0,0,0,0,0,0,-1,1413,512,0,0
196,512,0,0,0,0,0,0,0,0,0,-1,1420,512,0,0
203,512,0,0,0,0,0,0,0,0,0,-1,1427,512,0,0
210,512,0,0,0,0,0,0,0,0,0,-1,1434,512,0,0
217,512,0,0,0,0,0,0,0,0,0,-1,1441,512,0,0
224,512,0,0,0,0,0,0,0,0,0,-1,1448,512,0,0
231,512,0,0,0,0,0,0,0,0,0,-1,1455,512,0,0
238,512,0,0,0,0,0,0,0,0,0,-1,1462,512,0,0
245,512,0,0,0,0,0,0,0,0,0,-1,1469,512,0,0
252,512,0,0,0,0,0,0,0,0,0,-1,1476,512,0,0
259,512,0,0,0,0,0,0,0,0,0,-1,1483,512,0,0
266,512,0,0,0,0,0,0,0,0,0,-1,1490,512,0,0
273,512,4.00745,0.618622,0,0,0,0,0,0,0,-1,1497,512,4.00747,-0.618611
280,512,4.49609,0.649841,0,0,0,0,0,0,0,-1,1504,512,4.49612,-0.649834
287,512,4.77234,0.458069,0,0,0,0,0,0,0,-1,1511,512,4.77233,-0.458083
294,512,8.54956,-2.36273,0,0,0,0,0,0,0,-1,1518,512,8.54952,2.36274
301,512,6.302,-1.69092,0,0,0,0,0,0,0,-1,1525,512,6.30196,1.69093
308,512,8.2439,-6.22754,0,0,0,0,0,0,0,-1,1532,512,8.24394,6.22757
315,512,7.53687,-6.04211,0,0,0,0,0,0,0,-1,1539,512,7.53691,6.04211
322,512,6.82983,-5.85663,0,0,0,0,0,0,0,-1,1546,512,6.82988,5.85666
329,512,4.38147,-0.329651,0,0,0,0,0,0,0,-1,1553,512,4.38144,0.329662
336,512,4.41467,-0.741455,0,0,0,0,0,0,0,-1,1560,512,4.41467,0.741442
343,512,4.44727,-1.21667,0,0,0,0,0,0,0,-1,1567,512,4.44732,1.21666
350,512,4.55469,-1.65082,0,0,0,0,0,0,0,-1,1574,512,4.5547,1.65083
357,512,5.79993,-2.67456,0,0,0,0,0,0,0,-1,1581,512,5.79991,2.67454
364,512,13.118,-28.5485,0,0,0,0,0,0,0,-1,1588,512,13.1181,28.5485
371,512,5.28467,-7.69269,0,0,0,0,0,0,0,-1,1595,512,5.28464,7.69269
378,512,6.29407,-9.88055,0,0,0,0,0,0,0,-1,1602,512,6.29412,9.88057
385,512,6.45569,-9.32233,0,0,0,0,0,0,0,-1,1609,512,6.45565,9.3223
392,512,6.35522,-8.98425,0,0,0,0,0,0,0,-1,1616,512,6.35526,8.98422
399,512,16.7347,-32.5544,0,0,0,0,0,0,0,-1,1623,512,16.7348,32.5544
406,512,16.4387,-32.4549,0,0,0,0,0,0,0,-1,1630,512,16.4387,32.4549
413,512,16.464,-31.6902,0,0,0,0,0,0,0,-1,1637,512,16.464,31.6902
420,512,16.4047,-30.9744,0.00140401,0.000195337,-0.00179733,0.00269589,-0.00109654,-0.623215,0.00225353,0.0276234,1644,512,16.4047,30.9743
427,512,16.3683,-30.2737,0.00148434,0.000556533,-0.00129683,0.00239774,-0.000356872,-0.61363,0.00172977,0.0161479,1651,512,16.3683,30.2737
434,512,16.3175,-29.5668,0.00138886,0.000753518,-0.000868966,0.0019964,0.000145976,-0.610159,0.00128504,0.011335,1658,512,16.3176,29.5668
441,512,16.2681,-28.8173,0.00137653,0.000956597,-0.000377389,0.00159843,0.000734697,-0.53154,0.000923856,0.0121733,1665,512,16.268,28.8173
448,512,16.2498,-28.1196,0.00141023,0.0010223,0.000122364,0.0014456,0.000986926,0.281397,0.000852991,0.00966137,1672,512,16.2497,28.1196
455,512,16.2195,-27.3846,0.00141506,0.0011874,0.000677472,0.0019882,0.000614262,0.702162,0.00117549,0.00945419,1679,512,16.2195,27.3846
462,512,16.1992,-26.6414,0.00140007,0.00121123,0.00115221,0.00246172,0.000149582,0.744516,0.00159363,0.00918957,1686,512,16.1993,26.6414
469,512,16.1693,-25.9136,0.00149093,0.0012596,0.00170457,0.00308375,-0.000333222,0.751523,0.00217543,0.0106705,1693,512,16.1693,25.9136
476,512,16.1355,-25.1807,0.0016073,0.00126778,0.00233244,0.00377615,-0.000901073,0.749072,0.00286541,0.0145758,1700,512,16.1355,25.1807
483,512,16.1044,-24.4068,0.00174474,0.00125059,0.00291378,0.0044219,-0.00142657,0.743102,0.00352114,0.0141881,1707,512,16.1044,24.4068
490,512,16.0686,-23.6489,0.00191988,0.00110631,0.00351001,0.0050466,-0.00202041,0.727709,0.00420298,0.0115045,1714,512,16.0686,23.6489
497,512,16.0168,-22.8922,0.00217203,0.000939166,0.00406963,0.00567165,-0.00256045,0.710234,0.00486464,0.0127974,1721,512,16.0169,22.8922
504,512,15.9463,-22.1032,0.00247296,0.000784539,0.00456055,0.00626678,-0.00300927,0.693878,0.0054645,0.0150308,1728,512,15.9463,22.1032
511,512,15.9198,-21.2761,0.00269235,0.000572443,0.00491846,0.00666378,-0.00339898,0.679269,0.00591078,0.0193419,1735,512,15.9198,21.2762
518,512,15.9757,-20.4993,0.00269091,0.000418101,0.00501729,0.00669888,-0.00358987,0.674029,0.00602993,0.0249667,1742,512,15.9757,20.4993
525,512,16.0643,-19.7365,0,0,0,0,0,0,0,-1,1749,512,16.0643,19.7365
532,512,16.3994,-18.7048,0,0,0,0,0,0,0,-1,1756,512,16.3994,18.7048
539,512,12.6367,-16.4022,0,0,0,0,0,0,0,-1,1763,512,12.6367,16.4021
546,512,2.77551,-0.66449,0,0,0,0,0,0,0,-1,1770,512,2.77548,0.664503
553,512,3.927,-0.448853,0,0,0,0,0,0,0,-1,1777,512,3.92704,0.448843
560,512,3.55762,-0.201233,0,0,0,0,0,0,0,-1,1784,512,3.55768,0.201259
567,512,3.09045,0.191193,0,0,0,0,0,0,0,-1,1791,512,3.09045,-0.191203
574,512,0,0,0,0,0,0,0,0,0,-1,1798,512,0,0
581,512,0,0,0,0,0,0,0,0,0,-1,1805,512,0,0
588,512,0,0,0,0,0,0,0,0,0,-1,1812,512,0,0
595,512,0,0,0,0,0,0,0,0,0,-1,1819,512,0,0
602,512,0,0,0,0,0,0,0,0,0,-1,1826,512,0,0
609,512,0,0,0,0,0,0,0,0,0,-1,1833,512,0,0
616,512,0,0,0,0,0,0,0,0,0,-1,1840,512,0,0
623,512,0,0,0,0,0,0,0,0,0,-1,1847,512,0,0
630,512,0,0,0,0,0,0,0,0,0,-1,1854,512,0,0
637,512,0,0,0,0,0,0,0,0,0,-1,1861,512,0,0
644,512,0,0,0,0,0,0,0,0,0,-1,1868,512,0,0
651,512,0,0,0,0,0,0,0,0,0,-1,1875,512,0,0
658,512,0,0,0,0,0,0,0,0,0,-1,1882,512,0,0
665,512,0,0,0,0,0,0,0,0,0,-1,1889,512,0,0
672,512,0,0,0,0,0,0,0,0,0,-1,1896,512,0,0
679,512,0,0,0,0,0,0,0,0,0,-1,1903,512,0,0
686,512,0,0,0,0,0,0,0,0,0,-1,1910,512,0,0
693,512,0,0,0,0,0,0,0,0,0,-1,1917,512,0,0
700,512,0,0,0,0,0,0,0,0,0,-1,1924,512,0,0
707,512,0,0,0,0,0,0,0,0,0,-1,1931,512,0,0
714,512,0,0,0,0,0,0,0,0,0,-1,1938,512,0,0
721,512,0,0,0,0,0,0,0,0,0,-1,1945,512,0,0
728,512,0,0,0,0,0,0,0,0,0,-1,1952,512,0,0
735,512,0,0,0,0,0,0,0,0,0,-1,1959,512,0,0
742,512,0,0,0,0,0,0,0,0,0,-1,1966,512,0,0
749,512,0,0,0,0,0,0,0,0,0,-1,1973,512,0,0
756,512,0,0,0,0,0,0,0,0,0,-1,1980,512,0,0
763,512,0,0,0,0,0,0,0,0,0,-1,1987,512,0,0
770,512,0,0,0,0,0,0,0,0,0,-1,1994,512,0,0
777,512,0,0,0,0,0,0,0,0,0,-1,2001,512,0,0
784,512,0,0,0,0,0,0,0,0,0,-1,2008,512,0,0
791,512,0,0,0,0,0,0,0,0,0,-1,2015,512,0,0
798,512,0,0,0,0,0,0,0,0,0,-1,2022,512,0,0
805,512,0,0,0,0,0,0,0,0,0,-1,2029,512,0,0
812,512,0,0,0,0,0,0,0,0,0,-1,2036,512,0,0
-700,505,0,0,0,0,0,0,0,0,0,-1,524,519,0,0
-693,505,0,0,0,0,0,0,0,0,0,-1,531,519,0,0
-686,505,0,0,0,0,0,0,0,0,0,-1,538,519,0,0
-679,505,0,0,0,0,0,0,0,0,0,-1,545,519,0,0
-672,505,0,0,0,0,0,0,0,0,0,-1,552,519,0,0
-665,505,0,0,0,0,0,0,0,0,0,-1,559,519,0,0
-658,505,0,0,0,0,0,0,0,0,0,-1,566,519,0,0
-651,505,0,0,0,0,0,0,0,0,0,-1,573,519,0,0
-644,505,0,0,0,0,0,0,0,0,0,-1,580,519,0,0
-637,505,0,0,0,0,0,0,0,0,0,-1,587,519,0,0
-630,505,0,0,0,0,0,0,0,0,0,-1,594,519,0,0
-623,505,0,0,0,0,0,0,0,0,0,-1,601,519,0,0
-616,505,0,0,0,0,0,0,0,0,0,-1,608,519,0,0
-609,505,0,0,0,0,0,0,0,0,0,-1,615,519,0,0
-602,505,0,0,0,0,0,0,0,0,0,-1,622,519,0,0
-595,505,0,0,0,0,0,0,0,0,0,-1,629,519,0,0
-588,505,0,0,0,0,0,0,0,0,0,-1,636,519,0,0
-581,505,0,0,0,0,0,0,0,0,0,-1,643,519,0,0
-574,505,0,0,0,0,0,0,0,0,0,-1,650,519,0,0
-567,505,0,0,0,0,0,0,0,0,0,-1,657,519,0,0
-560,505,0,0,0,0,0,0,0,0,0,-1,664,519,0,0
-553,505,0,0,0,0,0,0,0,0,0,-1,671,519,0,0
-546,505,0,0,0,0,0,0,0,0,0,-1,678,519,0,0
-539,505,0,0,0,0,0,0,0,0,0,-1,685,519,0,0
-532,505,0,0,0,0,0,0,0,0,0,-1,692,519,0,0
-525,505,0,0,0,0,0,0,0,0,0,-1,699,519,0,0
-518,505,0,0,0,0,0,0,0,0,0,-1,706,519,0,0
-511,505,0,0,0,0,0,0,0,0,0,-1,713,519,0,0
-504,505,0,0,0,0,0,0,0,0,0,-1,720,519,0,0
-497,505,0,0,0,0,0,0,0,0,0,-1,727,519,0,0
-490,505,0,0,0,0,0,0,0,0,0,-1,734,519,0,0
-483,505,0,0,0,0,0,0,0,0,0,-1,741,519,0,0
-476,505,0,0,0,0,0,0,0,0,0,-1,748,519,0,0
-469,505,0,0,0,0,0,0,0,0,0,-1,755,519,0,0
-462,505,0,0,0,0,0,0,0,0,0,-1,762,519,0,0
-455,505,2.72137,-3.26379,0,0,0,0,0,0,0,-1,769,519,2.72135,3.26377
-448,505,2.51111,-3.94989,0,0,0,0,0,0,0,-1,776,519,2.51112,3.94986
-441,505,2.80212,-6.8902,0,0,0,0,0,0,0,-1,783,519,2.80209,6.89019
-434,505,-0.155212,-10.6374,0,0,0,0,0,0,0,-1,790,519,-0.155194,10.6374
-427,505,-0.474426,-10.4702,0,0,0,0,0,0,0,-1,797,519,-0.474433,10.4702
-420,505,-0.922546,-10.1928,0,0,0,0,0,0,0,-1,804,519,-0.92257,10.1928
-413,505,-3.33948,-13.6183,0,0,0,0,0,0,0,-1,811,519,-3.33949,13.6184
-406,505,-3.04523,-17.519,0,0,0,0,0,0,0,-1,818,519,-3.04524,17.519
-399,505,-3.07861,-20.5359,0,0,0,0,0,0,0,-1,825,519,-3.07862,20.5359
-392,505,-3.07941,-21.391,0.00322005,0.0177257,-0.00864794,0.0217596,-0.000813862,-1.13434,0.0147852,0.0263628,832,519,-3.07939,21.391
-385,505,-3.13153,-22.2114,0.00293198,0.0154812,-0.00751666,0.0189979,-0.000584784,-1.13319,0.0128646,0.0104186,839,519,-3.13153,22.2114
-378,505,-3.18451,-22.9977,0.00264695,0.0133041,-0.00648621,0.0163699,-0.000418797,-1.12926,0.0110555,0.0109398,846,519,-3.18454,22.9977
-371,505,-3.21521,-23.7947,0.00235328,0.0111092,-0.00551163,0.01377,-0.000307564,-1.12103,0.00928422,0.013447,853,519,-3.21522,23.7947
-364,505,-3.24847,-24.5668,0.00199733,0.00883845,-0.0044536,0.0110335,-0.000197696,-1.11287,0.00742243,0.015102,860,519,-3.24845,24.5669
-357,505,-3.27679,-25.3079,0.00165357,0.00672717,-0.0034339,0.00845968,-7.89422e-05,-1.10353,0.00566628,0.0127112,867,519,-3.27679,25.3079
-350,505,-3.32202,-26.0057,0.00135024,0.00472165,-0.00249192,0.00604448,2.74128e-05,-1.08278,0.00402055,0.012054,874,519,-3.32202,26.0058
-343,505,-3.3573,-26.7165,0.00110504,0.00275585,-0.00160883,0.00373866,0.00012223,-1.02241,0.00245271,0.011353,881,519,-3.35728,26.7165
-336,505,-3.40021,-27.437,0.000848365,0.000940127,-0.000711464,0.00160719,0.000181305,-0.817598,0.00101643,0.0143214,888,519,-3.4002,27.437
-329,505,-3.39966,-28.1209,0.000708122,-0.000650709,0.000104561,0.00071612,-0.000658708,0.0763502,0.000793988,0.019636,895,519,-3.39967,28.1209
-322,505,-3.42523,-28.8467,0.000684172,-0.00192219,0.00081419,0.000917606,-0.00215563,0.279217,0.00182169,0.0232362,902,519,-3.42522,28.8468
-315,505,-3.47198,-29.5745,0.00077466,-0.00284037,0.00145019,0.00128451,-0.00335022,0.338075,0.00276303,0.0170356,909,519,-3.47201,29.5745
-308,505,-3.51166,-30.2493,0.00113607,-0.00341282,0.00208212,0.00194519,-0.00422193,0.37064,0.00364057,0.0122778,916,519,-3.51164,30.2493
-301,505,-3.52484,-30.9642,0.00139316,-0.00350561,0.00276107,0.00263471,-0.00474716,0.422574,0.0043197,0.0185466,923,519,-3.52483,30.9643
-294,505,-3.53345,-31.5822,0,0,0,0,0,0,0,-1,930,519,-3.53342,31.5822
-287,505,-3.65765,-32.3083,0,0,0,0,0,0,0,-1,937,519,-3.65764,32.3083
-280,505,-2.79846,-27.7252,0,0,0,0,0,0,0,-1,944,519,-2.79845,27.7252
-273,505,-0.0680542,-9.44867,0,0,0,0,0,0,0,-1,951,519,-0.0680462,9.44866
-266,505,-0.036377,-9.07922,0,0,0,0,0,0,0,-1,958,519,-0.0364055,9.0792
-259,505,0.10321,-6.69824,0,0,0,0,0,0,0,-1,965,519,0.103235,6.69826
-252,505,6.82312,-15.6972,0,0,0,0,0,0,0,-1,972,519,6.82314,15.6972
-245,505,4.26727,-12.9861,0,0,0,0,0,0,0,-1,979,519,4.2673,12.9861
-238,505,1.67432,-11.2307,0,0,0,0,0,0,0,-1,986,519,1.67429,11.2307
-231,505,-0.958435,-8.3075,0,0,0,0,0,0,0,-1,993,519,-0.958421,8.30751
-224,505,-1.46399,-33.4399,0,0,0,0,0,0,0,-1,1000,519,-1.46397,33.4399
-217,505,-6.34302,-1.65533,0,0,0,0,0,0,0,-1,1007,519,-6.34299,1.65535
-210,505,-3.06128,-0.396301,0,0,0,0,0,0,0,-1,1014,519,-3.06129,0.396294
-203,505,-4.26465,2.03607,0,0,0,0,0,0,0,-1,1021,519,-4.26462,-2.03606
-196,505,-5.47595,4.27295,0,0,0,0,0,0,0,-1,1028,519,-5.47597,-4.27292
-189,505,1.51526,5.56207,0,0,0,0,0,0,0,-1,1035,519,1.51523,-5.56209
-182,505,2.97815,7.5097,0,0,0,0,0,0,0,-1,1042,519,2.97812,-7.5097
-175,505,-2.38416,-2.17548,0,0,0,0,0,0,0,-1,1049,519,-2.38411,2.1755
-168,505,0,0,0,0,0,0,0,0,0,-1,1056,519,0,0
-161,505,0,0,0,0,0,0,0,0,0,-1,1063,519,0,0
-154,505,0,0,0,0,0,0,0,0,0,-1,1070,519,0,0
-147,505,0,0,0,0,0,0,0,0,0,-1,1077,519,0,0
-140,505,0,0,0,0,0,0,0,0,0,-1,1084,519,0,0
-133,505,0,0,0,0,0,0,0,0,0,-1,1091,519,0,0
-126,505,0,0,0,0,0,0,0,0,0,-1,1098,519,0,0
-119,505,0,0,0,0,0,0,0,0,0,-1,1105,519,0,0
-112,505,0,0,0,0,0,0,0,0,0,-1,1112,519,0,0
-105,505,0,0,0,0,0,0,0,0,0,-1,1119,519,0,0
-98,505,0,0,0,0,0,0,0,0,0,-1,1126,519,0,0
-91,505,0,0,0,0,0,0,0,0,0,-1,1133,519,0,0
-84,505,0,0,0,0,0,0,0,0,0,-1,1140,519,0,0
-77,505,0,0,0,0,0,0,0,0,0,-1,1147,519,0,0
-70,505,0,0,0,0,0,0,0,0,0,-1,1154,519,0,0
-63,505,0,0,0,0,0,0,0,0,0,-1,1161,519,0,0
-56,505,0,0,0,0,0,0,0,0,0,-1,1168,519,0,0
-49,505,0,0,0,0,0,0,0,0,0,-1,1175,519,0,0
-42,505,0,0,0,0,0,0,0,0,0,-1,1182,519,0,0
-35,505,0,0,0,0,0,0,0,0,0,-1,1189,519,0,0
-28,505,0,0,0,0,0,0,0,0,0,-1,1196,519,0,0
-21,505,0,0,0,0,0,0,0,0,0,-1,1203,519,0,0
-14,505,0,0,0,0,0,0,0,0,0,-1,1210,519,0,0
-7,505,0,0,0,0,0,0,0,0,0,-1,1217,519,0,0
0,505,0,0,0,0,0,0,0,0,0,-1,1224,519,0,0
7,505,0,0,0,0,0,0,0,0,0,-1,1231,519,0,0
14,505,0,0,0,0,0,0,0,0,0,-1,1238,519,0,0
21,505,0,0,0,0,0,0,0,0,0,-1,1245,519,0,0
28,505,0,0,0,0,0,0,0,0,0,-1,1252,519,0,0
35,505,0,0,0,0,0,0,0,0,0,-1,1259,519,0,0
42,505,0,0,0,0,0,0,0,0,0,-1,1266,519,0,0
49,505,0,0,0,0,0,0,0,0,0,-1,1273,519,0,0
56,505,0,0,0,0,0,0,0,0,0,-1,1280,519,0,0
63,505,0,0,0,0,0,0,0,0,0,-1,1287,519,0,0
70,505,0,0,0,0,0,0,0,0,0,-1,1294,519,0,0
77,505,0,0,0,0,0,0,0,0,0,-1,1301,519,0,0
84,505,0,0,0,0,0,0,0,0,0,-1,1308,519,0,0
91,505,0,0,0,0,0,0,0,0,0,-1,1315,519,0,0
98,505,0,0,0,0,0,0,0,0,0,-1,1322,519,0,0
105,505,0,0,0,0,0,0,0,0,0,-1,1329,519,0,0
112,505,0,0,0,0,0,0,0,0,0,-1,1336,519,0,0
119,505,0,0,0,0,0,0,0,0,0,-1,1343,519,0,0
126,505,0,0,0,0,0,0,0,0,0,-1,1350,519,0,0
133,505,0,0,0,0,0,0,0,0,0,-1,1357,519,0,0
140,505,0,0,0,0,0,0,0,0,0,-1,1364,519,0,0
147,505,0,0,0,0,0,0,0,0,0,-1,1371,519,0,0
154,505,0,0,0,0,0,0,0,0,0,-1,1378,519,0,0
161,505,0,0,0,0,0,0,0,0,0,-1,1385,519,0,0
168,505,0,0,0,0,0,0,0,0,0,-1,1392,519,0,0
175,505,0,0,0,0,0,0,0,0,0,-1,1399,519,0,0
182,505,0,0,0,0,0,0,0,0,0,-1,1406,519,0,0
189,505,0,0,0,0,0,0,0,0,0,-1,1413,519,0,0
196,505,0,0,0,0,0,0,0,0,0,-1,1420,519,0,0
203,505,0,0,0,0,0,0,0,0,0,-1,1427,519,0,0
210,505,0,0,0,0,0,0,0,0,0,-1,1434,519,0,0
217,505,0,0,0,0,0,0,0,0,0,-1,1441,519,0,0
224,505,0,0,0,0,0,0,0,0,0,-1,1448,519,0,0
231,505,0,0,0,0,0,0,0,0,0,-1,1455,519,0,0
238,505,0,0,0,0,0,0,0,0,0,-1,1462,519,0,0
245,505,0,0,0,0,0,0,0,0,0,-1,1469,519,0,0
252,505,0,0,0,0,0,0,0,0,0,-1,1476,519,0,0
259,505,0,0,0,0,0,0,0,0,0,-1,1483,519,0,0
266,505,0,0,0,0,0,0,0,0,0,-1,1490,519,0,0
273,505,0,0,0,0,0,0,0,0,0,-1,1497,519,0,0
280,505,0,0,0,0,0,0,0,0,0,-1,1504,519,0,0
287,505,4.39478,0.499512,0,0,0,0,0,0,0,-1,1511,519,4.39476,-0.499506
294,505,4.88867,0.0822754,0,0,0,0,0,0,0,-1,1518,519,4.88871,-0.0822748
301,505,4.82153,-0.0704346,0,0,0,0,0,0,0,-1,1525,519,4.82156,0.0704312
308,505,4.67761,-0.29187,0,0,0,0,0,0,0,-1,1532,519,4.67762,0.291845
315,505,8.44055,-6.54352,0,0,0,0,0,0,0,-1,1539,519,8.44059,6.54349
322,505,4.78955,-0.594116,0,0,0,0,0,0,0,-1,1546,519,4.78957,0.594096
329,505,5.16321,0.434631,0,0,0,0,0,0,0,-1,1553,519,5.16316,-0.434614
336,505,4.94495,-0.920471,0,0,0,0,0,0,0,-1,1560,519,4.945,0.920495
343,505,5.01855,-1.4823,0,0,0,0,0,0,0,-1,1567,519,5.01851,1.48227
350,505,5.33154,-1.77838,0,0,0,0,0,0,0,-1,1574,519,5.33152,1.77838
357,505,5.56567,-1.9425,0,0,0,0,0,0,0,-1,1581,519,5.56562,1.94248
364,505,5.85205,-2.6579,0,0,0,0,0,0,0,-1,1588,519,5.85211,2.65788
371,505,5.88477,-7.00922,0,0,0,0,0,0,0,-1,1595,519,5.88473,7.00924
378,505,5.44104,-7.10162,0,0,0,0,0,0,0,-1,1602,519,5.44099,7.10162
385,505,6.64661,-8.65015,0,0,0,0,0,0,0,-1,1609,519,6.64662,8.65014
392,505,6.34558,-8.3429,0,0,0,0,0,0,0,-1,1616,519,6.34554,8.34288
399,505,7.45898,-9.70386,0,0,0,0,0,0,0,-1,1623,519,7.45899,9.70388
406,505,7.08679,-9.4928,0,0,0,0,0,0,0,-1,1630,519,7.08678,9.49278
413,505,8.4032,-14.0308,0,0,0,0,0,0,0,-1,1637,519,8.4032,14.0308
420,505,17.1469,-31.2007,0,0,0,0,0,0,0,-1,1644,519,17.1469,31.2007
427,505,17.0835,-30.3599,0.00170409,9.47432e-05,-0.00183424,0.0029024,-0.00110356,-0.578691,0.0023893,0.0319041,1651,519,17.0835,30.3599
434,505,17.0375,-29.5564,0.00161141,0.000306928,-0.0014181,0.00252008,-0.000601733,-0.569853,0.00191245,0.0122848,1658,519,17.0375,29.5564
441,505,17.022,-28.7688,0.0016157,0.000564818,-0.000910117,0.00214117,3.93544e-05,-0.523604,0.00141451,0.00986622,1665,519,17.022,28.7688
448,505,16.9874,-28.0566,0.00165822,0.000744437,-0.000423601,0.00182437,0.000578281,-0.373805,0.00107657,0.0106519,1672,519,16.9874,28.0566
455,505,16.9609,-27.3312,0.00166044,0.00104361,9.08938e-05,0.00167356,0.0010305,0.1433,0.000974821,0.0113769,1679,519,16.961,27.3313
462,505,16.9208,-26.5885,0.00157805,0.00115985,0.000509691,0.00191986,0.000818033,0.590741,0.00111246,0.0109595,1686,519,16.9207,26.5885
469,505,16.8837,-25.8678,0.00158628,0.00130299,0.00102555,0.00247992,0.000409343,0.716774,0.00153513,0.0112435,1693,519,16.8837,25.8678
476,505,16.8605,-25.1608,0.00164027,0.00141201,0.00160964,0.00313982,-8.75411e-05,0.750006,0.00212299,0.0120787,1700,519,16.8605,25.1608
483,505,16.8398,-24.4063,0.00170555,0.00147071,0.00213531,0.00372666,-0.000550405,0.757931,0.00268677,0.0129119,1707,519,16.8398,24.4063
490,505,16.7994,-23.6279,0.00175072,0.0014365,0.00263378,0.00423207,-0.00104485,0.755608,0.00322656,0.0123936,1714,519,16.7994,23.628
497,505,16.7775,-22.8727,0.00184476,0.00140317,0.00312381,0.00475556,-0.00150763,0.750116,0.00377465,0.0126357,1721,519,16.7774,22.8727
504,505,16.718,-22.0913,0.00197151,0.00129019,0.0035311,0.00517835,-0.00191664,0.73731,0.00423813,0.0131549,1728,519,16.718,22.0913
511,505,16.6708,-21.3147,0.00197094,0.00118129,0.00378925,0.00538588,-0.00223365,0.733487,0.00452289,0.0153143,1735,519,16.6708,21.3147
518,505,16.7358,-20.5396,0.00171758,0.0011205,0.00379833,0.00522908,-0.002391,0.74618,0.00450002,0.0280439,1742,519,16.7359,20.5396
525,505,16.8184,-19.688,0,0,0,0,0,0,0,-1,1749,519,16.8183,19.688
532,505,16.2678,-18.9805,0,0,0,0,0,0,0,-1,1756,519,16.2678,18.9804
539,505,13.9879,-13.9018,0,0,0,0,0,0,0,-1,1763,519,13.988,13.9018
546,505,7.94946,-6.64539,0,0,0,0,0,0,0,-1,1770,519,7.94947,6.64539
553,505,2.82837,0.162659,0,0,0,0,0,0,0,-1,1777,519,2.82841,-0.162672
560,505,3.66223,-0.479797,0,0,0,0,0,0,0,-1,1784,519,3.66219,0.47982
567,505,4.65271,-0.950256,0,0,0,0,0,0,0,-1,1791,519,4.65274,0.95028
574,505,5.54443,-1.19977,0,0,0,0,0,0,0,-1,1798,519,5.54443,1.19974
581,505,0,0,0,0,0,0,0,0,0,-1,1805,519,0,0
588,505,0,0,0,0,0,0,0,0,0,-1,1812,519,0,0
595,505,0,0,0,0,0,0,0,0,0,-1,1819,519,0,0
602,505,0,0,0,0,0,0,0,0,0,-1,1826,519,0,0
609,505,0,0,0,0,0,0,0,0,0,-1,1833,519,0,0
616,505,0,0,0,0,0,0,0,0,0,-1,1840,519,0,0
623,505,0,0,0,0,0,0,0,0,0,-1,1847,519,0,0
630,505,0,0,0,0,0,0,0,0,0,-1,1854,519,0,0
637,505,0,0,0,0,0,0,0,0,0,-1,1861,519,0,0
644,505,0,0,0,0,0,0,0,0,0,-1,1868,519,0,0
651,505,0,0,0,0,0,0,0,0,0,-1,1875,519,0,0
658,505,0,0,0,0,0,0,0,0,0,-1,1882,519,0,0
665,505,0,0,0,0,0,0,0,0,0,-1,1889,519,0,0
672,505,0,0,0,0,0,0,0,0,0,-1,1896,519,0,0
679,505,0,0,0,0,0,0,0,0,0,-1,1903,519,0,0
686,505,0,0,0,0,0,0,0,0,0,-1,1910,519,0,0
693,505,0,0,0,0,0,0,0,0,0,-1,1917,519,0,0
700,505,0,0,0,0,0,0,0,0,0,-1,1924,519,0,0
707,505,0,0,0,0,0,0,0,0,0,-1,1931,519,0,0
714,505,0,0,0,0,0,0,0,0,0,-1,1938,519,0,0
721,505,0,0,0,0,0,0,0,0,0,-1,1945,519,0,0
728,505,0,0,0,0,0,0,0,0,0,-1,1952,519,0,0
735,505,0,0,0,0,0,0,0,0,0,-1,1959,519,0,0
742,505,0,0,0,0,0,0,0,0,0,-1,1966,519,0,0
749,505,0,0,0,0,0,0,0,0,0,-1,1973,519,0,0
756,505,0,0,0,0,0,0,0,0,0,-1,1980,519,0,0
763,505,0,0,0,0,0,0,0,0,0,-1,1987,519,0,0
770,505,0,0,0,0,0,0,0,0,0,-1,1994,519,0,0
777,505,0,0,0,0,0,0,0,0,0,-1,2001,519,0,0
784,505,0,0,0,0,0,0,0,0,0,-1,2008,519,0,0
791,505,0,0,0,0,0,0,0,0,0,-1,2015,519,0,0
798,505,0,0,0,0,0,0,0,0,0,-1,2022,519,0,0
805,505,0,0,0,0,0,0,0,0,0,-1,2029,519,0,0
812,505,0,0,0,0,0,0,0,0,0,-1,2036,519,0,0
-700,498,0,0,0,0,0,0,0,0,0,-1,524,526,0,0
-693,498,0,0,0,0,0,0,0,0,0,-1,531,526,0,0
-686,498,0,0,0,0,0,0,0,0,0,-1,538,526,0,0
-679,498,0,0,0,0,0,0,0,0,0,-1,545,526,0,0
-672,498,0,0,0,0,0,0,0,0,0,-1,552,526,0,0
-665,498,0,0,0,0,0,0,0,0,0,-1,559,526,0,0
-658,498,0,0,0,0,0,0,0,0,0,-1,566,526,0,0
-651,498,0,0,0,0,0,0,0,0,0,-1,573,526,0,0
-644,498,0,0,0,0,0,0,0,0,0,-1,580,526,0,0
-637,498,0,0,0,0,0,0,0,0,0,-1,587,526,0,0
-630,498,0,0,0,0,0,0,0,0,0,-1,594,526,0,0
-623,498,0,0,0,0,0,0,0,0,0,-1,601,526,0,0
-616,498,0,0,0,0,0,0,0,0,0,-1,608,526,0,0
-609,498,0,0,0,0,0,0,0,0,0,-1,615,526,0,0
-602,498,0,0,0,0,0,0,0,0,0,-1,622,526,0,0
-595,498,0,0,0,0,0,0,0,0,0,-1,629,526,0,0
-588,498,0,0,0,0,0,0,0,0,0,-1,636,526,0,0
-581,498,0,0,0,0,0,0,0,0,0,-1,643,526,0,0
-574,498,0,0,0,0,0,0,0,0,0,-1,650,526,0,0
-567,498,0,0,0,0,0,0,0,0,0,-1,657,526,0,0
-560,498,0,0,0,0,0,0,0,0,0,-1,664,526,0,0
-553,498,0,0,0,0,0,0,0,0,0,-1,671,526,0,0
-546,498,0,0,0,0,0,0,0,0,0,-1,678,526,0,0
-539,498,0,0,0,0,0,0,0,0,0,-1,685,526,0,0
-532,498,0,0,0,0,0,0,0,0,0,-1,692,526,0,0
-525,498,0,0,0,0,0,0,0,0,0,-1,699,526,0,0
-518,498,0,0,0,0,0,0,0,0,0,-1,706,526,0,0
-511,498,0,0,0,0,0,0,0,0,0,-1,713,526,0,0
-504,498,0,0,0,0,0,0,0,0,0,-1,720,526,0,0
-497,498,0,0,0,0,0,0,0,0,0,-1,727,526,0,0
-490,498,0,0,0,0,0,0,0,0,0,-1,734,526,0,0
-483,498,0,0,0,0,0,0,0,0,0,-1,741,526,0,0
-476,498,0,0,0,0,0,0,0,0,0,-1,748,526,0,0
-469,498,0,0,0,0,0,0,0,0,0,-1,755,526,0,0
-462,498,6.81024,1.15515,0,0,0,0,0,0,0,-1,762,526,6.81026,-1.15514
-455,498,3.25757,-3.0592,0,0,0,0,0,0,0,-1,769,526,3.25754,3.05921
-448,498,3.05939,-3.74298,0,0,0,0,0,0,0,-1,776,526,3.05939,3.74296
-441,498,2.77191,-6.08209,0,0,0,0,0,0,0,-1,783,526,2.77189,6.08207
-434,498,2.10681,-6.95929,0,0,0,0,0,0,0,-1,790,526,2.10682,6.9593
-427,498,-0.368042,-10.7726,0,0,0,0,0,0,0,-1,797,526,-0.36807,10.7726
-420,498,-1.05035,-10.5142,0,0,0,0,0,0,0,-1,804,526,-1.05034,10.5142
-413,498,-4.07922,-17.6354,0,0,0,0,0,0,0,-1,811,526,-4.07923,17.6354
-406,498,-3.83398,-19.824,0,0,0,0,0,0,0,-1,818,526,-3.834,19.824
-399,498,-3.72998,-20.5959,0.00220763,0.0154393,-0.00780892,0.0190581,-0.00141121,-1.13683,0.013201,0.0294396,825,526,-3.72998,20.5959
-392,498,-3.83044,-21.4351,0.00214456,0.0134617,-0.00688968,0.0167187,-0.00111242,-1.1292,0.0115345,0.0158306,832,526,-3.83047,21.4351
-385,498,-3.87256,-22.2015,0.00210284,0.0115469,-0.00597463,0.0144402,-0.0007905,-1.11981,0.00990082,0.0105392,839,526,-3.87259,22.2015
-378,498,-3.89539,-22.9763,0.00202976,0.00966127,-0.00508521,0.0122031,-0.000512108,-1.10726,0.00831139,0.0107101,846,526,-3.8954,22.9763
-371,498,-3.90894,-23.744,0.00191256,0.00774554,-0.00424135,0.00997638,-0.000318276,-1.08659,0.00675951,0.0157935,853,526,-3.90894,23.744
-364,498,-3.95917,-24.5049,0.00172348,0.00572596,-0.00330621,0.00758943,-0.000139989,-1.05755,0.00510692,0.016433,860,526,-3.95914,24.5049
-357,498,-4.00049,-25.2428,0.00153645,0.0038742,-0.00239646,0.00537165,3.90054e-05,-1.0123,0.00356817,0.0118555,867,526,-4.0005,25.2428
-350,498,-4.04333,-25.9669,0.00136448,0.00211407,-0.00155398,0.00333781,0.000140737,-0.90373,0.00217981,0.0125446,874,526,-4.04334,25.9669
-343,498,-4.07867,-26.741,0.00119705,0.000378069,-0.000747187,0.0016396,-6.44794e-05,-0.534728,0.00111518,0.0158678,881,526,-4.07869,26.741
-336,498,-4.07227,-27.4869,0.000983452,-0.00127876,0.00010066,0.000987922,-0.00128323,0.0443793,0.00131494,0.0199974,888,526,-4.07227,27.4869
-329,498,-4.09088,-28.1024,0.000865176,-0.00271068,0.000895411,0.00107686,-0.00292237,0.232147,0.0023895,0.0262514,895,526,-4.09089,28.1024
-322,498,-4.13513,-28.8085,0.000875935,-0.00373527,0.00152594,0.00133516,-0.0041945,0.292327,0.00333179,0.0278159,902,526,-4.13511,28.8085
-315,498,-4.20074,-29.5195,0.000958987,-0.00441989,0.00208361,0.00167168,-0.00513258,0.329573,0.00409433,0.0201321,909,526,-4.20072,29.5195
-308,498,-4.21863,-30.196,0.00134041,-0.00477145,0.00269708,0.00236038,-0.00579141,0.361551,0.0048434,0.020454,916,526,-4.21864,30.196
-301,498,-4.20178,-30.9412,0,0,0,0,0,0,0,-1,923,526,-4.20179,30.9412
-294,498,-4.0213,-31.4279,0,0,0,0,0,0,0,-1,930,526,-4.02132,31.4279
-287,498,-0.91394,-13.4327,0,0,0,0,0,0,0,-1,937,526,-0.913935,13.4327
-280,498,-0.341614,-8.66608,0,0,0,0,0,0,0,-1,944,526,-0.341589,8.66606
-273,498,-0.988892,-8.62921,0,0,0,0,0,0,0,-1,951,526,-0.988906,8.62922
-266,498,0.362488,-6.33545,0,0,0,0,0,0,0,-1,958,526,0.362478,6.33547
-259,498,10.9454,-17.3615,0,0,0,0,0,0,0,-1,965,526,10.9454,17.3614
-252,498,8.56586,-14.6886,0,0,0,0,0,0,0,-1,972,526,8.56584,14.6886
-245,498,5.97382,-11.928,0,0,0,0,0,0,0,-1,979,526,5.97381,11.928
-238,498,2.24841,-13.8145,0,0,0,0,0,0,0,-1,986,526,2.24838,13.8145
-231,498,0.665894,-10.4898,0,0,0,0,0,0,0,-1,993,526,0.665863,10.4898
-224,498,-2.11243,-4.76312,0,0,0,0,0,0,0,-1,1000,526,-2.11245,4.76314
-217,498,-3.82239,-1.42841,0,0,0,0,0,0,0,-1,1007,526,-3.82241,1.42843
-210,498,-1.80591,-0.358215,0,0,0,0,0,0,0,-1,1014,526,-1.8059,0.3582
-203,498,-3.17316,1.06641,0,0,0,0,0,0,0,-1,1021,526,-3.17313,-1.0664
-196,498,-0.103271,5.40527,0,0,0,0,0,0,0,-1,1028,526,-0.103285,-5.40528
-189,498,3.00256,6.47137,0,0,0,0,0,0,0,-1,1035,526,3.00256,-6.47139
-182,498,0,0,0,0,0,0,0,0,0,-1,1042,526,0,0
-175,498,0,0,0,0,0,0,0,0,0,-1,1049,526,0,0
-168,498,0,0,0,0,0,0,0,0,0,-1,1056,526,0,0
-161,498,0,0,0,0,0,0,0,0,0,-1,1063,526,0,0
-154,498,0,0,0,0,0,0,0,0,0,-1,1070,526,0,0
-147,498,0,0,0,0,0,0,0,0,0,-1,1077,526,0,0
-140,498,0,0,0,0,0,0,0,0,0,-1,1084,526,0,0
-133,498,0,0,0,0,0,0,0,0,0,-1,1091,526,0,0
-126,498,0,0,0,0,0,0,0,0,0,-1,1098,526,0,0
-119,498,0,0,0,0,0,0,0,0,0,-1,1105,526,0,0
-112,498,0,0,0,0,0,0,0,0,0,-1,1112,526,0,0
-105,498,0,0,0,0,0,0,0,0,0,-1,1119,526,0,0
-98,498,0,0,0,0,0,0,0,0,0,-1,1126,526,0,0
-91,498,0,0,0,0,0,0,0,0,0,-1,1133,526,0,0
-84,498,0,0,0,0,0,0,0,0,0,-1,1140,526,0,0
-77,498,0,0,0,0,0,0,0,0,0,-1,1147,526,0,0
-70,498,0,0,0,0,0,0,0,0,0,-1,1154,526,0,0
-63,498,0,0,0,0,0,0,0,0,0,-1,1161,526,0,0
-56,498,0,0,0,0,0,0,0,0,0,-1,1168,526,0,0
-49,498,0,0,0,0,0,0,0,0,0,-1,1175,526,0,0
-42,498,0,0,0,0,0,0,0,0,0,-1,1182,526,0,0
-35,498,0,0,0,0,0,0,0,0,0,-1,1189,526,0,0
-28,498,0,0,0,0,0,0,0,0,0,-1,1196,526,0,0
-21,498,0,0,0,0,0,0,0,0,0,-1,1203,526,0,0
-14,498,0,0,0,0,0,0,0,0,0,-1,1210,526,0,0
-7,498,0,0,0,0,0,0,0,0,0,-1,1217,526,0,0
0,498,0,0,0,0,0,0,0,0,0,-1,1224,526,0,0
7,498,0,0,0,0,0,0,0,0,0,-1,1231,526,0,0
14,498,0,0,0,0,0,0,0,0,0,-1,1238,526,0,0
21,498,0,0,0,0,0,0,0,0,0,-1,1245,526,0,0
28,498,0,0,0,0,0,0,0,0,0,-1,1252,526,0,0
35,498,0,0,0,0,0,0,0,0,0,-1,1259,526,0,0
42,498,0,0,0,0,0,0,0,0,0,-1,1266,526,0,0
49,498,0,0,0,0,0,0,0,0,0,-1,1273,526,0,0
56,498,0,0,0,0,0,0,0,0,0,-1,1280,526,0,0
63,498,0,0,0,0,0,0,0,0,0,-1,1287,526,0,0
70,498,0,0,0,0,0,0,0,0,0,-1,1294,526,0,0
77,498,0,0,0,0,0,0,0,0,0,-1,1301,526,0,0
84,498,0,0,0,0,0,0,0,0,0,-1,1308,526,0,0
91,498,0,0,0,0,0,0,0,0,0,-1,1315,526,0,0
98,498,0,0,0,0,0,0,0,0,0,-1,1322,526,0,0
105,498,0,0,0,0,0,0,0,0,0,-1,1329,526,0,0
112,498,0,0,0,0,0,0,0,0,0,-1,1336,526,0,0
119,498,0,0,0,0,0,0,0,0,0,-1,1343,526,0,0
126,498,0,0,0,0,0,0,0,0,0,-1,1350,526,0,0
133,498,0,0,0,0,0,0,0,0,0,-1,1357,526,0,0
140,498,0,0,0,0,0,0,0,0,0,-1,1364,526,0,0
147,498,0,0,0,0,0,0,0,0,0,-1,1371,526,0,0
154,498,0,0,0,0,0,0,0,0,0,-1,1378,526,0,0
161,498,0,0,0,0,0,0,0,0,0,-1,1385,526,0,0
168,498,0,0,0,0,0,0,0,0,0,-1,1392,526,0,0
175,498,0,0,0,0,0,0,0,0,0,-1,1399,526,0,0
182,498,0,0,0,0,0,0,0,0,0,-1,1406,526,0,0
189,498,0,0,0,0,0,0,0,0,0,-1,1413,526,0,0
196,498,0,0,0,0,0,0,0,0,0,-1,1420,526,0,0
203,498,0,0,0,0,0,0,0,0,0,-1,1427,526,0,0
210,498,0,0,0,0,0,0,0,0,0,-1,1434,526,0,0
217,498,0,0,0,0,0,0,0,0,0,-1,1441,526,0,0
224,498,0,0,0,0,0,0,0,0,0,-1,1448,526,0,0
231,498,0,0,0,0,0,0,0,0,0,-1,1455,526,0,0
238,498,0,0,0,0,0,0,0,0,0,-1,1462,526,0,0
245,498,0,0,0,0,0,0,0,0,0,-1,1469,526,0,0
252,498,0,0,0,0,0,0,0,0,0,-1,1476,526,0,0
259,498,0,0,0,0,0,0,0,0,0,-1,1483,526,0,0
266,498,0,0,0,0,0,0,0,0,0,-1,1490,526,0,0
273,498,0,0,0,0,0,0,0,0,0,-1,1497,526,0,0
280,498,0,0,0,0,0,0,0,0,0,-1,1504,526,0,0
287,498,0,0,0,0,0,0,0,0,0,-1,1511,526,0,0
294,498,0,0,0,0,0,0,0,0,0,-1,1518,526,0,0
301,498,0,0,0,0,0,0,0,0,0,-1,1525,526,0,0
308,498,4.77942,-0.293884,0,0,0,0,0,0,0,-1,1532,526,4.77939,0.293899
315,498,4.56091,-0.564148,0,0,0,0,0,0,0,-1,1539,526,4.56097,0.564142
322,498,4.52344,-0.447266,0,0,0,0,0,0,0,-1,1546,526,4.52341,0.447295
329,498,4.63232,-0.156982,0,0,0,0,0,0,0,-1,1553,526,4.63238,0.156991
336,498,5.22644,0.0925903,0,0,0,0,0,0,0,-1,1560,526,5.22648,-0.0926188
343,498,6.22607,-1.67615,0,0,0,0,0,0,0,-1,1567,526,6.22605,1.67617
350,498,6.19373,-1.59906,0,0,0,0,0,0,0,-1,1574,526,6.19367,1.59906
357,498,6.21472,-1.58929,0,0,0,0,0,0,0,-1,1581,526,6.21476,1.58927
364,498,5.73547,-1.2019,0,0,0,0,0,0,0,-1,1588,526,5.73547,1.20192
371,498,3.27087,-4.55334,0,0,0,0,0,0,0,-1,1595,526,3.27089,4.55332
378,498,8.42944,-4.70624,0,0,0,0,0,0,0,-1,1602,526,8.42942,4.70624
385,498,4.7793,-5.15314,0,0,0,0,0,0,0,-1,1609,526,4.77935,5.15311
392,498,9.12439,-8.57953,0,0,0,0,0,0,0,-1,1616,526,9.12443,8.57955
399,498,7.98938,-9.46021,0,0,0,0,0,0,0,-1,1623,526,7.98936,9.4602
406,498,7.58081,-9.26819,0,0,0,0,0,0,0,-1,1630,526,7.58085,9.26817
413,498,7.17236,-9.07611,0,0,0,0,0,0,0,-1,1637,526,7.17234,9.07614
420,498,11.4314,-16.1147,0,0,0,0,0,0,0,-1,1644,526,11.4313,16.1147
427,498,17.6447,-30.3915,0,0,0,0,0,0,0,-1,1651,526,17.6446,30.3916
434,498,17.6334,-29.5201,0.00182997,-5.99281e-06,-0.00174537,0.00288404,-0.00106007,-0.543301,0.0023569,0.0362587,1658,526,17.6335,29.5201
441,498,17.7246,-28.7661,0.00182576,0.000268156,-0.00124292,0.00251372,-0.000419798,-0.505526,0.00183185,0.0118791,1665,526,17.7246,28.7661
448,498,17.7317,-28.0113,0.00185341,0.00053207,-0.000809637,0.00223773,0.000147754,-0.443185,0.00144509,0.0103232,1672,526,17.7317,28.0113
455,498,17.7067,-27.2799,0.00182647,0.000911103,-0.000394724,0.00197317,0.0007644,-0.355837,0.0011488,0.0149897,1679,526,17.7067,27.2799
462,498,17.6804,-26.5591,0.00165481,0.0010477,-8.31117e-05,0.00166599,0.00103652,-0.133621,0.00097138,0.0173148,1686,526,17.6804,26.5591
469,498,17.6354,-25.8485,0.00156746,0.00119619,0.000350911,0.00177881,0.000984834,0.542106,0.00102896,0.0143976,1693,526,17.6354,25.8485
476,498,17.6071,-25.1284,0.00156396,0.00132422,0.000855114,0.00230757,0.000580619,0.715762,0.00138599,0.0106358,1700,526,17.6071,25.1284
483,498,17.5621,-24.3911,0.00157266,0.0013923,0.00131134,0.00279691,0.000168047,0.751068,0.00181119,0.00886481,1707,526,17.5621,24.3911
490,498,17.5157,-23.6148,0.00151835,0.00141992,0.00171661,0.00318645,-0.000248188,0.771067,0.00221168,0.010843,1714,526,17.5158,23.6148
497,498,17.5078,-22.8431,0.0015092,0.0014811,0.00215521,0.00365041,-0.000660111,0.782139,0.00268087,0.0125561,1721,526,17.5079,22.8431
504,498,17.4819,-22.0802,0.00153451,0.00139639,0.00250204,0.00396845,-0.00103755,0.771601,0.00305087,0.0150556,1728,526,17.4819,22.0802
511,498,17.4189,-21.2948,0.00141673,0.00134922,0.0027116,0.00409479,-0.00132883,0.779174,0.00326424,0.0170777,1735,526,17.419,21.2948
518,498,17.4485,-20.5035,0.00105554,0.00134838,0.00271825,0.00392415,-0.00152022,0.812305,0.00324384,0.0197673,1742,526,17.4485,20.5036
525,498,17.3069,-19.7476,0.000486991,0.00129945,0.00252654,0.00345221,-0.00166577,0.865109,0.00301427,0.030877,1749,526,17.3069,19.7476
532,498,17.1365,-19.0087,-0.000341747,0.0012067,0.00211674,0.00268636,-0.00182141,0.960721,0.00261849,0.0472128,1756,526,17.1365,19.0086
539,498,16.8558,-18.1438,0,0,0,0,0,0,0,-1,1763,526,16.8558,18.1438
546,498,10.2014,-8.47589,0,0,0,0,0,0,0,-1,1770,526,10.2014,8.47589
553,498,5.93958,-1.71448,0,0,0,0,0,0,0,-1,1777,526,5.93956,1.71447
560,498,3.69385,-0.615112,0,0,0,0,0,0,0,-1,1784,526,3.69381,0.615118
567,498,5.12695,-0.581604,0,0,0,0,0,0,0,-1,1791,526,5.12699,0.58159
574,498,3.88,0.0286255,0,0,0,0,0,0,0,-1,1798,526,3.87999,-0.0286535
581,498,10.8722,2.58551,0,0,0,0,0,0,0,-1,1805,526,10.8723,-2.58551
588,498,0,0,0,0,0,0,0,0,0,-1,1812,526,0,0
595,498,0,0,0,0,0,0,0,0,0,-1,1819,526,0,0
602,498,0,0,0,0,0,0,0,0,0,-1,1826,526,0,0
609,498,0,0,0,0,0,0,0,0,0,-1,1833,526,0,0
616,498,0,0,0,0,0,0,0,0,0,-1,1840,526,0,0
623,498,0,0,0,0,0,0,0,0,0,-1,1847,526,0,0
630,498,0,0,0,0,0,0,0,0,0,-1,1854,526,0,0
637,498,0,0,0,0,0,0,0,0,0,-1,1861,526,0,0
644,498,0,0,0,0,0,0,0,0,0,-1,1868,526,0,0
651,498,0,0,0,0,0,0,0,0,0,-1,1875,526,0,0
658,498,0,0,0,0,0,0,0,0,0,-1,1882,526,0,0
665,498,0,0,0,0,0,0,0,0,0,-1,1889,526,0,0
672,498,0,0,0,0,0,0,0,0,0,-1,1896,526,0,0
679,498,0,0,0,0,0,0,0,0,0,-1,1903,526,0,0
686,498,0,0,0,0,0,0,0,0,0,-1,1910,526,0,0
693,498,0,0,0,0,0,0,0,0,0,-1,1917,526,0,0
700,498,0,0,0,0,0,0,0,0,0,-1,1924,526,0,0
707,498,0,0,0,0,0,0,0,0,0,-1,1931,526,0,0
714,498,0,0,0,0,0,0,0,0,0,-1,1938,526,0,0
721,498,0,0,0,0,0,0,0,0,0,-1,1945,526,0,0
728,498,0,0,0,0,0,0,0,0,0,-1,1952,526,0,0
735,498,0,0,0,0,0,0,0,0,0,-1,1959,526,0,0
742,498,0,0,0,0,0,0,0,0,0,-1,1966,526,0,0
749,498,0,0,0,0,0,0,0,0,0,-1,1973,526,0,0
756,498,0,0,0,0,0,0,0,0,0,-1,1980,526,0,0
763,498,0,0,0,0,0,0,0,0,0,-1,1987,526,0,0
770,498,0,0,0,0,0,0,0,0,0,-1,1994,526,0,0
777,498,0,0,0,0,0,0,0,0,0,-1,2001,526,0,0
784,498,0,0,0,0,0,0,0,0,0,-1,2008,526,0,0
791,498,0,0,0,0,0,0,0,0,0,-1,2015,526,0,0
798,498,0,0,0,0,0,0,0,0,0,-1,2022,526,0,0
805,498,0,0,0,0,0,0,0,0,0,-1,2029,526,0,0
812,498,0,0,0,0,0,0,0,0,0,-1,2036,526,0,0
-700,491,0,0,0,0,0,0,0,0,0,-1,524,533,0,0
-693,491,0,0,0,0,0,0,0,0,0,-1,531,533,0,0
-686,491,0,0,0,0,0,0,0,0,0,-1,538,533,0,0
-679,491,0,0,0,0,0,0,0,0,0,-1,545,533,0,0
-672,491,0,0,0,0,0,0,0,0,0,-1,552,533,0,0
-665,491,0,0,0,0,0,0,0,0,0,-1,559,533,0,0
-658,491,0,0,0,0,0,0,0,0,0,-1,566,533,0,0
-651,491,0,0,0,0,0,0,0,0,0,-1,573,533,0,0
-644,491,0,0,0,0,0,0,0,0,0,-1,580,533,0,0
-637,491,0,0,0,0,0,0,0,0,0,-1,587,533,0,0
-630,491,0,0,0,0,0,0,0,0,0,-1,594,533,0,0
-623,491,0,0,0,0,0,0,0,0,0,-1,601,533,0,0
-616,491,0,0,0,0,0,0,0,0,0,-1,608,533,0,0
-609,491,0,0,0,0,0,0,0,0,0,-1,615,533,0,0
-602,491,0,0,0,0,0,0,0,0,0,-1,622,533,0,0
-595,491,0,0,0,0,0,0,0,0,0,-1,629,533,0,0
-588,491,0,0,0,0,0,0,0,0,0,-1,636,533,0,0
-581,491,0,0,0,0,0,0,0,0,0,-1,643,533,0,0
-574,491,0,0,0,0,0,0,0,0,0,-1,650,533,0,0
-567,491,0,0,0,0,0,0,0,0,0,-1,657,533,0,0
-560,491,0,0,0,0,0,0,0,0,0,-1,664,533,0,0
-553,491,0,0,0,0,0,0,0,0,0,-1,671,533,0,0
-546,491,0,0,0,0,0,0,0,0,0,-1,678,533,0,0
-539,491,0,0,0,0,0,0,0,0,0,-1,685,533,0,0
-532,491,0,0,0,0,0,0,0,0,0,-1,692,533,0,0
-525,491,0,0,0,0,0,0,0,0,0,-1,699,533,0,0
-518,491,0,0,0,0,0,0,0,0,0,-1,706,533,0,0
-511,491,0,0,0,0,0,0,0,0,0,-1,713,533,0,0
-504,491,0,0,0,0,0,0,0,0,0,-1,720,533,0,0
-497,491,0,0,0,0,0,0,0,0,0,-1,727,533,0,0
-490,491,0,0,0,0,0,0,0,0,0,-1,734,533,0,0
-483,491,0,0,0,0,0,0,0,0,0,-1,741,533,0,0
-476,491,0,0,0,0,0,0,0,0,0,-1,748,533,0,0
-469,491,-5.85913,4.55011,0,0,0,0,0,0,0,-1,755,533,-5.8591,-4.55009
-462,491,-9.93713,4.90381,0,0,0,0,0,0,0,-1,762,533,-9.93716,-4.9038
-455,491,1.9494,-0.27887,0,0,0,0,0,0,0,-1,769,533,1.94941,0.27885
-448,491,2.68909,-1.8999,0,0,0,0,0,0,0,-1,776,533,2.6891,1.89988
-441,491,3.46069,-3.51855,0,0,0,0,0,0,0,-1,783,533,3.46071,3.51854
-434,491,2.67145,-7.44061,0,0,0,0,0,0,0,-1,790,533,2.67146,7.44061
-427,491,2.27136,-8.34546,0,0,0,0,0,0,0,-1,797,533,2.27136,8.34546
-420,491,-4.72369,-17.5376,0,0,0,0,0,0,0,-1,804,533,-4.72367,17.5376
-413,491,-4.49506,-18.9067,0,0,0,0,0,0,0,-1,811,533,-4.49507,18.9067
-406,491,-4.44684,-19.8877,0.00136751,0.0136536,-0.00703898,0.0168531,-0.00183206,-1.14417,0.0118932,0.0264327,818,533,-4.44681,19.8877
-399,491,-4.46387,-20.7323,0.00130907,0.0117506,-0.00626918,0.0146882,-0.00162854,-1.1326,0.0103776,0.0132149,825,533,-4.46386,20.7323
-392,491,-4.56982,-21.4996,0.00136807,0.00998069,-0.00551428,0.0126709,-0.00132216,-1.1169,0.00892072,0.0113949,832,533,-4.56981,21.4996
-385,491,-4.61487,-22.2158,0.00146317,0.00829248,-0.00474533,0.010724,-0.000968376,-1.09727,0.00749303,0.0103527,839,533,-4.61486,22.2158
-378,491,-4.62018,-22.9437,0.0015275,0.00660937,-0.00394712,0.0087627,-0.00062582,-1.07138,0.00606119,0.0146416,846,533,-4.6202,22.9437
-371,491,-4.63422,-23.6881,0.00154647,0.00489824,-0.00318282,0.00681942,-0.000374712,-1.02773,0.00467619,0.0153358,853,533,-4.63422,23.6881
-364,491,-4.67242,-24.4365,0.00150203,0.00308183,-0.00231464,0.00473764,-0.000153784,-0.949833,0.00321091,0.0141818,860,533,-4.67245,24.4364
-357,491,-4.71851,-25.1686,0.00146539,0.00143172,-0.00146126,0.00290991,-1.28e-05,-0.779639,0.00194422,0.0124729,867,533,-4.71851,25.1687
-350,491,-4.7605,-25.886,0.00143447,-0.000145173,-0.000664753,0.00167698,-0.000387687,-0.349814,0.00126714,0.016081,874,533,-4.76047,25.886
-343,491,-4.77625,-26.6946,0.00136317,-0.00169588,0.00011918,0.00136781,-0.00170051,0.0388813,0.00177496,0.0279953,881,533,-4.77622,26.6947
-336,491,-4.83575,-27.4363,0.00122061,-0.00324156,0.000965089,0.0014204,-0.00344135,0.20413,0.00288663,0.0281522,888,533,-4.83577,27.4364
-329,491,-4.85754,-28.0435,0.00115188,-0.00456862,0.00179088,0.00166628,-0.00508302,0.279704,0.00405974,0.0278805,895,533,-4.85753,28.0435
-322,491,-4.87738,-28.7416,0.00123476,-0.00537753,0.00237167,0.00199745,-0.00614022,0.311138,0.00489703,0.0232635,902,533,-4.87737,28.7416
-315,491,-4.92865,-29.3934,0.00134972,-0.00585719,0.00285585,0.00234418,-0.00685164,0.335085,0.00551771,0.0202125,909,533,-4.92862,29.3934
-308,491,-4.9339,-30.1515,0,0,0,0,0,0,0,-1,916,533,-4.93388,30.1515
-301,491,-4.76721,-31.0228,0,0,0,0,0,0,0,-1,923,533,-4.76723,31.0228
-294,491,-0.777283,-8.60913,0,0,0,0,0,0,0,-1,930,533,-0.777288,8.6091
-287,491,-0.26123,-8.69055,0,0,0,0,0,0,0,-1,937,533,-0.261204,8.69053
-280,491,0.2948,-5.99219,0,0,0,0,0,0,0,-1,944,533,0.294811,5.99221
-273,491,0.369995,-5.33691,0,0,0,0,0,0,0,-1,951,533,0.369985,5.33693
-266,491,1.1167,-5.0321,0,0,0,0,0,0,0,-1,958,533,1.11668,5.0321
-259,491,12.0862,-16.9615,0,0,0,0,0,0,0,-1,965,533,12.0862,16.9615
-252,491,9.72443,-13.8417,0,0,0,0,0,0,0,-1,972,533,9.72444,13.8418
-245,491,5.27258,-14.3619,0,0,0,0,0,0,0,-1,979,533,5.27255,14.3619
-238,491,3.65381,-11.1472,0,0,0,0,0,0,0,-1,986,533,3.6538,11.1472
-231,491,2.17719,-7.86835,0,0,0,0,0,0,0,-1,993,533,2.17719,7.86832
-224,491,0.554626,-4.61725,0,0,0,0,0,0,0,-1,1000,533,0.554608,4.61727
-217,491,-2.92743,-1.0766,0,0,0,0,0,0,0,-1,1007,533,-2.92743,1.07659
-210,491,-0.92395,0.374512,0,0,0,0,0,0,0,-1,1014,533,-0.923959,-0.374531
-203,491,0.417419,4.77161,0,0,0,0,0,0,0,-1,1021,533,0.417446,-4.77162
-196,491,0,0,0,0,0,0,0,0,0,-1,1028,533,0,0
-189,491,0,0,0,0,0,0,0,0,0,-1,1035,533,0,0
-182,491,0,0,0,0,0,0,0,0,0,-1,1042,533,0,0
-175,491,0,0,0,0,0,0,0,0,0,-1,1049,533,0,0
-168,491,0,0,0,0,0,0,0,0,0,-1,1056,533,0,0
-161,491,0,0,0,0,0,0,0,0,0,-1,1063,533,0,0
-154,491,0,0,0,0,0,0,0,0,0,-1,1070,533,0,0
-147,491,0,0,0,0,0,0,0,0,0,-1,1077,533,0,0
-140,491,0,0,0,0,0,0,0,0,0,-1,1084,533,0,0
-133,491,0,0,0,0,0,0,0,0,0,-1,1091,533,0,0
-126,491,0,0,0,0,0,0,0,0,0,-1,1098,533,0,0
-119,491,0,0,0,0,0,0,0,0,0,-1,1105,533,0,0
-112,491,0,0,0,0,0,0,0,0,0,-1,1112,533,0,0
-105,491,0,0,0,0,0,0,0,0,0,-1,1119,533,0,0
-98,491,0,0,0,0,0,0,0,0,0,-1,1126,533,0,0
-91,491,0,0,0,0,0,0,0,0,0,-1,1133,533,0,0
-84,491,0,0,0,0,0,0,0,0,0,-1,1140,533,0,0
-77,491,0,0,0,0,0,0,0,0,0,-1,1147,533,0,0
-70,491,0,0,0,0,0,0,0,0,0,-1,1154,533,0,0
-63,491,0,0,0,0,0,0,0,0,0,-1,1161,533,0,0
-56,491,0,0,0,0,0,0,0,0,0,-1,1168,533,0,0
-49,491,0,0,0,0,0,0,0,0,0,-1,1175,533,0,0
-42,491,0,0,0,0,0,0,0,0,0,-1,1182,533,0,0
-35,491,0,0,0,0,0,0,0,0,0,-1,1189,533,0,0
-28,491,0,0,0,0,0,0,0,0,0,-1,1196,533,0,0
-21,491,0,0,0,0,0,0,0,0,0,-1,1203,533,0,0
-14,491,0,0,0,0,0,0,0,0,0,-1,1210,533,0,0
-7,491,0,0,0,0,0,0,0,0,0,-1,1217,533,0,0
0,491,0,0,0,0,0,0,0,0,0,-1,1224,533,0,0
7,491,0,0,0,0,0,0,0,0,0,-1,1231,533,0,0
14,491,0,0,0,0,0,0,0,0,0,-1,1238,533,0,0
21,491,0,0,0,0,0,0,0,0,0,-1,1245,533,0,0
28,491,0,0,0,0,0,0,0,0,0,-1,1252,533,0,0
35,491,0,0,0,0,0,0,0,0,0,-1,1259,533,0,0
42,491,0,0,0,0,0,0,0,0,0,-1,1266,533,0,0
49,491,0,0,0,0,0,0,0,0,0,-1,1273,533,0,0
56,491,0,0,0,0,0,0,0,0,0,-1,1280,533,0,0
63,491,0,0,0,0,0,0,0,0,0,-1,1287,533,0,0
70,491,0,0,0,0,0,0,0,0,0,-1,1294,533,0,0
77,491,0,0,0,0,0,0,0,0,0,-1,1301,533,0,0
84,491,0,0,0,0,0,0,0,0,0,-1,1308,533,0,0
91,491,0,0,0,0,0,0,0,0,0,-1,1315,533,0,0
98,491,0,0,0,0,0,0,0,0,0,-1,1322,533,0,0
105,491,0,0,0,0,0,0,0,0,0,-1,1329,533,0,0
112,491,0,0,0,0,0,0,0,0,0,-1,1336,533,0,0
119,491,0,0,0,0,0,0,0,0,0,-1,1343,533,0,0
126,491,0,0,0,0,0,0,0,0,0,-1,1350,533,0,0
133,491,0,0,0,0,0,0,0,0,0,-1,1357,533,0,0
140,491,0,0,0,0,0,0,0,0,0,-1,1364,533,0,0
147,491,0,0,0,0,0,0,0,0,0,-1,1371,533,0,0
154,491,0,0,0,0,0,0,0,0,0,-1,1378,533,0,0
161,491,0,0,0,0,0,0,0,0,0,-1,1385,533,0,0
168,491,0,0,0,0,0,0,0,0,0,-1,1392,533,0,0
175,491,0,0,0,0,0,0,0,0,0,-1,1399,533,0,0
182,491,0,0,0,0,0,0,0,0,0,-1,1406,533,0,0
189,491,0,0,0,0,0,0,0,0,0,-1,1413,533,0,0
196,491,0,0,0,0,0,0,0,0,0,-1,1420,533,0,0
203,491,0,0,0,0,0,0,0,0,0,-1,1427,533,0,0
210,491,0,0,0,0,0,0,0,0,0,-1,1434,533,0,0
217,491,0,0,0,0,0,0,0,0,0,-1,1441,533,0,0
224,491,0,0,0,0,0,0,0,0,0,-1,1448,533,0,0
231,491,0,0,0,0,0,0,0,0,0,-1,1455,533,0,0
238,491,0,0,0,0,0,0,0,0,0,-1,1462,533,0,0
245,491,0,0,0,0,0,0,0,0,0,-1,1469,533,0,0
252,491,0,0,0,0,0,0,0,0,0,-1,1476,533,0,0
259,491,0,0,0,0,0,0,0,0,0,-1,1483,533,0,0
266,491,0,0,0,0,0,0,0,0,0,-1,1490,533,0,0
273,491,0,0,0,0,0,0,0,0,0,-1,1497,533,0,0
280,491,0,0,0,0,0,0,0,0,0,-1,1504,533,0,0
287,491,0,0,0,0,0,0,0,0,0,-1,1511,533,0,0
294,491,0,0,0,0,0,0,0,0,0,-1,1518,533,0,0
301,491,0,0,0,0,0,0,0,0,0,-1,1525,533,0,0
308,491,0,0,0,0,0,0,0,0,0,-1,1532,533,0,0
315,491,0,0,0,0,0,0,0,0,0,-1,1539,533,0,0
322,491,4.26331,-0.734314,0,0,0,0,0,0,0,-1,1546,533,4.26326,0.734324
329,491,4.25354,-0.783752,0,0,0,0,0,0,0,-1,1553,533,4.25359,0.783734
336,491,4.81604,-0.722107,0,0,0,0,0,0,0,-1,1560,533,4.81605,0.722115
343,491,6.14478,-1.44281,0,0,0,0,0,0,0,-1,1567,533,6.14474,1.44281
350,491,6.36353,-1.30792,0,0,0,0,0,0,0,-1,1574,533,6.36352,1.3079
357,491,6.69482,-1.06018,0,0,0,0,0,0,0,-1,1581,533,6.69489,1.06018
364,491,8.01086,-1.69604,0,0,0,0,0,0,0,-1,1588,533,8.01087,1.69607
371,491,8.2135,-0.539307,0,0,0,0,0,0,0,-1,1595,533,8.21348,0.53929
378,491,13.3589,2.17267,0,0,0,0,0,0,0,-1,1602,533,13.3589,-2.17264
385,491,8.08228,-4.95471,0,0,0,0,0,0,0,-1,1609,533,8.08227,4.95474
392,491,2.88721,-4.30988,0,0,0,0,0,0,0,-1,1616,533,2.88716,4.30986
399,491,8.95862,-8.55518,0,0,0,0,0,0,0,-1,1623,533,8.95864,8.55516
406,491,8.16541,-9.00806,0,0,0,0,0,0,0,-1,1630,533,8.16535,9.00807
413,491,5.31848,-3.7124,0,0,0,0,0,0,0,-1,1637,533,5.31849,3.7124
420,491,4.86389,-3.95892,0,0,0,0,0,0,0,-1,1644,533,4.86387,3.95893
427,491,11.5096,-15.2742,0,0,0,0,0,0,0,-1,1651,533,11.5096,15.2742
434,491,18.2966,-29.4813,0,0,0,0,0,0,0,-1,1658,533,18.2967,29.4813
441,491,18.4745,-28.5319,0.00201674,0.000209486,-0.0015346,0.00289399,-0.000667766,-0.519313,0.00218618,0.0350232,1665,533,18.4745,28.5319
448,491,18.4349,-28.0227,0.00199886,0.000600956,-0.0011426,0.00263933,-3.95206e-05,-0.510902,0.00177287,0.0238468,1672,533,18.4349,28.0227
455,491,18.3998,-27.2534,0.00192849,0.00104632,-0.000819677,0.00241823,0.000556588,-0.538561,0.00146236,0.0163372,1679,533,18.3998,27.2534
462,491,18.437,-26.548,0.00165446,0.00114914,-0.000596108,0.00204924,0.000754356,-0.584947,0.00119677,0.0161712,1686,533,18.437,26.548
469,491,18.3806,-25.8375,0.00146374,0.00122306,-0.000218495,0.00159284,0.00109396,-0.533682,0.000940776,0.0153281,1693,533,18.3806,25.8375
476,491,18.3518,-25.0956,0.00142483,0.00128741,0.000237576,0.00160343,0.00110881,0.644635,0.00094811,0.010971,1700,533,18.3518,25.0956
483,491,18.3069,-24.3395,0.00141307,0.00129271,0.000665987,0.00202159,0.00068419,0.740338,0.0011873,0.0124149,1707,533,18.3068,24.3394
490,491,18.255,-23.5969,0.00130536,0.00132797,0.00101915,0.00233588,0.00029745,0.790946,0.00146818,0.0111089,1714,533,18.255,23.5969
497,491,18.2423,-22.8296,0.00124594,0.00142767,0.00144068,0.00278035,-0.000106737,0.816891,0.00189015,0.0122648,1721,533,18.2423,22.8296
504,491,18.2283,-22.0417,0.00122767,0.00132673,0.00175726,0.00303516,-0.000480765,0.799487,0.00220126,0.0139666,1728,533,18.2282,22.0417
511,491,18.1803,-21.287,0.00106729,0.0013015,0.00195593,0.00314383,-0.000775033,0.815299,0.00239638,0.0131895,1735,533,18.1803,21.287
518,491,18.1267,-20.5338,0.00068789,0.00132867,0.00199822,0.00303202,-0.00101546,0.86489,0.00243157,0.0106143,1742,533,18.1267,20.5337
525,491,18.0951,-19.7505,0.000181529,0.00135066,0.00191213,0.00276558,-0.0012334,0.933743,0.00236463,0.0109537,1749,533,18.0951,19.7505
532,491,18.0603,-18.9963,-0.000483624,0.00146721,0.00171778,0.0024672,-0.00148361,1.04362,0.00230444,0.0237126,1756,533,18.0603,18.9963
539,491,17.9272,-18.3171,-0.00142579,0.00167477,0.00132998,0.00216709,-0.00191811,1.21627,0.00236005,0.043127,1763,533,17.9272,18.3171
546,491,17.6646,-17.4069,0,0,0,0,0,0,0,-1,1770,533,17.6645,17.4069
553,491,10.5021,-7.77869,0,0,0,0,0,0,0,-1,1777,533,10.502,7.77871
560,491,6.28455,-1.43585,0,0,0,0,0,0,0,-1,1784,533,6.28458,1.43586
567,491,5.67651,-1.3562,0,0,0,0,0,0,0,-1,1791,533,5.67649,1.3562
574,491,8.0719,1.58325,0,0,0,0,0,0,0,-1,1798,533,8.07195,-1.58326
581,491,9.44812,1.60931,0,0,0,0,0,0,0,-1,1805,533,9.44808,-1.60933
588,491,11.0497,1.54962,0,0,0,0,0,0,0,-1,1812,533,11.0496,-1.54963
595,491,0,0,0,0,0,0,0,0,0,-1,1819,533,0,0
602,491,0,0,0,0,0,0,0,0,0,-1,1826,533,0,0
609,491,0,0,0,0,0,0,0,0,0,-1,1833,533,0,0
616,491,0,0,0,0,0,0,0,0,0,-1,1840,533,0,0
623,491,0,0,0,0,0,0,0,0,0,-1,1847,533,0,0
630,491,0,0,0,0,0,0,0,0,0,-1,1854,533,0,0
637,491,0,0,0,0,0,0,0,0,0,-1,1861,533,0,0
644,491,0,0,0,0,0,0,0,0,0,-1,1868,533,0,0
651,491,0,0,0,0,0,0,0,0,0,-1,1875,533,0,0
658,491,0,0,0,0,0,0,0,0,0,-1,1882,533,0,0
665,491,0,0,0,0,0,0,0,0,0,-1,1889,533,0,0
672,491,0,0,0,0,0,0,0,0,0,-1,1896,533,0,0
679,491,0,0,0,0,0,0,0,0,0,-1,1903,533,0,0
686,491,0,0,0,0,0,0,0,0,0,-1,1910,533,0,0
693,491,0,0,0,0,0,0,0,0,0,-1,1917,533,0,0
700,491,0,0,0,0,0,0,0,0,0,-1,1924,533,0,0
707,491,0,0,0,0,0,0,0,0,0,-1,1931,533,0,0
714,491,0,0,0,0,0,0,0,0,0,-1,1938,533,0,0
721,491,0,0,0,0,0,0,0,0,0,-1,1945,533,0,0
728,491,0,0,0,0,0,0,0,0,0,-1,1952,533,0,0
735,491,0,0,0,0,0,0,0,0,0,-1,1959,533,0,0
742,491,0,0,0,0,0,0,0,0,0,-1,1966,533,0,0
749,491,0,0,0,0,0,0,0,0,0,-1,1973,533,0,0
756,491,0,0,0,0,0,0,0,0,0,-1,1980,533,0,0
763,491,0,0,0,0,0,0,0,0,0,-1,1987,533,0,0
770,491,0,0,0,0,0,0,0,0,0,-1,1994,533,0,0
777,491,0,0,0,0,0,0,0,0,0,-1,2001,533,0,0
784,491,0,0,0,0,0,0,0,0,0,-1,2008,533,0,0
791,491,0,0,0,0,0,0,0,0,0,-1,2015,533,0,0
798,491,0,0,0,0,0,0,0,0,0,-1,2022,533,0,0
805,491,0,0,0,0,0,0,0,0,0,-1,2029,533,0,0
812,491,0,0,0,0,0,0,0,0,0,-1,2036,533,0,0
-700,484,0,0,0,0,0,0,0,0,0,-1,524,540,0,0
-693,484,0,0,0,0,0,0,0,0,0,-1,531,540,0,0
-686,484,0,0,0,0,0,0,0,0,0,-1,538,540,0,0
-679,484,0,0,0,0,0,0,0,0,0,-1,545,540,0,0
-672,484,0,0,0,0,0,0,0,0,0,-1,552,540,0,0
-665,484,0,0,0,0,0,0,0,0,0,-1,559,540,0,0
-658,484,0,0,0,0,0,0,0,0,0,-1,566,540,0,0
-651,484,0,0,0,0,0,0,0,0,0,-1,573,540,0,0
-644,484,0,0,0,0,0,0,0,0,0,-1,580,540,0,0
-637,484,0,0,0,0,0,0,0,0,0,-1,587,540,0,0
-630,484,0,0,0,0,0,0,0,0,0,-1,594,540,0,0
-623,484,0,0,0,0,0,0,0,0,0,-1,601,540,0,0
-616,484,0,0,0,0,0,0,0,0,0,-1,608,540,0,0
-609,484,0,0,0,0,0,0,0,0,0,-1,615,540,0,0
-602,484,0,0,0,0,0,0,0,0,0,-1,622,540,0,0
-595,484,0,0,0,0,0,0,0,0,0,-1,629,540,0,0
-588,484,0,0,0,0,0,0,0,0,0,-1,636,540,0,0
-581,484,0,0,0,0,0,0,0,0,0,-1,643,540,0,0
-574,484,0,0,0,0,0,0,0,0,0,-1,650,540,0,0
-567,484,0,0,0,0,0,0,0,0,0,-1,657,540,0,0
-560,484,0,0,0,0,0,0,0,0,0,-1,664,540,0,0
-553,484,0,0,0,0,0,0,0,0,0,-1,671,540,0,0
-546,484,0,0,0,0,0,0,0,0,0,-1,678,540,0,0
-539,484,0,0,0,0,0,0,0,0,0,-1,685,540,0,0
-532,484,0,0,0,0,0,0,0,0,0,-1,692,540,0,0
-525,484,0,0,0,0,0,0,0,0,0,-1,699,540,0,0
-518,484,0,0,0,0,0,0,0,0,0,-1,706,540,0,0
-511,484,0,0,0,0,0,0,0,0,0,-1,713,540,0,0
-504,484,0,0,0,0,0,0,0,0,0,-1,720,540,0,0
-497,484,0,0,0,0,0,0,0,0,0,-1,727,540,0,0
-490,484,0,0,0,0,0,0,0,0,0,-1,734,540,0,0
-483,484,0,0,0,0,0,0,0,0,0,-1,741,540,0,0
-476,484,-8.46552,1.44702,0,0,0,0,0,0,0,-1,748,540,-8.46554,-1.44702
-469,484,-7.82343,1.70355,0,0,0,0,0,0,0,-1,755,540,-7.82345,-1.70355
-462,484,-8.36987,3.08612,0,0,0,0,0,0,0,-1,762,540,-8.36988,-3.0861
-455,484,-6.77197,2.07092,0,0,0,0,0,0,0,-1,769,540,-6.77197,-2.07094
-448,484,3.54895,-1.40106,0,0,0,0,0,0,0,-1,776,540,3.54897,1.40106
-441,484,4.28906,-3.05884,0,0,0,0,0,0,0,-1,783,540,4.28905,3.05883
-434,484,-2.17548,-5.07245,0,0,0,0,0,0,0,-1,790,540,-2.17546,5.07243
-427,484,-5.09418,-17.0264,0,0,0,0,0,0,0,-1,797,540,-5.09418,17.0264
-420,484,-5.01074,-17.9169,0,0,0,0,0,0,0,-1,804,540,-5.01077,17.9169
-413,484,-5.03955,-18.9359,0.000754091,0.0120305,-0.00591224,0.014562,-0.00177741,-1.16624,0.0103514,0.0313865,811,540,-5.03954,18.9359
-406,484,-5.12701,-19.8941,0.000861477,0.0103016,-0.00538041,0.0127389,-0.00157582,-1.14545,0.00906366,0.0174266,818,540,-5.12703,19.8941
-399,484,-5.22913,-20.7,0.000919474,0.00855374,-0.00471833,0.0108056,-0.00133242,-1.1255,0.00768649,0.0169361,825,540,-5.22911,20.6999
-392,484,-5.27631,-21.4272,0.00105404,0.00693677,-0.0040734,0.00901977,-0.00102895,-1.0981,0.00638387,0.019019,832,540,-5.2763,21.4272
-385,484,-5.3457,-22.1885,0.00123701,0.00542087,-0.00342038,0.00733833,-0.00068045,-1.05985,0.00513409,0.0137057,839,540,-5.34569,22.1885
-378,484,-5.38715,-22.9443,0.00138758,0.0039107,-0.00270402,0.00563298,-0.000334695,-1.00366,0.00387171,0.0152371,846,540,-5.38716,22.9443
-371,484,-5.40594,-23.6581,0.0014924,0.0023971,-0.00201894,0.00401374,-0.000124246,-0.895605,0.00271819,0.0174527,853,540,-5.40596,23.6581
-364,484,-5.42218,-24.3644,0.00153585,0.000819237,-0.00124488,0.00247296,-0.000117874,-0.645274,0.0016893,0.0124849,860,540,-5.4222,24.3645
-357,484,-5.46051,-25.11,0.00158718,-0.000584496,-0.000497833,0.00169586,-0.00069318,-0.214941,0.00141923,0.0127064,867,540,-5.4605,25.11
-350,484,-5.4917,-25.825,0.00163202,-0.0019205,0.000188031,0.00164195,-0.00193043,0.0527323,0.00206475,0.0149847,874,540,-5.49172,25.825
-343,484,-5.50354,-26.5769,0.00159109,-0.00320071,0.000877123,0.00174659,-0.00335622,0.17547,0.00299457,0.0241492,881,540,-5.50356,26.5769
-336,484,-5.56232,-27.3109,0.00146515,-0.00454368,0.00163996,0.0018836,-0.00496212,0.249825,0.00408342,0.0274868,888,540,-5.56231,27.3109
-329,484,-5.60474,-27.9634,0.00140466,-0.00567647,0.00241656,0.00215075,-0.00642255,0.299454,0.00515054,0.0368423,895,540,-5.60476,27.9634
-322,484,-5.56207,-28.7416,0,0,0,0,0,0,0,-1,902,540,-5.5621,28.7416
-315,484,-5.47076,-29.373,0,0,0,0,0,0,0,-1,909,540,-5.47076,29.373
-308,484,-1.32623,-8.9317,0,0,0,0,0,0,0,-1,916,540,-1.32626,8.93173
-301,484,-1.33453,-6.52667,0,0,0,0,0,0,0,-1,923,540,-1.33454,6.5267
-294,484,-1.61224,-8.17059,0,0,0,0,0,0,0,-1,930,540,-1.61227,8.17058
-287,484,-0.715759,-5.62103,0,0,0,0,0,0,0,-1,937,540,-0.715772,5.62105
-280,484,2.66742,-1.6795,0,0,0,0,0,0,0,-1,944,540,2.6674,1.67949
-273,484,2.53125,-2.22296,0,0,0,0,0,0,0,-1,951,540,2.53128,2.22295
-266,484,2.6778,-2.72058,0,0,0,0,0,0,0,-1,958,540,2.6778,2.72061
-259,484,2.41718,-2.59894,0,0,0,0,0,0,0,-1,965,540,2.41717,2.59892
-252,484,10.6069,-11.696,0,0,0,0,0,0,0,-1,972,540,10.6069,11.696
-245,484,6.34106,-11.6107,0,0,0,0,0,0,0,-1,979,540,6.34104,11.6107
-238,484,4.89319,-8.54059,0,0,0,0,0,0,0,-1,986,540,4.89321,8.5406
-231,484,3.47675,-5.22064,0,0,0,0,0,0,0,-1,993,540,3.47676,5.22067
-224,484,1.71344,-2.03473,0,0,0,0,0,0,0,-1,1000,540,1.71342,2.03472
-217,484,-0.745056,1.17358,0,0,0,0,0,0,0,-1,1007,540,-0.745043,-1.17359
-210,484,0,0,0,0,0,0,0,0,0,-1,1014,540,0,0
-203,484,0,0,0,0,0,0,0,0,0,-1,1021,540,0,0
-196,484,0,0,0,0,0,0,0,0,0,-1,1028,540,0,0
-189,484,0,0,0,0,0,0,0,0,0,-1,1035,540,0,0
-182,484,0,0,0,0,0,0,0,0,0,-1,1042,540,0,0
-175,484,0,0,0,0,0,0,0,0,0,-1,1049,540,0,0
-168,484,0,0,0,0,0,0,0,0,0,-1,1056,540,0,0
-161,484,0,0,0,0,0,0,0,0,0,-1,1063,540,0,0
-154,484,0,0,0,0,0,0,0,0,0,-1,1070,540,0,0
-147,484,0,0,0,0,0,0,0,0,0,-1,1077,540,0,0
-140,484,0,0,0,0,0,0,0,0,0,-1,1084,540,0,0
-133,484,0,0,0,0,0,0,0,0,0,-1,1091,540,0,0
-126,484,0,0,0,0,0,0,0,0,0,-1,1098,540,0,0
-119,484,0,0,0,0,0,0,0,0,0,-1,1105,540,0,0
-112,484,0,0,0,0,0,0,0,0,0,-1,1112,540,0,0
-105,484,0,0,0,0,0,0,0,0,0,-1,1119,540,0,0
-98,484,0,0,0,0,0,0,0,0,0,-1,1126,540,0,0
-91,484,0,0,0,0,0,0,0,0,0,-1,1133,540,0,0
-84,484,0,0,0,0,0,0,0,0,0,-1,1140,540,0,0
-77,484,0,0,0,0,0,0,0,0,0,-1,1147,540,0,0
-70,484,0,0,0,0,0,0,0,0,0,-1,1154,540,0,0
-63,484,0,0,0,0,0,0,0,0,0,-1,1161,540,0,0
-56,484,0,0,0,0,0,0,0,0,0,-1,1168,540,0,0
-49,484,0,0,0,0,0,0,0,0,0,-1,1175,540,0,0
-42,484,0,0,0,0,0,0,0,0,0,-1,1182,540,0,0
-35,484,0,0,0,0,0,0,0,0,0,-1,1189,540,0,0
-28,484,0,0,0,0,0,0,0,0,0,-1,1196,540,0,0
-21,484,0,0,0,0,0,0,0,0,0,-1,1203,540,0,0
-14,484,0,0,0,0,0,0,0,0,0,-1,1210,540,0,0
-7,484,0,0,0,0,0,0,0,0,0,-1,1217,540,0,0
0,484,0,0,0,0,0,0,0,0,0,-1,1224,540,0,0
7,484,0,0,0,0,0,0,0,0,0,-1,1231,540,0,0
14,484,0,0,0,0,0,0,0,0,0,-1,1238,540,0,0
21,484,0,0,0,0,0,0,0,0,0,-1,1245,540,0,0
28,484,0,0,0,0,0,0,0,0,0,-1,1252,540,0,0
35,484,0,0,0,0,0,0,0,0,0,-1,1259,540,0,0
42,484,0,0,0,0,0,0,0,0,0,-1,1266,540,0,0
49,484,0,0,0,0,0,0,0,0,0,-1,1273,540,0,0
56,484,0,0,0,0,0,0,0,0,0,-1,1280,540,0,0
63,484,0,0,0,0,0,0,0,0,0,-1,1287,540,0,0
70,484,0,0,0,0,0,0,0,0,0,-1,1294,540,0,0
77,484,0,0,0,0,0,0,0,0,0,-1,1301,540,0,0
84,484,0,0,0,0,0,0,0,0,0,-1,1308,540,0,0
91,484,0,0,0,0,0,0,0,0,0,-1,1315,540,0,0
98,484,0,0,0,0,0,0,0,0,0,-1,1322,540,0,0
105,484,0,0,0,0,0,0,0,0,0,-1,1329,540,0,0
112,484,0,0,0,0,0,0,0,0,0,-1,1336,540,0,0
119,484,0,0,0,0,0,0,0,0,0,-1,1343,540,0,0
126,484,0,0,0,0,0,0,0,0,0,-1,1350,540,0,0
133,484,0,0,0,0,0,0,0,0,0,-1,1357,540,0,0
140,484,0,0,0,0,0,0,0,0,0,-1,1364,540,0,0
147,484,0,0,0,0,0,0,0,0,0,-1,1371,540,0,0
154,484,0,0,0,0,0,0,0,0,0,-1,1378,540,0,0
161,484,0,0,0,0,0,0,0,0,0,-1,1385,540,0,0
168,484,0,0,0,0,0,0,0,0,0,-1,1392,540,0,0
175,484,0,0,0,0,0,0,0,0,0,-1,1399,540,0,0
182,484,0,0,0,0,0,0,0,0,0,-1,1406,540,0,0
189,484,0,0,0,0,0,0,0,0,0,-1,1413,540,0,0
196,484,0,0,0,0,0,0,0,0,0,-1,1420,540,0,0
203,484,0,0,0,0,0,0,0,0,0,-1,1427,540,0,0
210,484,0,0,0,0,0,0,0,0,0,-1,1434,540,0,0
217,484,0,0,0,0,0,0,0,0,0,-1,1441,540,0,0
224,484,0,0,0,0,0,0,0,0,0,-1,1448,540,0,0
231,484,0,0,0,0,0,0,0,0,0,-1,1455,540,0,0
238,484,0,0,0,0,0,0,0,0,0,-1,1462,540,0,0
245,484,0,0,0,0,0,0,0,0,0,-1,1469,540,0,0
252,484,0,0,0,0,0,0,0,0,0,-1,1476,540,0,0
259,484,0,0,0,0,0,0,0,0,0,-1,1483,540,0,0
266,484,0,0,0,0,0,0,0,0,0,-1,1490,540,0,0
273,484,0,0,0,0,0,0,0,0,0,-1,1497,540,0,0
280,484,0,0,0,0,0,0,0,0,0,-1,1504,540,0,0
287,484,0,0,0,0,0,0,0,0,0,-1,1511,540,0,0
294,484,0,0,0,0,0,0,0,0,0,-1,1518,540,0,0
301,484,0,0,0,0,0,0,0,0,0,-1,1525,540,0,0
308,484,0,0,0,0,0,0,0,0,0,-1,1532,540,0,0
315,484,0,0,0,0,0,0,0,0,0,-1,1539,540,0,0
322,484,0,0,0,0,0,0,0,0,0,-1,1546,540,0,0
329,484,0,0,0,0,0,0,0,0,0,-1,1553,540,0,0
336,484,4.38708,-1.64136,0,0,0,0,0,0,0,-1,1560,540,4.38704,1.64138
343,484,7.57996,-1.05457,0,0,0,0,0,0,0,-1,1567,540,7.57995,1.05454
350,484,8.10425,-1.18878,0,0,0,0,0,0,0,-1,1574,540,8.1043,1.18877
357,484,7.74902,-3.80286,0,0,0,0,0,0,0,-1,1581,540,7.74901,3.80287
364,484,6.31262,-3.87213,0,0,0,0,0,0,0,-1,1588,540,6.31263,3.87215
371,484,7.21008,0.973511,0,0,0,0,0,0,0,-1,1595,540,7.21014,-0.973541
378,484,11.0563,1.5014,0,0,0,0,0,0,0,-1,1602,540,11.0563,-1.5014
385,484,14.3469,2.5545,0,0,0,0,0,0,0,-1,1609,540,14.3469,-2.55453
392,484,7.39453,-4.95026,0,0,0,0,0,0,0,-1,1616,540,7.39448,4.95023
399,484,7.14417,-2.5639,0,0,0,0,0,0,0,-1,1623,540,7.14417,2.56391
406,484,7.88953,-2.47321,0,0,0,0,0,0,0,-1,1630,540,7.88954,2.47323
413,484,4.4895,-1.08673,0,0,0,0,0,0,0,-1,1637,540,4.48952,1.08674
420,484,4.50012,-2.11255,0,0,0,0,0,0,0,-1,1644,540,4.50012,2.11256
427,484,5.28601,-3.54053,0,0,0,0,0,0,0,-1,1651,540,5.28599,3.54051
434,484,11.1488,-13.5359,0,0,0,0,0,0,0,-1,1658,540,11.1489,13.5359
441,484,19.189,-28.2275,0,0,0,0,0,0,0,-1,1665,540,19.189,28.2275
448,484,19.1316,-28.1109,0,0,0,0,0,0,0,-1,1672,540,19.1316,28.1109
455,484,19.1406,-27.3081,0,0,0,0,0,0,0,-1,1679,540,19.1407,27.3081
462,484,19.1635,-26.5458,0.0017174,0.0013264,-0.00112409,0.00266287,0.000380937,-0.6993,0.00166288,0.0305481,1686,540,19.1634,26.5458
469,484,19.1356,-25.8016,0.00138556,0.00133885,-0.000742976,0.00210555,0.000618863,-0.769687,0.00124958,0.0188799,1693,540,19.1356,25.8016
476,484,19.0894,-25.0292,0.00131372,0.00135303,-0.000272579,0.00160666,0.00106009,-0.821391,0.000943268,0.0168911,1700,540,19.0893,25.0292
483,484,19.0585,-24.288,0.00130154,0.00129385,0.000182521,0.00148025,0.00111513,0.774868,0.000890441,0.0135447,1707,540,19.0585,24.288
490,484,19.0238,-23.5738,0.00116794,0.00134505,0.00052867,0.00179253,0.000720461,0.868379,0.00104153,0.0133401,1714,540,19.0238,23.5738
497,484,18.9906,-22.8018,0.00108302,0.00146767,0.000962209,0.00225658,0.000294102,0.884037,0.00141657,0.0142655,1721,540,18.9905,22.8018
504,484,18.9642,-22.0159,0.00103745,0.0013297,0.00125873,0.00245075,-8.36056e-05,0.843183,0.00166241,0.0163296,1728,540,18.9642,22.0159
511,484,18.9641,-21.2717,0.000864714,0.00129037,0.00145043,0.0025435,-0.000388421,0.858245,0.00183887,0.0192983,1735,540,18.9642,21.2717
518,484,18.9097,-20.5417,0.000509769,0.00130462,0.00152122,0.00247947,-0.000665085,0.913169,0.0019136,0.0160524,1742,540,18.9097,20.5417
525,484,18.8379,-19.7488,8.19249e-05,0.00134868,0.00149854,0.00234219,-0.000911591,0.985343,0.00193815,0.0135611,1749,540,18.8379,19.7488
532,484,18.8124,-18.9395,-0.000445336,0.00153722,0.0014166,0.00227492,-0.00118304,1.09068,0.00202936,0.0155577,1756,540,18.8124,18.9395
539,484,18.7493,-18.1149,-0.00112517,0.00179035,0.00122511,0.00223679,-0.00157161,1.22135,0.00220993,0.0400471,1763,540,18.7493,18.1149
546,484,18.6887,-17.1705,0,0,0,0,0,0,0,-1,1770,540,18.6887,17.1705
553,484,12.4246,-8.96423,0,0,0,0,0,0,0,-1,1777,540,12.4246,8.96422
560,484,10.0549,-5.47931,0,0,0,0,0,0,0,-1,1784,540,10.055,5.47928
567,484,7.78223,-1.38312,0,0,0,0,0,0,0,-1,1791,540,7.78224,1.38311
574,484,5.74463,1.50922,0,0,0,0,0,0,0,-1,1798,540,5.74463,-1.50924
581,484,10.34,2.9491,0,0,0,0,0,0,0,-1,1805,540,10.34,-2.94912
588,484,10.6669,2.88568,0,0,0,0,0,0,0,-1,1812,540,10.6669,-2.88567
595,484,10.7233,1.04767,0,0,0,0,0,0,0,-1,1819,540,10.7233,-1.04766
602,484,0,0,0,0,0,0,0,0,0,-1,1826,540,0,0
609,484,0,0,0,0,0,0,0,0,0,-1,1833,540,0,0
616,484,0,0,0,0,0,0,0,0,0,-1,1840,540,0,0
623,484,0,0,0,0,0,0,0,0,0,-1,1847,540,0,0
630,484,0,0,0,0,0,0,0,0,0,-1,1854,540,0,0
637,484,0,0,0,0,0,0,0,0,0,-1,1861,540,0,0
644,484,0,0,0,0,0,0,0,0,0,-1,1868,540,0,0
651,484,0,0,0,0,0,0,0,0,0,-1,1875,540,0,0
658,484,0,0,0,0,0,0,0,0,0,-1,1882,540,0,0
665,484,0,0,0,0,0,0,0,0,0,-1,1889,540,0,0
672,484,0,0,0,0,0,0,0,0,0,-1,1896,540,0,0
679,484,0,0,0,0,0,0,0,0,0,-1,1903,540,0,0
686,484,0,0,0,0,0,0,0,0,0,-1,1910,540,0,0
693,484,0,0,0,0,0,0,0,0,0,-1,1917,540,0,0
700,484,0,0,0,0,0,0,0,0,0,-1,1924,540,0,0
707,484,0,0,0,0,0,0,0,0,0,-1,1931,540,0,0
714,484,0,0,0,0,0,0,0,0,0,-1,1938,540,0,0
721,484,0,0,0,0,0,0,0,0,0,-1,1945,540,0,0
728,484,0,0,0,0,0,0,0,0,0,-1,1952,540,0,0
735,484,0,0,0,0,0,0,0,0,0,-1,1959,540,0,0
742,484,0,0,0,0,0,0,0,0,0,-1,1966,540,0,0
749,484,0,0,0,0,0,0,0,0,0,-1,1973,540,0,0
756,484,0,0,0,0,0,0,0,0,0,-1,1980,540,0,0
763,484,0,0,0,0,0,0,0,0,0,-1,1987,540,0,0
770,484,0,0,0,0,0,0,0,0,0,-1,1994,540,0,0
777,484,0,0,0,0,0,0,0,0,0,-1,2001,540,0,0
784,484,0,0,0,0,0,0,0,0,0,-1,2008,540,0,0
791,484,0,0,0,0,0,0,0,0,0,-1,2015,540,0,0
798,484,0,0,0,0,0,0,0,0,0,-1,2022,540,0,0
805,484,0,0,0,0,0,0,0,0,0,-1,2029,540,0,0
812,484,0,0,0,0,0,0,0,0,0,-1,2036,540,0,0
-700,477,0,0,0,0,0,0,0,0,0,-1,524,547,0,0
-693,477,0,0,0,0,0,0,0,0,0,-1,531,547,0,0
-686,477,0,0,0,0,0,0,0,0,0,-1,538,547,0,0
-679,477,0,0,0,0,0,0,0,0,0,-1,545,547,0,0
-672,477,0,0,0,0,0,0,0,0,0,-1,552,547,0,0
-665,477,0,0,0,0,0,0,0,0,0,-1,559,547,0,0
-658,477,0,0,0,0,0,0,0,0,0,-1,566,547,0,0
-651,477,0,0,0,0,0,0,0,0,0,-1,573,547,0,0
-644,477,0,0,0,0,0,0,0,0,0,-1,580,547,0,0
-637,477,0,0,0,0,0,0,0,0,0,-1,587,547,0,0
-630,477,0,0,0,0,0,0,0,0,0,-1,594,547,0,0
-623,477,0,0,0,0,0,0,0,0,0,-1,601,547,0,0
-616,477,0,0,0,0,0,0,0,0,0,-1,608,547,0,0
-609,477,0,0,0,0,0,0,0,0,0,-1,615,547,0,0
-602,477,0,0,0,0,0,0,0,0,0,-1,622,547,0,0
-595,477,0,0,0,0,0,0,0,0,0,-1,629,547,0,0
-588,477,0,0,0,0,0,0,0,0,0,-1,636,547,0,0
-581,477,0,0,0,0,0,0,0,0,0,-1,643,547,0,0
-574,477,0,0,0,0,0,0,0,0,0,-1,650,547,0,0
-567,477,0,0,0,0,0,0,0,0,0,-1,657,547,0,0
-560,477,0,0,0,0,0,0,0,0,0,-1,664,547,0,0
-553,477,0,0,0,0,0,0,0,0,0,-1,671,547,0,0
-546,477,0,0,0,0,0,0,0,0,0,-1,678,547,0,0
-539,477,0,0,0,0,0,0,0,0,0,-1,685,547,0,0
-532,477,0,0,0,0,0,0,0,0,0,-1,692,547,0,0
-525,477,0,0,0,0,0,0,0,0,0,-1,699,547,0,0
-518,477,0,0,0,0,0,0,0,0,0,-1,706,547,0,0
-511,477,0,0,0,0,0,0,0,0,0,-1,713,547,0,0
-504,477,0,0,0,0,0,0,0,0,0,-1,720,547,0,0
-497,477,0,0,0,0,0,0,0,0,0,-1,727,547,0,0
-490,477,0,0,0,0,0,0,0,0,0,-1,734,547,0,0
-483,477,-7.73151,-0.224182,0,0,0,0,0,0,0,-1,741,547,-7.73152,0.224176
-476,477,-6.25806,-0.310547,0,0,0,0,0,0,0,-1,748,547,-6.25804,0.310549
-469,477,-7.26617,0.525085,0,0,0,0,0,0,0,-1,755,547,-7.2662,-0.525111
-462,477,-6.65143,1.06042,0,0,0,0,0,0,0,-1,762,547,-6.65143,-1.06043
-455,477,-5.31757,0.429016,0,0,0,0,0,0,0,-1,769,547,-5.31756,-0.42902
-448,477,-4.0697,0.273376,0,0,0,0,0,0,0,-1,776,547,-4.06971,-0.273363
-441,477,-2.47504,-4.76971,0,0,0,0,0,0,0,-1,783,547,-2.47505,4.76973
-434,477,-5.52557,-16.9657,0,0,0,0,0,0,0,-1,790,547,-5.52555,16.9657
-427,477,-5.78967,-17.3342,0.000362002,0.0133114,-0.00540591,0.0152714,-0.00159809,-1.22296,0.0107533,0.0457552,797,547,-5.78966,17.3342
-420,477,-5.84979,-17.9275,0.000375502,0.0112544,-0.00495888,0.0131755,-0.00154563,-1.20119,0.00934162,0.036007,804,547,-5.84981,17.9275
-413,477,-5.83386,-18.9844,0.000420355,0.00911288,-0.00437509,0.0109336,-0.00140035,-1.17644,0.00779786,0.0206233,811,547,-5.83388,18.9844
-406,477,-5.92603,-19.8806,0.000553299,0.00759713,-0.00389961,0.00932982,-0.00117939,-1.15267,0.00664797,0.0115473,818,547,-5.926,19.8806
-399,477,-5.96857,-20.6252,0.000691894,0.00606717,-0.00334703,0.00767208,-0.00091302,-1.12368,0.00544464,0.0205637,825,547,-5.96857,20.6252
-392,477,-6.02686,-21.3814,0.000884323,0.00462794,-0.00281307,0.00613504,-0.000622778,-1.07896,0.00431263,0.0192768,832,547,-6.02688,21.3814
-385,477,-6.04767,-22.1234,0.00113517,0.00328812,-0.00227394,0.00472752,-0.000304226,-1.00647,0.00325783,0.015435,839,547,-6.04769,22.1234
-378,477,-6.09412,-22.8925,0.0013614,0.00194623,-0.00164839,0.00332794,-2.03085e-05,-0.873181,0.00222543,0.01381,846,547,-6.09409,22.8925
-371,477,-6.12091,-23.6095,0.00155631,0.000624808,-0.00104851,0.00223786,-5.67388e-05,-0.576386,0.00151117,0.0140412,853,547,-6.12092,23.6095
-364,477,-6.1507,-24.3199,0.00170557,-0.000712037,-0.000388917,0.00176659,-0.000773061,-0.155639,0.0015032,0.0138636,860,547,-6.15072,24.32
-357,477,-6.20764,-25.054,0.00187005,-0.00189841,0.000226884,0.00188366,-0.00191202,0.0599177,0.00219146,0.0111944,867,547,-6.20767,25.054
-350,477,-6.23291,-25.7791,0.00202168,-0.00305286,0.000781186,0.00213921,-0.00317039,0.149337,0.00308471,0.0106889,874,547,-6.2329,25.779
-343,477,-6.17889,-26.5254,0.00204348,-0.00414379,0.0013695,0.00233306,-0.00443337,0.208376,0.00396883,0.0212474,881,547,-6.17888,26.5254
-336,477,-6.16449,-27.2698,0.00197476,-0.00537658,0.00204307,0.00250441,-0.00590623,0.253657,0.00498652,0.0483829,888,547,-6.16447,27.2698
-329,477,-6.04004,-27.9918,0,0,0,0,0,0,0,-1,895,547,-6.04002,27.9918
-322,477,-5.91638,-27.4468,0,0,0,0,0,0,0,-1,902,547,-5.91639,27.4468
-315,477,-1.67358,-9.15253,0,0,0,0,0,0,0,-1,909,547,-1.67356,9.15253
-308,477,-1.30127,-6.55188,0,0,0,0,0,0,0,-1,916,547,-1.30128,6.55185
-301,477,-1.21185,-6.28351,0,0,0,0,0,0,0,-1,923,547,-1.21184,6.28352
-294,477,-0.352905,3.27142,0,0,0,0,0,0,0,-1,930,547,-0.35292,-3.27144
-287,477,3.54364,2.15399,0,0,0,0,0,0,0,-1,937,547,3.54362,-2.15396
-280,477,1.97308,-0.954163,0,0,0,0,0,0,0,-1,944,547,1.9731,0.954178
-273,477,2.11621,-3.76709,0,0,0,0,0,0,0,-1,951,547,2.11619,3.76706
-266,477,2.04669,-3.42389,0,0,0,0,0,0,0,-1,958,547,2.04671,3.42391
-259,477,-1.33478,-3.41205,0,0,0,0,0,0,0,-1,965,547,-1.3348,3.41206
-252,477,0.597168,-5.32922,0,0,0,0,0,0,0,-1,972,547,0.597144,5.32924
-245,477,8.2309,-8.48492,0,0,0,0,0,0,0,-1,979,547,8.23091,8.48494
-238,477,6.60938,-5.64063,0,0,0,0,0,0,0,-1,986,547,6.60938,5.64063
-231,477,4.71716,-2.52484,0,0,0,0,0,0,0,-1,993,547,4.71716,2.52483
-224,477,0,0,0,0,0,0,0,0,0,-1,1000,547,0,0
-217,477,0,0,0,0,0,0,0,0,0,-1,1007,547,0,0
-210,477,0,0,0,0,0,0,0,0,0,-1,1014,547,0,0
-203,477,0,0,0,0,0,0,0,0,0,-1,1021,547,0,0
-196,477,0,0,0,0,0,0,0,0,0,-1,1028,547,0,0
-189,477,0,0,0,0,0,0,0,0,0,-1,1035,547,0,0
-182,477,0,0,0,0,0,0,0,0,0,-1,1042,547,0,0
-175,477,0,0,0,0,0,0,0,0,0,-1,1049,547,0,0
-168,477,0,0,0,0,0,0,0,0,0,-1,1056,547,0,0
-161,477,0,0,0,0,0,0,0,0,0,-1,1063,547,0,0
-154,477,0,0,0,0,0,0,0,0,0,-1,1070,547,0,0
-147,477,0,0,0,0,0,0,0,0,0,-1,1077,547,0,0
-140,477,0,0,0,0,0,0,0,0,0,-1,1084,547,0,0
-133,477,0,0,0,0,0,0,0,0,0,-1,1091,547,0,0
-126,477,0,0,0,0,0,0,0,0,0,-1,1098,547,0,0
-119,477,0,0,0,0,0,0,0,0,0,-1,1105,547,0,0
-112,477,0,0,0,0,0,0,0,0,0,-1,1112,547,0,0
-105,477,0,0,0,0,0,0,0,0,0,-1,1119,547,0,0
-98,477,0,0,0,0,0,0,0,0,0,-1,1126,547,0,0
-91,477,0,0,0,0,0,0,0,0,0,-1,1133,547,0,0
-84,477,0,0,0,0,0,0,0,0,0,-1,1140,547,0,0
-77,477,0,0,0,0,0,0,0,0,0,-1,1147,547,0,0
-70,477,0,0,0,0,0,0,0,0,0,-1,1154,547,0,0
-63,477,0,0,0,0,0,0,0,0,0,-1,1161,547,0,0
-56,477,0,0,0,0,0,0,0,0,0,-1,1168,547,0,0
-49,477,0,0,0,0,0,0,0,0,0,-1,1175,547,0,0
-42,477,0,0,0,0,0,0,0,0,0,-1,1182,547,0,0
-35,477,0,0,0,0,0,0,0,0,0,-1,1189,547,0,0
-28,477,0,0,0,0,0,0,0,0,0,-1,1196,547,0,0
-21,477,0,0,0,0,0,0,0,0,0,-1,1203,547,0,0
-14,477,0,0,0,0,0,0,0,0,0,-1,1210,547,0,0
-7,477,0,0,0,0,0,0,0,0,0,-1,1217,547,0,0
0,477,0,0,0,0,0,0,0,0,0,-1,1224,547,0,0
7,477,0,0,0,0,0,0,0,0,0,-1,1231,547,0,0
14,477,0,0,0,0,0,0,0,0,0,-1,1238,547,0,0
21,477,0,0,0,0,0,0,0,0,0,-1,1245,547,0,0
28,477,0,0,0,0,0,0,0,0,0,-1,1252,547,0,0
35,477,0,0,0,0,0,0,0,0,0,-1,1259,547,0,0
42,477,0,0,0,0,0,0,0,0,0,-1,1266,547,0,0
49,477,0,0,0,0,0,0,0,0,0,-1,1273,547,0,0
56,477,0,0,0,0,0,0,0,0,0,-1,1280,547,0,0
63,477,0,0,0,0,0,0,0,0,0,-1,1287,547,0,0
70,477,0,0,0,0,0,0,0,0,0,-1,1294,547,0,0
77,477,0,0,0,0,0,0,0,0,0,-1,1301,547,0,0
84,477,0,0,0,0,0,0,0,0,0,-1,1308,547,0,0
91,477,0,0,0,0,0,0,0,0,0,-1,1315,547,0,0
98,477,0,0,0,0,0,0,0,0,0,-1,1322,547,0,0
105,477,0,0,0,0,0,0,0,0,0,-1,1329,547,0,0
112,477,0,0,0,0,0,0,0,0,0,-1,1336,547,0,0
119,477,0,0,0,0,0,0,0,0,0,-1,1343,547,0,0
126,477,0,0,0,0,0,0,0,0,0,-1,1350,547,0,0
133,477,0,0,0,0,0,0,0,0,0,-1,1357,547,0,0
140,477,0,0,0,0,0,0,0,0,0,-1,1364,547,0,0
147,477,0,0,0,0,0,0,0,0,0,-1,1371,547,0,0
154,477,0,0,0,0,0,0,0,0,0,-1,1378,547,0,0
161,477,0,0,0,0,0,0,0,0,0,-1,1385,547,0,0
168,477,0,0,0,0,0,0,0,0,0,-1,1392,547,0,0
175,477,0,0,0,0,0,0,0,0,0,-1,1399,547,0,0
182,477,0,0,0,0,0,0,0,0,0,-1,1406,547,0,0
189,477,0,0,0,0,0,0,0,0,0,-1,1413,547,0,0
196,477,0,0,0,0,0,0,0,0,0,-1,1420,547,0,0
203,477,0,0,0,0,0,0,0,0,0,-1,1427,547,0,0
210,477,0,0,0,0,0,0,0,0,0,-1,1434,547,0,0
217,477,0,0,0,0,0,0,0,0,0,-1,1441,547,0,0
224,477,0,0,0,0,0,0,0,0,0,-1,1448,547,0,0
231,477,0,0,0,0,0,0,0,0,0,-1,1455,547,0,0
238,477,0,0,0,0,0,0,0,0,0,-1,1462,547,0,0
245,477,0,0,0,0,0,0,0,0,0,-1,1469,547,0,0
252,477,0,0,0,0,0,0,0,0,0,-1,1476,547,0,0
259,477,0,0,0,0,0,0,0,0,0,-1,1483,547,0,0
266,477,0,0,0,0,0,0,0,0,0,-1,1490,547,0,0
273,477,0,0,0,0,0,0,0,0,0,-1,1497,547,0,0
280,477,0,0,0,0,0,0,0,0,0,-1,1504,547,0,0
287,477,0,0,0,0,0,0,0,0,0,-1,1511,547,0,0
294,477,0,0,0,0,0,0,0,0,0,-1,1518,547,0,0
301,477,0,0,0,0,0,0,0,0,0,-1,1525,547,0,0
308,477,0,0,0,0,0,0,0,0,0,-1,1532,547,0,0
315,477,0,0,0,0,0,0,0,0,0,-1,1539,547,0,0
322,477,0,0,0,0,0,0,0,0,0,-1,1546,547,0,0
329,477,0,0,0,0,0,0,0,0,0,-1,1553,547,0,0
336,477,0,0,0,0,0,0,0,0,0,-1,1560,547,0,0
343,477,0,0,0,0,0,0,0,0,0,-1,1567,547,0,0
350,477,1.7699,-3.32275,0,0,0,0,0,0,0,-1,1574,547,1.7699,3.32272
357,477,3.073,-4.83313,0,0,0,0,0,0,0,-1,1581,547,3.07303,4.83316
364,477,4.30127,-4.22864,0,0,0,0,0,0,0,-1,1588,547,4.30125,4.22865
371,477,4.57703,0.283264,0,0,0,0,0,0,0,-1,1595,547,4.57706,-0.283262
378,477,8.57947,1.05969,0,0,0,0,0,0,0,-1,1602,547,8.5795,-1.05972
385,477,12.3726,2.02356,0,0,0,0,0,0,0,-1,1609,547,12.3725,-2.02355
392,477,16.4678,2.76843,0,0,0,0,0,0,0,-1,1616,547,16.4678,-2.76845
399,477,8.00037,-2.29523,0,0,0,0,0,0,0,-1,1623,547,8.00031,2.2952
406,477,4.82495,2.7475,0,0,0,0,0,0,0,-1,1630,547,4.825,-2.74752
413,477,4.88171,-0.336426,0,0,0,0,0,0,0,-1,1637,547,4.88169,0.336398
420,477,3.34875,0.102722,0,0,0,0,0,0,0,-1,1644,547,3.34871,-0.1027
427,477,1.66772,-0.373108,0,0,0,0,0,0,0,-1,1651,547,1.66768,0.373104
434,477,3.76978,-2.30798,0,0,0,0,0,0,0,-1,1658,547,3.76974,2.30801
441,477,4.05444,-2.80402,0,0,0,0,0,0,0,-1,1665,547,4.05444,2.804
448,477,10.4247,-11.7421,0,0,0,0,0,0,0,-1,1672,547,10.4247,11.7421
455,477,13.3054,-16.8109,0,0,0,0,0,0,0,-1,1679,547,13.3054,16.8109
462,477,19.8671,-26.6027,0,0,0,0,0,0,0,-1,1686,547,19.867,26.6027
469,477,19.7987,-25.9205,0,0,0,0,0,0,0,-1,1693,547,19.7987,25.9206
476,477,19.8275,-25.0408,0.0012964,0.0014217,-0.000624501,0.00198669,0.000731418,-0.83539,0.00116023,0.0267092,1700,547,19.8275,25.0408
483,477,19.8362,-24.2695,0.00135,0.00132481,-0.000107753,0.0014459,0.00122892,-0.727219,0.000900363,0.0135964,1707,547,19.8362,24.2695
490,477,19.7908,-23.5363,0.00123862,0.00142128,0.000249307,0.00159546,0.00106444,0.960977,0.000938144,0.0132754,1714,547,19.7908,23.5363
497,477,19.7498,-22.7457,0.00115854,0.0015728,0.00070714,0.00210252,0.000628818,0.927871,0.00124613,0.0139695,1721,547,19.7497,22.7457
504,477,19.7249,-21.9713,0.00109587,0.00139445,0.000984455,0.00224087,0.000249451,0.86065,0.0014181,0.0188218,1728,547,19.7248,21.9713
511,477,19.7373,-21.252,0.000919838,0.00131604,0.00116306,0.00229775,-6.18699e-05,0.869752,0.00155286,0.024012,1735,547,19.7373,21.2519
518,477,19.6901,-20.509,0.000590644,0.00129101,0.00124624,0.00223534,-0.000353681,0.922362,0.00162103,0.020887,1742,547,19.6901,20.509
525,477,19.6141,-19.6964,0.000209674,0.0013257,0.00125346,0.00213974,-0.000604366,0.994818,0.00166492,0.0170292,1749,547,19.6142,19.6963
532,477,19.55,-18.9006,-0.000247611,0.00150948,0.00122589,0.00213913,-0.000877263,1.09631,0.00179159,0.0191174,1756,547,19.55,18.9006
539,477,19.515,-18.0447,-0.000796089,0.00176852,0.00114229,0.00220352,-0.00123109,1.20694,0.00200929,0.0181268,1763,547,19.515,18.0447
546,477,19.3953,-17.3453,-0.00142106,0.00241084,0.00113014,0.00271932,-0.00172954,1.30433,0.00258965,0.0433931,1770,547,19.3953,17.3454
553,477,19.4366,-16.4422,0,0,0,0,0,0,0,-1,1777,547,19.4367,16.4422
560,477,19.0704,-14.8615,0,0,0,0,0,0,0,-1,1784,547,19.0704,14.8615
567,477,13.9529,-8.70972,0,0,0,0,0,0,0,-1,1791,547,13.9529,8.7097
574,477,6.82593,-0.916992,0,0,0,0,0,0,0,-1,1798,547,6.82598,0.916977
581,477,9.29321,-0.557007,0,0,0,0,0,0,0,-1,1805,547,9.29324,0.55703
588,477,9.75195,0.422729,0,0,0,0,0,0,0,-1,1812,547,9.75198,-0.42273
595,477,9.89172,1.21326,0,0,0,0,0,0,0,-1,1819,547,9.89174,-1.21328
602,477,6.5271,-0.964417,0,0,0,0,0,0,0,-1,1826,547,6.52706,0.964427
609,477,0,0,0,0,0,0,0,0,0,-1,1833,547,0,0
616,477,0,0,0,0,0,0,0,0,0,-1,1840,547,0,0
623,477,0,0,0,0,0,0,0,0,0,-1,1847,547,0,0
630,477,0,0,0,0,0,0,0,0,0,-1,1854,547,0,0
637,477,0,0,0,0,0,0,0,0,0,-1,1861,547,0,0
644,477,0,0,0,0,0,0,0,0,0,-1,1868,547,0,0
651,477,0,0,0,0,0,0,0,0,0,-1,1875,547,0,0
658,477,0,0,0,0,0,0,0,0,0,-1,1882,547,0,0
665,477,0,0,0,0,0,0,0,0,0,-1,1889,547,0,0
672,477,0,0,0,0,0,0,0,0,0,-1,1896,547,0,0
679,477,0,0,0,0,0,0,0,0,0,-1,1903,547,0,0
686,477,0,0,0,0,0,0,0,0,0,-1,1910,547,0,0
693,477,0,0,0,0,0,0,0,0,0,-1,1917,547,0,0
700,477,0,0,0,0,0,0,0,0,0,-1,1924,547,0,0
707,477,0,0,0,0,0,0,0,0,0,-1,1931,547,0,0
714,477,0,0,0,0,0,0,0,0,0,-1,1938,547,0,0
721,477,0,0,0,0,0,0,0,0,0,-1,1945,547,0,0
728,477,0,0,0,0,0,0,0,0,0,-1,1952,547,0,0
735,477,0,0,0,0,0,0,0,0,0,-1,1959,547,0,0
742,477,0,0,0,0,0,0,0,0,0,-1,1966,547,0,0
749,477,0,0,0,0,0,0,0,0,0,-1,1973,547,0,0
756,477,0,0,0,0,0,0,0,0,0,-1,1980,547,0,0
763,477,0,0,0,0,0,0,0,0,0,-1,1987,547,0,0
770,477,0,0,0,0,0,0,0,0,0,-1,1994,547,0,0
777,477,0,0,0,0,0,0,0,0,0,-1,2001,547,0,0
784,477,0,0,0,0,0,0,0,0,0,-1,2008,547,0,0
791,477,0,0,0,0,0,0,0,0,0,-1,2015,547,0,0
798,477,0,0,0,0,0,0,0,0,0,-1,2022,547,0,0
805,477,0,0,0,0,0,0,0,0,0,-1,2029,547,0,0
812,477,0,0,0,0,0,0,0,0,0,-1,2036,547,0,0
-700,470,0,0,0,0,0,0,0,0,0,-1,524,554,0,0
-693,470,0,0,0,0,0,0,0,0,0,-1,531,554,0,0
-686,470,0,0,0,0,0,0,0,0,0,-1,538,554,0,0
-679,470,0,0,0,0,0,0,0,0,0,-1,545,554,0,0
-672,470,0,0,0,0,0,0,0,0,0,-1,552,554,0,0
-665,470,0,0,0,0,0,0,0,0,0,-1,559,554,0,0
-658,470,0,0,0,0,0,0,0,0,0,-1,566,554,0,0
-651,470,0,0,0,0,0,0,0,0,0,-1,573,554,0,0
-644,470,0,0,0,0,0,0,0,0,0,-1,580,554,0,0
-637,470,0,0,0,0,0,0,0,0,0,-1,587,554,0,0
-630,470,0,0,0,0,0,0,0,0,0,-1,594,554,0,0
-623,470,0,0,0,0,0,0,0,0,0,-1,601,554,0,0
-616,470,0,0,0,0,0,0,0,0,0,-1,608,554,0,0
-609,470,0,0,0,0,0,0,0,0,0,-1,615,554,0,0
-602,470,0,0,0,0,0,0,0,0,0,-1,622,554,0,0
-595,470,0,0,0,0,0,0,0,0,0,-1,629,554,0,0
-588,470,0,0,0,0,0,0,0,0,0,-1,636,554,0,0
-581,470,0,0,0,0,0,0,0,0,0,-1,643,554,0,0
-574,470,0,0,0,0,0,0,0,0,0,-1,650,554,0,0
-567,470,0,0,0,0,0,0,0,0,0,-1,657,554,0,0
-560,470,0,0,0,0,0,0,0,0,0,-1,664,554,0,0
-553,470,0,0,0,0,0,0,0,0,0,-1,671,554,0,0
-546,470,0,0,0,0,0,0,0,0,0,-1,678,554,0,0
-539,470,0,0,0,0,0,0,0,0,0,-1,685,554,0,0
-532,470,0,0,0,0,0,0,0,0,0,-1,692,554,0,0
-525,470,0,0,0,0,0,0,0,0,0,-1,699,554,0,0
-518,470,0,0,0,0,0,0,0,0,0,-1,706,554,0,0
-511,470,0,0,0,0,0,0,0,0,0,-1,713,554,0,0
-504,470,0,0,0,0,0,0,0,0,0,-1,720,554,0,0
-497,470,0,0,0,0,0,0,0,0,0,-1,727,554,0,0
-490,470,-9.13263,-1.03125,0,0,0,0,0,0,0,-1,734,554,-9.1326,1.03127
-483,470,-7.68677,-1.03955,0,0,0,0,0,0,0,-1,741,554,-7.68678,1.03958
-476,470,-6.17969,-1.03394,0,0,0,0,0,0,0,-1,748,554,-6.17971,1.03395
-469,470,-6.23016,-0.651855,0,0,0,0,0,0,0,-1,755,554,-6.23014,0.651829
-462,470,-4.87915,-1.03705,0,0,0,0,0,0,0,-1,762,554,-4.87914,1.03702
-455,470,-4.14777,-1.37079,0,0,0,0,0,0,0,-1,769,554,-4.14779,1.37078
-448,470,-2.9314,-5.74518,0,0,0,0,0,0,0,-1,776,554,-2.93137,5.74518
-441,470,-5.77087,-14.2335,0,0,0,0,0,0,0,-1,783,554,-5.7709,14.2335
-434,470,-6.55457,-16.577,0,0,0,0,0,0,0,-1,790,554,-6.55455,16.577
-427,470,-6.58203,-17.4181,2.78081e-05,0.0103094,-0.00410984,0.0117503,-0.00141308,-1.23359,0.00834453,0.0250521,797,554,-6.58201,17.4181
-420,470,-6.57947,-18.2224,0.000185628,0.00858198,-0.00367963,0.00996631,-0.0011987,-1.21096,0.00707769,0.01735,804,554,-6.57946,18.2224
-413,470,-6.61664,-19.0452,0.000269688,0.0067098,-0.00308737,0.00795075,-0.000971263,-1.18861,0.00565214,0.0140873,811,554,-6.61662,19.0452
-406,470,-6.65784,-19.8392,0.000450641,0.00545086,-0.00266317,0.00660356,-0.000702057,-1.16231,0.00465407,0.012185,818,554,-6.65782,19.8392
-399,470,-6.70062,-20.5933,0.000685575,0.00417581,-0.00221723,0.00525231,-0.000390928,-1.1188,0.00363886,0.0163297,825,554,-6.70061,20.5933
-392,470,-6.73987,-21.326,0.000945341,0.0029436,-0.00178638,0.00399128,-0.000102337,-1.04038,0.00269561,0.0157886,832,554,-6.73987,21.326
-385,470,-6.78369,-22.0728,0.00126406,0.00179193,-0.00135944,0.00291281,0.000143171,-0.88128,0.00189596,0.0117516,839,554,-6.78371,22.0728
-378,470,-6.8197,-22.8326,0.001569,0.00062838,-0.000843304,0.00206428,0.000133107,-0.53103,0.00133403,0.0160333,846,554,-6.81967,22.8326
-371,470,-6.84662,-23.5669,0.00186256,-0.000497287,-0.00035376,0.00191445,-0.000549177,-0.145644,0.00149341,0.0140625,853,554,-6.84661,23.5669
-364,470,-6.89502,-24.2764,0.0021353,-0.0015903,0.000144347,0.00214089,-0.00159588,0.0386675,0.00216506,0.0150655,860,554,-6.89501,24.2764
-357,470,-6.95453,-24.9924,0.00243559,-0.00260619,0.000567035,0.00249857,-0.00266918,0.110626,0.00298414,0.0153467,867,554,-6.95451,24.9924
-350,470,-6.9505,-25.7472,0.00270796,-0.0036901,0.000931706,0.00284087,-0.00382301,0.141704,0.0038613,0.0129955,874,554,-6.95051,25.7472
-343,470,-6.86926,-26.4882,0,0,0,0,0,0,0,-1,881,554,-6.86928,26.4882
-336,470,-6.64752,-27.2766,0,0,0,0,0,0,0,-1,888,554,-6.64752,27.2766
-329,470,-2.78516,-12.3594,0,0,0,0,0,0,0,-1,895,554,-2.78517,12.3594
-322,470,-2.30829,-11.4527,0,0,0,0,0,0,0,-1,902,554,-2.30827,11.4527
-315,470,-1.04797,-8.29529,0,0,0,0,0,0,0,-1,909,554,-1.04797,8.29526
-308,470,-1.39368,-6.68152,0,0,0,0,0,0,0,-1,916,554,-1.39369,6.68149
-301,470,-0.0340576,3.34888,0,0,0,0,0,0,0,-1,923,554,-0.0340496,-3.3489
-294,470,-1.18378,3.22266,0,0,0,0,0,0,0,-1,930,554,-1.18376,-3.22268
-287,470,-2.15454,3.2204,0,0,0,0,0,0,0,-1,937,554,-2.15452,-3.22037
-280,470,-3.00537,3.099,0,0,0,0,0,0,0,-1,944,554,-3.00536,-3.09898
-273,470,-12.3932,3.65009,0,0,0,0,0,0,0,-1,951,554,-12.3932,-3.65011
-266,470,-11.5706,1.16028,0,0,0,0,0,0,0,-1,958,554,-11.5706,-1.16031
-259,470,-7.50415,-2.77167,0,0,0,0,0,0,0,-1,965,554,-7.50413,2.7717
-252,470,-0.371155,-5.87823,0,0,0,0,0,0,0,-1,972,554,-0.37114,5.87821
-245,470,1.33221,-6.81122,0,0,0,0,0,0,0,-1,979,554,1.33223,6.8112
-238,470,0,0,0,0,0,0,0,0,0,-1,986,554,0,0
-231,470,0,0,0,0,0,0,0,0,0,-1,993,554,0,0
-224,470,0,0,0,0,0,0,0,0,0,-1,1000,554,0,0
-217,470,0,0,0,0,0,0,0,0,0,-1,1007,554,0,0
-210,470,0,0,0,0,0,0,0,0,0,-1,1014,554,0,0
-203,470,0,0,0,0,0,0,0,0,0,-1,1021,554,0,0
-196,470,0,0,0,0,0,0,0,0,0,-1,1028,554,0,0
-189,470,0,0,0,0,0,0,0,0,0,-1,1035,554,0,0
-182,470,0,0,0,0,0,0,0,0,0,-1,1042,554,0,0
-175,470,0,0,0,0,0,0,0,0,0,-1,1049,554,0,0
-168,470,0,0,0,0,0,0,0,0,0,-1,1056,554,0,0
-161,470,0,0,0,0,0,0,0,0,0,-1,1063,554,0,0
-154,470,0,0,0,0,0,0,0,0,0,-1,1070,554,0,0
-147,470,0,0,0,0,0,0,0,0,0,-1,1077,554,0,0
-140,470,0,0,0,0,0,0,0,0,0,-1,1084,554,0,0
-133,470,0,0,0,0,0,0,0,0,0,-1,1091,554,0,0
-126,470,0,0,0,0,0,0,0,0,0,-1,1098,554,0,0
-119,470,0,0,0,0,0,0,0,0,0,-1,1105,554,0,0
-112,470,0,0,0,0,0,0,0,0,0,-1,1112,554,0,0
-105,470,0,0,0,0,0,0,0,0,0,-1,1119,554,0,0
-98,470,0,0,0,0,0,0,0,0,0,-1,1126,554,0,0
-91,470,0,0,0,0,0,0,0,0,0,-1,1133,554,0,0
-84,470,0,0,0,0,0,0,0,0,0,-1,1140,554,0,0
-77,470,0,0,0,0,0,0,0,0,0,-1,1147,554,0,0
-70,470,0,0,0,0,0,0,0,0,0,-1,1154,554,0,0
-63,470,0,0,0,0,0,0,0,0,0,-1,1161,554,0,0
-56,470,0,0,0,0,0,0,0,0,0,-1,1168,554,0,0
-49,470,0,0,0,0,0,0,0,0,0,-1,1175,554,0,0
-42,470,0,0,0,0,0,0,0,0,0,-1,1182,554,0,0
-35,470,0,0,0,0,0,0,0,0,0,-1,1189,554,0,0
-28,470,0,0,0,0,0,0,0,0,0,-1,1196,554,0,0
-21,470,0,0,0,0,0,0,0,0,0,-1,1203,554,0,0
-14,470,0,0,0,0,0,0,0,0,0,-1,1210,554,0,0
-7,470,0,0,0,0,0,0,0,0,0,-1,1217,554,0,0
0,470,0,0,0,0,0,0,0,0,0,-1,1224,554,0,0
7,470,0,0,0,0,0,0,0,0,0,-1,1231,554,0,0
14,470,0,0,0,0,0,0,0,0,0,-1,1238,554,0,0
21,470,0,0,0,0,0,0,0,0,0,-1,1245,554,0,0
28,470,0,0,0,0,0,0,0,0,0,-1,1252,554,0,0
35,470,0,0,0,0,0,0,0,0,0,-1,1259,554,0,0
42,470,0,0,0,0,0,0,0,0,0,-1,1266,554,0,0
49,470,0,0,0,0,0,0,0,0,0,-1,1273,554,0,0
56,470,0,0,0,0,0,0,0,0,0,-1,1280,554,0,0
63,470,0,0,0,0,0,0,0,0,0,-1,1287,554,0,0
70,470,0,0,0,0,0,0,0,0,0,-1,1294,554,0,0
77,470,0,0,0,0,0,0,0,0,0,-1,1301,554,0,0
84,470,0,0,0,0,0,0,0,0,0,-1,1308,554,0,0
91,470,0,0,0,0,0,0,0,0,0,-1,1315,554,0,0
98,470,0,0,0,0,0,0,0,0,0,-1,1322,554,0,0
105,470,0,0,0,0,0,0,0,0,0,-1,1329,554,0,0
112,470,0,0,0,0,0,0,0,0,0,-1,1336,554,0,0
119,470,0,0,0,0,0,0,0,0,0,-1,1343,554,0,0
126,470,0,0,0,0,0,0,0,0,0,-1,1350,554,0,0
133,470,0,0,0,0,0,0,0,0,0,-1,1357,554,0,0
140,470,0,0,0,0,0,0,0,0,0,-1,1364,554,0,0
147,470,0,0,0,0,0,0,0,0,0,-1,1371,554,0,0
154,470,0,0,0,0,0,0,0,0,0,-1,1378,554,0,0
161,470,0,0,0,0,0,0,0,0,0,-1,1385,554,0,0
168,470,0,0,0,0,0,0,0,0,0,-1,1392,554,0,0
175,470,0,0,0,0,0,0,0,0,0,-1,1399,554,0,0
182,470,0,0,0,0,0,0,0,0,0,-1,1406,554,0,0
189,470,0,0,0,0,0,0,0,0,0,-1,1413,554,0,0
196,470,0,0,0,0,0,0,0,0,0,-1,1420,554,0,0
203,470,0,0,0,0,0,0,0,0,0,-1,1427,554,0,0
210,470,0,0,0,0,0,0,0,0,0,-1,1434,554,0,0
217,470,0,0,0,0,0,0,0,0,0,-1,1441,554,0,0
224,470,0,0,0,0,0,0,0,0,0,-1,1448,554,0,0
231,470,0,0,0,0,0,0,0,0,0,-1,1455,554,0,0
238,470,0,0,0,0,0,0,0,0,0,-1,1462,554,0,0
245,470,0,0,0,0,0,0,0,0,0,-1,1469,554,0,0
252,470,0,0,0,0,0,0,0,0,0,-1,1476,554,0,0
259,470,0,0,0,0,0,0,0,0,0,-1,1483,554,0,0
266,470,0,0,0,0,0,0,0,0,0,-1,1490,554,0,0
273,470,0,0,0,0,0,0,0,0,0,-1,1497,554,0,0
280,470,0,0,0,0,0,0,0,0,0,-1,1504,554,0,0
287,470,0,0,0,0,0,0,0,0,0,-1,1511,554,0,0
294,470,0,0,0,0,0,0,0,0,0,-1,1518,554,0,0
301,470,0,0,0,0,0,0,0,0,0,-1,1525,554,0,0
308,470,0,0,0,0,0,0,0,0,0,-1,1532,554,0,0
315,470,0,0,0,0,0,0,0,0,0,-1,1539,554,0,0
322,470,0,0,0,0,0,0,0,0,0,-1,1546,554,0,0
329,470,0,0,0,0,0,0,0,0,0,-1,1553,554,0,0
336,470,0,0,0,0,0,0,0,0,0,-1,1560,554,0,0
343,470,0,0,0,0,0,0,0,0,0,-1,1567,554,0,0
350,470,0,0,0,0,0,0,0,0,0,-1,1574,554,0,0
357,470,0,0,0,0,0,0,0,0,0,-1,1581,554,0,0
364,470,1.33423,0.293335,0,0,0,0,0,0,0,-1,1588,554,1.33422,-0.293348
371,470,2.22498,-0.0305176,0,0,0,0,0,0,0,-1,1595,554,2.22494,0.0305046
378,470,6.27051,0.710083,0,0,0,0,0,0,0,-1,1602,554,6.27054,-0.710093
385,470,10.3657,1.47296,0,0,0,0,0,0,0,-1,1609,554,10.3657,-1.47299
392,470,15.3881,3.01935,0,0,0,0,0,0,0,-1,1616,554,15.388,-3.01937
399,470,18.4479,2.93793,0,0,0,0,0,0,0,-1,1623,554,18.4479,-2.93792
406,470,15.1896,1.36676,0,0,0,0,0,0,0,-1,1630,554,15.1896,-1.36679
413,470,6.55383,1.99207,0,0,0,0,0,0,0,-1,1637,554,6.5538,-1.99208
420,470,4.47095,0.845703,0,0,0,0,0,0,0,-1,1644,554,4.47098,-0.845718
427,470,3.51038,1.19684,0,0,0,0,0,0,0,-1,1651,554,3.51039,-1.19684
434,470,3.31775,-1.37427,0,0,0,0,0,0,0,-1,1658,554,3.31781,1.37426
441,470,2.55457,-2.05902,0,0,0,0,0,0,0,-1,1665,554,2.55461,2.05904
448,470,3.27258,-2.64032,0,0,0,0,0,0,0,-1,1672,554,3.27257,2.64029
455,470,10.3658,-9.82233,0,0,0,0,0,0,0,-1,1679,554,10.3659,9.82233
462,470,11.0651,-11.9958,0,0,0,0,0,0,0,-1,1686,554,11.0651,11.9958
469,470,15.4242,-19.0521,0,0,0,0,0,0,0,-1,1693,554,15.4242,19.0521
476,470,20.5302,-25.0858,0,0,0,0,0,0,0,-1,1700,554,20.5301,25.0858
483,470,20.5942,-24.2234,0.00160938,0.0012226,-2.81922e-05,0.00161143,0.00122055,-0.0723791,0.000970593,0.0193449,1707,554,20.5943,24.2234
490,470,20.5352,-23.4783,0.00154103,0.00144579,0.000274293,0.0017718,0.00121501,0.699448,0.00104622,0.0130777,1714,554,20.5352,23.4783
497,470,20.5088,-22.7109,0.00145601,0.00167216,0.000691524,0.002264,0.000864165,0.862916,0.00131926,0.0135759,1721,554,20.5088,22.7109
504,470,20.4865,-21.9543,0.00134805,0.00148915,0.000881994,0.00230341,0.000533789,0.825307,0.00139222,0.0210733,1728,554,20.4864,21.9544
511,470,20.4325,-21.2131,0.00115696,0.00138273,0.000990847,0.0022671,0.000272586,0.842118,0.00142923,0.0278844,1735,554,20.4325,21.2131
518,470,20.397,-20.463,0.000848793,0.00132477,0.0010478,0.00216127,1.229e-05,0.897068,0.00143677,0.0270048,1742,554,20.3969,20.463
525,470,20.384,-19.6514,0.00049316,0.00135003,0.00105709,0.00206221,-0.00021902,0.97793,0.00145333,0.0165974,1749,554,20.3841,19.6514
532,470,20.3121,-18.809,7.67759e-05,0.00151881,0.00106014,0.00207989,-0.000484303,1.08403,0.00157308,0.0141813,1756,554,20.3121,18.809
539,470,20.2535,-18.0374,-0.000384797,0.00177254,0.00104929,0.00219871,-0.000810966,1.185,0.00179815,0.017328,1763,554,20.2535,18.0374
546,470,20.2291,-17.2756,-0.000885618,0.00234507,0.00110439,0.00268652,-0.00122706,1.27095,0.00231128,0.0158551,1770,554,20.2291,17.2756
553,470,20.254,-16.4529,-0.00134652,0.00312844,0.00126519,0.00346137,-0.00167945,1.31348,0.00302691,0.0273144,1777,554,20.254,16.4529
560,470,20.3151,-15.3906,0,0,0,0,0,0,0,-1,1784,554,20.315,15.3906
567,470,20.2035,-14.517,0,0,0,0,0,0,0,-1,1791,554,20.2035,14.517
574,470,14.2793,-8.07147,0,0,0,0,0,0,0,-1,1798,554,14.2793,8.07147
581,470,8.24646,-4.06317,0,0,0,0,0,0,0,-1,1805,554,8.24648,4.06318
588,470,11.1803,1.74927,0,0,0,0,0,0,0,-1,1812,554,11.1803,-1.74926
595,470,4.72192,3.44116,0,0,0,0,0,0,0,-1,1819,554,4.72191,-3.44116
602,470,14.4307,2.76141,0,0,0,0,0,0,0,-1,1826,554,14.4306,-2.76139
609,470,20.9181,4.41058,0,0,0,0,0,0,0,-1,1833,554,20.9181,-4.4106
616,470,0,0,0,0,0,0,0,0,0,-1,1840,554,0,0
623,470,0,0,0,0,0,0,0,0,0,-1,1847,554,0,0
630,470,0,0,0,0,0,0,0,0,0,-1,1854,554,0,0
637,470,0,0,0,0,0,0,0,0,0,-1,1861,554,0,0
644,470,0,0,0,0,0,0,0,0,0,-1,1868,554,0,0
651,470,0,0,0,0,0,0,0,0,0,-1,1875,554,0,0
658,470,0,0,0,0,0,0,0,0,0,-1,1882,554,0,0
665,470,0,0,0,0,0,0,0,0,0,-1,1889,554,0,0
672,470,0,0,0,0,0,0,0,0,0,-1,1896,554,0,0
679,470,0,0,0,0,0,0,0,0,0,-1,1903,554,0,0
686,470,0,0,0,0,0,0,0,0,0,-1,1910,554,0,0
693,470,0,0,0,0,0,0,0,0,0,-1,1917,554,0,0
700,470,0,0,0,0,0,0,0,0,0,-1,1924,554,0,0
707,470,0,0,0,0,0,0,0,0,0,-1,1931,554,0,0
714,470,0,0,0,0,0,0,0,0,0,-1,1938,554,0,0
721,470,0,0,0,0,0,0,0,0,0,-1,1945,554,0,0
728,470,0,0,0,0,0,0,0,0,0,-1,1952,554,0,0
735,470,0,0,0,0,0,0,0,0,0,-1,1959,554,0,0
742,470,0,0,0,0,0,0,0,0,0,-1,1966,554,0,0
749,470,0,0,0,0,0,0,0,0,0,-1,1973,554,0,0
756,470,0,0,0,0,0,0,0,0,0,-1,1980,554,0,0
763,470,0,0,0,0,0,0,0,0,0,-1,1987,554,0,0
770,470,0,0,0,0,0,0,0,0,0,-1,1994,554,0,0
777,470,0,0,0,0,0,0,0,0,0,-1,2001,554,0,0
784,470,0,0,0,0,0,0,0,0,0,-1,2008,554,0,0
791,470,0,0,0,0,0,0,0,0,0,-1,2015,554,0,0
798,470,0,0,0,0,0,0,0,0,0,-1,2022,554,0,0
805,470,0,0,0,0,0,0,0,0,0,-1,2029,554,0,0
812,470,0,0,0,0,0,0,0,0,0,-1,2036,554,0,0
-700,463,0,0,0,0,0,0,0,0,0,-1,524,561,0,0
-693,463,0,0,0,0,0,0,0,0,0,-1,531,561,0,0
-686,463,0,0,0,0,0,0,0,0,0,-1,538,561,0,0
-679,463,0,0,0,0,0,0,0,0,0,-1,545,561,0,0
-672,463,0,0,0,0,0,0,0,0,0,-1,552,561,0,0
-665,463,0,0,0,0,0,0,0,0,0,-1,559,561,0,0
-658,463,0,0,0,0,0,0,0,0,0,-1,566,561,0,0
-651,463,0,0,0,0,0,0,0,0,0,-1,573,561,0,0
-644,463,0,0,0,0,0,0,0,0,0,-1,580,561,0,0
-637,463,0,0,0,0,0,0,0,0,0,-1,587,561,0,0
-630,463,0,0,0,0,0,0,0,0,0,-1,594,561,0,0
-623,463,0,0,0,0,0,0,0,0,0,-1,601,561,0,0
-616,463,0,0,0,0,0,0,0,0,0,-1,608,561,0,0
-609,463,0,0,0,0,0,0,0,0,0,-1,615,561,0,0
-602,463,0,0,0,0,0,0,0,0,0,-1,622,561,0,0
-595,463,0,0,0,0,0,0,0,0,0,-1,629,561,0,0
-588,463,0,0,0,0,0,0,0,0,0,-1,636,561,0,0
-581,463,0,0,0,0,0,0,0,0,0,-1,643,561,0,0
-574,463,0,0,0,0,0,0,0,0,0,-1,650,561,0,0
-567,463,0,0,0,0,0,0,0,0,0,-1,657,561,0,0
-560,463,0,0,0,0,0,0,0,0,0,-1,664,561,0,0
-553,463,0,0,0,0,0,0,0,0,0,-1,671,561,0,0
-546,463,0,0,0,0,0,0,0,0,0,-1,678,561,0,0
-539,463,0,0,0,0,0,0,0,0,0,-1,685,561,0,0
-532,463,0,0,0,0,0,0,0,0,0,-1,692,561,0,0
-525,463,0,0,0,0,0,0,0,0,0,-1,699,561,0,0
-518,463,0,0,0,0,0,0,0,0,0,-1,706,561,0,0
-511,463,0,0,0,0,0,0,0,0,0,-1,713,561,0,0
-504,463,0,0,0,0,0,0,0,0,0,-1,720,561,0,0
-497,463,-9.81451,-1.67126,0,0,0,0,0,0,0,-1,727,561,-9.81452,1.67127
-490,463,-8.57043,-1.58942,0,0,0,0,0,0,0,-1,734,561,-8.57045,1.58944
-483,463,-7.29224,-1.7226,0,0,0,0,0,0,0,-1,741,561,-7.29226,1.72261
-476,463,-5.77704,-1.7312,0,0,0,0,0,0,0,-1,748,561,-5.77703,1.73121
-469,463,-5.14545,-2.138,0,0,0,0,0,0,0,-1,755,561,-5.14546,2.13799
-462,463,-3.13672,-3.07977,0,0,0,0,0,0,0,-1,762,561,-3.13672,3.07974
-455,463,-2.91406,-5.61798,0,0,0,0,0,0,0,-1,769,561,-2.91406,5.61801
-448,463,-4.00177,-8.54681,0,0,0,0,0,0,0,-1,776,561,-4.00175,8.54683
-441,463,-7.40161,-15.6009,0,0,0,0,0,0,0,-1,783,561,-7.40161,15.6009
-434,463,-7.2818,-16.6558,-0.000180671,0.00949765,-0.00369033,0.0107442,-0.00142723,-1.24504,0.00768287,0.0323685,790,561,-7.28178,16.6558
-427,463,-7.30469,-17.4587,-5.5513e-05,0.00780585,-0.00308185,0.00886997,-0.00111964,-1.23833,0.00631967,0.0114097,797,561,-7.30466,17.4587
-420,463,-7.32397,-18.23,0.000141918,0.00638202,-0.00268799,0.00738022,-0.00085628,-1.21522,0.005229,0.0101518,804,561,-7.32398,18.2301
-413,463,-7.36975,-19.0205,0.000244332,0.00475556,-0.00211946,0.00559509,-0.000595195,-1.19365,0.00394346,0.0103622,811,561,-7.36973,19.0205
-406,463,-7.42609,-19.7851,0.000466335,0.00373913,-0.00175884,0.00450509,-0.000299623,-1.16007,0.00310808,0.0106122,818,561,-7.4261,19.7851
-399,463,-7.45227,-20.5306,0.000784078,0.00269842,-0.00141861,0.00345258,2.99254e-05,-1.08218,0.00229181,0.0118197,825,561,-7.45227,20.5306
-392,463,-7.49365,-21.275,0.00111447,0.00167421,-0.00109116,0.00252082,0.000267861,-0.910937,0.00159876,0.0117381,832,561,-7.49364,21.275
-385,463,-7.54388,-22.049,0.00151996,0.000722315,-0.000781253,0.0019983,0.000243974,-0.549396,0.00125878,0.0120305,839,561,-7.54386,22.049
-378,463,-7.58588,-22.8027,0.00194668,-0.000228804,-0.00039309,0.00201553,-0.000297653,-0.173389,0.0014531,0.0123032,846,561,-7.58588,22.8027
-371,463,-7.61792,-23.5486,0.00240941,-0.00110282,-3.39419e-05,0.00240974,-0.00110315,-0.00966271,0.0020744,0.0125047,853,561,-7.61793,23.5486
-364,463,-7.64563,-24.2452,0.00290225,-0.00185773,0.000270298,0.00291754,-0.00187303,0.0565433,0.00278767,0.0155594,860,561,-7.64563,24.2452
-357,463,-7.69928,-24.9219,0.00344261,-0.00261026,0.000465201,0.00347816,-0.00264581,0.0762593,0.00354654,0.0213049,867,561,-7.69927,24.9219
-350,463,-7.61633,-25.717,0.0039468,-0.00358003,0.000624673,0.00399829,-0.00363152,0.082243,0.00440677,0.0445547,874,561,-7.61632,25.717
-343,463,-7.2757,-26.5284,0,0,0,0,0,0,0,-1,881,561,-7.27568,26.5284
-336,463,-2.94928,-12.2127,0,0,0,0,0,0,0,-1,888,561,-2.94925,12.2127
-329,463,-2.64307,-12.7037,0,0,0,0,0,0,0,-1,895,561,-2.64307,12.7038
-322,463,-1.82898,-9.11957,0,0,0,0,0,0,0,-1,902,561,-1.829,9.11957
-315,463,-0.944763,-5.96234,0,0,0,0,0,0,0,-1,909,561,-0.94479,5.96237
-308,463,-1.1535,-3.17889,0,0,0,0,0,0,0,-1,916,561,-1.15352,3.17889
-301,463,-1.50366,-3.15338,0,0,0,0,0,0,0,-1,923,561,-1.50364,3.15341
-294,463,-2.35889,-3.93463,0,0,0,0,0,0,0,-1,930,561,-2.35886,3.93465
-287,463,-2.80322,2.73999,0,0,0,0,0,0,0,-1,937,561,-2.80322,-2.74
-280,463,-12.864,5.25146,0,0,0,0,0,0,0,-1,944,561,-12.864,-5.25149
-273,463,-12.4598,3.39178,0,0,0,0,0,0,0,-1,951,561,-12.4598,-3.3918
-266,463,-8.78101,-3.7356,0,0,0,0,0,0,0,-1,958,561,-8.78098,3.73562
-259,463,-6.23285,-5.68842,0,0,0,0,0,0,0,-1,965,561,-6.23288,5.68843
-252,463,0,0,0,0,0,0,0,0,0,-1,972,561,0,0
-245,463,0,0,0,0,0,0,0,0,0,-1,979,561,0,0
-238,463,0,0,0,0,0,0,0,0,0,-1,986,561,0,0
-231,463,0,0,0,0,0,0,0,0,0,-1,993,561,0,0
-224,463,0,0,0,0,0,0,0,0,0,-1,1000,561,0,0
-217,463,0,0,0,0,0,0,0,0,0,-1,1007,561,0,0
-210,463,0,0,0,0,0,0,0,0,0,-1,1014,561,0,0
-203,463,0,0,0,0,0,0,0,0,0,-1,1021,561,0,0
-196,463,0,0,0,0,0,0,0,0,0,-1,1028,561,0,0
-189,463,0,0,0,0,0,0,0,0,0,-1,1035,561,0,0
-182,463,0,0,0,0,0,0,0,0,0,-1,1042,561,0,0
-175,463,0,0,0,0,0,0,0,0,0,-1,1049,561,0,0
-168,463,0,0,0,0,0,0,0,0,0,-1,1056,561,0,0
-161,463,0,0,0,0,0,0,0,0,0,-1,1063,561,0,0
-154,463,0,0,0,0,0,0,0,0,0,-1,1070,561,0,0
-147,463,0,0,0,0,0,0,0,0,0,-1,1077,561,0,0
-140,463,0,0,0,0,0,0,0,0,0,-1,1084,561,0,0
-133,463,0,0,0,0,0,0,0,0,0,-1,1091,561,0,0
-126,463,0,0,0,0,0,0,0,0,0,-1,1098,561,0,0
-119,463,0,0,0,0,0,0,0,0,0,-1,1105,561,0,0
-112,463,0,0,0,0,0,0,0,0,0,-1,1112,561,0,0
-105,463,0,0,0,0,0,0,0,0,0,-1,1119,561,0,0
-98,463,0,0,0,0,0,0,0,0,0,-1,1126,561,0,0
-91,463,0,0,0,0,0,0,0,0,0,-1,1133,561,0,0
-84,463,0,0,0,0,0,0,0,0,0,-1,1140,561,0,0
-77,463,0,0,0,0,0,0,0,0,0,-1,1147,561,0,0
-70,463,0,0,0,0,0,0,0,0,0,-1,1154,561,0,0
-63,463,0,0,0,0,0,0,0,0,0,-1,1161,561,0,0
-56,463,0,0,0,0,0,0,0,0,0,-1,1168,561,0,0
-49,463,0,0,0,0,0,0,0,0,0,-1,1175,561,0,0
-42,463,0,0,0,0,0,0,0,0,0,-1,1182,561,0,0
-35,463,0,0,0,0,0,0,0,0,0,-1,1189,561,0,0
-28,463,0,0,0,0,0,0,0,0,0,-1,1196,561,0,0
-21,463,0,0,0,0,0,0,0,0,0,-1,1203,561,0,0
-14,463,0,0,0,0,0,0,0,0,0,-1,1210,561,0,0
-7,463,0,0,0,0,0,0,0,0,0,-1,1217,561,0,0
0,463,0,0,0,0,0,0,0,0,0,-1,1224,561,0,0
7,463,0,0,0,0,0,0,0,0,0,-1,1231,561,0,0
14,463,0,0,0,0,0,0,0,0,0,-1,1238,561,0,0
21,463,0,0,0,0,0,0,0,0,0,-1,1245,561,0,0
28,463,0,0,0,0,0,0,0,0,0,-1,1252,561,0,0
35,463,0,0,0,0,0,0,0,0,0,-1,1259,561,0,0
42,463,0,0,0,0,0,0,0,0,0,-1,1266,561,0,0
49,463,0,0,0,0,0,0,0,0,0,-1,1273,561,0,0
56,463,0,0,0,0,0,0,0,0,0,-1,1280,561,0,0
63,463,0,0,0,0,0,0,0,0,0,-1,1287,561,0,0
70,463,0,0,0,0,0,0,0,0,0,-1,1294,561,0,0
77,463,0,0,0,0,0,0,0,0,0,-1,1301,561,0,0
84,463,0,0,0,0,0,0,0,0,0,-1,1308,561,0,0
91,463,0,0,0,0,0,0,0,0,0,-1,1315,561,0,0
98,463,0,0,0,0,0,0,0,0,0,-1,1322,561,0,0
105,463,0,0,0,0,0,0,0,0,0,-1,1329,561,0,0
112,463,0,0,0,0,0,0,0,0,0,-1,1336,561,0,0
119,463,0,0,0,0,0,0,0,0,0,-1,1343,561,0,0
126,463,0,0,0,0,0,0,0,0,0,-1,1350,561,0,0
133,463,0,0,0,0,0,0,0,0,0,-1,1357,561,0,0
140,463,0,0,0,0,0,0,0,0,0,-1,1364,561,0,0
147,463,0,0,0,0,0,0,0,0,0,-1,1371,561,0,0
154,463,0,0,0,0,0,0,0,0,0,-1,1378,561,0,0
161,463,0,0,0,0,0,0,0,0,0,-1,1385,561,0,0
168,463,0,0,0,0,0,0,0,0,0,-1,1392,561,0,0
175,463,0,0,0,0,0,0,0,0,0,-1,1399,561,0,0
182,463,0,0,0,0,0,0,0,0,0,-1,1406,561,0,0
189,463,0,0,0,0,0,0,0,0,0,-1,1413,561,0,0
196,463,0,0,0,0,0,0,0,0,0,-1,1420,561,0,0
203,463,0,0,0,0,0,0,0,0,0,-1,1427,561,0,0
210,463,0,0,0,0,0,0,0,0,0,-1,1434,561,0,0
217,463,0,0,0,0,0,0,0,0,0,-1,1441,561,0,0
224,463,0,0,0,0,0,0,0,0,0,-1,1448,561,0,0
231,463,0,0,0,0,0,0,0,0,0,-1,1455,561,0,0
238,463,0,0,0,0,0,0,0,0,0,-1,1462,561,0,0
245,463,0,0,0,0,0,0,0,0,0,-1,1469,561,0,0
252,463,0,0,0,0,0,0,0,0,0,-1,1476,561,0,0
259,463,0,0,0,0,0,0,0,0,0,-1,1483,561,0,0
266,463,0,0,0,0,0,0,0,0,0,-1,1490,561,0,0
273,463,0,0,0,0,0,0,0,0,0,-1,1497,561,0,0
280,463,0,0,0,0,0,0,0,0,0,-1,1504,561,0,0
287,463,0,0,0,0,0,0,0,0,0,-1,1511,561,0,0
294,463,0,0,0,0,0,0,0,0,0,-1,1518,561,0,0
301,463,0,0,0,0,0,0,0,0,0,-1,1525,561,0,0
308,463,0,0,0,0,0,0,0,0,0,-1,1532,561,0,0
315,463,0,0,0,0,0,0,0,0,0,-1,1539,561,0,0
322,463,0,0,0,0,0,0,0,0,0,-1,1546,561,0,0
329,463,0,0,0,0,0,0,0,0,0,-1,1553,561,0,0
336,463,0,0,0,0,0,0,0,0,0,-1,1560,561,0,0
343,463,0,0,0,0,0,0,0,0,0,-1,1567,561,0,0
350,463,0,0,0,0,0,0,0,0,0,-1,1574,561,0,0
357,463,0,0,0,0,0,0,0,0,0,-1,1581,561,0,0
364,463,0,0,0,0,0,0,0,0,0,-1,1588,561,0,0
371,463,1.75842,0.152588,0,0,0,0,0,0,0,-1,1595,561,1.75844,-0.152558
378,463,4.58813,-0.0444336,0,0,0,0,0,0,0,-1,1602,561,4.58809,0.0444505
385,463,8.88574,1.65057,0,0,0,0,0,0,0,-1,1609,561,8.88575,-1.65055
392,463,14.0912,2.50513,0,0,0,0,0,0,0,-1,1616,561,14.0912,-2.5051
399,463,21.4769,2.7002,0,0,0,0,0,0,0,-1,1623,561,21.477,-2.70017
406,463,26.2987,4.32318,0,0,0,0,0,0,0,-1,1630,561,26.2987,-4.3232
413,463,26.5011,2.65222,0,0,0,0,0,0,0,-1,1637,561,26.5011,-2.65224
420,463,8.849,2.26611,0,0,0,0,0,0,0,-1,1644,561,8.84899,-2.26613
427,463,5.12207,1.69183,0,0,0,0,0,0,0,-1,1651,561,5.12206,-1.69184
434,463,4.59814,1.81995,0,0,0,0,0,0,0,-1,1658,561,4.59812,-1.81994
441,463,1.76392,-5.99225,0,0,0,0,0,0,0,-1,1665,561,1.7639,5.99225
448,463,2.49939,-4.30536,0,0,0,0,0,0,0,-1,1672,561,2.49941,4.30536
455,463,4.40295,-3.02557,0,0,0,0,0,0,0,-1,1679,561,4.40299,3.02558
462,463,5.38293,-4.06445,0,0,0,0,0,0,0,-1,1686,561,5.38289,4.06444
469,463,5.94373,-4.50647,0,0,0,0,0,0,0,-1,1693,561,5.94368,4.50646
476,463,15.2559,-17.3189,0,0,0,0,0,0,0,-1,1700,561,15.2558,17.3189
483,463,21.3456,-24.2841,0,0,0,0,0,0,0,-1,1707,561,21.3456,24.2841
490,463,21.3405,-23.5329,0.00202604,0.0014601,0.000523515,0.00233817,0.00114797,0.53763,0.00135001,0.0302973,1714,561,21.3404,23.5329
497,463,21.2618,-22.6769,0.00195169,0.00176664,0.000902427,0.00276632,0.000952005,0.734313,0.00162279,0.0151491,1721,561,21.2618,22.6769
504,463,21.2412,-21.9024,0.0017776,0.00157516,0.000992706,0.00267423,0.000678523,0.734592,0.00160518,0.017865,1728,561,21.2412,21.9024
511,463,21.1647,-21.1682,0.00155545,0.00141472,0.00101174,0.00249926,0.000470897,0.75068,0.0015335,0.0240514,1735,561,21.1647,21.1682
518,463,21.1346,-20.3991,0.00125441,0.00130547,0.00102502,0.00230527,0.000254599,0.797849,0.0014594,0.0248428,1742,561,21.1346,20.3991
525,463,21.1295,-19.6356,0.00089786,0.00131565,0.00101086,0.00213897,7.45378e-05,0.887289,0.00140179,0.0198523,1749,561,21.1295,19.6356
532,463,21.1281,-18.8301,0.00049937,0.00146423,0.00101022,0.0021013,-0.0001377,1.00816,0.00144895,0.0171764,1756,561,21.1281,18.8301
539,463,21.0488,-18.0191,9.21522e-05,0.00170534,0.00102936,0.00220649,-0.00040899,1.11773,0.00162457,0.0185684,1763,561,21.0488,18.0191
546,463,21.0078,-17.2667,-0.000325801,0.00221188,0.0011114,0.0026298,-0.000743725,1.21112,0.00204666,0.0145717,1770,561,21.0078,17.2666
553,463,21.0046,-16.444,-0.000712245,0.0028941,0.00128489,0.00330506,-0.0011232,1.26124,0.00265809,0.0111414,1777,561,21.0046,16.4439
560,463,21.0144,-15.5179,-0.00100652,0.00380692,0.00158189,0.00428025,-0.00147985,1.28006,0.00345412,0.0242527,1784,561,21.0144,15.518
567,463,20.8339,-14.7295,-0.00126222,0.00491492,0.00196181,0.00548531,-0.00183261,1.28785,0.00439694,0.0371485,1791,561,20.8338,14.7295
574,463,20.9283,-13.9278,0,0,0,0,0,0,0,-1,1798,561,20.9283,13.9278
581,463,9.4939,-3.88245,0,0,0,0,0,0,0,-1,1805,561,9.49392,3.88245
588,463,1.97424,2.16016,0,0,0,0,0,0,0,-1,1812,561,1.97422,-2.16013
595,463,9.98657,2.99854,0,0,0,0,0,0,0,-1,1819,561,9.98662,-2.99856
602,463,17.2202,4.91302,0,0,0,0,0,0,0,-1,1826,561,17.2202,-4.91305
609,463,17.96,4.03131,0,0,0,0,0,0,0,-1,1833,561,17.96,-4.03132
616,463,20.8352,3.15131,0,0,0,0,0,0,0,-1,1840,561,20.8352,-3.1513
623,463,0,0,0,0,0,0,0,0,0,-1,1847,561,0,0
630,463,0,0,0,0,0,0,0,0,0,-1,1854,561,0,0
637,463,0,0,0,0,0,0,0,0,0,-1,1861,561,0,0
644,463,0,0,0,0,0,0,0,0,0,-1,1868,561,0,0
651,463,0,0,0,0,0,0,0,0,0,-1,1875,561,0,0
658,463,0,0,0,0,0,0,0,0,0,-1,1882,561,0,0
665,463,0,0,0,0,0,0,0,0,0,-1,1889,561,0,0
672,463,0,0,0,0,0,0,0,0,0,-1,1896,561,0,0
679,463,0,0,0,0,0,0,0,0,0,-1,1903,561,0,0
686,463,0,0,0,0,0,0,0,0,0,-1,1910,561,0,0
693,463,0,0,0,0,0,0,0,0,0,-1,1917,561,0,0
700,463,0,0,0,0,0,0,0,0,0,-1,1924,561,0,0
707,463,0,0,0,0,0,0,0,0,0,-1,1931,561,0,0
714,463,0,0,0,0,0,0,0,0,0,-1,1938,561,0,0
721,463,0,0,0,0,0,0,0,0,0,-1,1945,561,0,0
728,463,0,0,0,0,0,0,0,0,0,-1,1952,561,0,0
735,463,0,0,0,0,0,0,0,0,0,-1,1959,561,0,0
742,463,0,0,0,0,0,0,0,0,0,-1,1966,561,0,0
749,463,0,0,0,0,0,0,0,0,0,-1,1973,561,0,0
756,463,0,0,0,0,0,0,0,0,0,-1,1980,561,0,0
763,463,0,0,0,0,0,0,0,0,0,-1,1987,561,0,0
770,463,0,0,0,0,0,0,0,0,0,-1,1994,561,0,0
777,463,0,0,0,0,0,0,0,0,0,-1,2001,561,0,0
784,463,0,0,0,0,0,0,0,0,0,-1,2008,561,0,0
791,463,0,0,0,0,0,0,0,0,0,-1,2015,561,0,0
798,463,0,0,0,0,0,0,0,0,0,-1,2022,561,0,0
805,463,0,0,0,0,0,0,0,0,0,-1,2029,561,0,0
812,463,0,0,0,0,0,0,0,0,0,-1,2036,561,0,0
-700,456,0,0,0,0,0,0,0,0,0,-1,524,568,0,0
-693,456,0,0,0,0,0,0,0,0,0,-1,531,568,0,0
-686,456,0,0,0,0,0,0,0,0,0,-1,538,568,0,0
-679,456,0,0,0,0,0,0,0,0,0,-1,545,568,0,0
-672,456,0,0,0,0,0,0,0,0,0,-1,552,568,0,0
-665,456,0,0,0,0,0,0,0,0,0,-1,559,568,0,0
-658,456,0,0,0,0,0,0,0,0,0,-1,566,568,0,0
-651,456,0,0,0,0,0,0,0,0,0,-1,573,568,0,0
-644,456,0,0,0,0,0,0,0,0,0,-1,580,568,0,0
-637,456,0,0,0,0,0,0,0,0,0,-1,587,568,0,0
-630,456,0,0,0,0,0,0,0,0,0,-1,594,568,0,0
-623,456,0,0,0,0,0,0,0,0,0,-1,601,568,0,0
-616,456,0,0,0,0,0,0,0,0,0,-1,608,568,0,0
-609,456,0,0,0,0,0,0,0,0,0,-1,615,568,0,0
-602,456,0,0,0,0,0,0,0,0,0,-1,622,568,0,0
-595,456,0,0,0,0,0,0,0,0,0,-1,629,568,0,0
-588,456,0,0,0,0,0,0,0,0,0,-1,636,568,0,0
-581,456,0,0,0,0,0,0,0,0,0,-1,643,568,0,0
-574,456,0,0,0,0,0,0,0,0,0,-1,650,568,0,0
-567,456,0,0,0,0,0,0,0,0,0,-1,657,568,0,0
-560,456,0,0,0,0,0,0,0,0,0,-1,664,568,0,0
-553,456,0,0,0,0,0,0,0,0,0,-1,671,568,0,0
-546,456,0,0,0,0,0,0,0,0,0,-1,678,568,0,0
-539,456,0,0,0,0,0,0,0,0,0,-1,685,568,0,0
-532,456,0,0,0,0,0,0,0,0,0,-1,692,568,0,0
-525,456,0,0,0,0,0,0,0,0,0,-1,699,568,0,0
-518,456,0,0,0,0,0,0,0,0,0,-1,706,568,0,0
-511,456,0,0,0,0,0,0,0,0,0,-1,713,568,0,0
-504,456,-10.3994,-2.34839,0,0,0,0,0,0,0,-1,720,568,-10.3994,2.3484
-497,456,-9.21375,-2.38068,0,0,0,0,0,0,0,-1,727,568,-9.21372,2.38069
-490,456,-8.09058,-2.31824,0,0,0,0,0,0,0,-1,734,568,-8.09057,2.31821
-483,456,-6.66119,-2.24329,0,0,0,0,0,0,0,-1,741,568,-6.66121,2.24331
-476,456,-5.1499,-2.21185,0,0,0,0,0,0,0,-1,748,568,-5.14992,2.21184
-469,456,-2.81238,-3.51501,0,0,0,0,0,0,0,-1,755,568,-2.81237,3.51501
-462,456,-4.2431,-5.27478,0,0,0,0,0,0,0,-1,762,568,-4.24312,5.27476
-455,456,-5.98364,-8.72119,0,0,0,0,0,0,0,-1,769,568,-5.98364,8.72122
-448,456,-7.57098,-14.4126,0,0,0,0,0,0,0,-1,776,568,-7.571,14.4126
-441,456,-8.11438,-15.7755,0,0,0,0,0,0,0,-1,783,568,-8.11439,15.7755
-434,456,-8.03766,-16.6602,-0.000205357,0.00735998,-0.00298949,0.00839869,-0.00124406,-1.23639,0.00605655,0.0191607,790,568,-8.03766,16.6601
-427,456,-8.06512,-17.4368,1.09924e-06,0.00590711,-0.00241732,0.00677034,-0.000862131,-1.22781,0.00482667,0.00926832,797,568,-8.06515,17.4368
-420,456,-8.10547,-18.2064,0.000276502,0.00473868,-0.00205994,0.00554422,-0.000529036,-1.19803,0.00388452,0.00968414,804,568,-8.10549,18.2064
-413,456,-8.151,-18.9749,0.000434282,0.00334106,-0.00153042,0.00399825,-0.000222903,-1.16519,0.00274282,0.00910638,811,568,-8.15102,18.9749
-406,456,-8.21307,-19.7219,0.000720915,0.00252795,-0.00122634,0.00314767,0.000101197,-1.10289,0.00206554,0.00967385,818,568,-8.21308,19.7219
-399,456,-8.23102,-20.4677,0.00112717,0.00169166,-0.000973293,0.00242281,0.000396022,-0.926524,0.00150072,0.0118345,825,568,-8.23103,20.4677
-392,456,-8.24207,-21.2206,0.00153321,0.000852132,-0.000727955,0.00199634,0.000389002,-0.566619,0.00122204,0.0112815,832,568,-8.24206,21.2206
-385,456,-8.2746,-21.984,0.00201719,6.91784e-05,-0.00050149,0.00213871,-5.23427e-05,-0.237738,0.00144357,0.0105491,839,568,-8.27463,21.984
-378,456,-8.33081,-22.7623,0.00255009,-0.000695671,-0.000203304,0.00256277,-0.000708356,-0.0623123,0.00198717,0.0109703,846,568,-8.33082,22.7623
-371,456,-8.37024,-23.4962,0.00315698,-0.00133335,7.86494e-05,0.00315835,-0.00133473,0.0175081,0.00266435,0.0121703,853,568,-8.37022,23.4962
-364,456,-8.3866,-24.1875,0.00383649,-0.00172901,0.000243669,0.00384714,-0.00173966,0.0436706,0.00330115,0.0254852,860,568,-8.38657,24.1875
-357,456,-8.34039,-24.9401,0,0,0,0,0,0,0,-1,867,568,-8.34039,24.9401
-350,456,-8.21759,-25.9155,0,0,0,0,0,0,0,-1,874,568,-8.21761,25.9155
-343,456,-3.39081,-12.0217,0,0,0,0,0,0,0,-1,881,568,-3.39078,12.0217
-336,456,-3.04517,-12.4623,0,0,0,0,0,0,0,-1,888,568,-3.04519,12.4624
-329,456,-1.06183,-10.7184,0,0,0,0,0,0,0,-1,895,568,-1.06184,10.7184
-322,456,-0.662537,-7.66632,0,0,0,0,0,0,0,-1,902,568,-0.662564,7.66633
-315,456,-0.675476,-3.38397,0,0,0,0,0,0,0,-1,909,568,-0.675473,3.38399
-308,456,-1.1618,-3.15314,0,0,0,0,0,0,0,-1,916,568,-1.16178,3.15314
-301,456,-1.83551,-3.26447,0,0,0,0,0,0,0,-1,923,568,-1.8355,3.26449
-294,456,-2.93414,-3.35449,0,0,0,0,0,0,0,-1,930,568,-2.93413,3.35451
-287,456,-3.7569,-3.53101,0,0,0,0,0,0,0,-1,937,568,-3.75692,3.53101
-280,456,-13.072,4.52856,0,0,0,0,0,0,0,-1,944,568,-13.072,-4.52855
-273,456,-8.26538,-6.66748,0,0,0,0,0,0,0,-1,951,568,-8.26536,6.66745
-266,456,-5.71527,-9.36884,0,0,0,0,0,0,0,-1,958,568,-5.71529,9.36885
-259,456,0,0,0,0,0,0,0,0,0,-1,965,568,0,0
-252,456,0,0,0,0,0,0,0,0,0,-1,972,568,0,0
-245,456,0,0,0,0,0,0,0,0,0,-1,979,568,0,0
-238,456,0,0,0,0,0,0,0,0,0,-1,986,568,0,0
-231,456,0,0,0,0,0,0,0,0,0,-1,993,568,0,0
-224,456,0,0,0,0,0,0,0,0,0,-1,1000,568,0,0
-217,456,0,0,0,0,0,0,0,0,0,-1,1007,568,0,0
-210,456,0,0,0,0,0,0,0,0,0,-1,1014,568,0,0
-203,456,0,0,0,0,0,0,0,0,0,-1,1021,568,0,0
-196,456,0,0,0,0,0,0,0,0,0,-1,1028,568,0,0
-189,456,0,0,0,0,0,0,0,0,0,-1,1035,568,0,0
-182,456,0,0,0,0,0,0,0,0,0,-1,1042,568,0,0
-175,456,0,0,0,0,0,0,0,0,0,-1,1049,568,0,0
-168,456,0,0,0,0,0,0,0,0,0,-1,1056,568,0,0
-161,456,0,0,0,0,0,0,0,0,0,-1,1063,568,0,0
-154,456,0,0,0,0,0,0,0,0,0,-1,1070,568,0,0
-147,456,0,0,0,0,0,0,0,0,0,-1,1077,568,0,0
-140,456,0,0,0,0,0,0,0,0,0,-1,1084,568,0,0
-133,456,0,0,0,0,0,0,0,0,0,-1,1091,568,0,0
-126,456,0,0,0,0,0,0,0,0,0,-1,1098,568,0,0
-119,456,0,0,0,0,0,0,0,0,0,-1,1105,568,0,0
-112,456,0,0,0,0,0,0,0,0,0,-1,1112,568,0,0
-105,456,0,0,0,0,0,0,0,0,0,-1,1119,568,0,0
-98,456,0,0,0,0,0,0,0,0,0,-1,1126,568,0,0
-91,456,0,0,0,0,0,0,0,0,0,-1,1133,568,0,0
-84,456,0,0,0,0,0,0,0,0,0,-1,1140,568,0,0
-77,456,0,0,0,0,0,0,0,0,0,-1,1147,568,0,0
-70,456,0,0,0,0,0,0,0,0,0,-1,1154,568,0,0
-63,456,0,0,0,0,0,0,0,0,0,-1,1161,568,0,0
-56,456,0,0,0,0,0,0,0,0,0,-1,1168,568,0,0
-49,456,0,0,0,0,0,0,0,0,0,-1,1175,568,0,0
-42,456,0,0,0,0,0,0,0,0,0,-1,1182,568,0,0
-35,456,0,0,0,0,0,0,0,0,0,-1,1189,568,0,0
-28,456,0,0,0,0,0,0,0,0,0,-1,1196,568,0,0
-21,456,0,0,0,0,0,0,0,0,0,-1,1203,568,0,0
-14,456,0,0,0,0,0,0,0,0,0,-1,1210,568,0,0
-7,456,0,0,0,0,0,0,0,0,0,-1,1217,568,0,0
0,456,0,0,0,0,0,0,0,0,0,-1,1224,568,0,0
7,456,0,0,0,0,0,0,0,0,0,-1,1231,568,0,0
14,456,0,0,0,0,0,0,0,0,0,-1,1238,568,0,0
21,456,0,0,0,0,0,0,0,0,0,-1,1245,568,0,0
28,456,0,0,0,0,0,0,0,0,0,-1,1252,568,0,0
35,456,0,0,0,0,0,0,0,0,0,-1,1259,568,0,0
42,456,0,0,0,0,0,0,0,0,0,-1,1266,568,0,0
49,456,0,0,0,0,0,0,0,0,0,-1,1273,568,0,0
56,456,0,0,0,0,0,0,0,0,0,-1,1280,568,0,0
63,456,0,0,0,0,0,0,0,0,0,-1,1287,568,0,0
70,456,0,0,0,0,0,0,0,0,0,-1,1294,568,0,0
77,456,0,0,0,0,0,0,0,0,0,-1,1301,568,0,0
84,456,0,0,0,0,0,0,0,0,0,-1,1308,568,0,0
91,456,0,0,0,0,0,0,0,0,0,-1,1315,568,0,0
98,456,0,0,0,0,0,0,0,0,0,-1,1322,568,0,0
105,456,0,0,0,0,0,0,0,0,0,-1,1329,568,0,0
112,456,0,0,0,0,0,0,0,0,0,-1,1336,568,0,0
119,456,0,0,0,0,0,0,0,0,0,-1,1343,568,0,0
126,456,0,0,0,0,0,0,0,0,0,-1,1350,568,0,0
133,456,0,0,0,0,0,0,0,0,0,-1,1357,568,0,0
140,456,0,0,0,0,0,0,0,0,0,-1,1364,568,0,0
147,456,0,0,0,0,0,0,0,0,0,-1,1371,568,0,0
154,456,0,0,0,0,0,0,0,0,0,-1,1378,568,0,0
161,456,0,0,0,0,0,0,0,0,0,-1,1385,568,0,0
168,456,0,0,0,0,0,0,0,0,0,-1,1392,568,0,0
175,456,0,0,0,0,0,0,0,0,0,-1,1399,568,0,0
182,456,0,0,0,0,0,0,0,0,0,-1,1406,568,0,0
189,456,0,0,0,0,0,0,0,0,0,-1,1413,568,0,0
196,456,0,0,0,0,0,0,0,0,0,-1,1420,568,0,0
203,456,0,0,0,0,0,0,0,0,0,-1,1427,568,0,0
210,456,0,0,0,0,0,0,0,0,0,-1,1434,568,0,0
217,456,0,0,0,0,0,0,0,0,0,-1,1441,568,0,0
224,456,0,0,0,0,0,0,0,0,0,-1,1448,568,0,0
231,456,0,0,0,0,0,0,0,0,0,-1,1455,568,0,0
238,456,0,0,0,0,0,0,0,0,0,-1,1462,568,0,0
245,456,0,0,0,0,0,0,0,0,0,-1,1469,568,0,0
252,456,0,0,0,0,0,0,0,0,0,-1,1476,568,0,0
259,456,0,0,0,0,0,0,0,0,0,-1,1483,568,0,0
266,456,0,0,0,0,0,0,0,0,0,-1,1490,568,0,0
273,456,0,0,0,0,0,0,0,0,0,-1,1497,568,0,0
280,456,0,0,0,0,0,0,0,0,0,-1,1504,568,0,0
287,456,0,0,0,0,0,0,0,0,0,-1,1511,568,0,0
294,456,0,0,0,0,0,0,0,0,0,-1,1518,568,0,0
301,456,0,0,0,0,0,0,0,0,0,-1,1525,568,0,0
308,456,0,0,0,0,0,0,0,0,0,-1,1532,568,0,0
315,456,0,0,0,0,0,0,0,0,0,-1,1539,568,0,0
322,456,0,0,0,0,0,0,0,0,0,-1,1546,568,0,0
329,456,0,0,0,0,0,0,0,0,0,-1,1553,568,0,0
336,456,0,0,0,0,0,0,0,0,0,-1,1560,568,0,0
343,456,0,0,0,0,0,0,0,0,0,-1,1567,568,0,0
350,456,0,0,0,0,0,0,0,0,0,-1,1574,568,0,0
357,456,0,0,0,0,0,0,0,0,0,-1,1581,568,0,0
364,456,0,0,0,0,0,0,0,0,0,-1,1588,568,0,0
371,456,0,0,0,0,0,0,0,0,0,-1,1595,568,0,0
378,456,0,0,0,0,0,0,0,0,0,-1,1602,568,0,0
385,456,5.66284,0.660645,0,0,0,0,0,0,0,-1,1609,568,5.66285,-0.660615
392,456,17.5027,4.32971,0,0,0,0,0,0,0,-1,1616,568,17.5026,-4.32971
399,456,24.1917,5.99652,0,0,0,0,0,0,0,-1,1623,568,24.1916,-5.99651
406,456,24.446,4.53003,0,0,0,0,0,0,0,-1,1630,568,24.446,-4.53005
413,456,24.9418,2.90521,0,0,0,0,0,0,0,-1,1637,568,24.9418,-2.90524
420,456,25.3048,1.04712,0,0,0,0,0,0,0,-1,1644,568,25.3048,-1.04713
427,456,6.21375,2.02905,0,0,0,0,0,0,0,-1,1651,568,6.21372,-2.02904
434,456,3.0719,-4.86285,0,0,0,0,0,0,0,-1,1658,568,3.07184,4.86287
441,456,2.90344,-4.70459,0,0,0,0,0,0,0,-1,1665,568,2.90346,4.7046
448,456,3.06995,-4.93689,0,0,0,0,0,0,0,-1,1672,568,3.06991,4.93687
455,456,3.46582,-3.43701,0,0,0,0,0,0,0,-1,1679,568,3.46585,3.43698
462,456,4.68445,-4.45831,0,0,0,0,0,0,0,-1,1686,568,4.68439,4.45833
469,456,4.93201,-2.289,0,0,0,0,0,0,0,-1,1693,568,4.93197,2.28903
476,456,4.8363,-2.79364,0,0,0,0,0,0,0,-1,1700,568,4.83636,2.79363
483,456,12.8522,-13.692,0,0,0,0,0,0,0,-1,1707,568,12.8522,13.6919
490,456,21.9988,-23.8041,0,0,0,0,0,0,0,-1,1714,568,21.9988,23.8041
497,456,22.0056,-22.6622,0,0,0,0,0,0,0,-1,1721,568,22.0056,22.6622
504,456,21.963,-21.8784,0.00235673,0.00184843,0.00119557,0.00332487,0.000880302,0.680669,0.00198917,0.0164784,1728,568,21.963,21.8784
511,456,21.9794,-21.1291,0.00208107,0.00153479,0.00114055,0.00298073,0.000635126,0.66787,0.00181292,0.0151589,1735,568,21.9793,21.1291
518,456,21.9543,-20.3902,0.00176984,0.00129759,0.00111833,0.0026767,0.000390729,0.681355,0.00166954,0.0176697,1742,568,21.9544,20.3902
525,456,21.9093,-19.5992,0.00138317,0.00124058,0.00107597,0.0023902,0.000233544,0.752316,0.0015216,0.0169501,1749,568,21.9093,19.5992
532,456,21.8992,-18.7723,0.00097558,0.00132695,0.00105466,0.00222046,8.20749e-05,0.867931,0.00145372,0.0169576,1756,568,21.8991,18.7723
539,456,21.8494,-17.946,0.00059823,0.00152127,0.00107265,0.00222747,-0.000107978,0.988556,0.00152225,0.0232109,1763,568,21.8493,17.946
546,456,21.7551,-17.1539,0.000240972,0.0019376,0.00114567,0.00251484,-0.000336268,1.10408,0.00179915,0.0263482,1770,568,21.7551,17.1539
553,456,21.722,-16.3578,-9.02073e-05,0.0025207,0.00129875,0.0030567,-0.000626213,1.17938,0.00227545,0.0148362,1777,568,21.7221,16.3579
560,456,21.7294,-15.613,-0.000318727,0.00328902,0.00158953,0.00388943,-0.000919137,1.20964,0.00294749,0.0107059,1784,568,21.7294,15.613
567,456,21.688,-14.7827,-0.000413596,0.00428418,0.00203709,0.00504448,-0.00117389,1.21358,0.00381497,0.0214193,1791,568,21.688,14.7827
574,456,21.6399,-13.9926,0,0,0,0,0,0,0,-1,1798,568,21.6399,13.9925
581,456,16.2228,-9.08563,0,0,0,0,0,0,0,-1,1805,568,16.2228,9.08562
588,456,5.23901,-0.0901489,0,0,0,0,0,0,0,-1,1812,568,5.23906,0.0901656
595,456,6.90063,3.14886,0,0,0,0,0,0,0,-1,1819,568,6.90066,-3.14887
602,456,16.894,4.10938,0,0,0,0,0,0,0,-1,1826,568,16.8941,-4.1094
609,456,14.9966,3.5708,0,0,0,0,0,0,0,-1,1833,568,14.9966,-3.57083
616,456,17.7407,2.6579,0,0,0,0,0,0,0,-1,1840,568,17.7408,-2.6579
623,456,20.6838,1.7121,0,0,0,0,0,0,0,-1,1847,568,20.6838,-1.71208
630,456,0,0,0,0,0,0,0,0,0,-1,1854,568,0,0
637,456,0,0,0,0,0,0,0,0,0,-1,1861,568,0,0
644,456,0,0,0,0,0,0,0,0,0,-1,1868,568,0,0
651,456,0,0,0,0,0,0,0,0,0,-1,1875,568,0,0
658,456,0,0,0,0,0,0,0,0,0,-1,1882,568,0,0
665,456,0,0,0,0,0,0,0,0,0,-1,1889,568,0,0
672,456,0,0,0,0,0,0,0,0,0,-1,1896,568,0,0
679,456,0,0,0,0,0,0,0,0,0,-1,1903,568,0,0
686,456,0,0,0,0,0,0,0,0,0,-1,1910,568,0,0
693,456,0,0,0,0,0,0,0,0,0,-1,1917,568,0,0
700,456,0,0,0,0,0,0,0,0,0,-1,1924,568,0,0
707,456,0,0,0,0,0,0,0,0,0,-1,1931,568,0,0
714,456,0,0,0,0,0,0,0,0,0,-1,1938,568,0,0
721,456,0,0,0,0,0,0,0,0,0,-1,1945,568,0,0
728,456,0,0,0,0,0,0,0,0,0,-1,1952,568,0,0
735,456,0,0,0,0,0,0,0,0,0,-1,1959,568,0,0
742,456,0,0,0,0,0,0,0,0,0,-1,1966,568,0,0
749,456,0,0,0,0,0,0,0,0,0,-1,1973,568,0,0
756,456,0,0,0,0,0,0,0,0,0,-1,1980,568,0,0
763,456,0,0,0,0,0,0,0,0,0,-1,1987,568,0,0
770,456,0,0,0,0,0,0,0,0,0,-1,1994,568,0,0
777,456,0,0,0,0,0,0,0,0,0,-1,2001,568,0,0
784,456,0,0,0,0,0,0,0,0,0,-1,2008,568,0,0
791,456,0,0,0,0,0,0,0,0,0,-1,2015,568,0,0
798,456,0,0,0,0,0,0,0,0,0,-1,2022,568,0,0
805,456,0,0,0,0,0,0,0,0,0,-1,2029,568,0,0
812,456,0,0,0,0,0,0,0,0,0,-1,2036,568,0,0
-700,449,0,0,0,0,0,0,0,0,0,-1,524,575,0,0
-693,449,0,0,0,0,0,0,0,0,0,-1,531,575,0,0
-686,449,0,0,0,0,0,0,0,0,0,-1,538,575,0,0
-679,449,0,0,0,0,0,0,0,0,0,-1,545,575,0,0
-672,449,0,0,0,0,0,0,0,0,0,-1,552,575,0,0
-665,449,0,0,0,0,0,0,0,0,0,-1,559,575,0,0
-658,449,0,0,0,0,0,0,0,0,0,-1,566,575,0,0
-651,449,0,0,0,0,0,0,0,0,0,-1,573,575,0,0
-644,449,0,0,0,0,0,0,0,0,0,-1,580,575,0,0
-637,449,0,0,0,0,0,0,0,0,0,-1,587,575,0,0
-630,449,0,0,0,0,0,0,0,0,0,-1,594,575,0,0
-623,449,0,0,0,0,0,0,0,0,0,-1,601,575,0,0
-616,449,0,0,0,0,0,0,0,0,0,-1,608,575,0,0
-609,449,0,0,0,0,0,0,0,0,0,-1,615,575,0,0
-602,449,0,0,0,0,0,0,0,0,0,-1,622,575,0,0
-595,449,0,0,0,0,0,0,0,0,0,-1,629,575,0,0
-588,449,0,0,0,0,0,0,0,0,0,-1,636,575,0,0
-581,449,0,0,0,0,0,0,0,0,0,-1,643,575,0,0
-574,449,0,0,0,0,0,0,0,0,0,-1,650,575,0,0
-567,449,0,0,0,0,0,0,0,0,0,-1,657,575,0,0
-560,449,0,0,0,0,0,0,0,0,0,-1,664,575,0,0
-553,449,0,0,0,0,0,0,0,0,0,-1,671,575,0,0
-546,449,0,0,0,0,0,0,0,0,0,-1,678,575,0,0
-539,449,0,0,0,0,0,0,0,0,0,-1,685,575,0,0
-532,449,0,0,0,0,0,0,0,0,0,-1,692,575,0,0
-525,449,0,0,0,0,0,0,0,0,0,-1,699,575,0,0
-518,449,0,0,0,0,0,0,0,0,0,-1,706,575,0,0
-511,449,-0.941345,-4.4519,0,0,0,0,0,0,0,-1,713,575,-0.941356,4.45191
-504,449,-14.1078,0.318237,0,0,0,0,0,0,0,-1,720,575,-14.1078,-0.318231
-497,449,-8.61292,-3.09009,0,0,0,0,0,0,0,-1,727,575,-8.61291,3.09011
-490,449,-7.50995,-2.96252,0,0,0,0,0,0,0,-1,734,575,-7.50995,2.96251
-483,449,-5.77789,-2.50061,0,0,0,0,0,0,0,-1,741,575,-5.77792,2.50059
-476,449,-4.1723,-2.07739,0,0,0,0,0,0,0,-1,748,575,-4.17228,2.0774
-469,449,-5.0976,-5.78448,0,0,0,0,0,0,0,-1,755,575,-5.09758,5.78451
-462,449,-6.54181,-9.54535,0,0,0,0,0,0,0,-1,762,575,-6.54178,9.54536
-455,449,-8.67291,-13.2226,0,0,0,0,0,0,0,-1,769,575,-8.67289,13.2226
-448,449,-8.6618,-14.9512,0,0,0,0,0,0,0,-1,776,575,-8.66179,14.9512
-441,449,-8.70361,-15.9186,-0.000339883,0.00712255,-0.0030971,0.00824046,-0.00145779,-1.2244,0.00603851,0.0222281,783,575,-8.70361,15.9186
-434,449,-8.80774,-16.6422,-8.17922e-05,0.00557197,-0.00239393,0.00644943,-0.000959253,-1.21947,0.00465245,0.0131712,790,575,-8.80774,16.6422
-427,449,-8.84021,-17.3834,0.000211657,0.00438532,-0.00190068,0.00512116,-0.000524176,-1.20142,0.00360157,0.0132294,797,575,-8.84023,17.3834
-420,449,-8.87665,-18.1665,0.000574426,0.00346608,-0.00161325,0.00418658,-0.000146077,-1.15076,0.002841,0.0141617,804,575,-8.87663,18.1665
-413,449,-8.90753,-18.9317,0.000810383,0.00232919,-0.00116506,0.00296049,0.000179085,-1.07422,0.00191676,0.0110348,811,575,-8.90752,18.9317
-406,449,-8.96082,-19.6958,0.00116614,0.00171746,-0.000935676,0.00241724,0.000466362,-0.928651,0.00148072,0.0102688,818,575,-8.96084,19.6958
-399,449,-9.0011,-20.4467,0.0016473,0.00108401,-0.000776027,0.00219121,0.000540098,-0.611322,0.00131819,0.0100511,825,575,-9.00109,20.4467
-392,449,-9.00769,-21.1864,0.00211699,0.000425171,-0.000617353,0.00231831,0.000223852,-0.315227,0.00147659,0.0105231,832,575,-9.00768,21.1864
-385,449,-9.04071,-21.9378,0.00265655,-0.000221565,-0.000471649,0.00273187,-0.000296885,-0.158358,0.00192784,0.0111338,839,575,-9.04074,21.9378
-378,449,-9.09857,-22.6926,0.00327855,-0.000837647,-0.000264266,0.00329544,-0.000854544,-0.0638521,0.00253038,0.0103013,846,575,-9.09858,22.6926
-371,449,-9.08582,-23.4569,0.00401569,-0.00128614,-5.37652e-05,0.00401624,-0.00128668,-0.0101395,0.00319398,0.0204845,853,575,-9.08581,23.4569
-364,449,-9.09418,-24.2653,0,0,0,0,0,0,0,-1,860,575,-9.0942,24.2653
-357,449,-5.88049,-15.8704,0,0,0,0,0,0,0,-1,867,575,-5.88051,15.8704
-350,449,-2.8764,-9.90204,0,0,0,0,0,0,0,-1,874,575,-2.87638,9.90203
-343,449,-2.98492,-9.2254,0,0,0,0,0,0,0,-1,881,575,-2.98491,9.22541
-336,449,-1.29523,-9.54626,0,0,0,0,0,0,0,-1,888,575,-1.29525,9.54626
-329,449,-0.733398,-7.78937,0,0,0,0,0,0,0,-1,895,575,-0.733398,7.78937
-322,449,-0.628845,-3.16669,0,0,0,0,0,0,0,-1,902,575,-0.628861,3.16667
-315,449,-0.540344,-3.21918,0,0,0,0,0,0,0,-1,909,575,-0.540336,3.21917
-308,449,-1.04413,-2.99341,0,0,0,0,0,0,0,-1,916,575,-1.04415,2.99338
-301,449,-1.58691,-2.80725,0,0,0,0,0,0,0,-1,923,575,-1.58692,2.80728
-294,449,-3.71118,-2.76086,0,0,0,0,0,0,0,-1,930,575,-3.71119,2.76087
-287,449,-4.4082,-2.69525,0,0,0,0,0,0,0,-1,937,575,-4.40822,2.69526
-280,449,0.723999,-14.2697,0,0,0,0,0,0,0,-1,944,575,0.723977,14.2696
-273,449,0,0,0,0,0,0,0,0,0,-1,951,575,0,0
-266,449,0,0,0,0,0,0,0,0,0,-1,958,575,0,0
-259,449,0,0,0,0,0,0,0,0,0,-1,965,575,0,0
-252,449,0,0,0,0,0,0,0,0,0,-1,972,575,0,0
-245,449,0,0,0,0,0,0,0,0,0,-1,979,575,0,0
-238,449,0,0,0,0,0,0,0,0,0,-1,986,575,0,0
-231,449,0,0,0,0,0,0,0,0,0,-1,993,575,0,0
-224,449,0,0,0,0,0,0,0,0,0,-1,1000,575,0,0
-217,449,0,0,0,0,0,0,0,0,0,-1,1007,575,0,0
-210,449,0,0,0,0,0,0,0,0,0,-1,1014,575,0,0
-203,449,0,0,0,0,0,0,0,0,0,-1,1021,575,0,0
-196,449,0,0,0,0,0,0,0,0,0,-1,1028,575,0,0
-189,449,0,0,0,0,0,0,0,0,0,-1,1035,575,0,0
-182,449,0,0,0,0,0,0,0,0,0,-1,1042,575,0,0
-175,449,0,0,0,0,0,0,0,0,0,-1,1049,575,0,0
-168,449,0,0,0,0,0,0,0,0,0,-1,1056,575,0,0
-161,449,0,0,0,0,0,0,0,0,0,-1,1063,575,0,0
-154,449,0,0,0,0,0,0,0,0,0,-1,1070,575,0,0
-147,449,0,0,0,0,0,0,0,0,0,-1,1077,575,0,0
-140,449,0,0,0,0,0,0,0,0,0,-1,1084,575,0,0
-133,449,0,0,0,0,0,0,0,0,0,-1,1091,575,0,0
-126,449,0,0,0,0,0,0,0,0,0,-1,1098,575,0,0
-119,449,0,0,0,0,0,0,0,0,0,-1,1105,575,0,0
-112,449,0,0,0,0,0,0,0,0,0,-1,1112,575,0,0
-105,449,0,0,0,0,0,0,0,0,0,-1,1119,575,0,0
-98,449,0,0,0,0,0,0,0,0,0,-1,1126,575,0,0
-91,449,0,0,0,0,0,0,0,0,0,-1,1133,575,0,0
-84,449,0,0,0,0,0,0,0,0,0,-1,1140,575,0,0
-77,449,0,0,0,0,0,0,0,0,0,-1,1147,575,0,0
-70,449,0,0,0,0,0,0,0,0,0,-1,1154,575,0,0
-63,449,0,0,0,0,0,0,0,0,0,-1,1161,575,0,0
-56,449,0,0,0,0,0,0,0,0,0,-1,1168,575,0,0
-49,449,0,0,0,0,0,0,0,0,0,-1,1175,575,0,0
-42,449,0,0,0,0,0,0,0,0,0,-1,1182,575,0,0
-35,449,0,0,0,0,0,0,0,0,0,-1,1189,575,0,0
-28,449,0,0,0,0,0,0,0,0,0,-1,1196,575,0,0
-21,449,0,0,0,0,0,0,0,0,0,-1,1203,575,0,0
-14,449,0,0,0,0,0,0,0,0,0,-1,1210,575,0,0
-7,449,0,0,0,0,0,0,0,0,0,-1,1217,575,0,0
0,449,0,0,0,0,0,0,0,0,0,-1,1224,575,0,0
7,449,0,0,0,0,0,0,0,0,0,-1,1231,575,0,0
14,449,0,0,0,0,0,0,0,0,0,-1,1238,575,0,0
21,449,0,0,0,0,0,0,0,0,0,-1,1245,575,0,0
28,449,0,0,0,0,0,0,0,0,0,-1,1252,575,0,0
35,449,0,0,0,0,0,0,0,0,0,-1,1259,575,0,0
42,449,0,0,0,0,0,0,0,0,0,-1,1266,575,0,0
49,449,0,0,0,0,0,0,0,0,0,-1,1273,575,0,0
56,449,0,0,0,0,0,0,0,0,0,-1,1280,575,0,0
63,449,0,0,0,0,0,0,0,0,0,-1,1287,575,0,0
70,449,0,0,0,0,0,0,0,0,0,-1,1294,575,0,0
77,449,0,0,0,0,0,0,0,0,0,-1,1301,575,0,0
84,449,0,0,0,0,0,0,0,0,0,-1,1308,575,0,0
91,449,0,0,0,0,0,0,0,0,0,-1,1315,575,0,0
98,449,0,0,0,0,0,0,0,0,0,-1,1322,575,0,0
105,449,0,0,0,0,0,0,0,0,0,-1,1329,575,0,0
112,449,0,0,0,0,0,0,0,0,0,-1,1336,575,0,0
119,449,0,0,0,0,0,0,0,0,0,-1,1343,575,0,0
126,449,0,0,0,0,0,0,0,0,0,-1,1350,575,0,0
133,449,0,0,0,0,0,0,0,0,0,-1,1357,575,0,0
140,449,0,0,0,0,0,0,0,0,0,-1,1364,575,0,0
147,449,0,0,0,0,0,0,0,0,0,-1,1371,575,0,0
154,449,0,0,0,0,0,0,0,0,0,-1,1378,575,0,0
161,449,0,0,0,0,0,0,0,0,0,-1,1385,575,0,0
168,449,0,0,0,0,0,0,0,0,0,-1,1392,575,0,0
175,449,0,0,0,0,0,0,0,0,0,-1,1399,575,0,0
182,449,0,0,0,0,0,0,0,0,0,-1,1406,575,0,0
189,449,0,0,0,0,0,0,0,0,0,-1,1413,575,0,0
196,449,0,0,0,0,0,0,0,0,0,-1,1420,575,0,0
203,449,0,0,0,0,0,0,0,0,0,-1,1427,575,0,0
210,449,0,0,0,0,0,0,0,0,0,-1,1434,575,0,0
217,449,0,0,0,0,0,0,0,0,0,-1,1441,575,0,0
224,449,0,0,0,0,0,0,0,0,0,-1,1448,575,0,0
231,449,0,0,0,0,0,0,0,0,0,-1,1455,575,0,0
238,449,0,0,0,0,0,0,0,0,0,-1,1462,575,0,0
245,449,0,0,0,0,0,0,0,0,0,-1,1469,575,0,0
252,449,0,0,0,0,0,0,0,0,0,-1,1476,575,0,0
259,449,0,0,0,0,0,0,0,0,0,-1,1483,575,0,0
266,449,0,0,0,0,0,0,0,0,0,-1,1490,575,0,0
273,449,0,0,0,0,0,0,0,0,0,-1,1497,575,0,0
280,449,0,0,0,0,0,0,0,0,0,-1,1504,575,0,0
287,449,0,0,0,0,0,0,0,0,0,-1,1511,575,0,0
294,449,0,0,0,0,0,0,0,0,0,-1,1518,575,0,0
301,449,0,0,0,0,0,0,0,0,0,-1,1525,575,0,0
308,449,0,0,0,0,0,0,0,0,0,-1,1532,575,0,0
315,449,0,0,0,0,0,0,0,0,0,-1,1539,575,0,0
322,449,0,0,0,0,0,0,0,0,0,-1,1546,575,0,0
329,449,0,0,0,0,0,0,0,0,0,-1,1553,575,0,0
336,449,0,0,0,0,0,0,0,0,0,-1,1560,575,0,0
343,449,0,0,0,0,0,0,0,0,0,-1,1567,575,0,0
350,449,0,0,0,0,0,0,0,0,0,-1,1574,575,0,0
357,449,0,0,0,0,0,0,0,0,0,-1,1581,575,0,0
364,449,0,0,0,0,0,0,0,0,0,-1,1588,575,0,0
371,449,0,0,0,0,0,0,0,0,0,-1,1595,575,0,0
378,449,0,0,0,0,0,0,0,0,0,-1,1602,575,0,0
385,449,0,0,0,0,0,0,0,0,0,-1,1609,575,0,0
392,449,7.95471,3.66217,0,0,0,0,0,0,0,-1,1616,575,7.95471,-3.66218
399,449,19.9791,5.565,0,0,0,0,0,0,0,-1,1623,575,19.9791,-5.56499
406,449,24.9847,4.55969,0,0,0,0,0,0,0,-1,1630,575,24.9848,-4.55968
413,449,30.4159,3.15027,0,0,0,0,0,0,0,-1,1637,575,30.4159,-3.15028
420,449,23.9675,1.29718,0,0,0,0,0,0,0,-1,1644,575,23.9675,-1.29721
427,449,24.4276,-0.596558,0,0,0,0,0,0,0,-1,1651,575,24.4277,0.596569
434,449,25.61,-2.96594,0,0,0,0,0,0,0,-1,1658,575,25.61,2.96595
441,449,3.89856,-6.06458,0,0,0,0,0,0,0,-1,1665,575,3.89855,6.06459
448,449,4.03198,-5.18207,0,0,0,0,0,0,0,-1,1672,575,4.03197,5.18207
455,449,4.21948,-4.09467,0,0,0,0,0,0,0,-1,1679,575,4.21952,4.09465
462,449,4.23181,-2.96924,0,0,0,0,0,0,0,-1,1686,575,4.23185,2.96926
469,449,4.51672,-2.95135,0,0,0,0,0,0,0,-1,1693,575,4.51672,2.95135
476,449,4.71838,-1.86688,0,0,0,0,0,0,0,-1,1700,575,4.71842,1.86689
483,449,4.87878,-1.73126,0,0,0,0,0,0,0,-1,1707,575,4.87875,1.73128
490,449,5.73279,-2.74573,0,0,0,0,0,0,0,-1,1714,575,5.73282,2.74575
497,449,17.2095,-16.4381,0,0,0,0,0,0,0,-1,1721,575,17.2094,16.4381
504,449,22.7229,-21.8968,0,0,0,0,0,0,0,-1,1728,575,22.723,21.8968
511,449,22.7406,-21.0897,0.00280022,0.00179754,0.00138423,0.0037711,0.000826659,0.611657,0.00228883,0.0156427,1735,575,22.7406,21.0897
518,449,22.7426,-20.3235,0.0024707,0.00139608,0.00130928,0.00334863,0.000518146,0.590684,0.00208132,0.0138193,1742,575,22.7425,20.3235
525,449,22.6768,-19.5395,0.00202897,0.00125245,0.00121255,0.0029139,0.000367517,0.630457,0.00183242,0.013673,1749,575,22.6768,19.5395
532,449,22.6223,-18.7378,0.00158,0.00125342,0.00113912,0.00256747,0.000265947,0.714209,0.00163024,0.0116116,1756,575,22.6223,18.7378
539,449,22.5758,-17.9297,0.00118631,0.00138497,0.0011243,0.00241432,0.000156965,0.829457,0.00155986,0.0169975,1763,575,22.5758,17.9298
546,449,22.5366,-17.1002,0.000825297,0.00168801,0.00115336,0.00248804,2.52675e-05,0.964345,0.00165034,0.0303786,1770,575,22.5367,17.1001
553,449,22.4949,-16.3749,0.00047207,0.00215141,0.00125101,0.00281841,-0.000194932,1.08096,0.00194717,0.0200688,1777,575,22.4948,16.375
560,449,22.5093,-15.6148,0.000197627,0.00276042,0.00147807,0.00343521,-0.000477167,1.14252,0.00246464,0.0141547,1784,575,22.5092,15.6148
567,449,22.4384,-14.8082,7.01497e-05,0.00359594,0.00187312,0.00440528,-0.000739188,1.16294,0.00321173,0.0100941,1791,575,22.4383,14.8081
574,449,22.4196,-13.9694,-4.98555e-05,0.00455401,0.00234993,0.00554161,-0.00103746,1.17294,0.00408439,0.0241874,1798,575,22.4196,13.9693
581,449,22.4244,-13.0502,0,0,0,0,0,0,0,-1,1805,575,22.4244,13.0502
588,449,12.3274,-4.5672,0,0,0,0,0,0,0,-1,1812,575,12.3274,4.5672
595,449,15.9352,-5.65479,0,0,0,0,0,0,0,-1,1819,575,15.9352,5.65478
602,449,9.46167,4.17444,0,0,0,0,0,0,0,-1,1826,575,9.46164,-4.17442
609,449,12.2028,3.18652,0,0,0,0,0,0,0,-1,1833,575,12.2027,-3.18655
616,449,14.9438,2.19867,0,0,0,0,0,0,0,-1,1840,575,14.9438,-2.19867
623,449,9.83789,-0.0820313,0,0,0,0,0,0,0,-1,1847,575,9.83794,0.0820443
630,449,8.90686,4.99329,0,0,0,0,0,0,0,-1,1854,575,8.90685,-4.99327
637,449,0,0,0,0,0,0,0,0,0,-1,1861,575,0,0
644,449,0,0,0,0,0,0,0,0,0,-1,1868,575,0,0
651,449,0,0,0,0,0,0,0,0,0,-1,1875,575,0,0
658,449,0,0,0,0,0,0,0,0,0,-1,1882,575,0,0
665,449,0,0,0,0,0,0,0,0,0,-1,1889,575,0,0
672,449,0,0,0,0,0,0,0,0,0,-1,1896,575,0,0
679,449,0,0,0,0,0,0,0,0,0,-1,1903,575,0,0
686,449,0,0,0,0,0,0,0,0,0,-1,1910,575,0,0
693,449,0,0,0,0,0,0,0,0,0,-1,1917,575,0,0
700,449,0,0,0,0,0,0,0,0,0,-1,1924,575,0,0
707,449,0,0,0,0,0,0,0,0,0,-1,1931,575,0,0
714,449,0,0,0,0,0,0,0,0,0,-1,1938,575,0,0
721,449,0,0,0,0,0,0,0,0,0,-1,1945,575,0,0
728,449,0,0,0,0,0,0,0,0,0,-1,1952,575,0,0
735,449,0,0,0,0,0,0,0,0,0,-1,1959,575,0,0
742,449,0,0,0,0,0,0,0,0,0,-1,1966,575,0,0
749,449,0,0,0,0,0,0,0,0,0,-1,1973,575,0,0
756,449,0,0,0,0,0,0,0,0,0,-1,1980,575,0,0
763,449,0,0,0,0,0,0,0,0,0,-1,1987,575,0,0
770,449,0,0,0,0,0,0,0,0,0,-1,1994,575,0,0
777,449,0,0,0,0,0,0,0,0,0,-1,2001,575,0,0
784,449,0,0,0,0,0,0,0,0,0,-1,2008,575,0,0
791,449,0,0,0,0,0,0,0,0,0,-1,2015,575,0,0
798,449,0,0,0,0,0,0,0,0,0,-1,2022,575,0,0
805,449,0,0,0,0,0,0,0,0,0,-1,2029,575,0,0
812,449,0,0,0,0,0,0,0,0,0,-1,2036,575,0,0
-700,442,0,0,0,0,0,0,0,0,0,-1,524,582,0,0
-693,442,0,0,0,0,0,0,0,0,0,-1,531,582,0,0
-686,442,0,0,0,0,0,0,0,0,0,-1,538,582,0,0
-679,442,0,0,0,0,0,0,0,0,0,-1,545,582,0,0
-672,442,0,0,0,0,0,0,0,0,0,-1,552,582,0,0
-665,442,0,0,0,0,0,0,0,0,0,-1,559,582,0,0
-658,442,0,0,0,0,0,0,0,0,0,-1,566,582,0,0
-651,442,0,0,0,0,0,0,0,0,0,-1,573,582,0,0
-644,442,0,0,0,0,0,0,0,0,0,-1,580,582,0,0
-637,442,0,0,0,0,0,0,0,0,0,-1,587,582,0,0
-630,442,0,0,0,0,0,0,0,0,0,-1,594,582,0,0
-623,442,0,0,0,0,0,0,0,0,0,-1,601,582,0,0
-616,442,0,0,0,0,0,0,0,0,0,-1,608,582,0,0
-609,442,0,0,0,0,0,0,0,0,0,-1,615,582,0,0
-602,442,0,0,0,0,0,0,0,0,0,-1,622,582,0,0
-595,442,0,0,0,0,0,0,0,0,0,-1,629,582,0,0
-588,442,0,0,0,0,0,0,0,0,0,-1,636,582,0,0
-581,442,0,0,0,0,0,0,0,0,0,-1,643,582,0,0
-574,442,0,0,0,0,0,0,0,0,0,-1,650,582,0,0
-567,442,0,0,0,0,0,0,0,0,0,-1,657,582,0,0
-560,442,0,0,0,0,0,0,0,0,0,-1,664,582,0,0
-553,442,0,0,0,0,0,0,0,0,0,-1,671,582,0,0
-546,442,0,0,0,0,0,0,0,0,0,-1,678,582,0,0
-539,442,0,0,0,0,0,0,0,0,0,-1,685,582,0,0
-532,442,0,0,0,0,0,0,0,0,0,-1,692,582,0,0
-525,442,0,0,0,0,0,0,0,0,0,-1,699,582,0,0
-518,442,-0.493774,-5.72943,0,0,0,0,0,0,0,-1,706,582,-0.493791,5.72946
-511,442,-1.33008,-6.18512,0,0,0,0,0,0,0,-1,713,582,-1.33006,6.18511
-504,442,-3.20807,-6.34082,0,0,0,0,0,0,0,-1,720,582,-3.2081,6.34083
-497,442,-13.6886,-0.250122,0,0,0,0,0,0,0,-1,727,582,-13.6886,0.250143
-490,442,-9.09039,-3.64862,0,0,0,0,0,0,0,-1,734,582,-9.09037,3.64861
-483,442,-7.36499,-1.01892,0,0,0,0,0,0,0,-1,741,582,-7.365,1.01895
-476,442,-4.84784,-4.44141,0,0,0,0,0,0,0,-1,748,582,-4.84787,4.44138
-469,442,-9.38763,-11.363,0,0,0,0,0,0,0,-1,755,582,-9.38763,11.363
-462,442,-9.29144,-13.1525,0,0,0,0,0,0,0,-1,762,582,-9.29143,13.1525
-455,442,-9.46228,-14.1205,0,0,0,0,0,0,0,-1,769,582,-9.4623,14.1206
-448,442,-9.44299,-15.0067,-0.000427787,0.00714099,-0.00336243,0.00841896,-0.00170576,-1.20758,0.00625919,0.0204331,776,582,-9.44299,15.0066
-441,442,-9.50336,-15.8259,-0.000156474,0.00540826,-0.00251332,0.00637534,-0.00112355,-1.20348,0.00467001,0.0136977,783,582,-9.50338,15.8259
-434,442,-9.56116,-16.6086,0.000160933,0.00411865,-0.00192358,0.00489951,-0.000619924,-1.18518,0.00349137,0.0134986,790,582,-9.56118,16.6086
-427,442,-9.60876,-17.3515,0.000519794,0.00316349,-0.00152354,0.00385868,-0.000175397,-1.14272,0.00263287,0.0135213,797,582,-9.60874,17.3515
-420,442,-9.63574,-18.1389,0.000952311,0.00246594,-0.00131646,0.00322763,0.000190628,-1.04627,0.00209111,0.0143339,804,582,-9.63577,18.1388
-413,442,-9.65826,-18.9029,0.00127166,0.00161923,-0.00098423,0.0024449,0.000445994,-0.872782,0.00150349,0.0120668,811,582,-9.65829,18.9029
-406,442,-9.70996,-19.6718,0.00169408,0.00121148,-0.000848878,0.00233529,0.000570274,-0.646924,0.00140586,0.0102839,818,582,-9.70993,19.6718
-399,442,-9.76239,-20.4176,0.00223939,0.00079776,-0.000795227,0.00259187,0.00044528,-0.417221,0.00160027,0.00893757,825,582,-9.76237,20.4176
-392,442,-9.78741,-21.1397,0.00277455,0.000357129,-0.000735865,0.00298093,0.00015075,-0.273433,0.00193899,0.011386,832,582,-9.78738,21.1397
-385,442,-9.82123,-21.8864,0.0033695,-0.000120602,-0.000690066,0.00350099,-0.000252089,-0.188285,0.0024224,0.0139969,839,582,-9.82121,21.8864
-378,442,-9.82916,-22.6478,0.00409296,-0.000542141,-0.000607409,0.00417124,-0.000620418,-0.128163,0.00300903,0.018891,846,582,-9.82919,22.6478
-371,442,-9.77533,-23.5018,0,0,0,0,0,0,0,-1,853,582,-9.77533,23.5018
-364,442,-6.89764,-17.5333,0,0,0,0,0,0,0,-1,860,582,-6.89765,17.5333
-357,442,-4.9115,-11.2649,0,0,0,0,0,0,0,-1,867,582,-4.91147,11.2649
-350,442,-1.75372,-6.27618,0,0,0,0,0,0,0,-1,874,582,-1.75371,6.27618
-343,442,-1.4599,-4.63605,0,0,0,0,0,0,0,-1,881,582,-1.4599,4.63607
-336,442,-1.4054,-2.64313,0,0,0,0,0,0,0,-1,888,582,-1.40539,2.64315
-329,442,-0.952576,-2.76923,0,0,0,0,0,0,0,-1,895,582,-0.952571,2.7692
-322,442,-0.972534,-2.63208,0,0,0,0,0,0,0,-1,902,582,-0.972512,2.6321
-315,442,-0.445557,-2.89764,0,0,0,0,0,0,0,-1,909,582,-0.445582,2.89765
-308,442,-0.654175,-3.07831,0,0,0,0,0,0,0,-1,916,582,-0.654145,3.07832
-301,442,-1.37427,-2.41455,0,0,0,0,0,0,0,-1,923,582,-1.37425,2.41453
-294,442,-2.99963,-2.07855,0,0,0,0,0,0,0,-1,930,582,-2.99964,2.07857
-287,442,3.91034,-10.1913,0,0,0,0,0,0,0,-1,937,582,3.91034,10.1913
-280,442,0,0,0,0,0,0,0,0,0,-1,944,582,0,0
-273,442,0,0,0,0,0,0,0,0,0,-1,951,582,0,0
-266,442,0,0,0,0,0,0,0,0,0,-1,958,582,0,0
-259,442,0,0,0,0,0,0,0,0,0,-1,965,582,0,0
-252,442,0,0,0,0,0,0,0,0,0,-1,972,582,0,0
-245,442,0,0,0,0,0,0,0,0,0,-1,979,582,0,0
-238,442,0,0,0,0,0,0,0,0,0,-1,986,582,0,0
-231,442,0,0,0,0,0,0,0,0,0,-1,993,582,0,0
-224,442,0,0,0,0,0,0,0,0,0,-1,1000,582,0,0
-217,442,0,0,0,0,0,0,0,0,0,-1,1007,582,0,0
-210,442,0,0,0,0,0,0,0,0,0,-1,1014,582,0,0
-203,442,0,0,0,0,0,0,0,0,0,-1,1021,582,0,0
-196,442,0,0,0,0,0,0,0,0,0,-1,1028,582,0,0
-189,442,0,0,0,0,0,0,0,0,0,-1,1035,582,0,0
-182,442,0,0,0,0,0,0,0,0,0,-1,1042,582,0,0
-175,442,0,0,0,0,0,0,0,0,0,-1,1049,582,0,0
-168,442,0,0,0,0,0,0,0,0,0,-1,1056,582,0,0
-161,442,0,0,0,0,0,0,0,0,0,-1,1063,582,0,0
-154,442,0,0,0,0,0,0,0,0,0,-1,1070,582,0,0
-147,442,0,0,0,0,0,0,0,0,0,-1,1077,582,0,0
-140,442,0,0,0,0,0,0,0,0,0,-1,1084,582,0,0
-133,442,0,0,0,0,0,0,0,0,0,-1,1091,582,0,0
-126,442,0,0,0,0,0,0,0,0,0,-1,1098,582,0,0
-119,442,0,0,0,0,0,0,0,0,0,-1,1105,582,0,0
-112,442,0,0,0,0,0,0,0,0,0,-1,1112,582,0,0
-105,442,0,0,0,0,0,0,0,0,0,-1,1119,582,0,0
-98,442,0,0,0,0,0,0,0,0,0,-1,1126,582,0,0
-91,442,0,0,0,0,0,0,0,0,0,-1,1133,582,0,0
-84,442,0,0,0,0,0,0,0,0,0,-1,1140,582,0,0
-77,442,0,0,0,0,0,0,0,0,0,-1,1147,582,0,0
-70,442,0,0,0,0,0,0,0,0,0,-1,1154,582,0,0
-63,442,0,0,0,0,0,0,0,0,0,-1,1161,582,0,0
-56,442,0,0,0,0,0,0,0,0,0,-1,1168,582,0,0
-49,442,0,0,0,0,0,0,0,0,0,-1,1175,582,0,0
-42,442,0,0,0,0,0,0,0,0,0,-1,1182,582,0,0
-35,442,0,0,0,0,0,0,0,0,0,-1,1189,582,0,0
-28,442,0,0,0,0,0,0,0,0,0,-1,1196,582,0,0
-21,442,0,0,0,0,0,0,0,0,0,-1,1203,582,0,0
-14,442,0,0,0,0,0,0,0,0,0,-1,1210,582,0,0
-7,442,0,0,0,0,0,0,0,0,0,-1,1217,582,0,0
0,442,0,0,0,0,0,0,0,0,0,-1,1224,582,0,0
7,442,0,0,0,0,0,0,0,0,0,-1,1231,582,0,0
14,442,0,0,0,0,0,0,0,0,0,-1,1238,582,0,0
21,442,0,0,0,0,0,0,0,0,0,-1,1245,582,0,0
28,442,0,0,0,0,0,0,0,0,0,-1,1252,582,0,0
35,442,0,0,0,0,0,0,0,0,0,-1,1259,582,0,0
42,442,0,0,0,0,0,0,0,0,0,-1,1266,582,0,0
49,442,0,0,0,0,0,0,0,0,0,-1,1273,582,0,0
56,442,0,0,0,0,0,0,0,0,0,-1,1280,582,0,0
63,442,0,0,0,0,0,0,0,0,0,-1,1287,582,0,0
70,442,0,0,0,0,0,0,0,0,0,-1,1294,582,0,0
77,442,0,0,0,0,0,0,0,0,0,-1,1301,582,0,0
84,442,0,0,0,0,0,0,0,0,0,-1,1308,582,0,0
91,442,0,0,0,0,0,0,0,0,0,-1,1315,582,0,0
98,442,0,0,0,0,0,0,0,0,0,-1,1322,582,0,0
105,442,0,0,0,0,0,0,0,0,0,-1,1329,582,0,0
112,442,0,0,0,0,0,0,0,0,0,-1,1336,582,0,0
119,442,0,0,0,0,0,0,0,0,0,-1,1343,582,0,0
126,442,0,0,0,0,0,0,0,0,0,-1,1350,582,0,0
133,442,0,0,0,0,0,0,0,0,0,-1,1357,582,0,0
140,442,0,0,0,0,0,0,0,0,0,-1,1364,582,0,0
147,442,0,0,0,0,0,0,0,0,0,-1,1371,582,0,0
154,442,0,0,0,0,0,0,0,0,0,-1,1378,582,0,0
161,442,0,0,0,0,0,0,0,0,0,-1,1385,582,0,0
168,442,0,0,0,0,0,0,0,0,0,-1,1392,582,0,0
175,442,0,0,0,0,0,0,0,0,0,-1,1399,582,0,0
182,442,0,0,0,0,0,0,0,0,0,-1,1406,582,0,0
189,442,0,0,0,0,0,0,0,0,0,-1,1413,582,0,0
196,442,0,0,0,0,0,0,0,0,0,-1,1420,582,0,0
203,442,0,0,0,0,0,0,0,0,0,-1,1427,582,0,0
210,442,0,0,0,0,0,0,0,0,0,-1,1434,582,0,0
217,442,0,0,0,0,0,0,0,0,0,-1,1441,582,0,0
224,442,0,0,0,0,0,0,0,0,0,-1,1448,582,0,0
231,442,0,0,0,0,0,0,0,0,0,-1,1455,582,0,0
238,442,0,0,0,0,0,0,0,0,0,-1,1462,582,0,0
245,442,0,0,0,0,0,0,0,0,0,-1,1469,582,0,0
252,442,0,0,0,0,0,0,0,0,0,-1,1476,582,0,0
259,442,0,0,0,0,0,0,0,0,0,-1,1483,582,0,0
266,442,0,0,0,0,0,0,0,0,0,-1,1490,582,0,0
273,442,0,0,0,0,0,0,0,0,0,-1,1497,582,0,0
280,442,0,0,0,0,0,0,0,0,0,-1,1504,582,0,0
287,442,0,0,0,0,0,0,0,0,0,-1,1511,582,0,0
294,442,0,0,0,0,0,0,0,0,0,-1,1518,582,0,0
301,442,0,0,0,0,0,0,0,0,0,-1,1525,582,0,0
308,442,0,0,0,0,0,0,0,0,0,-1,1532,582,0,0
315,442,0,0,0,0,0,0,0,0,0,-1,1539,582,0,0
322,442,0,0,0,0,0,0,0,0,0,-1,1546,582,0,0
329,442,0,0,0,0,0,0,0,0,0,-1,1553,582,0,0
336,442,0,0,0,0,0,0,0,0,0,-1,1560,582,0,0
343,442,0,0,0,0,0,0,0,0,0,-1,1567,582,0,0
350,442,0,0,0,0,0,0,0,0,0,-1,1574,582,0,0
357,442,0,0,0,0,0,0,0,0,0,-1,1581,582,0,0
364,442,0,0,0,0,0,0,0,0,0,-1,1588,582,0,0
371,442,0,0,0,0,0,0,0,0,0,-1,1595,582,0,0
378,442,0,0,0,0,0,0,0,0,0,-1,1602,582,0,0
385,442,0,0,0,0,0,0,0,0,0,-1,1609,582,0,0
392,442,0,0,0,0,0,0,0,0,0,-1,1616,582,0,0
399,442,0,0,0,0,0,0,0,0,0,-1,1623,582,0,0
406,442,17.6321,4.08295,0,0,0,0,0,0,0,-1,1630,582,17.6321,-4.08293
413,442,25.4768,2.74445,0,0,0,0,0,0,0,-1,1637,582,25.4768,-2.74444
420,442,22.7478,1.55011,0,0,0,0,0,0,0,-1,1644,582,22.7478,-1.55009
427,442,23.2969,-0.456787,0,0,0,0,0,0,0,-1,1651,582,23.2968,0.456769
434,442,23.9512,-2.49365,0,0,0,0,0,0,0,-1,1658,582,23.9512,2.49366
441,442,24.8251,-4.43958,0,0,0,0,0,0,0,-1,1665,582,24.8251,4.43956
448,442,4.7749,-5.88562,0,0,0,0,0,0,0,-1,1672,582,4.7749,5.8856
455,442,4.87024,-4.60687,0,0,0,0,0,0,0,-1,1679,582,4.87019,4.60686
462,442,5.02307,-3.72821,0,0,0,0,0,0,0,-1,1686,582,5.02311,3.7282
469,442,5.12976,-2.98834,0,0,0,0,0,0,0,-1,1693,582,5.12971,2.98834
476,442,5.4624,1.76947,0,0,0,0,0,0,0,-1,1700,582,5.46234,-1.76944
483,442,5.98486,1.87042,0,0,0,0,0,0,0,-1,1707,582,5.98492,-1.87045
490,442,5.04407,-2.35834,0,0,0,0,0,0,0,-1,1714,582,5.04411,2.35837
497,442,6.20984,-3.07831,0,0,0,0,0,0,0,-1,1721,582,6.2098,3.07833
504,442,20.9276,-19.7709,0,0,0,0,0,0,0,-1,1728,582,20.9276,19.771
511,442,23.474,-21.0541,0,0,0,0,0,0,0,-1,1735,582,23.474,21.0541
518,442,23.5039,-20.2258,0.00304051,0.00171752,0.001544,0.00405875,0.000699274,0.583013,0.00250548,0.0145174,1742,582,23.5039,20.2257
525,442,23.4423,-19.4652,0.00260809,0.00144839,0.00139386,0.0035379,0.000518579,0.588286,0.00220615,0.0110016,1749,582,23.4423,19.4652
532,442,23.4043,-18.6964,0.00216067,0.00132383,0.00126871,0.00307817,0.000406321,0.626114,0.00193098,0.0118577,1756,582,23.4043,18.6964
539,442,23.3779,-17.8873,0.00178072,0.0013703,0.00121993,0.00281258,0.000338442,0.70207,0.00177304,0.0149068,1763,582,23.378,17.8873
546,442,23.3635,-17.1018,0.00143289,0.00153834,0.00120271,0.00268948,0.000281748,0.807302,0.00170684,0.0200279,1770,582,23.3635,17.1018
553,442,23.2898,-16.3515,0.00107497,0.0018612,0.00124276,0.00277153,0.000164629,0.938581,0.00179533,0.0195279,1777,582,23.2898,16.3515
560,442,23.2798,-15.5675,0.000774763,0.00229565,0.00139315,0.00312239,-5.19766e-05,1.03522,0.00209913,0.014717,1784,582,23.2798,15.5675
567,442,23.2136,-14.7754,0.000628958,0.00293553,0.0017087,0.00384373,-0.000279245,1.08225,0.00266046,0.0103026,1791,582,23.2136,14.7754
574,442,23.1823,-13.9794,0.000524516,0.00367628,0.00210273,0.00472812,-0.000527319,1.10697,0.00334175,0.0125378,1798,582,23.1822,13.9794
581,442,23.2064,-13.0934,0.000602,0.004639,0.00275151,0.00603299,-0.000791997,1.10186,0.00431032,0.0284365,1805,582,23.2064,13.0934
588,442,23.2788,-12.1773,0,0,0,0,0,0,0,-1,1812,582,23.2788,12.1773
595,442,16.27,-6.47083,0,0,0,0,0,0,0,-1,1819,582,16.27,6.47082
602,442,16.2213,-4.49225,0,0,0,0,0,0,0,-1,1826,582,16.2213,4.49223
609,442,12.761,2.97223,0,0,0,0,0,0,0,-1,1833,582,12.761,-2.97221
616,442,9.78345,-0.103394,0,0,0,0,0,0,0,-1,1840,582,9.78341,0.103424
623,442,9.23828,0.326721,0,0,0,0,0,0,0,-1,1847,582,9.23829,-0.326727
630,442,7.74304,2.3924,0,0,0,0,0,0,0,-1,1854,582,7.7431,-2.39238
637,442,5.87805,1.84027,0,0,0,0,0,0,0,-1,1861,582,5.87807,-1.84025
644,442,0,0,0,0,0,0,0,0,0,-1,1868,582,0,0
651,442,0,0,0,0,0,0,0,0,0,-1,1875,582,0,0
658,442,0,0,0,0,0,0,0,0,0,-1,1882,582,0,0
665,442,0,0,0,0,0,0,0,0,0,-1,1889,582,0,0
672,442,0,0,0,0,0,0,0,0,0,-1,1896,582,0,0
679,442,0,0,0,0,0,0,0,0,0,-1,1903,582,0,0
686,442,0,0,0,0,0,0,0,0,0,-1,1910,582,0,0
693,442,0,0,0,0,0,0,0,0,0,-1,1917,582,0,0
700,442,0,0,0,0,0,0,0,0,0,-1,1924,582,0,0
707,442,0,0,0,0,0,0,0,0,0,-1,1931,582,0,0
714,442,0,0,0,0,0,0,0,0,0,-1,1938,582,0,0
721,442,0,0,0,0,0,0,0,0,0,-1,1945,582,0,0
728,442,0,0,0,0,0,0,0,0,0,-1,1952,582,0,0
735,442,0,0,0,0,0,0,0,0,0,-1,1959,582,0,0
742,442,0,0,0,0,0,0,0,0,0,-1,1966,582,0,0
749,442,0,0,0,0,0,0,0,0,0,-1,1973,582,0,0
756,442,0,0,0,0,0,0,0,0,0,-1,1980,582,0,0
763,442,0,0,0,0,0,0,0,0,0,-1,1987,582,0,0
770,442,0,0,0,0,0,0,0,0,0,-1,1994,582,0,0
777,442,0,0,0,0,0,0,0,0,0,-1,2001,582,0,0
784,442,0,0,0,0,0,0,0,0,0,-1,2008,582,0,0
791,442,0,0,0,0,0,0,0,0,0,-1,2015,582,0,0
798,442,0,0,0,0,0,0,0,0,0,-1,2022,582,0,0
805,442,0,0,0,0,0,0,0,0,0,-1,2029,582,0,0
812,442,0,0,0,0,0,0,0,0,0,-1,2036,582,0,0
-700,435,0,0,0,0,0,0,0,0,0,-1,524,589,0,0
-693,435,0,0,0,0,0,0,0,0,0,-1,531,589,0,0
-686,435,0,0,0,0,0,0,0,0,0,-1,538,589,0,0
-679,435,0,0,0,0,0,0,0,0,0,-1,545,589,0,0
-672,435,0,0,0,0,0,0,0,0,0,-1,552,589,0,0
-665,435,0,0,0,0,0,0,0,0,0,-1,559,589,0,0
-658,435,0,0,0,0,0,0,0,0,0,-1,566,589,0,0
-651,435,0,0,0,0,0,0,0,0,0,-1,573,589,0,0
-644,435,0,0,0,0,0,0,0,0,0,-1,580,589,0,0
-637,435,0,0,0,0,0,0,0,0,0,-1,587,589,0,0
-630,435,0,0,0,0,0,0,0,0,0,-1,594,589,0,0
-623,435,0,0,0,0,0,0,0,0,0,-1,601,589,0,0
-616,435,0,0,0,0,0,0,0,0,0,-1,608,589,0,0
-609,435,0,0,0,0,0,0,0,0,0,-1,615,589,0,0
-602,435,0,0,0,0,0,0,0,0,0,-1,622,589,0,0
-595,435,0,0,0,0,0,0,0,0,0,-1,629,589,0,0
-588,435,0,0,0,0,0,0,0,0,0,-1,636,589,0,0
-581,435,0,0,0,0,0,0,0,0,0,-1,643,589,0,0
-574,435,0,0,0,0,0,0,0,0,0,-1,650,589,0,0
-567,435,0,0,0,0,0,0,0,0,0,-1,657,589,0,0
-560,435,0,0,0,0,0,0,0,0,0,-1,664,589,0,0
-553,435,0,0,0,0,0,0,0,0,0,-1,671,589,0,0
-546,435,0,0,0,0,0,0,0,0,0,-1,678,589,0,0
-539,435,0,0,0,0,0,0,0,0,0,-1,685,589,0,0
-532,435,0,0,0,0,0,0,0,0,0,-1,692,589,0,0
-525,435,-10.0776,10.0547,0,0,0,0,0,0,0,-1,699,589,-10.0776,-10.0547
-518,435,-1.83093,-5.82367,0,0,0,0,0,0,0,-1,706,589,-1.83093,5.8237
-511,435,-2.45154,-5.33118,0,0,0,0,0,0,0,-1,713,589,-2.45151,5.33115
-504,435,-3.07208,-4.83862,0,0,0,0,0,0,0,-1,720,589,-3.0721,4.8386
-497,435,-6.31012,-5.84698,0,0,0,0,0,0,0,-1,727,589,-6.31012,5.84697
-490,435,-5.81903,-0.458679,0,0,0,0,0,0,0,-1,734,589,-5.81902,0.458684
-483,435,-6.96503,-3.01624,0,0,0,0,0,0,0,-1,741,589,-6.96505,3.01623
-476,435,-10.4228,-10.8568,0,0,0,0,0,0,0,-1,748,589,-10.4228,10.8567
-469,435,-10.1244,-12.0108,-0.000972326,0.0127877,-0.00626989,0.015216,-0.00340071,-1.20128,0.0114472,0.0446327,755,589,-10.1244,12.0108
-462,435,-10.0411,-13.3634,-0.000717237,0.00994326,-0.00487542,0.0118367,-0.00261065,-1.20037,0.00889004,0.0317594,762,589,-10.0411,13.3634
-455,435,-10.2449,-14.1612,-0.000535701,0.00741671,-0.00363801,0.00882987,-0.00194887,-1.20029,0.00663234,0.0268911,769,589,-10.2449,14.1612
-448,435,-10.2303,-15.0077,-0.000290927,0.00548841,-0.00268604,0.00654399,-0.0013465,-1.19635,0.00487389,0.0137074,776,589,-10.2304,15.0077
-441,435,-10.2659,-15.78,7.09358e-05,0.00408156,-0.00201967,0.00492236,-0.00076986,-1.17631,0.003566,0.01128,783,589,-10.2659,15.78
-434,435,-10.3224,-16.5436,0.000451641,0.00302467,-0.00155678,0.00375773,-0.000281423,-1.13071,0.00260403,0.0125451,790,589,-10.3224,16.5436
-427,435,-10.3723,-17.3368,0.000880487,0.00227632,-0.00127106,0.00302846,0.00012834,-1.03647,0.00197759,0.0105869,797,589,-10.3723,17.3368
-420,435,-10.3919,-18.0994,0.00138398,0.00177493,-0.00116311,0.00275888,0.000400035,-0.868652,0.00172147,0.0111688,804,589,-10.3919,18.0994
-413,435,-10.4276,-18.863,0.0018091,0.0012465,-0.00099437,0.00256119,0.000494409,-0.647555,0.00156885,0.0123558,811,589,-10.4276,18.863
-406,435,-10.468,-19.6259,0.00231645,0.00102763,-0.000986078,0.00285001,0.000494073,-0.49598,0.00175861,0.0121699,818,589,-10.468,19.6259
-399,435,-10.5221,-20.3666,0.00293954,0.000820534,-0.00106462,0.00338202,0.000378052,-0.393903,0.00213983,0.00974306,825,589,-10.5221,20.3666
-392,435,-10.5677,-21.1104,0.00358674,0.000604249,-0.00112975,0.00396636,0.000224628,-0.324169,0.00257264,0.0115762,832,589,-10.5677,21.1104
-385,435,-10.572,-21.8528,0.00428389,0.000305207,-0.00120499,0.00462037,-3.12787e-05,-0.272308,0.00309073,0.0235013,839,589,-10.5719,21.8528
-378,435,-10.509,-22.6763,0,0,0,0,0,0,0,-1,846,589,-10.509,22.6763
-371,435,-10.247,-21.7153,0,0,0,0,0,0,0,-1,853,589,-10.247,21.7153
-364,435,-5.62848,-11.5937,0,0,0,0,0,0,0,-1,860,589,-5.62847,11.5937
-357,435,-5.57343,-10.9666,0,0,0,0,0,0,0,-1,867,589,-5.57342,10.9666
-350,435,-0.86676,-3.69836,0,0,0,0,0,0,0,-1,874,589,-0.866784,3.69834
-343,435,-1.60706,-2.36835,0,0,0,0,0,0,0,-1,881,589,-1.60706,2.36838
-336,435,-2.07263,-1.94012,0,0,0,0,0,0,0,-1,888,589,-2.07265,1.94014
-329,435,-2.55963,-1.5517,0,0,0,0,0,0,0,-1,895,589,-2.5596,1.55168
-322,435,-3.08545,-1.55255,0,0,0,0,0,0,0,-1,902,589,-3.08544,1.55254
-315,435,-0.404297,-2.63763,0,0,0,0,0,0,0,-1,909,589,-0.404276,2.63761
-308,435,-1.70056,-1.90369,0,0,0,0,0,0,0,-1,916,589,-1.70056,1.90367
-301,435,-1.19391,-2.41632,0,0,0,0,0,0,0,-1,923,589,-1.1939,2.41635
-294,435,3.7973,-9.87396,0,0,0,0,0,0,0,-1,930,589,3.79732,9.87399
-287,435,0,0,0,0,0,0,0,0,0,-1,937,589,0,0
-280,435,0,0,0,0,0,0,0,0,0,-1,944,589,0,0
-273,435,0,0,0,0,0,0,0,0,0,-1,951,589,0,0
-266,435,0,0,0,0,0,0,0,0,0,-1,958,589,0,0
-259,435,0,0,0,0,0,0,0,0,0,-1,965,589,0,0
-252,435,0,0,0,0,0,0,0,0,0,-1,972,589,0,0
-245,435,0,0,0,0,0,0,0,0,0,-1,979,589,0,0
-238,435,0,0,0,0,0,0,0,0,0,-1,986,589,0,0
-231,435,0,0,0,0,0,0,0,0,0,-1,993,589,0,0
-224,435,0,0,0,0,0,0,0,0,0,-1,1000,589,0,0
-217,435,0,0,0,0,0,0,0,0,0,-1,1007,589,0,0
-210,435,0,0,0,0,0,0,0,0,0,-1,1014,589,0,0
-203,435,0,0,0,0,0,0,0,0,0,-1,1021,589,0,0
-196,435,0,0,0,0,0,0,0,0,0,-1,1028,589,0,0
-189,435,0,0,0,0,0,0,0,0,0,-1,1035,589,0,0
-182,435,0,0,0,0,0,0,0,0,0,-1,1042,589,0,0
-175,435,0,0,0,0,0,0,0,0,0,-1,1049,589,0,0
-168,435,0,0,0,0,0,0,0,0,0,-1,1056,589,0,0
-161,435,0,0,0,0,0,0,0,0,0,-1,1063,589,0,0
-154,435,0,0,0,0,0,0,0,0,0,-1,1070,589,0,0
-147,435,0,0,0,0,0,0,0,0,0,-1,1077,589,0,0
-140,435,0,0,0,0,0,0,0,0,0,-1,1084,589,0,0
-133,435,0,0,0,0,0,0,0,0,0,-1,1091,589,0,0
-126,435,0,0,0,0,0,0,0,0,0,-1,1098,589,0,0
-119,435,0,0,0,0,0,0,0,0,0,-1,1105,589,0,0
-112,435,0,0,0,0,0,0,0,0,0,-1,1112,589,0,0
-105,435,0,0,0,0,0,0,0,0,0,-1,1119,589,0,0
-98,435,0,0,0,0,0,0,0,0,0,-1,1126,589,0,0
-91,435,0,0,0,0,0,0,0,0,0,-1,1133,589,0,0
-84,435,0,0,0,0,0,0,0,0,0,-1,1140,589,0,0
-77,435,0,0,0,0,0,0,0,0,0,-1,1147,589,0,0
-70,435,0,0,0,0,0,0,0,0,0,-1,1154,589,0,0
-63,435,0,0,0,0,0,0,0,0,0,-1,1161,589,0,0
-56,435,0,0,0,0,0,0,0,0,0,-1,1168,589,0,0
-49,435,0,0,0,0,0,0,0,0,0,-1,1175,589,0,0
-42,435,0,0,0,0,0,0,0,0,0,-1,1182,589,0,0
-35,435,0,0,0,0,0,0,0,0,0,-1,1189,589,0,0
-28,435,0,0,0,0,0,0,0,0,0,-1,1196,589,0,0
-21,435,0,0,0,0,0,0,0,0,0,-1,1203,589,0,0
-14,435,0,0,0,0,0,0,0,0,0,-1,1210,589,0,0
-7,435,0,0,0,0,0,0,0,0,0,-1,1217,589,0,0
0,435,0,0,0,0,0,0,0,0,0,-1,1224,589,0,0
7,435,0,0,0,0,0,0,0,0,0,-1,1231,589,0,0
14,435,0,0,0,0,0,0,0,0,0,-1,1238,589,0,0
21,435,0,0,0,0,0,0,0,0,0,-1,1245,589,0,0
28,435,0,0,0,0,0,0,0,0,0,-1,1252,589,0,0
35,435,0,0,0,0,0,0,0,0,0,-1,1259,589,0,0
42,435,0,0,0,0,0,0,0,0,0,-1,1266,589,0,0
49,435,0,0,0,0,0,0,0,0,0,-1,1273,589,0,0
56,435,0,0,0,0,0,0,0,0,0,-1,1280,589,0,0
63,435,0,0,0,0,0,0,0,0,0,-1,1287,589,0,0
70,435,0,0,0,0,0,0,0,0,0,-1,1294,589,0,0
77,435,0,0,0,0,0,0,0,0,0,-1,1301,589,0,0
84,435,0,0,0,0,0,0,0,0,0,-1,1308,589,0,0
91,435,0,0,0,0,0,0,0,0,0,-1,1315,589,0,0
98,435,0,0,0,0,0,0,0,0,0,-1,1322,589,0,0
105,435,0,0,0,0,0,0,0,0,0,-1,1329,589,0,0
112,435,0,0,0,0,0,0,0,0,0,-1,1336,589,0,0
119,435,0,0,0,0,0,0,0,0,0,-1,1343,589,0,0
126,435,0,0,0,0,0,0,0,0,0,-1,1350,589,0,0
133,435,0,0,0,0,0,0,0,0,0,-1,1357,589,0,0
140,435,0,0,0,0,0,0,0,0,0,-1,1364,589,0,0
147,435,0,0,0,0,0,0,0,0,0,-1,1371,589,0,0
154,435,0,0,0,0,0,0,0,0,0,-1,1378,589,0,0
161,435,0,0,0,0,0,0,0,0,0,-1,1385,589,0,0
168,435,0,0,0,0,0,0,0,0,0,-1,1392,589,0,0
175,435,0,0,0,0,0,0,0,0,0,-1,1399,589,0,0
182,435,0,0,0,0,0,0,0,0,0,-1,1406,589,0,0
189,435,0,0,0,0,0,0,0,0,0,-1,1413,589,0,0
196,435,0,0,0,0,0,0,0,0,0,-1,1420,589,0,0
203,435,0,0,0,0,0,0,0,0,0,-1,1427,589,0,0
210,435,0,0,0,0,0,0,0,0,0,-1,1434,589,0,0
217,435,0,0,0,0,0,0,0,0,0,-1,1441,589,0,0
224,435,0,0,0,0,0,0,0,0,0,-1,1448,589,0,0
231,435,0,0,0,0,0,0,0,0,0,-1,1455,589,0,0
238,435,0,0,0,0,0,0,0,0,0,-1,1462,589,0,0
245,435,0,0,0,0,0,0,0,0,0,-1,1469,589,0,0
252,435,0,0,0,0,0,0,0,0,0,-1,1476,589,0,0
259,435,0,0,0,0,0,0,0,0,0,-1,1483,589,0,0
266,435,0,0,0,0,0,0,0,0,0,-1,1490,589,0,0
273,435,0,0,0,0,0,0,0,0,0,-1,1497,589,0,0
280,435,0,0,0,0,0,0,0,0,0,-1,1504,589,0,0
287,435,0,0,0,0,0,0,0,0,0,-1,1511,589,0,0
294,435,0,0,0,0,0,0,0,0,0,-1,1518,589,0,0
301,435,0,0,0,0,0,0,0,0,0,-1,1525,589,0,0
308,435,0,0,0,0,0,0,0,0,0,-1,1532,589,0,0
315,435,0,0,0,0,0,0,0,0,0,-1,1539,589,0,0
322,435,0,0,0,0,0,0,0,0,0,-1,1546,589,0,0
329,435,0,0,0,0,0,0,0,0,0,-1,1553,589,0,0
336,435,0,0,0,0,0,0,0,0,0,-1,1560,589,0,0
343,435,0,0,0,0,0,0,0,0,0,-1,1567,589,0,0
350,435,0,0,0,0,0,0,0,0,0,-1,1574,589,0,0
357,435,0,0,0,0,0,0,0,0,0,-1,1581,589,0,0
364,435,0,0,0,0,0,0,0,0,0,-1,1588,589,0,0
371,435,0,0,0,0,0,0,0,0,0,-1,1595,589,0,0
378,435,0,0,0,0,0,0,0,0,0,-1,1602,589,0,0
385,435,0,0,0,0,0,0,0,0,0,-1,1609,589,0,0
392,435,0,0,0,0,0,0,0,0,0,-1,1616,589,0,0
399,435,0,0,0,0,0,0,0,0,0,-1,1623,589,0,0
406,435,0,0,0,0,0,0,0,0,0,-1,1630,589,0,0
413,435,20.4565,3.49835,0,0,0,0,0,0,0,-1,1637,589,20.4565,-3.49836
420,435,21.4015,1.49609,0,0,0,0,0,0,0,-1,1644,589,21.4015,-1.49609
427,435,22.0464,-0.373962,0,0,0,0,0,0,0,-1,1651,589,22.0464,0.373972
434,435,22.1863,-1.54407,0,0,0,0,0,0,0,-1,1658,589,22.1862,1.54405
441,435,22.3992,-2.38287,0,0,0,0,0,0,0,-1,1665,589,22.3992,2.38289
448,435,7.4585,-0.00292969,0,0,0,0,0,0,0,-1,1672,589,7.45848,0.00294131
455,435,5.49915,-5.047,0,0,0,0,0,0,0,-1,1679,589,5.49914,5.04703
462,435,5.60669,-4.71466,0,0,0,0,0,0,0,-1,1686,589,5.60675,4.71469
469,435,5.87708,1.22351,0,0,0,0,0,0,0,-1,1693,589,5.87703,-1.22351
476,435,6.14136,1.37714,0,0,0,0,0,0,0,-1,1700,589,6.14138,-1.37712
483,435,6.49243,1.36169,0,0,0,0,0,0,0,-1,1707,589,6.49242,-1.36171
490,435,4.38391,-1.36218,0,0,0,0,0,0,0,-1,1714,589,4.38389,1.3622
497,435,7.23499,-3.64551,0,0,0,0,0,0,0,-1,1721,589,7.23495,3.64551
504,435,7.31189,-3.75909,0,0,0,0,0,0,0,-1,1728,589,7.31184,3.75911
511,435,24.1206,-21.1304,0,0,0,0,0,0,0,-1,1735,589,24.1205,21.1304
518,435,24.2899,-20.2219,0.00371726,0.00200029,0.00180392,0.00485656,0.000860995,0.563308,0.00299229,0.0336879,1742,589,24.2899,20.2219
525,435,24.2256,-19.4096,0.00320349,0.00161343,0.00158952,0.00418571,0.000631203,0.553506,0.00260568,0.0135818,1749,589,24.2256,19.4096
532,435,24.2119,-18.6138,0.00269517,0.00138372,0.00139665,0.00358236,0.000496528,0.565923,0.00224114,0.0155584,1756,589,24.2119,18.6138
539,435,24.193,-17.826,0.00228162,0.00138461,0.0013026,0.00321076,0.000455467,0.619597,0.00200599,0.0175199,1763,589,24.1929,17.826
546,435,24.1404,-17.0771,0.00190444,0.00145199,0.00123375,0.00293253,0.000423896,0.694724,0.00183016,0.0167017,1770,589,24.1404,17.0772
553,435,24.0881,-16.315,0.00151716,0.00167745,0.00122225,0.00282219,0.000372427,0.818138,0.00177042,0.0117318,1777,589,24.0882,16.315
560,435,24.0447,-15.5329,0.0011818,0.00199163,0.00131146,0.00295926,0.000214172,0.935132,0.00190546,0.0094828,1784,589,24.0447,15.5329
567,435,24.016,-14.7275,0.000996368,0.00250391,0.00156667,0.00348871,1.15732e-05,1.00962,0.00232196,0.00854459,1791,589,24.016,14.7275
574,435,23.9722,-13.9429,0.000896126,0.00311222,0.00190262,0.00420593,-0.000197583,1.04908,0.00287208,0.0100288,1798,589,23.9722,13.9429
581,435,23.9175,-13.1636,0.000992291,0.00389962,0.00245229,0.00529672,-0.000404808,1.05294,0.00367353,0.018502,1805,589,23.9174,13.1636
588,435,23.886,-12.3775,0.00137573,0.00490583,0.00323338,0.00682455,-0.000542988,1.03524,0.00474107,0.046431,1812,589,23.886,12.3775
595,435,23.9653,-11.2756,0,0,0,0,0,0,0,-1,1819,589,23.9653,11.2756
602,435,16.8671,-6.39026,0,0,0,0,0,0,0,-1,1826,589,16.867,6.39024
609,435,15.2611,-3.42242,0,0,0,0,0,0,0,-1,1833,589,15.2611,3.42242
616,435,5.05151,-2.75269,0,0,0,0,0,0,0,-1,1840,589,5.05157,2.7527
623,435,11.7588,3.9704,0,0,0,0,0,0,0,-1,1847,589,11.7587,-3.97043
630,435,4.72742,-0.87561,0,0,0,0,0,0,0,-1,1854,589,4.7274,0.875636
637,435,5.05286,1.48792,0,0,0,0,0,0,0,-1,1861,589,5.05291,-1.48792
644,435,0,0,0,0,0,0,0,0,0,-1,1868,589,0,0
651,435,0,0,0,0,0,0,0,0,0,-1,1875,589,0,0
658,435,0,0,0,0,0,0,0,0,0,-1,1882,589,0,0
665,435,0,0,0,0,0,0,0,0,0,-1,1889,589,0,0
672,435,0,0,0,0,0,0,0,0,0,-1,1896,589,0,0
679,435,0,0,0,0,0,0,0,0,0,-1,1903,589,0,0
686,435,0,0,0,0,0,0,0,0,0,-1,1910,589,0,0
693,435,0,0,0,0,0,0,0,0,0,-1,1917,589,0,0
700,435,0,0,0,0,0,0,0,0,0,-1,1924,589,0,0
707,435,0,0,0,0,0,0,0,0,0,-1,1931,589,0,0
714,435,0,0,0,0,0,0,0,0,0,-1,1938,589,0,0
721,435,0,0,0,0,0,0,0,0,0,-1,1945,589,0,0
728,435,0,0,0,0,0,0,0,0,0,-1,1952,589,0,0
735,435,0,0,0,0,0,0,0,0,0,-1,1959,589,0,0
742,435,0,0,0,0,0,0,0,0,0,-1,1966,589,0,0
749,435,0,0,0,0,0,0,0,0,0,-1,1973,589,0,0
756,435,0,0,0,0,0,0,0,0,0,-1,1980,589,0,0
763,435,0,0,0,0,0,0,0,0,0,-1,1987,589,0,0
770,435,0,0,0,0,0,0,0,0,0,-1,1994,589,0,0
777,435,0,0,0,0,0,0,0,0,0,-1,2001,589,0,0
784,435,0,0,0,0,0,0,0,0,0,-1,2008,589,0,0
791,435,0,0,0,0,0,0,0,0,0,-1,2015,589,0,0
798,435,0,0,0,0,0,0,0,0,0,-1,2022,589,0,0
805,435,0,0,0,0,0,0,0,0,0,-1,2029,589,0,0
812,435,0,0,0,0,0,0,0,0,0,-1,2036,589,0,0
-700,428,0,0,0,0,0,0,0,0,0,-1,524,596,0,0
-693,428,0,0,0,0,0,0,0,0,0,-1,531,596,0,0
-686,428,0,0,0,0,0,0,0,0,0,-1,538,596,0,0
-679,428,0,0,0,0,0,0,0,0,0,-1,545,596,0,0
-672,428,0,0,0,0,0,0,0,0,0,-1,552,596,0,0
-665,428,0,0,0,0,0,0,0,0,0,-1,559,596,0,0
-658,428,0,0,0,0,0,0,0,0,0,-1,566,596,0,0
-651,428,0,0,0,0,0,0,0,0,0,-1,573,596,0,0
-644,428,0,0,0,0,0,0,0,0,0,-1,580,596,0,0
-637,428,0,0,0,0,0,0,0,0,0,-1,587,596,0,0
-630,428,0,0,0,0,0,0,0,0,0,-1,594,596,0,0
-623,428,0,0,0,0,0,0,0,0,0,-1,601,596,0,0
-616,428,0,0,0,0,0,0,0,0,0,-1,608,596,0,0
-609,428,0,0,0,0,0,0,0,0,0,-1,615,596,0,0
-602,428,0,0,0,0,0,0,0,0,0,-1,622,596,0,0
-595,428,0,0,0,0,0,0,0,0,0,-1,629,596,0,0
-588,428,0,0,0,0,0,0,0,0,0,-1,636,596,0,0
-581,428,0,0,0,0,0,0,0,0,0,-1,643,596,0,0
-574,428,0,0,0,0,0,0,0,0,0,-1,650,596,0,0
-567,428,0,0,0,0,0,0,0,0,0,-1,657,596,0,0
-560,428,0,0,0,0,0,0,0,0,0,-1,664,596,0,0
-553,428,0,0,0,0,0,0,0,0,0,-1,671,596,0,0
-546,428,0,0,0,0,0,0,0,0,0,-1,678,596,0,0
-539,428,0,0,0,0,0,0,0,0,0,-1,685,596,0,0
-532,428,0,0,0,0,0,0,0,0,0,-1,692,596,0,0
-525,428,-9.59918,7.58618,0,0,0,0,0,0,0,-1,699,596,-9.59918,-7.5862
-518,428,-2.92285,-4.81854,0,0,0,0,0,0,0,-1,706,596,-2.92285,4.81856
-511,428,-3.68811,-4.79474,0,0,0,0,0,0,0,-1,713,596,-3.68811,4.79474
-504,428,-4.45337,-4.77094,0,0,0,0,0,0,0,-1,720,596,-4.45337,4.77092
-497,428,-2.98108,-3.77502,0,0,0,0,0,0,0,-1,727,596,-2.98106,3.77505
-490,428,-6.39044,-2.80481,0,0,0,0,0,0,0,-1,734,596,-6.39047,2.80483
-483,428,-10.8474,-9.11322,0,0,0,0,0,0,0,-1,741,596,-10.8473,9.11321
-476,428,-10.8492,-11.7077,0,0,0,0,0,0,0,-1,748,596,-10.8493,11.7077
-469,428,-10.7654,-12.5117,-0.000928893,0.00990102,-0.00476752,0.0117007,-0.00272857,-1.20985,0.00885131,0.032751,755,596,-10.7655,12.5117
-462,428,-10.8892,-13.2245,-0.000634779,0.00763204,-0.00373349,0.00906855,-0.00207129,-1.20349,0.00684146,0.0344666,762,596,-10.8892,13.2245
-455,428,-10.9847,-14.1136,-0.000368835,0.00562021,-0.00280471,0.00672856,-0.00147718,-1.19446,0.00505063,0.0164438,769,596,-10.9847,14.1136
-448,428,-11.0184,-14.9345,-2.17477e-05,0.00409548,-0.00210453,0.00498083,-0.000907097,-1.17258,0.00366057,0.0113904,776,596,-11.0184,14.9345
-441,428,-11.0441,-15.7213,0.000408985,0.00297133,-0.00160571,0.00374435,-0.000364036,-1.12212,0.002626,0.0130261,783,596,-11.0441,15.7213
-434,428,-11.0764,-16.5173,0.000849862,0.00213374,-0.00126838,0.00291338,7.02222e-05,-1.01966,0.00191927,0.0102124,790,596,-11.0764,16.5173
-427,428,-11.1136,-17.3162,0.00134761,0.00158873,-0.0011079,0.00258261,0.00035373,-0.839593,0.00161678,0.0116657,797,596,-11.1136,17.3162
-420,428,-11.1429,-18.0441,0.00191227,0.0012776,-0.00111189,0.00275122,0.000438645,-0.646392,0.00170683,0.0125997,804,596,-11.143,18.0441
-413,428,-11.1877,-18.79,0.00244861,0.00111565,-0.00115687,0.00311725,0.000447014,-0.524065,0.00194635,0.0155999,811,596,-11.1877,18.79
-406,428,-11.2346,-19.5618,0.00303567,0.00109453,-0.00132555,0.00370799,0.000422205,-0.469393,0.00234397,0.017328,818,596,-11.2346,19.5618
-399,428,-11.265,-20.3321,0.00371543,0.00110096,-0.00159747,0.00447236,0.000344028,-0.442492,0.00287377,0.0159774,825,596,-11.265,20.3321
-392,428,-11.2573,-21.1265,0.00447261,0.00111963,-0.00185953,0.00529981,0.000292429,-0.418559,0.00343988,0.0335185,832,596,-11.2572,21.1265
-385,428,-11.2935,-21.8438,0,0,0,0,0,0,0,-1,839,596,-11.2934,21.8437
-378,428,-10.8172,-20.952,0,0,0,0,0,0,0,-1,846,596,-10.8172,20.952
-371,428,-5.96155,-11.0703,0,0,0,0,0,0,0,-1,853,596,-5.96154,11.0702
-364,428,-6.33643,-10.7223,0,0,0,0,0,0,0,-1,860,596,-6.33645,10.7223
-357,428,-3.20996,-4.70966,0,0,0,0,0,0,0,-1,867,596,-3.20997,4.70965
-350,428,-1.62793,-3.94055,0,0,0,0,0,0,0,-1,874,596,-1.62794,3.94055
-343,428,-0.0567017,-4.80994,0,0,0,0,0,0,0,-1,881,596,-0.0567096,4.80996
-336,428,-3.29175,-1.39569,0,0,0,0,0,0,0,-1,888,596,-3.29172,1.39568
-329,428,-3.71564,-0.791321,0,0,0,0,0,0,0,-1,895,596,-3.71564,0.791299
-322,428,-5.52863,-3.59827,0,0,0,0,0,0,0,-1,902,596,-5.52865,3.59829
-315,428,-4.57172,-1.22052,0,0,0,0,0,0,0,-1,909,596,-4.57171,1.22052
-308,428,-5.60742,-3.40961,0,0,0,0,0,0,0,-1,916,596,-5.60744,3.40959
-301,428,0,0,0,0,0,0,0,0,0,-1,923,596,0,0
-294,428,0,0,0,0,0,0,0,0,0,-1,930,596,0,0
-287,428,0,0,0,0,0,0,0,0,0,-1,937,596,0,0
-280,428,0,0,0,0,0,0,0,0,0,-1,944,596,0,0
-273,428,0,0,0,0,0,0,0,0,0,-1,951,596,0,0
-266,428,0,0,0,0,0,0,0,0,0,-1,958,596,0,0
-259,428,0,0,0,0,0,0,0,0,0,-1,965,596,0,0
-252,428,0,0,0,0,0,0,0,0,0,-1,972,596,0,0
-245,428,0,0,0,0,0,0,0,0,0,-1,979,596,0,0
-238,428,0,0,0,0,0,0,0,0,0,-1,986,596,0,0
-231,428,0,0,0,0,0,0,0,0,0,-1,993,596,0,0
-224,428,0,0,0,0,0,0,0,0,0,-1,1000,596,0,0
-217,428,0,0,0,0,0,0,0,0,0,-1,1007,596,0,0
-210,428,0,0,0,0,0,0,0,0,0,-1,1014,596,0,0
-203,428,0,0,0,0,0,0,0,0,0,-1,1021,596,0,0
-196,428,0,0,0,0,0,0,0,0,0,-1,1028,596,0,0
-189,428,0,0,0,0,0,0,0,0,0,-1,1035,596,0,0
-182,428,0,0,0,0,0,0,0,0,0,-1,1042,596,0,0
-175,428,0,0,0,0,0,0,0,0,0,-1,1049,596,0,0
-168,428,0,0,0,0,0,0,0,0,0,-1,1056,596,0,0
-161,428,0,0,0,0,0,0,0,0,0,-1,1063,596,0,0
-154,428,0,0,0,0,0,0,0,0,0,-1,1070,596,0,0
-147,428,0,0,0,0,0,0,0,0,0,-1,1077,596,0,0
-140,428,0,0,0,0,0,0,0,0,0,-1,1084,596,0,0
-133,428,0,0,0,0,0,0,0,0,0,-1,1091,596,0,0
-126,428,0,0,0,0,0,0,0,0,0,-1,1098,596,0,0
-119,428,0,0,0,0,0,0,0,0,0,-1,1105,596,0,0
-112,428,0,0,0,0,0,0,0,0,0,-1,1112,596,0,0
-105,428,0,0,0,0,0,0,0,0,0,-1,1119,596,0,0
-98,428,0,0,0,0,0,0,0,0,0,-1,1126,596,0,0
-91,428,0,0,0,0,0,0,0,0,0,-1,1133,596,0,0
-84,428,0,0,0,0,0,0,0,0,0,-1,1140,596,0,0
-77,428,0,0,0,0,0,0,0,0,0,-1,1147,596,0,0
-70,428,0,0,0,0,0,0,0,0,0,-1,1154,596,0,0
-63,428,0,0,0,0,0,0,0,0,0,-1,1161,596,0,0
-56,428,0,0,0,0,0,0,0,0,0,-1,1168,596,0,0
-49,428,0,0,0,0,0,0,0,0,0,-1,1175,596,0,0
-42,428,0,0,0,0,0,0,0,0,0,-1,1182,596,0,0
-35,428,0,0,0,0,0,0,0,0,0,-1,1189,596,0,0
-28,428,0,0,0,0,0,0,0,0,0,-1,1196,596,0,0
-21,428,0,0,0,0,0,0,0,0,0,-1,1203,596,0,0
-14,428,0,0,0,0,0,0,0,0,0,-1,1210,596,0,0
-7,428,0,0,0,0,0,0,0,0,0,-1,1217,596,0,0
0,428,0,0,0,0,0,0,0,0,0,-1,1224,596,0,0
7,428,0,0,0,0,0,0,0,0,0,-1,1231,596,0,0
14,428,0,0,0,0,0,0,0,0,0,-1,1238,596,0,0
21,428,0,0,0,0,0,0,0,0,0,-1,1245,596,0,0
28,428,0,0,0,0,0,0,0,0,0,-1,1252,596,0,0
35,428,0,0,0,0,0,0,0,0,0,-1,1259,596,0,0
42,428,0,0,0,0,0,0,0,0,0,-1,1266,596,0,0
49,428,0,0,0,0,0,0,0,0,0,-1,1273,596,0,0
56,428,0,0,0,0,0,0,0,0,0,-1,1280,596,0,0
63,428,0,0,0,0,0,0,0,0,0,-1,1287,596,0,0
70,428,0,0,0,0,0,0,0,0,0,-1,1294,596,0,0
77,428,0,0,0,0,0,0,0,0,0,-1,1301,596,0,0
84,428,0,0,0,0,0,0,0,0,0,-1,1308,596,0,0
91,428,0,0,0,0,0,0,0,0,0,-1,1315,596,0,0
98,428,0,0,0,0,0,0,0,0,0,-1,1322,596,0,0
105,428,0,0,0,0,0,0,0,0,0,-1,1329,596,0,0
112,428,0,0,0,0,0,0,0,0,0,-1,1336,596,0,0
119,428,0,0,0,0,0,0,0,0,0,-1,1343,596,0,0
126,428,0,0,0,0,0,0,0,0,0,-1,1350,596,0,0
133,428,0,0,0,0,0,0,0,0,0,-1,1357,596,0,0
140,428,0,0,0,0,0,0,0,0,0,-1,1364,596,0,0
147,428,0,0,0,0,0,0,0,0,0,-1,1371,596,0,0
154,428,0,0,0,0,0,0,0,0,0,-1,1378,596,0,0
161,428,0,0,0,0,0,0,0,0,0,-1,1385,596,0,0
168,428,0,0,0,0,0,0,0,0,0,-1,1392,596,0,0
175,428,0,0,0,0,0,0,0,0,0,-1,1399,596,0,0
182,428,0,0,0,0,0,0,0,0,0,-1,1406,596,0,0
189,428,0,0,0,0,0,0,0,0,0,-1,1413,596,0,0
196,428,0,0,0,0,0,0,0,0,0,-1,1420,596,0,0
203,428,0,0,0,0,0,0,0,0,0,-1,1427,596,0,0
210,428,0,0,0,0,0,0,0,0,0,-1,1434,596,0,0
217,428,0,0,0,0,0,0,0,0,0,-1,1441,596,0,0
224,428,0,0,0,0,0,0,0,0,0,-1,1448,596,0,0
231,428,0,0,0,0,0,0,0,0,0,-1,1455,596,0,0
238,428,0,0,0,0,0,0,0,0,0,-1,1462,596,0,0
245,428,0,0,0,0,0,0,0,0,0,-1,1469,596,0,0
252,428,0,0,0,0,0,0,0,0,0,-1,1476,596,0,0
259,428,0,0,0,0,0,0,0,0,0,-1,1483,596,0,0
266,428,0,0,0,0,0,0,0,0,0,-1,1490,596,0,0
273,428,0,0,0,0,0,0,0,0,0,-1,1497,596,0,0
280,428,0,0,0,0,0,0,0,0,0,-1,1504,596,0,0
287,428,0,0,0,0,0,0,0,0,0,-1,1511,596,0,0
294,428,0,0,0,0,0,0,0,0,0,-1,1518,596,0,0
301,428,0,0,0,0,0,0,0,0,0,-1,1525,596,0,0
308,428,0,0,0,0,0,0,0,0,0,-1,1532,596,0,0
315,428,0,0,0,0,0,0,0,0,0,-1,1539,596,0,0
322,428,0,0,0,0,0,0,0,0,0,-1,1546,596,0,0
329,428,0,0,0,0,0,0,0,0,0,-1,1553,596,0,0
336,428,0,0,0,0,0,0,0,0,0,-1,1560,596,0,0
343,428,0,0,0,0,0,0,0,0,0,-1,1567,596,0,0
350,428,0,0,0,0,0,0,0,0,0,-1,1574,596,0,0
357,428,0,0,0,0,0,0,0,0,0,-1,1581,596,0,0
364,428,0,0,0,0,0,0,0,0,0,-1,1588,596,0,0
371,428,0,0,0,0,0,0,0,0,0,-1,1595,596,0,0
378,428,0,0,0,0,0,0,0,0,0,-1,1602,596,0,0
385,428,0,0,0,0,0,0,0,0,0,-1,1609,596,0,0
392,428,0,0,0,0,0,0,0,0,0,-1,1616,596,0,0
399,428,0,0,0,0,0,0,0,0,0,-1,1623,596,0,0
406,428,0,0,0,0,0,0,0,0,0,-1,1630,596,0,0
413,428,0,0,0,0,0,0,0,0,0,-1,1637,596,0,0
420,428,19.8469,1.3399,0,0,0,0,0,0,0,-1,1644,596,19.8469,-1.33992
427,428,20.7299,-0.225281,0,0,0,0,0,0,0,-1,1651,596,20.7299,0.225262
434,428,19.8915,-0.583069,0,0,0,0,0,0,0,-1,1658,596,19.8915,0.583075
441,428,8.17993,0.607483,0,0,0,0,0,0,0,-1,1665,596,8.17997,-0.607513
448,428,7.84338,-0.385986,0,0,0,0,0,0,0,-1,1672,596,7.84336,0.385978
455,428,6.64038,2.1123,0,0,0,0,0,0,0,-1,1679,596,6.64037,-2.11229
462,428,4.84106,4.12341,0,0,0,0,0,0,0,-1,1686,596,4.84107,-4.12339
469,428,7.83789,3.10083,0,0,0,0,0,0,0,-1,1693,596,7.83785,-3.10086
476,428,7.61255,1.73956,0,0,0,0,0,0,0,-1,1700,596,7.61252,-1.73958
483,428,7.22766,1.05121,0,0,0,0,0,0,0,-1,1707,596,7.2277,-1.05121
490,428,5.4071,-3.2793,0,0,0,0,0,0,0,-1,1714,596,5.40707,3.27929
497,428,7.84106,-3.65491,0,0,0,0,0,0,0,-1,1721,596,7.84107,3.65491
504,428,6.92139,-2.83356,0,0,0,0,0,0,0,-1,1728,596,6.92137,2.83353
511,428,7.88501,-3.78723,0,0,0,0,0,0,0,-1,1735,596,7.88502,3.78722
518,428,25.0339,-20.2999,0,0,0,0,0,0,0,-1,1742,596,25.034,20.2999
525,428,24.944,-19.4552,0.00394466,0.00187154,0.00203312,0.00519022,0.000625988,0.549656,0.00327151,0.040514,1749,596,24.944,19.4552
532,428,24.9796,-18.5447,0.00329849,0.00151355,0.0016616,0.00429214,0.000519908,0.538949,0.00270483,0.0211438,1756,596,24.9796,18.5447
539,428,24.9736,-17.7671,0.00278858,0.00145608,0.00143895,0.00370804,0.000536626,0.568587,0.00231398,0.0226854,1763,596,24.9736,17.7671
546,428,24.9186,-17.0442,0.00232702,0.00139409,0.00125905,0.00320323,0.000517876,0.607994,0.00198551,0.0176184,1770,596,24.9185,17.0442
553,428,24.8668,-16.2765,0.00187121,0.00150805,0.00115917,0.00286294,0.000516324,0.707705,0.00176192,0.0125563,1777,596,24.8668,16.2765
560,428,24.8455,-15.4838,0.00147149,0.00169624,0.0011665,0.00275577,0.000411962,0.833416,0.00171642,0.0125161,1784,596,24.8455,15.4837
567,428,24.817,-14.6933,0.00122261,0.00207645,0.00135126,0.00306663,0.00023244,0.938408,0.00197151,0.0109298,1791,596,24.817,14.6933
574,428,24.7887,-13.9072,0.00109075,0.00255633,0.00163136,0.00361193,3.5153e-05,0.996488,0.00239632,0.0131257,1798,596,24.7887,13.9073
581,428,24.7261,-13.1151,0.00114232,0.00318847,0.00210684,0.0045075,-0.000176709,1.01143,0.0030656,0.0119274,1805,596,24.726,13.115
588,428,24.6758,-12.269,0.00145049,0.00408326,0.00281842,0.00587756,-0.000343813,1.00388,0.00403786,0.0179947,1812,596,24.6757,12.269
595,428,24.6082,-11.396,0.00194653,0.00519849,0.00367976,0.0075955,-0.000450485,0.993435,0.00522031,0.0323716,1819,596,24.6081,11.396
602,428,24.7063,-10.4788,0,0,0,0,0,0,0,-1,1826,596,24.7064,10.4788
609,428,17.2073,-4.82446,0,0,0,0,0,0,0,-1,1833,596,17.2073,4.82447
616,428,15.7817,-3.09558,0,0,0,0,0,0,0,-1,1840,596,15.7817,3.09556
623,428,9.53577,1.12518,0,0,0,0,0,0,0,-1,1847,596,9.5358,-1.1252
630,428,7.07996,6.88562,0,0,0,0,0,0,0,-1,1854,596,7.0799,-6.88565
637,428,3.95435,1.90857,0,0,0,0,0,0,0,-1,1861,596,3.95439,-1.90858
644,428,5.75476,0.888977,0,0,0,0,0,0,0,-1,1868,596,5.75472,-0.888955
651,428,0,0,0,0,0,0,0,0,0,-1,1875,596,0,0
658,428,0,0,0,0,0,0,0,0,0,-1,1882,596,0,0
665,428,0,0,0,0,0,0,0,0,0,-1,1889,596,0,0
672,428,0,0,0,0,0,0,0,0,0,-1,1896,596,0,0
679,428,0,0,0,0,0,0,0,0,0,-1,1903,596,0,0
686,428,0,0,0,0,0,0,0,0,0,-1,1910,596,0,0
693,428,0,0,0,0,0,0,0,0,0,-1,1917,596,0,0
700,428,0,0,0,0,0,0,0,0,0,-1,1924,596,0,0
707,428,0,0,0,0,0,0,0,0,0,-1,1931,596,0,0
714,428,0,0,0,0,0,0,0,0,0,-1,1938,596,0,0
721,428,0,0,0,0,0,0,0,0,0,-1,1945,596,0,0
728,428,0,0,0,0,0,0,0,0,0,-1,1952,596,0,0
735,428,0,0,0,0,0,0,0,0,0,-1,1959,596,0,0
742,428,0,0,0,0,0,0,0,0,0,-1,1966,596,0,0
749,428,0,0,0,0,0,0,0,0,0,-1,1973,596,0,0
756,428,0,0,0,0,0,0,0,0,0,-1,1980,596,0,0
763,428,0,0,0,0,0,0,0,0,0,-1,1987,596,0,0
770,428,0,0,0,0,0,0,0,0,0,-1,1994,596,0,0
777,428,0,0,0,0,0,0,0,0,0,-1,2001,596,0,0
784,428,0,0,0,0,0,0,0,0,0,-1,2008,596,0,0
791,428,0,0,0,0,0,0,0,0,0,-1,2015,596,0,0
798,428,0,0,0,0,0,0,0,0,0,-1,2022,596,0,0
805,428,0,0,0,0,0,0,0,0,0,-1,2029,596,0,0
812,428,0,0,0,0,0,0,0,0,0,-1,2036,596,0,0
-700,421,0,0,0,0,0,0,0,0,0,-1,524,603,0,0
-693,421,0,0,0,0,0,0,0,0,0,-1,531,603,0,0
-686,421,0,0,0,0,0,0,0,0,0,-1,538,603,0,0
-679,421,0,0,0,0,0,0,0,0,0,-1,545,603,0,0
-672,421,0,0,0,0,0,0,0,0,0,-1,552,603,0,0
-665,421,0,0,0,0,0,0,0,0,0,-1,559,603,0,0
-658,421,0,0,0,0,0,0,0,0,0,-1,566,603,0,0
-651,421,0,0,0,0,0,0,0,0,0,-1,573,603,0,0
-644,421,0,0,0,0,0,0,0,0,0,-1,580,603,0,0
-637,421,0,0,0,0,0,0,0,0,0,-1,587,603,0,0
-630,421,0,0,0,0,0,0,0,0,0,-1,594,603,0,0
-623,421,0,0,0,0,0,0,0,0,0,-1,601,603,0,0
-616,421,0,0,0,0,0,0,0,0,0,-1,608,603,0,0
-609,421,0,0,0,0,0,0,0,0,0,-1,615,603,0,0
-602,421,0,0,0,0,0,0,0,0,0,-1,622,603,0,0
-595,421,0,0,0,0,0,0,0,0,0,-1,629,603,0,0
-588,421,0,0,0,0,0,0,0,0,0,-1,636,603,0,0
-581,421,0,0,0,0,0,0,0,0,0,-1,643,603,0,0
-574,421,0,0,0,0,0,0,0,0,0,-1,650,603,0,0
-567,421,0,0,0,0,0,0,0,0,0,-1,657,603,0,0
-560,421,0,0,0,0,0,0,0,0,0,-1,664,603,0,0
-553,421,0,0,0,0,0,0,0,0,0,-1,671,603,0,0
-546,421,0,0,0,0,0,0,0,0,0,-1,678,603,0,0
-539,421,0,0,0,0,0,0,0,0,0,-1,685,603,0,0
-532,421,-8.97382,6.95636,0,0,0,0,0,0,0,-1,692,603,-8.97384,-6.95634
-525,421,-2.11481,-8.04272,0,0,0,0,0,0,0,-1,699,603,-2.11483,8.0427
-518,421,-3.05908,-5.07233,0,0,0,0,0,0,0,-1,706,603,-3.0591,5.07235
-511,421,-4.63525,-4.08447,0,0,0,0,0,0,0,-1,713,603,-4.63524,4.08449
-504,421,-5.17029,-4.94458,0,0,0,0,0,0,0,-1,720,603,-5.17029,4.9446
-497,421,-6.63141,-2.32501,0,0,0,0,0,0,0,-1,727,603,-6.6314,2.32498
-490,421,-6.7616,-4.14783,0,0,0,0,0,0,0,-1,734,603,-6.76159,4.1478
-483,421,-11.386,-11.1364,0,0,0,0,0,0,0,-1,741,603,-11.386,11.1364
-476,421,-11.5102,-11.8414,-0.000824087,0.00943607,-0.00439013,0.0110581,-0.00244611,-1.21688,0.00830835,0.0377821,748,603,-11.5102,11.8414
-469,421,-11.6735,-12.4678,-0.000717203,0.00734757,-0.00359368,0.00871654,-0.00208618,-1.20683,0.00661697,0.0312214,755,603,-11.6735,12.4678
-462,421,-11.6953,-13.3546,-0.000435432,0.00554184,-0.0028417,0.00667719,-0.00157078,-1.1907,0.00505703,0.0217467,762,603,-11.6952,13.3546
-455,421,-11.7423,-14.1222,-0.000127952,0.00396953,-0.00217859,0.00491137,-0.00106979,-1.16274,0.003683,0.0203482,769,603,-11.7423,14.1222
-448,421,-11.8056,-14.8762,0.000280388,0.00277398,-0.00167865,0.0036182,-0.000563837,-1.10482,0.00262038,0.0188411,776,603,-11.8056,14.8762
-441,421,-11.8126,-15.6804,0.000762709,0.00190418,-0.00132201,0.00277339,-0.000106498,-0.989172,0.00188543,0.0136914,783,603,-11.8125,15.6804
-434,421,-11.8616,-16.4874,0.00126528,0.00129821,-0.0011001,0.00238197,0.000181522,-0.79288,0.00153106,0.0102748,790,603,-11.8617,16.4874
-427,421,-11.8763,-17.2567,0.00184157,0.000999885,-0.0010564,0.00255786,0.000283591,-0.595845,0.00161901,0.0108935,797,603,-11.8764,17.2566
-420,421,-11.9058,-17.9799,0.00248185,0.000943329,-0.0011582,0.00310298,0.000322202,-0.492255,0.00197006,0.0121332,804,603,-11.9058,17.9799
-413,421,-11.9616,-18.7289,0.00317543,0.00130256,-0.00144354,0.00395966,0.000518324,-0.497665,0.00248509,0.0147039,811,603,-11.9616,18.7289
-406,421,-12.0336,-19.5391,0.00390331,0.00163727,-0.00182776,0.00492074,0.000619838,-0.507938,0.00309464,0.0207459,818,603,-12.0336,19.5391
-399,421,-11.9491,-20.4111,0.00469943,0.00204109,-0.00234662,0.00606716,0.000673355,-0.527717,0.00384005,0.0407683,825,603,-11.9491,20.4111
-392,421,-11.8908,-21.2847,0,0,0,0,0,0,0,-1,832,603,-11.8908,21.2847
-385,421,-11.5825,-18.8583,0,0,0,0,0,0,0,-1,839,603,-11.5825,18.8583
-378,421,-4.94733,-8.87909,0,0,0,0,0,0,0,-1,846,603,-4.94731,8.87906
-371,421,-5.65082,-7.01849,0,0,0,0,0,0,0,-1,853,603,-5.65082,7.0185
-364,421,-5.94189,-7.09875,0,0,0,0,0,0,0,-1,860,603,-5.94192,7.09878
-357,421,-7.62531,-8.26337,0,0,0,0,0,0,0,-1,867,603,-7.62532,8.26337
-350,421,-5.38019,-3.75024,0,0,0,0,0,0,0,-1,874,603,-5.38017,3.75026
-343,421,-6.22797,-2.57123,0,0,0,0,0,0,0,-1,881,603,-6.22798,2.57121
-336,421,-6.22882,-2.59369,0,0,0,0,0,0,0,-1,888,603,-6.22883,2.5937
-329,421,-4.50134,-1.49469,0,0,0,0,0,0,0,-1,895,603,-4.50137,1.49468
-322,421,-7.55817,1.13263,0,0,0,0,0,0,0,-1,902,603,-7.55818,-1.13263
-315,421,-4.16144,-1.96649,0,0,0,0,0,0,0,-1,909,603,-4.16146,1.9665
-308,421,0,0,0,0,0,0,0,0,0,-1,916,603,0,0
-301,421,0,0,0,0,0,0,0,0,0,-1,923,603,0,0
-294,421,0,0,0,0,0,0,0,0,0,-1,930,603,0,0
-287,421,0,0,0,0,0,0,0,0,0,-1,937,603,0,0
-280,421,0,0,0,0,0,0,0,0,0,-1,944,603,0,0
-273,421,0,0,0,0,0,0,0,0,0,-1,951,603,0,0
-266,421,0,0,0,0,0,0,0,0,0,-1,958,603,0,0
-259,421,0,0,0,0,0,0,0,0,0,-1,965,603,0,0
-252,421,0,0,0,0,0,0,0,0,0,-1,972,603,0,0
-245,421,0,0,0,0,0,0,0,0,0,-1,979,603,0,0
-238,421,0,0,0,0,0,0,0,0,0,-1,986,603,0,0
-231,421,0,0,0,0,0,0,0,0,0,-1,993,603,0,0
-224,421,0,0,0,0,0,0,0,0,0,-1,1000,603,0,0
-217,421,0,0,0,0,0,0,0,0,0,-1,1007,603,0,0
-210,421,0,0,0,0,0,0,0,0,0,-1,1014,603,0,0
-203,421,0,0,0,0,0,0,0,0,0,-1,1021,603,0,0
-196,421,0,0,0,0,0,0,0,0,0,-1,1028,603,0,0
-189,421,0,0,0,0,0,0,0,0,0,-1,1035,603,0,0
-182,421,0,0,0,0,0,0,0,0,0,-1,1042,603,0,0
-175,421,0,0,0,0,0,0,0,0,0,-1,1049,603,0,0
-168,421,0,0,0,0,0,0,0,0,0,-1,1056,603,0,0
-161,421,0,0,0,0,0,0,0,0,0,-1,1063,603,0,0
-154,421,0,0,0,0,0,0,0,0,0,-1,1070,603,0,0
-147,421,0,0,0,0,0,0,0,0,0,-1,1077,603,0,0
-140,421,0,0,0,0,0,0,0,0,0,-1,1084,603,0,0
-133,421,0,0,0,0,0,0,0,0,0,-1,1091,603,0,0
-126,421,0,0,0,0,0,0,0,0,0,-1,1098,603,0,0
-119,421,0,0,0,0,0,0,0,0,0,-1,1105,603,0,0
-112,421,0,0,0,0,0,0,0,0,0,-1,1112,603,0,0
-105,421,0,0,0,0,0,0,0,0,0,-1,1119,603,0,0
-98,421,0,0,0,0,0,0,0,0,0,-1,1126,603,0,0
-91,421,0,0,0,0,0,0,0,0,0,-1,1133,603,0,0
-84,421,0,0,0,0,0,0,0,0,0,-1,1140,603,0,0
-77,421,0,0,0,0,0,0,0,0,0,-1,1147,603,0,0
-70,421,0,0,0,0,0,0,0,0,0,-1,1154,603,0,0
-63,421,0,0,0,0,0,0,0,0,0,-1,1161,603,0,0
-56,421,0,0,0,0,0,0,0,0,0,-1,1168,603,0,0
-49,421,0,0,0,0,0,0,0,0,0,-1,1175,603,0,0
-42,421,0,0,0,0,0,0,0,0,0,-1,1182,603,0,0
-35,421,0,0,0,0,0,0,0,0,0,-1,1189,603,0,0
-28,421,0,0,0,0,0,0,0,0,0,-1,1196,603,0,0
-21,421,0,0,0,0,0,0,0,0,0,-1,1203,603,0,0
-14,421,0,0,0,0,0,0,0,0,0,-1,1210,603,0,0
-7,421,0,0,0,0,0,0,0,0,0,-1,1217,603,0,0
0,421,0,0,0,0,0,0,0,0,0,-1,1224,603,0,0
7,421,0,0,0,0,0,0,0,0,0,-1,1231,603,0,0
14,421,0,0,0,0,0,0,0,0,0,-1,1238,603,0,0
21,421,0,0,0,0,0,0,0,0,0,-1,1245,603,0,0
28,421,0,0,0,0,0,0,0,0,0,-1,1252,603,0,0
35,421,0,0,0,0,0,0,0,0,0,-1,1259,603,0,0
42,421,0,0,0,0,0,0,0,0,0,-1,1266,603,0,0
49,421,0,0,0,0,0,0,0,0,0,-1,1273,603,0,0
56,421,0,0,0,0,0,0,0,0,0,-1,1280,603,0,0
63,421,0,0,0,0,0,0,0,0,0,-1,1287,603,0,0
70,421,0,0,0,0,0,0,0,0,0,-1,1294,603,0,0
77,421,0,0,0,0,0,0,0,0,0,-1,1301,603,0,0
84,421,0,0,0,0,0,0,0,0,0,-1,1308,603,0,0
91,421,0,0,0,0,0,0,0,0,0,-1,1315,603,0,0
98,421,0,0,0,0,0,0,0,0,0,-1,1322,603,0,0
105,421,0,0,0,0,0,0,0,0,0,-1,1329,603,0,0
112,421,0,0,0,0,0,0,0,0,0,-1,1336,603,0,0
119,421,0,0,0,0,0,0,0,0,0,-1,1343,603,0,0
126,421,0,0,0,0,0,0,0,0,0,-1,1350,603,0,0
133,421,0,0,0,0,0,0,0,0,0,-1,1357,603,0,0
140,421,0,0,0,0,0,0,0,0,0,-1,1364,603,0,0
147,421,0,0,0,0,0,0,0,0,0,-1,1371,603,0,0
154,421,0,0,0,0,0,0,0,0,0,-1,1378,603,0,0
161,421,0,0,0,0,0,0,0,0,0,-1,1385,603,0,0
168,421,0,0,0,0,0,0,0,0,0,-1,1392,603,0,0
175,421,0,0,0,0,0,0,0,0,0,-1,1399,603,0,0
182,421,0,0,0,0,0,0,0,0,0,-1,1406,603,0,0
189,421,0,0,0,0,0,0,0,0,0,-1,1413,603,0,0
196,421,0,0,0,0,0,0,0,0,0,-1,1420,603,0,0
203,421,0,0,0,0,0,0,0,0,0,-1,1427,603,0,0
210,421,0,0,0,0,0,0,0,0,0,-1,1434,603,0,0
217,421,0,0,0,0,0,0,0,0,0,-1,1441,603,0,0
224,421,0,0,0,0,0,0,0,0,0,-1,1448,603,0,0
231,421,0,0,0,0,0,0,0,0,0,-1,1455,603,0,0
238,421,0,0,0,0,0,0,0,0,0,-1,1462,603,0,0
245,421,0,0,0,0,0,0,0,0,0,-1,1469,603,0,0
252,421,0,0,0,0,0,0,0,0,0,-1,1476,603,0,0
259,421,0,0,0,0,0,0,0,0,0,-1,1483,603,0,0
266,421,0,0,0,0,0,0,0,0,0,-1,1490,603,0,0
273,421,0,0,0,0,0,0,0,0,0,-1,1497,603,0,0
280,421,0,0,0,0,0,0,0,0,0,-1,1504,603,0,0
287,421,0,0,0,0,0,0,0,0,0,-1,1511,603,0,0
294,421,0,0,0,0,0,0,0,0,0,-1,1518,603,0,0
301,421,0,0,0,0,0,0,0,0,0,-1,1525,603,0,0
308,421,0,0,0,0,0,0,0,0,0,-1,1532,603,0,0
315,421,0,0,0,0,0,0,0,0,0,-1,1539,603,0,0
322,421,0,0,0,0,0,0,0,0,0,-1,1546,603,0,0
329,421,0,0,0,0,0,0,0,0,0,-1,1553,603,0,0
336,421,0,0,0,0,0,0,0,0,0,-1,1560,603,0,0
343,421,0,0,0,0,0,0,0,0,0,-1,1567,603,0,0
350,421,0,0,0,0,0,0,0,0,0,-1,1574,603,0,0
357,421,0,0,0,0,0,0,0,0,0,-1,1581,603,0,0
364,421,0,0,0,0,0,0,0,0,0,-1,1588,603,0,0
371,421,0,0,0,0,0,0,0,0,0,-1,1595,603,0,0
378,421,0,0,0,0,0,0,0,0,0,-1,1602,603,0,0
385,421,0,0,0,0,0,0,0,0,0,-1,1609,603,0,0
392,421,0,0,0,0,0,0,0,0,0,-1,1616,603,0,0
399,421,0,0,0,0,0,0,0,0,0,-1,1623,603,0,0
406,421,0,0,0,0,0,0,0,0,0,-1,1630,603,0,0
413,421,0,0,0,0,0,0,0,0,0,-1,1637,603,0,0
420,421,0,0,0,0,0,0,0,0,0,-1,1644,603,0,0
427,421,0,0,0,0,0,0,0,0,0,-1,1651,603,0,0
434,421,3.68176,-0.0327759,0,0,0,0,0,0,0,-1,1658,603,3.6818,0.0328037
441,421,8.06689,0.527832,0,0,0,0,0,0,0,-1,1665,603,8.06693,-0.527851
448,421,6.93921,0.802246,0,0,0,0,0,0,0,-1,1672,603,6.93923,-0.802251
455,421,7.29456,2.14825,0,0,0,0,0,0,0,-1,1679,603,7.29461,-2.14827
462,421,7.86902,3.53174,0,0,0,0,0,0,0,-1,1686,603,7.869,-3.53173
469,421,8.06604,2.81213,0,0,0,0,0,0,0,-1,1693,603,8.06606,-2.81212
476,421,8.26306,2.09253,0,0,0,0,0,0,0,-1,1700,603,8.26312,-2.09251
483,421,8.05322,0.798096,0,0,0,0,0,0,0,-1,1707,603,8.05323,-0.7981
490,421,7.51233,0.213074,0,0,0,0,0,0,0,-1,1714,603,7.51235,-0.213043
497,421,7.49634,-2.86688,0,0,0,0,0,0,0,-1,1721,603,7.4963,2.86688
504,421,6.90491,-2.18671,0,0,0,0,0,0,0,-1,1728,603,6.90491,2.18669
511,421,6.31348,-1.50653,0,0,0,0,0,0,0,-1,1735,603,6.31353,1.5065
518,421,6.27588,-2.49878,0,0,0,0,0,0,0,-1,1742,603,6.2759,2.4988
525,421,25.6025,-19.5309,0,0,0,0,0,0,0,-1,1749,603,25.6025,19.531
532,421,25.6843,-18.5736,0.00382479,0.00174576,0.00192339,0.0049716,0.000598951,0.537653,0.00313389,0.0430748,1756,603,25.6843,18.5736
539,421,25.7401,-17.756,0.00322185,0.00162897,0.00156249,0.00417918,0.000671645,0.549701,0.00259141,0.0246911,1763,603,25.7401,17.7561
546,421,25.7119,-17.0172,0.0026778,0.00141408,0.00127108,0.00346541,0.000626471,0.554735,0.00213235,0.0144611,1770,603,25.7119,17.0172
553,421,25.6685,-16.207,0.00216427,0.0014135,0.0010936,0.00294511,0.000632654,0.620071,0.00179018,0.0136622,1777,603,25.6685,16.207
560,421,25.6318,-15.4022,0.00170968,0.0014733,0.00103183,0.00263006,0.000552915,0.728375,0.00160121,0.0154082,1784,603,25.6318,15.4023
567,421,25.6066,-14.6337,0.00140564,0.00170843,0.00115441,0.00272133,0.000392736,0.850598,0.00169851,0.0176922,1791,603,25.6065,14.6336
574,421,25.5754,-13.8596,0.00125228,0.00206534,0.00139779,0.00311452,0.000203106,0.926913,0.00201206,0.0215107,1798,603,25.5755,13.8596
581,421,25.5328,-13.0453,0.00127013,0.00255794,0.00181434,0.00383924,-1.11776e-05,0.955915,0.00256323,0.0227124,1805,603,25.5328,13.0453
588,421,25.4745,-12.2817,0.00151739,0.00333501,0.00245577,0.00504473,-0.000192337,0.962619,0.00342907,0.0152623,1812,603,25.4745,12.2817
595,421,25.4628,-11.4626,0.00197292,0.00432642,0.003279,0.00663343,-0.00033409,0.957678,0.00453775,0.0207846,1819,603,25.4628,11.4626
602,421,25.4525,-10.6014,0,0,0,0,0,0,0,-1,1826,603,25.4525,10.6014
609,421,22.8762,-8.37524,0,0,0,0,0,0,0,-1,1833,603,22.8762,8.37525
616,421,17.7633,-4.72491,0,0,0,0,0,0,0,-1,1840,603,17.7633,4.7249
623,421,6.19885,0.376648,0,0,0,0,0,0,0,-1,1847,603,6.19881,-0.376624
630,421,6.54993,0.778748,0,0,0,0,0,0,0,-1,1854,603,6.54991,-0.778744
637,421,3.74512,1.65405,0,0,0,0,0,0,0,-1,1861,603,3.74517,-1.65407
644,421,3.58081,0.354675,0,0,0,0,0,0,0,-1,1868,603,3.58082,-0.354704
651,421,3.28687,3.66351,0,0,0,0,0,0,0,-1,1875,603,3.28688,-3.66353
658,421,0,0,0,0,0,0,0,0,0,-1,1882,603,0,0
665,421,0,0,0,0,0,0,0,0,0,-1,1889,603,0,0
672,421,0,0,0,0,0,0,0,0,0,-1,1896,603,0,0
679,421,0,0,0,0,0,0,0,0,0,-1,1903,603,0,0
686,421,0,0,0,0,0,0,0,0,0,-1,1910,603,0,0
693,421,0,0,0,0,0,0,0,0,0,-1,1917,603,0,0
700,421,0,0,0,0,0,0,0,0,0,-1,1924,603,0,0
707,421,0,0,0,0,0,0,0,0,0,-1,1931,603,0,0
714,421,0,0,0,0,0,0,0,0,0,-1,1938,603,0,0
721,421,0,0,0,0,0,0,0,0,0,-1,1945,603,0,0
728,421,0,0,0,0,0,0,0,0,0,-1,1952,603,0,0
735,421,0,0,0,0,0,0,0,0,0,-1,1959,603,0,0
742,421,0,0,0,0,0,0,0,0,0,-1,1966,603,0,0
749,421,0,0,0,0,0,0,0,0,0,-1,1973,603,0,0
756,421,0,0,0,0,0,0,0,0,0,-1,1980,603,0,0
763,421,0,0,0,0,0,0,0,0,0,-1,1987,603,0,0
770,421,0,0,0,0,0,0,0,0,0,-1,1994,603,0,0
777,421,0,0,0,0,0,0,0,0,0,-1,2001,603,0,0
784,421,0,0,0,0,0,0,0,0,0,-1,2008,603,0,0
791,421,0,0,0,0,0,0,0,0,0,-1,2015,603,0,0
798,421,0,0,0,0,0,0,0,0,0,-1,2022,603,0,0
805,421,0,0,0,0,0,0,0,0,0,-1,2029,603,0,0
812,421,0,0,0,0,0,0,0,0,0,-1,2036,603,0,0
-700,414,0,0,0,0,0,0,0,0,0,-1,524,610,0,0
-693,414,0,0,0,0,0,0,0,0,0,-1,531,610,0,0
-686,414,0,0,0,0,0,0,0,0,0,-1,538,610,0,0
-679,414,0,0,0,0,0,0,0,0,0,-1,545,610,0,0
-672,414,0,0,0,0,0,0,0,0,0,-1,552,610,0,0
-665,414,0,0,0,0,0,0,0,0,0,-1,559,610,0,0
-658,414,0,0,0,0,0,0,0,0,0,-1,566,610,0,0
-651,414,0,0,0,0,0,0,0,0,0,-1,573,610,0,0
-644,414,0,0,0,0,0,0,0,0,0,-1,580,610,0,0
-637,414,0,0,0,0,0,0,0,0,0,-1,587,610,0,0
-630,414,0,0,0,0,0,0,0,0,0,-1,594,610,0,0
-623,414,0,0,0,0,0,0,0,0,0,-1,601,610,0,0
-616,414,0,0,0,0,0,0,0,0,0,-1,608,610,0,0
-609,414,0,0,0,0,0,0,0,0,0,-1,615,610,0,0
-602,414,0,0,0,0,0,0,0,0,0,-1,622,610,0,0
-595,414,0,0,0,0,0,0,0,0,0,-1,629,610,0,0
-588,414,0,0,0,0,0,0,0,0,0,-1,636,610,0,0
-581,414,0,0,0,0,0,0,0,0,0,-1,643,610,0,0
-574,414,0,0,0,0,0,0,0,0,0,-1,650,610,0,0
-567,414,0,0,0,0,0,0,0,0,0,-1,657,610,0,0
-560,414,0,0,0,0,0,0,0,0,0,-1,664,610,0,0
-553,414,0,0,0,0,0,0,0,0,0,-1,671,610,0,0
-546,414,0,0,0,0,0,0,0,0,0,-1,678,610,0,0
-539,414,-7.50146,5.65619,0,0,0,0,0,0,0,-1,685,610,-7.50149,-5.65617
-532,414,-8.15204,4.01605,0,0,0,0,0,0,0,-1,692,610,-8.15206,-4.01606
-525,414,-3.47137,-3.27924,0,0,0,0,0,0,0,-1,699,610,-3.47136,3.27922
-518,414,-4.12909,-4.36908,0,0,0,0,0,0,0,-1,706,610,-4.12909,4.36909
-511,414,-3.92542,-4.97021,0,0,0,0,0,0,0,-1,713,610,-3.92542,4.97023
-504,414,-9.35394,-5.49896,0,0,0,0,0,0,0,-1,720,610,-9.35394,5.49898
-497,414,-9.67627,-6.54761,0,0,0,0,0,0,0,-1,727,610,-9.6763,6.5476
-490,414,-10.9006,-8.3277,0,0,0,0,0,0,0,-1,734,610,-10.9006,8.3277
-483,414,-12.2473,-10.9927,0,0,0,0,0,0,0,-1,741,610,-12.2473,10.9928
-476,414,-12.4009,-11.7632,-0.000491351,0.00691125,-0.00321409,0.00811199,-0.00169209,-1.21327,0.0060514,0.0233216,748,610,-12.4009,11.7633
-469,414,-12.4536,-12.5126,-0.000416682,0.00531428,-0.00263339,0.00634056,-0.00144295,-1.19919,0.00478116,0.0145346,755,610,-12.4535,12.5127
-462,414,-12.4708,-13.3259,-0.000169678,0.00389733,-0.0020852,0.00477642,-0.00104877,-1.17182,0.00358537,0.0225422,762,610,-12.4708,13.3258
-455,414,-12.552,-14.0903,0.000145465,0.00269846,-0.00162374,0.00348738,-0.000643461,-1.11852,0.00256644,0.0256838,769,610,-12.552,14.0903
-448,414,-12.5999,-14.8517,0.000598357,0.00178956,-0.00129495,0.00261931,-0.000231393,-1.00094,0.00182823,0.0246751,776,610,-12.5999,14.8518
-441,414,-12.5826,-15.6672,0.00113467,0.00114703,-0.0010797,0.00222057,6.11291e-05,-0.78826,0.00146043,0.0168725,783,610,-12.5826,15.6672
-434,414,-12.6464,-16.4352,0.00171651,0.000748384,-0.000990562,0.00233496,0.000129937,-0.558125,0.00151519,0.00977087,790,610,-12.6464,16.4352
-427,414,-12.6617,-17.1839,0.00239123,0.000659658,-0.00108684,0.00291498,0.000135908,-0.449064,0.00189964,0.0113934,797,610,-12.6617,17.1839
-420,414,-12.6916,-17.9327,0.00313143,0.000810407,-0.00130309,0.00371587,0.000225972,-0.421604,0.00240546,0.0109472,804,610,-12.6916,17.9327
-413,414,-12.7525,-18.7134,0.00404137,0.00169589,-0.00188047,0.00508482,0.000652442,-0.506588,0.00319468,0.01103,811,610,-12.7525,18.7134
-406,414,-12.7467,-19.6194,0.00497965,0.00238582,-0.00254607,0.00654008,0.000825385,-0.549836,0.00411263,0.0323672,818,610,-12.7467,19.6195
-399,414,-12.7283,-20.5681,0,0,0,0,0,0,0,-1,825,610,-12.7282,20.5681
-392,414,-9.43781,-14.5624,0,0,0,0,0,0,0,-1,832,610,-9.43779,14.5624
-385,414,-8.14691,-13.0653,0,0,0,0,0,0,0,-1,839,610,-8.14692,13.0653
-378,414,-8.04907,-11.3331,0,0,0,0,0,0,0,-1,846,610,-8.04905,11.3331
-371,414,-5.20886,-8.05151,0,0,0,0,0,0,0,-1,853,610,-5.20887,8.05153
-364,414,-6.76282,-6.58759,0,0,0,0,0,0,0,-1,860,610,-6.7628,6.58756
-357,414,-9.08685,-8.86188,0,0,0,0,0,0,0,-1,867,610,-9.08688,8.86187
-350,414,-6.4502,-2.41821,0,0,0,0,0,0,0,-1,874,610,-6.45021,2.41822
-343,414,-6.80249,-2.32117,0,0,0,0,0,0,0,-1,881,610,-6.80252,2.32116
-336,414,-7.11017,-2.52026,0,0,0,0,0,0,0,-1,888,610,-7.11016,2.52026
-329,414,-7.59747,-2.70313,0,0,0,0,0,0,0,-1,895,610,-7.59747,2.70315
-322,414,-4.42236,-1.29163,0,0,0,0,0,0,0,-1,902,610,-4.42238,1.2916
-315,414,0,0,0,0,0,0,0,0,0,-1,909,610,0,0
-308,414,0,0,0,0,0,0,0,0,0,-1,916,610,0,0
-301,414,0,0,0,0,0,0,0,0,0,-1,923,610,0,0
-294,414,0,0,0,0,0,0,0,0,0,-1,930,610,0,0
-287,414,0,0,0,0,0,0,0,0,0,-1,937,610,0,0
-280,414,0,0,0,0,0,0,0,0,0,-1,944,610,0,0
-273,414,0,0,0,0,0,0,0,0,0,-1,951,610,0,0
-266,414,0,0,0,0,0,0,0,0,0,-1,958,610,0,0
-259,414,0,0,0,0,0,0,0,0,0,-1,965,610,0,0
-252,414,0,0,0,0,0,0,0,0,0,-1,972,610,0,0
-245,414,0,0,0,0,0,0,0,0,0,-1,979,610,0,0
-238,414,0,0,0,0,0,0,0,0,0,-1,986,610,0,0
-231,414,0,0,0,0,0,0,0,0,0,-1,993,610,0,0
-224,414,0,0,0,0,0,0,0,0,0,-1,1000,610,0,0
-217,414,0,0,0,0,0,0,0,0,0,-1,1007,610,0,0
-210,414,0,0,0,0,0,0,0,0,0,-1,1014,610,0,0
-203,414,0,0,0,0,0,0,0,0,0,-1,1021,610,0,0
-196,414,0,0,0,0,0,0,0,0,0,-1,1028,610,0,0
-189,414,0,0,0,0,0,0,0,0,0,-1,1035,610,0,0
-182,414,0,0,0,0,0,0,0,0,0,-1,1042,610,0,0
-175,414,0,0,0,0,0,0,0,0,0,-1,1049,610,0,0
-168,414,0,0,0,0,0,0,0,0,0,-1,1056,610,0,0
-161,414,0,0,0,0,0,0,0,0,0,-1,1063,610,0,0
-154,414,0,0,0,0,0,0,0,0,0,-1,1070,610,0,0
-147,414,0,0,0,0,0,0,0,0,0,-1,1077,610,0,0
-140,414,0,0,0,0,0,0,0,0,0,-1,1084,610,0,0
-133,414,0,0,0,0,0,0,0,0,0,-1,1091,610,0,0
-126,414,0,0,0,0,0,0,0,0,0,-1,1098,610,0,0
-119,414,0,0,0,0,0,0,0,0,0,-1,1105,610,0,0
-112,414,0,0,0,0,0,0,0,0,0,-1,1112,610,0,0
-105,414,0,0,0,0,0,0,0,0,0,-1,1119,610,0,0
-98,414,0,0,0,0,0,0,0,0,0,-1,1126,610,0,0
-91,414,0,0,0,0,0,0,0,0,0,-1,1133,610,0,0
-84,414,0,0,0,0,0,0,0,0,0,-1,1140,610,0,0
-77,414,0,0,0,0,0,0,0,0,0,-1,1147,610,0,0
-70,414,0,0,0,0,0,0,0,0,0,-1,1154,610,0,0
-63,414,0,0,0,0,0,0,0,0,0,-1,1161,610,0,0
-56,414,0,0,0,0,0,0,0,0,0,-1,1168,610,0,0
-49,414,0,0,0,0,0,0,0,0,0,-1,1175,610,0,0
-42,414,0,0,0,0,0,0,0,0,0,-1,1182,610,0,0
-35,414,0,0,0,0,0,0,0,0,0,-1,1189,610,0,0
-28,414,0,0,0,0,0,0,0,0,0,-1,1196,610,0,0
-21,414,0,0,0,0,0,0,0,0,0,-1,1203,610,0,0
-14,414,0,0,0,0,0,0,0,0,0,-1,1210,610,0,0
-7,414,0,0,0,0,0,0,0,0,0,-1,1217,610,0,0
0,414,0,0,0,0,0,0,0,0,0,-1,1224,610,0,0
7,414,0,0,0,0,0,0,0,0,0,-1,1231,610,0,0
14,414,0,0,0,0,0,0,0,0,0,-1,1238,610,0,0
21,414,0,0,0,0,0,0,0,0,0,-1,1245,610,0,0
28,414,0,0,0,0,0,0,0,0,0,-1,1252,610,0,0
35,414,0,0,0,0,0,0,0,0,0,-1,1259,610,0,0
42,414,0,0,0,0,0,0,0,0,0,-1,1266,610,0,0
49,414,0,0,0,0,0,0,0,0,0,-1,1273,610,0,0
56,414,0,0,0,0,0,0,0,0,0,-1,1280,610,0,0
63,414,0,0,0,0,0,0,0,0,0,-1,1287,610,0,0
70,414,0,0,0,0,0,0,0,0,0,-1,1294,610,0,0
77,414,0,0,0,0,0,0,0,0,0,-1,1301,610,0,0
84,414,0,0,0,0,0,0,0,0,0,-1,1308,610,0,0
91,414,0,0,0,0,0,0,0,0,0,-1,1315,610,0,0
98,414,0,0,0,0,0,0,0,0,0,-1,1322,610,0,0
105,414,0,0,0,0,0,0,0,0,0,-1,1329,610,0,0
112,414,0,0,0,0,0,0,0,0,0,-1,1336,610,0,0
119,414,0,0,0,0,0,0,0,0,0,-1,1343,610,0,0
126,414,0,0,0,0,0,0,0,0,0,-1,1350,610,0,0
133,414,0,0,0,0,0,0,0,0,0,-1,1357,610,0,0
140,414,0,0,0,0,0,0,0,0,0,-1,1364,610,0,0
147,414,0,0,0,0,0,0,0,0,0,-1,1371,610,0,0
154,414,0,0,0,0,0,0,0,0,0,-1,1378,610,0,0
161,414,0,0,0,0,0,0,0,0,0,-1,1385,610,0,0
168,414,0,0,0,0,0,0,0,0,0,-1,1392,610,0,0
175,414,0,0,0,0,0,0,0,0,0,-1,1399,610,0,0
182,414,0,0,0,0,0,0,0,0,0,-1,1406,610,0,0
189,414,0,0,0,0,0,0,0,0,0,-1,1413,610,0,0
196,414,0,0,0,0,0,0,0,0,0,-1,1420,610,0,0
203,414,0,0,0,0,0,0,0,0,0,-1,1427,610,0,0
210,414,0,0,0,0,0,0,0,0,0,-1,1434,610,0,0
217,414,0,0,0,0,0,0,0,0,0,-1,1441,610,0,0
224,414,0,0,0,0,0,0,0,0,0,-1,1448,610,0,0
231,414,0,0,0,0,0,0,0,0,0,-1,1455,610,0,0
238,414,0,0,0,0,0,0,0,0,0,-1,1462,610,0,0
245,414,0,0,0,0,0,0,0,0,0,-1,1469,610,0,0
252,414,0,0,0,0,0,0,0,0,0,-1,1476,610,0,0
259,414,0,0,0,0,0,0,0,0,0,-1,1483,610,0,0
266,414,0,0,0,0,0,0,0,0,0,-1,1490,610,0,0
273,414,0,0,0,0,0,0,0,0,0,-1,1497,610,0,0
280,414,0,0,0,0,0,0,0,0,0,-1,1504,610,0,0
287,414,0,0,0,0,0,0,0,0,0,-1,1511,610,0,0
294,414,0,0,0,0,0,0,0,0,0,-1,1518,610,0,0
301,414,0,0,0,0,0,0,0,0,0,-1,1525,610,0,0
308,414,0,0,0,0,0,0,0,0,0,-1,1532,610,0,0
315,414,0,0,0,0,0,0,0,0,0,-1,1539,610,0,0
322,414,0,0,0,0,0,0,0,0,0,-1,1546,610,0,0
329,414,0,0,0,0,0,0,0,0,0,-1,1553,610,0,0
336,414,0,0,0,0,0,0,0,0,0,-1,1560,610,0,0
343,414,0,0,0,0,0,0,0,0,0,-1,1567,610,0,0
350,414,0,0,0,0,0,0,0,0,0,-1,1574,610,0,0
357,414,0,0,0,0,0,0,0,0,0,-1,1581,610,0,0
364,414,0,0,0,0,0,0,0,0,0,-1,1588,610,0,0
371,414,0,0,0,0,0,0,0,0,0,-1,1595,610,0,0
378,414,0,0,0,0,0,0,0,0,0,-1,1602,610,0,0
385,414,0,0,0,0,0,0,0,0,0,-1,1609,610,0,0
392,414,0,0,0,0,0,0,0,0,0,-1,1616,610,0,0
399,414,0,0,0,0,0,0,0,0,0,-1,1623,610,0,0
406,414,0,0,0,0,0,0,0,0,0,-1,1630,610,0,0
413,414,0,0,0,0,0,0,0,0,0,-1,1637,610,0,0
420,414,0,0,0,0,0,0,0,0,0,-1,1644,610,0,0
427,414,0,0,0,0,0,0,0,0,0,-1,1651,610,0,0
434,414,0,0,0,0,0,0,0,0,0,-1,1658,610,0,0
441,414,7.84375,0.584412,0,0,0,0,0,0,0,-1,1665,610,7.84379,-0.584394
448,414,7.40808,1.25446,0,0,0,0,0,0,0,-1,1672,610,7.40807,-1.25446
455,414,6.3512,1.73846,0,0,0,0,0,0,0,-1,1679,610,6.3512,-1.73847
462,414,8.18103,3.22113,0,0,0,0,0,0,0,-1,1686,610,8.18108,-3.22112
469,414,8.38513,2.49579,0,0,0,0,0,0,0,-1,1693,610,8.38516,-2.49576
476,414,8.64099,1.71161,0,0,0,0,0,0,0,-1,1700,610,8.64097,-1.71164
483,414,8.62744,0.687622,0,0,0,0,0,0,0,-1,1707,610,8.62749,-0.687615
490,414,8.38831,-0.0302734,0,0,0,0,0,0,0,-1,1714,610,8.38835,0.0302913
497,414,4.71094,-0.110046,0,0,0,0,0,0,0,-1,1721,610,4.71089,0.110024
504,414,7.19568,-1.43835,0,0,0,0,0,0,0,-1,1728,610,7.19563,1.43836
511,414,5.94153,-1.28772,0,0,0,0,0,0,0,-1,1735,610,5.94151,1.28769
518,414,4.53381,-0.0996704,0,0,0,0,0,0,0,-1,1742,610,4.53378,0.0996819
525,414,6.18811,-1.64056,0,0,0,0,0,0,0,-1,1749,610,6.18814,1.64055
532,414,26.4133,-18.6682,0,0,0,0,0,0,0,-1,1756,610,26.4133,18.6681
539,414,26.4934,-17.7751,0,0,0,0,0,0,0,-1,1763,610,26.4934,17.7751
546,414,26.4884,-16.9769,0.00311947,0.00163678,0.00142261,0.00398231,0.000773944,0.545198,0.00243819,0.0173307,1770,610,26.4884,16.9769
553,414,26.4794,-16.1648,0.00246556,0.00148481,0.00114072,0.00321684,0.000733534,0.5824,0.00194667,0.0140471,1777,610,26.4793,16.1648
560,414,26.4547,-15.3658,0.00189863,0.00138611,0.000982303,0.00265755,0.000627189,0.657802,0.00160404,0.0155992,1784,610,26.4547,15.3659
567,414,26.3977,-14.5883,0.00149719,0.00144008,0.00100349,0.00247253,0.000464736,0.771174,0.00151735,0.0253951,1791,610,26.3977,14.5882
574,414,26.3374,-13.8142,0.00129404,0.00166069,0.00117502,0.00266661,0.00028813,0.862783,0.0016899,0.0246982,1798,610,26.3374,13.8142
581,414,26.3064,-13.0208,0.00125817,0.00202194,0.00150345,0.00319124,8.88627e-05,0.909771,0.0020985,0.0217996,1805,610,26.3064,13.0208
588,414,26.2817,-12.2538,0.00143917,0.00267808,0.00204099,0.00419154,-7.43e-05,0.932734,0.00281945,0.0208698,1812,610,26.2817,12.2538
595,414,26.2046,-11.405,0.00186593,0.00355333,0.00277559,0.00561062,-0.000191351,0.932946,0.0038058,0.0219546,1819,610,26.2046,11.405
602,414,26.1638,-10.6166,0.0025131,0.00475537,0.00371701,0.00751664,-0.000248177,0.93187,0.00509584,0.0265533,1826,610,26.1638,10.6166
609,414,26.1418,-9.77295,0,0,0,0,0,0,0,-1,1833,610,26.1418,9.77293
616,414,26.4304,-8.6521,0,0,0,0,0,0,0,-1,1840,610,26.4304,8.65209
623,414,9.6969,0.0378418,0,0,0,0,0,0,0,-1,1847,610,9.69685,-0.0378644
630,414,5.47144,0.499329,0,0,0,0,0,0,0,-1,1854,610,5.47142,-0.499303
637,414,8.36707,4.16278,0,0,0,0,0,0,0,-1,1861,610,8.36709,-4.16278
644,414,5.87073,1.51422,0,0,0,0,0,0,0,-1,1868,610,5.87076,-1.51424
651,414,3.6377,0.820557,0,0,0,0,0,0,0,-1,1875,610,3.6377,-0.820543
658,414,2.29761,3.87323,0,0,0,0,0,0,0,-1,1882,610,2.29758,-3.87325
665,414,0,0,0,0,0,0,0,0,0,-1,1889,610,0,0
672,414,0,0,0,0,0,0,0,0,0,-1,1896,610,0,0
679,414,0,0,0,0,0,0,0,0,0,-1,1903,610,0,0
686,414,0,0,0,0,0,0,0,0,0,-1,1910,610,0,0
693,414,0,0,0,0,0,0,0,0,0,-1,1917,610,0,0
700,414,0,0,0,0,0,0,0,0,0,-1,1924,610,0,0
707,414,0,0,0,0,0,0,0,0,0,-1,1931,610,0,0
714,414,0,0,0,0,0,0,0,0,0,-1,1938,610,0,0
721,414,0,0,0,0,0,0,0,0,0,-1,1945,610,0,0
728,414,0,0,0,0,0,0,0,0,0,-1,1952,610,0,0
735,414,0,0,0,0,0,0,0,0,0,-1,1959,610,0,0
742,414,0,0,0,0,0,0,0,0,0,-1,1966,610,0,0
749,414,0,0,0,0,0,0,0,0,0,-1,1973,610,0,0
756,414,0,0,0,0,0,0,0,0,0,-1,1980,610,0,0
763,414,0,0,0,0,0,0,0,0,0,-1,1987,610,0,0
770,414,0,0,0,0,0,0,0,0,0,-1,1994,610,0,0
777,414,0,0,0,0,0,0,0,0,0,-1,2001,610,0,0
784,414,0,0,0,0,0,0,0,0,0,-1,2008,610,0,0
791,414,0,0,0,0,0,0,0,0,0,-1,2015,610,0,0
798,414,0,0,0,0,0,0,0,0,0,-1,2022,610,0,0
805,414,0,0,0,0,0,0,0,0,0,-1,2029,610,0,0
812,414,0,0,0,0,0,0,0,0,0,-1,2036,610,0,0
-700,407,0,0,0,0,0,0,0,0,0,-1,524,617,0,0
-693,407,0,0,0,0,0,0,0,0,0,-1,531,617,0,0
-686,407,0,0,0,0,0,0,0,0,0,-1,538,617,0,0
-679,407,0,0,0,0,0,0,0,0,0,-1,545,617,0,0
-672,407,0,0,0,0,0,0,0,0,0,-1,552,617,0,0
-665,407,0,0,0,0,0,0,0,0,0,-1,559,617,0,0
-658,407,0,0,0,0,0,0,0,0,0,-1,566,617,0,0
-651,407,0,0,0,0,0,0,0,0,0,-1,573,617,0,0
-644,407,0,0,0,0,0,0,0,0,0,-1,580,617,0,0
-637,407,0,0,0,0,0,0,0,0,0,-1,587,617,0,0
-630,407,0,0,0,0,0,0,0,0,0,-1,594,617,0,0
-623,407,0,0,0,0,0,0,0,0,0,-1,601,617,0,0
-616,407,0,0,0,0,0,0,0,0,0,-1,608,617,0,0
-609,407,0,0,0,0,0,0,0,0,0,-1,615,617,0,0
-602,407,0,0,0,0,0,0,0,0,0,-1,622,617,0,0
-595,407,0,0,0,0,0,0,0,0,0,-1,629,617,0,0
-588,407,0,0,0,0,0,0,0,0,0,-1,636,617,0,0
-581,407,0,0,0,0,0,0,0,0,0,-1,643,617,0,0
-574,407,0,0,0,0,0,0,0,0,0,-1,650,617,0,0
-567,407,0,0,0,0,0,0,0,0,0,-1,657,617,0,0
-560,407,0,0,0,0,0,0,0,0,0,-1,664,617,0,0
-553,407,0,0,0,0,0,0,0,0,0,-1,671,617,0,0
-546,407,-8.54517,-0.658142,0,0,0,0,0,0,0,-1,678,617,-8.54515,0.658112
-539,407,-6.09442,-1.01154,0,0,0,0,0,0,0,-1,685,617,-6.09441,1.01155
-532,407,-7.75665,1.62152,0,0,0,0,0,0,0,-1,692,617,-7.75667,-1.62154
-525,407,-3.78247,-2.67639,0,0,0,0,0,0,0,-1,699,617,-3.78246,2.67638
-518,407,-5.013,-5.87323,0,0,0,0,0,0,0,-1,706,617,-5.013,5.87324
-511,407,-9.42743,-4.94189,0,0,0,0,0,0,0,-1,713,617,-9.42745,4.94191
-504,407,-10.8291,-8.05927,0,0,0,0,0,0,0,-1,720,617,-10.8291,8.05927
-497,407,-9.84467,-6.81641,0,0,0,0,0,0,0,-1,727,617,-9.84468,6.8164
-490,407,-13.4347,-10.1143,0,0,0,0,0,0,0,-1,734,617,-13.4347,10.1143
-483,407,-13.0985,-10.8362,0,0,0,0,0,0,0,-1,741,617,-13.0985,10.8362
-476,407,-13.1567,-11.6566,-0.000156248,0.00488424,-0.00233125,0.00579712,-0.00106913,-1.19757,0.00426602,0.0160422,748,617,-13.1567,11.6565
-469,407,-13.209,-12.4403,-9.51993e-05,0.0036711,-0.00189518,0.00445965,-0.000883746,-1.17651,0.00330727,0.0127787,755,617,-13.2091,12.4403
-462,407,-13.2611,-13.2527,0.000130054,0.00256551,-0.00149303,0.00327444,-0.000578868,-1.12749,0.00239931,0.019752,762,617,-13.2611,13.2527
-455,407,-13.3313,-14.0766,0.00045898,0.00166885,-0.00118645,0.00239569,-0.000267855,-1.02115,0.00169348,0.0222053,769,617,-13.3313,14.0766
-448,407,-13.3519,-14.8356,0.000952101,0.00100174,-0.000997608,0.00197484,-2.09943e-05,-0.797836,0.00132361,0.0197106,776,617,-13.3518,14.8355
-441,407,-13.3653,-15.5867,0.00154277,0.000555889,-0.000907092,0.00208194,1.67112e-05,-0.536294,0.00138243,0.0147275,783,617,-13.3653,15.5867
-434,407,-13.4375,-16.3365,0.00221694,0.000345369,-0.000947197,0.00261265,-5.03389e-05,-0.395729,0.00175879,0.010454,790,617,-13.4375,16.3365
-427,407,-13.455,-17.1125,0.00300286,0.000429801,-0.00118261,0.00346382,-3.11574e-05,-0.371667,0.00231967,0.0113974,797,617,-13.455,17.1125
-420,407,-13.458,-17.8948,0.00385455,0.000737801,-0.00151187,0.00446741,0.000124934,-0.385127,0.00293752,0.0114152,804,617,-13.458,17.8948
-413,407,-13.4812,-18.655,0.00501861,0.00213972,-0.00241116,0.00638731,0.000771018,-0.516295,0.00402589,0.0167222,811,617,-13.4812,18.655
-406,407,-13.4566,-19.4175,0,0,0,0,0,0,0,-1,818,617,-13.4566,19.4175
-399,407,-12.7393,-18.566,0,0,0,0,0,0,0,-1,825,617,-12.7392,18.566
-392,407,-8.33612,-12.195,0,0,0,0,0,0,0,-1,832,617,-8.33611,12.195
-385,407,-7.65765,-10.7744,0,0,0,0,0,0,0,-1,839,617,-7.65767,10.7744
-378,407,-6.08655,-7.42291,0,0,0,0,0,0,0,-1,846,617,-6.08652,7.42292
-371,407,-7.4007,-5.79449,0,0,0,0,0,0,0,-1,853,617,-7.40072,5.79447
-364,407,-10.0638,-6.6228,0,0,0,0,0,0,0,-1,860,617,-10.0639,6.62279
-357,407,-6.64447,-1.83337,0,0,0,0,0,0,0,-1,867,617,-6.64446,1.8334
-350,407,-7.03351,-1.77551,0,0,0,0,0,0,0,-1,874,617,-7.03349,1.77551
-343,407,-7.40967,-1.95026,0,0,0,0,0,0,0,-1,881,617,-7.40969,1.95026
-336,407,-8.10229,-2.40662,0,0,0,0,0,0,0,-1,888,617,-8.10229,2.40664
-329,407,-8.81232,-2.76331,0,0,0,0,0,0,0,-1,895,617,-8.81235,2.76331
-322,407,0,0,0,0,0,0,0,0,0,-1,902,617,0,0
-315,407,0,0,0,0,0,0,0,0,0,-1,909,617,0,0
-308,407,0,0,0,0,0,0,0,0,0,-1,916,617,0,0
-301,407,0,0,0,0,0,0,0,0,0,-1,923,617,0,0
-294,407,0,0,0,0,0,0,0,0,0,-1,930,617,0,0
-287,407,0,0,0,0,0,0,0,0,0,-1,937,617,0,0
-280,407,0,0,0,0,0,0,0,0,0,-1,944,617,0,0
-273,407,0,0,0,0,0,0,0,0,0,-1,951,617,0,0
-266,407,0,0,0,0,0,0,0,0,0,-1,958,617,0,0
-259,407,0,0,0,0,0,0,0,0,0,-1,965,617,0,0
-252,407,0,0,0,0,0,0,0,0,0,-1,972,617,0,0
-245,407,0,0,0,0,0,0,0,0,0,-1,979,617,0,0
-238,407,0,0,0,0,0,0,0,0,0,-1,986,617,0,0
-231,407,0,0,0,0,0,0,0,0,0,-1,993,617,0,0
-224,407,0,0,0,0,0,0,0,0,0,-1,1000,617,0,0
-217,407,0,0,0,0,0,0,0,0,0,-1,1007,617,0,0
-210,407,0,0,0,0,0,0,0,0,0,-1,1014,617,0,0
-203,407,0,0,0,0,0,0,0,0,0,-1,1021,617,0,0
-196,407,0,0,0,0,0,0,0,0,0,-1,1028,617,0,0
-189,407,0,0,0,0,0,0,0,0,0,-1,1035,617,0,0
-182,407,0,0,0,0,0,0,0,0,0,-1,1042,617,0,0
-175,407,0,0,0,0,0,0,0,0,0,-1,1049,617,0,0
-168,407,0,0,0,0,0,0,0,0,0,-1,1056,617,0,0
-161,407,0,0,0,0,0,0,0,0,0,-1,1063,617,0,0
-154,407,0,0,0,0,0,0,0,0,0,-1,1070,617,0,0
-147,407,0,0,0,0,0,0,0,0,0,-1,1077,617,0,0
-140,407,0,0,0,0,0,0,0,0,0,-1,1084,617,0,0
-133,407,0,0,0,0,0,0,0,0,0,-1,1091,617,0,0
-126,407,0,0,0,0,0,0,0,0,0,-1,1098,617,0,0
-119,407,0,0,0,0,0,0,0,0,0,-1,1105,617,0,0
-112,407,0,0,0,0,0,0,0,0,0,-1,1112,617,0,0
-105,407,0,0,0,0,0,0,0,0,0,-1,1119,617,0,0
-98,407,0,0,0,0,0,0,0,0,0,-1,1126,617,0,0
-91,407,0,0,0,0,0,0,0,0,0,-1,1133,617,0,0
-84,407,0,0,0,0,0,0,0,0,0,-1,1140,617,0,0
-77,407,0,0,0,0,0,0,0,0,0,-1,1147,617,0,0
-70,407,0,0,0,0,0,0,0,0,0,-1,1154,617,0,0
-63,407,0,0,0,0,0,0,0,0,0,-1,1161,617,0,0
-56,407,0,0,0,0,0,0,0,0,0,-1,1168,617,0,0
-49,407,0,0,0,0,0,0,0,0,0,-1,1175,617,0,0
-42,407,0,0,0,0,0,0,0,0,0,-1,1182,617,0,0
-35,407,0,0,0,0,0,0,0,0,0,-1,1189,617,0,0
-28,407,0,0,0,0,0,0,0,0,0,-1,1196,617,0,0
-21,407,0,0,0,0,0,0,0,0,0,-1,1203,617,0,0
-14,407,0,0,0,0,0,0,0,0,0,-1,1210,617,0,0
-7,407,0,0,0,0,0,0,0,0,0,-1,1217,617,0,0
0,407,0,0,0,0,0,0,0,0,0,-1,1224,617,0,0
7,407,0,0,0,0,0,0,0,0,0,-1,1231,617,0,0
14,407,0,0,0,0,0,0,0,0,0,-1,1238,617,0,0
21,407,0,0,0,0,0,0,0,0,0,-1,1245,617,0,0
28,407,0,0,0,0,0,0,0,0,0,-1,1252,617,0,0
35,407,0,0,0,0,0,0,0,0,0,-1,1259,617,0,0
42,407,0,0,0,0,0,0,0,0,0,-1,1266,617,0,0
49,407,0,0,0,0,0,0,0,0,0,-1,1273,617,0,0
56,407,0,0,0,0,0,0,0,0,0,-1,1280,617,0,0
63,407,0,0,0,0,0,0,0,0,0,-1,1287,617,0,0
70,407,0,0,0,0,0,0,0,0,0,-1,1294,617,0,0
77,407,0,0,0,0,0,0,0,0,0,-1,1301,617,0,0
84,407,0,0,0,0,0,0,0,0,0,-1,1308,617,0,0
91,407,0,0,0,0,0,0,0,0,0,-1,1315,617,0,0
98,407,0,0,0,0,0,0,0,0,0,-1,1322,617,0,0
105,407,0,0,0,0,0,0,0,0,0,-1,1329,617,0,0
112,407,0,0,0,0,0,0,0,0,0,-1,1336,617,0,0
119,407,0,0,0,0,0,0,0,0,0,-1,1343,617,0,0
126,407,0,0,0,0,0,0,0,0,0,-1,1350,617,0,0
133,407,0,0,0,0,0,0,0,0,0,-1,1357,617,0,0
140,407,0,0,0,0,0,0,0,0,0,-1,1364,617,0,0
147,407,0,0,0,0,0,0,0,0,0,-1,1371,617,0,0
154,407,0,0,0,0,0,0,0,0,0,-1,1378,617,0,0
161,407,0,0,0,0,0,0,0,0,0,-1,1385,617,0,0
168,407,0,0,0,0,0,0,0,0,0,-1,1392,617,0,0
175,407,0,0,0,0,0,0,0,0,0,-1,1399,617,0,0
182,407,0,0,0,0,0,0,0,0,0,-1,1406,617,0,0
189,407,0,0,0,0,0,0,0,0,0,-1,1413,617,0,0
196,407,0,0,0,0,0,0,0,0,0,-1,1420,617,0,0
203,407,0,0,0,0,0,0,0,0,0,-1,1427,617,0,0
210,407,0,0,0,0,0,0,0,0,0,-1,1434,617,0,0
217,407,0,0,0,0,0,0,0,0,0,-1,1441,617,0,0
224,407,0,0,0,0,0,0,0,0,0,-1,1448,617,0,0
231,407,0,0,0,0,0,0,0,0,0,-1,1455,617,0,0
238,407,0,0,0,0,0,0,0,0,0,-1,1462,617,0,0
245,407,0,0,0,0,0,0,0,0,0,-1,1469,617,0,0
252,407,0,0,0,0,0,0,0,0,0,-1,1476,617,0,0
259,407,0,0,0,0,0,0,0,0,0,-1,1483,617,0,0
266,407,0,0,0,0,0,0,0,0,0,-1,1490,617,0,0
273,407,0,0,0,0,0,0,0,0,0,-1,1497,617,0,0
280,407,0,0,0,0,0,0,0,0,0,-1,1504,617,0,0
287,407,0,0,0,0,0,0,0,0,0,-1,1511,617,0,0
294,407,0,0,0,0,0,0,0,0,0,-1,1518,617,0,0
301,407,0,0,0,0,0,0,0,0,0,-1,1525,617,0,0
308,407,0,0,0,0,0,0,0,0,0,-1,1532,617,0,0
315,407,0,0,0,0,0,0,0,0,0,-1,1539,617,0,0
322,407,0,0,0,0,0,0,0,0,0,-1,1546,617,0,0
329,407,0,0,0,0,0,0,0,0,0,-1,1553,617,0,0
336,407,0,0,0,0,0,0,0,0,0,-1,1560,617,0,0
343,407,0,0,0,0,0,0,0,0,0,-1,1567,617,0,0
350,407,0,0,0,0,0,0,0,0,0,-1,1574,617,0,0
357,407,0,0,0,0,0,0,0,0,0,-1,1581,617,0,0
364,407,0,0,0,0,0,0,0,0,0,-1,1588,617,0,0
371,407,0,0,0,0,0,0,0,0,0,-1,1595,617,0,0
378,407,0,0,0,0,0,0,0,0,0,-1,1602,617,0,0
385,407,0,0,0,0,0,0,0,0,0,-1,1609,617,0,0
392,407,0,0,0,0,0,0,0,0,0,-1,1616,617,0,0
399,407,0,0,0,0,0,0,0,0,0,-1,1623,617,0,0
406,407,0,0,0,0,0,0,0,0,0,-1,1630,617,0,0
413,407,0,0,0,0,0,0,0,0,0,-1,1637,617,0,0
420,407,0,0,0,0,0,0,0,0,0,-1,1644,617,0,0
427,407,0,0,0,0,0,0,0,0,0,-1,1651,617,0,0
434,407,0,0,0,0,0,0,0,0,0,-1,1658,617,0,0
441,407,0,0,0,0,0,0,0,0,0,-1,1665,617,0,0
448,407,7.02893,2.13843,0,0,0,0,0,0,0,-1,1672,617,7.02899,-2.13844
455,407,7.55237,2.29242,0,0,0,0,0,0,0,-1,1679,617,7.55236,-2.29244
462,407,8.2926,2.46173,0,0,0,0,0,0,0,-1,1686,617,8.29261,-2.46174
469,407,8.71509,2.22681,0,0,0,0,0,0,0,-1,1693,617,8.71511,-2.22681
476,407,8.89917,1.47766,0,0,0,0,0,0,0,-1,1700,617,8.89914,-1.47768
483,407,9.02612,0.682983,0,0,0,0,0,0,0,-1,1707,617,9.02608,-0.683004
490,407,9.12659,0.000671387,0,0,0,0,0,0,0,-1,1714,617,9.12653,-0.000675931
497,407,7.76819,0.855835,0,0,0,0,0,0,0,-1,1721,617,7.7682,-0.855865
504,407,4.69336,0.160706,0,0,0,0,0,0,0,-1,1728,617,4.69337,-0.1607
511,407,4.07104,-0.00140381,0,0,0,0,0,0,0,-1,1735,617,4.07109,0.00141425
518,407,6.09534,1.9411,0,0,0,0,0,0,0,-1,1742,617,6.09532,-1.94113
525,407,5.72534,-1.35986,0,0,0,0,0,0,0,-1,1749,617,5.72529,1.35988
532,407,18.5767,-10.6388,0,0,0,0,0,0,0,-1,1756,617,18.5766,10.6388
539,407,27.2023,-17.813,0,0,0,0,0,0,0,-1,1763,617,27.2023,17.813
546,407,27.2947,-16.9398,0.00340493,0.00214824,0.00171999,0.00460775,0.000945412,0.61027,0.00281021,0.028081,1770,617,27.2947,16.9397
553,407,27.241,-16.1393,0.00264483,0.00178067,0.00128479,0.00356826,0.000857252,0.623187,0.00215081,0.0177731,1777,617,27.2409,16.1393
560,407,27.2405,-15.3251,0.0020144,0.00147213,0.00098213,0.00276213,0.000724394,0.650719,0.00165372,0.0179627,1784,617,27.2404,15.3251
567,407,27.1592,-14.5687,0.00155757,0.00129346,0.000858582,0.00229419,0.000556838,0.709094,0.00138177,0.0309278,1791,617,27.1592,14.5686
574,407,27.1189,-13.8038,0.00134009,0.00135747,0.000939225,0.00228804,0.000409511,0.790024,0.00140884,0.0269304,1798,617,27.1189,13.8038
581,407,27.0609,-12.9719,0.00128082,0.00158885,0.00117993,0.00262478,0.000244895,0.850295,0.0016742,0.0186334,1805,617,27.0609,12.972
588,407,27.0304,-12.1818,0.0014259,0.00212375,0.00162628,0.00343811,0.000111536,0.891072,0.00225581,0.0137514,1812,617,27.0304,12.1817
595,407,27.0181,-11.3939,0.00182965,0.00287697,0.00227999,0.00469266,1.39631e-05,0.898278,0.0031238,0.0261439,1819,617,27.0181,11.3939
602,407,26.9874,-10.5405,0.00244732,0.00391741,0.00311565,0.00638355,-1.8815e-05,0.90124,0.00426198,0.0203795,1826,617,26.9875,10.5405
609,407,26.8848,-9.69238,0.0033977,0.00530629,0.00423908,0.00869716,6.83125e-06,0.896112,0.00579583,0.0196388,1833,617,26.8848,9.6924
616,407,26.929,-8.72375,0.00463905,0.00731331,0.00559589,0.0117296,0.000222759,0.902674,0.00774655,0.0357398,1840,617,26.929,8.72376
623,407,27.2289,-7.60565,0,0,0,0,0,0,0,-1,1847,617,27.2289,7.60565
630,407,7.06177,0.814575,0,0,0,0,0,0,0,-1,1854,617,7.06178,-0.814579
637,407,11.1063,0.391846,0,0,0,0,0,0,0,-1,1861,617,11.1063,-0.391862
644,407,5.09766,2.27747,0,0,0,0,0,0,0,-1,1868,617,5.09764,-2.27746
651,407,7.37524,0.0513916,0,0,0,0,0,0,0,-1,1875,617,7.3752,-0.0513923
658,407,3.76685,0.594177,0,0,0,0,0,0,0,-1,1882,617,3.76683,-0.594184
665,407,5.76123,0.375061,0,0,0,0,0,0,0,-1,1889,617,5.76118,-0.37509
672,407,0,0,0,0,0,0,0,0,0,-1,1896,617,0,0
679,407,0,0,0,0,0,0,0,0,0,-1,1903,617,0,0
686,407,0,0,0,0,0,0,0,0,0,-1,1910,617,0,0
693,407,0,0,0,0,0,0,0,0,0,-1,1917,617,0,0
700,407,0,0,0,0,0,0,0,0,0,-1,1924,617,0,0
707,407,0,0,0,0,0,0,0,0,0,-1,1931,617,0,0
714,407,0,0,0,0,0,0,0,0,0,-1,1938,617,0,0
721,407,0,0,0,0,0,0,0,0,0,-1,1945,617,0,0
728,407,0,0,0,0,0,0,0,0,0,-1,1952,617,0,0
735,407,0,0,0,0,0,0,0,0,0,-1,1959,617,0,0
742,407,0,0,0,0,0,0,0,0,0,-1,1966,617,0,0
749,407,0,0,0,0,0,0,0,0,0,-1,1973,617,0,0
756,407,0,0,0,0,0,0,0,0,0,-1,1980,617,0,0
763,407,0,0,0,0,0,0,0,0,0,-1,1987,617,0,0
770,407,0,0,0,0,0,0,0,0,0,-1,1994,617,0,0
777,407,0,0,0,0,0,0,0,0,0,-1,2001,617,0,0
784,407,0,0,0,0,0,0,0,0,0,-1,2008,617,0,0
791,407,0,0,0,0,0,0,0,0,0,-1,2015,617,0,0
798,407,0,0,0,0,0,0,0,0,0,-1,2022,617,0,0
805,407,0,0,0,0,0,0,0,0,0,-1,2029,617,0,0
812,407,0,0,0,0,0,0,0,0,0,-1,2036,617,0,0
-700,400,0,0,0,0,0,0,0,0,0,-1,524,624,0,0
-693,400,0,0,0,0,0,0,0,0,0,-1,531,624,0,0
-686,400,0,0,0,0,0,0,0,0,0,-1,538,624,0,0
-679,400,0,0,0,0,0,0,0,0,0,-1,545,624,0,0
-672,400,0,0,0,0,0,0,0,0,0,-1,552,624,0,0
-665,400,0,0,0,0,0,0,0,0,0,-1,559,624,0,0
-658,400,0,0,0,0,0,0,0,0,0,-1,566,624,0,0
-651,400,0,0,0,0,0,0,0,0,0,-1,573,624,0,0
-644,400,0,0,0,0,0,0,0,0,0,-1,580,624,0,0
-637,400,0,0,0,0,0,0,0,0,0,-1,587,624,0,0
-630,400,0,0,0,0,0,0,0,0,0,-1,594,624,0,0
-623,400,0,0,0,0,0,0,0,0,0,-1,601,624,0,0
-616,400,0,0,0,0,0,0,0,0,0,-1,608,624,0,0
-609,400,0,0,0,0,0,0,0,0,0,-1,615,624,0,0
-602,400,0,0,0,0,0,0,0,0,0,-1,622,624,0,0
-595,400,0,0,0,0,0,0,0,0,0,-1,629,624,0,0
-588,400,0,0,0,0,0,0,0,0,0,-1,636,624,0,0
-581,400,0,0,0,0,0,0,0,0,0,-1,643,624,0,0
-574,400,0,0,0,0,0,0,0,0,0,-1,650,624,0,0
-567,400,0,0,0,0,0,0,0,0,0,-1,657,624,0,0
-560,400,0,0,0,0,0,0,0,0,0,-1,664,624,0,0
-553,400,0,0,0,0,0,0,0,0,0,-1,671,624,0,0
-546,400,-8.41174,-1.4599,0,0,0,0,0,0,0,-1,678,624,-8.41173,1.45989
-539,400,-5.69104,-1.7337,0,0,0,0,0,0,0,-1,685,624,-5.69103,1.7337
-532,400,-3.03632,-2.03912,0,0,0,0,0,0,0,-1,692,624,-3.03632,2.03909
-525,400,-6.20813,-7.04071,0,0,0,0,0,0,0,-1,699,624,-6.20814,7.04071
-518,400,-5.26544,-1.58661,0,0,0,0,0,0,0,-1,706,624,-5.26544,1.58658
-511,400,-10.6307,-6.7121,0,0,0,0,0,0,0,-1,713,624,-10.6307,6.71209
-504,400,-10.2663,-6.55109,0,0,0,0,0,0,0,-1,720,624,-10.2663,6.55106
-497,400,-14.1047,-8.96558,0,0,0,0,0,0,0,-1,727,624,-14.1048,8.96557
-490,400,-13.8724,-9.90491,0.000600626,0.00512324,-0.00235185,0.00612455,-0.000400687,-1.16829,0.00422294,0.0419998,734,624,-13.8724,9.90493
-483,400,-13.912,-10.8143,0.000299887,0.00417884,-0.00199806,0.00502393,-0.000545205,-1.17066,0.00354503,0.0182055,741,624,-13.912,10.8143
-476,400,-13.9434,-11.5942,0.000161737,0.0032625,-0.00166387,0.00398636,-0.00056212,-1.16045,0.0028634,0.0141475,748,624,-13.9434,11.5942
-469,400,-13.9852,-12.3851,0.000234061,0.00234911,-0.00134813,0.00300501,-0.000421837,-1.11799,0.00215774,0.0147477,755,624,-13.9852,12.3851
-462,400,-14.0151,-13.2089,0.000452121,0.00148982,-0.00106511,0.00215573,-0.00021379,-1.01205,0.00151346,0.0191015,762,624,-14.0151,13.2089
-455,400,-14.0598,-14.0049,0.000805868,0.000834832,-0.000886738,0.00170721,-6.65061e-05,-0.793563,0.00116094,0.0206005,769,624,-14.0598,14.0049
-448,400,-14.1088,-14.7707,0.00134108,0.00035761,-0.000814547,0.00180081,-0.000102124,-0.513835,0.00123599,0.0156561,776,624,-14.1088,14.7707
-441,400,-14.1552,-15.4984,0.00198495,7.03508e-05,-0.00083282,0.00229651,-0.000241213,-0.357987,0.00161742,0.0147526,783,624,-14.1552,15.4984
-434,400,-14.2076,-16.2597,0.00275837,3.23575e-05,-0.000993961,0.0030823,-0.00029157,-0.315042,0.00215863,0.0120958,790,624,-14.2076,16.2597
-427,400,-14.2502,-17.0515,0.00366253,0.000267772,-0.00135283,0.00413569,-0.000205391,-0.336459,0.00282808,0.0108733,797,624,-14.2502,17.0515
-420,400,-14.2003,-17.8793,0.00462866,0.00070655,-0.00177229,0.00531085,2.43585e-05,-0.36744,0.00353247,0.0196731,804,624,-14.2003,17.8794
-413,400,-14.1532,-18.5762,0,0,0,0,0,0,0,-1,811,624,-14.1532,18.5762
-406,400,-14.392,-18.9125,0,0,0,0,0,0,0,-1,818,624,-14.392,18.9125
-399,400,-11.0176,-13.2944,0,0,0,0,0,0,0,-1,825,624,-11.0176,13.2944
-392,400,-4.92285,-6.63354,0,0,0,0,0,0,0,-1,832,624,-4.92285,6.63354
-385,400,-3.68738,-5.04205,0,0,0,0,0,0,0,-1,839,624,-3.68736,5.04207
-378,400,-6.84064,-1.28662,0,0,0,0,0,0,0,-1,846,624,-6.84062,1.28662
-371,400,-6.98865,-1.2572,0,0,0,0,0,0,0,-1,853,624,-6.98865,1.25721
-364,400,-6.97247,-1.24133,0,0,0,0,0,0,0,-1,860,624,-6.97249,1.24135
-357,400,-7.18329,-1.23218,0,0,0,0,0,0,0,-1,867,624,-7.18327,1.2322
-350,400,-7.40186,-1.19409,0,0,0,0,0,0,0,-1,874,624,-7.40187,1.19407
-343,400,-8.09357,-1.51147,0,0,0,0,0,0,0,-1,881,624,-8.09355,1.51148
-336,400,0,0,0,0,0,0,0,0,0,-1,888,624,0,0
-329,400,0,0,0,0,0,0,0,0,0,-1,895,624,0,0
-322,400,0,0,0,0,0,0,0,0,0,-1,902,624,0,0
-315,400,0,0,0,0,0,0,0,0,0,-1,909,624,0,0
-308,400,0,0,0,0,0,0,0,0,0,-1,916,624,0,0
-301,400,0,0,0,0,0,0,0,0,0,-1,923,624,0,0
-294,400,0,0,0,0,0,0,0,0,0,-1,930,624,0,0
-287,400,0,0,0,0,0,0,0,0,0,-1,937,624,0,0
-280,400,0,0,0,0,0,0,0,0,0,-1,944,624,0,0
-273,400,0,0,0,0,0,0,0,0,0,-1,951,624,0,0
-266,400,0,0,0,0,0,0,0,0,0,-1,958,624,0,0
-259,400,0,0,0,0,0,0,0,0,0,-1,965,624,0,0
-252,400,0,0,0,0,0,0,0,0,0,-1,972,624,0,0
-245,400,0,0,0,0,0,0,0,0,0,-1,979,624,0,0
-238,400,0,0,0,0,0,0,0,0,0,-1,986,624,0,0
-231,400,0,0,0,0,0,0,0,0,0,-1,993,624,0,0
-224,400,0,0,0,0,0,0,0,0,0,-1,1000,624,0,0
-217,400,0,0,0,0,0,0,0,0,0,-1,1007,624,0,0
-210,400,0,0,0,0,0,0,0,0,0,-1,1014,624,0,0
-203,400,0,0,0,0,0,0,0,0,0,-1,1021,624,0,0
-196,400,0,0,0,0,0,0,0,0,0,-1,1028,624,0,0
-189,400,0,0,0,0,0,0,0,0,0,-1,1035,624,0,0
-182,400,0,0,0,0,0,0,0,0,0,-1,1042,624,0,0
-175,400,0,0,0,0,0,0,0,0,0,-1,1049,624,0,0
-168,400,0,0,0,0,0,0,0,0,0,-1,1056,624,0,0
-161,400,0,0,0,0,0,0,0,0,0,-1,1063,624,0,0
-154,400,0,0,0,0,0,0,0,0,0,-1,1070,624,0,0
-147,400,0,0,0,0,0,0,0,0,0,-1,1077,624,0,0
-140,400,0,0,0,0,0,0,0,0,0,-1,1084,624,0,0
-133,400,0,0,0,0,0,0,0,0,0,-1,1091,624,0,0
-126,400,0,0,0,0,0,0,0,0,0,-1,1098,624,0,0
-119,400,0,0,0,0,0,0,0,0,0,-1,1105,624,0,0
-112,400,0,0,0,0,0,0,0,0,0,-1,1112,624,0,0
-105,400,0,0,0,0,0,0,0,0,0,-1,1119,624,0,0
-98,400,0,0,0,0,0,0,0,0,0,-1,1126,624,0,0
-91,400,0,0,0,0,0,0,0,0,0,-1,1133,624,0,0
-84,400,0,0,0,0,0,0,0,0,0,-1,1140,624,0,0
-77,400,0,0,0,0,0,0,0,0,0,-1,1147,624,0,0
-70,400,0,0,0,0,0,0,0,0,0,-1,1154,624,0,0
-63,400,0,0,0,0,0,0,0,0,0,-1,1161,624,0,0
-56,400,0,0,0,0,0,0,0,0,0,-1,1168,624,0,0
-49,400,0,0,0,0,0,0,0,0,0,-1,1175,624,0,0
-42,400,0,0,0,0,0,0,0,0,0,-1,1182,624,0,0
-35,400,0,0,0,0,0,0,0,0,0,-1,1189,624,0,0
-28,400,0,0,0,0,0,0,0,0,0,-1,1196,624,0,0
-21,400,0,0,0,0,0,0,0,0,0,-1,1203,624,0,0
-14,400,0,0,0,0,0,0,0,0,0,-1,1210,624,0,0
-7,400,0,0,0,0,0,0,0,0,0,-1,1217,624,0,0
0,400,0,0,0,0,0,0,0,0,0,-1,1224,624,0,0
7,400,0,0,0,0,0,0,0,0,0,-1,1231,624,0,0
14,400,0,0,0,0,0,0,0,0,0,-1,1238,624,0,0
21,400,0,0,0,0,0,0,0,0,0,-1,1245,624,0,0
28,400,0,0,0,0,0,0,0,0,0,-1,1252,624,0,0
35,400,0,0,0,0,0,0,0,0,0,-1,1259,624,0,0
42,400,0,0,0,0,0,0,0,0,0,-1,1266,624,0,0
49,400,0,0,0,0,0,0,0,0,0,-1,1273,624,0,0
56,400,0,0,0,0,0,0,0,0,0,-1,1280,624,0,0
63,400,0,0,0,0,0,0,0,0,0,-1,1287,624,0,0
70,400,0,0,0,0,0,0,0,0,0,-1,1294,624,0,0
77,400,0,0,0,0,0,0,0,0,0,-1,1301,624,0,0
84,400,0,0,0,0,0,0,0,0,0,-1,1308,624,0,0
91,400,0,0,0,0,0,0,0,0,0,-1,1315,624,0,0
98,400,0,0,0,0,0,0,0,0,0,-1,1322,624,0,0
105,400,0,0,0,0,0,0,0,0,0,-1,1329,624,0,0
112,400,0,0,0,0,0,0,0,0,0,-1,1336,624,0,0
119,400,0,0,0,0,0,0,0,0,0,-1,1343,624,0,0
126,400,0,0,0,0,0,0,0,0,0,-1,1350,624,0,0
133,400,0,0,0,0,0,0,0,0,0,-1,1357,624,0,0
140,400,0,0,0,0,0,0,0,0,0,-1,1364,624,0,0
147,400,0,0,0,0,0,0,0,0,0,-1,1371,624,0,0
154,400,0,0,0,0,0,0,0,0,0,-1,1378,624,0,0
161,400,0,0,0,0,0,0,0,0,0,-1,1385,624,0,0
168,400,0,0,0,0,0,0,0,0,0,-1,1392,624,0,0
175,400,0,0,0,0,0,0,0,0,0,-1,1399,624,0,0
182,400,0,0,0,0,0,0,0,0,0,-1,1406,624,0,0
189,400,0,0,0,0,0,0,0,0,0,-1,1413,624,0,0
196,400,0,0,0,0,0,0,0,0,0,-1,1420,624,0,0
203,400,0,0,0,0,0,0,0,0,0,-1,1427,624,0,0
210,400,0,0,0,0,0,0,0,0,0,-1,1434,624,0,0
217,400,0,0,0,0,0,0,0,0,0,-1,1441,624,0,0
224,400,0,0,0,0,0,0,0,0,0,-1,1448,624,0,0
231,400,0,0,0,0,0,0,0,0,0,-1,1455,624,0,0
238,400,0,0,0,0,0,0,0,0,0,-1,1462,624,0,0
245,400,0,0,0,0,0,0,0,0,0,-1,1469,624,0,0
252,400,0,0,0,0,0,0,0,0,0,-1,1476,624,0,0
259,400,0,0,0,0,0,0,0,0,0,-1,1483,624,0,0
266,400,0,0,0,0,0,0,0,0,0,-1,1490,624,0,0
273,400,0,0,0,0,0,0,0,0,0,-1,1497,624,0,0
280,400,0,0,0,0,0,0,0,0,0,-1,1504,624,0,0
287,400,0,0,0,0,0,0,0,0,0,-1,1511,624,0,0
294,400,0,0,0,0,0,0,0,0,0,-1,1518,624,0,0
301,400,0,0,0,0,0,0,0,0,0,-1,1525,624,0,0
308,400,0,0,0,0,0,0,0,0,0,-1,1532,624,0,0
315,400,0,0,0,0,0,0,0,0,0,-1,1539,624,0,0
322,400,0,0,0,0,0,0,0,0,0,-1,1546,624,0,0
329,400,0,0,0,0,0,0,0,0,0,-1,1553,624,0,0
336,400,0,0,0,0,0,0,0,0,0,-1,1560,624,0,0
343,400,0,0,0,0,0,0,0,0,0,-1,1567,624,0,0
350,400,0,0,0,0,0,0,0,0,0,-1,1574,624,0,0
357,400,0,0,0,0,0,0,0,0,0,-1,1581,624,0,0
364,400,0,0,0,0,0,0,0,0,0,-1,1588,624,0,0
371,400,0,0,0,0,0,0,0,0,0,-1,1595,624,0,0
378,400,0,0,0,0,0,0,0,0,0,-1,1602,624,0,0
385,400,0,0,0,0,0,0,0,0,0,-1,1609,624,0,0
392,400,0,0,0,0,0,0,0,0,0,-1,1616,624,0,0
399,400,0,0,0,0,0,0,0,0,0,-1,1623,624,0,0
406,400,0,0,0,0,0,0,0,0,0,-1,1630,624,0,0
413,400,0,0,0,0,0,0,0,0,0,-1,1637,624,0,0
420,400,0,0,0,0,0,0,0,0,0,-1,1644,624,0,0
427,400,0,0,0,0,0,0,0,0,0,-1,1651,624,0,0
434,400,0,0,0,0,0,0,0,0,0,-1,1658,624,0,0
441,400,0,0,0,0,0,0,0,0,0,-1,1665,624,0,0
448,400,0,0,0,0,0,0,0,0,0,-1,1672,624,0,0
455,400,8.91309,2.75885,0,0,0,0,0,0,0,-1,1679,624,8.91312,-2.75885
462,400,8.90356,2.37878,0,0,0,0,0,0,0,-1,1686,624,8.90353,-2.37878
469,400,9.14429,1.76849,0,0,0,0,0,0,0,-1,1693,624,9.14432,-1.76847
476,400,9.23254,1.25995,0,0,0,0,0,0,0,-1,1700,624,9.23252,-1.25994
483,400,9.59766,0.562439,0,0,0,0,0,0,0,-1,1707,624,9.59771,-0.56242
490,400,9.92578,-0.213745,0,0,0,0,0,0,0,-1,1714,624,9.92579,0.21376
497,400,9.19141,0.175232,0,0,0,0,0,0,0,-1,1721,624,9.19138,-0.175209
504,400,9.23438,0.00823975,0,0,0,0,0,0,0,-1,1728,624,9.23436,-0.00823766
511,400,6.16687,3.3501,0,0,0,0,0,0,0,-1,1735,624,6.16682,-3.35007
518,400,6.55237,1.74994,0,0,0,0,0,0,0,-1,1742,624,6.55236,-1.74993
525,400,6.99731,1.08783,0,0,0,0,0,0,0,-1,1749,624,6.99736,-1.08785
532,400,6.96582,-1.74982,0,0,0,0,0,0,0,-1,1756,624,6.96585,1.74983
539,400,21.2305,-10.5841,0,0,0,0,0,0,0,-1,1763,624,21.2304,10.5841
546,400,28.1165,-16.9405,0,0,0,0,0,0,0,-1,1770,624,28.1165,16.9405
553,400,27.9429,-16.1292,0.00288565,0.00223177,0.00141009,0.0040062,0.00111121,0.671482,0.00238818,0.0433437,1777,624,27.9428,16.1292
560,400,27.9965,-15.2772,0.00215444,0.00171742,0.000955982,0.00291657,0.000955293,0.673041,0.00171694,0.0172351,1784,624,27.9964,15.2772
567,400,27.9948,-14.4866,0.00158706,0.00129276,0.000675715,0.00213146,0.000748354,0.678187,0.00124865,0.0189703,1791,624,27.9947,14.4866
574,400,27.9412,-13.7004,0.00129955,0.00120234,0.000667512,0.00192022,0.000581664,0.749053,0.00113699,0.020917,1798,624,27.9411,13.7004
581,400,27.859,-12.9199,0.00117458,0.0013133,0.000832636,0.00207946,0.000408417,0.826953,0.00127221,0.0207912,1805,624,27.859,12.9199
588,400,27.7909,-12.0793,0.00126375,0.00172458,0.00120759,0.00272354,0.000264793,0.879669,0.00173418,0.0177493,1812,624,27.7908,12.0794
595,400,27.7766,-11.2953,0.00162147,0.00235513,0.00179575,0.00382114,0.000155466,0.886149,0.00249722,0.0170993,1819,624,27.7766,11.2954
602,400,27.7612,-10.493,0.00217661,0.00323638,0.00254843,0.00530943,0.000103562,0.887901,0.00350561,0.0159176,1826,624,27.7613,10.493
609,400,27.6591,-9.66394,0.00296879,0.00439434,0.0035093,0.00726251,0.000100613,0.88559,0.00480849,0.0141842,1833,624,27.6591,9.66392
616,400,27.6183,-8.85498,0.00401225,0.00601952,0.00467956,0.00980186,0.000229903,0.891034,0.00645931,0.0191007,1840,624,27.6182,8.855
623,400,27.6372,-8.02289,0,0,0,0,0,0,0,-1,1847,624,27.6372,8.02289
630,400,11.9432,0.09021,0,0,0,0,0,0,0,-1,1854,624,11.9432,-0.0902007
637,400,6.92896,1.01917,0,0,0,0,0,0,0,-1,1861,624,6.92899,-1.01918
644,400,8.65381,1.4599,0,0,0,0,0,0,0,-1,1868,624,8.65379,-1.45991
651,400,7.90601,0.424072,0,0,0,0,0,0,0,-1,1875,624,7.90598,-0.424097
658,400,8.69031,1.0484,0,0,0,0,0,0,0,-1,1882,624,8.6903,-1.0484
665,400,5.98438,0.522522,0,0,0,0,0,0,0,-1,1889,624,5.98442,-0.522552
672,400,0,0,0,0,0,0,0,0,0,-1,1896,624,0,0
679,400,0,0,0,0,0,0,0,0,0,-1,1903,624,0,0
686,400,0,0,0,0,0,0,0,0,0,-1,1910,624,0,0
693,400,0,0,0,0,0,0,0,0,0,-1,1917,624,0,0
700,400,0,0,0,0,0,0,0,0,0,-1,1924,624,0,0
707,400,0,0,0,0,0,0,0,0,0,-1,1931,624,0,0
714,400,0,0,0,0,0,0,0,0,0,-1,1938,624,0,0
721,400,0,0,0,0,0,0,0,0,0,-1,1945,624,0,0
728,400,0,0,0,0,0,0,0,0,0,-1,1952,624,0,0
735,400,0,0,0,0,0,0,0,0,0,-1,1959,624,0,0
742,400,0,0,0,0,0,0,0,0,0,-1,1966,624,0,0
749,400,0,0,0,0,0,0,0,0,0,-1,1973,624,0,0
756,400,0,0,0,0,0,0,0,0,0,-1,1980,624,0,0
763,400,0,0,0,0,0,0,0,0,0,-1,1987,624,0,0
770,400,0,0,0,0,0,0,0,0,0,-1,1994,624,0,0
777,400,0,0,0,0,0,0,0,0,0,-1,2001,624,0,0
784,400,0,0,0,0,0,0,0,0,0,-1,2008,624,0,0
791,400,0,0,0,0,0,0,0,0,0,-1,2015,624,0,0
798,400,0,0,0,0,0,0,0,0,0,-1,2022,624,0,0
805,400,0,0,0,0,0,0,0,0,0,-1,2029,624,0,0
812,400,0,0,0,0,0,0,0,0,0,-1,2036,624,0,0
-700,393,0,0,0,0,0,0,0,0,0,-1,524,631,0,0
-693,393,0,0,0,0,0,0,0,0,0,-1,531,631,0,0
-686,393,0,0,0,0,0,0,0,0,0,-1,538,631,0,0
-679,393,0,0,0,0,0,0,0,0,0,-1,545,631,0,0
-672,393,0,0,0,0,0,0,0,0,0,-1,552,631,0,0
-665,393,0,0,0,0,0,0,0,0,0,-1,559,631,0,0
-658,393,0,0,0,0,0,0,0,0,0,-1,566,631,0,0
-651,393,0,0,0,0,0,0,0,0,0,-1,573,631,0,0
-644,393,0,0,0,0,0,0,0,0,0,-1,580,631,0,0
-637,393,0,0,0,0,0,0,0,0,0,-1,587,631,0,0
-630,393,0,0,0,0,0,0,0,0,0,-1,594,631,0,0
-623,393,0,0,0,0,0,0,0,0,0,-1,601,631,0,0
-616,393,0,0,0,0,0,0,0,0,0,-1,608,631,0,0
-609,393,0,0,0,0,0,0,0,0,0,-1,615,631,0,0
-602,393,0,0,0,0,0,0,0,0,0,-1,622,631,0,0
-595,393,0,0,0,0,0,0,0,0,0,-1,629,631,0,0
-588,393,0,0,0,0,0,0,0,0,0,-1,636,631,0,0
-581,393,0,0,0,0,0,0,0,0,0,-1,643,631,0,0
-574,393,0,0,0,0,0,0,0,0,0,-1,650,631,0,0
-567,393,0,0,0,0,0,0,0,0,0,-1,657,631,0,0
-560,393,0,0,0,0,0,0,0,0,0,-1,664,631,0,0
-553,393,-2.35107,3.92633,0,0,0,0,0,0,0,-1,671,631,-2.35108,-3.92634
-546,393,-1.78778,2.4856,0,0,0,0,0,0,0,-1,678,631,-1.78778,-2.48557
-539,393,-5.2113,-2.20245,0,0,0,0,0,0,0,-1,685,631,-5.21128,2.20247
-532,393,-2.83643,-2.01624,0,0,0,0,0,0,0,-1,692,631,-2.83642,2.01626
-525,393,-5.9505,-0.952698,0,0,0,0,0,0,0,-1,699,631,-5.95053,0.95268
-518,393,-5.80219,-1.57739,0,0,0,0,0,0,0,-1,706,631,-5.80219,1.57738
-511,393,-6.15527,-2.09906,0,0,0,0,0,0,0,-1,713,631,-6.15526,2.09903
-504,393,-13.6063,-6.95947,0,0,0,0,0,0,0,-1,720,631,-13.6063,6.95946
-497,393,-14.7475,-9.08716,0,0,0,0,0,0,0,-1,727,631,-14.7475,9.08716
-490,393,-14.6838,-9.93744,0.000868064,0.00339892,-0.00167887,0.00423585,3.11288e-05,-1.10834,0.00281358,0.0256801,734,631,-14.6838,9.93745
-483,393,-14.688,-10.7657,0.000595522,0.00274463,-0.00142925,0.00345821,-0.000118059,-1.10773,0.00234582,0.0207562,741,631,-14.688,10.7658
-476,393,-14.7108,-11.5592,0.00049057,0.00207508,-0.00119652,0.00271786,-0.000152209,-1.07783,0.00186471,0.0168841,748,631,-14.7108,11.5592
-469,393,-14.756,-12.3542,0.00057697,0.00138963,-0.000980845,0.00204498,-7.83796e-05,-0.981769,0.00139018,0.0126184,755,631,-14.756,12.3542
-462,393,-14.7998,-13.1926,0.00078962,0.000715769,-0.000793069,0.00154662,-4.12336e-05,-0.762135,0.0010451,0.015265,762,631,-14.7998,13.1926
-455,393,-14.8588,-13.9749,0.0011603,0.000231276,-0.000710347,0.00154453,-0.000152954,-0.495833,0.00108428,0.0148047,769,631,-14.8587,13.9749
-448,393,-14.9035,-14.7381,0.00172244,-0.000121102,-0.000720169,0.00197041,-0.000369077,-0.331614,0.00145235,0.0140839,776,631,-14.9035,14.7381
-441,393,-14.942,-15.4865,0.00240378,-0.000303462,-0.000822303,0.00263398,-0.000533657,-0.272952,0.00195826,0.0133483,783,631,-14.942,15.4864
-434,393,-14.9924,-16.2278,0.00326916,-0.000202858,-0.00109442,0.00358534,-0.00051904,-0.281245,0.0025807,0.0126315,790,631,-14.9924,16.2278
-427,393,-14.9762,-17.0357,0.00427678,0.000141566,-0.00156286,0.00480099,-0.000382644,-0.323626,0.00333553,0.0229842,797,631,-14.9762,17.0357
-420,393,-14.8769,-17.9124,0,0,0,0,0,0,0,-1,804,631,-14.8769,17.9124
-413,393,-15.0913,-18.3777,0,0,0,0,0,0,0,-1,811,631,-15.0913,18.3777
-406,393,-11.826,-12.7987,0,0,0,0,0,0,0,-1,818,631,-11.8261,12.7987
-399,393,-5.07343,-5.92365,0,0,0,0,0,0,0,-1,825,631,-5.07344,5.92364
-392,393,-2.08063,-3.02386,0,0,0,0,0,0,0,-1,832,631,-2.08063,3.02384
-385,393,-3.16931,-0.624756,0,0,0,0,0,0,0,-1,839,631,-3.16928,0.624764
-378,393,-7.33081,-0.872314,0,0,0,0,0,0,0,-1,846,631,-7.33081,0.872325
-371,393,-7.47858,-0.811096,0,0,0,0,0,0,0,-1,853,631,-7.47859,0.811075
-364,393,-7.64917,-0.662415,0,0,0,0,0,0,0,-1,860,631,-7.64917,0.662406
-357,393,-8.09686,-0.726013,0,0,0,0,0,0,0,-1,867,631,-8.09689,0.726029
-350,393,-8.38788,-0.511841,0,0,0,0,0,0,0,-1,874,631,-8.38785,0.511811
-343,393,0,0,0,0,0,0,0,0,0,-1,881,631,0,0
-336,393,0,0,0,0,0,0,0,0,0,-1,888,631,0,0
-329,393,0,0,0,0,0,0,0,0,0,-1,895,631,0,0
-322,393,0,0,0,0,0,0,0,0,0,-1,902,631,0,0
-315,393,0,0,0,0,0,0,0,0,0,-1,909,631,0,0
-308,393,0,0,0,0,0,0,0,0,0,-1,916,631,0,0
-301,393,0,0,0,0,0,0,0,0,0,-1,923,631,0,0
-294,393,0,0,0,0,0,0,0,0,0,-1,930,631,0,0
-287,393,0,0,0,0,0,0,0,0,0,-1,937,631,0,0
-280,393,0,0,0,0,0,0,0,0,0,-1,944,631,0,0
-273,393,0,0,0,0,0,0,0,0,0,-1,951,631,0,0
-266,393,0,0,0,0,0,0,0,0,0,-1,958,631,0,0
-259,393,0,0,0,0,0,0,0,0,0,-1,965,631,0,0
-252,393,0,0,0,0,0,0,0,0,0,-1,972,631,0,0
-245,393,0,0,0,0,0,0,0,0,0,-1,979,631,0,0
-238,393,0,0,0,0,0,0,0,0,0,-1,986,631,0,0
-231,393,0,0,0,0,0,0,0,0,0,-1,993,631,0,0
-224,393,0,0,0,0,0,0,0,0,0,-1,1000,631,0,0
-217,393,0,0,0,0,0,0,0,0,0,-1,1007,631,0,0
-210,393,0,0,0,0,0,0,0,0,0,-1,1014,631,0,0
-203,393,0,0,0,0,0,0,0,0,0,-1,1021,631,0,0
-196,393,0,0,0,0,0,0,0,0,0,-1,1028,631,0,0
-189,393,0,0,0,0,0,0,0,0,0,-1,1035,631,0,0
-182,393,0,0,0,0,0,0,0,0,0,-1,1042,631,0,0
-175,393,0,0,0,0,0,0,0,0,0,-1,1049,631,0,0
-168,393,0,0,0,0,0,0,0,0,0,-1,1056,631,0,0
-161,393,0,0,0,0,0,0,0,0,0,-1,1063,631,0,0
-154,393,0,0,0,0,0,0,0,0,0,-1,1070,631,0,0
-147,393,0,0,0,0,0,0,0,0,0,-1,1077,631,0,0
-140,393,0,0,0,0,0,0,0,0,0,-1,1084,631,0,0
-133,393,0,0,0,0,0,0,0,0,0,-1,1091,631,0,0
-126,393,0,0,0,0,0,0,0,0,0,-1,1098,631,0,0
-119,393,0,0,0,0,0,0,0,0,0,-1,1105,631,0,0
-112,393,0,0,0,0,0,0,0,0,0,-1,1112,631,0,0
-105,393,0,0,0,0,0,0,0,0,0,-1,1119,631,0,0
-98,393,0,0,0,0,0,0,0,0,0,-1,1126,631,0,0
-91,393,0,0,0,0,0,0,0,0,0,-1,1133,631,0,0
-84,393,0,0,0,0,0,0,0,0,0,-1,1140,631,0,0
-77,393,0,0,0,0,0,0,0,0,0,-1,1147,631,0,0
-70,393,0,0,0,0,0,0,0,0,0,-1,1154,631,0,0
-63,393,0,0,0,0,0,0,0,0,0,-1,1161,631,0,0
-56,393,0,0,0,0,0,0,0,0,0,-1,1168,631,0,0
-49,393,0,0,0,0,0,0,0,0,0,-1,1175,631,0,0
-42,393,0,0,0,0,0,0,0,0,0,-1,1182,631,0,0
-35,393,0,0,0,0,0,0,0,0,0,-1,1189,631,0,0
-28,393,0,0,0,0,0,0,0,0,0,-1,1196,631,0,0
-21,393,0,0,0,0,0,0,0,0,0,-1,1203,631,0,0
-14,393,0,0,0,0,0,0,0,0,0,-1,1210,631,0,0
-7,393,0,0,0,0,0,0,0,0,0,-1,1217,631,0,0
0,393,0,0,0,0,0,0,0,0,0,-1,1224,631,0,0
7,393,0,0,0,0,0,0,0,0,0,-1,1231,631,0,0
14,393,0,0,0,0,0,0,0,0,0,-1,1238,631,0,0
21,393,0,0,0,0,0,0,0,0,0,-1,1245,631,0,0
28,393,0,0,0,0,0,0,0,0,0,-1,1252,631,0,0
35,393,0,0,0,0,0,0,0,0,0,-1,1259,631,0,0
42,393,0,0,0,0,0,0,0,0,0,-1,1266,631,0,0
49,393,0,0,0,0,0,0,0,0,0,-1,1273,631,0,0
56,393,0,0,0,0,0,0,0,0,0,-1,1280,631,0,0
63,393,0,0,0,0,0,0,0,0,0,-1,1287,631,0,0
70,393,0,0,0,0,0,0,0,0,0,-1,1294,631,0,0
77,393,0,0,0,0,0,0,0,0,0,-1,1301,631,0,0
84,393,0,0,0,0,0,0,0,0,0,-1,1308,631,0,0
91,393,0,0,0,0,0,0,0,0,0,-1,1315,631,0,0
98,393,0,0,0,0,0,0,0,0,0,-1,1322,631,0,0
105,393,0,0,0,0,0,0,0,0,0,-1,1329,631,0,0
112,393,0,0,0,0,0,0,0,0,0,-1,1336,631,0,0
119,393,0,0,0,0,0,0,0,0,0,-1,1343,631,0,0
126,393,0,0,0,0,0,0,0,0,0,-1,1350,631,0,0
133,393,0,0,0,0,0,0,0,0,0,-1,1357,631,0,0
140,393,0,0,0,0,0,0,0,0,0,-1,1364,631,0,0
147,393,0,0,0,0,0,0,0,0,0,-1,1371,631,0,0
154,393,0,0,0,0,0,0,0,0,0,-1,1378,631,0,0
161,393,0,0,0,0,0,0,0,0,0,-1,1385,631,0,0
168,393,0,0,0,0,0,0,0,0,0,-1,1392,631,0,0
175,393,0,0,0,0,0,0,0,0,0,-1,1399,631,0,0
182,393,0,0,0,0,0,0,0,0,0,-1,1406,631,0,0
189,393,0,0,0,0,0,0,0,0,0,-1,1413,631,0,0
196,393,0,0,0,0,0,0,0,0,0,-1,1420,631,0,0
203,393,0,0,0,0,0,0,0,0,0,-1,1427,631,0,0
210,393,0,0,0,0,0,0,0,0,0,-1,1434,631,0,0
217,393,0,0,0,0,0,0,0,0,0,-1,1441,631,0,0
224,393,0,0,0,0,0,0,0,0,0,-1,1448,631,0,0
231,393,0,0,0,0,0,0,0,0,0,-1,1455,631,0,0
238,393,0,0,0,0,0,0,0,0,0,-1,1462,631,0,0
245,393,0,0,0,0,0,0,0,0,0,-1,1469,631,0,0
252,393,0,0,0,0,0,0,0,0,0,-1,1476,631,0,0
259,393,0,0,0,0,0,0,0,0,0,-1,1483,631,0,0
266,393,0,0,0,0,0,0,0,0,0,-1,1490,631,0,0
273,393,0,0,0,0,0,0,0,0,0,-1,1497,631,0,0
280,393,0,0,0,0,0,0,0,0,0,-1,1504,631,0,0
287,393,0,0,0,0,0,0,0,0,0,-1,1511,631,0,0
294,393,0,0,0,0,0,0,0,0,0,-1,1518,631,0,0
301,393,0,0,0,0,0,0,0,0,0,-1,1525,631,0,0
308,393,0,0,0,0,0,0,0,0,0,-1,1532,631,0,0
315,393,0,0,0,0,0,0,0,0,0,-1,1539,631,0,0
322,393,0,0,0,0,0,0,0,0,0,-1,1546,631,0,0
329,393,0,0,0,0,0,0,0,0,0,-1,1553,631,0,0
336,393,0,0,0,0,0,0,0,0,0,-1,1560,631,0,0
343,393,0,0,0,0,0,0,0,0,0,-1,1567,631,0,0
350,393,0,0,0,0,0,0,0,0,0,-1,1574,631,0,0
357,393,0,0,0,0,0,0,0,0,0,-1,1581,631,0,0
364,393,0,0,0,0,0,0,0,0,0,-1,1588,631,0,0
371,393,0,0,0,0,0,0,0,0,0,-1,1595,631,0,0
378,393,0,0,0,0,0,0,0,0,0,-1,1602,631,0,0
385,393,0,0,0,0,0,0,0,0,0,-1,1609,631,0,0
392,393,0,0,0,0,0,0,0,0,0,-1,1616,631,0,0
399,393,0,0,0,0,0,0,0,0,0,-1,1623,631,0,0
406,393,0,0,0,0,0,0,0,0,0,-1,1630,631,0,0
413,393,0,0,0,0,0,0,0,0,0,-1,1637,631,0,0
420,393,0,0,0,0,0,0,0,0,0,-1,1644,631,0,0
427,393,0,0,0,0,0,0,0,0,0,-1,1651,631,0,0
434,393,0,0,0,0,0,0,0,0,0,-1,1658,631,0,0
441,393,0,0,0,0,0,0,0,0,0,-1,1665,631,0,0
448,393,0,0,0,0,0,0,0,0,0,-1,1672,631,0,0
455,393,0,0,0,0,0,0,0,0,0,-1,1679,631,0,0
462,393,8.51099,1.89502,0,0,0,0,0,0,0,-1,1686,631,8.51103,-1.89504
469,393,9.39465,1.51703,0,0,0,0,0,0,0,-1,1693,631,9.39465,-1.51703
476,393,9.95569,1.185,0,0,0,0,0,0,0,-1,1700,631,9.95575,-1.18497
483,393,10.5267,0.887329,0,0,0,0,0,0,0,-1,1707,631,10.5267,-0.887321
490,393,10.9303,0.761414,0,0,0,0,0,0,0,-1,1714,631,10.9303,-0.761386
497,393,8.32153,1.88104,0,0,0,0,0,0,0,-1,1721,631,8.32148,-1.88103
504,393,9.46985,1.78711,0,0,0,0,0,0,0,-1,1728,631,9.46986,-1.78713
511,393,9.66565,-0.375977,0,0,0,0,0,0,0,-1,1735,631,9.66571,0.375949
518,393,7.01599,1.62482,0,0,0,0,0,0,0,-1,1742,631,7.01597,-1.62483
525,393,7.88245,-1.13422,0,0,0,0,0,0,0,-1,1749,631,7.88246,1.13423
532,393,7.06335,-1.18103,0,0,0,0,0,0,0,-1,1756,631,7.06332,1.18101
539,393,9.91626,-2.46301,0,0,0,0,0,0,0,-1,1763,631,9.91625,2.46302
546,393,16.4094,-8.04651,0,0,0,0,0,0,0,-1,1770,631,16.4094,8.04649
553,393,28.5795,-16.1683,0,0,0,0,0,0,0,-1,1777,631,28.5794,16.1683
560,393,28.8175,-15.3803,0.00228897,0.0020418,0.000923817,0.00309743,0.00123334,0.718905,0.00180062,0.0480393,1784,631,28.8176,15.3803
567,393,28.7622,-14.4724,0.00158989,0.00132253,0.00047969,0.00195418,0.00095824,0.649503,0.00112832,0.016847,1791,631,28.7622,14.4724
574,393,28.7515,-13.6788,0.00122034,0.00105855,0.000385037,0.00153289,0.000746003,0.681857,0.000885118,0.0162513,1798,631,28.7514,13.6788
581,393,28.6566,-12.8499,0.00102308,0.00105492,0.0004765,0.00151577,0.000562235,0.802094,0.000884795,0.016973,1805,631,28.6567,12.8498
588,393,28.5938,-12.0134,0.00106595,0.00134892,0.00078472,0.00200481,0.000410061,0.874591,0.00122299,0.019409,1812,631,28.5938,12.0135
595,393,28.5791,-11.2491,0.00138661,0.00187434,0.00130244,0.00295555,0.000305402,0.877946,0.00187687,0.016816,1819,631,28.5791,11.2491
602,393,28.5532,-10.4611,0.0018928,0.00262753,0.00196595,0.00426014,0.000260189,0.877765,0.00275746,0.0181795,1826,631,28.5533,10.4611
609,393,28.4956,-9.6496,0.00255032,0.00361568,0.00277062,0.00590436,0.000261632,0.880369,0.00385199,0.015798,1833,631,28.4957,9.64961
616,393,28.4404,-8.84558,0.00335464,0.00495557,0.00370543,0.00794601,0.000364205,0.891776,0.00518021,0.0153832,1840,631,28.4404,8.84557
623,393,28.4296,-7.93579,0.00428113,0.00641399,0.00475074,0.0102165,0.000478598,0.895806,0.00665722,0.0349968,1847,631,28.4295,7.93582
630,393,28.4465,-6.8877,0,0,0,0,0,0,0,-1,1854,631,28.4465,6.88772
637,393,11.4626,0.608887,0,0,0,0,0,0,0,-1,1861,631,11.4627,-0.608904
644,393,8.97583,1.30585,0,0,0,0,0,0,0,-1,1868,631,8.97586,-1.30584
651,393,11.348,0.53302,0,0,0,0,0,0,0,-1,1875,631,11.348,-0.53305
658,393,9.21338,1.50836,0,0,0,0,0,0,0,-1,1882,631,9.21338,-1.50834
665,393,6.1001,2.32129,0,0,0,0,0,0,0,-1,1889,631,6.10012,-2.3213
672,393,7.14575,2.43225,0,0,0,0,0,0,0,-1,1896,631,7.14572,-2.43222
679,393,0,0,0,0,0,0,0,0,0,-1,1903,631,0,0
686,393,0,0,0,0,0,0,0,0,0,-1,1910,631,0,0
693,393,0,0,0,0,0,0,0,0,0,-1,1917,631,0,0
700,393,0,0,0,0,0,0,0,0,0,-1,1924,631,0,0
707,393,0,0,0,0,0,0,0,0,0,-1,1931,631,0,0
714,393,0,0,0,0,0,0,0,0,0,-1,1938,631,0,0
721,393,0,0,0,0,0,0,0,0,0,-1,1945,631,0,0
728,393,0,0,0,0,0,0,0,0,0,-1,1952,631,0,0
735,393,0,0,0,0,0,0,0,0,0,-1,1959,631,0,0
742,393,0,0,0,0,0,0,0,0,0,-1,1966,631,0,0
749,393,0,0,0,0,0,0,0,0,0,-1,1973,631,0,0
756,393,0,0,0,0,0,0,0,0,0,-1,1980,631,0,0
763,393,0,0,0,0,0,0,0,0,0,-1,1987,631,0,0
770,393,0,0,0,0,0,0,0,0,0,-1,1994,631,0,0
777,393,0,0,0,0,0,0,0,0,0,-1,2001,631,0,0
784,393,0,0,0,0,0,0,0,0,0,-1,2008,631,0,0
791,393,0,0,0,0,0,0,0,0,0,-1,2015,631,0,0
798,393,0,0,0,0,0,0,0,0,0,-1,2022,631,0,0
805,393,0,0,0,0,0,0,0,0,0,-1,2029,631,0,0
812,393,0,0,0,0,0,0,0,0,0,-1,2036,631,0,0
-700,386,0,0,0,0,0,0,0,0,0,-1,524,638,0,0
-693,386,0,0,0,0,0,0,0,0,0,-1,531,638,0,0
-686,386,0,0,0,0,0,0,0,0,0,-1,538,638,0,0
-679,386,0,0,0,0,0,0,0,0,0,-1,545,638,0,0
-672,386,0,0,0,0,0,0,0,0,0,-1,552,638,0,0
-665,386,0,0,0,0,0,0,0,0,0,-1,559,638,0,0
-658,386,0,0,0,0,0,0,0,0,0,-1,566,638,0,0
-651,386,0,0,0,0,0,0,0,0,0,-1,573,638,0,0
-644,386,0,0,0,0,0,0,0,0,0,-1,580,638,0,0
-637,386,0,0,0,0,0,0,0,0,0,-1,587,638,0,0
-630,386,0,0,0,0,0,0,0,0,0,-1,594,638,0,0
-623,386,0,0,0,0,0,0,0,0,0,-1,601,638,0,0
-616,386,0,0,0,0,0,0,0,0,0,-1,608,638,0,0
-609,386,0,0,0,0,0,0,0,0,0,-1,615,638,0,0
-602,386,0,0,0,0,0,0,0,0,0,-1,622,638,0,0
-595,386,0,0,0,0,0,0,0,0,0,-1,629,638,0,0
-588,386,0,0,0,0,0,0,0,0,0,-1,636,638,0,0
-581,386,0,0,0,0,0,0,0,0,0,-1,643,638,0,0
-574,386,0,0,0,0,0,0,0,0,0,-1,650,638,0,0
-567,386,0,0,0,0,0,0,0,0,0,-1,657,638,0,0
-560,386,-3.97229,-5.13898,0,0,0,0,0,0,0,-1,664,638,-3.97232,5.13897
-553,386,-4.94244,-5.54309,0,0,0,0,0,0,0,-1,671,638,-4.94242,5.5431
-546,386,-1.78668,1.72827,0,0,0,0,0,0,0,-1,678,638,-1.78668,-1.72829
-539,386,-0.879456,-2.90009,0,0,0,0,0,0,0,-1,685,638,-0.879442,2.90008
-532,386,-5.4884,1.73328,0,0,0,0,0,0,0,-1,692,638,-5.4884,-1.73325
-525,386,-6.64148,-1.50604,0,0,0,0,0,0,0,-1,699,638,-6.64149,1.50603
-518,386,-11.1217,-4.10382,0,0,0,0,0,0,0,-1,706,638,-11.1217,4.1038
-511,386,-13.0612,-5.05151,0,0,0,0,0,0,0,-1,713,638,-13.0612,5.05149
-504,386,-15.473,-8.20813,0,0,0,0,0,0,0,-1,720,638,-15.473,8.20811
-497,386,-15.4012,-9.20844,0,0,0,0,0,0,0,-1,727,638,-15.4013,9.20843
-490,386,-15.4308,-9.98267,0.00111986,0.00218173,-0.00121654,0.00297815,0.00032344,-0.991154,0.00188688,0.0149754,734,638,-15.4309,9.98265
-483,386,-15.4469,-10.7879,0.000864513,0.00170253,-0.00101664,0.00238312,0.000183922,-0.980868,0.00153113,0.0178262,741,638,-15.4469,10.7879
-476,386,-15.4841,-11.5861,0.000778316,0.00119172,-0.000844107,0.00185407,0.000115973,-0.905474,0.00119926,0.0162489,748,638,-15.4842,11.5861
-469,386,-15.5409,-12.3237,0.000863239,0.000661097,-0.000694722,0.0014642,6.01322e-05,-0.713163,0.000956722,0.0118916,755,638,-15.5409,12.3237
-462,386,-15.5855,-13.1332,0.00107402,0.00012955,-0.000581779,0.0013511,-0.00014753,-0.444477,0.000953722,0.0113736,762,638,-15.5855,13.1333
-455,386,-15.6246,-13.9305,0.00146471,-0.000231609,-0.000577963,0.00164291,-0.000409809,-0.299077,0.00125439,0.0128029,769,638,-15.6246,13.9305
-448,386,-15.6611,-14.694,0.00205462,-0.000485458,-0.000665123,0.00221824,-0.000649082,-0.241215,0.00173612,0.0127949,776,638,-15.6611,14.694
-441,386,-15.7215,-15.4485,0.0027883,-0.000567821,-0.00086992,0.00300039,-0.000779905,-0.239133,0.00230464,0.0136544,783,638,-15.7215,15.4485
-434,386,-15.7022,-16.2485,0.00378367,-0.000307765,-0.00129354,0.00415832,-0.000682422,-0.281922,0.00302545,0.0323895,790,638,-15.7022,16.2486
-427,386,-15.6716,-17.0517,0,0,0,0,0,0,0,-1,797,638,-15.6717,17.0517
-420,386,-14.5338,-16.0451,0,0,0,0,0,0,0,-1,804,638,-14.5338,16.0451
-413,386,-5.45691,-5.35785,0,0,0,0,0,0,0,-1,811,638,-5.45691,5.35783
-406,386,-4.51135,-4.10999,0,0,0,0,0,0,0,-1,818,638,-4.51135,4.10996
-399,386,-3.57117,-3.42126,0,0,0,0,0,0,0,-1,825,638,-3.57116,3.42129
-392,386,-4.00977,0.403625,0,0,0,0,0,0,0,-1,832,638,-4.0098,-0.403616
-385,386,-3.2406,-0.118469,0,0,0,0,0,0,0,-1,839,638,-3.24058,0.118485
-378,386,-2.55243,-1.22748,0,0,0,0,0,0,0,-1,846,638,-2.55243,1.22748
-371,386,-7.95807,-0.330261,0,0,0,0,0,0,0,-1,853,638,-7.95806,0.330284
-364,386,-8.90637,-0.665955,0,0,0,0,0,0,0,-1,860,638,-8.90635,0.665951
-357,386,-9.10364,-0.388733,0,0,0,0,0,0,0,-1,867,638,-9.10364,0.388744
-350,386,0,0,0,0,0,0,0,0,0,-1,874,638,0,0
-343,386,0,0,0,0,0,0,0,0,0,-1,881,638,0,0
-336,386,0,0,0,0,0,0,0,0,0,-1,888,638,0,0
-329,386,0,0,0,0,0,0,0,0,0,-1,895,638,0,0
-322,386,0,0,0,0,0,0,0,0,0,-1,902,638,0,0
-315,386,0,0,0,0,0,0,0,0,0,-1,909,638,0,0
-308,386,0,0,0,0,0,0,0,0,0,-1,916,638,0,0
-301,386,0,0,0,0,0,0,0,0,0,-1,923,638,0,0
-294,386,0,0,0,0,0,0,0,0,0,-1,930,638,0,0
-287,386,0,0,0,0,0,0,0,0,0,-1,937,638,0,0
-280,386,0,0,0,0,0,0,0,0,0,-1,944,638,0,0
-273,386,0,0,0,0,0,0,0,0,0,-1,951,638,0,0
-266,386,0,0,0,0,0,0,0,0,0,-1,958,638,0,0
-259,386,0,0,0,0,0,0,0,0,0,-1,965,638,0,0
-252,386,0,0,0,0,0,0,0,0,0,-1,972,638,0,0
-245,386,0,0,0,0,0,0,0,0,0,-1,979,638,0,0
-238,386,0,0,0,0,0,0,0,0,0,-1,986,638,0,0
-231,386,0,0,0,0,0,0,0,0,0,-1,993,638,0,0
-224,386,0,0,0,0,0,0,0,0,0,-1,1000,638,0,0
-217,386,0,0,0,0,0,0,0,0,0,-1,1007,638,0,0
-210,386,0,0,0,0,0,0,0,0,0,-1,1014,638,0,0
-203,386,0,0,0,0,0,0,0,0,0,-1,1021,638,0,0
-196,386,0,0,0,0,0,0,0,0,0,-1,1028,638,0,0
-189,386,0,0,0,0,0,0,0,0,0,-1,1035,638,0,0
-182,386,0,0,0,0,0,0,0,0,0,-1,1042,638,0,0
-175,386,0,0,0,0,0,0,0,0,0,-1,1049,638,0,0
-168,386,0,0,0,0,0,0,0,0,0,-1,1056,638,0,0
-161,386,0,0,0,0,0,0,0,0,0,-1,1063,638,0,0
-154,386,0,0,0,0,0,0,0,0,0,-1,1070,638,0,0
-147,386,0,0,0,0,0,0,0,0,0,-1,1077,638,0,0
-140,386,0,0,0,0,0,0,0,0,0,-1,1084,638,0,0
-133,386,0,0,0,0,0,0,0,0,0,-1,1091,638,0,0
-126,386,0,0,0,0,0,0,0,0,0,-1,1098,638,0,0
-119,386,0,0,0,0,0,0,0,0,0,-1,1105,638,0,0
-112,386,0,0,0,0,0,0,0,0,0,-1,1112,638,0,0
-105,386,0,0,0,0,0,0,0,0,0,-1,1119,638,0,0
-98,386,0,0,0,0,0,0,0,0,0,-1,1126,638,0,0
-91,386,0,0,0,0,0,0,0,0,0,-1,1133,638,0,0
-84,386,0,0,0,0,0,0,0,0,0,-1,1140,638,0,0
-77,386,0,0,0,0,0,0,0,0,0,-1,1147,638,0,0
-70,386,0,0,0,0,0,0,0,0,0,-1,1154,638,0,0
-63,386,0,0,0,0,0,0,0,0,0,-1,1161,638,0,0
-56,386,0,0,0,0,0,0,0,0,0,-1,1168,638,0,0
-49,386,0,0,0,0,0,0,0,0,0,-1,1175,638,0,0
-42,386,0,0,0,0,0,0,0,0,0,-1,1182,638,0,0
-35,386,0,0,0,0,0,0,0,0,0,-1,1189,638,0,0
-28,386,0,0,0,0,0,0,0,0,0,-1,1196,638,0,0
-21,386,0,0,0,0,0,0,0,0,0,-1,1203,638,0,0
-14,386,0,0,0,0,0,0,0,0,0,-1,1210,638,0,0
-7,386,0,0,0,0,0,0,0,0,0,-1,1217,638,0,0
0,386,0,0,0,0,0,0,0,0,0,-1,1224,638,0,0
7,386,0,0,0,0,0,0,0,0,0,-1,1231,638,0,0
14,386,0,0,0,0,0,0,0,0,0,-1,1238,638,0,0
21,386,0,0,0,0,0,0,0,0,0,-1,1245,638,0,0
28,386,0,0,0,0,0,0,0,0,0,-1,1252,638,0,0
35,386,0,0,0,0,0,0,0,0,0,-1,1259,638,0,0
42,386,0,0,0,0,0,0,0,0,0,-1,1266,638,0,0
49,386,0,0,0,0,0,0,0,0,0,-1,1273,638,0,0
56,386,0,0,0,0,0,0,0,0,0,-1,1280,638,0,0
63,386,0,0,0,0,0,0,0,0,0,-1,1287,638,0,0
70,386,0,0,0,0,0,0,0,0,0,-1,1294,638,0,0
77,386,0,0,0,0,0,0,0,0,0,-1,1301,638,0,0
84,386,0,0,0,0,0,0,0,0,0,-1,1308,638,0,0
91,386,0,0,0,0,0,0,0,0,0,-1,1315,638,0,0
98,386,0,0,0,0,0,0,0,0,0,-1,1322,638,0,0
105,386,0,0,0,0,0,0,0,0,0,-1,1329,638,0,0
112,386,0,0,0,0,0,0,0,0,0,-1,1336,638,0,0
119,386,0,0,0,0,0,0,0,0,0,-1,1343,638,0,0
126,386,0,0,0,0,0,0,0,0,0,-1,1350,638,0,0
133,386,0,0,0,0,0,0,0,0,0,-1,1357,638,0,0
140,386,0,0,0,0,0,0,0,0,0,-1,1364,638,0,0
147,386,0,0,0,0,0,0,0,0,0,-1,1371,638,0,0
154,386,0,0,0,0,0,0,0,0,0,-1,1378,638,0,0
161,386,0,0,0,0,0,0,0,0,0,-1,1385,638,0,0
168,386,0,0,0,0,0,0,0,0,0,-1,1392,638,0,0
175,386,0,0,0,0,0,0,0,0,0,-1,1399,638,0,0
182,386,0,0,0,0,0,0,0,0,0,-1,1406,638,0,0
189,386,0,0,0,0,0,0,0,0,0,-1,1413,638,0,0
196,386,0,0,0,0,0,0,0,0,0,-1,1420,638,0,0
203,386,0,0,0,0,0,0,0,0,0,-1,1427,638,0,0
210,386,0,0,0,0,0,0,0,0,0,-1,1434,638,0,0
217,386,0,0,0,0,0,0,0,0,0,-1,1441,638,0,0
224,386,0,0,0,0,0,0,0,0,0,-1,1448,638,0,0
231,386,0,0,0,0,0,0,0,0,0,-1,1455,638,0,0
238,386,0,0,0,0,0,0,0,0,0,-1,1462,638,0,0
245,386,0,0,0,0,0,0,0,0,0,-1,1469,638,0,0
252,386,0,0,0,0,0,0,0,0,0,-1,1476,638,0,0
259,386,0,0,0,0,0,0,0,0,0,-1,1483,638,0,0
266,386,0,0,0,0,0,0,0,0,0,-1,1490,638,0,0
273,386,0,0,0,0,0,0,0,0,0,-1,1497,638,0,0
280,386,0,0,0,0,0,0,0,0,0,-1,1504,638,0,0
287,386,0,0,0,0,0,0,0,0,0,-1,1511,638,0,0
294,386,0,0,0,0,0,0,0,0,0,-1,1518,638,0,0
301,386,0,0,0,0,0,0,0,0,0,-1,1525,638,0,0
308,386,0,0,0,0,0,0,0,0,0,-1,1532,638,0,0
315,386,0,0,0,0,0,0,0,0,0,-1,1539,638,0,0
322,386,0,0,0,0,0,0,0,0,0,-1,1546,638,0,0
329,386,0,0,0,0,0,0,0,0,0,-1,1553,638,0,0
336,386,0,0,0,0,0,0,0,0,0,-1,1560,638,0,0
343,386,0,0,0,0,0,0,0,0,0,-1,1567,638,0,0
350,386,0,0,0,0,0,0,0,0,0,-1,1574,638,0,0
357,386,0,0,0,0,0,0,0,0,0,-1,1581,638,0,0
364,386,0,0,0,0,0,0,0,0,0,-1,1588,638,0,0
371,386,0,0,0,0,0,0,0,0,0,-1,1595,638,0,0
378,386,0,0,0,0,0,0,0,0,0,-1,1602,638,0,0
385,386,0,0,0,0,0,0,0,0,0,-1,1609,638,0,0
392,386,0,0,0,0,0,0,0,0,0,-1,1616,638,0,0
399,386,0,0,0,0,0,0,0,0,0,-1,1623,638,0,0
406,386,0,0,0,0,0,0,0,0,0,-1,1630,638,0,0
413,386,0,0,0,0,0,0,0,0,0,-1,1637,638,0,0
420,386,0,0,0,0,0,0,0,0,0,-1,1644,638,0,0
427,386,0,0,0,0,0,0,0,0,0,-1,1651,638,0,0
434,386,0,0,0,0,0,0,0,0,0,-1,1658,638,0,0
441,386,0,0,0,0,0,0,0,0,0,-1,1665,638,0,0
448,386,0,0,0,0,0,0,0,0,0,-1,1672,638,0,0
455,386,0,0,0,0,0,0,0,0,0,-1,1679,638,0,0
462,386,0,0,0,0,0,0,0,0,0,-1,1686,638,0,0
469,386,9.84692,1.55804,0,0,0,0,0,0,0,-1,1693,638,9.84691,-1.55807
476,386,10.6145,0.986511,0,0,0,0,0,0,0,-1,1700,638,10.6145,-0.986529
483,386,11.4113,0.732971,0,0,0,0,0,0,0,-1,1707,638,11.4112,-0.732958
490,386,7.79785,1.79572,0,0,0,0,0,0,0,-1,1714,638,7.79788,-1.7957
497,386,8.96362,1.77081,0,0,0,0,0,0,0,-1,1721,638,8.96357,-1.77081
504,386,10.0555,1.69427,0,0,0,0,0,0,0,-1,1728,638,10.0555,-1.69426
511,386,11.2172,1.534,0,0,0,0,0,0,0,-1,1735,638,11.2172,-1.53398
518,386,7.41553,1.75238,0,0,0,0,0,0,0,-1,1742,638,7.41547,-1.75238
525,386,8.82422,-1.1449,0,0,0,0,0,0,0,-1,1749,638,8.82426,1.14492
532,386,10.6432,0.617371,0,0,0,0,0,0,0,-1,1756,638,10.6432,-0.617359
539,386,9.62061,-0.393616,0,0,0,0,0,0,0,-1,1763,638,9.62059,0.393634
546,386,10.7963,-2.854,0,0,0,0,0,0,0,-1,1770,638,10.7962,2.854
553,386,16.9939,-7.27942,0,0,0,0,0,0,0,-1,1777,638,16.9939,7.27944
560,386,29.5287,-15.7404,0,0,0,0,0,0,0,-1,1784,638,29.5287,15.7404
567,386,29.4911,-14.4678,0,0,0,0,0,0,0,-1,1791,638,29.491,14.4678
574,386,29.5167,-13.6129,0.00113786,0.000965004,0.000109992,0.00119132,0.000911546,0.452399,0.000719324,0.0153985,1798,638,29.5167,13.6129
581,386,29.4438,-12.8326,0.000847897,0.000834339,0.000114428,0.000955747,0.000726489,0.755812,0.000576156,0.0149475,1805,638,29.4439,12.8326
588,386,29.4281,-12.0129,0.000839471,0.000988532,0.000353042,0.00127482,0.000553178,0.889425,0.000738159,0.0131624,1812,638,29.4281,12.0129
595,386,29.395,-11.2249,0.00111554,0.00140248,0.000797532,0.00206934,0.000448673,0.874393,0.00125698,0.0143135,1819,638,29.3951,11.2249
602,386,29.339,-10.4455,0.00156857,0.00202897,0.00137428,0.00319219,0.000405345,0.86838,0.00200671,0.0155983,1826,638,29.339,10.4455
609,386,29.325,-9.64331,0.00212486,0.0028609,0.00204739,0.00457308,0.000412676,0.874324,0.0029209,0.0149841,1833,638,29.325,9.6433
616,386,29.2788,-8.81647,0.00279377,0.00395315,0.00280169,0.00623449,0.000512433,0.887413,0.00399648,0.012526,1840,638,29.2789,8.81647
623,386,29.1956,-8.00555,0.00356305,0.00519225,0.00365016,0.00811759,0.000637697,0.895184,0.00521218,0.010866,1847,638,29.1956,8.00554
630,386,29.281,-7.14502,0.00431816,0.0064556,0.00444345,0.00995704,0.000816723,0.903415,0.00638323,0.0387868,1854,638,29.2809,7.14502
637,386,29.4683,-6.25665,0,0,0,0,0,0,0,-1,1861,638,29.4683,6.25665
644,386,11.6521,0.723328,0,0,0,0,0,0,0,-1,1868,638,11.6521,-0.723355
651,386,9.3866,1.31097,0,0,0,0,0,0,0,-1,1875,638,9.3866,-1.31095
658,386,12.0731,-0.00415039,0,0,0,0,0,0,0,-1,1882,638,12.0731,0.00412803
665,386,6.33167,1.78601,0,0,0,0,0,0,0,-1,1889,638,6.33171,-1.78601
672,386,7.23352,2.14435,0,0,0,0,0,0,0,-1,1896,638,7.23353,-2.14433
679,386,8.07764,2.57104,0,0,0,0,0,0,0,-1,1903,638,8.07758,-2.57103
686,386,0,0,0,0,0,0,0,0,0,-1,1910,638,0,0
693,386,0,0,0,0,0,0,0,0,0,-1,1917,638,0,0
700,386,0,0,0,0,0,0,0,0,0,-1,1924,638,0,0
707,386,0,0,0,0,0,0,0,0,0,-1,1931,638,0,0
714,386,0,0,0,0,0,0,0,0,0,-1,1938,638,0,0
721,386,0,0,0,0,0,0,0,0,0,-1,1945,638,0,0
728,386,0,0,0,0,0,0,0,0,0,-1,1952,638,0,0
735,386,0,0,0,0,0,0,0,0,0,-1,1959,638,0,0
742,386,0,0,0,0,0,0,0,0,0,-1,1966,638,0,0
749,386,0,0,0,0,0,0,0,0,0,-1,1973,638,0,0
756,386,0,0,0,0,0,0,0,0,0,-1,1980,638,0,0
763,386,0,0,0,0,0,0,0,0,0,-1,1987,638,0,0
770,386,0,0,0,0,0,0,0,0,0,-1,1994,638,0,0
777,386,0,0,0,0,0,0,0,0,0,-1,2001,638,0,0
784,386,0,0,0,0,0,0,0,0,0,-1,2008,638,0,0
791,386,0,0,0,0,0,0,0,0,0,-1,2015,638,0,0
798,386,0,0,0,0,0,0,0,0,0,-1,2022,638,0,0
805,386,0,0,0,0,0,0,0,0,0,-1,2029,638,0,0
812,386,0,0,0,0,0,0,0,0,0,-1,2036,638,0,0
-700,379,0,0,0,0,0,0,0,0,0,-1,524,645,0,0
-693,379,0,0,0,0,0,0,0,0,0,-1,531,645,0,0
-686,379,0,0,0,0,0,0,0,0,0,-1,538,645,0,0
-679,379,0,0,0,0,0,0,0,0,0,-1,545,645,0,0
-672,379,0,0,0,0,0,0,0,0,0,-1,552,645,0,0
-665,379,0,0,0,0,0,0,0,0,0,-1,559,645,0,0
-658,379,0,0,0,0,0,0,0,0,0,-1,566,645,0,0
-651,379,0,0,0,0,0,0,0,0,0,-1,573,645,0,0
-644,379,0,0,0,0,0,0,0,0,0,-1,580,645,0,0
-637,379,0,0,0,0,0,0,0,0,0,-1,587,645,0,0
-630,379,0,0,0,0,0,0,0,0,0,-1,594,645,0,0
-623,379,0,0,0,0,0,0,0,0,0,-1,601,645,0,0
-616,379,0,0,0,0,0,0,0,0,0,-1,608,645,0,0
-609,379,0,0,0,0,0,0,0,0,0,-1,615,645,0,0
-602,379,0,0,0,0,0,0,0,0,0,-1,622,645,0,0
-595,379,0,0,0,0,0,0,0,0,0,-1,629,645,0,0
-588,379,0,0,0,0,0,0,0,0,0,-1,636,645,0,0
-581,379,0,0,0,0,0,0,0,0,0,-1,643,645,0,0
-574,379,0,0,0,0,0,0,0,0,0,-1,650,645,0,0
-567,379,-8.78058,0.59668,0,0,0,0,0,0,0,-1,657,645,-8.7806,-0.596692
-560,379,-9.53485,-0.211304,0,0,0,0,0,0,0,-1,664,645,-9.53487,0.211282
-553,379,-5.17108,-4.53119,0,0,0,0,0,0,0,-1,671,645,-5.17106,4.53117
-546,379,-6.23053,-4.92102,0,0,0,0,0,0,0,-1,678,645,-6.23054,4.92105
-539,379,-0.71698,-2.19427,0,0,0,0,0,0,0,-1,685,645,-0.716959,2.19427
-532,379,-7.69611,0.217224,0,0,0,0,0,0,0,-1,692,645,-7.69614,-0.217204
-525,379,-7.09833,-1.13043,0,0,0,0,0,0,0,-1,699,645,-7.0983,1.13041
-518,379,-13.126,-5.33893,0,0,0,0,0,0,0,-1,706,645,-13.126,5.33895
-511,379,-16.1465,-7.49255,0,0,0,0,0,0,0,-1,713,645,-16.1465,7.49258
-504,379,-16.1113,-8.37769,0.00191673,0.00139957,-0.00094633,0.00263918,0.000677132,-0.652031,0.00158278,0.0337105,720,645,-16.1113,8.37768
-497,379,-16.1874,-9.13739,0.00146908,0.00128509,-0.000754976,0.00213765,0.000616526,-0.724772,0.00127047,0.0157169,727,645,-16.1874,9.13736
-490,379,-16.1988,-9.94983,0.00115148,0.00101459,-0.000571195,0.00165831,0.000507749,-0.725769,0.000981111,0.0123041,734,645,-16.1988,9.94983
-483,379,-16.2274,-10.7579,0.000954611,0.00069611,-0.000439998,0.00128395,0.000366771,-0.642541,0.000763655,0.0135999,741,645,-16.2273,10.7579
-476,379,-16.2609,-11.5197,0.000925492,0.000365765,-0.000370601,0.00111003,0.000181228,-0.462,0.000687618,0.0131991,748,645,-16.2609,11.5197
-469,379,-16.3229,-12.259,0.00106944,3.95311e-05,-0.000371257,0.00118931,-8.03453e-05,-0.312325,0.00082097,0.0118523,755,645,-16.3229,12.259
-462,379,-16.38,-13.0605,0.00134929,-0.000277413,-0.000439961,0.00146066,-0.000388781,-0.247924,0.00112597,0.00934958,762,645,-16.38,13.0605
-455,379,-16.4218,-13.8561,0.00183175,-0.000445555,-0.000632969,0.00199586,-0.000609661,-0.253678,0.00157366,0.00976371,769,645,-16.4218,13.8561
-448,379,-16.4418,-14.612,0.00252563,-0.000512032,-0.000935081,0.0027904,-0.000776799,-0.275927,0.00216614,0.0121805,776,645,-16.4418,14.612
-441,379,-16.4628,-15.4161,0.00339508,-0.000402775,-0.00139559,0.00385275,-0.000860454,-0.316895,0.00289822,0.023542,783,645,-16.4628,15.4162
-434,379,-16.327,-16.2979,0,0,0,0,0,0,0,-1,790,645,-16.327,16.2979
-427,379,-4.16113,-4.13452,0,0,0,0,0,0,0,-1,797,645,-4.16116,4.1345
-420,379,-4.63953,-3.46869,0,0,0,0,0,0,0,-1,804,645,-4.63953,3.46872
-413,379,-4.62543,-3.7912,0,0,0,0,0,0,0,-1,811,645,-4.62541,3.79123
-406,379,-4.64063,-4.38489,0,0,0,0,0,0,0,-1,818,645,-4.64065,4.3849
-399,379,-2.93536,-1.40118,0,0,0,0,0,0,0,-1,825,645,-2.93534,1.40119
-392,379,-4.16711,-0.466003,0,0,0,0,0,0,0,-1,832,645,-4.16714,0.465992
-385,379,-3.51862,0.441101,0,0,0,0,0,0,0,-1,839,645,-3.51859,-0.441072
-378,379,-5.3504,0.212219,0,0,0,0,0,0,0,-1,846,645,-5.35038,-0.212241
-371,379,-4.32092,-0.186707,0,0,0,0,0,0,0,-1,853,645,-4.3209,0.186707
-364,379,-3.40887,-0.549805,0,0,0,0,0,0,0,-1,860,645,-3.4089,0.549802
-357,379,0,0,0,0,0,0,0,0,0,-1,867,645,0,0
-350,379,0,0,0,0,0,0,0,0,0,-1,874,645,0,0
-343,379,0,0,0,0,0,0,0,0,0,-1,881,645,0,0
-336,379,0,0,0,0,0,0,0,0,0,-1,888,645,0,0
-329,379,0,0,0,0,0,0,0,0,0,-1,895,645,0,0
-322,379,0,0,0,0,0,0,0,0,0,-1,902,645,0,0
-315,379,0,0,0,0,0,0,0,0,0,-1,909,645,0,0
-308,379,0,0,0,0,0,0,0,0,0,-1,916,645,0,0
-301,379,0,0,0,0,0,0,0,0,0,-1,923,645,0,0
-294,379,0,0,0,0,0,0,0,0,0,-1,930,645,0,0
-287,379,0,0,0,0,0,0,0,0,0,-1,937,645,0,0
-280,379,0,0,0,0,0,0,0,0,0,-1,944,645,0,0
-273,379,0,0,0,0,0,0,0,0,0,-1,951,645,0,0
-266,379,0,0,0,0,0,0,0,0,0,-1,958,645,0,0
-259,379,0,0,0,0,0,0,0,0,0,-1,965,645,0,0
-252,379,0,0,0,0,0,0,0,0,0,-1,972,645,0,0
-245,379,0,0,0,0,0,0,0,0,0,-1,979,645,0,0
-238,379,0,0,0,0,0,0,0,0,0,-1,986,645,0,0
-231,379,0,0,0,0,0,0,0,0,0,-1,993,645,0,0
-224,379,0,0,0,0,0,0,0,0,0,-1,1000,645,0,0
-217,379,0,0,0,0,0,0,0,0,0,-1,1007,645,0,0
-210,379,0,0,0,0,0,0,0,0,0,-1,1014,645,0,0
-203,379,0,0,0,0,0,0,0,0,0,-1,1021,645,0,0
-196,379,0,0,0,0,0,0,0,0,0,-1,1028,645,0,0
-189,379,0,0,0,0,0,0,0,0,0,-1,1035,645,0,0
-182,379,0,0,0,0,0,0,0,0,0,-1,1042,645,0,0
-175,379,0,0,0,0,0,0,0,0,0,-1,1049,645,0,0
-168,379,0,0,0,0,0,0,0,0,0,-1,1056,645,0,0
-161,379,0,0,0,0,0,0,0,0,0,-1,1063,645,0,0
-154,379,0,0,0,0,0,0,0,0,0,-1,1070,645,0,0
-147,379,0,0,0,0,0,0,0,0,0,-1,1077,645,0,0
-140,379,0,0,0,0,0,0,0,0,0,-1,1084,645,0,0
-133,379,0,0,0,0,0,0,0,0,0,-1,1091,645,0,0
-126,379,0,0,0,0,0,0,0,0,0,-1,1098,645,0,0
-119,379,0,0,0,0,0,0,0,0,0,-1,1105,645,0,0
-112,379,0,0,0,0,0,0,0,0,0,-1,1112,645,0,0
-105,379,0,0,0,0,0,0,0,0,0,-1,1119,645,0,0
-98,379,0,0,0,0,0,0,0,0,0,-1,1126,645,0,0
-91,379,0,0,0,0,0,0,0,0,0,-1,1133,645,0,0
-84,379,0,0,0,0,0,0,0,0,0,-1,1140,645,0,0
-77,379,0,0,0,0,0,0,0,0,0,-1,1147,645,0,0
-70,379,0,0,0,0,0,0,0,0,0,-1,1154,645,0,0
-63,379,0,0,0,0,0,0,0,0,0,-1,1161,645,0,0
-56,379,0,0,0,0,0,0,0,0,0,-1,1168,645,0,0
-49,379,0,0,0,0,0,0,0,0,0,-1,1175,645,0,0
-42,379,0,0,0,0,0,0,0,0,0,-1,1182,645,0,0
-35,379,0,0,0,0,0,0,0,0,0,-1,1189,645,0,0
-28,379,0,0,0,0,0,0,0,0,0,-1,1196,645,0,0
-21,379,0,0,0,0,0,0,0,0,0,-1,1203,645,0,0
-14,379,0,0,0,0,0,0,0,0,0,-1,1210,645,0,0
-7,379,0,0,0,0,0,0,0,0,0,-1,1217,645,0,0
0,379,0,0,0,0,0,0,0,0,0,-1,1224,645,0,0
7,379,0,0,0,0,0,0,0,0,0,-1,1231,645,0,0
14,379,0,0,0,0,0,0,0,0,0,-1,1238,645,0,0
21,379,0,0,0,0,0,0,0,0,0,-1,1245,645,0,0
28,379,0,0,0,0,0,0,0,0,0,-1,1252,645,0,0
35,379,0,0,0,0,0,0,0,0,0,-1,1259,645,0,0
42,379,0,0,0,0,0,0,0,0,0,-1,1266,645,0,0
49,379,0,0,0,0,0,0,0,0,0,-1,1273,645,0,0
56,379,0,0,0,0,0,0,0,0,0,-1,1280,645,0,0
63,379,0,0,0,0,0,0,0,0,0,-1,1287,645,0,0
70,379,0,0,0,0,0,0,0,0,0,-1,1294,645,0,0
77,379,0,0,0,0,0,0,0,0,0,-1,1301,645,0,0
84,379,0,0,0,0,0,0,0,0,0,-1,1308,645,0,0
91,379,0,0,0,0,0,0,0,0,0,-1,1315,645,0,0
98,379,0,0,0,0,0,0,0,0,0,-1,1322,645,0,0
105,379,0,0,0,0,0,0,0,0,0,-1,1329,645,0,0
112,379,0,0,0,0,0,0,0,0,0,-1,1336,645,0,0
119,379,0,0,0,0,0,0,0,0,0,-1,1343,645,0,0
126,379,0,0,0,0,0,0,0,0,0,-1,1350,645,0,0
133,379,0,0,0,0,0,0,0,0,0,-1,1357,645,0,0
140,379,0,0,0,0,0,0,0,0,0,-1,1364,645,0,0
147,379,0,0,0,0,0,0,0,0,0,-1,1371,645,0,0
154,379,0,0,0,0,0,0,0,0,0,-1,1378,645,0,0
161,379,0,0,0,0,0,0,0,0,0,-1,1385,645,0,0
168,379,0,0,0,0,0,0,0,0,0,-1,1392,645,0,0
175,379,0,0,0,0,0,0,0,0,0,-1,1399,645,0,0
182,379,0,0,0,0,0,0,0,0,0,-1,1406,645,0,0
189,379,0,0,0,0,0,0,0,0,0,-1,1413,645,0,0
196,379,0,0,0,0,0,0,0,0,0,-1,1420,645,0,0
203,379,0,0,0,0,0,0,0,0,0,-1,1427,645,0,0
210,379,0,0,0,0,0,0,0,0,0,-1,1434,645,0,0
217,379,0,0,0,0,0,0,0,0,0,-1,1441,645,0,0
224,379,0,0,0,0,0,0,0,0,0,-1,1448,645,0,0
231,379,0,0,0,0,0,0,0,0,0,-1,1455,645,0,0
238,379,0,0,0,0,0,0,0,0,0,-1,1462,645,0,0
245,379,0,0,0,0,0,0,0,0,0,-1,1469,645,0,0
252,379,0,0,0,0,0,0,0,0,0,-1,1476,645,0,0
259,379,0,0,0,0,0,0,0,0,0,-1,1483,645,0,0
266,379,0,0,0,0,0,0,0,0,0,-1,1490,645,0,0
273,379,0,0,0,0,0,0,0,0,0,-1,1497,645,0,0
280,379,0,0,0,0,0,0,0,0,0,-1,1504,645,0,0
287,379,0,0,0,0,0,0,0,0,0,-1,1511,645,0,0
294,379,0,0,0,0,0,0,0,0,0,-1,1518,645,0,0
301,379,0,0,0,0,0,0,0,0,0,-1,1525,645,0,0
308,379,0,0,0,0,0,0,0,0,0,-1,1532,645,0,0
315,379,0,0,0,0,0,0,0,0,0,-1,1539,645,0,0
322,379,0,0,0,0,0,0,0,0,0,-1,1546,645,0,0
329,379,0,0,0,0,0,0,0,0,0,-1,1553,645,0,0
336,379,0,0,0,0,0,0,0,0,0,-1,1560,645,0,0
343,379,0,0,0,0,0,0,0,0,0,-1,1567,645,0,0
350,379,0,0,0,0,0,0,0,0,0,-1,1574,645,0,0
357,379,0,0,0,0,0,0,0,0,0,-1,1581,645,0,0
364,379,0,0,0,0,0,0,0,0,0,-1,1588,645,0,0
371,379,0,0,0,0,0,0,0,0,0,-1,1595,645,0,0
378,379,0,0,0,0,0,0,0,0,0,-1,1602,645,0,0
385,379,0,0,0,0,0,0,0,0,0,-1,1609,645,0,0
392,379,0,0,0,0,0,0,0,0,0,-1,1616,645,0,0
399,379,0,0,0,0,0,0,0,0,0,-1,1623,645,0,0
406,379,0,0,0,0,0,0,0,0,0,-1,1630,645,0,0
413,379,0,0,0,0,0,0,0,0,0,-1,1637,645,0,0
420,379,0,0,0,0,0,0,0,0,0,-1,1644,645,0,0
427,379,0,0,0,0,0,0,0,0,0,-1,1651,645,0,0
434,379,0,0,0,0,0,0,0,0,0,-1,1658,645,0,0
441,379,0,0,0,0,0,0,0,0,0,-1,1665,645,0,0
448,379,0,0,0,0,0,0,0,0,0,-1,1672,645,0,0
455,379,0,0,0,0,0,0,0,0,0,-1,1679,645,0,0
462,379,0,0,0,0,0,0,0,0,0,-1,1686,645,0,0
469,379,0,0,0,0,0,0,0,0,0,-1,1693,645,0,0
476,379,11.1787,0.830383,0,0,0,0,0,0,0,-1,1700,645,11.1787,-0.830365
483,379,7.4231,1.54321,0,0,0,0,0,0,0,-1,1707,645,7.42314,-1.54324
490,379,8.52881,1.56677,0,0,0,0,0,0,0,-1,1714,645,8.52878,-1.56677
497,379,9.63599,1.49573,0,0,0,0,0,0,0,-1,1721,645,9.63604,-1.4957
504,379,10.0833,1.35229,0,0,0,0,0,0,0,-1,1728,645,10.0832,-1.35227
511,379,8.14343,1.59912,0,0,0,0,0,0,0,-1,1735,645,8.14347,-1.59912
518,379,12.7955,-0.324097,0,0,0,0,0,0,0,-1,1742,645,12.7955,0.324101
525,379,6.03711,1.10352,0,0,0,0,0,0,0,-1,1749,645,6.03711,-1.10351
532,379,8.70947,0.887817,0,0,0,0,0,0,0,-1,1756,645,8.70953,-0.887808
539,379,9.87097,0.111389,0,0,0,0,0,0,0,-1,1763,645,9.87095,-0.111395
546,379,8.42383,-0.730652,0,0,0,0,0,0,0,-1,1770,645,8.42378,0.730638
553,379,19.2905,-7.67834,0,0,0,0,0,0,0,-1,1777,645,19.2905,7.67837
560,379,22.5734,-10.4749,0,0,0,0,0,0,0,-1,1784,645,22.5734,10.4749
567,379,30.3184,-14.3934,0,0,0,0,0,0,0,-1,1791,645,30.3183,14.3934
574,379,30.3044,-13.5507,0.00104613,0.000754103,-0.000231772,0.00117405,0.000626185,-0.504309,0.00067834,0.0175175,1798,645,30.3045,13.5506
581,379,30.2743,-12.7675,0.000713107,0.000568667,-0.000241169,0.000892637,0.000389136,-0.639919,0.000516773,0.0155186,1805,645,30.2743,12.7675
588,379,30.2405,-11.9467,0.000689059,0.000620076,-2.04184e-05,0.000694649,0.000614485,-0.267252,0.000438826,0.0162744,1812,645,30.2404,11.9466
595,379,30.1973,-11.1792,0.000932699,0.000969265,0.000381142,0.00133256,0.000569402,0.809364,0.000772061,0.0137883,1819,645,30.1972,11.1792
602,379,30.1591,-10.4158,0.00133568,0.00150497,0.00088871,0.00231305,0.000527589,0.832878,0.00139972,0.0160234,1826,645,30.159,10.4158
609,379,30.1128,-9.63312,0.00178958,0.00220683,0.00145103,0.00346416,0.000532253,0.856796,0.00215405,0.018161,1833,645,30.1128,9.63315
616,379,30.049,-8.81805,0.00231704,0.00308635,0.00205444,0.00479183,0.000611558,0.877942,0.00301147,0.0143968,1840,645,30.0489,8.81803
623,379,30.0145,-7.96362,0.00293293,0.0040949,0.00273242,0.00630742,0.000720409,0.890151,0.00398657,0.0123008,1847,645,30.0145,7.96361
630,379,29.9685,-7.15656,0.00348185,0.00512601,0.0033406,0.0077442,0.000863663,0.906045,0.00490035,0.0145962,1854,645,29.9685,7.15658
637,379,29.9734,-6.23602,0.00390159,0.00630633,0.00390103,0.00918608,0.00102184,0.934888,0.00581345,0.0479788,1861,645,29.9734,6.236
644,379,30.2134,-5.17072,0,0,0,0,0,0,0,-1,1868,645,30.2134,5.17072
651,379,12.9515,0.220825,0,0,0,0,0,0,0,-1,1875,645,12.9515,-0.220814
658,379,13.7498,0.37439,0,0,0,0,0,0,0,-1,1882,645,13.7498,-0.374371
665,379,11.9719,0.353333,0,0,0,0,0,0,0,-1,1889,645,11.9719,-0.353321
672,379,7.57605,2.15326,0,0,0,0,0,0,0,-1,1896,645,7.57599,-2.15326
679,379,8.55078,2.50409,0,0,0,0,0,0,0,-1,1903,645,8.55073,-2.50406
686,379,0,0,0,0,0,0,0,0,0,-1,1910,645,0,0
693,379,0,0,0,0,0,0,0,0,0,-1,1917,645,0,0
700,379,0,0,0,0,0,0,0,0,0,-1,1924,645,0,0
707,379,0,0,0,0,0,0,0,0,0,-1,1931,645,0,0
714,379,0,0,0,0,0,0,0,0,0,-1,1938,645,0,0
721,379,0,0,0,0,0,0,0,0,0,-1,1945,645,0,0
728,379,0,0,0,0,0,0,0,0,0,-1,1952,645,0,0
735,379,0,0,0,0,0,0,0,0,0,-1,1959,645,0,0
742,379,0,0,0,0,0,0,0,0,0,-1,1966,645,0,0
749,379,0,0,0,0,0,0,0,0,0,-1,1973,645,0,0
756,379,0,0,0,0,0,0,0,0,0,-1,1980,645,0,0
763,379,0,0,0,0,0,0,0,0,0,-1,1987,645,0,0
770,379,0,0,0,0,0,0,0,0,0,-1,1994,645,0,0
777,379,0,0,0,0,0,0,0,0,0,-1,2001,645,0,0
784,379,0,0,0,0,0,0,0,0,0,-1,2008,645,0,0
791,379,0,0,0,0,0,0,0,0,0,-1,2015,645,0,0
798,379,0,0,0,0,0,0,0,0,0,-1,2022,645,0,0
805,379,0,0,0,0,0,0,0,0,0,-1,2029,645,0,0
812,379,0,0,0,0,0,0,0,0,0,-1,2036,645,0,0
-700,372,0,0,0,0,0,0,0,0,0,-1,524,652,0,0
-693,372,0,0,0,0,0,0,0,0,0,-1,531,652,0,0
-686,372,0,0,0,0,0,0,0,0,0,-1,538,652,0,0
-679,372,0,0,0,0,0,0,0,0,0,-1,545,652,0,0
-672,372,0,0,0,0,0,0,0,0,0,-1,552,652,0,0
-665,372,0,0,0,0,0,0,0,0,0,-1,559,652,0,0
-658,372,0,0,0,0,0,0,0,0,0,-1,566,652,0,0
-651,372,0,0,0,0,0,0,0,0,0,-1,573,652,0,0
-644,372,0,0,0,0,0,0,0,0,0,-1,580,652,0,0
-637,372,0,0,0,0,0,0,0,0,0,-1,587,652,0,0
-630,372,0,0,0,0,0,0,0,0,0,-1,594,652,0,0
-623,372,0,0,0,0,0,0,0,0,0,-1,601,652,0,0
-616,372,0,0,0,0,0,0,0,0,0,-1,608,652,0,0
-609,372,0,0,0,0,0,0,0,0,0,-1,615,652,0,0
-602,372,0,0,0,0,0,0,0,0,0,-1,622,652,0,0
-595,372,0,0,0,0,0,0,0,0,0,-1,629,652,0,0
-588,372,0,0,0,0,0,0,0,0,0,-1,636,652,0,0
-581,372,0,0,0,0,0,0,0,0,0,-1,643,652,0,0
-574,372,0,0,0,0,0,0,0,0,0,-1,650,652,0,0
-567,372,-7.93744,0.73407,0,0,0,0,0,0,0,-1,657,652,-7.93741,-0.734076
-560,372,-8.78552,-0.158203,0,0,0,0,0,0,0,-1,664,652,-8.78552,0.158216
-553,372,-7.95551,1.61694,0,0,0,0,0,0,0,-1,671,652,-7.95552,-1.61697
-546,372,-4.2403,-3.75372,0,0,0,0,0,0,0,-1,678,652,-4.24028,3.75369
-539,372,-7.92285,-0.0650024,0,0,0,0,0,0,0,-1,685,652,-7.92287,0.0649772
-532,372,-8.59589,-0.419556,0,0,0,0,0,0,0,-1,692,652,-8.59591,0.419539
-525,372,-8.03674,-1.36804,0,0,0,0,0,0,0,-1,699,652,-8.03676,1.36806
-518,372,-16.9094,-6.62183,0,0,0,0,0,0,0,-1,706,652,-16.9094,6.62183
-511,372,-16.8884,-7.56372,0.00260239,0.00090758,-0.00110708,0.00314916,0.000360815,-0.458741,0.0019901,0.0402508,713,652,-16.8884,7.56375
-504,372,-16.9338,-8.30029,0.00213529,0.000836363,-0.00086529,0.00256774,0.000403917,-0.463464,0.00159433,0.0184551,720,652,-16.9338,8.30027
-497,372,-16.9321,-9.12207,0.00174213,0.000664621,-0.000669646,0.00206284,0.00034391,-0.446648,0.00127613,0.0131789,727,652,-16.9321,9.1221
-490,372,-16.9806,-9.89911,0.00144612,0.00043548,-0.000514009,0.0016616,0.000219999,-0.396961,0.00104217,0.0138744,734,652,-16.9806,9.89914
-483,372,-17.0294,-10.6631,0.0012648,0.000177416,-0.000381799,0.00138547,5.67502e-05,-0.306112,0.000905321,0.0129408,741,652,-17.0293,10.6631
-476,372,-17.0652,-11.42,0.00122897,-4.65303e-05,-0.000312693,0.00130151,-0.000119063,-0.227931,0.000909959,0.0129056,748,652,-17.0652,11.4201
-469,372,-17.12,-12.1837,0.00134491,-0.000237649,-0.000334919,0.00141287,-0.00030561,-0.200199,0.00105859,0.0105757,755,652,-17.12,12.1837
-462,372,-17.1526,-12.9829,0.00159519,-0.000399631,-0.000440582,0.00168817,-0.000492606,-0.207976,0.00132063,0.0101408,762,652,-17.1527,12.9829
-455,372,-17.2071,-13.7716,0.00206536,-0.000436896,-0.000674454,0.00223557,-0.000607109,-0.247209,0.00172866,0.0109446,769,652,-17.2071,13.7716
-448,372,-17.2255,-14.5463,0.00274683,-0.000361944,-0.00102792,0.00305597,-0.000671084,-0.292139,0.00229396,0.0148586,776,652,-17.2255,14.5463
-441,372,-17.181,-15.4171,0,0,0,0,0,0,0,-1,783,652,-17.181,15.417
-434,372,-9.86865,-9.68494,0,0,0,0,0,0,0,-1,790,652,-9.86863,9.68492
-427,372,-4.54248,-3.56268,0,0,0,0,0,0,0,-1,797,652,-4.54247,3.56266
-420,372,-4.66168,-2.93597,0,0,0,0,0,0,0,-1,804,652,-4.66166,2.93599
-413,372,-4.74762,-3.29541,0,0,0,0,0,0,0,-1,811,652,-4.74763,3.29542
-406,372,-0.885437,-0.583923,0,0,0,0,0,0,0,-1,818,652,-0.885437,0.5839
-399,372,-3.97357,-0.825012,0,0,0,0,0,0,0,-1,825,652,-3.97359,0.825037
-392,372,-7.64337,0.173035,0,0,0,0,0,0,0,-1,832,652,-7.64337,-0.173019
-385,372,-6.48871,-0.0271606,0,0,0,0,0,0,0,-1,839,652,-6.48874,0.0271353
-378,372,-5.33044,-0.242432,0,0,0,0,0,0,0,-1,846,652,-5.33042,0.242457
-371,372,-4.40802,-0.495667,0,0,0,0,0,0,0,-1,853,652,-4.40802,0.495661
-364,372,0,0,0,0,0,0,0,0,0,-1,860,652,0,0
-357,372,0,0,0,0,0,0,0,0,0,-1,867,652,0,0
-350,372,0,0,0,0,0,0,0,0,0,-1,874,652,0,0
-343,372,0,0,0,0,0,0,0,0,0,-1,881,652,0,0
-336,372,0,0,0,0,0,0,0,0,0,-1,888,652,0,0
-329,372,0,0,0,0,0,0,0,0,0,-1,895,652,0,0
-322,372,0,0,0,0,0,0,0,0,0,-1,902,652,0,0
-315,372,0,0,0,0,0,0,0,0,0,-1,909,652,0,0
-308,372,0,0,0,0,0,0,0,0,0,-1,916,652,0,0
-301,372,0,0,0,0,0,0,0,0,0,-1,923,652,0,0
-294,372,0,0,0,0,0,0,0,0,0,-1,930,652,0,0
-287,372,0,0,0,0,0,0,0,0,0,-1,937,652,0,0
-280,372,0,0,0,0,0,0,0,0,0,-1,944,652,0,0
-273,372,0,0,0,0,0,0,0,0,0,-1,951,652,0,0
-266,372,0,0,0,0,0,0,0,0,0,-1,958,652,0,0
-259,372,0,0,0,0,0,0,0,0,0,-1,965,652,0,0
-252,372,0,0,0,0,0,0,0,0,0,-1,972,652,0,0
-245,372,0,0,0,0,0,0,0,0,0,-1,979,652,0,0
-238,372,0,0,0,0,0,0,0,0,0,-1,986,652,0,0
-231,372,0,0,0,0,0,0,0,0,0,-1,993,652,0,0
-224,372,0,0,0,0,0,0,0,0,0,-1,1000,652,0,0
-217,372,0,0,0,0,0,0,0,0,0,-1,1007,652,0,0
-210,372,0,0,0,0,0,0,0,0,0,-1,1014,652,0,0
-203,372,0,0,0,0,0,0,0,0,0,-1,1021,652,0,0
-196,372,0,0,0,0,0,0,0,0,0,-1,1028,652,0,0
-189,372,0,0,0,0,0,0,0,0,0,-1,1035,652,0,0
-182,372,0,0,0,0,0,0,0,0,0,-1,1042,652,0,0
-175,372,0,0,0,0,0,0,0,0,0,-1,1049,652,0,0
-168,372,0,0,0,0,0,0,0,0,0,-1,1056,652,0,0
-161,372,0,0,0,0,0,0,0,0,0,-1,1063,652,0,0
-154,372,0,0,0,0,0,0,0,0,0,-1,1070,652,0,0
-147,372,0,0,0,0,0,0,0,0,0,-1,1077,652,0,0
-140,372,0,0,0,0,0,0,0,0,0,-1,1084,652,0,0
-133,372,0,0,0,0,0,0,0,0,0,-1,1091,652,0,0
-126,372,0,0,0,0,0,0,0,0,0,-1,1098,652,0,0
-119,372,0,0,0,0,0,0,0,0,0,-1,1105,652,0,0
-112,372,0,0,0,0,0,0,0,0,0,-1,1112,652,0,0
-105,372,0,0,0,0,0,0,0,0,0,-1,1119,652,0,0
-98,372,0,0,0,0,0,0,0,0,0,-1,1126,652,0,0
-91,372,0,0,0,0,0,0,0,0,0,-1,1133,652,0,0
-84,372,0,0,0,0,0,0,0,0,0,-1,1140,652,0,0
-77,372,0,0,0,0,0,0,0,0,0,-1,1147,652,0,0
-70,372,0,0,0,0,0,0,0,0,0,-1,1154,652,0,0
-63,372,0,0,0,0,0,0,0,0,0,-1,1161,652,0,0
-56,372,0,0,0,0,0,0,0,0,0,-1,1168,652,0,0
-49,372,0,0,0,0,0,0,0,0,0,-1,1175,652,0,0
-42,372,0,0,0,0,0,0,0,0,0,-1,1182,652,0,0
-35,372,0,0,0,0,0,0,0,0,0,-1,1189,652,0,0
-28,372,0,0,0,0,0,0,0,0,0,-1,1196,652,0,0
-21,372,0,0,0,0,0,0,0,0,0,-1,1203,652,0,0
-14,372,0,0,0,0,0,0,0,0,0,-1,1210,652,0,0
-7,372,0,0,0,0,0,0,0,0,0,-1,1217,652,0,0
0,372,0,0,0,0,0,0,0,0,0,-1,1224,652,0,0
7,372,0,0,0,0,0,0,0,0,0,-1,1231,652,0,0
14,372,0,0,0,0,0,0,0,0,0,-1,1238,652,0,0
21,372,0,0,0,0,0,0,0,0,0,-1,1245,652,0,0
28,372,0,0,0,0,0,0,0,0,0,-1,1252,652,0,0
35,372,0,0,0,0,0,0,0,0,0,-1,1259,652,0,0
42,372,0,0,0,0,0,0,0,0,0,-1,1266,652,0,0
49,372,0,0,0,0,0,0,0,0,0,-1,1273,652,0,0
56,372,0,0,0,0,0,0,0,0,0,-1,1280,652,0,0
63,372,0,0,0,0,0,0,0,0,0,-1,1287,652,0,0
70,372,0,0,0,0,0,0,0,0,0,-1,1294,652,0,0
77,372,0,0,0,0,0,0,0,0,0,-1,1301,652,0,0
84,372,0,0,0,0,0,0,0,0,0,-1,1308,652,0,0
91,372,0,0,0,0,0,0,0,0,0,-1,1315,652,0,0
98,372,0,0,0,0,0,0,0,0,0,-1,1322,652,0,0
105,372,0,0,0,0,0,0,0,0,0,-1,1329,652,0,0
112,372,0,0,0,0,0,0,0,0,0,-1,1336,652,0,0
119,372,0,0,0,0,0,0,0,0,0,-1,1343,652,0,0
126,372,0,0,0,0,0,0,0,0,0,-1,1350,652,0,0
133,372,0,0,0,0,0,0,0,0,0,-1,1357,652,0,0
140,372,0,0,0,0,0,0,0,0,0,-1,1364,652,0,0
147,372,0,0,0,0,0,0,0,0,0,-1,1371,652,0,0
154,372,0,0,0,0,0,0,0,0,0,-1,1378,652,0,0
161,372,0,0,0,0,0,0,0,0,0,-1,1385,652,0,0
168,372,0,0,0,0,0,0,0,0,0,-1,1392,652,0,0
175,372,0,0,0,0,0,0,0,0,0,-1,1399,652,0,0
182,372,0,0,0,0,0,0,0,0,0,-1,1406,652,0,0
189,372,0,0,0,0,0,0,0,0,0,-1,1413,652,0,0
196,372,0,0,0,0,0,0,0,0,0,-1,1420,652,0,0
203,372,0,0,0,0,0,0,0,0,0,-1,1427,652,0,0
210,372,0,0,0,0,0,0,0,0,0,-1,1434,652,0,0
217,372,0,0,0,0,0,0,0,0,0,-1,1441,652,0,0
224,372,0,0,0,0,0,0,0,0,0,-1,1448,652,0,0
231,372,0,0,0,0,0,0,0,0,0,-1,1455,652,0,0
238,372,0,0,0,0,0,0,0,0,0,-1,1462,652,0,0
245,372,0,0,0,0,0,0,0,0,0,-1,1469,652,0,0
252,372,0,0,0,0,0,0,0,0,0,-1,1476,652,0,0
259,372,0,0,0,0,0,0,0,0,0,-1,1483,652,0,0
266,372,0,0,0,0,0,0,0,0,0,-1,1490,652,0,0
273,372,0,0,0,0,0,0,0,0,0,-1,1497,652,0,0
280,372,0,0,0,0,0,0,0,0,0,-1,1504,652,0,0
287,372,0,0,0,0,0,0,0,0,0,-1,1511,652,0,0
294,372,0,0,0,0,0,0,0,0,0,-1,1518,652,0,0
301,372,0,0,0,0,0,0,0,0,0,-1,1525,652,0,0
308,372,0,0,0,0,0,0,0,0,0,-1,1532,652,0,0
315,372,0,0,0,0,0,0,0,0,0,-1,1539,652,0,0
322,372,0,0,0,0,0,0,0,0,0,-1,1546,652,0,0
329,372,0,0,0,0,0,0,0,0,0,-1,1553,652,0,0
336,372,0,0,0,0,0,0,0,0,0,-1,1560,652,0,0
343,372,0,0,0,0,0,0,0,0,0,-1,1567,652,0,0
350,372,0,0,0,0,0,0,0,0,0,-1,1574,652,0,0
357,372,0,0,0,0,0,0,0,0,0,-1,1581,652,0,0
364,372,0,0,0,0,0,0,0,0,0,-1,1588,652,0,0
371,372,0,0,0,0,0,0,0,0,0,-1,1595,652,0,0
378,372,0,0,0,0,0,0,0,0,0,-1,1602,652,0,0
385,372,0,0,0,0,0,0,0,0,0,-1,1609,652,0,0
392,372,0,0,0,0,0,0,0,0,0,-1,1616,652,0,0
399,372,0,0,0,0,0,0,0,0,0,-1,1623,652,0,0
406,372,0,0,0,0,0,0,0,0,0,-1,1630,652,0,0
413,372,0,0,0,0,0,0,0,0,0,-1,1637,652,0,0
420,372,0,0,0,0,0,0,0,0,0,-1,1644,652,0,0
427,372,0,0,0,0,0,0,0,0,0,-1,1651,652,0,0
434,372,0,0,0,0,0,0,0,0,0,-1,1658,652,0,0
441,372,0,0,0,0,0,0,0,0,0,-1,1665,652,0,0
448,372,0,0,0,0,0,0,0,0,0,-1,1672,652,0,0
455,372,0,0,0,0,0,0,0,0,0,-1,1679,652,0,0
462,372,0,0,0,0,0,0,0,0,0,-1,1686,652,0,0
469,372,0,0,0,0,0,0,0,0,0,-1,1693,652,0,0
476,372,0,0,0,0,0,0,0,0,0,-1,1700,652,0,0
483,372,8.74182,1.53125,0,0,0,0,0,0,0,-1,1707,652,8.74186,-1.53126
490,372,9.78455,1.67096,0,0,0,0,0,0,0,-1,1714,652,9.7846,-1.67093
497,372,9.97644,1.46069,0,0,0,0,0,0,0,-1,1721,652,9.97647,-1.46071
504,372,10.1216,1.28375,0,0,0,0,0,0,0,-1,1728,652,10.1216,-1.28376
511,372,11.7367,-0.0272217,0,0,0,0,0,0,0,-1,1735,652,11.7367,0.0272326
518,372,12.0657,-0.0995483,0,0,0,0,0,0,0,-1,1742,652,12.0657,0.0995285
525,372,12.3947,-0.171814,0,0,0,0,0,0,0,-1,1749,652,12.3946,0.171824
532,372,9.36597,1.72034,0,0,0,0,0,0,0,-1,1756,652,9.36597,-1.72036
539,372,7.82886,-0.0865479,0,0,0,0,0,0,0,-1,1763,652,7.82882,0.0865771
546,372,10.953,-0.187195,0,0,0,0,0,0,0,-1,1770,652,10.953,0.187181
553,372,14.1201,-4.83234,0,0,0,0,0,0,0,-1,1777,652,14.1201,4.83235
560,372,20.1057,-8.06934,0,0,0,0,0,0,0,-1,1784,652,20.1058,8.06936
567,372,31.1833,-14.4854,0,0,0,0,0,0,0,-1,1791,652,31.1833,14.4853
574,372,31.1447,-13.4325,0.00107182,0.000519865,-0.000545411,0.0014071,0.000184583,-0.551182,0.000882993,0.044798,1798,652,31.1446,13.4325
581,372,31.1058,-12.7264,0.000766726,0.000295112,-0.000524775,0.00110624,-4.4401e-05,-0.574242,0.00075273,0.0218987,1805,652,31.1058,12.7264
588,372,31.0372,-11.9277,0.000749174,0.000228354,-0.000308349,0.000892363,8.51647e-05,-0.434743,0.00056865,0.0160808,1812,652,31.0373,11.9277
595,372,30.9708,-11.1578,0.000953482,0.000506554,4.34925e-05,0.000957675,0.000502361,0.0961127,0.000553136,0.0143272,1819,652,30.9708,11.1578
602,372,30.9633,-10.3917,0.0012882,0.000946652,0.000477984,0.001625,0.000609849,0.613827,0.000947871,0.0171992,1826,652,30.9633,10.3917
609,372,30.8788,-9.59119,0.00162208,0.00152425,0.000942817,0.00251725,0.00062908,0.759478,0.00151272,0.0185206,1833,652,30.8788,9.59119
616,372,30.8414,-8.76453,0.00197965,0.00222606,0.00142,0.00352818,0.000677521,0.828671,0.00216196,0.0170994,1840,652,30.8414,8.76454
623,372,30.8511,-7.9115,0.00239442,0.00305314,0.00195838,0.00470967,0.000737899,0.868708,0.002925,0.0129063,1847,652,30.8511,7.9115
630,372,30.7997,-7.09686,0.00270133,0.00391599,0.00243347,0.00581677,0.00080055,0.907687,0.00364045,0.0171617,1854,652,30.7997,7.09686
637,372,30.7803,-6.32574,0.00287168,0.00485331,0.00284644,0.00687645,0.000848546,0.952884,0.00432926,0.0286802,1861,652,30.7803,6.32575
644,372,30.8024,-5.48016,0,0,0,0,0,0,0,-1,1868,652,30.8023,5.48017
651,372,21.3998,-0.888,0,0,0,0,0,0,0,-1,1875,652,21.3998,0.887992
658,372,14.157,0.280273,0,0,0,0,0,0,0,-1,1882,652,14.157,-0.280264
665,372,15.2286,0.463867,0,0,0,0,0,0,0,-1,1889,652,15.2287,-0.463854
672,372,9.34106,1.48444,0,0,0,0,0,0,0,-1,1896,652,9.34109,-1.48444
679,372,10.7308,2.32391,0,0,0,0,0,0,0,-1,1903,652,10.7309,-2.3239
686,372,11.6295,2.52997,0,0,0,0,0,0,0,-1,1910,652,11.6296,-2.52996
693,372,0,0,0,0,0,0,0,0,0,-1,1917,652,0,0
700,372,0,0,0,0,0,0,0,0,0,-1,1924,652,0,0
707,372,0,0,0,0,0,0,0,0,0,-1,1931,652,0,0
714,372,0,0,0,0,0,0,0,0,0,-1,1938,652,0,0
721,372,0,0,0,0,0,0,0,0,0,-1,1945,652,0,0
728,372,0,0,0,0,0,0,0,0,0,-1,1952,652,0,0
735,372,0,0,0,0,0,0,0,0,0,-1,1959,652,0,0
742,372,0,0,0,0,0,0,0,0,0,-1,1966,652,0,0
749,372,0,0,0,0,0,0,0,0,0,-1,1973,652,0,0
756,372,0,0,0,0,0,0,0,0,0,-1,1980,652,0,0
763,372,0,0,0,0,0,0,0,0,0,-1,1987,652,0,0
770,372,0,0,0,0,0,0,0,0,0,-1,1994,652,0,0
777,372,0,0,0,0,0,0,0,0,0,-1,2001,652,0,0
784,372,0,0,0,0,0,0,0,0,0,-1,2008,652,0,0
791,372,0,0,0,0,0,0,0,0,0,-1,2015,652,0,0
798,372,0,0,0,0,0,0,0,0,0,-1,2022,652,0,0
805,372,0,0,0,0,0,0,0,0,0,-1,2029,652,0,0
812,372,0,0,0,0,0,0,0,0,0,-1,2036,652,0,0
-700,365,0,0,0,0,0,0,0,0,0,-1,524,659,0,0
-693,365,0,0,0,0,0,0,0,0,0,-1,531,659,0,0
-686,365,0,0,0,0,0,0,0,0,0,-1,538,659,0,0
-679,365,0,0,0,0,0,0,0,0,0,-1,545,659,0,0
-672,365,0,0,0,0,0,0,0,0,0,-1,552,659,0,0
-665,365,0,0,0,0,0,0,0,0,0,-1,559,659,0,0
-658,365,0,0,0,0,0,0,0,0,0,-1,566,659,0,0
-651,365,0,0,0,0,0,0,0,0,0,-1,573,659,0,0
-644,365,0,0,0,0,0,0,0,0,0,-1,580,659,0,0
-637,365,0,0,0,0,0,0,0,0,0,-1,587,659,0,0
-630,365,0,0,0,0,0,0,0,0,0,-1,594,659,0,0
-623,365,0,0,0,0,0,0,0,0,0,-1,601,659,0,0
-616,365,0,0,0,0,0,0,0,0,0,-1,608,659,0,0
-609,365,0,0,0,0,0,0,0,0,0,-1,615,659,0,0
-602,365,0,0,0,0,0,0,0,0,0,-1,622,659,0,0
-595,365,0,0,0,0,0,0,0,0,0,-1,629,659,0,0
-588,365,0,0,0,0,0,0,0,0,0,-1,636,659,0,0
-581,365,0,0,0,0,0,0,0,0,0,-1,643,659,0,0
-574,365,-7.69281,1.59015,0,0,0,0,0,0,0,-1,650,659,-7.69282,-1.59018
-567,365,-8.2583,1.72638,0,0,0,0,0,0,0,-1,657,659,-8.25827,-1.72637
-560,365,-7.17767,0.275757,0,0,0,0,0,0,0,-1,664,659,-7.17768,-0.27577
-553,365,-10.0349,-0.169617,0,0,0,0,0,0,0,-1,671,659,-10.0349,0.169593
-546,365,-10.6303,-1.51642,0,0,0,0,0,0,0,-1,678,659,-10.6303,1.5164
-539,365,-8.38599,1.52936,0,0,0,0,0,0,0,-1,685,659,-8.38598,-1.52935
-532,365,-8.52863,0.166504,0,0,0,0,0,0,0,-1,692,659,-8.52863,-0.166501
-525,365,-9.28229,-2.62726,0,0,0,0,0,0,0,-1,699,659,-9.28227,2.62724
-518,365,-17.6514,-6.55054,0,0,0,0,0,0,0,-1,706,659,-17.6514,6.55052
-511,365,-17.6853,-7.45502,0.0030206,0.000800545,-0.00114408,0.00350465,0.000316496,-0.400252,0.00223841,0.039699,713,659,-17.6853,7.45504
-504,365,-17.6771,-8.2627,0.00246025,0.000621944,-0.000894231,0.00282347,0.000258719,-0.385828,0.00180227,0.0134138,720,659,-17.6771,8.26272
-497,365,-17.7023,-9.07703,0.00201938,0.00040509,-0.000675521,0.00226476,0.000159708,-0.348428,0.00145952,0.0135359,727,659,-17.7023,9.07705
-490,365,-17.7684,-9.85669,0.00166599,0.000189952,-0.000511077,0.00182568,3.02681e-05,-0.302836,0.00120716,0.0143897,734,659,-17.7683,9.85667
-483,365,-17.8264,-10.6144,0.00146513,-3.94148e-05,-0.000365381,0.00154917,-0.000123454,-0.226072,0.00107629,0.0129401,741,659,-17.8264,10.6145
-476,365,-17.809,-11.3873,0.00140507,-0.000206104,-0.000284122,0.00145371,-0.000254739,-0.169534,0.00106426,0.0179343,748,659,-17.809,11.3873
-469,365,-17.866,-12.1672,0.00148585,-0.000319173,-0.000299033,0.0015341,-0.000367423,-0.159976,0.00116469,0.0180819,755,659,-17.866,12.1672
-462,365,-17.9246,-12.9297,0.00171085,-0.000383085,-0.000405678,0.0017867,-0.000458933,-0.184833,0.00136998,0.0152404,762,659,-17.9245,12.9297
-455,365,-17.9683,-13.7083,0.00216184,-0.000373273,-0.000622104,0.00230628,-0.000517705,-0.228126,0.00173601,0.0182627,769,659,-17.9683,13.7082
-448,365,-18.0148,-14.5653,0,0,0,0,0,0,0,-1,776,659,-18.0148,14.5653
-441,365,-16.9571,-15.1896,0,0,0,0,0,0,0,-1,783,659,-16.9571,15.1896
-434,365,-5.45056,-3.98041,0,0,0,0,0,0,0,-1,790,659,-5.45055,3.98042
-427,365,-5.05377,-4.74689,0,0,0,0,0,0,0,-1,797,659,-5.05376,4.7469
-420,365,-4.58813,-3.16376,0,0,0,0,0,0,0,-1,804,659,-4.58816,3.16374
-413,365,0.141357,0.672729,0,0,0,0,0,0,0,-1,811,659,0.141365,-0.672714
-406,365,-1.75067,-0.934448,0,0,0,0,0,0,0,-1,818,659,-1.7507,0.934424
-399,365,-4.10242,-1.25439,0,0,0,0,0,0,0,-1,825,659,-4.10244,1.25438
-392,365,-7.46545,-0.779724,0,0,0,0,0,0,0,-1,832,659,-7.46543,0.779744
-385,365,-6.27875,-0.887573,0,0,0,0,0,0,0,-1,839,659,-6.27874,0.887545
-378,365,-5.34503,-0.263306,0,0,0,0,0,0,0,-1,846,659,-5.34504,0.263275
-371,365,0,0,0,0,0,0,0,0,0,-1,853,659,0,0
-364,365,0,0,0,0,0,0,0,0,0,-1,860,659,0,0
-357,365,0,0,0,0,0,0,0,0,0,-1,867,659,0,0
-350,365,0,0,0,0,0,0,0,0,0,-1,874,659,0,0
-343,365,0,0,0,0,0,0,0,0,0,-1,881,659,0,0
-336,365,0,0,0,0,0,0,0,0,0,-1,888,659,0,0
-329,365,0,0,0,0,0,0,0,0,0,-1,895,659,0,0
-322,365,0,0,0,0,0,0,0,0,0,-1,902,659,0,0
-315,365,0,0,0,0,0,0,0,0,0,-1,909,659,0,0
-308,365,0,0,0,0,0,0,0,0,0,-1,916,659,0,0
-301,365,0,0,0,0,0,0,0,0,0,-1,923,659,0,0
-294,365,0,0,0,0,0,0,0,0,0,-1,930,659,0,0
-287,365,0,0,0,0,0,0,0,0,0,-1,937,659,0,0
-280,365,0,0,0,0,0,0,0,0,0,-1,944,659,0,0
-273,365,0,0,0,0,0,0,0,0,0,-1,951,659,0,0
-266,365,0,0,0,0,0,0,0,0,0,-1,958,659,0,0
-259,365,0,0,0,0,0,0,0,0,0,-1,965,659,0,0
-252,365,0,0,0,0,0,0,0,0,0,-1,972,659,0,0
-245,365,0,0,0,0,0,0,0,0,0,-1,979,659,0,0
-238,365,0,0,0,0,0,0,0,0,0,-1,986,659,0,0
-231,365,0,0,0,0,0,0,0,0,0,-1,993,659,0,0
-224,365,0,0,0,0,0,0,0,0,0,-1,1000,659,0,0
-217,365,0,0,0,0,0,0,0,0,0,-1,1007,659,0,0
-210,365,0,0,0,0,0,0,0,0,0,-1,1014,659,0,0
-203,365,0,0,0,0,0,0,0,0,0,-1,1021,659,0,0
-196,365,0,0,0,0,0,0,0,0,0,-1,1028,659,0,0
-189,365,0,0,0,0,0,0,0,0,0,-1,1035,659,0,0
-182,365,0,0,0,0,0,0,0,0,0,-1,1042,659,0,0
-175,365,0,0,0,0,0,0,0,0,0,-1,1049,659,0,0
-168,365,0,0,0,0,0,0,0,0,0,-1,1056,659,0,0
-161,365,0,0,0,0,0,0,0,0,0,-1,1063,659,0,0
-154,365,0,0,0,0,0,0,0,0,0,-1,1070,659,0,0
-147,365,0,0,0,0,0,0,0,0,0,-1,1077,659,0,0
-140,365,0,0,0,0,0,0,0,0,0,-1,1084,659,0,0
-133,365,0,0,0,0,0,0,0,0,0,-1,1091,659,0,0
-126,365,0,0,0,0,0,0,0,0,0,-1,1098,659,0,0
-119,365,0,0,0,0,0,0,0,0,0,-1,1105,659,0,0
-112,365,0,0,0,0,0,0,0,0,0,-1,1112,659,0,0
-105,365,0,0,0,0,0,0,0,0,0,-1,1119,659,0,0
-98,365,0,0,0,0,0,0,0,0,0,-1,1126,659,0,0
-91,365,0,0,0,0,0,0,0,0,0,-1,1133,659,0,0
-84,365,0,0,0,0,0,0,0,0,0,-1,1140,659,0,0
-77,365,0,0,0,0,0,0,0,0,0,-1,1147,659,0,0
-70,365,0,0,0,0,0,0,0,0,0,-1,1154,659,0,0
-63,365,0,0,0,0,0,0,0,0,0,-1,1161,659,0,0
-56,365,0,0,0,0,0,0,0,0,0,-1,1168,659,0,0
-49,365,0,0,0,0,0,0,0,0,0,-1,1175,659,0,0
-42,365,0,0,0,0,0,0,0,0,0,-1,1182,659,0,0
-35,365,0,0,0,0,0,0,0,0,0,-1,1189,659,0,0
-28,365,0,0,0,0,0,0,0,0,0,-1,1196,659,0,0
-21,365,0,0,0,0,0,0,0,0,0,-1,1203,659,0,0
-14,365,0,0,0,0,0,0,0,0,0,-1,1210,659,0,0
-7,365,0,0,0,0,0,0,0,0,0,-1,1217,659,0,0
0,365,0,0,0,0,0,0,0,0,0,-1,1224,659,0,0
7,365,0,0,0,0,0,0,0,0,0,-1,1231,659,0,0
14,365,0,0,0,0,0,0,0,0,0,-1,1238,659,0,0
21,365,0,0,0,0,0,0,0,0,0,-1,1245,659,0,0
28,365,0,0,0,0,0,0,0,0,0,-1,1252,659,0,0
35,365,0,0,0,0,0,0,0,0,0,-1,1259,659,0,0
42,365,0,0,0,0,0,0,0,0,0,-1,1266,659,0,0
49,365,0,0,0,0,0,0,0,0,0,-1,1273,659,0,0
56,365,0,0,0,0,0,0,0,0,0,-1,1280,659,0,0
63,365,0,0,0,0,0,0,0,0,0,-1,1287,659,0,0
70,365,0,0,0,0,0,0,0,0,0,-1,1294,659,0,0
77,365,0,0,0,0,0,0,0,0,0,-1,1301,659,0,0
84,365,0,0,0,0,0,0,0,0,0,-1,1308,659,0,0
91,365,0,0,0,0,0,0,0,0,0,-1,1315,659,0,0
98,365,0,0,0,0,0,0,0,0,0,-1,1322,659,0,0
105,365,0,0,0,0,0,0,0,0,0,-1,1329,659,0,0
112,365,0,0,0,0,0,0,0,0,0,-1,1336,659,0,0
119,365,0,0,0,0,0,0,0,0,0,-1,1343,659,0,0
126,365,0,0,0,0,0,0,0,0,0,-1,1350,659,0,0
133,365,0,0,0,0,0,0,0,0,0,-1,1357,659,0,0
140,365,0,0,0,0,0,0,0,0,0,-1,1364,659,0,0
147,365,0,0,0,0,0,0,0,0,0,-1,1371,659,0,0
154,365,0,0,0,0,0,0,0,0,0,-1,1378,659,0,0
161,365,0,0,0,0,0,0,0,0,0,-1,1385,659,0,0
168,365,0,0,0,0,0,0,0,0,0,-1,1392,659,0,0
175,365,0,0,0,0,0,0,0,0,0,-1,1399,659,0,0
182,365,0,0,0,0,0,0,0,0,0,-1,1406,659,0,0
189,365,0,0,0,0,0,0,0,0,0,-1,1413,659,0,0
196,365,0,0,0,0,0,0,0,0,0,-1,1420,659,0,0
203,365,0,0,0,0,0,0,0,0,0,-1,1427,659,0,0
210,365,0,0,0,0,0,0,0,0,0,-1,1434,659,0,0
217,365,0,0,0,0,0,0,0,0,0,-1,1441,659,0,0
224,365,0,0,0,0,0,0,0,0,0,-1,1448,659,0,0
231,365,0,0,0,0,0,0,0,0,0,-1,1455,659,0,0
238,365,0,0,0,0,0,0,0,0,0,-1,1462,659,0,0
245,365,0,0,0,0,0,0,0,0,0,-1,1469,659,0,0
252,365,0,0,0,0,0,0,0,0,0,-1,1476,659,0,0
259,365,0,0,0,0,0,0,0,0,0,-1,1483,659,0,0
266,365,0,0,0,0,0,0,0,0,0,-1,1490,659,0,0
273,365,0,0,0,0,0,0,0,0,0,-1,1497,659,0,0
280,365,0,0,0,0,0,0,0,0,0,-1,1504,659,0,0
287,365,0,0,0,0,0,0,0,0,0,-1,1511,659,0,0
294,365,0,0,0,0,0,0,0,0,0,-1,1518,659,0,0
301,365,0,0,0,0,0,0,0,0,0,-1,1525,659,0,0
308,365,0,0,0,0,0,0,0,0,0,-1,1532,659,0,0
315,365,0,0,0,0,0,0,0,0,0,-1,1539,659,0,0
322,365,0,0,0,0,0,0,0,0,0,-1,1546,659,0,0
329,365,0,0,0,0,0,0,0,0,0,-1,1553,659,0,0
336,365,0,0,0,0,0,0,0,0,0,-1,1560,659,0,0
343,365,0,0,0,0,0,0,0,0,0,-1,1567,659,0,0
350,365,0,0,0,0,0,0,0,0,0,-1,1574,659,0,0
357,365,0,0,0,0,0,0,0,0,0,-1,1581,659,0,0
364,365,0,0,0,0,0,0,0,0,0,-1,1588,659,0,0
371,365,0,0,0,0,0,0,0,0,0,-1,1595,659,0,0
378,365,0,0,0,0,0,0,0,0,0,-1,1602,659,0,0
385,365,0,0,0,0,0,0,0,0,0,-1,1609,659,0,0
392,365,0,0,0,0,0,0,0,0,0,-1,1616,659,0,0
399,365,0,0,0,0,0,0,0,0,0,-1,1623,659,0,0
406,365,0,0,0,0,0,0,0,0,0,-1,1630,659,0,0
413,365,0,0,0,0,0,0,0,0,0,-1,1637,659,0,0
420,365,0,0,0,0,0,0,0,0,0,-1,1644,659,0,0
427,365,0,0,0,0,0,0,0,0,0,-1,1651,659,0,0
434,365,0,0,0,0,0,0,0,0,0,-1,1658,659,0,0
441,365,0,0,0,0,0,0,0,0,0,-1,1665,659,0,0
448,365,0,0,0,0,0,0,0,0,0,-1,1672,659,0,0
455,365,0,0,0,0,0,0,0,0,0,-1,1679,659,0,0
462,365,0,0,0,0,0,0,0,0,0,-1,1686,659,0,0
469,365,0,0,0,0,0,0,0,0,0,-1,1693,659,0,0
476,365,0,0,0,0,0,0,0,0,0,-1,1700,659,0,0
483,365,0,0,0,0,0,0,0,0,0,-1,1707,659,0,0
490,365,8.39551,0.471252,0,0,0,0,0,0,0,-1,1714,659,8.39551,-0.471241
497,365,9.89233,1.35394,0,0,0,0,0,0,0,-1,1721,659,9.89237,-1.35396
504,365,10.1414,1.18005,0,0,0,0,0,0,0,-1,1728,659,10.1413,-1.18004
511,365,10.5151,0.993896,0,0,0,0,0,0,0,-1,1735,659,10.5152,-0.993894
518,365,11.2029,0.398132,0,0,0,0,0,0,0,-1,1742,659,11.2029,-0.398136
525,365,15.5748,3.85303,0,0,0,0,0,0,0,-1,1749,659,15.5748,-3.85303
532,365,11.2446,1.00629,0,0,0,0,0,0,0,-1,1756,659,11.2446,-1.00631
539,365,12.6301,1.03204,0,0,0,0,0,0,0,-1,1763,659,12.6302,-1.03204
546,365,11.647,0.84198,0,0,0,0,0,0,0,-1,1770,659,11.6469,-0.841955
553,365,12.028,-0.558899,0,0,0,0,0,0,0,-1,1777,659,12.028,0.558873
560,365,14.5372,-4.55548,0,0,0,0,0,0,0,-1,1784,659,14.5373,4.55547
567,365,20.5676,-7.53888,0,0,0,0,0,0,0,-1,1791,659,20.5676,7.53887
574,365,32.2183,-13.3293,0,0,0,0,0,0,0,-1,1798,659,32.2182,13.3293
581,365,31.9219,-12.6202,0,0,0,0,0,0,0,-1,1805,659,31.9219,12.6202
588,365,31.8053,-11.954,0.000773082,-0.000116747,-0.000584755,0.00106294,-0.000406603,-0.460192,0.000876192,0.0249847,1812,659,31.8053,11.9541
595,365,31.7764,-11.119,0.00095282,0.000122335,-0.00025197,0.00102329,5.1867e-05,-0.272703,0.000665577,0.0139228,1819,659,31.7763,11.119
602,365,31.7275,-10.2977,0.00123808,0.000483502,0.000136574,0.00126204,0.000459543,0.173657,0.00073755,0.0172665,1826,659,31.7275,10.2977
609,365,31.6295,-9.47827,0.00149782,0.0009546,0.000541671,0.00183216,0.000620256,0.553003,0.00107603,0.0188038,1833,659,31.6295,9.47825
616,365,31.6362,-8.66962,0.00174609,0.0015109,0.00093901,0.00257484,0.000682155,0.723106,0.00154038,0.019622,1840,659,31.6363,8.66959
623,365,31.6536,-7.86292,0.00202581,0.00218595,0.00137656,0.00348477,0.000726991,0.81445,0.00212276,0.0123653,1847,659,31.6536,7.86294
630,365,31.5957,-7.06201,0.00219026,0.00290541,0.00176583,0.00434951,0.000746161,0.885295,0.00268573,0.0159341,1854,659,31.5957,7.06203
637,365,31.5477,-6.29443,0.00222798,0.00365002,0.00207946,0.00513666,0.00074134,0.95013,0.00320603,0.021937,1861,659,31.5477,6.29446
644,365,31.5695,-5.48682,0.0021414,0.00452633,0.00236865,0.00598574,0.000681984,1.01859,0.00378371,0.0277145,1868,659,31.5694,5.48679
651,365,31.6459,-4.63226,0,0,0,0,0,0,0,-1,1875,659,31.6459,4.63226
658,365,24.745,-2.13275,0,0,0,0,0,0,0,-1,1882,659,24.745,2.13277
665,365,14.0961,0.769043,0,0,0,0,0,0,0,-1,1889,659,14.0961,-0.769063
672,365,10.0579,2.15088,0,0,0,0,0,0,0,-1,1896,659,10.0579,-2.15088
679,365,10.9718,2.19208,0,0,0,0,0,0,0,-1,1903,659,10.9718,-2.19211
686,365,12.2134,2.17108,0,0,0,0,0,0,0,-1,1910,659,12.2134,-2.17109
693,365,13.7141,1.98279,0,0,0,0,0,0,0,-1,1917,659,13.7141,-1.98278
700,365,0,0,0,0,0,0,0,0,0,-1,1924,659,0,0
707,365,0,0,0,0,0,0,0,0,0,-1,1931,659,0,0
714,365,0,0,0,0,0,0,0,0,0,-1,1938,659,0,0
721,365,0,0,0,0,0,0,0,0,0,-1,1945,659,0,0
728,365,0,0,0,0,0,0,0,0,0,-1,1952,659,0,0
735,365,0,0,0,0,0,0,0,0,0,-1,1959,659,0,0
742,365,0,0,0,0,0,0,0,0,0,-1,1966,659,0,0
749,365,0,0,0,0,0,0,0,0,0,-1,1973,659,0,0
756,365,0,0,0,0,0,0,0,0,0,-1,1980,659,0,0
763,365,0,0,0,0,0,0,0,0,0,-1,1987,659,0,0
770,365,0,0,0,0,0,0,0,0,0,-1,1994,659,0,0
777,365,0,0,0,0,0,0,0,0,0,-1,2001,659,0,0
784,365,0,0,0,0,0,0,0,0,0,-1,2008,659,0,0
791,365,0,0,0,0,0,0,0,0,0,-1,2015,659,0,0
798,365,0,0,0,0,0,0,0,0,0,-1,2022,659,0,0
805,365,0,0,0,0,0,0,0,0,0,-1,2029,659,0,0
812,365,0,0,0,0,0,0,0,0,0,-1,2036,659,0,0
-700,358,0,0,0,0,0,0,0,0,0,-1,524,666,0,0
-693,358,0,0,0,0,0,0,0,0,0,-1,531,666,0,0
-686,358,0,0,0,0,0,0,0,0,0,-1,538,666,0,0
-679,358,0,0,0,0,0,0,0,0,0,-1,545,666,0,0
-672,358,0,0,0,0,0,0,0,0,0,-1,552,666,0,0
-665,358,0,0,0,0,0,0,0,0,0,-1,559,666,0,0
-658,358,0,0,0,0,0,0,0,0,0,-1,566,666,0,0
-651,358,0,0,0,0,0,0,0,0,0,-1,573,666,0,0
-644,358,0,0,0,0,0,0,0,0,0,-1,580,666,0,0
-637,358,0,0,0,0,0,0,0,0,0,-1,587,666,0,0
-630,358,0,0,0,0,0,0,0,0,0,-1,594,666,0,0
-623,358,0,0,0,0,0,0,0,0,0,-1,601,666,0,0
-616,358,0,0,0,0,0,0,0,0,0,-1,608,666,0,0
-609,358,0,0,0,0,0,0,0,0,0,-1,615,666,0,0
-602,358,0,0,0,0,0,0,0,0,0,-1,622,666,0,0
-595,358,0,0,0,0,0,0,0,0,0,-1,629,666,0,0
-588,358,0,0,0,0,0,0,0,0,0,-1,636,666,0,0
-581,358,-8.31616,1.61993,0,0,0,0,0,0,0,-1,643,666,-8.31614,-1.61993
-574,358,-8.22406,1.75385,0,0,0,0,0,0,0,-1,650,666,-8.22408,-1.75383
-567,358,-8.14215,1.91577,0,0,0,0,0,0,0,-1,657,666,-8.14214,-1.91579
-560,358,-10.6086,2.18872,0,0,0,0,0,0,0,-1,664,666,-10.6086,-2.18873
-553,358,-13.4767,1.09552,0,0,0,0,0,0,0,-1,671,666,-13.4767,-1.09551
-546,358,-13.3743,-0.185059,0,0,0,0,0,0,0,-1,678,666,-13.3743,0.185037
-539,358,-9.43884,-2.04785,0,0,0,0,0,0,0,-1,685,666,-9.43884,2.04785
-532,358,-12.4141,-2.36572,0,0,0,0,0,0,0,-1,692,666,-12.4141,2.3657
-525,358,-12.731,-3.88031,0,0,0,0,0,0,0,-1,699,666,-12.731,3.88029
-518,358,-18.4277,-6.62048,0,0,0,0,0,0,0,-1,706,666,-18.4277,6.6205
-511,358,-18.4503,-7.41492,0.00316564,0.000768479,-0.00105844,0.00356608,0.000368032,-0.361693,0.0022647,0.0175505,713,666,-18.4503,7.4149
-504,358,-18.4772,-8.21075,0.00254457,0.000520369,-0.000781675,0.00281129,0.000253657,-0.328819,0.00179562,0.0123357,720,666,-18.4772,8.21074
-497,358,-18.4968,-9.0235,0.00208124,0.000275389,-0.000539464,0.00223012,0.000126508,-0.269276,0.00144642,0.0114468,727,666,-18.4968,9.02352
-490,358,-18.5439,-9.81451,0.00170973,7.08701e-05,-0.000368849,0.00178892,-8.31817e-06,-0.21148,0.0011954,0.0107936,734,666,-18.5439,9.81451
-483,358,-18.6035,-10.582,0.00153088,-0.000121119,-0.000238125,0.00156452,-0.000154759,-0.140338,0.00109824,0.0103967,741,666,-18.6035,10.582
-476,358,-18.5895,-11.3368,0.00149697,-0.000238746,-0.000187072,0.00151691,-0.000258679,-0.106154,0.00110761,0.0145839,748,666,-18.5895,11.3368
-469,358,-18.6597,-12.1017,0.00160572,-0.000294511,-0.000241253,0.00163587,-0.000324662,-0.124332,0.00121337,0.0191667,755,666,-18.6597,12.1017
-462,358,-18.7133,-12.8823,0.00186588,-0.000278715,-0.000396949,0.001937,-0.00034983,-0.177272,0.00142235,0.0194855,762,666,-18.7133,12.8824
-455,358,-18.7197,-13.6973,0,0,0,0,0,0,0,-1,769,666,-18.7197,13.6973
-448,358,-17.7847,-14.434,0,0,0,0,0,0,0,-1,776,666,-17.7847,14.434
-441,358,-5.56293,-3.98041,0,0,0,0,0,0,0,-1,783,666,-5.56291,3.98043
-434,358,-5.21558,-4.43127,0,0,0,0,0,0,0,-1,790,666,-5.21559,4.43125
-427,358,-3.56189,-3.15729,0,0,0,0,0,0,0,-1,797,666,-3.56192,3.15729
-420,358,0.200195,1.08234,0,0,0,0,0,0,0,-1,804,666,0.200174,-1.08231
-413,358,0.0325317,0.161072,0,0,0,0,0,0,0,-1,811,666,0.0325501,-0.161098
-406,358,-3.85846,0.753113,0,0,0,0,0,0,0,-1,818,666,-3.85846,-0.753129
-399,358,-1.31213,0.190735,0,0,0,0,0,0,0,-1,825,666,-1.31215,-0.190763
-392,358,-3.73914,-0.832214,0,0,0,0,0,0,0,-1,832,666,-3.73915,0.832202
-385,358,-5.95178,-1.69141,0,0,0,0,0,0,0,-1,839,666,-5.9518,1.69143
-378,358,0,0,0,0,0,0,0,0,0,-1,846,666,0,0
-371,358,0,0,0,0,0,0,0,0,0,-1,853,666,0,0
-364,358,0,0,0,0,0,0,0,0,0,-1,860,666,0,0
-357,358,0,0,0,0,0,0,0,0,0,-1,867,666,0,0
-350,358,0,0,0,0,0,0,0,0,0,-1,874,666,0,0
-343,358,0,0,0,0,0,0,0,0,0,-1,881,666,0,0
-336,358,0,0,0,0,0,0,0,0,0,-1,888,666,0,0
-329,358,0,0,0,0,0,0,0,0,0,-1,895,666,0,0
-322,358,0,0,0,0,0,0,0,0,0,-1,902,666,0,0
-315,358,0,0,0,0,0,0,0,0,0,-1,909,666,0,0
-308,358,0,0,0,0,0,0,0,0,0,-1,916,666,0,0
-301,358,0,0,0,0,0,0,0,0,0,-1,923,666,0,0
-294,358,0,0,0,0,0,0,0,0,0,-1,930,666,0,0
-287,358,0,0,0,0,0,0,0,0,0,-1,937,666,0,0
-280,358,0,0,0,0,0,0,0,0,0,-1,944,666,0,0
-273,358,0,0,0,0,0,0,0,0,0,-1,951,666,0,0
-266,358,0,0,0,0,0,0,0,0,0,-1,958,666,0,0
-259,358,0,0,0,0,0,0,0,0,0,-1,965,666,0,0
-252,358,0,0,0,0,0,0,0,0,0,-1,972,666,0,0
-245,358,0,0,0,0,0,0,0,0,0,-1,979,666,0,0
-238,358,0,0,0,0,0,0,0,0,0,-1,986,666,0,0
-231,358,0,0,0,0,0,0,0,0,0,-1,993,666,0,0
-224,358,0,0,0,0,0,0,0,0,0,-1,1000,666,0,0
-217,358,0,0,0,0,0,0,0,0,0,-1,1007,666,0,0
-210,358,0,0,0,0,0,0,0,0,0,-1,1014,666,0,0
-203,358,0,0,0,0,0,0,0,0,0,-1,1021,666,0,0
-196,358,0,0,0,0,0,0,0,0,0,-1,1028,666,0,0
-189,358,0,0,0,0,0,0,0,0,0,-1,1035,666,0,0
-182,358,0,0,0,0,0,0,0,0,0,-1,1042,666,0,0
-175,358,0,0,0,0,0,0,0,0,0,-1,1049,666,0,0
-168,358,0,0,0,0,0,0,0,0,0,-1,1056,666,0,0
-161,358,0,0,0,0,0,0,0,0,0,-1,1063,666,0,0
-154,358,0,0,0,0,0,0,0,0,0,-1,1070,666,0,0
-147,358,0,0,0,0,0,0,0,0,0,-1,1077,666,0,0
-140,358,0,0,0,0,0,0,0,0,0,-1,1084,666,0,0
-133,358,0,0,0,0,0,0,0,0,0,-1,1091,666,0,0
-126,358,0,0,0,0,0,0,0,0,0,-1,1098,666,0,0
-119,358,0,0,0,0,0,0,0,0,0,-1,1105,666,0,0
-112,358,0,0,0,0,0,0,0,0,0,-1,1112,666,0,0
-105,358,0,0,0,0,0,0,0,0,0,-1,1119,666,0,0
-98,358,0,0,0,0,0,0,0,0,0,-1,1126,666,0,0
-91,358,0,0,0,0,0,0,0,0,0,-1,1133,666,0,0
-84,358,0,0,0,0,0,0,0,0,0,-1,1140,666,0,0
-77,358,0,0,0,0,0,0,0,0,0,-1,1147,666,0,0
-70,358,0,0,0,0,0,0,0,0,0,-1,1154,666,0,0
-63,358,0,0,0,0,0,0,0,0,0,-1,1161,666,0,0
-56,358,0,0,0,0,0,0,0,0,0,-1,1168,666,0,0
-49,358,0,0,0,0,0,0,0,0,0,-1,1175,666,0,0
-42,358,0,0,0,0,0,0,0,0,0,-1,1182,666,0,0
-35,358,0,0,0,0,0,0,0,0,0,-1,1189,666,0,0
-28,358,0,0,0,0,0,0,0,0,0,-1,1196,666,0,0
-21,358,0,0,0,0,0,0,0,0,0,-1,1203,666,0,0
-14,358,0,0,0,0,0,0,0,0,0,-1,1210,666,0,0
-7,358,0,0,0,0,0,0,0,0,0,-1,1217,666,0,0
0,358,0,0,0,0,0,0,0,0,0,-1,1224,666,0,0
7,358,0,0,0,0,0,0,0,0,0,-1,1231,666,0,0
14,358,0,0,0,0,0,0,0,0,0,-1,1238,666,0,0
21,358,0,0,0,0,0,0,0,0,0,-1,1245,666,0,0
28,358,0,0,0,0,0,0,0,0,0,-1,1252,666,0,0
35,358,0,0,0,0,0,0,0,0,0,-1,1259,666,0,0
42,358,0,0,0,0,0,0,0,0,0,-1,1266,666,0,0
49,358,0,0,0,0,0,0,0,0,0,-1,1273,666,0,0
56,358,0,0,0,0,0,0,0,0,0,-1,1280,666,0,0
63,358,0,0,0,0,0,0,0,0,0,-1,1287,666,0,0
70,358,0,0,0,0,0,0,0,0,0,-1,1294,666,0,0
77,358,0,0,0,0,0,0,0,0,0,-1,1301,666,0,0
84,358,0,0,0,0,0,0,0,0,0,-1,1308,666,0,0
91,358,0,0,0,0,0,0,0,0,0,-1,1315,666,0,0
98,358,0,0,0,0,0,0,0,0,0,-1,1322,666,0,0
105,358,0,0,0,0,0,0,0,0,0,-1,1329,666,0,0
112,358,0,0,0,0,0,0,0,0,0,-1,1336,666,0,0
119,358,0,0,0,0,0,0,0,0,0,-1,1343,666,0,0
126,358,0,0,0,0,0,0,0,0,0,-1,1350,666,0,0
133,358,0,0,0,0,0,0,0,0,0,-1,1357,666,0,0
140,358,0,0,0,0,0,0,0,0,0,-1,1364,666,0,0
147,358,0,0,0,0,0,0,0,0,0,-1,1371,666,0,0
154,358,0,0,0,0,0,0,0,0,0,-1,1378,666,0,0
161,358,0,0,0,0,0,0,0,0,0,-1,1385,666,0,0
168,358,0,0,0,0,0,0,0,0,0,-1,1392,666,0,0
175,358,0,0,0,0,0,0,0,0,0,-1,1399,666,0,0
182,358,0,0,0,0,0,0,0,0,0,-1,1406,666,0,0
189,358,0,0,0,0,0,0,0,0,0,-1,1413,666,0,0
196,358,0,0,0,0,0,0,0,0,0,-1,1420,666,0,0
203,358,0,0,0,0,0,0,0,0,0,-1,1427,666,0,0
210,358,0,0,0,0,0,0,0,0,0,-1,1434,666,0,0
217,358,0,0,0,0,0,0,0,0,0,-1,1441,666,0,0
224,358,0,0,0,0,0,0,0,0,0,-1,1448,666,0,0
231,358,0,0,0,0,0,0,0,0,0,-1,1455,666,0,0
238,358,0,0,0,0,0,0,0,0,0,-1,1462,666,0,0
245,358,0,0,0,0,0,0,0,0,0,-1,1469,666,0,0
252,358,0,0,0,0,0,0,0,0,0,-1,1476,666,0,0
259,358,0,0,0,0,0,0,0,0,0,-1,1483,666,0,0
266,358,0,0,0,0,0,0,0,0,0,-1,1490,666,0,0
273,358,0,0,0,0,0,0,0,0,0,-1,1497,666,0,0
280,358,0,0,0,0,0,0,0,0,0,-1,1504,666,0,0
287,358,0,0,0,0,0,0,0,0,0,-1,1511,666,0,0
294,358,0,0,0,0,0,0,0,0,0,-1,1518,666,0,0
301,358,0,0,0,0,0,0,0,0,0,-1,1525,666,0,0
308,358,0,0,0,0,0,0,0,0,0,-1,1532,666,0,0
315,358,0,0,0,0,0,0,0,0,0,-1,1539,666,0,0
322,358,0,0,0,0,0,0,0,0,0,-1,1546,666,0,0
329,358,0,0,0,0,0,0,0,0,0,-1,1553,666,0,0
336,358,0,0,0,0,0,0,0,0,0,-1,1560,666,0,0
343,358,0,0,0,0,0,0,0,0,0,-1,1567,666,0,0
350,358,0,0,0,0,0,0,0,0,0,-1,1574,666,0,0
357,358,0,0,0,0,0,0,0,0,0,-1,1581,666,0,0
364,358,0,0,0,0,0,0,0,0,0,-1,1588,666,0,0
371,358,0,0,0,0,0,0,0,0,0,-1,1595,666,0,0
378,358,0,0,0,0,0,0,0,0,0,-1,1602,666,0,0
385,358,0,0,0,0,0,0,0,0,0,-1,1609,666,0,0
392,358,0,0,0,0,0,0,0,0,0,-1,1616,666,0,0
399,358,0,0,0,0,0,0,0,0,0,-1,1623,666,0,0
406,358,0,0,0,0,0,0,0,0,0,-1,1630,666,0,0
413,358,0,0,0,0,0,0,0,0,0,-1,1637,666,0,0
420,358,0,0,0,0,0,0,0,0,0,-1,1644,666,0,0
427,358,0,0,0,0,0,0,0,0,0,-1,1651,666,0,0
434,358,0,0,0,0,0,0,0,0,0,-1,1658,666,0,0
441,358,0,0,0,0,0,0,0,0,0,-1,1665,666,0,0
448,358,0,0,0,0,0,0,0,0,0,-1,1672,666,0,0
455,358,0,0,0,0,0,0,0,0,0,-1,1679,666,0,0
462,358,0,0,0,0,0,0,0,0,0,-1,1686,666,0,0
469,358,0,0,0,0,0,0,0,0,0,-1,1693,666,0,0
476,358,0,0,0,0,0,0,0,0,0,-1,1700,666,0,0
483,358,0,0,0,0,0,0,0,0,0,-1,1707,666,0,0
490,358,0,0,0,0,0,0,0,0,0,-1,1714,666,0,0
497,358,8.57239,1.1322,0,0,0,0,0,0,0,-1,1721,666,8.57234,-1.13219
504,358,10.5972,0.832947,0,0,0,0,0,0,0,-1,1728,666,10.5972,-0.832968
511,358,10.6873,0.868469,0,0,0,0,0,0,0,-1,1735,666,10.6872,-0.868484
518,358,16.5884,2.34894,0,0,0,0,0,0,0,-1,1742,666,16.5884,-2.34894
525,358,15.7626,3.65344,0,0,0,0,0,0,0,-1,1749,666,15.7626,-3.65342
532,358,14.9368,4.95789,0,0,0,0,0,0,0,-1,1756,666,14.9367,-4.9579
539,358,15.1597,3.42694,0,0,0,0,0,0,0,-1,1763,666,15.1597,-3.42692
546,358,12.3792,1.53558,0,0,0,0,0,0,0,-1,1770,666,12.3792,-1.5356
553,358,11.6584,1.26172,0,0,0,0,0,0,0,-1,1777,666,11.6585,-1.26175
560,358,10.8234,1.43042,0,0,0,0,0,0,0,-1,1784,666,10.8233,-1.43041
567,358,10.1333,-0.955139,0,0,0,0,0,0,0,-1,1791,666,10.1333,0.955132
574,358,14.7886,-2.69293,0,0,0,0,0,0,0,-1,1798,666,14.7885,2.6929
581,358,20.1738,-6.76135,0,0,0,0,0,0,0,-1,1805,666,20.1738,6.76137
588,358,32.5538,-11.9466,0,0,0,0,0,0,0,-1,1812,666,32.5538,11.9466
595,358,32.5748,-11.0817,0.0010986,-0.000220601,-0.000451156,0.00123814,-0.000360134,-0.299947,0.000968062,0.0174491,1819,666,32.5749,11.0817
602,358,32.5084,-10.2153,0.0013542,0.00010729,-0.000101575,0.00136242,9.90701e-05,-0.0807521,0.000877121,0.0142376,1826,666,32.5084,10.2153
609,358,32.4252,-9.42328,0.00156099,0.000510943,0.000257499,0.00162073,0.000451197,0.22799,0.000965882,0.0187472,1833,666,32.4252,9.42327
616,358,32.4186,-8.61969,0.00170941,0.000962076,0.000600677,0.00204316,0.000628325,0.507152,0.0012084,0.0174279,1840,666,32.4185,8.6197
623,358,32.4431,-7.83075,0.00185361,0.00151835,0.000959419,0.00265993,0.000712028,0.698913,0.00159001,0.0146431,1847,666,32.4431,7.83077
630,358,32.3934,-7.04822,0.00190567,0.00213136,0.00129545,0.00331888,0.000718154,0.828844,0.00201629,0.0175183,1854,666,32.3934,7.0482
637,358,32.323,-6.26752,0.00185405,0.00273377,0.00155116,0.00390623,0.000681596,0.923556,0.00240931,0.0266152,1861,666,32.323,6.26751
644,358,32.3164,-5.48077,0.00171449,0.00341835,0.00177179,0.00453239,0.000600458,1.0095,0.00284266,0.0227044,1868,666,32.3164,5.48078
651,358,32.3522,-4.65668,0,0,0,0,0,0,0,-1,1875,666,32.3522,4.65666
658,358,32.1241,-3.51459,0,0,0,0,0,0,0,-1,1882,666,32.1241,3.51459
665,358,28.0272,-2.07764,0,0,0,0,0,0,0,-1,1889,666,28.0272,2.07764
672,358,12.4299,1.47272,0,0,0,0,0,0,0,-1,1896,666,12.4299,-1.4727
679,358,12.1294,2.19702,0,0,0,0,0,0,0,-1,1903,666,12.1294,-2.19703
686,358,11.9557,2.2002,0,0,0,0,0,0,0,-1,1910,666,11.9557,-2.20021
693,358,13.188,2.52203,0,0,0,0,0,0,0,-1,1917,666,13.188,-2.52202
700,358,0,0,0,0,0,0,0,0,0,-1,1924,666,0,0
707,358,0,0,0,0,0,0,0,0,0,-1,1931,666,0,0
714,358,0,0,0,0,0,0,0,0,0,-1,1938,666,0,0
721,358,0,0,0,0,0,0,0,0,0,-1,1945,666,0,0
728,358,0,0,0,0,0,0,0,0,0,-1,1952,666,0,0
735,358,0,0,0,0,0,0,0,0,0,-1,1959,666,0,0
742,358,0,0,0,0,0,0,0,0,0,-1,1966,666,0,0
749,358,0,0,0,0,0,0,0,0,0,-1,1973,666,0,0
756,358,0,0,0,0,0,0,0,0,0,-1,1980,666,0,0
763,358,0,0,0,0,0,0,0,0,0,-1,1987,666,0,0
770,358,0,0,0,0,0,0,0,0,0,-1,1994,666,0,0
777,358,0,0,0,0,0,0,0,0,0,-1,2001,666,0,0
784,358,0,0,0,0,0,0,0,0,0,-1,2008,666,0,0
791,358,0,0,0,0,0,0,0,0,0,-1,2015,666,0,0
798,358,0,0,0,0,0,0,0,0,0,-1,2022,666,0,0
805,358,0,0,0,0,0,0,0,0,0,-1,2029,666,0,0
812,358,0,0,0,0,0,0,0,0,0,-1,2036,666,0,0
-700,351,0,0,0,0,0,0,0,0,0,-1,524,673,0,0
-693,351,0,0,0,0,0,0,0,0,0,-1,531,673,0,0
-686,351,0,0,0,0,0,0,0,0,0,-1,538,673,0,0
-679,351,0,0,0,0,0,0,0,0,0,-1,545,673,0,0
-672,351,0,0,0,0,0,0,0,0,0,-1,552,673,0,0
-665,351,0,0,0,0,0,0,0,0,0,-1,559,673,0,0
-658,351,0,0,0,0,0,0,0,0,0,-1,566,673,0,0
-651,351,0,0,0,0,0,0,0,0,0,-1,573,673,0,0
-644,351,0,0,0,0,0,0,0,0,0,-1,580,673,0,0
-637,351,0,0,0,0,0,0,0,0,0,-1,587,673,0,0
-630,351,0,0,0,0,0,0,0,0,0,-1,594,673,0,0
-623,351,0,0,0,0,0,0,0,0,0,-1,601,673,0,0
-616,351,0,0,0,0,0,0,0,0,0,-1,608,673,0,0
-609,351,0,0,0,0,0,0,0,0,0,-1,615,673,0,0
-602,351,0,0,0,0,0,0,0,0,0,-1,622,673,0,0
-595,351,0,0,0,0,0,0,0,0,0,-1,629,673,0,0
-588,351,0,0,0,0,0,0,0,0,0,-1,636,673,0,0
-581,351,-9.0647,1.71906,0,0,0,0,0,0,0,-1,643,673,-9.06472,-1.71908
-574,351,-8.23584,2.64764,0,0,0,0,0,0,0,-1,650,673,-8.23584,-2.64764
-567,351,-10.8027,4.56836,0,0,0,0,0,0,0,-1,657,673,-10.8027,-4.56839
-560,351,-14.2001,2.17084,0,0,0,0,0,0,0,-1,664,673,-14.2002,-2.17086
-553,351,-13.4979,0.779541,0,0,0,0,0,0,0,-1,671,673,-13.4978,-0.779519
-546,351,-14.0065,0.73645,0,0,0,0,0,0,0,-1,678,673,-14.0065,-0.736473
-539,351,-12.8123,-1.46393,0,0,0,0,0,0,0,-1,685,673,-12.8123,1.46395
-532,351,-16.0198,-4.03937,0,0,0,0,0,0,0,-1,692,673,-16.0198,4.03936
-525,351,-19.2592,-5.74054,0,0,0,0,0,0,0,-1,699,673,-19.2592,5.74052
-518,351,-19.2201,-6.53003,0.00408778,0.00126941,-0.00130363,0.0045983,0.000758894,-0.373255,0.00284649,0.022808,706,673,-19.2201,6.53003
-511,351,-19.224,-7.38129,0.00318687,0.000806352,-0.000926622,0.00350504,0.000488187,-0.330748,0.00219216,0.011648,713,673,-19.224,7.3813
-504,351,-19.2653,-8.17633,0.0025315,0.000465593,-0.00062534,0.00270604,0.000291052,-0.272187,0.00171526,0.0105979,720,673,-19.2653,8.1763
-497,351,-19.303,-8.95007,0.0020522,0.000161742,-0.000358882,0.00211804,9.59047e-05,-0.181433,0.00138117,0.010606,727,673,-19.303,8.95009
-490,351,-19.3447,-9.73938,0.00168438,-4.36471e-05,-0.000193561,0.00170579,-6.5063e-05,-0.110194,0.00115949,0.0106175,734,673,-19.3447,9.73938
-483,351,-19.3845,-10.5034,0.00152771,-0.00019875,-8.97661e-05,0.00153236,-0.000203405,-0.0518081,0.00109569,0.0129087,741,673,-19.3845,10.5034
-476,351,-19.4267,-11.2714,0.00151062,-0.000272478,-9.1274e-05,0.00151528,-0.000277138,-0.0510108,0.00111411,0.0116784,748,673,-19.4267,11.2714
-469,351,-19.4526,-12.0334,0.00164099,-0.000274371,-0.000213532,0.00166451,-0.000297887,-0.10969,0.00122114,0.0141348,755,673,-19.4526,12.0334
-462,351,-19.4631,-12.8704,0.0019358,-0.00016514,-0.000475022,0.00203821,-0.00026755,-0.212341,0.00145621,0.037166,762,673,-19.4631,12.8704
-455,351,-19.4206,-13.7604,0,0,0,0,0,0,0,-1,769,673,-19.4206,13.7604
-448,351,-6.61456,-4.38654,0,0,0,0,0,0,0,-1,776,673,-6.61456,4.38654
-441,351,-4.31567,-2.3009,0,0,0,0,0,0,0,-1,783,673,-4.31565,2.30089
-434,351,-3.81708,-2.28003,0,0,0,0,0,0,0,-1,790,673,-3.81706,2.28006
-427,351,-2.05157,-2.7785,0,0,0,0,0,0,0,-1,797,673,-2.05157,2.77848
-420,351,-1.06989,-2.43665,0,0,0,0,0,0,0,-1,804,673,-1.06991,2.43663
-413,351,-0.392334,-2.06671,0,0,0,0,0,0,0,-1,811,673,-0.392363,2.06672
-406,351,-1.86316,-2.58105,0,0,0,0,0,0,0,-1,818,673,-1.86313,2.58106
-399,351,1.00952,-1.53455,0,0,0,0,0,0,0,-1,825,673,1.00954,1.53457
-392,351,-1.02197,0.877136,0,0,0,0,0,0,0,-1,832,673,-1.02195,-0.877143
-385,351,-1.47205,1.04437,0,0,0,0,0,0,0,-1,839,673,-1.47207,-1.04435
-378,351,0,0,0,0,0,0,0,0,0,-1,846,673,0,0
-371,351,0,0,0,0,0,0,0,0,0,-1,853,673,0,0
-364,351,0,0,0,0,0,0,0,0,0,-1,860,673,0,0
-357,351,0,0,0,0,0,0,0,0,0,-1,867,673,0,0
-350,351,0,0,0,0,0,0,0,0,0,-1,874,673,0,0
-343,351,0,0,0,0,0,0,0,0,0,-1,881,673,0,0
-336,351,0,0,0,0,0,0,0,0,0,-1,888,673,0,0
-329,351,0,0,0,0,0,0,0,0,0,-1,895,673,0,0
-322,351,0,0,0,0,0,0,0,0,0,-1,902,673,0,0
-315,351,0,0,0,0,0,0,0,0,0,-1,909,673,0,0
-308,351,0,0,0,0,0,0,0,0,0,-1,916,673,0,0
-301,351,0,0,0,0,0,0,0,0,0,-1,923,673,0,0
-294,351,0,0,0,0,0,0,0,0,0,-1,930,673,0,0
-287,351,0,0,0,0,0,0,0,0,0,-1,937,673,0,0
-280,351,0,0,0,0,0,0,0,0,0,-1,944,673,0,0
-273,351,0,0,0,0,0,0,0,0,0,-1,951,673,0,0
-266,351,0,0,0,0,0,0,0,0,0,-1,958,673,0,0
-259,351,0,0,0,0,0,0,0,0,0,-1,965,673,0,0
-252,351,0,0,0,0,0,0,0,0,0,-1,972,673,0,0
-245,351,0,0,0,0,0,0,0,0,0,-1,979,673,0,0
-238,351,0,0,0,0,0,0,0,0,0,-1,986,673,0,0
-231,351,0,0,0,0,0,0,0,0,0,-1,993,673,0,0
-224,351,0,0,0,0,0,0,0,0,0,-1,1000,673,0,0
-217,351,0,0,0,0,0,0,0,0,0,-1,1007,673,0,0
-210,351,0,0,0,0,0,0,0,0,0,-1,1014,673,0,0
-203,351,0,0,0,0,0,0,0,0,0,-1,1021,673,0,0
-196,351,0,0,0,0,0,0,0,0,0,-1,1028,673,0,0
-189,351,0,0,0,0,0,0,0,0,0,-1,1035,673,0,0
-182,351,0,0,0,0,0,0,0,0,0,-1,1042,673,0,0
-175,351,0,0,0,0,0,0,0,0,0,-1,1049,673,0,0
-168,351,0,0,0,0,0,0,0,0,0,-1,1056,673,0,0
-161,351,0,0,0,0,0,0,0,0,0,-1,1063,673,0,0
-154,351,0,0,0,0,0,0,0,0,0,-1,1070,673,0,0
-147,351,0,0,0,0,0,0,0,0,0,-1,1077,673,0,0
-140,351,0,0,0,0,0,0,0,0,0,-1,1084,673,0,0
-133,351,0,0,0,0,0,0,0,0,0,-1,1091,673,0,0
-126,351,0,0,0,0,0,0,0,0,0,-1,1098,673,0,0
-119,351,0,0,0,0,0,0,0,0,0,-1,1105,673,0,0
-112,351,0,0,0,0,0,0,0,0,0,-1,1112,673,0,0
-105,351,0,0,0,0,0,0,0,0,0,-1,1119,673,0,0
-98,351,0,0,0,0,0,0,0,0,0,-1,1126,673,0,0
-91,351,0,0,0,0,0,0,0,0,0,-1,1133,673,0,0
-84,351,0,0,0,0,0,0,0,0,0,-1,1140,673,0,0
-77,351,0,0,0,0,0,0,0,0,0,-1,1147,673,0,0
-70,351,0,0,0,0,0,0,0,0,0,-1,1154,673,0,0
-63,351,0,0,0,0,0,0,0,0,0,-1,1161,673,0,0
-56,351,0,0,0,0,0,0,0,0,0,-1,1168,673,0,0
-49,351,0,0,0,0,0,0,0,0,0,-1,1175,673,0,0
-42,351,0,0,0,0,0,0,0,0,0,-1,1182,673,0,0
-35,351,0,0,0,0,0,0,0,0,0,-1,1189,673,0,0
-28,351,0,0,0,0,0,0,0,0,0,-1,1196,673,0,0
-21,351,0,0,0,0,0,0,0,0,0,-1,1203,673,0,0
-14,351,0,0,0,0,0,0,0,0,0,-1,1210,673,0,0
-7,351,0,0,0,0,0,0,0,0,0,-1,1217,673,0,0
0,351,0,0,0,0,0,0,0,0,0,-1,1224,673,0,0
7,351,0,0,0,0,0,0,0,0,0,-1,1231,673,0,0
14,351,0,0,0,0,0,0,0,0,0,-1,1238,673,0,0
21,351,0,0,0,0,0,0,0,0,0,-1,1245,673,0,0
28,351,0,0,0,0,0,0,0,0,0,-1,1252,673,0,0
35,351,0,0,0,0,0,0,0,0,0,-1,1259,673,0,0
42,351,0,0,0,0,0,0,0,0,0,-1,1266,673,0,0
49,351,0,0,0,0,0,0,0,0,0,-1,1273,673,0,0
56,351,0,0,0,0,0,0,0,0,0,-1,1280,673,0,0
63,351,0,0,0,0,0,0,0,0,0,-1,1287,673,0,0
70,351,0,0,0,0,0,0,0,0,0,-1,1294,673,0,0
77,351,0,0,0,0,0,0,0,0,0,-1,1301,673,0,0
84,351,0,0,0,0,0,0,0,0,0,-1,1308,673,0,0
91,351,0,0,0,0,0,0,0,0,0,-1,1315,673,0,0
98,351,0,0,0,0,0,0,0,0,0,-1,1322,673,0,0
105,351,0,0,0,0,0,0,0,0,0,-1,1329,673,0,0
112,351,0,0,0,0,0,0,0,0,0,-1,1336,673,0,0
119,351,0,0,0,0,0,0,0,0,0,-1,1343,673,0,0
126,351,0,0,0,0,0,0,0,0,0,-1,1350,673,0,0
133,351,0,0,0,0,0,0,0,0,0,-1,1357,673,0,0
140,351,0,0,0,0,0,0,0,0,0,-1,1364,673,0,0
147,351,0,0,0,0,0,0,0,0,0,-1,1371,673,0,0
154,351,0,0,0,0,0,0,0,0,0,-1,1378,673,0,0
161,351,0,0,0,0,0,0,0,0,0,-1,1385,673,0,0
168,351,0,0,0,0,0,0,0,0,0,-1,1392,673,0,0
175,351,0,0,0,0,0,0,0,0,0,-1,1399,673,0,0
182,351,0,0,0,0,0,0,0,0,0,-1,1406,673,0,0
189,351,0,0,0,0,0,0,0,0,0,-1,1413,673,0,0
196,351,0,0,0,0,0,0,0,0,0,-1,1420,673,0,0
203,351,0,0,0,0,0,0,0,0,0,-1,1427,673,0,0
210,351,0,0,0,0,0,0,0,0,0,-1,1434,673,0,0
217,351,0,0,0,0,0,0,0,0,0,-1,1441,673,0,0
224,351,0,0,0,0,0,0,0,0,0,-1,1448,673,0,0
231,351,0,0,0,0,0,0,0,0,0,-1,1455,673,0,0
238,351,0,0,0,0,0,0,0,0,0,-1,1462,673,0,0
245,351,0,0,0,0,0,0,0,0,0,-1,1469,673,0,0
252,351,0,0,0,0,0,0,0,0,0,-1,1476,673,0,0
259,351,0,0,0,0,0,0,0,0,0,-1,1483,673,0,0
266,351,0,0,0,0,0,0,0,0,0,-1,1490,673,0,0
273,351,0,0,0,0,0,0,0,0,0,-1,1497,673,0,0
280,351,0,0,0,0,0,0,0,0,0,-1,1504,673,0,0
287,351,0,0,0,0,0,0,0,0,0,-1,1511,673,0,0
294,351,0,0,0,0,0,0,0,0,0,-1,1518,673,0,0
301,351,0,0,0,0,0,0,0,0,0,-1,1525,673,0,0
308,351,0,0,0,0,0,0,0,0,0,-1,1532,673,0,0
315,351,0,0,0,0,0,0,0,0,0,-1,1539,673,0,0
322,351,0,0,0,0,0,0,0,0,0,-1,1546,673,0,0
329,351,0,0,0,0,0,0,0,0,0,-1,1553,673,0,0
336,351,0,0,0,0,0,0,0,0,0,-1,1560,673,0,0
343,351,0,0,0,0,0,0,0,0,0,-1,1567,673,0,0
350,351,0,0,0,0,0,0,0,0,0,-1,1574,673,0,0
357,351,0,0,0,0,0,0,0,0,0,-1,1581,673,0,0
364,351,0,0,0,0,0,0,0,0,0,-1,1588,673,0,0
371,351,0,0,0,0,0,0,0,0,0,-1,1595,673,0,0
378,351,0,0,0,0,0,0,0,0,0,-1,1602,673,0,0
385,351,0,0,0,0,0,0,0,0,0,-1,1609,673,0,0
392,351,0,0,0,0,0,0,0,0,0,-1,1616,673,0,0
399,351,0,0,0,0,0,0,0,0,0,-1,1623,673,0,0
406,351,0,0,0,0,0,0,0,0,0,-1,1630,673,0,0
413,351,0,0,0,0,0,0,0,0,0,-1,1637,673,0,0
420,351,0,0,0,0,0,0,0,0,0,-1,1644,673,0,0
427,351,0,0,0,0,0,0,0,0,0,-1,1651,673,0,0
434,351,0,0,0,0,0,0,0,0,0,-1,1658,673,0,0
441,351,0,0,0,0,0,0,0,0,0,-1,1665,673,0,0
448,351,0,0,0,0,0,0,0,0,0,-1,1672,673,0,0
455,351,0,0,0,0,0,0,0,0,0,-1,1679,673,0,0
462,351,0,0,0,0,0,0,0,0,0,-1,1686,673,0,0
469,351,0,0,0,0,0,0,0,0,0,-1,1693,673,0,0
476,351,0,0,0,0,0,0,0,0,0,-1,1700,673,0,0
483,351,0,0,0,0,0,0,0,0,0,-1,1707,673,0,0
490,351,0,0,0,0,0,0,0,0,0,-1,1714,673,0,0
497,351,0,0,0,0,0,0,0,0,0,-1,1721,673,0,0
504,351,10.8842,1.61615,0,0,0,0,0,0,0,-1,1728,673,10.8842,-1.61618
511,351,15.4548,0.0236816,0,0,0,0,0,0,0,-1,1735,673,15.4549,-0.0236664
518,351,16.7448,2.49268,0,0,0,0,0,0,0,-1,1742,673,16.7448,-2.49269
525,351,16.0701,3.43225,0,0,0,0,0,0,0,-1,1749,673,16.07,-3.43227
532,351,32.3822,3.03021,0,0,0,0,0,0,0,-1,1756,673,32.3822,-3.03019
539,351,15.3387,3.54486,0,0,0,0,0,0,0,-1,1763,673,15.3387,-3.54485
546,351,13.9387,4.59357,0,0,0,0,0,0,0,-1,1770,673,13.9388,-4.59359
553,351,12.0682,2.02832,0,0,0,0,0,0,0,-1,1777,673,12.0683,-2.02831
560,351,12.0173,0.55304,0,0,0,0,0,0,0,-1,1784,673,12.0174,-0.553028
567,351,10.7827,0.130188,0,0,0,0,0,0,0,-1,1791,673,10.7827,-0.130183
574,351,13.405,-1.09204,0,0,0,0,0,0,0,-1,1798,673,13.405,1.09207
581,351,15.2351,-3.06049,0,0,0,0,0,0,0,-1,1805,673,15.2351,3.06046
588,351,29.9419,-10.5057,0,0,0,0,0,0,0,-1,1812,673,29.9419,10.5057
595,351,33.3469,-11.0638,0,0,0,0,0,0,0,-1,1819,673,33.347,11.0638
602,351,33.3514,-10.2159,0.00155547,-0.000155425,-0.000180917,0.00157439,-0.000174347,-0.104209,0.00111227,0.0197907,1826,673,33.3515,10.2159
609,351,33.3175,-9.42749,0.0016881,0.000145673,7.37819e-05,0.00169162,0.000142151,0.0476898,0.00108347,0.019621,1833,673,33.3175,9.42751
616,351,33.2621,-8.61737,0.00172906,0.000475218,0.000334163,0.00181256,0.000391721,0.244858,0.00110127,0.0153596,1840,673,33.262,8.61736
623,351,33.2671,-7.81689,0.00173921,0.000920361,0.000591091,0.00204882,0.000610746,0.482508,0.00121461,0.0145962,1847,673,33.2671,7.81688
630,351,33.2223,-7.0376,0.00170492,0.00144044,0.000862673,0.00244543,0.000699933,0.709346,0.00145425,0.024041,1854,673,33.2223,7.03761
637,351,33.1714,-6.19135,0.00161544,0.00196269,0.00107818,0.00288113,0.000696994,0.865231,0.00173572,0.0305894,1861,673,33.1714,6.19134
644,351,33.106,-5.38922,0.00148264,0.00254253,0.00126926,0.00338803,0.000637134,0.983159,0.00207911,0.0222615,1868,673,33.1059,5.38924
651,351,33.0765,-4.55176,0.00133806,0.00318694,0.00144806,0.00398048,0.000544515,1.06949,0.00249206,0.0177866,1875,673,33.0765,4.55177
658,351,32.9755,-3.6673,0.00117571,0.00391409,0.00155352,0.00461567,0.000474123,1.1466,0.00293188,0.0435001,1882,673,32.9755,3.6673
665,351,32.6013,-2.70709,0,0,0,0,0,0,0,-1,1889,673,32.6013,2.70709
672,351,27.876,-1.51941,0,0,0,0,0,0,0,-1,1896,673,27.8759,1.51941
679,351,14.1252,1.85681,0,0,0,0,0,0,0,-1,1903,673,14.1253,-1.85682
686,351,13.0294,2.1189,0,0,0,0,0,0,0,-1,1910,673,13.0294,-2.11892
693,351,13.5187,2.34595,0,0,0,0,0,0,0,-1,1917,673,13.5187,-2.34596
700,351,14.5629,-2.40173,0,0,0,0,0,0,0,-1,1924,673,14.5629,2.40172
707,351,0,0,0,0,0,0,0,0,0,-1,1931,673,0,0
714,351,0,0,0,0,0,0,0,0,0,-1,1938,673,0,0
721,351,0,0,0,0,0,0,0,0,0,-1,1945,673,0,0
728,351,0,0,0,0,0,0,0,0,0,-1,1952,673,0,0
735,351,0,0,0,0,0,0,0,0,0,-1,1959,673,0,0
742,351,0,0,0,0,0,0,0,0,0,-1,1966,673,0,0
749,351,0,0,0,0,0,0,0,0,0,-1,1973,673,0,0
756,351,0,0,0,0,0,0,0,0,0,-1,1980,673,0,0
763,351,0,0,0,0,0,0,0,0,0,-1,1987,673,0,0
770,351,0,0,0,0,0,0,0,0,0,-1,1994,673,0,0
777,351,0,0,0,0,0,0,0,0,0,-1,2001,673,0,0
784,351,0,0,0,0,0,0,0,0,0,-1,2008,673,0,0
791,351,0,0,0,0,0,0,0,0,0,-1,2015,673,0,0
798,351,0,0,0,0,0,0,0,0,0,-1,2022,673,0,0
805,351,0,0,0,0,0,0,0,0,0,-1,2029,673,0,0
812,351,0,0,0,0,0,0,0,0,0,-1,2036,673,0,0
-700,344,0,0,0,0,0,0,0,0,0,-1,524,680,0,0
-693,344,0,0,0,0,0,0,0,0,0,-1,531,680,0,0
-686,344,0,0,0,0,0,0,0,0,0,-1,538,680,0,0
-679,344,0,0,0,0,0,0,0,0,0,-1,545,680,0,0
-672,344,0,0,0,0,0,0,0,0,0,-1,552,680,0,0
-665,344,0,0,0,0,0,0,0,0,0,-1,559,680,0,0
-658,344,0,0,0,0,0,0,0,0,0,-1,566,680,0,0
-651,344,0,0,0,0,0,0,0,0,0,-1,573,680,0,0
-644,344,0,0,0,0,0,0,0,0,0,-1,580,680,0,0
-637,344,0,0,0,0,0,0,0,0,0,-1,587,680,0,0
-630,344,0,0,0,0,0,0,0,0,0,-1,594,680,0,0
-623,344,0,0,0,0,0,0,0,0,0,-1,601,680,0,0
-616,344,0,0,0,0,0,0,0,0,0,-1,608,680,0,0
-609,344,0,0,0,0,0,0,0,0,0,-1,615,680,0,0
-602,344,0,0,0,0,0,0,0,0,0,-1,622,680,0,0
-595,344,0,0,0,0,0,0,0,0,0,-1,629,680,0,0
-588,344,-9.27826,1.47302,0,0,0,0,0,0,0,-1,636,680,-9.27829,-1.473
-581,344,-10.0098,1.71753,0,0,0,0,0,0,0,-1,643,680,-10.0098,-1.7175
-574,344,-10.2208,3.04871,0,0,0,0,0,0,0,-1,650,680,-10.2208,-3.04869
-567,344,-14.3779,2.29016,0,0,0,0,0,0,0,-1,657,680,-14.3779,-2.29014
-560,344,-14.1238,1.8374,0,0,0,0,0,0,0,-1,664,680,-14.1238,-1.83743
-553,344,-14.7884,2.00116,0,0,0,0,0,0,0,-1,671,680,-14.7884,-2.00115
-546,344,-17.4192,0.157654,0,0,0,0,0,0,0,-1,678,680,-17.4192,-0.157635
-539,344,-17.2671,-2.75714,0,0,0,0,0,0,0,-1,685,680,-17.2671,2.75712
-532,344,-18.4417,-4.38605,0,0,0,0,0,0,0,-1,692,680,-18.4417,4.38603
-525,344,-20.0497,-5.67175,0,0,0,0,0,0,0,-1,699,680,-20.0497,5.67176
-518,344,-20.0003,-6.5293,0.00394502,0.00130363,-0.00111604,0.00435342,0.000895228,-0.350803,0.00265467,0.0207428,706,680,-20.0003,6.52928
-511,344,-20.0047,-7.33386,0.00305207,0.000722309,-0.000736435,0.00326533,0.000509045,-0.28188,0.00202861,0.0166894,713,680,-20.0047,7.33383
-504,344,-20.0383,-8.15747,0.0023874,0.000261992,-0.000414559,0.00246539,0.000183995,-0.185971,0.00158583,0.0168708,720,680,-20.0383,8.15745
-497,344,-20.0787,-8.95581,0.00189647,-9.94295e-05,-0.00013695,0.00190582,-0.000108783,-0.0681897,0.00130832,0.0157307,727,680,-20.0787,8.95582
-490,344,-20.1245,-9.71222,0.00153461,-0.000321645,2.22022e-05,0.00153487,-0.000321911,0.0119585,0.00114573,0.0149989,734,680,-20.1245,9.71219
-483,344,-20.1411,-10.4543,0.00139441,-0.000440098,9.51978e-05,0.00139934,-0.000445025,0.0517076,0.00111135,0.0150716,741,680,-20.141,10.4543
-476,344,-20.1887,-11.2271,0.00139385,-0.000461676,2.35056e-05,0.00139415,-0.000461974,0.0126651,0.00111577,0.0150634,748,680,-20.1887,11.2271
-469,344,-20.1993,-12.0571,0.00153587,-0.000375196,-0.000186604,0.00155392,-0.000393247,-0.0964304,0.00118891,0.0214639,755,680,-20.1993,12.0571
-462,344,-20.1397,-12.9117,0,0,0,0,0,0,0,-1,762,680,-20.1397,12.9118
-455,344,-12.1653,-7.99176,0,0,0,0,0,0,0,-1,769,680,-12.1653,7.99174
-448,344,-5.67657,-2.72864,0,0,0,0,0,0,0,-1,776,680,-5.6766,2.72863
-441,344,-5.09229,-2.34167,0,0,0,0,0,0,0,-1,783,680,-5.09229,2.34168
-434,344,-4.28778,-2.08807,0,0,0,0,0,0,0,-1,790,680,-4.28778,2.08809
-427,344,-3.06506,-1.45404,0,0,0,0,0,0,0,-1,797,680,-3.06505,1.45402
-420,344,-1.96582,-1.57574,0,0,0,0,0,0,0,-1,804,680,-1.96579,1.57574
-413,344,-0.817993,-1.4751,0,0,0,0,0,0,0,-1,811,680,-0.818017,1.47511
-406,344,-0.00714111,-1.25189,0,0,0,0,0,0,0,-1,818,680,-0.00714956,1.25191
-399,344,0.240051,-1.75769,0,0,0,0,0,0,0,-1,825,680,0.240079,1.75767
-392,344,1.11353,-2.05615,0,0,0,0,0,0,0,-1,832,680,1.11351,2.05616
-385,344,0,0,0,0,0,0,0,0,0,-1,839,680,0,0
-378,344,0,0,0,0,0,0,0,0,0,-1,846,680,0,0
-371,344,0,0,0,0,0,0,0,0,0,-1,853,680,0,0
-364,344,0,0,0,0,0,0,0,0,0,-1,860,680,0,0
-357,344,0,0,0,0,0,0,0,0,0,-1,867,680,0,0
-350,344,0,0,0,0,0,0,0,0,0,-1,874,680,0,0
-343,344,0,0,0,0,0,0,0,0,0,-1,881,680,0,0
-336,344,0,0,0,0,0,0,0,0,0,-1,888,680,0,0
-329,344,0,0,0,0,0,0,0,0,0,-1,895,680,0,0
-322,344,0,0,0,0,0,0,0,0,0,-1,902,680,0,0
-315,344,0,0,0,0,0,0,0,0,0,-1,909,680,0,0
-308,344,0,0,0,0,0,0,0,0,0,-1,916,680,0,0
-301,344,0,0,0,0,0,0,0,0,0,-1,923,680,0,0
-294,344,0,0,0,0,0,0,0,0,0,-1,930,680,0,0
-287,344,0,0,0,0,0,0,0,0,0,-1,937,680,0,0
-280,344,0,0,0,0,0,0,0,0,0,-1,944,680,0,0
-273,344,0,0,0,0,0,0,0,0,0,-1,951,680,0,0
-266,344,0,0,0,0,0,0,0,0,0,-1,958,680,0,0
-259,344,0,0,0,0,0,0,0,0,0,-1,965,680,0,0
-252,344,0,0,0,0,0,0,0,0,0,-1,972,680,0,0
-245,344,0,0,0,0,0,0,0,0,0,-1,979,680,0,0
-238,344,0,0,0,0,0,0,0,0,0,-1,986,680,0,0
-231,344,0,0,0,0,0,0,0,0,0,-1,993,680,0,0
-224,344,0,0,0,0,0,0,0,0,0,-1,1000,680,0,0
-217,344,0,0,0,0,0,0,0,0,0,-1,1007,680,0,0
-210,344,0,0,0,0,0,0,0,0,0,-1,1014,680,0,0
-203,344,0,0,0,0,0,0,0,0,0,-1,1021,680,0,0
-196,344,0,0,0,0,0,0,0,0,0,-1,1028,680,0,0
-189,344,0,0,0,0,0,0,0,0,0,-1,1035,680,0,0
-182,344,0,0,0,0,0,0,0,0,0,-1,1042,680,0,0
-175,344,0,0,0,0,0,0,0,0,0,-1,1049,680,0,0
-168,344,0,0,0,0,0,0,0,0,0,-1,1056,680,0,0
-161,344,0,0,0,0,0,0,0,0,0,-1,1063,680,0,0
-154,344,0,0,0,0,0,0,0,0,0,-1,1070,680,0,0
-147,344,0,0,0,0,0,0,0,0,0,-1,1077,680,0,0
-140,344,0,0,0,0,0,0,0,0,0,-1,1084,680,0,0
-133,344,0,0,0,0,0,0,0,0,0,-1,1091,680,0,0
-126,344,0,0,0,0,0,0,0,0,0,-1,1098,680,0,0
-119,344,0,0,0,0,0,0,0,0,0,-1,1105,680,0,0
-112,344,0,0,0,0,0,0,0,0,0,-1,1112,680,0,0
-105,344,0,0,0,0,0,0,0,0,0,-1,1119,680,0,0
-98,344,0,0,0,0,0,0,0,0,0,-1,1126,680,0,0
-91,344,0,0,0,0,0,0,0,0,0,-1,1133,680,0,0
-84,344,0,0,0,0,0,0,0,0,0,-1,1140,680,0,0
-77,344,0,0,0,0,0,0,0,0,0,-1,1147,680,0,0
-70,344,0,0,0,0,0,0,0,0,0,-1,1154,680,0,0
-63,344,0,0,0,0,0,0,0,0,0,-1,1161,680,0,0
-56,344,0,0,0,0,0,0,0,0,0,-1,1168,680,0,0
-49,344,0,0,0,0,0,0,0,0,0,-1,1175,680,0,0
-42,344,0,0,0,0,0,0,0,0,0,-1,1182,680,0,0
-35,344,0,0,0,0,0,0,0,0,0,-1,1189,680,0,0
-28,344,0,0,0,0,0,0,0,0,0,-1,1196,680,0,0
-21,344,0,0,0,0,0,0,0,0,0,-1,1203,680,0,0
-14,344,0,0,0,0,0,0,0,0,0,-1,1210,680,0,0
-7,344,0,0,0,0,0,0,0,0,0,-1,1217,680,0,0
0,344,0,0,0,0,0,0,0,0,0,-1,1224,680,0,0
7,344,0,0,0,0,0,0,0,0,0,-1,1231,680,0,0
14,344,0,0,0,0,0,0,0,0,0,-1,1238,680,0,0
21,344,0,0,0,0,0,0,0,0,0,-1,1245,680,0,0
28,344,0,0,0,0,0,0,0,0,0,-1,1252,680,0,0
35,344,0,0,0,0,0,0,0,0,0,-1,1259,680,0,0
42,344,0,0,0,0,0,0,0,0,0,-1,1266,680,0,0
49,344,0,0,0,0,0,0,0,0,0,-1,1273,680,0,0
56,344,0,0,0,0,0,0,0,0,0,-1,1280,680,0,0
63,344,0,0,0,0,0,0,0,0,0,-1,1287,680,0,0
70,344,0,0,0,0,0,0,0,0,0,-1,1294,680,0,0
77,344,0,0,0,0,0,0,0,0,0,-1,1301,680,0,0
84,344,0,0,0,0,0,0,0,0,0,-1,1308,680,0,0
91,344,0,0,0,0,0,0,0,0,0,-1,1315,680,0,0
98,344,0,0,0,0,0,0,0,0,0,-1,1322,680,0,0
105,344,0,0,0,0,0,0,0,0,0,-1,1329,680,0,0
112,344,0,0,0,0,0,0,0,0,0,-1,1336,680,0,0
119,344,0,0,0,0,0,0,0,0,0,-1,1343,680,0,0
126,344,0,0,0,0,0,0,0,0,0,-1,1350,680,0,0
133,344,0,0,0,0,0,0,0,0,0,-1,1357,680,0,0
140,344,0,0,0,0,0,0,0,0,0,-1,1364,680,0,0
147,344,0,0,0,0,0,0,0,0,0,-1,1371,680,0,0
154,344,0,0,0,0,0,0,0,0,0,-1,1378,680,0,0
161,344,0,0,0,0,0,0,0,0,0,-1,1385,680,0,0
168,344,0,0,0,0,0,0,0,0,0,-1,1392,680,0,0
175,344,0,0,0,0,0,0,0,0,0,-1,1399,680,0,0
182,344,0,0,0,0,0,0,0,0,0,-1,1406,680,0,0
189,344,0,0,0,0,0,0,0,0,0,-1,1413,680,0,0
196,344,0,0,0,0,0,0,0,0,0,-1,1420,680,0,0
203,344,0,0,0,0,0,0,0,0,0,-1,1427,680,0,0
210,344,0,0,0,0,0,0,0,0,0,-1,1434,680,0,0
217,344,0,0,0,0,0,0,0,0,0,-1,1441,680,0,0
224,344,0,0,0,0,0,0,0,0,0,-1,1448,680,0,0
231,344,0,0,0,0,0,0,0,0,0,-1,1455,680,0,0
238,344,0,0,0,0,0,0,0,0,0,-1,1462,680,0,0
245,344,0,0,0,0,0,0,0,0,0,-1,1469,680,0,0
252,344,0,0,0,0,0,0,0,0,0,-1,1476,680,0,0
259,344,0,0,0,0,0,0,0,0,0,-1,1483,680,0,0
266,344,0,0,0,0,0,0,0,0,0,-1,1490,680,0,0
273,344,0,0,0,0,0,0,0,0,0,-1,1497,680,0,0
280,344,0,0,0,0,0,0,0,0,0,-1,1504,680,0,0
287,344,0,0,0,0,0,0,0,0,0,-1,1511,680,0,0
294,344,0,0,0,0,0,0,0,0,0,-1,1518,680,0,0
301,344,0,0,0,0,0,0,0,0,0,-1,1525,680,0,0
308,344,0,0,0,0,0,0,0,0,0,-1,1532,680,0,0
315,344,0,0,0,0,0,0,0,0,0,-1,1539,680,0,0
322,344,0,0,0,0,0,0,0,0,0,-1,1546,680,0,0
329,344,0,0,0,0,0,0,0,0,0,-1,1553,680,0,0
336,344,0,0,0,0,0,0,0,0,0,-1,1560,680,0,0
343,344,0,0,0,0,0,0,0,0,0,-1,1567,680,0,0
350,344,0,0,0,0,0,0,0,0,0,-1,1574,680,0,0
357,344,0,0,0,0,0,0,0,0,0,-1,1581,680,0,0
364,344,0,0,0,0,0,0,0,0,0,-1,1588,680,0,0
371,344,0,0,0,0,0,0,0,0,0,-1,1595,680,0,0
378,344,0,0,0,0,0,0,0,0,0,-1,1602,680,0,0
385,344,0,0,0,0,0,0,0,0,0,-1,1609,680,0,0
392,344,0,0,0,0,0,0,0,0,0,-1,1616,680,0,0
399,344,0,0,0,0,0,0,0,0,0,-1,1623,680,0,0
406,344,0,0,0,0,0,0,0,0,0,-1,1630,680,0,0
413,344,0,0,0,0,0,0,0,0,0,-1,1637,680,0,0
420,344,0,0,0,0,0,0,0,0,0,-1,1644,680,0,0
427,344,0,0,0,0,0,0,0,0,0,-1,1651,680,0,0
434,344,0,0,0,0,0,0,0,0,0,-1,1658,680,0,0
441,344,0,0,0,0,0,0,0,0,0,-1,1665,680,0,0
448,344,0,0,0,0,0,0,0,0,0,-1,1672,680,0,0
455,344,0,0,0,0,0,0,0,0,0,-1,1679,680,0,0
462,344,0,0,0,0,0,0,0,0,0,-1,1686,680,0,0
469,344,0,0,0,0,0,0,0,0,0,-1,1693,680,0,0
476,344,0,0,0,0,0,0,0,0,0,-1,1700,680,0,0
483,344,0,0,0,0,0,0,0,0,0,-1,1707,680,0,0
490,344,0,0,0,0,0,0,0,0,0,-1,1714,680,0,0
497,344,0,0,0,0,0,0,0,0,0,-1,1721,680,0,0
504,344,0,0,0,0,0,0,0,0,0,-1,1728,680,0,0
511,344,15.4819,0.452637,0,0,0,0,0,0,0,-1,1735,680,15.4819,-0.452656
518,344,17.1357,2.31207,0,0,0,0,0,0,0,-1,1742,680,17.1358,-2.31207
525,344,31.5201,2.6217,0,0,0,0,0,0,0,-1,1749,680,31.5201,-2.62168
532,344,31.9766,2.61047,0,0,0,0,0,0,0,-1,1756,680,31.9765,-2.6105
539,344,32.4379,2.65314,0,0,0,0,0,0,0,-1,1763,680,32.4378,-2.65316
546,344,14.6722,4.30243,0,0,0,0,0,0,0,-1,1770,680,14.6722,-4.30241
553,344,14.8136,4.35681,0,0,0,0,0,0,0,-1,1777,680,14.8136,-4.35679
560,344,11.9363,2.14185,0,0,0,0,0,0,0,-1,1784,680,11.9362,-2.14182
567,344,11.397,0.925842,0,0,0,0,0,0,0,-1,1791,680,11.397,-0.92583
574,344,10.0004,0.504639,0,0,0,0,0,0,0,-1,1798,680,10.0004,-0.504645
581,344,13.6709,-0.969604,0,0,0,0,0,0,0,-1,1805,680,13.6709,0.969629
588,344,16.1447,-3.15948,0,0,0,0,0,0,0,-1,1812,680,16.1447,3.15946
595,344,34.1443,-11.0524,0,0,0,0,0,0,0,-1,1819,680,34.1442,11.0524
602,344,34.1852,-10.1813,0.00182551,-0.000348755,-0.000190399,0.00184206,-0.000365302,-0.0866899,0.00136619,0.0373205,1826,680,34.1852,10.1813
609,344,34.1349,-9.35883,0.00197311,-0.000134536,3.05709e-05,0.00197356,-0.00013498,0.0145007,0.00136293,0.0179925,1833,680,34.1349,9.35881
616,344,34.0731,-8.56067,0.00193896,0.00010362,0.000260394,0.00197519,6.73912e-05,0.138243,0.00129492,0.0224924,1840,680,34.0731,8.5607
623,344,34.0746,-7.77411,0.00182042,0.000462182,0.000445494,0.0019535,0.000329102,0.290286,0.00120767,0.0190022,1847,680,34.0746,7.77412
630,344,34.0354,-6.992,0.00170382,0.000902893,0.000664654,0.00207933,0.000527382,0.514265,0.00124814,0.0248558,1854,680,34.0354,6.99202
637,344,34.0038,-6.17194,0.00157586,0.00136419,0.000846104,0.00232272,0.000617324,0.723179,0.0013892,0.0252526,1861,680,34.0038,6.17191
644,344,33.9286,-5.34814,0.00144391,0.00187316,0.00101165,0.0026927,0.000624365,0.889925,0.00162744,0.0169295,1868,680,33.9286,5.34815
651,344,33.8746,-4.52399,0.00135547,0.00246821,0.00118411,0.00322015,0.00060354,1.00502,0.00197654,0.0116158,1875,680,33.8747,4.52397
658,344,33.8419,-3.61023,0.00132382,0.00315579,0.00133137,0.00385584,0.000623766,1.08671,0.00238993,0.0259572,1882,680,33.842,3.61023
665,344,33.6527,-2.84058,0.00165415,0.00390609,0.0015702,0.00471231,0.000847934,1.09645,0.0029005,0.0427347,1889,680,33.6527,2.84055
672,344,33.6781,-2.12976,0,0,0,0,0,0,0,-1,1896,680,33.6781,2.12979
679,344,31.3612,-1.75824,0,0,0,0,0,0,0,-1,1903,680,31.3613,1.75822
686,344,15.024,1.82709,0,0,0,0,0,0,0,-1,1910,680,15.024,-1.82706
693,344,12.4362,-1.42346,0,0,0,0,0,0,0,-1,1917,680,12.4361,1.42348
700,344,17.5396,2.61206,0,0,0,0,0,0,0,-1,1924,680,17.5396,-2.61204
707,344,18.5829,3.29352,0,0,0,0,0,0,0,-1,1931,680,18.5828,-3.2935
714,344,0,0,0,0,0,0,0,0,0,-1,1938,680,0,0
721,344,0,0,0,0,0,0,0,0,0,-1,1945,680,0,0
728,344,0,0,0,0,0,0,0,0,0,-1,1952,680,0,0
735,344,0,0,0,0,0,0,0,0,0,-1,1959,680,0,0
742,344,0,0,0,0,0,0,0,0,0,-1,1966,680,0,0
749,344,0,0,0,0,0,0,0,0,0,-1,1973,680,0,0
756,344,0,0,0,0,0,0,0,0,0,-1,1980,680,0,0
763,344,0,0,0,0,0,0,0,0,0,-1,1987,680,0,0
770,344,0,0,0,0,0,0,0,0,0,-1,1994,680,0,0
777,344,0,0,0,0,0,0,0,0,0,-1,2001,680,0,0
784,344,0,0,0,0,0,0,0,0,0,-1,2008,680,0,0
791,344,0,0,0,0,0,0,0,0,0,-1,2015,680,0,0
798,344,0,0,0,0,0,0,0,0,0,-1,2022,680,0,0
805,344,0,0,0,0,0,0,0,0,0,-1,2029,680,0,0
812,344,0,0,0,0,0,0,0,0,0,-1,2036,680,0,0
-700,337,0,0,0,0,0,0,0,0,0,-1,524,687,0,0
-693,337,0,0,0,0,0,0,0,0,0,-1,531,687,0,0
-686,337,0,0,0,0,0,0,0,0,0,-1,538,687,0,0
-679,337,0,0,0,0,0,0,0,0,0,-1,545,687,0,0
-672,337,0,0,0,0,0,0,0,0,0,-1,552,687,0,0
-665,337,0,0,0,0,0,0,0,0,0,-1,559,687,0,0
-658,337,0,0,0,0,0,0,0,0,0,-1,566,687,0,0
-651,337,0,0,0,0,0,0,0,0,0,-1,573,687,0,0
-644,337,0,0,0,0,0,0,0,0,0,-1,580,687,0,0
-637,337,0,0,0,0,0,0,0,0,0,-1,587,687,0,0
-630,337,0,0,0,0,0,0,0,0,0,-1,594,687,0,0
-623,337,0,0,0,0,0,0,0,0,0,-1,601,687,0,0
-616,337,0,0,0,0,0,0,0,0,0,-1,608,687,0,0
-609,337,0,0,0,0,0,0,0,0,0,-1,615,687,0,0
-602,337,0,0,0,0,0,0,0,0,0,-1,622,687,0,0
-595,337,0,0,0,0,0,0,0,0,0,-1,629,687,0,0
-588,337,-10.8413,1.27863,0,0,0,0,0,0,0,-1,636,687,-10.8413,-1.27861
-581,337,-11.2157,1.31567,0,0,0,0,0,0,0,-1,643,687,-11.2157,-1.3157
-574,337,-6.03339,2.0321,0,0,0,0,0,0,0,-1,650,687,-6.03337,-2.03213
-567,337,-13.8102,1.56787,0,0,0,0,0,0,0,-1,657,687,-13.8102,-1.56789
-560,337,-15.5435,2.34247,0,0,0,0,0,0,0,-1,664,687,-15.5435,-2.34247
-553,337,-18.0128,1.12927,0,0,0,0,0,0,0,-1,671,687,-18.0128,-1.12926
-546,337,-18.0244,-2.03845,0,0,0,0,0,0,0,-1,678,687,-18.0244,2.03846
-539,337,-19.2426,-3.53815,0,0,0,0,0,0,0,-1,685,687,-19.2426,3.53813
-532,337,-20.7719,-4.90656,0,0,0,0,0,0,0,-1,692,687,-20.7719,4.90658
-525,337,-20.791,-5.70758,0.00447517,0.00197711,-0.00137686,0.00508512,0.00136715,-0.41702,0.00303867,0.0197622,699,687,-20.7909,5.70758
-518,337,-20.7713,-6.50018,0.00350219,0.00113651,-0.000943177,0.00383219,0.000806505,-0.336571,0.0023329,0.0237425,706,687,-20.7713,6.50017
-511,337,-20.858,-7.29578,0.0027553,0.000462548,-0.000541031,0.00287656,0.000341291,-0.220478,0.00181467,0.0236479,713,687,-20.858,7.29576
-504,337,-20.8667,-8.15173,0.00212792,-8.88837e-05,-0.000156048,0.00213885,-9.98146e-05,-0.0699336,0.00146031,0.0238385,720,687,-20.8667,8.15175
-497,337,-20.8602,-8.9339,0.00164617,-0.000507913,0.000177946,0.00166077,-0.000522514,0.0818692,0.00131639,0.018085,727,687,-20.8602,8.93389
-490,337,-20.8903,-9.68201,0.0013307,-0.000773818,0.000397046,0.00140311,-0.000846235,0.180405,0.00131186,0.015865,734,687,-20.8903,9.682
-483,337,-20.9156,-10.432,0.00122904,-0.000879492,0.000500387,0.00134176,-0.000992215,0.221573,0.00135255,0.0154056,741,687,-20.9156,10.432
-476,337,-20.9427,-11.2216,0.00125724,-0.000879127,0.000400521,0.00132986,-0.000951747,0.179366,0.0013233,0.0174327,748,687,-20.9427,11.2216
-469,337,-20.9556,-12.0977,0,0,0,0,0,0,0,-1,755,687,-20.9556,12.0976
-462,337,-14.186,-8.89264,0,0,0,0,0,0,0,-1,762,687,-14.186,8.89266
-455,337,-6.00574,-3.12933,0,0,0,0,0,0,0,-1,769,687,-6.00576,3.12934
-448,337,-5.30627,-2.07202,0,0,0,0,0,0,0,-1,776,687,-5.30628,2.07205
-441,337,-4.24762,-1.49597,0,0,0,0,0,0,0,-1,783,687,-4.24762,1.49598
-434,337,-6.86908,1.37531,0,0,0,0,0,0,0,-1,790,687,-6.86908,-1.3753
-427,337,-9.92004,2.487,0,0,0,0,0,0,0,-1,797,687,-9.92002,-2.48701
-420,337,-2.95996,-1.76697,0,0,0,0,0,0,0,-1,804,687,-2.95998,1.76696
-413,337,-1.29169,-1.99487,0,0,0,0,0,0,0,-1,811,687,-1.29171,1.9949
-406,337,-1.02356,-1.89563,0,0,0,0,0,0,0,-1,818,687,-1.02357,1.89564
-399,337,-0.472839,-2.21338,0,0,0,0,0,0,0,-1,825,687,-0.472837,2.2134
-392,337,0,0,0,0,0,0,0,0,0,-1,832,687,0,0
-385,337,0,0,0,0,0,0,0,0,0,-1,839,687,0,0
-378,337,0,0,0,0,0,0,0,0,0,-1,846,687,0,0
-371,337,0,0,0,0,0,0,0,0,0,-1,853,687,0,0
-364,337,0,0,0,0,0,0,0,0,0,-1,860,687,0,0
-357,337,0,0,0,0,0,0,0,0,0,-1,867,687,0,0
-350,337,0,0,0,0,0,0,0,0,0,-1,874,687,0,0
-343,337,0,0,0,0,0,0,0,0,0,-1,881,687,0,0
-336,337,0,0,0,0,0,0,0,0,0,-1,888,687,0,0
-329,337,0,0,0,0,0,0,0,0,0,-1,895,687,0,0
-322,337,0,0,0,0,0,0,0,0,0,-1,902,687,0,0
-315,337,0,0,0,0,0,0,0,0,0,-1,909,687,0,0
-308,337,0,0,0,0,0,0,0,0,0,-1,916,687,0,0
-301,337,0,0,0,0,0,0,0,0,0,-1,923,687,0,0
-294,337,0,0,0,0,0,0,0,0,0,-1,930,687,0,0
-287,337,0,0,0,0,0,0,0,0,0,-1,937,687,0,0
-280,337,0,0,0,0,0,0,0,0,0,-1,944,687,0,0
-273,337,0,0,0,0,0,0,0,0,0,-1,951,687,0,0
-266,337,0,0,0,0,0,0,0,0,0,-1,958,687,0,0
-259,337,0,0,0,0,0,0,0,0,0,-1,965,687,0,0
-252,337,0,0,0,0,0,0,0,0,0,-1,972,687,0,0
-245,337,0,0,0,0,0,0,0,0,0,-1,979,687,0,0
-238,337,0,0,0,0,0,0,0,0,0,-1,986,687,0,0
-231,337,0,0,0,0,0,0,0,0,0,-1,993,687,0,0
-224,337,0,0,0,0,0,0,0,0,0,-1,1000,687,0,0
-217,337,0,0,0,0,0,0,0,0,0,-1,1007,687,0,0
-210,337,0,0,0,0,0,0,0,0,0,-1,1014,687,0,0
-203,337,0,0,0,0,0,0,0,0,0,-1,1021,687,0,0
-196,337,0,0,0,0,0,0,0,0,0,-1,1028,687,0,0
-189,337,0,0,0,0,0,0,0,0,0,-1,1035,687,0,0
-182,337,0,0,0,0,0,0,0,0,0,-1,1042,687,0,0
-175,337,0,0,0,0,0,0,0,0,0,-1,1049,687,0,0
-168,337,0,0,0,0,0,0,0,0,0,-1,1056,687,0,0
-161,337,0,0,0,0,0,0,0,0,0,-1,1063,687,0,0
-154,337,0,0,0,0,0,0,0,0,0,-1,1070,687,0,0
-147,337,0,0,0,0,0,0,0,0,0,-1,1077,687,0,0
-140,337,0,0,0,0,0,0,0,0,0,-1,1084,687,0,0
-133,337,0,0,0,0,0,0,0,0,0,-1,1091,687,0,0
-126,337,0,0,0,0,0,0,0,0,0,-1,1098,687,0,0
-119,337,0,0,0,0,0,0,0,0,0,-1,1105,687,0,0
-112,337,0,0,0,0,0,0,0,0,0,-1,1112,687,0,0
-105,337,0,0,0,0,0,0,0,0,0,-1,1119,687,0,0
-98,337,0,0,0,0,0,0,0,0,0,-1,1126,687,0,0
-91,337,0,0,0,0,0,0,0,0,0,-1,1133,687,0,0
-84,337,0,0,0,0,0,0,0,0,0,-1,1140,687,0,0
-77,337,0,0,0,0,0,0,0,0,0,-1,1147,687,0,0
-70,337,0,0,0,0,0,0,0,0,0,-1,1154,687,0,0
-63,337,0,0,0,0,0,0,0,0,0,-1,1161,687,0,0
-56,337,0,0,0,0,0,0,0,0,0,-1,1168,687,0,0
-49,337,0,0,0,0,0,0,0,0,0,-1,1175,687,0,0
-42,337,0,0,0,0,0,0,0,0,0,-1,1182,687,0,0
-35,337,0,0,0,0,0,0,0,0,0,-1,1189,687,0,0
-28,337,0,0,0,0,0,0,0,0,0,-1,1196,687,0,0
-21,337,0,0,0,0,0,0,0,0,0,-1,1203,687,0,0
-14,337,0,0,0,0,0,0,0,0,0,-1,1210,687,0,0
-7,337,0,0,0,0,0,0,0,0,0,-1,1217,687,0,0
0,337,0,0,0,0,0,0,0,0,0,-1,1224,687,0,0
7,337,0,0,0,0,0,0,0,0,0,-1,1231,687,0,0
14,337,0,0,0,0,0,0,0,0,0,-1,1238,687,0,0
21,337,0,0,0,0,0,0,0,0,0,-1,1245,687,0,0
28,337,0,0,0,0,0,0,0,0,0,-1,1252,687,0,0
35,337,0,0,0,0,0,0,0,0,0,-1,1259,687,0,0
42,337,0,0,0,0,0,0,0,0,0,-1,1266,687,0,0
49,337,0,0,0,0,0,0,0,0,0,-1,1273,687,0,0
56,337,0,0,0,0,0,0,0,0,0,-1,1280,687,0,0
63,337,0,0,0,0,0,0,0,0,0,-1,1287,687,0,0
70,337,0,0,0,0,0,0,0,0,0,-1,1294,687,0,0
77,337,0,0,0,0,0,0,0,0,0,-1,1301,687,0,0
84,337,0,0,0,0,0,0,0,0,0,-1,1308,687,0,0
91,337,0,0,0,0,0,0,0,0,0,-1,1315,687,0,0
98,337,0,0,0,0,0,0,0,0,0,-1,1322,687,0,0
105,337,0,0,0,0,0,0,0,0,0,-1,1329,687,0,0
112,337,0,0,0,0,0,0,0,0,0,-1,1336,687,0,0
119,337,0,0,0,0,0,0,0,0,0,-1,1343,687,0,0
126,337,0,0,0,0,0,0,0,0,0,-1,1350,687,0,0
133,337,0,0,0,0,0,0,0,0,0,-1,1357,687,0,0
140,337,0,0,0,0,0,0,0,0,0,-1,1364,687,0,0
147,337,0,0,0,0,0,0,0,0,0,-1,1371,687,0,0
154,337,0,0,0,0,0,0,0,0,0,-1,1378,687,0,0
161,337,0,0,0,0,0,0,0,0,0,-1,1385,687,0,0
168,337,0,0,0,0,0,0,0,0,0,-1,1392,687,0,0
175,337,0,0,0,0,0,0,0,0,0,-1,1399,687,0,0
182,337,0,0,0,0,0,0,0,0,0,-1,1406,687,0,0
189,337,0,0,0,0,0,0,0,0,0,-1,1413,687,0,0
196,337,0,0,0,0,0,0,0,0,0,-1,1420,687,0,0
203,337,0,0,0,0,0,0,0,0,0,-1,1427,687,0,0
210,337,0,0,0,0,0,0,0,0,0,-1,1434,687,0,0
217,337,0,0,0,0,0,0,0,0,0,-1,1441,687,0,0
224,337,0,0,0,0,0,0,0,0,0,-1,1448,687,0,0
231,337,0,0,0,0,0,0,0,0,0,-1,1455,687,0,0
238,337,0,0,0,0,0,0,0,0,0,-1,1462,687,0,0
245,337,0,0,0,0,0,0,0,0,0,-1,1469,687,0,0
252,337,0,0,0,0,0,0,0,0,0,-1,1476,687,0,0
259,337,0,0,0,0,0,0,0,0,0,-1,1483,687,0,0
266,337,0,0,0,0,0,0,0,0,0,-1,1490,687,0,0
273,337,0,0,0,0,0,0,0,0,0,-1,1497,687,0,0
280,337,0,0,0,0,0,0,0,0,0,-1,1504,687,0,0
287,337,0,0,0,0,0,0,0,0,0,-1,1511,687,0,0
294,337,0,0,0,0,0,0,0,0,0,-1,1518,687,0,0
301,337,0,0,0,0,0,0,0,0,0,-1,1525,687,0,0
308,337,0,0,0,0,0,0,0,0,0,-1,1532,687,0,0
315,337,0,0,0,0,0,0,0,0,0,-1,1539,687,0,0
322,337,0,0,0,0,0,0,0,0,0,-1,1546,687,0,0
329,337,0,0,0,0,0,0,0,0,0,-1,1553,687,0,0
336,337,0,0,0,0,0,0,0,0,0,-1,1560,687,0,0
343,337,0,0,0,0,0,0,0,0,0,-1,1567,687,0,0
350,337,0,0,0,0,0,0,0,0,0,-1,1574,687,0,0
357,337,0,0,0,0,0,0,0,0,0,-1,1581,687,0,0
364,337,0,0,0,0,0,0,0,0,0,-1,1588,687,0,0
371,337,0,0,0,0,0,0,0,0,0,-1,1595,687,0,0
378,337,0,0,0,0,0,0,0,0,0,-1,1602,687,0,0
385,337,0,0,0,0,0,0,0,0,0,-1,1609,687,0,0
392,337,0,0,0,0,0,0,0,0,0,-1,1616,687,0,0
399,337,0,0,0,0,0,0,0,0,0,-1,1623,687,0,0
406,337,0,0,0,0,0,0,0,0,0,-1,1630,687,0,0
413,337,0,0,0,0,0,0,0,0,0,-1,1637,687,0,0
420,337,0,0,0,0,0,0,0,0,0,-1,1644,687,0,0
427,337,0,0,0,0,0,0,0,0,0,-1,1651,687,0,0
434,337,0,0,0,0,0,0,0,0,0,-1,1658,687,0,0
441,337,0,0,0,0,0,0,0,0,0,-1,1665,687,0,0
448,337,0,0,0,0,0,0,0,0,0,-1,1672,687,0,0
455,337,0,0,0,0,0,0,0,0,0,-1,1679,687,0,0
462,337,0,0,0,0,0,0,0,0,0,-1,1686,687,0,0
469,337,0,0,0,0,0,0,0,0,0,-1,1693,687,0,0
476,337,0,0,0,0,0,0,0,0,0,-1,1700,687,0,0
483,337,0,0,0,0,0,0,0,0,0,-1,1707,687,0,0
490,337,0,0,0,0,0,0,0,0,0,-1,1714,687,0,0
497,337,0,0,0,0,0,0,0,0,0,-1,1721,687,0,0
504,337,0,0,0,0,0,0,0,0,0,-1,1728,687,0,0
511,337,0,0,0,0,0,0,0,0,0,-1,1735,687,0,0
518,337,18.0369,1.64581,0,0,0,0,0,0,0,-1,1742,687,18.0368,-1.64581
525,337,31.0717,2.13745,0,0,0,0,0,0,0,-1,1749,687,31.0717,-2.13747
532,337,31.5126,2.13904,0,0,0,0,0,0,0,-1,1756,687,31.5125,-2.13905
539,337,31.9684,2.15594,0,0,0,0,0,0,0,-1,1763,687,31.9684,-2.15596
546,337,32.3584,1.43719,0,0,0,0,0,0,0,-1,1770,687,32.3585,-1.43722
553,337,32.1809,1.36395,0,0,0,0,0,0,0,-1,1777,687,32.181,-1.36396
560,337,18.4053,3.62793,0,0,0,0,0,0,0,-1,1784,687,18.4052,-3.6279
567,337,11.9288,1.38776,0,0,0,0,0,0,0,-1,1791,687,11.9288,-1.38777
574,337,10.704,1.19476,0,0,0,0,0,0,0,-1,1798,687,10.704,-1.19478
581,337,8.50427,0.561768,0,0,0,0,0,0,0,-1,1805,687,8.5043,-0.561754
588,337,8.5885,-0.0536499,0,0,0,0,0,0,0,-1,1812,687,8.58844,0.0536788
595,337,13.8816,-1.70703,0,0,0,0,0,0,0,-1,1819,687,13.8816,1.70702
602,337,34.9767,-10.1586,0,0,0,0,0,0,0,-1,1826,687,34.9766,10.1586
609,337,34.924,-9.27924,0.00243681,-0.000464946,1.27682e-05,0.00243687,-0.000465002,0.00440005,0.00179972,0.0234885,1833,687,34.9239,9.27921
616,337,34.8838,-8.50775,0.00225079,-0.000268163,0.000247029,0.00227478,-0.00029216,0.096839,0.0016227,0.0173577,1840,687,34.8838,8.50777
623,337,34.8557,-7.7168,0.00196591,3.84435e-05,0.000373714,0.00203583,-3.14789e-05,0.184963,0.00136783,0.0153138,1847,687,34.8557,7.71677
630,337,34.8,-6.90649,0.00175151,0.000423257,0.000542804,0.00194511,0.000229653,0.342607,0.00122737,0.0197008,1854,687,34.8001,6.90651
637,337,34.7817,-6.11255,0.00157245,0.000851197,0.000697177,0.00199675,0.0004269,0.546715,0.00121415,0.017344,1861,687,34.7817,6.11255
644,337,34.7288,-5.28113,0.00144321,0.00134614,0.000859827,0.00225587,0.00053348,0.757202,0.00136139,0.0119584,1868,687,34.7287,5.28115
651,337,34.6693,-4.47931,0.00139879,0.00193488,0.00104318,0.0027439,0.00058977,0.911152,0.00166781,0.0109237,1875,687,34.6694,4.47929
658,337,34.6475,-3.6615,0.00146715,0.00262661,0.00124588,0.00342103,0.000672724,1.00316,0.0020928,0.0117578,1882,687,34.6475,3.66149
665,337,34.6349,-2.86176,0.00188576,0.00341725,0.00156035,0.00438962,0.000913393,1.01351,0.00267446,0.0163246,1889,687,34.6349,2.86173
672,337,34.6754,-2.04022,0,0,0,0,0,0,0,-1,1896,687,34.6754,2.04021
679,337,33.4272,-1.31268,0,0,0,0,0,0,0,-1,1903,687,33.4273,1.3127
686,337,18.5614,1.68597,0,0,0,0,0,0,0,-1,1910,687,18.5614,-1.68598
693,337,16.5415,2.21411,0,0,0,0,0,0,0,-1,1917,687,16.5415,-2.2141
700,337,17.2661,2.44379,0,0,0,0,0,0,0,-1,1924,687,17.2661,-2.44378
707,337,17.3544,5.61853,0,0,0,0,0,0,0,-1,1931,687,17.3543,-5.61851
714,337,0,0,0,0,0,0,0,0,0,-1,1938,687,0,0
721,337,0,0,0,0,0,0,0,0,0,-1,1945,687,0,0
728,337,0,0,0,0,0,0,0,0,0,-1,1952,687,0,0
735,337,0,0,0,0,0,0,0,0,0,-1,1959,687,0,0
742,337,0,0,0,0,0,0,0,0,0,-1,1966,687,0,0
749,337,0,0,0,0,0,0,0,0,0,-1,1973,687,0,0
756,337,0,0,0,0,0,0,0,0,0,-1,1980,687,0,0
763,337,0,0,0,0,0,0,0,0,0,-1,1987,687,0,0
770,337,0,0,0,0,0,0,0,0,0,-1,1994,687,0,0
777,337,0,0,0,0,0,0,0,0,0,-1,2001,687,0,0
784,337,0,0,0,0,0,0,0,0,0,-1,2008,687,0,0
791,337,0,0,0,0,0,0,0,0,0,-1,2015,687,0,0
798,337,0,0,0,0,0,0,0,0,0,-1,2022,687,0,0
805,337,0,0,0,0,0,0,0,0,0,-1,2029,687,0,0
812,337,0,0,0,0,0,0,0,0,0,-1,2036,687,0,0
-700,330,0,0,0,0,0,0,0,0,0,-1,524,694,0,0
-693,330,0,0,0,0,0,0,0,0,0,-1,531,694,0,0
-686,330,0,0,0,0,0,0,0,0,0,-1,538,694,0,0
-679,330,0,0,0,0,0,0,0,0,0,-1,545,694,0,0
-672,330,0,0,0,0,0,0,0,0,0,-1,552,694,0,0
-665,330,0,0,0,0,0,0,0,0,0,-1,559,694,0,0
-658,330,0,0,0,0,0,0,0,0,0,-1,566,694,0,0
-651,330,0,0,0,0,0,0,0,0,0,-1,573,694,0,0
-644,330,0,0,0,0,0,0,0,0,0,-1,580,694,0,0
-637,330,0,0,0,0,0,0,0,0,0,-1,587,694,0,0
-630,330,0,0,0,0,0,0,0,0,0,-1,594,694,0,0
-623,330,0,0,0,0,0,0,0,0,0,-1,601,694,0,0
-616,330,0,0,0,0,0,0,0,0,0,-1,608,694,0,0
-609,330,0,0,0,0,0,0,0,0,0,-1,615,694,0,0
-602,330,0,0,0,0,0,0,0,0,0,-1,622,694,0,0
-595,330,-4.67883,1.65515,0,0,0,0,0,0,0,-1,629,694,-4.67881,-1.65515
-588,330,-8.5047,2.67346,0,0,0,0,0,0,0,-1,636,694,-8.50469,-2.67348
-581,330,-12.4227,0.947083,0,0,0,0,0,0,0,-1,643,694,-12.4227,-0.947109
-574,330,-9.02118,1.87952,0,0,0,0,0,0,0,-1,650,694,-9.02115,-1.87953
-567,330,-8.35577,0.909973,0,0,0,0,0,0,0,-1,657,694,-8.35575,-0.909945
-560,330,-13.1036,-0.584656,0,0,0,0,0,0,0,-1,664,694,-13.1035,0.584658
-553,330,-17.5484,-1.21545,0,0,0,0,0,0,0,-1,671,694,-17.5484,1.21547
-546,330,-21.2924,-3.06439,0,0,0,0,0,0,0,-1,678,694,-21.2924,3.06438
-539,330,-21.4658,-3.87195,0,0,0,0,0,0,0,-1,685,694,-21.4658,3.87195
-532,330,-21.553,-4.86975,0.00475699,0.00258144,-0.00134341,0.0053978,0.00194064,-0.44508,0.00315715,0.0230818,692,694,-21.553,4.86977
-525,330,-21.5334,-5.71814,0.00386265,0.00162818,-0.00102243,0.00425987,0.00123095,-0.37056,0.0025314,0.0121037,699,694,-21.5334,5.71816
-518,330,-21.5513,-6.46332,0.00306232,0.000825671,-0.000647891,0.00323644,0.000651551,-0.262545,0.00197657,0.0152115,706,694,-21.5513,6.46332
-511,330,-21.659,-7.25311,0.002379,0.000139045,-0.000275095,0.00241229,0.000105755,-0.120428,0.00157413,0.0202861,713,694,-21.659,7.25313
-504,330,-21.6608,-8.07623,0.00174886,-0.000424124,0.000125054,0.00175603,-0.000431297,0.0572974,0.00133783,0.0196383,720,694,-21.6608,8.07625
-497,330,-21.6707,-8.83569,0.00125469,-0.00084511,0.000476891,0.00135793,-0.000948342,0.213181,0.00133851,0.0146798,727,694,-21.6707,8.8357
-490,330,-21.6796,-9.61749,0.000978961,-0.00112783,0.000749164,0.00121819,-0.00136706,0.309098,0.00149342,0.0155274,734,694,-21.6797,9.6175
-483,330,-21.6853,-10.4132,0.000889665,-0.00119939,0.000900348,0.00122415,-0.00153387,0.3557,0.00159569,0.0149269,741,694,-21.6853,10.4132
-476,330,-21.6957,-11.2117,0,0,0,0,0,0,0,-1,748,694,-21.6957,11.2117
-469,330,-16.1478,-9.23303,0,0,0,0,0,0,0,-1,755,694,-16.1478,9.23301
-462,330,-7.26733,-3.84833,0,0,0,0,0,0,0,-1,762,694,-7.26731,3.84832
-455,330,-5.04254,-1.79303,0,0,0,0,0,0,0,-1,769,694,-5.04252,1.79305
-448,330,-4.89886,-1.66156,0,0,0,0,0,0,0,-1,776,694,-4.89886,1.66157
-441,330,-5.30676,-2.34045,0,0,0,0,0,0,0,-1,783,694,-5.30679,2.34048
-434,330,-7.20428,1.00024,0,0,0,0,0,0,0,-1,790,694,-7.20431,-1.00027
-427,330,-16.0428,2.89258,0,0,0,0,0,0,0,-1,797,694,-16.0428,-2.89259
-420,330,-29.0331,0.271606,0,0,0,0,0,0,0,-1,804,694,-29.0331,-0.27158
-413,330,-29.0896,0.56366,0,0,0,0,0,0,0,-1,811,694,-29.0896,-0.563671
-406,330,-1.65375,-1.74371,0,0,0,0,0,0,0,-1,818,694,-1.65375,1.74371
-399,330,0,0,0,0,0,0,0,0,0,-1,825,694,0,0
-392,330,0,0,0,0,0,0,0,0,0,-1,832,694,0,0
-385,330,0,0,0,0,0,0,0,0,0,-1,839,694,0,0
-378,330,0,0,0,0,0,0,0,0,0,-1,846,694,0,0
-371,330,0,0,0,0,0,0,0,0,0,-1,853,694,0,0
-364,330,0,0,0,0,0,0,0,0,0,-1,860,694,0,0
-357,330,0,0,0,0,0,0,0,0,0,-1,867,694,0,0
-350,330,0,0,0,0,0,0,0,0,0,-1,874,694,0,0
-343,330,0,0,0,0,0,0,0,0,0,-1,881,694,0,0
-336,330,0,0,0,0,0,0,0,0,0,-1,888,694,0,0
-329,330,0,0,0,0,0,0,0,0,0,-1,895,694,0,0
-322,330,0,0,0,0,0,0,0,0,0,-1,902,694,0,0
-315,330,0,0,0,0,0,0,0,0,0,-1,909,694,0,0
-308,330,0,0,0,0,0,0,0,0,0,-1,916,694,0,0
-301,330,0,0,0,0,0,0,0,0,0,-1,923,694,0,0
-294,330,0,0,0,0,0,0,0,0,0,-1,930,694,0,0
-287,330,0,0,0,0,0,0,0,0,0,-1,937,694,0,0
-280,330,0,0,0,0,0,0,0,0,0,-1,944,694,0,0
-273,330,0,0,0,0,0,0,0,0,0,-1,951,694,0,0
-266,330,0,0,0,0,0,0,0,0,0,-1,958,694,0,0
-259,330,0,0,0,0,0,0,0,0,0,-1,965,694,0,0
-252,330,0,0,0,0,0,0,0,0,0,-1,972,694,0,0
-245,330,0,0,0,0,0,0,0,0,0,-1,979,694,0,0
-238,330,0,0,0,0,0,0,0,0,0,-1,986,694,0,0
-231,330,0,0,0,0,0,0,0,0,0,-1,993,694,0,0
-224,330,0,0,0,0,0,0,0,0,0,-1,1000,694,0,0
-217,330,0,0,0,0,0,0,0,0,0,-1,1007,694,0,0
-210,330,0,0,0,0,0,0,0,0,0,-1,1014,694,0,0
-203,330,0,0,0,0,0,0,0,0,0,-1,1021,694,0,0
-196,330,0,0,0,0,0,0,0,0,0,-1,1028,694,0,0
-189,330,0,0,0,0,0,0,0,0,0,-1,1035,694,0,0
-182,330,0,0,0,0,0,0,0,0,0,-1,1042,694,0,0
-175,330,0,0,0,0,0,0,0,0,0,-1,1049,694,0,0
-168,330,0,0,0,0,0,0,0,0,0,-1,1056,694,0,0
-161,330,0,0,0,0,0,0,0,0,0,-1,1063,694,0,0
-154,330,0,0,0,0,0,0,0,0,0,-1,1070,694,0,0
-147,330,0,0,0,0,0,0,0,0,0,-1,1077,694,0,0
-140,330,0,0,0,0,0,0,0,0,0,-1,1084,694,0,0
-133,330,0,0,0,0,0,0,0,0,0,-1,1091,694,0,0
-126,330,0,0,0,0,0,0,0,0,0,-1,1098,694,0,0
-119,330,0,0,0,0,0,0,0,0,0,-1,1105,694,0,0
-112,330,0,0,0,0,0,0,0,0,0,-1,1112,694,0,0
-105,330,0,0,0,0,0,0,0,0,0,-1,1119,694,0,0
-98,330,0,0,0,0,0,0,0,0,0,-1,1126,694,0,0
-91,330,0,0,0,0,0,0,0,0,0,-1,1133,694,0,0
-84,330,0,0,0,0,0,0,0,0,0,-1,1140,694,0,0
-77,330,0,0,0,0,0,0,0,0,0,-1,1147,694,0,0
-70,330,0,0,0,0,0,0,0,0,0,-1,1154,694,0,0
-63,330,0,0,0,0,0,0,0,0,0,-1,1161,694,0,0
-56,330,0,0,0,0,0,0,0,0,0,-1,1168,694,0,0
-49,330,0,0,0,0,0,0,0,0,0,-1,1175,694,0,0
-42,330,0,0,0,0,0,0,0,0,0,-1,1182,694,0,0
-35,330,0,0,0,0,0,0,0,0,0,-1,1189,694,0,0
-28,330,0,0,0,0,0,0,0,0,0,-1,1196,694,0,0
-21,330,0,0,0,0,0,0,0,0,0,-1,1203,694,0,0
-14,330,0,0,0,0,0,0,0,0,0,-1,1210,694,0,0
-7,330,0,0,0,0,0,0,0,0,0,-1,1217,694,0,0
0,330,0,0,0,0,0,0,0,0,0,-1,1224,694,0,0
7,330,0,0,0,0,0,0,0,0,0,-1,1231,694,0,0
14,330,0,0,0,0,0,0,0,0,0,-1,1238,694,0,0
21,330,0,0,0,0,0,0,0,0,0,-1,1245,694,0,0
28,330,0,0,0,0,0,0,0,0,0,-1,1252,694,0,0
35,330,0,0,0,0,0,0,0,0,0,-1,1259,694,0,0
42,330,0,0,0,0,0,0,0,0,0,-1,1266,694,0,0
49,330,0,0,0,0,0,0,0,0,0,-1,1273,694,0,0
56,330,0,0,0,0,0,0,0,0,0,-1,1280,694,0,0
63,330,0,0,0,0,0,0,0,0,0,-1,1287,694,0,0
70,330,0,0,0,0,0,0,0,0,0,-1,1294,694,0,0
77,330,0,0,0,0,0,0,0,0,0,-1,1301,694,0,0
84,330,0,0,0,0,0,0,0,0,0,-1,1308,694,0,0
91,330,0,0,0,0,0,0,0,0,0,-1,1315,694,0,0
98,330,0,0,0,0,0,0,0,0,0,-1,1322,694,0,0
105,330,0,0,0,0,0,0,0,0,0,-1,1329,694,0,0
112,330,0,0,0,0,0,0,0,0,0,-1,1336,694,0,0
119,330,0,0,0,0,0,0,0,0,0,-1,1343,694,0,0
126,330,0,0,0,0,0,0,0,0,0,-1,1350,694,0,0
133,330,0,0,0,0,0,0,0,0,0,-1,1357,694,0,0
140,330,0,0,0,0,0,0,0,0,0,-1,1364,694,0,0
147,330,0,0,0,0,0,0,0,0,0,-1,1371,694,0,0
154,330,0,0,0,0,0,0,0,0,0,-1,1378,694,0,0
161,330,0,0,0,0,0,0,0,0,0,-1,1385,694,0,0
168,330,0,0,0,0,0,0,0,0,0,-1,1392,694,0,0
175,330,0,0,0,0,0,0,0,0,0,-1,1399,694,0,0
182,330,0,0,0,0,0,0,0,0,0,-1,1406,694,0,0
189,330,0,0,0,0,0,0,0,0,0,-1,1413,694,0,0
196,330,0,0,0,0,0,0,0,0,0,-1,1420,694,0,0
203,330,0,0,0,0,0,0,0,0,0,-1,1427,694,0,0
210,330,0,0,0,0,0,0,0,0,0,-1,1434,694,0,0
217,330,0,0,0,0,0,0,0,0,0,-1,1441,694,0,0
224,330,0,0,0,0,0,0,0,0,0,-1,1448,694,0,0
231,330,0,0,0,0,0,0,0,0,0,-1,1455,694,0,0
238,330,0,0,0,0,0,0,0,0,0,-1,1462,694,0,0
245,330,0,0,0,0,0,0,0,0,0,-1,1469,694,0,0
252,330,0,0,0,0,0,0,0,0,0,-1,1476,694,0,0
259,330,0,0,0,0,0,0,0,0,0,-1,1483,694,0,0
266,330,0,0,0,0,0,0,0,0,0,-1,1490,694,0,0
273,330,0,0,0,0,0,0,0,0,0,-1,1497,694,0,0
280,330,0,0,0,0,0,0,0,0,0,-1,1504,694,0,0
287,330,0,0,0,0,0,0,0,0,0,-1,1511,694,0,0
294,330,0,0,0,0,0,0,0,0,0,-1,1518,694,0,0
301,330,0,0,0,0,0,0,0,0,0,-1,1525,694,0,0
308,330,0,0,0,0,0,0,0,0,0,-1,1532,694,0,0
315,330,0,0,0,0,0,0,0,0,0,-1,1539,694,0,0
322,330,0,0,0,0,0,0,0,0,0,-1,1546,694,0,0
329,330,0,0,0,0,0,0,0,0,0,-1,1553,694,0,0
336,330,0,0,0,0,0,0,0,0,0,-1,1560,694,0,0
343,330,0,0,0,0,0,0,0,0,0,-1,1567,694,0,0
350,330,0,0,0,0,0,0,0,0,0,-1,1574,694,0,0
357,330,0,0,0,0,0,0,0,0,0,-1,1581,694,0,0
364,330,0,0,0,0,0,0,0,0,0,-1,1588,694,0,0
371,330,0,0,0,0,0,0,0,0,0,-1,1595,694,0,0
378,330,0,0,0,0,0,0,0,0,0,-1,1602,694,0,0
385,330,0,0,0,0,0,0,0,0,0,-1,1609,694,0,0
392,330,0,0,0,0,0,0,0,0,0,-1,1616,694,0,0
399,330,0,0,0,0,0,0,0,0,0,-1,1623,694,0,0
406,330,0,0,0,0,0,0,0,0,0,-1,1630,694,0,0
413,330,0,0,0,0,0,0,0,0,0,-1,1637,694,0,0
420,330,0,0,0,0,0,0,0,0,0,-1,1644,694,0,0
427,330,0,0,0,0,0,0,0,0,0,-1,1651,694,0,0
434,330,0,0,0,0,0,0,0,0,0,-1,1658,694,0,0
441,330,0,0,0,0,0,0,0,0,0,-1,1665,694,0,0
448,330,0,0,0,0,0,0,0,0,0,-1,1672,694,0,0
455,330,0,0,0,0,0,0,0,0,0,-1,1679,694,0,0
462,330,0,0,0,0,0,0,0,0,0,-1,1686,694,0,0
469,330,0,0,0,0,0,0,0,0,0,-1,1693,694,0,0
476,330,0,0,0,0,0,0,0,0,0,-1,1700,694,0,0
483,330,0,0,0,0,0,0,0,0,0,-1,1707,694,0,0
490,330,0,0,0,0,0,0,0,0,0,-1,1714,694,0,0
497,330,0,0,0,0,0,0,0,0,0,-1,1721,694,0,0
504,330,0,0,0,0,0,0,0,0,0,-1,1728,694,0,0
511,330,0,0,0,0,0,0,0,0,0,-1,1735,694,0,0
518,330,0,0,0,0,0,0,0,0,0,-1,1742,694,0,0
525,330,30.6694,0.69519,0,0,0,0,0,0,0,-1,1749,694,30.6694,-0.695206
532,330,30.9469,1.32501,0,0,0,0,0,0,0,-1,1756,694,30.9469,-1.32501
539,330,31.5155,1.62506,0,0,0,0,0,0,0,-1,1763,694,31.5155,-1.62507
546,330,31.4187,1.85651,0,0,0,0,0,0,0,-1,1770,694,31.4187,-1.85651
553,330,31.8452,1.81476,0,0,0,0,0,0,0,-1,1777,694,31.8452,-1.81475
560,330,32.2401,2.43225,0,0,0,0,0,0,0,-1,1784,694,32.2401,-2.43227
567,330,18.0321,3.98578,0,0,0,0,0,0,0,-1,1791,694,18.0321,-3.98576
574,330,12.0454,2.1662,0,0,0,0,0,0,0,-1,1798,694,12.0455,-2.16618
581,330,11.4215,4.50836,0,0,0,0,0,0,0,-1,1805,694,11.4215,-4.50837
588,330,6.45667,-0.0630493,0,0,0,0,0,0,0,-1,1812,694,6.45661,0.0630695
595,330,8.23193,-0.258484,0,0,0,0,0,0,0,-1,1819,694,8.23188,0.258459
602,330,35.5784,-10.1605,0,0,0,0,0,0,0,-1,1826,694,35.5784,10.1605
609,330,35.6625,-9.26782,0.0030919,-0.000599585,0.000159954,0.00309882,-0.000606503,0.0432224,0.00229492,0.0290209,1833,694,35.6625,9.26782
616,330,35.6786,-8.46631,0.00268547,-0.000505796,0.000347361,0.00272284,-0.000543168,0.107175,0.00202077,0.0113179,1840,694,35.6786,8.46631
623,330,35.6281,-7.66803,0.00219138,-0.0002452,0.000391495,0.00225274,-0.000306558,0.155463,0.00161375,0.0134119,1847,694,35.628,7.668
630,330,35.609,-6.85376,0.00185315,8.44421e-05,0.000499846,0.00198463,-4.70423e-05,0.257223,0.00133905,0.0145145,1854,694,35.6089,6.85375
637,330,35.589,-6.05237,0.00160385,0.000480095,0.000616125,0.00187583,0.000208116,0.415708,0.00118727,0.0137895,1861,694,35.589,6.0524
644,330,35.5253,-5.24945,0.00144766,0.000954151,0.000762116,0.00200197,0.000399838,0.628837,0.00122335,0.00927815,1868,694,35.5253,5.24945
651,330,35.483,-4.43799,0.00140417,0.00151837,0.000940906,0.00240391,0.000518636,0.815703,0.00146075,0.012645,1875,694,35.4831,4.43797
658,330,35.4338,-3.63214,0.00150236,0.00218273,0.00116262,0.00305392,0.000631174,0.927727,0.00186157,0.0126861,1882,694,35.4338,3.63217
665,330,35.3755,-2.8172,0.00190379,0.00295209,0.00149479,0.00401196,0.000843922,0.954026,0.00244243,0.0118903,1889,694,35.3755,2.81718
672,330,35.442,-1.99634,0.00267917,0.00390319,0.00184561,0.00523562,0.00134674,0.945495,0.00313931,0.0341509,1896,694,35.442,1.99634
679,330,35.6201,-1.11761,0,0,0,0,0,0,0,-1,1903,694,35.6201,1.11762
686,330,30.6691,0.582825,0,0,0,0,0,0,0,-1,1910,694,30.6691,-0.582798
693,330,17.3999,2.5976,0,0,0,0,0,0,0,-1,1917,694,17.4,-2.59759
700,330,17.1072,4.13,0,0,0,0,0,0,0,-1,1924,694,17.1071,-4.13002
707,330,16.663,4.88672,0,0,0,0,0,0,0,-1,1931,694,16.6629,-4.88673
714,330,16.5454,5.80896,0,0,0,0,0,0,0,-1,1938,694,16.5454,-5.80899
721,330,0,0,0,0,0,0,0,0,0,-1,1945,694,0,0
728,330,0,0,0,0,0,0,0,0,0,-1,1952,694,0,0
735,330,0,0,0,0,0,0,0,0,0,-1,1959,694,0,0
742,330,0,0,0,0,0,0,0,0,0,-1,1966,694,0,0
749,330,0,0,0,0,0,0,0,0,0,-1,1973,694,0,0
756,330,0,0,0,0,0,0,0,0,0,-1,1980,694,0,0
763,330,0,0,0,0,0,0,0,0,0,-1,1987,694,0,0
770,330,0,0,0,0,0,0,0,0,0,-1,1994,694,0,0
777,330,0,0,0,0,0,0,0,0,0,-1,2001,694,0,0
784,330,0,0,0,0,0,0,0,0,0,-1,2008,694,0,0
791,330,0,0,0,0,0,0,0,0,0,-1,2015,694,0,0
798,330,0,0,0,0,0,0,0,0,0,-1,2022,694,0,0
805,330,0,0,0,0,0,0,0,0,0,-1,2029,694,0,0
812,330,0,0,0,0,0,0,0,0,0,-1,2036,694,0,0
-700,323,0,0,0,0,0,0,0,0,0,-1,524,701,0,0
-693,323,0,0,0,0,0,0,0,0,0,-1,531,701,0,0
-686,323,0,0,0,0,0,0,0,0,0,-1,538,701,0,0
-679,323,0,0,0,0,0,0,0,0,0,-1,545,701,0,0
-672,323,0,0,0,0,0,0,0,0,0,-1,552,701,0,0
-665,323,0,0,0,0,0,0,0,0,0,-1,559,701,0,0
-658,323,0,0,0,0,0,0,0,0,0,-1,566,701,0,0
-651,323,0,0,0,0,0,0,0,0,0,-1,573,701,0,0
-644,323,0,0,0,0,0,0,0,0,0,-1,580,701,0,0
-637,323,0,0,0,0,0,0,0,0,0,-1,587,701,0,0
-630,323,0,0,0,0,0,0,0,0,0,-1,594,701,0,0
-623,323,0,0,0,0,0,0,0,0,0,-1,601,701,0,0
-616,323,0,0,0,0,0,0,0,0,0,-1,608,701,0,0
-609,323,0,0,0,0,0,0,0,0,0,-1,615,701,0,0
-602,323,-4.15833,2.12256,0,0,0,0,0,0,0,-1,622,701,-4.1583,-2.12257
-595,323,-4.052,1.79156,0,0,0,0,0,0,0,-1,629,701,-4.05198,-1.79158
-588,323,-4.07019,1.94543,0,0,0,0,0,0,0,-1,636,701,-4.07019,-1.94542
-581,323,-6.63727,0.562805,0,0,0,0,0,0,0,-1,643,701,-6.63728,-0.56279
-574,323,-6.15887,0.426697,0,0,0,0,0,0,0,-1,650,701,-6.15887,-0.426727
-567,323,-10.0015,0.0371094,0,0,0,0,0,0,0,-1,657,701,-10.0015,-0.037126
-560,323,-16.3503,-1.16956,0,0,0,0,0,0,0,-1,664,701,-16.3503,1.16957
-553,323,-22.2691,-2.65546,0,0,0,0,0,0,0,-1,671,701,-22.2691,2.65544
-546,323,-22.2215,-3.29156,0.00491915,0.00433072,-0.00109835,0.00576201,0.00348786,-0.654536,0.00335121,0.0368337,678,701,-22.2215,3.29155
-539,323,-22.2051,-3.96783,0.00452175,0.00326583,-0.0011105,0.00516954,0.00261804,-0.528075,0.00298472,0.0271729,685,701,-22.2051,3.96785
-532,323,-22.2748,-4.84009,0.00391229,0.00223786,-0.000969207,0.00435581,0.00179434,-0.429169,0.0025278,0.013122,692,701,-22.2748,4.84008
-525,323,-22.3246,-5.68262,0.00321944,0.00131112,-0.00070261,0.00345022,0.00108034,-0.317358,0.00203784,0.00960084,699,701,-22.3246,5.68263
-518,323,-22.3416,-6.42749,0.00256477,0.00050042,-0.000379827,0.00263243,0.000432752,-0.176304,0.00162997,0.0108722,706,701,-22.3416,6.42749
-511,323,-22.3991,-7.2063,0.00190897,-0.000250196,-3.26945e-05,0.00190946,-0.00025069,-0.0151376,0.00136424,0.0140235,713,701,-22.3991,7.20632
-504,323,-22.4514,-7.97699,0.00123548,-0.000896484,0.000371262,0.00129828,-0.000959286,0.167571,0.0013083,0.0154001,720,701,-22.4514,7.97698
-497,323,-22.4686,-8.7511,0.000677387,-0.00140076,0.000739223,0.000913509,-0.00163688,0.309176,0.00149208,0.012859,727,701,-22.4686,8.75107
-490,323,-22.4979,-9.54755,0.00039941,-0.00180644,0.00109346,0.000849576,-0.0022566,0.390544,0.00185367,0.0147563,734,701,-22.4979,9.54757
-483,323,-22.5284,-10.353,0.000297486,-0.00191107,0.00131659,0.000911588,-0.00252517,0.436437,0.00205582,0.0318959,741,701,-22.5284,10.353
-476,323,-22.5582,-11.1664,0,0,0,0,0,0,0,-1,748,701,-22.5582,11.1664
-469,323,-8.33301,-3.64001,0,0,0,0,0,0,0,-1,755,701,-8.33298,3.64
-462,323,-5.29431,-1.45697,0,0,0,0,0,0,0,-1,762,701,-5.29431,1.45699
-455,323,-5.0658,-1.36639,0,0,0,0,0,0,0,-1,769,701,-5.06578,1.3664
-448,323,-4.91608,-1.59601,0,0,0,0,0,0,0,-1,776,701,-4.91606,1.59604
-441,323,-14.4006,0.535217,0,0,0,0,0,0,0,-1,783,701,-14.4006,-0.535203
-434,323,-15.3158,2.479,0,0,0,0,0,0,0,-1,790,701,-15.3158,-2.47898
-427,323,-28.3923,1.16797,0,0,0,0,0,0,0,-1,797,701,-28.3923,-1.16796
-420,323,-28.7292,1.09302,0,0,0,0,0,0,0,-1,804,701,-28.7292,-1.09304
-413,323,-28.7955,1.22418,0,0,0,0,0,0,0,-1,811,701,-28.7956,-1.22419
-406,323,0,0,0,0,0,0,0,0,0,-1,818,701,0,0
-399,323,0,0,0,0,0,0,0,0,0,-1,825,701,0,0
-392,323,0,0,0,0,0,0,0,0,0,-1,832,701,0,0
-385,323,0,0,0,0,0,0,0,0,0,-1,839,701,0,0
-378,323,0,0,0,0,0,0,0,0,0,-1,846,701,0,0
-371,323,0,0,0,0,0,0,0,0,0,-1,853,701,0,0
-364,323,0,0,0,0,0,0,0,0,0,-1,860,701,0,0
-357,323,0,0,0,0,0,0,0,0,0,-1,867,701,0,0
-350,323,0,0,0,0,0,0,0,0,0,-1,874,701,0,0
-343,323,0,0,0,0,0,0,0,0,0,-1,881,701,0,0
-336,323,0,0,0,0,0,0,0,0,0,-1,888,701,0,0
-329,323,0,0,0,0,0,0,0,0,0,-1,895,701,0,0
-322,323,0,0,0,0,0,0,0,0,0,-1,902,701,0,0
-315,323,0,0,0,0,0,0,0,0,0,-1,909,701,0,0
-308,323,0,0,0,0,0,0,0,0,0,-1,916,701,0,0
-301,323,0,0,0,0,0,0,0,0,0,-1,923,701,0,0
-294,323,0,0,0,0,0,0,0,0,0,-1,930,701,0,0
-287,323,0,0,0,0,0,0,0,0,0,-1,937,701,0,0
-280,323,0,0,0,0,0,0,0,0,0,-1,944,701,0,0
-273,323,0,0,0,0,0,0,0,0,0,-1,951,701,0,0
-266,323,0,0,0,0,0,0,0,0,0,-1,958,701,0,0
-259,323,0,0,0,0,0,0,0,0,0,-1,965,701,0,0
-252,323,0,0,0,0,0,0,0,0,0,-1,972,701,0,0
-245,323,0,0,0,0,0,0,0,0,0,-1,979,701,0,0
-238,323,0,0,0,0,0,0,0,0,0,-1,986,701,0,0
-231,323,0,0,0,0,0,0,0,0,0,-1,993,701,0,0
-224,323,0,0,0,0,0,0,0,0,0,-1,1000,701,0,0
-217,323,0,0,0,0,0,0,0,0,0,-1,1007,701,0,0
-210,323,0,0,0,0,0,0,0,0,0,-1,1014,701,0,0
-203,323,0,0,0,0,0,0,0,0,0,-1,1021,701,0,0
-196,323,0,0,0,0,0,0,0,0,0,-1,1028,701,0,0
-189,323,0,0,0,0,0,0,0,0,0,-1,1035,701,0,0
-182,323,0,0,0,0,0,0,0,0,0,-1,1042,701,0,0
-175,323,0,0,0,0,0,0,0,0,0,-1,1049,701,0,0
-168,323,0,0,0,0,0,0,0,0,0,-1,1056,701,0,0
-161,323,0,0,0,0,0,0,0,0,0,-1,1063,701,0,0
-154,323,0,0,0,0,0,0,0,0,0,-1,1070,701,0,0
-147,323,0,0,0,0,0,0,0,0,0,-1,1077,701,0,0
-140,323,0,0,0,0,0,0,0,0,0,-1,1084,701,0,0
-133,323,0,0,0,0,0,0,0,0,0,-1,1091,701,0,0
-126,323,0,0,0,0,0,0,0,0,0,-1,1098,701,0,0
-119,323,0,0,0,0,0,0,0,0,0,-1,1105,701,0,0
-112,323,0,0,0,0,0,0,0,0,0,-1,1112,701,0,0
-105,323,0,0,0,0,0,0,0,0,0,-1,1119,701,0,0
-98,323,0,0,0,0,0,0,0,0,0,-1,1126,701,0,0
-91,323,0,0,0,0,0,0,0,0,0,-1,1133,701,0,0
-84,323,0,0,0,0,0,0,0,0,0,-1,1140,701,0,0
-77,323,0,0,0,0,0,0,0,0,0,-1,1147,701,0,0
-70,323,0,0,0,0,0,0,0,0,0,-1,1154,701,0,0
-63,323,0,0,0,0,0,0,0,0,0,-1,1161,701,0,0
-56,323,0,0,0,0,0,0,0,0,0,-1,1168,701,0,0
-49,323,0,0,0,0,0,0,0,0,0,-1,1175,701,0,0
-42,323,0,0,0,0,0,0,0,0,0,-1,1182,701,0,0
-35,323,0,0,0,0,0,0,0,0,0,-1,1189,701,0,0
-28,323,0,0,0,0,0,0,0,0,0,-1,1196,701,0,0
-21,323,0,0,0,0,0,0,0,0,0,-1,1203,701,0,0
-14,323,0,0,0,0,0,0,0,0,0,-1,1210,701,0,0
-7,323,0,0,0,0,0,0,0,0,0,-1,1217,701,0,0
0,323,0,0,0,0,0,0,0,0,0,-1,1224,701,0,0
7,323,0,0,0,0,0,0,0,0,0,-1,1231,701,0,0
14,323,0,0,0,0,0,0,0,0,0,-1,1238,701,0,0
21,323,0,0,0,0,0,0,0,0,0,-1,1245,701,0,0
28,323,0,0,0,0,0,0,0,0,0,-1,1252,701,0,0
35,323,0,0,0,0,0,0,0,0,0,-1,1259,701,0,0
42,323,0,0,0,0,0,0,0,0,0,-1,1266,701,0,0
49,323,0,0,0,0,0,0,0,0,0,-1,1273,701,0,0
56,323,0,0,0,0,0,0,0,0,0,-1,1280,701,0,0
63,323,0,0,0,0,0,0,0,0,0,-1,1287,701,0,0
70,323,0,0,0,0,0,0,0,0,0,-1,1294,701,0,0
77,323,0,0,0,0,0,0,0,0,0,-1,1301,701,0,0
84,323,0,0,0,0,0,0,0,0,0,-1,1308,701,0,0
91,323,0,0,0,0,0,0,0,0,0,-1,1315,701,0,0
98,323,0,0,0,0,0,0,0,0,0,-1,1322,701,0,0
105,323,0,0,0,0,0,0,0,0,0,-1,1329,701,0,0
112,323,0,0,0,0,0,0,0,0,0,-1,1336,701,0,0
119,323,0,0,0,0,0,0,0,0,0,-1,1343,701,0,0
126,323,0,0,0,0,0,0,0,0,0,-1,1350,701,0,0
133,323,0,0,0,0,0,0,0,0,0,-1,1357,701,0,0
140,323,0,0,0,0,0,0,0,0,0,-1,1364,701,0,0
147,323,0,0,0,0,0,0,0,0,0,-1,1371,701,0,0
154,323,0,0,0,0,0,0,0,0,0,-1,1378,701,0,0
161,323,0,0,0,0,0,0,0,0,0,-1,1385,701,0,0
168,323,0,0,0,0,0,0,0,0,0,-1,1392,701,0,0
175,323,0,0,0,0,0,0,0,0,0,-1,1399,701,0,0
182,323,0,0,0,0,0,0,0,0,0,-1,1406,701,0,0
189,323,0,0,0,0,0,0,0,0,0,-1,1413,701,0,0
196,323,0,0,0,0,0,0,0,0,0,-1,1420,701,0,0
203,323,0,0,0,0,0,0,0,0,0,-1,1427,701,0,0
210,323,0,0,0,0,0,0,0,0,0,-1,1434,701,0,0
217,323,0,0,0,0,0,0,0,0,0,-1,1441,701,0,0
224,323,0,0,0,0,0,0,0,0,0,-1,1448,701,0,0
231,323,0,0,0,0,0,0,0,0,0,-1,1455,701,0,0
238,323,0,0,0,0,0,0,0,0,0,-1,1462,701,0,0
245,323,0,0,0,0,0,0,0,0,0,-1,1469,701,0,0
252,323,0,0,0,0,0,0,0,0,0,-1,1476,701,0,0
259,323,0,0,0,0,0,0,0,0,0,-1,1483,701,0,0
266,323,0,0,0,0,0,0,0,0,0,-1,1490,701,0,0
273,323,0,0,0,0,0,0,0,0,0,-1,1497,701,0,0
280,323,0,0,0,0,0,0,0,0,0,-1,1504,701,0,0
287,323,0,0,0,0,0,0,0,0,0,-1,1511,701,0,0
294,323,0,0,0,0,0,0,0,0,0,-1,1518,701,0,0
301,323,0,0,0,0,0,0,0,0,0,-1,1525,701,0,0
308,323,0,0,0,0,0,0,0,0,0,-1,1532,701,0,0
315,323,0,0,0,0,0,0,0,0,0,-1,1539,701,0,0
322,323,0,0,0,0,0,0,0,0,0,-1,1546,701,0,0
329,323,0,0,0,0,0,0,0,0,0,-1,1553,701,0,0
336,323,0,0,0,0,0,0,0,0,0,-1,1560,701,0,0
343,323,0,0,0,0,0,0,0,0,0,-1,1567,701,0,0
350,323,0,0,0,0,0,0,0,0,0,-1,1574,701,0,0
357,323,0,0,0,0,0,0,0,0,0,-1,1581,701,0,0
364,323,0,0,0,0,0,0,0,0,0,-1,1588,701,0,0
371,323,0,0,0,0,0,0,0,0,0,-1,1595,701,0,0
378,323,0,0,0,0,0,0,0,0,0,-1,1602,701,0,0
385,323,0,0,0,0,0,0,0,0,0,-1,1609,701,0,0
392,323,0,0,0,0,0,0,0,0,0,-1,1616,701,0,0
399,323,0,0,0,0,0,0,0,0,0,-1,1623,701,0,0
406,323,0,0,0,0,0,0,0,0,0,-1,1630,701,0,0
413,323,0,0,0,0,0,0,0,0,0,-1,1637,701,0,0
420,323,0,0,0,0,0,0,0,0,0,-1,1644,701,0,0
427,323,0,0,0,0,0,0,0,0,0,-1,1651,701,0,0
434,323,0,0,0,0,0,0,0,0,0,-1,1658,701,0,0
441,323,0,0,0,0,0,0,0,0,0,-1,1665,701,0,0
448,323,0,0,0,0,0,0,0,0,0,-1,1672,701,0,0
455,323,0,0,0,0,0,0,0,0,0,-1,1679,701,0,0
462,323,0,0,0,0,0,0,0,0,0,-1,1686,701,0,0
469,323,0,0,0,0,0,0,0,0,0,-1,1693,701,0,0
476,323,0,0,0,0,0,0,0,0,0,-1,1700,701,0,0
483,323,0,0,0,0,0,0,0,0,0,-1,1707,701,0,0
490,323,0,0,0,0,0,0,0,0,0,-1,1714,701,0,0
497,323,0,0,0,0,0,0,0,0,0,-1,1721,701,0,0
504,323,0,0,0,0,0,0,0,0,0,-1,1728,701,0,0
511,323,0,0,0,0,0,0,0,0,0,-1,1735,701,0,0
518,323,0,0,0,0,0,0,0,0,0,-1,1742,701,0,0
525,323,0,0,0,0,0,0,0,0,0,-1,1749,701,0,0
532,323,33.6193,1.69446,0,0,0,0,0,0,0,-1,1756,701,33.6193,-1.69444
539,323,32.2698,2.44037,0,0,0,0,0,0,0,-1,1763,701,32.2697,-2.44036
546,323,31.1644,3.9444,0,0,0,0,0,0,0,-1,1770,701,31.1644,-3.94438
553,323,30.2488,5.8775,0,0,0,0,0,0,0,-1,1777,701,30.2487,-5.87752
560,323,40.6711,1.25153,0,0,0,0,0,0,0,-1,1784,701,40.6711,-1.25154
567,323,42.1637,2.01208,0,0,0,0,0,0,0,-1,1791,701,42.1637,-2.01207
574,323,12.514,5.89685,0,0,0,0,0,0,0,-1,1798,701,12.5141,-5.89683
581,323,11.821,5.3476,0,0,0,0,0,0,0,-1,1805,701,11.821,-5.34762
588,323,11.7933,7.00818,0,0,0,0,0,0,0,-1,1812,701,11.7933,-7.00819
595,323,6.67847,0.06604,0,0,0,0,0,0,0,-1,1819,701,6.67841,-0.0660418
602,323,36.1091,-10.0714,0,0,0,0,0,0,0,-1,1826,701,36.1091,10.0714
609,323,36.3644,-9.20557,0.00384593,-0.000487023,0.000459441,0.00389411,-0.000535204,0.104486,0.00279163,0.0417694,1833,701,36.3644,9.20554
616,323,36.4728,-8.38922,0.00322593,-0.000522195,0.00057606,0.00331247,-0.000608733,0.149109,0.0024367,0.0126251,1840,701,36.4727,8.38925
623,323,36.4288,-7.59827,0.00253663,-0.000326522,0.000519041,0.00262782,-0.000417711,0.173913,0.00190643,0.0128738,1847,701,36.4289,7.59824
630,323,36.3931,-6.79065,0.00209417,-7.94865e-05,0.000549368,0.00222513,-0.000210443,0.23401,0.00155831,0.0146223,1854,701,36.393,6.79066
637,323,36.3927,-5.99615,0.00177618,0.000255475,0.000613315,0.00199271,3.89499e-05,0.339381,0.00131568,0.0122888,1861,701,36.3927,5.99615
644,323,36.334,-5.2132,0.00158086,0.000677917,0.000724147,0.00198274,0.000276033,0.506656,0.0012401,0.00931685,1868,701,36.3339,5.2132
651,323,36.3115,-4.39081,0.001508,0.00118814,0.000875653,0.00223821,0.000457934,0.695075,0.00136534,0.0124724,1875,701,36.3116,4.39079
658,323,36.2162,-3.55951,0.00156757,0.00180679,0.00107538,0.00276919,0.000605167,0.840784,0.00168111,0.0188326,1882,701,36.2162,3.55954
665,323,36.1396,-2.75818,0.00186481,0.00252838,0.00137426,0.00361034,0.000782847,0.903844,0.00219303,0.0153441,1889,701,36.1397,2.75816
672,323,36.1757,-1.91309,0.00244303,0.00341361,0.00172247,0.00471785,0.00113879,0.922709,0.00284271,0.0199239,1896,701,36.1756,1.9131
679,323,36.2515,-0.980042,0,0,0,0,0,0,0,-1,1903,701,36.2514,0.980027
686,323,30.4916,0.378235,0,0,0,0,0,0,0,-1,1910,701,30.4916,-0.37825
693,323,23.8806,1.08844,0,0,0,0,0,0,0,-1,1917,701,23.8806,-1.08845
700,323,10.7705,0.828613,0,0,0,0,0,0,0,-1,1924,701,10.7705,-0.828591
707,323,16.9005,4.79193,0,0,0,0,0,0,0,-1,1931,701,16.9005,-4.7919
714,323,16.2346,6.25958,0,0,0,0,0,0,0,-1,1938,701,16.2346,-6.25956
721,323,0,0,0,0,0,0,0,0,0,-1,1945,701,0,0
728,323,0,0,0,0,0,0,0,0,0,-1,1952,701,0,0
735,323,0,0,0,0,0,0,0,0,0,-1,1959,701,0,0
742,323,0,0,0,0,0,0,0,0,0,-1,1966,701,0,0
749,323,0,0,0,0,0,0,0,0,0,-1,1973,701,0,0
756,323,0,0,0,0,0,0,0,0,0,-1,1980,701,0,0
763,323,0,0,0,0,0,0,0,0,0,-1,1987,701,0,0
770,323,0,0,0,0,0,0,0,0,0,-1,1994,701,0,0
777,323,0,0,0,0,0,0,0,0,0,-1,2001,701,0,0
784,323,0,0,0,0,0,0,0,0,0,-1,2008,701,0,0
791,323,0,0,0,0,0,0,0,0,0,-1,2015,701,0,0
798,323,0,0,0,0,0,0,0,0,0,-1,2022,701,0,0
805,323,0,0,0,0,0,0,0,0,0,-1,2029,701,0,0
812,323,0,0,0,0,0,0,0,0,0,-1,2036,701,0,0
-700,316,0,0,0,0,0,0,0,0,0,-1,524,708,0,0
-693,316,0,0,0,0,0,0,0,0,0,-1,531,708,0,0
-686,316,0,0,0,0,0,0,0,0,0,-1,538,708,0,0
-679,316,0,0,0,0,0,0,0,0,0,-1,545,708,0,0
-672,316,0,0,0,0,0,0,0,0,0,-1,552,708,0,0
-665,316,0,0,0,0,0,0,0,0,0,-1,559,708,0,0
-658,316,0,0,0,0,0,0,0,0,0,-1,566,708,0,0
-651,316,0,0,0,0,0,0,0,0,0,-1,573,708,0,0
-644,316,0,0,0,0,0,0,0,0,0,-1,580,708,0,0
-637,316,0,0,0,0,0,0,0,0,0,-1,587,708,0,0
-630,316,0,0,0,0,0,0,0,0,0,-1,594,708,0,0
-623,316,0,0,0,0,0,0,0,0,0,-1,601,708,0,0
-616,316,0,0,0,0,0,0,0,0,0,-1,608,708,0,0
-609,316,0,0,0,0,0,0,0,0,0,-1,615,708,0,0
-602,316,-0.451782,-0.0494995,0,0,0,0,0,0,0,-1,622,708,-0.451768,0.0495022
-595,316,-3.3761,2.17188,0,0,0,0,0,0,0,-1,629,708,-3.37609,-2.17189
-588,316,-5.00177,2.60675,0,0,0,0,0,0,0,-1,636,708,-5.00175,-2.60676
-581,316,-3.94653,0.393433,0,0,0,0,0,0,0,-1,643,708,-3.94655,-0.39342
-574,316,-9.67395,1.06067,0,0,0,0,0,0,0,-1,650,708,-9.67396,-1.06065
-567,316,-10.1962,0.448425,0,0,0,0,0,0,0,-1,657,708,-10.1962,-0.448411
-560,316,-18.9941,-1.75067,0,0,0,0,0,0,0,-1,664,708,-18.9941,1.75068
-553,316,-23.1961,-2.44897,0,0,0,0,0,0,0,-1,671,708,-23.1961,2.44899
-546,316,-23.1143,-3.18341,0.00356502,0.00415418,-0.00104159,0.00494205,0.00277716,-0.923209,0.00286058,0.0430706,678,708,-23.1142,3.18339
-539,316,-22.9957,-4.02448,0.0034577,0.00302499,-0.00097377,0.00423886,0.00224383,-0.676082,0.00244871,0.0141812,685,708,-22.9957,4.02448
-532,316,-23.0392,-4.80347,0.00306864,0.00194399,-0.000772602,0.00346189,0.00155074,-0.470817,0.00200233,0.0118168,692,708,-23.0392,4.80346
-525,316,-23.0677,-5.57532,0.00251112,0.000894742,-0.000451769,0.00262882,0.000777045,-0.25486,0.00155945,0.011005,699,708,-23.0677,5.57532
-518,316,-23.1041,-6.3739,0.00192462,-2.78698e-05,-7.27563e-05,0.00192733,-3.05772e-05,-0.0371945,0.0012952,0.0104206,706,708,-23.1041,6.37389
-511,316,-23.1587,-7.1701,0.00124739,-0.000944997,0.000359027,0.00130469,-0.00100229,0.158255,0.00133575,0.010908,713,708,-23.1587,7.17012
-504,316,-23.217,-7.9397,0.000492948,-0.00179564,0.00087195,0.0007873,-0.00208999,0.325568,0.00171702,0.0141201,720,708,-23.217,7.93972
-497,316,-23.2433,-8.69623,-0.00016909,-0.00252172,0.00135647,0.000450068,-0.00314088,0.428203,0.00225894,0.0130607,727,708,-23.2434,8.69625
-490,316,-23.2957,-9.47992,-0.00047819,-0.00321663,0.00189334,0.000489146,-0.00418397,0.472342,0.00296584,0.0187366,734,708,-23.2957,9.47994
-483,316,-23.3002,-10.2871,0,0,0,0,0,0,0,-1,741,708,-23.3002,10.2871
-476,316,-8.90894,-3.31207,0,0,0,0,0,0,0,-1,748,708,-8.90896,3.31206
-469,316,-6.24194,-1.42725,0,0,0,0,0,0,0,-1,755,708,-6.24192,1.42725
-462,316,-5.74237,-1.40039,0,0,0,0,0,0,0,-1,762,708,-5.74238,1.40039
-455,316,-5.44745,-1.21899,0,0,0,0,0,0,0,-1,769,708,-5.44746,1.21898
-448,316,-14.8945,0.655396,0,0,0,0,0,0,0,-1,776,708,-14.8946,-0.655396
-441,316,-14.9626,0.576111,0,0,0,0,0,0,0,-1,783,708,-14.9626,-0.576115
-434,316,-27.7723,1.15576,0,0,0,0,0,0,0,-1,790,708,-27.7723,-1.15579
-427,316,-28.0504,1.31427,0,0,0,0,0,0,0,-1,797,708,-28.0504,-1.31427
-420,316,-28.198,1.62891,0,0,0,0,0,0,0,-1,804,708,-28.198,-1.62889
-413,316,0,0,0,0,0,0,0,0,0,-1,811,708,0,0
-406,316,0,0,0,0,0,0,0,0,0,-1,818,708,0,0
-399,316,0,0,0,0,0,0,0,0,0,-1,825,708,0,0
-392,316,0,0,0,0,0,0,0,0,0,-1,832,708,0,0
-385,316,0,0,0,0,0,0,0,0,0,-1,839,708,0,0
-378,316,0,0,0,0,0,0,0,0,0,-1,846,708,0,0
-371,316,0,0,0,0,0,0,0,0,0,-1,853,708,0,0
-364,316,0,0,0,0,0,0,0,0,0,-1,860,708,0,0
-357,316,0,0,0,0,0,0,0,0,0,-1,867,708,0,0
-350,316,0,0,0,0,0,0,0,0,0,-1,874,708,0,0
-343,316,0,0,0,0,0,0,0,0,0,-1,881,708,0,0
-336,316,0,0,0,0,0,0,0,0,0,-1,888,708,0,0
-329,316,0,0,0,0,0,0,0,0,0,-1,895,708,0,0
-322,316,0,0,0,0,0,0,0,0,0,-1,902,708,0,0
-315,316,0,0,0,0,0,0,0,0,0,-1,909,708,0,0
-308,316,0,0,0,0,0,0,0,0,0,-1,916,708,0,0
-301,316,0,0,0,0,0,0,0,0,0,-1,923,708,0,0
-294,316,0,0,0,0,0,0,0,0,0,-1,930,708,0,0
-287,316,0,0,0,0,0,0,0,0,0,-1,937,708,0,0
-280,316,0,0,0,0,0,0,0,0,0,-1,944,708,0,0
-273,316,0,0,0,0,0,0,0,0,0,-1,951,708,0,0
-266,316,0,0,0,0,0,0,0,0,0,-1,958,708,0,0
-259,316,0,0,0,0,0,0,0,0,0,-1,965,708,0,0
-252,316,0,0,0,0,0,0,0,0,0,-1,972,708,0,0
-245,316,0,0,0,0,0,0,0,0,0,-1,979,708,0,0
-238,316,0,0,0,0,0,0,0,0,0,-1,986,708,0,0
-231,316,0,0,0,0,0,0,0,0,0,-1,993,708,0,0
-224,316,0,0,0,0,0,0,0,0,0,-1,1000,708,0,0
-217,316,0,0,0,0,0,0,0,0,0,-1,1007,708,0,0
-210,316,0,0,0,0,0,0,0,0,0,-1,1014,708,0,0
-203,316,0,0,0,0,0,0,0,0,0,-1,1021,708,0,0
-196,316,0,0,0,0,0,0,0,0,0,-1,1028,708,0,0
-189,316,0,0,0,0,0,0,0,0,0,-1,1035,708,0,0
-182,316,0,0,0,0,0,0,0,0,0,-1,1042,708,0,0
-175,316,0,0,0,0,0,0,0,0,0,-1,1049,708,0,0
-168,316,0,0,0,0,0,0,0,0,0,-1,1056,708,0,0
-161,316,0,0,0,0,0,0,0,0,0,-1,1063,708,0,0
-154,316,0,0,0,0,0,0,0,0,0,-1,1070,708,0,0
-147,316,0,0,0,0,0,0,0,0,0,-1,1077,708,0,0
-140,316,0,0,0,0,0,0,0,0,0,-1,1084,708,0,0
-133,316,0,0,0,0,0,0,0,0,0,-1,1091,708,0,0
-126,316,0,0,0,0,0,0,0,0,0,-1,1098,708,0,0
-119,316,0,0,0,0,0,0,0,0,0,-1,1105,708,0,0
-112,316,0,0,0,0,0,0,0,0,0,-1,1112,708,0,0
-105,316,0,0,0,0,0,0,0,0,0,-1,1119,708,0,0
-98,316,0,0,0,0,0,0,0,0,0,-1,1126,708,0,0
-91,316,0,0,0,0,0,0,0,0,0,-1,1133,708,0,0
-84,316,0,0,0,0,0,0,0,0,0,-1,1140,708,0,0
-77,316,0,0,0,0,0,0,0,0,0,-1,1147,708,0,0
-70,316,0,0,0,0,0,0,0,0,0,-1,1154,708,0,0
-63,316,0,0,0,0,0,0,0,0,0,-1,1161,708,0,0
-56,316,0,0,0,0,0,0,0,0,0,-1,1168,708,0,0
-49,316,0,0,0,0,0,0,0,0,0,-1,1175,708,0,0
-42,316,0,0,0,0,0,0,0,0,0,-1,1182,708,0,0
-35,316,0,0,0,0,0,0,0,0,0,-1,1189,708,0,0
-28,316,0,0,0,0,0,0,0,0,0,-1,1196,708,0,0
-21,316,0,0,0,0,0,0,0,0,0,-1,1203,708,0,0
-14,316,0,0,0,0,0,0,0,0,0,-1,1210,708,0,0
-7,316,0,0,0,0,0,0,0,0,0,-1,1217,708,0,0
0,316,0,0,0,0,0,0,0,0,0,-1,1224,708,0,0
7,316,0,0,0,0,0,0,0,0,0,-1,1231,708,0,0
14,316,0,0,0,0,0,0,0,0,0,-1,1238,708,0,0
21,316,0,0,0,0,0,0,0,0,0,-1,1245,708,0,0
28,316,0,0,0,0,0,0,0,0,0,-1,1252,708,0,0
35,316,0,0,0,0,0,0,0,0,0,-1,1259,708,0,0
42,316,0,0,0,0,0,0,0,0,0,-1,1266,708,0,0
49,316,0,0,0,0,0,0,0,0,0,-1,1273,708,0,0
56,316,0,0,0,0,0,0,0,0,0,-1,1280,708,0,0
63,316,0,0,0,0,0,0,0,0,0,-1,1287,708,0,0
70,316,0,0,0,0,0,0,0,0,0,-1,1294,708,0,0
77,316,0,0,0,0,0,0,0,0,0,-1,1301,708,0,0
84,316,0,0,0,0,0,0,0,0,0,-1,1308,708,0,0
91,316,0,0,0,0,0,0,0,0,0,-1,1315,708,0,0
98,316,0,0,0,0,0,0,0,0,0,-1,1322,708,0,0
105,316,0,0,0,0,0,0,0,0,0,-1,1329,708,0,0
112,316,0,0,0,0,0,0,0,0,0,-1,1336,708,0,0
119,316,0,0,0,0,0,0,0,0,0,-1,1343,708,0,0
126,316,0,0,0,0,0,0,0,0,0,-1,1350,708,0,0
133,316,0,0,0,0,0,0,0,0,0,-1,1357,708,0,0
140,316,0,0,0,0,0,0,0,0,0,-1,1364,708,0,0
147,316,0,0,0,0,0,0,0,0,0,-1,1371,708,0,0
154,316,0,0,0,0,0,0,0,0,0,-1,1378,708,0,0
161,316,0,0,0,0,0,0,0,0,0,-1,1385,708,0,0
168,316,0,0,0,0,0,0,0,0,0,-1,1392,708,0,0
175,316,0,0,0,0,0,0,0,0,0,-1,1399,708,0,0
182,316,0,0,0,0,0,0,0,0,0,-1,1406,708,0,0
189,316,0,0,0,0,0,0,0,0,0,-1,1413,708,0,0
196,316,0,0,0,0,0,0,0,0,0,-1,1420,708,0,0
203,316,0,0,0,0,0,0,0,0,0,-1,1427,708,0,0
210,316,0,0,0,0,0,0,0,0,0,-1,1434,708,0,0
217,316,0,0,0,0,0,0,0,0,0,-1,1441,708,0,0
224,316,0,0,0,0,0,0,0,0,0,-1,1448,708,0,0
231,316,0,0,0,0,0,0,0,0,0,-1,1455,708,0,0
238,316,0,0,0,0,0,0,0,0,0,-1,1462,708,0,0
245,316,0,0,0,0,0,0,0,0,0,-1,1469,708,0,0
252,316,0,0,0,0,0,0,0,0,0,-1,1476,708,0,0
259,316,0,0,0,0,0,0,0,0,0,-1,1483,708,0,0
266,316,0,0,0,0,0,0,0,0,0,-1,1490,708,0,0
273,316,0,0,0,0,0,0,0,0,0,-1,1497,708,0,0
280,316,0,0,0,0,0,0,0,0,0,-1,1504,708,0,0
287,316,0,0,0,0,0,0,0,0,0,-1,1511,708,0,0
294,316,0,0,0,0,0,0,0,0,0,-1,1518,708,0,0
301,316,0,0,0,0,0,0,0,0,0,-1,1525,708,0,0
308,316,0,0,0,0,0,0,0,0,0,-1,1532,708,0,0
315,316,0,0,0,0,0,0,0,0,0,-1,1539,708,0,0
322,316,0,0,0,0,0,0,0,0,0,-1,1546,708,0,0
329,316,0,0,0,0,0,0,0,0,0,-1,1553,708,0,0
336,316,0,0,0,0,0,0,0,0,0,-1,1560,708,0,0
343,316,0,0,0,0,0,0,0,0,0,-1,1567,708,0,0
350,316,0,0,0,0,0,0,0,0,0,-1,1574,708,0,0
357,316,0,0,0,0,0,0,0,0,0,-1,1581,708,0,0
364,316,0,0,0,0,0,0,0,0,0,-1,1588,708,0,0
371,316,0,0,0,0,0,0,0,0,0,-1,1595,708,0,0
378,316,0,0,0,0,0,0,0,0,0,-1,1602,708,0,0
385,316,0,0,0,0,0,0,0,0,0,-1,1609,708,0,0
392,316,0,0,0,0,0,0,0,0,0,-1,1616,708,0,0
399,316,0,0,0,0,0,0,0,0,0,-1,1623,708,0,0
406,316,0,0,0,0,0,0,0,0,0,-1,1630,708,0,0
413,316,0,0,0,0,0,0,0,0,0,-1,1637,708,0,0
420,316,0,0,0,0,0,0,0,0,0,-1,1644,708,0,0
427,316,0,0,0,0,0,0,0,0,0,-1,1651,708,0,0
434,316,0,0,0,0,0,0,0,0,0,-1,1658,708,0,0
441,316,0,0,0,0,0,0,0,0,0,-1,1665,708,0,0
448,316,0,0,0,0,0,0,0,0,0,-1,1672,708,0,0
455,316,0,0,0,0,0,0,0,0,0,-1,1679,708,0,0
462,316,0,0,0,0,0,0,0,0,0,-1,1686,708,0,0
469,316,0,0,0,0,0,0,0,0,0,-1,1693,708,0,0
476,316,0,0,0,0,0,0,0,0,0,-1,1700,708,0,0
483,316,0,0,0,0,0,0,0,0,0,-1,1707,708,0,0
490,316,0,0,0,0,0,0,0,0,0,-1,1714,708,0,0
497,316,0,0,0,0,0,0,0,0,0,-1,1721,708,0,0
504,316,0,0,0,0,0,0,0,0,0,-1,1728,708,0,0
511,316,0,0,0,0,0,0,0,0,0,-1,1735,708,0,0
518,316,0,0,0,0,0,0,0,0,0,-1,1742,708,0,0
525,316,0,0,0,0,0,0,0,0,0,-1,1749,708,0,0
532,316,33.8604,0.531128,0,0,0,0,0,0,0,-1,1756,708,33.8604,-0.531151
539,316,44.4543,2.73468,0,0,0,0,0,0,0,-1,1763,708,44.4543,-2.7347
546,316,44.713,3.35498,0,0,0,0,0,0,0,-1,1770,708,44.7131,-3.35501
553,316,39.9031,6.57275,0,0,0,0,0,0,0,-1,1777,708,39.9031,-6.57274
560,316,39.1196,1.10046,0,0,0,0,0,0,0,-1,1784,708,39.1197,-1.10048
567,316,47.3683,6.04919,0,0,0,0,0,0,0,-1,1791,708,47.3683,-6.04918
574,316,45.9872,6.7655,0,0,0,0,0,0,0,-1,1798,708,45.9871,-6.76552
581,316,24.6815,7.77496,0,0,0,0,0,0,0,-1,1805,708,24.6815,-7.77499
588,316,19.7659,2.90198,0,0,0,0,0,0,0,-1,1812,708,19.7659,-2.902
595,316,12.5363,1.50702,0,0,0,0,0,0,0,-1,1819,708,12.5363,-1.50701
602,316,7.79919,0.0422363,0,0,0,0,0,0,0,-1,1826,708,7.79923,-0.0422066
609,316,37.2355,-9.11292,0,0,0,0,0,0,0,-1,1833,708,37.2355,9.11289
616,316,37.2584,-8.3277,0.00375587,-0.000520051,0.000794948,0.00389888,-0.000663059,0.177992,0.00284613,0.0141463,1840,708,37.2584,8.32767
623,316,37.246,-7.54901,0.00285741,-0.000346731,0.00065226,0.0029851,-0.000474422,0.193322,0.0021656,0.0105024,1847,708,37.246,7.54899
630,316,37.1952,-6.77545,0.00231797,-0.000155835,0.000617505,0.00246355,-0.000301409,0.231518,0.0017515,0.0127794,1854,708,37.1951,6.77543
637,316,37.1742,-5.94458,0.00194464,0.000143614,0.000651895,0.00215583,-6.75798e-05,0.313298,0.00146027,0.012833,1861,708,37.1742,5.9446
644,316,37.1367,-5.146,0.00172377,0.000540134,0.000746807,0.00208482,0.000179078,0.450334,0.0013342,0.0128144,1868,708,37.1368,5.14602
651,316,37.0833,-4.34277,0.00163419,0.00101787,0.000885654,0.00226376,0.000388297,0.617978,0.00139784,0.017259,1875,708,37.0832,4.3428
658,316,37.0027,-3.50385,0.00168028,0.0016074,0.00107216,0.00271661,0.000571065,0.768412,0.00165392,0.032524,1882,708,37.0027,3.50382
665,316,36.9297,-2.70105,0.00193627,0.00231564,0.00135498,0.00349415,0.000757762,0.854942,0.00212242,0.0223306,1889,708,36.9296,2.70107
672,316,36.9443,-1.90698,0.00241772,0.00317482,0.0017044,0.0045422,0.00105034,0.894675,0.00274582,0.0139135,1896,708,36.9443,1.907
679,316,36.9663,-1.10193,0,0,0,0,0,0,0,-1,1903,708,36.9663,1.10193
686,316,34.0828,0.223206,0,0,0,0,0,0,0,-1,1910,708,34.0828,-0.223183
693,316,26.4315,1.80652,0,0,0,0,0,0,0,-1,1917,708,26.4315,-1.80651
700,316,12.8749,2.89136,0,0,0,0,0,0,0,-1,1924,708,12.8748,-2.89137
707,316,15.7089,5.41486,0,0,0,0,0,0,0,-1,1931,708,15.7088,-5.41487
714,316,16.1727,5.52045,0,0,0,0,0,0,0,-1,1938,708,16.1728,-5.52042
721,316,16.7094,6.53351,0,0,0,0,0,0,0,-1,1945,708,16.7094,-6.5335
728,316,0,0,0,0,0,0,0,0,0,-1,1952,708,0,0
735,316,0,0,0,0,0,0,0,0,0,-1,1959,708,0,0
742,316,0,0,0,0,0,0,0,0,0,-1,1966,708,0,0
749,316,0,0,0,0,0,0,0,0,0,-1,1973,708,0,0
756,316,0,0,0,0,0,0,0,0,0,-1,1980,708,0,0
763,316,0,0,0,0,0,0,0,0,0,-1,1987,708,0,0
770,316,0,0,0,0,0,0,0,0,0,-1,1994,708,0,0
777,316,0,0,0,0,0,0,0,0,0,-1,2001,708,0,0
784,316,0,0,0,0,0,0,0,0,0,-1,2008,708,0,0
791,316,0,0,0,0,0,0,0,0,0,-1,2015,708,0,0
798,316,0,0,0,0,0,0,0,0,0,-1,2022,708,0,0
805,316,0,0,0,0,0,0,0,0,0,-1,2029,708,0,0
812,316,0,0,0,0,0,0,0,0,0,-1,2036,708,0,0
-700,309,0,0,0,0,0,0,0,0,0,-1,524,715,0,0
-693,309,0,0,0,0,0,0,0,0,0,-1,531,715,0,0
-686,309,0,0,0,0,0,0,0,0,0,-1,538,715,0,0
-679,309,0,0,0,0,0,0,0,0,0,-1,545,715,0,0
-672,309,0,0,0,0,0,0,0,0,0,-1,552,715,0,0
-665,309,0,0,0,0,0,0,0,0,0,-1,559,715,0,0
-658,309,0,0,0,0,0,0,0,0,0,-1,566,715,0,0
-651,309,0,0,0,0,0,0,0,0,0,-1,573,715,0,0
-644,309,0,0,0,0,0,0,0,0,0,-1,580,715,0,0
-637,309,0,0,0,0,0,0,0,0,0,-1,587,715,0,0
-630,309,0,0,0,0,0,0,0,0,0,-1,594,715,0,0
-623,309,0,0,0,0,0,0,0,0,0,-1,601,715,0,0
-616,309,0,0,0,0,0,0,0,0,0,-1,608,715,0,0
-609,309,-5.95392,-3.93689,0,0,0,0,0,0,0,-1,615,715,-5.95392,3.93686
-602,309,-4.99786,-3.31287,0,0,0,0,0,0,0,-1,622,715,-4.99786,3.31284
-595,309,-6.80847,2.4046,0,0,0,0,0,0,0,-1,629,715,-6.80845,-2.40458
-588,309,-6.08795,2.19324,0,0,0,0,0,0,0,-1,636,715,-6.08793,-2.19325
-581,309,-5.97552,1.3277,0,0,0,0,0,0,0,-1,643,715,-5.97552,-1.32769
-574,309,-8.73602,0.208435,0,0,0,0,0,0,0,-1,650,715,-8.73604,-0.208437
-567,309,-10.3909,0.85968,0,0,0,0,0,0,0,-1,657,715,-10.3909,-0.859696
-560,309,-18.6088,-1.73389,0,0,0,0,0,0,0,-1,664,715,-18.6088,1.73389
-553,309,-23.9924,-2.34326,0,0,0,0,0,0,0,-1,671,715,-23.9924,2.34327
-546,309,-23.8769,-3.15472,0.00228072,0.00367445,-0.000908785,0.0041228,0.00183237,-1.11248,0.00238519,0.0327826,678,715,-23.8769,3.15472
-539,309,-23.7783,-3.99194,0.00236775,0.00250201,-0.000728567,0.00316653,0.00170323,-0.831338,0.00182995,0.0155585,685,715,-23.7782,3.99194
-532,309,-23.8073,-4.76038,0.00214069,0.00136962,-0.00041831,0.00232403,0.00118628,-0.413074,0.00134188,0.0127005,692,715,-23.8073,4.7604
-525,309,-23.8311,-5.54742,0.00169629,0.000276623,-6.80585e-05,0.00169955,0.000273368,-0.0477936,0.00105379,0.0159137,699,715,-23.8311,5.54744
-518,309,-23.8851,-6.34277,0.00117594,-0.000694655,0.000334412,0.00123392,-0.000752641,0.171691,0.00115811,0.0159557,706,715,-23.8851,6.34274
-511,309,-23.9529,-7.12262,0.000491359,-0.00170358,0.000821546,0.000764793,-0.00197701,0.321297,0.00163374,0.0124376,713,715,-23.9529,7.12265
-504,309,-24.004,-7.88348,-0.000308491,-0.00267773,0.00140979,0.000348309,-0.00333453,0.435986,0.00234775,0.00983459,720,715,-24.004,7.88346
-497,309,-24.0295,-8.64624,-0.00102278,-0.00356117,0.00197498,5.56649e-05,-0.00463961,0.499808,0.0031118,0.0143824,727,715,-24.0295,8.64623
-490,309,-24.0729,-9.42542,0,0,0,0,0,0,0,-1,734,715,-24.0729,9.42544
-483,309,-17.7261,-7.75836,0,0,0,0,0,0,0,-1,741,715,-17.7261,7.75839
-476,309,-5.29486,-1.2262,0,0,0,0,0,0,0,-1,748,715,-5.29484,1.22622
-469,309,-4.22717,-0.592896,0,0,0,0,0,0,0,-1,755,715,-4.2272,0.592905
-462,309,-10.428,2.46948,0,0,0,0,0,0,0,-1,762,715,-10.428,-2.46947
-455,309,-15.8216,0.00915527,0,0,0,0,0,0,0,-1,769,715,-15.8216,-0.00913359
-448,309,-37.3543,-1.02441,0,0,0,0,0,0,0,-1,776,715,-37.3543,1.02444
-441,309,-19.8181,1.4425,0,0,0,0,0,0,0,-1,783,715,-19.8181,-1.44249
-434,309,-46.7953,1.72064,0,0,0,0,0,0,0,-1,790,715,-46.7953,-1.72067
-427,309,-27.8553,1.40332,0,0,0,0,0,0,0,-1,797,715,-27.8553,-1.40334
-420,309,-27.3148,1.90747,0,0,0,0,0,0,0,-1,804,715,-27.3148,-1.90745
-413,309,0,0,0,0,0,0,0,0,0,-1,811,715,0,0
-406,309,0,0,0,0,0,0,0,0,0,-1,818,715,0,0
-399,309,0,0,0,0,0,0,0,0,0,-1,825,715,0,0
-392,309,0,0,0,0,0,0,0,0,0,-1,832,715,0,0
-385,309,0,0,0,0,0,0,0,0,0,-1,839,715,0,0
-378,309,0,0,0,0,0,0,0,0,0,-1,846,715,0,0
-371,309,0,0,0,0,0,0,0,0,0,-1,853,715,0,0
-364,309,0,0,0,0,0,0,0,0,0,-1,860,715,0,0
-357,309,0,0,0,0,0,0,0,0,0,-1,867,715,0,0
-350,309,0,0,0,0,0,0,0,0,0,-1,874,715,0,0
-343,309,0,0,0,0,0,0,0,0,0,-1,881,715,0,0
-336,309,0,0,0,0,0,0,0,0,0,-1,888,715,0,0
-329,309,0,0,0,0,0,0,0,0,0,-1,895,715,0,0
-322,309,0,0,0,0,0,0,0,0,0,-1,902,715,0,0
-315,309,0,0,0,0,0,0,0,0,0,-1,909,715,0,0
-308,309,0,0,0,0,0,0,0,0,0,-1,916,715,0,0
-301,309,0,0,0,0,0,0,0,0,0,-1,923,715,0,0
-294,309,0,0,0,0,0,0,0,0,0,-1,930,715,0,0
-287,309,0,0,0,0,0,0,0,0,0,-1,937,715,0,0
-280,309,0,0,0,0,0,0,0,0,0,-1,944,715,0,0
-273,309,0,0,0,0,0,0,0,0,0,-1,951,715,0,0
-266,309,0,0,0,0,0,0,0,0,0,-1,958,715,0,0
-259,309,0,0,0,0,0,0,0,0,0,-1,965,715,0,0
-252,309,0,0,0,0,0,0,0,0,0,-1,972,715,0,0
-245,309,0,0,0,0,0,0,0,0,0,-1,979,715,0,0
-238,309,0,0,0,0,0,0,0,0,0,-1,986,715,0,0
-231,309,0,0,0,0,0,0,0,0,0,-1,993,715,0,0
-224,309,0,0,0,0,0,0,0,0,0,-1,1000,715,0,0
-217,309,0,0,0,0,0,0,0,0,0,-1,1007,715,0,0
-210,309,0,0,0,0,0,0,0,0,0,-1,1014,715,0,0
-203,309,0,0,0,0,0,0,0,0,0,-1,1021,715,0,0
-196,309,0,0,0,0,0,0,0,0,0,-1,1028,715,0,0
-189,309,0,0,0,0,0,0,0,0,0,-1,1035,715,0,0
-182,309,0,0,0,0,0,0,0,0,0,-1,1042,715,0,0
-175,309,0,0,0,0,0,0,0,0,0,-1,1049,715,0,0
-168,309,0,0,0,0,0,0,0,0,0,-1,1056,715,0,0
-161,309,0,0,0,0,0,0,0,0,0,-1,1063,715,0,0
-154,309,0,0,0,0,0,0,0,0,0,-1,1070,715,0,0
-147,309,0,0,0,0,0,0,0,0,0,-1,1077,715,0,0
-140,309,0,0,0,0,0,0,0,0,0,-1,1084,715,0,0
-133,309,0,0,0,0,0,0,0,0,0,-1,1091,715,0,0
-126,309,0,0,0,0,0,0,0,0,0,-1,1098,715,0,0
-119,309,0,0,0,0,0,0,0,0,0,-1,1105,715,0,0
-112,309,0,0,0,0,0,0,0,0,0,-1,1112,715,0,0
-105,309,0,0,0,0,0,0,0,0,0,-1,1119,715,0,0
-98,309,0,0,0,0,0,0,0,0,0,-1,1126,715,0,0
-91,309,0,0,0,0,0,0,0,0,0,-1,1133,715,0,0
-84,309,0,0,0,0,0,0,0,0,0,-1,1140,715,0,0
-77,309,0,0,0,0,0,0,0,0,0,-1,1147,715,0,0
-70,309,0,0,0,0,0,0,0,0,0,-1,1154,715,0,0
-63,309,0,0,0,0,0,0,0,0,0,-1,1161,715,0,0
-56,309,0,0,0,0,0,0,0,0,0,-1,1168,715,0,0
-49,309,0,0,0,0,0,0,0,0,0,-1,1175,715,0,0
-42,309,0,0,0,0,0,0,0,0,0,-1,1182,715,0,0
-35,309,0,0,0,0,0,0,0,0,0,-1,1189,715,0,0
-28,309,0,0,0,0,0,0,0,0,0,-1,1196,715,0,0
-21,309,0,0,0,0,0,0,0,0,0,-1,1203,715,0,0
-14,309,0,0,0,0,0,0,0,0,0,-1,1210,715,0,0
-7,309,0,0,0,0,0,0,0,0,0,-1,1217,715,0,0
0,309,0,0,0,0,0,0,0,0,0,-1,1224,715,0,0
7,309,0,0,0,0,0,0,0,0,0,-1,1231,715,0,0
14,309,0,0,0,0,0,0,0,0,0,-1,1238,715,0,0
21,309,0,0,0,0,0,0,0,0,0,-1,1245,715,0,0
28,309,0,0,0,0,0,0,0,0,0,-1,1252,715,0,0
35,309,0,0,0,0,0,0,0,0,0,-1,1259,715,0,0
42,309,0,0,0,0,0,0,0,0,0,-1,1266,715,0,0
49,309,0,0,0,0,0,0,0,0,0,-1,1273,715,0,0
56,309,0,0,0,0,0,0,0,0,0,-1,1280,715,0,0
63,309,0,0,0,0,0,0,0,0,0,-1,1287,715,0,0
70,309,0,0,0,0,0,0,0,0,0,-1,1294,715,0,0
77,309,0,0,0,0,0,0,0,0,0,-1,1301,715,0,0
84,309,0,0,0,0,0,0,0,0,0,-1,1308,715,0,0
91,309,0,0,0,0,0,0,0,0,0,-1,1315,715,0,0
98,309,0,0,0,0,0,0,0,0,0,-1,1322,715,0,0
105,309,0,0,0,0,0,0,0,0,0,-1,1329,715,0,0
112,309,0,0,0,0,0,0,0,0,0,-1,1336,715,0,0
119,309,0,0,0,0,0,0,0,0,0,-1,1343,715,0,0
126,309,0,0,0,0,0,0,0,0,0,-1,1350,715,0,0
133,309,0,0,0,0,0,0,0,0,0,-1,1357,715,0,0
140,309,0,0,0,0,0,0,0,0,0,-1,1364,715,0,0
147,309,0,0,0,0,0,0,0,0,0,-1,1371,715,0,0
154,309,0,0,0,0,0,0,0,0,0,-1,1378,715,0,0
161,309,0,0,0,0,0,0,0,0,0,-1,1385,715,0,0
168,309,0,0,0,0,0,0,0,0,0,-1,1392,715,0,0
175,309,0,0,0,0,0,0,0,0,0,-1,1399,715,0,0
182,309,0,0,0,0,0,0,0,0,0,-1,1406,715,0,0
189,309,0,0,0,0,0,0,0,0,0,-1,1413,715,0,0
196,309,0,0,0,0,0,0,0,0,0,-1,1420,715,0,0
203,309,0,0,0,0,0,0,0,0,0,-1,1427,715,0,0
210,309,0,0,0,0,0,0,0,0,0,-1,1434,715,0,0
217,309,0,0,0,0,0,0,0,0,0,-1,1441,715,0,0
224,309,0,0,0,0,0,0,0,0,0,-1,1448,715,0,0
231,309,0,0,0,0,0,0,0,0,0,-1,1455,715,0,0
238,309,0,0,0,0,0,0,0,0,0,-1,1462,715,0,0
245,309,0,0,0,0,0,0,0,0,0,-1,1469,715,0,0
252,309,0,0,0,0,0,0,0,0,0,-1,1476,715,0,0
259,309,0,0,0,0,0,0,0,0,0,-1,1483,715,0,0
266,309,0,0,0,0,0,0,0,0,0,-1,1490,715,0,0
273,309,0,0,0,0,0,0,0,0,0,-1,1497,715,0,0
280,309,0,0,0,0,0,0,0,0,0,-1,1504,715,0,0
287,309,0,0,0,0,0,0,0,0,0,-1,1511,715,0,0
294,309,0,0,0,0,0,0,0,0,0,-1,1518,715,0,0
301,309,0,0,0,0,0,0,0,0,0,-1,1525,715,0,0
308,309,0,0,0,0,0,0,0,0,0,-1,1532,715,0,0
315,309,0,0,0,0,0,0,0,0,0,-1,1539,715,0,0
322,309,0,0,0,0,0,0,0,0,0,-1,1546,715,0,0
329,309,0,0,0,0,0,0,0,0,0,-1,1553,715,0,0
336,309,0,0,0,0,0,0,0,0,0,-1,1560,715,0,0
343,309,0,0,0,0,0,0,0,0,0,-1,1567,715,0,0
350,309,0,0,0,0,0,0,0,0,0,-1,1574,715,0,0
357,309,0,0,0,0,0,0,0,0,0,-1,1581,715,0,0
364,309,0,0,0,0,0,0,0,0,0,-1,1588,715,0,0
371,309,0,0,0,0,0,0,0,0,0,-1,1595,715,0,0
378,309,0,0,0,0,0,0,0,0,0,-1,1602,715,0,0
385,309,0,0,0,0,0,0,0,0,0,-1,1609,715,0,0
392,309,0,0,0,0,0,0,0,0,0,-1,1616,715,0,0
399,309,0,0,0,0,0,0,0,0,0,-1,1623,715,0,0
406,309,0,0,0,0,0,0,0,0,0,-1,1630,715,0,0
413,309,0,0,0,0,0,0,0,0,0,-1,1637,715,0,0
420,309,0,0,0,0,0,0,0,0,0,-1,1644,715,0,0
427,309,0,0,0,0,0,0,0,0,0,-1,1651,715,0,0
434,309,0,0,0,0,0,0,0,0,0,-1,1658,715,0,0
441,309,0,0,0,0,0,0,0,0,0,-1,1665,715,0,0
448,309,0,0,0,0,0,0,0,0,0,-1,1672,715,0,0
455,309,0,0,0,0,0,0,0,0,0,-1,1679,715,0,0
462,309,0,0,0,0,0,0,0,0,0,-1,1686,715,0,0
469,309,0,0,0,0,0,0,0,0,0,-1,1693,715,0,0
476,309,0,0,0,0,0,0,0,0,0,-1,1700,715,0,0
483,309,0,0,0,0,0,0,0,0,0,-1,1707,715,0,0
490,309,0,0,0,0,0,0,0,0,0,-1,1714,715,0,0
497,309,0,0,0,0,0,0,0,0,0,-1,1721,715,0,0
504,309,0,0,0,0,0,0,0,0,0,-1,1728,715,0,0
511,309,0,0,0,0,0,0,0,0,0,-1,1735,715,0,0
518,309,0,0,0,0,0,0,0,0,0,-1,1742,715,0,0
525,309,0,0,0,0,0,0,0,0,0,-1,1749,715,0,0
532,309,0,0,0,0,0,0,0,0,0,-1,1756,715,0,0
539,309,44.2073,2.66235,0,0,0,0,0,0,0,-1,1763,715,44.2073,-2.66238
546,309,44.4976,3.25531,0,0,0,0,0,0,0,-1,1770,715,44.4976,-3.25533
553,309,47.9611,4.06433,0,0,0,0,0,0,0,-1,1777,715,47.9611,-4.06434
560,309,47.9784,4.64801,0,0,0,0,0,0,0,-1,1784,715,47.9784,-4.64799
567,309,47.0073,5.43121,0,0,0,0,0,0,0,-1,1791,715,47.0073,-5.43121
574,309,45.8746,6.53271,0,0,0,0,0,0,0,-1,1798,715,45.8747,-6.53269
581,309,45.0629,7.73468,0,0,0,0,0,0,0,-1,1805,715,45.0629,-7.73471
588,309,26.2064,7.76422,0,0,0,0,0,0,0,-1,1812,715,26.2064,-7.7642
595,309,19.585,3.71558,0,0,0,0,0,0,0,-1,1819,715,19.5849,-3.71555
602,309,11.0811,3.47772,0,0,0,0,0,0,0,-1,1826,715,11.0811,-3.47772
609,309,37.9926,-9.0788,0,0,0,0,0,0,0,-1,1833,715,37.9925,9.07881
616,309,38.0503,-8.29901,0.00412912,-0.0005714,0.000924977,0.00430459,-0.000746868,0.187473,0.00314835,0.0261817,1840,715,38.0503,8.299
623,309,38.0674,-7.51752,0.00304875,-0.000411669,0.0007534,0.00320566,-0.000568583,0.20534,0.00234968,0.0106423,1847,715,38.0674,7.51751
630,309,38.0023,-6.73651,0.00242761,-0.000267077,0.000688424,0.00259329,-0.000432765,0.236185,0.00188971,0.0102408,1854,715,38.0024,6.7365
637,309,37.9419,-5.92456,0.00200047,-1.24008e-05,0.00069746,0.00221852,-0.00023045,0.303006,0.00156151,0.0139865,1861,715,37.9419,5.92454
644,309,37.8636,-5.10736,0.00175367,0.000360657,0.000768629,0.00209442,1.99014e-05,0.417292,0.0013897,0.0153674,1868,715,37.8637,5.10739
651,309,37.8202,-4.29358,0.00164685,0.00081566,0.00088471,0.00220871,0.000253792,0.56582,0.00139559,0.0150192,1875,715,37.8201,4.29357
658,309,37.7908,-3.46655,0.00168131,0.00138761,0.00104543,0.00259015,0.000478766,0.715621,0.00159137,0.0224071,1882,715,37.7908,3.46657
665,309,37.8083,-2.6842,0.00190538,0.00209469,0.00129364,0.00329713,0.000702937,0.821918,0.00200527,0.0185336,1889,715,37.8084,2.6842
672,309,37.7578,-1.88159,0.00232167,0.00294432,0.00161641,0.00427911,0.00098688,0.880534,0.0025873,0.0163763,1896,715,37.7579,1.88156
679,309,37.7532,-1.00067,0.00287331,0.00402463,0.00204718,0.00557554,0.00132239,0.922458,0.00336401,0.0282486,1903,715,37.7532,1.00069
686,309,37.7347,-0.123596,0,0,0,0,0,0,0,-1,1910,715,37.7347,0.123616
693,309,32.7026,1.51727,0,0,0,0,0,0,0,-1,1917,715,32.7026,-1.51727
700,309,23.0179,3.08337,0,0,0,0,0,0,0,-1,1924,715,23.018,-3.08336
707,309,15.6318,4.58655,0,0,0,0,0,0,0,-1,1931,715,15.6318,-4.58657
714,309,16.7573,6.68286,0,0,0,0,0,0,0,-1,1938,715,16.7574,-6.68284
721,309,16.8337,5.4458,0,0,0,0,0,0,0,-1,1945,715,16.8338,-5.44582
728,309,0,0,0,0,0,0,0,0,0,-1,1952,715,0,0
735,309,0,0,0,0,0,0,0,0,0,-1,1959,715,0,0
742,309,0,0,0,0,0,0,0,0,0,-1,1966,715,0,0
749,309,0,0,0,0,0,0,0,0,0,-1,1973,715,0,0
756,309,0,0,0,0,0,0,0,0,0,-1,1980,715,0,0
763,309,0,0,0,0,0,0,0,0,0,-1,1987,715,0,0
770,309,0,0,0,0,0,0,0,0,0,-1,1994,715,0,0
777,309,0,0,0,0,0,0,0,0,0,-1,2001,715,0,0
784,309,0,0,0,0,0,0,0,0,0,-1,2008,715,0,0
791,309,0,0,0,0,0,0,0,0,0,-1,2015,715,0,0
798,309,0,0,0,0,0,0,0,0,0,-1,2022,715,0,0
805,309,0,0,0,0,0,0,0,0,0,-1,2029,715,0,0
812,309,0,0,0,0,0,0,0,0,0,-1,2036,715,0,0
-700,302,0,0,0,0,0,0,0,0,0,-1,524,722,0,0
-693,302,0,0,0,0,0,0,0,0,0,-1,531,722,0,0
-686,302,0,0,0,0,0,0,0,0,0,-1,538,722,0,0
-679,302,0,0,0,0,0,0,0,0,0,-1,545,722,0,0
-672,302,0,0,0,0,0,0,0,0,0,-1,552,722,0,0
-665,302,0,0,0,0,0,0,0,0,0,-1,559,722,0,0
-658,302,0,0,0,0,0,0,0,0,0,-1,566,722,0,0
-651,302,0,0,0,0,0,0,0,0,0,-1,573,722,0,0
-644,302,0,0,0,0,0,0,0,0,0,-1,580,722,0,0
-637,302,0,0,0,0,0,0,0,0,0,-1,587,722,0,0
-630,302,0,0,0,0,0,0,0,0,0,-1,594,722,0,0
-623,302,0,0,0,0,0,0,0,0,0,-1,601,722,0,0
-616,302,0,0,0,0,0,0,0,0,0,-1,608,722,0,0
-609,302,-7.79266,-3.71649,0,0,0,0,0,0,0,-1,615,722,-7.79267,3.7165
-602,302,0.92865,-1.99158,0,0,0,0,0,0,0,-1,622,722,0.928637,1.99157
-595,302,-7.89941,2.13641,0,0,0,0,0,0,0,-1,629,722,-7.89939,-2.13639
-588,302,-7.10895,1.79163,0,0,0,0,0,0,0,-1,636,722,-7.10896,-1.79163
-581,302,-9.17566,1.09448,0,0,0,0,0,0,0,-1,643,722,-9.17569,-1.09445
-574,302,-11.5183,-0.344543,0,0,0,0,0,0,0,-1,650,722,-11.5183,0.344557
-567,302,-12.1534,-0.672241,0,0,0,0,0,0,0,-1,657,722,-12.1535,0.672246
-560,302,-24.4086,-1.38647,0,0,0,0,0,0,0,-1,664,722,-24.4086,1.38648
-553,302,-24.5463,-2.32275,0.000318246,0.00417931,-0.000928866,0.00439115,0.000106409,-1.34657,0.00289262,0.0335263,671,722,-24.5463,2.32277
-546,302,-24.5463,-3.17352,0.00108981,0.00305053,-0.000738455,0.00329754,0.000842805,-1.24801,0.0019782,0.0173277,678,722,-24.5464,3.1735
-539,302,-24.5906,-3.92224,0.00135912,0.0018849,-0.000436334,0.00213142,0.0011126,-1.05652,0.00123097,0.0150586,685,722,-24.5906,3.92225
-532,302,-24.6136,-4.69904,0.00126839,0.000749131,-5.85544e-05,0.00127491,0.00074261,-0.110909,0.000739402,0.0138425,692,722,-24.6136,4.69901
-525,302,-24.602,-5.5318,0.000902523,-0.000346611,0.000301224,0.000971368,-0.000415456,0.224691,0.000821846,0.0190907,699,722,-24.602,5.53178
-518,302,-24.666,-6.29388,0.000384343,-0.00137013,0.00072879,0.000647579,-0.00163336,0.346615,0.00135728,0.0220052,706,722,-24.666,6.29386
-511,302,-24.7346,-7.03986,-0.000363986,-0.00245494,0.00127041,0.000235822,-0.00305475,0.44111,0.00211948,0.0114472,713,722,-24.7346,7.03988
-504,302,-24.771,-7.8432,-0.00126666,-0.0035507,0.00193076,-0.000165462,-0.0046519,0.518329,0.00304761,0.00977771,720,722,-24.771,7.84323
-497,302,-24.8414,-8.60547,-0.00210687,-0.00459808,0.00259129,-0.000477358,-0.0062276,0.561358,0.00400211,0.0158523,727,722,-24.8413,8.60546
-490,302,-24.9161,-9.37268,0,0,0,0,0,0,0,-1,734,722,-24.9161,9.37266
-483,302,-9.53412,-3.1673,0,0,0,0,0,0,0,-1,741,722,-9.53411,3.1673
-476,302,-4.29749,-0.203491,0,0,0,0,0,0,0,-1,748,722,-4.29751,0.203464
-469,302,-12.369,1.42859,0,0,0,0,0,0,0,-1,755,722,-12.3689,-1.42857
-462,302,-17.4766,0.310791,0,0,0,0,0,0,0,-1,762,722,-17.4766,-0.310788
-455,302,-36.7368,-2.97418,0,0,0,0,0,0,0,-1,769,722,-36.7368,2.97416
-448,302,-42.1174,-1.44232,0,0,0,0,0,0,0,-1,776,722,-42.1174,1.44229
-441,302,-46.7637,0.580078,0,0,0,0,0,0,0,-1,783,722,-46.7636,-0.58007
-434,302,-46.574,1.30511,0,0,0,0,0,0,0,-1,790,722,-46.574,-1.30509
-427,302,-46.7514,1.51532,0,0,0,0,0,0,0,-1,797,722,-46.7514,-1.51532
-420,302,0,0,0,0,0,0,0,0,0,-1,804,722,0,0
-413,302,0,0,0,0,0,0,0,0,0,-1,811,722,0,0
-406,302,0,0,0,0,0,0,0,0,0,-1,818,722,0,0
-399,302,0,0,0,0,0,0,0,0,0,-1,825,722,0,0
-392,302,0,0,0,0,0,0,0,0,0,-1,832,722,0,0
-385,302,0,0,0,0,0,0,0,0,0,-1,839,722,0,0
-378,302,0,0,0,0,0,0,0,0,0,-1,846,722,0,0
-371,302,0,0,0,0,0,0,0,0,0,-1,853,722,0,0
-364,302,0,0,0,0,0,0,0,0,0,-1,860,722,0,0
-357,302,0,0,0,0,0,0,0,0,0,-1,867,722,0,0
-350,302,0,0,0,0,0,0,0,0,0,-1,874,722,0,0
-343,302,0,0,0,0,0,0,0,0,0,-1,881,722,0,0
-336,302,0,0,0,0,0,0,0,0,0,-1,888,722,0,0
-329,302,0,0,0,0,0,0,0,0,0,-1,895,722,0,0
-322,302,0,0,0,0,0,0,0,0,0,-1,902,722,0,0
-315,302,0,0,0,0,0,0,0,0,0,-1,909,722,0,0
-308,302,0,0,0,0,0,0,0,0,0,-1,916,722,0,0
-301,302,0,0,0,0,0,0,0,0,0,-1,923,722,0,0
-294,302,0,0,0,0,0,0,0,0,0,-1,930,722,0,0
-287,302,0,0,0,0,0,0,0,0,0,-1,937,722,0,0
-280,302,0,0,0,0,0,0,0,0,0,-1,944,722,0,0
-273,302,0,0,0,0,0,0,0,0,0,-1,951,722,0,0
-266,302,0,0,0,0,0,0,0,0,0,-1,958,722,0,0
-259,302,0,0,0,0,0,0,0,0,0,-1,965,722,0,0
-252,302,0,0,0,0,0,0,0,0,0,-1,972,722,0,0
-245,302,0,0,0,0,0,0,0,0,0,-1,979,722,0,0
-238,302,0,0,0,0,0,0,0,0,0,-1,986,722,0,0
-231,302,0,0,0,0,0,0,0,0,0,-1,993,722,0,0
-224,302,0,0,0,0,0,0,0,0,0,-1,1000,722,0,0
-217,302,0,0,0,0,0,0,0,0,0,-1,1007,722,0,0
-210,302,0,0,0,0,0,0,0,0,0,-1,1014,722,0,0
-203,302,0,0,0,0,0,0,0,0,0,-1,1021,722,0,0
-196,302,0,0,0,0,0,0,0,0,0,-1,1028,722,0,0
-189,302,0,0,0,0,0,0,0,0,0,-1,1035,722,0,0
-182,302,0,0,0,0,0,0,0,0,0,-1,1042,722,0,0
-175,302,0,0,0,0,0,0,0,0,0,-1,1049,722,0,0
-168,302,0,0,0,0,0,0,0,0,0,-1,1056,722,0,0
-161,302,0,0,0,0,0,0,0,0,0,-1,1063,722,0,0
-154,302,0,0,0,0,0,0,0,0,0,-1,1070,722,0,0
-147,302,0,0,0,0,0,0,0,0,0,-1,1077,722,0,0
-140,302,0,0,0,0,0,0,0,0,0,-1,1084,722,0,0
-133,302,0,0,0,0,0,0,0,0,0,-1,1091,722,0,0
-126,302,0,0,0,0,0,0,0,0,0,-1,1098,722,0,0
-119,302,0,0,0,0,0,0,0,0,0,-1,1105,722,0,0
-112,302,0,0,0,0,0,0,0,0,0,-1,1112,722,0,0
-105,302,0,0,0,0,0,0,0,0,0,-1,1119,722,0,0
-98,302,0,0,0,0,0,0,0,0,0,-1,1126,722,0,0
-91,302,0,0,0,0,0,0,0,0,0,-1,1133,722,0,0
-84,302,0,0,0,0,0,0,0,0,0,-1,1140,722,0,0
-77,302,0,0,0,0,0,0,0,0,0,-1,1147,722,0,0
-70,302,0,0,0,0,0,0,0,0,0,-1,1154,722,0,0
-63,302,0,0,0,0,0,0,0,0,0,-1,1161,722,0,0
-56,302,0,0,0,0,0,0,0,0,0,-1,1168,722,0,0
-49,302,0,0,0,0,0,0,0,0,0,-1,1175,722,0,0
-42,302,0,0,0,0,0,0,0,0,0,-1,1182,722,0,0
-35,302,0,0,0,0,0,0,0,0,0,-1,1189,722,0,0
-28,302,0,0,0,0,0,0,0,0,0,-1,1196,722,0,0
-21,302,0,0,0,0,0,0,0,0,0,-1,1203,722,0,0
-14,302,0,0,0,0,0,0,0,0,0,-1,1210,722,0,0
-7,302,0,0,0,0,0,0,0,0,0,-1,1217,722,0,0
0,302,0,0,0,0,0,0,0,0,0,-1,1224,722,0,0
7,302,0,0,0,0,0,0,0,0,0,-1,1231,722,0,0
14,302,0,0,0,0,0,0,0,0,0,-1,1238,722,0,0
21,302,0,0,0,0,0,0,0,0,0,-1,1245,722,0,0
28,302,0,0,0,0,0,0,0,0,0,-1,1252,722,0,0
35,302,0,0,0,0,0,0,0,0,0,-1,1259,722,0,0
42,302,0,0,0,0,0,0,0,0,0,-1,1266,722,0,0
49,302,0,0,0,0,0,0,0,0,0,-1,1273,722,0,0
56,302,0,0,0,0,0,0,0,0,0,-1,1280,722,0,0
63,302,0,0,0,0,0,0,0,0,0,-1,1287,722,0,0
70,302,0,0,0,0,0,0,0,0,0,-1,1294,722,0,0
77,302,0,0,0,0,0,0,0,0,0,-1,1301,722,0,0
84,302,0,0,0,0,0,0,0,0,0,-1,1308,722,0,0
91,302,0,0,0,0,0,0,0,0,0,-1,1315,722,0,0
98,302,0,0,0,0,0,0,0,0,0,-1,1322,722,0,0
105,302,0,0,0,0,0,0,0,0,0,-1,1329,722,0,0
112,302,0,0,0,0,0,0,0,0,0,-1,1336,722,0,0
119,302,0,0,0,0,0,0,0,0,0,-1,1343,722,0,0
126,302,0,0,0,0,0,0,0,0,0,-1,1350,722,0,0
133,302,0,0,0,0,0,0,0,0,0,-1,1357,722,0,0
140,302,0,0,0,0,0,0,0,0,0,-1,1364,722,0,0
147,302,0,0,0,0,0,0,0,0,0,-1,1371,722,0,0
154,302,0,0,0,0,0,0,0,0,0,-1,1378,722,0,0
161,302,0,0,0,0,0,0,0,0,0,-1,1385,722,0,0
168,302,0,0,0,0,0,0,0,0,0,-1,1392,722,0,0
175,302,0,0,0,0,0,0,0,0,0,-1,1399,722,0,0
182,302,0,0,0,0,0,0,0,0,0,-1,1406,722,0,0
189,302,0,0,0,0,0,0,0,0,0,-1,1413,722,0,0
196,302,0,0,0,0,0,0,0,0,0,-1,1420,722,0,0
203,302,0,0,0,0,0,0,0,0,0,-1,1427,722,0,0
210,302,0,0,0,0,0,0,0,0,0,-1,1434,722,0,0
217,302,0,0,0,0,0,0,0,0,0,-1,1441,722,0,0
224,302,0,0,0,0,0,0,0,0,0,-1,1448,722,0,0
231,302,0,0,0,0,0,0,0,0,0,-1,1455,722,0,0
238,302,0,0,0,0,0,0,0,0,0,-1,1462,722,0,0
245,302,0,0,0,0,0,0,0,0,0,-1,1469,722,0,0
252,302,0,0,0,0,0,0,0,0,0,-1,1476,722,0,0
259,302,0,0,0,0,0,0,0,0,0,-1,1483,722,0,0
266,302,0,0,0,0,0,0,0,0,0,-1,1490,722,0,0
273,302,0,0,0,0,0,0,0,0,0,-1,1497,722,0,0
280,302,0,0,0,0,0,0,0,0,0,-1,1504,722,0,0
287,302,0,0,0,0,0,0,0,0,0,-1,1511,722,0,0
294,302,0,0,0,0,0,0,0,0,0,-1,1518,722,0,0
301,302,0,0,0,0,0,0,0,0,0,-1,1525,722,0,0
308,302,0,0,0,0,0,0,0,0,0,-1,1532,722,0,0
315,302,0,0,0,0,0,0,0,0,0,-1,1539,722,0,0
322,302,0,0,0,0,0,0,0,0,0,-1,1546,722,0,0
329,302,0,0,0,0,0,0,0,0,0,-1,1553,722,0,0
336,302,0,0,0,0,0,0,0,0,0,-1,1560,722,0,0
343,302,0,0,0,0,0,0,0,0,0,-1,1567,722,0,0
350,302,0,0,0,0,0,0,0,0,0,-1,1574,722,0,0
357,302,0,0,0,0,0,0,0,0,0,-1,1581,722,0,0
364,302,0,0,0,0,0,0,0,0,0,-1,1588,722,0,0
371,302,0,0,0,0,0,0,0,0,0,-1,1595,722,0,0
378,302,0,0,0,0,0,0,0,0,0,-1,1602,722,0,0
385,302,0,0,0,0,0,0,0,0,0,-1,1609,722,0,0
392,302,0,0,0,0,0,0,0,0,0,-1,1616,722,0,0
399,302,0,0,0,0,0,0,0,0,0,-1,1623,722,0,0
406,302,0,0,0,0,0,0,0,0,0,-1,1630,722,0,0
413,302,0,0,0,0,0,0,0,0,0,-1,1637,722,0,0
420,302,0,0,0,0,0,0,0,0,0,-1,1644,722,0,0
427,302,0,0,0,0,0,0,0,0,0,-1,1651,722,0,0
434,302,0,0,0,0,0,0,0,0,0,-1,1658,722,0,0
441,302,0,0,0,0,0,0,0,0,0,-1,1665,722,0,0
448,302,0,0,0,0,0,0,0,0,0,-1,1672,722,0,0
455,302,0,0,0,0,0,0,0,0,0,-1,1679,722,0,0
462,302,0,0,0,0,0,0,0,0,0,-1,1686,722,0,0
469,302,0,0,0,0,0,0,0,0,0,-1,1693,722,0,0
476,302,0,0,0,0,0,0,0,0,0,-1,1700,722,0,0
483,302,0,0,0,0,0,0,0,0,0,-1,1707,722,0,0
490,302,0,0,0,0,0,0,0,0,0,-1,1714,722,0,0
497,302,0,0,0,0,0,0,0,0,0,-1,1721,722,0,0
504,302,0,0,0,0,0,0,0,0,0,-1,1728,722,0,0
511,302,0,0,0,0,0,0,0,0,0,-1,1735,722,0,0
518,302,0,0,0,0,0,0,0,0,0,-1,1742,722,0,0
525,302,0,0,0,0,0,0,0,0,0,-1,1749,722,0,0
532,302,0,0,0,0,0,0,0,0,0,-1,1756,722,0,0
539,302,0,0,0,0,0,0,0,0,0,-1,1763,722,0,0
546,302,48.9873,1.50562,0,0,0,0,0,0,0,-1,1770,722,48.9873,-1.50562
553,302,56.7844,3.46533,0,0,0,0,0,0,0,-1,1777,722,56.7844,-3.4653
560,302,56.7115,3.84808,0,0,0,0,0,0,0,-1,1784,722,56.7116,-3.84806
567,302,55.9475,4.24542,0,0,0,0,0,0,0,-1,1791,722,55.9475,-4.24542
574,302,45.9537,6.00867,0,0,0,0,0,0,0,-1,1798,722,45.9537,-6.00864
581,302,45.137,7.38043,0,0,0,0,0,0,0,-1,1805,722,45.1369,-7.38044
588,302,26.9731,7.19983,0,0,0,0,0,0,0,-1,1812,722,26.9732,-7.19981
595,302,27.3826,8.13104,0,0,0,0,0,0,0,-1,1819,722,27.3825,-8.13102
602,302,14.7349,5.21246,0,0,0,0,0,0,0,-1,1826,722,14.7349,-5.21247
609,302,31.1039,-6.34253,0,0,0,0,0,0,0,-1,1833,722,31.1039,6.34254
616,302,38.8593,-8.26892,0,0,0,0,0,0,0,-1,1840,722,38.8592,8.26894
623,302,38.8616,-7.46478,0.00335014,-0.000353933,0.00125161,0.00373341,-0.000737198,0.297151,0.00276759,0.0144387,1847,722,38.8616,7.46478
630,302,38.7861,-6.67065,0.0026081,-0.000348179,0.000983808,0.00290557,-0.000645645,0.293622,0.0021843,0.0116343,1854,722,38.7861,6.67064
637,302,38.7129,-5.875,0.0020698,-0.00019619,0.000834706,0.00234408,-0.000470466,0.317475,0.00174086,0.015009,1861,722,38.7128,5.87501
644,302,38.667,-5.06201,0.00176614,9.67258e-05,0.000808616,0.00209358,-0.000230719,0.384761,0.00147864,0.0159309,1868,722,38.667,5.062
651,302,38.6368,-4.23456,0.00164083,0.000547913,0.000894275,0.00214239,4.6351e-05,0.511142,0.00141306,0.0141707,1875,722,38.6369,4.23455
658,302,38.6224,-3.45721,0.00165578,0.00111632,0.00101838,0.00243955,0.00033255,0.655939,0.00152763,0.0154775,1882,722,38.6224,3.45722
665,302,38.6206,-2.67242,0.00183548,0.00181863,0.0012225,0.00304959,0.000604528,0.781952,0.00186451,0.0146185,1889,722,38.6207,2.67242
672,302,38.5502,-1.85791,0.00216471,0.0026563,0.0015136,0.00394393,0.000877077,0.86589,0.00239116,0.0119136,1896,722,38.5502,1.85789
679,302,38.5002,-1.02399,0.00263515,0.00369395,0.00189191,0.00512913,0.00119996,0.92182,0.0030979,0.0100024,1903,722,38.5002,1.02397
686,302,38.5131,-0.179199,0.00324893,0.00488966,0.00238375,0.00659026,0.00154833,0.951124,0.00397911,0.0239538,1910,722,38.5131,0.179173
693,302,38.473,0.662903,0,0,0,0,0,0,0,-1,1917,722,38.4731,-0.662912
700,302,25.4069,1.97308,0,0,0,0,0,0,0,-1,1924,722,25.4068,-1.97311
707,302,16.7321,4.76685,0,0,0,0,0,0,0,-1,1931,722,16.7321,-4.76687
714,302,17.2,5.77594,0,0,0,0,0,0,0,-1,1938,722,17.2,-5.77595
721,302,17.7914,6.60394,0,0,0,0,0,0,0,-1,1945,722,17.7914,-6.60395
728,302,17.2798,4.81702,0,0,0,0,0,0,0,-1,1952,722,17.2798,-4.81703
735,302,0,0,0,0,0,0,0,0,0,-1,1959,722,0,0
742,302,0,0,0,0,0,0,0,0,0,-1,1966,722,0,0
749,302,0,0,0,0,0,0,0,0,0,-1,1973,722,0,0
756,302,0,0,0,0,0,0,0,0,0,-1,1980,722,0,0
763,302,0,0,0,0,0,0,0,0,0,-1,1987,722,0,0
770,302,0,0,0,0,0,0,0,0,0,-1,1994,722,0,0
777,302,0,0,0,0,0,0,0,0,0,-1,2001,722,0,0
784,302,0,0,0,0,0,0,0,0,0,-1,2008,722,0,0
791,302,0,0,0,0,0,0,0,0,0,-1,2015,722,0,0
798,302,0,0,0,0,0,0,0,0,0,-1,2022,722,0,0
805,302,0,0,0,0,0,0,0,0,0,-1,2029,722,0,0
812,302,0,0,0,0,0,0,0,0,0,-1,2036,722,0,0
-700,295,0,0,0,0,0,0,0,0,0,-1,524,729,0,0
-693,295,0,0,0,0,0,0,0,0,0,-1,531,729,0,0
-686,295,0,0,0,0,0,0,0,0,0,-1,538,729,0,0
-679,295,0,0,0,0,0,0,0,0,0,-1,545,729,0,0
-672,295,0,0,0,0,0,0,0,0,0,-1,552,729,0,0
-665,295,0,0,0,0,0,0,0,0,0,-1,559,729,0,0
-658,295,0,0,0,0,0,0,0,0,0,-1,566,729,0,0
-651,295,0,0,0,0,0,0,0,0,0,-1,573,729,0,0
-644,295,0,0,0,0,0,0,0,0,0,-1,580,729,0,0
-637,295,0,0,0,0,0,0,0,0,0,-1,587,729,0,0
-630,295,0,0,0,0,0,0,0,0,0,-1,594,729,0,0
-623,295,0,0,0,0,0,0,0,0,0,-1,601,729,0,0
-616,295,-13.4911,1.31738,0,0,0,0,0,0,0,-1,608,729,-13.4911,-1.3174
-609,295,-10.2864,0.832031,0,0,0,0,0,0,0,-1,615,729,-10.2863,-0.832034
-602,295,-8.19006,3.01587,0,0,0,0,0,0,0,-1,622,729,-8.19005,-3.01588
-595,295,-0.615479,-1.95447,0,0,0,0,0,0,0,-1,629,729,-0.615481,1.95445
-588,295,-7.98999,1.56903,0,0,0,0,0,0,0,-1,636,729,-7.98997,-1.56905
-581,295,-12.0404,0.150574,0,0,0,0,0,0,0,-1,643,729,-12.0404,-0.150604
-574,295,-12.1605,-0.0739746,0,0,0,0,0,0,0,-1,650,729,-12.1605,0.0739856
-567,295,-24.936,-0.536499,0,0,0,0,0,0,0,-1,657,729,-24.936,0.536522
-560,295,-25.1917,-1.53485,-0.00236058,0.00479195,-0.00129594,0.00501952,-0.00258815,-1.39697,0.00446643,0.0357312,664,729,-25.1917,1.53485
-553,295,-25.2574,-2.39178,-0.000744389,0.00361633,-0.000920758,0.00380277,-0.000930834,-1.37101,0.00289576,0.0195803,671,729,-25.2574,2.39181
-546,295,-25.3578,-3.1554,8.8962e-05,0.00243027,-0.000548962,0.00255259,-3.33613e-05,-1.35155,0.00171296,0.0203777,678,729,-25.3578,3.15537
-539,295,-25.3897,-3.87128,0.000470103,0.00125366,-0.000126575,0.0012736,0.000450163,-1.41455,0.000745765,0.0187464,685,729,-25.3897,3.8713
-532,295,-25.4232,-4.66931,0.000478588,6.53812e-05,0.000329679,0.000661052,-0.000117083,0.505495,0.000484468,0.015589,692,729,-25.4231,4.66929
-525,295,-25.4242,-5.47955,0.000168886,-0.00109269,0.000725345,0.000499357,-0.00142316,0.427506,0.00115189,0.015316,699,729,-25.4242,5.47957
-518,295,-25.438,-6.24176,-0.000373035,-0.00222565,0.00120246,0.000218535,-0.00281722,0.457201,0.00195506,0.0118488,706,729,-25.4381,6.24174
-511,295,-25.4907,-6.99908,-0.00118061,-0.00337374,0.00179292,-0.000175506,-0.00437884,0.510942,0.00286252,0.00985281,713,729,-25.4907,6.9991
-504,295,-25.5269,-7.77319,-0.00215346,-0.00455799,0.00249653,-0.000584789,-0.00612666,0.560998,0.00390414,0.0112808,720,729,-25.5269,7.77318
-497,295,-25.629,-8.4762,-0.00305442,-0.00566686,0.00318754,-0.000915842,-0.00780544,0.59094,0.0049268,0.023995,727,729,-25.6291,8.47621
-490,295,-25.7506,-9.14832,0,0,0,0,0,0,0,-1,734,729,-25.7506,9.14832
-483,295,-6.84503,-0.454651,0,0,0,0,0,0,0,-1,741,729,-6.84505,0.454639
-476,295,-13.1738,-0.836243,0,0,0,0,0,0,0,-1,748,729,-13.1738,0.836223
-469,295,-26.5608,-0.466187,0,0,0,0,0,0,0,-1,755,729,-26.5608,0.466162
-462,295,-29.7701,-0.792664,0,0,0,0,0,0,0,-1,762,729,-29.7701,0.792642
-455,295,-45.11,-2.79272,0,0,0,0,0,0,0,-1,769,729,-45.11,2.79272
-448,295,-48.0288,1.41229,0,0,0,0,0,0,0,-1,776,729,-48.0288,-1.41227
-441,295,-47.1089,1.03058,0,0,0,0,0,0,0,-1,783,729,-47.109,-1.0306
-434,295,-46.2319,1.10614,0,0,0,0,0,0,0,-1,790,729,-46.2319,-1.10612
-427,295,0,0,0,0,0,0,0,0,0,-1,797,729,0,0
-420,295,0,0,0,0,0,0,0,0,0,-1,804,729,0,0
-413,295,0,0,0,0,0,0,0,0,0,-1,811,729,0,0
-406,295,0,0,0,0,0,0,0,0,0,-1,818,729,0,0
-399,295,0,0,0,0,0,0,0,0,0,-1,825,729,0,0
-392,295,0,0,0,0,0,0,0,0,0,-1,832,729,0,0
-385,295,0,0,0,0,0,0,0,0,0,-1,839,729,0,0
-378,295,0,0,0,0,0,0,0,0,0,-1,846,729,0,0
-371,295,0,0,0,0,0,0,0,0,0,-1,853,729,0,0
-364,295,0,0,0,0,0,0,0,0,0,-1,860,729,0,0
-357,295,0,0,0,0,0,0,0,0,0,-1,867,729,0,0
-350,295,0,0,0,0,0,0,0,0,0,-1,874,729,0,0
-343,295,0,0,0,0,0,0,0,0,0,-1,881,729,0,0
-336,295,0,0,0,0,0,0,0,0,0,-1,888,729,0,0
-329,295,0,0,0,0,0,0,0,0,0,-1,895,729,0,0
-322,295,0,0,0,0,0,0,0,0,0,-1,902,729,0,0
-315,295,0,0,0,0,0,0,0,0,0,-1,909,729,0,0
-308,295,0,0,0,0,0,0,0,0,0,-1,916,729,0,0
-301,295,0,0,0,0,0,0,0,0,0,-1,923,729,0,0
-294,295,0,0,0,0,0,0,0,0,0,-1,930,729,0,0
-287,295,0,0,0,0,0,0,0,0,0,-1,937,729,0,0
-280,295,0,0,0,0,0,0,0,0,0,-1,944,729,0,0
-273,295,0,0,0,0,0,0,0,0,0,-1,951,729,0,0
-266,295,0,0,0,0,0,0,0,0,0,-1,958,729,0,0
-259,295,0,0,0,0,0,0,0,0,0,-1,965,729,0,0
-252,295,0,0,0,0,0,0,0,0,0,-1,972,729,0,0
-245,295,0,0,0,0,0,0,0,0,0,-1,979,729,0,0
-238,295,0,0,0,0,0,0,0,0,0,-1,986,729,0,0
-231,295,0,0,0,0,0,0,0,0,0,-1,993,729,0,0
-224,295,0,0,0,0,0,0,0,0,0,-1,1000,729,0,0
-217,295,0,0,0,0,0,0,0,0,0,-1,1007,729,0,0
-210,295,0,0,0,0,0,0,0,0,0,-1,1014,729,0,0
-203,295,0,0,0,0,0,0,0,0,0,-1,1021,729,0,0
-196,295,0,0,0,0,0,0,0,0,0,-1,1028,729,0,0
-189,295,0,0,0,0,0,0,0,0,0,-1,1035,729,0,0
-182,295,0,0,0,0,0,0,0,0,0,-1,1042,729,0,0
-175,295,0,0,0,0,0,0,0,0,0,-1,1049,729,0,0
-168,295,0,0,0,0,0,0,0,0,0,-1,1056,729,0,0
-161,295,0,0,0,0,0,0,0,0,0,-1,1063,729,0,0
-154,295,0,0,0,0,0,0,0,0,0,-1,1070,729,0,0
-147,295,0,0,0,0,0,0,0,0,0,-1,1077,729,0,0
-140,295,0,0,0,0,0,0,0,0,0,-1,1084,729,0,0
-133,295,0,0,0,0,0,0,0,0,0,-1,1091,729,0,0
-126,295,0,0,0,0,0,0,0,0,0,-1,1098,729,0,0
-119,295,0,0,0,0,0,0,0,0,0,-1,1105,729,0,0
-112,295,0,0,0,0,0,0,0,0,0,-1,1112,729,0,0
-105,295,0,0,0,0,0,0,0,0,0,-1,1119,729,0,0
-98,295,0,0,0,0,0,0,0,0,0,-1,1126,729,0,0
-91,295,0,0,0,0,0,0,0,0,0,-1,1133,729,0,0
-84,295,0,0,0,0,0,0,0,0,0,-1,1140,729,0,0
-77,295,0,0,0,0,0,0,0,0,0,-1,1147,729,0,0
-70,295,0,0,0,0,0,0,0,0,0,-1,1154,729,0,0
-63,295,0,0,0,0,0,0,0,0,0,-1,1161,729,0,0
-56,295,0,0,0,0,0,0,0,0,0,-1,1168,729,0,0
-49,295,0,0,0,0,0,0,0,0,0,-1,1175,729,0,0
-42,295,0,0,0,0,0,0,0,0,0,-1,1182,729,0,0
-35,295,0,0,0,0,0,0,0,0,0,-1,1189,729,0,0
-28,295,0,0,0,0,0,0,0,0,0,-1,1196,729,0,0
-21,295,0,0,0,0,0,0,0,0,0,-1,1203,729,0,0
-14,295,0,0,0,0,0,0,0,0,0,-1,1210,729,0,0
-7,295,0,0,0,0,0,0,0,0,0,-1,1217,729,0,0
0,295,0,0,0,0,0,0,0,0,0,-1,1224,729,0,0
7,295,0,0,0,0,0,0,0,0,0,-1,1231,729,0,0
14,295,0,0,0,0,0,0,0,0,0,-1,1238,729,0,0
21,295,0,0,0,0,0,0,0,0,0,-1,1245,729,0,0
28,295,0,0,0,0,0,0,0,0,0,-1,1252,729,0,0
35,295,0,0,0,0,0,0,0,0,0,-1,1259,729,0,0
42,295,0,0,0,0,0,0,0,0,0,-1,1266,729,0,0
49,295,0,0,0,0,0,0,0,0,0,-1,1273,729,0,0
56,295,0,0,0,0,0,0,0,0,0,-1,1280,729,0,0
63,295,0,0,0,0,0,0,0,0,0,-1,1287,729,0,0
70,295,0,0,0,0,0,0,0,0,0,-1,1294,729,0,0
77,295,0,0,0,0,0,0,0,0,0,-1,1301,729,0,0
84,295,0,0,0,0,0,0,0,0,0,-1,1308,729,0,0
91,295,0,0,0,0,0,0,0,0,0,-1,1315,729,0,0
98,295,0,0,0,0,0,0,0,0,0,-1,1322,729,0,0
105,295,0,0,0,0,0,0,0,0,0,-1,1329,729,0,0
112,295,0,0,0,0,0,0,0,0,0,-1,1336,729,0,0
119,295,0,0,0,0,0,0,0,0,0,-1,1343,729,0,0
126,295,0,0,0,0,0,0,0,0,0,-1,1350,729,0,0
133,295,0,0,0,0,0,0,0,0,0,-1,1357,729,0,0
140,295,0,0,0,0,0,0,0,0,0,-1,1364,729,0,0
147,295,0,0,0,0,0,0,0,0,0,-1,1371,729,0,0
154,295,0,0,0,0,0,0,0,0,0,-1,1378,729,0,0
161,295,0,0,0,0,0,0,0,0,0,-1,1385,729,0,0
168,295,0,0,0,0,0,0,0,0,0,-1,1392,729,0,0
175,295,0,0,0,0,0,0,0,0,0,-1,1399,729,0,0
182,295,0,0,0,0,0,0,0,0,0,-1,1406,729,0,0
189,295,0,0,0,0,0,0,0,0,0,-1,1413,729,0,0
196,295,0,0,0,0,0,0,0,0,0,-1,1420,729,0,0
203,295,0,0,0,0,0,0,0,0,0,-1,1427,729,0,0
210,295,0,0,0,0,0,0,0,0,0,-1,1434,729,0,0
217,295,0,0,0,0,0,0,0,0,0,-1,1441,729,0,0
224,295,0,0,0,0,0,0,0,0,0,-1,1448,729,0,0
231,295,0,0,0,0,0,0,0,0,0,-1,1455,729,0,0
238,295,0,0,0,0,0,0,0,0,0,-1,1462,729,0,0
245,295,0,0,0,0,0,0,0,0,0,-1,1469,729,0,0
252,295,0,0,0,0,0,0,0,0,0,-1,1476,729,0,0
259,295,0,0,0,0,0,0,0,0,0,-1,1483,729,0,0
266,295,0,0,0,0,0,0,0,0,0,-1,1490,729,0,0
273,295,0,0,0,0,0,0,0,0,0,-1,1497,729,0,0
280,295,0,0,0,0,0,0,0,0,0,-1,1504,729,0,0
287,295,0,0,0,0,0,0,0,0,0,-1,1511,729,0,0
294,295,0,0,0,0,0,0,0,0,0,-1,1518,729,0,0
301,295,0,0,0,0,0,0,0,0,0,-1,1525,729,0,0
308,295,0,0,0,0,0,0,0,0,0,-1,1532,729,0,0
315,295,0,0,0,0,0,0,0,0,0,-1,1539,729,0,0
322,295,0,0,0,0,0,0,0,0,0,-1,1546,729,0,0
329,295,0,0,0,0,0,0,0,0,0,-1,1553,729,0,0
336,295,0,0,0,0,0,0,0,0,0,-1,1560,729,0,0
343,295,0,0,0,0,0,0,0,0,0,-1,1567,729,0,0
350,295,0,0,0,0,0,0,0,0,0,-1,1574,729,0,0
357,295,0,0,0,0,0,0,0,0,0,-1,1581,729,0,0
364,295,0,0,0,0,0,0,0,0,0,-1,1588,729,0,0
371,295,0,0,0,0,0,0,0,0,0,-1,1595,729,0,0
378,295,0,0,0,0,0,0,0,0,0,-1,1602,729,0,0
385,295,0,0,0,0,0,0,0,0,0,-1,1609,729,0,0
392,295,0,0,0,0,0,0,0,0,0,-1,1616,729,0,0
399,295,0,0,0,0,0,0,0,0,0,-1,1623,729,0,0
406,295,0,0,0,0,0,0,0,0,0,-1,1630,729,0,0
413,295,0,0,0,0,0,0,0,0,0,-1,1637,729,0,0
420,295,0,0,0,0,0,0,0,0,0,-1,1644,729,0,0
427,295,0,0,0,0,0,0,0,0,0,-1,1651,729,0,0
434,295,0,0,0,0,0,0,0,0,0,-1,1658,729,0,0
441,295,0,0,0,0,0,0,0,0,0,-1,1665,729,0,0
448,295,0,0,0,0,0,0,0,0,0,-1,1672,729,0,0
455,295,0,0,0,0,0,0,0,0,0,-1,1679,729,0,0
462,295,0,0,0,0,0,0,0,0,0,-1,1686,729,0,0
469,295,0,0,0,0,0,0,0,0,0,-1,1693,729,0,0
476,295,0,0,0,0,0,0,0,0,0,-1,1700,729,0,0
483,295,0,0,0,0,0,0,0,0,0,-1,1707,729,0,0
490,295,0,0,0,0,0,0,0,0,0,-1,1714,729,0,0
497,295,0,0,0,0,0,0,0,0,0,-1,1721,729,0,0
504,295,0,0,0,0,0,0,0,0,0,-1,1728,729,0,0
511,295,0,0,0,0,0,0,0,0,0,-1,1735,729,0,0
518,295,0,0,0,0,0,0,0,0,0,-1,1742,729,0,0
525,295,0,0,0,0,0,0,0,0,0,-1,1749,729,0,0
532,295,0,0,0,0,0,0,0,0,0,-1,1756,729,0,0
539,295,0,0,0,0,0,0,0,0,0,-1,1763,729,0,0
546,295,57.4674,2.36884,0,0,0,0,0,0,0,-1,1770,729,57.4674,-2.36883
553,295,57.1969,2.73846,0,0,0,0,0,0,0,-1,1777,729,57.197,-2.73843
560,295,57.0291,3.27454,0,0,0,0,0,0,0,-1,1784,729,57.029,-3.27454
567,295,56.6243,3.88239,0,0,0,0,0,0,0,-1,1791,729,56.6242,-3.8824
574,295,56.5275,4.755,0,0,0,0,0,0,0,-1,1798,729,56.5274,-4.75501
581,295,37.8191,2.19592,0,0,0,0,0,0,0,-1,1805,729,37.8191,-2.19594
588,295,39.0542,2.45679,0,0,0,0,0,0,0,-1,1812,729,39.0542,-2.45676
595,295,27.2102,6.99121,0,0,0,0,0,0,0,-1,1819,729,27.2103,-6.99121
602,295,26.9065,7.82141,0,0,0,0,0,0,0,-1,1826,729,26.9064,-7.8214
609,295,11.7737,2.19989,0,0,0,0,0,0,0,-1,1833,729,11.7736,-2.19988
616,295,39.6973,-8.26984,0,0,0,0,0,0,0,-1,1840,729,39.6973,8.26981
623,295,39.6367,-7.4361,0.00369396,-0.000313961,0.00196585,0.00449721,-0.00111721,0.387898,0.0034317,0.0388011,1847,729,39.6367,7.4361
630,295,39.5809,-6.60034,0.00296921,-0.000328749,0.00150554,0.00355312,-0.000912655,0.369979,0.0027244,0.0140193,1854,729,39.581,6.60033
637,295,39.5292,-5.79352,0.00238443,-0.000224168,0.00117752,0.00283733,-0.000677067,0.367179,0.00215303,0.0151368,1861,729,39.5292,5.79355
644,295,39.5178,-4.99854,0.00202997,-3.41463e-05,0.000989561,0.00242773,-0.000431904,0.38219,0.00178001,0.0133641,1868,729,39.5179,4.99855
651,295,39.5,-4.20123,0.00186528,0.0003726,0.000995596,0.00236322,-0.000125341,0.463763,0.00161888,0.0131514,1875,729,39.5,4.20125
658,295,39.4625,-3.422,0.00180915,0.000890343,0.00103692,0.00248388,0.000215618,0.576869,0.00158893,0.0134611,1882,729,39.4625,3.42199
665,295,39.4004,-2.63446,0.00187165,0.0015341,0.00114899,0.00286419,0.000541561,0.712475,0.00175698,0.0117804,1889,729,39.4003,2.63448
672,295,39.3323,-1.83905,0.00203367,0.00229801,0.00135256,0.00352484,0.000806837,0.834103,0.00213245,0.0131304,1896,729,39.3323,1.83907
679,295,39.287,-1.02332,0.00232803,0.0032079,0.0016528,0.00447832,0.00105761,0.915471,0.00270288,0.0103966,1903,729,39.287,1.02334
686,295,39.3123,-0.227173,0.00271408,0.00427547,0.00204803,0.00568656,0.001303,0.967493,0.00343997,0.0115704,1910,729,39.3123,0.227153
693,295,39.3444,0.561768,0,0,0,0,0,0,0,-1,1917,729,39.3444,-0.561797
700,295,31.3757,2.06982,0,0,0,0,0,0,0,-1,1924,729,31.3758,-2.0698
707,295,22.2661,3.05206,0,0,0,0,0,0,0,-1,1931,729,22.2662,-3.05207
714,295,17.4906,4.63068,0,0,0,0,0,0,0,-1,1938,729,17.4906,-4.63066
721,295,18.3792,5.32281,0,0,0,0,0,0,0,-1,1945,729,18.3791,-5.32283
728,295,17.379,3.74866,0,0,0,0,0,0,0,-1,1952,729,17.379,-3.74863
735,295,0,0,0,0,0,0,0,0,0,-1,1959,729,0,0
742,295,0,0,0,0,0,0,0,0,0,-1,1966,729,0,0
749,295,0,0,0,0,0,0,0,0,0,-1,1973,729,0,0
756,295,0,0,0,0,0,0,0,0,0,-1,1980,729,0,0
763,295,0,0,0,0,0,0,0,0,0,-1,1987,729,0,0
770,295,0,0,0,0,0,0,0,0,0,-1,1994,729,0,0
777,295,0,0,0,0,0,0,0,0,0,-1,2001,729,0,0
784,295,0,0,0,0,0,0,0,0,0,-1,2008,729,0,0
791,295,0,0,0,0,0,0,0,0,0,-1,2015,729,0,0
798,295,0,0,0,0,0,0,0,0,0,-1,2022,729,0,0
805,295,0,0,0,0,0,0,0,0,0,-1,2029,729,0,0
812,295,0,0,0,0,0,0,0,0,0,-1,2036,729,0,0
-700,288,0,0,0,0,0,0,0,0,0,-1,524,736,0,0
-693,288,0,0,0,0,0,0,0,0,0,-1,531,736,0,0
-686,288,0,0,0,0,0,0,0,0,0,-1,538,736,0,0
-679,288,0,0,0,0,0,0,0,0,0,-1,545,736,0,0
-672,288,0,0,0,0,0,0,0,0,0,-1,552,736,0,0
-665,288,0,0,0,0,0,0,0,0,0,-1,559,736,0,0
-658,288,0,0,0,0,0,0,0,0,0,-1,566,736,0,0
-651,288,0,0,0,0,0,0,0,0,0,-1,573,736,0,0
-644,288,0,0,0,0,0,0,0,0,0,-1,580,736,0,0
-637,288,0,0,0,0,0,0,0,0,0,-1,587,736,0,0
-630,288,0,0,0,0,0,0,0,0,0,-1,594,736,0,0
-623,288,0,0,0,0,0,0,0,0,0,-1,601,736,0,0
-616,288,-11.7584,2.4425,0,0,0,0,0,0,0,-1,608,736,-11.7584,-2.44251
-609,288,-10.3007,2.32178,0,0,0,0,0,0,0,-1,615,736,-10.3007,-2.32178
-602,288,-10.1458,-1.85559,0,0,0,0,0,0,0,-1,622,736,-10.1458,1.85556
-595,288,-7.63208,1.81769,0,0,0,0,0,0,0,-1,629,736,-7.63205,-1.81766
-588,288,-8.19269,1.50598,0,0,0,0,0,0,0,-1,636,736,-8.19268,-1.50601
-581,288,-13.1915,0.659241,0,0,0,0,0,0,0,-1,643,736,-13.1915,-0.659228
-574,288,-25.5748,0.0823364,0,0,0,0,0,0,0,-1,650,736,-25.5748,-0.0823324
-567,288,-25.7423,-0.74646,-0.00469986,0.00605006,-0.00282179,0.00674574,-0.00539554,-1.32908,0.00702421,0.0396833,657,736,-25.7423,0.746447
-560,288,-26.0234,-1.5929,-0.00280141,0.00437525,-0.00176797,0.00478715,-0.00321331,-1.3419,0.00464876,0.0167829,664,736,-26.0234,1.59289
-553,288,-26.0389,-2.34351,-0.00140772,0.00309853,-0.00103374,0.00332435,-0.00163354,-1.35572,0.0029174,0.0184506,671,736,-26.0389,2.34349
-546,288,-26.0884,-3.08881,-0.000638442,0.00179075,-0.000398963,0.00185459,-0.000702288,-1.41211,0.00152537,0.0208383,678,736,-26.0884,3.0888
-539,288,-26.1349,-3.82684,-0.000260928,0.000526686,0.000241526,0.000594851,-0.000329093,1.29572,0.000540745,0.0184566,685,736,-26.1349,3.82685
-532,288,-26.1259,-4.60785,-0.000216727,-0.000789123,0.000850751,0.000394675,-0.00140053,0.623141,0.00108934,0.0149795,692,736,-26.1259,4.60786
-525,288,-26.1835,-5.4126,-0.000484196,-0.00204798,0.00133922,0.000284672,-0.00281685,0.521171,0.00197963,0.0135841,699,736,-26.1835,5.41259
-518,288,-26.2632,-6.18512,-0.00104524,-0.00325747,0.00188458,3.38524e-05,-0.00433656,0.520021,0.00290239,0.0119553,706,736,-26.2632,6.18511
-511,288,-26.2944,-6.94531,-0.00184169,-0.00430682,0.00246831,-0.000315313,-0.0058332,0.553833,0.00378807,0.00911482,713,736,-26.2944,6.94531
-504,288,-26.3184,-7.71729,-0.00276041,-0.00535654,0.00312236,-0.000677038,-0.00743991,0.588401,0.00475037,0.011619,720,736,-26.3184,7.71728
-497,288,-26.3445,-8.27362,-0.00355341,-0.00618829,0.00369712,-0.000946009,-0.00879569,0.614241,0.00557527,0.0360404,727,736,-26.3445,8.27364
-490,288,-26.2763,-8.75397,0,0,0,0,0,0,0,-1,734,736,-26.2763,8.75395
-483,288,-17.3287,0.564758,0,0,0,0,0,0,0,-1,741,736,-17.3287,-0.56477
-476,288,-26.136,0.452148,0,0,0,0,0,0,0,-1,748,736,-26.136,-0.452177
-469,288,-27.7904,0.649841,0,0,0,0,0,0,0,-1,755,736,-27.7904,-0.649854
-462,288,-44.999,-2.65112,0,0,0,0,0,0,0,-1,762,736,-44.999,2.65111
-455,288,-49.1631,1.86432,0,0,0,0,0,0,0,-1,769,736,-49.1632,-1.8643
-448,288,-48.5654,1.58948,0,0,0,0,0,0,0,-1,776,736,-48.5654,-1.58949
-441,288,-47.7353,1.50165,0,0,0,0,0,0,0,-1,783,736,-47.7353,-1.50164
-434,288,-46.7119,1.66388,0,0,0,0,0,0,0,-1,790,736,-46.7119,-1.66385
-427,288,0,0,0,0,0,0,0,0,0,-1,797,736,0,0
-420,288,0,0,0,0,0,0,0,0,0,-1,804,736,0,0
-413,288,0,0,0,0,0,0,0,0,0,-1,811,736,0,0
-406,288,0,0,0,0,0,0,0,0,0,-1,818,736,0,0
-399,288,0,0,0,0,0,0,0,0,0,-1,825,736,0,0
-392,288,0,0,0,0,0,0,0,0,0,-1,832,736,0,0
-385,288,0,0,0,0,0,0,0,0,0,-1,839,736,0,0
-378,288,0,0,0,0,0,0,0,0,0,-1,846,736,0,0
-371,288,0,0,0,0,0,0,0,0,0,-1,853,736,0,0
-364,288,0,0,0,0,0,0,0,0,0,-1,860,736,0,0
-357,288,0,0,0,0,0,0,0,0,0,-1,867,736,0,0
-350,288,0,0,0,0,0,0,0,0,0,-1,874,736,0,0
-343,288,0,0,0,0,0,0,0,0,0,-1,881,736,0,0
-336,288,0,0,0,0,0,0,0,0,0,-1,888,736,0,0
-329,288,0,0,0,0,0,0,0,0,0,-1,895,736,0,0
-322,288,0,0,0,0,0,0,0,0,0,-1,902,736,0,0
-315,288,0,0,0,0,0,0,0,0,0,-1,909,736,0,0
-308,288,0,0,0,0,0,0,0,0,0,-1,916,736,0,0
-301,288,0,0,0,0,0,0,0,0,0,-1,923,736,0,0
-294,288,0,0,0,0,0,0,0,0,0,-1,930,736,0,0
-287,288,0,0,0,0,0,0,0,0,0,-1,937,736,0,0
-280,288,0,0,0,0,0,0,0,0,0,-1,944,736,0,0
-273,288,0,0,0,0,0,0,0,0,0,-1,951,736,0,0
-266,288,0,0,0,0,0,0,0,0,0,-1,958,736,0,0
-259,288,0,0,0,0,0,0,0,0,0,-1,965,736,0,0
-252,288,0,0,0,0,0,0,0,0,0,-1,972,736,0,0
-245,288,0,0,0,0,0,0,0,0,0,-1,979,736,0,0
-238,288,0,0,0,0,0,0,0,0,0,-1,986,736,0,0
-231,288,0,0,0,0,0,0,0,0,0,-1,993,736,0,0
-224,288,0,0,0,0,0,0,0,0,0,-1,1000,736,0,0
-217,288,0,0,0,0,0,0,0,0,0,-1,1007,736,0,0
-210,288,0,0,0,0,0,0,0,0,0,-1,1014,736,0,0
-203,288,0,0,0,0,0,0,0,0,0,-1,1021,736,0,0
-196,288,0,0,0,0,0,0,0,0,0,-1,1028,736,0,0
-189,288,0,0,0,0,0,0,0,0,0,-1,1035,736,0,0
-182,288,0,0,0,0,0,0,0,0,0,-1,1042,736,0,0
-175,288,0,0,0,0,0,0,0,0,0,-1,1049,736,0,0
-168,288,0,0,0,0,0,0,0,0,0,-1,1056,736,0,0
-161,288,0,0,0,0,0,0,0,0,0,-1,1063,736,0,0
-154,288,0,0,0,0,0,0,0,0,0,-1,1070,736,0,0
-147,288,0,0,0,0,0,0,0,0,0,-1,1077,736,0,0
-140,288,0,0,0,0,0,0,0,0,0,-1,1084,736,0,0
-133,288,0,0,0,0,0,0,0,0,0,-1,1091,736,0,0
-126,288,0,0,0,0,0,0,0,0,0,-1,1098,736,0,0
-119,288,0,0,0,0,0,0,0,0,0,-1,1105,736,0,0
-112,288,0,0,0,0,0,0,0,0,0,-1,1112,736,0,0
-105,288,0,0,0,0,0,0,0,0,0,-1,1119,736,0,0
-98,288,0,0,0,0,0,0,0,0,0,-1,1126,736,0,0
-91,288,0,0,0,0,0,0,0,0,0,-1,1133,736,0,0
-84,288,0,0,0,0,0,0,0,0,0,-1,1140,736,0,0
-77,288,0,0,0,0,0,0,0,0,0,-1,1147,736,0,0
-70,288,0,0,0,0,0,0,0,0,0,-1,1154,736,0,0
-63,288,0,0,0,0,0,0,0,0,0,-1,1161,736,0,0
-56,288,0,0,0,0,0,0,0,0,0,-1,1168,736,0,0
-49,288,0,0,0,0,0,0,0,0,0,-1,1175,736,0,0
-42,288,0,0,0,0,0,0,0,0,0,-1,1182,736,0,0
-35,288,0,0,0,0,0,0,0,0,0,-1,1189,736,0,0
-28,288,0,0,0,0,0,0,0,0,0,-1,1196,736,0,0
-21,288,0,0,0,0,0,0,0,0,0,-1,1203,736,0,0
-14,288,0,0,0,0,0,0,0,0,0,-1,1210,736,0,0
-7,288,0,0,0,0,0,0,0,0,0,-1,1217,736,0,0
0,288,0,0,0,0,0,0,0,0,0,-1,1224,736,0,0
7,288,0,0,0,0,0,0,0,0,0,-1,1231,736,0,0
14,288,0,0,0,0,0,0,0,0,0,-1,1238,736,0,0
21,288,0,0,0,0,0,0,0,0,0,-1,1245,736,0,0
28,288,0,0,0,0,0,0,0,0,0,-1,1252,736,0,0
35,288,0,0,0,0,0,0,0,0,0,-1,1259,736,0,0
42,288,0,0,0,0,0,0,0,0,0,-1,1266,736,0,0
49,288,0,0,0,0,0,0,0,0,0,-1,1273,736,0,0
56,288,0,0,0,0,0,0,0,0,0,-1,1280,736,0,0
63,288,0,0,0,0,0,0,0,0,0,-1,1287,736,0,0
70,288,0,0,0,0,0,0,0,0,0,-1,1294,736,0,0
77,288,0,0,0,0,0,0,0,0,0,-1,1301,736,0,0
84,288,0,0,0,0,0,0,0,0,0,-1,1308,736,0,0
91,288,0,0,0,0,0,0,0,0,0,-1,1315,736,0,0
98,288,0,0,0,0,0,0,0,0,0,-1,1322,736,0,0
105,288,0,0,0,0,0,0,0,0,0,-1,1329,736,0,0
112,288,0,0,0,0,0,0,0,0,0,-1,1336,736,0,0
119,288,0,0,0,0,0,0,0,0,0,-1,1343,736,0,0
126,288,0,0,0,0,0,0,0,0,0,-1,1350,736,0,0
133,288,0,0,0,0,0,0,0,0,0,-1,1357,736,0,0
140,288,0,0,0,0,0,0,0,0,0,-1,1364,736,0,0
147,288,0,0,0,0,0,0,0,0,0,-1,1371,736,0,0
154,288,0,0,0,0,0,0,0,0,0,-1,1378,736,0,0
161,288,0,0,0,0,0,0,0,0,0,-1,1385,736,0,0
168,288,0,0,0,0,0,0,0,0,0,-1,1392,736,0,0
175,288,0,0,0,0,0,0,0,0,0,-1,1399,736,0,0
182,288,0,0,0,0,0,0,0,0,0,-1,1406,736,0,0
189,288,0,0,0,0,0,0,0,0,0,-1,1413,736,0,0
196,288,0,0,0,0,0,0,0,0,0,-1,1420,736,0,0
203,288,0,0,0,0,0,0,0,0,0,-1,1427,736,0,0
210,288,0,0,0,0,0,0,0,0,0,-1,1434,736,0,0
217,288,0,0,0,0,0,0,0,0,0,-1,1441,736,0,0
224,288,0,0,0,0,0,0,0,0,0,-1,1448,736,0,0
231,288,0,0,0,0,0,0,0,0,0,-1,1455,736,0,0
238,288,0,0,0,0,0,0,0,0,0,-1,1462,736,0,0
245,288,0,0,0,0,0,0,0,0,0,-1,1469,736,0,0
252,288,0,0,0,0,0,0,0,0,0,-1,1476,736,0,0
259,288,0,0,0,0,0,0,0,0,0,-1,1483,736,0,0
266,288,0,0,0,0,0,0,0,0,0,-1,1490,736,0,0
273,288,0,0,0,0,0,0,0,0,0,-1,1497,736,0,0
280,288,0,0,0,0,0,0,0,0,0,-1,1504,736,0,0
287,288,0,0,0,0,0,0,0,0,0,-1,1511,736,0,0
294,288,0,0,0,0,0,0,0,0,0,-1,1518,736,0,0
301,288,0,0,0,0,0,0,0,0,0,-1,1525,736,0,0
308,288,0,0,0,0,0,0,0,0,0,-1,1532,736,0,0
315,288,0,0,0,0,0,0,0,0,0,-1,1539,736,0,0
322,288,0,0,0,0,0,0,0,0,0,-1,1546,736,0,0
329,288,0,0,0,0,0,0,0,0,0,-1,1553,736,0,0
336,288,0,0,0,0,0,0,0,0,0,-1,1560,736,0,0
343,288,0,0,0,0,0,0,0,0,0,-1,1567,736,0,0
350,288,0,0,0,0,0,0,0,0,0,-1,1574,736,0,0
357,288,0,0,0,0,0,0,0,0,0,-1,1581,736,0,0
364,288,0,0,0,0,0,0,0,0,0,-1,1588,736,0,0
371,288,0,0,0,0,0,0,0,0,0,-1,1595,736,0,0
378,288,0,0,0,0,0,0,0,0,0,-1,1602,736,0,0
385,288,0,0,0,0,0,0,0,0,0,-1,1609,736,0,0
392,288,0,0,0,0,0,0,0,0,0,-1,1616,736,0,0
399,288,0,0,0,0,0,0,0,0,0,-1,1623,736,0,0
406,288,0,0,0,0,0,0,0,0,0,-1,1630,736,0,0
413,288,0,0,0,0,0,0,0,0,0,-1,1637,736,0,0
420,288,0,0,0,0,0,0,0,0,0,-1,1644,736,0,0
427,288,0,0,0,0,0,0,0,0,0,-1,1651,736,0,0
434,288,0,0,0,0,0,0,0,0,0,-1,1658,736,0,0
441,288,0,0,0,0,0,0,0,0,0,-1,1665,736,0,0
448,288,0,0,0,0,0,0,0,0,0,-1,1672,736,0,0
455,288,0,0,0,0,0,0,0,0,0,-1,1679,736,0,0
462,288,0,0,0,0,0,0,0,0,0,-1,1686,736,0,0
469,288,0,0,0,0,0,0,0,0,0,-1,1693,736,0,0
476,288,0,0,0,0,0,0,0,0,0,-1,1700,736,0,0
483,288,0,0,0,0,0,0,0,0,0,-1,1707,736,0,0
490,288,0,0,0,0,0,0,0,0,0,-1,1714,736,0,0
497,288,0,0,0,0,0,0,0,0,0,-1,1721,736,0,0
504,288,0,0,0,0,0,0,0,0,0,-1,1728,736,0,0
511,288,0,0,0,0,0,0,0,0,0,-1,1735,736,0,0
518,288,0,0,0,0,0,0,0,0,0,-1,1742,736,0,0
525,288,0,0,0,0,0,0,0,0,0,-1,1749,736,0,0
532,288,0,0,0,0,0,0,0,0,0,-1,1756,736,0,0
539,288,0,0,0,0,0,0,0,0,0,-1,1763,736,0,0
546,288,0,0,0,0,0,0,0,0,0,-1,1770,736,0,0
553,288,57.4934,2.28064,0,0,0,0,0,0,0,-1,1777,736,57.4934,-2.28064
560,288,57.3807,3.02881,0,0,0,0,0,0,0,-1,1784,736,57.3808,-3.0288
567,288,57.2081,3.74274,0,0,0,0,0,0,0,-1,1791,736,57.2081,-3.74273
574,288,56.9817,4.36981,0,0,0,0,0,0,0,-1,1798,736,56.9816,-4.36984
581,288,53.4904,5.33215,0,0,0,0,0,0,0,-1,1805,736,53.4904,-5.33218
588,288,54.9313,3.29852,0,0,0,0,0,0,0,-1,1812,736,54.9313,-3.29849
595,288,47.035,3.35156,0,0,0,0,0,0,0,-1,1819,736,47.035,-3.35157
602,288,26.7634,7.61279,0,0,0,0,0,0,0,-1,1826,736,26.7635,-7.61279
609,288,17.5223,4.86414,0,0,0,0,0,0,0,-1,1833,736,17.5223,-4.86412
616,288,13.4886,0.801331,0,0,0,0,0,0,0,-1,1840,736,13.4886,-0.80132
623,288,40.403,-7.32153,0,0,0,0,0,0,0,-1,1847,736,40.4029,7.32154
630,288,40.3682,-6.52338,0.00325596,-2.64604e-06,0.00183122,0.00407778,-0.000824467,0.421841,0.00303095,0.0292951,1854,736,40.3681,6.52338
637,288,40.3438,-5.7301,0.00270245,3.2854e-05,0.00142188,0.00331789,-0.00058259,0.408489,0.00242952,0.0122279,1861,736,40.3438,5.73012
644,288,40.3197,-4.95526,0.00227219,-4.57952e-06,0.00112546,0.00273461,-0.000466998,0.389844,0.00199702,0.0109196,1868,736,40.3197,4.95528
651,288,40.2906,-4.17871,0.00205064,0.000229608,0.00107892,0.0025519,-0.000271651,0.434923,0.00179867,0.0122606,1875,736,40.2906,4.17872
658,288,40.2426,-3.34998,0.00194578,0.000620051,0.00105908,0.00253233,3.3501e-05,0.505779,0.00167717,0.017261,1882,736,40.2426,3.34998
665,288,40.2289,-2.57135,0.00194336,0.0011872,0.00112053,0.00274787,0.000382689,0.62269,0.00171861,0.0171293,1889,736,40.2289,2.57135
672,288,40.1467,-1.79401,0.00200805,0.00186997,0.00127952,0.00322039,0.000657625,0.758445,0.00196475,0.0154875,1896,736,40.1468,1.794
679,288,40.097,-0.989136,0.00219191,0.00266347,0.00155489,0.00400035,0.000855026,0.860645,0.00243251,0.0131546,1903,736,40.0971,0.989128
686,288,40.0573,-0.217712,0.00244193,0.00361736,0.00191428,0.00503211,0.00102718,0.934338,0.00307017,0.0108932,1910,736,40.0573,0.217731
693,288,40.0599,0.671631,0.00289783,0.00485925,0.00248736,0.00655225,0.00120483,0.97318,0.00402709,0.0268879,1917,736,40.0599,-0.671651
700,288,40.0609,1.63257,0,0,0,0,0,0,0,-1,1924,736,40.0609,-1.63258
707,288,30.9496,3.07977,0,0,0,0,0,0,0,-1,1931,736,30.9496,-3.07975
714,288,23.0149,3.82544,0,0,0,0,0,0,0,-1,1938,736,23.0149,-3.82541
721,288,18.0732,3.69385,0,0,0,0,0,0,0,-1,1945,736,18.0732,-3.69387
728,288,19.3208,3.91455,0,0,0,0,0,0,0,-1,1952,736,19.3209,-3.91455
735,288,18.7712,3.51312,0,0,0,0,0,0,0,-1,1959,736,18.7713,-3.51309
742,288,0,0,0,0,0,0,0,0,0,-1,1966,736,0,0
749,288,0,0,0,0,0,0,0,0,0,-1,1973,736,0,0
756,288,0,0,0,0,0,0,0,0,0,-1,1980,736,0,0
763,288,0,0,0,0,0,0,0,0,0,-1,1987,736,0,0
770,288,0,0,0,0,0,0,0,0,0,-1,1994,736,0,0
777,288,0,0,0,0,0,0,0,0,0,-1,2001,736,0,0
784,288,0,0,0,0,0,0,0,0,0,-1,2008,736,0,0
791,288,0,0,0,0,0,0,0,0,0,-1,2015,736,0,0
798,288,0,0,0,0,0,0,0,0,0,-1,2022,736,0,0
805,288,0,0,0,0,0,0,0,0,0,-1,2029,736,0,0
812,288,0,0,0,0,0,0,0,0,0,-1,2036,736,0,0
-700,281,0,0,0,0,0,0,0,0,0,-1,524,743,0,0
-693,281,0,0,0,0,0,0,0,0,0,-1,531,743,0,0
-686,281,0,0,0,0,0,0,0,0,0,-1,538,743,0,0
-679,281,0,0,0,0,0,0,0,0,0,-1,545,743,0,0
-672,281,0,0,0,0,0,0,0,0,0,-1,552,743,0,0
-665,281,0,0,0,0,0,0,0,0,0,-1,559,743,0,0
-658,281,0,0,0,0,0,0,0,0,0,-1,566,743,0,0
-651,281,0,0,0,0,0,0,0,0,0,-1,573,743,0,0
-644,281,0,0,0,0,0,0,0,0,0,-1,580,743,0,0
-637,281,0,0,0,0,0,0,0,0,0,-1,587,743,0,0
-630,281,0,0,0,0,0,0,0,0,0,-1,594,743,0,0
-623,281,-19.1697,5.67017,0,0,0,0,0,0,0,-1,601,743,-19.1697,-5.67019
-616,281,-11.5906,2.6853,0,0,0,0,0,0,0,-1,608,743,-11.5906,-2.68529
-609,281,-16.1972,4.14838,0,0,0,0,0,0,0,-1,615,743,-16.1972,-4.14837
-602,281,-21.9772,6.77417,0,0,0,0,0,0,0,-1,622,743,-21.9771,-6.77415
-595,281,-10.4797,-1.07404,0,0,0,0,0,0,0,-1,629,743,-10.4798,1.07402
-588,281,-13.277,1.49817,0,0,0,0,0,0,0,-1,636,743,-13.2771,-1.49817
-581,281,-26.6636,0.550476,0,0,0,0,0,0,0,-1,643,743,-26.6636,-0.550455
-574,281,-26.5476,-0.0619507,-0.00613452,0.00795055,-0.00543425,0.00980343,-0.00798739,-1.24219,0.0102894,0.0457931,650,743,-26.5476,0.0619649
-567,281,-26.7415,-0.743713,-0.00421191,0.00570481,-0.00339406,0.00675519,-0.00526229,-1.27067,0.00695612,0.0234808,657,743,-26.7415,0.743698
-560,281,-26.8317,-1.53076,-0.00279579,0.00396475,-0.00201265,0.00451856,-0.0033496,-1.30228,0.00455936,0.00951783,664,743,-26.8317,1.53077
-553,281,-26.8306,-2.29425,-0.00177486,0.00253692,-0.000981957,0.00275002,-0.00198796,-1.3571,0.00274724,0.014207,671,743,-26.8306,2.29425
-546,281,-26.8519,-3.00598,-0.00121758,0.00109925,-0.000120479,0.00110549,-0.00122383,-1.51898,0.00134541,0.0167289,678,743,-26.8519,3.00598
-539,281,-26.8858,-3.77203,-0.000988309,-0.000290047,0.000723047,0.000163748,-0.0014421,1.01032,0.00102037,0.0154539,685,743,-26.8858,3.77205
-532,281,-26.9122,-4.52777,-0.00103602,-0.00171131,0.00145929,0.00012418,-0.00287151,0.67171,0.00195704,0.0152959,692,743,-26.9122,4.52774
-525,281,-26.9926,-5.32916,-0.00133513,-0.00300193,0.00199213,-9.10554e-06,-0.00432796,0.587287,0.00288228,0.0173319,699,743,-26.9925,5.32914
-518,281,-27.0526,-6.14069,-0.00191519,-0.00417296,0.00251275,-0.000289386,-0.00579877,0.574278,0.00377308,0.0136868,706,743,-27.0526,6.14071
-511,281,-27.0808,-6.92603,-0.00264441,-0.00505031,0.00299496,-0.000619845,-0.00707487,0.594431,0.00452414,0.0120062,713,743,-27.0808,6.92601
-504,281,-27.1583,-7.70459,-0.00340782,-0.00590379,0.00348078,-0.000958059,-0.00835355,0.613269,0.00527874,0.0166458,720,743,-27.1583,7.70457
-497,281,-27.2322,-8.46906,0,0,0,0,0,0,0,-1,727,743,-27.2321,8.46908
-490,281,-26.6901,-9.1051,0,0,0,0,0,0,0,-1,734,743,-26.6901,9.1051
-483,281,-22.1078,-2.34973,0,0,0,0,0,0,0,-1,741,743,-22.1078,2.3497
-476,281,-28.0016,2.17786,0,0,0,0,0,0,0,-1,748,743,-28.0016,-2.17786
-469,281,-34.6448,0.171692,0,0,0,0,0,0,0,-1,755,743,-34.6448,-0.171685
-462,281,-46.6214,0.0193481,0,0,0,0,0,0,0,-1,762,743,-46.6214,-0.0193665
-455,281,-49.1075,1.17645,0,0,0,0,0,0,0,-1,769,743,-49.1075,-1.17644
-448,281,-49.0774,1.43488,0,0,0,0,0,0,0,-1,776,743,-49.0774,-1.43486
-441,281,-48.6077,1.65411,0,0,0,0,0,0,0,-1,783,743,-48.6077,-1.65409
-434,281,0,0,0,0,0,0,0,0,0,-1,790,743,0,0
-427,281,0,0,0,0,0,0,0,0,0,-1,797,743,0,0
-420,281,0,0,0,0,0,0,0,0,0,-1,804,743,0,0
-413,281,0,0,0,0,0,0,0,0,0,-1,811,743,0,0
-406,281,0,0,0,0,0,0,0,0,0,-1,818,743,0,0
-399,281,0,0,0,0,0,0,0,0,0,-1,825,743,0,0
-392,281,0,0,0,0,0,0,0,0,0,-1,832,743,0,0
-385,281,0,0,0,0,0,0,0,0,0,-1,839,743,0,0
-378,281,0,0,0,0,0,0,0,0,0,-1,846,743,0,0
-371,281,0,0,0,0,0,0,0,0,0,-1,853,743,0,0
-364,281,0,0,0,0,0,0,0,0,0,-1,860,743,0,0
-357,281,0,0,0,0,0,0,0,0,0,-1,867,743,0,0
-350,281,0,0,0,0,0,0,0,0,0,-1,874,743,0,0
-343,281,0,0,0,0,0,0,0,0,0,-1,881,743,0,0
-336,281,0,0,0,0,0,0,0,0,0,-1,888,743,0,0
-329,281,0,0,0,0,0,0,0,0,0,-1,895,743,0,0
-322,281,0,0,0,0,0,0,0,0,0,-1,902,743,0,0
-315,281,0,0,0,0,0,0,0,0,0,-1,909,743,0,0
-308,281,0,0,0,0,0,0,0,0,0,-1,916,743,0,0
-301,281,0,0,0,0,0,0,0,0,0,-1,923,743,0,0
-294,281,0,0,0,0,0,0,0,0,0,-1,930,743,0,0
-287,281,0,0,0,0,0,0,0,0,0,-1,937,743,0,0
-280,281,0,0,0,0,0,0,0,0,0,-1,944,743,0,0
-273,281,0,0,0,0,0,0,0,0,0,-1,951,743,0,0
-266,281,0,0,0,0,0,0,0,0,0,-1,958,743,0,0
-259,281,0,0,0,0,0,0,0,0,0,-1,965,743,0,0
-252,281,0,0,0,0,0,0,0,0,0,-1,972,743,0,0
-245,281,0,0,0,0,0,0,0,0,0,-1,979,743,0,0
-238,281,0,0,0,0,0,0,0,0,0,-1,986,743,0,0
-231,281,0,0,0,0,0,0,0,0,0,-1,993,743,0,0
-224,281,0,0,0,0,0,0,0,0,0,-1,1000,743,0,0
-217,281,0,0,0,0,0,0,0,0,0,-1,1007,743,0,0
-210,281,0,0,0,0,0,0,0,0,0,-1,1014,743,0,0
-203,281,0,0,0,0,0,0,0,0,0,-1,1021,743,0,0
-196,281,0,0,0,0,0,0,0,0,0,-1,1028,743,0,0
-189,281,0,0,0,0,0,0,0,0,0,-1,1035,743,0,0
-182,281,0,0,0,0,0,0,0,0,0,-1,1042,743,0,0
-175,281,0,0,0,0,0,0,0,0,0,-1,1049,743,0,0
-168,281,0,0,0,0,0,0,0,0,0,-1,1056,743,0,0
-161,281,0,0,0,0,0,0,0,0,0,-1,1063,743,0,0
-154,281,0,0,0,0,0,0,0,0,0,-1,1070,743,0,0
-147,281,0,0,0,0,0,0,0,0,0,-1,1077,743,0,0
-140,281,0,0,0,0,0,0,0,0,0,-1,1084,743,0,0
-133,281,0,0,0,0,0,0,0,0,0,-1,1091,743,0,0
-126,281,0,0,0,0,0,0,0,0,0,-1,1098,743,0,0
-119,281,0,0,0,0,0,0,0,0,0,-1,1105,743,0,0
-112,281,0,0,0,0,0,0,0,0,0,-1,1112,743,0,0
-105,281,0,0,0,0,0,0,0,0,0,-1,1119,743,0,0
-98,281,0,0,0,0,0,0,0,0,0,-1,1126,743,0,0
-91,281,0,0,0,0,0,0,0,0,0,-1,1133,743,0,0
-84,281,0,0,0,0,0,0,0,0,0,-1,1140,743,0,0
-77,281,0,0,0,0,0,0,0,0,0,-1,1147,743,0,0
-70,281,0,0,0,0,0,0,0,0,0,-1,1154,743,0,0
-63,281,0,0,0,0,0,0,0,0,0,-1,1161,743,0,0
-56,281,0,0,0,0,0,0,0,0,0,-1,1168,743,0,0
-49,281,0,0,0,0,0,0,0,0,0,-1,1175,743,0,0
-42,281,0,0,0,0,0,0,0,0,0,-1,1182,743,0,0
-35,281,0,0,0,0,0,0,0,0,0,-1,1189,743,0,0
-28,281,0,0,0,0,0,0,0,0,0,-1,1196,743,0,0
-21,281,0,0,0,0,0,0,0,0,0,-1,1203,743,0,0
-14,281,0,0,0,0,0,0,0,0,0,-1,1210,743,0,0
-7,281,0,0,0,0,0,0,0,0,0,-1,1217,743,0,0
0,281,0,0,0,0,0,0,0,0,0,-1,1224,743,0,0
7,281,0,0,0,0,0,0,0,0,0,-1,1231,743,0,0
14,281,0,0,0,0,0,0,0,0,0,-1,1238,743,0,0
21,281,0,0,0,0,0,0,0,0,0,-1,1245,743,0,0
28,281,0,0,0,0,0,0,0,0,0,-1,1252,743,0,0
35,281,0,0,0,0,0,0,0,0,0,-1,1259,743,0,0
42,281,0,0,0,0,0,0,0,0,0,-1,1266,743,0,0
49,281,0,0,0,0,0,0,0,0,0,-1,1273,743,0,0
56,281,0,0,0,0,0,0,0,0,0,-1,1280,743,0,0
63,281,0,0,0,0,0,0,0,0,0,-1,1287,743,0,0
70,281,0,0,0,0,0,0,0,0,0,-1,1294,743,0,0
77,281,0,0,0,0,0,0,0,0,0,-1,1301,743,0,0
84,281,0,0,0,0,0,0,0,0,0,-1,1308,743,0,0
91,281,0,0,0,0,0,0,0,0,0,-1,1315,743,0,0
98,281,0,0,0,0,0,0,0,0,0,-1,1322,743,0,0
105,281,0,0,0,0,0,0,0,0,0,-1,1329,743,0,0
112,281,0,0,0,0,0,0,0,0,0,-1,1336,743,0,0
119,281,0,0,0,0,0,0,0,0,0,-1,1343,743,0,0
126,281,0,0,0,0,0,0,0,0,0,-1,1350,743,0,0
133,281,0,0,0,0,0,0,0,0,0,-1,1357,743,0,0
140,281,0,0,0,0,0,0,0,0,0,-1,1364,743,0,0
147,281,0,0,0,0,0,0,0,0,0,-1,1371,743,0,0
154,281,0,0,0,0,0,0,0,0,0,-1,1378,743,0,0
161,281,0,0,0,0,0,0,0,0,0,-1,1385,743,0,0
168,281,0,0,0,0,0,0,0,0,0,-1,1392,743,0,0
175,281,0,0,0,0,0,0,0,0,0,-1,1399,743,0,0
182,281,0,0,0,0,0,0,0,0,0,-1,1406,743,0,0
189,281,0,0,0,0,0,0,0,0,0,-1,1413,743,0,0
196,281,0,0,0,0,0,0,0,0,0,-1,1420,743,0,0
203,281,0,0,0,0,0,0,0,0,0,-1,1427,743,0,0
210,281,0,0,0,0,0,0,0,0,0,-1,1434,743,0,0
217,281,0,0,0,0,0,0,0,0,0,-1,1441,743,0,0
224,281,0,0,0,0,0,0,0,0,0,-1,1448,743,0,0
231,281,0,0,0,0,0,0,0,0,0,-1,1455,743,0,0
238,281,0,0,0,0,0,0,0,0,0,-1,1462,743,0,0
245,281,0,0,0,0,0,0,0,0,0,-1,1469,743,0,0
252,281,0,0,0,0,0,0,0,0,0,-1,1476,743,0,0
259,281,0,0,0,0,0,0,0,0,0,-1,1483,743,0,0
266,281,0,0,0,0,0,0,0,0,0,-1,1490,743,0,0
273,281,0,0,0,0,0,0,0,0,0,-1,1497,743,0,0
280,281,0,0,0,0,0,0,0,0,0,-1,1504,743,0,0
287,281,0,0,0,0,0,0,0,0,0,-1,1511,743,0,0
294,281,0,0,0,0,0,0,0,0,0,-1,1518,743,0,0
301,281,0,0,0,0,0,0,0,0,0,-1,1525,743,0,0
308,281,0,0,0,0,0,0,0,0,0,-1,1532,743,0,0
315,281,0,0,0,0,0,0,0,0,0,-1,1539,743,0,0
322,281,0,0,0,0,0,0,0,0,0,-1,1546,743,0,0
329,281,0,0,0,0,0,0,0,0,0,-1,1553,743,0,0
336,281,0,0,0,0,0,0,0,0,0,-1,1560,743,0,0
343,281,0,0,0,0,0,0,0,0,0,-1,1567,743,0,0
350,281,0,0,0,0,0,0,0,0,0,-1,1574,743,0,0
357,281,0,0,0,0,0,0,0,0,0,-1,1581,743,0,0
364,281,0,0,0,0,0,0,0,0,0,-1,1588,743,0,0
371,281,0,0,0,0,0,0,0,0,0,-1,1595,743,0,0
378,281,0,0,0,0,0,0,0,0,0,-1,1602,743,0,0
385,281,0,0,0,0,0,0,0,0,0,-1,1609,743,0,0
392,281,0,0,0,0,0,0,0,0,0,-1,1616,743,0,0
399,281,0,0,0,0,0,0,0,0,0,-1,1623,743,0,0
406,281,0,0,0,0,0,0,0,0,0,-1,1630,743,0,0
413,281,0,0,0,0,0,0,0,0,0,-1,1637,743,0,0
420,281,0,0,0,0,0,0,0,0,0,-1,1644,743,0,0
427,281,0,0,0,0,0,0,0,0,0,-1,1651,743,0,0
434,281,0,0,0,0,0,0,0,0,0,-1,1658,743,0,0
441,281,0,0,0,0,0,0,0,0,0,-1,1665,743,0,0
448,281,0,0,0,0,0,0,0,0,0,-1,1672,743,0,0
455,281,0,0,0,0,0,0,0,0,0,-1,1679,743,0,0
462,281,0,0,0,0,0,0,0,0,0,-1,1686,743,0,0
469,281,0,0,0,0,0,0,0,0,0,-1,1693,743,0,0
476,281,0,0,0,0,0,0,0,0,0,-1,1700,743,0,0
483,281,0,0,0,0,0,0,0,0,0,-1,1707,743,0,0
490,281,0,0,0,0,0,0,0,0,0,-1,1714,743,0,0
497,281,0,0,0,0,0,0,0,0,0,-1,1721,743,0,0
504,281,0,0,0,0,0,0,0,0,0,-1,1728,743,0,0
511,281,0,0,0,0,0,0,0,0,0,-1,1735,743,0,0
518,281,0,0,0,0,0,0,0,0,0,-1,1742,743,0,0
525,281,0,0,0,0,0,0,0,0,0,-1,1749,743,0,0
532,281,0,0,0,0,0,0,0,0,0,-1,1756,743,0,0
539,281,0,0,0,0,0,0,0,0,0,-1,1763,743,0,0
546,281,0,0,0,0,0,0,0,0,0,-1,1770,743,0,0
553,281,0,0,0,0,0,0,0,0,0,-1,1777,743,0,0
560,281,57.8354,3.06482,0,0,0,0,0,0,0,-1,1784,743,57.8354,-3.06479
567,281,57.6156,3.64508,0,0,0,0,0,0,0,-1,1791,743,57.6156,-3.64511
574,281,57.3431,4.17767,0,0,0,0,0,0,0,-1,1798,743,57.3431,-4.17769
581,281,57.0648,4.53906,0,0,0,0,0,0,0,-1,1805,743,57.0648,-4.53908
588,281,53.5422,6.00092,0,0,0,0,0,0,0,-1,1812,743,53.5422,-6.00092
595,281,54.8569,3.32269,0,0,0,0,0,0,0,-1,1819,743,54.857,-3.32269
602,281,45.9985,3.98254,0,0,0,0,0,0,0,-1,1826,743,45.9985,-3.98254
609,281,32.7925,1.28723,0,0,0,0,0,0,0,-1,1833,743,32.7925,-1.28722
616,281,21.3191,-0.253906,0,0,0,0,0,0,0,-1,1840,743,21.3191,0.253931
623,281,31.8741,-4.74182,0,0,0,0,0,0,0,-1,1847,743,31.8741,4.74184
630,281,41.1188,-6.42267,0,0,0,0,0,0,0,-1,1854,743,41.1187,6.42265
637,281,41.0662,-5.68317,0.00291481,0.000365213,0.00148177,0.00359469,-0.000314662,0.43017,0.00250793,0.0200863,1861,743,41.0662,5.68317
644,281,41.0736,-4.91101,0.0024753,7.66971e-05,0.00125309,0.00301052,-0.000458519,0.403663,0.00217601,0.0113912,1868,743,41.0736,4.91102
651,281,41.0433,-4.12103,0.00219235,0.00012612,0.00120077,0.00274327,-0.000424803,0.430154,0.00198565,0.012554,1875,743,41.0434,4.12105
658,281,41.0328,-3.32495,0.00200525,0.000363032,0.00111384,0.00256793,-0.000199641,0.467772,0.00178223,0.0199076,1882,743,41.0329,3.32496
665,281,41.0115,-2.56079,0.00189849,0.000857582,0.00110513,0.00259959,0.000156488,0.565331,0.00168332,0.0208406,1889,743,41.0115,2.56081
672,281,40.9492,-1.73718,0.00184528,0.00147277,0.00118394,0.00285753,0.000460526,0.70738,0.00177158,0.0132961,1896,743,40.9493,1.73717
679,281,40.9041,-0.96167,0.001917,0.00217707,0.00138482,0.00343795,0.000656119,0.832211,0.00210758,0.0204877,1903,743,40.9041,0.961668
686,281,40.8076,-0.198914,0.00205521,0.00303792,0.00166239,0.00428004,0.00081308,0.929093,0.00262466,0.0167288,1910,743,40.8076,0.198927
693,281,40.7753,0.611023,0.0023528,0.00410914,0.00212262,0.00552807,0.000933864,0.981537,0.0034169,0.0128697,1917,743,40.7753,-0.611039
700,281,40.7335,1.4516,0.00282009,0.00539351,0.00279288,0.00718183,0.00103177,1.00126,0.00448371,0.0421069,1924,743,40.7335,-1.45157
707,281,40.8257,2.26672,0,0,0,0,0,0,0,-1,1931,743,40.8257,-2.26675
714,281,25.0125,2.5105,0,0,0,0,0,0,0,-1,1938,743,25.0124,-2.51053
721,281,16.9656,3.22174,0,0,0,0,0,0,0,-1,1945,743,16.9656,-3.22172
728,281,19.0251,3.63934,0,0,0,0,0,0,0,-1,1952,743,19.0252,-3.63932
735,281,19.0869,2.50311,0,0,0,0,0,0,0,-1,1959,743,19.0869,-2.5031
742,281,0,0,0,0,0,0,0,0,0,-1,1966,743,0,0
749,281,0,0,0,0,0,0,0,0,0,-1,1973,743,0,0
756,281,0,0,0,0,0,0,0,0,0,-1,1980,743,0,0
763,281,0,0,0,0,0,0,0,0,0,-1,1987,743,0,0
770,281,0,0,0,0,0,0,0,0,0,-1,1994,743,0,0
777,281,0,0,0,0,0,0,0,0,0,-1,2001,743,0,0
784,281,0,0,0,0,0,0,0,0,0,-1,2008,743,0,0
791,281,0,0,0,0,0,0,0,0,0,-1,2015,743,0,0
798,281,0,0,0,0,0,0,0,0,0,-1,2022,743,0,0
805,281,0,0,0,0,0,0,0,0,0,-1,2029,743,0,0
812,281,0,0,0,0,0,0,0,0,0,-1,2036,743,0,0
-700,274,0,0,0,0,0,0,0,0,0,-1,524,750,0,0
-693,274,0,0,0,0,0,0,0,0,0,-1,531,750,0,0
-686,274,0,0,0,0,0,0,0,0,0,-1,538,750,0,0
-679,274,0,0,0,0,0,0,0,0,0,-1,545,750,0,0
-672,274,0,0,0,0,0,0,0,0,0,-1,552,750,0,0
-665,274,0,0,0,0,0,0,0,0,0,-1,559,750,0,0
-658,274,0,0,0,0,0,0,0,0,0,-1,566,750,0,0
-651,274,0,0,0,0,0,0,0,0,0,-1,573,750,0,0
-644,274,0,0,0,0,0,0,0,0,0,-1,580,750,0,0
-637,274,0,0,0,0,0,0,0,0,0,-1,587,750,0,0
-630,274,0,0,0,0,0,0,0,0,0,-1,594,750,0,0
-623,274,-19.6909,5.12701,0,0,0,0,0,0,0,-1,601,750,-19.6908,-5.12703
-616,274,-17.9133,3.9024,0,0,0,0,0,0,0,-1,608,750,-17.9133,-3.90239
-609,274,-26.0861,5.57306,0,0,0,0,0,0,0,-1,615,750,-26.0861,-5.57307
-602,274,-25.7372,3.73846,0,0,0,0,0,0,0,-1,622,750,-25.7372,-3.73849
-595,274,-25.258,2.53473,0,0,0,0,0,0,0,-1,629,750,-25.258,-2.53474
-588,274,-24.9805,2.2334,0,0,0,0,0,0,0,-1,636,750,-24.9805,-2.23341
-581,274,-27.2893,1.28857,0,0,0,0,0,0,0,-1,643,750,-27.2893,-1.28855
-574,274,-27.3012,-0.00982666,-0.00534642,0.00730461,-0.00571813,0.00950606,-0.00754787,-1.20329,0.0098677,0.0302405,650,750,-27.3012,0.00984455
-567,274,-27.5471,-0.783203,-0.00388637,0.00516436,-0.00351771,0.00637077,-0.00509278,-1.24041,0.00663218,0.0286824,657,750,-27.5471,0.783233
-560,274,-27.5858,-1.47607,-0.00279645,0.00345498,-0.00195063,0.00401369,-0.00335516,-1.29184,0.00426007,0.0153001,664,750,-27.5858,1.47605
-553,274,-27.6105,-2.24323,-0.00204045,0.0019624,-0.000736125,0.00209348,-0.00217153,-1.39457,0.00246254,0.0103193,671,750,-27.6105,2.24323
-546,274,-27.6577,-3.00421,-0.00164054,0.000459776,0.000281192,0.000496771,-0.00167753,1.43998,0.00131559,0.0121731,678,750,-27.6577,3.00419
-539,274,-27.6879,-3.75854,-0.00154964,-0.00104778,0.00127525,9.90694e-07,-0.00259841,0.882542,0.0017326,0.0129391,685,750,-27.6879,3.75853
-532,274,-27.723,-4.48956,-0.00167334,-0.00256783,0.0021129,3.91314e-05,-0.0042803,0.681101,0.00286667,0.014033,692,750,-27.723,4.48955
-525,274,-27.7681,-5.25568,-0.00196513,-0.00388236,0.00266069,-9.56364e-05,-0.00575186,0.612493,0.0038031,0.0146925,699,750,-27.7681,5.2557
-518,274,-27.8084,-6.09052,-0.00248723,-0.00501271,0.00310953,-0.000393828,-0.00710612,0.592527,0.00461175,0.0138968,706,750,-27.8084,6.09049
-511,274,-27.8469,-6.90051,-0.00307169,-0.00577051,0.0034661,-0.000701592,-0.00814061,0.599767,0.00520898,0.016479,713,750,-27.8469,6.9005
-504,274,-27.9741,-7.72125,-0.00362418,-0.00650691,0.00378055,-0.00101955,-0.00911154,0.603275,0.00576464,0.0312051,720,750,-27.9741,7.72125
-497,274,-28.1714,-8.57404,0,0,0,0,0,0,0,-1,727,750,-28.1714,8.57405
-490,274,-13.6545,-3.58826,0,0,0,0,0,0,0,-1,734,750,-13.6546,3.58825
-483,274,-27.8608,1.30981,0,0,0,0,0,0,0,-1,741,750,-27.8608,-1.30979
-476,274,-33.7561,-0.508606,0,0,0,0,0,0,0,-1,748,750,-33.7561,0.508636
-469,274,-41.1387,0.907715,0,0,0,0,0,0,0,-1,755,750,-41.1387,-0.907744
-462,274,-51.5275,-0.998474,0,0,0,0,0,0,0,-1,762,750,-51.5275,0.998478
-455,274,-49.0599,1.32117,0,0,0,0,0,0,0,-1,769,750,-49.0599,-1.32118
-448,274,-48.9332,1.2182,0,0,0,0,0,0,0,-1,776,750,-48.9332,-1.21822
-441,274,0,0,0,0,0,0,0,0,0,-1,783,750,0,0
-434,274,0,0,0,0,0,0,0,0,0,-1,790,750,0,0
-427,274,0,0,0,0,0,0,0,0,0,-1,797,750,0,0
-420,274,0,0,0,0,0,0,0,0,0,-1,804,750,0,0
-413,274,0,0,0,0,0,0,0,0,0,-1,811,750,0,0
-406,274,0,0,0,0,0,0,0,0,0,-1,818,750,0,0
-399,274,0,0,0,0,0,0,0,0,0,-1,825,750,0,0
-392,274,0,0,0,0,0,0,0,0,0,-1,832,750,0,0
-385,274,0,0,0,0,0,0,0,0,0,-1,839,750,0,0
-378,274,0,0,0,0,0,0,0,0,0,-1,846,750,0,0
-371,274,0,0,0,0,0,0,0,0,0,-1,853,750,0,0
-364,274,0,0,0,0,0,0,0,0,0,-1,860,750,0,0
-357,274,0,0,0,0,0,0,0,0,0,-1,867,750,0,0
-350,274,0,0,0,0,0,0,0,0,0,-1,874,750,0,0
-343,274,0,0,0,0,0,0,0,0,0,-1,881,750,0,0
-336,274,0,0,0,0,0,0,0,0,0,-1,888,750,0,0
-329,274,0,0,0,0,0,0,0,0,0,-1,895,750,0,0
-322,274,0,0,0,0,0,0,0,0,0,-1,902,750,0,0
-315,274,0,0,0,0,0,0,0,0,0,-1,909,750,0,0
-308,274,0,0,0,0,0,0,0,0,0,-1,916,750,0,0
-301,274,0,0,0,0,0,0,0,0,0,-1,923,750,0,0
-294,274,0,0,0,0,0,0,0,0,0,-1,930,750,0,0
-287,274,0,0,0,0,0,0,0,0,0,-1,937,750,0,0
-280,274,0,0,0,0,0,0,0,0,0,-1,944,750,0,0
-273,274,0,0,0,0,0,0,0,0,0,-1,951,750,0,0
-266,274,0,0,0,0,0,0,0,0,0,-1,958,750,0,0
-259,274,0,0,0,0,0,0,0,0,0,-1,965,750,0,0
-252,274,0,0,0,0,0,0,0,0,0,-1,972,750,0,0
-245,274,0,0,0,0,0,0,0,0,0,-1,979,750,0,0
-238,274,0,0,0,0,0,0,0,0,0,-1,986,750,0,0
-231,274,0,0,0,0,0,0,0,0,0,-1,993,750,0,0
-224,274,0,0,0,0,0,0,0,0,0,-1,1000,750,0,0
-217,274,0,0,0,0,0,0,0,0,0,-1,1007,750,0,0
-210,274,0,0,0,0,0,0,0,0,0,-1,1014,750,0,0
-203,274,0,0,0,0,0,0,0,0,0,-1,1021,750,0,0
-196,274,0,0,0,0,0,0,0,0,0,-1,1028,750,0,0
-189,274,0,0,0,0,0,0,0,0,0,-1,1035,750,0,0
-182,274,0,0,0,0,0,0,0,0,0,-1,1042,750,0,0
-175,274,0,0,0,0,0,0,0,0,0,-1,1049,750,0,0
-168,274,0,0,0,0,0,0,0,0,0,-1,1056,750,0,0
-161,274,0,0,0,0,0,0,0,0,0,-1,1063,750,0,0
-154,274,0,0,0,0,0,0,0,0,0,-1,1070,750,0,0
-147,274,0,0,0,0,0,0,0,0,0,-1,1077,750,0,0
-140,274,0,0,0,0,0,0,0,0,0,-1,1084,750,0,0
-133,274,0,0,0,0,0,0,0,0,0,-1,1091,750,0,0
-126,274,0,0,0,0,0,0,0,0,0,-1,1098,750,0,0
-119,274,0,0,0,0,0,0,0,0,0,-1,1105,750,0,0
-112,274,0,0,0,0,0,0,0,0,0,-1,1112,750,0,0
-105,274,0,0,0,0,0,0,0,0,0,-1,1119,750,0,0
-98,274,0,0,0,0,0,0,0,0,0,-1,1126,750,0,0
-91,274,0,0,0,0,0,0,0,0,0,-1,1133,750,0,0
-84,274,0,0,0,0,0,0,0,0,0,-1,1140,750,0,0
-77,274,0,0,0,0,0,0,0,0,0,-1,1147,750,0,0
-70,274,0,0,0,0,0,0,0,0,0,-1,1154,750,0,0
-63,274,0,0,0,0,0,0,0,0,0,-1,1161,750,0,0
-56,274,0,0,0,0,0,0,0,0,0,-1,1168,750,0,0
-49,274,0,0,0,0,0,0,0,0,0,-1,1175,750,0,0
-42,274,0,0,0,0,0,0,0,0,0,-1,1182,750,0,0
-35,274,0,0,0,0,0,0,0,0,0,-1,1189,750,0,0
-28,274,0,0,0,0,0,0,0,0,0,-1,1196,750,0,0
-21,274,0,0,0,0,0,0,0,0,0,-1,1203,750,0,0
-14,274,0,0,0,0,0,0,0,0,0,-1,1210,750,0,0
-7,274,0,0,0,0,0,0,0,0,0,-1,1217,750,0,0
0,274,0,0,0,0,0,0,0,0,0,-1,1224,750,0,0
7,274,0,0,0,0,0,0,0,0,0,-1,1231,750,0,0
14,274,0,0,0,0,0,0,0,0,0,-1,1238,750,0,0
21,274,0,0,0,0,0,0,0,0,0,-1,1245,750,0,0
28,274,0,0,0,0,0,0,0,0,0,-1,1252,750,0,0
35,274,0,0,0,0,0,0,0,0,0,-1,1259,750,0,0
42,274,0,0,0,0,0,0,0,0,0,-1,1266,750,0,0
49,274,0,0,0,0,0,0,0,0,0,-1,1273,750,0,0
56,274,0,0,0,0,0,0,0,0,0,-1,1280,750,0,0
63,274,0,0,0,0,0,0,0,0,0,-1,1287,750,0,0
70,274,0,0,0,0,0,0,0,0,0,-1,1294,750,0,0
77,274,0,0,0,0,0,0,0,0,0,-1,1301,750,0,0
84,274,0,0,0,0,0,0,0,0,0,-1,1308,750,0,0
91,274,0,0,0,0,0,0,0,0,0,-1,1315,750,0,0
98,274,0,0,0,0,0,0,0,0,0,-1,1322,750,0,0
105,274,0,0,0,0,0,0,0,0,0,-1,1329,750,0,0
112,274,0,0,0,0,0,0,0,0,0,-1,1336,750,0,0
119,274,0,0,0,0,0,0,0,0,0,-1,1343,750,0,0
126,274,0,0,0,0,0,0,0,0,0,-1,1350,750,0,0
133,274,0,0,0,0,0,0,0,0,0,-1,1357,750,0,0
140,274,0,0,0,0,0,0,0,0,0,-1,1364,750,0,0
147,274,0,0,0,0,0,0,0,0,0,-1,1371,750,0,0
154,274,0,0,0,0,0,0,0,0,0,-1,1378,750,0,0
161,274,0,0,0,0,0,0,0,0,0,-1,1385,750,0,0
168,274,0,0,0,0,0,0,0,0,0,-1,1392,750,0,0
175,274,0,0,0,0,0,0,0,0,0,-1,1399,750,0,0
182,274,0,0,0,0,0,0,0,0,0,-1,1406,750,0,0
189,274,0,0,0,0,0,0,0,0,0,-1,1413,750,0,0
196,274,0,0,0,0,0,0,0,0,0,-1,1420,750,0,0
203,274,0,0,0,0,0,0,0,0,0,-1,1427,750,0,0
210,274,0,0,0,0,0,0,0,0,0,-1,1434,750,0,0
217,274,0,0,0,0,0,0,0,0,0,-1,1441,750,0,0
224,274,0,0,0,0,0,0,0,0,0,-1,1448,750,0,0
231,274,0,0,0,0,0,0,0,0,0,-1,1455,750,0,0
238,274,0,0,0,0,0,0,0,0,0,-1,1462,750,0,0
245,274,0,0,0,0,0,0,0,0,0,-1,1469,750,0,0
252,274,0,0,0,0,0,0,0,0,0,-1,1476,750,0,0
259,274,0,0,0,0,0,0,0,0,0,-1,1483,750,0,0
266,274,0,0,0,0,0,0,0,0,0,-1,1490,750,0,0
273,274,0,0,0,0,0,0,0,0,0,-1,1497,750,0,0
280,274,0,0,0,0,0,0,0,0,0,-1,1504,750,0,0
287,274,0,0,0,0,0,0,0,0,0,-1,1511,750,0,0
294,274,0,0,0,0,0,0,0,0,0,-1,1518,750,0,0
301,274,0,0,0,0,0,0,0,0,0,-1,1525,750,0,0
308,274,0,0,0,0,0,0,0,0,0,-1,1532,750,0,0
315,274,0,0,0,0,0,0,0,0,0,-1,1539,750,0,0
322,274,0,0,0,0,0,0,0,0,0,-1,1546,750,0,0
329,274,0,0,0,0,0,0,0,0,0,-1,1553,750,0,0
336,274,0,0,0,0,0,0,0,0,0,-1,1560,750,0,0
343,274,0,0,0,0,0,0,0,0,0,-1,1567,750,0,0
350,274,0,0,0,0,0,0,0,0,0,-1,1574,750,0,0
357,274,0,0,0,0,0,0,0,0,0,-1,1581,750,0,0
364,274,0,0,0,0,0,0,0,0,0,-1,1588,750,0,0
371,274,0,0,0,0,0,0,0,0,0,-1,1595,750,0,0
378,274,0,0,0,0,0,0,0,0,0,-1,1602,750,0,0
385,274,0,0,0,0,0,0,0,0,0,-1,1609,750,0,0
392,274,0,0,0,0,0,0,0,0,0,-1,1616,750,0,0
399,274,0,0,0,0,0,0,0,0,0,-1,1623,750,0,0
406,274,0,0,0,0,0,0,0,0,0,-1,1630,750,0,0
413,274,0,0,0,0,0,0,0,0,0,-1,1637,750,0,0
420,274,0,0,0,0,0,0,0,0,0,-1,1644,750,0,0
427,274,0,0,0,0,0,0,0,0,0,-1,1651,750,0,0
434,274,0,0,0,0,0,0,0,0,0,-1,1658,750,0,0
441,274,0,0,0,0,0,0,0,0,0,-1,1665,750,0,0
448,274,0,0,0,0,0,0,0,0,0,-1,1672,750,0,0
455,274,0,0,0,0,0,0,0,0,0,-1,1679,750,0,0
462,274,0,0,0,0,0,0,0,0,0,-1,1686,750,0,0
469,274,0,0,0,0,0,0,0,0,0,-1,1693,750,0,0
476,274,0,0,0,0,0,0,0,0,0,-1,1700,750,0,0
483,274,0,0,0,0,0,0,0,0,0,-1,1707,750,0,0
490,274,0,0,0,0,0,0,0,0,0,-1,1714,750,0,0
497,274,0,0,0,0,0,0,0,0,0,-1,1721,750,0,0
504,274,0,0,0,0,0,0,0,0,0,-1,1728,750,0,0
511,274,0,0,0,0,0,0,0,0,0,-1,1735,750,0,0
518,274,0,0,0,0,0,0,0,0,0,-1,1742,750,0,0
525,274,0,0,0,0,0,0,0,0,0,-1,1749,750,0,0
532,274,0,0,0,0,0,0,0,0,0,-1,1756,750,0,0
539,274,0,0,0,0,0,0,0,0,0,-1,1763,750,0,0
546,274,0,0,0,0,0,0,0,0,0,-1,1770,750,0,0
553,274,0,0,0,0,0,0,0,0,0,-1,1777,750,0,0
560,274,57.9182,3.24518,0,0,0,0,0,0,0,-1,1784,750,57.9182,-3.24516
567,274,57.8315,3.4137,0,0,0,0,0,0,0,-1,1791,750,57.8315,-3.41368
574,274,58.2571,3.11115,0,0,0,0,0,0,0,-1,1798,750,58.2571,-3.11114
581,274,54.4941,4.68127,0,0,0,0,0,0,0,-1,1805,750,54.4941,-4.68125
588,274,53.9908,5.6676,0,0,0,0,0,0,0,-1,1812,750,53.9908,-5.66763
595,274,61.8009,4.85162,0,0,0,0,0,0,0,-1,1819,750,61.8009,-4.8516
602,274,55.6321,2.56519,0,0,0,0,0,0,0,-1,1826,750,55.6321,-2.56521
609,274,44.6676,3.10461,0,0,0,0,0,0,0,-1,1833,750,44.6676,-3.1046
616,274,32.7869,1.78436,0,0,0,0,0,0,0,-1,1840,750,32.7868,-1.78437
623,274,24.8231,-1.80353,0,0,0,0,0,0,0,-1,1847,750,24.8232,1.80351
630,274,41.8699,-6.52972,0,0,0,0,0,0,0,-1,1854,750,41.8699,6.52972
637,274,41.7953,-5.73218,0.00259123,0.000741341,0.00160048,0.00351482,-0.000182246,0.523387,0.00240626,0.026583,1861,750,41.7953,5.7322
644,274,41.8325,-4.888,0.002372,0.000280708,0.0014729,0.00313267,-0.000479971,0.476721,0.00226545,0.0140978,1868,750,41.8326,4.888
651,274,41.8042,-4.0813,0.00222154,0.000159772,0.00141192,0.00293887,-0.000557555,0.470067,0.00216912,0.0135914,1875,750,41.8042,4.08127
658,274,41.7675,-3.28479,0.002059,0.000203858,0.0012223,0.00266584,-0.000402979,0.46082,0.00192566,0.0157402,1882,750,41.7675,3.28478
665,274,41.7649,-2.49554,0.00191982,0.000596554,0.00110406,0.00254532,-2.89477e-05,0.515457,0.00170661,0.0166099,1889,750,41.7649,2.49555
672,274,41.7495,-1.7005,0.0017882,0.00113832,0.00106773,0.00257934,0.000347179,0.637687,0.00161631,0.0142739,1896,750,41.7495,1.70049
679,274,41.6838,-0.91394,0.00174769,0.00176193,0.00118305,0.00293789,0.000571736,0.788406,0.00179856,0.0155124,1903,750,41.6839,0.913917
686,274,41.6146,-0.130493,0.00176977,0.00254469,0.00138905,0.0035993,0.000715156,0.921411,0.00220024,0.0169677,1910,750,41.6147,0.13047
693,274,41.5543,0.675049,0.00191722,0.00346418,0.00176428,0.00461708,0.00076432,0.991986,0.00285756,0.012496,1917,750,41.5543,-0.675048
700,274,41.5289,1.48792,0.00221964,0.00454725,0.00235693,0.00601205,0.000754839,1.01473,0.00378162,0.0182161,1924,750,41.5289,-1.48791
707,274,41.4398,2.30902,0.00253395,0.00546035,0.00317162,0.00749002,0.000504275,1.00152,0.00483403,0.0397523,1931,750,41.4399,-2.30904
714,274,41.3297,3.17157,0,0,0,0,0,0,0,-1,1938,750,41.3298,-3.17155
721,274,25.6215,3.91144,0,0,0,0,0,0,0,-1,1945,750,25.6214,-3.91141
728,274,19.2209,3.95154,0,0,0,0,0,0,0,-1,1952,750,19.221,-3.95151
735,274,20.6608,4.10931,0,0,0,0,0,0,0,-1,1959,750,20.6607,-4.10932
742,274,11.7815,-0.740234,0,0,0,0,0,0,0,-1,1966,750,11.7815,0.740253
749,274,0,0,0,0,0,0,0,0,0,-1,1973,750,0,0
756,274,0,0,0,0,0,0,0,0,0,-1,1980,750,0,0
763,274,0,0,0,0,0,0,0,0,0,-1,1987,750,0,0
770,274,0,0,0,0,0,0,0,0,0,-1,1994,750,0,0
777,274,0,0,0,0,0,0,0,0,0,-1,2001,750,0,0
784,274,0,0,0,0,0,0,0,0,0,-1,2008,750,0,0
791,274,0,0,0,0,0,0,0,0,0,-1,2015,750,0,0
798,274,0,0,0,0,0,0,0,0,0,-1,2022,750,0,0
805,274,0,0,0,0,0,0,0,0,0,-1,2029,750,0,0
812,274,0,0,0,0,0,0,0,0,0,-1,2036,750,0,0
-700,267,0,0,0,0,0,0,0,0,0,-1,524,757,0,0
-693,267,0,0,0,0,0,0,0,0,0,-1,531,757,0,0
-686,267,0,0,0,0,0,0,0,0,0,-1,538,757,0,0
-679,267,0,0,0,0,0,0,0,0,0,-1,545,757,0,0
-672,267,0,0,0,0,0,0,0,0,0,-1,552,757,0,0
-665,267,0,0,0,0,0,0,0,0,0,-1,559,757,0,0
-658,267,0,0,0,0,0,0,0,0,0,-1,566,757,0,0
-651,267,0,0,0,0,0,0,0,0,0,-1,573,757,0,0
-644,267,0,0,0,0,0,0,0,0,0,-1,580,757,0,0
-637,267,0,0,0,0,0,0,0,0,0,-1,587,757,0,0
-630,267,-21.3979,5.17529,0,0,0,0,0,0,0,-1,594,757,-21.3979,-5.17529
-623,267,-20.043,4.43115,0,0,0,0,0,0,0,-1,601,757,-20.043,-4.43116
-616,267,-27.1628,5.9325,0,0,0,0,0,0,0,-1,608,757,-27.1629,-5.93249
-609,267,-26.9868,4.99658,0,0,0,0,0,0,0,-1,615,757,-26.9868,-4.99656
-602,267,-26.6637,3.74072,0,0,0,0,0,0,0,-1,622,757,-26.6637,-3.74075
-595,267,-26.2172,2.54993,0,0,0,0,0,0,0,-1,629,757,-26.2171,-2.54993
-588,267,-27.9509,2.10162,0,0,0,0,0,0,0,-1,636,757,-27.9509,-2.10163
-581,267,-28.0656,1.07184,-0.00611578,0.00841745,-0.00855103,0.0123724,-0.0100707,-1.13759,0.0129803,0.0408775,643,757,-28.0655,-1.07185
-574,267,-28.1531,0.102478,-0.00470667,0.00650281,-0.00573195,0.00891483,-0.00711868,-1.17249,0.00927629,0.024344,650,757,-28.1531,-0.102487
-567,267,-28.2947,-0.624817,-0.00359452,0.00456862,-0.00351769,0.00587531,-0.00490121,-1.21513,0.00623029,0.0287864,657,757,-28.2947,0.624834
-560,267,-28.3444,-1.38007,-0.00276823,0.00296332,-0.00185752,0.00351266,-0.00331757,-1.28325,0.00394398,0.0236392,664,757,-28.3443,1.38009
-553,267,-28.3728,-2.16382,-0.00224235,0.00146406,-0.000514759,0.00153422,-0.00231251,-1.43533,0.00223601,0.0193249,671,757,-28.3728,2.16382
-546,267,-28.4274,-2.96777,-0.00199155,-8.56857e-05,0.000633079,0.00010544,-0.00218268,1.2776,0.00149151,0.012739,678,757,-28.4274,2.96775
-539,267,-28.4504,-3.74042,-0.00203282,-0.00168477,0.00173946,-0.000110652,-0.00360694,0.835255,0.0023686,0.0124934,685,757,-28.4504,3.74043
-532,267,-28.4546,-4.5014,-0.00220643,-0.0032942,0.0026318,-6.29025e-05,-0.00543773,0.683504,0.00360437,0.0131943,692,757,-28.4546,4.50142
-525,267,-28.5268,-5.22833,-0.00239962,-0.00462094,0.00314229,-0.000177478,-0.00684308,0.615523,0.00450406,0.0123872,699,757,-28.5268,5.22832
-518,267,-28.5892,-6.01245,-0.00279413,-0.00572816,0.00350584,-0.000460747,-0.00806154,0.587243,0.00522755,0.013873,706,757,-28.5892,6.01245
-511,267,-28.592,-6.80243,-0.00317536,-0.0064095,0.00374248,-0.000715537,-0.00886932,0.581469,0.00568939,0.0271011,713,757,-28.592,6.80246
-504,267,-28.7516,-7.30267,-0.00348506,-0.00708047,0.00391948,-0.000970676,-0.00959485,0.570382,0.00609881,0.0453921,720,757,-28.7516,7.30265
-497,267,-28.9913,-7.81372,0,0,0,0,0,0,0,-1,727,757,-28.9913,7.81375
-490,267,-23.4949,-0.494995,0,0,0,0,0,0,0,-1,734,757,-23.4949,0.494981
-483,267,-33.2785,-0.448425,0,0,0,0,0,0,0,-1,741,757,-33.2785,0.448407
-476,267,-40.2954,0.52002,0,0,0,0,0,0,0,-1,748,757,-40.2954,-0.520037
-469,267,-50.3222,-0.572998,0,0,0,0,0,0,0,-1,755,757,-50.3222,0.572968
-462,267,-49.7622,0.846619,0,0,0,0,0,0,0,-1,762,757,-49.7622,-0.846602
-455,267,-49.657,0.410706,0,0,0,0,0,0,0,-1,769,757,-49.657,-0.410729
-448,267,-48.6621,1.34595,0,0,0,0,0,0,0,-1,776,757,-48.6621,-1.34594
-441,267,0,0,0,0,0,0,0,0,0,-1,783,757,0,0
-434,267,0,0,0,0,0,0,0,0,0,-1,790,757,0,0
-427,267,0,0,0,0,0,0,0,0,0,-1,797,757,0,0
-420,267,0,0,0,0,0,0,0,0,0,-1,804,757,0,0
-413,267,0,0,0,0,0,0,0,0,0,-1,811,757,0,0
-406,267,0,0,0,0,0,0,0,0,0,-1,818,757,0,0
-399,267,0,0,0,0,0,0,0,0,0,-1,825,757,0,0
-392,267,0,0,0,0,0,0,0,0,0,-1,832,757,0,0
-385,267,0,0,0,0,0,0,0,0,0,-1,839,757,0,0
-378,267,0,0,0,0,0,0,0,0,0,-1,846,757,0,0
-371,267,0,0,0,0,0,0,0,0,0,-1,853,757,0,0
-364,267,0,0,0,0,0,0,0,0,0,-1,860,757,0,0
-357,267,0,0,0,0,0,0,0,0,0,-1,867,757,0,0
-350,267,0,0,0,0,0,0,0,0,0,-1,874,757,0,0
-343,267,0,0,0,0,0,0,0,0,0,-1,881,757,0,0
-336,267,0,0,0,0,0,0,0,0,0,-1,888,757,0,0
-329,267,0,0,0,0,0,0,0,0,0,-1,895,757,0,0
-322,267,0,0,0,0,0,0,0,0,0,-1,902,757,0,0
-315,267,0,0,0,0,0,0,0,0,0,-1,909,757,0,0
-308,267,0,0,0,0,0,0,0,0,0,-1,916,757,0,0
-301,267,0,0,0,0,0,0,0,0,0,-1,923,757,0,0
-294,267,0,0,0,0,0,0,0,0,0,-1,930,757,0,0
-287,267,0,0,0,0,0,0,0,0,0,-1,937,757,0,0
-280,267,0,0,0,0,0,0,0,0,0,-1,944,757,0,0
-273,267,0,0,0,0,0,0,0,0,0,-1,951,757,0,0
-266,267,0,0,0,0,0,0,0,0,0,-1,958,757,0,0
-259,267,0,0,0,0,0,0,0,0,0,-1,965,757,0,0
-252,267,0,0,0,0,0,0,0,0,0,-1,972,757,0,0
-245,267,0,0,0,0,0,0,0,0,0,-1,979,757,0,0
-238,267,0,0,0,0,0,0,0,0,0,-1,986,757,0,0
-231,267,0,0,0,0,0,0,0,0,0,-1,993,757,0,0
-224,267,0,0,0,0,0,0,0,0,0,-1,1000,757,0,0
-217,267,0,0,0,0,0,0,0,0,0,-1,1007,757,0,0
-210,267,0,0,0,0,0,0,0,0,0,-1,1014,757,0,0
-203,267,0,0,0,0,0,0,0,0,0,-1,1021,757,0,0
-196,267,0,0,0,0,0,0,0,0,0,-1,1028,757,0,0
-189,267,0,0,0,0,0,0,0,0,0,-1,1035,757,0,0
-182,267,0,0,0,0,0,0,0,0,0,-1,1042,757,0,0
-175,267,0,0,0,0,0,0,0,0,0,-1,1049,757,0,0
-168,267,0,0,0,0,0,0,0,0,0,-1,1056,757,0,0
-161,267,0,0,0,0,0,0,0,0,0,-1,1063,757,0,0
-154,267,0,0,0,0,0,0,0,0,0,-1,1070,757,0,0
-147,267,0,0,0,0,0,0,0,0,0,-1,1077,757,0,0
-140,267,0,0,0,0,0,0,0,0,0,-1,1084,757,0,0
-133,267,0,0,0,0,0,0,0,0,0,-1,1091,757,0,0
-126,267,0,0,0,0,0,0,0,0,0,-1,1098,757,0,0
-119,267,0,0,0,0,0,0,0,0,0,-1,1105,757,0,0
-112,267,0,0,0,0,0,0,0,0,0,-1,1112,757,0,0
-105,267,0,0,0,0,0,0,0,0,0,-1,1119,757,0,0
-98,267,0,0,0,0,0,0,0,0,0,-1,1126,757,0,0
-91,267,0,0,0,0,0,0,0,0,0,-1,1133,757,0,0
-84,267,0,0,0,0,0,0,0,0,0,-1,1140,757,0,0
-77,267,0,0,0,0,0,0,0,0,0,-1,1147,757,0,0
-70,267,0,0,0,0,0,0,0,0,0,-1,1154,757,0,0
-63,267,0,0,0,0,0,0,0,0,0,-1,1161,757,0,0
-56,267,0,0,0,0,0,0,0,0,0,-1,1168,757,0,0
-49,267,0,0,0,0,0,0,0,0,0,-1,1175,757,0,0
-42,267,0,0,0,0,0,0,0,0,0,-1,1182,757,0,0
-35,267,0,0,0,0,0,0,0,0,0,-1,1189,757,0,0
-28,267,0,0,0,0,0,0,0,0,0,-1,1196,757,0,0
-21,267,0,0,0,0,0,0,0,0,0,-1,1203,757,0,0
-14,267,0,0,0,0,0,0,0,0,0,-1,1210,757,0,0
-7,267,0,0,0,0,0,0,0,0,0,-1,1217,757,0,0
0,267,0,0,0,0,0,0,0,0,0,-1,1224,757,0,0
7,267,0,0,0,0,0,0,0,0,0,-1,1231,757,0,0
14,267,0,0,0,0,0,0,0,0,0,-1,1238,757,0,0
21,267,0,0,0,0,0,0,0,0,0,-1,1245,757,0,0
28,267,0,0,0,0,0,0,0,0,0,-1,1252,757,0,0
35,267,0,0,0,0,0,0,0,0,0,-1,1259,757,0,0
42,267,0,0,0,0,0,0,0,0,0,-1,1266,757,0,0
49,267,0,0,0,0,0,0,0,0,0,-1,1273,757,0,0
56,267,0,0,0,0,0,0,0,0,0,-1,1280,757,0,0
63,267,0,0,0,0,0,0,0,0,0,-1,1287,757,0,0
70,267,0,0,0,0,0,0,0,0,0,-1,1294,757,0,0
77,267,0,0,0,0,0,0,0,0,0,-1,1301,757,0,0
84,267,0,0,0,0,0,0,0,0,0,-1,1308,757,0,0
91,267,0,0,0,0,0,0,0,0,0,-1,1315,757,0,0
98,267,0,0,0,0,0,0,0,0,0,-1,1322,757,0,0
105,267,0,0,0,0,0,0,0,0,0,-1,1329,757,0,0
112,267,0,0,0,0,0,0,0,0,0,-1,1336,757,0,0
119,267,0,0,0,0,0,0,0,0,0,-1,1343,757,0,0
126,267,0,0,0,0,0,0,0,0,0,-1,1350,757,0,0
133,267,0,0,0,0,0,0,0,0,0,-1,1357,757,0,0
140,267,0,0,0,0,0,0,0,0,0,-1,1364,757,0,0
147,267,0,0,0,0,0,0,0,0,0,-1,1371,757,0,0
154,267,0,0,0,0,0,0,0,0,0,-1,1378,757,0,0
161,267,0,0,0,0,0,0,0,0,0,-1,1385,757,0,0
168,267,0,0,0,0,0,0,0,0,0,-1,1392,757,0,0
175,267,0,0,0,0,0,0,0,0,0,-1,1399,757,0,0
182,267,0,0,0,0,0,0,0,0,0,-1,1406,757,0,0
189,267,0,0,0,0,0,0,0,0,0,-1,1413,757,0,0
196,267,0,0,0,0,0,0,0,0,0,-1,1420,757,0,0
203,267,0,0,0,0,0,0,0,0,0,-1,1427,757,0,0
210,267,0,0,0,0,0,0,0,0,0,-1,1434,757,0,0
217,267,0,0,0,0,0,0,0,0,0,-1,1441,757,0,0
224,267,0,0,0,0,0,0,0,0,0,-1,1448,757,0,0
231,267,0,0,0,0,0,0,0,0,0,-1,1455,757,0,0
238,267,0,0,0,0,0,0,0,0,0,-1,1462,757,0,0
245,267,0,0,0,0,0,0,0,0,0,-1,1469,757,0,0
252,267,0,0,0,0,0,0,0,0,0,-1,1476,757,0,0
259,267,0,0,0,0,0,0,0,0,0,-1,1483,757,0,0
266,267,0,0,0,0,0,0,0,0,0,-1,1490,757,0,0
273,267,0,0,0,0,0,0,0,0,0,-1,1497,757,0,0
280,267,0,0,0,0,0,0,0,0,0,-1,1504,757,0,0
287,267,0,0,0,0,0,0,0,0,0,-1,1511,757,0,0
294,267,0,0,0,0,0,0,0,0,0,-1,1518,757,0,0
301,267,0,0,0,0,0,0,0,0,0,-1,1525,757,0,0
308,267,0,0,0,0,0,0,0,0,0,-1,1532,757,0,0
315,267,0,0,0,0,0,0,0,0,0,-1,1539,757,0,0
322,267,0,0,0,0,0,0,0,0,0,-1,1546,757,0,0
329,267,0,0,0,0,0,0,0,0,0,-1,1553,757,0,0
336,267,0,0,0,0,0,0,0,0,0,-1,1560,757,0,0
343,267,0,0,0,0,0,0,0,0,0,-1,1567,757,0,0
350,267,0,0,0,0,0,0,0,0,0,-1,1574,757,0,0
357,267,0,0,0,0,0,0,0,0,0,-1,1581,757,0,0
364,267,0,0,0,0,0,0,0,0,0,-1,1588,757,0,0
371,267,0,0,0,0,0,0,0,0,0,-1,1595,757,0,0
378,267,0,0,0,0,0,0,0,0,0,-1,1602,757,0,0
385,267,0,0,0,0,0,0,0,0,0,-1,1609,757,0,0
392,267,0,0,0,0,0,0,0,0,0,-1,1616,757,0,0
399,267,0,0,0,0,0,0,0,0,0,-1,1623,757,0,0
406,267,0,0,0,0,0,0,0,0,0,-1,1630,757,0,0
413,267,0,0,0,0,0,0,0,0,0,-1,1637,757,0,0
420,267,0,0,0,0,0,0,0,0,0,-1,1644,757,0,0
427,267,0,0,0,0,0,0,0,0,0,-1,1651,757,0,0
434,267,0,0,0,0,0,0,0,0,0,-1,1658,757,0,0
441,267,0,0,0,0,0,0,0,0,0,-1,1665,757,0,0
448,267,0,0,0,0,0,0,0,0,0,-1,1672,757,0,0
455,267,0,0,0,0,0,0,0,0,0,-1,1679,757,0,0
462,267,0,0,0,0,0,0,0,0,0,-1,1686,757,0,0
469,267,0,0,0,0,0,0,0,0,0,-1,1693,757,0,0
476,267,0,0,0,0,0,0,0,0,0,-1,1700,757,0,0
483,267,0,0,0,0,0,0,0,0,0,-1,1707,757,0,0
490,267,0,0,0,0,0,0,0,0,0,-1,1714,757,0,0
497,267,0,0,0,0,0,0,0,0,0,-1,1721,757,0,0
504,267,0,0,0,0,0,0,0,0,0,-1,1728,757,0,0
511,267,0,0,0,0,0,0,0,0,0,-1,1735,757,0,0
518,267,0,0,0,0,0,0,0,0,0,-1,1742,757,0,0
525,267,0,0,0,0,0,0,0,0,0,-1,1749,757,0,0
532,267,0,0,0,0,0,0,0,0,0,-1,1756,757,0,0
539,267,0,0,0,0,0,0,0,0,0,-1,1763,757,0,0
546,267,0,0,0,0,0,0,0,0,0,-1,1770,757,0,0
553,267,0,0,0,0,0,0,0,0,0,-1,1777,757,0,0
560,267,0,0,0,0,0,0,0,0,0,-1,1784,757,0,0
567,267,58.0104,3.24304,0,0,0,0,0,0,0,-1,1791,757,58.0104,-3.24306
574,267,64.5414,2.91858,0,0,0,0,0,0,0,-1,1798,757,64.5414,-2.91855
581,267,58.374,2.95636,0,0,0,0,0,0,0,-1,1805,757,58.3741,-2.95639
588,267,62.2568,3.85944,0,0,0,0,0,0,0,-1,1812,757,62.2568,-3.85944
595,267,62.0597,4.3172,0,0,0,0,0,0,0,-1,1819,757,62.0597,-4.31722
602,267,64.109,3.66077,0,0,0,0,0,0,0,-1,1826,757,64.109,-3.66079
609,267,54.5498,3.24054,0,0,0,0,0,0,0,-1,1833,757,54.5498,-3.24052
616,267,44.2543,3.28918,0,0,0,0,0,0,0,-1,1840,757,44.2542,-3.28918
623,267,24.1475,-1.1391,0,0,0,0,0,0,0,-1,1847,757,24.1475,1.13913
630,267,40.7198,-5.42108,0,0,0,0,0,0,0,-1,1854,757,40.7198,5.4211
637,267,42.6396,-5.68414,0,0,0,0,0,0,0,-1,1861,757,42.6397,5.68414
644,267,42.6234,-4.88953,0.00251356,0.000472517,0.00140638,0.00323067,-0.000244592,0.471535,0.00223977,0.0178493,1868,757,42.6234,4.88952
651,267,42.5975,-4.04907,0.00246428,0.000200105,0.00142895,0.00315525,-0.000490859,0.450399,0.00228476,0.0145075,1875,757,42.5975,4.04908
658,267,42.5793,-3.24396,0.00228849,6.35895e-05,0.00121058,0.00282014,-0.00046806,0.413809,0.00205396,0.0150697,1882,757,42.5794,3.24393
665,267,42.5472,-2.44922,0.00207894,0.000333114,0.00101956,0.00254822,-0.000136165,0.431367,0.00174597,0.0157703,1889,757,42.5472,2.44923
672,267,42.5243,-1.66608,0.00184527,0.000787439,0.000899659,0.00235997,0.000272737,0.519658,0.00149074,0.0141484,1896,757,42.5242,1.66611
679,267,42.4802,-0.872009,0.00168686,0.00131784,0.000960161,0.00248008,0.000524624,0.690473,0.00150922,0.0131412,1903,757,42.4802,0.872026
686,267,42.4348,-0.071167,0.00164708,0.00206548,0.00114185,0.00301714,0.000695422,0.875999,0.00182435,0.0154236,1910,757,42.4349,0.0711369
693,267,42.3677,0.692505,0.00173781,0.00288524,0.00148993,0.00390809,0.000714955,0.96918,0.0024028,0.0148609,1917,757,42.3677,-0.692535
700,267,42.3176,1.48688,0.00199255,0.00385716,0.00207131,0.00519632,0.000653397,0.996868,0.00326826,0.0145262,1924,757,42.3176,-1.4869
707,267,42.292,2.27972,0.00230637,0.00474022,0.00289819,0.00666661,0.00037999,0.984166,0.00432331,0.0198052,1931,757,42.292,-2.2797
714,267,42.3574,3.13055,0.00302064,0.006108,0.00436739,0.0091965,-6.78562e-05,0.955273,0.00615374,0.0462363,1938,757,42.3574,-3.13056
721,267,42.5596,4.01892,0,0,0,0,0,0,0,-1,1945,757,42.5596,-4.01892
728,267,26.7886,3.90027,0,0,0,0,0,0,0,-1,1952,757,26.7886,-3.90028
735,267,24.6713,2.82483,0,0,0,0,0,0,0,-1,1959,757,24.6713,-2.82483
742,267,18.1177,3.56561,0,0,0,0,0,0,0,-1,1966,757,18.1176,-3.56564
749,267,0,0,0,0,0,0,0,0,0,-1,1973,757,0,0
756,267,0,0,0,0,0,0,0,0,0,-1,1980,757,0,0
763,267,0,0,0,0,0,0,0,0,0,-1,1987,757,0,0
770,267,0,0,0,0,0,0,0,0,0,-1,1994,757,0,0
777,267,0,0,0,0,0,0,0,0,0,-1,2001,757,0,0
784,267,0,0,0,0,0,0,0,0,0,-1,2008,757,0,0
791,267,0,0,0,0,0,0,0,0,0,-1,2015,757,0,0
798,267,0,0,0,0,0,0,0,0,0,-1,2022,757,0,0
805,267,0,0,0,0,0,0,0,0,0,-1,2029,757,0,0
812,267,0,0,0,0,0,0,0,0,0,-1,2036,757,0,0
-700,260,0,0,0,0,0,0,0,0,0,-1,524,764,0,0
-693,260,0,0,0,0,0,0,0,0,0,-1,531,764,0,0
-686,260,0,0,0,0,0,0,0,0,0,-1,538,764,0,0
-679,260,0,0,0,0,0,0,0,0,0,-1,545,764,0,0
-672,260,0,0,0,0,0,0,0,0,0,-1,552,764,0,0
-665,260,0,0,0,0,0,0,0,0,0,-1,559,764,0,0
-658,260,0,0,0,0,0,0,0,0,0,-1,566,764,0,0
-651,260,0,0,0,0,0,0,0,0,0,-1,573,764,0,0
-644,260,0,0,0,0,0,0,0,0,0,-1,580,764,0,0
-637,260,0,0,0,0,0,0,0,0,0,-1,587,764,0,0
-630,260,-21.8905,4.49341,0,0,0,0,0,0,0,-1,594,764,-21.8905,-4.49342
-623,260,-20.3127,3.53546,0,0,0,0,0,0,0,-1,601,764,-20.3127,-3.53544
-616,260,-23.4346,3.65009,0,0,0,0,0,0,0,-1,608,764,-23.4345,-3.65008
-609,260,-27.8874,4.42004,0,0,0,0,0,0,0,-1,615,764,-27.8874,-4.42005
-602,260,-27.5727,3.89905,0,0,0,0,0,0,0,-1,622,764,-27.5727,-3.89904
-595,260,-28.8132,3.23798,0,0,0,0,0,0,0,-1,629,764,-28.8131,-3.23796
-588,260,-28.8958,2.0462,-0.00647944,0.00992907,-0.011504,0.0158547,-0.012405,-1.09515,0.0163562,0.0454837,636,764,-28.8957,-2.04619
-581,260,-28.9886,0.900208,-0.00510736,0.00773849,-0.00823744,0.0117611,-0.00912998,-1.11653,0.0120933,0.0281554,643,764,-28.9886,-0.900186
-574,260,-29.0155,0.140442,-0.00408367,0.00591598,-0.00550386,0.00835193,-0.00651961,-1.15412,0.00860778,0.0192255,650,764,-29.0155,-0.140442
-567,260,-29.0512,-0.559143,-0.00328153,0.00408493,-0.00329651,0.00534469,-0.00454129,-1.20577,0.00571395,0.0187104,657,764,-29.0512,0.559146
-560,260,-29.1216,-1.31995,-0.00270289,0.0025019,-0.00156064,0.00293399,-0.00313497,-1.3007,0.00350456,0.0213028,664,764,-29.1216,1.31996
-553,260,-29.1608,-2.10675,-0.00239756,0.000943628,-0.000110406,0.000947272,-0.00240121,-1.5378,0.00199307,0.0184595,671,764,-29.1608,2.10675
-546,260,-29.1793,-2.91443,-0.00232238,-0.000705585,0.00114679,-0.000110902,-0.00291706,1.09241,0.00190882,0.0125726,678,764,-29.1793,2.91441
-539,260,-29.1895,-3.6781,-0.00248904,-0.00239691,0.00231992,-0.0001226,-0.00476335,0.795325,0.0031355,0.0143909,685,764,-29.1895,3.67812
-532,260,-29.1956,-4.40717,-0.00266597,-0.0040188,0.00320994,-6.19481e-05,-0.00662282,0.681554,0.00439471,0.0189294,692,764,-29.1956,4.40719
-525,260,-29.2913,-5.20331,-0.00270951,-0.00524338,0.00362125,-0.000139959,-0.00781292,0.617123,0.00516259,0.0165808,699,764,-29.2913,5.2033
-518,260,-29.4309,-5.9447,-0.00295234,-0.00622377,0.00386917,-0.000387332,-0.00878877,0.585414,0.00573443,0.024336,706,764,-29.4309,5.9447
-511,260,-29.4608,-6.67615,-0.0031506,-0.00679576,0.00399176,-0.000585027,-0.00936134,0.571239,0.00605531,0.0441412,713,764,-29.4608,6.67613
-504,260,-29.6334,-7.38245,0,0,0,0,0,0,0,-1,720,764,-29.6334,7.38247
-497,260,-16.6542,-3.67334,0,0,0,0,0,0,0,-1,727,764,-16.6542,3.67331
-490,260,-29.4557,0.921387,0,0,0,0,0,0,0,-1,734,764,-29.4557,-0.921369
-483,260,-40.8972,1.04193,0,0,0,0,0,0,0,-1,741,764,-40.8972,-1.04193
-476,260,-49.94,-0.250488,0,0,0,0,0,0,0,-1,748,764,-49.94,0.250485
-469,260,-49.515,0.828857,0,0,0,0,0,0,0,-1,755,764,-49.515,-0.828888
-462,260,-49.7109,0.89447,0,0,0,0,0,0,0,-1,762,764,-49.7109,-0.894449
-455,260,-49.6235,0.982422,0,0,0,0,0,0,0,-1,769,764,-49.6235,-0.982406
-448,260,0,0,0,0,0,0,0,0,0,-1,776,764,0,0
-441,260,0,0,0,0,0,0,0,0,0,-1,783,764,0,0
-434,260,0,0,0,0,0,0,0,0,0,-1,790,764,0,0
-427,260,0,0,0,0,0,0,0,0,0,-1,797,764,0,0
-420,260,0,0,0,0,0,0,0,0,0,-1,804,764,0,0
-413,260,0,0,0,0,0,0,0,0,0,-1,811,764,0,0
-406,260,0,0,0,0,0,0,0,0,0,-1,818,764,0,0
-399,260,0,0,0,0,0,0,0,0,0,-1,825,764,0,0
-392,260,0,0,0,0,0,0,0,0,0,-1,832,764,0,0
-385,260,0,0,0,0,0,0,0,0,0,-1,839,764,0,0
-378,260,0,0,0,0,0,0,0,0,0,-1,846,764,0,0
-371,260,0,0,0,0,0,0,0,0,0,-1,853,764,0,0
-364,260,0,0,0,0,0,0,0,0,0,-1,860,764,0,0
-357,260,0,0,0,0,0,0,0,0,0,-1,867,764,0,0
-350,260,0,0,0,0,0,0,0,0,0,-1,874,764,0,0
-343,260,0,0,0,0,0,0,0,0,0,-1,881,764,0,0
-336,260,0,0,0,0,0,0,0,0,0,-1,888,764,0,0
-329,260,0,0,0,0,0,0,0,0,0,-1,895,764,0,0
-322,260,0,0,0,0,0,0,0,0,0,-1,902,764,0,0
-315,260,0,0,0,0,0,0,0,0,0,-1,909,764,0,0
-308,260,0,0,0,0,0,0,0,0,0,-1,916,764,0,0
-301,260,0,0,0,0,0,0,0,0,0,-1,923,764,0,0
-294,260,0,0,0,0,0,0,0,0,0,-1,930,764,0,0
-287,260,0,0,0,0,0,0,0,0,0,-1,937,764,0,0
-280,260,0,0,0,0,0,0,0,0,0,-1,944,764,0,0
-273,260,0,0,0,0,0,0,0,0,0,-1,951,764,0,0
-266,260,0,0,0,0,0,0,0,0,0,-1,958,764,0,0
-259,260,0,0,0,0,0,0,0,0,0,-1,965,764,0,0
-252,260,0,0,0,0,0,0,0,0,0,-1,972,764,0,0
-245,260,0,0,0,0,0,0,0,0,0,-1,979,764,0,0
-238,260,0,0,0,0,0,0,0,0,0,-1,986,764,0,0
-231,260,0,0,0,0,0,0,0,0,0,-1,993,764,0,0
-224,260,0,0,0,0,0,0,0,0,0,-1,1000,764,0,0
-217,260,0,0,0,0,0,0,0,0,0,-1,1007,764,0,0
-210,260,0,0,0,0,0,0,0,0,0,-1,1014,764,0,0
-203,260,0,0,0,0,0,0,0,0,0,-1,1021,764,0,0
-196,260,0,0,0,0,0,0,0,0,0,-1,1028,764,0,0
-189,260,0,0,0,0,0,0,0,0,0,-1,1035,764,0,0
-182,260,0,0,0,0,0,0,0,0,0,-1,1042,764,0,0
-175,260,0,0,0,0,0,0,0,0,0,-1,1049,764,0,0
-168,260,0,0,0,0,0,0,0,0,0,-1,1056,764,0,0
-161,260,0,0,0,0,0,0,0,0,0,-1,1063,764,0,0
-154,260,0,0,0,0,0,0,0,0,0,-1,1070,764,0,0
-147,260,0,0,0,0,0,0,0,0,0,-1,1077,764,0,0
-140,260,0,0,0,0,0,0,0,0,0,-1,1084,764,0,0
-133,260,0,0,0,0,0,0,0,0,0,-1,1091,764,0,0
-126,260,0,0,0,0,0,0,0,0,0,-1,1098,764,0,0
-119,260,0,0,0,0,0,0,0,0,0,-1,1105,764,0,0
-112,260,0,0,0,0,0,0,0,0,0,-1,1112,764,0,0
-105,260,0,0,0,0,0,0,0,0,0,-1,1119,764,0,0
-98,260,0,0,0,0,0,0,0,0,0,-1,1126,764,0,0
-91,260,0,0,0,0,0,0,0,0,0,-1,1133,764,0,0
-84,260,0,0,0,0,0,0,0,0,0,-1,1140,764,0,0
-77,260,0,0,0,0,0,0,0,0,0,-1,1147,764,0,0
-70,260,0,0,0,0,0,0,0,0,0,-1,1154,764,0,0
-63,260,0,0,0,0,0,0,0,0,0,-1,1161,764,0,0
-56,260,0,0,0,0,0,0,0,0,0,-1,1168,764,0,0
-49,260,0,0,0,0,0,0,0,0,0,-1,1175,764,0,0
-42,260,0,0,0,0,0,0,0,0,0,-1,1182,764,0,0
-35,260,0,0,0,0,0,0,0,0,0,-1,1189,764,0,0
-28,260,0,0,0,0,0,0,0,0,0,-1,1196,764,0,0
-21,260,0,0,0,0,0,0,0,0,0,-1,1203,764,0,0
-14,260,0,0,0,0,0,0,0,0,0,-1,1210,764,0,0
-7,260,0,0,0,0,0,0,0,0,0,-1,1217,764,0,0
0,260,0,0,0,0,0,0,0,0,0,-1,1224,764,0,0
7,260,0,0,0,0,0,0,0,0,0,-1,1231,764,0,0
14,260,0,0,0,0,0,0,0,0,0,-1,1238,764,0,0
21,260,0,0,0,0,0,0,0,0,0,-1,1245,764,0,0
28,260,0,0,0,0,0,0,0,0,0,-1,1252,764,0,0
35,260,0,0,0,0,0,0,0,0,0,-1,1259,764,0,0
42,260,0,0,0,0,0,0,0,0,0,-1,1266,764,0,0
49,260,0,0,0,0,0,0,0,0,0,-1,1273,764,0,0
56,260,0,0,0,0,0,0,0,0,0,-1,1280,764,0,0
63,260,0,0,0,0,0,0,0,0,0,-1,1287,764,0,0
70,260,0,0,0,0,0,0,0,0,0,-1,1294,764,0,0
77,260,0,0,0,0,0,0,0,0,0,-1,1301,764,0,0
84,260,0,0,0,0,0,0,0,0,0,-1,1308,764,0,0
91,260,0,0,0,0,0,0,0,0,0,-1,1315,764,0,0
98,260,0,0,0,0,0,0,0,0,0,-1,1322,764,0,0
105,260,0,0,0,0,0,0,0,0,0,-1,1329,764,0,0
112,260,0,0,0,0,0,0,0,0,0,-1,1336,764,0,0
119,260,0,0,0,0,0,0,0,0,0,-1,1343,764,0,0
126,260,0,0,0,0,0,0,0,0,0,-1,1350,764,0,0
133,260,0,0,0,0,0,0,0,0,0,-1,1357,764,0,0
140,260,0,0,0,0,0,0,0,0,0,-1,1364,764,0,0
147,260,0,0,0,0,0,0,0,0,0,-1,1371,764,0,0
154,260,0,0,0,0,0,0,0,0,0,-1,1378,764,0,0
161,260,0,0,0,0,0,0,0,0,0,-1,1385,764,0,0
168,260,0,0,0,0,0,0,0,0,0,-1,1392,764,0,0
175,260,0,0,0,0,0,0,0,0,0,-1,1399,764,0,0
182,260,0,0,0,0,0,0,0,0,0,-1,1406,764,0,0
189,260,0,0,0,0,0,0,0,0,0,-1,1413,764,0,0
196,260,0,0,0,0,0,0,0,0,0,-1,1420,764,0,0
203,260,0,0,0,0,0,0,0,0,0,-1,1427,764,0,0
210,260,0,0,0,0,0,0,0,0,0,-1,1434,764,0,0
217,260,0,0,0,0,0,0,0,0,0,-1,1441,764,0,0
224,260,0,0,0,0,0,0,0,0,0,-1,1448,764,0,0
231,260,0,0,0,0,0,0,0,0,0,-1,1455,764,0,0
238,260,0,0,0,0,0,0,0,0,0,-1,1462,764,0,0
245,260,0,0,0,0,0,0,0,0,0,-1,1469,764,0,0
252,260,0,0,0,0,0,0,0,0,0,-1,1476,764,0,0
259,260,0,0,0,0,0,0,0,0,0,-1,1483,764,0,0
266,260,0,0,0,0,0,0,0,0,0,-1,1490,764,0,0
273,260,0,0,0,0,0,0,0,0,0,-1,1497,764,0,0
280,260,0,0,0,0,0,0,0,0,0,-1,1504,764,0,0
287,260,0,0,0,0,0,0,0,0,0,-1,1511,764,0,0
294,260,0,0,0,0,0,0,0,0,0,-1,1518,764,0,0
301,260,0,0,0,0,0,0,0,0,0,-1,1525,764,0,0
308,260,0,0,0,0,0,0,0,0,0,-1,1532,764,0,0
315,260,0,0,0,0,0,0,0,0,0,-1,1539,764,0,0
322,260,0,0,0,0,0,0,0,0,0,-1,1546,764,0,0
329,260,0,0,0,0,0,0,0,0,0,-1,1553,764,0,0
336,260,0,0,0,0,0,0,0,0,0,-1,1560,764,0,0
343,260,0,0,0,0,0,0,0,0,0,-1,1567,764,0,0
350,260,0,0,0,0,0,0,0,0,0,-1,1574,764,0,0
357,260,0,0,0,0,0,0,0,0,0,-1,1581,764,0,0
364,260,0,0,0,0,0,0,0,0,0,-1,1588,764,0,0
371,260,0,0,0,0,0,0,0,0,0,-1,1595,764,0,0
378,260,0,0,0,0,0,0,0,0,0,-1,1602,764,0,0
385,260,0,0,0,0,0,0,0,0,0,-1,1609,764,0,0
392,260,0,0,0,0,0,0,0,0,0,-1,1616,764,0,0
399,260,0,0,0,0,0,0,0,0,0,-1,1623,764,0,0
406,260,0,0,0,0,0,0,0,0,0,-1,1630,764,0,0
413,260,0,0,0,0,0,0,0,0,0,-1,1637,764,0,0
420,260,0,0,0,0,0,0,0,0,0,-1,1644,764,0,0
427,260,0,0,0,0,0,0,0,0,0,-1,1651,764,0,0
434,260,0,0,0,0,0,0,0,0,0,-1,1658,764,0,0
441,260,0,0,0,0,0,0,0,0,0,-1,1665,764,0,0
448,260,0,0,0,0,0,0,0,0,0,-1,1672,764,0,0
455,260,0,0,0,0,0,0,0,0,0,-1,1679,764,0,0
462,260,0,0,0,0,0,0,0,0,0,-1,1686,764,0,0
469,260,0,0,0,0,0,0,0,0,0,-1,1693,764,0,0
476,260,0,0,0,0,0,0,0,0,0,-1,1700,764,0,0
483,260,0,0,0,0,0,0,0,0,0,-1,1707,764,0,0
490,260,0,0,0,0,0,0,0,0,0,-1,1714,764,0,0
497,260,0,0,0,0,0,0,0,0,0,-1,1721,764,0,0
504,260,0,0,0,0,0,0,0,0,0,-1,1728,764,0,0
511,260,0,0,0,0,0,0,0,0,0,-1,1735,764,0,0
518,260,0,0,0,0,0,0,0,0,0,-1,1742,764,0,0
525,260,0,0,0,0,0,0,0,0,0,-1,1749,764,0,0
532,260,0,0,0,0,0,0,0,0,0,-1,1756,764,0,0
539,260,0,0,0,0,0,0,0,0,0,-1,1763,764,0,0
546,260,0,0,0,0,0,0,0,0,0,-1,1770,764,0,0
553,260,0,0,0,0,0,0,0,0,0,-1,1777,764,0,0
560,260,0,0,0,0,0,0,0,0,0,-1,1784,764,0,0
567,260,0,0,0,0,0,0,0,0,0,-1,1791,764,0,0
574,260,65.0889,2.6665,0,0,0,0,0,0,0,-1,1798,764,65.0889,-2.6665
581,260,65.1064,2.75421,0,0,0,0,0,0,0,-1,1805,764,65.1064,-2.7542
588,260,65.1348,3.00543,0,0,0,0,0,0,0,-1,1812,764,65.1348,-3.00541
595,260,63.818,3.04071,0,0,0,0,0,0,0,-1,1819,764,63.8179,-3.0407
602,260,65.6805,3.05304,0,0,0,0,0,0,0,-1,1826,764,65.6805,-3.05304
609,260,64.255,3.74298,0,0,0,0,0,0,0,-1,1833,764,64.255,-3.74297
616,260,46.0709,2.74542,0,0,0,0,0,0,0,-1,1840,764,46.0709,-2.74545
623,260,32.2268,3.25836,0,0,0,0,0,0,0,-1,1847,764,32.2268,-3.25833
630,260,24.3739,-0.536316,0,0,0,0,0,0,0,-1,1854,764,24.3739,0.536343
637,260,42.7155,-5.35486,0,0,0,0,0,0,0,-1,1861,764,42.7154,5.35488
644,260,43.5531,-4.85486,0,0,0,0,0,0,0,-1,1868,764,43.5531,4.85487
651,260,43.4805,-3.98041,0.00226873,0.000162295,0.00141271,0.00297762,-0.000546593,0.465081,0.00219013,0.0207687,1875,764,43.4804,3.9804
658,260,43.3696,-3.17365,0.00212966,-3.83329e-05,0.00116852,0.00263956,-0.000548225,0.411451,0.00196806,0.0161784,1882,764,43.3697,3.17365
665,260,43.2986,-2.3999,0.00190466,0.000141712,0.000920046,0.00229735,-0.000250972,0.403402,0.00162171,0.0163008,1889,764,43.2986,2.39993
672,260,43.285,-1.61505,0.00164561,0.000493024,0.00072413,0.00199478,0.000143857,0.449297,0.00128459,0.0141781,1896,764,43.285,1.61508
679,260,43.2529,-0.815918,0.00144763,0.00090746,0.000731436,0.00195725,0.000397836,0.608538,0.00119451,0.012645,1903,764,43.2529,0.815892
686,260,43.2188,-0.0162354,0.00142894,0.00159961,0.000887386,0.00240575,0.000622793,0.833333,0.00144179,0.0191055,1910,764,43.2187,0.0162059
693,260,43.1489,0.713379,0.00160093,0.00231915,0.00120531,0.0032177,0.000702373,0.930181,0.00195356,0.0187301,1917,764,43.149,-0.713353
700,260,43.0781,1.48602,0.00196049,0.00318548,0.00175745,0.00443411,0.000711857,0.953074,0.00274968,0.0145762,1924,764,43.0782,-1.48602
707,260,43.0862,2.27893,0.00243952,0.00404252,0.00256005,0.0059236,0.000558431,0.937105,0.00377671,0.0161143,1931,764,43.0862,-2.27895
714,260,43.0996,3.07983,0.00327968,0.00528595,0.00391448,0.00832378,0.000241847,0.91083,0.00547035,0.0340733,1938,764,43.0997,-3.07984
721,260,43.1205,3.91547,0,0,0,0,0,0,0,-1,1945,764,43.1205,-3.91545
728,260,33.4344,5.75409,0,0,0,0,0,0,0,-1,1952,764,33.4345,-5.75408
735,260,26.9788,4.85681,0,0,0,0,0,0,0,-1,1959,764,26.9787,-4.85678
742,260,32.1443,1.73688,0,0,0,0,0,0,0,-1,1966,764,32.1442,-1.73688
749,260,33.6013,2.94733,0,0,0,0,0,0,0,-1,1973,764,33.6013,-2.9473
756,260,0,0,0,0,0,0,0,0,0,-1,1980,764,0,0
763,260,0,0,0,0,0,0,0,0,0,-1,1987,764,0,0
770,260,0,0,0,0,0,0,0,0,0,-1,1994,764,0,0
777,260,0,0,0,0,0,0,0,0,0,-1,2001,764,0,0
784,260,0,0,0,0,0,0,0,0,0,-1,2008,764,0,0
791,260,0,0,0,0,0,0,0,0,0,-1,2015,764,0,0
798,260,0,0,0,0,0,0,0,0,0,-1,2022,764,0,0
805,260,0,0,0,0,0,0,0,0,0,-1,2029,764,0,0
812,260,0,0,0,0,0,0,0,0,0,-1,2036,764,0,0
-700,253,0,0,0,0,0,0,0,0,0,-1,524,771,0,0
-693,253,0,0,0,0,0,0,0,0,0,-1,531,771,0,0
-686,253,0,0,0,0,0,0,0,0,0,-1,538,771,0,0
-679,253,0,0,0,0,0,0,0,0,0,-1,545,771,0,0
-672,253,0,0,0,0,0,0,0,0,0,-1,552,771,0,0
-665,253,0,0,0,0,0,0,0,0,0,-1,559,771,0,0
-658,253,0,0,0,0,0,0,0,0,0,-1,566,771,0,0
-651,253,0,0,0,0,0,0,0,0,0,-1,573,771,0,0
-644,253,0,0,0,0,0,0,0,0,0,-1,580,771,0,0
-637,253,-24.7979,-0.491394,0,0,0,0,0,0,0,-1,587,771,-24.7978,0.491371
-630,253,-25.156,0.540405,0,0,0,0,0,0,0,-1,594,771,-25.156,-0.540421
-623,253,-20.808,2.84314,0,0,0,0,0,0,0,-1,601,771,-20.8081,-2.84312
-616,253,-25.0877,2.96875,0,0,0,0,0,0,0,-1,608,771,-25.0877,-2.96876
-609,253,-24.28,2.08228,0,0,0,0,0,0,0,-1,615,771,-24.2801,-2.08227
-602,253,-29.255,3.99066,0,0,0,0,0,0,0,-1,622,771,-29.255,-3.99064
-595,253,-29.3622,2.99884,-0.00708834,0.0113602,-0.0144375,0.0192687,-0.0149968,-1.06967,0.0198343,0.0466257,629,771,-29.3622,-2.99883
-588,253,-29.5731,1.88385,-0.00536797,0.0092001,-0.0106598,0.0148268,-0.0109947,-1.08512,0.0149627,0.0398725,636,771,-29.5731,-1.88384
-581,253,-29.763,0.900696,-0.0042051,0.00716678,-0.00768577,0.0110412,-0.00807955,-1.10387,0.0110834,0.026766,643,771,-29.763,-0.900674
-574,253,-29.7855,0.154785,-0.00340959,0.00538966,-0.00510578,0.00772989,-0.00574982,-1.14102,0.00781045,0.0219737,650,771,-29.7855,-0.154804
-567,253,-29.835,-0.637146,-0.00282305,0.00363642,-0.00296134,0.00478855,-0.00397518,-1.19976,0.005067,0.0179064,657,771,-29.8351,0.637133
-560,253,-29.8627,-1.31165,-0.00243917,0.00206563,-0.00119629,0.0023636,-0.00273715,-1.32668,0.00294755,0.0140821,664,771,-29.8627,1.31162
-553,253,-29.9216,-2.06152,-0.00232405,0.00046164,0.000314814,0.000496774,-0.00235919,1.45965,0.00176188,0.0123569,671,771,-29.9216,2.06152
-546,253,-29.951,-2.83795,-0.00243923,-0.00126737,0.0016279,-0.000123166,-0.00358343,0.958145,0.00234898,0.0113436,678,771,-29.9511,2.83796
-539,253,-30.0086,-3.62793,-0.00272946,-0.00297809,0.00278698,-6.4024e-05,-0.00564353,0.76311,0.0037412,0.013621,685,771,-30.0086,3.62793
-532,253,-30.0074,-4.40582,-0.00289386,-0.00448412,0.00360102,-1.22958e-06,-0.00737675,0.676738,0.00491743,0.0178654,692,771,-30.0075,4.40585
-525,253,-30.0583,-5.17407,-0.00283818,-0.00556839,0.00391973,-5.26505e-05,-0.00835392,0.617834,0.00555181,0.0221745,699,771,-30.0583,5.17406
-518,253,-30.1871,-5.9519,-0.00298212,-0.00641769,0.00408153,-0.00027162,-0.00912819,0.586215,0.00599697,0.0419039,706,771,-30.1872,5.9519
-511,253,-30.3729,-6.62073,0,0,0,0,0,0,0,-1,713,771,-30.3729,6.62072
-504,253,-19.317,-4.1723,0,0,0,0,0,0,0,-1,720,771,-19.317,4.1723
-497,253,-21.7737,-1.76837,0,0,0,0,0,0,0,-1,727,771,-21.7738,1.7684
-490,253,-29.7674,0.438354,0,0,0,0,0,0,0,-1,734,771,-29.7674,-0.438339
-483,253,-45.4489,1.59302,0,0,0,0,0,0,0,-1,741,771,-45.4489,-1.59303
-476,253,-49.2802,0.789673,0,0,0,0,0,0,0,-1,748,771,-49.2801,-0.789688
-469,253,-49.5128,0.830933,-0.00583534,-0.0054298,0.00413899,-0.00148862,-0.00977652,0.809873,0.0060825,0.0426524,755,771,-49.5127,-0.830936
-462,253,-49.662,0.962341,-0.00718263,-0.00340514,0.00388531,-0.000973815,-0.00961396,1.01164,0.00611062,0.0426829,762,771,-49.662,-0.962314
-455,253,-49.6166,1.00684,0,0,0,0,0,0,0,-1,769,771,-49.6167,-1.00687
-448,253,0,0,0,0,0,0,0,0,0,-1,776,771,0,0
-441,253,0,0,0,0,0,0,0,0,0,-1,783,771,0,0
-434,253,0,0,0,0,0,0,0,0,0,-1,790,771,0,0
-427,253,0,0,0,0,0,0,0,0,0,-1,797,771,0,0
-420,253,0,0,0,0,0,0,0,0,0,-1,804,771,0,0
-413,253,0,0,0,0,0,0,0,0,0,-1,811,771,0,0
-406,253,0,0,0,0,0,0,0,0,0,-1,818,771,0,0
-399,253,0,0,0,0,0,0,0,0,0,-1,825,771,0,0
-392,253,0,0,0,0,0,0,0,0,0,-1,832,771,0,0
-385,253,0,0,0,0,0,0,0,0,0,-1,839,771,0,0
-378,253,0,0,0,0,0,0,0,0,0,-1,846,771,0,0
-371,253,0,0,0,0,0,0,0,0,0,-1,853,771,0,0
-364,253,0,0,0,0,0,0,0,0,0,-1,860,771,0,0
-357,253,0,0,0,0,0,0,0,0,0,-1,867,771,0,0
-350,253,0,0,0,0,0,0,0,0,0,-1,874,771,0,0
-343,253,0,0,0,0,0,0,0,0,0,-1,881,771,0,0
-336,253,0,0,0,0,0,0,0,0,0,-1,888,771,0,0
-329,253,0,0,0,0,0,0,0,0,0,-1,895,771,0,0
-322,253,0,0,0,0,0,0,0,0,0,-1,902,771,0,0
-315,253,0,0,0,0,0,0,0,0,0,-1,909,771,0,0
-308,253,0,0,0,0,0,0,0,0,0,-1,916,771,0,0
-301,253,0,0,0,0,0,0,0,0,0,-1,923,771,0,0
-294,253,0,0,0,0,0,0,0,0,0,-1,930,771,0,0
-287,253,0,0,0,0,0,0,0,0,0,-1,937,771,0,0
-280,253,0,0,0,0,0,0,0,0,0,-1,944,771,0,0
-273,253,0,0,0,0,0,0,0,0,0,-1,951,771,0,0
-266,253,0,0,0,0,0,0,0,0,0,-1,958,771,0,0
-259,253,0,0,0,0,0,0,0,0,0,-1,965,771,0,0
-252,253,0,0,0,0,0,0,0,0,0,-1,972,771,0,0
-245,253,0,0,0,0,0,0,0,0,0,-1,979,771,0,0
-238,253,0,0,0,0,0,0,0,0,0,-1,986,771,0,0
-231,253,0,0,0,0,0,0,0,0,0,-1,993,771,0,0
-224,253,0,0,0,0,0,0,0,0,0,-1,1000,771,0,0
-217,253,0,0,0,0,0,0,0,0,0,-1,1007,771,0,0
-210,253,0,0,0,0,0,0,0,0,0,-1,1014,771,0,0
-203,253,0,0,0,0,0,0,0,0,0,-1,1021,771,0,0
-196,253,0,0,0,0,0,0,0,0,0,-1,1028,771,0,0
-189,253,0,0,0,0,0,0,0,0,0,-1,1035,771,0,0
-182,253,0,0,0,0,0,0,0,0,0,-1,1042,771,0,0
-175,253,0,0,0,0,0,0,0,0,0,-1,1049,771,0,0
-168,253,0,0,0,0,0,0,0,0,0,-1,1056,771,0,0
-161,253,0,0,0,0,0,0,0,0,0,-1,1063,771,0,0
-154,253,0,0,0,0,0,0,0,0,0,-1,1070,771,0,0
-147,253,0,0,0,0,0,0,0,0,0,-1,1077,771,0,0
-140,253,0,0,0,0,0,0,0,0,0,-1,1084,771,0,0
-133,253,0,0,0,0,0,0,0,0,0,-1,1091,771,0,0
-126,253,0,0,0,0,0,0,0,0,0,-1,1098,771,0,0
-119,253,0,0,0,0,0,0,0,0,0,-1,1105,771,0,0
-112,253,0,0,0,0,0,0,0,0,0,-1,1112,771,0,0
-105,253,0,0,0,0,0,0,0,0,0,-1,1119,771,0,0
-98,253,0,0,0,0,0,0,0,0,0,-1,1126,771,0,0
-91,253,0,0,0,0,0,0,0,0,0,-1,1133,771,0,0
-84,253,0,0,0,0,0,0,0,0,0,-1,1140,771,0,0
-77,253,0,0,0,0,0,0,0,0,0,-1,1147,771,0,0
-70,253,0,0,0,0,0,0,0,0,0,-1,1154,771,0,0
-63,253,0,0,0,0,0,0,0,0,0,-1,1161,771,0,0
-56,253,0,0,0,0,0,0,0,0,0,-1,1168,771,0,0
-49,253,0,0,0,0,0,0,0,0,0,-1,1175,771,0,0
-42,253,0,0,0,0,0,0,0,0,0,-1,1182,771,0,0
-35,253,0,0,0,0,0,0,0,0,0,-1,1189,771,0,0
-28,253,0,0,0,0,0,0,0,0,0,-1,1196,771,0,0
-21,253,0,0,0,0,0,0,0,0,0,-1,1203,771,0,0
-14,253,0,0,0,0,0,0,0,0,0,-1,1210,771,0,0
-7,253,0,0,0,0,0,0,0,0,0,-1,1217,771,0,0
0,253,0,0,0,0,0,0,0,0,0,-1,1224,771,0,0
7,253,0,0,0,0,0,0,0,0,0,-1,1231,771,0,0
14,253,0,0,0,0,0,0,0,0,0,-1,1238,771,0,0
21,253,0,0,0,0,0,0,0,0,0,-1,1245,771,0,0
28,253,0,0,0,0,0,0,0,0,0,-1,1252,771,0,0
35,253,0,0,0,0,0,0,0,0,0,-1,1259,771,0,0
42,253,0,0,0,0,0,0,0,0,0,-1,1266,771,0,0
49,253,0,0,0,0,0,0,0,0,0,-1,1273,771,0,0
56,253,0,0,0,0,0,0,0,0,0,-1,1280,771,0,0
63,253,0,0,0,0,0,0,0,0,0,-1,1287,771,0,0
70,253,0,0,0,0,0,0,0,0,0,-1,1294,771,0,0
77,253,0,0,0,0,0,0,0,0,0,-1,1301,771,0,0
84,253,0,0,0,0,0,0,0,0,0,-1,1308,771,0,0
91,253,0,0,0,0,0,0,0,0,0,-1,1315,771,0,0
98,253,0,0,0,0,0,0,0,0,0,-1,1322,771,0,0
105,253,0,0,0,0,0,0,0,0,0,-1,1329,771,0,0
112,253,0,0,0,0,0,0,0,0,0,-1,1336,771,0,0
119,253,0,0,0,0,0,0,0,0,0,-1,1343,771,0,0
126,253,0,0,0,0,0,0,0,0,0,-1,1350,771,0,0
133,253,0,0,0,0,0,0,0,0,0,-1,1357,771,0,0
140,253,0,0,0,0,0,0,0,0,0,-1,1364,771,0,0
147,253,0,0,0,0,0,0,0,0,0,-1,1371,771,0,0
154,253,0,0,0,0,0,0,0,0,0,-1,1378,771,0,0
161,253,0,0,0,0,0,0,0,0,0,-1,1385,771,0,0
168,253,0,0,0,0,0,0,0,0,0,-1,1392,771,0,0
175,253,0,0,0,0,0,0,0,0,0,-1,1399,771,0,0
182,253,0,0,0,0,0,0,0,0,0,-1,1406,771,0,0
189,253,0,0,0,0,0,0,0,0,0,-1,1413,771,0,0
196,253,0,0,0,0,0,0,0,0,0,-1,1420,771,0,0
203,253,0,0,0,0,0,0,0,0,0,-1,1427,771,0,0
210,253,0,0,0,0,0,0,0,0,0,-1,1434,771,0,0
217,253,0,0,0,0,0,0,0,0,0,-1,1441,771,0,0
224,253,0,0,0,0,0,0,0,0,0,-1,1448,771,0,0
231,253,0,0,0,0,0,0,0,0,0,-1,1455,771,0,0
238,253,0,0,0,0,0,0,0,0,0,-1,1462,771,0,0
245,253,0,0,0,0,0,0,0,0,0,-1,1469,771,0,0
252,253,0,0,0,0,0,0,0,0,0,-1,1476,771,0,0
259,253,0,0,0,0,0,0,0,0,0,-1,1483,771,0,0
266,253,0,0,0,0,0,0,0,0,0,-1,1490,771,0,0
273,253,0,0,0,0,0,0,0,0,0,-1,1497,771,0,0
280,253,0,0,0,0,0,0,0,0,0,-1,1504,771,0,0
287,253,0,0,0,0,0,0,0,0,0,-1,1511,771,0,0
294,253,0,0,0,0,0,0,0,0,0,-1,1518,771,0,0
301,253,0,0,0,0,0,0,0,0,0,-1,1525,771,0,0
308,253,0,0,0,0,0,0,0,0,0,-1,1532,771,0,0
315,253,0,0,0,0,0,0,0,0,0,-1,1539,771,0,0
322,253,0,0,0,0,0,0,0,0,0,-1,1546,771,0,0
329,253,0,0,0,0,0,0,0,0,0,-1,1553,771,0,0
336,253,0,0,0,0,0,0,0,0,0,-1,1560,771,0,0
343,253,0,0,0,0,0,0,0,0,0,-1,1567,771,0,0
350,253,0,0,0,0,0,0,0,0,0,-1,1574,771,0,0
357,253,0,0,0,0,0,0,0,0,0,-1,1581,771,0,0
364,253,0,0,0,0,0,0,0,0,0,-1,1588,771,0,0
371,253,0,0,0,0,0,0,0,0,0,-1,1595,771,0,0
378,253,0,0,0,0,0,0,0,0,0,-1,1602,771,0,0
385,253,0,0,0,0,0,0,0,0,0,-1,1609,771,0,0
392,253,0,0,0,0,0,0,0,0,0,-1,1616,771,0,0
399,253,0,0,0,0,0,0,0,0,0,-1,1623,771,0,0
406,253,0,0,0,0,0,0,0,0,0,-1,1630,771,0,0
413,253,0,0,0,0,0,0,0,0,0,-1,1637,771,0,0
420,253,0,0,0,0,0,0,0,0,0,-1,1644,771,0,0
427,253,0,0,0,0,0,0,0,0,0,-1,1651,771,0,0
434,253,0,0,0,0,0,0,0,0,0,-1,1658,771,0,0
441,253,0,0,0,0,0,0,0,0,0,-1,1665,771,0,0
448,253,0,0,0,0,0,0,0,0,0,-1,1672,771,0,0
455,253,0,0,0,0,0,0,0,0,0,-1,1679,771,0,0
462,253,0,0,0,0,0,0,0,0,0,-1,1686,771,0,0
469,253,0,0,0,0,0,0,0,0,0,-1,1693,771,0,0
476,253,0,0,0,0,0,0,0,0,0,-1,1700,771,0,0
483,253,0,0,0,0,0,0,0,0,0,-1,1707,771,0,0
490,253,0,0,0,0,0,0,0,0,0,-1,1714,771,0,0
497,253,0,0,0,0,0,0,0,0,0,-1,1721,771,0,0
504,253,0,0,0,0,0,0,0,0,0,-1,1728,771,0,0
511,253,0,0,0,0,0,0,0,0,0,-1,1735,771,0,0
518,253,0,0,0,0,0,0,0,0,0,-1,1742,771,0,0
525,253,0,0,0,0,0,0,0,0,0,-1,1749,771,0,0
532,253,0,0,0,0,0,0,0,0,0,-1,1756,771,0,0
539,253,0,0,0,0,0,0,0,0,0,-1,1763,771,0,0
546,253,0,0,0,0,0,0,0,0,0,-1,1770,771,0,0
553,253,0,0,0,0,0,0,0,0,0,-1,1777,771,0,0
560,253,0,0,0,0,0,0,0,0,0,-1,1784,771,0,0
567,253,0,0,0,0,0,0,0,0,0,-1,1791,771,0,0
574,253,64.9954,2.61053,0,0,0,0,0,0,0,-1,1798,771,64.9953,-2.61055
581,253,65.0165,2.70154,0.00690429,0.000498198,0.00518334,0.00979439,-0.00239191,0.508641,0.0074559,0.0424853,1805,771,65.0165,-2.70151
588,253,65.1034,2.80603,0.00561298,0.00106516,0.0043105,0.00821258,-0.00153443,0.542685,0.00605172,0.0499994,1812,771,65.1034,-2.80604
595,253,65.6409,2.62256,0,0,0,0,0,0,0,-1,1819,771,65.6409,-2.62253
602,253,65.4475,2.90222,0,0,0,0,0,0,0,-1,1826,771,65.4475,-2.90223
609,253,65.2542,3.18195,0,0,0,0,0,0,0,-1,1833,771,65.2541,-3.18193
616,253,58.416,2.69031,0,0,0,0,0,0,0,-1,1840,771,58.4161,-2.69031
623,253,48.8328,3.01001,0,0,0,0,0,0,0,-1,1847,771,48.8328,-3.01002
630,253,33.561,2.96838,0,0,0,0,0,0,0,-1,1854,771,33.561,-2.96836
637,253,22.3192,-0.604004,0,0,0,0,0,0,0,-1,1861,771,22.3192,0.603986
644,253,44.4043,-4.43481,0,0,0,0,0,0,0,-1,1868,771,44.4042,4.43479
651,253,44.1865,-3.77148,0.00194491,0.000440248,0.00136689,0.00275283,-0.000367676,0.533825,0.00196926,0.0419041,1875,771,44.1865,3.77148
658,253,44.1184,-3.11316,0.0018521,0.000216369,0.00112715,0.00242685,-0.000358378,0.471546,0.00174964,0.0211684,1882,771,44.1184,3.11315
665,253,44.0479,-2.37317,0.00165405,0.00026922,0.000879227,0.00208077,-0.000157508,0.451854,0.00144255,0.0210862,1889,771,44.0479,2.37316
672,253,44.0181,-1.57953,0.00139845,0.000429173,0.00063173,0.00171003,0.000117598,0.458201,0.00110291,0.0174809,1896,771,44.0181,1.57955
679,253,44.0319,-0.744629,0.00113575,0.000623963,0.00056716,0.00150207,0.000257641,0.573478,0.000927508,0.0138123,1903,771,44.0319,0.744656
686,253,43.958,0.0706177,0.00106916,0.00119992,0.00065953,0.0017973,0.000471778,0.834803,0.00107599,0.0223334,1910,771,43.958,-0.070644
693,253,43.8844,0.787781,0.00127877,0.00179824,0.00091022,0.00248506,0.000591954,0.924381,0.00149887,0.0212806,1917,771,43.8844,-0.787804
700,253,43.8793,1.51172,0.00168175,0.00256437,0.00139403,0.00358527,0.000660851,0.938692,0.00220319,0.0156573,1924,771,43.8793,-1.51174
707,253,43.8779,2.30853,0.00222204,0.00338131,0.00212325,0.00500262,0.00060073,0.918649,0.00315397,0.0146502,1931,771,43.878,-2.30853
714,253,43.8547,3.08514,0.00304126,0.00448176,0.0033091,0.00714809,0.000374929,0.892556,0.00464546,0.023314,1938,771,43.8547,-3.08512
721,253,43.7858,3.92853,0.00419894,0.0057516,0.00484257,0.00987967,7.08639e-05,0.864879,0.00656296,0.0445623,1945,771,43.7858,-3.92854
728,253,43.7468,4.7785,0,0,0,0,0,0,0,-1,1952,771,43.7469,-4.77851
735,253,34.5735,6.15118,0,0,0,0,0,0,0,-1,1959,771,34.5734,-6.1512
742,253,31.0571,5.7337,0,0,0,0,0,0,0,-1,1966,771,31.0571,-5.73373
749,253,33.7754,3.21533,0,0,0,0,0,0,0,-1,1973,771,33.7754,-3.21533
756,253,0,0,0,0,0,0,0,0,0,-1,1980,771,0,0
763,253,0,0,0,0,0,0,0,0,0,-1,1987,771,0,0
770,253,0,0,0,0,0,0,0,0,0,-1,1994,771,0,0
777,253,0,0,0,0,0,0,0,0,0,-1,2001,771,0,0
784,253,0,0,0,0,0,0,0,0,0,-1,2008,771,0,0
791,253,0,0,0,0,0,0,0,0,0,-1,2015,771,0,0
798,253,0,0,0,0,0,0,0,0,0,-1,2022,771,0,0
805,253,0,0,0,0,0,0,0,0,0,-1,2029,771,0,0
812,253,0,0,0,0,0,0,0,0,0,-1,2036,771,0,0
-700,246,0,0,0,0,0,0,0,0,0,-1,524,778,0,0
-693,246,0,0,0,0,0,0,0,0,0,-1,531,778,0,0
-686,246,0,0,0,0,0,0,0,0,0,-1,538,778,0,0
-679,246,0,0,0,0,0,0,0,0,0,-1,545,778,0,0
-672,246,0,0,0,0,0,0,0,0,0,-1,552,778,0,0
-665,246,0,0,0,0,0,0,0,0,0,-1,559,778,0,0
-658,246,0,0,0,0,0,0,0,0,0,-1,566,778,0,0
-651,246,0,0,0,0,0,0,0,0,0,-1,573,778,0,0
-644,246,0,0,0,0,0,0,0,0,0,-1,580,778,0,0
-637,246,-24.1234,0.130432,0,0,0,0,0,0,0,-1,587,778,-24.1234,-0.130438
-630,246,-24.0781,1.38916,0,0,0,0,0,0,0,-1,594,778,-24.0781,-1.38913
-623,246,-23.9183,2.49573,0,0,0,0,0,0,0,-1,601,778,-23.9183,-2.49575
-616,246,-26.8182,2.0705,0,0,0,0,0,0,0,-1,608,778,-26.8182,-2.07052
-609,246,-26.0615,1.16388,0,0,0,0,0,0,0,-1,615,778,-26.0615,-1.16388
-602,246,-30.0657,3.91467,0,0,0,0,0,0,0,-1,622,778,-30.0657,-3.91466
-595,246,-30.192,2.95612,-0.00609341,0.0104733,-0.0127296,0.0173774,-0.0129975,-1.07384,0.0175976,0.0471954,629,778,-30.1919,-2.95614
-588,246,-30.3576,1.83374,-0.0044246,0.00849739,-0.00954257,0.0135605,-0.00948772,-1.08298,0.013376,0.0324132,636,778,-30.3576,-1.83373
-581,246,-30.5577,0.998474,-0.00337765,0.00660699,-0.00689834,0.01013,-0.00690063,-1.09863,0.00989137,0.019357,643,778,-30.5577,-0.998475
-574,246,-30.5004,0.143921,-0.00272701,0.00488103,-0.00451518,0.00698103,-0.004827,-1.13546,0.00685508,0.0198254,650,778,-30.5004,-0.143932
-567,246,-30.5467,-0.619385,-0.00230434,0.00321388,-0.00247493,0.00416125,-0.00325171,-1.20522,0.0042906,0.0253583,657,778,-30.5467,0.619405
-560,246,-30.666,-1.30273,-0.00210283,0.00167535,-0.000730046,0.0018115,-0.00223899,-1.38641,0.00234289,0.0197744,664,778,-30.666,1.30275
-553,246,-30.7021,-2.00989,-0.00219544,5.16318e-05,0.000759629,0.00028433,-0.00242813,1.27354,0.00172138,0.0137665,671,778,-30.7022,2.00986
-546,246,-30.7292,-2.77081,-0.00252135,-0.00180328,0.00200938,-0.000121111,-0.00420352,0.873804,0.00276286,0.0115187,678,778,-30.7292,2.77079
-539,246,-30.7867,-3.5769,-0.00288088,-0.00361662,0.00300507,-0.000221242,-0.00627625,0.724493,0.00411241,0.0115577,685,778,-30.7867,3.57691
-532,246,-30.7964,-4.38885,-0.00292717,-0.00504856,0.00362109,-0.000214617,-0.00776111,0.642923,0.00510404,0.0210524,692,778,-30.7964,4.38885
-525,246,-30.8588,-5.13373,-0.00274997,-0.0061188,0.00382424,-0.000255617,-0.00861315,0.577953,0.00565882,0.0434826,699,778,-30.8588,5.13375
-518,246,-30.9748,-6.07306,0,0,0,0,0,0,0,-1,706,778,-30.9748,6.07306
-511,246,-28.5886,-5.38635,0,0,0,0,0,0,0,-1,713,778,-28.5886,5.38633
-504,246,-20.0047,-2.88214,0,0,0,0,0,0,0,-1,720,778,-20.0047,2.88216
-497,246,-29.4669,1.82684,0,0,0,0,0,0,0,-1,727,778,-29.4669,-1.82687
-490,246,-40.4299,1.04309,0,0,0,0,0,0,0,-1,734,778,-40.4299,-1.04308
-483,246,-49.5344,1.33099,0,0,0,0,0,0,0,-1,741,778,-49.5344,-1.331
-476,246,-49.6957,0.955017,0,0,0,0,0,0,0,-1,748,778,-49.6958,-0.955002
-469,246,-49.5941,0.992371,-0.00456671,-0.00508772,0.00395123,-0.000867411,-0.00878702,0.75248,0.00559135,0.0421517,755,778,-49.5941,-0.992346
-462,246,-49.6503,1.00085,-0.00541328,-0.00280266,0.0036192,-0.000260572,-0.00795536,0.958469,0.00521889,0.0456111,762,778,-49.6503,-1.00088
-455,246,0,0,0,0,0,0,0,0,0,-1,769,778,0,0
-448,246,0,0,0,0,0,0,0,0,0,-1,776,778,0,0
-441,246,0,0,0,0,0,0,0,0,0,-1,783,778,0,0
-434,246,0,0,0,0,0,0,0,0,0,-1,790,778,0,0
-427,246,0,0,0,0,0,0,0,0,0,-1,797,778,0,0
-420,246,0,0,0,0,0,0,0,0,0,-1,804,778,0,0
-413,246,0,0,0,0,0,0,0,0,0,-1,811,778,0,0
-406,246,0,0,0,0,0,0,0,0,0,-1,818,778,0,0
-399,246,0,0,0,0,0,0,0,0,0,-1,825,778,0,0
-392,246,0,0,0,0,0,0,0,0,0,-1,832,778,0,0
-385,246,0,0,0,0,0,0,0,0,0,-1,839,778,0,0
-378,246,0,0,0,0,0,0,0,0,0,-1,846,778,0,0
-371,246,0,0,0,0,0,0,0,0,0,-1,853,778,0,0
-364,246,0,0,0,0,0,0,0,0,0,-1,860,778,0,0
-357,246,0,0,0,0,0,0,0,0,0,-1,867,778,0,0
-350,246,0,0,0,0,0,0,0,0,0,-1,874,778,0,0
-343,246,0,0,0,0,0,0,0,0,0,-1,881,778,0,0
-336,246,0,0,0,0,0,0,0,0,0,-1,888,778,0,0
-329,246,0,0,0,0,0,0,0,0,0,-1,895,778,0,0
-322,246,0,0,0,0,0,0,0,0,0,-1,902,778,0,0
-315,246,0,0,0,0,0,0,0,0,0,-1,909,778,0,0
-308,246,0,0,0,0,0,0,0,0,0,-1,916,778,0,0
-301,246,0,0,0,0,0,0,0,0,0,-1,923,778,0,0
-294,246,0,0,0,0,0,0,0,0,0,-1,930,778,0,0
-287,246,0,0,0,0,0,0,0,0,0,-1,937,778,0,0
-280,246,0,0,0,0,0,0,0,0,0,-1,944,778,0,0
-273,246,0,0,0,0,0,0,0,0,0,-1,951,778,0,0
-266,246,0,0,0,0,0,0,0,0,0,-1,958,778,0,0
-259,246,0,0,0,0,0,0,0,0,0,-1,965,778,0,0
-252,246,0,0,0,0,0,0,0,0,0,-1,972,778,0,0
-245,246,0,0,0,0,0,0,0,0,0,-1,979,778,0,0
-238,246,0,0,0,0,0,0,0,0,0,-1,986,778,0,0
-231,246,0,0,0,0,0,0,0,0,0,-1,993,778,0,0
-224,246,0,0,0,0,0,0,0,0,0,-1,1000,778,0,0
-217,246,0,0,0,0,0,0,0,0,0,-1,1007,778,0,0
-210,246,0,0,0,0,0,0,0,0,0,-1,1014,778,0,0
-203,246,0,0,0,0,0,0,0,0,0,-1,1021,778,0,0
-196,246,0,0,0,0,0,0,0,0,0,-1,1028,778,0,0
-189,246,0,0,0,0,0,0,0,0,0,-1,1035,778,0,0
-182,246,0,0,0,0,0,0,0,0,0,-1,1042,778,0,0
-175,246,0,0,0,0,0,0,0,0,0,-1,1049,778,0,0
-168,246,0,0,0,0,0,0,0,0,0,-1,1056,778,0,0
-161,246,0,0,0,0,0,0,0,0,0,-1,1063,778,0,0
-154,246,0,0,0,0,0,0,0,0,0,-1,1070,778,0,0
-147,246,0,0,0,0,0,0,0,0,0,-1,1077,778,0,0
-140,246,0,0,0,0,0,0,0,0,0,-1,1084,778,0,0
-133,246,0,0,0,0,0,0,0,0,0,-1,1091,778,0,0
-126,246,0,0,0,0,0,0,0,0,0,-1,1098,778,0,0
-119,246,0,0,0,0,0,0,0,0,0,-1,1105,778,0,0
-112,246,0,0,0,0,0,0,0,0,0,-1,1112,778,0,0
-105,246,0,0,0,0,0,0,0,0,0,-1,1119,778,0,0
-98,246,0,0,0,0,0,0,0,0,0,-1,1126,778,0,0
-91,246,0,0,0,0,0,0,0,0,0,-1,1133,778,0,0
-84,246,0,0,0,0,0,0,0,0,0,-1,1140,778,0,0
-77,246,0,0,0,0,0,0,0,0,0,-1,1147,778,0,0
-70,246,0,0,0,0,0,0,0,0,0,-1,1154,778,0,0
-63,246,0,0,0,0,0,0,0,0,0,-1,1161,778,0,0
-56,246,0,0,0,0,0,0,0,0,0,-1,1168,778,0,0
-49,246,0,0,0,0,0,0,0,0,0,-1,1175,778,0,0
-42,246,0,0,0,0,0,0,0,0,0,-1,1182,778,0,0
-35,246,0,0,0,0,0,0,0,0,0,-1,1189,778,0,0
-28,246,0,0,0,0,0,0,0,0,0,-1,1196,778,0,0
-21,246,0,0,0,0,0,0,0,0,0,-1,1203,778,0,0
-14,246,0,0,0,0,0,0,0,0,0,-1,1210,778,0,0
-7,246,0,0,0,0,0,0,0,0,0,-1,1217,778,0,0
0,246,0,0,0,0,0,0,0,0,0,-1,1224,778,0,0
7,246,0,0,0,0,0,0,0,0,0,-1,1231,778,0,0
14,246,0,0,0,0,0,0,0,0,0,-1,1238,778,0,0
21,246,0,0,0,0,0,0,0,0,0,-1,1245,778,0,0
28,246,0,0,0,0,0,0,0,0,0,-1,1252,778,0,0
35,246,0,0,0,0,0,0,0,0,0,-1,1259,778,0,0
42,246,0,0,0,0,0,0,0,0,0,-1,1266,778,0,0
49,246,0,0,0,0,0,0,0,0,0,-1,1273,778,0,0
56,246,0,0,0,0,0,0,0,0,0,-1,1280,778,0,0
63,246,0,0,0,0,0,0,0,0,0,-1,1287,778,0,0
70,246,0,0,0,0,0,0,0,0,0,-1,1294,778,0,0
77,246,0,0,0,0,0,0,0,0,0,-1,1301,778,0,0
84,246,0,0,0,0,0,0,0,0,0,-1,1308,778,0,0
91,246,0,0,0,0,0,0,0,0,0,-1,1315,778,0,0
98,246,0,0,0,0,0,0,0,0,0,-1,1322,778,0,0
105,246,0,0,0,0,0,0,0,0,0,-1,1329,778,0,0
112,246,0,0,0,0,0,0,0,0,0,-1,1336,778,0,0
119,246,0,0,0,0,0,0,0,0,0,-1,1343,778,0,0
126,246,0,0,0,0,0,0,0,0,0,-1,1350,778,0,0
133,246,0,0,0,0,0,0,0,0,0,-1,1357,778,0,0
140,246,0,0,0,0,0,0,0,0,0,-1,1364,778,0,0
147,246,0,0,0,0,0,0,0,0,0,-1,1371,778,0,0
154,246,0,0,0,0,0,0,0,0,0,-1,1378,778,0,0
161,246,0,0,0,0,0,0,0,0,0,-1,1385,778,0,0
168,246,0,0,0,0,0,0,0,0,0,-1,1392,778,0,0
175,246,0,0,0,0,0,0,0,0,0,-1,1399,778,0,0
182,246,0,0,0,0,0,0,0,0,0,-1,1406,778,0,0
189,246,0,0,0,0,0,0,0,0,0,-1,1413,778,0,0
196,246,0,0,0,0,0,0,0,0,0,-1,1420,778,0,0
203,246,0,0,0,0,0,0,0,0,0,-1,1427,778,0,0
210,246,0,0,0,0,0,0,0,0,0,-1,1434,778,0,0
217,246,0,0,0,0,0,0,0,0,0,-1,1441,778,0,0
224,246,0,0,0,0,0,0,0,0,0,-1,1448,778,0,0
231,246,0,0,0,0,0,0,0,0,0,-1,1455,778,0,0
238,246,0,0,0,0,0,0,0,0,0,-1,1462,778,0,0
245,246,0,0,0,0,0,0,0,0,0,-1,1469,778,0,0
252,246,0,0,0,0,0,0,0,0,0,-1,1476,778,0,0
259,246,0,0,0,0,0,0,0,0,0,-1,1483,778,0,0
266,246,0,0,0,0,0,0,0,0,0,-1,1490,778,0,0
273,246,0,0,0,0,0,0,0,0,0,-1,1497,778,0,0
280,246,0,0,0,0,0,0,0,0,0,-1,1504,778,0,0
287,246,0,0,0,0,0,0,0,0,0,-1,1511,778,0,0
294,246,0,0,0,0,0,0,0,0,0,-1,1518,778,0,0
301,246,0,0,0,0,0,0,0,0,0,-1,1525,778,0,0
308,246,0,0,0,0,0,0,0,0,0,-1,1532,778,0,0
315,246,0,0,0,0,0,0,0,0,0,-1,1539,778,0,0
322,246,0,0,0,0,0,0,0,0,0,-1,1546,778,0,0
329,246,0,0,0,0,0,0,0,0,0,-1,1553,778,0,0
336,246,0,0,0,0,0,0,0,0,0,-1,1560,778,0,0
343,246,0,0,0,0,0,0,0,0,0,-1,1567,778,0,0
350,246,0,0,0,0,0,0,0,0,0,-1,1574,778,0,0
357,246,0,0,0,0,0,0,0,0,0,-1,1581,778,0,0
364,246,0,0,0,0,0,0,0,0,0,-1,1588,778,0,0
371,246,0,0,0,0,0,0,0,0,0,-1,1595,778,0,0
378,246,0,0,0,0,0,0,0,0,0,-1,1602,778,0,0
385,246,0,0,0,0,0,0,0,0,0,-1,1609,778,0,0
392,246,0,0,0,0,0,0,0,0,0,-1,1616,778,0,0
399,246,0,0,0,0,0,0,0,0,0,-1,1623,778,0,0
406,246,0,0,0,0,0,0,0,0,0,-1,1630,778,0,0
413,246,0,0,0,0,0,0,0,0,0,-1,1637,778,0,0
420,246,0,0,0,0,0,0,0,0,0,-1,1644,778,0,0
427,246,0,0,0,0,0,0,0,0,0,-1,1651,778,0,0
434,246,0,0,0,0,0,0,0,0,0,-1,1658,778,0,0
441,246,0,0,0,0,0,0,0,0,0,-1,1665,778,0,0
448,246,0,0,0,0,0,0,0,0,0,-1,1672,778,0,0
455,246,0,0,0,0,0,0,0,0,0,-1,1679,778,0,0
462,246,0,0,0,0,0,0,0,0,0,-1,1686,778,0,0
469,246,0,0,0,0,0,0,0,0,0,-1,1693,778,0,0
476,246,0,0,0,0,0,0,0,0,0,-1,1700,778,0,0
483,246,0,0,0,0,0,0,0,0,0,-1,1707,778,0,0
490,246,0,0,0,0,0,0,0,0,0,-1,1714,778,0,0
497,246,0,0,0,0,0,0,0,0,0,-1,1721,778,0,0
504,246,0,0,0,0,0,0,0,0,0,-1,1728,778,0,0
511,246,0,0,0,0,0,0,0,0,0,-1,1735,778,0,0
518,246,0,0,0,0,0,0,0,0,0,-1,1742,778,0,0
525,246,0,0,0,0,0,0,0,0,0,-1,1749,778,0,0
532,246,0,0,0,0,0,0,0,0,0,-1,1756,778,0,0
539,246,0,0,0,0,0,0,0,0,0,-1,1763,778,0,0
546,246,0,0,0,0,0,0,0,0,0,-1,1770,778,0,0
553,246,0,0,0,0,0,0,0,0,0,-1,1777,778,0,0
560,246,0,0,0,0,0,0,0,0,0,-1,1784,778,0,0
567,246,0,0,0,0,0,0,0,0,0,-1,1791,778,0,0
574,246,0,0,0,0,0,0,0,0,0,-1,1798,778,0,0
581,246,64.9418,2.70868,0.00452159,0.00110787,0.00326212,0.00649642,-0.000866955,0.544366,0.00464697,0.0375388,1805,778,64.9417,-2.70865
588,246,64.9911,2.72583,0.00435573,0.00150665,0.00317191,0.00640831,-0.000545927,0.574341,0.00446532,0.0429697,1812,778,64.9911,-2.72581
595,246,65.2731,2.7002,0,0,0,0,0,0,0,-1,1819,778,65.273,-2.7002
602,246,65.1565,2.86646,0,0,0,0,0,0,0,-1,1826,778,65.1565,-2.86649
609,246,65.04,3.03278,0,0,0,0,0,0,0,-1,1833,778,65.04,-3.03277
616,246,60.4568,3.98492,0,0,0,0,0,0,0,-1,1840,778,60.4568,-3.98491
623,246,55.8947,3.95953,0,0,0,0,0,0,0,-1,1847,778,55.8947,-3.95952
630,246,49.5938,1.99902,0,0,0,0,0,0,0,-1,1854,778,49.5937,-1.999
637,246,29.5785,0.837585,0,0,0,0,0,0,0,-1,1861,778,29.5785,-0.837606
644,246,28.1232,-1.43188,0,0,0,0,0,0,0,-1,1868,778,28.1232,1.43188
651,246,44.877,-3.59894,0,0,0,0,0,0,0,-1,1875,778,44.877,3.59892
658,246,44.682,-3.20612,0.00153027,0.000425295,0.00106484,0.00217742,-0.000221856,0.546094,0.00153093,0.0489538,1882,778,44.682,3.20614
665,246,44.8348,-2.33405,0.00129249,0.000393373,0.000793313,0.00175477,-6.89067e-05,0.527617,0.00119348,0.0266753,1889,778,44.8349,2.33405
672,246,44.8271,-1.50684,0.00102534,0.000406166,0.00050879,0.00131133,0.000120175,0.512085,0.00083704,0.0218905,1896,778,44.8271,1.50685
679,246,44.8103,-0.700928,0.000686282,0.000384298,0.000377615,0.000941974,0.000128606,0.595206,0.000589806,0.0220259,1903,778,44.8104,0.700903
686,246,44.7408,0.149353,0.000550469,0.000835598,0.000394061,0.00111209,0.000273977,0.958965,0.000669036,0.0244576,1910,778,44.7408,-0.149364
693,246,44.7214,0.847046,0.000841699,0.00134928,0.000609127,0.00175537,0.000435607,0.982785,0.00105545,0.0187527,1917,778,44.7214,-0.847068
700,246,44.7202,1.54749,0.00136121,0.00205261,0.00110781,0.00286741,0.000546414,0.936637,0.001758,0.0146558,1924,778,44.7202,-1.54751
707,246,44.6671,2.35114,0.00202612,0.00286119,0.00185717,0.00434719,0.000540121,0.895971,0.00273591,0.0133047,1931,778,44.6671,-2.35114
714,246,44.623,3.16229,0.00292193,0.00386308,0.00301916,0.00644811,0.000336897,0.862707,0.00419096,0.0137455,1938,778,44.623,-3.16227
721,246,44.5242,3.9024,0.00412486,0.00502417,0.0045576,0.00915425,-5.21168e-06,0.834569,0.00610457,0.0201826,1945,778,44.5241,-3.90238
728,246,44.5143,4.8338,0.00546023,0.00623492,0.0065156,0.0123747,-0.000679526,0.815088,0.00848537,0.0438873,1952,778,44.5142,-4.83382
735,246,44.5735,5.8335,0,0,0,0,0,0,0,-1,1959,778,44.5735,-5.83351
742,246,31.7356,6.70013,0,0,0,0,0,0,0,-1,1966,778,31.7356,-6.70011
749,246,32.3883,7.69324,0,0,0,0,0,0,0,-1,1973,778,32.3883,-7.69322
756,246,33.6919,3.45264,0,0,0,0,0,0,0,-1,1980,778,33.6919,-3.45262
763,246,0,0,0,0,0,0,0,0,0,-1,1987,778,0,0
770,246,0,0,0,0,0,0,0,0,0,-1,1994,778,0,0
777,246,0,0,0,0,0,0,0,0,0,-1,2001,778,0,0
784,246,0,0,0,0,0,0,0,0,0,-1,2008,778,0,0
791,246,0,0,0,0,0,0,0,0,0,-1,2015,778,0,0
798,246,0,0,0,0,0,0,0,0,0,-1,2022,778,0,0
805,246,0,0,0,0,0,0,0,0,0,-1,2029,778,0,0
812,246,0,0,0,0,0,0,0,0,0,-1,2036,778,0,0
-700,239,0,0,0,0,0,0,0,0,0,-1,524,785,0,0
-693,239,0,0,0,0,0,0,0,0,0,-1,531,785,0,0
-686,239,0,0,0,0,0,0,0,0,0,-1,538,785,0,0
-679,239,0,0,0,0,0,0,0,0,0,-1,545,785,0,0
-672,239,0,0,0,0,0,0,0,0,0,-1,552,785,0,0
-665,239,0,0,0,0,0,0,0,0,0,-1,559,785,0,0
-658,239,0,0,0,0,0,0,0,0,0,-1,566,785,0,0
-651,239,0,0,0,0,0,0,0,0,0,-1,573,785,0,0
-644,239,0,0,0,0,0,0,0,0,0,-1,580,785,0,0
-637,239,-23.2709,0.465088,0,0,0,0,0,0,0,-1,587,785,-23.271,-0.465116
-630,239,-23.4006,0.956299,0,0,0,0,0,0,0,-1,594,785,-23.4005,-0.956285
-623,239,-30.6328,2.52185,0,0,0,0,0,0,0,-1,601,785,-30.6328,-2.52183
-616,239,-29.1425,1.42139,0,0,0,0,0,0,0,-1,608,785,-29.1425,-1.42139
-609,239,-27.8569,0.322937,0,0,0,0,0,0,0,-1,615,785,-27.857,-0.322963
-602,239,-31.156,4.61987,0,0,0,0,0,0,0,-1,622,785,-31.156,-4.6199
-595,239,-31.1592,3.22803,-0.00546842,0.00948492,-0.0107228,0.0150804,-0.0110639,-1.08984,0.0151536,0.0426741,629,785,-31.1592,-3.22805
-588,239,-31.1572,1.88885,-0.00371234,0.00774722,-0.00818834,0.0120114,-0.00797653,-1.09068,0.0116181,0.0212143,636,785,-31.1572,-1.88888
-581,239,-31.3057,1.01208,-0.00264745,0.00604493,-0.00594406,0.00906224,-0.00566476,-1.10107,0.00857773,0.011672,643,785,-31.3057,-1.01208
-574,239,-31.3159,0.205322,-0.00202326,0.00441898,-0.00382403,0.00619773,-0.00380202,-1.13541,0.00582833,0.0131429,650,785,-31.3158,-0.205307
-567,239,-31.3546,-0.541077,-0.0016807,0.00287471,-0.00194532,0.00359237,-0.00239836,-1.21737,0.00348157,0.0191597,657,785,-31.3546,0.541089
-560,239,-31.4291,-1.24908,-0.0016024,0.00141629,-0.00027001,0.00144025,-0.00162636,-1.48229,0.00177159,0.0196679,664,785,-31.4292,1.2491
-553,239,-31.4661,-1.98395,-0.00182889,-0.000198927,0.00115233,0.000397492,-0.00242531,1.09319,0.00176436,0.0153794,671,785,-31.4661,1.98394
-546,239,-31.4992,-2.75409,-0.00227886,-0.002297,0.00226876,-1.91482e-05,-0.00455671,0.783399,0.00303145,0.015719,678,785,-31.4992,2.75411
-539,239,-31.6663,-3.50659,-0.00261617,-0.00423783,0.00305461,-0.000266606,-0.0065874,0.655668,0.00430548,0.0205267,685,785,-31.6663,3.50657
-532,239,-31.7738,-4.22919,-0.00257641,-0.0056863,0.00356251,-0.000244282,-0.00801843,0.579624,0.00526608,0.0274682,692,785,-31.7738,4.22917
-525,239,-31.7278,-4.72357,-0.00234718,-0.00682341,0.00373512,-0.000230951,-0.00893963,0.515479,0.00588428,0.0410879,699,785,-31.7278,4.72358
-518,239,-31.9512,-5.12054,0,0,0,0,0,0,0,-1,706,785,-31.9512,5.12057
-511,239,-20.9849,-2.09235,0,0,0,0,0,0,0,-1,713,785,-20.9848,2.09234
-504,239,-25.5015,2.00421,0,0,0,0,0,0,0,-1,720,785,-25.5015,-2.00422
-497,239,-40.2453,1.4447,0,0,0,0,0,0,0,-1,727,785,-40.2453,-1.4447
-490,239,-49.7488,0.766235,0,0,0,0,0,0,0,-1,734,785,-49.7488,-0.766234
-483,239,-49.5229,1.30658,0,0,0,0,0,0,0,-1,741,785,-49.5229,-1.30658
-476,239,-49.6653,0.959229,-0.00261291,-0.00631352,0.00320844,-0.000759474,-0.00816696,0.523842,0.00520997,0.0440112,748,785,-49.6654,-0.95921
-469,239,-49.6567,0.980957,-0.00290198,-0.00474827,0.00312461,-0.000567001,-0.00708326,0.641763,0.00454498,0.0453042,755,785,-49.6567,-0.980962
-462,239,-49.7109,0.987488,-0.00299233,-0.0018033,0.00231763,-5.14835e-06,-0.00479049,0.91095,0.00319194,0.0460544,762,785,-49.711,-0.987458
-455,239,0,0,0,0,0,0,0,0,0,-1,769,785,0,0
-448,239,0,0,0,0,0,0,0,0,0,-1,776,785,0,0
-441,239,0,0,0,0,0,0,0,0,0,-1,783,785,0,0
-434,239,0,0,0,0,0,0,0,0,0,-1,790,785,0,0
-427,239,0,0,0,0,0,0,0,0,0,-1,797,785,0,0
-420,239,0,0,0,0,0,0,0,0,0,-1,804,785,0,0
-413,239,0,0,0,0,0,0,0,0,0,-1,811,785,0,0
-406,239,0,0,0,0,0,0,0,0,0,-1,818,785,0,0
-399,239,0,0,0,0,0,0,0,0,0,-1,825,785,0,0
-392,239,0,0,0,0,0,0,0,0,0,-1,832,785,0,0
-385,239,0,0,0,0,0,0,0,0,0,-1,839,785,0,0
-378,239,0,0,0,0,0,0,0,0,0,-1,846,785,0,0
-371,239,0,0,0,0,0,0,0,0,0,-1,853,785,0,0
-364,239,0,0,0,0,0,0,0,0,0,-1,860,785,0,0
-357,239,0,0,0,0,0,0,0,0,0,-1,867,785,0,0
-350,239,0,0,0,0,0,0,0,0,0,-1,874,785,0,0
-343,239,0,0,0,0,0,0,0,0,0,-1,881,785,0,0
-336,239,0,0,0,0,0,0,0,0,0,-1,888,785,0,0
-329,239,0,0,0,0,0,0,0,0,0,-1,895,785,0,0
-322,239,0,0,0,0,0,0,0,0,0,-1,902,785,0,0
-315,239,0,0,0,0,0,0,0,0,0,-1,909,785,0,0
-308,239,0,0,0,0,0,0,0,0,0,-1,916,785,0,0
-301,239,0,0,0,0,0,0,0,0,0,-1,923,785,0,0
-294,239,0,0,0,0,0,0,0,0,0,-1,930,785,0,0
-287,239,0,0,0,0,0,0,0,0,0,-1,937,785,0,0
-280,239,0,0,0,0,0,0,0,0,0,-1,944,785,0,0
-273,239,0,0,0,0,0,0,0,0,0,-1,951,785,0,0
-266,239,0,0,0,0,0,0,0,0,0,-1,958,785,0,0
-259,239,0,0,0,0,0,0,0,0,0,-1,965,785,0,0
-252,239,0,0,0,0,0,0,0,0,0,-1,972,785,0,0
-245,239,0,0,0,0,0,0,0,0,0,-1,979,785,0,0
-238,239,0,0,0,0,0,0,0,0,0,-1,986,785,0,0
-231,239,0,0,0,0,0,0,0,0,0,-1,993,785,0,0
-224,239,0,0,0,0,0,0,0,0,0,-1,1000,785,0,0
-217,239,0,0,0,0,0,0,0,0,0,-1,1007,785,0,0
-210,239,0,0,0,0,0,0,0,0,0,-1,1014,785,0,0
-203,239,0,0,0,0,0,0,0,0,0,-1,1021,785,0,0
-196,239,0,0,0,0,0,0,0,0,0,-1,1028,785,0,0
-189,239,0,0,0,0,0,0,0,0,0,-1,1035,785,0,0
-182,239,0,0,0,0,0,0,0,0,0,-1,1042,785,0,0
-175,239,0,0,0,0,0,0,0,0,0,-1,1049,785,0,0
-168,239,0,0,0,0,0,0,0,0,0,-1,1056,785,0,0
-161,239,0,0,0,0,0,0,0,0,0,-1,1063,785,0,0
-154,239,0,0,0,0,0,0,0,0,0,-1,1070,785,0,0
-147,239,0,0,0,0,0,0,0,0,0,-1,1077,785,0,0
-140,239,0,0,0,0,0,0,0,0,0,-1,1084,785,0,0
-133,239,0,0,0,0,0,0,0,0,0,-1,1091,785,0,0
-126,239,0,0,0,0,0,0,0,0,0,-1,1098,785,0,0
-119,239,0,0,0,0,0,0,0,0,0,-1,1105,785,0,0
-112,239,0,0,0,0,0,0,0,0,0,-1,1112,785,0,0
-105,239,0,0,0,0,0,0,0,0,0,-1,1119,785,0,0
-98,239,0,0,0,0,0,0,0,0,0,-1,1126,785,0,0
-91,239,0,0,0,0,0,0,0,0,0,-1,1133,785,0,0
-84,239,0,0,0,0,0,0,0,0,0,-1,1140,785,0,0
-77,239,0,0,0,0,0,0,0,0,0,-1,1147,785,0,0
-70,239,0,0,0,0,0,0,0,0,0,-1,1154,785,0,0
-63,239,0,0,0,0,0,0,0,0,0,-1,1161,785,0,0
-56,239,0,0,0,0,0,0,0,0,0,-1,1168,785,0,0
-49,239,0,0,0,0,0,0,0,0,0,-1,1175,785,0,0
-42,239,0,0,0,0,0,0,0,0,0,-1,1182,785,0,0
-35,239,0,0,0,0,0,0,0,0,0,-1,1189,785,0,0
-28,239,0,0,0,0,0,0,0,0,0,-1,1196,785,0,0
-21,239,0,0,0,0,0,0,0,0,0,-1,1203,785,0,0
-14,239,0,0,0,0,0,0,0,0,0,-1,1210,785,0,0
-7,239,0,0,0,0,0,0,0,0,0,-1,1217,785,0,0
0,239,0,0,0,0,0,0,0,0,0,-1,1224,785,0,0
7,239,0,0,0,0,0,0,0,0,0,-1,1231,785,0,0
14,239,0,0,0,0,0,0,0,0,0,-1,1238,785,0,0
21,239,0,0,0,0,0,0,0,0,0,-1,1245,785,0,0
28,239,0,0,0,0,0,0,0,0,0,-1,1252,785,0,0
35,239,0,0,0,0,0,0,0,0,0,-1,1259,785,0,0
42,239,0,0,0,0,0,0,0,0,0,-1,1266,785,0,0
49,239,0,0,0,0,0,0,0,0,0,-1,1273,785,0,0
56,239,0,0,0,0,0,0,0,0,0,-1,1280,785,0,0
63,239,0,0,0,0,0,0,0,0,0,-1,1287,785,0,0
70,239,0,0,0,0,0,0,0,0,0,-1,1294,785,0,0
77,239,0,0,0,0,0,0,0,0,0,-1,1301,785,0,0
84,239,0,0,0,0,0,0,0,0,0,-1,1308,785,0,0
91,239,0,0,0,0,0,0,0,0,0,-1,1315,785,0,0
98,239,0,0,0,0,0,0,0,0,0,-1,1322,785,0,0
105,239,0,0,0,0,0,0,0,0,0,-1,1329,785,0,0
112,239,0,0,0,0,0,0,0,0,0,-1,1336,785,0,0
119,239,0,0,0,0,0,0,0,0,0,-1,1343,785,0,0
126,239,0,0,0,0,0,0,0,0,0,-1,1350,785,0,0
133,239,0,0,0,0,0,0,0,0,0,-1,1357,785,0,0
140,239,0,0,0,0,0,0,0,0,0,-1,1364,785,0,0
147,239,0,0,0,0,0,0,0,0,0,-1,1371,785,0,0
154,239,0,0,0,0,0,0,0,0,0,-1,1378,785,0,0
161,239,0,0,0,0,0,0,0,0,0,-1,1385,785,0,0
168,239,0,0,0,0,0,0,0,0,0,-1,1392,785,0,0
175,239,0,0,0,0,0,0,0,0,0,-1,1399,785,0,0
182,239,0,0,0,0,0,0,0,0,0,-1,1406,785,0,0
189,239,0,0,0,0,0,0,0,0,0,-1,1413,785,0,0
196,239,0,0,0,0,0,0,0,0,0,-1,1420,785,0,0
203,239,0,0,0,0,0,0,0,0,0,-1,1427,785,0,0
210,239,0,0,0,0,0,0,0,0,0,-1,1434,785,0,0
217,239,0,0,0,0,0,0,0,0,0,-1,1441,785,0,0
224,239,0,0,0,0,0,0,0,0,0,-1,1448,785,0,0
231,239,0,0,0,0,0,0,0,0,0,-1,1455,785,0,0
238,239,0,0,0,0,0,0,0,0,0,-1,1462,785,0,0
245,239,0,0,0,0,0,0,0,0,0,-1,1469,785,0,0
252,239,0,0,0,0,0,0,0,0,0,-1,1476,785,0,0
259,239,0,0,0,0,0,0,0,0,0,-1,1483,785,0,0
266,239,0,0,0,0,0,0,0,0,0,-1,1490,785,0,0
273,239,0,0,0,0,0,0,0,0,0,-1,1497,785,0,0
280,239,0,0,0,0,0,0,0,0,0,-1,1504,785,0,0
287,239,0,0,0,0,0,0,0,0,0,-1,1511,785,0,0
294,239,0,0,0,0,0,0,0,0,0,-1,1518,785,0,0
301,239,0,0,0,0,0,0,0,0,0,-1,1525,785,0,0
308,239,0,0,0,0,0,0,0,0,0,-1,1532,785,0,0
315,239,0,0,0,0,0,0,0,0,0,-1,1539,785,0,0
322,239,0,0,0,0,0,0,0,0,0,-1,1546,785,0,0
329,239,0,0,0,0,0,0,0,0,0,-1,1553,785,0,0
336,239,0,0,0,0,0,0,0,0,0,-1,1560,785,0,0
343,239,0,0,0,0,0,0,0,0,0,-1,1567,785,0,0
350,239,0,0,0,0,0,0,0,0,0,-1,1574,785,0,0
357,239,0,0,0,0,0,0,0,0,0,-1,1581,785,0,0
364,239,0,0,0,0,0,0,0,0,0,-1,1588,785,0,0
371,239,0,0,0,0,0,0,0,0,0,-1,1595,785,0,0
378,239,0,0,0,0,0,0,0,0,0,-1,1602,785,0,0
385,239,0,0,0,0,0,0,0,0,0,-1,1609,785,0,0
392,239,0,0,0,0,0,0,0,0,0,-1,1616,785,0,0
399,239,0,0,0,0,0,0,0,0,0,-1,1623,785,0,0
406,239,0,0,0,0,0,0,0,0,0,-1,1630,785,0,0
413,239,0,0,0,0,0,0,0,0,0,-1,1637,785,0,0
420,239,0,0,0,0,0,0,0,0,0,-1,1644,785,0,0
427,239,0,0,0,0,0,0,0,0,0,-1,1651,785,0,0
434,239,0,0,0,0,0,0,0,0,0,-1,1658,785,0,0
441,239,0,0,0,0,0,0,0,0,0,-1,1665,785,0,0
448,239,0,0,0,0,0,0,0,0,0,-1,1672,785,0,0
455,239,0,0,0,0,0,0,0,0,0,-1,1679,785,0,0
462,239,0,0,0,0,0,0,0,0,0,-1,1686,785,0,0
469,239,0,0,0,0,0,0,0,0,0,-1,1693,785,0,0
476,239,0,0,0,0,0,0,0,0,0,-1,1700,785,0,0
483,239,0,0,0,0,0,0,0,0,0,-1,1707,785,0,0
490,239,0,0,0,0,0,0,0,0,0,-1,1714,785,0,0
497,239,0,0,0,0,0,0,0,0,0,-1,1721,785,0,0
504,239,0,0,0,0,0,0,0,0,0,-1,1728,785,0,0
511,239,0,0,0,0,0,0,0,0,0,-1,1735,785,0,0
518,239,0,0,0,0,0,0,0,0,0,-1,1742,785,0,0
525,239,0,0,0,0,0,0,0,0,0,-1,1749,785,0,0
532,239,0,0,0,0,0,0,0,0,0,-1,1756,785,0,0
539,239,0,0,0,0,0,0,0,0,0,-1,1763,785,0,0
546,239,0,0,0,0,0,0,0,0,0,-1,1770,785,0,0
553,239,0,0,0,0,0,0,0,0,0,-1,1777,785,0,0
560,239,0,0,0,0,0,0,0,0,0,-1,1784,785,0,0
567,239,0,0,0,0,0,0,0,0,0,-1,1791,785,0,0
574,239,0,0,0,0,0,0,0,0,0,-1,1798,785,0,0
581,239,64.9092,2.81097,0.00140533,0.00188625,0.00126795,0.00293635,0.00035524,0.879107,0.00185055,0.0363401,1805,785,64.9092,-2.81095
588,239,64.8772,2.84113,0.00247557,0.00211409,0.00187999,0.00418349,0.000406169,0.737476,0.00266395,0.0383243,1812,785,64.8773,-2.84114
595,239,64.9934,2.71539,0.00273396,0.00247333,0.00198423,0.00459214,0.000615142,0.752608,0.00287838,0.0354241,1819,785,64.9934,-2.71541
602,239,65.0432,2.75806,0.00241676,0.00217996,0.00181843,0.00412064,0.000476082,0.752889,0.00260295,0.0441903,1826,785,65.0432,-2.75806
609,239,65.0441,2.8808,0,0,0,0,0,0,0,-1,1833,785,65.044,-2.8808
616,239,55.8469,3.72443,0,0,0,0,0,0,0,-1,1840,785,55.8469,-3.72445
623,239,63.0199,2.98529,0,0,0,0,0,0,0,-1,1847,785,63.0199,-2.98526
630,239,54.5767,3.64667,0,0,0,0,0,0,0,-1,1854,785,54.5766,-3.64667
637,239,39.5542,2.54114,0,0,0,0,0,0,0,-1,1861,785,39.5543,-2.54114
644,239,18.3466,0.735413,0,0,0,0,0,0,0,-1,1868,785,18.3465,-0.735414
651,239,34.2471,-2.15778,0,0,0,0,0,0,0,-1,1875,785,34.2471,2.1578
658,239,45.1746,-3.47943,0,0,0,0,0,0,0,-1,1882,785,45.1745,3.47941
665,239,45.6257,-2.30267,0.00101949,0.000384727,0.00077351,0.0015382,-0.000133981,0.590714,0.00107292,0.0363689,1889,785,45.6257,2.30267
672,239,45.6595,-1.46216,0.000709092,0.000404899,0.000424101,0.00100755,0.000106446,0.613226,0.000639176,0.0209232,1896,785,45.6595,1.46216
679,239,45.6138,-0.638611,0.000263341,0.000256726,0.000220435,0.000480494,3.95737e-05,0.777897,0.000307986,0.0224868,1903,785,45.6138,0.638619
686,239,45.5313,0.222961,-1.46788e-05,0.000611495,0.000119942,0.000633684,-3.68672e-05,1.38787,0.000435266,0.0246573,1910,785,45.5312,-0.222978
693,239,45.5243,0.88916,0.00032053,0.00105064,0.000274254,0.00114218,0.000228989,1.24864,0.000697763,0.0165956,1917,785,45.5243,-0.889172
700,239,45.499,1.59753,0.000942454,0.00172717,0.000801276,0.00222699,0.000442631,1.01307,0.00136132,0.0125554,1924,785,45.499,-1.59754
707,239,45.4296,2.40082,0.00172475,0.00254015,0.00160072,0.00378428,0.000480627,0.910096,0.00237888,0.0119747,1931,785,45.4296,-2.40081
714,239,45.3929,3.16766,0.00268912,0.00349129,0.00277755,0.00589657,0.000283846,0.857103,0.00383993,0.0110551,1938,785,45.3929,-3.16767
721,239,45.3218,3.96143,0.00391708,0.00461889,0.00435364,0.00863574,-9.97707e-05,0.825611,0.0057907,0.0223252,1945,785,45.3218,-3.9614
728,239,45.2357,4.89313,0.00527144,0.00582388,0.00634881,0.0119025,-0.00080716,0.807138,0.00821726,0.0456621,1952,785,45.2358,-4.89311
735,239,45.4125,6.02704,0,0,0,0,0,0,0,-1,1959,785,45.4124,-6.02704
742,239,32.4141,7.6665,0,0,0,0,0,0,0,-1,1966,785,32.4141,-7.6665
749,239,32.1489,3.4411,0,0,0,0,0,0,0,-1,1973,785,32.149,-3.44109
756,239,32.9064,3.6687,0,0,0,0,0,0,0,-1,1980,785,32.9063,-3.66873
763,239,0,0,0,0,0,0,0,0,0,-1,1987,785,0,0
770,239,0,0,0,0,0,0,0,0,0,-1,1994,785,0,0
777,239,0,0,0,0,0,0,0,0,0,-1,2001,785,0,0
784,239,0,0,0,0,0,0,0,0,0,-1,2008,785,0,0
791,239,0,0,0,0,0,0,0,0,0,-1,2015,785,0,0
798,239,0,0,0,0,0,0,0,0,0,-1,2022,785,0,0
805,239,0,0,0,0,0,0,0,0,0,-1,2029,785,0,0
812,239,0,0,0,0,0,0,0,0,0,-1,2036,785,0,0
-700,232,0,0,0,0,0,0,0,0,0,-1,524,792,0,0
-693,232,0,0,0,0,0,0,0,0,0,-1,531,792,0,0
-686,232,0,0,0,0,0,0,0,0,0,-1,538,792,0,0
-679,232,0,0,0,0,0,0,0,0,0,-1,545,792,0,0
-672,232,0,0,0,0,0,0,0,0,0,-1,552,792,0,0
-665,232,0,0,0,0,0,0,0,0,0,-1,559,792,0,0
-658,232,0,0,0,0,0,0,0,0,0,-1,566,792,0,0
-651,232,0,0,0,0,0,0,0,0,0,-1,573,792,0,0
-644,232,-41.2348,4.28168,0,0,0,0,0,0,0,-1,580,792,-41.2348,-4.28166
-637,232,-42.1427,3.51453,0,0,0,0,0,0,0,-1,587,792,-42.1427,-3.51452
-630,232,-32.2345,1.80212,0,0,0,0,0,0,0,-1,594,792,-32.2345,-1.80211
-623,232,-31.5665,1.05115,0,0,0,0,0,0,0,-1,601,792,-31.5664,-1.05112
-616,232,-30.6812,0.432861,0,0,0,0,0,0,0,-1,608,792,-30.6812,-0.432881
-609,232,-29.7142,-0.478943,0,0,0,0,0,0,0,-1,615,792,-29.7142,0.478965
-602,232,-32.0999,4.54486,0,0,0,0,0,0,0,-1,622,792,-32.0999,-4.54484
-595,232,-31.9994,3.20428,-0.00479578,0.00842591,-0.00872199,0.0127593,-0.00912917,-1.10968,0.0126951,0.0372751,629,792,-31.9994,-3.20427
-588,232,-32.0056,1.87836,-0.00300267,0.00694554,-0.00676605,0.0103691,-0.00642625,-1.10236,0.00978548,0.0142993,636,792,-32.0055,-1.87837
-581,232,-32.045,1.02618,-0.00192682,0.00544394,-0.00489216,0.00788353,-0.00436641,-1.10821,0.00716902,0.00855348,643,792,-32.045,-1.02617
-574,232,-32.0759,0.288147,-0.00131701,0.00393479,-0.0030282,0.00531705,-0.00269927,-1.14258,0.00470976,0.00903839,650,792,-32.0759,-0.288144
-567,232,-32.1357,-0.462585,-0.00104128,0.00253395,-0.00132089,0.00296902,-0.00147635,-1.25261,0.00261432,0.0115124,657,792,-32.1357,0.462568
-560,232,-32.1895,-1.20221,-0.00104432,0.00122874,0.000301631,0.00126809,-0.00108367,1.44109,0.00135918,0.0155268,664,792,-32.1894,1.20224
-553,232,-32.2487,-1.96558,-0.00130994,-0.000200446,0.00170514,0.00103791,-0.0025483,0.942668,0.00213084,0.0147523,671,792,-32.2487,1.96558
-546,232,-32.2657,-2.72168,-0.00179802,-0.00235551,0.0027085,0.000646042,-0.00479957,0.734122,0.00343537,0.0247813,678,792,-32.2658,2.72167
-539,232,-32.5284,-3.30798,-0.00203,-0.00422909,0.00334352,0.000390138,-0.00664922,0.62654,0.00456842,0.045953,685,792,-32.5284,3.30798
-532,232,-32.7847,-3.99121,-0.00186913,-0.00551332,0.0037951,0.000518624,-0.00790107,0.56159,0.00544849,0.0405667,692,792,-32.7847,3.99123
-525,232,-32.6358,-4.85211,0,0,0,0,0,0,0,-1,699,792,-32.6358,4.85209
-518,232,-20.8098,-3.08154,0,0,0,0,0,0,0,-1,706,792,-20.8098,3.08155
-511,232,-21.6708,-0.962708,0,0,0,0,0,0,0,-1,713,792,-21.6708,0.962731
-504,232,-34.2155,0.346985,0,0,0,0,0,0,0,-1,720,792,-34.2155,-0.346955
-497,232,-49.834,0.598938,0,0,0,0,0,0,0,-1,727,792,-49.834,-0.598934
-490,232,-49.711,0.749084,0,0,0,0,0,0,0,-1,734,792,-49.711,-0.749076
-483,232,-49.588,0.899231,0,0,0,0,0,0,0,-1,741,792,-49.588,-0.899218
-476,232,-49.6541,0.925903,-0.00116753,-0.00688121,0.00234488,-0.000328425,-0.00772031,0.343647,0.00504097,0.0365055,748,792,-49.6541,-0.925928
-469,232,-49.6471,0.928467,-0.000791183,-0.00505096,0.00175525,-0.000161123,-0.00568102,0.344633,0.00373479,0.0356982,755,792,-49.6471,-0.928497
-462,232,0,0,0,0,0,0,0,0,0,-1,762,792,0,0
-455,232,0,0,0,0,0,0,0,0,0,-1,769,792,0,0
-448,232,0,0,0,0,0,0,0,0,0,-1,776,792,0,0
-441,232,0,0,0,0,0,0,0,0,0,-1,783,792,0,0
-434,232,0,0,0,0,0,0,0,0,0,-1,790,792,0,0
-427,232,0,0,0,0,0,0,0,0,0,-1,797,792,0,0
-420,232,0,0,0,0,0,0,0,0,0,-1,804,792,0,0
-413,232,0,0,0,0,0,0,0,0,0,-1,811,792,0,0
-406,232,0,0,0,0,0,0,0,0,0,-1,818,792,0,0
-399,232,0,0,0,0,0,0,0,0,0,-1,825,792,0,0
-392,232,0,0,0,0,0,0,0,0,0,-1,832,792,0,0
-385,232,0,0,0,0,0,0,0,0,0,-1,839,792,0,0
-378,232,0,0,0,0,0,0,0,0,0,-1,846,792,0,0
-371,232,0,0,0,0,0,0,0,0,0,-1,853,792,0,0
-364,232,0,0,0,0,0,0,0,0,0,-1,860,792,0,0
-357,232,0,0,0,0,0,0,0,0,0,-1,867,792,0,0
-350,232,0,0,0,0,0,0,0,0,0,-1,874,792,0,0
-343,232,0,0,0,0,0,0,0,0,0,-1,881,792,0,0
-336,232,0,0,0,0,0,0,0,0,0,-1,888,792,0,0
-329,232,0,0,0,0,0,0,0,0,0,-1,895,792,0,0
-322,232,0,0,0,0,0,0,0,0,0,-1,902,792,0,0
-315,232,0,0,0,0,0,0,0,0,0,-1,909,792,0,0
-308,232,0,0,0,0,0,0,0,0,0,-1,916,792,0,0
-301,232,0,0,0,0,0,0,0,0,0,-1,923,792,0,0
-294,232,0,0,0,0,0,0,0,0,0,-1,930,792,0,0
-287,232,0,0,0,0,0,0,0,0,0,-1,937,792,0,0
-280,232,0,0,0,0,0,0,0,0,0,-1,944,792,0,0
-273,232,0,0,0,0,0,0,0,0,0,-1,951,792,0,0
-266,232,0,0,0,0,0,0,0,0,0,-1,958,792,0,0
-259,232,0,0,0,0,0,0,0,0,0,-1,965,792,0,0
-252,232,0,0,0,0,0,0,0,0,0,-1,972,792,0,0
-245,232,0,0,0,0,0,0,0,0,0,-1,979,792,0,0
-238,232,0,0,0,0,0,0,0,0,0,-1,986,792,0,0
-231,232,0,0,0,0,0,0,0,0,0,-1,993,792,0,0
-224,232,0,0,0,0,0,0,0,0,0,-1,1000,792,0,0
-217,232,0,0,0,0,0,0,0,0,0,-1,1007,792,0,0
-210,232,0,0,0,0,0,0,0,0,0,-1,1014,792,0,0
-203,232,0,0,0,0,0,0,0,0,0,-1,1021,792,0,0
-196,232,0,0,0,0,0,0,0,0,0,-1,1028,792,0,0
-189,232,0,0,0,0,0,0,0,0,0,-1,1035,792,0,0
-182,232,0,0,0,0,0,0,0,0,0,-1,1042,792,0,0
-175,232,0,0,0,0,0,0,0,0,0,-1,1049,792,0,0
-168,232,0,0,0,0,0,0,0,0,0,-1,1056,792,0,0
-161,232,0,0,0,0,0,0,0,0,0,-1,1063,792,0,0
-154,232,0,0,0,0,0,0,0,0,0,-1,1070,792,0,0
-147,232,0,0,0,0,0,0,0,0,0,-1,1077,792,0,0
-140,232,0,0,0,0,0,0,0,0,0,-1,1084,792,0,0
-133,232,0,0,0,0,0,0,0,0,0,-1,1091,792,0,0
-126,232,0,0,0,0,0,0,0,0,0,-1,1098,792,0,0
-119,232,0,0,0,0,0,0,0,0,0,-1,1105,792,0,0
-112,232,0,0,0,0,0,0,0,0,0,-1,1112,792,0,0
-105,232,0,0,0,0,0,0,0,0,0,-1,1119,792,0,0
-98,232,0,0,0,0,0,0,0,0,0,-1,1126,792,0,0
-91,232,0,0,0,0,0,0,0,0,0,-1,1133,792,0,0
-84,232,0,0,0,0,0,0,0,0,0,-1,1140,792,0,0
-77,232,0,0,0,0,0,0,0,0,0,-1,1147,792,0,0
-70,232,0,0,0,0,0,0,0,0,0,-1,1154,792,0,0
-63,232,0,0,0,0,0,0,0,0,0,-1,1161,792,0,0
-56,232,0,0,0,0,0,0,0,0,0,-1,1168,792,0,0
-49,232,0,0,0,0,0,0,0,0,0,-1,1175,792,0,0
-42,232,0,0,0,0,0,0,0,0,0,-1,1182,792,0,0
-35,232,0,0,0,0,0,0,0,0,0,-1,1189,792,0,0
-28,232,0,0,0,0,0,0,0,0,0,-1,1196,792,0,0
-21,232,0,0,0,0,0,0,0,0,0,-1,1203,792,0,0
-14,232,0,0,0,0,0,0,0,0,0,-1,1210,792,0,0
-7,232,0,0,0,0,0,0,0,0,0,-1,1217,792,0,0
0,232,0,0,0,0,0,0,0,0,0,-1,1224,792,0,0
7,232,0,0,0,0,0,0,0,0,0,-1,1231,792,0,0
14,232,0,0,0,0,0,0,0,0,0,-1,1238,792,0,0
21,232,0,0,0,0,0,0,0,0,0,-1,1245,792,0,0
28,232,0,0,0,0,0,0,0,0,0,-1,1252,792,0,0
35,232,0,0,0,0,0,0,0,0,0,-1,1259,792,0,0
42,232,0,0,0,0,0,0,0,0,0,-1,1266,792,0,0
49,232,0,0,0,0,0,0,0,0,0,-1,1273,792,0,0
56,232,0,0,0,0,0,0,0,0,0,-1,1280,792,0,0
63,232,0,0,0,0,0,0,0,0,0,-1,1287,792,0,0
70,232,0,0,0,0,0,0,0,0,0,-1,1294,792,0,0
77,232,0,0,0,0,0,0,0,0,0,-1,1301,792,0,0
84,232,0,0,0,0,0,0,0,0,0,-1,1308,792,0,0
91,232,0,0,0,0,0,0,0,0,0,-1,1315,792,0,0
98,232,0,0,0,0,0,0,0,0,0,-1,1322,792,0,0
105,232,0,0,0,0,0,0,0,0,0,-1,1329,792,0,0
112,232,0,0,0,0,0,0,0,0,0,-1,1336,792,0,0
119,232,0,0,0,0,0,0,0,0,0,-1,1343,792,0,0
126,232,0,0,0,0,0,0,0,0,0,-1,1350,792,0,0
133,232,0,0,0,0,0,0,0,0,0,-1,1357,792,0,0
140,232,0,0,0,0,0,0,0,0,0,-1,1364,792,0,0
147,232,0,0,0,0,0,0,0,0,0,-1,1371,792,0,0
154,232,0,0,0,0,0,0,0,0,0,-1,1378,792,0,0
161,232,0,0,0,0,0,0,0,0,0,-1,1385,792,0,0
168,232,0,0,0,0,0,0,0,0,0,-1,1392,792,0,0
175,232,0,0,0,0,0,0,0,0,0,-1,1399,792,0,0
182,232,0,0,0,0,0,0,0,0,0,-1,1406,792,0,0
189,232,0,0,0,0,0,0,0,0,0,-1,1413,792,0,0
196,232,0,0,0,0,0,0,0,0,0,-1,1420,792,0,0
203,232,0,0,0,0,0,0,0,0,0,-1,1427,792,0,0
210,232,0,0,0,0,0,0,0,0,0,-1,1434,792,0,0
217,232,0,0,0,0,0,0,0,0,0,-1,1441,792,0,0
224,232,0,0,0,0,0,0,0,0,0,-1,1448,792,0,0
231,232,0,0,0,0,0,0,0,0,0,-1,1455,792,0,0
238,232,0,0,0,0,0,0,0,0,0,-1,1462,792,0,0
245,232,0,0,0,0,0,0,0,0,0,-1,1469,792,0,0
252,232,0,0,0,0,0,0,0,0,0,-1,1476,792,0,0
259,232,0,0,0,0,0,0,0,0,0,-1,1483,792,0,0
266,232,0,0,0,0,0,0,0,0,0,-1,1490,792,0,0
273,232,0,0,0,0,0,0,0,0,0,-1,1497,792,0,0
280,232,0,0,0,0,0,0,0,0,0,-1,1504,792,0,0
287,232,0,0,0,0,0,0,0,0,0,-1,1511,792,0,0
294,232,0,0,0,0,0,0,0,0,0,-1,1518,792,0,0
301,232,0,0,0,0,0,0,0,0,0,-1,1525,792,0,0
308,232,0,0,0,0,0,0,0,0,0,-1,1532,792,0,0
315,232,0,0,0,0,0,0,0,0,0,-1,1539,792,0,0
322,232,0,0,0,0,0,0,0,0,0,-1,1546,792,0,0
329,232,0,0,0,0,0,0,0,0,0,-1,1553,792,0,0
336,232,0,0,0,0,0,0,0,0,0,-1,1560,792,0,0
343,232,0,0,0,0,0,0,0,0,0,-1,1567,792,0,0
350,232,0,0,0,0,0,0,0,0,0,-1,1574,792,0,0
357,232,0,0,0,0,0,0,0,0,0,-1,1581,792,0,0
364,232,0,0,0,0,0,0,0,0,0,-1,1588,792,0,0
371,232,0,0,0,0,0,0,0,0,0,-1,1595,792,0,0
378,232,0,0,0,0,0,0,0,0,0,-1,1602,792,0,0
385,232,0,0,0,0,0,0,0,0,0,-1,1609,792,0,0
392,232,0,0,0,0,0,0,0,0,0,-1,1616,792,0,0
399,232,0,0,0,0,0,0,0,0,0,-1,1623,792,0,0
406,232,0,0,0,0,0,0,0,0,0,-1,1630,792,0,0
413,232,0,0,0,0,0,0,0,0,0,-1,1637,792,0,0
420,232,0,0,0,0,0,0,0,0,0,-1,1644,792,0,0
427,232,0,0,0,0,0,0,0,0,0,-1,1651,792,0,0
434,232,0,0,0,0,0,0,0,0,0,-1,1658,792,0,0
441,232,0,0,0,0,0,0,0,0,0,-1,1665,792,0,0
448,232,0,0,0,0,0,0,0,0,0,-1,1672,792,0,0
455,232,0,0,0,0,0,0,0,0,0,-1,1679,792,0,0
462,232,0,0,0,0,0,0,0,0,0,-1,1686,792,0,0
469,232,0,0,0,0,0,0,0,0,0,-1,1693,792,0,0
476,232,0,0,0,0,0,0,0,0,0,-1,1700,792,0,0
483,232,0,0,0,0,0,0,0,0,0,-1,1707,792,0,0
490,232,0,0,0,0,0,0,0,0,0,-1,1714,792,0,0
497,232,0,0,0,0,0,0,0,0,0,-1,1721,792,0,0
504,232,0,0,0,0,0,0,0,0,0,-1,1728,792,0,0
511,232,0,0,0,0,0,0,0,0,0,-1,1735,792,0,0
518,232,0,0,0,0,0,0,0,0,0,-1,1742,792,0,0
525,232,0,0,0,0,0,0,0,0,0,-1,1749,792,0,0
532,232,0,0,0,0,0,0,0,0,0,-1,1756,792,0,0
539,232,0,0,0,0,0,0,0,0,0,-1,1763,792,0,0
546,232,0,0,0,0,0,0,0,0,0,-1,1770,792,0,0
553,232,0,0,0,0,0,0,0,0,0,-1,1777,792,0,0
560,232,0,0,0,0,0,0,0,0,0,-1,1784,792,0,0
567,232,0,0,0,0,0,0,0,0,0,-1,1791,792,0,0
574,232,0,0,0,0,0,0,0,0,0,-1,1798,792,0,0
581,232,0,0,0,0,0,0,0,0,0,-1,1805,792,0,0
588,232,64.947,2.78656,0.00036396,0.00207556,0.000793231,0.00238664,5.28789e-05,1.19706,0.00157376,0.0391985,1812,792,64.947,-2.78657
595,232,64.9703,2.66888,0.00131178,0.00252742,0.00127649,0.00333341,0.00050579,1.0076,0.00207434,0.0377472,1819,792,64.9704,-2.66891
602,232,64.9961,2.67175,0.00157078,0.00230836,0.00142301,0.00340959,0.000469552,0.912189,0.00213384,0.037917,1826,792,64.996,-2.67175
609,232,64.989,2.67737,0.00173537,0.00213492,0.00162381,0.0035712,0.000299091,0.846606,0.00228763,0.0473507,1833,792,64.989,-2.67739
616,232,64.9963,2.69958,0,0,0,0,0,0,0,-1,1840,792,64.9964,-2.69956
623,232,64.8186,2.95728,0,0,0,0,0,0,0,-1,1847,792,64.8186,-2.95728
630,232,63.1732,3.11395,0,0,0,0,0,0,0,-1,1854,792,63.1732,-3.11395
637,232,47.0471,4.04309,0,0,0,0,0,0,0,-1,1861,792,47.0471,-4.04309
644,232,30.7756,4.24139,0,0,0,0,0,0,0,-1,1868,792,30.7757,-4.24141
651,232,31.6797,-0.564087,0,0,0,0,0,0,0,-1,1875,792,31.6797,0.564059
658,232,46.7423,-3.10736,0,0,0,0,0,0,0,-1,1882,792,46.7423,3.10735
665,232,46.5093,-2.29547,0,0,0,0,0,0,0,-1,1889,792,46.5093,2.29547
672,232,46.2762,-1.48358,0,0,0,0,0,0,0,-1,1896,792,46.2763,1.4836
679,232,46.3706,-0.612122,-0.000242266,0.000292372,-6.0934e-05,0.000299229,-0.000249123,-1.45874,0.000317031,0.0210271,1903,792,46.3706,0.612146
686,232,46.3241,0.223572,-0.00065426,0.000497882,-0.000254685,0.00055167,-0.000708048,-1.36266,0.000729164,0.0194864,1910,792,46.3241,-0.223586
693,232,46.2914,0.906799,-0.000272858,0.000802833,-0.000172564,0.000829838,-0.000299863,-1.41556,0.000675734,0.0111899,1917,792,46.2914,-0.906797
700,232,46.2489,1.6521,0.000476483,0.00145214,0.00035149,0.00156558,0.000363045,1.25861,0.000946212,0.0136636,1924,792,46.2489,-1.6521
707,232,46.1946,2.43262,0.00141595,0.00228514,0.00120575,0.00313223,0.000568866,0.958367,0.00192673,0.0135922,1931,792,46.1946,-2.43262
714,232,46.1758,3.17572,0.00249875,0.00326218,0.00240137,0.00531198,0.000448941,0.864217,0.00340157,0.0139545,1938,792,46.1758,-3.17572
721,232,46.1399,3.98022,0.00380199,0.00445671,0.00399117,0.00813392,0.000124775,0.826317,0.00538151,0.0206561,1945,792,46.1399,-3.98022
728,232,46.0803,4.87372,0,0,0,0,0,0,0,-1,1952,792,46.0804,-4.87374
735,232,43.6982,5.00092,0,0,0,0,0,0,0,-1,1959,792,43.6982,-5.00091
742,232,25.6461,6.00684,0,0,0,0,0,0,0,-1,1966,792,25.6461,-6.00684
749,232,31.2874,3.74713,0,0,0,0,0,0,0,-1,1973,792,31.2874,-3.74713
756,232,32.1207,3.896,0,0,0,0,0,0,0,-1,1980,792,32.1207,-3.89597
763,232,32.7255,4.05878,0,0,0,0,0,0,0,-1,1987,792,32.7255,-4.05881
770,232,0,0,0,0,0,0,0,0,0,-1,1994,792,0,0
777,232,0,0,0,0,0,0,0,0,0,-1,2001,792,0,0
784,232,0,0,0,0,0,0,0,0,0,-1,2008,792,0,0
791,232,0,0,0,0,0,0,0,0,0,-1,2015,792,0,0
798,232,0,0,0,0,0,0,0,0,0,-1,2022,792,0,0
805,232,0,0,0,0,0,0,0,0,0,-1,2029,792,0,0
812,232,0,0,0,0,0,0,0,0,0,-1,2036,792,0,0
-700,225,0,0,0,0,0,0,0,0,0,-1,524,799,0,0
-693,225,0,0,0,0,0,0,0,0,0,-1,531,799,0,0
-686,225,0,0,0,0,0,0,0,0,0,-1,538,799,0,0
-679,225,0,0,0,0,0,0,0,0,0,-1,545,799,0,0
-672,225,0,0,0,0,0,0,0,0,0,-1,552,799,0,0
-665,225,0,0,0,0,0,0,0,0,0,-1,559,799,0,0
-658,225,0,0,0,0,0,0,0,0,0,-1,566,799,0,0
-651,225,0,0,0,0,0,0,0,0,0,-1,573,799,0,0
-644,225,-40.8898,4.14661,0,0,0,0,0,0,0,-1,580,799,-40.8898,-4.14661
-637,225,-41.61,3.36749,0,0,0,0,0,0,0,-1,587,799,-41.61,-3.36751
-630,225,-30.244,4.82196,0,0,0,0,0,0,0,-1,594,799,-30.244,-4.82193
-623,225,-32.8276,-0.00836182,0,0,0,0,0,0,0,-1,601,799,-32.8276,0.00837668
-616,225,-32.0569,-0.549255,0,0,0,0,0,0,0,-1,608,799,-32.0569,0.549265
-609,225,-32.532,4.5545,0,0,0,0,0,0,0,-1,615,799,-32.532,-4.55449
-602,225,-32.8962,3.64874,0,0,0,0,0,0,0,-1,622,799,-32.8963,-3.64873
-595,225,-32.8414,2.71747,-0.00406124,0.00802001,-0.0068334,0.0110999,-0.00714117,-1.14735,0.0106139,0.0342256,629,799,-32.8414,-2.71744
-588,225,-32.7927,1.80872,-0.00241737,0.00629294,-0.00535675,0.00884156,-0.00496599,-1.12671,0.00807579,0.0142028,636,799,-32.7927,-1.80872
-581,225,-32.808,1.06512,-0.0013991,0.00486427,-0.00379428,0.00665235,-0.00318717,-1.13041,0.00579709,0.0112714,643,799,-32.8081,-1.06511
-574,225,-32.8452,0.325928,-0.000784538,0.00345892,-0.00215578,0.00436195,-0.00168756,-1.17412,0.00360466,0.0092583,650,799,-32.8452,-0.32593
-567,225,-32.8906,-0.424072,-0.000573412,0.00221505,-0.00064752,0.00235808,-0.000716439,-1.3534,0.0018575,0.0124066,657,799,-32.8906,0.424077
-560,225,-32.9348,-1.1745,-0.000672327,0.00115278,0.000821737,0.00146823,-0.000987783,1.20426,0.001427,0.0134729,664,799,-32.9347,1.1745
-553,225,-32.9901,-1.9364,-0.000999478,5.20007e-05,0.00206666,0.00165874,-0.00260622,0.909952,0.00248255,0.0123186,671,799,-32.9901,1.93642
-546,225,-33.0137,-2.62793,-0.00149764,-0.0020957,0.00283661,0.00105566,-0.00464899,0.732884,0.00350462,0.027042,678,799,-33.0137,2.62792
-539,225,-33.6204,-3.06183,0,0,0,0,0,0,0,-1,685,799,-33.6204,3.0618
-532,225,-34.0468,-3.82611,0,0,0,0,0,0,0,-1,692,799,-34.0468,3.82611
-525,225,-29.1705,-3.88239,0,0,0,0,0,0,0,-1,699,799,-29.1705,3.88237
-518,225,-21.963,0.171326,0,0,0,0,0,0,0,-1,706,799,-21.9629,-0.171319
-511,225,-33.0002,0.660217,0,0,0,0,0,0,0,-1,713,799,-33.0002,-0.660239
-504,225,-49.3912,0.554565,0,0,0,0,0,0,0,-1,720,799,-49.3912,-0.554579
-497,225,-49.5473,0.566711,-0.000601455,-0.0097784,0.00387854,0.000818161,-0.011198,0.350873,0.00775247,0.0482632,727,799,-49.5473,-0.566694
-490,225,-49.7203,0.771484,-0.000115262,-0.00980906,0.00328391,0.000892451,-0.0108168,0.297742,0.00752632,0.0397778,734,799,-49.7203,-0.771456
-483,225,-49.6145,0.918335,0.000376579,-0.00884787,0.00242629,0.000975834,-0.00944712,0.242138,0.00664728,0.0330203,741,799,-49.6145,-0.91835
-476,225,-49.5833,0.954651,0.000983987,-0.00718418,0.00147232,0.00124127,-0.00744146,0.173,0.0054223,0.0316303,748,799,-49.5833,-0.954674
-469,225,-49.5636,0.98584,0.00248484,-0.00483136,0.000160008,0.00248834,-0.00483486,0.0218564,0.00429979,0.0363981,755,799,-49.5636,-0.985822
-462,225,0,0,0,0,0,0,0,0,0,-1,762,799,0,0
-455,225,0,0,0,0,0,0,0,0,0,-1,769,799,0,0
-448,225,0,0,0,0,0,0,0,0,0,-1,776,799,0,0
-441,225,0,0,0,0,0,0,0,0,0,-1,783,799,0,0
-434,225,0,0,0,0,0,0,0,0,0,-1,790,799,0,0
-427,225,0,0,0,0,0,0,0,0,0,-1,797,799,0,0
-420,225,0,0,0,0,0,0,0,0,0,-1,804,799,0,0
-413,225,0,0,0,0,0,0,0,0,0,-1,811,799,0,0
-406,225,0,0,0,0,0,0,0,0,0,-1,818,799,0,0
-399,225,0,0,0,0,0,0,0,0,0,-1,825,799,0,0
-392,225,0,0,0,0,0,0,0,0,0,-1,832,799,0,0
-385,225,0,0,0,0,0,0,0,0,0,-1,839,799,0,0
-378,225,0,0,0,0,0,0,0,0,0,-1,846,799,0,0
-371,225,0,0,0,0,0,0,0,0,0,-1,853,799,0,0
-364,225,0,0,0,0,0,0,0,0,0,-1,860,799,0,0
-357,225,0,0,0,0,0,0,0,0,0,-1,867,799,0,0
-350,225,0,0,0,0,0,0,0,0,0,-1,874,799,0,0
-343,225,0,0,0,0,0,0,0,0,0,-1,881,799,0,0
-336,225,0,0,0,0,0,0,0,0,0,-1,888,799,0,0
-329,225,0,0,0,0,0,0,0,0,0,-1,895,799,0,0
-322,225,0,0,0,0,0,0,0,0,0,-1,902,799,0,0
-315,225,0,0,0,0,0,0,0,0,0,-1,909,799,0,0
-308,225,0,0,0,0,0,0,0,0,0,-1,916,799,0,0
-301,225,0,0,0,0,0,0,0,0,0,-1,923,799,0,0
-294,225,0,0,0,0,0,0,0,0,0,-1,930,799,0,0
-287,225,0,0,0,0,0,0,0,0,0,-1,937,799,0,0
-280,225,0,0,0,0,0,0,0,0,0,-1,944,799,0,0
-273,225,0,0,0,0,0,0,0,0,0,-1,951,799,0,0
-266,225,0,0,0,0,0,0,0,0,0,-1,958,799,0,0
-259,225,0,0,0,0,0,0,0,0,0,-1,965,799,0,0
-252,225,0,0,0,0,0,0,0,0,0,-1,972,799,0,0
-245,225,0,0,0,0,0,0,0,0,0,-1,979,799,0,0
-238,225,0,0,0,0,0,0,0,0,0,-1,986,799,0,0
-231,225,0,0,0,0,0,0,0,0,0,-1,993,799,0,0
-224,225,0,0,0,0,0,0,0,0,0,-1,1000,799,0,0
-217,225,0,0,0,0,0,0,0,0,0,-1,1007,799,0,0
-210,225,0,0,0,0,0,0,0,0,0,-1,1014,799,0,0
-203,225,0,0,0,0,0,0,0,0,0,-1,1021,799,0,0
-196,225,0,0,0,0,0,0,0,0,0,-1,1028,799,0,0
-189,225,0,0,0,0,0,0,0,0,0,-1,1035,799,0,0
-182,225,0,0,0,0,0,0,0,0,0,-1,1042,799,0,0
-175,225,0,0,0,0,0,0,0,0,0,-1,1049,799,0,0
-168,225,0,0,0,0,0,0,0,0,0,-1,1056,799,0,0
-161,225,0,0,0,0,0,0,0,0,0,-1,1063,799,0,0
-154,225,0,0,0,0,0,0,0,0,0,-1,1070,799,0,0
-147,225,0,0,0,0,0,0,0,0,0,-1,1077,799,0,0
-140,225,0,0,0,0,0,0,0,0,0,-1,1084,799,0,0
-133,225,0,0,0,0,0,0,0,0,0,-1,1091,799,0,0
-126,225,0,0,0,0,0,0,0,0,0,-1,1098,799,0,0
-119,225,0,0,0,0,0,0,0,0,0,-1,1105,799,0,0
-112,225,0,0,0,0,0,0,0,0,0,-1,1112,799,0,0
-105,225,0,0,0,0,0,0,0,0,0,-1,1119,799,0,0
-98,225,0,0,0,0,0,0,0,0,0,-1,1126,799,0,0
-91,225,0,0,0,0,0,0,0,0,0,-1,1133,799,0,0
-84,225,0,0,0,0,0,0,0,0,0,-1,1140,799,0,0
-77,225,0,0,0,0,0,0,0,0,0,-1,1147,799,0,0
-70,225,0,0,0,0,0,0,0,0,0,-1,1154,799,0,0
-63,225,0,0,0,0,0,0,0,0,0,-1,1161,799,0,0
-56,225,0,0,0,0,0,0,0,0,0,-1,1168,799,0,0
-49,225,0,0,0,0,0,0,0,0,0,-1,1175,799,0,0
-42,225,0,0,0,0,0,0,0,0,0,-1,1182,799,0,0
-35,225,0,0,0,0,0,0,0,0,0,-1,1189,799,0,0
-28,225,0,0,0,0,0,0,0,0,0,-1,1196,799,0,0
-21,225,0,0,0,0,0,0,0,0,0,-1,1203,799,0,0
-14,225,0,0,0,0,0,0,0,0,0,-1,1210,799,0,0
-7,225,0,0,0,0,0,0,0,0,0,-1,1217,799,0,0
0,225,0,0,0,0,0,0,0,0,0,-1,1224,799,0,0
7,225,0,0,0,0,0,0,0,0,0,-1,1231,799,0,0
14,225,0,0,0,0,0,0,0,0,0,-1,1238,799,0,0
21,225,0,0,0,0,0,0,0,0,0,-1,1245,799,0,0
28,225,0,0,0,0,0,0,0,0,0,-1,1252,799,0,0
35,225,0,0,0,0,0,0,0,0,0,-1,1259,799,0,0
42,225,0,0,0,0,0,0,0,0,0,-1,1266,799,0,0
49,225,0,0,0,0,0,0,0,0,0,-1,1273,799,0,0
56,225,0,0,0,0,0,0,0,0,0,-1,1280,799,0,0
63,225,0,0,0,0,0,0,0,0,0,-1,1287,799,0,0
70,225,0,0,0,0,0,0,0,0,0,-1,1294,799,0,0
77,225,0,0,0,0,0,0,0,0,0,-1,1301,799,0,0
84,225,0,0,0,0,0,0,0,0,0,-1,1308,799,0,0
91,225,0,0,0,0,0,0,0,0,0,-1,1315,799,0,0
98,225,0,0,0,0,0,0,0,0,0,-1,1322,799,0,0
105,225,0,0,0,0,0,0,0,0,0,-1,1329,799,0,0
112,225,0,0,0,0,0,0,0,0,0,-1,1336,799,0,0
119,225,0,0,0,0,0,0,0,0,0,-1,1343,799,0,0
126,225,0,0,0,0,0,0,0,0,0,-1,1350,799,0,0
133,225,0,0,0,0,0,0,0,0,0,-1,1357,799,0,0
140,225,0,0,0,0,0,0,0,0,0,-1,1364,799,0,0
147,225,0,0,0,0,0,0,0,0,0,-1,1371,799,0,0
154,225,0,0,0,0,0,0,0,0,0,-1,1378,799,0,0
161,225,0,0,0,0,0,0,0,0,0,-1,1385,799,0,0
168,225,0,0,0,0,0,0,0,0,0,-1,1392,799,0,0
175,225,0,0,0,0,0,0,0,0,0,-1,1399,799,0,0
182,225,0,0,0,0,0,0,0,0,0,-1,1406,799,0,0
189,225,0,0,0,0,0,0,0,0,0,-1,1413,799,0,0
196,225,0,0,0,0,0,0,0,0,0,-1,1420,799,0,0
203,225,0,0,0,0,0,0,0,0,0,-1,1427,799,0,0
210,225,0,0,0,0,0,0,0,0,0,-1,1434,799,0,0
217,225,0,0,0,0,0,0,0,0,0,-1,1441,799,0,0
224,225,0,0,0,0,0,0,0,0,0,-1,1448,799,0,0
231,225,0,0,0,0,0,0,0,0,0,-1,1455,799,0,0
238,225,0,0,0,0,0,0,0,0,0,-1,1462,799,0,0
245,225,0,0,0,0,0,0,0,0,0,-1,1469,799,0,0
252,225,0,0,0,0,0,0,0,0,0,-1,1476,799,0,0
259,225,0,0,0,0,0,0,0,0,0,-1,1483,799,0,0
266,225,0,0,0,0,0,0,0,0,0,-1,1490,799,0,0
273,225,0,0,0,0,0,0,0,0,0,-1,1497,799,0,0
280,225,0,0,0,0,0,0,0,0,0,-1,1504,799,0,0
287,225,0,0,0,0,0,0,0,0,0,-1,1511,799,0,0
294,225,0,0,0,0,0,0,0,0,0,-1,1518,799,0,0
301,225,0,0,0,0,0,0,0,0,0,-1,1525,799,0,0
308,225,0,0,0,0,0,0,0,0,0,-1,1532,799,0,0
315,225,0,0,0,0,0,0,0,0,0,-1,1539,799,0,0
322,225,0,0,0,0,0,0,0,0,0,-1,1546,799,0,0
329,225,0,0,0,0,0,0,0,0,0,-1,1553,799,0,0
336,225,0,0,0,0,0,0,0,0,0,-1,1560,799,0,0
343,225,0,0,0,0,0,0,0,0,0,-1,1567,799,0,0
350,225,0,0,0,0,0,0,0,0,0,-1,1574,799,0,0
357,225,0,0,0,0,0,0,0,0,0,-1,1581,799,0,0
364,225,0,0,0,0,0,0,0,0,0,-1,1588,799,0,0
371,225,0,0,0,0,0,0,0,0,0,-1,1595,799,0,0
378,225,0,0,0,0,0,0,0,0,0,-1,1602,799,0,0
385,225,0,0,0,0,0,0,0,0,0,-1,1609,799,0,0
392,225,0,0,0,0,0,0,0,0,0,-1,1616,799,0,0
399,225,0,0,0,0,0,0,0,0,0,-1,1623,799,0,0
406,225,0,0,0,0,0,0,0,0,0,-1,1630,799,0,0
413,225,0,0,0,0,0,0,0,0,0,-1,1637,799,0,0
420,225,0,0,0,0,0,0,0,0,0,-1,1644,799,0,0
427,225,0,0,0,0,0,0,0,0,0,-1,1651,799,0,0
434,225,0,0,0,0,0,0,0,0,0,-1,1658,799,0,0
441,225,0,0,0,0,0,0,0,0,0,-1,1665,799,0,0
448,225,0,0,0,0,0,0,0,0,0,-1,1672,799,0,0
455,225,0,0,0,0,0,0,0,0,0,-1,1679,799,0,0
462,225,0,0,0,0,0,0,0,0,0,-1,1686,799,0,0
469,225,0,0,0,0,0,0,0,0,0,-1,1693,799,0,0
476,225,0,0,0,0,0,0,0,0,0,-1,1700,799,0,0
483,225,0,0,0,0,0,0,0,0,0,-1,1707,799,0,0
490,225,0,0,0,0,0,0,0,0,0,-1,1714,799,0,0
497,225,0,0,0,0,0,0,0,0,0,-1,1721,799,0,0
504,225,0,0,0,0,0,0,0,0,0,-1,1728,799,0,0
511,225,0,0,0,0,0,0,0,0,0,-1,1735,799,0,0
518,225,0,0,0,0,0,0,0,0,0,-1,1742,799,0,0
525,225,0,0,0,0,0,0,0,0,0,-1,1749,799,0,0
532,225,0,0,0,0,0,0,0,0,0,-1,1756,799,0,0
539,225,0,0,0,0,0,0,0,0,0,-1,1763,799,0,0
546,225,0,0,0,0,0,0,0,0,0,-1,1770,799,0,0
553,225,0,0,0,0,0,0,0,0,0,-1,1777,799,0,0
560,225,0,0,0,0,0,0,0,0,0,-1,1784,799,0,0
567,225,0,0,0,0,0,0,0,0,0,-1,1791,799,0,0
574,225,0,0,0,0,0,0,0,0,0,-1,1798,799,0,0
581,225,0,0,0,0,0,0,0,0,0,-1,1805,799,0,0
588,225,65.0677,2.67859,-0.00123437,0.00157956,0.000232058,0.00159857,-0.00125338,1.48906,0.00165059,0.0387612,1812,799,65.0678,-2.67862
595,225,64.9949,2.66669,-3.57847e-05,0.00200465,0.000771661,0.00226361,-0.000294748,1.24701,0.00161631,0.0362046,1819,799,64.9949,-2.66668
602,225,64.9863,2.65265,0.000716305,0.00208272,0.00112696,0.0027174,8.16281e-05,1.05789,0.00178501,0.0343398,1826,799,64.9864,-2.65263
609,225,65.0361,2.69916,0.00115258,0.00192924,0.001417,0.00301016,7.16605e-05,0.919141,0.00198331,0.0333629,1833,799,65.0361,-2.69913
616,225,64.9779,2.71191,0.00157901,0.00166045,0.00158575,0.00320601,3.34532e-05,0.798234,0.00212627,0.0388995,1840,799,64.9778,-2.71192
623,225,64.9253,2.82355,0.00191841,0.00132004,0.00170873,0.00335395,-0.0001155,0.698731,0.00227545,0.0426152,1847,799,64.9253,-2.82355
630,225,64.9255,2.84802,0,0,0,0,0,0,0,-1,1854,799,64.9255,-2.84801
637,225,55.6359,2.8064,0,0,0,0,0,0,0,-1,1861,799,55.6359,-2.80637
644,225,42.0298,2.46411,0,0,0,0,0,0,0,-1,1868,799,42.0298,-2.4641
651,225,27.9657,0.579529,0,0,0,0,0,0,0,-1,1875,799,27.9657,-0.579541
658,225,47.9047,-1.92926,0,0,0,0,0,0,0,-1,1882,799,47.9047,1.92927
665,225,47.541,-2.27985,0,0,0,0,0,0,0,-1,1889,799,47.5411,2.27983
672,225,47.1815,-1.53546,0,0,0,0,0,0,0,-1,1896,799,47.1816,1.53545
679,225,47.0902,-0.549133,-0.000920185,0.000236602,-0.000395386,0.000358829,-0.00104241,-1.27098,0.000840484,0.0347355,1903,799,47.0902,0.549109
686,225,47.0808,0.204529,-0.00143882,0.000331132,-0.000672951,0.000557931,-0.00166562,-1.24573,0.00133581,0.0119081,1910,799,47.0808,-0.204511
693,225,47.0554,0.936523,-0.000990894,0.000517807,-0.000677446,0.000777349,-0.00125044,-1.20493,0.00118132,0.0103397,1917,799,47.0554,-0.936535
700,225,47.0059,1.69232,-7.07465e-05,0.00115612,-0.000184186,0.00118317,-9.78014e-05,-1.42495,0.000823319,0.0117485,1924,799,47.0059,-1.69234
707,225,46.9519,2.46753,0.00110978,0.00202278,0.000719044,0.00241799,0.000714564,1.06823,0.00143441,0.0117116,1931,799,46.9519,-2.46754
714,225,46.9485,3.23334,0.00245464,0.00307557,0.00193862,0.00472843,0.000801785,0.864797,0.00292192,0.0126699,1938,799,46.9484,-3.23334
721,225,46.958,4.00995,0.00401603,0.00437044,0.00353162,0.0077293,0.000657175,0.810465,0.00494837,0.0161077,1945,799,46.958,-4.00995
728,225,46.9583,4.79309,0,0,0,0,0,0,0,-1,1952,799,46.9583,-4.79308
735,225,47.0127,5.93109,0,0,0,0,0,0,0,-1,1959,799,47.0128,-5.93107
742,225,29.0922,3.2132,0,0,0,0,0,0,0,-1,1966,799,29.0921,-3.21322
749,225,29.9529,4.45538,0,0,0,0,0,0,0,-1,1973,799,29.9529,-4.45537
756,225,31.8855,3.83466,0,0,0,0,0,0,0,-1,1980,799,31.8855,-3.83463
763,225,29.4901,5.14417,0,0,0,0,0,0,0,-1,1987,799,29.4902,-5.14415
770,225,0,0,0,0,0,0,0,0,0,-1,1994,799,0,0
777,225,0,0,0,0,0,0,0,0,0,-1,2001,799,0,0
784,225,0,0,0,0,0,0,0,0,0,-1,2008,799,0,0
791,225,0,0,0,0,0,0,0,0,0,-1,2015,799,0,0
798,225,0,0,0,0,0,0,0,0,0,-1,2022,799,0,0
805,225,0,0,0,0,0,0,0,0,0,-1,2029,799,0,0
812,225,0,0,0,0,0,0,0,0,0,-1,2036,799,0,0
-700,218,0,0,0,0,0,0,0,0,0,-1,524,806,0,0
-693,218,0,0,0,0,0,0,0,0,0,-1,531,806,0,0
-686,218,0,0,0,0,0,0,0,0,0,-1,538,806,0,0
-679,218,0,0,0,0,0,0,0,0,0,-1,545,806,0,0
-672,218,0,0,0,0,0,0,0,0,0,-1,552,806,0,0
-665,218,0,0,0,0,0,0,0,0,0,-1,559,806,0,0
-658,218,0,0,0,0,0,0,0,0,0,-1,566,806,0,0
-651,218,-40.3778,5.1792,0,0,0,0,0,0,0,-1,573,806,-40.3778,-5.1792
-644,218,-40.7704,4.19714,0,0,0,0,0,0,0,-1,580,806,-40.7704,-4.19714
-637,218,-41.541,3.36328,0,0,0,0,0,0,0,-1,587,806,-41.541,-3.36326
-630,218,-42.1423,2.85565,0,0,0,0,0,0,0,-1,594,806,-42.1423,-2.85567
-623,218,-42.7292,2.59015,0,0,0,0,0,0,0,-1,601,806,-42.7292,-2.59015
-616,218,-20.0258,1.87585,0,0,0,0,0,0,0,-1,608,806,-20.0258,-1.87585
-609,218,-32.9088,4.25037,0,0,0,0,0,0,0,-1,615,806,-32.9087,-4.25034
-602,218,-33.2159,3.39148,-0.00484431,0.0106092,-0.00588404,0.0125946,-0.00682964,-1.24538,0.011378,0.0431685,622,806,-33.2159,-3.39148
-595,218,-33.5438,2.59216,-0.00314806,0.00775396,-0.00491642,0.00964357,-0.00503767,-1.20386,0.00861414,0.0201864,629,806,-33.5437,-2.59214
-588,218,-33.5421,1.84253,-0.00180162,0.00571378,-0.00390055,0.00737222,-0.00346006,-1.16877,0.00638853,0.012959,636,806,-33.5421,-1.84255
-581,218,-33.573,1.11298,-0.000895023,0.00432532,-0.00262434,0.00541652,-0.00198622,-1.17674,0.00442428,0.0121655,643,806,-33.573,-1.11296
-574,218,-33.6202,0.376038,-0.000325608,0.00302907,-0.001229,0.00343113,-0.000727672,-1.25462,0.00256462,0.010922,650,806,-33.6202,-0.376037
-567,218,-33.624,-0.369385,-0.000243357,0.00195261,-1.25157e-05,0.00195268,-0.000243429,-1.5651,0.00139006,0.0180235,657,806,-33.624,0.369355
-560,218,-33.6634,-1.11359,-0.000419426,0.00116074,0.00119031,0.00179931,-0.001058,1.07839,0.00166808,0.0181934,664,806,-33.6634,1.11357
-553,218,-33.6014,-2.06293,-0.000720195,0.000352952,0.00219579,0.00207678,-0.00244402,0.905232,0.00261295,0.0201021,671,806,-33.6014,2.06294
-546,218,-33.7953,-2.90466,-0.00111834,-0.00170351,0.00269681,0.00130171,-0.00412356,0.731364,0.00327047,0.0288697,678,806,-33.7953,2.90464
-539,218,-33.8953,-3.54987,-0.00112178,-0.0033238,0.00297075,0.000945424,-0.005391,0.607937,0.00394707,0.0347033,685,806,-33.8953,3.54987
-532,218,-33.8253,-3.9682,0,0,0,0,0,0,0,-1,692,806,-33.8253,3.96821
-525,218,-29.3521,-3.64417,0,0,0,0,0,0,0,-1,699,806,-29.3521,3.64414
-518,218,-23.61,2.54181,0,0,0,0,0,0,0,-1,706,806,-23.61,-2.54183
-511,218,-41.0953,1.06879,0,0,0,0,0,0,0,-1,713,806,-41.0953,-1.06876
-504,218,-49.5039,0.804749,0,0,0,0,0,0,0,-1,720,806,-49.5039,-0.804777
-497,218,-49.6382,0.878052,0.000197557,-0.00967527,0.00376739,0.00147092,-0.0109486,0.325943,0.00783555,0.0494739,727,806,-49.6382,-0.878029
-490,218,-49.6688,0.889648,0.00106334,-0.00978366,0.00296622,0.00182149,-0.0105418,0.250238,0.00770712,0.0377956,734,806,-49.6687,-0.889643
-483,218,-49.6249,0.959473,0.00210359,-0.00869486,0.0016836,0.00236,-0.00895127,0.151134,0.00689024,0.032959,741,806,-49.6249,-0.959479
-476,218,-49.5429,1.03473,0.00355215,-0.00664183,7.89233e-05,0.00355276,-0.00664244,0.00774153,0.00597562,0.0359565,748,806,-49.5429,-1.03472
-469,218,0,0,0,0,0,0,0,0,0,-1,755,806,0,0
-462,218,0,0,0,0,0,0,0,0,0,-1,762,806,0,0
-455,218,0,0,0,0,0,0,0,0,0,-1,769,806,0,0
-448,218,0,0,0,0,0,0,0,0,0,-1,776,806,0,0
-441,218,0,0,0,0,0,0,0,0,0,-1,783,806,0,0
-434,218,0,0,0,0,0,0,0,0,0,-1,790,806,0,0
-427,218,0,0,0,0,0,0,0,0,0,-1,797,806,0,0
-420,218,0,0,0,0,0,0,0,0,0,-1,804,806,0,0
-413,218,0,0,0,0,0,0,0,0,0,-1,811,806,0,0
-406,218,0,0,0,0,0,0,0,0,0,-1,818,806,0,0
-399,218,0,0,0,0,0,0,0,0,0,-1,825,806,0,0
-392,218,0,0,0,0,0,0,0,0,0,-1,832,806,0,0
-385,218,0,0,0,0,0,0,0,0,0,-1,839,806,0,0
-378,218,0,0,0,0,0,0,0,0,0,-1,846,806,0,0
-371,218,0,0,0,0,0,0,0,0,0,-1,853,806,0,0
-364,218,0,0,0,0,0,0,0,0,0,-1,860,806,0,0
-357,218,0,0,0,0,0,0,0,0,0,-1,867,806,0,0
-350,218,0,0,0,0,0,0,0,0,0,-1,874,806,0,0
-343,218,0,0,0,0,0,0,0,0,0,-1,881,806,0,0
-336,218,0,0,0,0,0,0,0,0,0,-1,888,806,0,0
-329,218,0,0,0,0,0,0,0,0,0,-1,895,806,0,0
-322,218,0,0,0,0,0,0,0,0,0,-1,902,806,0,0
-315,218,0,0,0,0,0,0,0,0,0,-1,909,806,0,0
-308,218,0,0,0,0,0,0,0,0,0,-1,916,806,0,0
-301,218,0,0,0,0,0,0,0,0,0,-1,923,806,0,0
-294,218,0,0,0,0,0,0,0,0,0,-1,930,806,0,0
-287,218,0,0,0,0,0,0,0,0,0,-1,937,806,0,0
-280,218,0,0,0,0,0,0,0,0,0,-1,944,806,0,0
-273,218,0,0,0,0,0,0,0,0,0,-1,951,806,0,0
-266,218,0,0,0,0,0,0,0,0,0,-1,958,806,0,0
-259,218,0,0,0,0,0,0,0,0,0,-1,965,806,0,0
-252,218,0,0,0,0,0,0,0,0,0,-1,972,806,0,0
-245,218,0,0,0,0,0,0,0,0,0,-1,979,806,0,0
-238,218,0,0,0,0,0,0,0,0,0,-1,986,806,0,0
-231,218,0,0,0,0,0,0,0,0,0,-1,993,806,0,0
-224,218,0,0,0,0,0,0,0,0,0,-1,1000,806,0,0
-217,218,0,0,0,0,0,0,0,0,0,-1,1007,806,0,0
-210,218,0,0,0,0,0,0,0,0,0,-1,1014,806,0,0
-203,218,0,0,0,0,0,0,0,0,0,-1,1021,806,0,0
-196,218,0,0,0,0,0,0,0,0,0,-1,1028,806,0,0
-189,218,0,0,0,0,0,0,0,0,0,-1,1035,806,0,0
-182,218,0,0,0,0,0,0,0,0,0,-1,1042,806,0,0
-175,218,0,0,0,0,0,0,0,0,0,-1,1049,806,0,0
-168,218,0,0,0,0,0,0,0,0,0,-1,1056,806,0,0
-161,218,0,0,0,0,0,0,0,0,0,-1,1063,806,0,0
-154,218,0,0,0,0,0,0,0,0,0,-1,1070,806,0,0
-147,218,0,0,0,0,0,0,0,0,0,-1,1077,806,0,0
-140,218,0,0,0,0,0,0,0,0,0,-1,1084,806,0,0
-133,218,0,0,0,0,0,0,0,0,0,-1,1091,806,0,0
-126,218,0,0,0,0,0,0,0,0,0,-1,1098,806,0,0
-119,218,0,0,0,0,0,0,0,0,0,-1,1105,806,0,0
-112,218,0,0,0,0,0,0,0,0,0,-1,1112,806,0,0
-105,218,0,0,0,0,0,0,0,0,0,-1,1119,806,0,0
-98,218,0,0,0,0,0,0,0,0,0,-1,1126,806,0,0
-91,218,0,0,0,0,0,0,0,0,0,-1,1133,806,0,0
-84,218,0,0,0,0,0,0,0,0,0,-1,1140,806,0,0
-77,218,0,0,0,0,0,0,0,0,0,-1,1147,806,0,0
-70,218,0,0,0,0,0,0,0,0,0,-1,1154,806,0,0
-63,218,0,0,0,0,0,0,0,0,0,-1,1161,806,0,0
-56,218,0,0,0,0,0,0,0,0,0,-1,1168,806,0,0
-49,218,0,0,0,0,0,0,0,0,0,-1,1175,806,0,0
-42,218,0,0,0,0,0,0,0,0,0,-1,1182,806,0,0
-35,218,0,0,0,0,0,0,0,0,0,-1,1189,806,0,0
-28,218,0,0,0,0,0,0,0,0,0,-1,1196,806,0,0
-21,218,0,0,0,0,0,0,0,0,0,-1,1203,806,0,0
-14,218,0,0,0,0,0,0,0,0,0,-1,1210,806,0,0
-7,218,0,0,0,0,0,0,0,0,0,-1,1217,806,0,0
0,218,0,0,0,0,0,0,0,0,0,-1,1224,806,0,0
7,218,0,0,0,0,0,0,0,0,0,-1,1231,806,0,0
14,218,0,0,0,0,0,0,0,0,0,-1,1238,806,0,0
21,218,0,0,0,0,0,0,0,0,0,-1,1245,806,0,0
28,218,0,0,0,0,0,0,0,0,0,-1,1252,806,0,0
35,218,0,0,0,0,0,0,0,0,0,-1,1259,806,0,0
42,218,0,0,0,0,0,0,0,0,0,-1,1266,806,0,0
49,218,0,0,0,0,0,0,0,0,0,-1,1273,806,0,0
56,218,0,0,0,0,0,0,0,0,0,-1,1280,806,0,0
63,218,0,0,0,0,0,0,0,0,0,-1,1287,806,0,0
70,218,0,0,0,0,0,0,0,0,0,-1,1294,806,0,0
77,218,0,0,0,0,0,0,0,0,0,-1,1301,806,0,0
84,218,0,0,0,0,0,0,0,0,0,-1,1308,806,0,0
91,218,0,0,0,0,0,0,0,0,0,-1,1315,806,0,0
98,218,0,0,0,0,0,0,0,0,0,-1,1322,806,0,0
105,218,0,0,0,0,0,0,0,0,0,-1,1329,806,0,0
112,218,0,0,0,0,0,0,0,0,0,-1,1336,806,0,0
119,218,0,0,0,0,0,0,0,0,0,-1,1343,806,0,0
126,218,0,0,0,0,0,0,0,0,0,-1,1350,806,0,0
133,218,0,0,0,0,0,0,0,0,0,-1,1357,806,0,0
140,218,0,0,0,0,0,0,0,0,0,-1,1364,806,0,0
147,218,0,0,0,0,0,0,0,0,0,-1,1371,806,0,0
154,218,0,0,0,0,0,0,0,0,0,-1,1378,806,0,0
161,218,0,0,0,0,0,0,0,0,0,-1,1385,806,0,0
168,218,0,0,0,0,0,0,0,0,0,-1,1392,806,0,0
175,218,0,0,0,0,0,0,0,0,0,-1,1399,806,0,0
182,218,0,0,0,0,0,0,0,0,0,-1,1406,806,0,0
189,218,0,0,0,0,0,0,0,0,0,-1,1413,806,0,0
196,218,0,0,0,0,0,0,0,0,0,-1,1420,806,0,0
203,218,0,0,0,0,0,0,0,0,0,-1,1427,806,0,0
210,218,0,0,0,0,0,0,0,0,0,-1,1434,806,0,0
217,218,0,0,0,0,0,0,0,0,0,-1,1441,806,0,0
224,218,0,0,0,0,0,0,0,0,0,-1,1448,806,0,0
231,218,0,0,0,0,0,0,0,0,0,-1,1455,806,0,0
238,218,0,0,0,0,0,0,0,0,0,-1,1462,806,0,0
245,218,0,0,0,0,0,0,0,0,0,-1,1469,806,0,0
252,218,0,0,0,0,0,0,0,0,0,-1,1476,806,0,0
259,218,0,0,0,0,0,0,0,0,0,-1,1483,806,0,0
266,218,0,0,0,0,0,0,0,0,0,-1,1490,806,0,0
273,218,0,0,0,0,0,0,0,0,0,-1,1497,806,0,0
280,218,0,0,0,0,0,0,0,0,0,-1,1504,806,0,0
287,218,0,0,0,0,0,0,0,0,0,-1,1511,806,0,0
294,218,0,0,0,0,0,0,0,0,0,-1,1518,806,0,0
301,218,0,0,0,0,0,0,0,0,0,-1,1525,806,0,0
308,218,0,0,0,0,0,0,0,0,0,-1,1532,806,0,0
315,218,0,0,0,0,0,0,0,0,0,-1,1539,806,0,0
322,218,0,0,0,0,0,0,0,0,0,-1,1546,806,0,0
329,218,0,0,0,0,0,0,0,0,0,-1,1553,806,0,0
336,218,0,0,0,0,0,0,0,0,0,-1,1560,806,0,0
343,218,0,0,0,0,0,0,0,0,0,-1,1567,806,0,0
350,218,0,0,0,0,0,0,0,0,0,-1,1574,806,0,0
357,218,0,0,0,0,0,0,0,0,0,-1,1581,806,0,0
364,218,0,0,0,0,0,0,0,0,0,-1,1588,806,0,0
371,218,0,0,0,0,0,0,0,0,0,-1,1595,806,0,0
378,218,0,0,0,0,0,0,0,0,0,-1,1602,806,0,0
385,218,0,0,0,0,0,0,0,0,0,-1,1609,806,0,0
392,218,0,0,0,0,0,0,0,0,0,-1,1616,806,0,0
399,218,0,0,0,0,0,0,0,0,0,-1,1623,806,0,0
406,218,0,0,0,0,0,0,0,0,0,-1,1630,806,0,0
413,218,0,0,0,0,0,0,0,0,0,-1,1637,806,0,0
420,218,0,0,0,0,0,0,0,0,0,-1,1644,806,0,0
427,218,0,0,0,0,0,0,0,0,0,-1,1651,806,0,0
434,218,0,0,0,0,0,0,0,0,0,-1,1658,806,0,0
441,218,0,0,0,0,0,0,0,0,0,-1,1665,806,0,0
448,218,0,0,0,0,0,0,0,0,0,-1,1672,806,0,0
455,218,0,0,0,0,0,0,0,0,0,-1,1679,806,0,0
462,218,0,0,0,0,0,0,0,0,0,-1,1686,806,0,0
469,218,0,0,0,0,0,0,0,0,0,-1,1693,806,0,0
476,218,0,0,0,0,0,0,0,0,0,-1,1700,806,0,0
483,218,0,0,0,0,0,0,0,0,0,-1,1707,806,0,0
490,218,0,0,0,0,0,0,0,0,0,-1,1714,806,0,0
497,218,0,0,0,0,0,0,0,0,0,-1,1721,806,0,0
504,218,0,0,0,0,0,0,0,0,0,-1,1728,806,0,0
511,218,0,0,0,0,0,0,0,0,0,-1,1735,806,0,0
518,218,0,0,0,0,0,0,0,0,0,-1,1742,806,0,0
525,218,0,0,0,0,0,0,0,0,0,-1,1749,806,0,0
532,218,0,0,0,0,0,0,0,0,0,-1,1756,806,0,0
539,218,0,0,0,0,0,0,0,0,0,-1,1763,806,0,0
546,218,0,0,0,0,0,0,0,0,0,-1,1770,806,0,0
553,218,0,0,0,0,0,0,0,0,0,-1,1777,806,0,0
560,218,0,0,0,0,0,0,0,0,0,-1,1784,806,0,0
567,218,0,0,0,0,0,0,0,0,0,-1,1791,806,0,0
574,218,0,0,0,0,0,0,0,0,0,-1,1798,806,0,0
581,218,0,0,0,0,0,0,0,0,0,-1,1805,806,0,0
588,218,0,0,0,0,0,0,0,0,0,-1,1812,806,0,0
595,218,65.0781,2.6842,-0.000618506,0.000201857,0.00101867,0.000889824,-0.00130647,0.976799,0.00127562,0.0389237,1819,806,65.0781,-2.68423
602,218,64.9965,2.63074,0.000153823,0.000979909,0.00125169,0.00188495,-0.000751217,0.944766,0.00156821,0.0344726,1826,806,64.9965,-2.63071
609,218,64.9988,2.6897,0.000642606,0.0011939,0.00138689,0.00233227,-0.000495767,0.883495,0.00174375,0.0279857,1833,806,64.9988,-2.68972
616,218,64.9435,2.75256,0.00117489,0.00112321,0.00155882,0.00270809,-0.000409983,0.77711,0.00195643,0.0291262,1840,806,64.9435,-2.75259
623,218,64.9333,2.73431,0.00163387,0.000830321,0.00171765,0.0029961,-0.000531915,0.670509,0.00219628,0.0353649,1847,806,64.9334,-2.73432
630,218,65.1587,2.60529,0.00117741,0.00055399,0.00167342,0.0025679,-0.0008365,0.693318,0.00204851,0.0395007,1854,806,65.1586,-2.6053
637,218,65.4519,2.39886,0,0,0,0,0,0,0,-1,1861,806,65.4519,-2.39888
644,218,52.4042,2.47949,0,0,0,0,0,0,0,-1,1868,806,52.4041,-2.47949
651,218,41.7338,1.99164,0,0,0,0,0,0,0,-1,1875,806,41.7338,-1.99162
658,218,28.41,0.514954,0,0,0,0,0,0,0,-1,1882,806,28.41,-0.514983
665,218,48.6245,-1.9516,0,0,0,0,0,0,0,-1,1889,806,48.6245,1.95158
672,218,48.285,-1.05133,0,0,0,0,0,0,0,-1,1896,806,48.2851,1.0513
679,218,47.996,-0.472107,-0.00147556,9.46807e-05,-0.000626763,0.000314173,-0.00169505,-1.23394,0.00124801,0.0416365,1903,806,47.996,0.472112
686,218,47.853,0.211243,-0.00208882,0.000161428,-0.00100033,0.000541812,-0.00246921,-1.20742,0.00185333,0.0179733,1910,806,47.853,-0.211215
693,218,47.845,0.966125,-0.00166099,0.000254931,-0.00111727,0.000768698,-0.00217475,-1.13979,0.00176285,0.0116856,1917,806,47.8449,-0.966149
700,218,47.7733,1.72369,-0.000728467,0.000838406,-0.000708161,0.00111103,-0.00100109,-1.20331,0.00121998,0.00937473,1924,806,47.7733,-1.72372
707,218,47.7277,2.49359,0.000563273,0.00168321,0.000213548,0.00172255,0.000523936,1.38863,0.00101962,0.00761885,1931,806,47.7276,-2.49356
714,218,47.7135,3.27802,0.00207737,0.00276205,0.00145942,0.00391874,0.000920672,0.900602,0.00236609,0.0102201,1938,806,47.7135,-3.27803
721,218,47.714,4.02802,0.00378273,0.00408151,0.00305419,0.00698996,0.00087428,0.809835,0.00439761,0.0147105,1945,806,47.714,-4.02802
728,218,47.6763,4.82941,0.00565223,0.00559096,0.00497329,0.010595,0.000648214,0.782318,0.00685746,0.0297103,1952,806,47.6763,-4.82942
735,218,47.6912,5.81427,0.00743753,0.00750482,0.00743911,0.0149104,3.19863e-05,0.78766,0.0099296,0.0499912,1959,806,47.6912,-5.8143
742,218,47.8733,6.84155,0,0,0,0,0,0,0,-1,1966,806,47.8733,-6.84158
749,218,42.0249,6.64703,0,0,0,0,0,0,0,-1,1973,806,42.0249,-6.64703
756,218,45.9846,7.24353,0,0,0,0,0,0,0,-1,1980,806,45.9846,-7.24353
763,218,41.7648,5.6676,0,0,0,0,0,0,0,-1,1987,806,41.7648,-5.6676
770,218,0,0,0,0,0,0,0,0,0,-1,1994,806,0,0
777,218,0,0,0,0,0,0,0,0,0,-1,2001,806,0,0
784,218,0,0,0,0,0,0,0,0,0,-1,2008,806,0,0
791,218,0,0,0,0,0,0,0,0,0,-1,2015,806,0,0
798,218,0,0,0,0,0,0,0,0,0,-1,2022,806,0,0
805,218,0,0,0,0,0,0,0,0,0,-1,2029,806,0,0
812,218,0,0,0,0,0,0,0,0,0,-1,2036,806,0,0
-700,211,0,0,0,0,0,0,0,0,0,-1,524,813,0,0
-693,211,0,0,0,0,0,0,0,0,0,-1,531,813,0,0
-686,211,0,0,0,0,0,0,0,0,0,-1,538,813,0,0
-679,211,0,0,0,0,0,0,0,0,0,-1,545,813,0,0
-672,211,0,0,0,0,0,0,0,0,0,-1,552,813,0,0
-665,211,0,0,0,0,0,0,0,0,0,-1,559,813,0,0
-658,211,0,0,0,0,0,0,0,0,0,-1,566,813,0,0
-651,211,-40.2495,5.20386,0,0,0,0,0,0,0,-1,573,813,-40.2494,-5.20384
-644,211,-40.6288,4.32092,0,0,0,0,0,0,0,-1,580,813,-40.6288,-4.3209
-637,211,-41.3664,3.51849,0,0,0,0,0,0,0,-1,587,813,-41.3664,-3.51847
-630,211,-41.9262,2.94977,0,0,0,0,0,0,0,-1,594,813,-41.9262,-2.94975
-623,211,-42.5012,2.62903,0,0,0,0,0,0,0,-1,601,813,-42.5011,-2.629
-616,211,-34.0172,4.9884,0,0,0,0,0,0,0,-1,608,813,-34.0172,-4.9884
-609,211,-34.02,4.17255,-0.0049714,0.0135943,-0.00468461,0.0147094,-0.00608647,-1.33712,0.0123458,0.0423673,615,813,-34.02,-4.17253
-602,211,-34.102,3.39288,-0.00387142,0.00980232,-0.00403143,0.0109024,-0.0049715,-1.30441,0.00937561,0.022638,622,813,-34.102,-3.39287
-595,211,-34.2631,2.60931,-0.00253103,0.00704465,-0.00335777,0.00810471,-0.00359109,-1.26499,0.00691816,0.011256,629,813,-34.2631,-2.6093
-588,211,-34.3004,1.85645,-0.00141303,0.00492693,-0.00259571,0.00585408,-0.00234018,-1.22773,0.0048738,0.0116737,636,813,-34.3004,-1.85644
-581,211,-34.3359,1.13196,-0.000608982,0.0036255,-0.00154507,0.00412932,-0.0011128,-1.25559,0.0031892,0.0123205,643,813,-34.3359,-1.13197
-574,211,-34.3809,0.398438,-0.000125171,0.00246733,-0.000466413,0.00254869,-0.000206529,-1.3981,0.00177198,0.0137547,650,813,-34.3809,-0.398433
-567,211,-34.4252,-0.350769,-0.000198526,0.00156062,0.000317852,0.00161629,-0.000254196,1.39741,0.00117149,0.0211992,657,813,-34.4252,0.350741
-560,211,-34.4179,-1.11792,-0.000400648,0.00102975,0.00118316,0.00169707,-0.00106797,1.05725,0.00161011,0.0313949,664,813,-34.4179,1.11792
-553,211,-34.18,-2.24988,0,0,0,0,0,0,0,-1,671,813,-34.18,2.2499
-546,211,-34.423,-3.14301,0,0,0,0,0,0,0,-1,678,813,-34.423,3.14304
-539,211,-34.6219,-3.3905,0,0,0,0,0,0,0,-1,685,813,-34.622,3.3905
-532,211,-34.4841,-4.04742,0,0,0,0,0,0,0,-1,692,813,-34.4841,4.04744
-525,211,-14.3009,2.3233,0,0,0,0,0,0,0,-1,699,813,-14.3009,-2.3233
-518,211,-34.952,1.93011,0,0,0,0,0,0,0,-1,706,813,-34.952,-1.9301
-511,211,-49.5505,0.72168,0,0,0,0,0,0,0,-1,713,813,-49.5505,-0.721704
-504,211,-49.5568,0.856934,0.000171239,-0.00838987,0.00373409,0.00157105,-0.00978968,0.35866,0.00710825,0.0440117,720,813,-49.5567,-0.85695
-497,211,-49.5977,0.977417,0.00109835,-0.00926524,0.00332769,0.00207484,-0.0102417,0.285432,0.00761426,0.0454477,727,813,-49.5976,-0.977404
-490,211,-49.6233,0.995911,0.00243846,-0.00926093,0.00225736,0.0028589,-0.00968137,0.184144,0.00758889,0.0341543,734,813,-49.6233,-0.995889
-483,211,-49.5974,1.07062,0.00414676,-0.00796313,0.000517778,0.00416886,-0.00798522,0.0426528,0.00713154,0.0307042,741,813,-49.5974,-1.07062
-476,211,-49.5401,1.11108,0.00663814,-0.0054546,-0.00166296,0.00686265,-0.00567912,-0.134199,0.00725173,0.0354463,748,813,-49.5401,-1.11109
-469,211,0,0,0,0,0,0,0,0,0,-1,755,813,0,0
-462,211,0,0,0,0,0,0,0,0,0,-1,762,813,0,0
-455,211,0,0,0,0,0,0,0,0,0,-1,769,813,0,0
-448,211,0,0,0,0,0,0,0,0,0,-1,776,813,0,0
-441,211,0,0,0,0,0,0,0,0,0,-1,783,813,0,0
-434,211,0,0,0,0,0,0,0,0,0,-1,790,813,0,0
-427,211,0,0,0,0,0,0,0,0,0,-1,797,813,0,0
-420,211,0,0,0,0,0,0,0,0,0,-1,804,813,0,0
-413,211,0,0,0,0,0,0,0,0,0,-1,811,813,0,0
-406,211,0,0,0,0,0,0,0,0,0,-1,818,813,0,0
-399,211,0,0,0,0,0,0,0,0,0,-1,825,813,0,0
-392,211,0,0,0,0,0,0,0,0,0,-1,832,813,0,0
-385,211,0,0,0,0,0,0,0,0,0,-1,839,813,0,0
-378,211,0,0,0,0,0,0,0,0,0,-1,846,813,0,0
-371,211,0,0,0,0,0,0,0,0,0,-1,853,813,0,0
-364,211,0,0,0,0,0,0,0,0,0,-1,860,813,0,0
-357,211,0,0,0,0,0,0,0,0,0,-1,867,813,0,0
-350,211,0,0,0,0,0,0,0,0,0,-1,874,813,0,0
-343,211,0,0,0,0,0,0,0,0,0,-1,881,813,0,0
-336,211,0,0,0,0,0,0,0,0,0,-1,888,813,0,0
-329,211,0,0,0,0,0,0,0,0,0,-1,895,813,0,0
-322,211,0,0,0,0,0,0,0,0,0,-1,902,813,0,0
-315,211,0,0,0,0,0,0,0,0,0,-1,909,813,0,0
-308,211,0,0,0,0,0,0,0,0,0,-1,916,813,0,0
-301,211,0,0,0,0,0,0,0,0,0,-1,923,813,0,0
-294,211,0,0,0,0,0,0,0,0,0,-1,930,813,0,0
-287,211,0,0,0,0,0,0,0,0,0,-1,937,813,0,0
-280,211,0,0,0,0,0,0,0,0,0,-1,944,813,0,0
-273,211,0,0,0,0,0,0,0,0,0,-1,951,813,0,0
-266,211,0,0,0,0,0,0,0,0,0,-1,958,813,0,0
-259,211,0,0,0,0,0,0,0,0,0,-1,965,813,0,0
-252,211,0,0,0,0,0,0,0,0,0,-1,972,813,0,0
-245,211,0,0,0,0,0,0,0,0,0,-1,979,813,0,0
-238,211,0,0,0,0,0,0,0,0,0,-1,986,813,0,0
-231,211,0,0,0,0,0,0,0,0,0,-1,993,813,0,0
-224,211,0,0,0,0,0,0,0,0,0,-1,1000,813,0,0
-217,211,0,0,0,0,0,0,0,0,0,-1,1007,813,0,0
-210,211,0,0,0,0,0,0,0,0,0,-1,1014,813,0,0
-203,211,0,0,0,0,0,0,0,0,0,-1,1021,813,0,0
-196,211,0,0,0,0,0,0,0,0,0,-1,1028,813,0,0
-189,211,0,0,0,0,0,0,0,0,0,-1,1035,813,0,0
-182,211,0,0,0,0,0,0,0,0,0,-1,1042,813,0,0
-175,211,0,0,0,0,0,0,0,0,0,-1,1049,813,0,0
-168,211,0,0,0,0,0,0,0,0,0,-1,1056,813,0,0
-161,211,0,0,0,0,0,0,0,0,0,-1,1063,813,0,0
-154,211,0,0,0,0,0,0,0,0,0,-1,1070,813,0,0
-147,211,0,0,0,0,0,0,0,0,0,-1,1077,813,0,0
-140,211,0,0,0,0,0,0,0,0,0,-1,1084,813,0,0
-133,211,0,0,0,0,0,0,0,0,0,-1,1091,813,0,0
-126,211,0,0,0,0,0,0,0,0,0,-1,1098,813,0,0
-119,211,0,0,0,0,0,0,0,0,0,-1,1105,813,0,0
-112,211,0,0,0,0,0,0,0,0,0,-1,1112,813,0,0
-105,211,0,0,0,0,0,0,0,0,0,-1,1119,813,0,0
-98,211,0,0,0,0,0,0,0,0,0,-1,1126,813,0,0
-91,211,0,0,0,0,0,0,0,0,0,-1,1133,813,0,0
-84,211,0,0,0,0,0,0,0,0,0,-1,1140,813,0,0
-77,211,0,0,0,0,0,0,0,0,0,-1,1147,813,0,0
-70,211,0,0,0,0,0,0,0,0,0,-1,1154,813,0,0
-63,211,0,0,0,0,0,0,0,0,0,-1,1161,813,0,0
-56,211,0,0,0,0,0,0,0,0,0,-1,1168,813,0,0
-49,211,0,0,0,0,0,0,0,0,0,-1,1175,813,0,0
-42,211,0,0,0,0,0,0,0,0,0,-1,1182,813,0,0
-35,211,0,0,0,0,0,0,0,0,0,-1,1189,813,0,0
-28,211,0,0,0,0,0,0,0,0,0,-1,1196,813,0,0
-21,211,0,0,0,0,0,0,0,0,0,-1,1203,813,0,0
-14,211,0,0,0,0,0,0,0,0,0,-1,1210,813,0,0
-7,211,0,0,0,0,0,0,0,0,0,-1,1217,813,0,0
0,211,0,0,0,0,0,0,0,0,0,-1,1224,813,0,0
7,211,0,0,0,0,0,0,0,0,0,-1,1231,813,0,0
14,211,0,0,0,0,0,0,0,0,0,-1,1238,813,0,0
21,211,0,0,0,0,0,0,0,0,0,-1,1245,813,0,0
28,211,0,0,0,0,0,0,0,0,0,-1,1252,813,0,0
35,211,0,0,0,0,0,0,0,0,0,-1,1259,813,0,0
42,211,0,0,0,0,0,0,0,0,0,-1,1266,813,0,0
49,211,0,0,0,0,0,0,0,0,0,-1,1273,813,0,0
56,211,0,0,0,0,0,0,0,0,0,-1,1280,813,0,0
63,211,0,0,0,0,0,0,0,0,0,-1,1287,813,0,0
70,211,0,0,0,0,0,0,0,0,0,-1,1294,813,0,0
77,211,0,0,0,0,0,0,0,0,0,-1,1301,813,0,0
84,211,0,0,0,0,0,0,0,0,0,-1,1308,813,0,0
91,211,0,0,0,0,0,0,0,0,0,-1,1315,813,0,0
98,211,0,0,0,0,0,0,0,0,0,-1,1322,813,0,0
105,211,0,0,0,0,0,0,0,0,0,-1,1329,813,0,0
112,211,0,0,0,0,0,0,0,0,0,-1,1336,813,0,0
119,211,0,0,0,0,0,0,0,0,0,-1,1343,813,0,0
126,211,0,0,0,0,0,0,0,0,0,-1,1350,813,0,0
133,211,0,0,0,0,0,0,0,0,0,-1,1357,813,0,0
140,211,0,0,0,0,0,0,0,0,0,-1,1364,813,0,0
147,211,0,0,0,0,0,0,0,0,0,-1,1371,813,0,0
154,211,0,0,0,0,0,0,0,0,0,-1,1378,813,0,0
161,211,0,0,0,0,0,0,0,0,0,-1,1385,813,0,0
168,211,0,0,0,0,0,0,0,0,0,-1,1392,813,0,0
175,211,0,0,0,0,0,0,0,0,0,-1,1399,813,0,0
182,211,0,0,0,0,0,0,0,0,0,-1,1406,813,0,0
189,211,0,0,0,0,0,0,0,0,0,-1,1413,813,0,0
196,211,0,0,0,0,0,0,0,0,0,-1,1420,813,0,0
203,211,0,0,0,0,0,0,0,0,0,-1,1427,813,0,0
210,211,0,0,0,0,0,0,0,0,0,-1,1434,813,0,0
217,211,0,0,0,0,0,0,0,0,0,-1,1441,813,0,0
224,211,0,0,0,0,0,0,0,0,0,-1,1448,813,0,0
231,211,0,0,0,0,0,0,0,0,0,-1,1455,813,0,0
238,211,0,0,0,0,0,0,0,0,0,-1,1462,813,0,0
245,211,0,0,0,0,0,0,0,0,0,-1,1469,813,0,0
252,211,0,0,0,0,0,0,0,0,0,-1,1476,813,0,0
259,211,0,0,0,0,0,0,0,0,0,-1,1483,813,0,0
266,211,0,0,0,0,0,0,0,0,0,-1,1490,813,0,0
273,211,0,0,0,0,0,0,0,0,0,-1,1497,813,0,0
280,211,0,0,0,0,0,0,0,0,0,-1,1504,813,0,0
287,211,0,0,0,0,0,0,0,0,0,-1,1511,813,0,0
294,211,0,0,0,0,0,0,0,0,0,-1,1518,813,0,0
301,211,0,0,0,0,0,0,0,0,0,-1,1525,813,0,0
308,211,0,0,0,0,0,0,0,0,0,-1,1532,813,0,0
315,211,0,0,0,0,0,0,0,0,0,-1,1539,813,0,0
322,211,0,0,0,0,0,0,0,0,0,-1,1546,813,0,0
329,211,0,0,0,0,0,0,0,0,0,-1,1553,813,0,0
336,211,0,0,0,0,0,0,0,0,0,-1,1560,813,0,0
343,211,0,0,0,0,0,0,0,0,0,-1,1567,813,0,0
350,211,0,0,0,0,0,0,0,0,0,-1,1574,813,0,0
357,211,0,0,0,0,0,0,0,0,0,-1,1581,813,0,0
364,211,0,0,0,0,0,0,0,0,0,-1,1588,813,0,0
371,211,0,0,0,0,0,0,0,0,0,-1,1595,813,0,0
378,211,0,0,0,0,0,0,0,0,0,-1,1602,813,0,0
385,211,0,0,0,0,0,0,0,0,0,-1,1609,813,0,0
392,211,0,0,0,0,0,0,0,0,0,-1,1616,813,0,0
399,211,0,0,0,0,0,0,0,0,0,-1,1623,813,0,0
406,211,0,0,0,0,0,0,0,0,0,-1,1630,813,0,0
413,211,0,0,0,0,0,0,0,0,0,-1,1637,813,0,0
420,211,0,0,0,0,0,0,0,0,0,-1,1644,813,0,0
427,211,0,0,0,0,0,0,0,0,0,-1,1651,813,0,0
434,211,0,0,0,0,0,0,0,0,0,-1,1658,813,0,0
441,211,0,0,0,0,0,0,0,0,0,-1,1665,813,0,0
448,211,0,0,0,0,0,0,0,0,0,-1,1672,813,0,0
455,211,0,0,0,0,0,0,0,0,0,-1,1679,813,0,0
462,211,0,0,0,0,0,0,0,0,0,-1,1686,813,0,0
469,211,0,0,0,0,0,0,0,0,0,-1,1693,813,0,0
476,211,0,0,0,0,0,0,0,0,0,-1,1700,813,0,0
483,211,0,0,0,0,0,0,0,0,0,-1,1707,813,0,0
490,211,0,0,0,0,0,0,0,0,0,-1,1714,813,0,0
497,211,0,0,0,0,0,0,0,0,0,-1,1721,813,0,0
504,211,0,0,0,0,0,0,0,0,0,-1,1728,813,0,0
511,211,0,0,0,0,0,0,0,0,0,-1,1735,813,0,0
518,211,0,0,0,0,0,0,0,0,0,-1,1742,813,0,0
525,211,0,0,0,0,0,0,0,0,0,-1,1749,813,0,0
532,211,0,0,0,0,0,0,0,0,0,-1,1756,813,0,0
539,211,0,0,0,0,0,0,0,0,0,-1,1763,813,0,0
546,211,0,0,0,0,0,0,0,0,0,-1,1770,813,0,0
553,211,0,0,0,0,0,0,0,0,0,-1,1777,813,0,0
560,211,0,0,0,0,0,0,0,0,0,-1,1784,813,0,0
567,211,0,0,0,0,0,0,0,0,0,-1,1791,813,0,0
574,211,0,0,0,0,0,0,0,0,0,-1,1798,813,0,0
581,211,0,0,0,0,0,0,0,0,0,-1,1805,813,0,0
588,211,0,0,0,0,0,0,0,0,0,-1,1812,813,0,0
595,211,65.1744,2.51477,-0.000270047,-0.0025489,0.00146991,0.000450343,-0.00326929,0.45569,0.00234411,0.0415535,1819,813,65.1745,-2.5148
602,211,65.0662,2.5824,0.000222993,-0.00127325,0.00164822,0.00128493,-0.00233519,0.572353,0.00211919,0.0377004,1826,813,65.0661,-2.58238
609,211,64.9825,2.65979,0.000502457,-0.00035588,0.00160452,0.00173421,-0.00158763,0.65472,0.00191849,0.034495,1833,813,64.9825,-2.65979
616,211,64.9337,2.74188,0.000961357,0.000229407,0.00168744,0.00232206,-0.00113129,0.678611,0.00203292,0.0299769,1840,813,64.9337,-2.74189
623,211,64.9344,2.7868,0.00146001,0.000383382,0.00178661,0.00278764,-0.000944255,0.639072,0.00224052,0.0303334,1847,813,64.9345,-2.78678
630,211,65.0194,2.66803,0.00096755,0.000231732,0.00170667,0.00234551,-0.00114623,0.679237,0.00205521,0.0355434,1854,813,65.0194,-2.66803
637,211,64.9325,2.76459,0,0,0,0,0,0,0,-1,1861,813,64.9325,-2.7646
644,211,64.3512,2.67712,0,0,0,0,0,0,0,-1,1868,813,64.3512,-2.67714
651,211,48.5043,2.95557,0,0,0,0,0,0,0,-1,1875,813,48.5043,-2.95558
658,211,27.7909,1.52234,0,0,0,0,0,0,0,-1,1882,813,27.7909,-1.52234
665,211,42.2053,-0.745605,0,0,0,0,0,0,0,-1,1889,813,42.2054,0.745605
672,211,49.2362,-0.966919,0,0,0,0,0,0,0,-1,1896,813,49.2362,0.966926
679,211,49.0122,-0.38678,-0.00189002,3.11802e-05,-0.000839472,0.000346302,-0.00220514,-1.21169,0.00159809,0.0469997,1903,813,49.0122,0.386798
686,211,48.6559,0.256836,-0.00258171,7.47777e-05,-0.00127862,0.000590201,-0.00309714,-1.18761,0.00228702,0.0213197,1910,813,48.6559,-0.256846
693,211,48.5948,0.995911,-0.00228863,5.24659e-05,-0.00153957,0.000815941,-0.0030521,-1.11043,0.00235433,0.0132141,1917,813,48.5949,-0.995912
700,211,48.4937,1.7486,-0.00148822,0.000517578,-0.00128408,0.00114399,-0.00211463,-1.11693,0.00190899,0.0137455,1924,813,48.4937,-1.74862
707,211,48.5116,2.55292,-0.000227796,0.00123601,-0.000417694,0.00134681,-0.000338597,-1.3115,0.00102947,0.0208741,1931,813,48.5116,-2.55292
714,211,48.4883,3.33173,0.00136602,0.00227008,0.000807999,0.00274389,0.000892199,1.04043,0.00161615,0.0230776,1938,813,48.4882,-3.33174
721,211,48.4819,4.03766,0.00315245,0.0035213,0.00234371,0.00568783,0.00098592,0.824663,0.00350971,0.019451,1945,813,48.482,-4.03768
728,211,48.4705,4.7832,0.00508154,0.00492556,0.00414136,0.00914564,0.000861458,0.775983,0.00583119,0.0196326,1952,813,48.4704,-4.78323
735,211,48.5525,5.59698,0.00698153,0.0066159,0.00633947,0.0131408,0.000456614,0.770983,0.00861238,0.0343348,1959,813,48.5525,-5.597
742,211,48.3895,6.15308,0,0,0,0,0,0,0,-1,1966,813,48.3895,-6.15307
749,211,47.6519,6.44202,0,0,0,0,0,0,0,-1,1973,813,47.6519,-6.44204
756,211,46.8932,7.27258,0,0,0,0,0,0,0,-1,1980,813,46.8932,-7.2726
763,211,45.564,11.2768,0,0,0,0,0,0,0,-1,1987,813,45.5639,-11.2768
770,211,46.2148,12.9099,0,0,0,0,0,0,0,-1,1994,813,46.2148,-12.9099
777,211,0,0,0,0,0,0,0,0,0,-1,2001,813,0,0
784,211,0,0,0,0,0,0,0,0,0,-1,2008,813,0,0
791,211,0,0,0,0,0,0,0,0,0,-1,2015,813,0,0
798,211,0,0,0,0,0,0,0,0,0,-1,2022,813,0,0
805,211,0,0,0,0,0,0,0,0,0,-1,2029,813,0,0
812,211,0,0,0,0,0,0,0,0,0,-1,2036,813,0,0
-700,204,0,0,0,0,0,0,0,0,0,-1,524,820,0,0
-693,204,0,0,0,0,0,0,0,0,0,-1,531,820,0,0
-686,204,0,0,0,0,0,0,0,0,0,-1,538,820,0,0
-679,204,0,0,0,0,0,0,0,0,0,-1,545,820,0,0
-672,204,0,0,0,0,0,0,0,0,0,-1,552,820,0,0
-665,204,0,0,0,0,0,0,0,0,0,-1,559,820,0,0
-658,204,0,0,0,0,0,0,0,0,0,-1,566,820,0,0
-651,204,-40.064,5.25806,0,0,0,0,0,0,0,-1,573,820,-40.064,-5.25806
-644,204,-40.4117,4.54321,0,0,0,0,0,0,0,-1,580,820,-40.4117,-4.54323
-637,204,-40.8671,3.93817,0,0,0,0,0,0,0,-1,587,820,-40.8671,-3.93819
-630,204,-41.7101,3.04382,0,0,0,0,0,0,0,-1,594,820,-41.7101,-3.04383
-623,204,-41.8597,2.11951,0,0,0,0,0,0,0,-1,601,820,-41.8597,-2.11951
-616,204,-34.7907,5.00757,0,0,0,0,0,0,0,-1,608,820,-34.7907,-5.00757
-609,204,-34.8234,4.19769,-0.00379033,0.0125346,-0.00274894,0.012985,-0.00424079,-1.40837,0.0103636,0.0373126,615,820,-34.8234,-4.19769
-602,204,-34.9459,3.40167,-0.00308928,0.00881115,-0.00236063,0.00926231,-0.00354045,-1.38195,0.00763378,0.0173939,622,820,-34.9458,-3.40166
-595,204,-35.0231,2.64423,-0.00212317,0.00617404,-0.00189672,0.00658707,-0.0025362,-1.35639,0.00543764,0.0151682,629,820,-35.0231,-2.64422
-588,204,-35.0503,1.89221,-0.00126488,0.0040517,-0.00133591,0.0043685,-0.00158168,-1.33796,0.00355872,0.0135941,636,820,-35.0503,-1.89224
-581,204,-35.0903,1.14978,-0.000606854,0.0029026,-0.000521682,0.00297851,-0.00068276,-1.42631,0.00224809,0.0129512,643,820,-35.0903,-1.14978
-574,204,-35.118,0.42041,-0.000254294,0.00193614,0.000181625,0.0019511,-0.000269251,1.48863,0.00139915,0.0141074,650,820,-35.118,-0.420402
-567,204,-35.1379,-0.307678,-0.000488147,0.0011687,0.000484369,0.00129991,-0.000619358,1.30625,0.00113107,0.0147017,657,820,-35.1379,0.307701
-560,204,-35.0231,-1.11444,-0.000646829,0.000734494,0.00107779,0.00132393,-0.00123626,1.07034,0.00147842,0.0281665,664,820,-35.0231,1.11442
-553,204,-35.2022,-1.82233,0,0,0,0,0,0,0,-1,671,820,-35.2022,1.82231
-546,204,-32.433,-2.2323,0,0,0,0,0,0,0,-1,678,820,-32.433,2.23228
-539,204,-35.2548,-3.22021,0,0,0,0,0,0,0,-1,685,820,-35.2548,3.22022
-532,204,-30.0565,-3.29065,0,0,0,0,0,0,0,-1,692,820,-30.0565,3.29063
-525,204,-25.7137,1.52496,0,0,0,0,0,0,0,-1,699,820,-25.7137,-1.52496
-518,204,-43.4591,0.383972,0,0,0,0,0,0,0,-1,706,820,-43.4591,-0.383942
-511,204,-49.5071,0.870361,0,0,0,0,0,0,0,-1,713,820,-49.5071,-0.870362
-504,204,-49.5826,0.922607,0.000601664,-0.00844171,0.00343176,0.00175647,-0.00959652,0.324604,0.00705642,0.0465961,720,820,-49.5826,-0.922622
-497,204,-49.5986,0.969788,0.00196455,-0.00922348,0.00284147,0.00264485,-0.00990377,0.234993,0.00763832,0.0379481,727,820,-49.5986,-0.969774
-490,204,-49.5931,0.994934,0.003959,-0.00876314,0.0013544,0.00410159,-0.00890573,0.104894,0.00767862,0.0322398,734,820,-49.5932,-0.994959
-483,204,-49.5563,1.03009,0.00657143,-0.00690077,-0.00106222,0.00665466,-0.00698401,-0.0782011,0.00787505,0.0355547,741,820,-49.5563,-1.03008
-476,204,0,0,0,0,0,0,0,0,0,-1,748,820,0,0
-469,204,0,0,0,0,0,0,0,0,0,-1,755,820,0,0
-462,204,0,0,0,0,0,0,0,0,0,-1,762,820,0,0
-455,204,0,0,0,0,0,0,0,0,0,-1,769,820,0,0
-448,204,0,0,0,0,0,0,0,0,0,-1,776,820,0,0
-441,204,0,0,0,0,0,0,0,0,0,-1,783,820,0,0
-434,204,0,0,0,0,0,0,0,0,0,-1,790,820,0,0
-427,204,0,0,0,0,0,0,0,0,0,-1,797,820,0,0
-420,204,0,0,0,0,0,0,0,0,0,-1,804,820,0,0
-413,204,0,0,0,0,0,0,0,0,0,-1,811,820,0,0
-406,204,0,0,0,0,0,0,0,0,0,-1,818,820,0,0
-399,204,0,0,0,0,0,0,0,0,0,-1,825,820,0,0
-392,204,0,0,0,0,0,0,0,0,0,-1,832,820,0,0
-385,204,0,0,0,0,0,0,0,0,0,-1,839,820,0,0
-378,204,0,0,0,0,0,0,0,0,0,-1,846,820,0,0
-371,204,0,0,0,0,0,0,0,0,0,-1,853,820,0,0
-364,204,0,0,0,0,0,0,0,0,0,-1,860,820,0,0
-357,204,0,0,0,0,0,0,0,0,0,-1,867,820,0,0
-350,204,0,0,0,0,0,0,0,0,0,-1,874,820,0,0
-343,204,0,0,0,0,0,0,0,0,0,-1,881,820,0,0
-336,204,0,0,0,0,0,0,0,0,0,-1,888,820,0,0
-329,204,0,0,0,0,0,0,0,0,0,-1,895,820,0,0
-322,204,0,0,0,0,0,0,0,0,0,-1,902,820,0,0
-315,204,0,0,0,0,0,0,0,0,0,-1,909,820,0,0
-308,204,0,0,0,0,0,0,0,0,0,-1,916,820,0,0
-301,204,0,0,0,0,0,0,0,0,0,-1,923,820,0,0
-294,204,0,0,0,0,0,0,0,0,0,-1,930,820,0,0
-287,204,0,0,0,0,0,0,0,0,0,-1,937,820,0,0
-280,204,0,0,0,0,0,0,0,0,0,-1,944,820,0,0
-273,204,0,0,0,0,0,0,0,0,0,-1,951,820,0,0
-266,204,0,0,0,0,0,0,0,0,0,-1,958,820,0,0
-259,204,0,0,0,0,0,0,0,0,0,-1,965,820,0,0
-252,204,0,0,0,0,0,0,0,0,0,-1,972,820,0,0
-245,204,0,0,0,0,0,0,0,0,0,-1,979,820,0,0
-238,204,0,0,0,0,0,0,0,0,0,-1,986,820,0,0
-231,204,0,0,0,0,0,0,0,0,0,-1,993,820,0,0
-224,204,0,0,0,0,0,0,0,0,0,-1,1000,820,0,0
-217,204,0,0,0,0,0,0,0,0,0,-1,1007,820,0,0
-210,204,0,0,0,0,0,0,0,0,0,-1,1014,820,0,0
-203,204,0,0,0,0,0,0,0,0,0,-1,1021,820,0,0
-196,204,0,0,0,0,0,0,0,0,0,-1,1028,820,0,0
-189,204,0,0,0,0,0,0,0,0,0,-1,1035,820,0,0
-182,204,0,0,0,0,0,0,0,0,0,-1,1042,820,0,0
-175,204,0,0,0,0,0,0,0,0,0,-1,1049,820,0,0
-168,204,0,0,0,0,0,0,0,0,0,-1,1056,820,0,0
-161,204,0,0,0,0,0,0,0,0,0,-1,1063,820,0,0
-154,204,0,0,0,0,0,0,0,0,0,-1,1070,820,0,0
-147,204,0,0,0,0,0,0,0,0,0,-1,1077,820,0,0
-140,204,0,0,0,0,0,0,0,0,0,-1,1084,820,0,0
-133,204,0,0,0,0,0,0,0,0,0,-1,1091,820,0,0
-126,204,0,0,0,0,0,0,0,0,0,-1,1098,820,0,0
-119,204,0,0,0,0,0,0,0,0,0,-1,1105,820,0,0
-112,204,0,0,0,0,0,0,0,0,0,-1,1112,820,0,0
-105,204,0,0,0,0,0,0,0,0,0,-1,1119,820,0,0
-98,204,0,0,0,0,0,0,0,0,0,-1,1126,820,0,0
-91,204,0,0,0,0,0,0,0,0,0,-1,1133,820,0,0
-84,204,0,0,0,0,0,0,0,0,0,-1,1140,820,0,0
-77,204,0,0,0,0,0,0,0,0,0,-1,1147,820,0,0
-70,204,0,0,0,0,0,0,0,0,0,-1,1154,820,0,0
-63,204,0,0,0,0,0,0,0,0,0,-1,1161,820,0,0
-56,204,0,0,0,0,0,0,0,0,0,-1,1168,820,0,0
-49,204,0,0,0,0,0,0,0,0,0,-1,1175,820,0,0
-42,204,0,0,0,0,0,0,0,0,0,-1,1182,820,0,0
-35,204,0,0,0,0,0,0,0,0,0,-1,1189,820,0,0
-28,204,0,0,0,0,0,0,0,0,0,-1,1196,820,0,0
-21,204,0,0,0,0,0,0,0,0,0,-1,1203,820,0,0
-14,204,0,0,0,0,0,0,0,0,0,-1,1210,820,0,0
-7,204,0,0,0,0,0,0,0,0,0,-1,1217,820,0,0
0,204,0,0,0,0,0,0,0,0,0,-1,1224,820,0,0
7,204,0,0,0,0,0,0,0,0,0,-1,1231,820,0,0
14,204,0,0,0,0,0,0,0,0,0,-1,1238,820,0,0
21,204,0,0,0,0,0,0,0,0,0,-1,1245,820,0,0
28,204,0,0,0,0,0,0,0,0,0,-1,1252,820,0,0
35,204,0,0,0,0,0,0,0,0,0,-1,1259,820,0,0
42,204,0,0,0,0,0,0,0,0,0,-1,1266,820,0,0
49,204,0,0,0,0,0,0,0,0,0,-1,1273,820,0,0
56,204,0,0,0,0,0,0,0,0,0,-1,1280,820,0,0
63,204,0,0,0,0,0,0,0,0,0,-1,1287,820,0,0
70,204,0,0,0,0,0,0,0,0,0,-1,1294,820,0,0
77,204,0,0,0,0,0,0,0,0,0,-1,1301,820,0,0
84,204,0,0,0,0,0,0,0,0,0,-1,1308,820,0,0
91,204,0,0,0,0,0,0,0,0,0,-1,1315,820,0,0
98,204,0,0,0,0,0,0,0,0,0,-1,1322,820,0,0
105,204,0,0,0,0,0,0,0,0,0,-1,1329,820,0,0
112,204,0,0,0,0,0,0,0,0,0,-1,1336,820,0,0
119,204,0,0,0,0,0,0,0,0,0,-1,1343,820,0,0
126,204,0,0,0,0,0,0,0,0,0,-1,1350,820,0,0
133,204,0,0,0,0,0,0,0,0,0,-1,1357,820,0,0
140,204,0,0,0,0,0,0,0,0,0,-1,1364,820,0,0
147,204,0,0,0,0,0,0,0,0,0,-1,1371,820,0,0
154,204,0,0,0,0,0,0,0,0,0,-1,1378,820,0,0
161,204,0,0,0,0,0,0,0,0,0,-1,1385,820,0,0
168,204,0,0,0,0,0,0,0,0,0,-1,1392,820,0,0
175,204,0,0,0,0,0,0,0,0,0,-1,1399,820,0,0
182,204,0,0,0,0,0,0,0,0,0,-1,1406,820,0,0
189,204,0,0,0,0,0,0,0,0,0,-1,1413,820,0,0
196,204,0,0,0,0,0,0,0,0,0,-1,1420,820,0,0
203,204,0,0,0,0,0,0,0,0,0,-1,1427,820,0,0
210,204,0,0,0,0,0,0,0,0,0,-1,1434,820,0,0
217,204,0,0,0,0,0,0,0,0,0,-1,1441,820,0,0
224,204,0,0,0,0,0,0,0,0,0,-1,1448,820,0,0
231,204,0,0,0,0,0,0,0,0,0,-1,1455,820,0,0
238,204,0,0,0,0,0,0,0,0,0,-1,1462,820,0,0
245,204,0,0,0,0,0,0,0,0,0,-1,1469,820,0,0
252,204,0,0,0,0,0,0,0,0,0,-1,1476,820,0,0
259,204,0,0,0,0,0,0,0,0,0,-1,1483,820,0,0
266,204,0,0,0,0,0,0,0,0,0,-1,1490,820,0,0
273,204,0,0,0,0,0,0,0,0,0,-1,1497,820,0,0
280,204,0,0,0,0,0,0,0,0,0,-1,1504,820,0,0
287,204,0,0,0,0,0,0,0,0,0,-1,1511,820,0,0
294,204,0,0,0,0,0,0,0,0,0,-1,1518,820,0,0
301,204,0,0,0,0,0,0,0,0,0,-1,1525,820,0,0
308,204,0,0,0,0,0,0,0,0,0,-1,1532,820,0,0
315,204,0,0,0,0,0,0,0,0,0,-1,1539,820,0,0
322,204,0,0,0,0,0,0,0,0,0,-1,1546,820,0,0
329,204,0,0,0,0,0,0,0,0,0,-1,1553,820,0,0
336,204,0,0,0,0,0,0,0,0,0,-1,1560,820,0,0
343,204,0,0,0,0,0,0,0,0,0,-1,1567,820,0,0
350,204,0,0,0,0,0,0,0,0,0,-1,1574,820,0,0
357,204,0,0,0,0,0,0,0,0,0,-1,1581,820,0,0
364,204,0,0,0,0,0,0,0,0,0,-1,1588,820,0,0
371,204,0,0,0,0,0,0,0,0,0,-1,1595,820,0,0
378,204,0,0,0,0,0,0,0,0,0,-1,1602,820,0,0
385,204,0,0,0,0,0,0,0,0,0,-1,1609,820,0,0
392,204,0,0,0,0,0,0,0,0,0,-1,1616,820,0,0
399,204,0,0,0,0,0,0,0,0,0,-1,1623,820,0,0
406,204,0,0,0,0,0,0,0,0,0,-1,1630,820,0,0
413,204,0,0,0,0,0,0,0,0,0,-1,1637,820,0,0
420,204,0,0,0,0,0,0,0,0,0,-1,1644,820,0,0
427,204,0,0,0,0,0,0,0,0,0,-1,1651,820,0,0
434,204,0,0,0,0,0,0,0,0,0,-1,1658,820,0,0
441,204,0,0,0,0,0,0,0,0,0,-1,1665,820,0,0
448,204,0,0,0,0,0,0,0,0,0,-1,1672,820,0,0
455,204,0,0,0,0,0,0,0,0,0,-1,1679,820,0,0
462,204,0,0,0,0,0,0,0,0,0,-1,1686,820,0,0
469,204,0,0,0,0,0,0,0,0,0,-1,1693,820,0,0
476,204,0,0,0,0,0,0,0,0,0,-1,1700,820,0,0
483,204,0,0,0,0,0,0,0,0,0,-1,1707,820,0,0
490,204,0,0,0,0,0,0,0,0,0,-1,1714,820,0,0
497,204,0,0,0,0,0,0,0,0,0,-1,1721,820,0,0
504,204,0,0,0,0,0,0,0,0,0,-1,1728,820,0,0
511,204,0,0,0,0,0,0,0,0,0,-1,1735,820,0,0
518,204,0,0,0,0,0,0,0,0,0,-1,1742,820,0,0
525,204,0,0,0,0,0,0,0,0,0,-1,1749,820,0,0
532,204,0,0,0,0,0,0,0,0,0,-1,1756,820,0,0
539,204,0,0,0,0,0,0,0,0,0,-1,1763,820,0,0
546,204,0,0,0,0,0,0,0,0,0,-1,1770,820,0,0
553,204,0,0,0,0,0,0,0,0,0,-1,1777,820,0,0
560,204,0,0,0,0,0,0,0,0,0,-1,1784,820,0,0
567,204,0,0,0,0,0,0,0,0,0,-1,1791,820,0,0
574,204,0,0,0,0,0,0,0,0,0,-1,1798,820,0,0
581,204,0,0,0,0,0,0,0,0,0,-1,1805,820,0,0
588,204,0,0,0,0,0,0,0,0,0,-1,1812,820,0,0
595,204,0,0,0,0,0,0,0,0,0,-1,1819,820,0,0
602,204,65.0597,2.72107,0.000424939,-0.00376648,0.00184019,0.00111819,-0.00445973,0.360284,0.0034076,0.0384437,1826,820,65.0597,-2.72107
609,204,65.0106,2.74609,0.000497812,-0.00243577,0.00177429,0.0013331,-0.00327106,0.439995,0.00273558,0.0406783,1833,820,65.0107,-2.74607
616,204,64.9768,2.74591,0.000821068,-0.0011278,0.00180331,0.00189638,-0.00220311,0.537693,0.00236905,0.0378498,1840,820,64.9768,-2.74594
623,204,64.9246,2.75018,0.0012911,-0.000216187,0.00182963,0.00251623,-0.00144132,0.590033,0.00231281,0.0286772,1847,820,64.9246,-2.75018
630,204,64.9725,2.70819,0.000831556,2.74872e-05,0.00170129,0.00217767,-0.00131863,0.669371,0.0020388,0.0290744,1854,820,64.9726,-2.70818
637,204,64.9608,2.71332,0.000124884,-6.5783e-05,0.0012966,0.00132965,-0.00127055,0.748701,0.00150136,0.0367696,1861,820,64.9608,-2.71332
644,204,64.9554,2.71674,0,0,0,0,0,0,0,-1,1868,820,64.9555,-2.71671
651,204,53.7611,2.32251,0,0,0,0,0,0,0,-1,1875,820,53.7611,-2.32249
658,204,34.9631,1.64844,0,0,0,0,0,0,0,-1,1882,820,34.9631,-1.64842
665,204,21.8292,1.51099,0,0,0,0,0,0,0,-1,1889,820,21.8292,-1.51099
672,204,49.6876,-1.12665,0,0,0,0,0,0,0,-1,1896,820,49.6876,1.12664
679,204,49.5883,-0.446106,-0.0021479,1.26418e-05,-0.0010407,0.000432386,-0.00256764,-1.18742,0.00187261,0.0423864,1903,820,49.5883,0.446107
686,204,49.4785,0.300476,-0.00280797,4.44666e-05,-0.00149211,0.000682345,-0.00344584,-1.16681,0.00255523,0.022429,1910,820,49.4785,-0.300453
693,204,49.2421,1.02991,-0.00262889,-8.72703e-05,-0.00186169,0.000895992,-0.00361215,-1.08488,0.00275575,0.0214977,1917,820,49.2421,-1.02991
700,204,49.2772,1.79974,-0.00204237,0.000222545,-0.00180652,0.00122222,-0.00304204,-1.06537,0.0025356,0.0182223,1924,820,49.2773,-1.79976
707,204,49.2738,2.59375,-0.000918744,0.000765002,-0.00106445,0.00128026,-0.001434,-1.11998,0.00156792,0.0167992,1931,820,49.2738,-2.59373
714,204,49.2532,3.3938,0.000726355,0.0017262,0.000127535,0.00174221,0.000710344,1.4459,0.00101156,0.026064,1938,820,49.2532,-3.39379
721,204,49.2241,4.08881,0.00265707,0.00288865,0.00175457,0.00453125,0.00101448,0.818347,0.00274587,0.0248096,1945,820,49.2241,-4.08879
728,204,49.1782,4.80634,0.00473264,0.0041419,0.00361484,0.00806416,0.000810383,0.744634,0.00512737,0.0149687,1952,820,49.1782,-4.80635
735,204,49.1151,5.56519,0.0068649,0.00553591,0.00587183,0.0121097,0.000291102,0.729055,0.00797788,0.0176578,1959,820,49.1152,-5.56519
742,204,49.0441,6.26691,0.00925966,0.00692464,0.00868654,0.0168568,-0.000672497,0.718596,0.0114686,0.0348002,1966,820,49.0441,-6.26688
749,204,48.9738,6.98187,0,0,0,0,0,0,0,-1,1973,820,48.9737,-6.98186
756,204,48.3901,7.22168,0,0,0,0,0,0,0,-1,1980,820,48.3901,-7.22166
763,204,47.4143,10.2778,0,0,0,0,0,0,0,-1,1987,820,47.4143,-10.2778
770,204,47.5403,11.8264,0,0,0,0,0,0,0,-1,1994,820,47.5403,-11.8264
777,204,0,0,0,0,0,0,0,0,0,-1,2001,820,0,0
784,204,0,0,0,0,0,0,0,0,0,-1,2008,820,0,0
791,204,0,0,0,0,0,0,0,0,0,-1,2015,820,0,0
798,204,0,0,0,0,0,0,0,0,0,-1,2022,820,0,0
805,204,0,0,0,0,0,0,0,0,0,-1,2029,820,0,0
812,204,0,0,0,0,0,0,0,0,0,-1,2036,820,0,0
-700,197,0,0,0,0,0,0,0,0,0,-1,524,827,0,0
-693,197,0,0,0,0,0,0,0,0,0,-1,531,827,0,0
-686,197,0,0,0,0,0,0,0,0,0,-1,538,827,0,0
-679,197,0,0,0,0,0,0,0,0,0,-1,545,827,0,0
-672,197,0,0,0,0,0,0,0,0,0,-1,552,827,0,0
-665,197,0,0,0,0,0,0,0,0,0,-1,559,827,0,0
-658,197,-39.9774,5.66638,0,0,0,0,0,0,0,-1,566,827,-39.9774,-5.66637
-651,197,-39.9665,5.23578,0,0,0,0,0,0,0,-1,573,827,-39.9665,-5.23575
-644,197,-38.9225,4.75665,0,0,0,0,0,0,0,-1,580,827,-38.9225,-4.75665
-637,197,-35.9322,6.14551,0,0,0,0,0,0,0,-1,587,827,-35.9322,-6.14552
-630,197,-40.4908,2.45648,0,0,0,0,0,0,0,-1,594,827,-40.4908,-2.45649
-623,197,-36.1775,5.80273,0,0,0,0,0,0,0,-1,601,827,-36.1775,-5.80272
-616,197,-35.9638,4.88086,0,0,0,0,0,0,0,-1,608,827,-35.9638,-4.88087
-609,197,-35.5784,4.07385,-0.00269831,0.011537,-0.00132129,0.0116586,-0.00281991,-1.47902,0.00886316,0.0337477,615,827,-35.5784,-4.07388
-602,197,-35.6823,3.39441,-0.00235859,0.00794273,-0.00107412,0.00805354,-0.0024694,-1.468,0.00635417,0.0192539,622,827,-35.6823,-3.3944
-595,197,-35.7653,2.70428,-0.00175913,0.00545889,-0.000708107,0.0055277,-0.00182794,-1.47392,0.00442222,0.0186495,629,827,-35.7653,-2.70426
-588,197,-35.7643,1.94342,-0.0011998,0.00343236,-0.000245764,0.00344536,-0.0012128,-1.51794,0.00279045,0.0207504,636,827,-35.7643,-1.94342
-581,197,-35.8319,1.1817,-0.000776341,0.00249679,0.000405753,0.00254634,-0.00082589,1.44928,0.00202966,0.0124984,643,827,-35.8319,-1.18173
-574,197,-35.8528,0.453125,-0.000632147,0.00172613,0.000820902,0.00198374,-0.000889758,1.26671,0.00169862,0.0130102,650,827,-35.8528,-0.453113
-567,197,-35.7814,-0.259033,-0.000971884,0.00100856,0.000828626,0.00130952,-0.00127285,1.2224,0.00149098,0.0167773,657,827,-35.7814,0.25904
-560,197,-35.8373,-1.14557,0,0,0,0,0,0,0,-1,664,827,-35.8373,1.14556
-553,197,-33.1771,-1.4881,0,0,0,0,0,0,0,-1,671,827,-33.1771,1.4881
-546,197,-33.0991,-2.06989,0,0,0,0,0,0,0,-1,678,827,-33.0991,2.06991
-539,197,-32.8993,-2.61737,0,0,0,0,0,0,0,-1,685,827,-32.8993,2.61737
-532,197,-16.0519,0.0410156,0,0,0,0,0,0,0,-1,692,827,-16.0519,-0.0410415
-525,197,-35.3785,2.11829,0,0,0,0,0,0,0,-1,699,827,-35.3785,-2.11826
-518,197,-49.4426,0.892334,0,0,0,0,0,0,0,-1,706,827,-49.4426,-0.892325
-511,197,-49.5232,0.924316,0.000288805,-0.00706385,0.00312775,0.0014393,-0.00821434,0.352473,0.00601368,0.0421838,713,827,-49.5232,-0.924344
-504,197,-49.6155,0.957581,0.00117798,-0.00827113,0.00310217,0.00210541,-0.00919856,0.290502,0.00694143,0.0393333,720,827,-49.6155,-0.95758
-497,197,-49.6737,0.998596,0.0031509,-0.0088006,0.00208925,0.0035056,-0.0091553,0.168168,0.00754846,0.0399157,727,827,-49.6737,-0.99861
-490,197,-49.5771,0.962646,0.0059823,-0.00758171,-0.000123043,0.00598342,-0.00758282,-0.0090703,0.0078506,0.037007,734,827,-49.5772,-0.962631
-483,197,-49.365,0.94458,0.00950927,-0.00509783,-0.00347531,0.010294,-0.00588252,-0.222066,0.00945455,0.0410217,741,827,-49.365,-0.944587
-476,197,0,0,0,0,0,0,0,0,0,-1,748,827,0,0
-469,197,0,0,0,0,0,0,0,0,0,-1,755,827,0,0
-462,197,0,0,0,0,0,0,0,0,0,-1,762,827,0,0
-455,197,0,0,0,0,0,0,0,0,0,-1,769,827,0,0
-448,197,0,0,0,0,0,0,0,0,0,-1,776,827,0,0
-441,197,0,0,0,0,0,0,0,0,0,-1,783,827,0,0
-434,197,0,0,0,0,0,0,0,0,0,-1,790,827,0,0
-427,197,0,0,0,0,0,0,0,0,0,-1,797,827,0,0
-420,197,0,0,0,0,0,0,0,0,0,-1,804,827,0,0
-413,197,0,0,0,0,0,0,0,0,0,-1,811,827,0,0
-406,197,0,0,0,0,0,0,0,0,0,-1,818,827,0,0
-399,197,0,0,0,0,0,0,0,0,0,-1,825,827,0,0
-392,197,0,0,0,0,0,0,0,0,0,-1,832,827,0,0
-385,197,0,0,0,0,0,0,0,0,0,-1,839,827,0,0
-378,197,0,0,0,0,0,0,0,0,0,-1,846,827,0,0
-371,197,0,0,0,0,0,0,0,0,0,-1,853,827,0,0
-364,197,0,0,0,0,0,0,0,0,0,-1,860,827,0,0
-357,197,0,0,0,0,0,0,0,0,0,-1,867,827,0,0
-350,197,0,0,0,0,0,0,0,0,0,-1,874,827,0,0
-343,197,0,0,0,0,0,0,0,0,0,-1,881,827,0,0
-336,197,0,0,0,0,0,0,0,0,0,-1,888,827,0,0
-329,197,0,0,0,0,0,0,0,0,0,-1,895,827,0,0
-322,197,0,0,0,0,0,0,0,0,0,-1,902,827,0,0
-315,197,0,0,0,0,0,0,0,0,0,-1,909,827,0,0
-308,197,0,0,0,0,0,0,0,0,0,-1,916,827,0,0
-301,197,0,0,0,0,0,0,0,0,0,-1,923,827,0,0
-294,197,0,0,0,0,0,0,0,0,0,-1,930,827,0,0
-287,197,0,0,0,0,0,0,0,0,0,-1,937,827,0,0
-280,197,0,0,0,0,0,0,0,0,0,-1,944,827,0,0
-273,197,0,0,0,0,0,0,0,0,0,-1,951,827,0,0
-266,197,0,0,0,0,0,0,0,0,0,-1,958,827,0,0
-259,197,0,0,0,0,0,0,0,0,0,-1,965,827,0,0
-252,197,0,0,0,0,0,0,0,0,0,-1,972,827,0,0
-245,197,0,0,0,0,0,0,0,0,0,-1,979,827,0,0
-238,197,0,0,0,0,0,0,0,0,0,-1,986,827,0,0
-231,197,0,0,0,0,0,0,0,0,0,-1,993,827,0,0
-224,197,0,0,0,0,0,0,0,0,0,-1,1000,827,0,0
-217,197,0,0,0,0,0,0,0,0,0,-1,1007,827,0,0
-210,197,0,0,0,0,0,0,0,0,0,-1,1014,827,0,0
-203,197,0,0,0,0,0,0,0,0,0,-1,1021,827,0,0
-196,197,0,0,0,0,0,0,0,0,0,-1,1028,827,0,0
-189,197,0,0,0,0,0,0,0,0,0,-1,1035,827,0,0
-182,197,0,0,0,0,0,0,0,0,0,-1,1042,827,0,0
-175,197,0,0,0,0,0,0,0,0,0,-1,1049,827,0,0
-168,197,0,0,0,0,0,0,0,0,0,-1,1056,827,0,0
-161,197,0,0,0,0,0,0,0,0,0,-1,1063,827,0,0
-154,197,0,0,0,0,0,0,0,0,0,-1,1070,827,0,0
-147,197,0,0,0,0,0,0,0,0,0,-1,1077,827,0,0
-140,197,0,0,0,0,0,0,0,0,0,-1,1084,827,0,0
-133,197,0,0,0,0,0,0,0,0,0,-1,1091,827,0,0
-126,197,0,0,0,0,0,0,0,0,0,-1,1098,827,0,0
-119,197,0,0,0,0,0,0,0,0,0,-1,1105,827,0,0
-112,197,0,0,0,0,0,0,0,0,0,-1,1112,827,0,0
-105,197,0,0,0,0,0,0,0,0,0,-1,1119,827,0,0
-98,197,0,0,0,0,0,0,0,0,0,-1,1126,827,0,0
-91,197,0,0,0,0,0,0,0,0,0,-1,1133,827,0,0
-84,197,0,0,0,0,0,0,0,0,0,-1,1140,827,0,0
-77,197,0,0,0,0,0,0,0,0,0,-1,1147,827,0,0
-70,197,0,0,0,0,0,0,0,0,0,-1,1154,827,0,0
-63,197,0,0,0,0,0,0,0,0,0,-1,1161,827,0,0
-56,197,0,0,0,0,0,0,0,0,0,-1,1168,827,0,0
-49,197,0,0,0,0,0,0,0,0,0,-1,1175,827,0,0
-42,197,0,0,0,0,0,0,0,0,0,-1,1182,827,0,0
-35,197,0,0,0,0,0,0,0,0,0,-1,1189,827,0,0
-28,197,0,0,0,0,0,0,0,0,0,-1,1196,827,0,0
-21,197,0,0,0,0,0,0,0,0,0,-1,1203,827,0,0
-14,197,0,0,0,0,0,0,0,0,0,-1,1210,827,0,0
-7,197,0,0,0,0,0,0,0,0,0,-1,1217,827,0,0
0,197,0,0,0,0,0,0,0,0,0,-1,1224,827,0,0
7,197,0,0,0,0,0,0,0,0,0,-1,1231,827,0,0
14,197,0,0,0,0,0,0,0,0,0,-1,1238,827,0,0
21,197,0,0,0,0,0,0,0,0,0,-1,1245,827,0,0
28,197,0,0,0,0,0,0,0,0,0,-1,1252,827,0,0
35,197,0,0,0,0,0,0,0,0,0,-1,1259,827,0,0
42,197,0,0,0,0,0,0,0,0,0,-1,1266,827,0,0
49,197,0,0,0,0,0,0,0,0,0,-1,1273,827,0,0
56,197,0,0,0,0,0,0,0,0,0,-1,1280,827,0,0
63,197,0,0,0,0,0,0,0,0,0,-1,1287,827,0,0
70,197,0,0,0,0,0,0,0,0,0,-1,1294,827,0,0
77,197,0,0,0,0,0,0,0,0,0,-1,1301,827,0,0
84,197,0,0,0,0,0,0,0,0,0,-1,1308,827,0,0
91,197,0,0,0,0,0,0,0,0,0,-1,1315,827,0,0
98,197,0,0,0,0,0,0,0,0,0,-1,1322,827,0,0
105,197,0,0,0,0,0,0,0,0,0,-1,1329,827,0,0
112,197,0,0,0,0,0,0,0,0,0,-1,1336,827,0,0
119,197,0,0,0,0,0,0,0,0,0,-1,1343,827,0,0
126,197,0,0,0,0,0,0,0,0,0,-1,1350,827,0,0
133,197,0,0,0,0,0,0,0,0,0,-1,1357,827,0,0
140,197,0,0,0,0,0,0,0,0,0,-1,1364,827,0,0
147,197,0,0,0,0,0,0,0,0,0,-1,1371,827,0,0
154,197,0,0,0,0,0,0,0,0,0,-1,1378,827,0,0
161,197,0,0,0,0,0,0,0,0,0,-1,1385,827,0,0
168,197,0,0,0,0,0,0,0,0,0,-1,1392,827,0,0
175,197,0,0,0,0,0,0,0,0,0,-1,1399,827,0,0
182,197,0,0,0,0,0,0,0,0,0,-1,1406,827,0,0
189,197,0,0,0,0,0,0,0,0,0,-1,1413,827,0,0
196,197,0,0,0,0,0,0,0,0,0,-1,1420,827,0,0
203,197,0,0,0,0,0,0,0,0,0,-1,1427,827,0,0
210,197,0,0,0,0,0,0,0,0,0,-1,1434,827,0,0
217,197,0,0,0,0,0,0,0,0,0,-1,1441,827,0,0
224,197,0,0,0,0,0,0,0,0,0,-1,1448,827,0,0
231,197,0,0,0,0,0,0,0,0,0,-1,1455,827,0,0
238,197,0,0,0,0,0,0,0,0,0,-1,1462,827,0,0
245,197,0,0,0,0,0,0,0,0,0,-1,1469,827,0,0
252,197,0,0,0,0,0,0,0,0,0,-1,1476,827,0,0
259,197,0,0,0,0,0,0,0,0,0,-1,1483,827,0,0
266,197,0,0,0,0,0,0,0,0,0,-1,1490,827,0,0
273,197,0,0,0,0,0,0,0,0,0,-1,1497,827,0,0
280,197,0,0,0,0,0,0,0,0,0,-1,1504,827,0,0
287,197,0,0,0,0,0,0,0,0,0,-1,1511,827,0,0
294,197,0,0,0,0,0,0,0,0,0,-1,1518,827,0,0
301,197,0,0,0,0,0,0,0,0,0,-1,1525,827,0,0
308,197,0,0,0,0,0,0,0,0,0,-1,1532,827,0,0
315,197,0,0,0,0,0,0,0,0,0,-1,1539,827,0,0
322,197,0,0,0,0,0,0,0,0,0,-1,1546,827,0,0
329,197,0,0,0,0,0,0,0,0,0,-1,1553,827,0,0
336,197,0,0,0,0,0,0,0,0,0,-1,1560,827,0,0
343,197,0,0,0,0,0,0,0,0,0,-1,1567,827,0,0
350,197,0,0,0,0,0,0,0,0,0,-1,1574,827,0,0
357,197,0,0,0,0,0,0,0,0,0,-1,1581,827,0,0
364,197,0,0,0,0,0,0,0,0,0,-1,1588,827,0,0
371,197,0,0,0,0,0,0,0,0,0,-1,1595,827,0,0
378,197,0,0,0,0,0,0,0,0,0,-1,1602,827,0,0
385,197,0,0,0,0,0,0,0,0,0,-1,1609,827,0,0
392,197,0,0,0,0,0,0,0,0,0,-1,1616,827,0,0
399,197,0,0,0,0,0,0,0,0,0,-1,1623,827,0,0
406,197,0,0,0,0,0,0,0,0,0,-1,1630,827,0,0
413,197,0,0,0,0,0,0,0,0,0,-1,1637,827,0,0
420,197,0,0,0,0,0,0,0,0,0,-1,1644,827,0,0
427,197,0,0,0,0,0,0,0,0,0,-1,1651,827,0,0
434,197,0,0,0,0,0,0,0,0,0,-1,1658,827,0,0
441,197,0,0,0,0,0,0,0,0,0,-1,1665,827,0,0
448,197,0,0,0,0,0,0,0,0,0,-1,1672,827,0,0
455,197,0,0,0,0,0,0,0,0,0,-1,1679,827,0,0
462,197,0,0,0,0,0,0,0,0,0,-1,1686,827,0,0
469,197,0,0,0,0,0,0,0,0,0,-1,1693,827,0,0
476,197,0,0,0,0,0,0,0,0,0,-1,1700,827,0,0
483,197,0,0,0,0,0,0,0,0,0,-1,1707,827,0,0
490,197,0,0,0,0,0,0,0,0,0,-1,1714,827,0,0
497,197,0,0,0,0,0,0,0,0,0,-1,1721,827,0,0
504,197,0,0,0,0,0,0,0,0,0,-1,1728,827,0,0
511,197,0,0,0,0,0,0,0,0,0,-1,1735,827,0,0
518,197,0,0,0,0,0,0,0,0,0,-1,1742,827,0,0
525,197,0,0,0,0,0,0,0,0,0,-1,1749,827,0,0
532,197,0,0,0,0,0,0,0,0,0,-1,1756,827,0,0
539,197,0,0,0,0,0,0,0,0,0,-1,1763,827,0,0
546,197,0,0,0,0,0,0,0,0,0,-1,1770,827,0,0
553,197,0,0,0,0,0,0,0,0,0,-1,1777,827,0,0
560,197,0,0,0,0,0,0,0,0,0,-1,1784,827,0,0
567,197,0,0,0,0,0,0,0,0,0,-1,1791,827,0,0
574,197,0,0,0,0,0,0,0,0,0,-1,1798,827,0,0
581,197,0,0,0,0,0,0,0,0,0,-1,1805,827,0,0
588,197,0,0,0,0,0,0,0,0,0,-1,1812,827,0,0
595,197,0,0,0,0,0,0,0,0,0,-1,1819,827,0,0
602,197,64.8951,2.70227,0.000616224,-0.00613178,0.00200604,0.00116754,-0.00668309,0.268204,0.00489124,0.0380919,1826,827,64.8952,-2.70227
609,197,64.9878,2.7066,0.000472155,-0.00457692,0.00192257,0.00112087,-0.00522564,0.325427,0.00391129,0.0376976,1833,827,64.9878,-2.70659
616,197,65.0105,2.69763,0.000602196,-0.00275754,0.00188696,0.0014487,-0.00360405,0.421696,0.00300438,0.0388702,1840,827,65.0105,-2.69763
623,197,64.9348,2.57275,0.000958863,-0.00111999,0.00184998,0.00204142,-0.00220255,0.529447,0.00245084,0.037076,1847,827,64.9349,-2.57277
630,197,64.9771,2.57349,0.000605263,-0.000255777,0.00169886,0.0019273,-0.00157782,0.661302,0.00202703,0.0316674,1854,827,64.977,-2.57346
637,197,64.9863,2.64044,-0.000101724,-0.000136518,0.00126949,0.00115049,-0.00138873,0.778547,0.00146816,0.0288917,1861,827,64.9863,-2.64047
644,197,64.9565,2.66516,-0.000682224,-0.00036242,0.000827151,0.000320143,-0.00136479,0.880879,0.00103324,0.0348405,1868,827,64.9565,-2.66516
651,197,64.8807,2.67639,0,0,0,0,0,0,0,-1,1875,827,64.8807,-2.67637
658,197,40.4694,3.05927,0,0,0,0,0,0,0,-1,1882,827,40.4694,-3.05926
665,197,14.0618,1.80304,0,0,0,0,0,0,0,-1,1889,827,14.0617,-1.80303
672,197,50.136,-1.57922,0,0,0,0,0,0,0,-1,1896,827,50.136,1.57925
679,197,50.0945,-0.657593,0,0,0,0,0,0,0,-1,1903,827,50.0945,0.657587
686,197,50.2253,0.421692,-0.00300854,5.97841e-05,-0.00161399,0.000752418,-0.00370117,-1.16542,0.00275275,0.030483,1910,827,50.2254,-0.421712
693,197,50.0476,1.22125,-0.00294639,-0.000184303,-0.00199382,0.000860061,-0.00399076,-1.08829,0.00298873,0.0296531,1917,827,50.0476,-1.22126
700,197,50.0132,1.86023,-0.00262633,-2.61241e-05,-0.0020889,0.00113422,-0.00378667,-1.06376,0.00297547,0.0270842,1924,827,50.0132,-1.86022
707,197,50.0386,2.63568,-0.00177156,0.000320197,-0.00154016,0.00113603,-0.00258739,-1.08367,0.00220348,0.0102604,1931,827,50.0385,-2.63565
714,197,49.9988,3.37225,-0.000224078,0.00122075,-0.000481434,0.00136647,-0.000369801,-1.27688,0.00105605,0.0128135,1938,827,49.9988,-3.37227
721,197,49.9611,4.11285,0.0016689,0.00233446,0.00113259,0.00318215,0.000821214,0.928287,0.00190756,0.013102,1945,827,49.9611,-4.11288
728,197,49.9116,4.84839,0.00375876,0.00350519,0.00298248,0.00661715,0.000646799,0.764157,0.00421242,0.0109922,1952,827,49.9116,-4.84837
735,197,49.8503,5.59814,0.00586058,0.00473314,0.00519571,0.0105231,7.06548e-05,0.731361,0.00699194,0.0117291,1959,827,49.8504,-5.59816
742,197,49.7651,6.37976,0.00805717,0.00589536,0.00794591,0.0149954,-0.00104282,0.717797,0.010362,0.0224778,1966,827,49.7652,-6.37976
749,197,49.8168,7.51672,0.0105705,0.00678169,0.0117041,0.0205325,-0.00318029,0.705165,0.0148623,0.0462414,1973,827,49.8167,-7.5167
756,197,49.8363,8.59302,0,0,0,0,0,0,0,-1,1980,827,49.8363,-8.59303
763,197,49.3174,9.1944,0,0,0,0,0,0,0,-1,1987,827,49.3174,-9.1944
770,197,49.3531,10.3912,0,0,0,0,0,0,0,-1,1994,827,49.3531,-10.3912
777,197,0,0,0,0,0,0,0,0,0,-1,2001,827,0,0
784,197,0,0,0,0,0,0,0,0,0,-1,2008,827,0,0
791,197,0,0,0,0,0,0,0,0,0,-1,2015,827,0,0
798,197,0,0,0,0,0,0,0,0,0,-1,2022,827,0,0
805,197,0,0,0,0,0,0,0,0,0,-1,2029,827,0,0
812,197,0,0,0,0,0,0,0,0,0,-1,2036,827,0,0
-700,190,0,0,0,0,0,0,0,0,0,-1,524,834,0,0
-693,190,0,0,0,0,0,0,0,0,0,-1,531,834,0,0
-686,190,0,0,0,0,0,0,0,0,0,-1,538,834,0,0
-679,190,0,0,0,0,0,0,0,0,0,-1,545,834,0,0
-672,190,0,0,0,0,0,0,0,0,0,-1,552,834,0,0
-665,190,0,0,0,0,0,0,0,0,0,-1,559,834,0,0
-658,190,-41.9736,5.50092,0,0,0,0,0,0,0,-1,566,834,-41.9736,-5.50089
-651,190,-40.1895,4.99677,0,0,0,0,0,0,0,-1,573,834,-40.1894,-4.99677
-644,190,-35.4149,8.88776,0,0,0,0,0,0,0,-1,580,834,-35.4149,-8.88774
-637,190,-36.7248,6.13239,0,0,0,0,0,0,0,-1,587,834,-36.7248,-6.13239
-630,190,-36.174,6.11279,0,0,0,0,0,0,0,-1,594,834,-36.1739,-6.11279
-623,190,-36.218,5.59888,0,0,0,0,0,0,0,-1,601,834,-36.218,-5.59888
-616,190,-36.2781,4.71899,0,0,0,0,0,0,0,-1,608,834,-36.2782,-4.719
-609,190,-36.334,4.08459,-0.00228973,0.0108534,-0.000389455,0.0108649,-0.00230126,-1.5412,0.00811981,0.0272476,615,834,-36.334,-4.08458
-602,190,-36.4501,3.42987,-0.00214497,0.00734231,-0.000146595,0.00734457,-0.00214724,-1.55535,0.00574742,0.0181771,622,834,-36.4501,-3.42989
-595,190,-36.5089,2.71118,-0.00174201,0.0049418,0.000243242,0.00495064,-0.00175085,1.53447,0.00401343,0.0193023,629,834,-36.5089,-2.71121
-588,190,-36.5286,1.95642,-0.00134237,0.00303614,0.000713277,0.0031494,-0.00145564,1.41331,0.00271801,0.019582,636,834,-36.5286,-1.95642
-581,190,-36.5621,1.22406,-0.00103201,0.00230851,0.00123466,0.0027153,-0.0014388,1.25252,0.00243583,0.014553,643,834,-36.5622,-1.22407
-574,190,-36.5651,0.491638,-0.00100171,0.00172734,0.00139177,0.00231191,-0.00158627,1.17315,0.00226358,0.0129735,650,834,-36.5651,-0.491628
-567,190,-36.4486,-0.346802,-0.00135444,0.00106132,0.00114834,0.00152007,-0.00181319,1.19073,0.00192693,0.0291965,657,834,-36.4486,0.346829
-560,190,-36.2705,-1.23547,0,0,0,0,0,0,0,-1,664,834,-36.2705,1.2355
-553,190,-33.9625,-1.6355,0,0,0,0,0,0,0,-1,671,834,-33.9625,1.63552
-546,190,-33.7621,-2.04889,0,0,0,0,0,0,0,-1,678,834,-33.7621,2.04886
-539,190,-16.4624,-0.542542,0,0,0,0,0,0,0,-1,685,834,-16.4624,0.542527
-532,190,-21.6292,2.06122,0,0,0,0,0,0,0,-1,692,834,-21.6292,-2.06123
-525,190,-38.9377,1.03369,0,0,0,0,0,0,0,-1,699,834,-38.9377,-1.0337
-518,190,-49.5363,0.88916,0,0,0,0,0,0,0,-1,706,834,-49.5362,-0.889137
-511,190,-49.4965,0.974792,0.000473755,-0.00641501,0.00279179,0.00146309,-0.00740435,0.340566,0.00548931,0.0414895,713,834,-49.4965,-0.974766
-504,190,-49.4406,1.23785,0.001841,-0.00757372,0.00256221,0.00249313,-0.00822585,0.249228,0.00647691,0.0396251,720,834,-49.4406,-1.23785
-497,190,-49.4019,1.56573,0.00462421,-0.00789428,0.00106103,0.0047135,-0.00798357,0.0839586,0.00741126,0.0422529,727,834,-49.4019,-1.56576
-490,190,-49.3292,1.50525,0.00844641,-0.00614175,-0.00181155,0.008668,-0.00636334,-0.121717,0.00871228,0.0426042,734,834,-49.3292,-1.50523
-483,190,0,0,0,0,0,0,0,0,0,-1,741,834,0,0
-476,190,0,0,0,0,0,0,0,0,0,-1,748,834,0,0
-469,190,0,0,0,0,0,0,0,0,0,-1,755,834,0,0
-462,190,0,0,0,0,0,0,0,0,0,-1,762,834,0,0
-455,190,0,0,0,0,0,0,0,0,0,-1,769,834,0,0
-448,190,0,0,0,0,0,0,0,0,0,-1,776,834,0,0
-441,190,0,0,0,0,0,0,0,0,0,-1,783,834,0,0
-434,190,0,0,0,0,0,0,0,0,0,-1,790,834,0,0
-427,190,0,0,0,0,0,0,0,0,0,-1,797,834,0,0
-420,190,0,0,0,0,0,0,0,0,0,-1,804,834,0,0
-413,190,0,0,0,0,0,0,0,0,0,-1,811,834,0,0
-406,190,0,0,0,0,0,0,0,0,0,-1,818,834,0,0
-399,190,0,0,0,0,0,0,0,0,0,-1,825,834,0,0
-392,190,0,0,0,0,0,0,0,0,0,-1,832,834,0,0
-385,190,0,0,0,0,0,0,0,0,0,-1,839,834,0,0
-378,190,0,0,0,0,0,0,0,0,0,-1,846,834,0,0
-371,190,0,0,0,0,0,0,0,0,0,-1,853,834,0,0
-364,190,0,0,0,0,0,0,0,0,0,-1,860,834,0,0
-357,190,0,0,0,0,0,0,0,0,0,-1,867,834,0,0
-350,190,0,0,0,0,0,0,0,0,0,-1,874,834,0,0
-343,190,0,0,0,0,0,0,0,0,0,-1,881,834,0,0
-336,190,0,0,0,0,0,0,0,0,0,-1,888,834,0,0
-329,190,0,0,0,0,0,0,0,0,0,-1,895,834,0,0
-322,190,0,0,0,0,0,0,0,0,0,-1,902,834,0,0
-315,190,0,0,0,0,0,0,0,0,0,-1,909,834,0,0
-308,190,0,0,0,0,0,0,0,0,0,-1,916,834,0,0
-301,190,0,0,0,0,0,0,0,0,0,-1,923,834,0,0
-294,190,0,0,0,0,0,0,0,0,0,-1,930,834,0,0
-287,190,0,0,0,0,0,0,0,0,0,-1,937,834,0,0
-280,190,0,0,0,0,0,0,0,0,0,-1,944,834,0,0
-273,190,0,0,0,0,0,0,0,0,0,-1,951,834,0,0
-266,190,0,0,0,0,0,0,0,0,0,-1,958,834,0,0
-259,190,0,0,0,0,0,0,0,0,0,-1,965,834,0,0
-252,190,0,0,0,0,0,0,0,0,0,-1,972,834,0,0
-245,190,0,0,0,0,0,0,0,0,0,-1,979,834,0,0
-238,190,0,0,0,0,0,0,0,0,0,-1,986,834,0,0
-231,190,0,0,0,0,0,0,0,0,0,-1,993,834,0,0
-224,190,0,0,0,0,0,0,0,0,0,-1,1000,834,0,0
-217,190,0,0,0,0,0,0,0,0,0,-1,1007,834,0,0
-210,190,0,0,0,0,0,0,0,0,0,-1,1014,834,0,0
-203,190,0,0,0,0,0,0,0,0,0,-1,1021,834,0,0
-196,190,0,0,0,0,0,0,0,0,0,-1,1028,834,0,0
-189,190,0,0,0,0,0,0,0,0,0,-1,1035,834,0,0
-182,190,0,0,0,0,0,0,0,0,0,-1,1042,834,0,0
-175,190,0,0,0,0,0,0,0,0,0,-1,1049,834,0,0
-168,190,0,0,0,0,0,0,0,0,0,-1,1056,834,0,0
-161,190,0,0,0,0,0,0,0,0,0,-1,1063,834,0,0
-154,190,0,0,0,0,0,0,0,0,0,-1,1070,834,0,0
-147,190,0,0,0,0,0,0,0,0,0,-1,1077,834,0,0
-140,190,0,0,0,0,0,0,0,0,0,-1,1084,834,0,0
-133,190,0,0,0,0,0,0,0,0,0,-1,1091,834,0,0
-126,190,0,0,0,0,0,0,0,0,0,-1,1098,834,0,0
-119,190,0,0,0,0,0,0,0,0,0,-1,1105,834,0,0
-112,190,0,0,0,0,0,0,0,0,0,-1,1112,834,0,0
-105,190,0,0,0,0,0,0,0,0,0,-1,1119,834,0,0
-98,190,0,0,0,0,0,0,0,0,0,-1,1126,834,0,0
-91,190,0,0,0,0,0,0,0,0,0,-1,1133,834,0,0
-84,190,0,0,0,0,0,0,0,0,0,-1,1140,834,0,0
-77,190,0,0,0,0,0,0,0,0,0,-1,1147,834,0,0
-70,190,0,0,0,0,0,0,0,0,0,-1,1154,834,0,0
-63,190,0,0,0,0,0,0,0,0,0,-1,1161,834,0,0
-56,190,0,0,0,0,0,0,0,0,0,-1,1168,834,0,0
-49,190,0,0,0,0,0,0,0,0,0,-1,1175,834,0,0
-42,190,0,0,0,0,0,0,0,0,0,-1,1182,834,0,0
-35,190,0,0,0,0,0,0,0,0,0,-1,1189,834,0,0
-28,190,0,0,0,0,0,0,0,0,0,-1,1196,834,0,0
-21,190,0,0,0,0,0,0,0,0,0,-1,1203,834,0,0
-14,190,0,0,0,0,0,0,0,0,0,-1,1210,834,0,0
-7,190,0,0,0,0,0,0,0,0,0,-1,1217,834,0,0
0,190,0,0,0,0,0,0,0,0,0,-1,1224,834,0,0
7,190,0,0,0,0,0,0,0,0,0,-1,1231,834,0,0
14,190,0,0,0,0,0,0,0,0,0,-1,1238,834,0,0
21,190,0,0,0,0,0,0,0,0,0,-1,1245,834,0,0
28,190,0,0,0,0,0,0,0,0,0,-1,1252,834,0,0
35,190,0,0,0,0,0,0,0,0,0,-1,1259,834,0,0
42,190,0,0,0,0,0,0,0,0,0,-1,1266,834,0,0
49,190,0,0,0,0,0,0,0,0,0,-1,1273,834,0,0
56,190,0,0,0,0,0,0,0,0,0,-1,1280,834,0,0
63,190,0,0,0,0,0,0,0,0,0,-1,1287,834,0,0
70,190,0,0,0,0,0,0,0,0,0,-1,1294,834,0,0
77,190,0,0,0,0,0,0,0,0,0,-1,1301,834,0,0
84,190,0,0,0,0,0,0,0,0,0,-1,1308,834,0,0
91,190,0,0,0,0,0,0,0,0,0,-1,1315,834,0,0
98,190,0,0,0,0,0,0,0,0,0,-1,1322,834,0,0
105,190,0,0,0,0,0,0,0,0,0,-1,1329,834,0,0
112,190,0,0,0,0,0,0,0,0,0,-1,1336,834,0,0
119,190,0,0,0,0,0,0,0,0,0,-1,1343,834,0,0
126,190,0,0,0,0,0,0,0,0,0,-1,1350,834,0,0
133,190,0,0,0,0,0,0,0,0,0,-1,1357,834,0,0
140,190,0,0,0,0,0,0,0,0,0,-1,1364,834,0,0
147,190,0,0,0,0,0,0,0,0,0,-1,1371,834,0,0
154,190,0,0,0,0,0,0,0,0,0,-1,1378,834,0,0
161,190,0,0,0,0,0,0,0,0,0,-1,1385,834,0,0
168,190,0,0,0,0,0,0,0,0,0,-1,1392,834,0,0
175,190,0,0,0,0,0,0,0,0,0,-1,1399,834,0,0
182,190,0,0,0,0,0,0,0,0,0,-1,1406,834,0,0
189,190,0,0,0,0,0,0,0,0,0,-1,1413,834,0,0
196,190,0,0,0,0,0,0,0,0,0,-1,1420,834,0,0
203,190,0,0,0,0,0,0,0,0,0,-1,1427,834,0,0
210,190,0,0,0,0,0,0,0,0,0,-1,1434,834,0,0
217,190,0,0,0,0,0,0,0,0,0,-1,1441,834,0,0
224,190,0,0,0,0,0,0,0,0,0,-1,1448,834,0,0
231,190,0,0,0,0,0,0,0,0,0,-1,1455,834,0,0
238,190,0,0,0,0,0,0,0,0,0,-1,1462,834,0,0
245,190,0,0,0,0,0,0,0,0,0,-1,1469,834,0,0
252,190,0,0,0,0,0,0,0,0,0,-1,1476,834,0,0
259,190,0,0,0,0,0,0,0,0,0,-1,1483,834,0,0
266,190,0,0,0,0,0,0,0,0,0,-1,1490,834,0,0
273,190,0,0,0,0,0,0,0,0,0,-1,1497,834,0,0
280,190,0,0,0,0,0,0,0,0,0,-1,1504,834,0,0
287,190,0,0,0,0,0,0,0,0,0,-1,1511,834,0,0
294,190,0,0,0,0,0,0,0,0,0,-1,1518,834,0,0
301,190,0,0,0,0,0,0,0,0,0,-1,1525,834,0,0
308,190,0,0,0,0,0,0,0,0,0,-1,1532,834,0,0
315,190,0,0,0,0,0,0,0,0,0,-1,1539,834,0,0
322,190,0,0,0,0,0,0,0,0,0,-1,1546,834,0,0
329,190,0,0,0,0,0,0,0,0,0,-1,1553,834,0,0
336,190,0,0,0,0,0,0,0,0,0,-1,1560,834,0,0
343,190,0,0,0,0,0,0,0,0,0,-1,1567,834,0,0
350,190,0,0,0,0,0,0,0,0,0,-1,1574,834,0,0
357,190,0,0,0,0,0,0,0,0,0,-1,1581,834,0,0
364,190,0,0,0,0,0,0,0,0,0,-1,1588,834,0,0
371,190,0,0,0,0,0,0,0,0,0,-1,1595,834,0,0
378,190,0,0,0,0,0,0,0,0,0,-1,1602,834,0,0
385,190,0,0,0,0,0,0,0,0,0,-1,1609,834,0,0
392,190,0,0,0,0,0,0,0,0,0,-1,1616,834,0,0
399,190,0,0,0,0,0,0,0,0,0,-1,1623,834,0,0
406,190,0,0,0,0,0,0,0,0,0,-1,1630,834,0,0
413,190,0,0,0,0,0,0,0,0,0,-1,1637,834,0,0
420,190,0,0,0,0,0,0,0,0,0,-1,1644,834,0,0
427,190,0,0,0,0,0,0,0,0,0,-1,1651,834,0,0
434,190,0,0,0,0,0,0,0,0,0,-1,1658,834,0,0
441,190,0,0,0,0,0,0,0,0,0,-1,1665,834,0,0
448,190,0,0,0,0,0,0,0,0,0,-1,1672,834,0,0
455,190,0,0,0,0,0,0,0,0,0,-1,1679,834,0,0
462,190,0,0,0,0,0,0,0,0,0,-1,1686,834,0,0
469,190,0,0,0,0,0,0,0,0,0,-1,1693,834,0,0
476,190,0,0,0,0,0,0,0,0,0,-1,1700,834,0,0
483,190,0,0,0,0,0,0,0,0,0,-1,1707,834,0,0
490,190,0,0,0,0,0,0,0,0,0,-1,1714,834,0,0
497,190,0,0,0,0,0,0,0,0,0,-1,1721,834,0,0
504,190,0,0,0,0,0,0,0,0,0,-1,1728,834,0,0
511,190,0,0,0,0,0,0,0,0,0,-1,1735,834,0,0
518,190,0,0,0,0,0,0,0,0,0,-1,1742,834,0,0
525,190,0,0,0,0,0,0,0,0,0,-1,1749,834,0,0
532,190,0,0,0,0,0,0,0,0,0,-1,1756,834,0,0
539,190,0,0,0,0,0,0,0,0,0,-1,1763,834,0,0
546,190,0,0,0,0,0,0,0,0,0,-1,1770,834,0,0
553,190,0,0,0,0,0,0,0,0,0,-1,1777,834,0,0
560,190,0,0,0,0,0,0,0,0,0,-1,1784,834,0,0
567,190,0,0,0,0,0,0,0,0,0,-1,1791,834,0,0
574,190,0,0,0,0,0,0,0,0,0,-1,1798,834,0,0
581,190,0,0,0,0,0,0,0,0,0,-1,1805,834,0,0
588,190,0,0,0,0,0,0,0,0,0,-1,1812,834,0,0
595,190,0,0,0,0,0,0,0,0,0,-1,1819,834,0,0
602,190,64.7891,2.72156,0.00121841,-0.00762968,0.00198777,0.00164446,-0.00805573,0.21114,0.0059943,0.0400397,1826,834,64.789,-2.72157
609,190,64.8779,2.68341,0.000934838,-0.00607782,0.00200499,0.00146761,-0.00661059,0.259721,0.00496904,0.0379606,1833,834,64.8779,-2.68338
616,190,64.9493,2.72742,0.000744799,-0.00421096,0.00190946,0.00139517,-0.00486132,0.328279,0.00379247,0.038978,1840,834,64.9493,-2.72742
623,190,64.8954,2.57996,0.000682719,-0.00235943,0.00179056,0.00151107,-0.00318778,0.433298,0.00276986,0.0380885,1847,834,64.8954,-2.57995
630,190,64.8866,2.49121,0.00025903,-0.000963227,0.00158683,0.00134834,-0.00205254,0.601589,0.00197748,0.0396823,1854,834,64.8866,-2.49121
637,190,64.9316,2.63019,-0.000492975,-0.000504377,0.00112997,0.000631313,-0.00162866,0.782875,0.00134649,0.0336996,1861,834,64.9317,-2.6302
644,190,64.9551,2.73431,-0.00113912,-0.000612125,0.000654826,-0.000169769,-0.00158147,0.976681,0.00100253,0.0275744,1868,834,64.9551,-2.73433
651,190,64.892,2.82227,0,0,0,0,0,0,0,-1,1875,834,64.8919,-2.82225
658,190,54.0599,3.0943,0,0,0,0,0,0,0,-1,1882,834,54.0599,-3.09428
665,190,25.9916,3.05157,0,0,0,0,0,0,0,-1,1889,834,25.9916,-3.05156
672,190,27.2662,1.70862,0,0,0,0,0,0,0,-1,1896,834,27.2662,-1.70861
679,190,50.9701,-0.195923,0,0,0,0,0,0,0,-1,1903,834,50.9701,0.195895
686,190,50.98,0.514587,-0.00321623,0.000118501,-0.00176527,0.000879365,-0.0039771,-1.16384,0.00298797,0.0288422,1910,834,50.98,-0.514559
693,190,50.9966,1.24689,-0.00312442,-9.73824e-05,-0.00208933,0.00096903,-0.00419083,-1.09886,0.00316671,0.0313108,1917,834,50.9966,-1.24688
700,190,50.7889,1.94275,-0.00292055,2.55097e-05,-0.00226097,0.00125096,-0.004146,-1.07411,0.00326195,0.0199663,1924,834,50.789,-1.94277
707,190,50.7744,2.67889,-0.00233138,0.00022673,-0.00191826,0.00125325,-0.0033579,-1.07944,0.00275314,0.014322,1931,834,50.7744,-2.67888
714,190,50.7523,3.39142,-0.000968721,0.00101316,-0.00106371,0.00147599,-0.00143154,-1.1604,0.00167873,0.0131259,1938,834,50.7523,-3.39143
721,190,50.7225,4.1236,0.000834946,0.0020164,0.000408954,0.00214415,0.000707201,1.26803,0.0012616,0.0114379,1945,834,50.7226,-4.12357
728,190,50.6729,4.86206,0.00288916,0.00307286,0.0021506,0.00513357,0.000828452,0.80674,0.00318238,0.0132174,1952,834,50.6728,-4.86207
735,190,50.631,5.59393,0.00499972,0.00417931,0.00424253,0.00885183,0.000327206,0.737203,0.00579523,0.0125552,1959,834,50.631,-5.59393
742,190,50.5741,6.38177,0.00711792,0.00517445,0.00680367,0.0130189,-0.000726525,0.714465,0.00893129,0.0186189,1966,834,50.5742,-6.38178
749,190,50.5522,7.62122,0.00942088,0.00584257,0.0102724,0.0180588,-0.00279531,0.699177,0.013071,0.0426247,1973,834,50.5522,-7.62123
756,190,50.5092,8.85052,0,0,0,0,0,0,0,-1,1980,834,50.5092,-8.85053
763,190,50.4358,9.96179,0,0,0,0,0,0,0,-1,1987,834,50.4359,-9.96178
770,190,50.9589,9.46765,0,0,0,0,0,0,0,-1,1994,834,50.9588,-9.46768
777,190,51.4365,10.3331,0,0,0,0,0,0,0,-1,2001,834,51.4366,-10.3331
784,190,0,0,0,0,0,0,0,0,0,-1,2008,834,0,0
791,190,0,0,0,0,0,0,0,0,0,-1,2015,834,0,0
798,190,0,0,0,0,0,0,0,0,0,-1,2022,834,0,0
805,190,0,0,0,0,0,0,0,0,0,-1,2029,834,0,0
812,190,0,0,0,0,0,0,0,0,0,-1,2036,834,0,0
-700,183,0,0,0,0,0,0,0,0,0,-1,524,841,0,0
-693,183,0,0,0,0,0,0,0,0,0,-1,531,841,0,0
-686,183,0,0,0,0,0,0,0,0,0,-1,538,841,0,0
-679,183,0,0,0,0,0,0,0,0,0,-1,545,841,0,0
-672,183,0,0,0,0,0,0,0,0,0,-1,552,841,0,0
-665,183,0,0,0,0,0,0,0,0,0,-1,559,841,0,0
-658,183,-56.7401,1.32843,0,0,0,0,0,0,0,-1,566,841,-56.7401,-1.32844
-651,183,-36.1273,9.60504,0,0,0,0,0,0,0,-1,573,841,-36.1273,-9.60503
-644,183,-36.5223,8.60449,0,0,0,0,0,0,0,-1,580,841,-36.5224,-8.6045
-637,183,-37.1355,7.64911,0,0,0,0,0,0,0,-1,587,841,-37.1355,-7.64911
-630,183,-36.9281,6.37677,0,0,0,0,0,0,0,-1,594,841,-36.9281,-6.37679
-623,183,-36.9691,5.64319,-0.000439926,0.0215119,0.000536148,0.021525,-0.000453012,1.54639,0.0145034,0.0493658,601,841,-36.9691,-5.64321
-616,183,-37.0565,4.8985,-0.00173112,0.0149634,0.000367533,0.0149715,-0.00173921,1.5488,0.0106084,0.0422695,608,841,-37.0565,-4.89852
-609,183,-37.1403,4.17957,-0.00234852,0.0101838,0.000456426,0.0102004,-0.00236512,1.53444,0.00771053,0.018685,615,841,-37.1403,-4.17955
-602,183,-37.1944,3.44446,-0.00252945,0.00668237,0.000732755,0.0067403,-0.00258738,1.49191,0.00556041,0.0121379,622,841,-37.1944,-3.44444
-595,183,-37.2314,2.69501,-0.00245126,0.00428262,0.00115111,0.00447395,-0.00264259,1.40608,0.00415384,0.0118248,629,841,-37.2314,-2.69503
-588,183,-37.2441,1.97418,-0.00230316,0.00253567,0.00158905,0.00301085,-0.00277834,1.28023,0.00334329,0.01396,636,841,-37.2441,-1.97419
-581,183,-37.3091,1.27338,-0.00208899,0.00202282,0.00188923,0.00275904,-0.00282521,1.19921,0.00322414,0.0153108,643,841,-37.3092,-1.27338
-574,183,-37.3043,0.570129,-0.00204816,0.00164744,0.00175241,0.00234627,-0.00274699,1.19134,0.00294363,0.0189631,650,841,-37.3043,-0.570159
-567,183,-37.2222,-0.129883,0,0,0,0,0,0,0,-1,657,841,-37.2221,0.12989
-560,183,-34.0303,-1.05511,0,0,0,0,0,0,0,-1,664,841,-34.0303,1.05511
-553,183,-32.2224,-1.71942,0,0,0,0,0,0,0,-1,671,841,-32.2224,1.71944
-546,183,-27.8053,-1.91199,0,0,0,0,0,0,0,-1,678,841,-27.8053,1.91201
-539,183,-16.8032,-0.417297,0,0,0,0,0,0,0,-1,685,841,-16.8032,0.41732
-532,183,-29.9686,0.953613,0,0,0,0,0,0,0,-1,692,841,-29.9686,-0.953627
-525,183,-47.7875,1.25409,0,0,0,0,0,0,0,-1,699,841,-47.7876,-1.2541
-518,183,-49.588,0.800232,0,0,0,0,0,0,0,-1,706,841,-49.588,-0.800244
-511,183,-49.5173,0.957458,0.000609468,-0.0056672,0.00221591,0.00131293,-0.00637066,0.307397,0.00474568,0.0419002,713,841,-49.5172,-0.957447
-504,183,-49.3471,1.34985,0.00268749,-0.00688441,0.00180736,0.00301738,-0.0072143,0.180541,0.00607066,0.0395747,720,841,-49.3471,-1.34984
-497,183,-49.2002,1.75305,0,0,0,0,0,0,0,-1,727,841,-49.2002,-1.75304
-490,183,-49.2886,1.30817,0,0,0,0,0,0,0,-1,734,841,-49.2886,-1.30814
-483,183,0,0,0,0,0,0,0,0,0,-1,741,841,0,0
-476,183,0,0,0,0,0,0,0,0,0,-1,748,841,0,0
-469,183,0,0,0,0,0,0,0,0,0,-1,755,841,0,0
-462,183,0,0,0,0,0,0,0,0,0,-1,762,841,0,0
-455,183,0,0,0,0,0,0,0,0,0,-1,769,841,0,0
-448,183,0,0,0,0,0,0,0,0,0,-1,776,841,0,0
-441,183,0,0,0,0,0,0,0,0,0,-1,783,841,0,0
-434,183,0,0,0,0,0,0,0,0,0,-1,790,841,0,0
-427,183,0,0,0,0,0,0,0,0,0,-1,797,841,0,0
-420,183,0,0,0,0,0,0,0,0,0,-1,804,841,0,0
-413,183,0,0,0,0,0,0,0,0,0,-1,811,841,0,0
-406,183,0,0,0,0,0,0,0,0,0,-1,818,841,0,0
-399,183,0,0,0,0,0,0,0,0,0,-1,825,841,0,0
-392,183,0,0,0,0,0,0,0,0,0,-1,832,841,0,0
-385,183,0,0,0,0,0,0,0,0,0,-1,839,841,0,0
-378,183,0,0,0,0,0,0,0,0,0,-1,846,841,0,0
-371,183,0,0,0,0,0,0,0,0,0,-1,853,841,0,0
-364,183,0,0,0,0,0,0,0,0,0,-1,860,841,0,0
-357,183,0,0,0,0,0,0,0,0,0,-1,867,841,0,0
-350,183,0,0,0,0,0,0,0,0,0,-1,874,841,0,0
-343,183,0,0,0,0,0,0,0,0,0,-1,881,841,0,0
-336,183,0,0,0,0,0,0,0,0,0,-1,888,841,0,0
-329,183,0,0,0,0,0,0,0,0,0,-1,895,841,0,0
-322,183,0,0,0,0,0,0,0,0,0,-1,902,841,0,0
-315,183,0,0,0,0,0,0,0,0,0,-1,909,841,0,0
-308,183,0,0,0,0,0,0,0,0,0,-1,916,841,0,0
-301,183,0,0,0,0,0,0,0,0,0,-1,923,841,0,0
-294,183,0,0,0,0,0,0,0,0,0,-1,930,841,0,0
-287,183,0,0,0,0,0,0,0,0,0,-1,937,841,0,0
-280,183,0,0,0,0,0,0,0,0,0,-1,944,841,0,0
-273,183,0,0,0,0,0,0,0,0,0,-1,951,841,0,0
-266,183,0,0,0,0,0,0,0,0,0,-1,958,841,0,0
-259,183,0,0,0,0,0,0,0,0,0,-1,965,841,0,0
-252,183,0,0,0,0,0,0,0,0,0,-1,972,841,0,0
-245,183,0,0,0,0,0,0,0,0,0,-1,979,841,0,0
-238,183,0,0,0,0,0,0,0,0,0,-1,986,841,0,0
-231,183,0,0,0,0,0,0,0,0,0,-1,993,841,0,0
-224,183,0,0,0,0,0,0,0,0,0,-1,1000,841,0,0
-217,183,0,0,0,0,0,0,0,0,0,-1,1007,841,0,0
-210,183,0,0,0,0,0,0,0,0,0,-1,1014,841,0,0
-203,183,0,0,0,0,0,0,0,0,0,-1,1021,841,0,0
-196,183,0,0,0,0,0,0,0,0,0,-1,1028,841,0,0
-189,183,0,0,0,0,0,0,0,0,0,-1,1035,841,0,0
-182,183,0,0,0,0,0,0,0,0,0,-1,1042,841,0,0
-175,183,0,0,0,0,0,0,0,0,0,-1,1049,841,0,0
-168,183,0,0,0,0,0,0,0,0,0,-1,1056,841,0,0
-161,183,0,0,0,0,0,0,0,0,0,-1,1063,841,0,0
-154,183,0,0,0,0,0,0,0,0,0,-1,1070,841,0,0
-147,183,0,0,0,0,0,0,0,0,0,-1,1077,841,0,0
-140,183,0,0,0,0,0,0,0,0,0,-1,1084,841,0,0
-133,183,0,0,0,0,0,0,0,0,0,-1,1091,841,0,0
-126,183,0,0,0,0,0,0,0,0,0,-1,1098,841,0,0
-119,183,0,0,0,0,0,0,0,0,0,-1,1105,841,0,0
-112,183,0,0,0,0,0,0,0,0,0,-1,1112,841,0,0
-105,183,0,0,0,0,0,0,0,0,0,-1,1119,841,0,0
-98,183,0,0,0,0,0,0,0,0,0,-1,1126,841,0,0
-91,183,0,0,0,0,0,0,0,0,0,-1,1133,841,0,0
-84,183,0,0,0,0,0,0,0,0,0,-1,1140,841,0,0
-77,183,0,0,0,0,0,0,0,0,0,-1,1147,841,0,0
-70,183,0,0,0,0,0,0,0,0,0,-1,1154,841,0,0
-63,183,0,0,0,0,0,0,0,0,0,-1,1161,841,0,0
-56,183,0,0,0,0,0,0,0,0,0,-1,1168,841,0,0
-49,183,0,0,0,0,0,0,0,0,0,-1,1175,841,0,0
-42,183,0,0,0,0,0,0,0,0,0,-1,1182,841,0,0
-35,183,0,0,0,0,0,0,0,0,0,-1,1189,841,0,0
-28,183,0,0,0,0,0,0,0,0,0,-1,1196,841,0,0
-21,183,0,0,0,0,0,0,0,0,0,-1,1203,841,0,0
-14,183,0,0,0,0,0,0,0,0,0,-1,1210,841,0,0
-7,183,0,0,0,0,0,0,0,0,0,-1,1217,841,0,0
0,183,0,0,0,0,0,0,0,0,0,-1,1224,841,0,0
7,183,0,0,0,0,0,0,0,0,0,-1,1231,841,0,0
14,183,0,0,0,0,0,0,0,0,0,-1,1238,841,0,0
21,183,0,0,0,0,0,0,0,0,0,-1,1245,841,0,0
28,183,0,0,0,0,0,0,0,0,0,-1,1252,841,0,0
35,183,0,0,0,0,0,0,0,0,0,-1,1259,841,0,0
42,183,0,0,0,0,0,0,0,0,0,-1,1266,841,0,0
49,183,0,0,0,0,0,0,0,0,0,-1,1273,841,0,0
56,183,0,0,0,0,0,0,0,0,0,-1,1280,841,0,0
63,183,0,0,0,0,0,0,0,0,0,-1,1287,841,0,0
70,183,0,0,0,0,0,0,0,0,0,-1,1294,841,0,0
77,183,0,0,0,0,0,0,0,0,0,-1,1301,841,0,0
84,183,0,0,0,0,0,0,0,0,0,-1,1308,841,0,0
91,183,0,0,0,0,0,0,0,0,0,-1,1315,841,0,0
98,183,0,0,0,0,0,0,0,0,0,-1,1322,841,0,0
105,183,0,0,0,0,0,0,0,0,0,-1,1329,841,0,0
112,183,0,0,0,0,0,0,0,0,0,-1,1336,841,0,0
119,183,0,0,0,0,0,0,0,0,0,-1,1343,841,0,0
126,183,0,0,0,0,0,0,0,0,0,-1,1350,841,0,0
133,183,0,0,0,0,0,0,0,0,0,-1,1357,841,0,0
140,183,0,0,0,0,0,0,0,0,0,-1,1364,841,0,0
147,183,0,0,0,0,0,0,0,0,0,-1,1371,841,0,0
154,183,0,0,0,0,0,0,0,0,0,-1,1378,841,0,0
161,183,0,0,0,0,0,0,0,0,0,-1,1385,841,0,0
168,183,0,0,0,0,0,0,0,0,0,-1,1392,841,0,0
175,183,0,0,0,0,0,0,0,0,0,-1,1399,841,0,0
182,183,0,0,0,0,0,0,0,0,0,-1,1406,841,0,0
189,183,0,0,0,0,0,0,0,0,0,-1,1413,841,0,0
196,183,0,0,0,0,0,0,0,0,0,-1,1420,841,0,0
203,183,0,0,0,0,0,0,0,0,0,-1,1427,841,0,0
210,183,0,0,0,0,0,0,0,0,0,-1,1434,841,0,0
217,183,0,0,0,0,0,0,0,0,0,-1,1441,841,0,0
224,183,0,0,0,0,0,0,0,0,0,-1,1448,841,0,0
231,183,0,0,0,0,0,0,0,0,0,-1,1455,841,0,0
238,183,0,0,0,0,0,0,0,0,0,-1,1462,841,0,0
245,183,0,0,0,0,0,0,0,0,0,-1,1469,841,0,0
252,183,0,0,0,0,0,0,0,0,0,-1,1476,841,0,0
259,183,0,0,0,0,0,0,0,0,0,-1,1483,841,0,0
266,183,0,0,0,0,0,0,0,0,0,-1,1490,841,0,0
273,183,0,0,0,0,0,0,0,0,0,-1,1497,841,0,0
280,183,0,0,0,0,0,0,0,0,0,-1,1504,841,0,0
287,183,0,0,0,0,0,0,0,0,0,-1,1511,841,0,0
294,183,0,0,0,0,0,0,0,0,0,-1,1518,841,0,0
301,183,0,0,0,0,0,0,0,0,0,-1,1525,841,0,0
308,183,0,0,0,0,0,0,0,0,0,-1,1532,841,0,0
315,183,0,0,0,0,0,0,0,0,0,-1,1539,841,0,0
322,183,0,0,0,0,0,0,0,0,0,-1,1546,841,0,0
329,183,0,0,0,0,0,0,0,0,0,-1,1553,841,0,0
336,183,0,0,0,0,0,0,0,0,0,-1,1560,841,0,0
343,183,0,0,0,0,0,0,0,0,0,-1,1567,841,0,0
350,183,0,0,0,0,0,0,0,0,0,-1,1574,841,0,0
357,183,0,0,0,0,0,0,0,0,0,-1,1581,841,0,0
364,183,0,0,0,0,0,0,0,0,0,-1,1588,841,0,0
371,183,0,0,0,0,0,0,0,0,0,-1,1595,841,0,0
378,183,0,0,0,0,0,0,0,0,0,-1,1602,841,0,0
385,183,0,0,0,0,0,0,0,0,0,-1,1609,841,0,0
392,183,0,0,0,0,0,0,0,0,0,-1,1616,841,0,0
399,183,0,0,0,0,0,0,0,0,0,-1,1623,841,0,0
406,183,0,0,0,0,0,0,0,0,0,-1,1630,841,0,0
413,183,0,0,0,0,0,0,0,0,0,-1,1637,841,0,0
420,183,0,0,0,0,0,0,0,0,0,-1,1644,841,0,0
427,183,0,0,0,0,0,0,0,0,0,-1,1651,841,0,0
434,183,0,0,0,0,0,0,0,0,0,-1,1658,841,0,0
441,183,0,0,0,0,0,0,0,0,0,-1,1665,841,0,0
448,183,0,0,0,0,0,0,0,0,0,-1,1672,841,0,0
455,183,0,0,0,0,0,0,0,0,0,-1,1679,841,0,0
462,183,0,0,0,0,0,0,0,0,0,-1,1686,841,0,0
469,183,0,0,0,0,0,0,0,0,0,-1,1693,841,0,0
476,183,0,0,0,0,0,0,0,0,0,-1,1700,841,0,0
483,183,0,0,0,0,0,0,0,0,0,-1,1707,841,0,0
490,183,0,0,0,0,0,0,0,0,0,-1,1714,841,0,0
497,183,0,0,0,0,0,0,0,0,0,-1,1721,841,0,0
504,183,0,0,0,0,0,0,0,0,0,-1,1728,841,0,0
511,183,0,0,0,0,0,0,0,0,0,-1,1735,841,0,0
518,183,0,0,0,0,0,0,0,0,0,-1,1742,841,0,0
525,183,0,0,0,0,0,0,0,0,0,-1,1749,841,0,0
532,183,0,0,0,0,0,0,0,0,0,-1,1756,841,0,0
539,183,0,0,0,0,0,0,0,0,0,-1,1763,841,0,0
546,183,0,0,0,0,0,0,0,0,0,-1,1770,841,0,0
553,183,0,0,0,0,0,0,0,0,0,-1,1777,841,0,0
560,183,0,0,0,0,0,0,0,0,0,-1,1784,841,0,0
567,183,0,0,0,0,0,0,0,0,0,-1,1791,841,0,0
574,183,0,0,0,0,0,0,0,0,0,-1,1798,841,0,0
581,183,0,0,0,0,0,0,0,0,0,-1,1805,841,0,0
588,183,0,0,0,0,0,0,0,0,0,-1,1812,841,0,0
595,183,0,0,0,0,0,0,0,0,0,-1,1819,841,0,0
602,183,0,0,0,0,0,0,0,0,0,-1,1826,841,0,0
609,183,64.6987,2.91809,0.00142715,-0.00759057,0.0019985,0.0018502,-0.00801362,0.208608,0.00605414,0.0433629,1833,841,64.6987,-2.9181
616,183,64.7804,2.90283,0.00102008,-0.00566423,0.0018768,0.00151099,-0.00615514,0.255835,0.00468896,0.0412309,1840,841,64.7803,-2.90282
623,183,64.9357,2.63287,0,0,0,0,0,0,0,-1,1847,841,64.9356,-2.63289
630,183,64.8911,2.61407,0.000256763,-0.00190421,0.00160085,0.00110764,-0.00275509,0.488542,0.00229676,0.0415929,1854,841,64.8912,-2.61406
637,183,64.8933,2.65356,-0.000483446,-0.00100809,0.0011821,0.000465092,-0.00195663,0.676211,0.00148395,0.0340065,1861,841,64.8934,-2.65357
644,183,64.8889,2.76569,-0.0011597,-0.000908452,0.000685082,-0.000337573,-0.00173058,0.876078,0.00105928,0.0266573,1868,841,64.8889,-2.76572
651,183,64.8739,2.81592,-0.00160123,-0.000851245,0.000133928,-0.000828047,-0.00162443,1.39928,0.000937925,0.0258568,1875,841,64.8739,-2.81593
658,183,64.9088,2.83636,0,0,0,0,0,0,0,-1,1882,841,64.9088,-2.83635
665,183,38.4337,2.66992,0,0,0,0,0,0,0,-1,1889,841,38.4337,-2.6699
672,183,29.168,1.54572,0,0,0,0,0,0,0,-1,1896,841,29.168,-1.54574
679,183,51.8412,-0.0774536,0,0,0,0,0,0,0,-1,1903,841,51.8411,0.0774764
686,183,51.8223,0.57843,-0.00303959,0.00012812,-0.00176636,0.000916739,-0.00382821,-1.15089,0.00290632,0.0375527,1910,841,51.8222,-0.578427
693,183,51.7522,1.22192,-0.00288832,1.45508e-05,-0.00202572,0.00105514,-0.00392891,-1.09626,0.0030328,0.034157,1917,841,51.7522,-1.22193
700,183,51.6907,1.87335,0,0,0,0,0,0,0,-1,1924,841,51.6907,-1.87333
707,183,51.5153,2.72058,-0.00235965,0.000230111,-0.00205988,0.0013683,-0.00349784,-1.066,0.00289776,0.0143612,1931,841,51.5153,-2.72059
714,183,51.5282,3.41089,-0.00131382,0.000879292,-0.00146053,0.0016091,-0.00204363,-1.1074,0.00211387,0.0176266,1938,841,51.5282,-3.41088
721,183,51.4834,4.13843,0.000225407,0.00175126,-0.000211558,0.00178005,0.000196618,-1.43555,0.00112689,0.0153137,1945,841,51.4834,-4.13843
728,183,51.4421,4.88452,0.00206598,0.00265235,0.00134297,0.00373377,0.00098456,0.892866,0.0022345,0.0133705,1952,841,51.4422,-4.8845
735,183,51.4071,5.62036,0.00401602,0.00359096,0.00324887,0.00705931,0.000547673,0.752736,0.00453468,0.0129562,1959,841,51.4071,-5.62035
742,183,51.3767,6.37189,0.00589962,0.00440463,0.00557515,0.0107772,-0.000472914,0.718758,0.00734749,0.0140504,1966,841,51.3767,-6.37189
749,183,51.4436,7.44965,0.00780692,0.00485599,0.00868677,0.0151426,-0.00247973,0.701275,0.0110151,0.0378379,1973,841,51.4435,-7.44967
756,183,51.5195,8.59485,0,0,0,0,0,0,0,-1,1980,841,51.5196,-8.59484
763,183,51.2776,8.80573,0,0,0,0,0,0,0,-1,1987,841,51.2776,-8.80575
770,183,51.5659,9.50665,0,0,0,0,0,0,0,-1,1994,841,51.5659,-9.50663
777,183,42.1948,7.22906,0,0,0,0,0,0,0,-1,2001,841,42.1948,-7.22905
784,183,0,0,0,0,0,0,0,0,0,-1,2008,841,0,0
791,183,0,0,0,0,0,0,0,0,0,-1,2015,841,0,0
798,183,0,0,0,0,0,0,0,0,0,-1,2022,841,0,0
805,183,0,0,0,0,0,0,0,0,0,-1,2029,841,0,0
812,183,0,0,0,0,0,0,0,0,0,-1,2036,841,0,0
-700,176,0,0,0,0,0,0,0,0,0,-1,524,848,0,0
-693,176,0,0,0,0,0,0,0,0,0,-1,531,848,0,0
-686,176,0,0,0,0,0,0,0,0,0,-1,538,848,0,0
-679,176,0,0,0,0,0,0,0,0,0,-1,545,848,0,0
-672,176,0,0,0,0,0,0,0,0,0,-1,552,848,0,0
-665,176,-54.9626,1.06262,0,0,0,0,0,0,0,-1,559,848,-54.9625,-1.06264
-658,176,-55.5429,2.19293,0,0,0,0,0,0,0,-1,566,848,-55.5429,-2.19292
-651,176,-37.6729,9.24561,0,0,0,0,0,0,0,-1,573,848,-37.6729,-9.24562
-644,176,-37.8347,8.30505,0.00474794,0.0567124,0.00642589,0.0574953,0.00396511,1.44957,0.0370792,0.0451002,580,848,-37.8347,-8.30503
-637,176,-37.9106,7.409,0.00242376,0.0409471,0.00351182,0.0412646,0.00210624,1.48063,0.0268352,0.0479212,587,848,-37.9106,-7.40898
-630,176,-37.757,6.51886,0,0,0,0,0,0,0,-1,594,848,-37.757,-6.51885
-623,176,-37.7232,5.70996,-0.000744183,0.020233,0.000934614,0.0202745,-0.000785741,1.52636,0.0137857,0.0434136,601,848,-37.7232,-5.70998
-616,176,-37.7887,4.93793,-0.0020028,0.0138739,0.000898668,0.0139246,-0.0020535,1.51443,0.0100378,0.0294537,608,848,-37.7887,-4.93794
-609,176,-37.8833,4.18884,-0.00269132,0.00920376,0.00110812,0.0093061,-0.00279367,1.47869,0.00731532,0.0127805,615,848,-37.8833,-4.18883
-602,176,-37.9279,3.44727,-0.00301488,0.00578977,0.00150611,0.00604028,-0.00326539,1.40598,0.00545167,0.0134256,622,848,-37.9279,-3.44727
-595,176,-37.9719,2.71118,-0.00308686,0.00350632,0.00201056,0.00407105,-0.0036516,1.29697,0.00446087,0.0124426,629,848,-37.9719,-2.71116
-588,176,-37.9674,2.01947,-0.00299831,0.00206464,0.00242974,0.00304202,-0.00397568,1.18835,0.0040636,0.0134276,636,848,-37.9674,-2.01946
-581,176,-38.0383,1.35504,-0.00270898,0.00175883,0.00252615,0.00289713,-0.00384728,1.14744,0.00390675,0.0128931,643,848,-38.0382,-1.35506
-574,176,-38.1277,0.666504,-0.0025712,0.00141019,0.00223509,0.00241257,-0.00357358,1.14921,0.00347771,0.0284231,650,848,-38.1277,-0.666475
-567,176,-38.1414,-0.135193,0,0,0,0,0,0,0,-1,657,848,-38.1414,0.135213
-560,176,-31.6935,-0.0994873,0,0,0,0,0,0,0,-1,664,848,-31.6936,0.0994584
-553,176,-29.4605,-1.50214,0,0,0,0,0,0,0,-1,671,848,-29.4605,1.50211
-546,176,-16.657,-0.403198,0,0,0,0,0,0,0,-1,678,848,-16.657,0.403182
-539,176,-22.7061,1.48657,0,0,0,0,0,0,0,-1,685,848,-22.7061,-1.48657
-532,176,-38.8326,1.29749,0,0,0,0,0,0,0,-1,692,848,-38.8326,-1.29747
-525,176,-49.4882,0.896118,0,0,0,0,0,0,0,-1,699,848,-49.4882,-0.896128
-518,176,-49.5631,0.790955,0.000586926,-0.0037343,0.00143516,0.00102014,-0.00416751,0.29316,0.00317352,0.0445592,706,848,-49.5631,-0.790962
-511,176,-49.6573,0.745544,0.00119345,-0.00521643,0.00178799,0.00165846,-0.00568144,0.254438,0.0044448,0.0420417,713,848,-49.6574,-0.745524
-504,176,-49.6805,0.814514,0.00387157,-0.00622623,0.00102983,0.00397553,-0.00633018,0.100605,0.00600155,0.0435552,720,848,-49.6805,-0.814528
-497,176,-49.6929,0.851746,0,0,0,0,0,0,0,-1,727,848,-49.6929,-0.851756
-490,176,-49.4849,1.07135,0,0,0,0,0,0,0,-1,734,848,-49.4849,-1.07133
-483,176,0,0,0,0,0,0,0,0,0,-1,741,848,0,0
-476,176,0,0,0,0,0,0,0,0,0,-1,748,848,0,0
-469,176,0,0,0,0,0,0,0,0,0,-1,755,848,0,0
-462,176,0,0,0,0,0,0,0,0,0,-1,762,848,0,0
-455,176,0,0,0,0,0,0,0,0,0,-1,769,848,0,0
-448,176,0,0,0,0,0,0,0,0,0,-1,776,848,0,0
-441,176,0,0,0,0,0,0,0,0,0,-1,783,848,0,0
-434,176,0,0,0,0,0,0,0,0,0,-1,790,848,0,0
-427,176,0,0,0,0,0,0,0,0,0,-1,797,848,0,0
-420,176,0,0,0,0,0,0,0,0,0,-1,804,848,0,0
-413,176,0,0,0,0,0,0,0,0,0,-1,811,848,0,0
-406,176,0,0,0,0,0,0,0,0,0,-1,818,848,0,0
-399,176,0,0,0,0,0,0,0,0,0,-1,825,848,0,0
-392,176,0,0,0,0,0,0,0,0,0,-1,832,848,0,0
-385,176,0,0,0,0,0,0,0,0,0,-1,839,848,0,0
-378,176,0,0,0,0,0,0,0,0,0,-1,846,848,0,0
-371,176,0,0,0,0,0,0,0,0,0,-1,853,848,0,0
-364,176,0,0,0,0,0,0,0,0,0,-1,860,848,0,0
-357,176,0,0,0,0,0,0,0,0,0,-1,867,848,0,0
-350,176,0,0,0,0,0,0,0,0,0,-1,874,848,0,0
-343,176,0,0,0,0,0,0,0,0,0,-1,881,848,0,0
-336,176,0,0,0,0,0,0,0,0,0,-1,888,848,0,0
-329,176,0,0,0,0,0,0,0,0,0,-1,895,848,0,0
-322,176,0,0,0,0,0,0,0,0,0,-1,902,848,0,0
-315,176,0,0,0,0,0,0,0,0,0,-1,909,848,0,0
-308,176,0,0,0,0,0,0,0,0,0,-1,916,848,0,0
-301,176,0,0,0,0,0,0,0,0,0,-1,923,848,0,0
-294,176,0,0,0,0,0,0,0,0,0,-1,930,848,0,0
-287,176,0,0,0,0,0,0,0,0,0,-1,937,848,0,0
-280,176,0,0,0,0,0,0,0,0,0,-1,944,848,0,0
-273,176,0,0,0,0,0,0,0,0,0,-1,951,848,0,0
-266,176,0,0,0,0,0,0,0,0,0,-1,958,848,0,0
-259,176,0,0,0,0,0,0,0,0,0,-1,965,848,0,0
-252,176,0,0,0,0,0,0,0,0,0,-1,972,848,0,0
-245,176,0,0,0,0,0,0,0,0,0,-1,979,848,0,0
-238,176,0,0,0,0,0,0,0,0,0,-1,986,848,0,0
-231,176,0,0,0,0,0,0,0,0,0,-1,993,848,0,0
-224,176,0,0,0,0,0,0,0,0,0,-1,1000,848,0,0
-217,176,0,0,0,0,0,0,0,0,0,-1,1007,848,0,0
-210,176,0,0,0,0,0,0,0,0,0,-1,1014,848,0,0
-203,176,0,0,0,0,0,0,0,0,0,-1,1021,848,0,0
-196,176,0,0,0,0,0,0,0,0,0,-1,1028,848,0,0
-189,176,0,0,0,0,0,0,0,0,0,-1,1035,848,0,0
-182,176,0,0,0,0,0,0,0,0,0,-1,1042,848,0,0
-175,176,0,0,0,0,0,0,0,0,0,-1,1049,848,0,0
-168,176,0,0,0,0,0,0,0,0,0,-1,1056,848,0,0
-161,176,0,0,0,0,0,0,0,0,0,-1,1063,848,0,0
-154,176,0,0,0,0,0,0,0,0,0,-1,1070,848,0,0
-147,176,0,0,0,0,0,0,0,0,0,-1,1077,848,0,0
-140,176,0,0,0,0,0,0,0,0,0,-1,1084,848,0,0
-133,176,0,0,0,0,0,0,0,0,0,-1,1091,848,0,0
-126,176,0,0,0,0,0,0,0,0,0,-1,1098,848,0,0
-119,176,0,0,0,0,0,0,0,0,0,-1,1105,848,0,0
-112,176,0,0,0,0,0,0,0,0,0,-1,1112,848,0,0
-105,176,0,0,0,0,0,0,0,0,0,-1,1119,848,0,0
-98,176,0,0,0,0,0,0,0,0,0,-1,1126,848,0,0
-91,176,0,0,0,0,0,0,0,0,0,-1,1133,848,0,0
-84,176,0,0,0,0,0,0,0,0,0,-1,1140,848,0,0
-77,176,0,0,0,0,0,0,0,0,0,-1,1147,848,0,0
-70,176,0,0,0,0,0,0,0,0,0,-1,1154,848,0,0
-63,176,0,0,0,0,0,0,0,0,0,-1,1161,848,0,0
-56,176,0,0,0,0,0,0,0,0,0,-1,1168,848,0,0
-49,176,0,0,0,0,0,0,0,0,0,-1,1175,848,0,0
-42,176,0,0,0,0,0,0,0,0,0,-1,1182,848,0,0
-35,176,0,0,0,0,0,0,0,0,0,-1,1189,848,0,0
-28,176,0,0,0,0,0,0,0,0,0,-1,1196,848,0,0
-21,176,0,0,0,0,0,0,0,0,0,-1,1203,848,0,0
-14,176,0,0,0,0,0,0,0,0,0,-1,1210,848,0,0
-7,176,0,0,0,0,0,0,0,0,0,-1,1217,848,0,0
0,176,0,0,0,0,0,0,0,0,0,-1,1224,848,0,0
7,176,0,0,0,0,0,0,0,0,0,-1,1231,848,0,0
14,176,0,0,0,0,0,0,0,0,0,-1,1238,848,0,0
21,176,0,0,0,0,0,0,0,0,0,-1,1245,848,0,0
28,176,0,0,0,0,0,0,0,0,0,-1,1252,848,0,0
35,176,0,0,0,0,0,0,0,0,0,-1,1259,848,0,0
42,176,0,0,0,0,0,0,0,0,0,-1,1266,848,0,0
49,176,0,0,0,0,0,0,0,0,0,-1,1273,848,0,0
56,176,0,0,0,0,0,0,0,0,0,-1,1280,848,0,0
63,176,0,0,0,0,0,0,0,0,0,-1,1287,848,0,0
70,176,0,0,0,0,0,0,0,0,0,-1,1294,848,0,0
77,176,0,0,0,0,0,0,0,0,0,-1,1301,848,0,0
84,176,0,0,0,0,0,0,0,0,0,-1,1308,848,0,0
91,176,0,0,0,0,0,0,0,0,0,-1,1315,848,0,0
98,176,0,0,0,0,0,0,0,0,0,-1,1322,848,0,0
105,176,0,0,0,0,0,0,0,0,0,-1,1329,848,0,0
112,176,0,0,0,0,0,0,0,0,0,-1,1336,848,0,0
119,176,0,0,0,0,0,0,0,0,0,-1,1343,848,0,0
126,176,0,0,0,0,0,0,0,0,0,-1,1350,848,0,0
133,176,0,0,0,0,0,0,0,0,0,-1,1357,848,0,0
140,176,0,0,0,0,0,0,0,0,0,-1,1364,848,0,0
147,176,0,0,0,0,0,0,0,0,0,-1,1371,848,0,0
154,176,0,0,0,0,0,0,0,0,0,-1,1378,848,0,0
161,176,0,0,0,0,0,0,0,0,0,-1,1385,848,0,0
168,176,0,0,0,0,0,0,0,0,0,-1,1392,848,0,0
175,176,0,0,0,0,0,0,0,0,0,-1,1399,848,0,0
182,176,0,0,0,0,0,0,0,0,0,-1,1406,848,0,0
189,176,0,0,0,0,0,0,0,0,0,-1,1413,848,0,0
196,176,0,0,0,0,0,0,0,0,0,-1,1420,848,0,0
203,176,0,0,0,0,0,0,0,0,0,-1,1427,848,0,0
210,176,0,0,0,0,0,0,0,0,0,-1,1434,848,0,0
217,176,0,0,0,0,0,0,0,0,0,-1,1441,848,0,0
224,176,0,0,0,0,0,0,0,0,0,-1,1448,848,0,0
231,176,0,0,0,0,0,0,0,0,0,-1,1455,848,0,0
238,176,0,0,0,0,0,0,0,0,0,-1,1462,848,0,0
245,176,0,0,0,0,0,0,0,0,0,-1,1469,848,0,0
252,176,0,0,0,0,0,0,0,0,0,-1,1476,848,0,0
259,176,0,0,0,0,0,0,0,0,0,-1,1483,848,0,0
266,176,0,0,0,0,0,0,0,0,0,-1,1490,848,0,0
273,176,0,0,0,0,0,0,0,0,0,-1,1497,848,0,0
280,176,0,0,0,0,0,0,0,0,0,-1,1504,848,0,0
287,176,0,0,0,0,0,0,0,0,0,-1,1511,848,0,0
294,176,0,0,0,0,0,0,0,0,0,-1,1518,848,0,0
301,176,0,0,0,0,0,0,0,0,0,-1,1525,848,0,0
308,176,0,0,0,0,0,0,0,0,0,-1,1532,848,0,0
315,176,0,0,0,0,0,0,0,0,0,-1,1539,848,0,0
322,176,0,0,0,0,0,0,0,0,0,-1,1546,848,0,0
329,176,0,0,0,0,0,0,0,0,0,-1,1553,848,0,0
336,176,0,0,0,0,0,0,0,0,0,-1,1560,848,0,0
343,176,0,0,0,0,0,0,0,0,0,-1,1567,848,0,0
350,176,0,0,0,0,0,0,0,0,0,-1,1574,848,0,0
357,176,0,0,0,0,0,0,0,0,0,-1,1581,848,0,0
364,176,0,0,0,0,0,0,0,0,0,-1,1588,848,0,0
371,176,0,0,0,0,0,0,0,0,0,-1,1595,848,0,0
378,176,0,0,0,0,0,0,0,0,0,-1,1602,848,0,0
385,176,0,0,0,0,0,0,0,0,0,-1,1609,848,0,0
392,176,0,0,0,0,0,0,0,0,0,-1,1616,848,0,0
399,176,0,0,0,0,0,0,0,0,0,-1,1623,848,0,0
406,176,0,0,0,0,0,0,0,0,0,-1,1630,848,0,0
413,176,0,0,0,0,0,0,0,0,0,-1,1637,848,0,0
420,176,0,0,0,0,0,0,0,0,0,-1,1644,848,0,0
427,176,0,0,0,0,0,0,0,0,0,-1,1651,848,0,0
434,176,0,0,0,0,0,0,0,0,0,-1,1658,848,0,0
441,176,0,0,0,0,0,0,0,0,0,-1,1665,848,0,0
448,176,0,0,0,0,0,0,0,0,0,-1,1672,848,0,0
455,176,0,0,0,0,0,0,0,0,0,-1,1679,848,0,0
462,176,0,0,0,0,0,0,0,0,0,-1,1686,848,0,0
469,176,0,0,0,0,0,0,0,0,0,-1,1693,848,0,0
476,176,0,0,0,0,0,0,0,0,0,-1,1700,848,0,0
483,176,0,0,0,0,0,0,0,0,0,-1,1707,848,0,0
490,176,0,0,0,0,0,0,0,0,0,-1,1714,848,0,0
497,176,0,0,0,0,0,0,0,0,0,-1,1721,848,0,0
504,176,0,0,0,0,0,0,0,0,0,-1,1728,848,0,0
511,176,0,0,0,0,0,0,0,0,0,-1,1735,848,0,0
518,176,0,0,0,0,0,0,0,0,0,-1,1742,848,0,0
525,176,0,0,0,0,0,0,0,0,0,-1,1749,848,0,0
532,176,0,0,0,0,0,0,0,0,0,-1,1756,848,0,0
539,176,0,0,0,0,0,0,0,0,0,-1,1763,848,0,0
546,176,0,0,0,0,0,0,0,0,0,-1,1770,848,0,0
553,176,0,0,0,0,0,0,0,0,0,-1,1777,848,0,0
560,176,0,0,0,0,0,0,0,0,0,-1,1784,848,0,0
567,176,0,0,0,0,0,0,0,0,0,-1,1791,848,0,0
574,176,0,0,0,0,0,0,0,0,0,-1,1798,848,0,0
581,176,0,0,0,0,0,0,0,0,0,-1,1805,848,0,0
588,176,0,0,0,0,0,0,0,0,0,-1,1812,848,0,0
595,176,0,0,0,0,0,0,0,0,0,-1,1819,848,0,0
602,176,0,0,0,0,0,0,0,0,0,-1,1826,848,0,0
609,176,64.7898,2.89929,0,0,0,0,0,0,0,-1,1833,848,64.7898,-2.89926
616,176,65.2291,2.20294,0,0,0,0,0,0,0,-1,1840,848,65.2291,-2.20292
623,176,65.1807,2.40503,0.000765364,-0.00494392,0.00172922,0.00124826,-0.00542681,0.272321,0.00409784,0.0477976,1847,848,65.1807,-2.40505
630,176,65.1686,2.56714,0.000354998,-0.00291443,0.00156284,0.000981866,-0.0035413,0.381462,0.00274728,0.0410299,1854,848,65.1686,-2.56716
637,176,65.0266,2.6615,-0.000292979,-0.0016012,0.0011978,0.000417676,-0.00231186,0.535478,0.00169768,0.0310321,1861,848,65.0266,-2.66153
644,176,64.8817,2.69092,-0.000937652,-0.00121167,0.000696277,-0.000365032,-0.00178429,0.688253,0.00108845,0.0285272,1868,848,64.8818,-2.69093
651,176,64.9344,2.6673,-0.00141387,-0.000998213,8.59489e-05,-0.000981142,-0.00143095,1.37473,0.000844928,0.0300846,1875,848,64.9344,-2.66731
658,176,64.993,2.6546,0,0,0,0,0,0,0,-1,1882,848,64.993,-2.65461
665,176,54.3333,2.34277,0,0,0,0,0,0,0,-1,1889,848,54.3333,-2.34279
672,176,16.9304,2.80719,0,0,0,0,0,0,0,-1,1896,848,16.9305,-2.80719
679,176,50.9341,0.315979,0,0,0,0,0,0,0,-1,1903,848,50.9341,-0.315984
686,176,52.6544,0.660522,0,0,0,0,0,0,0,-1,1910,848,52.6544,-0.660523
693,176,52.5181,1.39221,-0.0022594,-6.17024e-05,-0.00191109,0.00104393,-0.00336503,-1.04631,0.0026605,0.0318881,1917,848,52.5181,-1.39224
700,176,52.3428,2.1875,-0.00202678,6.86614e-05,-0.00207155,0.00134237,-0.00330049,-1.01952,0.00275888,0.0382823,1924,848,52.3428,-2.18751
707,176,52.3618,2.8244,-0.00182621,5.86807e-05,-0.0020409,0.00136423,-0.00313176,-1.0017,0.00266179,0.0248395,1931,848,52.3618,-2.82441
714,176,52.2499,3.45514,-0.00116192,0.000596256,-0.00167362,0.00160762,-0.00217329,-1.02722,0.00219104,0.0134038,1938,848,52.2499,-3.45513
721,176,52.2318,4.16644,-0.000105238,0.00137708,-0.000671311,0.00163591,-0.000364066,-1.2028,0.00123006,0.0134328,1945,848,52.2319,-4.16643
728,176,52.1946,4.92786,0.00124625,0.00215292,0.000671114,0.00250946,0.000889703,1.08244,0.00146913,0.0164092,1952,848,52.1946,-4.92783
735,176,52.1381,5.67468,0.00275883,0.00295789,0.00238517,0.0052456,0.000471116,0.80625,0.00335109,0.0151942,1959,848,52.1381,-5.67471
742,176,52.0865,6.40424,0.00418192,0.003662,0.00450146,0.00843092,-0.000587004,0.756555,0.00582615,0.0231986,1966,848,52.0866,-6.40423
749,176,52.5021,7.10956,0.00550001,0.00402044,0.00729929,0.0120969,-0.00257646,0.734896,0.00904656,0.0368359,1973,848,52.5021,-7.10954
756,176,53.0675,7.77844,0,0,0,0,0,0,0,-1,1980,848,53.0675,-7.77844
763,176,44.4343,7.70581,0,0,0,0,0,0,0,-1,1987,848,44.4343,-7.70578
770,176,36.4186,4.25641,0,0,0,0,0,0,0,-1,1994,848,36.4186,-4.25639
777,176,43.8328,7.50177,0,0,0,0,0,0,0,-1,2001,848,43.8328,-7.50178
784,176,0,0,0,0,0,0,0,0,0,-1,2008,848,0,0
791,176,0,0,0,0,0,0,0,0,0,-1,2015,848,0,0
798,176,0,0,0,0,0,0,0,0,0,-1,2022,848,0,0
805,176,0,0,0,0,0,0,0,0,0,-1,2029,848,0,0
812,176,0,0,0,0,0,0,0,0,0,-1,2036,848,0,0
-700,169,0,0,0,0,0,0,0,0,0,-1,524,855,0,0
-693,169,0,0,0,0,0,0,0,0,0,-1,531,855,0,0
-686,169,0,0,0,0,0,0,0,0,0,-1,538,855,0,0
-679,169,0,0,0,0,0,0,0,0,0,-1,545,855,0,0
-672,169,0,0,0,0,0,0,0,0,0,-1,552,855,0,0
-665,169,-53.5222,1.5567,0,0,0,0,0,0,0,-1,559,855,-53.5222,-1.55671
-658,169,-54.2782,3.05786,0,0,0,0,0,0,0,-1,566,855,-54.2782,-3.05787
-651,169,-38.6437,8.72485,0,0,0,0,0,0,0,-1,573,855,-38.6437,-8.72484
-644,169,-38.8143,7.77997,0.0176717,0.0466701,0.00580503,0.047789,0.0165528,1.38038,0.0280217,0.0487839,580,855,-38.8144,-7.77994
-637,169,-38.7632,7.16278,0.00902714,0.0357438,0.00331347,0.0361486,0.00862233,1.44923,0.0218009,0.0491339,587,855,-38.7632,-7.16275
-630,169,-38.6299,6.58051,0,0,0,0,0,0,0,-1,594,855,-38.6299,-6.58053
-623,169,-38.6115,5.76038,-0.000237098,0.0188335,0.0011118,0.0188981,-0.000301696,1.51276,0.0127005,0.0415657,601,855,-38.6115,-5.76038
-616,169,-38.5522,4.9295,-0.00246963,0.012847,0.0011278,0.0129296,-0.00255223,1.49769,0.00958444,0.023555,608,855,-38.5522,-4.92952
-609,169,-38.6224,4.20709,-0.00316308,0.00831833,0.00149237,0.00850914,-0.00335389,1.44363,0.0070614,0.014432,615,855,-38.6224,-4.20709
-602,169,-38.6627,3.48279,-0.00357396,0.00499864,0.00207456,0.00547429,-0.00404961,1.34541,0.0055191,0.0143514,622,855,-38.6627,-3.48282
-595,169,-38.6902,2.74261,-0.0037375,0.00283196,0.00271423,0.00380828,-0.00471381,1.2255,0.00492948,0.0123201,629,855,-38.6903,-2.7426
-588,169,-38.6891,2.06787,-0.00369757,0.0016555,0.00314538,0.00310901,-0.00515108,1.13792,0.0048173,0.0101046,636,855,-38.6891,-2.06786
-581,169,-38.7541,1.41211,-0.00346808,0.00140142,0.00310327,0.00291106,-0.00497773,1.11803,0.0046064,0.0213235,643,855,-38.7541,-1.41213
-574,169,-39.0823,0.681946,-0.00337287,0.000999406,0.00273125,0.00231168,-0.00468515,1.1229,0.00411636,0.0391477,650,855,-39.0823,-0.681967
-567,169,-38.8871,0.00854492,0,0,0,0,0,0,0,-1,657,855,-38.8871,-0.00855071
-560,169,-38.9329,-0.615967,0,0,0,0,0,0,0,-1,664,855,-38.9329,0.615955
-553,169,-32.1944,-0.787964,0,0,0,0,0,0,0,-1,671,855,-32.1944,0.787959
-546,169,-19.0852,-1.05609,0,0,0,0,0,0,0,-1,678,855,-19.0852,1.05612
-539,169,-33.2307,1.10706,0,0,0,0,0,0,0,-1,685,855,-33.2307,-1.10708
-532,169,-49.4224,0.845581,0,0,0,0,0,0,0,-1,692,855,-49.4224,-0.845569
-525,169,-49.4657,0.881653,0.000259797,-0.00278154,0.00130677,0.000744144,-0.00326589,0.354946,0.00246307,0.0463924,699,855,-49.4657,-0.881635
-518,169,-49.5414,0.763611,0.000434906,-0.00370012,0.00124148,0.00077901,-0.00404422,0.270384,0.00298984,0.0431435,706,855,-49.5414,-0.763612
-511,169,-49.525,0.780762,0.00181614,-0.00481546,0.00122944,0.00203673,-0.00503605,0.177535,0.00420408,0.043692,713,855,-49.525,-0.780734
-504,169,-49.5118,0.902893,0.00543452,-0.00530162,-6.45506e-05,0.00543491,-0.00530201,-0.00601217,0.00619912,0.0442445,720,855,-49.5118,-0.902892
-497,169,-49.4841,0.985901,0.00986336,-0.00510996,-0.00236024,0.0102266,-0.00547319,-0.152698,0.00920172,0.0417119,727,855,-49.4841,-0.985888
-490,169,0,0,0,0,0,0,0,0,0,-1,734,855,0,0
-483,169,0,0,0,0,0,0,0,0,0,-1,741,855,0,0
-476,169,0,0,0,0,0,0,0,0,0,-1,748,855,0,0
-469,169,0,0,0,0,0,0,0,0,0,-1,755,855,0,0
-462,169,0,0,0,0,0,0,0,0,0,-1,762,855,0,0
-455,169,0,0,0,0,0,0,0,0,0,-1,769,855,0,0
-448,169,0,0,0,0,0,0,0,0,0,-1,776,855,0,0
-441,169,0,0,0,0,0,0,0,0,0,-1,783,855,0,0
-434,169,0,0,0,0,0,0,0,0,0,-1,790,855,0,0
-427,169,0,0,0,0,0,0,0,0,0,-1,797,855,0,0
-420,169,0,0,0,0,0,0,0,0,0,-1,804,855,0,0
-413,169,0,0,0,0,0,0,0,0,0,-1,811,855,0,0
-406,169,0,0,0,0,0,0,0,0,0,-1,818,855,0,0
-399,169,0,0,0,0,0,0,0,0,0,-1,825,855,0,0
-392,169,0,0,0,0,0,0,0,0,0,-1,832,855,0,0
-385,169,0,0,0,0,0,0,0,0,0,-1,839,855,0,0
-378,169,0,0,0,0,0,0,0,0,0,-1,846,855,0,0
-371,169,0,0,0,0,0,0,0,0,0,-1,853,855,0,0
-364,169,0,0,0,0,0,0,0,0,0,-1,860,855,0,0
-357,169,0,0,0,0,0,0,0,0,0,-1,867,855,0,0
-350,169,0,0,0,0,0,0,0,0,0,-1,874,855,0,0
-343,169,0,0,0,0,0,0,0,0,0,-1,881,855,0,0
-336,169,0,0,0,0,0,0,0,0,0,-1,888,855,0,0
-329,169,0,0,0,0,0,0,0,0,0,-1,895,855,0,0
-322,169,0,0,0,0,0,0,0,0,0,-1,902,855,0,0
-315,169,0,0,0,0,0,0,0,0,0,-1,909,855,0,0
-308,169,0,0,0,0,0,0,0,0,0,-1,916,855,0,0
-301,169,0,0,0,0,0,0,0,0,0,-1,923,855,0,0
-294,169,0,0,0,0,0,0,0,0,0,-1,930,855,0,0
-287,169,0,0,0,0,0,0,0,0,0,-1,937,855,0,0
-280,169,0,0,0,0,0,0,0,0,0,-1,944,855,0,0
-273,169,0,0,0,0,0,0,0,0,0,-1,951,855,0,0
-266,169,0,0,0,0,0,0,0,0,0,-1,958,855,0,0
-259,169,0,0,0,0,0,0,0,0,0,-1,965,855,0,0
-252,169,0,0,0,0,0,0,0,0,0,-1,972,855,0,0
-245,169,0,0,0,0,0,0,0,0,0,-1,979,855,0,0
-238,169,0,0,0,0,0,0,0,0,0,-1,986,855,0,0
-231,169,0,0,0,0,0,0,0,0,0,-1,993,855,0,0
-224,169,0,0,0,0,0,0,0,0,0,-1,1000,855,0,0
-217,169,0,0,0,0,0,0,0,0,0,-1,1007,855,0,0
-210,169,0,0,0,0,0,0,0,0,0,-1,1014,855,0,0
-203,169,0,0,0,0,0,0,0,0,0,-1,1021,855,0,0
-196,169,0,0,0,0,0,0,0,0,0,-1,1028,855,0,0
-189,169,0,0,0,0,0,0,0,0,0,-1,1035,855,0,0
-182,169,0,0,0,0,0,0,0,0,0,-1,1042,855,0,0
-175,169,0,0,0,0,0,0,0,0,0,-1,1049,855,0,0
-168,169,0,0,0,0,0,0,0,0,0,-1,1056,855,0,0
-161,169,0,0,0,0,0,0,0,0,0,-1,1063,855,0,0
-154,169,0,0,0,0,0,0,0,0,0,-1,1070,855,0,0
-147,169,0,0,0,0,0,0,0,0,0,-1,1077,855,0,0
-140,169,0,0,0,0,0,0,0,0,0,-1,1084,855,0,0
-133,169,0,0,0,0,0,0,0,0,0,-1,1091,855,0,0
-126,169,0,0,0,0,0,0,0,0,0,-1,1098,855,0,0
-119,169,0,0,0,0,0,0,0,0,0,-1,1105,855,0,0
-112,169,0,0,0,0,0,0,0,0,0,-1,1112,855,0,0
-105,169,0,0,0,0,0,0,0,0,0,-1,1119,855,0,0
-98,169,0,0,0,0,0,0,0,0,0,-1,1126,855,0,0
-91,169,0,0,0,0,0,0,0,0,0,-1,1133,855,0,0
-84,169,0,0,0,0,0,0,0,0,0,-1,1140,855,0,0
-77,169,0,0,0,0,0,0,0,0,0,-1,1147,855,0,0
-70,169,0,0,0,0,0,0,0,0,0,-1,1154,855,0,0
-63,169,0,0,0,0,0,0,0,0,0,-1,1161,855,0,0
-56,169,0,0,0,0,0,0,0,0,0,-1,1168,855,0,0
-49,169,0,0,0,0,0,0,0,0,0,-1,1175,855,0,0
-42,169,0,0,0,0,0,0,0,0,0,-1,1182,855,0,0
-35,169,0,0,0,0,0,0,0,0,0,-1,1189,855,0,0
-28,169,0,0,0,0,0,0,0,0,0,-1,1196,855,0,0
-21,169,0,0,0,0,0,0,0,0,0,-1,1203,855,0,0
-14,169,0,0,0,0,0,0,0,0,0,-1,1210,855,0,0
-7,169,0,0,0,0,0,0,0,0,0,-1,1217,855,0,0
0,169,0,0,0,0,0,0,0,0,0,-1,1224,855,0,0
7,169,0,0,0,0,0,0,0,0,0,-1,1231,855,0,0
14,169,0,0,0,0,0,0,0,0,0,-1,1238,855,0,0
21,169,0,0,0,0,0,0,0,0,0,-1,1245,855,0,0
28,169,0,0,0,0,0,0,0,0,0,-1,1252,855,0,0
35,169,0,0,0,0,0,0,0,0,0,-1,1259,855,0,0
42,169,0,0,0,0,0,0,0,0,0,-1,1266,855,0,0
49,169,0,0,0,0,0,0,0,0,0,-1,1273,855,0,0
56,169,0,0,0,0,0,0,0,0,0,-1,1280,855,0,0
63,169,0,0,0,0,0,0,0,0,0,-1,1287,855,0,0
70,169,0,0,0,0,0,0,0,0,0,-1,1294,855,0,0
77,169,0,0,0,0,0,0,0,0,0,-1,1301,855,0,0
84,169,0,0,0,0,0,0,0,0,0,-1,1308,855,0,0
91,169,0,0,0,0,0,0,0,0,0,-1,1315,855,0,0
98,169,0,0,0,0,0,0,0,0,0,-1,1322,855,0,0
105,169,0,0,0,0,0,0,0,0,0,-1,1329,855,0,0
112,169,0,0,0,0,0,0,0,0,0,-1,1336,855,0,0
119,169,0,0,0,0,0,0,0,0,0,-1,1343,855,0,0
126,169,0,0,0,0,0,0,0,0,0,-1,1350,855,0,0
133,169,0,0,0,0,0,0,0,0,0,-1,1357,855,0,0
140,169,0,0,0,0,0,0,0,0,0,-1,1364,855,0,0
147,169,0,0,0,0,0,0,0,0,0,-1,1371,855,0,0
154,169,0,0,0,0,0,0,0,0,0,-1,1378,855,0,0
161,169,0,0,0,0,0,0,0,0,0,-1,1385,855,0,0
168,169,0,0,0,0,0,0,0,0,0,-1,1392,855,0,0
175,169,0,0,0,0,0,0,0,0,0,-1,1399,855,0,0
182,169,0,0,0,0,0,0,0,0,0,-1,1406,855,0,0
189,169,0,0,0,0,0,0,0,0,0,-1,1413,855,0,0
196,169,0,0,0,0,0,0,0,0,0,-1,1420,855,0,0
203,169,0,0,0,0,0,0,0,0,0,-1,1427,855,0,0
210,169,0,0,0,0,0,0,0,0,0,-1,1434,855,0,0
217,169,0,0,0,0,0,0,0,0,0,-1,1441,855,0,0
224,169,0,0,0,0,0,0,0,0,0,-1,1448,855,0,0
231,169,0,0,0,0,0,0,0,0,0,-1,1455,855,0,0
238,169,0,0,0,0,0,0,0,0,0,-1,1462,855,0,0
245,169,0,0,0,0,0,0,0,0,0,-1,1469,855,0,0
252,169,0,0,0,0,0,0,0,0,0,-1,1476,855,0,0
259,169,0,0,0,0,0,0,0,0,0,-1,1483,855,0,0
266,169,0,0,0,0,0,0,0,0,0,-1,1490,855,0,0
273,169,0,0,0,0,0,0,0,0,0,-1,1497,855,0,0
280,169,0,0,0,0,0,0,0,0,0,-1,1504,855,0,0
287,169,0,0,0,0,0,0,0,0,0,-1,1511,855,0,0
294,169,0,0,0,0,0,0,0,0,0,-1,1518,855,0,0
301,169,0,0,0,0,0,0,0,0,0,-1,1525,855,0,0
308,169,0,0,0,0,0,0,0,0,0,-1,1532,855,0,0
315,169,0,0,0,0,0,0,0,0,0,-1,1539,855,0,0
322,169,0,0,0,0,0,0,0,0,0,-1,1546,855,0,0
329,169,0,0,0,0,0,0,0,0,0,-1,1553,855,0,0
336,169,0,0,0,0,0,0,0,0,0,-1,1560,855,0,0
343,169,0,0,0,0,0,0,0,0,0,-1,1567,855,0,0
350,169,0,0,0,0,0,0,0,0,0,-1,1574,855,0,0
357,169,0,0,0,0,0,0,0,0,0,-1,1581,855,0,0
364,169,0,0,0,0,0,0,0,0,0,-1,1588,855,0,0
371,169,0,0,0,0,0,0,0,0,0,-1,1595,855,0,0
378,169,0,0,0,0,0,0,0,0,0,-1,1602,855,0,0
385,169,0,0,0,0,0,0,0,0,0,-1,1609,855,0,0
392,169,0,0,0,0,0,0,0,0,0,-1,1616,855,0,0
399,169,0,0,0,0,0,0,0,0,0,-1,1623,855,0,0
406,169,0,0,0,0,0,0,0,0,0,-1,1630,855,0,0
413,169,0,0,0,0,0,0,0,0,0,-1,1637,855,0,0
420,169,0,0,0,0,0,0,0,0,0,-1,1644,855,0,0
427,169,0,0,0,0,0,0,0,0,0,-1,1651,855,0,0
434,169,0,0,0,0,0,0,0,0,0,-1,1658,855,0,0
441,169,0,0,0,0,0,0,0,0,0,-1,1665,855,0,0
448,169,0,0,0,0,0,0,0,0,0,-1,1672,855,0,0
455,169,0,0,0,0,0,0,0,0,0,-1,1679,855,0,0
462,169,0,0,0,0,0,0,0,0,0,-1,1686,855,0,0
469,169,0,0,0,0,0,0,0,0,0,-1,1693,855,0,0
476,169,0,0,0,0,0,0,0,0,0,-1,1700,855,0,0
483,169,0,0,0,0,0,0,0,0,0,-1,1707,855,0,0
490,169,0,0,0,0,0,0,0,0,0,-1,1714,855,0,0
497,169,0,0,0,0,0,0,0,0,0,-1,1721,855,0,0
504,169,0,0,0,0,0,0,0,0,0,-1,1728,855,0,0
511,169,0,0,0,0,0,0,0,0,0,-1,1735,855,0,0
518,169,0,0,0,0,0,0,0,0,0,-1,1742,855,0,0
525,169,0,0,0,0,0,0,0,0,0,-1,1749,855,0,0
532,169,0,0,0,0,0,0,0,0,0,-1,1756,855,0,0
539,169,0,0,0,0,0,0,0,0,0,-1,1763,855,0,0
546,169,0,0,0,0,0,0,0,0,0,-1,1770,855,0,0
553,169,0,0,0,0,0,0,0,0,0,-1,1777,855,0,0
560,169,0,0,0,0,0,0,0,0,0,-1,1784,855,0,0
567,169,0,0,0,0,0,0,0,0,0,-1,1791,855,0,0
574,169,0,0,0,0,0,0,0,0,0,-1,1798,855,0,0
581,169,0,0,0,0,0,0,0,0,0,-1,1805,855,0,0
588,169,0,0,0,0,0,0,0,0,0,-1,1812,855,0,0
595,169,0,0,0,0,0,0,0,0,0,-1,1819,855,0,0
602,169,0,0,0,0,0,0,0,0,0,-1,1826,855,0,0
609,169,0,0,0,0,0,0,0,0,0,-1,1833,855,0,0
616,169,64.9677,2.44769,0.00160977,-0.00801023,0.00173082,0.0019117,-0.00831216,0.172706,0.00627648,0.044138,1840,855,64.9676,-2.44769
623,169,65.1099,2.5614,0.000890963,-0.00577797,0.00152377,0.00122263,-0.00610964,0.21432,0.0045359,0.04685,1847,855,65.1099,-2.56143
630,169,65.2064,2.74927,0.000460435,-0.00373926,0.00134727,0.000855479,-0.00413431,0.285224,0.00308121,0.0405495,1854,855,65.2064,-2.74929
637,169,65.066,2.66028,-0.00010719,-0.00218464,0.00106969,0.000345119,-0.00263695,0.400042,0.00188357,0.0347795,1861,855,65.0661,-2.6603
644,169,64.9415,2.6828,-0.000711278,-0.00152277,0.000623445,-0.000373173,-0.00186087,0.496926,0.00113679,0.0345788,1868,855,64.9416,-2.68279
651,169,64.9474,2.70984,-0.00120434,-0.00116519,1.99757e-05,-0.0011568,-0.00121273,1.17303,0.000790504,0.0346042,1875,855,64.9474,-2.70981
658,169,64.9994,2.68958,-0.00151991,-0.001124,-0.000597428,-0.000692585,-0.00195132,-0.945379,0.00114229,0.0366331,1882,855,64.9994,-2.68958
665,169,65.0615,2.65497,0,0,0,0,0,0,0,-1,1889,855,65.0615,-2.65498
672,169,31.2465,2.96387,0,0,0,0,0,0,0,-1,1896,855,31.2464,-2.9639
679,169,38.4297,1.08197,0,0,0,0,0,0,0,-1,1903,855,38.4296,-1.08194
686,169,53.2582,0.682251,0,0,0,0,0,0,0,-1,1910,855,53.2582,-0.682254
693,169,53.3276,1.48749,-0.00195328,-0.000144495,-0.00178084,0.000948437,-0.00304622,-1.02035,0.00240999,0.0353617,1917,855,53.3277,-1.48749
700,169,53.3324,2.28491,-0.00173011,5.02121e-05,-0.00189723,0.00125573,-0.00293563,-1.00475,0.00248383,0.0299902,1924,855,53.3324,-2.28491
707,169,53.2074,2.9455,-0.00163761,1.12805e-05,-0.00195071,0.00130461,-0.00293094,-0.985333,0.00250477,0.0307635,1931,855,53.2075,-2.9455
714,169,52.937,3.47565,-0.00124408,0.000445803,-0.00176398,0.00155676,-0.00235504,-1.00875,0.0022741,0.0179724,1938,855,52.937,-3.47566
721,169,52.9542,4.20905,-0.000551982,0.00113476,-0.00101848,0.00161373,-0.00103095,-1.13121,0.00153921,0.0182809,1945,855,52.9542,-4.20906
728,169,52.9263,4.96411,0.000410601,0.00177005,7.36668e-05,0.00177403,0.000406621,1.51682,0.00107314,0.0154211,1952,855,52.9262,-4.96411
735,169,52.858,5.68195,0.00157633,0.00241509,0.00155781,0.00360898,0.000382434,0.916886,0.00228918,0.0211558,1959,855,52.858,-5.68195
742,169,52.8518,6.40857,0.00268291,0.00300019,0.00348094,0.00632611,-0.000643009,0.808169,0.00444726,0.0176446,1966,855,52.8518,-6.40855
749,169,52.8414,6.95074,0.00361531,0.00326188,0.00601168,0.00945287,-0.00257568,0.770705,0.00731326,0.0284994,1973,855,52.8414,-6.95075
756,169,53.0874,7.26996,0,0,0,0,0,0,0,-1,1980,855,53.0874,-7.26997
763,169,45.1978,7.5675,0,0,0,0,0,0,0,-1,1987,855,45.1977,-7.56751
770,169,37.2059,3.97021,0,0,0,0,0,0,0,-1,1994,855,37.2059,-3.97022
777,169,41.7505,8.7085,0,0,0,0,0,0,0,-1,2001,855,41.7505,-8.70852
784,169,40.7385,9.24359,0,0,0,0,0,0,0,-1,2008,855,40.7384,-9.24361
791,169,0,0,0,0,0,0,0,0,0,-1,2015,855,0,0
798,169,0,0,0,0,0,0,0,0,0,-1,2022,855,0,0
805,169,0,0,0,0,0,0,0,0,0,-1,2029,855,0,0
812,169,0,0,0,0,0,0,0,0,0,-1,2036,855,0,0
-700,162,0,0,0,0,0,0,0,0,0,-1,524,862,0,0
-693,162,0,0,0,0,0,0,0,0,0,-1,531,862,0,0
-686,162,0,0,0,0,0,0,0,0,0,-1,538,862,0,0
-679,162,0,0,0,0,0,0,0,0,0,-1,545,862,0,0
-672,162,0,0,0,0,0,0,0,0,0,-1,552,862,0,0
-665,162,-52.1964,2.17419,0,0,0,0,0,0,0,-1,559,862,-52.1964,-2.17419
-658,162,-52.8279,3.80884,0,0,0,0,0,0,0,-1,566,862,-52.8279,-3.80886
-651,162,-39.7729,8.03333,0,0,0,0,0,0,0,-1,573,862,-39.7729,-8.03331
-644,162,-39.9637,7.20471,0,0,0,0,0,0,0,-1,580,862,-39.9637,-7.20469
-637,162,-39.5001,7.00128,0,0,0,0,0,0,0,-1,587,862,-39.5001,-7.00127
-630,162,-39.4191,6.33588,0,0,0,0,0,0,0,-1,594,862,-39.4191,-6.33587
-623,162,-39.3071,5.65314,0.000654102,0.0170541,0.000910488,0.0171045,0.000603708,1.51551,0.0112072,0.0349763,601,862,-39.3071,-5.65312
-616,162,-39.2534,4.93573,-0.00270459,0.011704,0.00118527,0.0118009,-0.00280144,1.48927,0.00894845,0.0206485,608,862,-39.2533,-4.93572
-609,162,-39.3523,4.19794,-0.00341049,0.00748773,0.00178688,0.00777323,-0.00369599,1.41236,0.00675979,0.0143224,615,862,-39.3523,-4.19792
-602,162,-39.3932,3.5083,-0.00394133,0.00436967,0.00261869,0.00512596,-0.00469762,1.28964,0.00567345,0.0123105,622,862,-39.3933,-3.50831
-595,162,-39.4011,2.80072,-0.00417483,0.00241641,0.00339201,0.00385015,-0.00560856,1.17089,0.00549236,0.0111661,629,862,-39.401,-2.80073
-588,162,-39.3962,2.11926,-0.00408091,0.00158336,0.00379519,0.00348667,-0.00598422,1.10594,0.00553103,0.0139208,636,862,-39.3962,-2.11924
-581,162,-39.6405,1.44226,-0.0038445,0.00148029,0.00363659,0.00332491,-0.00568911,1.10138,0.00526358,0.037775,643,862,-39.6405,-1.44225
-574,162,-39.8108,0.774048,0,0,0,0,0,0,0,-1,650,862,-39.8108,-0.774069
-567,162,-40.0897,-0.107239,0,0,0,0,0,0,0,-1,657,862,-40.0897,0.107211
-560,162,-36.5075,-0.831665,0,0,0,0,0,0,0,-1,664,862,-36.5075,0.831657
-553,162,-35.9823,-1.60956,0,0,0,0,0,0,0,-1,671,862,-35.9823,1.60954
-546,162,-22.8181,-1.51154,0,0,0,0,0,0,0,-1,678,862,-22.8181,1.51155
-539,162,-49.3873,0.884766,0,0,0,0,0,0,0,-1,685,862,-49.3873,-0.884743
-532,162,-49.4179,0.970642,-0.00113289,-0.00204076,0.00189024,0.000357159,-0.00353081,0.667557,0.00248151,0.0485747,692,862,-49.4179,-0.970615
-525,162,-49.4754,0.917114,-0.000108476,-0.00269993,0.00155065,0.000616544,-0.00342495,0.43736,0.00251414,0.0416027,699,862,-49.4754,-0.917118
-518,162,-49.5493,0.788086,0.000291166,-0.00350106,0.00131764,0.000704038,-0.00391393,0.303652,0.00287287,0.0418169,706,862,-49.5493,-0.788112
-511,162,-49.5147,0.779663,0.00236669,-0.00417189,0.000777264,0.00245782,-0.00426301,0.116707,0.00392665,0.0466358,713,862,-49.5147,-0.779671
-504,162,-49.5195,0.835449,0.00634484,-0.00429369,-0.000951657,0.0064293,-0.00437815,-0.0885173,0.00627703,0.0451684,720,862,-49.5195,-0.835443
-497,162,-49.437,0.907166,0.0106325,-0.00423484,-0.00313088,0.011265,-0.00486726,-0.199313,0.00955496,0.0404682,727,862,-49.437,-0.907153
-490,162,0,0,0,0,0,0,0,0,0,-1,734,862,0,0
-483,162,0,0,0,0,0,0,0,0,0,-1,741,862,0,0
-476,162,0,0,0,0,0,0,0,0,0,-1,748,862,0,0
-469,162,0,0,0,0,0,0,0,0,0,-1,755,862,0,0
-462,162,0,0,0,0,0,0,0,0,0,-1,762,862,0,0
-455,162,0,0,0,0,0,0,0,0,0,-1,769,862,0,0
-448,162,0,0,0,0,0,0,0,0,0,-1,776,862,0,0
-441,162,0,0,0,0,0,0,0,0,0,-1,783,862,0,0
-434,162,0,0,0,0,0,0,0,0,0,-1,790,862,0,0
-427,162,0,0,0,0,0,0,0,0,0,-1,797,862,0,0
-420,162,0,0,0,0,0,0,0,0,0,-1,804,862,0,0
-413,162,0,0,0,0,0,0,0,0,0,-1,811,862,0,0
-406,162,0,0,0,0,0,0,0,0,0,-1,818,862,0,0
-399,162,0,0,0,0,0,0,0,0,0,-1,825,862,0,0
-392,162,0,0,0,0,0,0,0,0,0,-1,832,862,0,0
-385,162,0,0,0,0,0,0,0,0,0,-1,839,862,0,0
-378,162,0,0,0,0,0,0,0,0,0,-1,846,862,0,0
-371,162,0,0,0,0,0,0,0,0,0,-1,853,862,0,0
-364,162,0,0,0,0,0,0,0,0,0,-1,860,862,0,0
-357,162,0,0,0,0,0,0,0,0,0,-1,867,862,0,0
-350,162,0,0,0,0,0,0,0,0,0,-1,874,862,0,0
-343,162,0,0,0,0,0,0,0,0,0,-1,881,862,0,0
-336,162,0,0,0,0,0,0,0,0,0,-1,888,862,0,0
-329,162,0,0,0,0,0,0,0,0,0,-1,895,862,0,0
-322,162,0,0,0,0,0,0,0,0,0,-1,902,862,0,0
-315,162,0,0,0,0,0,0,0,0,0,-1,909,862,0,0
-308,162,0,0,0,0,0,0,0,0,0,-1,916,862,0,0
-301,162,0,0,0,0,0,0,0,0,0,-1,923,862,0,0
-294,162,0,0,0,0,0,0,0,0,0,-1,930,862,0,0
-287,162,0,0,0,0,0,0,0,0,0,-1,937,862,0,0
-280,162,0,0,0,0,0,0,0,0,0,-1,944,862,0,0
-273,162,0,0,0,0,0,0,0,0,0,-1,951,862,0,0
-266,162,0,0,0,0,0,0,0,0,0,-1,958,862,0,0
-259,162,0,0,0,0,0,0,0,0,0,-1,965,862,0,0
-252,162,0,0,0,0,0,0,0,0,0,-1,972,862,0,0
-245,162,0,0,0,0,0,0,0,0,0,-1,979,862,0,0
-238,162,0,0,0,0,0,0,0,0,0,-1,986,862,0,0
-231,162,0,0,0,0,0,0,0,0,0,-1,993,862,0,0
-224,162,0,0,0,0,0,0,0,0,0,-1,1000,862,0,0
-217,162,0,0,0,0,0,0,0,0,0,-1,1007,862,0,0
-210,162,0,0,0,0,0,0,0,0,0,-1,1014,862,0,0
-203,162,0,0,0,0,0,0,0,0,0,-1,1021,862,0,0
-196,162,0,0,0,0,0,0,0,0,0,-1,1028,862,0,0
-189,162,0,0,0,0,0,0,0,0,0,-1,1035,862,0,0
-182,162,0,0,0,0,0,0,0,0,0,-1,1042,862,0,0
-175,162,0,0,0,0,0,0,0,0,0,-1,1049,862,0,0
-168,162,0,0,0,0,0,0,0,0,0,-1,1056,862,0,0
-161,162,0,0,0,0,0,0,0,0,0,-1,1063,862,0,0
-154,162,0,0,0,0,0,0,0,0,0,-1,1070,862,0,0
-147,162,0,0,0,0,0,0,0,0,0,-1,1077,862,0,0
-140,162,0,0,0,0,0,0,0,0,0,-1,1084,862,0,0
-133,162,0,0,0,0,0,0,0,0,0,-1,1091,862,0,0
-126,162,0,0,0,0,0,0,0,0,0,-1,1098,862,0,0
-119,162,0,0,0,0,0,0,0,0,0,-1,1105,862,0,0
-112,162,0,0,0,0,0,0,0,0,0,-1,1112,862,0,0
-105,162,0,0,0,0,0,0,0,0,0,-1,1119,862,0,0
-98,162,0,0,0,0,0,0,0,0,0,-1,1126,862,0,0
-91,162,0,0,0,0,0,0,0,0,0,-1,1133,862,0,0
-84,162,0,0,0,0,0,0,0,0,0,-1,1140,862,0,0
-77,162,0,0,0,0,0,0,0,0,0,-1,1147,862,0,0
-70,162,0,0,0,0,0,0,0,0,0,-1,1154,862,0,0
-63,162,0,0,0,0,0,0,0,0,0,-1,1161,862,0,0
-56,162,0,0,0,0,0,0,0,0,0,-1,1168,862,0,0
-49,162,0,0,0,0,0,0,0,0,0,-1,1175,862,0,0
-42,162,0,0,0,0,0,0,0,0,0,-1,1182,862,0,0
-35,162,0,0,0,0,0,0,0,0,0,-1,1189,862,0,0
-28,162,0,0,0,0,0,0,0,0,0,-1,1196,862,0,0
-21,162,0,0,0,0,0,0,0,0,0,-1,1203,862,0,0
-14,162,0,0,0,0,0,0,0,0,0,-1,1210,862,0,0
-7,162,0,0,0,0,0,0,0,0,0,-1,1217,862,0,0
0,162,0,0,0,0,0,0,0,0,0,-1,1224,862,0,0
7,162,0,0,0,0,0,0,0,0,0,-1,1231,862,0,0
14,162,0,0,0,0,0,0,0,0,0,-1,1238,862,0,0
21,162,0,0,0,0,0,0,0,0,0,-1,1245,862,0,0
28,162,0,0,0,0,0,0,0,0,0,-1,1252,862,0,0
35,162,0,0,0,0,0,0,0,0,0,-1,1259,862,0,0
42,162,0,0,0,0,0,0,0,0,0,-1,1266,862,0,0
49,162,0,0,0,0,0,0,0,0,0,-1,1273,862,0,0
56,162,0,0,0,0,0,0,0,0,0,-1,1280,862,0,0
63,162,0,0,0,0,0,0,0,0,0,-1,1287,862,0,0
70,162,0,0,0,0,0,0,0,0,0,-1,1294,862,0,0
77,162,0,0,0,0,0,0,0,0,0,-1,1301,862,0,0
84,162,0,0,0,0,0,0,0,0,0,-1,1308,862,0,0
91,162,0,0,0,0,0,0,0,0,0,-1,1315,862,0,0
98,162,0,0,0,0,0,0,0,0,0,-1,1322,862,0,0
105,162,0,0,0,0,0,0,0,0,0,-1,1329,862,0,0
112,162,0,0,0,0,0,0,0,0,0,-1,1336,862,0,0
119,162,0,0,0,0,0,0,0,0,0,-1,1343,862,0,0
126,162,0,0,0,0,0,0,0,0,0,-1,1350,862,0,0
133,162,0,0,0,0,0,0,0,0,0,-1,1357,862,0,0
140,162,0,0,0,0,0,0,0,0,0,-1,1364,862,0,0
147,162,0,0,0,0,0,0,0,0,0,-1,1371,862,0,0
154,162,0,0,0,0,0,0,0,0,0,-1,1378,862,0,0
161,162,0,0,0,0,0,0,0,0,0,-1,1385,862,0,0
168,162,0,0,0,0,0,0,0,0,0,-1,1392,862,0,0
175,162,0,0,0,0,0,0,0,0,0,-1,1399,862,0,0
182,162,0,0,0,0,0,0,0,0,0,-1,1406,862,0,0
189,162,0,0,0,0,0,0,0,0,0,-1,1413,862,0,0
196,162,0,0,0,0,0,0,0,0,0,-1,1420,862,0,0
203,162,0,0,0,0,0,0,0,0,0,-1,1427,862,0,0
210,162,0,0,0,0,0,0,0,0,0,-1,1434,862,0,0
217,162,0,0,0,0,0,0,0,0,0,-1,1441,862,0,0
224,162,0,0,0,0,0,0,0,0,0,-1,1448,862,0,0
231,162,0,0,0,0,0,0,0,0,0,-1,1455,862,0,0
238,162,0,0,0,0,0,0,0,0,0,-1,1462,862,0,0
245,162,0,0,0,0,0,0,0,0,0,-1,1469,862,0,0
252,162,0,0,0,0,0,0,0,0,0,-1,1476,862,0,0
259,162,0,0,0,0,0,0,0,0,0,-1,1483,862,0,0
266,162,0,0,0,0,0,0,0,0,0,-1,1490,862,0,0
273,162,0,0,0,0,0,0,0,0,0,-1,1497,862,0,0
280,162,0,0,0,0,0,0,0,0,0,-1,1504,862,0,0
287,162,0,0,0,0,0,0,0,0,0,-1,1511,862,0,0
294,162,0,0,0,0,0,0,0,0,0,-1,1518,862,0,0
301,162,0,0,0,0,0,0,0,0,0,-1,1525,862,0,0
308,162,0,0,0,0,0,0,0,0,0,-1,1532,862,0,0
315,162,0,0,0,0,0,0,0,0,0,-1,1539,862,0,0
322,162,0,0,0,0,0,0,0,0,0,-1,1546,862,0,0
329,162,0,0,0,0,0,0,0,0,0,-1,1553,862,0,0
336,162,0,0,0,0,0,0,0,0,0,-1,1560,862,0,0
343,162,0,0,0,0,0,0,0,0,0,-1,1567,862,0,0
350,162,0,0,0,0,0,0,0,0,0,-1,1574,862,0,0
357,162,0,0,0,0,0,0,0,0,0,-1,1581,862,0,0
364,162,0,0,0,0,0,0,0,0,0,-1,1588,862,0,0
371,162,0,0,0,0,0,0,0,0,0,-1,1595,862,0,0
378,162,0,0,0,0,0,0,0,0,0,-1,1602,862,0,0
385,162,0,0,0,0,0,0,0,0,0,-1,1609,862,0,0
392,162,0,0,0,0,0,0,0,0,0,-1,1616,862,0,0
399,162,0,0,0,0,0,0,0,0,0,-1,1623,862,0,0
406,162,0,0,0,0,0,0,0,0,0,-1,1630,862,0,0
413,162,0,0,0,0,0,0,0,0,0,-1,1637,862,0,0
420,162,0,0,0,0,0,0,0,0,0,-1,1644,862,0,0
427,162,0,0,0,0,0,0,0,0,0,-1,1651,862,0,0
434,162,0,0,0,0,0,0,0,0,0,-1,1658,862,0,0
441,162,0,0,0,0,0,0,0,0,0,-1,1665,862,0,0
448,162,0,0,0,0,0,0,0,0,0,-1,1672,862,0,0
455,162,0,0,0,0,0,0,0,0,0,-1,1679,862,0,0
462,162,0,0,0,0,0,0,0,0,0,-1,1686,862,0,0
469,162,0,0,0,0,0,0,0,0,0,-1,1693,862,0,0
476,162,0,0,0,0,0,0,0,0,0,-1,1700,862,0,0
483,162,0,0,0,0,0,0,0,0,0,-1,1707,862,0,0
490,162,0,0,0,0,0,0,0,0,0,-1,1714,862,0,0
497,162,0,0,0,0,0,0,0,0,0,-1,1721,862,0,0
504,162,0,0,0,0,0,0,0,0,0,-1,1728,862,0,0
511,162,0,0,0,0,0,0,0,0,0,-1,1735,862,0,0
518,162,0,0,0,0,0,0,0,0,0,-1,1742,862,0,0
525,162,0,0,0,0,0,0,0,0,0,-1,1749,862,0,0
532,162,0,0,0,0,0,0,0,0,0,-1,1756,862,0,0
539,162,0,0,0,0,0,0,0,0,0,-1,1763,862,0,0
546,162,0,0,0,0,0,0,0,0,0,-1,1770,862,0,0
553,162,0,0,0,0,0,0,0,0,0,-1,1777,862,0,0
560,162,0,0,0,0,0,0,0,0,0,-1,1784,862,0,0
567,162,0,0,0,0,0,0,0,0,0,-1,1791,862,0,0
574,162,0,0,0,0,0,0,0,0,0,-1,1798,862,0,0
581,162,0,0,0,0,0,0,0,0,0,-1,1805,862,0,0
588,162,0,0,0,0,0,0,0,0,0,-1,1812,862,0,0
595,162,0,0,0,0,0,0,0,0,0,-1,1819,862,0,0
602,162,0,0,0,0,0,0,0,0,0,-1,1826,862,0,0
609,162,0,0,0,0,0,0,0,0,0,-1,1833,862,0,0
616,162,64.8335,2.95056,0.00157569,-0.00880389,0.00149674,0.00178721,-0.00901541,0.140391,0.00668611,0.0437524,1840,862,64.8335,-2.95056
623,162,64.9312,2.92078,0.000577429,-0.00645096,0.00133259,0.000821606,-0.00669513,0.181225,0.00476098,0.0466394,1847,862,64.9311,-2.92076
630,162,65.0013,2.79474,1.87919e-05,-0.00441219,0.00116267,0.000305339,-0.00469873,0.241641,0.00323907,0.0436316,1854,862,65.0013,-2.79477
637,162,64.9697,2.66223,-0.000451907,-0.00268402,0.000986416,-7.84666e-05,-0.00305746,0.361908,0.00201266,0.0416412,1861,862,64.9698,-2.66222
644,162,64.9258,2.65186,-0.000915675,-0.00176071,0.000632288,-0.000577727,-0.00209866,0.490853,0.00125179,0.0381687,1868,862,64.9258,-2.65187
651,162,64.9401,2.78156,-0.00132041,-0.00123137,7.09017e-05,-0.00119217,-0.00135961,1.06574,0.00085607,0.0322168,1875,862,64.9401,-2.78156
658,162,65.0099,2.70648,-0.00153199,-0.00112617,-0.000515026,-0.000775521,-0.00188264,-0.973054,0.00109255,0.0321784,1882,862,65.0099,-2.70647
665,162,65.0537,2.57904,0,0,0,0,0,0,0,-1,1889,862,65.0537,-2.57907
672,162,56.9712,3.04034,0,0,0,0,0,0,0,-1,1896,862,56.9711,-3.04034
679,162,26.5077,2.54785,0,0,0,0,0,0,0,-1,1903,862,26.5077,-2.54787
686,162,53.6357,0.578308,0,0,0,0,0,0,0,-1,1910,862,53.6357,-0.578324
693,162,54.0768,1.58728,-0.00168067,-3.54571e-05,-0.00167027,0.00100378,-0.00271991,-1.01421,0.00222468,0.0412099,1917,862,54.0768,-1.5873
700,162,54.0702,2.25842,-0.00140641,0.000266286,-0.00179981,0.00141458,-0.0025547,-1.0029,0.00232296,0.0368192,1924,862,54.0702,-2.25843
707,162,53.9059,2.9212,-0.00131569,0.000230618,-0.0019209,0.00152812,-0.00261319,-0.976726,0.00241819,0.0259179,1931,862,53.9059,-2.9212
714,162,53.6967,3.48822,-0.00102524,0.000567824,-0.00187055,0.00180437,-0.00226179,-0.986685,0.00235254,0.0295402,1938,862,53.6967,-3.48822
721,162,53.5797,4.30414,-0.000616286,0.00113305,-0.00134159,0.00185992,-0.00134315,-1.07428,0.0018573,0.0312067,1945,862,53.5798,-4.30413
728,162,53.5728,5.00592,-8.30543e-05,0.00157491,-0.000464576,0.00169621,-0.000204357,-1.31539,0.00120472,0.0259052,1952,862,53.5727,-5.0059
735,162,53.5928,5.69232,0.000608782,0.00199251,0.000802375,0.00236012,0.000241174,1.14118,0.0014995,0.012754,1959,862,53.5928,-5.69229
742,162,53.5593,6.40552,0.0012802,0.00239949,0.00255187,0.00445236,-0.000772675,0.893343,0.0032565,0.0139726,1966,862,53.5593,-6.40555
749,162,53.463,7.0766,0.0017448,0.00254392,0.00485607,0.00701683,-0.00272812,0.826446,0.00580503,0.0197251,1973,862,53.463,-7.07659
756,162,53.3351,7.53198,0.001865,0.00254034,0.00780391,0.0100139,-0.00560853,0.807019,0.00913836,0.0418753,1980,862,53.3351,-7.53197
763,162,54.3248,8.51105,0,0,0,0,0,0,0,-1,1987,862,54.3248,-8.51108
770,162,54.8257,9.36987,0,0,0,0,0,0,0,-1,1994,862,54.8256,-9.36988
777,162,54.9807,10.2266,0,0,0,0,0,0,0,-1,2001,862,54.9806,-10.2265
784,162,55.02,11.0949,0,0,0,0,0,0,0,-1,2008,862,55.0201,-11.0949
791,162,0,0,0,0,0,0,0,0,0,-1,2015,862,0,0
798,162,0,0,0,0,0,0,0,0,0,-1,2022,862,0,0
805,162,0,0,0,0,0,0,0,0,0,-1,2029,862,0,0
812,162,0,0,0,0,0,0,0,0,0,-1,2036,862,0,0
-700,155,0,0,0,0,0,0,0,0,0,-1,524,869,0,0
-693,155,0,0,0,0,0,0,0,0,0,-1,531,869,0,0
-686,155,0,0,0,0,0,0,0,0,0,-1,538,869,0,0
-679,155,0,0,0,0,0,0,0,0,0,-1,545,869,0,0
-672,155,0,0,0,0,0,0,0,0,0,-1,552,869,0,0
-665,155,-51.1902,2.93958,0,0,0,0,0,0,0,-1,559,869,-51.1902,-2.93958
-658,155,-51.6432,4.54553,0,0,0,0,0,0,0,-1,566,869,-51.6433,-4.54556
-651,155,-51.9577,6.39008,0,0,0,0,0,0,0,-1,573,869,-51.9577,-6.39007
-644,155,-40.8439,6.52985,0,0,0,0,0,0,0,-1,580,869,-40.8439,-6.52987
-637,155,-38.9388,6.71613,0,0,0,0,0,0,0,-1,587,869,-38.9388,-6.71612
-630,155,-39.9843,6.25732,0,0,0,0,0,0,0,-1,594,869,-39.9843,-6.25733
-623,155,-39.9193,5.65015,3.11345e-05,0.01549,0.000715704,0.0155231,-1.93017e-06,1.52463,0.0103494,0.0296894,601,869,-39.9193,-5.65015
-616,155,-39.9555,4.95764,-0.00378215,0.0106738,0.00120006,0.0107728,-0.0038811,1.48853,0.00876676,0.0161471,608,869,-39.9555,-4.95766
-609,155,-40.0646,4.19958,-0.0042811,0.00675163,0.00205965,0.00712359,-0.00465306,1.39213,0.00684895,0.014835,615,869,-40.0646,-4.19962
-602,155,-40.1048,3.54633,-0.00472896,0.00386293,0.00308796,0.00485761,-0.00572364,1.25918,0.0061159,0.0139735,622,869,-40.1048,-3.54634
-595,155,-40.147,2.85968,-0.00484668,0.00224882,0.00380975,0.00390691,-0.00650477,1.1603,0.00607324,0.0126254,629,869,-40.147,-2.85968
-588,155,-40.1412,2.20789,-0.00456882,0.00173571,0.0040029,0.00367854,-0.00651165,1.11893,0.00595862,0.0204583,636,869,-40.1412,-2.20787
-581,155,-40.425,1.69678,-0.00429386,0.00174738,0.00376659,0.00355494,-0.00610142,1.12336,0.00563936,0.0412558,643,869,-40.425,-1.6968
-574,155,-40.694,1.2879,0,0,0,0,0,0,0,-1,650,869,-40.694,-1.2879
-567,155,-38.0134,0.582214,0,0,0,0,0,0,0,-1,657,869,-38.0134,-0.582192
-560,155,-37.1416,-0.708008,0,0,0,0,0,0,0,-1,664,869,-37.1416,0.70801
-553,155,-36.7729,-1.71521,0,0,0,0,0,0,0,-1,671,869,-36.7729,1.71523
-546,155,-22.7988,0.873657,0,0,0,0,0,0,0,-1,678,869,-22.7988,-0.873645
-539,155,-49.4669,0.87262,0,0,0,0,0,0,0,-1,685,869,-49.4668,-0.872635
-532,155,-49.4011,1.00183,-0.00171083,-0.00149084,0.00193786,0.000340143,-0.00354181,0.813747,0.00248237,0.0388907,692,869,-49.4011,-1.00181
-525,155,-49.4167,0.993164,-0.00054736,-0.0022111,0.00146726,0.000307443,-0.0030659,0.527515,0.00215374,0.0393736,699,869,-49.4167,-0.993188
-518,155,-49.4971,0.970215,0.000369994,-0.0029241,0.00111044,0.000709358,-0.00326346,0.296599,0.00244662,0.0420869,706,869,-49.4971,-0.970196
-511,155,-49.5867,0.923279,0.00302045,-0.0033037,0.000397543,0.00304534,-0.00332859,0.062533,0.0036812,0.0448617,713,869,-49.5867,-0.923296
-504,155,-49.5117,1.01318,0.00679949,-0.00335493,-0.0010816,0.00691342,-0.00346886,-0.104947,0.00610319,0.0432652,720,869,-49.5117,-1.01319
-497,155,0,0,0,0,0,0,0,0,0,-1,727,869,0,0
-490,155,0,0,0,0,0,0,0,0,0,-1,734,869,0,0
-483,155,0,0,0,0,0,0,0,0,0,-1,741,869,0,0
-476,155,0,0,0,0,0,0,0,0,0,-1,748,869,0,0
-469,155,0,0,0,0,0,0,0,0,0,-1,755,869,0,0
-462,155,0,0,0,0,0,0,0,0,0,-1,762,869,0,0
-455,155,0,0,0,0,0,0,0,0,0,-1,769,869,0,0
-448,155,0,0,0,0,0,0,0,0,0,-1,776,869,0,0
-441,155,0,0,0,0,0,0,0,0,0,-1,783,869,0,0
-434,155,0,0,0,0,0,0,0,0,0,-1,790,869,0,0
-427,155,0,0,0,0,0,0,0,0,0,-1,797,869,0,0
-420,155,0,0,0,0,0,0,0,0,0,-1,804,869,0,0
-413,155,0,0,0,0,0,0,0,0,0,-1,811,869,0,0
-406,155,0,0,0,0,0,0,0,0,0,-1,818,869,0,0
-399,155,0,0,0,0,0,0,0,0,0,-1,825,869,0,0
-392,155,0,0,0,0,0,0,0,0,0,-1,832,869,0,0
-385,155,0,0,0,0,0,0,0,0,0,-1,839,869,0,0
-378,155,0,0,0,0,0,0,0,0,0,-1,846,869,0,0
-371,155,0,0,0,0,0,0,0,0,0,-1,853,869,0,0
-364,155,0,0,0,0,0,0,0,0,0,-1,860,869,0,0
-357,155,0,0,0,0,0,0,0,0,0,-1,867,869,0,0
-350,155,0,0,0,0,0,0,0,0,0,-1,874,869,0,0
-343,155,0,0,0,0,0,0,0,0,0,-1,881,869,0,0
-336,155,0,0,0,0,0,0,0,0,0,-1,888,869,0,0
-329,155,0,0,0,0,0,0,0,0,0,-1,895,869,0,0
-322,155,0,0,0,0,0,0,0,0,0,-1,902,869,0,0
-315,155,0,0,0,0,0,0,0,0,0,-1,909,869,0,0
-308,155,0,0,0,0,0,0,0,0,0,-1,916,869,0,0
-301,155,0,0,0,0,0,0,0,0,0,-1,923,869,0,0
-294,155,0,0,0,0,0,0,0,0,0,-1,930,869,0,0
-287,155,0,0,0,0,0,0,0,0,0,-1,937,869,0,0
-280,155,0,0,0,0,0,0,0,0,0,-1,944,869,0,0
-273,155,0,0,0,0,0,0,0,0,0,-1,951,869,0,0
-266,155,0,0,0,0,0,0,0,0,0,-1,958,869,0,0
-259,155,0,0,0,0,0,0,0,0,0,-1,965,869,0,0
-252,155,0,0,0,0,0,0,0,0,0,-1,972,869,0,0
-245,155,0,0,0,0,0,0,0,0,0,-1,979,869,0,0
-238,155,0,0,0,0,0,0,0,0,0,-1,986,869,0,0
-231,155,0,0,0,0,0,0,0,0,0,-1,993,869,0,0
-224,155,0,0,0,0,0,0,0,0,0,-1,1000,869,0,0
-217,155,0,0,0,0,0,0,0,0,0,-1,1007,869,0,0
-210,155,0,0,0,0,0,0,0,0,0,-1,1014,869,0,0
-203,155,0,0,0,0,0,0,0,0,0,-1,1021,869,0,0
-196,155,0,0,0,0,0,0,0,0,0,-1,1028,869,0,0
-189,155,0,0,0,0,0,0,0,0,0,-1,1035,869,0,0
-182,155,0,0,0,0,0,0,0,0,0,-1,1042,869,0,0
-175,155,0,0,0,0,0,0,0,0,0,-1,1049,869,0,0
-168,155,0,0,0,0,0,0,0,0,0,-1,1056,869,0,0
-161,155,0,0,0,0,0,0,0,0,0,-1,1063,869,0,0
-154,155,0,0,0,0,0,0,0,0,0,-1,1070,869,0,0
-147,155,0,0,0,0,0,0,0,0,0,-1,1077,869,0,0
-140,155,0,0,0,0,0,0,0,0,0,-1,1084,869,0,0
-133,155,0,0,0,0,0,0,0,0,0,-1,1091,869,0,0
-126,155,0,0,0,0,0,0,0,0,0,-1,1098,869,0,0
-119,155,0,0,0,0,0,0,0,0,0,-1,1105,869,0,0
-112,155,0,0,0,0,0,0,0,0,0,-1,1112,869,0,0
-105,155,0,0,0,0,0,0,0,0,0,-1,1119,869,0,0
-98,155,0,0,0,0,0,0,0,0,0,-1,1126,869,0,0
-91,155,0,0,0,0,0,0,0,0,0,-1,1133,869,0,0
-84,155,0,0,0,0,0,0,0,0,0,-1,1140,869,0,0
-77,155,0,0,0,0,0,0,0,0,0,-1,1147,869,0,0
-70,155,0,0,0,0,0,0,0,0,0,-1,1154,869,0,0
-63,155,0,0,0,0,0,0,0,0,0,-1,1161,869,0,0
-56,155,0,0,0,0,0,0,0,0,0,-1,1168,869,0,0
-49,155,0,0,0,0,0,0,0,0,0,-1,1175,869,0,0
-42,155,0,0,0,0,0,0,0,0,0,-1,1182,869,0,0
-35,155,0,0,0,0,0,0,0,0,0,-1,1189,869,0,0
-28,155,0,0,0,0,0,0,0,0,0,-1,1196,869,0,0
-21,155,0,0,0,0,0,0,0,0,0,-1,1203,869,0,0
-14,155,0,0,0,0,0,0,0,0,0,-1,1210,869,0,0
-7,155,0,0,0,0,0,0,0,0,0,-1,1217,869,0,0
0,155,0,0,0,0,0,0,0,0,0,-1,1224,869,0,0
7,155,0,0,0,0,0,0,0,0,0,-1,1231,869,0,0
14,155,0,0,0,0,0,0,0,0,0,-1,1238,869,0,0
21,155,0,0,0,0,0,0,0,0,0,-1,1245,869,0,0
28,155,0,0,0,0,0,0,0,0,0,-1,1252,869,0,0
35,155,0,0,0,0,0,0,0,0,0,-1,1259,869,0,0
42,155,0,0,0,0,0,0,0,0,0,-1,1266,869,0,0
49,155,0,0,0,0,0,0,0,0,0,-1,1273,869,0,0
56,155,0,0,0,0,0,0,0,0,0,-1,1280,869,0,0
63,155,0,0,0,0,0,0,0,0,0,-1,1287,869,0,0
70,155,0,0,0,0,0,0,0,0,0,-1,1294,869,0,0
77,155,0,0,0,0,0,0,0,0,0,-1,1301,869,0,0
84,155,0,0,0,0,0,0,0,0,0,-1,1308,869,0,0
91,155,0,0,0,0,0,0,0,0,0,-1,1315,869,0,0
98,155,0,0,0,0,0,0,0,0,0,-1,1322,869,0,0
105,155,0,0,0,0,0,0,0,0,0,-1,1329,869,0,0
112,155,0,0,0,0,0,0,0,0,0,-1,1336,869,0,0
119,155,0,0,0,0,0,0,0,0,0,-1,1343,869,0,0
126,155,0,0,0,0,0,0,0,0,0,-1,1350,869,0,0
133,155,0,0,0,0,0,0,0,0,0,-1,1357,869,0,0
140,155,0,0,0,0,0,0,0,0,0,-1,1364,869,0,0
147,155,0,0,0,0,0,0,0,0,0,-1,1371,869,0,0
154,155,0,0,0,0,0,0,0,0,0,-1,1378,869,0,0
161,155,0,0,0,0,0,0,0,0,0,-1,1385,869,0,0
168,155,0,0,0,0,0,0,0,0,0,-1,1392,869,0,0
175,155,0,0,0,0,0,0,0,0,0,-1,1399,869,0,0
182,155,0,0,0,0,0,0,0,0,0,-1,1406,869,0,0
189,155,0,0,0,0,0,0,0,0,0,-1,1413,869,0,0
196,155,0,0,0,0,0,0,0,0,0,-1,1420,869,0,0
203,155,0,0,0,0,0,0,0,0,0,-1,1427,869,0,0
210,155,0,0,0,0,0,0,0,0,0,-1,1434,869,0,0
217,155,0,0,0,0,0,0,0,0,0,-1,1441,869,0,0
224,155,0,0,0,0,0,0,0,0,0,-1,1448,869,0,0
231,155,0,0,0,0,0,0,0,0,0,-1,1455,869,0,0
238,155,0,0,0,0,0,0,0,0,0,-1,1462,869,0,0
245,155,0,0,0,0,0,0,0,0,0,-1,1469,869,0,0
252,155,0,0,0,0,0,0,0,0,0,-1,1476,869,0,0
259,155,0,0,0,0,0,0,0,0,0,-1,1483,869,0,0
266,155,0,0,0,0,0,0,0,0,0,-1,1490,869,0,0
273,155,0,0,0,0,0,0,0,0,0,-1,1497,869,0,0
280,155,0,0,0,0,0,0,0,0,0,-1,1504,869,0,0
287,155,0,0,0,0,0,0,0,0,0,-1,1511,869,0,0
294,155,0,0,0,0,0,0,0,0,0,-1,1518,869,0,0
301,155,0,0,0,0,0,0,0,0,0,-1,1525,869,0,0
308,155,0,0,0,0,0,0,0,0,0,-1,1532,869,0,0
315,155,0,0,0,0,0,0,0,0,0,-1,1539,869,0,0
322,155,0,0,0,0,0,0,0,0,0,-1,1546,869,0,0
329,155,0,0,0,0,0,0,0,0,0,-1,1553,869,0,0
336,155,0,0,0,0,0,0,0,0,0,-1,1560,869,0,0
343,155,0,0,0,0,0,0,0,0,0,-1,1567,869,0,0
350,155,0,0,0,0,0,0,0,0,0,-1,1574,869,0,0
357,155,0,0,0,0,0,0,0,0,0,-1,1581,869,0,0
364,155,0,0,0,0,0,0,0,0,0,-1,1588,869,0,0
371,155,0,0,0,0,0,0,0,0,0,-1,1595,869,0,0
378,155,0,0,0,0,0,0,0,0,0,-1,1602,869,0,0
385,155,0,0,0,0,0,0,0,0,0,-1,1609,869,0,0
392,155,0,0,0,0,0,0,0,0,0,-1,1616,869,0,0
399,155,0,0,0,0,0,0,0,0,0,-1,1623,869,0,0
406,155,0,0,0,0,0,0,0,0,0,-1,1630,869,0,0
413,155,0,0,0,0,0,0,0,0,0,-1,1637,869,0,0
420,155,0,0,0,0,0,0,0,0,0,-1,1644,869,0,0
427,155,0,0,0,0,0,0,0,0,0,-1,1651,869,0,0
434,155,0,0,0,0,0,0,0,0,0,-1,1658,869,0,0
441,155,0,0,0,0,0,0,0,0,0,-1,1665,869,0,0
448,155,0,0,0,0,0,0,0,0,0,-1,1672,869,0,0
455,155,0,0,0,0,0,0,0,0,0,-1,1679,869,0,0
462,155,0,0,0,0,0,0,0,0,0,-1,1686,869,0,0
469,155,0,0,0,0,0,0,0,0,0,-1,1693,869,0,0
476,155,0,0,0,0,0,0,0,0,0,-1,1700,869,0,0
483,155,0,0,0,0,0,0,0,0,0,-1,1707,869,0,0
490,155,0,0,0,0,0,0,0,0,0,-1,1714,869,0,0
497,155,0,0,0,0,0,0,0,0,0,-1,1721,869,0,0
504,155,0,0,0,0,0,0,0,0,0,-1,1728,869,0,0
511,155,0,0,0,0,0,0,0,0,0,-1,1735,869,0,0
518,155,0,0,0,0,0,0,0,0,0,-1,1742,869,0,0
525,155,0,0,0,0,0,0,0,0,0,-1,1749,869,0,0
532,155,0,0,0,0,0,0,0,0,0,-1,1756,869,0,0
539,155,0,0,0,0,0,0,0,0,0,-1,1763,869,0,0
546,155,0,0,0,0,0,0,0,0,0,-1,1770,869,0,0
553,155,0,0,0,0,0,0,0,0,0,-1,1777,869,0,0
560,155,0,0,0,0,0,0,0,0,0,-1,1784,869,0,0
567,155,0,0,0,0,0,0,0,0,0,-1,1791,869,0,0
574,155,0,0,0,0,0,0,0,0,0,-1,1798,869,0,0
581,155,0,0,0,0,0,0,0,0,0,-1,1805,869,0,0
588,155,0,0,0,0,0,0,0,0,0,-1,1812,869,0,0
595,155,0,0,0,0,0,0,0,0,0,-1,1819,869,0,0
602,155,0,0,0,0,0,0,0,0,0,-1,1826,869,0,0
609,155,0,0,0,0,0,0,0,0,0,-1,1833,869,0,0
616,155,65.0177,2.95184,0.00142643,-0.00919073,0.00102684,0.00152483,-0.00928913,0.0955353,0.00675861,0.0442057,1840,869,65.0178,-2.95183
623,155,64.9553,2.90015,0.000152186,-0.00672135,0.00100083,0.000294947,-0.00686411,0.141688,0.00467749,0.0443623,1847,869,64.9553,-2.90015
630,155,64.9604,2.84967,-0.000580835,-0.00472384,0.000891588,-0.00039711,-0.00490757,0.20322,0.0031477,0.0460814,1854,869,64.9605,-2.84967
637,155,64.8971,2.74567,-0.000944093,-0.00294686,0.000807567,-0.000659034,-0.00323192,0.339331,0.00197199,0.0439056,1861,869,64.897,-2.74565
644,155,64.8883,2.64758,-0.00119972,-0.00182696,0.000558853,-0.000872499,-0.00215418,0.529704,0.00125117,0.0372066,1868,869,64.8883,-2.64761
651,155,64.9547,2.67456,-0.00143713,-0.00112784,7.90835e-05,-0.00110879,-0.00145617,1.33443,0.000878198,0.031051,1875,869,64.9547,-2.67456
658,155,64.9879,2.65076,-0.0014761,-0.000931262,-0.000440885,-0.000685423,-0.00172194,-1.06214,0.00100103,0.0259218,1882,869,64.9879,-2.65078
665,155,64.9753,2.60553,-0.00175453,-0.000440516,-0.000749443,-0.000100867,-0.00209417,-1.14528,0.00136374,0.0326498,1889,869,64.9754,-2.60553
672,155,64.8982,2.56976,0,0,0,0,0,0,0,-1,1896,869,64.8981,-2.56976
679,155,35.1565,2.78528,0,0,0,0,0,0,0,-1,1903,869,35.1565,-2.7853
686,155,43.6101,1.63361,0,0,0,0,0,0,0,-1,1910,869,43.6101,-1.63362
693,155,54.941,1.71564,0,0,0,0,0,0,0,-1,1917,869,54.9411,-1.71563
700,155,54.6808,2.20862,0,0,0,0,0,0,0,-1,1924,869,54.6808,-2.20864
707,155,54.7681,3.08984,0,0,0,0,0,0,0,-1,1931,869,54.7681,-3.08987
714,155,54.2489,3.61853,0,0,0,0,0,0,0,-1,1938,869,54.2489,-3.61854
721,155,54.3702,4.33948,-0.000607925,0.00141707,-0.00149918,0.00221363,-0.00140448,-1.0824,0.00210626,0.040339,1945,869,54.3703,-4.3395
728,155,54.3239,5.05743,-0.000443834,0.00173491,-0.000811687,0.00200406,-0.000712978,-1.25062,0.00162664,0.0199306,1952,869,54.3238,-5.05742
735,155,54.3135,5.72845,-0.000199623,0.00202993,0.000215595,0.00205059,-0.000220279,1.47528,0.00144609,0.0169385,1959,869,54.3134,-5.72847
742,155,54.2914,6.43506,6.37948e-05,0.00237502,0.00173841,0.00330687,-0.000868058,1.07874,0.00254379,0.0195022,1966,869,54.2913,-6.43505
749,155,54.2063,7.11841,0.000151933,0.00252849,0.00379481,0.00531672,-0.0026363,0.937128,0.0046778,0.0184122,1973,869,54.2063,-7.1184
756,155,54.1621,7.86621,-9.94679e-05,0.00258197,0.00644917,0.0078283,-0.0053458,0.887883,0.00765096,0.0302164,1980,869,54.1621,-7.86623
763,155,54.3555,8.57141,-0.000380348,0.00220715,0.0102957,0.0112901,-0.00946328,0.8479,0.0119974,0.0481243,1987,869,54.3554,-8.57139
770,155,54.4758,9.28955,-0.00194173,0.00256203,0.0163434,0.0168079,-0.0161876,0.85386,0.0190511,0.0496238,1994,869,54.4759,-9.28954
777,155,54.6055,10.1432,0,0,0,0,0,0,0,-1,2001,869,54.6055,-10.1433
784,155,54.8704,11.0088,0,0,0,0,0,0,0,-1,2008,869,54.8704,-11.0088
791,155,0,0,0,0,0,0,0,0,0,-1,2015,869,0,0
798,155,0,0,0,0,0,0,0,0,0,-1,2022,869,0,0
805,155,0,0,0,0,0,0,0,0,0,-1,2029,869,0,0
812,155,0,0,0,0,0,0,0,0,0,-1,2036,869,0,0
-700,148,0,0,0,0,0,0,0,0,0,-1,524,876,0,0
-693,148,0,0,0,0,0,0,0,0,0,-1,531,876,0,0
-686,148,0,0,0,0,0,0,0,0,0,-1,538,876,0,0
-679,148,0,0,0,0,0,0,0,0,0,-1,545,876,0,0
-672,148,-49.3899,2.88788,0,0,0,0,0,0,0,-1,552,876,-49.3899,-2.88786
-665,148,-50.0402,3.67505,0,0,0,0,0,0,0,-1,559,876,-50.0402,-3.67506
-658,148,-50.1056,4.49438,0,0,0,0,0,0,0,-1,566,876,-50.1056,-4.49439
-651,148,-50.3502,5.02454,0,0,0,0,0,0,0,-1,573,876,-50.3502,-5.02455
-644,148,-46.2215,-3.06354,0,0,0,0,0,0,0,-1,580,876,-46.2215,3.06353
-637,148,-46.8488,-3.24152,0,0,0,0,0,0,0,-1,587,876,-46.8488,3.24153
-630,148,-40.3473,6.59399,0,0,0,0,0,0,0,-1,594,876,-40.3473,-6.594
-623,148,-40.4896,5.7655,-0.000910468,0.014274,0.00141206,0.0144042,-0.00104067,1.47885,0.00996779,0.0301489,601,876,-40.4896,-5.76552
-616,148,-40.6492,4.96112,-0.00493287,0.00985536,0.00170914,0.0100503,-0.00512784,1.45722,0.00891541,0.0148729,608,876,-40.6493,-4.96111
-609,148,-40.7739,4.21973,-0.00504289,0.00604084,0.00247611,0.00656886,-0.0055709,1.3607,0.00701678,0.013657,615,876,-40.7738,-4.21972
-602,148,-40.8344,3.56061,-0.00525028,0.00342956,0.0035099,0.00467124,-0.00649196,1.23077,0.00647359,0.0150842,622,876,-40.8344,-3.56064
-595,148,-40.8609,2.88544,-0.0051354,0.00211727,0.00402963,0.00391203,-0.00693016,1.15178,0.00634007,0.0129238,629,876,-40.8609,-2.88544
-588,148,-40.8754,2.13782,-0.00472554,0.00167649,0.00400874,0.00360543,-0.00665449,1.12231,0.00601012,0.0295559,636,876,-40.8754,-2.13781
-581,148,-41.0499,1.64606,-0.00455328,0.00161784,0.00378732,0.00341741,-0.00635285,1.12722,0.0057251,0.0464494,643,876,-41.0499,-1.64603
-574,148,-41.1129,1.35413,0,0,0,0,0,0,0,-1,650,876,-41.1129,-1.35412
-567,148,-35.6293,0.615784,0,0,0,0,0,0,0,-1,657,876,-35.6293,-0.615792
-560,148,-37.7973,-0.588135,0,0,0,0,0,0,0,-1,664,876,-37.7973,0.588143
-553,148,-18.3896,-0.00280762,0,0,0,0,0,0,0,-1,671,876,-18.3897,0.00278524
-546,148,-49.555,0.682678,0,0,0,0,0,0,0,-1,678,876,-49.555,-0.68268
-539,148,-49.3608,0.797668,-0.00324099,-0.000886214,0.00251128,0.000709977,-0.00483718,1.0046,0.00348563,0.0493668,685,876,-49.3609,-0.797656
-532,148,-49.4312,0.936035,-0.00224938,-0.00125225,0.00195366,0.000265455,-0.00376709,0.910329,0.00260439,0.0360007,692,876,-49.4311,-0.93602
-525,148,-49.3967,1.05695,-0.00095269,-0.00197646,0.00134505,-2.54081e-05,-0.00290374,0.603577,0.00192741,0.0380251,699,876,-49.3967,-1.05695
-518,148,-49.4666,1.15802,0.000510008,-0.00258218,0.000867582,0.000736795,-0.00280897,0.25568,0.00216053,0.0435094,706,876,-49.4666,-1.15803
-511,148,-49.5015,1.27783,0.00339344,-0.00284857,1.68969e-05,0.00339348,-0.00284862,0.00270694,0.00360845,0.0430195,713,876,-49.5016,-1.27781
-504,148,-49.4245,1.05438,0.00680694,-0.00298737,-0.00128203,0.00697197,-0.0031524,-0.128023,0.00598237,0.0426125,720,876,-49.4245,-1.05437
-497,148,0,0,0,0,0,0,0,0,0,-1,727,876,0,0
-490,148,0,0,0,0,0,0,0,0,0,-1,734,876,0,0
-483,148,0,0,0,0,0,0,0,0,0,-1,741,876,0,0
-476,148,0,0,0,0,0,0,0,0,0,-1,748,876,0,0
-469,148,0,0,0,0,0,0,0,0,0,-1,755,876,0,0
-462,148,0,0,0,0,0,0,0,0,0,-1,762,876,0,0
-455,148,0,0,0,0,0,0,0,0,0,-1,769,876,0,0
-448,148,0,0,0,0,0,0,0,0,0,-1,776,876,0,0
-441,148,0,0,0,0,0,0,0,0,0,-1,783,876,0,0
-434,148,0,0,0,0,0,0,0,0,0,-1,790,876,0,0
-427,148,0,0,0,0,0,0,0,0,0,-1,797,876,0,0
-420,148,0,0,0,0,0,0,0,0,0,-1,804,876,0,0
-413,148,0,0,0,0,0,0,0,0,0,-1,811,876,0,0
-406,148,0,0,0,0,0,0,0,0,0,-1,818,876,0,0
-399,148,0,0,0,0,0,0,0,0,0,-1,825,876,0,0
-392,148,0,0,0,0,0,0,0,0,0,-1,832,876,0,0
-385,148,0,0,0,0,0,0,0,0,0,-1,839,876,0,0
-378,148,0,0,0,0,0,0,0,0,0,-1,846,876,0,0
-371,148,0,0,0,0,0,0,0,0,0,-1,853,876,0,0
-364,148,0,0,0,0,0,0,0,0,0,-1,860,876,0,0
-357,148,0,0,0,0,0,0,0,0,0,-1,867,876,0,0
-350,148,0,0,0,0,0,0,0,0,0,-1,874,876,0,0
-343,148,0,0,0,0,0,0,0,0,0,-1,881,876,0,0
-336,148,0,0,0,0,0,0,0,0,0,-1,888,876,0,0
-329,148,0,0,0,0,0,0,0,0,0,-1,895,876,0,0
-322,148,0,0,0,0,0,0,0,0,0,-1,902,876,0,0
-315,148,0,0,0,0,0,0,0,0,0,-1,909,876,0,0
-308,148,0,0,0,0,0,0,0,0,0,-1,916,876,0,0
-301,148,0,0,0,0,0,0,0,0,0,-1,923,876,0,0
-294,148,0,0,0,0,0,0,0,0,0,-1,930,876,0,0
-287,148,0,0,0,0,0,0,0,0,0,-1,937,876,0,0
-280,148,0,0,0,0,0,0,0,0,0,-1,944,876,0,0
-273,148,0,0,0,0,0,0,0,0,0,-1,951,876,0,0
-266,148,0,0,0,0,0,0,0,0,0,-1,958,876,0,0
-259,148,0,0,0,0,0,0,0,0,0,-1,965,876,0,0
-252,148,0,0,0,0,0,0,0,0,0,-1,972,876,0,0
-245,148,0,0,0,0,0,0,0,0,0,-1,979,876,0,0
-238,148,0,0,0,0,0,0,0,0,0,-1,986,876,0,0
-231,148,0,0,0,0,0,0,0,0,0,-1,993,876,0,0
-224,148,0,0,0,0,0,0,0,0,0,-1,1000,876,0,0
-217,148,0,0,0,0,0,0,0,0,0,-1,1007,876,0,0
-210,148,0,0,0,0,0,0,0,0,0,-1,1014,876,0,0
-203,148,0,0,0,0,0,0,0,0,0,-1,1021,876,0,0
-196,148,0,0,0,0,0,0,0,0,0,-1,1028,876,0,0
-189,148,0,0,0,0,0,0,0,0,0,-1,1035,876,0,0
-182,148,0,0,0,0,0,0,0,0,0,-1,1042,876,0,0
-175,148,0,0,0,0,0,0,0,0,0,-1,1049,876,0,0
-168,148,0,0,0,0,0,0,0,0,0,-1,1056,876,0,0
-161,148,0,0,0,0,0,0,0,0,0,-1,1063,876,0,0
-154,148,0,0,0,0,0,0,0,0,0,-1,1070,876,0,0
-147,148,0,0,0,0,0,0,0,0,0,-1,1077,876,0,0
-140,148,0,0,0,0,0,0,0,0,0,-1,1084,876,0,0
-133,148,0,0,0,0,0,0,0,0,0,-1,1091,876,0,0
-126,148,0,0,0,0,0,0,0,0,0,-1,1098,876,0,0
-119,148,0,0,0,0,0,0,0,0,0,-1,1105,876,0,0
-112,148,0,0,0,0,0,0,0,0,0,-1,1112,876,0,0
-105,148,0,0,0,0,0,0,0,0,0,-1,1119,876,0,0
-98,148,0,0,0,0,0,0,0,0,0,-1,1126,876,0,0
-91,148,0,0,0,0,0,0,0,0,0,-1,1133,876,0,0
-84,148,0,0,0,0,0,0,0,0,0,-1,1140,876,0,0
-77,148,0,0,0,0,0,0,0,0,0,-1,1147,876,0,0
-70,148,0,0,0,0,0,0,0,0,0,-1,1154,876,0,0
-63,148,0,0,0,0,0,0,0,0,0,-1,1161,876,0,0
-56,148,0,0,0,0,0,0,0,0,0,-1,1168,876,0,0
-49,148,0,0,0,0,0,0,0,0,0,-1,1175,876,0,0
-42,148,0,0,0,0,0,0,0,0,0,-1,1182,876,0,0
-35,148,0,0,0,0,0,0,0,0,0,-1,1189,876,0,0
-28,148,0,0,0,0,0,0,0,0,0,-1,1196,876,0,0
-21,148,0,0,0,0,0,0,0,0,0,-1,1203,876,0,0
-14,148,0,0,0,0,0,0,0,0,0,-1,1210,876,0,0
-7,148,0,0,0,0,0,0,0,0,0,-1,1217,876,0,0
0,148,0,0,0,0,0,0,0,0,0,-1,1224,876,0,0
7,148,0,0,0,0,0,0,0,0,0,-1,1231,876,0,0
14,148,0,0,0,0,0,0,0,0,0,-1,1238,876,0,0
21,148,0,0,0,0,0,0,0,0,0,-1,1245,876,0,0
28,148,0,0,0,0,0,0,0,0,0,-1,1252,876,0,0
35,148,0,0,0,0,0,0,0,0,0,-1,1259,876,0,0
42,148,0,0,0,0,0,0,0,0,0,-1,1266,876,0,0
49,148,0,0,0,0,0,0,0,0,0,-1,1273,876,0,0
56,148,0,0,0,0,0,0,0,0,0,-1,1280,876,0,0
63,148,0,0,0,0,0,0,0,0,0,-1,1287,876,0,0
70,148,0,0,0,0,0,0,0,0,0,-1,1294,876,0,0
77,148,0,0,0,0,0,0,0,0,0,-1,1301,876,0,0
84,148,0,0,0,0,0,0,0,0,0,-1,1308,876,0,0
91,148,0,0,0,0,0,0,0,0,0,-1,1315,876,0,0
98,148,0,0,0,0,0,0,0,0,0,-1,1322,876,0,0
105,148,0,0,0,0,0,0,0,0,0,-1,1329,876,0,0
112,148,0,0,0,0,0,0,0,0,0,-1,1336,876,0,0
119,148,0,0,0,0,0,0,0,0,0,-1,1343,876,0,0
126,148,0,0,0,0,0,0,0,0,0,-1,1350,876,0,0
133,148,0,0,0,0,0,0,0,0,0,-1,1357,876,0,0
140,148,0,0,0,0,0,0,0,0,0,-1,1364,876,0,0
147,148,0,0,0,0,0,0,0,0,0,-1,1371,876,0,0
154,148,0,0,0,0,0,0,0,0,0,-1,1378,876,0,0
161,148,0,0,0,0,0,0,0,0,0,-1,1385,876,0,0
168,148,0,0,0,0,0,0,0,0,0,-1,1392,876,0,0
175,148,0,0,0,0,0,0,0,0,0,-1,1399,876,0,0
182,148,0,0,0,0,0,0,0,0,0,-1,1406,876,0,0
189,148,0,0,0,0,0,0,0,0,0,-1,1413,876,0,0
196,148,0,0,0,0,0,0,0,0,0,-1,1420,876,0,0
203,148,0,0,0,0,0,0,0,0,0,-1,1427,876,0,0
210,148,0,0,0,0,0,0,0,0,0,-1,1434,876,0,0
217,148,0,0,0,0,0,0,0,0,0,-1,1441,876,0,0
224,148,0,0,0,0,0,0,0,0,0,-1,1448,876,0,0
231,148,0,0,0,0,0,0,0,0,0,-1,1455,876,0,0
238,148,0,0,0,0,0,0,0,0,0,-1,1462,876,0,0
245,148,0,0,0,0,0,0,0,0,0,-1,1469,876,0,0
252,148,0,0,0,0,0,0,0,0,0,-1,1476,876,0,0
259,148,0,0,0,0,0,0,0,0,0,-1,1483,876,0,0
266,148,0,0,0,0,0,0,0,0,0,-1,1490,876,0,0
273,148,0,0,0,0,0,0,0,0,0,-1,1497,876,0,0
280,148,0,0,0,0,0,0,0,0,0,-1,1504,876,0,0
287,148,0,0,0,0,0,0,0,0,0,-1,1511,876,0,0
294,148,0,0,0,0,0,0,0,0,0,-1,1518,876,0,0
301,148,0,0,0,0,0,0,0,0,0,-1,1525,876,0,0
308,148,0,0,0,0,0,0,0,0,0,-1,1532,876,0,0
315,148,0,0,0,0,0,0,0,0,0,-1,1539,876,0,0
322,148,0,0,0,0,0,0,0,0,0,-1,1546,876,0,0
329,148,0,0,0,0,0,0,0,0,0,-1,1553,876,0,0
336,148,0,0,0,0,0,0,0,0,0,-1,1560,876,0,0
343,148,0,0,0,0,0,0,0,0,0,-1,1567,876,0,0
350,148,0,0,0,0,0,0,0,0,0,-1,1574,876,0,0
357,148,0,0,0,0,0,0,0,0,0,-1,1581,876,0,0
364,148,0,0,0,0,0,0,0,0,0,-1,1588,876,0,0
371,148,0,0,0,0,0,0,0,0,0,-1,1595,876,0,0
378,148,0,0,0,0,0,0,0,0,0,-1,1602,876,0,0
385,148,0,0,0,0,0,0,0,0,0,-1,1609,876,0,0
392,148,0,0,0,0,0,0,0,0,0,-1,1616,876,0,0
399,148,0,0,0,0,0,0,0,0,0,-1,1623,876,0,0
406,148,0,0,0,0,0,0,0,0,0,-1,1630,876,0,0
413,148,0,0,0,0,0,0,0,0,0,-1,1637,876,0,0
420,148,0,0,0,0,0,0,0,0,0,-1,1644,876,0,0
427,148,0,0,0,0,0,0,0,0,0,-1,1651,876,0,0
434,148,0,0,0,0,0,0,0,0,0,-1,1658,876,0,0
441,148,0,0,0,0,0,0,0,0,0,-1,1665,876,0,0
448,148,0,0,0,0,0,0,0,0,0,-1,1672,876,0,0
455,148,0,0,0,0,0,0,0,0,0,-1,1679,876,0,0
462,148,0,0,0,0,0,0,0,0,0,-1,1686,876,0,0
469,148,0,0,0,0,0,0,0,0,0,-1,1693,876,0,0
476,148,0,0,0,0,0,0,0,0,0,-1,1700,876,0,0
483,148,0,0,0,0,0,0,0,0,0,-1,1707,876,0,0
490,148,0,0,0,0,0,0,0,0,0,-1,1714,876,0,0
497,148,0,0,0,0,0,0,0,0,0,-1,1721,876,0,0
504,148,0,0,0,0,0,0,0,0,0,-1,1728,876,0,0
511,148,0,0,0,0,0,0,0,0,0,-1,1735,876,0,0
518,148,0,0,0,0,0,0,0,0,0,-1,1742,876,0,0
525,148,0,0,0,0,0,0,0,0,0,-1,1749,876,0,0
532,148,0,0,0,0,0,0,0,0,0,-1,1756,876,0,0
539,148,0,0,0,0,0,0,0,0,0,-1,1763,876,0,0
546,148,0,0,0,0,0,0,0,0,0,-1,1770,876,0,0
553,148,0,0,0,0,0,0,0,0,0,-1,1777,876,0,0
560,148,0,0,0,0,0,0,0,0,0,-1,1784,876,0,0
567,148,0,0,0,0,0,0,0,0,0,-1,1791,876,0,0
574,148,0,0,0,0,0,0,0,0,0,-1,1798,876,0,0
581,148,0,0,0,0,0,0,0,0,0,-1,1805,876,0,0
588,148,0,0,0,0,0,0,0,0,0,-1,1812,876,0,0
595,148,0,0,0,0,0,0,0,0,0,-1,1819,876,0,0
602,148,0,0,0,0,0,0,0,0,0,-1,1826,876,0,0
609,148,0,0,0,0,0,0,0,0,0,-1,1833,876,0,0
616,148,0,0,0,0,0,0,0,0,0,-1,1840,876,0,0
623,148,65.0093,2.78241,5.56872e-05,-0.00635408,0.0005845,0.000108551,-0.00640694,0.0901977,0.00430793,0.0404932,1847,876,65.0093,-2.78243
630,148,64.8583,2.84003,-0.00081176,-0.00465198,0.000633902,-0.000709828,-0.00475392,0.159436,0.00296116,0.0425138,1854,876,64.8583,-2.84005
637,148,64.8783,2.72797,-0.00123925,-0.00309114,0.000638769,-0.00104029,-0.0032901,0.301942,0.00194185,0.0391982,1861,876,64.8783,-2.72794
644,148,64.8761,2.60345,-0.00144608,-0.00195943,0.000491222,-0.00114852,-0.002257,0.544646,0.00130315,0.0352374,1868,876,64.8761,-2.60347
651,148,64.8975,2.53448,-0.00160323,-0.00118577,0.00010791,-0.00115953,-0.00162947,1.33222,0.000968451,0.0342379,1875,876,64.8974,-2.53451
658,148,64.9032,2.63959,-0.00149203,-0.000884926,-0.000328907,-0.000740903,-0.00163605,-1.15806,0.000945974,0.031088,1882,876,64.9032,-2.63957
665,148,64.8632,2.74951,-0.00163079,-0.000293223,-0.000616387,-5.24985e-05,-0.00187151,-1.19847,0.00123055,0.0243753,1889,876,64.8632,-2.74953
672,148,64.8904,2.68481,-0.00161201,6.95966e-06,-0.000879771,0.000392992,-0.00199805,-1.15731,0.00148052,0.0401325,1896,876,64.8904,-2.68484
679,148,64.9717,2.54761,0,0,0,0,0,0,0,-1,1903,876,64.9717,-2.5476
686,148,21.6195,2.40845,0,0,0,0,0,0,0,-1,1910,876,21.6196,-2.40846
693,148,48.1387,1.97351,0,0,0,0,0,0,0,-1,1917,876,48.1387,-1.97351
700,148,55.5345,2.79681,0,0,0,0,0,0,0,-1,1924,876,55.5346,-2.79684
707,148,55.5629,3.30743,0,0,0,0,0,0,0,-1,1931,876,55.5629,-3.30745
714,148,55.4504,3.83978,-0.000482601,0.0012016,-0.00179294,0.00234035,-0.00162135,-1.00495,0.00229981,0.0388911,1938,876,55.4504,-3.83979
721,148,55.0731,4.44568,-0.000334847,0.00168827,-0.00155518,0.00253193,-0.0011785,-1.07374,0.00218921,0.0301795,1945,876,55.0731,-4.44568
728,148,55.0786,5.10278,-0.00032911,0.00199856,-0.00100926,0.00237522,-0.000705768,-1.2136,0.00186382,0.021443,1952,876,55.0786,-5.1028
735,148,55.0726,5.79486,-0.000262729,0.00226422,-0.000168131,0.00227536,-0.000273867,-1.50465,0.00161595,0.0204734,1959,876,55.0726,-5.79487
742,148,54.9911,6.46893,-0.000116229,0.00262567,0.00118171,0.00306468,-0.000555238,1.2151,0.00225114,0.0228706,1966,876,54.9911,-6.46893
749,148,54.8755,7.13098,4.56808e-05,0.00283306,0.0031172,0.00485394,-0.0019752,0.995617,0.00405789,0.0227251,1973,876,54.8755,-7.131
756,148,54.8075,7.92926,0.000112588,0.00292479,0.00567447,0.00736477,-0.00432739,0.906849,0.00682598,0.0270093,1980,876,54.8074,-7.92929
763,148,54.7865,8.85468,0.000528146,0.00262238,0.00939772,0.0110311,-0.00788061,0.840881,0.0109691,0.045402,1987,876,54.7865,-8.8547
770,148,54.2542,9.29504,0.000392851,0.00289428,0.0150445,0.0167399,-0.0134528,0.82687,0.0174662,0.0473852,1994,876,54.2542,-9.29507
777,148,54.2305,10.0599,0,0,0,0,0,0,0,-1,2001,876,54.2304,-10.06
784,148,54.7207,10.9227,0,0,0,0,0,0,0,-1,2008,876,54.7207,-10.9227
791,148,57.4717,12.5975,0,0,0,0,0,0,0,-1,2015,876,57.4717,-12.5974
798,148,0,0,0,0,0,0,0,0,0,-1,2022,876,0,0
805,148,0,0,0,0,0,0,0,0,0,-1,2029,876,0,0
812,148,0,0,0,0,0,0,0,0,0,-1,2036,876,0,0
-700,141,0,0,0,0,0,0,0,0,0,-1,524,883,0,0
-693,141,0,0,0,0,0,0,0,0,0,-1,531,883,0,0
-686,141,0,0,0,0,0,0,0,0,0,-1,538,883,0,0
-679,141,0,0,0,0,0,0,0,0,0,-1,545,883,0,0
-672,141,-48.4644,3.72797,0,0,0,0,0,0,0,-1,552,883,-48.4644,-3.72796
-665,141,-48.707,4.29004,0,0,0,0,0,0,0,-1,559,883,-48.707,-4.29002
-658,141,-48.97,4.71417,0,0,0,0,0,0,0,-1,566,883,-48.9699,-4.71417
-651,141,-49.2051,5.1496,0,0,0,0,0,0,0,-1,573,883,-49.2051,-5.14957
-644,141,-45.9885,-1.76727,0,0,0,0,0,0,0,-1,580,883,-45.9885,1.76725
-637,141,-46.5847,-1.9599,0,0,0,0,0,0,0,-1,587,883,-46.5847,1.95991
-630,141,-40.9626,6.59821,0,0,0,0,0,0,0,-1,594,883,-40.9626,-6.59818
-623,141,-41.142,5.70013,-0.00208216,0.0132312,0.00234759,0.013583,-0.00243397,1.42204,0.00996621,0.0323131,601,883,-41.1419,-5.70016
-616,141,-41.3788,4.9054,-0.00602812,0.00901024,0.0023858,0.00937967,-0.00639754,1.41717,0.00916305,0.0138185,608,883,-41.3788,-4.90542
-609,141,-41.5043,4.23853,-0.00589362,0.00531848,0.00294422,0.00604459,-0.00661973,1.329,0.00731426,0.0142719,615,883,-41.5043,-4.23851
-602,141,-41.5417,3.58087,-0.00601655,0.00302593,0.00379622,0.00440832,-0.00739894,1.22157,0.00688943,0.0148936,622,883,-41.5418,-3.5809
-595,141,-41.5419,2.89856,0,0,0,0,0,0,0,-1,629,883,-41.5419,-2.89854
-588,141,-41.8986,2.15662,-0.00535515,0.00145777,0.00392401,0.00324763,-0.00714502,1.14285,0.00613923,0.0358973,636,883,-41.8987,-2.15659
-581,141,-41.8665,1.5072,-0.00519125,0.00134128,0.00372669,0.00303049,-0.00688046,1.14522,0.00586423,0.0480206,643,883,-41.8665,-1.50722
-574,141,-41.506,1.00195,0,0,0,0,0,0,0,-1,650,883,-41.506,-1.00196
-567,141,-30.5335,0.480103,0,0,0,0,0,0,0,-1,657,883,-30.5335,-0.480081
-560,141,-30.5542,0.23175,0,0,0,0,0,0,0,-1,664,883,-30.5542,-0.231742
-553,141,-32.0876,1.39459,0,0,0,0,0,0,0,-1,671,883,-32.0876,-1.3946
-546,141,-49.3482,0.927124,0,0,0,0,0,0,0,-1,678,883,-49.3482,-0.927139
-539,141,-49.3953,0.882141,-0.00379372,-0.000646872,0.00243813,0.000681455,-0.00512204,1.07194,0.00366304,0.0294649,685,883,-49.3952,-0.882149
-532,141,-49.4644,0.867737,-0.00251815,-0.000886289,0.00184775,0.00031766,-0.0037221,0.993314,0.00259378,0.0288157,692,883,-49.4644,-0.867728
-525,141,-49.4681,1.0202,-0.000998397,-0.00144824,0.00119074,-1.15217e-05,-0.00243512,0.692051,0.00161959,0.0380613,699,883,-49.4681,-1.02021
-518,141,-49.5219,1.23486,0.000649059,-0.00183743,0.000685447,0.000825496,-0.00201386,0.251935,0.00168649,0.0440551,706,883,-49.5219,-1.23486
-511,141,-49.5052,1.19678,0.00316387,-0.0020061,-0.000164691,0.00316911,-0.00201134,-0.0318123,0.00301573,0.0407941,713,883,-49.5052,-1.1968
-504,141,-49.3859,1.00275,0.00606929,-0.00215754,-0.0013606,0.00628847,-0.00237672,-0.159722,0.00516998,0.0413482,720,883,-49.3858,-1.00273
-497,141,0,0,0,0,0,0,0,0,0,-1,727,883,0,0
-490,141,0,0,0,0,0,0,0,0,0,-1,734,883,0,0
-483,141,0,0,0,0,0,0,0,0,0,-1,741,883,0,0
-476,141,0,0,0,0,0,0,0,0,0,-1,748,883,0,0
-469,141,0,0,0,0,0,0,0,0,0,-1,755,883,0,0
-462,141,0,0,0,0,0,0,0,0,0,-1,762,883,0,0
-455,141,0,0,0,0,0,0,0,0,0,-1,769,883,0,0
-448,141,0,0,0,0,0,0,0,0,0,-1,776,883,0,0
-441,141,0,0,0,0,0,0,0,0,0,-1,783,883,0,0
-434,141,0,0,0,0,0,0,0,0,0,-1,790,883,0,0
-427,141,0,0,0,0,0,0,0,0,0,-1,797,883,0,0
-420,141,0,0,0,0,0,0,0,0,0,-1,804,883,0,0
-413,141,0,0,0,0,0,0,0,0,0,-1,811,883,0,0
-406,141,0,0,0,0,0,0,0,0,0,-1,818,883,0,0
-399,141,0,0,0,0,0,0,0,0,0,-1,825,883,0,0
-392,141,0,0,0,0,0,0,0,0,0,-1,832,883,0,0
-385,141,0,0,0,0,0,0,0,0,0,-1,839,883,0,0
-378,141,0,0,0,0,0,0,0,0,0,-1,846,883,0,0
-371,141,0,0,0,0,0,0,0,0,0,-1,853,883,0,0
-364,141,0,0,0,0,0,0,0,0,0,-1,860,883,0,0
-357,141,0,0,0,0,0,0,0,0,0,-1,867,883,0,0
-350,141,0,0,0,0,0,0,0,0,0,-1,874,883,0,0
-343,141,0,0,0,0,0,0,0,0,0,-1,881,883,0,0
-336,141,0,0,0,0,0,0,0,0,0,-1,888,883,0,0
-329,141,0,0,0,0,0,0,0,0,0,-1,895,883,0,0
-322,141,0,0,0,0,0,0,0,0,0,-1,902,883,0,0
-315,141,0,0,0,0,0,0,0,0,0,-1,909,883,0,0
-308,141,0,0,0,0,0,0,0,0,0,-1,916,883,0,0
-301,141,0,0,0,0,0,0,0,0,0,-1,923,883,0,0
-294,141,0,0,0,0,0,0,0,0,0,-1,930,883,0,0
-287,141,0,0,0,0,0,0,0,0,0,-1,937,883,0,0
-280,141,0,0,0,0,0,0,0,0,0,-1,944,883,0,0
-273,141,0,0,0,0,0,0,0,0,0,-1,951,883,0,0
-266,141,0,0,0,0,0,0,0,0,0,-1,958,883,0,0
-259,141,0,0,0,0,0,0,0,0,0,-1,965,883,0,0
-252,141,0,0,0,0,0,0,0,0,0,-1,972,883,0,0
-245,141,0,0,0,0,0,0,0,0,0,-1,979,883,0,0
-238,141,0,0,0,0,0,0,0,0,0,-1,986,883,0,0
-231,141,0,0,0,0,0,0,0,0,0,-1,993,883,0,0
-224,141,0,0,0,0,0,0,0,0,0,-1,1000,883,0,0
-217,141,0,0,0,0,0,0,0,0,0,-1,1007,883,0,0
-210,141,0,0,0,0,0,0,0,0,0,-1,1014,883,0,0
-203,141,0,0,0,0,0,0,0,0,0,-1,1021,883,0,0
-196,141,0,0,0,0,0,0,0,0,0,-1,1028,883,0,0
-189,141,0,0,0,0,0,0,0,0,0,-1,1035,883,0,0
-182,141,0,0,0,0,0,0,0,0,0,-1,1042,883,0,0
-175,141,0,0,0,0,0,0,0,0,0,-1,1049,883,0,0
-168,141,0,0,0,0,0,0,0,0,0,-1,1056,883,0,0
-161,141,0,0,0,0,0,0,0,0,0,-1,1063,883,0,0
-154,141,0,0,0,0,0,0,0,0,0,-1,1070,883,0,0
-147,141,0,0,0,0,0,0,0,0,0,-1,1077,883,0,0
-140,141,0,0,0,0,0,0,0,0,0,-1,1084,883,0,0
-133,141,0,0,0,0,0,0,0,0,0,-1,1091,883,0,0
-126,141,0,0,0,0,0,0,0,0,0,-1,1098,883,0,0
-119,141,0,0,0,0,0,0,0,0,0,-1,1105,883,0,0
-112,141,0,0,0,0,0,0,0,0,0,-1,1112,883,0,0
-105,141,0,0,0,0,0,0,0,0,0,-1,1119,883,0,0
-98,141,0,0,0,0,0,0,0,0,0,-1,1126,883,0,0
-91,141,0,0,0,0,0,0,0,0,0,-1,1133,883,0,0
-84,141,0,0,0,0,0,0,0,0,0,-1,1140,883,0,0
-77,141,0,0,0,0,0,0,0,0,0,-1,1147,883,0,0
-70,141,0,0,0,0,0,0,0,0,0,-1,1154,883,0,0
-63,141,0,0,0,0,0,0,0,0,0,-1,1161,883,0,0
-56,141,0,0,0,0,0,0,0,0,0,-1,1168,883,0,0
-49,141,0,0,0,0,0,0,0,0,0,-1,1175,883,0,0
-42,141,0,0,0,0,0,0,0,0,0,-1,1182,883,0,0
-35,141,0,0,0,0,0,0,0,0,0,-1,1189,883,0,0
-28,141,0,0,0,0,0,0,0,0,0,-1,1196,883,0,0
-21,141,0,0,0,0,0,0,0,0,0,-1,1203,883,0,0
-14,141,0,0,0,0,0,0,0,0,0,-1,1210,883,0,0
-7,141,0,0,0,0,0,0,0,0,0,-1,1217,883,0,0
0,141,0,0,0,0,0,0,0,0,0,-1,1224,883,0,0
7,141,0,0,0,0,0,0,0,0,0,-1,1231,883,0,0
14,141,0,0,0,0,0,0,0,0,0,-1,1238,883,0,0
21,141,0,0,0,0,0,0,0,0,0,-1,1245,883,0,0
28,141,0,0,0,0,0,0,0,0,0,-1,1252,883,0,0
35,141,0,0,0,0,0,0,0,0,0,-1,1259,883,0,0
42,141,0,0,0,0,0,0,0,0,0,-1,1266,883,0,0
49,141,0,0,0,0,0,0,0,0,0,-1,1273,883,0,0
56,141,0,0,0,0,0,0,0,0,0,-1,1280,883,0,0
63,141,0,0,0,0,0,0,0,0,0,-1,1287,883,0,0
70,141,0,0,0,0,0,0,0,0,0,-1,1294,883,0,0
77,141,0,0,0,0,0,0,0,0,0,-1,1301,883,0,0
84,141,0,0,0,0,0,0,0,0,0,-1,1308,883,0,0
91,141,0,0,0,0,0,0,0,0,0,-1,1315,883,0,0
98,141,0,0,0,0,0,0,0,0,0,-1,1322,883,0,0
105,141,0,0,0,0,0,0,0,0,0,-1,1329,883,0,0
112,141,0,0,0,0,0,0,0,0,0,-1,1336,883,0,0
119,141,0,0,0,0,0,0,0,0,0,-1,1343,883,0,0
126,141,0,0,0,0,0,0,0,0,0,-1,1350,883,0,0
133,141,0,0,0,0,0,0,0,0,0,-1,1357,883,0,0
140,141,0,0,0,0,0,0,0,0,0,-1,1364,883,0,0
147,141,0,0,0,0,0,0,0,0,0,-1,1371,883,0,0
154,141,0,0,0,0,0,0,0,0,0,-1,1378,883,0,0
161,141,0,0,0,0,0,0,0,0,0,-1,1385,883,0,0
168,141,0,0,0,0,0,0,0,0,0,-1,1392,883,0,0
175,141,0,0,0,0,0,0,0,0,0,-1,1399,883,0,0
182,141,0,0,0,0,0,0,0,0,0,-1,1406,883,0,0
189,141,0,0,0,0,0,0,0,0,0,-1,1413,883,0,0
196,141,0,0,0,0,0,0,0,0,0,-1,1420,883,0,0
203,141,0,0,0,0,0,0,0,0,0,-1,1427,883,0,0
210,141,0,0,0,0,0,0,0,0,0,-1,1434,883,0,0
217,141,0,0,0,0,0,0,0,0,0,-1,1441,883,0,0
224,141,0,0,0,0,0,0,0,0,0,-1,1448,883,0,0
231,141,0,0,0,0,0,0,0,0,0,-1,1455,883,0,0
238,141,0,0,0,0,0,0,0,0,0,-1,1462,883,0,0
245,141,0,0,0,0,0,0,0,0,0,-1,1469,883,0,0
252,141,0,0,0,0,0,0,0,0,0,-1,1476,883,0,0
259,141,0,0,0,0,0,0,0,0,0,-1,1483,883,0,0
266,141,0,0,0,0,0,0,0,0,0,-1,1490,883,0,0
273,141,0,0,0,0,0,0,0,0,0,-1,1497,883,0,0
280,141,0,0,0,0,0,0,0,0,0,-1,1504,883,0,0
287,141,0,0,0,0,0,0,0,0,0,-1,1511,883,0,0
294,141,0,0,0,0,0,0,0,0,0,-1,1518,883,0,0
301,141,0,0,0,0,0,0,0,0,0,-1,1525,883,0,0
308,141,0,0,0,0,0,0,0,0,0,-1,1532,883,0,0
315,141,0,0,0,0,0,0,0,0,0,-1,1539,883,0,0
322,141,0,0,0,0,0,0,0,0,0,-1,1546,883,0,0
329,141,0,0,0,0,0,0,0,0,0,-1,1553,883,0,0
336,141,0,0,0,0,0,0,0,0,0,-1,1560,883,0,0
343,141,0,0,0,0,0,0,0,0,0,-1,1567,883,0,0
350,141,0,0,0,0,0,0,0,0,0,-1,1574,883,0,0
357,141,0,0,0,0,0,0,0,0,0,-1,1581,883,0,0
364,141,0,0,0,0,0,0,0,0,0,-1,1588,883,0,0
371,141,0,0,0,0,0,0,0,0,0,-1,1595,883,0,0
378,141,0,0,0,0,0,0,0,0,0,-1,1602,883,0,0
385,141,0,0,0,0,0,0,0,0,0,-1,1609,883,0,0
392,141,0,0,0,0,0,0,0,0,0,-1,1616,883,0,0
399,141,0,0,0,0,0,0,0,0,0,-1,1623,883,0,0
406,141,0,0,0,0,0,0,0,0,0,-1,1630,883,0,0
413,141,0,0,0,0,0,0,0,0,0,-1,1637,883,0,0
420,141,0,0,0,0,0,0,0,0,0,-1,1644,883,0,0
427,141,0,0,0,0,0,0,0,0,0,-1,1651,883,0,0
434,141,0,0,0,0,0,0,0,0,0,-1,1658,883,0,0
441,141,0,0,0,0,0,0,0,0,0,-1,1665,883,0,0
448,141,0,0,0,0,0,0,0,0,0,-1,1672,883,0,0
455,141,0,0,0,0,0,0,0,0,0,-1,1679,883,0,0
462,141,0,0,0,0,0,0,0,0,0,-1,1686,883,0,0
469,141,0,0,0,0,0,0,0,0,0,-1,1693,883,0,0
476,141,0,0,0,0,0,0,0,0,0,-1,1700,883,0,0
483,141,0,0,0,0,0,0,0,0,0,-1,1707,883,0,0
490,141,0,0,0,0,0,0,0,0,0,-1,1714,883,0,0
497,141,0,0,0,0,0,0,0,0,0,-1,1721,883,0,0
504,141,0,0,0,0,0,0,0,0,0,-1,1728,883,0,0
511,141,0,0,0,0,0,0,0,0,0,-1,1735,883,0,0
518,141,0,0,0,0,0,0,0,0,0,-1,1742,883,0,0
525,141,0,0,0,0,0,0,0,0,0,-1,1749,883,0,0
532,141,0,0,0,0,0,0,0,0,0,-1,1756,883,0,0
539,141,0,0,0,0,0,0,0,0,0,-1,1763,883,0,0
546,141,0,0,0,0,0,0,0,0,0,-1,1770,883,0,0
553,141,0,0,0,0,0,0,0,0,0,-1,1777,883,0,0
560,141,0,0,0,0,0,0,0,0,0,-1,1784,883,0,0
567,141,0,0,0,0,0,0,0,0,0,-1,1791,883,0,0
574,141,0,0,0,0,0,0,0,0,0,-1,1798,883,0,0
581,141,0,0,0,0,0,0,0,0,0,-1,1805,883,0,0
588,141,0,0,0,0,0,0,0,0,0,-1,1812,883,0,0
595,141,0,0,0,0,0,0,0,0,0,-1,1819,883,0,0
602,141,0,0,0,0,0,0,0,0,0,-1,1826,883,0,0
609,141,0,0,0,0,0,0,0,0,0,-1,1833,883,0,0
616,141,0,0,0,0,0,0,0,0,0,-1,1840,883,0,0
623,141,64.9552,2.61383,-6.96974e-06,-0.00600693,0.000253163,3.69339e-06,-0.00601759,0.0420944,0.00401296,0.0433199,1847,883,64.9552,-2.6138
630,141,64.9089,2.54376,-0.000960682,-0.00455354,0.000468476,-0.000900602,-0.00461362,0.12755,0.00282383,0.0470157,1854,883,64.909,-2.54377
637,141,64.9868,2.46173,-0.00149665,-0.0031993,0.000553137,-0.00133273,-0.00336321,0.288095,0.00195563,0.0437602,1861,883,64.9869,-2.46171
644,141,64.9882,2.54077,-0.00173784,-0.00210672,0.000493427,-0.00139551,-0.00244905,0.606541,0.00141855,0.0374835,1868,883,64.9882,-2.54077
651,141,64.9558,2.56488,-0.001859,-0.00130051,0.000233187,-0.00121595,-0.00194356,1.22292,0.00113386,0.0382772,1875,883,64.9558,-2.56488
658,141,64.92,2.6615,-0.00161107,-0.000894698,-8.11397e-05,-0.000885623,-0.00162014,-1.45941,0.000936744,0.0388459,1882,883,64.92,-2.66148
665,141,64.8693,2.73743,-0.00156116,-0.000206436,-0.000333652,-0.00012872,-0.00163888,-1.34195,0.00105231,0.0290195,1889,883,64.8692,-2.73743
672,141,64.8992,2.70453,-0.00145607,6.89276e-05,-0.00059392,0.000272941,-0.00166008,-1.23992,0.00120802,0.0203022,1896,883,64.8992,-2.70454
679,141,64.8883,2.7215,-0.00125893,0.000130897,-0.00082043,0.000511162,-0.0016392,-1.13678,0.0012972,0.041422,1903,883,64.8884,-2.72149
686,141,64.828,2.72626,0,0,0,0,0,0,0,-1,1910,883,64.828,-2.72626
693,141,51.7202,1.76593,0,0,0,0,0,0,0,-1,1917,883,51.7202,-1.76595
700,141,51.7233,2.5777,0,0,0,0,0,0,0,-1,1924,883,51.7232,-2.57769
707,141,56.1068,3.25665,0,0,0,0,0,0,0,-1,1931,883,56.1068,-3.25663
714,141,55.7648,3.84808,-0.00034085,0.00129166,-0.00170803,0.00236845,-0.00141765,-1.0083,0.00220876,0.0357944,1938,883,55.7647,-3.8481
721,141,55.723,4.43848,-0.000266495,0.00177298,-0.0015912,0.00264316,-0.00113668,-1.07036,0.00223932,0.0204883,1945,883,55.7231,-4.43846
728,141,55.8206,5.07593,-0.000406698,0.00210452,-0.00117946,0.00257161,-0.000873782,-1.19373,0.00206814,0.0173848,1952,883,55.8206,-5.07592
735,141,55.7843,5.86359,-0.000430665,0.0023747,-0.000501309,0.00246159,-0.000517556,-1.39917,0.00183803,0.0188691,1959,883,55.7843,-5.86358
742,141,55.698,6.52209,-0.00031467,0.00280726,0.000695593,0.00295523,-0.000462642,1.36119,0.00214109,0.0201648,1966,883,55.6981,-6.52207
749,141,55.6583,7.14191,2.12966e-05,0.0031263,0.00257584,0.00458132,-0.00143373,1.05661,0.00362782,0.015838,1973,883,55.6583,-7.14193
756,141,55.6071,7.89825,0.000536696,0.0032984,0.00515995,0.00725906,-0.00342397,0.916139,0.00629894,0.0226788,1980,883,55.6071,-7.89828
763,141,55.5767,8.64459,0.0017571,0.00308984,0.00893165,0.0113799,-0.006533,0.822633,0.0104675,0.0464564,1987,883,55.5767,-8.64459
770,141,54.0803,9.21405,0,0,0,0,0,0,0,-1,1994,883,54.0802,-9.21403
777,141,56.8301,10.0721,0,0,0,0,0,0,0,-1,2001,883,56.8302,-10.0722
784,141,57.8308,11.1509,0,0,0,0,0,0,0,-1,2008,883,57.8308,-11.151
791,141,59.0291,12.3168,0,0,0,0,0,0,0,-1,2015,883,59.029,-12.3168
798,141,0,0,0,0,0,0,0,0,0,-1,2022,883,0,0
805,141,0,0,0,0,0,0,0,0,0,-1,2029,883,0,0
812,141,0,0,0,0,0,0,0,0,0,-1,2036,883,0,0
-700,134,0,0,0,0,0,0,0,0,0,-1,524,890,0,0
-693,134,0,0,0,0,0,0,0,0,0,-1,531,890,0,0
-686,134,0,0,0,0,0,0,0,0,0,-1,538,890,0,0
-679,134,0,0,0,0,0,0,0,0,0,-1,545,890,0,0
-672,134,-47.3902,4.06329,0,0,0,0,0,0,0,-1,552,890,-47.3902,-4.0633
-665,134,-47.6834,4.59839,0,0,0,0,0,0,0,-1,559,890,-47.6834,-4.59841
-658,134,-47.9119,4.92267,0,0,0,0,0,0,0,-1,566,890,-47.9119,-4.92266
-651,134,-48.2278,5.17859,0,0,0,0,0,0,0,-1,573,890,-48.2278,-5.17859
-644,134,-45.1824,-0.748413,0,0,0,0,0,0,0,-1,580,890,-45.1824,0.74844
-637,134,-45.0718,-1.43756,0,0,0,0,0,0,0,-1,587,890,-45.0718,1.43758
-630,134,-41.7443,6.12433,0,0,0,0,0,0,0,-1,594,890,-41.7443,-6.12436
-623,134,-41.8564,5.55432,-0.00290412,0.0131352,0.00345203,0.0138466,-0.00361552,1.36756,0.0106429,0.0289373,601,890,-41.8565,-5.55431
-616,134,-42.0781,4.90125,-0.0068572,0.00877259,0.00314501,0.00938169,-0.0074663,1.37949,0.00974812,0.012401,608,890,-42.078,-4.90127
-609,134,-42.2204,4.26343,-0.00667024,0.00484786,0.00338815,0.00577059,-0.00759297,1.3049,0.00773933,0.0119861,615,890,-42.2204,-4.26341
-602,134,-42.2198,3.59839,-0.00675555,0.00261401,0.00393007,0.00404418,-0.00818572,1.22179,0.00719462,0.0137542,622,890,-42.2198,-3.5984
-595,134,-42.1154,2.96796,-0.00651634,0.00161945,0.00396743,0.00323384,-0.00813073,1.18435,0.00676132,0.026946,629,890,-42.1154,-2.96794
-588,134,-42.6523,2.34479,-0.00597151,0.00109936,0.00372868,0.00270225,-0.0075744,1.1648,0.00615148,0.0439035,636,890,-42.6523,-2.34479
-581,134,-42.7822,1.57593,0,0,0,0,0,0,0,-1,643,890,-42.7822,-1.57593
-574,134,-31.1517,0.757751,0,0,0,0,0,0,0,-1,650,890,-31.1517,-0.757758
-567,134,-30.9003,0.296326,0,0,0,0,0,0,0,-1,657,890,-30.9002,-0.296302
-560,134,-22.9123,0.106567,0,0,0,0,0,0,0,-1,664,890,-22.9123,-0.106594
-553,134,-49.2704,0.933655,0,0,0,0,0,0,0,-1,671,890,-49.2704,-0.933656
-546,134,-49.3309,0.914551,-0.00451921,-0.000434184,0.00254201,0.000784231,-0.00573763,1.12384,0.0041115,0.0350341,678,890,-49.3309,-0.914528
-539,134,-49.3925,0.870239,-0.00428088,-0.000452578,0.00208518,0.00046381,-0.00519727,1.15673,0.00362934,0.0175912,685,890,-49.3925,-0.870244
-532,134,-49.4365,0.865173,-0.00268584,-0.000479269,0.00145173,0.000240837,-0.00340595,1.11033,0.00235502,0.0223712,692,890,-49.4365,-0.865166
-525,134,-49.4651,0.999451,-0.000980834,-0.000740886,0.000767023,-8.45108e-05,-0.00163721,0.862977,0.00106442,0.0356644,699,890,-49.4651,-0.999447
-518,134,-49.5268,1.20343,0.000682403,-0.00079084,0.000242139,0.00072118,-0.000829617,0.158795,0.000896082,0.0442807,706,890,-49.5268,-1.20346
-511,134,-49.4733,1.13586,0.00282684,-0.000721395,-0.000544823,0.00290862,-0.000803167,-0.148977,0.00225499,0.0445021,713,890,-49.4733,-1.13584
-504,134,0,0,0,0,0,0,0,0,0,-1,720,890,0,0
-497,134,0,0,0,0,0,0,0,0,0,-1,727,890,0,0
-490,134,0,0,0,0,0,0,0,0,0,-1,734,890,0,0
-483,134,0,0,0,0,0,0,0,0,0,-1,741,890,0,0
-476,134,0,0,0,0,0,0,0,0,0,-1,748,890,0,0
-469,134,0,0,0,0,0,0,0,0,0,-1,755,890,0,0
-462,134,0,0,0,0,0,0,0,0,0,-1,762,890,0,0
-455,134,0,0,0,0,0,0,0,0,0,-1,769,890,0,0
-448,134,0,0,0,0,0,0,0,0,0,-1,776,890,0,0
-441,134,0,0,0,0,0,0,0,0,0,-1,783,890,0,0
-434,134,0,0,0,0,0,0,0,0,0,-1,790,890,0,0
-427,134,0,0,0,0,0,0,0,0,0,-1,797,890,0,0
-420,134,0,0,0,0,0,0,0,0,0,-1,804,890,0,0
-413,134,0,0,0,0,0,0,0,0,0,-1,811,890,0,0
-406,134,0,0,0,0,0,0,0,0,0,-1,818,890,0,0
-399,134,0,0,0,0,0,0,0,0,0,-1,825,890,0,0
-392,134,0,0,0,0,0,0,0,0,0,-1,832,890,0,0
-385,134,0,0,0,0,0,0,0,0,0,-1,839,890,0,0
-378,134,0,0,0,0,0,0,0,0,0,-1,846,890,0,0
-371,134,0,0,0,0,0,0,0,0,0,-1,853,890,0,0
-364,134,0,0,0,0,0,0,0,0,0,-1,860,890,0,0
-357,134,0,0,0,0,0,0,0,0,0,-1,867,890,0,0
-350,134,0,0,0,0,0,0,0,0,0,-1,874,890,0,0
-343,134,0,0,0,0,0,0,0,0,0,-1,881,890,0,0
-336,134,0,0,0,0,0,0,0,0,0,-1,888,890,0,0
-329,134,0,0,0,0,0,0,0,0,0,-1,895,890,0,0
-322,134,0,0,0,0,0,0,0,0,0,-1,902,890,0,0
-315,134,0,0,0,0,0,0,0,0,0,-1,909,890,0,0
-308,134,0,0,0,0,0,0,0,0,0,-1,916,890,0,0
-301,134,0,0,0,0,0,0,0,0,0,-1,923,890,0,0
-294,134,0,0,0,0,0,0,0,0,0,-1,930,890,0,0
-287,134,0,0,0,0,0,0,0,0,0,-1,937,890,0,0
-280,134,0,0,0,0,0,0,0,0,0,-1,944,890,0,0
-273,134,0,0,0,0,0,0,0,0,0,-1,951,890,0,0
-266,134,0,0,0,0,0,0,0,0,0,-1,958,890,0,0
-259,134,0,0,0,0,0,0,0,0,0,-1,965,890,0,0
-252,134,0,0,0,0,0,0,0,0,0,-1,972,890,0,0
-245,134,0,0,0,0,0,0,0,0,0,-1,979,890,0,0
-238,134,0,0,0,0,0,0,0,0,0,-1,986,890,0,0
-231,134,0,0,0,0,0,0,0,0,0,-1,993,890,0,0
-224,134,0,0,0,0,0,0,0,0,0,-1,1000,890,0,0
-217,134,0,0,0,0,0,0,0,0,0,-1,1007,890,0,0
-210,134,0,0,0,0,0,0,0,0,0,-1,1014,890,0,0
-203,134,0,0,0,0,0,0,0,0,0,-1,1021,890,0,0
-196,134,0,0,0,0,0,0,0,0,0,-1,1028,890,0,0
-189,134,0,0,0,0,0,0,0,0,0,-1,1035,890,0,0
-182,134,0,0,0,0,0,0,0,0,0,-1,1042,890,0,0
-175,134,0,0,0,0,0,0,0,0,0,-1,1049,890,0,0
-168,134,0,0,0,0,0,0,0,0,0,-1,1056,890,0,0
-161,134,0,0,0,0,0,0,0,0,0,-1,1063,890,0,0
-154,134,0,0,0,0,0,0,0,0,0,-1,1070,890,0,0
-147,134,0,0,0,0,0,0,0,0,0,-1,1077,890,0,0
-140,134,0,0,0,0,0,0,0,0,0,-1,1084,890,0,0
-133,134,0,0,0,0,0,0,0,0,0,-1,1091,890,0,0
-126,134,0,0,0,0,0,0,0,0,0,-1,1098,890,0,0
-119,134,0,0,0,0,0,0,0,0,0,-1,1105,890,0,0
-112,134,0,0,0,0,0,0,0,0,0,-1,1112,890,0,0
-105,134,0,0,0,0,0,0,0,0,0,-1,1119,890,0,0
-98,134,0,0,0,0,0,0,0,0,0,-1,1126,890,0,0
-91,134,0,0,0,0,0,0,0,0,0,-1,1133,890,0,0
-84,134,0,0,0,0,0,0,0,0,0,-1,1140,890,0,0
-77,134,0,0,0,0,0,0,0,0,0,-1,1147,890,0,0
-70,134,0,0,0,0,0,0,0,0,0,-1,1154,890,0,0
-63,134,0,0,0,0,0,0,0,0,0,-1,1161,890,0,0
-56,134,0,0,0,0,0,0,0,0,0,-1,1168,890,0,0
-49,134,0,0,0,0,0,0,0,0,0,-1,1175,890,0,0
-42,134,0,0,0,0,0,0,0,0,0,-1,1182,890,0,0
-35,134,0,0,0,0,0,0,0,0,0,-1,1189,890,0,0
-28,134,0,0,0,0,0,0,0,0,0,-1,1196,890,0,0
-21,134,0,0,0,0,0,0,0,0,0,-1,1203,890,0,0
-14,134,0,0,0,0,0,0,0,0,0,-1,1210,890,0,0
-7,134,0,0,0,0,0,0,0,0,0,-1,1217,890,0,0
0,134,0,0,0,0,0,0,0,0,0,-1,1224,890,0,0
7,134,0,0,0,0,0,0,0,0,0,-1,1231,890,0,0
14,134,0,0,0,0,0,0,0,0,0,-1,1238,890,0,0
21,134,0,0,0,0,0,0,0,0,0,-1,1245,890,0,0
28,134,0,0,0,0,0,0,0,0,0,-1,1252,890,0,0
35,134,0,0,0,0,0,0,0,0,0,-1,1259,890,0,0
42,134,0,0,0,0,0,0,0,0,0,-1,1266,890,0,0
49,134,0,0,0,0,0,0,0,0,0,-1,1273,890,0,0
56,134,0,0,0,0,0,0,0,0,0,-1,1280,890,0,0
63,134,0,0,0,0,0,0,0,0,0,-1,1287,890,0,0
70,134,0,0,0,0,0,0,0,0,0,-1,1294,890,0,0
77,134,0,0,0,0,0,0,0,0,0,-1,1301,890,0,0
84,134,0,0,0,0,0,0,0,0,0,-1,1308,890,0,0
91,134,0,0,0,0,0,0,0,0,0,-1,1315,890,0,0
98,134,0,0,0,0,0,0,0,0,0,-1,1322,890,0,0
105,134,0,0,0,0,0,0,0,0,0,-1,1329,890,0,0
112,134,0,0,0,0,0,0,0,0,0,-1,1336,890,0,0
119,134,0,0,0,0,0,0,0,0,0,-1,1343,890,0,0
126,134,0,0,0,0,0,0,0,0,0,-1,1350,890,0,0
133,134,0,0,0,0,0,0,0,0,0,-1,1357,890,0,0
140,134,0,0,0,0,0,0,0,0,0,-1,1364,890,0,0
147,134,0,0,0,0,0,0,0,0,0,-1,1371,890,0,0
154,134,0,0,0,0,0,0,0,0,0,-1,1378,890,0,0
161,134,0,0,0,0,0,0,0,0,0,-1,1385,890,0,0
168,134,0,0,0,0,0,0,0,0,0,-1,1392,890,0,0
175,134,0,0,0,0,0,0,0,0,0,-1,1399,890,0,0
182,134,0,0,0,0,0,0,0,0,0,-1,1406,890,0,0
189,134,0,0,0,0,0,0,0,0,0,-1,1413,890,0,0
196,134,0,0,0,0,0,0,0,0,0,-1,1420,890,0,0
203,134,0,0,0,0,0,0,0,0,0,-1,1427,890,0,0
210,134,0,0,0,0,0,0,0,0,0,-1,1434,890,0,0
217,134,0,0,0,0,0,0,0,0,0,-1,1441,890,0,0
224,134,0,0,0,0,0,0,0,0,0,-1,1448,890,0,0
231,134,0,0,0,0,0,0,0,0,0,-1,1455,890,0,0
238,134,0,0,0,0,0,0,0,0,0,-1,1462,890,0,0
245,134,0,0,0,0,0,0,0,0,0,-1,1469,890,0,0
252,134,0,0,0,0,0,0,0,0,0,-1,1476,890,0,0
259,134,0,0,0,0,0,0,0,0,0,-1,1483,890,0,0
266,134,0,0,0,0,0,0,0,0,0,-1,1490,890,0,0
273,134,0,0,0,0,0,0,0,0,0,-1,1497,890,0,0
280,134,0,0,0,0,0,0,0,0,0,-1,1504,890,0,0
287,134,0,0,0,0,0,0,0,0,0,-1,1511,890,0,0
294,134,0,0,0,0,0,0,0,0,0,-1,1518,890,0,0
301,134,0,0,0,0,0,0,0,0,0,-1,1525,890,0,0
308,134,0,0,0,0,0,0,0,0,0,-1,1532,890,0,0
315,134,0,0,0,0,0,0,0,0,0,-1,1539,890,0,0
322,134,0,0,0,0,0,0,0,0,0,-1,1546,890,0,0
329,134,0,0,0,0,0,0,0,0,0,-1,1553,890,0,0
336,134,0,0,0,0,0,0,0,0,0,-1,1560,890,0,0
343,134,0,0,0,0,0,0,0,0,0,-1,1567,890,0,0
350,134,0,0,0,0,0,0,0,0,0,-1,1574,890,0,0
357,134,0,0,0,0,0,0,0,0,0,-1,1581,890,0,0
364,134,0,0,0,0,0,0,0,0,0,-1,1588,890,0,0
371,134,0,0,0,0,0,0,0,0,0,-1,1595,890,0,0
378,134,0,0,0,0,0,0,0,0,0,-1,1602,890,0,0
385,134,0,0,0,0,0,0,0,0,0,-1,1609,890,0,0
392,134,0,0,0,0,0,0,0,0,0,-1,1616,890,0,0
399,134,0,0,0,0,0,0,0,0,0,-1,1623,890,0,0
406,134,0,0,0,0,0,0,0,0,0,-1,1630,890,0,0
413,134,0,0,0,0,0,0,0,0,0,-1,1637,890,0,0
420,134,0,0,0,0,0,0,0,0,0,-1,1644,890,0,0
427,134,0,0,0,0,0,0,0,0,0,-1,1651,890,0,0
434,134,0,0,0,0,0,0,0,0,0,-1,1658,890,0,0
441,134,0,0,0,0,0,0,0,0,0,-1,1665,890,0,0
448,134,0,0,0,0,0,0,0,0,0,-1,1672,890,0,0
455,134,0,0,0,0,0,0,0,0,0,-1,1679,890,0,0
462,134,0,0,0,0,0,0,0,0,0,-1,1686,890,0,0
469,134,0,0,0,0,0,0,0,0,0,-1,1693,890,0,0
476,134,0,0,0,0,0,0,0,0,0,-1,1700,890,0,0
483,134,0,0,0,0,0,0,0,0,0,-1,1707,890,0,0
490,134,0,0,0,0,0,0,0,0,0,-1,1714,890,0,0
497,134,0,0,0,0,0,0,0,0,0,-1,1721,890,0,0
504,134,0,0,0,0,0,0,0,0,0,-1,1728,890,0,0
511,134,0,0,0,0,0,0,0,0,0,-1,1735,890,0,0
518,134,0,0,0,0,0,0,0,0,0,-1,1742,890,0,0
525,134,0,0,0,0,0,0,0,0,0,-1,1749,890,0,0
532,134,0,0,0,0,0,0,0,0,0,-1,1756,890,0,0
539,134,0,0,0,0,0,0,0,0,0,-1,1763,890,0,0
546,134,0,0,0,0,0,0,0,0,0,-1,1770,890,0,0
553,134,0,0,0,0,0,0,0,0,0,-1,1777,890,0,0
560,134,0,0,0,0,0,0,0,0,0,-1,1784,890,0,0
567,134,0,0,0,0,0,0,0,0,0,-1,1791,890,0,0
574,134,0,0,0,0,0,0,0,0,0,-1,1798,890,0,0
581,134,0,0,0,0,0,0,0,0,0,-1,1805,890,0,0
588,134,0,0,0,0,0,0,0,0,0,-1,1812,890,0,0
595,134,0,0,0,0,0,0,0,0,0,-1,1819,890,0,0
602,134,0,0,0,0,0,0,0,0,0,-1,1826,890,0,0
609,134,0,0,0,0,0,0,0,0,0,-1,1833,890,0,0
616,134,0,0,0,0,0,0,0,0,0,-1,1840,890,0,0
623,134,64.9568,2.5166,-0.000217817,-0.00543545,7.00907e-05,-0.000216875,-0.00543639,0.0134302,0.00355417,0.042645,1847,890,64.9568,-2.51658
630,134,64.9633,2.48425,-0.00126639,-0.00427853,0.000460185,-0.00119765,-0.00434727,0.148272,0.00259286,0.044657,1854,890,64.9632,-2.48423
637,134,65.046,2.55823,-0.0018664,-0.00312558,0.000588903,-0.00163391,-0.00335808,0.376009,0.00193902,0.0436462,1861,890,65.0461,-2.5582
644,134,65.0746,2.65619,-0.00217449,-0.00210136,0.00056753,-0.00156922,-0.00270663,0.81757,0.00156929,0.0388345,1868,890,65.0746,-2.65619
651,134,64.9752,2.67969,-0.00227817,-0.00130156,0.000393163,-0.00116295,-0.00241678,1.23186,0.00139566,0.0423758,1875,890,64.9753,-2.67969
658,134,64.8865,2.70428,-0.00192875,-0.000810023,0.000176005,-0.000782986,-0.00195579,1.41838,0.00113663,0.0422779,1882,890,64.8865,-2.70431
665,134,64.8727,2.64166,-0.00166963,-4.77009e-05,-4.53802e-05,-4.64321e-05,-0.00167089,-1.54285,0.00109878,0.035501,1889,890,64.8727,-2.64164
672,134,64.9207,2.61755,-0.00147278,0.000211891,-0.000274034,0.000255346,-0.00151623,-1.41353,0.00110581,0.0220361,1896,890,64.9207,-2.61757
679,134,64.931,2.5957,-0.00121995,0.000241816,-0.000486931,0.000389165,-0.0013673,-1.27695,0.00106522,0.022676,1903,890,64.931,-2.59571
686,134,64.8992,2.61115,0,0,0,0,0,0,0,-1,1910,890,64.8992,-2.61115
693,134,34.5778,2.48096,0,0,0,0,0,0,0,-1,1917,890,34.5777,-2.48099
700,134,56.3152,2.14343,0,0,0,0,0,0,0,-1,1924,890,56.3151,-2.14343
707,134,56.3008,2.79504,-0.000754262,0.00115792,-0.00128191,0.00180102,-0.00139736,-1.10581,0.00185148,0.0311118,1931,890,56.3008,-2.79506
714,134,56.3762,3.60779,-0.000324413,0.00141951,-0.0015948,0.00236516,-0.00127006,-1.03557,0.0021303,0.0270284,1938,890,56.3763,-3.60776
721,134,56.4979,4.33716,-0.000303956,0.00185689,-0.00155897,0.00267323,-0.00112029,-1.08842,0.00225053,0.0253886,1945,890,56.498,-4.33717
728,134,56.5465,5.02448,-0.00058548,0.00215226,-0.00125889,0.00264312,-0.00107634,-1.19901,0.00221003,0.0219913,1952,890,56.5465,-5.02449
735,134,56.4802,5.83386,-0.000703615,0.00245073,-0.000778864,0.00263257,-0.000885448,-1.34144,0.00211297,0.0267899,1959,890,56.4802,-5.83389
742,134,56.4154,6.55133,-0.00061204,0.00299513,0.000181213,0.00300421,-0.00062112,1.52073,0.00223875,0.0183798,1966,890,56.4154,-6.55133
749,134,56.416,7.16687,-0.000182284,0.00349542,0.00188793,0.00429203,-0.000978896,1.17151,0.00323737,0.0138807,1973,890,56.416,-7.16684
756,134,56.3534,7.8009,0.000627499,0.00387881,0.00436805,0.0069139,-0.00240759,0.963542,0.00558746,0.0186906,1980,890,56.3534,-7.80087
763,134,56.4249,8.41626,0.00232065,0.00392307,0.00797888,0.0111409,-0.00489715,0.835439,0.00949056,0.0406801,1987,890,56.4249,-8.41627
770,134,56.5015,9.02179,0,0,0,0,0,0,0,-1,1994,890,56.5016,-9.02176
777,134,56.5676,10.374,0,0,0,0,0,0,0,-1,2001,890,56.5676,-10.374
784,134,59.4336,10.8775,0,0,0,0,0,0,0,-1,2008,890,59.4337,-10.8775
791,134,61.1787,12.2078,0,0,0,0,0,0,0,-1,2015,890,61.1787,-12.2078
798,134,0,0,0,0,0,0,0,0,0,-1,2022,890,0,0
805,134,0,0,0,0,0,0,0,0,0,-1,2029,890,0,0
812,134,0,0,0,0,0,0,0,0,0,-1,2036,890,0,0
-700,127,0,0,0,0,0,0,0,0,0,-1,524,897,0,0
-693,127,0,0,0,0,0,0,0,0,0,-1,531,897,0,0
-686,127,0,0,0,0,0,0,0,0,0,-1,538,897,0,0
-679,127,-44.2367,9.24554,0,0,0,0,0,0,0,-1,545,897,-44.2367,-9.24552
-672,127,-42.9291,8.97986,0,0,0,0,0,0,0,-1,552,897,-42.9291,-8.97984
-665,127,-46.9557,4.73889,0,0,0,0,0,0,0,-1,559,897,-46.9557,-4.73892
-658,127,-47.0855,5.22369,0,0,0,0,0,0,0,-1,566,897,-47.0855,-5.22369
-651,127,-45.4053,1.12958,0,0,0,0,0,0,0,-1,573,897,-45.4053,-1.12956
-644,127,-45.1658,0.2901,0,0,0,0,0,0,0,-1,580,897,-45.1658,-0.290085
-637,127,-44.8021,-0.573792,0,0,0,0,0,0,0,-1,587,897,-44.8021,0.573798
-630,127,-42.6658,6.00244,0,0,0,0,0,0,0,-1,594,897,-42.6658,-6.00243
-623,127,-42.7139,5.4632,-0.00409484,0.0132153,0.00442261,0.0142798,-0.00515932,1.3346,0.0116277,0.0187844,601,897,-42.7139,-5.46318
-616,127,-42.793,4.87518,-0.00754657,0.00874231,0.00394474,0.00964734,-0.0084516,1.34527,0.010457,0.0106663,608,897,-42.793,-4.87515
-609,127,-42.8799,4.24414,-0.00705435,0.00456986,0.00378477,0.00569353,-0.00817802,1.28219,0.00805145,0.0143715,615,897,-42.8799,-4.24412
-602,127,-42.8859,3.61908,-0.00686886,0.00241462,0.00392366,0.00385078,-0.00830502,1.21992,0.00717349,0.0169698,622,897,-42.8859,-3.61905
-595,127,-42.812,3.05292,-0.00644919,0.0015284,0.00375789,0.00301977,-0.00794056,1.193,0.00653708,0.032031,629,897,-42.812,-3.05293
-588,127,-42.7437,2.78534,0,0,0,0,0,0,0,-1,636,897,-42.7437,-2.78536
-581,127,-42.0992,1.35736,0,0,0,0,0,0,0,-1,643,897,-42.0993,-1.35736
-574,127,-25.2603,0.511169,0,0,0,0,0,0,0,-1,650,897,-25.2603,-0.51117
-567,127,-24.5417,-0.0447388,0,0,0,0,0,0,0,-1,657,897,-24.5417,0.0447226
-560,127,-18.9678,1.21667,0,0,0,0,0,0,0,-1,664,897,-18.9677,-1.2167
-553,127,-49.3508,0.933716,0,0,0,0,0,0,0,-1,671,897,-49.3508,-0.93373
-546,127,-49.3784,0.904846,-0.0044065,-0.000475183,0.00195049,0.000328314,-0.00521,1.18003,0.00358778,0.0231893,678,897,-49.3783,-0.904865
-539,127,-49.3906,0.880981,-0.00406719,-0.000418425,0.00139745,5.52866e-05,-0.0045409,1.24397,0.00304586,0.0209021,685,897,-49.3906,-0.880988
-532,127,-49.3813,0.88739,-0.00237799,-0.000369628,0.000749231,-0.000120922,-0.00262669,1.25029,0.00171225,0.017396,692,897,-49.3813,-0.887395
-525,127,-49.4718,1.04053,-0.000880321,-0.000575042,0.000104233,-0.000542848,-0.000912515,1.27123,0.000529994,0.0329106,699,897,-49.4718,-1.0405
-518,127,-49.4337,1.1474,0.00038346,-0.000645305,-0.000411022,0.000527507,-0.000789351,-0.337084,0.000765282,0.0426955,706,897,-49.4337,-1.14741
-511,127,-49.3839,1.03186,0.00208469,-0.000632117,-0.00119897,0.00253813,-0.00108556,-0.361569,0.00214744,0.0437502,713,897,-49.3839,-1.03183
-504,127,0,0,0,0,0,0,0,0,0,-1,720,897,0,0
-497,127,0,0,0,0,0,0,0,0,0,-1,727,897,0,0
-490,127,0,0,0,0,0,0,0,0,0,-1,734,897,0,0
-483,127,0,0,0,0,0,0,0,0,0,-1,741,897,0,0
-476,127,0,0,0,0,0,0,0,0,0,-1,748,897,0,0
-469,127,0,0,0,0,0,0,0,0,0,-1,755,897,0,0
-462,127,0,0,0,0,0,0,0,0,0,-1,762,897,0,0
-455,127,0,0,0,0,0,0,0,0,0,-1,769,897,0,0
-448,127,0,0,0,0,0,0,0,0,0,-1,776,897,0,0
-441,127,0,0,0,0,0,0,0,0,0,-1,783,897,0,0
-434,127,0,0,0,0,0,0,0,0,0,-1,790,897,0,0
-427,127,0,0,0,0,0,0,0,0,0,-1,797,897,0,0
-420,127,0,0,0,0,0,0,0,0,0,-1,804,897,0,0
-413,127,0,0,0,0,0,0,0,0,0,-1,811,897,0,0
-406,127,0,0,0,0,0,0,0,0,0,-1,818,897,0,0
-399,127,0,0,0,0,0,0,0,0,0,-1,825,897,0,0
-392,127,0,0,0,0,0,0,0,0,0,-1,832,897,0,0
-385,127,0,0,0,0,0,0,0,0,0,-1,839,897,0,0
-378,127,0,0,0,0,0,0,0,0,0,-1,846,897,0,0
-371,127,0,0,0,0,0,0,0,0,0,-1,853,897,0,0
-364,127,0,0,0,0,0,0,0,0,0,-1,860,897,0,0
-357,127,0,0,0,0,0,0,0,0,0,-1,867,897,0,0
-350,127,0,0,0,0,0,0,0,0,0,-1,874,897,0,0
-343,127,0,0,0,0,0,0,0,0,0,-1,881,897,0,0
-336,127,0,0,0,0,0,0,0,0,0,-1,888,897,0,0
-329,127,0,0,0,0,0,0,0,0,0,-1,895,897,0,0
-322,127,0,0,0,0,0,0,0,0,0,-1,902,897,0,0
-315,127,0,0,0,0,0,0,0,0,0,-1,909,897,0,0
-308,127,0,0,0,0,0,0,0,0,0,-1,916,897,0,0
-301,127,0,0,0,0,0,0,0,0,0,-1,923,897,0,0
-294,127,0,0,0,0,0,0,0,0,0,-1,930,897,0,0
-287,127,0,0,0,0,0,0,0,0,0,-1,937,897,0,0
-280,127,0,0,0,0,0,0,0,0,0,-1,944,897,0,0
-273,127,0,0,0,0,0,0,0,0,0,-1,951,897,0,0
-266,127,0,0,0,0,0,0,0,0,0,-1,958,897,0,0
-259,127,0,0,0,0,0,0,0,0,0,-1,965,897,0,0
-252,127,0,0,0,0,0,0,0,0,0,-1,972,897,0,0
-245,127,0,0,0,0,0,0,0,0,0,-1,979,897,0,0
-238,127,0,0,0,0,0,0,0,0,0,-1,986,897,0,0
-231,127,0,0,0,0,0,0,0,0,0,-1,993,897,0,0
-224,127,0,0,0,0,0,0,0,0,0,-1,1000,897,0,0
-217,127,0,0,0,0,0,0,0,0,0,-1,1007,897,0,0
-210,127,0,0,0,0,0,0,0,0,0,-1,1014,897,0,0
-203,127,0,0,0,0,0,0,0,0,0,-1,1021,897,0,0
-196,127,0,0,0,0,0,0,0,0,0,-1,1028,897,0,0
-189,127,0,0,0,0,0,0,0,0,0,-1,1035,897,0,0
-182,127,0,0,0,0,0,0,0,0,0,-1,1042,897,0,0
-175,127,0,0,0,0,0,0,0,0,0,-1,1049,897,0,0
-168,127,0,0,0,0,0,0,0,0,0,-1,1056,897,0,0
-161,127,0,0,0,0,0,0,0,0,0,-1,1063,897,0,0
-154,127,0,0,0,0,0,0,0,0,0,-1,1070,897,0,0
-147,127,0,0,0,0,0,0,0,0,0,-1,1077,897,0,0
-140,127,0,0,0,0,0,0,0,0,0,-1,1084,897,0,0
-133,127,0,0,0,0,0,0,0,0,0,-1,1091,897,0,0
-126,127,0,0,0,0,0,0,0,0,0,-1,1098,897,0,0
-119,127,0,0,0,0,0,0,0,0,0,-1,1105,897,0,0
-112,127,0,0,0,0,0,0,0,0,0,-1,1112,897,0,0
-105,127,0,0,0,0,0,0,0,0,0,-1,1119,897,0,0
-98,127,0,0,0,0,0,0,0,0,0,-1,1126,897,0,0
-91,127,0,0,0,0,0,0,0,0,0,-1,1133,897,0,0
-84,127,0,0,0,0,0,0,0,0,0,-1,1140,897,0,0
-77,127,0,0,0,0,0,0,0,0,0,-1,1147,897,0,0
-70,127,0,0,0,0,0,0,0,0,0,-1,1154,897,0,0
-63,127,0,0,0,0,0,0,0,0,0,-1,1161,897,0,0
-56,127,0,0,0,0,0,0,0,0,0,-1,1168,897,0,0
-49,127,0,0,0,0,0,0,0,0,0,-1,1175,897,0,0
-42,127,0,0,0,0,0,0,0,0,0,-1,1182,897,0,0
-35,127,0,0,0,0,0,0,0,0,0,-1,1189,897,0,0
-28,127,0,0,0,0,0,0,0,0,0,-1,1196,897,0,0
-21,127,0,0,0,0,0,0,0,0,0,-1,1203,897,0,0
-14,127,0,0,0,0,0,0,0,0,0,-1,1210,897,0,0
-7,127,0,0,0,0,0,0,0,0,0,-1,1217,897,0,0
0,127,0,0,0,0,0,0,0,0,0,-1,1224,897,0,0
7,127,0,0,0,0,0,0,0,0,0,-1,1231,897,0,0
14,127,0,0,0,0,0,0,0,0,0,-1,1238,897,0,0
21,127,0,0,0,0,0,0,0,0,0,-1,1245,897,0,0
28,127,0,0,0,0,0,0,0,0,0,-1,1252,897,0,0
35,127,0,0,0,0,0,0,0,0,0,-1,1259,897,0,0
42,127,0,0,0,0,0,0,0,0,0,-1,1266,897,0,0
49,127,0,0,0,0,0,0,0,0,0,-1,1273,897,0,0
56,127,0,0,0,0,0,0,0,0,0,-1,1280,897,0,0
63,127,0,0,0,0,0,0,0,0,0,-1,1287,897,0,0
70,127,0,0,0,0,0,0,0,0,0,-1,1294,897,0,0
77,127,0,0,0,0,0,0,0,0,0,-1,1301,897,0,0
84,127,0,0,0,0,0,0,0,0,0,-1,1308,897,0,0
91,127,0,0,0,0,0,0,0,0,0,-1,1315,897,0,0
98,127,0,0,0,0,0,0,0,0,0,-1,1322,897,0,0
105,127,0,0,0,0,0,0,0,0,0,-1,1329,897,0,0
112,127,0,0,0,0,0,0,0,0,0,-1,1336,897,0,0
119,127,0,0,0,0,0,0,0,0,0,-1,1343,897,0,0
126,127,0,0,0,0,0,0,0,0,0,-1,1350,897,0,0
133,127,0,0,0,0,0,0,0,0,0,-1,1357,897,0,0
140,127,0,0,0,0,0,0,0,0,0,-1,1364,897,0,0
147,127,0,0,0,0,0,0,0,0,0,-1,1371,897,0,0
154,127,0,0,0,0,0,0,0,0,0,-1,1378,897,0,0
161,127,0,0,0,0,0,0,0,0,0,-1,1385,897,0,0
168,127,0,0,0,0,0,0,0,0,0,-1,1392,897,0,0
175,127,0,0,0,0,0,0,0,0,0,-1,1399,897,0,0
182,127,0,0,0,0,0,0,0,0,0,-1,1406,897,0,0
189,127,0,0,0,0,0,0,0,0,0,-1,1413,897,0,0
196,127,0,0,0,0,0,0,0,0,0,-1,1420,897,0,0
203,127,0,0,0,0,0,0,0,0,0,-1,1427,897,0,0
210,127,0,0,0,0,0,0,0,0,0,-1,1434,897,0,0
217,127,0,0,0,0,0,0,0,0,0,-1,1441,897,0,0
224,127,0,0,0,0,0,0,0,0,0,-1,1448,897,0,0
231,127,0,0,0,0,0,0,0,0,0,-1,1455,897,0,0
238,127,0,0,0,0,0,0,0,0,0,-1,1462,897,0,0
245,127,0,0,0,0,0,0,0,0,0,-1,1469,897,0,0
252,127,0,0,0,0,0,0,0,0,0,-1,1476,897,0,0
259,127,0,0,0,0,0,0,0,0,0,-1,1483,897,0,0
266,127,0,0,0,0,0,0,0,0,0,-1,1490,897,0,0
273,127,0,0,0,0,0,0,0,0,0,-1,1497,897,0,0
280,127,0,0,0,0,0,0,0,0,0,-1,1504,897,0,0
287,127,0,0,0,0,0,0,0,0,0,-1,1511,897,0,0
294,127,0,0,0,0,0,0,0,0,0,-1,1518,897,0,0
301,127,0,0,0,0,0,0,0,0,0,-1,1525,897,0,0
308,127,0,0,0,0,0,0,0,0,0,-1,1532,897,0,0
315,127,0,0,0,0,0,0,0,0,0,-1,1539,897,0,0
322,127,0,0,0,0,0,0,0,0,0,-1,1546,897,0,0
329,127,0,0,0,0,0,0,0,0,0,-1,1553,897,0,0
336,127,0,0,0,0,0,0,0,0,0,-1,1560,897,0,0
343,127,0,0,0,0,0,0,0,0,0,-1,1567,897,0,0
350,127,0,0,0,0,0,0,0,0,0,-1,1574,897,0,0
357,127,0,0,0,0,0,0,0,0,0,-1,1581,897,0,0
364,127,0,0,0,0,0,0,0,0,0,-1,1588,897,0,0
371,127,0,0,0,0,0,0,0,0,0,-1,1595,897,0,0
378,127,0,0,0,0,0,0,0,0,0,-1,1602,897,0,0
385,127,0,0,0,0,0,0,0,0,0,-1,1609,897,0,0
392,127,0,0,0,0,0,0,0,0,0,-1,1616,897,0,0
399,127,0,0,0,0,0,0,0,0,0,-1,1623,897,0,0
406,127,0,0,0,0,0,0,0,0,0,-1,1630,897,0,0
413,127,0,0,0,0,0,0,0,0,0,-1,1637,897,0,0
420,127,0,0,0,0,0,0,0,0,0,-1,1644,897,0,0
427,127,0,0,0,0,0,0,0,0,0,-1,1651,897,0,0
434,127,0,0,0,0,0,0,0,0,0,-1,1658,897,0,0
441,127,0,0,0,0,0,0,0,0,0,-1,1665,897,0,0
448,127,0,0,0,0,0,0,0,0,0,-1,1672,897,0,0
455,127,0,0,0,0,0,0,0,0,0,-1,1679,897,0,0
462,127,0,0,0,0,0,0,0,0,0,-1,1686,897,0,0
469,127,0,0,0,0,0,0,0,0,0,-1,1693,897,0,0
476,127,0,0,0,0,0,0,0,0,0,-1,1700,897,0,0
483,127,0,0,0,0,0,0,0,0,0,-1,1707,897,0,0
490,127,0,0,0,0,0,0,0,0,0,-1,1714,897,0,0
497,127,0,0,0,0,0,0,0,0,0,-1,1721,897,0,0
504,127,0,0,0,0,0,0,0,0,0,-1,1728,897,0,0
511,127,0,0,0,0,0,0,0,0,0,-1,1735,897,0,0
518,127,0,0,0,0,0,0,0,0,0,-1,1742,897,0,0
525,127,0,0,0,0,0,0,0,0,0,-1,1749,897,0,0
532,127,0,0,0,0,0,0,0,0,0,-1,1756,897,0,0
539,127,0,0,0,0,0,0,0,0,0,-1,1763,897,0,0
546,127,0,0,0,0,0,0,0,0,0,-1,1770,897,0,0
553,127,0,0,0,0,0,0,0,0,0,-1,1777,897,0,0
560,127,0,0,0,0,0,0,0,0,0,-1,1784,897,0,0
567,127,0,0,0,0,0,0,0,0,0,-1,1791,897,0,0
574,127,0,0,0,0,0,0,0,0,0,-1,1798,897,0,0
581,127,0,0,0,0,0,0,0,0,0,-1,1805,897,0,0
588,127,0,0,0,0,0,0,0,0,0,-1,1812,897,0,0
595,127,0,0,0,0,0,0,0,0,0,-1,1819,897,0,0
602,127,0,0,0,0,0,0,0,0,0,-1,1826,897,0,0
609,127,0,0,0,0,0,0,0,0,0,-1,1833,897,0,0
616,127,0,0,0,0,0,0,0,0,0,-1,1840,897,0,0
623,127,0,0,0,0,0,0,0,0,0,-1,1847,897,0,0
630,127,64.9812,2.74091,-0.00154373,-0.00415225,0.000761265,-0.00133782,-0.00435816,0.264165,0.00257793,0.0390736,1854,897,64.9813,-2.74092
637,127,65.0448,2.80969,-0.00220025,-0.00319097,0.000870099,-0.00169439,-0.00369684,0.526624,0.00213684,0.0403291,1861,897,65.0448,-2.80966
644,127,64.9633,2.63879,-0.00255755,-0.00222478,0.000829402,-0.00154524,-0.00323709,0.884389,0.00186958,0.039738,1868,897,64.9633,-2.63876
651,127,64.9049,2.54736,-0.0026548,-0.00139691,0.000675835,-0.00110264,-0.00294907,1.16013,0.0017206,0.043602,1875,897,64.9049,-2.54735
658,127,64.8363,2.66003,-0.0022734,-0.000767786,0.000499711,-0.000617028,-0.00242416,1.27779,0.00145472,0.0433243,1882,897,64.8362,-2.66
665,127,64.8452,2.70978,-0.00184205,0.000111577,0.000279255,0.000150711,-0.00188118,1.43157,0.00130726,0.0405015,1889,897,64.8452,-2.70977
672,127,64.8805,2.61188,-0.00155221,0.00040428,7.47132e-05,0.000407129,-0.00155506,1.53268,0.00119575,0.0333388,1896,897,64.8805,-2.61186
679,127,64.929,2.61975,-0.00123997,0.000439322,-0.000131525,0.000449561,-0.0012502,-1.49311,0.001017,0.0244336,1903,897,64.929,-2.61978
686,127,64.9199,2.62506,0,0,0,0,0,0,0,-1,1910,897,64.9199,-2.62507
693,127,59.2523,2.33673,0,0,0,0,0,0,0,-1,1917,897,59.2524,-2.33674
700,127,56.9305,2.09698,0,0,0,0,0,0,0,-1,1924,897,56.9305,-2.097
707,127,56.8816,2.85449,-0.000865619,0.00142476,-0.00110658,0.00187204,-0.0013129,-1.18667,0.00184825,0.0449769,1931,897,56.8816,-2.85448
714,127,57.274,3.65607,-0.000423269,0.00168224,-0.00148031,0.00244597,-0.001187,-1.09449,0.00213907,0.0256772,1938,897,57.2741,-3.65606
721,127,57.3766,4.49915,-0.000449483,0.0020442,-0.0014919,0.00274168,-0.00114696,-1.13348,0.00230718,0.0244491,1945,897,57.3766,-4.49917
728,127,57.2551,5.12726,-0.000834713,0.00227498,-0.00126949,0.00272741,-0.00128714,-1.22844,0.002367,0.0221561,1952,897,57.2551,-5.12726
735,127,57.1731,5.82404,-0.00101819,0.00258029,-0.000957715,0.0028193,-0.0012572,-1.32622,0.00241048,0.0214889,1959,897,57.1731,-5.82406
742,127,57.1229,6.50763,-0.000962685,0.00322021,-0.000198112,0.00322957,-0.000972047,-1.52357,0.00253984,0.0206018,1966,897,57.1229,-6.50765
749,127,57.088,7.17426,-0.00046269,0.00390754,0.00135584,0.004294,-0.000849156,1.29312,0.0031837,0.0143045,1973,897,57.088,-7.17423
756,127,57.0182,7.77063,0.000586446,0.0045174,0.00373893,0.00677599,-0.00167214,1.02739,0.00516572,0.0162325,1980,897,57.0182,-7.77061
763,127,56.9468,8.34277,0.00260468,0.00482563,0.00718089,0.0109814,-0.00355109,0.862112,0.00874826,0.0256272,1987,897,56.9468,-8.3428
770,127,56.9331,8.91528,0,0,0,0,0,0,0,-1,1994,897,56.9332,-8.91526
777,127,42.703,5.33789,0,0,0,0,0,0,0,-1,2001,897,42.7031,-5.33791
784,127,62.5146,11.5556,0,0,0,0,0,0,0,-1,2008,897,62.5146,-11.5556
791,127,63.4036,12.2262,0,0,0,0,0,0,0,-1,2015,897,63.4036,-12.2262
798,127,0,0,0,0,0,0,0,0,0,-1,2022,897,0,0
805,127,0,0,0,0,0,0,0,0,0,-1,2029,897,0,0
812,127,0,0,0,0,0,0,0,0,0,-1,2036,897,0,0
-700,120,0,0,0,0,0,0,0,0,0,-1,524,904,0,0
-693,120,0,0,0,0,0,0,0,0,0,-1,531,904,0,0
-686,120,0,0,0,0,0,0,0,0,0,-1,538,904,0,0
-679,120,-44.5529,9.40143,0.128753,0.0282971,-0.0105366,0.129846,0.0272038,-0.103389,0.0790719,0.0442752,545,904,-44.5529,-9.40145
-672,120,-43.42,8.84698,0.0961476,0.0324527,-0.00701794,0.0969117,0.0316886,-0.108447,0.0570576,0.0448227,552,904,-43.42,-8.84696
-665,120,-42.2731,8.21509,0,0,0,0,0,0,0,-1,559,904,-42.2731,-8.21508
-658,120,-46.6157,5.52161,0,0,0,0,0,0,0,-1,566,904,-46.6157,-5.52162
-651,120,-45.6656,2.29791,0,0,0,0,0,0,0,-1,573,904,-45.6656,-2.29794
-644,120,-45.5677,1.49896,0,0,0,0,0,0,0,-1,580,904,-45.5677,-1.49897
-637,120,-43.3138,6.54651,0,0,0,0,0,0,0,-1,587,904,-43.3138,-6.54649
-630,120,-43.3292,6.03705,0.000719881,0.0163995,0.00429604,0.0174994,-0.000380028,1.32015,0.011795,0.035454,594,904,-43.3292,-6.03706
-623,120,-43.4286,5.4538,-0.0054885,0.0124532,0.00513909,0.0138209,-0.00685624,1.31068,0.0121616,0.0128096,601,904,-43.4286,-5.45377
-616,120,-43.4891,4.84991,-0.00828787,0.00806587,0.00452256,0.00923324,-0.00945524,1.31819,0.0107901,0.0107035,608,904,-43.4891,-4.84988
-609,120,-43.5239,4.2514,-0.00738111,0.00396404,0.00404946,0.00526113,-0.0086782,1.26081,0.00812808,0.0133263,615,904,-43.5239,-4.25143
-602,120,-43.5522,3.63977,-0.00689198,0.00199738,0.0038765,0.00345036,-0.00834497,1.21219,0.00700275,0.0161564,622,904,-43.5522,-3.6398
-595,120,-43.455,3.06708,-0.006318,0.00123598,0.00355275,0.00264433,-0.00772635,1.19339,0.00622254,0.0334588,629,904,-43.455,-3.0671
-588,120,-43.4139,2.65021,0,0,0,0,0,0,0,-1,636,904,-43.4139,-2.6502
-581,120,-43.4983,1.96808,0,0,0,0,0,0,0,-1,643,904,-43.4983,-1.96807
-574,120,-27.5438,0.505066,0,0,0,0,0,0,0,-1,650,904,-27.5438,-0.505085
-567,120,-25.2822,-0.410645,0,0,0,0,0,0,0,-1,657,904,-25.2821,0.410629
-560,120,-27.3358,1.10327,0,0,0,0,0,0,0,-1,664,904,-27.3358,-1.10324
-553,120,-49.3888,1.04816,0,0,0,0,0,0,0,-1,671,904,-49.3888,-1.04815
-546,120,-49.3541,0.973633,-0.00400293,-0.000548944,0.00144747,-2.25645e-05,-0.00452931,1.22201,0.00301205,0.0309473,678,904,-49.3541,-0.97365
-539,120,-49.2855,0.931152,-0.00351691,-0.00037215,0.00086985,-0.000147582,-0.00374147,1.31815,0.0024466,0.0269574,685,904,-49.2854,-0.931143
-532,120,-49.2962,1.03918,-0.00181148,-0.000188661,0.000317254,-0.000128844,-0.0018713,1.38444,0.00120688,0.0283184,692,904,-49.2962,-1.03918
-525,120,-49.4941,1.04993,-0.000623459,-0.000293988,-0.000171661,-0.000220805,-0.000696643,-1.1678,0.000411093,0.0361638,699,904,-49.4941,-1.04994
-518,120,-49.4965,1.08887,0.000266741,-0.00037482,-0.000634555,0.000656988,-0.000765067,-0.551371,0.000821814,0.0397407,706,904,-49.4965,-1.08889
-511,120,-49.3434,0.993713,0.00156796,-0.000420264,-0.00138514,0.0022788,-0.00113111,-0.474146,0.00200554,0.040241,713,904,-49.3434,-0.993715
-504,120,0,0,0,0,0,0,0,0,0,-1,720,904,0,0
-497,120,0,0,0,0,0,0,0,0,0,-1,727,904,0,0
-490,120,0,0,0,0,0,0,0,0,0,-1,734,904,0,0
-483,120,0,0,0,0,0,0,0,0,0,-1,741,904,0,0
-476,120,0,0,0,0,0,0,0,0,0,-1,748,904,0,0
-469,120,0,0,0,0,0,0,0,0,0,-1,755,904,0,0
-462,120,0,0,0,0,0,0,0,0,0,-1,762,904,0,0
-455,120,0,0,0,0,0,0,0,0,0,-1,769,904,0,0
-448,120,0,0,0,0,0,0,0,0,0,-1,776,904,0,0
-441,120,0,0,0,0,0,0,0,0,0,-1,783,904,0,0
-434,120,0,0,0,0,0,0,0,0,0,-1,790,904,0,0
-427,120,0,0,0,0,0,0,0,0,0,-1,797,904,0,0
-420,120,0,0,0,0,0,0,0,0,0,-1,804,904,0,0
-413,120,0,0,0,0,0,0,0,0,0,-1,811,904,0,0
-406,120,0,0,0,0,0,0,0,0,0,-1,818,904,0,0
-399,120,0,0,0,0,0,0,0,0,0,-1,825,904,0,0
-392,120,0,0,0,0,0,0,0,0,0,-1,832,904,0,0
-385,120,0,0,0,0,0,0,0,0,0,-1,839,904,0,0
-378,120,0,0,0,0,0,0,0,0,0,-1,846,904,0,0
-371,120,0,0,0,0,0,0,0,0,0,-1,853,904,0,0
-364,120,0,0,0,0,0,0,0,0,0,-1,860,904,0,0
-357,120,0,0,0,0,0,0,0,0,0,-1,867,904,0,0
-350,120,0,0,0,0,0,0,0,0,0,-1,874,904,0,0
-343,120,0,0,0,0,0,0,0,0,0,-1,881,904,0,0
-336,120,0,0,0,0,0,0,0,0,0,-1,888,904,0,0
-329,120,0,0,0,0,0,0,0,0,0,-1,895,904,0,0
-322,120,0,0,0,0,0,0,0,0,0,-1,902,904,0,0
-315,120,0,0,0,0,0,0,0,0,0,-1,909,904,0,0
-308,120,0,0,0,0,0,0,0,0,0,-1,916,904,0,0
-301,120,0,0,0,0,0,0,0,0,0,-1,923,904,0,0
-294,120,0,0,0,0,0,0,0,0,0,-1,930,904,0,0
-287,120,0,0,0,0,0,0,0,0,0,-1,937,904,0,0
-280,120,0,0,0,0,0,0,0,0,0,-1,944,904,0,0
-273,120,0,0,0,0,0,0,0,0,0,-1,951,904,0,0
-266,120,0,0,0,0,0,0,0,0,0,-1,958,904,0,0
-259,120,0,0,0,0,0,0,0,0,0,-1,965,904,0,0
-252,120,0,0,0,0,0,0,0,0,0,-1,972,904,0,0
-245,120,0,0,0,0,0,0,0,0,0,-1,979,904,0,0
-238,120,0,0,0,0,0,0,0,0,0,-1,986,904,0,0
-231,120,0,0,0,0,0,0,0,0,0,-1,993,904,0,0
-224,120,0,0,0,0,0,0,0,0,0,-1,1000,904,0,0
-217,120,0,0,0,0,0,0,0,0,0,-1,1007,904,0,0
-210,120,0,0,0,0,0,0,0,0,0,-1,1014,904,0,0
-203,120,0,0,0,0,0,0,0,0,0,-1,1021,904,0,0
-196,120,0,0,0,0,0,0,0,0,0,-1,1028,904,0,0
-189,120,0,0,0,0,0,0,0,0,0,-1,1035,904,0,0
-182,120,0,0,0,0,0,0,0,0,0,-1,1042,904,0,0
-175,120,0,0,0,0,0,0,0,0,0,-1,1049,904,0,0
-168,120,0,0,0,0,0,0,0,0,0,-1,1056,904,0,0
-161,120,0,0,0,0,0,0,0,0,0,-1,1063,904,0,0
-154,120,0,0,0,0,0,0,0,0,0,-1,1070,904,0,0
-147,120,0,0,0,0,0,0,0,0,0,-1,1077,904,0,0
-140,120,0,0,0,0,0,0,0,0,0,-1,1084,904,0,0
-133,120,0,0,0,0,0,0,0,0,0,-1,1091,904,0,0
-126,120,0,0,0,0,0,0,0,0,0,-1,1098,904,0,0
-119,120,0,0,0,0,0,0,0,0,0,-1,1105,904,0,0
-112,120,0,0,0,0,0,0,0,0,0,-1,1112,904,0,0
-105,120,0,0,0,0,0,0,0,0,0,-1,1119,904,0,0
-98,120,0,0,0,0,0,0,0,0,0,-1,1126,904,0,0
-91,120,0,0,0,0,0,0,0,0,0,-1,1133,904,0,0
-84,120,0,0,0,0,0,0,0,0,0,-1,1140,904,0,0
-77,120,0,0,0,0,0,0,0,0,0,-1,1147,904,0,0
-70,120,0,0,0,0,0,0,0,0,0,-1,1154,904,0,0
-63,120,0,0,0,0,0,0,0,0,0,-1,1161,904,0,0
-56,120,0,0,0,0,0,0,0,0,0,-1,1168,904,0,0
-49,120,0,0,0,0,0,0,0,0,0,-1,1175,904,0,0
-42,120,0,0,0,0,0,0,0,0,0,-1,1182,904,0,0
-35,120,0,0,0,0,0,0,0,0,0,-1,1189,904,0,0
-28,120,0,0,0,0,0,0,0,0,0,-1,1196,904,0,0
-21,120,0,0,0,0,0,0,0,0,0,-1,1203,904,0,0
-14,120,0,0,0,0,0,0,0,0,0,-1,1210,904,0,0
-7,120,0,0,0,0,0,0,0,0,0,-1,1217,904,0,0
0,120,0,0,0,0,0,0,0,0,0,-1,1224,904,0,0
7,120,0,0,0,0,0,0,0,0,0,-1,1231,904,0,0
14,120,0,0,0,0,0,0,0,0,0,-1,1238,904,0,0
21,120,0,0,0,0,0,0,0,0,0,-1,1245,904,0,0
28,120,0,0,0,0,0,0,0,0,0,-1,1252,904,0,0
35,120,0,0,0,0,0,0,0,0,0,-1,1259,904,0,0
42,120,0,0,0,0,0,0,0,0,0,-1,1266,904,0,0
49,120,0,0,0,0,0,0,0,0,0,-1,1273,904,0,0
56,120,0,0,0,0,0,0,0,0,0,-1,1280,904,0,0
63,120,0,0,0,0,0,0,0,0,0,-1,1287,904,0,0
70,120,0,0,0,0,0,0,0,0,0,-1,1294,904,0,0
77,120,0,0,0,0,0,0,0,0,0,-1,1301,904,0,0
84,120,0,0,0,0,0,0,0,0,0,-1,1308,904,0,0
91,120,0,0,0,0,0,0,0,0,0,-1,1315,904,0,0
98,120,0,0,0,0,0,0,0,0,0,-1,1322,904,0,0
105,120,0,0,0,0,0,0,0,0,0,-1,1329,904,0,0
112,120,0,0,0,0,0,0,0,0,0,-1,1336,904,0,0
119,120,0,0,0,0,0,0,0,0,0,-1,1343,904,0,0
126,120,0,0,0,0,0,0,0,0,0,-1,1350,904,0,0
133,120,0,0,0,0,0,0,0,0,0,-1,1357,904,0,0
140,120,0,0,0,0,0,0,0,0,0,-1,1364,904,0,0
147,120,0,0,0,0,0,0,0,0,0,-1,1371,904,0,0
154,120,0,0,0,0,0,0,0,0,0,-1,1378,904,0,0
161,120,0,0,0,0,0,0,0,0,0,-1,1385,904,0,0
168,120,0,0,0,0,0,0,0,0,0,-1,1392,904,0,0
175,120,0,0,0,0,0,0,0,0,0,-1,1399,904,0,0
182,120,0,0,0,0,0,0,0,0,0,-1,1406,904,0,0
189,120,0,0,0,0,0,0,0,0,0,-1,1413,904,0,0
196,120,0,0,0,0,0,0,0,0,0,-1,1420,904,0,0
203,120,0,0,0,0,0,0,0,0,0,-1,1427,904,0,0
210,120,0,0,0,0,0,0,0,0,0,-1,1434,904,0,0
217,120,0,0,0,0,0,0,0,0,0,-1,1441,904,0,0
224,120,0,0,0,0,0,0,0,0,0,-1,1448,904,0,0
231,120,0,0,0,0,0,0,0,0,0,-1,1455,904,0,0
238,120,0,0,0,0,0,0,0,0,0,-1,1462,904,0,0
245,120,0,0,0,0,0,0,0,0,0,-1,1469,904,0,0
252,120,0,0,0,0,0,0,0,0,0,-1,1476,904,0,0
259,120,0,0,0,0,0,0,0,0,0,-1,1483,904,0,0
266,120,0,0,0,0,0,0,0,0,0,-1,1490,904,0,0
273,120,0,0,0,0,0,0,0,0,0,-1,1497,904,0,0
280,120,0,0,0,0,0,0,0,0,0,-1,1504,904,0,0
287,120,0,0,0,0,0,0,0,0,0,-1,1511,904,0,0
294,120,0,0,0,0,0,0,0,0,0,-1,1518,904,0,0
301,120,0,0,0,0,0,0,0,0,0,-1,1525,904,0,0
308,120,0,0,0,0,0,0,0,0,0,-1,1532,904,0,0
315,120,0,0,0,0,0,0,0,0,0,-1,1539,904,0,0
322,120,0,0,0,0,0,0,0,0,0,-1,1546,904,0,0
329,120,0,0,0,0,0,0,0,0,0,-1,1553,904,0,0
336,120,0,0,0,0,0,0,0,0,0,-1,1560,904,0,0
343,120,0,0,0,0,0,0,0,0,0,-1,1567,904,0,0
350,120,0,0,0,0,0,0,0,0,0,-1,1574,904,0,0
357,120,0,0,0,0,0,0,0,0,0,-1,1581,904,0,0
364,120,0,0,0,0,0,0,0,0,0,-1,1588,904,0,0
371,120,0,0,0,0,0,0,0,0,0,-1,1595,904,0,0
378,120,0,0,0,0,0,0,0,0,0,-1,1602,904,0,0
385,120,0,0,0,0,0,0,0,0,0,-1,1609,904,0,0
392,120,0,0,0,0,0,0,0,0,0,-1,1616,904,0,0
399,120,0,0,0,0,0,0,0,0,0,-1,1623,904,0,0
406,120,0,0,0,0,0,0,0,0,0,-1,1630,904,0,0
413,120,0,0,0,0,0,0,0,0,0,-1,1637,904,0,0
420,120,0,0,0,0,0,0,0,0,0,-1,1644,904,0,0
427,120,0,0,0,0,0,0,0,0,0,-1,1651,904,0,0
434,120,0,0,0,0,0,0,0,0,0,-1,1658,904,0,0
441,120,0,0,0,0,0,0,0,0,0,-1,1665,904,0,0
448,120,0,0,0,0,0,0,0,0,0,-1,1672,904,0,0
455,120,0,0,0,0,0,0,0,0,0,-1,1679,904,0,0
462,120,0,0,0,0,0,0,0,0,0,-1,1686,904,0,0
469,120,0,0,0,0,0,0,0,0,0,-1,1693,904,0,0
476,120,0,0,0,0,0,0,0,0,0,-1,1700,904,0,0
483,120,0,0,0,0,0,0,0,0,0,-1,1707,904,0,0
490,120,0,0,0,0,0,0,0,0,0,-1,1714,904,0,0
497,120,0,0,0,0,0,0,0,0,0,-1,1721,904,0,0
504,120,0,0,0,0,0,0,0,0,0,-1,1728,904,0,0
511,120,0,0,0,0,0,0,0,0,0,-1,1735,904,0,0
518,120,0,0,0,0,0,0,0,0,0,-1,1742,904,0,0
525,120,0,0,0,0,0,0,0,0,0,-1,1749,904,0,0
532,120,0,0,0,0,0,0,0,0,0,-1,1756,904,0,0
539,120,0,0,0,0,0,0,0,0,0,-1,1763,904,0,0
546,120,0,0,0,0,0,0,0,0,0,-1,1770,904,0,0
553,120,0,0,0,0,0,0,0,0,0,-1,1777,904,0,0
560,120,0,0,0,0,0,0,0,0,0,-1,1784,904,0,0
567,120,0,0,0,0,0,0,0,0,0,-1,1791,904,0,0
574,120,0,0,0,0,0,0,0,0,0,-1,1798,904,0,0
581,120,0,0,0,0,0,0,0,0,0,-1,1805,904,0,0
588,120,0,0,0,0,0,0,0,0,0,-1,1812,904,0,0
595,120,0,0,0,0,0,0,0,0,0,-1,1819,904,0,0
602,120,0,0,0,0,0,0,0,0,0,-1,1826,904,0,0
609,120,0,0,0,0,0,0,0,0,0,-1,1833,904,0,0
616,120,0,0,0,0,0,0,0,0,0,-1,1840,904,0,0
623,120,0,0,0,0,0,0,0,0,0,-1,1847,904,0,0
630,120,64.8984,2.77496,-0.00114855,-0.0041527,0.00132593,-0.000647051,-0.0046542,0.361596,0.00291119,0.0396022,1854,904,64.8984,-2.77495
637,120,64.8199,2.79871,-0.00198783,-0.00322148,0.00135288,-0.0011178,-0.00409152,0.57151,0.0024419,0.0429687,1861,904,64.82,-2.79868
644,120,65.0082,2.66425,-0.00252983,-0.00223521,0.00121877,-0.00115488,-0.00361017,0.84554,0.00212893,0.041867,1868,904,65.0082,-2.66426
651,120,64.958,2.59906,-0.002743,-0.00134064,0.00100193,-0.000818906,-0.00326474,1.0907,0.00196136,0.0428484,1875,904,64.958,-2.59907
658,120,64.9451,2.70166,-0.00245915,-0.000556958,0.000789938,-0.000271694,-0.00274441,1.22425,0.0017461,0.0425061,1882,904,64.9451,-2.70168
665,120,64.9016,2.78607,-0.00194966,0.000438624,0.000532778,0.000552086,-0.00206312,1.36097,0.00159169,0.0372137,1889,904,64.9016,-2.78608
672,120,64.8868,2.69958,-0.00164099,0.000777962,0.000334107,0.000823261,-0.00168628,1.43604,0.00147717,0.0348715,1896,904,64.8868,-2.69958
679,120,64.8497,2.67157,-0.00130341,0.000803606,0.000146376,0.000813726,-0.00131353,1.50177,0.00123942,0.0310409,1903,904,64.8498,-2.67158
686,120,64.8636,2.64709,-0.00110277,0.000965365,-8.40071e-05,0.000968772,-0.00110617,-1.53027,0.00119885,0.0293233,1910,904,64.8636,-2.64708
693,120,64.9908,2.573,0,0,0,0,0,0,0,-1,1917,904,64.9909,-2.573
700,120,42.2007,3.00946,0,0,0,0,0,0,0,-1,1924,904,42.2007,-3.00944
707,120,57.6184,3.11005,0,0,0,0,0,0,0,-1,1931,904,57.6185,-3.11006
714,120,58.3409,3.74896,0,0,0,0,0,0,0,-1,1938,904,58.3409,-3.74897
721,120,58.0626,4.66626,-0.000828902,0.00225892,-0.0014075,0.0028042,-0.00137418,-1.20119,0.00245903,0.0229205,1945,904,58.0627,-4.66627
728,120,57.9384,5.30206,-0.00130838,0.00242706,-0.00121691,0.00278852,-0.00166984,-1.28207,0.00260091,0.0156423,1952,904,57.9384,-5.30207
735,120,57.8763,5.87085,-0.00155766,0.00271069,-0.00102445,0.00294384,-0.0017908,-1.34703,0.00276043,0.0142447,1959,904,57.8763,-5.87086
742,120,57.8087,6.51361,-0.00153497,0.00342973,-0.000453478,0.00347081,-0.00157606,-1.48045,0.00298147,0.0153823,1966,904,57.8087,-6.5136
749,120,57.7841,7.16205,-0.000975971,0.00431115,0.000927302,0.00446908,-0.00113389,1.40211,0.00342058,0.0118183,1973,904,57.7841,-7.16203
756,120,57.7089,7.78143,0.000291876,0.0051473,0.00319223,0.00673009,-0.00129091,1.11049,0.0049732,0.0142486,1980,904,57.7089,-7.78143
763,120,57.6022,8.37433,0.00256707,0.00569842,0.00644552,0.0107657,-0.00250021,0.904545,0.00813955,0.0307974,1987,904,57.6022,-8.37435
770,120,57.5195,8.98419,0,0,0,0,0,0,0,-1,1994,904,57.5196,-8.98417
777,120,59.313,9.57587,0,0,0,0,0,0,0,-1,2001,904,59.3129,-9.57587
784,120,60.7788,13.7254,0,0,0,0,0,0,0,-1,2008,904,60.7789,-13.7254
791,120,65.2546,12.2073,0,0,0,0,0,0,0,-1,2015,904,65.2548,-12.2073
798,120,60.5566,12.1177,0,0,0,0,0,0,0,-1,2022,904,60.5567,-12.1177
805,120,0,0,0,0,0,0,0,0,0,-1,2029,904,0,0
812,120,0,0,0,0,0,0,0,0,0,-1,2036,904,0,0
-700,113,0,0,0,0,0,0,0,0,0,-1,524,911,0,0
-693,113,0,0,0,0,0,0,0,0,0,-1,531,911,0,0
-686,113,0,0,0,0,0,0,0,0,0,-1,538,911,0,0
-679,113,-45.0302,9.62762,0.110949,0.0321004,-0.0108245,0.112408,0.0306414,-0.133982,0.0670988,0.0468501,545,911,-45.0302,-9.62761
-672,113,-44.0753,8.71204,0.0830148,0.0338845,-0.00711118,0.0840233,0.0328759,-0.14089,0.0488917,0.0499739,552,911,-44.0753,-8.71205
-665,113,-43.197,7.89325,0,0,0,0,0,0,0,-1,559,911,-43.197,-7.89325
-658,113,-47.8414,9.80499,0,0,0,0,0,0,0,-1,566,911,-47.8413,-9.80502
-651,113,-46.564,6.46753,0,0,0,0,0,0,0,-1,573,911,-46.564,-6.46752
-644,113,-43.8709,7.25995,0,0,0,0,0,0,0,-1,580,911,-43.8709,-7.25994
-637,113,-44.0205,6.55664,0.00397889,0.0208024,0.00375006,0.0216005,0.00318084,1.36111,0.0134659,0.0475812,587,911,-44.0205,-6.55666
-630,113,-44.0001,6.03528,-0.00160334,0.0162115,0.00462355,0.01734,-0.00273182,1.3314,0.0125699,0.0228555,594,911,-44.0001,-6.03527
-623,113,-44.1181,5.44055,-0.00672624,0.011998,0.00552465,0.0135065,-0.00823477,1.30424,0.0126747,0.012948,601,911,-44.1181,-5.44056
-616,113,-44.1584,4.8421,-0.00874293,0.00754169,0.00488217,0.00889321,-0.0100944,1.30073,0.0109698,0.0111051,608,911,-44.1585,-4.84212
-609,113,-44.1713,4.28729,-0.00754288,0.00339746,0.00419672,0.00482187,-0.00896728,1.24359,0.0080802,0.0112077,615,911,-44.1713,-4.28731
-602,113,-44.1827,3.63446,-0.00686356,0.00150259,0.00377869,0.00295659,-0.00831755,1.20347,0.00674997,0.0206529,622,911,-44.1827,-3.63444
-595,113,-44.2095,3.16431,-0.00620622,0.000793212,0.00334248,0.00213294,-0.00754594,1.18959,0.00587218,0.029068,629,911,-44.2095,-3.16428
-588,113,-44.1655,2.54126,0,0,0,0,0,0,0,-1,636,911,-44.1655,-2.54124
-581,113,-44.1487,1.9035,0,0,0,0,0,0,0,-1,643,911,-44.1487,-1.90352
-574,113,-44.1842,1.10004,0,0,0,0,0,0,0,-1,650,911,-44.1842,-1.10004
-567,113,-21.8396,0.437378,0,0,0,0,0,0,0,-1,657,911,-21.8396,-0.437351
-560,113,-49.3315,1.04742,0,0,0,0,0,0,0,-1,664,911,-49.3316,-1.0474
-553,113,-49.3941,0.953796,-0.00376401,-0.000686885,0.00136234,-0.000170416,-0.00428048,1.20843,0.00279858,0.0450355,671,911,-49.3941,-0.953811
-546,113,-49.396,0.842834,-0.00366342,-0.000537951,0.000902643,-0.000295996,-0.00390537,1.3089,0.00251074,0.0340372,678,911,-49.396,-0.84284
-539,113,-49.2301,0.844238,-0.00309511,-0.000178929,0.000315707,-0.000145142,-0.0031289,1.46418,0.00203927,0.0370805,685,911,-49.2301,-0.844239
-532,113,-49.1117,0.963196,-0.00154412,0.000221909,-0.00017058,0.000238235,-0.00156045,-1.47538,0.00112812,0.0387503,692,911,-49.1117,-0.963195
-525,113,-49.3062,1.03571,-0.000765423,0.000266199,-0.000565621,0.000515887,-0.00101511,-1.15508,0.000899449,0.0381288,699,911,-49.3062,-1.0357
-518,113,-49.4337,1.1488,-0.000215241,0.000203457,-0.0010637,0.00107822,-0.00109,-0.882562,0.00125183,0.0390199,706,911,-49.4337,-1.1488
-511,113,-49.4482,1.25958,0.000746103,0.000111772,-0.00182309,0.00227941,-0.00142153,-0.699274,0.00215579,0.040598,713,911,-49.4482,-1.25956
-504,113,0,0,0,0,0,0,0,0,0,-1,720,911,0,0
-497,113,0,0,0,0,0,0,0,0,0,-1,727,911,0,0
-490,113,0,0,0,0,0,0,0,0,0,-1,734,911,0,0
-483,113,0,0,0,0,0,0,0,0,0,-1,741,911,0,0
-476,113,0,0,0,0,0,0,0,0,0,-1,748,911,0,0
-469,113,0,0,0,0,0,0,0,0,0,-1,755,911,0,0
-462,113,0,0,0,0,0,0,0,0,0,-1,762,911,0,0
-455,113,0,0,0,0,0,0,0,0,0,-1,769,911,0,0
-448,113,0,0,0,0,0,0,0,0,0,-1,776,911,0,0
-441,113,0,0,0,0,0,0,0,0,0,-1,783,911,0,0
-434,113,0,0,0,0,0,0,0,0,0,-1,790,911,0,0
-427,113,0,0,0,0,0,0,0,0,0,-1,797,911,0,0
-420,113,0,0,0,0,0,0,0,0,0,-1,804,911,0,0
-413,113,0,0,0,0,0,0,0,0,0,-1,811,911,0,0
-406,113,0,0,0,0,0,0,0,0,0,-1,818,911,0,0
-399,113,0,0,0,0,0,0,0,0,0,-1,825,911,0,0
-392,113,0,0,0,0,0,0,0,0,0,-1,832,911,0,0
-385,113,0,0,0,0,0,0,0,0,0,-1,839,911,0,0
-378,113,0,0,0,0,0,0,0,0,0,-1,846,911,0,0
-371,113,0,0,0,0,0,0,0,0,0,-1,853,911,0,0
-364,113,0,0,0,0,0,0,0,0,0,-1,860,911,0,0
-357,113,0,0,0,0,0,0,0,0,0,-1,867,911,0,0
-350,113,0,0,0,0,0,0,0,0,0,-1,874,911,0,0
-343,113,0,0,0,0,0,0,0,0,0,-1,881,911,0,0
-336,113,0,0,0,0,0,0,0,0,0,-1,888,911,0,0
-329,113,0,0,0,0,0,0,0,0,0,-1,895,911,0,0
-322,113,0,0,0,0,0,0,0,0,0,-1,902,911,0,0
-315,113,0,0,0,0,0,0,0,0,0,-1,909,911,0,0
-308,113,0,0,0,0,0,0,0,0,0,-1,916,911,0,0
-301,113,0,0,0,0,0,0,0,0,0,-1,923,911,0,0
-294,113,0,0,0,0,0,0,0,0,0,-1,930,911,0,0
-287,113,0,0,0,0,0,0,0,0,0,-1,937,911,0,0
-280,113,0,0,0,0,0,0,0,0,0,-1,944,911,0,0
-273,113,0,0,0,0,0,0,0,0,0,-1,951,911,0,0
-266,113,0,0,0,0,0,0,0,0,0,-1,958,911,0,0
-259,113,0,0,0,0,0,0,0,0,0,-1,965,911,0,0
-252,113,0,0,0,0,0,0,0,0,0,-1,972,911,0,0
-245,113,0,0,0,0,0,0,0,0,0,-1,979,911,0,0
-238,113,0,0,0,0,0,0,0,0,0,-1,986,911,0,0
-231,113,0,0,0,0,0,0,0,0,0,-1,993,911,0,0
-224,113,0,0,0,0,0,0,0,0,0,-1,1000,911,0,0
-217,113,0,0,0,0,0,0,0,0,0,-1,1007,911,0,0
-210,113,0,0,0,0,0,0,0,0,0,-1,1014,911,0,0
-203,113,0,0,0,0,0,0,0,0,0,-1,1021,911,0,0
-196,113,0,0,0,0,0,0,0,0,0,-1,1028,911,0,0
-189,113,0,0,0,0,0,0,0,0,0,-1,1035,911,0,0
-182,113,0,0,0,0,0,0,0,0,0,-1,1042,911,0,0
-175,113,0,0,0,0,0,0,0,0,0,-1,1049,911,0,0
-168,113,0,0,0,0,0,0,0,0,0,-1,1056,911,0,0
-161,113,0,0,0,0,0,0,0,0,0,-1,1063,911,0,0
-154,113,0,0,0,0,0,0,0,0,0,-1,1070,911,0,0
-147,113,0,0,0,0,0,0,0,0,0,-1,1077,911,0,0
-140,113,0,0,0,0,0,0,0,0,0,-1,1084,911,0,0
-133,113,0,0,0,0,0,0,0,0,0,-1,1091,911,0,0
-126,113,0,0,0,0,0,0,0,0,0,-1,1098,911,0,0
-119,113,0,0,0,0,0,0,0,0,0,-1,1105,911,0,0
-112,113,0,0,0,0,0,0,0,0,0,-1,1112,911,0,0
-105,113,0,0,0,0,0,0,0,0,0,-1,1119,911,0,0
-98,113,0,0,0,0,0,0,0,0,0,-1,1126,911,0,0
-91,113,0,0,0,0,0,0,0,0,0,-1,1133,911,0,0
-84,113,0,0,0,0,0,0,0,0,0,-1,1140,911,0,0
-77,113,0,0,0,0,0,0,0,0,0,-1,1147,911,0,0
-70,113,0,0,0,0,0,0,0,0,0,-1,1154,911,0,0
-63,113,0,0,0,0,0,0,0,0,0,-1,1161,911,0,0
-56,113,0,0,0,0,0,0,0,0,0,-1,1168,911,0,0
-49,113,0,0,0,0,0,0,0,0,0,-1,1175,911,0,0
-42,113,0,0,0,0,0,0,0,0,0,-1,1182,911,0,0
-35,113,0,0,0,0,0,0,0,0,0,-1,1189,911,0,0
-28,113,0,0,0,0,0,0,0,0,0,-1,1196,911,0,0
-21,113,0,0,0,0,0,0,0,0,0,-1,1203,911,0,0
-14,113,0,0,0,0,0,0,0,0,0,-1,1210,911,0,0
-7,113,0,0,0,0,0,0,0,0,0,-1,1217,911,0,0
0,113,0,0,0,0,0,0,0,0,0,-1,1224,911,0,0
7,113,0,0,0,0,0,0,0,0,0,-1,1231,911,0,0
14,113,0,0,0,0,0,0,0,0,0,-1,1238,911,0,0
21,113,0,0,0,0,0,0,0,0,0,-1,1245,911,0,0
28,113,0,0,0,0,0,0,0,0,0,-1,1252,911,0,0
35,113,0,0,0,0,0,0,0,0,0,-1,1259,911,0,0
42,113,0,0,0,0,0,0,0,0,0,-1,1266,911,0,0
49,113,0,0,0,0,0,0,0,0,0,-1,1273,911,0,0
56,113,0,0,0,0,0,0,0,0,0,-1,1280,911,0,0
63,113,0,0,0,0,0,0,0,0,0,-1,1287,911,0,0
70,113,0,0,0,0,0,0,0,0,0,-1,1294,911,0,0
77,113,0,0,0,0,0,0,0,0,0,-1,1301,911,0,0
84,113,0,0,0,0,0,0,0,0,0,-1,1308,911,0,0
91,113,0,0,0,0,0,0,0,0,0,-1,1315,911,0,0
98,113,0,0,0,0,0,0,0,0,0,-1,1322,911,0,0
105,113,0,0,0,0,0,0,0,0,0,-1,1329,911,0,0
112,113,0,0,0,0,0,0,0,0,0,-1,1336,911,0,0
119,113,0,0,0,0,0,0,0,0,0,-1,1343,911,0,0
126,113,0,0,0,0,0,0,0,0,0,-1,1350,911,0,0
133,113,0,0,0,0,0,0,0,0,0,-1,1357,911,0,0
140,113,0,0,0,0,0,0,0,0,0,-1,1364,911,0,0
147,113,0,0,0,0,0,0,0,0,0,-1,1371,911,0,0
154,113,0,0,0,0,0,0,0,0,0,-1,1378,911,0,0
161,113,0,0,0,0,0,0,0,0,0,-1,1385,911,0,0
168,113,0,0,0,0,0,0,0,0,0,-1,1392,911,0,0
175,113,0,0,0,0,0,0,0,0,0,-1,1399,911,0,0
182,113,0,0,0,0,0,0,0,0,0,-1,1406,911,0,0
189,113,0,0,0,0,0,0,0,0,0,-1,1413,911,0,0
196,113,0,0,0,0,0,0,0,0,0,-1,1420,911,0,0
203,113,0,0,0,0,0,0,0,0,0,-1,1427,911,0,0
210,113,0,0,0,0,0,0,0,0,0,-1,1434,911,0,0
217,113,0,0,0,0,0,0,0,0,0,-1,1441,911,0,0
224,113,0,0,0,0,0,0,0,0,0,-1,1448,911,0,0
231,113,0,0,0,0,0,0,0,0,0,-1,1455,911,0,0
238,113,0,0,0,0,0,0,0,0,0,-1,1462,911,0,0
245,113,0,0,0,0,0,0,0,0,0,-1,1469,911,0,0
252,113,0,0,0,0,0,0,0,0,0,-1,1476,911,0,0
259,113,0,0,0,0,0,0,0,0,0,-1,1483,911,0,0
266,113,0,0,0,0,0,0,0,0,0,-1,1490,911,0,0
273,113,0,0,0,0,0,0,0,0,0,-1,1497,911,0,0
280,113,0,0,0,0,0,0,0,0,0,-1,1504,911,0,0
287,113,0,0,0,0,0,0,0,0,0,-1,1511,911,0,0
294,113,0,0,0,0,0,0,0,0,0,-1,1518,911,0,0
301,113,0,0,0,0,0,0,0,0,0,-1,1525,911,0,0
308,113,0,0,0,0,0,0,0,0,0,-1,1532,911,0,0
315,113,0,0,0,0,0,0,0,0,0,-1,1539,911,0,0
322,113,0,0,0,0,0,0,0,0,0,-1,1546,911,0,0
329,113,0,0,0,0,0,0,0,0,0,-1,1553,911,0,0
336,113,0,0,0,0,0,0,0,0,0,-1,1560,911,0,0
343,113,0,0,0,0,0,0,0,0,0,-1,1567,911,0,0
350,113,0,0,0,0,0,0,0,0,0,-1,1574,911,0,0
357,113,0,0,0,0,0,0,0,0,0,-1,1581,911,0,0
364,113,0,0,0,0,0,0,0,0,0,-1,1588,911,0,0
371,113,0,0,0,0,0,0,0,0,0,-1,1595,911,0,0
378,113,0,0,0,0,0,0,0,0,0,-1,1602,911,0,0
385,113,0,0,0,0,0,0,0,0,0,-1,1609,911,0,0
392,113,0,0,0,0,0,0,0,0,0,-1,1616,911,0,0
399,113,0,0,0,0,0,0,0,0,0,-1,1623,911,0,0
406,113,0,0,0,0,0,0,0,0,0,-1,1630,911,0,0
413,113,0,0,0,0,0,0,0,0,0,-1,1637,911,0,0
420,113,0,0,0,0,0,0,0,0,0,-1,1644,911,0,0
427,113,0,0,0,0,0,0,0,0,0,-1,1651,911,0,0
434,113,0,0,0,0,0,0,0,0,0,-1,1658,911,0,0
441,113,0,0,0,0,0,0,0,0,0,-1,1665,911,0,0
448,113,0,0,0,0,0,0,0,0,0,-1,1672,911,0,0
455,113,0,0,0,0,0,0,0,0,0,-1,1679,911,0,0
462,113,0,0,0,0,0,0,0,0,0,-1,1686,911,0,0
469,113,0,0,0,0,0,0,0,0,0,-1,1693,911,0,0
476,113,0,0,0,0,0,0,0,0,0,-1,1700,911,0,0
483,113,0,0,0,0,0,0,0,0,0,-1,1707,911,0,0
490,113,0,0,0,0,0,0,0,0,0,-1,1714,911,0,0
497,113,0,0,0,0,0,0,0,0,0,-1,1721,911,0,0
504,113,0,0,0,0,0,0,0,0,0,-1,1728,911,0,0
511,113,0,0,0,0,0,0,0,0,0,-1,1735,911,0,0
518,113,0,0,0,0,0,0,0,0,0,-1,1742,911,0,0
525,113,0,0,0,0,0,0,0,0,0,-1,1749,911,0,0
532,113,0,0,0,0,0,0,0,0,0,-1,1756,911,0,0
539,113,0,0,0,0,0,0,0,0,0,-1,1763,911,0,0
546,113,0,0,0,0,0,0,0,0,0,-1,1770,911,0,0
553,113,0,0,0,0,0,0,0,0,0,-1,1777,911,0,0
560,113,0,0,0,0,0,0,0,0,0,-1,1784,911,0,0
567,113,0,0,0,0,0,0,0,0,0,-1,1791,911,0,0
574,113,0,0,0,0,0,0,0,0,0,-1,1798,911,0,0
581,113,0,0,0,0,0,0,0,0,0,-1,1805,911,0,0
588,113,0,0,0,0,0,0,0,0,0,-1,1812,911,0,0
595,113,0,0,0,0,0,0,0,0,0,-1,1819,911,0,0
602,113,0,0,0,0,0,0,0,0,0,-1,1826,911,0,0
609,113,0,0,0,0,0,0,0,0,0,-1,1833,911,0,0
616,113,0,0,0,0,0,0,0,0,0,-1,1840,911,0,0
623,113,0,0,0,0,0,0,0,0,0,-1,1847,911,0,0
630,113,64.9266,2.79803,-0.000379721,-0.00351529,0.00151726,0.000234244,-0.00412926,0.384511,0.00283415,0.0409426,1854,911,64.9266,-2.79803
637,113,64.8486,2.88501,-0.00139391,-0.00279618,0.001543,-0.000400214,-0.00378988,0.572146,0.00240431,0.0420137,1861,911,64.8486,-2.88503
644,113,64.7721,2.90594,-0.00213907,-0.00192839,0.00139407,-0.000635679,-0.00343177,0.823108,0.00210815,0.041376,1868,911,64.7721,-2.90596
651,113,65.3981,2.49133,0,0,0,0,0,0,0,-1,1875,911,65.3981,-2.49134
658,113,65.2512,2.62469,-0.00250381,-0.000324472,0.000982,5.27267e-05,-0.00288101,1.20406,0.00193849,0.0445935,1882,911,65.2512,-2.62467
665,113,65.0175,2.83032,-0.00205964,0.000654181,0.000735339,0.00084062,-0.00224608,1.32249,0.00184266,0.0392282,1889,911,65.0175,-2.83032
672,113,64.8347,2.79694,-0.0018352,0.000970904,0.000569771,0.00108218,-0.00194648,1.37792,0.00177217,0.0375281,1896,911,64.8347,-2.79692
679,113,64.8038,2.67322,-0.00154271,0.000957221,0.000410163,0.0010228,-0.00160829,1.41226,0.00153154,0.032738,1903,911,64.8038,-2.67325
686,113,64.8685,2.64142,-0.00131629,0.00106233,0.000162508,0.00107338,-0.00132734,1.5029,0.00138864,0.0268406,1910,911,64.8686,-2.64141
693,113,64.9305,2.57111,0,0,0,0,0,0,0,-1,1917,911,64.9306,-2.5711
700,113,43.897,2.79669,0,0,0,0,0,0,0,-1,1924,911,43.897,-2.79671
707,113,58.5348,3.41534,0,0,0,0,0,0,0,-1,1931,911,58.5348,-3.41535
714,113,58.6133,4.0025,-0.00116522,0.00200125,-0.00125587,0.00243887,-0.00160284,-1.2355,0.00235007,0.0291619,1938,911,58.6133,-4.00253
721,113,58.6096,4.59644,-0.00128456,0.00226298,-0.00130008,0.0026884,-0.00170999,-1.25455,0.00256027,0.0259569,1945,911,58.6096,-4.59645
728,113,58.6459,5.28888,-0.00179052,0.00243496,-0.00112369,0.0027152,-0.00207076,-1.32639,0.00277151,0.0261104,1952,911,58.6458,-5.28887
735,113,58.5618,5.92767,-0.00200896,0.00277273,-0.00103867,0.0029886,-0.00222483,-1.36588,0.00302073,0.0216945,1959,911,58.5618,-5.92766
742,113,58.4768,6.51056,-0.00193878,0.00363279,-0.000660807,0.00371009,-0.00201609,-1.45435,0.00335389,0.0135736,1966,911,58.4768,-6.51053
749,113,58.4761,7.15326,-0.00128157,0.00477492,0.000520563,0.00481933,-0.00132599,1.48568,0.0037342,0.0106204,1973,911,58.4761,-7.15329
756,113,58.3999,7.81598,0.000179344,0.0059094,0.0026491,0.00694644,-0.000857692,1.19767,0.00494173,0.0153076,1980,911,58.3999,-7.81598
763,113,58.243,8.5592,0.00259965,0.00675906,0.00570367,0.0107503,-0.00139164,0.960221,0.00767296,0.0383554,1987,911,58.2431,-8.5592
770,113,58.1531,9.31,0,0,0,0,0,0,0,-1,1994,911,58.153,-9.30999
777,113,58.1719,9.65338,0,0,0,0,0,0,0,-1,2001,911,58.172,-9.6534
784,113,59.4839,11.6239,0,0,0,0,0,0,0,-1,2008,911,59.4839,-11.6239
791,113,58.9817,11.2714,0,0,0,0,0,0,0,-1,2015,911,58.9818,-11.2714
798,113,59.0127,11.0225,0,0,0,0,0,0,0,-1,2022,911,59.0128,-11.0225
805,113,0,0,0,0,0,0,0,0,0,-1,2029,911,0,0
812,113,0,0,0,0,0,0,0,0,0,-1,2036,911,0,0
-700,106,0,0,0,0,0,0,0,0,0,-1,524,918,0,0
-693,106,0,0,0,0,0,0,0,0,0,-1,531,918,0,0
-686,106,0,0,0,0,0,0,0,0,0,-1,538,918,0,0
-679,106,-45.7091,9.62073,0,0,0,0,0,0,0,-1,545,918,-45.7091,-9.62076
-672,106,-45.5679,8.75854,0,0,0,0,0,0,0,-1,552,918,-45.5679,-8.75854
-665,106,-45.3455,9.64636,0,0,0,0,0,0,0,-1,559,918,-45.3455,-9.64637
-658,106,-47.0354,9.36285,0,0,0,0,0,0,0,-1,566,918,-47.0354,-9.36287
-651,106,-43.818,8.30768,0,0,0,0,0,0,0,-1,573,918,-43.818,-8.30765
-644,106,-44.0474,7.5047,0,0,0,0,0,0,0,-1,580,918,-44.0474,-7.50468
-637,106,-44.2217,6.70215,0.000533856,0.0217921,0.00480387,0.0228272,-0.000501303,1.35856,0.015388,0.0350562,587,918,-44.2217,-6.70215
-630,106,-44.6006,6.08234,-0.00373394,0.016736,0.00552466,0.0181319,-0.00512981,1.32331,0.0141121,0.0167517,594,918,-44.6006,-6.08235
-623,106,-44.7996,5.3905,-0.00749494,0.0120875,0.00617214,0.0138706,-0.00927797,1.28957,0.0134522,0.0179274,601,918,-44.7996,-5.39048
-616,106,-44.8644,4.78973,-0.00870472,0.00754547,0.00528485,0.00911299,-0.0102722,1.28246,0.0111987,0.0180837,608,918,-44.8645,-4.78974
-609,106,-44.8301,4.26831,-0.00742954,0.00342558,0.00423296,0.00488107,-0.00888503,1.23961,0.00805914,0.0131819,615,918,-44.8301,-4.2683
-602,106,-44.8376,3.66888,-0.0066876,0.0015815,0.0035062,0.00286802,-0.00797411,1.21912,0.00648697,0.02262,622,918,-44.8377,-3.66889
-595,106,-44.9967,3.11267,-0.00598704,0.000849364,0.00295758,0.00195127,-0.00708894,1.21416,0.00549315,0.0276713,629,918,-44.9967,-3.1127
-588,106,-45.125,2.54547,0,0,0,0,0,0,0,-1,636,918,-45.125,-2.54549
-581,106,-44.8282,1.86194,0,0,0,0,0,0,0,-1,643,918,-44.8282,-1.86196
-574,106,-44.9775,1.25195,0,0,0,0,0,0,0,-1,650,918,-44.9775,-1.25197
-567,106,-41.3706,0.420776,0,0,0,0,0,0,0,-1,657,918,-41.3706,-0.420794
-560,106,-49.2833,1.03088,0,0,0,0,0,0,0,-1,664,918,-49.2833,-1.0309
-553,106,-49.4337,0.927368,-0.00346147,-0.000460161,0.0006832,-0.00031196,-0.00360967,1.35718,0.00230949,0.0335109,671,918,-49.4337,-0.927346
-546,106,-49.5016,0.709778,-0.00329067,-0.000166411,0.000208132,-0.000152606,-0.00330447,1.50457,0.00215392,0.037359,678,918,-49.5017,-0.709788
-539,106,-49.358,0.519104,-0.00267307,0.000357477,-0.000343088,0.000395833,-0.00271143,-1.45946,0.00195298,0.0405422,685,918,-49.358,-0.519107
-532,106,-49.1583,0.583252,-0.00134671,0.000916627,-0.0007342,0.00113393,-0.00156401,-1.28304,0.00156424,0.040666,692,918,-49.1583,-0.583259
-525,106,-49.2942,0.89093,-0.000961186,0.00117445,-0.00107589,0.00162247,-0.00140921,-1.17621,0.00175178,0.0382427,699,918,-49.2942,-0.890911
-518,106,-49.4187,1.1355,-0.000676305,0.00134147,-0.00160811,0.00223097,-0.0015658,-1.06555,0.00220325,0.0397183,706,918,-49.4187,-1.13547
-511,106,0,0,0,0,0,0,0,0,0,-1,713,918,0,0
-504,106,0,0,0,0,0,0,0,0,0,-1,720,918,0,0
-497,106,0,0,0,0,0,0,0,0,0,-1,727,918,0,0
-490,106,0,0,0,0,0,0,0,0,0,-1,734,918,0,0
-483,106,0,0,0,0,0,0,0,0,0,-1,741,918,0,0
-476,106,0,0,0,0,0,0,0,0,0,-1,748,918,0,0
-469,106,0,0,0,0,0,0,0,0,0,-1,755,918,0,0
-462,106,0,0,0,0,0,0,0,0,0,-1,762,918,0,0
-455,106,0,0,0,0,0,0,0,0,0,-1,769,918,0,0
-448,106,0,0,0,0,0,0,0,0,0,-1,776,918,0,0
-441,106,0,0,0,0,0,0,0,0,0,-1,783,918,0,0
-434,106,0,0,0,0,0,0,0,0,0,-1,790,918,0,0
-427,106,0,0,0,0,0,0,0,0,0,-1,797,918,0,0
-420,106,0,0,0,0,0,0,0,0,0,-1,804,918,0,0
-413,106,0,0,0,0,0,0,0,0,0,-1,811,918,0,0
-406,106,0,0,0,0,0,0,0,0,0,-1,818,918,0,0
-399,106,0,0,0,0,0,0,0,0,0,-1,825,918,0,0
-392,106,0,0,0,0,0,0,0,0,0,-1,832,918,0,0
-385,106,0,0,0,0,0,0,0,0,0,-1,839,918,0,0
-378,106,0,0,0,0,0,0,0,0,0,-1,846,918,0,0
-371,106,0,0,0,0,0,0,0,0,0,-1,853,918,0,0
-364,106,0,0,0,0,0,0,0,0,0,-1,860,918,0,0
-357,106,0,0,0,0,0,0,0,0,0,-1,867,918,0,0
-350,106,0,0,0,0,0,0,0,0,0,-1,874,918,0,0
-343,106,0,0,0,0,0,0,0,0,0,-1,881,918,0,0
-336,106,0,0,0,0,0,0,0,0,0,-1,888,918,0,0
-329,106,0,0,0,0,0,0,0,0,0,-1,895,918,0,0
-322,106,0,0,0,0,0,0,0,0,0,-1,902,918,0,0
-315,106,0,0,0,0,0,0,0,0,0,-1,909,918,0,0
-308,106,0,0,0,0,0,0,0,0,0,-1,916,918,0,0
-301,106,0,0,0,0,0,0,0,0,0,-1,923,918,0,0
-294,106,0,0,0,0,0,0,0,0,0,-1,930,918,0,0
-287,106,0,0,0,0,0,0,0,0,0,-1,937,918,0,0
-280,106,0,0,0,0,0,0,0,0,0,-1,944,918,0,0
-273,106,0,0,0,0,0,0,0,0,0,-1,951,918,0,0
-266,106,0,0,0,0,0,0,0,0,0,-1,958,918,0,0
-259,106,0,0,0,0,0,0,0,0,0,-1,965,918,0,0
-252,106,0,0,0,0,0,0,0,0,0,-1,972,918,0,0
-245,106,0,0,0,0,0,0,0,0,0,-1,979,918,0,0
-238,106,0,0,0,0,0,0,0,0,0,-1,986,918,0,0
-231,106,0,0,0,0,0,0,0,0,0,-1,993,918,0,0
-224,106,0,0,0,0,0,0,0,0,0,-1,1000,918,0,0
-217,106,0,0,0,0,0,0,0,0,0,-1,1007,918,0,0
-210,106,0,0,0,0,0,0,0,0,0,-1,1014,918,0,0
-203,106,0,0,0,0,0,0,0,0,0,-1,1021,918,0,0
-196,106,0,0,0,0,0,0,0,0,0,-1,1028,918,0,0
-189,106,0,0,0,0,0,0,0,0,0,-1,1035,918,0,0
-182,106,0,0,0,0,0,0,0,0,0,-1,1042,918,0,0
-175,106,0,0,0,0,0,0,0,0,0,-1,1049,918,0,0
-168,106,0,0,0,0,0,0,0,0,0,-1,1056,918,0,0
-161,106,0,0,0,0,0,0,0,0,0,-1,1063,918,0,0
-154,106,0,0,0,0,0,0,0,0,0,-1,1070,918,0,0
-147,106,0,0,0,0,0,0,0,0,0,-1,1077,918,0,0
-140,106,0,0,0,0,0,0,0,0,0,-1,1084,918,0,0
-133,106,0,0,0,0,0,0,0,0,0,-1,1091,918,0,0
-126,106,0,0,0,0,0,0,0,0,0,-1,1098,918,0,0
-119,106,0,0,0,0,0,0,0,0,0,-1,1105,918,0,0
-112,106,0,0,0,0,0,0,0,0,0,-1,1112,918,0,0
-105,106,0,0,0,0,0,0,0,0,0,-1,1119,918,0,0
-98,106,0,0,0,0,0,0,0,0,0,-1,1126,918,0,0
-91,106,0,0,0,0,0,0,0,0,0,-1,1133,918,0,0
-84,106,0,0,0,0,0,0,0,0,0,-1,1140,918,0,0
-77,106,0,0,0,0,0,0,0,0,0,-1,1147,918,0,0
-70,106,0,0,0,0,0,0,0,0,0,-1,1154,918,0,0
-63,106,0,0,0,0,0,0,0,0,0,-1,1161,918,0,0
-56,106,0,0,0,0,0,0,0,0,0,-1,1168,918,0,0
-49,106,0,0,0,0,0,0,0,0,0,-1,1175,918,0,0
-42,106,0,0,0,0,0,0,0,0,0,-1,1182,918,0,0
-35,106,0,0,0,0,0,0,0,0,0,-1,1189,918,0,0
-28,106,0,0,0,0,0,0,0,0,0,-1,1196,918,0,0
-21,106,0,0,0,0,0,0,0,0,0,-1,1203,918,0,0
-14,106,0,0,0,0,0,0,0,0,0,-1,1210,918,0,0
-7,106,0,0,0,0,0,0,0,0,0,-1,1217,918,0,0
0,106,0,0,0,0,0,0,0,0,0,-1,1224,918,0,0
7,106,0,0,0,0,0,0,0,0,0,-1,1231,918,0,0
14,106,0,0,0,0,0,0,0,0,0,-1,1238,918,0,0
21,106,0,0,0,0,0,0,0,0,0,-1,1245,918,0,0
28,106,0,0,0,0,0,0,0,0,0,-1,1252,918,0,0
35,106,0,0,0,0,0,0,0,0,0,-1,1259,918,0,0
42,106,0,0,0,0,0,0,0,0,0,-1,1266,918,0,0
49,106,0,0,0,0,0,0,0,0,0,-1,1273,918,0,0
56,106,0,0,0,0,0,0,0,0,0,-1,1280,918,0,0
63,106,0,0,0,0,0,0,0,0,0,-1,1287,918,0,0
70,106,0,0,0,0,0,0,0,0,0,-1,1294,918,0,0
77,106,0,0,0,0,0,0,0,0,0,-1,1301,918,0,0
84,106,0,0,0,0,0,0,0,0,0,-1,1308,918,0,0
91,106,0,0,0,0,0,0,0,0,0,-1,1315,918,0,0
98,106,0,0,0,0,0,0,0,0,0,-1,1322,918,0,0
105,106,0,0,0,0,0,0,0,0,0,-1,1329,918,0,0
112,106,0,0,0,0,0,0,0,0,0,-1,1336,918,0,0
119,106,0,0,0,0,0,0,0,0,0,-1,1343,918,0,0
126,106,0,0,0,0,0,0,0,0,0,-1,1350,918,0,0
133,106,0,0,0,0,0,0,0,0,0,-1,1357,918,0,0
140,106,0,0,0,0,0,0,0,0,0,-1,1364,918,0,0
147,106,0,0,0,0,0,0,0,0,0,-1,1371,918,0,0
154,106,0,0,0,0,0,0,0,0,0,-1,1378,918,0,0
161,106,0,0,0,0,0,0,0,0,0,-1,1385,918,0,0
168,106,0,0,0,0,0,0,0,0,0,-1,1392,918,0,0
175,106,0,0,0,0,0,0,0,0,0,-1,1399,918,0,0
182,106,0,0,0,0,0,0,0,0,0,-1,1406,918,0,0
189,106,0,0,0,0,0,0,0,0,0,-1,1413,918,0,0
196,106,0,0,0,0,0,0,0,0,0,-1,1420,918,0,0
203,106,0,0,0,0,0,0,0,0,0,-1,1427,918,0,0
210,106,0,0,0,0,0,0,0,0,0,-1,1434,918,0,0
217,106,0,0,0,0,0,0,0,0,0,-1,1441,918,0,0
224,106,0,0,0,0,0,0,0,0,0,-1,1448,918,0,0
231,106,0,0,0,0,0,0,0,0,0,-1,1455,918,0,0
238,106,0,0,0,0,0,0,0,0,0,-1,1462,918,0,0
245,106,0,0,0,0,0,0,0,0,0,-1,1469,918,0,0
252,106,0,0,0,0,0,0,0,0,0,-1,1476,918,0,0
259,106,0,0,0,0,0,0,0,0,0,-1,1483,918,0,0
266,106,0,0,0,0,0,0,0,0,0,-1,1490,918,0,0
273,106,0,0,0,0,0,0,0,0,0,-1,1497,918,0,0
280,106,0,0,0,0,0,0,0,0,0,-1,1504,918,0,0
287,106,0,0,0,0,0,0,0,0,0,-1,1511,918,0,0
294,106,0,0,0,0,0,0,0,0,0,-1,1518,918,0,0
301,106,0,0,0,0,0,0,0,0,0,-1,1525,918,0,0
308,106,0,0,0,0,0,0,0,0,0,-1,1532,918,0,0
315,106,0,0,0,0,0,0,0,0,0,-1,1539,918,0,0
322,106,0,0,0,0,0,0,0,0,0,-1,1546,918,0,0
329,106,0,0,0,0,0,0,0,0,0,-1,1553,918,0,0
336,106,0,0,0,0,0,0,0,0,0,-1,1560,918,0,0
343,106,0,0,0,0,0,0,0,0,0,-1,1567,918,0,0
350,106,0,0,0,0,0,0,0,0,0,-1,1574,918,0,0
357,106,0,0,0,0,0,0,0,0,0,-1,1581,918,0,0
364,106,0,0,0,0,0,0,0,0,0,-1,1588,918,0,0
371,106,0,0,0,0,0,0,0,0,0,-1,1595,918,0,0
378,106,0,0,0,0,0,0,0,0,0,-1,1602,918,0,0
385,106,0,0,0,0,0,0,0,0,0,-1,1609,918,0,0
392,106,0,0,0,0,0,0,0,0,0,-1,1616,918,0,0
399,106,0,0,0,0,0,0,0,0,0,-1,1623,918,0,0
406,106,0,0,0,0,0,0,0,0,0,-1,1630,918,0,0
413,106,0,0,0,0,0,0,0,0,0,-1,1637,918,0,0
420,106,0,0,0,0,0,0,0,0,0,-1,1644,918,0,0
427,106,0,0,0,0,0,0,0,0,0,-1,1651,918,0,0
434,106,0,0,0,0,0,0,0,0,0,-1,1658,918,0,0
441,106,0,0,0,0,0,0,0,0,0,-1,1665,918,0,0
448,106,0,0,0,0,0,0,0,0,0,-1,1672,918,0,0
455,106,0,0,0,0,0,0,0,0,0,-1,1679,918,0,0
462,106,0,0,0,0,0,0,0,0,0,-1,1686,918,0,0
469,106,0,0,0,0,0,0,0,0,0,-1,1693,918,0,0
476,106,0,0,0,0,0,0,0,0,0,-1,1700,918,0,0
483,106,0,0,0,0,0,0,0,0,0,-1,1707,918,0,0
490,106,0,0,0,0,0,0,0,0,0,-1,1714,918,0,0
497,106,0,0,0,0,0,0,0,0,0,-1,1721,918,0,0
504,106,0,0,0,0,0,0,0,0,0,-1,1728,918,0,0
511,106,0,0,0,0,0,0,0,0,0,-1,1735,918,0,0
518,106,0,0,0,0,0,0,0,0,0,-1,1742,918,0,0
525,106,0,0,0,0,0,0,0,0,0,-1,1749,918,0,0
532,106,0,0,0,0,0,0,0,0,0,-1,1756,918,0,0
539,106,0,0,0,0,0,0,0,0,0,-1,1763,918,0,0
546,106,0,0,0,0,0,0,0,0,0,-1,1770,918,0,0
553,106,0,0,0,0,0,0,0,0,0,-1,1777,918,0,0
560,106,0,0,0,0,0,0,0,0,0,-1,1784,918,0,0
567,106,0,0,0,0,0,0,0,0,0,-1,1791,918,0,0
574,106,0,0,0,0,0,0,0,0,0,-1,1798,918,0,0
581,106,0,0,0,0,0,0,0,0,0,-1,1805,918,0,0
588,106,0,0,0,0,0,0,0,0,0,-1,1812,918,0,0
595,106,0,0,0,0,0,0,0,0,0,-1,1819,918,0,0
602,106,0,0,0,0,0,0,0,0,0,-1,1826,918,0,0
609,106,0,0,0,0,0,0,0,0,0,-1,1833,918,0,0
616,106,0,0,0,0,0,0,0,0,0,-1,1840,918,0,0
623,106,0,0,0,0,0,0,0,0,0,-1,1847,918,0,0
630,106,65.0419,2.94189,0.000484053,-0.00323077,0.00229243,0.0015771,-0.00432382,0.444922,0.00352778,0.0415382,1854,918,65.0419,-2.94189
637,106,64.96,3.01715,-0.000712805,-0.0025994,0.00214729,0.000689247,-0.00400145,0.578439,0.00292458,0.0414575,1861,918,64.96,-3.01713
644,106,65.0873,2.74365,0,0,0,0,0,0,0,-1,1868,918,65.0873,-2.74367
651,106,65.7213,2.40161,0,0,0,0,0,0,0,-1,1875,918,65.7214,-2.40159
658,106,65.3673,2.59686,-0.00240252,-0.000250983,0.00134016,0.000391769,-0.00304527,1.1236,0.00217257,0.0428906,1882,918,65.3674,-2.59688
665,106,64.9768,2.77844,-0.00207263,0.000685834,0.00107655,0.00105624,-0.00244304,1.23942,0.00207252,0.0426992,1889,918,64.9768,-2.77841
672,106,64.9221,2.69324,-0.00194013,0.00101042,0.000915706,0.00127151,-0.00220122,1.29305,0.00202879,0.0435524,1896,918,64.9221,-2.69322
679,106,64.9043,2.57861,-0.00171817,0.000972466,0.000765932,0.00117522,-0.00192092,1.31201,0.00180476,0.0371257,1903,918,64.9043,-2.57858
686,106,64.9291,2.57892,-0.00147905,0.00102547,0.000485192,0.00111618,-0.00156976,1.38597,0.00155808,0.0309705,1910,918,64.9291,-2.57892
693,106,64.9288,2.57593,-0.00151427,0.00112282,0.00013675,0.00112989,-0.00152134,1.51912,0.00153624,0.0382894,1917,918,64.9288,-2.57592
700,106,64.999,2.52216,0,0,0,0,0,0,0,-1,1924,918,64.999,-2.52213
707,106,59.4137,3.22595,0,0,0,0,0,0,0,-1,1931,918,59.4136,-3.22598
714,106,59.5372,3.89246,-0.00152263,0.00195502,-0.00107137,0.00225858,-0.00182619,-1.29469,0.00236274,0.0497107,1938,918,59.5373,-3.89243
721,106,59.3524,4.68915,-0.00165752,0.00224307,-0.00114835,0.00255604,-0.00197049,-1.30472,0.00262067,0.0322252,1945,918,59.3524,-4.68916
728,106,59.3782,5.36823,-0.0021548,0.00247589,-0.0010023,0.00268352,-0.00236244,-1.36653,0.00291525,0.0307328,1952,918,59.3782,-5.36822
735,106,59.2905,5.96979,-0.00232278,0.0029323,-0.00102338,0.00312456,-0.00251504,-1.38509,0.00326236,0.0261478,1959,918,59.2905,-5.9698
742,106,59.1807,6.52155,-0.00224517,0.00397678,-0.000827299,0.00408491,-0.0023533,-1.44084,0.00376165,0.0138547,1966,918,59.1806,-6.52156
749,106,59.1393,7.1275,-0.00158045,0.00543186,0.000143555,0.0054348,-0.00158339,1.55034,0.00425047,0.0112867,1973,918,59.1393,-7.12753
756,106,59.0842,7.74695,-2.04685e-05,0.00696364,0.00211486,0.00755412,-0.000610947,1.29853,0.00525159,0.0146444,1980,918,59.0843,-7.74692
763,106,58.9915,8.52393,0.00243395,0.00822713,0.00493915,0.0110564,-0.000395321,1.0506,0.00750618,0.0322678,1987,918,58.9914,-8.52391
770,106,58.9534,9.32721,0,0,0,0,0,0,0,-1,1994,918,58.9533,-9.32722
777,106,60.6804,9.39612,0,0,0,0,0,0,0,-1,2001,918,60.6805,-9.39611
784,106,60.4895,9.94531,0,0,0,0,0,0,0,-1,2008,918,60.4894,-9.94533
791,106,60.4109,10.3948,0,0,0,0,0,0,0,-1,2015,918,60.4109,-10.3947
798,106,58.8376,10.5853,0,0,0,0,0,0,0,-1,2022,918,58.8377,-10.5853
805,106,0,0,0,0,0,0,0,0,0,-1,2029,918,0,0
812,106,0,0,0,0,0,0,0,0,0,-1,2036,918,0,0
-700,99,0,0,0,0,0,0,0,0,0,-1,524,925,0,0
-693,99,0,0,0,0,0,0,0,0,0,-1,531,925,0,0
-686,99,0,0,0,0,0,0,0,0,0,-1,538,925,0,0
-679,99,-45.5228,9.23334,0.0567961,0.0519883,-0.0107865,0.0654433,0.0433411,-0.675759,0.0384413,0.0469409,545,925,-45.5228,-9.23335
-672,99,-45.4273,8.39319,0.0424618,0.0481461,-0.00480753,0.0508888,0.0397191,-1.05236,0.0308834,0.0494351,552,925,-45.4273,-8.39316
-665,99,-45.6099,9.01886,0.029277,0.0436445,-0.000881636,0.0436984,0.0292231,-1.50974,0.0257038,0.0494597,559,925,-45.6099,-9.01887
-658,99,-45.3957,8.88538,0,0,0,0,0,0,0,-1,566,925,-45.3957,-8.88537
-651,99,-44.6859,7.08344,0,0,0,0,0,0,0,-1,573,925,-44.6859,-7.08345
-644,99,-44.7336,6.86908,0,0,0,0,0,0,0,-1,580,925,-44.7336,-6.86908
-637,99,-44.9686,6.46002,-0.00247479,0.0226543,0.00558872,0.0238412,-0.00366167,1.36154,0.0172447,0.0325664,587,925,-44.9686,-6.46002
-630,99,-45.2245,6.01422,-0.00545582,0.0172874,0.00611727,0.0188284,-0.00699678,1.32403,0.0154229,0.0181118,594,925,-45.2245,-6.01423
-623,99,-45.4552,5.39166,-0.00792121,0.0122558,0.00649587,0.0141662,-0.00983163,1.28476,0.0139303,0.0132079,601,925,-45.4552,-5.39165
-616,99,-45.4816,4.81311,-0.00841549,0.00768583,0.005353,0.00930304,-0.0100327,1.2774,0.0111661,0.0153252,608,925,-45.4816,-4.81311
-609,99,-45.4642,4.29828,-0.00712376,0.00362065,0.00397376,0.00493061,-0.00843372,1.25236,0.00780376,0.0126663,615,925,-45.4642,-4.29829
-602,99,-45.446,3.77826,-0.00634918,0.00177199,0.00299527,0.0027572,-0.00733438,1.25302,0.00602283,0.0180042,622,925,-45.446,-3.77825
-595,99,-45.5674,3.22668,-0.00560938,0.000981644,0.00235352,0.00173576,-0.0063635,1.26071,0.00492397,0.0241155,629,925,-45.5674,-3.22667
-588,99,-45.5645,2.6347,-0.00484936,0.000367198,0.00181518,0.000936655,-0.00541881,1.2668,0.00396184,0.0275031,636,925,-45.5645,-2.63473
-581,99,-45.6137,1.90149,-0.00432749,6.65121e-05,0.00139829,0.000473742,-0.00473472,1.2874,0.00332566,0.0251888,643,925,-45.6137,-1.9015
-574,99,-45.916,1.22974,0,0,0,0,0,0,0,-1,650,925,-45.916,-1.22975
-567,99,-47.9771,0.975159,0,0,0,0,0,0,0,-1,657,925,-47.977,-0.975186
-560,99,-49.3215,0.849121,0,0,0,0,0,0,0,-1,664,925,-49.3215,-0.849128
-553,99,-49.3814,0.822693,-0.0030668,-0.000113804,-0.000305653,-8.24985e-05,-0.00309811,-1.46873,0.00203846,0.0346907,671,925,-49.3814,-0.822698
-546,99,-49.369,0.768311,-0.00280363,0.000394372,-0.000785286,0.000576796,-0.00298606,-1.34254,0.00220823,0.0412395,678,925,-49.3689,-0.7683
-539,99,-49.2396,0.661926,-0.00209479,0.00117826,-0.00129401,0.00162805,-0.00254457,-1.23627,0.00242836,0.0399323,685,925,-49.2395,-0.6619
-532,99,-49.3196,0.744751,-0.000848183,0.00202702,-0.00164854,0.00277674,-0.00159791,-1.14397,0.00255609,0.0418295,692,925,-49.3196,-0.744738
-525,99,-49.5157,0.986511,-0.000591973,0.00276521,-0.0021051,0.00377904,-0.0016058,-1.12197,0.00319222,0.0410035,699,925,-49.5158,-0.986506
-518,99,-49.5125,0.81958,-0.000283074,0.00346406,-0.00276955,0.00493424,-0.00175326,-1.08278,0.00400398,0.0394027,706,925,-49.5124,-0.819558
-511,99,0,0,0,0,0,0,0,0,0,-1,713,925,0,0
-504,99,0,0,0,0,0,0,0,0,0,-1,720,925,0,0
-497,99,0,0,0,0,0,0,0,0,0,-1,727,925,0,0
-490,99,0,0,0,0,0,0,0,0,0,-1,734,925,0,0
-483,99,0,0,0,0,0,0,0,0,0,-1,741,925,0,0
-476,99,0,0,0,0,0,0,0,0,0,-1,748,925,0,0
-469,99,0,0,0,0,0,0,0,0,0,-1,755,925,0,0
-462,99,0,0,0,0,0,0,0,0,0,-1,762,925,0,0
-455,99,0,0,0,0,0,0,0,0,0,-1,769,925,0,0
-448,99,0,0,0,0,0,0,0,0,0,-1,776,925,0,0
-441,99,0,0,0,0,0,0,0,0,0,-1,783,925,0,0
-434,99,0,0,0,0,0,0,0,0,0,-1,790,925,0,0
-427,99,0,0,0,0,0,0,0,0,0,-1,797,925,0,0
-420,99,0,0,0,0,0,0,0,0,0,-1,804,925,0,0
-413,99,0,0,0,0,0,0,0,0,0,-1,811,925,0,0
-406,99,0,0,0,0,0,0,0,0,0,-1,818,925,0,0
-399,99,0,0,0,0,0,0,0,0,0,-1,825,925,0,0
-392,99,0,0,0,0,0,0,0,0,0,-1,832,925,0,0
-385,99,0,0,0,0,0,0,0,0,0,-1,839,925,0,0
-378,99,0,0,0,0,0,0,0,0,0,-1,846,925,0,0
-371,99,0,0,0,0,0,0,0,0,0,-1,853,925,0,0
-364,99,0,0,0,0,0,0,0,0,0,-1,860,925,0,0
-357,99,0,0,0,0,0,0,0,0,0,-1,867,925,0,0
-350,99,0,0,0,0,0,0,0,0,0,-1,874,925,0,0
-343,99,0,0,0,0,0,0,0,0,0,-1,881,925,0,0
-336,99,0,0,0,0,0,0,0,0,0,-1,888,925,0,0
-329,99,0,0,0,0,0,0,0,0,0,-1,895,925,0,0
-322,99,0,0,0,0,0,0,0,0,0,-1,902,925,0,0
-315,99,0,0,0,0,0,0,0,0,0,-1,909,925,0,0
-308,99,0,0,0,0,0,0,0,0,0,-1,916,925,0,0
-301,99,0,0,0,0,0,0,0,0,0,-1,923,925,0,0
-294,99,0,0,0,0,0,0,0,0,0,-1,930,925,0,0
-287,99,0,0,0,0,0,0,0,0,0,-1,937,925,0,0
-280,99,0,0,0,0,0,0,0,0,0,-1,944,925,0,0
-273,99,0,0,0,0,0,0,0,0,0,-1,951,925,0,0
-266,99,0,0,0,0,0,0,0,0,0,-1,958,925,0,0
-259,99,0,0,0,0,0,0,0,0,0,-1,965,925,0,0
-252,99,0,0,0,0,0,0,0,0,0,-1,972,925,0,0
-245,99,0,0,0,0,0,0,0,0,0,-1,979,925,0,0
-238,99,0,0,0,0,0,0,0,0,0,-1,986,925,0,0
-231,99,0,0,0,0,0,0,0,0,0,-1,993,925,0,0
-224,99,0,0,0,0,0,0,0,0,0,-1,1000,925,0,0
-217,99,0,0,0,0,0,0,0,0,0,-1,1007,925,0,0
-210,99,0,0,0,0,0,0,0,0,0,-1,1014,925,0,0
-203,99,0,0,0,0,0,0,0,0,0,-1,1021,925,0,0
-196,99,0,0,0,0,0,0,0,0,0,-1,1028,925,0,0
-189,99,0,0,0,0,0,0,0,0,0,-1,1035,925,0,0
-182,99,0,0,0,0,0,0,0,0,0,-1,1042,925,0,0
-175,99,0,0,0,0,0,0,0,0,0,-1,1049,925,0,0
-168,99,0,0,0,0,0,0,0,0,0,-1,1056,925,0,0
-161,99,0,0,0,0,0,0,0,0,0,-1,1063,925,0,0
-154,99,0,0,0,0,0,0,0,0,0,-1,1070,925,0,0
-147,99,0,0,0,0,0,0,0,0,0,-1,1077,925,0,0
-140,99,0,0,0,0,0,0,0,0,0,-1,1084,925,0,0
-133,99,0,0,0,0,0,0,0,0,0,-1,1091,925,0,0
-126,99,0,0,0,0,0,0,0,0,0,-1,1098,925,0,0
-119,99,0,0,0,0,0,0,0,0,0,-1,1105,925,0,0
-112,99,0,0,0,0,0,0,0,0,0,-1,1112,925,0,0
-105,99,0,0,0,0,0,0,0,0,0,-1,1119,925,0,0
-98,99,0,0,0,0,0,0,0,0,0,-1,1126,925,0,0
-91,99,0,0,0,0,0,0,0,0,0,-1,1133,925,0,0
-84,99,0,0,0,0,0,0,0,0,0,-1,1140,925,0,0
-77,99,0,0,0,0,0,0,0,0,0,-1,1147,925,0,0
-70,99,0,0,0,0,0,0,0,0,0,-1,1154,925,0,0
-63,99,0,0,0,0,0,0,0,0,0,-1,1161,925,0,0
-56,99,0,0,0,0,0,0,0,0,0,-1,1168,925,0,0
-49,99,0,0,0,0,0,0,0,0,0,-1,1175,925,0,0
-42,99,0,0,0,0,0,0,0,0,0,-1,1182,925,0,0
-35,99,0,0,0,0,0,0,0,0,0,-1,1189,925,0,0
-28,99,0,0,0,0,0,0,0,0,0,-1,1196,925,0,0
-21,99,0,0,0,0,0,0,0,0,0,-1,1203,925,0,0
-14,99,0,0,0,0,0,0,0,0,0,-1,1210,925,0,0
-7,99,0,0,0,0,0,0,0,0,0,-1,1217,925,0,0
0,99,0,0,0,0,0,0,0,0,0,-1,1224,925,0,0
7,99,0,0,0,0,0,0,0,0,0,-1,1231,925,0,0
14,99,0,0,0,0,0,0,0,0,0,-1,1238,925,0,0
21,99,0,0,0,0,0,0,0,0,0,-1,1245,925,0,0
28,99,0,0,0,0,0,0,0,0,0,-1,1252,925,0,0
35,99,0,0,0,0,0,0,0,0,0,-1,1259,925,0,0
42,99,0,0,0,0,0,0,0,0,0,-1,1266,925,0,0
49,99,0,0,0,0,0,0,0,0,0,-1,1273,925,0,0
56,99,0,0,0,0,0,0,0,0,0,-1,1280,925,0,0
63,99,0,0,0,0,0,0,0,0,0,-1,1287,925,0,0
70,99,0,0,0,0,0,0,0,0,0,-1,1294,925,0,0
77,99,0,0,0,0,0,0,0,0,0,-1,1301,925,0,0
84,99,0,0,0,0,0,0,0,0,0,-1,1308,925,0,0
91,99,0,0,0,0,0,0,0,0,0,-1,1315,925,0,0
98,99,0,0,0,0,0,0,0,0,0,-1,1322,925,0,0
105,99,0,0,0,0,0,0,0,0,0,-1,1329,925,0,0
112,99,0,0,0,0,0,0,0,0,0,-1,1336,925,0,0
119,99,0,0,0,0,0,0,0,0,0,-1,1343,925,0,0
126,99,0,0,0,0,0,0,0,0,0,-1,1350,925,0,0
133,99,0,0,0,0,0,0,0,0,0,-1,1357,925,0,0
140,99,0,0,0,0,0,0,0,0,0,-1,1364,925,0,0
147,99,0,0,0,0,0,0,0,0,0,-1,1371,925,0,0
154,99,0,0,0,0,0,0,0,0,0,-1,1378,925,0,0
161,99,0,0,0,0,0,0,0,0,0,-1,1385,925,0,0
168,99,0,0,0,0,0,0,0,0,0,-1,1392,925,0,0
175,99,0,0,0,0,0,0,0,0,0,-1,1399,925,0,0
182,99,0,0,0,0,0,0,0,0,0,-1,1406,925,0,0
189,99,0,0,0,0,0,0,0,0,0,-1,1413,925,0,0
196,99,0,0,0,0,0,0,0,0,0,-1,1420,925,0,0
203,99,0,0,0,0,0,0,0,0,0,-1,1427,925,0,0
210,99,0,0,0,0,0,0,0,0,0,-1,1434,925,0,0
217,99,0,0,0,0,0,0,0,0,0,-1,1441,925,0,0
224,99,0,0,0,0,0,0,0,0,0,-1,1448,925,0,0
231,99,0,0,0,0,0,0,0,0,0,-1,1455,925,0,0
238,99,0,0,0,0,0,0,0,0,0,-1,1462,925,0,0
245,99,0,0,0,0,0,0,0,0,0,-1,1469,925,0,0
252,99,0,0,0,0,0,0,0,0,0,-1,1476,925,0,0
259,99,0,0,0,0,0,0,0,0,0,-1,1483,925,0,0
266,99,0,0,0,0,0,0,0,0,0,-1,1490,925,0,0
273,99,0,0,0,0,0,0,0,0,0,-1,1497,925,0,0
280,99,0,0,0,0,0,0,0,0,0,-1,1504,925,0,0
287,99,0,0,0,0,0,0,0,0,0,-1,1511,925,0,0
294,99,0,0,0,0,0,0,0,0,0,-1,1518,925,0,0
301,99,0,0,0,0,0,0,0,0,0,-1,1525,925,0,0
308,99,0,0,0,0,0,0,0,0,0,-1,1532,925,0,0
315,99,0,0,0,0,0,0,0,0,0,-1,1539,925,0,0
322,99,0,0,0,0,0,0,0,0,0,-1,1546,925,0,0
329,99,0,0,0,0,0,0,0,0,0,-1,1553,925,0,0
336,99,0,0,0,0,0,0,0,0,0,-1,1560,925,0,0
343,99,0,0,0,0,0,0,0,0,0,-1,1567,925,0,0
350,99,0,0,0,0,0,0,0,0,0,-1,1574,925,0,0
357,99,0,0,0,0,0,0,0,0,0,-1,1581,925,0,0
364,99,0,0,0,0,0,0,0,0,0,-1,1588,925,0,0
371,99,0,0,0,0,0,0,0,0,0,-1,1595,925,0,0
378,99,0,0,0,0,0,0,0,0,0,-1,1602,925,0,0
385,99,0,0,0,0,0,0,0,0,0,-1,1609,925,0,0
392,99,0,0,0,0,0,0,0,0,0,-1,1616,925,0,0
399,99,0,0,0,0,0,0,0,0,0,-1,1623,925,0,0
406,99,0,0,0,0,0,0,0,0,0,-1,1630,925,0,0
413,99,0,0,0,0,0,0,0,0,0,-1,1637,925,0,0
420,99,0,0,0,0,0,0,0,0,0,-1,1644,925,0,0
427,99,0,0,0,0,0,0,0,0,0,-1,1651,925,0,0
434,99,0,0,0,0,0,0,0,0,0,-1,1658,925,0,0
441,99,0,0,0,0,0,0,0,0,0,-1,1665,925,0,0
448,99,0,0,0,0,0,0,0,0,0,-1,1672,925,0,0
455,99,0,0,0,0,0,0,0,0,0,-1,1679,925,0,0
462,99,0,0,0,0,0,0,0,0,0,-1,1686,925,0,0
469,99,0,0,0,0,0,0,0,0,0,-1,1693,925,0,0
476,99,0,0,0,0,0,0,0,0,0,-1,1700,925,0,0
483,99,0,0,0,0,0,0,0,0,0,-1,1707,925,0,0
490,99,0,0,0,0,0,0,0,0,0,-1,1714,925,0,0
497,99,0,0,0,0,0,0,0,0,0,-1,1721,925,0,0
504,99,0,0,0,0,0,0,0,0,0,-1,1728,925,0,0
511,99,0,0,0,0,0,0,0,0,0,-1,1735,925,0,0
518,99,0,0,0,0,0,0,0,0,0,-1,1742,925,0,0
525,99,0,0,0,0,0,0,0,0,0,-1,1749,925,0,0
532,99,0,0,0,0,0,0,0,0,0,-1,1756,925,0,0
539,99,0,0,0,0,0,0,0,0,0,-1,1763,925,0,0
546,99,0,0,0,0,0,0,0,0,0,-1,1770,925,0,0
553,99,0,0,0,0,0,0,0,0,0,-1,1777,925,0,0
560,99,0,0,0,0,0,0,0,0,0,-1,1784,925,0,0
567,99,0,0,0,0,0,0,0,0,0,-1,1791,925,0,0
574,99,0,0,0,0,0,0,0,0,0,-1,1798,925,0,0
581,99,0,0,0,0,0,0,0,0,0,-1,1805,925,0,0
588,99,0,0,0,0,0,0,0,0,0,-1,1812,925,0,0
595,99,0,0,0,0,0,0,0,0,0,-1,1819,925,0,0
602,99,0,0,0,0,0,0,0,0,0,-1,1826,925,0,0
609,99,0,0,0,0,0,0,0,0,0,-1,1833,925,0,0
616,99,0,0,0,0,0,0,0,0,0,-1,1840,925,0,0
623,99,0,0,0,0,0,0,0,0,0,-1,1847,925,0,0
630,99,0,0,0,0,0,0,0,0,0,-1,1854,925,0,0
637,99,64.9224,2.80017,0.000198184,-0.00272034,0.00291189,0.00199599,-0.00451815,0.553118,0.00385377,0.0436036,1861,925,64.9224,-2.8002
644,99,65.0837,2.54913,-0.000992421,-0.00175916,0.00240047,0.0010551,-0.00380668,0.706213,0.002953,0.040622,1868,925,65.0837,-2.54915
651,99,65.1937,2.49481,-0.00174112,-0.000941909,0.00200541,0.000703325,-0.00338635,0.883741,0.00252487,0.0394546,1875,925,65.1938,-2.4948
658,99,65.09,2.55591,-0.00209426,-0.000136916,0.00166488,0.000815639,-0.00304682,1.05111,0.00235074,0.0381978,1882,925,65.0899,-2.5559
665,99,64.8251,2.74945,-0.0019443,0.000759693,0.00135774,0.00132378,-0.00250838,1.17704,0.00224746,0.040274,1889,925,64.8251,-2.74943
672,99,65.0154,2.50891,-0.0019742,0.00111257,0.00118523,0.00151515,-0.00237679,1.24335,0.00226529,0.0426233,1896,925,65.0154,-2.50889
679,99,64.9794,2.38635,-0.00189092,0.00106884,0.00104572,0.00140103,-0.0022231,1.26322,0.00211026,0.0393128,1903,925,64.9794,-2.38634
686,99,64.8872,2.52435,-0.00169846,0.00106328,0.000750998,0.00125429,-0.00188946,1.32174,0.00182735,0.0306535,1910,925,64.8872,-2.52435
693,99,64.9192,2.63647,-0.00177675,0.00107571,0.000363771,0.00112137,-0.00182241,1.44593,0.00171558,0.0347056,1917,925,64.9192,-2.63645
700,99,64.9069,2.66028,0,0,0,0,0,0,0,-1,1924,925,64.9069,-2.66027
707,99,47.9915,3.27429,0,0,0,0,0,0,0,-1,1931,925,47.9914,-3.27427
714,99,60.3182,3.94983,0,0,0,0,0,0,0,-1,1938,925,60.3182,-3.9498
721,99,59.9803,4.66858,-0.00233342,0.00222898,-0.00112584,0.00249168,-0.00259612,-1.34157,0.00293765,0.0357363,1945,925,59.9804,-4.66856
728,99,59.9751,5.32788,-0.00281493,0.00256172,-0.00105399,0.00276095,-0.00301416,-1.38397,0.00333533,0.0286862,1952,925,59.9751,-5.32791
735,99,59.9167,5.96661,-0.00293034,0.00315663,-0.00120367,0.00338601,-0.00315972,-1.38249,0.00377993,0.0227973,1959,925,59.9167,-5.96664
742,99,59.8335,6.53894,-0.00284543,0.00430406,-0.00119318,0.00449794,-0.0030393,-1.40972,0.0043787,0.0154388,1966,925,59.8335,-6.53895
749,99,59.7737,7.10651,-0.00216291,0.00599811,-0.000323683,0.00601093,-0.00217572,-1.53122,0.0048964,0.0137678,1973,925,59.7737,-7.10651
756,99,59.7401,7.65845,-0.00052221,0.00783227,0.00155614,0.00811271,-0.000802651,1.3925,0.00569491,0.0141866,1980,925,59.7401,-7.65845
763,99,59.7346,8.26025,0.00205866,0.00943616,0.00440382,0.011492,2.80654e-06,1.13403,0.00766041,0.0182569,1987,925,59.7346,-8.26022
770,99,59.9414,8.87939,0.0056579,0.0108,0.00829139,0.0169098,-0.000451919,0.935741,0.0114268,0.0323742,1994,925,59.9414,-8.87942
777,99,60.6782,9.37555,0.0103675,0.0108092,0.0146434,0.0252334,-0.00405666,0.792938,0.0183248,0.0405157,2001,925,60.6781,-9.37558
784,99,60.8396,9.95776,0.0181447,0.00862715,0.0242131,0.0380622,-0.0112904,0.688366,0.0298585,0.0436766,2008,925,60.8397,-9.95778
791,99,60.832,10.4096,0,0,0,0,0,0,0,-1,2015,925,60.8321,-10.4096
798,99,60.7085,10.7975,0,0,0,0,0,0,0,-1,2022,925,60.7085,-10.7975
805,99,0,0,0,0,0,0,0,0,0,-1,2029,925,0,0
812,99,0,0,0,0,0,0,0,0,0,-1,2036,925,0,0
-700,92,0,0,0,0,0,0,0,0,0,-1,524,932,0,0
-693,92,0,0,0,0,0,0,0,0,0,-1,531,932,0,0
-686,92,-45.6964,9.60541,0.0467607,0.0544033,-0.0216269,0.0725439,0.0286201,-0.872841,0.0421928,0.0474982,538,932,-45.6964,-9.60541
-679,92,-45.54,8.68134,0.0362843,0.0538601,-0.0112412,0.0593408,0.0308037,-1.11716,0.0342688,0.047483,545,932,-45.54,-8.68135
-672,92,-45.7691,8.21344,0.025859,0.050392,-0.00476239,0.051284,0.0249669,-1.38563,0.0296123,0.0461769,552,932,-45.7691,-8.21342
-665,92,-45.7089,8.38934,0.0165033,0.0456238,-0.000479594,0.0456317,0.0164954,-1.55433,0.0266803,0.046833,559,932,-45.7089,-8.38932
-658,92,-44.9572,7.6059,0,0,0,0,0,0,0,-1,566,932,-44.9572,-7.60589
-651,92,-45.292,7.00995,0.00247333,0.0345762,0.00432705,0.0351492,0.00190033,1.43914,0.0228257,0.0488648,573,932,-45.292,-7.00993
-644,92,-45.5994,6.71643,-0.00203772,0.0288385,0.00548536,0.029784,-0.00298328,1.4001,0.0209215,0.0453934,580,932,-45.5994,-6.71641
-637,92,-45.8258,6.44952,-0.00494751,0.0233447,0.00603606,0.0245786,-0.00618147,1.36914,0.0187883,0.0281739,587,932,-45.8258,-6.44952
-630,92,-45.8892,5.90521,-0.0067903,0.0178089,0.00638802,0.0193689,-0.00835024,1.33129,0.0164197,0.0147606,594,932,-45.8892,-5.90522
-623,92,-46.0264,5.37292,-0.00810371,0.0124531,0.00650663,0.0143395,-0.00999008,1.28862,0.0141213,0.0102829,601,932,-46.0264,-5.37292
-616,92,-46.0491,4.85144,-0.00794194,0.00786819,0.00511594,0.00937922,-0.00945297,1.2836,0.0108728,0.00969153,608,932,-46.0491,-4.85141
-609,92,-46.088,4.33893,-0.00661783,0.00384491,0.00344365,0.0048766,-0.00764953,1.27971,0.00729079,0.0093818,615,932,-46.088,-4.33893
-602,92,-46.0579,3.78326,-0.00581157,0.00194705,0.00223109,0.00254287,-0.00640739,1.30983,0.00532558,0.0116186,622,932,-46.0579,-3.78326
-595,92,-45.9581,3.14215,-0.00504165,0.00108808,0.00148392,0.00142842,-0.00538199,1.34534,0.00414697,0.0236618,629,932,-45.9581,-3.14213
-588,92,-45.973,2.63831,-0.00429386,0.000362973,0.000848226,0.000512663,-0.00444355,1.39612,0.0031472,0.031609,636,932,-45.9729,-2.63831
-581,92,-46.6083,2.05237,-0.00374974,-1.3554e-05,0.000322925,1.41516e-05,-0.00377745,1.48521,0.00252303,0.0414633,643,932,-46.6083,-2.05236
-574,92,-47.302,1.34271,0,0,0,0,0,0,0,-1,650,932,-47.302,-1.34274
-567,92,-49.3303,0.844788,0,0,0,0,0,0,0,-1,657,932,-49.3303,-0.844773
-560,92,-49.2281,0.733704,-0.00277995,-0.000175159,-0.00113352,0.000249032,-0.00320415,-1.21271,0.00222376,0.0394015,664,932,-49.2281,-0.733694
-553,92,-49.3712,0.811951,-0.00258376,0.000220082,-0.00165905,0.000990217,-0.0033539,-1.13619,0.00262892,0.0365318,671,932,-49.3712,-0.811972
-546,92,-49.3699,0.846802,-0.00224023,0.000928826,-0.00211077,0.00198363,-0.00329504,-1.10737,0.00307883,0.0406703,678,932,-49.3699,-0.84678
-539,92,-49.2361,1.01788,-0.0014816,0.00190442,-0.00250475,0.00323467,-0.00281184,-1.08259,0.0034938,0.039101,685,932,-49.2361,-1.01788
-532,92,-49.3309,1.07294,-0.000347778,0.00288487,-0.00273207,0.00444293,-0.00190583,-1.05251,0.00376176,0.0421505,692,932,-49.3309,-1.07293
-525,92,-49.4225,0.92572,-0.000257989,0.00388326,-0.00327281,0.00568546,-0.00206019,-1.06745,0.00463235,0.0408041,699,932,-49.4225,-0.925745
-518,92,-49.4025,0.897705,4.73581e-05,0.00487671,-0.00391647,0.00706306,-0.00213899,-1.06165,0.00556057,0.039416,706,932,-49.4024,-0.897685
-511,92,0,0,0,0,0,0,0,0,0,-1,713,932,0,0
-504,92,0,0,0,0,0,0,0,0,0,-1,720,932,0,0
-497,92,0,0,0,0,0,0,0,0,0,-1,727,932,0,0
-490,92,0,0,0,0,0,0,0,0,0,-1,734,932,0,0
-483,92,0,0,0,0,0,0,0,0,0,-1,741,932,0,0
-476,92,0,0,0,0,0,0,0,0,0,-1,748,932,0,0
-469,92,0,0,0,0,0,0,0,0,0,-1,755,932,0,0
-462,92,0,0,0,0,0,0,0,0,0,-1,762,932,0,0
-455,92,0,0,0,0,0,0,0,0,0,-1,769,932,0,0
-448,92,0,0,0,0,0,0,0,0,0,-1,776,932,0,0
-441,92,0,0,0,0,0,0,0,0,0,-1,783,932,0,0
-434,92,0,0,0,0,0,0,0,0,0,-1,790,932,0,0
-427,92,0,0,0,0,0,0,0,0,0,-1,797,932,0,0
-420,92,0,0,0,0,0,0,0,0,0,-1,804,932,0,0
-413,92,0,0,0,0,0,0,0,0,0,-1,811,932,0,0
-406,92,0,0,0,0,0,0,0,0,0,-1,818,932,0,0
-399,92,0,0,0,0,0,0,0,0,0,-1,825,932,0,0
-392,92,0,0,0,0,0,0,0,0,0,-1,832,932,0,0
-385,92,0,0,0,0,0,0,0,0,0,-1,839,932,0,0
-378,92,0,0,0,0,0,0,0,0,0,-1,846,932,0,0
-371,92,0,0,0,0,0,0,0,0,0,-1,853,932,0,0
-364,92,0,0,0,0,0,0,0,0,0,-1,860,932,0,0
-357,92,0,0,0,0,0,0,0,0,0,-1,867,932,0,0
-350,92,0,0,0,0,0,0,0,0,0,-1,874,932,0,0
-343,92,0,0,0,0,0,0,0,0,0,-1,881,932,0,0
-336,92,0,0,0,0,0,0,0,0,0,-1,888,932,0,0
-329,92,0,0,0,0,0,0,0,0,0,-1,895,932,0,0
-322,92,0,0,0,0,0,0,0,0,0,-1,902,932,0,0
-315,92,0,0,0,0,0,0,0,0,0,-1,909,932,0,0
-308,92,0,0,0,0,0,0,0,0,0,-1,916,932,0,0
-301,92,0,0,0,0,0,0,0,0,0,-1,923,932,0,0
-294,92,0,0,0,0,0,0,0,0,0,-1,930,932,0,0
-287,92,0,0,0,0,0,0,0,0,0,-1,937,932,0,0
-280,92,0,0,0,0,0,0,0,0,0,-1,944,932,0,0
-273,92,0,0,0,0,0,0,0,0,0,-1,951,932,0,0
-266,92,0,0,0,0,0,0,0,0,0,-1,958,932,0,0
-259,92,0,0,0,0,0,0,0,0,0,-1,965,932,0,0
-252,92,0,0,0,0,0,0,0,0,0,-1,972,932,0,0
-245,92,0,0,0,0,0,0,0,0,0,-1,979,932,0,0
-238,92,0,0,0,0,0,0,0,0,0,-1,986,932,0,0
-231,92,0,0,0,0,0,0,0,0,0,-1,993,932,0,0
-224,92,0,0,0,0,0,0,0,0,0,-1,1000,932,0,0
-217,92,0,0,0,0,0,0,0,0,0,-1,1007,932,0,0
-210,92,0,0,0,0,0,0,0,0,0,-1,1014,932,0,0
-203,92,0,0,0,0,0,0,0,0,0,-1,1021,932,0,0
-196,92,0,0,0,0,0,0,0,0,0,-1,1028,932,0,0
-189,92,0,0,0,0,0,0,0,0,0,-1,1035,932,0,0
-182,92,0,0,0,0,0,0,0,0,0,-1,1042,932,0,0
-175,92,0,0,0,0,0,0,0,0,0,-1,1049,932,0,0
-168,92,0,0,0,0,0,0,0,0,0,-1,1056,932,0,0
-161,92,0,0,0,0,0,0,0,0,0,-1,1063,932,0,0
-154,92,0,0,0,0,0,0,0,0,0,-1,1070,932,0,0
-147,92,0,0,0,0,0,0,0,0,0,-1,1077,932,0,0
-140,92,0,0,0,0,0,0,0,0,0,-1,1084,932,0,0
-133,92,0,0,0,0,0,0,0,0,0,-1,1091,932,0,0
-126,92,0,0,0,0,0,0,0,0,0,-1,1098,932,0,0
-119,92,0,0,0,0,0,0,0,0,0,-1,1105,932,0,0
-112,92,0,0,0,0,0,0,0,0,0,-1,1112,932,0,0
-105,92,0,0,0,0,0,0,0,0,0,-1,1119,932,0,0
-98,92,0,0,0,0,0,0,0,0,0,-1,1126,932,0,0
-91,92,0,0,0,0,0,0,0,0,0,-1,1133,932,0,0
-84,92,0,0,0,0,0,0,0,0,0,-1,1140,932,0,0
-77,92,0,0,0,0,0,0,0,0,0,-1,1147,932,0,0
-70,92,0,0,0,0,0,0,0,0,0,-1,1154,932,0,0
-63,92,0,0,0,0,0,0,0,0,0,-1,1161,932,0,0
-56,92,0,0,0,0,0,0,0,0,0,-1,1168,932,0,0
-49,92,0,0,0,0,0,0,0,0,0,-1,1175,932,0,0
-42,92,0,0,0,0,0,0,0,0,0,-1,1182,932,0,0
-35,92,0,0,0,0,0,0,0,0,0,-1,1189,932,0,0
-28,92,0,0,0,0,0,0,0,0,0,-1,1196,932,0,0
-21,92,0,0,0,0,0,0,0,0,0,-1,1203,932,0,0
-14,92,0,0,0,0,0,0,0,0,0,-1,1210,932,0,0
-7,92,0,0,0,0,0,0,0,0,0,-1,1217,932,0,0
0,92,0,0,0,0,0,0,0,0,0,-1,1224,932,0,0
7,92,0,0,0,0,0,0,0,0,0,-1,1231,932,0,0
14,92,0,0,0,0,0,0,0,0,0,-1,1238,932,0,0
21,92,0,0,0,0,0,0,0,0,0,-1,1245,932,0,0
28,92,0,0,0,0,0,0,0,0,0,-1,1252,932,0,0
35,92,0,0,0,0,0,0,0,0,0,-1,1259,932,0,0
42,92,0,0,0,0,0,0,0,0,0,-1,1266,932,0,0
49,92,0,0,0,0,0,0,0,0,0,-1,1273,932,0,0
56,92,0,0,0,0,0,0,0,0,0,-1,1280,932,0,0
63,92,0,0,0,0,0,0,0,0,0,-1,1287,932,0,0
70,92,0,0,0,0,0,0,0,0,0,-1,1294,932,0,0
77,92,0,0,0,0,0,0,0,0,0,-1,1301,932,0,0
84,92,0,0,0,0,0,0,0,0,0,-1,1308,932,0,0
91,92,0,0,0,0,0,0,0,0,0,-1,1315,932,0,0
98,92,0,0,0,0,0,0,0,0,0,-1,1322,932,0,0
105,92,0,0,0,0,0,0,0,0,0,-1,1329,932,0,0
112,92,0,0,0,0,0,0,0,0,0,-1,1336,932,0,0
119,92,0,0,0,0,0,0,0,0,0,-1,1343,932,0,0
126,92,0,0,0,0,0,0,0,0,0,-1,1350,932,0,0
133,92,0,0,0,0,0,0,0,0,0,-1,1357,932,0,0
140,92,0,0,0,0,0,0,0,0,0,-1,1364,932,0,0
147,92,0,0,0,0,0,0,0,0,0,-1,1371,932,0,0
154,92,0,0,0,0,0,0,0,0,0,-1,1378,932,0,0
161,92,0,0,0,0,0,0,0,0,0,-1,1385,932,0,0
168,92,0,0,0,0,0,0,0,0,0,-1,1392,932,0,0
175,92,0,0,0,0,0,0,0,0,0,-1,1399,932,0,0
182,92,0,0,0,0,0,0,0,0,0,-1,1406,932,0,0
189,92,0,0,0,0,0,0,0,0,0,-1,1413,932,0,0
196,92,0,0,0,0,0,0,0,0,0,-1,1420,932,0,0
203,92,0,0,0,0,0,0,0,0,0,-1,1427,932,0,0
210,92,0,0,0,0,0,0,0,0,0,-1,1434,932,0,0
217,92,0,0,0,0,0,0,0,0,0,-1,1441,932,0,0
224,92,0,0,0,0,0,0,0,0,0,-1,1448,932,0,0
231,92,0,0,0,0,0,0,0,0,0,-1,1455,932,0,0
238,92,0,0,0,0,0,0,0,0,0,-1,1462,932,0,0
245,92,0,0,0,0,0,0,0,0,0,-1,1469,932,0,0
252,92,0,0,0,0,0,0,0,0,0,-1,1476,932,0,0
259,92,0,0,0,0,0,0,0,0,0,-1,1483,932,0,0
266,92,0,0,0,0,0,0,0,0,0,-1,1490,932,0,0
273,92,0,0,0,0,0,0,0,0,0,-1,1497,932,0,0
280,92,0,0,0,0,0,0,0,0,0,-1,1504,932,0,0
287,92,0,0,0,0,0,0,0,0,0,-1,1511,932,0,0
294,92,0,0,0,0,0,0,0,0,0,-1,1518,932,0,0
301,92,0,0,0,0,0,0,0,0,0,-1,1525,932,0,0
308,92,0,0,0,0,0,0,0,0,0,-1,1532,932,0,0
315,92,0,0,0,0,0,0,0,0,0,-1,1539,932,0,0
322,92,0,0,0,0,0,0,0,0,0,-1,1546,932,0,0
329,92,0,0,0,0,0,0,0,0,0,-1,1553,932,0,0
336,92,0,0,0,0,0,0,0,0,0,-1,1560,932,0,0
343,92,0,0,0,0,0,0,0,0,0,-1,1567,932,0,0
350,92,0,0,0,0,0,0,0,0,0,-1,1574,932,0,0
357,92,0,0,0,0,0,0,0,0,0,-1,1581,932,0,0
364,92,0,0,0,0,0,0,0,0,0,-1,1588,932,0,0
371,92,0,0,0,0,0,0,0,0,0,-1,1595,932,0,0
378,92,0,0,0,0,0,0,0,0,0,-1,1602,932,0,0
385,92,0,0,0,0,0,0,0,0,0,-1,1609,932,0,0
392,92,0,0,0,0,0,0,0,0,0,-1,1616,932,0,0
399,92,0,0,0,0,0,0,0,0,0,-1,1623,932,0,0
406,92,0,0,0,0,0,0,0,0,0,-1,1630,932,0,0
413,92,0,0,0,0,0,0,0,0,0,-1,1637,932,0,0
420,92,0,0,0,0,0,0,0,0,0,-1,1644,932,0,0
427,92,0,0,0,0,0,0,0,0,0,-1,1651,932,0,0
434,92,0,0,0,0,0,0,0,0,0,-1,1658,932,0,0
441,92,0,0,0,0,0,0,0,0,0,-1,1665,932,0,0
448,92,0,0,0,0,0,0,0,0,0,-1,1672,932,0,0
455,92,0,0,0,0,0,0,0,0,0,-1,1679,932,0,0
462,92,0,0,0,0,0,0,0,0,0,-1,1686,932,0,0
469,92,0,0,0,0,0,0,0,0,0,-1,1693,932,0,0
476,92,0,0,0,0,0,0,0,0,0,-1,1700,932,0,0
483,92,0,0,0,0,0,0,0,0,0,-1,1707,932,0,0
490,92,0,0,0,0,0,0,0,0,0,-1,1714,932,0,0
497,92,0,0,0,0,0,0,0,0,0,-1,1721,932,0,0
504,92,0,0,0,0,0,0,0,0,0,-1,1728,932,0,0
511,92,0,0,0,0,0,0,0,0,0,-1,1735,932,0,0
518,92,0,0,0,0,0,0,0,0,0,-1,1742,932,0,0
525,92,0,0,0,0,0,0,0,0,0,-1,1749,932,0,0
532,92,0,0,0,0,0,0,0,0,0,-1,1756,932,0,0
539,92,0,0,0,0,0,0,0,0,0,-1,1763,932,0,0
546,92,0,0,0,0,0,0,0,0,0,-1,1770,932,0,0
553,92,0,0,0,0,0,0,0,0,0,-1,1777,932,0,0
560,92,0,0,0,0,0,0,0,0,0,-1,1784,932,0,0
567,92,0,0,0,0,0,0,0,0,0,-1,1791,932,0,0
574,92,0,0,0,0,0,0,0,0,0,-1,1798,932,0,0
581,92,0,0,0,0,0,0,0,0,0,-1,1805,932,0,0
588,92,0,0,0,0,0,0,0,0,0,-1,1812,932,0,0
595,92,0,0,0,0,0,0,0,0,0,-1,1819,932,0,0
602,92,0,0,0,0,0,0,0,0,0,-1,1826,932,0,0
609,92,0,0,0,0,0,0,0,0,0,-1,1833,932,0,0
616,92,0,0,0,0,0,0,0,0,0,-1,1840,932,0,0
623,92,0,0,0,0,0,0,0,0,0,-1,1847,932,0,0
630,92,0,0,0,0,0,0,0,0,0,-1,1854,932,0,0
637,92,64.7977,2.75214,0.00126167,-0.00332272,0.00327699,0.00296857,-0.00502963,0.480209,0.00466859,0.0459228,1861,932,64.7978,-2.75211
644,92,64.9957,2.60669,-0.000172701,-0.0021922,0.00261197,0.00161791,-0.00398281,0.600954,0.00332828,0.0372525,1868,932,64.9957,-2.6067
651,92,65.1005,2.43994,-0.00107681,-0.00128419,0.00214633,0.000968328,-0.00332933,0.761261,0.00260307,0.0382345,1875,932,65.1005,-2.43993
658,92,64.9105,2.57629,-0.00158546,-0.000412434,0.00178107,0.00087621,-0.0028741,0.944457,0.00226534,0.0430335,1882,932,64.9106,-2.57629
665,92,64.7177,2.82123,-0.00159025,0.000495028,0.00146288,0.00124881,-0.00234403,1.09501,0.00210621,0.0435853,1889,932,64.7177,-2.82123
672,92,64.9178,2.73694,-0.00174354,0.00090938,0.00129781,0.00143867,-0.00227283,1.18356,0.0021608,0.0429652,1896,932,64.9178,-2.73691
679,92,64.9928,2.57336,-0.00178646,0.00088852,0.00118277,0.00133647,-0.00223442,1.20876,0.00208327,0.0388268,1903,932,64.9928,-2.57335
686,92,64.886,2.52179,-0.00163302,0.000851855,0.000889541,0.00113747,-0.00191863,1.26012,0.00178355,0.0298647,1910,932,64.886,-2.52176
693,92,64.8965,2.70807,-0.00173358,0.00081971,0.000478171,0.000906323,-0.00182019,1.39161,0.00160336,0.0247103,1917,932,64.8965,-2.70805
700,92,64.9091,2.82593,0,0,0,0,0,0,0,-1,1924,932,64.9091,-2.82595
707,92,32.9893,3.26874,0,0,0,0,0,0,0,-1,1931,932,32.9893,-3.26874
714,92,60.9679,4.15637,0,0,0,0,0,0,0,-1,1938,932,60.9679,-4.1564
721,92,60.7601,4.8418,-0.0025669,0.00203976,-0.00111585,0.00229582,-0.00282296,-1.34523,0.00296054,0.0353887,1945,932,60.7602,-4.84179
728,92,60.5236,5.41937,-0.0030197,0.00247447,-0.00110756,0.00268934,-0.00323457,-1.37917,0.003425,0.028185,1952,932,60.5236,-5.41934
735,92,60.5057,5.9679,-0.00308085,0.00317914,-0.00131774,0.00344522,-0.00334692,-1.37156,0.00392158,0.0223926,1959,932,60.5057,-5.96792
742,92,60.5302,6.5061,-0.00303449,0.00439874,-0.00135869,0.00463931,-0.00327505,-1.39556,0.00459193,0.0215843,1966,932,60.5301,-6.50613
749,92,60.4364,7.0838,-0.0025461,0.00627312,-0.000487755,0.00630001,-0.00257299,-1.51571,0.00527132,0.0192511,1973,932,60.4364,-7.0838
756,92,60.3445,7.62079,-0.00109712,0.00838595,0.00141294,0.00859199,-0.00130317,1.42599,0.00620814,0.015475,1980,932,60.3445,-7.6208
763,92,60.3314,8.17542,0.00124321,0.0103859,0.00442466,0.0121765,-0.000547434,1.18625,0.00830616,0.0177119,1987,932,60.3314,-8.1754
770,92,60.3464,8.79156,0.00436419,0.0121022,0.00859579,0.0176596,-0.00119318,0.99687,0.0121903,0.0274942,1994,932,60.3464,-8.79154
777,92,60.6257,9.43036,0.00816352,0.0128212,0.0152586,0.0259277,-0.00494299,0.861125,0.0191467,0.0438403,2001,932,60.6256,-9.43033
784,92,60.9678,10.1201,0.0144527,0.0117819,0.0253978,0.0385501,-0.0123155,0.759132,0.0306417,0.0482505,2008,932,60.9678,-10.1201
791,92,61.3284,10.7842,0,0,0,0,0,0,0,-1,2015,932,61.3283,-10.7843
798,92,60.5898,10.4426,0,0,0,0,0,0,0,-1,2022,932,60.5899,-10.4426
805,92,0,0,0,0,0,0,0,0,0,-1,2029,932,0,0
812,92,0,0,0,0,0,0,0,0,0,-1,2036,932,0,0
-700,85,0,0,0,0,0,0,0,0,0,-1,524,939,0,0
-693,85,0,0,0,0,0,0,0,0,0,-1,531,939,0,0
-686,85,-45.8167,9.13208,0,0,0,0,0,0,0,-1,538,939,-45.8167,-9.13211
-679,85,-45.9725,8.45404,0,0,0,0,0,0,0,-1,545,939,-45.9725,-8.45402
-672,85,-46.3834,7.38483,0.0137791,0.0504509,-0.00506665,0.0511381,0.0130919,-1.436,0.0306739,0.0430538,552,939,-46.3834,-7.38481
-665,85,-45.9819,7.59955,0.00732676,0.0460113,-0.000538546,0.0460188,0.00731926,-1.55688,0.0285539,0.0432706,559,939,-45.9819,-7.59958
-658,85,-45.5746,7.34442,0.0019948,0.0407339,0.00254629,0.0409006,0.00182815,1.50544,0.0266786,0.0493969,566,939,-45.5746,-7.34439
-651,85,-45.8231,7.02197,-0.00210218,0.0350495,0.00454097,0.0355964,-0.00264916,1.45092,0.0246615,0.0438735,573,939,-45.8231,-7.02194
-644,85,-46.1796,6.729,-0.0049324,0.0292354,0.0057062,0.0301632,-0.00586018,1.40962,0.0223201,0.0361157,580,939,-46.1795,-6.72898
-637,85,-46.4052,6.35931,-0.00653204,0.0238115,0.00619371,0.025027,-0.00774761,1.377,0.0197796,0.0234302,587,939,-46.4052,-6.35929
-630,85,-46.5214,5.81122,-0.00756533,0.0182588,0.00635391,0.0197375,-0.00904401,1.34215,0.016995,0.0146134,594,939,-46.5214,-5.81122
-623,85,-46.6168,5.30176,-0.00803617,0.0126994,0.00624916,0.0144371,-0.00977387,1.29958,0.0140644,0.0100456,601,939,-46.6167,-5.30175
-616,85,-46.6326,4.82184,-0.0075073,0.00818118,0.00474734,0.00950588,-0.00883199,1.29868,0.0105898,0.0100673,608,939,-46.6326,-4.82183
-609,85,-46.6743,4.32306,-0.00623635,0.0042596,0.0029307,0.00502247,-0.00699922,1.31615,0.00697193,0.012461,615,939,-46.6743,-4.32304
-602,85,-46.6877,3.80438,-0.00538557,0.00233198,0.00155751,0.00263445,-0.00568804,1.37898,0.00491162,0.0167413,622,939,-46.6877,-3.80438
-595,85,-46.5952,3.24707,-0.00457542,0.00141933,0.000703034,0.00150068,-0.00465677,1.4556,0.0037074,0.0193781,629,939,-46.5952,-3.24708
-588,85,-46.5521,2.72015,-0.00386021,0.000580731,-1.46965e-05,0.00058078,-0.00386026,-1.56749,0.00278734,0.0242441,636,939,-46.5522,-2.72016
-581,85,-47.0973,2.25787,-0.00331238,0.00014147,-0.000641478,0.000256762,-0.00342768,-1.39297,0.00237533,0.0382615,643,939,-47.0973,-2.25785
-574,85,-47.6055,1.43121,0,0,0,0,0,0,0,-1,650,939,-47.6055,-1.43123
-567,85,-49.2029,0.946106,0,0,0,0,0,0,0,-1,657,939,-49.2029,-0.946103
-560,85,-49.2282,0.862976,-0.00245431,0.000207683,-0.00227169,0.00150958,-0.00375621,-1.05039,0.00313108,0.0360763,664,939,-49.2282,-0.86296
-553,85,-49.3909,0.769531,-0.00223618,0.000741742,-0.00274813,0.00237835,-0.00387279,-1.03366,0.00364332,0.0403456,671,939,-49.3909,-0.769561
-546,85,-49.3932,0.870544,-0.00180238,0.00158552,-0.00312908,0.00344975,-0.0036666,-1.03349,0.00410926,0.0405791,678,939,-49.3933,-0.870526
-539,85,-49.2955,1.03638,-0.000986265,0.00263487,-0.00339354,0.00467064,-0.00302203,-1.03045,0.00447523,0.0393236,685,939,-49.2955,-1.03639
-532,85,-49.2664,0.997803,5.47145e-05,0.00361768,-0.00356575,0.00582221,-0.00214981,-1.01707,0.00476266,0.0407221,692,939,-49.2664,-0.997831
-525,85,-49.1675,0.800598,-6.70991e-05,0.00478697,-0.00433999,0.00733246,-0.00261259,-1.04035,0.00595342,0.039366,699,939,-49.1675,-0.800605
-518,85,-49.2145,0.871277,0.000256498,0.00595488,-0.00508667,0.00893597,-0.00272458,-1.04069,0.00704341,0.0375808,706,939,-49.2145,-0.871272
-511,85,0,0,0,0,0,0,0,0,0,-1,713,939,0,0
-504,85,0,0,0,0,0,0,0,0,0,-1,720,939,0,0
-497,85,0,0,0,0,0,0,0,0,0,-1,727,939,0,0
-490,85,0,0,0,0,0,0,0,0,0,-1,734,939,0,0
-483,85,0,0,0,0,0,0,0,0,0,-1,741,939,0,0
-476,85,0,0,0,0,0,0,0,0,0,-1,748,939,0,0
-469,85,0,0,0,0,0,0,0,0,0,-1,755,939,0,0
-462,85,0,0,0,0,0,0,0,0,0,-1,762,939,0,0
-455,85,0,0,0,0,0,0,0,0,0,-1,769,939,0,0
-448,85,0,0,0,0,0,0,0,0,0,-1,776,939,0,0
-441,85,0,0,0,0,0,0,0,0,0,-1,783,939,0,0
-434,85,0,0,0,0,0,0,0,0,0,-1,790,939,0,0
-427,85,0,0,0,0,0,0,0,0,0,-1,797,939,0,0
-420,85,0,0,0,0,0,0,0,0,0,-1,804,939,0,0
-413,85,0,0,0,0,0,0,0,0,0,-1,811,939,0,0
-406,85,0,0,0,0,0,0,0,0,0,-1,818,939,0,0
-399,85,0,0,0,0,0,0,0,0,0,-1,825,939,0,0
-392,85,0,0,0,0,0,0,0,0,0,-1,832,939,0,0
-385,85,0,0,0,0,0,0,0,0,0,-1,839,939,0,0
-378,85,0,0,0,0,0,0,0,0,0,-1,846,939,0,0
-371,85,0,0,0,0,0,0,0,0,0,-1,853,939,0,0
-364,85,0,0,0,0,0,0,0,0,0,-1,860,939,0,0
-357,85,0,0,0,0,0,0,0,0,0,-1,867,939,0,0
-350,85,0,0,0,0,0,0,0,0,0,-1,874,939,0,0
-343,85,0,0,0,0,0,0,0,0,0,-1,881,939,0,0
-336,85,0,0,0,0,0,0,0,0,0,-1,888,939,0,0
-329,85,0,0,0,0,0,0,0,0,0,-1,895,939,0,0
-322,85,0,0,0,0,0,0,0,0,0,-1,902,939,0,0
-315,85,0,0,0,0,0,0,0,0,0,-1,909,939,0,0
-308,85,0,0,0,0,0,0,0,0,0,-1,916,939,0,0
-301,85,0,0,0,0,0,0,0,0,0,-1,923,939,0,0
-294,85,0,0,0,0,0,0,0,0,0,-1,930,939,0,0
-287,85,0,0,0,0,0,0,0,0,0,-1,937,939,0,0
-280,85,0,0,0,0,0,0,0,0,0,-1,944,939,0,0
-273,85,0,0,0,0,0,0,0,0,0,-1,951,939,0,0
-266,85,0,0,0,0,0,0,0,0,0,-1,958,939,0,0
-259,85,0,0,0,0,0,0,0,0,0,-1,965,939,0,0
-252,85,0,0,0,0,0,0,0,0,0,-1,972,939,0,0
-245,85,0,0,0,0,0,0,0,0,0,-1,979,939,0,0
-238,85,0,0,0,0,0,0,0,0,0,-1,986,939,0,0
-231,85,0,0,0,0,0,0,0,0,0,-1,993,939,0,0
-224,85,0,0,0,0,0,0,0,0,0,-1,1000,939,0,0
-217,85,0,0,0,0,0,0,0,0,0,-1,1007,939,0,0
-210,85,0,0,0,0,0,0,0,0,0,-1,1014,939,0,0
-203,85,0,0,0,0,0,0,0,0,0,-1,1021,939,0,0
-196,85,0,0,0,0,0,0,0,0,0,-1,1028,939,0,0
-189,85,0,0,0,0,0,0,0,0,0,-1,1035,939,0,0
-182,85,0,0,0,0,0,0,0,0,0,-1,1042,939,0,0
-175,85,0,0,0,0,0,0,0,0,0,-1,1049,939,0,0
-168,85,0,0,0,0,0,0,0,0,0,-1,1056,939,0,0
-161,85,0,0,0,0,0,0,0,0,0,-1,1063,939,0,0
-154,85,0,0,0,0,0,0,0,0,0,-1,1070,939,0,0
-147,85,0,0,0,0,0,0,0,0,0,-1,1077,939,0,0
-140,85,0,0,0,0,0,0,0,0,0,-1,1084,939,0,0
-133,85,0,0,0,0,0,0,0,0,0,-1,1091,939,0,0
-126,85,0,0,0,0,0,0,0,0,0,-1,1098,939,0,0
-119,85,0,0,0,0,0,0,0,0,0,-1,1105,939,0,0
-112,85,0,0,0,0,0,0,0,0,0,-1,1112,939,0,0
-105,85,0,0,0,0,0,0,0,0,0,-1,1119,939,0,0
-98,85,0,0,0,0,0,0,0,0,0,-1,1126,939,0,0
-91,85,0,0,0,0,0,0,0,0,0,-1,1133,939,0,0
-84,85,0,0,0,0,0,0,0,0,0,-1,1140,939,0,0
-77,85,0,0,0,0,0,0,0,0,0,-1,1147,939,0,0
-70,85,0,0,0,0,0,0,0,0,0,-1,1154,939,0,0
-63,85,0,0,0,0,0,0,0,0,0,-1,1161,939,0,0
-56,85,0,0,0,0,0,0,0,0,0,-1,1168,939,0,0
-49,85,0,0,0,0,0,0,0,0,0,-1,1175,939,0,0
-42,85,0,0,0,0,0,0,0,0,0,-1,1182,939,0,0
-35,85,0,0,0,0,0,0,0,0,0,-1,1189,939,0,0
-28,85,0,0,0,0,0,0,0,0,0,-1,1196,939,0,0
-21,85,0,0,0,0,0,0,0,0,0,-1,1203,939,0,0
-14,85,0,0,0,0,0,0,0,0,0,-1,1210,939,0,0
-7,85,0,0,0,0,0,0,0,0,0,-1,1217,939,0,0
0,85,0,0,0,0,0,0,0,0,0,-1,1224,939,0,0
7,85,0,0,0,0,0,0,0,0,0,-1,1231,939,0,0
14,85,0,0,0,0,0,0,0,0,0,-1,1238,939,0,0
21,85,0,0,0,0,0,0,0,0,0,-1,1245,939,0,0
28,85,0,0,0,0,0,0,0,0,0,-1,1252,939,0,0
35,85,0,0,0,0,0,0,0,0,0,-1,1259,939,0,0
42,85,0,0,0,0,0,0,0,0,0,-1,1266,939,0,0
49,85,0,0,0,0,0,0,0,0,0,-1,1273,939,0,0
56,85,0,0,0,0,0,0,0,0,0,-1,1280,939,0,0
63,85,0,0,0,0,0,0,0,0,0,-1,1287,939,0,0
70,85,0,0,0,0,0,0,0,0,0,-1,1294,939,0,0
77,85,0,0,0,0,0,0,0,0,0,-1,1301,939,0,0
84,85,0,0,0,0,0,0,0,0,0,-1,1308,939,0,0
91,85,0,0,0,0,0,0,0,0,0,-1,1315,939,0,0
98,85,0,0,0,0,0,0,0,0,0,-1,1322,939,0,0
105,85,0,0,0,0,0,0,0,0,0,-1,1329,939,0,0
112,85,0,0,0,0,0,0,0,0,0,-1,1336,939,0,0
119,85,0,0,0,0,0,0,0,0,0,-1,1343,939,0,0
126,85,0,0,0,0,0,0,0,0,0,-1,1350,939,0,0
133,85,0,0,0,0,0,0,0,0,0,-1,1357,939,0,0
140,85,0,0,0,0,0,0,0,0,0,-1,1364,939,0,0
147,85,0,0,0,0,0,0,0,0,0,-1,1371,939,0,0
154,85,0,0,0,0,0,0,0,0,0,-1,1378,939,0,0
161,85,0,0,0,0,0,0,0,0,0,-1,1385,939,0,0
168,85,0,0,0,0,0,0,0,0,0,-1,1392,939,0,0
175,85,0,0,0,0,0,0,0,0,0,-1,1399,939,0,0
182,85,0,0,0,0,0,0,0,0,0,-1,1406,939,0,0
189,85,0,0,0,0,0,0,0,0,0,-1,1413,939,0,0
196,85,0,0,0,0,0,0,0,0,0,-1,1420,939,0,0
203,85,0,0,0,0,0,0,0,0,0,-1,1427,939,0,0
210,85,0,0,0,0,0,0,0,0,0,-1,1434,939,0,0
217,85,0,0,0,0,0,0,0,0,0,-1,1441,939,0,0
224,85,0,0,0,0,0,0,0,0,0,-1,1448,939,0,0
231,85,0,0,0,0,0,0,0,0,0,-1,1455,939,0,0
238,85,0,0,0,0,0,0,0,0,0,-1,1462,939,0,0
245,85,0,0,0,0,0,0,0,0,0,-1,1469,939,0,0
252,85,0,0,0,0,0,0,0,0,0,-1,1476,939,0,0
259,85,0,0,0,0,0,0,0,0,0,-1,1483,939,0,0
266,85,0,0,0,0,0,0,0,0,0,-1,1490,939,0,0
273,85,0,0,0,0,0,0,0,0,0,-1,1497,939,0,0
280,85,0,0,0,0,0,0,0,0,0,-1,1504,939,0,0
287,85,0,0,0,0,0,0,0,0,0,-1,1511,939,0,0
294,85,0,0,0,0,0,0,0,0,0,-1,1518,939,0,0
301,85,0,0,0,0,0,0,0,0,0,-1,1525,939,0,0
308,85,0,0,0,0,0,0,0,0,0,-1,1532,939,0,0
315,85,0,0,0,0,0,0,0,0,0,-1,1539,939,0,0
322,85,0,0,0,0,0,0,0,0,0,-1,1546,939,0,0
329,85,0,0,0,0,0,0,0,0,0,-1,1553,939,0,0
336,85,0,0,0,0,0,0,0,0,0,-1,1560,939,0,0
343,85,0,0,0,0,0,0,0,0,0,-1,1567,939,0,0
350,85,0,0,0,0,0,0,0,0,0,-1,1574,939,0,0
357,85,0,0,0,0,0,0,0,0,0,-1,1581,939,0,0
364,85,0,0,0,0,0,0,0,0,0,-1,1588,939,0,0
371,85,0,0,0,0,0,0,0,0,0,-1,1595,939,0,0
378,85,0,0,0,0,0,0,0,0,0,-1,1602,939,0,0
385,85,0,0,0,0,0,0,0,0,0,-1,1609,939,0,0
392,85,0,0,0,0,0,0,0,0,0,-1,1616,939,0,0
399,85,0,0,0,0,0,0,0,0,0,-1,1623,939,0,0
406,85,0,0,0,0,0,0,0,0,0,-1,1630,939,0,0
413,85,0,0,0,0,0,0,0,0,0,-1,1637,939,0,0
420,85,0,0,0,0,0,0,0,0,0,-1,1644,939,0,0
427,85,0,0,0,0,0,0,0,0,0,-1,1651,939,0,0
434,85,0,0,0,0,0,0,0,0,0,-1,1658,939,0,0
441,85,0,0,0,0,0,0,0,0,0,-1,1665,939,0,0
448,85,0,0,0,0,0,0,0,0,0,-1,1672,939,0,0
455,85,0,0,0,0,0,0,0,0,0,-1,1679,939,0,0
462,85,0,0,0,0,0,0,0,0,0,-1,1686,939,0,0
469,85,0,0,0,0,0,0,0,0,0,-1,1693,939,0,0
476,85,0,0,0,0,0,0,0,0,0,-1,1700,939,0,0
483,85,0,0,0,0,0,0,0,0,0,-1,1707,939,0,0
490,85,0,0,0,0,0,0,0,0,0,-1,1714,939,0,0
497,85,0,0,0,0,0,0,0,0,0,-1,1721,939,0,0
504,85,0,0,0,0,0,0,0,0,0,-1,1728,939,0,0
511,85,0,0,0,0,0,0,0,0,0,-1,1735,939,0,0
518,85,0,0,0,0,0,0,0,0,0,-1,1742,939,0,0
525,85,0,0,0,0,0,0,0,0,0,-1,1749,939,0,0
532,85,0,0,0,0,0,0,0,0,0,-1,1756,939,0,0
539,85,0,0,0,0,0,0,0,0,0,-1,1763,939,0,0
546,85,0,0,0,0,0,0,0,0,0,-1,1770,939,0,0
553,85,0,0,0,0,0,0,0,0,0,-1,1777,939,0,0
560,85,0,0,0,0,0,0,0,0,0,-1,1784,939,0,0
567,85,0,0,0,0,0,0,0,0,0,-1,1791,939,0,0
574,85,0,0,0,0,0,0,0,0,0,-1,1798,939,0,0
581,85,0,0,0,0,0,0,0,0,0,-1,1805,939,0,0
588,85,0,0,0,0,0,0,0,0,0,-1,1812,939,0,0
595,85,0,0,0,0,0,0,0,0,0,-1,1819,939,0,0
602,85,0,0,0,0,0,0,0,0,0,-1,1826,939,0,0
609,85,0,0,0,0,0,0,0,0,0,-1,1833,939,0,0
616,85,0,0,0,0,0,0,0,0,0,-1,1840,939,0,0
623,85,0,0,0,0,0,0,0,0,0,-1,1847,939,0,0
630,85,0,0,0,0,0,0,0,0,0,-1,1854,939,0,0
637,85,64.889,2.54016,0,0,0,0,0,0,0,-1,1861,939,64.8891,-2.54017
644,85,64.9539,2.45081,0.00039234,-0.00293731,0.00295957,0.0021232,-0.00466817,0.529195,0.00401172,0.0423544,1868,939,64.9539,-2.4508
651,85,64.9832,2.42432,-0.000549436,-0.00196807,0.00234228,0.00118857,-0.00370608,0.638372,0.00294789,0.0426295,1875,939,64.9832,-2.42429
658,85,64.8618,2.66968,-0.00110242,-0.00104462,0.00190847,0.000835168,-0.00298221,0.792968,0.00231725,0.045973,1882,939,64.8619,-2.66967
665,85,64.7474,2.86523,-0.00122079,-0.00012883,0.00156087,0.000978798,-0.00232842,0.953643,0.00196171,0.0467402,1889,939,64.7474,-2.86526
672,85,64.7874,2.7511,-0.00151034,0.000339137,0.00139587,0.00108879,-0.00225999,1.07795,0.00197244,0.0444968,1896,939,64.7874,-2.75109
679,85,65.1307,2.51794,-0.0016949,0.000347505,0.0013101,0.000987394,-0.00233479,1.11645,0.00196994,0.0406476,1903,939,65.1308,-2.51795
686,85,64.9031,2.61768,-0.00161748,0.000287129,0.00103488,0.000741188,-0.00207153,1.15733,0.00168338,0.0353947,1910,939,64.903,-2.6177
693,85,64.8619,2.65216,-0.00177351,0.000224166,0.000628822,0.000405622,-0.00195497,1.28986,0.00145746,0.0287131,1917,939,64.862,-2.65217
700,85,64.9053,2.70074,-0.00222506,0.000384342,0.000204184,0.000400223,-0.00224094,1.49318,0.00164369,0.042739,1924,939,64.9052,-2.70075
707,85,65.0273,2.67059,0,0,0,0,0,0,0,-1,1931,939,65.0273,-2.67058
714,85,61.6484,4.29364,0,0,0,0,0,0,0,-1,1938,939,61.6485,-4.29366
721,85,61.3591,4.93121,-0.00301885,0.00160574,-0.000954532,0.00179501,-0.00320812,-1.37505,0.00292671,0.0347512,1945,939,61.3592,-4.9312
728,85,61.0758,5.62195,-0.003509,0.00216662,-0.00098005,0.00233108,-0.00367347,-1.40453,0.00349549,0.0343773,1952,939,61.0758,-5.62192
735,85,61.1276,6.06525,-0.00364039,0.00299896,-0.00121516,0.00321437,-0.00385581,-1.39535,0.00408757,0.031317,1959,939,61.1275,-6.06523
742,85,61.2084,6.56042,-0.00380637,0.00433027,-0.00122007,0.00450928,-0.00398538,-1.42512,0.0049075,0.0209671,1966,939,61.2084,-6.5604
749,85,61.0881,7.09772,-0.00371896,0.00639324,-0.000335873,0.00640438,-0.0037301,-1.53763,0.00591866,0.0150802,1973,939,61.0881,-7.09774
756,85,60.9227,7.59265,-0.0028813,0.00884225,0.00157863,0.0090511,-0.00309015,1.43926,0.00728593,0.0132292,1980,939,60.9228,-7.59263
763,85,60.8746,8.09979,-0.00125163,0.0113468,0.00475421,0.0129395,-0.00284435,1.24753,0.00971425,0.0134796,1987,939,60.8746,-8.09977
770,85,60.7869,8.64001,0.000948228,0.0136057,0.00916639,0.0184159,-0.00386196,1.08753,0.0137466,0.0197684,1994,939,60.7869,-8.64004
777,85,60.8459,9.54492,0,0,0,0,0,0,0,-1,2001,939,60.8459,-9.54494
784,85,61.2031,10.3745,0,0,0,0,0,0,0,-1,2008,939,61.2031,-10.3744
791,85,61.4739,9.84692,0,0,0,0,0,0,0,-1,2015,939,61.474,-9.84692
798,85,62.0234,9.68726,0,0,0,0,0,0,0,-1,2022,939,62.0235,-9.68728
805,85,62.573,9.52765,0,0,0,0,0,0,0,-1,2029,939,62.573,-9.52764
812,85,0,0,0,0,0,0,0,0,0,-1,2036,939,0,0
-700,78,0,0,0,0,0,0,0,0,0,-1,524,946,0,0
-693,78,0,0,0,0,0,0,0,0,0,-1,531,946,0,0
-686,78,-46.0119,8.62878,0,0,0,0,0,0,0,-1,538,946,-46.0119,-8.62876
-679,78,-46.1429,7.98859,0.0113281,0.0500617,-0.0121426,0.0535535,0.00783624,-1.29078,0.0333981,0.046238,545,946,-46.1429,-7.98859
-672,78,-46.4362,7.35822,0.00633013,0.048257,-0.00554977,0.0489792,0.00560796,-1.4414,0.0309533,0.0444618,552,946,-46.4362,-7.35824
-665,78,-46.569,6.86627,0.00182361,0.0446315,-0.000894152,0.0446502,0.00180494,-1.54992,0.0291838,0.0448172,559,946,-46.569,-6.8663
-658,78,-46.3899,6.76709,-0.00189695,0.0399455,0.00234511,0.0400765,-0.00202797,1.51498,0.0274187,0.0479136,566,946,-46.3899,-6.76707
-651,78,-46.4744,6.70984,-0.00470534,0.0346496,0.00446382,0.0351496,-0.00520529,1.45926,0.0253469,0.0443097,573,946,-46.4744,-6.70986
-644,78,-46.6545,6.60352,-0.00650921,0.0290587,0.0056998,0.0299498,-0.00740029,1.41572,0.0228365,0.0313923,580,946,-46.6546,-6.60354
-637,78,-46.9398,6.16754,-0.00724886,0.0239553,0.00619242,0.0251393,-0.00843281,1.38188,0.020167,0.0213646,587,946,-46.9398,-6.16755
-630,78,-47.1176,5.71027,-0.0077369,0.0185993,0.00618554,0.0199797,-0.00911733,1.35122,0.0171849,0.0189127,594,946,-47.1176,-5.71026
-623,78,-47.158,5.24335,-0.007633,0.0130056,0.00588623,0.0145663,-0.00919375,1.31161,0.0138343,0.0143699,601,946,-47.158,-5.24333
-616,78,-47.1749,4.77399,-0.00688623,0.00865904,0.00429786,0.00976815,-0.00799534,1.31824,0.0102728,0.0124274,608,946,-47.1749,-4.77398
-609,78,-47.175,4.31769,-0.00563512,0.00494276,0.00237291,0.00545068,-0.00614304,1.35993,0.00669762,0.0120587,615,946,-47.175,-4.31771
-602,78,-47.1965,3.84271,-0.00465382,0.00301386,0.000881422,0.00311388,-0.00475383,1.45781,0.0045752,0.0165162,622,946,-47.1965,-3.84268
-595,78,-47.1158,3.29736,-0.00374884,0.00204131,-6.82932e-05,0.00204212,-0.00374964,-1.559,0.00339197,0.0168622,629,946,-47.1159,-3.29734
-588,78,-47.0917,2.87939,-0.00303646,0.00110539,-0.000868445,0.00128012,-0.00321119,-1.37226,0.00267175,0.0153381,636,946,-47.0917,-2.87942
-581,78,-47.0314,2.38959,0,0,0,0,0,0,0,-1,643,946,-47.0314,-2.38959
-574,78,-48.2518,1.612,0,0,0,0,0,0,0,-1,650,946,-48.2518,-1.61198
-567,78,-49.236,0.880249,-0.00195245,0.000619258,-0.00272918,0.00235033,-0.00368353,-1.00555,0.00351188,0.0363721,657,946,-49.236,-0.880273
-560,78,-49.1614,0.930298,-0.00182804,0.000861022,-0.00324235,0.00302657,-0.00399359,-0.981946,0.00406588,0.0341413,664,946,-49.1615,-0.930306
-553,78,-49.2487,0.7677,-0.00164146,0.00147767,-0.00364054,0.00387863,-0.00404242,-0.987766,0.00457355,0.0397871,671,946,-49.2487,-0.767682
-546,78,-49.2442,0.915344,-0.00121792,0.00237063,-0.00390004,0.00486933,-0.00371663,-1.00099,0.00497198,0.042148,678,946,-49.2442,-0.915337
-539,78,-49.1635,1.19525,-0.000457792,0.00339748,-0.00399643,0.00590687,-0.00296719,-1.01011,0.0052163,0.0422841,685,946,-49.1635,-1.19527
-532,78,-49.1031,1.00616,0.0005334,0.00434479,-0.0041121,0.00697132,-0.00209313,-1.00238,0.00548016,0.0414221,692,946,-49.1031,-1.00618
-525,78,-48.999,0.669556,0.000417386,0.00582382,-0.00523469,0.00901207,-0.00277086,-1.02374,0.00711387,0.0413764,699,946,-48.999,-0.66957
-518,78,-49.0918,0.842285,0.000924465,0.00718818,-0.00616215,0.0109687,-0.00285603,-1.02051,0.00842735,0.0439355,706,946,-49.0918,-0.842271
-511,78,0,0,0,0,0,0,0,0,0,-1,713,946,0,0
-504,78,0,0,0,0,0,0,0,0,0,-1,720,946,0,0
-497,78,0,0,0,0,0,0,0,0,0,-1,727,946,0,0
-490,78,0,0,0,0,0,0,0,0,0,-1,734,946,0,0
-483,78,0,0,0,0,0,0,0,0,0,-1,741,946,0,0
-476,78,0,0,0,0,0,0,0,0,0,-1,748,946,0,0
-469,78,0,0,0,0,0,0,0,0,0,-1,755,946,0,0
-462,78,0,0,0,0,0,0,0,0,0,-1,762,946,0,0
-455,78,0,0,0,0,0,0,0,0,0,-1,769,946,0,0
-448,78,0,0,0,0,0,0,0,0,0,-1,776,946,0,0
-441,78,0,0,0,0,0,0,0,0,0,-1,783,946,0,0
-434,78,0,0,0,0,0,0,0,0,0,-1,790,946,0,0
-427,78,0,0,0,0,0,0,0,0,0,-1,797,946,0,0
-420,78,0,0,0,0,0,0,0,0,0,-1,804,946,0,0
-413,78,0,0,0,0,0,0,0,0,0,-1,811,946,0,0
-406,78,0,0,0,0,0,0,0,0,0,-1,818,946,0,0
-399,78,0,0,0,0,0,0,0,0,0,-1,825,946,0,0
-392,78,0,0,0,0,0,0,0,0,0,-1,832,946,0,0
-385,78,0,0,0,0,0,0,0,0,0,-1,839,946,0,0
-378,78,0,0,0,0,0,0,0,0,0,-1,846,946,0,0
-371,78,0,0,0,0,0,0,0,0,0,-1,853,946,0,0
-364,78,0,0,0,0,0,0,0,0,0,-1,860,946,0,0
-357,78,0,0,0,0,0,0,0,0,0,-1,867,946,0,0
-350,78,0,0,0,0,0,0,0,0,0,-1,874,946,0,0
-343,78,0,0,0,0,0,0,0,0,0,-1,881,946,0,0
-336,78,0,0,0,0,0,0,0,0,0,-1,888,946,0,0
-329,78,0,0,0,0,0,0,0,0,0,-1,895,946,0,0
-322,78,0,0,0,0,0,0,0,0,0,-1,902,946,0,0
-315,78,0,0,0,0,0,0,0,0,0,-1,909,946,0,0
-308,78,0,0,0,0,0,0,0,0,0,-1,916,946,0,0
-301,78,0,0,0,0,0,0,0,0,0,-1,923,946,0,0
-294,78,0,0,0,0,0,0,0,0,0,-1,930,946,0,0
-287,78,0,0,0,0,0,0,0,0,0,-1,937,946,0,0
-280,78,0,0,0,0,0,0,0,0,0,-1,944,946,0,0
-273,78,0,0,0,0,0,0,0,0,0,-1,951,946,0,0
-266,78,0,0,0,0,0,0,0,0,0,-1,958,946,0,0
-259,78,0,0,0,0,0,0,0,0,0,-1,965,946,0,0
-252,78,0,0,0,0,0,0,0,0,0,-1,972,946,0,0
-245,78,0,0,0,0,0,0,0,0,0,-1,979,946,0,0
-238,78,0,0,0,0,0,0,0,0,0,-1,986,946,0,0
-231,78,0,0,0,0,0,0,0,0,0,-1,993,946,0,0
-224,78,0,0,0,0,0,0,0,0,0,-1,1000,946,0,0
-217,78,0,0,0,0,0,0,0,0,0,-1,1007,946,0,0
-210,78,0,0,0,0,0,0,0,0,0,-1,1014,946,0,0
-203,78,0,0,0,0,0,0,0,0,0,-1,1021,946,0,0
-196,78,0,0,0,0,0,0,0,0,0,-1,1028,946,0,0
-189,78,0,0,0,0,0,0,0,0,0,-1,1035,946,0,0
-182,78,0,0,0,0,0,0,0,0,0,-1,1042,946,0,0
-175,78,0,0,0,0,0,0,0,0,0,-1,1049,946,0,0
-168,78,0,0,0,0,0,0,0,0,0,-1,1056,946,0,0
-161,78,0,0,0,0,0,0,0,0,0,-1,1063,946,0,0
-154,78,0,0,0,0,0,0,0,0,0,-1,1070,946,0,0
-147,78,0,0,0,0,0,0,0,0,0,-1,1077,946,0,0
-140,78,0,0,0,0,0,0,0,0,0,-1,1084,946,0,0
-133,78,0,0,0,0,0,0,0,0,0,-1,1091,946,0,0
-126,78,0,0,0,0,0,0,0,0,0,-1,1098,946,0,0
-119,78,0,0,0,0,0,0,0,0,0,-1,1105,946,0,0
-112,78,0,0,0,0,0,0,0,0,0,-1,1112,946,0,0
-105,78,0,0,0,0,0,0,0,0,0,-1,1119,946,0,0
-98,78,0,0,0,0,0,0,0,0,0,-1,1126,946,0,0
-91,78,0,0,0,0,0,0,0,0,0,-1,1133,946,0,0
-84,78,0,0,0,0,0,0,0,0,0,-1,1140,946,0,0
-77,78,0,0,0,0,0,0,0,0,0,-1,1147,946,0,0
-70,78,0,0,0,0,0,0,0,0,0,-1,1154,946,0,0
-63,78,0,0,0,0,0,0,0,0,0,-1,1161,946,0,0
-56,78,0,0,0,0,0,0,0,0,0,-1,1168,946,0,0
-49,78,0,0,0,0,0,0,0,0,0,-1,1175,946,0,0
-42,78,0,0,0,0,0,0,0,0,0,-1,1182,946,0,0
-35,78,0,0,0,0,0,0,0,0,0,-1,1189,946,0,0
-28,78,0,0,0,0,0,0,0,0,0,-1,1196,946,0,0
-21,78,0,0,0,0,0,0,0,0,0,-1,1203,946,0,0
-14,78,0,0,0,0,0,0,0,0,0,-1,1210,946,0,0
-7,78,0,0,0,0,0,0,0,0,0,-1,1217,946,0,0
0,78,0,0,0,0,0,0,0,0,0,-1,1224,946,0,0
7,78,0,0,0,0,0,0,0,0,0,-1,1231,946,0,0
14,78,0,0,0,0,0,0,0,0,0,-1,1238,946,0,0
21,78,0,0,0,0,0,0,0,0,0,-1,1245,946,0,0
28,78,0,0,0,0,0,0,0,0,0,-1,1252,946,0,0
35,78,0,0,0,0,0,0,0,0,0,-1,1259,946,0,0
42,78,0,0,0,0,0,0,0,0,0,-1,1266,946,0,0
49,78,0,0,0,0,0,0,0,0,0,-1,1273,946,0,0
56,78,0,0,0,0,0,0,0,0,0,-1,1280,946,0,0
63,78,0,0,0,0,0,0,0,0,0,-1,1287,946,0,0
70,78,0,0,0,0,0,0,0,0,0,-1,1294,946,0,0
77,78,0,0,0,0,0,0,0,0,0,-1,1301,946,0,0
84,78,0,0,0,0,0,0,0,0,0,-1,1308,946,0,0
91,78,0,0,0,0,0,0,0,0,0,-1,1315,946,0,0
98,78,0,0,0,0,0,0,0,0,0,-1,1322,946,0,0
105,78,0,0,0,0,0,0,0,0,0,-1,1329,946,0,0
112,78,0,0,0,0,0,0,0,0,0,-1,1336,946,0,0
119,78,0,0,0,0,0,0,0,0,0,-1,1343,946,0,0
126,78,0,0,0,0,0,0,0,0,0,-1,1350,946,0,0
133,78,0,0,0,0,0,0,0,0,0,-1,1357,946,0,0
140,78,0,0,0,0,0,0,0,0,0,-1,1364,946,0,0
147,78,0,0,0,0,0,0,0,0,0,-1,1371,946,0,0
154,78,0,0,0,0,0,0,0,0,0,-1,1378,946,0,0
161,78,0,0,0,0,0,0,0,0,0,-1,1385,946,0,0
168,78,0,0,0,0,0,0,0,0,0,-1,1392,946,0,0
175,78,0,0,0,0,0,0,0,0,0,-1,1399,946,0,0
182,78,0,0,0,0,0,0,0,0,0,-1,1406,946,0,0
189,78,0,0,0,0,0,0,0,0,0,-1,1413,946,0,0
196,78,0,0,0,0,0,0,0,0,0,-1,1420,946,0,0
203,78,0,0,0,0,0,0,0,0,0,-1,1427,946,0,0
210,78,0,0,0,0,0,0,0,0,0,-1,1434,946,0,0
217,78,0,0,0,0,0,0,0,0,0,-1,1441,946,0,0
224,78,0,0,0,0,0,0,0,0,0,-1,1448,946,0,0
231,78,0,0,0,0,0,0,0,0,0,-1,1455,946,0,0
238,78,0,0,0,0,0,0,0,0,0,-1,1462,946,0,0
245,78,0,0,0,0,0,0,0,0,0,-1,1469,946,0,0
252,78,0,0,0,0,0,0,0,0,0,-1,1476,946,0,0
259,78,0,0,0,0,0,0,0,0,0,-1,1483,946,0,0
266,78,0,0,0,0,0,0,0,0,0,-1,1490,946,0,0
273,78,0,0,0,0,0,0,0,0,0,-1,1497,946,0,0
280,78,0,0,0,0,0,0,0,0,0,-1,1504,946,0,0
287,78,0,0,0,0,0,0,0,0,0,-1,1511,946,0,0
294,78,0,0,0,0,0,0,0,0,0,-1,1518,946,0,0
301,78,0,0,0,0,0,0,0,0,0,-1,1525,946,0,0
308,78,0,0,0,0,0,0,0,0,0,-1,1532,946,0,0
315,78,0,0,0,0,0,0,0,0,0,-1,1539,946,0,0
322,78,0,0,0,0,0,0,0,0,0,-1,1546,946,0,0
329,78,0,0,0,0,0,0,0,0,0,-1,1553,946,0,0
336,78,0,0,0,0,0,0,0,0,0,-1,1560,946,0,0
343,78,0,0,0,0,0,0,0,0,0,-1,1567,946,0,0
350,78,0,0,0,0,0,0,0,0,0,-1,1574,946,0,0
357,78,0,0,0,0,0,0,0,0,0,-1,1581,946,0,0
364,78,0,0,0,0,0,0,0,0,0,-1,1588,946,0,0
371,78,0,0,0,0,0,0,0,0,0,-1,1595,946,0,0
378,78,0,0,0,0,0,0,0,0,0,-1,1602,946,0,0
385,78,0,0,0,0,0,0,0,0,0,-1,1609,946,0,0
392,78,0,0,0,0,0,0,0,0,0,-1,1616,946,0,0
399,78,0,0,0,0,0,0,0,0,0,-1,1623,946,0,0
406,78,0,0,0,0,0,0,0,0,0,-1,1630,946,0,0
413,78,0,0,0,0,0,0,0,0,0,-1,1637,946,0,0
420,78,0,0,0,0,0,0,0,0,0,-1,1644,946,0,0
427,78,0,0,0,0,0,0,0,0,0,-1,1651,946,0,0
434,78,0,0,0,0,0,0,0,0,0,-1,1658,946,0,0
441,78,0,0,0,0,0,0,0,0,0,-1,1665,946,0,0
448,78,0,0,0,0,0,0,0,0,0,-1,1672,946,0,0
455,78,0,0,0,0,0,0,0,0,0,-1,1679,946,0,0
462,78,0,0,0,0,0,0,0,0,0,-1,1686,946,0,0
469,78,0,0,0,0,0,0,0,0,0,-1,1693,946,0,0
476,78,0,0,0,0,0,0,0,0,0,-1,1700,946,0,0
483,78,0,0,0,0,0,0,0,0,0,-1,1707,946,0,0
490,78,0,0,0,0,0,0,0,0,0,-1,1714,946,0,0
497,78,0,0,0,0,0,0,0,0,0,-1,1721,946,0,0
504,78,0,0,0,0,0,0,0,0,0,-1,1728,946,0,0
511,78,0,0,0,0,0,0,0,0,0,-1,1735,946,0,0
518,78,0,0,0,0,0,0,0,0,0,-1,1742,946,0,0
525,78,0,0,0,0,0,0,0,0,0,-1,1749,946,0,0
532,78,0,0,0,0,0,0,0,0,0,-1,1756,946,0,0
539,78,0,0,0,0,0,0,0,0,0,-1,1763,946,0,0
546,78,0,0,0,0,0,0,0,0,0,-1,1770,946,0,0
553,78,0,0,0,0,0,0,0,0,0,-1,1777,946,0,0
560,78,0,0,0,0,0,0,0,0,0,-1,1784,946,0,0
567,78,0,0,0,0,0,0,0,0,0,-1,1791,946,0,0
574,78,0,0,0,0,0,0,0,0,0,-1,1798,946,0,0
581,78,0,0,0,0,0,0,0,0,0,-1,1805,946,0,0
588,78,0,0,0,0,0,0,0,0,0,-1,1812,946,0,0
595,78,0,0,0,0,0,0,0,0,0,-1,1819,946,0,0
602,78,0,0,0,0,0,0,0,0,0,-1,1826,946,0,0
609,78,0,0,0,0,0,0,0,0,0,-1,1833,946,0,0
616,78,0,0,0,0,0,0,0,0,0,-1,1840,946,0,0
623,78,0,0,0,0,0,0,0,0,0,-1,1847,946,0,0
630,78,0,0,0,0,0,0,0,0,0,-1,1854,946,0,0
637,78,65.0243,2.51892,0.00261717,-0.00437099,0.00440044,0.00474202,-0.00649584,0.449853,0.00651447,0.0490477,1861,946,65.0243,-2.51893
644,78,64.9227,2.55695,0.00107255,-0.00318616,0.00319841,0.00278558,-0.00489919,0.491713,0.0044924,0.0453323,1868,946,64.9227,-2.55693
651,78,64.918,2.58704,8.65007e-05,-0.0022749,0.00242028,0.00159872,-0.00378712,0.558463,0.00319393,0.043795,1875,946,64.918,-2.58701
658,78,64.88,2.75476,-0.000514977,-0.00140659,0.00192527,0.00101543,-0.002937,0.671625,0.00237013,0.0426855,1882,946,64.88,-2.75475
665,78,64.8525,2.74323,-0.000768833,-0.000544065,0.00155092,0.000898535,-0.00221143,0.821566,0.0018481,0.0429158,1889,946,64.8526,-2.74322
672,78,64.9647,2.36646,-0.00121137,-6.13491e-05,0.00138735,0.000865435,-0.00213815,0.981855,0.00178526,0.0423641,1896,946,64.9647,-2.36648
679,78,64.9448,2.63354,-0.00154554,-3.10502e-05,0.00133087,0.000742926,-0.00231951,1.04405,0.00184455,0.0421086,1903,946,64.9448,-2.63355
686,78,64.8086,2.69202,-0.00156829,-0.00013627,0.00108672,0.000449117,-0.00215367,1.07669,0.00160655,0.0392506,1910,946,64.8086,-2.69199
693,78,64.8262,2.61115,-0.001791,-0.000239885,0.000700388,2.95612e-05,-0.00206044,1.20354,0.00138359,0.0309758,1917,946,64.8262,-2.61112
700,78,64.8785,2.57086,-0.00231057,-9.61483e-05,0.000285357,-5.99674e-05,-0.00234675,1.44468,0.0015449,0.026403,1924,946,64.8785,-2.57089
707,78,64.9497,2.58685,0,0,0,0,0,0,0,-1,1931,946,64.9497,-2.58688
714,78,62.0082,4.43719,0,0,0,0,0,0,0,-1,1938,946,62.0082,-4.43722
721,78,61.8203,4.99683,-0.00345604,0.00132779,-0.000847014,0.00147333,-0.00360158,-1.40063,0.00301466,0.033571,1945,946,61.8203,-4.9968
728,78,61.7073,5.68457,-0.00399494,0.00202998,-0.00089649,0.00216055,-0.00412551,-1.42617,0.00368789,0.0414226,1952,946,61.7072,-5.68458
735,78,61.7942,6.14423,-0.00421391,0.00299485,-0.00115504,0.0031754,-0.00439446,-1.41574,0.00438931,0.0284061,1959,946,61.7942,-6.14424
742,78,61.8097,6.59094,-0.00457375,0.00440765,-0.00115349,0.00455343,-0.00471953,-1.44508,0.00535403,0.021042,1966,946,61.8097,-6.59092
749,78,61.635,7.07117,-0.00483825,0.00664892,-0.000296086,0.00665655,-0.00484588,-1.54504,0.0066683,0.0159392,1973,946,61.6351,-7.07115
756,78,61.5231,7.51105,-0.0045544,0.00941021,0.00154423,0.00957893,-0.00472312,1.46197,0.00841444,0.0154171,1980,946,61.523,-7.51103
763,78,61.4492,7.96832,-0.00357663,0.0124093,0.00478742,0.0137333,-0.00490069,1.30097,0.0111539,0.0165082,1987,946,61.4492,-7.9683
770,78,61.3574,8.3996,-0.00215247,0.0152068,0.0093178,0.0192612,-0.00620694,1.16038,0.0153344,0.0227342,1994,946,61.3574,-8.39958
777,78,61.1479,8.83429,-0.000631089,0.0175981,0.016109,0.0269923,-0.0100253,1.04285,0.0221078,0.0448048,2001,946,61.148,-8.83429
784,78,60.9915,9.29175,0,0,0,0,0,0,0,-1,2008,946,60.9913,-9.29175
791,78,60.9285,8.82367,0,0,0,0,0,0,0,-1,2015,946,60.9285,-8.8237
798,78,63.2144,8.56195,0,0,0,0,0,0,0,-1,2022,946,63.2144,-8.56197
805,78,63.7205,8.24469,0,0,0,0,0,0,0,-1,2029,946,63.7206,-8.24467
812,78,0,0,0,0,0,0,0,0,0,-1,2036,946,0,0
-700,71,0,0,0,0,0,0,0,0,0,-1,524,953,0,0
-693,71,0,0,0,0,0,0,0,0,0,-1,531,953,0,0
-686,71,-46.2057,8.11591,0,0,0,0,0,0,0,-1,538,953,-46.2057,-8.11591
-679,71,-46.2895,7.47162,0.00618335,0.0448754,-0.0119928,0.0482911,0.00276766,-1.29333,0.0313123,0.0445547,545,953,-46.2895,-7.47159
-672,71,-46.6067,7.1936,0.00277207,0.0442592,-0.00557544,0.0449954,0.00203585,-1.43951,0.0293419,0.0452478,552,953,-46.6067,-7.19358
-665,71,-47.054,6.61707,0,0,0,0,0,0,0,-1,559,953,-47.0541,-6.61708
-658,71,-46.7112,6.9151,0,0,0,0,0,0,0,-1,566,953,-46.7112,-6.91507
-651,71,-46.8501,6.81372,-0.00573528,0.0333897,0.00449083,0.0338986,-0.00624412,1.45797,0.0249423,0.0464514,573,953,-46.8501,-6.81371
-644,71,-47.1426,6.54309,-0.00715383,0.0282984,0.00574306,0.0292055,-0.00806096,1.41414,0.0226408,0.0360471,580,953,-47.1427,-6.54311
-637,71,-47.4709,6.06909,-0.00754452,0.0237138,0.00621599,0.0249046,-0.00873527,1.38153,0.020156,0.0197604,587,953,-47.4709,-6.06908
-630,71,-47.6219,5.62799,-0.00780636,0.0186925,0.00601418,0.0199936,-0.00910745,1.35774,0.0171889,0.0180315,594,953,-47.6219,-5.62798
-623,71,-47.6622,5.18286,-0.00745178,0.0132202,0.00548878,0.0145871,-0.00881876,1.32671,0.0136495,0.0156066,601,953,-47.6623,-5.18285
-616,71,-47.6884,4.70715,-0.00670793,0.00911023,0.0037729,0.00996405,-0.00756175,1.34824,0.0101502,0.0154468,608,953,-47.6884,-4.70715
-609,71,-47.6655,4.29291,-0.00554356,0.00563254,0.00172993,0.00589419,-0.00580521,1.42069,0.00675471,0.0160501,615,953,-47.6655,-4.29293
-602,71,-47.6456,3.85938,-0.00443419,0.00365452,0.000124695,0.00365645,-0.00443611,1.55539,0.00467946,0.0170982,622,953,-47.6456,-3.85938
-595,71,-47.6332,3.4505,-0.00342526,0.0025958,-0.000948311,0.00274163,-0.00357109,-1.41822,0.00365512,0.0203151,629,953,-47.6332,-3.45052
-588,71,-47.5889,3.09442,-0.00268365,0.00155402,-0.00184399,0.00224406,-0.00337369,-1.21272,0.00326519,0.0257771,636,953,-47.5889,-3.09441
-581,71,-47.3892,2.67157,0,0,0,0,0,0,0,-1,643,953,-47.3892,-2.67154
-574,71,-49.2821,0.826904,0,0,0,0,0,0,0,-1,650,953,-49.2821,-0.82692
-567,71,-49.2452,0.822754,-0.00157091,0.00111726,-0.00379183,0.00379618,-0.00424983,-0.955723,0.00464783,0.0219017,657,953,-49.2453,-0.822739
-560,71,-49.2277,0.817688,-0.00146018,0.00144156,-0.00419786,0.0044322,-0.00445083,-0.951782,0.00512862,0.0289757,664,953,-49.2276,-0.817699
-553,71,-49.1976,0.798035,-0.00125473,0.00210364,-0.00445167,0.00518229,-0.00433338,-0.965748,0.00550116,0.0392514,671,953,-49.1976,-0.79801
-546,71,-49.199,0.826233,-0.00081439,0.00299346,-0.00451566,0.00599016,-0.00381109,-0.984904,0.00570518,0.0425254,678,953,-49.199,-0.826227
-539,71,-49.1617,0.889465,0,0,0,0,0,0,0,-1,685,953,-49.1617,-0.889477
-532,71,-49.2441,0.389832,0,0,0,0,0,0,0,-1,692,953,-49.2441,-0.389851
-525,71,-49.1778,0.537964,0,0,0,0,0,0,0,-1,699,953,-49.1778,-0.537949
-518,71,0,0,0,0,0,0,0,0,0,-1,706,953,0,0
-511,71,0,0,0,0,0,0,0,0,0,-1,713,953,0,0
-504,71,0,0,0,0,0,0,0,0,0,-1,720,953,0,0
-497,71,0,0,0,0,0,0,0,0,0,-1,727,953,0,0
-490,71,0,0,0,0,0,0,0,0,0,-1,734,953,0,0
-483,71,0,0,0,0,0,0,0,0,0,-1,741,953,0,0
-476,71,0,0,0,0,0,0,0,0,0,-1,748,953,0,0
-469,71,0,0,0,0,0,0,0,0,0,-1,755,953,0,0
-462,71,0,0,0,0,0,0,0,0,0,-1,762,953,0,0
-455,71,0,0,0,0,0,0,0,0,0,-1,769,953,0,0
-448,71,0,0,0,0,0,0,0,0,0,-1,776,953,0,0
-441,71,0,0,0,0,0,0,0,0,0,-1,783,953,0,0
-434,71,0,0,0,0,0,0,0,0,0,-1,790,953,0,0
-427,71,0,0,0,0,0,0,0,0,0,-1,797,953,0,0
-420,71,0,0,0,0,0,0,0,0,0,-1,804,953,0,0
-413,71,0,0,0,0,0,0,0,0,0,-1,811,953,0,0
-406,71,0,0,0,0,0,0,0,0,0,-1,818,953,0,0
-399,71,0,0,0,0,0,0,0,0,0,-1,825,953,0,0
-392,71,0,0,0,0,0,0,0,0,0,-1,832,953,0,0
-385,71,0,0,0,0,0,0,0,0,0,-1,839,953,0,0
-378,71,0,0,0,0,0,0,0,0,0,-1,846,953,0,0
-371,71,0,0,0,0,0,0,0,0,0,-1,853,953,0,0
-364,71,0,0,0,0,0,0,0,0,0,-1,860,953,0,0
-357,71,0,0,0,0,0,0,0,0,0,-1,867,953,0,0
-350,71,0,0,0,0,0,0,0,0,0,-1,874,953,0,0
-343,71,0,0,0,0,0,0,0,0,0,-1,881,953,0,0
-336,71,0,0,0,0,0,0,0,0,0,-1,888,953,0,0
-329,71,0,0,0,0,0,0,0,0,0,-1,895,953,0,0
-322,71,0,0,0,0,0,0,0,0,0,-1,902,953,0,0
-315,71,0,0,0,0,0,0,0,0,0,-1,909,953,0,0
-308,71,0,0,0,0,0,0,0,0,0,-1,916,953,0,0
-301,71,0,0,0,0,0,0,0,0,0,-1,923,953,0,0
-294,71,0,0,0,0,0,0,0,0,0,-1,930,953,0,0
-287,71,0,0,0,0,0,0,0,0,0,-1,937,953,0,0
-280,71,0,0,0,0,0,0,0,0,0,-1,944,953,0,0
-273,71,0,0,0,0,0,0,0,0,0,-1,951,953,0,0
-266,71,0,0,0,0,0,0,0,0,0,-1,958,953,0,0
-259,71,0,0,0,0,0,0,0,0,0,-1,965,953,0,0
-252,71,0,0,0,0,0,0,0,0,0,-1,972,953,0,0
-245,71,0,0,0,0,0,0,0,0,0,-1,979,953,0,0
-238,71,0,0,0,0,0,0,0,0,0,-1,986,953,0,0
-231,71,0,0,0,0,0,0,0,0,0,-1,993,953,0,0
-224,71,0,0,0,0,0,0,0,0,0,-1,1000,953,0,0
-217,71,0,0,0,0,0,0,0,0,0,-1,1007,953,0,0
-210,71,0,0,0,0,0,0,0,0,0,-1,1014,953,0,0
-203,71,0,0,0,0,0,0,0,0,0,-1,1021,953,0,0
-196,71,0,0,0,0,0,0,0,0,0,-1,1028,953,0,0
-189,71,0,0,0,0,0,0,0,0,0,-1,1035,953,0,0
-182,71,0,0,0,0,0,0,0,0,0,-1,1042,953,0,0
-175,71,0,0,0,0,0,0,0,0,0,-1,1049,953,0,0
-168,71,0,0,0,0,0,0,0,0,0,-1,1056,953,0,0
-161,71,0,0,0,0,0,0,0,0,0,-1,1063,953,0,0
-154,71,0,0,0,0,0,0,0,0,0,-1,1070,953,0,0
-147,71,0,0,0,0,0,0,0,0,0,-1,1077,953,0,0
-140,71,0,0,0,0,0,0,0,0,0,-1,1084,953,0,0
-133,71,0,0,0,0,0,0,0,0,0,-1,1091,953,0,0
-126,71,0,0,0,0,0,0,0,0,0,-1,1098,953,0,0
-119,71,0,0,0,0,0,0,0,0,0,-1,1105,953,0,0
-112,71,0,0,0,0,0,0,0,0,0,-1,1112,953,0,0
-105,71,0,0,0,0,0,0,0,0,0,-1,1119,953,0,0
-98,71,0,0,0,0,0,0,0,0,0,-1,1126,953,0,0
-91,71,0,0,0,0,0,0,0,0,0,-1,1133,953,0,0
-84,71,0,0,0,0,0,0,0,0,0,-1,1140,953,0,0
-77,71,0,0,0,0,0,0,0,0,0,-1,1147,953,0,0
-70,71,0,0,0,0,0,0,0,0,0,-1,1154,953,0,0
-63,71,0,0,0,0,0,0,0,0,0,-1,1161,953,0,0
-56,71,0,0,0,0,0,0,0,0,0,-1,1168,953,0,0
-49,71,0,0,0,0,0,0,0,0,0,-1,1175,953,0,0
-42,71,0,0,0,0,0,0,0,0,0,-1,1182,953,0,0
-35,71,0,0,0,0,0,0,0,0,0,-1,1189,953,0,0
-28,71,0,0,0,0,0,0,0,0,0,-1,1196,953,0,0
-21,71,0,0,0,0,0,0,0,0,0,-1,1203,953,0,0
-14,71,0,0,0,0,0,0,0,0,0,-1,1210,953,0,0
-7,71,0,0,0,0,0,0,0,0,0,-1,1217,953,0,0
0,71,0,0,0,0,0,0,0,0,0,-1,1224,953,0,0
7,71,0,0,0,0,0,0,0,0,0,-1,1231,953,0,0
14,71,0,0,0,0,0,0,0,0,0,-1,1238,953,0,0
21,71,0,0,0,0,0,0,0,0,0,-1,1245,953,0,0
28,71,0,0,0,0,0,0,0,0,0,-1,1252,953,0,0
35,71,0,0,0,0,0,0,0,0,0,-1,1259,953,0,0
42,71,0,0,0,0,0,0,0,0,0,-1,1266,953,0,0
49,71,0,0,0,0,0,0,0,0,0,-1,1273,953,0,0
56,71,0,0,0,0,0,0,0,0,0,-1,1280,953,0,0
63,71,0,0,0,0,0,0,0,0,0,-1,1287,953,0,0
70,71,0,0,0,0,0,0,0,0,0,-1,1294,953,0,0
77,71,0,0,0,0,0,0,0,0,0,-1,1301,953,0,0
84,71,0,0,0,0,0,0,0,0,0,-1,1308,953,0,0
91,71,0,0,0,0,0,0,0,0,0,-1,1315,953,0,0
98,71,0,0,0,0,0,0,0,0,0,-1,1322,953,0,0
105,71,0,0,0,0,0,0,0,0,0,-1,1329,953,0,0
112,71,0,0,0,0,0,0,0,0,0,-1,1336,953,0,0
119,71,0,0,0,0,0,0,0,0,0,-1,1343,953,0,0
126,71,0,0,0,0,0,0,0,0,0,-1,1350,953,0,0
133,71,0,0,0,0,0,0,0,0,0,-1,1357,953,0,0
140,71,0,0,0,0,0,0,0,0,0,-1,1364,953,0,0
147,71,0,0,0,0,0,0,0,0,0,-1,1371,953,0,0
154,71,0,0,0,0,0,0,0,0,0,-1,1378,953,0,0
161,71,0,0,0,0,0,0,0,0,0,-1,1385,953,0,0
168,71,0,0,0,0,0,0,0,0,0,-1,1392,953,0,0
175,71,0,0,0,0,0,0,0,0,0,-1,1399,953,0,0
182,71,0,0,0,0,0,0,0,0,0,-1,1406,953,0,0
189,71,0,0,0,0,0,0,0,0,0,-1,1413,953,0,0
196,71,0,0,0,0,0,0,0,0,0,-1,1420,953,0,0
203,71,0,0,0,0,0,0,0,0,0,-1,1427,953,0,0
210,71,0,0,0,0,0,0,0,0,0,-1,1434,953,0,0
217,71,0,0,0,0,0,0,0,0,0,-1,1441,953,0,0
224,71,0,0,0,0,0,0,0,0,0,-1,1448,953,0,0
231,71,0,0,0,0,0,0,0,0,0,-1,1455,953,0,0
238,71,0,0,0,0,0,0,0,0,0,-1,1462,953,0,0
245,71,0,0,0,0,0,0,0,0,0,-1,1469,953,0,0
252,71,0,0,0,0,0,0,0,0,0,-1,1476,953,0,0
259,71,0,0,0,0,0,0,0,0,0,-1,1483,953,0,0
266,71,0,0,0,0,0,0,0,0,0,-1,1490,953,0,0
273,71,0,0,0,0,0,0,0,0,0,-1,1497,953,0,0
280,71,0,0,0,0,0,0,0,0,0,-1,1504,953,0,0
287,71,0,0,0,0,0,0,0,0,0,-1,1511,953,0,0
294,71,0,0,0,0,0,0,0,0,0,-1,1518,953,0,0
301,71,0,0,0,0,0,0,0,0,0,-1,1525,953,0,0
308,71,0,0,0,0,0,0,0,0,0,-1,1532,953,0,0
315,71,0,0,0,0,0,0,0,0,0,-1,1539,953,0,0
322,71,0,0,0,0,0,0,0,0,0,-1,1546,953,0,0
329,71,0,0,0,0,0,0,0,0,0,-1,1553,953,0,0
336,71,0,0,0,0,0,0,0,0,0,-1,1560,953,0,0
343,71,0,0,0,0,0,0,0,0,0,-1,1567,953,0,0
350,71,0,0,0,0,0,0,0,0,0,-1,1574,953,0,0
357,71,0,0,0,0,0,0,0,0,0,-1,1581,953,0,0
364,71,0,0,0,0,0,0,0,0,0,-1,1588,953,0,0
371,71,0,0,0,0,0,0,0,0,0,-1,1595,953,0,0
378,71,0,0,0,0,0,0,0,0,0,-1,1602,953,0,0
385,71,0,0,0,0,0,0,0,0,0,-1,1609,953,0,0
392,71,0,0,0,0,0,0,0,0,0,-1,1616,953,0,0
399,71,0,0,0,0,0,0,0,0,0,-1,1623,953,0,0
406,71,0,0,0,0,0,0,0,0,0,-1,1630,953,0,0
413,71,0,0,0,0,0,0,0,0,0,-1,1637,953,0,0
420,71,0,0,0,0,0,0,0,0,0,-1,1644,953,0,0
427,71,0,0,0,0,0,0,0,0,0,-1,1651,953,0,0
434,71,0,0,0,0,0,0,0,0,0,-1,1658,953,0,0
441,71,0,0,0,0,0,0,0,0,0,-1,1665,953,0,0
448,71,0,0,0,0,0,0,0,0,0,-1,1672,953,0,0
455,71,0,0,0,0,0,0,0,0,0,-1,1679,953,0,0
462,71,0,0,0,0,0,0,0,0,0,-1,1686,953,0,0
469,71,0,0,0,0,0,0,0,0,0,-1,1693,953,0,0
476,71,0,0,0,0,0,0,0,0,0,-1,1700,953,0,0
483,71,0,0,0,0,0,0,0,0,0,-1,1707,953,0,0
490,71,0,0,0,0,0,0,0,0,0,-1,1714,953,0,0
497,71,0,0,0,0,0,0,0,0,0,-1,1721,953,0,0
504,71,0,0,0,0,0,0,0,0,0,-1,1728,953,0,0
511,71,0,0,0,0,0,0,0,0,0,-1,1735,953,0,0
518,71,0,0,0,0,0,0,0,0,0,-1,1742,953,0,0
525,71,0,0,0,0,0,0,0,0,0,-1,1749,953,0,0
532,71,0,0,0,0,0,0,0,0,0,-1,1756,953,0,0
539,71,0,0,0,0,0,0,0,0,0,-1,1763,953,0,0
546,71,0,0,0,0,0,0,0,0,0,-1,1770,953,0,0
553,71,0,0,0,0,0,0,0,0,0,-1,1777,953,0,0
560,71,0,0,0,0,0,0,0,0,0,-1,1784,953,0,0
567,71,0,0,0,0,0,0,0,0,0,-1,1791,953,0,0
574,71,0,0,0,0,0,0,0,0,0,-1,1798,953,0,0
581,71,0,0,0,0,0,0,0,0,0,-1,1805,953,0,0
588,71,0,0,0,0,0,0,0,0,0,-1,1812,953,0,0
595,71,0,0,0,0,0,0,0,0,0,-1,1819,953,0,0
602,71,0,0,0,0,0,0,0,0,0,-1,1826,953,0,0
609,71,0,0,0,0,0,0,0,0,0,-1,1833,953,0,0
616,71,0,0,0,0,0,0,0,0,0,-1,1840,953,0,0
623,71,0,0,0,0,0,0,0,0,0,-1,1847,953,0,0
630,71,0,0,0,0,0,0,0,0,0,-1,1854,953,0,0
637,71,64.884,2.53802,0.00329302,-0.00422815,0.00430035,0.00524515,-0.00618027,0.426129,0.00660382,0.0404953,1861,953,64.884,-2.53804
644,71,64.8448,2.63947,0.0017091,-0.00312912,0.0029725,0.00312246,-0.00454249,0.44384,0.0044506,0.0413052,1868,953,64.8448,-2.63944
651,71,64.9539,2.77893,0.000672836,-0.00228445,0.00215173,0.001805,-0.00341662,0.484361,0.00306219,0.0408598,1875,953,64.9538,-2.77893
658,71,64.9503,2.74274,3.07782e-05,-0.001497,0.00168243,0.00111462,-0.00258084,0.572295,0.00218884,0.0386537,1882,953,64.9503,-2.74274
665,71,64.9539,2.56647,-0.000369154,-0.000694457,0.00135752,0.000835426,-0.00189904,0.725775,0.00161806,0.0399078,1889,953,64.9539,-2.56649
672,71,64.8887,2.34583,-0.000959287,-0.000189361,0.0012442,0.00072807,-0.00187672,0.93543,0.00155185,0.040163,1896,953,64.8886,-2.34584
679,71,64.828,2.47241,-0.00142563,-0.000119708,0.00125444,0.000641533,-0.00218687,1.02536,0.0017123,0.0397697,1903,953,64.828,-2.47238
686,71,64.824,2.49774,-0.00153897,-0.000246516,0.00108457,0.000369752,-0.00215524,1.05408,0.00157461,0.0379466,1910,953,64.824,-2.49775
693,71,64.8367,2.48871,-0.00181216,-0.00037757,0.000751034,-5.63248e-05,-0.0021334,1.16661,0.00140387,0.0332108,1917,953,64.8367,-2.48869
700,71,64.8652,2.47559,-0.00235717,-0.000250125,0.000370947,-0.000186727,-0.00242057,1.40152,0.00155521,0.0307611,1924,953,64.8653,-2.47558
707,71,64.9128,2.56226,0,0,0,0,0,0,0,-1,1931,953,64.9128,-2.56223
714,71,62.8347,4.56409,0,0,0,0,0,0,0,-1,1938,953,62.8347,-4.5641
721,71,62.4789,5.09235,-0.0037582,0.00132259,-0.000700382,0.00141737,-0.00385298,-1.43629,0.00314928,0.0401587,1945,953,62.4789,-5.09237
728,71,62.2268,5.71375,-0.00433651,0.00215003,-0.00078085,0.00224271,-0.00442918,-1.45266,0.00392036,0.0327123,1952,953,62.2269,-5.71373
735,71,62.2671,6.21716,-0.00464181,0.00321268,-0.00104595,0.00334958,-0.00477871,-1.44065,0.00471699,0.0243462,1959,953,62.267,-6.21715
742,71,62.3093,6.62933,-0.00519765,0.00469481,-0.0010316,0.00480124,-0.00530408,-1.46799,0.00583671,0.0240214,1966,953,62.3093,-6.62936
749,71,62.2164,7.03339,-0.005795,0.00706584,-0.000206212,0.00706914,-0.00579831,-1.55477,0.00744109,0.0204905,1973,953,62.2165,-7.03339
756,71,62.1282,7.4339,-0.00606757,0.0100789,0.00152749,0.0102222,-0.0062108,1.4773,0.00958135,0.0190262,1980,953,62.1282,-7.4339
763,71,62.0486,7.90735,-0.00580954,0.013538,0.0047886,0.0146583,-0.00692986,1.34097,0.0127274,0.0217521,1987,953,62.0486,-7.90736
770,71,61.8037,8.24884,-0.00520227,0.0169065,0.00944582,0.0203925,-0.00868828,1.21725,0.0172371,0.025169,1994,953,61.8036,-8.24886
777,71,61.5564,8.69489,-0.00464802,0.0200396,0.0162702,0.0281185,-0.0127269,1.10991,0.0241338,0.0456652,2001,953,61.5565,-8.69489
784,71,61.489,9.10376,0,0,0,0,0,0,0,-1,2008,953,61.4891,-9.10379
791,71,61.583,9.20435,0,0,0,0,0,0,0,-1,2015,953,61.583,-9.20438
798,71,61.3789,9.18756,0,0,0,0,0,0,0,-1,2022,953,61.3788,-9.18759
805,71,59.978,6.41992,0,0,0,0,0,0,0,-1,2029,953,59.9781,-6.41992
812,71,0,0,0,0,0,0,0,0,0,-1,2036,953,0,0
-700,64,0,0,0,0,0,0,0,0,0,-1,524,960,0,0
-693,64,0,0,0,0,0,0,0,0,0,-1,531,960,0,0
-686,64,-46.5014,7.52991,0.00164633,0.0362276,-0.0205497,0.0457932,-0.00791921,-1.13514,0.0334822,0.0454969,538,960,-46.5014,-7.52992
-679,64,-46.4558,6.85083,0.00121539,0.0396254,-0.012212,0.0431792,-0.00233847,-1.2876,0.0295965,0.0453608,545,960,-46.4558,-6.85085
-672,64,-46.592,6.71497,-0.000671924,0.04017,-0.00601491,0.0410374,-0.00153933,-1.42757,0.0278856,0.0490578,552,960,-46.592,-6.71498
-665,64,-46.944,6.19751,0,0,0,0,0,0,0,-1,559,960,-46.944,-6.19751
-658,64,-47.0507,5.52802,0,0,0,0,0,0,0,-1,566,960,-47.0507,-5.52801
-651,64,-46.9334,7.01434,0,0,0,0,0,0,0,-1,573,960,-46.9334,-7.01437
-644,64,-47.937,6.30499,-0.00791863,0.0275999,0.00545186,0.0284179,-0.00873661,1.42187,0.0224319,0.0367111,580,960,-47.937,-6.305
-637,64,-48.0171,5.84991,-0.00796431,0.0235417,0.00597381,0.0246363,-0.00905897,1.38956,0.020135,0.0194381,587,960,-48.0171,-5.84994
-630,64,-48.0996,5.50067,-0.00796893,0.0188292,0.00565908,0.0199753,-0.00911497,1.37099,0.017181,0.0152375,594,960,-48.0996,-5.5007
-623,64,-48.1368,5.13629,-0.00731319,0.0134681,0.00496028,0.0145914,-0.00843644,1.3481,0.0134525,0.0152724,601,960,-48.1368,-5.1363
-616,64,-48.1712,4.72015,-0.00652259,0.00956476,0.00315241,0.0101604,-0.00711826,1.38404,0.0100273,0.0189523,608,960,-48.1712,-4.72016
-609,64,-48.1389,4.35272,-0.0054312,0.00631026,0.00105033,0.00640348,-0.00552441,1.48228,0.0068928,0.0181068,615,960,-48.1389,-4.35275
-602,64,-48.1238,3.95569,-0.0041869,0.0042753,-0.000610968,0.00431918,-0.00423078,-1.49909,0.00493641,0.0172717,622,960,-48.1238,-3.9557
-595,64,-48.1324,3.61926,-0.00309855,0.00310458,-0.00176509,0.00357167,-0.00356563,-1.3121,0.00412072,0.0234063,629,960,-48.1324,-3.61928
-588,64,-48.0145,3.32092,-0.00233527,0.00191679,-0.00274112,0.00325972,-0.0036782,-1.11524,0.00400804,0.0358873,636,960,-48.0144,-3.32095
-581,64,-47.798,2.9649,0,0,0,0,0,0,0,-1,643,960,-47.798,-2.96488
-574,64,-49.228,0.876892,0,0,0,0,0,0,0,-1,650,960,-49.228,-0.876881
-567,64,-49.1976,0.831604,-0.00120088,0.00133657,-0.00466889,0.00490605,-0.00477036,-0.918065,0.00558686,0.0266844,657,960,-49.1976,-0.831612
-560,64,-49.195,0.803589,-0.00112832,0.00166066,-0.00493472,0.00539414,-0.0048618,-0.923101,0.00592393,0.0355177,664,960,-49.195,-0.803616
-553,64,-49.166,0.747864,-0.000961415,0.00226263,-0.00500061,0.00590463,-0.00460341,-0.941322,0.00608231,0.0395031,671,960,-49.166,-0.747838
-546,64,-49.1643,0.715515,-0.000602338,0.00304396,-0.00483928,0.00639213,-0.00395051,-0.965546,0.00602653,0.0420906,678,960,-49.1643,-0.715542
-539,64,-49.4027,0.914856,-3.59379e-05,0.00381026,-0.00445573,0.00674018,-0.00296586,-0.989123,0.00574328,0.0416503,685,960,-49.4027,-0.914835
-532,64,-49.5498,0.802429,0.000746748,0.00465901,-0.00438088,0.00750064,-0.00209489,-0.995374,0.00582566,0.0417977,692,960,-49.5498,-0.802456
-525,64,-49.4641,0.7005,0.000744277,0.00699309,-0.0063324,0.0109299,-0.00319256,-1.01458,0.00855181,0.0423759,699,960,-49.4641,-0.700507
-518,64,0,0,0,0,0,0,0,0,0,-1,706,960,0,0
-511,64,0,0,0,0,0,0,0,0,0,-1,713,960,0,0
-504,64,0,0,0,0,0,0,0,0,0,-1,720,960,0,0
-497,64,0,0,0,0,0,0,0,0,0,-1,727,960,0,0
-490,64,0,0,0,0,0,0,0,0,0,-1,734,960,0,0
-483,64,0,0,0,0,0,0,0,0,0,-1,741,960,0,0
-476,64,0,0,0,0,0,0,0,0,0,-1,748,960,0,0
-469,64,0,0,0,0,0,0,0,0,0,-1,755,960,0,0
-462,64,0,0,0,0,0,0,0,0,0,-1,762,960,0,0
-455,64,0,0,0,0,0,0,0,0,0,-1,769,960,0,0
-448,64,0,0,0,0,0,0,0,0,0,-1,776,960,0,0
-441,64,0,0,0,0,0,0,0,0,0,-1,783,960,0,0
-434,64,0,0,0,0,0,0,0,0,0,-1,790,960,0,0
-427,64,0,0,0,0,0,0,0,0,0,-1,797,960,0,0
-420,64,0,0,0,0,0,0,0,0,0,-1,804,960,0,0
-413,64,0,0,0,0,0,0,0,0,0,-1,811,960,0,0
-406,64,0,0,0,0,0,0,0,0,0,-1,818,960,0,0
-399,64,0,0,0,0,0,0,0,0,0,-1,825,960,0,0
-392,64,0,0,0,0,0,0,0,0,0,-1,832,960,0,0
-385,64,0,0,0,0,0,0,0,0,0,-1,839,960,0,0
-378,64,0,0,0,0,0,0,0,0,0,-1,846,960,0,0
-371,64,0,0,0,0,0,0,0,0,0,-1,853,960,0,0
-364,64,0,0,0,0,0,0,0,0,0,-1,860,960,0,0
-357,64,0,0,0,0,0,0,0,0,0,-1,867,960,0,0
-350,64,0,0,0,0,0,0,0,0,0,-1,874,960,0,0
-343,64,0,0,0,0,0,0,0,0,0,-1,881,960,0,0
-336,64,0,0,0,0,0,0,0,0,0,-1,888,960,0,0
-329,64,0,0,0,0,0,0,0,0,0,-1,895,960,0,0
-322,64,0,0,0,0,0,0,0,0,0,-1,902,960,0,0
-315,64,0,0,0,0,0,0,0,0,0,-1,909,960,0,0
-308,64,0,0,0,0,0,0,0,0,0,-1,916,960,0,0
-301,64,0,0,0,0,0,0,0,0,0,-1,923,960,0,0
-294,64,0,0,0,0,0,0,0,0,0,-1,930,960,0,0
-287,64,0,0,0,0,0,0,0,0,0,-1,937,960,0,0
-280,64,0,0,0,0,0,0,0,0,0,-1,944,960,0,0
-273,64,0,0,0,0,0,0,0,0,0,-1,951,960,0,0
-266,64,0,0,0,0,0,0,0,0,0,-1,958,960,0,0
-259,64,0,0,0,0,0,0,0,0,0,-1,965,960,0,0
-252,64,0,0,0,0,0,0,0,0,0,-1,972,960,0,0
-245,64,0,0,0,0,0,0,0,0,0,-1,979,960,0,0
-238,64,0,0,0,0,0,0,0,0,0,-1,986,960,0,0
-231,64,0,0,0,0,0,0,0,0,0,-1,993,960,0,0
-224,64,0,0,0,0,0,0,0,0,0,-1,1000,960,0,0
-217,64,0,0,0,0,0,0,0,0,0,-1,1007,960,0,0
-210,64,0,0,0,0,0,0,0,0,0,-1,1014,960,0,0
-203,64,0,0,0,0,0,0,0,0,0,-1,1021,960,0,0
-196,64,0,0,0,0,0,0,0,0,0,-1,1028,960,0,0
-189,64,0,0,0,0,0,0,0,0,0,-1,1035,960,0,0
-182,64,0,0,0,0,0,0,0,0,0,-1,1042,960,0,0
-175,64,0,0,0,0,0,0,0,0,0,-1,1049,960,0,0
-168,64,0,0,0,0,0,0,0,0,0,-1,1056,960,0,0
-161,64,0,0,0,0,0,0,0,0,0,-1,1063,960,0,0
-154,64,0,0,0,0,0,0,0,0,0,-1,1070,960,0,0
-147,64,0,0,0,0,0,0,0,0,0,-1,1077,960,0,0
-140,64,0,0,0,0,0,0,0,0,0,-1,1084,960,0,0
-133,64,0,0,0,0,0,0,0,0,0,-1,1091,960,0,0
-126,64,0,0,0,0,0,0,0,0,0,-1,1098,960,0,0
-119,64,0,0,0,0,0,0,0,0,0,-1,1105,960,0,0
-112,64,0,0,0,0,0,0,0,0,0,-1,1112,960,0,0
-105,64,0,0,0,0,0,0,0,0,0,-1,1119,960,0,0
-98,64,0,0,0,0,0,0,0,0,0,-1,1126,960,0,0
-91,64,0,0,0,0,0,0,0,0,0,-1,1133,960,0,0
-84,64,0,0,0,0,0,0,0,0,0,-1,1140,960,0,0
-77,64,0,0,0,0,0,0,0,0,0,-1,1147,960,0,0
-70,64,0,0,0,0,0,0,0,0,0,-1,1154,960,0,0
-63,64,0,0,0,0,0,0,0,0,0,-1,1161,960,0,0
-56,64,0,0,0,0,0,0,0,0,0,-1,1168,960,0,0
-49,64,0,0,0,0,0,0,0,0,0,-1,1175,960,0,0
-42,64,0,0,0,0,0,0,0,0,0,-1,1182,960,0,0
-35,64,0,0,0,0,0,0,0,0,0,-1,1189,960,0,0
-28,64,0,0,0,0,0,0,0,0,0,-1,1196,960,0,0
-21,64,0,0,0,0,0,0,0,0,0,-1,1203,960,0,0
-14,64,0,0,0,0,0,0,0,0,0,-1,1210,960,0,0
-7,64,0,0,0,0,0,0,0,0,0,-1,1217,960,0,0
0,64,0,0,0,0,0,0,0,0,0,-1,1224,960,0,0
7,64,0,0,0,0,0,0,0,0,0,-1,1231,960,0,0
14,64,0,0,0,0,0,0,0,0,0,-1,1238,960,0,0
21,64,0,0,0,0,0,0,0,0,0,-1,1245,960,0,0
28,64,0,0,0,0,0,0,0,0,0,-1,1252,960,0,0
35,64,0,0,0,0,0,0,0,0,0,-1,1259,960,0,0
42,64,0,0,0,0,0,0,0,0,0,-1,1266,960,0,0
49,64,0,0,0,0,0,0,0,0,0,-1,1273,960,0,0
56,64,0,0,0,0,0,0,0,0,0,-1,1280,960,0,0
63,64,0,0,0,0,0,0,0,0,0,-1,1287,960,0,0
70,64,0,0,0,0,0,0,0,0,0,-1,1294,960,0,0
77,64,0,0,0,0,0,0,0,0,0,-1,1301,960,0,0
84,64,0,0,0,0,0,0,0,0,0,-1,1308,960,0,0
91,64,0,0,0,0,0,0,0,0,0,-1,1315,960,0,0
98,64,0,0,0,0,0,0,0,0,0,-1,1322,960,0,0
105,64,0,0,0,0,0,0,0,0,0,-1,1329,960,0,0
112,64,0,0,0,0,0,0,0,0,0,-1,1336,960,0,0
119,64,0,0,0,0,0,0,0,0,0,-1,1343,960,0,0
126,64,0,0,0,0,0,0,0,0,0,-1,1350,960,0,0
133,64,0,0,0,0,0,0,0,0,0,-1,1357,960,0,0
140,64,0,0,0,0,0,0,0,0,0,-1,1364,960,0,0
147,64,0,0,0,0,0,0,0,0,0,-1,1371,960,0,0
154,64,0,0,0,0,0,0,0,0,0,-1,1378,960,0,0
161,64,0,0,0,0,0,0,0,0,0,-1,1385,960,0,0
168,64,0,0,0,0,0,0,0,0,0,-1,1392,960,0,0
175,64,0,0,0,0,0,0,0,0,0,-1,1399,960,0,0
182,64,0,0,0,0,0,0,0,0,0,-1,1406,960,0,0
189,64,0,0,0,0,0,0,0,0,0,-1,1413,960,0,0
196,64,0,0,0,0,0,0,0,0,0,-1,1420,960,0,0
203,64,0,0,0,0,0,0,0,0,0,-1,1427,960,0,0
210,64,0,0,0,0,0,0,0,0,0,-1,1434,960,0,0
217,64,0,0,0,0,0,0,0,0,0,-1,1441,960,0,0
224,64,0,0,0,0,0,0,0,0,0,-1,1448,960,0,0
231,64,0,0,0,0,0,0,0,0,0,-1,1455,960,0,0
238,64,0,0,0,0,0,0,0,0,0,-1,1462,960,0,0
245,64,0,0,0,0,0,0,0,0,0,-1,1469,960,0,0
252,64,0,0,0,0,0,0,0,0,0,-1,1476,960,0,0
259,64,0,0,0,0,0,0,0,0,0,-1,1483,960,0,0
266,64,0,0,0,0,0,0,0,0,0,-1,1490,960,0,0
273,64,0,0,0,0,0,0,0,0,0,-1,1497,960,0,0
280,64,0,0,0,0,0,0,0,0,0,-1,1504,960,0,0
287,64,0,0,0,0,0,0,0,0,0,-1,1511,960,0,0
294,64,0,0,0,0,0,0,0,0,0,-1,1518,960,0,0
301,64,0,0,0,0,0,0,0,0,0,-1,1525,960,0,0
308,64,0,0,0,0,0,0,0,0,0,-1,1532,960,0,0
315,64,0,0,0,0,0,0,0,0,0,-1,1539,960,0,0
322,64,0,0,0,0,0,0,0,0,0,-1,1546,960,0,0
329,64,0,0,0,0,0,0,0,0,0,-1,1553,960,0,0
336,64,0,0,0,0,0,0,0,0,0,-1,1560,960,0,0
343,64,0,0,0,0,0,0,0,0,0,-1,1567,960,0,0
350,64,0,0,0,0,0,0,0,0,0,-1,1574,960,0,0
357,64,0,0,0,0,0,0,0,0,0,-1,1581,960,0,0
364,64,0,0,0,0,0,0,0,0,0,-1,1588,960,0,0
371,64,0,0,0,0,0,0,0,0,0,-1,1595,960,0,0
378,64,0,0,0,0,0,0,0,0,0,-1,1602,960,0,0
385,64,0,0,0,0,0,0,0,0,0,-1,1609,960,0,0
392,64,0,0,0,0,0,0,0,0,0,-1,1616,960,0,0
399,64,0,0,0,0,0,0,0,0,0,-1,1623,960,0,0
406,64,0,0,0,0,0,0,0,0,0,-1,1630,960,0,0
413,64,0,0,0,0,0,0,0,0,0,-1,1637,960,0,0
420,64,0,0,0,0,0,0,0,0,0,-1,1644,960,0,0
427,64,0,0,0,0,0,0,0,0,0,-1,1651,960,0,0
434,64,0,0,0,0,0,0,0,0,0,-1,1658,960,0,0
441,64,0,0,0,0,0,0,0,0,0,-1,1665,960,0,0
448,64,0,0,0,0,0,0,0,0,0,-1,1672,960,0,0
455,64,0,0,0,0,0,0,0,0,0,-1,1679,960,0,0
462,64,0,0,0,0,0,0,0,0,0,-1,1686,960,0,0
469,64,0,0,0,0,0,0,0,0,0,-1,1693,960,0,0
476,64,0,0,0,0,0,0,0,0,0,-1,1700,960,0,0
483,64,0,0,0,0,0,0,0,0,0,-1,1707,960,0,0
490,64,0,0,0,0,0,0,0,0,0,-1,1714,960,0,0
497,64,0,0,0,0,0,0,0,0,0,-1,1721,960,0,0
504,64,0,0,0,0,0,0,0,0,0,-1,1728,960,0,0
511,64,0,0,0,0,0,0,0,0,0,-1,1735,960,0,0
518,64,0,0,0,0,0,0,0,0,0,-1,1742,960,0,0
525,64,0,0,0,0,0,0,0,0,0,-1,1749,960,0,0
532,64,0,0,0,0,0,0,0,0,0,-1,1756,960,0,0
539,64,0,0,0,0,0,0,0,0,0,-1,1763,960,0,0
546,64,0,0,0,0,0,0,0,0,0,-1,1770,960,0,0
553,64,0,0,0,0,0,0,0,0,0,-1,1777,960,0,0
560,64,0,0,0,0,0,0,0,0,0,-1,1784,960,0,0
567,64,0,0,0,0,0,0,0,0,0,-1,1791,960,0,0
574,64,0,0,0,0,0,0,0,0,0,-1,1798,960,0,0
581,64,0,0,0,0,0,0,0,0,0,-1,1805,960,0,0
588,64,0,0,0,0,0,0,0,0,0,-1,1812,960,0,0
595,64,0,0,0,0,0,0,0,0,0,-1,1819,960,0,0
602,64,0,0,0,0,0,0,0,0,0,-1,1826,960,0,0
609,64,0,0,0,0,0,0,0,0,0,-1,1833,960,0,0
616,64,0,0,0,0,0,0,0,0,0,-1,1840,960,0,0
623,64,0,0,0,0,0,0,0,0,0,-1,1847,960,0,0
630,64,0,0,0,0,0,0,0,0,0,-1,1854,960,0,0
637,64,0,0,0,0,0,0,0,0,0,-1,1861,960,0,0
644,64,64.7006,2.72437,0.00163301,-0.00285175,0.00271852,0.00291463,-0.00413338,0.440542,0.0040894,0.03913,1868,960,64.7005,-2.72439
651,64,64.9143,2.65881,0.000695473,-0.00209415,0.00186519,0.0016297,-0.00302838,0.464348,0.00272946,0.0408169,1875,960,64.9143,-2.65879
658,64,64.9535,2.57019,0.000146035,-0.00140943,0.0014302,0.00099629,-0.00225968,0.536366,0.00192643,0.0377239,1882,960,64.9535,-2.57019
665,64,64.9896,2.45251,-0.000168256,-0.000702166,0.00116191,0.000756968,-0.00162739,0.67248,0.00140685,0.039913,1889,960,64.9896,-2.45253
672,64,65.0251,2.28192,-0.000657534,-0.000216742,0.00109664,0.000681429,-0.0015557,0.884564,0.00132408,0.0414778,1896,960,65.0252,-2.28193
679,64,64.9509,2.33063,-0.00106032,-0.000134763,0.00116385,0.000654937,-0.00185002,0.974628,0.0015001,0.0383517,1903,960,64.9509,-2.33063
686,64,64.8521,2.41003,-0.00113972,-0.000287165,0.00107659,0.000444472,-0.00187135,0.973903,0.00141912,0.0358331,1910,960,64.8521,-2.41005
693,64,64.8435,2.45172,-0.00136549,-0.000463737,0.000812013,1.41782e-05,-0.00184341,1.03883,0.00123369,0.03496,1917,960,64.8435,-2.4517
700,64,64.8677,2.57074,-0.0018553,-0.000386916,0.000473798,-0.00024731,-0.0019949,1.28425,0.00125564,0.0331239,1924,960,64.8676,-2.57074
707,64,64.7665,2.91663,0,0,0,0,0,0,0,-1,1931,960,64.7664,-2.91666
714,64,63.6877,4.76477,0,0,0,0,0,0,0,-1,1938,960,63.6877,-4.76477
721,64,62.9865,5.16852,-0.0034856,0.00131788,-0.000539216,0.00137767,-0.00354539,-1.46037,0.00293274,0.0403492,1945,960,62.9864,-5.16849
728,64,62.6697,5.745,-0.00416478,0.0022736,-0.000650308,0.00233863,-0.00422981,-1.47113,0.00384433,0.0239493,1952,960,62.6696,-5.74499
735,64,62.6349,6.27795,-0.00463637,0.00343168,-0.000910469,0.00353315,-0.00473784,-1.45981,0.00479211,0.0335774,1959,960,62.6348,-6.27798
742,64,62.7592,6.61816,-0.00546814,0.0049968,-0.000863113,0.0050675,-0.00553885,-1.48906,0.00612559,0.0295249,1966,960,62.7591,-6.61817
749,64,62.7252,7.00439,-0.0064659,0.00750261,-5.35986e-05,0.00750282,-0.0064661,-1.56696,0.00807236,0.0168061,1973,960,62.7252,-7.00442
756,64,62.6365,7.40656,-0.00736408,0.0107602,0.00157249,0.0108956,-0.0074995,1.48489,0.0106806,0.0165062,1980,960,62.6365,-7.40653
763,64,62.6099,7.85498,-0.00793792,0.0146741,0.00481474,0.0156566,-0.00892043,1.3695,0.0143661,0.019146,1987,960,62.6098,-7.85499
770,64,62.3499,8.13806,-0.00822153,0.0186554,0.00957782,0.0217193,-0.0112854,1.26119,0.0193701,0.0198293,1994,960,62.3498,-8.13807
777,64,62.0583,8.68604,-0.00864091,0.0225225,0.0164535,0.0296015,-0.0157199,1.16449,0.0265723,0.0364344,2001,960,62.0583,-8.68602
784,64,61.8162,9.38177,0,0,0,0,0,0,0,-1,2008,960,61.8161,-9.38179
791,64,62.2375,9.58508,0,0,0,0,0,0,0,-1,2015,960,62.2375,-9.58506
798,64,61.4104,9.7348,0,0,0,0,0,0,0,-1,2022,960,61.4103,-9.7348
805,64,63.9138,6.69446,0,0,0,0,0,0,0,-1,2029,960,63.9138,-6.69444
812,64,0,0,0,0,0,0,0,0,0,-1,2036,960,0,0
-700,57,0,0,0,0,0,0,0,0,0,-1,524,967,0,0
-693,57,0,0,0,0,0,0,0,0,0,-1,531,967,0,0
-686,57,-46.7915,7.29059,0,0,0,0,0,0,0,-1,538,967,-46.7915,-7.29059
-679,57,-46.5794,6.57935,0,0,0,0,0,0,0,-1,545,967,-46.5794,-6.57932
-672,57,-46.7773,6.4975,0,0,0,0,0,0,0,-1,552,967,-46.7773,-6.49751
-665,57,-47.0161,6.01538,0,0,0,0,0,0,0,-1,559,967,-47.0161,-6.0154
-658,57,-46.8782,5.08728,0,0,0,0,0,0,0,-1,566,967,-46.8782,-5.08725
-651,57,-48.1712,5.85687,-0.00612361,0.0298751,0.00385416,0.0302831,-0.00653163,1.46533,0.0226816,0.0497304,573,967,-48.1712,-5.8569
-644,57,-48.5491,6.0766,-0.00740523,0.0261113,0.0051941,0.0268978,-0.00819171,1.42052,0.0211968,0.0369398,580,967,-48.5491,-6.07662
-637,57,-48.4644,5.66052,-0.0075532,0.0227398,0.00574365,0.0237922,-0.00860566,1.38957,0.0193778,0.0213204,587,967,-48.4644,-5.66051
-630,57,-48.5567,5.35535,-0.00762493,0.0184833,0.00534053,0.0195334,-0.00867511,1.37663,0.0166836,0.0143439,594,967,-48.5567,-5.35537
-623,57,-48.5948,5.07178,-0.00697802,0.0134342,0.00448665,0.0143769,-0.00792066,1.36371,0.0130521,0.0140938,601,967,-48.5948,-5.0718
-616,57,-48.6,4.73694,-0.00631748,0.00979261,0.00260733,0.0102041,-0.00672895,1.41427,0.00984468,0.0163066,608,967,-48.6,-4.73691
-609,57,-48.6006,4.37213,-0.00533938,0.00680825,0.000501237,0.00682889,-0.00536002,1.52963,0.00705429,0.016088,615,967,-48.6006,-4.37213
-602,57,-48.584,4.00647,-0.0039671,0.00475199,-0.0011691,0.00490603,-0.00412114,-1.43979,0.0052184,0.0118057,622,967,-48.584,-4.00646
-595,57,-48.5552,3.67621,-0.00279418,0.00347873,-0.00237003,0.00427348,-0.00358893,-1.24725,0.00454509,0.016478,629,967,-48.5552,-3.67624
-588,57,-48.4338,3.42035,-0.00200186,0.00214737,-0.00339842,0.00405437,-0.00390886,-1.05944,0.00459783,0.027145,636,967,-48.4338,-3.42037
-581,57,-48.6575,2.19824,-0.00139423,0.0014921,-0.00426769,0.00455404,-0.00445617,-0.948443,0.00520215,0.0412966,643,967,-48.6575,-2.19825
-574,57,-49.1432,0.871033,0,0,0,0,0,0,0,-1,650,967,-49.1432,-0.87102
-567,57,-49.1815,0.810059,-0.000858459,0.0012907,-0.00525966,0.00558442,-0.00515218,-0.886164,0.00620046,0.0345205,657,967,-49.1815,-0.81003
-560,57,-49.1097,0.790955,-0.000828368,0.00157108,-0.00539309,0.00589628,-0.00515357,-0.894844,0.00638443,0.0431846,664,967,-49.1097,-0.790927
-553,57,-49.1005,0.769592,-0.000741732,0.00207805,-0.00528418,0.0061372,-0.00480088,-0.915768,0.00633079,0.0416246,671,967,-49.1005,-0.769584
-546,57,-49.2023,0.791626,-0.00051627,0.00272423,-0.00492802,0.00629153,-0.00408356,-0.944223,0.00603511,0.0420058,678,967,-49.2023,-0.791648
-539,57,-49.4014,0.653198,-0.000141358,0.00330233,-0.00436643,0.00627415,-0.00311318,-0.973205,0.00552125,0.0434161,685,967,-49.4014,-0.653211
-532,57,-49.5128,0.667297,0.000534447,0.00413211,-0.00430786,0.00700163,-0.00233507,-0.983178,0.00561049,0.0401889,692,967,-49.5128,-0.667308
-525,57,-49.3688,0.820068,0.000754812,0.00699059,-0.00682092,0.0113724,-0.00362704,-0.999772,0.00903662,0.0392526,699,967,-49.3688,-0.82005
-518,57,0,0,0,0,0,0,0,0,0,-1,706,967,0,0
-511,57,0,0,0,0,0,0,0,0,0,-1,713,967,0,0
-504,57,0,0,0,0,0,0,0,0,0,-1,720,967,0,0
-497,57,0,0,0,0,0,0,0,0,0,-1,727,967,0,0
-490,57,0,0,0,0,0,0,0,0,0,-1,734,967,0,0
-483,57,0,0,0,0,0,0,0,0,0,-1,741,967,0,0
-476,57,0,0,0,0,0,0,0,0,0,-1,748,967,0,0
-469,57,0,0,0,0,0,0,0,0,0,-1,755,967,0,0
-462,57,0,0,0,0,0,0,0,0,0,-1,762,967,0,0
-455,57,0,0,0,0,0,0,0,0,0,-1,769,967,0,0
-448,57,0,0,0,0,0,0,0,0,0,-1,776,967,0,0
-441,57,0,0,0,0,0,0,0,0,0,-1,783,967,0,0
-434,57,0,0,0,0,0,0,0,0,0,-1,790,967,0,0
-427,57,0,0,0,0,0,0,0,0,0,-1,797,967,0,0
-420,57,0,0,0,0,0,0,0,0,0,-1,804,967,0,0
-413,57,0,0,0,0,0,0,0,0,0,-1,811,967,0,0
-406,57,0,0,0,0,0,0,0,0,0,-1,818,967,0,0
-399,57,0,0,0,0,0,0,0,0,0,-1,825,967,0,0
-392,57,0,0,0,0,0,0,0,0,0,-1,832,967,0,0
-385,57,0,0,0,0,0,0,0,0,0,-1,839,967,0,0
-378,57,0,0,0,0,0,0,0,0,0,-1,846,967,0,0
-371,57,0,0,0,0,0,0,0,0,0,-1,853,967,0,0
-364,57,0,0,0,0,0,0,0,0,0,-1,860,967,0,0
-357,57,0,0,0,0,0,0,0,0,0,-1,867,967,0,0
-350,57,0,0,0,0,0,0,0,0,0,-1,874,967,0,0
-343,57,0,0,0,0,0,0,0,0,0,-1,881,967,0,0
-336,57,0,0,0,0,0,0,0,0,0,-1,888,967,0,0
-329,57,0,0,0,0,0,0,0,0,0,-1,895,967,0,0
-322,57,0,0,0,0,0,0,0,0,0,-1,902,967,0,0
-315,57,0,0,0,0,0,0,0,0,0,-1,909,967,0,0
-308,57,0,0,0,0,0,0,0,0,0,-1,916,967,0,0
-301,57,0,0,0,0,0,0,0,0,0,-1,923,967,0,0
-294,57,0,0,0,0,0,0,0,0,0,-1,930,967,0,0
-287,57,0,0,0,0,0,0,0,0,0,-1,937,967,0,0
-280,57,0,0,0,0,0,0,0,0,0,-1,944,967,0,0
-273,57,0,0,0,0,0,0,0,0,0,-1,951,967,0,0
-266,57,0,0,0,0,0,0,0,0,0,-1,958,967,0,0
-259,57,0,0,0,0,0,0,0,0,0,-1,965,967,0,0
-252,57,0,0,0,0,0,0,0,0,0,-1,972,967,0,0
-245,57,0,0,0,0,0,0,0,0,0,-1,979,967,0,0
-238,57,0,0,0,0,0,0,0,0,0,-1,986,967,0,0
-231,57,0,0,0,0,0,0,0,0,0,-1,993,967,0,0
-224,57,0,0,0,0,0,0,0,0,0,-1,1000,967,0,0
-217,57,0,0,0,0,0,0,0,0,0,-1,1007,967,0,0
-210,57,0,0,0,0,0,0,0,0,0,-1,1014,967,0,0
-203,57,0,0,0,0,0,0,0,0,0,-1,1021,967,0,0
-196,57,0,0,0,0,0,0,0,0,0,-1,1028,967,0,0
-189,57,0,0,0,0,0,0,0,0,0,-1,1035,967,0,0
-182,57,0,0,0,0,0,0,0,0,0,-1,1042,967,0,0
-175,57,0,0,0,0,0,0,0,0,0,-1,1049,967,0,0
-168,57,0,0,0,0,0,0,0,0,0,-1,1056,967,0,0
-161,57,0,0,0,0,0,0,0,0,0,-1,1063,967,0,0
-154,57,0,0,0,0,0,0,0,0,0,-1,1070,967,0,0
-147,57,0,0,0,0,0,0,0,0,0,-1,1077,967,0,0
-140,57,0,0,0,0,0,0,0,0,0,-1,1084,967,0,0
-133,57,0,0,0,0,0,0,0,0,0,-1,1091,967,0,0
-126,57,0,0,0,0,0,0,0,0,0,-1,1098,967,0,0
-119,57,0,0,0,0,0,0,0,0,0,-1,1105,967,0,0
-112,57,0,0,0,0,0,0,0,0,0,-1,1112,967,0,0
-105,57,0,0,0,0,0,0,0,0,0,-1,1119,967,0,0
-98,57,0,0,0,0,0,0,0,0,0,-1,1126,967,0,0
-91,57,0,0,0,0,0,0,0,0,0,-1,1133,967,0,0
-84,57,0,0,0,0,0,0,0,0,0,-1,1140,967,0,0
-77,57,0,0,0,0,0,0,0,0,0,-1,1147,967,0,0
-70,57,0,0,0,0,0,0,0,0,0,-1,1154,967,0,0
-63,57,0,0,0,0,0,0,0,0,0,-1,1161,967,0,0
-56,57,0,0,0,0,0,0,0,0,0,-1,1168,967,0,0
-49,57,0,0,0,0,0,0,0,0,0,-1,1175,967,0,0
-42,57,0,0,0,0,0,0,0,0,0,-1,1182,967,0,0
-35,57,0,0,0,0,0,0,0,0,0,-1,1189,967,0,0
-28,57,0,0,0,0,0,0,0,0,0,-1,1196,967,0,0
-21,57,0,0,0,0,0,0,0,0,0,-1,1203,967,0,0
-14,57,0,0,0,0,0,0,0,0,0,-1,1210,967,0,0
-7,57,0,0,0,0,0,0,0,0,0,-1,1217,967,0,0
0,57,0,0,0,0,0,0,0,0,0,-1,1224,967,0,0
7,57,0,0,0,0,0,0,0,0,0,-1,1231,967,0,0
14,57,0,0,0,0,0,0,0,0,0,-1,1238,967,0,0
21,57,0,0,0,0,0,0,0,0,0,-1,1245,967,0,0
28,57,0,0,0,0,0,0,0,0,0,-1,1252,967,0,0
35,57,0,0,0,0,0,0,0,0,0,-1,1259,967,0,0
42,57,0,0,0,0,0,0,0,0,0,-1,1266,967,0,0
49,57,0,0,0,0,0,0,0,0,0,-1,1273,967,0,0
56,57,0,0,0,0,0,0,0,0,0,-1,1280,967,0,0
63,57,0,0,0,0,0,0,0,0,0,-1,1287,967,0,0
70,57,0,0,0,0,0,0,0,0,0,-1,1294,967,0,0
77,57,0,0,0,0,0,0,0,0,0,-1,1301,967,0,0
84,57,0,0,0,0,0,0,0,0,0,-1,1308,967,0,0
91,57,0,0,0,0,0,0,0,0,0,-1,1315,967,0,0
98,57,0,0,0,0,0,0,0,0,0,-1,1322,967,0,0
105,57,0,0,0,0,0,0,0,0,0,-1,1329,967,0,0
112,57,0,0,0,0,0,0,0,0,0,-1,1336,967,0,0
119,57,0,0,0,0,0,0,0,0,0,-1,1343,967,0,0
126,57,0,0,0,0,0,0,0,0,0,-1,1350,967,0,0
133,57,0,0,0,0,0,0,0,0,0,-1,1357,967,0,0
140,57,0,0,0,0,0,0,0,0,0,-1,1364,967,0,0
147,57,0,0,0,0,0,0,0,0,0,-1,1371,967,0,0
154,57,0,0,0,0,0,0,0,0,0,-1,1378,967,0,0
161,57,0,0,0,0,0,0,0,0,0,-1,1385,967,0,0
168,57,0,0,0,0,0,0,0,0,0,-1,1392,967,0,0
175,57,0,0,0,0,0,0,0,0,0,-1,1399,967,0,0
182,57,0,0,0,0,0,0,0,0,0,-1,1406,967,0,0
189,57,0,0,0,0,0,0,0,0,0,-1,1413,967,0,0
196,57,0,0,0,0,0,0,0,0,0,-1,1420,967,0,0
203,57,0,0,0,0,0,0,0,0,0,-1,1427,967,0,0
210,57,0,0,0,0,0,0,0,0,0,-1,1434,967,0,0
217,57,0,0,0,0,0,0,0,0,0,-1,1441,967,0,0
224,57,0,0,0,0,0,0,0,0,0,-1,1448,967,0,0
231,57,0,0,0,0,0,0,0,0,0,-1,1455,967,0,0
238,57,0,0,0,0,0,0,0,0,0,-1,1462,967,0,0
245,57,0,0,0,0,0,0,0,0,0,-1,1469,967,0,0
252,57,0,0,0,0,0,0,0,0,0,-1,1476,967,0,0
259,57,0,0,0,0,0,0,0,0,0,-1,1483,967,0,0
266,57,0,0,0,0,0,0,0,0,0,-1,1490,967,0,0
273,57,0,0,0,0,0,0,0,0,0,-1,1497,967,0,0
280,57,0,0,0,0,0,0,0,0,0,-1,1504,967,0,0
287,57,0,0,0,0,0,0,0,0,0,-1,1511,967,0,0
294,57,0,0,0,0,0,0,0,0,0,-1,1518,967,0,0
301,57,0,0,0,0,0,0,0,0,0,-1,1525,967,0,0
308,57,0,0,0,0,0,0,0,0,0,-1,1532,967,0,0
315,57,0,0,0,0,0,0,0,0,0,-1,1539,967,0,0
322,57,0,0,0,0,0,0,0,0,0,-1,1546,967,0,0
329,57,0,0,0,0,0,0,0,0,0,-1,1553,967,0,0
336,57,0,0,0,0,0,0,0,0,0,-1,1560,967,0,0
343,57,0,0,0,0,0,0,0,0,0,-1,1567,967,0,0
350,57,0,0,0,0,0,0,0,0,0,-1,1574,967,0,0
357,57,0,0,0,0,0,0,0,0,0,-1,1581,967,0,0
364,57,0,0,0,0,0,0,0,0,0,-1,1588,967,0,0
371,57,0,0,0,0,0,0,0,0,0,-1,1595,967,0,0
378,57,0,0,0,0,0,0,0,0,0,-1,1602,967,0,0
385,57,0,0,0,0,0,0,0,0,0,-1,1609,967,0,0
392,57,0,0,0,0,0,0,0,0,0,-1,1616,967,0,0
399,57,0,0,0,0,0,0,0,0,0,-1,1623,967,0,0
406,57,0,0,0,0,0,0,0,0,0,-1,1630,967,0,0
413,57,0,0,0,0,0,0,0,0,0,-1,1637,967,0,0
420,57,0,0,0,0,0,0,0,0,0,-1,1644,967,0,0
427,57,0,0,0,0,0,0,0,0,0,-1,1651,967,0,0
434,57,0,0,0,0,0,0,0,0,0,-1,1658,967,0,0
441,57,0,0,0,0,0,0,0,0,0,-1,1665,967,0,0
448,57,0,0,0,0,0,0,0,0,0,-1,1672,967,0,0
455,57,0,0,0,0,0,0,0,0,0,-1,1679,967,0,0
462,57,0,0,0,0,0,0,0,0,0,-1,1686,967,0,0
469,57,0,0,0,0,0,0,0,0,0,-1,1693,967,0,0
476,57,0,0,0,0,0,0,0,0,0,-1,1700,967,0,0
483,57,0,0,0,0,0,0,0,0,0,-1,1707,967,0,0
490,57,0,0,0,0,0,0,0,0,0,-1,1714,967,0,0
497,57,0,0,0,0,0,0,0,0,0,-1,1721,967,0,0
504,57,0,0,0,0,0,0,0,0,0,-1,1728,967,0,0
511,57,0,0,0,0,0,0,0,0,0,-1,1735,967,0,0
518,57,0,0,0,0,0,0,0,0,0,-1,1742,967,0,0
525,57,0,0,0,0,0,0,0,0,0,-1,1749,967,0,0
532,57,0,0,0,0,0,0,0,0,0,-1,1756,967,0,0
539,57,0,0,0,0,0,0,0,0,0,-1,1763,967,0,0
546,57,0,0,0,0,0,0,0,0,0,-1,1770,967,0,0
553,57,0,0,0,0,0,0,0,0,0,-1,1777,967,0,0
560,57,0,0,0,0,0,0,0,0,0,-1,1784,967,0,0
567,57,0,0,0,0,0,0,0,0,0,-1,1791,967,0,0
574,57,0,0,0,0,0,0,0,0,0,-1,1798,967,0,0
581,57,0,0,0,0,0,0,0,0,0,-1,1805,967,0,0
588,57,0,0,0,0,0,0,0,0,0,-1,1812,967,0,0
595,57,0,0,0,0,0,0,0,0,0,-1,1819,967,0,0
602,57,0,0,0,0,0,0,0,0,0,-1,1826,967,0,0
609,57,0,0,0,0,0,0,0,0,0,-1,1833,967,0,0
616,57,0,0,0,0,0,0,0,0,0,-1,1840,967,0,0
623,57,0,0,0,0,0,0,0,0,0,-1,1847,967,0,0
630,57,0,0,0,0,0,0,0,0,0,-1,1854,967,0,0
637,57,0,0,0,0,0,0,0,0,0,-1,1861,967,0,0
644,57,64.734,2.63031,0.00199595,-0.00235747,0.00261154,0.00321897,-0.00358049,0.437981,0.00392752,0.0398928,1868,967,64.7341,-2.63034
651,57,64.7748,2.70935,0.00106437,-0.00188518,0.00164555,0.0017993,-0.00262011,0.420037,0.00256617,0.0384921,1875,967,64.7748,-2.70937
658,57,64.9042,2.59991,0.000521811,-0.00141843,0.00118503,0.00108317,-0.00197979,0.442394,0.00179348,0.0355755,1882,967,64.9041,-2.59993
665,57,64.8772,2.53247,0.000224608,-0.000873747,0.000929581,0.000755115,-0.00140425,0.518592,0.00126535,0.0386521,1889,967,64.8773,-2.53247
672,57,64.9951,2.44849,-0.000226682,-0.000448451,0.000902637,0.000571856,-0.00124699,0.724282,0.00107395,0.0409102,1896,967,64.9951,-2.44848
679,57,64.8284,2.49646,-0.000617393,-0.000357383,0.00102596,0.000546778,-0.00152155,0.84842,0.00123757,0.037893,1903,967,64.8284,-2.49644
686,57,64.7634,2.45148,-0.000705837,-0.000513373,0.00102318,0.000418087,-0.0016373,0.832286,0.00125434,0.036412,1910,967,64.7635,-2.45151
693,57,64.825,2.49902,-0.000921673,-0.000705569,0.00084016,3.34583e-05,-0.0016607,0.849351,0.00111845,0.0332905,1917,967,64.825,-2.49901
700,57,64.8536,2.66187,-0.00138124,-0.000665486,0.000553309,-0.000364404,-0.00168232,1.07246,0.00102197,0.0265566,1924,967,64.8537,-2.66184
707,57,64.8374,2.82013,0,0,0,0,0,0,0,-1,1931,967,64.8374,-2.82014
714,57,64.0481,3.67139,0,0,0,0,0,0,0,-1,1938,967,64.0481,-3.6714
721,57,63.3688,5.41705,0,0,0,0,0,0,0,-1,1945,967,63.3688,-5.41703
728,57,63.1421,5.8808,-0.00408214,0.0024045,-0.000509023,0.0024442,-0.00412184,-1.49296,0.00383193,0.0235557,1952,967,63.142,-5.88082
735,57,63.1658,6.33429,-0.00473033,0.00368229,-0.000739931,0.00374688,-0.00479492,-1.48373,0.00494397,0.031943,1959,967,63.1658,-6.33432
742,57,63.2262,6.60413,-0.00583304,0.00530783,-0.000656249,0.00534635,-0.00587157,-1.51216,0.00647903,0.0238027,1966,967,63.2262,-6.60412
749,57,63.1682,7.00043,-0.00719385,0.00793504,0.000121682,0.00793601,-0.00719483,1.56275,0.00873929,0.014975,1973,967,63.1682,-7.0004
756,57,63.0828,7.37128,-0.00864036,0.011381,0.00162309,0.0115117,-0.00877109,1.49043,0.0117459,0.0120372,1980,967,63.0828,-7.37128
763,57,62.9861,7.737,-0.00996425,0.0156684,0.00479807,0.0165371,-0.0108329,1.39169,0.0159161,0.0137836,1987,967,62.9861,-7.73697
770,57,62.844,8.04108,-0.0110663,0.0202116,0.00963097,0.0229393,-0.0137939,1.29481,0.0214259,0.0132569,1994,967,62.844,-8.04105
777,57,62.7014,8.47461,-0.0123626,0.0247309,0.0165753,0.0310583,-0.01869,1.20613,0.0290166,0.0276454,2001,967,62.7014,-8.47461
784,57,62.7146,8.84784,-0.0132903,0.029141,0.0268815,0.0421703,-0.0263197,1.11947,0.0398941,0.0473618,2008,967,62.7147,-8.84784
791,57,62.7664,9.25439,0,0,0,0,0,0,0,-1,2015,967,62.7665,-9.2544
798,57,64.8464,10.7426,0,0,0,0,0,0,0,-1,2022,967,64.8464,-10.7426
805,57,64.7861,9.49487,0,0,0,0,0,0,0,-1,2029,967,64.7862,-9.49486
812,57,0,0,0,0,0,0,0,0,0,-1,2036,967,0,0
-700,50,0,0,0,0,0,0,0,0,0,-1,524,974,0,0
-693,50,-47.0627,7.94965,-0.00161629,0.0070555,-0.0288337,0.0318775,-0.0264383,-0.860027,0.0337174,0.0444881,531,974,-47.0627,-7.94962
-686,50,-47.4856,7.21332,0.00566264,0.0177288,-0.0191739,0.0317963,-0.0084049,-0.93782,0.0244849,0.0429659,538,974,-47.4856,-7.21333
-679,50,-47.7538,6.18958,0.00636249,0.024083,-0.0119033,0.0300617,0.000383821,-1.10534,0.0199144,0.0453855,545,974,-47.7538,-6.18956
-672,50,-47.9368,5.1554,0,0,0,0,0,0,0,-1,552,974,-47.9368,-5.15542
-665,50,-47.6056,2.08875,0,0,0,0,0,0,0,-1,559,974,-47.6056,-2.08877
-658,50,-48.2006,6.02722,0,0,0,0,0,0,0,-1,566,974,-48.2006,-6.0272
-651,50,-48.4774,5.83698,-0.00335882,0.0267919,0.00346478,0.027185,-0.00375185,1.45784,0.0194947,0.0492067,573,974,-48.4774,-5.837
-644,50,-48.6713,5.71582,-0.00531791,0.0239165,0.00480263,0.0246853,-0.00608667,1.41207,0.0188168,0.0344068,580,974,-48.6713,-5.71583
-637,50,-48.8373,5.48993,-0.0059938,0.0212629,0.00538045,0.0222866,-0.00701745,1.38279,0.0176677,0.0200601,587,974,-48.8373,-5.48995
-630,50,-48.9476,5.22687,-0.00645692,0.0175375,0.00493193,0.0185117,-0.0074311,1.37578,0.0154268,0.0117638,594,974,-48.9476,-5.22686
-623,50,-48.976,5.0033,-0.00617016,0.0129777,0.00399956,0.0137796,-0.006972,1.37294,0.0121939,0.012875,601,974,-48.976,-5.0033
-616,50,-48.9824,4.74176,-0.00584086,0.00967445,0.00212927,0.00996136,-0.00612777,1.43686,0.00937655,0.0136378,608,974,-48.9823,-4.74173
-609,50,-48.9855,4.37927,-0.00505097,0.00704202,9.67951e-05,0.00704279,-0.00505175,1.56279,0.00701425,0.0122281,615,974,-48.9855,-4.37929
-602,50,-48.9852,4.03308,-0.00364181,0.00507669,-0.00150825,0.00533024,-0.00389535,-1.40425,0.00534783,0.0120389,622,974,-48.9852,-4.03306
-595,50,-48.9865,3.737,-0.00243705,0.00377684,-0.00269635,0.00478371,-0.00344391,-1.21341,0.00477117,0.0155366,629,974,-48.9865,-3.73698
-588,50,-48.974,3.21191,-0.00161181,0.00240962,-0.00370657,0.00461573,-0.00381792,-1.03392,0.00487643,0.0283194,636,974,-48.974,-3.21188
-581,50,-49.1348,1.75922,-0.0010042,0.00173911,-0.0045495,0.00511924,-0.00438432,-0.931812,0.00549235,0.0330999,643,974,-49.1347,-1.75924
-574,50,-49.2513,0.373535,0,0,0,0,0,0,0,-1,650,974,-49.2513,-0.37353
-567,50,-49.1645,0.747437,-0.000521583,0.00147804,-0.00540667,0.00597657,-0.00502011,-0.876826,0.00635693,0.036771,657,974,-49.1645,-0.747441
-560,50,-49.1163,0.779785,-0.000547413,0.00172521,-0.00539123,0.00609858,-0.00492079,-0.889263,0.00637414,0.0447839,664,974,-49.1163,-0.779761
-553,50,-49.1706,0.849609,-0.000579929,0.00216414,-0.00511058,0.00608366,-0.00449945,-0.916541,0.00613293,0.0428883,671,974,-49.1706,-0.849595
-546,50,-49.2027,0.887207,-0.000535668,0.00265872,-0.00457059,0.00590315,-0.0037801,-0.953491,0.00563524,0.0426007,678,974,-49.2027,-0.887187
-539,50,-49.3578,0.654785,-0.000399629,0.00296718,-0.00384676,0.00548276,-0.0029152,-0.991652,0.00492352,0.0435895,685,974,-49.3578,-0.654759
-532,50,-49.2759,0.485779,0.000120908,0.0035802,-0.00377533,0.00600324,-0.00230213,-1.0002,0.00495127,0.0408532,692,974,-49.276,-0.48579
-525,50,-49.0366,0.454285,0.000547781,0.00644739,-0.00663924,0.0107626,-0.00376746,-0.994449,0.00870698,0.0417878,699,974,-49.0366,-0.454303
-518,50,0,0,0,0,0,0,0,0,0,-1,706,974,0,0
-511,50,0,0,0,0,0,0,0,0,0,-1,713,974,0,0
-504,50,0,0,0,0,0,0,0,0,0,-1,720,974,0,0
-497,50,0,0,0,0,0,0,0,0,0,-1,727,974,0,0
-490,50,0,0,0,0,0,0,0,0,0,-1,734,974,0,0
-483,50,0,0,0,0,0,0,0,0,0,-1,741,974,0,0
-476,50,0,0,0,0,0,0,0,0,0,-1,748,974,0,0
-469,50,0,0,0,0,0,0,0,0,0,-1,755,974,0,0
-462,50,0,0,0,0,0,0,0,0,0,-1,762,974,0,0
-455,50,0,0,0,0,0,0,0,0,0,-1,769,974,0,0
-448,50,0,0,0,0,0,0,0,0,0,-1,776,974,0,0
-441,50,0,0,0,0,0,0,0,0,0,-1,783,974,0,0
-434,50,0,0,0,0,0,0,0,0,0,-1,790,974,0,0
-427,50,0,0,0,0,0,0,0,0,0,-1,797,974,0,0
-420,50,0,0,0,0,0,0,0,0,0,-1,804,974,0,0
-413,50,0,0,0,0,0,0,0,0,0,-1,811,974,0,0
-406,50,0,0,0,0,0,0,0,0,0,-1,818,974,0,0
-399,50,0,0,0,0,0,0,0,0,0,-1,825,974,0,0
-392,50,0,0,0,0,0,0,0,0,0,-1,832,974,0,0
-385,50,0,0,0,0,0,0,0,0,0,-1,839,974,0,0
-378,50,0,0,0,0,0,0,0,0,0,-1,846,974,0,0
-371,50,0,0,0,0,0,0,0,0,0,-1,853,974,0,0
-364,50,0,0,0,0,0,0,0,0,0,-1,860,974,0,0
-357,50,0,0,0,0,0,0,0,0,0,-1,867,974,0,0
-350,50,0,0,0,0,0,0,0,0,0,-1,874,974,0,0
-343,50,0,0,0,0,0,0,0,0,0,-1,881,974,0,0
-336,50,0,0,0,0,0,0,0,0,0,-1,888,974,0,0
-329,50,0,0,0,0,0,0,0,0,0,-1,895,974,0,0
-322,50,0,0,0,0,0,0,0,0,0,-1,902,974,0,0
-315,50,0,0,0,0,0,0,0,0,0,-1,909,974,0,0
-308,50,0,0,0,0,0,0,0,0,0,-1,916,974,0,0
-301,50,0,0,0,0,0,0,0,0,0,-1,923,974,0,0
-294,50,0,0,0,0,0,0,0,0,0,-1,930,974,0,0
-287,50,0,0,0,0,0,0,0,0,0,-1,937,974,0,0
-280,50,0,0,0,0,0,0,0,0,0,-1,944,974,0,0
-273,50,0,0,0,0,0,0,0,0,0,-1,951,974,0,0
-266,50,0,0,0,0,0,0,0,0,0,-1,958,974,0,0
-259,50,0,0,0,0,0,0,0,0,0,-1,965,974,0,0
-252,50,0,0,0,0,0,0,0,0,0,-1,972,974,0,0
-245,50,0,0,0,0,0,0,0,0,0,-1,979,974,0,0
-238,50,0,0,0,0,0,0,0,0,0,-1,986,974,0,0
-231,50,0,0,0,0,0,0,0,0,0,-1,993,974,0,0
-224,50,0,0,0,0,0,0,0,0,0,-1,1000,974,0,0
-217,50,0,0,0,0,0,0,0,0,0,-1,1007,974,0,0
-210,50,0,0,0,0,0,0,0,0,0,-1,1014,974,0,0
-203,50,0,0,0,0,0,0,0,0,0,-1,1021,974,0,0
-196,50,0,0,0,0,0,0,0,0,0,-1,1028,974,0,0
-189,50,0,0,0,0,0,0,0,0,0,-1,1035,974,0,0
-182,50,0,0,0,0,0,0,0,0,0,-1,1042,974,0,0
-175,50,0,0,0,0,0,0,0,0,0,-1,1049,974,0,0
-168,50,0,0,0,0,0,0,0,0,0,-1,1056,974,0,0
-161,50,0,0,0,0,0,0,0,0,0,-1,1063,974,0,0
-154,50,0,0,0,0,0,0,0,0,0,-1,1070,974,0,0
-147,50,0,0,0,0,0,0,0,0,0,-1,1077,974,0,0
-140,50,0,0,0,0,0,0,0,0,0,-1,1084,974,0,0
-133,50,0,0,0,0,0,0,0,0,0,-1,1091,974,0,0
-126,50,0,0,0,0,0,0,0,0,0,-1,1098,974,0,0
-119,50,0,0,0,0,0,0,0,0,0,-1,1105,974,0,0
-112,50,0,0,0,0,0,0,0,0,0,-1,1112,974,0,0
-105,50,0,0,0,0,0,0,0,0,0,-1,1119,974,0,0
-98,50,0,0,0,0,0,0,0,0,0,-1,1126,974,0,0
-91,50,0,0,0,0,0,0,0,0,0,-1,1133,974,0,0
-84,50,0,0,0,0,0,0,0,0,0,-1,1140,974,0,0
-77,50,0,0,0,0,0,0,0,0,0,-1,1147,974,0,0
-70,50,0,0,0,0,0,0,0,0,0,-1,1154,974,0,0
-63,50,0,0,0,0,0,0,0,0,0,-1,1161,974,0,0
-56,50,0,0,0,0,0,0,0,0,0,-1,1168,974,0,0
-49,50,0,0,0,0,0,0,0,0,0,-1,1175,974,0,0
-42,50,0,0,0,0,0,0,0,0,0,-1,1182,974,0,0
-35,50,0,0,0,0,0,0,0,0,0,-1,1189,974,0,0
-28,50,0,0,0,0,0,0,0,0,0,-1,1196,974,0,0
-21,50,0,0,0,0,0,0,0,0,0,-1,1203,974,0,0
-14,50,0,0,0,0,0,0,0,0,0,-1,1210,974,0,0
-7,50,0,0,0,0,0,0,0,0,0,-1,1217,974,0,0
0,50,0,0,0,0,0,0,0,0,0,-1,1224,974,0,0
7,50,0,0,0,0,0,0,0,0,0,-1,1231,974,0,0
14,50,0,0,0,0,0,0,0,0,0,-1,1238,974,0,0
21,50,0,0,0,0,0,0,0,0,0,-1,1245,974,0,0
28,50,0,0,0,0,0,0,0,0,0,-1,1252,974,0,0
35,50,0,0,0,0,0,0,0,0,0,-1,1259,974,0,0
42,50,0,0,0,0,0,0,0,0,0,-1,1266,974,0,0
49,50,0,0,0,0,0,0,0,0,0,-1,1273,974,0,0
56,50,0,0,0,0,0,0,0,0,0,-1,1280,974,0,0
63,50,0,0,0,0,0,0,0,0,0,-1,1287,974,0,0
70,50,0,0,0,0,0,0,0,0,0,-1,1294,974,0,0
77,50,0,0,0,0,0,0,0,0,0,-1,1301,974,0,0
84,50,0,0,0,0,0,0,0,0,0,-1,1308,974,0,0
91,50,0,0,0,0,0,0,0,0,0,-1,1315,974,0,0
98,50,0,0,0,0,0,0,0,0,0,-1,1322,974,0,0
105,50,0,0,0,0,0,0,0,0,0,-1,1329,974,0,0
112,50,0,0,0,0,0,0,0,0,0,-1,1336,974,0,0
119,50,0,0,0,0,0,0,0,0,0,-1,1343,974,0,0
126,50,0,0,0,0,0,0,0,0,0,-1,1350,974,0,0
133,50,0,0,0,0,0,0,0,0,0,-1,1357,974,0,0
140,50,0,0,0,0,0,0,0,0,0,-1,1364,974,0,0
147,50,0,0,0,0,0,0,0,0,0,-1,1371,974,0,0
154,50,0,0,0,0,0,0,0,0,0,-1,1378,974,0,0
161,50,0,0,0,0,0,0,0,0,0,-1,1385,974,0,0
168,50,0,0,0,0,0,0,0,0,0,-1,1392,974,0,0
175,50,0,0,0,0,0,0,0,0,0,-1,1399,974,0,0
182,50,0,0,0,0,0,0,0,0,0,-1,1406,974,0,0
189,50,0,0,0,0,0,0,0,0,0,-1,1413,974,0,0
196,50,0,0,0,0,0,0,0,0,0,-1,1420,974,0,0
203,50,0,0,0,0,0,0,0,0,0,-1,1427,974,0,0
210,50,0,0,0,0,0,0,0,0,0,-1,1434,974,0,0
217,50,0,0,0,0,0,0,0,0,0,-1,1441,974,0,0
224,50,0,0,0,0,0,0,0,0,0,-1,1448,974,0,0
231,50,0,0,0,0,0,0,0,0,0,-1,1455,974,0,0
238,50,0,0,0,0,0,0,0,0,0,-1,1462,974,0,0
245,50,0,0,0,0,0,0,0,0,0,-1,1469,974,0,0
252,50,0,0,0,0,0,0,0,0,0,-1,1476,974,0,0
259,50,0,0,0,0,0,0,0,0,0,-1,1483,974,0,0
266,50,0,0,0,0,0,0,0,0,0,-1,1490,974,0,0
273,50,0,0,0,0,0,0,0,0,0,-1,1497,974,0,0
280,50,0,0,0,0,0,0,0,0,0,-1,1504,974,0,0
287,50,0,0,0,0,0,0,0,0,0,-1,1511,974,0,0
294,50,0,0,0,0,0,0,0,0,0,-1,1518,974,0,0
301,50,0,0,0,0,0,0,0,0,0,-1,1525,974,0,0
308,50,0,0,0,0,0,0,0,0,0,-1,1532,974,0,0
315,50,0,0,0,0,0,0,0,0,0,-1,1539,974,0,0
322,50,0,0,0,0,0,0,0,0,0,-1,1546,974,0,0
329,50,0,0,0,0,0,0,0,0,0,-1,1553,974,0,0
336,50,0,0,0,0,0,0,0,0,0,-1,1560,974,0,0
343,50,0,0,0,0,0,0,0,0,0,-1,1567,974,0,0
350,50,0,0,0,0,0,0,0,0,0,-1,1574,974,0,0
357,50,0,0,0,0,0,0,0,0,0,-1,1581,974,0,0
364,50,0,0,0,0,0,0,0,0,0,-1,1588,974,0,0
371,50,0,0,0,0,0,0,0,0,0,-1,1595,974,0,0
378,50,0,0,0,0,0,0,0,0,0,-1,1602,974,0,0
385,50,0,0,0,0,0,0,0,0,0,-1,1609,974,0,0
392,50,0,0,0,0,0,0,0,0,0,-1,1616,974,0,0
399,50,0,0,0,0,0,0,0,0,0,-1,1623,974,0,0
406,50,0,0,0,0,0,0,0,0,0,-1,1630,974,0,0
413,50,0,0,0,0,0,0,0,0,0,-1,1637,974,0,0
420,50,0,0,0,0,0,0,0,0,0,-1,1644,974,0,0
427,50,0,0,0,0,0,0,0,0,0,-1,1651,974,0,0
434,50,0,0,0,0,0,0,0,0,0,-1,1658,974,0,0
441,50,0,0,0,0,0,0,0,0,0,-1,1665,974,0,0
448,50,0,0,0,0,0,0,0,0,0,-1,1672,974,0,0
455,50,0,0,0,0,0,0,0,0,0,-1,1679,974,0,0
462,50,0,0,0,0,0,0,0,0,0,-1,1686,974,0,0
469,50,0,0,0,0,0,0,0,0,0,-1,1693,974,0,0
476,50,0,0,0,0,0,0,0,0,0,-1,1700,974,0,0
483,50,0,0,0,0,0,0,0,0,0,-1,1707,974,0,0
490,50,0,0,0,0,0,0,0,0,0,-1,1714,974,0,0
497,50,0,0,0,0,0,0,0,0,0,-1,1721,974,0,0
504,50,0,0,0,0,0,0,0,0,0,-1,1728,974,0,0
511,50,0,0,0,0,0,0,0,0,0,-1,1735,974,0,0
518,50,0,0,0,0,0,0,0,0,0,-1,1742,974,0,0
525,50,0,0,0,0,0,0,0,0,0,-1,1749,974,0,0
532,50,0,0,0,0,0,0,0,0,0,-1,1756,974,0,0
539,50,0,0,0,0,0,0,0,0,0,-1,1763,974,0,0
546,50,0,0,0,0,0,0,0,0,0,-1,1770,974,0,0
553,50,0,0,0,0,0,0,0,0,0,-1,1777,974,0,0
560,50,0,0,0,0,0,0,0,0,0,-1,1784,974,0,0
567,50,0,0,0,0,0,0,0,0,0,-1,1791,974,0,0
574,50,0,0,0,0,0,0,0,0,0,-1,1798,974,0,0
581,50,0,0,0,0,0,0,0,0,0,-1,1805,974,0,0
588,50,0,0,0,0,0,0,0,0,0,-1,1812,974,0,0
595,50,0,0,0,0,0,0,0,0,0,-1,1819,974,0,0
602,50,0,0,0,0,0,0,0,0,0,-1,1826,974,0,0
609,50,0,0,0,0,0,0,0,0,0,-1,1833,974,0,0
616,50,0,0,0,0,0,0,0,0,0,-1,1840,974,0,0
623,50,0,0,0,0,0,0,0,0,0,-1,1847,974,0,0
630,50,0,0,0,0,0,0,0,0,0,-1,1854,974,0,0
637,50,0,0,0,0,0,0,0,0,0,-1,1861,974,0,0
644,50,64.7794,2.54449,0.00209668,-0.00249056,0.00237415,0.00310416,-0.00349805,0.401324,0.00381405,0.037831,1868,974,64.7794,-2.54451
651,50,64.7198,2.61908,0.00119818,-0.00214327,0.00125564,0.00161742,-0.00256251,0.322248,0.00243376,0.0336966,1875,974,64.7198,-2.61906
658,50,64.7775,2.54248,0.000680736,-0.00176789,0.000741237,0.000887637,-0.00197479,0.272201,0.00169189,0.0370558,1882,974,64.7775,-2.54249
665,50,64.8198,2.41766,0.000420685,-0.00128386,0.000472527,0.000542912,-0.00140609,0.25312,0.00116146,0.0384706,1889,974,64.8199,-2.41766
672,50,64.821,2.42389,5.57469e-05,-0.000845309,0.000453492,0.000244461,-0.00103402,0.394339,0.000783651,0.0378937,1896,974,64.821,-2.4239
679,50,64.7069,2.55243,-0.000270783,-0.000681823,0.000607867,0.000165368,-0.00111797,0.622381,0.000806112,0.0377992,1903,974,64.7069,-2.55244
686,50,64.6896,2.53955,-0.000329926,-0.00079089,0.000679806,0.000157407,-0.00127822,0.621959,0.000909171,0.0412806,1910,974,64.6895,-2.53954
693,50,64.7434,2.57849,-0.000501526,-0.000952873,0.000587642,-9.77137e-05,-0.00135668,0.602065,0.000873709,0.0392297,1917,974,64.7434,-2.57848
700,50,64.7885,2.69623,-0.000895361,-0.000905054,0.000363124,-0.000537051,-0.00126336,0.778725,0.000732126,0.0218523,1924,974,64.7884,-2.69624
707,50,64.8328,2.67981,-0.00143916,-0.00050726,3.92641e-05,-0.000505609,-0.00144081,1.52876,0.000844088,0.0347552,1931,974,64.8328,-2.67983
714,50,64.7843,2.68237,0,0,0,0,0,0,0,-1,1938,974,64.7842,-2.68238
721,50,63.6219,5.46179,0,0,0,0,0,0,0,-1,1945,974,63.622,-5.4618
728,50,63.6119,5.88788,-0.00397599,0.00254582,-0.000542874,0.0025907,-0.00402087,-1.48831,0.00384684,0.0215643,1952,974,63.612,-5.88789
735,50,63.6385,6.29803,-0.00481895,0.00395045,-0.000697248,0.00400554,-0.00487404,-1.49195,0.0051348,0.0219123,1959,974,63.6385,-6.29803
742,50,63.6401,6.6554,-0.00620141,0.00563681,-0.000549873,0.00566229,-0.0062269,-1.52448,0.00686681,0.0170504,1966,974,63.6401,-6.65539
749,50,63.5846,6.93866,-0.00790776,0.00834538,0.000207508,0.00834803,-0.0079104,1.55803,0.00938794,0.0174616,1973,974,63.5846,-6.93865
756,50,63.5062,7.276,-0.00984687,0.0119041,0.00160145,0.0120213,-0.00996415,1.49769,0.0127118,0.0149568,1980,974,63.5062,-7.276
763,50,63.3923,7.62408,-0.0118711,0.0164598,0.0046699,0.0172097,-0.012621,1.41157,0.0172905,0.0154258,1987,974,63.3924,-7.62411
770,50,63.2839,7.91711,-0.0137731,0.0215011,0.00952047,0.0239067,-0.0161786,1.32331,0.0232862,0.0140077,1994,974,63.2839,-7.9171
777,50,63.241,8.25714,-0.015917,0.0266379,0.0165035,0.0322881,-0.0215672,1.24094,0.031298,0.023781,2001,974,63.2409,-8.25716
784,50,63.2646,8.65839,-0.0179259,0.0318494,0.0268029,0.0435376,-0.0296141,1.15958,0.0424884,0.0408478,2008,974,63.2646,-8.6584
791,50,63.468,9.1485,-0.0188781,0.036785,0.0417759,0.0591513,-0.0412444,1.07924,0.05827,0.0466536,2015,974,63.4681,-9.14849
798,50,63.822,10.3224,-0.0192389,0.0413717,0.0627858,0.0807835,-0.0586507,1.01024,0.0808397,0.0493534,2022,974,63.8221,-10.3224
805,50,63.2117,10.3139,0,0,0,0,0,0,0,-1,2029,974,63.2117,-10.3139
812,50,0,0,0,0,0,0,0,0,0,-1,2036,974,0,0
-700,43,0,0,0,0,0,0,0,0,0,-1,524,981,0,0
-693,43,-47.829,8.57349,0.0014762,-0.0125817,-0.0221889,0.0177228,-0.0288283,-0.632009,0.0271301,0.0444225,531,981,-47.829,-8.57348
-686,43,-48.3864,7.23627,0.00983405,0.000660261,-0.0142765,0.0202425,-0.00974815,-0.629962,0.0176649,0.0441298,538,981,-48.3864,-7.23625
-679,43,-48.5112,5.89587,0.0106897,0.00972878,-0.00852358,0.0187463,0.00167212,-0.757244,0.0119791,0.0461951,545,981,-48.5112,-5.89585
-672,43,-51.0238,3.67957,0,0,0,0,0,0,0,-1,552,981,-51.0238,-3.67959
-665,43,-50.2658,3.95746,0,0,0,0,0,0,0,-1,559,981,-50.2658,-3.95746
-658,43,-48.5416,5.97443,0,0,0,0,0,0,0,-1,566,981,-48.5417,-5.97445
-651,43,-48.7883,5.75537,-0.000670804,0.0216457,0.00353371,0.0221919,-0.00121698,1.41745,0.0152165,0.0436139,573,981,-48.7883,-5.75539
-644,43,-49.0473,5.54724,-0.00329319,0.020346,0.00455532,0.0211934,-0.00414063,1.38687,0.0156923,0.0257104,580,981,-49.0473,-5.54727
-637,43,-49.21,5.31458,-0.00455153,0.0188627,0.00498724,0.0198807,-0.00556956,1.36944,0.0154487,0.0196195,587,981,-49.21,-5.31455
-630,43,-49.2469,5.10352,-0.00546236,0.0162003,0.0044063,0.0170623,-0.00632433,1.37761,0.0139686,0.0153353,594,981,-49.2469,-5.10351
-623,43,-49.2627,4.90033,-0.00555698,0.0123969,0.00334991,0.0130016,-0.00616165,1.39221,0.0112964,0.0130006,601,981,-49.2627,-4.90033
-616,43,-49.2698,4.64954,-0.00555194,0.00938782,0.00154408,0.00954573,-0.00570986,1.46888,0.00890014,0.0121767,608,981,-49.2697,-4.64956
-609,43,-49.2904,4.36713,-0.00493225,0.00708655,-0.000331529,0.00709569,-0.00494139,-1.54324,0.00698661,0.0139683,615,981,-49.2904,-4.36711
-602,43,-49.2746,4.09235,-0.00351911,0.00522443,-0.00179129,0.00557718,-0.00387186,-1.37636,0.00548494,0.0172678,622,981,-49.2746,-4.09236
-595,43,-49.3949,3.83636,-0.00230696,0.00393503,-0.00289491,0.00507093,-0.00344286,-1.19688,0.0049453,0.018682,629,981,-49.3949,-3.83634
-588,43,-49.3745,2.97827,-0.00143504,0.00258385,-0.00383165,0.004901,-0.00375219,-1.0269,0.00501058,0.038695,636,981,-49.3745,-2.97828
-581,43,-49.2632,1.40985,-0.000784192,0.0019497,-0.00456983,0.00535264,-0.00418714,-0.930725,0.00552148,0.0431616,643,981,-49.2632,-1.40983
-574,43,-49.1235,-0.00720215,0,0,0,0,0,0,0,-1,650,981,-49.1235,0.00722367
-567,43,-49.1567,0.780884,-0.000310152,0.00169905,-0.00520021,0.00599081,-0.00460191,-0.880815,0.00613321,0.0367853,657,981,-49.1567,-0.780876
-560,43,-49.0972,0.817932,-0.000362843,0.00196682,-0.00501257,0.00594812,-0.00434414,-0.899563,0.00596624,0.0410233,664,981,-49.0972,-0.817928
-553,43,-49.1287,0.820129,-0.000483359,0.00240105,-0.00451574,0.00569929,-0.0037816,-0.939965,0.00551099,0.041757,671,981,-49.1287,-0.820145
-546,43,-49.2203,0.794067,-0.00059439,0.00281317,-0.00370978,0.00519171,-0.00297293,-1.00067,0.00477153,0.0435676,678,981,-49.2203,-0.794081
-539,43,-49.1885,0.612671,-0.000703218,0.00292921,-0.00267736,0.00434825,-0.00212226,-1.08343,0.00380873,0.0452387,685,981,-49.1885,-0.612688
-532,43,-49.0396,0.283508,-0.000364729,0.00339485,-0.00236263,0.00453427,-0.00150415,-1.12143,0.00362965,0.0443198,692,981,-49.0396,-0.283518
-525,43,-49.0278,0.278442,0.000187308,0.00625346,-0.00520262,0.00924257,-0.00280181,-1.04931,0.0072777,0.0453285,699,981,-49.0278,-0.278467
-518,43,0,0,0,0,0,0,0,0,0,-1,706,981,0,0
-511,43,0,0,0,0,0,0,0,0,0,-1,713,981,0,0
-504,43,0,0,0,0,0,0,0,0,0,-1,720,981,0,0
-497,43,0,0,0,0,0,0,0,0,0,-1,727,981,0,0
-490,43,0,0,0,0,0,0,0,0,0,-1,734,981,0,0
-483,43,0,0,0,0,0,0,0,0,0,-1,741,981,0,0
-476,43,0,0,0,0,0,0,0,0,0,-1,748,981,0,0
-469,43,0,0,0,0,0,0,0,0,0,-1,755,981,0,0
-462,43,0,0,0,0,0,0,0,0,0,-1,762,981,0,0
-455,43,0,0,0,0,0,0,0,0,0,-1,769,981,0,0
-448,43,0,0,0,0,0,0,0,0,0,-1,776,981,0,0
-441,43,0,0,0,0,0,0,0,0,0,-1,783,981,0,0
-434,43,0,0,0,0,0,0,0,0,0,-1,790,981,0,0
-427,43,0,0,0,0,0,0,0,0,0,-1,797,981,0,0
-420,43,0,0,0,0,0,0,0,0,0,-1,804,981,0,0
-413,43,0,0,0,0,0,0,0,0,0,-1,811,981,0,0
-406,43,0,0,0,0,0,0,0,0,0,-1,818,981,0,0
-399,43,0,0,0,0,0,0,0,0,0,-1,825,981,0,0
-392,43,0,0,0,0,0,0,0,0,0,-1,832,981,0,0
-385,43,0,0,0,0,0,0,0,0,0,-1,839,981,0,0
-378,43,0,0,0,0,0,0,0,0,0,-1,846,981,0,0
-371,43,0,0,0,0,0,0,0,0,0,-1,853,981,0,0
-364,43,0,0,0,0,0,0,0,0,0,-1,860,981,0,0
-357,43,0,0,0,0,0,0,0,0,0,-1,867,981,0,0
-350,43,0,0,0,0,0,0,0,0,0,-1,874,981,0,0
-343,43,0,0,0,0,0,0,0,0,0,-1,881,981,0,0
-336,43,0,0,0,0,0,0,0,0,0,-1,888,981,0,0
-329,43,0,0,0,0,0,0,0,0,0,-1,895,981,0,0
-322,43,0,0,0,0,0,0,0,0,0,-1,902,981,0,0
-315,43,0,0,0,0,0,0,0,0,0,-1,909,981,0,0
-308,43,0,0,0,0,0,0,0,0,0,-1,916,981,0,0
-301,43,0,0,0,0,0,0,0,0,0,-1,923,981,0,0
-294,43,0,0,0,0,0,0,0,0,0,-1,930,981,0,0
-287,43,0,0,0,0,0,0,0,0,0,-1,937,981,0,0
-280,43,0,0,0,0,0,0,0,0,0,-1,944,981,0,0
-273,43,0,0,0,0,0,0,0,0,0,-1,951,981,0,0
-266,43,0,0,0,0,0,0,0,0,0,-1,958,981,0,0
-259,43,0,0,0,0,0,0,0,0,0,-1,965,981,0,0
-252,43,0,0,0,0,0,0,0,0,0,-1,972,981,0,0
-245,43,0,0,0,0,0,0,0,0,0,-1,979,981,0,0
-238,43,0,0,0,0,0,0,0,0,0,-1,986,981,0,0
-231,43,0,0,0,0,0,0,0,0,0,-1,993,981,0,0
-224,43,0,0,0,0,0,0,0,0,0,-1,1000,981,0,0
-217,43,0,0,0,0,0,0,0,0,0,-1,1007,981,0,0
-210,43,0,0,0,0,0,0,0,0,0,-1,1014,981,0,0
-203,43,0,0,0,0,0,0,0,0,0,-1,1021,981,0,0
-196,43,0,0,0,0,0,0,0,0,0,-1,1028,981,0,0
-189,43,0,0,0,0,0,0,0,0,0,-1,1035,981,0,0
-182,43,0,0,0,0,0,0,0,0,0,-1,1042,981,0,0
-175,43,0,0,0,0,0,0,0,0,0,-1,1049,981,0,0
-168,43,0,0,0,0,0,0,0,0,0,-1,1056,981,0,0
-161,43,0,0,0,0,0,0,0,0,0,-1,1063,981,0,0
-154,43,0,0,0,0,0,0,0,0,0,-1,1070,981,0,0
-147,43,0,0,0,0,0,0,0,0,0,-1,1077,981,0,0
-140,43,0,0,0,0,0,0,0,0,0,-1,1084,981,0,0
-133,43,0,0,0,0,0,0,0,0,0,-1,1091,981,0,0
-126,43,0,0,0,0,0,0,0,0,0,-1,1098,981,0,0
-119,43,0,0,0,0,0,0,0,0,0,-1,1105,981,0,0
-112,43,0,0,0,0,0,0,0,0,0,-1,1112,981,0,0
-105,43,0,0,0,0,0,0,0,0,0,-1,1119,981,0,0
-98,43,0,0,0,0,0,0,0,0,0,-1,1126,981,0,0
-91,43,0,0,0,0,0,0,0,0,0,-1,1133,981,0,0
-84,43,0,0,0,0,0,0,0,0,0,-1,1140,981,0,0
-77,43,0,0,0,0,0,0,0,0,0,-1,1147,981,0,0
-70,43,0,0,0,0,0,0,0,0,0,-1,1154,981,0,0
-63,43,0,0,0,0,0,0,0,0,0,-1,1161,981,0,0
-56,43,0,0,0,0,0,0,0,0,0,-1,1168,981,0,0
-49,43,0,0,0,0,0,0,0,0,0,-1,1175,981,0,0
-42,43,0,0,0,0,0,0,0,0,0,-1,1182,981,0,0
-35,43,0,0,0,0,0,0,0,0,0,-1,1189,981,0,0
-28,43,0,0,0,0,0,0,0,0,0,-1,1196,981,0,0
-21,43,0,0,0,0,0,0,0,0,0,-1,1203,981,0,0
-14,43,0,0,0,0,0,0,0,0,0,-1,1210,981,0,0
-7,43,0,0,0,0,0,0,0,0,0,-1,1217,981,0,0
0,43,0,0,0,0,0,0,0,0,0,-1,1224,981,0,0
7,43,0,0,0,0,0,0,0,0,0,-1,1231,981,0,0
14,43,0,0,0,0,0,0,0,0,0,-1,1238,981,0,0
21,43,0,0,0,0,0,0,0,0,0,-1,1245,981,0,0
28,43,0,0,0,0,0,0,0,0,0,-1,1252,981,0,0
35,43,0,0,0,0,0,0,0,0,0,-1,1259,981,0,0
42,43,0,0,0,0,0,0,0,0,0,-1,1266,981,0,0
49,43,0,0,0,0,0,0,0,0,0,-1,1273,981,0,0
56,43,0,0,0,0,0,0,0,0,0,-1,1280,981,0,0
63,43,0,0,0,0,0,0,0,0,0,-1,1287,981,0,0
70,43,0,0,0,0,0,0,0,0,0,-1,1294,981,0,0
77,43,0,0,0,0,0,0,0,0,0,-1,1301,981,0,0
84,43,0,0,0,0,0,0,0,0,0,-1,1308,981,0,0
91,43,0,0,0,0,0,0,0,0,0,-1,1315,981,0,0
98,43,0,0,0,0,0,0,0,0,0,-1,1322,981,0,0
105,43,0,0,0,0,0,0,0,0,0,-1,1329,981,0,0
112,43,0,0,0,0,0,0,0,0,0,-1,1336,981,0,0
119,43,0,0,0,0,0,0,0,0,0,-1,1343,981,0,0
126,43,0,0,0,0,0,0,0,0,0,-1,1350,981,0,0
133,43,0,0,0,0,0,0,0,0,0,-1,1357,981,0,0
140,43,0,0,0,0,0,0,0,0,0,-1,1364,981,0,0
147,43,0,0,0,0,0,0,0,0,0,-1,1371,981,0,0
154,43,0,0,0,0,0,0,0,0,0,-1,1378,981,0,0
161,43,0,0,0,0,0,0,0,0,0,-1,1385,981,0,0
168,43,0,0,0,0,0,0,0,0,0,-1,1392,981,0,0
175,43,0,0,0,0,0,0,0,0,0,-1,1399,981,0,0
182,43,0,0,0,0,0,0,0,0,0,-1,1406,981,0,0
189,43,0,0,0,0,0,0,0,0,0,-1,1413,981,0,0
196,43,0,0,0,0,0,0,0,0,0,-1,1420,981,0,0
203,43,0,0,0,0,0,0,0,0,0,-1,1427,981,0,0
210,43,0,0,0,0,0,0,0,0,0,-1,1434,981,0,0
217,43,0,0,0,0,0,0,0,0,0,-1,1441,981,0,0
224,43,0,0,0,0,0,0,0,0,0,-1,1448,981,0,0
231,43,0,0,0,0,0,0,0,0,0,-1,1455,981,0,0
238,43,0,0,0,0,0,0,0,0,0,-1,1462,981,0,0
245,43,0,0,0,0,0,0,0,0,0,-1,1469,981,0,0
252,43,0,0,0,0,0,0,0,0,0,-1,1476,981,0,0
259,43,0,0,0,0,0,0,0,0,0,-1,1483,981,0,0
266,43,0,0,0,0,0,0,0,0,0,-1,1490,981,0,0
273,43,0,0,0,0,0,0,0,0,0,-1,1497,981,0,0
280,43,0,0,0,0,0,0,0,0,0,-1,1504,981,0,0
287,43,0,0,0,0,0,0,0,0,0,-1,1511,981,0,0
294,43,0,0,0,0,0,0,0,0,0,-1,1518,981,0,0
301,43,0,0,0,0,0,0,0,0,0,-1,1525,981,0,0
308,43,0,0,0,0,0,0,0,0,0,-1,1532,981,0,0
315,43,0,0,0,0,0,0,0,0,0,-1,1539,981,0,0
322,43,0,0,0,0,0,0,0,0,0,-1,1546,981,0,0
329,43,0,0,0,0,0,0,0,0,0,-1,1553,981,0,0
336,43,0,0,0,0,0,0,0,0,0,-1,1560,981,0,0
343,43,0,0,0,0,0,0,0,0,0,-1,1567,981,0,0
350,43,0,0,0,0,0,0,0,0,0,-1,1574,981,0,0
357,43,0,0,0,0,0,0,0,0,0,-1,1581,981,0,0
364,43,0,0,0,0,0,0,0,0,0,-1,1588,981,0,0
371,43,0,0,0,0,0,0,0,0,0,-1,1595,981,0,0
378,43,0,0,0,0,0,0,0,0,0,-1,1602,981,0,0
385,43,0,0,0,0,0,0,0,0,0,-1,1609,981,0,0
392,43,0,0,0,0,0,0,0,0,0,-1,1616,981,0,0
399,43,0,0,0,0,0,0,0,0,0,-1,1623,981,0,0
406,43,0,0,0,0,0,0,0,0,0,-1,1630,981,0,0
413,43,0,0,0,0,0,0,0,0,0,-1,1637,981,0,0
420,43,0,0,0,0,0,0,0,0,0,-1,1644,981,0,0
427,43,0,0,0,0,0,0,0,0,0,-1,1651,981,0,0
434,43,0,0,0,0,0,0,0,0,0,-1,1658,981,0,0
441,43,0,0,0,0,0,0,0,0,0,-1,1665,981,0,0
448,43,0,0,0,0,0,0,0,0,0,-1,1672,981,0,0
455,43,0,0,0,0,0,0,0,0,0,-1,1679,981,0,0
462,43,0,0,0,0,0,0,0,0,0,-1,1686,981,0,0
469,43,0,0,0,0,0,0,0,0,0,-1,1693,981,0,0
476,43,0,0,0,0,0,0,0,0,0,-1,1700,981,0,0
483,43,0,0,0,0,0,0,0,0,0,-1,1707,981,0,0
490,43,0,0,0,0,0,0,0,0,0,-1,1714,981,0,0
497,43,0,0,0,0,0,0,0,0,0,-1,1721,981,0,0
504,43,0,0,0,0,0,0,0,0,0,-1,1728,981,0,0
511,43,0,0,0,0,0,0,0,0,0,-1,1735,981,0,0
518,43,0,0,0,0,0,0,0,0,0,-1,1742,981,0,0
525,43,0,0,0,0,0,0,0,0,0,-1,1749,981,0,0
532,43,0,0,0,0,0,0,0,0,0,-1,1756,981,0,0
539,43,0,0,0,0,0,0,0,0,0,-1,1763,981,0,0
546,43,0,0,0,0,0,0,0,0,0,-1,1770,981,0,0
553,43,0,0,0,0,0,0,0,0,0,-1,1777,981,0,0
560,43,0,0,0,0,0,0,0,0,0,-1,1784,981,0,0
567,43,0,0,0,0,0,0,0,0,0,-1,1791,981,0,0
574,43,0,0,0,0,0,0,0,0,0,-1,1798,981,0,0
581,43,0,0,0,0,0,0,0,0,0,-1,1805,981,0,0
588,43,0,0,0,0,0,0,0,0,0,-1,1812,981,0,0
595,43,0,0,0,0,0,0,0,0,0,-1,1819,981,0,0
602,43,0,0,0,0,0,0,0,0,0,-1,1826,981,0,0
609,43,0,0,0,0,0,0,0,0,0,-1,1833,981,0,0
616,43,0,0,0,0,0,0,0,0,0,-1,1840,981,0,0
623,43,0,0,0,0,0,0,0,0,0,-1,1847,981,0,0
630,43,0,0,0,0,0,0,0,0,0,-1,1854,981,0,0
637,43,0,0,0,0,0,0,0,0,0,-1,1861,981,0,0
644,43,64.7515,2.52185,0.00126644,-0.00233159,0.00208674,0.00222259,-0.00328774,0.429654,0.00320114,0.0385158,1868,981,64.7514,-2.52186
651,43,64.6742,2.5705,0.000592896,-0.00196016,0.000848296,0.000849055,-0.00221632,0.293262,0.00182754,0.0360787,1875,981,64.6741,-2.57049
658,43,64.807,2.47943,0.000239392,-0.00158821,0.000289107,0.000284035,-0.00163285,0.153207,0.00119456,0.0367283,1882,981,64.807,-2.47942
665,43,64.8473,2.37506,0.000119838,-0.00113891,-4.4527e-06,0.000119854,-0.00113893,-0.00353733,0.000802227,0.0378601,1889,981,64.8473,-2.37504
672,43,64.8182,2.48328,-7.29896e-05,-0.000700032,-4.03386e-05,-7.04053e-05,-0.000702616,-0.0639801,0.000446795,0.0373361,1896,981,64.8182,-2.48327
679,43,64.7815,2.60089,-0.000254311,-0.000486344,0.000112545,-0.000208692,-0.000531963,0.385106,0.000309495,0.0385838,1903,981,64.7815,-2.6009
686,43,64.7454,2.63348,-0.000230105,-0.000572389,0.000234264,-0.000111128,-0.000691367,0.46993,0.000428697,0.0412529,1910,981,64.7454,-2.63348
693,43,64.7323,2.62976,-0.000313699,-0.000750295,0.000218902,-0.00022285,-0.000841145,0.393391,0.000503206,0.0364373,1917,981,64.7323,-2.62974
700,43,64.7841,2.65375,-0.000607867,-0.000749364,6.17763e-05,-0.000584692,-0.000772539,0.3589,0.000465228,0.0324416,1924,981,64.784,-2.65376
707,43,64.8835,2.59473,-0.00114801,-0.000363358,-0.00019789,-0.000316275,-0.0011951,-1.33722,0.000715016,0.0296106,1931,981,64.8835,-2.59472
714,43,64.8418,2.59625,0,0,0,0,0,0,0,-1,1938,981,64.8418,-2.59625
721,43,63.9891,5.54071,0,0,0,0,0,0,0,-1,1945,981,63.9891,-5.5407
728,43,64.0162,5.92633,-0.00411295,0.0029142,-0.00067458,0.00297837,-0.00417712,-1.47595,0.0041505,0.0194707,1952,981,64.0162,-5.92635
735,43,64.0297,6.28564,-0.00518166,0.00444464,-0.000747261,0.0045023,-0.00523932,-1.49378,0.00562969,0.0151938,1959,981,64.0297,-6.28564
742,43,63.9803,6.61224,-0.00685081,0.00618777,-0.000540791,0.00621016,-0.0068732,-1.52941,0.00755692,0.0165356,1966,981,63.9803,-6.61226
749,43,63.9476,6.91931,-0.00888645,0.00895751,0.000151566,0.00895879,-0.00888773,1.5623,0.0103037,0.0199359,1973,981,63.9476,-6.9193
756,43,63.9196,7.20319,-0.0112798,0.0126133,0.00139009,0.0126939,-0.0113604,1.51288,0.0138949,0.0239252,1980,981,63.9195,-7.20321
763,43,63.8367,7.48254,-0.013972,0.0174305,0.00423472,0.0179915,-0.014533,1.43908,0.0188134,0.0279477,1987,981,63.8367,-7.48253
770,43,63.719,7.81091,-0.0167076,0.0230094,0.00895091,0.0249335,-0.0186316,1.35906,0.0252399,0.021706,1994,981,63.719,-7.8109
777,43,63.7532,8.1048,-0.0196894,0.0288057,0.0158116,0.0335055,-0.0243892,1.28187,0.0335634,0.0251711,2001,981,63.7532,-8.1048
784,43,63.8408,8.48022,-0.0226227,0.0348062,0.0258926,0.0447563,-0.0325728,1.20391,0.0448303,0.0445278,2008,981,63.8407,-8.48022
791,43,63.5647,9.64056,-0.024745,0.0407191,0.040674,0.0601959,-0.0442217,1.12421,0.0605202,0.0478975,2015,981,63.5648,-9.64055
798,43,62.8152,9.96606,-0.0264568,0.0464534,0.0614173,0.0814201,-0.0614235,1.05324,0.0827397,0.0450249,2022,981,62.8152,-9.96608
805,43,62.189,9.95197,0,0,0,0,0,0,0,-1,2029,981,62.189,-9.95197
812,43,64.0103,9.45355,0,0,0,0,0,0,0,-1,2036,981,64.0102,-9.45353
-700,36,0,0,0,0,0,0,0,0,0,-1,524,988,0,0
-693,36,-48.7268,8.75562,0,0,0,0,0,0,0,-1,531,988,-48.7268,-8.7556
-686,36,-53.0108,3.00555,0,0,0,0,0,0,0,-1,538,988,-53.0108,-3.00556
-679,36,-51.6943,3.33417,0,0,0,0,0,0,0,-1,545,988,-51.6943,-3.33419
-672,36,-50.8374,3.63281,0.0112473,0.0022065,0.000980378,0.0113524,0.00210141,0.106785,0.00697416,0.0474243,552,988,-50.8374,-3.63282
-665,36,-50.0527,3.90314,0.00839521,0.00888507,0.0029543,0.0116046,0.0056757,0.826756,0.00670044,0.048115,559,988,-50.0527,-3.90312
-658,36,-48.3378,5.41058,0,0,0,0,0,0,0,-1,566,988,-48.3378,-5.41058
-651,36,-48.8474,5.30914,0.00160536,0.0157207,0.00507541,0.0173561,-3.01041e-05,1.25907,0.0115808,0.0408984,573,988,-48.8474,-5.30916
-644,36,-49.3389,5.24506,-0.00139311,0.0162635,0.00537638,0.0177717,-0.00290137,1.29729,0.012924,0.0281063,580,988,-49.3389,-5.24507
-637,36,-49.5052,5.06299,-0.00310068,0.0163046,0.00524139,0.0176298,-0.00442589,1.32315,0.0134731,0.0230945,587,988,-49.5052,-5.063
-630,36,-49.5059,4.9939,-0.00438971,0.0148384,0.00426224,0.0157408,-0.00529215,1.36215,0.012633,0.0172678,594,988,-49.5059,-4.99388
-623,36,-49.5482,4.82959,-0.00484861,0.0118547,0.00299781,0.0123764,-0.00537034,1.39848,0.0105089,0.0142821,601,988,-49.5481,-4.82961
-616,36,-49.5546,4.63525,-0.00509592,0.00907351,0.00120271,0.00917487,-0.00519728,1.48672,0.00840303,0.0113565,608,988,-49.5546,-4.63525
-609,36,-49.5035,4.45392,-0.00461927,0.00702536,-0.000570013,0.0070532,-0.0046471,-1.522,0.00680262,0.0158047,615,988,-49.5036,-4.45392
-602,36,-49.5557,4.19391,-0.00324674,0.0051843,-0.001904,0.00559434,-0.00365678,-1.35868,0.00538004,0.0215013,622,988,-49.5557,-4.19389
-595,36,-49.7714,3.93091,-0.00205485,0.00382567,-0.00291522,0.0050259,-0.00325508,-1.18024,0.00481732,0.0263673,629,988,-49.7714,-3.93092
-588,36,-49.7304,2.75549,0,0,0,0,0,0,0,-1,636,988,-49.7304,-2.75549
-581,36,-49.2642,1.22748,-0.000445424,0.00177449,-0.00438587,0.00518868,-0.00385961,-0.909334,0.00524278,0.0451373,643,988,-49.2641,-1.22747
-574,36,-49.1723,0.782837,-3.3426e-05,0.00147687,-0.00478037,0.00556137,-0.00411792,-0.863735,0.00560901,0.026825,650,988,-49.1723,-0.782813
-567,36,-49.1838,0.69281,-1.23822e-05,0.00147866,-0.00479271,0.00558349,-0.00411721,-0.862557,0.00562199,0.0340478,657,988,-49.1838,-0.692808
-560,36,-49.0476,0.710999,-0.000161077,0.0017542,-0.00446147,0.00535965,-0.00376653,-0.891117,0.00529569,0.0373952,664,988,-49.0476,-0.711004
-553,36,-48.9716,0.702942,-0.000478745,0.00218366,-0.00377999,0.00486,-0.00315509,-0.954702,0.00466228,0.0406766,671,988,-48.9716,-0.702957
-546,36,-49.1193,0.816284,-0.000916804,0.00253741,-0.00272898,0.00403989,-0.00241929,-1.06752,0.00376813,0.0437926,678,988,-49.1193,-0.816275
-539,36,-49.1792,0.914001,-0.00153579,0.00254315,-0.00139992,0.00297739,-0.00197002,-1.27002,0.00287606,0.04572,685,988,-49.1792,-0.914008
-532,36,-49.223,0.98645,0,0,0,0,0,0,0,-1,692,988,-49.2229,-0.986439
-525,36,-49.1117,0.540955,0,0,0,0,0,0,0,-1,699,988,-49.1117,-0.540942
-518,36,0,0,0,0,0,0,0,0,0,-1,706,988,0,0
-511,36,0,0,0,0,0,0,0,0,0,-1,713,988,0,0
-504,36,0,0,0,0,0,0,0,0,0,-1,720,988,0,0
-497,36,0,0,0,0,0,0,0,0,0,-1,727,988,0,0
-490,36,0,0,0,0,0,0,0,0,0,-1,734,988,0,0
-483,36,0,0,0,0,0,0,0,0,0,-1,741,988,0,0
-476,36,0,0,0,0,0,0,0,0,0,-1,748,988,0,0
-469,36,0,0,0,0,0,0,0,0,0,-1,755,988,0,0
-462,36,0,0,0,0,0,0,0,0,0,-1,762,988,0,0
-455,36,0,0,0,0,0,0,0,0,0,-1,769,988,0,0
-448,36,0,0,0,0,0,0,0,0,0,-1,776,988,0,0
-441,36,0,0,0,0,0,0,0,0,0,-1,783,988,0,0
-434,36,0,0,0,0,0,0,0,0,0,-1,790,988,0,0
-427,36,0,0,0,0,0,0,0,0,0,-1,797,988,0,0
-420,36,0,0,0,0,0,0,0,0,0,-1,804,988,0,0
-413,36,0,0,0,0,0,0,0,0,0,-1,811,988,0,0
-406,36,0,0,0,0,0,0,0,0,0,-1,818,988,0,0
-399,36,0,0,0,0,0,0,0,0,0,-1,825,988,0,0
-392,36,0,0,0,0,0,0,0,0,0,-1,832,988,0,0
-385,36,0,0,0,0,0,0,0,0,0,-1,839,988,0,0
-378,36,0,0,0,0,0,0,0,0,0,-1,846,988,0,0
-371,36,0,0,0,0,0,0,0,0,0,-1,853,988,0,0
-364,36,0,0,0,0,0,0,0,0,0,-1,860,988,0,0
-357,36,0,0,0,0,0,0,0,0,0,-1,867,988,0,0
-350,36,0,0,0,0,0,0,0,0,0,-1,874,988,0,0
-343,36,0,0,0,0,0,0,0,0,0,-1,881,988,0,0
-336,36,0,0,0,0,0,0,0,0,0,-1,888,988,0,0
-329,36,0,0,0,0,0,0,0,0,0,-1,895,988,0,0
-322,36,0,0,0,0,0,0,0,0,0,-1,902,988,0,0
-315,36,0,0,0,0,0,0,0,0,0,-1,909,988,0,0
-308,36,0,0,0,0,0,0,0,0,0,-1,916,988,0,0
-301,36,0,0,0,0,0,0,0,0,0,-1,923,988,0,0
-294,36,0,0,0,0,0,0,0,0,0,-1,930,988,0,0
-287,36,0,0,0,0,0,0,0,0,0,-1,937,988,0,0
-280,36,0,0,0,0,0,0,0,0,0,-1,944,988,0,0
-273,36,0,0,0,0,0,0,0,0,0,-1,951,988,0,0
-266,36,0,0,0,0,0,0,0,0,0,-1,958,988,0,0
-259,36,0,0,0,0,0,0,0,0,0,-1,965,988,0,0
-252,36,0,0,0,0,0,0,0,0,0,-1,972,988,0,0
-245,36,0,0,0,0,0,0,0,0,0,-1,979,988,0,0
-238,36,0,0,0,0,0,0,0,0,0,-1,986,988,0,0
-231,36,0,0,0,0,0,0,0,0,0,-1,993,988,0,0
-224,36,0,0,0,0,0,0,0,0,0,-1,1000,988,0,0
-217,36,0,0,0,0,0,0,0,0,0,-1,1007,988,0,0
-210,36,0,0,0,0,0,0,0,0,0,-1,1014,988,0,0
-203,36,0,0,0,0,0,0,0,0,0,-1,1021,988,0,0
-196,36,0,0,0,0,0,0,0,0,0,-1,1028,988,0,0
-189,36,0,0,0,0,0,0,0,0,0,-1,1035,988,0,0
-182,36,0,0,0,0,0,0,0,0,0,-1,1042,988,0,0
-175,36,0,0,0,0,0,0,0,0,0,-1,1049,988,0,0
-168,36,0,0,0,0,0,0,0,0,0,-1,1056,988,0,0
-161,36,0,0,0,0,0,0,0,0,0,-1,1063,988,0,0
-154,36,0,0,0,0,0,0,0,0,0,-1,1070,988,0,0
-147,36,0,0,0,0,0,0,0,0,0,-1,1077,988,0,0
-140,36,0,0,0,0,0,0,0,0,0,-1,1084,988,0,0
-133,36,0,0,0,0,0,0,0,0,0,-1,1091,988,0,0
-126,36,0,0,0,0,0,0,0,0,0,-1,1098,988,0,0
-119,36,0,0,0,0,0,0,0,0,0,-1,1105,988,0,0
-112,36,0,0,0,0,0,0,0,0,0,-1,1112,988,0,0
-105,36,0,0,0,0,0,0,0,0,0,-1,1119,988,0,0
-98,36,0,0,0,0,0,0,0,0,0,-1,1126,988,0,0
-91,36,0,0,0,0,0,0,0,0,0,-1,1133,988,0,0
-84,36,0,0,0,0,0,0,0,0,0,-1,1140,988,0,0
-77,36,0,0,0,0,0,0,0,0,0,-1,1147,988,0,0
-70,36,0,0,0,0,0,0,0,0,0,-1,1154,988,0,0
-63,36,0,0,0,0,0,0,0,0,0,-1,1161,988,0,0
-56,36,0,0,0,0,0,0,0,0,0,-1,1168,988,0,0
-49,36,0,0,0,0,0,0,0,0,0,-1,1175,988,0,0
-42,36,0,0,0,0,0,0,0,0,0,-1,1182,988,0,0
-35,36,0,0,0,0,0,0,0,0,0,-1,1189,988,0,0
-28,36,0,0,0,0,0,0,0,0,0,-1,1196,988,0,0
-21,36,0,0,0,0,0,0,0,0,0,-1,1203,988,0,0
-14,36,0,0,0,0,0,0,0,0,0,-1,1210,988,0,0
-7,36,0,0,0,0,0,0,0,0,0,-1,1217,988,0,0
0,36,0,0,0,0,0,0,0,0,0,-1,1224,988,0,0
7,36,0,0,0,0,0,0,0,0,0,-1,1231,988,0,0
14,36,0,0,0,0,0,0,0,0,0,-1,1238,988,0,0
21,36,0,0,0,0,0,0,0,0,0,-1,1245,988,0,0
28,36,0,0,0,0,0,0,0,0,0,-1,1252,988,0,0
35,36,0,0,0,0,0,0,0,0,0,-1,1259,988,0,0
42,36,0,0,0,0,0,0,0,0,0,-1,1266,988,0,0
49,36,0,0,0,0,0,0,0,0,0,-1,1273,988,0,0
56,36,0,0,0,0,0,0,0,0,0,-1,1280,988,0,0
63,36,0,0,0,0,0,0,0,0,0,-1,1287,988,0,0
70,36,0,0,0,0,0,0,0,0,0,-1,1294,988,0,0
77,36,0,0,0,0,0,0,0,0,0,-1,1301,988,0,0
84,36,0,0,0,0,0,0,0,0,0,-1,1308,988,0,0
91,36,0,0,0,0,0,0,0,0,0,-1,1315,988,0,0
98,36,0,0,0,0,0,0,0,0,0,-1,1322,988,0,0
105,36,0,0,0,0,0,0,0,0,0,-1,1329,988,0,0
112,36,0,0,0,0,0,0,0,0,0,-1,1336,988,0,0
119,36,0,0,0,0,0,0,0,0,0,-1,1343,988,0,0
126,36,0,0,0,0,0,0,0,0,0,-1,1350,988,0,0
133,36,0,0,0,0,0,0,0,0,0,-1,1357,988,0,0
140,36,0,0,0,0,0,0,0,0,0,-1,1364,988,0,0
147,36,0,0,0,0,0,0,0,0,0,-1,1371,988,0,0
154,36,0,0,0,0,0,0,0,0,0,-1,1378,988,0,0
161,36,0,0,0,0,0,0,0,0,0,-1,1385,988,0,0
168,36,0,0,0,0,0,0,0,0,0,-1,1392,988,0,0
175,36,0,0,0,0,0,0,0,0,0,-1,1399,988,0,0
182,36,0,0,0,0,0,0,0,0,0,-1,1406,988,0,0
189,36,0,0,0,0,0,0,0,0,0,-1,1413,988,0,0
196,36,0,0,0,0,0,0,0,0,0,-1,1420,988,0,0
203,36,0,0,0,0,0,0,0,0,0,-1,1427,988,0,0
210,36,0,0,0,0,0,0,0,0,0,-1,1434,988,0,0
217,36,0,0,0,0,0,0,0,0,0,-1,1441,988,0,0
224,36,0,0,0,0,0,0,0,0,0,-1,1448,988,0,0
231,36,0,0,0,0,0,0,0,0,0,-1,1455,988,0,0
238,36,0,0,0,0,0,0,0,0,0,-1,1462,988,0,0
245,36,0,0,0,0,0,0,0,0,0,-1,1469,988,0,0
252,36,0,0,0,0,0,0,0,0,0,-1,1476,988,0,0
259,36,0,0,0,0,0,0,0,0,0,-1,1483,988,0,0
266,36,0,0,0,0,0,0,0,0,0,-1,1490,988,0,0
273,36,0,0,0,0,0,0,0,0,0,-1,1497,988,0,0
280,36,0,0,0,0,0,0,0,0,0,-1,1504,988,0,0
287,36,0,0,0,0,0,0,0,0,0,-1,1511,988,0,0
294,36,0,0,0,0,0,0,0,0,0,-1,1518,988,0,0
301,36,0,0,0,0,0,0,0,0,0,-1,1525,988,0,0
308,36,0,0,0,0,0,0,0,0,0,-1,1532,988,0,0
315,36,0,0,0,0,0,0,0,0,0,-1,1539,988,0,0
322,36,0,0,0,0,0,0,0,0,0,-1,1546,988,0,0
329,36,0,0,0,0,0,0,0,0,0,-1,1553,988,0,0
336,36,0,0,0,0,0,0,0,0,0,-1,1560,988,0,0
343,36,0,0,0,0,0,0,0,0,0,-1,1567,988,0,0
350,36,0,0,0,0,0,0,0,0,0,-1,1574,988,0,0
357,36,0,0,0,0,0,0,0,0,0,-1,1581,988,0,0
364,36,0,0,0,0,0,0,0,0,0,-1,1588,988,0,0
371,36,0,0,0,0,0,0,0,0,0,-1,1595,988,0,0
378,36,0,0,0,0,0,0,0,0,0,-1,1602,988,0,0
385,36,0,0,0,0,0,0,0,0,0,-1,1609,988,0,0
392,36,0,0,0,0,0,0,0,0,0,-1,1616,988,0,0
399,36,0,0,0,0,0,0,0,0,0,-1,1623,988,0,0
406,36,0,0,0,0,0,0,0,0,0,-1,1630,988,0,0
413,36,0,0,0,0,0,0,0,0,0,-1,1637,988,0,0
420,36,0,0,0,0,0,0,0,0,0,-1,1644,988,0,0
427,36,0,0,0,0,0,0,0,0,0,-1,1651,988,0,0
434,36,0,0,0,0,0,0,0,0,0,-1,1658,988,0,0
441,36,0,0,0,0,0,0,0,0,0,-1,1665,988,0,0
448,36,0,0,0,0,0,0,0,0,0,-1,1672,988,0,0
455,36,0,0,0,0,0,0,0,0,0,-1,1679,988,0,0
462,36,0,0,0,0,0,0,0,0,0,-1,1686,988,0,0
469,36,0,0,0,0,0,0,0,0,0,-1,1693,988,0,0
476,36,0,0,0,0,0,0,0,0,0,-1,1700,988,0,0
483,36,0,0,0,0,0,0,0,0,0,-1,1707,988,0,0
490,36,0,0,0,0,0,0,0,0,0,-1,1714,988,0,0
497,36,0,0,0,0,0,0,0,0,0,-1,1721,988,0,0
504,36,0,0,0,0,0,0,0,0,0,-1,1728,988,0,0
511,36,0,0,0,0,0,0,0,0,0,-1,1735,988,0,0
518,36,0,0,0,0,0,0,0,0,0,-1,1742,988,0,0
525,36,0,0,0,0,0,0,0,0,0,-1,1749,988,0,0
532,36,0,0,0,0,0,0,0,0,0,-1,1756,988,0,0
539,36,0,0,0,0,0,0,0,0,0,-1,1763,988,0,0
546,36,0,0,0,0,0,0,0,0,0,-1,1770,988,0,0
553,36,0,0,0,0,0,0,0,0,0,-1,1777,988,0,0
560,36,0,0,0,0,0,0,0,0,0,-1,1784,988,0,0
567,36,0,0,0,0,0,0,0,0,0,-1,1791,988,0,0
574,36,0,0,0,0,0,0,0,0,0,-1,1798,988,0,0
581,36,0,0,0,0,0,0,0,0,0,-1,1805,988,0,0
588,36,0,0,0,0,0,0,0,0,0,-1,1812,988,0,0
595,36,0,0,0,0,0,0,0,0,0,-1,1819,988,0,0
602,36,0,0,0,0,0,0,0,0,0,-1,1826,988,0,0
609,36,0,0,0,0,0,0,0,0,0,-1,1833,988,0,0
616,36,0,0,0,0,0,0,0,0,0,-1,1840,988,0,0
623,36,0,0,0,0,0,0,0,0,0,-1,1847,988,0,0
630,36,0,0,0,0,0,0,0,0,0,-1,1854,988,0,0
637,36,0,0,0,0,0,0,0,0,0,-1,1861,988,0,0
644,36,64.9044,2.52094,-8.97799e-05,-0.00209977,0.00193056,0.00108171,-0.00327126,0.545414,0.00261702,0.0427906,1868,988,64.9044,-2.52095
651,36,64.7878,2.68738,-0.000443091,-0.00166221,0.000591491,-0.000203284,-0.00190202,0.385177,0.00120598,0.0419952,1875,988,64.7878,-2.68738
658,36,64.8964,2.68024,-0.00054862,-0.00124144,-1.08855e-05,-0.000548449,-0.00124161,-0.0157068,0.000718463,0.0400766,1882,988,64.8963,-2.68021
665,36,64.9573,2.80365,-0.000459763,-0.000786471,-0.000331058,-0.00025395,-0.000992284,-0.556209,0.000595213,0.0400142,1889,988,64.9573,-2.80362
672,36,64.8514,2.74823,-0.000417925,-0.000335999,-0.000384938,1.01494e-05,-0.000764073,-0.838406,0.000512799,0.0394646,1896,988,64.8514,-2.74824
679,36,64.8634,2.83026,-0.00038403,-6.66407e-05,-0.000230116,5.41953e-05,-0.000504866,-1.08726,0.00035602,0.0402482,1903,988,64.8634,-2.83023
686,36,64.8506,2.70306,-0.000226654,-0.000133305,-6.71013e-05,-9.82414e-05,-0.000261718,-1.08928,0.000152659,0.0367174,1910,988,64.8506,-2.70306
693,36,64.8197,2.57806,-0.00018156,-0.00032401,8.19172e-06,-0.00018109,-0.00032448,0.0572541,0.00018776,0.036501,1917,988,64.8197,-2.57807
700,36,64.7867,2.61914,-0.000345592,-0.000367532,-6.73799e-05,-0.000288295,-0.000424829,-0.704701,0.000250437,0.0358201,1924,988,64.7867,-2.61917
707,36,64.9109,2.58966,-0.000831415,-8.30099e-06,-0.000265539,6.99277e-05,-0.000909643,-1.2843,0.000631031,0.0273821,1931,988,64.9108,-2.58968
714,36,64.913,2.4801,0,0,0,0,0,0,0,-1,1938,988,64.9129,-2.48011
721,36,64.2751,5.60901,0,0,0,0,0,0,0,-1,1945,988,64.2751,-5.60902
728,36,64.2694,6.00555,-0.00404359,0.00337164,-0.0006639,0.00343061,-0.00410256,-1.4822,0.00435504,0.0215248,1952,988,64.2694,-6.00556
735,36,64.3015,6.37854,-0.00519837,0.00495035,-0.000699443,0.00499833,-0.00524635,-1.50231,0.00591535,0.0198014,1959,988,64.3016,-6.37853
742,36,64.255,6.59467,-0.00688962,0.00665397,-0.000489446,0.00667164,-0.00690728,-1.53472,0.00784019,0.0158298,1966,988,64.255,-6.59469
749,36,64.2367,6.90002,-0.00887228,0.0093279,0.00010615,0.00932852,-0.00887289,1.56496,0.0105097,0.0168789,1973,988,64.2367,-6.90004
756,36,64.2006,7.18665,-0.0112874,0.0128913,0.00114259,0.0129452,-0.0113413,1.52368,0.014032,0.0180172,1980,988,64.2006,-7.18664
763,36,64.0845,7.39508,-0.0140097,0.0176583,0.00365185,0.018074,-0.0144253,1.45746,0.0188029,0.0221316,1987,988,64.0845,-7.3951
770,36,64.0071,7.64154,-0.0167776,0.0233548,0.00803707,0.0249045,-0.0183273,1.38032,0.025056,0.0170475,1994,988,64.007,-7.64152
777,36,63.9734,7.95306,-0.0194991,0.0292506,0.0144988,0.0332368,-0.0234852,1.30249,0.0329094,0.0251969,2001,988,63.9734,-7.95306
784,36,63.5884,8.42334,-0.0217145,0.0352015,0.023891,0.0439004,-0.0304135,1.22161,0.0431401,0.0472495,2008,988,63.5884,-8.42334
791,36,62.9116,8.8927,-0.0225888,0.0408323,0.0377377,0.0584136,-0.0401702,1.13481,0.0572413,0.0447727,2015,988,62.9115,-8.89273
798,36,62.3716,9.28668,0,0,0,0,0,0,0,-1,2022,988,62.3716,-9.28667
805,36,63.9092,8.8515,0,0,0,0,0,0,0,-1,2029,988,63.9092,-8.85153
812,36,62.4502,-0.871338,0,0,0,0,0,0,0,-1,2036,988,62.4503,0.871334
-700,29,0,0,0,0,0,0,0,0,0,-1,524,995,0,0
-693,29,-53.2645,2.8103,0,0,0,0,0,0,0,-1,531,995,-53.2645,-2.81029
-686,29,-52.4716,3.11279,0,0,0,0,0,0,0,-1,538,995,-52.4716,-3.11277
-679,29,-51.4363,3.30267,0,0,0,0,0,0,0,-1,545,995,-51.4363,-3.3027
-672,29,-50.6174,3.59534,0.0128696,-0.0110102,0.00499889,0.0138738,-0.0120144,0.198249,0.0149594,0.04177,552,995,-50.6174,-3.59535
-665,29,-49.8247,3.88263,0.0100467,-0.00178428,0.00575415,0.0123836,-0.00412126,0.385788,0.00991913,0.0448554,559,995,-49.8247,-3.88263
-658,29,-48.9308,4.30646,0,0,0,0,0,0,0,-1,566,995,-48.9308,-4.30644
-651,29,-49.0529,4.89777,0,0,0,0,0,0,0,-1,573,995,-49.0529,-4.89779
-644,29,-49.5005,4.77454,-5.44467e-05,0.0116776,0.00587504,0.0141138,-0.00249061,1.17771,0.0103399,0.0458678,580,995,-49.5006,-4.77454
-637,29,-49.728,4.88873,-0.00203983,0.0132641,0.00523535,0.0148837,-0.00365941,1.27078,0.0113408,0.0277524,587,995,-49.728,-4.88871
-630,29,-49.7307,4.87451,-0.00360245,0.0130751,0.00398205,0.0139771,-0.00450445,1.34804,0.0111277,0.015245,594,995,-49.7307,-4.87454
-623,29,-49.7307,4.78729,-0.0043164,0.0109746,0.00263684,0.0114166,-0.00475834,1.40474,0.0095987,0.0144687,601,995,-49.7307,-4.78729
-616,29,-49.7881,4.6181,-0.00466135,0.00841592,0.000925388,0.00848108,-0.00472651,1.5005,0.00772743,0.0162777,608,995,-49.7882,-4.61811
-609,29,-49.7602,4.5274,-0.00426306,0.00656822,-0.000690333,0.00661204,-0.00430688,-1.5074,0.0063507,0.0234074,615,995,-49.7602,-4.52742
-602,29,-49.8718,4.35925,-0.00298697,0.00479671,-0.00185555,0.00521642,-0.00340668,-1.34835,0.00501496,0.025166,622,995,-49.8718,-4.35926
-595,29,-50.0849,4.0799,-0.00188458,0.0033836,-0.00274167,0.00455151,-0.00305249,-1.16809,0.00441852,0.0278375,629,995,-50.0849,-4.07991
-588,29,-50.2714,3.77686,0,0,0,0,0,0,0,-1,636,995,-50.2715,-3.77687
-581,29,-49.2169,1.3432,0,0,0,0,0,0,0,-1,643,995,-49.2169,-1.34321
-574,29,-49.1614,0.806091,8.52649e-05,0.000928113,-0.00422744,0.00475508,-0.00374171,-0.835078,0.00491724,0.0312596,650,995,-49.1614,-0.806107
-567,29,-49.1753,0.67511,4.90823e-05,0.00092223,-0.00412473,0.00463342,-0.00366211,-0.838123,0.00480036,0.0309692,657,995,-49.1753,-0.675105
-560,29,-49.1149,0.509277,-0.000221808,0.00120013,-0.00366855,0.00422597,-0.00324765,-0.881112,0.0043272,0.0358723,664,995,-49.1149,-0.509257
-553,29,-49.0171,0.512634,-0.000760571,0.00162333,-0.00285215,0.00352258,-0.00265982,-0.983325,0.00358097,0.0397145,671,995,-49.0171,-0.512627
-546,29,-49.0462,0.811157,-0.00153813,0.00193082,-0.00164716,0.00258832,-0.00219562,-1.19101,0.00276511,0.0424798,678,995,-49.0462,-0.811148
-539,29,-49.2089,0.916809,-0.00264411,0.00187114,-0.000184347,0.00187865,-0.00265162,-1.53006,0.00262821,0.0435127,685,995,-49.2088,-0.916822
-532,29,-49.1649,0.905762,-0.00315855,0.00236584,0.000463589,0.00240447,-0.00319719,1.48765,0.00324489,0.0453396,692,995,-49.1648,-0.905783
-525,29,-49.182,0.772461,0,0,0,0,0,0,0,-1,699,995,-49.182,-0.772452
-518,29,0,0,0,0,0,0,0,0,0,-1,706,995,0,0
-511,29,0,0,0,0,0,0,0,0,0,-1,713,995,0,0
-504,29,0,0,0,0,0,0,0,0,0,-1,720,995,0,0
-497,29,0,0,0,0,0,0,0,0,0,-1,727,995,0,0
-490,29,0,0,0,0,0,0,0,0,0,-1,734,995,0,0
-483,29,0,0,0,0,0,0,0,0,0,-1,741,995,0,0
-476,29,0,0,0,0,0,0,0,0,0,-1,748,995,0,0
-469,29,0,0,0,0,0,0,0,0,0,-1,755,995,0,0
-462,29,0,0,0,0,0,0,0,0,0,-1,762,995,0,0
-455,29,0,0,0,0,0,0,0,0,0,-1,769,995,0,0
-448,29,0,0,0,0,0,0,0,0,0,-1,776,995,0,0
-441,29,0,0,0,0,0,0,0,0,0,-1,783,995,0,0
-434,29,0,0,0,0,0,0,0,0,0,-1,790,995,0,0
-427,29,0,0,0,0,0,0,0,0,0,-1,797,995,0,0
-420,29,0,0,0,0,0,0,0,0,0,-1,804,995,0,0
-413,29,0,0,0,0,0,0,0,0,0,-1,811,995,0,0
-406,29,0,0,0,0,0,0,0,0,0,-1,818,995,0,0
-399,29,0,0,0,0,0,0,0,0,0,-1,825,995,0,0
-392,29,0,0,0,0,0,0,0,0,0,-1,832,995,0,0
-385,29,0,0,0,0,0,0,0,0,0,-1,839,995,0,0
-378,29,0,0,0,0,0,0,0,0,0,-1,846,995,0,0
-371,29,0,0,0,0,0,0,0,0,0,-1,853,995,0,0
-364,29,0,0,0,0,0,0,0,0,0,-1,860,995,0,0
-357,29,0,0,0,0,0,0,0,0,0,-1,867,995,0,0
-350,29,0,0,0,0,0,0,0,0,0,-1,874,995,0,0
-343,29,0,0,0,0,0,0,0,0,0,-1,881,995,0,0
-336,29,0,0,0,0,0,0,0,0,0,-1,888,995,0,0
-329,29,0,0,0,0,0,0,0,0,0,-1,895,995,0,0
-322,29,0,0,0,0,0,0,0,0,0,-1,902,995,0,0
-315,29,0,0,0,0,0,0,0,0,0,-1,909,995,0,0
-308,29,0,0,0,0,0,0,0,0,0,-1,916,995,0,0
-301,29,0,0,0,0,0,0,0,0,0,-1,923,995,0,0
-294,29,0,0,0,0,0,0,0,0,0,-1,930,995,0,0
-287,29,0,0,0,0,0,0,0,0,0,-1,937,995,0,0
-280,29,0,0,0,0,0,0,0,0,0,-1,944,995,0,0
-273,29,0,0,0,0,0,0,0,0,0,-1,951,995,0,0
-266,29,0,0,0,0,0,0,0,0,0,-1,958,995,0,0
-259,29,0,0,0,0,0,0,0,0,0,-1,965,995,0,0
-252,29,0,0,0,0,0,0,0,0,0,-1,972,995,0,0
-245,29,0,0,0,0,0,0,0,0,0,-1,979,995,0,0
-238,29,0,0,0,0,0,0,0,0,0,-1,986,995,0,0
-231,29,0,0,0,0,0,0,0,0,0,-1,993,995,0,0
-224,29,0,0,0,0,0,0,0,0,0,-1,1000,995,0,0
-217,29,0,0,0,0,0,0,0,0,0,-1,1007,995,0,0
-210,29,0,0,0,0,0,0,0,0,0,-1,1014,995,0,0
-203,29,0,0,0,0,0,0,0,0,0,-1,1021,995,0,0
-196,29,0,0,0,0,0,0,0,0,0,-1,1028,995,0,0
-189,29,0,0,0,0,0,0,0,0,0,-1,1035,995,0,0
-182,29,0,0,0,0,0,0,0,0,0,-1,1042,995,0,0
-175,29,0,0,0,0,0,0,0,0,0,-1,1049,995,0,0
-168,29,0,0,0,0,0,0,0,0,0,-1,1056,995,0,0
-161,29,0,0,0,0,0,0,0,0,0,-1,1063,995,0,0
-154,29,0,0,0,0,0,0,0,0,0,-1,1070,995,0,0
-147,29,0,0,0,0,0,0,0,0,0,-1,1077,995,0,0
-140,29,0,0,0,0,0,0,0,0,0,-1,1084,995,0,0
-133,29,0,0,0,0,0,0,0,0,0,-1,1091,995,0,0
-126,29,0,0,0,0,0,0,0,0,0,-1,1098,995,0,0
-119,29,0,0,0,0,0,0,0,0,0,-1,1105,995,0,0
-112,29,0,0,0,0,0,0,0,0,0,-1,1112,995,0,0
-105,29,0,0,0,0,0,0,0,0,0,-1,1119,995,0,0
-98,29,0,0,0,0,0,0,0,0,0,-1,1126,995,0,0
-91,29,0,0,0,0,0,0,0,0,0,-1,1133,995,0,0
-84,29,0,0,0,0,0,0,0,0,0,-1,1140,995,0,0
-77,29,0,0,0,0,0,0,0,0,0,-1,1147,995,0,0
-70,29,0,0,0,0,0,0,0,0,0,-1,1154,995,0,0
-63,29,0,0,0,0,0,0,0,0,0,-1,1161,995,0,0
-56,29,0,0,0,0,0,0,0,0,0,-1,1168,995,0,0
-49,29,0,0,0,0,0,0,0,0,0,-1,1175,995,0,0
-42,29,0,0,0,0,0,0,0,0,0,-1,1182,995,0,0
-35,29,0,0,0,0,0,0,0,0,0,-1,1189,995,0,0
-28,29,0,0,0,0,0,0,0,0,0,-1,1196,995,0,0
-21,29,0,0,0,0,0,0,0,0,0,-1,1203,995,0,0
-14,29,0,0,0,0,0,0,0,0,0,-1,1210,995,0,0
-7,29,0,0,0,0,0,0,0,0,0,-1,1217,995,0,0
0,29,0,0,0,0,0,0,0,0,0,-1,1224,995,0,0
7,29,0,0,0,0,0,0,0,0,0,-1,1231,995,0,0
14,29,0,0,0,0,0,0,0,0,0,-1,1238,995,0,0
21,29,0,0,0,0,0,0,0,0,0,-1,1245,995,0,0
28,29,0,0,0,0,0,0,0,0,0,-1,1252,995,0,0
35,29,0,0,0,0,0,0,0,0,0,-1,1259,995,0,0
42,29,0,0,0,0,0,0,0,0,0,-1,1266,995,0,0
49,29,0,0,0,0,0,0,0,0,0,-1,1273,995,0,0
56,29,0,0,0,0,0,0,0,0,0,-1,1280,995,0,0
63,29,0,0,0,0,0,0,0,0,0,-1,1287,995,0,0
70,29,0,0,0,0,0,0,0,0,0,-1,1294,995,0,0
77,29,0,0,0,0,0,0,0,0,0,-1,1301,995,0,0
84,29,0,0,0,0,0,0,0,0,0,-1,1308,995,0,0
91,29,0,0,0,0,0,0,0,0,0,-1,1315,995,0,0
98,29,0,0,0,0,0,0,0,0,0,-1,1322,995,0,0
105,29,0,0,0,0,0,0,0,0,0,-1,1329,995,0,0
112,29,0,0,0,0,0,0,0,0,0,-1,1336,995,0,0
119,29,0,0,0,0,0,0,0,0,0,-1,1343,995,0,0
126,29,0,0,0,0,0,0,0,0,0,-1,1350,995,0,0
133,29,0,0,0,0,0,0,0,0,0,-1,1357,995,0,0
140,29,0,0,0,0,0,0,0,0,0,-1,1364,995,0,0
147,29,0,0,0,0,0,0,0,0,0,-1,1371,995,0,0
154,29,0,0,0,0,0,0,0,0,0,-1,1378,995,0,0
161,29,0,0,0,0,0,0,0,0,0,-1,1385,995,0,0
168,29,0,0,0,0,0,0,0,0,0,-1,1392,995,0,0
175,29,0,0,0,0,0,0,0,0,0,-1,1399,995,0,0
182,29,0,0,0,0,0,0,0,0,0,-1,1406,995,0,0
189,29,0,0,0,0,0,0,0,0,0,-1,1413,995,0,0
196,29,0,0,0,0,0,0,0,0,0,-1,1420,995,0,0
203,29,0,0,0,0,0,0,0,0,0,-1,1427,995,0,0
210,29,0,0,0,0,0,0,0,0,0,-1,1434,995,0,0
217,29,0,0,0,0,0,0,0,0,0,-1,1441,995,0,0
224,29,0,0,0,0,0,0,0,0,0,-1,1448,995,0,0
231,29,0,0,0,0,0,0,0,0,0,-1,1455,995,0,0
238,29,0,0,0,0,0,0,0,0,0,-1,1462,995,0,0
245,29,0,0,0,0,0,0,0,0,0,-1,1469,995,0,0
252,29,0,0,0,0,0,0,0,0,0,-1,1476,995,0,0
259,29,0,0,0,0,0,0,0,0,0,-1,1483,995,0,0
266,29,0,0,0,0,0,0,0,0,0,-1,1490,995,0,0
273,29,0,0,0,0,0,0,0,0,0,-1,1497,995,0,0
280,29,0,0,0,0,0,0,0,0,0,-1,1504,995,0,0
287,29,0,0,0,0,0,0,0,0,0,-1,1511,995,0,0
294,29,0,0,0,0,0,0,0,0,0,-1,1518,995,0,0
301,29,0,0,0,0,0,0,0,0,0,-1,1525,995,0,0
308,29,0,0,0,0,0,0,0,0,0,-1,1532,995,0,0
315,29,0,0,0,0,0,0,0,0,0,-1,1539,995,0,0
322,29,0,0,0,0,0,0,0,0,0,-1,1546,995,0,0
329,29,0,0,0,0,0,0,0,0,0,-1,1553,995,0,0
336,29,0,0,0,0,0,0,0,0,0,-1,1560,995,0,0
343,29,0,0,0,0,0,0,0,0,0,-1,1567,995,0,0
350,29,0,0,0,0,0,0,0,0,0,-1,1574,995,0,0
357,29,0,0,0,0,0,0,0,0,0,-1,1581,995,0,0
364,29,0,0,0,0,0,0,0,0,0,-1,1588,995,0,0
371,29,0,0,0,0,0,0,0,0,0,-1,1595,995,0,0
378,29,0,0,0,0,0,0,0,0,0,-1,1602,995,0,0
385,29,0,0,0,0,0,0,0,0,0,-1,1609,995,0,0
392,29,0,0,0,0,0,0,0,0,0,-1,1616,995,0,0
399,29,0,0,0,0,0,0,0,0,0,-1,1623,995,0,0
406,29,0,0,0,0,0,0,0,0,0,-1,1630,995,0,0
413,29,0,0,0,0,0,0,0,0,0,-1,1637,995,0,0
420,29,0,0,0,0,0,0,0,0,0,-1,1644,995,0,0
427,29,0,0,0,0,0,0,0,0,0,-1,1651,995,0,0
434,29,0,0,0,0,0,0,0,0,0,-1,1658,995,0,0
441,29,0,0,0,0,0,0,0,0,0,-1,1665,995,0,0
448,29,0,0,0,0,0,0,0,0,0,-1,1672,995,0,0
455,29,0,0,0,0,0,0,0,0,0,-1,1679,995,0,0
462,29,0,0,0,0,0,0,0,0,0,-1,1686,995,0,0
469,29,0,0,0,0,0,0,0,0,0,-1,1693,995,0,0
476,29,0,0,0,0,0,0,0,0,0,-1,1700,995,0,0
483,29,0,0,0,0,0,0,0,0,0,-1,1707,995,0,0
490,29,0,0,0,0,0,0,0,0,0,-1,1714,995,0,0
497,29,0,0,0,0,0,0,0,0,0,-1,1721,995,0,0
504,29,0,0,0,0,0,0,0,0,0,-1,1728,995,0,0
511,29,0,0,0,0,0,0,0,0,0,-1,1735,995,0,0
518,29,0,0,0,0,0,0,0,0,0,-1,1742,995,0,0
525,29,0,0,0,0,0,0,0,0,0,-1,1749,995,0,0
532,29,0,0,0,0,0,0,0,0,0,-1,1756,995,0,0
539,29,0,0,0,0,0,0,0,0,0,-1,1763,995,0,0
546,29,0,0,0,0,0,0,0,0,0,-1,1770,995,0,0
553,29,0,0,0,0,0,0,0,0,0,-1,1777,995,0,0
560,29,0,0,0,0,0,0,0,0,0,-1,1784,995,0,0
567,29,0,0,0,0,0,0,0,0,0,-1,1791,995,0,0
574,29,0,0,0,0,0,0,0,0,0,-1,1798,995,0,0
581,29,0,0,0,0,0,0,0,0,0,-1,1805,995,0,0
588,29,0,0,0,0,0,0,0,0,0,-1,1812,995,0,0
595,29,0,0,0,0,0,0,0,0,0,-1,1819,995,0,0
602,29,0,0,0,0,0,0,0,0,0,-1,1826,995,0,0
609,29,0,0,0,0,0,0,0,0,0,-1,1833,995,0,0
616,29,0,0,0,0,0,0,0,0,0,-1,1840,995,0,0
623,29,0,0,0,0,0,0,0,0,0,-1,1847,995,0,0
630,29,0,0,0,0,0,0,0,0,0,-1,1854,995,0,0
637,29,0,0,0,0,0,0,0,0,0,-1,1861,995,0,0
644,29,64.7715,2.70398,-0.00105642,-0.00147423,0.00176086,0.000507886,-0.00303853,0.726355,0.00221448,0.0420126,1868,995,64.7714,-2.70401
651,29,64.8145,2.82452,-0.00120724,-0.00114147,0.000348605,-0.000824202,-0.00152451,0.83243,0.000881143,0.0427516,1875,995,64.8145,-2.82454
658,29,64.9141,3.11371,-0.00114792,-0.000811627,-0.000290597,-0.000644037,-0.00131551,-1.04768,0.000759568,0.04446,1882,995,64.9141,-3.11369
665,29,64.8796,3.12329,-0.00092047,-0.000447553,-0.000623743,-1.69522e-05,-0.00135107,-0.966576,0.000895117,0.0428277,1889,995,64.8797,-3.1233
672,29,64.8243,2.93146,-0.000716669,-7.11167e-05,-0.000686795,0.000364969,-0.00115275,-1.00507,0.000914759,0.0401272,1896,995,64.8243,-2.93145
679,29,64.8031,2.71759,-0.000519802,0.0001861,-0.000526671,0.00046715,-0.000800851,-1.08061,0.000740483,0.039041,1903,995,64.8031,-2.71761
686,29,64.8336,2.51727,-0.000306047,0.000110009,-0.000325466,0.000288251,-0.000484288,-1.06976,0.000450787,0.036368,1910,995,64.8336,-2.5173
693,29,64.8524,2.60406,-0.000204885,-0.000107517,-0.000166164,1.69482e-05,-0.00032935,-0.927905,0.000225429,0.0377424,1917,995,64.8525,-2.60409
700,29,64.8073,2.64008,-0.000278232,-0.000194925,-0.000152951,-7.80568e-05,-0.0003951,-0.918341,0.000241621,0.0350591,1924,995,64.8073,-2.64009
707,29,64.8623,2.61035,-0.000743289,0.000148657,-0.000287618,0.000233359,-0.000827991,-1.2844,0.000644031,0.0238284,1931,995,64.8623,-2.61034
714,29,64.8864,2.43927,0,0,0,0,0,0,0,-1,1938,995,64.8864,-2.4393
721,29,63.7448,5.7829,0,0,0,0,0,0,0,-1,1945,995,63.7447,-5.78291
728,29,64.4399,6.07611,0,0,0,0,0,0,0,-1,1952,995,64.44,-6.07609
735,29,64.5276,6.44745,-0.00533433,0.00520663,-0.000527999,0.00523301,-0.00536071,-1.52087,0.00611644,0.0168261,1959,995,64.5276,-6.44747
742,29,64.5027,6.64655,-0.00695051,0.006841,-0.000313932,0.00684815,-0.00695765,-1.54805,0.00797086,0.0134485,1966,995,64.5027,-6.64652
749,29,64.4788,6.88434,-0.00873538,0.00935826,0.000168624,0.00935983,-0.00873695,1.56148,0.0104502,0.0145213,1973,995,64.4787,-6.88434
756,29,64.4495,7.12201,-0.0109451,0.0127117,0.00101915,0.0127555,-0.010989,1.52782,0.0137215,0.0146482,1980,995,64.4494,-7.12201
763,29,64.3918,7.26447,-0.0133292,0.0171857,0.00316508,0.0175105,-0.013654,1.46852,0.0180387,0.0138983,1987,995,64.3919,-7.26448
770,29,64.2627,7.40771,-0.015615,0.0226467,0.00710604,0.0239238,-0.0168921,1.39297,0.0236814,0.0177481,1994,995,64.2627,-7.40773
777,29,64.0977,7.66779,-0.0175698,0.0282553,0.0129788,0.031676,-0.0209904,1.3131,0.0306149,0.0293457,2001,995,64.0978,-7.6678
784,29,63.906,7.96521,-0.0186018,0.0336833,0.0213537,0.0412959,-0.0262144,1.22834,0.0393,0.0482543,2008,995,63.906,-7.96521
791,29,63.7134,8.23126,0,0,0,0,0,0,0,-1,2015,995,63.7133,-8.23124
798,29,63.3755,7.92877,0,0,0,0,0,0,0,-1,2022,995,63.3754,-7.92876
805,29,63.1663,0.00994873,0,0,0,0,0,0,0,-1,2029,995,63.1664,-0.00993109
812,29,62.6055,-0.592224,0,0,0,0,0,0,0,-1,2036,995,62.6055,0.592229
-700,22,0,0,0,0,0,0,0,0,0,-1,524,1002,0,0
-693,22,-43.5366,1.10907,0,0,0,0,0,0,0,-1,531,1002,-43.5365,-1.10907
-686,22,-51.9325,3.21997,0,0,0,0,0,0,0,-1,538,1002,-51.9325,-3.21998
-679,22,-51.0613,2.91797,0,0,0,0,0,0,0,-1,545,1002,-51.0613,-2.91795
-672,22,-50.4337,3.46283,0.0145464,-0.023753,0.010195,0.0170911,-0.0262977,0.244609,0.0252378,0.0458904,552,1002,-50.4337,-3.46285
-665,22,-49.823,4.02032,0.0118543,-0.0118474,0.00965088,0.0152868,-0.0152799,0.341719,0.0176477,0.0472129,559,1002,-49.823,-4.02033
-658,22,-48.8748,3.79572,0,0,0,0,0,0,0,-1,566,1002,-48.8748,-3.7957
-651,22,-48.9818,4.1394,0,0,0,0,0,0,0,-1,573,1002,-48.9817,-4.13943
-644,22,-49.5554,4.47351,0.00146322,0.0078803,0.00691434,0.0122943,-0.00295075,1.00263,0.00933652,0.0427219,580,1002,-49.5554,-4.47352
-637,22,-49.9039,4.73395,-0.000853733,0.0108345,0.00556628,0.0130611,-0.00308038,1.19027,0.00989535,0.0279504,587,1002,-49.9039,-4.73392
-630,22,-49.8904,4.7489,-0.002747,0.0117492,0.00387712,0.012721,-0.00371881,1.3252,0.00995456,0.0158433,594,1002,-49.8904,-4.74891
-623,22,-49.9185,4.67596,-0.00376617,0.0102321,0.00237228,0.0106232,-0.00415727,1.4074,0.00880149,0.0133263,601,1002,-49.9185,-4.67596
-616,22,-49.9409,4.52948,-0.00426782,0.00775022,0.000714151,0.00779251,-0.00431011,1.51165,0.00708321,0.0209006,608,1002,-49.9409,-4.52947
-609,22,-49.9978,4.46252,-0.00399847,0.00594519,-0.000759217,0.00600283,-0.0040561,-1.49503,0.00584367,0.0313214,615,1002,-49.9978,-4.46251
-602,22,-50.1465,4.38806,-0.00287673,0.00420231,-0.00172619,0.00460081,-0.00327522,-1.34392,0.00456865,0.0297931,622,1002,-50.1465,-4.38805
-595,22,-50.299,4.16083,-0.00189678,0.0027291,-0.00244584,0.00378243,-0.00295011,-1.16414,0.00389693,0.0347872,629,1002,-50.2989,-4.16083
-588,22,-50.291,3.81787,0,0,0,0,0,0,0,-1,636,1002,-50.291,-3.81787
-581,22,-49.1315,0.970459,0,0,0,0,0,0,0,-1,643,1002,-49.1315,-0.970444
-574,22,-49.1652,0.863831,-1.70459e-05,0.000275993,-0.00347696,0.00360952,-0.00335057,-0.806456,0.00401934,0.0333123,650,1002,-49.1652,-0.863856
-567,22,-49.1495,0.747925,-8.03219e-05,0.000300577,-0.00326266,0.00337835,-0.00315809,-0.814551,0.00377453,0.0285182,657,1002,-49.1495,-0.7479
-560,22,-49.1031,0.58728,-0.000411591,0.000645916,-0.00270622,0.00287456,-0.00264023,-0.881875,0.00318492,0.0344479,664,1002,-49.1031,-0.587306
-553,22,-49.0643,0.680908,-0.00106417,0.00116203,-0.00181514,0.00217819,-0.00208033,-1.06044,0.00245887,0.0398602,671,1002,-49.0643,-0.680898
-546,22,-48.9316,0.974915,0,0,0,0,0,0,0,-1,678,1002,-48.9316,-0.97489
-539,22,-49.2377,0.818665,-0.00335669,0.00166689,0.000873827,0.00181455,-0.00350435,1.4034,0.0031221,0.0408116,685,1002,-49.2377,-0.818658
-532,22,-49.3047,0.914368,-0.00409239,0.00241489,0.00148116,0.00273616,-0.00441366,1.3572,0.00416565,0.0425043,692,1002,-49.3047,-0.914347
-525,22,0,0,0,0,0,0,0,0,0,-1,699,1002,0,0
-518,22,0,0,0,0,0,0,0,0,0,-1,706,1002,0,0
-511,22,0,0,0,0,0,0,0,0,0,-1,713,1002,0,0
-504,22,0,0,0,0,0,0,0,0,0,-1,720,1002,0,0
-497,22,0,0,0,0,0,0,0,0,0,-1,727,1002,0,0
-490,22,0,0,0,0,0,0,0,0,0,-1,734,1002,0,0
-483,22,0,0,0,0,0,0,0,0,0,-1,741,1002,0,0
-476,22,0,0,0,0,0,0,0,0,0,-1,748,1002,0,0
-469,22,0,0,0,0,0,0,0,0,0,-1,755,1002,0,0
-462,22,0,0,0,0,0,0,0,0,0,-1,762,1002,0,0
-455,22,0,0,0,0,0,0,0,0,0,-1,769,1002,0,0
-448,22,0,0,0,0,0,0,0,0,0,-1,776,1002,0,0
-441,22,0,0,0,0,0,0,0,0,0,-1,783,1002,0,0
-434,22,0,0,0,0,0,0,0,0,0,-1,790,1002,0,0
-427,22,0,0,0,0,0,0,0,0,0,-1,797,1002,0,0
-420,22,0,0,0,0,0,0,0,0,0,-1,804,1002,0,0
-413,22,0,0,0,0,0,0,0,0,0,-1,811,1002,0,0
-406,22,0,0,0,0,0,0,0,0,0,-1,818,1002,0,0
-399,22,0,0,0,0,0,0,0,0,0,-1,825,1002,0,0
-392,22,0,0,0,0,0,0,0,0,0,-1,832,1002,0,0
-385,22,0,0,0,0,0,0,0,0,0,-1,839,1002,0,0
-378,22,0,0,0,0,0,0,0,0,0,-1,846,1002,0,0
-371,22,0,0,0,0,0,0,0,0,0,-1,853,1002,0,0
-364,22,0,0,0,0,0,0,0,0,0,-1,860,1002,0,0
-357,22,0,0,0,0,0,0,0,0,0,-1,867,1002,0,0
-350,22,0,0,0,0,0,0,0,0,0,-1,874,1002,0,0
-343,22,0,0,0,0,0,0,0,0,0,-1,881,1002,0,0
-336,22,0,0,0,0,0,0,0,0,0,-1,888,1002,0,0
-329,22,0,0,0,0,0,0,0,0,0,-1,895,1002,0,0
-322,22,0,0,0,0,0,0,0,0,0,-1,902,1002,0,0
-315,22,0,0,0,0,0,0,0,0,0,-1,909,1002,0,0
-308,22,0,0,0,0,0,0,0,0,0,-1,916,1002,0,0
-301,22,0,0,0,0,0,0,0,0,0,-1,923,1002,0,0
-294,22,0,0,0,0,0,0,0,0,0,-1,930,1002,0,0
-287,22,0,0,0,0,0,0,0,0,0,-1,937,1002,0,0
-280,22,0,0,0,0,0,0,0,0,0,-1,944,1002,0,0
-273,22,0,0,0,0,0,0,0,0,0,-1,951,1002,0,0
-266,22,0,0,0,0,0,0,0,0,0,-1,958,1002,0,0
-259,22,0,0,0,0,0,0,0,0,0,-1,965,1002,0,0
-252,22,0,0,0,0,0,0,0,0,0,-1,972,1002,0,0
-245,22,0,0,0,0,0,0,0,0,0,-1,979,1002,0,0
-238,22,0,0,0,0,0,0,0,0,0,-1,986,1002,0,0
-231,22,0,0,0,0,0,0,0,0,0,-1,993,1002,0,0
-224,22,0,0,0,0,0,0,0,0,0,-1,1000,1002,0,0
-217,22,0,0,0,0,0,0,0,0,0,-1,1007,1002,0,0
-210,22,0,0,0,0,0,0,0,0,0,-1,1014,1002,0,0
-203,22,0,0,0,0,0,0,0,0,0,-1,1021,1002,0,0
-196,22,0,0,0,0,0,0,0,0,0,-1,1028,1002,0,0
-189,22,0,0,0,0,0,0,0,0,0,-1,1035,1002,0,0
-182,22,0,0,0,0,0,0,0,0,0,-1,1042,1002,0,0
-175,22,0,0,0,0,0,0,0,0,0,-1,1049,1002,0,0
-168,22,0,0,0,0,0,0,0,0,0,-1,1056,1002,0,0
-161,22,0,0,0,0,0,0,0,0,0,-1,1063,1002,0,0
-154,22,0,0,0,0,0,0,0,0,0,-1,1070,1002,0,0
-147,22,0,0,0,0,0,0,0,0,0,-1,1077,1002,0,0
-140,22,0,0,0,0,0,0,0,0,0,-1,1084,1002,0,0
-133,22,0,0,0,0,0,0,0,0,0,-1,1091,1002,0,0
-126,22,0,0,0,0,0,0,0,0,0,-1,1098,1002,0,0
-119,22,0,0,0,0,0,0,0,0,0,-1,1105,1002,0,0
-112,22,0,0,0,0,0,0,0,0,0,-1,1112,1002,0,0
-105,22,0,0,0,0,0,0,0,0,0,-1,1119,1002,0,0
-98,22,0,0,0,0,0,0,0,0,0,-1,1126,1002,0,0
-91,22,0,0,0,0,0,0,0,0,0,-1,1133,1002,0,0
-84,22,0,0,0,0,0,0,0,0,0,-1,1140,1002,0,0
-77,22,0,0,0,0,0,0,0,0,0,-1,1147,1002,0,0
-70,22,0,0,0,0,0,0,0,0,0,-1,1154,1002,0,0
-63,22,0,0,0,0,0,0,0,0,0,-1,1161,1002,0,0
-56,22,0,0,0,0,0,0,0,0,0,-1,1168,1002,0,0
-49,22,0,0,0,0,0,0,0,0,0,-1,1175,1002,0,0
-42,22,0,0,0,0,0,0,0,0,0,-1,1182,1002,0,0
-35,22,0,0,0,0,0,0,0,0,0,-1,1189,1002,0,0
-28,22,0,0,0,0,0,0,0,0,0,-1,1196,1002,0,0
-21,22,0,0,0,0,0,0,0,0,0,-1,1203,1002,0,0
-14,22,0,0,0,0,0,0,0,0,0,-1,1210,1002,0,0
-7,22,0,0,0,0,0,0,0,0,0,-1,1217,1002,0,0
0,22,0,0,0,0,0,0,0,0,0,-1,1224,1002,0,0
7,22,0,0,0,0,0,0,0,0,0,-1,1231,1002,0,0
14,22,0,0,0,0,0,0,0,0,0,-1,1238,1002,0,0
21,22,0,0,0,0,0,0,0,0,0,-1,1245,1002,0,0
28,22,0,0,0,0,0,0,0,0,0,-1,1252,1002,0,0
35,22,0,0,0,0,0,0,0,0,0,-1,1259,1002,0,0
42,22,0,0,0,0,0,0,0,0,0,-1,1266,1002,0,0
49,22,0,0,0,0,0,0,0,0,0,-1,1273,1002,0,0
56,22,0,0,0,0,0,0,0,0,0,-1,1280,1002,0,0
63,22,0,0,0,0,0,0,0,0,0,-1,1287,1002,0,0
70,22,0,0,0,0,0,0,0,0,0,-1,1294,1002,0,0
77,22,0,0,0,0,0,0,0,0,0,-1,1301,1002,0,0
84,22,0,0,0,0,0,0,0,0,0,-1,1308,1002,0,0
91,22,0,0,0,0,0,0,0,0,0,-1,1315,1002,0,0
98,22,0,0,0,0,0,0,0,0,0,-1,1322,1002,0,0
105,22,0,0,0,0,0,0,0,0,0,-1,1329,1002,0,0
112,22,0,0,0,0,0,0,0,0,0,-1,1336,1002,0,0
119,22,0,0,0,0,0,0,0,0,0,-1,1343,1002,0,0
126,22,0,0,0,0,0,0,0,0,0,-1,1350,1002,0,0
133,22,0,0,0,0,0,0,0,0,0,-1,1357,1002,0,0
140,22,0,0,0,0,0,0,0,0,0,-1,1364,1002,0,0
147,22,0,0,0,0,0,0,0,0,0,-1,1371,1002,0,0
154,22,0,0,0,0,0,0,0,0,0,-1,1378,1002,0,0
161,22,0,0,0,0,0,0,0,0,0,-1,1385,1002,0,0
168,22,0,0,0,0,0,0,0,0,0,-1,1392,1002,0,0
175,22,0,0,0,0,0,0,0,0,0,-1,1399,1002,0,0
182,22,0,0,0,0,0,0,0,0,0,-1,1406,1002,0,0
189,22,0,0,0,0,0,0,0,0,0,-1,1413,1002,0,0
196,22,0,0,0,0,0,0,0,0,0,-1,1420,1002,0,0
203,22,0,0,0,0,0,0,0,0,0,-1,1427,1002,0,0
210,22,0,0,0,0,0,0,0,0,0,-1,1434,1002,0,0
217,22,0,0,0,0,0,0,0,0,0,-1,1441,1002,0,0
224,22,0,0,0,0,0,0,0,0,0,-1,1448,1002,0,0
231,22,0,0,0,0,0,0,0,0,0,-1,1455,1002,0,0
238,22,0,0,0,0,0,0,0,0,0,-1,1462,1002,0,0
245,22,0,0,0,0,0,0,0,0,0,-1,1469,1002,0,0
252,22,0,0,0,0,0,0,0,0,0,-1,1476,1002,0,0
259,22,0,0,0,0,0,0,0,0,0,-1,1483,1002,0,0
266,22,0,0,0,0,0,0,0,0,0,-1,1490,1002,0,0
273,22,0,0,0,0,0,0,0,0,0,-1,1497,1002,0,0
280,22,0,0,0,0,0,0,0,0,0,-1,1504,1002,0,0
287,22,0,0,0,0,0,0,0,0,0,-1,1511,1002,0,0
294,22,0,0,0,0,0,0,0,0,0,-1,1518,1002,0,0
301,22,0,0,0,0,0,0,0,0,0,-1,1525,1002,0,0
308,22,0,0,0,0,0,0,0,0,0,-1,1532,1002,0,0
315,22,0,0,0,0,0,0,0,0,0,-1,1539,1002,0,0
322,22,0,0,0,0,0,0,0,0,0,-1,1546,1002,0,0
329,22,0,0,0,0,0,0,0,0,0,-1,1553,1002,0,0
336,22,0,0,0,0,0,0,0,0,0,-1,1560,1002,0,0
343,22,0,0,0,0,0,0,0,0,0,-1,1567,1002,0,0
350,22,0,0,0,0,0,0,0,0,0,-1,1574,1002,0,0
357,22,0,0,0,0,0,0,0,0,0,-1,1581,1002,0,0
364,22,0,0,0,0,0,0,0,0,0,-1,1588,1002,0,0
371,22,0,0,0,0,0,0,0,0,0,-1,1595,1002,0,0
378,22,0,0,0,0,0,0,0,0,0,-1,1602,1002,0,0
385,22,0,0,0,0,0,0,0,0,0,-1,1609,1002,0,0
392,22,0,0,0,0,0,0,0,0,0,-1,1616,1002,0,0
399,22,0,0,0,0,0,0,0,0,0,-1,1623,1002,0,0
406,22,0,0,0,0,0,0,0,0,0,-1,1630,1002,0,0
413,22,0,0,0,0,0,0,0,0,0,-1,1637,1002,0,0
420,22,0,0,0,0,0,0,0,0,0,-1,1644,1002,0,0
427,22,0,0,0,0,0,0,0,0,0,-1,1651,1002,0,0
434,22,0,0,0,0,0,0,0,0,0,-1,1658,1002,0,0
441,22,0,0,0,0,0,0,0,0,0,-1,1665,1002,0,0
448,22,0,0,0,0,0,0,0,0,0,-1,1672,1002,0,0
455,22,0,0,0,0,0,0,0,0,0,-1,1679,1002,0,0
462,22,0,0,0,0,0,0,0,0,0,-1,1686,1002,0,0
469,22,0,0,0,0,0,0,0,0,0,-1,1693,1002,0,0
476,22,0,0,0,0,0,0,0,0,0,-1,1700,1002,0,0
483,22,0,0,0,0,0,0,0,0,0,-1,1707,1002,0,0
490,22,0,0,0,0,0,0,0,0,0,-1,1714,1002,0,0
497,22,0,0,0,0,0,0,0,0,0,-1,1721,1002,0,0
504,22,0,0,0,0,0,0,0,0,0,-1,1728,1002,0,0
511,22,0,0,0,0,0,0,0,0,0,-1,1735,1002,0,0
518,22,0,0,0,0,0,0,0,0,0,-1,1742,1002,0,0
525,22,0,0,0,0,0,0,0,0,0,-1,1749,1002,0,0
532,22,0,0,0,0,0,0,0,0,0,-1,1756,1002,0,0
539,22,0,0,0,0,0,0,0,0,0,-1,1763,1002,0,0
546,22,0,0,0,0,0,0,0,0,0,-1,1770,1002,0,0
553,22,0,0,0,0,0,0,0,0,0,-1,1777,1002,0,0
560,22,0,0,0,0,0,0,0,0,0,-1,1784,1002,0,0
567,22,0,0,0,0,0,0,0,0,0,-1,1791,1002,0,0
574,22,0,0,0,0,0,0,0,0,0,-1,1798,1002,0,0
581,22,0,0,0,0,0,0,0,0,0,-1,1805,1002,0,0
588,22,0,0,0,0,0,0,0,0,0,-1,1812,1002,0,0
595,22,0,0,0,0,0,0,0,0,0,-1,1819,1002,0,0
602,22,0,0,0,0,0,0,0,0,0,-1,1826,1002,0,0
609,22,0,0,0,0,0,0,0,0,0,-1,1833,1002,0,0
616,22,0,0,0,0,0,0,0,0,0,-1,1840,1002,0,0
623,22,0,0,0,0,0,0,0,0,0,-1,1847,1002,0,0
630,22,0,0,0,0,0,0,0,0,0,-1,1854,1002,0,0
637,22,0,0,0,0,0,0,0,0,0,-1,1861,1002,0,0
644,22,64.8361,2.89655,-0.00189526,-8.57857e-05,0.00163114,0.000874727,-0.00285578,1.03861,0.00225276,0.0401295,1868,1002,64.836,-2.89655
651,22,64.8481,2.84644,-0.0018482,-8.53574e-05,0.000119167,-7.73384e-05,-0.00185622,1.5036,0.00121252,0.0407328,1875,1002,64.8481,-2.84645
658,22,64.9669,2.99786,-0.00163916,-3.91882e-05,-0.00058045,0.000149208,-0.00182756,-1.25695,0.00127103,0.0416799,1882,1002,64.9669,-2.99784
665,22,64.9536,2.94653,-0.00129495,7.83462e-05,-0.000933957,0.000550904,-0.00176751,-1.10238,0.00139862,0.0404174,1889,1002,64.9537,-2.94653
672,22,64.824,2.86554,-0.000976728,0.000237686,-0.00100042,0.000800749,-0.00153979,-1.05816,0.00137358,0.0400913,1896,1002,64.824,-2.86555
679,22,64.7893,2.61572,-0.000676502,0.000347537,-0.000830254,0.000810959,-0.00113992,-1.0617,0.00113167,0.0393145,1903,1002,64.7894,-2.61573
686,22,64.8314,2.45972,-0.000459944,0.000172969,-0.000575748,0.000513498,-0.000800474,-1.03668,0.00076463,0.0374985,1910,1002,64.8314,-2.45969
693,22,64.8699,2.70837,-0.000347196,-0.000127995,-0.000322539,0.000103057,-0.000578247,-0.94918,0.000424045,0.0376861,1917,1002,64.8698,-2.70838
700,22,64.8911,2.73071,-0.000367624,-0.000296173,-0.000207931,-0.00012092,-0.000542876,-0.870475,0.000329101,0.0332042,1924,1002,64.8912,-2.7307
707,22,64.8059,2.5614,-0.000834448,1.99151e-05,-0.000270844,9.85406e-05,-0.000913073,-1.28826,0.00064408,0.0293246,1931,1002,64.8059,-2.56138
714,22,64.7708,2.71375,-0.00171103,0.000801284,-0.000351066,0.000849419,-0.00175916,-1.43453,0.00153629,0.0445992,1938,1002,64.7708,-2.71378
721,22,64.7068,3.14716,0,0,0,0,0,0,0,-1,1945,1002,64.7068,-3.14716
728,22,64.6682,6.39221,0,0,0,0,0,0,0,-1,1952,1002,64.6683,-6.39219
735,22,64.6864,6.56244,-0.00557292,0.0051973,-0.000279369,0.00520454,-0.00558016,-1.54488,0.00622781,0.0178965,1959,1002,64.6864,-6.56244
742,22,64.7183,6.70972,-0.00701308,0.00684176,-8.41062e-05,0.00684227,-0.0070136,-1.56473,0.00799989,0.0172563,1966,1002,64.7183,-6.70973
749,22,64.6606,6.88293,-0.00847383,0.00925309,0.000288908,0.00925779,-0.00847854,1.5545,0.0102434,0.0135464,1973,1002,64.6607,-6.8829
756,22,64.6658,7.00751,-0.0103335,0.0124301,0.000947343,0.0124695,-0.0103729,1.52928,0.0132065,0.0190744,1980,1002,64.6658,-7.00748
763,22,64.5859,7.14618,-0.0121662,0.0166327,0.0026808,0.0168801,-0.0124136,1.47876,0.0169781,0.0206313,1987,1002,64.586,-7.14616
770,22,64.3687,7.25604,-0.0136131,0.0218355,0.00604104,0.0228367,-0.0146143,1.40655,0.0217954,0.0200882,1994,1002,64.3687,-7.25606
777,22,64.0129,7.28326,-0.0143875,0.0271335,0.011151,0.0299387,-0.0171927,1.32434,0.027541,0.0405658,2001,1002,64.0128,-7.28329
784,22,63.7195,7.34027,0,0,0,0,0,0,0,-1,2008,1002,63.7194,-7.34028
791,22,62.9243,7.24066,0,0,0,0,0,0,0,-1,2015,1002,62.9244,-7.24065
798,22,62.7058,7.48309,0,0,0,0,0,0,0,-1,2022,1002,62.7058,-7.48308
805,22,63.2781,0.53009,0,0,0,0,0,0,0,-1,2029,1002,63.2782,-0.530111
812,22,62.8589,-0.0293579,0,0,0,0,0,0,0,-1,2036,1002,62.8589,0.0293506
-700,15,0,0,0,0,0,0,0,0,0,-1,524,1009,0,0
-693,15,-44.4698,1.17126,0,0,0,0,0,0,0,-1,531,1009,-44.4698,-1.17123
-686,15,-43.9474,2.565,0,0,0,0,0,0,0,-1,538,1009,-43.9474,-2.56499
-679,15,-50.7472,3.00836,0,0,0,0,0,0,0,-1,545,1009,-50.7472,-3.00835
-672,15,-50.3832,3.46777,0,0,0,0,0,0,0,-1,552,1009,-50.3832,-3.46779
-665,15,-50.337,3.59821,0,0,0,0,0,0,0,-1,559,1009,-50.337,-3.59818
-658,15,-50.2287,3.61017,0,0,0,0,0,0,0,-1,566,1009,-50.2287,-3.61016
-651,15,-46.6028,3.43073,0,0,0,0,0,0,0,-1,573,1009,-46.6028,-3.4307
-644,15,-49.7687,4.36182,0,0,0,0,0,0,0,-1,580,1009,-49.7688,-4.36184
-637,15,-49.9139,4.68958,0.000581088,0.0100645,0.00647625,0.0133494,-0.00270375,1.10139,0.00992437,0.0316851,587,1009,-49.914,-4.6896
-630,15,-49.9437,4.66595,-0.00165868,0.0114058,0.00422511,0.0126531,-0.00290601,1.28373,0.00955257,0.0165876,594,1009,-49.9437,-4.66594
-623,15,-50.0157,4.60132,-0.00303898,0.0100367,0.00241183,0.0104674,-0.00346966,1.39409,0.00837781,0.0104327,601,1009,-50.0157,-4.60134
-616,15,-50.0287,4.53125,-0.00370889,0.00740678,0.000680193,0.00744825,-0.00375036,1.50991,0.00658197,0.0169388,608,1009,-50.0287,-4.53125
-609,15,-50.1157,4.49518,-0.00358537,0.00546911,-0.000747656,0.00553043,-0.00364669,-1.48896,0.00533549,0.0246503,615,1009,-50.1157,-4.49519
-602,15,-50.1917,4.45758,-0.00269809,0.00367922,-0.00158343,0.00405073,-0.00306959,-1.34034,0.00412391,0.0241493,622,1009,-50.1917,-4.45756
-595,15,-50.2217,4.36761,0,0,0,0,0,0,0,-1,629,1009,-50.2218,-4.36761
-588,15,-49.1118,0.903015,0,0,0,0,0,0,0,-1,636,1009,-49.1118,-0.903023
-581,15,-49.1347,0.879089,-0.000417088,6.84099e-05,-0.00271616,0.00255265,-0.00290132,-0.829966,0.003151,0.0393364,643,1009,-49.1347,-0.879102
-574,15,-49.1597,0.86084,-9.52063e-05,-0.000327096,-0.00272539,0.0025167,-0.00293901,-0.76414,0.003153,0.0313763,650,1009,-49.1596,-0.86085
-567,15,-49.1516,0.817017,-0.000178668,-0.000303684,-0.00241957,0.0021792,-0.00266155,-0.772484,0.00279943,0.0294388,657,1009,-49.1516,-0.817033
-560,15,-49.0982,0.773499,-0.000529828,7.33364e-05,-0.0018143,0.00161095,-0.00206744,-0.867758,0.00212916,0.0364251,664,1009,-49.0982,-0.773516
-553,15,-49.0024,1.0777,-0.00121605,0.000645721,-0.00093131,0.00103161,-0.00160193,-1.17798,0.00153231,0.0418599,671,1009,-49.0024,-1.07771
-546,15,-48.9722,1.19031,-0.00219922,0.0011326,0.000239445,0.00114972,-0.00221634,1.49942,0.00197565,0.041448,678,1009,-48.9722,-1.19031
-539,15,-49.1923,0.874329,-0.00359033,0.00135693,0.00151351,0.00178323,-0.00401662,1.29625,0.00343031,0.0405567,685,1009,-49.1923,-0.874346
-532,15,-49.2868,0.895996,-0.00439355,0.00224573,0.00203602,0.00282037,-0.00496819,1.29572,0.00455337,0.0399258,692,1009,-49.2868,-0.895973
-525,15,0,0,0,0,0,0,0,0,0,-1,699,1009,0,0
-518,15,0,0,0,0,0,0,0,0,0,-1,706,1009,0,0
-511,15,0,0,0,0,0,0,0,0,0,-1,713,1009,0,0
-504,15,0,0,0,0,0,0,0,0,0,-1,720,1009,0,0
-497,15,0,0,0,0,0,0,0,0,0,-1,727,1009,0,0
-490,15,0,0,0,0,0,0,0,0,0,-1,734,1009,0,0
-483,15,0,0,0,0,0,0,0,0,0,-1,741,1009,0,0
-476,15,0,0,0,0,0,0,0,0,0,-1,748,1009,0,0
-469,15,0,0,0,0,0,0,0,0,0,-1,755,1009,0,0
-462,15,0,0,0,0,0,0,0,0,0,-1,762,1009,0,0
-455,15,0,0,0,0,0,0,0,0,0,-1,769,1009,0,0
-448,15,0,0,0,0,0,0,0,0,0,-1,776,1009,0,0
-441,15,0,0,0,0,0,0,0,0,0,-1,783,1009,0,0
-434,15,0,0,0,0,0,0,0,0,0,-1,790,1009,0,0
-427,15,0,0,0,0,0,0,0,0,0,-1,797,1009,0,0
-420,15,0,0,0,0,0,0,0,0,0,-1,804,1009,0,0
-413,15,0,0,0,0,0,0,0,0,0,-1,811,1009,0,0
-406,15,0,0,0,0,0,0,0,0,0,-1,818,1009,0,0
-399,15,0,0,0,0,0,0,0,0,0,-1,825,1009,0,0
-392,15,0,0,0,0,0,0,0,0,0,-1,832,1009,0,0
-385,15,0,0,0,0,0,0,0,0,0,-1,839,1009,0,0
-378,15,0,0,0,0,0,0,0,0,0,-1,846,1009,0,0
-371,15,0,0,0,0,0,0,0,0,0,-1,853,1009,0,0
-364,15,0,0,0,0,0,0,0,0,0,-1,860,1009,0,0
-357,15,0,0,0,0,0,0,0,0,0,-1,867,1009,0,0
-350,15,0,0,0,0,0,0,0,0,0,-1,874,1009,0,0
-343,15,0,0,0,0,0,0,0,0,0,-1,881,1009,0,0
-336,15,0,0,0,0,0,0,0,0,0,-1,888,1009,0,0
-329,15,0,0,0,0,0,0,0,0,0,-1,895,1009,0,0
-322,15,0,0,0,0,0,0,0,0,0,-1,902,1009,0,0
-315,15,0,0,0,0,0,0,0,0,0,-1,909,1009,0,0
-308,15,0,0,0,0,0,0,0,0,0,-1,916,1009,0,0
-301,15,0,0,0,0,0,0,0,0,0,-1,923,1009,0,0
-294,15,0,0,0,0,0,0,0,0,0,-1,930,1009,0,0
-287,15,0,0,0,0,0,0,0,0,0,-1,937,1009,0,0
-280,15,0,0,0,0,0,0,0,0,0,-1,944,1009,0,0
-273,15,0,0,0,0,0,0,0,0,0,-1,951,1009,0,0
-266,15,0,0,0,0,0,0,0,0,0,-1,958,1009,0,0
-259,15,0,0,0,0,0,0,0,0,0,-1,965,1009,0,0
-252,15,0,0,0,0,0,0,0,0,0,-1,972,1009,0,0
-245,15,0,0,0,0,0,0,0,0,0,-1,979,1009,0,0
-238,15,0,0,0,0,0,0,0,0,0,-1,986,1009,0,0
-231,15,0,0,0,0,0,0,0,0,0,-1,993,1009,0,0
-224,15,0,0,0,0,0,0,0,0,0,-1,1000,1009,0,0
-217,15,0,0,0,0,0,0,0,0,0,-1,1007,1009,0,0
-210,15,0,0,0,0,0,0,0,0,0,-1,1014,1009,0,0
-203,15,0,0,0,0,0,0,0,0,0,-1,1021,1009,0,0
-196,15,0,0,0,0,0,0,0,0,0,-1,1028,1009,0,0
-189,15,0,0,0,0,0,0,0,0,0,-1,1035,1009,0,0
-182,15,0,0,0,0,0,0,0,0,0,-1,1042,1009,0,0
-175,15,0,0,0,0,0,0,0,0,0,-1,1049,1009,0,0
-168,15,0,0,0,0,0,0,0,0,0,-1,1056,1009,0,0
-161,15,0,0,0,0,0,0,0,0,0,-1,1063,1009,0,0
-154,15,0,0,0,0,0,0,0,0,0,-1,1070,1009,0,0
-147,15,0,0,0,0,0,0,0,0,0,-1,1077,1009,0,0
-140,15,0,0,0,0,0,0,0,0,0,-1,1084,1009,0,0
-133,15,0,0,0,0,0,0,0,0,0,-1,1091,1009,0,0
-126,15,0,0,0,0,0,0,0,0,0,-1,1098,1009,0,0
-119,15,0,0,0,0,0,0,0,0,0,-1,1105,1009,0,0
-112,15,0,0,0,0,0,0,0,0,0,-1,1112,1009,0,0
-105,15,0,0,0,0,0,0,0,0,0,-1,1119,1009,0,0
-98,15,0,0,0,0,0,0,0,0,0,-1,1126,1009,0,0
-91,15,0,0,0,0,0,0,0,0,0,-1,1133,1009,0,0
-84,15,0,0,0,0,0,0,0,0,0,-1,1140,1009,0,0
-77,15,0,0,0,0,0,0,0,0,0,-1,1147,1009,0,0
-70,15,0,0,0,0,0,0,0,0,0,-1,1154,1009,0,0
-63,15,0,0,0,0,0,0,0,0,0,-1,1161,1009,0,0
-56,15,0,0,0,0,0,0,0,0,0,-1,1168,1009,0,0
-49,15,0,0,0,0,0,0,0,0,0,-1,1175,1009,0,0
-42,15,0,0,0,0,0,0,0,0,0,-1,1182,1009,0,0
-35,15,0,0,0,0,0,0,0,0,0,-1,1189,1009,0,0
-28,15,0,0,0,0,0,0,0,0,0,-1,1196,1009,0,0
-21,15,0,0,0,0,0,0,0,0,0,-1,1203,1009,0,0
-14,15,0,0,0,0,0,0,0,0,0,-1,1210,1009,0,0
-7,15,0,0,0,0,0,0,0,0,0,-1,1217,1009,0,0
0,15,0,0,0,0,0,0,0,0,0,-1,1224,1009,0,0
7,15,0,0,0,0,0,0,0,0,0,-1,1231,1009,0,0
14,15,0,0,0,0,0,0,0,0,0,-1,1238,1009,0,0
21,15,0,0,0,0,0,0,0,0,0,-1,1245,1009,0,0
28,15,0,0,0,0,0,0,0,0,0,-1,1252,1009,0,0
35,15,0,0,0,0,0,0,0,0,0,-1,1259,1009,0,0
42,15,0,0,0,0,0,0,0,0,0,-1,1266,1009,0,0
49,15,0,0,0,0,0,0,0,0,0,-1,1273,1009,0,0
56,15,0,0,0,0,0,0,0,0,0,-1,1280,1009,0,0
63,15,0,0,0,0,0,0,0,0,0,-1,1287,1009,0,0
70,15,0,0,0,0,0,0,0,0,0,-1,1294,1009,0,0
77,15,0,0,0,0,0,0,0,0,0,-1,1301,1009,0,0
84,15,0,0,0,0,0,0,0,0,0,-1,1308,1009,0,0
91,15,0,0,0,0,0,0,0,0,0,-1,1315,1009,0,0
98,15,0,0,0,0,0,0,0,0,0,-1,1322,1009,0,0
105,15,0,0,0,0,0,0,0,0,0,-1,1329,1009,0,0
112,15,0,0,0,0,0,0,0,0,0,-1,1336,1009,0,0
119,15,0,0,0,0,0,0,0,0,0,-1,1343,1009,0,0
126,15,0,0,0,0,0,0,0,0,0,-1,1350,1009,0,0
133,15,0,0,0,0,0,0,0,0,0,-1,1357,1009,0,0
140,15,0,0,0,0,0,0,0,0,0,-1,1364,1009,0,0
147,15,0,0,0,0,0,0,0,0,0,-1,1371,1009,0,0
154,15,0,0,0,0,0,0,0,0,0,-1,1378,1009,0,0
161,15,0,0,0,0,0,0,0,0,0,-1,1385,1009,0,0
168,15,0,0,0,0,0,0,0,0,0,-1,1392,1009,0,0
175,15,0,0,0,0,0,0,0,0,0,-1,1399,1009,0,0
182,15,0,0,0,0,0,0,0,0,0,-1,1406,1009,0,0
189,15,0,0,0,0,0,0,0,0,0,-1,1413,1009,0,0
196,15,0,0,0,0,0,0,0,0,0,-1,1420,1009,0,0
203,15,0,0,0,0,0,0,0,0,0,-1,1427,1009,0,0
210,15,0,0,0,0,0,0,0,0,0,-1,1434,1009,0,0
217,15,0,0,0,0,0,0,0,0,0,-1,1441,1009,0,0
224,15,0,0,0,0,0,0,0,0,0,-1,1448,1009,0,0
231,15,0,0,0,0,0,0,0,0,0,-1,1455,1009,0,0
238,15,0,0,0,0,0,0,0,0,0,-1,1462,1009,0,0
245,15,0,0,0,0,0,0,0,0,0,-1,1469,1009,0,0
252,15,0,0,0,0,0,0,0,0,0,-1,1476,1009,0,0
259,15,0,0,0,0,0,0,0,0,0,-1,1483,1009,0,0
266,15,0,0,0,0,0,0,0,0,0,-1,1490,1009,0,0
273,15,0,0,0,0,0,0,0,0,0,-1,1497,1009,0,0
280,15,0,0,0,0,0,0,0,0,0,-1,1504,1009,0,0
287,15,0,0,0,0,0,0,0,0,0,-1,1511,1009,0,0
294,15,0,0,0,0,0,0,0,0,0,-1,1518,1009,0,0
301,15,0,0,0,0,0,0,0,0,0,-1,1525,1009,0,0
308,15,0,0,0,0,0,0,0,0,0,-1,1532,1009,0,0
315,15,0,0,0,0,0,0,0,0,0,-1,1539,1009,0,0
322,15,0,0,0,0,0,0,0,0,0,-1,1546,1009,0,0
329,15,0,0,0,0,0,0,0,0,0,-1,1553,1009,0,0
336,15,0,0,0,0,0,0,0,0,0,-1,1560,1009,0,0
343,15,0,0,0,0,0,0,0,0,0,-1,1567,1009,0,0
350,15,0,0,0,0,0,0,0,0,0,-1,1574,1009,0,0
357,15,0,0,0,0,0,0,0,0,0,-1,1581,1009,0,0
364,15,0,0,0,0,0,0,0,0,0,-1,1588,1009,0,0
371,15,0,0,0,0,0,0,0,0,0,-1,1595,1009,0,0
378,15,0,0,0,0,0,0,0,0,0,-1,1602,1009,0,0
385,15,0,0,0,0,0,0,0,0,0,-1,1609,1009,0,0
392,15,0,0,0,0,0,0,0,0,0,-1,1616,1009,0,0
399,15,0,0,0,0,0,0,0,0,0,-1,1623,1009,0,0
406,15,0,0,0,0,0,0,0,0,0,-1,1630,1009,0,0
413,15,0,0,0,0,0,0,0,0,0,-1,1637,1009,0,0
420,15,0,0,0,0,0,0,0,0,0,-1,1644,1009,0,0
427,15,0,0,0,0,0,0,0,0,0,-1,1651,1009,0,0
434,15,0,0,0,0,0,0,0,0,0,-1,1658,1009,0,0
441,15,0,0,0,0,0,0,0,0,0,-1,1665,1009,0,0
448,15,0,0,0,0,0,0,0,0,0,-1,1672,1009,0,0
455,15,0,0,0,0,0,0,0,0,0,-1,1679,1009,0,0
462,15,0,0,0,0,0,0,0,0,0,-1,1686,1009,0,0
469,15,0,0,0,0,0,0,0,0,0,-1,1693,1009,0,0
476,15,0,0,0,0,0,0,0,0,0,-1,1700,1009,0,0
483,15,0,0,0,0,0,0,0,0,0,-1,1707,1009,0,0
490,15,0,0,0,0,0,0,0,0,0,-1,1714,1009,0,0
497,15,0,0,0,0,0,0,0,0,0,-1,1721,1009,0,0
504,15,0,0,0,0,0,0,0,0,0,-1,1728,1009,0,0
511,15,0,0,0,0,0,0,0,0,0,-1,1735,1009,0,0
518,15,0,0,0,0,0,0,0,0,0,-1,1742,1009,0,0
525,15,0,0,0,0,0,0,0,0,0,-1,1749,1009,0,0
532,15,0,0,0,0,0,0,0,0,0,-1,1756,1009,0,0
539,15,0,0,0,0,0,0,0,0,0,-1,1763,1009,0,0
546,15,0,0,0,0,0,0,0,0,0,-1,1770,1009,0,0
553,15,0,0,0,0,0,0,0,0,0,-1,1777,1009,0,0
560,15,0,0,0,0,0,0,0,0,0,-1,1784,1009,0,0
567,15,0,0,0,0,0,0,0,0,0,-1,1791,1009,0,0
574,15,0,0,0,0,0,0,0,0,0,-1,1798,1009,0,0
581,15,0,0,0,0,0,0,0,0,0,-1,1805,1009,0,0
588,15,0,0,0,0,0,0,0,0,0,-1,1812,1009,0,0
595,15,0,0,0,0,0,0,0,0,0,-1,1819,1009,0,0
602,15,0,0,0,0,0,0,0,0,0,-1,1826,1009,0,0
609,15,0,0,0,0,0,0,0,0,0,-1,1833,1009,0,0
616,15,0,0,0,0,0,0,0,0,0,-1,1840,1009,0,0
623,15,0,0,0,0,0,0,0,0,0,-1,1847,1009,0,0
630,15,0,0,0,0,0,0,0,0,0,-1,1854,1009,0,0
637,15,0,0,0,0,0,0,0,0,0,-1,1861,1009,0,0
644,15,65.157,2.97168,-0.00263949,0.00163666,0.00146472,0.00209026,-0.00309309,1.27048,0.00301122,0.0419264,1868,1009,65.1569,-2.97169
651,15,65.0227,2.91321,-0.00233699,0.00124153,-1.0831e-05,0.00124156,-0.00233702,-1.56777,0.00209812,0.0394181,1875,1009,65.0227,-2.91323
658,15,64.892,2.8338,-0.00197479,0.000983186,-0.000701176,0.00114098,-0.00213259,-1.34944,0.00191868,0.0400732,1882,1009,64.8919,-2.8338
665,15,64.8418,2.78375,-0.00154684,0.000843628,-0.00103548,0.00122978,-0.00193299,-1.21384,0.00184101,0.0404229,1889,1009,64.8418,-2.78376
672,15,64.8265,2.66711,-0.0011703,0.000774413,-0.00108071,0.00125581,-0.0016517,-1.15173,0.00168383,0.0398319,1896,1009,64.8266,-2.66709
679,15,64.8057,2.4104,-0.000811882,0.000713275,-0.000896318,0.00112752,-0.00122613,-1.13787,0.00135928,0.0386835,1903,1009,64.8057,-2.41042
686,15,64.7979,2.42847,-0.000613242,0.000423495,-0.000615539,0.000709859,-0.000899606,-1.13535,0.000931375,0.0417244,1910,1009,64.7978,-2.42848
693,15,64.8156,2.54053,-0.000503719,3.88979e-05,-0.00030055,0.000172483,-0.000637304,-1.15255,0.000492535,0.040489,1917,1009,64.8156,-2.54051
700,15,64.8846,2.69586,-0.000479961,-0.000207568,-0.000107242,-0.000170414,-0.000517115,-1.23729,0.000304284,0.0312943,1924,1009,64.8846,-2.69584
707,15,64.8392,2.61798,-0.00095015,7.62694e-05,-0.000125267,9.13361e-05,-0.000965216,-1.45109,0.000675983,0.0271694,1931,1009,64.8393,-2.61798
714,15,64.8064,2.64398,-0.00183303,0.000843767,-0.000160522,0.000853359,-0.00184262,-1.51111,0.00159107,0.0322044,1938,1009,64.8064,-2.644
721,15,64.7354,2.7005,0,0,0,0,0,0,0,-1,1945,1009,64.7353,-2.70051
728,15,64.8199,6.49475,0,0,0,0,0,0,0,-1,1952,1009,64.8199,-6.49472
735,15,64.7742,6.65619,-0.0056862,0.0052987,-1.9179e-05,0.00529874,-0.00568623,-1.56905,0.00634349,0.0224541,1959,1009,64.7741,-6.65618
742,15,64.8073,6.86505,-0.00686847,0.00695985,0.000117487,0.00696084,-0.00686946,1.5623,0.00798499,0.0425912,1966,1009,64.8073,-6.86504
749,15,64.811,6.91833,-0.00800988,0.00925144,0.00038812,0.00926016,-0.0080186,1.54833,0.00998448,0.0264142,1973,1009,64.811,-6.91834
756,15,64.8234,6.86444,-0.00949929,0.0122759,0.000874657,0.012311,-0.00953436,1.53071,0.0126463,0.0194337,1980,1009,64.8234,-6.86442
763,15,64.7256,6.99536,-0.0107599,0.0162508,0.00219433,0.0164279,-0.010937,1.49026,0.0159048,0.0152289,1987,1009,64.7255,-6.99538
770,15,64.5457,7.02118,-0.0112771,0.0212101,0.00488797,0.0219296,-0.0119966,1.42465,0.0198652,0.0204634,1994,1009,64.5456,-7.02117
777,15,64.1309,7.08429,-0.0107571,0.0262464,0.00912382,0.0283738,-0.0128844,1.34173,0.0243735,0.0453691,2001,1009,64.1309,-7.08429
784,15,63.7751,7.16461,0,0,0,0,0,0,0,-1,2008,1009,63.7751,-7.1646
791,15,62.7195,6.48792,0,0,0,0,0,0,0,-1,2015,1009,62.7195,-6.48794
798,15,63.584,1.56018,0,0,0,0,0,0,0,-1,2022,1009,63.5839,-1.56019
805,15,63.3376,1.16541,0,0,0,0,0,0,0,-1,2029,1009,63.3377,-1.16544
812,15,63.1184,0.706116,0,0,0,0,0,0,0,-1,2036,1009,63.1184,-0.706118
-700,8,0,0,0,0,0,0,0,0,0,-1,524,1016,0,0
-693,8,-45.4397,1.22729,0,0,0,0,0,0,0,-1,531,1016,-45.4397,-1.22731
-686,8,-44.9011,2.45471,0,0,0,0,0,0,0,-1,538,1016,-44.9011,-2.45469
-679,8,-49.2805,-3.59015,0,0,0,0,0,0,0,-1,545,1016,-49.2805,3.59017
-672,8,-50.3745,3.49341,0,0,0,0,0,0,0,-1,552,1016,-50.3745,-3.49339
-665,8,-50.1734,3.63666,0.0165796,-0.021256,0.0198543,0.0250859,-0.0297622,0.404774,0.0317049,0.0455904,559,1016,-50.1734,-3.63665
-658,8,-50.0015,3.7475,0.0124423,-0.00896409,0.0167772,0.0216397,-0.0181615,0.501466,0.0230084,0.0430359,566,1016,-50.0015,-3.74751
-651,8,-49.373,4.14063,0,0,0,0,0,0,0,-1,573,1016,-49.373,-4.1406
-644,8,-49.685,4.14545,0,0,0,0,0,0,0,-1,580,1016,-49.685,-4.14545
-637,8,-49.7408,4.37848,0.00140999,0.00950405,0.0075653,0.0140368,-0.00312274,1.031,0.0105539,0.0436372,587,1016,-49.7408,-4.37847
-630,8,-49.9945,4.55334,-0.000961606,0.011151,0.00460178,0.0127009,-0.00251157,1.24591,0.00941678,0.0259851,594,1016,-49.9945,-4.55332
-623,8,-49.9821,4.57788,-0.0024828,0.00984924,0.00235674,0.0102843,-0.00291784,1.38826,0.008008,0.0163131,601,1016,-49.9821,-4.57785
-616,8,-50.0307,4.53131,-0.00319063,0.00705381,0.000455292,0.007074,-0.00321083,1.52647,0.00607598,0.0181857,608,1016,-50.0307,-4.53133
-609,8,-50.0865,4.44043,-0.00315118,0.00498647,-0.00102339,0.0051132,-0.00327791,-1.44759,0.00488308,0.0210199,615,1016,-50.0866,-4.44043
-602,8,-50.0281,4.50629,-0.00248913,0.00316882,-0.00180977,0.00369818,-0.00301849,-1.28624,0.00388448,0.0247449,622,1016,-50.0282,-4.50626
-595,8,-50.0656,4.45941,0,0,0,0,0,0,0,-1,629,1016,-50.0656,-4.45939
-588,8,-49.0598,0.566895,0,0,0,0,0,0,0,-1,636,1016,-49.0597,-0.566907
-581,8,-49.1319,0.751892,-0.000351041,-0.000495684,-0.0024739,0.0020516,-0.00289832,-0.770786,0.00287174,0.0308142,643,1016,-49.1319,-0.751916
-574,8,-49.1124,0.943054,-4.36486e-05,-0.000905004,-0.00233439,0.00189946,-0.00284811,-0.694178,0.00275919,0.0342674,650,1016,-49.1124,-0.943083
-567,8,-49.0512,1.06305,-0.000127561,-0.000887319,-0.00190798,0.00143799,-0.00245287,-0.687133,0.00227172,0.0374376,657,1016,-49.0512,-1.06306
-560,8,-49.0383,1.0014,-0.000467087,-0.000501585,-0.00121279,0.000728579,-0.00169725,-0.778287,0.00143729,0.0389537,664,1016,-49.0383,-1.00138
-553,8,-49.0228,1.25006,-0.00113114,7.99269e-05,-0.000282669,0.000142654,-0.00119387,-1.35242,0.000847473,0.0407066,671,1016,-49.0228,-1.25003
-546,8,-49.0728,1.22357,-0.00207335,0.00054981,0.000873054,0.000813814,-0.00233736,1.27715,0.00188888,0.0420431,678,1016,-49.0727,-1.22356
-539,8,-49.1489,1.17212,-0.00341753,0.000729712,0.00195815,0.00150815,-0.00419596,1.19241,0.00341297,0.0403978,685,1016,-49.1488,-1.17214
-532,8,-49.2585,1.14685,-0.00422892,0.0014871,0.00245468,0.00239654,-0.00513836,1.21598,0.00444524,0.0405668,692,1016,-49.2585,-1.14685
-525,8,0,0,0,0,0,0,0,0,0,-1,699,1016,0,0
-518,8,0,0,0,0,0,0,0,0,0,-1,706,1016,0,0
-511,8,0,0,0,0,0,0,0,0,0,-1,713,1016,0,0
-504,8,0,0,0,0,0,0,0,0,0,-1,720,1016,0,0
-497,8,0,0,0,0,0,0,0,0,0,-1,727,1016,0,0
-490,8,0,0,0,0,0,0,0,0,0,-1,734,1016,0,0
-483,8,0,0,0,0,0,0,0,0,0,-1,741,1016,0,0
-476,8,0,0,0,0,0,0,0,0,0,-1,748,1016,0,0
-469,8,0,0,0,0,0,0,0,0,0,-1,755,1016,0,0
-462,8,0,0,0,0,0,0,0,0,0,-1,762,1016,0,0
-455,8,0,0,0,0,0,0,0,0,0,-1,769,1016,0,0
-448,8,0,0,0,0,0,0,0,0,0,-1,776,1016,0,0
-441,8,0,0,0,0,0,0,0,0,0,-1,783,1016,0,0
-434,8,0,0,0,0,0,0,0,0,0,-1,790,1016,0,0
-427,8,0,0,0,0,0,0,0,0,0,-1,797,1016,0,0
-420,8,0,0,0,0,0,0,0,0,0,-1,804,1016,0,0
-413,8,0,0,0,0,0,0,0,0,0,-1,811,1016,0,0
-406,8,0,0,0,0,0,0,0,0,0,-1,818,1016,0,0
-399,8,0,0,0,0,0,0,0,0,0,-1,825,1016,0,0
-392,8,0,0,0,0,0,0,0,0,0,-1,832,1016,0,0
-385,8,0,0,0,0,0,0,0,0,0,-1,839,1016,0,0
-378,8,0,0,0,0,0,0,0,0,0,-1,846,1016,0,0
-371,8,0,0,0,0,0,0,0,0,0,-1,853,1016,0,0
-364,8,0,0,0,0,0,0,0,0,0,-1,860,1016,0,0
-357,8,0,0,0,0,0,0,0,0,0,-1,867,1016,0,0
-350,8,0,0,0,0,0,0,0,0,0,-1,874,1016,0,0
-343,8,0,0,0,0,0,0,0,0,0,-1,881,1016,0,0
-336,8,0,0,0,0,0,0,0,0,0,-1,888,1016,0,0
-329,8,0,0,0,0,0,0,0,0,0,-1,895,1016,0,0
-322,8,0,0,0,0,0,0,0,0,0,-1,902,1016,0,0
-315,8,0,0,0,0,0,0,0,0,0,-1,909,1016,0,0
-308,8,0,0,0,0,0,0,0,0,0,-1,916,1016,0,0
-301,8,0,0,0,0,0,0,0,0,0,-1,923,1016,0,0
-294,8,0,0,0,0,0,0,0,0,0,-1,930,1016,0,0
-287,8,0,0,0,0,0,0,0,0,0,-1,937,1016,0,0
-280,8,0,0,0,0,0,0,0,0,0,-1,944,1016,0,0
-273,8,0,0,0,0,0,0,0,0,0,-1,951,1016,0,0
-266,8,0,0,0,0,0,0,0,0,0,-1,958,1016,0,0
-259,8,0,0,0,0,0,0,0,0,0,-1,965,1016,0,0
-252,8,0,0,0,0,0,0,0,0,0,-1,972,1016,0,0
-245,8,0,0,0,0,0,0,0,0,0,-1,979,1016,0,0
-238,8,0,0,0,0,0,0,0,0,0,-1,986,1016,0,0
-231,8,0,0,0,0,0,0,0,0,0,-1,993,1016,0,0
-224,8,0,0,0,0,0,0,0,0,0,-1,1000,1016,0,0
-217,8,0,0,0,0,0,0,0,0,0,-1,1007,1016,0,0
-210,8,0,0,0,0,0,0,0,0,0,-1,1014,1016,0,0
-203,8,0,0,0,0,0,0,0,0,0,-1,1021,1016,0,0
-196,8,0,0,0,0,0,0,0,0,0,-1,1028,1016,0,0
-189,8,0,0,0,0,0,0,0,0,0,-1,1035,1016,0,0
-182,8,0,0,0,0,0,0,0,0,0,-1,1042,1016,0,0
-175,8,0,0,0,0,0,0,0,0,0,-1,1049,1016,0,0
-168,8,0,0,0,0,0,0,0,0,0,-1,1056,1016,0,0
-161,8,0,0,0,0,0,0,0,0,0,-1,1063,1016,0,0
-154,8,0,0,0,0,0,0,0,0,0,-1,1070,1016,0,0
-147,8,0,0,0,0,0,0,0,0,0,-1,1077,1016,0,0
-140,8,0,0,0,0,0,0,0,0,0,-1,1084,1016,0,0
-133,8,0,0,0,0,0,0,0,0,0,-1,1091,1016,0,0
-126,8,0,0,0,0,0,0,0,0,0,-1,1098,1016,0,0
-119,8,0,0,0,0,0,0,0,0,0,-1,1105,1016,0,0
-112,8,0,0,0,0,0,0,0,0,0,-1,1112,1016,0,0
-105,8,0,0,0,0,0,0,0,0,0,-1,1119,1016,0,0
-98,8,0,0,0,0,0,0,0,0,0,-1,1126,1016,0,0
-91,8,0,0,0,0,0,0,0,0,0,-1,1133,1016,0,0
-84,8,0,0,0,0,0,0,0,0,0,-1,1140,1016,0,0
-77,8,0,0,0,0,0,0,0,0,0,-1,1147,1016,0,0
-70,8,0,0,0,0,0,0,0,0,0,-1,1154,1016,0,0
-63,8,0,0,0,0,0,0,0,0,0,-1,1161,1016,0,0
-56,8,0,0,0,0,0,0,0,0,0,-1,1168,1016,0,0
-49,8,0,0,0,0,0,0,0,0,0,-1,1175,1016,0,0
-42,8,0,0,0,0,0,0,0,0,0,-1,1182,1016,0,0
-35,8,0,0,0,0,0,0,0,0,0,-1,1189,1016,0,0
-28,8,0,0,0,0,0,0,0,0,0,-1,1196,1016,0,0
-21,8,0,0,0,0,0,0,0,0,0,-1,1203,1016,0,0
-14,8,0,0,0,0,0,0,0,0,0,-1,1210,1016,0,0
-7,8,0,0,0,0,0,0,0,0,0,-1,1217,1016,0,0
0,8,0,0,0,0,0,0,0,0,0,-1,1224,1016,0,0
7,8,0,0,0,0,0,0,0,0,0,-1,1231,1016,0,0
14,8,0,0,0,0,0,0,0,0,0,-1,1238,1016,0,0
21,8,0,0,0,0,0,0,0,0,0,-1,1245,1016,0,0
28,8,0,0,0,0,0,0,0,0,0,-1,1252,1016,0,0
35,8,0,0,0,0,0,0,0,0,0,-1,1259,1016,0,0
42,8,0,0,0,0,0,0,0,0,0,-1,1266,1016,0,0
49,8,0,0,0,0,0,0,0,0,0,-1,1273,1016,0,0
56,8,0,0,0,0,0,0,0,0,0,-1,1280,1016,0,0
63,8,0,0,0,0,0,0,0,0,0,-1,1287,1016,0,0
70,8,0,0,0,0,0,0,0,0,0,-1,1294,1016,0,0
77,8,0,0,0,0,0,0,0,0,0,-1,1301,1016,0,0
84,8,0,0,0,0,0,0,0,0,0,-1,1308,1016,0,0
91,8,0,0,0,0,0,0,0,0,0,-1,1315,1016,0,0
98,8,0,0,0,0,0,0,0,0,0,-1,1322,1016,0,0
105,8,0,0,0,0,0,0,0,0,0,-1,1329,1016,0,0
112,8,0,0,0,0,0,0,0,0,0,-1,1336,1016,0,0
119,8,0,0,0,0,0,0,0,0,0,-1,1343,1016,0,0
126,8,0,0,0,0,0,0,0,0,0,-1,1350,1016,0,0
133,8,0,0,0,0,0,0,0,0,0,-1,1357,1016,0,0
140,8,0,0,0,0,0,0,0,0,0,-1,1364,1016,0,0
147,8,0,0,0,0,0,0,0,0,0,-1,1371,1016,0,0
154,8,0,0,0,0,0,0,0,0,0,-1,1378,1016,0,0
161,8,0,0,0,0,0,0,0,0,0,-1,1385,1016,0,0
168,8,0,0,0,0,0,0,0,0,0,-1,1392,1016,0,0
175,8,0,0,0,0,0,0,0,0,0,-1,1399,1016,0,0
182,8,0,0,0,0,0,0,0,0,0,-1,1406,1016,0,0
189,8,0,0,0,0,0,0,0,0,0,-1,1413,1016,0,0
196,8,0,0,0,0,0,0,0,0,0,-1,1420,1016,0,0
203,8,0,0,0,0,0,0,0,0,0,-1,1427,1016,0,0
210,8,0,0,0,0,0,0,0,0,0,-1,1434,1016,0,0
217,8,0,0,0,0,0,0,0,0,0,-1,1441,1016,0,0
224,8,0,0,0,0,0,0,0,0,0,-1,1448,1016,0,0
231,8,0,0,0,0,0,0,0,0,0,-1,1455,1016,0,0
238,8,0,0,0,0,0,0,0,0,0,-1,1462,1016,0,0
245,8,0,0,0,0,0,0,0,0,0,-1,1469,1016,0,0
252,8,0,0,0,0,0,0,0,0,0,-1,1476,1016,0,0
259,8,0,0,0,0,0,0,0,0,0,-1,1483,1016,0,0
266,8,0,0,0,0,0,0,0,0,0,-1,1490,1016,0,0
273,8,0,0,0,0,0,0,0,0,0,-1,1497,1016,0,0
280,8,0,0,0,0,0,0,0,0,0,-1,1504,1016,0,0
287,8,0,0,0,0,0,0,0,0,0,-1,1511,1016,0,0
294,8,0,0,0,0,0,0,0,0,0,-1,1518,1016,0,0
301,8,0,0,0,0,0,0,0,0,0,-1,1525,1016,0,0
308,8,0,0,0,0,0,0,0,0,0,-1,1532,1016,0,0
315,8,0,0,0,0,0,0,0,0,0,-1,1539,1016,0,0
322,8,0,0,0,0,0,0,0,0,0,-1,1546,1016,0,0
329,8,0,0,0,0,0,0,0,0,0,-1,1553,1016,0,0
336,8,0,0,0,0,0,0,0,0,0,-1,1560,1016,0,0
343,8,0,0,0,0,0,0,0,0,0,-1,1567,1016,0,0
350,8,0,0,0,0,0,0,0,0,0,-1,1574,1016,0,0
357,8,0,0,0,0,0,0,0,0,0,-1,1581,1016,0,0
364,8,0,0,0,0,0,0,0,0,0,-1,1588,1016,0,0
371,8,0,0,0,0,0,0,0,0,0,-1,1595,1016,0,0
378,8,0,0,0,0,0,0,0,0,0,-1,1602,1016,0,0
385,8,0,0,0,0,0,0,0,0,0,-1,1609,1016,0,0
392,8,0,0,0,0,0,0,0,0,0,-1,1616,1016,0,0
399,8,0,0,0,0,0,0,0,0,0,-1,1623,1016,0,0
406,8,0,0,0,0,0,0,0,0,0,-1,1630,1016,0,0
413,8,0,0,0,0,0,0,0,0,0,-1,1637,1016,0,0
420,8,0,0,0,0,0,0,0,0,0,-1,1644,1016,0,0
427,8,0,0,0,0,0,0,0,0,0,-1,1651,1016,0,0
434,8,0,0,0,0,0,0,0,0,0,-1,1658,1016,0,0
441,8,0,0,0,0,0,0,0,0,0,-1,1665,1016,0,0
448,8,0,0,0,0,0,0,0,0,0,-1,1672,1016,0,0
455,8,0,0,0,0,0,0,0,0,0,-1,1679,1016,0,0
462,8,0,0,0,0,0,0,0,0,0,-1,1686,1016,0,0
469,8,0,0,0,0,0,0,0,0,0,-1,1693,1016,0,0
476,8,0,0,0,0,0,0,0,0,0,-1,1700,1016,0,0
483,8,0,0,0,0,0,0,0,0,0,-1,1707,1016,0,0
490,8,0,0,0,0,0,0,0,0,0,-1,1714,1016,0,0
497,8,0,0,0,0,0,0,0,0,0,-1,1721,1016,0,0
504,8,0,0,0,0,0,0,0,0,0,-1,1728,1016,0,0
511,8,0,0,0,0,0,0,0,0,0,-1,1735,1016,0,0
518,8,0,0,0,0,0,0,0,0,0,-1,1742,1016,0,0
525,8,0,0,0,0,0,0,0,0,0,-1,1749,1016,0,0
532,8,0,0,0,0,0,0,0,0,0,-1,1756,1016,0,0
539,8,0,0,0,0,0,0,0,0,0,-1,1763,1016,0,0
546,8,0,0,0,0,0,0,0,0,0,-1,1770,1016,0,0
553,8,0,0,0,0,0,0,0,0,0,-1,1777,1016,0,0
560,8,0,0,0,0,0,0,0,0,0,-1,1784,1016,0,0
567,8,0,0,0,0,0,0,0,0,0,-1,1791,1016,0,0
574,8,0,0,0,0,0,0,0,0,0,-1,1798,1016,0,0
581,8,0,0,0,0,0,0,0,0,0,-1,1805,1016,0,0
588,8,0,0,0,0,0,0,0,0,0,-1,1812,1016,0,0
595,8,0,0,0,0,0,0,0,0,0,-1,1819,1016,0,0
602,8,0,0,0,0,0,0,0,0,0,-1,1826,1016,0,0
609,8,0,0,0,0,0,0,0,0,0,-1,1833,1016,0,0
616,8,0,0,0,0,0,0,0,0,0,-1,1840,1016,0,0
623,8,0,0,0,0,0,0,0,0,0,-1,1847,1016,0,0
630,8,0,0,0,0,0,0,0,0,0,-1,1854,1016,0,0
637,8,0,0,0,0,0,0,0,0,0,-1,1861,1016,0,0
644,8,64.8743,2.70868,-0.00365198,0.00283025,0.00176147,0.00327798,-0.00409972,1.32189,0.00426832,0.0430986,1868,1016,64.8742,-2.70865
651,8,64.9388,2.70032,-0.00302588,0.00220681,0.000263664,0.00222006,-0.00303913,1.52058,0.00304865,0.0405109,1875,1016,64.9389,-2.70032
658,8,64.7694,2.73889,-0.00243314,0.0018043,-0.000493077,0.00186092,-0.00248976,-1.45647,0.00252059,0.0407461,1882,1016,64.7694,-2.7389
665,8,64.7468,2.7674,-0.00186576,0.00154473,-0.000870216,0.00175394,-0.00207497,-1.33486,0.00221321,0.0424717,1889,1016,64.7468,-2.76738
672,8,64.8337,2.66101,-0.00139381,0.00136839,-0.000952434,0.00166496,-0.00169038,-1.26893,0.00193722,0.0409078,1896,1016,64.8337,-2.66101
679,8,64.762,2.25647,-0.000943418,0.00122326,-0.000809383,0.00149222,-0.00121238,-1.24997,0.00156429,0.0386118,1903,1016,64.762,-2.25647
686,8,64.7362,2.19623,-0.000743093,0.00085971,-0.000551602,0.0010312,-0.000914578,-1.26938,0.00112407,0.0420606,1910,1016,64.7363,-2.19621
693,8,64.7478,2.51709,-0.00063495,0.000402318,-0.000213903,0.000444697,-0.00067733,-1.37521,0.000652427,0.0392342,1917,1016,64.7478,-2.51708
700,8,64.8136,2.63611,-0.000567099,8.06641e-05,3.40988e-05,8.24542e-05,-0.000568889,1.51835,0.000409521,0.0305264,1924,1016,64.8136,-2.63612
707,8,64.8649,2.65497,-0.00104072,0.00031253,6.07582e-05,0.000315253,-0.00104344,1.52602,0.000821139,0.0250398,1931,1016,64.8649,-2.65497
714,8,64.8259,2.58722,-0.00193259,0.00103289,6.95747e-05,0.00103453,-0.00193422,1.54735,0.00174004,0.0290004,1938,1016,64.8259,-2.58724
721,8,64.8136,2.53711,0,0,0,0,0,0,0,-1,1945,1016,64.8135,-2.53711
728,8,52.1681,5.36774,0,0,0,0,0,0,0,-1,1952,1016,52.168,-5.36773
735,8,64.8473,6.76172,0,0,0,0,0,0,0,-1,1959,1016,64.8472,-6.76173
742,8,64.7791,6.9986,0,0,0,0,0,0,0,-1,1966,1016,64.7791,-6.99858
749,8,64.9742,6.96375,0,0,0,0,0,0,0,-1,1973,1016,64.9743,-6.96375
756,8,64.8815,6.74176,-0.00847175,0.0120289,0.000834335,0.0120628,-0.00850565,1.53019,0.0119343,0.0385312,1980,1016,64.8814,-6.74177
763,8,64.833,6.83789,-0.00904123,0.0157576,0.00175046,0.0158806,-0.00916418,1.50067,0.0146319,0.0167838,1987,1016,64.833,-6.83789
770,8,64.7068,6.79187,-0.00836837,0.020393,0.00372583,0.0208678,-0.00884319,1.44404,0.0176157,0.0229604,1994,1016,64.7069,-6.7919
777,8,64.3203,6.79724,-0.00620492,0.0250767,0.00699473,0.0265696,-0.00769774,1.36053,0.0207602,0.0384161,2001,1016,64.3204,-6.79724
784,8,63.9443,6.80652,0,0,0,0,0,0,0,-1,2008,1016,63.9443,-6.80651
791,8,62.8936,6.41626,0,0,0,0,0,0,0,-1,2015,1016,62.8936,-6.41629
798,8,62.7129,1.44806,0,0,0,0,0,0,0,-1,2022,1016,62.7128,-1.44807
805,8,63.0522,1.59564,0,0,0,0,0,0,0,-1,2029,1016,63.0522,-1.59563
812,8,62.9856,1.37695,0,0,0,0,0,0,0,-1,2036,1016,62.9856,-1.37695
-700,1,0,0,0,0,0,0,0,0,0,-1,524,1023,0,0
-693,1,-46.4255,1.46857,0,0,0,0,0,0,0,-1,531,1023,-46.4255,-1.4686
-686,1,-49.4425,-2.97534,0,0,0,0,0,0,0,-1,538,1023,-49.4425,2.97534
-679,1,-49.32,-2.41284,0,0,0,0,0,0,0,-1,545,1023,-49.32,2.41288
-672,1,-49.1974,-1.85046,0,0,0,0,0,0,0,-1,552,1023,-49.1974,1.85041
-665,1,-49.9122,3.8136,0.0175036,-0.0217647,0.0242355,0.0290601,-0.0333213,0.444951,0.0360439,0.0428481,559,1023,-49.9122,-3.81363
-658,1,-49.7379,3.85175,0.0134478,-0.00887279,0.020179,0.0253471,-0.0207721,0.532802,0.0266706,0.0376008,566,1023,-49.7379,-3.85176
-651,1,-49.6454,4.10706,0.00932041,-7.81216e-05,0.016244,0.0215312,-0.0122889,0.644596,0.0197676,0.0293481,573,1023,-49.6455,-4.10705
-644,1,-49.4977,4.39386,0,0,0,0,0,0,0,-1,580,1023,-49.4978,-4.39385
-637,1,-49.7393,4.31525,0.00238572,0.00980575,0.00854917,0.0154152,-0.00322373,0.990117,0.011503,0.0407223,587,1023,-49.7393,-4.31524
-630,1,-50.0516,4.37354,-6.56419e-05,0.0112547,0.00514044,0.0132405,-0.0020515,1.20214,0.00958432,0.0354641,594,1023,-50.0516,-4.37356
-623,1,-49.9255,4.53516,-0.00173344,0.00969636,0.00260719,0.010263,-0.00230006,1.35679,0.00772369,0.0171419,601,1023,-49.9255,-4.53515
-616,1,-50.0735,4.45557,-0.00247527,0.00656866,0.000577714,0.00660542,-0.00251202,1.50726,0.00543792,0.0219633,608,1023,-50.0735,-4.45555
-609,1,-50.0627,4.52161,-0.00251038,0.00430289,-0.000973187,0.00443917,-0.00264666,-1.43167,0.00413441,0.0233566,615,1023,-50.0627,-4.52162
-602,1,-49.8603,4.63464,-0.00208202,0.00246128,-0.00174962,0.00305696,-0.0026777,-1.24264,0.00331332,0.0164444,622,1023,-49.8603,-4.63464
-595,1,-49.7961,4.68799,0,0,0,0,0,0,0,-1,629,1023,-49.7961,-4.68799
-588,1,-49.7429,4.84998,0,0,0,0,0,0,0,-1,636,1023,-49.7429,-4.84999
-581,1,-49.1193,0.819397,-0.000145246,-0.00113231,-0.00202029,0.00144092,-0.00271848,-0.665601,0.0024389,0.0282323,643,1023,-49.1192,-0.819382
-574,1,-49.118,1.06604,0.00014917,-0.00149898,-0.00177325,0.00128047,-0.00263029,-0.567882,0.00230227,0.034927,650,1023,-49.1181,-1.06604
-567,1,-48.9957,1.07739,6.22224e-05,-0.0014007,-0.00128393,0.000808435,-0.00214691,-0.526476,0.00176364,0.0423298,657,1023,-48.9957,-1.07741
-560,1,-48.895,0.964661,-0.000283029,-0.0009098,-0.000566229,5.07525e-05,-0.00124358,-0.53265,0.000846479,0.04188,664,1023,-48.895,-0.964687
-553,1,-49.0472,0.9104,-0.000943977,-0.000215775,0.000341522,-8.06696e-05,-0.00107908,1.19409,0.000694063,0.040305,671,1023,-49.0472,-0.91039
-546,1,-49.2822,0.94342,-0.00187144,0.000326552,0.00141564,0.00101971,-0.0025646,1.11547,0.00213251,0.0430195,678,1023,-49.2821,-0.943446
-539,1,-49.1726,1.08014,-0.00321983,0.000465213,0.00230501,0.00157362,-0.00432824,1.12257,0.00352898,0.0426606,685,1023,-49.1726,-1.08015
-532,1,-49.1722,1.32135,-0.00408663,0.000967321,0.00284902,0.00224856,-0.00536788,1.14818,0.00451861,0.0428012,692,1023,-49.1723,-1.32134
-525,1,0,0,0,0,0,0,0,0,0,-1,699,1023,0,0
-518,1,0,0,0,0,0,0,0,0,0,-1,706,1023,0,0
-511,1,0,0,0,0,0,0,0,0,0,-1,713,1023,0,0
-504,1,0,0,0,0,0,0,0,0,0,-1,720,1023,0,0
-497,1,0,0,0,0,0,0,0,0,0,-1,727,1023,0,0
-490,1,0,0,0,0,0,0,0,0,0,-1,734,1023,0,0
-483,1,0,0,0,0,0,0,0,0,0,-1,741,1023,0,0
-476,1,0,0,0,0,0,0,0,0,0,-1,748,1023,0,0
-469,1,0,0,0,0,0,0,0,0,0,-1,755,1023,0,0
-462,1,0,0,0,0,0,0,0,0,0,-1,762,1023,0,0
-455,1,0,0,0,0,0,0,0,0,0,-1,769,1023,0,0
-448,1,0,0,0,0,0,0,0,0,0,-1,776,1023,0,0
-441,1,0,0,0,0,0,0,0,0,0,-1,783,1023,0,0
-434,1,0,0,0,0,0,0,0,0,0,-1,790,1023,0,0
-427,1,0,0,0,0,0,0,0,0,0,-1,797,1023,0,0
-420,1,0,0,0,0,0,0,0,0,0,-1,804,1023,0,0
-413,1,0,0,0,0,0,0,0,0,0,-1,811,1023,0,0
-406,1,0,0,0,0,0,0,0,0,0,-1,818,1023,0,0
-399,1,0,0,0,0,0,0,0,0,0,-1,825,1023,0,0
-392,1,0,0,0,0,0,0,0,0,0,-1,832,1023,0,0
-385,1,0,0,0,0,0,0,0,0,0,-1,839,1023,0,0
-378,1,0,0,0,0,0,0,0,0,0,-1,846,1023,0,0
-371,1,0,0,0,0,0,0,0,0,0,-1,853,1023,0,0
-364,1,0,0,0,0,0,0,0,0,0,-1,860,1023,0,0
-357,1,0,0,0,0,0,0,0,0,0,-1,867,1023,0,0
-350,1,0,0,0,0,0,0,0,0,0,-1,874,1023,0,0
-343,1,0,0,0,0,0,0,0,0,0,-1,881,1023,0,0
-336,1,0,0,0,0,0,0,0,0,0,-1,888,1023,0,0
-329,1,0,0,0,0,0,0,0,0,0,-1,895,1023,0,0
-322,1,0,0,0,0,0,0,0,0,0,-1,902,1023,0,0
-315,1,0,0,0,0,0,0,0,0,0,-1,909,1023,0,0
-308,1,0,0,0,0,0,0,0,0,0,-1,916,1023,0,0
-301,1,0,0,0,0,0,0,0,0,0,-1,923,1023,0,0
-294,1,0,0,0,0,0,0,0,0,0,-1,930,1023,0,0
-287,1,0,0,0,0,0,0,0,0,0,-1,937,1023,0,0
-280,1,0,0,0,0,0,0,0,0,0,-1,944,1023,0,0
-273,1,0,0,0,0,0,0,0,0,0,-1,951,1023,0,0
-266,1,0,0,0,0,0,0,0,0,0,-1,958,1023,0,0
-259,1,0,0,0,0,0,0,0,0,0,-1,965,1023,0,0
-252,1,0,0,0,0,0,0,0,0,0,-1,972,1023,0,0
-245,1,0,0,0,0,0,0,0,0,0,-1,979,1023,0,0
-238,1,0,0,0,0,0,0,0,0,0,-1,986,1023,0,0
-231,1,0,0,0,0,0,0,0,0,0,-1,993,1023,0,0
-224,1,0,0,0,0,0,0,0,0,0,-1,1000,1023,0,0
-217,1,0,0,0,0,0,0,0,0,0,-1,1007,1023,0,0
-210,1,0,0,0,0,0,0,0,0,0,-1,1014,1023,0,0
-203,1,0,0,0,0,0,0,0,0,0,-1,1021,1023,0,0
-196,1,0,0,0,0,0,0,0,0,0,-1,1028,1023,0,0
-189,1,0,0,0,0,0,0,0,0,0,-1,1035,1023,0,0
-182,1,0,0,0,0,0,0,0,0,0,-1,1042,1023,0,0
-175,1,0,0,0,0,0,0,0,0,0,-1,1049,1023,0,0
-168,1,0,0,0,0,0,0,0,0,0,-1,1056,1023,0,0
-161,1,0,0,0,0,0,0,0,0,0,-1,1063,1023,0,0
-154,1,0,0,0,0,0,0,0,0,0,-1,1070,1023,0,0
-147,1,0,0,0,0,0,0,0,0,0,-1,1077,1023,0,0
-140,1,0,0,0,0,0,0,0,0,0,-1,1084,1023,0,0
-133,1,0,0,0,0,0,0,0,0,0,-1,1091,1023,0,0
-126,1,0,0,0,0,0,0,0,0,0,-1,1098,1023,0,0
-119,1,0,0,0,0,0,0,0,0,0,-1,1105,1023,0,0
-112,1,0,0,0,0,0,0,0,0,0,-1,1112,1023,0,0
-105,1,0,0,0,0,0,0,0,0,0,-1,1119,1023,0,0
-98,1,0,0,0,0,0,0,0,0,0,-1,1126,1023,0,0
-91,1,0,0,0,0,0,0,0,0,0,-1,1133,1023,0,0
-84,1,0,0,0,0,0,0,0,0,0,-1,1140,1023,0,0
-77,1,0,0,0,0,0,0,0,0,0,-1,1147,1023,0,0
-70,1,0,0,0,0,0,0,0,0,0,-1,1154,1023,0,0
-63,1,0,0,0,0,0,0,0,0,0,-1,1161,1023,0,0
-56,1,0,0,0,0,0,0,0,0,0,-1,1168,1023,0,0
-49,1,0,0,0,0,0,0,0,0,0,-1,1175,1023,0,0
-42,1,0,0,0,0,0,0,0,0,0,-1,1182,1023,0,0
-35,1,0,0,0,0,0,0,0,0,0,-1,1189,1023,0,0
-28,1,0,0,0,0,0,0,0,0,0,-1,1196,1023,0,0
-21,1,0,0,0,0,0,0,0,0,0,-1,1203,1023,0,0
-14,1,0,0,0,0,0,0,0,0,0,-1,1210,1023,0,0
-7,1,0,0,0,0,0,0,0,0,0,-1,1217,1023,0,0
0,1,0,0,0,0,0,0,0,0,0,-1,1224,1023,0,0
7,1,0,0,0,0,0,0,0,0,0,-1,1231,1023,0,0
14,1,0,0,0,0,0,0,0,0,0,-1,1238,1023,0,0
21,1,0,0,0,0,0,0,0,0,0,-1,1245,1023,0,0
28,1,0,0,0,0,0,0,0,0,0,-1,1252,1023,0,0
35,1,0,0,0,0,0,0,0,0,0,-1,1259,1023,0,0
42,1,0,0,0,0,0,0,0,0,0,-1,1266,1023,0,0
49,1,0,0,0,0,0,0,0,0,0,-1,1273,1023,0,0
56,1,0,0,0,0,0,0,0,0,0,-1,1280,1023,0,0
63,1,0,0,0,0,0,0,0,0,0,-1,1287,1023,0,0
70,1,0,0,0,0,0,0,0,0,0,-1,1294,1023,0,0
77,1,0,0,0,0,0,0,0,0,0,-1,1301,1023,0,0
84,1,0,0,0,0,0,0,0,0,0,-1,1308,1023,0,0
91,1,0,0,0,0,0,0,0,0,0,-1,1315,1023,0,0
98,1,0,0,0,0,0,0,0,0,0,-1,1322,1023,0,0
105,1,0,0,0,0,0,0,0,0,0,-1,1329,1023,0,0
112,1,0,0,0,0,0,0,0,0,0,-1,1336,1023,0,0
119,1,0,0,0,0,0,0,0,0,0,-1,1343,1023,0,0
126,1,0,0,0,0,0,0,0,0,0,-1,1350,1023,0,0
133,1,0,0,0,0,0,0,0,0,0,-1,1357,1023,0,0
140,1,0,0,0,0,0,0,0,0,0,-1,1364,1023,0,0
147,1,0,0,0,0,0,0,0,0,0,-1,1371,1023,0,0
154,1,0,0,0,0,0,0,0,0,0,-1,1378,1023,0,0
161,1,0,0,0,0,0,0,0,0,0,-1,1385,1023,0,0
168,1,0,0,0,0,0,0,0,0,0,-1,1392,1023,0,0
175,1,0,0,0,0,0,0,0,0,0,-1,1399,1023,0,0
182,1,0,0,0,0,0,0,0,0,0,-1,1406,1023,0,0
189,1,0,0,0,0,0,0,0,0,0,-1,1413,1023,0,0
196,1,0,0,0,0,0,0,0,0,0,-1,1420,1023,0,0
203,1,0,0,0,0,0,0,0,0,0,-1,1427,1023,0,0
210,1,0,0,0,0,0,0,0,0,0,-1,1434,1023,0,0
217,1,0,0,0,0,0,0,0,0,0,-1,1441,1023,0,0
224,1,0,0,0,0,0,0,0,0,0,-1,1448,1023,0,0
231,1,0,0,0,0,0,0,0,0,0,-1,1455,1023,0,0
238,1,0,0,0,0,0,0,0,0,0,-1,1462,1023,0,0
245,1,0,0,0,0,0,0,0,0,0,-1,1469,1023,0,0
252,1,0,0,0,0,0,0,0,0,0,-1,1476,1023,0,0
259,1,0,0,0,0,0,0,0,0,0,-1,1483,1023,0,0
266,1,0,0,0,0,0,0,0,0,0,-1,1490,1023,0,0
273,1,0,0,0,0,0,0,0,0,0,-1,1497,1023,0,0
280,1,0,0,0,0,0,0,0,0,0,-1,1504,1023,0,0
287,1,0,0,0,0,0,0,0,0,0,-1,1511,1023,0,0
294,1,0,0,0,0,0,0,0,0,0,-1,1518,1023,0,0
301,1,0,0,0,0,0,0,0,0,0,-1,1525,1023,0,0
308,1,0,0,0,0,0,0,0,0,0,-1,1532,1023,0,0
315,1,0,0,0,0,0,0,0,0,0,-1,1539,1023,0,0
322,1,0,0,0,0,0,0,0,0,0,-1,1546,1023,0,0
329,1,0,0,0,0,0,0,0,0,0,-1,1553,1023,0,0
336,1,0,0,0,0,0,0,0,0,0,-1,1560,1023,0,0
343,1,0,0,0,0,0,0,0,0,0,-1,1567,1023,0,0
350,1,0,0,0,0,0,0,0,0,0,-1,1574,1023,0,0
357,1,0,0,0,0,0,0,0,0,0,-1,1581,1023,0,0
364,1,0,0,0,0,0,0,0,0,0,-1,1588,1023,0,0
371,1,0,0,0,0,0,0,0,0,0,-1,1595,1023,0,0
378,1,0,0,0,0,0,0,0,0,0,-1,1602,1023,0,0
385,1,0,0,0,0,0,0,0,0,0,-1,1609,1023,0,0
392,1,0,0,0,0,0,0,0,0,0,-1,1616,1023,0,0
399,1,0,0,0,0,0,0,0,0,0,-1,1623,1023,0,0
406,1,0,0,0,0,0,0,0,0,0,-1,1630,1023,0,0
413,1,0,0,0,0,0,0,0,0,0,-1,1637,1023,0,0
420,1,0,0,0,0,0,0,0,0,0,-1,1644,1023,0,0
427,1,0,0,0,0,0,0,0,0,0,-1,1651,1023,0,0
434,1,0,0,0,0,0,0,0,0,0,-1,1658,1023,0,0
441,1,0,0,0,0,0,0,0,0,0,-1,1665,1023,0,0
448,1,0,0,0,0,0,0,0,0,0,-1,1672,1023,0,0
455,1,0,0,0,0,0,0,0,0,0,-1,1679,1023,0,0
462,1,0,0,0,0,0,0,0,0,0,-1,1686,1023,0,0
469,1,0,0,0,0,0,0,0,0,0,-1,1693,1023,0,0
476,1,0,0,0,0,0,0,0,0,0,-1,1700,1023,0,0
483,1,0,0,0,0,0,0,0,0,0,-1,1707,1023,0,0
490,1,0,0,0,0,0,0,0,0,0,-1,1714,1023,0,0
497,1,0,0,0,0,0,0,0,0,0,-1,1721,1023,0,0
504,1,0,0,0,0,0,0,0,0,0,-1,1728,1023,0,0
511,1,0,0,0,0,0,0,0,0,0,-1,1735,1023,0,0
518,1,0,0,0,0,0,0,0,0,0,-1,1742,1023,0,0
525,1,0,0,0,0,0,0,0,0,0,-1,1749,1023,0,0
532,1,0,0,0,0,0,0,0,0,0,-1,1756,1023,0,0
539,1,0,0,0,0,0,0,0,0,0,-1,1763,1023,0,0
546,1,0,0,0,0,0,0,0,0,0,-1,1770,1023,0,0
553,1,0,0,0,0,0,0,0,0,0,-1,1777,1023,0,0
560,1,0,0,0,0,0,0,0,0,0,-1,1784,1023,0,0
567,1,0,0,0,0,0,0,0,0,0,-1,1791,1023,0,0
574,1,0,0,0,0,0,0,0,0,0,-1,1798,1023,0,0
581,1,0,0,0,0,0,0,0,0,0,-1,1805,1023,0,0
588,1,0,0,0,0,0,0,0,0,0,-1,1812,1023,0,0
595,1,0,0,0,0,0,0,0,0,0,-1,1819,1023,0,0
602,1,0,0,0,0,0,0,0,0,0,-1,1826,1023,0,0
609,1,0,0,0,0,0,0,0,0,0,-1,1833,1023,0,0
616,1,0,0,0,0,0,0,0,0,0,-1,1840,1023,0,0
623,1,0,0,0,0,0,0,0,0,0,-1,1847,1023,0,0
630,1,0,0,0,0,0,0,0,0,0,-1,1854,1023,0,0
637,1,0,0,0,0,0,0,0,0,0,-1,1861,1023,0,0
644,1,0,0,0,0,0,0,0,0,0,-1,1868,1023,0,0
651,1,64.8248,2.84729,-0.00330624,0.00265929,0.000508606,0.00270234,-0.00334929,1.48635,0.00350056,0.0386455,1875,1023,64.8249,-2.84731
658,1,64.8265,3.09943,-0.00258417,0.00219173,-0.000358368,0.00221847,-0.00261091,-1.49632,0.00279131,0.0427891,1882,1023,64.8265,-3.09941
665,1,64.9181,2.73212,-0.00196026,0.00187437,-0.000794026,0.00203228,-0.00211817,-1.37448,0.00239644,0.0464957,1889,1023,64.9181,-2.73213
672,1,64.8099,2.6673,-0.00147824,0.00164217,-0.000902613,0.00188445,-0.00172052,-1.30856,0.00208205,0.0426711,1896,1023,64.8099,-2.6673
679,1,64.7544,2.4364,-0.00105249,0.00144719,-0.000774511,0.00166771,-0.00127301,-1.29341,0.00170292,0.0381357,1903,1023,64.7543,-2.43639
686,1,64.6929,2.18823,0,0,0,0,0,0,0,-1,1910,1023,64.6928,-2.18826
693,1,64.8398,2.62329,-0.000950634,0.00052972,-0.000124523,0.000540122,-0.000961035,-1.48746,0.000877976,0.036088,1917,1023,64.8398,-2.62328
700,1,64.8822,2.72662,-0.00091697,0.000157921,0.000191853,0.000191138,-0.000950187,1.39936,0.00070585,0.0313976,1924,1023,64.8822,-2.72664
707,1,64.8583,2.63458,-0.00140644,0.000337612,0.000283198,0.000382445,-0.00145127,1.41379,0.00111704,0.0275476,1931,1023,64.8583,-2.63458
714,1,64.8025,2.52142,-0.00229227,0.00100271,0.000351301,0.00103975,-0.00232931,1.46575,0.00199206,0.0304085,1938,1023,64.8025,-2.52145
721,1,64.8337,2.43365,0,0,0,0,0,0,0,-1,1945,1023,64.8337,-2.43368
728,1,52.4639,5.59277,0,0,0,0,0,0,0,-1,1952,1023,52.4639,-5.59276
735,1,53.3617,6.10699,0,0,0,0,0,0,0,-1,1959,1023,53.3617,-6.10698
742,1,52.4393,5.81525,0,0,0,0,0,0,0,-1,1966,1023,52.4393,-5.81527
749,1,65.0247,6.66498,0,0,0,0,0,0,0,-1,1973,1023,65.0246,-6.66499
756,1,64.9269,6.83484,-0.00749632,0.0115843,0.000898087,0.0116265,-0.00753849,1.52387,0.0111485,0.0404118,1980,1023,64.9269,-6.83484
763,1,64.771,6.72308,-0.00731452,0.0151036,0.00144576,0.0151965,-0.00740737,1.50666,0.0133061,0.01703,1987,1023,64.771,-6.72307
770,1,64.7361,6.64972,-0.00536097,0.0194358,0.00273549,0.019734,-0.00565916,1.46222,0.0153931,0.0205063,1994,1023,64.7361,-6.64974
777,1,64.4207,6.53741,-0.00143905,0.0237913,0.00505825,0.0247676,-0.00241537,1.38013,0.0173729,0.0291383,2001,1023,64.4207,-6.5374
784,1,64.1401,6.41394,0,0,0,0,0,0,0,-1,2008,1023,64.1402,-6.41396
791,1,63.1885,6.37915,0,0,0,0,0,0,0,-1,2015,1023,63.1884,-6.37913
798,1,62.8071,6.29346,0,0,0,0,0,0,0,-1,2022,1023,62.8071,-6.29347
805,1,63.1287,2.44305,0,0,0,0,0,0,0,-1,2029,1023,63.1286,-2.44306
812,1,63.0908,2.29785,0,0,0,0,0,0,0,-1,2036,1023,63.0908,-2.29786
-700,-6,0,0,0,0,0,0,0,0,0,-1,524,1030,0,0
-693,-6,-49.4583,-3.0675,0,0,0,0,0,0,0,-1,531,1030,-49.4583,3.06745
-686,-6,-49.3236,-2.05005,0.0243958,-0.0987962,0.0437034,0.038325,-0.112725,0.308542,0.0906667,0.0449781,538,1030,-49.3236,2.05002
-679,-6,-49.3628,-1.24158,0.0252536,-0.0656079,0.0392426,0.0398557,-0.0802099,0.356223,0.0706129,0.0477542,545,1030,-49.3628,1.24152
-672,-6,-49.3174,-0.33374,0,0,0,0,0,0,0,-1,552,1030,-49.3173,0.333771
-665,-6,-49.7285,2.25684,0,0,0,0,0,0,0,-1,559,1030,-49.7285,-2.25683
-658,-6,-49.5494,2.79187,0,0,0,0,0,0,0,-1,566,1030,-49.5494,-2.79191
-651,-6,-49.6785,3.78931,0,0,0,0,0,0,0,-1,573,1030,-49.6786,-3.78928
-644,-6,-49.4014,4.51526,0,0,0,0,0,0,0,-1,580,1030,-49.4014,-4.51529
-637,-6,-49.6997,4.40222,0.00362456,0.0103755,0.0100288,0.0175817,-0.00358162,0.947732,0.0130795,0.0470976,587,1030,-49.6997,-4.40218
-630,-6,-49.8497,4.34973,0.00104998,0.011371,0.00611686,0.0142134,-0.00179244,1.1358,0.0101261,0.0259617,594,1030,-49.8497,-4.34967
-623,-6,-49.8418,4.44324,-0.000734927,0.00945955,0.00323209,0.0103979,-0.00167327,1.28824,0.00755173,0.0194457,601,1030,-49.8418,-4.44324
-616,-6,-49.9084,4.46582,-0.00151646,0.00603186,0.000946573,0.00614875,-0.00163335,1.44793,0.0047384,0.0223634,608,1030,-49.9084,-4.46585
-609,-6,-49.8721,4.60559,-0.00162716,0.00363712,-0.000796978,0.00375513,-0.00174517,-1.42379,0.0032455,0.0213109,615,1030,-49.872,-4.60564
-602,-6,-49.7582,4.73975,-0.00144191,0.00184518,-0.00165036,0.00253078,-0.00212752,-1.17706,0.00269283,0.0149856,622,1030,-49.7583,-4.73976
-595,-6,-49.7542,4.82898,0,0,0,0,0,0,0,-1,629,1030,-49.7542,-4.82899
-588,-6,-49.0819,0.832642,0,0,0,0,0,0,0,-1,636,1030,-49.0819,-0.83269
-581,-6,-49.1136,0.820923,0.000199531,-0.00142354,-0.00168568,0.00125885,-0.00248286,-0.561058,0.00219847,0.0225831,643,1030,-49.1136,-0.820922
-574,-6,-49.1357,0.920532,0.000458929,-0.00168083,-0.00135325,0.00111413,-0.00233604,-0.450906,0.00203317,0.0286848,650,1030,-49.1357,-0.920551
-567,-6,-49.046,0.854004,0.000348319,-0.00145032,-0.000806602,0.000657048,-0.00175905,-0.36555,0.00144249,0.0391478,657,1030,-49.0461,-0.854012
-560,-6,-48.9398,0.709106,-3.55152e-05,-0.000832916,-4.17301e-05,-3.33373e-05,-0.000835094,-0.0521427,0.000545956,0.0421407,664,1030,-48.9398,-0.709097
-553,-6,-49.0574,0.66394,-0.000722593,-5.52948e-05,0.000912301,0.000582454,-0.00136034,0.960704,0.00115125,0.0428352,671,1030,-49.0574,-0.663899
-546,-6,-49.2698,0.857788,-0.00165684,0.000486132,0.00203524,0.00171471,-0.00288541,1.0277,0.0026844,0.0435424,678,1030,-49.2698,-0.857794
-539,-6,-49.1776,1.07227,-0.00301343,0.000445912,0.00292987,0.00211858,-0.0046861,1.05205,0.00402082,0.0433311,685,1030,-49.1775,-1.07223
-532,-6,-49.1101,1.26025,-0.00397613,0.000570569,0.00374271,0.00267626,-0.00608182,1.05832,0.00518234,0.042764,692,1030,-49.1101,-1.26028
-525,-6,0,0,0,0,0,0,0,0,0,-1,699,1030,0,0
-518,-6,0,0,0,0,0,0,0,0,0,-1,706,1030,0,0
-511,-6,0,0,0,0,0,0,0,0,0,-1,713,1030,0,0
-504,-6,0,0,0,0,0,0,0,0,0,-1,720,1030,0,0
-497,-6,0,0,0,0,0,0,0,0,0,-1,727,1030,0,0
-490,-6,0,0,0,0,0,0,0,0,0,-1,734,1030,0,0
-483,-6,0,0,0,0,0,0,0,0,0,-1,741,1030,0,0
-476,-6,0,0,0,0,0,0,0,0,0,-1,748,1030,0,0
-469,-6,0,0,0,0,0,0,0,0,0,-1,755,1030,0,0
-462,-6,0,0,0,0,0,0,0,0,0,-1,762,1030,0,0
-455,-6,0,0,0,0,0,0,0,0,0,-1,769,1030,0,0
-448,-6,0,0,0,0,0,0,0,0,0,-1,776,1030,0,0
-441,-6,0,0,0,0,0,0,0,0,0,-1,783,1030,0,0
-434,-6,0,0,0,0,0,0,0,0,0,-1,790,1030,0,0
-427,-6,0,0,0,0,0,0,0,0,0,-1,797,1030,0,0
-420,-6,0,0,0,0,0,0,0,0,0,-1,804,1030,0,0
-413,-6,0,0,0,0,0,0,0,0,0,-1,811,1030,0,0
-406,-6,0,0,0,0,0,0,0,0,0,-1,818,1030,0,0
-399,-6,0,0,0,0,0,0,0,0,0,-1,825,1030,0,0
-392,-6,0,0,0,0,0,0,0,0,0,-1,832,1030,0,0
-385,-6,0,0,0,0,0,0,0,0,0,-1,839,1030,0,0
-378,-6,0,0,0,0,0,0,0,0,0,-1,846,1030,0,0
-371,-6,0,0,0,0,0,0,0,0,0,-1,853,1030,0,0
-364,-6,0,0,0,0,0,0,0,0,0,-1,860,1030,0,0
-357,-6,0,0,0,0,0,0,0,0,0,-1,867,1030,0,0
-350,-6,0,0,0,0,0,0,0,0,0,-1,874,1030,0,0
-343,-6,0,0,0,0,0,0,0,0,0,-1,881,1030,0,0
-336,-6,0,0,0,0,0,0,0,0,0,-1,888,1030,0,0
-329,-6,0,0,0,0,0,0,0,0,0,-1,895,1030,0,0
-322,-6,0,0,0,0,0,0,0,0,0,-1,902,1030,0,0
-315,-6,0,0,0,0,0,0,0,0,0,-1,909,1030,0,0
-308,-6,0,0,0,0,0,0,0,0,0,-1,916,1030,0,0
-301,-6,0,0,0,0,0,0,0,0,0,-1,923,1030,0,0
-294,-6,0,0,0,0,0,0,0,0,0,-1,930,1030,0,0
-287,-6,0,0,0,0,0,0,0,0,0,-1,937,1030,0,0
-280,-6,0,0,0,0,0,0,0,0,0,-1,944,1030,0,0
-273,-6,0,0,0,0,0,0,0,0,0,-1,951,1030,0,0
-266,-6,0,0,0,0,0,0,0,0,0,-1,958,1030,0,0
-259,-6,0,0,0,0,0,0,0,0,0,-1,965,1030,0,0
-252,-6,0,0,0,0,0,0,0,0,0,-1,972,1030,0,0
-245,-6,0,0,0,0,0,0,0,0,0,-1,979,1030,0,0
-238,-6,0,0,0,0,0,0,0,0,0,-1,986,1030,0,0
-231,-6,0,0,0,0,0,0,0,0,0,-1,993,1030,0,0
-224,-6,0,0,0,0,0,0,0,0,0,-1,1000,1030,0,0
-217,-6,0,0,0,0,0,0,0,0,0,-1,1007,1030,0,0
-210,-6,0,0,0,0,0,0,0,0,0,-1,1014,1030,0,0
-203,-6,0,0,0,0,0,0,0,0,0,-1,1021,1030,0,0
-196,-6,0,0,0,0,0,0,0,0,0,-1,1028,1030,0,0
-189,-6,0,0,0,0,0,0,0,0,0,-1,1035,1030,0,0
-182,-6,0,0,0,0,0,0,0,0,0,-1,1042,1030,0,0
-175,-6,0,0,0,0,0,0,0,0,0,-1,1049,1030,0,0
-168,-6,0,0,0,0,0,0,0,0,0,-1,1056,1030,0,0
-161,-6,0,0,0,0,0,0,0,0,0,-1,1063,1030,0,0
-154,-6,0,0,0,0,0,0,0,0,0,-1,1070,1030,0,0
-147,-6,0,0,0,0,0,0,0,0,0,-1,1077,1030,0,0
-140,-6,0,0,0,0,0,0,0,0,0,-1,1084,1030,0,0
-133,-6,0,0,0,0,0,0,0,0,0,-1,1091,1030,0,0
-126,-6,0,0,0,0,0,0,0,0,0,-1,1098,1030,0,0
-119,-6,0,0,0,0,0,0,0,0,0,-1,1105,1030,0,0
-112,-6,0,0,0,0,0,0,0,0,0,-1,1112,1030,0,0
-105,-6,0,0,0,0,0,0,0,0,0,-1,1119,1030,0,0
-98,-6,0,0,0,0,0,0,0,0,0,-1,1126,1030,0,0
-91,-6,0,0,0,0,0,0,0,0,0,-1,1133,1030,0,0
-84,-6,0,0,0,0,0,0,0,0,0,-1,1140,1030,0,0
-77,-6,0,0,0,0,0,0,0,0,0,-1,1147,1030,0,0
-70,-6,0,0,0,0,0,0,0,0,0,-1,1154,1030,0,0
-63,-6,0,0,0,0,0,0,0,0,0,-1,1161,1030,0,0
-56,-6,0,0,0,0,0,0,0,0,0,-1,1168,1030,0,0
-49,-6,0,0,0,0,0,0,0,0,0,-1,1175,1030,0,0
-42,-6,0,0,0,0,0,0,0,0,0,-1,1182,1030,0,0
-35,-6,0,0,0,0,0,0,0,0,0,-1,1189,1030,0,0
-28,-6,0,0,0,0,0,0,0,0,0,-1,1196,1030,0,0
-21,-6,0,0,0,0,0,0,0,0,0,-1,1203,1030,0,0
-14,-6,0,0,0,0,0,0,0,0,0,-1,1210,1030,0,0
-7,-6,0,0,0,0,0,0,0,0,0,-1,1217,1030,0,0
0,-6,0,0,0,0,0,0,0,0,0,-1,1224,1030,0,0
7,-6,0,0,0,0,0,0,0,0,0,-1,1231,1030,0,0
14,-6,0,0,0,0,0,0,0,0,0,-1,1238,1030,0,0
21,-6,0,0,0,0,0,0,0,0,0,-1,1245,1030,0,0
28,-6,0,0,0,0,0,0,0,0,0,-1,1252,1030,0,0
35,-6,0,0,0,0,0,0,0,0,0,-1,1259,1030,0,0
42,-6,0,0,0,0,0,0,0,0,0,-1,1266,1030,0,0
49,-6,0,0,0,0,0,0,0,0,0,-1,1273,1030,0,0
56,-6,0,0,0,0,0,0,0,0,0,-1,1280,1030,0,0
63,-6,0,0,0,0,0,0,0,0,0,-1,1287,1030,0,0
70,-6,0,0,0,0,0,0,0,0,0,-1,1294,1030,0,0
77,-6,0,0,0,0,0,0,0,0,0,-1,1301,1030,0,0
84,-6,0,0,0,0,0,0,0,0,0,-1,1308,1030,0,0
91,-6,0,0,0,0,0,0,0,0,0,-1,1315,1030,0,0
98,-6,0,0,0,0,0,0,0,0,0,-1,1322,1030,0,0
105,-6,0,0,0,0,0,0,0,0,0,-1,1329,1030,0,0
112,-6,0,0,0,0,0,0,0,0,0,-1,1336,1030,0,0
119,-6,0,0,0,0,0,0,0,0,0,-1,1343,1030,0,0
126,-6,0,0,0,0,0,0,0,0,0,-1,1350,1030,0,0
133,-6,0,0,0,0,0,0,0,0,0,-1,1357,1030,0,0
140,-6,0,0,0,0,0,0,0,0,0,-1,1364,1030,0,0
147,-6,0,0,0,0,0,0,0,0,0,-1,1371,1030,0,0
154,-6,0,0,0,0,0,0,0,0,0,-1,1378,1030,0,0
161,-6,0,0,0,0,0,0,0,0,0,-1,1385,1030,0,0
168,-6,0,0,0,0,0,0,0,0,0,-1,1392,1030,0,0
175,-6,0,0,0,0,0,0,0,0,0,-1,1399,1030,0,0
182,-6,0,0,0,0,0,0,0,0,0,-1,1406,1030,0,0
189,-6,0,0,0,0,0,0,0,0,0,-1,1413,1030,0,0
196,-6,0,0,0,0,0,0,0,0,0,-1,1420,1030,0,0
203,-6,0,0,0,0,0,0,0,0,0,-1,1427,1030,0,0
210,-6,0,0,0,0,0,0,0,0,0,-1,1434,1030,0,0
217,-6,0,0,0,0,0,0,0,0,0,-1,1441,1030,0,0
224,-6,0,0,0,0,0,0,0,0,0,-1,1448,1030,0,0
231,-6,0,0,0,0,0,0,0,0,0,-1,1455,1030,0,0
238,-6,0,0,0,0,0,0,0,0,0,-1,1462,1030,0,0
245,-6,0,0,0,0,0,0,0,0,0,-1,1469,1030,0,0
252,-6,0,0,0,0,0,0,0,0,0,-1,1476,1030,0,0
259,-6,0,0,0,0,0,0,0,0,0,-1,1483,1030,0,0
266,-6,0,0,0,0,0,0,0,0,0,-1,1490,1030,0,0
273,-6,0,0,0,0,0,0,0,0,0,-1,1497,1030,0,0
280,-6,0,0,0,0,0,0,0,0,0,-1,1504,1030,0,0
287,-6,0,0,0,0,0,0,0,0,0,-1,1511,1030,0,0
294,-6,0,0,0,0,0,0,0,0,0,-1,1518,1030,0,0
301,-6,0,0,0,0,0,0,0,0,0,-1,1525,1030,0,0
308,-6,0,0,0,0,0,0,0,0,0,-1,1532,1030,0,0
315,-6,0,0,0,0,0,0,0,0,0,-1,1539,1030,0,0
322,-6,0,0,0,0,0,0,0,0,0,-1,1546,1030,0,0
329,-6,0,0,0,0,0,0,0,0,0,-1,1553,1030,0,0
336,-6,0,0,0,0,0,0,0,0,0,-1,1560,1030,0,0
343,-6,0,0,0,0,0,0,0,0,0,-1,1567,1030,0,0
350,-6,0,0,0,0,0,0,0,0,0,-1,1574,1030,0,0
357,-6,0,0,0,0,0,0,0,0,0,-1,1581,1030,0,0
364,-6,0,0,0,0,0,0,0,0,0,-1,1588,1030,0,0
371,-6,0,0,0,0,0,0,0,0,0,-1,1595,1030,0,0
378,-6,0,0,0,0,0,0,0,0,0,-1,1602,1030,0,0
385,-6,0,0,0,0,0,0,0,0,0,-1,1609,1030,0,0
392,-6,0,0,0,0,0,0,0,0,0,-1,1616,1030,0,0
399,-6,0,0,0,0,0,0,0,0,0,-1,1623,1030,0,0
406,-6,0,0,0,0,0,0,0,0,0,-1,1630,1030,0,0
413,-6,0,0,0,0,0,0,0,0,0,-1,1637,1030,0,0
420,-6,0,0,0,0,0,0,0,0,0,-1,1644,1030,0,0
427,-6,0,0,0,0,0,0,0,0,0,-1,1651,1030,0,0
434,-6,0,0,0,0,0,0,0,0,0,-1,1658,1030,0,0
441,-6,0,0,0,0,0,0,0,0,0,-1,1665,1030,0,0
448,-6,0,0,0,0,0,0,0,0,0,-1,1672,1030,0,0
455,-6,0,0,0,0,0,0,0,0,0,-1,1679,1030,0,0
462,-6,0,0,0,0,0,0,0,0,0,-1,1686,1030,0,0
469,-6,0,0,0,0,0,0,0,0,0,-1,1693,1030,0,0
476,-6,0,0,0,0,0,0,0,0,0,-1,1700,1030,0,0
483,-6,0,0,0,0,0,0,0,0,0,-1,1707,1030,0,0
490,-6,0,0,0,0,0,0,0,0,0,-1,1714,1030,0,0
497,-6,0,0,0,0,0,0,0,0,0,-1,1721,1030,0,0
504,-6,0,0,0,0,0,0,0,0,0,-1,1728,1030,0,0
511,-6,0,0,0,0,0,0,0,0,0,-1,1735,1030,0,0
518,-6,0,0,0,0,0,0,0,0,0,-1,1742,1030,0,0
525,-6,0,0,0,0,0,0,0,0,0,-1,1749,1030,0,0
532,-6,0,0,0,0,0,0,0,0,0,-1,1756,1030,0,0
539,-6,0,0,0,0,0,0,0,0,0,-1,1763,1030,0,0
546,-6,0,0,0,0,0,0,0,0,0,-1,1770,1030,0,0
553,-6,0,0,0,0,0,0,0,0,0,-1,1777,1030,0,0
560,-6,0,0,0,0,0,0,0,0,0,-1,1784,1030,0,0
567,-6,0,0,0,0,0,0,0,0,0,-1,1791,1030,0,0
574,-6,0,0,0,0,0,0,0,0,0,-1,1798,1030,0,0
581,-6,0,0,0,0,0,0,0,0,0,-1,1805,1030,0,0
588,-6,0,0,0,0,0,0,0,0,0,-1,1812,1030,0,0
595,-6,0,0,0,0,0,0,0,0,0,-1,1819,1030,0,0
602,-6,0,0,0,0,0,0,0,0,0,-1,1826,1030,0,0
609,-6,0,0,0,0,0,0,0,0,0,-1,1833,1030,0,0
616,-6,0,0,0,0,0,0,0,0,0,-1,1840,1030,0,0
623,-6,0,0,0,0,0,0,0,0,0,-1,1847,1030,0,0
630,-6,0,0,0,0,0,0,0,0,0,-1,1854,1030,0,0
637,-6,0,0,0,0,0,0,0,0,0,-1,1861,1030,0,0
644,-6,0,0,0,0,0,0,0,0,0,-1,1868,1030,0,0
651,-6,64.9037,2.77747,-0.003138,0.00332254,0.000836447,0.00342908,-0.00324454,1.44411,0.0038535,0.0383288,1875,1030,64.9037,-2.77753
658,-6,64.9076,2.79175,-0.00240732,0.00266634,-0.000137257,0.00267005,-0.00241104,-1.54377,0.00293484,0.043448,1882,1030,64.9076,-2.79172
665,-6,64.9409,2.53638,-0.00182373,0.00219191,-0.000627808,0.00228777,-0.0019196,-1.41927,0.00243223,0.0473661,1889,1030,64.9409,-2.53639
672,-6,64.9175,2.58838,-0.00140467,0.00182824,-0.000750145,0.00199382,-0.00157025,-1.35355,0.00206255,0.0422476,1896,1030,64.9174,-2.58842
679,-6,64.817,2.64795,-0.00106427,0.00152429,-0.00062657,0.00166798,-0.00120795,-1.34537,0.00166749,0.0388947,1903,1030,64.817,-2.64793
686,-6,64.7512,2.52197,-0.0011067,0.00103399,-0.000350392,0.00108988,-0.00116259,-1.41261,0.00130069,0.036431,1910,1030,64.7513,-2.522
693,-6,64.8242,2.63037,-0.00119911,0.000496487,5.23914e-05,0.000498104,-0.00120072,1.53994,0.00100839,0.0353438,1917,1030,64.8242,-2.63041
700,-6,64.855,2.71082,-0.00121788,0.000101255,0.000416805,0.000221915,-0.00133854,1.28901,0.000974786,0.0322647,1924,1030,64.855,-2.71076
707,-6,64.7947,2.60803,-0.00171922,0.00023761,0.000556661,0.00038488,-0.00186649,1.31216,0.00139049,0.0293268,1931,1030,64.7946,-2.60809
714,-6,64.8185,2.42761,-0.00258307,0.000843676,0.000674501,0.000971661,-0.00271106,1.38328,0.00220385,0.0396579,1938,1030,64.8185,-2.42757
721,-6,64.8772,2.14429,0,0,0,0,0,0,0,-1,1945,1030,64.8772,-2.14425
728,-6,53.1713,6.25494,0,0,0,0,0,0,0,-1,1952,1030,53.1713,-6.25495
735,-6,64.6918,6.90344,0,0,0,0,0,0,0,-1,1959,1030,64.6917,-6.90345
742,-6,64.8616,7.06482,0,0,0,0,0,0,0,-1,1966,1030,64.8615,-7.06485
749,-6,64.8483,6.61945,0,0,0,0,0,0,0,-1,1973,1030,64.8483,-6.61943
756,-6,64.8665,6.70886,-0.00651391,0.0110967,0.000794676,0.0111325,-0.0065497,1.52579,0.0103225,0.033884,1980,1030,64.8664,-6.70884
763,-6,64.6985,6.54791,-0.00567866,0.0144872,0.000880024,0.0145255,-0.00571699,1.52727,0.0120502,0.0214132,1987,1030,64.6984,-6.54793
770,-6,64.6262,6.46027,-0.00267472,0.0186277,0.00131233,0.0187083,-0.00275526,1.5095,0.0134848,0.0186996,1994,1030,64.6263,-6.46024
777,-6,64.4661,6.38293,0.00268974,0.0228131,0.00235475,0.023085,0.00241787,1.45585,0.0146507,0.0213932,2001,1030,64.466,-6.38296
784,-6,64.3481,6.23285,0.0100317,0.0263334,0.00399524,0.0272599,0.00910522,1.34292,0.016025,0.0486816,2008,1030,64.3481,-6.23285
791,-6,64.2397,6.09106,0,0,0,0,0,0,0,-1,2015,1030,64.2398,-6.09109
798,-6,65.8225,4.82227,0,0,0,0,0,0,0,-1,2022,1030,65.8224,-4.82223
805,-6,63.4541,3.39941,0,0,0,0,0,0,0,-1,2029,1030,63.454,-3.39945
812,-6,63.4651,3.34375,0,0,0,0,0,0,0,-1,2036,1030,63.4651,-3.34369
-700,-13,0,0,0,0,0,0,0,0,0,-1,524,1037,0,0
-693,-13,-49.3738,-1.45691,0.0184365,-0.147154,0.0563929,0.0358171,-0.164535,0.298968,0.123374,0.0468135,531,1037,-49.3738,1.45691
-686,-13,-49.4472,-0.536987,0.0256591,-0.100924,0.0528815,0.0448435,-0.120108,0.348015,0.098484,0.04401,538,1037,-49.4472,0.536988
-679,-13,-49.3802,-0.0264893,0.0266603,-0.065706,0.0475027,0.0467296,-0.0857753,0.399741,0.077601,0.0455906,545,1037,-49.3802,0.0264472
-672,-13,-49.6622,1.05359,0,0,0,0,0,0,0,-1,552,1037,-49.6622,-1.05364
-665,-13,-49.535,1.86072,0.0210135,-0.0195866,0.0351596,0.0413126,-0.0398857,0.523592,0.0468823,0.0474303,559,1037,-49.535,-1.86072
-658,-13,-49.4968,2.60107,0.0168008,-0.00599635,0.0289771,0.0365406,-0.0257362,0.598012,0.0361355,0.0479554,566,1037,-49.4968,-2.60112
-651,-13,-49.5191,3.50989,0.0125632,0.00261515,0.0230498,0.0311695,-0.0159911,0.67913,0.0276943,0.0421395,573,1037,-49.5191,-3.50986
-644,-13,-49.3679,3.92212,0.00863514,0.00810732,0.0174325,0.0258058,-0.00906331,0.777829,0.0208909,0.035598,580,1037,-49.3679,-3.92215
-637,-13,-49.4899,4.10449,0.00508631,0.0109275,0.0117199,0.0200852,-0.0040714,0.907511,0.0149334,0.0287793,587,1037,-49.49,-4.10451
-630,-13,-49.6573,4.13708,0.00233738,0.0114008,0.00723823,0.0154089,-0.00167072,1.06509,0.0108724,0.0181376,594,1037,-49.6574,-4.13703
-623,-13,-49.6998,4.32104,0.000387289,0.00919544,0.0039593,0.0107135,-0.0011308,1.20466,0.00754757,0.0153425,601,1037,-49.6997,-4.32109
-616,-13,-49.6818,4.5177,-0.000509448,0.00562114,0.00137062,0.00591361,-0.000801926,1.36056,0.0042351,0.0138994,608,1037,-49.6818,-4.51767
-609,-13,-49.637,4.69141,-0.000769414,0.0031225,-0.000635151,0.00322353,-0.000870446,-1.41305,0.0024904,0.0178171,615,1037,-49.637,-4.69145
-602,-13,-49.6114,4.8147,-0.000855874,0.00139219,-0.00157685,0.00220462,-0.0016683,-1.09504,0.00224317,0.013477,622,1037,-49.6114,-4.81471
-595,-13,-49.6318,4.92432,0,0,0,0,0,0,0,-1,629,1037,-49.6318,-4.92426
-588,-13,-49.1378,0.763062,0,0,0,0,0,0,0,-1,636,1037,-49.1377,-0.763001
-581,-13,-49.1002,0.798096,0.000490584,-0.00153153,-0.00143015,0.00123098,-0.00227192,-0.477708,0.00205195,0.0203742,643,1037,-49.1002,-0.798146
-574,-13,-49.0644,0.933594,0.000753327,-0.00168881,-0.00102477,0.00112636,-0.00206184,-0.349107,0.00186693,0.0299562,650,1037,-49.0644,-0.933608
-567,-13,-48.9872,0.891357,0.000663892,-0.00137394,-0.000423569,0.000748425,-0.00145847,-0.196986,0.00129595,0.0383693,657,1037,-48.9873,-0.891388
-560,-13,-48.9335,0.610474,0.000317548,-0.000684304,0.000390136,0.000451549,-0.000818305,0.330849,0.000743274,0.0446751,664,1037,-48.9335,-0.610422
-553,-13,-49.0233,0.612793,-0.00027304,0.00013851,0.00138721,0.00133512,-0.00146965,0.85903,0.00161996,0.043968,671,1037,-49.0233,-0.612822
-546,-13,-49.249,0.876831,-0.0010297,0.000701436,0.0025388,0.00251816,-0.00284643,0.949687,0.00309918,0.0402563,678,1037,-49.249,-0.876846
-539,-13,-49.1732,1.17505,-0.00216292,0.000593274,0.00341156,0.00289457,-0.00446421,0.977351,0.00428069,0.0415008,685,1037,-49.1732,-1.17499
-532,-13,-49.2619,1.04016,-0.0030093,0.000574995,0.00440568,0.00353909,-0.00597339,0.978567,0.00555165,0.0417109,692,1037,-49.2619,-1.04016
-525,-13,0,0,0,0,0,0,0,0,0,-1,699,1037,0,0
-518,-13,0,0,0,0,0,0,0,0,0,-1,706,1037,0,0
-511,-13,0,0,0,0,0,0,0,0,0,-1,713,1037,0,0
-504,-13,0,0,0,0,0,0,0,0,0,-1,720,1037,0,0
-497,-13,0,0,0,0,0,0,0,0,0,-1,727,1037,0,0
-490,-13,0,0,0,0,0,0,0,0,0,-1,734,1037,0,0
-483,-13,0,0,0,0,0,0,0,0,0,-1,741,1037,0,0
-476,-13,0,0,0,0,0,0,0,0,0,-1,748,1037,0,0
-469,-13,0,0,0,0,0,0,0,0,0,-1,755,1037,0,0
-462,-13,0,0,0,0,0,0,0,0,0,-1,762,1037,0,0
-455,-13,0,0,0,0,0,0,0,0,0,-1,769,1037,0,0
-448,-13,0,0,0,0,0,0,0,0,0,-1,776,1037,0,0
-441,-13,0,0,0,0,0,0,0,0,0,-1,783,1037,0,0
-434,-13,0,0,0,0,0,0,0,0,0,-1,790,1037,0,0
-427,-13,0,0,0,0,0,0,0,0,0,-1,797,1037,0,0
-420,-13,0,0,0,0,0,0,0,0,0,-1,804,1037,0,0
-413,-13,0,0,0,0,0,0,0,0,0,-1,811,1037,0,0
-406,-13,0,0,0,0,0,0,0,0,0,-1,818,1037,0,0
-399,-13,0,0,0,0,0,0,0,0,0,-1,825,1037,0,0
-392,-13,0,0,0,0,0,0,0,0,0,-1,832,1037,0,0
-385,-13,0,0,0,0,0,0,0,0,0,-1,839,1037,0,0
-378,-13,0,0,0,0,0,0,0,0,0,-1,846,1037,0,0
-371,-13,0,0,0,0,0,0,0,0,0,-1,853,1037,0,0
-364,-13,0,0,0,0,0,0,0,0,0,-1,860,1037,0,0
-357,-13,0,0,0,0,0,0,0,0,0,-1,867,1037,0,0
-350,-13,0,0,0,0,0,0,0,0,0,-1,874,1037,0,0
-343,-13,0,0,0,0,0,0,0,0,0,-1,881,1037,0,0
-336,-13,0,0,0,0,0,0,0,0,0,-1,888,1037,0,0
-329,-13,0,0,0,0,0,0,0,0,0,-1,895,1037,0,0
-322,-13,0,0,0,0,0,0,0,0,0,-1,902,1037,0,0
-315,-13,0,0,0,0,0,0,0,0,0,-1,909,1037,0,0
-308,-13,0,0,0,0,0,0,0,0,0,-1,916,1037,0,0
-301,-13,0,0,0,0,0,0,0,0,0,-1,923,1037,0,0
-294,-13,0,0,0,0,0,0,0,0,0,-1,930,1037,0,0
-287,-13,0,0,0,0,0,0,0,0,0,-1,937,1037,0,0
-280,-13,0,0,0,0,0,0,0,0,0,-1,944,1037,0,0
-273,-13,0,0,0,0,0,0,0,0,0,-1,951,1037,0,0
-266,-13,0,0,0,0,0,0,0,0,0,-1,958,1037,0,0
-259,-13,0,0,0,0,0,0,0,0,0,-1,965,1037,0,0
-252,-13,0,0,0,0,0,0,0,0,0,-1,972,1037,0,0
-245,-13,0,0,0,0,0,0,0,0,0,-1,979,1037,0,0
-238,-13,0,0,0,0,0,0,0,0,0,-1,986,1037,0,0
-231,-13,0,0,0,0,0,0,0,0,0,-1,993,1037,0,0
-224,-13,0,0,0,0,0,0,0,0,0,-1,1000,1037,0,0
-217,-13,0,0,0,0,0,0,0,0,0,-1,1007,1037,0,0
-210,-13,0,0,0,0,0,0,0,0,0,-1,1014,1037,0,0
-203,-13,0,0,0,0,0,0,0,0,0,-1,1021,1037,0,0
-196,-13,0,0,0,0,0,0,0,0,0,-1,1028,1037,0,0
-189,-13,0,0,0,0,0,0,0,0,0,-1,1035,1037,0,0
-182,-13,0,0,0,0,0,0,0,0,0,-1,1042,1037,0,0
-175,-13,0,0,0,0,0,0,0,0,0,-1,1049,1037,0,0
-168,-13,0,0,0,0,0,0,0,0,0,-1,1056,1037,0,0
-161,-13,0,0,0,0,0,0,0,0,0,-1,1063,1037,0,0
-154,-13,0,0,0,0,0,0,0,0,0,-1,1070,1037,0,0
-147,-13,0,0,0,0,0,0,0,0,0,-1,1077,1037,0,0
-140,-13,0,0,0,0,0,0,0,0,0,-1,1084,1037,0,0
-133,-13,0,0,0,0,0,0,0,0,0,-1,1091,1037,0,0
-126,-13,0,0,0,0,0,0,0,0,0,-1,1098,1037,0,0
-119,-13,0,0,0,0,0,0,0,0,0,-1,1105,1037,0,0
-112,-13,0,0,0,0,0,0,0,0,0,-1,1112,1037,0,0
-105,-13,0,0,0,0,0,0,0,0,0,-1,1119,1037,0,0
-98,-13,0,0,0,0,0,0,0,0,0,-1,1126,1037,0,0
-91,-13,0,0,0,0,0,0,0,0,0,-1,1133,1037,0,0
-84,-13,0,0,0,0,0,0,0,0,0,-1,1140,1037,0,0
-77,-13,0,0,0,0,0,0,0,0,0,-1,1147,1037,0,0
-70,-13,0,0,0,0,0,0,0,0,0,-1,1154,1037,0,0
-63,-13,0,0,0,0,0,0,0,0,0,-1,1161,1037,0,0
-56,-13,0,0,0,0,0,0,0,0,0,-1,1168,1037,0,0
-49,-13,0,0,0,0,0,0,0,0,0,-1,1175,1037,0,0
-42,-13,0,0,0,0,0,0,0,0,0,-1,1182,1037,0,0
-35,-13,0,0,0,0,0,0,0,0,0,-1,1189,1037,0,0
-28,-13,0,0,0,0,0,0,0,0,0,-1,1196,1037,0,0
-21,-13,0,0,0,0,0,0,0,0,0,-1,1203,1037,0,0
-14,-13,0,0,0,0,0,0,0,0,0,-1,1210,1037,0,0
-7,-13,0,0,0,0,0,0,0,0,0,-1,1217,1037,0,0
0,-13,0,0,0,0,0,0,0,0,0,-1,1224,1037,0,0
7,-13,0,0,0,0,0,0,0,0,0,-1,1231,1037,0,0
14,-13,0,0,0,0,0,0,0,0,0,-1,1238,1037,0,0
21,-13,0,0,0,0,0,0,0,0,0,-1,1245,1037,0,0
28,-13,0,0,0,0,0,0,0,0,0,-1,1252,1037,0,0
35,-13,0,0,0,0,0,0,0,0,0,-1,1259,1037,0,0
42,-13,0,0,0,0,0,0,0,0,0,-1,1266,1037,0,0
49,-13,0,0,0,0,0,0,0,0,0,-1,1273,1037,0,0
56,-13,0,0,0,0,0,0,0,0,0,-1,1280,1037,0,0
63,-13,0,0,0,0,0,0,0,0,0,-1,1287,1037,0,0
70,-13,0,0,0,0,0,0,0,0,0,-1,1294,1037,0,0
77,-13,0,0,0,0,0,0,0,0,0,-1,1301,1037,0,0
84,-13,0,0,0,0,0,0,0,0,0,-1,1308,1037,0,0
91,-13,0,0,0,0,0,0,0,0,0,-1,1315,1037,0,0
98,-13,0,0,0,0,0,0,0,0,0,-1,1322,1037,0,0
105,-13,0,0,0,0,0,0,0,0,0,-1,1329,1037,0,0
112,-13,0,0,0,0,0,0,0,0,0,-1,1336,1037,0,0
119,-13,0,0,0,0,0,0,0,0,0,-1,1343,1037,0,0
126,-13,0,0,0,0,0,0,0,0,0,-1,1350,1037,0,0
133,-13,0,0,0,0,0,0,0,0,0,-1,1357,1037,0,0
140,-13,0,0,0,0,0,0,0,0,0,-1,1364,1037,0,0
147,-13,0,0,0,0,0,0,0,0,0,-1,1371,1037,0,0
154,-13,0,0,0,0,0,0,0,0,0,-1,1378,1037,0,0
161,-13,0,0,0,0,0,0,0,0,0,-1,1385,1037,0,0
168,-13,0,0,0,0,0,0,0,0,0,-1,1392,1037,0,0
175,-13,0,0,0,0,0,0,0,0,0,-1,1399,1037,0,0
182,-13,0,0,0,0,0,0,0,0,0,-1,1406,1037,0,0
189,-13,0,0,0,0,0,0,0,0,0,-1,1413,1037,0,0
196,-13,0,0,0,0,0,0,0,0,0,-1,1420,1037,0,0
203,-13,0,0,0,0,0,0,0,0,0,-1,1427,1037,0,0
210,-13,0,0,0,0,0,0,0,0,0,-1,1434,1037,0,0
217,-13,0,0,0,0,0,0,0,0,0,-1,1441,1037,0,0
224,-13,0,0,0,0,0,0,0,0,0,-1,1448,1037,0,0
231,-13,0,0,0,0,0,0,0,0,0,-1,1455,1037,0,0
238,-13,0,0,0,0,0,0,0,0,0,-1,1462,1037,0,0
245,-13,0,0,0,0,0,0,0,0,0,-1,1469,1037,0,0
252,-13,0,0,0,0,0,0,0,0,0,-1,1476,1037,0,0
259,-13,0,0,0,0,0,0,0,0,0,-1,1483,1037,0,0
266,-13,0,0,0,0,0,0,0,0,0,-1,1490,1037,0,0
273,-13,0,0,0,0,0,0,0,0,0,-1,1497,1037,0,0
280,-13,0,0,0,0,0,0,0,0,0,-1,1504,1037,0,0
287,-13,0,0,0,0,0,0,0,0,0,-1,1511,1037,0,0
294,-13,0,0,0,0,0,0,0,0,0,-1,1518,1037,0,0
301,-13,0,0,0,0,0,0,0,0,0,-1,1525,1037,0,0
308,-13,0,0,0,0,0,0,0,0,0,-1,1532,1037,0,0
315,-13,0,0,0,0,0,0,0,0,0,-1,1539,1037,0,0
322,-13,0,0,0,0,0,0,0,0,0,-1,1546,1037,0,0
329,-13,0,0,0,0,0,0,0,0,0,-1,1553,1037,0,0
336,-13,0,0,0,0,0,0,0,0,0,-1,1560,1037,0,0
343,-13,0,0,0,0,0,0,0,0,0,-1,1567,1037,0,0
350,-13,0,0,0,0,0,0,0,0,0,-1,1574,1037,0,0
357,-13,0,0,0,0,0,0,0,0,0,-1,1581,1037,0,0
364,-13,0,0,0,0,0,0,0,0,0,-1,1588,1037,0,0
371,-13,0,0,0,0,0,0,0,0,0,-1,1595,1037,0,0
378,-13,0,0,0,0,0,0,0,0,0,-1,1602,1037,0,0
385,-13,0,0,0,0,0,0,0,0,0,-1,1609,1037,0,0
392,-13,0,0,0,0,0,0,0,0,0,-1,1616,1037,0,0
399,-13,0,0,0,0,0,0,0,0,0,-1,1623,1037,0,0
406,-13,0,0,0,0,0,0,0,0,0,-1,1630,1037,0,0
413,-13,0,0,0,0,0,0,0,0,0,-1,1637,1037,0,0
420,-13,0,0,0,0,0,0,0,0,0,-1,1644,1037,0,0
427,-13,0,0,0,0,0,0,0,0,0,-1,1651,1037,0,0
434,-13,0,0,0,0,0,0,0,0,0,-1,1658,1037,0,0
441,-13,0,0,0,0,0,0,0,0,0,-1,1665,1037,0,0
448,-13,0,0,0,0,0,0,0,0,0,-1,1672,1037,0,0
455,-13,0,0,0,0,0,0,0,0,0,-1,1679,1037,0,0
462,-13,0,0,0,0,0,0,0,0,0,-1,1686,1037,0,0
469,-13,0,0,0,0,0,0,0,0,0,-1,1693,1037,0,0
476,-13,0,0,0,0,0,0,0,0,0,-1,1700,1037,0,0
483,-13,0,0,0,0,0,0,0,0,0,-1,1707,1037,0,0
490,-13,0,0,0,0,0,0,0,0,0,-1,1714,1037,0,0
497,-13,0,0,0,0,0,0,0,0,0,-1,1721,1037,0,0
504,-13,0,0,0,0,0,0,0,0,0,-1,1728,1037,0,0
511,-13,0,0,0,0,0,0,0,0,0,-1,1735,1037,0,0
518,-13,0,0,0,0,0,0,0,0,0,-1,1742,1037,0,0
525,-13,0,0,0,0,0,0,0,0,0,-1,1749,1037,0,0
532,-13,0,0,0,0,0,0,0,0,0,-1,1756,1037,0,0
539,-13,0,0,0,0,0,0,0,0,0,-1,1763,1037,0,0
546,-13,0,0,0,0,0,0,0,0,0,-1,1770,1037,0,0
553,-13,0,0,0,0,0,0,0,0,0,-1,1777,1037,0,0
560,-13,0,0,0,0,0,0,0,0,0,-1,1784,1037,0,0
567,-13,0,0,0,0,0,0,0,0,0,-1,1791,1037,0,0
574,-13,0,0,0,0,0,0,0,0,0,-1,1798,1037,0,0
581,-13,0,0,0,0,0,0,0,0,0,-1,1805,1037,0,0
588,-13,0,0,0,0,0,0,0,0,0,-1,1812,1037,0,0
595,-13,0,0,0,0,0,0,0,0,0,-1,1819,1037,0,0
602,-13,0,0,0,0,0,0,0,0,0,-1,1826,1037,0,0
609,-13,0,0,0,0,0,0,0,0,0,-1,1833,1037,0,0
616,-13,0,0,0,0,0,0,0,0,0,-1,1840,1037,0,0
623,-13,0,0,0,0,0,0,0,0,0,-1,1847,1037,0,0
630,-13,0,0,0,0,0,0,0,0,0,-1,1854,1037,0,0
637,-13,0,0,0,0,0,0,0,0,0,-1,1861,1037,0,0
644,-13,0,0,0,0,0,0,0,0,0,-1,1868,1037,0,0
651,-13,65.0765,2.58911,-0.00259556,0.00436417,0.00162173,0.00472351,-0.0029549,1.35274,0.00447216,0.0388527,1875,1037,65.0765,-2.58913
658,-13,64.7994,2.64807,-0.00196186,0.00343318,0.000511415,0.00348123,-0.00200991,1.47711,0.00320803,0.0456691,1882,1037,64.7995,-2.64809
665,-13,64.7805,2.55054,-0.00150176,0.00273109,-7.72521e-05,0.0027325,-0.00150317,-1.55255,0.00247956,0.0444773,1889,1037,64.7806,-2.55056
672,-13,64.9594,2.6344,-0.00119881,0.0021732,-0.000257781,0.00219279,-0.0012184,-1.49494,0.00199606,0.037595,1896,1037,64.9594,-2.63438
679,-13,64.8412,2.63074,-0.000981687,0.00170177,-0.000190564,0.00171523,-0.000995152,-1.50025,0.00158314,0.0369124,1903,1037,64.8411,-2.63071
686,-13,64.8052,2.52515,-0.00117389,0.00110165,4.25496e-05,0.00110244,-0.00117468,1.55211,0.00131492,0.0371836,1910,1037,64.8051,-2.52509
693,-13,64.7911,2.49866,-0.00138627,0.000499916,0.000416939,0.000587969,-0.00147433,1.36267,0.00122678,0.0369173,1917,1037,64.7911,-2.49865
700,-13,64.7799,2.57935,-0.00148576,7.6807e-05,0.000794015,0.000409464,-0.00181842,1.17406,0.00136933,0.0369363,1924,1037,64.7799,-2.57934
707,-13,64.8253,2.59424,-0.00200938,0.000156831,0.000958742,0.000520206,-0.00237275,1.20851,0.00178075,0.0325402,1931,1037,64.8253,-2.59421
714,-13,64.8062,2.72449,-0.00285127,0.000681984,0.00110067,0.000996812,-0.0031661,1.2922,0.00250988,0.0367969,1938,1037,64.8062,-2.72452
721,-13,64.6221,2.82788,0,0,0,0,0,0,0,-1,1945,1037,64.6221,-2.82791
728,-13,64.6964,7.03296,0,0,0,0,0,0,0,-1,1952,1037,64.6964,-7.03299
735,-13,64.6315,6.9679,-0.00601161,0.00459066,0.00128332,0.00474379,-0.00616474,1.45204,0.00631582,0.0380598,1959,1037,64.6315,-6.96785
742,-13,64.6437,6.8573,-0.00581835,0.0061589,0.00114303,0.00626701,-0.00592646,1.4765,0.00704082,0.0249663,1966,1037,64.6437,-6.85727
749,-13,64.752,6.74194,-0.00562848,0.00794744,0.00100402,0.00802129,-0.00570233,1.49737,0.00796096,0.0329981,1973,1037,64.7519,-6.74199
756,-13,64.7118,6.61731,-0.00535842,0.010391,0.00079642,0.0104312,-0.00539859,1.5204,0.009292,0.020934,1980,1037,64.7118,-6.61736
763,-13,64.6479,6.4696,-0.00377225,0.0135417,0.000532736,0.0135581,-0.00378863,1.54007,0.0105313,0.0290591,1987,1037,64.648,-6.46957
770,-13,64.5349,6.36267,0.000405632,0.0173263,0.000355553,0.0173337,0.000398164,1.5498,0.0114254,0.0241505,1994,1037,64.5349,-6.36266
777,-13,64.3591,6.17456,0.00752882,0.0211102,0.000486422,0.0211276,0.00751142,1.53504,0.0123666,0.0176702,2001,1037,64.3591,-6.1746
784,-13,64.333,5.93066,0.016801,0.0242199,0.000967289,0.0243439,0.016677,1.44325,0.0143723,0.0385275,2008,1037,64.3331,-5.93071
791,-13,64.9414,5.46936,0.030051,0.0259974,0.00206875,0.0309204,0.025128,0.397817,0.0189798,0.0463916,2015,1037,64.9414,-5.46932
798,-13,65.7075,5.25366,0.0490838,0.0258843,0.00439373,0.049888,0.02508,0.181039,0.028803,0.0471448,2022,1037,65.7076,-5.25365
805,-13,66.6045,5.16003,0,0,0,0,0,0,0,-1,2029,1037,66.6045,-5.16
812,-13,64.0383,5.31348,0,0,0,0,0,0,0,-1,2036,1037,64.0383,-5.3135
-700,-20,-49.5638,-1.20984,0,0,0,0,0,0,0,-1,524,1044,-49.5638,1.20981
-693,-20,-49.5945,-0.360718,0.0181753,-0.130946,0.0615894,0.0403232,-0.153094,0.345206,0.117827,0.0416812,531,1044,-49.5946,0.360659
-686,-20,-49.6465,0.502075,0.0251543,-0.0887128,0.0579806,0.0494807,-0.113039,0.397255,0.096193,0.0425805,538,1044,-49.6465,-0.502093
-679,-20,-49.4004,1.16284,0.0263975,-0.0564307,0.0522023,0.0516183,-0.0816515,0.450065,0.0775919,0.0463525,545,1044,-49.4004,-1.16284
-672,-20,-49.1291,1.60083,0,0,0,0,0,0,0,-1,552,1044,-49.1291,-1.60079
-665,-20,-49.284,2.24316,0.0215743,-0.0144225,0.0386879,0.0462456,-0.0390937,0.567679,0.0493283,0.0431759,559,1044,-49.284,-2.24318
-658,-20,-49.4402,2.52136,0.017734,-0.00232222,0.0318536,0.0411008,-0.025689,0.6329,0.0389018,0.0474811,566,1044,-49.4403,-2.52133
-651,-20,-49.3127,3.1698,0.0137761,0.00508848,0.0252915,0.0350941,-0.0162295,0.700353,0.0302916,0.0422695,573,1044,-49.3127,-3.1698
-644,-20,-49.2078,3.61694,0.0100193,0.00961787,0.0190379,0.0288575,-0.00922033,0.780127,0.022938,0.0294888,580,1044,-49.2078,-3.61694
-637,-20,-49.2905,3.7804,0.00650722,0.0116559,0.0127476,0.0220865,-0.00392337,0.885031,0.0161913,0.0208405,587,1044,-49.2905,-3.78039
-630,-20,-49.4026,4.02612,0.00370903,0.0115301,0.00781528,0.0163586,-0.00111947,1.01737,0.0112974,0.0171397,594,1044,-49.4026,-4.02608
-623,-20,-49.449,4.28857,0.00158896,0.00904846,0.00421447,0.0109466,-0.000309148,1.14763,0.00740291,0.0154632,601,1044,-49.4491,-4.28856
-616,-20,-49.452,4.51392,0.00061135,0.00537266,0.00126902,0.00568977,0.000294238,1.32593,0.003699,0.0148746,608,1044,-49.452,-4.51393
-609,-20,-49.4624,4.70715,0.00029778,0.00273629,-0.00101578,0.00310398,-6.99094e-05,-1.22349,0.00209301,0.015643,615,1044,-49.4624,-4.70711
-602,-20,-49.4418,4.8551,-4.35428e-05,0.00104183,-0.00209106,0.00265948,-0.00166119,-0.912361,0.00251663,0.0140788,622,1044,-49.4418,-4.85514
-595,-20,-49.4094,4.98669,-6.97062e-05,-0.000292147,-0.00236454,0.00218623,-0.00254808,-0.761897,0.00273601,0.0460983,629,1044,-49.4094,-4.98675
-588,-20,-49.1948,4.91321,0,0,0,0,0,0,0,-1,636,1044,-49.1948,-4.91317
-581,-20,-49.0726,0.832275,0.00104089,-0.0016125,-0.0018848,0.0020191,-0.00259071,-0.478732,0.00266829,0.0268023,643,1044,-49.0726,-0.832273
-574,-20,-49.0424,1.02502,0.00131282,-0.00173736,-0.00142177,0.00187276,-0.0022973,-0.375176,0.00241174,0.0359532,650,1044,-49.0424,-1.02508
-567,-20,-48.9005,1.12488,0.00125708,-0.00141063,-0.000755483,0.00145617,-0.00160972,-0.25767,0.00177083,0.0433691,657,1044,-48.9005,-1.12483
-560,-20,-48.8453,0.817505,0.000970068,-0.000710216,0.000149307,0.000983232,-0.00072338,0.0879399,0.000989113,0.0465304,664,1044,-48.8453,-0.817546
-553,-20,-48.9537,0.702515,0.000504736,0.000143233,0.00126802,0.00160482,-0.000956851,0.714602,0.00149467,0.0415486,671,1044,-48.9537,-0.702457
-546,-20,-49.2197,0.863647,-2.25412e-05,0.000797699,0.00256751,0.00298764,-0.00221248,0.864596,0.00301339,0.040068,678,1044,-49.2197,-0.863596
-539,-20,-49.2651,1.02344,-0.000788754,0.000824467,0.00354162,0.00365017,-0.00361446,0.897364,0.00419426,0.0417512,685,1044,-49.2651,-1.02348
-532,-20,-49.297,0.990967,-0.00130404,0.000955706,0.00464007,0.00460149,-0.00494982,0.904826,0.00551568,0.0410985,692,1044,-49.297,-0.990924
-525,-20,0,0,0,0,0,0,0,0,0,-1,699,1044,0,0
-518,-20,0,0,0,0,0,0,0,0,0,-1,706,1044,0,0
-511,-20,0,0,0,0,0,0,0,0,0,-1,713,1044,0,0
-504,-20,0,0,0,0,0,0,0,0,0,-1,720,1044,0,0
-497,-20,0,0,0,0,0,0,0,0,0,-1,727,1044,0,0
-490,-20,0,0,0,0,0,0,0,0,0,-1,734,1044,0,0
-483,-20,0,0,0,0,0,0,0,0,0,-1,741,1044,0,0
-476,-20,0,0,0,0,0,0,0,0,0,-1,748,1044,0,0
-469,-20,0,0,0,0,0,0,0,0,0,-1,755,1044,0,0
-462,-20,0,0,0,0,0,0,0,0,0,-1,762,1044,0,0
-455,-20,0,0,0,0,0,0,0,0,0,-1,769,1044,0,0
-448,-20,0,0,0,0,0,0,0,0,0,-1,776,1044,0,0
-441,-20,0,0,0,0,0,0,0,0,0,-1,783,1044,0,0
-434,-20,0,0,0,0,0,0,0,0,0,-1,790,1044,0,0
-427,-20,0,0,0,0,0,0,0,0,0,-1,797,1044,0,0
-420,-20,0,0,0,0,0,0,0,0,0,-1,804,1044,0,0
-413,-20,0,0,0,0,0,0,0,0,0,-1,811,1044,0,0
-406,-20,0,0,0,0,0,0,0,0,0,-1,818,1044,0,0
-399,-20,0,0,0,0,0,0,0,0,0,-1,825,1044,0,0
-392,-20,0,0,0,0,0,0,0,0,0,-1,832,1044,0,0
-385,-20,0,0,0,0,0,0,0,0,0,-1,839,1044,0,0
-378,-20,0,0,0,0,0,0,0,0,0,-1,846,1044,0,0
-371,-20,0,0,0,0,0,0,0,0,0,-1,853,1044,0,0
-364,-20,0,0,0,0,0,0,0,0,0,-1,860,1044,0,0
-357,-20,0,0,0,0,0,0,0,0,0,-1,867,1044,0,0
-350,-20,0,0,0,0,0,0,0,0,0,-1,874,1044,0,0
-343,-20,0,0,0,0,0,0,0,0,0,-1,881,1044,0,0
-336,-20,0,0,0,0,0,0,0,0,0,-1,888,1044,0,0
-329,-20,0,0,0,0,0,0,0,0,0,-1,895,1044,0,0
-322,-20,0,0,0,0,0,0,0,0,0,-1,902,1044,0,0
-315,-20,0,0,0,0,0,0,0,0,0,-1,909,1044,0,0
-308,-20,0,0,0,0,0,0,0,0,0,-1,916,1044,0,0
-301,-20,0,0,0,0,0,0,0,0,0,-1,923,1044,0,0
-294,-20,0,0,0,0,0,0,0,0,0,-1,930,1044,0,0
-287,-20,0,0,0,0,0,0,0,0,0,-1,937,1044,0,0
-280,-20,0,0,0,0,0,0,0,0,0,-1,944,1044,0,0
-273,-20,0,0,0,0,0,0,0,0,0,-1,951,1044,0,0
-266,-20,0,0,0,0,0,0,0,0,0,-1,958,1044,0,0
-259,-20,0,0,0,0,0,0,0,0,0,-1,965,1044,0,0
-252,-20,0,0,0,0,0,0,0,0,0,-1,972,1044,0,0
-245,-20,0,0,0,0,0,0,0,0,0,-1,979,1044,0,0
-238,-20,0,0,0,0,0,0,0,0,0,-1,986,1044,0,0
-231,-20,0,0,0,0,0,0,0,0,0,-1,993,1044,0,0
-224,-20,0,0,0,0,0,0,0,0,0,-1,1000,1044,0,0
-217,-20,0,0,0,0,0,0,0,0,0,-1,1007,1044,0,0
-210,-20,0,0,0,0,0,0,0,0,0,-1,1014,1044,0,0
-203,-20,0,0,0,0,0,0,0,0,0,-1,1021,1044,0,0
-196,-20,0,0,0,0,0,0,0,0,0,-1,1028,1044,0,0
-189,-20,0,0,0,0,0,0,0,0,0,-1,1035,1044,0,0
-182,-20,0,0,0,0,0,0,0,0,0,-1,1042,1044,0,0
-175,-20,0,0,0,0,0,0,0,0,0,-1,1049,1044,0,0
-168,-20,0,0,0,0,0,0,0,0,0,-1,1056,1044,0,0
-161,-20,0,0,0,0,0,0,0,0,0,-1,1063,1044,0,0
-154,-20,0,0,0,0,0,0,0,0,0,-1,1070,1044,0,0
-147,-20,0,0,0,0,0,0,0,0,0,-1,1077,1044,0,0
-140,-20,0,0,0,0,0,0,0,0,0,-1,1084,1044,0,0
-133,-20,0,0,0,0,0,0,0,0,0,-1,1091,1044,0,0
-126,-20,0,0,0,0,0,0,0,0,0,-1,1098,1044,0,0
-119,-20,0,0,0,0,0,0,0,0,0,-1,1105,1044,0,0
-112,-20,0,0,0,0,0,0,0,0,0,-1,1112,1044,0,0
-105,-20,0,0,0,0,0,0,0,0,0,-1,1119,1044,0,0
-98,-20,0,0,0,0,0,0,0,0,0,-1,1126,1044,0,0
-91,-20,0,0,0,0,0,0,0,0,0,-1,1133,1044,0,0
-84,-20,0,0,0,0,0,0,0,0,0,-1,1140,1044,0,0
-77,-20,0,0,0,0,0,0,0,0,0,-1,1147,1044,0,0
-70,-20,0,0,0,0,0,0,0,0,0,-1,1154,1044,0,0
-63,-20,0,0,0,0,0,0,0,0,0,-1,1161,1044,0,0
-56,-20,0,0,0,0,0,0,0,0,0,-1,1168,1044,0,0
-49,-20,0,0,0,0,0,0,0,0,0,-1,1175,1044,0,0
-42,-20,0,0,0,0,0,0,0,0,0,-1,1182,1044,0,0
-35,-20,0,0,0,0,0,0,0,0,0,-1,1189,1044,0,0
-28,-20,0,0,0,0,0,0,0,0,0,-1,1196,1044,0,0
-21,-20,0,0,0,0,0,0,0,0,0,-1,1203,1044,0,0
-14,-20,0,0,0,0,0,0,0,0,0,-1,1210,1044,0,0
-7,-20,0,0,0,0,0,0,0,0,0,-1,1217,1044,0,0
0,-20,0,0,0,0,0,0,0,0,0,-1,1224,1044,0,0
7,-20,0,0,0,0,0,0,0,0,0,-1,1231,1044,0,0
14,-20,0,0,0,0,0,0,0,0,0,-1,1238,1044,0,0
21,-20,0,0,0,0,0,0,0,0,0,-1,1245,1044,0,0
28,-20,0,0,0,0,0,0,0,0,0,-1,1252,1044,0,0
35,-20,0,0,0,0,0,0,0,0,0,-1,1259,1044,0,0
42,-20,0,0,0,0,0,0,0,0,0,-1,1266,1044,0,0
49,-20,0,0,0,0,0,0,0,0,0,-1,1273,1044,0,0
56,-20,0,0,0,0,0,0,0,0,0,-1,1280,1044,0,0
63,-20,0,0,0,0,0,0,0,0,0,-1,1287,1044,0,0
70,-20,0,0,0,0,0,0,0,0,0,-1,1294,1044,0,0
77,-20,0,0,0,0,0,0,0,0,0,-1,1301,1044,0,0
84,-20,0,0,0,0,0,0,0,0,0,-1,1308,1044,0,0
91,-20,0,0,0,0,0,0,0,0,0,-1,1315,1044,0,0
98,-20,0,0,0,0,0,0,0,0,0,-1,1322,1044,0,0
105,-20,0,0,0,0,0,0,0,0,0,-1,1329,1044,0,0
112,-20,0,0,0,0,0,0,0,0,0,-1,1336,1044,0,0
119,-20,0,0,0,0,0,0,0,0,0,-1,1343,1044,0,0
126,-20,0,0,0,0,0,0,0,0,0,-1,1350,1044,0,0
133,-20,0,0,0,0,0,0,0,0,0,-1,1357,1044,0,0
140,-20,0,0,0,0,0,0,0,0,0,-1,1364,1044,0,0
147,-20,0,0,0,0,0,0,0,0,0,-1,1371,1044,0,0
154,-20,0,0,0,0,0,0,0,0,0,-1,1378,1044,0,0
161,-20,0,0,0,0,0,0,0,0,0,-1,1385,1044,0,0
168,-20,0,0,0,0,0,0,0,0,0,-1,1392,1044,0,0
175,-20,0,0,0,0,0,0,0,0,0,-1,1399,1044,0,0
182,-20,0,0,0,0,0,0,0,0,0,-1,1406,1044,0,0
189,-20,0,0,0,0,0,0,0,0,0,-1,1413,1044,0,0
196,-20,0,0,0,0,0,0,0,0,0,-1,1420,1044,0,0
203,-20,0,0,0,0,0,0,0,0,0,-1,1427,1044,0,0
210,-20,0,0,0,0,0,0,0,0,0,-1,1434,1044,0,0
217,-20,0,0,0,0,0,0,0,0,0,-1,1441,1044,0,0
224,-20,0,0,0,0,0,0,0,0,0,-1,1448,1044,0,0
231,-20,0,0,0,0,0,0,0,0,0,-1,1455,1044,0,0
238,-20,0,0,0,0,0,0,0,0,0,-1,1462,1044,0,0
245,-20,0,0,0,0,0,0,0,0,0,-1,1469,1044,0,0
252,-20,0,0,0,0,0,0,0,0,0,-1,1476,1044,0,0
259,-20,0,0,0,0,0,0,0,0,0,-1,1483,1044,0,0
266,-20,0,0,0,0,0,0,0,0,0,-1,1490,1044,0,0
273,-20,0,0,0,0,0,0,0,0,0,-1,1497,1044,0,0
280,-20,0,0,0,0,0,0,0,0,0,-1,1504,1044,0,0
287,-20,0,0,0,0,0,0,0,0,0,-1,1511,1044,0,0
294,-20,0,0,0,0,0,0,0,0,0,-1,1518,1044,0,0
301,-20,0,0,0,0,0,0,0,0,0,-1,1525,1044,0,0
308,-20,0,0,0,0,0,0,0,0,0,-1,1532,1044,0,0
315,-20,0,0,0,0,0,0,0,0,0,-1,1539,1044,0,0
322,-20,0,0,0,0,0,0,0,0,0,-1,1546,1044,0,0
329,-20,0,0,0,0,0,0,0,0,0,-1,1553,1044,0,0
336,-20,0,0,0,0,0,0,0,0,0,-1,1560,1044,0,0
343,-20,0,0,0,0,0,0,0,0,0,-1,1567,1044,0,0
350,-20,0,0,0,0,0,0,0,0,0,-1,1574,1044,0,0
357,-20,0,0,0,0,0,0,0,0,0,-1,1581,1044,0,0
364,-20,0,0,0,0,0,0,0,0,0,-1,1588,1044,0,0
371,-20,0,0,0,0,0,0,0,0,0,-1,1595,1044,0,0
378,-20,0,0,0,0,0,0,0,0,0,-1,1602,1044,0,0
385,-20,0,0,0,0,0,0,0,0,0,-1,1609,1044,0,0
392,-20,0,0,0,0,0,0,0,0,0,-1,1616,1044,0,0
399,-20,0,0,0,0,0,0,0,0,0,-1,1623,1044,0,0
406,-20,0,0,0,0,0,0,0,0,0,-1,1630,1044,0,0
413,-20,0,0,0,0,0,0,0,0,0,-1,1637,1044,0,0
420,-20,0,0,0,0,0,0,0,0,0,-1,1644,1044,0,0
427,-20,0,0,0,0,0,0,0,0,0,-1,1651,1044,0,0
434,-20,0,0,0,0,0,0,0,0,0,-1,1658,1044,0,0
441,-20,0,0,0,0,0,0,0,0,0,-1,1665,1044,0,0
448,-20,0,0,0,0,0,0,0,0,0,-1,1672,1044,0,0
455,-20,0,0,0,0,0,0,0,0,0,-1,1679,1044,0,0
462,-20,0,0,0,0,0,0,0,0,0,-1,1686,1044,0,0
469,-20,0,0,0,0,0,0,0,0,0,-1,1693,1044,0,0
476,-20,0,0,0,0,0,0,0,0,0,-1,1700,1044,0,0
483,-20,0,0,0,0,0,0,0,0,0,-1,1707,1044,0,0
490,-20,0,0,0,0,0,0,0,0,0,-1,1714,1044,0,0
497,-20,0,0,0,0,0,0,0,0,0,-1,1721,1044,0,0
504,-20,0,0,0,0,0,0,0,0,0,-1,1728,1044,0,0
511,-20,0,0,0,0,0,0,0,0,0,-1,1735,1044,0,0
518,-20,0,0,0,0,0,0,0,0,0,-1,1742,1044,0,0
525,-20,0,0,0,0,0,0,0,0,0,-1,1749,1044,0,0
532,-20,0,0,0,0,0,0,0,0,0,-1,1756,1044,0,0
539,-20,0,0,0,0,0,0,0,0,0,-1,1763,1044,0,0
546,-20,0,0,0,0,0,0,0,0,0,-1,1770,1044,0,0
553,-20,0,0,0,0,0,0,0,0,0,-1,1777,1044,0,0
560,-20,0,0,0,0,0,0,0,0,0,-1,1784,1044,0,0
567,-20,0,0,0,0,0,0,0,0,0,-1,1791,1044,0,0
574,-20,0,0,0,0,0,0,0,0,0,-1,1798,1044,0,0
581,-20,0,0,0,0,0,0,0,0,0,-1,1805,1044,0,0
588,-20,0,0,0,0,0,0,0,0,0,-1,1812,1044,0,0
595,-20,0,0,0,0,0,0,0,0,0,-1,1819,1044,0,0
602,-20,0,0,0,0,0,0,0,0,0,-1,1826,1044,0,0
609,-20,0,0,0,0,0,0,0,0,0,-1,1833,1044,0,0
616,-20,0,0,0,0,0,0,0,0,0,-1,1840,1044,0,0
623,-20,0,0,0,0,0,0,0,0,0,-1,1847,1044,0,0
630,-20,0,0,0,0,0,0,0,0,0,-1,1854,1044,0,0
637,-20,0,0,0,0,0,0,0,0,0,-1,1861,1044,0,0
644,-20,0,0,0,0,0,0,0,0,0,-1,1868,1044,0,0
651,-20,64.8732,2.68359,-0.00163574,0.00538332,0.00238386,0.00611638,-0.0023688,1.27246,0.00505568,0.0401011,1875,1044,64.8732,-2.68353
658,-20,64.7114,2.7135,-0.00119992,0.00411659,0.00119914,0.00437454,-0.00145787,1.35891,0.00350489,0.0429148,1882,1044,64.7114,-2.71349
665,-20,64.7399,2.66479,-0.000935678,0.00315083,0.00053106,0.00321872,-0.00100356,1.44366,0.00254711,0.0387523,1889,1044,64.7399,-2.66484
672,-20,64.8491,2.62146,-0.0007927,0.00238206,0.000293369,0.00240895,-0.000819582,1.47942,0.00193782,0.0251185,1896,1044,64.8491,-2.62144
679,-20,64.813,2.58948,-0.00073031,0.00173628,0.000288236,0.00176952,-0.000763544,1.456,0.00150041,0.0273444,1903,1044,64.813,-2.58949
686,-20,64.8641,2.48755,-0.0010853,0.00102965,0.000474546,0.00113124,-0.0011869,1.35989,0.00133851,0.0370271,1910,1044,64.8642,-2.48755
693,-20,64.7754,2.35803,-0.00144422,0.00038139,0.00081161,0.000690029,-0.00175286,1.20741,0.00145422,0.0424716,1917,1044,64.7754,-2.35805
700,-20,64.7307,2.50476,-0.00165253,-5.37588e-05,0.00119188,0.000581986,-0.00228828,1.08079,0.00175204,0.039609,1924,1044,64.7307,-2.50471
707,-20,64.813,2.57458,-0.00219969,-2.12387e-05,0.00137946,0.000647184,-0.00286811,1.11958,0.00216036,0.0328841,1931,1044,64.813,-2.57462
714,-20,64.8071,2.80505,-0.00303012,0.000420761,0.00155152,0.00101574,-0.0036251,1.20461,0.00281703,0.0321772,1938,1044,64.8071,-2.80505
721,-20,64.6365,2.9093,0,0,0,0,0,0,0,-1,1945,1044,64.6365,-2.90928
728,-20,65.0753,7.11548,0,0,0,0,0,0,0,-1,1952,1044,65.0753,-7.11554
735,-20,64.7217,6.9917,-0.00585615,0.00408198,0.00167978,0.00435822,-0.0061324,1.4078,0.00608557,0.0338299,1959,1044,64.7216,-6.99173
742,-20,64.4323,6.75232,-0.0052913,0.00556866,0.00145342,0.00575981,-0.00548246,1.44003,0.00649138,0.0305508,1966,1044,64.4323,-6.75229
749,-20,64.572,6.67603,-0.0047645,0.00721965,0.00129253,0.00735747,-0.00490231,1.46457,0.00712534,0.0310276,1973,1044,64.572,-6.67605
756,-20,64.5636,6.57568,-0.00406703,0.00944114,0.000945343,0.00950697,-0.00413287,1.50127,0.00807615,0.0200317,1980,1044,64.5636,-6.57565
763,-20,64.4504,6.41357,-0.0019436,0.0122248,0.000359379,0.0122339,-0.00195271,1.54545,0.00887869,0.0297292,1987,1044,64.4505,-6.41356
770,-20,64.3384,6.32629,0.00280457,0.0154895,-0.00035464,0.0154994,0.00279467,-1.54287,0.00953885,0.0249161,1994,1044,64.3385,-6.32624
777,-20,64.1934,6.07056,0.010574,0.0186174,-0.00106718,0.0187565,0.0104348,-1.44111,0.010852,0.0168558,2001,1044,64.1933,-6.07057
784,-20,64.2009,5.86719,0.0201681,0.0209729,-0.00171764,0.0223346,0.0188063,-0.900472,0.0138641,0.0212105,2008,1044,64.201,-5.86718
791,-20,64.5193,5.62793,0.0331714,0.0217709,-0.00232855,0.0336287,0.0213136,-0.193906,0.0196458,0.0368381,2015,1044,64.5193,-5.62796
798,-20,64.9136,5.3606,0.0508667,0.0203838,-0.00264139,0.0510939,0.0201566,-0.0857994,0.0297171,0.0462676,2022,1044,64.9136,-5.36055
805,-20,65.2788,5.01086,0,0,0,0,0,0,0,-1,2029,1044,65.2789,-5.0109
812,-20,63.8494,4.83264,0,0,0,0,0,0,0,-1,2036,1044,63.8495,-4.83267
-700,-27,-49.6217,0.129883,0.0118365,-0.162911,0.0639502,0.0327392,-0.183814,0.315913,0.134788,0.044273,524,1051,-49.6217,-0.129861
-693,-27,-49.7867,0.707886,0.0238725,-0.113086,0.0647407,0.0496311,-0.138845,0.378671,0.112807,0.0449428,531,1051,-49.7867,-0.707914
-686,-27,-49.7984,1.70483,0.0293603,-0.0739631,0.0618621,0.0582955,-0.102898,0.437505,0.0942454,0.0468685,538,1051,-49.7984,-1.70478
-679,-27,-49.4157,2.32922,0,0,0,0,0,0,0,-1,545,1051,-49.4157,-2.32918
-672,-27,-49.5304,0.771606,0,0,0,0,0,0,0,-1,552,1051,-49.5304,-0.771594
-665,-27,-49.1426,1.94202,0.0238416,-0.00735277,0.0417206,0.0527852,-0.0362964,0.606518,0.0517241,0.0434893,559,1051,-49.1426,-1.94202
-658,-27,-49.2245,2.89038,0.0197195,0.00273666,0.0342973,0.0465609,-0.0241047,0.664047,0.0414798,0.0404502,566,1051,-49.2245,-2.89036
-651,-27,-49.0496,3.01001,0.0155596,0.00847385,0.0271557,0.0394025,-0.0153691,0.720532,0.0326214,0.0365223,573,1051,-49.0495,-3.00998
-644,-27,-49.0011,3.39514,0.0116478,0.0116327,0.0203529,0.0319932,-0.00871268,0.785213,0.0247496,0.0194995,580,1051,-49.0011,-3.39516
-637,-27,-49.0433,3.61926,0.00794908,0.0125819,0.0135829,0.0240445,-0.00351358,0.869854,0.0173201,0.0158265,587,1051,-49.0433,-3.61928
-630,-27,-49.1218,3.97461,0.00501191,0.0116632,0.00823988,0.0172232,-0.000548151,0.977202,0.0116692,0.0206267,594,1051,-49.1218,-3.97467
-623,-27,-49.1757,4.28625,0.00270037,0.00886949,0.00436319,0.0111283,0.000441535,1.09309,0.00727618,0.0179802,601,1051,-49.1757,-4.28625
-616,-27,-49.1763,4.55872,0.00161633,0.00515796,0.00110524,0.00547457,0.00129972,1.29181,0.00330285,0.0147884,608,1051,-49.1762,-4.55868
-609,-27,-49.1534,4.77393,0.00123968,0.00244176,-0.00145542,0.00341536,0.000266083,-0.981216,0.0021936,0.0138547,615,1051,-49.1534,-4.77392
-602,-27,-49.1173,4.99414,0.000715718,0.000794675,-0.00267458,0.00343007,-0.00191967,-0.792778,0.00312944,0.0146483,622,1051,-49.1173,-4.99409
-595,-27,-49.198,5.18091,0.000590676,-0.000480726,-0.00297339,0.00307623,-0.00296628,-0.696272,0.00348884,0.0203508,629,1051,-49.198,-5.18091
-588,-27,-49.4418,5.30969,0,0,0,0,0,0,0,-1,636,1051,-49.4418,-5.30973
-581,-27,-49.0497,0.827759,0.00165602,-0.00165092,-0.0024155,0.00292976,-0.00292467,-0.485266,0.00338006,0.0211682,643,1051,-49.0498,-0.827772
-574,-27,-49.0537,1.00281,0.00193976,-0.00174749,-0.00190774,0.00274914,-0.00255687,-0.401244,0.00306409,0.0349574,650,1051,-49.0537,-1.00284
-567,-27,-48.9014,1.10059,0.00191588,-0.00143035,-0.00118356,0.00229218,-0.00180665,-0.307837,0.00237199,0.0444787,657,1051,-48.9014,-1.10064
-560,-27,-48.7911,1.13159,0.00166437,-0.000763734,-0.000189093,0.00167901,-0.000778371,-0.077256,0.00145018,0.0469743,664,1051,-48.7911,-1.13159
-553,-27,-48.7123,1.18884,0,0,0,0,0,0,0,-1,671,1051,-48.7123,-1.18889
-546,-27,-49.1111,0.854736,0,0,0,0,0,0,0,-1,678,1051,-49.1111,-0.854782
-539,-27,-49.1409,0.878296,0.000369398,0.000717307,0.00366914,0.00421661,-0.00312991,0.809085,0.00425696,0.0422706,685,1051,-49.1409,-0.878314
-532,-27,-49.1211,0.96814,8.43223e-05,0.000905457,0.00491619,0.0054282,-0.00443842,0.827058,0.00570604,0.0401216,692,1051,-49.1211,-0.968139
-525,-27,0,0,0,0,0,0,0,0,0,-1,699,1051,0,0
-518,-27,0,0,0,0,0,0,0,0,0,-1,706,1051,0,0
-511,-27,0,0,0,0,0,0,0,0,0,-1,713,1051,0,0
-504,-27,0,0,0,0,0,0,0,0,0,-1,720,1051,0,0
-497,-27,0,0,0,0,0,0,0,0,0,-1,727,1051,0,0
-490,-27,0,0,0,0,0,0,0,0,0,-1,734,1051,0,0
-483,-27,0,0,0,0,0,0,0,0,0,-1,741,1051,0,0
-476,-27,0,0,0,0,0,0,0,0,0,-1,748,1051,0,0
-469,-27,0,0,0,0,0,0,0,0,0,-1,755,1051,0,0
-462,-27,0,0,0,0,0,0,0,0,0,-1,762,1051,0,0
-455,-27,0,0,0,0,0,0,0,0,0,-1,769,1051,0,0
-448,-27,0,0,0,0,0,0,0,0,0,-1,776,1051,0,0
-441,-27,0,0,0,0,0,0,0,0,0,-1,783,1051,0,0
-434,-27,0,0,0,0,0,0,0,0,0,-1,790,1051,0,0
-427,-27,0,0,0,0,0,0,0,0,0,-1,797,1051,0,0
-420,-27,0,0,0,0,0,0,0,0,0,-1,804,1051,0,0
-413,-27,0,0,0,0,0,0,0,0,0,-1,811,1051,0,0
-406,-27,0,0,0,0,0,0,0,0,0,-1,818,1051,0,0
-399,-27,0,0,0,0,0,0,0,0,0,-1,825,1051,0,0
-392,-27,0,0,0,0,0,0,0,0,0,-1,832,1051,0,0
-385,-27,0,0,0,0,0,0,0,0,0,-1,839,1051,0,0
-378,-27,0,0,0,0,0,0,0,0,0,-1,846,1051,0,0
-371,-27,0,0,0,0,0,0,0,0,0,-1,853,1051,0,0
-364,-27,0,0,0,0,0,0,0,0,0,-1,860,1051,0,0
-357,-27,0,0,0,0,0,0,0,0,0,-1,867,1051,0,0
-350,-27,0,0,0,0,0,0,0,0,0,-1,874,1051,0,0
-343,-27,0,0,0,0,0,0,0,0,0,-1,881,1051,0,0
-336,-27,0,0,0,0,0,0,0,0,0,-1,888,1051,0,0
-329,-27,0,0,0,0,0,0,0,0,0,-1,895,1051,0,0
-322,-27,0,0,0,0,0,0,0,0,0,-1,902,1051,0,0
-315,-27,0,0,0,0,0,0,0,0,0,-1,909,1051,0,0
-308,-27,0,0,0,0,0,0,0,0,0,-1,916,1051,0,0
-301,-27,0,0,0,0,0,0,0,0,0,-1,923,1051,0,0
-294,-27,0,0,0,0,0,0,0,0,0,-1,930,1051,0,0
-287,-27,0,0,0,0,0,0,0,0,0,-1,937,1051,0,0
-280,-27,0,0,0,0,0,0,0,0,0,-1,944,1051,0,0
-273,-27,0,0,0,0,0,0,0,0,0,-1,951,1051,0,0
-266,-27,0,0,0,0,0,0,0,0,0,-1,958,1051,0,0
-259,-27,0,0,0,0,0,0,0,0,0,-1,965,1051,0,0
-252,-27,0,0,0,0,0,0,0,0,0,-1,972,1051,0,0
-245,-27,0,0,0,0,0,0,0,0,0,-1,979,1051,0,0
-238,-27,0,0,0,0,0,0,0,0,0,-1,986,1051,0,0
-231,-27,0,0,0,0,0,0,0,0,0,-1,993,1051,0,0
-224,-27,0,0,0,0,0,0,0,0,0,-1,1000,1051,0,0
-217,-27,0,0,0,0,0,0,0,0,0,-1,1007,1051,0,0
-210,-27,0,0,0,0,0,0,0,0,0,-1,1014,1051,0,0
-203,-27,0,0,0,0,0,0,0,0,0,-1,1021,1051,0,0
-196,-27,0,0,0,0,0,0,0,0,0,-1,1028,1051,0,0
-189,-27,0,0,0,0,0,0,0,0,0,-1,1035,1051,0,0
-182,-27,0,0,0,0,0,0,0,0,0,-1,1042,1051,0,0
-175,-27,0,0,0,0,0,0,0,0,0,-1,1049,1051,0,0
-168,-27,0,0,0,0,0,0,0,0,0,-1,1056,1051,0,0
-161,-27,0,0,0,0,0,0,0,0,0,-1,1063,1051,0,0
-154,-27,0,0,0,0,0,0,0,0,0,-1,1070,1051,0,0
-147,-27,0,0,0,0,0,0,0,0,0,-1,1077,1051,0,0
-140,-27,0,0,0,0,0,0,0,0,0,-1,1084,1051,0,0
-133,-27,0,0,0,0,0,0,0,0,0,-1,1091,1051,0,0
-126,-27,0,0,0,0,0,0,0,0,0,-1,1098,1051,0,0
-119,-27,0,0,0,0,0,0,0,0,0,-1,1105,1051,0,0
-112,-27,0,0,0,0,0,0,0,0,0,-1,1112,1051,0,0
-105,-27,0,0,0,0,0,0,0,0,0,-1,1119,1051,0,0
-98,-27,0,0,0,0,0,0,0,0,0,-1,1126,1051,0,0
-91,-27,0,0,0,0,0,0,0,0,0,-1,1133,1051,0,0
-84,-27,0,0,0,0,0,0,0,0,0,-1,1140,1051,0,0
-77,-27,0,0,0,0,0,0,0,0,0,-1,1147,1051,0,0
-70,-27,0,0,0,0,0,0,0,0,0,-1,1154,1051,0,0
-63,-27,0,0,0,0,0,0,0,0,0,-1,1161,1051,0,0
-56,-27,0,0,0,0,0,0,0,0,0,-1,1168,1051,0,0
-49,-27,0,0,0,0,0,0,0,0,0,-1,1175,1051,0,0
-42,-27,0,0,0,0,0,0,0,0,0,-1,1182,1051,0,0
-35,-27,0,0,0,0,0,0,0,0,0,-1,1189,1051,0,0
-28,-27,0,0,0,0,0,0,0,0,0,-1,1196,1051,0,0
-21,-27,0,0,0,0,0,0,0,0,0,-1,1203,1051,0,0
-14,-27,0,0,0,0,0,0,0,0,0,-1,1210,1051,0,0
-7,-27,0,0,0,0,0,0,0,0,0,-1,1217,1051,0,0
0,-27,0,0,0,0,0,0,0,0,0,-1,1224,1051,0,0
7,-27,0,0,0,0,0,0,0,0,0,-1,1231,1051,0,0
14,-27,0,0,0,0,0,0,0,0,0,-1,1238,1051,0,0
21,-27,0,0,0,0,0,0,0,0,0,-1,1245,1051,0,0
28,-27,0,0,0,0,0,0,0,0,0,-1,1252,1051,0,0
35,-27,0,0,0,0,0,0,0,0,0,-1,1259,1051,0,0
42,-27,0,0,0,0,0,0,0,0,0,-1,1266,1051,0,0
49,-27,0,0,0,0,0,0,0,0,0,-1,1273,1051,0,0
56,-27,0,0,0,0,0,0,0,0,0,-1,1280,1051,0,0
63,-27,0,0,0,0,0,0,0,0,0,-1,1287,1051,0,0
70,-27,0,0,0,0,0,0,0,0,0,-1,1294,1051,0,0
77,-27,0,0,0,0,0,0,0,0,0,-1,1301,1051,0,0
84,-27,0,0,0,0,0,0,0,0,0,-1,1308,1051,0,0
91,-27,0,0,0,0,0,0,0,0,0,-1,1315,1051,0,0
98,-27,0,0,0,0,0,0,0,0,0,-1,1322,1051,0,0
105,-27,0,0,0,0,0,0,0,0,0,-1,1329,1051,0,0
112,-27,0,0,0,0,0,0,0,0,0,-1,1336,1051,0,0
119,-27,0,0,0,0,0,0,0,0,0,-1,1343,1051,0,0
126,-27,0,0,0,0,0,0,0,0,0,-1,1350,1051,0,0
133,-27,0,0,0,0,0,0,0,0,0,-1,1357,1051,0,0
140,-27,0,0,0,0,0,0,0,0,0,-1,1364,1051,0,0
147,-27,0,0,0,0,0,0,0,0,0,-1,1371,1051,0,0
154,-27,0,0,0,0,0,0,0,0,0,-1,1378,1051,0,0
161,-27,0,0,0,0,0,0,0,0,0,-1,1385,1051,0,0
168,-27,0,0,0,0,0,0,0,0,0,-1,1392,1051,0,0
175,-27,0,0,0,0,0,0,0,0,0,-1,1399,1051,0,0
182,-27,0,0,0,0,0,0,0,0,0,-1,1406,1051,0,0
189,-27,0,0,0,0,0,0,0,0,0,-1,1413,1051,0,0
196,-27,0,0,0,0,0,0,0,0,0,-1,1420,1051,0,0
203,-27,0,0,0,0,0,0,0,0,0,-1,1427,1051,0,0
210,-27,0,0,0,0,0,0,0,0,0,-1,1434,1051,0,0
217,-27,0,0,0,0,0,0,0,0,0,-1,1441,1051,0,0
224,-27,0,0,0,0,0,0,0,0,0,-1,1448,1051,0,0
231,-27,0,0,0,0,0,0,0,0,0,-1,1455,1051,0,0
238,-27,0,0,0,0,0,0,0,0,0,-1,1462,1051,0,0
245,-27,0,0,0,0,0,0,0,0,0,-1,1469,1051,0,0
252,-27,0,0,0,0,0,0,0,0,0,-1,1476,1051,0,0
259,-27,0,0,0,0,0,0,0,0,0,-1,1483,1051,0,0
266,-27,0,0,0,0,0,0,0,0,0,-1,1490,1051,0,0
273,-27,0,0,0,0,0,0,0,0,0,-1,1497,1051,0,0
280,-27,0,0,0,0,0,0,0,0,0,-1,1504,1051,0,0
287,-27,0,0,0,0,0,0,0,0,0,-1,1511,1051,0,0
294,-27,0,0,0,0,0,0,0,0,0,-1,1518,1051,0,0
301,-27,0,0,0,0,0,0,0,0,0,-1,1525,1051,0,0
308,-27,0,0,0,0,0,0,0,0,0,-1,1532,1051,0,0
315,-27,0,0,0,0,0,0,0,0,0,-1,1539,1051,0,0
322,-27,0,0,0,0,0,0,0,0,0,-1,1546,1051,0,0
329,-27,0,0,0,0,0,0,0,0,0,-1,1553,1051,0,0
336,-27,0,0,0,0,0,0,0,0,0,-1,1560,1051,0,0
343,-27,0,0,0,0,0,0,0,0,0,-1,1567,1051,0,0
350,-27,0,0,0,0,0,0,0,0,0,-1,1574,1051,0,0
357,-27,0,0,0,0,0,0,0,0,0,-1,1581,1051,0,0
364,-27,0,0,0,0,0,0,0,0,0,-1,1588,1051,0,0
371,-27,0,0,0,0,0,0,0,0,0,-1,1595,1051,0,0
378,-27,0,0,0,0,0,0,0,0,0,-1,1602,1051,0,0
385,-27,0,0,0,0,0,0,0,0,0,-1,1609,1051,0,0
392,-27,0,0,0,0,0,0,0,0,0,-1,1616,1051,0,0
399,-27,0,0,0,0,0,0,0,0,0,-1,1623,1051,0,0
406,-27,0,0,0,0,0,0,0,0,0,-1,1630,1051,0,0
413,-27,0,0,0,0,0,0,0,0,0,-1,1637,1051,0,0
420,-27,0,0,0,0,0,0,0,0,0,-1,1644,1051,0,0
427,-27,0,0,0,0,0,0,0,0,0,-1,1651,1051,0,0
434,-27,0,0,0,0,0,0,0,0,0,-1,1658,1051,0,0
441,-27,0,0,0,0,0,0,0,0,0,-1,1665,1051,0,0
448,-27,0,0,0,0,0,0,0,0,0,-1,1672,1051,0,0
455,-27,0,0,0,0,0,0,0,0,0,-1,1679,1051,0,0
462,-27,0,0,0,0,0,0,0,0,0,-1,1686,1051,0,0
469,-27,0,0,0,0,0,0,0,0,0,-1,1693,1051,0,0
476,-27,0,0,0,0,0,0,0,0,0,-1,1700,1051,0,0
483,-27,0,0,0,0,0,0,0,0,0,-1,1707,1051,0,0
490,-27,0,0,0,0,0,0,0,0,0,-1,1714,1051,0,0
497,-27,0,0,0,0,0,0,0,0,0,-1,1721,1051,0,0
504,-27,0,0,0,0,0,0,0,0,0,-1,1728,1051,0,0
511,-27,0,0,0,0,0,0,0,0,0,-1,1735,1051,0,0
518,-27,0,0,0,0,0,0,0,0,0,-1,1742,1051,0,0
525,-27,0,0,0,0,0,0,0,0,0,-1,1749,1051,0,0
532,-27,0,0,0,0,0,0,0,0,0,-1,1756,1051,0,0
539,-27,0,0,0,0,0,0,0,0,0,-1,1763,1051,0,0
546,-27,0,0,0,0,0,0,0,0,0,-1,1770,1051,0,0
553,-27,0,0,0,0,0,0,0,0,0,-1,1777,1051,0,0
560,-27,0,0,0,0,0,0,0,0,0,-1,1784,1051,0,0
567,-27,0,0,0,0,0,0,0,0,0,-1,1791,1051,0,0
574,-27,0,0,0,0,0,0,0,0,0,-1,1798,1051,0,0
581,-27,0,0,0,0,0,0,0,0,0,-1,1805,1051,0,0
588,-27,0,0,0,0,0,0,0,0,0,-1,1812,1051,0,0
595,-27,0,0,0,0,0,0,0,0,0,-1,1819,1051,0,0
602,-27,0,0,0,0,0,0,0,0,0,-1,1826,1051,0,0
609,-27,0,0,0,0,0,0,0,0,0,-1,1833,1051,0,0
616,-27,0,0,0,0,0,0,0,0,0,-1,1840,1051,0,0
623,-27,0,0,0,0,0,0,0,0,0,-1,1847,1051,0,0
630,-27,0,0,0,0,0,0,0,0,0,-1,1854,1051,0,0
637,-27,0,0,0,0,0,0,0,0,0,-1,1861,1051,0,0
644,-27,0,0,0,0,0,0,0,0,0,-1,1868,1051,0,0
651,-27,64.8162,2.70911,-0.00102214,0.00549526,0.00300886,0.00667191,-0.0021988,1.19802,0.00533414,0.0420645,1875,1051,64.8162,-2.70905
658,-27,64.7207,2.77454,-0.000677999,0.00397848,0.00183229,0.004613,-0.00131253,1.23742,0.00359365,0.040804,1882,1051,64.7207,-2.77452
665,-27,64.7456,2.66235,-0.000524095,0.00286323,0.0011116,0.00319544,-0.000856301,1.28039,0.00246579,0.0375537,1889,1051,64.7456,-2.66236
672,-27,64.8262,2.54761,-0.000473982,0.00201409,0.000817315,0.00225855,-0.000718445,1.28016,0.0017938,0.0292151,1896,1051,64.8262,-2.54761
679,-27,64.8877,2.61145,-0.00050536,0.00132727,0.000729014,0.0015819,-0.000759982,1.23477,0.00137956,0.0287352,1903,1051,64.8877,-2.61146
686,-27,64.9401,2.65344,-0.000920148,0.000626792,0.000866704,0.00101497,-0.00130833,1.14971,0.00134492,0.0423822,1910,1051,64.9401,-2.65347
693,-27,64.9066,2.69543,-0.00132767,2.21384e-05,0.00116775,0.000695987,-0.00200151,1.04742,0.00161706,0.0462981,1917,1051,64.9067,-2.69547
700,-27,64.7411,2.49023,-0.00157469,-0.000369735,0.00154711,0.000688066,-0.00263249,0.971075,0.00202372,0.0395415,1924,1051,64.7411,-2.49029
707,-27,64.761,2.54358,-0.0021084,-0.000356117,0.0017708,0.00074343,-0.00320794,1.01513,0.00242473,0.0250655,1931,1051,64.7609,-2.54361
714,-27,64.8127,2.73645,-0.00290487,3.24611e-05,0.00198594,0.0010338,-0.00390621,1.10378,0.00300854,0.0240077,1938,1051,64.8128,-2.73646
721,-27,64.7584,2.9812,0,0,0,0,0,0,0,-1,1945,1051,64.7584,-2.98126
728,-27,65.08,7.16736,0,0,0,0,0,0,0,-1,1952,1051,65.0799,-7.1674
735,-27,64.5051,7.08704,-0.00536633,0.00345324,0.00213256,0.00394183,-0.00585492,1.34558,0.00569199,0.0338866,1959,1051,64.5051,-7.08706
742,-27,64.2634,6.93359,-0.00453521,0.00491449,0.00194835,0.00530045,-0.00492116,1.37524,0.0059028,0.0210394,1966,1051,64.2635,-6.93354
749,-27,64.353,6.69531,-0.00376892,0.00642759,0.00184616,0.00675156,-0.00409289,1.39708,0.00632345,0.0164505,1973,1051,64.3531,-6.69531
756,-27,64.3203,6.49744,-0.00279614,0.00848085,0.00146928,0.00866914,-0.00298443,1.44334,0.00698994,0.0160347,1980,1051,64.3203,-6.49747
763,-27,64.2336,6.27539,-0.000433768,0.0109698,0.000726393,0.0110158,-0.000479852,1.50744,0.00750896,0.0158933,1987,1051,64.2335,-6.27544
770,-27,64.1187,6.06299,0.0043538,0.0138396,-0.000230964,0.0138452,0.00434818,-1.54647,0.00817573,0.0168234,1994,1051,64.1186,-6.06304
777,-27,64.0171,5.98755,0.0119384,0.0164613,-0.00133593,0.0168264,0.0115733,-1.30401,0.00994055,0.020362,2001,1051,64.017,-5.98752
784,-27,64.0503,5.87976,0.0209983,0.018247,-0.00252722,0.0225,0.0167453,-0.536156,0.0134971,0.0298768,2008,1051,64.0504,-5.87973
791,-27,64.2952,5.52332,0.0327814,0.0183957,-0.00392622,0.0337832,0.0173939,-0.249826,0.0195076,0.0450288,2015,1051,64.2952,-5.52328
798,-27,64.7715,5.39209,0.0480262,0.0162745,-0.00552805,0.0489611,0.0153396,-0.167537,0.0289171,0.0494249,2022,1051,64.7715,-5.39206
805,-27,65.2456,5.26477,0,0,0,0,0,0,0,-1,2029,1051,65.2457,-5.26476
812,-27,63.6365,4.34534,0,0,0,0,0,0,0,-1,2036,1051,63.6365,-4.34539
-700,-34,-49.551,1.9021,0,0,0,0,0,0,0,-1,524,1058,-49.551,-1.90212
-693,-34,-49.274,-4.78088,0,0,0,0,0,0,0,-1,531,1058,-49.274,4.78083
-686,-34,-49.5157,-3.2019,0,0,0,0,0,0,0,-1,538,1058,-49.5157,3.20188
-679,-34,-49.5938,-1.4751,0.0359339,-0.0309635,0.0593723,0.0706313,-0.0656609,0.528872,0.0787057,0.0451634,545,1058,-49.5938,1.47511
-672,-34,-49.1815,-0.326904,0.0326119,-0.012013,0.0522203,0.0670868,-0.0464879,0.5835,0.0659309,0.0442122,552,1058,-49.1815,0.326901
-665,-34,-48.9633,1.10291,0.0281018,0.000743974,0.0444092,0.0608911,-0.0320453,0.635999,0.0545115,0.0406832,559,1058,-48.9633,-1.10294
-658,-34,-48.7369,2.21643,0.023207,0.00849667,0.0364887,0.0530745,-0.0213708,0.685944,0.0442612,0.0393128,566,1058,-48.7369,-2.21648
-651,-34,-48.6949,2.91003,0.018412,0.0122978,0.0288467,0.0443631,-0.0136533,0.732606,0.0350251,0.0318929,573,1058,-48.6949,-2.91003
-644,-34,-48.7971,3.24939,0.0140265,0.0138916,0.0215978,0.035557,-0.00763891,0.783837,0.0266189,0.0161023,580,1058,-48.7971,-3.24941
-637,-34,-48.803,3.52441,0.00988863,0.0135974,0.0144362,0.0262978,-0.00281182,0.849275,0.0185404,0.018248,587,1058,-48.803,-3.52439
-630,-34,-48.8337,3.91492,0.00658758,0.0117552,0.00868081,0.0182286,0.000114209,0.930046,0.0121145,0.0202397,594,1058,-48.8337,-3.91492
-623,-34,-48.8583,4.24158,0.00396229,0.00859025,0.00454247,0.0113742,0.00117837,1.02097,0.0072221,0.0147256,601,1058,-48.8583,-4.24154
-616,-34,-48.8215,4.58093,0.00264782,0.00486175,0.00101989,0.00525995,0.00224961,1.19856,0.0030474,0.0207151,608,1058,-48.8215,-4.58088
-609,-34,-48.7781,4.86084,0.00213965,0.00211499,-0.00176337,0.00389074,0.00036391,-0.781902,0.00248143,0.0208258,615,1058,-48.7782,-4.8608
-602,-34,-48.7763,5.07129,0.00143312,0.000551125,-0.00308426,0.00410775,-0.0021235,-0.714388,0.00365791,0.0168898,622,1058,-48.7763,-5.07124
-595,-34,-48.9374,5.29443,0.00121147,-0.000632808,-0.00338147,0.00379428,-0.00321562,-0.652284,0.00405176,0.0187058,629,1058,-48.9374,-5.29442
-588,-34,-49.259,5.46216,0,0,0,0,0,0,0,-1,636,1058,-49.259,-5.46213
-581,-34,-49.0292,0.830566,0.0022625,-0.00165081,-0.00276441,0.00369265,-0.00308096,-0.477426,0.00391606,0.0232634,643,1058,-49.0293,-0.83053
-574,-34,-49.0218,0.952759,0.00257637,-0.00170448,-0.00221775,0.00351812,-0.00264624,-0.40157,0.00357085,0.0356527,650,1058,-49.0218,-0.952798
-567,-34,-49.0023,0.949341,0,0,0,0,0,0,0,-1,657,1058,-49.0022,-0.949366
-560,-34,-48.9405,0.96521,0,0,0,0,0,0,0,-1,664,1058,-48.9405,-0.965242
-553,-34,-49.0615,0.660889,0.00217285,2.12148e-05,0.000960744,0.00253939,-0.000345331,0.364477,0.001819,0.0398809,671,1058,-49.0615,-0.660885
-546,-34,-49.1263,0.685303,0.00200259,0.000606056,0.00253961,0.00393817,-0.00132953,0.651238,0.00316318,0.0416734,678,1058,-49.1264,-0.685347
-539,-34,-49.037,0.66333,0.00183288,0.00056299,0.00372881,0.00498042,-0.00258455,0.701067,0.00444005,0.0423243,685,1058,-49.037,-0.663369
-532,-34,-48.9022,0.661255,0.00189272,0.000702912,0.00500173,0.0063348,-0.00373917,0.726207,0.00588021,0.0418244,692,1058,-48.9022,-0.661247
-525,-34,0,0,0,0,0,0,0,0,0,-1,699,1058,0,0
-518,-34,0,0,0,0,0,0,0,0,0,-1,706,1058,0,0
-511,-34,0,0,0,0,0,0,0,0,0,-1,713,1058,0,0
-504,-34,0,0,0,0,0,0,0,0,0,-1,720,1058,0,0
-497,-34,0,0,0,0,0,0,0,0,0,-1,727,1058,0,0
-490,-34,0,0,0,0,0,0,0,0,0,-1,734,1058,0,0
-483,-34,0,0,0,0,0,0,0,0,0,-1,741,1058,0,0
-476,-34,0,0,0,0,0,0,0,0,0,-1,748,1058,0,0
-469,-34,0,0,0,0,0,0,0,0,0,-1,755,1058,0,0
-462,-34,0,0,0,0,0,0,0,0,0,-1,762,1058,0,0
-455,-34,0,0,0,0,0,0,0,0,0,-1,769,1058,0,0
-448,-34,0,0,0,0,0,0,0,0,0,-1,776,1058,0,0
-441,-34,0,0,0,0,0,0,0,0,0,-1,783,1058,0,0
-434,-34,0,0,0,0,0,0,0,0,0,-1,790,1058,0,0
-427,-34,0,0,0,0,0,0,0,0,0,-1,797,1058,0,0
-420,-34,0,0,0,0,0,0,0,0,0,-1,804,1058,0,0
-413,-34,0,0,0,0,0,0,0,0,0,-1,811,1058,0,0
-406,-34,0,0,0,0,0,0,0,0,0,-1,818,1058,0,0
-399,-34,0,0,0,0,0,0,0,0,0,-1,825,1058,0,0
-392,-34,0,0,0,0,0,0,0,0,0,-1,832,1058,0,0
-385,-34,0,0,0,0,0,0,0,0,0,-1,839,1058,0,0
-378,-34,0,0,0,0,0,0,0,0,0,-1,846,1058,0,0
-371,-34,0,0,0,0,0,0,0,0,0,-1,853,1058,0,0
-364,-34,0,0,0,0,0,0,0,0,0,-1,860,1058,0,0
-357,-34,0,0,0,0,0,0,0,0,0,-1,867,1058,0,0
-350,-34,0,0,0,0,0,0,0,0,0,-1,874,1058,0,0
-343,-34,0,0,0,0,0,0,0,0,0,-1,881,1058,0,0
-336,-34,0,0,0,0,0,0,0,0,0,-1,888,1058,0,0
-329,-34,0,0,0,0,0,0,0,0,0,-1,895,1058,0,0
-322,-34,0,0,0,0,0,0,0,0,0,-1,902,1058,0,0
-315,-34,0,0,0,0,0,0,0,0,0,-1,909,1058,0,0
-308,-34,0,0,0,0,0,0,0,0,0,-1,916,1058,0,0
-301,-34,0,0,0,0,0,0,0,0,0,-1,923,1058,0,0
-294,-34,0,0,0,0,0,0,0,0,0,-1,930,1058,0,0
-287,-34,0,0,0,0,0,0,0,0,0,-1,937,1058,0,0
-280,-34,0,0,0,0,0,0,0,0,0,-1,944,1058,0,0
-273,-34,0,0,0,0,0,0,0,0,0,-1,951,1058,0,0
-266,-34,0,0,0,0,0,0,0,0,0,-1,958,1058,0,0
-259,-34,0,0,0,0,0,0,0,0,0,-1,965,1058,0,0
-252,-34,0,0,0,0,0,0,0,0,0,-1,972,1058,0,0
-245,-34,0,0,0,0,0,0,0,0,0,-1,979,1058,0,0
-238,-34,0,0,0,0,0,0,0,0,0,-1,986,1058,0,0
-231,-34,0,0,0,0,0,0,0,0,0,-1,993,1058,0,0
-224,-34,0,0,0,0,0,0,0,0,0,-1,1000,1058,0,0
-217,-34,0,0,0,0,0,0,0,0,0,-1,1007,1058,0,0
-210,-34,0,0,0,0,0,0,0,0,0,-1,1014,1058,0,0
-203,-34,0,0,0,0,0,0,0,0,0,-1,1021,1058,0,0
-196,-34,0,0,0,0,0,0,0,0,0,-1,1028,1058,0,0
-189,-34,0,0,0,0,0,0,0,0,0,-1,1035,1058,0,0
-182,-34,0,0,0,0,0,0,0,0,0,-1,1042,1058,0,0
-175,-34,0,0,0,0,0,0,0,0,0,-1,1049,1058,0,0
-168,-34,0,0,0,0,0,0,0,0,0,-1,1056,1058,0,0
-161,-34,0,0,0,0,0,0,0,0,0,-1,1063,1058,0,0
-154,-34,0,0,0,0,0,0,0,0,0,-1,1070,1058,0,0
-147,-34,0,0,0,0,0,0,0,0,0,-1,1077,1058,0,0
-140,-34,0,0,0,0,0,0,0,0,0,-1,1084,1058,0,0
-133,-34,0,0,0,0,0,0,0,0,0,-1,1091,1058,0,0
-126,-34,0,0,0,0,0,0,0,0,0,-1,1098,1058,0,0
-119,-34,0,0,0,0,0,0,0,0,0,-1,1105,1058,0,0
-112,-34,0,0,0,0,0,0,0,0,0,-1,1112,1058,0,0
-105,-34,0,0,0,0,0,0,0,0,0,-1,1119,1058,0,0
-98,-34,0,0,0,0,0,0,0,0,0,-1,1126,1058,0,0
-91,-34,0,0,0,0,0,0,0,0,0,-1,1133,1058,0,0
-84,-34,0,0,0,0,0,0,0,0,0,-1,1140,1058,0,0
-77,-34,0,0,0,0,0,0,0,0,0,-1,1147,1058,0,0
-70,-34,0,0,0,0,0,0,0,0,0,-1,1154,1058,0,0
-63,-34,0,0,0,0,0,0,0,0,0,-1,1161,1058,0,0
-56,-34,0,0,0,0,0,0,0,0,0,-1,1168,1058,0,0
-49,-34,0,0,0,0,0,0,0,0,0,-1,1175,1058,0,0
-42,-34,0,0,0,0,0,0,0,0,0,-1,1182,1058,0,0
-35,-34,0,0,0,0,0,0,0,0,0,-1,1189,1058,0,0
-28,-34,0,0,0,0,0,0,0,0,0,-1,1196,1058,0,0
-21,-34,0,0,0,0,0,0,0,0,0,-1,1203,1058,0,0
-14,-34,0,0,0,0,0,0,0,0,0,-1,1210,1058,0,0
-7,-34,0,0,0,0,0,0,0,0,0,-1,1217,1058,0,0
0,-34,0,0,0,0,0,0,0,0,0,-1,1224,1058,0,0
7,-34,0,0,0,0,0,0,0,0,0,-1,1231,1058,0,0
14,-34,0,0,0,0,0,0,0,0,0,-1,1238,1058,0,0
21,-34,0,0,0,0,0,0,0,0,0,-1,1245,1058,0,0
28,-34,0,0,0,0,0,0,0,0,0,-1,1252,1058,0,0
35,-34,0,0,0,0,0,0,0,0,0,-1,1259,1058,0,0
42,-34,0,0,0,0,0,0,0,0,0,-1,1266,1058,0,0
49,-34,0,0,0,0,0,0,0,0,0,-1,1273,1058,0,0
56,-34,0,0,0,0,0,0,0,0,0,-1,1280,1058,0,0
63,-34,0,0,0,0,0,0,0,0,0,-1,1287,1058,0,0
70,-34,0,0,0,0,0,0,0,0,0,-1,1294,1058,0,0
77,-34,0,0,0,0,0,0,0,0,0,-1,1301,1058,0,0
84,-34,0,0,0,0,0,0,0,0,0,-1,1308,1058,0,0
91,-34,0,0,0,0,0,0,0,0,0,-1,1315,1058,0,0
98,-34,0,0,0,0,0,0,0,0,0,-1,1322,1058,0,0
105,-34,0,0,0,0,0,0,0,0,0,-1,1329,1058,0,0
112,-34,0,0,0,0,0,0,0,0,0,-1,1336,1058,0,0
119,-34,0,0,0,0,0,0,0,0,0,-1,1343,1058,0,0
126,-34,0,0,0,0,0,0,0,0,0,-1,1350,1058,0,0
133,-34,0,0,0,0,0,0,0,0,0,-1,1357,1058,0,0
140,-34,0,0,0,0,0,0,0,0,0,-1,1364,1058,0,0
147,-34,0,0,0,0,0,0,0,0,0,-1,1371,1058,0,0
154,-34,0,0,0,0,0,0,0,0,0,-1,1378,1058,0,0
161,-34,0,0,0,0,0,0,0,0,0,-1,1385,1058,0,0
168,-34,0,0,0,0,0,0,0,0,0,-1,1392,1058,0,0
175,-34,0,0,0,0,0,0,0,0,0,-1,1399,1058,0,0
182,-34,0,0,0,0,0,0,0,0,0,-1,1406,1058,0,0
189,-34,0,0,0,0,0,0,0,0,0,-1,1413,1058,0,0
196,-34,0,0,0,0,0,0,0,0,0,-1,1420,1058,0,0
203,-34,0,0,0,0,0,0,0,0,0,-1,1427,1058,0,0
210,-34,0,0,0,0,0,0,0,0,0,-1,1434,1058,0,0
217,-34,0,0,0,0,0,0,0,0,0,-1,1441,1058,0,0
224,-34,0,0,0,0,0,0,0,0,0,-1,1448,1058,0,0
231,-34,0,0,0,0,0,0,0,0,0,-1,1455,1058,0,0
238,-34,0,0,0,0,0,0,0,0,0,-1,1462,1058,0,0
245,-34,0,0,0,0,0,0,0,0,0,-1,1469,1058,0,0
252,-34,0,0,0,0,0,0,0,0,0,-1,1476,1058,0,0
259,-34,0,0,0,0,0,0,0,0,0,-1,1483,1058,0,0
266,-34,0,0,0,0,0,0,0,0,0,-1,1490,1058,0,0
273,-34,0,0,0,0,0,0,0,0,0,-1,1497,1058,0,0
280,-34,0,0,0,0,0,0,0,0,0,-1,1504,1058,0,0
287,-34,0,0,0,0,0,0,0,0,0,-1,1511,1058,0,0
294,-34,0,0,0,0,0,0,0,0,0,-1,1518,1058,0,0
301,-34,0,0,0,0,0,0,0,0,0,-1,1525,1058,0,0
308,-34,0,0,0,0,0,0,0,0,0,-1,1532,1058,0,0
315,-34,0,0,0,0,0,0,0,0,0,-1,1539,1058,0,0
322,-34,0,0,0,0,0,0,0,0,0,-1,1546,1058,0,0
329,-34,0,0,0,0,0,0,0,0,0,-1,1553,1058,0,0
336,-34,0,0,0,0,0,0,0,0,0,-1,1560,1058,0,0
343,-34,0,0,0,0,0,0,0,0,0,-1,1567,1058,0,0
350,-34,0,0,0,0,0,0,0,0,0,-1,1574,1058,0,0
357,-34,0,0,0,0,0,0,0,0,0,-1,1581,1058,0,0
364,-34,0,0,0,0,0,0,0,0,0,-1,1588,1058,0,0
371,-34,0,0,0,0,0,0,0,0,0,-1,1595,1058,0,0
378,-34,0,0,0,0,0,0,0,0,0,-1,1602,1058,0,0
385,-34,0,0,0,0,0,0,0,0,0,-1,1609,1058,0,0
392,-34,0,0,0,0,0,0,0,0,0,-1,1616,1058,0,0
399,-34,0,0,0,0,0,0,0,0,0,-1,1623,1058,0,0
406,-34,0,0,0,0,0,0,0,0,0,-1,1630,1058,0,0
413,-34,0,0,0,0,0,0,0,0,0,-1,1637,1058,0,0
420,-34,0,0,0,0,0,0,0,0,0,-1,1644,1058,0,0
427,-34,0,0,0,0,0,0,0,0,0,-1,1651,1058,0,0
434,-34,0,0,0,0,0,0,0,0,0,-1,1658,1058,0,0
441,-34,0,0,0,0,0,0,0,0,0,-1,1665,1058,0,0
448,-34,0,0,0,0,0,0,0,0,0,-1,1672,1058,0,0
455,-34,0,0,0,0,0,0,0,0,0,-1,1679,1058,0,0
462,-34,0,0,0,0,0,0,0,0,0,-1,1686,1058,0,0
469,-34,0,0,0,0,0,0,0,0,0,-1,1693,1058,0,0
476,-34,0,0,0,0,0,0,0,0,0,-1,1700,1058,0,0
483,-34,0,0,0,0,0,0,0,0,0,-1,1707,1058,0,0
490,-34,0,0,0,0,0,0,0,0,0,-1,1714,1058,0,0
497,-34,0,0,0,0,0,0,0,0,0,-1,1721,1058,0,0
504,-34,0,0,0,0,0,0,0,0,0,-1,1728,1058,0,0
511,-34,0,0,0,0,0,0,0,0,0,-1,1735,1058,0,0
518,-34,0,0,0,0,0,0,0,0,0,-1,1742,1058,0,0
525,-34,0,0,0,0,0,0,0,0,0,-1,1749,1058,0,0
532,-34,0,0,0,0,0,0,0,0,0,-1,1756,1058,0,0
539,-34,0,0,0,0,0,0,0,0,0,-1,1763,1058,0,0
546,-34,0,0,0,0,0,0,0,0,0,-1,1770,1058,0,0
553,-34,0,0,0,0,0,0,0,0,0,-1,1777,1058,0,0
560,-34,0,0,0,0,0,0,0,0,0,-1,1784,1058,0,0
567,-34,0,0,0,0,0,0,0,0,0,-1,1791,1058,0,0
574,-34,0,0,0,0,0,0,0,0,0,-1,1798,1058,0,0
581,-34,0,0,0,0,0,0,0,0,0,-1,1805,1058,0,0
588,-34,0,0,0,0,0,0,0,0,0,-1,1812,1058,0,0
595,-34,0,0,0,0,0,0,0,0,0,-1,1819,1058,0,0
602,-34,0,0,0,0,0,0,0,0,0,-1,1826,1058,0,0
609,-34,0,0,0,0,0,0,0,0,0,-1,1833,1058,0,0
616,-34,0,0,0,0,0,0,0,0,0,-1,1840,1058,0,0
623,-34,0,0,0,0,0,0,0,0,0,-1,1847,1058,0,0
630,-34,0,0,0,0,0,0,0,0,0,-1,1854,1058,0,0
637,-34,0,0,0,0,0,0,0,0,0,-1,1861,1058,0,0
644,-34,0,0,0,0,0,0,0,0,0,-1,1868,1058,0,0
651,-34,64.7438,2.62708,-0.00046076,0.00447622,0.00394272,0.00665945,-0.00264399,1.06509,0.0055356,0.0425146,1875,1058,64.7437,-2.62705
658,-34,64.8165,2.58862,-0.000196355,0.00296602,0.00268427,0.0045002,-0.00173053,1.05157,0.00371389,0.0423929,1882,1058,64.8165,-2.58859
665,-34,64.8774,2.52197,-0.000128508,0.00192731,0.00183362,0.00300149,-0.00120268,1.04087,0.00250024,0.0417051,1889,1058,64.8775,-2.52193
672,-34,64.9279,2.56531,-0.000147911,0.00118884,0.00140162,0.00207328,-0.00103236,1.00788,0.00182631,0.0396728,1896,1058,64.9278,-2.56526
679,-34,65.0278,2.65723,-0.000247434,0.000635041,0.0011587,0.00143368,-0.00104607,0.967322,0.0014375,0.039917,1903,1058,65.0279,-2.65727
686,-34,65.1257,2.82544,-0.000687205,5.89246e-05,0.00120222,0.000944629,-0.00157291,0.935844,0.00146851,0.0469618,1910,1058,65.1258,-2.82542
693,-34,64.9734,2.92627,-0.00109734,-0.000425524,0.00144629,0.000723348,-0.00224622,0.899504,0.00178805,0.0466084,1917,1058,64.9734,-2.92625
700,-34,64.7708,2.65845,-0.00134939,-0.000717778,0.00180017,0.000794072,-0.00286124,0.872231,0.00222004,0.0392105,1924,1058,64.7707,-2.65851
707,-34,64.7255,2.57654,-0.00186181,-0.000686602,0.00204368,0.000852274,-0.00340069,0.925383,0.00259824,0.025251,1931,1058,64.7255,-2.57649
714,-34,64.7515,2.73633,-0.00260414,-0.000307708,0.00228403,0.00110048,-0.00401232,1.01831,0.00310736,0.0206766,1938,1058,64.7515,-2.73636
721,-34,64.7614,2.94983,0,0,0,0,0,0,0,-1,1945,1058,64.7614,-2.94987
728,-34,64.3163,7.33447,0,0,0,0,0,0,0,-1,1952,1058,64.3163,-7.33447
735,-34,64.1046,7.16724,-0.00472566,0.00293536,0.0025244,0.00369238,-0.00548268,1.27945,0.00533073,0.0234476,1959,1058,64.1047,-7.16721
742,-34,64.0225,6.94116,-0.00371901,0.0043501,0.00241813,0.00501926,-0.00438817,1.30082,0.00543546,0.0181561,1966,1058,64.0225,-6.94118
749,-34,64.0651,6.71448,-0.00281125,0.00576285,0.0023751,0.00637681,-0.00342521,1.31783,0.00574408,0.0162344,1973,1058,64.065,-6.7145
756,-34,64.0699,6.45032,-0.00167981,0.00768729,0.00196824,0.00808405,-0.00207657,1.37188,0.00619861,0.0126762,1980,1058,64.07,-6.4503
763,-34,63.9788,6.20337,0.000746798,0.00989874,0.00108175,0.0100249,0.000620674,1.45473,0.00648626,0.0131248,1987,1058,63.9788,-6.20334
770,-34,63.8484,5.98083,0.00536032,0.0124332,-0.000120333,0.0124352,0.00535828,-1.55379,0.00720229,0.0185931,1994,1058,63.8485,-5.98081
777,-34,63.6909,5.85559,0.0123994,0.0145925,-0.00163453,0.0154642,0.0115277,-1.08084,0.00927991,0.0222225,2001,1058,63.6909,-5.85562
784,-34,63.8376,5.5675,0.0206034,0.015852,-0.00338108,0.0223599,0.0140954,-0.47915,0.013055,0.0407928,2008,1058,63.8376,-5.56748
791,-34,64.1821,5.12769,0.0309362,0.0154208,-0.00556158,0.0327238,0.0136332,-0.310994,0.0189805,0.0486109,2015,1058,64.1821,-5.12773
798,-34,64.7539,4.82385,0,0,0,0,0,0,0,-1,2022,1058,64.7538,-4.82385
805,-34,63.625,4.75476,0,0,0,0,0,0,0,-1,2029,1058,63.6249,-4.75477
812,-34,63.603,3.94958,0,0,0,0,0,0,0,-1,2036,1058,63.603,-3.94956
-700,-41,-49.0693,-5.66736,0,0,0,0,0,0,0,-1,524,1065,-49.0693,5.66736
-693,-41,-49.3316,-4.62854,0,0,0,0,0,0,0,-1,531,1065,-49.3316,4.62849
-686,-41,-49.4981,-3.47168,0,0,0,0,0,0,0,-1,538,1065,-49.4981,3.47173
-679,-41,-49.1646,-2.28625,0.0407534,-0.0192356,0.0588056,0.0767723,-0.0552544,0.549566,0.0765624,0.046767,545,1065,-49.1646,2.28627
-672,-41,-49.0105,-0.951538,0.0373936,-0.00263758,0.0526446,0.0736992,-0.0389432,0.603737,0.066058,0.0436561,552,1065,-49.0105,0.951525
-665,-41,-48.8123,0.35791,0.0323908,0.00771588,0.0452955,0.066999,-0.0268923,0.652435,0.0558324,0.0412453,559,1065,-48.8123,-0.357884
-658,-41,-48.4706,1.6427,0.0268247,0.0132989,0.037508,0.0581747,-0.018051,0.696204,0.0459963,0.0390326,566,1065,-48.4706,-1.64265
-651,-41,-48.1091,2.67957,0.0213447,0.0153295,0.0298222,0.0483105,-0.0116363,0.735142,0.0367059,0.0329904,573,1065,-48.1091,-2.67954
-644,-41,-48.4358,3.16602,0.016418,0.0155069,0.0224889,0.038456,-0.0065311,0.775271,0.0280688,0.0176815,580,1065,-48.4358,-3.16599
-637,-41,-48.5033,3.47754,0.0117998,0.0141428,0.0152426,0.0282588,-0.0023162,0.823751,0.0196568,0.0193564,587,1065,-48.5033,-3.47757
-630,-41,-48.5184,3.84583,0.00802599,0.0114904,0.00918869,0.0191087,0.000407659,0.878563,0.0126055,0.0171238,594,1065,-48.5183,-3.84579
-623,-41,-48.5042,4.19666,0.00504042,0.00810368,0.00487645,0.0116834,0.00146072,0.937563,0.00735055,0.0131008,601,1065,-48.5042,-4.19671
-616,-41,-48.4995,4.56018,0.00344134,0.00448707,0.00112939,0.00520875,0.00271966,1.00219,0.00300826,0.0171389,608,1065,-48.4995,-4.56015
-609,-41,-48.4421,4.86194,0.00277789,0.00175641,-0.00185881,0.00419486,0.000339448,-0.651324,0.00269057,0.0230802,615,1065,-48.4421,-4.86195
-602,-41,-48.491,5.13098,0.00195432,0.000277091,-0.00327816,0.00449943,-0.00226802,-0.660174,0.00397736,0.0146464,622,1065,-48.491,-5.131
-595,-41,-48.623,5.36194,0.00168622,-0.000792252,-0.00358974,0.00424461,-0.00335064,-0.619195,0.00439523,0.024952,629,1065,-48.623,-5.362
-588,-41,-48.8943,2.91565,0,0,0,0,0,0,0,-1,636,1065,-48.8943,-2.91567
-581,-41,-49.0561,0.683472,0,0,0,0,0,0,0,-1,643,1065,-49.0561,-0.683449
-574,-41,-49.0506,0.861206,0.00312788,-0.0016353,-0.00240834,0.00413333,-0.00264075,-0.395491,0.00394254,0.0389819,650,1065,-49.0506,-0.861247
-567,-41,-49.1862,1.05066,0.00324061,-0.00128865,-0.00160383,0.00375101,-0.00179906,-0.308107,0.00326973,0.0418746,657,1065,-49.1862,-1.05071
-560,-41,-49.1569,0.753052,0.00315144,-0.000643203,-0.000489143,0.00321348,-0.000705241,-0.126157,0.00241201,0.0402002,664,1065,-49.1569,-0.753035
-553,-41,-49.0267,0.637695,0.00302981,0.000131481,0.000949973,0.00331343,-0.000152134,0.290127,0.00226137,0.0420261,671,1065,-49.0266,-0.637672
-546,-41,-48.981,0.826294,0.00308552,0.000743087,0.00267605,0.00483543,-0.00100683,0.579123,0.00360639,0.0407772,678,1065,-48.9809,-0.826328
-539,-41,-49.036,0.844849,0.00331601,0.000713419,0.00407159,0.0062892,-0.00225977,0.630727,0.00511524,0.0400008,685,1065,-49.036,-0.844895
-532,-41,-48.9048,0.862305,0.00374995,0.000888766,0.00549362,0.00799619,-0.00335747,0.658022,0.00673494,0.0402488,692,1065,-48.9048,-0.862351
-525,-41,0,0,0,0,0,0,0,0,0,-1,699,1065,0,0
-518,-41,0,0,0,0,0,0,0,0,0,-1,706,1065,0,0
-511,-41,0,0,0,0,0,0,0,0,0,-1,713,1065,0,0
-504,-41,0,0,0,0,0,0,0,0,0,-1,720,1065,0,0
-497,-41,0,0,0,0,0,0,0,0,0,-1,727,1065,0,0
-490,-41,0,0,0,0,0,0,0,0,0,-1,734,1065,0,0
-483,-41,0,0,0,0,0,0,0,0,0,-1,741,1065,0,0
-476,-41,0,0,0,0,0,0,0,0,0,-1,748,1065,0,0
-469,-41,0,0,0,0,0,0,0,0,0,-1,755,1065,0,0
-462,-41,0,0,0,0,0,0,0,0,0,-1,762,1065,0,0
-455,-41,0,0,0,0,0,0,0,0,0,-1,769,1065,0,0
-448,-41,0,0,0,0,0,0,0,0,0,-1,776,1065,0,0
-441,-41,0,0,0,0,0,0,0,0,0,-1,783,1065,0,0
-434,-41,0,0,0,0,0,0,0,0,0,-1,790,1065,0,0
-427,-41,0,0,0,0,0,0,0,0,0,-1,797,1065,0,0
-420,-41,0,0,0,0,0,0,0,0,0,-1,804,1065,0,0
-413,-41,0,0,0,0,0,0,0,0,0,-1,811,1065,0,0
-406,-41,0,0,0,0,0,0,0,0,0,-1,818,1065,0,0
-399,-41,0,0,0,0,0,0,0,0,0,-1,825,1065,0,0
-392,-41,0,0,0,0,0,0,0,0,0,-1,832,1065,0,0
-385,-41,0,0,0,0,0,0,0,0,0,-1,839,1065,0,0
-378,-41,0,0,0,0,0,0,0,0,0,-1,846,1065,0,0
-371,-41,0,0,0,0,0,0,0,0,0,-1,853,1065,0,0
-364,-41,0,0,0,0,0,0,0,0,0,-1,860,1065,0,0
-357,-41,0,0,0,0,0,0,0,0,0,-1,867,1065,0,0
-350,-41,0,0,0,0,0,0,0,0,0,-1,874,1065,0,0
-343,-41,0,0,0,0,0,0,0,0,0,-1,881,1065,0,0
-336,-41,0,0,0,0,0,0,0,0,0,-1,888,1065,0,0
-329,-41,0,0,0,0,0,0,0,0,0,-1,895,1065,0,0
-322,-41,0,0,0,0,0,0,0,0,0,-1,902,1065,0,0
-315,-41,0,0,0,0,0,0,0,0,0,-1,909,1065,0,0
-308,-41,0,0,0,0,0,0,0,0,0,-1,916,1065,0,0
-301,-41,0,0,0,0,0,0,0,0,0,-1,923,1065,0,0
-294,-41,0,0,0,0,0,0,0,0,0,-1,930,1065,0,0
-287,-41,0,0,0,0,0,0,0,0,0,-1,937,1065,0,0
-280,-41,0,0,0,0,0,0,0,0,0,-1,944,1065,0,0
-273,-41,0,0,0,0,0,0,0,0,0,-1,951,1065,0,0
-266,-41,0,0,0,0,0,0,0,0,0,-1,958,1065,0,0
-259,-41,0,0,0,0,0,0,0,0,0,-1,965,1065,0,0
-252,-41,0,0,0,0,0,0,0,0,0,-1,972,1065,0,0
-245,-41,0,0,0,0,0,0,0,0,0,-1,979,1065,0,0
-238,-41,0,0,0,0,0,0,0,0,0,-1,986,1065,0,0
-231,-41,0,0,0,0,0,0,0,0,0,-1,993,1065,0,0
-224,-41,0,0,0,0,0,0,0,0,0,-1,1000,1065,0,0
-217,-41,0,0,0,0,0,0,0,0,0,-1,1007,1065,0,0
-210,-41,0,0,0,0,0,0,0,0,0,-1,1014,1065,0,0
-203,-41,0,0,0,0,0,0,0,0,0,-1,1021,1065,0,0
-196,-41,0,0,0,0,0,0,0,0,0,-1,1028,1065,0,0
-189,-41,0,0,0,0,0,0,0,0,0,-1,1035,1065,0,0
-182,-41,0,0,0,0,0,0,0,0,0,-1,1042,1065,0,0
-175,-41,0,0,0,0,0,0,0,0,0,-1,1049,1065,0,0
-168,-41,0,0,0,0,0,0,0,0,0,-1,1056,1065,0,0
-161,-41,0,0,0,0,0,0,0,0,0,-1,1063,1065,0,0
-154,-41,0,0,0,0,0,0,0,0,0,-1,1070,1065,0,0
-147,-41,0,0,0,0,0,0,0,0,0,-1,1077,1065,0,0
-140,-41,0,0,0,0,0,0,0,0,0,-1,1084,1065,0,0
-133,-41,0,0,0,0,0,0,0,0,0,-1,1091,1065,0,0
-126,-41,0,0,0,0,0,0,0,0,0,-1,1098,1065,0,0
-119,-41,0,0,0,0,0,0,0,0,0,-1,1105,1065,0,0
-112,-41,0,0,0,0,0,0,0,0,0,-1,1112,1065,0,0
-105,-41,0,0,0,0,0,0,0,0,0,-1,1119,1065,0,0
-98,-41,0,0,0,0,0,0,0,0,0,-1,1126,1065,0,0
-91,-41,0,0,0,0,0,0,0,0,0,-1,1133,1065,0,0
-84,-41,0,0,0,0,0,0,0,0,0,-1,1140,1065,0,0
-77,-41,0,0,0,0,0,0,0,0,0,-1,1147,1065,0,0
-70,-41,0,0,0,0,0,0,0,0,0,-1,1154,1065,0,0
-63,-41,0,0,0,0,0,0,0,0,0,-1,1161,1065,0,0
-56,-41,0,0,0,0,0,0,0,0,0,-1,1168,1065,0,0
-49,-41,0,0,0,0,0,0,0,0,0,-1,1175,1065,0,0
-42,-41,0,0,0,0,0,0,0,0,0,-1,1182,1065,0,0
-35,-41,0,0,0,0,0,0,0,0,0,-1,1189,1065,0,0
-28,-41,0,0,0,0,0,0,0,0,0,-1,1196,1065,0,0
-21,-41,0,0,0,0,0,0,0,0,0,-1,1203,1065,0,0
-14,-41,0,0,0,0,0,0,0,0,0,-1,1210,1065,0,0
-7,-41,0,0,0,0,0,0,0,0,0,-1,1217,1065,0,0
0,-41,0,0,0,0,0,0,0,0,0,-1,1224,1065,0,0
7,-41,0,0,0,0,0,0,0,0,0,-1,1231,1065,0,0
14,-41,0,0,0,0,0,0,0,0,0,-1,1238,1065,0,0
21,-41,0,0,0,0,0,0,0,0,0,-1,1245,1065,0,0
28,-41,0,0,0,0,0,0,0,0,0,-1,1252,1065,0,0
35,-41,0,0,0,0,0,0,0,0,0,-1,1259,1065,0,0
42,-41,0,0,0,0,0,0,0,0,0,-1,1266,1065,0,0
49,-41,0,0,0,0,0,0,0,0,0,-1,1273,1065,0,0
56,-41,0,0,0,0,0,0,0,0,0,-1,1280,1065,0,0
63,-41,0,0,0,0,0,0,0,0,0,-1,1287,1065,0,0
70,-41,0,0,0,0,0,0,0,0,0,-1,1294,1065,0,0
77,-41,0,0,0,0,0,0,0,0,0,-1,1301,1065,0,0
84,-41,0,0,0,0,0,0,0,0,0,-1,1308,1065,0,0
91,-41,0,0,0,0,0,0,0,0,0,-1,1315,1065,0,0
98,-41,0,0,0,0,0,0,0,0,0,-1,1322,1065,0,0
105,-41,0,0,0,0,0,0,0,0,0,-1,1329,1065,0,0
112,-41,0,0,0,0,0,0,0,0,0,-1,1336,1065,0,0
119,-41,0,0,0,0,0,0,0,0,0,-1,1343,1065,0,0
126,-41,0,0,0,0,0,0,0,0,0,-1,1350,1065,0,0
133,-41,0,0,0,0,0,0,0,0,0,-1,1357,1065,0,0
140,-41,0,0,0,0,0,0,0,0,0,-1,1364,1065,0,0
147,-41,0,0,0,0,0,0,0,0,0,-1,1371,1065,0,0
154,-41,0,0,0,0,0,0,0,0,0,-1,1378,1065,0,0
161,-41,0,0,0,0,0,0,0,0,0,-1,1385,1065,0,0
168,-41,0,0,0,0,0,0,0,0,0,-1,1392,1065,0,0
175,-41,0,0,0,0,0,0,0,0,0,-1,1399,1065,0,0
182,-41,0,0,0,0,0,0,0,0,0,-1,1406,1065,0,0
189,-41,0,0,0,0,0,0,0,0,0,-1,1413,1065,0,0
196,-41,0,0,0,0,0,0,0,0,0,-1,1420,1065,0,0
203,-41,0,0,0,0,0,0,0,0,0,-1,1427,1065,0,0
210,-41,0,0,0,0,0,0,0,0,0,-1,1434,1065,0,0
217,-41,0,0,0,0,0,0,0,0,0,-1,1441,1065,0,0
224,-41,0,0,0,0,0,0,0,0,0,-1,1448,1065,0,0
231,-41,0,0,0,0,0,0,0,0,0,-1,1455,1065,0,0
238,-41,0,0,0,0,0,0,0,0,0,-1,1462,1065,0,0
245,-41,0,0,0,0,0,0,0,0,0,-1,1469,1065,0,0
252,-41,0,0,0,0,0,0,0,0,0,-1,1476,1065,0,0
259,-41,0,0,0,0,0,0,0,0,0,-1,1483,1065,0,0
266,-41,0,0,0,0,0,0,0,0,0,-1,1490,1065,0,0
273,-41,0,0,0,0,0,0,0,0,0,-1,1497,1065,0,0
280,-41,0,0,0,0,0,0,0,0,0,-1,1504,1065,0,0
287,-41,0,0,0,0,0,0,0,0,0,-1,1511,1065,0,0
294,-41,0,0,0,0,0,0,0,0,0,-1,1518,1065,0,0
301,-41,0,0,0,0,0,0,0,0,0,-1,1525,1065,0,0
308,-41,0,0,0,0,0,0,0,0,0,-1,1532,1065,0,0
315,-41,0,0,0,0,0,0,0,0,0,-1,1539,1065,0,0
322,-41,0,0,0,0,0,0,0,0,0,-1,1546,1065,0,0
329,-41,0,0,0,0,0,0,0,0,0,-1,1553,1065,0,0
336,-41,0,0,0,0,0,0,0,0,0,-1,1560,1065,0,0
343,-41,0,0,0,0,0,0,0,0,0,-1,1567,1065,0,0
350,-41,0,0,0,0,0,0,0,0,0,-1,1574,1065,0,0
357,-41,0,0,0,0,0,0,0,0,0,-1,1581,1065,0,0
364,-41,0,0,0,0,0,0,0,0,0,-1,1588,1065,0,0
371,-41,0,0,0,0,0,0,0,0,0,-1,1595,1065,0,0
378,-41,0,0,0,0,0,0,0,0,0,-1,1602,1065,0,0
385,-41,0,0,0,0,0,0,0,0,0,-1,1609,1065,0,0
392,-41,0,0,0,0,0,0,0,0,0,-1,1616,1065,0,0
399,-41,0,0,0,0,0,0,0,0,0,-1,1623,1065,0,0
406,-41,0,0,0,0,0,0,0,0,0,-1,1630,1065,0,0
413,-41,0,0,0,0,0,0,0,0,0,-1,1637,1065,0,0
420,-41,0,0,0,0,0,0,0,0,0,-1,1644,1065,0,0
427,-41,0,0,0,0,0,0,0,0,0,-1,1651,1065,0,0
434,-41,0,0,0,0,0,0,0,0,0,-1,1658,1065,0,0
441,-41,0,0,0,0,0,0,0,0,0,-1,1665,1065,0,0
448,-41,0,0,0,0,0,0,0,0,0,-1,1672,1065,0,0
455,-41,0,0,0,0,0,0,0,0,0,-1,1679,1065,0,0
462,-41,0,0,0,0,0,0,0,0,0,-1,1686,1065,0,0
469,-41,0,0,0,0,0,0,0,0,0,-1,1693,1065,0,0
476,-41,0,0,0,0,0,0,0,0,0,-1,1700,1065,0,0
483,-41,0,0,0,0,0,0,0,0,0,-1,1707,1065,0,0
490,-41,0,0,0,0,0,0,0,0,0,-1,1714,1065,0,0
497,-41,0,0,0,0,0,0,0,0,0,-1,1721,1065,0,0
504,-41,0,0,0,0,0,0,0,0,0,-1,1728,1065,0,0
511,-41,0,0,0,0,0,0,0,0,0,-1,1735,1065,0,0
518,-41,0,0,0,0,0,0,0,0,0,-1,1742,1065,0,0
525,-41,0,0,0,0,0,0,0,0,0,-1,1749,1065,0,0
532,-41,0,0,0,0,0,0,0,0,0,-1,1756,1065,0,0
539,-41,0,0,0,0,0,0,0,0,0,-1,1763,1065,0,0
546,-41,0,0,0,0,0,0,0,0,0,-1,1770,1065,0,0
553,-41,0,0,0,0,0,0,0,0,0,-1,1777,1065,0,0
560,-41,0,0,0,0,0,0,0,0,0,-1,1784,1065,0,0
567,-41,0,0,0,0,0,0,0,0,0,-1,1791,1065,0,0
574,-41,0,0,0,0,0,0,0,0,0,-1,1798,1065,0,0
581,-41,0,0,0,0,0,0,0,0,0,-1,1805,1065,0,0
588,-41,0,0,0,0,0,0,0,0,0,-1,1812,1065,0,0
595,-41,0,0,0,0,0,0,0,0,0,-1,1819,1065,0,0
602,-41,0,0,0,0,0,0,0,0,0,-1,1826,1065,0,0
609,-41,0,0,0,0,0,0,0,0,0,-1,1833,1065,0,0
616,-41,0,0,0,0,0,0,0,0,0,-1,1840,1065,0,0
623,-41,0,0,0,0,0,0,0,0,0,-1,1847,1065,0,0
630,-41,0,0,0,0,0,0,0,0,0,-1,1854,1065,0,0
637,-41,0,0,0,0,0,0,0,0,0,-1,1861,1065,0,0
644,-41,0,0,0,0,0,0,0,0,0,-1,1868,1065,0,0
651,-41,64.6868,2.48743,0.000463647,0.00288979,0.00486371,0.00668943,-0.00333599,0.907611,0.00589512,0.0359943,1875,1065,64.6868,-2.4874
658,-41,64.7043,2.34521,0.000514692,0.00167186,0.00347695,0.00461804,-0.00243148,0.867846,0.00413479,0.0401944,1882,1065,64.7043,-2.34518
665,-41,64.8075,2.38,0.000408525,0.000882632,0.00246831,0.00312524,-0.00183408,0.833271,0.00289543,0.040436,1889,1065,64.8075,-2.38001
672,-41,64.8363,2.67542,0.000258076,0.000362086,0.00187733,0.00218813,-0.00156796,0.799246,0.00217841,0.0414821,1896,1065,64.8363,-2.67541
679,-41,64.8435,2.64636,2.80198e-05,1.31854e-05,0.0014613,0.00148192,-0.00144072,0.78286,0.00168744,0.0414257,1903,1065,64.8435,-2.64635
686,-41,64.8491,2.8446,-0.000475356,-0.000407224,0.00138812,0.00094725,-0.00182983,0.797666,0.00163011,0.0424559,1910,1065,64.8492,-2.8446
693,-41,64.6577,2.52832,-0.000885313,-0.000764024,0.00154803,0.00072455,-0.00237389,0.804976,0.00187146,0.0450706,1917,1065,64.6577,-2.52828
700,-41,64.7765,2.58301,-0.0011388,-0.000951693,0.00186507,0.000822169,-0.00291266,0.810458,0.0022661,0.0396599,1924,1065,64.7765,-2.58296
707,-41,64.7502,2.5647,-0.00163869,-0.000895522,0.00211478,0.00088007,-0.00341428,0.872365,0.0026193,0.0288509,1931,1065,64.7502,-2.56475
714,-41,64.7488,2.66638,-0.00232621,-0.000530498,0.00237069,0.00110666,-0.00396337,0.966417,0.00307818,0.0259679,1938,1065,64.7488,-2.66639
721,-41,64.7677,2.82935,0,0,0,0,0,0,0,-1,1945,1065,64.7677,-2.8293
728,-41,63.974,7.39771,0,0,0,0,0,0,0,-1,1952,1065,63.974,-7.39768
735,-41,63.8132,7.15393,-0.00415391,0.0024718,0.0027497,0.00346427,-0.00514639,1.22441,0.00500289,0.0217782,1959,1065,63.8133,-7.15392
742,-41,63.7306,6.91187,-0.00306427,0.00384659,0.00271592,0.00478618,-0.00400386,1.23773,0.00508163,0.0174449,1966,1065,63.7306,-6.9118
749,-41,63.7534,6.69666,-0.00208468,0.00517184,0.00271169,0.00607321,-0.00298605,1.24989,0.00533064,0.0160789,1973,1065,63.7534,-6.69665
756,-41,63.7738,6.44446,-0.000893488,0.00696484,0.0022842,0.00758055,-0.0015092,1.3075,0.00562467,0.0149172,1980,1065,63.7738,-6.44442
763,-41,63.6643,6.14783,0.0013852,0.00886467,0.00127854,0.00907718,0.00117268,1.40609,0.00570091,0.0127142,1987,1065,63.6643,-6.14785
770,-41,63.5334,5.89526,0.00555273,0.0110558,-0.000138939,0.0110593,0.00554922,-1.54557,0.00638508,0.0141647,1994,1065,63.5335,-5.89526
777,-41,63.3784,5.63916,0.0116472,0.0127554,-0.00199258,0.0142695,0.0101331,-0.921016,0.00847753,0.0170895,2001,1065,63.3783,-5.63915
784,-41,63.3789,5.24072,0.0185737,0.0135119,-0.00419016,0.020938,0.0111476,-0.513717,0.012097,0.0282435,2008,1065,63.3789,-5.24069
791,-41,63.9934,4.81995,0.0269798,0.012551,-0.00694973,0.0297827,0.00974811,-0.383358,0.0175336,0.0450735,2015,1065,63.9933,-4.81998
798,-41,64.6499,4.34802,0,0,0,0,0,0,0,-1,2022,1065,64.6499,-4.34798
805,-41,63.3113,2.65051,0,0,0,0,0,0,0,-1,2029,1065,63.3112,-2.65048
812,-41,63.6873,3.3894,0,0,0,0,0,0,0,-1,2036,1065,63.6873,-3.38944
-700,-48,-50.5302,-3.56238,0,0,0,0,0,0,0,-1,524,1072,-50.5302,3.56236
-693,-48,-49.3891,-4.4762,0,0,0,0,0,0,0,-1,531,1072,-49.3891,4.47614
-686,-48,-49.4805,-3.74158,0,0,0,0,0,0,0,-1,538,1072,-49.4805,3.74157
-679,-48,-49.0522,-2.61365,0.0424879,-0.010647,0.0566762,0.0785146,-0.0466737,0.566227,0.0730526,0.0477714,545,1072,-49.0522,2.61363
-672,-48,-48.6089,-1.34717,0.0397519,0.00363516,0.0515702,0.076334,-0.032947,0.616985,0.0647298,0.0441273,552,1072,-48.6089,1.34712
-665,-48,-48.6403,-0.271118,0.0348557,0.0119641,0.0448898,0.069736,-0.0229161,0.66057,0.0557229,0.0449266,559,1072,-48.6403,0.271176
-658,-48,-48.2768,1.09155,0.0291028,0.0159161,0.037495,0.0605798,-0.0155609,0.698365,0.0464506,0.0450797,566,1072,-48.2768,-1.09159
-651,-48,-47.8276,2.17419,0.0233015,0.0167416,0.0300115,0.0502117,-0.0101687,0.730969,0.0373286,0.0398559,573,1072,-47.8276,-2.17414
-644,-48,-47.959,3.13525,0.0180807,0.0160135,0.0228054,0.0398759,-0.00578168,0.762752,0.0287059,0.0237376,580,1072,-47.959,-3.13523
-637,-48,-48.0042,3.39392,0.0132083,0.0140194,0.0156704,0.0292895,-0.00206177,0.798336,0.0202486,0.0246802,587,1072,-48.0042,-3.39387
-630,-48,-48.0463,3.75708,0.0090691,0.0109072,0.00945853,0.0194912,0.000485057,0.833828,0.0128355,0.027864,594,1072,-48.0463,-3.7571
-623,-48,-48.1485,4.12781,0.00580017,0.00746903,0.00503132,0.0117346,0.00153456,0.867574,0.00736506,0.0135425,601,1072,-48.1485,-4.1278
-616,-48,-48.1525,4.4928,0.00397999,0.00406546,0.00116934,0.00519285,0.0028526,0.803662,0.00300295,0.0121077,608,1072,-48.1524,-4.49279
-609,-48,-48.0933,4.86963,0.00322107,0.00143177,-0.00190427,0.00443037,0.000222463,-0.565794,0.00288229,0.0137786,615,1072,-48.0932,-4.86967
-602,-48,-48.0955,5.198,0.00233834,1.01287e-05,-0.00333468,0.00470626,-0.00235779,-0.617466,0.00415288,0.0145206,622,1072,-48.0955,-5.19796
-595,-48,-48.1047,5.47473,0.00204038,-0.000966134,-0.00364324,0.00447832,-0.00340407,-0.589731,0.00456496,0.0355095,629,1072,-48.1047,-5.47473
-588,-48,-48.2928,5.68835,0,0,0,0,0,0,0,-1,636,1072,-48.2928,-5.6884
-581,-48,-48.9993,0.601074,0,0,0,0,0,0,0,-1,643,1072,-48.9993,-0.601058
-574,-48,-49.1077,0.952515,0.00350737,-0.00174875,-0.00247133,0.00448683,-0.0027282,-0.377336,0.00420664,0.0420045,650,1072,-49.1077,-0.952515
-567,-48,-49.2233,1.15906,0.00368321,-0.00146437,-0.00166821,0.00417655,-0.00195771,-0.287538,0.00361802,0.0445452,657,1072,-49.2233,-1.15903
-560,-48,-49.1067,0.562256,0.00366431,-0.000896926,-0.000547541,0.00372912,-0.000961733,-0.117812,0.00286105,0.0423724,664,1072,-49.1067,-0.562233
-553,-48,-48.9847,0.455444,0.00364166,-0.000202723,0.00093387,0.00385651,-0.00041757,0.226126,0.0027209,0.0429712,671,1072,-48.9847,-0.455497
-546,-48,-48.8964,0.858521,0.00384827,0.000366805,0.00275417,0.0053657,-0.00115062,0.503577,0.004016,0.0403574,678,1072,-48.8964,-0.85854
-539,-48,-48.9601,1.11255,0.00441111,0.000326744,0.00431721,0.00714478,-0.00240693,0.564477,0.00573636,0.0398174,685,1072,-48.9601,-1.1125
-532,-48,-48.9445,1.22559,0.0051471,0.000566733,0.00581871,0.0091101,-0.00339627,0.597914,0.00746753,0.0416297,692,1072,-48.9444,-1.22563
-525,-48,0,0,0,0,0,0,0,0,0,-1,699,1072,0,0
-518,-48,0,0,0,0,0,0,0,0,0,-1,706,1072,0,0
-511,-48,0,0,0,0,0,0,0,0,0,-1,713,1072,0,0
-504,-48,0,0,0,0,0,0,0,0,0,-1,720,1072,0,0
-497,-48,0,0,0,0,0,0,0,0,0,-1,727,1072,0,0
-490,-48,0,0,0,0,0,0,0,0,0,-1,734,1072,0,0
-483,-48,0,0,0,0,0,0,0,0,0,-1,741,1072,0,0
-476,-48,0,0,0,0,0,0,0,0,0,-1,748,1072,0,0
-469,-48,0,0,0,0,0,0,0,0,0,-1,755,1072,0,0
-462,-48,0,0,0,0,0,0,0,0,0,-1,762,1072,0,0
-455,-48,0,0,0,0,0,0,0,0,0,-1,769,1072,0,0
-448,-48,0,0,0,0,0,0,0,0,0,-1,776,1072,0,0
-441,-48,0,0,0,0,0,0,0,0,0,-1,783,1072,0,0
-434,-48,0,0,0,0,0,0,0,0,0,-1,790,1072,0,0
-427,-48,0,0,0,0,0,0,0,0,0,-1,797,1072,0,0
-420,-48,0,0,0,0,0,0,0,0,0,-1,804,1072,0,0
-413,-48,0,0,0,0,0,0,0,0,0,-1,811,1072,0,0
-406,-48,0,0,0,0,0,0,0,0,0,-1,818,1072,0,0
-399,-48,0,0,0,0,0,0,0,0,0,-1,825,1072,0,0
-392,-48,0,0,0,0,0,0,0,0,0,-1,832,1072,0,0
-385,-48,0,0,0,0,0,0,0,0,0,-1,839,1072,0,0
-378,-48,0,0,0,0,0,0,0,0,0,-1,846,1072,0,0
-371,-48,0,0,0,0,0,0,0,0,0,-1,853,1072,0,0
-364,-48,0,0,0,0,0,0,0,0,0,-1,860,1072,0,0
-357,-48,0,0,0,0,0,0,0,0,0,-1,867,1072,0,0
-350,-48,0,0,0,0,0,0,0,0,0,-1,874,1072,0,0
-343,-48,0,0,0,0,0,0,0,0,0,-1,881,1072,0,0
-336,-48,0,0,0,0,0,0,0,0,0,-1,888,1072,0,0
-329,-48,0,0,0,0,0,0,0,0,0,-1,895,1072,0,0
-322,-48,0,0,0,0,0,0,0,0,0,-1,902,1072,0,0
-315,-48,0,0,0,0,0,0,0,0,0,-1,909,1072,0,0
-308,-48,0,0,0,0,0,0,0,0,0,-1,916,1072,0,0
-301,-48,0,0,0,0,0,0,0,0,0,-1,923,1072,0,0
-294,-48,0,0,0,0,0,0,0,0,0,-1,930,1072,0,0
-287,-48,0,0,0,0,0,0,0,0,0,-1,937,1072,0,0
-280,-48,0,0,0,0,0,0,0,0,0,-1,944,1072,0,0
-273,-48,0,0,0,0,0,0,0,0,0,-1,951,1072,0,0
-266,-48,0,0,0,0,0,0,0,0,0,-1,958,1072,0,0
-259,-48,0,0,0,0,0,0,0,0,0,-1,965,1072,0,0
-252,-48,0,0,0,0,0,0,0,0,0,-1,972,1072,0,0
-245,-48,0,0,0,0,0,0,0,0,0,-1,979,1072,0,0
-238,-48,0,0,0,0,0,0,0,0,0,-1,986,1072,0,0
-231,-48,0,0,0,0,0,0,0,0,0,-1,993,1072,0,0
-224,-48,0,0,0,0,0,0,0,0,0,-1,1000,1072,0,0
-217,-48,0,0,0,0,0,0,0,0,0,-1,1007,1072,0,0
-210,-48,0,0,0,0,0,0,0,0,0,-1,1014,1072,0,0
-203,-48,0,0,0,0,0,0,0,0,0,-1,1021,1072,0,0
-196,-48,0,0,0,0,0,0,0,0,0,-1,1028,1072,0,0
-189,-48,0,0,0,0,0,0,0,0,0,-1,1035,1072,0,0
-182,-48,0,0,0,0,0,0,0,0,0,-1,1042,1072,0,0
-175,-48,0,0,0,0,0,0,0,0,0,-1,1049,1072,0,0
-168,-48,0,0,0,0,0,0,0,0,0,-1,1056,1072,0,0
-161,-48,0,0,0,0,0,0,0,0,0,-1,1063,1072,0,0
-154,-48,0,0,0,0,0,0,0,0,0,-1,1070,1072,0,0
-147,-48,0,0,0,0,0,0,0,0,0,-1,1077,1072,0,0
-140,-48,0,0,0,0,0,0,0,0,0,-1,1084,1072,0,0
-133,-48,0,0,0,0,0,0,0,0,0,-1,1091,1072,0,0
-126,-48,0,0,0,0,0,0,0,0,0,-1,1098,1072,0,0
-119,-48,0,0,0,0,0,0,0,0,0,-1,1105,1072,0,0
-112,-48,0,0,0,0,0,0,0,0,0,-1,1112,1072,0,0
-105,-48,0,0,0,0,0,0,0,0,0,-1,1119,1072,0,0
-98,-48,0,0,0,0,0,0,0,0,0,-1,1126,1072,0,0
-91,-48,0,0,0,0,0,0,0,0,0,-1,1133,1072,0,0
-84,-48,0,0,0,0,0,0,0,0,0,-1,1140,1072,0,0
-77,-48,0,0,0,0,0,0,0,0,0,-1,1147,1072,0,0
-70,-48,0,0,0,0,0,0,0,0,0,-1,1154,1072,0,0
-63,-48,0,0,0,0,0,0,0,0,0,-1,1161,1072,0,0
-56,-48,0,0,0,0,0,0,0,0,0,-1,1168,1072,0,0
-49,-48,0,0,0,0,0,0,0,0,0,-1,1175,1072,0,0
-42,-48,0,0,0,0,0,0,0,0,0,-1,1182,1072,0,0
-35,-48,0,0,0,0,0,0,0,0,0,-1,1189,1072,0,0
-28,-48,0,0,0,0,0,0,0,0,0,-1,1196,1072,0,0
-21,-48,0,0,0,0,0,0,0,0,0,-1,1203,1072,0,0
-14,-48,0,0,0,0,0,0,0,0,0,-1,1210,1072,0,0
-7,-48,0,0,0,0,0,0,0,0,0,-1,1217,1072,0,0
0,-48,0,0,0,0,0,0,0,0,0,-1,1224,1072,0,0
7,-48,0,0,0,0,0,0,0,0,0,-1,1231,1072,0,0
14,-48,0,0,0,0,0,0,0,0,0,-1,1238,1072,0,0
21,-48,0,0,0,0,0,0,0,0,0,-1,1245,1072,0,0
28,-48,0,0,0,0,0,0,0,0,0,-1,1252,1072,0,0
35,-48,0,0,0,0,0,0,0,0,0,-1,1259,1072,0,0
42,-48,0,0,0,0,0,0,0,0,0,-1,1266,1072,0,0
49,-48,0,0,0,0,0,0,0,0,0,-1,1273,1072,0,0
56,-48,0,0,0,0,0,0,0,0,0,-1,1280,1072,0,0
63,-48,0,0,0,0,0,0,0,0,0,-1,1287,1072,0,0
70,-48,0,0,0,0,0,0,0,0,0,-1,1294,1072,0,0
77,-48,0,0,0,0,0,0,0,0,0,-1,1301,1072,0,0
84,-48,0,0,0,0,0,0,0,0,0,-1,1308,1072,0,0
91,-48,0,0,0,0,0,0,0,0,0,-1,1315,1072,0,0
98,-48,0,0,0,0,0,0,0,0,0,-1,1322,1072,0,0
105,-48,0,0,0,0,0,0,0,0,0,-1,1329,1072,0,0
112,-48,0,0,0,0,0,0,0,0,0,-1,1336,1072,0,0
119,-48,0,0,0,0,0,0,0,0,0,-1,1343,1072,0,0
126,-48,0,0,0,0,0,0,0,0,0,-1,1350,1072,0,0
133,-48,0,0,0,0,0,0,0,0,0,-1,1357,1072,0,0
140,-48,0,0,0,0,0,0,0,0,0,-1,1364,1072,0,0
147,-48,0,0,0,0,0,0,0,0,0,-1,1371,1072,0,0
154,-48,0,0,0,0,0,0,0,0,0,-1,1378,1072,0,0
161,-48,0,0,0,0,0,0,0,0,0,-1,1385,1072,0,0
168,-48,0,0,0,0,0,0,0,0,0,-1,1392,1072,0,0
175,-48,0,0,0,0,0,0,0,0,0,-1,1399,1072,0,0
182,-48,0,0,0,0,0,0,0,0,0,-1,1406,1072,0,0
189,-48,0,0,0,0,0,0,0,0,0,-1,1413,1072,0,0
196,-48,0,0,0,0,0,0,0,0,0,-1,1420,1072,0,0
203,-48,0,0,0,0,0,0,0,0,0,-1,1427,1072,0,0
210,-48,0,0,0,0,0,0,0,0,0,-1,1434,1072,0,0
217,-48,0,0,0,0,0,0,0,0,0,-1,1441,1072,0,0
224,-48,0,0,0,0,0,0,0,0,0,-1,1448,1072,0,0
231,-48,0,0,0,0,0,0,0,0,0,-1,1455,1072,0,0
238,-48,0,0,0,0,0,0,0,0,0,-1,1462,1072,0,0
245,-48,0,0,0,0,0,0,0,0,0,-1,1469,1072,0,0
252,-48,0,0,0,0,0,0,0,0,0,-1,1476,1072,0,0
259,-48,0,0,0,0,0,0,0,0,0,-1,1483,1072,0,0
266,-48,0,0,0,0,0,0,0,0,0,-1,1490,1072,0,0
273,-48,0,0,0,0,0,0,0,0,0,-1,1497,1072,0,0
280,-48,0,0,0,0,0,0,0,0,0,-1,1504,1072,0,0
287,-48,0,0,0,0,0,0,0,0,0,-1,1511,1072,0,0
294,-48,0,0,0,0,0,0,0,0,0,-1,1518,1072,0,0
301,-48,0,0,0,0,0,0,0,0,0,-1,1525,1072,0,0
308,-48,0,0,0,0,0,0,0,0,0,-1,1532,1072,0,0
315,-48,0,0,0,0,0,0,0,0,0,-1,1539,1072,0,0
322,-48,0,0,0,0,0,0,0,0,0,-1,1546,1072,0,0
329,-48,0,0,0,0,0,0,0,0,0,-1,1553,1072,0,0
336,-48,0,0,0,0,0,0,0,0,0,-1,1560,1072,0,0
343,-48,0,0,0,0,0,0,0,0,0,-1,1567,1072,0,0
350,-48,0,0,0,0,0,0,0,0,0,-1,1574,1072,0,0
357,-48,0,0,0,0,0,0,0,0,0,-1,1581,1072,0,0
364,-48,0,0,0,0,0,0,0,0,0,-1,1588,1072,0,0
371,-48,0,0,0,0,0,0,0,0,0,-1,1595,1072,0,0
378,-48,0,0,0,0,0,0,0,0,0,-1,1602,1072,0,0
385,-48,0,0,0,0,0,0,0,0,0,-1,1609,1072,0,0
392,-48,0,0,0,0,0,0,0,0,0,-1,1616,1072,0,0
399,-48,0,0,0,0,0,0,0,0,0,-1,1623,1072,0,0
406,-48,0,0,0,0,0,0,0,0,0,-1,1630,1072,0,0
413,-48,0,0,0,0,0,0,0,0,0,-1,1637,1072,0,0
420,-48,0,0,0,0,0,0,0,0,0,-1,1644,1072,0,0
427,-48,0,0,0,0,0,0,0,0,0,-1,1651,1072,0,0
434,-48,0,0,0,0,0,0,0,0,0,-1,1658,1072,0,0
441,-48,0,0,0,0,0,0,0,0,0,-1,1665,1072,0,0
448,-48,0,0,0,0,0,0,0,0,0,-1,1672,1072,0,0
455,-48,0,0,0,0,0,0,0,0,0,-1,1679,1072,0,0
462,-48,0,0,0,0,0,0,0,0,0,-1,1686,1072,0,0
469,-48,0,0,0,0,0,0,0,0,0,-1,1693,1072,0,0
476,-48,0,0,0,0,0,0,0,0,0,-1,1700,1072,0,0
483,-48,0,0,0,0,0,0,0,0,0,-1,1707,1072,0,0
490,-48,0,0,0,0,0,0,0,0,0,-1,1714,1072,0,0
497,-48,0,0,0,0,0,0,0,0,0,-1,1721,1072,0,0
504,-48,0,0,0,0,0,0,0,0,0,-1,1728,1072,0,0
511,-48,0,0,0,0,0,0,0,0,0,-1,1735,1072,0,0
518,-48,0,0,0,0,0,0,0,0,0,-1,1742,1072,0,0
525,-48,0,0,0,0,0,0,0,0,0,-1,1749,1072,0,0
532,-48,0,0,0,0,0,0,0,0,0,-1,1756,1072,0,0
539,-48,0,0,0,0,0,0,0,0,0,-1,1763,1072,0,0
546,-48,0,0,0,0,0,0,0,0,0,-1,1770,1072,0,0
553,-48,0,0,0,0,0,0,0,0,0,-1,1777,1072,0,0
560,-48,0,0,0,0,0,0,0,0,0,-1,1784,1072,0,0
567,-48,0,0,0,0,0,0,0,0,0,-1,1791,1072,0,0
574,-48,0,0,0,0,0,0,0,0,0,-1,1798,1072,0,0
581,-48,0,0,0,0,0,0,0,0,0,-1,1805,1072,0,0
588,-48,0,0,0,0,0,0,0,0,0,-1,1812,1072,0,0
595,-48,0,0,0,0,0,0,0,0,0,-1,1819,1072,0,0
602,-48,0,0,0,0,0,0,0,0,0,-1,1826,1072,0,0
609,-48,0,0,0,0,0,0,0,0,0,-1,1833,1072,0,0
616,-48,0,0,0,0,0,0,0,0,0,-1,1840,1072,0,0
623,-48,0,0,0,0,0,0,0,0,0,-1,1847,1072,0,0
630,-48,0,0,0,0,0,0,0,0,0,-1,1854,1072,0,0
637,-48,0,0,0,0,0,0,0,0,0,-1,1861,1072,0,0
644,-48,0,0,0,0,0,0,0,0,0,-1,1868,1072,0,0
651,-48,64.724,2.47156,0.000769478,0.0014202,0.00520625,0.00631125,-0.00412157,0.816604,0.00606745,0.0319853,1875,1072,64.724,-2.47156
658,-48,64.7501,2.53638,0.000755352,0.000608675,0.00385336,0.00453607,-0.00317204,0.775883,0.00447345,0.0381419,1882,1072,64.7501,-2.53638
665,-48,64.649,2.698,0.000592763,0.000103756,0.00280583,0.00316472,-0.0024682,0.741937,0.00326045,0.0396385,1889,1072,64.649,-2.69805
672,-48,64.677,2.8783,0.0004018,-0.000201027,0.00212878,0.0022504,-0.00204962,0.715071,0.00248352,0.0380341,1896,1072,64.677,-2.87834
679,-48,64.7288,2.66101,0.000132738,-0.000366202,0.00159127,0.00149397,-0.00172744,0.707644,0.00186151,0.0379036,1903,1072,64.7288,-2.66106
686,-48,64.7346,2.50122,-0.000335379,-0.000656159,0.00142494,0.000938173,-0.00192971,0.729355,0.00168844,0.0380553,1910,1072,64.7347,-2.50124
693,-48,64.808,2.58167,-0.000673476,-0.000927886,0.00150761,0.000712286,-0.00231365,0.74331,0.00182675,0.0399026,1917,1072,64.8079,-2.58166
700,-48,64.8457,2.61792,-0.000862627,-0.00104565,0.00177437,0.000822589,-0.00273087,0.759633,0.00214794,0.0365314,1924,1072,64.8457,-2.61796
707,-48,64.7783,2.56958,-0.0013044,-0.000976616,0.00200769,0.000873861,-0.00315488,0.826124,0.00244711,0.0278985,1931,1072,64.7783,-2.5696
714,-48,64.7389,2.71118,-0.00190974,-0.000652166,0.0022584,0.00106335,-0.00362526,0.921171,0.00283847,0.0416321,1938,1072,64.7389,-2.71119
721,-48,64.7467,2.96289,0,0,0,0,0,0,0,-1,1945,1072,64.7466,-2.9629
728,-48,63.6488,7.54443,0,0,0,0,0,0,0,-1,1952,1072,63.6489,-7.54446
735,-48,63.499,7.2887,-0.00345734,0.0020014,0.00275298,0.00314867,-0.00460461,1.17594,0.00450259,0.022508,1959,1072,63.499,-7.28869
742,-48,63.3584,7.00708,-0.00240217,0.00332234,0.00279245,0.00445887,-0.0035387,1.18427,0.00462758,0.0179101,1966,1072,63.3584,-7.00712
749,-48,63.3931,6.70093,-0.0014669,0.00455548,0.00281368,0.00566546,-0.00257688,1.19504,0.00486881,0.0152791,1973,1072,63.3931,-6.70091
756,-48,63.3788,6.39246,-0.0003352,0.00621417,0.00237386,0.00698408,-0.00110511,1.25717,0.00506477,0.0131667,1980,1072,63.3788,-6.39248
763,-48,63.2915,6.09436,0.0016968,0.00784599,0.0012783,0.00810114,0.00144165,1.37379,0.00499011,0.0127864,1987,1072,63.2916,-6.09433
770,-48,63.2344,5.79822,0.00535646,0.00976582,-0.000284848,0.00978414,0.00533814,-1.50655,0.0056567,0.014594,1994,1072,63.2343,-5.79818
777,-48,63.0852,5.47021,0.0105265,0.0111343,-0.00235796,0.0132079,0.00845294,-0.849481,0.00772455,0.013432,2001,1072,63.0851,-5.47023
784,-48,63.0146,5.07813,0.0163538,0.0115467,-0.00487465,0.0193853,0.00851526,-0.556352,0.0112196,0.0248283,2008,1072,63.0146,-5.07808
791,-48,63.8069,4.48071,0.0232658,0.0102768,-0.00807226,0.0271318,0.00641077,-0.446645,0.0163747,0.0414117,2015,1072,63.8068,-4.48072
798,-48,64.5059,3.94348,0,0,0,0,0,0,0,-1,2022,1072,64.5059,-3.94346
805,-48,60.842,4.64404,0,0,0,0,0,0,0,-1,2029,1072,60.8421,-4.64401
812,-48,62.3936,5.14978,0,0,0,0,0,0,0,-1,2036,1072,62.3937,-5.14979
-700,-55,-49.9455,-2.68396,0,0,0,0,0,0,0,-1,524,1079,-49.9455,2.68396
-693,-55,-49.4732,-5.39514,0,0,0,0,0,0,0,-1,531,1079,-49.4732,5.39511
-686,-55,-48.9638,-4.41492,0,0,0,0,0,0,0,-1,538,1079,-48.9638,4.41495
-679,-55,-48.7402,-3.23547,0.0483487,-0.00467087,0.0556874,0.0835144,-0.0398365,0.563247,0.0726896,0.0497498,545,1079,-48.7402,3.23547
-672,-55,-48.6314,-2.47998,0.0449472,0.00738407,0.0509756,0.0804912,-0.0281599,0.608894,0.0651099,0.0481345,552,1079,-48.6314,2.47996
-665,-55,-48.299,-1.06201,0.03919,0.0139962,0.0445504,0.0728902,-0.019704,0.647616,0.0563223,0.0480457,559,1079,-48.299,1.06205
-658,-55,-48.178,0.924561,0.032549,0.0167435,0.0373301,0.0628037,-0.0135112,0.681088,0.0470244,0.0474655,566,1079,-48.1781,-0.924565
-651,-55,-47.62,1.85083,0.0259455,0.0168145,0.0299648,0.0516906,-0.00893059,0.709799,0.0377907,0.0442468,573,1079,-47.62,-1.8508
-644,-55,-47.5898,3.01428,0.0200854,0.0155794,0.0228717,0.0408147,-0.00514996,0.736304,0.0290789,0.0285753,580,1079,-47.5898,-3.01423
-637,-55,-47.6393,3.31677,0.0147032,0.0132949,0.0158701,0.0298848,-0.00188671,0.763229,0.0205809,0.0232677,587,1079,-47.6393,-3.31679
-630,-55,-47.6547,3.72681,0.0100681,0.0100354,0.00959514,0.0196469,0.000456579,0.784545,0.0129484,0.0252718,594,1079,-47.6547,-3.72683
-623,-55,-47.8277,4.15796,0.00641142,0.00673479,0.00509229,0.011668,0.00147825,0.801268,0.00733571,0.0199168,601,1079,-47.8277,-4.15791
-616,-55,-47.8542,4.51099,0.00435571,0.00358442,0.00119817,0.00522877,0.00271136,0.629702,0.00301952,0.0186267,608,1079,-47.8542,-4.51095
-609,-55,-47.7686,4.94556,0.00355631,0.00104415,-0.0018016,0.00449648,0.000103985,-0.480976,0.0029636,0.0194774,615,1079,-47.7686,-4.9455
-602,-55,-47.6826,5.30237,0.00265379,-0.00036039,-0.00314237,0.00463179,-0.00233838,-0.561799,0.0040962,0.0160192,622,1079,-47.6826,-5.30233
-595,-55,-47.535,5.66479,0.00234683,-0.00126847,-0.00340419,0.00439354,-0.00331518,-0.541326,0.00446512,0.0348529,629,1079,-47.5351,-5.66482
-588,-55,-47.5194,6.07959,0,0,0,0,0,0,0,-1,636,1079,-47.5194,-6.07959
-581,-55,-48.9927,0.866577,0,0,0,0,0,0,0,-1,643,1079,-48.9928,-0.866597
-574,-55,-49.0607,1.11084,0.0037836,-0.00224298,-0.00231562,0.00457057,-0.00302996,-0.327608,0.00441811,0.0411298,650,1079,-49.0607,-1.11086
-567,-55,-49.1442,0.935669,0.00399226,-0.00210037,-0.00156737,0.00437183,-0.00247994,-0.237595,0.00400582,0.0425772,657,1079,-49.1442,-0.9357
-560,-55,-48.9584,0.202759,0.00400132,-0.00170182,-0.0005343,0.00405094,-0.00175144,-0.0926115,0.00343658,0.0437933,664,1079,-48.9584,-0.202756
-553,-55,-48.925,0.326294,0.00400328,-0.00118685,0.000839447,0.00413568,-0.00131924,0.156427,0.00328635,0.044919,671,1079,-48.925,-0.326284
-546,-55,-48.9439,0.836182,0.00429777,-0.000762851,0.00252509,0.00534217,-0.00180725,0.392183,0.00429261,0.0402184,678,1079,-48.9439,-0.836169
-539,-55,-48.9692,1.09277,0.00519363,-0.000933426,0.0039617,0.00713812,-0.00287792,0.456279,0.00595457,0.039905,685,1079,-48.9692,-1.09277
-532,-55,-48.9111,1.19421,0.00622887,-0.000824633,0.00522101,0.00900266,-0.00359843,0.488354,0.00749495,0.0414017,692,1079,-48.9111,-1.19416
-525,-55,0,0,0,0,0,0,0,0,0,-1,699,1079,0,0
-518,-55,0,0,0,0,0,0,0,0,0,-1,706,1079,0,0
-511,-55,0,0,0,0,0,0,0,0,0,-1,713,1079,0,0
-504,-55,0,0,0,0,0,0,0,0,0,-1,720,1079,0,0
-497,-55,0,0,0,0,0,0,0,0,0,-1,727,1079,0,0
-490,-55,0,0,0,0,0,0,0,0,0,-1,734,1079,0,0
-483,-55,0,0,0,0,0,0,0,0,0,-1,741,1079,0,0
-476,-55,0,0,0,0,0,0,0,0,0,-1,748,1079,0,0
-469,-55,0,0,0,0,0,0,0,0,0,-1,755,1079,0,0
-462,-55,0,0,0,0,0,0,0,0,0,-1,762,1079,0,0
-455,-55,0,0,0,0,0,0,0,0,0,-1,769,1079,0,0
-448,-55,0,0,0,0,0,0,0,0,0,-1,776,1079,0,0
-441,-55,0,0,0,0,0,0,0,0,0,-1,783,1079,0,0
-434,-55,0,0,0,0,0,0,0,0,0,-1,790,1079,0,0
-427,-55,0,0,0,0,0,0,0,0,0,-1,797,1079,0,0
-420,-55,0,0,0,0,0,0,0,0,0,-1,804,1079,0,0
-413,-55,0,0,0,0,0,0,0,0,0,-1,811,1079,0,0
-406,-55,0,0,0,0,0,0,0,0,0,-1,818,1079,0,0
-399,-55,0,0,0,0,0,0,0,0,0,-1,825,1079,0,0
-392,-55,0,0,0,0,0,0,0,0,0,-1,832,1079,0,0
-385,-55,0,0,0,0,0,0,0,0,0,-1,839,1079,0,0
-378,-55,0,0,0,0,0,0,0,0,0,-1,846,1079,0,0
-371,-55,0,0,0,0,0,0,0,0,0,-1,853,1079,0,0
-364,-55,0,0,0,0,0,0,0,0,0,-1,860,1079,0,0
-357,-55,0,0,0,0,0,0,0,0,0,-1,867,1079,0,0
-350,-55,0,0,0,0,0,0,0,0,0,-1,874,1079,0,0
-343,-55,0,0,0,0,0,0,0,0,0,-1,881,1079,0,0
-336,-55,0,0,0,0,0,0,0,0,0,-1,888,1079,0,0
-329,-55,0,0,0,0,0,0,0,0,0,-1,895,1079,0,0
-322,-55,0,0,0,0,0,0,0,0,0,-1,902,1079,0,0
-315,-55,0,0,0,0,0,0,0,0,0,-1,909,1079,0,0
-308,-55,0,0,0,0,0,0,0,0,0,-1,916,1079,0,0
-301,-55,0,0,0,0,0,0,0,0,0,-1,923,1079,0,0
-294,-55,0,0,0,0,0,0,0,0,0,-1,930,1079,0,0
-287,-55,0,0,0,0,0,0,0,0,0,-1,937,1079,0,0
-280,-55,0,0,0,0,0,0,0,0,0,-1,944,1079,0,0
-273,-55,0,0,0,0,0,0,0,0,0,-1,951,1079,0,0
-266,-55,0,0,0,0,0,0,0,0,0,-1,958,1079,0,0
-259,-55,0,0,0,0,0,0,0,0,0,-1,965,1079,0,0
-252,-55,0,0,0,0,0,0,0,0,0,-1,972,1079,0,0
-245,-55,0,0,0,0,0,0,0,0,0,-1,979,1079,0,0
-238,-55,0,0,0,0,0,0,0,0,0,-1,986,1079,0,0
-231,-55,0,0,0,0,0,0,0,0,0,-1,993,1079,0,0
-224,-55,0,0,0,0,0,0,0,0,0,-1,1000,1079,0,0
-217,-55,0,0,0,0,0,0,0,0,0,-1,1007,1079,0,0
-210,-55,0,0,0,0,0,0,0,0,0,-1,1014,1079,0,0
-203,-55,0,0,0,0,0,0,0,0,0,-1,1021,1079,0,0
-196,-55,0,0,0,0,0,0,0,0,0,-1,1028,1079,0,0
-189,-55,0,0,0,0,0,0,0,0,0,-1,1035,1079,0,0
-182,-55,0,0,0,0,0,0,0,0,0,-1,1042,1079,0,0
-175,-55,0,0,0,0,0,0,0,0,0,-1,1049,1079,0,0
-168,-55,0,0,0,0,0,0,0,0,0,-1,1056,1079,0,0
-161,-55,0,0,0,0,0,0,0,0,0,-1,1063,1079,0,0
-154,-55,0,0,0,0,0,0,0,0,0,-1,1070,1079,0,0
-147,-55,0,0,0,0,0,0,0,0,0,-1,1077,1079,0,0
-140,-55,0,0,0,0,0,0,0,0,0,-1,1084,1079,0,0
-133,-55,0,0,0,0,0,0,0,0,0,-1,1091,1079,0,0
-126,-55,0,0,0,0,0,0,0,0,0,-1,1098,1079,0,0
-119,-55,0,0,0,0,0,0,0,0,0,-1,1105,1079,0,0
-112,-55,0,0,0,0,0,0,0,0,0,-1,1112,1079,0,0
-105,-55,0,0,0,0,0,0,0,0,0,-1,1119,1079,0,0
-98,-55,0,0,0,0,0,0,0,0,0,-1,1126,1079,0,0
-91,-55,0,0,0,0,0,0,0,0,0,-1,1133,1079,0,0
-84,-55,0,0,0,0,0,0,0,0,0,-1,1140,1079,0,0
-77,-55,0,0,0,0,0,0,0,0,0,-1,1147,1079,0,0
-70,-55,0,0,0,0,0,0,0,0,0,-1,1154,1079,0,0
-63,-55,0,0,0,0,0,0,0,0,0,-1,1161,1079,0,0
-56,-55,0,0,0,0,0,0,0,0,0,-1,1168,1079,0,0
-49,-55,0,0,0,0,0,0,0,0,0,-1,1175,1079,0,0
-42,-55,0,0,0,0,0,0,0,0,0,-1,1182,1079,0,0
-35,-55,0,0,0,0,0,0,0,0,0,-1,1189,1079,0,0
-28,-55,0,0,0,0,0,0,0,0,0,-1,1196,1079,0,0
-21,-55,0,0,0,0,0,0,0,0,0,-1,1203,1079,0,0
-14,-55,0,0,0,0,0,0,0,0,0,-1,1210,1079,0,0
-7,-55,0,0,0,0,0,0,0,0,0,-1,1217,1079,0,0
0,-55,0,0,0,0,0,0,0,0,0,-1,1224,1079,0,0
7,-55,0,0,0,0,0,0,0,0,0,-1,1231,1079,0,0
14,-55,0,0,0,0,0,0,0,0,0,-1,1238,1079,0,0
21,-55,0,0,0,0,0,0,0,0,0,-1,1245,1079,0,0
28,-55,0,0,0,0,0,0,0,0,0,-1,1252,1079,0,0
35,-55,0,0,0,0,0,0,0,0,0,-1,1259,1079,0,0
42,-55,0,0,0,0,0,0,0,0,0,-1,1266,1079,0,0
49,-55,0,0,0,0,0,0,0,0,0,-1,1273,1079,0,0
56,-55,0,0,0,0,0,0,0,0,0,-1,1280,1079,0,0
63,-55,0,0,0,0,0,0,0,0,0,-1,1287,1079,0,0
70,-55,0,0,0,0,0,0,0,0,0,-1,1294,1079,0,0
77,-55,0,0,0,0,0,0,0,0,0,-1,1301,1079,0,0
84,-55,0,0,0,0,0,0,0,0,0,-1,1308,1079,0,0
91,-55,0,0,0,0,0,0,0,0,0,-1,1315,1079,0,0
98,-55,0,0,0,0,0,0,0,0,0,-1,1322,1079,0,0
105,-55,0,0,0,0,0,0,0,0,0,-1,1329,1079,0,0
112,-55,0,0,0,0,0,0,0,0,0,-1,1336,1079,0,0
119,-55,0,0,0,0,0,0,0,0,0,-1,1343,1079,0,0
126,-55,0,0,0,0,0,0,0,0,0,-1,1350,1079,0,0
133,-55,0,0,0,0,0,0,0,0,0,-1,1357,1079,0,0
140,-55,0,0,0,0,0,0,0,0,0,-1,1364,1079,0,0
147,-55,0,0,0,0,0,0,0,0,0,-1,1371,1079,0,0
154,-55,0,0,0,0,0,0,0,0,0,-1,1378,1079,0,0
161,-55,0,0,0,0,0,0,0,0,0,-1,1385,1079,0,0
168,-55,0,0,0,0,0,0,0,0,0,-1,1392,1079,0,0
175,-55,0,0,0,0,0,0,0,0,0,-1,1399,1079,0,0
182,-55,0,0,0,0,0,0,0,0,0,-1,1406,1079,0,0
189,-55,0,0,0,0,0,0,0,0,0,-1,1413,1079,0,0
196,-55,0,0,0,0,0,0,0,0,0,-1,1420,1079,0,0
203,-55,0,0,0,0,0,0,0,0,0,-1,1427,1079,0,0
210,-55,0,0,0,0,0,0,0,0,0,-1,1434,1079,0,0
217,-55,0,0,0,0,0,0,0,0,0,-1,1441,1079,0,0
224,-55,0,0,0,0,0,0,0,0,0,-1,1448,1079,0,0
231,-55,0,0,0,0,0,0,0,0,0,-1,1455,1079,0,0
238,-55,0,0,0,0,0,0,0,0,0,-1,1462,1079,0,0
245,-55,0,0,0,0,0,0,0,0,0,-1,1469,1079,0,0
252,-55,0,0,0,0,0,0,0,0,0,-1,1476,1079,0,0
259,-55,0,0,0,0,0,0,0,0,0,-1,1483,1079,0,0
266,-55,0,0,0,0,0,0,0,0,0,-1,1490,1079,0,0
273,-55,0,0,0,0,0,0,0,0,0,-1,1497,1079,0,0
280,-55,0,0,0,0,0,0,0,0,0,-1,1504,1079,0,0
287,-55,0,0,0,0,0,0,0,0,0,-1,1511,1079,0,0
294,-55,0,0,0,0,0,0,0,0,0,-1,1518,1079,0,0
301,-55,0,0,0,0,0,0,0,0,0,-1,1525,1079,0,0
308,-55,0,0,0,0,0,0,0,0,0,-1,1532,1079,0,0
315,-55,0,0,0,0,0,0,0,0,0,-1,1539,1079,0,0
322,-55,0,0,0,0,0,0,0,0,0,-1,1546,1079,0,0
329,-55,0,0,0,0,0,0,0,0,0,-1,1553,1079,0,0
336,-55,0,0,0,0,0,0,0,0,0,-1,1560,1079,0,0
343,-55,0,0,0,0,0,0,0,0,0,-1,1567,1079,0,0
350,-55,0,0,0,0,0,0,0,0,0,-1,1574,1079,0,0
357,-55,0,0,0,0,0,0,0,0,0,-1,1581,1079,0,0
364,-55,0,0,0,0,0,0,0,0,0,-1,1588,1079,0,0
371,-55,0,0,0,0,0,0,0,0,0,-1,1595,1079,0,0
378,-55,0,0,0,0,0,0,0,0,0,-1,1602,1079,0,0
385,-55,0,0,0,0,0,0,0,0,0,-1,1609,1079,0,0
392,-55,0,0,0,0,0,0,0,0,0,-1,1616,1079,0,0
399,-55,0,0,0,0,0,0,0,0,0,-1,1623,1079,0,0
406,-55,0,0,0,0,0,0,0,0,0,-1,1630,1079,0,0
413,-55,0,0,0,0,0,0,0,0,0,-1,1637,1079,0,0
420,-55,0,0,0,0,0,0,0,0,0,-1,1644,1079,0,0
427,-55,0,0,0,0,0,0,0,0,0,-1,1651,1079,0,0
434,-55,0,0,0,0,0,0,0,0,0,-1,1658,1079,0,0
441,-55,0,0,0,0,0,0,0,0,0,-1,1665,1079,0,0
448,-55,0,0,0,0,0,0,0,0,0,-1,1672,1079,0,0
455,-55,0,0,0,0,0,0,0,0,0,-1,1679,1079,0,0
462,-55,0,0,0,0,0,0,0,0,0,-1,1686,1079,0,0
469,-55,0,0,0,0,0,0,0,0,0,-1,1693,1079,0,0
476,-55,0,0,0,0,0,0,0,0,0,-1,1700,1079,0,0
483,-55,0,0,0,0,0,0,0,0,0,-1,1707,1079,0,0
490,-55,0,0,0,0,0,0,0,0,0,-1,1714,1079,0,0
497,-55,0,0,0,0,0,0,0,0,0,-1,1721,1079,0,0
504,-55,0,0,0,0,0,0,0,0,0,-1,1728,1079,0,0
511,-55,0,0,0,0,0,0,0,0,0,-1,1735,1079,0,0
518,-55,0,0,0,0,0,0,0,0,0,-1,1742,1079,0,0
525,-55,0,0,0,0,0,0,0,0,0,-1,1749,1079,0,0
532,-55,0,0,0,0,0,0,0,0,0,-1,1756,1079,0,0
539,-55,0,0,0,0,0,0,0,0,0,-1,1763,1079,0,0
546,-55,0,0,0,0,0,0,0,0,0,-1,1770,1079,0,0
553,-55,0,0,0,0,0,0,0,0,0,-1,1777,1079,0,0
560,-55,0,0,0,0,0,0,0,0,0,-1,1784,1079,0,0
567,-55,0,0,0,0,0,0,0,0,0,-1,1791,1079,0,0
574,-55,0,0,0,0,0,0,0,0,0,-1,1798,1079,0,0
581,-55,0,0,0,0,0,0,0,0,0,-1,1805,1079,0,0
588,-55,0,0,0,0,0,0,0,0,0,-1,1812,1079,0,0
595,-55,0,0,0,0,0,0,0,0,0,-1,1819,1079,0,0
602,-55,0,0,0,0,0,0,0,0,0,-1,1826,1079,0,0
609,-55,0,0,0,0,0,0,0,0,0,-1,1833,1079,0,0
616,-55,0,0,0,0,0,0,0,0,0,-1,1840,1079,0,0
623,-55,0,0,0,0,0,0,0,0,0,-1,1847,1079,0,0
630,-55,0,0,0,0,0,0,0,0,0,-1,1854,1079,0,0
637,-55,0,0,0,0,0,0,0,0,0,-1,1861,1079,0,0
644,-55,0,0,0,0,0,0,0,0,0,-1,1868,1079,0,0
651,-55,64.8085,2.48145,0.00104585,0.000326864,0.00574117,0.00643877,-0.00506605,0.75413,0.00665805,0.0349859,1875,1079,64.8085,-2.48148
658,-55,64.8694,2.61096,0.000932371,-0.000152241,0.004341,0.00476481,-0.00398468,0.723257,0.00505821,0.0359425,1882,1079,64.8694,-2.61101
665,-55,64.764,2.77051,0.000718497,-0.000423353,0.00320754,0.00340553,-0.00311038,0.697323,0.00376325,0.0373289,1889,1079,64.7641,-2.77051
672,-55,64.6871,2.86792,0.000503227,-0.000550082,0.00239364,0.00242747,-0.00247432,0.677112,0.00283009,0.0363404,1896,1079,64.6872,-2.86794
679,-55,64.7698,2.72046,0.000220615,-0.000567361,0.00169879,0.0015705,-0.00191725,0.671451,0.00201697,0.0347666,1903,1079,64.7698,-2.72042
686,-55,64.8645,2.58105,-0.00017502,-0.000767415,0.00142956,0.000988709,-0.00193114,0.683246,0.0017148,0.036783,1910,1079,64.8645,-2.58106
693,-55,64.8057,2.57019,-0.000421946,-0.00098675,0.00143532,0.00075849,-0.00216719,0.688263,0.00175319,0.0381566,1917,1079,64.8056,-2.57025
700,-55,64.7964,2.52112,-0.000542884,-0.00106567,0.00163954,0.000855973,-0.00246453,0.706348,0.00199066,0.0349236,1924,1079,64.7964,-2.52114
707,-55,64.7878,2.59375,-0.00090836,-0.000977003,0.00186245,0.000920081,-0.00280544,0.776185,0.00224086,0.0261905,1931,1079,64.7879,-2.59372
714,-55,64.7649,2.69385,-0.00142151,-0.000667555,0.0021021,0.0010911,-0.00318017,0.874122,0.00256245,0.0496863,1938,1079,64.7649,-2.69379
721,-55,64.8083,2.84619,0,0,0,0,0,0,0,-1,1945,1079,64.8083,-2.84621
728,-55,63.1935,7.74207,0,0,0,0,0,0,0,-1,1952,1079,63.1935,-7.74208
735,-55,63.0789,7.38318,-0.00278433,0.0016525,0.00269492,0.00292463,-0.00405647,1.12976,0.00404816,0.023357,1959,1079,63.0789,-7.38314
742,-55,63.0834,7.05176,-0.00189288,0.00287915,0.00280708,0.00417726,-0.00319099,1.13765,0.00426675,0.022424,1966,1079,63.0834,-7.0517
749,-55,63.0781,6.72168,-0.0011268,0.00402499,0.0028622,0.00529973,-0.00240154,1.1518,0.00455007,0.0148393,1973,1079,63.0781,-6.72171
756,-55,62.9723,6.37939,-0.000190368,0.00555953,0.00242868,0.00644807,-0.00107891,1.22007,0.00469981,0.0118592,1980,1079,62.9723,-6.37936
763,-55,62.907,6.05322,0.00150428,0.00694723,0.00125902,0.00722435,0.00122717,1.35415,0.00446377,0.0143638,1987,1079,62.907,-6.05325
770,-55,62.8506,5.70862,0.00460418,0.00860482,-0.000441349,0.00865293,0.00455607,-1.46222,0.00499811,0.0169619,1994,1079,62.8506,-5.7086
777,-55,62.7432,5.36731,0.00886877,0.00963608,-0.00271563,0.011995,0.00650983,-0.855572,0.00693375,0.0136307,2001,1079,62.7432,-5.36731
784,-55,62.6682,4.95544,0.0136186,0.00966103,-0.00550537,0.01749,0.00578962,-0.612874,0.0102883,0.0274558,2008,1079,62.6681,-4.95549
791,-55,63.5095,3.99548,0.0190892,0.00799388,-0.00905875,0.0241641,0.00291904,-0.510651,0.0152299,0.0435888,2015,1079,63.5095,-3.99549
798,-55,64.1414,3.14844,0,0,0,0,0,0,0,-1,2022,1079,64.1413,-3.14843
805,-55,60.6265,4.69336,0,0,0,0,0,0,0,-1,2029,1079,60.6266,-4.69342
812,-55,60.2373,4.55957,0,0,0,0,0,0,0,-1,2036,1079,60.2373,-4.55958
-700,-62,-49.1176,-1.80371,0,0,0,0,0,0,0,-1,524,1086,-49.1176,1.80377
-693,-62,-48.153,-1.46814,0,0,0,0,0,0,0,-1,531,1086,-48.153,1.46813
-686,-62,-48.6249,-5.20154,0,0,0,0,0,0,0,-1,538,1086,-48.6249,5.20151
-679,-62,-48.4301,-3.90698,0,0,0,0,0,0,0,-1,545,1086,-48.4301,3.90701
-672,-62,-48.3784,-3.18579,0,0,0,0,0,0,0,-1,552,1086,-48.3784,3.18585
-665,-62,-48.1768,-1.59949,0.0406485,0.0156131,0.0428078,0.0727313,-0.0164697,0.643155,0.0548085,0.0491158,559,1086,-48.1768,1.59951
-658,-62,-47.8581,1.02185,0.0337394,0.0170454,0.0358472,0.0621985,-0.0114137,0.671012,0.0457474,0.0446191,566,1086,-47.8581,-1.02185
-651,-62,-47.2072,2.14148,0.0268666,0.0163741,0.0287819,0.0508765,-0.00763579,0.69525,0.0367285,0.0445418,573,1086,-47.2072,-2.14142
-644,-62,-47.2008,2.86548,0.0207919,0.0146991,0.0220154,0.0399707,-0.00447969,0.716647,0.028259,0.0183399,580,1086,-47.2008,-2.86547
-637,-62,-47.2727,3.32605,0.0152621,0.0122247,0.0153781,0.0291963,-0.00170948,0.73618,0.0200583,0.0161131,587,1086,-47.2727,-3.3261
-630,-62,-47.3421,3.72546,0.0104401,0.00889189,0.00929291,0.0189911,0.000340883,0.743845,0.0125486,0.0170093,594,1086,-47.3421,-3.72544
-623,-62,-47.4172,4.17297,0.00664106,0.00579494,0.00490523,0.0111414,0.00129457,0.742381,0.00703591,0.0192947,601,1086,-47.4172,-4.17302
-616,-62,-47.4252,4.62512,0.00454919,0.00295835,0.00117383,0.00517172,0.00233583,0.487622,0.00299054,0.019692,608,1086,-47.4252,-4.62516
-609,-62,-47.3636,5.00366,0.00378677,0.000575011,-0.00157954,0.0044334,-7.1618e-05,-0.388565,0.00297976,0.0195725,615,1086,-47.3636,-5.00368
-602,-62,-47.2297,5.36694,0.00294061,-0.000779696,-0.00276534,0.00441321,-0.0022523,-0.489325,0.00391516,0.0172879,622,1086,-47.2297,-5.36693
-595,-62,-47.1522,5.83875,0.00267207,-0.00159478,-0.00296686,0.00419292,-0.00311564,-0.473688,0.00423485,0.0390117,629,1086,-47.1522,-5.83872
-588,-62,-47.1075,6.33325,0,0,0,0,0,0,0,-1,636,1086,-47.1075,-6.33326
-581,-62,-49.0172,1.02722,0,0,0,0,0,0,0,-1,643,1086,-49.0172,-1.02723
-574,-62,-49.1299,0.734253,0.00406755,-0.00265786,-0.0019764,0.00460535,-0.00319567,-0.265678,0.00452836,0.0352174,650,1086,-49.1299,-0.734216
-567,-62,-49.1959,0.333984,0.00428422,-0.00261189,-0.00131056,0.00452488,-0.00285255,-0.181612,0.00429569,0.0385407,657,1086,-49.1959,-0.333988
-560,-62,-49.0299,-0.112671,0.00428811,-0.00233413,-0.000415776,0.00431411,-0.00236013,-0.0624579,0.00390803,0.044121,664,1086,-49.0299,0.112681
-553,-62,-48.9739,0.702515,0.004218,-0.00192419,0.000754731,0.00430938,-0.00201557,0.120489,0.0037309,0.0396207,671,1086,-48.9739,-0.70248
-546,-62,-48.9739,0.80957,0.00444787,-0.00155885,0.00217012,0.00514985,-0.00226083,0.312855,0.0043856,0.0334642,678,1086,-48.9739,-0.809538
-539,-62,-48.9794,1.00012,0.0054816,-0.00173596,0.00332717,0.00678132,-0.00303568,0.37241,0.00580374,0.0379441,685,1086,-48.9795,-1.00014
-532,-62,-48.9134,1.08752,0.00659312,-0.00168073,0.00422556,0.0083697,-0.00345731,0.397999,0.00702192,0.0414145,692,1086,-48.9134,-1.0875
-525,-62,0,0,0,0,0,0,0,0,0,-1,699,1086,0,0
-518,-62,0,0,0,0,0,0,0,0,0,-1,706,1086,0,0
-511,-62,0,0,0,0,0,0,0,0,0,-1,713,1086,0,0
-504,-62,0,0,0,0,0,0,0,0,0,-1,720,1086,0,0
-497,-62,0,0,0,0,0,0,0,0,0,-1,727,1086,0,0
-490,-62,0,0,0,0,0,0,0,0,0,-1,734,1086,0,0
-483,-62,0,0,0,0,0,0,0,0,0,-1,741,1086,0,0
-476,-62,0,0,0,0,0,0,0,0,0,-1,748,1086,0,0
-469,-62,0,0,0,0,0,0,0,0,0,-1,755,1086,0,0
-462,-62,0,0,0,0,0,0,0,0,0,-1,762,1086,0,0
-455,-62,0,0,0,0,0,0,0,0,0,-1,769,1086,0,0
-448,-62,0,0,0,0,0,0,0,0,0,-1,776,1086,0,0
-441,-62,0,0,0,0,0,0,0,0,0,-1,783,1086,0,0
-434,-62,0,0,0,0,0,0,0,0,0,-1,790,1086,0,0
-427,-62,0,0,0,0,0,0,0,0,0,-1,797,1086,0,0
-420,-62,0,0,0,0,0,0,0,0,0,-1,804,1086,0,0
-413,-62,0,0,0,0,0,0,0,0,0,-1,811,1086,0,0
-406,-62,0,0,0,0,0,0,0,0,0,-1,818,1086,0,0
-399,-62,0,0,0,0,0,0,0,0,0,-1,825,1086,0,0
-392,-62,0,0,0,0,0,0,0,0,0,-1,832,1086,0,0
-385,-62,0,0,0,0,0,0,0,0,0,-1,839,1086,0,0
-378,-62,0,0,0,0,0,0,0,0,0,-1,846,1086,0,0
-371,-62,0,0,0,0,0,0,0,0,0,-1,853,1086,0,0
-364,-62,0,0,0,0,0,0,0,0,0,-1,860,1086,0,0
-357,-62,0,0,0,0,0,0,0,0,0,-1,867,1086,0,0
-350,-62,0,0,0,0,0,0,0,0,0,-1,874,1086,0,0
-343,-62,0,0,0,0,0,0,0,0,0,-1,881,1086,0,0
-336,-62,0,0,0,0,0,0,0,0,0,-1,888,1086,0,0
-329,-62,0,0,0,0,0,0,0,0,0,-1,895,1086,0,0
-322,-62,0,0,0,0,0,0,0,0,0,-1,902,1086,0,0
-315,-62,0,0,0,0,0,0,0,0,0,-1,909,1086,0,0
-308,-62,0,0,0,0,0,0,0,0,0,-1,916,1086,0,0
-301,-62,0,0,0,0,0,0,0,0,0,-1,923,1086,0,0
-294,-62,0,0,0,0,0,0,0,0,0,-1,930,1086,0,0
-287,-62,0,0,0,0,0,0,0,0,0,-1,937,1086,0,0
-280,-62,0,0,0,0,0,0,0,0,0,-1,944,1086,0,0
-273,-62,0,0,0,0,0,0,0,0,0,-1,951,1086,0,0
-266,-62,0,0,0,0,0,0,0,0,0,-1,958,1086,0,0
-259,-62,0,0,0,0,0,0,0,0,0,-1,965,1086,0,0
-252,-62,0,0,0,0,0,0,0,0,0,-1,972,1086,0,0
-245,-62,0,0,0,0,0,0,0,0,0,-1,979,1086,0,0
-238,-62,0,0,0,0,0,0,0,0,0,-1,986,1086,0,0
-231,-62,0,0,0,0,0,0,0,0,0,-1,993,1086,0,0
-224,-62,0,0,0,0,0,0,0,0,0,-1,1000,1086,0,0
-217,-62,0,0,0,0,0,0,0,0,0,-1,1007,1086,0,0
-210,-62,0,0,0,0,0,0,0,0,0,-1,1014,1086,0,0
-203,-62,0,0,0,0,0,0,0,0,0,-1,1021,1086,0,0
-196,-62,0,0,0,0,0,0,0,0,0,-1,1028,1086,0,0
-189,-62,0,0,0,0,0,0,0,0,0,-1,1035,1086,0,0
-182,-62,0,0,0,0,0,0,0,0,0,-1,1042,1086,0,0
-175,-62,0,0,0,0,0,0,0,0,0,-1,1049,1086,0,0
-168,-62,0,0,0,0,0,0,0,0,0,-1,1056,1086,0,0
-161,-62,0,0,0,0,0,0,0,0,0,-1,1063,1086,0,0
-154,-62,0,0,0,0,0,0,0,0,0,-1,1070,1086,0,0
-147,-62,0,0,0,0,0,0,0,0,0,-1,1077,1086,0,0
-140,-62,0,0,0,0,0,0,0,0,0,-1,1084,1086,0,0
-133,-62,0,0,0,0,0,0,0,0,0,-1,1091,1086,0,0
-126,-62,0,0,0,0,0,0,0,0,0,-1,1098,1086,0,0
-119,-62,0,0,0,0,0,0,0,0,0,-1,1105,1086,0,0
-112,-62,0,0,0,0,0,0,0,0,0,-1,1112,1086,0,0
-105,-62,0,0,0,0,0,0,0,0,0,-1,1119,1086,0,0
-98,-62,0,0,0,0,0,0,0,0,0,-1,1126,1086,0,0
-91,-62,0,0,0,0,0,0,0,0,0,-1,1133,1086,0,0
-84,-62,0,0,0,0,0,0,0,0,0,-1,1140,1086,0,0
-77,-62,0,0,0,0,0,0,0,0,0,-1,1147,1086,0,0
-70,-62,0,0,0,0,0,0,0,0,0,-1,1154,1086,0,0
-63,-62,0,0,0,0,0,0,0,0,0,-1,1161,1086,0,0
-56,-62,0,0,0,0,0,0,0,0,0,-1,1168,1086,0,0
-49,-62,0,0,0,0,0,0,0,0,0,-1,1175,1086,0,0
-42,-62,0,0,0,0,0,0,0,0,0,-1,1182,1086,0,0
-35,-62,0,0,0,0,0,0,0,0,0,-1,1189,1086,0,0
-28,-62,0,0,0,0,0,0,0,0,0,-1,1196,1086,0,0
-21,-62,0,0,0,0,0,0,0,0,0,-1,1203,1086,0,0
-14,-62,0,0,0,0,0,0,0,0,0,-1,1210,1086,0,0
-7,-62,0,0,0,0,0,0,0,0,0,-1,1217,1086,0,0
0,-62,0,0,0,0,0,0,0,0,0,-1,1224,1086,0,0
7,-62,0,0,0,0,0,0,0,0,0,-1,1231,1086,0,0
14,-62,0,0,0,0,0,0,0,0,0,-1,1238,1086,0,0
21,-62,0,0,0,0,0,0,0,0,0,-1,1245,1086,0,0
28,-62,0,0,0,0,0,0,0,0,0,-1,1252,1086,0,0
35,-62,0,0,0,0,0,0,0,0,0,-1,1259,1086,0,0
42,-62,0,0,0,0,0,0,0,0,0,-1,1266,1086,0,0
49,-62,0,0,0,0,0,0,0,0,0,-1,1273,1086,0,0
56,-62,0,0,0,0,0,0,0,0,0,-1,1280,1086,0,0
63,-62,0,0,0,0,0,0,0,0,0,-1,1287,1086,0,0
70,-62,0,0,0,0,0,0,0,0,0,-1,1294,1086,0,0
77,-62,0,0,0,0,0,0,0,0,0,-1,1301,1086,0,0
84,-62,0,0,0,0,0,0,0,0,0,-1,1308,1086,0,0
91,-62,0,0,0,0,0,0,0,0,0,-1,1315,1086,0,0
98,-62,0,0,0,0,0,0,0,0,0,-1,1322,1086,0,0
105,-62,0,0,0,0,0,0,0,0,0,-1,1329,1086,0,0
112,-62,0,0,0,0,0,0,0,0,0,-1,1336,1086,0,0
119,-62,0,0,0,0,0,0,0,0,0,-1,1343,1086,0,0
126,-62,0,0,0,0,0,0,0,0,0,-1,1350,1086,0,0
133,-62,0,0,0,0,0,0,0,0,0,-1,1357,1086,0,0
140,-62,0,0,0,0,0,0,0,0,0,-1,1364,1086,0,0
147,-62,0,0,0,0,0,0,0,0,0,-1,1371,1086,0,0
154,-62,0,0,0,0,0,0,0,0,0,-1,1378,1086,0,0
161,-62,0,0,0,0,0,0,0,0,0,-1,1385,1086,0,0
168,-62,0,0,0,0,0,0,0,0,0,-1,1392,1086,0,0
175,-62,0,0,0,0,0,0,0,0,0,-1,1399,1086,0,0
182,-62,0,0,0,0,0,0,0,0,0,-1,1406,1086,0,0
189,-62,0,0,0,0,0,0,0,0,0,-1,1413,1086,0,0
196,-62,0,0,0,0,0,0,0,0,0,-1,1420,1086,0,0
203,-62,0,0,0,0,0,0,0,0,0,-1,1427,1086,0,0
210,-62,0,0,0,0,0,0,0,0,0,-1,1434,1086,0,0
217,-62,0,0,0,0,0,0,0,0,0,-1,1441,1086,0,0
224,-62,0,0,0,0,0,0,0,0,0,-1,1448,1086,0,0
231,-62,0,0,0,0,0,0,0,0,0,-1,1455,1086,0,0
238,-62,0,0,0,0,0,0,0,0,0,-1,1462,1086,0,0
245,-62,0,0,0,0,0,0,0,0,0,-1,1469,1086,0,0
252,-62,0,0,0,0,0,0,0,0,0,-1,1476,1086,0,0
259,-62,0,0,0,0,0,0,0,0,0,-1,1483,1086,0,0
266,-62,0,0,0,0,0,0,0,0,0,-1,1490,1086,0,0
273,-62,0,0,0,0,0,0,0,0,0,-1,1497,1086,0,0
280,-62,0,0,0,0,0,0,0,0,0,-1,1504,1086,0,0
287,-62,0,0,0,0,0,0,0,0,0,-1,1511,1086,0,0
294,-62,0,0,0,0,0,0,0,0,0,-1,1518,1086,0,0
301,-62,0,0,0,0,0,0,0,0,0,-1,1525,1086,0,0
308,-62,0,0,0,0,0,0,0,0,0,-1,1532,1086,0,0
315,-62,0,0,0,0,0,0,0,0,0,-1,1539,1086,0,0
322,-62,0,0,0,0,0,0,0,0,0,-1,1546,1086,0,0
329,-62,0,0,0,0,0,0,0,0,0,-1,1553,1086,0,0
336,-62,0,0,0,0,0,0,0,0,0,-1,1560,1086,0,0
343,-62,0,0,0,0,0,0,0,0,0,-1,1567,1086,0,0
350,-62,0,0,0,0,0,0,0,0,0,-1,1574,1086,0,0
357,-62,0,0,0,0,0,0,0,0,0,-1,1581,1086,0,0
364,-62,0,0,0,0,0,0,0,0,0,-1,1588,1086,0,0
371,-62,0,0,0,0,0,0,0,0,0,-1,1595,1086,0,0
378,-62,0,0,0,0,0,0,0,0,0,-1,1602,1086,0,0
385,-62,0,0,0,0,0,0,0,0,0,-1,1609,1086,0,0
392,-62,0,0,0,0,0,0,0,0,0,-1,1616,1086,0,0
399,-62,0,0,0,0,0,0,0,0,0,-1,1623,1086,0,0
406,-62,0,0,0,0,0,0,0,0,0,-1,1630,1086,0,0
413,-62,0,0,0,0,0,0,0,0,0,-1,1637,1086,0,0
420,-62,0,0,0,0,0,0,0,0,0,-1,1644,1086,0,0
427,-62,0,0,0,0,0,0,0,0,0,-1,1651,1086,0,0
434,-62,0,0,0,0,0,0,0,0,0,-1,1658,1086,0,0
441,-62,0,0,0,0,0,0,0,0,0,-1,1665,1086,0,0
448,-62,0,0,0,0,0,0,0,0,0,-1,1672,1086,0,0
455,-62,0,0,0,0,0,0,0,0,0,-1,1679,1086,0,0
462,-62,0,0,0,0,0,0,0,0,0,-1,1686,1086,0,0
469,-62,0,0,0,0,0,0,0,0,0,-1,1693,1086,0,0
476,-62,0,0,0,0,0,0,0,0,0,-1,1700,1086,0,0
483,-62,0,0,0,0,0,0,0,0,0,-1,1707,1086,0,0
490,-62,0,0,0,0,0,0,0,0,0,-1,1714,1086,0,0
497,-62,0,0,0,0,0,0,0,0,0,-1,1721,1086,0,0
504,-62,0,0,0,0,0,0,0,0,0,-1,1728,1086,0,0
511,-62,0,0,0,0,0,0,0,0,0,-1,1735,1086,0,0
518,-62,0,0,0,0,0,0,0,0,0,-1,1742,1086,0,0
525,-62,0,0,0,0,0,0,0,0,0,-1,1749,1086,0,0
532,-62,0,0,0,0,0,0,0,0,0,-1,1756,1086,0,0
539,-62,0,0,0,0,0,0,0,0,0,-1,1763,1086,0,0
546,-62,0,0,0,0,0,0,0,0,0,-1,1770,1086,0,0
553,-62,0,0,0,0,0,0,0,0,0,-1,1777,1086,0,0
560,-62,0,0,0,0,0,0,0,0,0,-1,1784,1086,0,0
567,-62,0,0,0,0,0,0,0,0,0,-1,1791,1086,0,0
574,-62,0,0,0,0,0,0,0,0,0,-1,1798,1086,0,0
581,-62,0,0,0,0,0,0,0,0,0,-1,1805,1086,0,0
588,-62,0,0,0,0,0,0,0,0,0,-1,1812,1086,0,0
595,-62,0,0,0,0,0,0,0,0,0,-1,1819,1086,0,0
602,-62,0,0,0,0,0,0,0,0,0,-1,1826,1086,0,0
609,-62,0,0,0,0,0,0,0,0,0,-1,1833,1086,0,0
616,-62,0,0,0,0,0,0,0,0,0,-1,1840,1086,0,0
623,-62,0,0,0,0,0,0,0,0,0,-1,1847,1086,0,0
630,-62,0,0,0,0,0,0,0,0,0,-1,1854,1086,0,0
637,-62,0,0,0,0,0,0,0,0,0,-1,1861,1086,0,0
644,-62,0,0,0,0,0,0,0,0,0,-1,1868,1086,0,0
651,-62,64.7499,2.31714,0.00139852,-0.00108826,0.00624923,0.00652686,-0.0062166,0.687197,0.00735816,0.0425501,1875,1086,64.7499,-2.31718
658,-62,64.8768,2.46863,0.00114371,-0.00114247,0.00471284,0.0048501,-0.00484886,0.666422,0.0055997,0.0418653,1882,1086,64.8768,-2.46862
665,-62,64.8657,2.70374,0.000850342,-0.0011113,0.00345118,0.00345737,-0.00371833,0.64695,0.0041438,0.0387382,1889,1086,64.8657,-2.70375
672,-62,64.7799,2.8385,0.00058715,-0.000991724,0.00247725,0.00239771,-0.00280229,0.631148,0.00300525,0.0372476,1896,1086,64.78,-2.8385
679,-62,64.8094,2.63928,0.000282054,-0.000817369,0.00162747,0.00145014,-0.00198545,0.622528,0.00199155,0.0355107,1903,1086,64.8095,-2.63932
686,-62,64.8281,2.60889,-3.54999e-05,-0.000907654,0.0012715,0.000872627,-0.00181578,0.620203,0.00158367,0.0374188,1910,1086,64.8281,-2.60884
693,-62,64.7206,2.61023,-0.000184277,-0.00106589,0.00121952,0.000671658,-0.00192183,0.611974,0.00155426,0.0367521,1917,1086,64.7206,-2.61024
700,-62,64.7966,2.54175,-0.000232831,-0.00110742,0.00136957,0.000767565,-0.00210781,0.630868,0.00171916,0.0304689,1924,1086,64.7966,-2.54171
707,-62,64.7701,2.57117,-0.000525072,-0.00099911,0.00157171,0.000827387,-0.00235157,0.71056,0.00190439,0.0214735,1931,1086,64.7701,-2.57118
714,-62,64.7825,2.61304,-0.000957137,-0.000690015,0.0018085,0.000989847,-0.002637,0.822257,0.00216475,0.0397529,1938,1086,64.7825,-2.61302
721,-62,64.8295,2.72034,0,0,0,0,0,0,0,-1,1945,1086,64.8295,-2.72034
728,-62,62.7855,7.89856,0,0,0,0,0,0,0,-1,1952,1086,62.7855,-7.89861
735,-62,62.726,7.40198,-0.00218652,0.00130749,0.0024781,0.00259248,-0.00347151,1.09243,0.00351329,0.030234,1959,1086,62.7259,-7.40203
742,-62,62.6848,7.0968,-0.0014993,0.0024306,0.00263906,0.00375589,-0.00282458,1.1054,0.0038119,0.030174,1966,1086,62.6848,-7.09686
749,-62,62.6566,6.72681,-0.000830082,0.00344541,0.00278724,0.00482031,-0.00220498,1.11254,0.00414868,0.0221458,1973,1086,62.6567,-6.72675
756,-62,62.5295,6.42383,-4.42177e-05,0.00483804,0.00248819,0.00588262,-0.0010888,1.17332,0.00433055,0.0148418,1980,1086,62.5295,-6.42385
763,-62,62.4924,6.04041,0.00135423,0.00594199,0.00146951,0.00637233,0.0009239,1.28592,0.00397619,0.0171396,1987,1086,62.4924,-6.04037
770,-62,62.4673,5.64258,0.0039997,0.00724994,-2.22363e-05,0.0072501,0.00399955,-1.56396,0.00419328,0.0149081,1994,1086,62.4672,-5.64262
777,-62,62.3203,5.2356,0.00755692,0.00788435,-0.00193937,0.0096669,0.00577437,-0.827507,0.00561633,0.0151878,2001,1086,62.3204,-5.23563
784,-62,62.2073,4.84436,0.0114988,0.00750906,-0.00427846,0.0142246,0.00478327,-0.56725,0.00835808,0.0264834,2008,1086,62.2074,-4.84438
791,-62,62.0959,4.46606,0.015928,0.00553634,-0.00721764,0.0196255,0.00183886,-0.473426,0.0125158,0.0438652,2015,1086,62.096,-4.4661
798,-62,61.9656,4.07922,0,0,0,0,0,0,0,-1,2022,1086,61.9655,-4.07923
805,-62,62.1887,2.3429,0,0,0,0,0,0,0,-1,2029,1086,62.1886,-2.34288
812,-62,61.4932,0.764038,0,0,0,0,0,0,0,-1,2036,1086,61.4932,-0.764013
-700,-69,-44.1939,0.212891,0,0,0,0,0,0,0,-1,524,1093,-44.1939,-0.212861
-693,-69,-50.0186,-3.6842,0,0,0,0,0,0,0,-1,531,1093,-50.0186,3.68417
-686,-69,-49.3672,-2.84705,0,0,0,0,0,0,0,-1,538,1093,-49.3673,2.84705
-679,-69,-48.7497,-2.03003,0.0509287,0.00972466,0.0526364,0.0868513,-0.0261979,0.598862,0.0683286,0.0486977,545,1093,-48.7497,2.03006
-672,-69,-48.0281,-1.19165,0.0472877,0.0152922,0.0476895,0.0815912,-0.0190113,0.623568,0.0617152,0.0496649,552,1093,-48.0281,1.19161
-665,-69,-47.8185,-2.23071,0,0,0,0,0,0,0,-1,559,1093,-47.8185,2.23073
-658,-69,-47.2183,1.11511,0.0340468,0.017403,0.0344562,0.0611718,-0.00972207,0.666907,0.0443783,0.0451095,566,1093,-47.2182,-1.11516
-651,-69,-46.6828,2.35815,0.0270136,0.0159058,0.0275413,0.0495555,-0.00663602,0.685904,0.0354566,0.0383309,573,1093,-46.6828,-2.35819
-644,-69,-46.718,2.82617,0.0208125,0.0137478,0.0209812,0.0385566,-0.00399628,0.702001,0.0271347,0.0125243,580,1093,-46.718,-2.82616
-637,-69,-46.7852,3.29858,0.0152082,0.011002,0.0146311,0.0278865,-0.00167639,0.714016,0.0191743,0.0136992,587,1093,-46.7852,-3.29853
-630,-69,-46.83,3.70105,0.0103196,0.00767859,0.00873217,0.0178305,0.000167632,0.710356,0.0118315,0.0166652,594,1093,-46.83,-3.70104
-623,-69,-46.8244,4.1217,0.00642289,0.00476494,0.00445389,0.0101243,0.00106353,0.693389,0.00642443,0.0198879,601,1093,-46.8244,-4.12171
-616,-69,-46.8447,4.55042,0.00435557,0.00222631,0.000982136,0.0047394,0.00184248,0.372557,0.00275877,0.0241693,608,1093,-46.8447,-4.55043
-609,-69,-46.8569,4.95642,0.00368939,4.80368e-05,-0.00136886,0.00414657,-0.000409146,-0.322339,0.00291037,0.0207224,615,1093,-46.8569,-4.95646
-602,-69,-46.795,5.39404,0.00293755,-0.00117386,-0.00228663,0.00395668,-0.00219299,-0.419264,0.00359886,0.0210584,622,1093,-46.795,-5.39409
-595,-69,-46.6913,5.80176,0.0027353,-0.00182838,-0.00235897,0.00373546,-0.00282854,-0.401009,0.00380177,0.0439957,629,1093,-46.6913,-5.80172
-588,-69,-46.7069,6.25891,0,0,0,0,0,0,0,-1,636,1093,-46.7069,-6.25892
-581,-69,-48.9683,1.02417,0,0,0,0,0,0,0,-1,643,1093,-48.9682,-1.02411
-574,-69,-49.066,0.83374,0.0040895,-0.00277895,-0.00141032,0.00436781,-0.00305726,-0.194834,0.00430907,0.0326389,650,1093,-49.066,-0.833729
-567,-69,-49.094,0.474121,0.00431541,-0.00275152,-0.000832034,0.00441205,-0.00284815,-0.11563,0.00422397,0.0372758,657,1093,-49.094,-0.474106
-560,-69,-49.0652,0.226196,0.00433451,-0.00249273,-9.18676e-05,0.00433575,-0.00249396,-0.0134528,0.00399064,0.0395649,664,1093,-49.0652,-0.226201
-553,-69,-48.8829,0.74939,0.00420968,-0.00206358,0.000829713,0.00431757,-0.00217146,0.1293,0.00381413,0.0374893,671,1093,-48.8829,-0.749401
-546,-69,-48.9414,0.773315,0.00442006,-0.00161955,0.00189204,0.00496382,-0.00216332,0.279854,0.00421941,0.036168,678,1093,-48.9414,-0.773325
-539,-69,-48.9261,0.97229,0.00563135,-0.00161991,0.00261932,0.00647853,-0.00246709,0.312816,0.00533504,0.0374133,685,1093,-48.9261,-0.972281
-532,-69,-48.8727,1.18665,0.00689387,-0.00141201,0.00302026,0.007876,-0.00239413,0.314393,0.00620463,0.039698,692,1093,-48.8727,-1.18667
-525,-69,0,0,0,0,0,0,0,0,0,-1,699,1093,0,0
-518,-69,0,0,0,0,0,0,0,0,0,-1,706,1093,0,0
-511,-69,0,0,0,0,0,0,0,0,0,-1,713,1093,0,0
-504,-69,0,0,0,0,0,0,0,0,0,-1,720,1093,0,0
-497,-69,0,0,0,0,0,0,0,0,0,-1,727,1093,0,0
-490,-69,0,0,0,0,0,0,0,0,0,-1,734,1093,0,0
-483,-69,0,0,0,0,0,0,0,0,0,-1,741,1093,0,0
-476,-69,0,0,0,0,0,0,0,0,0,-1,748,1093,0,0
-469,-69,0,0,0,0,0,0,0,0,0,-1,755,1093,0,0
-462,-69,0,0,0,0,0,0,0,0,0,-1,762,1093,0,0
-455,-69,0,0,0,0,0,0,0,0,0,-1,769,1093,0,0
-448,-69,0,0,0,0,0,0,0,0,0,-1,776,1093,0,0
-441,-69,0,0,0,0,0,0,0,0,0,-1,783,1093,0,0
-434,-69,0,0,0,0,0,0,0,0,0,-1,790,1093,0,0
-427,-69,0,0,0,0,0,0,0,0,0,-1,797,1093,0,0
-420,-69,0,0,0,0,0,0,0,0,0,-1,804,1093,0,0
-413,-69,0,0,0,0,0,0,0,0,0,-1,811,1093,0,0
-406,-69,0,0,0,0,0,0,0,0,0,-1,818,1093,0,0
-399,-69,0,0,0,0,0,0,0,0,0,-1,825,1093,0,0
-392,-69,0,0,0,0,0,0,0,0,0,-1,832,1093,0,0
-385,-69,0,0,0,0,0,0,0,0,0,-1,839,1093,0,0
-378,-69,0,0,0,0,0,0,0,0,0,-1,846,1093,0,0
-371,-69,0,0,0,0,0,0,0,0,0,-1,853,1093,0,0
-364,-69,0,0,0,0,0,0,0,0,0,-1,860,1093,0,0
-357,-69,0,0,0,0,0,0,0,0,0,-1,867,1093,0,0
-350,-69,0,0,0,0,0,0,0,0,0,-1,874,1093,0,0
-343,-69,0,0,0,0,0,0,0,0,0,-1,881,1093,0,0
-336,-69,0,0,0,0,0,0,0,0,0,-1,888,1093,0,0
-329,-69,0,0,0,0,0,0,0,0,0,-1,895,1093,0,0
-322,-69,0,0,0,0,0,0,0,0,0,-1,902,1093,0,0
-315,-69,0,0,0,0,0,0,0,0,0,-1,909,1093,0,0
-308,-69,0,0,0,0,0,0,0,0,0,-1,916,1093,0,0
-301,-69,0,0,0,0,0,0,0,0,0,-1,923,1093,0,0
-294,-69,0,0,0,0,0,0,0,0,0,-1,930,1093,0,0
-287,-69,0,0,0,0,0,0,0,0,0,-1,937,1093,0,0
-280,-69,0,0,0,0,0,0,0,0,0,-1,944,1093,0,0
-273,-69,0,0,0,0,0,0,0,0,0,-1,951,1093,0,0
-266,-69,0,0,0,0,0,0,0,0,0,-1,958,1093,0,0
-259,-69,0,0,0,0,0,0,0,0,0,-1,965,1093,0,0
-252,-69,0,0,0,0,0,0,0,0,0,-1,972,1093,0,0
-245,-69,0,0,0,0,0,0,0,0,0,-1,979,1093,0,0
-238,-69,0,0,0,0,0,0,0,0,0,-1,986,1093,0,0
-231,-69,0,0,0,0,0,0,0,0,0,-1,993,1093,0,0
-224,-69,0,0,0,0,0,0,0,0,0,-1,1000,1093,0,0
-217,-69,0,0,0,0,0,0,0,0,0,-1,1007,1093,0,0
-210,-69,0,0,0,0,0,0,0,0,0,-1,1014,1093,0,0
-203,-69,0,0,0,0,0,0,0,0,0,-1,1021,1093,0,0
-196,-69,0,0,0,0,0,0,0,0,0,-1,1028,1093,0,0
-189,-69,0,0,0,0,0,0,0,0,0,-1,1035,1093,0,0
-182,-69,0,0,0,0,0,0,0,0,0,-1,1042,1093,0,0
-175,-69,0,0,0,0,0,0,0,0,0,-1,1049,1093,0,0
-168,-69,0,0,0,0,0,0,0,0,0,-1,1056,1093,0,0
-161,-69,0,0,0,0,0,0,0,0,0,-1,1063,1093,0,0
-154,-69,0,0,0,0,0,0,0,0,0,-1,1070,1093,0,0
-147,-69,0,0,0,0,0,0,0,0,0,-1,1077,1093,0,0
-140,-69,0,0,0,0,0,0,0,0,0,-1,1084,1093,0,0
-133,-69,0,0,0,0,0,0,0,0,0,-1,1091,1093,0,0
-126,-69,0,0,0,0,0,0,0,0,0,-1,1098,1093,0,0
-119,-69,0,0,0,0,0,0,0,0,0,-1,1105,1093,0,0
-112,-69,0,0,0,0,0,0,0,0,0,-1,1112,1093,0,0
-105,-69,0,0,0,0,0,0,0,0,0,-1,1119,1093,0,0
-98,-69,0,0,0,0,0,0,0,0,0,-1,1126,1093,0,0
-91,-69,0,0,0,0,0,0,0,0,0,-1,1133,1093,0,0
-84,-69,0,0,0,0,0,0,0,0,0,-1,1140,1093,0,0
-77,-69,0,0,0,0,0,0,0,0,0,-1,1147,1093,0,0
-70,-69,0,0,0,0,0,0,0,0,0,-1,1154,1093,0,0
-63,-69,0,0,0,0,0,0,0,0,0,-1,1161,1093,0,0
-56,-69,0,0,0,0,0,0,0,0,0,-1,1168,1093,0,0
-49,-69,0,0,0,0,0,0,0,0,0,-1,1175,1093,0,0
-42,-69,0,0,0,0,0,0,0,0,0,-1,1182,1093,0,0
-35,-69,0,0,0,0,0,0,0,0,0,-1,1189,1093,0,0
-28,-69,0,0,0,0,0,0,0,0,0,-1,1196,1093,0,0
-21,-69,0,0,0,0,0,0,0,0,0,-1,1203,1093,0,0
-14,-69,0,0,0,0,0,0,0,0,0,-1,1210,1093,0,0
-7,-69,0,0,0,0,0,0,0,0,0,-1,1217,1093,0,0
0,-69,0,0,0,0,0,0,0,0,0,-1,1224,1093,0,0
7,-69,0,0,0,0,0,0,0,0,0,-1,1231,1093,0,0
14,-69,0,0,0,0,0,0,0,0,0,-1,1238,1093,0,0
21,-69,0,0,0,0,0,0,0,0,0,-1,1245,1093,0,0
28,-69,0,0,0,0,0,0,0,0,0,-1,1252,1093,0,0
35,-69,0,0,0,0,0,0,0,0,0,-1,1259,1093,0,0
42,-69,0,0,0,0,0,0,0,0,0,-1,1266,1093,0,0
49,-69,0,0,0,0,0,0,0,0,0,-1,1273,1093,0,0
56,-69,0,0,0,0,0,0,0,0,0,-1,1280,1093,0,0
63,-69,0,0,0,0,0,0,0,0,0,-1,1287,1093,0,0
70,-69,0,0,0,0,0,0,0,0,0,-1,1294,1093,0,0
77,-69,0,0,0,0,0,0,0,0,0,-1,1301,1093,0,0
84,-69,0,0,0,0,0,0,0,0,0,-1,1308,1093,0,0
91,-69,0,0,0,0,0,0,0,0,0,-1,1315,1093,0,0
98,-69,0,0,0,0,0,0,0,0,0,-1,1322,1093,0,0
105,-69,0,0,0,0,0,0,0,0,0,-1,1329,1093,0,0
112,-69,0,0,0,0,0,0,0,0,0,-1,1336,1093,0,0
119,-69,0,0,0,0,0,0,0,0,0,-1,1343,1093,0,0
126,-69,0,0,0,0,0,0,0,0,0,-1,1350,1093,0,0
133,-69,0,0,0,0,0,0,0,0,0,-1,1357,1093,0,0
140,-69,0,0,0,0,0,0,0,0,0,-1,1364,1093,0,0
147,-69,0,0,0,0,0,0,0,0,0,-1,1371,1093,0,0
154,-69,0,0,0,0,0,0,0,0,0,-1,1378,1093,0,0
161,-69,0,0,0,0,0,0,0,0,0,-1,1385,1093,0,0
168,-69,0,0,0,0,0,0,0,0,0,-1,1392,1093,0,0
175,-69,0,0,0,0,0,0,0,0,0,-1,1399,1093,0,0
182,-69,0,0,0,0,0,0,0,0,0,-1,1406,1093,0,0
189,-69,0,0,0,0,0,0,0,0,0,-1,1413,1093,0,0
196,-69,0,0,0,0,0,0,0,0,0,-1,1420,1093,0,0
203,-69,0,0,0,0,0,0,0,0,0,-1,1427,1093,0,0
210,-69,0,0,0,0,0,0,0,0,0,-1,1434,1093,0,0
217,-69,0,0,0,0,0,0,0,0,0,-1,1441,1093,0,0
224,-69,0,0,0,0,0,0,0,0,0,-1,1448,1093,0,0
231,-69,0,0,0,0,0,0,0,0,0,-1,1455,1093,0,0
238,-69,0,0,0,0,0,0,0,0,0,-1,1462,1093,0,0
245,-69,0,0,0,0,0,0,0,0,0,-1,1469,1093,0,0
252,-69,0,0,0,0,0,0,0,0,0,-1,1476,1093,0,0
259,-69,0,0,0,0,0,0,0,0,0,-1,1483,1093,0,0
266,-69,0,0,0,0,0,0,0,0,0,-1,1490,1093,0,0
273,-69,0,0,0,0,0,0,0,0,0,-1,1497,1093,0,0
280,-69,0,0,0,0,0,0,0,0,0,-1,1504,1093,0,0
287,-69,0,0,0,0,0,0,0,0,0,-1,1511,1093,0,0
294,-69,0,0,0,0,0,0,0,0,0,-1,1518,1093,0,0
301,-69,0,0,0,0,0,0,0,0,0,-1,1525,1093,0,0
308,-69,0,0,0,0,0,0,0,0,0,-1,1532,1093,0,0
315,-69,0,0,0,0,0,0,0,0,0,-1,1539,1093,0,0
322,-69,0,0,0,0,0,0,0,0,0,-1,1546,1093,0,0
329,-69,0,0,0,0,0,0,0,0,0,-1,1553,1093,0,0
336,-69,0,0,0,0,0,0,0,0,0,-1,1560,1093,0,0
343,-69,0,0,0,0,0,0,0,0,0,-1,1567,1093,0,0
350,-69,0,0,0,0,0,0,0,0,0,-1,1574,1093,0,0
357,-69,0,0,0,0,0,0,0,0,0,-1,1581,1093,0,0
364,-69,0,0,0,0,0,0,0,0,0,-1,1588,1093,0,0
371,-69,0,0,0,0,0,0,0,0,0,-1,1595,1093,0,0
378,-69,0,0,0,0,0,0,0,0,0,-1,1602,1093,0,0
385,-69,0,0,0,0,0,0,0,0,0,-1,1609,1093,0,0
392,-69,0,0,0,0,0,0,0,0,0,-1,1616,1093,0,0
399,-69,0,0,0,0,0,0,0,0,0,-1,1623,1093,0,0
406,-69,0,0,0,0,0,0,0,0,0,-1,1630,1093,0,0
413,-69,0,0,0,0,0,0,0,0,0,-1,1637,1093,0,0
420,-69,0,0,0,0,0,0,0,0,0,-1,1644,1093,0,0
427,-69,0,0,0,0,0,0,0,0,0,-1,1651,1093,0,0
434,-69,0,0,0,0,0,0,0,0,0,-1,1658,1093,0,0
441,-69,0,0,0,0,0,0,0,0,0,-1,1665,1093,0,0
448,-69,0,0,0,0,0,0,0,0,0,-1,1672,1093,0,0
455,-69,0,0,0,0,0,0,0,0,0,-1,1679,1093,0,0
462,-69,0,0,0,0,0,0,0,0,0,-1,1686,1093,0,0
469,-69,0,0,0,0,0,0,0,0,0,-1,1693,1093,0,0
476,-69,0,0,0,0,0,0,0,0,0,-1,1700,1093,0,0
483,-69,0,0,0,0,0,0,0,0,0,-1,1707,1093,0,0
490,-69,0,0,0,0,0,0,0,0,0,-1,1714,1093,0,0
497,-69,0,0,0,0,0,0,0,0,0,-1,1721,1093,0,0
504,-69,0,0,0,0,0,0,0,0,0,-1,1728,1093,0,0
511,-69,0,0,0,0,0,0,0,0,0,-1,1735,1093,0,0
518,-69,0,0,0,0,0,0,0,0,0,-1,1742,1093,0,0
525,-69,0,0,0,0,0,0,0,0,0,-1,1749,1093,0,0
532,-69,0,0,0,0,0,0,0,0,0,-1,1756,1093,0,0
539,-69,0,0,0,0,0,0,0,0,0,-1,1763,1093,0,0
546,-69,0,0,0,0,0,0,0,0,0,-1,1770,1093,0,0
553,-69,0,0,0,0,0,0,0,0,0,-1,1777,1093,0,0
560,-69,0,0,0,0,0,0,0,0,0,-1,1784,1093,0,0
567,-69,0,0,0,0,0,0,0,0,0,-1,1791,1093,0,0
574,-69,0,0,0,0,0,0,0,0,0,-1,1798,1093,0,0
581,-69,0,0,0,0,0,0,0,0,0,-1,1805,1093,0,0
588,-69,0,0,0,0,0,0,0,0,0,-1,1812,1093,0,0
595,-69,0,0,0,0,0,0,0,0,0,-1,1819,1093,0,0
602,-69,0,0,0,0,0,0,0,0,0,-1,1826,1093,0,0
609,-69,0,0,0,0,0,0,0,0,0,-1,1833,1093,0,0
616,-69,0,0,0,0,0,0,0,0,0,-1,1840,1093,0,0
623,-69,0,0,0,0,0,0,0,0,0,-1,1847,1093,0,0
630,-69,0,0,0,0,0,0,0,0,0,-1,1854,1093,0,0
637,-69,0,0,0,0,0,0,0,0,0,-1,1861,1093,0,0
644,-69,0,0,0,0,0,0,0,0,0,-1,1868,1093,0,0
651,-69,64.6174,2.28381,0.00213771,-0.00172801,0.00620817,0.00670695,-0.00629725,0.634484,0.00750922,0.0455185,1875,1093,64.6174,-2.2838
658,-69,64.7386,2.45313,0.00161456,-0.00153885,0.00467934,0.00497569,-0.00489998,0.622898,0.00570178,0.0444012,1882,1093,64.7387,-2.45316
665,-69,64.8152,2.65588,0.00114953,-0.00133916,0.00338764,0.00351413,-0.00370376,0.609388,0.00416773,0.0404936,1889,1093,64.8152,-2.65585
672,-69,64.738,2.81299,0.000775538,-0.00108499,0.00232266,0.0023473,-0.00265675,0.594922,0.00289093,0.0369979,1896,1093,64.738,-2.81295
679,-69,64.7076,2.72229,0.000405386,-0.000825737,0.0013765,0.00129769,-0.00171804,0.575139,0.00174676,0.037419,1903,1093,64.7076,-2.72229
686,-69,64.7968,2.73096,0.000141337,-0.000879115,0.000971121,0.00072811,-0.00146589,0.543518,0.00129036,0.0384206,1910,1093,64.7968,-2.73098
693,-69,64.6713,2.67004,6.61181e-05,-0.00103399,0.000879077,0.000553048,-0.00152092,0.505841,0.00124011,0.0356592,1917,1093,64.6712,-2.6701
700,-69,64.7351,2.52136,6.35441e-05,-0.00108981,0.00099319,0.000635336,-0.00166161,0.522369,0.00136955,0.0272254,1924,1093,64.7352,-2.52135
707,-69,64.7423,2.53577,-0.000190524,-0.000980648,0.00118158,0.000660287,-0.00183146,0.624065,0.00149064,0.0214575,1931,1093,64.7423,-2.53578
714,-69,64.7877,2.5907,-0.000581678,-0.000686563,0.00142253,0.000789374,-0.00205762,0.766974,0.0016972,0.0335483,1938,1093,64.7877,-2.59075
721,-69,64.8424,2.703,0,0,0,0,0,0,0,-1,1945,1093,64.8424,-2.70303
728,-69,61.9307,8.05469,0,0,0,0,0,0,0,-1,1952,1093,61.9307,-8.05474
735,-69,62.2699,7.56165,-0.00167323,0.00102014,0.00213012,0.00219357,-0.00284667,1.06728,0.00291811,0.0414642,1959,1093,62.2699,-7.56167
742,-69,62.2001,7.24036,-0.00121831,0.00205285,0.00233112,0.00326494,-0.0024304,1.09131,0.00329995,0.0316798,1966,1093,62.2001,-7.24031
749,-69,62.0109,6.79163,-0.000731955,0.00295777,0.00256377,0.00427145,-0.00204564,1.09727,0.00372188,0.0331707,1973,1093,62.0109,-6.79158
756,-69,62.0792,6.42554,-0.000189765,0.00424468,0.00242388,0.00531246,-0.00125755,1.15585,0.00402682,0.0178104,1980,1093,62.0792,-6.42554
763,-69,62.0403,6.02783,0.000783361,0.00514719,0.00162067,0.00568324,0.000247314,1.25137,0.00370914,0.0191984,1987,1093,62.0403,-6.02782
770,-69,61.999,5.65149,0.00275785,0.00618599,0.000390827,0.00622998,0.00271386,1.45871,0.00360681,0.0198711,1994,1093,61.9991,-5.65153
777,-69,61.8491,5.27405,0.00536568,0.00653722,-0.00112134,0.00721657,0.00468633,-1.0261,0.00422802,0.0249874,2001,1093,61.8492,-5.27407
784,-69,61.7439,4.82141,0.00819134,0.00590857,-0.00295268,0.0102156,0.00388434,-0.600965,0.00595409,0.0348126,2008,1093,61.7439,-4.82138
791,-69,61.6477,4.36414,0.0112323,0.00381692,-0.00524221,0.0139455,0.00110372,-0.477603,0.00895177,0.0456681,2015,1093,61.6478,-4.3641
798,-69,61.5305,4.02014,0,0,0,0,0,0,0,-1,2022,1093,61.5305,-4.02012
805,-69,61.6426,2.47998,0.0166942,-0.00716931,-0.0122347,0.0218521,-0.0123272,-0.398966,0.0199872,0.0471893,2029,1093,61.6427,-2.47996
812,-69,61.1917,1.1333,0.016909,-0.0173553,-0.0175407,0.024296,-0.0247422,-0.398591,0.0283126,0.0461485,2036,1093,61.1916,-1.13325
-700,-76,0,0,0,0,0,0,0,0,0,-1,524,1100,0,0
-693,-76,-46.9469,-2.14551,0,0,0,0,0,0,0,-1,531,1100,-46.9469,2.14551
-686,-76,-48.4123,-2.40405,0,0,0,0,0,0,0,-1,538,1100,-48.4123,2.4041
-679,-76,-47.9097,-1.68225,0.0509517,0.0158469,0.0516826,0.0879811,-0.0211825,0.621699,0.0668433,0.0482912,545,1100,-47.9097,1.68225
-672,-76,-47.3133,-0.80188,0.0468939,0.0185364,0.0465151,0.0813432,-0.015913,0.637462,0.0602379,0.045437,552,1100,-47.3133,0.801884
-665,-76,-46.8192,-0.000976563,0.0405905,0.0188743,0.040107,0.0712832,-0.0118185,0.653203,0.051912,0.0464732,559,1100,-46.8192,0.000989766
-658,-76,-46.5829,0.957886,0.0334099,0.0177356,0.0332418,0.0597259,-0.00858046,0.669632,0.042964,0.0465694,566,1100,-46.583,-0.957865
-651,-76,-46.1632,2.15161,0,0,0,0,0,0,0,-1,573,1100,-46.1632,-2.15162
-644,-76,-46.1372,2.78979,0.0201513,0.0130787,0.0199933,0.0369186,-0.00368865,0.697866,0.0259296,0.0124816,580,1100,-46.1372,-2.78983
-637,-76,-46.2493,3.22021,0.0146008,0.0101454,0.0138679,0.0264188,-0.00167257,0.705761,0.0181957,0.0148717,587,1100,-46.2494,-3.22022
-630,-76,-46.2878,3.64392,0.00977262,0.00685398,0.00814632,0.0165893,3.73023e-05,0.696769,0.0110471,0.0160282,594,1100,-46.2878,-3.64393
-623,-76,-46.3156,4.08582,0.00590729,0.0040419,0.00395991,0.00904286,0.00090633,0.669739,0.00575032,0.0208602,601,1100,-46.3155,-4.0858
-616,-76,-46.3835,4.57251,0.00397307,0.00168734,0.000751515,0.00419802,0.00146239,0.29084,0.00246061,0.0215012,608,1100,-46.3835,-4.57251
-609,-76,-46.3894,5.01453,0.00347368,-0.000239115,-0.00111218,0.00378134,-0.00054678,-0.269882,0.00272153,0.0208707,615,1100,-46.3894,-5.01457
-602,-76,-46.3071,5.4408,0.00286255,-0.00134845,-0.00171828,0.0034747,-0.0019606,-0.342237,0.0031784,0.0207868,622,1100,-46.3071,-5.44083
-595,-76,-46.2963,5.83081,0.00272256,-0.00190533,-0.00166693,0.00326046,-0.00244323,-0.312138,0.00330427,0.0393313,629,1100,-46.2963,-5.83079
-588,-76,-46.3647,6.23804,0,0,0,0,0,0,0,-1,636,1100,-46.3647,-6.23806
-581,-76,-48.9643,0.772339,0,0,0,0,0,0,0,-1,643,1100,-48.9643,-0.772317
-574,-76,-49.0247,0.756348,0.00402006,-0.00272339,-0.000835781,0.0041221,-0.00282543,-0.121491,0.00403438,0.0349655,650,1100,-49.0247,-0.756396
-567,-76,-48.9395,0.779175,0.00426092,-0.00269756,-0.000381921,0.00428182,-0.00271846,-0.0546668,0.00407507,0.0412652,657,1100,-48.9395,-0.779158
-560,-76,-48.8237,0.785156,0.00431106,-0.00244203,0.000164745,0.00431508,-0.00244605,0.0243762,0.00395294,0.0395663,664,1100,-48.8237,-0.785104
-553,-76,-48.7455,0.724731,0.00414312,-0.0019849,0.000791309,0.00424365,-0.00208543,0.126368,0.00372424,0.0421005,671,1100,-48.7455,-0.72476
-546,-76,-48.8815,0.772949,0.0043483,-0.00147581,0.00145482,0.00469148,-0.00181899,0.231658,0.00387886,0.0425717,678,1100,-48.8815,-0.772934
-539,-76,-48.9946,0.809204,0.00576752,-0.00133022,0.00170123,0.00615422,-0.00171692,0.223505,0.00477905,0.0401219,685,1100,-48.9946,-0.809265
-532,-76,-48.883,0.953613,0.00726368,-0.00104067,0.00156935,0.00755036,-0.00132735,0.180681,0.00552939,0.0385142,692,1100,-48.883,-0.953566
-525,-76,0,0,0,0,0,0,0,0,0,-1,699,1100,0,0
-518,-76,0,0,0,0,0,0,0,0,0,-1,706,1100,0,0
-511,-76,0,0,0,0,0,0,0,0,0,-1,713,1100,0,0
-504,-76,0,0,0,0,0,0,0,0,0,-1,720,1100,0,0
-497,-76,0,0,0,0,0,0,0,0,0,-1,727,1100,0,0
-490,-76,0,0,0,0,0,0,0,0,0,-1,734,1100,0,0
-483,-76,0,0,0,0,0,0,0,0,0,-1,741,1100,0,0
-476,-76,0,0,0,0,0,0,0,0,0,-1,748,1100,0,0
-469,-76,0,0,0,0,0,0,0,0,0,-1,755,1100,0,0
-462,-76,0,0,0,0,0,0,0,0,0,-1,762,1100,0,0
-455,-76,0,0,0,0,0,0,0,0,0,-1,769,1100,0,0
-448,-76,0,0,0,0,0,0,0,0,0,-1,776,1100,0,0
-441,-76,0,0,0,0,0,0,0,0,0,-1,783,1100,0,0
-434,-76,0,0,0,0,0,0,0,0,0,-1,790,1100,0,0
-427,-76,0,0,0,0,0,0,0,0,0,-1,797,1100,0,0
-420,-76,0,0,0,0,0,0,0,0,0,-1,804,1100,0,0
-413,-76,0,0,0,0,0,0,0,0,0,-1,811,1100,0,0
-406,-76,0,0,0,0,0,0,0,0,0,-1,818,1100,0,0
-399,-76,0,0,0,0,0,0,0,0,0,-1,825,1100,0,0
-392,-76,0,0,0,0,0,0,0,0,0,-1,832,1100,0,0
-385,-76,0,0,0,0,0,0,0,0,0,-1,839,1100,0,0
-378,-76,0,0,0,0,0,0,0,0,0,-1,846,1100,0,0
-371,-76,0,0,0,0,0,0,0,0,0,-1,853,1100,0,0
-364,-76,0,0,0,0,0,0,0,0,0,-1,860,1100,0,0
-357,-76,0,0,0,0,0,0,0,0,0,-1,867,1100,0,0
-350,-76,0,0,0,0,0,0,0,0,0,-1,874,1100,0,0
-343,-76,0,0,0,0,0,0,0,0,0,-1,881,1100,0,0
-336,-76,0,0,0,0,0,0,0,0,0,-1,888,1100,0,0
-329,-76,0,0,0,0,0,0,0,0,0,-1,895,1100,0,0
-322,-76,0,0,0,0,0,0,0,0,0,-1,902,1100,0,0
-315,-76,0,0,0,0,0,0,0,0,0,-1,909,1100,0,0
-308,-76,0,0,0,0,0,0,0,0,0,-1,916,1100,0,0
-301,-76,0,0,0,0,0,0,0,0,0,-1,923,1100,0,0
-294,-76,0,0,0,0,0,0,0,0,0,-1,930,1100,0,0
-287,-76,0,0,0,0,0,0,0,0,0,-1,937,1100,0,0
-280,-76,0,0,0,0,0,0,0,0,0,-1,944,1100,0,0
-273,-76,0,0,0,0,0,0,0,0,0,-1,951,1100,0,0
-266,-76,0,0,0,0,0,0,0,0,0,-1,958,1100,0,0
-259,-76,0,0,0,0,0,0,0,0,0,-1,965,1100,0,0
-252,-76,0,0,0,0,0,0,0,0,0,-1,972,1100,0,0
-245,-76,0,0,0,0,0,0,0,0,0,-1,979,1100,0,0
-238,-76,0,0,0,0,0,0,0,0,0,-1,986,1100,0,0
-231,-76,0,0,0,0,0,0,0,0,0,-1,993,1100,0,0
-224,-76,0,0,0,0,0,0,0,0,0,-1,1000,1100,0,0
-217,-76,0,0,0,0,0,0,0,0,0,-1,1007,1100,0,0
-210,-76,0,0,0,0,0,0,0,0,0,-1,1014,1100,0,0
-203,-76,0,0,0,0,0,0,0,0,0,-1,1021,1100,0,0
-196,-76,0,0,0,0,0,0,0,0,0,-1,1028,1100,0,0
-189,-76,0,0,0,0,0,0,0,0,0,-1,1035,1100,0,0
-182,-76,0,0,0,0,0,0,0,0,0,-1,1042,1100,0,0
-175,-76,0,0,0,0,0,0,0,0,0,-1,1049,1100,0,0
-168,-76,0,0,0,0,0,0,0,0,0,-1,1056,1100,0,0
-161,-76,0,0,0,0,0,0,0,0,0,-1,1063,1100,0,0
-154,-76,0,0,0,0,0,0,0,0,0,-1,1070,1100,0,0
-147,-76,0,0,0,0,0,0,0,0,0,-1,1077,1100,0,0
-140,-76,0,0,0,0,0,0,0,0,0,-1,1084,1100,0,0
-133,-76,0,0,0,0,0,0,0,0,0,-1,1091,1100,0,0
-126,-76,0,0,0,0,0,0,0,0,0,-1,1098,1100,0,0
-119,-76,0,0,0,0,0,0,0,0,0,-1,1105,1100,0,0
-112,-76,0,0,0,0,0,0,0,0,0,-1,1112,1100,0,0
-105,-76,0,0,0,0,0,0,0,0,0,-1,1119,1100,0,0
-98,-76,0,0,0,0,0,0,0,0,0,-1,1126,1100,0,0
-91,-76,0,0,0,0,0,0,0,0,0,-1,1133,1100,0,0
-84,-76,0,0,0,0,0,0,0,0,0,-1,1140,1100,0,0
-77,-76,0,0,0,0,0,0,0,0,0,-1,1147,1100,0,0
-70,-76,0,0,0,0,0,0,0,0,0,-1,1154,1100,0,0
-63,-76,0,0,0,0,0,0,0,0,0,-1,1161,1100,0,0
-56,-76,0,0,0,0,0,0,0,0,0,-1,1168,1100,0,0
-49,-76,0,0,0,0,0,0,0,0,0,-1,1175,1100,0,0
-42,-76,0,0,0,0,0,0,0,0,0,-1,1182,1100,0,0
-35,-76,0,0,0,0,0,0,0,0,0,-1,1189,1100,0,0
-28,-76,0,0,0,0,0,0,0,0,0,-1,1196,1100,0,0
-21,-76,0,0,0,0,0,0,0,0,0,-1,1203,1100,0,0
-14,-76,0,0,0,0,0,0,0,0,0,-1,1210,1100,0,0
-7,-76,0,0,0,0,0,0,0,0,0,-1,1217,1100,0,0
0,-76,0,0,0,0,0,0,0,0,0,-1,1224,1100,0,0
7,-76,0,0,0,0,0,0,0,0,0,-1,1231,1100,0,0
14,-76,0,0,0,0,0,0,0,0,0,-1,1238,1100,0,0
21,-76,0,0,0,0,0,0,0,0,0,-1,1245,1100,0,0
28,-76,0,0,0,0,0,0,0,0,0,-1,1252,1100,0,0
35,-76,0,0,0,0,0,0,0,0,0,-1,1259,1100,0,0
42,-76,0,0,0,0,0,0,0,0,0,-1,1266,1100,0,0
49,-76,0,0,0,0,0,0,0,0,0,-1,1273,1100,0,0
56,-76,0,0,0,0,0,0,0,0,0,-1,1280,1100,0,0
63,-76,0,0,0,0,0,0,0,0,0,-1,1287,1100,0,0
70,-76,0,0,0,0,0,0,0,0,0,-1,1294,1100,0,0
77,-76,0,0,0,0,0,0,0,0,0,-1,1301,1100,0,0
84,-76,0,0,0,0,0,0,0,0,0,-1,1308,1100,0,0
91,-76,0,0,0,0,0,0,0,0,0,-1,1315,1100,0,0
98,-76,0,0,0,0,0,0,0,0,0,-1,1322,1100,0,0
105,-76,0,0,0,0,0,0,0,0,0,-1,1329,1100,0,0
112,-76,0,0,0,0,0,0,0,0,0,-1,1336,1100,0,0
119,-76,0,0,0,0,0,0,0,0,0,-1,1343,1100,0,0
126,-76,0,0,0,0,0,0,0,0,0,-1,1350,1100,0,0
133,-76,0,0,0,0,0,0,0,0,0,-1,1357,1100,0,0
140,-76,0,0,0,0,0,0,0,0,0,-1,1364,1100,0,0
147,-76,0,0,0,0,0,0,0,0,0,-1,1371,1100,0,0
154,-76,0,0,0,0,0,0,0,0,0,-1,1378,1100,0,0
161,-76,0,0,0,0,0,0,0,0,0,-1,1385,1100,0,0
168,-76,0,0,0,0,0,0,0,0,0,-1,1392,1100,0,0
175,-76,0,0,0,0,0,0,0,0,0,-1,1399,1100,0,0
182,-76,0,0,0,0,0,0,0,0,0,-1,1406,1100,0,0
189,-76,0,0,0,0,0,0,0,0,0,-1,1413,1100,0,0
196,-76,0,0,0,0,0,0,0,0,0,-1,1420,1100,0,0
203,-76,0,0,0,0,0,0,0,0,0,-1,1427,1100,0,0
210,-76,0,0,0,0,0,0,0,0,0,-1,1434,1100,0,0
217,-76,0,0,0,0,0,0,0,0,0,-1,1441,1100,0,0
224,-76,0,0,0,0,0,0,0,0,0,-1,1448,1100,0,0
231,-76,0,0,0,0,0,0,0,0,0,-1,1455,1100,0,0
238,-76,0,0,0,0,0,0,0,0,0,-1,1462,1100,0,0
245,-76,0,0,0,0,0,0,0,0,0,-1,1469,1100,0,0
252,-76,0,0,0,0,0,0,0,0,0,-1,1476,1100,0,0
259,-76,0,0,0,0,0,0,0,0,0,-1,1483,1100,0,0
266,-76,0,0,0,0,0,0,0,0,0,-1,1490,1100,0,0
273,-76,0,0,0,0,0,0,0,0,0,-1,1497,1100,0,0
280,-76,0,0,0,0,0,0,0,0,0,-1,1504,1100,0,0
287,-76,0,0,0,0,0,0,0,0,0,-1,1511,1100,0,0
294,-76,0,0,0,0,0,0,0,0,0,-1,1518,1100,0,0
301,-76,0,0,0,0,0,0,0,0,0,-1,1525,1100,0,0
308,-76,0,0,0,0,0,0,0,0,0,-1,1532,1100,0,0
315,-76,0,0,0,0,0,0,0,0,0,-1,1539,1100,0,0
322,-76,0,0,0,0,0,0,0,0,0,-1,1546,1100,0,0
329,-76,0,0,0,0,0,0,0,0,0,-1,1553,1100,0,0
336,-76,0,0,0,0,0,0,0,0,0,-1,1560,1100,0,0
343,-76,0,0,0,0,0,0,0,0,0,-1,1567,1100,0,0
350,-76,0,0,0,0,0,0,0,0,0,-1,1574,1100,0,0
357,-76,0,0,0,0,0,0,0,0,0,-1,1581,1100,0,0
364,-76,0,0,0,0,0,0,0,0,0,-1,1588,1100,0,0
371,-76,0,0,0,0,0,0,0,0,0,-1,1595,1100,0,0
378,-76,0,0,0,0,0,0,0,0,0,-1,1602,1100,0,0
385,-76,0,0,0,0,0,0,0,0,0,-1,1609,1100,0,0
392,-76,0,0,0,0,0,0,0,0,0,-1,1616,1100,0,0
399,-76,0,0,0,0,0,0,0,0,0,-1,1623,1100,0,0
406,-76,0,0,0,0,0,0,0,0,0,-1,1630,1100,0,0
413,-76,0,0,0,0,0,0,0,0,0,-1,1637,1100,0,0
420,-76,0,0,0,0,0,0,0,0,0,-1,1644,1100,0,0
427,-76,0,0,0,0,0,0,0,0,0,-1,1651,1100,0,0
434,-76,0,0,0,0,0,0,0,0,0,-1,1658,1100,0,0
441,-76,0,0,0,0,0,0,0,0,0,-1,1665,1100,0,0
448,-76,0,0,0,0,0,0,0,0,0,-1,1672,1100,0,0
455,-76,0,0,0,0,0,0,0,0,0,-1,1679,1100,0,0
462,-76,0,0,0,0,0,0,0,0,0,-1,1686,1100,0,0
469,-76,0,0,0,0,0,0,0,0,0,-1,1693,1100,0,0
476,-76,0,0,0,0,0,0,0,0,0,-1,1700,1100,0,0
483,-76,0,0,0,0,0,0,0,0,0,-1,1707,1100,0,0
490,-76,0,0,0,0,0,0,0,0,0,-1,1714,1100,0,0
497,-76,0,0,0,0,0,0,0,0,0,-1,1721,1100,0,0
504,-76,0,0,0,0,0,0,0,0,0,-1,1728,1100,0,0
511,-76,0,0,0,0,0,0,0,0,0,-1,1735,1100,0,0
518,-76,0,0,0,0,0,0,0,0,0,-1,1742,1100,0,0
525,-76,0,0,0,0,0,0,0,0,0,-1,1749,1100,0,0
532,-76,0,0,0,0,0,0,0,0,0,-1,1756,1100,0,0
539,-76,0,0,0,0,0,0,0,0,0,-1,1763,1100,0,0
546,-76,0,0,0,0,0,0,0,0,0,-1,1770,1100,0,0
553,-76,0,0,0,0,0,0,0,0,0,-1,1777,1100,0,0
560,-76,0,0,0,0,0,0,0,0,0,-1,1784,1100,0,0
567,-76,0,0,0,0,0,0,0,0,0,-1,1791,1100,0,0
574,-76,0,0,0,0,0,0,0,0,0,-1,1798,1100,0,0
581,-76,0,0,0,0,0,0,0,0,0,-1,1805,1100,0,0
588,-76,0,0,0,0,0,0,0,0,0,-1,1812,1100,0,0
595,-76,0,0,0,0,0,0,0,0,0,-1,1819,1100,0,0
602,-76,0,0,0,0,0,0,0,0,0,-1,1826,1100,0,0
609,-76,0,0,0,0,0,0,0,0,0,-1,1833,1100,0,0
616,-76,0,0,0,0,0,0,0,0,0,-1,1840,1100,0,0
623,-76,0,0,0,0,0,0,0,0,0,-1,1847,1100,0,0
630,-76,0,0,0,0,0,0,0,0,0,-1,1854,1100,0,0
637,-76,0,0,0,0,0,0,0,0,0,-1,1861,1100,0,0
644,-76,0,0,0,0,0,0,0,0,0,-1,1868,1100,0,0
651,-76,64.7428,2.40234,0.00214421,-0.00204194,0.00623431,0.00662743,-0.00652516,0.623443,0.00759372,0.0424041,1875,1100,64.7428,-2.4024
658,-76,64.7336,2.50256,0.00156485,-0.00169443,0.00468847,0.00489883,-0.0050284,0.618138,0.00573165,0.042652,1882,1100,64.7337,-2.50261
665,-76,64.7311,2.52795,0.00108457,-0.00137994,0.00334936,0.00342116,-0.00371653,0.609129,0.00412212,0.0375083,1889,1100,64.7311,-2.52799
672,-76,64.7188,2.72913,0.000727134,-0.00105138,0.00218963,0.0022012,-0.00252544,0.592513,0.00273106,0.0353291,1896,1100,64.7188,-2.72908
679,-76,64.6742,2.82617,0.000403118,-0.000769964,0.00116194,0.00111817,-0.00148501,0.551661,0.00150791,0.0371393,1903,1100,64.6742,-2.82622
686,-76,64.7644,2.79785,0.000289261,-0.000827626,0.000706336,0.000631245,-0.00116961,0.450901,0.0010551,0.0377143,1910,1100,64.7644,-2.79781
693,-76,64.7373,2.71082,0.000345101,-0.000983738,0.000574585,0.00055909,-0.00119773,0.35651,0.0010364,0.0389618,1917,1100,64.7372,-2.71077
700,-76,64.741,2.61414,0.000419339,-0.00105322,0.000641331,0.000659488,-0.00129337,0.358292,0.00114711,0.0324818,1924,1100,64.7409,-2.61415
707,-76,64.7377,2.57874,0.000231458,-0.000942822,0.000802107,0.000638355,-0.00134972,0.469459,0.00117205,0.0242143,1931,1100,64.7376,-2.57876
714,-76,64.7935,2.62109,0,0,0,0,0,0,0,-1,1938,1100,64.7935,-2.62114
721,-76,45.1713,3.04919,0,0,0,0,0,0,0,-1,1945,1100,45.1713,-3.04915
728,-76,60.937,8.08447,0,0,0,0,0,0,0,-1,1952,1100,60.937,-8.08446
735,-76,61.4136,7.73108,-0.000977235,0.000808708,0.00175096,0.00188125,-0.00204978,1.0212,0.00227027,0.0483405,1959,1100,61.4136,-7.73106
742,-76,61.6689,7.30859,-0.000700204,0.00175192,0.00197454,0.00285009,-0.00179837,1.06323,0.00270659,0.032519,1966,1100,61.669,-7.30856
749,-76,61.5626,6.83618,-0.000350429,0.00253786,0.00230655,0.00381506,-0.00162763,1.0651,0.00322582,0.0310602,1973,1100,61.5627,-6.83618
756,-76,61.6245,6.44971,-9.56158e-07,0.00372059,0.00236724,0.00487085,-0.00115121,1.11849,0.0036913,0.0179434,1980,1100,61.6246,-6.44974
763,-76,61.5737,6.00525,0.000685325,0.00444934,0.00181852,0.00518439,-4.97189e-05,1.18668,0.00347295,0.0188588,1987,1100,61.5738,-6.00525
770,-76,61.4905,5.60095,0.00217683,0.0052238,0.000946959,0.00549412,0.00190651,1.29273,0.00322115,0.0194174,1994,1100,61.4905,-5.60091
777,-76,61.3718,5.29578,0.00411334,0.00528407,-5.56909e-05,0.00528672,0.00411069,-1.52337,0.00320521,0.0235237,2001,1100,61.3717,-5.29574
784,-76,61.4412,4.75879,0.00616643,0.00439753,-0.00125906,0.00682065,0.00374332,-0.479207,0.00394416,0.0354081,2008,1100,61.4411,-4.7588
791,-76,61.7222,4.15991,0,0,0,0,0,0,0,-1,2015,1100,61.7222,-4.1599
798,-76,61.0537,2.96008,0.0101828,-0.00201535,-0.00480655,0.0118492,-0.00368168,-0.333714,0.00937093,0.0444889,2022,1100,61.0537,-2.96007
805,-76,61.0901,2.58398,0.0112699,-0.0085943,-0.00758442,0.0138346,-0.011159,-0.326083,0.0144576,0.0448462,2029,1100,61.0901,-2.58396
812,-76,60.9775,1.46704,0.0101556,-0.0182295,-0.0113888,0.0141602,-0.022234,-0.338117,0.0211838,0.0455526,2036,1100,60.9774,-1.467
-700,-83,0,0,0,0,0,0,0,0,0,-1,524,1107,0,0
-693,-83,-46.7559,-1.92065,0,0,0,0,0,0,0,-1,531,1107,-46.7559,1.92065
-686,-83,-47.5592,-1.86145,0,0,0,0,0,0,0,-1,538,1107,-47.5592,1.86147
-679,-83,-47.1963,-1.18628,0,0,0,0,0,0,0,-1,545,1107,-47.1963,1.18628
-672,-83,-46.6278,-0.389282,0,0,0,0,0,0,0,-1,552,1107,-46.6278,0.389286
-665,-83,-46.3483,0.483887,0.0399083,0.0184015,0.0386336,0.0692572,-0.0109474,0.649662,0.0502199,0.0424051,559,1107,-46.3483,-0.483888
-658,-83,-46.1907,0.931763,0.0326905,0.0166916,0.0318304,0.0575113,-0.00812914,0.66229,0.041318,0.0434996,566,1107,-46.1907,-0.931717
-651,-83,-45.7531,1.83447,0,0,0,0,0,0,0,-1,573,1107,-45.7531,-1.83448
-644,-83,-45.3956,2.69885,0,0,0,0,0,0,0,-1,580,1107,-45.3955,-2.69883
-637,-83,-45.7172,3.15967,0.0138879,0.00895355,0.0129831,0.0246362,-0.0017947,0.691502,0.0170539,0.0130384,587,1107,-45.7172,-3.15961
-630,-83,-45.7535,3.64233,0.0091187,0.00595113,0.00748766,0.0151882,-0.000118409,0.681175,0.0101652,0.0167688,594,1107,-45.7536,-3.64237
-623,-83,-45.8001,4.08069,0.00524325,0.00338399,0.00341199,0.00784999,0.000777253,0.652397,0.00499444,0.0199486,601,1107,-45.8001,-4.08065
-616,-83,-45.9051,4.57751,0.0033954,0.00117432,0.000473856,0.00349227,0.00107745,0.201651,0.00206495,0.0172302,608,1107,-45.9051,-4.5775
-609,-83,-45.879,5.01807,0.00298463,-0.000499413,-0.000896603,0.00320183,-0.00071661,-0.237666,0.00240921,0.0215393,615,1107,-45.879,-5.01812
-602,-83,-45.8632,5.50928,0.00244351,-0.00151561,-0.00120777,0.00278287,-0.00185497,-0.273914,0.00269546,0.0203129,622,1107,-45.8632,-5.50932
-595,-83,-45.7844,5.95361,0.00227481,-0.00200523,-0.00108239,0.00253297,-0.00226338,-0.234133,0.00277063,0.0287875,629,1107,-45.7844,-5.95367
-588,-83,-45.8233,6.28088,0,0,0,0,0,0,0,-1,636,1107,-45.8233,-6.28094
-581,-83,-48.9559,0.773071,0,0,0,0,0,0,0,-1,643,1107,-48.9559,-0.773111
-574,-83,-48.995,0.7052,0.00345063,-0.00275913,-0.000391554,0.00347522,-0.00278372,-0.0627235,0.00362095,0.0349782,650,1107,-48.995,-0.70526
-567,-83,-48.9449,0.847656,0.00370918,-0.00275441,-5.66476e-05,0.00370968,-0.00275491,-0.00876321,0.00374587,0.0408651,657,1107,-48.9449,-0.84766
-560,-83,-48.8336,1.04871,0.00380225,-0.00253881,0.0003049,0.00381687,-0.00255344,0.047936,0.00370193,0.0417262,664,1107,-48.8336,-1.0487
-553,-83,-48.8218,0.813843,0.00356924,-0.00211917,0.000626847,0.0036375,-0.00218743,0.108463,0.00339758,0.0455935,671,1107,-48.8218,-0.813895
-546,-83,-49.0027,1.12207,0.00370713,-0.00164652,0.000887488,0.00385041,-0.00178981,0.16007,0.00332804,0.0430294,678,1107,-49.0028,-1.12209
-539,-83,-48.9498,0.932373,0.00520894,-0.00154077,0.000650583,0.00527108,-0.00160291,0.0952187,0.00415278,0.0410092,685,1107,-48.9499,-0.932321
-532,-83,-48.7383,0.79541,0.00685853,-0.00139583,4.27963e-05,0.00685875,-0.00139605,0.0051845,0.00510192,0.0426141,692,1107,-48.7383,-0.795415
-525,-83,0,0,0,0,0,0,0,0,0,-1,699,1107,0,0
-518,-83,0,0,0,0,0,0,0,0,0,-1,706,1107,0,0
-511,-83,0,0,0,0,0,0,0,0,0,-1,713,1107,0,0
-504,-83,0,0,0,0,0,0,0,0,0,-1,720,1107,0,0
-497,-83,0,0,0,0,0,0,0,0,0,-1,727,1107,0,0
-490,-83,0,0,0,0,0,0,0,0,0,-1,734,1107,0,0
-483,-83,0,0,0,0,0,0,0,0,0,-1,741,1107,0,0
-476,-83,0,0,0,0,0,0,0,0,0,-1,748,1107,0,0
-469,-83,0,0,0,0,0,0,0,0,0,-1,755,1107,0,0
-462,-83,0,0,0,0,0,0,0,0,0,-1,762,1107,0,0
-455,-83,0,0,0,0,0,0,0,0,0,-1,769,1107,0,0
-448,-83,0,0,0,0,0,0,0,0,0,-1,776,1107,0,0
-441,-83,0,0,0,0,0,0,0,0,0,-1,783,1107,0,0
-434,-83,0,0,0,0,0,0,0,0,0,-1,790,1107,0,0
-427,-83,0,0,0,0,0,0,0,0,0,-1,797,1107,0,0
-420,-83,0,0,0,0,0,0,0,0,0,-1,804,1107,0,0
-413,-83,0,0,0,0,0,0,0,0,0,-1,811,1107,0,0
-406,-83,0,0,0,0,0,0,0,0,0,-1,818,1107,0,0
-399,-83,0,0,0,0,0,0,0,0,0,-1,825,1107,0,0
-392,-83,0,0,0,0,0,0,0,0,0,-1,832,1107,0,0
-385,-83,0,0,0,0,0,0,0,0,0,-1,839,1107,0,0
-378,-83,0,0,0,0,0,0,0,0,0,-1,846,1107,0,0
-371,-83,0,0,0,0,0,0,0,0,0,-1,853,1107,0,0
-364,-83,0,0,0,0,0,0,0,0,0,-1,860,1107,0,0
-357,-83,0,0,0,0,0,0,0,0,0,-1,867,1107,0,0
-350,-83,0,0,0,0,0,0,0,0,0,-1,874,1107,0,0
-343,-83,0,0,0,0,0,0,0,0,0,-1,881,1107,0,0
-336,-83,0,0,0,0,0,0,0,0,0,-1,888,1107,0,0
-329,-83,0,0,0,0,0,0,0,0,0,-1,895,1107,0,0
-322,-83,0,0,0,0,0,0,0,0,0,-1,902,1107,0,0
-315,-83,0,0,0,0,0,0,0,0,0,-1,909,1107,0,0
-308,-83,0,0,0,0,0,0,0,0,0,-1,916,1107,0,0
-301,-83,0,0,0,0,0,0,0,0,0,-1,923,1107,0,0
-294,-83,0,0,0,0,0,0,0,0,0,-1,930,1107,0,0
-287,-83,0,0,0,0,0,0,0,0,0,-1,937,1107,0,0
-280,-83,0,0,0,0,0,0,0,0,0,-1,944,1107,0,0
-273,-83,0,0,0,0,0,0,0,0,0,-1,951,1107,0,0
-266,-83,0,0,0,0,0,0,0,0,0,-1,958,1107,0,0
-259,-83,0,0,0,0,0,0,0,0,0,-1,965,1107,0,0
-252,-83,0,0,0,0,0,0,0,0,0,-1,972,1107,0,0
-245,-83,0,0,0,0,0,0,0,0,0,-1,979,1107,0,0
-238,-83,0,0,0,0,0,0,0,0,0,-1,986,1107,0,0
-231,-83,0,0,0,0,0,0,0,0,0,-1,993,1107,0,0
-224,-83,0,0,0,0,0,0,0,0,0,-1,1000,1107,0,0
-217,-83,0,0,0,0,0,0,0,0,0,-1,1007,1107,0,0
-210,-83,0,0,0,0,0,0,0,0,0,-1,1014,1107,0,0
-203,-83,0,0,0,0,0,0,0,0,0,-1,1021,1107,0,0
-196,-83,0,0,0,0,0,0,0,0,0,-1,1028,1107,0,0
-189,-83,0,0,0,0,0,0,0,0,0,-1,1035,1107,0,0
-182,-83,0,0,0,0,0,0,0,0,0,-1,1042,1107,0,0
-175,-83,0,0,0,0,0,0,0,0,0,-1,1049,1107,0,0
-168,-83,0,0,0,0,0,0,0,0,0,-1,1056,1107,0,0
-161,-83,0,0,0,0,0,0,0,0,0,-1,1063,1107,0,0
-154,-83,0,0,0,0,0,0,0,0,0,-1,1070,1107,0,0
-147,-83,0,0,0,0,0,0,0,0,0,-1,1077,1107,0,0
-140,-83,0,0,0,0,0,0,0,0,0,-1,1084,1107,0,0
-133,-83,0,0,0,0,0,0,0,0,0,-1,1091,1107,0,0
-126,-83,0,0,0,0,0,0,0,0,0,-1,1098,1107,0,0
-119,-83,0,0,0,0,0,0,0,0,0,-1,1105,1107,0,0
-112,-83,0,0,0,0,0,0,0,0,0,-1,1112,1107,0,0
-105,-83,0,0,0,0,0,0,0,0,0,-1,1119,1107,0,0
-98,-83,0,0,0,0,0,0,0,0,0,-1,1126,1107,0,0
-91,-83,0,0,0,0,0,0,0,0,0,-1,1133,1107,0,0
-84,-83,0,0,0,0,0,0,0,0,0,-1,1140,1107,0,0
-77,-83,0,0,0,0,0,0,0,0,0,-1,1147,1107,0,0
-70,-83,0,0,0,0,0,0,0,0,0,-1,1154,1107,0,0
-63,-83,0,0,0,0,0,0,0,0,0,-1,1161,1107,0,0
-56,-83,0,0,0,0,0,0,0,0,0,-1,1168,1107,0,0
-49,-83,0,0,0,0,0,0,0,0,0,-1,1175,1107,0,0
-42,-83,0,0,0,0,0,0,0,0,0,-1,1182,1107,0,0
-35,-83,0,0,0,0,0,0,0,0,0,-1,1189,1107,0,0
-28,-83,0,0,0,0,0,0,0,0,0,-1,1196,1107,0,0
-21,-83,0,0,0,0,0,0,0,0,0,-1,1203,1107,0,0
-14,-83,0,0,0,0,0,0,0,0,0,-1,1210,1107,0,0
-7,-83,0,0,0,0,0,0,0,0,0,-1,1217,1107,0,0
0,-83,0,0,0,0,0,0,0,0,0,-1,1224,1107,0,0
7,-83,0,0,0,0,0,0,0,0,0,-1,1231,1107,0,0
14,-83,0,0,0,0,0,0,0,0,0,-1,1238,1107,0,0
21,-83,0,0,0,0,0,0,0,0,0,-1,1245,1107,0,0
28,-83,0,0,0,0,0,0,0,0,0,-1,1252,1107,0,0
35,-83,0,0,0,0,0,0,0,0,0,-1,1259,1107,0,0
42,-83,0,0,0,0,0,0,0,0,0,-1,1266,1107,0,0
49,-83,0,0,0,0,0,0,0,0,0,-1,1273,1107,0,0
56,-83,0,0,0,0,0,0,0,0,0,-1,1280,1107,0,0
63,-83,0,0,0,0,0,0,0,0,0,-1,1287,1107,0,0
70,-83,0,0,0,0,0,0,0,0,0,-1,1294,1107,0,0
77,-83,0,0,0,0,0,0,0,0,0,-1,1301,1107,0,0
84,-83,0,0,0,0,0,0,0,0,0,-1,1308,1107,0,0
91,-83,0,0,0,0,0,0,0,0,0,-1,1315,1107,0,0
98,-83,0,0,0,0,0,0,0,0,0,-1,1322,1107,0,0
105,-83,0,0,0,0,0,0,0,0,0,-1,1329,1107,0,0
112,-83,0,0,0,0,0,0,0,0,0,-1,1336,1107,0,0
119,-83,0,0,0,0,0,0,0,0,0,-1,1343,1107,0,0
126,-83,0,0,0,0,0,0,0,0,0,-1,1350,1107,0,0
133,-83,0,0,0,0,0,0,0,0,0,-1,1357,1107,0,0
140,-83,0,0,0,0,0,0,0,0,0,-1,1364,1107,0,0
147,-83,0,0,0,0,0,0,0,0,0,-1,1371,1107,0,0
154,-83,0,0,0,0,0,0,0,0,0,-1,1378,1107,0,0
161,-83,0,0,0,0,0,0,0,0,0,-1,1385,1107,0,0
168,-83,0,0,0,0,0,0,0,0,0,-1,1392,1107,0,0
175,-83,0,0,0,0,0,0,0,0,0,-1,1399,1107,0,0
182,-83,0,0,0,0,0,0,0,0,0,-1,1406,1107,0,0
189,-83,0,0,0,0,0,0,0,0,0,-1,1413,1107,0,0
196,-83,0,0,0,0,0,0,0,0,0,-1,1420,1107,0,0
203,-83,0,0,0,0,0,0,0,0,0,-1,1427,1107,0,0
210,-83,0,0,0,0,0,0,0,0,0,-1,1434,1107,0,0
217,-83,0,0,0,0,0,0,0,0,0,-1,1441,1107,0,0
224,-83,0,0,0,0,0,0,0,0,0,-1,1448,1107,0,0
231,-83,0,0,0,0,0,0,0,0,0,-1,1455,1107,0,0
238,-83,0,0,0,0,0,0,0,0,0,-1,1462,1107,0,0
245,-83,0,0,0,0,0,0,0,0,0,-1,1469,1107,0,0
252,-83,0,0,0,0,0,0,0,0,0,-1,1476,1107,0,0
259,-83,0,0,0,0,0,0,0,0,0,-1,1483,1107,0,0
266,-83,0,0,0,0,0,0,0,0,0,-1,1490,1107,0,0
273,-83,0,0,0,0,0,0,0,0,0,-1,1497,1107,0,0
280,-83,0,0,0,0,0,0,0,0,0,-1,1504,1107,0,0
287,-83,0,0,0,0,0,0,0,0,0,-1,1511,1107,0,0
294,-83,0,0,0,0,0,0,0,0,0,-1,1518,1107,0,0
301,-83,0,0,0,0,0,0,0,0,0,-1,1525,1107,0,0
308,-83,0,0,0,0,0,0,0,0,0,-1,1532,1107,0,0
315,-83,0,0,0,0,0,0,0,0,0,-1,1539,1107,0,0
322,-83,0,0,0,0,0,0,0,0,0,-1,1546,1107,0,0
329,-83,0,0,0,0,0,0,0,0,0,-1,1553,1107,0,0
336,-83,0,0,0,0,0,0,0,0,0,-1,1560,1107,0,0
343,-83,0,0,0,0,0,0,0,0,0,-1,1567,1107,0,0
350,-83,0,0,0,0,0,0,0,0,0,-1,1574,1107,0,0
357,-83,0,0,0,0,0,0,0,0,0,-1,1581,1107,0,0
364,-83,0,0,0,0,0,0,0,0,0,-1,1588,1107,0,0
371,-83,0,0,0,0,0,0,0,0,0,-1,1595,1107,0,0
378,-83,0,0,0,0,0,0,0,0,0,-1,1602,1107,0,0
385,-83,0,0,0,0,0,0,0,0,0,-1,1609,1107,0,0
392,-83,0,0,0,0,0,0,0,0,0,-1,1616,1107,0,0
399,-83,0,0,0,0,0,0,0,0,0,-1,1623,1107,0,0
406,-83,0,0,0,0,0,0,0,0,0,-1,1630,1107,0,0
413,-83,0,0,0,0,0,0,0,0,0,-1,1637,1107,0,0
420,-83,0,0,0,0,0,0,0,0,0,-1,1644,1107,0,0
427,-83,0,0,0,0,0,0,0,0,0,-1,1651,1107,0,0
434,-83,0,0,0,0,0,0,0,0,0,-1,1658,1107,0,0
441,-83,0,0,0,0,0,0,0,0,0,-1,1665,1107,0,0
448,-83,0,0,0,0,0,0,0,0,0,-1,1672,1107,0,0
455,-83,0,0,0,0,0,0,0,0,0,-1,1679,1107,0,0
462,-83,0,0,0,0,0,0,0,0,0,-1,1686,1107,0,0
469,-83,0,0,0,0,0,0,0,0,0,-1,1693,1107,0,0
476,-83,0,0,0,0,0,0,0,0,0,-1,1700,1107,0,0
483,-83,0,0,0,0,0,0,0,0,0,-1,1707,1107,0,0
490,-83,0,0,0,0,0,0,0,0,0,-1,1714,1107,0,0
497,-83,0,0,0,0,0,0,0,0,0,-1,1721,1107,0,0
504,-83,0,0,0,0,0,0,0,0,0,-1,1728,1107,0,0
511,-83,0,0,0,0,0,0,0,0,0,-1,1735,1107,0,0
518,-83,0,0,0,0,0,0,0,0,0,-1,1742,1107,0,0
525,-83,0,0,0,0,0,0,0,0,0,-1,1749,1107,0,0
532,-83,0,0,0,0,0,0,0,0,0,-1,1756,1107,0,0
539,-83,0,0,0,0,0,0,0,0,0,-1,1763,1107,0,0
546,-83,0,0,0,0,0,0,0,0,0,-1,1770,1107,0,0
553,-83,0,0,0,0,0,0,0,0,0,-1,1777,1107,0,0
560,-83,0,0,0,0,0,0,0,0,0,-1,1784,1107,0,0
567,-83,0,0,0,0,0,0,0,0,0,-1,1791,1107,0,0
574,-83,0,0,0,0,0,0,0,0,0,-1,1798,1107,0,0
581,-83,0,0,0,0,0,0,0,0,0,-1,1805,1107,0,0
588,-83,0,0,0,0,0,0,0,0,0,-1,1812,1107,0,0
595,-83,0,0,0,0,0,0,0,0,0,-1,1819,1107,0,0
602,-83,0,0,0,0,0,0,0,0,0,-1,1826,1107,0,0
609,-83,0,0,0,0,0,0,0,0,0,-1,1833,1107,0,0
616,-83,0,0,0,0,0,0,0,0,0,-1,1840,1107,0,0
623,-83,0,0,0,0,0,0,0,0,0,-1,1847,1107,0,0
630,-83,0,0,0,0,0,0,0,0,0,-1,1854,1107,0,0
637,-83,0,0,0,0,0,0,0,0,0,-1,1861,1107,0,0
644,-83,64.8448,2.54468,0.00325691,-0.00325922,0.00791186,0.00855527,-0.00855759,0.590082,0.00988011,0.0368359,1868,1107,64.8448,-2.54467
651,-83,64.8667,2.49695,0.00205341,-0.00249396,0.00634073,0.00651579,-0.00695634,0.613247,0.00777952,0.0421962,1875,1107,64.8667,-2.49696
658,-83,64.7736,2.63147,0.00145054,-0.00196405,0.00474403,0.00478514,-0.00529865,0.612672,0.00582439,0.0457342,1882,1107,64.7736,-2.63144
665,-83,64.6499,2.72412,0.000972626,-0.00150002,0.00333515,0.00329323,-0.00382062,0.607902,0.00411095,0.0404456,1889,1107,64.6499,-2.7241
672,-83,64.6421,2.79065,0.000628214,-0.00106924,0.00208318,0.00202893,-0.00246995,0.591956,0.00260159,0.0350167,1896,1107,64.6421,-2.79068
679,-83,64.6724,2.83203,0.000313821,-0.000759807,0.00101557,0.000925728,-0.00137171,0.542273,0.00133473,0.0365788,1903,1107,64.6724,-2.832
686,-83,64.7766,2.69019,0.000288078,-0.000822535,0.000527555,0.000498722,-0.00103318,0.379888,0.000902208,0.0356254,1910,1107,64.7766,-2.6902
693,-83,64.8046,2.64111,0.000413378,-0.000973442,0.00037268,0.000507183,-0.00106725,0.246582,0.00092797,0.0367879,1917,1107,64.8045,-2.64114
700,-83,64.7977,2.70178,0.000519591,-0.00104676,0.000403403,0.000617379,-0.00114455,0.237821,0.00103232,0.0342963,1924,1107,64.7977,-2.70173
707,-83,64.7522,2.60254,0.000371265,-0.000934401,0.000536848,0.000563652,-0.00112679,0.344107,0.000993864,0.0252908,1931,1107,64.7522,-2.60254
714,-83,64.7595,2.51489,0,0,0,0,0,0,0,-1,1938,1107,64.7595,-2.51491
721,-83,49.1162,7.36719,0,0,0,0,0,0,0,-1,1945,1107,49.1162,-7.36721
728,-83,60.7433,8.13196,0,0,0,0,0,0,0,-1,1952,1107,60.7433,-8.13197
735,-83,60.9067,7.73804,-0.000542699,0.000621876,0.001448,0.00160028,-0.00152111,0.976569,0.00180233,0.0471857,1959,1107,60.9067,-7.73804
742,-83,61.0807,7.31323,-0.000362217,0.00147835,0.00168852,0.0024811,-0.00136496,1.03491,0.00225147,0.0281762,1966,1107,61.0807,-7.31325
749,-83,61.1924,6.8584,-7.60491e-05,0.00214252,0.00209845,0.00340684,-0.00134037,1.02854,0.00282604,0.0191906,1973,1107,61.1924,-6.85839
756,-83,61.1913,6.41687,0.0001492,0.0032245,0.00234599,0.00449186,-0.00111816,1.07549,0.00342861,0.0178172,1980,1107,61.1913,-6.4169
763,-83,61.1282,5.9679,0.000653073,0.00380376,0.00209868,0.00485257,-0.000395736,1.10735,0.0033747,0.0140642,1987,1107,61.1282,-5.96789
770,-83,61.0361,5.56506,0.00179368,0.00433389,0.00169426,0.00518126,0.000946311,1.10704,0.00318593,0.0165844,1994,1107,61.0361,-5.56511
777,-83,60.9207,5.12988,0.00321405,0.00414751,0.00134569,0.00510512,0.00225644,0.952324,0.00295404,0.0180619,2001,1107,60.9206,-5.12985
784,-83,60.8594,4.67334,0.004636,0.00304886,0.000972132,0.00509734,0.00258752,0.443091,0.00294306,0.0283623,2008,1107,60.8595,-4.67337
791,-83,60.6587,4.19055,0,0,0,0,0,0,0,-1,2015,1107,60.6587,-4.19053
798,-83,60.4609,3.20789,0.00690786,-0.00345896,-0.000149449,0.00691002,-0.00346111,-0.0144121,0.00609714,0.0454283,2022,1107,60.4611,-3.20783
805,-83,60.4741,2.61633,0.00688322,-0.00979589,-0.00110475,0.00695607,-0.00986874,-0.065852,0.00976221,0.0459098,2029,1107,60.4742,-2.61636
812,-83,60.6951,1.93604,0.00463138,-0.0188961,-0.00246501,0.00488687,-0.0191516,-0.103277,0.0146706,0.0462793,2036,1107,60.695,-1.93602
-700,-90,0,0,0,0,0,0,0,0,0,-1,524,1114,0,0
-693,-90,-46.4633,-1.54834,0.0398315,0.00481464,0.0507522,0.0760104,-0.0313643,0.619301,0.063754,0.0473523,531,1114,-46.4633,1.54831
-686,-90,-46.561,-1.00232,0.047144,0.0122494,0.0532815,0.0857621,-0.0263687,0.627173,0.0676983,0.0424077,538,1114,-46.561,1.00235
-679,-90,-46.72,-0.697388,0.0466268,0.0154667,0.0501253,0.0835376,-0.021444,0.63472,0.0640477,0.0432228,545,1114,-46.72,0.697447
-672,-90,-45.9056,-1.10291,0,0,0,0,0,0,0,-1,552,1114,-45.9056,1.10289
-665,-90,-46.0474,-0.21228,0.0370942,0.0160422,0.0379434,0.0659446,-0.0128081,0.650094,0.048796,0.0466491,559,1114,-46.0474,0.212264
-658,-90,-45.9073,0.80127,0.030502,0.0147312,0.0310432,0.0546457,-0.00941245,0.661022,0.0399394,0.0474036,566,1114,-45.9074,-0.801264
-651,-90,-45.1973,1.80334,0,0,0,0,0,0,0,-1,573,1114,-45.1973,-1.80337
-644,-90,-45.1399,2.52173,0.0179955,0.0103862,0.0180252,0.0326132,-0.0042315,0.681388,0.0232812,0.0179883,580,1114,-45.1399,-2.52172
-637,-90,-45.2003,3.13232,0.0128086,0.00796257,0.0122551,0.0228779,-0.00210675,0.687799,0.0160005,0.0142532,587,1114,-45.2003,-3.13238
-630,-90,-45.2441,3.63123,0.0082411,0.00526479,0.00688073,0.0137928,-0.000286867,0.678899,0.00929227,0.0125417,594,1114,-45.2441,-3.6312
-623,-90,-45.2675,4.13721,0.00446509,0.00284551,0.00285355,0.00662153,0.000689072,0.647141,0.00420353,0.0130647,601,1114,-45.2674,-4.13725
-616,-90,-45.3239,4.64758,0.00273925,0.000724906,0.000187497,0.00275655,0.000707602,0.0920276,0.00165311,0.0151762,608,1114,-45.3238,-4.6476
-609,-90,-45.3088,5.12024,0.00239375,-0.000780467,-0.000704795,0.00254321,-0.000929921,-0.208958,0.00207607,0.0229449,615,1114,-45.3088,-5.12023
-602,-90,-45.41,5.56897,0.00192206,-0.00170844,-0.000731493,0.0020639,-0.00185029,-0.191532,0.00226098,0.0239594,622,1114,-45.41,-5.56902
-595,-90,-45.2625,6.16553,0.0016962,-0.00212386,-0.000564496,0.00177787,-0.00220553,-0.143681,0.00230423,0.0223766,629,1114,-45.2625,-6.16555
-588,-90,-45.305,6.59827,0,0,0,0,0,0,0,-1,636,1114,-45.305,-6.59823
-581,-90,-48.9797,0.914673,0,0,0,0,0,0,0,-1,643,1114,-48.9797,-0.914685
-574,-90,-48.9678,0.84729,0.00278912,-0.00276161,-2.20802e-05,0.00278921,-0.0027617,-0.0039778,0.00320483,0.0379581,650,1114,-48.9678,-0.847337
-567,-90,-48.9799,0.817505,0.00311093,-0.00275313,0.000211075,0.00311852,-0.00276072,0.0359326,0.00339648,0.0341371,657,1114,-48.9799,-0.817474
-560,-90,-49.0084,0.958008,0.00328866,-0.00253932,0.000419612,0.00331872,-0.00256938,0.0715079,0.00340866,0.0376495,664,1114,-49.0084,-0.95804
-553,-90,-48.959,0.937866,0.00304851,-0.00209482,0.000460611,0.00308943,-0.00213575,0.0886154,0.00303346,0.0412244,671,1114,-48.9591,-0.93783
-546,-90,-48.9955,1.09937,0.00313617,-0.00155971,0.000344395,0.00316129,-0.00158484,0.0728204,0.00279011,0.0414223,678,1114,-48.9955,-1.09937
-539,-90,-48.9745,0.935303,0.0046021,-0.00133731,-0.000362528,0.00462415,-0.00135936,-0.0607371,0.00362194,0.0405448,685,1114,-48.9745,-0.935249
-532,-90,-48.8272,0.720459,0.00627563,-0.00115399,-0.0014225,0.00653868,-0.00141704,-0.182851,0.00490024,0.041654,692,1114,-48.8272,-0.720511
-525,-90,0,0,0,0,0,0,0,0,0,-1,699,1114,0,0
-518,-90,0,0,0,0,0,0,0,0,0,-1,706,1114,0,0
-511,-90,0,0,0,0,0,0,0,0,0,-1,713,1114,0,0
-504,-90,0,0,0,0,0,0,0,0,0,-1,720,1114,0,0
-497,-90,0,0,0,0,0,0,0,0,0,-1,727,1114,0,0
-490,-90,0,0,0,0,0,0,0,0,0,-1,734,1114,0,0
-483,-90,0,0,0,0,0,0,0,0,0,-1,741,1114,0,0
-476,-90,0,0,0,0,0,0,0,0,0,-1,748,1114,0,0
-469,-90,0,0,0,0,0,0,0,0,0,-1,755,1114,0,0
-462,-90,0,0,0,0,0,0,0,0,0,-1,762,1114,0,0
-455,-90,0,0,0,0,0,0,0,0,0,-1,769,1114,0,0
-448,-90,0,0,0,0,0,0,0,0,0,-1,776,1114,0,0
-441,-90,0,0,0,0,0,0,0,0,0,-1,783,1114,0,0
-434,-90,0,0,0,0,0,0,0,0,0,-1,790,1114,0,0
-427,-90,0,0,0,0,0,0,0,0,0,-1,797,1114,0,0
-420,-90,0,0,0,0,0,0,0,0,0,-1,804,1114,0,0
-413,-90,0,0,0,0,0,0,0,0,0,-1,811,1114,0,0
-406,-90,0,0,0,0,0,0,0,0,0,-1,818,1114,0,0
-399,-90,0,0,0,0,0,0,0,0,0,-1,825,1114,0,0
-392,-90,0,0,0,0,0,0,0,0,0,-1,832,1114,0,0
-385,-90,0,0,0,0,0,0,0,0,0,-1,839,1114,0,0
-378,-90,0,0,0,0,0,0,0,0,0,-1,846,1114,0,0
-371,-90,0,0,0,0,0,0,0,0,0,-1,853,1114,0,0
-364,-90,0,0,0,0,0,0,0,0,0,-1,860,1114,0,0
-357,-90,0,0,0,0,0,0,0,0,0,-1,867,1114,0,0
-350,-90,0,0,0,0,0,0,0,0,0,-1,874,1114,0,0
-343,-90,0,0,0,0,0,0,0,0,0,-1,881,1114,0,0
-336,-90,0,0,0,0,0,0,0,0,0,-1,888,1114,0,0
-329,-90,0,0,0,0,0,0,0,0,0,-1,895,1114,0,0
-322,-90,0,0,0,0,0,0,0,0,0,-1,902,1114,0,0
-315,-90,0,0,0,0,0,0,0,0,0,-1,909,1114,0,0
-308,-90,0,0,0,0,0,0,0,0,0,-1,916,1114,0,0
-301,-90,0,0,0,0,0,0,0,0,0,-1,923,1114,0,0
-294,-90,0,0,0,0,0,0,0,0,0,-1,930,1114,0,0
-287,-90,0,0,0,0,0,0,0,0,0,-1,937,1114,0,0
-280,-90,0,0,0,0,0,0,0,0,0,-1,944,1114,0,0
-273,-90,0,0,0,0,0,0,0,0,0,-1,951,1114,0,0
-266,-90,0,0,0,0,0,0,0,0,0,-1,958,1114,0,0
-259,-90,0,0,0,0,0,0,0,0,0,-1,965,1114,0,0
-252,-90,0,0,0,0,0,0,0,0,0,-1,972,1114,0,0
-245,-90,0,0,0,0,0,0,0,0,0,-1,979,1114,0,0
-238,-90,0,0,0,0,0,0,0,0,0,-1,986,1114,0,0
-231,-90,0,0,0,0,0,0,0,0,0,-1,993,1114,0,0
-224,-90,0,0,0,0,0,0,0,0,0,-1,1000,1114,0,0
-217,-90,0,0,0,0,0,0,0,0,0,-1,1007,1114,0,0
-210,-90,0,0,0,0,0,0,0,0,0,-1,1014,1114,0,0
-203,-90,0,0,0,0,0,0,0,0,0,-1,1021,1114,0,0
-196,-90,0,0,0,0,0,0,0,0,0,-1,1028,1114,0,0
-189,-90,0,0,0,0,0,0,0,0,0,-1,1035,1114,0,0
-182,-90,0,0,0,0,0,0,0,0,0,-1,1042,1114,0,0
-175,-90,0,0,0,0,0,0,0,0,0,-1,1049,1114,0,0
-168,-90,0,0,0,0,0,0,0,0,0,-1,1056,1114,0,0
-161,-90,0,0,0,0,0,0,0,0,0,-1,1063,1114,0,0
-154,-90,0,0,0,0,0,0,0,0,0,-1,1070,1114,0,0
-147,-90,0,0,0,0,0,0,0,0,0,-1,1077,1114,0,0
-140,-90,0,0,0,0,0,0,0,0,0,-1,1084,1114,0,0
-133,-90,0,0,0,0,0,0,0,0,0,-1,1091,1114,0,0
-126,-90,0,0,0,0,0,0,0,0,0,-1,1098,1114,0,0
-119,-90,0,0,0,0,0,0,0,0,0,-1,1105,1114,0,0
-112,-90,0,0,0,0,0,0,0,0,0,-1,1112,1114,0,0
-105,-90,0,0,0,0,0,0,0,0,0,-1,1119,1114,0,0
-98,-90,0,0,0,0,0,0,0,0,0,-1,1126,1114,0,0
-91,-90,0,0,0,0,0,0,0,0,0,-1,1133,1114,0,0
-84,-90,0,0,0,0,0,0,0,0,0,-1,1140,1114,0,0
-77,-90,0,0,0,0,0,0,0,0,0,-1,1147,1114,0,0
-70,-90,0,0,0,0,0,0,0,0,0,-1,1154,1114,0,0
-63,-90,0,0,0,0,0,0,0,0,0,-1,1161,1114,0,0
-56,-90,0,0,0,0,0,0,0,0,0,-1,1168,1114,0,0
-49,-90,0,0,0,0,0,0,0,0,0,-1,1175,1114,0,0
-42,-90,0,0,0,0,0,0,0,0,0,-1,1182,1114,0,0
-35,-90,0,0,0,0,0,0,0,0,0,-1,1189,1114,0,0
-28,-90,0,0,0,0,0,0,0,0,0,-1,1196,1114,0,0
-21,-90,0,0,0,0,0,0,0,0,0,-1,1203,1114,0,0
-14,-90,0,0,0,0,0,0,0,0,0,-1,1210,1114,0,0
-7,-90,0,0,0,0,0,0,0,0,0,-1,1217,1114,0,0
0,-90,0,0,0,0,0,0,0,0,0,-1,1224,1114,0,0
7,-90,0,0,0,0,0,0,0,0,0,-1,1231,1114,0,0
14,-90,0,0,0,0,0,0,0,0,0,-1,1238,1114,0,0
21,-90,0,0,0,0,0,0,0,0,0,-1,1245,1114,0,0
28,-90,0,0,0,0,0,0,0,0,0,-1,1252,1114,0,0
35,-90,0,0,0,0,0,0,0,0,0,-1,1259,1114,0,0
42,-90,0,0,0,0,0,0,0,0,0,-1,1266,1114,0,0
49,-90,0,0,0,0,0,0,0,0,0,-1,1273,1114,0,0
56,-90,0,0,0,0,0,0,0,0,0,-1,1280,1114,0,0
63,-90,0,0,0,0,0,0,0,0,0,-1,1287,1114,0,0
70,-90,0,0,0,0,0,0,0,0,0,-1,1294,1114,0,0
77,-90,0,0,0,0,0,0,0,0,0,-1,1301,1114,0,0
84,-90,0,0,0,0,0,0,0,0,0,-1,1308,1114,0,0
91,-90,0,0,0,0,0,0,0,0,0,-1,1315,1114,0,0
98,-90,0,0,0,0,0,0,0,0,0,-1,1322,1114,0,0
105,-90,0,0,0,0,0,0,0,0,0,-1,1329,1114,0,0
112,-90,0,0,0,0,0,0,0,0,0,-1,1336,1114,0,0
119,-90,0,0,0,0,0,0,0,0,0,-1,1343,1114,0,0
126,-90,0,0,0,0,0,0,0,0,0,-1,1350,1114,0,0
133,-90,0,0,0,0,0,0,0,0,0,-1,1357,1114,0,0
140,-90,0,0,0,0,0,0,0,0,0,-1,1364,1114,0,0
147,-90,0,0,0,0,0,0,0,0,0,-1,1371,1114,0,0
154,-90,0,0,0,0,0,0,0,0,0,-1,1378,1114,0,0
161,-90,0,0,0,0,0,0,0,0,0,-1,1385,1114,0,0
168,-90,0,0,0,0,0,0,0,0,0,-1,1392,1114,0,0
175,-90,0,0,0,0,0,0,0,0,0,-1,1399,1114,0,0
182,-90,0,0,0,0,0,0,0,0,0,-1,1406,1114,0,0
189,-90,0,0,0,0,0,0,0,0,0,-1,1413,1114,0,0
196,-90,0,0,0,0,0,0,0,0,0,-1,1420,1114,0,0
203,-90,0,0,0,0,0,0,0,0,0,-1,1427,1114,0,0
210,-90,0,0,0,0,0,0,0,0,0,-1,1434,1114,0,0
217,-90,0,0,0,0,0,0,0,0,0,-1,1441,1114,0,0
224,-90,0,0,0,0,0,0,0,0,0,-1,1448,1114,0,0
231,-90,0,0,0,0,0,0,0,0,0,-1,1455,1114,0,0
238,-90,0,0,0,0,0,0,0,0,0,-1,1462,1114,0,0
245,-90,0,0,0,0,0,0,0,0,0,-1,1469,1114,0,0
252,-90,0,0,0,0,0,0,0,0,0,-1,1476,1114,0,0
259,-90,0,0,0,0,0,0,0,0,0,-1,1483,1114,0,0
266,-90,0,0,0,0,0,0,0,0,0,-1,1490,1114,0,0
273,-90,0,0,0,0,0,0,0,0,0,-1,1497,1114,0,0
280,-90,0,0,0,0,0,0,0,0,0,-1,1504,1114,0,0
287,-90,0,0,0,0,0,0,0,0,0,-1,1511,1114,0,0
294,-90,0,0,0,0,0,0,0,0,0,-1,1518,1114,0,0
301,-90,0,0,0,0,0,0,0,0,0,-1,1525,1114,0,0
308,-90,0,0,0,0,0,0,0,0,0,-1,1532,1114,0,0
315,-90,0,0,0,0,0,0,0,0,0,-1,1539,1114,0,0
322,-90,0,0,0,0,0,0,0,0,0,-1,1546,1114,0,0
329,-90,0,0,0,0,0,0,0,0,0,-1,1553,1114,0,0
336,-90,0,0,0,0,0,0,0,0,0,-1,1560,1114,0,0
343,-90,0,0,0,0,0,0,0,0,0,-1,1567,1114,0,0
350,-90,0,0,0,0,0,0,0,0,0,-1,1574,1114,0,0
357,-90,0,0,0,0,0,0,0,0,0,-1,1581,1114,0,0
364,-90,0,0,0,0,0,0,0,0,0,-1,1588,1114,0,0
371,-90,0,0,0,0,0,0,0,0,0,-1,1595,1114,0,0
378,-90,0,0,0,0,0,0,0,0,0,-1,1602,1114,0,0
385,-90,0,0,0,0,0,0,0,0,0,-1,1609,1114,0,0
392,-90,0,0,0,0,0,0,0,0,0,-1,1616,1114,0,0
399,-90,0,0,0,0,0,0,0,0,0,-1,1623,1114,0,0
406,-90,0,0,0,0,0,0,0,0,0,-1,1630,1114,0,0
413,-90,0,0,0,0,0,0,0,0,0,-1,1637,1114,0,0
420,-90,0,0,0,0,0,0,0,0,0,-1,1644,1114,0,0
427,-90,0,0,0,0,0,0,0,0,0,-1,1651,1114,0,0
434,-90,0,0,0,0,0,0,0,0,0,-1,1658,1114,0,0
441,-90,0,0,0,0,0,0,0,0,0,-1,1665,1114,0,0
448,-90,0,0,0,0,0,0,0,0,0,-1,1672,1114,0,0
455,-90,0,0,0,0,0,0,0,0,0,-1,1679,1114,0,0
462,-90,0,0,0,0,0,0,0,0,0,-1,1686,1114,0,0
469,-90,0,0,0,0,0,0,0,0,0,-1,1693,1114,0,0
476,-90,0,0,0,0,0,0,0,0,0,-1,1700,1114,0,0
483,-90,0,0,0,0,0,0,0,0,0,-1,1707,1114,0,0
490,-90,0,0,0,0,0,0,0,0,0,-1,1714,1114,0,0
497,-90,0,0,0,0,0,0,0,0,0,-1,1721,1114,0,0
504,-90,0,0,0,0,0,0,0,0,0,-1,1728,1114,0,0
511,-90,0,0,0,0,0,0,0,0,0,-1,1735,1114,0,0
518,-90,0,0,0,0,0,0,0,0,0,-1,1742,1114,0,0
525,-90,0,0,0,0,0,0,0,0,0,-1,1749,1114,0,0
532,-90,0,0,0,0,0,0,0,0,0,-1,1756,1114,0,0
539,-90,0,0,0,0,0,0,0,0,0,-1,1763,1114,0,0
546,-90,0,0,0,0,0,0,0,0,0,-1,1770,1114,0,0
553,-90,0,0,0,0,0,0,0,0,0,-1,1777,1114,0,0
560,-90,0,0,0,0,0,0,0,0,0,-1,1784,1114,0,0
567,-90,0,0,0,0,0,0,0,0,0,-1,1791,1114,0,0
574,-90,0,0,0,0,0,0,0,0,0,-1,1798,1114,0,0
581,-90,0,0,0,0,0,0,0,0,0,-1,1805,1114,0,0
588,-90,0,0,0,0,0,0,0,0,0,-1,1812,1114,0,0
595,-90,0,0,0,0,0,0,0,0,0,-1,1819,1114,0,0
602,-90,0,0,0,0,0,0,0,0,0,-1,1826,1114,0,0
609,-90,0,0,0,0,0,0,0,0,0,-1,1833,1114,0,0
616,-90,0,0,0,0,0,0,0,0,0,-1,1840,1114,0,0
623,-90,0,0,0,0,0,0,0,0,0,-1,1847,1114,0,0
630,-90,0,0,0,0,0,0,0,0,0,-1,1854,1114,0,0
637,-90,0,0,0,0,0,0,0,0,0,-1,1861,1114,0,0
644,-90,64.8379,2.547,0.0029377,-0.00372583,0.00793499,0.00821203,-0.00900015,0.586634,0.00994093,0.0367408,1868,1114,64.8379,-2.54701
651,-90,64.8196,2.67249,0.00177494,-0.00280872,0.006219,0.00611097,-0.00714475,0.608859,0.00766094,0.0404724,1875,1114,64.8196,-2.67245
658,-90,64.7386,2.79932,0.00123537,-0.0021667,0.0045574,0.00439884,-0.00533017,0.606781,0.00562562,0.0445492,1882,1114,64.7387,-2.79936
665,-90,64.6322,2.82483,0.000827892,-0.00159433,0.00309049,0.00293611,-0.00370254,0.598653,0.00384133,0.0441482,1889,1114,64.6322,-2.82481
672,-90,64.6207,2.62537,0.00055352,-0.00108389,0.00177973,0.00169383,-0.0022242,0.569822,0.00226897,0.041932,1896,1114,64.6207,-2.62538
679,-90,64.6838,2.802,0.000302292,-0.000766027,0.0007056,0.000653117,-0.00111685,0.461406,0.00103352,0.0399009,1903,1114,64.6838,-2.80202
686,-90,64.7469,2.7074,0.000389365,-0.00085761,0.000214573,0.000425255,-0.0008935,0.165727,0.000777217,0.0347941,1910,1114,64.747,-2.70735
693,-90,64.7502,2.63977,0.000586907,-0.00101702,5.05385e-05,0.000588498,-0.00101861,0.0314676,0.000938878,0.0350048,1917,1114,64.7503,-2.63977
700,-90,64.754,2.64038,0.000726131,-0.00110193,6.11995e-05,0.000728178,-0.00110397,0.033428,0.00106518,0.0322502,1924,1114,64.7541,-2.64044
707,-90,64.7241,2.52393,0.000609488,-0.000992411,0.000172574,0.000627868,-0.00101079,0.106109,0.000954652,0.0250894,1931,1114,64.7241,-2.52396
714,-90,64.7474,2.39539,0,0,0,0,0,0,0,-1,1938,1114,64.7474,-2.39538
721,-90,60.5769,8.73242,0,0,0,0,0,0,0,-1,1945,1114,60.577,-8.73244
728,-90,60.6285,8.34106,-0.000116381,-0.000161763,0.00104456,0.00090573,-0.00118387,0.774538,0.00120999,0.0454095,1952,1114,60.6285,-8.34103
735,-90,60.3815,7.83875,-4.06465e-05,0.000347513,0.00107025,0.00124114,-0.000934272,0.875094,0.00126013,0.0382815,1959,1114,60.3814,-7.8387
742,-90,60.512,7.30945,3.90118e-05,0.00108802,0.00134862,0.00201054,-0.000883505,0.970858,0.00171259,0.0336402,1966,1114,60.5119,-7.30945
749,-90,60.8455,6.72192,0.000250308,0.00165093,0.00188615,0.00296259,-0.00106134,0.963156,0.0024081,0.0217673,1973,1114,60.8454,-6.72198
756,-90,60.7858,6.32251,0.000360233,0.00255566,0.00233145,0.00403489,-0.00111899,1.00542,0.00313032,0.0184482,1980,1114,60.7857,-6.32251
763,-90,60.6833,5.90735,0.000741121,0.00294237,0.00245095,0.00452847,-0.000844983,0.996435,0.0033365,0.0137949,1987,1114,60.6833,-5.90738
770,-90,60.6023,5.46375,0.00165282,0.00312774,0.0026035,0.00509621,-0.000315648,0.923412,0.00350743,0.0172756,1994,1114,60.6022,-5.4638
777,-90,60.5007,5.04077,0.00274728,0.00257753,0.0029943,0.00565791,-0.000333096,0.771229,0.00388773,0.0172631,2001,1114,60.5008,-5.04079
784,-90,60.3291,4.72778,0.00377589,0.00115101,0.00356614,0.00626344,-0.00133653,0.609076,0.00468512,0.030694,2008,1114,60.3291,-4.72776
791,-90,60.3877,4.00012,0.00461118,-0.00147228,0.0043139,0.00684788,-0.00370898,0.478328,0.00618416,0.0430647,2015,1114,60.3878,-4.00011
798,-90,60.4663,3.26355,0.00500766,-0.00570709,0.005303,0.00718841,-0.00788784,0.390149,0.0087074,0.0460871,2022,1114,60.4663,-3.26352
805,-90,60.9634,2.5437,0.00434881,-0.0118957,0.00655303,0.0066627,-0.0142096,0.339436,0.0123104,0.047241,2029,1114,60.9633,-2.54369
812,-90,60.4016,2.45068,0.00147562,-0.0204735,0.00819511,0.0041978,-0.0231957,0.320704,0.0170364,0.0478832,2036,1114,60.4015,-2.45067
-700,-97,0,0,0,0,0,0,0,0,0,-1,524,1121,0,0
-693,-97,-46.2445,-1.47107,0.0342442,0.00603683,0.0540519,0.0760021,-0.0357211,0.657779,0.0658861,0.04539,531,1121,-46.2445,1.47104
-686,-97,-46.4453,-0.80249,0.0421133,0.0132382,0.0553031,0.0848323,-0.0294808,0.657717,0.0685292,0.0443468,538,1121,-46.4453,0.80254
-679,-97,-46.5509,-0.406372,0.0423078,0.0161474,0.0513182,0.0821865,-0.0237314,0.660613,0.064181,0.0462951,545,1121,-46.5509,0.406389
-672,-97,-45.1536,-2.12097,0,0,0,0,0,0,0,-1,552,1121,-45.1535,2.12102
-665,-97,-45.5313,-1.49622,0,0,0,0,0,0,0,-1,559,1121,-45.5313,1.49628
-658,-97,-45.43,0.63623,0,0,0,0,0,0,0,-1,566,1121,-45.43,-0.636221
-651,-97,-44.559,1.98279,0.0222039,0.012519,0.0239481,0.0417943,-0.00707138,0.68564,0.0304945,0.0349095,573,1121,-44.5589,-1.98284
-644,-97,-44.6619,2.55566,0.0166226,0.0100674,0.0175697,0.0312178,-0.00452775,0.693184,0.0224737,0.0137765,580,1121,-44.6619,-2.55571
-637,-97,-44.6758,3.11084,0.0116823,0.0076345,0.0117714,0.0216025,-0.00228576,0.700264,0.0152209,0.0136064,587,1121,-44.6758,-3.11085
-630,-97,-44.694,3.61316,0.0073238,0.00492876,0.006434,0.0126708,-0.000418219,0.693389,0.00858999,0.0110154,594,1121,-44.694,-3.61316
-623,-97,-44.7337,4.08899,0.00367122,0.0024943,0.00244297,0.00559561,0.000569916,0.667211,0.00355569,0.0140844,601,1121,-44.7337,-4.08905
-616,-97,-44.818,4.64514,0.00207031,0.00042692,7.38934e-05,0.00207363,0.000423605,0.0448433,0.00126508,0.0213931,608,1121,-44.818,-4.64514
-609,-97,-44.9052,5.19629,0.00172456,-0.000932966,-0.000351994,0.00177039,-0.000978798,-0.129478,0.00160903,0.0296069,615,1121,-44.9052,-5.19631
-602,-97,-44.9583,5.62231,0.00130805,-0.00177303,-9.2864e-05,0.00131084,-0.00177583,-0.0301037,0.00178882,0.0304721,622,1121,-44.9583,-5.62227
-595,-97,-44.8492,6.19653,0.000974859,-0.00211906,4.2275e-05,0.000975437,-0.00211964,0.0136605,0.00182719,0.0243515,629,1121,-44.8492,-6.19654
-588,-97,-44.9936,6.70557,0,0,0,0,0,0,0,-1,636,1121,-44.9936,-6.70556
-581,-97,-47.6135,3.03394,0,0,0,0,0,0,0,-1,643,1121,-47.6135,-3.03397
-574,-97,-48.9678,0.899292,0,0,0,0,0,0,0,-1,650,1121,-48.9678,-0.899283
-567,-97,-48.9117,0.678589,0.00246695,-0.00255599,0.00054975,0.00252641,-0.00261545,0.107748,0.00296881,0.0351621,657,1121,-48.9118,-0.678648
-560,-97,-48.8883,0.80542,0.00280292,-0.00234044,0.000636031,0.0028804,-0.00241793,0.121228,0.00306287,0.0386608,664,1121,-48.8883,-0.805427
-553,-97,-49.0048,1.06555,0.00259985,-0.00184588,0.000393694,0.00263445,-0.00188047,0.0876468,0.00261878,0.0412088,671,1121,-49.0047,-1.06552
-546,-97,-49.1033,1.17151,0.00269372,-0.0012091,-0.000104576,0.00269652,-0.0012119,-0.0267695,0.00231016,0.0397566,678,1121,-49.1033,-1.17152
-539,-97,-49.0978,0.957764,0.00417511,-0.000798394,-0.00126543,0.00447856,-0.00110185,-0.235359,0.0034128,0.0379922,685,1121,-49.0979,-0.957762
-532,-97,-49.0425,0.708618,0.00597032,-0.000477531,-0.00275935,0.00698994,-0.00149716,-0.353955,0.00523093,0.0375004,692,1121,-49.0425,-0.708672
-525,-97,0,0,0,0,0,0,0,0,0,-1,699,1121,0,0
-518,-97,0,0,0,0,0,0,0,0,0,-1,706,1121,0,0
-511,-97,0,0,0,0,0,0,0,0,0,-1,713,1121,0,0
-504,-97,0,0,0,0,0,0,0,0,0,-1,720,1121,0,0
-497,-97,0,0,0,0,0,0,0,0,0,-1,727,1121,0,0
-490,-97,0,0,0,0,0,0,0,0,0,-1,734,1121,0,0
-483,-97,0,0,0,0,0,0,0,0,0,-1,741,1121,0,0
-476,-97,0,0,0,0,0,0,0,0,0,-1,748,1121,0,0
-469,-97,0,0,0,0,0,0,0,0,0,-1,755,1121,0,0
-462,-97,0,0,0,0,0,0,0,0,0,-1,762,1121,0,0
-455,-97,0,0,0,0,0,0,0,0,0,-1,769,1121,0,0
-448,-97,0,0,0,0,0,0,0,0,0,-1,776,1121,0,0
-441,-97,0,0,0,0,0,0,0,0,0,-1,783,1121,0,0
-434,-97,0,0,0,0,0,0,0,0,0,-1,790,1121,0,0
-427,-97,0,0,0,0,0,0,0,0,0,-1,797,1121,0,0
-420,-97,0,0,0,0,0,0,0,0,0,-1,804,1121,0,0
-413,-97,0,0,0,0,0,0,0,0,0,-1,811,1121,0,0
-406,-97,0,0,0,0,0,0,0,0,0,-1,818,1121,0,0
-399,-97,0,0,0,0,0,0,0,0,0,-1,825,1121,0,0
-392,-97,0,0,0,0,0,0,0,0,0,-1,832,1121,0,0
-385,-97,0,0,0,0,0,0,0,0,0,-1,839,1121,0,0
-378,-97,0,0,0,0,0,0,0,0,0,-1,846,1121,0,0
-371,-97,0,0,0,0,0,0,0,0,0,-1,853,1121,0,0
-364,-97,0,0,0,0,0,0,0,0,0,-1,860,1121,0,0
-357,-97,0,0,0,0,0,0,0,0,0,-1,867,1121,0,0
-350,-97,0,0,0,0,0,0,0,0,0,-1,874,1121,0,0
-343,-97,0,0,0,0,0,0,0,0,0,-1,881,1121,0,0
-336,-97,0,0,0,0,0,0,0,0,0,-1,888,1121,0,0
-329,-97,0,0,0,0,0,0,0,0,0,-1,895,1121,0,0
-322,-97,0,0,0,0,0,0,0,0,0,-1,902,1121,0,0
-315,-97,0,0,0,0,0,0,0,0,0,-1,909,1121,0,0
-308,-97,0,0,0,0,0,0,0,0,0,-1,916,1121,0,0
-301,-97,0,0,0,0,0,0,0,0,0,-1,923,1121,0,0
-294,-97,0,0,0,0,0,0,0,0,0,-1,930,1121,0,0
-287,-97,0,0,0,0,0,0,0,0,0,-1,937,1121,0,0
-280,-97,0,0,0,0,0,0,0,0,0,-1,944,1121,0,0
-273,-97,0,0,0,0,0,0,0,0,0,-1,951,1121,0,0
-266,-97,0,0,0,0,0,0,0,0,0,-1,958,1121,0,0
-259,-97,0,0,0,0,0,0,0,0,0,-1,965,1121,0,0
-252,-97,0,0,0,0,0,0,0,0,0,-1,972,1121,0,0
-245,-97,0,0,0,0,0,0,0,0,0,-1,979,1121,0,0
-238,-97,0,0,0,0,0,0,0,0,0,-1,986,1121,0,0
-231,-97,0,0,0,0,0,0,0,0,0,-1,993,1121,0,0
-224,-97,0,0,0,0,0,0,0,0,0,-1,1000,1121,0,0
-217,-97,0,0,0,0,0,0,0,0,0,-1,1007,1121,0,0
-210,-97,0,0,0,0,0,0,0,0,0,-1,1014,1121,0,0
-203,-97,0,0,0,0,0,0,0,0,0,-1,1021,1121,0,0
-196,-97,0,0,0,0,0,0,0,0,0,-1,1028,1121,0,0
-189,-97,0,0,0,0,0,0,0,0,0,-1,1035,1121,0,0
-182,-97,0,0,0,0,0,0,0,0,0,-1,1042,1121,0,0
-175,-97,0,0,0,0,0,0,0,0,0,-1,1049,1121,0,0
-168,-97,0,0,0,0,0,0,0,0,0,-1,1056,1121,0,0
-161,-97,0,0,0,0,0,0,0,0,0,-1,1063,1121,0,0
-154,-97,0,0,0,0,0,0,0,0,0,-1,1070,1121,0,0
-147,-97,0,0,0,0,0,0,0,0,0,-1,1077,1121,0,0
-140,-97,0,0,0,0,0,0,0,0,0,-1,1084,1121,0,0
-133,-97,0,0,0,0,0,0,0,0,0,-1,1091,1121,0,0
-126,-97,0,0,0,0,0,0,0,0,0,-1,1098,1121,0,0
-119,-97,0,0,0,0,0,0,0,0,0,-1,1105,1121,0,0
-112,-97,0,0,0,0,0,0,0,0,0,-1,1112,1121,0,0
-105,-97,0,0,0,0,0,0,0,0,0,-1,1119,1121,0,0
-98,-97,0,0,0,0,0,0,0,0,0,-1,1126,1121,0,0
-91,-97,0,0,0,0,0,0,0,0,0,-1,1133,1121,0,0
-84,-97,0,0,0,0,0,0,0,0,0,-1,1140,1121,0,0
-77,-97,0,0,0,0,0,0,0,0,0,-1,1147,1121,0,0
-70,-97,0,0,0,0,0,0,0,0,0,-1,1154,1121,0,0
-63,-97,0,0,0,0,0,0,0,0,0,-1,1161,1121,0,0
-56,-97,0,0,0,0,0,0,0,0,0,-1,1168,1121,0,0
-49,-97,0,0,0,0,0,0,0,0,0,-1,1175,1121,0,0
-42,-97,0,0,0,0,0,0,0,0,0,-1,1182,1121,0,0
-35,-97,0,0,0,0,0,0,0,0,0,-1,1189,1121,0,0
-28,-97,0,0,0,0,0,0,0,0,0,-1,1196,1121,0,0
-21,-97,0,0,0,0,0,0,0,0,0,-1,1203,1121,0,0
-14,-97,0,0,0,0,0,0,0,0,0,-1,1210,1121,0,0
-7,-97,0,0,0,0,0,0,0,0,0,-1,1217,1121,0,0
0,-97,0,0,0,0,0,0,0,0,0,-1,1224,1121,0,0
7,-97,0,0,0,0,0,0,0,0,0,-1,1231,1121,0,0
14,-97,0,0,0,0,0,0,0,0,0,-1,1238,1121,0,0
21,-97,0,0,0,0,0,0,0,0,0,-1,1245,1121,0,0
28,-97,0,0,0,0,0,0,0,0,0,-1,1252,1121,0,0
35,-97,0,0,0,0,0,0,0,0,0,-1,1259,1121,0,0
42,-97,0,0,0,0,0,0,0,0,0,-1,1266,1121,0,0
49,-97,0,0,0,0,0,0,0,0,0,-1,1273,1121,0,0
56,-97,0,0,0,0,0,0,0,0,0,-1,1280,1121,0,0
63,-97,0,0,0,0,0,0,0,0,0,-1,1287,1121,0,0
70,-97,0,0,0,0,0,0,0,0,0,-1,1294,1121,0,0
77,-97,0,0,0,0,0,0,0,0,0,-1,1301,1121,0,0
84,-97,0,0,0,0,0,0,0,0,0,-1,1308,1121,0,0
91,-97,0,0,0,0,0,0,0,0,0,-1,1315,1121,0,0
98,-97,0,0,0,0,0,0,0,0,0,-1,1322,1121,0,0
105,-97,0,0,0,0,0,0,0,0,0,-1,1329,1121,0,0
112,-97,0,0,0,0,0,0,0,0,0,-1,1336,1121,0,0
119,-97,0,0,0,0,0,0,0,0,0,-1,1343,1121,0,0
126,-97,0,0,0,0,0,0,0,0,0,-1,1350,1121,0,0
133,-97,0,0,0,0,0,0,0,0,0,-1,1357,1121,0,0
140,-97,0,0,0,0,0,0,0,0,0,-1,1364,1121,0,0
147,-97,0,0,0,0,0,0,0,0,0,-1,1371,1121,0,0
154,-97,0,0,0,0,0,0,0,0,0,-1,1378,1121,0,0
161,-97,0,0,0,0,0,0,0,0,0,-1,1385,1121,0,0
168,-97,0,0,0,0,0,0,0,0,0,-1,1392,1121,0,0
175,-97,0,0,0,0,0,0,0,0,0,-1,1399,1121,0,0
182,-97,0,0,0,0,0,0,0,0,0,-1,1406,1121,0,0
189,-97,0,0,0,0,0,0,0,0,0,-1,1413,1121,0,0
196,-97,0,0,0,0,0,0,0,0,0,-1,1420,1121,0,0
203,-97,0,0,0,0,0,0,0,0,0,-1,1427,1121,0,0
210,-97,0,0,0,0,0,0,0,0,0,-1,1434,1121,0,0
217,-97,0,0,0,0,0,0,0,0,0,-1,1441,1121,0,0
224,-97,0,0,0,0,0,0,0,0,0,-1,1448,1121,0,0
231,-97,0,0,0,0,0,0,0,0,0,-1,1455,1121,0,0
238,-97,0,0,0,0,0,0,0,0,0,-1,1462,1121,0,0
245,-97,0,0,0,0,0,0,0,0,0,-1,1469,1121,0,0
252,-97,0,0,0,0,0,0,0,0,0,-1,1476,1121,0,0
259,-97,0,0,0,0,0,0,0,0,0,-1,1483,1121,0,0
266,-97,0,0,0,0,0,0,0,0,0,-1,1490,1121,0,0
273,-97,0,0,0,0,0,0,0,0,0,-1,1497,1121,0,0
280,-97,0,0,0,0,0,0,0,0,0,-1,1504,1121,0,0
287,-97,0,0,0,0,0,0,0,0,0,-1,1511,1121,0,0
294,-97,0,0,0,0,0,0,0,0,0,-1,1518,1121,0,0
301,-97,0,0,0,0,0,0,0,0,0,-1,1525,1121,0,0
308,-97,0,0,0,0,0,0,0,0,0,-1,1532,1121,0,0
315,-97,0,0,0,0,0,0,0,0,0,-1,1539,1121,0,0
322,-97,0,0,0,0,0,0,0,0,0,-1,1546,1121,0,0
329,-97,0,0,0,0,0,0,0,0,0,-1,1553,1121,0,0
336,-97,0,0,0,0,0,0,0,0,0,-1,1560,1121,0,0
343,-97,0,0,0,0,0,0,0,0,0,-1,1567,1121,0,0
350,-97,0,0,0,0,0,0,0,0,0,-1,1574,1121,0,0
357,-97,0,0,0,0,0,0,0,0,0,-1,1581,1121,0,0
364,-97,0,0,0,0,0,0,0,0,0,-1,1588,1121,0,0
371,-97,0,0,0,0,0,0,0,0,0,-1,1595,1121,0,0
378,-97,0,0,0,0,0,0,0,0,0,-1,1602,1121,0,0
385,-97,0,0,0,0,0,0,0,0,0,-1,1609,1121,0,0
392,-97,0,0,0,0,0,0,0,0,0,-1,1616,1121,0,0
399,-97,0,0,0,0,0,0,0,0,0,-1,1623,1121,0,0
406,-97,0,0,0,0,0,0,0,0,0,-1,1630,1121,0,0
413,-97,0,0,0,0,0,0,0,0,0,-1,1637,1121,0,0
420,-97,0,0,0,0,0,0,0,0,0,-1,1644,1121,0,0
427,-97,0,0,0,0,0,0,0,0,0,-1,1651,1121,0,0
434,-97,0,0,0,0,0,0,0,0,0,-1,1658,1121,0,0
441,-97,0,0,0,0,0,0,0,0,0,-1,1665,1121,0,0
448,-97,0,0,0,0,0,0,0,0,0,-1,1672,1121,0,0
455,-97,0,0,0,0,0,0,0,0,0,-1,1679,1121,0,0
462,-97,0,0,0,0,0,0,0,0,0,-1,1686,1121,0,0
469,-97,0,0,0,0,0,0,0,0,0,-1,1693,1121,0,0
476,-97,0,0,0,0,0,0,0,0,0,-1,1700,1121,0,0
483,-97,0,0,0,0,0,0,0,0,0,-1,1707,1121,0,0
490,-97,0,0,0,0,0,0,0,0,0,-1,1714,1121,0,0
497,-97,0,0,0,0,0,0,0,0,0,-1,1721,1121,0,0
504,-97,0,0,0,0,0,0,0,0,0,-1,1728,1121,0,0
511,-97,0,0,0,0,0,0,0,0,0,-1,1735,1121,0,0
518,-97,0,0,0,0,0,0,0,0,0,-1,1742,1121,0,0
525,-97,0,0,0,0,0,0,0,0,0,-1,1749,1121,0,0
532,-97,0,0,0,0,0,0,0,0,0,-1,1756,1121,0,0
539,-97,0,0,0,0,0,0,0,0,0,-1,1763,1121,0,0
546,-97,0,0,0,0,0,0,0,0,0,-1,1770,1121,0,0
553,-97,0,0,0,0,0,0,0,0,0,-1,1777,1121,0,0
560,-97,0,0,0,0,0,0,0,0,0,-1,1784,1121,0,0
567,-97,0,0,0,0,0,0,0,0,0,-1,1791,1121,0,0
574,-97,0,0,0,0,0,0,0,0,0,-1,1798,1121,0,0
581,-97,0,0,0,0,0,0,0,0,0,-1,1805,1121,0,0
588,-97,0,0,0,0,0,0,0,0,0,-1,1812,1121,0,0
595,-97,0,0,0,0,0,0,0,0,0,-1,1819,1121,0,0
602,-97,0,0,0,0,0,0,0,0,0,-1,1826,1121,0,0
609,-97,0,0,0,0,0,0,0,0,0,-1,1833,1121,0,0
616,-97,0,0,0,0,0,0,0,0,0,-1,1840,1121,0,0
623,-97,0,0,0,0,0,0,0,0,0,-1,1847,1121,0,0
630,-97,0,0,0,0,0,0,0,0,0,-1,1854,1121,0,0
637,-97,0,0,0,0,0,0,0,0,0,-1,1861,1121,0,0
644,-97,64.8055,2.65076,0.00256259,-0.00294332,0.00746031,0.00776167,-0.00814241,0.608642,0.0091831,0.0366049,1868,1121,64.8056,-2.65078
651,-97,64.7716,2.69861,0.00156088,-0.002126,0.00573271,0.00573926,-0.00630438,0.629837,0.00695595,0.0383528,1875,1121,64.7717,-2.69858
658,-97,64.7189,2.84802,0.00110693,-0.00158288,0.00408771,0.00406529,-0.00454125,0.62647,0.00497152,0.0402693,1882,1121,64.7189,-2.84799
665,-97,64.7605,2.75098,0.000763951,-0.00108969,0.00263072,0.00262634,-0.00295208,0.616034,0.00322253,0.0448605,1889,1121,64.7604,-2.75093
672,-97,64.7767,2.54712,0.000533741,-0.000674344,0.00133326,0.00139341,-0.00153401,0.572702,0.0016908,0.0457069,1896,1121,64.7767,-2.54713
679,-97,64.7222,2.76111,0.000316977,-0.000498054,0.000326901,0.000431892,-0.000612969,0.338034,0.000606263,0.0423,1903,1121,64.7221,-2.76113
686,-97,64.6677,2.78589,0.000463715,-0.00070888,-0.000111014,0.000474132,-0.000719297,-0.0935664,0.000693856,0.0365643,1910,1121,64.6677,-2.78591
693,-97,64.6637,2.63293,0.000673307,-0.000938762,-0.000230546,0.00070563,-0.000971084,-0.139293,0.000972087,0.0337667,1917,1121,64.6637,-2.63297
700,-97,64.6884,2.54822,0.000802025,-0.00107422,-0.000201992,0.000823524,-0.00109572,-0.106039,0.00111178,0.0268915,1924,1121,64.6884,-2.54817
707,-97,64.7045,2.53394,0.000678724,-0.00100776,-9.45592e-05,0.000684009,-0.00101304,-0.0558357,0.000985912,0.0249306,1931,1121,64.7045,-2.53393
714,-97,64.7378,2.49438,0,0,0,0,0,0,0,-1,1938,1121,64.7378,-2.49441
721,-97,60.2692,8.62537,0,0,0,0,0,0,0,-1,1945,1121,60.2692,-8.62538
728,-97,60.2321,8.33728,9.29461e-05,-0.000363673,0.000848537,0.000743351,-0.00101408,0.653979,0.00101866,0.0308615,1952,1121,60.2321,-8.33728
735,-97,60.2003,7.7417,0.000249516,3.00802e-05,0.000837739,0.000984691,-0.000705095,0.720284,0.00098004,0.0291025,1959,1121,60.2003,-7.74166
742,-97,60.1699,7.2854,0.000256998,0.000658998,0.00113989,0.00161547,-0.000699478,0.872667,0.00137097,0.0242874,1966,1121,60.1699,-7.2854
749,-97,60.2445,6.79773,0.000415451,0.00114625,0.00177692,0.00259496,-0.00103325,0.886803,0.00215846,0.0239066,1973,1121,60.2445,-6.79769
756,-97,60.2545,6.30371,0.000483649,0.00195819,0.00241722,0.00374808,-0.00130624,0.933421,0.0030295,0.0172706,1980,1121,60.2545,-6.30377
763,-97,60.1486,5.87976,0.000828107,0.00223255,0.00291577,0.00452947,-0.00146881,0.903566,0.00361026,0.0144499,1987,1121,60.1485,-5.87979
770,-97,60.0789,5.4668,0.00162467,0.00219096,0.00364012,0.00555893,-0.0017433,0.824212,0.00440362,0.0132964,1994,1121,60.0788,-5.46683
777,-97,60.0222,5.00146,0.00252951,0.00143522,0.00478516,0.00679871,-0.00283398,0.728474,0.0057163,0.0181291,2001,1121,60.0223,-5.00148
784,-97,59.9565,4.47412,0.00330256,-0.000145946,0.00634316,0.00815164,-0.00499503,0.65269,0.00766281,0.0384411,2008,1121,59.9566,-4.47414
791,-97,59.9785,3.83081,0.00380625,-0.0028512,0.00843067,0.00954156,-0.00858651,0.597375,0.0104711,0.0431793,2015,1121,59.9786,-3.83087
798,-97,60.209,3.14063,0.00377979,-0.00700926,0.0112314,0.010845,-0.0140745,0.561514,0.0144275,0.0451962,2022,1121,60.2091,-3.14057
805,-97,60.313,2.59973,0.00260321,-0.0128958,0.0149243,0.01167,-0.0219626,0.545932,0.0197186,0.0481246,2029,1121,60.3129,-2.59969
812,-97,60.3772,2.08972,0,0,0,0,0,0,0,-1,2036,1121,60.3773,-2.08966
-700,-104,0,0,0,0,0,0,0,0,0,-1,524,1128,0,0
-693,-104,-46.0165,-1.41443,0,0,0,0,0,0,0,-1,531,1128,-46.0165,1.41443
-686,-104,-45.8236,-0.674438,0,0,0,0,0,0,0,-1,538,1128,-45.8236,0.674493
-679,-104,-46.3659,-0.544067,0.0388945,0.0179992,0.0535257,0.0829826,-0.0260889,0.689015,0.0657662,0.0467243,545,1128,-46.3659,0.544028
-672,-104,-45.3869,1.68408,0.0365823,0.0179461,0.0465243,0.0747125,-0.020184,0.686563,0.0577248,0.0465233,552,1128,-45.3869,-1.68403
-665,-104,-43.4237,1.52051,0,0,0,0,0,0,0,-1,559,1128,-43.4237,-1.52052
-658,-104,-43.8336,1.82239,0,0,0,0,0,0,0,-1,566,1128,-43.8336,-1.82244
-651,-104,-44.0798,2.01465,0.0211324,0.0126717,0.0240155,0.0412873,-0.00748321,0.698218,0.0303286,0.046696,573,1128,-44.0798,-2.01463
-644,-104,-44.0995,2.5415,0.0158023,0.0101228,0.0174164,0.0306089,-0.00468386,0.704584,0.0221331,0.0168509,580,1128,-44.0995,-2.54147
-637,-104,-44.0988,3.09448,0.0110119,0.00761916,0.0114721,0.0209123,-0.00228129,0.711996,0.0147609,0.0119745,587,1128,-44.0988,-3.09453
-630,-104,-44.112,3.54272,0.00674545,0.00487584,0.00606397,0.0119462,-0.000324959,0.708922,0.00807467,0.0166906,594,1128,-44.112,-3.5427
-623,-104,-44.1985,4.08997,0.00316152,0.00236543,0.002022,0.00482428,0.000702675,0.688212,0.00300943,0.019068,601,1128,-44.1985,-4.08991
-616,-104,-44.5124,4.71606,0.00160492,0.000328391,-0.00010286,0.00161315,0.000320156,-0.0798913,0.000986195,0.0273577,608,1128,-44.5124,-4.71602
-609,-104,-44.6871,5.15356,0.00112656,-0.000906549,-0.000209216,0.00114786,-0.000927855,-0.101488,0.00120066,0.0353943,615,1128,-44.6871,-5.15355
-602,-104,-44.4565,5.71118,0.000676891,-0.001664,0.000210935,0.000695746,-0.00168285,0.089152,0.00141215,0.0318682,622,1128,-44.4565,-5.71114
-595,-104,-44.2379,6.32678,0.000141758,-0.0019747,0.000203451,0.000161138,-0.00199408,0.0949693,0.00138622,0.024064,629,1128,-44.2379,-6.32676
-588,-104,-44.2672,7.02563,0,0,0,0,0,0,0,-1,636,1128,-44.2672,-7.0256
-581,-104,-23.9373,2.85864,0,0,0,0,0,0,0,-1,643,1128,-23.9373,-2.85861
-574,-104,-48.8935,0.690063,0,0,0,0,0,0,0,-1,650,1128,-48.8935,-0.690038
-567,-104,-48.802,0.571533,0.0016834,-0.00230077,0.000592499,0.00176964,-0.00238702,0.144547,0.00240865,0.0370693,657,1128,-48.802,-0.571516
-560,-104,-48.8105,0.793457,0.00220084,-0.00214035,0.000688889,0.00230753,-0.00224705,0.153659,0.00262966,0.0426902,664,1128,-48.8105,-0.793467
-553,-104,-49.1053,1.13428,0.00210782,-0.0016904,0.000298195,0.00213109,-0.00171367,0.0778734,0.00222412,0.0448301,671,1128,-49.1054,-1.13433
-546,-104,-49.2813,1.20667,0.00231063,-0.00109667,-0.000415649,0.0023606,-0.00114664,-0.11965,0.00206494,0.0425601,678,1128,-49.2813,-1.20662
-539,-104,-49.2012,1.08508,0.00390596,-0.000717572,-0.00190569,0.00459018,-0.00140179,-0.344705,0.00361904,0.0390613,685,1128,-49.2012,-1.08507
-532,-104,-49.0611,0.754517,0.00594673,-0.000489584,-0.00373199,0.00765648,-0.00219933,-0.429597,0.00597394,0.0409801,692,1128,-49.0611,-0.754533
-525,-104,-48.9929,0.669067,0.00798317,-0.000376469,-0.00571874,0.0108868,-0.00328007,-0.469816,0.00856323,0.0399088,699,1128,-48.9929,-0.669084
-518,-104,0,0,0,0,0,0,0,0,0,-1,706,1128,0,0
-511,-104,0,0,0,0,0,0,0,0,0,-1,713,1128,0,0
-504,-104,0,0,0,0,0,0,0,0,0,-1,720,1128,0,0
-497,-104,0,0,0,0,0,0,0,0,0,-1,727,1128,0,0
-490,-104,0,0,0,0,0,0,0,0,0,-1,734,1128,0,0
-483,-104,0,0,0,0,0,0,0,0,0,-1,741,1128,0,0
-476,-104,0,0,0,0,0,0,0,0,0,-1,748,1128,0,0
-469,-104,0,0,0,0,0,0,0,0,0,-1,755,1128,0,0
-462,-104,0,0,0,0,0,0,0,0,0,-1,762,1128,0,0
-455,-104,0,0,0,0,0,0,0,0,0,-1,769,1128,0,0
-448,-104,0,0,0,0,0,0,0,0,0,-1,776,1128,0,0
-441,-104,0,0,0,0,0,0,0,0,0,-1,783,1128,0,0
-434,-104,0,0,0,0,0,0,0,0,0,-1,790,1128,0,0
-427,-104,0,0,0,0,0,0,0,0,0,-1,797,1128,0,0
-420,-104,0,0,0,0,0,0,0,0,0,-1,804,1128,0,0
-413,-104,0,0,0,0,0,0,0,0,0,-1,811,1128,0,0
-406,-104,0,0,0,0,0,0,0,0,0,-1,818,1128,0,0
-399,-104,0,0,0,0,0,0,0,0,0,-1,825,1128,0,0
-392,-104,0,0,0,0,0,0,0,0,0,-1,832,1128,0,0
-385,-104,0,0,0,0,0,0,0,0,0,-1,839,1128,0,0
-378,-104,0,0,0,0,0,0,0,0,0,-1,846,1128,0,0
-371,-104,0,0,0,0,0,0,0,0,0,-1,853,1128,0,0
-364,-104,0,0,0,0,0,0,0,0,0,-1,860,1128,0,0
-357,-104,0,0,0,0,0,0,0,0,0,-1,867,1128,0,0
-350,-104,0,0,0,0,0,0,0,0,0,-1,874,1128,0,0
-343,-104,0,0,0,0,0,0,0,0,0,-1,881,1128,0,0
-336,-104,0,0,0,0,0,0,0,0,0,-1,888,1128,0,0
-329,-104,0,0,0,0,0,0,0,0,0,-1,895,1128,0,0
-322,-104,0,0,0,0,0,0,0,0,0,-1,902,1128,0,0
-315,-104,0,0,0,0,0,0,0,0,0,-1,909,1128,0,0
-308,-104,0,0,0,0,0,0,0,0,0,-1,916,1128,0,0
-301,-104,0,0,0,0,0,0,0,0,0,-1,923,1128,0,0
-294,-104,0,0,0,0,0,0,0,0,0,-1,930,1128,0,0
-287,-104,0,0,0,0,0,0,0,0,0,-1,937,1128,0,0
-280,-104,0,0,0,0,0,0,0,0,0,-1,944,1128,0,0
-273,-104,0,0,0,0,0,0,0,0,0,-1,951,1128,0,0
-266,-104,0,0,0,0,0,0,0,0,0,-1,958,1128,0,0
-259,-104,0,0,0,0,0,0,0,0,0,-1,965,1128,0,0
-252,-104,0,0,0,0,0,0,0,0,0,-1,972,1128,0,0
-245,-104,0,0,0,0,0,0,0,0,0,-1,979,1128,0,0
-238,-104,0,0,0,0,0,0,0,0,0,-1,986,1128,0,0
-231,-104,0,0,0,0,0,0,0,0,0,-1,993,1128,0,0
-224,-104,0,0,0,0,0,0,0,0,0,-1,1000,1128,0,0
-217,-104,0,0,0,0,0,0,0,0,0,-1,1007,1128,0,0
-210,-104,0,0,0,0,0,0,0,0,0,-1,1014,1128,0,0
-203,-104,0,0,0,0,0,0,0,0,0,-1,1021,1128,0,0
-196,-104,0,0,0,0,0,0,0,0,0,-1,1028,1128,0,0
-189,-104,0,0,0,0,0,0,0,0,0,-1,1035,1128,0,0
-182,-104,0,0,0,0,0,0,0,0,0,-1,1042,1128,0,0
-175,-104,0,0,0,0,0,0,0,0,0,-1,1049,1128,0,0
-168,-104,0,0,0,0,0,0,0,0,0,-1,1056,1128,0,0
-161,-104,0,0,0,0,0,0,0,0,0,-1,1063,1128,0,0
-154,-104,0,0,0,0,0,0,0,0,0,-1,1070,1128,0,0
-147,-104,0,0,0,0,0,0,0,0,0,-1,1077,1128,0,0
-140,-104,0,0,0,0,0,0,0,0,0,-1,1084,1128,0,0
-133,-104,0,0,0,0,0,0,0,0,0,-1,1091,1128,0,0
-126,-104,0,0,0,0,0,0,0,0,0,-1,1098,1128,0,0
-119,-104,0,0,0,0,0,0,0,0,0,-1,1105,1128,0,0
-112,-104,0,0,0,0,0,0,0,0,0,-1,1112,1128,0,0
-105,-104,0,0,0,0,0,0,0,0,0,-1,1119,1128,0,0
-98,-104,0,0,0,0,0,0,0,0,0,-1,1126,1128,0,0
-91,-104,0,0,0,0,0,0,0,0,0,-1,1133,1128,0,0
-84,-104,0,0,0,0,0,0,0,0,0,-1,1140,1128,0,0
-77,-104,0,0,0,0,0,0,0,0,0,-1,1147,1128,0,0
-70,-104,0,0,0,0,0,0,0,0,0,-1,1154,1128,0,0
-63,-104,0,0,0,0,0,0,0,0,0,-1,1161,1128,0,0
-56,-104,0,0,0,0,0,0,0,0,0,-1,1168,1128,0,0
-49,-104,0,0,0,0,0,0,0,0,0,-1,1175,1128,0,0
-42,-104,0,0,0,0,0,0,0,0,0,-1,1182,1128,0,0
-35,-104,0,0,0,0,0,0,0,0,0,-1,1189,1128,0,0
-28,-104,0,0,0,0,0,0,0,0,0,-1,1196,1128,0,0
-21,-104,0,0,0,0,0,0,0,0,0,-1,1203,1128,0,0
-14,-104,0,0,0,0,0,0,0,0,0,-1,1210,1128,0,0
-7,-104,0,0,0,0,0,0,0,0,0,-1,1217,1128,0,0
0,-104,0,0,0,0,0,0,0,0,0,-1,1224,1128,0,0
7,-104,0,0,0,0,0,0,0,0,0,-1,1231,1128,0,0
14,-104,0,0,0,0,0,0,0,0,0,-1,1238,1128,0,0
21,-104,0,0,0,0,0,0,0,0,0,-1,1245,1128,0,0
28,-104,0,0,0,0,0,0,0,0,0,-1,1252,1128,0,0
35,-104,0,0,0,0,0,0,0,0,0,-1,1259,1128,0,0
42,-104,0,0,0,0,0,0,0,0,0,-1,1266,1128,0,0
49,-104,0,0,0,0,0,0,0,0,0,-1,1273,1128,0,0
56,-104,0,0,0,0,0,0,0,0,0,-1,1280,1128,0,0
63,-104,0,0,0,0,0,0,0,0,0,-1,1287,1128,0,0
70,-104,0,0,0,0,0,0,0,0,0,-1,1294,1128,0,0
77,-104,0,0,0,0,0,0,0,0,0,-1,1301,1128,0,0
84,-104,0,0,0,0,0,0,0,0,0,-1,1308,1128,0,0
91,-104,0,0,0,0,0,0,0,0,0,-1,1315,1128,0,0
98,-104,0,0,0,0,0,0,0,0,0,-1,1322,1128,0,0
105,-104,0,0,0,0,0,0,0,0,0,-1,1329,1128,0,0
112,-104,0,0,0,0,0,0,0,0,0,-1,1336,1128,0,0
119,-104,0,0,0,0,0,0,0,0,0,-1,1343,1128,0,0
126,-104,0,0,0,0,0,0,0,0,0,-1,1350,1128,0,0
133,-104,0,0,0,0,0,0,0,0,0,-1,1357,1128,0,0
140,-104,0,0,0,0,0,0,0,0,0,-1,1364,1128,0,0
147,-104,0,0,0,0,0,0,0,0,0,-1,1371,1128,0,0
154,-104,0,0,0,0,0,0,0,0,0,-1,1378,1128,0,0
161,-104,0,0,0,0,0,0,0,0,0,-1,1385,1128,0,0
168,-104,0,0,0,0,0,0,0,0,0,-1,1392,1128,0,0
175,-104,0,0,0,0,0,0,0,0,0,-1,1399,1128,0,0
182,-104,0,0,0,0,0,0,0,0,0,-1,1406,1128,0,0
189,-104,0,0,0,0,0,0,0,0,0,-1,1413,1128,0,0
196,-104,0,0,0,0,0,0,0,0,0,-1,1420,1128,0,0
203,-104,0,0,0,0,0,0,0,0,0,-1,1427,1128,0,0
210,-104,0,0,0,0,0,0,0,0,0,-1,1434,1128,0,0
217,-104,0,0,0,0,0,0,0,0,0,-1,1441,1128,0,0
224,-104,0,0,0,0,0,0,0,0,0,-1,1448,1128,0,0
231,-104,0,0,0,0,0,0,0,0,0,-1,1455,1128,0,0
238,-104,0,0,0,0,0,0,0,0,0,-1,1462,1128,0,0
245,-104,0,0,0,0,0,0,0,0,0,-1,1469,1128,0,0
252,-104,0,0,0,0,0,0,0,0,0,-1,1476,1128,0,0
259,-104,0,0,0,0,0,0,0,0,0,-1,1483,1128,0,0
266,-104,0,0,0,0,0,0,0,0,0,-1,1490,1128,0,0
273,-104,0,0,0,0,0,0,0,0,0,-1,1497,1128,0,0
280,-104,0,0,0,0,0,0,0,0,0,-1,1504,1128,0,0
287,-104,0,0,0,0,0,0,0,0,0,-1,1511,1128,0,0
294,-104,0,0,0,0,0,0,0,0,0,-1,1518,1128,0,0
301,-104,0,0,0,0,0,0,0,0,0,-1,1525,1128,0,0
308,-104,0,0,0,0,0,0,0,0,0,-1,1532,1128,0,0
315,-104,0,0,0,0,0,0,0,0,0,-1,1539,1128,0,0
322,-104,0,0,0,0,0,0,0,0,0,-1,1546,1128,0,0
329,-104,0,0,0,0,0,0,0,0,0,-1,1553,1128,0,0
336,-104,0,0,0,0,0,0,0,0,0,-1,1560,1128,0,0
343,-104,0,0,0,0,0,0,0,0,0,-1,1567,1128,0,0
350,-104,0,0,0,0,0,0,0,0,0,-1,1574,1128,0,0
357,-104,0,0,0,0,0,0,0,0,0,-1,1581,1128,0,0
364,-104,0,0,0,0,0,0,0,0,0,-1,1588,1128,0,0
371,-104,0,0,0,0,0,0,0,0,0,-1,1595,1128,0,0
378,-104,0,0,0,0,0,0,0,0,0,-1,1602,1128,0,0
385,-104,0,0,0,0,0,0,0,0,0,-1,1609,1128,0,0
392,-104,0,0,0,0,0,0,0,0,0,-1,1616,1128,0,0
399,-104,0,0,0,0,0,0,0,0,0,-1,1623,1128,0,0
406,-104,0,0,0,0,0,0,0,0,0,-1,1630,1128,0,0
413,-104,0,0,0,0,0,0,0,0,0,-1,1637,1128,0,0
420,-104,0,0,0,0,0,0,0,0,0,-1,1644,1128,0,0
427,-104,0,0,0,0,0,0,0,0,0,-1,1651,1128,0,0
434,-104,0,0,0,0,0,0,0,0,0,-1,1658,1128,0,0
441,-104,0,0,0,0,0,0,0,0,0,-1,1665,1128,0,0
448,-104,0,0,0,0,0,0,0,0,0,-1,1672,1128,0,0
455,-104,0,0,0,0,0,0,0,0,0,-1,1679,1128,0,0
462,-104,0,0,0,0,0,0,0,0,0,-1,1686,1128,0,0
469,-104,0,0,0,0,0,0,0,0,0,-1,1693,1128,0,0
476,-104,0,0,0,0,0,0,0,0,0,-1,1700,1128,0,0
483,-104,0,0,0,0,0,0,0,0,0,-1,1707,1128,0,0
490,-104,0,0,0,0,0,0,0,0,0,-1,1714,1128,0,0
497,-104,0,0,0,0,0,0,0,0,0,-1,1721,1128,0,0
504,-104,0,0,0,0,0,0,0,0,0,-1,1728,1128,0,0
511,-104,0,0,0,0,0,0,0,0,0,-1,1735,1128,0,0
518,-104,0,0,0,0,0,0,0,0,0,-1,1742,1128,0,0
525,-104,0,0,0,0,0,0,0,0,0,-1,1749,1128,0,0
532,-104,0,0,0,0,0,0,0,0,0,-1,1756,1128,0,0
539,-104,0,0,0,0,0,0,0,0,0,-1,1763,1128,0,0
546,-104,0,0,0,0,0,0,0,0,0,-1,1770,1128,0,0
553,-104,0,0,0,0,0,0,0,0,0,-1,1777,1128,0,0
560,-104,0,0,0,0,0,0,0,0,0,-1,1784,1128,0,0
567,-104,0,0,0,0,0,0,0,0,0,-1,1791,1128,0,0
574,-104,0,0,0,0,0,0,0,0,0,-1,1798,1128,0,0
581,-104,0,0,0,0,0,0,0,0,0,-1,1805,1128,0,0
588,-104,0,0,0,0,0,0,0,0,0,-1,1812,1128,0,0
595,-104,0,0,0,0,0,0,0,0,0,-1,1819,1128,0,0
602,-104,0,0,0,0,0,0,0,0,0,-1,1826,1128,0,0
609,-104,0,0,0,0,0,0,0,0,0,-1,1833,1128,0,0
616,-104,0,0,0,0,0,0,0,0,0,-1,1840,1128,0,0
623,-104,0,0,0,0,0,0,0,0,0,-1,1847,1128,0,0
630,-104,0,0,0,0,0,0,0,0,0,-1,1854,1128,0,0
637,-104,0,0,0,0,0,0,0,0,0,-1,1861,1128,0,0
644,-104,64.7271,2.72644,0.00237499,-0.00134794,0.00698897,0.00774615,-0.0067191,0.655248,0.00835853,0.0358094,1868,1128,64.7271,-2.72641
651,-104,64.7393,2.72168,0.00148833,-0.000720714,0.00536154,0.00585794,-0.00509032,0.683815,0.00632615,0.0389981,1875,1128,64.7392,-2.72171
658,-104,64.7659,2.86572,0.00108609,-0.000364886,0.00380014,0.00422938,-0.00350817,0.691078,0.00447374,0.0418166,1882,1128,64.7659,-2.86566
665,-104,64.8979,2.76038,0.000782361,-4.99128e-05,0.00239312,0.00279525,-0.0020628,0.699314,0.0028154,0.0430558,1889,1128,64.898,-2.76038
672,-104,64.8823,2.62012,0.00057579,0.00016499,0.00113409,0.00152293,-0.000782151,0.695812,0.00135355,0.0436027,1896,1128,64.8823,-2.62006
679,-104,64.7157,2.78479,0.000387532,0.000111767,0.00020249,0.000494627,4.67262e-06,0.486491,0.000328205,0.0419694,1903,1128,64.7157,-2.78483
686,-104,64.6283,2.85315,0.000590957,-0.000287096,-0.000197358,0.000633277,-0.000329416,-0.211234,0.000564964,0.0396991,1910,1128,64.6283,-2.85319
693,-104,64.6434,2.75354,0.000804236,-0.000633927,-0.00028537,0.000858792,-0.000688483,-0.188895,0.000895121,0.0357494,1917,1128,64.6434,-2.75353
700,-104,64.7123,2.55212,0.000916016,-0.000855969,-0.000246213,0.00094959,-0.000889544,-0.135528,0.00106201,0.0270669,1924,1128,64.7122,-2.55212
707,-104,64.7258,2.57886,0,0,0,0,0,0,0,-1,1931,1128,64.7258,-2.57888
714,-104,45.5221,2.32166,0,0,0,0,0,0,0,-1,1938,1128,45.5221,-2.3216
721,-104,59.6558,8.85608,0,0,0,0,0,0,0,-1,1945,1128,59.6557,-8.85613
728,-104,59.8533,8.25793,0,0,0,0,0,0,0,-1,1952,1128,59.8532,-8.25796
735,-104,60.0109,7.56104,0,0,0,0,0,0,0,-1,1959,1128,60.0108,-7.56101
742,-104,59.7872,7.29126,0.00055231,0.000331253,0.00104798,0.00149557,-0.000612007,0.732858,0.00125195,0.0239701,1966,1128,59.7872,-7.29129
749,-104,59.6726,6.83057,0.000667323,0.00081267,0.00177417,0.00251566,-0.00103566,0.805868,0.00210887,0.0222069,1973,1128,59.6726,-6.83056
756,-104,59.666,6.3175,0.000718505,0.00161996,0.00258101,0.00378931,-0.00145084,0.871843,0.0031242,0.0177892,1980,1128,59.666,-6.31746
763,-104,59.6006,5.85413,0.0010919,0.00192197,0.00346253,0.00499425,-0.00198038,0.845046,0.00415023,0.0194424,1987,1128,59.6006,-5.85412
770,-104,59.55,5.43616,0.00185635,0.00185944,0.00474351,0.0066014,-0.00288561,0.785561,0.00561563,0.0172423,1994,1128,59.5501,-5.43616
777,-104,59.4417,4.91528,0.00267621,0.00113674,0.0065935,0.00854475,-0.0047318,0.72729,0.00776988,0.0251423,2001,1128,59.4417,-4.91523
784,-104,59.3665,4.28333,0.00330888,-0.000362273,0.00906988,0.0107271,-0.00778046,0.685556,0.0107304,0.0417713,2008,1128,59.3666,-4.28328
791,-104,59.4089,3.67114,0.00362219,-0.00291966,0.0124081,0.0131833,-0.0124807,0.656524,0.014819,0.0441069,2015,1128,59.4089,-3.67116
798,-104,59.522,3.07104,0,0,0,0,0,0,0,-1,2022,1128,59.522,-3.07101
805,-104,59.6494,2.58093,0,0,0,0,0,0,0,-1,2029,1128,59.6495,-2.58092
812,-104,62.3596,2.30432,0,0,0,0,0,0,0,-1,2036,1128,62.3596,-2.30429
-700,-111,0,0,0,0,0,0,0,0,0,-1,524,1135,0,0
-693,-111,-45.666,-1.26343,0,0,0,0,0,0,0,-1,531,1135,-45.666,1.26343
-686,-111,-45.3287,-0.376953,0.0340981,0.0224351,0.0629878,0.0915238,-0.0349906,0.739239,0.0754348,0.0499432,538,1135,-45.3287,0.376946
-679,-111,-45.2249,0.445557,0.0353743,0.0225397,0.0562708,0.0855926,-0.0276786,0.728622,0.0681869,0.0470781,545,1135,-45.2249,-0.445578
-672,-111,-45.198,1.51257,0.0334963,0.0212402,0.0482483,0.0760042,-0.0212676,0.722231,0.0590494,0.0481877,552,1135,-45.198,-1.51263
-665,-111,-45.1595,2.58606,0,0,0,0,0,0,0,-1,559,1135,-45.1595,-2.58609
-658,-111,-43.8883,1.45007,0,0,0,0,0,0,0,-1,566,1135,-43.8883,-1.45009
-651,-111,-43.5544,1.94604,0.0195316,0.0138663,0.0241011,0.0409659,-0.00756803,0.7269,0.0301516,0.048761,573,1135,-43.5544,-1.9461
-644,-111,-43.4164,2.5564,0.0145104,0.0109573,0.0172143,0.0300396,-0.00457193,0.733979,0.0217114,0.02862,580,1135,-43.4164,-2.55634
-637,-111,-43.5306,3.09766,0.00991043,0.00815345,0.0110657,0.0201325,-0.00206862,0.745787,0.0141617,0.0123028,587,1135,-43.5306,-3.09767
-630,-111,-43.5623,3.52856,0.00579229,0.00515168,0.00555167,0.0110329,-8.89157e-05,0.756582,0.00738507,0.0251376,594,1135,-43.5623,-3.52853
-623,-111,-43.5892,4.12061,0.00227278,0.0023886,0.00146097,0.0037928,0.000868579,0.805205,0.00229448,0.020795,601,1135,-43.5892,-4.12062
-616,-111,-43.928,4.68201,0.000773109,0.000252983,-0.000323848,0.00092839,9.77017e-05,-0.447102,0.000589066,0.0239535,608,1135,-43.928,-4.68199
-609,-111,-44.1699,5.16418,0.000192975,-0.000903131,-0.000144443,0.00021169,-0.000921846,-0.128848,0.000695943,0.0332817,615,1135,-44.1699,-5.16413
-602,-111,-44.0383,5.75525,-0.000268055,-0.0015186,0.000335641,-0.000183666,-0.00160299,0.246322,0.00101301,0.0416371,622,1135,-44.0384,-5.75523
-595,-111,-43.7374,6.35461,-0.000914294,-0.00175154,0.000158412,-0.000885324,-0.00178051,0.180879,0.00102798,0.0215404,629,1135,-43.7374,-6.35464
-588,-111,-43.3991,7.09583,0,0,0,0,0,0,0,-1,636,1135,-43.3991,-7.09584
-581,-111,-21.0555,3.14551,0,0,0,0,0,0,0,-1,643,1135,-21.0555,-3.14548
-574,-111,-48.9011,0.814819,0,0,0,0,0,0,0,-1,650,1135,-48.901,-0.814823
-567,-111,-48.7982,0.629517,0.000700178,-0.00208211,0.000454445,0.000772523,-0.00215446,0.157871,0.00175155,0.0394827,657,1135,-48.7981,-0.629531
-560,-111,-48.8773,0.838867,0.0013928,-0.00202513,0.000625566,0.00150369,-0.00213602,0.175451,0.00211193,0.0392996,664,1135,-48.8773,-0.838857
-553,-111,-49.3317,1.21582,0,0,0,0,0,0,0,-1,671,1135,-49.3317,-1.21586
-546,-111,-49.0734,0.999634,0.00188764,-0.00118092,-0.000671947,0.00202833,-0.00132161,-0.206396,0.00194838,0.0407718,678,1135,-49.0735,-0.999631
-539,-111,-48.8876,0.996338,0.00364107,-0.00092797,-0.00235917,0.00464056,-0.00192746,-0.400737,0.0038984,0.0413194,685,1135,-48.8876,-0.996285
-532,-111,-48.9991,1.06616,0.00598028,-0.000925514,-0.00437889,0.00810386,-0.0030491,-0.451543,0.00665596,0.0430563,692,1135,-48.9991,-1.06614
-525,-111,-49.0784,0.981323,0.00829773,-0.00111415,-0.00645654,0.0115813,-0.00439775,-0.47048,0.00953122,0.0423953,699,1135,-49.0784,-0.981341
-518,-111,0,0,0,0,0,0,0,0,0,-1,706,1135,0,0
-511,-111,0,0,0,0,0,0,0,0,0,-1,713,1135,0,0
-504,-111,0,0,0,0,0,0,0,0,0,-1,720,1135,0,0
-497,-111,0,0,0,0,0,0,0,0,0,-1,727,1135,0,0
-490,-111,0,0,0,0,0,0,0,0,0,-1,734,1135,0,0
-483,-111,0,0,0,0,0,0,0,0,0,-1,741,1135,0,0
-476,-111,0,0,0,0,0,0,0,0,0,-1,748,1135,0,0
-469,-111,0,0,0,0,0,0,0,0,0,-1,755,1135,0,0
-462,-111,0,0,0,0,0,0,0,0,0,-1,762,1135,0,0
-455,-111,0,0,0,0,0,0,0,0,0,-1,769,1135,0,0
-448,-111,0,0,0,0,0,0,0,0,0,-1,776,1135,0,0
-441,-111,0,0,0,0,0,0,0,0,0,-1,783,1135,0,0
-434,-111,0,0,0,0,0,0,0,0,0,-1,790,1135,0,0
-427,-111,0,0,0,0,0,0,0,0,0,-1,797,1135,0,0
-420,-111,0,0,0,0,0,0,0,0,0,-1,804,1135,0,0
-413,-111,0,0,0,0,0,0,0,0,0,-1,811,1135,0,0
-406,-111,0,0,0,0,0,0,0,0,0,-1,818,1135,0,0
-399,-111,0,0,0,0,0,0,0,0,0,-1,825,1135,0,0
-392,-111,0,0,0,0,0,0,0,0,0,-1,832,1135,0,0
-385,-111,0,0,0,0,0,0,0,0,0,-1,839,1135,0,0
-378,-111,0,0,0,0,0,0,0,0,0,-1,846,1135,0,0
-371,-111,0,0,0,0,0,0,0,0,0,-1,853,1135,0,0
-364,-111,0,0,0,0,0,0,0,0,0,-1,860,1135,0,0
-357,-111,0,0,0,0,0,0,0,0,0,-1,867,1135,0,0
-350,-111,0,0,0,0,0,0,0,0,0,-1,874,1135,0,0
-343,-111,0,0,0,0,0,0,0,0,0,-1,881,1135,0,0
-336,-111,0,0,0,0,0,0,0,0,0,-1,888,1135,0,0
-329,-111,0,0,0,0,0,0,0,0,0,-1,895,1135,0,0
-322,-111,0,0,0,0,0,0,0,0,0,-1,902,1135,0,0
-315,-111,0,0,0,0,0,0,0,0,0,-1,909,1135,0,0
-308,-111,0,0,0,0,0,0,0,0,0,-1,916,1135,0,0
-301,-111,0,0,0,0,0,0,0,0,0,-1,923,1135,0,0
-294,-111,0,0,0,0,0,0,0,0,0,-1,930,1135,0,0
-287,-111,0,0,0,0,0,0,0,0,0,-1,937,1135,0,0
-280,-111,0,0,0,0,0,0,0,0,0,-1,944,1135,0,0
-273,-111,0,0,0,0,0,0,0,0,0,-1,951,1135,0,0
-266,-111,0,0,0,0,0,0,0,0,0,-1,958,1135,0,0
-259,-111,0,0,0,0,0,0,0,0,0,-1,965,1135,0,0
-252,-111,0,0,0,0,0,0,0,0,0,-1,972,1135,0,0
-245,-111,0,0,0,0,0,0,0,0,0,-1,979,1135,0,0
-238,-111,0,0,0,0,0,0,0,0,0,-1,986,1135,0,0
-231,-111,0,0,0,0,0,0,0,0,0,-1,993,1135,0,0
-224,-111,0,0,0,0,0,0,0,0,0,-1,1000,1135,0,0
-217,-111,0,0,0,0,0,0,0,0,0,-1,1007,1135,0,0
-210,-111,0,0,0,0,0,0,0,0,0,-1,1014,1135,0,0
-203,-111,0,0,0,0,0,0,0,0,0,-1,1021,1135,0,0
-196,-111,0,0,0,0,0,0,0,0,0,-1,1028,1135,0,0
-189,-111,0,0,0,0,0,0,0,0,0,-1,1035,1135,0,0
-182,-111,0,0,0,0,0,0,0,0,0,-1,1042,1135,0,0
-175,-111,0,0,0,0,0,0,0,0,0,-1,1049,1135,0,0
-168,-111,0,0,0,0,0,0,0,0,0,-1,1056,1135,0,0
-161,-111,0,0,0,0,0,0,0,0,0,-1,1063,1135,0,0
-154,-111,0,0,0,0,0,0,0,0,0,-1,1070,1135,0,0
-147,-111,0,0,0,0,0,0,0,0,0,-1,1077,1135,0,0
-140,-111,0,0,0,0,0,0,0,0,0,-1,1084,1135,0,0
-133,-111,0,0,0,0,0,0,0,0,0,-1,1091,1135,0,0
-126,-111,0,0,0,0,0,0,0,0,0,-1,1098,1135,0,0
-119,-111,0,0,0,0,0,0,0,0,0,-1,1105,1135,0,0
-112,-111,0,0,0,0,0,0,0,0,0,-1,1112,1135,0,0
-105,-111,0,0,0,0,0,0,0,0,0,-1,1119,1135,0,0
-98,-111,0,0,0,0,0,0,0,0,0,-1,1126,1135,0,0
-91,-111,0,0,0,0,0,0,0,0,0,-1,1133,1135,0,0
-84,-111,0,0,0,0,0,0,0,0,0,-1,1140,1135,0,0
-77,-111,0,0,0,0,0,0,0,0,0,-1,1147,1135,0,0
-70,-111,0,0,0,0,0,0,0,0,0,-1,1154,1135,0,0
-63,-111,0,0,0,0,0,0,0,0,0,-1,1161,1135,0,0
-56,-111,0,0,0,0,0,0,0,0,0,-1,1168,1135,0,0
-49,-111,0,0,0,0,0,0,0,0,0,-1,1175,1135,0,0
-42,-111,0,0,0,0,0,0,0,0,0,-1,1182,1135,0,0
-35,-111,0,0,0,0,0,0,0,0,0,-1,1189,1135,0,0
-28,-111,0,0,0,0,0,0,0,0,0,-1,1196,1135,0,0
-21,-111,0,0,0,0,0,0,0,0,0,-1,1203,1135,0,0
-14,-111,0,0,0,0,0,0,0,0,0,-1,1210,1135,0,0
-7,-111,0,0,0,0,0,0,0,0,0,-1,1217,1135,0,0
0,-111,0,0,0,0,0,0,0,0,0,-1,1224,1135,0,0
7,-111,0,0,0,0,0,0,0,0,0,-1,1231,1135,0,0
14,-111,0,0,0,0,0,0,0,0,0,-1,1238,1135,0,0
21,-111,0,0,0,0,0,0,0,0,0,-1,1245,1135,0,0
28,-111,0,0,0,0,0,0,0,0,0,-1,1252,1135,0,0
35,-111,0,0,0,0,0,0,0,0,0,-1,1259,1135,0,0
42,-111,0,0,0,0,0,0,0,0,0,-1,1266,1135,0,0
49,-111,0,0,0,0,0,0,0,0,0,-1,1273,1135,0,0
56,-111,0,0,0,0,0,0,0,0,0,-1,1280,1135,0,0
63,-111,0,0,0,0,0,0,0,0,0,-1,1287,1135,0,0
70,-111,0,0,0,0,0,0,0,0,0,-1,1294,1135,0,0
77,-111,0,0,0,0,0,0,0,0,0,-1,1301,1135,0,0
84,-111,0,0,0,0,0,0,0,0,0,-1,1308,1135,0,0
91,-111,0,0,0,0,0,0,0,0,0,-1,1315,1135,0,0
98,-111,0,0,0,0,0,0,0,0,0,-1,1322,1135,0,0
105,-111,0,0,0,0,0,0,0,0,0,-1,1329,1135,0,0
112,-111,0,0,0,0,0,0,0,0,0,-1,1336,1135,0,0
119,-111,0,0,0,0,0,0,0,0,0,-1,1343,1135,0,0
126,-111,0,0,0,0,0,0,0,0,0,-1,1350,1135,0,0
133,-111,0,0,0,0,0,0,0,0,0,-1,1357,1135,0,0
140,-111,0,0,0,0,0,0,0,0,0,-1,1364,1135,0,0
147,-111,0,0,0,0,0,0,0,0,0,-1,1371,1135,0,0
154,-111,0,0,0,0,0,0,0,0,0,-1,1378,1135,0,0
161,-111,0,0,0,0,0,0,0,0,0,-1,1385,1135,0,0
168,-111,0,0,0,0,0,0,0,0,0,-1,1392,1135,0,0
175,-111,0,0,0,0,0,0,0,0,0,-1,1399,1135,0,0
182,-111,0,0,0,0,0,0,0,0,0,-1,1406,1135,0,0
189,-111,0,0,0,0,0,0,0,0,0,-1,1413,1135,0,0
196,-111,0,0,0,0,0,0,0,0,0,-1,1420,1135,0,0
203,-111,0,0,0,0,0,0,0,0,0,-1,1427,1135,0,0
210,-111,0,0,0,0,0,0,0,0,0,-1,1434,1135,0,0
217,-111,0,0,0,0,0,0,0,0,0,-1,1441,1135,0,0
224,-111,0,0,0,0,0,0,0,0,0,-1,1448,1135,0,0
231,-111,0,0,0,0,0,0,0,0,0,-1,1455,1135,0,0
238,-111,0,0,0,0,0,0,0,0,0,-1,1462,1135,0,0
245,-111,0,0,0,0,0,0,0,0,0,-1,1469,1135,0,0
252,-111,0,0,0,0,0,0,0,0,0,-1,1476,1135,0,0
259,-111,0,0,0,0,0,0,0,0,0,-1,1483,1135,0,0
266,-111,0,0,0,0,0,0,0,0,0,-1,1490,1135,0,0
273,-111,0,0,0,0,0,0,0,0,0,-1,1497,1135,0,0
280,-111,0,0,0,0,0,0,0,0,0,-1,1504,1135,0,0
287,-111,0,0,0,0,0,0,0,0,0,-1,1511,1135,0,0
294,-111,0,0,0,0,0,0,0,0,0,-1,1518,1135,0,0
301,-111,0,0,0,0,0,0,0,0,0,-1,1525,1135,0,0
308,-111,0,0,0,0,0,0,0,0,0,-1,1532,1135,0,0
315,-111,0,0,0,0,0,0,0,0,0,-1,1539,1135,0,0
322,-111,0,0,0,0,0,0,0,0,0,-1,1546,1135,0,0
329,-111,0,0,0,0,0,0,0,0,0,-1,1553,1135,0,0
336,-111,0,0,0,0,0,0,0,0,0,-1,1560,1135,0,0
343,-111,0,0,0,0,0,0,0,0,0,-1,1567,1135,0,0
350,-111,0,0,0,0,0,0,0,0,0,-1,1574,1135,0,0
357,-111,0,0,0,0,0,0,0,0,0,-1,1581,1135,0,0
364,-111,0,0,0,0,0,0,0,0,0,-1,1588,1135,0,0
371,-111,0,0,0,0,0,0,0,0,0,-1,1595,1135,0,0
378,-111,0,0,0,0,0,0,0,0,0,-1,1602,1135,0,0
385,-111,0,0,0,0,0,0,0,0,0,-1,1609,1135,0,0
392,-111,0,0,0,0,0,0,0,0,0,-1,1616,1135,0,0
399,-111,0,0,0,0,0,0,0,0,0,-1,1623,1135,0,0
406,-111,0,0,0,0,0,0,0,0,0,-1,1630,1135,0,0
413,-111,0,0,0,0,0,0,0,0,0,-1,1637,1135,0,0
420,-111,0,0,0,0,0,0,0,0,0,-1,1644,1135,0,0
427,-111,0,0,0,0,0,0,0,0,0,-1,1651,1135,0,0
434,-111,0,0,0,0,0,0,0,0,0,-1,1658,1135,0,0
441,-111,0,0,0,0,0,0,0,0,0,-1,1665,1135,0,0
448,-111,0,0,0,0,0,0,0,0,0,-1,1672,1135,0,0
455,-111,0,0,0,0,0,0,0,0,0,-1,1679,1135,0,0
462,-111,0,0,0,0,0,0,0,0,0,-1,1686,1135,0,0
469,-111,0,0,0,0,0,0,0,0,0,-1,1693,1135,0,0
476,-111,0,0,0,0,0,0,0,0,0,-1,1700,1135,0,0
483,-111,0,0,0,0,0,0,0,0,0,-1,1707,1135,0,0
490,-111,0,0,0,0,0,0,0,0,0,-1,1714,1135,0,0
497,-111,0,0,0,0,0,0,0,0,0,-1,1721,1135,0,0
504,-111,0,0,0,0,0,0,0,0,0,-1,1728,1135,0,0
511,-111,0,0,0,0,0,0,0,0,0,-1,1735,1135,0,0
518,-111,0,0,0,0,0,0,0,0,0,-1,1742,1135,0,0
525,-111,0,0,0,0,0,0,0,0,0,-1,1749,1135,0,0
532,-111,0,0,0,0,0,0,0,0,0,-1,1756,1135,0,0
539,-111,0,0,0,0,0,0,0,0,0,-1,1763,1135,0,0
546,-111,0,0,0,0,0,0,0,0,0,-1,1770,1135,0,0
553,-111,0,0,0,0,0,0,0,0,0,-1,1777,1135,0,0
560,-111,0,0,0,0,0,0,0,0,0,-1,1784,1135,0,0
567,-111,0,0,0,0,0,0,0,0,0,-1,1791,1135,0,0
574,-111,0,0,0,0,0,0,0,0,0,-1,1798,1135,0,0
581,-111,0,0,0,0,0,0,0,0,0,-1,1805,1135,0,0
588,-111,0,0,0,0,0,0,0,0,0,-1,1812,1135,0,0
595,-111,0,0,0,0,0,0,0,0,0,-1,1819,1135,0,0
602,-111,0,0,0,0,0,0,0,0,0,-1,1826,1135,0,0
609,-111,0,0,0,0,0,0,0,0,0,-1,1833,1135,0,0
616,-111,0,0,0,0,0,0,0,0,0,-1,1840,1135,0,0
623,-111,0,0,0,0,0,0,0,0,0,-1,1847,1135,0,0
630,-111,0,0,0,0,0,0,0,0,0,-1,1854,1135,0,0
637,-111,0,0,0,0,0,0,0,0,0,-1,1861,1135,0,0
644,-111,64.6332,2.69141,0.00195089,-0.000306366,0.00638482,0.00730607,-0.00566154,0.697918,0.0075069,0.0395613,1868,1135,64.6332,-2.69143
651,-111,64.6641,2.73547,0.00131402,0.000137113,0.00497088,0.00573116,-0.00428003,0.726482,0.00580017,0.04173,1875,1135,64.6641,-2.73542
658,-111,64.8594,2.85876,0.00104804,0.000356684,0.00356093,0.00428003,-0.00287531,0.737012,0.00415759,0.0452577,1882,1135,64.8594,-2.85882
665,-111,65.0116,2.74451,0.000837556,0.00055162,0.0022475,0.00294663,-0.00155746,0.753635,0.00264134,0.0417778,1889,1135,65.0116,-2.7445
672,-111,64.8798,2.56238,0.000681229,0.000634634,0.00105884,0.00171703,-0.000401163,0.774399,0.00129922,0.0427371,1896,1135,64.8797,-2.5624
679,-111,64.6908,2.59717,0.000529094,0.000434962,0.000217969,0.00070502,0.000259035,0.679066,0.000411786,0.0426407,1903,1135,64.6908,-2.59722
686,-111,64.6742,2.84888,0.000757389,-9.97804e-05,-0.000135043,0.000778161,-0.000120553,-0.152622,0.000563275,0.0400784,1910,1135,64.6742,-2.84892
693,-111,64.6682,2.75891,0.00093073,-0.000512471,-0.000185001,0.000954068,-0.000535808,-0.125486,0.000871406,0.0366491,1917,1135,64.6682,-2.75891
700,-111,64.7507,2.59851,0.00100294,-0.000786878,-0.000130359,0.00101238,-0.000796323,-0.072325,0.00104674,0.0263689,1924,1135,64.7508,-2.59845
707,-111,64.7653,2.66418,0,0,0,0,0,0,0,-1,1931,1135,64.7652,-2.66423
714,-111,45.1654,7.39746,0,0,0,0,0,0,0,-1,1938,1135,45.1654,-7.39745
721,-111,59.176,8.96484,0,0,0,0,0,0,0,-1,1945,1135,59.176,-8.96479
728,-111,59.2769,8.29602,0.00039671,-0.000691909,0.000829392,0.000844451,-0.00113965,0.495011,0.00114974,0.0257603,1952,1135,59.2768,-8.29603
735,-111,59.3295,7.81189,0.000733743,-0.000529046,0.000737784,0.00107342,-0.000868725,0.431473,0.00112337,0.0286674,1959,1135,59.3295,-7.81188
742,-111,59.2422,7.36768,0.000711034,-5.4318e-05,0.00104437,0.00144063,-0.000783912,0.609785,0.00130286,0.0189539,1966,1135,59.2422,-7.36771
749,-111,59.1658,6.8396,0.000762528,0.000499211,0.00180736,0.00244302,-0.00118128,0.749039,0.00213434,0.0196246,1973,1135,59.1657,-6.83962
756,-111,59.1345,6.32446,0.00084652,0.00138806,0.00271696,0.0038477,-0.00161313,0.835064,0.0032396,0.017979,1980,1135,59.1346,-6.32451
763,-111,59.1,5.86108,0.00132178,0.00185797,0.00392621,0.00552523,-0.00234548,0.819487,0.00466613,0.0172981,1987,1135,59.0999,-5.86104
770,-111,59.0693,5.38562,0.00212042,0.00196867,0.00566662,0.00771167,-0.00362259,0.778704,0.00668428,0.0148511,1994,1135,59.0692,-5.3856
777,-111,58.8801,4.85522,0.00292131,0.00148565,0.00809753,0.0103328,-0.00592581,0.74119,0.00950114,0.0281088,2001,1135,58.88,-4.85518
784,-111,58.8301,4.14502,0.00348352,0.000288264,0.0113465,0.0133443,-0.00957256,0.715456,0.0132907,0.043118,2008,1135,58.83,-4.14496
791,-111,58.8777,3.41821,0,0,0,0,0,0,0,-1,2015,1135,58.8776,-3.41819
798,-111,60.2764,1.62085,0.00320112,-0.00523722,0.0216572,0.0210463,-0.0230824,0.689195,0.0254867,0.0493285,2022,1135,60.2763,-1.62079
805,-111,61.2715,2.43237,0.00134932,-0.0100321,0.0295454,0.0257471,-0.0344298,0.690259,0.0348635,0.0448567,2029,1135,61.2714,-2.43241
812,-111,60.9092,2.35938,-0.00302211,-0.0165471,0.0401523,0.0309332,-0.0505024,0.70197,0.0474672,0.0451242,2036,1135,60.9091,-2.35937
-700,-118,0,0,0,0,0,0,0,0,0,-1,524,1142,0,0
-693,-118,-45.5179,-1.18164,0,0,0,0,0,0,0,-1,531,1142,-45.5179,1.18167
-686,-118,-45.6205,-0.552002,0.0301692,0.0338519,0.0675139,0.0995495,-0.0355285,0.799032,0.0808544,0.0474331,538,1142,-45.6205,0.552043
-679,-118,-45.5779,0.128052,0.0316403,0.0318508,0.0594575,0.0912031,-0.027712,0.786283,0.0718436,0.0439486,545,1142,-45.5779,-0.128029
-672,-118,-45.394,1.07715,0.0301677,0.0287133,0.0504618,0.0799075,-0.0210266,0.778193,0.0614908,0.047832,552,1142,-45.394,-1.07713
-665,-118,-45.1829,1.97913,0,0,0,0,0,0,0,-1,559,1142,-45.1829,-1.97908
-658,-118,-42.2225,0.536255,0,0,0,0,0,0,0,-1,566,1142,-42.2225,-0.536209
-651,-118,-42.4807,1.97998,0,0,0,0,0,0,0,-1,573,1142,-42.4807,-1.97997
-644,-118,-42.7546,2.55994,0.013187,0.0132697,0.0173664,0.0305948,-0.00413809,0.78659,0.0219065,0.0348692,580,1142,-42.7546,-2.55989
-637,-118,-42.9551,3.12866,0.00882618,0.00959175,0.0109165,0.0201322,-0.00171428,0.802923,0.0140279,0.0185506,587,1142,-42.9551,-3.12861
-630,-118,-43.0015,3.61316,0.00489992,0.00584739,0.00520019,0.0105954,0.000151929,0.830823,0.00701349,0.0257696,594,1142,-43.0015,-3.61316
-623,-118,-42.9772,4.16846,0.00144088,0.00246846,0.000971274,0.00305347,0.000855874,1.02868,0.00181877,0.020521,601,1142,-42.9772,-4.16844
-616,-118,-43.1412,4.69556,-5.38639e-05,7.85292e-05,-0.000553271,0.000569549,-0.000544884,-0.844938,0.000643471,0.0299968,608,1142,-43.1413,-4.69553
-609,-118,-43.6217,5.1427,0,0,0,0,0,0,0,-1,615,1142,-43.6217,-5.14267
-602,-118,-43.2668,5.90149,0,0,0,0,0,0,0,-1,622,1142,-43.2668,-5.90143
-595,-118,-43.4587,6.80713,0,0,0,0,0,0,0,-1,629,1142,-43.4587,-6.80709
-588,-118,-41.8083,7.09595,0,0,0,0,0,0,0,-1,636,1142,-41.8084,-7.09595
-581,-118,-24.6116,3.89648,0,0,0,0,0,0,0,-1,643,1142,-24.6116,-3.89645
-574,-118,-48.779,0.397339,0,0,0,0,0,0,0,-1,650,1142,-48.779,-0.397336
-567,-118,-48.8198,0.696167,-0.000313171,-0.00184943,0.000153199,-0.000298043,-0.00186456,0.0984304,0.00115656,0.0437202,657,1142,-48.8198,-0.696182
-560,-118,-48.9095,0.925903,0.000477385,-0.0018616,0.000455555,0.00056298,-0.00194719,0.185725,0.00152093,0.0357981,664,1142,-48.9095,-0.925886
-553,-118,-48.9846,1.01868,0.000749891,-0.00152523,1.95656e-05,0.000750059,-0.0015254,0.00859897,0.00133892,0.0380199,671,1142,-48.9846,-1.01873
-546,-118,-48.8048,0.824219,0.00135709,-0.00109435,-0.000775979,0.00158207,-0.00131933,-0.282194,0.00167741,0.0415186,678,1142,-48.8048,-0.824236
-539,-118,-48.8105,1.07678,0.00323016,-0.000949597,-0.00241372,0.00433303,-0.00205246,-0.428591,0.00376423,0.0424994,685,1142,-48.8105,-1.07679
-532,-118,-48.9505,1.07593,0.00580677,-0.00115716,-0.00435065,0.00789726,-0.00324765,-0.447926,0.00661854,0.0406954,692,1142,-48.9505,-1.07594
-525,-118,-49.0265,0.8396,0.00832649,-0.00158641,-0.00622165,0.0113246,-0.00458454,-0.449052,0.00945594,0.042801,699,1142,-49.0265,-0.839557
-518,-118,0,0,0,0,0,0,0,0,0,-1,706,1142,0,0
-511,-118,0,0,0,0,0,0,0,0,0,-1,713,1142,0,0
-504,-118,0,0,0,0,0,0,0,0,0,-1,720,1142,0,0
-497,-118,0,0,0,0,0,0,0,0,0,-1,727,1142,0,0
-490,-118,0,0,0,0,0,0,0,0,0,-1,734,1142,0,0
-483,-118,0,0,0,0,0,0,0,0,0,-1,741,1142,0,0
-476,-118,0,0,0,0,0,0,0,0,0,-1,748,1142,0,0
-469,-118,0,0,0,0,0,0,0,0,0,-1,755,1142,0,0
-462,-118,0,0,0,0,0,0,0,0,0,-1,762,1142,0,0
-455,-118,0,0,0,0,0,0,0,0,0,-1,769,1142,0,0
-448,-118,0,0,0,0,0,0,0,0,0,-1,776,1142,0,0
-441,-118,0,0,0,0,0,0,0,0,0,-1,783,1142,0,0
-434,-118,0,0,0,0,0,0,0,0,0,-1,790,1142,0,0
-427,-118,0,0,0,0,0,0,0,0,0,-1,797,1142,0,0
-420,-118,0,0,0,0,0,0,0,0,0,-1,804,1142,0,0
-413,-118,0,0,0,0,0,0,0,0,0,-1,811,1142,0,0
-406,-118,0,0,0,0,0,0,0,0,0,-1,818,1142,0,0
-399,-118,0,0,0,0,0,0,0,0,0,-1,825,1142,0,0
-392,-118,0,0,0,0,0,0,0,0,0,-1,832,1142,0,0
-385,-118,0,0,0,0,0,0,0,0,0,-1,839,1142,0,0
-378,-118,0,0,0,0,0,0,0,0,0,-1,846,1142,0,0
-371,-118,0,0,0,0,0,0,0,0,0,-1,853,1142,0,0
-364,-118,0,0,0,0,0,0,0,0,0,-1,860,1142,0,0
-357,-118,0,0,0,0,0,0,0,0,0,-1,867,1142,0,0
-350,-118,0,0,0,0,0,0,0,0,0,-1,874,1142,0,0
-343,-118,0,0,0,0,0,0,0,0,0,-1,881,1142,0,0
-336,-118,0,0,0,0,0,0,0,0,0,-1,888,1142,0,0
-329,-118,0,0,0,0,0,0,0,0,0,-1,895,1142,0,0
-322,-118,0,0,0,0,0,0,0,0,0,-1,902,1142,0,0
-315,-118,0,0,0,0,0,0,0,0,0,-1,909,1142,0,0
-308,-118,0,0,0,0,0,0,0,0,0,-1,916,1142,0,0
-301,-118,0,0,0,0,0,0,0,0,0,-1,923,1142,0,0
-294,-118,0,0,0,0,0,0,0,0,0,-1,930,1142,0,0
-287,-118,0,0,0,0,0,0,0,0,0,-1,937,1142,0,0
-280,-118,0,0,0,0,0,0,0,0,0,-1,944,1142,0,0
-273,-118,0,0,0,0,0,0,0,0,0,-1,951,1142,0,0
-266,-118,0,0,0,0,0,0,0,0,0,-1,958,1142,0,0
-259,-118,0,0,0,0,0,0,0,0,0,-1,965,1142,0,0
-252,-118,0,0,0,0,0,0,0,0,0,-1,972,1142,0,0
-245,-118,0,0,0,0,0,0,0,0,0,-1,979,1142,0,0
-238,-118,0,0,0,0,0,0,0,0,0,-1,986,1142,0,0
-231,-118,0,0,0,0,0,0,0,0,0,-1,993,1142,0,0
-224,-118,0,0,0,0,0,0,0,0,0,-1,1000,1142,0,0
-217,-118,0,0,0,0,0,0,0,0,0,-1,1007,1142,0,0
-210,-118,0,0,0,0,0,0,0,0,0,-1,1014,1142,0,0
-203,-118,0,0,0,0,0,0,0,0,0,-1,1021,1142,0,0
-196,-118,0,0,0,0,0,0,0,0,0,-1,1028,1142,0,0
-189,-118,0,0,0,0,0,0,0,0,0,-1,1035,1142,0,0
-182,-118,0,0,0,0,0,0,0,0,0,-1,1042,1142,0,0
-175,-118,0,0,0,0,0,0,0,0,0,-1,1049,1142,0,0
-168,-118,0,0,0,0,0,0,0,0,0,-1,1056,1142,0,0
-161,-118,0,0,0,0,0,0,0,0,0,-1,1063,1142,0,0
-154,-118,0,0,0,0,0,0,0,0,0,-1,1070,1142,0,0
-147,-118,0,0,0,0,0,0,0,0,0,-1,1077,1142,0,0
-140,-118,0,0,0,0,0,0,0,0,0,-1,1084,1142,0,0
-133,-118,0,0,0,0,0,0,0,0,0,-1,1091,1142,0,0
-126,-118,0,0,0,0,0,0,0,0,0,-1,1098,1142,0,0
-119,-118,0,0,0,0,0,0,0,0,0,-1,1105,1142,0,0
-112,-118,0,0,0,0,0,0,0,0,0,-1,1112,1142,0,0
-105,-118,0,0,0,0,0,0,0,0,0,-1,1119,1142,0,0
-98,-118,0,0,0,0,0,0,0,0,0,-1,1126,1142,0,0
-91,-118,0,0,0,0,0,0,0,0,0,-1,1133,1142,0,0
-84,-118,0,0,0,0,0,0,0,0,0,-1,1140,1142,0,0
-77,-118,0,0,0,0,0,0,0,0,0,-1,1147,1142,0,0
-70,-118,0,0,0,0,0,0,0,0,0,-1,1154,1142,0,0
-63,-118,0,0,0,0,0,0,0,0,0,-1,1161,1142,0,0
-56,-118,0,0,0,0,0,0,0,0,0,-1,1168,1142,0,0
-49,-118,0,0,0,0,0,0,0,0,0,-1,1175,1142,0,0
-42,-118,0,0,0,0,0,0,0,0,0,-1,1182,1142,0,0
-35,-118,0,0,0,0,0,0,0,0,0,-1,1189,1142,0,0
-28,-118,0,0,0,0,0,0,0,0,0,-1,1196,1142,0,0
-21,-118,0,0,0,0,0,0,0,0,0,-1,1203,1142,0,0
-14,-118,0,0,0,0,0,0,0,0,0,-1,1210,1142,0,0
-7,-118,0,0,0,0,0,0,0,0,0,-1,1217,1142,0,0
0,-118,0,0,0,0,0,0,0,0,0,-1,1224,1142,0,0
7,-118,0,0,0,0,0,0,0,0,0,-1,1231,1142,0,0
14,-118,0,0,0,0,0,0,0,0,0,-1,1238,1142,0,0
21,-118,0,0,0,0,0,0,0,0,0,-1,1245,1142,0,0
28,-118,0,0,0,0,0,0,0,0,0,-1,1252,1142,0,0
35,-118,0,0,0,0,0,0,0,0,0,-1,1259,1142,0,0
42,-118,0,0,0,0,0,0,0,0,0,-1,1266,1142,0,0
49,-118,0,0,0,0,0,0,0,0,0,-1,1273,1142,0,0
56,-118,0,0,0,0,0,0,0,0,0,-1,1280,1142,0,0
63,-118,0,0,0,0,0,0,0,0,0,-1,1287,1142,0,0
70,-118,0,0,0,0,0,0,0,0,0,-1,1294,1142,0,0
77,-118,0,0,0,0,0,0,0,0,0,-1,1301,1142,0,0
84,-118,0,0,0,0,0,0,0,0,0,-1,1308,1142,0,0
91,-118,0,0,0,0,0,0,0,0,0,-1,1315,1142,0,0
98,-118,0,0,0,0,0,0,0,0,0,-1,1322,1142,0,0
105,-118,0,0,0,0,0,0,0,0,0,-1,1329,1142,0,0
112,-118,0,0,0,0,0,0,0,0,0,-1,1336,1142,0,0
119,-118,0,0,0,0,0,0,0,0,0,-1,1343,1142,0,0
126,-118,0,0,0,0,0,0,0,0,0,-1,1350,1142,0,0
133,-118,0,0,0,0,0,0,0,0,0,-1,1357,1142,0,0
140,-118,0,0,0,0,0,0,0,0,0,-1,1364,1142,0,0
147,-118,0,0,0,0,0,0,0,0,0,-1,1371,1142,0,0
154,-118,0,0,0,0,0,0,0,0,0,-1,1378,1142,0,0
161,-118,0,0,0,0,0,0,0,0,0,-1,1385,1142,0,0
168,-118,0,0,0,0,0,0,0,0,0,-1,1392,1142,0,0
175,-118,0,0,0,0,0,0,0,0,0,-1,1399,1142,0,0
182,-118,0,0,0,0,0,0,0,0,0,-1,1406,1142,0,0
189,-118,0,0,0,0,0,0,0,0,0,-1,1413,1142,0,0
196,-118,0,0,0,0,0,0,0,0,0,-1,1420,1142,0,0
203,-118,0,0,0,0,0,0,0,0,0,-1,1427,1142,0,0
210,-118,0,0,0,0,0,0,0,0,0,-1,1434,1142,0,0
217,-118,0,0,0,0,0,0,0,0,0,-1,1441,1142,0,0
224,-118,0,0,0,0,0,0,0,0,0,-1,1448,1142,0,0
231,-118,0,0,0,0,0,0,0,0,0,-1,1455,1142,0,0
238,-118,0,0,0,0,0,0,0,0,0,-1,1462,1142,0,0
245,-118,0,0,0,0,0,0,0,0,0,-1,1469,1142,0,0
252,-118,0,0,0,0,0,0,0,0,0,-1,1476,1142,0,0
259,-118,0,0,0,0,0,0,0,0,0,-1,1483,1142,0,0
266,-118,0,0,0,0,0,0,0,0,0,-1,1490,1142,0,0
273,-118,0,0,0,0,0,0,0,0,0,-1,1497,1142,0,0
280,-118,0,0,0,0,0,0,0,0,0,-1,1504,1142,0,0
287,-118,0,0,0,0,0,0,0,0,0,-1,1511,1142,0,0
294,-118,0,0,0,0,0,0,0,0,0,-1,1518,1142,0,0
301,-118,0,0,0,0,0,0,0,0,0,-1,1525,1142,0,0
308,-118,0,0,0,0,0,0,0,0,0,-1,1532,1142,0,0
315,-118,0,0,0,0,0,0,0,0,0,-1,1539,1142,0,0
322,-118,0,0,0,0,0,0,0,0,0,-1,1546,1142,0,0
329,-118,0,0,0,0,0,0,0,0,0,-1,1553,1142,0,0
336,-118,0,0,0,0,0,0,0,0,0,-1,1560,1142,0,0
343,-118,0,0,0,0,0,0,0,0,0,-1,1567,1142,0,0
350,-118,0,0,0,0,0,0,0,0,0,-1,1574,1142,0,0
357,-118,0,0,0,0,0,0,0,0,0,-1,1581,1142,0,0
364,-118,0,0,0,0,0,0,0,0,0,-1,1588,1142,0,0
371,-118,0,0,0,0,0,0,0,0,0,-1,1595,1142,0,0
378,-118,0,0,0,0,0,0,0,0,0,-1,1602,1142,0,0
385,-118,0,0,0,0,0,0,0,0,0,-1,1609,1142,0,0
392,-118,0,0,0,0,0,0,0,0,0,-1,1616,1142,0,0
399,-118,0,0,0,0,0,0,0,0,0,-1,1623,1142,0,0
406,-118,0,0,0,0,0,0,0,0,0,-1,1630,1142,0,0
413,-118,0,0,0,0,0,0,0,0,0,-1,1637,1142,0,0
420,-118,0,0,0,0,0,0,0,0,0,-1,1644,1142,0,0
427,-118,0,0,0,0,0,0,0,0,0,-1,1651,1142,0,0
434,-118,0,0,0,0,0,0,0,0,0,-1,1658,1142,0,0
441,-118,0,0,0,0,0,0,0,0,0,-1,1665,1142,0,0
448,-118,0,0,0,0,0,0,0,0,0,-1,1672,1142,0,0
455,-118,0,0,0,0,0,0,0,0,0,-1,1679,1142,0,0
462,-118,0,0,0,0,0,0,0,0,0,-1,1686,1142,0,0
469,-118,0,0,0,0,0,0,0,0,0,-1,1693,1142,0,0
476,-118,0,0,0,0,0,0,0,0,0,-1,1700,1142,0,0
483,-118,0,0,0,0,0,0,0,0,0,-1,1707,1142,0,0
490,-118,0,0,0,0,0,0,0,0,0,-1,1714,1142,0,0
497,-118,0,0,0,0,0,0,0,0,0,-1,1721,1142,0,0
504,-118,0,0,0,0,0,0,0,0,0,-1,1728,1142,0,0
511,-118,0,0,0,0,0,0,0,0,0,-1,1735,1142,0,0
518,-118,0,0,0,0,0,0,0,0,0,-1,1742,1142,0,0
525,-118,0,0,0,0,0,0,0,0,0,-1,1749,1142,0,0
532,-118,0,0,0,0,0,0,0,0,0,-1,1756,1142,0,0
539,-118,0,0,0,0,0,0,0,0,0,-1,1763,1142,0,0
546,-118,0,0,0,0,0,0,0,0,0,-1,1770,1142,0,0
553,-118,0,0,0,0,0,0,0,0,0,-1,1777,1142,0,0
560,-118,0,0,0,0,0,0,0,0,0,-1,1784,1142,0,0
567,-118,0,0,0,0,0,0,0,0,0,-1,1791,1142,0,0
574,-118,0,0,0,0,0,0,0,0,0,-1,1798,1142,0,0
581,-118,0,0,0,0,0,0,0,0,0,-1,1805,1142,0,0
588,-118,0,0,0,0,0,0,0,0,0,-1,1812,1142,0,0
595,-118,0,0,0,0,0,0,0,0,0,-1,1819,1142,0,0
602,-118,0,0,0,0,0,0,0,0,0,-1,1826,1142,0,0
609,-118,0,0,0,0,0,0,0,0,0,-1,1833,1142,0,0
616,-118,0,0,0,0,0,0,0,0,0,-1,1840,1142,0,0
623,-118,0,0,0,0,0,0,0,0,0,-1,1847,1142,0,0
630,-118,0,0,0,0,0,0,0,0,0,-1,1854,1142,0,0
637,-118,0,0,0,0,0,0,0,0,0,-1,1861,1142,0,0
644,-118,64.5602,2.68359,0.00111076,0.000244865,0.00554207,0.00623677,-0.00488114,0.746417,0.00643481,0.0414044,1868,1142,64.5602,-2.68359
651,-118,64.678,2.74756,0.000880035,0.000597938,0.00436131,0.00510258,-0.00362461,0.769233,0.00506267,0.0410307,1875,1142,64.678,-2.74756
658,-118,64.8123,2.87903,0.000864622,0.000762749,0.00313513,0.00394923,-0.00232186,0.777275,0.00366102,0.0430415,1882,1142,64.8122,-2.87907
665,-118,64.9172,2.69373,0.00084107,0.000899693,0.00195692,0.00282752,-0.00108676,0.792887,0.00233321,0.0403542,1889,1142,64.9172,-2.69377
672,-118,64.7845,2.54028,0.000801282,0.000912243,0.00088582,0.00174432,-3.07932e-05,0.816673,0.00117328,0.0442019,1896,1142,64.7846,-2.54027
679,-118,64.6404,2.71472,0.000720245,0.000629512,0.000175607,0.000856251,0.000493506,0.658993,0.000496275,0.0428186,1903,1142,64.6404,-2.71469
686,-118,64.692,2.72852,0.000983733,4.33255e-05,-9.7116e-05,0.000993658,3.3401e-05,-0.101838,0.00065159,0.0362903,1910,1142,64.692,-2.72852
693,-118,64.6851,2.67822,0.00111108,-0.000370976,-0.000106448,0.00111869,-0.000378582,-0.0713364,0.000898965,0.0344364,1917,1142,64.6851,-2.67823
700,-118,64.7668,2.6488,0.00113946,-0.000649117,-3.40197e-05,0.0011401,-0.000649764,-0.0190114,0.00104623,0.0232159,1924,1142,64.7668,-2.64876
707,-118,64.8407,2.79175,0,0,0,0,0,0,0,-1,1931,1142,64.8407,-2.7917
714,-118,50.4819,8.53809,0,0,0,0,0,0,0,-1,1938,1142,50.4819,-8.53809
721,-118,58.7394,8.96387,0,0,0,0,0,0,0,-1,1945,1142,58.7394,-8.96392
728,-118,58.7228,8.42236,0.000580801,-0.000768252,0.000844539,0.000987122,-0.00117457,0.448427,0.00124962,0.0211094,1952,1142,58.7228,-8.42231
735,-118,58.7103,7.93274,0.000983468,-0.000742547,0.000750572,0.0012642,-0.00102328,0.357915,0.00132312,0.0211932,1959,1142,58.7103,-7.93273
742,-118,58.6969,7.43201,0.000993597,-0.000411106,0.00105867,0.00156171,-0.00097922,0.49252,0.0014798,0.0321137,1966,1142,58.6969,-7.43204
749,-118,58.6129,6.88855,0.00105188,0.000166328,0.00179223,0.00245521,-0.00123701,0.664296,0.00217004,0.0251339,1973,1142,58.6129,-6.88855
756,-118,58.6196,6.34265,0.00136386,0.00108078,0.00273343,0.00395941,-0.00151477,0.759531,0.00326388,0.0199592,1980,1142,58.6196,-6.34269
763,-118,58.616,5.85168,0.00214249,0.00161991,0.00420778,0.00609708,-0.00233469,0.75439,0.00502704,0.0118842,1987,1142,58.6159,-5.8517
770,-118,58.5276,5.39587,0.00316948,0.00178406,0.00632202,0.00883663,-0.00388309,0.73083,0.00752707,0.0149086,1994,1142,58.5275,-5.39592
777,-118,58.365,4.93726,0.00411058,0.00141222,0.00923442,0.0120939,-0.00657106,0.71286,0.0109323,0.0313818,2001,1142,58.365,-4.93727
784,-118,58.7124,4.15149,0.00471466,0.000387687,0.0131474,0.0158754,-0.010773,0.703851,0.0154792,0.0445374,2008,1142,58.7125,-4.15146
791,-118,59.1157,3.32202,0,0,0,0,0,0,0,-1,2015,1142,59.1157,-3.32206
798,-118,59.5979,2.10474,0.00408348,-0.00446237,0.0256226,0.025787,-0.0261659,0.702777,0.0299953,0.047454,2022,1142,59.5978,-2.10469
805,-118,59.7456,2.4668,0.0016423,-0.00870715,0.0352023,0.0320482,-0.039113,0.712421,0.0411524,0.0475051,2029,1142,59.7455,-2.46676
812,-118,59.3191,2.47595,-0.00377496,-0.0145121,0.0481373,0.0392923,-0.0575793,0.729865,0.05626,0.0466605,2036,1142,59.3191,-2.4759
-700,-125,0,0,0,0,0,0,0,0,0,-1,524,1149,0,0
-693,-125,-44.0928,3.42371,0,0,0,0,0,0,0,-1,531,1149,-44.0928,-3.4237
-686,-125,-45.6956,-0.964233,0,0,0,0,0,0,0,-1,538,1149,-45.6956,0.964201
-679,-125,-45.4649,-0.591064,0.0274457,0.0430126,0.0610583,0.0967816,-0.0263232,0.848794,0.0748545,0.0456279,545,1149,-45.4649,0.591014
-672,-125,-45.4194,0.3479,0.0265954,0.0379838,0.0516823,0.0842846,-0.0197054,0.840265,0.0637811,0.0470455,552,1149,-45.4194,-0.347922
-665,-125,-45.3332,1.29932,0,0,0,0,0,0,0,-1,559,1149,-45.3332,-1.29937
-658,-125,-42.498,1.29211,0,0,0,0,0,0,0,-1,566,1149,-42.4981,-1.29217
-651,-125,-42.303,1.99292,0.0162653,0.0215661,0.0250518,0.0441073,-0.00627598,0.838101,0.0317046,0.047962,573,1149,-42.303,-1.99287
-644,-125,-42.256,2.56677,0.0121017,0.0163355,0.0175346,0.0318805,-0.00344337,0.845471,0.0224895,0.0341758,580,1149,-42.256,-2.56679
-637,-125,-42.3826,3.12073,0.00801639,0.0114624,0.01082,0.0206957,-0.00121691,0.864356,0.0142201,0.0154634,587,1149,-42.3826,-3.12068
-630,-125,-42.3988,3.6532,0.00427129,0.00670165,0.00488145,0.0105169,0.000456047,0.907388,0.0068643,0.0153789,594,1149,-42.3988,-3.65323
-623,-125,-42.4015,4.21838,0.000779781,0.00252583,0.000470586,0.00264458,0.000661027,1.32361,0.00158922,0.0138774,601,1149,-42.4015,-4.21838
-616,-125,-42.4568,4.72095,-0.000882884,-3.53181e-05,-0.000860664,0.00050024,-0.00141844,-1.01417,0.00114926,0.0312454,608,1149,-42.4569,-4.721
-609,-125,-42.641,5.36206,0,0,0,0,0,0,0,-1,615,1149,-42.641,-5.362
-602,-125,-42.571,5.92822,0,0,0,0,0,0,0,-1,622,1149,-42.571,-5.92817
-595,-125,-42.7648,6.61084,0,0,0,0,0,0,0,-1,629,1149,-42.7648,-6.61079
-588,-125,-41.0207,6.98767,0,0,0,0,0,0,0,-1,636,1149,-41.0207,-6.98766
-581,-125,-26.4055,4.83203,0,0,0,0,0,0,0,-1,643,1149,-26.4055,-4.83204
-574,-125,-37.674,0.655151,0,0,0,0,0,0,0,-1,650,1149,-37.674,-0.655195
-567,-125,-48.9144,1.02917,0,0,0,0,0,0,0,-1,657,1149,-48.9144,-1.02923
-560,-125,-48.9824,1.06421,-0.000441256,-0.00161424,0.000405129,-0.000314936,-0.00174057,0.30225,0.00107095,0.0387675,664,1149,-48.9824,-1.06424
-553,-125,-49.0181,0.970581,-6.43373e-06,-0.00126544,8.9174e-05,-1.48953e-07,-0.00127172,0.0703609,0.000847765,0.0406817,671,1149,-49.0181,-0.970559
-546,-125,-48.9675,0.764282,0.000855117,-0.000912574,-0.0006016,0.00104043,-0.00109789,-0.298814,0.00123471,0.0408594,678,1149,-48.9675,-0.764275
-539,-125,-48.9686,0.859741,0.00288194,-0.000993566,-0.00212974,0.00382354,-0.00193517,-0.416282,0.00338385,0.0408169,685,1149,-48.9686,-0.859747
-532,-125,-48.9644,0.801392,0.00568415,-0.00157505,-0.00394553,0.00741563,-0.00330653,-0.41354,0.00634016,0.0367287,692,1149,-48.9644,-0.801334
-525,-125,-48.9068,0.534058,0.00838242,-0.00236564,-0.00560761,0.0107753,-0.00475856,-0.403333,0.00919002,0.0395267,699,1149,-48.9068,-0.534109
-518,-125,0,0,0,0,0,0,0,0,0,-1,706,1149,0,0
-511,-125,0,0,0,0,0,0,0,0,0,-1,713,1149,0,0
-504,-125,0,0,0,0,0,0,0,0,0,-1,720,1149,0,0
-497,-125,0,0,0,0,0,0,0,0,0,-1,727,1149,0,0
-490,-125,0,0,0,0,0,0,0,0,0,-1,734,1149,0,0
-483,-125,0,0,0,0,0,0,0,0,0,-1,741,1149,0,0
-476,-125,0,0,0,0,0,0,0,0,0,-1,748,1149,0,0
-469,-125,0,0,0,0,0,0,0,0,0,-1,755,1149,0,0
-462,-125,0,0,0,0,0,0,0,0,0,-1,762,1149,0,0
-455,-125,0,0,0,0,0,0,0,0,0,-1,769,1149,0,0
-448,-125,0,0,0,0,0,0,0,0,0,-1,776,1149,0,0
-441,-125,0,0,0,0,0,0,0,0,0,-1,783,1149,0,0
-434,-125,0,0,0,0,0,0,0,0,0,-1,790,1149,0,0
-427,-125,0,0,0,0,0,0,0,0,0,-1,797,1149,0,0
-420,-125,0,0,0,0,0,0,0,0,0,-1,804,1149,0,0
-413,-125,0,0,0,0,0,0,0,0,0,-1,811,1149,0,0
-406,-125,0,0,0,0,0,0,0,0,0,-1,818,1149,0,0
-399,-125,0,0,0,0,0,0,0,0,0,-1,825,1149,0,0
-392,-125,0,0,0,0,0,0,0,0,0,-1,832,1149,0,0
-385,-125,0,0,0,0,0,0,0,0,0,-1,839,1149,0,0
-378,-125,0,0,0,0,0,0,0,0,0,-1,846,1149,0,0
-371,-125,0,0,0,0,0,0,0,0,0,-1,853,1149,0,0
-364,-125,0,0,0,0,0,0,0,0,0,-1,860,1149,0,0
-357,-125,0,0,0,0,0,0,0,0,0,-1,867,1149,0,0
-350,-125,0,0,0,0,0,0,0,0,0,-1,874,1149,0,0
-343,-125,0,0,0,0,0,0,0,0,0,-1,881,1149,0,0
-336,-125,0,0,0,0,0,0,0,0,0,-1,888,1149,0,0
-329,-125,0,0,0,0,0,0,0,0,0,-1,895,1149,0,0
-322,-125,0,0,0,0,0,0,0,0,0,-1,902,1149,0,0
-315,-125,0,0,0,0,0,0,0,0,0,-1,909,1149,0,0
-308,-125,0,0,0,0,0,0,0,0,0,-1,916,1149,0,0
-301,-125,0,0,0,0,0,0,0,0,0,-1,923,1149,0,0
-294,-125,0,0,0,0,0,0,0,0,0,-1,930,1149,0,0
-287,-125,0,0,0,0,0,0,0,0,0,-1,937,1149,0,0
-280,-125,0,0,0,0,0,0,0,0,0,-1,944,1149,0,0
-273,-125,0,0,0,0,0,0,0,0,0,-1,951,1149,0,0
-266,-125,0,0,0,0,0,0,0,0,0,-1,958,1149,0,0
-259,-125,0,0,0,0,0,0,0,0,0,-1,965,1149,0,0
-252,-125,0,0,0,0,0,0,0,0,0,-1,972,1149,0,0
-245,-125,0,0,0,0,0,0,0,0,0,-1,979,1149,0,0
-238,-125,0,0,0,0,0,0,0,0,0,-1,986,1149,0,0
-231,-125,0,0,0,0,0,0,0,0,0,-1,993,1149,0,0
-224,-125,0,0,0,0,0,0,0,0,0,-1,1000,1149,0,0
-217,-125,0,0,0,0,0,0,0,0,0,-1,1007,1149,0,0
-210,-125,0,0,0,0,0,0,0,0,0,-1,1014,1149,0,0
-203,-125,0,0,0,0,0,0,0,0,0,-1,1021,1149,0,0
-196,-125,0,0,0,0,0,0,0,0,0,-1,1028,1149,0,0
-189,-125,0,0,0,0,0,0,0,0,0,-1,1035,1149,0,0
-182,-125,0,0,0,0,0,0,0,0,0,-1,1042,1149,0,0
-175,-125,0,0,0,0,0,0,0,0,0,-1,1049,1149,0,0
-168,-125,0,0,0,0,0,0,0,0,0,-1,1056,1149,0,0
-161,-125,0,0,0,0,0,0,0,0,0,-1,1063,1149,0,0
-154,-125,0,0,0,0,0,0,0,0,0,-1,1070,1149,0,0
-147,-125,0,0,0,0,0,0,0,0,0,-1,1077,1149,0,0
-140,-125,0,0,0,0,0,0,0,0,0,-1,1084,1149,0,0
-133,-125,0,0,0,0,0,0,0,0,0,-1,1091,1149,0,0
-126,-125,0,0,0,0,0,0,0,0,0,-1,1098,1149,0,0
-119,-125,0,0,0,0,0,0,0,0,0,-1,1105,1149,0,0
-112,-125,0,0,0,0,0,0,0,0,0,-1,1112,1149,0,0
-105,-125,0,0,0,0,0,0,0,0,0,-1,1119,1149,0,0
-98,-125,0,0,0,0,0,0,0,0,0,-1,1126,1149,0,0
-91,-125,0,0,0,0,0,0,0,0,0,-1,1133,1149,0,0
-84,-125,0,0,0,0,0,0,0,0,0,-1,1140,1149,0,0
-77,-125,0,0,0,0,0,0,0,0,0,-1,1147,1149,0,0
-70,-125,0,0,0,0,0,0,0,0,0,-1,1154,1149,0,0
-63,-125,0,0,0,0,0,0,0,0,0,-1,1161,1149,0,0
-56,-125,0,0,0,0,0,0,0,0,0,-1,1168,1149,0,0
-49,-125,0,0,0,0,0,0,0,0,0,-1,1175,1149,0,0
-42,-125,0,0,0,0,0,0,0,0,0,-1,1182,1149,0,0
-35,-125,0,0,0,0,0,0,0,0,0,-1,1189,1149,0,0
-28,-125,0,0,0,0,0,0,0,0,0,-1,1196,1149,0,0
-21,-125,0,0,0,0,0,0,0,0,0,-1,1203,1149,0,0
-14,-125,0,0,0,0,0,0,0,0,0,-1,1210,1149,0,0
-7,-125,0,0,0,0,0,0,0,0,0,-1,1217,1149,0,0
0,-125,0,0,0,0,0,0,0,0,0,-1,1224,1149,0,0
7,-125,0,0,0,0,0,0,0,0,0,-1,1231,1149,0,0
14,-125,0,0,0,0,0,0,0,0,0,-1,1238,1149,0,0
21,-125,0,0,0,0,0,0,0,0,0,-1,1245,1149,0,0
28,-125,0,0,0,0,0,0,0,0,0,-1,1252,1149,0,0
35,-125,0,0,0,0,0,0,0,0,0,-1,1259,1149,0,0
42,-125,0,0,0,0,0,0,0,0,0,-1,1266,1149,0,0
49,-125,0,0,0,0,0,0,0,0,0,-1,1273,1149,0,0
56,-125,0,0,0,0,0,0,0,0,0,-1,1280,1149,0,0
63,-125,0,0,0,0,0,0,0,0,0,-1,1287,1149,0,0
70,-125,0,0,0,0,0,0,0,0,0,-1,1294,1149,0,0
77,-125,0,0,0,0,0,0,0,0,0,-1,1301,1149,0,0
84,-125,0,0,0,0,0,0,0,0,0,-1,1308,1149,0,0
91,-125,0,0,0,0,0,0,0,0,0,-1,1315,1149,0,0
98,-125,0,0,0,0,0,0,0,0,0,-1,1322,1149,0,0
105,-125,0,0,0,0,0,0,0,0,0,-1,1329,1149,0,0
112,-125,0,0,0,0,0,0,0,0,0,-1,1336,1149,0,0
119,-125,0,0,0,0,0,0,0,0,0,-1,1343,1149,0,0
126,-125,0,0,0,0,0,0,0,0,0,-1,1350,1149,0,0
133,-125,0,0,0,0,0,0,0,0,0,-1,1357,1149,0,0
140,-125,0,0,0,0,0,0,0,0,0,-1,1364,1149,0,0
147,-125,0,0,0,0,0,0,0,0,0,-1,1371,1149,0,0
154,-125,0,0,0,0,0,0,0,0,0,-1,1378,1149,0,0
161,-125,0,0,0,0,0,0,0,0,0,-1,1385,1149,0,0
168,-125,0,0,0,0,0,0,0,0,0,-1,1392,1149,0,0
175,-125,0,0,0,0,0,0,0,0,0,-1,1399,1149,0,0
182,-125,0,0,0,0,0,0,0,0,0,-1,1406,1149,0,0
189,-125,0,0,0,0,0,0,0,0,0,-1,1413,1149,0,0
196,-125,0,0,0,0,0,0,0,0,0,-1,1420,1149,0,0
203,-125,0,0,0,0,0,0,0,0,0,-1,1427,1149,0,0
210,-125,0,0,0,0,0,0,0,0,0,-1,1434,1149,0,0
217,-125,0,0,0,0,0,0,0,0,0,-1,1441,1149,0,0
224,-125,0,0,0,0,0,0,0,0,0,-1,1448,1149,0,0
231,-125,0,0,0,0,0,0,0,0,0,-1,1455,1149,0,0
238,-125,0,0,0,0,0,0,0,0,0,-1,1462,1149,0,0
245,-125,0,0,0,0,0,0,0,0,0,-1,1469,1149,0,0
252,-125,0,0,0,0,0,0,0,0,0,-1,1476,1149,0,0
259,-125,0,0,0,0,0,0,0,0,0,-1,1483,1149,0,0
266,-125,0,0,0,0,0,0,0,0,0,-1,1490,1149,0,0
273,-125,0,0,0,0,0,0,0,0,0,-1,1497,1149,0,0
280,-125,0,0,0,0,0,0,0,0,0,-1,1504,1149,0,0
287,-125,0,0,0,0,0,0,0,0,0,-1,1511,1149,0,0
294,-125,0,0,0,0,0,0,0,0,0,-1,1518,1149,0,0
301,-125,0,0,0,0,0,0,0,0,0,-1,1525,1149,0,0
308,-125,0,0,0,0,0,0,0,0,0,-1,1532,1149,0,0
315,-125,0,0,0,0,0,0,0,0,0,-1,1539,1149,0,0
322,-125,0,0,0,0,0,0,0,0,0,-1,1546,1149,0,0
329,-125,0,0,0,0,0,0,0,0,0,-1,1553,1149,0,0
336,-125,0,0,0,0,0,0,0,0,0,-1,1560,1149,0,0
343,-125,0,0,0,0,0,0,0,0,0,-1,1567,1149,0,0
350,-125,0,0,0,0,0,0,0,0,0,-1,1574,1149,0,0
357,-125,0,0,0,0,0,0,0,0,0,-1,1581,1149,0,0
364,-125,0,0,0,0,0,0,0,0,0,-1,1588,1149,0,0
371,-125,0,0,0,0,0,0,0,0,0,-1,1595,1149,0,0
378,-125,0,0,0,0,0,0,0,0,0,-1,1602,1149,0,0
385,-125,0,0,0,0,0,0,0,0,0,-1,1609,1149,0,0
392,-125,0,0,0,0,0,0,0,0,0,-1,1616,1149,0,0
399,-125,0,0,0,0,0,0,0,0,0,-1,1623,1149,0,0
406,-125,0,0,0,0,0,0,0,0,0,-1,1630,1149,0,0
413,-125,0,0,0,0,0,0,0,0,0,-1,1637,1149,0,0
420,-125,0,0,0,0,0,0,0,0,0,-1,1644,1149,0,0
427,-125,0,0,0,0,0,0,0,0,0,-1,1651,1149,0,0
434,-125,0,0,0,0,0,0,0,0,0,-1,1658,1149,0,0
441,-125,0,0,0,0,0,0,0,0,0,-1,1665,1149,0,0
448,-125,0,0,0,0,0,0,0,0,0,-1,1672,1149,0,0
455,-125,0,0,0,0,0,0,0,0,0,-1,1679,1149,0,0
462,-125,0,0,0,0,0,0,0,0,0,-1,1686,1149,0,0
469,-125,0,0,0,0,0,0,0,0,0,-1,1693,1149,0,0
476,-125,0,0,0,0,0,0,0,0,0,-1,1700,1149,0,0
483,-125,0,0,0,0,0,0,0,0,0,-1,1707,1149,0,0
490,-125,0,0,0,0,0,0,0,0,0,-1,1714,1149,0,0
497,-125,0,0,0,0,0,0,0,0,0,-1,1721,1149,0,0
504,-125,0,0,0,0,0,0,0,0,0,-1,1728,1149,0,0
511,-125,0,0,0,0,0,0,0,0,0,-1,1735,1149,0,0
518,-125,0,0,0,0,0,0,0,0,0,-1,1742,1149,0,0
525,-125,0,0,0,0,0,0,0,0,0,-1,1749,1149,0,0
532,-125,0,0,0,0,0,0,0,0,0,-1,1756,1149,0,0
539,-125,0,0,0,0,0,0,0,0,0,-1,1763,1149,0,0
546,-125,0,0,0,0,0,0,0,0,0,-1,1770,1149,0,0
553,-125,0,0,0,0,0,0,0,0,0,-1,1777,1149,0,0
560,-125,0,0,0,0,0,0,0,0,0,-1,1784,1149,0,0
567,-125,0,0,0,0,0,0,0,0,0,-1,1791,1149,0,0
574,-125,0,0,0,0,0,0,0,0,0,-1,1798,1149,0,0
581,-125,0,0,0,0,0,0,0,0,0,-1,1805,1149,0,0
588,-125,0,0,0,0,0,0,0,0,0,-1,1812,1149,0,0
595,-125,0,0,0,0,0,0,0,0,0,-1,1819,1149,0,0
602,-125,0,0,0,0,0,0,0,0,0,-1,1826,1149,0,0
609,-125,0,0,0,0,0,0,0,0,0,-1,1833,1149,0,0
616,-125,0,0,0,0,0,0,0,0,0,-1,1840,1149,0,0
623,-125,0,0,0,0,0,0,0,0,0,-1,1847,1149,0,0
630,-125,0,0,0,0,0,0,0,0,0,-1,1854,1149,0,0
637,-125,0,0,0,0,0,0,0,0,0,-1,1861,1149,0,0
644,-125,64.7056,2.46667,0.00029049,0.000794448,0.0045732,0.00512261,-0.00403767,0.81292,0.00530104,0.0393295,1868,1149,64.7055,-2.46668
651,-125,64.6698,2.73132,0.000438801,0.00109865,0.00363656,0.00442023,-0.00288277,0.830637,0.00424742,0.0394133,1875,1149,64.6698,-2.73134
658,-125,64.7732,2.84155,0.000670969,0.00122398,0.0026153,0.00357735,-0.0016824,0.838066,0.00310172,0.0422576,1882,1149,64.7732,-2.84149
665,-125,64.8092,2.7085,0.000840352,0.00131063,0.00159906,0.00269175,-0.000540769,0.858399,0.00199929,0.0441316,1889,1149,64.8092,-2.70853
672,-125,64.6674,2.44739,0.000920719,0.00125842,0.000676653,0.00178697,0.000392166,0.907669,0.00108449,0.0435198,1896,1149,64.6674,-2.44736
679,-125,64.6075,2.50281,0.000912334,0.00089529,0.00011841,0.00102253,0.000785096,0.749475,0.000617938,0.0388275,1903,1149,64.6076,-2.5028
686,-125,64.6783,2.62646,0.00124251,0.000276869,-7.06785e-05,0.00124766,0.000271723,-0.0726769,0.000757619,0.035632,1910,1149,64.6783,-2.62647
693,-125,64.6592,2.69104,0.00135408,-0.000121498,-2.2746e-05,0.00135443,-0.000121849,-0.0154101,0.000946188,0.0336793,1917,1149,64.6591,-2.69106
700,-125,64.7689,2.70618,0.0013459,-0.000379885,9.05801e-05,0.00135064,-0.000384627,0.0522947,0.00105234,0.0205852,1924,1149,64.7689,-2.70622
707,-125,64.8997,2.83472,0,0,0,0,0,0,0,-1,1931,1149,64.8996,-2.83472
714,-125,54.8745,9.21375,0,0,0,0,0,0,0,-1,1938,1149,54.8746,-9.21371
721,-125,58.1561,8.97058,0,0,0,0,0,0,0,-1,1945,1149,58.1561,-8.97054
728,-125,58.1307,8.52136,0.000782686,-0.000666706,0.000889658,0.00120545,-0.00108948,0.443615,0.00132554,0.0202964,1952,1149,58.1307,-8.52131
735,-125,58.1572,8.04993,0.00119123,-0.000771857,0.000826128,0.00149262,-0.00107325,0.349817,0.00148798,0.0209315,1959,1149,58.1572,-8.04997
742,-125,58.134,7.45691,0.00117998,-0.000565432,0.00113459,0.00173868,-0.00112413,0.457566,0.00166549,0.0307813,1966,1149,58.134,-7.45689
749,-125,58.0457,6.92224,0.00121189,5.29393e-05,0.00179421,0.00251788,-0.00125305,0.6292,0.00221759,0.0272635,1973,1149,58.0457,-6.92225
756,-125,58.0452,6.38013,0.00174856,0.00100016,0.00277148,0.00417098,-0.00142227,0.718295,0.00335673,0.021887,1980,1149,58.0452,-6.38011
763,-125,58.0508,5.86292,0.00280407,0.00164114,0.00455348,0.00681307,-0.00236785,0.721894,0.00550381,0.0125706,1987,1149,58.0508,-5.86288
770,-125,57.9958,5.33899,0.00403684,0.001928,0.00706822,0.0101289,-0.00416402,0.711355,0.00848815,0.01622,1994,1149,57.9958,-5.33901
777,-125,57.885,4.92651,0.00513179,0.00175244,0.0104824,0.0140598,-0.0071756,0.70549,0.0124732,0.0336454,2001,1149,57.885,-4.92654
784,-125,58.2854,4.48743,0.00583685,0.000996102,0.0150708,0.0186804,-0.0118475,0.705778,0.0177719,0.047523,2008,1149,58.2855,-4.48741
791,-125,58.8015,4.05493,0,0,0,0,0,0,0,-1,2015,1149,58.8015,-4.05498
798,-125,58.8301,2.41406,0.00514191,-0.00292743,0.029526,0.0309077,-0.0286932,0.717495,0.0344185,0.0465205,2022,1149,58.8301,-2.41406
805,-125,58.5747,2.42712,0.00233034,-0.00649433,0.0405859,0.038743,-0.042907,0.731253,0.0471611,0.0493354,2029,1149,58.5747,-2.42707
812,-125,58.2327,2.40149,0,0,0,0,0,0,0,-1,2036,1149,58.2328,-2.40148
-700,-132,0,0,0,0,0,0,0,0,0,-1,524,1156,0,0
-693,-132,-41.4895,-4.08923,0,0,0,0,0,0,0,-1,531,1156,-41.4895,4.08925
-686,-132,-43.7546,4.71179,0,0,0,0,0,0,0,-1,538,1156,-43.7546,-4.71179
-679,-132,-45.3626,-1.48083,0,0,0,0,0,0,0,-1,545,1156,-45.3626,1.48083
-672,-132,-41.7587,-1.13977,0,0,0,0,0,0,0,-1,552,1156,-41.7587,1.13975
-665,-132,-42.318,0.499512,0,0,0,0,0,0,0,-1,559,1156,-42.318,-0.499461
-658,-132,-42.6281,0.767944,0,0,0,0,0,0,0,-1,566,1156,-42.6281,-0.767972
-651,-132,-42.1878,1.64844,0.0163229,0.026249,0.0247971,0.0465748,-0.00400289,0.884166,0.0324665,0.0418164,573,1156,-42.1878,-1.64844
-644,-132,-41.7414,2.53967,0.0122595,0.0195769,0.0172359,0.0335381,-0.0017017,0.889982,0.022947,0.0258579,580,1156,-41.7414,-2.53971
-637,-132,-41.7977,3.10999,0.00813287,0.0134013,0.0104692,0.0215626,-2.84025e-05,0.908648,0.0143845,0.0136595,587,1156,-41.7977,-3.10995
-630,-132,-41.782,3.65564,0.00426624,0.00756037,0.00449179,0.0106975,0.00112906,0.961128,0.00678672,0.0109133,594,1156,-41.782,-3.65568
-623,-132,-41.8312,4.25391,0.000440386,0.00256886,1.31675e-05,0.00256894,0.000440304,1.56461,0.00158636,0.0164885,601,1156,-41.8312,-4.25387
-616,-132,-41.9288,4.72473,-0.00167955,-0.000181296,-0.00123865,0.00051714,-0.00237798,-1.05737,0.00178288,0.0396245,608,1156,-41.9288,-4.72478
-609,-132,-41.8314,5.48413,0,0,0,0,0,0,0,-1,615,1156,-41.8314,-5.48417
-602,-132,-41.8524,5.95569,-0.00290142,-0.000661694,-0.000323901,-0.000615794,-0.00294732,-1.43002,0.00179518,0.0360396,622,1156,-41.8523,-5.9557
-595,-132,-42.0154,6.45837,-0.0034328,-0.000516457,-0.000604887,-0.000395973,-0.00355328,-1.37419,0.00224852,0.0498624,629,1156,-42.0154,-6.45841
-588,-132,-42.1024,7.02051,0,0,0,0,0,0,0,-1,636,1156,-42.1024,-7.02047
-581,-132,-35.9343,6.42957,0,0,0,0,0,0,0,-1,643,1156,-35.9342,-6.42957
-574,-132,-33.2071,2.86963,0,0,0,0,0,0,0,-1,650,1156,-33.2071,-2.86963
-567,-132,-48.8434,0.810913,0,0,0,0,0,0,0,-1,657,1156,-48.8434,-0.810861
-560,-132,-48.9408,0.870605,-0.00140177,-0.00139163,0.000309964,-0.00108669,-0.0017067,0.793579,0.00099757,0.0372294,664,1156,-48.9408,-0.870572
-553,-132,-49.0726,0.925659,-0.000911559,-0.00102484,0.000184284,-0.000775409,-0.00116099,0.636301,0.000682778,0.040406,671,1156,-49.0726,-0.925655
-546,-132,-49.07,0.770386,0.000208602,-0.000689683,-0.000264869,0.000280885,-0.000761966,-0.266414,0.00062308,0.0413177,678,1156,-49.07,-0.770336
-539,-132,-48.8945,0.71814,0.002473,-0.000901741,-0.00148911,0.00303611,-0.00146485,-0.361532,0.00265089,0.0405164,685,1156,-48.8945,-0.718149
-532,-132,-48.8427,0.726563,0.00554288,-0.00178149,-0.00293846,0.00657602,-0.00281464,-0.338094,0.00556479,0.0384744,692,1156,-48.8427,-0.726562
-525,-132,-48.8914,0.766602,0.00843687,-0.00288956,-0.00417627,0.00981023,-0.00426291,-0.317707,0.00833288,0.039998,699,1156,-48.8913,-0.766563
-518,-132,0,0,0,0,0,0,0,0,0,-1,706,1156,0,0
-511,-132,0,0,0,0,0,0,0,0,0,-1,713,1156,0,0
-504,-132,0,0,0,0,0,0,0,0,0,-1,720,1156,0,0
-497,-132,0,0,0,0,0,0,0,0,0,-1,727,1156,0,0
-490,-132,0,0,0,0,0,0,0,0,0,-1,734,1156,0,0
-483,-132,0,0,0,0,0,0,0,0,0,-1,741,1156,0,0
-476,-132,0,0,0,0,0,0,0,0,0,-1,748,1156,0,0
-469,-132,0,0,0,0,0,0,0,0,0,-1,755,1156,0,0
-462,-132,0,0,0,0,0,0,0,0,0,-1,762,1156,0,0
-455,-132,0,0,0,0,0,0,0,0,0,-1,769,1156,0,0
-448,-132,0,0,0,0,0,0,0,0,0,-1,776,1156,0,0
-441,-132,0,0,0,0,0,0,0,0,0,-1,783,1156,0,0
-434,-132,0,0,0,0,0,0,0,0,0,-1,790,1156,0,0
-427,-132,0,0,0,0,0,0,0,0,0,-1,797,1156,0,0
-420,-132,0,0,0,0,0,0,0,0,0,-1,804,1156,0,0
-413,-132,0,0,0,0,0,0,0,0,0,-1,811,1156,0,0
-406,-132,0,0,0,0,0,0,0,0,0,-1,818,1156,0,0
-399,-132,0,0,0,0,0,0,0,0,0,-1,825,1156,0,0
-392,-132,0,0,0,0,0,0,0,0,0,-1,832,1156,0,0
-385,-132,0,0,0,0,0,0,0,0,0,-1,839,1156,0,0
-378,-132,0,0,0,0,0,0,0,0,0,-1,846,1156,0,0
-371,-132,0,0,0,0,0,0,0,0,0,-1,853,1156,0,0
-364,-132,0,0,0,0,0,0,0,0,0,-1,860,1156,0,0
-357,-132,0,0,0,0,0,0,0,0,0,-1,867,1156,0,0
-350,-132,0,0,0,0,0,0,0,0,0,-1,874,1156,0,0
-343,-132,0,0,0,0,0,0,0,0,0,-1,881,1156,0,0
-336,-132,0,0,0,0,0,0,0,0,0,-1,888,1156,0,0
-329,-132,0,0,0,0,0,0,0,0,0,-1,895,1156,0,0
-322,-132,0,0,0,0,0,0,0,0,0,-1,902,1156,0,0
-315,-132,0,0,0,0,0,0,0,0,0,-1,909,1156,0,0
-308,-132,0,0,0,0,0,0,0,0,0,-1,916,1156,0,0
-301,-132,0,0,0,0,0,0,0,0,0,-1,923,1156,0,0
-294,-132,0,0,0,0,0,0,0,0,0,-1,930,1156,0,0
-287,-132,0,0,0,0,0,0,0,0,0,-1,937,1156,0,0
-280,-132,0,0,0,0,0,0,0,0,0,-1,944,1156,0,0
-273,-132,0,0,0,0,0,0,0,0,0,-1,951,1156,0,0
-266,-132,0,0,0,0,0,0,0,0,0,-1,958,1156,0,0
-259,-132,0,0,0,0,0,0,0,0,0,-1,965,1156,0,0
-252,-132,0,0,0,0,0,0,0,0,0,-1,972,1156,0,0
-245,-132,0,0,0,0,0,0,0,0,0,-1,979,1156,0,0
-238,-132,0,0,0,0,0,0,0,0,0,-1,986,1156,0,0
-231,-132,0,0,0,0,0,0,0,0,0,-1,993,1156,0,0
-224,-132,0,0,0,0,0,0,0,0,0,-1,1000,1156,0,0
-217,-132,0,0,0,0,0,0,0,0,0,-1,1007,1156,0,0
-210,-132,0,0,0,0,0,0,0,0,0,-1,1014,1156,0,0
-203,-132,0,0,0,0,0,0,0,0,0,-1,1021,1156,0,0
-196,-132,0,0,0,0,0,0,0,0,0,-1,1028,1156,0,0
-189,-132,0,0,0,0,0,0,0,0,0,-1,1035,1156,0,0
-182,-132,0,0,0,0,0,0,0,0,0,-1,1042,1156,0,0
-175,-132,0,0,0,0,0,0,0,0,0,-1,1049,1156,0,0
-168,-132,0,0,0,0,0,0,0,0,0,-1,1056,1156,0,0
-161,-132,0,0,0,0,0,0,0,0,0,-1,1063,1156,0,0
-154,-132,0,0,0,0,0,0,0,0,0,-1,1070,1156,0,0
-147,-132,0,0,0,0,0,0,0,0,0,-1,1077,1156,0,0
-140,-132,0,0,0,0,0,0,0,0,0,-1,1084,1156,0,0
-133,-132,0,0,0,0,0,0,0,0,0,-1,1091,1156,0,0
-126,-132,0,0,0,0,0,0,0,0,0,-1,1098,1156,0,0
-119,-132,0,0,0,0,0,0,0,0,0,-1,1105,1156,0,0
-112,-132,0,0,0,0,0,0,0,0,0,-1,1112,1156,0,0
-105,-132,0,0,0,0,0,0,0,0,0,-1,1119,1156,0,0
-98,-132,0,0,0,0,0,0,0,0,0,-1,1126,1156,0,0
-91,-132,0,0,0,0,0,0,0,0,0,-1,1133,1156,0,0
-84,-132,0,0,0,0,0,0,0,0,0,-1,1140,1156,0,0
-77,-132,0,0,0,0,0,0,0,0,0,-1,1147,1156,0,0
-70,-132,0,0,0,0,0,0,0,0,0,-1,1154,1156,0,0
-63,-132,0,0,0,0,0,0,0,0,0,-1,1161,1156,0,0
-56,-132,0,0,0,0,0,0,0,0,0,-1,1168,1156,0,0
-49,-132,0,0,0,0,0,0,0,0,0,-1,1175,1156,0,0
-42,-132,0,0,0,0,0,0,0,0,0,-1,1182,1156,0,0
-35,-132,0,0,0,0,0,0,0,0,0,-1,1189,1156,0,0
-28,-132,0,0,0,0,0,0,0,0,0,-1,1196,1156,0,0
-21,-132,0,0,0,0,0,0,0,0,0,-1,1203,1156,0,0
-14,-132,0,0,0,0,0,0,0,0,0,-1,1210,1156,0,0
-7,-132,0,0,0,0,0,0,0,0,0,-1,1217,1156,0,0
0,-132,0,0,0,0,0,0,0,0,0,-1,1224,1156,0,0
7,-132,0,0,0,0,0,0,0,0,0,-1,1231,1156,0,0
14,-132,0,0,0,0,0,0,0,0,0,-1,1238,1156,0,0
21,-132,0,0,0,0,0,0,0,0,0,-1,1245,1156,0,0
28,-132,0,0,0,0,0,0,0,0,0,-1,1252,1156,0,0
35,-132,0,0,0,0,0,0,0,0,0,-1,1259,1156,0,0
42,-132,0,0,0,0,0,0,0,0,0,-1,1266,1156,0,0
49,-132,0,0,0,0,0,0,0,0,0,-1,1273,1156,0,0
56,-132,0,0,0,0,0,0,0,0,0,-1,1280,1156,0,0
63,-132,0,0,0,0,0,0,0,0,0,-1,1287,1156,0,0
70,-132,0,0,0,0,0,0,0,0,0,-1,1294,1156,0,0
77,-132,0,0,0,0,0,0,0,0,0,-1,1301,1156,0,0
84,-132,0,0,0,0,0,0,0,0,0,-1,1308,1156,0,0
91,-132,0,0,0,0,0,0,0,0,0,-1,1315,1156,0,0
98,-132,0,0,0,0,0,0,0,0,0,-1,1322,1156,0,0
105,-132,0,0,0,0,0,0,0,0,0,-1,1329,1156,0,0
112,-132,0,0,0,0,0,0,0,0,0,-1,1336,1156,0,0
119,-132,0,0,0,0,0,0,0,0,0,-1,1343,1156,0,0
126,-132,0,0,0,0,0,0,0,0,0,-1,1350,1156,0,0
133,-132,0,0,0,0,0,0,0,0,0,-1,1357,1156,0,0
140,-132,0,0,0,0,0,0,0,0,0,-1,1364,1156,0,0
147,-132,0,0,0,0,0,0,0,0,0,-1,1371,1156,0,0
154,-132,0,0,0,0,0,0,0,0,0,-1,1378,1156,0,0
161,-132,0,0,0,0,0,0,0,0,0,-1,1385,1156,0,0
168,-132,0,0,0,0,0,0,0,0,0,-1,1392,1156,0,0
175,-132,0,0,0,0,0,0,0,0,0,-1,1399,1156,0,0
182,-132,0,0,0,0,0,0,0,0,0,-1,1406,1156,0,0
189,-132,0,0,0,0,0,0,0,0,0,-1,1413,1156,0,0
196,-132,0,0,0,0,0,0,0,0,0,-1,1420,1156,0,0
203,-132,0,0,0,0,0,0,0,0,0,-1,1427,1156,0,0
210,-132,0,0,0,0,0,0,0,0,0,-1,1434,1156,0,0
217,-132,0,0,0,0,0,0,0,0,0,-1,1441,1156,0,0
224,-132,0,0,0,0,0,0,0,0,0,-1,1448,1156,0,0
231,-132,0,0,0,0,0,0,0,0,0,-1,1455,1156,0,0
238,-132,0,0,0,0,0,0,0,0,0,-1,1462,1156,0,0
245,-132,0,0,0,0,0,0,0,0,0,-1,1469,1156,0,0
252,-132,0,0,0,0,0,0,0,0,0,-1,1476,1156,0,0
259,-132,0,0,0,0,0,0,0,0,0,-1,1483,1156,0,0
266,-132,0,0,0,0,0,0,0,0,0,-1,1490,1156,0,0
273,-132,0,0,0,0,0,0,0,0,0,-1,1497,1156,0,0
280,-132,0,0,0,0,0,0,0,0,0,-1,1504,1156,0,0
287,-132,0,0,0,0,0,0,0,0,0,-1,1511,1156,0,0
294,-132,0,0,0,0,0,0,0,0,0,-1,1518,1156,0,0
301,-132,0,0,0,0,0,0,0,0,0,-1,1525,1156,0,0
308,-132,0,0,0,0,0,0,0,0,0,-1,1532,1156,0,0
315,-132,0,0,0,0,0,0,0,0,0,-1,1539,1156,0,0
322,-132,0,0,0,0,0,0,0,0,0,-1,1546,1156,0,0
329,-132,0,0,0,0,0,0,0,0,0,-1,1553,1156,0,0
336,-132,0,0,0,0,0,0,0,0,0,-1,1560,1156,0,0
343,-132,0,0,0,0,0,0,0,0,0,-1,1567,1156,0,0
350,-132,0,0,0,0,0,0,0,0,0,-1,1574,1156,0,0
357,-132,0,0,0,0,0,0,0,0,0,-1,1581,1156,0,0
364,-132,0,0,0,0,0,0,0,0,0,-1,1588,1156,0,0
371,-132,0,0,0,0,0,0,0,0,0,-1,1595,1156,0,0
378,-132,0,0,0,0,0,0,0,0,0,-1,1602,1156,0,0
385,-132,0,0,0,0,0,0,0,0,0,-1,1609,1156,0,0
392,-132,0,0,0,0,0,0,0,0,0,-1,1616,1156,0,0
399,-132,0,0,0,0,0,0,0,0,0,-1,1623,1156,0,0
406,-132,0,0,0,0,0,0,0,0,0,-1,1630,1156,0,0
413,-132,0,0,0,0,0,0,0,0,0,-1,1637,1156,0,0
420,-132,0,0,0,0,0,0,0,0,0,-1,1644,1156,0,0
427,-132,0,0,0,0,0,0,0,0,0,-1,1651,1156,0,0
434,-132,0,0,0,0,0,0,0,0,0,-1,1658,1156,0,0
441,-132,0,0,0,0,0,0,0,0,0,-1,1665,1156,0,0
448,-132,0,0,0,0,0,0,0,0,0,-1,1672,1156,0,0
455,-132,0,0,0,0,0,0,0,0,0,-1,1679,1156,0,0
462,-132,0,0,0,0,0,0,0,0,0,-1,1686,1156,0,0
469,-132,0,0,0,0,0,0,0,0,0,-1,1693,1156,0,0
476,-132,0,0,0,0,0,0,0,0,0,-1,1700,1156,0,0
483,-132,0,0,0,0,0,0,0,0,0,-1,1707,1156,0,0
490,-132,0,0,0,0,0,0,0,0,0,-1,1714,1156,0,0
497,-132,0,0,0,0,0,0,0,0,0,-1,1721,1156,0,0
504,-132,0,0,0,0,0,0,0,0,0,-1,1728,1156,0,0
511,-132,0,0,0,0,0,0,0,0,0,-1,1735,1156,0,0
518,-132,0,0,0,0,0,0,0,0,0,-1,1742,1156,0,0
525,-132,0,0,0,0,0,0,0,0,0,-1,1749,1156,0,0
532,-132,0,0,0,0,0,0,0,0,0,-1,1756,1156,0,0
539,-132,0,0,0,0,0,0,0,0,0,-1,1763,1156,0,0
546,-132,0,0,0,0,0,0,0,0,0,-1,1770,1156,0,0
553,-132,0,0,0,0,0,0,0,0,0,-1,1777,1156,0,0
560,-132,0,0,0,0,0,0,0,0,0,-1,1784,1156,0,0
567,-132,0,0,0,0,0,0,0,0,0,-1,1791,1156,0,0
574,-132,0,0,0,0,0,0,0,0,0,-1,1798,1156,0,0
581,-132,0,0,0,0,0,0,0,0,0,-1,1805,1156,0,0
588,-132,0,0,0,0,0,0,0,0,0,-1,1812,1156,0,0
595,-132,0,0,0,0,0,0,0,0,0,-1,1819,1156,0,0
602,-132,0,0,0,0,0,0,0,0,0,-1,1826,1156,0,0
609,-132,0,0,0,0,0,0,0,0,0,-1,1833,1156,0,0
616,-132,0,0,0,0,0,0,0,0,0,-1,1840,1156,0,0
623,-132,0,0,0,0,0,0,0,0,0,-1,1847,1156,0,0
630,-132,0,0,0,0,0,0,0,0,0,-1,1854,1156,0,0
637,-132,0,0,0,0,0,0,0,0,0,-1,1861,1156,0,0
644,-132,64.6288,2.57642,-0.000300268,0.00167065,0.00349064,0.00431227,-0.00294189,0.922975,0.00421303,0.0425689,1868,1156,64.6287,-2.57644
651,-132,64.6003,2.75159,0.000168793,0.00174679,0.00288889,0.00395249,-0.0020369,0.918705,0.00351643,0.0421979,1875,1156,64.6003,-2.75158
658,-132,64.6464,2.83752,0.000613159,0.00170232,0.00212858,0.00335488,-0.0010394,0.910633,0.00265185,0.0437961,1882,1156,64.6463,-2.83754
665,-132,64.7349,2.70898,0.000956444,0.0016399,0.00131432,0.00265619,-5.98516e-05,0.912583,0.00179108,0.0441274,1889,1156,64.7349,-2.70899
672,-132,64.6846,2.58289,0.00114662,0.00145192,0.000563089,0.00188268,0.000715857,0.917763,0.00109731,0.0391643,1896,1156,64.6846,-2.58294
679,-132,64.6896,2.74524,0.00120453,0.000975664,0.000143731,0.00127382,0.000906376,0.449199,0.000757062,0.0375228,1903,1156,64.6896,-2.74526
686,-132,64.6991,2.73364,0.00151269,0.000329532,3.50037e-05,0.00151373,0.000328497,0.0295505,0.000919425,0.0356469,1910,1156,64.6991,-2.73366
693,-132,64.6638,2.72937,0.00153368,-2.17642e-05,0.000132889,0.00154495,-3.30358e-05,0.0846175,0.00104115,0.030225,1917,1156,64.6638,-2.72943
700,-132,64.7351,2.69592,0,0,0,0,0,0,0,-1,1924,1156,64.7351,-2.69593
707,-132,57.9275,3.01367,0,0,0,0,0,0,0,-1,1931,1156,57.9275,-3.01369
714,-132,57.8083,9.22156,0,0,0,0,0,0,0,-1,1938,1156,57.8084,-9.22151
721,-132,57.7424,8.91785,0.000289327,-0.000457001,0.000860807,0.000854374,-0.00102205,0.580872,0.00108479,0.0483696,1945,1156,57.7425,-8.91781
728,-132,57.5679,8.59143,0.000860808,-0.000546577,0.000980025,0.00136361,-0.00104938,0.474034,0.00139707,0.0319618,1952,1156,57.5678,-8.59138
735,-132,57.5426,8.11853,0.00118194,-0.000740444,0.000974915,0.00158982,-0.00114832,0.396242,0.0015877,0.0325213,1959,1156,57.5426,-8.11849
742,-132,57.5809,7.48853,0.00108416,-0.000645351,0.00128526,0.0017685,-0.00132969,0.489272,0.00179471,0.0242131,1966,1156,57.5809,-7.48849
749,-132,57.5107,6.92603,0.00109313,-1.63434e-06,0.0018443,0.00246957,-0.00137807,0.641141,0.00225103,0.0255552,1973,1156,57.5108,-6.92606
756,-132,57.4976,6.39844,0.00188009,0.000993773,0.00280184,0.0042736,-0.00139974,0.706965,0.00341271,0.0241079,1980,1156,57.4975,-6.39839
763,-132,57.4689,5.88794,0.00318636,0.00178649,0.00471808,0.00725614,-0.00228329,0.71176,0.00575164,0.0147081,1987,1156,57.4688,-5.88794
770,-132,57.4761,5.37402,0.00459395,0.00229674,0.00739693,0.0109309,-0.00404023,0.708372,0.00894357,0.0144904,1994,1156,57.476,-5.37402
777,-132,57.439,4.83679,0.00580859,0.00244354,0.0110268,0.0152805,-0.00702841,0.70969,0.0131705,0.0265272,2001,1156,57.4389,-4.83683
784,-132,57.6655,4.42834,0.00657997,0.00211476,0.0159259,0.020429,-0.0117343,0.715759,0.0187943,0.0474629,2008,1156,57.6656,-4.4283
791,-132,57.9514,3.5282,0.0067386,0.00117662,0.0224592,0.0265883,-0.0186731,0.7238,0.0262645,0.0497282,2015,1156,57.9515,-3.52825
798,-132,58.0945,2.6709,0.0056816,-0.000468298,0.0312201,0.0339779,-0.0287646,0.73631,0.036266,0.0473319,2022,1156,58.0945,-2.67091
805,-132,57.6226,2.60364,0.00246079,-0.00310768,0.042987,0.0427537,-0.0434006,0.753059,0.0497416,0.0452686,2029,1156,57.6224,-2.60369
812,-132,56.9709,2.68896,0,0,0,0,0,0,0,-1,2036,1156,56.971,-2.68902
-700,-139,0,0,0,0,0,0,0,0,0,-1,524,1163,0,0
-693,-139,-41.2822,-4.71216,0,0,0,0,0,0,0,-1,531,1163,-41.2822,4.71221
-686,-139,-41.7949,-3.78027,0,0,0,0,0,0,0,-1,538,1163,-41.7949,3.78032
-679,-139,-41.6311,-2.76746,0.0259714,0.0642762,0.060182,0.10828,-0.0180322,0.939452,0.0788873,0.0481534,545,1163,-41.6311,2.76744
-672,-139,-41.6328,-1.50134,0.0254645,0.0554157,0.0505684,0.0931794,-0.0122991,0.929357,0.0665989,0.0449322,552,1163,-41.6328,1.50129
-665,-139,-41.6353,-0.23999,0.0233336,0.0464992,0.0412678,0.0777789,-0.00794613,0.922215,0.0546941,0.0473497,559,1163,-41.6353,0.239982
-658,-139,-41.8501,0.897949,0,0,0,0,0,0,0,-1,566,1163,-41.8501,-0.897947
-651,-139,-41.5126,1.72375,0.0164884,0.0294106,0.0241793,0.0479772,-0.00207812,0.915956,0.0326995,0.0451657,573,1163,-41.5126,-1.72381
-644,-139,-41.1473,2.5625,0.0124631,0.021635,0.0166916,0.0343591,-0.00026108,0.919464,0.0229936,0.0250155,580,1163,-41.1473,-2.56247
-637,-139,-41.1655,3.10413,0.00830723,0.0145272,0.0100142,0.0219032,0.000931191,0.935954,0.0143018,0.0147133,587,1163,-41.1655,-3.1041
-630,-139,-41.1824,3.6582,0.0043671,0.0079814,0.00411825,0.0106716,0.00167695,0.992155,0.0066265,0.010908,594,1163,-41.1824,-3.6582
-623,-139,-41.2205,4.23792,0.000255129,0.00253976,-0.000345806,0.00259096,0.000203934,-1.42382,0.0016635,0.0172318,601,1163,-41.2204,-4.23788
-616,-139,-41.2592,4.80005,-0.00233181,-0.000375257,-0.00171117,0.000617539,-0.00332461,-1.04507,0.00244835,0.0206294,608,1163,-41.2592,-4.80008
-609,-139,-41.045,5.38367,0,0,0,0,0,0,0,-1,615,1163,-41.045,-5.38361
-602,-139,-41.1707,6.00476,-0.00338335,-0.000688205,-0.000951546,-0.000386113,-0.00368544,-1.26339,0.00233891,0.0359665,622,1163,-41.1707,-6.00476
-595,-139,-41.3971,6.56641,-0.00367313,-0.000482335,-0.00112389,-0.000126215,-0.00402925,-1.26394,0.0026451,0.0479639,629,1163,-41.3971,-6.56638
-588,-139,-41.7433,7.01868,0,0,0,0,0,0,0,-1,636,1163,-41.7433,-7.01866
-581,-139,-34.4892,6.72473,0,0,0,0,0,0,0,-1,643,1163,-34.4892,-6.72476
-574,-139,-23.0725,2.4043,0,0,0,0,0,0,0,-1,650,1163,-23.0725,-2.40433
-567,-139,-48.8411,0.779053,0,0,0,0,0,0,0,-1,657,1163,-48.841,-0.779092
-560,-139,-48.8609,0.857422,-0.0020942,-0.0015259,-0.000252756,-0.00142975,-0.00219035,-1.2073,0.00128412,0.0362853,664,1163,-48.8609,-0.85746
-553,-139,-48.8776,0.939697,-0.00171888,-0.0011904,-0.000217986,-0.00111209,-0.00179719,-1.22591,0.00104732,0.0376098,671,1163,-48.8776,-0.939645
-546,-139,-48.9231,0.856201,-0.000493886,-0.000819075,-0.00030352,-0.000312153,-0.00100081,-0.539501,0.000591289,0.0413937,678,1163,-48.9231,-0.856231
-539,-139,-48.8552,0.781738,0.00190332,-0.00094973,-0.000940515,0.00218546,-0.00123187,-0.291444,0.00199844,0.0420454,685,1163,-48.8552,-0.781697
-532,-139,-48.7596,0.776978,0.00514325,-0.00184895,-0.00171803,0.00554258,-0.00224827,-0.228377,0.00463015,0.0398896,692,1163,-48.7596,-0.776929
-525,-139,-48.7209,0.832642,0.00819467,-0.00298502,-0.00229756,0.00864843,-0.00343878,-0.194987,0.00719137,0.0404102,699,1163,-48.721,-0.832631
-518,-139,0,0,0,0,0,0,0,0,0,-1,706,1163,0,0
-511,-139,0,0,0,0,0,0,0,0,0,-1,713,1163,0,0
-504,-139,0,0,0,0,0,0,0,0,0,-1,720,1163,0,0
-497,-139,0,0,0,0,0,0,0,0,0,-1,727,1163,0,0
-490,-139,0,0,0,0,0,0,0,0,0,-1,734,1163,0,0
-483,-139,0,0,0,0,0,0,0,0,0,-1,741,1163,0,0
-476,-139,0,0,0,0,0,0,0,0,0,-1,748,1163,0,0
-469,-139,0,0,0,0,0,0,0,0,0,-1,755,1163,0,0
-462,-139,0,0,0,0,0,0,0,0,0,-1,762,1163,0,0
-455,-139,0,0,0,0,0,0,0,0,0,-1,769,1163,0,0
-448,-139,0,0,0,0,0,0,0,0,0,-1,776,1163,0,0
-441,-139,0,0,0,0,0,0,0,0,0,-1,783,1163,0,0
-434,-139,0,0,0,0,0,0,0,0,0,-1,790,1163,0,0
-427,-139,0,0,0,0,0,0,0,0,0,-1,797,1163,0,0
-420,-139,0,0,0,0,0,0,0,0,0,-1,804,1163,0,0
-413,-139,0,0,0,0,0,0,0,0,0,-1,811,1163,0,0
-406,-139,0,0,0,0,0,0,0,0,0,-1,818,1163,0,0
-399,-139,0,0,0,0,0,0,0,0,0,-1,825,1163,0,0
-392,-139,0,0,0,0,0,0,0,0,0,-1,832,1163,0,0
-385,-139,0,0,0,0,0,0,0,0,0,-1,839,1163,0,0
-378,-139,0,0,0,0,0,0,0,0,0,-1,846,1163,0,0
-371,-139,0,0,0,0,0,0,0,0,0,-1,853,1163,0,0
-364,-139,0,0,0,0,0,0,0,0,0,-1,860,1163,0,0
-357,-139,0,0,0,0,0,0,0,0,0,-1,867,1163,0,0
-350,-139,0,0,0,0,0,0,0,0,0,-1,874,1163,0,0
-343,-139,0,0,0,0,0,0,0,0,0,-1,881,1163,0,0
-336,-139,0,0,0,0,0,0,0,0,0,-1,888,1163,0,0
-329,-139,0,0,0,0,0,0,0,0,0,-1,895,1163,0,0
-322,-139,0,0,0,0,0,0,0,0,0,-1,902,1163,0,0
-315,-139,0,0,0,0,0,0,0,0,0,-1,909,1163,0,0
-308,-139,0,0,0,0,0,0,0,0,0,-1,916,1163,0,0
-301,-139,0,0,0,0,0,0,0,0,0,-1,923,1163,0,0
-294,-139,0,0,0,0,0,0,0,0,0,-1,930,1163,0,0
-287,-139,0,0,0,0,0,0,0,0,0,-1,937,1163,0,0
-280,-139,0,0,0,0,0,0,0,0,0,-1,944,1163,0,0
-273,-139,0,0,0,0,0,0,0,0,0,-1,951,1163,0,0
-266,-139,0,0,0,0,0,0,0,0,0,-1,958,1163,0,0
-259,-139,0,0,0,0,0,0,0,0,0,-1,965,1163,0,0
-252,-139,0,0,0,0,0,0,0,0,0,-1,972,1163,0,0
-245,-139,0,0,0,0,0,0,0,0,0,-1,979,1163,0,0
-238,-139,0,0,0,0,0,0,0,0,0,-1,986,1163,0,0
-231,-139,0,0,0,0,0,0,0,0,0,-1,993,1163,0,0
-224,-139,0,0,0,0,0,0,0,0,0,-1,1000,1163,0,0
-217,-139,0,0,0,0,0,0,0,0,0,-1,1007,1163,0,0
-210,-139,0,0,0,0,0,0,0,0,0,-1,1014,1163,0,0
-203,-139,0,0,0,0,0,0,0,0,0,-1,1021,1163,0,0
-196,-139,0,0,0,0,0,0,0,0,0,-1,1028,1163,0,0
-189,-139,0,0,0,0,0,0,0,0,0,-1,1035,1163,0,0
-182,-139,0,0,0,0,0,0,0,0,0,-1,1042,1163,0,0
-175,-139,0,0,0,0,0,0,0,0,0,-1,1049,1163,0,0
-168,-139,0,0,0,0,0,0,0,0,0,-1,1056,1163,0,0
-161,-139,0,0,0,0,0,0,0,0,0,-1,1063,1163,0,0
-154,-139,0,0,0,0,0,0,0,0,0,-1,1070,1163,0,0
-147,-139,0,0,0,0,0,0,0,0,0,-1,1077,1163,0,0
-140,-139,0,0,0,0,0,0,0,0,0,-1,1084,1163,0,0
-133,-139,0,0,0,0,0,0,0,0,0,-1,1091,1163,0,0
-126,-139,0,0,0,0,0,0,0,0,0,-1,1098,1163,0,0
-119,-139,0,0,0,0,0,0,0,0,0,-1,1105,1163,0,0
-112,-139,0,0,0,0,0,0,0,0,0,-1,1112,1163,0,0
-105,-139,0,0,0,0,0,0,0,0,0,-1,1119,1163,0,0
-98,-139,0,0,0,0,0,0,0,0,0,-1,1126,1163,0,0
-91,-139,0,0,0,0,0,0,0,0,0,-1,1133,1163,0,0
-84,-139,0,0,0,0,0,0,0,0,0,-1,1140,1163,0,0
-77,-139,0,0,0,0,0,0,0,0,0,-1,1147,1163,0,0
-70,-139,0,0,0,0,0,0,0,0,0,-1,1154,1163,0,0
-63,-139,0,0,0,0,0,0,0,0,0,-1,1161,1163,0,0
-56,-139,0,0,0,0,0,0,0,0,0,-1,1168,1163,0,0
-49,-139,0,0,0,0,0,0,0,0,0,-1,1175,1163,0,0
-42,-139,0,0,0,0,0,0,0,0,0,-1,1182,1163,0,0
-35,-139,0,0,0,0,0,0,0,0,0,-1,1189,1163,0,0
-28,-139,0,0,0,0,0,0,0,0,0,-1,1196,1163,0,0
-21,-139,0,0,0,0,0,0,0,0,0,-1,1203,1163,0,0
-14,-139,0,0,0,0,0,0,0,0,0,-1,1210,1163,0,0
-7,-139,0,0,0,0,0,0,0,0,0,-1,1217,1163,0,0
0,-139,0,0,0,0,0,0,0,0,0,-1,1224,1163,0,0
7,-139,0,0,0,0,0,0,0,0,0,-1,1231,1163,0,0
14,-139,0,0,0,0,0,0,0,0,0,-1,1238,1163,0,0
21,-139,0,0,0,0,0,0,0,0,0,-1,1245,1163,0,0
28,-139,0,0,0,0,0,0,0,0,0,-1,1252,1163,0,0
35,-139,0,0,0,0,0,0,0,0,0,-1,1259,1163,0,0
42,-139,0,0,0,0,0,0,0,0,0,-1,1266,1163,0,0
49,-139,0,0,0,0,0,0,0,0,0,-1,1273,1163,0,0
56,-139,0,0,0,0,0,0,0,0,0,-1,1280,1163,0,0
63,-139,0,0,0,0,0,0,0,0,0,-1,1287,1163,0,0
70,-139,0,0,0,0,0,0,0,0,0,-1,1294,1163,0,0
77,-139,0,0,0,0,0,0,0,0,0,-1,1301,1163,0,0
84,-139,0,0,0,0,0,0,0,0,0,-1,1308,1163,0,0
91,-139,0,0,0,0,0,0,0,0,0,-1,1315,1163,0,0
98,-139,0,0,0,0,0,0,0,0,0,-1,1322,1163,0,0
105,-139,0,0,0,0,0,0,0,0,0,-1,1329,1163,0,0
112,-139,0,0,0,0,0,0,0,0,0,-1,1336,1163,0,0
119,-139,0,0,0,0,0,0,0,0,0,-1,1343,1163,0,0
126,-139,0,0,0,0,0,0,0,0,0,-1,1350,1163,0,0
133,-139,0,0,0,0,0,0,0,0,0,-1,1357,1163,0,0
140,-139,0,0,0,0,0,0,0,0,0,-1,1364,1163,0,0
147,-139,0,0,0,0,0,0,0,0,0,-1,1371,1163,0,0
154,-139,0,0,0,0,0,0,0,0,0,-1,1378,1163,0,0
161,-139,0,0,0,0,0,0,0,0,0,-1,1385,1163,0,0
168,-139,0,0,0,0,0,0,0,0,0,-1,1392,1163,0,0
175,-139,0,0,0,0,0,0,0,0,0,-1,1399,1163,0,0
182,-139,0,0,0,0,0,0,0,0,0,-1,1406,1163,0,0
189,-139,0,0,0,0,0,0,0,0,0,-1,1413,1163,0,0
196,-139,0,0,0,0,0,0,0,0,0,-1,1420,1163,0,0
203,-139,0,0,0,0,0,0,0,0,0,-1,1427,1163,0,0
210,-139,0,0,0,0,0,0,0,0,0,-1,1434,1163,0,0
217,-139,0,0,0,0,0,0,0,0,0,-1,1441,1163,0,0
224,-139,0,0,0,0,0,0,0,0,0,-1,1448,1163,0,0
231,-139,0,0,0,0,0,0,0,0,0,-1,1455,1163,0,0
238,-139,0,0,0,0,0,0,0,0,0,-1,1462,1163,0,0
245,-139,0,0,0,0,0,0,0,0,0,-1,1469,1163,0,0
252,-139,0,0,0,0,0,0,0,0,0,-1,1476,1163,0,0
259,-139,0,0,0,0,0,0,0,0,0,-1,1483,1163,0,0
266,-139,0,0,0,0,0,0,0,0,0,-1,1490,1163,0,0
273,-139,0,0,0,0,0,0,0,0,0,-1,1497,1163,0,0
280,-139,0,0,0,0,0,0,0,0,0,-1,1504,1163,0,0
287,-139,0,0,0,0,0,0,0,0,0,-1,1511,1163,0,0
294,-139,0,0,0,0,0,0,0,0,0,-1,1518,1163,0,0
301,-139,0,0,0,0,0,0,0,0,0,-1,1525,1163,0,0
308,-139,0,0,0,0,0,0,0,0,0,-1,1532,1163,0,0
315,-139,0,0,0,0,0,0,0,0,0,-1,1539,1163,0,0
322,-139,0,0,0,0,0,0,0,0,0,-1,1546,1163,0,0
329,-139,0,0,0,0,0,0,0,0,0,-1,1553,1163,0,0
336,-139,0,0,0,0,0,0,0,0,0,-1,1560,1163,0,0
343,-139,0,0,0,0,0,0,0,0,0,-1,1567,1163,0,0
350,-139,0,0,0,0,0,0,0,0,0,-1,1574,1163,0,0
357,-139,0,0,0,0,0,0,0,0,0,-1,1581,1163,0,0
364,-139,0,0,0,0,0,0,0,0,0,-1,1588,1163,0,0
371,-139,0,0,0,0,0,0,0,0,0,-1,1595,1163,0,0
378,-139,0,0,0,0,0,0,0,0,0,-1,1602,1163,0,0
385,-139,0,0,0,0,0,0,0,0,0,-1,1609,1163,0,0
392,-139,0,0,0,0,0,0,0,0,0,-1,1616,1163,0,0
399,-139,0,0,0,0,0,0,0,0,0,-1,1623,1163,0,0
406,-139,0,0,0,0,0,0,0,0,0,-1,1630,1163,0,0
413,-139,0,0,0,0,0,0,0,0,0,-1,1637,1163,0,0
420,-139,0,0,0,0,0,0,0,0,0,-1,1644,1163,0,0
427,-139,0,0,0,0,0,0,0,0,0,-1,1651,1163,0,0
434,-139,0,0,0,0,0,0,0,0,0,-1,1658,1163,0,0
441,-139,0,0,0,0,0,0,0,0,0,-1,1665,1163,0,0
448,-139,0,0,0,0,0,0,0,0,0,-1,1672,1163,0,0
455,-139,0,0,0,0,0,0,0,0,0,-1,1679,1163,0,0
462,-139,0,0,0,0,0,0,0,0,0,-1,1686,1163,0,0
469,-139,0,0,0,0,0,0,0,0,0,-1,1693,1163,0,0
476,-139,0,0,0,0,0,0,0,0,0,-1,1700,1163,0,0
483,-139,0,0,0,0,0,0,0,0,0,-1,1707,1163,0,0
490,-139,0,0,0,0,0,0,0,0,0,-1,1714,1163,0,0
497,-139,0,0,0,0,0,0,0,0,0,-1,1721,1163,0,0
504,-139,0,0,0,0,0,0,0,0,0,-1,1728,1163,0,0
511,-139,0,0,0,0,0,0,0,0,0,-1,1735,1163,0,0
518,-139,0,0,0,0,0,0,0,0,0,-1,1742,1163,0,0
525,-139,0,0,0,0,0,0,0,0,0,-1,1749,1163,0,0
532,-139,0,0,0,0,0,0,0,0,0,-1,1756,1163,0,0
539,-139,0,0,0,0,0,0,0,0,0,-1,1763,1163,0,0
546,-139,0,0,0,0,0,0,0,0,0,-1,1770,1163,0,0
553,-139,0,0,0,0,0,0,0,0,0,-1,1777,1163,0,0
560,-139,0,0,0,0,0,0,0,0,0,-1,1784,1163,0,0
567,-139,0,0,0,0,0,0,0,0,0,-1,1791,1163,0,0
574,-139,0,0,0,0,0,0,0,0,0,-1,1798,1163,0,0
581,-139,0,0,0,0,0,0,0,0,0,-1,1805,1163,0,0
588,-139,0,0,0,0,0,0,0,0,0,-1,1812,1163,0,0
595,-139,0,0,0,0,0,0,0,0,0,-1,1819,1163,0,0
602,-139,0,0,0,0,0,0,0,0,0,-1,1826,1163,0,0
609,-139,0,0,0,0,0,0,0,0,0,-1,1833,1163,0,0
616,-139,0,0,0,0,0,0,0,0,0,-1,1840,1163,0,0
623,-139,0,0,0,0,0,0,0,0,0,-1,1847,1163,0,0
630,-139,0,0,0,0,0,0,0,0,0,-1,1854,1163,0,0
637,-139,0,0,0,0,0,0,0,0,0,-1,1861,1163,0,0
644,-139,64.5471,2.55115,-0.00112979,0.00261086,0.00250208,0.0038644,-0.00238333,1.10635,0.00364075,0.0395106,1868,1163,64.5471,-2.55109
651,-139,64.4517,2.69324,-0.000262887,0.00240833,0.00217574,0.0036257,-0.00148025,1.06067,0.00303343,0.0423409,1875,1163,64.4516,-2.6932
658,-139,64.6101,2.75427,0.000469159,0.00214351,0.00164135,0.00314886,-0.000536183,1.02123,0.0022989,0.0449575,1882,1163,64.6101,-2.75431
665,-139,64.7096,2.66772,0.00109074,0.00189134,0.00101747,0.00258442,0.000397663,0.972812,0.00160688,0.0415836,1889,1163,64.7096,-2.66772
672,-139,64.6808,2.60669,0.00150264,0.0015377,0.000425591,0.00194612,0.00109422,0.805983,0.0011265,0.038522,1896,1163,64.6808,-2.60674
679,-139,64.7584,2.76648,0.00171594,0.000943293,0.00011637,0.00173308,0.000926147,0.14629,0.00100139,0.0359368,1903,1163,64.7584,-2.76643
686,-139,64.6815,2.79272,0.00205636,0.000339259,6.93503e-05,0.00205915,0.000336463,0.0403006,0.00127549,0.0349757,1910,1163,64.6815,-2.79277
693,-139,64.6733,2.70532,0.00199065,7.42205e-05,0.000191622,0.00200963,5.52483e-05,0.0986871,0.00132172,0.0248935,1917,1163,64.6734,-2.70532
700,-139,64.7555,2.53601,0,0,0,0,0,0,0,-1,1924,1163,64.7555,-2.53596
707,-139,32.116,6.54346,0,0,0,0,0,0,0,-1,1931,1163,32.116,-6.54343
714,-139,57.1093,9.69531,0,0,0,0,0,0,0,-1,1938,1163,57.1092,-9.69529
721,-139,57.2054,9.06287,0,0,0,0,0,0,0,-1,1945,1163,57.2054,-9.06281
728,-139,56.9878,8.68262,0,0,0,0,0,0,0,-1,1952,1163,56.9878,-8.68261
735,-139,56.8694,8.23596,0.00135314,-0.000637398,0.001025,0.00178657,-0.00107083,0.400057,0.00166688,0.0384963,1959,1163,56.8694,-8.23597
742,-139,56.9888,7.47522,0.00112852,-0.000647488,0.0013404,0.00184838,-0.00136735,0.492846,0.00186352,0.0252041,1966,1163,56.9887,-7.4752
749,-139,56.9515,6.89465,0.00115174,-4.25616e-05,0.0018393,0.0024884,-0.00137922,0.628435,0.00226337,0.0204119,1973,1163,56.9515,-6.89462
756,-139,56.9236,6.40833,0.00216559,0.00100406,0.0028073,0.00445157,-0.00128192,0.683399,0.00347476,0.0118079,1980,1163,56.9236,-6.40833
763,-139,56.8757,5.87622,0.00362294,0.00196135,0.00474811,0.00761239,-0.0020281,0.698788,0.00586895,0.0120269,1987,1163,56.8757,-5.87621
770,-139,56.8823,5.36072,0.00518832,0.00275449,0.00745523,0.0115253,-0.00358249,0.704497,0.00911546,0.0133243,1994,1163,56.8824,-5.3607
777,-139,56.9119,4.88464,0.00651304,0.00331822,0.0111098,0.0161397,-0.00630847,0.713996,0.0133684,0.026562,2001,1163,56.9119,-4.88465
784,-139,56.8569,4.26196,0.00736704,0.00357531,0.0160343,0.0216172,-0.0106748,0.726552,0.0189972,0.0440849,2008,1163,56.8569,-4.26193
791,-139,56.9854,3.4552,0.00754587,0.00342665,0.0225208,0.028101,-0.0171285,0.739798,0.0263682,0.0479071,2015,1163,56.9853,-3.45516
798,-139,57.0049,2.87354,0.00633831,0.0028497,0.0311998,0.0358426,-0.0266546,0.757473,0.0362125,0.0466746,2022,1163,57.005,-2.87355
805,-139,56.7866,2.68811,0.00274189,0.00152162,0.0429181,0.0450542,-0.0407906,0.778291,0.0495829,0.0465488,2029,1163,56.7865,-2.68814
812,-139,0,0,0,0,0,0,0,0,0,-1,2036,1163,0,0
-700,-146,0,0,0,0,0,0,0,0,0,-1,524,1170,0,0
-693,-146,-41.0475,-5.32959,0,0,0,0,0,0,0,-1,531,1170,-41.0476,5.32955
-686,-146,-41.2348,-4.40405,0.0238778,0.0853192,0.0699509,0.130998,-0.0218011,0.992306,0.0954328,0.0465172,538,1170,-41.2348,4.40402
-679,-146,-41.5209,-3.07605,0.0260838,0.0747717,0.0595357,0.114748,-0.0138928,0.979474,0.0815253,0.0465797,545,1170,-41.5209,3.07603
-672,-146,-41.5294,-1.86523,0.0255036,0.0637125,0.0493859,0.0975604,-0.00834424,0.969953,0.0679926,0.0427296,552,1170,-41.5294,1.86522
-665,-146,-41.2206,-0.732178,0.0233867,0.0528824,0.0399119,0.0806841,-0.00441501,0.962373,0.0553198,0.0451362,559,1170,-41.2206,0.732128
-658,-146,-41.1092,0.895996,0,0,0,0,0,0,0,-1,566,1170,-41.1092,-0.895969
-651,-146,-40.8214,1.69666,0.0166579,0.0327355,0.0230575,0.0491153,0.000278069,0.95313,0.0326512,0.0419369,573,1170,-40.8214,-1.69662
-644,-146,-40.4991,2.51135,0.0126136,0.0237666,0.0157668,0.034914,0.0014662,0.955375,0.022803,0.0243669,580,1170,-40.4992,-2.51134
-637,-146,-40.5446,3.08813,0.00839639,0.0156968,0.00933848,0.0220731,0.00202006,0.971706,0.0140904,0.0126509,587,1170,-40.5445,-3.08819
-630,-146,-40.5824,3.66504,0.00441001,0.00848136,0.00369197,0.0106617,0.00222969,1.03735,0.00649344,0.011354,594,1170,-40.5824,-3.66508
-623,-146,-40.6194,4.24219,9.93881e-05,0.0027247,-0.000535522,0.00282974,-5.64742e-06,-1.37712,0.00188838,0.0138018,601,1170,-40.6194,-4.24222
-616,-146,-40.6974,4.81042,-0.00297284,-0.00027056,-0.0019257,0.000730723,-0.00397413,-1.09131,0.00292359,0.0208559,608,1170,-40.6974,-4.81043
-609,-146,-40.7874,5.41052,0,0,0,0,0,0,0,-1,615,1170,-40.7873,-5.41058
-602,-146,-40.5568,6.09412,0,0,0,0,0,0,0,-1,622,1170,-40.5568,-6.09406
-595,-146,-40.7556,6.64514,0,0,0,0,0,0,0,-1,629,1170,-40.7555,-6.64509
-588,-146,-41.1216,7.13257,0,0,0,0,0,0,0,-1,636,1170,-41.1216,-7.13261
-581,-146,-31.7815,6.30347,0,0,0,0,0,0,0,-1,643,1170,-31.7815,-6.3035
-574,-146,-17.9915,3.79114,0,0,0,0,0,0,0,-1,650,1170,-17.9915,-3.79118
-567,-146,-44.4572,0.6604,0,0,0,0,0,0,0,-1,657,1170,-44.4572,-0.660404
-560,-146,-48.8323,0.871338,0,0,0,0,0,0,0,-1,664,1170,-48.8323,-0.871352
-553,-146,-48.8376,0.955566,-0.00246507,-0.00120444,-0.000579336,-0.000978646,-0.00269087,-1.19916,0.0015727,0.0374946,671,1170,-48.8376,-0.955579
-546,-146,-48.8446,0.900879,-0.00121155,-0.000944645,-0.000433291,-0.00062472,-0.00153147,-0.934787,0.000889181,0.0407489,678,1170,-48.8446,-0.900938
-539,-146,-48.9886,0.83606,0.00127667,-0.00102055,-0.000627712,0.001437,-0.00118088,-0.250075,0.00151384,0.0412525,685,1170,-48.9886,-0.8361
-532,-146,-48.8212,0.662231,0.00460246,-0.0017866,-0.000859584,0.00471609,-0.00190023,-0.131427,0.00393356,0.0401323,692,1170,-48.8212,-0.662227
-525,-146,-48.6372,0.782227,0.00777303,-0.00275205,-0.000951663,0.00785839,-0.00283741,-0.0894518,0.00639801,0.0434479,699,1170,-48.6372,-0.782253
-518,-146,0,0,0,0,0,0,0,0,0,-1,706,1170,0,0
-511,-146,0,0,0,0,0,0,0,0,0,-1,713,1170,0,0
-504,-146,0,0,0,0,0,0,0,0,0,-1,720,1170,0,0
-497,-146,0,0,0,0,0,0,0,0,0,-1,727,1170,0,0
-490,-146,0,0,0,0,0,0,0,0,0,-1,734,1170,0,0
-483,-146,0,0,0,0,0,0,0,0,0,-1,741,1170,0,0
-476,-146,0,0,0,0,0,0,0,0,0,-1,748,1170,0,0
-469,-146,0,0,0,0,0,0,0,0,0,-1,755,1170,0,0
-462,-146,0,0,0,0,0,0,0,0,0,-1,762,1170,0,0
-455,-146,0,0,0,0,0,0,0,0,0,-1,769,1170,0,0
-448,-146,0,0,0,0,0,0,0,0,0,-1,776,1170,0,0
-441,-146,0,0,0,0,0,0,0,0,0,-1,783,1170,0,0
-434,-146,0,0,0,0,0,0,0,0,0,-1,790,1170,0,0
-427,-146,0,0,0,0,0,0,0,0,0,-1,797,1170,0,0
-420,-146,0,0,0,0,0,0,0,0,0,-1,804,1170,0,0
-413,-146,0,0,0,0,0,0,0,0,0,-1,811,1170,0,0
-406,-146,0,0,0,0,0,0,0,0,0,-1,818,1170,0,0
-399,-146,0,0,0,0,0,0,0,0,0,-1,825,1170,0,0
-392,-146,0,0,0,0,0,0,0,0,0,-1,832,1170,0,0
-385,-146,0,0,0,0,0,0,0,0,0,-1,839,1170,0,0
-378,-146,0,0,0,0,0,0,0,0,0,-1,846,1170,0,0
-371,-146,0,0,0,0,0,0,0,0,0,-1,853,1170,0,0
-364,-146,0,0,0,0,0,0,0,0,0,-1,860,1170,0,0
-357,-146,0,0,0,0,0,0,0,0,0,-1,867,1170,0,0
-350,-146,0,0,0,0,0,0,0,0,0,-1,874,1170,0,0
-343,-146,0,0,0,0,0,0,0,0,0,-1,881,1170,0,0
-336,-146,0,0,0,0,0,0,0,0,0,-1,888,1170,0,0
-329,-146,0,0,0,0,0,0,0,0,0,-1,895,1170,0,0
-322,-146,0,0,0,0,0,0,0,0,0,-1,902,1170,0,0
-315,-146,0,0,0,0,0,0,0,0,0,-1,909,1170,0,0
-308,-146,0,0,0,0,0,0,0,0,0,-1,916,1170,0,0
-301,-146,0,0,0,0,0,0,0,0,0,-1,923,1170,0,0
-294,-146,0,0,0,0,0,0,0,0,0,-1,930,1170,0,0
-287,-146,0,0,0,0,0,0,0,0,0,-1,937,1170,0,0
-280,-146,0,0,0,0,0,0,0,0,0,-1,944,1170,0,0
-273,-146,0,0,0,0,0,0,0,0,0,-1,951,1170,0,0
-266,-146,0,0,0,0,0,0,0,0,0,-1,958,1170,0,0
-259,-146,0,0,0,0,0,0,0,0,0,-1,965,1170,0,0
-252,-146,0,0,0,0,0,0,0,0,0,-1,972,1170,0,0
-245,-146,0,0,0,0,0,0,0,0,0,-1,979,1170,0,0
-238,-146,0,0,0,0,0,0,0,0,0,-1,986,1170,0,0
-231,-146,0,0,0,0,0,0,0,0,0,-1,993,1170,0,0
-224,-146,0,0,0,0,0,0,0,0,0,-1,1000,1170,0,0
-217,-146,0,0,0,0,0,0,0,0,0,-1,1007,1170,0,0
-210,-146,0,0,0,0,0,0,0,0,0,-1,1014,1170,0,0
-203,-146,0,0,0,0,0,0,0,0,0,-1,1021,1170,0,0
-196,-146,0,0,0,0,0,0,0,0,0,-1,1028,1170,0,0
-189,-146,0,0,0,0,0,0,0,0,0,-1,1035,1170,0,0
-182,-146,0,0,0,0,0,0,0,0,0,-1,1042,1170,0,0
-175,-146,0,0,0,0,0,0,0,0,0,-1,1049,1170,0,0
-168,-146,0,0,0,0,0,0,0,0,0,-1,1056,1170,0,0
-161,-146,0,0,0,0,0,0,0,0,0,-1,1063,1170,0,0
-154,-146,0,0,0,0,0,0,0,0,0,-1,1070,1170,0,0
-147,-146,0,0,0,0,0,0,0,0,0,-1,1077,1170,0,0
-140,-146,0,0,0,0,0,0,0,0,0,-1,1084,1170,0,0
-133,-146,0,0,0,0,0,0,0,0,0,-1,1091,1170,0,0
-126,-146,0,0,0,0,0,0,0,0,0,-1,1098,1170,0,0
-119,-146,0,0,0,0,0,0,0,0,0,-1,1105,1170,0,0
-112,-146,0,0,0,0,0,0,0,0,0,-1,1112,1170,0,0
-105,-146,0,0,0,0,0,0,0,0,0,-1,1119,1170,0,0
-98,-146,0,0,0,0,0,0,0,0,0,-1,1126,1170,0,0
-91,-146,0,0,0,0,0,0,0,0,0,-1,1133,1170,0,0
-84,-146,0,0,0,0,0,0,0,0,0,-1,1140,1170,0,0
-77,-146,0,0,0,0,0,0,0,0,0,-1,1147,1170,0,0
-70,-146,0,0,0,0,0,0,0,0,0,-1,1154,1170,0,0
-63,-146,0,0,0,0,0,0,0,0,0,-1,1161,1170,0,0
-56,-146,0,0,0,0,0,0,0,0,0,-1,1168,1170,0,0
-49,-146,0,0,0,0,0,0,0,0,0,-1,1175,1170,0,0
-42,-146,0,0,0,0,0,0,0,0,0,-1,1182,1170,0,0
-35,-146,0,0,0,0,0,0,0,0,0,-1,1189,1170,0,0
-28,-146,0,0,0,0,0,0,0,0,0,-1,1196,1170,0,0
-21,-146,0,0,0,0,0,0,0,0,0,-1,1203,1170,0,0
-14,-146,0,0,0,0,0,0,0,0,0,-1,1210,1170,0,0
-7,-146,0,0,0,0,0,0,0,0,0,-1,1217,1170,0,0
0,-146,0,0,0,0,0,0,0,0,0,-1,1224,1170,0,0
7,-146,0,0,0,0,0,0,0,0,0,-1,1231,1170,0,0
14,-146,0,0,0,0,0,0,0,0,0,-1,1238,1170,0,0
21,-146,0,0,0,0,0,0,0,0,0,-1,1245,1170,0,0
28,-146,0,0,0,0,0,0,0,0,0,-1,1252,1170,0,0
35,-146,0,0,0,0,0,0,0,0,0,-1,1259,1170,0,0
42,-146,0,0,0,0,0,0,0,0,0,-1,1266,1170,0,0
49,-146,0,0,0,0,0,0,0,0,0,-1,1273,1170,0,0
56,-146,0,0,0,0,0,0,0,0,0,-1,1280,1170,0,0
63,-146,0,0,0,0,0,0,0,0,0,-1,1287,1170,0,0
70,-146,0,0,0,0,0,0,0,0,0,-1,1294,1170,0,0
77,-146,0,0,0,0,0,0,0,0,0,-1,1301,1170,0,0
84,-146,0,0,0,0,0,0,0,0,0,-1,1308,1170,0,0
91,-146,0,0,0,0,0,0,0,0,0,-1,1315,1170,0,0
98,-146,0,0,0,0,0,0,0,0,0,-1,1322,1170,0,0
105,-146,0,0,0,0,0,0,0,0,0,-1,1329,1170,0,0
112,-146,0,0,0,0,0,0,0,0,0,-1,1336,1170,0,0
119,-146,0,0,0,0,0,0,0,0,0,-1,1343,1170,0,0
126,-146,0,0,0,0,0,0,0,0,0,-1,1350,1170,0,0
133,-146,0,0,0,0,0,0,0,0,0,-1,1357,1170,0,0
140,-146,0,0,0,0,0,0,0,0,0,-1,1364,1170,0,0
147,-146,0,0,0,0,0,0,0,0,0,-1,1371,1170,0,0
154,-146,0,0,0,0,0,0,0,0,0,-1,1378,1170,0,0
161,-146,0,0,0,0,0,0,0,0,0,-1,1385,1170,0,0
168,-146,0,0,0,0,0,0,0,0,0,-1,1392,1170,0,0
175,-146,0,0,0,0,0,0,0,0,0,-1,1399,1170,0,0
182,-146,0,0,0,0,0,0,0,0,0,-1,1406,1170,0,0
189,-146,0,0,0,0,0,0,0,0,0,-1,1413,1170,0,0
196,-146,0,0,0,0,0,0,0,0,0,-1,1420,1170,0,0
203,-146,0,0,0,0,0,0,0,0,0,-1,1427,1170,0,0
210,-146,0,0,0,0,0,0,0,0,0,-1,1434,1170,0,0
217,-146,0,0,0,0,0,0,0,0,0,-1,1441,1170,0,0
224,-146,0,0,0,0,0,0,0,0,0,-1,1448,1170,0,0
231,-146,0,0,0,0,0,0,0,0,0,-1,1455,1170,0,0
238,-146,0,0,0,0,0,0,0,0,0,-1,1462,1170,0,0
245,-146,0,0,0,0,0,0,0,0,0,-1,1469,1170,0,0
252,-146,0,0,0,0,0,0,0,0,0,-1,1476,1170,0,0
259,-146,0,0,0,0,0,0,0,0,0,-1,1483,1170,0,0
266,-146,0,0,0,0,0,0,0,0,0,-1,1490,1170,0,0
273,-146,0,0,0,0,0,0,0,0,0,-1,1497,1170,0,0
280,-146,0,0,0,0,0,0,0,0,0,-1,1504,1170,0,0
287,-146,0,0,0,0,0,0,0,0,0,-1,1511,1170,0,0
294,-146,0,0,0,0,0,0,0,0,0,-1,1518,1170,0,0
301,-146,0,0,0,0,0,0,0,0,0,-1,1525,1170,0,0
308,-146,0,0,0,0,0,0,0,0,0,-1,1532,1170,0,0
315,-146,0,0,0,0,0,0,0,0,0,-1,1539,1170,0,0
322,-146,0,0,0,0,0,0,0,0,0,-1,1546,1170,0,0
329,-146,0,0,0,0,0,0,0,0,0,-1,1553,1170,0,0
336,-146,0,0,0,0,0,0,0,0,0,-1,1560,1170,0,0
343,-146,0,0,0,0,0,0,0,0,0,-1,1567,1170,0,0
350,-146,0,0,0,0,0,0,0,0,0,-1,1574,1170,0,0
357,-146,0,0,0,0,0,0,0,0,0,-1,1581,1170,0,0
364,-146,0,0,0,0,0,0,0,0,0,-1,1588,1170,0,0
371,-146,0,0,0,0,0,0,0,0,0,-1,1595,1170,0,0
378,-146,0,0,0,0,0,0,0,0,0,-1,1602,1170,0,0
385,-146,0,0,0,0,0,0,0,0,0,-1,1609,1170,0,0
392,-146,0,0,0,0,0,0,0,0,0,-1,1616,1170,0,0
399,-146,0,0,0,0,0,0,0,0,0,-1,1623,1170,0,0
406,-146,0,0,0,0,0,0,0,0,0,-1,1630,1170,0,0
413,-146,0,0,0,0,0,0,0,0,0,-1,1637,1170,0,0
420,-146,0,0,0,0,0,0,0,0,0,-1,1644,1170,0,0
427,-146,0,0,0,0,0,0,0,0,0,-1,1651,1170,0,0
434,-146,0,0,0,0,0,0,0,0,0,-1,1658,1170,0,0
441,-146,0,0,0,0,0,0,0,0,0,-1,1665,1170,0,0
448,-146,0,0,0,0,0,0,0,0,0,-1,1672,1170,0,0
455,-146,0,0,0,0,0,0,0,0,0,-1,1679,1170,0,0
462,-146,0,0,0,0,0,0,0,0,0,-1,1686,1170,0,0
469,-146,0,0,0,0,0,0,0,0,0,-1,1693,1170,0,0
476,-146,0,0,0,0,0,0,0,0,0,-1,1700,1170,0,0
483,-146,0,0,0,0,0,0,0,0,0,-1,1707,1170,0,0
490,-146,0,0,0,0,0,0,0,0,0,-1,1714,1170,0,0
497,-146,0,0,0,0,0,0,0,0,0,-1,1721,1170,0,0
504,-146,0,0,0,0,0,0,0,0,0,-1,1728,1170,0,0
511,-146,0,0,0,0,0,0,0,0,0,-1,1735,1170,0,0
518,-146,0,0,0,0,0,0,0,0,0,-1,1742,1170,0,0
525,-146,0,0,0,0,0,0,0,0,0,-1,1749,1170,0,0
532,-146,0,0,0,0,0,0,0,0,0,-1,1756,1170,0,0
539,-146,0,0,0,0,0,0,0,0,0,-1,1763,1170,0,0
546,-146,0,0,0,0,0,0,0,0,0,-1,1770,1170,0,0
553,-146,0,0,0,0,0,0,0,0,0,-1,1777,1170,0,0
560,-146,0,0,0,0,0,0,0,0,0,-1,1784,1170,0,0
567,-146,0,0,0,0,0,0,0,0,0,-1,1791,1170,0,0
574,-146,0,0,0,0,0,0,0,0,0,-1,1798,1170,0,0
581,-146,0,0,0,0,0,0,0,0,0,-1,1805,1170,0,0
588,-146,0,0,0,0,0,0,0,0,0,-1,1812,1170,0,0
595,-146,0,0,0,0,0,0,0,0,0,-1,1819,1170,0,0
602,-146,0,0,0,0,0,0,0,0,0,-1,1826,1170,0,0
609,-146,0,0,0,0,0,0,0,0,0,-1,1833,1170,0,0
616,-146,0,0,0,0,0,0,0,0,0,-1,1840,1170,0,0
623,-146,0,0,0,0,0,0,0,0,0,-1,1847,1170,0,0
630,-146,0,0,0,0,0,0,0,0,0,-1,1854,1170,0,0
637,-146,64.7251,2.64111,-0.00339524,0.00361976,0.00108312,0.00378319,-0.00355867,1.42104,0.00423949,0.0368546,1861,1170,64.7251,-2.64111
644,-146,64.6136,2.6001,-0.00176103,0.00301208,0.00150719,0.00344816,-0.00219711,1.28915,0.00328587,0.0352595,1868,1170,64.6136,-2.6001
651,-146,64.5094,2.68872,-0.00056398,0.00263392,0.00141866,0.00317254,-0.00110261,1.20794,0.00256288,0.0361687,1875,1170,64.5094,-2.6887
658,-146,64.6432,2.76062,0.000438169,0.00223193,0.0010882,0.00274521,-7.51169e-05,1.13006,0.00185569,0.0416249,1882,1170,64.6432,-2.76068
665,-146,64.7709,2.7627,0.00130966,0.00187124,0.000627533,0.00227794,0.000902964,0.995765,0.00132455,0.0415495,1889,1170,64.7708,-2.76275
672,-146,64.743,2.75586,0.00192289,0.00140435,0.000165878,0.00197141,0.00135582,0.284579,0.00116464,0.0384506,1896,1170,64.7431,-2.75587
679,-146,64.693,2.66003,0.00231304,0.000755001,-6.57415e-05,0.00231581,0.000752232,-0.0420952,0.00136411,0.0324322,1903,1170,64.6929,-2.66001
686,-146,64.6262,2.63965,0.00268035,0.000268146,-5.62933e-05,0.00268166,0.000266833,-0.02332,0.0017058,0.0257156,1910,1170,64.6263,-2.63964
693,-146,64.7,2.58557,0.00248903,9.44544e-05,0.000107201,0.00249382,8.96649e-05,0.0446492,0.00163348,0.0195093,1917,1170,64.6999,-2.5856
700,-146,64.7921,2.4176,0,0,0,0,0,0,0,-1,1924,1170,64.7921,-2.41757
707,-146,29.9441,6.94653,0,0,0,0,0,0,0,-1,1931,1170,29.9441,-6.94652
714,-146,31.325,6.13245,0,0,0,0,0,0,0,-1,1938,1170,31.325,-6.1325
721,-146,56.5807,8.97424,0,0,0,0,0,0,0,-1,1945,1170,56.5806,-8.97422
728,-146,55.9146,8.18872,0,0,0,0,0,0,0,-1,1952,1170,55.9145,-8.18868
735,-146,56.5552,7.92175,0,0,0,0,0,0,0,-1,1959,1170,56.5552,-7.92174
742,-146,56.4651,7.42395,0.00120328,-0.000694344,0.00138712,0.00193505,-0.00142612,0.48544,0.00194797,0.0189964,1966,1170,56.4651,-7.424
749,-146,56.3945,6.92419,0.00128051,-0.000131222,0.00187047,0.00257387,-0.00142459,0.604974,0.00234008,0.0166982,1973,1170,56.3945,-6.92414
756,-146,56.3666,6.40527,0.00245055,0.00101529,0.00285987,0.00468146,-0.00121561,0.662471,0.00359534,0.0124809,1980,1170,56.3666,-6.40525
763,-146,56.3009,5.85986,0.00403414,0.00216821,0.00475184,0.00794374,-0.00174139,0.688462,0.00596167,0.0119642,1987,1170,56.3009,-5.85986
770,-146,56.2839,5.33008,0.00576163,0.00328571,0.00736133,0.0119884,-0.00294103,0.702092,0.00913184,0.013233,1994,1170,56.2839,-5.3301
777,-146,56.3235,4.91138,0.00726952,0.00434654,0.0108548,0.0167608,-0.00514476,0.718481,0.0132266,0.0241673,2001,1170,56.3236,-4.91136
784,-146,56.2224,4.41602,0.00840485,0.00532132,0.0155156,0.0224551,-0.00872893,0.735877,0.0185764,0.040712,2008,1170,56.2225,-4.41597
791,-146,56.3518,3.93115,0.00895564,0.00618245,0.0215555,0.0291691,-0.0140311,0.753279,0.025447,0.0456476,2015,1170,56.3519,-3.93114
798,-146,56.479,3.29321,0,0,0,0,0,0,0,-1,2022,1170,56.4791,-3.29325
805,-146,57.5793,5.24036,0,0,0,0,0,0,0,-1,2029,1170,57.5794,-5.24041
812,-146,0,0,0,0,0,0,0,0,0,-1,2036,1170,0,0
-700,-153,0,0,0,0,0,0,0,0,0,-1,524,1177,0,0
-693,-153,0,0,0,0,0,0,0,0,0,-1,531,1177,0,0
-686,-153,-40.936,-5.11658,0,0,0,0,0,0,0,-1,538,1177,-40.936,5.11652
-679,-153,-41.687,-3.08679,0,0,0,0,0,0,0,-1,545,1177,-41.687,3.08683
-672,-153,-41.3624,-1.93188,0.0247853,0.0724459,0.0463414,0.100725,-0.00349401,1.02288,0.0683446,0.0472153,552,1177,-41.3624,1.93191
-665,-153,-41.1028,-0.873901,0.0226931,0.0598707,0.0371443,0.082818,-0.000254154,1.0174,0.0552969,0.047366,559,1177,-41.1028,0.873928
-658,-153,-40.7313,0.252686,0,0,0,0,0,0,0,-1,566,1177,-40.7313,-0.252718
-651,-153,-40.3806,1.39832,0.0163093,0.0367707,0.0213251,0.0501922,0.00288775,1.00906,0.0325416,0.0452493,573,1177,-40.3806,-1.39833
-644,-153,-39.8604,2.49731,0.0124342,0.0265391,0.0145551,0.0356603,0.00331296,1.011,0.0227498,0.0284153,580,1177,-39.8603,-2.49733
-637,-153,-39.9313,3.08606,0.00837119,0.017412,0.00862322,0.0226278,0.00315536,1.02681,0.0141512,0.0120844,587,1177,-39.9313,-3.08604
-630,-153,-39.9678,3.66553,0.00453363,0.00937951,0.00335191,0.0110925,0.00282063,1.09835,0.00665705,0.0105198,594,1177,-39.9679,-3.66555
-623,-153,-39.9979,4.2616,0.00032741,0.00310336,-0.000573467,0.00321716,0.000213607,-1.37489,0.00207724,0.011494,601,1177,-39.9979,-4.26156
-616,-153,-40.0602,4.84424,-0.00308496,-0.000194845,-0.00209654,0.000906402,-0.00418621,-1.08714,0.0031369,0.0151264,608,1177,-40.0603,-4.84418
-609,-153,-40.0843,5.39099,-0.00437495,-0.000771923,-0.0019639,9.15853e-05,-0.00523846,-1.15655,0.00352323,0.0372375,615,1177,-40.0843,-5.39097
-602,-153,-40.0683,5.82495,0,0,0,0,0,0,0,-1,622,1177,-40.0683,-5.82495
-595,-153,-40.1451,6.7345,0,0,0,0,0,0,0,-1,629,1177,-40.1451,-6.73454
-588,-153,-32.348,5.51038,0,0,0,0,0,0,0,-1,636,1177,-32.348,-5.51034
-581,-153,-33.4568,6.41492,0,0,0,0,0,0,0,-1,643,1177,-33.4568,-6.41497
-574,-153,-25.4814,5.16956,0,0,0,0,0,0,0,-1,650,1177,-25.4814,-5.16961
-567,-153,-35.3121,1.09485,0,0,0,0,0,0,0,-1,657,1177,-35.3121,-1.09482
-560,-153,-48.9017,0.972534,0,0,0,0,0,0,0,-1,664,1177,-48.9017,-0.972532
-553,-153,-48.8518,0.972168,-0.00300949,-0.00105303,-0.000995888,-0.000635292,-0.00342723,-1.17362,0.00210525,0.0393836,671,1177,-48.8518,-0.972153
-546,-153,-48.8558,0.901245,-0.00187264,-0.000878954,-0.000717894,-0.000502742,-0.00224885,-1.0881,0.00136292,0.0410336,678,1177,-48.8558,-0.90129
-539,-153,-49.0791,0.793945,0.000624982,-0.000900374,-0.000552178,0.000803887,-0.00107928,-0.313326,0.00109111,0.0405332,685,1177,-49.0791,-0.793914
-532,-153,-48.965,0.745605,0.00410322,-0.00150802,-0.000310582,0.00412036,-0.00152516,-0.0551255,0.00337228,0.0411492,692,1177,-48.965,-0.74566
-525,-153,-48.7493,1.01379,0.00763332,-0.00232866,-1.86401e-05,0.00763336,-0.0023287,-0.00187112,0.00601726,0.0415813,699,1177,-48.7492,-1.01375
-518,-153,0,0,0,0,0,0,0,0,0,-1,706,1177,0,0
-511,-153,0,0,0,0,0,0,0,0,0,-1,713,1177,0,0
-504,-153,0,0,0,0,0,0,0,0,0,-1,720,1177,0,0
-497,-153,0,0,0,0,0,0,0,0,0,-1,727,1177,0,0
-490,-153,0,0,0,0,0,0,0,0,0,-1,734,1177,0,0
-483,-153,0,0,0,0,0,0,0,0,0,-1,741,1177,0,0
-476,-153,0,0,0,0,0,0,0,0,0,-1,748,1177,0,0
-469,-153,0,0,0,0,0,0,0,0,0,-1,755,1177,0,0
-462,-153,0,0,0,0,0,0,0,0,0,-1,762,1177,0,0
-455,-153,0,0,0,0,0,0,0,0,0,-1,769,1177,0,0
-448,-153,0,0,0,0,0,0,0,0,0,-1,776,1177,0,0
-441,-153,0,0,0,0,0,0,0,0,0,-1,783,1177,0,0
-434,-153,0,0,0,0,0,0,0,0,0,-1,790,1177,0,0
-427,-153,0,0,0,0,0,0,0,0,0,-1,797,1177,0,0
-420,-153,0,0,0,0,0,0,0,0,0,-1,804,1177,0,0
-413,-153,0,0,0,0,0,0,0,0,0,-1,811,1177,0,0
-406,-153,0,0,0,0,0,0,0,0,0,-1,818,1177,0,0
-399,-153,0,0,0,0,0,0,0,0,0,-1,825,1177,0,0
-392,-153,0,0,0,0,0,0,0,0,0,-1,832,1177,0,0
-385,-153,0,0,0,0,0,0,0,0,0,-1,839,1177,0,0
-378,-153,0,0,0,0,0,0,0,0,0,-1,846,1177,0,0
-371,-153,0,0,0,0,0,0,0,0,0,-1,853,1177,0,0
-364,-153,0,0,0,0,0,0,0,0,0,-1,860,1177,0,0
-357,-153,0,0,0,0,0,0,0,0,0,-1,867,1177,0,0
-350,-153,0,0,0,0,0,0,0,0,0,-1,874,1177,0,0
-343,-153,0,0,0,0,0,0,0,0,0,-1,881,1177,0,0
-336,-153,0,0,0,0,0,0,0,0,0,-1,888,1177,0,0
-329,-153,0,0,0,0,0,0,0,0,0,-1,895,1177,0,0
-322,-153,0,0,0,0,0,0,0,0,0,-1,902,1177,0,0
-315,-153,0,0,0,0,0,0,0,0,0,-1,909,1177,0,0
-308,-153,0,0,0,0,0,0,0,0,0,-1,916,1177,0,0
-301,-153,0,0,0,0,0,0,0,0,0,-1,923,1177,0,0
-294,-153,0,0,0,0,0,0,0,0,0,-1,930,1177,0,0
-287,-153,0,0,0,0,0,0,0,0,0,-1,937,1177,0,0
-280,-153,0,0,0,0,0,0,0,0,0,-1,944,1177,0,0
-273,-153,0,0,0,0,0,0,0,0,0,-1,951,1177,0,0
-266,-153,0,0,0,0,0,0,0,0,0,-1,958,1177,0,0
-259,-153,0,0,0,0,0,0,0,0,0,-1,965,1177,0,0
-252,-153,0,0,0,0,0,0,0,0,0,-1,972,1177,0,0
-245,-153,0,0,0,0,0,0,0,0,0,-1,979,1177,0,0
-238,-153,0,0,0,0,0,0,0,0,0,-1,986,1177,0,0
-231,-153,0,0,0,0,0,0,0,0,0,-1,993,1177,0,0
-224,-153,0,0,0,0,0,0,0,0,0,-1,1000,1177,0,0
-217,-153,0,0,0,0,0,0,0,0,0,-1,1007,1177,0,0
-210,-153,0,0,0,0,0,0,0,0,0,-1,1014,1177,0,0
-203,-153,0,0,0,0,0,0,0,0,0,-1,1021,1177,0,0
-196,-153,0,0,0,0,0,0,0,0,0,-1,1028,1177,0,0
-189,-153,0,0,0,0,0,0,0,0,0,-1,1035,1177,0,0
-182,-153,0,0,0,0,0,0,0,0,0,-1,1042,1177,0,0
-175,-153,0,0,0,0,0,0,0,0,0,-1,1049,1177,0,0
-168,-153,0,0,0,0,0,0,0,0,0,-1,1056,1177,0,0
-161,-153,0,0,0,0,0,0,0,0,0,-1,1063,1177,0,0
-154,-153,0,0,0,0,0,0,0,0,0,-1,1070,1177,0,0
-147,-153,0,0,0,0,0,0,0,0,0,-1,1077,1177,0,0
-140,-153,0,0,0,0,0,0,0,0,0,-1,1084,1177,0,0
-133,-153,0,0,0,0,0,0,0,0,0,-1,1091,1177,0,0
-126,-153,0,0,0,0,0,0,0,0,0,-1,1098,1177,0,0
-119,-153,0,0,0,0,0,0,0,0,0,-1,1105,1177,0,0
-112,-153,0,0,0,0,0,0,0,0,0,-1,1112,1177,0,0
-105,-153,0,0,0,0,0,0,0,0,0,-1,1119,1177,0,0
-98,-153,0,0,0,0,0,0,0,0,0,-1,1126,1177,0,0
-91,-153,0,0,0,0,0,0,0,0,0,-1,1133,1177,0,0
-84,-153,0,0,0,0,0,0,0,0,0,-1,1140,1177,0,0
-77,-153,0,0,0,0,0,0,0,0,0,-1,1147,1177,0,0
-70,-153,0,0,0,0,0,0,0,0,0,-1,1154,1177,0,0
-63,-153,0,0,0,0,0,0,0,0,0,-1,1161,1177,0,0
-56,-153,0,0,0,0,0,0,0,0,0,-1,1168,1177,0,0
-49,-153,0,0,0,0,0,0,0,0,0,-1,1175,1177,0,0
-42,-153,0,0,0,0,0,0,0,0,0,-1,1182,1177,0,0
-35,-153,0,0,0,0,0,0,0,0,0,-1,1189,1177,0,0
-28,-153,0,0,0,0,0,0,0,0,0,-1,1196,1177,0,0
-21,-153,0,0,0,0,0,0,0,0,0,-1,1203,1177,0,0
-14,-153,0,0,0,0,0,0,0,0,0,-1,1210,1177,0,0
-7,-153,0,0,0,0,0,0,0,0,0,-1,1217,1177,0,0
0,-153,0,0,0,0,0,0,0,0,0,-1,1224,1177,0,0
7,-153,0,0,0,0,0,0,0,0,0,-1,1231,1177,0,0
14,-153,0,0,0,0,0,0,0,0,0,-1,1238,1177,0,0
21,-153,0,0,0,0,0,0,0,0,0,-1,1245,1177,0,0
28,-153,0,0,0,0,0,0,0,0,0,-1,1252,1177,0,0
35,-153,0,0,0,0,0,0,0,0,0,-1,1259,1177,0,0
42,-153,0,0,0,0,0,0,0,0,0,-1,1266,1177,0,0
49,-153,0,0,0,0,0,0,0,0,0,-1,1273,1177,0,0
56,-153,0,0,0,0,0,0,0,0,0,-1,1280,1177,0,0
63,-153,0,0,0,0,0,0,0,0,0,-1,1287,1177,0,0
70,-153,0,0,0,0,0,0,0,0,0,-1,1294,1177,0,0
77,-153,0,0,0,0,0,0,0,0,0,-1,1301,1177,0,0
84,-153,0,0,0,0,0,0,0,0,0,-1,1308,1177,0,0
91,-153,0,0,0,0,0,0,0,0,0,-1,1315,1177,0,0
98,-153,0,0,0,0,0,0,0,0,0,-1,1322,1177,0,0
105,-153,0,0,0,0,0,0,0,0,0,-1,1329,1177,0,0
112,-153,0,0,0,0,0,0,0,0,0,-1,1336,1177,0,0
119,-153,0,0,0,0,0,0,0,0,0,-1,1343,1177,0,0
126,-153,0,0,0,0,0,0,0,0,0,-1,1350,1177,0,0
133,-153,0,0,0,0,0,0,0,0,0,-1,1357,1177,0,0
140,-153,0,0,0,0,0,0,0,0,0,-1,1364,1177,0,0
147,-153,0,0,0,0,0,0,0,0,0,-1,1371,1177,0,0
154,-153,0,0,0,0,0,0,0,0,0,-1,1378,1177,0,0
161,-153,0,0,0,0,0,0,0,0,0,-1,1385,1177,0,0
168,-153,0,0,0,0,0,0,0,0,0,-1,1392,1177,0,0
175,-153,0,0,0,0,0,0,0,0,0,-1,1399,1177,0,0
182,-153,0,0,0,0,0,0,0,0,0,-1,1406,1177,0,0
189,-153,0,0,0,0,0,0,0,0,0,-1,1413,1177,0,0
196,-153,0,0,0,0,0,0,0,0,0,-1,1420,1177,0,0
203,-153,0,0,0,0,0,0,0,0,0,-1,1427,1177,0,0
210,-153,0,0,0,0,0,0,0,0,0,-1,1434,1177,0,0
217,-153,0,0,0,0,0,0,0,0,0,-1,1441,1177,0,0
224,-153,0,0,0,0,0,0,0,0,0,-1,1448,1177,0,0
231,-153,0,0,0,0,0,0,0,0,0,-1,1455,1177,0,0
238,-153,0,0,0,0,0,0,0,0,0,-1,1462,1177,0,0
245,-153,0,0,0,0,0,0,0,0,0,-1,1469,1177,0,0
252,-153,0,0,0,0,0,0,0,0,0,-1,1476,1177,0,0
259,-153,0,0,0,0,0,0,0,0,0,-1,1483,1177,0,0
266,-153,0,0,0,0,0,0,0,0,0,-1,1490,1177,0,0
273,-153,0,0,0,0,0,0,0,0,0,-1,1497,1177,0,0
280,-153,0,0,0,0,0,0,0,0,0,-1,1504,1177,0,0
287,-153,0,0,0,0,0,0,0,0,0,-1,1511,1177,0,0
294,-153,0,0,0,0,0,0,0,0,0,-1,1518,1177,0,0
301,-153,0,0,0,0,0,0,0,0,0,-1,1525,1177,0,0
308,-153,0,0,0,0,0,0,0,0,0,-1,1532,1177,0,0
315,-153,0,0,0,0,0,0,0,0,0,-1,1539,1177,0,0
322,-153,0,0,0,0,0,0,0,0,0,-1,1546,1177,0,0
329,-153,0,0,0,0,0,0,0,0,0,-1,1553,1177,0,0
336,-153,0,0,0,0,0,0,0,0,0,-1,1560,1177,0,0
343,-153,0,0,0,0,0,0,0,0,0,-1,1567,1177,0,0
350,-153,0,0,0,0,0,0,0,0,0,-1,1574,1177,0,0
357,-153,0,0,0,0,0,0,0,0,0,-1,1581,1177,0,0
364,-153,0,0,0,0,0,0,0,0,0,-1,1588,1177,0,0
371,-153,0,0,0,0,0,0,0,0,0,-1,1595,1177,0,0
378,-153,0,0,0,0,0,0,0,0,0,-1,1602,1177,0,0
385,-153,0,0,0,0,0,0,0,0,0,-1,1609,1177,0,0
392,-153,0,0,0,0,0,0,0,0,0,-1,1616,1177,0,0
399,-153,0,0,0,0,0,0,0,0,0,-1,1623,1177,0,0
406,-153,0,0,0,0,0,0,0,0,0,-1,1630,1177,0,0
413,-153,0,0,0,0,0,0,0,0,0,-1,1637,1177,0,0
420,-153,0,0,0,0,0,0,0,0,0,-1,1644,1177,0,0
427,-153,0,0,0,0,0,0,0,0,0,-1,1651,1177,0,0
434,-153,0,0,0,0,0,0,0,0,0,-1,1658,1177,0,0
441,-153,0,0,0,0,0,0,0,0,0,-1,1665,1177,0,0
448,-153,0,0,0,0,0,0,0,0,0,-1,1672,1177,0,0
455,-153,0,0,0,0,0,0,0,0,0,-1,1679,1177,0,0
462,-153,0,0,0,0,0,0,0,0,0,-1,1686,1177,0,0
469,-153,0,0,0,0,0,0,0,0,0,-1,1693,1177,0,0
476,-153,0,0,0,0,0,0,0,0,0,-1,1700,1177,0,0
483,-153,0,0,0,0,0,0,0,0,0,-1,1707,1177,0,0
490,-153,0,0,0,0,0,0,0,0,0,-1,1714,1177,0,0
497,-153,0,0,0,0,0,0,0,0,0,-1,1721,1177,0,0
504,-153,0,0,0,0,0,0,0,0,0,-1,1728,1177,0,0
511,-153,0,0,0,0,0,0,0,0,0,-1,1735,1177,0,0
518,-153,0,0,0,0,0,0,0,0,0,-1,1742,1177,0,0
525,-153,0,0,0,0,0,0,0,0,0,-1,1749,1177,0,0
532,-153,0,0,0,0,0,0,0,0,0,-1,1756,1177,0,0
539,-153,0,0,0,0,0,0,0,0,0,-1,1763,1177,0,0
546,-153,0,0,0,0,0,0,0,0,0,-1,1770,1177,0,0
553,-153,0,0,0,0,0,0,0,0,0,-1,1777,1177,0,0
560,-153,0,0,0,0,0,0,0,0,0,-1,1784,1177,0,0
567,-153,0,0,0,0,0,0,0,0,0,-1,1791,1177,0,0
574,-153,0,0,0,0,0,0,0,0,0,-1,1798,1177,0,0
581,-153,0,0,0,0,0,0,0,0,0,-1,1805,1177,0,0
588,-153,0,0,0,0,0,0,0,0,0,-1,1812,1177,0,0
595,-153,0,0,0,0,0,0,0,0,0,-1,1819,1177,0,0
602,-153,0,0,0,0,0,0,0,0,0,-1,1826,1177,0,0
609,-153,0,0,0,0,0,0,0,0,0,-1,1833,1177,0,0
616,-153,0,0,0,0,0,0,0,0,0,-1,1840,1177,0,0
623,-153,0,0,0,0,0,0,0,0,0,-1,1847,1177,0,0
630,-153,0,0,0,0,0,0,0,0,0,-1,1854,1177,0,0
637,-153,64.7539,2.53833,-0.00425043,0.00407452,-0.000107788,0.00407591,-0.00425182,-1.55785,0.00480838,0.0362662,1861,1177,64.7539,-2.53834
644,-153,64.7098,2.56885,-0.00228407,0.00324514,0.000556536,0.0033006,-0.00233953,1.47147,0.00327205,0.0348921,1868,1177,64.7098,-2.56885
651,-153,64.6462,2.54187,-0.000756589,0.00268086,0.000683179,0.00281166,-0.000887391,1.38162,0.00222989,0.0297431,1875,1177,64.6463,-2.5419
658,-153,64.686,2.48975,0.000565861,0.00217078,0.000545389,0.00233857,0.000398067,1.27233,0.00144475,0.0355327,1882,1177,64.686,-2.4897
665,-153,64.7443,2.54041,0.00172023,0.00171919,0.000271946,0.00199166,0.00144777,0.784443,0.0011887,0.038074,1889,1177,64.7443,-2.54042
672,-153,64.7271,2.69055,0.00254754,0.00119053,-1.54828e-05,0.00254771,0.00119035,-0.0114075,0.00147198,0.0369149,1896,1177,64.7271,-2.69054
679,-153,64.6161,2.55688,0.00302413,0.000554755,-0.000138501,0.00303187,0.000547011,-0.0558541,0.00186583,0.0306123,1903,1177,64.6161,-2.55686
686,-153,64.6499,2.61914,0.00328,0.000190309,-6.33104e-05,0.0032813,0.000189012,-0.0204794,0.00212733,0.0204055,1910,1177,64.6499,-2.61908
693,-153,64.7516,2.58667,0.00297129,5.55545e-05,0.000114258,0.00297576,5.10841e-05,0.0391066,0.00196704,0.0455201,1917,1177,64.7516,-2.58665
700,-153,64.8344,2.54138,0,0,0,0,0,0,0,-1,1924,1177,64.8343,-2.54138
707,-153,29.6483,6.6842,0,0,0,0,0,0,0,-1,1931,1177,29.6483,-6.68415
714,-153,36.0046,6.78418,0,0,0,0,0,0,0,-1,1938,1177,36.0046,-6.78418
721,-153,36.4866,6.47595,0,0,0,0,0,0,0,-1,1945,1177,36.4866,-6.47593
728,-153,47.7305,7.37024,0,0,0,0,0,0,0,-1,1952,1177,47.7304,-7.37022
735,-153,55.813,8.02454,0,0,0,0,0,0,0,-1,1959,1177,55.813,-8.02451
742,-153,55.8438,7.51892,0.00137325,-0.000642252,0.00145976,0.00213932,-0.00140833,0.483287,0.00206268,0.0165831,1966,1177,55.8437,-7.51897
749,-153,55.8325,6.98999,0.00160137,-7.99939e-05,0.00194632,0.00288081,-0.00135943,0.581533,0.00250008,0.016574,1973,1177,55.8326,-6.98995
756,-153,55.8057,6.42139,0.00285899,0.00113418,0.00290156,0.0050236,-0.00103042,0.640945,0.00374016,0.0115443,1980,1177,55.8057,-6.42136
763,-153,55.7489,5.87646,0.00451212,0.00249026,0.004613,0.00822366,-0.00122128,0.677529,0.0059316,0.0114756,1987,1177,55.7489,-5.87641
770,-153,55.7407,5.3324,0.00636194,0.0039563,0.00696135,0.0122236,-0.00190538,0.69985,0.00885282,0.0123871,1994,1177,55.7407,-5.33243
777,-153,55.7466,4.78638,0.00801523,0.00554757,0.0101104,0.0169668,-0.00340405,0.724681,0.0126001,0.0247883,2001,1177,55.7466,-4.78642
784,-153,55.8831,4.33264,0.00938483,0.00733204,0.0142605,0.0226558,-0.00593894,0.749473,0.0174242,0.0418341,2008,1177,55.8831,-4.3327
791,-153,55.8787,4.052,0.0103197,0.00938058,0.0195356,0.0293914,-0.00969112,0.773383,0.0235004,0.0445627,2015,1177,55.8788,-4.05197
798,-153,56.1084,3.92554,0.00984827,0.0120931,0.0263275,0.0373221,-0.0153807,0.806702,0.0312946,0.0463517,2022,1177,56.1084,-3.92552
805,-153,56.6357,4.07947,0,0,0,0,0,0,0,-1,2029,1177,56.6357,-4.07941
812,-153,0,0,0,0,0,0,0,0,0,-1,2036,1177,0,0
-700,-160,0,0,0,0,0,0,0,0,0,-1,524,1184,0,0
-693,-160,0,0,0,0,0,0,0,0,0,-1,531,1184,0,0
-686,-160,-40.686,-5.57349,0.0163266,0.107409,0.0601547,0.137317,-0.0135815,1.1094,0.0963912,0.0486812,538,1184,-40.686,5.57351
-679,-160,-40.6895,-4.94666,0.0186918,0.0935494,0.0492778,0.118001,-0.00576002,1.11019,0.0806561,0.043571,545,1184,-40.6895,4.94669
-672,-160,-41.2625,-1.88354,0,0,0,0,0,0,0,-1,552,1184,-41.2625,1.88357
-665,-160,-40.9869,-1.04065,0,0,0,0,0,0,0,-1,559,1184,-40.9869,1.04065
-658,-160,-40.7181,0.024292,0,0,0,0,0,0,0,-1,566,1184,-40.7181,-0.0242788
-651,-160,-39.2183,1.89099,0,0,0,0,0,0,0,-1,573,1184,-39.2183,-1.89103
-644,-160,-39.216,2.49133,0.0101414,0.0291632,0.0124122,0.0352894,0.00401521,1.11231,0.0223086,0.0370743,580,1184,-39.216,-2.49136
-637,-160,-39.2745,3.09509,0.00704375,0.0192302,0.00741517,0.0227345,0.00353946,1.12932,0.0141251,0.0142423,587,1184,-39.2745,-3.09512
-630,-160,-39.3654,3.65076,0.00397952,0.0104738,0.00282273,0.0115292,0.00292414,1.213,0.00692051,0.00892662,594,1184,-39.3654,-3.65074
-623,-160,-39.4164,4.22961,0.00051146,0.00358905,-0.000532938,0.00367872,0.000421786,-1.40409,0.00232468,0.0144827,601,1184,-39.4164,-4.22962
-616,-160,-39.4597,4.83777,-0.0028744,-5.91358e-05,-0.00205805,0.00102662,-0.00396015,-1.08534,0.00304064,0.0129443,608,1184,-39.4597,-4.83771
-609,-160,-39.5331,5.46289,-0.00451244,-0.000715932,-0.00237,0.000422301,-0.00565067,-1.12306,0.00391548,0.0208226,615,1184,-39.5331,-5.46289
-602,-160,-39.6275,6.0946,0,0,0,0,0,0,0,-1,622,1184,-39.6275,-6.09459
-595,-160,-33.0669,5.93445,0,0,0,0,0,0,0,-1,629,1184,-33.0669,-5.93446
-588,-160,-33.4845,5.66699,0,0,0,0,0,0,0,-1,636,1184,-33.4845,-5.66697
-581,-160,-33.1338,6.41174,0,0,0,0,0,0,0,-1,643,1184,-33.1338,-6.41176
-574,-160,-32.7831,7.15649,0,0,0,0,0,0,0,-1,650,1184,-32.7831,-7.15655
-567,-160,-29.5828,0.643921,0,0,0,0,0,0,0,-1,657,1184,-29.5828,-0.643968
-560,-160,-48.8326,0.869263,0,0,0,0,0,0,0,-1,664,1184,-48.8326,-0.869229
-553,-160,-48.8233,0.932007,-0.0032239,-0.000995933,-0.0013553,-0.000355553,-0.00386428,-1.12939,0.00246623,0.0430563,671,1184,-48.8233,-0.93206
-546,-160,-48.873,0.913574,-0.00233467,-0.000908131,-0.00100705,-0.00038734,-0.00285546,-1.09353,0.00178856,0.0401974,678,1184,-48.873,-0.913517
-539,-160,-49.1115,0.828125,-9.4474e-05,-0.000863146,-0.000566488,0.00020575,-0.00116337,-0.487339,0.000852481,0.0423896,685,1184,-49.1115,-0.82811
-532,-160,-49.1688,0.7052,0.00325865,-0.00120251,9.56639e-05,0.0032607,-0.00120456,0.0214306,0.00266757,0.0456927,692,1184,-49.1688,-0.705189
-525,-160,-48.8357,1.10083,0.00706979,-0.00175127,0.000734762,0.00713057,-0.00181205,0.0825383,0.00545892,0.0440047,699,1184,-48.8357,-1.10079
-518,-160,-48.7545,1.01355,0.0106176,-0.00235831,0.00139923,0.0107667,-0.00250748,0.106207,0.00814336,0.0402983,706,1184,-48.7545,-1.01357
-511,-160,0,0,0,0,0,0,0,0,0,-1,713,1184,0,0
-504,-160,0,0,0,0,0,0,0,0,0,-1,720,1184,0,0
-497,-160,0,0,0,0,0,0,0,0,0,-1,727,1184,0,0
-490,-160,0,0,0,0,0,0,0,0,0,-1,734,1184,0,0
-483,-160,0,0,0,0,0,0,0,0,0,-1,741,1184,0,0
-476,-160,0,0,0,0,0,0,0,0,0,-1,748,1184,0,0
-469,-160,0,0,0,0,0,0,0,0,0,-1,755,1184,0,0
-462,-160,0,0,0,0,0,0,0,0,0,-1,762,1184,0,0
-455,-160,0,0,0,0,0,0,0,0,0,-1,769,1184,0,0
-448,-160,0,0,0,0,0,0,0,0,0,-1,776,1184,0,0
-441,-160,0,0,0,0,0,0,0,0,0,-1,783,1184,0,0
-434,-160,0,0,0,0,0,0,0,0,0,-1,790,1184,0,0
-427,-160,0,0,0,0,0,0,0,0,0,-1,797,1184,0,0
-420,-160,0,0,0,0,0,0,0,0,0,-1,804,1184,0,0
-413,-160,0,0,0,0,0,0,0,0,0,-1,811,1184,0,0
-406,-160,0,0,0,0,0,0,0,0,0,-1,818,1184,0,0
-399,-160,0,0,0,0,0,0,0,0,0,-1,825,1184,0,0
-392,-160,0,0,0,0,0,0,0,0,0,-1,832,1184,0,0
-385,-160,0,0,0,0,0,0,0,0,0,-1,839,1184,0,0
-378,-160,0,0,0,0,0,0,0,0,0,-1,846,1184,0,0
-371,-160,0,0,0,0,0,0,0,0,0,-1,853,1184,0,0
-364,-160,0,0,0,0,0,0,0,0,0,-1,860,1184,0,0
-357,-160,0,0,0,0,0,0,0,0,0,-1,867,1184,0,0
-350,-160,0,0,0,0,0,0,0,0,0,-1,874,1184,0,0
-343,-160,0,0,0,0,0,0,0,0,0,-1,881,1184,0,0
-336,-160,0,0,0,0,0,0,0,0,0,-1,888,1184,0,0
-329,-160,0,0,0,0,0,0,0,0,0,-1,895,1184,0,0
-322,-160,0,0,0,0,0,0,0,0,0,-1,902,1184,0,0
-315,-160,0,0,0,0,0,0,0,0,0,-1,909,1184,0,0
-308,-160,0,0,0,0,0,0,0,0,0,-1,916,1184,0,0
-301,-160,0,0,0,0,0,0,0,0,0,-1,923,1184,0,0
-294,-160,0,0,0,0,0,0,0,0,0,-1,930,1184,0,0
-287,-160,0,0,0,0,0,0,0,0,0,-1,937,1184,0,0
-280,-160,0,0,0,0,0,0,0,0,0,-1,944,1184,0,0
-273,-160,0,0,0,0,0,0,0,0,0,-1,951,1184,0,0
-266,-160,0,0,0,0,0,0,0,0,0,-1,958,1184,0,0
-259,-160,0,0,0,0,0,0,0,0,0,-1,965,1184,0,0
-252,-160,0,0,0,0,0,0,0,0,0,-1,972,1184,0,0
-245,-160,0,0,0,0,0,0,0,0,0,-1,979,1184,0,0
-238,-160,0,0,0,0,0,0,0,0,0,-1,986,1184,0,0
-231,-160,0,0,0,0,0,0,0,0,0,-1,993,1184,0,0
-224,-160,0,0,0,0,0,0,0,0,0,-1,1000,1184,0,0
-217,-160,0,0,0,0,0,0,0,0,0,-1,1007,1184,0,0
-210,-160,0,0,0,0,0,0,0,0,0,-1,1014,1184,0,0
-203,-160,0,0,0,0,0,0,0,0,0,-1,1021,1184,0,0
-196,-160,0,0,0,0,0,0,0,0,0,-1,1028,1184,0,0
-189,-160,0,0,0,0,0,0,0,0,0,-1,1035,1184,0,0
-182,-160,0,0,0,0,0,0,0,0,0,-1,1042,1184,0,0
-175,-160,0,0,0,0,0,0,0,0,0,-1,1049,1184,0,0
-168,-160,0,0,0,0,0,0,0,0,0,-1,1056,1184,0,0
-161,-160,0,0,0,0,0,0,0,0,0,-1,1063,1184,0,0
-154,-160,0,0,0,0,0,0,0,0,0,-1,1070,1184,0,0
-147,-160,0,0,0,0,0,0,0,0,0,-1,1077,1184,0,0
-140,-160,0,0,0,0,0,0,0,0,0,-1,1084,1184,0,0
-133,-160,0,0,0,0,0,0,0,0,0,-1,1091,1184,0,0
-126,-160,0,0,0,0,0,0,0,0,0,-1,1098,1184,0,0
-119,-160,0,0,0,0,0,0,0,0,0,-1,1105,1184,0,0
-112,-160,0,0,0,0,0,0,0,0,0,-1,1112,1184,0,0
-105,-160,0,0,0,0,0,0,0,0,0,-1,1119,1184,0,0
-98,-160,0,0,0,0,0,0,0,0,0,-1,1126,1184,0,0
-91,-160,0,0,0,0,0,0,0,0,0,-1,1133,1184,0,0
-84,-160,0,0,0,0,0,0,0,0,0,-1,1140,1184,0,0
-77,-160,0,0,0,0,0,0,0,0,0,-1,1147,1184,0,0
-70,-160,0,0,0,0,0,0,0,0,0,-1,1154,1184,0,0
-63,-160,0,0,0,0,0,0,0,0,0,-1,1161,1184,0,0
-56,-160,0,0,0,0,0,0,0,0,0,-1,1168,1184,0,0
-49,-160,0,0,0,0,0,0,0,0,0,-1,1175,1184,0,0
-42,-160,0,0,0,0,0,0,0,0,0,-1,1182,1184,0,0
-35,-160,0,0,0,0,0,0,0,0,0,-1,1189,1184,0,0
-28,-160,0,0,0,0,0,0,0,0,0,-1,1196,1184,0,0
-21,-160,0,0,0,0,0,0,0,0,0,-1,1203,1184,0,0
-14,-160,0,0,0,0,0,0,0,0,0,-1,1210,1184,0,0
-7,-160,0,0,0,0,0,0,0,0,0,-1,1217,1184,0,0
0,-160,0,0,0,0,0,0,0,0,0,-1,1224,1184,0,0
7,-160,0,0,0,0,0,0,0,0,0,-1,1231,1184,0,0
14,-160,0,0,0,0,0,0,0,0,0,-1,1238,1184,0,0
21,-160,0,0,0,0,0,0,0,0,0,-1,1245,1184,0,0
28,-160,0,0,0,0,0,0,0,0,0,-1,1252,1184,0,0
35,-160,0,0,0,0,0,0,0,0,0,-1,1259,1184,0,0
42,-160,0,0,0,0,0,0,0,0,0,-1,1266,1184,0,0
49,-160,0,0,0,0,0,0,0,0,0,-1,1273,1184,0,0
56,-160,0,0,0,0,0,0,0,0,0,-1,1280,1184,0,0
63,-160,0,0,0,0,0,0,0,0,0,-1,1287,1184,0,0
70,-160,0,0,0,0,0,0,0,0,0,-1,1294,1184,0,0
77,-160,0,0,0,0,0,0,0,0,0,-1,1301,1184,0,0
84,-160,0,0,0,0,0,0,0,0,0,-1,1308,1184,0,0
91,-160,0,0,0,0,0,0,0,0,0,-1,1315,1184,0,0
98,-160,0,0,0,0,0,0,0,0,0,-1,1322,1184,0,0
105,-160,0,0,0,0,0,0,0,0,0,-1,1329,1184,0,0
112,-160,0,0,0,0,0,0,0,0,0,-1,1336,1184,0,0
119,-160,0,0,0,0,0,0,0,0,0,-1,1343,1184,0,0
126,-160,0,0,0,0,0,0,0,0,0,-1,1350,1184,0,0
133,-160,0,0,0,0,0,0,0,0,0,-1,1357,1184,0,0
140,-160,0,0,0,0,0,0,0,0,0,-1,1364,1184,0,0
147,-160,0,0,0,0,0,0,0,0,0,-1,1371,1184,0,0
154,-160,0,0,0,0,0,0,0,0,0,-1,1378,1184,0,0
161,-160,0,0,0,0,0,0,0,0,0,-1,1385,1184,0,0
168,-160,0,0,0,0,0,0,0,0,0,-1,1392,1184,0,0
175,-160,0,0,0,0,0,0,0,0,0,-1,1399,1184,0,0
182,-160,0,0,0,0,0,0,0,0,0,-1,1406,1184,0,0
189,-160,0,0,0,0,0,0,0,0,0,-1,1413,1184,0,0
196,-160,0,0,0,0,0,0,0,0,0,-1,1420,1184,0,0
203,-160,0,0,0,0,0,0,0,0,0,-1,1427,1184,0,0
210,-160,0,0,0,0,0,0,0,0,0,-1,1434,1184,0,0
217,-160,0,0,0,0,0,0,0,0,0,-1,1441,1184,0,0
224,-160,0,0,0,0,0,0,0,0,0,-1,1448,1184,0,0
231,-160,0,0,0,0,0,0,0,0,0,-1,1455,1184,0,0
238,-160,0,0,0,0,0,0,0,0,0,-1,1462,1184,0,0
245,-160,0,0,0,0,0,0,0,0,0,-1,1469,1184,0,0
252,-160,0,0,0,0,0,0,0,0,0,-1,1476,1184,0,0
259,-160,0,0,0,0,0,0,0,0,0,-1,1483,1184,0,0
266,-160,0,0,0,0,0,0,0,0,0,-1,1490,1184,0,0
273,-160,0,0,0,0,0,0,0,0,0,-1,1497,1184,0,0
280,-160,0,0,0,0,0,0,0,0,0,-1,1504,1184,0,0
287,-160,0,0,0,0,0,0,0,0,0,-1,1511,1184,0,0
294,-160,0,0,0,0,0,0,0,0,0,-1,1518,1184,0,0
301,-160,0,0,0,0,0,0,0,0,0,-1,1525,1184,0,0
308,-160,0,0,0,0,0,0,0,0,0,-1,1532,1184,0,0
315,-160,0,0,0,0,0,0,0,0,0,-1,1539,1184,0,0
322,-160,0,0,0,0,0,0,0,0,0,-1,1546,1184,0,0
329,-160,0,0,0,0,0,0,0,0,0,-1,1553,1184,0,0
336,-160,0,0,0,0,0,0,0,0,0,-1,1560,1184,0,0
343,-160,0,0,0,0,0,0,0,0,0,-1,1567,1184,0,0
350,-160,0,0,0,0,0,0,0,0,0,-1,1574,1184,0,0
357,-160,0,0,0,0,0,0,0,0,0,-1,1581,1184,0,0
364,-160,0,0,0,0,0,0,0,0,0,-1,1588,1184,0,0
371,-160,0,0,0,0,0,0,0,0,0,-1,1595,1184,0,0
378,-160,0,0,0,0,0,0,0,0,0,-1,1602,1184,0,0
385,-160,0,0,0,0,0,0,0,0,0,-1,1609,1184,0,0
392,-160,0,0,0,0,0,0,0,0,0,-1,1616,1184,0,0
399,-160,0,0,0,0,0,0,0,0,0,-1,1623,1184,0,0
406,-160,0,0,0,0,0,0,0,0,0,-1,1630,1184,0,0
413,-160,0,0,0,0,0,0,0,0,0,-1,1637,1184,0,0
420,-160,0,0,0,0,0,0,0,0,0,-1,1644,1184,0,0
427,-160,0,0,0,0,0,0,0,0,0,-1,1651,1184,0,0
434,-160,0,0,0,0,0,0,0,0,0,-1,1658,1184,0,0
441,-160,0,0,0,0,0,0,0,0,0,-1,1665,1184,0,0
448,-160,0,0,0,0,0,0,0,0,0,-1,1672,1184,0,0
455,-160,0,0,0,0,0,0,0,0,0,-1,1679,1184,0,0
462,-160,0,0,0,0,0,0,0,0,0,-1,1686,1184,0,0
469,-160,0,0,0,0,0,0,0,0,0,-1,1693,1184,0,0
476,-160,0,0,0,0,0,0,0,0,0,-1,1700,1184,0,0
483,-160,0,0,0,0,0,0,0,0,0,-1,1707,1184,0,0
490,-160,0,0,0,0,0,0,0,0,0,-1,1714,1184,0,0
497,-160,0,0,0,0,0,0,0,0,0,-1,1721,1184,0,0
504,-160,0,0,0,0,0,0,0,0,0,-1,1728,1184,0,0
511,-160,0,0,0,0,0,0,0,0,0,-1,1735,1184,0,0
518,-160,0,0,0,0,0,0,0,0,0,-1,1742,1184,0,0
525,-160,0,0,0,0,0,0,0,0,0,-1,1749,1184,0,0
532,-160,0,0,0,0,0,0,0,0,0,-1,1756,1184,0,0
539,-160,0,0,0,0,0,0,0,0,0,-1,1763,1184,0,0
546,-160,0,0,0,0,0,0,0,0,0,-1,1770,1184,0,0
553,-160,0,0,0,0,0,0,0,0,0,-1,1777,1184,0,0
560,-160,0,0,0,0,0,0,0,0,0,-1,1784,1184,0,0
567,-160,0,0,0,0,0,0,0,0,0,-1,1791,1184,0,0
574,-160,0,0,0,0,0,0,0,0,0,-1,1798,1184,0,0
581,-160,0,0,0,0,0,0,0,0,0,-1,1805,1184,0,0
588,-160,0,0,0,0,0,0,0,0,0,-1,1812,1184,0,0
595,-160,0,0,0,0,0,0,0,0,0,-1,1819,1184,0,0
602,-160,0,0,0,0,0,0,0,0,0,-1,1826,1184,0,0
609,-160,0,0,0,0,0,0,0,0,0,-1,1833,1184,0,0
616,-160,0,0,0,0,0,0,0,0,0,-1,1840,1184,0,0
623,-160,0,0,0,0,0,0,0,0,0,-1,1847,1184,0,0
630,-160,0,0,0,0,0,0,0,0,0,-1,1854,1184,0,0
637,-160,64.6753,2.54138,-0.00490764,0.00415302,-0.00101096,0.00426445,-0.00501907,-1.46102,0.00536574,0.0400393,1861,1184,64.6753,-2.54132
644,-160,64.6069,2.39197,-0.00267493,0.00311435,-0.000268966,0.00312682,-0.0026874,-1.52447,0.00336004,0.0408496,1868,1184,64.6069,-2.39195
651,-160,64.4966,2.3938,-0.00082029,0.00234549,-2.0472e-05,0.00234562,-0.000820423,-1.56433,0.0018973,0.0370159,1875,1184,64.4965,-2.39376
658,-160,64.5879,2.28833,0.000800467,0.00172944,3.42725e-06,0.00172945,0.000800454,1.56711,0.00099942,0.0379294,1882,1184,64.5879,-2.28834
665,-160,64.6609,2.38953,0.00218619,0.00122369,-8.14807e-05,0.00219304,0.00121684,-0.0838605,0.00126869,0.0381728,1889,1184,64.6609,-2.38948
672,-160,64.653,2.61853,0.00316369,0.000739544,-0.0001755,0.00317633,0.000726905,-0.0718969,0.00192164,0.0338618,1896,1184,64.6529,-2.61854
679,-160,64.6479,2.57507,0.003659,0.000271062,-0.000180882,0.00366863,0.000261432,-0.0531885,0.00236344,0.0272342,1903,1184,64.6479,-2.57506
686,-160,64.7034,2.59705,0.00377044,0.000138112,-0.000100141,0.0037732,0.000135354,-0.0275416,0.00247159,0.018699,1910,1184,64.7034,-2.59709
693,-160,64.7523,2.63159,0,0,0,0,0,0,0,-1,1917,1184,64.7523,-2.63159
700,-160,42.8784,2.44617,0,0,0,0,0,0,0,-1,1924,1184,42.8785,-2.4462
707,-160,24.5115,6.27405,0,0,0,0,0,0,0,-1,1931,1184,24.5115,-6.27401
714,-160,35.6892,6.8905,0,0,0,0,0,0,0,-1,1938,1184,35.6892,-6.89048
721,-160,36.2388,6.37878,0,0,0,0,0,0,0,-1,1945,1184,36.2388,-6.37876
728,-160,52.2174,8.57385,0,0,0,0,0,0,0,-1,1952,1184,52.2174,-8.57381
735,-160,55.2559,8.08728,0,0,0,0,0,0,0,-1,1959,1184,55.2558,-8.08726
742,-160,55.277,7.51929,0.00168379,-0.000343784,0.00136381,0.00236933,-0.00102933,0.465783,0.00201242,0.0171264,1966,1184,55.277,-7.51932
749,-160,55.2504,6.96606,0.00207895,0.000251207,0.00187794,0.00325357,-0.000923419,0.558949,0.00253358,0.0182256,1973,1184,55.2504,-6.96603
756,-160,55.2211,6.42871,0.00330621,0.00139593,0.00282127,0.00532964,-0.0006275,0.622179,0.00377966,0.0119731,1980,1184,55.2211,-6.42874
763,-160,55.1624,5.91125,0.00493849,0.00287555,0.00438146,0.00840825,-0.000594213,0.669795,0.0058137,0.0123812,1987,1184,55.1624,-5.91129
770,-160,55.0813,5.30151,0.00686368,0.00465793,0.00646175,0.012316,-0.000794387,0.700874,0.00848786,0.0271459,1994,1184,55.0813,-5.30153
777,-160,55.0793,4.73328,0.00866399,0.00679561,0.00921308,0.0169901,-0.00153052,0.734872,0.0118699,0.038903,2001,1184,55.0794,-4.73323
784,-160,55.2485,4.00476,0,0,0,0,0,0,0,-1,2008,1184,55.2486,-4.00481
791,-160,55.7393,3.28442,0.0117449,0.0130097,0.017153,0.0295419,-0.00478734,0.803824,0.021469,0.044048,2015,1184,55.7393,-3.28438
798,-160,55.9519,3.22327,0.0119599,0.0180061,0.0226294,0.0378135,-0.00784744,0.851801,0.0281913,0.0467507,2022,1184,55.9518,-3.22324
805,-160,56.2017,3.23462,0,0,0,0,0,0,0,-1,2029,1184,56.2018,-3.23462
812,-160,0,0,0,0,0,0,0,0,0,-1,2036,1184,0,0
-700,-167,0,0,0,0,0,0,0,0,0,-1,524,1191,0,0
-693,-167,0,0,0,0,0,0,0,0,0,-1,531,1191,0,0
-686,-167,-40.7183,-6.10083,0.0134292,0.115829,0.0538746,0.138952,-0.00969384,1.16537,0.0960292,0.0469475,538,1191,-40.7183,6.10078
-679,-167,-40.7892,-5.453,0.0151958,0.100557,0.0430599,0.118504,-0.00275195,1.17588,0.0799361,0.0427656,545,1191,-40.7892,5.453
-672,-167,-40.6607,-4.62158,0.0149677,0.0851318,0.0343089,0.0991196,0.000979867,1.18367,0.0657555,0.0466742,552,1191,-40.6607,4.6216
-665,-167,-40.4565,-3.83789,0,0,0,0,0,0,0,-1,559,1191,-40.4565,3.8379
-658,-167,-38.2256,0.195435,0,0,0,0,0,0,0,-1,566,1191,-38.2256,-0.195381
-651,-167,-38.52,1.94287,0,0,0,0,0,0,0,-1,573,1191,-38.52,-1.94285
-644,-167,-38.5519,2.53992,0.00836398,0.0316083,0.0104684,0.0356279,0.00434445,1.20419,0.0224444,0.0407848,580,1191,-38.552,-2.53989
-637,-167,-38.6385,3.11841,0.0059981,0.0210703,0.0063484,0.0233878,0.00368052,1.22076,0.0145214,0.0182086,587,1191,-38.6385,-3.11837
-630,-167,-38.7353,3.65552,0.0035684,0.0117106,0.00243171,0.0123816,0.00289745,1.30158,0.00747809,0.00948945,594,1191,-38.7353,-3.65548
-623,-167,-38.7665,4.21716,0.000802133,0.00427388,-0.000373319,0.00431357,0.000762443,-1.46488,0.00265827,0.0136221,601,1191,-38.7665,-4.21711
-616,-167,-38.8029,4.82947,-0.00226412,0.000271964,-0.00176344,0.00117594,-0.00316809,-1.0971,0.00259445,0.0176484,608,1191,-38.8029,-4.82951
-609,-167,-38.8464,5.49219,-0.00421903,-0.000459827,-0.00246815,0.000762935,-0.00544179,-1.11082,0.00390708,0.0155155,615,1191,-38.8464,-5.49214
-602,-167,-38.9608,6.05225,0,0,0,0,0,0,0,-1,622,1191,-38.9608,-6.05226
-595,-167,-38.826,6.50732,0,0,0,0,0,0,0,-1,629,1191,-38.8261,-6.50731
-588,-167,-39.0011,7.28064,0,0,0,0,0,0,0,-1,636,1191,-39.0011,-7.2807
-581,-167,-32.8646,6.30542,0,0,0,0,0,0,0,-1,643,1191,-32.8646,-6.30537
-574,-167,-32.4808,7.37524,0,0,0,0,0,0,0,-1,650,1191,-32.4808,-7.37525
-567,-167,-27.3643,2.55859,0,0,0,0,0,0,0,-1,657,1191,-27.3643,-2.55864
-560,-167,-48.2598,0.834839,0,0,0,0,0,0,0,-1,664,1191,-48.2598,-0.834822
-553,-167,-48.7255,0.741455,0,0,0,0,0,0,0,-1,671,1191,-48.7255,-0.741432
-546,-167,-48.7919,0.863647,-0.00280994,-0.000926751,-0.00110461,-0.000416873,-0.00331982,-1.13835,0.00208817,0.0373482,678,1191,-48.7919,-0.86368
-539,-167,-48.9226,1.04919,-0.00102559,-0.000948045,-0.000566047,-0.000419445,-0.00155419,-0.819593,0.000928451,0.0420435,685,1191,-48.9226,-1.04916
-532,-167,-48.9599,0.811157,0.00203088,-0.00127321,0.000326224,0.00206278,-0.00130511,0.0974794,0.00196079,0.047925,692,1191,-48.9599,-0.811192
-525,-167,-48.7468,0.864014,0.00631125,-0.00191178,0.00118943,0.00647984,-0.00208037,0.140802,0.00515522,0.0450639,699,1191,-48.7468,-0.864072
-518,-167,-48.7924,1.17346,0.010364,-0.00259502,0.00201513,0.0106701,-0.00290114,0.150759,0.00825224,0.042129,706,1191,-48.7924,-1.17352
-511,-167,0,0,0,0,0,0,0,0,0,-1,713,1191,0,0
-504,-167,0,0,0,0,0,0,0,0,0,-1,720,1191,0,0
-497,-167,0,0,0,0,0,0,0,0,0,-1,727,1191,0,0
-490,-167,0,0,0,0,0,0,0,0,0,-1,734,1191,0,0
-483,-167,0,0,0,0,0,0,0,0,0,-1,741,1191,0,0
-476,-167,0,0,0,0,0,0,0,0,0,-1,748,1191,0,0
-469,-167,0,0,0,0,0,0,0,0,0,-1,755,1191,0,0
-462,-167,0,0,0,0,0,0,0,0,0,-1,762,1191,0,0
-455,-167,0,0,0,0,0,0,0,0,0,-1,769,1191,0,0
-448,-167,0,0,0,0,0,0,0,0,0,-1,776,1191,0,0
-441,-167,0,0,0,0,0,0,0,0,0,-1,783,1191,0,0
-434,-167,0,0,0,0,0,0,0,0,0,-1,790,1191,0,0
-427,-167,0,0,0,0,0,0,0,0,0,-1,797,1191,0,0
-420,-167,0,0,0,0,0,0,0,0,0,-1,804,1191,0,0
-413,-167,0,0,0,0,0,0,0,0,0,-1,811,1191,0,0
-406,-167,0,0,0,0,0,0,0,0,0,-1,818,1191,0,0
-399,-167,0,0,0,0,0,0,0,0,0,-1,825,1191,0,0
-392,-167,0,0,0,0,0,0,0,0,0,-1,832,1191,0,0
-385,-167,0,0,0,0,0,0,0,0,0,-1,839,1191,0,0
-378,-167,0,0,0,0,0,0,0,0,0,-1,846,1191,0,0
-371,-167,0,0,0,0,0,0,0,0,0,-1,853,1191,0,0
-364,-167,0,0,0,0,0,0,0,0,0,-1,860,1191,0,0
-357,-167,0,0,0,0,0,0,0,0,0,-1,867,1191,0,0
-350,-167,0,0,0,0,0,0,0,0,0,-1,874,1191,0,0
-343,-167,0,0,0,0,0,0,0,0,0,-1,881,1191,0,0
-336,-167,0,0,0,0,0,0,0,0,0,-1,888,1191,0,0
-329,-167,0,0,0,0,0,0,0,0,0,-1,895,1191,0,0
-322,-167,0,0,0,0,0,0,0,0,0,-1,902,1191,0,0
-315,-167,0,0,0,0,0,0,0,0,0,-1,909,1191,0,0
-308,-167,0,0,0,0,0,0,0,0,0,-1,916,1191,0,0
-301,-167,0,0,0,0,0,0,0,0,0,-1,923,1191,0,0
-294,-167,0,0,0,0,0,0,0,0,0,-1,930,1191,0,0
-287,-167,0,0,0,0,0,0,0,0,0,-1,937,1191,0,0
-280,-167,0,0,0,0,0,0,0,0,0,-1,944,1191,0,0
-273,-167,0,0,0,0,0,0,0,0,0,-1,951,1191,0,0
-266,-167,0,0,0,0,0,0,0,0,0,-1,958,1191,0,0
-259,-167,0,0,0,0,0,0,0,0,0,-1,965,1191,0,0
-252,-167,0,0,0,0,0,0,0,0,0,-1,972,1191,0,0
-245,-167,0,0,0,0,0,0,0,0,0,-1,979,1191,0,0
-238,-167,0,0,0,0,0,0,0,0,0,-1,986,1191,0,0
-231,-167,0,0,0,0,0,0,0,0,0,-1,993,1191,0,0
-224,-167,0,0,0,0,0,0,0,0,0,-1,1000,1191,0,0
-217,-167,0,0,0,0,0,0,0,0,0,-1,1007,1191,0,0
-210,-167,0,0,0,0,0,0,0,0,0,-1,1014,1191,0,0
-203,-167,0,0,0,0,0,0,0,0,0,-1,1021,1191,0,0
-196,-167,0,0,0,0,0,0,0,0,0,-1,1028,1191,0,0
-189,-167,0,0,0,0,0,0,0,0,0,-1,1035,1191,0,0
-182,-167,0,0,0,0,0,0,0,0,0,-1,1042,1191,0,0
-175,-167,0,0,0,0,0,0,0,0,0,-1,1049,1191,0,0
-168,-167,0,0,0,0,0,0,0,0,0,-1,1056,1191,0,0
-161,-167,0,0,0,0,0,0,0,0,0,-1,1063,1191,0,0
-154,-167,0,0,0,0,0,0,0,0,0,-1,1070,1191,0,0
-147,-167,0,0,0,0,0,0,0,0,0,-1,1077,1191,0,0
-140,-167,0,0,0,0,0,0,0,0,0,-1,1084,1191,0,0
-133,-167,0,0,0,0,0,0,0,0,0,-1,1091,1191,0,0
-126,-167,0,0,0,0,0,0,0,0,0,-1,1098,1191,0,0
-119,-167,0,0,0,0,0,0,0,0,0,-1,1105,1191,0,0
-112,-167,0,0,0,0,0,0,0,0,0,-1,1112,1191,0,0
-105,-167,0,0,0,0,0,0,0,0,0,-1,1119,1191,0,0
-98,-167,0,0,0,0,0,0,0,0,0,-1,1126,1191,0,0
-91,-167,0,0,0,0,0,0,0,0,0,-1,1133,1191,0,0
-84,-167,0,0,0,0,0,0,0,0,0,-1,1140,1191,0,0
-77,-167,0,0,0,0,0,0,0,0,0,-1,1147,1191,0,0
-70,-167,0,0,0,0,0,0,0,0,0,-1,1154,1191,0,0
-63,-167,0,0,0,0,0,0,0,0,0,-1,1161,1191,0,0
-56,-167,0,0,0,0,0,0,0,0,0,-1,1168,1191,0,0
-49,-167,0,0,0,0,0,0,0,0,0,-1,1175,1191,0,0
-42,-167,0,0,0,0,0,0,0,0,0,-1,1182,1191,0,0
-35,-167,0,0,0,0,0,0,0,0,0,-1,1189,1191,0,0
-28,-167,0,0,0,0,0,0,0,0,0,-1,1196,1191,0,0
-21,-167,0,0,0,0,0,0,0,0,0,-1,1203,1191,0,0
-14,-167,0,0,0,0,0,0,0,0,0,-1,1210,1191,0,0
-7,-167,0,0,0,0,0,0,0,0,0,-1,1217,1191,0,0
0,-167,0,0,0,0,0,0,0,0,0,-1,1224,1191,0,0
7,-167,0,0,0,0,0,0,0,0,0,-1,1231,1191,0,0
14,-167,0,0,0,0,0,0,0,0,0,-1,1238,1191,0,0
21,-167,0,0,0,0,0,0,0,0,0,-1,1245,1191,0,0
28,-167,0,0,0,0,0,0,0,0,0,-1,1252,1191,0,0
35,-167,0,0,0,0,0,0,0,0,0,-1,1259,1191,0,0
42,-167,0,0,0,0,0,0,0,0,0,-1,1266,1191,0,0
49,-167,0,0,0,0,0,0,0,0,0,-1,1273,1191,0,0
56,-167,0,0,0,0,0,0,0,0,0,-1,1280,1191,0,0
63,-167,0,0,0,0,0,0,0,0,0,-1,1287,1191,0,0
70,-167,0,0,0,0,0,0,0,0,0,-1,1294,1191,0,0
77,-167,0,0,0,0,0,0,0,0,0,-1,1301,1191,0,0
84,-167,0,0,0,0,0,0,0,0,0,-1,1308,1191,0,0
91,-167,0,0,0,0,0,0,0,0,0,-1,1315,1191,0,0
98,-167,0,0,0,0,0,0,0,0,0,-1,1322,1191,0,0
105,-167,0,0,0,0,0,0,0,0,0,-1,1329,1191,0,0
112,-167,0,0,0,0,0,0,0,0,0,-1,1336,1191,0,0
119,-167,0,0,0,0,0,0,0,0,0,-1,1343,1191,0,0
126,-167,0,0,0,0,0,0,0,0,0,-1,1350,1191,0,0
133,-167,0,0,0,0,0,0,0,0,0,-1,1357,1191,0,0
140,-167,0,0,0,0,0,0,0,0,0,-1,1364,1191,0,0
147,-167,0,0,0,0,0,0,0,0,0,-1,1371,1191,0,0
154,-167,0,0,0,0,0,0,0,0,0,-1,1378,1191,0,0
161,-167,0,0,0,0,0,0,0,0,0,-1,1385,1191,0,0
168,-167,0,0,0,0,0,0,0,0,0,-1,1392,1191,0,0
175,-167,0,0,0,0,0,0,0,0,0,-1,1399,1191,0,0
182,-167,0,0,0,0,0,0,0,0,0,-1,1406,1191,0,0
189,-167,0,0,0,0,0,0,0,0,0,-1,1413,1191,0,0
196,-167,0,0,0,0,0,0,0,0,0,-1,1420,1191,0,0
203,-167,0,0,0,0,0,0,0,0,0,-1,1427,1191,0,0
210,-167,0,0,0,0,0,0,0,0,0,-1,1434,1191,0,0
217,-167,0,0,0,0,0,0,0,0,0,-1,1441,1191,0,0
224,-167,0,0,0,0,0,0,0,0,0,-1,1448,1191,0,0
231,-167,0,0,0,0,0,0,0,0,0,-1,1455,1191,0,0
238,-167,0,0,0,0,0,0,0,0,0,-1,1462,1191,0,0
245,-167,0,0,0,0,0,0,0,0,0,-1,1469,1191,0,0
252,-167,0,0,0,0,0,0,0,0,0,-1,1476,1191,0,0
259,-167,0,0,0,0,0,0,0,0,0,-1,1483,1191,0,0
266,-167,0,0,0,0,0,0,0,0,0,-1,1490,1191,0,0
273,-167,0,0,0,0,0,0,0,0,0,-1,1497,1191,0,0
280,-167,0,0,0,0,0,0,0,0,0,-1,1504,1191,0,0
287,-167,0,0,0,0,0,0,0,0,0,-1,1511,1191,0,0
294,-167,0,0,0,0,0,0,0,0,0,-1,1518,1191,0,0
301,-167,0,0,0,0,0,0,0,0,0,-1,1525,1191,0,0
308,-167,0,0,0,0,0,0,0,0,0,-1,1532,1191,0,0
315,-167,0,0,0,0,0,0,0,0,0,-1,1539,1191,0,0
322,-167,0,0,0,0,0,0,0,0,0,-1,1546,1191,0,0
329,-167,0,0,0,0,0,0,0,0,0,-1,1553,1191,0,0
336,-167,0,0,0,0,0,0,0,0,0,-1,1560,1191,0,0
343,-167,0,0,0,0,0,0,0,0,0,-1,1567,1191,0,0
350,-167,0,0,0,0,0,0,0,0,0,-1,1574,1191,0,0
357,-167,0,0,0,0,0,0,0,0,0,-1,1581,1191,0,0
364,-167,0,0,0,0,0,0,0,0,0,-1,1588,1191,0,0
371,-167,0,0,0,0,0,0,0,0,0,-1,1595,1191,0,0
378,-167,0,0,0,0,0,0,0,0,0,-1,1602,1191,0,0
385,-167,0,0,0,0,0,0,0,0,0,-1,1609,1191,0,0
392,-167,0,0,0,0,0,0,0,0,0,-1,1616,1191,0,0
399,-167,0,0,0,0,0,0,0,0,0,-1,1623,1191,0,0
406,-167,0,0,0,0,0,0,0,0,0,-1,1630,1191,0,0
413,-167,0,0,0,0,0,0,0,0,0,-1,1637,1191,0,0
420,-167,0,0,0,0,0,0,0,0,0,-1,1644,1191,0,0
427,-167,0,0,0,0,0,0,0,0,0,-1,1651,1191,0,0
434,-167,0,0,0,0,0,0,0,0,0,-1,1658,1191,0,0
441,-167,0,0,0,0,0,0,0,0,0,-1,1665,1191,0,0
448,-167,0,0,0,0,0,0,0,0,0,-1,1672,1191,0,0
455,-167,0,0,0,0,0,0,0,0,0,-1,1679,1191,0,0
462,-167,0,0,0,0,0,0,0,0,0,-1,1686,1191,0,0
469,-167,0,0,0,0,0,0,0,0,0,-1,1693,1191,0,0
476,-167,0,0,0,0,0,0,0,0,0,-1,1700,1191,0,0
483,-167,0,0,0,0,0,0,0,0,0,-1,1707,1191,0,0
490,-167,0,0,0,0,0,0,0,0,0,-1,1714,1191,0,0
497,-167,0,0,0,0,0,0,0,0,0,-1,1721,1191,0,0
504,-167,0,0,0,0,0,0,0,0,0,-1,1728,1191,0,0
511,-167,0,0,0,0,0,0,0,0,0,-1,1735,1191,0,0
518,-167,0,0,0,0,0,0,0,0,0,-1,1742,1191,0,0
525,-167,0,0,0,0,0,0,0,0,0,-1,1749,1191,0,0
532,-167,0,0,0,0,0,0,0,0,0,-1,1756,1191,0,0
539,-167,0,0,0,0,0,0,0,0,0,-1,1763,1191,0,0
546,-167,0,0,0,0,0,0,0,0,0,-1,1770,1191,0,0
553,-167,0,0,0,0,0,0,0,0,0,-1,1777,1191,0,0
560,-167,0,0,0,0,0,0,0,0,0,-1,1784,1191,0,0
567,-167,0,0,0,0,0,0,0,0,0,-1,1791,1191,0,0
574,-167,0,0,0,0,0,0,0,0,0,-1,1798,1191,0,0
581,-167,0,0,0,0,0,0,0,0,0,-1,1805,1191,0,0
588,-167,0,0,0,0,0,0,0,0,0,-1,1812,1191,0,0
595,-167,0,0,0,0,0,0,0,0,0,-1,1819,1191,0,0
602,-167,0,0,0,0,0,0,0,0,0,-1,1826,1191,0,0
609,-167,0,0,0,0,0,0,0,0,0,-1,1833,1191,0,0
616,-167,0,0,0,0,0,0,0,0,0,-1,1840,1191,0,0
623,-167,0,0,0,0,0,0,0,0,0,-1,1847,1191,0,0
630,-167,0,0,0,0,0,0,0,0,0,-1,1854,1191,0,0
637,-167,64.6776,2.58923,-0.00524074,0.00405959,-0.00187315,0.00442268,-0.00560383,-1.37933,0.00580219,0.0427507,1861,1191,64.6776,-2.58925
644,-167,64.5859,2.45142,-0.00267968,0.00273488,-0.00103737,0.00292683,-0.00287162,-1.38784,0.00334779,0.0447718,1868,1191,64.586,-2.45142
651,-167,64.42,2.35986,-0.000413042,0.00167472,-0.000639096,0.00185482,-0.000593143,-1.29611,0.00147458,0.0420021,1875,1191,64.42,-2.35989
658,-167,64.4667,2.42212,0.00155794,0.000879177,-0.0004595,0.0017898,0.000647314,-0.46732,0.00104644,0.0415385,1882,1191,64.4667,-2.42206
665,-167,64.6625,2.70386,0.00314157,0.000305396,-0.000384151,0.00319268,0.000254285,-0.132272,0.00204896,0.0374664,1889,1191,64.6625,-2.70383
672,-167,64.6428,2.6853,0.00415401,-9.76449e-05,-0.000335348,0.0041803,-0.000123933,-0.0782299,0.00282908,0.0278964,1896,1191,64.6428,-2.68525
679,-167,64.6786,2.60657,0.00452595,-0.000299362,-0.000270628,0.00454109,-0.000314493,-0.0558516,0.00313748,0.022345,1903,1191,64.6786,-2.60657
686,-167,64.7151,2.5968,0.00439914,-0.000144114,-0.000207524,0.0044086,-0.000153574,-0.045551,0.00299157,0.0329196,1910,1191,64.7151,-2.59679
693,-167,64.7164,2.67981,0,0,0,0,0,0,0,-1,1917,1191,64.7164,-2.67978
700,-167,28.0459,2.70508,0,0,0,0,0,0,0,-1,1924,1191,28.0459,-2.70513
707,-167,29.4708,7.10168,0,0,0,0,0,0,0,-1,1931,1191,29.4708,-7.10172
714,-167,35.9202,6.84668,0,0,0,0,0,0,0,-1,1938,1191,35.9202,-6.84664
721,-167,36.2072,6.38892,0,0,0,0,0,0,0,-1,1945,1191,36.2072,-6.38891
728,-167,54.5253,8.8429,0,0,0,0,0,0,0,-1,1952,1191,54.5253,-8.84295
735,-167,54.7419,8.31458,0.00216398,3.34007e-05,0.000937299,0.00251763,-0.000320242,0.360786,0.00179471,0.0298172,1959,1191,54.742,-8.31458
742,-167,54.7035,7.58533,0.00194244,2.24274e-05,0.00124405,0.00255383,-0.00058896,0.456782,0.00192908,0.0169319,1966,1191,54.7034,-7.58536
749,-167,54.6758,7.0033,0.00240155,0.000684227,0.00180689,0.00354343,-0.000457653,0.563587,0.00252868,0.0165047,1973,1191,54.6758,-7.00329
756,-167,54.6439,6.46167,0.00349604,0.00174699,0.00267943,0.00544005,-0.000197021,0.627656,0.00369412,0.0121945,1980,1191,54.6439,-6.46167
763,-167,54.5762,5.90381,0.00508466,0.00333582,0.00393481,0.00824104,0.000179448,0.676062,0.00543519,0.0131372,1987,1191,54.5761,-5.90377
770,-167,54.3997,5.45459,0.00700708,0.00542937,0.00555832,0.0118322,0.0006042,0.714907,0.00769467,0.0348169,1994,1191,54.3996,-5.45457
777,-167,54.9722,5.03748,0.00889514,0.00810689,0.00767544,0.0161866,0.00081546,0.759746,0.0105298,0.0499113,2001,1191,54.9722,-5.03753
784,-167,55.5798,4.51709,0,0,0,0,0,0,0,-1,2008,1191,55.5798,-4.51709
791,-167,55.8286,2.2561,0,0,0,0,0,0,0,-1,2015,1191,55.8285,-2.25604
798,-167,55.7981,2.45215,0,0,0,0,0,0,0,-1,2022,1191,55.7981,-2.45215
805,-167,53.9204,0.966919,0,0,0,0,0,0,0,-1,2029,1191,53.9204,-0.966902
812,-167,0,0,0,0,0,0,0,0,0,-1,2036,1191,0,0
-700,-174,0,0,0,0,0,0,0,0,0,-1,524,1198,0,0
-693,-174,0,0,0,0,0,0,0,0,0,-1,531,1198,0,0
-686,-174,-40.7845,-6.66064,0.00888253,0.12179,0.0473852,0.139041,-0.00836841,1.22165,0.0956056,0.0450187,538,1198,-40.7844,6.66064
-679,-174,-40.8574,-6.04553,0.00975134,0.105172,0.0370473,0.117867,-0.00294344,1.24067,0.079577,0.0441829,545,1198,-40.8574,6.0455
-672,-174,-40.8027,-5.96704,0.00934117,0.0888242,0.0289901,0.0982743,-0.000108931,1.25568,0.0655526,0.0457203,552,1198,-40.8027,5.96705
-665,-174,-40.6877,-5.97595,0.00859444,0.073388,0.0224974,0.0804334,0.00154904,1.26731,0.0531135,0.0445291,559,1198,-40.6877,5.976
-658,-174,-40.4367,-6.02319,0,0,0,0,0,0,0,-1,566,1198,-40.4367,6.02324
-651,-174,-38.0453,1.94055,0,0,0,0,0,0,0,-1,573,1198,-38.0454,-1.94055
-644,-174,-37.9967,2.50671,0.00543623,0.0334934,0.00854838,0.0358927,0.00303691,1.29716,0.0229832,0.0465643,580,1198,-37.9967,-2.50671
-637,-174,-37.9612,3.08801,0.00414158,0.0227546,0.00522507,0.024121,0.00277511,1.315,0.0152401,0.0256838,587,1198,-37.9612,-3.08806
-630,-174,-38.0967,3.66699,0.00267745,0.0131074,0.00193717,0.0134556,0.00232928,1.39296,0.00830358,0.0133534,594,1198,-38.0967,-3.66697
-623,-174,-38.1407,4.26221,0.00107343,0.00532056,-0.000326291,0.00534548,0.00104851,-1.49457,0.00327066,0.0144737,601,1198,-38.1407,-4.26217
-616,-174,-38.1002,4.90601,-0.00096827,0.000794989,-0.00148498,0.00164033,-0.00181361,-1.05329,0.00199497,0.0206892,608,1198,-38.1001,-4.90598
-609,-174,-38.1715,5.53247,-0.00274947,-0.00018329,-0.00229506,0.00116299,-0.00409576,-1.04029,0.00318964,0.0220444,615,1198,-38.1715,-5.53242
-602,-174,-38.2587,6.15015,0,0,0,0,0,0,0,-1,622,1198,-38.2587,-6.15013
-595,-174,-38.5347,6.5686,0,0,0,0,0,0,0,-1,629,1198,-38.5347,-6.56857
-588,-174,-38.588,7.29602,0,0,0,0,0,0,0,-1,636,1198,-38.588,-7.29601
-581,-174,-38.6412,8.02344,0,0,0,0,0,0,0,-1,643,1198,-38.6412,-8.02344
-574,-174,-31.7448,7.09595,0,0,0,0,0,0,0,-1,650,1198,-31.7448,-7.09599
-567,-174,-26.6597,3.04041,0,0,0,0,0,0,0,-1,657,1198,-26.6597,-3.04039
-560,-174,-42.6953,1.07178,0,0,0,0,0,0,0,-1,664,1198,-42.6953,-1.07181
-553,-174,-48.728,0.721313,0,0,0,0,0,0,0,-1,671,1198,-48.728,-0.721359
-546,-174,-48.7619,0.857422,-0.00274228,-0.000915413,-0.00114318,-0.000365557,-0.00329214,-1.12247,0.00208362,0.0317266,678,1198,-48.7619,-0.857371
-539,-174,-48.8314,1.06104,-0.00176678,-0.000929218,-0.000717139,-0.000517538,-0.00217846,-1.04967,0.00131421,0.0366981,685,1198,-48.8314,-1.06108
-532,-174,-48.8806,1.22583,0.00052308,-0.00127584,0.000241569,0.000554954,-0.00130771,0.13119,0.0011043,0.0475269,692,1198,-48.8806,-1.22583
-525,-174,-48.5814,0.90979,0.00520183,-0.00236574,0.00135082,0.00543572,-0.00259964,0.171449,0.00473456,0.0441339,699,1198,-48.5814,-0.909788
-518,-174,-48.7094,1.09314,0.00967092,-0.0034799,0.00239335,0.010093,-0.00390193,0.17454,0.00833933,0.0424063,706,1198,-48.7094,-1.09318
-511,-174,0,0,0,0,0,0,0,0,0,-1,713,1198,0,0
-504,-174,0,0,0,0,0,0,0,0,0,-1,720,1198,0,0
-497,-174,0,0,0,0,0,0,0,0,0,-1,727,1198,0,0
-490,-174,0,0,0,0,0,0,0,0,0,-1,734,1198,0,0
-483,-174,0,0,0,0,0,0,0,0,0,-1,741,1198,0,0
-476,-174,0,0,0,0,0,0,0,0,0,-1,748,1198,0,0
-469,-174,0,0,0,0,0,0,0,0,0,-1,755,1198,0,0
-462,-174,0,0,0,0,0,0,0,0,0,-1,762,1198,0,0
-455,-174,0,0,0,0,0,0,0,0,0,-1,769,1198,0,0
-448,-174,0,0,0,0,0,0,0,0,0,-1,776,1198,0,0
-441,-174,0,0,0,0,0,0,0,0,0,-1,783,1198,0,0
-434,-174,0,0,0,0,0,0,0,0,0,-1,790,1198,0,0
-427,-174,0,0,0,0,0,0,0,0,0,-1,797,1198,0,0
-420,-174,0,0,0,0,0,0,0,0,0,-1,804,1198,0,0
-413,-174,0,0,0,0,0,0,0,0,0,-1,811,1198,0,0
-406,-174,0,0,0,0,0,0,0,0,0,-1,818,1198,0,0
-399,-174,0,0,0,0,0,0,0,0,0,-1,825,1198,0,0
-392,-174,0,0,0,0,0,0,0,0,0,-1,832,1198,0,0
-385,-174,0,0,0,0,0,0,0,0,0,-1,839,1198,0,0
-378,-174,0,0,0,0,0,0,0,0,0,-1,846,1198,0,0
-371,-174,0,0,0,0,0,0,0,0,0,-1,853,1198,0,0
-364,-174,0,0,0,0,0,0,0,0,0,-1,860,1198,0,0
-357,-174,0,0,0,0,0,0,0,0,0,-1,867,1198,0,0
-350,-174,0,0,0,0,0,0,0,0,0,-1,874,1198,0,0
-343,-174,0,0,0,0,0,0,0,0,0,-1,881,1198,0,0
-336,-174,0,0,0,0,0,0,0,0,0,-1,888,1198,0,0
-329,-174,0,0,0,0,0,0,0,0,0,-1,895,1198,0,0
-322,-174,0,0,0,0,0,0,0,0,0,-1,902,1198,0,0
-315,-174,0,0,0,0,0,0,0,0,0,-1,909,1198,0,0
-308,-174,0,0,0,0,0,0,0,0,0,-1,916,1198,0,0
-301,-174,0,0,0,0,0,0,0,0,0,-1,923,1198,0,0
-294,-174,0,0,0,0,0,0,0,0,0,-1,930,1198,0,0
-287,-174,0,0,0,0,0,0,0,0,0,-1,937,1198,0,0
-280,-174,0,0,0,0,0,0,0,0,0,-1,944,1198,0,0
-273,-174,0,0,0,0,0,0,0,0,0,-1,951,1198,0,0
-266,-174,0,0,0,0,0,0,0,0,0,-1,958,1198,0,0
-259,-174,0,0,0,0,0,0,0,0,0,-1,965,1198,0,0
-252,-174,0,0,0,0,0,0,0,0,0,-1,972,1198,0,0
-245,-174,0,0,0,0,0,0,0,0,0,-1,979,1198,0,0
-238,-174,0,0,0,0,0,0,0,0,0,-1,986,1198,0,0
-231,-174,0,0,0,0,0,0,0,0,0,-1,993,1198,0,0
-224,-174,0,0,0,0,0,0,0,0,0,-1,1000,1198,0,0
-217,-174,0,0,0,0,0,0,0,0,0,-1,1007,1198,0,0
-210,-174,0,0,0,0,0,0,0,0,0,-1,1014,1198,0,0
-203,-174,0,0,0,0,0,0,0,0,0,-1,1021,1198,0,0
-196,-174,0,0,0,0,0,0,0,0,0,-1,1028,1198,0,0
-189,-174,0,0,0,0,0,0,0,0,0,-1,1035,1198,0,0
-182,-174,0,0,0,0,0,0,0,0,0,-1,1042,1198,0,0
-175,-174,0,0,0,0,0,0,0,0,0,-1,1049,1198,0,0
-168,-174,0,0,0,0,0,0,0,0,0,-1,1056,1198,0,0
-161,-174,0,0,0,0,0,0,0,0,0,-1,1063,1198,0,0
-154,-174,0,0,0,0,0,0,0,0,0,-1,1070,1198,0,0
-147,-174,0,0,0,0,0,0,0,0,0,-1,1077,1198,0,0
-140,-174,0,0,0,0,0,0,0,0,0,-1,1084,1198,0,0
-133,-174,0,0,0,0,0,0,0,0,0,-1,1091,1198,0,0
-126,-174,0,0,0,0,0,0,0,0,0,-1,1098,1198,0,0
-119,-174,0,0,0,0,0,0,0,0,0,-1,1105,1198,0,0
-112,-174,0,0,0,0,0,0,0,0,0,-1,1112,1198,0,0
-105,-174,0,0,0,0,0,0,0,0,0,-1,1119,1198,0,0
-98,-174,0,0,0,0,0,0,0,0,0,-1,1126,1198,0,0
-91,-174,0,0,0,0,0,0,0,0,0,-1,1133,1198,0,0
-84,-174,0,0,0,0,0,0,0,0,0,-1,1140,1198,0,0
-77,-174,0,0,0,0,0,0,0,0,0,-1,1147,1198,0,0
-70,-174,0,0,0,0,0,0,0,0,0,-1,1154,1198,0,0
-63,-174,0,0,0,0,0,0,0,0,0,-1,1161,1198,0,0
-56,-174,0,0,0,0,0,0,0,0,0,-1,1168,1198,0,0
-49,-174,0,0,0,0,0,0,0,0,0,-1,1175,1198,0,0
-42,-174,0,0,0,0,0,0,0,0,0,-1,1182,1198,0,0
-35,-174,0,0,0,0,0,0,0,0,0,-1,1189,1198,0,0
-28,-174,0,0,0,0,0,0,0,0,0,-1,1196,1198,0,0
-21,-174,0,0,0,0,0,0,0,0,0,-1,1203,1198,0,0
-14,-174,0,0,0,0,0,0,0,0,0,-1,1210,1198,0,0
-7,-174,0,0,0,0,0,0,0,0,0,-1,1217,1198,0,0
0,-174,0,0,0,0,0,0,0,0,0,-1,1224,1198,0,0
7,-174,0,0,0,0,0,0,0,0,0,-1,1231,1198,0,0
14,-174,0,0,0,0,0,0,0,0,0,-1,1238,1198,0,0
21,-174,0,0,0,0,0,0,0,0,0,-1,1245,1198,0,0
28,-174,0,0,0,0,0,0,0,0,0,-1,1252,1198,0,0
35,-174,0,0,0,0,0,0,0,0,0,-1,1259,1198,0,0
42,-174,0,0,0,0,0,0,0,0,0,-1,1266,1198,0,0
49,-174,0,0,0,0,0,0,0,0,0,-1,1273,1198,0,0
56,-174,0,0,0,0,0,0,0,0,0,-1,1280,1198,0,0
63,-174,0,0,0,0,0,0,0,0,0,-1,1287,1198,0,0
70,-174,0,0,0,0,0,0,0,0,0,-1,1294,1198,0,0
77,-174,0,0,0,0,0,0,0,0,0,-1,1301,1198,0,0
84,-174,0,0,0,0,0,0,0,0,0,-1,1308,1198,0,0
91,-174,0,0,0,0,0,0,0,0,0,-1,1315,1198,0,0
98,-174,0,0,0,0,0,0,0,0,0,-1,1322,1198,0,0
105,-174,0,0,0,0,0,0,0,0,0,-1,1329,1198,0,0
112,-174,0,0,0,0,0,0,0,0,0,-1,1336,1198,0,0
119,-174,0,0,0,0,0,0,0,0,0,-1,1343,1198,0,0
126,-174,0,0,0,0,0,0,0,0,0,-1,1350,1198,0,0
133,-174,0,0,0,0,0,0,0,0,0,-1,1357,1198,0,0
140,-174,0,0,0,0,0,0,0,0,0,-1,1364,1198,0,0
147,-174,0,0,0,0,0,0,0,0,0,-1,1371,1198,0,0
154,-174,0,0,0,0,0,0,0,0,0,-1,1378,1198,0,0
161,-174,0,0,0,0,0,0,0,0,0,-1,1385,1198,0,0
168,-174,0,0,0,0,0,0,0,0,0,-1,1392,1198,0,0
175,-174,0,0,0,0,0,0,0,0,0,-1,1399,1198,0,0
182,-174,0,0,0,0,0,0,0,0,0,-1,1406,1198,0,0
189,-174,0,0,0,0,0,0,0,0,0,-1,1413,1198,0,0
196,-174,0,0,0,0,0,0,0,0,0,-1,1420,1198,0,0
203,-174,0,0,0,0,0,0,0,0,0,-1,1427,1198,0,0
210,-174,0,0,0,0,0,0,0,0,0,-1,1434,1198,0,0
217,-174,0,0,0,0,0,0,0,0,0,-1,1441,1198,0,0
224,-174,0,0,0,0,0,0,0,0,0,-1,1448,1198,0,0
231,-174,0,0,0,0,0,0,0,0,0,-1,1455,1198,0,0
238,-174,0,0,0,0,0,0,0,0,0,-1,1462,1198,0,0
245,-174,0,0,0,0,0,0,0,0,0,-1,1469,1198,0,0
252,-174,0,0,0,0,0,0,0,0,0,-1,1476,1198,0,0
259,-174,0,0,0,0,0,0,0,0,0,-1,1483,1198,0,0
266,-174,0,0,0,0,0,0,0,0,0,-1,1490,1198,0,0
273,-174,0,0,0,0,0,0,0,0,0,-1,1497,1198,0,0
280,-174,0,0,0,0,0,0,0,0,0,-1,1504,1198,0,0
287,-174,0,0,0,0,0,0,0,0,0,-1,1511,1198,0,0
294,-174,0,0,0,0,0,0,0,0,0,-1,1518,1198,0,0
301,-174,0,0,0,0,0,0,0,0,0,-1,1525,1198,0,0
308,-174,0,0,0,0,0,0,0,0,0,-1,1532,1198,0,0
315,-174,0,0,0,0,0,0,0,0,0,-1,1539,1198,0,0
322,-174,0,0,0,0,0,0,0,0,0,-1,1546,1198,0,0
329,-174,0,0,0,0,0,0,0,0,0,-1,1553,1198,0,0
336,-174,0,0,0,0,0,0,0,0,0,-1,1560,1198,0,0
343,-174,0,0,0,0,0,0,0,0,0,-1,1567,1198,0,0
350,-174,0,0,0,0,0,0,0,0,0,-1,1574,1198,0,0
357,-174,0,0,0,0,0,0,0,0,0,-1,1581,1198,0,0
364,-174,0,0,0,0,0,0,0,0,0,-1,1588,1198,0,0
371,-174,0,0,0,0,0,0,0,0,0,-1,1595,1198,0,0
378,-174,0,0,0,0,0,0,0,0,0,-1,1602,1198,0,0
385,-174,0,0,0,0,0,0,0,0,0,-1,1609,1198,0,0
392,-174,0,0,0,0,0,0,0,0,0,-1,1616,1198,0,0
399,-174,0,0,0,0,0,0,0,0,0,-1,1623,1198,0,0
406,-174,0,0,0,0,0,0,0,0,0,-1,1630,1198,0,0
413,-174,0,0,0,0,0,0,0,0,0,-1,1637,1198,0,0
420,-174,0,0,0,0,0,0,0,0,0,-1,1644,1198,0,0
427,-174,0,0,0,0,0,0,0,0,0,-1,1651,1198,0,0
434,-174,0,0,0,0,0,0,0,0,0,-1,1658,1198,0,0
441,-174,0,0,0,0,0,0,0,0,0,-1,1665,1198,0,0
448,-174,0,0,0,0,0,0,0,0,0,-1,1672,1198,0,0
455,-174,0,0,0,0,0,0,0,0,0,-1,1679,1198,0,0
462,-174,0,0,0,0,0,0,0,0,0,-1,1686,1198,0,0
469,-174,0,0,0,0,0,0,0,0,0,-1,1693,1198,0,0
476,-174,0,0,0,0,0,0,0,0,0,-1,1700,1198,0,0
483,-174,0,0,0,0,0,0,0,0,0,-1,1707,1198,0,0
490,-174,0,0,0,0,0,0,0,0,0,-1,1714,1198,0,0
497,-174,0,0,0,0,0,0,0,0,0,-1,1721,1198,0,0
504,-174,0,0,0,0,0,0,0,0,0,-1,1728,1198,0,0
511,-174,0,0,0,0,0,0,0,0,0,-1,1735,1198,0,0
518,-174,0,0,0,0,0,0,0,0,0,-1,1742,1198,0,0
525,-174,0,0,0,0,0,0,0,0,0,-1,1749,1198,0,0
532,-174,0,0,0,0,0,0,0,0,0,-1,1756,1198,0,0
539,-174,0,0,0,0,0,0,0,0,0,-1,1763,1198,0,0
546,-174,0,0,0,0,0,0,0,0,0,-1,1770,1198,0,0
553,-174,0,0,0,0,0,0,0,0,0,-1,1777,1198,0,0
560,-174,0,0,0,0,0,0,0,0,0,-1,1784,1198,0,0
567,-174,0,0,0,0,0,0,0,0,0,-1,1791,1198,0,0
574,-174,0,0,0,0,0,0,0,0,0,-1,1798,1198,0,0
581,-174,0,0,0,0,0,0,0,0,0,-1,1805,1198,0,0
588,-174,0,0,0,0,0,0,0,0,0,-1,1812,1198,0,0
595,-174,0,0,0,0,0,0,0,0,0,-1,1819,1198,0,0
602,-174,0,0,0,0,0,0,0,0,0,-1,1826,1198,0,0
609,-174,0,0,0,0,0,0,0,0,0,-1,1833,1198,0,0
616,-174,0,0,0,0,0,0,0,0,0,-1,1840,1198,0,0
623,-174,0,0,0,0,0,0,0,0,0,-1,1847,1198,0,0
630,-174,0,0,0,0,0,0,0,0,0,-1,1854,1198,0,0
637,-174,64.6185,2.74683,-0.00516891,0.00376113,-0.00264097,0.0044837,-0.00589149,-1.30373,0.00600847,0.0430283,1861,1198,64.6185,-2.74683
644,-174,64.5837,2.56812,-0.00239557,0.00226032,-0.0017291,0.00283223,-0.00296747,-1.25137,0.00334876,0.0427783,1868,1198,64.5837,-2.5681
651,-174,64.5416,2.43152,0.000161077,0.00101606,-0.00121811,0.00187951,-0.000702373,-0.954158,0.00154143,0.040589,1875,1198,64.5416,-2.43156
658,-174,64.4684,2.52307,0.00231599,0.000131222,-0.000925319,0.00265522,-0.000208008,-0.351393,0.0018434,0.0394889,1882,1198,64.4684,-2.52307
665,-174,64.6289,2.6853,0.00388132,-0.000452758,-0.000715254,0.00399631,-0.000567746,-0.159401,0.00287222,0.0336258,1889,1198,64.6289,-2.68532
672,-174,64.6445,2.59363,0.00474153,-0.000747948,-0.000549659,0.00479603,-0.000802444,-0.0988223,0.00349567,0.0262405,1896,1198,64.6445,-2.59358
679,-174,64.6602,2.54272,0.00492003,-0.00074639,-0.000412581,0.00494991,-0.000776273,-0.0723033,0.00358681,0.0238361,1903,1198,64.6601,-2.54273
686,-174,64.7084,2.52612,0,0,0,0,0,0,0,-1,1910,1198,64.7083,-2.52607
693,-174,51.1324,2.57349,0,0,0,0,0,0,0,-1,1917,1198,51.1325,-2.57343
700,-174,25.4004,6.11792,0,0,0,0,0,0,0,-1,1924,1198,25.4004,-6.11797
707,-174,34.7908,7.34473,0,0,0,0,0,0,0,-1,1931,1198,34.7908,-7.34475
714,-174,40.1135,7.79871,0,0,0,0,0,0,0,-1,1938,1198,40.1135,-7.79875
721,-174,40.8693,7.59863,0,0,0,0,0,0,0,-1,1945,1198,40.8693,-7.59859
728,-174,53.9703,8.75891,0,0,0,0,0,0,0,-1,1952,1198,53.9704,-8.75896
735,-174,54.0457,8.21448,0.00222145,0.000237707,0.000871987,0.00255025,-9.10927e-05,0.360583,0.00173133,0.0194361,1959,1198,54.0457,-8.21442
742,-174,54.114,7.60583,0.00205008,0.000326269,0.00120387,0.00266878,-0.000292426,0.474723,0.00188424,0.0222867,1966,1198,54.114,-7.60581
749,-174,54.0972,7.03577,0.0025196,0.00107725,0.00182437,0.00376016,-0.000163309,0.597173,0.00256295,0.0205309,1973,1198,54.0971,-7.03581
756,-174,54.05,6.46851,0.00352373,0.00203974,0.0026464,0.00553019,3.32759e-05,0.648718,0.00367575,0.012303,1980,1198,54.0501,-6.4685
763,-174,54.0203,5.91235,0.0052293,0.00370254,0.0036364,0.00818159,0.000750254,0.681937,0.0052223,0.0159879,1987,1198,54.0203,-5.91233
770,-174,54.0713,5.69604,0,0,0,0,0,0,0,-1,1994,1198,54.0712,-5.69605
777,-174,54.7131,5.06079,0,0,0,0,0,0,0,-1,2001,1198,54.7132,-5.06078
784,-174,53.5789,3.44214,0,0,0,0,0,0,0,-1,2008,1198,53.5789,-3.44215
791,-174,55.7644,1.38074,0,0,0,0,0,0,0,-1,2015,1198,55.7644,-1.38079
798,-174,52.7458,1.96704,0,0,0,0,0,0,0,-1,2022,1198,52.7459,-1.96704
805,-174,52.6179,0.994629,0,0,0,0,0,0,0,-1,2029,1198,52.6179,-0.994665
812,-174,0,0,0,0,0,0,0,0,0,-1,2036,1198,0,0
-700,-181,0,0,0,0,0,0,0,0,0,-1,524,1205,0,0
-693,-181,0,0,0,0,0,0,0,0,0,-1,531,1205,0,0
-686,-181,-41.0773,-7.5387,0.0019136,0.126106,0.0421143,0.13904,-0.0110206,1.27282,0.0965767,0.0419907,538,1205,-41.0773,7.53873
-679,-181,-40.5818,-7.16748,0.00225834,0.108401,0.0326752,0.117653,-0.00699399,1.29486,0.0808676,0.0442289,545,1205,-40.5818,7.16749
-672,-181,-40.1145,-6.84082,0.00191847,0.0913825,0.0253823,0.0980821,-0.00478118,1.31273,0.0670387,0.0481859,552,1205,-40.1145,6.84079
-665,-181,-39.5266,-6.58569,0.00172124,0.0755417,0.0195978,0.0804219,-0.00315895,1.32674,0.054698,0.0489478,559,1205,-39.5266,6.58572
-658,-181,-39.0822,-6.29333,0,0,0,0,0,0,0,-1,566,1205,-39.0821,6.29339
-651,-181,-37.4369,1.84717,0,0,0,0,0,0,0,-1,573,1205,-37.4369,-1.84714
-644,-181,-37.4184,2.41016,0.00152522,0.0351829,0.00740591,0.0367404,-3.22796e-05,1.36351,0.0245044,0.0493323,580,1205,-37.4184,-2.41012
-637,-181,-37.3718,3.02625,0.00143253,0.0243816,0.00454941,0.0252506,0.000563559,1.38206,0.0166491,0.0280716,587,1205,-37.3718,-3.02625
-630,-181,-37.4828,3.68091,0.00105338,0.0146102,0.00161897,0.0148008,0.00086272,1.45357,0.00959259,0.0140871,594,1205,-37.4828,-3.68086
-623,-181,-37.5335,4.28003,0.000667034,0.00654108,-0.000346043,0.00656139,0.000646719,-1.51216,0.00417542,0.0152276,601,1205,-37.5335,-4.27999
-616,-181,-37.5111,4.93347,-0.000207642,0.00144492,-0.00139136,0.00223686,-0.000999574,-1.05335,0.00191353,0.0155421,608,1205,-37.5111,-4.93349
-609,-181,-37.524,5.58276,-0.00153159,9.30993e-05,-0.00203828,0.00147495,-0.00291344,-0.975023,0.00257861,0.0149598,615,1205,-37.5241,-5.58281
-602,-181,-37.5455,6.19897,-0.00248078,-0.000298117,-0.0023879,0.00123602,-0.00401491,-0.999739,0.00316998,0.0213648,622,1205,-37.5455,-6.19897
-595,-181,-38.0547,6.55408,0,0,0,0,0,0,0,-1,629,1205,-38.0547,-6.55402
-588,-181,-38.0438,7.37659,0,0,0,0,0,0,0,-1,636,1205,-38.0438,-7.37665
-581,-181,-38.0328,8.19922,0,0,0,0,0,0,0,-1,643,1205,-38.0328,-8.19928
-574,-181,-35.6174,7.93542,0,0,0,0,0,0,0,-1,650,1205,-35.6174,-7.93543
-567,-181,-25.8839,3.34485,0,0,0,0,0,0,0,-1,657,1205,-25.8839,-3.3449
-560,-181,-31.7396,1.63306,0,0,0,0,0,0,0,-1,664,1205,-31.7396,-1.63303
-553,-181,-48.6545,0.631714,0,0,0,0,0,0,0,-1,671,1205,-48.6545,-0.631708
-546,-181,-48.7429,0.836792,-0.00245895,-0.00101516,-0.0010177,-0.000489322,-0.00298479,-1.09388,0.00184847,0.0349945,678,1205,-48.7429,-0.836816
-539,-181,-48.84,1.06079,-0.00211464,-0.00094284,-0.000756417,-0.000571952,-0.00248553,-1.11492,0.00150309,0.0389238,685,1205,-48.8401,-1.06077
-532,-181,-48.8332,1.15173,-0.000998802,-0.0010225,3.99243e-05,-0.000969004,-0.00105229,0.641159,0.00067548,0.04715,692,1205,-48.8332,-1.1517
-525,-181,-48.6359,1.02222,0.00308172,-0.00207977,0.00126582,0.00337544,-0.00237349,0.228004,0.00333591,0.0436558,699,1205,-48.6359,-1.02219
-518,-181,-48.7744,1.12817,0.00755665,-0.00327314,0.00244427,0.00808276,-0.00379925,0.212007,0.0070071,0.0398748,706,1205,-48.7743,-1.12817
-511,-181,0,0,0,0,0,0,0,0,0,-1,713,1205,0,0
-504,-181,0,0,0,0,0,0,0,0,0,-1,720,1205,0,0
-497,-181,0,0,0,0,0,0,0,0,0,-1,727,1205,0,0
-490,-181,0,0,0,0,0,0,0,0,0,-1,734,1205,0,0
-483,-181,0,0,0,0,0,0,0,0,0,-1,741,1205,0,0
-476,-181,0,0,0,0,0,0,0,0,0,-1,748,1205,0,0
-469,-181,0,0,0,0,0,0,0,0,0,-1,755,1205,0,0
-462,-181,0,0,0,0,0,0,0,0,0,-1,762,1205,0,0
-455,-181,0,0,0,0,0,0,0,0,0,-1,769,1205,0,0
-448,-181,0,0,0,0,0,0,0,0,0,-1,776,1205,0,0
-441,-181,0,0,0,0,0,0,0,0,0,-1,783,1205,0,0
-434,-181,0,0,0,0,0,0,0,0,0,-1,790,1205,0,0
-427,-181,0,0,0,0,0,0,0,0,0,-1,797,1205,0,0
-420,-181,0,0,0,0,0,0,0,0,0,-1,804,1205,0,0
-413,-181,0,0,0,0,0,0,0,0,0,-1,811,1205,0,0
-406,-181,0,0,0,0,0,0,0,0,0,-1,818,1205,0,0
-399,-181,0,0,0,0,0,0,0,0,0,-1,825,1205,0,0
-392,-181,0,0,0,0,0,0,0,0,0,-1,832,1205,0,0
-385,-181,0,0,0,0,0,0,0,0,0,-1,839,1205,0,0
-378,-181,0,0,0,0,0,0,0,0,0,-1,846,1205,0,0
-371,-181,0,0,0,0,0,0,0,0,0,-1,853,1205,0,0
-364,-181,0,0,0,0,0,0,0,0,0,-1,860,1205,0,0
-357,-181,0,0,0,0,0,0,0,0,0,-1,867,1205,0,0
-350,-181,0,0,0,0,0,0,0,0,0,-1,874,1205,0,0
-343,-181,0,0,0,0,0,0,0,0,0,-1,881,1205,0,0
-336,-181,0,0,0,0,0,0,0,0,0,-1,888,1205,0,0
-329,-181,0,0,0,0,0,0,0,0,0,-1,895,1205,0,0
-322,-181,0,0,0,0,0,0,0,0,0,-1,902,1205,0,0
-315,-181,0,0,0,0,0,0,0,0,0,-1,909,1205,0,0
-308,-181,0,0,0,0,0,0,0,0,0,-1,916,1205,0,0
-301,-181,0,0,0,0,0,0,0,0,0,-1,923,1205,0,0
-294,-181,0,0,0,0,0,0,0,0,0,-1,930,1205,0,0
-287,-181,0,0,0,0,0,0,0,0,0,-1,937,1205,0,0
-280,-181,0,0,0,0,0,0,0,0,0,-1,944,1205,0,0
-273,-181,0,0,0,0,0,0,0,0,0,-1,951,1205,0,0
-266,-181,0,0,0,0,0,0,0,0,0,-1,958,1205,0,0
-259,-181,0,0,0,0,0,0,0,0,0,-1,965,1205,0,0
-252,-181,0,0,0,0,0,0,0,0,0,-1,972,1205,0,0
-245,-181,0,0,0,0,0,0,0,0,0,-1,979,1205,0,0
-238,-181,0,0,0,0,0,0,0,0,0,-1,986,1205,0,0
-231,-181,0,0,0,0,0,0,0,0,0,-1,993,1205,0,0
-224,-181,0,0,0,0,0,0,0,0,0,-1,1000,1205,0,0
-217,-181,0,0,0,0,0,0,0,0,0,-1,1007,1205,0,0
-210,-181,0,0,0,0,0,0,0,0,0,-1,1014,1205,0,0
-203,-181,0,0,0,0,0,0,0,0,0,-1,1021,1205,0,0
-196,-181,0,0,0,0,0,0,0,0,0,-1,1028,1205,0,0
-189,-181,0,0,0,0,0,0,0,0,0,-1,1035,1205,0,0
-182,-181,0,0,0,0,0,0,0,0,0,-1,1042,1205,0,0
-175,-181,0,0,0,0,0,0,0,0,0,-1,1049,1205,0,0
-168,-181,0,0,0,0,0,0,0,0,0,-1,1056,1205,0,0
-161,-181,0,0,0,0,0,0,0,0,0,-1,1063,1205,0,0
-154,-181,0,0,0,0,0,0,0,0,0,-1,1070,1205,0,0
-147,-181,0,0,0,0,0,0,0,0,0,-1,1077,1205,0,0
-140,-181,0,0,0,0,0,0,0,0,0,-1,1084,1205,0,0
-133,-181,0,0,0,0,0,0,0,0,0,-1,1091,1205,0,0
-126,-181,0,0,0,0,0,0,0,0,0,-1,1098,1205,0,0
-119,-181,0,0,0,0,0,0,0,0,0,-1,1105,1205,0,0
-112,-181,0,0,0,0,0,0,0,0,0,-1,1112,1205,0,0
-105,-181,0,0,0,0,0,0,0,0,0,-1,1119,1205,0,0
-98,-181,0,0,0,0,0,0,0,0,0,-1,1126,1205,0,0
-91,-181,0,0,0,0,0,0,0,0,0,-1,1133,1205,0,0
-84,-181,0,0,0,0,0,0,0,0,0,-1,1140,1205,0,0
-77,-181,0,0,0,0,0,0,0,0,0,-1,1147,1205,0,0
-70,-181,0,0,0,0,0,0,0,0,0,-1,1154,1205,0,0
-63,-181,0,0,0,0,0,0,0,0,0,-1,1161,1205,0,0
-56,-181,0,0,0,0,0,0,0,0,0,-1,1168,1205,0,0
-49,-181,0,0,0,0,0,0,0,0,0,-1,1175,1205,0,0
-42,-181,0,0,0,0,0,0,0,0,0,-1,1182,1205,0,0
-35,-181,0,0,0,0,0,0,0,0,0,-1,1189,1205,0,0
-28,-181,0,0,0,0,0,0,0,0,0,-1,1196,1205,0,0
-21,-181,0,0,0,0,0,0,0,0,0,-1,1203,1205,0,0
-14,-181,0,0,0,0,0,0,0,0,0,-1,1210,1205,0,0
-7,-181,0,0,0,0,0,0,0,0,0,-1,1217,1205,0,0
0,-181,0,0,0,0,0,0,0,0,0,-1,1224,1205,0,0
7,-181,0,0,0,0,0,0,0,0,0,-1,1231,1205,0,0
14,-181,0,0,0,0,0,0,0,0,0,-1,1238,1205,0,0
21,-181,0,0,0,0,0,0,0,0,0,-1,1245,1205,0,0
28,-181,0,0,0,0,0,0,0,0,0,-1,1252,1205,0,0
35,-181,0,0,0,0,0,0,0,0,0,-1,1259,1205,0,0
42,-181,0,0,0,0,0,0,0,0,0,-1,1266,1205,0,0
49,-181,0,0,0,0,0,0,0,0,0,-1,1273,1205,0,0
56,-181,0,0,0,0,0,0,0,0,0,-1,1280,1205,0,0
63,-181,0,0,0,0,0,0,0,0,0,-1,1287,1205,0,0
70,-181,0,0,0,0,0,0,0,0,0,-1,1294,1205,0,0
77,-181,0,0,0,0,0,0,0,0,0,-1,1301,1205,0,0
84,-181,0,0,0,0,0,0,0,0,0,-1,1308,1205,0,0
91,-181,0,0,0,0,0,0,0,0,0,-1,1315,1205,0,0
98,-181,0,0,0,0,0,0,0,0,0,-1,1322,1205,0,0
105,-181,0,0,0,0,0,0,0,0,0,-1,1329,1205,0,0
112,-181,0,0,0,0,0,0,0,0,0,-1,1336,1205,0,0
119,-181,0,0,0,0,0,0,0,0,0,-1,1343,1205,0,0
126,-181,0,0,0,0,0,0,0,0,0,-1,1350,1205,0,0
133,-181,0,0,0,0,0,0,0,0,0,-1,1357,1205,0,0
140,-181,0,0,0,0,0,0,0,0,0,-1,1364,1205,0,0
147,-181,0,0,0,0,0,0,0,0,0,-1,1371,1205,0,0
154,-181,0,0,0,0,0,0,0,0,0,-1,1378,1205,0,0
161,-181,0,0,0,0,0,0,0,0,0,-1,1385,1205,0,0
168,-181,0,0,0,0,0,0,0,0,0,-1,1392,1205,0,0
175,-181,0,0,0,0,0,0,0,0,0,-1,1399,1205,0,0
182,-181,0,0,0,0,0,0,0,0,0,-1,1406,1205,0,0
189,-181,0,0,0,0,0,0,0,0,0,-1,1413,1205,0,0
196,-181,0,0,0,0,0,0,0,0,0,-1,1420,1205,0,0
203,-181,0,0,0,0,0,0,0,0,0,-1,1427,1205,0,0
210,-181,0,0,0,0,0,0,0,0,0,-1,1434,1205,0,0
217,-181,0,0,0,0,0,0,0,0,0,-1,1441,1205,0,0
224,-181,0,0,0,0,0,0,0,0,0,-1,1448,1205,0,0
231,-181,0,0,0,0,0,0,0,0,0,-1,1455,1205,0,0
238,-181,0,0,0,0,0,0,0,0,0,-1,1462,1205,0,0
245,-181,0,0,0,0,0,0,0,0,0,-1,1469,1205,0,0
252,-181,0,0,0,0,0,0,0,0,0,-1,1476,1205,0,0
259,-181,0,0,0,0,0,0,0,0,0,-1,1483,1205,0,0
266,-181,0,0,0,0,0,0,0,0,0,-1,1490,1205,0,0
273,-181,0,0,0,0,0,0,0,0,0,-1,1497,1205,0,0
280,-181,0,0,0,0,0,0,0,0,0,-1,1504,1205,0,0
287,-181,0,0,0,0,0,0,0,0,0,-1,1511,1205,0,0
294,-181,0,0,0,0,0,0,0,0,0,-1,1518,1205,0,0
301,-181,0,0,0,0,0,0,0,0,0,-1,1525,1205,0,0
308,-181,0,0,0,0,0,0,0,0,0,-1,1532,1205,0,0
315,-181,0,0,0,0,0,0,0,0,0,-1,1539,1205,0,0
322,-181,0,0,0,0,0,0,0,0,0,-1,1546,1205,0,0
329,-181,0,0,0,0,0,0,0,0,0,-1,1553,1205,0,0
336,-181,0,0,0,0,0,0,0,0,0,-1,1560,1205,0,0
343,-181,0,0,0,0,0,0,0,0,0,-1,1567,1205,0,0
350,-181,0,0,0,0,0,0,0,0,0,-1,1574,1205,0,0
357,-181,0,0,0,0,0,0,0,0,0,-1,1581,1205,0,0
364,-181,0,0,0,0,0,0,0,0,0,-1,1588,1205,0,0
371,-181,0,0,0,0,0,0,0,0,0,-1,1595,1205,0,0
378,-181,0,0,0,0,0,0,0,0,0,-1,1602,1205,0,0
385,-181,0,0,0,0,0,0,0,0,0,-1,1609,1205,0,0
392,-181,0,0,0,0,0,0,0,0,0,-1,1616,1205,0,0
399,-181,0,0,0,0,0,0,0,0,0,-1,1623,1205,0,0
406,-181,0,0,0,0,0,0,0,0,0,-1,1630,1205,0,0
413,-181,0,0,0,0,0,0,0,0,0,-1,1637,1205,0,0
420,-181,0,0,0,0,0,0,0,0,0,-1,1644,1205,0,0
427,-181,0,0,0,0,0,0,0,0,0,-1,1651,1205,0,0
434,-181,0,0,0,0,0,0,0,0,0,-1,1658,1205,0,0
441,-181,0,0,0,0,0,0,0,0,0,-1,1665,1205,0,0
448,-181,0,0,0,0,0,0,0,0,0,-1,1672,1205,0,0
455,-181,0,0,0,0,0,0,0,0,0,-1,1679,1205,0,0
462,-181,0,0,0,0,0,0,0,0,0,-1,1686,1205,0,0
469,-181,0,0,0,0,0,0,0,0,0,-1,1693,1205,0,0
476,-181,0,0,0,0,0,0,0,0,0,-1,1700,1205,0,0
483,-181,0,0,0,0,0,0,0,0,0,-1,1707,1205,0,0
490,-181,0,0,0,0,0,0,0,0,0,-1,1714,1205,0,0
497,-181,0,0,0,0,0,0,0,0,0,-1,1721,1205,0,0
504,-181,0,0,0,0,0,0,0,0,0,-1,1728,1205,0,0
511,-181,0,0,0,0,0,0,0,0,0,-1,1735,1205,0,0
518,-181,0,0,0,0,0,0,0,0,0,-1,1742,1205,0,0
525,-181,0,0,0,0,0,0,0,0,0,-1,1749,1205,0,0
532,-181,0,0,0,0,0,0,0,0,0,-1,1756,1205,0,0
539,-181,0,0,0,0,0,0,0,0,0,-1,1763,1205,0,0
546,-181,0,0,0,0,0,0,0,0,0,-1,1770,1205,0,0
553,-181,0,0,0,0,0,0,0,0,0,-1,1777,1205,0,0
560,-181,0,0,0,0,0,0,0,0,0,-1,1784,1205,0,0
567,-181,0,0,0,0,0,0,0,0,0,-1,1791,1205,0,0
574,-181,0,0,0,0,0,0,0,0,0,-1,1798,1205,0,0
581,-181,0,0,0,0,0,0,0,0,0,-1,1805,1205,0,0
588,-181,0,0,0,0,0,0,0,0,0,-1,1812,1205,0,0
595,-181,0,0,0,0,0,0,0,0,0,-1,1819,1205,0,0
602,-181,0,0,0,0,0,0,0,0,0,-1,1826,1205,0,0
609,-181,0,0,0,0,0,0,0,0,0,-1,1833,1205,0,0
616,-181,0,0,0,0,0,0,0,0,0,-1,1840,1205,0,0
623,-181,0,0,0,0,0,0,0,0,0,-1,1847,1205,0,0
630,-181,64.6141,2.97107,-0.00773872,0.00554004,-0.00426007,0.00678923,-0.00898791,-1.28556,0.00913837,0.0391357,1854,1205,64.6141,-2.97105
637,-181,64.5859,2.79993,-0.004581,0.00352796,-0.0030484,0.00454611,-0.00559915,-1.24845,0.00586788,0.0416316,1861,1205,64.5859,-2.79993
644,-181,64.5651,2.62671,-0.00166737,0.00185103,-0.00216418,0.00288082,-0.00269715,-1.12667,0.00322103,0.0423687,1868,1205,64.565,-2.62675
651,-181,64.6737,2.55603,0.00106569,0.000428585,-0.00161416,0.00239244,-0.000898157,-0.687975,0.00196403,0.039202,1875,1205,64.6737,-2.55605
658,-181,64.571,2.6521,0.00316343,-0.000515744,-0.00125614,0.00355139,-0.000903703,-0.299557,0.00271935,0.0340296,1882,1205,64.571,-2.65211
665,-181,64.593,2.66077,0.00447203,-0.00107585,-0.000957325,0.00463258,-0.00123639,-0.166158,0.00357256,0.0325237,1889,1205,64.593,-2.66079
672,-181,64.6427,2.59216,0.00504141,-0.00125078,-0.000724488,0.00512375,-0.00133312,-0.113168,0.00393619,0.0245539,1896,1205,64.6427,-2.59219
679,-181,64.6858,2.60498,0.00500663,-0.00109324,-0.000550664,0.00505594,-0.00114255,-0.0893126,0.00380903,0.0301621,1903,1205,64.6858,-2.60498
686,-181,64.7555,2.66113,0,0,0,0,0,0,0,-1,1910,1205,64.7554,-2.66112
693,-181,36.1301,2.91016,0,0,0,0,0,0,0,-1,1917,1205,36.1302,-2.9102
700,-181,29.5845,6.58398,0,0,0,0,0,0,0,-1,1924,1205,29.5844,-6.58395
707,-181,53.9771,10.5732,0,0,0,0,0,0,0,-1,1931,1205,53.977,-10.5733
714,-181,54.1588,10.2725,0,0,0,0,0,0,0,-1,1938,1205,54.1588,-10.2725
721,-181,51.2217,9.59631,0,0,0,0,0,0,0,-1,1945,1205,51.2217,-9.59637
728,-181,53.5781,8.76819,0,0,0,0,0,0,0,-1,1952,1205,53.5781,-8.76818
735,-181,53.5458,8.20007,0.00212713,0.000348475,0.00078346,0.00242301,5.25969e-05,0.361097,0.0015981,0.0150654,1959,1205,53.5457,-8.20001
742,-181,53.5089,7.65552,0.00200832,0.000485506,0.00117061,0.00264336,-0.000149536,0.497058,0.00181414,0.018718,1966,1205,53.5089,-7.65547
749,-181,53.4808,7.04907,0.00250976,0.00129102,0.00182674,0.00382609,-2.53012e-05,0.62441,0.0025592,0.0177402,1973,1205,53.4809,-7.04907
756,-181,53.472,6.45691,0.003485,0.00216814,0.00258105,0.00549029,0.000162863,0.660511,0.00360713,0.0128452,1980,1205,53.472,-6.45694
763,-181,53.4691,5.89929,0.00526708,0.00385855,0.00348377,0.00811706,0.00100858,0.685664,0.00510848,0.0165417,1987,1205,53.4691,-5.89935
770,-181,53.532,5.35815,0,0,0,0,0,0,0,-1,1994,1205,53.532,-5.35813
777,-181,53.519,4.25916,0,0,0,0,0,0,0,-1,2001,1205,53.5191,-4.25914
784,-181,49.4673,-0.801392,0,0,0,0,0,0,0,-1,2008,1205,49.4674,0.801388
791,-181,55.9302,-1.63965,0,0,0,0,0,0,0,-1,2015,1205,55.9302,1.63967
798,-181,51.5166,1.74817,0,0,0,0,0,0,0,-1,2022,1205,51.5167,-1.74812
805,-181,0,0,0,0,0,0,0,0,0,-1,2029,1205,0,0
812,-181,0,0,0,0,0,0,0,0,0,-1,2036,1205,0,0
-700,-188,0,0,0,0,0,0,0,0,0,-1,524,1212,0,0
-693,-188,0,0,0,0,0,0,0,0,0,-1,531,1212,0,0
-686,-188,0,0,0,0,0,0,0,0,0,-1,538,1212,0,0
-679,-188,-40.468,-8.10266,0,0,0,0,0,0,0,-1,545,1212,-40.468,8.10261
-672,-188,-40.0169,-7.78967,0,0,0,0,0,0,0,-1,552,1212,-40.0169,7.7897
-665,-188,-39.4506,-7.61572,0,0,0,0,0,0,0,-1,559,1212,-39.4506,7.61572
-658,-188,-36.1993,1.67957,0,0,0,0,0,0,0,-1,566,1212,-36.1993,-1.67958
-651,-188,-36.9399,1.77234,0,0,0,0,0,0,0,-1,573,1212,-36.9399,-1.77233
-644,-188,-36.9239,2.41382,-0.00285998,0.0369674,0.00647239,0.0379928,-0.00388541,1.41367,0.026718,0.0462447,580,1212,-36.9239,-2.41376
-637,-188,-36.8899,3.06189,-0.0017251,0.0261045,0.00404,0.0266792,-0.00229972,1.42951,0.0186001,0.0247423,587,1212,-36.8899,-3.06195
-630,-188,-36.8536,3.69543,-0.00102393,0.016203,0.00143336,0.0163215,-0.00114238,1.48835,0.0112811,0.0112545,594,1212,-36.8536,-3.69547
-623,-188,-36.8719,4.32825,-0.000258936,0.00777737,-0.000299472,0.00778851,-0.00027008,-1.5336,0.00528467,0.0113833,601,1212,-36.8719,-4.3282
-616,-188,-36.8826,4.96509,1.31239e-05,0.00206423,-0.001232,0.00264167,-0.000564315,-1.1325,0.00197626,0.0114509,608,1212,-36.8827,-4.96506
-609,-188,-36.8804,5.59558,-0.000514236,0.00035046,-0.00168524,0.00165793,-0.0018217,-0.910965,0.00200971,0.0140887,615,1212,-36.8804,-5.59561
-602,-188,-36.8873,6.24487,-0.00132606,-0.000209499,-0.00195922,0.00126943,-0.00280499,-0.924194,0.00240741,0.0211388,622,1212,-36.8873,-6.2449
-595,-188,-36.9054,6.98108,0,0,0,0,0,0,0,-1,629,1212,-36.9054,-6.98105
-588,-188,-37.3037,7.45483,-0.00294578,-0.000409227,-0.0019599,0.000656967,-0.00401197,-1.07257,0.00291839,0.0281502,636,1212,-37.3037,-7.45481
-581,-188,-37.2904,8.03967,0,0,0,0,0,0,0,-1,643,1212,-37.2904,-8.03963
-574,-188,-37.42,8.55078,0,0,0,0,0,0,0,-1,650,1212,-37.4201,-8.55075
-567,-188,-19.5786,4.10388,0,0,0,0,0,0,0,-1,657,1212,-19.5785,-4.10383
-560,-188,-23.9507,0.416626,0,0,0,0,0,0,0,-1,664,1212,-23.9508,-0.416602
-553,-188,-48.6534,1.07654,0,0,0,0,0,0,0,-1,671,1212,-48.6534,-1.07652
-546,-188,-48.73,1.00659,-0.0021966,-0.000962456,-0.000743017,-0.000613685,-0.00254537,-1.13193,0.00153384,0.0472077,678,1212,-48.73,-1.00665
-539,-188,-48.753,0.894287,-0.00233147,-0.000893095,-0.000624152,-0.000660024,-0.00256454,-1.21341,0.00153765,0.0369114,685,1212,-48.753,-0.894319
-532,-188,-48.7315,0.803467,-0.00216946,-0.000791245,-6.53454e-05,-0.000788154,-0.00217255,-1.52352,0.00126997,0.0419713,692,1212,-48.7315,-0.803423
-525,-188,-48.7721,1.10828,0.000839649,-0.00155389,0.000947659,0.00116942,-0.00188366,0.334875,0.0017787,0.0415153,699,1212,-48.7721,-1.10822
-518,-188,-48.8068,1.17114,0.00501502,-0.00258255,0.00207567,0.0055451,-0.00311264,0.250039,0.00506389,0.0426649,706,1212,-48.8067,-1.1712
-511,-188,-48.7208,1.0177,0.0100154,-0.00431015,0.00314286,0.0106746,-0.00496932,0.206741,0.00923005,0.0393528,713,1212,-48.7208,-1.01774
-504,-188,0,0,0,0,0,0,0,0,0,-1,720,1212,0,0
-497,-188,0,0,0,0,0,0,0,0,0,-1,727,1212,0,0
-490,-188,0,0,0,0,0,0,0,0,0,-1,734,1212,0,0
-483,-188,0,0,0,0,0,0,0,0,0,-1,741,1212,0,0
-476,-188,0,0,0,0,0,0,0,0,0,-1,748,1212,0,0
-469,-188,0,0,0,0,0,0,0,0,0,-1,755,1212,0,0
-462,-188,0,0,0,0,0,0,0,0,0,-1,762,1212,0,0
-455,-188,0,0,0,0,0,0,0,0,0,-1,769,1212,0,0
-448,-188,0,0,0,0,0,0,0,0,0,-1,776,1212,0,0
-441,-188,0,0,0,0,0,0,0,0,0,-1,783,1212,0,0
-434,-188,0,0,0,0,0,0,0,0,0,-1,790,1212,0,0
-427,-188,0,0,0,0,0,0,0,0,0,-1,797,1212,0,0
-420,-188,0,0,0,0,0,0,0,0,0,-1,804,1212,0,0
-413,-188,0,0,0,0,0,0,0,0,0,-1,811,1212,0,0
-406,-188,0,0,0,0,0,0,0,0,0,-1,818,1212,0,0
-399,-188,0,0,0,0,0,0,0,0,0,-1,825,1212,0,0
-392,-188,0,0,0,0,0,0,0,0,0,-1,832,1212,0,0
-385,-188,0,0,0,0,0,0,0,0,0,-1,839,1212,0,0
-378,-188,0,0,0,0,0,0,0,0,0,-1,846,1212,0,0
-371,-188,0,0,0,0,0,0,0,0,0,-1,853,1212,0,0
-364,-188,0,0,0,0,0,0,0,0,0,-1,860,1212,0,0
-357,-188,0,0,0,0,0,0,0,0,0,-1,867,1212,0,0
-350,-188,0,0,0,0,0,0,0,0,0,-1,874,1212,0,0
-343,-188,0,0,0,0,0,0,0,0,0,-1,881,1212,0,0
-336,-188,0,0,0,0,0,0,0,0,0,-1,888,1212,0,0
-329,-188,0,0,0,0,0,0,0,0,0,-1,895,1212,0,0
-322,-188,0,0,0,0,0,0,0,0,0,-1,902,1212,0,0
-315,-188,0,0,0,0,0,0,0,0,0,-1,909,1212,0,0
-308,-188,0,0,0,0,0,0,0,0,0,-1,916,1212,0,0
-301,-188,0,0,0,0,0,0,0,0,0,-1,923,1212,0,0
-294,-188,0,0,0,0,0,0,0,0,0,-1,930,1212,0,0
-287,-188,0,0,0,0,0,0,0,0,0,-1,937,1212,0,0
-280,-188,0,0,0,0,0,0,0,0,0,-1,944,1212,0,0
-273,-188,0,0,0,0,0,0,0,0,0,-1,951,1212,0,0
-266,-188,0,0,0,0,0,0,0,0,0,-1,958,1212,0,0
-259,-188,0,0,0,0,0,0,0,0,0,-1,965,1212,0,0
-252,-188,0,0,0,0,0,0,0,0,0,-1,972,1212,0,0
-245,-188,0,0,0,0,0,0,0,0,0,-1,979,1212,0,0
-238,-188,0,0,0,0,0,0,0,0,0,-1,986,1212,0,0
-231,-188,0,0,0,0,0,0,0,0,0,-1,993,1212,0,0
-224,-188,0,0,0,0,0,0,0,0,0,-1,1000,1212,0,0
-217,-188,0,0,0,0,0,0,0,0,0,-1,1007,1212,0,0
-210,-188,0,0,0,0,0,0,0,0,0,-1,1014,1212,0,0
-203,-188,0,0,0,0,0,0,0,0,0,-1,1021,1212,0,0
-196,-188,0,0,0,0,0,0,0,0,0,-1,1028,1212,0,0
-189,-188,0,0,0,0,0,0,0,0,0,-1,1035,1212,0,0
-182,-188,0,0,0,0,0,0,0,0,0,-1,1042,1212,0,0
-175,-188,0,0,0,0,0,0,0,0,0,-1,1049,1212,0,0
-168,-188,0,0,0,0,0,0,0,0,0,-1,1056,1212,0,0
-161,-188,0,0,0,0,0,0,0,0,0,-1,1063,1212,0,0
-154,-188,0,0,0,0,0,0,0,0,0,-1,1070,1212,0,0
-147,-188,0,0,0,0,0,0,0,0,0,-1,1077,1212,0,0
-140,-188,0,0,0,0,0,0,0,0,0,-1,1084,1212,0,0
-133,-188,0,0,0,0,0,0,0,0,0,-1,1091,1212,0,0
-126,-188,0,0,0,0,0,0,0,0,0,-1,1098,1212,0,0
-119,-188,0,0,0,0,0,0,0,0,0,-1,1105,1212,0,0
-112,-188,0,0,0,0,0,0,0,0,0,-1,1112,1212,0,0
-105,-188,0,0,0,0,0,0,0,0,0,-1,1119,1212,0,0
-98,-188,0,0,0,0,0,0,0,0,0,-1,1126,1212,0,0
-91,-188,0,0,0,0,0,0,0,0,0,-1,1133,1212,0,0
-84,-188,0,0,0,0,0,0,0,0,0,-1,1140,1212,0,0
-77,-188,0,0,0,0,0,0,0,0,0,-1,1147,1212,0,0
-70,-188,0,0,0,0,0,0,0,0,0,-1,1154,1212,0,0
-63,-188,0,0,0,0,0,0,0,0,0,-1,1161,1212,0,0
-56,-188,0,0,0,0,0,0,0,0,0,-1,1168,1212,0,0
-49,-188,0,0,0,0,0,0,0,0,0,-1,1175,1212,0,0
-42,-188,0,0,0,0,0,0,0,0,0,-1,1182,1212,0,0
-35,-188,0,0,0,0,0,0,0,0,0,-1,1189,1212,0,0
-28,-188,0,0,0,0,0,0,0,0,0,-1,1196,1212,0,0
-21,-188,0,0,0,0,0,0,0,0,0,-1,1203,1212,0,0
-14,-188,0,0,0,0,0,0,0,0,0,-1,1210,1212,0,0
-7,-188,0,0,0,0,0,0,0,0,0,-1,1217,1212,0,0
0,-188,0,0,0,0,0,0,0,0,0,-1,1224,1212,0,0
7,-188,0,0,0,0,0,0,0,0,0,-1,1231,1212,0,0
14,-188,0,0,0,0,0,0,0,0,0,-1,1238,1212,0,0
21,-188,0,0,0,0,0,0,0,0,0,-1,1245,1212,0,0
28,-188,0,0,0,0,0,0,0,0,0,-1,1252,1212,0,0
35,-188,0,0,0,0,0,0,0,0,0,-1,1259,1212,0,0
42,-188,0,0,0,0,0,0,0,0,0,-1,1266,1212,0,0
49,-188,0,0,0,0,0,0,0,0,0,-1,1273,1212,0,0
56,-188,0,0,0,0,0,0,0,0,0,-1,1280,1212,0,0
63,-188,0,0,0,0,0,0,0,0,0,-1,1287,1212,0,0
70,-188,0,0,0,0,0,0,0,0,0,-1,1294,1212,0,0
77,-188,0,0,0,0,0,0,0,0,0,-1,1301,1212,0,0
84,-188,0,0,0,0,0,0,0,0,0,-1,1308,1212,0,0
91,-188,0,0,0,0,0,0,0,0,0,-1,1315,1212,0,0
98,-188,0,0,0,0,0,0,0,0,0,-1,1322,1212,0,0
105,-188,0,0,0,0,0,0,0,0,0,-1,1329,1212,0,0
112,-188,0,0,0,0,0,0,0,0,0,-1,1336,1212,0,0
119,-188,0,0,0,0,0,0,0,0,0,-1,1343,1212,0,0
126,-188,0,0,0,0,0,0,0,0,0,-1,1350,1212,0,0
133,-188,0,0,0,0,0,0,0,0,0,-1,1357,1212,0,0
140,-188,0,0,0,0,0,0,0,0,0,-1,1364,1212,0,0
147,-188,0,0,0,0,0,0,0,0,0,-1,1371,1212,0,0
154,-188,0,0,0,0,0,0,0,0,0,-1,1378,1212,0,0
161,-188,0,0,0,0,0,0,0,0,0,-1,1385,1212,0,0
168,-188,0,0,0,0,0,0,0,0,0,-1,1392,1212,0,0
175,-188,0,0,0,0,0,0,0,0,0,-1,1399,1212,0,0
182,-188,0,0,0,0,0,0,0,0,0,-1,1406,1212,0,0
189,-188,0,0,0,0,0,0,0,0,0,-1,1413,1212,0,0
196,-188,0,0,0,0,0,0,0,0,0,-1,1420,1212,0,0
203,-188,0,0,0,0,0,0,0,0,0,-1,1427,1212,0,0
210,-188,0,0,0,0,0,0,0,0,0,-1,1434,1212,0,0
217,-188,0,0,0,0,0,0,0,0,0,-1,1441,1212,0,0
224,-188,0,0,0,0,0,0,0,0,0,-1,1448,1212,0,0
231,-188,0,0,0,0,0,0,0,0,0,-1,1455,1212,0,0
238,-188,0,0,0,0,0,0,0,0,0,-1,1462,1212,0,0
245,-188,0,0,0,0,0,0,0,0,0,-1,1469,1212,0,0
252,-188,0,0,0,0,0,0,0,0,0,-1,1476,1212,0,0
259,-188,0,0,0,0,0,0,0,0,0,-1,1483,1212,0,0
266,-188,0,0,0,0,0,0,0,0,0,-1,1490,1212,0,0
273,-188,0,0,0,0,0,0,0,0,0,-1,1497,1212,0,0
280,-188,0,0,0,0,0,0,0,0,0,-1,1504,1212,0,0
287,-188,0,0,0,0,0,0,0,0,0,-1,1511,1212,0,0
294,-188,0,0,0,0,0,0,0,0,0,-1,1518,1212,0,0
301,-188,0,0,0,0,0,0,0,0,0,-1,1525,1212,0,0
308,-188,0,0,0,0,0,0,0,0,0,-1,1532,1212,0,0
315,-188,0,0,0,0,0,0,0,0,0,-1,1539,1212,0,0
322,-188,0,0,0,0,0,0,0,0,0,-1,1546,1212,0,0
329,-188,0,0,0,0,0,0,0,0,0,-1,1553,1212,0,0
336,-188,0,0,0,0,0,0,0,0,0,-1,1560,1212,0,0
343,-188,0,0,0,0,0,0,0,0,0,-1,1567,1212,0,0
350,-188,0,0,0,0,0,0,0,0,0,-1,1574,1212,0,0
357,-188,0,0,0,0,0,0,0,0,0,-1,1581,1212,0,0
364,-188,0,0,0,0,0,0,0,0,0,-1,1588,1212,0,0
371,-188,0,0,0,0,0,0,0,0,0,-1,1595,1212,0,0
378,-188,0,0,0,0,0,0,0,0,0,-1,1602,1212,0,0
385,-188,0,0,0,0,0,0,0,0,0,-1,1609,1212,0,0
392,-188,0,0,0,0,0,0,0,0,0,-1,1616,1212,0,0
399,-188,0,0,0,0,0,0,0,0,0,-1,1623,1212,0,0
406,-188,0,0,0,0,0,0,0,0,0,-1,1630,1212,0,0
413,-188,0,0,0,0,0,0,0,0,0,-1,1637,1212,0,0
420,-188,0,0,0,0,0,0,0,0,0,-1,1644,1212,0,0
427,-188,0,0,0,0,0,0,0,0,0,-1,1651,1212,0,0
434,-188,0,0,0,0,0,0,0,0,0,-1,1658,1212,0,0
441,-188,0,0,0,0,0,0,0,0,0,-1,1665,1212,0,0
448,-188,0,0,0,0,0,0,0,0,0,-1,1672,1212,0,0
455,-188,0,0,0,0,0,0,0,0,0,-1,1679,1212,0,0
462,-188,0,0,0,0,0,0,0,0,0,-1,1686,1212,0,0
469,-188,0,0,0,0,0,0,0,0,0,-1,1693,1212,0,0
476,-188,0,0,0,0,0,0,0,0,0,-1,1700,1212,0,0
483,-188,0,0,0,0,0,0,0,0,0,-1,1707,1212,0,0
490,-188,0,0,0,0,0,0,0,0,0,-1,1714,1212,0,0
497,-188,0,0,0,0,0,0,0,0,0,-1,1721,1212,0,0
504,-188,0,0,0,0,0,0,0,0,0,-1,1728,1212,0,0
511,-188,0,0,0,0,0,0,0,0,0,-1,1735,1212,0,0
518,-188,0,0,0,0,0,0,0,0,0,-1,1742,1212,0,0
525,-188,0,0,0,0,0,0,0,0,0,-1,1749,1212,0,0
532,-188,0,0,0,0,0,0,0,0,0,-1,1756,1212,0,0
539,-188,0,0,0,0,0,0,0,0,0,-1,1763,1212,0,0
546,-188,0,0,0,0,0,0,0,0,0,-1,1770,1212,0,0
553,-188,0,0,0,0,0,0,0,0,0,-1,1777,1212,0,0
560,-188,0,0,0,0,0,0,0,0,0,-1,1784,1212,0,0
567,-188,0,0,0,0,0,0,0,0,0,-1,1791,1212,0,0
574,-188,0,0,0,0,0,0,0,0,0,-1,1798,1212,0,0
581,-188,0,0,0,0,0,0,0,0,0,-1,1805,1212,0,0
588,-188,0,0,0,0,0,0,0,0,0,-1,1812,1212,0,0
595,-188,0,0,0,0,0,0,0,0,0,-1,1819,1212,0,0
602,-188,0,0,0,0,0,0,0,0,0,-1,1826,1212,0,0
609,-188,0,0,0,0,0,0,0,0,0,-1,1833,1212,0,0
616,-188,0,0,0,0,0,0,0,0,0,-1,1840,1212,0,0
623,-188,0,0,0,0,0,0,0,0,0,-1,1847,1212,0,0
630,-188,64.7075,2.79663,-0.00694878,0.0052056,-0.00419841,0.00651481,-0.00825799,-1.26852,0.00854885,0.0398217,1854,1212,64.7076,-2.79662
637,-188,64.6012,2.72681,-0.00386679,0.00318961,-0.00315661,0.00439558,-0.00507276,-1.20586,0.00547121,0.0428895,1861,1212,64.6012,-2.72686
644,-188,64.5291,2.67493,-0.000860931,0.00139489,-0.00235228,0.00287569,-0.00234174,-1.00895,0.00301754,0.0382156,1868,1212,64.529,-2.67488
651,-188,64.5449,2.63184,0.00195536,-0.000137726,-0.00181749,0.00300608,-0.00118845,-0.524174,0.00249635,0.0321758,1875,1212,64.5449,-2.63182
658,-188,64.4934,2.69885,0.00387632,-0.00108406,-0.00143679,0.00426244,-0.00147018,-0.262533,0.00343811,0.0326561,1882,1212,64.4934,-2.69882
665,-188,64.5062,2.68555,0.00488288,-0.00159474,-0.00109783,0.00506389,-0.00177574,-0.163403,0.00409815,0.0326243,1889,1212,64.5062,-2.68554
672,-188,64.6233,2.62146,0.00525849,-0.00165695,-0.000858422,0.00536345,-0.00176191,-0.121671,0.00428542,0.0269731,1896,1212,64.6233,-2.6215
679,-188,64.7233,2.72791,0,0,0,0,0,0,0,-1,1903,1212,64.7232,-2.72786
686,-188,60.1007,2.41321,0,0,0,0,0,0,0,-1,1910,1212,60.1007,-2.41325
693,-188,35.9054,2.18042,0,0,0,0,0,0,0,-1,1917,1212,35.9054,-2.18038
700,-188,52.9706,11.1509,0,0,0,0,0,0,0,-1,1924,1212,52.9705,-11.1509
707,-188,53.109,10.6566,0.00430514,-0.000425442,-3.91681e-05,0.00430547,-0.000425767,-0.00827901,0.00302225,0.0494084,1931,1212,53.109,-10.6566
714,-188,53.2827,10.0629,0,0,0,0,0,0,0,-1,1938,1212,53.2827,-10.0629
721,-188,52.7119,9.62158,0,0,0,0,0,0,0,-1,1945,1212,52.7119,-9.62155
728,-188,52.9463,8.8584,0.00261848,0.000354614,0.0003784,0.00268006,0.00029304,0.161308,0.00169748,0.0269599,1952,1212,52.9463,-8.85835
735,-188,52.9373,8.23828,0.0023143,0.000349087,0.000686539,0.00253038,0.000133006,0.304924,0.00164438,0.013927,1959,1212,52.9373,-8.23826
742,-188,52.8848,7.64697,0.00205767,0.000440474,0.00118329,0.00268225,-0.000184106,0.485666,0.00185259,0.0152608,1966,1212,52.8848,-7.64692
749,-188,52.8763,7.0603,0.00236705,0.00116501,0.00196465,0.00382056,-0.000288493,0.63696,0.00264844,0.0147967,1973,1212,52.8763,-7.06028
756,-188,52.8798,6.46118,0.00321341,0.00187242,0.0027767,0.00539942,-0.000313588,0.66693,0.00370857,0.0134487,1980,1212,52.8797,-6.46115
763,-188,52.8761,5.88696,0.004988,0.0034199,0.00375076,0.00803578,0.00037212,0.682363,0.00523756,0.0183614,1987,1212,52.8761,-5.88702
770,-188,52.8632,5.27026,0.00749604,0.00592033,0.00481726,0.0115894,0.00182692,0.704342,0.00719506,0.043046,1994,1212,52.8631,-5.27029
777,-188,52.9946,4.68555,0,0,0,0,0,0,0,-1,2001,1212,52.9946,-4.6856
784,-188,50.2876,-0.510742,0,0,0,0,0,0,0,-1,2008,1212,50.2875,0.510762
791,-188,51.6936,0.835083,0,0,0,0,0,0,0,-1,2015,1212,51.6937,-0.835076
798,-188,54.2373,-0.0861816,0,0,0,0,0,0,0,-1,2022,1212,54.2372,0.0861871
805,-188,0,0,0,0,0,0,0,0,0,-1,2029,1212,0,0
812,-188,0,0,0,0,0,0,0,0,0,-1,2036,1212,0,0
-700,-195,0,0,0,0,0,0,0,0,0,-1,524,1219,0,0
-693,-195,0,0,0,0,0,0,0,0,0,-1,531,1219,0,0
-686,-195,0,0,0,0,0,0,0,0,0,-1,538,1219,0,0
-679,-195,-40.2304,-8.60181,0,0,0,0,0,0,0,-1,545,1219,-40.2304,8.6018
-672,-195,-40.2159,-8.14539,0,0,0,0,0,0,0,-1,552,1219,-40.2159,8.14541
-665,-195,-35.7725,1.54968,0,0,0,0,0,0,0,-1,559,1219,-35.7725,-1.54967
-658,-195,-36.5372,1.05652,0,0,0,0,0,0,0,-1,566,1219,-36.5372,-1.05653
-651,-195,-36.1125,1.68298,0,0,0,0,0,0,0,-1,573,1219,-36.1125,-1.68297
-644,-195,-36.0277,2.44885,-0.00747819,0.0385479,0.0058406,0.0392775,-0.00820778,1.44652,0.0293066,0.0409581,580,1219,-36.0277,-2.44891
-637,-195,-36.1318,3.13281,-0.00511683,0.0276662,0.00374468,0.0280885,-0.00553913,1.4585,0.0208191,0.0253878,587,1219,-36.1318,-3.13285
-630,-195,-36.2006,3.72009,-0.00335455,0.0177064,0.00139575,0.0177985,-0.00344664,1.50491,0.0131658,0.00941347,594,1219,-36.2006,-3.72015
-623,-195,-36.235,4.35864,-0.00153654,0.00895828,-0.000133544,0.00895998,-0.00153824,-1.55807,0.00654659,0.00877891,601,1219,-36.2351,-4.3586
-616,-195,-36.245,5.00073,-0.000198927,0.00261602,-0.001038,0.00295738,-0.000540286,-1.25307,0.00217417,0.0106341,608,1219,-36.245,-5.00079
-609,-195,-36.2351,5.64917,2.9492e-05,0.000591237,-0.00143276,0.0017704,-0.00114967,-0.882188,0.00169855,0.0188676,615,1219,-36.2351,-5.6492
-602,-195,-36.2957,6.24622,-0.000583991,-9.35035e-05,-0.00175563,0.00143393,-0.00211143,-0.854794,0.00205934,0.02219,622,1219,-36.2957,-6.24625
-595,-195,-36.3527,6.89172,-0.00152863,-0.000747843,-0.00151904,0.000430171,-0.00270665,-0.911176,0.00196359,0.0318536,629,1219,-36.3527,-6.89176
-588,-195,-36.4536,7.64331,-0.00234053,-0.000335383,-0.00182712,0.000746154,-0.00342206,-1.03633,0.00256651,0.0288252,636,1219,-36.4536,-7.64335
-581,-195,-36.2069,8.31995,0,0,0,0,0,0,0,-1,643,1219,-36.2069,-8.31991
-574,-195,-35.7197,8.22302,0,0,0,0,0,0,0,-1,650,1219,-35.7197,-8.22301
-567,-195,-20.6388,3.78369,0,0,0,0,0,0,0,-1,657,1219,-20.6388,-3.78369
-560,-195,-20.878,2.10388,0,0,0,0,0,0,0,-1,664,1219,-20.878,-2.10385
-553,-195,-41.595,0.613281,0,0,0,0,0,0,0,-1,671,1219,-41.595,-0.61334
-546,-195,-48.714,1.1311,0,0,0,0,0,0,0,-1,678,1219,-48.714,-1.13115
-539,-195,-48.7632,1.01025,-0.00242851,-0.000852105,-0.000580583,-0.000661359,-0.00261925,-1.25336,0.00157277,0.040108,685,1219,-48.7632,-1.01031
-532,-195,-48.7631,0.823486,-0.00276142,-0.000732557,-0.000185566,-0.000715724,-0.00277826,-1.48033,0.00166567,0.0340654,692,1219,-48.7631,-0.823432
-525,-195,-48.7151,1.08167,-0.000947555,-0.00129017,0.00057833,-0.000515695,-0.00172203,0.641409,0.00102052,0.0377576,699,1219,-48.7151,-1.08169
-518,-195,-48.8467,1.16711,0.00245926,-0.00215979,0.00156682,0.00294058,-0.00264111,0.298047,0.00322414,0.0425756,706,1219,-48.8467,-1.1671
-511,-195,-48.8046,1.04309,0.00773089,-0.00402899,0.00257468,0.00826989,-0.00456798,0.206363,0.00751396,0.0419573,713,1219,-48.8046,-1.04308
-504,-195,0,0,0,0,0,0,0,0,0,-1,720,1219,0,0
-497,-195,0,0,0,0,0,0,0,0,0,-1,727,1219,0,0
-490,-195,0,0,0,0,0,0,0,0,0,-1,734,1219,0,0
-483,-195,0,0,0,0,0,0,0,0,0,-1,741,1219,0,0
-476,-195,0,0,0,0,0,0,0,0,0,-1,748,1219,0,0
-469,-195,0,0,0,0,0,0,0,0,0,-1,755,1219,0,0
-462,-195,0,0,0,0,0,0,0,0,0,-1,762,1219,0,0
-455,-195,0,0,0,0,0,0,0,0,0,-1,769,1219,0,0
-448,-195,0,0,0,0,0,0,0,0,0,-1,776,1219,0,0
-441,-195,0,0,0,0,0,0,0,0,0,-1,783,1219,0,0
-434,-195,0,0,0,0,0,0,0,0,0,-1,790,1219,0,0
-427,-195,0,0,0,0,0,0,0,0,0,-1,797,1219,0,0
-420,-195,0,0,0,0,0,0,0,0,0,-1,804,1219,0,0
-413,-195,0,0,0,0,0,0,0,0,0,-1,811,1219,0,0
-406,-195,0,0,0,0,0,0,0,0,0,-1,818,1219,0,0
-399,-195,0,0,0,0,0,0,0,0,0,-1,825,1219,0,0
-392,-195,0,0,0,0,0,0,0,0,0,-1,832,1219,0,0
-385,-195,0,0,0,0,0,0,0,0,0,-1,839,1219,0,0
-378,-195,0,0,0,0,0,0,0,0,0,-1,846,1219,0,0
-371,-195,0,0,0,0,0,0,0,0,0,-1,853,1219,0,0
-364,-195,0,0,0,0,0,0,0,0,0,-1,860,1219,0,0
-357,-195,0,0,0,0,0,0,0,0,0,-1,867,1219,0,0
-350,-195,0,0,0,0,0,0,0,0,0,-1,874,1219,0,0
-343,-195,0,0,0,0,0,0,0,0,0,-1,881,1219,0,0
-336,-195,0,0,0,0,0,0,0,0,0,-1,888,1219,0,0
-329,-195,0,0,0,0,0,0,0,0,0,-1,895,1219,0,0
-322,-195,0,0,0,0,0,0,0,0,0,-1,902,1219,0,0
-315,-195,0,0,0,0,0,0,0,0,0,-1,909,1219,0,0
-308,-195,0,0,0,0,0,0,0,0,0,-1,916,1219,0,0
-301,-195,0,0,0,0,0,0,0,0,0,-1,923,1219,0,0
-294,-195,0,0,0,0,0,0,0,0,0,-1,930,1219,0,0
-287,-195,0,0,0,0,0,0,0,0,0,-1,937,1219,0,0
-280,-195,0,0,0,0,0,0,0,0,0,-1,944,1219,0,0
-273,-195,0,0,0,0,0,0,0,0,0,-1,951,1219,0,0
-266,-195,0,0,0,0,0,0,0,0,0,-1,958,1219,0,0
-259,-195,0,0,0,0,0,0,0,0,0,-1,965,1219,0,0
-252,-195,0,0,0,0,0,0,0,0,0,-1,972,1219,0,0
-245,-195,0,0,0,0,0,0,0,0,0,-1,979,1219,0,0
-238,-195,0,0,0,0,0,0,0,0,0,-1,986,1219,0,0
-231,-195,0,0,0,0,0,0,0,0,0,-1,993,1219,0,0
-224,-195,0,0,0,0,0,0,0,0,0,-1,1000,1219,0,0
-217,-195,0,0,0,0,0,0,0,0,0,-1,1007,1219,0,0
-210,-195,0,0,0,0,0,0,0,0,0,-1,1014,1219,0,0
-203,-195,0,0,0,0,0,0,0,0,0,-1,1021,1219,0,0
-196,-195,0,0,0,0,0,0,0,0,0,-1,1028,1219,0,0
-189,-195,0,0,0,0,0,0,0,0,0,-1,1035,1219,0,0
-182,-195,0,0,0,0,0,0,0,0,0,-1,1042,1219,0,0
-175,-195,0,0,0,0,0,0,0,0,0,-1,1049,1219,0,0
-168,-195,0,0,0,0,0,0,0,0,0,-1,1056,1219,0,0
-161,-195,0,0,0,0,0,0,0,0,0,-1,1063,1219,0,0
-154,-195,0,0,0,0,0,0,0,0,0,-1,1070,1219,0,0
-147,-195,0,0,0,0,0,0,0,0,0,-1,1077,1219,0,0
-140,-195,0,0,0,0,0,0,0,0,0,-1,1084,1219,0,0
-133,-195,0,0,0,0,0,0,0,0,0,-1,1091,1219,0,0
-126,-195,0,0,0,0,0,0,0,0,0,-1,1098,1219,0,0
-119,-195,0,0,0,0,0,0,0,0,0,-1,1105,1219,0,0
-112,-195,0,0,0,0,0,0,0,0,0,-1,1112,1219,0,0
-105,-195,0,0,0,0,0,0,0,0,0,-1,1119,1219,0,0
-98,-195,0,0,0,0,0,0,0,0,0,-1,1126,1219,0,0
-91,-195,0,0,0,0,0,0,0,0,0,-1,1133,1219,0,0
-84,-195,0,0,0,0,0,0,0,0,0,-1,1140,1219,0,0
-77,-195,0,0,0,0,0,0,0,0,0,-1,1147,1219,0,0
-70,-195,0,0,0,0,0,0,0,0,0,-1,1154,1219,0,0
-63,-195,0,0,0,0,0,0,0,0,0,-1,1161,1219,0,0
-56,-195,0,0,0,0,0,0,0,0,0,-1,1168,1219,0,0
-49,-195,0,0,0,0,0,0,0,0,0,-1,1175,1219,0,0
-42,-195,0,0,0,0,0,0,0,0,0,-1,1182,1219,0,0
-35,-195,0,0,0,0,0,0,0,0,0,-1,1189,1219,0,0
-28,-195,0,0,0,0,0,0,0,0,0,-1,1196,1219,0,0
-21,-195,0,0,0,0,0,0,0,0,0,-1,1203,1219,0,0
-14,-195,0,0,0,0,0,0,0,0,0,-1,1210,1219,0,0
-7,-195,0,0,0,0,0,0,0,0,0,-1,1217,1219,0,0
0,-195,0,0,0,0,0,0,0,0,0,-1,1224,1219,0,0
7,-195,0,0,0,0,0,0,0,0,0,-1,1231,1219,0,0
14,-195,0,0,0,0,0,0,0,0,0,-1,1238,1219,0,0
21,-195,0,0,0,0,0,0,0,0,0,-1,1245,1219,0,0
28,-195,0,0,0,0,0,0,0,0,0,-1,1252,1219,0,0
35,-195,0,0,0,0,0,0,0,0,0,-1,1259,1219,0,0
42,-195,0,0,0,0,0,0,0,0,0,-1,1266,1219,0,0
49,-195,0,0,0,0,0,0,0,0,0,-1,1273,1219,0,0
56,-195,0,0,0,0,0,0,0,0,0,-1,1280,1219,0,0
63,-195,0,0,0,0,0,0,0,0,0,-1,1287,1219,0,0
70,-195,0,0,0,0,0,0,0,0,0,-1,1294,1219,0,0
77,-195,0,0,0,0,0,0,0,0,0,-1,1301,1219,0,0
84,-195,0,0,0,0,0,0,0,0,0,-1,1308,1219,0,0
91,-195,0,0,0,0,0,0,0,0,0,-1,1315,1219,0,0
98,-195,0,0,0,0,0,0,0,0,0,-1,1322,1219,0,0
105,-195,0,0,0,0,0,0,0,0,0,-1,1329,1219,0,0
112,-195,0,0,0,0,0,0,0,0,0,-1,1336,1219,0,0
119,-195,0,0,0,0,0,0,0,0,0,-1,1343,1219,0,0
126,-195,0,0,0,0,0,0,0,0,0,-1,1350,1219,0,0
133,-195,0,0,0,0,0,0,0,0,0,-1,1357,1219,0,0
140,-195,0,0,0,0,0,0,0,0,0,-1,1364,1219,0,0
147,-195,0,0,0,0,0,0,0,0,0,-1,1371,1219,0,0
154,-195,0,0,0,0,0,0,0,0,0,-1,1378,1219,0,0
161,-195,0,0,0,0,0,0,0,0,0,-1,1385,1219,0,0
168,-195,0,0,0,0,0,0,0,0,0,-1,1392,1219,0,0
175,-195,0,0,0,0,0,0,0,0,0,-1,1399,1219,0,0
182,-195,0,0,0,0,0,0,0,0,0,-1,1406,1219,0,0
189,-195,0,0,0,0,0,0,0,0,0,-1,1413,1219,0,0
196,-195,0,0,0,0,0,0,0,0,0,-1,1420,1219,0,0
203,-195,0,0,0,0,0,0,0,0,0,-1,1427,1219,0,0
210,-195,0,0,0,0,0,0,0,0,0,-1,1434,1219,0,0
217,-195,0,0,0,0,0,0,0,0,0,-1,1441,1219,0,0
224,-195,0,0,0,0,0,0,0,0,0,-1,1448,1219,0,0
231,-195,0,0,0,0,0,0,0,0,0,-1,1455,1219,0,0
238,-195,0,0,0,0,0,0,0,0,0,-1,1462,1219,0,0
245,-195,0,0,0,0,0,0,0,0,0,-1,1469,1219,0,0
252,-195,0,0,0,0,0,0,0,0,0,-1,1476,1219,0,0
259,-195,0,0,0,0,0,0,0,0,0,-1,1483,1219,0,0
266,-195,0,0,0,0,0,0,0,0,0,-1,1490,1219,0,0
273,-195,0,0,0,0,0,0,0,0,0,-1,1497,1219,0,0
280,-195,0,0,0,0,0,0,0,0,0,-1,1504,1219,0,0
287,-195,0,0,0,0,0,0,0,0,0,-1,1511,1219,0,0
294,-195,0,0,0,0,0,0,0,0,0,-1,1518,1219,0,0
301,-195,0,0,0,0,0,0,0,0,0,-1,1525,1219,0,0
308,-195,0,0,0,0,0,0,0,0,0,-1,1532,1219,0,0
315,-195,0,0,0,0,0,0,0,0,0,-1,1539,1219,0,0
322,-195,0,0,0,0,0,0,0,0,0,-1,1546,1219,0,0
329,-195,0,0,0,0,0,0,0,0,0,-1,1553,1219,0,0
336,-195,0,0,0,0,0,0,0,0,0,-1,1560,1219,0,0
343,-195,0,0,0,0,0,0,0,0,0,-1,1567,1219,0,0
350,-195,0,0,0,0,0,0,0,0,0,-1,1574,1219,0,0
357,-195,0,0,0,0,0,0,0,0,0,-1,1581,1219,0,0
364,-195,0,0,0,0,0,0,0,0,0,-1,1588,1219,0,0
371,-195,0,0,0,0,0,0,0,0,0,-1,1595,1219,0,0
378,-195,0,0,0,0,0,0,0,0,0,-1,1602,1219,0,0
385,-195,0,0,0,0,0,0,0,0,0,-1,1609,1219,0,0
392,-195,0,0,0,0,0,0,0,0,0,-1,1616,1219,0,0
399,-195,0,0,0,0,0,0,0,0,0,-1,1623,1219,0,0
406,-195,0,0,0,0,0,0,0,0,0,-1,1630,1219,0,0
413,-195,0,0,0,0,0,0,0,0,0,-1,1637,1219,0,0
420,-195,0,0,0,0,0,0,0,0,0,-1,1644,1219,0,0
427,-195,0,0,0,0,0,0,0,0,0,-1,1651,1219,0,0
434,-195,0,0,0,0,0,0,0,0,0,-1,1658,1219,0,0
441,-195,0,0,0,0,0,0,0,0,0,-1,1665,1219,0,0
448,-195,0,0,0,0,0,0,0,0,0,-1,1672,1219,0,0
455,-195,0,0,0,0,0,0,0,0,0,-1,1679,1219,0,0
462,-195,0,0,0,0,0,0,0,0,0,-1,1686,1219,0,0
469,-195,0,0,0,0,0,0,0,0,0,-1,1693,1219,0,0
476,-195,0,0,0,0,0,0,0,0,0,-1,1700,1219,0,0
483,-195,0,0,0,0,0,0,0,0,0,-1,1707,1219,0,0
490,-195,0,0,0,0,0,0,0,0,0,-1,1714,1219,0,0
497,-195,0,0,0,0,0,0,0,0,0,-1,1721,1219,0,0
504,-195,0,0,0,0,0,0,0,0,0,-1,1728,1219,0,0
511,-195,0,0,0,0,0,0,0,0,0,-1,1735,1219,0,0
518,-195,0,0,0,0,0,0,0,0,0,-1,1742,1219,0,0
525,-195,0,0,0,0,0,0,0,0,0,-1,1749,1219,0,0
532,-195,0,0,0,0,0,0,0,0,0,-1,1756,1219,0,0
539,-195,0,0,0,0,0,0,0,0,0,-1,1763,1219,0,0
546,-195,0,0,0,0,0,0,0,0,0,-1,1770,1219,0,0
553,-195,0,0,0,0,0,0,0,0,0,-1,1777,1219,0,0
560,-195,0,0,0,0,0,0,0,0,0,-1,1784,1219,0,0
567,-195,0,0,0,0,0,0,0,0,0,-1,1791,1219,0,0
574,-195,0,0,0,0,0,0,0,0,0,-1,1798,1219,0,0
581,-195,0,0,0,0,0,0,0,0,0,-1,1805,1219,0,0
588,-195,0,0,0,0,0,0,0,0,0,-1,1812,1219,0,0
595,-195,0,0,0,0,0,0,0,0,0,-1,1819,1219,0,0
602,-195,0,0,0,0,0,0,0,0,0,-1,1826,1219,0,0
609,-195,0,0,0,0,0,0,0,0,0,-1,1833,1219,0,0
616,-195,0,0,0,0,0,0,0,0,0,-1,1840,1219,0,0
623,-195,0,0,0,0,0,0,0,0,0,-1,1847,1219,0,0
630,-195,64.7776,2.37354,0,0,0,0,0,0,0,-1,1854,1219,64.7776,-2.37351
637,-195,64.6177,2.55786,-0.00304338,0.00267418,-0.00298692,0.00394993,-0.00431912,-1.16714,0.00477573,0.0398807,1861,1219,64.6177,-2.5579
644,-195,64.5779,2.6803,-7.36165e-05,0.000759469,-0.0023704,0.00274965,-0.0020638,-0.872373,0.00278843,0.0351175,1868,1219,64.5779,-2.68032
651,-195,64.6052,2.61902,0.0026019,-0.000780366,-0.00197765,0.00351289,-0.00169135,-0.431667,0.0030654,0.0265949,1875,1219,64.6053,-2.61904
658,-195,64.6471,2.65295,0.00422573,-0.00164533,-0.00164913,0.00465724,-0.00207684,-0.255922,0.00398193,0.024865,1882,1219,64.6471,-2.65294
665,-195,64.6282,2.68066,0.00496707,-0.00207933,-0.00131458,0.00520433,-0.00231659,-0.178561,0.00444762,0.0254147,1889,1219,64.6282,-2.68061
672,-195,64.7019,2.58618,0.00519823,-0.00210228,-0.00106993,0.00535181,-0.00225586,-0.142563,0.00451189,0.0394987,1896,1219,64.7019,-2.58616
679,-195,64.7666,2.47351,0,0,0,0,0,0,0,-1,1903,1219,64.7666,-2.47355
686,-195,51.2117,1.94312,0,0,0,0,0,0,0,-1,1910,1219,51.2117,-1.9431
693,-195,24.4368,5.68298,0,0,0,0,0,0,0,-1,1917,1219,24.4368,-5.68293
700,-195,52.5205,11.2944,0,0,0,0,0,0,0,-1,1924,1219,52.5206,-11.2945
707,-195,52.4948,10.6647,0,0,0,0,0,0,0,-1,1931,1219,52.4947,-10.6647
714,-195,52.5663,10.0503,0,0,0,0,0,0,0,-1,1938,1219,52.5663,-10.0503
721,-195,52.3325,9.47754,0.0028445,-6.91656e-05,0.000168643,0.00285423,-7.88941e-05,0.0576234,0.00192966,0.0385713,1945,1219,52.3325,-9.47752
728,-195,52.3685,8.89722,0.00235752,-7.87541e-06,0.000560178,0.00248347,-0.000133831,0.221171,0.00170201,0.0125215,1952,1219,52.3686,-8.89723
735,-195,52.356,8.22546,0.00191687,-6.71943e-06,0.000971854,0.00232239,-0.00041224,0.395301,0.00170239,0.0131752,1959,1219,52.356,-8.22552
742,-195,52.3118,7.64819,0.00155658,0.000101709,0.00159416,0.00258143,-0.000923139,0.571352,0.00209751,0.0145944,1966,1219,52.3118,-7.64817
749,-195,52.2786,7.08313,0.0017348,0.000718287,0.00244303,0.00372189,-0.0012688,0.682839,0.00299515,0.0150977,1973,1219,52.2785,-7.08312
756,-195,52.2789,6.50598,0.00245768,0.00153903,0.00338695,0.00541631,-0.0014196,0.718002,0.0041655,0.0146823,1980,1219,52.2789,-6.50603
763,-195,52.2704,5.90417,0.00417424,0.0031863,0.00451906,0.00822625,-0.000865704,0.73096,0.00579433,0.0216342,1987,1219,52.2703,-5.90419
770,-195,52.1721,5.41846,0.00678303,0.00616238,0.0057318,0.0122129,0.000732511,0.758354,0.00790907,0.0440974,1994,1219,52.1721,-5.4185
777,-195,52.1501,5.08081,0,0,0,0,0,0,0,-1,2001,1219,52.1502,-5.08083
784,-195,51.2444,-0.069458,0,0,0,0,0,0,0,-1,2008,1219,51.2443,0.0694704
791,-195,50.6421,1.65222,0,0,0,0,0,0,0,-1,2015,1219,50.6422,-1.65218
798,-195,53.3943,2.08484,0,0,0,0,0,0,0,-1,2022,1219,53.3943,-2.08489
805,-195,0,0,0,0,0,0,0,0,0,-1,2029,1219,0,0
812,-195,0,0,0,0,0,0,0,0,0,-1,2036,1219,0,0
-700,-202,0,0,0,0,0,0,0,0,0,-1,524,1226,0,0
-693,-202,0,0,0,0,0,0,0,0,0,-1,531,1226,0,0
-686,-202,0,0,0,0,0,0,0,0,0,-1,538,1226,0,0
-679,-202,-39.826,-9.11829,-0.0279066,0.115173,0.0219274,0.118458,-0.0311916,1.42209,0.0911657,0.0448272,545,1226,-39.826,9.11831
-672,-202,-40.1412,-8.578,-0.0268532,0.0963959,0.0169847,0.0986937,-0.029151,1.43633,0.0773657,0.047157,552,1226,-40.1412,8.578
-665,-202,-40.5301,-8.07605,0,0,0,0,0,0,0,-1,559,1226,-40.5301,8.07611
-658,-202,-41.8546,-7.89502,0,0,0,0,0,0,0,-1,566,1226,-41.8546,7.89498
-651,-202,-35.5278,1.94617,0,0,0,0,0,0,0,-1,573,1226,-35.5278,-1.94613
-644,-202,-35.2557,2.50073,0,0,0,0,0,0,0,-1,580,1226,-35.2557,-2.50075
-637,-202,-35.4451,3.15552,-0.0084846,0.0290416,0.00392071,0.0294468,-0.00888986,1.4678,0.0231701,0.0489485,587,1226,-35.4451,-3.15555
-630,-202,-35.5551,3.72192,-0.00568583,0.0191517,0.00178556,0.0192794,-0.00581354,1.4994,0.0151668,0.0212405,594,1226,-35.5551,-3.72196
-623,-202,-35.5661,4.3667,-0.00293196,0.0101644,0.000336956,0.010173,-0.00294062,1.54509,0.00794573,0.00883127,601,1226,-35.5661,-4.36675
-616,-202,-35.5928,5.00647,-0.000637296,0.00320008,-0.000647253,0.00330631,-0.000743527,-1.40812,0.00248934,0.00894021,608,1226,-35.5929,-5.00642
-609,-202,-35.5626,5.62134,0.000267757,0.000860674,-0.00107619,0.00168049,-0.000552057,-0.9198,0.00134272,0.0223698,615,1226,-35.5626,-5.62129
-602,-202,-35.6617,6.21826,-0.000243459,6.27798e-05,-0.00157957,0.00149663,-0.00167731,-0.833716,0.00183347,0.0215135,622,1226,-35.6617,-6.21829
-595,-202,-35.7628,6.89795,-0.00106953,-0.000702832,-0.00149324,0.000618269,-0.00239064,-0.846486,0.0018349,0.0171537,629,1226,-35.7628,-6.89792
-588,-202,-35.7601,7.53638,-0.00186185,-0.00032358,-0.00180335,0.000867802,-0.00305323,-0.98697,0.00237813,0.0219635,636,1226,-35.7601,-7.53635
-581,-202,-35.6563,8.146,0,0,0,0,0,0,0,-1,643,1226,-35.6563,-8.146
-574,-202,-26.922,5.99512,0,0,0,0,0,0,0,-1,650,1226,-26.922,-5.99512
-567,-202,-22.1768,4.56995,0,0,0,0,0,0,0,-1,657,1226,-22.1768,-4.56991
-560,-202,-10.929,2.73096,0,0,0,0,0,0,0,-1,664,1226,-10.929,-2.73092
-553,-202,-30.2701,1.474,0,0,0,0,0,0,0,-1,671,1226,-30.2701,-1.47395
-546,-202,-48.3989,0.607788,0,0,0,0,0,0,0,-1,678,1226,-48.3989,-0.607828
-539,-202,-48.5508,0.801758,-0.00258689,-0.00090307,-0.000556739,-0.000735638,-0.00275432,-1.27866,0.00164672,0.042629,685,1226,-48.5508,-0.801752
-532,-202,-48.7344,0.912964,-0.00311954,-0.000902591,-0.000233949,-0.000878172,-0.00314396,-1.4668,0.00187317,0.0296562,692,1226,-48.7344,-0.913008
-525,-202,-48.7631,0.984009,-0.00234609,-0.00141519,0.000353882,-0.00129594,-0.00246534,1.24577,0.00142399,0.0339252,699,1226,-48.7631,-0.984012
-518,-202,-48.734,0.9552,-7.07862e-05,-0.00208779,0.00118569,0.000477291,-0.00263587,0.432988,0.00193605,0.0410549,706,1226,-48.734,-0.955162
-511,-202,-48.588,0.859619,0.00487736,-0.00380219,0.00205278,0.00533837,-0.0042632,0.220914,0.00555504,0.0398597,713,1226,-48.5879,-0.859623
-504,-202,0,0,0,0,0,0,0,0,0,-1,720,1226,0,0
-497,-202,0,0,0,0,0,0,0,0,0,-1,727,1226,0,0
-490,-202,0,0,0,0,0,0,0,0,0,-1,734,1226,0,0
-483,-202,0,0,0,0,0,0,0,0,0,-1,741,1226,0,0
-476,-202,0,0,0,0,0,0,0,0,0,-1,748,1226,0,0
-469,-202,0,0,0,0,0,0,0,0,0,-1,755,1226,0,0
-462,-202,0,0,0,0,0,0,0,0,0,-1,762,1226,0,0
-455,-202,0,0,0,0,0,0,0,0,0,-1,769,1226,0,0
-448,-202,0,0,0,0,0,0,0,0,0,-1,776,1226,0,0
-441,-202,0,0,0,0,0,0,0,0,0,-1,783,1226,0,0
-434,-202,0,0,0,0,0,0,0,0,0,-1,790,1226,0,0
-427,-202,0,0,0,0,0,0,0,0,0,-1,797,1226,0,0
-420,-202,0,0,0,0,0,0,0,0,0,-1,804,1226,0,0
-413,-202,0,0,0,0,0,0,0,0,0,-1,811,1226,0,0
-406,-202,0,0,0,0,0,0,0,0,0,-1,818,1226,0,0
-399,-202,0,0,0,0,0,0,0,0,0,-1,825,1226,0,0
-392,-202,0,0,0,0,0,0,0,0,0,-1,832,1226,0,0
-385,-202,0,0,0,0,0,0,0,0,0,-1,839,1226,0,0
-378,-202,0,0,0,0,0,0,0,0,0,-1,846,1226,0,0
-371,-202,0,0,0,0,0,0,0,0,0,-1,853,1226,0,0
-364,-202,0,0,0,0,0,0,0,0,0,-1,860,1226,0,0
-357,-202,0,0,0,0,0,0,0,0,0,-1,867,1226,0,0
-350,-202,0,0,0,0,0,0,0,0,0,-1,874,1226,0,0
-343,-202,0,0,0,0,0,0,0,0,0,-1,881,1226,0,0
-336,-202,0,0,0,0,0,0,0,0,0,-1,888,1226,0,0
-329,-202,0,0,0,0,0,0,0,0,0,-1,895,1226,0,0
-322,-202,0,0,0,0,0,0,0,0,0,-1,902,1226,0,0
-315,-202,0,0,0,0,0,0,0,0,0,-1,909,1226,0,0
-308,-202,0,0,0,0,0,0,0,0,0,-1,916,1226,0,0
-301,-202,0,0,0,0,0,0,0,0,0,-1,923,1226,0,0
-294,-202,0,0,0,0,0,0,0,0,0,-1,930,1226,0,0
-287,-202,0,0,0,0,0,0,0,0,0,-1,937,1226,0,0
-280,-202,0,0,0,0,0,0,0,0,0,-1,944,1226,0,0
-273,-202,0,0,0,0,0,0,0,0,0,-1,951,1226,0,0
-266,-202,0,0,0,0,0,0,0,0,0,-1,958,1226,0,0
-259,-202,0,0,0,0,0,0,0,0,0,-1,965,1226,0,0
-252,-202,0,0,0,0,0,0,0,0,0,-1,972,1226,0,0
-245,-202,0,0,0,0,0,0,0,0,0,-1,979,1226,0,0
-238,-202,0,0,0,0,0,0,0,0,0,-1,986,1226,0,0
-231,-202,0,0,0,0,0,0,0,0,0,-1,993,1226,0,0
-224,-202,0,0,0,0,0,0,0,0,0,-1,1000,1226,0,0
-217,-202,0,0,0,0,0,0,0,0,0,-1,1007,1226,0,0
-210,-202,0,0,0,0,0,0,0,0,0,-1,1014,1226,0,0
-203,-202,0,0,0,0,0,0,0,0,0,-1,1021,1226,0,0
-196,-202,0,0,0,0,0,0,0,0,0,-1,1028,1226,0,0
-189,-202,0,0,0,0,0,0,0,0,0,-1,1035,1226,0,0
-182,-202,0,0,0,0,0,0,0,0,0,-1,1042,1226,0,0
-175,-202,0,0,0,0,0,0,0,0,0,-1,1049,1226,0,0
-168,-202,0,0,0,0,0,0,0,0,0,-1,1056,1226,0,0
-161,-202,0,0,0,0,0,0,0,0,0,-1,1063,1226,0,0
-154,-202,0,0,0,0,0,0,0,0,0,-1,1070,1226,0,0
-147,-202,0,0,0,0,0,0,0,0,0,-1,1077,1226,0,0
-140,-202,0,0,0,0,0,0,0,0,0,-1,1084,1226,0,0
-133,-202,0,0,0,0,0,0,0,0,0,-1,1091,1226,0,0
-126,-202,0,0,0,0,0,0,0,0,0,-1,1098,1226,0,0
-119,-202,0,0,0,0,0,0,0,0,0,-1,1105,1226,0,0
-112,-202,0,0,0,0,0,0,0,0,0,-1,1112,1226,0,0
-105,-202,0,0,0,0,0,0,0,0,0,-1,1119,1226,0,0
-98,-202,0,0,0,0,0,0,0,0,0,-1,1126,1226,0,0
-91,-202,0,0,0,0,0,0,0,0,0,-1,1133,1226,0,0
-84,-202,0,0,0,0,0,0,0,0,0,-1,1140,1226,0,0
-77,-202,0,0,0,0,0,0,0,0,0,-1,1147,1226,0,0
-70,-202,0,0,0,0,0,0,0,0,0,-1,1154,1226,0,0
-63,-202,0,0,0,0,0,0,0,0,0,-1,1161,1226,0,0
-56,-202,0,0,0,0,0,0,0,0,0,-1,1168,1226,0,0
-49,-202,0,0,0,0,0,0,0,0,0,-1,1175,1226,0,0
-42,-202,0,0,0,0,0,0,0,0,0,-1,1182,1226,0,0
-35,-202,0,0,0,0,0,0,0,0,0,-1,1189,1226,0,0
-28,-202,0,0,0,0,0,0,0,0,0,-1,1196,1226,0,0
-21,-202,0,0,0,0,0,0,0,0,0,-1,1203,1226,0,0
-14,-202,0,0,0,0,0,0,0,0,0,-1,1210,1226,0,0
-7,-202,0,0,0,0,0,0,0,0,0,-1,1217,1226,0,0
0,-202,0,0,0,0,0,0,0,0,0,-1,1224,1226,0,0
7,-202,0,0,0,0,0,0,0,0,0,-1,1231,1226,0,0
14,-202,0,0,0,0,0,0,0,0,0,-1,1238,1226,0,0
21,-202,0,0,0,0,0,0,0,0,0,-1,1245,1226,0,0
28,-202,0,0,0,0,0,0,0,0,0,-1,1252,1226,0,0
35,-202,0,0,0,0,0,0,0,0,0,-1,1259,1226,0,0
42,-202,0,0,0,0,0,0,0,0,0,-1,1266,1226,0,0
49,-202,0,0,0,0,0,0,0,0,0,-1,1273,1226,0,0
56,-202,0,0,0,0,0,0,0,0,0,-1,1280,1226,0,0
63,-202,0,0,0,0,0,0,0,0,0,-1,1287,1226,0,0
70,-202,0,0,0,0,0,0,0,0,0,-1,1294,1226,0,0
77,-202,0,0,0,0,0,0,0,0,0,-1,1301,1226,0,0
84,-202,0,0,0,0,0,0,0,0,0,-1,1308,1226,0,0
91,-202,0,0,0,0,0,0,0,0,0,-1,1315,1226,0,0
98,-202,0,0,0,0,0,0,0,0,0,-1,1322,1226,0,0
105,-202,0,0,0,0,0,0,0,0,0,-1,1329,1226,0,0
112,-202,0,0,0,0,0,0,0,0,0,-1,1336,1226,0,0
119,-202,0,0,0,0,0,0,0,0,0,-1,1343,1226,0,0
126,-202,0,0,0,0,0,0,0,0,0,-1,1350,1226,0,0
133,-202,0,0,0,0,0,0,0,0,0,-1,1357,1226,0,0
140,-202,0,0,0,0,0,0,0,0,0,-1,1364,1226,0,0
147,-202,0,0,0,0,0,0,0,0,0,-1,1371,1226,0,0
154,-202,0,0,0,0,0,0,0,0,0,-1,1378,1226,0,0
161,-202,0,0,0,0,0,0,0,0,0,-1,1385,1226,0,0
168,-202,0,0,0,0,0,0,0,0,0,-1,1392,1226,0,0
175,-202,0,0,0,0,0,0,0,0,0,-1,1399,1226,0,0
182,-202,0,0,0,0,0,0,0,0,0,-1,1406,1226,0,0
189,-202,0,0,0,0,0,0,0,0,0,-1,1413,1226,0,0
196,-202,0,0,0,0,0,0,0,0,0,-1,1420,1226,0,0
203,-202,0,0,0,0,0,0,0,0,0,-1,1427,1226,0,0
210,-202,0,0,0,0,0,0,0,0,0,-1,1434,1226,0,0
217,-202,0,0,0,0,0,0,0,0,0,-1,1441,1226,0,0
224,-202,0,0,0,0,0,0,0,0,0,-1,1448,1226,0,0
231,-202,0,0,0,0,0,0,0,0,0,-1,1455,1226,0,0
238,-202,0,0,0,0,0,0,0,0,0,-1,1462,1226,0,0
245,-202,0,0,0,0,0,0,0,0,0,-1,1469,1226,0,0
252,-202,0,0,0,0,0,0,0,0,0,-1,1476,1226,0,0
259,-202,0,0,0,0,0,0,0,0,0,-1,1483,1226,0,0
266,-202,0,0,0,0,0,0,0,0,0,-1,1490,1226,0,0
273,-202,0,0,0,0,0,0,0,0,0,-1,1497,1226,0,0
280,-202,0,0,0,0,0,0,0,0,0,-1,1504,1226,0,0
287,-202,0,0,0,0,0,0,0,0,0,-1,1511,1226,0,0
294,-202,0,0,0,0,0,0,0,0,0,-1,1518,1226,0,0
301,-202,0,0,0,0,0,0,0,0,0,-1,1525,1226,0,0
308,-202,0,0,0,0,0,0,0,0,0,-1,1532,1226,0,0
315,-202,0,0,0,0,0,0,0,0,0,-1,1539,1226,0,0
322,-202,0,0,0,0,0,0,0,0,0,-1,1546,1226,0,0
329,-202,0,0,0,0,0,0,0,0,0,-1,1553,1226,0,0
336,-202,0,0,0,0,0,0,0,0,0,-1,1560,1226,0,0
343,-202,0,0,0,0,0,0,0,0,0,-1,1567,1226,0,0
350,-202,0,0,0,0,0,0,0,0,0,-1,1574,1226,0,0
357,-202,0,0,0,0,0,0,0,0,0,-1,1581,1226,0,0
364,-202,0,0,0,0,0,0,0,0,0,-1,1588,1226,0,0
371,-202,0,0,0,0,0,0,0,0,0,-1,1595,1226,0,0
378,-202,0,0,0,0,0,0,0,0,0,-1,1602,1226,0,0
385,-202,0,0,0,0,0,0,0,0,0,-1,1609,1226,0,0
392,-202,0,0,0,0,0,0,0,0,0,-1,1616,1226,0,0
399,-202,0,0,0,0,0,0,0,0,0,-1,1623,1226,0,0
406,-202,0,0,0,0,0,0,0,0,0,-1,1630,1226,0,0
413,-202,0,0,0,0,0,0,0,0,0,-1,1637,1226,0,0
420,-202,0,0,0,0,0,0,0,0,0,-1,1644,1226,0,0
427,-202,0,0,0,0,0,0,0,0,0,-1,1651,1226,0,0
434,-202,0,0,0,0,0,0,0,0,0,-1,1658,1226,0,0
441,-202,0,0,0,0,0,0,0,0,0,-1,1665,1226,0,0
448,-202,0,0,0,0,0,0,0,0,0,-1,1672,1226,0,0
455,-202,0,0,0,0,0,0,0,0,0,-1,1679,1226,0,0
462,-202,0,0,0,0,0,0,0,0,0,-1,1686,1226,0,0
469,-202,0,0,0,0,0,0,0,0,0,-1,1693,1226,0,0
476,-202,0,0,0,0,0,0,0,0,0,-1,1700,1226,0,0
483,-202,0,0,0,0,0,0,0,0,0,-1,1707,1226,0,0
490,-202,0,0,0,0,0,0,0,0,0,-1,1714,1226,0,0
497,-202,0,0,0,0,0,0,0,0,0,-1,1721,1226,0,0
504,-202,0,0,0,0,0,0,0,0,0,-1,1728,1226,0,0
511,-202,0,0,0,0,0,0,0,0,0,-1,1735,1226,0,0
518,-202,0,0,0,0,0,0,0,0,0,-1,1742,1226,0,0
525,-202,0,0,0,0,0,0,0,0,0,-1,1749,1226,0,0
532,-202,0,0,0,0,0,0,0,0,0,-1,1756,1226,0,0
539,-202,0,0,0,0,0,0,0,0,0,-1,1763,1226,0,0
546,-202,0,0,0,0,0,0,0,0,0,-1,1770,1226,0,0
553,-202,0,0,0,0,0,0,0,0,0,-1,1777,1226,0,0
560,-202,0,0,0,0,0,0,0,0,0,-1,1784,1226,0,0
567,-202,0,0,0,0,0,0,0,0,0,-1,1791,1226,0,0
574,-202,0,0,0,0,0,0,0,0,0,-1,1798,1226,0,0
581,-202,0,0,0,0,0,0,0,0,0,-1,1805,1226,0,0
588,-202,0,0,0,0,0,0,0,0,0,-1,1812,1226,0,0
595,-202,0,0,0,0,0,0,0,0,0,-1,1819,1226,0,0
602,-202,0,0,0,0,0,0,0,0,0,-1,1826,1226,0,0
609,-202,0,0,0,0,0,0,0,0,0,-1,1833,1226,0,0
616,-202,0,0,0,0,0,0,0,0,0,-1,1840,1226,0,0
623,-202,0,0,0,0,0,0,0,0,0,-1,1847,1226,0,0
630,-202,64.6011,2.69421,-0.00453812,0.00365423,-0.00309347,0.0046911,-0.005575,-1.24738,0.00593445,0.0392384,1854,1226,64.6011,-2.69427
637,-202,64.6075,2.67017,-0.00212998,0.00181889,-0.00266828,0.00316381,-0.0034749,-1.10392,0.00383426,0.0348427,1861,1226,64.6076,-2.67015
644,-202,64.6245,2.64294,0.000585428,-9.59437e-05,-0.00233766,0.0026071,-0.00211761,-0.713039,0.00273269,0.0318103,1868,1226,64.6245,-2.6429
651,-202,64.681,2.57947,0.00285006,-0.00146699,-0.00212793,0.00372259,-0.00233952,-0.38913,0.00353019,0.0250314,1875,1226,64.681,-2.57951
658,-202,64.6694,2.60034,0.00407921,-0.00215406,-0.00184156,0.00458262,-0.00265747,-0.266843,0.00422904,0.0222569,1882,1226,64.6694,-2.60034
665,-202,64.7004,2.60815,0.00459195,-0.00248289,-0.00149036,0.00489308,-0.00278403,-0.199372,0.00448779,0.0231749,1889,1226,64.7005,-2.60813
672,-202,64.8497,2.65686,0.00476057,-0.00247727,-0.00122288,0.0049616,-0.0026783,-0.162934,0.00447608,0.0467899,1896,1226,64.8498,-2.65692
679,-202,65.0291,2.70557,0,0,0,0,0,0,0,-1,1903,1226,65.0291,-2.70559
686,-202,49.1708,2.15198,0,0,0,0,0,0,0,-1,1910,1226,49.1708,-2.15195
693,-202,51.6556,11.9775,0,0,0,0,0,0,0,-1,1917,1226,51.6557,-11.9776
700,-202,51.7932,11.334,0.00455306,-0.00205119,-8.46683e-05,0.00455414,-0.00205228,-0.0128175,0.00390432,0.0491621,1924,1226,51.7932,-11.334
707,-202,51.8579,10.5817,0.0043364,-0.00174019,8.36326e-05,0.00433755,-0.00174134,0.0137596,0.00361477,0.0326927,1931,1226,51.8579,-10.5816
714,-202,51.7714,10.0261,0.00372676,-0.00124525,5.64657e-05,0.0037274,-0.0012459,0.0113548,0.0029881,0.0341408,1938,1226,51.7714,-10.0262
721,-202,51.8049,9.60364,0.00264341,-0.000434707,0.000310508,0.00267442,-0.000465718,0.0995397,0.00195675,0.0213089,1945,1226,51.805,-9.60361
728,-202,51.7882,8.88586,0.0020269,-0.000350228,0.000758875,0.00224851,-0.000571832,0.284117,0.00172157,0.0118405,1952,1226,51.7882,-8.88585
735,-202,51.757,8.27063,0.00145122,-0.000325502,0.00128961,0.00212883,-0.00100311,0.483792,0.00184675,0.0117447,1959,1226,51.7569,-8.27066
742,-202,51.7115,7.67078,0.000956859,-0.00019748,0.00204866,0.0025081,-0.00174872,0.648092,0.00247068,0.0122573,1966,1226,51.7116,-7.67073
749,-202,51.6608,7.08044,0.000907018,0.000288814,0.00302207,0.00363575,-0.00243992,0.734435,0.00353036,0.0129596,1973,1226,51.6608,-7.08041
756,-202,51.674,6.51355,0.00131026,0.00092198,0.00412383,0.00524451,-0.00301227,0.761877,0.00482478,0.0129869,1980,1226,51.6739,-6.51361
763,-202,51.7297,5.95386,0.00263814,0.00223263,0.00549182,0.00793095,-0.00306018,0.766947,0.00655014,0.0259073,1987,1226,51.7297,-5.95383
770,-202,51.7413,5.6698,0,0,0,0,0,0,0,-1,1994,1226,51.7413,-5.66979
777,-202,53.3003,-4.00098,0,0,0,0,0,0,0,-1,2001,1226,53.3002,4.00099
784,-202,52.9231,-1.28162,0,0,0,0,0,0,0,-1,2008,1226,52.9232,1.28167
791,-202,52.2668,1.22656,0,0,0,0,0,0,0,-1,2015,1226,52.2668,-1.22651
798,-202,51.8999,3.58789,0,0,0,0,0,0,0,-1,2022,1226,51.9,-3.58791
805,-202,0,0,0,0,0,0,0,0,0,-1,2029,1226,0,0
812,-202,0,0,0,0,0,0,0,0,0,-1,2036,1226,0,0
-700,-209,0,0,0,0,0,0,0,0,0,-1,524,1233,0,0
-693,-209,0,0,0,0,0,0,0,0,0,-1,531,1233,0,0
-686,-209,0,0,0,0,0,0,0,0,0,-1,538,1233,0,0
-679,-209,-39.5382,-9.7428,-0.0411606,0.114611,0.0221463,0.117698,-0.044248,1.43228,0.0966521,0.0468308,545,1233,-39.5382,9.74275
-672,-209,-40.0236,-9.44019,-0.0387732,0.0957381,0.017627,0.0980097,-0.0410448,1.44263,0.0824981,0.0490173,552,1233,-40.0236,9.44015
-665,-209,-40.7432,-9.05396,-0.0335152,0.0798657,0.0143076,0.0816434,-0.0352928,1.44719,0.0692584,0.0458184,559,1233,-40.7433,9.05392
-658,-209,-41.7869,-8.30933,0,0,0,0,0,0,0,-1,566,1233,-41.7869,8.30937
-651,-209,-42.6336,-7.65674,0,0,0,0,0,0,0,-1,573,1233,-42.6336,7.65676
-644,-209,-43.4648,-7.04663,0,0,0,0,0,0,0,-1,580,1233,-43.4648,7.04659
-637,-209,-34.9697,3.1825,0,0,0,0,0,0,0,-1,587,1233,-34.9697,-3.18248
-630,-209,-34.8149,3.73779,-0.00824734,0.0206345,0.00249187,0.0208479,-0.00846075,1.48536,0.0174178,0.0349931,594,1233,-34.815,-3.73779
-623,-209,-34.9021,4.38098,-0.00460193,0.0114482,0.000938364,0.0115029,-0.0046566,1.5126,0.00960473,0.0150389,601,1233,-34.9021,-4.38094
-616,-209,-34.9354,5.02856,-0.00130623,0.00388265,-0.000170063,0.00388821,-0.0013118,-1.53807,0.00312265,0.0123164,608,1233,-34.9354,-5.02858
-609,-209,-34.971,5.67493,0.000409009,0.00120504,-0.000674054,0.00158982,2.42321e-05,-1.05209,0.0010519,0.0155558,615,1233,-34.971,-5.67493
-602,-209,-35.0161,6.30664,0.000139563,0.000256381,-0.00132987,0.00152913,-0.00113318,-0.807344,0.00154274,0.0176072,622,1233,-35.0161,-6.30669
-595,-209,-35.0295,6.94263,-0.000599571,-0.000629299,-0.00140145,0.000787098,-0.00201597,-0.780095,0.00166939,0.0131809,629,1233,-35.0295,-6.9426
-588,-209,-35.0741,7.62305,-0.00136935,-0.000399812,-0.00174005,0.000921738,-0.0026909,-0.921251,0.00216752,0.0278411,636,1233,-35.0741,-7.62307
-581,-209,-35.1255,8.26794,0,0,0,0,0,0,0,-1,643,1233,-35.1255,-8.26797
-574,-209,-33.4955,9.52966,0,0,0,0,0,0,0,-1,650,1233,-33.4955,-9.52972
-567,-209,-26.2951,6.92981,0,0,0,0,0,0,0,-1,657,1233,-26.2951,-6.92986
-560,-209,-13.9294,4.16626,0,0,0,0,0,0,0,-1,664,1233,-13.9294,-4.16621
-553,-209,-22.7542,0.748779,0,0,0,0,0,0,0,-1,671,1233,-22.7541,-0.748796
-546,-209,-44.691,0.142822,0,0,0,0,0,0,0,-1,678,1233,-44.6911,-0.142844
-539,-209,-48.3929,0.61792,0,0,0,0,0,0,0,-1,685,1233,-48.3929,-0.617886
-532,-209,-48.5626,0.875854,-0.00322889,-0.00138766,-8.08098e-05,-0.00138412,-0.00323243,-1.52702,0.00187265,0.0349393,692,1233,-48.5626,-0.875887
-525,-209,-48.7322,1.04541,-0.00317981,-0.0019947,0.000473247,-0.00182891,-0.0033456,1.23384,0.00193438,0.0359537,699,1233,-48.7321,-1.04544
-518,-209,-48.7245,1.02954,-0.0021272,-0.00256436,0.00119977,-0.00112626,-0.0035653,0.695295,0.00210443,0.0426062,706,1233,-48.7245,-1.0296
-511,-209,-48.585,0.878052,0.00152106,-0.00377678,0.00185985,0.00210878,-0.0043645,0.306072,0.00381224,0.0388391,713,1233,-48.5849,-0.878024
-504,-209,0,0,0,0,0,0,0,0,0,-1,720,1233,0,0
-497,-209,0,0,0,0,0,0,0,0,0,-1,727,1233,0,0
-490,-209,0,0,0,0,0,0,0,0,0,-1,734,1233,0,0
-483,-209,0,0,0,0,0,0,0,0,0,-1,741,1233,0,0
-476,-209,0,0,0,0,0,0,0,0,0,-1,748,1233,0,0
-469,-209,0,0,0,0,0,0,0,0,0,-1,755,1233,0,0
-462,-209,0,0,0,0,0,0,0,0,0,-1,762,1233,0,0
-455,-209,0,0,0,0,0,0,0,0,0,-1,769,1233,0,0
-448,-209,0,0,0,0,0,0,0,0,0,-1,776,1233,0,0
-441,-209,0,0,0,0,0,0,0,0,0,-1,783,1233,0,0
-434,-209,0,0,0,0,0,0,0,0,0,-1,790,1233,0,0
-427,-209,0,0,0,0,0,0,0,0,0,-1,797,1233,0,0
-420,-209,0,0,0,0,0,0,0,0,0,-1,804,1233,0,0
-413,-209,0,0,0,0,0,0,0,0,0,-1,811,1233,0,0
-406,-209,0,0,0,0,0,0,0,0,0,-1,818,1233,0,0
-399,-209,0,0,0,0,0,0,0,0,0,-1,825,1233,0,0
-392,-209,0,0,0,0,0,0,0,0,0,-1,832,1233,0,0
-385,-209,0,0,0,0,0,0,0,0,0,-1,839,1233,0,0
-378,-209,0,0,0,0,0,0,0,0,0,-1,846,1233,0,0
-371,-209,0,0,0,0,0,0,0,0,0,-1,853,1233,0,0
-364,-209,0,0,0,0,0,0,0,0,0,-1,860,1233,0,0
-357,-209,0,0,0,0,0,0,0,0,0,-1,867,1233,0,0
-350,-209,0,0,0,0,0,0,0,0,0,-1,874,1233,0,0
-343,-209,0,0,0,0,0,0,0,0,0,-1,881,1233,0,0
-336,-209,0,0,0,0,0,0,0,0,0,-1,888,1233,0,0
-329,-209,0,0,0,0,0,0,0,0,0,-1,895,1233,0,0
-322,-209,0,0,0,0,0,0,0,0,0,-1,902,1233,0,0
-315,-209,0,0,0,0,0,0,0,0,0,-1,909,1233,0,0
-308,-209,0,0,0,0,0,0,0,0,0,-1,916,1233,0,0
-301,-209,0,0,0,0,0,0,0,0,0,-1,923,1233,0,0
-294,-209,0,0,0,0,0,0,0,0,0,-1,930,1233,0,0
-287,-209,0,0,0,0,0,0,0,0,0,-1,937,1233,0,0
-280,-209,0,0,0,0,0,0,0,0,0,-1,944,1233,0,0
-273,-209,0,0,0,0,0,0,0,0,0,-1,951,1233,0,0
-266,-209,0,0,0,0,0,0,0,0,0,-1,958,1233,0,0
-259,-209,0,0,0,0,0,0,0,0,0,-1,965,1233,0,0
-252,-209,0,0,0,0,0,0,0,0,0,-1,972,1233,0,0
-245,-209,0,0,0,0,0,0,0,0,0,-1,979,1233,0,0
-238,-209,0,0,0,0,0,0,0,0,0,-1,986,1233,0,0
-231,-209,0,0,0,0,0,0,0,0,0,-1,993,1233,0,0
-224,-209,0,0,0,0,0,0,0,0,0,-1,1000,1233,0,0
-217,-209,0,0,0,0,0,0,0,0,0,-1,1007,1233,0,0
-210,-209,0,0,0,0,0,0,0,0,0,-1,1014,1233,0,0
-203,-209,0,0,0,0,0,0,0,0,0,-1,1021,1233,0,0
-196,-209,0,0,0,0,0,0,0,0,0,-1,1028,1233,0,0
-189,-209,0,0,0,0,0,0,0,0,0,-1,1035,1233,0,0
-182,-209,0,0,0,0,0,0,0,0,0,-1,1042,1233,0,0
-175,-209,0,0,0,0,0,0,0,0,0,-1,1049,1233,0,0
-168,-209,0,0,0,0,0,0,0,0,0,-1,1056,1233,0,0
-161,-209,0,0,0,0,0,0,0,0,0,-1,1063,1233,0,0
-154,-209,0,0,0,0,0,0,0,0,0,-1,1070,1233,0,0
-147,-209,0,0,0,0,0,0,0,0,0,-1,1077,1233,0,0
-140,-209,0,0,0,0,0,0,0,0,0,-1,1084,1233,0,0
-133,-209,0,0,0,0,0,0,0,0,0,-1,1091,1233,0,0
-126,-209,0,0,0,0,0,0,0,0,0,-1,1098,1233,0,0
-119,-209,0,0,0,0,0,0,0,0,0,-1,1105,1233,0,0
-112,-209,0,0,0,0,0,0,0,0,0,-1,1112,1233,0,0
-105,-209,0,0,0,0,0,0,0,0,0,-1,1119,1233,0,0
-98,-209,0,0,0,0,0,0,0,0,0,-1,1126,1233,0,0
-91,-209,0,0,0,0,0,0,0,0,0,-1,1133,1233,0,0
-84,-209,0,0,0,0,0,0,0,0,0,-1,1140,1233,0,0
-77,-209,0,0,0,0,0,0,0,0,0,-1,1147,1233,0,0
-70,-209,0,0,0,0,0,0,0,0,0,-1,1154,1233,0,0
-63,-209,0,0,0,0,0,0,0,0,0,-1,1161,1233,0,0
-56,-209,0,0,0,0,0,0,0,0,0,-1,1168,1233,0,0
-49,-209,0,0,0,0,0,0,0,0,0,-1,1175,1233,0,0
-42,-209,0,0,0,0,0,0,0,0,0,-1,1182,1233,0,0
-35,-209,0,0,0,0,0,0,0,0,0,-1,1189,1233,0,0
-28,-209,0,0,0,0,0,0,0,0,0,-1,1196,1233,0,0
-21,-209,0,0,0,0,0,0,0,0,0,-1,1203,1233,0,0
-14,-209,0,0,0,0,0,0,0,0,0,-1,1210,1233,0,0
-7,-209,0,0,0,0,0,0,0,0,0,-1,1217,1233,0,0
0,-209,0,0,0,0,0,0,0,0,0,-1,1224,1233,0,0
7,-209,0,0,0,0,0,0,0,0,0,-1,1231,1233,0,0
14,-209,0,0,0,0,0,0,0,0,0,-1,1238,1233,0,0
21,-209,0,0,0,0,0,0,0,0,0,-1,1245,1233,0,0
28,-209,0,0,0,0,0,0,0,0,0,-1,1252,1233,0,0
35,-209,0,0,0,0,0,0,0,0,0,-1,1259,1233,0,0
42,-209,0,0,0,0,0,0,0,0,0,-1,1266,1233,0,0
49,-209,0,0,0,0,0,0,0,0,0,-1,1273,1233,0,0
56,-209,0,0,0,0,0,0,0,0,0,-1,1280,1233,0,0
63,-209,0,0,0,0,0,0,0,0,0,-1,1287,1233,0,0
70,-209,0,0,0,0,0,0,0,0,0,-1,1294,1233,0,0
77,-209,0,0,0,0,0,0,0,0,0,-1,1301,1233,0,0
84,-209,0,0,0,0,0,0,0,0,0,-1,1308,1233,0,0
91,-209,0,0,0,0,0,0,0,0,0,-1,1315,1233,0,0
98,-209,0,0,0,0,0,0,0,0,0,-1,1322,1233,0,0
105,-209,0,0,0,0,0,0,0,0,0,-1,1329,1233,0,0
112,-209,0,0,0,0,0,0,0,0,0,-1,1336,1233,0,0
119,-209,0,0,0,0,0,0,0,0,0,-1,1343,1233,0,0
126,-209,0,0,0,0,0,0,0,0,0,-1,1350,1233,0,0
133,-209,0,0,0,0,0,0,0,0,0,-1,1357,1233,0,0
140,-209,0,0,0,0,0,0,0,0,0,-1,1364,1233,0,0
147,-209,0,0,0,0,0,0,0,0,0,-1,1371,1233,0,0
154,-209,0,0,0,0,0,0,0,0,0,-1,1378,1233,0,0
161,-209,0,0,0,0,0,0,0,0,0,-1,1385,1233,0,0
168,-209,0,0,0,0,0,0,0,0,0,-1,1392,1233,0,0
175,-209,0,0,0,0,0,0,0,0,0,-1,1399,1233,0,0
182,-209,0,0,0,0,0,0,0,0,0,-1,1406,1233,0,0
189,-209,0,0,0,0,0,0,0,0,0,-1,1413,1233,0,0
196,-209,0,0,0,0,0,0,0,0,0,-1,1420,1233,0,0
203,-209,0,0,0,0,0,0,0,0,0,-1,1427,1233,0,0
210,-209,0,0,0,0,0,0,0,0,0,-1,1434,1233,0,0
217,-209,0,0,0,0,0,0,0,0,0,-1,1441,1233,0,0
224,-209,0,0,0,0,0,0,0,0,0,-1,1448,1233,0,0
231,-209,0,0,0,0,0,0,0,0,0,-1,1455,1233,0,0
238,-209,0,0,0,0,0,0,0,0,0,-1,1462,1233,0,0
245,-209,0,0,0,0,0,0,0,0,0,-1,1469,1233,0,0
252,-209,0,0,0,0,0,0,0,0,0,-1,1476,1233,0,0
259,-209,0,0,0,0,0,0,0,0,0,-1,1483,1233,0,0
266,-209,0,0,0,0,0,0,0,0,0,-1,1490,1233,0,0
273,-209,0,0,0,0,0,0,0,0,0,-1,1497,1233,0,0
280,-209,0,0,0,0,0,0,0,0,0,-1,1504,1233,0,0
287,-209,0,0,0,0,0,0,0,0,0,-1,1511,1233,0,0
294,-209,0,0,0,0,0,0,0,0,0,-1,1518,1233,0,0
301,-209,0,0,0,0,0,0,0,0,0,-1,1525,1233,0,0
308,-209,0,0,0,0,0,0,0,0,0,-1,1532,1233,0,0
315,-209,0,0,0,0,0,0,0,0,0,-1,1539,1233,0,0
322,-209,0,0,0,0,0,0,0,0,0,-1,1546,1233,0,0
329,-209,0,0,0,0,0,0,0,0,0,-1,1553,1233,0,0
336,-209,0,0,0,0,0,0,0,0,0,-1,1560,1233,0,0
343,-209,0,0,0,0,0,0,0,0,0,-1,1567,1233,0,0
350,-209,0,0,0,0,0,0,0,0,0,-1,1574,1233,0,0
357,-209,0,0,0,0,0,0,0,0,0,-1,1581,1233,0,0
364,-209,0,0,0,0,0,0,0,0,0,-1,1588,1233,0,0
371,-209,0,0,0,0,0,0,0,0,0,-1,1595,1233,0,0
378,-209,0,0,0,0,0,0,0,0,0,-1,1602,1233,0,0
385,-209,0,0,0,0,0,0,0,0,0,-1,1609,1233,0,0
392,-209,0,0,0,0,0,0,0,0,0,-1,1616,1233,0,0
399,-209,0,0,0,0,0,0,0,0,0,-1,1623,1233,0,0
406,-209,0,0,0,0,0,0,0,0,0,-1,1630,1233,0,0
413,-209,0,0,0,0,0,0,0,0,0,-1,1637,1233,0,0
420,-209,0,0,0,0,0,0,0,0,0,-1,1644,1233,0,0
427,-209,0,0,0,0,0,0,0,0,0,-1,1651,1233,0,0
434,-209,0,0,0,0,0,0,0,0,0,-1,1658,1233,0,0
441,-209,0,0,0,0,0,0,0,0,0,-1,1665,1233,0,0
448,-209,0,0,0,0,0,0,0,0,0,-1,1672,1233,0,0
455,-209,0,0,0,0,0,0,0,0,0,-1,1679,1233,0,0
462,-209,0,0,0,0,0,0,0,0,0,-1,1686,1233,0,0
469,-209,0,0,0,0,0,0,0,0,0,-1,1693,1233,0,0
476,-209,0,0,0,0,0,0,0,0,0,-1,1700,1233,0,0
483,-209,0,0,0,0,0,0,0,0,0,-1,1707,1233,0,0
490,-209,0,0,0,0,0,0,0,0,0,-1,1714,1233,0,0
497,-209,0,0,0,0,0,0,0,0,0,-1,1721,1233,0,0
504,-209,0,0,0,0,0,0,0,0,0,-1,1728,1233,0,0
511,-209,0,0,0,0,0,0,0,0,0,-1,1735,1233,0,0
518,-209,0,0,0,0,0,0,0,0,0,-1,1742,1233,0,0
525,-209,0,0,0,0,0,0,0,0,0,-1,1749,1233,0,0
532,-209,0,0,0,0,0,0,0,0,0,-1,1756,1233,0,0
539,-209,0,0,0,0,0,0,0,0,0,-1,1763,1233,0,0
546,-209,0,0,0,0,0,0,0,0,0,-1,1770,1233,0,0
553,-209,0,0,0,0,0,0,0,0,0,-1,1777,1233,0,0
560,-209,0,0,0,0,0,0,0,0,0,-1,1784,1233,0,0
567,-209,0,0,0,0,0,0,0,0,0,-1,1791,1233,0,0
574,-209,0,0,0,0,0,0,0,0,0,-1,1798,1233,0,0
581,-209,0,0,0,0,0,0,0,0,0,-1,1805,1233,0,0
588,-209,0,0,0,0,0,0,0,0,0,-1,1812,1233,0,0
595,-209,0,0,0,0,0,0,0,0,0,-1,1819,1233,0,0
602,-209,0,0,0,0,0,0,0,0,0,-1,1826,1233,0,0
609,-209,0,0,0,0,0,0,0,0,0,-1,1833,1233,0,0
616,-209,0,0,0,0,0,0,0,0,0,-1,1840,1233,0,0
623,-209,64.6125,2.6344,-0.00509,0.00400222,-0.00285851,0.00482623,-0.00591401,-1.29014,0.00621148,0.0350115,1847,1233,64.6125,-2.6344
630,-209,64.5986,2.60583,-0.00343298,0.00232603,-0.00269237,0.00338866,-0.00449561,-1.19488,0.00456692,0.0378815,1854,1233,64.5987,-2.60589
637,-209,64.5751,2.55188,-0.0013293,0.000458958,-0.00250445,0.0022241,-0.00309445,-0.956854,0.00308434,0.0333032,1861,1233,64.5751,-2.55189
644,-209,64.6428,2.49609,0.00112287,-0.00143805,-0.00238395,0.00254847,-0.00286366,-0.538948,0.00312646,0.0277212,1868,1233,64.6428,-2.49611
651,-209,64.6942,2.55444,0.00289852,-0.00246453,-0.00225437,0.00372024,-0.00328626,-0.349537,0.00404779,0.0226979,1875,1233,64.6943,-2.55444
658,-209,64.6862,2.58704,0.00374221,-0.00284892,-0.0019655,0.00428383,-0.00339054,-0.268887,0.00444079,0.0217166,1882,1233,64.6862,-2.58708
665,-209,64.7937,2.65173,0.00406758,-0.00298359,-0.00161186,0.00441857,-0.00333459,-0.214408,0.00449084,0.0389632,1889,1233,64.7937,-2.65169
672,-209,64.8964,2.61597,0,0,0,0,0,0,0,-1,1896,1233,64.8964,-2.61591
679,-209,55.2465,2.78674,0,0,0,0,0,0,0,-1,1903,1233,55.2464,-2.78678
686,-209,33.3711,3.89856,0,0,0,0,0,0,0,-1,1910,1233,33.3711,-3.89855
693,-209,51.078,12.0184,0,0,0,0,0,0,0,-1,1917,1233,51.078,-12.0184
700,-209,51.1357,11.3258,0.00441311,-0.00261425,-6.22333e-05,0.00441366,-0.0026148,-0.00885494,0.00410195,0.0443615,1924,1233,51.1357,-11.3258
707,-209,51.1396,10.7089,0.00410263,-0.00222876,9.78968e-05,0.00410414,-0.00223027,0.0154572,0.00371013,0.037104,1931,1233,51.1396,-10.7089
714,-209,51.1406,10.1659,0.00336731,-0.00158906,0.000127483,0.00337059,-0.00159233,0.0256984,0.00292601,0.0241025,1938,1233,51.1406,-10.1659
721,-209,51.1818,9.50244,0.00213557,-0.000614384,0.000507053,0.00222608,-0.000704898,0.17665,0.00176654,0.0137693,1945,1233,51.1818,-9.50241
728,-209,51.2,8.91394,0.00137351,-0.00049711,0.00106415,0.00185496,-0.000978565,0.424874,0.00166182,0.0133643,1952,1233,51.1999,-8.91389
735,-209,51.1781,8.30627,0.000673325,-0.000471156,0.00172564,0.00191913,-0.00171696,0.625298,0.00210038,0.0162932,1959,1233,51.1781,-8.30628
742,-209,51.1283,7.68848,6.14851e-05,-0.000418228,0.00259971,0.00243238,-0.00278912,0.739397,0.00301698,0.0165283,1966,1233,51.1283,-7.68842
749,-209,51.0697,7.09241,-0.000277439,-0.000278472,0.00365187,0.00337391,-0.00392982,0.785327,0.00422088,0.0141186,1973,1233,51.0697,-7.09245
756,-209,51.057,6.52759,-0.000246996,-0.000118516,0.00487506,0.00469273,-0.00505824,0.791986,0.00563104,0.0130588,1980,1233,51.057,-6.52761
763,-209,51.0209,6.02185,0.00052567,0.000200826,0.00643865,0.00680395,-0.00607745,0.772788,0.00744102,0.0267762,1987,1233,51.0209,-6.02191
770,-209,51.123,5.70227,0,0,0,0,0,0,0,-1,1994,1233,51.1231,-5.70227
777,-209,49.8105,-3.45435,0,0,0,0,0,0,0,-1,2001,1233,49.8106,3.45429
784,-209,53.6729,-0.603394,0,0,0,0,0,0,0,-1,2008,1233,53.6728,0.603386
791,-209,53.6887,1.53479,0,0,0,0,0,0,0,-1,2015,1233,53.6887,-1.53478
798,-209,53.6404,3.71179,0,0,0,0,0,0,0,-1,2022,1233,53.6404,-3.71185
805,-209,0,0,0,0,0,0,0,0,0,-1,2029,1233,0,0
812,-209,0,0,0,0,0,0,0,0,0,-1,2036,1233,0,0
-700,-216,0,0,0,0,0,0,0,0,0,-1,524,1240,0,0
-693,-216,0,0,0,0,0,0,0,0,0,-1,531,1240,0,0
-686,-216,0,0,0,0,0,0,0,0,0,-1,538,1240,0,0
-679,-216,-39.1742,-10.595,-0.054694,0.113506,0.0233994,0.116701,-0.0578886,1.43511,0.102688,0.0482602,545,1240,-39.1742,10.595
-672,-216,-39.3776,-10.113,-0.0506133,0.09429,0.0197221,0.0969263,-0.0532496,1.43791,0.0879179,0.0487122,552,1240,-39.3775,10.113
-665,-216,-39.8638,-9.30737,-0.0426543,0.0793702,0.0166325,0.0815967,-0.0448808,1.43772,0.0740403,0.0483163,559,1240,-39.8638,9.30731
-658,-216,-40.5195,-8.36548,0,0,0,0,0,0,0,-1,566,1240,-40.5195,8.36548
-651,-216,-42.788,-8.0509,0,0,0,0,0,0,0,-1,573,1240,-42.788,8.05092
-644,-216,-45.6099,1.72839,0,0,0,0,0,0,0,-1,580,1240,-45.6099,-1.72843
-637,-216,-34.2037,2.99561,0,0,0,0,0,0,0,-1,587,1240,-34.2037,-2.99564
-630,-216,-34.1511,3.74646,-0.0098162,0.0220271,0.00402445,0.0225278,-0.0103169,1.44701,0.0193948,0.0433142,594,1240,-34.1511,-3.74643
-623,-216,-34.2231,4.47424,-0.00542363,0.0127645,0.00230961,0.0130532,-0.00571233,1.44644,0.0111072,0.0197252,601,1240,-34.2231,-4.47419
-616,-216,-34.2933,5.06677,-0.001399,0.00475039,0.000881351,0.00487421,-0.00152283,1.43122,0.00385858,0.0140853,608,1240,-34.2933,-5.06679
-609,-216,-34.3296,5.73022,0.000888896,0.00171653,4.09549e-05,0.00171855,0.000886874,1.52147,0.000992378,0.014885,615,1240,-34.3296,-5.73022
-602,-216,-34.3685,6.32288,0.000783699,0.000535256,-0.000915315,0.00158318,-0.000264229,-0.717953,0.00115366,0.0142777,622,1240,-34.3685,-6.32283
-595,-216,-34.3452,6.9491,-7.19394e-07,-0.000532558,-0.00123619,0.000997834,-0.00153111,-0.679457,0.00147087,0.0189381,629,1240,-34.3452,-6.94904
-588,-216,-34.3711,7.5946,-0.000760097,-0.000514141,-0.00161697,0.000984525,-0.00225876,-0.823352,0.00192008,0.0249512,636,1240,-34.3711,-7.59457
-581,-216,-34.4506,8.16577,0,0,0,0,0,0,0,-1,643,1240,-34.4506,-8.16583
-574,-216,-35.0095,8.86633,0,0,0,0,0,0,0,-1,650,1240,-35.0095,-8.86638
-567,-216,-33.4159,9.56567,0,0,0,0,0,0,0,-1,657,1240,-33.4159,-9.56565
-560,-216,-16.5087,5.4574,0,0,0,0,0,0,0,-1,664,1240,-16.5087,-5.45746
-553,-216,-16.2355,1.22351,0,0,0,0,0,0,0,-1,671,1240,-16.2356,-1.22356
-546,-216,-37.1617,-0.25415,0,0,0,0,0,0,0,-1,678,1240,-37.1618,0.254161
-539,-216,-47.7817,1.47327,0,0,0,0,0,0,0,-1,685,1240,-47.7818,-1.4733
-532,-216,-48.4575,0.789673,0,0,0,0,0,0,0,-1,692,1240,-48.4575,-0.789677
-525,-216,-48.6145,1.00964,-0.00373685,-0.002867,0.000920353,-0.00228398,-0.00431987,1.00613,0.00249545,0.0497971,699,1240,-48.6145,-1.00969
-518,-216,-48.8291,1.24231,-0.0036426,-0.003552,0.00167686,-0.00191982,-0.00527478,0.798902,0.00308274,0.0427976,706,1240,-48.8291,-1.24231
-511,-216,-48.6531,0.883911,-0.00179227,-0.00437594,0.00244059,-0.000322708,-0.0058455,0.541987,0.00379401,0.0395955,713,1240,-48.6531,-0.883867
-504,-216,-48.6436,0.963745,0.00354065,-0.00591307,0.00299002,0.00440695,-0.00677937,0.282009,0.00650666,0.0391842,720,1240,-48.6435,-0.963789
-497,-216,0,0,0,0,0,0,0,0,0,-1,727,1240,0,0
-490,-216,0,0,0,0,0,0,0,0,0,-1,734,1240,0,0
-483,-216,0,0,0,0,0,0,0,0,0,-1,741,1240,0,0
-476,-216,0,0,0,0,0,0,0,0,0,-1,748,1240,0,0
-469,-216,0,0,0,0,0,0,0,0,0,-1,755,1240,0,0
-462,-216,0,0,0,0,0,0,0,0,0,-1,762,1240,0,0
-455,-216,0,0,0,0,0,0,0,0,0,-1,769,1240,0,0
-448,-216,0,0,0,0,0,0,0,0,0,-1,776,1240,0,0
-441,-216,0,0,0,0,0,0,0,0,0,-1,783,1240,0,0
-434,-216,0,0,0,0,0,0,0,0,0,-1,790,1240,0,0
-427,-216,0,0,0,0,0,0,0,0,0,-1,797,1240,0,0
-420,-216,0,0,0,0,0,0,0,0,0,-1,804,1240,0,0
-413,-216,0,0,0,0,0,0,0,0,0,-1,811,1240,0,0
-406,-216,0,0,0,0,0,0,0,0,0,-1,818,1240,0,0
-399,-216,0,0,0,0,0,0,0,0,0,-1,825,1240,0,0
-392,-216,0,0,0,0,0,0,0,0,0,-1,832,1240,0,0
-385,-216,0,0,0,0,0,0,0,0,0,-1,839,1240,0,0
-378,-216,0,0,0,0,0,0,0,0,0,-1,846,1240,0,0
-371,-216,0,0,0,0,0,0,0,0,0,-1,853,1240,0,0
-364,-216,0,0,0,0,0,0,0,0,0,-1,860,1240,0,0
-357,-216,0,0,0,0,0,0,0,0,0,-1,867,1240,0,0
-350,-216,0,0,0,0,0,0,0,0,0,-1,874,1240,0,0
-343,-216,0,0,0,0,0,0,0,0,0,-1,881,1240,0,0
-336,-216,0,0,0,0,0,0,0,0,0,-1,888,1240,0,0
-329,-216,0,0,0,0,0,0,0,0,0,-1,895,1240,0,0
-322,-216,0,0,0,0,0,0,0,0,0,-1,902,1240,0,0
-315,-216,0,0,0,0,0,0,0,0,0,-1,909,1240,0,0
-308,-216,0,0,0,0,0,0,0,0,0,-1,916,1240,0,0
-301,-216,0,0,0,0,0,0,0,0,0,-1,923,1240,0,0
-294,-216,0,0,0,0,0,0,0,0,0,-1,930,1240,0,0
-287,-216,0,0,0,0,0,0,0,0,0,-1,937,1240,0,0
-280,-216,0,0,0,0,0,0,0,0,0,-1,944,1240,0,0
-273,-216,0,0,0,0,0,0,0,0,0,-1,951,1240,0,0
-266,-216,0,0,0,0,0,0,0,0,0,-1,958,1240,0,0
-259,-216,0,0,0,0,0,0,0,0,0,-1,965,1240,0,0
-252,-216,0,0,0,0,0,0,0,0,0,-1,972,1240,0,0
-245,-216,0,0,0,0,0,0,0,0,0,-1,979,1240,0,0
-238,-216,0,0,0,0,0,0,0,0,0,-1,986,1240,0,0
-231,-216,0,0,0,0,0,0,0,0,0,-1,993,1240,0,0
-224,-216,0,0,0,0,0,0,0,0,0,-1,1000,1240,0,0
-217,-216,0,0,0,0,0,0,0,0,0,-1,1007,1240,0,0
-210,-216,0,0,0,0,0,0,0,0,0,-1,1014,1240,0,0
-203,-216,0,0,0,0,0,0,0,0,0,-1,1021,1240,0,0
-196,-216,0,0,0,0,0,0,0,0,0,-1,1028,1240,0,0
-189,-216,0,0,0,0,0,0,0,0,0,-1,1035,1240,0,0
-182,-216,0,0,0,0,0,0,0,0,0,-1,1042,1240,0,0
-175,-216,0,0,0,0,0,0,0,0,0,-1,1049,1240,0,0
-168,-216,0,0,0,0,0,0,0,0,0,-1,1056,1240,0,0
-161,-216,0,0,0,0,0,0,0,0,0,-1,1063,1240,0,0
-154,-216,0,0,0,0,0,0,0,0,0,-1,1070,1240,0,0
-147,-216,0,0,0,0,0,0,0,0,0,-1,1077,1240,0,0
-140,-216,0,0,0,0,0,0,0,0,0,-1,1084,1240,0,0
-133,-216,0,0,0,0,0,0,0,0,0,-1,1091,1240,0,0
-126,-216,0,0,0,0,0,0,0,0,0,-1,1098,1240,0,0
-119,-216,0,0,0,0,0,0,0,0,0,-1,1105,1240,0,0
-112,-216,0,0,0,0,0,0,0,0,0,-1,1112,1240,0,0
-105,-216,0,0,0,0,0,0,0,0,0,-1,1119,1240,0,0
-98,-216,0,0,0,0,0,0,0,0,0,-1,1126,1240,0,0
-91,-216,0,0,0,0,0,0,0,0,0,-1,1133,1240,0,0
-84,-216,0,0,0,0,0,0,0,0,0,-1,1140,1240,0,0
-77,-216,0,0,0,0,0,0,0,0,0,-1,1147,1240,0,0
-70,-216,0,0,0,0,0,0,0,0,0,-1,1154,1240,0,0
-63,-216,0,0,0,0,0,0,0,0,0,-1,1161,1240,0,0
-56,-216,0,0,0,0,0,0,0,0,0,-1,1168,1240,0,0
-49,-216,0,0,0,0,0,0,0,0,0,-1,1175,1240,0,0
-42,-216,0,0,0,0,0,0,0,0,0,-1,1182,1240,0,0
-35,-216,0,0,0,0,0,0,0,0,0,-1,1189,1240,0,0
-28,-216,0,0,0,0,0,0,0,0,0,-1,1196,1240,0,0
-21,-216,0,0,0,0,0,0,0,0,0,-1,1203,1240,0,0
-14,-216,0,0,0,0,0,0,0,0,0,-1,1210,1240,0,0
-7,-216,0,0,0,0,0,0,0,0,0,-1,1217,1240,0,0
0,-216,0,0,0,0,0,0,0,0,0,-1,1224,1240,0,0
7,-216,0,0,0,0,0,0,0,0,0,-1,1231,1240,0,0
14,-216,0,0,0,0,0,0,0,0,0,-1,1238,1240,0,0
21,-216,0,0,0,0,0,0,0,0,0,-1,1245,1240,0,0
28,-216,0,0,0,0,0,0,0,0,0,-1,1252,1240,0,0
35,-216,0,0,0,0,0,0,0,0,0,-1,1259,1240,0,0
42,-216,0,0,0,0,0,0,0,0,0,-1,1266,1240,0,0
49,-216,0,0,0,0,0,0,0,0,0,-1,1273,1240,0,0
56,-216,0,0,0,0,0,0,0,0,0,-1,1280,1240,0,0
63,-216,0,0,0,0,0,0,0,0,0,-1,1287,1240,0,0
70,-216,0,0,0,0,0,0,0,0,0,-1,1294,1240,0,0
77,-216,0,0,0,0,0,0,0,0,0,-1,1301,1240,0,0
84,-216,0,0,0,0,0,0,0,0,0,-1,1308,1240,0,0
91,-216,0,0,0,0,0,0,0,0,0,-1,1315,1240,0,0
98,-216,0,0,0,0,0,0,0,0,0,-1,1322,1240,0,0
105,-216,0,0,0,0,0,0,0,0,0,-1,1329,1240,0,0
112,-216,0,0,0,0,0,0,0,0,0,-1,1336,1240,0,0
119,-216,0,0,0,0,0,0,0,0,0,-1,1343,1240,0,0
126,-216,0,0,0,0,0,0,0,0,0,-1,1350,1240,0,0
133,-216,0,0,0,0,0,0,0,0,0,-1,1357,1240,0,0
140,-216,0,0,0,0,0,0,0,0,0,-1,1364,1240,0,0
147,-216,0,0,0,0,0,0,0,0,0,-1,1371,1240,0,0
154,-216,0,0,0,0,0,0,0,0,0,-1,1378,1240,0,0
161,-216,0,0,0,0,0,0,0,0,0,-1,1385,1240,0,0
168,-216,0,0,0,0,0,0,0,0,0,-1,1392,1240,0,0
175,-216,0,0,0,0,0,0,0,0,0,-1,1399,1240,0,0
182,-216,0,0,0,0,0,0,0,0,0,-1,1406,1240,0,0
189,-216,0,0,0,0,0,0,0,0,0,-1,1413,1240,0,0
196,-216,0,0,0,0,0,0,0,0,0,-1,1420,1240,0,0
203,-216,0,0,0,0,0,0,0,0,0,-1,1427,1240,0,0
210,-216,0,0,0,0,0,0,0,0,0,-1,1434,1240,0,0
217,-216,0,0,0,0,0,0,0,0,0,-1,1441,1240,0,0
224,-216,0,0,0,0,0,0,0,0,0,-1,1448,1240,0,0
231,-216,0,0,0,0,0,0,0,0,0,-1,1455,1240,0,0
238,-216,0,0,0,0,0,0,0,0,0,-1,1462,1240,0,0
245,-216,0,0,0,0,0,0,0,0,0,-1,1469,1240,0,0
252,-216,0,0,0,0,0,0,0,0,0,-1,1476,1240,0,0
259,-216,0,0,0,0,0,0,0,0,0,-1,1483,1240,0,0
266,-216,0,0,0,0,0,0,0,0,0,-1,1490,1240,0,0
273,-216,0,0,0,0,0,0,0,0,0,-1,1497,1240,0,0
280,-216,0,0,0,0,0,0,0,0,0,-1,1504,1240,0,0
287,-216,0,0,0,0,0,0,0,0,0,-1,1511,1240,0,0
294,-216,0,0,0,0,0,0,0,0,0,-1,1518,1240,0,0
301,-216,0,0,0,0,0,0,0,0,0,-1,1525,1240,0,0
308,-216,0,0,0,0,0,0,0,0,0,-1,1532,1240,0,0
315,-216,0,0,0,0,0,0,0,0,0,-1,1539,1240,0,0
322,-216,0,0,0,0,0,0,0,0,0,-1,1546,1240,0,0
329,-216,0,0,0,0,0,0,0,0,0,-1,1553,1240,0,0
336,-216,0,0,0,0,0,0,0,0,0,-1,1560,1240,0,0
343,-216,0,0,0,0,0,0,0,0,0,-1,1567,1240,0,0
350,-216,0,0,0,0,0,0,0,0,0,-1,1574,1240,0,0
357,-216,0,0,0,0,0,0,0,0,0,-1,1581,1240,0,0
364,-216,0,0,0,0,0,0,0,0,0,-1,1588,1240,0,0
371,-216,0,0,0,0,0,0,0,0,0,-1,1595,1240,0,0
378,-216,0,0,0,0,0,0,0,0,0,-1,1602,1240,0,0
385,-216,0,0,0,0,0,0,0,0,0,-1,1609,1240,0,0
392,-216,0,0,0,0,0,0,0,0,0,-1,1616,1240,0,0
399,-216,0,0,0,0,0,0,0,0,0,-1,1623,1240,0,0
406,-216,0,0,0,0,0,0,0,0,0,-1,1630,1240,0,0
413,-216,0,0,0,0,0,0,0,0,0,-1,1637,1240,0,0
420,-216,0,0,0,0,0,0,0,0,0,-1,1644,1240,0,0
427,-216,0,0,0,0,0,0,0,0,0,-1,1651,1240,0,0
434,-216,0,0,0,0,0,0,0,0,0,-1,1658,1240,0,0
441,-216,0,0,0,0,0,0,0,0,0,-1,1665,1240,0,0
448,-216,0,0,0,0,0,0,0,0,0,-1,1672,1240,0,0
455,-216,0,0,0,0,0,0,0,0,0,-1,1679,1240,0,0
462,-216,0,0,0,0,0,0,0,0,0,-1,1686,1240,0,0
469,-216,0,0,0,0,0,0,0,0,0,-1,1693,1240,0,0
476,-216,0,0,0,0,0,0,0,0,0,-1,1700,1240,0,0
483,-216,0,0,0,0,0,0,0,0,0,-1,1707,1240,0,0
490,-216,0,0,0,0,0,0,0,0,0,-1,1714,1240,0,0
497,-216,0,0,0,0,0,0,0,0,0,-1,1721,1240,0,0
504,-216,0,0,0,0,0,0,0,0,0,-1,1728,1240,0,0
511,-216,0,0,0,0,0,0,0,0,0,-1,1735,1240,0,0
518,-216,0,0,0,0,0,0,0,0,0,-1,1742,1240,0,0
525,-216,0,0,0,0,0,0,0,0,0,-1,1749,1240,0,0
532,-216,0,0,0,0,0,0,0,0,0,-1,1756,1240,0,0
539,-216,0,0,0,0,0,0,0,0,0,-1,1763,1240,0,0
546,-216,0,0,0,0,0,0,0,0,0,-1,1770,1240,0,0
553,-216,0,0,0,0,0,0,0,0,0,-1,1777,1240,0,0
560,-216,0,0,0,0,0,0,0,0,0,-1,1784,1240,0,0
567,-216,0,0,0,0,0,0,0,0,0,-1,1791,1240,0,0
574,-216,0,0,0,0,0,0,0,0,0,-1,1798,1240,0,0
581,-216,0,0,0,0,0,0,0,0,0,-1,1805,1240,0,0
588,-216,0,0,0,0,0,0,0,0,0,-1,1812,1240,0,0
595,-216,0,0,0,0,0,0,0,0,0,-1,1819,1240,0,0
602,-216,0,0,0,0,0,0,0,0,0,-1,1826,1240,0,0
609,-216,0,0,0,0,0,0,0,0,0,-1,1833,1240,0,0
616,-216,0,0,0,0,0,0,0,0,0,-1,1840,1240,0,0
623,-216,64.5376,2.68896,-0.00304223,0.0036326,-0.00213873,0.00425909,-0.00366872,-1.28584,0.00458135,0.0373018,1847,1240,64.5376,-2.68897
630,-216,64.5869,2.6156,-0.00235015,0.00136737,-0.0021188,0.00232718,-0.00330995,-1.14546,0.00327104,0.0367869,1854,1240,64.5869,-2.61557
637,-216,64.6465,2.55762,-0.00100738,-0.00103139,-0.00206571,0.00104637,-0.00308513,-0.782492,0.00248024,0.0312504,1861,1240,64.6465,-2.55757
644,-216,64.6793,2.57019,0.000779312,-0.00302237,-0.00210097,0.00171171,-0.00395477,-0.417683,0.0033559,0.0249337,1868,1240,64.6793,-2.57014
651,-216,64.6987,2.63623,0.0020524,-0.00362228,-0.00202977,0.00270368,-0.00427356,-0.310487,0.00406216,0.0221628,1875,1240,64.6987,-2.6362
658,-216,64.7643,2.70569,0.00271949,-0.00363712,-0.0017887,0.00318825,-0.00410588,-0.256303,0.00422236,0.0329233,1882,1240,64.7643,-2.70573
665,-216,65.1812,3.14246,0.00303535,-0.00349945,-0.00150543,0.00336548,-0.00382958,-0.215876,0.00415695,0.0495175,1889,1240,65.1812,-3.14242
672,-216,65.5337,3.37964,0,0,0,0,0,0,0,-1,1896,1240,65.5336,-3.3797
679,-216,47.3159,3.82703,0,0,0,0,0,0,0,-1,1903,1240,47.316,-3.82708
686,-216,21.5172,6.19458,0,0,0,0,0,0,0,-1,1910,1240,21.5172,-6.19453
693,-216,49.5345,11.6556,0,0,0,0,0,0,0,-1,1917,1240,49.5346,-11.6557
700,-216,50.4457,11.0192,0,0,0,0,0,0,0,-1,1924,1240,50.4456,-11.0191
707,-216,50.5901,10.702,0.00374036,-0.00236285,8.62034e-05,0.00374158,-0.00236407,0.0141205,0.00355488,0.0467148,1931,1240,50.59,-10.7021
714,-216,50.6034,10.1224,0.00284575,-0.00167387,0.000222518,0.00285667,-0.0016848,0.0490756,0.00265096,0.0182136,1938,1240,50.6034,-10.1224
721,-216,50.5983,9.55273,0.00149916,-0.000691814,0.000747674,0.00172999,-0.00092264,0.299443,0.00155496,0.0127944,1945,1240,50.5983,-9.55278
728,-216,50.6124,8.94568,0.000626859,-0.00054816,0.00142835,0.00158381,-0.00150511,0.590284,0.00178358,0.0126622,1952,1240,50.6125,-8.94564
735,-216,50.6237,8.34827,-0.000177138,-0.000491569,0.00219295,0.00186422,-0.00253293,0.749614,0.00254846,0.0152669,1959,1240,50.6236,-8.34831
742,-216,50.5244,7.74146,-0.000925678,-0.000567203,0.00315516,0.00241381,-0.00390669,0.813771,0.00368292,0.0179921,1966,1240,50.5245,-7.74144
749,-216,50.4828,7.12,-0.00149423,-0.000789882,0.00428552,0.00315791,-0.00544202,0.826395,0.00502321,0.0139583,1973,1240,50.4828,-7.11994
756,-216,50.4537,6.53284,-0.00178483,-0.00118368,0.00565969,0.00418341,-0.00715193,0.811927,0.00661884,0.0119185,1980,1240,50.4537,-6.53284
763,-216,50.4264,6.04016,-0.00152692,-0.00212615,0.00750064,0.00568009,-0.00933316,0.765436,0.00875302,0.0219706,1987,1240,50.4264,-6.0402
770,-216,50.5437,5.78369,0,0,0,0,0,0,0,-1,1994,1240,50.5437,-5.78366
777,-216,50.7471,5.51611,0,0,0,0,0,0,0,-1,2001,1240,50.7471,-5.51616
784,-216,51.8208,-0.443726,0,0,0,0,0,0,0,-1,2008,1240,51.8208,0.443779
791,-216,55.1682,1.76636,0,0,0,0,0,0,0,-1,2015,1240,55.1682,-1.76635
798,-216,0,0,0,0,0,0,0,0,0,-1,2022,1240,0,0
805,-216,0,0,0,0,0,0,0,0,0,-1,2029,1240,0,0
812,-216,0,0,0,0,0,0,0,0,0,-1,2036,1240,0,0
-700,-223,0,0,0,0,0,0,0,0,0,-1,524,1247,0,0
-693,-223,0,0,0,0,0,0,0,0,0,-1,531,1247,0,0
-686,-223,0,0,0,0,0,0,0,0,0,-1,538,1247,0,0
-679,-223,0,0,0,0,0,0,0,0,0,-1,545,1247,0,0
-672,-223,-38.5218,-10.3995,-0.062465,0.0924613,0.0238731,0.0960566,-0.0660602,1.42132,0.0941307,0.0484147,552,1247,-38.5218,10.3996
-665,-223,-39.0092,-9.50659,-0.0513575,0.0787908,0.0202586,0.0818713,-0.054438,1.41989,0.0792277,0.0465215,559,1247,-39.0091,9.5066
-658,-223,-39.6435,-8.36633,-0.0412368,0.0662153,0.0166074,0.0687235,-0.043745,1.4209,0.0654654,0.048119,566,1247,-39.6435,8.36633
-651,-223,-40.2339,-7.32275,0,0,0,0,0,0,0,-1,573,1247,-40.234,7.32277
-644,-223,-45.9081,3.8446,0,0,0,0,0,0,0,-1,580,1247,-45.9081,-3.84463
-637,-223,-49.2922,0.294189,0,0,0,0,0,0,0,-1,587,1247,-49.2922,-0.294245
-630,-223,-33.6678,3.59265,0,0,0,0,0,0,0,-1,594,1247,-33.6678,-3.5926
-623,-223,-33.7155,4.5155,-0.00622277,0.0137607,0.00363974,0.014403,-0.00686505,1.39613,0.0125336,0.0342018,601,1247,-33.7155,-4.51546
-616,-223,-33.6563,5.09241,-0.00145246,0.00561018,0.00201299,0.00614363,-0.00198591,1.31175,0.00489393,0.0170503,608,1247,-33.6563,-5.09239
-609,-223,-33.6595,5.74744,0.00135545,0.00231653,0.000832151,0.00279692,0.000875054,1.04724,0.00165208,0.0129821,615,1247,-33.6595,-5.7475
-602,-223,-33.7043,6.33142,0.00145237,0.00100468,-0.000368357,0.00165956,0.000797491,-0.512374,0.000958391,0.0151947,622,1247,-33.7043,-6.33136
-595,-223,-33.6821,6.99854,0.000608696,-0.000159879,-0.000926402,0.00122735,-0.000778536,-0.588791,0.00116772,0.0214564,629,1247,-33.6821,-6.99849
-588,-223,-33.6801,7.68079,-0.000173666,-0.000443304,-0.00142975,0.00112761,-0.00174458,-0.73839,0.00167097,0.0259681,636,1247,-33.6801,-7.68084
-581,-223,-33.703,8.32251,0,0,0,0,0,0,0,-1,643,1247,-33.703,-8.32252
-574,-223,-33.9537,8.9386,0,0,0,0,0,0,0,-1,650,1247,-33.9537,-8.93864
-567,-223,-34.3083,9.70203,0,0,0,0,0,0,0,-1,657,1247,-34.3083,-9.70197
-560,-223,-31.8748,9.50732,0,0,0,0,0,0,0,-1,664,1247,-31.8748,-9.50735
-553,-223,-11.4025,4.14722,0,0,0,0,0,0,0,-1,671,1247,-11.4025,-4.14719
-546,-223,-26.9034,-0.148682,0,0,0,0,0,0,0,-1,678,1247,-26.9034,0.14867
-539,-223,-36.7405,0.35376,0,0,0,0,0,0,0,-1,685,1247,-36.7405,-0.353807
-532,-223,-47.6184,1.39844,0,0,0,0,0,0,0,-1,692,1247,-47.6184,-1.3984
-525,-223,-48.5613,0.868896,0,0,0,0,0,0,0,-1,699,1247,-48.5614,-0.868867
-518,-223,-48.7949,1.06567,0,0,0,0,0,0,0,-1,706,1247,-48.7949,-1.06573
-511,-223,-48.7365,1.01013,-0.00432437,-0.00557219,0.00336068,-0.00153017,-0.00836638,0.693618,0.00514396,0.0393622,713,1247,-48.7365,-1.01015
-504,-223,-48.7064,1.05322,-0.000837183,-0.00710023,0.00397695,0.00109317,-0.00903058,0.451887,0.0064159,0.0398407,720,1247,-48.7064,-1.05316
-497,-223,0,0,0,0,0,0,0,0,0,-1,727,1247,0,0
-490,-223,0,0,0,0,0,0,0,0,0,-1,734,1247,0,0
-483,-223,0,0,0,0,0,0,0,0,0,-1,741,1247,0,0
-476,-223,0,0,0,0,0,0,0,0,0,-1,748,1247,0,0
-469,-223,0,0,0,0,0,0,0,0,0,-1,755,1247,0,0
-462,-223,0,0,0,0,0,0,0,0,0,-1,762,1247,0,0
-455,-223,0,0,0,0,0,0,0,0,0,-1,769,1247,0,0
-448,-223,0,0,0,0,0,0,0,0,0,-1,776,1247,0,0
-441,-223,0,0,0,0,0,0,0,0,0,-1,783,1247,0,0
-434,-223,0,0,0,0,0,0,0,0,0,-1,790,1247,0,0
-427,-223,0,0,0,0,0,0,0,0,0,-1,797,1247,0,0
-420,-223,0,0,0,0,0,0,0,0,0,-1,804,1247,0,0
-413,-223,0,0,0,0,0,0,0,0,0,-1,811,1247,0,0
-406,-223,0,0,0,0,0,0,0,0,0,-1,818,1247,0,0
-399,-223,0,0,0,0,0,0,0,0,0,-1,825,1247,0,0
-392,-223,0,0,0,0,0,0,0,0,0,-1,832,1247,0,0
-385,-223,0,0,0,0,0,0,0,0,0,-1,839,1247,0,0
-378,-223,0,0,0,0,0,0,0,0,0,-1,846,1247,0,0
-371,-223,0,0,0,0,0,0,0,0,0,-1,853,1247,0,0
-364,-223,0,0,0,0,0,0,0,0,0,-1,860,1247,0,0
-357,-223,0,0,0,0,0,0,0,0,0,-1,867,1247,0,0
-350,-223,0,0,0,0,0,0,0,0,0,-1,874,1247,0,0
-343,-223,0,0,0,0,0,0,0,0,0,-1,881,1247,0,0
-336,-223,0,0,0,0,0,0,0,0,0,-1,888,1247,0,0
-329,-223,0,0,0,0,0,0,0,0,0,-1,895,1247,0,0
-322,-223,0,0,0,0,0,0,0,0,0,-1,902,1247,0,0
-315,-223,0,0,0,0,0,0,0,0,0,-1,909,1247,0,0
-308,-223,0,0,0,0,0,0,0,0,0,-1,916,1247,0,0
-301,-223,0,0,0,0,0,0,0,0,0,-1,923,1247,0,0
-294,-223,0,0,0,0,0,0,0,0,0,-1,930,1247,0,0
-287,-223,0,0,0,0,0,0,0,0,0,-1,937,1247,0,0
-280,-223,0,0,0,0,0,0,0,0,0,-1,944,1247,0,0
-273,-223,0,0,0,0,0,0,0,0,0,-1,951,1247,0,0
-266,-223,0,0,0,0,0,0,0,0,0,-1,958,1247,0,0
-259,-223,0,0,0,0,0,0,0,0,0,-1,965,1247,0,0
-252,-223,0,0,0,0,0,0,0,0,0,-1,972,1247,0,0
-245,-223,0,0,0,0,0,0,0,0,0,-1,979,1247,0,0
-238,-223,0,0,0,0,0,0,0,0,0,-1,986,1247,0,0
-231,-223,0,0,0,0,0,0,0,0,0,-1,993,1247,0,0
-224,-223,0,0,0,0,0,0,0,0,0,-1,1000,1247,0,0
-217,-223,0,0,0,0,0,0,0,0,0,-1,1007,1247,0,0
-210,-223,0,0,0,0,0,0,0,0,0,-1,1014,1247,0,0
-203,-223,0,0,0,0,0,0,0,0,0,-1,1021,1247,0,0
-196,-223,0,0,0,0,0,0,0,0,0,-1,1028,1247,0,0
-189,-223,0,0,0,0,0,0,0,0,0,-1,1035,1247,0,0
-182,-223,0,0,0,0,0,0,0,0,0,-1,1042,1247,0,0
-175,-223,0,0,0,0,0,0,0,0,0,-1,1049,1247,0,0
-168,-223,0,0,0,0,0,0,0,0,0,-1,1056,1247,0,0
-161,-223,0,0,0,0,0,0,0,0,0,-1,1063,1247,0,0
-154,-223,0,0,0,0,0,0,0,0,0,-1,1070,1247,0,0
-147,-223,0,0,0,0,0,0,0,0,0,-1,1077,1247,0,0
-140,-223,0,0,0,0,0,0,0,0,0,-1,1084,1247,0,0
-133,-223,0,0,0,0,0,0,0,0,0,-1,1091,1247,0,0
-126,-223,0,0,0,0,0,0,0,0,0,-1,1098,1247,0,0
-119,-223,0,0,0,0,0,0,0,0,0,-1,1105,1247,0,0
-112,-223,0,0,0,0,0,0,0,0,0,-1,1112,1247,0,0
-105,-223,0,0,0,0,0,0,0,0,0,-1,1119,1247,0,0
-98,-223,0,0,0,0,0,0,0,0,0,-1,1126,1247,0,0
-91,-223,0,0,0,0,0,0,0,0,0,-1,1133,1247,0,0
-84,-223,0,0,0,0,0,0,0,0,0,-1,1140,1247,0,0
-77,-223,0,0,0,0,0,0,0,0,0,-1,1147,1247,0,0
-70,-223,0,0,0,0,0,0,0,0,0,-1,1154,1247,0,0
-63,-223,0,0,0,0,0,0,0,0,0,-1,1161,1247,0,0
-56,-223,0,0,0,0,0,0,0,0,0,-1,1168,1247,0,0
-49,-223,0,0,0,0,0,0,0,0,0,-1,1175,1247,0,0
-42,-223,0,0,0,0,0,0,0,0,0,-1,1182,1247,0,0
-35,-223,0,0,0,0,0,0,0,0,0,-1,1189,1247,0,0
-28,-223,0,0,0,0,0,0,0,0,0,-1,1196,1247,0,0
-21,-223,0,0,0,0,0,0,0,0,0,-1,1203,1247,0,0
-14,-223,0,0,0,0,0,0,0,0,0,-1,1210,1247,0,0
-7,-223,0,0,0,0,0,0,0,0,0,-1,1217,1247,0,0
0,-223,0,0,0,0,0,0,0,0,0,-1,1224,1247,0,0
7,-223,0,0,0,0,0,0,0,0,0,-1,1231,1247,0,0
14,-223,0,0,0,0,0,0,0,0,0,-1,1238,1247,0,0
21,-223,0,0,0,0,0,0,0,0,0,-1,1245,1247,0,0
28,-223,0,0,0,0,0,0,0,0,0,-1,1252,1247,0,0
35,-223,0,0,0,0,0,0,0,0,0,-1,1259,1247,0,0
42,-223,0,0,0,0,0,0,0,0,0,-1,1266,1247,0,0
49,-223,0,0,0,0,0,0,0,0,0,-1,1273,1247,0,0
56,-223,0,0,0,0,0,0,0,0,0,-1,1280,1247,0,0
63,-223,0,0,0,0,0,0,0,0,0,-1,1287,1247,0,0
70,-223,0,0,0,0,0,0,0,0,0,-1,1294,1247,0,0
77,-223,0,0,0,0,0,0,0,0,0,-1,1301,1247,0,0
84,-223,0,0,0,0,0,0,0,0,0,-1,1308,1247,0,0
91,-223,0,0,0,0,0,0,0,0,0,-1,1315,1247,0,0
98,-223,0,0,0,0,0,0,0,0,0,-1,1322,1247,0,0
105,-223,0,0,0,0,0,0,0,0,0,-1,1329,1247,0,0
112,-223,0,0,0,0,0,0,0,0,0,-1,1336,1247,0,0
119,-223,0,0,0,0,0,0,0,0,0,-1,1343,1247,0,0
126,-223,0,0,0,0,0,0,0,0,0,-1,1350,1247,0,0
133,-223,0,0,0,0,0,0,0,0,0,-1,1357,1247,0,0
140,-223,0,0,0,0,0,0,0,0,0,-1,1364,1247,0,0
147,-223,0,0,0,0,0,0,0,0,0,-1,1371,1247,0,0
154,-223,0,0,0,0,0,0,0,0,0,-1,1378,1247,0,0
161,-223,0,0,0,0,0,0,0,0,0,-1,1385,1247,0,0
168,-223,0,0,0,0,0,0,0,0,0,-1,1392,1247,0,0
175,-223,0,0,0,0,0,0,0,0,0,-1,1399,1247,0,0
182,-223,0,0,0,0,0,0,0,0,0,-1,1406,1247,0,0
189,-223,0,0,0,0,0,0,0,0,0,-1,1413,1247,0,0
196,-223,0,0,0,0,0,0,0,0,0,-1,1420,1247,0,0
203,-223,0,0,0,0,0,0,0,0,0,-1,1427,1247,0,0
210,-223,0,0,0,0,0,0,0,0,0,-1,1434,1247,0,0
217,-223,0,0,0,0,0,0,0,0,0,-1,1441,1247,0,0
224,-223,0,0,0,0,0,0,0,0,0,-1,1448,1247,0,0
231,-223,0,0,0,0,0,0,0,0,0,-1,1455,1247,0,0
238,-223,0,0,0,0,0,0,0,0,0,-1,1462,1247,0,0
245,-223,0,0,0,0,0,0,0,0,0,-1,1469,1247,0,0
252,-223,0,0,0,0,0,0,0,0,0,-1,1476,1247,0,0
259,-223,0,0,0,0,0,0,0,0,0,-1,1483,1247,0,0
266,-223,0,0,0,0,0,0,0,0,0,-1,1490,1247,0,0
273,-223,0,0,0,0,0,0,0,0,0,-1,1497,1247,0,0
280,-223,0,0,0,0,0,0,0,0,0,-1,1504,1247,0,0
287,-223,0,0,0,0,0,0,0,0,0,-1,1511,1247,0,0
294,-223,0,0,0,0,0,0,0,0,0,-1,1518,1247,0,0
301,-223,0,0,0,0,0,0,0,0,0,-1,1525,1247,0,0
308,-223,0,0,0,0,0,0,0,0,0,-1,1532,1247,0,0
315,-223,0,0,0,0,0,0,0,0,0,-1,1539,1247,0,0
322,-223,0,0,0,0,0,0,0,0,0,-1,1546,1247,0,0
329,-223,0,0,0,0,0,0,0,0,0,-1,1553,1247,0,0
336,-223,0,0,0,0,0,0,0,0,0,-1,1560,1247,0,0
343,-223,0,0,0,0,0,0,0,0,0,-1,1567,1247,0,0
350,-223,0,0,0,0,0,0,0,0,0,-1,1574,1247,0,0
357,-223,0,0,0,0,0,0,0,0,0,-1,1581,1247,0,0
364,-223,0,0,0,0,0,0,0,0,0,-1,1588,1247,0,0
371,-223,0,0,0,0,0,0,0,0,0,-1,1595,1247,0,0
378,-223,0,0,0,0,0,0,0,0,0,-1,1602,1247,0,0
385,-223,0,0,0,0,0,0,0,0,0,-1,1609,1247,0,0
392,-223,0,0,0,0,0,0,0,0,0,-1,1616,1247,0,0
399,-223,0,0,0,0,0,0,0,0,0,-1,1623,1247,0,0
406,-223,0,0,0,0,0,0,0,0,0,-1,1630,1247,0,0
413,-223,0,0,0,0,0,0,0,0,0,-1,1637,1247,0,0
420,-223,0,0,0,0,0,0,0,0,0,-1,1644,1247,0,0
427,-223,0,0,0,0,0,0,0,0,0,-1,1651,1247,0,0
434,-223,0,0,0,0,0,0,0,0,0,-1,1658,1247,0,0
441,-223,0,0,0,0,0,0,0,0,0,-1,1665,1247,0,0
448,-223,0,0,0,0,0,0,0,0,0,-1,1672,1247,0,0
455,-223,0,0,0,0,0,0,0,0,0,-1,1679,1247,0,0
462,-223,0,0,0,0,0,0,0,0,0,-1,1686,1247,0,0
469,-223,0,0,0,0,0,0,0,0,0,-1,1693,1247,0,0
476,-223,0,0,0,0,0,0,0,0,0,-1,1700,1247,0,0
483,-223,0,0,0,0,0,0,0,0,0,-1,1707,1247,0,0
490,-223,0,0,0,0,0,0,0,0,0,-1,1714,1247,0,0
497,-223,0,0,0,0,0,0,0,0,0,-1,1721,1247,0,0
504,-223,0,0,0,0,0,0,0,0,0,-1,1728,1247,0,0
511,-223,0,0,0,0,0,0,0,0,0,-1,1735,1247,0,0
518,-223,0,0,0,0,0,0,0,0,0,-1,1742,1247,0,0
525,-223,0,0,0,0,0,0,0,0,0,-1,1749,1247,0,0
532,-223,0,0,0,0,0,0,0,0,0,-1,1756,1247,0,0
539,-223,0,0,0,0,0,0,0,0,0,-1,1763,1247,0,0
546,-223,0,0,0,0,0,0,0,0,0,-1,1770,1247,0,0
553,-223,0,0,0,0,0,0,0,0,0,-1,1777,1247,0,0
560,-223,0,0,0,0,0,0,0,0,0,-1,1784,1247,0,0
567,-223,0,0,0,0,0,0,0,0,0,-1,1791,1247,0,0
574,-223,0,0,0,0,0,0,0,0,0,-1,1798,1247,0,0
581,-223,0,0,0,0,0,0,0,0,0,-1,1805,1247,0,0
588,-223,0,0,0,0,0,0,0,0,0,-1,1812,1247,0,0
595,-223,0,0,0,0,0,0,0,0,0,-1,1819,1247,0,0
602,-223,0,0,0,0,0,0,0,0,0,-1,1826,1247,0,0
609,-223,0,0,0,0,0,0,0,0,0,-1,1833,1247,0,0
616,-223,0,0,0,0,0,0,0,0,0,-1,1840,1247,0,0
623,-223,64.5813,2.74524,-0.00147778,0.00327193,-0.00148554,0.00369828,-0.00190414,-1.29131,0.00328938,0.0368177,1847,1247,64.5812,-2.7452
630,-223,64.5685,2.56323,-0.00152226,0.000582316,-0.00169492,0.00152503,-0.00246498,-1.0632,0.00232485,0.0345266,1854,1247,64.5685,-2.56322
637,-223,64.6023,2.54321,-0.000868051,-0.00219177,-0.00185922,0.000443608,-0.00350343,-0.614399,0.00249666,0.0270046,1861,1247,64.6023,-2.54316
644,-223,64.6276,2.57483,0.000351748,-0.00388624,-0.00208437,0.00120508,-0.00473957,-0.388581,0.00362873,0.0231658,1868,1247,64.6276,-2.57486
651,-223,64.6659,2.60583,0.00126583,-0.00401201,-0.00200604,0.00194174,-0.00468792,-0.324991,0.00393558,0.0311694,1875,1247,64.6659,-2.60579
658,-223,64.7072,2.65381,0,0,0,0,0,0,0,-1,1882,1247,64.7071,-2.65382
665,-223,65.4794,3.50818,0,0,0,0,0,0,0,-1,1889,1247,65.4794,-3.50823
672,-223,56.4625,2.72424,0,0,0,0,0,0,0,-1,1896,1247,56.4626,-2.72418
679,-223,43.2783,2.46973,0,0,0,0,0,0,0,-1,1903,1247,43.2784,-2.46978
686,-223,40.7926,10.0316,0,0,0,0,0,0,0,-1,1910,1247,40.7926,-10.0316
693,-223,48.9896,11.6594,0,0,0,0,0,0,0,-1,1917,1247,48.9897,-11.6594
700,-223,49.7894,11.1378,0,0,0,0,0,0,0,-1,1924,1247,49.7895,-11.1379
707,-223,50.0863,10.6698,0.00331389,-0.00239401,0.000105722,0.00331585,-0.00239597,0.0185136,0.00331195,0.0414514,1931,1247,50.0864,-10.6698
714,-223,50.0341,10.1511,0.00224846,-0.00171192,0.000380123,0.00228461,-0.00174808,0.0948278,0.00233513,0.0142492,1938,1247,50.034,-10.1512
721,-223,50.0066,9.5686,0.000800482,-0.000783143,0.00101993,0.00129988,-0.00128254,0.455325,0.00149097,0.0133125,1945,1247,50.0066,-9.56857
728,-223,49.9783,8.96667,-0.000260778,-0.000610548,0.00178595,0.00135883,-0.00223016,0.736592,0.00209236,0.0176476,1952,1247,49.9782,-8.96667
735,-223,49.9502,8.40137,-0.00127426,-0.00052577,0.00263813,0.00176453,-0.00356455,0.855858,0.0031347,0.0185977,1959,1247,49.9502,-8.40139
742,-223,49.8677,7.83203,-0.00226773,-0.000539301,0.00366602,0.00236299,-0.00517002,0.901153,0.0044487,0.0171942,1966,1247,49.8677,-7.83208
749,-223,49.8464,7.16138,-0.00316025,-0.000655122,0.00485837,0.00310955,-0.00692492,0.911559,0.00593136,0.0138382,1973,1247,49.8465,-7.16136
756,-223,49.8052,6.53699,-0.00393702,-0.000874326,0.00634918,0.00412557,-0.00893692,0.903732,0.00771027,0.0157333,1980,1247,49.8052,-6.537
763,-223,49.8027,6.06311,-0.00444031,-0.00153716,0.00837792,0.00551401,-0.0114915,0.871177,0.0100183,0.0226321,1987,1247,49.8028,-6.06307
770,-223,50.0999,5.58643,0,0,0,0,0,0,0,-1,1994,1247,50.0999,-5.58646
777,-223,48.48,5.08801,0,0,0,0,0,0,0,-1,2001,1247,48.4801,-5.08798
784,-223,54.1208,-0.293457,0,0,0,0,0,0,0,-1,2008,1247,54.1208,0.293477
791,-223,34.7136,2.92554,0,0,0,0,0,0,0,-1,2015,1247,34.7137,-2.92555
798,-223,0,0,0,0,0,0,0,0,0,-1,2022,1247,0,0
805,-223,0,0,0,0,0,0,0,0,0,-1,2029,1247,0,0
812,-223,0,0,0,0,0,0,0,0,0,-1,2036,1247,0,0
-700,-230,0,0,0,0,0,0,0,0,0,-1,524,1254,0,0
-693,-230,0,0,0,0,0,0,0,0,0,-1,531,1254,0,0
-686,-230,0,0,0,0,0,0,0,0,0,-1,538,1254,0,0
-679,-230,0,0,0,0,0,0,0,0,0,-1,545,1254,0,0
-672,-230,-37.5132,-11.2932,-0.0730474,0.0920293,0.0299913,0.0973093,-0.0783274,1.39653,0.101601,0.0494305,552,1254,-37.5132,11.2932
-665,-230,-38.168,-9.9397,-0.0582096,0.0797326,0.02525,0.0842093,-0.0626863,1.39533,0.0851131,0.0465993,559,1254,-38.168,9.93971
-658,-230,-38.8468,-8.48303,-0.0458052,0.0675793,0.0208079,0.0712773,-0.0495032,1.39491,0.0701094,0.0476987,566,1254,-38.8468,8.48304
-651,-230,-39.3627,-7.38525,0,0,0,0,0,0,0,-1,573,1254,-39.3627,7.38529
-644,-230,-48.2715,0.872925,0,0,0,0,0,0,0,-1,580,1254,-48.2715,-0.87288
-637,-230,-49.1636,-0.158325,0,0,0,0,0,0,0,-1,587,1254,-49.1636,0.158288
-630,-230,-33.4716,3.54053,0,0,0,0,0,0,0,-1,594,1254,-33.4716,-3.54048
-623,-230,-33.1471,4.40527,-0.00619626,0.0147714,0.00560777,0.016177,-0.00760182,1.32521,0.0140231,0.0387577,601,1254,-33.1471,-4.40529
-616,-230,-32.9662,5.10339,-0.000805861,0.00651131,0.00355254,0.00795231,-0.00224686,1.18545,0.00618799,0.0183527,608,1254,-32.9663,-5.10339
-609,-230,-32.9888,5.74927,0.00231694,0.00313179,0.0018563,0.00462486,0.000823876,0.893427,0.00284861,0.0132557,615,1254,-32.9888,-5.74921
-602,-230,-33.0304,6.36902,0.00239062,0.00164325,0.000354728,0.00253218,0.0015017,0.379688,0.00147037,0.0122819,622,1254,-33.0304,-6.36896
-595,-230,-33.0565,7.04346,0.00126963,0.000343934,-0.000462463,0.00146108,0.000152489,-0.392491,0.000927409,0.0197699,629,1254,-33.0565,-7.0435
-588,-230,-33.0743,7.72815,0.00031906,-0.000325129,-0.00119559,0.00123518,-0.00124125,-0.65382,0.00142977,0.0278805,636,1254,-33.0743,-7.72819
-581,-230,-33.1168,8.44971,-0.000466504,-0.000497075,-0.00149375,0.00101204,-0.00197562,-0.780282,0.00175457,0.0287455,643,1254,-33.1168,-8.4497
-574,-230,-33.1041,9.03552,-0.00131629,-0.000391723,-0.00112907,0.000366035,-0.00207405,-0.979706,0.00151948,0.0337426,650,1254,-33.1041,-9.03548
-567,-230,-33.1525,9.50256,-0.00148609,-0.000643213,-0.000909787,-6.19937e-05,-0.00206731,-1.0023,0.00135801,0.0466656,657,1254,-33.1525,-9.50255
-560,-230,-33.4293,9.87329,0,0,0,0,0,0,0,-1,664,1254,-33.4293,-9.87325
-553,-230,-13.1939,4.9718,0,0,0,0,0,0,0,-1,671,1254,-13.1939,-4.97175
-546,-230,-15.23,0.453979,0,0,0,0,0,0,0,-1,678,1254,-15.23,-0.453996
-539,-230,-25.8232,0.512817,0,0,0,0,0,0,0,-1,685,1254,-25.8232,-0.512878
-532,-230,-21.1644,1.52966,0,0,0,0,0,0,0,-1,692,1254,-21.1644,-1.52969
-525,-230,-29.4775,0.731445,0,0,0,0,0,0,0,-1,699,1254,-29.4775,-0.731432
-518,-230,-48.5223,0.799194,0,0,0,0,0,0,0,-1,706,1254,-48.5223,-0.799154
-511,-230,-48.7021,0.969727,-0.00544259,-0.00686809,0.00445953,-0.00163921,-0.0106715,0.706155,0.00663574,0.0427762,713,1254,-48.7021,-0.969671
-504,-230,-48.7952,1.08167,-0.00475775,-0.00860182,0.00561551,-0.000744452,-0.0126151,0.620511,0.00817324,0.0383594,720,1254,-48.7952,-1.08171
-497,-230,0,0,0,0,0,0,0,0,0,-1,727,1254,0,0
-490,-230,0,0,0,0,0,0,0,0,0,-1,734,1254,0,0
-483,-230,0,0,0,0,0,0,0,0,0,-1,741,1254,0,0
-476,-230,0,0,0,0,0,0,0,0,0,-1,748,1254,0,0
-469,-230,0,0,0,0,0,0,0,0,0,-1,755,1254,0,0
-462,-230,0,0,0,0,0,0,0,0,0,-1,762,1254,0,0
-455,-230,0,0,0,0,0,0,0,0,0,-1,769,1254,0,0
-448,-230,0,0,0,0,0,0,0,0,0,-1,776,1254,0,0
-441,-230,0,0,0,0,0,0,0,0,0,-1,783,1254,0,0
-434,-230,0,0,0,0,0,0,0,0,0,-1,790,1254,0,0
-427,-230,0,0,0,0,0,0,0,0,0,-1,797,1254,0,0
-420,-230,0,0,0,0,0,0,0,0,0,-1,804,1254,0,0
-413,-230,0,0,0,0,0,0,0,0,0,-1,811,1254,0,0
-406,-230,0,0,0,0,0,0,0,0,0,-1,818,1254,0,0
-399,-230,0,0,0,0,0,0,0,0,0,-1,825,1254,0,0
-392,-230,0,0,0,0,0,0,0,0,0,-1,832,1254,0,0
-385,-230,0,0,0,0,0,0,0,0,0,-1,839,1254,0,0
-378,-230,0,0,0,0,0,0,0,0,0,-1,846,1254,0,0
-371,-230,0,0,0,0,0,0,0,0,0,-1,853,1254,0,0
-364,-230,0,0,0,0,0,0,0,0,0,-1,860,1254,0,0
-357,-230,0,0,0,0,0,0,0,0,0,-1,867,1254,0,0
-350,-230,0,0,0,0,0,0,0,0,0,-1,874,1254,0,0
-343,-230,0,0,0,0,0,0,0,0,0,-1,881,1254,0,0
-336,-230,0,0,0,0,0,0,0,0,0,-1,888,1254,0,0
-329,-230,0,0,0,0,0,0,0,0,0,-1,895,1254,0,0
-322,-230,0,0,0,0,0,0,0,0,0,-1,902,1254,0,0
-315,-230,0,0,0,0,0,0,0,0,0,-1,909,1254,0,0
-308,-230,0,0,0,0,0,0,0,0,0,-1,916,1254,0,0
-301,-230,0,0,0,0,0,0,0,0,0,-1,923,1254,0,0
-294,-230,0,0,0,0,0,0,0,0,0,-1,930,1254,0,0
-287,-230,0,0,0,0,0,0,0,0,0,-1,937,1254,0,0
-280,-230,0,0,0,0,0,0,0,0,0,-1,944,1254,0,0
-273,-230,0,0,0,0,0,0,0,0,0,-1,951,1254,0,0
-266,-230,0,0,0,0,0,0,0,0,0,-1,958,1254,0,0
-259,-230,0,0,0,0,0,0,0,0,0,-1,965,1254,0,0
-252,-230,0,0,0,0,0,0,0,0,0,-1,972,1254,0,0
-245,-230,0,0,0,0,0,0,0,0,0,-1,979,1254,0,0
-238,-230,0,0,0,0,0,0,0,0,0,-1,986,1254,0,0
-231,-230,0,0,0,0,0,0,0,0,0,-1,993,1254,0,0
-224,-230,0,0,0,0,0,0,0,0,0,-1,1000,1254,0,0
-217,-230,0,0,0,0,0,0,0,0,0,-1,1007,1254,0,0
-210,-230,0,0,0,0,0,0,0,0,0,-1,1014,1254,0,0
-203,-230,0,0,0,0,0,0,0,0,0,-1,1021,1254,0,0
-196,-230,0,0,0,0,0,0,0,0,0,-1,1028,1254,0,0
-189,-230,0,0,0,0,0,0,0,0,0,-1,1035,1254,0,0
-182,-230,0,0,0,0,0,0,0,0,0,-1,1042,1254,0,0
-175,-230,0,0,0,0,0,0,0,0,0,-1,1049,1254,0,0
-168,-230,0,0,0,0,0,0,0,0,0,-1,1056,1254,0,0
-161,-230,0,0,0,0,0,0,0,0,0,-1,1063,1254,0,0
-154,-230,0,0,0,0,0,0,0,0,0,-1,1070,1254,0,0
-147,-230,0,0,0,0,0,0,0,0,0,-1,1077,1254,0,0
-140,-230,0,0,0,0,0,0,0,0,0,-1,1084,1254,0,0
-133,-230,0,0,0,0,0,0,0,0,0,-1,1091,1254,0,0
-126,-230,0,0,0,0,0,0,0,0,0,-1,1098,1254,0,0
-119,-230,0,0,0,0,0,0,0,0,0,-1,1105,1254,0,0
-112,-230,0,0,0,0,0,0,0,0,0,-1,1112,1254,0,0
-105,-230,0,0,0,0,0,0,0,0,0,-1,1119,1254,0,0
-98,-230,0,0,0,0,0,0,0,0,0,-1,1126,1254,0,0
-91,-230,0,0,0,0,0,0,0,0,0,-1,1133,1254,0,0
-84,-230,0,0,0,0,0,0,0,0,0,-1,1140,1254,0,0
-77,-230,0,0,0,0,0,0,0,0,0,-1,1147,1254,0,0
-70,-230,0,0,0,0,0,0,0,0,0,-1,1154,1254,0,0
-63,-230,0,0,0,0,0,0,0,0,0,-1,1161,1254,0,0
-56,-230,0,0,0,0,0,0,0,0,0,-1,1168,1254,0,0
-49,-230,0,0,0,0,0,0,0,0,0,-1,1175,1254,0,0
-42,-230,0,0,0,0,0,0,0,0,0,-1,1182,1254,0,0
-35,-230,0,0,0,0,0,0,0,0,0,-1,1189,1254,0,0
-28,-230,0,0,0,0,0,0,0,0,0,-1,1196,1254,0,0
-21,-230,0,0,0,0,0,0,0,0,0,-1,1203,1254,0,0
-14,-230,0,0,0,0,0,0,0,0,0,-1,1210,1254,0,0
-7,-230,0,0,0,0,0,0,0,0,0,-1,1217,1254,0,0
0,-230,0,0,0,0,0,0,0,0,0,-1,1224,1254,0,0
7,-230,0,0,0,0,0,0,0,0,0,-1,1231,1254,0,0
14,-230,0,0,0,0,0,0,0,0,0,-1,1238,1254,0,0
21,-230,0,0,0,0,0,0,0,0,0,-1,1245,1254,0,0
28,-230,0,0,0,0,0,0,0,0,0,-1,1252,1254,0,0
35,-230,0,0,0,0,0,0,0,0,0,-1,1259,1254,0,0
42,-230,0,0,0,0,0,0,0,0,0,-1,1266,1254,0,0
49,-230,0,0,0,0,0,0,0,0,0,-1,1273,1254,0,0
56,-230,0,0,0,0,0,0,0,0,0,-1,1280,1254,0,0
63,-230,0,0,0,0,0,0,0,0,0,-1,1287,1254,0,0
70,-230,0,0,0,0,0,0,0,0,0,-1,1294,1254,0,0
77,-230,0,0,0,0,0,0,0,0,0,-1,1301,1254,0,0
84,-230,0,0,0,0,0,0,0,0,0,-1,1308,1254,0,0
91,-230,0,0,0,0,0,0,0,0,0,-1,1315,1254,0,0
98,-230,0,0,0,0,0,0,0,0,0,-1,1322,1254,0,0
105,-230,0,0,0,0,0,0,0,0,0,-1,1329,1254,0,0
112,-230,0,0,0,0,0,0,0,0,0,-1,1336,1254,0,0
119,-230,0,0,0,0,0,0,0,0,0,-1,1343,1254,0,0
126,-230,0,0,0,0,0,0,0,0,0,-1,1350,1254,0,0
133,-230,0,0,0,0,0,0,0,0,0,-1,1357,1254,0,0
140,-230,0,0,0,0,0,0,0,0,0,-1,1364,1254,0,0
147,-230,0,0,0,0,0,0,0,0,0,-1,1371,1254,0,0
154,-230,0,0,0,0,0,0,0,0,0,-1,1378,1254,0,0
161,-230,0,0,0,0,0,0,0,0,0,-1,1385,1254,0,0
168,-230,0,0,0,0,0,0,0,0,0,-1,1392,1254,0,0
175,-230,0,0,0,0,0,0,0,0,0,-1,1399,1254,0,0
182,-230,0,0,0,0,0,0,0,0,0,-1,1406,1254,0,0
189,-230,0,0,0,0,0,0,0,0,0,-1,1413,1254,0,0
196,-230,0,0,0,0,0,0,0,0,0,-1,1420,1254,0,0
203,-230,0,0,0,0,0,0,0,0,0,-1,1427,1254,0,0
210,-230,0,0,0,0,0,0,0,0,0,-1,1434,1254,0,0
217,-230,0,0,0,0,0,0,0,0,0,-1,1441,1254,0,0
224,-230,0,0,0,0,0,0,0,0,0,-1,1448,1254,0,0
231,-230,0,0,0,0,0,0,0,0,0,-1,1455,1254,0,0
238,-230,0,0,0,0,0,0,0,0,0,-1,1462,1254,0,0
245,-230,0,0,0,0,0,0,0,0,0,-1,1469,1254,0,0
252,-230,0,0,0,0,0,0,0,0,0,-1,1476,1254,0,0
259,-230,0,0,0,0,0,0,0,0,0,-1,1483,1254,0,0
266,-230,0,0,0,0,0,0,0,0,0,-1,1490,1254,0,0
273,-230,0,0,0,0,0,0,0,0,0,-1,1497,1254,0,0
280,-230,0,0,0,0,0,0,0,0,0,-1,1504,1254,0,0
287,-230,0,0,0,0,0,0,0,0,0,-1,1511,1254,0,0
294,-230,0,0,0,0,0,0,0,0,0,-1,1518,1254,0,0
301,-230,0,0,0,0,0,0,0,0,0,-1,1525,1254,0,0
308,-230,0,0,0,0,0,0,0,0,0,-1,1532,1254,0,0
315,-230,0,0,0,0,0,0,0,0,0,-1,1539,1254,0,0
322,-230,0,0,0,0,0,0,0,0,0,-1,1546,1254,0,0
329,-230,0,0,0,0,0,0,0,0,0,-1,1553,1254,0,0
336,-230,0,0,0,0,0,0,0,0,0,-1,1560,1254,0,0
343,-230,0,0,0,0,0,0,0,0,0,-1,1567,1254,0,0
350,-230,0,0,0,0,0,0,0,0,0,-1,1574,1254,0,0
357,-230,0,0,0,0,0,0,0,0,0,-1,1581,1254,0,0
364,-230,0,0,0,0,0,0,0,0,0,-1,1588,1254,0,0
371,-230,0,0,0,0,0,0,0,0,0,-1,1595,1254,0,0
378,-230,0,0,0,0,0,0,0,0,0,-1,1602,1254,0,0
385,-230,0,0,0,0,0,0,0,0,0,-1,1609,1254,0,0
392,-230,0,0,0,0,0,0,0,0,0,-1,1616,1254,0,0
399,-230,0,0,0,0,0,0,0,0,0,-1,1623,1254,0,0
406,-230,0,0,0,0,0,0,0,0,0,-1,1630,1254,0,0
413,-230,0,0,0,0,0,0,0,0,0,-1,1637,1254,0,0
420,-230,0,0,0,0,0,0,0,0,0,-1,1644,1254,0,0
427,-230,0,0,0,0,0,0,0,0,0,-1,1651,1254,0,0
434,-230,0,0,0,0,0,0,0,0,0,-1,1658,1254,0,0
441,-230,0,0,0,0,0,0,0,0,0,-1,1665,1254,0,0
448,-230,0,0,0,0,0,0,0,0,0,-1,1672,1254,0,0
455,-230,0,0,0,0,0,0,0,0,0,-1,1679,1254,0,0
462,-230,0,0,0,0,0,0,0,0,0,-1,1686,1254,0,0
469,-230,0,0,0,0,0,0,0,0,0,-1,1693,1254,0,0
476,-230,0,0,0,0,0,0,0,0,0,-1,1700,1254,0,0
483,-230,0,0,0,0,0,0,0,0,0,-1,1707,1254,0,0
490,-230,0,0,0,0,0,0,0,0,0,-1,1714,1254,0,0
497,-230,0,0,0,0,0,0,0,0,0,-1,1721,1254,0,0
504,-230,0,0,0,0,0,0,0,0,0,-1,1728,1254,0,0
511,-230,0,0,0,0,0,0,0,0,0,-1,1735,1254,0,0
518,-230,0,0,0,0,0,0,0,0,0,-1,1742,1254,0,0
525,-230,0,0,0,0,0,0,0,0,0,-1,1749,1254,0,0
532,-230,0,0,0,0,0,0,0,0,0,-1,1756,1254,0,0
539,-230,0,0,0,0,0,0,0,0,0,-1,1763,1254,0,0
546,-230,0,0,0,0,0,0,0,0,0,-1,1770,1254,0,0
553,-230,0,0,0,0,0,0,0,0,0,-1,1777,1254,0,0
560,-230,0,0,0,0,0,0,0,0,0,-1,1784,1254,0,0
567,-230,0,0,0,0,0,0,0,0,0,-1,1791,1254,0,0
574,-230,0,0,0,0,0,0,0,0,0,-1,1798,1254,0,0
581,-230,0,0,0,0,0,0,0,0,0,-1,1805,1254,0,0
588,-230,0,0,0,0,0,0,0,0,0,-1,1812,1254,0,0
595,-230,0,0,0,0,0,0,0,0,0,-1,1819,1254,0,0
602,-230,0,0,0,0,0,0,0,0,0,-1,1826,1254,0,0
609,-230,0,0,0,0,0,0,0,0,0,-1,1833,1254,0,0
616,-230,64.748,2.53333,0.000745051,0.00511033,-0.00057448,0.00518467,0.000670714,-1.44211,0.00325598,0.0332375,1840,1254,64.748,-2.53327
623,-230,64.7539,2.61194,-0.000792388,0.00211084,-0.00102089,0.00243389,-0.00111543,-1.26433,0.0020958,0.0334181,1847,1254,64.7539,-2.61195
630,-230,64.6666,2.60547,-0.00146244,-0.000965627,-0.0014811,0.000287751,-0.00271581,-0.868483,0.00191368,0.0308276,1854,1254,64.6666,-2.60545
637,-230,64.5519,2.60193,-0.00136067,-0.00384243,-0.00184695,-0.000376469,-0.00482663,-0.489606,0.00309989,0.0264238,1861,1254,64.5519,-2.60192
644,-230,64.5458,2.55579,-0.000466282,-0.00481789,-0.00213973,0.000409562,-0.00569373,-0.388519,0.00393944,0.0228192,1868,1254,64.5457,-2.55574
651,-230,64.5618,2.53906,0,0,0,0,0,0,0,-1,1875,1254,64.5618,-2.53901
658,-230,64.0422,2.51892,0,0,0,0,0,0,0,-1,1882,1254,64.0422,-2.51896
665,-230,56.2585,2.51587,0,0,0,0,0,0,0,-1,1889,1254,56.2586,-2.51586
672,-230,43.0962,2.78699,0,0,0,0,0,0,0,-1,1896,1254,43.0962,-2.78698
679,-230,27.9967,2.37708,0,0,0,0,0,0,0,-1,1903,1254,27.9967,-2.3771
686,-230,40.8854,10.1788,0,0,0,0,0,0,0,-1,1910,1254,40.8853,-10.1788
693,-230,49.8014,12.0688,0,0,0,0,0,0,0,-1,1917,1254,49.8014,-12.0688
700,-230,49.5524,11.4269,0.00372395,-0.00281528,-3.7228e-05,0.00372416,-0.00281549,-0.00569278,0.0037878,0.0463298,1924,1254,49.5524,-11.4269
707,-230,49.4386,10.7816,0.00285381,-0.00231667,0.000150331,0.00285818,-0.00232104,0.0290422,0.00299558,0.0236138,1931,1254,49.4386,-10.7817
714,-230,49.3842,10.1906,0.00156113,-0.00163106,0.000536332,0.00164883,-0.00171876,0.162087,0.00194442,0.0137738,1938,1254,49.3841,-10.1906
721,-230,49.3616,9.58411,3.11471e-05,-0.000771082,0.0012605,0.000952812,-0.00169275,0.631355,0.0015472,0.0130553,1945,1254,49.3616,-9.58417
728,-230,49.3063,9.0177,-0.00114951,-0.000609916,0.00208263,0.00122032,-0.00297975,0.849813,0.00249482,0.0144658,1952,1254,49.3062,-9.01776
735,-230,49.2886,8.43762,-0.00229111,-0.000541178,0.00300268,0.00171142,-0.0045437,0.92717,0.00373276,0.0151818,1959,1254,49.2886,-8.4376
742,-230,49.2566,7.81372,-0.00341111,-0.00056029,0.00408665,0.00234241,-0.00631381,0.953199,0.00517002,0.0114847,1966,1254,49.2566,-7.81367
749,-230,49.2389,7.1759,-0.00444904,-0.000670828,0.00533398,0.00309869,-0.00821856,0.955588,0.00675322,0.0109445,1973,1254,49.2388,-7.17584
756,-230,49.2002,6.58167,-0.00541828,-0.000884546,0.00692362,0.00413386,-0.0104367,0.943603,0.0086707,0.0165658,1980,1254,49.2002,-6.58164
763,-230,49.2169,6.0293,-0.00616761,-0.00154322,0.00908188,0.00551618,-0.013227,0.910047,0.0111224,0.0387274,1987,1254,49.2169,-6.0293
770,-230,49.5894,5.50476,0,0,0,0,0,0,0,-1,1994,1254,49.5894,-5.50471
777,-230,41.8693,3.74707,0,0,0,0,0,0,0,-1,2001,1254,41.8692,-3.74713
784,-230,35.8896,1.80334,0,0,0,0,0,0,0,-1,2008,1254,35.8897,-1.80338
791,-230,35.6028,2.20642,0,0,0,0,0,0,0,-1,2015,1254,35.6027,-2.2064
798,-230,0,0,0,0,0,0,0,0,0,-1,2022,1254,0,0
805,-230,0,0,0,0,0,0,0,0,0,-1,2029,1254,0,0
812,-230,0,0,0,0,0,0,0,0,0,-1,2036,1254,0,0
-700,-237,0,0,0,0,0,0,0,0,0,-1,524,1261,0,0
-693,-237,0,0,0,0,0,0,0,0,0,-1,531,1261,0,0
-686,-237,0,0,0,0,0,0,0,0,0,-1,538,1261,0,0
-679,-237,0,0,0,0,0,0,0,0,0,-1,545,1261,0,0
-672,-237,-36.6405,-12.5112,0,0,0,0,0,0,0,-1,552,1261,-36.6405,12.5113
-665,-237,-37.1436,-10.5648,0,0,0,0,0,0,0,-1,559,1261,-37.1436,10.5649
-658,-237,-37.8344,-8.67175,0,0,0,0,0,0,0,-1,566,1261,-37.8344,8.67179
-651,-237,-46.9487,1.65137,0,0,0,0,0,0,0,-1,573,1261,-46.9487,-1.65142
-644,-237,-47.6604,0.785034,0,0,0,0,0,0,0,-1,580,1261,-47.6604,-0.785034
-637,-237,-48.9447,-0.563843,0,0,0,0,0,0,0,-1,587,1261,-48.9447,0.56387
-630,-237,-32.4551,3.45691,0,0,0,0,0,0,0,-1,594,1261,-32.4551,-3.45685
-623,-237,-32.2806,4.29626,-0.00636225,0.0157544,0.00747634,0.0180446,-0.00865242,1.27355,0.0157283,0.0367072,601,1261,-32.2806,-4.29624
-616,-237,-32.2397,5.09485,-0.000290225,0.00738447,0.00496738,0.00982408,-0.00272983,1.11427,0.00762401,0.0154982,608,1261,-32.2397,-5.09479
-609,-237,-32.2962,5.73389,0.00312578,0.00395442,0.00282165,0.00639201,0.000688192,0.858295,0.00405147,0.0174159,615,1261,-32.2962,-5.73389
-602,-237,-32.3637,6.39075,0.0031877,0.00230159,0.0010903,0.00392153,0.00156777,0.59241,0.0022792,0.0128882,622,1261,-32.3637,-6.39077
-595,-237,-32.4103,7.06458,0.00189848,0.000897773,0.00010698,0.00190979,0.000886464,0.105319,0.00110356,0.0161151,629,1261,-32.4103,-7.06461
-588,-237,-32.4417,7.73853,0.000833188,-0.000105893,-0.000791944,0.00128432,-0.000557029,-0.517808,0.0010904,0.0270843,636,1261,-32.4417,-7.73847
-581,-237,-32.4694,8.38281,-9.72051e-05,-0.000729043,-0.00132025,0.000944401,-0.00177065,-0.667963,0.00159155,0.0248185,643,1261,-32.4694,-8.3828
-574,-237,-32.4062,9.02197,-0.00105114,-0.000846978,-0.00122735,0.000282534,-0.00218065,-0.826889,0.00155652,0.0248376,650,1261,-32.4062,-9.02199
-567,-237,-32.4712,9.68115,-0.00120652,-0.00115741,-0.0010836,-9.80888e-05,-0.00226584,-0.796728,0.00147895,0.0399333,657,1261,-32.4712,-9.68115
-560,-237,-32.4574,10.0187,0,0,0,0,0,0,0,-1,664,1261,-32.4574,-10.0186
-553,-237,-20.6102,6.92139,0,0,0,0,0,0,0,-1,671,1261,-20.6102,-6.92138
-546,-237,-11.192,1.14014,0,0,0,0,0,0,0,-1,678,1261,-11.192,-1.14011
-539,-237,-16.512,1.53455,0,0,0,0,0,0,0,-1,685,1261,-16.512,-1.53457
-532,-237,-29.7025,1.23621,0,0,0,0,0,0,0,-1,692,1261,-29.7025,-1.23618
-525,-237,-47.2925,0.590942,0,0,0,0,0,0,0,-1,699,1261,-47.2925,-0.590989
-518,-237,-48.2897,0.765869,0,0,0,0,0,0,0,-1,706,1261,-48.2897,-0.765854
-511,-237,-48.5864,1.00098,-0.00606127,-0.00779993,0.00577111,-0.00109438,-0.0127668,0.710643,0.00817088,0.0498468,713,1261,-48.5864,-1.00095
-504,-237,-48.8054,1.14612,-0.00708178,-0.00966407,0.00742103,-0.000840418,-0.0159054,0.699268,0.0103349,0.0438479,720,1261,-48.8055,-1.14607
-497,-237,-48.8445,1.26184,-0.00586488,-0.0115898,0.00899787,0.000714878,-0.0181695,0.631397,0.0123582,0.0470012,727,1261,-48.8445,-1.26188
-490,-237,0,0,0,0,0,0,0,0,0,-1,734,1261,0,0
-483,-237,0,0,0,0,0,0,0,0,0,-1,741,1261,0,0
-476,-237,0,0,0,0,0,0,0,0,0,-1,748,1261,0,0
-469,-237,0,0,0,0,0,0,0,0,0,-1,755,1261,0,0
-462,-237,0,0,0,0,0,0,0,0,0,-1,762,1261,0,0
-455,-237,0,0,0,0,0,0,0,0,0,-1,769,1261,0,0
-448,-237,0,0,0,0,0,0,0,0,0,-1,776,1261,0,0
-441,-237,0,0,0,0,0,0,0,0,0,-1,783,1261,0,0
-434,-237,0,0,0,0,0,0,0,0,0,-1,790,1261,0,0
-427,-237,0,0,0,0,0,0,0,0,0,-1,797,1261,0,0
-420,-237,0,0,0,0,0,0,0,0,0,-1,804,1261,0,0
-413,-237,0,0,0,0,0,0,0,0,0,-1,811,1261,0,0
-406,-237,0,0,0,0,0,0,0,0,0,-1,818,1261,0,0
-399,-237,0,0,0,0,0,0,0,0,0,-1,825,1261,0,0
-392,-237,0,0,0,0,0,0,0,0,0,-1,832,1261,0,0
-385,-237,0,0,0,0,0,0,0,0,0,-1,839,1261,0,0
-378,-237,0,0,0,0,0,0,0,0,0,-1,846,1261,0,0
-371,-237,0,0,0,0,0,0,0,0,0,-1,853,1261,0,0
-364,-237,0,0,0,0,0,0,0,0,0,-1,860,1261,0,0
-357,-237,0,0,0,0,0,0,0,0,0,-1,867,1261,0,0
-350,-237,0,0,0,0,0,0,0,0,0,-1,874,1261,0,0
-343,-237,0,0,0,0,0,0,0,0,0,-1,881,1261,0,0
-336,-237,0,0,0,0,0,0,0,0,0,-1,888,1261,0,0
-329,-237,0,0,0,0,0,0,0,0,0,-1,895,1261,0,0
-322,-237,0,0,0,0,0,0,0,0,0,-1,902,1261,0,0
-315,-237,0,0,0,0,0,0,0,0,0,-1,909,1261,0,0
-308,-237,0,0,0,0,0,0,0,0,0,-1,916,1261,0,0
-301,-237,0,0,0,0,0,0,0,0,0,-1,923,1261,0,0
-294,-237,0,0,0,0,0,0,0,0,0,-1,930,1261,0,0
-287,-237,0,0,0,0,0,0,0,0,0,-1,937,1261,0,0
-280,-237,0,0,0,0,0,0,0,0,0,-1,944,1261,0,0
-273,-237,0,0,0,0,0,0,0,0,0,-1,951,1261,0,0
-266,-237,0,0,0,0,0,0,0,0,0,-1,958,1261,0,0
-259,-237,0,0,0,0,0,0,0,0,0,-1,965,1261,0,0
-252,-237,0,0,0,0,0,0,0,0,0,-1,972,1261,0,0
-245,-237,0,0,0,0,0,0,0,0,0,-1,979,1261,0,0
-238,-237,0,0,0,0,0,0,0,0,0,-1,986,1261,0,0
-231,-237,0,0,0,0,0,0,0,0,0,-1,993,1261,0,0
-224,-237,0,0,0,0,0,0,0,0,0,-1,1000,1261,0,0
-217,-237,0,0,0,0,0,0,0,0,0,-1,1007,1261,0,0
-210,-237,0,0,0,0,0,0,0,0,0,-1,1014,1261,0,0
-203,-237,0,0,0,0,0,0,0,0,0,-1,1021,1261,0,0
-196,-237,0,0,0,0,0,0,0,0,0,-1,1028,1261,0,0
-189,-237,0,0,0,0,0,0,0,0,0,-1,1035,1261,0,0
-182,-237,0,0,0,0,0,0,0,0,0,-1,1042,1261,0,0
-175,-237,0,0,0,0,0,0,0,0,0,-1,1049,1261,0,0
-168,-237,0,0,0,0,0,0,0,0,0,-1,1056,1261,0,0
-161,-237,0,0,0,0,0,0,0,0,0,-1,1063,1261,0,0
-154,-237,0,0,0,0,0,0,0,0,0,-1,1070,1261,0,0
-147,-237,0,0,0,0,0,0,0,0,0,-1,1077,1261,0,0
-140,-237,0,0,0,0,0,0,0,0,0,-1,1084,1261,0,0
-133,-237,0,0,0,0,0,0,0,0,0,-1,1091,1261,0,0
-126,-237,0,0,0,0,0,0,0,0,0,-1,1098,1261,0,0
-119,-237,0,0,0,0,0,0,0,0,0,-1,1105,1261,0,0
-112,-237,0,0,0,0,0,0,0,0,0,-1,1112,1261,0,0
-105,-237,0,0,0,0,0,0,0,0,0,-1,1119,1261,0,0
-98,-237,0,0,0,0,0,0,0,0,0,-1,1126,1261,0,0
-91,-237,0,0,0,0,0,0,0,0,0,-1,1133,1261,0,0
-84,-237,0,0,0,0,0,0,0,0,0,-1,1140,1261,0,0
-77,-237,0,0,0,0,0,0,0,0,0,-1,1147,1261,0,0
-70,-237,0,0,0,0,0,0,0,0,0,-1,1154,1261,0,0
-63,-237,0,0,0,0,0,0,0,0,0,-1,1161,1261,0,0
-56,-237,0,0,0,0,0,0,0,0,0,-1,1168,1261,0,0
-49,-237,0,0,0,0,0,0,0,0,0,-1,1175,1261,0,0
-42,-237,0,0,0,0,0,0,0,0,0,-1,1182,1261,0,0
-35,-237,0,0,0,0,0,0,0,0,0,-1,1189,1261,0,0
-28,-237,0,0,0,0,0,0,0,0,0,-1,1196,1261,0,0
-21,-237,0,0,0,0,0,0,0,0,0,-1,1203,1261,0,0
-14,-237,0,0,0,0,0,0,0,0,0,-1,1210,1261,0,0
-7,-237,0,0,0,0,0,0,0,0,0,-1,1217,1261,0,0
0,-237,0,0,0,0,0,0,0,0,0,-1,1224,1261,0,0
7,-237,0,0,0,0,0,0,0,0,0,-1,1231,1261,0,0
14,-237,0,0,0,0,0,0,0,0,0,-1,1238,1261,0,0
21,-237,0,0,0,0,0,0,0,0,0,-1,1245,1261,0,0
28,-237,0,0,0,0,0,0,0,0,0,-1,1252,1261,0,0
35,-237,0,0,0,0,0,0,0,0,0,-1,1259,1261,0,0
42,-237,0,0,0,0,0,0,0,0,0,-1,1266,1261,0,0
49,-237,0,0,0,0,0,0,0,0,0,-1,1273,1261,0,0
56,-237,0,0,0,0,0,0,0,0,0,-1,1280,1261,0,0
63,-237,0,0,0,0,0,0,0,0,0,-1,1287,1261,0,0
70,-237,0,0,0,0,0,0,0,0,0,-1,1294,1261,0,0
77,-237,0,0,0,0,0,0,0,0,0,-1,1301,1261,0,0
84,-237,0,0,0,0,0,0,0,0,0,-1,1308,1261,0,0
91,-237,0,0,0,0,0,0,0,0,0,-1,1315,1261,0,0
98,-237,0,0,0,0,0,0,0,0,0,-1,1322,1261,0,0
105,-237,0,0,0,0,0,0,0,0,0,-1,1329,1261,0,0
112,-237,0,0,0,0,0,0,0,0,0,-1,1336,1261,0,0
119,-237,0,0,0,0,0,0,0,0,0,-1,1343,1261,0,0
126,-237,0,0,0,0,0,0,0,0,0,-1,1350,1261,0,0
133,-237,0,0,0,0,0,0,0,0,0,-1,1357,1261,0,0
140,-237,0,0,0,0,0,0,0,0,0,-1,1364,1261,0,0
147,-237,0,0,0,0,0,0,0,0,0,-1,1371,1261,0,0
154,-237,0,0,0,0,0,0,0,0,0,-1,1378,1261,0,0
161,-237,0,0,0,0,0,0,0,0,0,-1,1385,1261,0,0
168,-237,0,0,0,0,0,0,0,0,0,-1,1392,1261,0,0
175,-237,0,0,0,0,0,0,0,0,0,-1,1399,1261,0,0
182,-237,0,0,0,0,0,0,0,0,0,-1,1406,1261,0,0
189,-237,0,0,0,0,0,0,0,0,0,-1,1413,1261,0,0
196,-237,0,0,0,0,0,0,0,0,0,-1,1420,1261,0,0
203,-237,0,0,0,0,0,0,0,0,0,-1,1427,1261,0,0
210,-237,0,0,0,0,0,0,0,0,0,-1,1434,1261,0,0
217,-237,0,0,0,0,0,0,0,0,0,-1,1441,1261,0,0
224,-237,0,0,0,0,0,0,0,0,0,-1,1448,1261,0,0
231,-237,0,0,0,0,0,0,0,0,0,-1,1455,1261,0,0
238,-237,0,0,0,0,0,0,0,0,0,-1,1462,1261,0,0
245,-237,0,0,0,0,0,0,0,0,0,-1,1469,1261,0,0
252,-237,0,0,0,0,0,0,0,0,0,-1,1476,1261,0,0
259,-237,0,0,0,0,0,0,0,0,0,-1,1483,1261,0,0
266,-237,0,0,0,0,0,0,0,0,0,-1,1490,1261,0,0
273,-237,0,0,0,0,0,0,0,0,0,-1,1497,1261,0,0
280,-237,0,0,0,0,0,0,0,0,0,-1,1504,1261,0,0
287,-237,0,0,0,0,0,0,0,0,0,-1,1511,1261,0,0
294,-237,0,0,0,0,0,0,0,0,0,-1,1518,1261,0,0
301,-237,0,0,0,0,0,0,0,0,0,-1,1525,1261,0,0
308,-237,0,0,0,0,0,0,0,0,0,-1,1532,1261,0,0
315,-237,0,0,0,0,0,0,0,0,0,-1,1539,1261,0,0
322,-237,0,0,0,0,0,0,0,0,0,-1,1546,1261,0,0
329,-237,0,0,0,0,0,0,0,0,0,-1,1553,1261,0,0
336,-237,0,0,0,0,0,0,0,0,0,-1,1560,1261,0,0
343,-237,0,0,0,0,0,0,0,0,0,-1,1567,1261,0,0
350,-237,0,0,0,0,0,0,0,0,0,-1,1574,1261,0,0
357,-237,0,0,0,0,0,0,0,0,0,-1,1581,1261,0,0
364,-237,0,0,0,0,0,0,0,0,0,-1,1588,1261,0,0
371,-237,0,0,0,0,0,0,0,0,0,-1,1595,1261,0,0
378,-237,0,0,0,0,0,0,0,0,0,-1,1602,1261,0,0
385,-237,0,0,0,0,0,0,0,0,0,-1,1609,1261,0,0
392,-237,0,0,0,0,0,0,0,0,0,-1,1616,1261,0,0
399,-237,0,0,0,0,0,0,0,0,0,-1,1623,1261,0,0
406,-237,0,0,0,0,0,0,0,0,0,-1,1630,1261,0,0
413,-237,0,0,0,0,0,0,0,0,0,-1,1637,1261,0,0
420,-237,0,0,0,0,0,0,0,0,0,-1,1644,1261,0,0
427,-237,0,0,0,0,0,0,0,0,0,-1,1651,1261,0,0
434,-237,0,0,0,0,0,0,0,0,0,-1,1658,1261,0,0
441,-237,0,0,0,0,0,0,0,0,0,-1,1665,1261,0,0
448,-237,0,0,0,0,0,0,0,0,0,-1,1672,1261,0,0
455,-237,0,0,0,0,0,0,0,0,0,-1,1679,1261,0,0
462,-237,0,0,0,0,0,0,0,0,0,-1,1686,1261,0,0
469,-237,0,0,0,0,0,0,0,0,0,-1,1693,1261,0,0
476,-237,0,0,0,0,0,0,0,0,0,-1,1700,1261,0,0
483,-237,0,0,0,0,0,0,0,0,0,-1,1707,1261,0,0
490,-237,0,0,0,0,0,0,0,0,0,-1,1714,1261,0,0
497,-237,0,0,0,0,0,0,0,0,0,-1,1721,1261,0,0
504,-237,0,0,0,0,0,0,0,0,0,-1,1728,1261,0,0
511,-237,0,0,0,0,0,0,0,0,0,-1,1735,1261,0,0
518,-237,0,0,0,0,0,0,0,0,0,-1,1742,1261,0,0
525,-237,0,0,0,0,0,0,0,0,0,-1,1749,1261,0,0
532,-237,0,0,0,0,0,0,0,0,0,-1,1756,1261,0,0
539,-237,0,0,0,0,0,0,0,0,0,-1,1763,1261,0,0
546,-237,0,0,0,0,0,0,0,0,0,-1,1770,1261,0,0
553,-237,0,0,0,0,0,0,0,0,0,-1,1777,1261,0,0
560,-237,0,0,0,0,0,0,0,0,0,-1,1784,1261,0,0
567,-237,0,0,0,0,0,0,0,0,0,-1,1791,1261,0,0
574,-237,0,0,0,0,0,0,0,0,0,-1,1798,1261,0,0
581,-237,0,0,0,0,0,0,0,0,0,-1,1805,1261,0,0
588,-237,0,0,0,0,0,0,0,0,0,-1,1812,1261,0,0
595,-237,0,0,0,0,0,0,0,0,0,-1,1819,1261,0,0
602,-237,0,0,0,0,0,0,0,0,0,-1,1826,1261,0,0
609,-237,0,0,0,0,0,0,0,0,0,-1,1833,1261,0,0
616,-237,64.7054,2.52319,0.00140502,0.003665,3.53747e-05,0.00366556,0.00140447,1.55515,0.00213549,0.0351966,1840,1261,64.7055,-2.52321
623,-237,64.7235,2.60144,-0.000687004,0.00025591,-0.00066446,0.000599179,-0.00103027,-1.09395,0.000951676,0.0333672,1847,1261,64.7235,-2.60139
630,-237,64.6511,2.6543,-0.00212218,-0.00322981,-0.00137625,-0.00119249,-0.0041595,-0.594107,0.00247326,0.0283245,1854,1261,64.6512,-2.65425
637,-237,64.507,2.59216,-0.00246747,-0.00571452,-0.00186662,-0.00161711,-0.00656488,-0.427469,0.00394949,0.0230949,1861,1261,64.507,-2.59221
644,-237,64.3989,2.39661,-0.00165043,-0.00566697,-0.00212667,-0.000733662,-0.00658374,-0.407012,0.00416619,0.0448326,1868,1261,64.3989,-2.39657
651,-237,64.301,2.18774,0,0,0,0,0,0,0,-1,1875,1261,64.301,-2.18779
658,-237,62.9901,2.01404,0,0,0,0,0,0,0,-1,1882,1261,62.9901,-2.01406
665,-237,57.9302,3.30676,0,0,0,0,0,0,0,-1,1889,1261,57.9302,-3.30671
672,-237,45.3922,1.95618,0,0,0,0,0,0,0,-1,1896,1261,45.3922,-1.95623
679,-237,23.1501,7.37488,0,0,0,0,0,0,0,-1,1903,1261,23.1502,-7.37493
686,-237,36.8348,9.99426,0,0,0,0,0,0,0,-1,1910,1261,36.8349,-9.99424
693,-237,48.8948,12.0789,0,0,0,0,0,0,0,-1,1917,1261,48.8947,-12.0789
700,-237,48.8412,11.4713,0.00350674,-0.00255481,-6.93389e-05,0.00350754,-0.0025556,-0.0114371,0.0035149,0.0223904,1924,1261,48.8412,-11.4713
707,-237,48.796,10.8568,0.00241911,-0.00202144,0.000165831,0.00242529,-0.00202763,0.0372755,0.00257431,0.0130122,1931,1261,48.7961,-10.8568
714,-237,48.765,10.2264,0.000948348,-0.00136793,0.000656359,0.00112141,-0.00154099,0.257801,0.00154349,0.0161377,1938,1261,48.765,-10.2265
721,-237,48.6907,9.63977,-0.000613457,-0.000638565,0.00143623,0.000810272,-0.00206229,0.781028,0.00171018,0.0180613,1945,1261,48.6907,-9.63982
728,-237,48.6803,9.04028,-0.00188118,-0.000505608,0.00229519,0.00120263,-0.00358941,0.930972,0.00287881,0.0155048,1952,1261,48.6803,-9.04033
735,-237,48.6743,8.39478,-0.00314484,-0.000451083,0.00325281,0.00172267,-0.00531859,0.981685,0.0042383,0.0194208,1959,1261,48.6744,-8.39476
742,-237,48.6449,7.79529,-0.00441509,-0.000475654,0.00436642,0.00234477,-0.00723551,0.997285,0.00576642,0.0156481,1966,1261,48.6449,-7.79525
749,-237,48.5847,7.22168,-0.00564918,-0.000582421,0.00564218,0.00306903,-0.00930064,0.996412,0.00743758,0.0108702,1973,1261,48.5848,-7.22172
756,-237,48.5507,6.62451,-0.00689707,-0.000800576,0.00730302,0.00406483,-0.0117625,0.983104,0.00949131,0.0185643,1980,1261,48.5506,-6.62448
763,-237,48.5729,6.00317,0,0,0,0,0,0,0,-1,1987,1261,48.5729,-6.0032
770,-237,47.7819,4.9812,0,0,0,0,0,0,0,-1,1994,1261,47.7818,-4.98121
777,-237,47.9463,3.87476,0,0,0,0,0,0,0,-1,2001,1261,47.9464,-3.8747
784,-237,36.3441,1.68591,0,0,0,0,0,0,0,-1,2008,1261,36.3441,-1.68592
791,-237,32.3025,6.03235,0,0,0,0,0,0,0,-1,2015,1261,32.3025,-6.03229
798,-237,0,0,0,0,0,0,0,0,0,-1,2022,1261,0,0
805,-237,0,0,0,0,0,0,0,0,0,-1,2029,1261,0,0
812,-237,0,0,0,0,0,0,0,0,0,-1,2036,1261,0,0
-700,-244,0,0,0,0,0,0,0,0,0,-1,524,1268,0,0
-693,-244,0,0,0,0,0,0,0,0,0,-1,531,1268,0,0
-686,-244,0,0,0,0,0,0,0,0,0,-1,538,1268,0,0
-679,-244,0,0,0,0,0,0,0,0,0,-1,545,1268,0,0
-672,-244,-44.7993,4.39575,0,0,0,0,0,0,0,-1,552,1268,-44.7992,-4.39576
-665,-244,-46.0868,3.64392,0,0,0,0,0,0,0,-1,559,1268,-46.0868,-3.64391
-658,-244,-45.9758,2.05481,0,0,0,0,0,0,0,-1,566,1268,-45.9758,-2.05486
-651,-244,-46.4749,1.28564,0,0,0,0,0,0,0,-1,573,1268,-46.4749,-1.28561
-644,-244,-46.7867,0.636597,0,0,0,0,0,0,0,-1,580,1268,-46.7868,-0.636553
-637,-244,-32.0363,2.43213,0,0,0,0,0,0,0,-1,587,1268,-32.0363,-2.43208
-630,-244,-32.0434,3.37183,0,0,0,0,0,0,0,-1,594,1268,-32.0434,-3.37177
-623,-244,-31.7489,4.28125,-0.00538478,0.017133,0.00909324,0.0203465,-0.00859826,1.2311,0.017164,0.0364131,601,1268,-31.7489,-4.28126
-616,-244,-31.6058,5.13916,0.00080023,0.00848691,0.00628374,0.0120095,-0.00272234,1.05986,0.00905128,0.0176937,608,1268,-31.6058,-5.13913
-609,-244,-31.6501,5.7749,0.00406538,0.00485433,0.00386502,0.00834495,0.000574749,0.836253,0.00538196,0.0158401,615,1268,-31.6501,-5.77486
-602,-244,-31.6876,6.42688,0.00400223,0.00303629,0.00192786,0.0055067,0.00153182,0.662663,0.00328193,0.0161831,622,1268,-31.6876,-6.42689
-595,-244,-31.7361,7.11841,0.00253531,0.00153551,0.000833688,0.00300749,0.00106333,0.515328,0.00176102,0.0165206,629,1268,-31.7361,-7.11846
-588,-244,-31.7555,7.79395,0.00137437,0.000321987,-0.000106014,0.00138494,0.000311414,-0.0994063,0.000838981,0.0201437,636,1268,-31.7555,-7.79399
-581,-244,-31.7837,8.44153,0.000395082,-0.000609557,-0.000770143,0.000812243,-0.00102672,-0.496424,0.00106413,0.0171912,643,1268,-31.7837,-8.4415
-574,-244,-31.8277,9.09814,-0.000534511,-0.00101534,-0.000938342,0.000193726,-0.00174358,-0.65999,0.00123205,0.0157662,650,1268,-31.8277,-9.09815
-567,-244,-31.8743,9.73901,-0.000708011,-0.00147382,-0.000888246,-0.000123652,-0.00205818,-0.581894,0.00133281,0.0276127,657,1268,-31.8744,-9.73905
-560,-244,-31.7751,10.3212,0,0,0,0,0,0,0,-1,664,1268,-31.7752,-10.3211
-553,-244,-31.6018,10.8926,0,0,0,0,0,0,0,-1,671,1268,-31.6018,-10.8926
-546,-244,-11.2686,4.41772,0,0,0,0,0,0,0,-1,678,1268,-11.2686,-4.41767
-539,-244,-12.8706,0.3302,0,0,0,0,0,0,0,-1,685,1268,-12.8706,-0.330156
-532,-244,-18.1502,0.816528,0,0,0,0,0,0,0,-1,692,1268,-18.1502,-0.816514
-525,-244,-33.0835,0.693604,0,0,0,0,0,0,0,-1,699,1268,-33.0835,-0.69365
-518,-244,-47.5015,0.609131,0,0,0,0,0,0,0,-1,706,1268,-47.5015,-0.60919
-511,-244,-48.6138,1.11877,0,0,0,0,0,0,0,-1,713,1268,-48.6138,-1.11872
-504,-244,-48.8058,1.14258,0,0,0,0,0,0,0,-1,720,1268,-48.8059,-1.1426
-497,-244,-48.8852,1.34839,0,0,0,0,0,0,0,-1,727,1268,-48.8852,-1.3484
-490,-244,0,0,0,0,0,0,0,0,0,-1,734,1268,0,0
-483,-244,0,0,0,0,0,0,0,0,0,-1,741,1268,0,0
-476,-244,0,0,0,0,0,0,0,0,0,-1,748,1268,0,0
-469,-244,0,0,0,0,0,0,0,0,0,-1,755,1268,0,0
-462,-244,0,0,0,0,0,0,0,0,0,-1,762,1268,0,0
-455,-244,0,0,0,0,0,0,0,0,0,-1,769,1268,0,0
-448,-244,0,0,0,0,0,0,0,0,0,-1,776,1268,0,0
-441,-244,0,0,0,0,0,0,0,0,0,-1,783,1268,0,0
-434,-244,0,0,0,0,0,0,0,0,0,-1,790,1268,0,0
-427,-244,0,0,0,0,0,0,0,0,0,-1,797,1268,0,0
-420,-244,0,0,0,0,0,0,0,0,0,-1,804,1268,0,0
-413,-244,0,0,0,0,0,0,0,0,0,-1,811,1268,0,0
-406,-244,0,0,0,0,0,0,0,0,0,-1,818,1268,0,0
-399,-244,0,0,0,0,0,0,0,0,0,-1,825,1268,0,0
-392,-244,0,0,0,0,0,0,0,0,0,-1,832,1268,0,0
-385,-244,0,0,0,0,0,0,0,0,0,-1,839,1268,0,0
-378,-244,0,0,0,0,0,0,0,0,0,-1,846,1268,0,0
-371,-244,0,0,0,0,0,0,0,0,0,-1,853,1268,0,0
-364,-244,0,0,0,0,0,0,0,0,0,-1,860,1268,0,0
-357,-244,0,0,0,0,0,0,0,0,0,-1,867,1268,0,0
-350,-244,0,0,0,0,0,0,0,0,0,-1,874,1268,0,0
-343,-244,0,0,0,0,0,0,0,0,0,-1,881,1268,0,0
-336,-244,0,0,0,0,0,0,0,0,0,-1,888,1268,0,0
-329,-244,0,0,0,0,0,0,0,0,0,-1,895,1268,0,0
-322,-244,0,0,0,0,0,0,0,0,0,-1,902,1268,0,0
-315,-244,0,0,0,0,0,0,0,0,0,-1,909,1268,0,0
-308,-244,0,0,0,0,0,0,0,0,0,-1,916,1268,0,0
-301,-244,0,0,0,0,0,0,0,0,0,-1,923,1268,0,0
-294,-244,0,0,0,0,0,0,0,0,0,-1,930,1268,0,0
-287,-244,0,0,0,0,0,0,0,0,0,-1,937,1268,0,0
-280,-244,0,0,0,0,0,0,0,0,0,-1,944,1268,0,0
-273,-244,0,0,0,0,0,0,0,0,0,-1,951,1268,0,0
-266,-244,0,0,0,0,0,0,0,0,0,-1,958,1268,0,0
-259,-244,0,0,0,0,0,0,0,0,0,-1,965,1268,0,0
-252,-244,0,0,0,0,0,0,0,0,0,-1,972,1268,0,0
-245,-244,0,0,0,0,0,0,0,0,0,-1,979,1268,0,0
-238,-244,0,0,0,0,0,0,0,0,0,-1,986,1268,0,0
-231,-244,0,0,0,0,0,0,0,0,0,-1,993,1268,0,0
-224,-244,0,0,0,0,0,0,0,0,0,-1,1000,1268,0,0
-217,-244,0,0,0,0,0,0,0,0,0,-1,1007,1268,0,0
-210,-244,0,0,0,0,0,0,0,0,0,-1,1014,1268,0,0
-203,-244,0,0,0,0,0,0,0,0,0,-1,1021,1268,0,0
-196,-244,0,0,0,0,0,0,0,0,0,-1,1028,1268,0,0
-189,-244,0,0,0,0,0,0,0,0,0,-1,1035,1268,0,0
-182,-244,0,0,0,0,0,0,0,0,0,-1,1042,1268,0,0
-175,-244,0,0,0,0,0,0,0,0,0,-1,1049,1268,0,0
-168,-244,0,0,0,0,0,0,0,0,0,-1,1056,1268,0,0
-161,-244,0,0,0,0,0,0,0,0,0,-1,1063,1268,0,0
-154,-244,0,0,0,0,0,0,0,0,0,-1,1070,1268,0,0
-147,-244,0,0,0,0,0,0,0,0,0,-1,1077,1268,0,0
-140,-244,0,0,0,0,0,0,0,0,0,-1,1084,1268,0,0
-133,-244,0,0,0,0,0,0,0,0,0,-1,1091,1268,0,0
-126,-244,0,0,0,0,0,0,0,0,0,-1,1098,1268,0,0
-119,-244,0,0,0,0,0,0,0,0,0,-1,1105,1268,0,0
-112,-244,0,0,0,0,0,0,0,0,0,-1,1112,1268,0,0
-105,-244,0,0,0,0,0,0,0,0,0,-1,1119,1268,0,0
-98,-244,0,0,0,0,0,0,0,0,0,-1,1126,1268,0,0
-91,-244,0,0,0,0,0,0,0,0,0,-1,1133,1268,0,0
-84,-244,0,0,0,0,0,0,0,0,0,-1,1140,1268,0,0
-77,-244,0,0,0,0,0,0,0,0,0,-1,1147,1268,0,0
-70,-244,0,0,0,0,0,0,0,0,0,-1,1154,1268,0,0
-63,-244,0,0,0,0,0,0,0,0,0,-1,1161,1268,0,0
-56,-244,0,0,0,0,0,0,0,0,0,-1,1168,1268,0,0
-49,-244,0,0,0,0,0,0,0,0,0,-1,1175,1268,0,0
-42,-244,0,0,0,0,0,0,0,0,0,-1,1182,1268,0,0
-35,-244,0,0,0,0,0,0,0,0,0,-1,1189,1268,0,0
-28,-244,0,0,0,0,0,0,0,0,0,-1,1196,1268,0,0
-21,-244,0,0,0,0,0,0,0,0,0,-1,1203,1268,0,0
-14,-244,0,0,0,0,0,0,0,0,0,-1,1210,1268,0,0
-7,-244,0,0,0,0,0,0,0,0,0,-1,1217,1268,0,0
0,-244,0,0,0,0,0,0,0,0,0,-1,1224,1268,0,0
7,-244,0,0,0,0,0,0,0,0,0,-1,1231,1268,0,0
14,-244,0,0,0,0,0,0,0,0,0,-1,1238,1268,0,0
21,-244,0,0,0,0,0,0,0,0,0,-1,1245,1268,0,0
28,-244,0,0,0,0,0,0,0,0,0,-1,1252,1268,0,0
35,-244,0,0,0,0,0,0,0,0,0,-1,1259,1268,0,0
42,-244,0,0,0,0,0,0,0,0,0,-1,1266,1268,0,0
49,-244,0,0,0,0,0,0,0,0,0,-1,1273,1268,0,0
56,-244,0,0,0,0,0,0,0,0,0,-1,1280,1268,0,0
63,-244,0,0,0,0,0,0,0,0,0,-1,1287,1268,0,0
70,-244,0,0,0,0,0,0,0,0,0,-1,1294,1268,0,0
77,-244,0,0,0,0,0,0,0,0,0,-1,1301,1268,0,0
84,-244,0,0,0,0,0,0,0,0,0,-1,1308,1268,0,0
91,-244,0,0,0,0,0,0,0,0,0,-1,1315,1268,0,0
98,-244,0,0,0,0,0,0,0,0,0,-1,1322,1268,0,0
105,-244,0,0,0,0,0,0,0,0,0,-1,1329,1268,0,0
112,-244,0,0,0,0,0,0,0,0,0,-1,1336,1268,0,0
119,-244,0,0,0,0,0,0,0,0,0,-1,1343,1268,0,0
126,-244,0,0,0,0,0,0,0,0,0,-1,1350,1268,0,0
133,-244,0,0,0,0,0,0,0,0,0,-1,1357,1268,0,0
140,-244,0,0,0,0,0,0,0,0,0,-1,1364,1268,0,0
147,-244,0,0,0,0,0,0,0,0,0,-1,1371,1268,0,0
154,-244,0,0,0,0,0,0,0,0,0,-1,1378,1268,0,0
161,-244,0,0,0,0,0,0,0,0,0,-1,1385,1268,0,0
168,-244,0,0,0,0,0,0,0,0,0,-1,1392,1268,0,0
175,-244,0,0,0,0,0,0,0,0,0,-1,1399,1268,0,0
182,-244,0,0,0,0,0,0,0,0,0,-1,1406,1268,0,0
189,-244,0,0,0,0,0,0,0,0,0,-1,1413,1268,0,0
196,-244,0,0,0,0,0,0,0,0,0,-1,1420,1268,0,0
203,-244,0,0,0,0,0,0,0,0,0,-1,1427,1268,0,0
210,-244,0,0,0,0,0,0,0,0,0,-1,1434,1268,0,0
217,-244,0,0,0,0,0,0,0,0,0,-1,1441,1268,0,0
224,-244,0,0,0,0,0,0,0,0,0,-1,1448,1268,0,0
231,-244,0,0,0,0,0,0,0,0,0,-1,1455,1268,0,0
238,-244,0,0,0,0,0,0,0,0,0,-1,1462,1268,0,0
245,-244,0,0,0,0,0,0,0,0,0,-1,1469,1268,0,0
252,-244,0,0,0,0,0,0,0,0,0,-1,1476,1268,0,0
259,-244,0,0,0,0,0,0,0,0,0,-1,1483,1268,0,0
266,-244,0,0,0,0,0,0,0,0,0,-1,1490,1268,0,0
273,-244,0,0,0,0,0,0,0,0,0,-1,1497,1268,0,0
280,-244,0,0,0,0,0,0,0,0,0,-1,1504,1268,0,0
287,-244,0,0,0,0,0,0,0,0,0,-1,1511,1268,0,0
294,-244,0,0,0,0,0,0,0,0,0,-1,1518,1268,0,0
301,-244,0,0,0,0,0,0,0,0,0,-1,1525,1268,0,0
308,-244,0,0,0,0,0,0,0,0,0,-1,1532,1268,0,0
315,-244,0,0,0,0,0,0,0,0,0,-1,1539,1268,0,0
322,-244,0,0,0,0,0,0,0,0,0,-1,1546,1268,0,0
329,-244,0,0,0,0,0,0,0,0,0,-1,1553,1268,0,0
336,-244,0,0,0,0,0,0,0,0,0,-1,1560,1268,0,0
343,-244,0,0,0,0,0,0,0,0,0,-1,1567,1268,0,0
350,-244,0,0,0,0,0,0,0,0,0,-1,1574,1268,0,0
357,-244,0,0,0,0,0,0,0,0,0,-1,1581,1268,0,0
364,-244,0,0,0,0,0,0,0,0,0,-1,1588,1268,0,0
371,-244,0,0,0,0,0,0,0,0,0,-1,1595,1268,0,0
378,-244,0,0,0,0,0,0,0,0,0,-1,1602,1268,0,0
385,-244,0,0,0,0,0,0,0,0,0,-1,1609,1268,0,0
392,-244,0,0,0,0,0,0,0,0,0,-1,1616,1268,0,0
399,-244,0,0,0,0,0,0,0,0,0,-1,1623,1268,0,0
406,-244,0,0,0,0,0,0,0,0,0,-1,1630,1268,0,0
413,-244,0,0,0,0,0,0,0,0,0,-1,1637,1268,0,0
420,-244,0,0,0,0,0,0,0,0,0,-1,1644,1268,0,0
427,-244,0,0,0,0,0,0,0,0,0,-1,1651,1268,0,0
434,-244,0,0,0,0,0,0,0,0,0,-1,1658,1268,0,0
441,-244,0,0,0,0,0,0,0,0,0,-1,1665,1268,0,0
448,-244,0,0,0,0,0,0,0,0,0,-1,1672,1268,0,0
455,-244,0,0,0,0,0,0,0,0,0,-1,1679,1268,0,0
462,-244,0,0,0,0,0,0,0,0,0,-1,1686,1268,0,0
469,-244,0,0,0,0,0,0,0,0,0,-1,1693,1268,0,0
476,-244,0,0,0,0,0,0,0,0,0,-1,1700,1268,0,0
483,-244,0,0,0,0,0,0,0,0,0,-1,1707,1268,0,0
490,-244,0,0,0,0,0,0,0,0,0,-1,1714,1268,0,0
497,-244,0,0,0,0,0,0,0,0,0,-1,1721,1268,0,0
504,-244,0,0,0,0,0,0,0,0,0,-1,1728,1268,0,0
511,-244,0,0,0,0,0,0,0,0,0,-1,1735,1268,0,0
518,-244,0,0,0,0,0,0,0,0,0,-1,1742,1268,0,0
525,-244,0,0,0,0,0,0,0,0,0,-1,1749,1268,0,0
532,-244,0,0,0,0,0,0,0,0,0,-1,1756,1268,0,0
539,-244,0,0,0,0,0,0,0,0,0,-1,1763,1268,0,0
546,-244,0,0,0,0,0,0,0,0,0,-1,1770,1268,0,0
553,-244,0,0,0,0,0,0,0,0,0,-1,1777,1268,0,0
560,-244,0,0,0,0,0,0,0,0,0,-1,1784,1268,0,0
567,-244,0,0,0,0,0,0,0,0,0,-1,1791,1268,0,0
574,-244,0,0,0,0,0,0,0,0,0,-1,1798,1268,0,0
581,-244,0,0,0,0,0,0,0,0,0,-1,1805,1268,0,0
588,-244,0,0,0,0,0,0,0,0,0,-1,1812,1268,0,0
595,-244,0,0,0,0,0,0,0,0,0,-1,1819,1268,0,0
602,-244,0,0,0,0,0,0,0,0,0,-1,1826,1268,0,0
609,-244,0,0,0,0,0,0,0,0,0,-1,1833,1268,0,0
616,-244,64.6559,2.57703,0.00185995,0.00193951,6.63509e-05,0.00197709,0.00182237,1.05544,0.00126963,0.0337121,1840,1268,64.6559,-2.57699
623,-244,64.6841,2.63794,-0.000868395,-0.0020174,-0.000726514,-0.000516683,-0.00236911,-0.450855,0.00143845,0.0289628,1847,1268,64.6841,-2.63788
630,-244,64.6367,2.6604,-0.00314329,-0.0058486,-0.00149868,-0.0024771,-0.00651479,-0.418282,0.00379712,0.0265786,1854,1268,64.6367,-2.66042
637,-244,64.5754,2.63159,-0.00356018,-0.00730047,-0.00183588,-0.00280965,-0.00805099,-0.388076,0.00471839,0.0413196,1861,1268,64.5754,-2.63165
644,-244,64.2777,2.25549,-0.00266881,-0.00638161,-0.00197678,-0.00181341,-0.00723701,-0.408396,0.00434814,0.0480537,1868,1268,64.2777,-2.25545
651,-244,64.0028,1.88525,0,0,0,0,0,0,0,-1,1875,1268,64.0028,-1.88529
658,-244,63.7308,1.51611,0,0,0,0,0,0,0,-1,1882,1268,63.7309,-1.5161
665,-244,50.7988,1.09888,0,0,0,0,0,0,0,-1,1889,1268,50.7989,-1.09893
672,-244,32.224,3.6123,0,0,0,0,0,0,0,-1,1896,1268,32.224,-3.6123
679,-244,27.2593,7.90649,0,0,0,0,0,0,0,-1,1903,1268,27.2592,-7.9065
686,-244,48.1455,12.7926,0,0,0,0,0,0,0,-1,1910,1268,48.1455,-12.7926
693,-244,48.0995,12.2131,0.00195815,-0.00191631,-0.000712207,0.00208492,-0.00204308,-0.176152,0.00238335,0.0332055,1917,1268,48.0994,-12.2132
700,-244,48.1467,11.5538,0.00300933,-0.00234265,-5.85447e-05,0.00300997,-0.00234329,-0.0109371,0.00309869,0.0111638,1924,1268,48.1467,-11.5538
707,-244,48.1572,10.9207,0.00176017,-0.00175414,0.000232021,0.00177542,-0.00176939,0.0656421,0.0020466,0.0115969,1931,1268,48.1572,-10.9206
714,-244,48.21,10.2799,0.000251429,-0.0011293,0.000786732,0.00060775,-0.00148562,0.425274,0.00124353,0.0153613,1938,1268,48.21,-10.2799
721,-244,48.115,9.70557,-0.0012629,-0.000528804,0.00157617,0.000722492,-0.0025142,0.899796,0.00196182,0.0221159,1945,1268,48.115,-9.70561
728,-244,48.0735,9.04907,-0.00257869,-0.000398363,0.00244315,0.00118681,-0.00416387,0.995248,0.00324469,0.0282556,1952,1268,48.0735,-9.04912
735,-244,48.0258,8.33398,-0.0039535,-0.0003365,0.00341852,0.00172242,-0.00601242,1.0287,0.00468908,0.0284318,1959,1268,48.0258,-8.33397
742,-244,47.9584,7.84387,-0.00538859,-0.000352274,0.0045549,0.0023342,-0.00807506,1.03791,0.0063071,0.0178629,1966,1268,47.9584,-7.84391
749,-244,47.8119,7.38196,-0.00686181,-0.000429699,0.00585583,0.0030351,-0.0103266,1.03651,0.00808821,0.0254746,1973,1268,47.8119,-7.38192
756,-244,47.6066,6.87439,-0.00845986,-0.000615856,0.00759163,0.00400702,-0.0130827,1.02383,0.0103201,0.0374817,1980,1268,47.6066,-6.87437
763,-244,47.5597,6.18018,0,0,0,0,0,0,0,-1,1987,1268,47.5597,-6.18023
770,-244,48.5117,4.18066,0,0,0,0,0,0,0,-1,1994,1268,48.5117,-4.18061
777,-244,48.7119,2.7002,0,0,0,0,0,0,0,-1,2001,1268,48.712,-2.70019
784,-244,31.7908,5.20081,0,0,0,0,0,0,0,-1,2008,1268,31.7907,-5.20083
791,-244,0,0,0,0,0,0,0,0,0,-1,2015,1268,0,0
798,-244,0,0,0,0,0,0,0,0,0,-1,2022,1268,0,0
805,-244,0,0,0,0,0,0,0,0,0,-1,2029,1268,0,0
812,-244,0,0,0,0,0,0,0,0,0,-1,2036,1268,0,0
-700,-251,0,0,0,0,0,0,0,0,0,-1,524,1275,0,0
-693,-251,0,0,0,0,0,0,0,0,0,-1,531,1275,0,0
-686,-251,0,0,0,0,0,0,0,0,0,-1,538,1275,0,0
-679,-251,0,0,0,0,0,0,0,0,0,-1,545,1275,0,0
-672,-251,0,0,0,0,0,0,0,0,0,-1,552,1275,0,0
-665,-251,-45.2521,2.44568,0,0,0,0,0,0,0,-1,559,1275,-45.2521,-2.44573
-658,-251,-45.5222,1.44397,0,0,0,0,0,0,0,-1,566,1275,-45.5221,-1.44401
-651,-251,-45.8498,0.382935,0,0,0,0,0,0,0,-1,573,1275,-45.8498,-0.382965
-644,-251,-46.2018,-0.658325,0,0,0,0,0,0,0,-1,580,1275,-46.2019,0.658365
-637,-251,-46.0234,0.199341,0,0,0,0,0,0,0,-1,587,1275,-46.0234,-0.199393
-630,-251,-31.3751,3.30798,0,0,0,0,0,0,0,-1,594,1275,-31.375,-3.30802
-623,-251,-31.1852,4.24451,-0.00375028,0.0184296,0.0109128,0.0228984,-0.00821917,1.18212,0.0186202,0.0401418,601,1275,-31.1852,-4.24453
-616,-251,-30.9503,5.16956,0.00242606,0.0095726,0.00773549,0.0145203,-0.0025216,1.00176,0.010621,0.020984,608,1275,-30.9503,-5.16958
-609,-251,-30.9932,5.78589,0.00532435,0.00574156,0.00499043,0.0105277,0.000538164,0.806287,0.00684616,0.0209702,615,1275,-30.9932,-5.78589
-602,-251,-31.0222,6.46289,0.00500855,0.00371554,0.00280307,0.00723871,0.00148539,0.672059,0.00441477,0.0154509,622,1275,-31.0222,-6.46286
-595,-251,-31.0589,7.13123,0.00336342,0.00206344,0.00152658,0.00437262,0.00105423,0.584132,0.00263493,0.0136303,629,1275,-31.0589,-7.13121
-588,-251,-31.0822,7.8042,0.00210199,0.000655421,0.000496168,0.00225582,0.000501595,0.300631,0.00136769,0.0152336,636,1275,-31.0822,-7.80425
-581,-251,-31.0992,8.48169,0.00107117,-0.000476946,-0.000272468,0.00111773,-0.0005235,-0.169227,0.000968044,0.0141523,643,1275,-31.0992,-8.48173
-574,-251,-31.1356,9.17993,0.000163969,-0.00119303,-0.000636188,0.000415575,-0.00144464,-0.376613,0.00112744,0.0132975,650,1275,-31.1356,-9.17999
-567,-251,-31.1878,9.8468,-7.83835e-05,-0.0019019,-0.000669406,0.000140967,-0.00212125,-0.316654,0.00146342,0.0228121,657,1275,-31.1878,-9.84683
-560,-251,-31.2632,10.4194,0,0,0,0,0,0,0,-1,664,1275,-31.2632,-10.4195
-553,-251,-30.6689,11.3051,0,0,0,0,0,0,0,-1,671,1275,-30.6689,-11.305
-546,-251,-12.995,4.5675,0,0,0,0,0,0,0,-1,678,1275,-12.995,-4.56745
-539,-251,-10.7916,0.366333,0,0,0,0,0,0,0,-1,685,1275,-10.7916,-0.366282
-532,-251,-10.7391,-0.00769043,0,0,0,0,0,0,0,-1,692,1275,-10.7391,0.00773227
-525,-251,-29.4286,-0.250244,0,0,0,0,0,0,0,-1,699,1275,-29.4286,0.250266
-518,-251,-32.6981,0.678833,0,0,0,0,0,0,0,-1,706,1275,-32.6981,-0.678787
-511,-251,-29.4731,0.637085,0,0,0,0,0,0,0,-1,713,1275,-29.4731,-0.637025
-504,-251,-30.6428,0.792358,0,0,0,0,0,0,0,-1,720,1275,-30.6427,-0.792335
-497,-251,-48.861,1.23169,0,0,0,0,0,0,0,-1,727,1275,-48.861,-1.23169
-490,-251,0,0,0,0,0,0,0,0,0,-1,734,1275,0,0
-483,-251,0,0,0,0,0,0,0,0,0,-1,741,1275,0,0
-476,-251,0,0,0,0,0,0,0,0,0,-1,748,1275,0,0
-469,-251,0,0,0,0,0,0,0,0,0,-1,755,1275,0,0
-462,-251,0,0,0,0,0,0,0,0,0,-1,762,1275,0,0
-455,-251,0,0,0,0,0,0,0,0,0,-1,769,1275,0,0
-448,-251,0,0,0,0,0,0,0,0,0,-1,776,1275,0,0
-441,-251,0,0,0,0,0,0,0,0,0,-1,783,1275,0,0
-434,-251,0,0,0,0,0,0,0,0,0,-1,790,1275,0,0
-427,-251,0,0,0,0,0,0,0,0,0,-1,797,1275,0,0
-420,-251,0,0,0,0,0,0,0,0,0,-1,804,1275,0,0
-413,-251,0,0,0,0,0,0,0,0,0,-1,811,1275,0,0
-406,-251,0,0,0,0,0,0,0,0,0,-1,818,1275,0,0
-399,-251,0,0,0,0,0,0,0,0,0,-1,825,1275,0,0
-392,-251,0,0,0,0,0,0,0,0,0,-1,832,1275,0,0
-385,-251,0,0,0,0,0,0,0,0,0,-1,839,1275,0,0
-378,-251,0,0,0,0,0,0,0,0,0,-1,846,1275,0,0
-371,-251,0,0,0,0,0,0,0,0,0,-1,853,1275,0,0
-364,-251,0,0,0,0,0,0,0,0,0,-1,860,1275,0,0
-357,-251,0,0,0,0,0,0,0,0,0,-1,867,1275,0,0
-350,-251,0,0,0,0,0,0,0,0,0,-1,874,1275,0,0
-343,-251,0,0,0,0,0,0,0,0,0,-1,881,1275,0,0
-336,-251,0,0,0,0,0,0,0,0,0,-1,888,1275,0,0
-329,-251,0,0,0,0,0,0,0,0,0,-1,895,1275,0,0
-322,-251,0,0,0,0,0,0,0,0,0,-1,902,1275,0,0
-315,-251,0,0,0,0,0,0,0,0,0,-1,909,1275,0,0
-308,-251,0,0,0,0,0,0,0,0,0,-1,916,1275,0,0
-301,-251,0,0,0,0,0,0,0,0,0,-1,923,1275,0,0
-294,-251,0,0,0,0,0,0,0,0,0,-1,930,1275,0,0
-287,-251,0,0,0,0,0,0,0,0,0,-1,937,1275,0,0
-280,-251,0,0,0,0,0,0,0,0,0,-1,944,1275,0,0
-273,-251,0,0,0,0,0,0,0,0,0,-1,951,1275,0,0
-266,-251,0,0,0,0,0,0,0,0,0,-1,958,1275,0,0
-259,-251,0,0,0,0,0,0,0,0,0,-1,965,1275,0,0
-252,-251,0,0,0,0,0,0,0,0,0,-1,972,1275,0,0
-245,-251,0,0,0,0,0,0,0,0,0,-1,979,1275,0,0
-238,-251,0,0,0,0,0,0,0,0,0,-1,986,1275,0,0
-231,-251,0,0,0,0,0,0,0,0,0,-1,993,1275,0,0
-224,-251,0,0,0,0,0,0,0,0,0,-1,1000,1275,0,0
-217,-251,0,0,0,0,0,0,0,0,0,-1,1007,1275,0,0
-210,-251,0,0,0,0,0,0,0,0,0,-1,1014,1275,0,0
-203,-251,0,0,0,0,0,0,0,0,0,-1,1021,1275,0,0
-196,-251,0,0,0,0,0,0,0,0,0,-1,1028,1275,0,0
-189,-251,0,0,0,0,0,0,0,0,0,-1,1035,1275,0,0
-182,-251,0,0,0,0,0,0,0,0,0,-1,1042,1275,0,0
-175,-251,0,0,0,0,0,0,0,0,0,-1,1049,1275,0,0
-168,-251,0,0,0,0,0,0,0,0,0,-1,1056,1275,0,0
-161,-251,0,0,0,0,0,0,0,0,0,-1,1063,1275,0,0
-154,-251,0,0,0,0,0,0,0,0,0,-1,1070,1275,0,0
-147,-251,0,0,0,0,0,0,0,0,0,-1,1077,1275,0,0
-140,-251,0,0,0,0,0,0,0,0,0,-1,1084,1275,0,0
-133,-251,0,0,0,0,0,0,0,0,0,-1,1091,1275,0,0
-126,-251,0,0,0,0,0,0,0,0,0,-1,1098,1275,0,0
-119,-251,0,0,0,0,0,0,0,0,0,-1,1105,1275,0,0
-112,-251,0,0,0,0,0,0,0,0,0,-1,1112,1275,0,0
-105,-251,0,0,0,0,0,0,0,0,0,-1,1119,1275,0,0
-98,-251,0,0,0,0,0,0,0,0,0,-1,1126,1275,0,0
-91,-251,0,0,0,0,0,0,0,0,0,-1,1133,1275,0,0
-84,-251,0,0,0,0,0,0,0,0,0,-1,1140,1275,0,0
-77,-251,0,0,0,0,0,0,0,0,0,-1,1147,1275,0,0
-70,-251,0,0,0,0,0,0,0,0,0,-1,1154,1275,0,0
-63,-251,0,0,0,0,0,0,0,0,0,-1,1161,1275,0,0
-56,-251,0,0,0,0,0,0,0,0,0,-1,1168,1275,0,0
-49,-251,0,0,0,0,0,0,0,0,0,-1,1175,1275,0,0
-42,-251,0,0,0,0,0,0,0,0,0,-1,1182,1275,0,0
-35,-251,0,0,0,0,0,0,0,0,0,-1,1189,1275,0,0
-28,-251,0,0,0,0,0,0,0,0,0,-1,1196,1275,0,0
-21,-251,0,0,0,0,0,0,0,0,0,-1,1203,1275,0,0
-14,-251,0,0,0,0,0,0,0,0,0,-1,1210,1275,0,0
-7,-251,0,0,0,0,0,0,0,0,0,-1,1217,1275,0,0
0,-251,0,0,0,0,0,0,0,0,0,-1,1224,1275,0,0
7,-251,0,0,0,0,0,0,0,0,0,-1,1231,1275,0,0
14,-251,0,0,0,0,0,0,0,0,0,-1,1238,1275,0,0
21,-251,0,0,0,0,0,0,0,0,0,-1,1245,1275,0,0
28,-251,0,0,0,0,0,0,0,0,0,-1,1252,1275,0,0
35,-251,0,0,0,0,0,0,0,0,0,-1,1259,1275,0,0
42,-251,0,0,0,0,0,0,0,0,0,-1,1266,1275,0,0
49,-251,0,0,0,0,0,0,0,0,0,-1,1273,1275,0,0
56,-251,0,0,0,0,0,0,0,0,0,-1,1280,1275,0,0
63,-251,0,0,0,0,0,0,0,0,0,-1,1287,1275,0,0
70,-251,0,0,0,0,0,0,0,0,0,-1,1294,1275,0,0
77,-251,0,0,0,0,0,0,0,0,0,-1,1301,1275,0,0
84,-251,0,0,0,0,0,0,0,0,0,-1,1308,1275,0,0
91,-251,0,0,0,0,0,0,0,0,0,-1,1315,1275,0,0
98,-251,0,0,0,0,0,0,0,0,0,-1,1322,1275,0,0
105,-251,0,0,0,0,0,0,0,0,0,-1,1329,1275,0,0
112,-251,0,0,0,0,0,0,0,0,0,-1,1336,1275,0,0
119,-251,0,0,0,0,0,0,0,0,0,-1,1343,1275,0,0
126,-251,0,0,0,0,0,0,0,0,0,-1,1350,1275,0,0
133,-251,0,0,0,0,0,0,0,0,0,-1,1357,1275,0,0
140,-251,0,0,0,0,0,0,0,0,0,-1,1364,1275,0,0
147,-251,0,0,0,0,0,0,0,0,0,-1,1371,1275,0,0
154,-251,0,0,0,0,0,0,0,0,0,-1,1378,1275,0,0
161,-251,0,0,0,0,0,0,0,0,0,-1,1385,1275,0,0
168,-251,0,0,0,0,0,0,0,0,0,-1,1392,1275,0,0
175,-251,0,0,0,0,0,0,0,0,0,-1,1399,1275,0,0
182,-251,0,0,0,0,0,0,0,0,0,-1,1406,1275,0,0
189,-251,0,0,0,0,0,0,0,0,0,-1,1413,1275,0,0
196,-251,0,0,0,0,0,0,0,0,0,-1,1420,1275,0,0
203,-251,0,0,0,0,0,0,0,0,0,-1,1427,1275,0,0
210,-251,0,0,0,0,0,0,0,0,0,-1,1434,1275,0,0
217,-251,0,0,0,0,0,0,0,0,0,-1,1441,1275,0,0
224,-251,0,0,0,0,0,0,0,0,0,-1,1448,1275,0,0
231,-251,0,0,0,0,0,0,0,0,0,-1,1455,1275,0,0
238,-251,0,0,0,0,0,0,0,0,0,-1,1462,1275,0,0
245,-251,0,0,0,0,0,0,0,0,0,-1,1469,1275,0,0
252,-251,0,0,0,0,0,0,0,0,0,-1,1476,1275,0,0
259,-251,0,0,0,0,0,0,0,0,0,-1,1483,1275,0,0
266,-251,0,0,0,0,0,0,0,0,0,-1,1490,1275,0,0
273,-251,0,0,0,0,0,0,0,0,0,-1,1497,1275,0,0
280,-251,0,0,0,0,0,0,0,0,0,-1,1504,1275,0,0
287,-251,0,0,0,0,0,0,0,0,0,-1,1511,1275,0,0
294,-251,0,0,0,0,0,0,0,0,0,-1,1518,1275,0,0
301,-251,0,0,0,0,0,0,0,0,0,-1,1525,1275,0,0
308,-251,0,0,0,0,0,0,0,0,0,-1,1532,1275,0,0
315,-251,0,0,0,0,0,0,0,0,0,-1,1539,1275,0,0
322,-251,0,0,0,0,0,0,0,0,0,-1,1546,1275,0,0
329,-251,0,0,0,0,0,0,0,0,0,-1,1553,1275,0,0
336,-251,0,0,0,0,0,0,0,0,0,-1,1560,1275,0,0
343,-251,0,0,0,0,0,0,0,0,0,-1,1567,1275,0,0
350,-251,0,0,0,0,0,0,0,0,0,-1,1574,1275,0,0
357,-251,0,0,0,0,0,0,0,0,0,-1,1581,1275,0,0
364,-251,0,0,0,0,0,0,0,0,0,-1,1588,1275,0,0
371,-251,0,0,0,0,0,0,0,0,0,-1,1595,1275,0,0
378,-251,0,0,0,0,0,0,0,0,0,-1,1602,1275,0,0
385,-251,0,0,0,0,0,0,0,0,0,-1,1609,1275,0,0
392,-251,0,0,0,0,0,0,0,0,0,-1,1616,1275,0,0
399,-251,0,0,0,0,0,0,0,0,0,-1,1623,1275,0,0
406,-251,0,0,0,0,0,0,0,0,0,-1,1630,1275,0,0
413,-251,0,0,0,0,0,0,0,0,0,-1,1637,1275,0,0
420,-251,0,0,0,0,0,0,0,0,0,-1,1644,1275,0,0
427,-251,0,0,0,0,0,0,0,0,0,-1,1651,1275,0,0
434,-251,0,0,0,0,0,0,0,0,0,-1,1658,1275,0,0
441,-251,0,0,0,0,0,0,0,0,0,-1,1665,1275,0,0
448,-251,0,0,0,0,0,0,0,0,0,-1,1672,1275,0,0
455,-251,0,0,0,0,0,0,0,0,0,-1,1679,1275,0,0
462,-251,0,0,0,0,0,0,0,0,0,-1,1686,1275,0,0
469,-251,0,0,0,0,0,0,0,0,0,-1,1693,1275,0,0
476,-251,0,0,0,0,0,0,0,0,0,-1,1700,1275,0,0
483,-251,0,0,0,0,0,0,0,0,0,-1,1707,1275,0,0
490,-251,0,0,0,0,0,0,0,0,0,-1,1714,1275,0,0
497,-251,0,0,0,0,0,0,0,0,0,-1,1721,1275,0,0
504,-251,0,0,0,0,0,0,0,0,0,-1,1728,1275,0,0
511,-251,0,0,0,0,0,0,0,0,0,-1,1735,1275,0,0
518,-251,0,0,0,0,0,0,0,0,0,-1,1742,1275,0,0
525,-251,0,0,0,0,0,0,0,0,0,-1,1749,1275,0,0
532,-251,0,0,0,0,0,0,0,0,0,-1,1756,1275,0,0
539,-251,0,0,0,0,0,0,0,0,0,-1,1763,1275,0,0
546,-251,0,0,0,0,0,0,0,0,0,-1,1770,1275,0,0
553,-251,0,0,0,0,0,0,0,0,0,-1,1777,1275,0,0
560,-251,0,0,0,0,0,0,0,0,0,-1,1784,1275,0,0
567,-251,0,0,0,0,0,0,0,0,0,-1,1791,1275,0,0
574,-251,0,0,0,0,0,0,0,0,0,-1,1798,1275,0,0
581,-251,0,0,0,0,0,0,0,0,0,-1,1805,1275,0,0
588,-251,0,0,0,0,0,0,0,0,0,-1,1812,1275,0,0
595,-251,0,0,0,0,0,0,0,0,0,-1,1819,1275,0,0
602,-251,0,0,0,0,0,0,0,0,0,-1,1826,1275,0,0
609,-251,64.6193,2.62842,0.00588965,0.00450483,0.000426686,0.00601056,0.00438392,0.276135,0.00358985,0.0307378,1833,1275,64.6193,-2.62839
616,-251,64.5936,2.6261,0.00186181,0.000225721,-0.000281286,0.00190882,0.000178711,-0.165594,0.00121735,0.0270611,1840,1275,64.5936,-2.62611
623,-251,64.5962,2.65637,-0.00139805,-0.00445009,-0.000993511,-0.00110313,-0.004745,-0.288556,0.00286725,0.0251221,1847,1275,64.5962,-2.65634
630,-251,64.5704,2.59985,-0.00392873,-0.00801509,-0.00157513,-0.00339206,-0.00855176,-0.328379,0.00497239,0.0366803,1854,1275,64.5704,-2.59983
637,-251,64.7191,2.61023,-0.00401142,-0.00817856,-0.00167944,-0.00341884,-0.00877114,-0.339207,0.00510487,0.0398928,1861,1275,64.7191,-2.61018
644,-251,64.3287,2.29504,-0.00315961,-0.00681609,-0.0017501,-0.00245698,-0.00751872,-0.381782,0.00442692,0.0460825,1868,1275,64.3287,-2.295
651,-251,63.9891,2.06946,0,0,0,0,0,0,0,-1,1875,1275,63.9892,-2.0694
658,-251,62.9906,2.47864,0,0,0,0,0,0,0,-1,1882,1275,62.9906,-2.47864
665,-251,32.9579,2.60229,0,0,0,0,0,0,0,-1,1889,1275,32.9579,-2.60231
672,-251,26.0721,4.53064,0,0,0,0,0,0,0,-1,1896,1275,26.0721,-4.53063
679,-251,29.1344,8.63782,0,0,0,0,0,0,0,-1,1903,1275,29.1344,-8.63778
686,-251,47.7075,12.7404,0,0,0,0,0,0,0,-1,1910,1275,47.7075,-12.7403
693,-251,47.5958,12.193,0.00149425,-0.00174274,-0.000686772,0.00163393,-0.00188242,-0.200651,0.00203185,0.0227386,1917,1275,47.5958,-12.193
700,-251,47.5487,11.5804,0.0025985,-0.0020465,3.15162e-05,0.00259871,-0.00204671,0.00678456,0.00268834,0.00986033,1924,1275,47.5487,-11.5805
707,-251,47.5487,10.9369,0.00125453,-0.00143032,0.000360087,0.00130198,-0.00147778,0.131034,0.00160597,0.0120403,1931,1275,47.5488,-10.9369
714,-251,47.5514,10.3037,-0.000272716,-0.000898384,0.000962715,0.000426718,-0.00159782,0.628305,0.00123233,0.0152316,1938,1275,47.5513,-10.3037
721,-251,47.4729,9.71741,-0.00179854,-0.000479196,0.00175586,0.000736826,-0.00301456,0.965089,0.00229509,0.0246655,1945,1275,47.4729,-9.71738
728,-251,47.4486,9.1449,-0.0032331,-0.000420532,0.00263814,0.00116274,-0.00481637,1.03027,0.00366057,0.029168,1952,1275,47.4486,-9.14487
735,-251,47.412,8.4198,-0.00477248,-0.000413592,0.00363429,0.00164466,-0.00683073,1.05549,0.00518965,0.0230099,1959,1275,47.4119,-8.41981
742,-251,47.3291,7.93018,-0.00641493,-0.000478346,0.00478891,0.00218758,-0.00908086,1.06283,0.00689968,0.018188,1966,1275,47.3291,-7.93018
749,-251,47.079,7.59912,-0.0081686,-0.000574779,0.00609588,0.00280997,-0.0115533,1.06393,0.0087899,0.0381216,1973,1275,47.079,-7.59915
756,-251,46.6926,7.12817,0,0,0,0,0,0,0,-1,1980,1275,46.6926,-7.12817
763,-251,43.3652,5.7583,0,0,0,0,0,0,0,-1,1987,1275,43.3653,-5.75827
770,-251,49.4386,3.45508,0,0,0,0,0,0,0,-1,1994,1275,49.4386,-3.4551
777,-251,31.5731,4.33252,0,0,0,0,0,0,0,-1,2001,1275,31.5731,-4.33251
784,-251,32.0776,5.78247,0,0,0,0,0,0,0,-1,2008,1275,32.0776,-5.78247
791,-251,0,0,0,0,0,0,0,0,0,-1,2015,1275,0,0
798,-251,0,0,0,0,0,0,0,0,0,-1,2022,1275,0,0
805,-251,0,0,0,0,0,0,0,0,0,-1,2029,1275,0,0
812,-251,0,0,0,0,0,0,0,0,0,-1,2036,1275,0,0
-700,-258,0,0,0,0,0,0,0,0,0,-1,524,1282,0,0
-693,-258,0,0,0,0,0,0,0,0,0,-1,531,1282,0,0
-686,-258,0,0,0,0,0,0,0,0,0,-1,538,1282,0,0
-679,-258,0,0,0,0,0,0,0,0,0,-1,545,1282,0,0
-672,-258,0,0,0,0,0,0,0,0,0,-1,552,1282,0,0
-665,-258,-44.8717,2.03601,0,0,0,0,0,0,0,-1,559,1282,-44.8717,-2.03603
-658,-258,-45.2628,1.20544,0,0,0,0,0,0,0,-1,566,1282,-45.2627,-1.20545
-651,-258,-45.5418,0.0863037,0,0,0,0,0,0,0,-1,573,1282,-45.5418,-0.0863288
-644,-258,-45.1855,0.336792,0,0,0,0,0,0,0,-1,580,1282,-45.1855,-0.336733
-637,-258,-45.329,0.234253,0,0,0,0,0,0,0,-1,587,1282,-45.329,-0.234296
-630,-258,-45.3398,-0.102051,0,0,0,0,0,0,0,-1,594,1282,-45.3399,0.102042
-623,-258,-30.2158,4.49304,0,0,0,0,0,0,0,-1,601,1282,-30.2158,-4.49305
-616,-258,-30.2838,5.16309,0.00431914,0.0106484,0.00905733,0.017078,-0.0021105,0.953468,0.0121501,0.0373078,608,1282,-30.2838,-5.16308
-609,-258,-30.2941,5.83545,0.00660729,0.00668194,0.00604271,0.0126874,0.000601792,0.788486,0.008265,0.0182717,615,1282,-30.2941,-5.8354
-602,-258,-30.3452,6.50195,0.00593271,0.00446473,0.00367388,0.0089452,0.00145224,0.686804,0.00554317,0.0141411,622,1282,-30.3452,-6.50189
-595,-258,-30.3789,7.17688,0.00410468,0.00267291,0.00224246,0.00574275,0.00103484,0.630891,0.00353442,0.0123417,629,1282,-30.3789,-7.17694
-588,-258,-30.4095,7.84521,0.00276122,0.00112064,0.00112156,0.00333045,0.000551405,0.469657,0.00206123,0.0140024,636,1282,-30.4096,-7.8452
-581,-258,-30.435,8.48218,0.00174849,-0.000201672,0.000259651,0.00178247,-0.00023565,0.130124,0.00127415,0.015739,643,1282,-30.435,-8.48216
-574,-258,-30.4374,9.16943,0.000959941,-0.00121802,-0.000253437,0.000989043,-0.00124712,-0.114329,0.00129391,0.0151298,650,1282,-30.4374,-9.16948
-567,-258,-30.5087,9.86035,0.000710569,-0.00223372,-0.000396236,0.000762961,-0.00228611,-0.131462,0.00183214,0.0165758,657,1282,-30.5087,-9.86034
-560,-258,-30.5469,10.5502,0.000430195,-0.00245515,-6.09707e-05,0.000431483,-0.00245644,-0.0211186,0.00179878,0.0485121,664,1282,-30.5469,-10.5501
-553,-258,-30.4931,11.3042,0,0,0,0,0,0,0,-1,671,1282,-30.4931,-11.3041
-546,-258,-14.2231,5.92029,0,0,0,0,0,0,0,-1,678,1282,-14.2231,-5.92028
-539,-258,-10.2228,4.05823,0,0,0,0,0,0,0,-1,685,1282,-10.2228,-4.05823
-532,-258,-10.2173,-0.353882,0,0,0,0,0,0,0,-1,692,1282,-10.2173,0.353836
-525,-258,-21.8661,-1.5929,0,0,0,0,0,0,0,-1,699,1282,-21.8661,1.59285
-518,-258,-29.2484,0.123169,0,0,0,0,0,0,0,-1,706,1282,-29.2484,-0.123186
-511,-258,-23.5061,1.16833,0,0,0,0,0,0,0,-1,713,1282,-23.5061,-1.16833
-504,-258,-22.9178,0.484131,0,0,0,0,0,0,0,-1,720,1282,-22.9178,-0.484106
-497,-258,-17.8047,0.730469,0,0,0,0,0,0,0,-1,727,1282,-17.8048,-0.730489
-490,-258,-15.4346,0.632935,0,0,0,0,0,0,0,-1,734,1282,-15.4346,-0.632917
-483,-258,0,0,0,0,0,0,0,0,0,-1,741,1282,0,0
-476,-258,0,0,0,0,0,0,0,0,0,-1,748,1282,0,0
-469,-258,0,0,0,0,0,0,0,0,0,-1,755,1282,0,0
-462,-258,0,0,0,0,0,0,0,0,0,-1,762,1282,0,0
-455,-258,0,0,0,0,0,0,0,0,0,-1,769,1282,0,0
-448,-258,0,0,0,0,0,0,0,0,0,-1,776,1282,0,0
-441,-258,0,0,0,0,0,0,0,0,0,-1,783,1282,0,0
-434,-258,0,0,0,0,0,0,0,0,0,-1,790,1282,0,0
-427,-258,0,0,0,0,0,0,0,0,0,-1,797,1282,0,0
-420,-258,0,0,0,0,0,0,0,0,0,-1,804,1282,0,0
-413,-258,0,0,0,0,0,0,0,0,0,-1,811,1282,0,0
-406,-258,0,0,0,0,0,0,0,0,0,-1,818,1282,0,0
-399,-258,0,0,0,0,0,0,0,0,0,-1,825,1282,0,0
-392,-258,0,0,0,0,0,0,0,0,0,-1,832,1282,0,0
-385,-258,0,0,0,0,0,0,0,0,0,-1,839,1282,0,0
-378,-258,0,0,0,0,0,0,0,0,0,-1,846,1282,0,0
-371,-258,0,0,0,0,0,0,0,0,0,-1,853,1282,0,0
-364,-258,0,0,0,0,0,0,0,0,0,-1,860,1282,0,0
-357,-258,0,0,0,0,0,0,0,0,0,-1,867,1282,0,0
-350,-258,0,0,0,0,0,0,0,0,0,-1,874,1282,0,0
-343,-258,0,0,0,0,0,0,0,0,0,-1,881,1282,0,0
-336,-258,0,0,0,0,0,0,0,0,0,-1,888,1282,0,0
-329,-258,0,0,0,0,0,0,0,0,0,-1,895,1282,0,0
-322,-258,0,0,0,0,0,0,0,0,0,-1,902,1282,0,0
-315,-258,0,0,0,0,0,0,0,0,0,-1,909,1282,0,0
-308,-258,0,0,0,0,0,0,0,0,0,-1,916,1282,0,0
-301,-258,0,0,0,0,0,0,0,0,0,-1,923,1282,0,0
-294,-258,0,0,0,0,0,0,0,0,0,-1,930,1282,0,0
-287,-258,0,0,0,0,0,0,0,0,0,-1,937,1282,0,0
-280,-258,0,0,0,0,0,0,0,0,0,-1,944,1282,0,0
-273,-258,0,0,0,0,0,0,0,0,0,-1,951,1282,0,0
-266,-258,0,0,0,0,0,0,0,0,0,-1,958,1282,0,0
-259,-258,0,0,0,0,0,0,0,0,0,-1,965,1282,0,0
-252,-258,0,0,0,0,0,0,0,0,0,-1,972,1282,0,0
-245,-258,0,0,0,0,0,0,0,0,0,-1,979,1282,0,0
-238,-258,0,0,0,0,0,0,0,0,0,-1,986,1282,0,0
-231,-258,0,0,0,0,0,0,0,0,0,-1,993,1282,0,0
-224,-258,0,0,0,0,0,0,0,0,0,-1,1000,1282,0,0
-217,-258,0,0,0,0,0,0,0,0,0,-1,1007,1282,0,0
-210,-258,0,0,0,0,0,0,0,0,0,-1,1014,1282,0,0
-203,-258,0,0,0,0,0,0,0,0,0,-1,1021,1282,0,0
-196,-258,0,0,0,0,0,0,0,0,0,-1,1028,1282,0,0
-189,-258,0,0,0,0,0,0,0,0,0,-1,1035,1282,0,0
-182,-258,0,0,0,0,0,0,0,0,0,-1,1042,1282,0,0
-175,-258,0,0,0,0,0,0,0,0,0,-1,1049,1282,0,0
-168,-258,0,0,0,0,0,0,0,0,0,-1,1056,1282,0,0
-161,-258,0,0,0,0,0,0,0,0,0,-1,1063,1282,0,0
-154,-258,0,0,0,0,0,0,0,0,0,-1,1070,1282,0,0
-147,-258,0,0,0,0,0,0,0,0,0,-1,1077,1282,0,0
-140,-258,0,0,0,0,0,0,0,0,0,-1,1084,1282,0,0
-133,-258,0,0,0,0,0,0,0,0,0,-1,1091,1282,0,0
-126,-258,0,0,0,0,0,0,0,0,0,-1,1098,1282,0,0
-119,-258,0,0,0,0,0,0,0,0,0,-1,1105,1282,0,0
-112,-258,0,0,0,0,0,0,0,0,0,-1,1112,1282,0,0
-105,-258,0,0,0,0,0,0,0,0,0,-1,1119,1282,0,0
-98,-258,0,0,0,0,0,0,0,0,0,-1,1126,1282,0,0
-91,-258,0,0,0,0,0,0,0,0,0,-1,1133,1282,0,0
-84,-258,0,0,0,0,0,0,0,0,0,-1,1140,1282,0,0
-77,-258,0,0,0,0,0,0,0,0,0,-1,1147,1282,0,0
-70,-258,0,0,0,0,0,0,0,0,0,-1,1154,1282,0,0
-63,-258,0,0,0,0,0,0,0,0,0,-1,1161,1282,0,0
-56,-258,0,0,0,0,0,0,0,0,0,-1,1168,1282,0,0
-49,-258,0,0,0,0,0,0,0,0,0,-1,1175,1282,0,0
-42,-258,0,0,0,0,0,0,0,0,0,-1,1182,1282,0,0
-35,-258,0,0,0,0,0,0,0,0,0,-1,1189,1282,0,0
-28,-258,0,0,0,0,0,0,0,0,0,-1,1196,1282,0,0
-21,-258,0,0,0,0,0,0,0,0,0,-1,1203,1282,0,0
-14,-258,0,0,0,0,0,0,0,0,0,-1,1210,1282,0,0
-7,-258,0,0,0,0,0,0,0,0,0,-1,1217,1282,0,0
0,-258,0,0,0,0,0,0,0,0,0,-1,1224,1282,0,0
7,-258,0,0,0,0,0,0,0,0,0,-1,1231,1282,0,0
14,-258,0,0,0,0,0,0,0,0,0,-1,1238,1282,0,0
21,-258,0,0,0,0,0,0,0,0,0,-1,1245,1282,0,0
28,-258,0,0,0,0,0,0,0,0,0,-1,1252,1282,0,0
35,-258,0,0,0,0,0,0,0,0,0,-1,1259,1282,0,0
42,-258,0,0,0,0,0,0,0,0,0,-1,1266,1282,0,0
49,-258,0,0,0,0,0,0,0,0,0,-1,1273,1282,0,0
56,-258,0,0,0,0,0,0,0,0,0,-1,1280,1282,0,0
63,-258,0,0,0,0,0,0,0,0,0,-1,1287,1282,0,0
70,-258,0,0,0,0,0,0,0,0,0,-1,1294,1282,0,0
77,-258,0,0,0,0,0,0,0,0,0,-1,1301,1282,0,0
84,-258,0,0,0,0,0,0,0,0,0,-1,1308,1282,0,0
91,-258,0,0,0,0,0,0,0,0,0,-1,1315,1282,0,0
98,-258,0,0,0,0,0,0,0,0,0,-1,1322,1282,0,0
105,-258,0,0,0,0,0,0,0,0,0,-1,1329,1282,0,0
112,-258,0,0,0,0,0,0,0,0,0,-1,1336,1282,0,0
119,-258,0,0,0,0,0,0,0,0,0,-1,1343,1282,0,0
126,-258,0,0,0,0,0,0,0,0,0,-1,1350,1282,0,0
133,-258,0,0,0,0,0,0,0,0,0,-1,1357,1282,0,0
140,-258,0,0,0,0,0,0,0,0,0,-1,1364,1282,0,0
147,-258,0,0,0,0,0,0,0,0,0,-1,1371,1282,0,0
154,-258,0,0,0,0,0,0,0,0,0,-1,1378,1282,0,0
161,-258,0,0,0,0,0,0,0,0,0,-1,1385,1282,0,0
168,-258,0,0,0,0,0,0,0,0,0,-1,1392,1282,0,0
175,-258,0,0,0,0,0,0,0,0,0,-1,1399,1282,0,0
182,-258,0,0,0,0,0,0,0,0,0,-1,1406,1282,0,0
189,-258,0,0,0,0,0,0,0,0,0,-1,1413,1282,0,0
196,-258,0,0,0,0,0,0,0,0,0,-1,1420,1282,0,0
203,-258,0,0,0,0,0,0,0,0,0,-1,1427,1282,0,0
210,-258,0,0,0,0,0,0,0,0,0,-1,1434,1282,0,0
217,-258,0,0,0,0,0,0,0,0,0,-1,1441,1282,0,0
224,-258,0,0,0,0,0,0,0,0,0,-1,1448,1282,0,0
231,-258,0,0,0,0,0,0,0,0,0,-1,1455,1282,0,0
238,-258,0,0,0,0,0,0,0,0,0,-1,1462,1282,0,0
245,-258,0,0,0,0,0,0,0,0,0,-1,1469,1282,0,0
252,-258,0,0,0,0,0,0,0,0,0,-1,1476,1282,0,0
259,-258,0,0,0,0,0,0,0,0,0,-1,1483,1282,0,0
266,-258,0,0,0,0,0,0,0,0,0,-1,1490,1282,0,0
273,-258,0,0,0,0,0,0,0,0,0,-1,1497,1282,0,0
280,-258,0,0,0,0,0,0,0,0,0,-1,1504,1282,0,0
287,-258,0,0,0,0,0,0,0,0,0,-1,1511,1282,0,0
294,-258,0,0,0,0,0,0,0,0,0,-1,1518,1282,0,0
301,-258,0,0,0,0,0,0,0,0,0,-1,1525,1282,0,0
308,-258,0,0,0,0,0,0,0,0,0,-1,1532,1282,0,0
315,-258,0,0,0,0,0,0,0,0,0,-1,1539,1282,0,0
322,-258,0,0,0,0,0,0,0,0,0,-1,1546,1282,0,0
329,-258,0,0,0,0,0,0,0,0,0,-1,1553,1282,0,0
336,-258,0,0,0,0,0,0,0,0,0,-1,1560,1282,0,0
343,-258,0,0,0,0,0,0,0,0,0,-1,1567,1282,0,0
350,-258,0,0,0,0,0,0,0,0,0,-1,1574,1282,0,0
357,-258,0,0,0,0,0,0,0,0,0,-1,1581,1282,0,0
364,-258,0,0,0,0,0,0,0,0,0,-1,1588,1282,0,0
371,-258,0,0,0,0,0,0,0,0,0,-1,1595,1282,0,0
378,-258,0,0,0,0,0,0,0,0,0,-1,1602,1282,0,0
385,-258,0,0,0,0,0,0,0,0,0,-1,1609,1282,0,0
392,-258,0,0,0,0,0,0,0,0,0,-1,1616,1282,0,0
399,-258,0,0,0,0,0,0,0,0,0,-1,1623,1282,0,0
406,-258,0,0,0,0,0,0,0,0,0,-1,1630,1282,0,0
413,-258,0,0,0,0,0,0,0,0,0,-1,1637,1282,0,0
420,-258,0,0,0,0,0,0,0,0,0,-1,1644,1282,0,0
427,-258,0,0,0,0,0,0,0,0,0,-1,1651,1282,0,0
434,-258,0,0,0,0,0,0,0,0,0,-1,1658,1282,0,0
441,-258,0,0,0,0,0,0,0,0,0,-1,1665,1282,0,0
448,-258,0,0,0,0,0,0,0,0,0,-1,1672,1282,0,0
455,-258,0,0,0,0,0,0,0,0,0,-1,1679,1282,0,0
462,-258,0,0,0,0,0,0,0,0,0,-1,1686,1282,0,0
469,-258,0,0,0,0,0,0,0,0,0,-1,1693,1282,0,0
476,-258,0,0,0,0,0,0,0,0,0,-1,1700,1282,0,0
483,-258,0,0,0,0,0,0,0,0,0,-1,1707,1282,0,0
490,-258,0,0,0,0,0,0,0,0,0,-1,1714,1282,0,0
497,-258,0,0,0,0,0,0,0,0,0,-1,1721,1282,0,0
504,-258,0,0,0,0,0,0,0,0,0,-1,1728,1282,0,0
511,-258,0,0,0,0,0,0,0,0,0,-1,1735,1282,0,0
518,-258,0,0,0,0,0,0,0,0,0,-1,1742,1282,0,0
525,-258,0,0,0,0,0,0,0,0,0,-1,1749,1282,0,0
532,-258,0,0,0,0,0,0,0,0,0,-1,1756,1282,0,0
539,-258,0,0,0,0,0,0,0,0,0,-1,1763,1282,0,0
546,-258,0,0,0,0,0,0,0,0,0,-1,1770,1282,0,0
553,-258,0,0,0,0,0,0,0,0,0,-1,1777,1282,0,0
560,-258,0,0,0,0,0,0,0,0,0,-1,1784,1282,0,0
567,-258,0,0,0,0,0,0,0,0,0,-1,1791,1282,0,0
574,-258,0,0,0,0,0,0,0,0,0,-1,1798,1282,0,0
581,-258,0,0,0,0,0,0,0,0,0,-1,1805,1282,0,0
588,-258,0,0,0,0,0,0,0,0,0,-1,1812,1282,0,0
595,-258,0,0,0,0,0,0,0,0,0,-1,1819,1282,0,0
602,-258,0,0,0,0,0,0,0,0,0,-1,1826,1282,0,0
609,-258,64.6549,2.68945,0.00632615,0.00354942,-5.59516e-05,0.00632727,0.00354829,-0.0201393,0.00366204,0.0268238,1833,1282,64.6549,-2.68951
616,-258,64.6155,2.6897,0.00220076,-0.00173951,-0.000635466,0.00230071,-0.00183946,-0.156007,0.00239527,0.0250267,1840,1282,64.6155,-2.68972
623,-258,64.6161,2.68176,-0.00136559,-0.00670275,-0.00119652,-0.00110962,-0.00695872,-0.210751,0.00431707,0.0381626,1847,1282,64.6161,-2.68178
630,-258,64.6915,2.6355,-0.00386551,-0.0093382,-0.00151915,-0.00347209,-0.00973162,-0.253404,0.00569486,0.0466658,1854,1282,64.6915,-2.63548
637,-258,64.6699,2.50732,-0.00380531,-0.00851659,-0.00146934,-0.00338461,-0.00893728,-0.278852,0.0052103,0.0459566,1861,1282,64.6699,-2.50734
644,-258,64.8414,2.3219,0,0,0,0,0,0,0,-1,1868,1282,64.8414,-2.32188
651,-258,63.3014,2.33752,0,0,0,0,0,0,0,-1,1875,1282,63.3014,-2.33747
658,-258,45.4424,3.1405,0,0,0,0,0,0,0,-1,1882,1282,45.4423,-3.14046
665,-258,35.4747,1.1864,0,0,0,0,0,0,0,-1,1889,1282,35.4747,-1.18637
672,-258,22.703,2.80957,0,0,0,0,0,0,0,-1,1896,1282,22.703,-2.80962
679,-258,26.8693,8.19543,0,0,0,0,0,0,0,-1,1903,1282,26.8692,-8.19548
686,-258,47.0807,12.8862,0,0,0,0,0,0,0,-1,1910,1282,47.0807,-12.8863
693,-258,47.0077,12.2365,0.000881675,-0.00146758,-0.000741426,0.0010961,-0.00168201,-0.281523,0.00161579,0.0184268,1917,1282,47.0077,-12.2364
700,-258,46.9513,11.5876,0.0020025,-0.00162228,1.802e-05,0.00200259,-0.00162237,0.00497116,0.00209671,0.00983698,1924,1282,46.9513,-11.5877
707,-258,46.9363,10.9614,0.000713427,-0.0010923,0.000420163,0.000806405,-0.00118527,0.21778,0.00115681,0.0111396,1931,1282,46.9363,-10.9615
714,-258,46.9059,10.3495,-0.000717831,-0.000724454,0.00107939,0.00035825,-0.00180054,0.783864,0.00133588,0.0119681,1938,1282,46.9059,-10.3495
721,-258,46.8668,9.7207,-0.00219336,-0.000508681,0.00188669,0.000715172,-0.00341721,0.995353,0.00255018,0.0223239,1945,1282,46.8668,-9.72075
728,-258,46.8005,9.13525,-0.00370409,-0.000548583,0.00277942,0.00106968,-0.00532235,1.04355,0.00395333,0.0215687,1952,1282,46.8005,-9.13531
735,-258,46.8228,8.49158,-0.00540014,-0.000623429,0.00378153,0.00146082,-0.00748439,1.06706,0.0055411,0.0181529,1959,1282,46.8228,-8.4916
742,-258,46.7714,7.90649,-0.00728499,-0.000768494,0.00494116,0.00189197,-0.00994546,1.07688,0.00734267,0.0188738,1966,1282,46.7714,-7.90644
749,-258,46.5963,7.4469,-0.00942133,-0.000925358,0.00623975,0.00237516,-0.0127218,1.08426,0.00937379,0.0411255,1973,1282,46.5963,-7.44685
756,-258,46.4606,6.86975,0,0,0,0,0,0,0,-1,1980,1282,46.4606,-6.86976
763,-258,39.3638,5.09753,0,0,0,0,0,0,0,-1,1987,1282,39.3638,-5.09751
770,-258,40.3713,4.08325,0,0,0,0,0,0,0,-1,1994,1282,40.3713,-4.08323
777,-258,31.912,4.83093,0,0,0,0,0,0,0,-1,2001,1282,31.912,-4.8309
784,-258,32.6525,6.43091,0,0,0,0,0,0,0,-1,2008,1282,32.6525,-6.43091
791,-258,0,0,0,0,0,0,0,0,0,-1,2015,1282,0,0
798,-258,0,0,0,0,0,0,0,0,0,-1,2022,1282,0,0
805,-258,0,0,0,0,0,0,0,0,0,-1,2029,1282,0,0
812,-258,0,0,0,0,0,0,0,0,0,-1,2036,1282,0,0
-700,-265,0,0,0,0,0,0,0,0,0,-1,524,1289,0,0
-693,-265,0,0,0,0,0,0,0,0,0,-1,531,1289,0,0
-686,-265,0,0,0,0,0,0,0,0,0,-1,538,1289,0,0
-679,-265,0,0,0,0,0,0,0,0,0,-1,545,1289,0,0
-672,-265,0,0,0,0,0,0,0,0,0,-1,552,1289,0,0
-665,-265,-44.553,1.771,0,0,0,0,0,0,0,-1,559,1289,-44.553,-1.77096
-658,-265,-44.9351,1.32117,0,0,0,0,0,0,0,-1,566,1289,-44.9351,-1.32118
-651,-265,-44.821,1.0614,0,0,0,0,0,0,0,-1,573,1289,-44.821,-1.06141
-644,-265,-44.4684,0.304932,0,0,0,0,0,0,0,-1,580,1289,-44.4684,-0.304991
-637,-265,-44.6157,0.250122,0,0,0,0,0,0,0,-1,587,1289,-44.6157,-0.250067
-630,-265,-44.5689,0.900269,0,0,0,0,0,0,0,-1,594,1289,-44.5689,-0.900302
-623,-265,-29.6664,4.0238,0,0,0,0,0,0,0,-1,601,1289,-29.6664,-4.02379
-616,-265,-29.622,4.88855,0.00697672,0.0116316,0.0103516,0.0199142,-0.00130581,0.895979,0.0137321,0.048761,608,1289,-29.622,-4.88849
-609,-265,-29.6187,5.80933,0.00798853,0.00766757,0.00696739,0.0147973,0.000858816,0.773884,0.00959141,0.0203854,615,1289,-29.6187,-5.80929
-602,-265,-29.6838,6.55457,0.00688685,0.00527305,0.00446454,0.0106168,0.00154308,0.695996,0.00662371,0.0152291,622,1289,-29.6838,-6.55455
-595,-265,-29.7167,7.23938,0.00487942,0.00334748,0.00289756,0.00711054,0.00111636,0.656179,0.00441554,0.0131892,629,1289,-29.7166,-7.2394
-588,-265,-29.7347,7.89319,0.00342152,0.00172587,0.00170092,0.00447421,0.000673185,0.554193,0.00278566,0.0123748,636,1289,-29.7348,-7.89319
-581,-265,-29.7635,8.51929,0.00236983,0.000329755,0.000782327,0.00263529,6.42915e-05,0.327134,0.00173583,0.0142859,643,1289,-29.7635,-8.51923
-574,-265,-29.8103,9.23315,0.00164799,-0.000815831,0.00017044,0.00165972,-0.000827566,0.0687407,0.00146258,0.0146727,650,1289,-29.8103,-9.23318
-567,-265,-29.8642,9.94958,0.00138234,-0.00186533,-0.00011131,0.00138615,-0.00186914,-0.0342202,0.00188633,0.0213462,657,1289,-29.8642,-9.94957
-560,-265,-29.8867,10.6406,0.00111697,-0.00225368,0.000139307,0.00112271,-0.00225942,0.0412358,0.0019891,0.027679,664,1289,-29.8867,-10.6406
-553,-265,-29.772,11.2609,0,0,0,0,0,0,0,-1,671,1289,-29.772,-11.2609
-546,-265,-24.2283,10.2581,0,0,0,0,0,0,0,-1,678,1289,-24.2283,-10.258
-539,-265,-13.7668,6.39917,0,0,0,0,0,0,0,-1,685,1289,-13.7668,-6.39915
-532,-265,-8.53998,3.41467,0,0,0,0,0,0,0,-1,692,1289,-8.53996,-3.41473
-525,-265,-12.1317,0.514648,0,0,0,0,0,0,0,-1,699,1289,-12.1317,-0.514634
-518,-265,-24.1604,0.712402,0,0,0,0,0,0,0,-1,706,1289,-24.1604,-0.712425
-511,-265,-23.233,0.791626,0,0,0,0,0,0,0,-1,713,1289,-23.233,-0.791617
-504,-265,-22.3056,0.87085,0,0,0,0,0,0,0,-1,720,1289,-22.3056,-0.87081
-497,-265,-18.689,-0.278442,0,0,0,0,0,0,0,-1,727,1289,-18.689,0.278423
-490,-265,-15.1696,0.492676,0,0,0,0,0,0,0,-1,734,1289,-15.1696,-0.492688
-483,-265,0,0,0,0,0,0,0,0,0,-1,741,1289,0,0
-476,-265,0,0,0,0,0,0,0,0,0,-1,748,1289,0,0
-469,-265,0,0,0,0,0,0,0,0,0,-1,755,1289,0,0
-462,-265,0,0,0,0,0,0,0,0,0,-1,762,1289,0,0
-455,-265,0,0,0,0,0,0,0,0,0,-1,769,1289,0,0
-448,-265,0,0,0,0,0,0,0,0,0,-1,776,1289,0,0
-441,-265,0,0,0,0,0,0,0,0,0,-1,783,1289,0,0
-434,-265,0,0,0,0,0,0,0,0,0,-1,790,1289,0,0
-427,-265,0,0,0,0,0,0,0,0,0,-1,797,1289,0,0
-420,-265,0,0,0,0,0,0,0,0,0,-1,804,1289,0,0
-413,-265,0,0,0,0,0,0,0,0,0,-1,811,1289,0,0
-406,-265,0,0,0,0,0,0,0,0,0,-1,818,1289,0,0
-399,-265,0,0,0,0,0,0,0,0,0,-1,825,1289,0,0
-392,-265,0,0,0,0,0,0,0,0,0,-1,832,1289,0,0
-385,-265,0,0,0,0,0,0,0,0,0,-1,839,1289,0,0
-378,-265,0,0,0,0,0,0,0,0,0,-1,846,1289,0,0
-371,-265,0,0,0,0,0,0,0,0,0,-1,853,1289,0,0
-364,-265,0,0,0,0,0,0,0,0,0,-1,860,1289,0,0
-357,-265,0,0,0,0,0,0,0,0,0,-1,867,1289,0,0
-350,-265,0,0,0,0,0,0,0,0,0,-1,874,1289,0,0
-343,-265,0,0,0,0,0,0,0,0,0,-1,881,1289,0,0
-336,-265,0,0,0,0,0,0,0,0,0,-1,888,1289,0,0
-329,-265,0,0,0,0,0,0,0,0,0,-1,895,1289,0,0
-322,-265,0,0,0,0,0,0,0,0,0,-1,902,1289,0,0
-315,-265,0,0,0,0,0,0,0,0,0,-1,909,1289,0,0
-308,-265,0,0,0,0,0,0,0,0,0,-1,916,1289,0,0
-301,-265,0,0,0,0,0,0,0,0,0,-1,923,1289,0,0
-294,-265,0,0,0,0,0,0,0,0,0,-1,930,1289,0,0
-287,-265,0,0,0,0,0,0,0,0,0,-1,937,1289,0,0
-280,-265,0,0,0,0,0,0,0,0,0,-1,944,1289,0,0
-273,-265,0,0,0,0,0,0,0,0,0,-1,951,1289,0,0
-266,-265,0,0,0,0,0,0,0,0,0,-1,958,1289,0,0
-259,-265,0,0,0,0,0,0,0,0,0,-1,965,1289,0,0
-252,-265,0,0,0,0,0,0,0,0,0,-1,972,1289,0,0
-245,-265,0,0,0,0,0,0,0,0,0,-1,979,1289,0,0
-238,-265,0,0,0,0,0,0,0,0,0,-1,986,1289,0,0
-231,-265,0,0,0,0,0,0,0,0,0,-1,993,1289,0,0
-224,-265,0,0,0,0,0,0,0,0,0,-1,1000,1289,0,0
-217,-265,0,0,0,0,0,0,0,0,0,-1,1007,1289,0,0
-210,-265,0,0,0,0,0,0,0,0,0,-1,1014,1289,0,0
-203,-265,0,0,0,0,0,0,0,0,0,-1,1021,1289,0,0
-196,-265,0,0,0,0,0,0,0,0,0,-1,1028,1289,0,0
-189,-265,0,0,0,0,0,0,0,0,0,-1,1035,1289,0,0
-182,-265,0,0,0,0,0,0,0,0,0,-1,1042,1289,0,0
-175,-265,0,0,0,0,0,0,0,0,0,-1,1049,1289,0,0
-168,-265,0,0,0,0,0,0,0,0,0,-1,1056,1289,0,0
-161,-265,0,0,0,0,0,0,0,0,0,-1,1063,1289,0,0
-154,-265,0,0,0,0,0,0,0,0,0,-1,1070,1289,0,0
-147,-265,0,0,0,0,0,0,0,0,0,-1,1077,1289,0,0
-140,-265,0,0,0,0,0,0,0,0,0,-1,1084,1289,0,0
-133,-265,0,0,0,0,0,0,0,0,0,-1,1091,1289,0,0
-126,-265,0,0,0,0,0,0,0,0,0,-1,1098,1289,0,0
-119,-265,0,0,0,0,0,0,0,0,0,-1,1105,1289,0,0
-112,-265,0,0,0,0,0,0,0,0,0,-1,1112,1289,0,0
-105,-265,0,0,0,0,0,0,0,0,0,-1,1119,1289,0,0
-98,-265,0,0,0,0,0,0,0,0,0,-1,1126,1289,0,0
-91,-265,0,0,0,0,0,0,0,0,0,-1,1133,1289,0,0
-84,-265,0,0,0,0,0,0,0,0,0,-1,1140,1289,0,0
-77,-265,0,0,0,0,0,0,0,0,0,-1,1147,1289,0,0
-70,-265,0,0,0,0,0,0,0,0,0,-1,1154,1289,0,0
-63,-265,0,0,0,0,0,0,0,0,0,-1,1161,1289,0,0
-56,-265,0,0,0,0,0,0,0,0,0,-1,1168,1289,0,0
-49,-265,0,0,0,0,0,0,0,0,0,-1,1175,1289,0,0
-42,-265,0,0,0,0,0,0,0,0,0,-1,1182,1289,0,0
-35,-265,0,0,0,0,0,0,0,0,0,-1,1189,1289,0,0
-28,-265,0,0,0,0,0,0,0,0,0,-1,1196,1289,0,0
-21,-265,0,0,0,0,0,0,0,0,0,-1,1203,1289,0,0
-14,-265,0,0,0,0,0,0,0,0,0,-1,1210,1289,0,0
-7,-265,0,0,0,0,0,0,0,0,0,-1,1217,1289,0,0
0,-265,0,0,0,0,0,0,0,0,0,-1,1224,1289,0,0
7,-265,0,0,0,0,0,0,0,0,0,-1,1231,1289,0,0
14,-265,0,0,0,0,0,0,0,0,0,-1,1238,1289,0,0
21,-265,0,0,0,0,0,0,0,0,0,-1,1245,1289,0,0
28,-265,0,0,0,0,0,0,0,0,0,-1,1252,1289,0,0
35,-265,0,0,0,0,0,0,0,0,0,-1,1259,1289,0,0
42,-265,0,0,0,0,0,0,0,0,0,-1,1266,1289,0,0
49,-265,0,0,0,0,0,0,0,0,0,-1,1273,1289,0,0
56,-265,0,0,0,0,0,0,0,0,0,-1,1280,1289,0,0
63,-265,0,0,0,0,0,0,0,0,0,-1,1287,1289,0,0
70,-265,0,0,0,0,0,0,0,0,0,-1,1294,1289,0,0
77,-265,0,0,0,0,0,0,0,0,0,-1,1301,1289,0,0
84,-265,0,0,0,0,0,0,0,0,0,-1,1308,1289,0,0
91,-265,0,0,0,0,0,0,0,0,0,-1,1315,1289,0,0
98,-265,0,0,0,0,0,0,0,0,0,-1,1322,1289,0,0
105,-265,0,0,0,0,0,0,0,0,0,-1,1329,1289,0,0
112,-265,0,0,0,0,0,0,0,0,0,-1,1336,1289,0,0
119,-265,0,0,0,0,0,0,0,0,0,-1,1343,1289,0,0
126,-265,0,0,0,0,0,0,0,0,0,-1,1350,1289,0,0
133,-265,0,0,0,0,0,0,0,0,0,-1,1357,1289,0,0
140,-265,0,0,0,0,0,0,0,0,0,-1,1364,1289,0,0
147,-265,0,0,0,0,0,0,0,0,0,-1,1371,1289,0,0
154,-265,0,0,0,0,0,0,0,0,0,-1,1378,1289,0,0
161,-265,0,0,0,0,0,0,0,0,0,-1,1385,1289,0,0
168,-265,0,0,0,0,0,0,0,0,0,-1,1392,1289,0,0
175,-265,0,0,0,0,0,0,0,0,0,-1,1399,1289,0,0
182,-265,0,0,0,0,0,0,0,0,0,-1,1406,1289,0,0
189,-265,0,0,0,0,0,0,0,0,0,-1,1413,1289,0,0
196,-265,0,0,0,0,0,0,0,0,0,-1,1420,1289,0,0
203,-265,0,0,0,0,0,0,0,0,0,-1,1427,1289,0,0
210,-265,0,0,0,0,0,0,0,0,0,-1,1434,1289,0,0
217,-265,0,0,0,0,0,0,0,0,0,-1,1441,1289,0,0
224,-265,0,0,0,0,0,0,0,0,0,-1,1448,1289,0,0
231,-265,0,0,0,0,0,0,0,0,0,-1,1455,1289,0,0
238,-265,0,0,0,0,0,0,0,0,0,-1,1462,1289,0,0
245,-265,0,0,0,0,0,0,0,0,0,-1,1469,1289,0,0
252,-265,0,0,0,0,0,0,0,0,0,-1,1476,1289,0,0
259,-265,0,0,0,0,0,0,0,0,0,-1,1483,1289,0,0
266,-265,0,0,0,0,0,0,0,0,0,-1,1490,1289,0,0
273,-265,0,0,0,0,0,0,0,0,0,-1,1497,1289,0,0
280,-265,0,0,0,0,0,0,0,0,0,-1,1504,1289,0,0
287,-265,0,0,0,0,0,0,0,0,0,-1,1511,1289,0,0
294,-265,0,0,0,0,0,0,0,0,0,-1,1518,1289,0,0
301,-265,0,0,0,0,0,0,0,0,0,-1,1525,1289,0,0
308,-265,0,0,0,0,0,0,0,0,0,-1,1532,1289,0,0
315,-265,0,0,0,0,0,0,0,0,0,-1,1539,1289,0,0
322,-265,0,0,0,0,0,0,0,0,0,-1,1546,1289,0,0
329,-265,0,0,0,0,0,0,0,0,0,-1,1553,1289,0,0
336,-265,0,0,0,0,0,0,0,0,0,-1,1560,1289,0,0
343,-265,0,0,0,0,0,0,0,0,0,-1,1567,1289,0,0
350,-265,0,0,0,0,0,0,0,0,0,-1,1574,1289,0,0
357,-265,0,0,0,0,0,0,0,0,0,-1,1581,1289,0,0
364,-265,0,0,0,0,0,0,0,0,0,-1,1588,1289,0,0
371,-265,0,0,0,0,0,0,0,0,0,-1,1595,1289,0,0
378,-265,0,0,0,0,0,0,0,0,0,-1,1602,1289,0,0
385,-265,0,0,0,0,0,0,0,0,0,-1,1609,1289,0,0
392,-265,0,0,0,0,0,0,0,0,0,-1,1616,1289,0,0
399,-265,0,0,0,0,0,0,0,0,0,-1,1623,1289,0,0
406,-265,0,0,0,0,0,0,0,0,0,-1,1630,1289,0,0
413,-265,0,0,0,0,0,0,0,0,0,-1,1637,1289,0,0
420,-265,0,0,0,0,0,0,0,0,0,-1,1644,1289,0,0
427,-265,0,0,0,0,0,0,0,0,0,-1,1651,1289,0,0
434,-265,0,0,0,0,0,0,0,0,0,-1,1658,1289,0,0
441,-265,0,0,0,0,0,0,0,0,0,-1,1665,1289,0,0
448,-265,0,0,0,0,0,0,0,0,0,-1,1672,1289,0,0
455,-265,0,0,0,0,0,0,0,0,0,-1,1679,1289,0,0
462,-265,0,0,0,0,0,0,0,0,0,-1,1686,1289,0,0
469,-265,0,0,0,0,0,0,0,0,0,-1,1693,1289,0,0
476,-265,0,0,0,0,0,0,0,0,0,-1,1700,1289,0,0
483,-265,0,0,0,0,0,0,0,0,0,-1,1707,1289,0,0
490,-265,0,0,0,0,0,0,0,0,0,-1,1714,1289,0,0
497,-265,0,0,0,0,0,0,0,0,0,-1,1721,1289,0,0
504,-265,0,0,0,0,0,0,0,0,0,-1,1728,1289,0,0
511,-265,0,0,0,0,0,0,0,0,0,-1,1735,1289,0,0
518,-265,0,0,0,0,0,0,0,0,0,-1,1742,1289,0,0
525,-265,0,0,0,0,0,0,0,0,0,-1,1749,1289,0,0
532,-265,0,0,0,0,0,0,0,0,0,-1,1756,1289,0,0
539,-265,0,0,0,0,0,0,0,0,0,-1,1763,1289,0,0
546,-265,0,0,0,0,0,0,0,0,0,-1,1770,1289,0,0
553,-265,0,0,0,0,0,0,0,0,0,-1,1777,1289,0,0
560,-265,0,0,0,0,0,0,0,0,0,-1,1784,1289,0,0
567,-265,0,0,0,0,0,0,0,0,0,-1,1791,1289,0,0
574,-265,0,0,0,0,0,0,0,0,0,-1,1798,1289,0,0
581,-265,0,0,0,0,0,0,0,0,0,-1,1805,1289,0,0
588,-265,0,0,0,0,0,0,0,0,0,-1,1812,1289,0,0
595,-265,0,0,0,0,0,0,0,0,0,-1,1819,1289,0,0
602,-265,64.5555,2.70227,0.0110587,0.00907329,-0.00018705,0.0110762,0.00905582,-0.0931192,0.00681129,0.0273892,1826,1289,64.5556,-2.70232
609,-265,64.5737,2.68408,0.00761791,0.00247454,-0.000689638,0.00770877,0.00238367,-0.131001,0.00455738,0.0277064,1833,1289,64.5737,-2.68407
616,-265,64.6974,2.72534,0.00346732,-0.00375918,-0.00107167,0.00362289,-0.00391476,-0.144165,0.00435295,0.0343776,1840,1289,64.6973,-2.72533
623,-265,64.7747,2.72095,0.000135384,-0.00778703,-0.00128659,0.000339087,-0.00799073,-0.157025,0.00544371,0.0488254,1847,1289,64.7746,-2.72097
630,-265,64.6016,3.09387,-0.0021273,-0.00909063,-0.00130789,-0.00188975,-0.00932818,-0.17967,0.00569437,0.046203,1854,1289,64.6016,-3.09391
637,-265,64.2887,3.23132,-0.00245967,-0.00805548,-0.00121275,-0.00220814,-0.00830701,-0.204503,0.00496831,0.0483531,1861,1289,64.2887,-3.23136
644,-265,64.0488,3.27356,0,0,0,0,0,0,0,-1,1868,1289,64.0488,-3.2735
651,-265,53.6781,1.57166,0,0,0,0,0,0,0,-1,1875,1289,53.6781,-1.57167
658,-265,41.7163,3.71619,0,0,0,0,0,0,0,-1,1882,1289,41.7163,-3.71624
665,-265,34.7902,1.43164,0,0,0,0,0,0,0,-1,1889,1289,34.7901,-1.43162
672,-265,20.0045,6.62671,0,0,0,0,0,0,0,-1,1896,1289,20.0045,-6.62668
679,-265,46.3666,13.5696,0,0,0,0,0,0,0,-1,1903,1289,46.3666,-13.5696
686,-265,46.3419,12.9063,-0.00140244,-0.00288367,-0.000850678,-0.00101515,-0.00327096,-0.427228,0.00193324,0.0449176,1910,1289,46.3419,-12.9062
693,-265,46.3433,12.2651,0.000518422,-0.000925863,-0.0007863,0.000863874,-0.00127131,-0.413952,0.00124021,0.0114368,1917,1289,46.3433,-12.2651
700,-265,46.3119,11.6185,0.00148515,-0.001079,2.06047e-05,0.00148532,-0.00107916,0.00803501,0.00148678,0.0107013,1924,1289,46.3119,-11.6185
707,-265,46.2856,10.9789,0.000277452,-0.00079966,0.000527815,0.000492972,-0.00101518,0.387663,0.000887961,0.0101941,1931,1289,46.2856,-10.9789
714,-265,46.2542,10.3674,-0.00104491,-0.000640925,0.00122422,0.000397851,-0.00208369,0.86716,0.00153898,0.0131192,1938,1289,46.2542,-10.3674
721,-265,46.1708,9.73022,-0.00246785,-0.000602709,0.00202458,0.000693758,-0.00376432,1.00123,0.00276991,0.0160294,1945,1289,46.1708,-9.73021
728,-265,46.1315,9.13452,-0.00402146,-0.000696333,0.00291073,0.00099319,-0.00571099,1.04488,0.00417792,0.016016,1952,1289,46.1315,-9.13456
735,-265,46.1986,8.52405,-0.00581419,-0.000825265,0.00389279,0.00130371,-0.00794316,1.07033,0.00577924,0.0165309,1959,1289,46.1987,-8.52403
742,-265,46.1178,7.87512,-0.00787797,-0.00103185,0.00502263,0.00162325,-0.0105331,1.08451,0.00762098,0.0215493,1966,1289,46.1177,-7.87512
749,-265,45.949,7.13623,-0.0103327,-0.00124132,0.00626162,0.00195064,-0.0135247,1.09937,0.00973204,0.0474649,1973,1289,45.949,-7.13623
756,-265,45.9331,6.42554,0,0,0,0,0,0,0,-1,1980,1289,45.9331,-6.42548
763,-265,39.1299,4.9679,0,0,0,0,0,0,0,-1,1987,1289,39.1299,-4.96791
770,-265,35.1674,5.07715,0,0,0,0,0,0,0,-1,1994,1289,35.1673,-5.07718
777,-265,32.1664,5.3457,0,0,0,0,0,0,0,-1,2001,1289,32.1664,-5.34568
784,-265,0,0,0,0,0,0,0,0,0,-1,2008,1289,0,0
791,-265,0,0,0,0,0,0,0,0,0,-1,2015,1289,0,0
798,-265,0,0,0,0,0,0,0,0,0,-1,2022,1289,0,0
805,-265,0,0,0,0,0,0,0,0,0,-1,2029,1289,0,0
812,-265,0,0,0,0,0,0,0,0,0,-1,2036,1289,0,0
-700,-272,0,0,0,0,0,0,0,0,0,-1,524,1296,0,0
-693,-272,0,0,0,0,0,0,0,0,0,-1,531,1296,0,0
-686,-272,0,0,0,0,0,0,0,0,0,-1,538,1296,0,0
-679,-272,0,0,0,0,0,0,0,0,0,-1,545,1296,0,0
-672,-272,0,0,0,0,0,0,0,0,0,-1,552,1296,0,0
-665,-272,0,0,0,0,0,0,0,0,0,-1,559,1296,0,0
-658,-272,-44.6526,1.54443,0,0,0,0,0,0,0,-1,566,1296,-44.6526,-1.5444
-651,-272,-44.3723,1.53772,0,0,0,0,0,0,0,-1,573,1296,-44.3723,-1.53774
-644,-272,-44.1104,1.46021,0,0,0,0,0,0,0,-1,580,1296,-44.1104,-1.46022
-637,-272,-43.9348,1.25171,0,0,0,0,0,0,0,-1,587,1296,-43.9348,-1.25175
-630,-272,-43.5906,0.784912,0,0,0,0,0,0,0,-1,594,1296,-43.5906,-0.784935
-623,-272,-28.7057,3.26025,0,0,0,0,0,0,0,-1,601,1296,-28.7057,-3.26021
-616,-272,-28.8442,4.91675,0,0,0,0,0,0,0,-1,608,1296,-28.8442,-4.9168
-609,-272,-28.9202,5.9989,0.0093246,0.00860868,0.00774488,0.0167198,0.00121349,0.762305,0.0107649,0.0271085,615,1296,-28.9202,-5.99895
-602,-272,-28.9863,6.56287,0.00773569,0.00600165,0.00513367,0.012075,0.0016623,0.701743,0.00755712,0.0144901,622,1296,-28.9863,-6.56284
-595,-272,-29.039,7.26257,0.0055402,0.00392635,0.0034506,0.00827697,0.00118958,0.670537,0.0051673,0.0119194,629,1296,-29.039,-7.26252
-588,-272,-29.06,7.92542,0.00397175,0.00223375,0.00218882,0.00545777,0.000747734,0.596432,0.00341665,0.0114468,636,1296,-29.06,-7.92538
-581,-272,-29.0883,8.56714,0.00288303,0.000817091,0.00125267,0.0034737,0.000226424,0.440612,0.00224414,0.0105449,643,1296,-29.0883,-8.56719
-574,-272,-29.1297,9.26233,0.00222149,-0.000370251,0.000594495,0.00235135,-0.00050011,0.215058,0.00175814,0.0153287,650,1296,-29.1297,-9.26239
-567,-272,-29.1602,9.96094,0.00200239,-0.00136171,0.000206944,0.00201507,-0.0013744,0.0612079,0.00196853,0.0220882,657,1296,-29.1602,-9.96099
-560,-272,-29.1941,10.6609,0.00190681,-0.00183926,0.000295003,0.0019299,-0.00186235,0.0781083,0.00218957,0.0216558,664,1296,-29.1941,-10.6609
-553,-272,-29.1476,11.327,0.00196963,-0.00217045,0.00106847,0.00222911,-0.00242994,0.238246,0.00269074,0.0293552,671,1296,-29.1476,-11.327
-546,-272,-29.1446,12.1084,0,0,0,0,0,0,0,-1,678,1296,-29.1446,-12.1084
-539,-272,-24.1416,11.0325,0,0,0,0,0,0,0,-1,685,1296,-24.1416,-11.0324
-532,-272,-10.5572,4.53943,0,0,0,0,0,0,0,-1,692,1296,-10.5572,-4.53943
-525,-272,-11.9599,0.0393066,0,0,0,0,0,0,0,-1,699,1296,-11.9599,-0.0393577
-518,-272,-21.1357,-1.41382,0,0,0,0,0,0,0,-1,706,1296,-21.1357,1.41379
-511,-272,-23.2565,0.226318,0,0,0,0,0,0,0,-1,713,1296,-23.2565,-0.22626
-504,-272,-19.7397,0.114746,0,0,0,0,0,0,0,-1,720,1296,-19.7397,-0.114701
-497,-272,-19.2225,1.71301,0,0,0,0,0,0,0,-1,727,1296,-19.2225,-1.71302
-490,-272,-20.1948,2.4032,0,0,0,0,0,0,0,-1,734,1296,-20.1948,-2.40322
-483,-272,-15.3736,0.792603,0,0,0,0,0,0,0,-1,741,1296,-15.3736,-0.79263
-476,-272,0,0,0,0,0,0,0,0,0,-1,748,1296,0,0
-469,-272,0,0,0,0,0,0,0,0,0,-1,755,1296,0,0
-462,-272,0,0,0,0,0,0,0,0,0,-1,762,1296,0,0
-455,-272,0,0,0,0,0,0,0,0,0,-1,769,1296,0,0
-448,-272,0,0,0,0,0,0,0,0,0,-1,776,1296,0,0
-441,-272,0,0,0,0,0,0,0,0,0,-1,783,1296,0,0
-434,-272,0,0,0,0,0,0,0,0,0,-1,790,1296,0,0
-427,-272,0,0,0,0,0,0,0,0,0,-1,797,1296,0,0
-420,-272,0,0,0,0,0,0,0,0,0,-1,804,1296,0,0
-413,-272,0,0,0,0,0,0,0,0,0,-1,811,1296,0,0
-406,-272,0,0,0,0,0,0,0,0,0,-1,818,1296,0,0
-399,-272,0,0,0,0,0,0,0,0,0,-1,825,1296,0,0
-392,-272,0,0,0,0,0,0,0,0,0,-1,832,1296,0,0
-385,-272,0,0,0,0,0,0,0,0,0,-1,839,1296,0,0
-378,-272,0,0,0,0,0,0,0,0,0,-1,846,1296,0,0
-371,-272,0,0,0,0,0,0,0,0,0,-1,853,1296,0,0
-364,-272,0,0,0,0,0,0,0,0,0,-1,860,1296,0,0
-357,-272,0,0,0,0,0,0,0,0,0,-1,867,1296,0,0
-350,-272,0,0,0,0,0,0,0,0,0,-1,874,1296,0,0
-343,-272,0,0,0,0,0,0,0,0,0,-1,881,1296,0,0
-336,-272,0,0,0,0,0,0,0,0,0,-1,888,1296,0,0
-329,-272,0,0,0,0,0,0,0,0,0,-1,895,1296,0,0
-322,-272,0,0,0,0,0,0,0,0,0,-1,902,1296,0,0
-315,-272,0,0,0,0,0,0,0,0,0,-1,909,1296,0,0
-308,-272,0,0,0,0,0,0,0,0,0,-1,916,1296,0,0
-301,-272,0,0,0,0,0,0,0,0,0,-1,923,1296,0,0
-294,-272,0,0,0,0,0,0,0,0,0,-1,930,1296,0,0
-287,-272,0,0,0,0,0,0,0,0,0,-1,937,1296,0,0
-280,-272,0,0,0,0,0,0,0,0,0,-1,944,1296,0,0
-273,-272,0,0,0,0,0,0,0,0,0,-1,951,1296,0,0
-266,-272,0,0,0,0,0,0,0,0,0,-1,958,1296,0,0
-259,-272,0,0,0,0,0,0,0,0,0,-1,965,1296,0,0
-252,-272,0,0,0,0,0,0,0,0,0,-1,972,1296,0,0
-245,-272,0,0,0,0,0,0,0,0,0,-1,979,1296,0,0
-238,-272,0,0,0,0,0,0,0,0,0,-1,986,1296,0,0
-231,-272,0,0,0,0,0,0,0,0,0,-1,993,1296,0,0
-224,-272,0,0,0,0,0,0,0,0,0,-1,1000,1296,0,0
-217,-272,0,0,0,0,0,0,0,0,0,-1,1007,1296,0,0
-210,-272,0,0,0,0,0,0,0,0,0,-1,1014,1296,0,0
-203,-272,0,0,0,0,0,0,0,0,0,-1,1021,1296,0,0
-196,-272,0,0,0,0,0,0,0,0,0,-1,1028,1296,0,0
-189,-272,0,0,0,0,0,0,0,0,0,-1,1035,1296,0,0
-182,-272,0,0,0,0,0,0,0,0,0,-1,1042,1296,0,0
-175,-272,0,0,0,0,0,0,0,0,0,-1,1049,1296,0,0
-168,-272,0,0,0,0,0,0,0,0,0,-1,1056,1296,0,0
-161,-272,0,0,0,0,0,0,0,0,0,-1,1063,1296,0,0
-154,-272,0,0,0,0,0,0,0,0,0,-1,1070,1296,0,0
-147,-272,0,0,0,0,0,0,0,0,0,-1,1077,1296,0,0
-140,-272,0,0,0,0,0,0,0,0,0,-1,1084,1296,0,0
-133,-272,0,0,0,0,0,0,0,0,0,-1,1091,1296,0,0
-126,-272,0,0,0,0,0,0,0,0,0,-1,1098,1296,0,0
-119,-272,0,0,0,0,0,0,0,0,0,-1,1105,1296,0,0
-112,-272,0,0,0,0,0,0,0,0,0,-1,1112,1296,0,0
-105,-272,0,0,0,0,0,0,0,0,0,-1,1119,1296,0,0
-98,-272,0,0,0,0,0,0,0,0,0,-1,1126,1296,0,0
-91,-272,0,0,0,0,0,0,0,0,0,-1,1133,1296,0,0
-84,-272,0,0,0,0,0,0,0,0,0,-1,1140,1296,0,0
-77,-272,0,0,0,0,0,0,0,0,0,-1,1147,1296,0,0
-70,-272,0,0,0,0,0,0,0,0,0,-1,1154,1296,0,0
-63,-272,0,0,0,0,0,0,0,0,0,-1,1161,1296,0,0
-56,-272,0,0,0,0,0,0,0,0,0,-1,1168,1296,0,0
-49,-272,0,0,0,0,0,0,0,0,0,-1,1175,1296,0,0
-42,-272,0,0,0,0,0,0,0,0,0,-1,1182,1296,0,0
-35,-272,0,0,0,0,0,0,0,0,0,-1,1189,1296,0,0
-28,-272,0,0,0,0,0,0,0,0,0,-1,1196,1296,0,0
-21,-272,0,0,0,0,0,0,0,0,0,-1,1203,1296,0,0
-14,-272,0,0,0,0,0,0,0,0,0,-1,1210,1296,0,0
-7,-272,0,0,0,0,0,0,0,0,0,-1,1217,1296,0,0
0,-272,0,0,0,0,0,0,0,0,0,-1,1224,1296,0,0
7,-272,0,0,0,0,0,0,0,0,0,-1,1231,1296,0,0
14,-272,0,0,0,0,0,0,0,0,0,-1,1238,1296,0,0
21,-272,0,0,0,0,0,0,0,0,0,-1,1245,1296,0,0
28,-272,0,0,0,0,0,0,0,0,0,-1,1252,1296,0,0
35,-272,0,0,0,0,0,0,0,0,0,-1,1259,1296,0,0
42,-272,0,0,0,0,0,0,0,0,0,-1,1266,1296,0,0
49,-272,0,0,0,0,0,0,0,0,0,-1,1273,1296,0,0
56,-272,0,0,0,0,0,0,0,0,0,-1,1280,1296,0,0
63,-272,0,0,0,0,0,0,0,0,0,-1,1287,1296,0,0
70,-272,0,0,0,0,0,0,0,0,0,-1,1294,1296,0,0
77,-272,0,0,0,0,0,0,0,0,0,-1,1301,1296,0,0
84,-272,0,0,0,0,0,0,0,0,0,-1,1308,1296,0,0
91,-272,0,0,0,0,0,0,0,0,0,-1,1315,1296,0,0
98,-272,0,0,0,0,0,0,0,0,0,-1,1322,1296,0,0
105,-272,0,0,0,0,0,0,0,0,0,-1,1329,1296,0,0
112,-272,0,0,0,0,0,0,0,0,0,-1,1336,1296,0,0
119,-272,0,0,0,0,0,0,0,0,0,-1,1343,1296,0,0
126,-272,0,0,0,0,0,0,0,0,0,-1,1350,1296,0,0
133,-272,0,0,0,0,0,0,0,0,0,-1,1357,1296,0,0
140,-272,0,0,0,0,0,0,0,0,0,-1,1364,1296,0,0
147,-272,0,0,0,0,0,0,0,0,0,-1,1371,1296,0,0
154,-272,0,0,0,0,0,0,0,0,0,-1,1378,1296,0,0
161,-272,0,0,0,0,0,0,0,0,0,-1,1385,1296,0,0
168,-272,0,0,0,0,0,0,0,0,0,-1,1392,1296,0,0
175,-272,0,0,0,0,0,0,0,0,0,-1,1399,1296,0,0
182,-272,0,0,0,0,0,0,0,0,0,-1,1406,1296,0,0
189,-272,0,0,0,0,0,0,0,0,0,-1,1413,1296,0,0
196,-272,0,0,0,0,0,0,0,0,0,-1,1420,1296,0,0
203,-272,0,0,0,0,0,0,0,0,0,-1,1427,1296,0,0
210,-272,0,0,0,0,0,0,0,0,0,-1,1434,1296,0,0
217,-272,0,0,0,0,0,0,0,0,0,-1,1441,1296,0,0
224,-272,0,0,0,0,0,0,0,0,0,-1,1448,1296,0,0
231,-272,0,0,0,0,0,0,0,0,0,-1,1455,1296,0,0
238,-272,0,0,0,0,0,0,0,0,0,-1,1462,1296,0,0
245,-272,0,0,0,0,0,0,0,0,0,-1,1469,1296,0,0
252,-272,0,0,0,0,0,0,0,0,0,-1,1476,1296,0,0
259,-272,0,0,0,0,0,0,0,0,0,-1,1483,1296,0,0
266,-272,0,0,0,0,0,0,0,0,0,-1,1490,1296,0,0
273,-272,0,0,0,0,0,0,0,0,0,-1,1497,1296,0,0
280,-272,0,0,0,0,0,0,0,0,0,-1,1504,1296,0,0
287,-272,0,0,0,0,0,0,0,0,0,-1,1511,1296,0,0
294,-272,0,0,0,0,0,0,0,0,0,-1,1518,1296,0,0
301,-272,0,0,0,0,0,0,0,0,0,-1,1525,1296,0,0
308,-272,0,0,0,0,0,0,0,0,0,-1,1532,1296,0,0
315,-272,0,0,0,0,0,0,0,0,0,-1,1539,1296,0,0
322,-272,0,0,0,0,0,0,0,0,0,-1,1546,1296,0,0
329,-272,0,0,0,0,0,0,0,0,0,-1,1553,1296,0,0
336,-272,0,0,0,0,0,0,0,0,0,-1,1560,1296,0,0
343,-272,0,0,0,0,0,0,0,0,0,-1,1567,1296,0,0
350,-272,0,0,0,0,0,0,0,0,0,-1,1574,1296,0,0
357,-272,0,0,0,0,0,0,0,0,0,-1,1581,1296,0,0
364,-272,0,0,0,0,0,0,0,0,0,-1,1588,1296,0,0
371,-272,0,0,0,0,0,0,0,0,0,-1,1595,1296,0,0
378,-272,0,0,0,0,0,0,0,0,0,-1,1602,1296,0,0
385,-272,0,0,0,0,0,0,0,0,0,-1,1609,1296,0,0
392,-272,0,0,0,0,0,0,0,0,0,-1,1616,1296,0,0
399,-272,0,0,0,0,0,0,0,0,0,-1,1623,1296,0,0
406,-272,0,0,0,0,0,0,0,0,0,-1,1630,1296,0,0
413,-272,0,0,0,0,0,0,0,0,0,-1,1637,1296,0,0
420,-272,0,0,0,0,0,0,0,0,0,-1,1644,1296,0,0
427,-272,0,0,0,0,0,0,0,0,0,-1,1651,1296,0,0
434,-272,0,0,0,0,0,0,0,0,0,-1,1658,1296,0,0
441,-272,0,0,0,0,0,0,0,0,0,-1,1665,1296,0,0
448,-272,0,0,0,0,0,0,0,0,0,-1,1672,1296,0,0
455,-272,0,0,0,0,0,0,0,0,0,-1,1679,1296,0,0
462,-272,0,0,0,0,0,0,0,0,0,-1,1686,1296,0,0
469,-272,0,0,0,0,0,0,0,0,0,-1,1693,1296,0,0
476,-272,0,0,0,0,0,0,0,0,0,-1,1700,1296,0,0
483,-272,0,0,0,0,0,0,0,0,0,-1,1707,1296,0,0
490,-272,0,0,0,0,0,0,0,0,0,-1,1714,1296,0,0
497,-272,0,0,0,0,0,0,0,0,0,-1,1721,1296,0,0
504,-272,0,0,0,0,0,0,0,0,0,-1,1728,1296,0,0
511,-272,0,0,0,0,0,0,0,0,0,-1,1735,1296,0,0
518,-272,0,0,0,0,0,0,0,0,0,-1,1742,1296,0,0
525,-272,0,0,0,0,0,0,0,0,0,-1,1749,1296,0,0
532,-272,0,0,0,0,0,0,0,0,0,-1,1756,1296,0,0
539,-272,0,0,0,0,0,0,0,0,0,-1,1763,1296,0,0
546,-272,0,0,0,0,0,0,0,0,0,-1,1770,1296,0,0
553,-272,0,0,0,0,0,0,0,0,0,-1,1777,1296,0,0
560,-272,0,0,0,0,0,0,0,0,0,-1,1784,1296,0,0
567,-272,0,0,0,0,0,0,0,0,0,-1,1791,1296,0,0
574,-272,0,0,0,0,0,0,0,0,0,-1,1798,1296,0,0
581,-272,0,0,0,0,0,0,0,0,0,-1,1805,1296,0,0
588,-272,0,0,0,0,0,0,0,0,0,-1,1812,1296,0,0
595,-272,0,0,0,0,0,0,0,0,0,-1,1819,1296,0,0
602,-272,64.5685,2.6521,0.0135768,0.00869232,-0.00123338,0.0138706,0.00839855,-0.233826,0.00806739,0.0319434,1826,1296,64.5685,-2.6521
609,-272,64.5033,2.51746,0.0106074,0.00109723,-0.00143188,0.0108184,0.000886322,-0.146245,0.0069357,0.0372004,1833,1296,64.5033,-2.51742
616,-272,64.7477,2.62158,0.00701941,-0.00501883,-0.00146283,0.00719462,-0.00519404,-0.119204,0.00718362,0.0435475,1840,1296,64.7476,-2.62152
623,-272,64.9216,2.72839,0.00387582,-0.00734382,-0.00132313,0.00402974,-0.00749774,-0.115813,0.00675505,0.0477827,1847,1296,64.9217,-2.72845
630,-272,64.9612,2.73059,0,0,0,0,0,0,0,-1,1854,1296,64.9612,-2.73057
637,-272,64.4449,3.49536,0,0,0,0,0,0,0,-1,1861,1296,64.4449,-3.4954
644,-272,53.563,1.44336,0,0,0,0,0,0,0,-1,1868,1296,53.5629,-1.4433
651,-272,41.9225,4.27161,0,0,0,0,0,0,0,-1,1875,1296,41.9225,-4.27157
658,-272,35.1527,2.10571,0,0,0,0,0,0,0,-1,1882,1296,35.1527,-2.10573
665,-272,22.0238,4.14417,0,0,0,0,0,0,0,-1,1889,1296,22.0238,-4.14421
672,-272,22.661,7.21765,0,0,0,0,0,0,0,-1,1896,1296,22.661,-7.21761
679,-272,45.7499,13.6785,0,0,0,0,0,0,0,-1,1903,1296,45.7499,-13.6785
686,-272,45.6787,13.0039,-0.00208543,-0.00220061,-0.00102131,-0.00112009,-0.00316595,-0.757234,0.00185373,0.0334871,1910,1296,45.6788,-13.0039
693,-272,45.6873,12.3114,-9.02269e-05,-0.000219435,-0.00092075,0.000768183,-0.00107785,-0.750373,0.00107079,0.012838,1917,1296,45.6873,-12.3113
700,-272,45.6743,11.6648,0.000775637,-0.000526516,-1.27751e-05,0.000775762,-0.000526642,-0.00980951,0.000756514,0.0123795,1924,1296,45.6743,-11.6648
707,-272,45.6543,11.016,-0.000181364,-0.000556904,0.000627619,0.000285972,-0.00102424,0.640047,0.000795474,0.0111355,1931,1296,45.6543,-11.016
714,-272,45.605,10.3967,-0.00132407,-0.000622278,0.00136532,0.000436515,-0.00238286,0.911179,0.0017523,0.0144909,1938,1296,45.605,-10.3967
721,-272,45.5449,9.78418,-0.00268782,-0.000738059,0.00215769,0.000654762,-0.00408064,0.99758,0.0029629,0.0191211,1945,1296,45.545,-9.78414
728,-272,45.5471,9.1123,-0.00428512,-0.000900324,0.00302,0.000869157,-0.0060546,1.04079,0.00435513,0.0194456,1952,1296,45.5472,-9.11231
735,-272,45.5544,8.53613,-0.00617497,-0.00110799,0.00396803,0.00106637,-0.00834933,1.06951,0.00595359,0.0165617,1959,1296,45.5545,-8.5361
742,-272,45.4045,7.95691,-0.00842801,-0.00141116,0.00505112,0.00123044,-0.0110696,1.08894,0.00782221,0.0265728,1966,1296,45.4046,-7.95695
749,-272,45.2515,7.28418,-0.0112277,-0.00173031,0.00620397,0.00133376,-0.0142918,1.11205,0.0100021,0.0474311,1973,1296,45.2515,-7.28415
756,-272,45.2444,6.68567,0,0,0,0,0,0,0,-1,1980,1296,45.2444,-6.68569
763,-272,34.3995,5.88416,0,0,0,0,0,0,0,-1,1987,1296,34.3996,-5.88419
770,-272,25.9485,3.67749,0,0,0,0,0,0,0,-1,1994,1296,25.9485,-3.67744
777,-272,32.3619,6.13257,0,0,0,0,0,0,0,-1,2001,1296,32.362,-6.1326
784,-272,0,0,0,0,0,0,0,0,0,-1,2008,1296,0,0
791,-272,0,0,0,0,0,0,0,0,0,-1,2015,1296,0,0
798,-272,0,0,0,0,0,0,0,0,0,-1,2022,1296,0,0
805,-272,0,0,0,0,0,0,0,0,0,-1,2029,1296,0,0
812,-272,0,0,0,0,0,0,0,0,0,-1,2036,1296,0,0
-700,-279,0,0,0,0,0,0,0,0,0,-1,524,1303,0,0
-693,-279,0,0,0,0,0,0,0,0,0,-1,531,1303,0,0
-686,-279,0,0,0,0,0,0,0,0,0,-1,538,1303,0,0
-679,-279,0,0,0,0,0,0,0,0,0,-1,545,1303,0,0
-672,-279,0,0,0,0,0,0,0,0,0,-1,552,1303,0,0
-665,-279,0,0,0,0,0,0,0,0,0,-1,559,1303,0,0
-658,-279,-44.3733,1.65881,0,0,0,0,0,0,0,-1,566,1303,-44.3733,-1.65883
-651,-279,-44.1603,1.61462,0,0,0,0,0,0,0,-1,573,1303,-44.1604,-1.61462
-644,-279,-43.8069,1.50903,0,0,0,0,0,0,0,-1,580,1303,-43.8069,-1.50909
-637,-279,-43.2951,1.33704,0,0,0,0,0,0,0,-1,587,1303,-43.2951,-1.33703
-630,-279,-42.6152,1.22852,0,0,0,0,0,0,0,-1,594,1303,-42.6152,-1.22856
-623,-279,-41.8359,0.907715,0,0,0,0,0,0,0,-1,601,1303,-41.8358,-0.907688
-616,-279,-29.1827,4.90576,0,0,0,0,0,0,0,-1,608,1303,-29.1827,-4.90575
-609,-279,-28.6837,5.76172,0.0109295,0.00935678,0.00845339,0.018633,0.00165324,0.73902,0.0119092,0.0497206,615,1303,-28.6837,-5.76177
-602,-279,-28.2926,6.578,0.00844526,0.00659975,0.00576938,0.0133652,0.0016798,0.7061,0.00840633,0.0150001,622,1303,-28.2926,-6.57801
-595,-279,-28.3513,7.27087,0.00608525,0.00442525,0.00394692,0.00928849,0.001222,0.681763,0.00582786,0.00999314,629,1303,-28.3513,-7.27088
-588,-279,-28.3792,7.94067,0.00441232,0.00270031,0.00259427,0.00628816,0.000824474,0.626042,0.0039461,0.011085,636,1303,-28.3792,-7.94066
-581,-279,-28.4031,8.58728,0.00329266,0.00128807,0.00162592,0.00420039,0.00038034,0.509185,0.00268248,0.0124295,643,1303,-28.4031,-8.5873
-574,-279,-28.4431,9.27551,0.00261844,0.000125306,0.000957114,0.00294349,-0.00019975,0.327398,0.00203219,0.0142393,650,1303,-28.4431,-9.27557
-567,-279,-28.4688,9.95435,0.00235342,-0.000837178,0.000548397,0.00244505,-0.000928804,0.165552,0.0020124,0.0191934,657,1303,-28.4688,-9.95429
-560,-279,-28.491,10.674,0.00233853,-0.00143776,0.000515909,0.00240774,-0.00150697,0.133363,0.00228002,0.0174867,664,1303,-28.491,-10.674
-553,-279,-28.508,11.3744,0.00257611,-0.0018145,0.00105452,0.00281624,-0.00205464,0.223903,0.00282364,0.0160508,671,1303,-28.508,-11.3744
-546,-279,-28.5235,12.046,0.00270388,-0.00217928,0.00176807,0.00327683,-0.00275224,0.313376,0.00348527,0.0326663,678,1303,-28.5235,-12.046
-539,-279,-28.8749,12.8055,0,0,0,0,0,0,0,-1,685,1303,-28.8749,-12.8055
-532,-279,-14.9813,7.89917,0,0,0,0,0,0,0,-1,692,1303,-14.9813,-7.89918
-525,-279,-11.7063,-0.539185,0,0,0,0,0,0,0,-1,699,1303,-11.7063,0.539166
-518,-279,-16.8138,1.11963,0,0,0,0,0,0,0,-1,706,1303,-16.8138,-1.11968
-511,-279,-20.1063,-1.37915,0,0,0,0,0,0,0,-1,713,1303,-20.1062,1.37918
-504,-279,-18.3766,1.04578,0,0,0,0,0,0,0,-1,720,1303,-18.3767,-1.04577
-497,-279,-19.0046,2.08911,0,0,0,0,0,0,0,-1,727,1303,-19.0046,-2.08905
-490,-279,-20.0176,2.55188,0,0,0,0,0,0,0,-1,734,1303,-20.0176,-2.55183
-483,-279,-20.8064,2.99792,0,0,0,0,0,0,0,-1,741,1303,-20.8064,-2.99797
-476,-279,0,0,0,0,0,0,0,0,0,-1,748,1303,0,0
-469,-279,0,0,0,0,0,0,0,0,0,-1,755,1303,0,0
-462,-279,0,0,0,0,0,0,0,0,0,-1,762,1303,0,0
-455,-279,0,0,0,0,0,0,0,0,0,-1,769,1303,0,0
-448,-279,0,0,0,0,0,0,0,0,0,-1,776,1303,0,0
-441,-279,0,0,0,0,0,0,0,0,0,-1,783,1303,0,0
-434,-279,0,0,0,0,0,0,0,0,0,-1,790,1303,0,0
-427,-279,0,0,0,0,0,0,0,0,0,-1,797,1303,0,0
-420,-279,0,0,0,0,0,0,0,0,0,-1,804,1303,0,0
-413,-279,0,0,0,0,0,0,0,0,0,-1,811,1303,0,0
-406,-279,0,0,0,0,0,0,0,0,0,-1,818,1303,0,0
-399,-279,0,0,0,0,0,0,0,0,0,-1,825,1303,0,0
-392,-279,0,0,0,0,0,0,0,0,0,-1,832,1303,0,0
-385,-279,0,0,0,0,0,0,0,0,0,-1,839,1303,0,0
-378,-279,0,0,0,0,0,0,0,0,0,-1,846,1303,0,0
-371,-279,0,0,0,0,0,0,0,0,0,-1,853,1303,0,0
-364,-279,0,0,0,0,0,0,0,0,0,-1,860,1303,0,0
-357,-279,0,0,0,0,0,0,0,0,0,-1,867,1303,0,0
-350,-279,0,0,0,0,0,0,0,0,0,-1,874,1303,0,0
-343,-279,0,0,0,0,0,0,0,0,0,-1,881,1303,0,0
-336,-279,0,0,0,0,0,0,0,0,0,-1,888,1303,0,0
-329,-279,0,0,0,0,0,0,0,0,0,-1,895,1303,0,0
-322,-279,0,0,0,0,0,0,0,0,0,-1,902,1303,0,0
-315,-279,0,0,0,0,0,0,0,0,0,-1,909,1303,0,0
-308,-279,0,0,0,0,0,0,0,0,0,-1,916,1303,0,0
-301,-279,0,0,0,0,0,0,0,0,0,-1,923,1303,0,0
-294,-279,0,0,0,0,0,0,0,0,0,-1,930,1303,0,0
-287,-279,0,0,0,0,0,0,0,0,0,-1,937,1303,0,0
-280,-279,0,0,0,0,0,0,0,0,0,-1,944,1303,0,0
-273,-279,0,0,0,0,0,0,0,0,0,-1,951,1303,0,0
-266,-279,0,0,0,0,0,0,0,0,0,-1,958,1303,0,0
-259,-279,0,0,0,0,0,0,0,0,0,-1,965,1303,0,0
-252,-279,0,0,0,0,0,0,0,0,0,-1,972,1303,0,0
-245,-279,0,0,0,0,0,0,0,0,0,-1,979,1303,0,0
-238,-279,0,0,0,0,0,0,0,0,0,-1,986,1303,0,0
-231,-279,0,0,0,0,0,0,0,0,0,-1,993,1303,0,0
-224,-279,0,0,0,0,0,0,0,0,0,-1,1000,1303,0,0
-217,-279,0,0,0,0,0,0,0,0,0,-1,1007,1303,0,0
-210,-279,0,0,0,0,0,0,0,0,0,-1,1014,1303,0,0
-203,-279,0,0,0,0,0,0,0,0,0,-1,1021,1303,0,0
-196,-279,0,0,0,0,0,0,0,0,0,-1,1028,1303,0,0
-189,-279,0,0,0,0,0,0,0,0,0,-1,1035,1303,0,0
-182,-279,0,0,0,0,0,0,0,0,0,-1,1042,1303,0,0
-175,-279,0,0,0,0,0,0,0,0,0,-1,1049,1303,0,0
-168,-279,0,0,0,0,0,0,0,0,0,-1,1056,1303,0,0
-161,-279,0,0,0,0,0,0,0,0,0,-1,1063,1303,0,0
-154,-279,0,0,0,0,0,0,0,0,0,-1,1070,1303,0,0
-147,-279,0,0,0,0,0,0,0,0,0,-1,1077,1303,0,0
-140,-279,0,0,0,0,0,0,0,0,0,-1,1084,1303,0,0
-133,-279,0,0,0,0,0,0,0,0,0,-1,1091,1303,0,0
-126,-279,0,0,0,0,0,0,0,0,0,-1,1098,1303,0,0
-119,-279,0,0,0,0,0,0,0,0,0,-1,1105,1303,0,0
-112,-279,0,0,0,0,0,0,0,0,0,-1,1112,1303,0,0
-105,-279,0,0,0,0,0,0,0,0,0,-1,1119,1303,0,0
-98,-279,0,0,0,0,0,0,0,0,0,-1,1126,1303,0,0
-91,-279,0,0,0,0,0,0,0,0,0,-1,1133,1303,0,0
-84,-279,0,0,0,0,0,0,0,0,0,-1,1140,1303,0,0
-77,-279,0,0,0,0,0,0,0,0,0,-1,1147,1303,0,0
-70,-279,0,0,0,0,0,0,0,0,0,-1,1154,1303,0,0
-63,-279,0,0,0,0,0,0,0,0,0,-1,1161,1303,0,0
-56,-279,0,0,0,0,0,0,0,0,0,-1,1168,1303,0,0
-49,-279,0,0,0,0,0,0,0,0,0,-1,1175,1303,0,0
-42,-279,0,0,0,0,0,0,0,0,0,-1,1182,1303,0,0
-35,-279,0,0,0,0,0,0,0,0,0,-1,1189,1303,0,0
-28,-279,0,0,0,0,0,0,0,0,0,-1,1196,1303,0,0
-21,-279,0,0,0,0,0,0,0,0,0,-1,1203,1303,0,0
-14,-279,0,0,0,0,0,0,0,0,0,-1,1210,1303,0,0
-7,-279,0,0,0,0,0,0,0,0,0,-1,1217,1303,0,0
0,-279,0,0,0,0,0,0,0,0,0,-1,1224,1303,0,0
7,-279,0,0,0,0,0,0,0,0,0,-1,1231,1303,0,0
14,-279,0,0,0,0,0,0,0,0,0,-1,1238,1303,0,0
21,-279,0,0,0,0,0,0,0,0,0,-1,1245,1303,0,0
28,-279,0,0,0,0,0,0,0,0,0,-1,1252,1303,0,0
35,-279,0,0,0,0,0,0,0,0,0,-1,1259,1303,0,0
42,-279,0,0,0,0,0,0,0,0,0,-1,1266,1303,0,0
49,-279,0,0,0,0,0,0,0,0,0,-1,1273,1303,0,0
56,-279,0,0,0,0,0,0,0,0,0,-1,1280,1303,0,0
63,-279,0,0,0,0,0,0,0,0,0,-1,1287,1303,0,0
70,-279,0,0,0,0,0,0,0,0,0,-1,1294,1303,0,0
77,-279,0,0,0,0,0,0,0,0,0,-1,1301,1303,0,0
84,-279,0,0,0,0,0,0,0,0,0,-1,1308,1303,0,0
91,-279,0,0,0,0,0,0,0,0,0,-1,1315,1303,0,0
98,-279,0,0,0,0,0,0,0,0,0,-1,1322,1303,0,0
105,-279,0,0,0,0,0,0,0,0,0,-1,1329,1303,0,0
112,-279,0,0,0,0,0,0,0,0,0,-1,1336,1303,0,0
119,-279,0,0,0,0,0,0,0,0,0,-1,1343,1303,0,0
126,-279,0,0,0,0,0,0,0,0,0,-1,1350,1303,0,0
133,-279,0,0,0,0,0,0,0,0,0,-1,1357,1303,0,0
140,-279,0,0,0,0,0,0,0,0,0,-1,1364,1303,0,0
147,-279,0,0,0,0,0,0,0,0,0,-1,1371,1303,0,0
154,-279,0,0,0,0,0,0,0,0,0,-1,1378,1303,0,0
161,-279,0,0,0,0,0,0,0,0,0,-1,1385,1303,0,0
168,-279,0,0,0,0,0,0,0,0,0,-1,1392,1303,0,0
175,-279,0,0,0,0,0,0,0,0,0,-1,1399,1303,0,0
182,-279,0,0,0,0,0,0,0,0,0,-1,1406,1303,0,0
189,-279,0,0,0,0,0,0,0,0,0,-1,1413,1303,0,0
196,-279,0,0,0,0,0,0,0,0,0,-1,1420,1303,0,0
203,-279,0,0,0,0,0,0,0,0,0,-1,1427,1303,0,0
210,-279,0,0,0,0,0,0,0,0,0,-1,1434,1303,0,0
217,-279,0,0,0,0,0,0,0,0,0,-1,1441,1303,0,0
224,-279,0,0,0,0,0,0,0,0,0,-1,1448,1303,0,0
231,-279,0,0,0,0,0,0,0,0,0,-1,1455,1303,0,0
238,-279,0,0,0,0,0,0,0,0,0,-1,1462,1303,0,0
245,-279,0,0,0,0,0,0,0,0,0,-1,1469,1303,0,0
252,-279,0,0,0,0,0,0,0,0,0,-1,1476,1303,0,0
259,-279,0,0,0,0,0,0,0,0,0,-1,1483,1303,0,0
266,-279,0,0,0,0,0,0,0,0,0,-1,1490,1303,0,0
273,-279,0,0,0,0,0,0,0,0,0,-1,1497,1303,0,0
280,-279,0,0,0,0,0,0,0,0,0,-1,1504,1303,0,0
287,-279,0,0,0,0,0,0,0,0,0,-1,1511,1303,0,0
294,-279,0,0,0,0,0,0,0,0,0,-1,1518,1303,0,0
301,-279,0,0,0,0,0,0,0,0,0,-1,1525,1303,0,0
308,-279,0,0,0,0,0,0,0,0,0,-1,1532,1303,0,0
315,-279,0,0,0,0,0,0,0,0,0,-1,1539,1303,0,0
322,-279,0,0,0,0,0,0,0,0,0,-1,1546,1303,0,0
329,-279,0,0,0,0,0,0,0,0,0,-1,1553,1303,0,0
336,-279,0,0,0,0,0,0,0,0,0,-1,1560,1303,0,0
343,-279,0,0,0,0,0,0,0,0,0,-1,1567,1303,0,0
350,-279,0,0,0,0,0,0,0,0,0,-1,1574,1303,0,0
357,-279,0,0,0,0,0,0,0,0,0,-1,1581,1303,0,0
364,-279,0,0,0,0,0,0,0,0,0,-1,1588,1303,0,0
371,-279,0,0,0,0,0,0,0,0,0,-1,1595,1303,0,0
378,-279,0,0,0,0,0,0,0,0,0,-1,1602,1303,0,0
385,-279,0,0,0,0,0,0,0,0,0,-1,1609,1303,0,0
392,-279,0,0,0,0,0,0,0,0,0,-1,1616,1303,0,0
399,-279,0,0,0,0,0,0,0,0,0,-1,1623,1303,0,0
406,-279,0,0,0,0,0,0,0,0,0,-1,1630,1303,0,0
413,-279,0,0,0,0,0,0,0,0,0,-1,1637,1303,0,0
420,-279,0,0,0,0,0,0,0,0,0,-1,1644,1303,0,0
427,-279,0,0,0,0,0,0,0,0,0,-1,1651,1303,0,0
434,-279,0,0,0,0,0,0,0,0,0,-1,1658,1303,0,0
441,-279,0,0,0,0,0,0,0,0,0,-1,1665,1303,0,0
448,-279,0,0,0,0,0,0,0,0,0,-1,1672,1303,0,0
455,-279,0,0,0,0,0,0,0,0,0,-1,1679,1303,0,0
462,-279,0,0,0,0,0,0,0,0,0,-1,1686,1303,0,0
469,-279,0,0,0,0,0,0,0,0,0,-1,1693,1303,0,0
476,-279,0,0,0,0,0,0,0,0,0,-1,1700,1303,0,0
483,-279,0,0,0,0,0,0,0,0,0,-1,1707,1303,0,0
490,-279,0,0,0,0,0,0,0,0,0,-1,1714,1303,0,0
497,-279,0,0,0,0,0,0,0,0,0,-1,1721,1303,0,0
504,-279,0,0,0,0,0,0,0,0,0,-1,1728,1303,0,0
511,-279,0,0,0,0,0,0,0,0,0,-1,1735,1303,0,0
518,-279,0,0,0,0,0,0,0,0,0,-1,1742,1303,0,0
525,-279,0,0,0,0,0,0,0,0,0,-1,1749,1303,0,0
532,-279,0,0,0,0,0,0,0,0,0,-1,1756,1303,0,0
539,-279,0,0,0,0,0,0,0,0,0,-1,1763,1303,0,0
546,-279,0,0,0,0,0,0,0,0,0,-1,1770,1303,0,0
553,-279,0,0,0,0,0,0,0,0,0,-1,1777,1303,0,0
560,-279,0,0,0,0,0,0,0,0,0,-1,1784,1303,0,0
567,-279,0,0,0,0,0,0,0,0,0,-1,1791,1303,0,0
574,-279,0,0,0,0,0,0,0,0,0,-1,1798,1303,0,0
581,-279,0,0,0,0,0,0,0,0,0,-1,1805,1303,0,0
588,-279,0,0,0,0,0,0,0,0,0,-1,1812,1303,0,0
595,-279,0,0,0,0,0,0,0,0,0,-1,1819,1303,0,0
602,-279,64.5027,2.48108,0,0,0,0,0,0,0,-1,1826,1303,64.5027,-2.48104
609,-279,64.8142,2.76294,0,0,0,0,0,0,0,-1,1833,1303,64.8142,-2.76291
616,-279,64.9547,2.70703,0.0118546,-0.00354618,-0.00230015,0.0121908,-0.00388238,-0.145135,0.00968431,0.0483372,1840,1303,64.9547,-2.70698
623,-279,65.1058,2.68579,0.00861792,-0.00465989,-0.00165191,0.00882035,-0.00486232,-0.121935,0.00800911,0.0472895,1847,1303,65.1058,-2.68579
630,-279,65.2115,2.63806,0,0,0,0,0,0,0,-1,1854,1303,65.2115,-2.63803
637,-279,61.7209,2.64832,0,0,0,0,0,0,0,-1,1861,1303,61.7209,-2.64828
644,-279,33.5021,3.40234,0,0,0,0,0,0,0,-1,1868,1303,33.5021,-3.40237
651,-279,29.8456,2.3562,0,0,0,0,0,0,0,-1,1875,1303,29.8455,-2.35615
658,-279,21.5076,7.65649,0,0,0,0,0,0,0,-1,1882,1303,21.5076,-7.65648
665,-279,18.9794,6.09607,0,0,0,0,0,0,0,-1,1889,1303,18.9793,-6.09601
672,-279,23.5206,8.32507,0,0,0,0,0,0,0,-1,1896,1303,23.5206,-8.32512
679,-279,44.9685,13.6676,0,0,0,0,0,0,0,-1,1903,1303,44.9685,-13.6677
686,-279,45.0278,13.0334,-0.00155288,-0.00210523,-0.0010905,-0.000704129,-0.00295398,-0.661379,0.00178161,0.0307682,1910,1303,45.0278,-13.0334
693,-279,45.0293,12.361,0.000202693,-0.000257463,-0.000900845,0.000902377,-0.000957147,-0.66037,0.00107375,0.0176583,1917,1303,45.0293,-12.3609
700,-279,45.0127,11.7257,0.00066106,-0.000479787,1.58004e-05,0.000661279,-0.000480006,0.0138462,0.000661686,0.0126868,1924,1303,45.0128,-11.7257
707,-279,45.0009,11.0554,-0.000262337,-0.000583195,0.000722861,0.000317684,-0.00116322,0.6762,0.000900254,0.00977935,1931,1303,45.0009,-11.0554
714,-279,44.9604,10.4276,-0.00138144,-0.000742158,0.00148278,0.000455041,-0.00257864,0.891558,0.00188913,0.0113038,1938,1303,44.9604,-10.4276
721,-279,44.9673,9.77759,-0.002738,-0.000966884,0.00230145,0.000613504,-0.00431838,0.969057,0.0031037,0.0153926,1945,1303,44.9673,-9.77755
728,-279,44.957,9.1377,-0.00436914,-0.00125222,0.00318978,0.000739458,-0.00636082,1.01263,0.00450729,0.017421,1952,1303,44.957,-9.13772
735,-279,44.8938,8.57507,-0.0063558,-0.00160571,0.00416516,0.000813969,-0.00877548,1.04451,0.00613965,0.0166193,1959,1303,44.8938,-8.57503
742,-279,44.7947,7.98865,-0.00881143,-0.00208986,0.00527824,0.000806729,-0.011708,1.06889,0.00808768,0.0278002,1966,1303,44.7947,-7.98866
749,-279,44.7396,7.37048,0,0,0,0,0,0,0,-1,1973,1303,44.7396,-7.37054
756,-279,23.2091,4.43433,0,0,0,0,0,0,0,-1,1980,1303,23.2092,-4.43432
763,-279,27.1613,3.46265,0,0,0,0,0,0,0,-1,1987,1303,27.1613,-3.4627
770,-279,21.5828,3.54199,0,0,0,0,0,0,0,-1,1994,1303,21.5827,-3.54198
777,-279,32.5369,6.99609,0,0,0,0,0,0,0,-1,2001,1303,32.5369,-6.99608
784,-279,0,0,0,0,0,0,0,0,0,-1,2008,1303,0,0
791,-279,0,0,0,0,0,0,0,0,0,-1,2015,1303,0,0
798,-279,0,0,0,0,0,0,0,0,0,-1,2022,1303,0,0
805,-279,0,0,0,0,0,0,0,0,0,-1,2029,1303,0,0
812,-279,0,0,0,0,0,0,0,0,0,-1,2036,1303,0,0
-700,-286,0,0,0,0,0,0,0,0,0,-1,524,1310,0,0
-693,-286,0,0,0,0,0,0,0,0,0,-1,531,1310,0,0
-686,-286,0,0,0,0,0,0,0,0,0,-1,538,1310,0,0
-679,-286,0,0,0,0,0,0,0,0,0,-1,545,1310,0,0
-672,-286,0,0,0,0,0,0,0,0,0,-1,552,1310,0,0
-665,-286,0,0,0,0,0,0,0,0,0,-1,559,1310,0,0
-658,-286,-44.103,1.76782,0,0,0,0,0,0,0,-1,566,1310,-44.103,-1.76778
-651,-286,-43.6417,1.98254,0,0,0,0,0,0,0,-1,573,1310,-43.6416,-1.98254
-644,-286,-43.3175,1.59558,0,0,0,0,0,0,0,-1,580,1310,-43.3175,-1.59556
-637,-286,-42.8448,1.15039,0,0,0,0,0,0,0,-1,587,1310,-42.8448,-1.15043
-630,-286,-42.1176,0.443848,0,0,0,0,0,0,0,-1,594,1310,-42.1176,-0.443802
-623,-286,-41.3121,-0.468384,0,0,0,0,0,0,0,-1,601,1310,-41.3121,0.468376
-616,-286,-22.0634,2.37744,0,0,0,0,0,0,0,-1,608,1310,-22.0633,-2.37746
-609,-286,-28.2185,5.39929,0,0,0,0,0,0,0,-1,615,1310,-28.2185,-5.39928
-602,-286,-27.6601,6.52649,0.0090879,0.0071121,0.00627463,0.0144519,0.00174808,0.707317,0.00910801,0.02249,622,1310,-27.6601,-6.52648
-595,-286,-27.6885,7.2998,0.00654848,0.00482924,0.00431486,0.0100885,0.0012892,0.687074,0.00633979,0.0118633,629,1310,-27.6885,-7.29981
-588,-286,-27.7101,7.96167,0.00476321,0.00308125,0.00288734,0.00692955,0.000914913,0.643686,0.00434694,0.0126269,636,1310,-27.7101,-7.96162
-581,-286,-27.7057,8.62109,0.00362755,0.00169167,0.0019252,0.00481445,0.000504774,0.552465,0.0030553,0.0142225,643,1310,-27.7057,-8.62115
-574,-286,-27.7319,9.31653,0.00295599,0.000570814,0.00128608,0.00351733,9.47365e-06,0.411549,0.00234174,0.0152795,650,1310,-27.7319,-9.31658
-567,-286,-27.7903,10.0045,0.00267955,-0.000344136,0.000902905,0.00292865,-0.000593232,0.269187,0.00217728,0.0153832,657,1310,-27.7903,-10.0045
-560,-286,-27.8212,10.7048,0.00277256,-0.00102436,0.00083935,0.00294983,-0.00120163,0.208141,0.00246667,0.0145141,664,1310,-27.8212,-10.7048
-553,-286,-27.8354,11.3987,0.00327182,-0.00146441,0.00120797,0.00356211,-0.00175471,0.235846,0.00312823,0.0107798,671,1310,-27.8354,-11.3986
-546,-286,-27.8427,12.0964,0.00385539,-0.00186798,0.00179897,0.00437387,-0.00238646,0.280606,0.0039589,0.024747,678,1310,-27.8427,-12.0964
-539,-286,-28.0037,12.8873,0,0,0,0,0,0,0,-1,685,1310,-28.0037,-12.8873
-532,-286,-21.6771,10.4924,0,0,0,0,0,0,0,-1,692,1310,-21.6771,-10.4924
-525,-286,-11.4528,-1.11768,0,0,0,0,0,0,0,-1,699,1310,-11.4528,1.11769
-518,-286,-11.0701,1.37329,0,0,0,0,0,0,0,-1,706,1310,-11.0701,-1.37332
-511,-286,-17.7545,-0.0791016,0,0,0,0,0,0,0,-1,713,1310,-17.7544,0.0791606
-504,-286,-18.0455,1.29602,0,0,0,0,0,0,0,-1,720,1310,-18.0455,-1.29601
-497,-286,-18.3367,2.67114,0,0,0,0,0,0,0,-1,727,1310,-18.3366,-2.67118
-490,-286,-19.5795,2.47266,0,0,0,0,0,0,0,-1,734,1310,-19.5795,-2.4727
-483,-286,-19.7277,2.74744,0,0,0,0,0,0,0,-1,741,1310,-19.7277,-2.74747
-476,-286,-20.0391,3.06177,0,0,0,0,0,0,0,-1,748,1310,-20.0391,-3.06178
-469,-286,0,0,0,0,0,0,0,0,0,-1,755,1310,0,0
-462,-286,0,0,0,0,0,0,0,0,0,-1,762,1310,0,0
-455,-286,0,0,0,0,0,0,0,0,0,-1,769,1310,0,0
-448,-286,0,0,0,0,0,0,0,0,0,-1,776,1310,0,0
-441,-286,0,0,0,0,0,0,0,0,0,-1,783,1310,0,0
-434,-286,0,0,0,0,0,0,0,0,0,-1,790,1310,0,0
-427,-286,0,0,0,0,0,0,0,0,0,-1,797,1310,0,0
-420,-286,0,0,0,0,0,0,0,0,0,-1,804,1310,0,0
-413,-286,0,0,0,0,0,0,0,0,0,-1,811,1310,0,0
-406,-286,0,0,0,0,0,0,0,0,0,-1,818,1310,0,0
-399,-286,0,0,0,0,0,0,0,0,0,-1,825,1310,0,0
-392,-286,0,0,0,0,0,0,0,0,0,-1,832,1310,0,0
-385,-286,0,0,0,0,0,0,0,0,0,-1,839,1310,0,0
-378,-286,0,0,0,0,0,0,0,0,0,-1,846,1310,0,0
-371,-286,0,0,0,0,0,0,0,0,0,-1,853,1310,0,0
-364,-286,0,0,0,0,0,0,0,0,0,-1,860,1310,0,0
-357,-286,0,0,0,0,0,0,0,0,0,-1,867,1310,0,0
-350,-286,0,0,0,0,0,0,0,0,0,-1,874,1310,0,0
-343,-286,0,0,0,0,0,0,0,0,0,-1,881,1310,0,0
-336,-286,0,0,0,0,0,0,0,0,0,-1,888,1310,0,0
-329,-286,0,0,0,0,0,0,0,0,0,-1,895,1310,0,0
-322,-286,0,0,0,0,0,0,0,0,0,-1,902,1310,0,0
-315,-286,0,0,0,0,0,0,0,0,0,-1,909,1310,0,0
-308,-286,0,0,0,0,0,0,0,0,0,-1,916,1310,0,0
-301,-286,0,0,0,0,0,0,0,0,0,-1,923,1310,0,0
-294,-286,0,0,0,0,0,0,0,0,0,-1,930,1310,0,0
-287,-286,0,0,0,0,0,0,0,0,0,-1,937,1310,0,0
-280,-286,0,0,0,0,0,0,0,0,0,-1,944,1310,0,0
-273,-286,0,0,0,0,0,0,0,0,0,-1,951,1310,0,0
-266,-286,0,0,0,0,0,0,0,0,0,-1,958,1310,0,0
-259,-286,0,0,0,0,0,0,0,0,0,-1,965,1310,0,0
-252,-286,0,0,0,0,0,0,0,0,0,-1,972,1310,0,0
-245,-286,0,0,0,0,0,0,0,0,0,-1,979,1310,0,0
-238,-286,0,0,0,0,0,0,0,0,0,-1,986,1310,0,0
-231,-286,0,0,0,0,0,0,0,0,0,-1,993,1310,0,0
-224,-286,0,0,0,0,0,0,0,0,0,-1,1000,1310,0,0
-217,-286,0,0,0,0,0,0,0,0,0,-1,1007,1310,0,0
-210,-286,0,0,0,0,0,0,0,0,0,-1,1014,1310,0,0
-203,-286,0,0,0,0,0,0,0,0,0,-1,1021,1310,0,0
-196,-286,0,0,0,0,0,0,0,0,0,-1,1028,1310,0,0
-189,-286,0,0,0,0,0,0,0,0,0,-1,1035,1310,0,0
-182,-286,0,0,0,0,0,0,0,0,0,-1,1042,1310,0,0
-175,-286,0,0,0,0,0,0,0,0,0,-1,1049,1310,0,0
-168,-286,0,0,0,0,0,0,0,0,0,-1,1056,1310,0,0
-161,-286,0,0,0,0,0,0,0,0,0,-1,1063,1310,0,0
-154,-286,0,0,0,0,0,0,0,0,0,-1,1070,1310,0,0
-147,-286,0,0,0,0,0,0,0,0,0,-1,1077,1310,0,0
-140,-286,0,0,0,0,0,0,0,0,0,-1,1084,1310,0,0
-133,-286,0,0,0,0,0,0,0,0,0,-1,1091,1310,0,0
-126,-286,0,0,0,0,0,0,0,0,0,-1,1098,1310,0,0
-119,-286,0,0,0,0,0,0,0,0,0,-1,1105,1310,0,0
-112,-286,0,0,0,0,0,0,0,0,0,-1,1112,1310,0,0
-105,-286,0,0,0,0,0,0,0,0,0,-1,1119,1310,0,0
-98,-286,0,0,0,0,0,0,0,0,0,-1,1126,1310,0,0
-91,-286,0,0,0,0,0,0,0,0,0,-1,1133,1310,0,0
-84,-286,0,0,0,0,0,0,0,0,0,-1,1140,1310,0,0
-77,-286,0,0,0,0,0,0,0,0,0,-1,1147,1310,0,0
-70,-286,0,0,0,0,0,0,0,0,0,-1,1154,1310,0,0
-63,-286,0,0,0,0,0,0,0,0,0,-1,1161,1310,0,0
-56,-286,0,0,0,0,0,0,0,0,0,-1,1168,1310,0,0
-49,-286,0,0,0,0,0,0,0,0,0,-1,1175,1310,0,0
-42,-286,0,0,0,0,0,0,0,0,0,-1,1182,1310,0,0
-35,-286,0,0,0,0,0,0,0,0,0,-1,1189,1310,0,0
-28,-286,0,0,0,0,0,0,0,0,0,-1,1196,1310,0,0
-21,-286,0,0,0,0,0,0,0,0,0,-1,1203,1310,0,0
-14,-286,0,0,0,0,0,0,0,0,0,-1,1210,1310,0,0
-7,-286,0,0,0,0,0,0,0,0,0,-1,1217,1310,0,0
0,-286,0,0,0,0,0,0,0,0,0,-1,1224,1310,0,0
7,-286,0,0,0,0,0,0,0,0,0,-1,1231,1310,0,0
14,-286,0,0,0,0,0,0,0,0,0,-1,1238,1310,0,0
21,-286,0,0,0,0,0,0,0,0,0,-1,1245,1310,0,0
28,-286,0,0,0,0,0,0,0,0,0,-1,1252,1310,0,0
35,-286,0,0,0,0,0,0,0,0,0,-1,1259,1310,0,0
42,-286,0,0,0,0,0,0,0,0,0,-1,1266,1310,0,0
49,-286,0,0,0,0,0,0,0,0,0,-1,1273,1310,0,0
56,-286,0,0,0,0,0,0,0,0,0,-1,1280,1310,0,0
63,-286,0,0,0,0,0,0,0,0,0,-1,1287,1310,0,0
70,-286,0,0,0,0,0,0,0,0,0,-1,1294,1310,0,0
77,-286,0,0,0,0,0,0,0,0,0,-1,1301,1310,0,0
84,-286,0,0,0,0,0,0,0,0,0,-1,1308,1310,0,0
91,-286,0,0,0,0,0,0,0,0,0,-1,1315,1310,0,0
98,-286,0,0,0,0,0,0,0,0,0,-1,1322,1310,0,0
105,-286,0,0,0,0,0,0,0,0,0,-1,1329,1310,0,0
112,-286,0,0,0,0,0,0,0,0,0,-1,1336,1310,0,0
119,-286,0,0,0,0,0,0,0,0,0,-1,1343,1310,0,0
126,-286,0,0,0,0,0,0,0,0,0,-1,1350,1310,0,0
133,-286,0,0,0,0,0,0,0,0,0,-1,1357,1310,0,0
140,-286,0,0,0,0,0,0,0,0,0,-1,1364,1310,0,0
147,-286,0,0,0,0,0,0,0,0,0,-1,1371,1310,0,0
154,-286,0,0,0,0,0,0,0,0,0,-1,1378,1310,0,0
161,-286,0,0,0,0,0,0,0,0,0,-1,1385,1310,0,0
168,-286,0,0,0,0,0,0,0,0,0,-1,1392,1310,0,0
175,-286,0,0,0,0,0,0,0,0,0,-1,1399,1310,0,0
182,-286,0,0,0,0,0,0,0,0,0,-1,1406,1310,0,0
189,-286,0,0,0,0,0,0,0,0,0,-1,1413,1310,0,0
196,-286,0,0,0,0,0,0,0,0,0,-1,1420,1310,0,0
203,-286,0,0,0,0,0,0,0,0,0,-1,1427,1310,0,0
210,-286,0,0,0,0,0,0,0,0,0,-1,1434,1310,0,0
217,-286,0,0,0,0,0,0,0,0,0,-1,1441,1310,0,0
224,-286,0,0,0,0,0,0,0,0,0,-1,1448,1310,0,0
231,-286,0,0,0,0,0,0,0,0,0,-1,1455,1310,0,0
238,-286,0,0,0,0,0,0,0,0,0,-1,1462,1310,0,0
245,-286,0,0,0,0,0,0,0,0,0,-1,1469,1310,0,0
252,-286,0,0,0,0,0,0,0,0,0,-1,1476,1310,0,0
259,-286,0,0,0,0,0,0,0,0,0,-1,1483,1310,0,0
266,-286,0,0,0,0,0,0,0,0,0,-1,1490,1310,0,0
273,-286,0,0,0,0,0,0,0,0,0,-1,1497,1310,0,0
280,-286,0,0,0,0,0,0,0,0,0,-1,1504,1310,0,0
287,-286,0,0,0,0,0,0,0,0,0,-1,1511,1310,0,0
294,-286,0,0,0,0,0,0,0,0,0,-1,1518,1310,0,0
301,-286,0,0,0,0,0,0,0,0,0,-1,1525,1310,0,0
308,-286,0,0,0,0,0,0,0,0,0,-1,1532,1310,0,0
315,-286,0,0,0,0,0,0,0,0,0,-1,1539,1310,0,0
322,-286,0,0,0,0,0,0,0,0,0,-1,1546,1310,0,0
329,-286,0,0,0,0,0,0,0,0,0,-1,1553,1310,0,0
336,-286,0,0,0,0,0,0,0,0,0,-1,1560,1310,0,0
343,-286,0,0,0,0,0,0,0,0,0,-1,1567,1310,0,0
350,-286,0,0,0,0,0,0,0,0,0,-1,1574,1310,0,0
357,-286,0,0,0,0,0,0,0,0,0,-1,1581,1310,0,0
364,-286,0,0,0,0,0,0,0,0,0,-1,1588,1310,0,0
371,-286,0,0,0,0,0,0,0,0,0,-1,1595,1310,0,0
378,-286,0,0,0,0,0,0,0,0,0,-1,1602,1310,0,0
385,-286,0,0,0,0,0,0,0,0,0,-1,1609,1310,0,0
392,-286,0,0,0,0,0,0,0,0,0,-1,1616,1310,0,0
399,-286,0,0,0,0,0,0,0,0,0,-1,1623,1310,0,0
406,-286,0,0,0,0,0,0,0,0,0,-1,1630,1310,0,0
413,-286,0,0,0,0,0,0,0,0,0,-1,1637,1310,0,0
420,-286,0,0,0,0,0,0,0,0,0,-1,1644,1310,0,0
427,-286,0,0,0,0,0,0,0,0,0,-1,1651,1310,0,0
434,-286,0,0,0,0,0,0,0,0,0,-1,1658,1310,0,0
441,-286,0,0,0,0,0,0,0,0,0,-1,1665,1310,0,0
448,-286,0,0,0,0,0,0,0,0,0,-1,1672,1310,0,0
455,-286,0,0,0,0,0,0,0,0,0,-1,1679,1310,0,0
462,-286,0,0,0,0,0,0,0,0,0,-1,1686,1310,0,0
469,-286,0,0,0,0,0,0,0,0,0,-1,1693,1310,0,0
476,-286,0,0,0,0,0,0,0,0,0,-1,1700,1310,0,0
483,-286,0,0,0,0,0,0,0,0,0,-1,1707,1310,0,0
490,-286,0,0,0,0,0,0,0,0,0,-1,1714,1310,0,0
497,-286,0,0,0,0,0,0,0,0,0,-1,1721,1310,0,0
504,-286,0,0,0,0,0,0,0,0,0,-1,1728,1310,0,0
511,-286,0,0,0,0,0,0,0,0,0,-1,1735,1310,0,0
518,-286,0,0,0,0,0,0,0,0,0,-1,1742,1310,0,0
525,-286,0,0,0,0,0,0,0,0,0,-1,1749,1310,0,0
532,-286,0,0,0,0,0,0,0,0,0,-1,1756,1310,0,0
539,-286,0,0,0,0,0,0,0,0,0,-1,1763,1310,0,0
546,-286,0,0,0,0,0,0,0,0,0,-1,1770,1310,0,0
553,-286,0,0,0,0,0,0,0,0,0,-1,1777,1310,0,0
560,-286,0,0,0,0,0,0,0,0,0,-1,1784,1310,0,0
567,-286,0,0,0,0,0,0,0,0,0,-1,1791,1310,0,0
574,-286,0,0,0,0,0,0,0,0,0,-1,1798,1310,0,0
581,-286,0,0,0,0,0,0,0,0,0,-1,1805,1310,0,0
588,-286,0,0,0,0,0,0,0,0,0,-1,1812,1310,0,0
595,-286,64.7274,2.67847,0,0,0,0,0,0,0,-1,1819,1310,64.7274,-2.67852
602,-286,64.6619,2.33545,0,0,0,0,0,0,0,-1,1826,1310,64.6619,-2.33548
609,-286,64.4912,1.89587,0,0,0,0,0,0,0,-1,1833,1310,64.4912,-1.89592
616,-286,65.1425,2.83606,0,0,0,0,0,0,0,-1,1840,1310,65.1425,-2.83612
623,-286,65.2004,2.61694,0,0,0,0,0,0,0,-1,1847,1310,65.2004,-2.61695
630,-286,61.6095,2.52808,0,0,0,0,0,0,0,-1,1854,1310,61.6094,-2.52813
637,-286,47.8409,3.69824,0,0,0,0,0,0,0,-1,1861,1310,47.841,-3.69823
644,-286,25.6433,1.33862,0,0,0,0,0,0,0,-1,1868,1310,25.6433,-1.33858
651,-286,25.2507,1.88245,0,0,0,0,0,0,0,-1,1875,1310,25.2508,-1.88245
658,-286,25.9475,9.43689,0,0,0,0,0,0,0,-1,1882,1310,25.9475,-9.43693
665,-286,24.9838,8.03101,0,0,0,0,0,0,0,-1,1889,1310,24.9837,-8.03104
672,-286,40.2175,12.9626,0,0,0,0,0,0,0,-1,1896,1310,40.2175,-12.9627
679,-286,44.4458,13.6627,0,0,0,0,0,0,0,-1,1903,1310,44.4458,-13.6628
686,-286,44.4081,13.0239,-0.00074203,-0.0018724,-0.00103868,-0.000124725,-0.0024897,-0.536232,0.00161983,0.0234802,1910,1310,44.4081,-13.0239
693,-286,44.3706,12.3934,0.000535196,-0.000311801,-0.000759574,0.000981355,-0.00075796,-0.531089,0.00100695,0.0171475,1917,1310,44.3706,-12.3935
700,-286,44.3481,11.7291,0.000596923,-0.000463922,0.000109104,0.000608028,-0.000475026,0.101431,0.000626871,0.0122975,1924,1310,44.3481,-11.7292
707,-286,44.3325,11.0898,-0.000294564,-0.000642379,0.000837796,0.000387184,-0.00132413,0.683063,0.00103621,0.00934641,1931,1310,44.3325,-11.0898
714,-286,44.3152,10.4679,-0.00139472,-0.000900101,0.00162705,0.000498331,-0.00279315,0.86082,0.00204852,0.0097125,1938,1310,44.3151,-10.4679
721,-286,44.3254,9.83606,-0.00274251,-0.00124646,0.00248527,0.00060092,-0.00458989,0.931578,0.00327864,0.012988,1945,1310,44.3254,-9.83603
728,-286,44.2729,9.2041,-0.00440755,-0.00168311,0.0034247,0.000640347,-0.00673101,0.974686,0.00471531,0.0161111,1952,1310,44.273,-9.20409
735,-286,44.2616,8.57544,-0.00650259,-0.00223789,0.00446961,0.000581961,-0.00932245,1.00797,0.00641775,0.0184076,1959,1310,44.2616,-8.57543
742,-286,44.2474,7.99414,-0.00919402,-0.00299776,0.00567933,0.000373519,-0.0125653,1.03509,0.0085041,0.0385285,1966,1310,44.2475,-7.99413
749,-286,44.3223,7.38086,0,0,0,0,0,0,0,-1,1973,1310,44.3222,-7.38087
756,-286,24.8226,4.43481,0,0,0,0,0,0,0,-1,1980,1310,24.8227,-4.43479
763,-286,20.6671,3.99683,0,0,0,0,0,0,0,-1,1987,1310,20.6671,-3.99683
770,-286,23.9147,4.45679,0,0,0,0,0,0,0,-1,1994,1310,23.9146,-4.45675
777,-286,0,0,0,0,0,0,0,0,0,-1,2001,1310,0,0
784,-286,0,0,0,0,0,0,0,0,0,-1,2008,1310,0,0
791,-286,0,0,0,0,0,0,0,0,0,-1,2015,1310,0,0
798,-286,0,0,0,0,0,0,0,0,0,-1,2022,1310,0,0
805,-286,0,0,0,0,0,0,0,0,0,-1,2029,1310,0,0
812,-286,0,0,0,0,0,0,0,0,0,-1,2036,1310,0,0
-700,-293,0,0,0,0,0,0,0,0,0,-1,524,1317,0,0
-693,-293,0,0,0,0,0,0,0,0,0,-1,531,1317,0,0
-686,-293,0,0,0,0,0,0,0,0,0,-1,538,1317,0,0
-679,-293,0,0,0,0,0,0,0,0,0,-1,545,1317,0,0
-672,-293,0,0,0,0,0,0,0,0,0,-1,552,1317,0,0
-665,-293,0,0,0,0,0,0,0,0,0,-1,559,1317,0,0
-658,-293,0,0,0,0,0,0,0,0,0,-1,566,1317,0,0
-651,-293,-42.6636,2.1897,0,0,0,0,0,0,0,-1,573,1317,-42.6636,-2.18965
-644,-293,-42.6672,1.56262,0,0,0,0,0,0,0,-1,580,1317,-42.6672,-1.5626
-637,-293,-42.7898,0.963745,0,0,0,0,0,0,0,-1,587,1317,-42.7898,-0.963689
-630,-293,-42.7558,0.296021,0,0,0,0,0,0,0,-1,594,1317,-42.7558,-0.295997
-623,-293,-15.6058,0.229614,0,0,0,0,0,0,0,-1,601,1317,-15.6058,-0.229666
-616,-293,-15.5056,2.17737,0,0,0,0,0,0,0,-1,608,1317,-15.5055,-2.17742
-609,-293,-25.3796,5.07373,0,0,0,0,0,0,0,-1,615,1317,-25.3796,-5.07369
-602,-293,-27.0742,6.45959,0,0,0,0,0,0,0,-1,622,1317,-27.0741,-6.45961
-595,-293,-27.0361,7.31531,0.00715704,0.00521502,0.00454737,0.0108359,0.00153614,0.680212,0.00677024,0.0205496,629,1317,-27.0361,-7.31533
-588,-293,-27.0386,7.98743,0.00517026,0.0034493,0.00302662,0.00745634,0.00116322,0.646901,0.0046321,0.0155975,636,1317,-27.0386,-7.98746
-581,-293,-27.0245,8.64954,0.00396604,0.00208803,0.00205629,0.00528758,0.000766498,0.571213,0.00329937,0.0174265,643,1317,-27.0245,-8.64952
-574,-293,-27.0331,9.38293,0.00325212,0.00100594,0.00142402,0.00394264,0.000315421,0.4515,0.00252985,0.0159601,650,1317,-27.0331,-9.38296
-567,-293,-27.0986,10.0852,0.00294633,0.000136154,0.00105418,0.00329782,-0.000215339,0.321834,0.00227373,0.0151031,657,1317,-27.0987,-10.0851
-560,-293,-27.132,10.7653,0.00311414,-0.000569425,0.000966718,0.00335243,-0.000807716,0.241677,0.00254725,0.0158227,664,1317,-27.1319,-10.7652
-553,-293,-27.1484,11.4336,0.00381148,-0.00103675,0.0012127,0.0040979,-0.00132317,0.23193,0.00326365,0.0113154,671,1317,-27.1484,-11.4336
-546,-293,-27.1515,12.1462,0.00494892,-0.00140836,0.00167569,0.00536357,-0.001823,0.242574,0.00431375,0.0161734,678,1317,-27.1515,-12.1463
-539,-293,-26.9883,12.8418,0.00655406,-0.0017748,0.0023553,0.00717398,-0.00239471,0.257362,0.0057496,0.0494659,685,1317,-26.9884,-12.8418
-532,-293,-26.741,13.4886,0,0,0,0,0,0,0,-1,692,1317,-26.741,-13.4887
-525,-293,-8.20642,3.62256,0,0,0,0,0,0,0,-1,699,1317,-8.20639,-3.6226
-518,-293,-10.1053,0.314209,0,0,0,0,0,0,0,-1,706,1317,-10.1053,-0.314234
-511,-293,-11.6276,0.235352,0,0,0,0,0,0,0,-1,713,1317,-11.6276,-0.235372
-504,-293,-17.9086,1.25427,0,0,0,0,0,0,0,-1,720,1317,-17.9086,-1.25423
-497,-293,-18.8006,1.62122,0,0,0,0,0,0,0,-1,727,1317,-18.8006,-1.62119
-490,-293,-18.8961,1.99255,0,0,0,0,0,0,0,-1,734,1317,-18.8961,-1.99251
-483,-293,-19.0831,2.35498,0,0,0,0,0,0,0,-1,741,1317,-19.0831,-2.35497
-476,-293,-19.5228,2.61243,0,0,0,0,0,0,0,-1,748,1317,-19.5228,-2.61237
-469,-293,0,0,0,0,0,0,0,0,0,-1,755,1317,0,0
-462,-293,0,0,0,0,0,0,0,0,0,-1,762,1317,0,0
-455,-293,0,0,0,0,0,0,0,0,0,-1,769,1317,0,0
-448,-293,0,0,0,0,0,0,0,0,0,-1,776,1317,0,0
-441,-293,0,0,0,0,0,0,0,0,0,-1,783,1317,0,0
-434,-293,0,0,0,0,0,0,0,0,0,-1,790,1317,0,0
-427,-293,0,0,0,0,0,0,0,0,0,-1,797,1317,0,0
-420,-293,0,0,0,0,0,0,0,0,0,-1,804,1317,0,0
-413,-293,0,0,0,0,0,0,0,0,0,-1,811,1317,0,0
-406,-293,0,0,0,0,0,0,0,0,0,-1,818,1317,0,0
-399,-293,0,0,0,0,0,0,0,0,0,-1,825,1317,0,0
-392,-293,0,0,0,0,0,0,0,0,0,-1,832,1317,0,0
-385,-293,0,0,0,0,0,0,0,0,0,-1,839,1317,0,0
-378,-293,0,0,0,0,0,0,0,0,0,-1,846,1317,0,0
-371,-293,0,0,0,0,0,0,0,0,0,-1,853,1317,0,0
-364,-293,0,0,0,0,0,0,0,0,0,-1,860,1317,0,0
-357,-293,0,0,0,0,0,0,0,0,0,-1,867,1317,0,0
-350,-293,0,0,0,0,0,0,0,0,0,-1,874,1317,0,0
-343,-293,0,0,0,0,0,0,0,0,0,-1,881,1317,0,0
-336,-293,0,0,0,0,0,0,0,0,0,-1,888,1317,0,0
-329,-293,0,0,0,0,0,0,0,0,0,-1,895,1317,0,0
-322,-293,0,0,0,0,0,0,0,0,0,-1,902,1317,0,0
-315,-293,0,0,0,0,0,0,0,0,0,-1,909,1317,0,0
-308,-293,0,0,0,0,0,0,0,0,0,-1,916,1317,0,0
-301,-293,0,0,0,0,0,0,0,0,0,-1,923,1317,0,0
-294,-293,0,0,0,0,0,0,0,0,0,-1,930,1317,0,0
-287,-293,0,0,0,0,0,0,0,0,0,-1,937,1317,0,0
-280,-293,0,0,0,0,0,0,0,0,0,-1,944,1317,0,0
-273,-293,0,0,0,0,0,0,0,0,0,-1,951,1317,0,0
-266,-293,0,0,0,0,0,0,0,0,0,-1,958,1317,0,0
-259,-293,0,0,0,0,0,0,0,0,0,-1,965,1317,0,0
-252,-293,0,0,0,0,0,0,0,0,0,-1,972,1317,0,0
-245,-293,0,0,0,0,0,0,0,0,0,-1,979,1317,0,0
-238,-293,0,0,0,0,0,0,0,0,0,-1,986,1317,0,0
-231,-293,0,0,0,0,0,0,0,0,0,-1,993,1317,0,0
-224,-293,0,0,0,0,0,0,0,0,0,-1,1000,1317,0,0
-217,-293,0,0,0,0,0,0,0,0,0,-1,1007,1317,0,0
-210,-293,0,0,0,0,0,0,0,0,0,-1,1014,1317,0,0
-203,-293,0,0,0,0,0,0,0,0,0,-1,1021,1317,0,0
-196,-293,0,0,0,0,0,0,0,0,0,-1,1028,1317,0,0
-189,-293,0,0,0,0,0,0,0,0,0,-1,1035,1317,0,0
-182,-293,0,0,0,0,0,0,0,0,0,-1,1042,1317,0,0
-175,-293,0,0,0,0,0,0,0,0,0,-1,1049,1317,0,0
-168,-293,0,0,0,0,0,0,0,0,0,-1,1056,1317,0,0
-161,-293,0,0,0,0,0,0,0,0,0,-1,1063,1317,0,0
-154,-293,0,0,0,0,0,0,0,0,0,-1,1070,1317,0,0
-147,-293,0,0,0,0,0,0,0,0,0,-1,1077,1317,0,0
-140,-293,0,0,0,0,0,0,0,0,0,-1,1084,1317,0,0
-133,-293,0,0,0,0,0,0,0,0,0,-1,1091,1317,0,0
-126,-293,0,0,0,0,0,0,0,0,0,-1,1098,1317,0,0
-119,-293,0,0,0,0,0,0,0,0,0,-1,1105,1317,0,0
-112,-293,0,0,0,0,0,0,0,0,0,-1,1112,1317,0,0
-105,-293,0,0,0,0,0,0,0,0,0,-1,1119,1317,0,0
-98,-293,0,0,0,0,0,0,0,0,0,-1,1126,1317,0,0
-91,-293,0,0,0,0,0,0,0,0,0,-1,1133,1317,0,0
-84,-293,0,0,0,0,0,0,0,0,0,-1,1140,1317,0,0
-77,-293,0,0,0,0,0,0,0,0,0,-1,1147,1317,0,0
-70,-293,0,0,0,0,0,0,0,0,0,-1,1154,1317,0,0
-63,-293,0,0,0,0,0,0,0,0,0,-1,1161,1317,0,0
-56,-293,0,0,0,0,0,0,0,0,0,-1,1168,1317,0,0
-49,-293,0,0,0,0,0,0,0,0,0,-1,1175,1317,0,0
-42,-293,0,0,0,0,0,0,0,0,0,-1,1182,1317,0,0
-35,-293,0,0,0,0,0,0,0,0,0,-1,1189,1317,0,0
-28,-293,0,0,0,0,0,0,0,0,0,-1,1196,1317,0,0
-21,-293,0,0,0,0,0,0,0,0,0,-1,1203,1317,0,0
-14,-293,0,0,0,0,0,0,0,0,0,-1,1210,1317,0,0
-7,-293,0,0,0,0,0,0,0,0,0,-1,1217,1317,0,0
0,-293,0,0,0,0,0,0,0,0,0,-1,1224,1317,0,0
7,-293,0,0,0,0,0,0,0,0,0,-1,1231,1317,0,0
14,-293,0,0,0,0,0,0,0,0,0,-1,1238,1317,0,0
21,-293,0,0,0,0,0,0,0,0,0,-1,1245,1317,0,0
28,-293,0,0,0,0,0,0,0,0,0,-1,1252,1317,0,0
35,-293,0,0,0,0,0,0,0,0,0,-1,1259,1317,0,0
42,-293,0,0,0,0,0,0,0,0,0,-1,1266,1317,0,0
49,-293,0,0,0,0,0,0,0,0,0,-1,1273,1317,0,0
56,-293,0,0,0,0,0,0,0,0,0,-1,1280,1317,0,0
63,-293,0,0,0,0,0,0,0,0,0,-1,1287,1317,0,0
70,-293,0,0,0,0,0,0,0,0,0,-1,1294,1317,0,0
77,-293,0,0,0,0,0,0,0,0,0,-1,1301,1317,0,0
84,-293,0,0,0,0,0,0,0,0,0,-1,1308,1317,0,0
91,-293,0,0,0,0,0,0,0,0,0,-1,1315,1317,0,0
98,-293,0,0,0,0,0,0,0,0,0,-1,1322,1317,0,0
105,-293,0,0,0,0,0,0,0,0,0,-1,1329,1317,0,0
112,-293,0,0,0,0,0,0,0,0,0,-1,1336,1317,0,0
119,-293,0,0,0,0,0,0,0,0,0,-1,1343,1317,0,0
126,-293,0,0,0,0,0,0,0,0,0,-1,1350,1317,0,0
133,-293,0,0,0,0,0,0,0,0,0,-1,1357,1317,0,0
140,-293,0,0,0,0,0,0,0,0,0,-1,1364,1317,0,0
147,-293,0,0,0,0,0,0,0,0,0,-1,1371,1317,0,0
154,-293,0,0,0,0,0,0,0,0,0,-1,1378,1317,0,0
161,-293,0,0,0,0,0,0,0,0,0,-1,1385,1317,0,0
168,-293,0,0,0,0,0,0,0,0,0,-1,1392,1317,0,0
175,-293,0,0,0,0,0,0,0,0,0,-1,1399,1317,0,0
182,-293,0,0,0,0,0,0,0,0,0,-1,1406,1317,0,0
189,-293,0,0,0,0,0,0,0,0,0,-1,1413,1317,0,0
196,-293,0,0,0,0,0,0,0,0,0,-1,1420,1317,0,0
203,-293,0,0,0,0,0,0,0,0,0,-1,1427,1317,0,0
210,-293,0,0,0,0,0,0,0,0,0,-1,1434,1317,0,0
217,-293,0,0,0,0,0,0,0,0,0,-1,1441,1317,0,0
224,-293,0,0,0,0,0,0,0,0,0,-1,1448,1317,0,0
231,-293,0,0,0,0,0,0,0,0,0,-1,1455,1317,0,0
238,-293,0,0,0,0,0,0,0,0,0,-1,1462,1317,0,0
245,-293,0,0,0,0,0,0,0,0,0,-1,1469,1317,0,0
252,-293,0,0,0,0,0,0,0,0,0,-1,1476,1317,0,0
259,-293,0,0,0,0,0,0,0,0,0,-1,1483,1317,0,0
266,-293,0,0,0,0,0,0,0,0,0,-1,1490,1317,0,0
273,-293,0,0,0,0,0,0,0,0,0,-1,1497,1317,0,0
280,-293,0,0,0,0,0,0,0,0,0,-1,1504,1317,0,0
287,-293,0,0,0,0,0,0,0,0,0,-1,1511,1317,0,0
294,-293,0,0,0,0,0,0,0,0,0,-1,1518,1317,0,0
301,-293,0,0,0,0,0,0,0,0,0,-1,1525,1317,0,0
308,-293,0,0,0,0,0,0,0,0,0,-1,1532,1317,0,0
315,-293,0,0,0,0,0,0,0,0,0,-1,1539,1317,0,0
322,-293,0,0,0,0,0,0,0,0,0,-1,1546,1317,0,0
329,-293,0,0,0,0,0,0,0,0,0,-1,1553,1317,0,0
336,-293,0,0,0,0,0,0,0,0,0,-1,1560,1317,0,0
343,-293,0,0,0,0,0,0,0,0,0,-1,1567,1317,0,0
350,-293,0,0,0,0,0,0,0,0,0,-1,1574,1317,0,0
357,-293,0,0,0,0,0,0,0,0,0,-1,1581,1317,0,0
364,-293,0,0,0,0,0,0,0,0,0,-1,1588,1317,0,0
371,-293,0,0,0,0,0,0,0,0,0,-1,1595,1317,0,0
378,-293,0,0,0,0,0,0,0,0,0,-1,1602,1317,0,0
385,-293,0,0,0,0,0,0,0,0,0,-1,1609,1317,0,0
392,-293,0,0,0,0,0,0,0,0,0,-1,1616,1317,0,0
399,-293,0,0,0,0,0,0,0,0,0,-1,1623,1317,0,0
406,-293,0,0,0,0,0,0,0,0,0,-1,1630,1317,0,0
413,-293,0,0,0,0,0,0,0,0,0,-1,1637,1317,0,0
420,-293,0,0,0,0,0,0,0,0,0,-1,1644,1317,0,0
427,-293,0,0,0,0,0,0,0,0,0,-1,1651,1317,0,0
434,-293,0,0,0,0,0,0,0,0,0,-1,1658,1317,0,0
441,-293,0,0,0,0,0,0,0,0,0,-1,1665,1317,0,0
448,-293,0,0,0,0,0,0,0,0,0,-1,1672,1317,0,0
455,-293,0,0,0,0,0,0,0,0,0,-1,1679,1317,0,0
462,-293,0,0,0,0,0,0,0,0,0,-1,1686,1317,0,0
469,-293,0,0,0,0,0,0,0,0,0,-1,1693,1317,0,0
476,-293,0,0,0,0,0,0,0,0,0,-1,1700,1317,0,0
483,-293,0,0,0,0,0,0,0,0,0,-1,1707,1317,0,0
490,-293,0,0,0,0,0,0,0,0,0,-1,1714,1317,0,0
497,-293,0,0,0,0,0,0,0,0,0,-1,1721,1317,0,0
504,-293,0,0,0,0,0,0,0,0,0,-1,1728,1317,0,0
511,-293,0,0,0,0,0,0,0,0,0,-1,1735,1317,0,0
518,-293,0,0,0,0,0,0,0,0,0,-1,1742,1317,0,0
525,-293,0,0,0,0,0,0,0,0,0,-1,1749,1317,0,0
532,-293,0,0,0,0,0,0,0,0,0,-1,1756,1317,0,0
539,-293,0,0,0,0,0,0,0,0,0,-1,1763,1317,0,0
546,-293,0,0,0,0,0,0,0,0,0,-1,1770,1317,0,0
553,-293,0,0,0,0,0,0,0,0,0,-1,1777,1317,0,0
560,-293,0,0,0,0,0,0,0,0,0,-1,1784,1317,0,0
567,-293,0,0,0,0,0,0,0,0,0,-1,1791,1317,0,0
574,-293,0,0,0,0,0,0,0,0,0,-1,1798,1317,0,0
581,-293,0,0,0,0,0,0,0,0,0,-1,1805,1317,0,0
588,-293,0,0,0,0,0,0,0,0,0,-1,1812,1317,0,0
595,-293,64.9838,2.58447,0,0,0,0,0,0,0,-1,1819,1317,64.9838,-2.58441
602,-293,64.9282,2.28955,0,0,0,0,0,0,0,-1,1826,1317,64.9282,-2.28959
609,-293,63.0383,1.74231,0,0,0,0,0,0,0,-1,1833,1317,63.0383,-1.74237
616,-293,62.2668,1.10388,0,0,0,0,0,0,0,-1,1840,1317,62.2668,-1.10385
623,-293,61.3268,1.10999,0,0,0,0,0,0,0,-1,1847,1317,61.3268,-1.10993
630,-293,46.6716,3.21558,0,0,0,0,0,0,0,-1,1854,1317,46.6716,-3.2156
637,-293,42.7729,4.95544,0,0,0,0,0,0,0,-1,1861,1317,42.773,-4.95546
644,-293,24.4565,0.520752,0,0,0,0,0,0,0,-1,1868,1317,24.4566,-0.520709
651,-293,25.8926,9.51245,0,0,0,0,0,0,0,-1,1875,1317,25.8926,-9.51246
658,-293,25.4904,9.10205,0,0,0,0,0,0,0,-1,1882,1317,25.4904,-9.10209
665,-293,39.7999,13.4221,0,0,0,0,0,0,0,-1,1889,1317,39.8,-13.4221
672,-293,43.8636,14.3431,0,0,0,0,0,0,0,-1,1896,1317,43.8637,-14.3431
679,-293,43.8315,13.6786,-0.00125158,-0.00364626,-0.000727852,-0.00104771,-0.00385014,-0.2731,0.00229854,0.0175528,1903,1317,43.8315,-13.6786
686,-293,43.7922,13.0356,-5.40464e-05,-0.00157859,-0.000833313,0.000313049,-0.00194568,-0.414946,0.00141308,0.0181626,1910,1317,43.7923,-13.0357
693,-293,43.7665,12.3958,0.000683682,-0.000370824,-0.000520659,0.00089743,-0.000584572,-0.389553,0.000861966,0.0137753,1917,1317,43.7665,-12.3957
700,-293,43.7139,11.7407,0.000439128,-0.000496751,0.000263527,0.00050823,-0.000565853,0.256448,0.00062042,0.0114731,1924,1317,43.7139,-11.7408
707,-293,43.6799,11.1195,-0.000393468,-0.000744679,0.000992294,0.000438639,-0.00157679,0.69782,0.00122389,0.0116061,1931,1317,43.6799,-11.1195
714,-293,43.667,10.5121,-0.00142812,-0.00109228,0.00179356,0.000541207,-0.00306161,0.832074,0.00224334,0.00835379,1938,1317,43.667,-10.512
721,-293,43.6646,9.87268,-0.00271316,-0.00154974,0.00267492,0.000605986,-0.00486889,0.892465,0.00346563,0.0106858,1945,1317,43.6645,-9.87269
728,-293,43.6436,9.21423,-0.00434456,-0.0021246,0.0036489,0.00057941,-0.00704857,0.933049,0.0049036,0.013565,1952,1317,43.6435,-9.21429
735,-293,43.621,8.55896,-0.00645767,-0.00287378,0.00474352,0.000404977,-0.00973643,0.965995,0.00663007,0.0241104,1959,1317,43.621,-8.55901
742,-293,43.7576,7.95642,0,0,0,0,0,0,0,-1,1966,1317,43.7576,-7.95636
749,-293,29.439,5.35339,0,0,0,0,0,0,0,-1,1973,1317,29.4389,-5.35334
756,-293,24.978,3.9718,0,0,0,0,0,0,0,-1,1980,1317,24.978,-3.97186
763,-293,26.6713,4.74097,0,0,0,0,0,0,0,-1,1987,1317,26.6713,-4.74098
770,-293,24.1349,4.69153,0,0,0,0,0,0,0,-1,1994,1317,24.1348,-4.69159
777,-293,0,0,0,0,0,0,0,0,0,-1,2001,1317,0,0
784,-293,0,0,0,0,0,0,0,0,0,-1,2008,1317,0,0
791,-293,0,0,0,0,0,0,0,0,0,-1,2015,1317,0,0
798,-293,0,0,0,0,0,0,0,0,0,-1,2022,1317,0,0
805,-293,0,0,0,0,0,0,0,0,0,-1,2029,1317,0,0
812,-293,0,0,0,0,0,0,0,0,0,-1,2036,1317,0,0
-700,-300,0,0,0,0,0,0,0,0,0,-1,524,1324,0,0
-693,-300,0,0,0,0,0,0,0,0,0,-1,531,1324,0,0
-686,-300,0,0,0,0,0,0,0,0,0,-1,538,1324,0,0
-679,-300,0,0,0,0,0,0,0,0,0,-1,545,1324,0,0
-672,-300,0,0,0,0,0,0,0,0,0,-1,552,1324,0,0
-665,-300,0,0,0,0,0,0,0,0,0,-1,559,1324,0,0
-658,-300,0,0,0,0,0,0,0,0,0,-1,566,1324,0,0
-651,-300,-41.7632,2.33789,0,0,0,0,0,0,0,-1,573,1324,-41.7632,-2.33789
-644,-300,-42.3084,1.3728,0,0,0,0,0,0,0,-1,580,1324,-42.3084,-1.37282
-637,-300,-42.6259,0.807251,0,0,0,0,0,0,0,-1,587,1324,-42.6259,-0.807209
-630,-300,-21.1108,2.26306,0,0,0,0,0,0,0,-1,594,1324,-21.1109,-2.2631
-623,-300,-12.7067,1.48462,0,0,0,0,0,0,0,-1,601,1324,-12.7067,-1.48462
-616,-300,-14.9988,1.68628,0,0,0,0,0,0,0,-1,608,1324,-14.9988,-1.68627
-609,-300,-15.5027,3.29907,0,0,0,0,0,0,0,-1,615,1324,-15.5027,-3.29902
-602,-300,-26.3784,6.41028,0,0,0,0,0,0,0,-1,622,1324,-26.3784,-6.41027
-595,-300,-26.3843,7.31592,0.00740615,0.00565162,0.00461455,0.0112261,0.00183168,0.691465,0.00695437,0.0382774,629,1324,-26.3843,-7.3159
-588,-300,-26.3395,8.02856,0.00527902,0.0038429,0.00304344,0.00768796,0.00143396,0.669548,0.00472048,0.0202136,636,1324,-26.3395,-8.02861
-581,-300,-26.3601,8.73633,0.00406597,0.00249057,0.00209739,0.0055187,0.00103784,0.605766,0.00338661,0.0196492,643,1324,-26.3601,-8.7363
-574,-300,-26.3562,9.45728,0.00335113,0.00142378,0.00149396,0.00416526,0.000609651,0.498955,0.00259758,0.0155526,650,1324,-26.3562,-9.45731
-567,-300,-26.4125,10.1171,0.00305215,0.000572639,0.00115808,0.0035089,0.000115888,0.375674,0.00230161,0.0158295,657,1324,-26.4125,-10.117
-560,-300,-26.4598,10.7937,0.00317629,-0.000144369,0.00106607,0.00348908,-0.000457157,0.285394,0.00249245,0.0148243,664,1324,-26.4598,-10.7937
-553,-300,-26.4728,11.4744,0.00373779,-0.00064669,0.00124508,0.00406668,-0.000975587,0.258259,0.00308812,0.0107015,671,1324,-26.4728,-11.4744
-546,-300,-26.4803,12.1658,0.00472416,-0.0010413,0.00165985,0.00516788,-0.00148501,0.261214,0.00403246,0.0101636,678,1324,-26.4803,-12.1657
-539,-300,-26.4302,12.8979,0.00612028,-0.00140597,0.00227245,0.00675319,-0.00203888,0.271631,0.00531378,0.0265062,685,1324,-26.4302,-12.898
-532,-300,-26.3552,13.5938,0,0,0,0,0,0,0,-1,692,1324,-26.3552,-13.5938
-525,-300,-13.5115,6.27783,0,0,0,0,0,0,0,-1,699,1324,-13.5115,-6.2778
-518,-300,-9.8349,-0.537109,0,0,0,0,0,0,0,-1,706,1324,-9.83487,0.537068
-511,-300,-12.8644,0.081665,0,0,0,0,0,0,0,-1,713,1324,-12.8644,-0.0817016
-504,-300,-13.4829,-0.165527,0,0,0,0,0,0,0,-1,720,1324,-13.4829,0.165544
-497,-300,-18.1063,0.956543,0,0,0,0,0,0,0,-1,727,1324,-18.1063,-0.9565
-490,-300,-18.2293,1.53625,0,0,0,0,0,0,0,-1,734,1324,-18.2293,-1.53626
-483,-300,-18.3522,1.61084,0,0,0,0,0,0,0,-1,741,1324,-18.3522,-1.6108
-476,-300,-18.7489,1.96387,0,0,0,0,0,0,0,-1,748,1324,-18.7489,-1.96387
-469,-300,0,0,0,0,0,0,0,0,0,-1,755,1324,0,0
-462,-300,0,0,0,0,0,0,0,0,0,-1,762,1324,0,0
-455,-300,0,0,0,0,0,0,0,0,0,-1,769,1324,0,0
-448,-300,0,0,0,0,0,0,0,0,0,-1,776,1324,0,0
-441,-300,0,0,0,0,0,0,0,0,0,-1,783,1324,0,0
-434,-300,0,0,0,0,0,0,0,0,0,-1,790,1324,0,0
-427,-300,0,0,0,0,0,0,0,0,0,-1,797,1324,0,0
-420,-300,0,0,0,0,0,0,0,0,0,-1,804,1324,0,0
-413,-300,0,0,0,0,0,0,0,0,0,-1,811,1324,0,0
-406,-300,0,0,0,0,0,0,0,0,0,-1,818,1324,0,0
-399,-300,0,0,0,0,0,0,0,0,0,-1,825,1324,0,0
-392,-300,0,0,0,0,0,0,0,0,0,-1,832,1324,0,0
-385,-300,0,0,0,0,0,0,0,0,0,-1,839,1324,0,0
-378,-300,0,0,0,0,0,0,0,0,0,-1,846,1324,0,0
-371,-300,0,0,0,0,0,0,0,0,0,-1,853,1324,0,0
-364,-300,0,0,0,0,0,0,0,0,0,-1,860,1324,0,0
-357,-300,0,0,0,0,0,0,0,0,0,-1,867,1324,0,0
-350,-300,0,0,0,0,0,0,0,0,0,-1,874,1324,0,0
-343,-300,0,0,0,0,0,0,0,0,0,-1,881,1324,0,0
-336,-300,0,0,0,0,0,0,0,0,0,-1,888,1324,0,0
-329,-300,0,0,0,0,0,0,0,0,0,-1,895,1324,0,0
-322,-300,0,0,0,0,0,0,0,0,0,-1,902,1324,0,0
-315,-300,0,0,0,0,0,0,0,0,0,-1,909,1324,0,0
-308,-300,0,0,0,0,0,0,0,0,0,-1,916,1324,0,0
-301,-300,0,0,0,0,0,0,0,0,0,-1,923,1324,0,0
-294,-300,0,0,0,0,0,0,0,0,0,-1,930,1324,0,0
-287,-300,0,0,0,0,0,0,0,0,0,-1,937,1324,0,0
-280,-300,0,0,0,0,0,0,0,0,0,-1,944,1324,0,0
-273,-300,0,0,0,0,0,0,0,0,0,-1,951,1324,0,0
-266,-300,0,0,0,0,0,0,0,0,0,-1,958,1324,0,0
-259,-300,0,0,0,0,0,0,0,0,0,-1,965,1324,0,0
-252,-300,0,0,0,0,0,0,0,0,0,-1,972,1324,0,0
-245,-300,0,0,0,0,0,0,0,0,0,-1,979,1324,0,0
-238,-300,0,0,0,0,0,0,0,0,0,-1,986,1324,0,0
-231,-300,0,0,0,0,0,0,0,0,0,-1,993,1324,0,0
-224,-300,0,0,0,0,0,0,0,0,0,-1,1000,1324,0,0
-217,-300,0,0,0,0,0,0,0,0,0,-1,1007,1324,0,0
-210,-300,0,0,0,0,0,0,0,0,0,-1,1014,1324,0,0
-203,-300,0,0,0,0,0,0,0,0,0,-1,1021,1324,0,0
-196,-300,0,0,0,0,0,0,0,0,0,-1,1028,1324,0,0
-189,-300,0,0,0,0,0,0,0,0,0,-1,1035,1324,0,0
-182,-300,0,0,0,0,0,0,0,0,0,-1,1042,1324,0,0
-175,-300,0,0,0,0,0,0,0,0,0,-1,1049,1324,0,0
-168,-300,0,0,0,0,0,0,0,0,0,-1,1056,1324,0,0
-161,-300,0,0,0,0,0,0,0,0,0,-1,1063,1324,0,0
-154,-300,0,0,0,0,0,0,0,0,0,-1,1070,1324,0,0
-147,-300,0,0,0,0,0,0,0,0,0,-1,1077,1324,0,0
-140,-300,0,0,0,0,0,0,0,0,0,-1,1084,1324,0,0
-133,-300,0,0,0,0,0,0,0,0,0,-1,1091,1324,0,0
-126,-300,0,0,0,0,0,0,0,0,0,-1,1098,1324,0,0
-119,-300,0,0,0,0,0,0,0,0,0,-1,1105,1324,0,0
-112,-300,0,0,0,0,0,0,0,0,0,-1,1112,1324,0,0
-105,-300,0,0,0,0,0,0,0,0,0,-1,1119,1324,0,0
-98,-300,0,0,0,0,0,0,0,0,0,-1,1126,1324,0,0
-91,-300,0,0,0,0,0,0,0,0,0,-1,1133,1324,0,0
-84,-300,0,0,0,0,0,0,0,0,0,-1,1140,1324,0,0
-77,-300,0,0,0,0,0,0,0,0,0,-1,1147,1324,0,0
-70,-300,0,0,0,0,0,0,0,0,0,-1,1154,1324,0,0
-63,-300,0,0,0,0,0,0,0,0,0,-1,1161,1324,0,0
-56,-300,0,0,0,0,0,0,0,0,0,-1,1168,1324,0,0
-49,-300,0,0,0,0,0,0,0,0,0,-1,1175,1324,0,0
-42,-300,0,0,0,0,0,0,0,0,0,-1,1182,1324,0,0
-35,-300,0,0,0,0,0,0,0,0,0,-1,1189,1324,0,0
-28,-300,0,0,0,0,0,0,0,0,0,-1,1196,1324,0,0
-21,-300,0,0,0,0,0,0,0,0,0,-1,1203,1324,0,0
-14,-300,0,0,0,0,0,0,0,0,0,-1,1210,1324,0,0
-7,-300,0,0,0,0,0,0,0,0,0,-1,1217,1324,0,0
0,-300,0,0,0,0,0,0,0,0,0,-1,1224,1324,0,0
7,-300,0,0,0,0,0,0,0,0,0,-1,1231,1324,0,0
14,-300,0,0,0,0,0,0,0,0,0,-1,1238,1324,0,0
21,-300,0,0,0,0,0,0,0,0,0,-1,1245,1324,0,0
28,-300,0,0,0,0,0,0,0,0,0,-1,1252,1324,0,0
35,-300,0,0,0,0,0,0,0,0,0,-1,1259,1324,0,0
42,-300,0,0,0,0,0,0,0,0,0,-1,1266,1324,0,0
49,-300,0,0,0,0,0,0,0,0,0,-1,1273,1324,0,0
56,-300,0,0,0,0,0,0,0,0,0,-1,1280,1324,0,0
63,-300,0,0,0,0,0,0,0,0,0,-1,1287,1324,0,0
70,-300,0,0,0,0,0,0,0,0,0,-1,1294,1324,0,0
77,-300,0,0,0,0,0,0,0,0,0,-1,1301,1324,0,0
84,-300,0,0,0,0,0,0,0,0,0,-1,1308,1324,0,0
91,-300,0,0,0,0,0,0,0,0,0,-1,1315,1324,0,0
98,-300,0,0,0,0,0,0,0,0,0,-1,1322,1324,0,0
105,-300,0,0,0,0,0,0,0,0,0,-1,1329,1324,0,0
112,-300,0,0,0,0,0,0,0,0,0,-1,1336,1324,0,0
119,-300,0,0,0,0,0,0,0,0,0,-1,1343,1324,0,0
126,-300,0,0,0,0,0,0,0,0,0,-1,1350,1324,0,0
133,-300,0,0,0,0,0,0,0,0,0,-1,1357,1324,0,0
140,-300,0,0,0,0,0,0,0,0,0,-1,1364,1324,0,0
147,-300,0,0,0,0,0,0,0,0,0,-1,1371,1324,0,0
154,-300,0,0,0,0,0,0,0,0,0,-1,1378,1324,0,0
161,-300,0,0,0,0,0,0,0,0,0,-1,1385,1324,0,0
168,-300,0,0,0,0,0,0,0,0,0,-1,1392,1324,0,0
175,-300,0,0,0,0,0,0,0,0,0,-1,1399,1324,0,0
182,-300,0,0,0,0,0,0,0,0,0,-1,1406,1324,0,0
189,-300,0,0,0,0,0,0,0,0,0,-1,1413,1324,0,0
196,-300,0,0,0,0,0,0,0,0,0,-1,1420,1324,0,0
203,-300,0,0,0,0,0,0,0,0,0,-1,1427,1324,0,0
210,-300,0,0,0,0,0,0,0,0,0,-1,1434,1324,0,0
217,-300,0,0,0,0,0,0,0,0,0,-1,1441,1324,0,0
224,-300,0,0,0,0,0,0,0,0,0,-1,1448,1324,0,0
231,-300,0,0,0,0,0,0,0,0,0,-1,1455,1324,0,0
238,-300,0,0,0,0,0,0,0,0,0,-1,1462,1324,0,0
245,-300,0,0,0,0,0,0,0,0,0,-1,1469,1324,0,0
252,-300,0,0,0,0,0,0,0,0,0,-1,1476,1324,0,0
259,-300,0,0,0,0,0,0,0,0,0,-1,1483,1324,0,0
266,-300,0,0,0,0,0,0,0,0,0,-1,1490,1324,0,0
273,-300,0,0,0,0,0,0,0,0,0,-1,1497,1324,0,0
280,-300,0,0,0,0,0,0,0,0,0,-1,1504,1324,0,0
287,-300,0,0,0,0,0,0,0,0,0,-1,1511,1324,0,0
294,-300,0,0,0,0,0,0,0,0,0,-1,1518,1324,0,0
301,-300,0,0,0,0,0,0,0,0,0,-1,1525,1324,0,0
308,-300,0,0,0,0,0,0,0,0,0,-1,1532,1324,0,0
315,-300,0,0,0,0,0,0,0,0,0,-1,1539,1324,0,0
322,-300,0,0,0,0,0,0,0,0,0,-1,1546,1324,0,0
329,-300,0,0,0,0,0,0,0,0,0,-1,1553,1324,0,0
336,-300,0,0,0,0,0,0,0,0,0,-1,1560,1324,0,0
343,-300,0,0,0,0,0,0,0,0,0,-1,1567,1324,0,0
350,-300,0,0,0,0,0,0,0,0,0,-1,1574,1324,0,0
357,-300,0,0,0,0,0,0,0,0,0,-1,1581,1324,0,0
364,-300,0,0,0,0,0,0,0,0,0,-1,1588,1324,0,0
371,-300,0,0,0,0,0,0,0,0,0,-1,1595,1324,0,0
378,-300,0,0,0,0,0,0,0,0,0,-1,1602,1324,0,0
385,-300,0,0,0,0,0,0,0,0,0,-1,1609,1324,0,0
392,-300,0,0,0,0,0,0,0,0,0,-1,1616,1324,0,0
399,-300,0,0,0,0,0,0,0,0,0,-1,1623,1324,0,0
406,-300,0,0,0,0,0,0,0,0,0,-1,1630,1324,0,0
413,-300,0,0,0,0,0,0,0,0,0,-1,1637,1324,0,0
420,-300,0,0,0,0,0,0,0,0,0,-1,1644,1324,0,0
427,-300,0,0,0,0,0,0,0,0,0,-1,1651,1324,0,0
434,-300,0,0,0,0,0,0,0,0,0,-1,1658,1324,0,0
441,-300,0,0,0,0,0,0,0,0,0,-1,1665,1324,0,0
448,-300,0,0,0,0,0,0,0,0,0,-1,1672,1324,0,0
455,-300,0,0,0,0,0,0,0,0,0,-1,1679,1324,0,0
462,-300,0,0,0,0,0,0,0,0,0,-1,1686,1324,0,0
469,-300,0,0,0,0,0,0,0,0,0,-1,1693,1324,0,0
476,-300,0,0,0,0,0,0,0,0,0,-1,1700,1324,0,0
483,-300,0,0,0,0,0,0,0,0,0,-1,1707,1324,0,0
490,-300,0,0,0,0,0,0,0,0,0,-1,1714,1324,0,0
497,-300,0,0,0,0,0,0,0,0,0,-1,1721,1324,0,0
504,-300,0,0,0,0,0,0,0,0,0,-1,1728,1324,0,0
511,-300,0,0,0,0,0,0,0,0,0,-1,1735,1324,0,0
518,-300,0,0,0,0,0,0,0,0,0,-1,1742,1324,0,0
525,-300,0,0,0,0,0,0,0,0,0,-1,1749,1324,0,0
532,-300,0,0,0,0,0,0,0,0,0,-1,1756,1324,0,0
539,-300,0,0,0,0,0,0,0,0,0,-1,1763,1324,0,0
546,-300,0,0,0,0,0,0,0,0,0,-1,1770,1324,0,0
553,-300,0,0,0,0,0,0,0,0,0,-1,1777,1324,0,0
560,-300,0,0,0,0,0,0,0,0,0,-1,1784,1324,0,0
567,-300,0,0,0,0,0,0,0,0,0,-1,1791,1324,0,0
574,-300,0,0,0,0,0,0,0,0,0,-1,1798,1324,0,0
581,-300,0,0,0,0,0,0,0,0,0,-1,1805,1324,0,0
588,-300,61.3982,2.35547,0,0,0,0,0,0,0,-1,1812,1324,61.3981,-2.3555
595,-300,61.2064,1.96851,0,0,0,0,0,0,0,-1,1819,1324,61.2064,-1.96853
602,-300,60.8494,1.61389,0,0,0,0,0,0,0,-1,1826,1324,60.8494,-1.61385
609,-300,60.4249,1.20483,0,0,0,0,0,0,0,-1,1833,1324,60.4249,-1.20486
616,-300,60.4126,1.02698,0,0,0,0,0,0,0,-1,1840,1324,60.4126,-1.02699
623,-300,47.4474,2.43188,0,0,0,0,0,0,0,-1,1847,1324,47.4474,-2.43194
630,-300,42.4099,3.9165,0,0,0,0,0,0,0,-1,1854,1324,42.4099,-3.91649
637,-300,31.1719,4.6366,0,0,0,0,0,0,0,-1,1861,1324,31.1718,-4.63665
644,-300,22.9836,3.44934,0,0,0,0,0,0,0,-1,1868,1324,22.9836,-3.4493
651,-300,25.5004,9.11853,0,0,0,0,0,0,0,-1,1875,1324,25.5004,-9.11851
658,-300,25.4012,9.20032,0,0,0,0,0,0,0,-1,1882,1324,25.4012,-9.20036
665,-300,43.3478,14.9987,0,0,0,0,0,0,0,-1,1889,1324,43.3478,-14.9987
672,-300,43.1934,14.4183,-0.00052562,-0.00409149,-0.000374981,-0.000486614,-0.0041305,-0.103648,0.00260665,0.0309909,1896,1324,43.1933,-14.4183
679,-300,43.1759,13.7271,-0.000540886,-0.00297453,-0.000258714,-0.000513686,-0.00300173,-0.104748,0.0018538,0.0133035,1903,1324,43.1759,-13.7271
686,-300,43.1387,13.0667,0.000279517,-0.0012327,-0.000391245,0.000374745,-0.00132792,-0.238753,0.00103311,0.0147117,1910,1324,43.1387,-13.0666
693,-300,43.1198,12.438,0.0006102,-0.000404074,-0.000164787,0.000636301,-0.000430175,-0.157087,0.000619552,0.0122719,1917,1324,43.1197,-12.438
700,-300,43.0919,11.7739,0.000268184,-0.00054041,0.000450115,0.000468915,-0.000741142,0.419486,0.000704495,0.0127923,1924,1324,43.092,-11.7739
707,-300,43.0587,11.1375,-0.000360978,-0.000804436,0.00109739,0.000536859,-0.00170227,0.685715,0.00134987,0.00927251,1931,1324,43.0587,-11.1375
714,-300,43.0457,10.5272,-0.00121581,-0.00119262,0.00184941,0.000645234,-0.00305367,0.788533,0.00228148,0.0110329,1938,1324,43.0457,-10.5272
721,-300,43.0339,9.87451,-0.00232296,-0.00171095,0.00269878,0.000699124,-0.00473303,0.84185,0.00341235,0.0130444,1945,1324,43.034,-9.87447
728,-300,43.0354,9.20117,-0.00380072,-0.00237871,0.00365603,0.000634812,-0.00681424,0.881437,0.00476853,0.0182713,1952,1324,43.0354,-9.20112
735,-300,42.8275,8.84961,-0.00580523,-0.00329813,0.00475063,0.000361561,-0.00946491,0.914393,0.00643385,0.0353453,1959,1324,42.8276,-8.84957
742,-300,42.7483,8.34595,0,0,0,0,0,0,0,-1,1966,1324,42.7483,-8.34594
749,-300,27.4065,5.9718,0,0,0,0,0,0,0,-1,1973,1324,27.4065,-5.97181
756,-300,22.1423,3.45642,0,0,0,0,0,0,0,-1,1980,1324,22.1423,-3.45638
763,-300,22.6136,5.1571,0,0,0,0,0,0,0,-1,1987,1324,22.6136,-5.15706
770,-300,24.859,4.77979,0,0,0,0,0,0,0,-1,1994,1324,24.859,-4.77972
777,-300,0,0,0,0,0,0,0,0,0,-1,2001,1324,0,0
784,-300,0,0,0,0,0,0,0,0,0,-1,2008,1324,0,0
791,-300,0,0,0,0,0,0,0,0,0,-1,2015,1324,0,0
798,-300,0,0,0,0,0,0,0,0,0,-1,2022,1324,0,0
805,-300,0,0,0,0,0,0,0,0,0,-1,2029,1324,0,0
812,-300,0,0,0,0,0,0,0,0,0,-1,2036,1324,0,0
-700,-307,0,0,0,0,0,0,0,0,0,-1,524,1331,0,0
-693,-307,0,0,0,0,0,0,0,0,0,-1,531,1331,0,0
-686,-307,0,0,0,0,0,0,0,0,0,-1,538,1331,0,0
-679,-307,0,0,0,0,0,0,0,0,0,-1,545,1331,0,0
-672,-307,0,0,0,0,0,0,0,0,0,-1,552,1331,0,0
-665,-307,0,0,0,0,0,0,0,0,0,-1,559,1331,0,0
-658,-307,0,0,0,0,0,0,0,0,0,-1,566,1331,0,0
-651,-307,-40.7436,1.98755,0,0,0,0,0,0,0,-1,573,1331,-40.7436,-1.98753
-644,-307,-41.7838,1.24817,0,0,0,0,0,0,0,-1,580,1331,-41.7838,-1.2482
-637,-307,-41.9006,0.477783,0,0,0,0,0,0,0,-1,587,1331,-41.9006,-0.477844
-630,-307,-12.0005,0.767212,0,0,0,0,0,0,0,-1,594,1331,-12.0005,-0.767266
-623,-307,-12.2128,2.93811,0,0,0,0,0,0,0,-1,601,1331,-12.2128,-2.93813
-616,-307,-12.6612,2.08289,0,0,0,0,0,0,0,-1,608,1331,-12.6612,-2.08293
-609,-307,-12.2767,1.83228,0,0,0,0,0,0,0,-1,615,1331,-12.2768,-1.83224
-602,-307,-22.8475,5.62708,0,0,0,0,0,0,0,-1,622,1331,-22.8476,-5.6271
-595,-307,-25.822,7.32886,0,0,0,0,0,0,0,-1,629,1331,-25.822,-7.32882
-588,-307,-25.6605,8.1123,0.00534592,0.00421301,0.00307408,0.0079053,0.00165363,0.694286,0.00481459,0.0236711,636,1331,-25.6606,-8.11225
-581,-307,-25.6608,8.8042,0.00415671,0.00285275,0.00214246,0.0057442,0.00126527,0.637693,0.00348513,0.0169415,643,1331,-25.6608,-8.80422
-574,-307,-25.6844,9.47302,0.00344369,0.00178417,0.00155542,0.00437683,0.000851022,0.540369,0.00267964,0.0135863,650,1331,-25.6844,-9.47303
-567,-307,-25.7216,10.139,0.00314777,0.00093722,0.00123816,0.00370221,0.000382774,0.421022,0.00235096,0.0137921,657,1331,-25.7216,-10.1391
-560,-307,-25.7428,10.8182,0.00320247,0.000210518,0.00112389,0.00357761,-0.000164619,0.322158,0.00244179,0.0145903,664,1331,-25.7428,-10.8183
-553,-307,-25.7804,11.4984,0.00360782,-0.000325615,0.00122753,0.00395947,-0.000677258,0.278994,0.00289195,0.0114825,671,1331,-25.7804,-11.4984
-546,-307,-25.8103,12.1909,0.00440899,-0.000743056,0.00156569,0.00484748,-0.00118155,0.273066,0.00368912,0.0109264,678,1331,-25.8103,-12.1909
-539,-307,-25.8243,12.9135,0.00556078,-0.00110706,0.00207652,0.00615458,-0.00170086,0.278524,0.00477213,0.018353,685,1331,-25.8243,-12.9135
-532,-307,-25.8292,13.6382,0,0,0,0,0,0,0,-1,692,1331,-25.8292,-13.6382
-525,-307,-13.2009,6.91309,0,0,0,0,0,0,0,-1,699,1331,-13.2009,-6.9131
-518,-307,-9.77777,-1.56653,0,0,0,0,0,0,0,-1,706,1331,-9.77777,1.56651
-511,-307,-12.5226,0.26709,0,0,0,0,0,0,0,-1,713,1331,-12.5226,-0.267038
-504,-307,-12.5913,-0.308105,0,0,0,0,0,0,0,-1,720,1331,-12.5913,0.308124
-497,-307,-13.8586,-0.115845,0,0,0,0,0,0,0,-1,727,1331,-13.8587,0.115861
-490,-307,-17.9429,0.982178,0,0,0,0,0,0,0,-1,734,1331,-17.9429,-0.982198
-483,-307,-18.1066,0.927612,0,0,0,0,0,0,0,-1,741,1331,-18.1066,-0.927609
-476,-307,-18.1288,1.1228,0,0,0,0,0,0,0,-1,748,1331,-18.1289,-1.12286
-469,-307,-18.2028,0.798584,0,0,0,0,0,0,0,-1,755,1331,-18.2027,-0.798546
-462,-307,0,0,0,0,0,0,0,0,0,-1,762,1331,0,0
-455,-307,0,0,0,0,0,0,0,0,0,-1,769,1331,0,0
-448,-307,0,0,0,0,0,0,0,0,0,-1,776,1331,0,0
-441,-307,0,0,0,0,0,0,0,0,0,-1,783,1331,0,0
-434,-307,0,0,0,0,0,0,0,0,0,-1,790,1331,0,0
-427,-307,0,0,0,0,0,0,0,0,0,-1,797,1331,0,0
-420,-307,0,0,0,0,0,0,0,0,0,-1,804,1331,0,0
-413,-307,0,0,0,0,0,0,0,0,0,-1,811,1331,0,0
-406,-307,0,0,0,0,0,0,0,0,0,-1,818,1331,0,0
-399,-307,0,0,0,0,0,0,0,0,0,-1,825,1331,0,0
-392,-307,0,0,0,0,0,0,0,0,0,-1,832,1331,0,0
-385,-307,0,0,0,0,0,0,0,0,0,-1,839,1331,0,0
-378,-307,0,0,0,0,0,0,0,0,0,-1,846,1331,0,0
-371,-307,0,0,0,0,0,0,0,0,0,-1,853,1331,0,0
-364,-307,0,0,0,0,0,0,0,0,0,-1,860,1331,0,0
-357,-307,0,0,0,0,0,0,0,0,0,-1,867,1331,0,0
-350,-307,0,0,0,0,0,0,0,0,0,-1,874,1331,0,0
-343,-307,0,0,0,0,0,0,0,0,0,-1,881,1331,0,0
-336,-307,0,0,0,0,0,0,0,0,0,-1,888,1331,0,0
-329,-307,0,0,0,0,0,0,0,0,0,-1,895,1331,0,0
-322,-307,0,0,0,0,0,0,0,0,0,-1,902,1331,0,0
-315,-307,0,0,0,0,0,0,0,0,0,-1,909,1331,0,0
-308,-307,0,0,0,0,0,0,0,0,0,-1,916,1331,0,0
-301,-307,0,0,0,0,0,0,0,0,0,-1,923,1331,0,0
-294,-307,0,0,0,0,0,0,0,0,0,-1,930,1331,0,0
-287,-307,0,0,0,0,0,0,0,0,0,-1,937,1331,0,0
-280,-307,0,0,0,0,0,0,0,0,0,-1,944,1331,0,0
-273,-307,0,0,0,0,0,0,0,0,0,-1,951,1331,0,0
-266,-307,0,0,0,0,0,0,0,0,0,-1,958,1331,0,0
-259,-307,0,0,0,0,0,0,0,0,0,-1,965,1331,0,0
-252,-307,0,0,0,0,0,0,0,0,0,-1,972,1331,0,0
-245,-307,0,0,0,0,0,0,0,0,0,-1,979,1331,0,0
-238,-307,0,0,0,0,0,0,0,0,0,-1,986,1331,0,0
-231,-307,0,0,0,0,0,0,0,0,0,-1,993,1331,0,0
-224,-307,0,0,0,0,0,0,0,0,0,-1,1000,1331,0,0
-217,-307,0,0,0,0,0,0,0,0,0,-1,1007,1331,0,0
-210,-307,0,0,0,0,0,0,0,0,0,-1,1014,1331,0,0
-203,-307,0,0,0,0,0,0,0,0,0,-1,1021,1331,0,0
-196,-307,0,0,0,0,0,0,0,0,0,-1,1028,1331,0,0
-189,-307,0,0,0,0,0,0,0,0,0,-1,1035,1331,0,0
-182,-307,0,0,0,0,0,0,0,0,0,-1,1042,1331,0,0
-175,-307,0,0,0,0,0,0,0,0,0,-1,1049,1331,0,0
-168,-307,0,0,0,0,0,0,0,0,0,-1,1056,1331,0,0
-161,-307,0,0,0,0,0,0,0,0,0,-1,1063,1331,0,0
-154,-307,0,0,0,0,0,0,0,0,0,-1,1070,1331,0,0
-147,-307,0,0,0,0,0,0,0,0,0,-1,1077,1331,0,0
-140,-307,0,0,0,0,0,0,0,0,0,-1,1084,1331,0,0
-133,-307,0,0,0,0,0,0,0,0,0,-1,1091,1331,0,0
-126,-307,0,0,0,0,0,0,0,0,0,-1,1098,1331,0,0
-119,-307,0,0,0,0,0,0,0,0,0,-1,1105,1331,0,0
-112,-307,0,0,0,0,0,0,0,0,0,-1,1112,1331,0,0
-105,-307,0,0,0,0,0,0,0,0,0,-1,1119,1331,0,0
-98,-307,0,0,0,0,0,0,0,0,0,-1,1126,1331,0,0
-91,-307,0,0,0,0,0,0,0,0,0,-1,1133,1331,0,0
-84,-307,0,0,0,0,0,0,0,0,0,-1,1140,1331,0,0
-77,-307,0,0,0,0,0,0,0,0,0,-1,1147,1331,0,0
-70,-307,0,0,0,0,0,0,0,0,0,-1,1154,1331,0,0
-63,-307,0,0,0,0,0,0,0,0,0,-1,1161,1331,0,0
-56,-307,0,0,0,0,0,0,0,0,0,-1,1168,1331,0,0
-49,-307,0,0,0,0,0,0,0,0,0,-1,1175,1331,0,0
-42,-307,0,0,0,0,0,0,0,0,0,-1,1182,1331,0,0
-35,-307,0,0,0,0,0,0,0,0,0,-1,1189,1331,0,0
-28,-307,0,0,0,0,0,0,0,0,0,-1,1196,1331,0,0
-21,-307,0,0,0,0,0,0,0,0,0,-1,1203,1331,0,0
-14,-307,0,0,0,0,0,0,0,0,0,-1,1210,1331,0,0
-7,-307,0,0,0,0,0,0,0,0,0,-1,1217,1331,0,0
0,-307,0,0,0,0,0,0,0,0,0,-1,1224,1331,0,0
7,-307,0,0,0,0,0,0,0,0,0,-1,1231,1331,0,0
14,-307,0,0,0,0,0,0,0,0,0,-1,1238,1331,0,0
21,-307,0,0,0,0,0,0,0,0,0,-1,1245,1331,0,0
28,-307,0,0,0,0,0,0,0,0,0,-1,1252,1331,0,0
35,-307,0,0,0,0,0,0,0,0,0,-1,1259,1331,0,0
42,-307,0,0,0,0,0,0,0,0,0,-1,1266,1331,0,0
49,-307,0,0,0,0,0,0,0,0,0,-1,1273,1331,0,0
56,-307,0,0,0,0,0,0,0,0,0,-1,1280,1331,0,0
63,-307,0,0,0,0,0,0,0,0,0,-1,1287,1331,0,0
70,-307,0,0,0,0,0,0,0,0,0,-1,1294,1331,0,0
77,-307,0,0,0,0,0,0,0,0,0,-1,1301,1331,0,0
84,-307,0,0,0,0,0,0,0,0,0,-1,1308,1331,0,0
91,-307,0,0,0,0,0,0,0,0,0,-1,1315,1331,0,0
98,-307,0,0,0,0,0,0,0,0,0,-1,1322,1331,0,0
105,-307,0,0,0,0,0,0,0,0,0,-1,1329,1331,0,0
112,-307,0,0,0,0,0,0,0,0,0,-1,1336,1331,0,0
119,-307,0,0,0,0,0,0,0,0,0,-1,1343,1331,0,0
126,-307,0,0,0,0,0,0,0,0,0,-1,1350,1331,0,0
133,-307,0,0,0,0,0,0,0,0,0,-1,1357,1331,0,0
140,-307,0,0,0,0,0,0,0,0,0,-1,1364,1331,0,0
147,-307,0,0,0,0,0,0,0,0,0,-1,1371,1331,0,0
154,-307,0,0,0,0,0,0,0,0,0,-1,1378,1331,0,0
161,-307,0,0,0,0,0,0,0,0,0,-1,1385,1331,0,0
168,-307,0,0,0,0,0,0,0,0,0,-1,1392,1331,0,0
175,-307,0,0,0,0,0,0,0,0,0,-1,1399,1331,0,0
182,-307,0,0,0,0,0,0,0,0,0,-1,1406,1331,0,0
189,-307,0,0,0,0,0,0,0,0,0,-1,1413,1331,0,0
196,-307,0,0,0,0,0,0,0,0,0,-1,1420,1331,0,0
203,-307,0,0,0,0,0,0,0,0,0,-1,1427,1331,0,0
210,-307,0,0,0,0,0,0,0,0,0,-1,1434,1331,0,0
217,-307,0,0,0,0,0,0,0,0,0,-1,1441,1331,0,0
224,-307,0,0,0,0,0,0,0,0,0,-1,1448,1331,0,0
231,-307,0,0,0,0,0,0,0,0,0,-1,1455,1331,0,0
238,-307,0,0,0,0,0,0,0,0,0,-1,1462,1331,0,0
245,-307,0,0,0,0,0,0,0,0,0,-1,1469,1331,0,0
252,-307,0,0,0,0,0,0,0,0,0,-1,1476,1331,0,0
259,-307,0,0,0,0,0,0,0,0,0,-1,1483,1331,0,0
266,-307,0,0,0,0,0,0,0,0,0,-1,1490,1331,0,0
273,-307,0,0,0,0,0,0,0,0,0,-1,1497,1331,0,0
280,-307,0,0,0,0,0,0,0,0,0,-1,1504,1331,0,0
287,-307,0,0,0,0,0,0,0,0,0,-1,1511,1331,0,0
294,-307,0,0,0,0,0,0,0,0,0,-1,1518,1331,0,0
301,-307,0,0,0,0,0,0,0,0,0,-1,1525,1331,0,0
308,-307,0,0,0,0,0,0,0,0,0,-1,1532,1331,0,0
315,-307,0,0,0,0,0,0,0,0,0,-1,1539,1331,0,0
322,-307,0,0,0,0,0,0,0,0,0,-1,1546,1331,0,0
329,-307,0,0,0,0,0,0,0,0,0,-1,1553,1331,0,0
336,-307,0,0,0,0,0,0,0,0,0,-1,1560,1331,0,0
343,-307,0,0,0,0,0,0,0,0,0,-1,1567,1331,0,0
350,-307,0,0,0,0,0,0,0,0,0,-1,1574,1331,0,0
357,-307,0,0,0,0,0,0,0,0,0,-1,1581,1331,0,0
364,-307,0,0,0,0,0,0,0,0,0,-1,1588,1331,0,0
371,-307,0,0,0,0,0,0,0,0,0,-1,1595,1331,0,0
378,-307,0,0,0,0,0,0,0,0,0,-1,1602,1331,0,0
385,-307,0,0,0,0,0,0,0,0,0,-1,1609,1331,0,0
392,-307,0,0,0,0,0,0,0,0,0,-1,1616,1331,0,0
399,-307,0,0,0,0,0,0,0,0,0,-1,1623,1331,0,0
406,-307,0,0,0,0,0,0,0,0,0,-1,1630,1331,0,0
413,-307,0,0,0,0,0,0,0,0,0,-1,1637,1331,0,0
420,-307,0,0,0,0,0,0,0,0,0,-1,1644,1331,0,0
427,-307,0,0,0,0,0,0,0,0,0,-1,1651,1331,0,0
434,-307,0,0,0,0,0,0,0,0,0,-1,1658,1331,0,0
441,-307,0,0,0,0,0,0,0,0,0,-1,1665,1331,0,0
448,-307,0,0,0,0,0,0,0,0,0,-1,1672,1331,0,0
455,-307,0,0,0,0,0,0,0,0,0,-1,1679,1331,0,0
462,-307,0,0,0,0,0,0,0,0,0,-1,1686,1331,0,0
469,-307,0,0,0,0,0,0,0,0,0,-1,1693,1331,0,0
476,-307,0,0,0,0,0,0,0,0,0,-1,1700,1331,0,0
483,-307,0,0,0,0,0,0,0,0,0,-1,1707,1331,0,0
490,-307,0,0,0,0,0,0,0,0,0,-1,1714,1331,0,0
497,-307,0,0,0,0,0,0,0,0,0,-1,1721,1331,0,0
504,-307,0,0,0,0,0,0,0,0,0,-1,1728,1331,0,0
511,-307,0,0,0,0,0,0,0,0,0,-1,1735,1331,0,0
518,-307,0,0,0,0,0,0,0,0,0,-1,1742,1331,0,0
525,-307,0,0,0,0,0,0,0,0,0,-1,1749,1331,0,0
532,-307,0,0,0,0,0,0,0,0,0,-1,1756,1331,0,0
539,-307,0,0,0,0,0,0,0,0,0,-1,1763,1331,0,0
546,-307,0,0,0,0,0,0,0,0,0,-1,1770,1331,0,0
553,-307,0,0,0,0,0,0,0,0,0,-1,1777,1331,0,0
560,-307,0,0,0,0,0,0,0,0,0,-1,1784,1331,0,0
567,-307,0,0,0,0,0,0,0,0,0,-1,1791,1331,0,0
574,-307,0,0,0,0,0,0,0,0,0,-1,1798,1331,0,0
581,-307,0,0,0,0,0,0,0,0,0,-1,1805,1331,0,0
588,-307,61.8744,1.92188,0,0,0,0,0,0,0,-1,1812,1331,61.8744,-1.92191
595,-307,61.3059,1.68066,0,0,0,0,0,0,0,-1,1819,1331,61.3059,-1.68071
602,-307,60.7374,1.60144,0,0,0,0,0,0,0,-1,1826,1331,60.7374,-1.60147
609,-307,60.4161,1.03345,0,0,0,0,0,0,0,-1,1833,1331,60.4161,-1.03344
616,-307,53.2878,0.135498,0,0,0,0,0,0,0,-1,1840,1331,53.2878,-0.135477
623,-307,44.3966,2.84888,0,0,0,0,0,0,0,-1,1847,1331,44.3966,-2.84884
630,-307,29.8116,1.51184,0,0,0,0,0,0,0,-1,1854,1331,29.8116,-1.51188
637,-307,24.6407,4.09106,0,0,0,0,0,0,0,-1,1861,1331,24.6407,-4.09103
644,-307,22.6885,5.80408,0,0,0,0,0,0,0,-1,1868,1331,22.6884,-5.80408
651,-307,17.5013,5.80078,0,0,0,0,0,0,0,-1,1875,1331,17.5014,-5.80072
658,-307,37.4427,13.9775,0,0,0,0,0,0,0,-1,1882,1331,37.4427,-13.9776
665,-307,42.6788,15.0588,0,0,0,0,0,0,0,-1,1889,1331,42.6789,-15.0588
672,-307,42.5701,14.4211,0.000240537,-0.00342106,3.75511e-05,0.000240922,-0.00342144,0.0102539,0.00236536,0.0187373,1896,1331,42.5701,-14.4212
679,-307,42.5216,13.7778,0.000161055,-0.00227734,2.59169e-05,0.000161331,-0.00227761,0.0106271,0.00157494,0.0106607,1903,1331,42.5216,-13.7778
686,-307,42.4885,13.1255,0.000637243,-0.000956589,-0.000133251,0.000648307,-0.000967653,-0.0828377,0.000939028,0.0107609,1910,1331,42.4885,-13.1255
693,-307,42.4763,12.478,0.00067141,-0.000438299,5.37744e-05,0.000674009,-0.000440899,0.0483073,0.000648366,0.0127011,1917,1331,42.4763,-12.478
700,-307,42.4536,11.7987,0.000283727,-0.000592124,0.000552707,0.000550971,-0.000859367,0.450375,0.000820722,0.0143756,1924,1331,42.4536,-11.7987
707,-307,42.4233,11.1403,-0.000230156,-0.00086857,0.00115899,0.000652781,-0.00175151,0.651021,0.00143562,0.0151754,1931,1331,42.4234,-11.1403
714,-307,42.403,10.5585,-0.000973485,-0.00129289,0.00189548,0.000769012,-0.00303539,0.74337,0.00232276,0.0127445,1938,1331,42.403,-10.5585
721,-307,42.4283,9.9137,-0.00196169,-0.00189484,0.00276646,0.0008384,-0.00469493,0.791439,0.00344361,0.0176147,1945,1331,42.4284,-9.9137
728,-307,42.3875,9.44739,-0.00335267,-0.00271878,0.00379693,0.000774407,-0.00684585,0.827039,0.00484272,0.0496018,1952,1331,42.3874,-9.44734
735,-307,42.4365,8.6908,0,0,0,0,0,0,0,-1,1959,1331,42.4365,-8.69075
742,-307,26.677,6.09192,0,0,0,0,0,0,0,-1,1966,1331,26.677,-6.0919
749,-307,26.7727,5.9032,0,0,0,0,0,0,0,-1,1973,1331,26.7727,-5.90323
756,-307,27.1556,5.74756,0,0,0,0,0,0,0,-1,1980,1331,27.1557,-5.7475
763,-307,18.7522,3.55298,0,0,0,0,0,0,0,-1,1987,1331,18.7522,-3.55301
770,-307,0,0,0,0,0,0,0,0,0,-1,1994,1331,0,0
777,-307,0,0,0,0,0,0,0,0,0,-1,2001,1331,0,0
784,-307,0,0,0,0,0,0,0,0,0,-1,2008,1331,0,0
791,-307,0,0,0,0,0,0,0,0,0,-1,2015,1331,0,0
798,-307,0,0,0,0,0,0,0,0,0,-1,2022,1331,0,0
805,-307,0,0,0,0,0,0,0,0,0,-1,2029,1331,0,0
812,-307,0,0,0,0,0,0,0,0,0,-1,2036,1331,0,0
-700,-314,0,0,0,0,0,0,0,0,0,-1,524,1338,0,0
-693,-314,0,0,0,0,0,0,0,0,0,-1,531,1338,0,0
-686,-314,0,0,0,0,0,0,0,0,0,-1,538,1338,0,0
-679,-314,0,0,0,0,0,0,0,0,0,-1,545,1338,0,0
-672,-314,0,0,0,0,0,0,0,0,0,-1,552,1338,0,0
-665,-314,0,0,0,0,0,0,0,0,0,-1,559,1338,0,0
-658,-314,0,0,0,0,0,0,0,0,0,-1,566,1338,0,0
-651,-314,0,0,0,0,0,0,0,0,0,-1,573,1338,0,0
-644,-314,-41.2806,1.17566,0,0,0,0,0,0,0,-1,580,1338,-41.2806,-1.17565
-637,-314,-58.369,7.97375,0,0,0,0,0,0,0,-1,587,1338,-58.369,-7.97376
-630,-314,-59.7463,6.72742,0,0,0,0,0,0,0,-1,594,1338,-59.7463,-6.72739
-623,-314,-13.3542,3.00903,0,0,0,0,0,0,0,-1,601,1338,-13.3542,-3.00907
-616,-314,-9.93311,1.15088,0,0,0,0,0,0,0,-1,608,1338,-9.93308,-1.15093
-609,-314,-9.4361,2.86292,0,0,0,0,0,0,0,-1,615,1338,-9.43612,-2.86286
-602,-314,-11.8027,2.42798,0,0,0,0,0,0,0,-1,622,1338,-11.8027,-2.42802
-595,-314,-25.1584,7.32898,0,0,0,0,0,0,0,-1,629,1338,-25.1584,-7.32902
-588,-314,-25.0421,8.07813,0.00559916,0.004488,0.00325295,0.00834364,0.00174352,0.700819,0.00508194,0.0346416,636,1338,-25.042,-8.0781
-581,-314,-24.9555,8.79443,0.00430808,0.00318517,0.00226247,0.00607772,0.00141553,0.663775,0.00367207,0.0136421,643,1338,-24.9555,-8.79443
-574,-314,-25.019,9.46265,0.00351967,0.00215039,0.00164594,0.00461768,0.00105238,0.588305,0.00279451,0.0135486,650,1338,-25.019,-9.46259
-567,-314,-25.0239,10.16,0.00316701,0.0013231,0.00130084,0.00383948,0.000650635,0.477114,0.0023727,0.0159233,657,1338,-25.0239,-10.1601
-560,-314,-25.0227,10.8593,0.00316532,0.000618237,0.00115806,0.00361312,0.000170442,0.36897,0.00235399,0.016578,664,1338,-25.0227,-10.8593
-553,-314,-25.0655,11.5353,0.00346594,5.74076e-05,0.00119621,0.00384384,-0.000320499,0.305998,0.0026758,0.0178118,671,1338,-25.0655,-11.5353
-546,-314,-25.1511,12.2144,0.00413756,-0.000382495,0.00145915,0.00456767,-0.000812606,0.28665,0.00334901,0.0177768,678,1338,-25.1511,-12.2143
-539,-314,-25.1383,12.9399,0.00512098,-0.000752754,0.00187636,0.00566921,-0.00130099,0.284266,0.00427957,0.0181208,685,1338,-25.1383,-12.94
-532,-314,-25.0029,13.6444,0,0,0,0,0,0,0,-1,692,1338,-25.0029,-13.6445
-525,-314,-13.3017,7.50671,0,0,0,0,0,0,0,-1,699,1338,-13.3017,-7.50669
-518,-314,-8.52753,4.70032,0,0,0,0,0,0,0,-1,706,1338,-8.52755,-4.70034
-511,-314,-11.8597,0.384888,0,0,0,0,0,0,0,-1,713,1338,-11.8597,-0.384927
-504,-314,-11.4322,-0.187378,0,0,0,0,0,0,0,-1,720,1338,-11.4322,0.187381
-497,-314,-11.0047,-0.759644,0,0,0,0,0,0,0,-1,727,1338,-11.0047,0.759689
-490,-314,-18.5143,0.471069,0,0,0,0,0,0,0,-1,734,1338,-18.5143,-0.47103
-483,-314,-17.8528,0.577271,0,0,0,0,0,0,0,-1,741,1338,-17.8528,-0.577327
-476,-314,-17.714,0.665405,0,0,0,0,0,0,0,-1,748,1338,-17.714,-0.665388
-469,-314,-17.7246,0.794678,0,0,0,0,0,0,0,-1,755,1338,-17.7246,-0.794645
-462,-314,0,0,0,0,0,0,0,0,0,-1,762,1338,0,0
-455,-314,0,0,0,0,0,0,0,0,0,-1,769,1338,0,0
-448,-314,0,0,0,0,0,0,0,0,0,-1,776,1338,0,0
-441,-314,0,0,0,0,0,0,0,0,0,-1,783,1338,0,0
-434,-314,0,0,0,0,0,0,0,0,0,-1,790,1338,0,0
-427,-314,0,0,0,0,0,0,0,0,0,-1,797,1338,0,0
-420,-314,0,0,0,0,0,0,0,0,0,-1,804,1338,0,0
-413,-314,0,0,0,0,0,0,0,0,0,-1,811,1338,0,0
-406,-314,0,0,0,0,0,0,0,0,0,-1,818,1338,0,0
-399,-314,0,0,0,0,0,0,0,0,0,-1,825,1338,0,0
-392,-314,0,0,0,0,0,0,0,0,0,-1,832,1338,0,0
-385,-314,0,0,0,0,0,0,0,0,0,-1,839,1338,0,0
-378,-314,0,0,0,0,0,0,0,0,0,-1,846,1338,0,0
-371,-314,0,0,0,0,0,0,0,0,0,-1,853,1338,0,0
-364,-314,0,0,0,0,0,0,0,0,0,-1,860,1338,0,0
-357,-314,0,0,0,0,0,0,0,0,0,-1,867,1338,0,0
-350,-314,0,0,0,0,0,0,0,0,0,-1,874,1338,0,0
-343,-314,0,0,0,0,0,0,0,0,0,-1,881,1338,0,0
-336,-314,0,0,0,0,0,0,0,0,0,-1,888,1338,0,0
-329,-314,0,0,0,0,0,0,0,0,0,-1,895,1338,0,0
-322,-314,0,0,0,0,0,0,0,0,0,-1,902,1338,0,0
-315,-314,0,0,0,0,0,0,0,0,0,-1,909,1338,0,0
-308,-314,0,0,0,0,0,0,0,0,0,-1,916,1338,0,0
-301,-314,0,0,0,0,0,0,0,0,0,-1,923,1338,0,0
-294,-314,0,0,0,0,0,0,0,0,0,-1,930,1338,0,0
-287,-314,0,0,0,0,0,0,0,0,0,-1,937,1338,0,0
-280,-314,0,0,0,0,0,0,0,0,0,-1,944,1338,0,0
-273,-314,0,0,0,0,0,0,0,0,0,-1,951,1338,0,0
-266,-314,0,0,0,0,0,0,0,0,0,-1,958,1338,0,0
-259,-314,0,0,0,0,0,0,0,0,0,-1,965,1338,0,0
-252,-314,0,0,0,0,0,0,0,0,0,-1,972,1338,0,0
-245,-314,0,0,0,0,0,0,0,0,0,-1,979,1338,0,0
-238,-314,0,0,0,0,0,0,0,0,0,-1,986,1338,0,0
-231,-314,0,0,0,0,0,0,0,0,0,-1,993,1338,0,0
-224,-314,0,0,0,0,0,0,0,0,0,-1,1000,1338,0,0
-217,-314,0,0,0,0,0,0,0,0,0,-1,1007,1338,0,0
-210,-314,0,0,0,0,0,0,0,0,0,-1,1014,1338,0,0
-203,-314,0,0,0,0,0,0,0,0,0,-1,1021,1338,0,0
-196,-314,0,0,0,0,0,0,0,0,0,-1,1028,1338,0,0
-189,-314,0,0,0,0,0,0,0,0,0,-1,1035,1338,0,0
-182,-314,0,0,0,0,0,0,0,0,0,-1,1042,1338,0,0
-175,-314,0,0,0,0,0,0,0,0,0,-1,1049,1338,0,0
-168,-314,0,0,0,0,0,0,0,0,0,-1,1056,1338,0,0
-161,-314,0,0,0,0,0,0,0,0,0,-1,1063,1338,0,0
-154,-314,0,0,0,0,0,0,0,0,0,-1,1070,1338,0,0
-147,-314,0,0,0,0,0,0,0,0,0,-1,1077,1338,0,0
-140,-314,0,0,0,0,0,0,0,0,0,-1,1084,1338,0,0
-133,-314,0,0,0,0,0,0,0,0,0,-1,1091,1338,0,0
-126,-314,0,0,0,0,0,0,0,0,0,-1,1098,1338,0,0
-119,-314,0,0,0,0,0,0,0,0,0,-1,1105,1338,0,0
-112,-314,0,0,0,0,0,0,0,0,0,-1,1112,1338,0,0
-105,-314,0,0,0,0,0,0,0,0,0,-1,1119,1338,0,0
-98,-314,0,0,0,0,0,0,0,0,0,-1,1126,1338,0,0
-91,-314,0,0,0,0,0,0,0,0,0,-1,1133,1338,0,0
-84,-314,0,0,0,0,0,0,0,0,0,-1,1140,1338,0,0
-77,-314,0,0,0,0,0,0,0,0,0,-1,1147,1338,0,0
-70,-314,0,0,0,0,0,0,0,0,0,-1,1154,1338,0,0
-63,-314,0,0,0,0,0,0,0,0,0,-1,1161,1338,0,0
-56,-314,0,0,0,0,0,0,0,0,0,-1,1168,1338,0,0
-49,-314,0,0,0,0,0,0,0,0,0,-1,1175,1338,0,0
-42,-314,0,0,0,0,0,0,0,0,0,-1,1182,1338,0,0
-35,-314,0,0,0,0,0,0,0,0,0,-1,1189,1338,0,0
-28,-314,0,0,0,0,0,0,0,0,0,-1,1196,1338,0,0
-21,-314,0,0,0,0,0,0,0,0,0,-1,1203,1338,0,0
-14,-314,0,0,0,0,0,0,0,0,0,-1,1210,1338,0,0
-7,-314,0,0,0,0,0,0,0,0,0,-1,1217,1338,0,0
0,-314,0,0,0,0,0,0,0,0,0,-1,1224,1338,0,0
7,-314,0,0,0,0,0,0,0,0,0,-1,1231,1338,0,0
14,-314,0,0,0,0,0,0,0,0,0,-1,1238,1338,0,0
21,-314,0,0,0,0,0,0,0,0,0,-1,1245,1338,0,0
28,-314,0,0,0,0,0,0,0,0,0,-1,1252,1338,0,0
35,-314,0,0,0,0,0,0,0,0,0,-1,1259,1338,0,0
42,-314,0,0,0,0,0,0,0,0,0,-1,1266,1338,0,0
49,-314,0,0,0,0,0,0,0,0,0,-1,1273,1338,0,0
56,-314,0,0,0,0,0,0,0,0,0,-1,1280,1338,0,0
63,-314,0,0,0,0,0,0,0,0,0,-1,1287,1338,0,0
70,-314,0,0,0,0,0,0,0,0,0,-1,1294,1338,0,0
77,-314,0,0,0,0,0,0,0,0,0,-1,1301,1338,0,0
84,-314,0,0,0,0,0,0,0,0,0,-1,1308,1338,0,0
91,-314,0,0,0,0,0,0,0,0,0,-1,1315,1338,0,0
98,-314,0,0,0,0,0,0,0,0,0,-1,1322,1338,0,0
105,-314,0,0,0,0,0,0,0,0,0,-1,1329,1338,0,0
112,-314,0,0,0,0,0,0,0,0,0,-1,1336,1338,0,0
119,-314,0,0,0,0,0,0,0,0,0,-1,1343,1338,0,0
126,-314,0,0,0,0,0,0,0,0,0,-1,1350,1338,0,0
133,-314,0,0,0,0,0,0,0,0,0,-1,1357,1338,0,0
140,-314,0,0,0,0,0,0,0,0,0,-1,1364,1338,0,0
147,-314,0,0,0,0,0,0,0,0,0,-1,1371,1338,0,0
154,-314,0,0,0,0,0,0,0,0,0,-1,1378,1338,0,0
161,-314,0,0,0,0,0,0,0,0,0,-1,1385,1338,0,0
168,-314,0,0,0,0,0,0,0,0,0,-1,1392,1338,0,0
175,-314,0,0,0,0,0,0,0,0,0,-1,1399,1338,0,0
182,-314,0,0,0,0,0,0,0,0,0,-1,1406,1338,0,0
189,-314,0,0,0,0,0,0,0,0,0,-1,1413,1338,0,0
196,-314,0,0,0,0,0,0,0,0,0,-1,1420,1338,0,0
203,-314,0,0,0,0,0,0,0,0,0,-1,1427,1338,0,0
210,-314,0,0,0,0,0,0,0,0,0,-1,1434,1338,0,0
217,-314,0,0,0,0,0,0,0,0,0,-1,1441,1338,0,0
224,-314,0,0,0,0,0,0,0,0,0,-1,1448,1338,0,0
231,-314,0,0,0,0,0,0,0,0,0,-1,1455,1338,0,0
238,-314,0,0,0,0,0,0,0,0,0,-1,1462,1338,0,0
245,-314,0,0,0,0,0,0,0,0,0,-1,1469,1338,0,0
252,-314,0,0,0,0,0,0,0,0,0,-1,1476,1338,0,0
259,-314,0,0,0,0,0,0,0,0,0,-1,1483,1338,0,0
266,-314,0,0,0,0,0,0,0,0,0,-1,1490,1338,0,0
273,-314,0,0,0,0,0,0,0,0,0,-1,1497,1338,0,0
280,-314,0,0,0,0,0,0,0,0,0,-1,1504,1338,0,0
287,-314,0,0,0,0,0,0,0,0,0,-1,1511,1338,0,0
294,-314,0,0,0,0,0,0,0,0,0,-1,1518,1338,0,0
301,-314,0,0,0,0,0,0,0,0,0,-1,1525,1338,0,0
308,-314,0,0,0,0,0,0,0,0,0,-1,1532,1338,0,0
315,-314,0,0,0,0,0,0,0,0,0,-1,1539,1338,0,0
322,-314,0,0,0,0,0,0,0,0,0,-1,1546,1338,0,0
329,-314,0,0,0,0,0,0,0,0,0,-1,1553,1338,0,0
336,-314,0,0,0,0,0,0,0,0,0,-1,1560,1338,0,0
343,-314,0,0,0,0,0,0,0,0,0,-1,1567,1338,0,0
350,-314,0,0,0,0,0,0,0,0,0,-1,1574,1338,0,0
357,-314,0,0,0,0,0,0,0,0,0,-1,1581,1338,0,0
364,-314,0,0,0,0,0,0,0,0,0,-1,1588,1338,0,0
371,-314,0,0,0,0,0,0,0,0,0,-1,1595,1338,0,0
378,-314,0,0,0,0,0,0,0,0,0,-1,1602,1338,0,0
385,-314,0,0,0,0,0,0,0,0,0,-1,1609,1338,0,0
392,-314,0,0,0,0,0,0,0,0,0,-1,1616,1338,0,0
399,-314,0,0,0,0,0,0,0,0,0,-1,1623,1338,0,0
406,-314,0,0,0,0,0,0,0,0,0,-1,1630,1338,0,0
413,-314,0,0,0,0,0,0,0,0,0,-1,1637,1338,0,0
420,-314,0,0,0,0,0,0,0,0,0,-1,1644,1338,0,0
427,-314,0,0,0,0,0,0,0,0,0,-1,1651,1338,0,0
434,-314,0,0,0,0,0,0,0,0,0,-1,1658,1338,0,0
441,-314,0,0,0,0,0,0,0,0,0,-1,1665,1338,0,0
448,-314,0,0,0,0,0,0,0,0,0,-1,1672,1338,0,0
455,-314,0,0,0,0,0,0,0,0,0,-1,1679,1338,0,0
462,-314,0,0,0,0,0,0,0,0,0,-1,1686,1338,0,0
469,-314,0,0,0,0,0,0,0,0,0,-1,1693,1338,0,0
476,-314,0,0,0,0,0,0,0,0,0,-1,1700,1338,0,0
483,-314,0,0,0,0,0,0,0,0,0,-1,1707,1338,0,0
490,-314,0,0,0,0,0,0,0,0,0,-1,1714,1338,0,0
497,-314,0,0,0,0,0,0,0,0,0,-1,1721,1338,0,0
504,-314,0,0,0,0,0,0,0,0,0,-1,1728,1338,0,0
511,-314,0,0,0,0,0,0,0,0,0,-1,1735,1338,0,0
518,-314,0,0,0,0,0,0,0,0,0,-1,1742,1338,0,0
525,-314,0,0,0,0,0,0,0,0,0,-1,1749,1338,0,0
532,-314,0,0,0,0,0,0,0,0,0,-1,1756,1338,0,0
539,-314,0,0,0,0,0,0,0,0,0,-1,1763,1338,0,0
546,-314,0,0,0,0,0,0,0,0,0,-1,1770,1338,0,0
553,-314,0,0,0,0,0,0,0,0,0,-1,1777,1338,0,0
560,-314,0,0,0,0,0,0,0,0,0,-1,1784,1338,0,0
567,-314,0,0,0,0,0,0,0,0,0,-1,1791,1338,0,0
574,-314,0,0,0,0,0,0,0,0,0,-1,1798,1338,0,0
581,-314,61.8267,2.02466,0,0,0,0,0,0,0,-1,1805,1338,61.8267,-2.02467
588,-314,61.4409,1.81555,0,0,0,0,0,0,0,-1,1812,1338,61.441,-1.81552
595,-314,61.0155,1.63379,0,0,0,0,0,0,0,-1,1819,1338,61.0155,-1.63379
602,-314,60.5292,1.44434,0,0,0,0,0,0,0,-1,1826,1338,60.5292,-1.44435
609,-314,60.2225,1.27014,0,0,0,0,0,0,0,-1,1833,1338,60.2225,-1.27017
616,-314,48.1149,3.005,0,0,0,0,0,0,0,-1,1840,1338,48.1149,-3.00505
623,-314,38.7728,2.71741,0,0,0,0,0,0,0,-1,1847,1338,38.7728,-2.71737
630,-314,29.4308,6.23206,0,0,0,0,0,0,0,-1,1854,1338,29.4308,-6.23202
637,-314,22.1349,5.16418,0,0,0,0,0,0,0,-1,1861,1338,22.1349,-5.16414
644,-314,18.7517,6.2605,0,0,0,0,0,0,0,-1,1868,1338,18.7517,-6.26053
651,-314,23.1317,8.005,0,0,0,0,0,0,0,-1,1875,1338,23.1317,-8.00506
658,-314,41.9395,15.7659,0,0,0,0,0,0,0,-1,1882,1338,41.9395,-15.7659
665,-314,41.8887,15.1223,0.000705275,-0.00277583,-0.000112361,0.000708898,-0.00277946,-0.0322327,0.00212898,0.0362861,1889,1338,41.8886,-15.1223
672,-314,41.9149,14.4788,0.000213691,-0.0019952,-5.96549e-05,0.000215301,-0.00199681,-0.0269805,0.00140847,0.0138157,1896,1338,41.9149,-14.4788
679,-314,41.8842,13.8198,0.000292108,-0.00127461,-9.42586e-05,0.000297759,-0.00128026,-0.0598752,0.000968146,0.0109363,1903,1338,41.8842,-13.8198
686,-314,41.8444,13.1617,0.000691717,-0.00062223,-0.00013527,0.000705498,-0.000636012,-0.101531,0.000774867,0.0135371,1910,1338,41.8444,-13.1617
693,-314,41.7955,12.4956,0.000738525,-0.000423336,9.96115e-05,0.000747003,-0.000431814,0.0849087,0.000688652,0.0135738,1917,1338,41.7956,-12.4956
700,-314,41.7823,11.8094,0.00050106,-0.000586778,0.000543559,0.000726104,-0.000811822,0.392534,0.000888382,0.0150385,1924,1338,41.7823,-11.8095
707,-314,41.7876,11.1732,0.000124741,-0.000868548,0.00111002,0.000844152,-0.00158796,0.575044,0.0014259,0.0141546,1931,1338,41.7876,-11.1732
714,-314,41.7452,10.5814,-0.000491887,-0.00132638,0.00183256,0.000970332,-0.0027886,0.673464,0.00225326,0.0110593,1938,1338,41.7453,-10.5815
721,-314,41.7234,9.9939,-0.0013583,-0.00203877,0.002745,0.00106747,-0.00446454,0.723739,0.0033887,0.0260002,1945,1338,41.7234,-9.99386
728,-314,41.9922,9.69604,0,0,0,0,0,0,0,-1,1952,1338,41.9922,-9.69607
735,-314,26.3665,6.21582,0,0,0,0,0,0,0,-1,1959,1338,26.3664,-6.21581
742,-314,26.2235,6.0166,0,0,0,0,0,0,0,-1,1966,1338,26.2235,-6.01662
749,-314,26.2223,5.47046,0,0,0,0,0,0,0,-1,1973,1338,26.2223,-5.47041
756,-314,24.2521,5.93408,0,0,0,0,0,0,0,-1,1980,1338,24.252,-5.93413
763,-314,19.2207,4.07239,0,0,0,0,0,0,0,-1,1987,1338,19.2206,-4.07239
770,-314,0,0,0,0,0,0,0,0,0,-1,1994,1338,0,0
777,-314,0,0,0,0,0,0,0,0,0,-1,2001,1338,0,0
784,-314,0,0,0,0,0,0,0,0,0,-1,2008,1338,0,0
791,-314,0,0,0,0,0,0,0,0,0,-1,2015,1338,0,0
798,-314,0,0,0,0,0,0,0,0,0,-1,2022,1338,0,0
805,-314,0,0,0,0,0,0,0,0,0,-1,2029,1338,0,0
812,-314,0,0,0,0,0,0,0,0,0,-1,2036,1338,0,0
-700,-321,0,0,0,0,0,0,0,0,0,-1,524,1345,0,0
-693,-321,0,0,0,0,0,0,0,0,0,-1,531,1345,0,0
-686,-321,0,0,0,0,0,0,0,0,0,-1,538,1345,0,0
-679,-321,0,0,0,0,0,0,0,0,0,-1,545,1345,0,0
-672,-321,0,0,0,0,0,0,0,0,0,-1,552,1345,0,0
-665,-321,0,0,0,0,0,0,0,0,0,-1,559,1345,0,0
-658,-321,0,0,0,0,0,0,0,0,0,-1,566,1345,0,0
-651,-321,0,0,0,0,0,0,0,0,0,-1,573,1345,0,0
-644,-321,-58.7329,10.2313,0,0,0,0,0,0,0,-1,580,1345,-58.7329,-10.2313
-637,-321,-59.9981,9.06421,0,0,0,0,0,0,0,-1,587,1345,-59.9981,-9.06417
-630,-321,-61.377,8.07166,0,0,0,0,0,0,0,-1,594,1345,-61.3769,-8.07168
-623,-321,-13.2242,3.14148,0,0,0,0,0,0,0,-1,601,1345,-13.2243,-3.14146
-616,-321,-11.6754,3.13794,0,0,0,0,0,0,0,-1,608,1345,-11.6754,-3.13789
-609,-321,-7.95209,1.14758,0,0,0,0,0,0,0,-1,615,1345,-7.95208,-1.14757
-602,-321,-8.85791,2.50049,0,0,0,0,0,0,0,-1,622,1345,-8.85791,-2.50048
-595,-321,-19.8463,5.36584,0,0,0,0,0,0,0,-1,629,1345,-19.8462,-5.36589
-588,-321,-24.4334,8.0686,0,0,0,0,0,0,0,-1,636,1345,-24.4334,-8.06863
-581,-321,-24.2899,8.81934,0.00457733,0.00352649,0.00231248,0.00642333,0.00168049,0.673689,0.00384643,0.0147385,643,1345,-24.2899,-8.81937
-574,-321,-24.337,9.49097,0.00369497,0.002532,0.00171992,0.00492904,0.00129793,0.622387,0.00295014,0.015059,650,1345,-24.337,-9.49101
-567,-321,-24.3629,10.1914,0.0032581,0.00171471,0.00136883,0.00405777,0.000915036,0.528725,0.00245762,0.0242616,657,1345,-24.3628,-10.1914
-560,-321,-24.3886,10.9323,0.00316677,0.00103521,0.00121531,0.00371743,0.000484551,0.425429,0.0023336,0.0278073,664,1345,-24.3886,-10.9323
-553,-321,-24.4084,11.5814,0.0033302,0.000435972,0.00119191,0.00375786,8.31112e-06,0.344497,0.00250247,0.0265157,671,1345,-24.4084,-11.5815
-546,-321,-24.3976,12.2786,0.00382416,-3.56896e-05,0.00136645,0.00425893,-0.00047046,0.308048,0.00300839,0.0257944,678,1345,-24.3976,-12.2786
-539,-321,-24.4435,12.9655,0.00458628,-0.000426668,0.0016781,0.00509616,-0.000936553,0.294983,0.00374883,0.0242011,685,1345,-24.4435,-12.9655
-532,-321,-24.4008,13.6499,0.00571603,-0.000744381,0.00215004,0.00636614,-0.0013945,0.293634,0.00477726,0.0362005,692,1345,-24.4008,-13.6498
-525,-321,-24.4346,14.3804,0,0,0,0,0,0,0,-1,699,1345,-24.4346,-14.3803
-518,-321,-10.3564,6.75696,0,0,0,0,0,0,0,-1,706,1345,-10.3564,-6.75694
-511,-321,-9.3302,5.29297,0,0,0,0,0,0,0,-1,713,1345,-9.33023,-5.29294
-504,-321,-10.4713,0.0145264,0,0,0,0,0,0,0,-1,720,1345,-10.4713,-0.0145296
-497,-321,-9.96771,0.313599,0,0,0,0,0,0,0,-1,727,1345,-9.96769,-0.313618
-490,-321,-10.7631,0.973511,0,0,0,0,0,0,0,-1,734,1345,-10.7631,-0.97353
-483,-321,-17.5908,0.2323,0,0,0,0,0,0,0,-1,741,1345,-17.5908,-0.232355
-476,-321,-17.2915,0.297363,0,0,0,0,0,0,0,-1,748,1345,-17.2915,-0.297342
-469,-321,-17.2441,0.478027,0,0,0,0,0,0,0,-1,755,1345,-17.2441,-0.477994
-462,-321,-17.1672,0.526489,0,0,0,0,0,0,0,-1,762,1345,-17.1672,-0.526533
-455,-321,0,0,0,0,0,0,0,0,0,-1,769,1345,0,0
-448,-321,0,0,0,0,0,0,0,0,0,-1,776,1345,0,0
-441,-321,0,0,0,0,0,0,0,0,0,-1,783,1345,0,0
-434,-321,0,0,0,0,0,0,0,0,0,-1,790,1345,0,0
-427,-321,0,0,0,0,0,0,0,0,0,-1,797,1345,0,0
-420,-321,0,0,0,0,0,0,0,0,0,-1,804,1345,0,0
-413,-321,0,0,0,0,0,0,0,0,0,-1,811,1345,0,0
-406,-321,0,0,0,0,0,0,0,0,0,-1,818,1345,0,0
-399,-321,0,0,0,0,0,0,0,0,0,-1,825,1345,0,0
-392,-321,0,0,0,0,0,0,0,0,0,-1,832,1345,0,0
-385,-321,0,0,0,0,0,0,0,0,0,-1,839,1345,0,0
-378,-321,0,0,0,0,0,0,0,0,0,-1,846,1345,0,0
-371,-321,0,0,0,0,0,0,0,0,0,-1,853,1345,0,0
-364,-321,0,0,0,0,0,0,0,0,0,-1,860,1345,0,0
-357,-321,0,0,0,0,0,0,0,0,0,-1,867,1345,0,0
-350,-321,0,0,0,0,0,0,0,0,0,-1,874,1345,0,0
-343,-321,0,0,0,0,0,0,0,0,0,-1,881,1345,0,0
-336,-321,0,0,0,0,0,0,0,0,0,-1,888,1345,0,0
-329,-321,0,0,0,0,0,0,0,0,0,-1,895,1345,0,0
-322,-321,0,0,0,0,0,0,0,0,0,-1,902,1345,0,0
-315,-321,0,0,0,0,0,0,0,0,0,-1,909,1345,0,0
-308,-321,0,0,0,0,0,0,0,0,0,-1,916,1345,0,0
-301,-321,0,0,0,0,0,0,0,0,0,-1,923,1345,0,0
-294,-321,0,0,0,0,0,0,0,0,0,-1,930,1345,0,0
-287,-321,0,0,0,0,0,0,0,0,0,-1,937,1345,0,0
-280,-321,0,0,0,0,0,0,0,0,0,-1,944,1345,0,0
-273,-321,0,0,0,0,0,0,0,0,0,-1,951,1345,0,0
-266,-321,0,0,0,0,0,0,0,0,0,-1,958,1345,0,0
-259,-321,0,0,0,0,0,0,0,0,0,-1,965,1345,0,0
-252,-321,0,0,0,0,0,0,0,0,0,-1,972,1345,0,0
-245,-321,0,0,0,0,0,0,0,0,0,-1,979,1345,0,0
-238,-321,0,0,0,0,0,0,0,0,0,-1,986,1345,0,0
-231,-321,0,0,0,0,0,0,0,0,0,-1,993,1345,0,0
-224,-321,0,0,0,0,0,0,0,0,0,-1,1000,1345,0,0
-217,-321,0,0,0,0,0,0,0,0,0,-1,1007,1345,0,0
-210,-321,0,0,0,0,0,0,0,0,0,-1,1014,1345,0,0
-203,-321,0,0,0,0,0,0,0,0,0,-1,1021,1345,0,0
-196,-321,0,0,0,0,0,0,0,0,0,-1,1028,1345,0,0
-189,-321,0,0,0,0,0,0,0,0,0,-1,1035,1345,0,0
-182,-321,0,0,0,0,0,0,0,0,0,-1,1042,1345,0,0
-175,-321,0,0,0,0,0,0,0,0,0,-1,1049,1345,0,0
-168,-321,0,0,0,0,0,0,0,0,0,-1,1056,1345,0,0
-161,-321,0,0,0,0,0,0,0,0,0,-1,1063,1345,0,0
-154,-321,0,0,0,0,0,0,0,0,0,-1,1070,1345,0,0
-147,-321,0,0,0,0,0,0,0,0,0,-1,1077,1345,0,0
-140,-321,0,0,0,0,0,0,0,0,0,-1,1084,1345,0,0
-133,-321,0,0,0,0,0,0,0,0,0,-1,1091,1345,0,0
-126,-321,0,0,0,0,0,0,0,0,0,-1,1098,1345,0,0
-119,-321,0,0,0,0,0,0,0,0,0,-1,1105,1345,0,0
-112,-321,0,0,0,0,0,0,0,0,0,-1,1112,1345,0,0
-105,-321,0,0,0,0,0,0,0,0,0,-1,1119,1345,0,0
-98,-321,0,0,0,0,0,0,0,0,0,-1,1126,1345,0,0
-91,-321,0,0,0,0,0,0,0,0,0,-1,1133,1345,0,0
-84,-321,0,0,0,0,0,0,0,0,0,-1,1140,1345,0,0
-77,-321,0,0,0,0,0,0,0,0,0,-1,1147,1345,0,0
-70,-321,0,0,0,0,0,0,0,0,0,-1,1154,1345,0,0
-63,-321,0,0,0,0,0,0,0,0,0,-1,1161,1345,0,0
-56,-321,0,0,0,0,0,0,0,0,0,-1,1168,1345,0,0
-49,-321,0,0,0,0,0,0,0,0,0,-1,1175,1345,0,0
-42,-321,0,0,0,0,0,0,0,0,0,-1,1182,1345,0,0
-35,-321,0,0,0,0,0,0,0,0,0,-1,1189,1345,0,0
-28,-321,0,0,0,0,0,0,0,0,0,-1,1196,1345,0,0
-21,-321,0,0,0,0,0,0,0,0,0,-1,1203,1345,0,0
-14,-321,0,0,0,0,0,0,0,0,0,-1,1210,1345,0,0
-7,-321,0,0,0,0,0,0,0,0,0,-1,1217,1345,0,0
0,-321,0,0,0,0,0,0,0,0,0,-1,1224,1345,0,0
7,-321,0,0,0,0,0,0,0,0,0,-1,1231,1345,0,0
14,-321,0,0,0,0,0,0,0,0,0,-1,1238,1345,0,0
21,-321,0,0,0,0,0,0,0,0,0,-1,1245,1345,0,0
28,-321,0,0,0,0,0,0,0,0,0,-1,1252,1345,0,0
35,-321,0,0,0,0,0,0,0,0,0,-1,1259,1345,0,0
42,-321,0,0,0,0,0,0,0,0,0,-1,1266,1345,0,0
49,-321,0,0,0,0,0,0,0,0,0,-1,1273,1345,0,0
56,-321,0,0,0,0,0,0,0,0,0,-1,1280,1345,0,0
63,-321,0,0,0,0,0,0,0,0,0,-1,1287,1345,0,0
70,-321,0,0,0,0,0,0,0,0,0,-1,1294,1345,0,0
77,-321,0,0,0,0,0,0,0,0,0,-1,1301,1345,0,0
84,-321,0,0,0,0,0,0,0,0,0,-1,1308,1345,0,0
91,-321,0,0,0,0,0,0,0,0,0,-1,1315,1345,0,0
98,-321,0,0,0,0,0,0,0,0,0,-1,1322,1345,0,0
105,-321,0,0,0,0,0,0,0,0,0,-1,1329,1345,0,0
112,-321,0,0,0,0,0,0,0,0,0,-1,1336,1345,0,0
119,-321,0,0,0,0,0,0,0,0,0,-1,1343,1345,0,0
126,-321,0,0,0,0,0,0,0,0,0,-1,1350,1345,0,0
133,-321,0,0,0,0,0,0,0,0,0,-1,1357,1345,0,0
140,-321,0,0,0,0,0,0,0,0,0,-1,1364,1345,0,0
147,-321,0,0,0,0,0,0,0,0,0,-1,1371,1345,0,0
154,-321,0,0,0,0,0,0,0,0,0,-1,1378,1345,0,0
161,-321,0,0,0,0,0,0,0,0,0,-1,1385,1345,0,0
168,-321,0,0,0,0,0,0,0,0,0,-1,1392,1345,0,0
175,-321,0,0,0,0,0,0,0,0,0,-1,1399,1345,0,0
182,-321,0,0,0,0,0,0,0,0,0,-1,1406,1345,0,0
189,-321,0,0,0,0,0,0,0,0,0,-1,1413,1345,0,0
196,-321,0,0,0,0,0,0,0,0,0,-1,1420,1345,0,0
203,-321,0,0,0,0,0,0,0,0,0,-1,1427,1345,0,0
210,-321,0,0,0,0,0,0,0,0,0,-1,1434,1345,0,0
217,-321,0,0,0,0,0,0,0,0,0,-1,1441,1345,0,0
224,-321,0,0,0,0,0,0,0,0,0,-1,1448,1345,0,0
231,-321,0,0,0,0,0,0,0,0,0,-1,1455,1345,0,0
238,-321,0,0,0,0,0,0,0,0,0,-1,1462,1345,0,0
245,-321,0,0,0,0,0,0,0,0,0,-1,1469,1345,0,0
252,-321,0,0,0,0,0,0,0,0,0,-1,1476,1345,0,0
259,-321,0,0,0,0,0,0,0,0,0,-1,1483,1345,0,0
266,-321,0,0,0,0,0,0,0,0,0,-1,1490,1345,0,0
273,-321,0,0,0,0,0,0,0,0,0,-1,1497,1345,0,0
280,-321,0,0,0,0,0,0,0,0,0,-1,1504,1345,0,0
287,-321,0,0,0,0,0,0,0,0,0,-1,1511,1345,0,0
294,-321,0,0,0,0,0,0,0,0,0,-1,1518,1345,0,0
301,-321,0,0,0,0,0,0,0,0,0,-1,1525,1345,0,0
308,-321,0,0,0,0,0,0,0,0,0,-1,1532,1345,0,0
315,-321,0,0,0,0,0,0,0,0,0,-1,1539,1345,0,0
322,-321,0,0,0,0,0,0,0,0,0,-1,1546,1345,0,0
329,-321,0,0,0,0,0,0,0,0,0,-1,1553,1345,0,0
336,-321,0,0,0,0,0,0,0,0,0,-1,1560,1345,0,0
343,-321,0,0,0,0,0,0,0,0,0,-1,1567,1345,0,0
350,-321,0,0,0,0,0,0,0,0,0,-1,1574,1345,0,0
357,-321,0,0,0,0,0,0,0,0,0,-1,1581,1345,0,0
364,-321,0,0,0,0,0,0,0,0,0,-1,1588,1345,0,0
371,-321,0,0,0,0,0,0,0,0,0,-1,1595,1345,0,0
378,-321,0,0,0,0,0,0,0,0,0,-1,1602,1345,0,0
385,-321,0,0,0,0,0,0,0,0,0,-1,1609,1345,0,0
392,-321,0,0,0,0,0,0,0,0,0,-1,1616,1345,0,0
399,-321,0,0,0,0,0,0,0,0,0,-1,1623,1345,0,0
406,-321,0,0,0,0,0,0,0,0,0,-1,1630,1345,0,0
413,-321,0,0,0,0,0,0,0,0,0,-1,1637,1345,0,0
420,-321,0,0,0,0,0,0,0,0,0,-1,1644,1345,0,0
427,-321,0,0,0,0,0,0,0,0,0,-1,1651,1345,0,0
434,-321,0,0,0,0,0,0,0,0,0,-1,1658,1345,0,0
441,-321,0,0,0,0,0,0,0,0,0,-1,1665,1345,0,0
448,-321,0,0,0,0,0,0,0,0,0,-1,1672,1345,0,0
455,-321,0,0,0,0,0,0,0,0,0,-1,1679,1345,0,0
462,-321,0,0,0,0,0,0,0,0,0,-1,1686,1345,0,0
469,-321,0,0,0,0,0,0,0,0,0,-1,1693,1345,0,0
476,-321,0,0,0,0,0,0,0,0,0,-1,1700,1345,0,0
483,-321,0,0,0,0,0,0,0,0,0,-1,1707,1345,0,0
490,-321,0,0,0,0,0,0,0,0,0,-1,1714,1345,0,0
497,-321,0,0,0,0,0,0,0,0,0,-1,1721,1345,0,0
504,-321,0,0,0,0,0,0,0,0,0,-1,1728,1345,0,0
511,-321,0,0,0,0,0,0,0,0,0,-1,1735,1345,0,0
518,-321,0,0,0,0,0,0,0,0,0,-1,1742,1345,0,0
525,-321,0,0,0,0,0,0,0,0,0,-1,1749,1345,0,0
532,-321,0,0,0,0,0,0,0,0,0,-1,1756,1345,0,0
539,-321,0,0,0,0,0,0,0,0,0,-1,1763,1345,0,0
546,-321,0,0,0,0,0,0,0,0,0,-1,1770,1345,0,0
553,-321,0,0,0,0,0,0,0,0,0,-1,1777,1345,0,0
560,-321,0,0,0,0,0,0,0,0,0,-1,1784,1345,0,0
567,-321,0,0,0,0,0,0,0,0,0,-1,1791,1345,0,0
574,-321,0,0,0,0,0,0,0,0,0,-1,1798,1345,0,0
581,-321,59.2018,1.7915,0,0,0,0,0,0,0,-1,1805,1345,59.2017,-1.79155
588,-321,61.1644,1.78894,0,0,0,0,0,0,0,-1,1812,1345,61.1644,-1.78899
595,-321,60.7913,1.61035,0,0,0,0,0,0,0,-1,1819,1345,60.7913,-1.61039
602,-321,60.3523,1.24133,0,0,0,0,0,0,0,-1,1826,1345,60.3523,-1.2413
609,-321,48.311,3.39575,0,0,0,0,0,0,0,-1,1833,1345,48.311,-3.39571
616,-321,37.8107,2.58704,0,0,0,0,0,0,0,-1,1840,1345,37.8106,-2.58705
623,-321,37.6854,3.68933,0,0,0,0,0,0,0,-1,1847,1345,37.6854,-3.68931
630,-321,23.6674,4.34106,0,0,0,0,0,0,0,-1,1854,1345,23.6674,-4.34112
637,-321,21.7925,6.79224,0,0,0,0,0,0,0,-1,1861,1345,21.7925,-6.7922
644,-321,16.8844,6.71973,0,0,0,0,0,0,0,-1,1868,1345,16.8844,-6.71971
651,-321,27.4924,10.0319,0,0,0,0,0,0,0,-1,1875,1345,27.4924,-10.0319
658,-321,41.1571,15.8064,0,0,0,0,0,0,0,-1,1882,1345,41.1571,-15.8064
665,-321,41.2273,15.1648,0.00102792,-0.000287851,-0.000731844,0.00135411,-0.000614043,-0.419283,0.00116278,0.0259257,1889,1345,41.2274,-15.1647
672,-321,41.2604,14.4944,0.000553206,-0.000292291,-0.00048787,0.000776007,-0.000515092,-0.428395,0.000750473,0.0140081,1896,1345,41.2604,-14.4944
679,-321,41.222,13.8566,0.000551275,-0.00025834,-0.0003466,0.000679385,-0.00038645,-0.354044,0.000623059,0.0124355,1903,1345,41.2221,-13.8566
686,-321,41.1792,13.1958,0.000800621,-0.000231306,-0.000213908,0.000843205,-0.000273889,-0.196506,0.000672295,0.0135673,1910,1345,41.1792,-13.1958
693,-321,41.139,12.5455,0.000910959,-0.000262845,2.88162e-05,0.000911666,-0.000263552,0.0245297,0.000712076,0.0134672,1917,1345,41.139,-12.5455
700,-321,41.1351,11.8635,0.000881183,-0.00039652,0.00039627,0.000994104,-0.00050944,0.277601,0.000882977,0.013381,1924,1345,41.1351,-11.8635
707,-321,41.1482,11.2166,0.000686991,-0.000641841,0.00090993,0.00114926,-0.00110411,0.470049,0.00130107,0.0148528,1931,1345,41.1482,-11.2166
714,-321,41.108,10.5951,0.000245733,-0.00107025,0.00161145,0.00132835,-0.00215287,0.591568,0.00202858,0.0130674,1938,1345,41.1081,-10.5951
721,-321,41.0011,9.97363,-0.000439501,-0.00182095,0.00258453,0.00154501,-0.00380546,0.654823,0.00317966,0.0405992,1945,1345,41.0012,-9.97362
728,-321,41.0017,9.41809,0,0,0,0,0,0,0,-1,1952,1345,41.0017,-9.41806
735,-321,22.0081,5.65479,0,0,0,0,0,0,0,-1,1959,1345,22.008,-5.65481
742,-321,24.5398,5.05725,0,0,0,0,0,0,0,-1,1966,1345,24.5398,-5.05729
749,-321,24.0675,5.4458,0,0,0,0,0,0,0,-1,1973,1345,24.0675,-5.44581
756,-321,19.6251,4.98315,0,0,0,0,0,0,0,-1,1980,1345,19.6251,-4.98311
763,-321,19.6747,4.61438,0,0,0,0,0,0,0,-1,1987,1345,19.6747,-4.61436
770,-321,0,0,0,0,0,0,0,0,0,-1,1994,1345,0,0
777,-321,0,0,0,0,0,0,0,0,0,-1,2001,1345,0,0
784,-321,0,0,0,0,0,0,0,0,0,-1,2008,1345,0,0
791,-321,0,0,0,0,0,0,0,0,0,-1,2015,1345,0,0
798,-321,0,0,0,0,0,0,0,0,0,-1,2022,1345,0,0
805,-321,0,0,0,0,0,0,0,0,0,-1,2029,1345,0,0
812,-321,0,0,0,0,0,0,0,0,0,-1,2036,1345,0,0
-700,-328,0,0,0,0,0,0,0,0,0,-1,524,1352,0,0
-693,-328,0,0,0,0,0,0,0,0,0,-1,531,1352,0,0
-686,-328,0,0,0,0,0,0,0,0,0,-1,538,1352,0,0
-679,-328,0,0,0,0,0,0,0,0,0,-1,545,1352,0,0
-672,-328,0,0,0,0,0,0,0,0,0,-1,552,1352,0,0
-665,-328,0,0,0,0,0,0,0,0,0,-1,559,1352,0,0
-658,-328,0,0,0,0,0,0,0,0,0,-1,566,1352,0,0
-651,-328,0,0,0,0,0,0,0,0,0,-1,573,1352,0,0
-644,-328,0,0,0,0,0,0,0,0,0,-1,580,1352,0,0
-637,-328,-61.3883,10.1125,0,0,0,0,0,0,0,-1,587,1352,-61.3883,-10.1126
-630,-328,-62.8012,9.14563,0,0,0,0,0,0,0,-1,594,1352,-62.8012,-9.14564
-623,-328,-10.7739,4.55042,0,0,0,0,0,0,0,-1,601,1352,-10.7739,-4.55041
-616,-328,-8.22198,-0.25708,0,0,0,0,0,0,0,-1,608,1352,-8.22201,0.257067
-609,-328,-7.87439,0.192871,0,0,0,0,0,0,0,-1,615,1352,-7.87441,-0.192822
-602,-328,-7.63062,1.31665,0,0,0,0,0,0,0,-1,622,1352,-7.63064,-1.3166
-595,-328,-9.42639,2.93494,0,0,0,0,0,0,0,-1,629,1352,-9.42638,-2.93499
-588,-328,-23.7508,7.90833,0,0,0,0,0,0,0,-1,636,1352,-23.7508,-7.90836
-581,-328,-23.6351,8.79102,0.00499918,0.0040149,0.00256721,0.00712099,0.00189309,0.690697,0.00425893,0.0285049,643,1352,-23.6351,-8.79101
-574,-328,-23.6229,9.52856,0.00393644,0.0029481,0.00193848,0.00544275,0.00144179,0.660593,0.0032561,0.0141915,650,1352,-23.6229,-9.52857
-567,-328,-23.6788,10.2362,0.00336254,0.00207161,0.00153745,0.00438452,0.00104962,0.586657,0.00264354,0.0209033,657,1352,-23.6788,-10.2362
-560,-328,-23.7344,11.0024,0.00315154,0.00135609,0.00133211,0.00386018,0.000647444,0.488897,0.00238709,0.0292922,664,1352,-23.7344,-11.0025
-553,-328,-23.7227,11.6826,0.00317169,0.000731449,0.00124612,0.00369556,0.00020758,0.397969,0.00239751,0.0293209,671,1352,-23.7227,-11.6826
-546,-328,-23.6929,12.3575,0.00349526,0.000233934,0.00132937,0.00396847,-0.00023928,0.341981,0.00272891,0.0271699,678,1352,-23.6928,-12.3575
-539,-328,-23.7555,12.9921,0.00405374,-0.000171551,0.00153798,0.00455427,-0.000672076,0.314632,0.00328321,0.0236644,685,1352,-23.7555,-12.9921
-532,-328,-23.7884,13.6692,0.00489572,-0.000491231,0.00188398,0.00548922,-0.00108473,0.305182,0.00406953,0.019401,692,1352,-23.7884,-13.6692
-525,-328,-23.806,14.4242,0.00598173,-0.000684267,0.00237781,0.00674298,-0.00144552,0.309837,0.00504664,0.0340146,699,1352,-23.806,-14.4242
-518,-328,-23.8964,15.181,0,0,0,0,0,0,0,-1,706,1352,-23.8964,-15.181
-511,-328,-9.39868,7.16113,0,0,0,0,0,0,0,-1,713,1352,-9.39869,-7.16113
-504,-328,-8.60626,-0.905762,0,0,0,0,0,0,0,-1,720,1352,-8.60623,0.905787
-497,-328,-9.29102,-0.0517578,0,0,0,0,0,0,0,-1,727,1352,-9.29104,0.0518175
-490,-328,-10.0663,0.882813,0,0,0,0,0,0,0,-1,734,1352,-10.0663,-0.882795
-483,-328,-10.8181,1.72375,0,0,0,0,0,0,0,-1,741,1352,-10.8181,-1.72374
-476,-328,-16.8951,-0.150757,0,0,0,0,0,0,0,-1,748,1352,-16.8951,0.150795
-469,-328,-16.8412,0.00158691,0,0,0,0,0,0,0,-1,755,1352,-16.8412,-0.00161515
-462,-328,-16.3546,-0.203491,0,0,0,0,0,0,0,-1,762,1352,-16.3545,0.203532
-455,-328,0,0,0,0,0,0,0,0,0,-1,769,1352,0,0
-448,-328,0,0,0,0,0,0,0,0,0,-1,776,1352,0,0
-441,-328,0,0,0,0,0,0,0,0,0,-1,783,1352,0,0
-434,-328,0,0,0,0,0,0,0,0,0,-1,790,1352,0,0
-427,-328,0,0,0,0,0,0,0,0,0,-1,797,1352,0,0
-420,-328,0,0,0,0,0,0,0,0,0,-1,804,1352,0,0
-413,-328,0,0,0,0,0,0,0,0,0,-1,811,1352,0,0
-406,-328,0,0,0,0,0,0,0,0,0,-1,818,1352,0,0
-399,-328,0,0,0,0,0,0,0,0,0,-1,825,1352,0,0
-392,-328,0,0,0,0,0,0,0,0,0,-1,832,1352,0,0
-385,-328,0,0,0,0,0,0,0,0,0,-1,839,1352,0,0
-378,-328,0,0,0,0,0,0,0,0,0,-1,846,1352,0,0
-371,-328,0,0,0,0,0,0,0,0,0,-1,853,1352,0,0
-364,-328,0,0,0,0,0,0,0,0,0,-1,860,1352,0,0
-357,-328,0,0,0,0,0,0,0,0,0,-1,867,1352,0,0
-350,-328,0,0,0,0,0,0,0,0,0,-1,874,1352,0,0
-343,-328,0,0,0,0,0,0,0,0,0,-1,881,1352,0,0
-336,-328,0,0,0,0,0,0,0,0,0,-1,888,1352,0,0
-329,-328,0,0,0,0,0,0,0,0,0,-1,895,1352,0,0
-322,-328,0,0,0,0,0,0,0,0,0,-1,902,1352,0,0
-315,-328,0,0,0,0,0,0,0,0,0,-1,909,1352,0,0
-308,-328,0,0,0,0,0,0,0,0,0,-1,916,1352,0,0
-301,-328,0,0,0,0,0,0,0,0,0,-1,923,1352,0,0
-294,-328,0,0,0,0,0,0,0,0,0,-1,930,1352,0,0
-287,-328,0,0,0,0,0,0,0,0,0,-1,937,1352,0,0
-280,-328,0,0,0,0,0,0,0,0,0,-1,944,1352,0,0
-273,-328,0,0,0,0,0,0,0,0,0,-1,951,1352,0,0
-266,-328,0,0,0,0,0,0,0,0,0,-1,958,1352,0,0
-259,-328,0,0,0,0,0,0,0,0,0,-1,965,1352,0,0
-252,-328,0,0,0,0,0,0,0,0,0,-1,972,1352,0,0
-245,-328,0,0,0,0,0,0,0,0,0,-1,979,1352,0,0
-238,-328,0,0,0,0,0,0,0,0,0,-1,986,1352,0,0
-231,-328,0,0,0,0,0,0,0,0,0,-1,993,1352,0,0
-224,-328,0,0,0,0,0,0,0,0,0,-1,1000,1352,0,0
-217,-328,0,0,0,0,0,0,0,0,0,-1,1007,1352,0,0
-210,-328,0,0,0,0,0,0,0,0,0,-1,1014,1352,0,0
-203,-328,0,0,0,0,0,0,0,0,0,-1,1021,1352,0,0
-196,-328,0,0,0,0,0,0,0,0,0,-1,1028,1352,0,0
-189,-328,0,0,0,0,0,0,0,0,0,-1,1035,1352,0,0
-182,-328,0,0,0,0,0,0,0,0,0,-1,1042,1352,0,0
-175,-328,0,0,0,0,0,0,0,0,0,-1,1049,1352,0,0
-168,-328,0,0,0,0,0,0,0,0,0,-1,1056,1352,0,0
-161,-328,0,0,0,0,0,0,0,0,0,-1,1063,1352,0,0
-154,-328,0,0,0,0,0,0,0,0,0,-1,1070,1352,0,0
-147,-328,0,0,0,0,0,0,0,0,0,-1,1077,1352,0,0
-140,-328,0,0,0,0,0,0,0,0,0,-1,1084,1352,0,0
-133,-328,0,0,0,0,0,0,0,0,0,-1,1091,1352,0,0
-126,-328,0,0,0,0,0,0,0,0,0,-1,1098,1352,0,0
-119,-328,0,0,0,0,0,0,0,0,0,-1,1105,1352,0,0
-112,-328,0,0,0,0,0,0,0,0,0,-1,1112,1352,0,0
-105,-328,0,0,0,0,0,0,0,0,0,-1,1119,1352,0,0
-98,-328,0,0,0,0,0,0,0,0,0,-1,1126,1352,0,0
-91,-328,0,0,0,0,0,0,0,0,0,-1,1133,1352,0,0
-84,-328,0,0,0,0,0,0,0,0,0,-1,1140,1352,0,0
-77,-328,0,0,0,0,0,0,0,0,0,-1,1147,1352,0,0
-70,-328,0,0,0,0,0,0,0,0,0,-1,1154,1352,0,0
-63,-328,0,0,0,0,0,0,0,0,0,-1,1161,1352,0,0
-56,-328,0,0,0,0,0,0,0,0,0,-1,1168,1352,0,0
-49,-328,0,0,0,0,0,0,0,0,0,-1,1175,1352,0,0
-42,-328,0,0,0,0,0,0,0,0,0,-1,1182,1352,0,0
-35,-328,0,0,0,0,0,0,0,0,0,-1,1189,1352,0,0
-28,-328,0,0,0,0,0,0,0,0,0,-1,1196,1352,0,0
-21,-328,0,0,0,0,0,0,0,0,0,-1,1203,1352,0,0
-14,-328,0,0,0,0,0,0,0,0,0,-1,1210,1352,0,0
-7,-328,0,0,0,0,0,0,0,0,0,-1,1217,1352,0,0
0,-328,0,0,0,0,0,0,0,0,0,-1,1224,1352,0,0
7,-328,0,0,0,0,0,0,0,0,0,-1,1231,1352,0,0
14,-328,0,0,0,0,0,0,0,0,0,-1,1238,1352,0,0
21,-328,0,0,0,0,0,0,0,0,0,-1,1245,1352,0,0
28,-328,0,0,0,0,0,0,0,0,0,-1,1252,1352,0,0
35,-328,0,0,0,0,0,0,0,0,0,-1,1259,1352,0,0
42,-328,0,0,0,0,0,0,0,0,0,-1,1266,1352,0,0
49,-328,0,0,0,0,0,0,0,0,0,-1,1273,1352,0,0
56,-328,0,0,0,0,0,0,0,0,0,-1,1280,1352,0,0
63,-328,0,0,0,0,0,0,0,0,0,-1,1287,1352,0,0
70,-328,0,0,0,0,0,0,0,0,0,-1,1294,1352,0,0
77,-328,0,0,0,0,0,0,0,0,0,-1,1301,1352,0,0
84,-328,0,0,0,0,0,0,0,0,0,-1,1308,1352,0,0
91,-328,0,0,0,0,0,0,0,0,0,-1,1315,1352,0,0
98,-328,0,0,0,0,0,0,0,0,0,-1,1322,1352,0,0
105,-328,0,0,0,0,0,0,0,0,0,-1,1329,1352,0,0
112,-328,0,0,0,0,0,0,0,0,0,-1,1336,1352,0,0
119,-328,0,0,0,0,0,0,0,0,0,-1,1343,1352,0,0
126,-328,0,0,0,0,0,0,0,0,0,-1,1350,1352,0,0
133,-328,0,0,0,0,0,0,0,0,0,-1,1357,1352,0,0
140,-328,0,0,0,0,0,0,0,0,0,-1,1364,1352,0,0
147,-328,0,0,0,0,0,0,0,0,0,-1,1371,1352,0,0
154,-328,0,0,0,0,0,0,0,0,0,-1,1378,1352,0,0
161,-328,0,0,0,0,0,0,0,0,0,-1,1385,1352,0,0
168,-328,0,0,0,0,0,0,0,0,0,-1,1392,1352,0,0
175,-328,0,0,0,0,0,0,0,0,0,-1,1399,1352,0,0
182,-328,0,0,0,0,0,0,0,0,0,-1,1406,1352,0,0
189,-328,0,0,0,0,0,0,0,0,0,-1,1413,1352,0,0
196,-328,0,0,0,0,0,0,0,0,0,-1,1420,1352,0,0
203,-328,0,0,0,0,0,0,0,0,0,-1,1427,1352,0,0
210,-328,0,0,0,0,0,0,0,0,0,-1,1434,1352,0,0
217,-328,0,0,0,0,0,0,0,0,0,-1,1441,1352,0,0
224,-328,0,0,0,0,0,0,0,0,0,-1,1448,1352,0,0
231,-328,0,0,0,0,0,0,0,0,0,-1,1455,1352,0,0
238,-328,0,0,0,0,0,0,0,0,0,-1,1462,1352,0,0
245,-328,0,0,0,0,0,0,0,0,0,-1,1469,1352,0,0
252,-328,0,0,0,0,0,0,0,0,0,-1,1476,1352,0,0
259,-328,0,0,0,0,0,0,0,0,0,-1,1483,1352,0,0
266,-328,0,0,0,0,0,0,0,0,0,-1,1490,1352,0,0
273,-328,0,0,0,0,0,0,0,0,0,-1,1497,1352,0,0
280,-328,0,0,0,0,0,0,0,0,0,-1,1504,1352,0,0
287,-328,0,0,0,0,0,0,0,0,0,-1,1511,1352,0,0
294,-328,0,0,0,0,0,0,0,0,0,-1,1518,1352,0,0
301,-328,0,0,0,0,0,0,0,0,0,-1,1525,1352,0,0
308,-328,0,0,0,0,0,0,0,0,0,-1,1532,1352,0,0
315,-328,0,0,0,0,0,0,0,0,0,-1,1539,1352,0,0
322,-328,0,0,0,0,0,0,0,0,0,-1,1546,1352,0,0
329,-328,0,0,0,0,0,0,0,0,0,-1,1553,1352,0,0
336,-328,0,0,0,0,0,0,0,0,0,-1,1560,1352,0,0
343,-328,0,0,0,0,0,0,0,0,0,-1,1567,1352,0,0
350,-328,0,0,0,0,0,0,0,0,0,-1,1574,1352,0,0
357,-328,0,0,0,0,0,0,0,0,0,-1,1581,1352,0,0
364,-328,0,0,0,0,0,0,0,0,0,-1,1588,1352,0,0
371,-328,0,0,0,0,0,0,0,0,0,-1,1595,1352,0,0
378,-328,0,0,0,0,0,0,0,0,0,-1,1602,1352,0,0
385,-328,0,0,0,0,0,0,0,0,0,-1,1609,1352,0,0
392,-328,0,0,0,0,0,0,0,0,0,-1,1616,1352,0,0
399,-328,0,0,0,0,0,0,0,0,0,-1,1623,1352,0,0
406,-328,0,0,0,0,0,0,0,0,0,-1,1630,1352,0,0
413,-328,0,0,0,0,0,0,0,0,0,-1,1637,1352,0,0
420,-328,0,0,0,0,0,0,0,0,0,-1,1644,1352,0,0
427,-328,0,0,0,0,0,0,0,0,0,-1,1651,1352,0,0
434,-328,0,0,0,0,0,0,0,0,0,-1,1658,1352,0,0
441,-328,0,0,0,0,0,0,0,0,0,-1,1665,1352,0,0
448,-328,0,0,0,0,0,0,0,0,0,-1,1672,1352,0,0
455,-328,0,0,0,0,0,0,0,0,0,-1,1679,1352,0,0
462,-328,0,0,0,0,0,0,0,0,0,-1,1686,1352,0,0
469,-328,0,0,0,0,0,0,0,0,0,-1,1693,1352,0,0
476,-328,0,0,0,0,0,0,0,0,0,-1,1700,1352,0,0
483,-328,0,0,0,0,0,0,0,0,0,-1,1707,1352,0,0
490,-328,0,0,0,0,0,0,0,0,0,-1,1714,1352,0,0
497,-328,0,0,0,0,0,0,0,0,0,-1,1721,1352,0,0
504,-328,0,0,0,0,0,0,0,0,0,-1,1728,1352,0,0
511,-328,0,0,0,0,0,0,0,0,0,-1,1735,1352,0,0
518,-328,0,0,0,0,0,0,0,0,0,-1,1742,1352,0,0
525,-328,0,0,0,0,0,0,0,0,0,-1,1749,1352,0,0
532,-328,0,0,0,0,0,0,0,0,0,-1,1756,1352,0,0
539,-328,0,0,0,0,0,0,0,0,0,-1,1763,1352,0,0
546,-328,0,0,0,0,0,0,0,0,0,-1,1770,1352,0,0
553,-328,0,0,0,0,0,0,0,0,0,-1,1777,1352,0,0
560,-328,0,0,0,0,0,0,0,0,0,-1,1784,1352,0,0
567,-328,0,0,0,0,0,0,0,0,0,-1,1791,1352,0,0
574,-328,58.4558,1.34363,0,0,0,0,0,0,0,-1,1798,1352,58.4558,-1.34364
581,-328,58.6575,1.03662,0,0,0,0,0,0,0,-1,1805,1352,58.6575,-1.03663
588,-328,58.8262,0.918213,0,0,0,0,0,0,0,-1,1812,1352,58.8262,-0.918189
595,-328,60.5831,1.52856,0,0,0,0,0,0,0,-1,1819,1352,60.5832,-1.52861
602,-328,48.7734,3.66785,0,0,0,0,0,0,0,-1,1826,1352,48.7734,-3.66782
609,-328,37.0468,1.17407,0,0,0,0,0,0,0,-1,1833,1352,37.0468,-1.17407
616,-328,36.999,2.42859,0,0,0,0,0,0,0,-1,1840,1352,36.999,-2.42862
623,-328,34.345,5.14722,0,0,0,0,0,0,0,-1,1847,1352,34.3449,-5.14718
630,-328,22.0211,5.026,0,0,0,0,0,0,0,-1,1854,1352,22.0212,-5.02603
637,-328,21.15,5.53699,0,0,0,0,0,0,0,-1,1861,1352,21.15,-5.53704
644,-328,16.9579,6.3396,0,0,0,0,0,0,0,-1,1868,1352,16.9579,-6.33959
651,-328,36.2629,14.6906,0,0,0,0,0,0,0,-1,1875,1352,36.263,-14.6905
658,-328,40.618,15.8354,0,0,0,0,0,0,0,-1,1882,1352,40.6181,-15.8355
665,-328,40.6361,15.1896,-0.000157207,-0.000216956,-0.000323432,0.000137728,-0.00051189,-0.739346,0.000395251,0.0142092,1889,1352,40.6362,-15.1896
672,-328,40.5941,14.5494,0.000112453,-0.000176359,-0.000264565,0.000269457,-0.000333362,-0.535582,0.000348689,0.0120349,1896,1352,40.5941,-14.5495
679,-328,40.5669,13.8846,0.000501552,-0.000115493,-0.000256627,0.000594331,-0.000208273,-0.346914,0.000480921,0.0147538,1903,1352,40.5669,-13.8847
686,-328,40.5358,13.2126,0.000904129,-8.88628e-05,-0.000204253,0.000944501,-0.000129235,-0.195143,0.000676871,0.0151295,1910,1352,40.5357,-13.2126
693,-328,40.5186,12.5624,0.00121017,-7.61919e-05,-7.36681e-05,0.00121438,-8.03969e-05,-0.0570201,0.000837669,0.0106467,1917,1352,40.5185,-12.5624
700,-328,40.4941,11.8962,0.00140541,-0.000126632,0.00017741,0.00142569,-0.000146908,0.113793,0.00100302,0.0149859,1924,1352,40.4941,-11.8962
707,-328,40.5018,11.2532,0.0014113,-0.000283366,0.00059423,0.0015989,-0.000470964,0.305797,0.00125279,0.0164721,1931,1352,40.5019,-11.2532
714,-328,40.4784,10.6263,0.0011899,-0.000588003,0.00120783,0.00180064,-0.00119875,0.46816,0.00174328,0.0163302,1938,1352,40.4784,-10.6263
721,-328,40.4232,10.0288,0,0,0,0,0,0,0,-1,1945,1352,40.4232,-10.0288
728,-328,29.2787,6.74695,0,0,0,0,0,0,0,-1,1952,1352,29.2787,-6.74693
735,-328,20.8927,5.23523,0,0,0,0,0,0,0,-1,1959,1352,20.8927,-5.23528
742,-328,20.3547,4.11316,0,0,0,0,0,0,0,-1,1966,1352,20.3547,-4.11321
749,-328,20.0669,5.66321,0,0,0,0,0,0,0,-1,1973,1352,20.0669,-5.66319
756,-328,19.9543,5.50464,0,0,0,0,0,0,0,-1,1980,1352,19.9543,-5.50463
763,-328,0,0,0,0,0,0,0,0,0,-1,1987,1352,0,0
770,-328,0,0,0,0,0,0,0,0,0,-1,1994,1352,0,0
777,-328,0,0,0,0,0,0,0,0,0,-1,2001,1352,0,0
784,-328,0,0,0,0,0,0,0,0,0,-1,2008,1352,0,0
791,-328,0,0,0,0,0,0,0,0,0,-1,2015,1352,0,0
798,-328,0,0,0,0,0,0,0,0,0,-1,2022,1352,0,0
805,-328,0,0,0,0,0,0,0,0,0,-1,2029,1352,0,0
812,-328,0,0,0,0,0,0,0,0,0,-1,2036,1352,0,0
-700,-335,0,0,0,0,0,0,0,0,0,-1,524,1359,0,0
-693,-335,0,0,0,0,0,0,0,0,0,-1,531,1359,0,0
-686,-335,0,0,0,0,0,0,0,0,0,-1,538,1359,0,0
-679,-335,0,0,0,0,0,0,0,0,0,-1,545,1359,0,0
-672,-335,0,0,0,0,0,0,0,0,0,-1,552,1359,0,0
-665,-335,0,0,0,0,0,0,0,0,0,-1,559,1359,0,0
-658,-335,0,0,0,0,0,0,0,0,0,-1,566,1359,0,0
-651,-335,0,0,0,0,0,0,0,0,0,-1,573,1359,0,0
-644,-335,0,0,0,0,0,0,0,0,0,-1,580,1359,0,0
-637,-335,-62.7114,11.0491,0,0,0,0,0,0,0,-1,587,1359,-62.7114,-11.0491
-630,-335,-64.2532,9.91284,0,0,0,0,0,0,0,-1,594,1359,-64.2532,-9.91285
-623,-335,-8.43304,1.09509,0,0,0,0,0,0,0,-1,601,1359,-8.43301,-1.09507
-616,-335,-7.80927,-0.485352,0,0,0,0,0,0,0,-1,608,1359,-7.80926,0.485291
-609,-335,-7.12256,-2.03601,0,0,0,0,0,0,0,-1,615,1359,-7.12253,2.03601
-602,-335,-9.39935,2.25146,0,0,0,0,0,0,0,-1,622,1359,-9.39935,-2.25145
-595,-335,-9.54767,3.01917,0,0,0,0,0,0,0,-1,629,1359,-9.54768,-3.01911
-588,-335,-22.7917,7.78638,0,0,0,0,0,0,0,-1,636,1359,-22.7917,-7.78634
-581,-335,-22.9433,8.82422,0,0,0,0,0,0,0,-1,643,1359,-22.9433,-8.82421
-574,-335,-22.9515,9.54175,0.00384786,0.00322701,0.00206622,0.00562684,0.00144803,0.710837,0.00337377,0.0127526,650,1359,-22.9516,-9.54173
-567,-335,-22.9495,10.2709,0.00335636,0.00234036,0.00168123,0.00460466,0.00109206,0.638679,0.00277825,0.0167551,657,1359,-22.9495,-10.2708
-560,-335,-22.9538,10.9336,0.00315845,0.00161907,0.00145529,0.00403506,0.000742458,0.542152,0.00247988,0.0266755,664,1359,-22.9538,-10.9335
-553,-335,-23.0295,11.6429,0.00315651,0.00100502,0.00134337,0.00380177,0.000359754,0.44779,0.00242351,0.0293362,671,1359,-23.0295,-11.6429
-546,-335,-23.0657,12.3839,0.00334408,0.000493366,0.00133593,0.00387227,-3.4827e-05,0.376512,0.0025932,0.0246985,678,1359,-23.0658,-12.3839
-539,-335,-23.0836,13.0386,0.00370898,8.34499e-05,0.00144184,0.00421247,-0.000420037,0.335959,0.00295828,0.0198757,685,1359,-23.0836,-13.0385
-532,-335,-23.1249,13.7419,0.00429323,-0.000223286,0.00167156,0.00484457,-0.000774629,0.3186,0.00351648,0.0151659,692,1359,-23.125,-13.742
-525,-335,-23.0945,14.4722,0.00507577,-0.000393178,0.00203569,0.00575032,-0.00106772,0.319971,0.00423456,0.0128391,699,1359,-23.0945,-14.4721
-518,-335,-23.1968,15.1147,0,0,0,0,0,0,0,-1,706,1359,-23.1968,-15.1148
-511,-335,-17.3098,11.6718,0,0,0,0,0,0,0,-1,713,1359,-17.3097,-11.6717
-504,-335,-9.35767,5.99695,0,0,0,0,0,0,0,-1,720,1359,-9.35767,-5.99694
-497,-335,-8.75024,-0.650513,0,0,0,0,0,0,0,-1,727,1359,-8.75024,0.650521
-490,-335,-9.51971,0.417603,0,0,0,0,0,0,0,-1,734,1359,-9.51974,-0.41765
-483,-335,-10.2883,1.29224,0,0,0,0,0,0,0,-1,741,1359,-10.2883,-1.2922
-476,-335,-11.9938,-0.173462,0,0,0,0,0,0,0,-1,748,1359,-11.9938,0.173429
-469,-335,-12.8704,-0.204102,0,0,0,0,0,0,0,-1,755,1359,-12.8704,0.204117
-462,-335,-13.486,0.0218506,0,0,0,0,0,0,0,-1,762,1359,-13.4859,-0.0217908
-455,-335,-14.1504,0.549561,0,0,0,0,0,0,0,-1,769,1359,-14.1504,-0.549583
-448,-335,0,0,0,0,0,0,0,0,0,-1,776,1359,0,0
-441,-335,0,0,0,0,0,0,0,0,0,-1,783,1359,0,0
-434,-335,0,0,0,0,0,0,0,0,0,-1,790,1359,0,0
-427,-335,0,0,0,0,0,0,0,0,0,-1,797,1359,0,0
-420,-335,0,0,0,0,0,0,0,0,0,-1,804,1359,0,0
-413,-335,0,0,0,0,0,0,0,0,0,-1,811,1359,0,0
-406,-335,0,0,0,0,0,0,0,0,0,-1,818,1359,0,0
-399,-335,0,0,0,0,0,0,0,0,0,-1,825,1359,0,0
-392,-335,0,0,0,0,0,0,0,0,0,-1,832,1359,0,0
-385,-335,0,0,0,0,0,0,0,0,0,-1,839,1359,0,0
-378,-335,0,0,0,0,0,0,0,0,0,-1,846,1359,0,0
-371,-335,0,0,0,0,0,0,0,0,0,-1,853,1359,0,0
-364,-335,0,0,0,0,0,0,0,0,0,-1,860,1359,0,0
-357,-335,0,0,0,0,0,0,0,0,0,-1,867,1359,0,0
-350,-335,0,0,0,0,0,0,0,0,0,-1,874,1359,0,0
-343,-335,0,0,0,0,0,0,0,0,0,-1,881,1359,0,0
-336,-335,0,0,0,0,0,0,0,0,0,-1,888,1359,0,0
-329,-335,0,0,0,0,0,0,0,0,0,-1,895,1359,0,0
-322,-335,0,0,0,0,0,0,0,0,0,-1,902,1359,0,0
-315,-335,0,0,0,0,0,0,0,0,0,-1,909,1359,0,0
-308,-335,0,0,0,0,0,0,0,0,0,-1,916,1359,0,0
-301,-335,0,0,0,0,0,0,0,0,0,-1,923,1359,0,0
-294,-335,0,0,0,0,0,0,0,0,0,-1,930,1359,0,0
-287,-335,0,0,0,0,0,0,0,0,0,-1,937,1359,0,0
-280,-335,0,0,0,0,0,0,0,0,0,-1,944,1359,0,0
-273,-335,0,0,0,0,0,0,0,0,0,-1,951,1359,0,0
-266,-335,0,0,0,0,0,0,0,0,0,-1,958,1359,0,0
-259,-335,0,0,0,0,0,0,0,0,0,-1,965,1359,0,0
-252,-335,0,0,0,0,0,0,0,0,0,-1,972,1359,0,0
-245,-335,0,0,0,0,0,0,0,0,0,-1,979,1359,0,0
-238,-335,0,0,0,0,0,0,0,0,0,-1,986,1359,0,0
-231,-335,0,0,0,0,0,0,0,0,0,-1,993,1359,0,0
-224,-335,0,0,0,0,0,0,0,0,0,-1,1000,1359,0,0
-217,-335,0,0,0,0,0,0,0,0,0,-1,1007,1359,0,0
-210,-335,0,0,0,0,0,0,0,0,0,-1,1014,1359,0,0
-203,-335,0,0,0,0,0,0,0,0,0,-1,1021,1359,0,0
-196,-335,0,0,0,0,0,0,0,0,0,-1,1028,1359,0,0
-189,-335,0,0,0,0,0,0,0,0,0,-1,1035,1359,0,0
-182,-335,0,0,0,0,0,0,0,0,0,-1,1042,1359,0,0
-175,-335,0,0,0,0,0,0,0,0,0,-1,1049,1359,0,0
-168,-335,0,0,0,0,0,0,0,0,0,-1,1056,1359,0,0
-161,-335,0,0,0,0,0,0,0,0,0,-1,1063,1359,0,0
-154,-335,0,0,0,0,0,0,0,0,0,-1,1070,1359,0,0
-147,-335,0,0,0,0,0,0,0,0,0,-1,1077,1359,0,0
-140,-335,0,0,0,0,0,0,0,0,0,-1,1084,1359,0,0
-133,-335,0,0,0,0,0,0,0,0,0,-1,1091,1359,0,0
-126,-335,0,0,0,0,0,0,0,0,0,-1,1098,1359,0,0
-119,-335,0,0,0,0,0,0,0,0,0,-1,1105,1359,0,0
-112,-335,0,0,0,0,0,0,0,0,0,-1,1112,1359,0,0
-105,-335,0,0,0,0,0,0,0,0,0,-1,1119,1359,0,0
-98,-335,0,0,0,0,0,0,0,0,0,-1,1126,1359,0,0
-91,-335,0,0,0,0,0,0,0,0,0,-1,1133,1359,0,0
-84,-335,0,0,0,0,0,0,0,0,0,-1,1140,1359,0,0
-77,-335,0,0,0,0,0,0,0,0,0,-1,1147,1359,0,0
-70,-335,0,0,0,0,0,0,0,0,0,-1,1154,1359,0,0
-63,-335,0,0,0,0,0,0,0,0,0,-1,1161,1359,0,0
-56,-335,0,0,0,0,0,0,0,0,0,-1,1168,1359,0,0
-49,-335,0,0,0,0,0,0,0,0,0,-1,1175,1359,0,0
-42,-335,0,0,0,0,0,0,0,0,0,-1,1182,1359,0,0
-35,-335,0,0,0,0,0,0,0,0,0,-1,1189,1359,0,0
-28,-335,0,0,0,0,0,0,0,0,0,-1,1196,1359,0,0
-21,-335,0,0,0,0,0,0,0,0,0,-1,1203,1359,0,0
-14,-335,0,0,0,0,0,0,0,0,0,-1,1210,1359,0,0
-7,-335,0,0,0,0,0,0,0,0,0,-1,1217,1359,0,0
0,-335,0,0,0,0,0,0,0,0,0,-1,1224,1359,0,0
7,-335,0,0,0,0,0,0,0,0,0,-1,1231,1359,0,0
14,-335,0,0,0,0,0,0,0,0,0,-1,1238,1359,0,0
21,-335,0,0,0,0,0,0,0,0,0,-1,1245,1359,0,0
28,-335,0,0,0,0,0,0,0,0,0,-1,1252,1359,0,0
35,-335,0,0,0,0,0,0,0,0,0,-1,1259,1359,0,0
42,-335,0,0,0,0,0,0,0,0,0,-1,1266,1359,0,0
49,-335,0,0,0,0,0,0,0,0,0,-1,1273,1359,0,0
56,-335,0,0,0,0,0,0,0,0,0,-1,1280,1359,0,0
63,-335,0,0,0,0,0,0,0,0,0,-1,1287,1359,0,0
70,-335,0,0,0,0,0,0,0,0,0,-1,1294,1359,0,0
77,-335,0,0,0,0,0,0,0,0,0,-1,1301,1359,0,0
84,-335,0,0,0,0,0,0,0,0,0,-1,1308,1359,0,0
91,-335,0,0,0,0,0,0,0,0,0,-1,1315,1359,0,0
98,-335,0,0,0,0,0,0,0,0,0,-1,1322,1359,0,0
105,-335,0,0,0,0,0,0,0,0,0,-1,1329,1359,0,0
112,-335,0,0,0,0,0,0,0,0,0,-1,1336,1359,0,0
119,-335,0,0,0,0,0,0,0,0,0,-1,1343,1359,0,0
126,-335,0,0,0,0,0,0,0,0,0,-1,1350,1359,0,0
133,-335,0,0,0,0,0,0,0,0,0,-1,1357,1359,0,0
140,-335,0,0,0,0,0,0,0,0,0,-1,1364,1359,0,0
147,-335,0,0,0,0,0,0,0,0,0,-1,1371,1359,0,0
154,-335,0,0,0,0,0,0,0,0,0,-1,1378,1359,0,0
161,-335,0,0,0,0,0,0,0,0,0,-1,1385,1359,0,0
168,-335,0,0,0,0,0,0,0,0,0,-1,1392,1359,0,0
175,-335,0,0,0,0,0,0,0,0,0,-1,1399,1359,0,0
182,-335,0,0,0,0,0,0,0,0,0,-1,1406,1359,0,0
189,-335,0,0,0,0,0,0,0,0,0,-1,1413,1359,0,0
196,-335,0,0,0,0,0,0,0,0,0,-1,1420,1359,0,0
203,-335,0,0,0,0,0,0,0,0,0,-1,1427,1359,0,0
210,-335,0,0,0,0,0,0,0,0,0,-1,1434,1359,0,0
217,-335,0,0,0,0,0,0,0,0,0,-1,1441,1359,0,0
224,-335,0,0,0,0,0,0,0,0,0,-1,1448,1359,0,0
231,-335,0,0,0,0,0,0,0,0,0,-1,1455,1359,0,0
238,-335,0,0,0,0,0,0,0,0,0,-1,1462,1359,0,0
245,-335,0,0,0,0,0,0,0,0,0,-1,1469,1359,0,0
252,-335,0,0,0,0,0,0,0,0,0,-1,1476,1359,0,0
259,-335,0,0,0,0,0,0,0,0,0,-1,1483,1359,0,0
266,-335,0,0,0,0,0,0,0,0,0,-1,1490,1359,0,0
273,-335,0,0,0,0,0,0,0,0,0,-1,1497,1359,0,0
280,-335,0,0,0,0,0,0,0,0,0,-1,1504,1359,0,0
287,-335,0,0,0,0,0,0,0,0,0,-1,1511,1359,0,0
294,-335,0,0,0,0,0,0,0,0,0,-1,1518,1359,0,0
301,-335,0,0,0,0,0,0,0,0,0,-1,1525,1359,0,0
308,-335,0,0,0,0,0,0,0,0,0,-1,1532,1359,0,0
315,-335,0,0,0,0,0,0,0,0,0,-1,1539,1359,0,0
322,-335,0,0,0,0,0,0,0,0,0,-1,1546,1359,0,0
329,-335,0,0,0,0,0,0,0,0,0,-1,1553,1359,0,0
336,-335,0,0,0,0,0,0,0,0,0,-1,1560,1359,0,0
343,-335,0,0,0,0,0,0,0,0,0,-1,1567,1359,0,0
350,-335,0,0,0,0,0,0,0,0,0,-1,1574,1359,0,0
357,-335,0,0,0,0,0,0,0,0,0,-1,1581,1359,0,0
364,-335,0,0,0,0,0,0,0,0,0,-1,1588,1359,0,0
371,-335,0,0,0,0,0,0,0,0,0,-1,1595,1359,0,0
378,-335,0,0,0,0,0,0,0,0,0,-1,1602,1359,0,0
385,-335,0,0,0,0,0,0,0,0,0,-1,1609,1359,0,0
392,-335,0,0,0,0,0,0,0,0,0,-1,1616,1359,0,0
399,-335,0,0,0,0,0,0,0,0,0,-1,1623,1359,0,0
406,-335,0,0,0,0,0,0,0,0,0,-1,1630,1359,0,0
413,-335,0,0,0,0,0,0,0,0,0,-1,1637,1359,0,0
420,-335,0,0,0,0,0,0,0,0,0,-1,1644,1359,0,0
427,-335,0,0,0,0,0,0,0,0,0,-1,1651,1359,0,0
434,-335,0,0,0,0,0,0,0,0,0,-1,1658,1359,0,0
441,-335,0,0,0,0,0,0,0,0,0,-1,1665,1359,0,0
448,-335,0,0,0,0,0,0,0,0,0,-1,1672,1359,0,0
455,-335,0,0,0,0,0,0,0,0,0,-1,1679,1359,0,0
462,-335,0,0,0,0,0,0,0,0,0,-1,1686,1359,0,0
469,-335,0,0,0,0,0,0,0,0,0,-1,1693,1359,0,0
476,-335,0,0,0,0,0,0,0,0,0,-1,1700,1359,0,0
483,-335,0,0,0,0,0,0,0,0,0,-1,1707,1359,0,0
490,-335,0,0,0,0,0,0,0,0,0,-1,1714,1359,0,0
497,-335,0,0,0,0,0,0,0,0,0,-1,1721,1359,0,0
504,-335,0,0,0,0,0,0,0,0,0,-1,1728,1359,0,0
511,-335,0,0,0,0,0,0,0,0,0,-1,1735,1359,0,0
518,-335,0,0,0,0,0,0,0,0,0,-1,1742,1359,0,0
525,-335,0,0,0,0,0,0,0,0,0,-1,1749,1359,0,0
532,-335,0,0,0,0,0,0,0,0,0,-1,1756,1359,0,0
539,-335,0,0,0,0,0,0,0,0,0,-1,1763,1359,0,0
546,-335,0,0,0,0,0,0,0,0,0,-1,1770,1359,0,0
553,-335,0,0,0,0,0,0,0,0,0,-1,1777,1359,0,0
560,-335,0,0,0,0,0,0,0,0,0,-1,1784,1359,0,0
567,-335,0,0,0,0,0,0,0,0,0,-1,1791,1359,0,0
574,-335,58.0887,0.573853,0,0,0,0,0,0,0,-1,1798,1359,58.0887,-0.573905
581,-335,57.8474,0.28833,0,0,0,0,0,0,0,-1,1805,1359,57.8474,-0.28839
588,-335,58.4113,0.081665,0,0,0,0,0,0,0,-1,1812,1359,58.4113,-0.0816863
595,-335,49.984,3.76465,0,0,0,0,0,0,0,-1,1819,1359,49.984,-3.76467
602,-335,36.5643,0.0861816,0,0,0,0,0,0,0,-1,1826,1359,36.5643,-0.0862283
609,-335,36.2933,0.993896,0,0,0,0,0,0,0,-1,1833,1359,36.2934,-0.993911
616,-335,34.6969,4.82666,0,0,0,0,0,0,0,-1,1840,1359,34.6969,-4.82667
623,-335,26.6051,6.54333,0,0,0,0,0,0,0,-1,1847,1359,26.6051,-6.54339
630,-335,19.1707,1.00952,0,0,0,0,0,0,0,-1,1854,1359,19.1707,-1.00953
637,-335,18.2009,6.65454,0,0,0,0,0,0,0,-1,1861,1359,18.2009,-6.6546
644,-335,28.1042,12.067,0,0,0,0,0,0,0,-1,1868,1359,28.1042,-12.067
651,-335,39.9308,16.6902,0,0,0,0,0,0,0,-1,1875,1359,39.9308,-16.6902
658,-335,40.0101,15.9229,-0.00168429,0.000207496,0.000237097,0.000236758,-0.00171355,1.448,0.00122891,0.0355094,1882,1359,40.0102,-15.9229
665,-335,40.0244,15.2183,-0.000845434,-6.24843e-05,9.33446e-05,-5.15095e-05,-0.000856409,1.45376,0.000554567,0.0147411,1889,1359,40.0244,-15.2182
672,-335,39.9835,14.5551,-6.55651e-05,-8.70863e-05,-9.45218e-05,1.88066e-05,-0.000171458,-0.728721,0.000121062,0.0166779,1896,1359,39.9835,-14.555
679,-335,39.9432,13.9314,0.000620815,-3.16148e-05,-0.000219951,0.000688039,-9.88391e-05,-0.296617,0.00049494,0.0145824,1903,1359,39.9432,-13.9314
686,-335,39.9275,13.2529,0.00120718,-1.1349e-05,-0.000251616,0.00125709,-6.1261e-05,-0.195824,0.00085921,0.0125273,1910,1359,39.9275,-13.2529
693,-335,39.8922,12.5924,0.00173548,3.30774e-05,-0.000233847,0.00176702,1.53971e-06,-0.134056,0.0011775,0.0111527,1917,1359,39.8922,-12.5924
700,-335,39.839,11.95,0.00216615,5.04704e-05,-0.000113059,0.00217218,4.44459e-05,-0.0532367,0.00143353,0.0119903,1924,1359,39.839,-11.9499
707,-335,39.8126,11.3119,0.00238176,-2.42372e-05,0.000190127,0.00239669,-3.91687e-05,0.0783739,0.00161101,0.0148342,1931,1359,39.8126,-11.3119
714,-335,39.8206,10.5673,0.00239964,-0.000198414,0.000678002,0.00256593,-0.000364706,0.240519,0.00184425,0.0350478,1938,1359,39.8205,-10.5673
721,-335,39.7446,9.72668,0,0,0,0,0,0,0,-1,1945,1359,39.7446,-9.72672
728,-335,20.8126,5.21167,0,0,0,0,0,0,0,-1,1952,1359,20.8127,-5.21172
735,-335,20.2725,5.34729,0,0,0,0,0,0,0,-1,1959,1359,20.2724,-5.34734
742,-335,19.8624,4.72229,0,0,0,0,0,0,0,-1,1966,1359,19.8624,-4.72225
749,-335,20.5887,6.05322,0,0,0,0,0,0,0,-1,1973,1359,20.5887,-6.05322
756,-335,20.7832,6.00452,0,0,0,0,0,0,0,-1,1980,1359,20.7832,-6.00447
763,-335,0,0,0,0,0,0,0,0,0,-1,1987,1359,0,0
770,-335,0,0,0,0,0,0,0,0,0,-1,1994,1359,0,0
777,-335,0,0,0,0,0,0,0,0,0,-1,2001,1359,0,0
784,-335,0,0,0,0,0,0,0,0,0,-1,2008,1359,0,0
791,-335,0,0,0,0,0,0,0,0,0,-1,2015,1359,0,0
798,-335,0,0,0,0,0,0,0,0,0,-1,2022,1359,0,0
805,-335,0,0,0,0,0,0,0,0,0,-1,2029,1359,0,0
812,-335,0,0,0,0,0,0,0,0,0,-1,2036,1359,0,0
-700,-342,0,0,0,0,0,0,0,0,0,-1,524,1366,0,0
-693,-342,0,0,0,0,0,0,0,0,0,-1,531,1366,0,0
-686,-342,0,0,0,0,0,0,0,0,0,-1,538,1366,0,0
-679,-342,0,0,0,0,0,0,0,0,0,-1,545,1366,0,0
-672,-342,0,0,0,0,0,0,0,0,0,-1,552,1366,0,0
-665,-342,0,0,0,0,0,0,0,0,0,-1,559,1366,0,0
-658,-342,0,0,0,0,0,0,0,0,0,-1,566,1366,0,0
-651,-342,0,0,0,0,0,0,0,0,0,-1,573,1366,0,0
-644,-342,0,0,0,0,0,0,0,0,0,-1,580,1366,0,0
-637,-342,-63.7546,12.2344,0,0,0,0,0,0,0,-1,587,1366,-63.7546,-12.2343
-630,-342,-8.60132,2.71777,0,0,0,0,0,0,0,-1,594,1366,-8.60135,-2.71779
-623,-342,-8.41168,0.662476,0,0,0,0,0,0,0,-1,601,1366,-8.41168,-0.662442
-616,-342,-6.625,-1.28015,0,0,0,0,0,0,0,-1,608,1366,-6.62499,1.28011
-609,-342,-7.83154,0.674561,0,0,0,0,0,0,0,-1,615,1366,-7.83155,-0.674598
-602,-342,-9.65765,2.25195,0,0,0,0,0,0,0,-1,622,1366,-9.65767,-2.25192
-595,-342,-9.47687,3.00671,0,0,0,0,0,0,0,-1,629,1366,-9.47686,-3.00668
-588,-342,-9.78467,3.57727,0,0,0,0,0,0,0,-1,636,1366,-9.78468,-3.57723
-581,-342,-22.3908,8.93774,0,0,0,0,0,0,0,-1,643,1366,-22.3908,-8.93774
-574,-342,-22.3007,9.59033,0.00440971,0.00369909,0.0024401,0.00652023,0.00158857,0.7131,0.00392593,0.0164787,650,1366,-22.3007,-9.59034
-567,-342,-22.2446,10.3002,0.00374934,0.00271072,0.001962,0.0052596,0.00120047,0.656023,0.00318263,0.017522,657,1366,-22.2446,-10.3002
-560,-342,-22.2914,10.9233,0.00341288,0.00193373,0.00165196,0.00448326,0.000863354,0.574931,0.00274666,0.026616,664,1366,-22.2915,-10.9233
-553,-342,-22.3668,11.549,0.00325698,0.00128379,0.00145687,0.00402989,0.000510889,0.487768,0.00253352,0.028716,671,1366,-22.3668,-11.5489
-546,-342,-22.4025,12.321,0.00326642,0.000758475,0.00136472,0.0038658,0.000159097,0.413832,0.00252584,0.0267506,678,1366,-22.4025,-12.3211
-539,-342,-22.375,13.092,0.00342847,0.000342109,0.00137453,0.00395187,-0.00018129,0.36383,0.00269704,0.0221569,685,1366,-22.375,-13.092
-532,-342,-22.4169,13.8174,0.00376292,4.50903e-05,0.00149806,0.00429142,-0.00048341,0.339158,0.00303495,0.0176543,692,1366,-22.4169,-13.8173
-525,-342,-22.3944,14.5269,0.00426355,-0.000108756,0.00174727,0.00487601,-0.000721215,0.33714,0.00351582,0.0133434,699,1366,-22.3944,-14.5269
-518,-342,-22.3312,15.2324,0.00497134,-1.19925e-05,0.00213731,0.00576243,-0.000803082,0.354497,0.00413539,0.0402877,706,1366,-22.3312,-15.2324
-511,-342,-22.3215,15.9257,0,0,0,0,0,0,0,-1,713,1366,-22.3215,-15.9257
-504,-342,-8.95709,6.5719,0,0,0,0,0,0,0,-1,720,1366,-8.95707,-6.57192
-497,-342,-8.26587,-0.943604,0,0,0,0,0,0,0,-1,727,1366,-8.26586,0.943543
-490,-342,-9.07153,-0.0227051,0,0,0,0,0,0,0,-1,734,1366,-9.07155,0.0227087
-483,-342,-9.87726,0.898071,0,0,0,0,0,0,0,-1,741,1366,-9.87724,-0.898125
-476,-342,-11.6371,-0.736328,0,0,0,0,0,0,0,-1,748,1366,-11.6371,0.736281
-469,-342,-12.6245,-0.987549,0,0,0,0,0,0,0,-1,755,1366,-12.6245,0.987553
-462,-342,-13.0912,-0.533203,0,0,0,0,0,0,0,-1,762,1366,-13.0912,0.533224
-455,-342,-13.7612,0.122925,0,0,0,0,0,0,0,-1,769,1366,-13.7612,-0.122896
-448,-342,-14.5278,0.826904,0,0,0,0,0,0,0,-1,776,1366,-14.5277,-0.826861
-441,-342,0,0,0,0,0,0,0,0,0,-1,783,1366,0,0
-434,-342,0,0,0,0,0,0,0,0,0,-1,790,1366,0,0
-427,-342,0,0,0,0,0,0,0,0,0,-1,797,1366,0,0
-420,-342,0,0,0,0,0,0,0,0,0,-1,804,1366,0,0
-413,-342,0,0,0,0,0,0,0,0,0,-1,811,1366,0,0
-406,-342,0,0,0,0,0,0,0,0,0,-1,818,1366,0,0
-399,-342,0,0,0,0,0,0,0,0,0,-1,825,1366,0,0
-392,-342,0,0,0,0,0,0,0,0,0,-1,832,1366,0,0
-385,-342,0,0,0,0,0,0,0,0,0,-1,839,1366,0,0
-378,-342,0,0,0,0,0,0,0,0,0,-1,846,1366,0,0
-371,-342,0,0,0,0,0,0,0,0,0,-1,853,1366,0,0
-364,-342,0,0,0,0,0,0,0,0,0,-1,860,1366,0,0
-357,-342,0,0,0,0,0,0,0,0,0,-1,867,1366,0,0
-350,-342,0,0,0,0,0,0,0,0,0,-1,874,1366,0,0
-343,-342,0,0,0,0,0,0,0,0,0,-1,881,1366,0,0
-336,-342,0,0,0,0,0,0,0,0,0,-1,888,1366,0,0
-329,-342,0,0,0,0,0,0,0,0,0,-1,895,1366,0,0
-322,-342,0,0,0,0,0,0,0,0,0,-1,902,1366,0,0
-315,-342,0,0,0,0,0,0,0,0,0,-1,909,1366,0,0
-308,-342,0,0,0,0,0,0,0,0,0,-1,916,1366,0,0
-301,-342,0,0,0,0,0,0,0,0,0,-1,923,1366,0,0
-294,-342,0,0,0,0,0,0,0,0,0,-1,930,1366,0,0
-287,-342,0,0,0,0,0,0,0,0,0,-1,937,1366,0,0
-280,-342,0,0,0,0,0,0,0,0,0,-1,944,1366,0,0
-273,-342,0,0,0,0,0,0,0,0,0,-1,951,1366,0,0
-266,-342,0,0,0,0,0,0,0,0,0,-1,958,1366,0,0
-259,-342,0,0,0,0,0,0,0,0,0,-1,965,1366,0,0
-252,-342,0,0,0,0,0,0,0,0,0,-1,972,1366,0,0
-245,-342,0,0,0,0,0,0,0,0,0,-1,979,1366,0,0
-238,-342,0,0,0,0,0,0,0,0,0,-1,986,1366,0,0
-231,-342,0,0,0,0,0,0,0,0,0,-1,993,1366,0,0
-224,-342,0,0,0,0,0,0,0,0,0,-1,1000,1366,0,0
-217,-342,0,0,0,0,0,0,0,0,0,-1,1007,1366,0,0
-210,-342,0,0,0,0,0,0,0,0,0,-1,1014,1366,0,0
-203,-342,0,0,0,0,0,0,0,0,0,-1,1021,1366,0,0
-196,-342,0,0,0,0,0,0,0,0,0,-1,1028,1366,0,0
-189,-342,0,0,0,0,0,0,0,0,0,-1,1035,1366,0,0
-182,-342,0,0,0,0,0,0,0,0,0,-1,1042,1366,0,0
-175,-342,0,0,0,0,0,0,0,0,0,-1,1049,1366,0,0
-168,-342,0,0,0,0,0,0,0,0,0,-1,1056,1366,0,0
-161,-342,0,0,0,0,0,0,0,0,0,-1,1063,1366,0,0
-154,-342,0,0,0,0,0,0,0,0,0,-1,1070,1366,0,0
-147,-342,0,0,0,0,0,0,0,0,0,-1,1077,1366,0,0
-140,-342,0,0,0,0,0,0,0,0,0,-1,1084,1366,0,0
-133,-342,0,0,0,0,0,0,0,0,0,-1,1091,1366,0,0
-126,-342,0,0,0,0,0,0,0,0,0,-1,1098,1366,0,0
-119,-342,0,0,0,0,0,0,0,0,0,-1,1105,1366,0,0
-112,-342,0,0,0,0,0,0,0,0,0,-1,1112,1366,0,0
-105,-342,0,0,0,0,0,0,0,0,0,-1,1119,1366,0,0
-98,-342,0,0,0,0,0,0,0,0,0,-1,1126,1366,0,0
-91,-342,0,0,0,0,0,0,0,0,0,-1,1133,1366,0,0
-84,-342,0,0,0,0,0,0,0,0,0,-1,1140,1366,0,0
-77,-342,0,0,0,0,0,0,0,0,0,-1,1147,1366,0,0
-70,-342,0,0,0,0,0,0,0,0,0,-1,1154,1366,0,0
-63,-342,0,0,0,0,0,0,0,0,0,-1,1161,1366,0,0
-56,-342,0,0,0,0,0,0,0,0,0,-1,1168,1366,0,0
-49,-342,0,0,0,0,0,0,0,0,0,-1,1175,1366,0,0
-42,-342,0,0,0,0,0,0,0,0,0,-1,1182,1366,0,0
-35,-342,0,0,0,0,0,0,0,0,0,-1,1189,1366,0,0
-28,-342,0,0,0,0,0,0,0,0,0,-1,1196,1366,0,0
-21,-342,0,0,0,0,0,0,0,0,0,-1,1203,1366,0,0
-14,-342,0,0,0,0,0,0,0,0,0,-1,1210,1366,0,0
-7,-342,0,0,0,0,0,0,0,0,0,-1,1217,1366,0,0
0,-342,0,0,0,0,0,0,0,0,0,-1,1224,1366,0,0
7,-342,0,0,0,0,0,0,0,0,0,-1,1231,1366,0,0
14,-342,0,0,0,0,0,0,0,0,0,-1,1238,1366,0,0
21,-342,0,0,0,0,0,0,0,0,0,-1,1245,1366,0,0
28,-342,0,0,0,0,0,0,0,0,0,-1,1252,1366,0,0
35,-342,0,0,0,0,0,0,0,0,0,-1,1259,1366,0,0
42,-342,0,0,0,0,0,0,0,0,0,-1,1266,1366,0,0
49,-342,0,0,0,0,0,0,0,0,0,-1,1273,1366,0,0
56,-342,0,0,0,0,0,0,0,0,0,-1,1280,1366,0,0
63,-342,0,0,0,0,0,0,0,0,0,-1,1287,1366,0,0
70,-342,0,0,0,0,0,0,0,0,0,-1,1294,1366,0,0
77,-342,0,0,0,0,0,0,0,0,0,-1,1301,1366,0,0
84,-342,0,0,0,0,0,0,0,0,0,-1,1308,1366,0,0
91,-342,0,0,0,0,0,0,0,0,0,-1,1315,1366,0,0
98,-342,0,0,0,0,0,0,0,0,0,-1,1322,1366,0,0
105,-342,0,0,0,0,0,0,0,0,0,-1,1329,1366,0,0
112,-342,0,0,0,0,0,0,0,0,0,-1,1336,1366,0,0
119,-342,0,0,0,0,0,0,0,0,0,-1,1343,1366,0,0
126,-342,0,0,0,0,0,0,0,0,0,-1,1350,1366,0,0
133,-342,0,0,0,0,0,0,0,0,0,-1,1357,1366,0,0
140,-342,0,0,0,0,0,0,0,0,0,-1,1364,1366,0,0
147,-342,0,0,0,0,0,0,0,0,0,-1,1371,1366,0,0
154,-342,0,0,0,0,0,0,0,0,0,-1,1378,1366,0,0
161,-342,0,0,0,0,0,0,0,0,0,-1,1385,1366,0,0
168,-342,0,0,0,0,0,0,0,0,0,-1,1392,1366,0,0
175,-342,0,0,0,0,0,0,0,0,0,-1,1399,1366,0,0
182,-342,0,0,0,0,0,0,0,0,0,-1,1406,1366,0,0
189,-342,0,0,0,0,0,0,0,0,0,-1,1413,1366,0,0
196,-342,0,0,0,0,0,0,0,0,0,-1,1420,1366,0,0
203,-342,0,0,0,0,0,0,0,0,0,-1,1427,1366,0,0
210,-342,0,0,0,0,0,0,0,0,0,-1,1434,1366,0,0
217,-342,0,0,0,0,0,0,0,0,0,-1,1441,1366,0,0
224,-342,0,0,0,0,0,0,0,0,0,-1,1448,1366,0,0
231,-342,0,0,0,0,0,0,0,0,0,-1,1455,1366,0,0
238,-342,0,0,0,0,0,0,0,0,0,-1,1462,1366,0,0
245,-342,0,0,0,0,0,0,0,0,0,-1,1469,1366,0,0
252,-342,0,0,0,0,0,0,0,0,0,-1,1476,1366,0,0
259,-342,0,0,0,0,0,0,0,0,0,-1,1483,1366,0,0
266,-342,0,0,0,0,0,0,0,0,0,-1,1490,1366,0,0
273,-342,0,0,0,0,0,0,0,0,0,-1,1497,1366,0,0
280,-342,0,0,0,0,0,0,0,0,0,-1,1504,1366,0,0
287,-342,0,0,0,0,0,0,0,0,0,-1,1511,1366,0,0
294,-342,0,0,0,0,0,0,0,0,0,-1,1518,1366,0,0
301,-342,0,0,0,0,0,0,0,0,0,-1,1525,1366,0,0
308,-342,0,0,0,0,0,0,0,0,0,-1,1532,1366,0,0
315,-342,0,0,0,0,0,0,0,0,0,-1,1539,1366,0,0
322,-342,0,0,0,0,0,0,0,0,0,-1,1546,1366,0,0
329,-342,0,0,0,0,0,0,0,0,0,-1,1553,1366,0,0
336,-342,0,0,0,0,0,0,0,0,0,-1,1560,1366,0,0
343,-342,0,0,0,0,0,0,0,0,0,-1,1567,1366,0,0
350,-342,0,0,0,0,0,0,0,0,0,-1,1574,1366,0,0
357,-342,0,0,0,0,0,0,0,0,0,-1,1581,1366,0,0
364,-342,0,0,0,0,0,0,0,0,0,-1,1588,1366,0,0
371,-342,0,0,0,0,0,0,0,0,0,-1,1595,1366,0,0
378,-342,0,0,0,0,0,0,0,0,0,-1,1602,1366,0,0
385,-342,0,0,0,0,0,0,0,0,0,-1,1609,1366,0,0
392,-342,0,0,0,0,0,0,0,0,0,-1,1616,1366,0,0
399,-342,0,0,0,0,0,0,0,0,0,-1,1623,1366,0,0
406,-342,0,0,0,0,0,0,0,0,0,-1,1630,1366,0,0
413,-342,0,0,0,0,0,0,0,0,0,-1,1637,1366,0,0
420,-342,0,0,0,0,0,0,0,0,0,-1,1644,1366,0,0
427,-342,0,0,0,0,0,0,0,0,0,-1,1651,1366,0,0
434,-342,0,0,0,0,0,0,0,0,0,-1,1658,1366,0,0
441,-342,0,0,0,0,0,0,0,0,0,-1,1665,1366,0,0
448,-342,0,0,0,0,0,0,0,0,0,-1,1672,1366,0,0
455,-342,0,0,0,0,0,0,0,0,0,-1,1679,1366,0,0
462,-342,0,0,0,0,0,0,0,0,0,-1,1686,1366,0,0
469,-342,0,0,0,0,0,0,0,0,0,-1,1693,1366,0,0
476,-342,0,0,0,0,0,0,0,0,0,-1,1700,1366,0,0
483,-342,0,0,0,0,0,0,0,0,0,-1,1707,1366,0,0
490,-342,0,0,0,0,0,0,0,0,0,-1,1714,1366,0,0
497,-342,0,0,0,0,0,0,0,0,0,-1,1721,1366,0,0
504,-342,0,0,0,0,0,0,0,0,0,-1,1728,1366,0,0
511,-342,0,0,0,0,0,0,0,0,0,-1,1735,1366,0,0
518,-342,0,0,0,0,0,0,0,0,0,-1,1742,1366,0,0
525,-342,0,0,0,0,0,0,0,0,0,-1,1749,1366,0,0
532,-342,0,0,0,0,0,0,0,0,0,-1,1756,1366,0,0
539,-342,0,0,0,0,0,0,0,0,0,-1,1763,1366,0,0
546,-342,0,0,0,0,0,0,0,0,0,-1,1770,1366,0,0
553,-342,0,0,0,0,0,0,0,0,0,-1,1777,1366,0,0
560,-342,0,0,0,0,0,0,0,0,0,-1,1784,1366,0,0
567,-342,42.6652,5.53748,0,0,0,0,0,0,0,-1,1791,1366,42.6652,-5.53752
574,-342,57.798,-0.27356,0,0,0,0,0,0,0,-1,1798,1366,57.798,0.273534
581,-342,57.0219,-0.327759,0,0,0,0,0,0,0,-1,1805,1366,57.0219,0.327814
588,-342,43.9108,7.22559,0,0,0,0,0,0,0,-1,1812,1366,43.9107,-7.22554
595,-342,35.7993,0.709961,0,0,0,0,0,0,0,-1,1819,1366,35.7993,-0.709913
602,-342,36.3618,3.28723,0,0,0,0,0,0,0,-1,1826,1366,36.3619,-3.28719
609,-342,35.3777,4.14978,0,0,0,0,0,0,0,-1,1833,1366,35.3777,-4.14976
616,-342,34.199,5.8158,0,0,0,0,0,0,0,-1,1840,1366,34.199,-5.81579
623,-342,26.0299,6.86865,0,0,0,0,0,0,0,-1,1847,1366,26.0299,-6.86863
630,-342,17.3431,0.773071,0,0,0,0,0,0,0,-1,1854,1366,17.3432,-0.773095
637,-342,16.196,6.76172,0,0,0,0,0,0,0,-1,1861,1366,16.1961,-6.76174
644,-342,31.8916,14.0614,0,0,0,0,0,0,0,-1,1868,1366,31.8916,-14.0613
651,-342,39.3627,16.6034,0,0,0,0,0,0,0,-1,1875,1366,39.3627,-16.6034
658,-342,39.3737,15.9402,-0.00172295,0.000250784,0.000182049,0.000267435,-0.0017396,1.47959,0.00125839,0.022141,1882,1366,39.3737,-15.9402
665,-342,39.3533,15.2449,-0.000803512,3.88401e-06,8.69167e-05,1.31347e-05,-0.000812763,1.46476,0.000546273,0.0180978,1889,1366,39.3532,-15.2448
672,-342,39.3105,14.618,7.57157e-05,-3.55327e-05,-5.51646e-05,9.84316e-05,-5.82486e-05,-0.390625,9.14457e-05,0.0138577,1896,1366,39.3106,-14.618
679,-342,39.2686,13.988,0.000897058,-6.10091e-06,-0.000172574,0.00092891,-3.79526e-05,-0.182515,0.000632304,0.0125075,1903,1366,39.2685,-13.988
686,-342,39.2671,13.3253,0.00164456,2.31122e-05,-0.000230324,0.00167664,-8.97009e-06,-0.138402,0.00112076,0.0114717,1910,1366,39.2671,-13.3253
693,-342,39.215,12.6426,0.00235767,0.000104209,-0.000262883,0.00238793,7.39476e-05,-0.114607,0.00156789,0.012209,1917,1366,39.215,-12.6426
700,-342,39.178,12.0049,0.00299243,0.000198022,-0.00022241,0.00301002,0.000180431,-0.0789289,0.00194932,0.0142588,1924,1366,39.178,-12.0049
707,-342,39.147,11.3066,0.00336671,0.000208428,1.52953e-05,0.00336678,0.000208354,0.00484276,0.0021784,0.0147113,1931,1366,39.147,-11.3066
714,-342,39.2234,10.4844,0,0,0,0,0,0,0,-1,1938,1366,39.2234,-10.4844
721,-342,22.4666,6.08679,0,0,0,0,0,0,0,-1,1945,1366,22.4666,-6.08678
728,-342,19.8912,5.26636,0,0,0,0,0,0,0,-1,1952,1366,19.8913,-5.26636
735,-342,19.481,4.41968,0,0,0,0,0,0,0,-1,1959,1366,19.4809,-4.41962
742,-342,19.309,2.66943,0,0,0,0,0,0,0,-1,1966,1366,19.3089,-2.66948
749,-342,21.0934,6.47729,0,0,0,0,0,0,0,-1,1973,1366,21.0934,-6.4773
756,-342,0,0,0,0,0,0,0,0,0,-1,1980,1366,0,0
763,-342,0,0,0,0,0,0,0,0,0,-1,1987,1366,0,0
770,-342,0,0,0,0,0,0,0,0,0,-1,1994,1366,0,0
777,-342,0,0,0,0,0,0,0,0,0,-1,2001,1366,0,0
784,-342,0,0,0,0,0,0,0,0,0,-1,2008,1366,0,0
791,-342,0,0,0,0,0,0,0,0,0,-1,2015,1366,0,0
798,-342,0,0,0,0,0,0,0,0,0,-1,2022,1366,0,0
805,-342,0,0,0,0,0,0,0,0,0,-1,2029,1366,0,0
812,-342,0,0,0,0,0,0,0,0,0,-1,2036,1366,0,0
-700,-349,0,0,0,0,0,0,0,0,0,-1,524,1373,0,0
-693,-349,0,0,0,0,0,0,0,0,0,-1,531,1373,0,0
-686,-349,0,0,0,0,0,0,0,0,0,-1,538,1373,0,0
-679,-349,0,0,0,0,0,0,0,0,0,-1,545,1373,0,0
-672,-349,0,0,0,0,0,0,0,0,0,-1,552,1373,0,0
-665,-349,0,0,0,0,0,0,0,0,0,-1,559,1373,0,0
-658,-349,0,0,0,0,0,0,0,0,0,-1,566,1373,0,0
-651,-349,0,0,0,0,0,0,0,0,0,-1,573,1373,0,0
-644,-349,0,0,0,0,0,0,0,0,0,-1,580,1373,0,0
-637,-349,0,0,0,0,0,0,0,0,0,-1,587,1373,0,0
-630,-349,-7.64117,-5.06177,0,0,0,0,0,0,0,-1,594,1373,-7.64118,5.0618
-623,-349,-8.63507,0.51123,0,0,0,0,0,0,0,-1,601,1373,-8.63505,-0.511275
-616,-349,-5.2066,-0.188232,0,0,0,0,0,0,0,-1,608,1373,-5.20659,0.188211
-609,-349,-7.12073,1.37048,0,0,0,0,0,0,0,-1,615,1373,-7.12072,-1.37044
-602,-349,-9.00623,3.39587,0,0,0,0,0,0,0,-1,622,1373,-9.0062,-3.39591
-595,-349,-9.50568,2.96912,0,0,0,0,0,0,0,-1,629,1373,-9.50569,-2.96906
-588,-349,-8.60046,3.56042,0,0,0,0,0,0,0,-1,636,1373,-8.60046,-3.56047
-581,-349,-21.4561,8.89294,0,0,0,0,0,0,0,-1,643,1373,-21.4561,-8.89293
-574,-349,-21.536,9.53638,0.00541917,0.00425455,0.00312193,0.00801264,0.00166109,0.693197,0.00488316,0.0391768,650,1373,-21.536,-9.5364
-567,-349,-21.5942,10.316,0.00448879,0.00311672,0.00245867,0.00635534,0.00125017,0.649345,0.00388776,0.0190323,657,1373,-21.5942,-10.3161
-560,-349,-21.6121,11.0099,0.00392337,0.00226218,0.00199929,0.00525773,0.000927823,0.588523,0.00324046,0.0222858,664,1373,-21.6121,-11.0099
-553,-349,-21.6187,11.6354,0.0035249,0.00156712,0.00167486,0.00448595,0.000606073,0.52094,0.00281048,0.0268315,671,1373,-21.6187,-11.6354
-546,-349,-21.6442,12.3551,0.00327011,0.00101326,0.00145473,0.00398277,0.000300604,0.455528,0.00256087,0.0287997,678,1373,-21.6442,-12.3551
-539,-349,-21.6661,13.0844,0.00315332,0.000578528,0.00133718,0.00372211,9.73744e-06,0.402182,0.00247817,0.0232114,685,1373,-21.6661,-13.0844
-532,-349,-21.7416,13.8281,0.00318329,0.000267369,0.00132882,0.00369799,-0.000247334,0.369545,0.00255177,0.0185619,692,1373,-21.7416,-13.8281
-525,-349,-21.7284,14.5459,0.00336896,8.74592e-05,0.00143951,0.00391092,-0.000454504,0.360079,0.00277123,0.0153619,699,1373,-21.7284,-14.5459
-518,-349,-21.7139,15.2482,0.00371932,0.000116333,0.00166753,0.00437262,-0.000536968,0.373399,0.00310956,0.0249918,706,1373,-21.7139,-15.2482
-511,-349,-21.6831,15.9532,0,0,0,0,0,0,0,-1,713,1373,-21.6831,-15.9532
-504,-349,-9.60516,7.88831,0,0,0,0,0,0,0,-1,720,1373,-9.60519,-7.88825
-497,-349,-7.9339,5.58789,0,0,0,0,0,0,0,-1,727,1373,-7.93388,-5.58785
-490,-349,-8.73969,-0.503784,0,0,0,0,0,0,0,-1,734,1373,-8.73966,0.503752
-483,-349,-5.66974,3.7395,0,0,0,0,0,0,0,-1,741,1373,-5.66975,-3.73949
-476,-349,-10.8496,1.15759,0,0,0,0,0,0,0,-1,748,1373,-10.8496,-1.15756
-469,-349,-12.3314,-1.74878,0,0,0,0,0,0,0,-1,755,1373,-12.3314,1.74882
-462,-349,-12.6559,-0.995361,0,0,0,0,0,0,0,-1,762,1373,-12.656,0.995351
-455,-349,-13.2897,-0.234253,0,0,0,0,0,0,0,-1,769,1373,-13.2897,0.234261
-448,-349,-14.045,0.712891,0,0,0,0,0,0,0,-1,776,1373,-14.045,-0.712838
-441,-349,0,0,0,0,0,0,0,0,0,-1,783,1373,0,0
-434,-349,0,0,0,0,0,0,0,0,0,-1,790,1373,0,0
-427,-349,0,0,0,0,0,0,0,0,0,-1,797,1373,0,0
-420,-349,0,0,0,0,0,0,0,0,0,-1,804,1373,0,0
-413,-349,0,0,0,0,0,0,0,0,0,-1,811,1373,0,0
-406,-349,0,0,0,0,0,0,0,0,0,-1,818,1373,0,0
-399,-349,0,0,0,0,0,0,0,0,0,-1,825,1373,0,0
-392,-349,0,0,0,0,0,0,0,0,0,-1,832,1373,0,0
-385,-349,0,0,0,0,0,0,0,0,0,-1,839,1373,0,0
-378,-349,0,0,0,0,0,0,0,0,0,-1,846,1373,0,0
-371,-349,0,0,0,0,0,0,0,0,0,-1,853,1373,0,0
-364,-349,0,0,0,0,0,0,0,0,0,-1,860,1373,0,0
-357,-349,0,0,0,0,0,0,0,0,0,-1,867,1373,0,0
-350,-349,0,0,0,0,0,0,0,0,0,-1,874,1373,0,0
-343,-349,0,0,0,0,0,0,0,0,0,-1,881,1373,0,0
-336,-349,0,0,0,0,0,0,0,0,0,-1,888,1373,0,0
-329,-349,0,0,0,0,0,0,0,0,0,-1,895,1373,0,0
-322,-349,0,0,0,0,0,0,0,0,0,-1,902,1373,0,0
-315,-349,0,0,0,0,0,0,0,0,0,-1,909,1373,0,0
-308,-349,0,0,0,0,0,0,0,0,0,-1,916,1373,0,0
-301,-349,0,0,0,0,0,0,0,0,0,-1,923,1373,0,0
-294,-349,0,0,0,0,0,0,0,0,0,-1,930,1373,0,0
-287,-349,0,0,0,0,0,0,0,0,0,-1,937,1373,0,0
-280,-349,0,0,0,0,0,0,0,0,0,-1,944,1373,0,0
-273,-349,0,0,0,0,0,0,0,0,0,-1,951,1373,0,0
-266,-349,0,0,0,0,0,0,0,0,0,-1,958,1373,0,0
-259,-349,0,0,0,0,0,0,0,0,0,-1,965,1373,0,0
-252,-349,0,0,0,0,0,0,0,0,0,-1,972,1373,0,0
-245,-349,0,0,0,0,0,0,0,0,0,-1,979,1373,0,0
-238,-349,0,0,0,0,0,0,0,0,0,-1,986,1373,0,0
-231,-349,0,0,0,0,0,0,0,0,0,-1,993,1373,0,0
-224,-349,0,0,0,0,0,0,0,0,0,-1,1000,1373,0,0
-217,-349,0,0,0,0,0,0,0,0,0,-1,1007,1373,0,0
-210,-349,0,0,0,0,0,0,0,0,0,-1,1014,1373,0,0
-203,-349,0,0,0,0,0,0,0,0,0,-1,1021,1373,0,0
-196,-349,0,0,0,0,0,0,0,0,0,-1,1028,1373,0,0
-189,-349,0,0,0,0,0,0,0,0,0,-1,1035,1373,0,0
-182,-349,0,0,0,0,0,0,0,0,0,-1,1042,1373,0,0
-175,-349,0,0,0,0,0,0,0,0,0,-1,1049,1373,0,0
-168,-349,0,0,0,0,0,0,0,0,0,-1,1056,1373,0,0
-161,-349,0,0,0,0,0,0,0,0,0,-1,1063,1373,0,0
-154,-349,0,0,0,0,0,0,0,0,0,-1,1070,1373,0,0
-147,-349,0,0,0,0,0,0,0,0,0,-1,1077,1373,0,0
-140,-349,0,0,0,0,0,0,0,0,0,-1,1084,1373,0,0
-133,-349,0,0,0,0,0,0,0,0,0,-1,1091,1373,0,0
-126,-349,0,0,0,0,0,0,0,0,0,-1,1098,1373,0,0
-119,-349,0,0,0,0,0,0,0,0,0,-1,1105,1373,0,0
-112,-349,0,0,0,0,0,0,0,0,0,-1,1112,1373,0,0
-105,-349,0,0,0,0,0,0,0,0,0,-1,1119,1373,0,0
-98,-349,0,0,0,0,0,0,0,0,0,-1,1126,1373,0,0
-91,-349,0,0,0,0,0,0,0,0,0,-1,1133,1373,0,0
-84,-349,0,0,0,0,0,0,0,0,0,-1,1140,1373,0,0
-77,-349,0,0,0,0,0,0,0,0,0,-1,1147,1373,0,0
-70,-349,0,0,0,0,0,0,0,0,0,-1,1154,1373,0,0
-63,-349,0,0,0,0,0,0,0,0,0,-1,1161,1373,0,0
-56,-349,0,0,0,0,0,0,0,0,0,-1,1168,1373,0,0
-49,-349,0,0,0,0,0,0,0,0,0,-1,1175,1373,0,0
-42,-349,0,0,0,0,0,0,0,0,0,-1,1182,1373,0,0
-35,-349,0,0,0,0,0,0,0,0,0,-1,1189,1373,0,0
-28,-349,0,0,0,0,0,0,0,0,0,-1,1196,1373,0,0
-21,-349,0,0,0,0,0,0,0,0,0,-1,1203,1373,0,0
-14,-349,0,0,0,0,0,0,0,0,0,-1,1210,1373,0,0
-7,-349,0,0,0,0,0,0,0,0,0,-1,1217,1373,0,0
0,-349,0,0,0,0,0,0,0,0,0,-1,1224,1373,0,0
7,-349,0,0,0,0,0,0,0,0,0,-1,1231,1373,0,0
14,-349,0,0,0,0,0,0,0,0,0,-1,1238,1373,0,0
21,-349,0,0,0,0,0,0,0,0,0,-1,1245,1373,0,0
28,-349,0,0,0,0,0,0,0,0,0,-1,1252,1373,0,0
35,-349,0,0,0,0,0,0,0,0,0,-1,1259,1373,0,0
42,-349,0,0,0,0,0,0,0,0,0,-1,1266,1373,0,0
49,-349,0,0,0,0,0,0,0,0,0,-1,1273,1373,0,0
56,-349,0,0,0,0,0,0,0,0,0,-1,1280,1373,0,0
63,-349,0,0,0,0,0,0,0,0,0,-1,1287,1373,0,0
70,-349,0,0,0,0,0,0,0,0,0,-1,1294,1373,0,0
77,-349,0,0,0,0,0,0,0,0,0,-1,1301,1373,0,0
84,-349,0,0,0,0,0,0,0,0,0,-1,1308,1373,0,0
91,-349,0,0,0,0,0,0,0,0,0,-1,1315,1373,0,0
98,-349,0,0,0,0,0,0,0,0,0,-1,1322,1373,0,0
105,-349,0,0,0,0,0,0,0,0,0,-1,1329,1373,0,0
112,-349,0,0,0,0,0,0,0,0,0,-1,1336,1373,0,0
119,-349,0,0,0,0,0,0,0,0,0,-1,1343,1373,0,0
126,-349,0,0,0,0,0,0,0,0,0,-1,1350,1373,0,0
133,-349,0,0,0,0,0,0,0,0,0,-1,1357,1373,0,0
140,-349,0,0,0,0,0,0,0,0,0,-1,1364,1373,0,0
147,-349,0,0,0,0,0,0,0,0,0,-1,1371,1373,0,0
154,-349,0,0,0,0,0,0,0,0,0,-1,1378,1373,0,0
161,-349,0,0,0,0,0,0,0,0,0,-1,1385,1373,0,0
168,-349,0,0,0,0,0,0,0,0,0,-1,1392,1373,0,0
175,-349,0,0,0,0,0,0,0,0,0,-1,1399,1373,0,0
182,-349,0,0,0,0,0,0,0,0,0,-1,1406,1373,0,0
189,-349,0,0,0,0,0,0,0,0,0,-1,1413,1373,0,0
196,-349,0,0,0,0,0,0,0,0,0,-1,1420,1373,0,0
203,-349,0,0,0,0,0,0,0,0,0,-1,1427,1373,0,0
210,-349,0,0,0,0,0,0,0,0,0,-1,1434,1373,0,0
217,-349,0,0,0,0,0,0,0,0,0,-1,1441,1373,0,0
224,-349,0,0,0,0,0,0,0,0,0,-1,1448,1373,0,0
231,-349,0,0,0,0,0,0,0,0,0,-1,1455,1373,0,0
238,-349,0,0,0,0,0,0,0,0,0,-1,1462,1373,0,0
245,-349,0,0,0,0,0,0,0,0,0,-1,1469,1373,0,0
252,-349,0,0,0,0,0,0,0,0,0,-1,1476,1373,0,0
259,-349,0,0,0,0,0,0,0,0,0,-1,1483,1373,0,0
266,-349,0,0,0,0,0,0,0,0,0,-1,1490,1373,0,0
273,-349,0,0,0,0,0,0,0,0,0,-1,1497,1373,0,0
280,-349,0,0,0,0,0,0,0,0,0,-1,1504,1373,0,0
287,-349,0,0,0,0,0,0,0,0,0,-1,1511,1373,0,0
294,-349,0,0,0,0,0,0,0,0,0,-1,1518,1373,0,0
301,-349,0,0,0,0,0,0,0,0,0,-1,1525,1373,0,0
308,-349,0,0,0,0,0,0,0,0,0,-1,1532,1373,0,0
315,-349,0,0,0,0,0,0,0,0,0,-1,1539,1373,0,0
322,-349,0,0,0,0,0,0,0,0,0,-1,1546,1373,0,0
329,-349,0,0,0,0,0,0,0,0,0,-1,1553,1373,0,0
336,-349,0,0,0,0,0,0,0,0,0,-1,1560,1373,0,0
343,-349,0,0,0,0,0,0,0,0,0,-1,1567,1373,0,0
350,-349,0,0,0,0,0,0,0,0,0,-1,1574,1373,0,0
357,-349,0,0,0,0,0,0,0,0,0,-1,1581,1373,0,0
364,-349,0,0,0,0,0,0,0,0,0,-1,1588,1373,0,0
371,-349,0,0,0,0,0,0,0,0,0,-1,1595,1373,0,0
378,-349,0,0,0,0,0,0,0,0,0,-1,1602,1373,0,0
385,-349,0,0,0,0,0,0,0,0,0,-1,1609,1373,0,0
392,-349,0,0,0,0,0,0,0,0,0,-1,1616,1373,0,0
399,-349,0,0,0,0,0,0,0,0,0,-1,1623,1373,0,0
406,-349,0,0,0,0,0,0,0,0,0,-1,1630,1373,0,0
413,-349,0,0,0,0,0,0,0,0,0,-1,1637,1373,0,0
420,-349,0,0,0,0,0,0,0,0,0,-1,1644,1373,0,0
427,-349,0,0,0,0,0,0,0,0,0,-1,1651,1373,0,0
434,-349,0,0,0,0,0,0,0,0,0,-1,1658,1373,0,0
441,-349,0,0,0,0,0,0,0,0,0,-1,1665,1373,0,0
448,-349,0,0,0,0,0,0,0,0,0,-1,1672,1373,0,0
455,-349,0,0,0,0,0,0,0,0,0,-1,1679,1373,0,0
462,-349,0,0,0,0,0,0,0,0,0,-1,1686,1373,0,0
469,-349,0,0,0,0,0,0,0,0,0,-1,1693,1373,0,0
476,-349,0,0,0,0,0,0,0,0,0,-1,1700,1373,0,0
483,-349,0,0,0,0,0,0,0,0,0,-1,1707,1373,0,0
490,-349,0,0,0,0,0,0,0,0,0,-1,1714,1373,0,0
497,-349,0,0,0,0,0,0,0,0,0,-1,1721,1373,0,0
504,-349,0,0,0,0,0,0,0,0,0,-1,1728,1373,0,0
511,-349,0,0,0,0,0,0,0,0,0,-1,1735,1373,0,0
518,-349,0,0,0,0,0,0,0,0,0,-1,1742,1373,0,0
525,-349,0,0,0,0,0,0,0,0,0,-1,1749,1373,0,0
532,-349,0,0,0,0,0,0,0,0,0,-1,1756,1373,0,0
539,-349,0,0,0,0,0,0,0,0,0,-1,1763,1373,0,0
546,-349,0,0,0,0,0,0,0,0,0,-1,1770,1373,0,0
553,-349,0,0,0,0,0,0,0,0,0,-1,1777,1373,0,0
560,-349,45.6893,3.53845,0,0,0,0,0,0,0,-1,1784,1373,45.6893,-3.5385
567,-349,41.9424,6.03833,0,0,0,0,0,0,0,-1,1791,1373,41.9423,-6.03834
574,-349,42.4165,6.17078,0,0,0,0,0,0,0,-1,1798,1373,42.4165,-6.17072
581,-349,42.8947,6.78381,0,0,0,0,0,0,0,-1,1805,1373,42.8946,-6.78376
588,-349,44.8121,5.06213,0,0,0,0,0,0,0,-1,1812,1373,44.8121,-5.06215
595,-349,44.4338,6.14099,0,0,0,0,0,0,0,-1,1819,1373,44.4338,-6.14095
602,-349,35.6641,3.26465,0,0,0,0,0,0,0,-1,1826,1373,35.6641,-3.26468
609,-349,34.7175,4.401,0,0,0,0,0,0,0,-1,1833,1373,34.7175,-4.40096
616,-349,27.1451,6.68274,0,0,0,0,0,0,0,-1,1840,1373,27.1451,-6.6828
623,-349,18.8478,2.75769,0,0,0,0,0,0,0,-1,1847,1373,18.8478,-2.75774
630,-349,15.4948,6.47644,0,0,0,0,0,0,0,-1,1854,1373,15.4947,-6.4765
637,-349,16.5161,6.92639,0,0,0,0,0,0,0,-1,1861,1373,16.5161,-6.92636
644,-349,38.9053,17.2406,0,0,0,0,0,0,0,-1,1868,1373,38.9052,-17.2406
651,-349,38.8958,16.5338,-0.00217229,0.000321602,0.000107163,0.000326198,-0.00217688,1.52793,0.00157131,0.0444529,1875,1373,38.8957,-16.5338
658,-349,38.7102,15.9138,-0.00141072,0.000112489,0.000178835,0.000133203,-0.00143143,1.45548,0.00100165,0.0271251,1882,1373,38.7102,-15.9138
665,-349,38.6583,15.2609,-0.000537756,-3.98466e-05,0.000114874,-1.46219e-05,-0.000562981,1.35464,0.000370543,0.0217544,1889,1373,38.6583,-15.2609
672,-349,38.6322,14.6472,0.00035022,-4.71579e-05,1.08179e-05,0.000350514,-4.74521e-05,0.0271963,0.000250993,0.0154627,1896,1373,38.6321,-14.6473
679,-349,38.6099,14.0095,0.0012299,-1.96794e-06,-9.01068e-05,0.00123646,-8.52399e-06,-0.072631,0.000827163,0.0151835,1903,1373,38.6099,-14.0095
686,-349,38.641,13.3462,0.00209325,7.39029e-05,-0.00016581,0.00210677,6.03786e-05,-0.0813842,0.00138483,0.017288,1910,1373,38.641,-13.3462
693,-349,38.5637,12.6746,0.00295432,0.000218597,-0.000233304,0.00297407,0.000198843,-0.0844679,0.00191987,0.0197875,1917,1373,38.5637,-12.6746
700,-349,38.5181,12.0365,0.00377516,0.000428568,-0.000264003,0.00379586,0.00040787,-0.0782421,0.00240617,0.0189136,1924,1373,38.518,-12.0365
707,-349,38.5836,11.334,0.00430409,0.000581562,-9.05139e-05,0.00430628,0.000579363,-0.0242961,0.00269855,0.0362605,1931,1373,38.5837,-11.334
714,-349,38.7108,10.5267,0,0,0,0,0,0,0,-1,1938,1373,38.7109,-10.5268
721,-349,19.6688,5.93604,0,0,0,0,0,0,0,-1,1945,1373,19.6688,-5.93606
728,-349,18.6333,3.73218,0,0,0,0,0,0,0,-1,1952,1373,18.6333,-3.73214
735,-349,18.1918,3.39954,0,0,0,0,0,0,0,-1,1959,1373,18.1918,-3.3995
742,-349,20.7345,2.07483,0,0,0,0,0,0,0,-1,1966,1373,20.7345,-2.07485
749,-349,21.9037,1.45789,0,0,0,0,0,0,0,-1,1973,1373,21.9037,-1.45788
756,-349,0,0,0,0,0,0,0,0,0,-1,1980,1373,0,0
763,-349,0,0,0,0,0,0,0,0,0,-1,1987,1373,0,0
770,-349,0,0,0,0,0,0,0,0,0,-1,1994,1373,0,0
777,-349,0,0,0,0,0,0,0,0,0,-1,2001,1373,0,0
784,-349,0,0,0,0,0,0,0,0,0,-1,2008,1373,0,0
791,-349,0,0,0,0,0,0,0,0,0,-1,2015,1373,0,0
798,-349,0,0,0,0,0,0,0,0,0,-1,2022,1373,0,0
805,-349,0,0,0,0,0,0,0,0,0,-1,2029,1373,0,0
812,-349,0,0,0,0,0,0,0,0,0,-1,2036,1373,0,0
-700,-356,0,0,0,0,0,0,0,0,0,-1,524,1380,0,0
-693,-356,0,0,0,0,0,0,0,0,0,-1,531,1380,0,0
-686,-356,0,0,0,0,0,0,0,0,0,-1,538,1380,0,0
-679,-356,0,0,0,0,0,0,0,0,0,-1,545,1380,0,0
-672,-356,0,0,0,0,0,0,0,0,0,-1,552,1380,0,0
-665,-356,0,0,0,0,0,0,0,0,0,-1,559,1380,0,0
-658,-356,0,0,0,0,0,0,0,0,0,-1,566,1380,0,0
-651,-356,0,0,0,0,0,0,0,0,0,-1,573,1380,0,0
-644,-356,0,0,0,0,0,0,0,0,0,-1,580,1380,0,0
-637,-356,0,0,0,0,0,0,0,0,0,-1,587,1380,0,0
-630,-356,-8.23126,-5.01917,0,0,0,0,0,0,0,-1,594,1380,-8.23124,5.0192
-623,-356,-0.263855,-0.675781,0,0,0,0,0,0,0,-1,601,1380,-0.263835,0.675841
-616,-356,-8.26532,-3.43945,0,0,0,0,0,0,0,-1,608,1380,-8.2653,3.43948
-609,-356,-4.88483,0.734497,0,0,0,0,0,0,0,-1,615,1380,-4.88485,-0.734532
-602,-356,-9.06635,2.4021,0,0,0,0,0,0,0,-1,622,1380,-9.06634,-2.40206
-595,-356,-8.45703,3.61853,0,0,0,0,0,0,0,-1,629,1380,-8.45706,-3.61848
-588,-356,-9.31738,4.14258,0,0,0,0,0,0,0,-1,636,1380,-9.31736,-4.14255
-581,-356,-16.5185,7.32312,0,0,0,0,0,0,0,-1,643,1380,-16.5185,-7.32306
-574,-356,-20.7813,9.70337,0,0,0,0,0,0,0,-1,650,1380,-20.7813,-9.70331
-567,-356,-20.9427,10.2811,0.00520196,0.00359648,0.00302945,0.00753322,0.00126523,0.655886,0.00465804,0.0225783,657,1380,-20.9427,-10.2812
-560,-356,-20.8932,11.0569,0.00448127,0.00261971,0.00240792,0.00613204,0.000968941,0.600969,0.00380638,0.0188724,664,1380,-20.8933,-11.0568
-553,-356,-20.8979,11.7612,0.00391811,0.00184735,0.00195481,0.00509482,0.000670646,0.541852,0.00319653,0.0209198,671,1380,-20.8979,-11.7612
-546,-356,-20.9181,12.4266,0.0034764,0.00123295,0.00161093,0.00431768,0.000391674,0.481272,0.00275718,0.0219392,678,1380,-20.9181,-12.4267
-539,-356,-20.9624,13.1338,0.00317048,0.000753248,0.00137888,0.00379545,0.000128273,0.425553,0.00248864,0.0156672,685,1380,-20.9624,-13.1338
-532,-356,-21.0408,13.871,0.00301266,0.000428984,0.00127912,0.00353878,-9.71456e-05,0.390227,0.00239223,0.0160513,692,1380,-21.0407,-13.871
-525,-356,-21.0629,14.5566,0.00300676,0.000227264,0.00129943,0.00351962,-0.000285596,0.375913,0.00244717,0.0143664,699,1380,-21.0629,-14.5567
-518,-356,-21.062,15.2543,0.0031676,0.00021829,0.00145126,0.00376194,-0.000376055,0.388701,0.00264225,0.0141782,706,1380,-21.062,-15.2543
-511,-356,-21.0484,15.9634,0,0,0,0,0,0,0,-1,713,1380,-21.0484,-15.9634
-504,-356,-14.3925,12.3971,0,0,0,0,0,0,0,-1,720,1380,-14.3925,-12.3971
-497,-356,-5.68604,4.96387,0,0,0,0,0,0,0,-1,727,1380,-5.68605,-4.96385
-490,-356,-7.95288,5.5625,0,0,0,0,0,0,0,-1,734,1380,-7.95285,-5.56246
-483,-356,-7.2627,4.07446,0,0,0,0,0,0,0,-1,741,1380,-7.2627,-4.07441
-476,-356,-5.1936,4.16016,0,0,0,0,0,0,0,-1,748,1380,-5.1936,-4.16012
-469,-356,-10.0883,0.536011,0,0,0,0,0,0,0,-1,755,1380,-10.0883,-0.535989
-462,-356,-12.3481,-0.215698,0,0,0,0,0,0,0,-1,762,1380,-12.3481,0.215641
-455,-356,-13.1367,-0.264648,0,0,0,0,0,0,0,-1,769,1380,-13.1367,0.264647
-448,-356,-13.9116,-0.310181,0,0,0,0,0,0,0,-1,776,1380,-13.9115,0.310207
-441,-356,-13.1602,3.05603,0,0,0,0,0,0,0,-1,783,1380,-13.1602,-3.05609
-434,-356,0,0,0,0,0,0,0,0,0,-1,790,1380,0,0
-427,-356,0,0,0,0,0,0,0,0,0,-1,797,1380,0,0
-420,-356,0,0,0,0,0,0,0,0,0,-1,804,1380,0,0
-413,-356,0,0,0,0,0,0,0,0,0,-1,811,1380,0,0
-406,-356,0,0,0,0,0,0,0,0,0,-1,818,1380,0,0
-399,-356,0,0,0,0,0,0,0,0,0,-1,825,1380,0,0
-392,-356,0,0,0,0,0,0,0,0,0,-1,832,1380,0,0
-385,-356,0,0,0,0,0,0,0,0,0,-1,839,1380,0,0
-378,-356,0,0,0,0,0,0,0,0,0,-1,846,1380,0,0
-371,-356,0,0,0,0,0,0,0,0,0,-1,853,1380,0,0
-364,-356,0,0,0,0,0,0,0,0,0,-1,860,1380,0,0
-357,-356,0,0,0,0,0,0,0,0,0,-1,867,1380,0,0
-350,-356,0,0,0,0,0,0,0,0,0,-1,874,1380,0,0
-343,-356,0,0,0,0,0,0,0,0,0,-1,881,1380,0,0
-336,-356,0,0,0,0,0,0,0,0,0,-1,888,1380,0,0
-329,-356,0,0,0,0,0,0,0,0,0,-1,895,1380,0,0
-322,-356,0,0,0,0,0,0,0,0,0,-1,902,1380,0,0
-315,-356,0,0,0,0,0,0,0,0,0,-1,909,1380,0,0
-308,-356,0,0,0,0,0,0,0,0,0,-1,916,1380,0,0
-301,-356,0,0,0,0,0,0,0,0,0,-1,923,1380,0,0
-294,-356,0,0,0,0,0,0,0,0,0,-1,930,1380,0,0
-287,-356,0,0,0,0,0,0,0,0,0,-1,937,1380,0,0
-280,-356,0,0,0,0,0,0,0,0,0,-1,944,1380,0,0
-273,-356,0,0,0,0,0,0,0,0,0,-1,951,1380,0,0
-266,-356,0,0,0,0,0,0,0,0,0,-1,958,1380,0,0
-259,-356,0,0,0,0,0,0,0,0,0,-1,965,1380,0,0
-252,-356,0,0,0,0,0,0,0,0,0,-1,972,1380,0,0
-245,-356,0,0,0,0,0,0,0,0,0,-1,979,1380,0,0
-238,-356,0,0,0,0,0,0,0,0,0,-1,986,1380,0,0
-231,-356,0,0,0,0,0,0,0,0,0,-1,993,1380,0,0
-224,-356,0,0,0,0,0,0,0,0,0,-1,1000,1380,0,0
-217,-356,0,0,0,0,0,0,0,0,0,-1,1007,1380,0,0
-210,-356,0,0,0,0,0,0,0,0,0,-1,1014,1380,0,0
-203,-356,0,0,0,0,0,0,0,0,0,-1,1021,1380,0,0
-196,-356,0,0,0,0,0,0,0,0,0,-1,1028,1380,0,0
-189,-356,0,0,0,0,0,0,0,0,0,-1,1035,1380,0,0
-182,-356,0,0,0,0,0,0,0,0,0,-1,1042,1380,0,0
-175,-356,0,0,0,0,0,0,0,0,0,-1,1049,1380,0,0
-168,-356,0,0,0,0,0,0,0,0,0,-1,1056,1380,0,0
-161,-356,0,0,0,0,0,0,0,0,0,-1,1063,1380,0,0
-154,-356,0,0,0,0,0,0,0,0,0,-1,1070,1380,0,0
-147,-356,0,0,0,0,0,0,0,0,0,-1,1077,1380,0,0
-140,-356,0,0,0,0,0,0,0,0,0,-1,1084,1380,0,0
-133,-356,0,0,0,0,0,0,0,0,0,-1,1091,1380,0,0
-126,-356,0,0,0,0,0,0,0,0,0,-1,1098,1380,0,0
-119,-356,0,0,0,0,0,0,0,0,0,-1,1105,1380,0,0
-112,-356,0,0,0,0,0,0,0,0,0,-1,1112,1380,0,0
-105,-356,0,0,0,0,0,0,0,0,0,-1,1119,1380,0,0
-98,-356,0,0,0,0,0,0,0,0,0,-1,1126,1380,0,0
-91,-356,0,0,0,0,0,0,0,0,0,-1,1133,1380,0,0
-84,-356,0,0,0,0,0,0,0,0,0,-1,1140,1380,0,0
-77,-356,0,0,0,0,0,0,0,0,0,-1,1147,1380,0,0
-70,-356,0,0,0,0,0,0,0,0,0,-1,1154,1380,0,0
-63,-356,0,0,0,0,0,0,0,0,0,-1,1161,1380,0,0
-56,-356,0,0,0,0,0,0,0,0,0,-1,1168,1380,0,0
-49,-356,0,0,0,0,0,0,0,0,0,-1,1175,1380,0,0
-42,-356,0,0,0,0,0,0,0,0,0,-1,1182,1380,0,0
-35,-356,0,0,0,0,0,0,0,0,0,-1,1189,1380,0,0
-28,-356,0,0,0,0,0,0,0,0,0,-1,1196,1380,0,0
-21,-356,0,0,0,0,0,0,0,0,0,-1,1203,1380,0,0
-14,-356,0,0,0,0,0,0,0,0,0,-1,1210,1380,0,0
-7,-356,0,0,0,0,0,0,0,0,0,-1,1217,1380,0,0
0,-356,0,0,0,0,0,0,0,0,0,-1,1224,1380,0,0
7,-356,0,0,0,0,0,0,0,0,0,-1,1231,1380,0,0
14,-356,0,0,0,0,0,0,0,0,0,-1,1238,1380,0,0
21,-356,0,0,0,0,0,0,0,0,0,-1,1245,1380,0,0
28,-356,0,0,0,0,0,0,0,0,0,-1,1252,1380,0,0
35,-356,0,0,0,0,0,0,0,0,0,-1,1259,1380,0,0
42,-356,0,0,0,0,0,0,0,0,0,-1,1266,1380,0,0
49,-356,0,0,0,0,0,0,0,0,0,-1,1273,1380,0,0
56,-356,0,0,0,0,0,0,0,0,0,-1,1280,1380,0,0
63,-356,0,0,0,0,0,0,0,0,0,-1,1287,1380,0,0
70,-356,0,0,0,0,0,0,0,0,0,-1,1294,1380,0,0
77,-356,0,0,0,0,0,0,0,0,0,-1,1301,1380,0,0
84,-356,0,0,0,0,0,0,0,0,0,-1,1308,1380,0,0
91,-356,0,0,0,0,0,0,0,0,0,-1,1315,1380,0,0
98,-356,0,0,0,0,0,0,0,0,0,-1,1322,1380,0,0
105,-356,0,0,0,0,0,0,0,0,0,-1,1329,1380,0,0
112,-356,0,0,0,0,0,0,0,0,0,-1,1336,1380,0,0
119,-356,0,0,0,0,0,0,0,0,0,-1,1343,1380,0,0
126,-356,0,0,0,0,0,0,0,0,0,-1,1350,1380,0,0
133,-356,0,0,0,0,0,0,0,0,0,-1,1357,1380,0,0
140,-356,0,0,0,0,0,0,0,0,0,-1,1364,1380,0,0
147,-356,0,0,0,0,0,0,0,0,0,-1,1371,1380,0,0
154,-356,0,0,0,0,0,0,0,0,0,-1,1378,1380,0,0
161,-356,0,0,0,0,0,0,0,0,0,-1,1385,1380,0,0
168,-356,0,0,0,0,0,0,0,0,0,-1,1392,1380,0,0
175,-356,0,0,0,0,0,0,0,0,0,-1,1399,1380,0,0
182,-356,0,0,0,0,0,0,0,0,0,-1,1406,1380,0,0
189,-356,0,0,0,0,0,0,0,0,0,-1,1413,1380,0,0
196,-356,0,0,0,0,0,0,0,0,0,-1,1420,1380,0,0
203,-356,0,0,0,0,0,0,0,0,0,-1,1427,1380,0,0
210,-356,0,0,0,0,0,0,0,0,0,-1,1434,1380,0,0
217,-356,0,0,0,0,0,0,0,0,0,-1,1441,1380,0,0
224,-356,0,0,0,0,0,0,0,0,0,-1,1448,1380,0,0
231,-356,0,0,0,0,0,0,0,0,0,-1,1455,1380,0,0
238,-356,0,0,0,0,0,0,0,0,0,-1,1462,1380,0,0
245,-356,0,0,0,0,0,0,0,0,0,-1,1469,1380,0,0
252,-356,0,0,0,0,0,0,0,0,0,-1,1476,1380,0,0
259,-356,0,0,0,0,0,0,0,0,0,-1,1483,1380,0,0
266,-356,0,0,0,0,0,0,0,0,0,-1,1490,1380,0,0
273,-356,0,0,0,0,0,0,0,0,0,-1,1497,1380,0,0
280,-356,0,0,0,0,0,0,0,0,0,-1,1504,1380,0,0
287,-356,0,0,0,0,0,0,0,0,0,-1,1511,1380,0,0
294,-356,0,0,0,0,0,0,0,0,0,-1,1518,1380,0,0
301,-356,0,0,0,0,0,0,0,0,0,-1,1525,1380,0,0
308,-356,0,0,0,0,0,0,0,0,0,-1,1532,1380,0,0
315,-356,0,0,0,0,0,0,0,0,0,-1,1539,1380,0,0
322,-356,0,0,0,0,0,0,0,0,0,-1,1546,1380,0,0
329,-356,0,0,0,0,0,0,0,0,0,-1,1553,1380,0,0
336,-356,0,0,0,0,0,0,0,0,0,-1,1560,1380,0,0
343,-356,0,0,0,0,0,0,0,0,0,-1,1567,1380,0,0
350,-356,0,0,0,0,0,0,0,0,0,-1,1574,1380,0,0
357,-356,0,0,0,0,0,0,0,0,0,-1,1581,1380,0,0
364,-356,0,0,0,0,0,0,0,0,0,-1,1588,1380,0,0
371,-356,0,0,0,0,0,0,0,0,0,-1,1595,1380,0,0
378,-356,0,0,0,0,0,0,0,0,0,-1,1602,1380,0,0
385,-356,0,0,0,0,0,0,0,0,0,-1,1609,1380,0,0
392,-356,0,0,0,0,0,0,0,0,0,-1,1616,1380,0,0
399,-356,0,0,0,0,0,0,0,0,0,-1,1623,1380,0,0
406,-356,0,0,0,0,0,0,0,0,0,-1,1630,1380,0,0
413,-356,0,0,0,0,0,0,0,0,0,-1,1637,1380,0,0
420,-356,0,0,0,0,0,0,0,0,0,-1,1644,1380,0,0
427,-356,0,0,0,0,0,0,0,0,0,-1,1651,1380,0,0
434,-356,0,0,0,0,0,0,0,0,0,-1,1658,1380,0,0
441,-356,0,0,0,0,0,0,0,0,0,-1,1665,1380,0,0
448,-356,0,0,0,0,0,0,0,0,0,-1,1672,1380,0,0
455,-356,0,0,0,0,0,0,0,0,0,-1,1679,1380,0,0
462,-356,0,0,0,0,0,0,0,0,0,-1,1686,1380,0,0
469,-356,0,0,0,0,0,0,0,0,0,-1,1693,1380,0,0
476,-356,0,0,0,0,0,0,0,0,0,-1,1700,1380,0,0
483,-356,0,0,0,0,0,0,0,0,0,-1,1707,1380,0,0
490,-356,0,0,0,0,0,0,0,0,0,-1,1714,1380,0,0
497,-356,0,0,0,0,0,0,0,0,0,-1,1721,1380,0,0
504,-356,0,0,0,0,0,0,0,0,0,-1,1728,1380,0,0
511,-356,0,0,0,0,0,0,0,0,0,-1,1735,1380,0,0
518,-356,0,0,0,0,0,0,0,0,0,-1,1742,1380,0,0
525,-356,0,0,0,0,0,0,0,0,0,-1,1749,1380,0,0
532,-356,0,0,0,0,0,0,0,0,0,-1,1756,1380,0,0
539,-356,0,0,0,0,0,0,0,0,0,-1,1763,1380,0,0
546,-356,0,0,0,0,0,0,0,0,0,-1,1770,1380,0,0
553,-356,0,0,0,0,0,0,0,0,0,-1,1777,1380,0,0
560,-356,45.7938,3.65295,0,0,0,0,0,0,0,-1,1784,1380,45.7938,-3.65294
567,-356,45.6788,3.51428,0,0,0,0,0,0,0,-1,1791,1380,45.6788,-3.51422
574,-356,45.5742,3.39575,0,0,0,0,0,0,0,-1,1798,1380,45.5742,-3.39574
581,-356,45.6708,3.64172,0,0,0,0,0,0,0,-1,1805,1380,45.6707,-3.64175
588,-356,44.4739,4.87085,0,0,0,0,0,0,0,-1,1812,1380,44.4739,-4.87086
595,-356,32.0834,5.86084,0,0,0,0,0,0,0,-1,1819,1380,32.0834,-5.86079
602,-356,30.1604,6.07104,0,0,0,0,0,0,0,-1,1826,1380,30.1604,-6.07104
609,-356,28.3435,6.48901,0,0,0,0,0,0,0,-1,1833,1380,28.3435,-6.48899
616,-356,26.9358,6.80872,0,0,0,0,0,0,0,-1,1840,1380,26.9358,-6.80877
623,-356,16.1803,1.07532,0,0,0,0,0,0,0,-1,1847,1380,16.1803,-1.07529
630,-356,16.4138,6.91553,0,0,0,0,0,0,0,-1,1854,1380,16.4138,-6.9155
637,-356,24.8021,12.0151,0,0,0,0,0,0,0,-1,1861,1380,24.8022,-12.0151
644,-356,38.1759,17.3428,0,0,0,0,0,0,0,-1,1868,1380,38.1759,-17.3428
651,-356,38.1293,16.5867,-0.00165275,0.000314162,0.00011576,0.000320951,-0.00165954,1.51221,0.00122741,0.0199985,1875,1380,38.1292,-16.5866
658,-356,38.0441,15.8843,-0.00100248,0.000117502,0.000206301,0.000154294,-0.00103928,1.39431,0.000749594,0.0148335,1882,1380,38.0441,-15.8843
665,-356,38.0005,15.2942,-0.000222172,-2.89208e-05,0.000184926,8.31024e-05,-0.000334195,1.02614,0.000255051,0.0146231,1889,1380,38.0004,-15.2941
672,-356,37.9722,14.7021,0.000613943,-7.63148e-05,0.000127809,0.000636848,-9.92199e-05,0.177331,0.00046121,0.0156023,1896,1380,37.9721,-14.7022
679,-356,37.9698,14.0442,0.00149688,-7.04631e-05,4.99926e-05,0.00149847,-7.2056e-05,0.0318533,0.00102384,0.0178062,1903,1380,37.9698,-14.0442
686,-356,37.9413,13.3391,0.00246217,1.90801e-05,-6.89415e-05,0.00246411,1.71361e-05,-0.0281891,0.00163706,0.0192375,1910,1380,37.9413,-13.3391
693,-356,37.9298,12.7062,0.00347645,0.000202346,-0.00020377,0.00348908,0.000189713,-0.0619184,0.00226547,0.017081,1917,1380,37.9299,-12.7062
700,-356,37.9193,12.0526,0.00456201,0.000547337,-0.000384279,0.00459847,0.000510885,-0.0945743,0.00291033,0.0238645,1924,1380,37.9193,-12.0526
707,-356,38.0062,11.3998,0,0,0,0,0,0,0,-1,1931,1380,38.0062,-11.3998
714,-356,19.6907,5.82129,0,0,0,0,0,0,0,-1,1938,1380,19.6907,-5.82132
721,-356,17.2948,4.1958,0,0,0,0,0,0,0,-1,1945,1380,17.2948,-4.19584
728,-356,19.1846,2.31519,0,0,0,0,0,0,0,-1,1952,1380,19.1846,-2.31514
735,-356,20.0731,2.50842,0,0,0,0,0,0,0,-1,1959,1380,20.0731,-2.50844
742,-356,21.0111,2.43762,0,0,0,0,0,0,0,-1,1966,1380,21.0112,-2.43762
749,-356,22.1411,1.83276,0,0,0,0,0,0,0,-1,1973,1380,22.1411,-1.83275
756,-356,0,0,0,0,0,0,0,0,0,-1,1980,1380,0,0
763,-356,0,0,0,0,0,0,0,0,0,-1,1987,1380,0,0
770,-356,0,0,0,0,0,0,0,0,0,-1,1994,1380,0,0
777,-356,0,0,0,0,0,0,0,0,0,-1,2001,1380,0,0
784,-356,0,0,0,0,0,0,0,0,0,-1,2008,1380,0,0
791,-356,0,0,0,0,0,0,0,0,0,-1,2015,1380,0,0
798,-356,0,0,0,0,0,0,0,0,0,-1,2022,1380,0,0
805,-356,0,0,0,0,0,0,0,0,0,-1,2029,1380,0,0
812,-356,0,0,0,0,0,0,0,0,0,-1,2036,1380,0,0
-700,-363,0,0,0,0,0,0,0,0,0,-1,524,1387,0,0
-693,-363,0,0,0,0,0,0,0,0,0,-1,531,1387,0,0
-686,-363,0,0,0,0,0,0,0,0,0,-1,538,1387,0,0
-679,-363,0,0,0,0,0,0,0,0,0,-1,545,1387,0,0
-672,-363,0,0,0,0,0,0,0,0,0,-1,552,1387,0,0
-665,-363,0,0,0,0,0,0,0,0,0,-1,559,1387,0,0
-658,-363,0,0,0,0,0,0,0,0,0,-1,566,1387,0,0
-651,-363,0,0,0,0,0,0,0,0,0,-1,573,1387,0,0
-644,-363,0,0,0,0,0,0,0,0,0,-1,580,1387,0,0
-637,-363,0,0,0,0,0,0,0,0,0,-1,587,1387,0,0
-630,-363,0,0,0,0,0,0,0,0,0,-1,594,1387,0,0
-623,-363,-9.67566,-5.91846,0,0,0,0,0,0,0,-1,601,1387,-9.67563,5.91847
-616,-363,-9.02985,-2.98083,0,0,0,0,0,0,0,-1,608,1387,-9.02987,2.98079
-609,-363,-4.90265,0.195679,0,0,0,0,0,0,0,-1,615,1387,-4.90263,-0.195721
-602,-363,-9.65009,3.5321,0,0,0,0,0,0,0,-1,622,1387,-9.65007,-3.53211
-595,-363,-8.00256,3.48853,0,0,0,0,0,0,0,-1,629,1387,-8.00256,-3.48855
-588,-363,-10.8846,4.49768,0,0,0,0,0,0,0,-1,636,1387,-10.8846,-4.49773
-581,-363,-11.7469,5.15161,0,0,0,0,0,0,0,-1,643,1387,-11.747,-5.15167
-574,-363,-17.8334,8.33801,0,0,0,0,0,0,0,-1,650,1387,-17.8334,-8.33804
-567,-363,-20.2304,10.3031,0,0,0,0,0,0,0,-1,657,1387,-20.2304,-10.3031
-560,-363,-20.2192,11.053,0.00512469,0.00292278,0.00292282,0.00714704,0.000900436,0.605279,0.00449471,0.0139104,664,1387,-20.2192,-11.053
-553,-363,-20.2339,11.7936,0.00439727,0.00208459,0.00232804,0.00584033,0.000641525,0.554896,0.0036983,0.0131837,671,1387,-20.234,-11.7936
-546,-363,-20.2648,12.4749,0.00378158,0.00141725,0.00185396,0.00479821,0.000400624,0.501579,0.00307398,0.0134302,678,1387,-20.2648,-12.4749
-539,-363,-20.2667,13.1891,0.00330397,0.000903916,0.0015023,0.0040267,0.00018119,0.448396,0.00262615,0.0151919,685,1387,-20.2667,-13.1891
-532,-363,-20.326,13.8955,0.00297769,0.00056551,0.00129663,0.00354244,7.51694e-07,0.41078,0.00236138,0.0132606,692,1387,-20.3261,-13.8956
-525,-363,-20.3569,14.5695,0.00280358,0.00034689,0.00121346,0.00330188,-0.000151414,0.389651,0.00225342,0.0121005,699,1387,-20.3569,-14.5695
-518,-363,-20.3638,15.272,0.00279312,0.000304963,0.00126688,0.00332463,-0.000226547,0.397239,0.00229567,0.0108579,706,1387,-20.3638,-15.2719
-511,-363,-20.3395,16.0074,0.00300879,0.000448487,0.00151655,0.00371326,-0.000255982,0.434863,0.00256509,0.0292323,713,1387,-20.3396,-16.0075
-504,-363,-20.2939,16.7693,0,0,0,0,0,0,0,-1,720,1387,-20.2939,-16.7693
-497,-363,-7.18842,7.29944,0,0,0,0,0,0,0,-1,727,1387,-7.18839,-7.29945
-490,-363,-5.42413,4.6958,0,0,0,0,0,0,0,-1,734,1387,-5.42412,-4.69583
-483,-363,-6.28375,4.1394,0,0,0,0,0,0,0,-1,741,1387,-6.28374,-4.13944
-476,-363,-5.83807,4.31018,0,0,0,0,0,0,0,-1,748,1387,-5.8381,-4.31013
-469,-363,-10.7125,0.697754,0,0,0,0,0,0,0,-1,755,1387,-10.7125,-0.697811
-462,-363,-9.55951,-0.0830078,0,0,0,0,0,0,0,-1,762,1387,-9.55949,0.0830163
-455,-363,-13.1008,-0.290894,0,0,0,0,0,0,0,-1,769,1387,-13.1008,0.290921
-448,-363,-11.7324,2.46606,0,0,0,0,0,0,0,-1,776,1387,-11.7324,-2.46605
-441,-363,-12.4464,2.5354,0,0,0,0,0,0,0,-1,783,1387,-12.4463,-2.53537
-434,-363,-13.6918,2.14661,0,0,0,0,0,0,0,-1,790,1387,-13.6918,-2.14662
-427,-363,0,0,0,0,0,0,0,0,0,-1,797,1387,0,0
-420,-363,0,0,0,0,0,0,0,0,0,-1,804,1387,0,0
-413,-363,0,0,0,0,0,0,0,0,0,-1,811,1387,0,0
-406,-363,0,0,0,0,0,0,0,0,0,-1,818,1387,0,0
-399,-363,0,0,0,0,0,0,0,0,0,-1,825,1387,0,0
-392,-363,0,0,0,0,0,0,0,0,0,-1,832,1387,0,0
-385,-363,0,0,0,0,0,0,0,0,0,-1,839,1387,0,0
-378,-363,0,0,0,0,0,0,0,0,0,-1,846,1387,0,0
-371,-363,0,0,0,0,0,0,0,0,0,-1,853,1387,0,0
-364,-363,0,0,0,0,0,0,0,0,0,-1,860,1387,0,0
-357,-363,0,0,0,0,0,0,0,0,0,-1,867,1387,0,0
-350,-363,0,0,0,0,0,0,0,0,0,-1,874,1387,0,0
-343,-363,0,0,0,0,0,0,0,0,0,-1,881,1387,0,0
-336,-363,0,0,0,0,0,0,0,0,0,-1,888,1387,0,0
-329,-363,0,0,0,0,0,0,0,0,0,-1,895,1387,0,0
-322,-363,0,0,0,0,0,0,0,0,0,-1,902,1387,0,0
-315,-363,0,0,0,0,0,0,0,0,0,-1,909,1387,0,0
-308,-363,0,0,0,0,0,0,0,0,0,-1,916,1387,0,0
-301,-363,0,0,0,0,0,0,0,0,0,-1,923,1387,0,0
-294,-363,0,0,0,0,0,0,0,0,0,-1,930,1387,0,0
-287,-363,0,0,0,0,0,0,0,0,0,-1,937,1387,0,0
-280,-363,0,0,0,0,0,0,0,0,0,-1,944,1387,0,0
-273,-363,0,0,0,0,0,0,0,0,0,-1,951,1387,0,0
-266,-363,0,0,0,0,0,0,0,0,0,-1,958,1387,0,0
-259,-363,0,0,0,0,0,0,0,0,0,-1,965,1387,0,0
-252,-363,0,0,0,0,0,0,0,0,0,-1,972,1387,0,0
-245,-363,0,0,0,0,0,0,0,0,0,-1,979,1387,0,0
-238,-363,0,0,0,0,0,0,0,0,0,-1,986,1387,0,0
-231,-363,0,0,0,0,0,0,0,0,0,-1,993,1387,0,0
-224,-363,0,0,0,0,0,0,0,0,0,-1,1000,1387,0,0
-217,-363,0,0,0,0,0,0,0,0,0,-1,1007,1387,0,0
-210,-363,0,0,0,0,0,0,0,0,0,-1,1014,1387,0,0
-203,-363,0,0,0,0,0,0,0,0,0,-1,1021,1387,0,0
-196,-363,0,0,0,0,0,0,0,0,0,-1,1028,1387,0,0
-189,-363,0,0,0,0,0,0,0,0,0,-1,1035,1387,0,0
-182,-363,0,0,0,0,0,0,0,0,0,-1,1042,1387,0,0
-175,-363,0,0,0,0,0,0,0,0,0,-1,1049,1387,0,0
-168,-363,0,0,0,0,0,0,0,0,0,-1,1056,1387,0,0
-161,-363,0,0,0,0,0,0,0,0,0,-1,1063,1387,0,0
-154,-363,0,0,0,0,0,0,0,0,0,-1,1070,1387,0,0
-147,-363,0,0,0,0,0,0,0,0,0,-1,1077,1387,0,0
-140,-363,0,0,0,0,0,0,0,0,0,-1,1084,1387,0,0
-133,-363,0,0,0,0,0,0,0,0,0,-1,1091,1387,0,0
-126,-363,0,0,0,0,0,0,0,0,0,-1,1098,1387,0,0
-119,-363,0,0,0,0,0,0,0,0,0,-1,1105,1387,0,0
-112,-363,0,0,0,0,0,0,0,0,0,-1,1112,1387,0,0
-105,-363,0,0,0,0,0,0,0,0,0,-1,1119,1387,0,0
-98,-363,0,0,0,0,0,0,0,0,0,-1,1126,1387,0,0
-91,-363,0,0,0,0,0,0,0,0,0,-1,1133,1387,0,0
-84,-363,0,0,0,0,0,0,0,0,0,-1,1140,1387,0,0
-77,-363,0,0,0,0,0,0,0,0,0,-1,1147,1387,0,0
-70,-363,0,0,0,0,0,0,0,0,0,-1,1154,1387,0,0
-63,-363,0,0,0,0,0,0,0,0,0,-1,1161,1387,0,0
-56,-363,0,0,0,0,0,0,0,0,0,-1,1168,1387,0,0
-49,-363,0,0,0,0,0,0,0,0,0,-1,1175,1387,0,0
-42,-363,0,0,0,0,0,0,0,0,0,-1,1182,1387,0,0
-35,-363,0,0,0,0,0,0,0,0,0,-1,1189,1387,0,0
-28,-363,0,0,0,0,0,0,0,0,0,-1,1196,1387,0,0
-21,-363,0,0,0,0,0,0,0,0,0,-1,1203,1387,0,0
-14,-363,0,0,0,0,0,0,0,0,0,-1,1210,1387,0,0
-7,-363,0,0,0,0,0,0,0,0,0,-1,1217,1387,0,0
0,-363,0,0,0,0,0,0,0,0,0,-1,1224,1387,0,0
7,-363,0,0,0,0,0,0,0,0,0,-1,1231,1387,0,0
14,-363,0,0,0,0,0,0,0,0,0,-1,1238,1387,0,0
21,-363,0,0,0,0,0,0,0,0,0,-1,1245,1387,0,0
28,-363,0,0,0,0,0,0,0,0,0,-1,1252,1387,0,0
35,-363,0,0,0,0,0,0,0,0,0,-1,1259,1387,0,0
42,-363,0,0,0,0,0,0,0,0,0,-1,1266,1387,0,0
49,-363,0,0,0,0,0,0,0,0,0,-1,1273,1387,0,0
56,-363,0,0,0,0,0,0,0,0,0,-1,1280,1387,0,0
63,-363,0,0,0,0,0,0,0,0,0,-1,1287,1387,0,0
70,-363,0,0,0,0,0,0,0,0,0,-1,1294,1387,0,0
77,-363,0,0,0,0,0,0,0,0,0,-1,1301,1387,0,0
84,-363,0,0,0,0,0,0,0,0,0,-1,1308,1387,0,0
91,-363,0,0,0,0,0,0,0,0,0,-1,1315,1387,0,0
98,-363,0,0,0,0,0,0,0,0,0,-1,1322,1387,0,0
105,-363,0,0,0,0,0,0,0,0,0,-1,1329,1387,0,0
112,-363,0,0,0,0,0,0,0,0,0,-1,1336,1387,0,0
119,-363,0,0,0,0,0,0,0,0,0,-1,1343,1387,0,0
126,-363,0,0,0,0,0,0,0,0,0,-1,1350,1387,0,0
133,-363,0,0,0,0,0,0,0,0,0,-1,1357,1387,0,0
140,-363,0,0,0,0,0,0,0,0,0,-1,1364,1387,0,0
147,-363,0,0,0,0,0,0,0,0,0,-1,1371,1387,0,0
154,-363,0,0,0,0,0,0,0,0,0,-1,1378,1387,0,0
161,-363,0,0,0,0,0,0,0,0,0,-1,1385,1387,0,0
168,-363,0,0,0,0,0,0,0,0,0,-1,1392,1387,0,0
175,-363,0,0,0,0,0,0,0,0,0,-1,1399,1387,0,0
182,-363,0,0,0,0,0,0,0,0,0,-1,1406,1387,0,0
189,-363,0,0,0,0,0,0,0,0,0,-1,1413,1387,0,0
196,-363,0,0,0,0,0,0,0,0,0,-1,1420,1387,0,0
203,-363,0,0,0,0,0,0,0,0,0,-1,1427,1387,0,0
210,-363,0,0,0,0,0,0,0,0,0,-1,1434,1387,0,0
217,-363,0,0,0,0,0,0,0,0,0,-1,1441,1387,0,0
224,-363,0,0,0,0,0,0,0,0,0,-1,1448,1387,0,0
231,-363,0,0,0,0,0,0,0,0,0,-1,1455,1387,0,0
238,-363,0,0,0,0,0,0,0,0,0,-1,1462,1387,0,0
245,-363,0,0,0,0,0,0,0,0,0,-1,1469,1387,0,0
252,-363,0,0,0,0,0,0,0,0,0,-1,1476,1387,0,0
259,-363,0,0,0,0,0,0,0,0,0,-1,1483,1387,0,0
266,-363,0,0,0,0,0,0,0,0,0,-1,1490,1387,0,0
273,-363,0,0,0,0,0,0,0,0,0,-1,1497,1387,0,0
280,-363,0,0,0,0,0,0,0,0,0,-1,1504,1387,0,0
287,-363,0,0,0,0,0,0,0,0,0,-1,1511,1387,0,0
294,-363,0,0,0,0,0,0,0,0,0,-1,1518,1387,0,0
301,-363,0,0,0,0,0,0,0,0,0,-1,1525,1387,0,0
308,-363,0,0,0,0,0,0,0,0,0,-1,1532,1387,0,0
315,-363,0,0,0,0,0,0,0,0,0,-1,1539,1387,0,0
322,-363,0,0,0,0,0,0,0,0,0,-1,1546,1387,0,0
329,-363,0,0,0,0,0,0,0,0,0,-1,1553,1387,0,0
336,-363,0,0,0,0,0,0,0,0,0,-1,1560,1387,0,0
343,-363,0,0,0,0,0,0,0,0,0,-1,1567,1387,0,0
350,-363,0,0,0,0,0,0,0,0,0,-1,1574,1387,0,0
357,-363,0,0,0,0,0,0,0,0,0,-1,1581,1387,0,0
364,-363,0,0,0,0,0,0,0,0,0,-1,1588,1387,0,0
371,-363,0,0,0,0,0,0,0,0,0,-1,1595,1387,0,0
378,-363,0,0,0,0,0,0,0,0,0,-1,1602,1387,0,0
385,-363,0,0,0,0,0,0,0,0,0,-1,1609,1387,0,0
392,-363,0,0,0,0,0,0,0,0,0,-1,1616,1387,0,0
399,-363,0,0,0,0,0,0,0,0,0,-1,1623,1387,0,0
406,-363,0,0,0,0,0,0,0,0,0,-1,1630,1387,0,0
413,-363,0,0,0,0,0,0,0,0,0,-1,1637,1387,0,0
420,-363,0,0,0,0,0,0,0,0,0,-1,1644,1387,0,0
427,-363,0,0,0,0,0,0,0,0,0,-1,1651,1387,0,0
434,-363,0,0,0,0,0,0,0,0,0,-1,1658,1387,0,0
441,-363,0,0,0,0,0,0,0,0,0,-1,1665,1387,0,0
448,-363,0,0,0,0,0,0,0,0,0,-1,1672,1387,0,0
455,-363,0,0,0,0,0,0,0,0,0,-1,1679,1387,0,0
462,-363,0,0,0,0,0,0,0,0,0,-1,1686,1387,0,0
469,-363,0,0,0,0,0,0,0,0,0,-1,1693,1387,0,0
476,-363,0,0,0,0,0,0,0,0,0,-1,1700,1387,0,0
483,-363,0,0,0,0,0,0,0,0,0,-1,1707,1387,0,0
490,-363,0,0,0,0,0,0,0,0,0,-1,1714,1387,0,0
497,-363,0,0,0,0,0,0,0,0,0,-1,1721,1387,0,0
504,-363,0,0,0,0,0,0,0,0,0,-1,1728,1387,0,0
511,-363,0,0,0,0,0,0,0,0,0,-1,1735,1387,0,0
518,-363,0,0,0,0,0,0,0,0,0,-1,1742,1387,0,0
525,-363,0,0,0,0,0,0,0,0,0,-1,1749,1387,0,0
532,-363,0,0,0,0,0,0,0,0,0,-1,1756,1387,0,0
539,-363,0,0,0,0,0,0,0,0,0,-1,1763,1387,0,0
546,-363,0,0,0,0,0,0,0,0,0,-1,1770,1387,0,0
553,-363,45.9076,3.64331,0,0,0,0,0,0,0,-1,1777,1387,45.9076,-3.64336
560,-363,45.9459,3.6875,0,0,0,0,0,0,0,-1,1784,1387,45.9459,-3.68756
567,-363,45.9266,3.32825,0,0,0,0,0,0,0,-1,1791,1387,45.9266,-3.32824
574,-363,45.7261,2.8075,0,0,0,0,0,0,0,-1,1798,1387,45.7261,-2.80754
581,-363,39.2413,1.97632,0,0,0,0,0,0,0,-1,1805,1387,39.2413,-1.97636
588,-363,32.5608,6.72131,0,0,0,0,0,0,0,-1,1812,1387,32.5608,-6.72131
595,-363,31.4688,6.95435,0,0,0,0,0,0,0,-1,1819,1387,31.4688,-6.95431
602,-363,25.7437,5.33667,0,0,0,0,0,0,0,-1,1826,1387,25.7437,-5.33667
609,-363,27.7048,7.06885,0,0,0,0,0,0,0,-1,1833,1387,27.7048,-7.06882
616,-363,16.229,1.08704,0,0,0,0,0,0,0,-1,1840,1387,16.229,-1.08706
623,-363,15.7283,7.16663,0,0,0,0,0,0,0,-1,1847,1387,15.7282,-7.16665
630,-363,18.3192,9.27844,0,0,0,0,0,0,0,-1,1854,1387,18.3192,-9.27843
637,-363,37.4033,18.1814,0,0,0,0,0,0,0,-1,1861,1387,37.4034,-18.1814
644,-363,37.4355,17.375,-0.00131219,0.000581191,-0.000147738,0.000592649,-0.00132365,-1.49339,0.00113289,0.018757,1868,1387,37.4356,-17.375
651,-363,37.4327,16.6423,-0.00115806,0.000197556,0.000121713,0.000208397,-0.0011689,1.48196,0.000857218,0.0116108,1875,1387,37.4327,-16.6424
658,-363,37.4028,15.98,-0.000568996,3.37151e-05,0.000210013,9.96747e-05,-0.000634956,1.26648,0.000460142,0.0116463,1882,1387,37.4028,-15.98
665,-363,37.3619,15.3666,0.000144185,-8.90078e-05,0.000224423,0.000280493,-0.000225316,0.54582,0.000292607,0.0117564,1889,1387,37.362,-15.3666
672,-363,37.3285,14.7242,0.000954806,-0.000147943,0.000209348,0.000993212,-0.000186349,0.181436,0.000732205,0.0139513,1896,1387,37.3285,-14.7243
679,-363,37.2969,14.0626,0.00185704,-0.000138615,0.000157714,0.00186942,-0.000151002,0.0783805,0.00129954,0.0154307,1903,1387,37.2969,-14.0626
686,-363,37.2538,13.4041,0.00288007,-4.89814e-05,5.42783e-05,0.00288108,-4.99868e-05,0.0185225,0.0019376,0.0146678,1910,1387,37.2537,-13.404
693,-363,37.2411,12.7334,0.0039988,0.000167644,-9.26674e-05,0.00400104,0.000165404,-0.024169,0.00261397,0.0139684,1917,1387,37.2411,-12.7334
700,-363,37.3827,12.0129,0.00527459,0.00062629,-0.000351972,0.00530109,0.000599789,-0.0751495,0.00335206,0.0293777,1924,1387,37.3827,-12.013
707,-363,37.6543,11.3477,0,0,0,0,0,0,0,-1,1931,1387,37.6542,-11.3476
714,-363,16.5782,5.3147,0,0,0,0,0,0,0,-1,1938,1387,16.5783,-5.31472
721,-363,14.4045,4.51685,0,0,0,0,0,0,0,-1,1945,1387,14.4045,-4.51685
728,-363,19.9756,0.853027,0,0,0,0,0,0,0,-1,1952,1387,19.9756,-0.853059
735,-363,21.4297,1.2981,0,0,0,0,0,0,0,-1,1959,1387,21.4297,-1.29811
742,-363,21.3621,2.79663,0,0,0,0,0,0,0,-1,1966,1387,21.362,-2.7966
749,-363,0,0,0,0,0,0,0,0,0,-1,1973,1387,0,0
756,-363,0,0,0,0,0,0,0,0,0,-1,1980,1387,0,0
763,-363,0,0,0,0,0,0,0,0,0,-1,1987,1387,0,0
770,-363,0,0,0,0,0,0,0,0,0,-1,1994,1387,0,0
777,-363,0,0,0,0,0,0,0,0,0,-1,2001,1387,0,0
784,-363,0,0,0,0,0,0,0,0,0,-1,2008,1387,0,0
791,-363,0,0,0,0,0,0,0,0,0,-1,2015,1387,0,0
798,-363,0,0,0,0,0,0,0,0,0,-1,2022,1387,0,0
805,-363,0,0,0,0,0,0,0,0,0,-1,2029,1387,0,0
812,-363,0,0,0,0,0,0,0,0,0,-1,2036,1387,0,0
-700,-370,0,0,0,0,0,0,0,0,0,-1,524,1394,0,0
-693,-370,0,0,0,0,0,0,0,0,0,-1,531,1394,0,0
-686,-370,0,0,0,0,0,0,0,0,0,-1,538,1394,0,0
-679,-370,0,0,0,0,0,0,0,0,0,-1,545,1394,0,0
-672,-370,0,0,0,0,0,0,0,0,0,-1,552,1394,0,0
-665,-370,0,0,0,0,0,0,0,0,0,-1,559,1394,0,0
-658,-370,0,0,0,0,0,0,0,0,0,-1,566,1394,0,0
-651,-370,0,0,0,0,0,0,0,0,0,-1,573,1394,0,0
-644,-370,0,0,0,0,0,0,0,0,0,-1,580,1394,0,0
-637,-370,0,0,0,0,0,0,0,0,0,-1,587,1394,0,0
-630,-370,0,0,0,0,0,0,0,0,0,-1,594,1394,0,0
-623,-370,-10.1758,-7.10486,0,0,0,0,0,0,0,-1,601,1394,-10.1758,7.10483
-616,-370,-8.85925,-1.61475,0,0,0,0,0,0,0,-1,608,1394,-8.85925,1.61476
-609,-370,-5.39325,0.0421143,0,0,0,0,0,0,0,-1,615,1394,-5.39328,-0.0421372
-602,-370,-12.3151,3.44592,0,0,0,0,0,0,0,-1,622,1394,-12.3151,-3.44595
-595,-370,-7.53284,5.44214,0,0,0,0,0,0,0,-1,629,1394,-7.53284,-5.44216
-588,-370,-11.2422,4.50598,0,0,0,0,0,0,0,-1,636,1394,-11.2422,-4.50596
-581,-370,-13.1575,5.84888,0,0,0,0,0,0,0,-1,643,1394,-13.1575,-5.84887
-574,-370,-13.0107,6.69861,0,0,0,0,0,0,0,-1,650,1394,-13.0108,-6.69866
-567,-370,-19.5951,10.2192,0,0,0,0,0,0,0,-1,657,1394,-19.5951,-10.2192
-560,-370,-19.6084,11.0289,0.00586503,0.00321224,0.00343631,0.00822205,0.000855226,0.601211,0.0052197,0.0331626,664,1394,-19.6084,-11.0289
-553,-370,-19.5468,11.8053,0.00497966,0.0023375,0.00270677,0.00667053,0.000646625,0.558371,0.00424791,0.011221,671,1394,-19.5468,-11.8053
-546,-370,-19.5543,12.509,0.00418275,0.0016314,0.00211239,0.00537478,0.000439376,0.513756,0.00344607,0.0152145,678,1394,-19.5543,-12.5091
-539,-370,-19.5359,13.2341,0.00352377,0.00109315,0.00165407,0.004361,0.000255917,0.468568,0.00282589,0.0191175,685,1394,-19.5359,-13.2341
-532,-370,-19.6124,13.9133,0.00302967,0.000729896,0.00135465,0.00365667,0.0001029,0.433486,0.00240421,0.0210635,692,1394,-19.6124,-13.9133
-525,-370,-19.6436,14.5963,0.00270126,0.000497483,0.00119517,0.00322497,-2.6233e-05,0.412993,0.00215878,0.0187001,699,1394,-19.6436,-14.5964
-518,-370,-19.661,15.2836,0.00254532,0.000417574,0.00117778,0.00306858,-0.000105688,0.418085,0.00208184,0.0134322,706,1394,-19.661,-15.2835
-511,-370,-19.6835,16.0265,0.00262338,0.000519992,0.00134293,0.00327742,-0.000134048,0.453213,0.00223097,0.0160115,713,1394,-19.6835,-16.0265
-504,-370,-19.702,16.7789,0,0,0,0,0,0,0,-1,720,1394,-19.702,-16.7789
-497,-370,-12.3546,11.7982,0,0,0,0,0,0,0,-1,727,1394,-12.3546,-11.7983
-490,-370,-5.30695,4.5271,0,0,0,0,0,0,0,-1,734,1394,-5.30698,-4.52704
-483,-370,-6.02997,4.59253,0,0,0,0,0,0,0,-1,741,1394,-6.02994,-4.5925
-476,-370,-6.75293,4.65796,0,0,0,0,0,0,0,-1,748,1394,-6.7529,-4.65795
-469,-370,-10.584,1.14294,0,0,0,0,0,0,0,-1,755,1394,-10.584,-1.14293
-462,-370,-9.54462,0.387207,0,0,0,0,0,0,0,-1,762,1394,-9.5446,-0.387176
-455,-370,-8.50525,-0.36853,0,0,0,0,0,0,0,-1,769,1394,-8.50523,0.368582
-448,-370,-10.9543,2.28833,0,0,0,0,0,0,0,-1,776,1394,-10.9543,-2.28835
-441,-370,-11.8699,1.8313,0,0,0,0,0,0,0,-1,783,1394,-11.8699,-1.83127
-434,-370,-12.7855,1.37415,0,0,0,0,0,0,0,-1,790,1394,-12.7855,-1.37419
-427,-370,0,0,0,0,0,0,0,0,0,-1,797,1394,0,0
-420,-370,0,0,0,0,0,0,0,0,0,-1,804,1394,0,0
-413,-370,0,0,0,0,0,0,0,0,0,-1,811,1394,0,0
-406,-370,0,0,0,0,0,0,0,0,0,-1,818,1394,0,0
-399,-370,0,0,0,0,0,0,0,0,0,-1,825,1394,0,0
-392,-370,0,0,0,0,0,0,0,0,0,-1,832,1394,0,0
-385,-370,0,0,0,0,0,0,0,0,0,-1,839,1394,0,0
-378,-370,0,0,0,0,0,0,0,0,0,-1,846,1394,0,0
-371,-370,0,0,0,0,0,0,0,0,0,-1,853,1394,0,0
-364,-370,0,0,0,0,0,0,0,0,0,-1,860,1394,0,0
-357,-370,0,0,0,0,0,0,0,0,0,-1,867,1394,0,0
-350,-370,0,0,0,0,0,0,0,0,0,-1,874,1394,0,0
-343,-370,0,0,0,0,0,0,0,0,0,-1,881,1394,0,0
-336,-370,0,0,0,0,0,0,0,0,0,-1,888,1394,0,0
-329,-370,0,0,0,0,0,0,0,0,0,-1,895,1394,0,0
-322,-370,0,0,0,0,0,0,0,0,0,-1,902,1394,0,0
-315,-370,0,0,0,0,0,0,0,0,0,-1,909,1394,0,0
-308,-370,0,0,0,0,0,0,0,0,0,-1,916,1394,0,0
-301,-370,0,0,0,0,0,0,0,0,0,-1,923,1394,0,0
-294,-370,0,0,0,0,0,0,0,0,0,-1,930,1394,0,0
-287,-370,0,0,0,0,0,0,0,0,0,-1,937,1394,0,0
-280,-370,0,0,0,0,0,0,0,0,0,-1,944,1394,0,0
-273,-370,0,0,0,0,0,0,0,0,0,-1,951,1394,0,0
-266,-370,0,0,0,0,0,0,0,0,0,-1,958,1394,0,0
-259,-370,0,0,0,0,0,0,0,0,0,-1,965,1394,0,0
-252,-370,0,0,0,0,0,0,0,0,0,-1,972,1394,0,0
-245,-370,0,0,0,0,0,0,0,0,0,-1,979,1394,0,0
-238,-370,0,0,0,0,0,0,0,0,0,-1,986,1394,0,0
-231,-370,0,0,0,0,0,0,0,0,0,-1,993,1394,0,0
-224,-370,0,0,0,0,0,0,0,0,0,-1,1000,1394,0,0
-217,-370,0,0,0,0,0,0,0,0,0,-1,1007,1394,0,0
-210,-370,0,0,0,0,0,0,0,0,0,-1,1014,1394,0,0
-203,-370,0,0,0,0,0,0,0,0,0,-1,1021,1394,0,0
-196,-370,0,0,0,0,0,0,0,0,0,-1,1028,1394,0,0
-189,-370,0,0,0,0,0,0,0,0,0,-1,1035,1394,0,0
-182,-370,0,0,0,0,0,0,0,0,0,-1,1042,1394,0,0
-175,-370,0,0,0,0,0,0,0,0,0,-1,1049,1394,0,0
-168,-370,0,0,0,0,0,0,0,0,0,-1,1056,1394,0,0
-161,-370,0,0,0,0,0,0,0,0,0,-1,1063,1394,0,0
-154,-370,0,0,0,0,0,0,0,0,0,-1,1070,1394,0,0
-147,-370,0,0,0,0,0,0,0,0,0,-1,1077,1394,0,0
-140,-370,0,0,0,0,0,0,0,0,0,-1,1084,1394,0,0
-133,-370,0,0,0,0,0,0,0,0,0,-1,1091,1394,0,0
-126,-370,0,0,0,0,0,0,0,0,0,-1,1098,1394,0,0
-119,-370,0,0,0,0,0,0,0,0,0,-1,1105,1394,0,0
-112,-370,0,0,0,0,0,0,0,0,0,-1,1112,1394,0,0
-105,-370,0,0,0,0,0,0,0,0,0,-1,1119,1394,0,0
-98,-370,0,0,0,0,0,0,0,0,0,-1,1126,1394,0,0
-91,-370,0,0,0,0,0,0,0,0,0,-1,1133,1394,0,0
-84,-370,0,0,0,0,0,0,0,0,0,-1,1140,1394,0,0
-77,-370,0,0,0,0,0,0,0,0,0,-1,1147,1394,0,0
-70,-370,0,0,0,0,0,0,0,0,0,-1,1154,1394,0,0
-63,-370,0,0,0,0,0,0,0,0,0,-1,1161,1394,0,0
-56,-370,0,0,0,0,0,0,0,0,0,-1,1168,1394,0,0
-49,-370,0,0,0,0,0,0,0,0,0,-1,1175,1394,0,0
-42,-370,0,0,0,0,0,0,0,0,0,-1,1182,1394,0,0
-35,-370,0,0,0,0,0,0,0,0,0,-1,1189,1394,0,0
-28,-370,0,0,0,0,0,0,0,0,0,-1,1196,1394,0,0
-21,-370,0,0,0,0,0,0,0,0,0,-1,1203,1394,0,0
-14,-370,0,0,0,0,0,0,0,0,0,-1,1210,1394,0,0
-7,-370,0,0,0,0,0,0,0,0,0,-1,1217,1394,0,0
0,-370,0,0,0,0,0,0,0,0,0,-1,1224,1394,0,0
7,-370,0,0,0,0,0,0,0,0,0,-1,1231,1394,0,0
14,-370,0,0,0,0,0,0,0,0,0,-1,1238,1394,0,0
21,-370,0,0,0,0,0,0,0,0,0,-1,1245,1394,0,0
28,-370,0,0,0,0,0,0,0,0,0,-1,1252,1394,0,0
35,-370,0,0,0,0,0,0,0,0,0,-1,1259,1394,0,0
42,-370,0,0,0,0,0,0,0,0,0,-1,1266,1394,0,0
49,-370,0,0,0,0,0,0,0,0,0,-1,1273,1394,0,0
56,-370,0,0,0,0,0,0,0,0,0,-1,1280,1394,0,0
63,-370,0,0,0,0,0,0,0,0,0,-1,1287,1394,0,0
70,-370,0,0,0,0,0,0,0,0,0,-1,1294,1394,0,0
77,-370,0,0,0,0,0,0,0,0,0,-1,1301,1394,0,0
84,-370,0,0,0,0,0,0,0,0,0,-1,1308,1394,0,0
91,-370,0,0,0,0,0,0,0,0,0,-1,1315,1394,0,0
98,-370,0,0,0,0,0,0,0,0,0,-1,1322,1394,0,0
105,-370,0,0,0,0,0,0,0,0,0,-1,1329,1394,0,0
112,-370,0,0,0,0,0,0,0,0,0,-1,1336,1394,0,0
119,-370,0,0,0,0,0,0,0,0,0,-1,1343,1394,0,0
126,-370,0,0,0,0,0,0,0,0,0,-1,1350,1394,0,0
133,-370,0,0,0,0,0,0,0,0,0,-1,1357,1394,0,0
140,-370,0,0,0,0,0,0,0,0,0,-1,1364,1394,0,0
147,-370,0,0,0,0,0,0,0,0,0,-1,1371,1394,0,0
154,-370,0,0,0,0,0,0,0,0,0,-1,1378,1394,0,0
161,-370,0,0,0,0,0,0,0,0,0,-1,1385,1394,0,0
168,-370,0,0,0,0,0,0,0,0,0,-1,1392,1394,0,0
175,-370,0,0,0,0,0,0,0,0,0,-1,1399,1394,0,0
182,-370,0,0,0,0,0,0,0,0,0,-1,1406,1394,0,0
189,-370,0,0,0,0,0,0,0,0,0,-1,1413,1394,0,0
196,-370,0,0,0,0,0,0,0,0,0,-1,1420,1394,0,0
203,-370,0,0,0,0,0,0,0,0,0,-1,1427,1394,0,0
210,-370,0,0,0,0,0,0,0,0,0,-1,1434,1394,0,0
217,-370,0,0,0,0,0,0,0,0,0,-1,1441,1394,0,0
224,-370,0,0,0,0,0,0,0,0,0,-1,1448,1394,0,0
231,-370,0,0,0,0,0,0,0,0,0,-1,1455,1394,0,0
238,-370,0,0,0,0,0,0,0,0,0,-1,1462,1394,0,0
245,-370,0,0,0,0,0,0,0,0,0,-1,1469,1394,0,0
252,-370,0,0,0,0,0,0,0,0,0,-1,1476,1394,0,0
259,-370,0,0,0,0,0,0,0,0,0,-1,1483,1394,0,0
266,-370,0,0,0,0,0,0,0,0,0,-1,1490,1394,0,0
273,-370,0,0,0,0,0,0,0,0,0,-1,1497,1394,0,0
280,-370,0,0,0,0,0,0,0,0,0,-1,1504,1394,0,0
287,-370,0,0,0,0,0,0,0,0,0,-1,1511,1394,0,0
294,-370,0,0,0,0,0,0,0,0,0,-1,1518,1394,0,0
301,-370,0,0,0,0,0,0,0,0,0,-1,1525,1394,0,0
308,-370,0,0,0,0,0,0,0,0,0,-1,1532,1394,0,0
315,-370,0,0,0,0,0,0,0,0,0,-1,1539,1394,0,0
322,-370,0,0,0,0,0,0,0,0,0,-1,1546,1394,0,0
329,-370,0,0,0,0,0,0,0,0,0,-1,1553,1394,0,0
336,-370,0,0,0,0,0,0,0,0,0,-1,1560,1394,0,0
343,-370,0,0,0,0,0,0,0,0,0,-1,1567,1394,0,0
350,-370,0,0,0,0,0,0,0,0,0,-1,1574,1394,0,0
357,-370,0,0,0,0,0,0,0,0,0,-1,1581,1394,0,0
364,-370,0,0,0,0,0,0,0,0,0,-1,1588,1394,0,0
371,-370,0,0,0,0,0,0,0,0,0,-1,1595,1394,0,0
378,-370,0,0,0,0,0,0,0,0,0,-1,1602,1394,0,0
385,-370,0,0,0,0,0,0,0,0,0,-1,1609,1394,0,0
392,-370,0,0,0,0,0,0,0,0,0,-1,1616,1394,0,0
399,-370,0,0,0,0,0,0,0,0,0,-1,1623,1394,0,0
406,-370,0,0,0,0,0,0,0,0,0,-1,1630,1394,0,0
413,-370,0,0,0,0,0,0,0,0,0,-1,1637,1394,0,0
420,-370,0,0,0,0,0,0,0,0,0,-1,1644,1394,0,0
427,-370,0,0,0,0,0,0,0,0,0,-1,1651,1394,0,0
434,-370,0,0,0,0,0,0,0,0,0,-1,1658,1394,0,0
441,-370,0,0,0,0,0,0,0,0,0,-1,1665,1394,0,0
448,-370,0,0,0,0,0,0,0,0,0,-1,1672,1394,0,0
455,-370,0,0,0,0,0,0,0,0,0,-1,1679,1394,0,0
462,-370,0,0,0,0,0,0,0,0,0,-1,1686,1394,0,0
469,-370,0,0,0,0,0,0,0,0,0,-1,1693,1394,0,0
476,-370,0,0,0,0,0,0,0,0,0,-1,1700,1394,0,0
483,-370,0,0,0,0,0,0,0,0,0,-1,1707,1394,0,0
490,-370,0,0,0,0,0,0,0,0,0,-1,1714,1394,0,0
497,-370,0,0,0,0,0,0,0,0,0,-1,1721,1394,0,0
504,-370,0,0,0,0,0,0,0,0,0,-1,1728,1394,0,0
511,-370,0,0,0,0,0,0,0,0,0,-1,1735,1394,0,0
518,-370,0,0,0,0,0,0,0,0,0,-1,1742,1394,0,0
525,-370,0,0,0,0,0,0,0,0,0,-1,1749,1394,0,0
532,-370,0,0,0,0,0,0,0,0,0,-1,1756,1394,0,0
539,-370,0,0,0,0,0,0,0,0,0,-1,1763,1394,0,0
546,-370,27.4949,2.81201,0,0,0,0,0,0,0,-1,1770,1394,27.4948,-2.81198
553,-370,26.5985,1.99329,0,0,0,0,0,0,0,-1,1777,1394,26.5985,-1.99327
560,-370,46.0132,3.65686,0,0,0,0,0,0,0,-1,1784,1394,46.0132,-3.65689
567,-370,46.1089,3.11719,0,0,0,0,0,0,0,-1,1791,1394,46.1089,-3.1172
574,-370,38.8953,1.49353,0,0,0,0,0,0,0,-1,1798,1394,38.8952,-1.49348
581,-370,39.178,2.86145,0,0,0,0,0,0,0,-1,1805,1394,39.1779,-2.86145
588,-370,39.2102,4.27661,0,0,0,0,0,0,0,-1,1812,1394,39.2102,-4.27657
595,-370,25.793,4.5271,0,0,0,0,0,0,0,-1,1819,1394,25.793,-4.52711
602,-370,25.1077,5.34937,0,0,0,0,0,0,0,-1,1826,1394,25.1077,-5.34932
609,-370,16.712,0.993286,0,0,0,0,0,0,0,-1,1833,1394,16.7121,-0.99323
616,-370,16.7764,7.23315,0,0,0,0,0,0,0,-1,1840,1394,16.7764,-7.23313
623,-370,17.6625,8.94263,0,0,0,0,0,0,0,-1,1847,1394,17.6624,-8.94258
630,-370,20.9681,11.1785,0,0,0,0,0,0,0,-1,1854,1394,20.9681,-11.1784
637,-370,36.802,18.0081,0,0,0,0,0,0,0,-1,1861,1394,36.802,-18.008
644,-370,36.8109,17.3427,-0.00101486,0.000273005,-4.99354e-06,0.000273025,-0.00101488,-1.56692,0.000783612,0.0152989,1868,1394,36.8109,-17.3426
651,-370,36.7804,16.686,-0.000769528,2.16355e-05,0.000163461,5.40775e-05,-0.00080197,1.37487,0.000553554,0.0129656,1875,1394,36.7804,-16.686
658,-370,36.7476,16.0486,-0.000197355,-0.000100338,0.00022804,8.42958e-05,-0.000381989,0.890195,0.000286916,0.0125864,1882,1394,36.7476,-16.0486
665,-370,36.7128,15.4011,0.000486041,-0.000196902,0.000260469,0.000574042,-0.000284904,0.325816,0.000505191,0.0140641,1889,1394,36.7128,-15.4011
672,-370,36.6666,14.7302,0.0012817,-0.000263444,0.000286349,0.00133306,-0.000314803,0.177473,0.00101012,0.0153923,1896,1394,36.6667,-14.7303
679,-370,36.6696,14.0649,0.00219103,-0.000285593,0.000294527,0.00222557,-0.000320137,0.116754,0.00160113,0.0146866,1903,1394,36.6696,-14.065
686,-370,36.6271,13.4297,0.00325428,-0.000247928,0.000258894,0.00327332,-0.000266963,0.0733912,0.00227642,0.0148331,1910,1394,36.6271,-13.4297
693,-370,36.5725,12.7432,0.00445062,-8.9752e-05,0.000179545,0.0044577,-9.68408e-05,0.0394619,0.0030046,0.0143952,1917,1394,36.5726,-12.7432
700,-370,36.6941,11.9543,0.00589169,0.000321971,-4.01825e-05,0.00589198,0.000321681,-0.00721396,0.00382527,0.0437686,1924,1394,36.694,-11.9544
707,-370,36.9188,11.0868,0,0,0,0,0,0,0,-1,1931,1394,36.9188,-11.0868
714,-370,16.9116,5.93018,0,0,0,0,0,0,0,-1,1938,1394,16.9116,-5.93014
721,-370,17.2007,4.69153,0,0,0,0,0,0,0,-1,1945,1394,17.2007,-4.69158
728,-370,20.5315,-0.313354,0,0,0,0,0,0,0,-1,1952,1394,20.5315,0.313332
735,-370,22.3652,0.233398,0,0,0,0,0,0,0,-1,1959,1394,22.3652,-0.233355
742,-370,24.1989,0.780029,0,0,0,0,0,0,0,-1,1966,1394,24.1989,-0.780041
749,-370,0,0,0,0,0,0,0,0,0,-1,1973,1394,0,0
756,-370,0,0,0,0,0,0,0,0,0,-1,1980,1394,0,0
763,-370,0,0,0,0,0,0,0,0,0,-1,1987,1394,0,0
770,-370,0,0,0,0,0,0,0,0,0,-1,1994,1394,0,0
777,-370,0,0,0,0,0,0,0,0,0,-1,2001,1394,0,0
784,-370,0,0,0,0,0,0,0,0,0,-1,2008,1394,0,0
791,-370,0,0,0,0,0,0,0,0,0,-1,2015,1394,0,0
798,-370,0,0,0,0,0,0,0,0,0,-1,2022,1394,0,0
805,-370,0,0,0,0,0,0,0,0,0,-1,2029,1394,0,0
812,-370,0,0,0,0,0,0,0,0,0,-1,2036,1394,0,0
-700,-377,0,0,0,0,0,0,0,0,0,-1,524,1401,0,0
-693,-377,0,0,0,0,0,0,0,0,0,-1,531,1401,0,0
-686,-377,0,0,0,0,0,0,0,0,0,-1,538,1401,0,0
-679,-377,0,0,0,0,0,0,0,0,0,-1,545,1401,0,0
-672,-377,0,0,0,0,0,0,0,0,0,-1,552,1401,0,0
-665,-377,0,0,0,0,0,0,0,0,0,-1,559,1401,0,0
-658,-377,0,0,0,0,0,0,0,0,0,-1,566,1401,0,0
-651,-377,0,0,0,0,0,0,0,0,0,-1,573,1401,0,0
-644,-377,0,0,0,0,0,0,0,0,0,-1,580,1401,0,0
-637,-377,0,0,0,0,0,0,0,0,0,-1,587,1401,0,0
-630,-377,0,0,0,0,0,0,0,0,0,-1,594,1401,0,0
-623,-377,0,0,0,0,0,0,0,0,0,-1,601,1401,0,0
-616,-377,-9.43915,-2.4906,0,0,0,0,0,0,0,-1,608,1401,-9.43915,2.49062
-609,-377,-7.2821,-1.35278,0,0,0,0,0,0,0,-1,615,1401,-7.28208,1.35279
-602,-377,-14.9736,3.98279,0,0,0,0,0,0,0,-1,622,1401,-14.9737,-3.98276
-595,-377,-6.9082,1.18201,0,0,0,0,0,0,0,-1,629,1401,-6.90822,-1.18204
-588,-377,-12.8003,3.44751,0,0,0,0,0,0,0,-1,636,1401,-12.8003,-3.44754
-581,-377,-11.8243,6.21521,0,0,0,0,0,0,0,-1,643,1401,-11.8244,-6.21519
-574,-377,-12.2761,6.60547,0,0,0,0,0,0,0,-1,650,1401,-12.2761,-6.60552
-567,-377,-13.4844,7.41931,0,0,0,0,0,0,0,-1,657,1401,-13.4845,-7.41926
-560,-377,-18.8661,10.9253,0,0,0,0,0,0,0,-1,664,1401,-18.8662,-10.9252
-553,-377,-18.8694,11.803,0.00583805,0.0027185,0.00318903,0.00782832,0.000728232,0.557951,0.00499386,0.0169428,671,1401,-18.8694,-11.803
-546,-377,-18.89,12.5986,0.00476177,0.00194609,0.00245689,0.00618559,0.000522261,0.525227,0.00396114,0.0165296,678,1401,-18.89,-12.5986
-539,-377,-18.8439,13.2473,0.00386373,0.00136269,0.00188339,0.00487395,0.000352467,0.49233,0.00313842,0.0206282,685,1401,-18.8439,-13.2474
-532,-377,-18.9159,13.9081,0.00315986,0.000943698,0.00147555,0.00389707,0.000206494,0.463339,0.00253202,0.0206176,692,1401,-18.9159,-13.9081
-525,-377,-18.8774,14.6406,0.00265142,0.000671058,0.0012229,0.00323476,8.77257e-05,0.445084,0.00212787,0.0229082,699,1401,-18.8775,-14.6406
-518,-377,-18.9545,15.3363,0.00233738,0.000523727,0.00111245,0.00286577,-4.6714e-06,0.443439,0.00191208,0.0151582,706,1401,-18.9545,-15.3364
-511,-377,-18.9974,16.0498,0.00225723,0.000548155,0.00116555,0.00284794,-4.25579e-05,0.46908,0.00191297,0.012812,713,1401,-18.9974,-16.0499
-504,-377,-19.0421,16.7755,0.002482,0.000762865,0.00144042,0.00329983,-5.49618e-05,0.516385,0.00221843,0.0164299,720,1401,-19.0421,-16.7756
-497,-377,-19.0627,17.468,0,0,0,0,0,0,0,-1,727,1401,-19.0628,-17.468
-490,-377,-8.88409,10.1245,0,0,0,0,0,0,0,-1,734,1401,-8.8841,-10.1245
-483,-377,-5.6524,5.07324,0,0,0,0,0,0,0,-1,741,1401,-5.6524,-5.07325
-476,-377,-6.11682,5.10535,0,0,0,0,0,0,0,-1,748,1401,-6.11681,-5.10537
-469,-377,-10.3211,1.9281,0,0,0,0,0,0,0,-1,755,1401,-10.3211,-1.92808
-462,-377,-9.2204,1.0022,0,0,0,0,0,0,0,-1,762,1401,-9.22039,-1.00218
-455,-377,-8.11969,0.0762939,0,0,0,0,0,0,0,-1,769,1401,-8.11968,-0.0762759
-448,-377,-9.05334,0.877319,0,0,0,0,0,0,0,-1,776,1401,-9.05332,-0.877324
-441,-377,-11.212,0.763428,0,0,0,0,0,0,0,-1,783,1401,-11.212,-0.763415
-434,-377,-11.0984,0.996216,0,0,0,0,0,0,0,-1,790,1401,-11.0984,-0.996265
-427,-377,-11.1733,1.25732,0,0,0,0,0,0,0,-1,797,1401,-11.1733,-1.25732
-420,-377,0,0,0,0,0,0,0,0,0,-1,804,1401,0,0
-413,-377,0,0,0,0,0,0,0,0,0,-1,811,1401,0,0
-406,-377,0,0,0,0,0,0,0,0,0,-1,818,1401,0,0
-399,-377,0,0,0,0,0,0,0,0,0,-1,825,1401,0,0
-392,-377,0,0,0,0,0,0,0,0,0,-1,832,1401,0,0
-385,-377,0,0,0,0,0,0,0,0,0,-1,839,1401,0,0
-378,-377,0,0,0,0,0,0,0,0,0,-1,846,1401,0,0
-371,-377,0,0,0,0,0,0,0,0,0,-1,853,1401,0,0
-364,-377,0,0,0,0,0,0,0,0,0,-1,860,1401,0,0
-357,-377,0,0,0,0,0,0,0,0,0,-1,867,1401,0,0
-350,-377,0,0,0,0,0,0,0,0,0,-1,874,1401,0,0
-343,-377,0,0,0,0,0,0,0,0,0,-1,881,1401,0,0
-336,-377,0,0,0,0,0,0,0,0,0,-1,888,1401,0,0
-329,-377,0,0,0,0,0,0,0,0,0,-1,895,1401,0,0
-322,-377,0,0,0,0,0,0,0,0,0,-1,902,1401,0,0
-315,-377,0,0,0,0,0,0,0,0,0,-1,909,1401,0,0
-308,-377,0,0,0,0,0,0,0,0,0,-1,916,1401,0,0
-301,-377,0,0,0,0,0,0,0,0,0,-1,923,1401,0,0
-294,-377,0,0,0,0,0,0,0,0,0,-1,930,1401,0,0
-287,-377,0,0,0,0,0,0,0,0,0,-1,937,1401,0,0
-280,-377,0,0,0,0,0,0,0,0,0,-1,944,1401,0,0
-273,-377,0,0,0,0,0,0,0,0,0,-1,951,1401,0,0
-266,-377,0,0,0,0,0,0,0,0,0,-1,958,1401,0,0
-259,-377,0,0,0,0,0,0,0,0,0,-1,965,1401,0,0
-252,-377,0,0,0,0,0,0,0,0,0,-1,972,1401,0,0
-245,-377,0,0,0,0,0,0,0,0,0,-1,979,1401,0,0
-238,-377,0,0,0,0,0,0,0,0,0,-1,986,1401,0,0
-231,-377,0,0,0,0,0,0,0,0,0,-1,993,1401,0,0
-224,-377,0,0,0,0,0,0,0,0,0,-1,1000,1401,0,0
-217,-377,0,0,0,0,0,0,0,0,0,-1,1007,1401,0,0
-210,-377,0,0,0,0,0,0,0,0,0,-1,1014,1401,0,0
-203,-377,0,0,0,0,0,0,0,0,0,-1,1021,1401,0,0
-196,-377,0,0,0,0,0,0,0,0,0,-1,1028,1401,0,0
-189,-377,0,0,0,0,0,0,0,0,0,-1,1035,1401,0,0
-182,-377,0,0,0,0,0,0,0,0,0,-1,1042,1401,0,0
-175,-377,0,0,0,0,0,0,0,0,0,-1,1049,1401,0,0
-168,-377,0,0,0,0,0,0,0,0,0,-1,1056,1401,0,0
-161,-377,0,0,0,0,0,0,0,0,0,-1,1063,1401,0,0
-154,-377,0,0,0,0,0,0,0,0,0,-1,1070,1401,0,0
-147,-377,0,0,0,0,0,0,0,0,0,-1,1077,1401,0,0
-140,-377,0,0,0,0,0,0,0,0,0,-1,1084,1401,0,0
-133,-377,0,0,0,0,0,0,0,0,0,-1,1091,1401,0,0
-126,-377,0,0,0,0,0,0,0,0,0,-1,1098,1401,0,0
-119,-377,0,0,0,0,0,0,0,0,0,-1,1105,1401,0,0
-112,-377,0,0,0,0,0,0,0,0,0,-1,1112,1401,0,0
-105,-377,0,0,0,0,0,0,0,0,0,-1,1119,1401,0,0
-98,-377,0,0,0,0,0,0,0,0,0,-1,1126,1401,0,0
-91,-377,0,0,0,0,0,0,0,0,0,-1,1133,1401,0,0
-84,-377,0,0,0,0,0,0,0,0,0,-1,1140,1401,0,0
-77,-377,0,0,0,0,0,0,0,0,0,-1,1147,1401,0,0
-70,-377,0,0,0,0,0,0,0,0,0,-1,1154,1401,0,0
-63,-377,0,0,0,0,0,0,0,0,0,-1,1161,1401,0,0
-56,-377,0,0,0,0,0,0,0,0,0,-1,1168,1401,0,0
-49,-377,0,0,0,0,0,0,0,0,0,-1,1175,1401,0,0
-42,-377,0,0,0,0,0,0,0,0,0,-1,1182,1401,0,0
-35,-377,0,0,0,0,0,0,0,0,0,-1,1189,1401,0,0
-28,-377,0,0,0,0,0,0,0,0,0,-1,1196,1401,0,0
-21,-377,0,0,0,0,0,0,0,0,0,-1,1203,1401,0,0
-14,-377,0,0,0,0,0,0,0,0,0,-1,1210,1401,0,0
-7,-377,0,0,0,0,0,0,0,0,0,-1,1217,1401,0,0
0,-377,0,0,0,0,0,0,0,0,0,-1,1224,1401,0,0
7,-377,0,0,0,0,0,0,0,0,0,-1,1231,1401,0,0
14,-377,0,0,0,0,0,0,0,0,0,-1,1238,1401,0,0
21,-377,0,0,0,0,0,0,0,0,0,-1,1245,1401,0,0
28,-377,0,0,0,0,0,0,0,0,0,-1,1252,1401,0,0
35,-377,0,0,0,0,0,0,0,0,0,-1,1259,1401,0,0
42,-377,0,0,0,0,0,0,0,0,0,-1,1266,1401,0,0
49,-377,0,0,0,0,0,0,0,0,0,-1,1273,1401,0,0
56,-377,0,0,0,0,0,0,0,0,0,-1,1280,1401,0,0
63,-377,0,0,0,0,0,0,0,0,0,-1,1287,1401,0,0
70,-377,0,0,0,0,0,0,0,0,0,-1,1294,1401,0,0
77,-377,0,0,0,0,0,0,0,0,0,-1,1301,1401,0,0
84,-377,0,0,0,0,0,0,0,0,0,-1,1308,1401,0,0
91,-377,0,0,0,0,0,0,0,0,0,-1,1315,1401,0,0
98,-377,0,0,0,0,0,0,0,0,0,-1,1322,1401,0,0
105,-377,0,0,0,0,0,0,0,0,0,-1,1329,1401,0,0
112,-377,0,0,0,0,0,0,0,0,0,-1,1336,1401,0,0
119,-377,0,0,0,0,0,0,0,0,0,-1,1343,1401,0,0
126,-377,0,0,0,0,0,0,0,0,0,-1,1350,1401,0,0
133,-377,0,0,0,0,0,0,0,0,0,-1,1357,1401,0,0
140,-377,0,0,0,0,0,0,0,0,0,-1,1364,1401,0,0
147,-377,0,0,0,0,0,0,0,0,0,-1,1371,1401,0,0
154,-377,0,0,0,0,0,0,0,0,0,-1,1378,1401,0,0
161,-377,0,0,0,0,0,0,0,0,0,-1,1385,1401,0,0
168,-377,0,0,0,0,0,0,0,0,0,-1,1392,1401,0,0
175,-377,0,0,0,0,0,0,0,0,0,-1,1399,1401,0,0
182,-377,0,0,0,0,0,0,0,0,0,-1,1406,1401,0,0
189,-377,0,0,0,0,0,0,0,0,0,-1,1413,1401,0,0
196,-377,0,0,0,0,0,0,0,0,0,-1,1420,1401,0,0
203,-377,0,0,0,0,0,0,0,0,0,-1,1427,1401,0,0
210,-377,0,0,0,0,0,0,0,0,0,-1,1434,1401,0,0
217,-377,0,0,0,0,0,0,0,0,0,-1,1441,1401,0,0
224,-377,0,0,0,0,0,0,0,0,0,-1,1448,1401,0,0
231,-377,0,0,0,0,0,0,0,0,0,-1,1455,1401,0,0
238,-377,0,0,0,0,0,0,0,0,0,-1,1462,1401,0,0
245,-377,0,0,0,0,0,0,0,0,0,-1,1469,1401,0,0
252,-377,0,0,0,0,0,0,0,0,0,-1,1476,1401,0,0
259,-377,0,0,0,0,0,0,0,0,0,-1,1483,1401,0,0
266,-377,0,0,0,0,0,0,0,0,0,-1,1490,1401,0,0
273,-377,0,0,0,0,0,0,0,0,0,-1,1497,1401,0,0
280,-377,0,0,0,0,0,0,0,0,0,-1,1504,1401,0,0
287,-377,0,0,0,0,0,0,0,0,0,-1,1511,1401,0,0
294,-377,0,0,0,0,0,0,0,0,0,-1,1518,1401,0,0
301,-377,0,0,0,0,0,0,0,0,0,-1,1525,1401,0,0
308,-377,0,0,0,0,0,0,0,0,0,-1,1532,1401,0,0
315,-377,0,0,0,0,0,0,0,0,0,-1,1539,1401,0,0
322,-377,0,0,0,0,0,0,0,0,0,-1,1546,1401,0,0
329,-377,0,0,0,0,0,0,0,0,0,-1,1553,1401,0,0
336,-377,0,0,0,0,0,0,0,0,0,-1,1560,1401,0,0
343,-377,0,0,0,0,0,0,0,0,0,-1,1567,1401,0,0
350,-377,0,0,0,0,0,0,0,0,0,-1,1574,1401,0,0
357,-377,0,0,0,0,0,0,0,0,0,-1,1581,1401,0,0
364,-377,0,0,0,0,0,0,0,0,0,-1,1588,1401,0,0
371,-377,0,0,0,0,0,0,0,0,0,-1,1595,1401,0,0
378,-377,0,0,0,0,0,0,0,0,0,-1,1602,1401,0,0
385,-377,0,0,0,0,0,0,0,0,0,-1,1609,1401,0,0
392,-377,0,0,0,0,0,0,0,0,0,-1,1616,1401,0,0
399,-377,0,0,0,0,0,0,0,0,0,-1,1623,1401,0,0
406,-377,0,0,0,0,0,0,0,0,0,-1,1630,1401,0,0
413,-377,0,0,0,0,0,0,0,0,0,-1,1637,1401,0,0
420,-377,0,0,0,0,0,0,0,0,0,-1,1644,1401,0,0
427,-377,0,0,0,0,0,0,0,0,0,-1,1651,1401,0,0
434,-377,0,0,0,0,0,0,0,0,0,-1,1658,1401,0,0
441,-377,0,0,0,0,0,0,0,0,0,-1,1665,1401,0,0
448,-377,0,0,0,0,0,0,0,0,0,-1,1672,1401,0,0
455,-377,0,0,0,0,0,0,0,0,0,-1,1679,1401,0,0
462,-377,0,0,0,0,0,0,0,0,0,-1,1686,1401,0,0
469,-377,0,0,0,0,0,0,0,0,0,-1,1693,1401,0,0
476,-377,0,0,0,0,0,0,0,0,0,-1,1700,1401,0,0
483,-377,0,0,0,0,0,0,0,0,0,-1,1707,1401,0,0
490,-377,0,0,0,0,0,0,0,0,0,-1,1714,1401,0,0
497,-377,0,0,0,0,0,0,0,0,0,-1,1721,1401,0,0
504,-377,0,0,0,0,0,0,0,0,0,-1,1728,1401,0,0
511,-377,0,0,0,0,0,0,0,0,0,-1,1735,1401,0,0
518,-377,0,0,0,0,0,0,0,0,0,-1,1742,1401,0,0
525,-377,0,0,0,0,0,0,0,0,0,-1,1749,1401,0,0
532,-377,0,0,0,0,0,0,0,0,0,-1,1756,1401,0,0
539,-377,0,0,0,0,0,0,0,0,0,-1,1763,1401,0,0
546,-377,27.8485,2.34094,0,0,0,0,0,0,0,-1,1770,1401,27.8486,-2.34091
553,-377,27.2189,2.42493,0,0,0,0,0,0,0,-1,1777,1401,27.2188,-2.42498
560,-377,38.3577,-2.15015,0,0,0,0,0,0,0,-1,1784,1401,38.3576,2.1501
567,-377,38.4889,-0.285645,0,0,0,0,0,0,0,-1,1791,1401,38.4889,0.2857
574,-377,38.6221,1.61694,0,0,0,0,0,0,0,-1,1798,1401,38.6221,-1.61689
581,-377,39.1818,3.76367,0,0,0,0,0,0,0,-1,1805,1401,39.1818,-3.76366
588,-377,25.882,4.35217,0,0,0,0,0,0,0,-1,1812,1401,25.8819,-4.3522
595,-377,25.5392,5.11804,0,0,0,0,0,0,0,-1,1819,1401,25.5392,-5.11808
602,-377,24.816,5.79126,0,0,0,0,0,0,0,-1,1826,1401,24.816,-5.79124
609,-377,15.0223,4.76135,0,0,0,0,0,0,0,-1,1833,1401,15.0224,-4.76129
616,-377,14.1842,5.78992,0,0,0,0,0,0,0,-1,1840,1401,14.1842,-5.78987
623,-377,15.8248,8.76721,0,0,0,0,0,0,0,-1,1847,1401,15.8248,-8.76725
630,-377,35.2161,18.9797,0,0,0,0,0,0,0,-1,1854,1401,35.2161,-18.9797
637,-377,36.1747,18.0602,0,0,0,0,0,0,0,-1,1861,1401,36.1747,-18.0601
644,-377,36.1515,17.3787,-0.000618278,-4.17183e-05,0.000133484,-1.23139e-05,-0.000647682,1.35398,0.000427743,0.0137974,1868,1401,36.1515,-17.3787
651,-377,36.108,16.7072,-0.00031886,-0.000143761,0.00020786,-5.7649e-06,-0.000456856,0.98472,0.000302667,0.0140187,1875,1401,36.108,-16.7071
658,-377,36.0579,16.0686,0.000213144,-0.000199123,0.000246127,0.000328055,-0.000314034,0.436799,0.00037074,0.0158375,1882,1401,36.0579,-16.0687
665,-377,36.0522,15.4015,0.00084346,-0.000260102,0.000296442,0.000918049,-0.000334692,0.246499,0.000748954,0.0195588,1889,1401,36.0523,-15.4014
672,-377,36.0267,14.7261,0.00159643,-0.000331935,0.000376887,0.00166748,-0.000402978,0.186313,0.00126751,0.019116,1896,1401,36.0267,-14.7261
679,-377,35.9951,14.0886,0.00247725,-0.000395953,0.000473026,0.00255312,-0.000471826,0.159044,0.0018792,0.0184979,1903,1401,35.9952,-14.0886
686,-377,35.975,13.4783,0.00354367,-0.000438955,0.000557791,0.00362032,-0.000515602,0.136556,0.0026025,0.0167829,1910,1401,35.975,-13.4782
693,-377,35.991,12.7871,0.00478543,-0.000387668,0.000626941,0.00486033,-0.000462564,0.118899,0.0034049,0.0209859,1917,1401,35.9909,-12.7871
700,-377,36.2141,12.1797,0,0,0,0,0,0,0,-1,1924,1401,36.2142,-12.1797
707,-377,28.6234,9.18152,0,0,0,0,0,0,0,-1,1931,1401,28.6234,-9.18151
714,-377,16.5369,5.45959,0,0,0,0,0,0,0,-1,1938,1401,16.5369,-5.4596
721,-377,17.0913,5.42529,0,0,0,0,0,0,0,-1,1945,1401,17.0914,-5.42529
728,-377,14.5396,2.79724,0,0,0,0,0,0,0,-1,1952,1401,14.5396,-2.7972
735,-377,23.2977,-0.991089,0,0,0,0,0,0,0,-1,1959,1401,23.2978,0.991076
742,-377,0,0,0,0,0,0,0,0,0,-1,1966,1401,0,0
749,-377,0,0,0,0,0,0,0,0,0,-1,1973,1401,0,0
756,-377,0,0,0,0,0,0,0,0,0,-1,1980,1401,0,0
763,-377,0,0,0,0,0,0,0,0,0,-1,1987,1401,0,0
770,-377,0,0,0,0,0,0,0,0,0,-1,1994,1401,0,0
777,-377,0,0,0,0,0,0,0,0,0,-1,2001,1401,0,0
784,-377,0,0,0,0,0,0,0,0,0,-1,2008,1401,0,0
791,-377,0,0,0,0,0,0,0,0,0,-1,2015,1401,0,0
798,-377,0,0,0,0,0,0,0,0,0,-1,2022,1401,0,0
805,-377,0,0,0,0,0,0,0,0,0,-1,2029,1401,0,0
812,-377,0,0,0,0,0,0,0,0,0,-1,2036,1401,0,0
-700,-384,0,0,0,0,0,0,0,0,0,-1,524,1408,0,0
-693,-384,0,0,0,0,0,0,0,0,0,-1,531,1408,0,0
-686,-384,0,0,0,0,0,0,0,0,0,-1,538,1408,0,0
-679,-384,0,0,0,0,0,0,0,0,0,-1,545,1408,0,0
-672,-384,0,0,0,0,0,0,0,0,0,-1,552,1408,0,0
-665,-384,0,0,0,0,0,0,0,0,0,-1,559,1408,0,0
-658,-384,0,0,0,0,0,0,0,0,0,-1,566,1408,0,0
-651,-384,0,0,0,0,0,0,0,0,0,-1,573,1408,0,0
-644,-384,0,0,0,0,0,0,0,0,0,-1,580,1408,0,0
-637,-384,0,0,0,0,0,0,0,0,0,-1,587,1408,0,0
-630,-384,0,0,0,0,0,0,0,0,0,-1,594,1408,0,0
-623,-384,0,0,0,0,0,0,0,0,0,-1,601,1408,0,0
-616,-384,-10.019,-3.36646,0,0,0,0,0,0,0,-1,608,1408,-10.019,3.36648
-609,-384,-7.72357,-2.3418,0,0,0,0,0,0,0,-1,615,1408,-7.72358,2.34182
-602,-384,-11.7632,-2.85156,0,0,0,0,0,0,0,-1,622,1408,-11.7632,2.85157
-595,-384,-10.2217,2.8855,0,0,0,0,0,0,0,-1,629,1408,-10.2218,-2.88548
-588,-384,-12.1653,2.29041,0,0,0,0,0,0,0,-1,636,1408,-12.1654,-2.29038
-581,-384,-11.9297,3.60376,0,0,0,0,0,0,0,-1,643,1408,-11.9298,-3.6038
-574,-384,-11.8677,6.02722,0,0,0,0,0,0,0,-1,650,1408,-11.8677,-6.02722
-567,-384,-12.0743,7.04639,0,0,0,0,0,0,0,-1,657,1408,-12.0743,-7.04641
-560,-384,-18.4018,10.9585,0,0,0,0,0,0,0,-1,664,1408,-18.4018,-10.9585
-553,-384,-18.2428,11.8322,0.00666803,0.00310438,0.00368854,0.00898258,0.000789836,0.560392,0.00574324,0.0478782,671,1408,-18.2428,-11.8321
-546,-384,-18.2114,12.6256,0.00533311,0.00226389,0.00281273,0.00700263,0.000594369,0.535671,0.00448345,0.0148073,678,1408,-18.2114,-12.6256
-539,-384,-18.2162,13.3042,0.00422887,0.0016496,0.00212556,0.00542543,0.000453043,0.512722,0.00347579,0.0160978,685,1408,-18.2162,-13.3042
-532,-384,-18.181,13.9263,0.0033528,0.00118389,0.00161068,0.00421008,0.000326604,0.489112,0.00270443,0.0232239,692,1408,-18.1811,-13.9262
-525,-384,-18.1685,14.7002,0.00271438,0.000888413,0.00127701,0.0033712,0.000231592,0.475057,0.00217439,0.0225524,699,1408,-18.1685,-14.7001
-518,-384,-18.2604,15.3997,0.00229069,0.000701446,0.00108969,0.00284471,0.000147424,0.470363,0.00184929,0.0136952,706,1408,-18.2604,-15.3997
-511,-384,-18.3134,16.1062,0.00210386,0.000676989,0.00105919,0.00266748,0.000113364,0.489017,0.00174176,0.0116009,713,1408,-18.3134,-16.1061
-504,-384,-18.3422,16.8213,0.00220582,0.000820659,0.00122778,0.00292288,0.000103593,0.528599,0.00191499,0.0128784,720,1408,-18.3422,-16.8212
-497,-384,-18.33,17.5353,0.0026378,0.00110505,0.00167371,0.00371226,3.05964e-05,0.5707,0.0024647,0.0417797,727,1408,-18.33,-17.5353
-490,-384,-18.1782,18.3513,0,0,0,0,0,0,0,-1,734,1408,-18.1782,-18.3513
-483,-384,-6.26471,7.61194,0,0,0,0,0,0,0,-1,741,1408,-6.26469,-7.61191
-476,-384,-6.02734,5.67761,0,0,0,0,0,0,0,-1,748,1408,-6.02736,-5.6776
-469,-384,-10.206,2.63721,0,0,0,0,0,0,0,-1,755,1408,-10.206,-2.6372
-462,-384,-9.04291,1.43542,0,0,0,0,0,0,0,-1,762,1408,-9.04293,-1.43545
-455,-384,-7.87988,0.233765,0,0,0,0,0,0,0,-1,769,1408,-7.87986,-0.233709
-448,-384,-9.35529,7.19226,0,0,0,0,0,0,0,-1,776,1408,-9.35531,-7.19226
-441,-384,-10.4697,1.79004,0,0,0,0,0,0,0,-1,783,1408,-10.4697,-1.79003
-434,-384,-10.6449,0.552246,0,0,0,0,0,0,0,-1,790,1408,-10.6449,-0.552216
-427,-384,-10.968,1.10583,0,0,0,0,0,0,0,-1,797,1408,-10.968,-1.10588
-420,-384,-12.5607,4.54858,0,0,0,0,0,0,0,-1,804,1408,-12.5607,-4.54859
-413,-384,0,0,0,0,0,0,0,0,0,-1,811,1408,0,0
-406,-384,0,0,0,0,0,0,0,0,0,-1,818,1408,0,0
-399,-384,0,0,0,0,0,0,0,0,0,-1,825,1408,0,0
-392,-384,0,0,0,0,0,0,0,0,0,-1,832,1408,0,0
-385,-384,0,0,0,0,0,0,0,0,0,-1,839,1408,0,0
-378,-384,0,0,0,0,0,0,0,0,0,-1,846,1408,0,0
-371,-384,0,0,0,0,0,0,0,0,0,-1,853,1408,0,0
-364,-384,0,0,0,0,0,0,0,0,0,-1,860,1408,0,0
-357,-384,0,0,0,0,0,0,0,0,0,-1,867,1408,0,0
-350,-384,0,0,0,0,0,0,0,0,0,-1,874,1408,0,0
-343,-384,0,0,0,0,0,0,0,0,0,-1,881,1408,0,0
-336,-384,0,0,0,0,0,0,0,0,0,-1,888,1408,0,0
-329,-384,0,0,0,0,0,0,0,0,0,-1,895,1408,0,0
-322,-384,0,0,0,0,0,0,0,0,0,-1,902,1408,0,0
-315,-384,0,0,0,0,0,0,0,0,0,-1,909,1408,0,0
-308,-384,0,0,0,0,0,0,0,0,0,-1,916,1408,0,0
-301,-384,0,0,0,0,0,0,0,0,0,-1,923,1408,0,0
-294,-384,0,0,0,0,0,0,0,0,0,-1,930,1408,0,0
-287,-384,0,0,0,0,0,0,0,0,0,-1,937,1408,0,0
-280,-384,0,0,0,0,0,0,0,0,0,-1,944,1408,0,0
-273,-384,0,0,0,0,0,0,0,0,0,-1,951,1408,0,0
-266,-384,0,0,0,0,0,0,0,0,0,-1,958,1408,0,0
-259,-384,0,0,0,0,0,0,0,0,0,-1,965,1408,0,0
-252,-384,0,0,0,0,0,0,0,0,0,-1,972,1408,0,0
-245,-384,0,0,0,0,0,0,0,0,0,-1,979,1408,0,0
-238,-384,0,0,0,0,0,0,0,0,0,-1,986,1408,0,0
-231,-384,0,0,0,0,0,0,0,0,0,-1,993,1408,0,0
-224,-384,0,0,0,0,0,0,0,0,0,-1,1000,1408,0,0
-217,-384,0,0,0,0,0,0,0,0,0,-1,1007,1408,0,0
-210,-384,0,0,0,0,0,0,0,0,0,-1,1014,1408,0,0
-203,-384,0,0,0,0,0,0,0,0,0,-1,1021,1408,0,0
-196,-384,0,0,0,0,0,0,0,0,0,-1,1028,1408,0,0
-189,-384,0,0,0,0,0,0,0,0,0,-1,1035,1408,0,0
-182,-384,0,0,0,0,0,0,0,0,0,-1,1042,1408,0,0
-175,-384,0,0,0,0,0,0,0,0,0,-1,1049,1408,0,0
-168,-384,0,0,0,0,0,0,0,0,0,-1,1056,1408,0,0
-161,-384,0,0,0,0,0,0,0,0,0,-1,1063,1408,0,0
-154,-384,0,0,0,0,0,0,0,0,0,-1,1070,1408,0,0
-147,-384,0,0,0,0,0,0,0,0,0,-1,1077,1408,0,0
-140,-384,0,0,0,0,0,0,0,0,0,-1,1084,1408,0,0
-133,-384,0,0,0,0,0,0,0,0,0,-1,1091,1408,0,0
-126,-384,0,0,0,0,0,0,0,0,0,-1,1098,1408,0,0
-119,-384,0,0,0,0,0,0,0,0,0,-1,1105,1408,0,0
-112,-384,0,0,0,0,0,0,0,0,0,-1,1112,1408,0,0
-105,-384,0,0,0,0,0,0,0,0,0,-1,1119,1408,0,0
-98,-384,0,0,0,0,0,0,0,0,0,-1,1126,1408,0,0
-91,-384,0,0,0,0,0,0,0,0,0,-1,1133,1408,0,0
-84,-384,0,0,0,0,0,0,0,0,0,-1,1140,1408,0,0
-77,-384,0,0,0,0,0,0,0,0,0,-1,1147,1408,0,0
-70,-384,0,0,0,0,0,0,0,0,0,-1,1154,1408,0,0
-63,-384,0,0,0,0,0,0,0,0,0,-1,1161,1408,0,0
-56,-384,0,0,0,0,0,0,0,0,0,-1,1168,1408,0,0
-49,-384,0,0,0,0,0,0,0,0,0,-1,1175,1408,0,0
-42,-384,0,0,0,0,0,0,0,0,0,-1,1182,1408,0,0
-35,-384,0,0,0,0,0,0,0,0,0,-1,1189,1408,0,0
-28,-384,0,0,0,0,0,0,0,0,0,-1,1196,1408,0,0
-21,-384,0,0,0,0,0,0,0,0,0,-1,1203,1408,0,0
-14,-384,0,0,0,0,0,0,0,0,0,-1,1210,1408,0,0
-7,-384,0,0,0,0,0,0,0,0,0,-1,1217,1408,0,0
0,-384,0,0,0,0,0,0,0,0,0,-1,1224,1408,0,0
7,-384,0,0,0,0,0,0,0,0,0,-1,1231,1408,0,0
14,-384,0,0,0,0,0,0,0,0,0,-1,1238,1408,0,0
21,-384,0,0,0,0,0,0,0,0,0,-1,1245,1408,0,0
28,-384,0,0,0,0,0,0,0,0,0,-1,1252,1408,0,0
35,-384,0,0,0,0,0,0,0,0,0,-1,1259,1408,0,0
42,-384,0,0,0,0,0,0,0,0,0,-1,1266,1408,0,0
49,-384,0,0,0,0,0,0,0,0,0,-1,1273,1408,0,0
56,-384,0,0,0,0,0,0,0,0,0,-1,1280,1408,0,0
63,-384,0,0,0,0,0,0,0,0,0,-1,1287,1408,0,0
70,-384,0,0,0,0,0,0,0,0,0,-1,1294,1408,0,0
77,-384,0,0,0,0,0,0,0,0,0,-1,1301,1408,0,0
84,-384,0,0,0,0,0,0,0,0,0,-1,1308,1408,0,0
91,-384,0,0,0,0,0,0,0,0,0,-1,1315,1408,0,0
98,-384,0,0,0,0,0,0,0,0,0,-1,1322,1408,0,0
105,-384,0,0,0,0,0,0,0,0,0,-1,1329,1408,0,0
112,-384,0,0,0,0,0,0,0,0,0,-1,1336,1408,0,0
119,-384,0,0,0,0,0,0,0,0,0,-1,1343,1408,0,0
126,-384,0,0,0,0,0,0,0,0,0,-1,1350,1408,0,0
133,-384,0,0,0,0,0,0,0,0,0,-1,1357,1408,0,0
140,-384,0,0,0,0,0,0,0,0,0,-1,1364,1408,0,0
147,-384,0,0,0,0,0,0,0,0,0,-1,1371,1408,0,0
154,-384,0,0,0,0,0,0,0,0,0,-1,1378,1408,0,0
161,-384,0,0,0,0,0,0,0,0,0,-1,1385,1408,0,0
168,-384,0,0,0,0,0,0,0,0,0,-1,1392,1408,0,0
175,-384,0,0,0,0,0,0,0,0,0,-1,1399,1408,0,0
182,-384,0,0,0,0,0,0,0,0,0,-1,1406,1408,0,0
189,-384,0,0,0,0,0,0,0,0,0,-1,1413,1408,0,0
196,-384,0,0,0,0,0,0,0,0,0,-1,1420,1408,0,0
203,-384,0,0,0,0,0,0,0,0,0,-1,1427,1408,0,0
210,-384,0,0,0,0,0,0,0,0,0,-1,1434,1408,0,0
217,-384,0,0,0,0,0,0,0,0,0,-1,1441,1408,0,0
224,-384,0,0,0,0,0,0,0,0,0,-1,1448,1408,0,0
231,-384,0,0,0,0,0,0,0,0,0,-1,1455,1408,0,0
238,-384,0,0,0,0,0,0,0,0,0,-1,1462,1408,0,0
245,-384,0,0,0,0,0,0,0,0,0,-1,1469,1408,0,0
252,-384,0,0,0,0,0,0,0,0,0,-1,1476,1408,0,0
259,-384,0,0,0,0,0,0,0,0,0,-1,1483,1408,0,0
266,-384,0,0,0,0,0,0,0,0,0,-1,1490,1408,0,0
273,-384,0,0,0,0,0,0,0,0,0,-1,1497,1408,0,0
280,-384,0,0,0,0,0,0,0,0,0,-1,1504,1408,0,0
287,-384,0,0,0,0,0,0,0,0,0,-1,1511,1408,0,0
294,-384,0,0,0,0,0,0,0,0,0,-1,1518,1408,0,0
301,-384,0,0,0,0,0,0,0,0,0,-1,1525,1408,0,0
308,-384,0,0,0,0,0,0,0,0,0,-1,1532,1408,0,0
315,-384,0,0,0,0,0,0,0,0,0,-1,1539,1408,0,0
322,-384,0,0,0,0,0,0,0,0,0,-1,1546,1408,0,0
329,-384,0,0,0,0,0,0,0,0,0,-1,1553,1408,0,0
336,-384,0,0,0,0,0,0,0,0,0,-1,1560,1408,0,0
343,-384,0,0,0,0,0,0,0,0,0,-1,1567,1408,0,0
350,-384,0,0,0,0,0,0,0,0,0,-1,1574,1408,0,0
357,-384,0,0,0,0,0,0,0,0,0,-1,1581,1408,0,0
364,-384,0,0,0,0,0,0,0,0,0,-1,1588,1408,0,0
371,-384,0,0,0,0,0,0,0,0,0,-1,1595,1408,0,0
378,-384,0,0,0,0,0,0,0,0,0,-1,1602,1408,0,0
385,-384,0,0,0,0,0,0,0,0,0,-1,1609,1408,0,0
392,-384,0,0,0,0,0,0,0,0,0,-1,1616,1408,0,0
399,-384,0,0,0,0,0,0,0,0,0,-1,1623,1408,0,0
406,-384,0,0,0,0,0,0,0,0,0,-1,1630,1408,0,0
413,-384,0,0,0,0,0,0,0,0,0,-1,1637,1408,0,0
420,-384,0,0,0,0,0,0,0,0,0,-1,1644,1408,0,0
427,-384,0,0,0,0,0,0,0,0,0,-1,1651,1408,0,0
434,-384,0,0,0,0,0,0,0,0,0,-1,1658,1408,0,0
441,-384,0,0,0,0,0,0,0,0,0,-1,1665,1408,0,0
448,-384,0,0,0,0,0,0,0,0,0,-1,1672,1408,0,0
455,-384,0,0,0,0,0,0,0,0,0,-1,1679,1408,0,0
462,-384,0,0,0,0,0,0,0,0,0,-1,1686,1408,0,0
469,-384,0,0,0,0,0,0,0,0,0,-1,1693,1408,0,0
476,-384,0,0,0,0,0,0,0,0,0,-1,1700,1408,0,0
483,-384,0,0,0,0,0,0,0,0,0,-1,1707,1408,0,0
490,-384,0,0,0,0,0,0,0,0,0,-1,1714,1408,0,0
497,-384,0,0,0,0,0,0,0,0,0,-1,1721,1408,0,0
504,-384,0,0,0,0,0,0,0,0,0,-1,1728,1408,0,0
511,-384,0,0,0,0,0,0,0,0,0,-1,1735,1408,0,0
518,-384,0,0,0,0,0,0,0,0,0,-1,1742,1408,0,0
525,-384,0,0,0,0,0,0,0,0,0,-1,1749,1408,0,0
532,-384,0,0,0,0,0,0,0,0,0,-1,1756,1408,0,0
539,-384,27.6886,2.85803,0,0,0,0,0,0,0,-1,1763,1408,27.6886,-2.85807
546,-384,27.5044,2.9425,0,0,0,0,0,0,0,-1,1770,1408,27.5044,-2.94255
553,-384,27.3052,2.78394,0,0,0,0,0,0,0,-1,1777,1408,27.3051,-2.78394
560,-384,26.833,3.19812,0,0,0,0,0,0,0,-1,1784,1408,26.833,-3.19816
567,-384,38.2566,0.109985,0,0,0,0,0,0,0,-1,1791,1408,38.2566,-0.110044
574,-384,38.4003,2.05945,0,0,0,0,0,0,0,-1,1798,1408,38.4003,-2.05949
581,-384,25.819,3.91846,0,0,0,0,0,0,0,-1,1805,1408,25.8189,-3.91848
588,-384,23.3721,4.25439,0,0,0,0,0,0,0,-1,1812,1408,23.3721,-4.25442
595,-384,24.981,5.59595,0,0,0,0,0,0,0,-1,1819,1408,24.981,-5.59598
602,-384,20.6605,4.17261,0,0,0,0,0,0,0,-1,1826,1408,20.6606,-4.17265
609,-384,14.158,5.49475,0,0,0,0,0,0,0,-1,1833,1408,14.158,-5.49474
616,-384,14.7997,7.6908,0,0,0,0,0,0,0,-1,1840,1408,14.7996,-7.69079
623,-384,16.4293,9.58899,0,0,0,0,0,0,0,-1,1847,1408,16.4294,-9.58901
630,-384,35.4203,18.8088,0,0,0,0,0,0,0,-1,1854,1408,35.4203,-18.8088
637,-384,35.4884,18.0764,-0.000180996,-0.000314078,0.000365488,0.00012396,-0.000619033,0.695354,0.000459615,0.0242462,1861,1408,35.4884,-18.0765
644,-384,35.4496,17.4338,-0.000101448,-0.000225876,0.000194876,4.09044e-05,-0.000368228,0.630888,0.000260194,0.016665,1868,1408,35.4496,-17.4339
651,-384,35.4169,16.7467,0.000172203,-0.000243232,0.000224688,0.000270478,-0.000341506,0.412312,0.000354121,0.0155821,1875,1408,35.4169,-16.7467
658,-384,35.3777,16.0679,0.000601289,-0.000277529,0.000270489,0.000677869,-0.000354109,0.275897,0.000605508,0.0162497,1882,1408,35.3777,-16.0678
665,-384,35.3829,15.4314,0.00112507,-0.000327688,0.000355433,0.00120737,-0.000409987,0.227535,0.000970872,0.0182742,1889,1408,35.3829,-15.4314
672,-384,35.3685,14.7722,0.00176287,-0.000417312,0.000510399,0.00187644,-0.000530885,0.21895,0.00146045,0.0163059,1896,1408,35.3685,-14.7722
679,-384,35.3231,14.1132,0.0025315,-0.000541725,0.00072219,0.00269275,-0.000702975,0.219676,0.00206967,0.0167505,1903,1408,35.3231,-14.1131
686,-384,35.2999,13.511,0.00348364,-0.000686456,0.000973661,0.00369977,-0.000902591,0.21844,0.00281601,0.0143235,1910,1408,35.2999,-13.511
693,-384,35.3638,12.8353,0.00460135,-0.000767391,0.00127129,0.00488717,-0.00105321,0.221148,0.00366005,0.0334081,1917,1408,35.3638,-12.8354
700,-384,35.49,12.1566,0,0,0,0,0,0,0,-1,1924,1408,35.49,-12.1566
707,-384,17.0566,6.62842,0,0,0,0,0,0,0,-1,1931,1408,17.0567,-6.62848
714,-384,16.038,5.0282,0,0,0,0,0,0,0,-1,1938,1408,16.038,-5.02819
721,-384,13.8843,2.8717,0,0,0,0,0,0,0,-1,1945,1408,13.8843,-2.87171
728,-384,15.4409,6.25745,0,0,0,0,0,0,0,-1,1952,1408,15.4409,-6.2574
735,-384,16.7598,6.71289,0,0,0,0,0,0,0,-1,1959,1408,16.7598,-6.71287
742,-384,0,0,0,0,0,0,0,0,0,-1,1966,1408,0,0
749,-384,0,0,0,0,0,0,0,0,0,-1,1973,1408,0,0
756,-384,0,0,0,0,0,0,0,0,0,-1,1980,1408,0,0
763,-384,0,0,0,0,0,0,0,0,0,-1,1987,1408,0,0
770,-384,0,0,0,0,0,0,0,0,0,-1,1994,1408,0,0
777,-384,0,0,0,0,0,0,0,0,0,-1,2001,1408,0,0
784,-384,0,0,0,0,0,0,0,0,0,-1,2008,1408,0,0
791,-384,0,0,0,0,0,0,0,0,0,-1,2015,1408,0,0
798,-384,0,0,0,0,0,0,0,0,0,-1,2022,1408,0,0
805,-384,0,0,0,0,0,0,0,0,0,-1,2029,1408,0,0
812,-384,0,0,0,0,0,0,0,0,0,-1,2036,1408,0,0
-700,-391,0,0,0,0,0,0,0,0,0,-1,524,1415,0,0
-693,-391,0,0,0,0,0,0,0,0,0,-1,531,1415,0,0
-686,-391,0,0,0,0,0,0,0,0,0,-1,538,1415,0,0
-679,-391,0,0,0,0,0,0,0,0,0,-1,545,1415,0,0
-672,-391,0,0,0,0,0,0,0,0,0,-1,552,1415,0,0
-665,-391,0,0,0,0,0,0,0,0,0,-1,559,1415,0,0
-658,-391,0,0,0,0,0,0,0,0,0,-1,566,1415,0,0
-651,-391,0,0,0,0,0,0,0,0,0,-1,573,1415,0,0
-644,-391,0,0,0,0,0,0,0,0,0,-1,580,1415,0,0
-637,-391,0,0,0,0,0,0,0,0,0,-1,587,1415,0,0
-630,-391,0,0,0,0,0,0,0,0,0,-1,594,1415,0,0
-623,-391,0,0,0,0,0,0,0,0,0,-1,601,1415,0,0
-616,-391,0,0,0,0,0,0,0,0,0,-1,608,1415,0,0
-609,-391,-7.71753,-3.69763,0,0,0,0,0,0,0,-1,615,1415,-7.71751,3.69759
-602,-391,-13.9493,-4.12805,0,0,0,0,0,0,0,-1,622,1415,-13.9493,4.12803
-595,-391,-10.8315,1.76172,0,0,0,0,0,0,0,-1,629,1415,-10.8315,-1.76171
-588,-391,-10.265,2.16431,0,0,0,0,0,0,0,-1,636,1415,-10.265,-2.16431
-581,-391,-11.3325,2.44836,0,0,0,0,0,0,0,-1,643,1415,-11.3325,-2.44842
-574,-391,-11.1471,6.19983,0,0,0,0,0,0,0,-1,650,1415,-11.1471,-6.19981
-567,-391,-11.5172,6.82458,0,0,0,0,0,0,0,-1,657,1415,-11.5171,-6.82454
-560,-391,-11.2459,7.37195,0,0,0,0,0,0,0,-1,664,1415,-11.2459,-7.37191
-553,-391,-17.6039,11.8601,0,0,0,0,0,0,0,-1,671,1415,-17.604,-11.8601
-546,-391,-17.5205,12.6039,0.00603175,0.00272598,0.00327295,0.00804551,0.000712222,0.551573,0.00514273,0.0173949,678,1415,-17.5205,-12.6038
-539,-391,-17.4663,13.3325,0.004708,0.00204988,0.00246874,0.00618271,0.000575177,0.538469,0.00394408,0.0156756,685,1415,-17.4663,-13.3325
-532,-391,-17.4578,14.0433,0.0036419,0.00150047,0.00183818,0.00469847,0.000443903,0.521677,0.00299533,0.0271803,692,1415,-17.4578,-14.0433
-525,-391,-17.4918,14.7704,0.00285766,0.00115713,0.00141772,0.00366053,0.000354253,0.515284,0.00233126,0.0241733,699,1415,-17.4918,-14.7703
-518,-391,-17.59,15.4342,0.0023023,0.00092327,0.00114819,0.0029521,0.00027347,0.514996,0.00188354,0.0149025,706,1415,-17.59,-15.4342
-511,-391,-17.6152,16.1396,0.00197145,0.000840664,0.00101726,0.00256988,0.000242228,0.531757,0.00163849,0.0142969,713,1415,-17.6152,-16.1396
-504,-391,-17.6378,16.8517,0.00190254,0.000912448,0.00106227,0.00257946,0.000235532,0.567348,0.00164675,0.0127241,720,1415,-17.6378,-16.8517
-497,-391,-17.6636,17.5327,0.00211506,0.00112246,0.00133051,0.00303882,0.000198703,0.606884,0.001963,0.0138752,727,1415,-17.6636,-17.5327
-490,-391,-17.6254,18.2383,0,0,0,0,0,0,0,-1,734,1415,-17.6254,-18.2382
-483,-391,-11.1018,12.9382,0,0,0,0,0,0,0,-1,741,1415,-11.1018,-12.9382
-476,-391,-6.05731,6.85303,0,0,0,0,0,0,0,-1,748,1415,-6.05728,-6.85304
-469,-391,-3.88953,5.0979,0,0,0,0,0,0,0,-1,755,1415,-3.88955,-5.09794
-462,-391,-8.67688,2.03125,0,0,0,0,0,0,0,-1,762,1415,-8.67685,-2.03121
-455,-391,-8.65576,6.46997,0,0,0,0,0,0,0,-1,769,1415,-8.65579,-6.46999
-448,-391,-8.39618,4.38403,0,0,0,0,0,0,0,-1,776,1415,-8.39617,-4.38405
-441,-391,-9.77704,2.5946,0,0,0,0,0,0,0,-1,783,1415,-9.77702,-2.5946
-434,-391,-11.5403,2.12878,0,0,0,0,0,0,0,-1,790,1415,-11.5403,-2.12881
-427,-391,-10.5311,2.50403,0,0,0,0,0,0,0,-1,797,1415,-10.5311,-2.504
-420,-391,-14.7087,1.24365,0,0,0,0,0,0,0,-1,804,1415,-14.7088,-1.24365
-413,-391,0,0,0,0,0,0,0,0,0,-1,811,1415,0,0
-406,-391,0,0,0,0,0,0,0,0,0,-1,818,1415,0,0
-399,-391,0,0,0,0,0,0,0,0,0,-1,825,1415,0,0
-392,-391,0,0,0,0,0,0,0,0,0,-1,832,1415,0,0
-385,-391,0,0,0,0,0,0,0,0,0,-1,839,1415,0,0
-378,-391,0,0,0,0,0,0,0,0,0,-1,846,1415,0,0
-371,-391,0,0,0,0,0,0,0,0,0,-1,853,1415,0,0
-364,-391,0,0,0,0,0,0,0,0,0,-1,860,1415,0,0
-357,-391,0,0,0,0,0,0,0,0,0,-1,867,1415,0,0
-350,-391,0,0,0,0,0,0,0,0,0,-1,874,1415,0,0
-343,-391,0,0,0,0,0,0,0,0,0,-1,881,1415,0,0
-336,-391,0,0,0,0,0,0,0,0,0,-1,888,1415,0,0
-329,-391,0,0,0,0,0,0,0,0,0,-1,895,1415,0,0
-322,-391,0,0,0,0,0,0,0,0,0,-1,902,1415,0,0
-315,-391,0,0,0,0,0,0,0,0,0,-1,909,1415,0,0
-308,-391,0,0,0,0,0,0,0,0,0,-1,916,1415,0,0
-301,-391,0,0,0,0,0,0,0,0,0,-1,923,1415,0,0
-294,-391,0,0,0,0,0,0,0,0,0,-1,930,1415,0,0
-287,-391,0,0,0,0,0,0,0,0,0,-1,937,1415,0,0
-280,-391,0,0,0,0,0,0,0,0,0,-1,944,1415,0,0
-273,-391,0,0,0,0,0,0,0,0,0,-1,951,1415,0,0
-266,-391,0,0,0,0,0,0,0,0,0,-1,958,1415,0,0
-259,-391,0,0,0,0,0,0,0,0,0,-1,965,1415,0,0
-252,-391,0,0,0,0,0,0,0,0,0,-1,972,1415,0,0
-245,-391,0,0,0,0,0,0,0,0,0,-1,979,1415,0,0
-238,-391,0,0,0,0,0,0,0,0,0,-1,986,1415,0,0
-231,-391,0,0,0,0,0,0,0,0,0,-1,993,1415,0,0
-224,-391,0,0,0,0,0,0,0,0,0,-1,1000,1415,0,0
-217,-391,0,0,0,0,0,0,0,0,0,-1,1007,1415,0,0
-210,-391,0,0,0,0,0,0,0,0,0,-1,1014,1415,0,0
-203,-391,0,0,0,0,0,0,0,0,0,-1,1021,1415,0,0
-196,-391,0,0,0,0,0,0,0,0,0,-1,1028,1415,0,0
-189,-391,0,0,0,0,0,0,0,0,0,-1,1035,1415,0,0
-182,-391,0,0,0,0,0,0,0,0,0,-1,1042,1415,0,0
-175,-391,0,0,0,0,0,0,0,0,0,-1,1049,1415,0,0
-168,-391,0,0,0,0,0,0,0,0,0,-1,1056,1415,0,0
-161,-391,0,0,0,0,0,0,0,0,0,-1,1063,1415,0,0
-154,-391,0,0,0,0,0,0,0,0,0,-1,1070,1415,0,0
-147,-391,0,0,0,0,0,0,0,0,0,-1,1077,1415,0,0
-140,-391,0,0,0,0,0,0,0,0,0,-1,1084,1415,0,0
-133,-391,0,0,0,0,0,0,0,0,0,-1,1091,1415,0,0
-126,-391,0,0,0,0,0,0,0,0,0,-1,1098,1415,0,0
-119,-391,0,0,0,0,0,0,0,0,0,-1,1105,1415,0,0
-112,-391,0,0,0,0,0,0,0,0,0,-1,1112,1415,0,0
-105,-391,0,0,0,0,0,0,0,0,0,-1,1119,1415,0,0
-98,-391,0,0,0,0,0,0,0,0,0,-1,1126,1415,0,0
-91,-391,0,0,0,0,0,0,0,0,0,-1,1133,1415,0,0
-84,-391,0,0,0,0,0,0,0,0,0,-1,1140,1415,0,0
-77,-391,0,0,0,0,0,0,0,0,0,-1,1147,1415,0,0
-70,-391,0,0,0,0,0,0,0,0,0,-1,1154,1415,0,0
-63,-391,0,0,0,0,0,0,0,0,0,-1,1161,1415,0,0
-56,-391,0,0,0,0,0,0,0,0,0,-1,1168,1415,0,0
-49,-391,0,0,0,0,0,0,0,0,0,-1,1175,1415,0,0
-42,-391,0,0,0,0,0,0,0,0,0,-1,1182,1415,0,0
-35,-391,0,0,0,0,0,0,0,0,0,-1,1189,1415,0,0
-28,-391,0,0,0,0,0,0,0,0,0,-1,1196,1415,0,0
-21,-391,0,0,0,0,0,0,0,0,0,-1,1203,1415,0,0
-14,-391,0,0,0,0,0,0,0,0,0,-1,1210,1415,0,0
-7,-391,0,0,0,0,0,0,0,0,0,-1,1217,1415,0,0
0,-391,0,0,0,0,0,0,0,0,0,-1,1224,1415,0,0
7,-391,0,0,0,0,0,0,0,0,0,-1,1231,1415,0,0
14,-391,0,0,0,0,0,0,0,0,0,-1,1238,1415,0,0
21,-391,0,0,0,0,0,0,0,0,0,-1,1245,1415,0,0
28,-391,0,0,0,0,0,0,0,0,0,-1,1252,1415,0,0
35,-391,0,0,0,0,0,0,0,0,0,-1,1259,1415,0,0
42,-391,0,0,0,0,0,0,0,0,0,-1,1266,1415,0,0
49,-391,0,0,0,0,0,0,0,0,0,-1,1273,1415,0,0
56,-391,0,0,0,0,0,0,0,0,0,-1,1280,1415,0,0
63,-391,0,0,0,0,0,0,0,0,0,-1,1287,1415,0,0
70,-391,0,0,0,0,0,0,0,0,0,-1,1294,1415,0,0
77,-391,0,0,0,0,0,0,0,0,0,-1,1301,1415,0,0
84,-391,0,0,0,0,0,0,0,0,0,-1,1308,1415,0,0
91,-391,0,0,0,0,0,0,0,0,0,-1,1315,1415,0,0
98,-391,0,0,0,0,0,0,0,0,0,-1,1322,1415,0,0
105,-391,0,0,0,0,0,0,0,0,0,-1,1329,1415,0,0
112,-391,0,0,0,0,0,0,0,0,0,-1,1336,1415,0,0
119,-391,0,0,0,0,0,0,0,0,0,-1,1343,1415,0,0
126,-391,0,0,0,0,0,0,0,0,0,-1,1350,1415,0,0
133,-391,0,0,0,0,0,0,0,0,0,-1,1357,1415,0,0
140,-391,0,0,0,0,0,0,0,0,0,-1,1364,1415,0,0
147,-391,0,0,0,0,0,0,0,0,0,-1,1371,1415,0,0
154,-391,0,0,0,0,0,0,0,0,0,-1,1378,1415,0,0
161,-391,0,0,0,0,0,0,0,0,0,-1,1385,1415,0,0
168,-391,0,0,0,0,0,0,0,0,0,-1,1392,1415,0,0
175,-391,0,0,0,0,0,0,0,0,0,-1,1399,1415,0,0
182,-391,0,0,0,0,0,0,0,0,0,-1,1406,1415,0,0
189,-391,0,0,0,0,0,0,0,0,0,-1,1413,1415,0,0
196,-391,0,0,0,0,0,0,0,0,0,-1,1420,1415,0,0
203,-391,0,0,0,0,0,0,0,0,0,-1,1427,1415,0,0
210,-391,0,0,0,0,0,0,0,0,0,-1,1434,1415,0,0
217,-391,0,0,0,0,0,0,0,0,0,-1,1441,1415,0,0
224,-391,0,0,0,0,0,0,0,0,0,-1,1448,1415,0,0
231,-391,0,0,0,0,0,0,0,0,0,-1,1455,1415,0,0
238,-391,0,0,0,0,0,0,0,0,0,-1,1462,1415,0,0
245,-391,0,0,0,0,0,0,0,0,0,-1,1469,1415,0,0
252,-391,0,0,0,0,0,0,0,0,0,-1,1476,1415,0,0
259,-391,0,0,0,0,0,0,0,0,0,-1,1483,1415,0,0
266,-391,0,0,0,0,0,0,0,0,0,-1,1490,1415,0,0
273,-391,0,0,0,0,0,0,0,0,0,-1,1497,1415,0,0
280,-391,0,0,0,0,0,0,0,0,0,-1,1504,1415,0,0
287,-391,0,0,0,0,0,0,0,0,0,-1,1511,1415,0,0
294,-391,0,0,0,0,0,0,0,0,0,-1,1518,1415,0,0
301,-391,0,0,0,0,0,0,0,0,0,-1,1525,1415,0,0
308,-391,0,0,0,0,0,0,0,0,0,-1,1532,1415,0,0
315,-391,0,0,0,0,0,0,0,0,0,-1,1539,1415,0,0
322,-391,0,0,0,0,0,0,0,0,0,-1,1546,1415,0,0
329,-391,0,0,0,0,0,0,0,0,0,-1,1553,1415,0,0
336,-391,0,0,0,0,0,0,0,0,0,-1,1560,1415,0,0
343,-391,0,0,0,0,0,0,0,0,0,-1,1567,1415,0,0
350,-391,0,0,0,0,0,0,0,0,0,-1,1574,1415,0,0
357,-391,0,0,0,0,0,0,0,0,0,-1,1581,1415,0,0
364,-391,0,0,0,0,0,0,0,0,0,-1,1588,1415,0,0
371,-391,0,0,0,0,0,0,0,0,0,-1,1595,1415,0,0
378,-391,0,0,0,0,0,0,0,0,0,-1,1602,1415,0,0
385,-391,0,0,0,0,0,0,0,0,0,-1,1609,1415,0,0
392,-391,0,0,0,0,0,0,0,0,0,-1,1616,1415,0,0
399,-391,0,0,0,0,0,0,0,0,0,-1,1623,1415,0,0
406,-391,0,0,0,0,0,0,0,0,0,-1,1630,1415,0,0
413,-391,0,0,0,0,0,0,0,0,0,-1,1637,1415,0,0
420,-391,0,0,0,0,0,0,0,0,0,-1,1644,1415,0,0
427,-391,0,0,0,0,0,0,0,0,0,-1,1651,1415,0,0
434,-391,0,0,0,0,0,0,0,0,0,-1,1658,1415,0,0
441,-391,0,0,0,0,0,0,0,0,0,-1,1665,1415,0,0
448,-391,0,0,0,0,0,0,0,0,0,-1,1672,1415,0,0
455,-391,0,0,0,0,0,0,0,0,0,-1,1679,1415,0,0
462,-391,0,0,0,0,0,0,0,0,0,-1,1686,1415,0,0
469,-391,0,0,0,0,0,0,0,0,0,-1,1693,1415,0,0
476,-391,0,0,0,0,0,0,0,0,0,-1,1700,1415,0,0
483,-391,0,0,0,0,0,0,0,0,0,-1,1707,1415,0,0
490,-391,0,0,0,0,0,0,0,0,0,-1,1714,1415,0,0
497,-391,0,0,0,0,0,0,0,0,0,-1,1721,1415,0,0
504,-391,0,0,0,0,0,0,0,0,0,-1,1728,1415,0,0
511,-391,0,0,0,0,0,0,0,0,0,-1,1735,1415,0,0
518,-391,0,0,0,0,0,0,0,0,0,-1,1742,1415,0,0
525,-391,0,0,0,0,0,0,0,0,0,-1,1749,1415,0,0
532,-391,28.5959,3.02356,0,0,0,0,0,0,0,-1,1756,1415,28.596,-3.02358
539,-391,27.5881,3.25012,0,0,0,0,0,0,0,-1,1763,1415,27.5882,-3.25016
546,-391,27.2837,3.28064,0,0,0,0,0,0,0,-1,1770,1415,27.2837,-3.28064
553,-391,32.5952,5.04553,0,0,0,0,0,0,0,-1,1777,1415,32.5952,-5.04551
560,-391,31.2947,5.67017,0,0,0,0,0,0,0,-1,1784,1415,31.2947,-5.67011
567,-391,30.1473,6.17603,0,0,0,0,0,0,0,-1,1791,1415,30.1473,-6.17602
574,-391,27.5656,5.6842,0,0,0,0,0,0,0,-1,1798,1415,27.5655,-5.68422
581,-391,25.8883,5.76123,0,0,0,0,0,0,0,-1,1805,1415,25.8883,-5.76124
588,-391,24.2717,5.47986,0,0,0,0,0,0,0,-1,1812,1415,24.2717,-5.47982
595,-391,22.8827,6.1991,0,0,0,0,0,0,0,-1,1819,1415,22.8827,-6.19909
602,-391,15.1635,5.69849,0,0,0,0,0,0,0,-1,1826,1415,15.1635,-5.69847
609,-391,14.8285,7.50476,0,0,0,0,0,0,0,-1,1833,1415,14.8285,-7.50479
616,-391,20.7952,12.0503,0,0,0,0,0,0,0,-1,1840,1415,20.7952,-12.0503
623,-391,34.7867,19.3995,0,0,0,0,0,0,0,-1,1847,1415,34.7867,-19.3996
630,-391,34.9087,18.6558,0,0,0,0,0,0,0,-1,1854,1415,34.9086,-18.6558
637,-391,34.8324,18.0735,0.000241794,-0.000411218,0.000364418,0.00040458,-0.000574004,0.420107,0.000567801,0.0178377,1861,1415,34.8323,-18.0734
644,-391,34.7981,17.4301,0.000311401,-0.000324044,0.000210974,0.000375067,-0.000387711,0.293084,0.00044041,0.0173334,1868,1415,34.7981,-17.43
651,-391,34.7587,16.7972,0.000549087,-0.000283913,0.000208871,0.000598526,-0.000333352,0.232419,0.000545233,0.0172606,1875,1415,34.7587,-16.7973
658,-391,34.723,16.1305,0.000907274,-0.000290539,0.000237549,0.000952665,-0.00033593,0.188803,0.000771851,0.017944,1882,1415,34.7231,-16.1305
665,-391,34.7103,15.4752,0.00135075,-0.000334456,0.000342381,0.00141766,-0.00040136,0.192978,0.0011035,0.0145919,1889,1415,34.7103,-15.4753
672,-391,34.688,14.8275,0.00187862,-0.000448156,0.000567924,0.00200984,-0.000579375,0.227067,0.00156909,0.0119184,1896,1415,34.688,-14.8275
679,-391,34.6509,14.1613,0.00252098,-0.000649696,0.000910421,0.0027638,-0.000892517,0.260645,0.0022012,0.0116005,1903,1415,34.6509,-14.1612
686,-391,34.6481,13.5199,0.00331642,-0.00093177,0.00137612,0.00372322,-0.00133858,0.287435,0.00302861,0.014271,1910,1415,34.6481,-13.5199
693,-391,34.6636,13.1144,0.00421947,-0.00121126,0.00200689,0.00488062,-0.0018724,0.31824,0.00402574,0.0394643,1917,1415,34.6636,-13.1143
700,-391,34.8618,12.6145,0,0,0,0,0,0,0,-1,1924,1415,34.8618,-12.6144
707,-391,12.9524,5.96851,0,0,0,0,0,0,0,-1,1931,1415,12.9524,-5.96849
714,-391,15.6875,7.67896,0,0,0,0,0,0,0,-1,1938,1415,15.6875,-7.67893
721,-391,14.1808,8.08435,0,0,0,0,0,0,0,-1,1945,1415,14.1808,-8.08439
728,-391,13.8102,7.28174,0,0,0,0,0,0,0,-1,1952,1415,13.8102,-7.28174
735,-391,0,0,0,0,0,0,0,0,0,-1,1959,1415,0,0
742,-391,0,0,0,0,0,0,0,0,0,-1,1966,1415,0,0
749,-391,0,0,0,0,0,0,0,0,0,-1,1973,1415,0,0
756,-391,0,0,0,0,0,0,0,0,0,-1,1980,1415,0,0
763,-391,0,0,0,0,0,0,0,0,0,-1,1987,1415,0,0
770,-391,0,0,0,0,0,0,0,0,0,-1,1994,1415,0,0
777,-391,0,0,0,0,0,0,0,0,0,-1,2001,1415,0,0
784,-391,0,0,0,0,0,0,0,0,0,-1,2008,1415,0,0
791,-391,0,0,0,0,0,0,0,0,0,-1,2015,1415,0,0
798,-391,0,0,0,0,0,0,0,0,0,-1,2022,1415,0,0
805,-391,0,0,0,0,0,0,0,0,0,-1,2029,1415,0,0
812,-391,0,0,0,0,0,0,0,0,0,-1,2036,1415,0,0
-700,-398,0,0,0,0,0,0,0,0,0,-1,524,1422,0,0
-693,-398,0,0,0,0,0,0,0,0,0,-1,531,1422,0,0
-686,-398,0,0,0,0,0,0,0,0,0,-1,538,1422,0,0
-679,-398,0,0,0,0,0,0,0,0,0,-1,545,1422,0,0
-672,-398,0,0,0,0,0,0,0,0,0,-1,552,1422,0,0
-665,-398,0,0,0,0,0,0,0,0,0,-1,559,1422,0,0
-658,-398,0,0,0,0,0,0,0,0,0,-1,566,1422,0,0
-651,-398,0,0,0,0,0,0,0,0,0,-1,573,1422,0,0
-644,-398,0,0,0,0,0,0,0,0,0,-1,580,1422,0,0
-637,-398,0,0,0,0,0,0,0,0,0,-1,587,1422,0,0
-630,-398,0,0,0,0,0,0,0,0,0,-1,594,1422,0,0
-623,-398,0,0,0,0,0,0,0,0,0,-1,601,1422,0,0
-616,-398,0,0,0,0,0,0,0,0,0,-1,608,1422,0,0
-609,-398,-7.47125,-4.05322,0,0,0,0,0,0,0,-1,615,1422,-7.47128,4.05317
-602,-398,-4.58868,-2.77026,0,0,0,0,0,0,0,-1,622,1422,-4.58869,2.77023
-595,-398,-12.2224,-1.82007,0,0,0,0,0,0,0,-1,629,1422,-12.2224,1.82006
-588,-398,-10.6939,1.32336,0,0,0,0,0,0,0,-1,636,1422,-10.6939,-1.32337
-581,-398,-10.433,3.1123,0,0,0,0,0,0,0,-1,643,1422,-10.433,-3.11233
-574,-398,-10.4475,5.89807,0,0,0,0,0,0,0,-1,650,1422,-10.4475,-5.89802
-567,-398,-10.4904,6.80115,0,0,0,0,0,0,0,-1,657,1422,-10.4904,-6.80115
-560,-398,-10.5333,7.70435,0,0,0,0,0,0,0,-1,664,1422,-10.5333,-7.70429
-553,-398,-16.8998,11.7383,0,0,0,0,0,0,0,-1,671,1422,-16.8998,-11.7383
-546,-398,-16.8446,12.6031,0.00681284,0.00341502,0.0038819,0.00935132,0.00087654,0.579131,0.00596354,0.0307631,678,1422,-16.8446,-12.6031
-539,-398,-16.7601,13.3859,0.00523077,0.00261949,0.00292536,0.00712863,0.000721623,0.575504,0.00453107,0.0138606,685,1422,-16.7601,-13.3858
-532,-398,-16.7694,14.1123,0.00394721,0.00191707,0.00214506,0.00530525,0.000559029,0.564404,0.003366,0.0222142,692,1422,-16.7694,-14.1123
-525,-398,-16.8057,14.7981,0.00301061,0.00147649,0.00161895,0.00403502,0.00045207,0.564164,0.00255271,0.0200501,699,1422,-16.8057,-14.798
-518,-398,-16.8748,15.4672,0.00233414,0.00116891,0.00125641,0.00313644,0.000366605,0.5683,0.00198011,0.0180699,706,1422,-16.8747,-15.4672
-511,-398,-16.9178,16.1484,0.00187971,0.00100666,0.00103064,0.00256246,0.000323914,0.585078,0.00161123,0.0142058,713,1422,-16.9178,-16.1484
-504,-398,-16.9418,16.8754,0.00166825,0.000996872,0.000966869,0.00235604,0.000309074,0.618314,0.00147848,0.0142391,720,1422,-16.9419,-16.8753
-497,-398,-16.9746,17.5636,0.00171177,0.0011374,0.00108925,0.00255106,0.000298113,0.656505,0.00161056,0.0102785,727,1422,-16.9746,-17.5636
-490,-398,-16.9841,18.2604,0.00217566,0.00149555,0.00138971,0.00326631,0.000404896,0.665409,0.00205591,0.0203978,734,1422,-16.9841,-18.2604
-483,-398,-16.8385,19.2279,0,0,0,0,0,0,0,-1,741,1422,-16.8385,-19.2279
-476,-398,-8.64392,11.9448,0,0,0,0,0,0,0,-1,748,1422,-8.6439,-11.9448
-469,-398,-8.91699,10.6276,0,0,0,0,0,0,0,-1,755,1422,-8.91697,-10.6275
-462,-398,-9.59753,9.32532,0,0,0,0,0,0,0,-1,762,1422,-9.59753,-9.32531
-455,-398,-8.08331,6.75024,0,0,0,0,0,0,0,-1,769,1422,-8.08333,-6.75022
-448,-398,-7.4505,5.25293,0,0,0,0,0,0,0,-1,776,1422,-7.4505,-5.25291
-441,-398,-7.61639,3.32141,0,0,0,0,0,0,0,-1,783,1422,-7.61637,-3.32145
-434,-398,-10.7618,3.297,0,0,0,0,0,0,0,-1,790,1422,-10.7618,-3.29704
-427,-398,-11.9061,2.24939,0,0,0,0,0,0,0,-1,797,1422,-11.9061,-2.24941
-420,-398,-13.467,2.32788,0,0,0,0,0,0,0,-1,804,1422,-13.467,-2.32787
-413,-398,-14.7983,2.15515,0,0,0,0,0,0,0,-1,811,1422,-14.7983,-2.15516
-406,-398,0,0,0,0,0,0,0,0,0,-1,818,1422,0,0
-399,-398,0,0,0,0,0,0,0,0,0,-1,825,1422,0,0
-392,-398,0,0,0,0,0,0,0,0,0,-1,832,1422,0,0
-385,-398,0,0,0,0,0,0,0,0,0,-1,839,1422,0,0
-378,-398,0,0,0,0,0,0,0,0,0,-1,846,1422,0,0
-371,-398,0,0,0,0,0,0,0,0,0,-1,853,1422,0,0
-364,-398,0,0,0,0,0,0,0,0,0,-1,860,1422,0,0
-357,-398,0,0,0,0,0,0,0,0,0,-1,867,1422,0,0
-350,-398,0,0,0,0,0,0,0,0,0,-1,874,1422,0,0
-343,-398,0,0,0,0,0,0,0,0,0,-1,881,1422,0,0
-336,-398,0,0,0,0,0,0,0,0,0,-1,888,1422,0,0
-329,-398,0,0,0,0,0,0,0,0,0,-1,895,1422,0,0
-322,-398,0,0,0,0,0,0,0,0,0,-1,902,1422,0,0
-315,-398,0,0,0,0,0,0,0,0,0,-1,909,1422,0,0
-308,-398,0,0,0,0,0,0,0,0,0,-1,916,1422,0,0
-301,-398,0,0,0,0,0,0,0,0,0,-1,923,1422,0,0
-294,-398,0,0,0,0,0,0,0,0,0,-1,930,1422,0,0
-287,-398,0,0,0,0,0,0,0,0,0,-1,937,1422,0,0
-280,-398,0,0,0,0,0,0,0,0,0,-1,944,1422,0,0
-273,-398,0,0,0,0,0,0,0,0,0,-1,951,1422,0,0
-266,-398,0,0,0,0,0,0,0,0,0,-1,958,1422,0,0
-259,-398,0,0,0,0,0,0,0,0,0,-1,965,1422,0,0
-252,-398,0,0,0,0,0,0,0,0,0,-1,972,1422,0,0
-245,-398,0,0,0,0,0,0,0,0,0,-1,979,1422,0,0
-238,-398,0,0,0,0,0,0,0,0,0,-1,986,1422,0,0
-231,-398,0,0,0,0,0,0,0,0,0,-1,993,1422,0,0
-224,-398,0,0,0,0,0,0,0,0,0,-1,1000,1422,0,0
-217,-398,0,0,0,0,0,0,0,0,0,-1,1007,1422,0,0
-210,-398,0,0,0,0,0,0,0,0,0,-1,1014,1422,0,0
-203,-398,0,0,0,0,0,0,0,0,0,-1,1021,1422,0,0
-196,-398,0,0,0,0,0,0,0,0,0,-1,1028,1422,0,0
-189,-398,0,0,0,0,0,0,0,0,0,-1,1035,1422,0,0
-182,-398,0,0,0,0,0,0,0,0,0,-1,1042,1422,0,0
-175,-398,0,0,0,0,0,0,0,0,0,-1,1049,1422,0,0
-168,-398,0,0,0,0,0,0,0,0,0,-1,1056,1422,0,0
-161,-398,0,0,0,0,0,0,0,0,0,-1,1063,1422,0,0
-154,-398,0,0,0,0,0,0,0,0,0,-1,1070,1422,0,0
-147,-398,0,0,0,0,0,0,0,0,0,-1,1077,1422,0,0
-140,-398,0,0,0,0,0,0,0,0,0,-1,1084,1422,0,0
-133,-398,0,0,0,0,0,0,0,0,0,-1,1091,1422,0,0
-126,-398,0,0,0,0,0,0,0,0,0,-1,1098,1422,0,0
-119,-398,0,0,0,0,0,0,0,0,0,-1,1105,1422,0,0
-112,-398,0,0,0,0,0,0,0,0,0,-1,1112,1422,0,0
-105,-398,0,0,0,0,0,0,0,0,0,-1,1119,1422,0,0
-98,-398,0,0,0,0,0,0,0,0,0,-1,1126,1422,0,0
-91,-398,0,0,0,0,0,0,0,0,0,-1,1133,1422,0,0
-84,-398,0,0,0,0,0,0,0,0,0,-1,1140,1422,0,0
-77,-398,0,0,0,0,0,0,0,0,0,-1,1147,1422,0,0
-70,-398,0,0,0,0,0,0,0,0,0,-1,1154,1422,0,0
-63,-398,0,0,0,0,0,0,0,0,0,-1,1161,1422,0,0
-56,-398,0,0,0,0,0,0,0,0,0,-1,1168,1422,0,0
-49,-398,0,0,0,0,0,0,0,0,0,-1,1175,1422,0,0
-42,-398,0,0,0,0,0,0,0,0,0,-1,1182,1422,0,0
-35,-398,0,0,0,0,0,0,0,0,0,-1,1189,1422,0,0
-28,-398,0,0,0,0,0,0,0,0,0,-1,1196,1422,0,0
-21,-398,0,0,0,0,0,0,0,0,0,-1,1203,1422,0,0
-14,-398,0,0,0,0,0,0,0,0,0,-1,1210,1422,0,0
-7,-398,0,0,0,0,0,0,0,0,0,-1,1217,1422,0,0
0,-398,0,0,0,0,0,0,0,0,0,-1,1224,1422,0,0
7,-398,0,0,0,0,0,0,0,0,0,-1,1231,1422,0,0
14,-398,0,0,0,0,0,0,0,0,0,-1,1238,1422,0,0
21,-398,0,0,0,0,0,0,0,0,0,-1,1245,1422,0,0
28,-398,0,0,0,0,0,0,0,0,0,-1,1252,1422,0,0
35,-398,0,0,0,0,0,0,0,0,0,-1,1259,1422,0,0
42,-398,0,0,0,0,0,0,0,0,0,-1,1266,1422,0,0
49,-398,0,0,0,0,0,0,0,0,0,-1,1273,1422,0,0
56,-398,0,0,0,0,0,0,0,0,0,-1,1280,1422,0,0
63,-398,0,0,0,0,0,0,0,0,0,-1,1287,1422,0,0
70,-398,0,0,0,0,0,0,0,0,0,-1,1294,1422,0,0
77,-398,0,0,0,0,0,0,0,0,0,-1,1301,1422,0,0
84,-398,0,0,0,0,0,0,0,0,0,-1,1308,1422,0,0
91,-398,0,0,0,0,0,0,0,0,0,-1,1315,1422,0,0
98,-398,0,0,0,0,0,0,0,0,0,-1,1322,1422,0,0
105,-398,0,0,0,0,0,0,0,0,0,-1,1329,1422,0,0
112,-398,0,0,0,0,0,0,0,0,0,-1,1336,1422,0,0
119,-398,0,0,0,0,0,0,0,0,0,-1,1343,1422,0,0
126,-398,0,0,0,0,0,0,0,0,0,-1,1350,1422,0,0
133,-398,0,0,0,0,0,0,0,0,0,-1,1357,1422,0,0
140,-398,0,0,0,0,0,0,0,0,0,-1,1364,1422,0,0
147,-398,0,0,0,0,0,0,0,0,0,-1,1371,1422,0,0
154,-398,0,0,0,0,0,0,0,0,0,-1,1378,1422,0,0
161,-398,0,0,0,0,0,0,0,0,0,-1,1385,1422,0,0
168,-398,0,0,0,0,0,0,0,0,0,-1,1392,1422,0,0
175,-398,0,0,0,0,0,0,0,0,0,-1,1399,1422,0,0
182,-398,0,0,0,0,0,0,0,0,0,-1,1406,1422,0,0
189,-398,0,0,0,0,0,0,0,0,0,-1,1413,1422,0,0
196,-398,0,0,0,0,0,0,0,0,0,-1,1420,1422,0,0
203,-398,0,0,0,0,0,0,0,0,0,-1,1427,1422,0,0
210,-398,0,0,0,0,0,0,0,0,0,-1,1434,1422,0,0
217,-398,0,0,0,0,0,0,0,0,0,-1,1441,1422,0,0
224,-398,0,0,0,0,0,0,0,0,0,-1,1448,1422,0,0
231,-398,0,0,0,0,0,0,0,0,0,-1,1455,1422,0,0
238,-398,0,0,0,0,0,0,0,0,0,-1,1462,1422,0,0
245,-398,0,0,0,0,0,0,0,0,0,-1,1469,1422,0,0
252,-398,0,0,0,0,0,0,0,0,0,-1,1476,1422,0,0
259,-398,0,0,0,0,0,0,0,0,0,-1,1483,1422,0,0
266,-398,0,0,0,0,0,0,0,0,0,-1,1490,1422,0,0
273,-398,0,0,0,0,0,0,0,0,0,-1,1497,1422,0,0
280,-398,0,0,0,0,0,0,0,0,0,-1,1504,1422,0,0
287,-398,0,0,0,0,0,0,0,0,0,-1,1511,1422,0,0
294,-398,0,0,0,0,0,0,0,0,0,-1,1518,1422,0,0
301,-398,0,0,0,0,0,0,0,0,0,-1,1525,1422,0,0
308,-398,0,0,0,0,0,0,0,0,0,-1,1532,1422,0,0
315,-398,0,0,0,0,0,0,0,0,0,-1,1539,1422,0,0
322,-398,0,0,0,0,0,0,0,0,0,-1,1546,1422,0,0
329,-398,0,0,0,0,0,0,0,0,0,-1,1553,1422,0,0
336,-398,0,0,0,0,0,0,0,0,0,-1,1560,1422,0,0
343,-398,0,0,0,0,0,0,0,0,0,-1,1567,1422,0,0
350,-398,0,0,0,0,0,0,0,0,0,-1,1574,1422,0,0
357,-398,0,0,0,0,0,0,0,0,0,-1,1581,1422,0,0
364,-398,0,0,0,0,0,0,0,0,0,-1,1588,1422,0,0
371,-398,0,0,0,0,0,0,0,0,0,-1,1595,1422,0,0
378,-398,0,0,0,0,0,0,0,0,0,-1,1602,1422,0,0
385,-398,0,0,0,0,0,0,0,0,0,-1,1609,1422,0,0
392,-398,0,0,0,0,0,0,0,0,0,-1,1616,1422,0,0
399,-398,0,0,0,0,0,0,0,0,0,-1,1623,1422,0,0
406,-398,0,0,0,0,0,0,0,0,0,-1,1630,1422,0,0
413,-398,0,0,0,0,0,0,0,0,0,-1,1637,1422,0,0
420,-398,0,0,0,0,0,0,0,0,0,-1,1644,1422,0,0
427,-398,0,0,0,0,0,0,0,0,0,-1,1651,1422,0,0
434,-398,0,0,0,0,0,0,0,0,0,-1,1658,1422,0,0
441,-398,0,0,0,0,0,0,0,0,0,-1,1665,1422,0,0
448,-398,0,0,0,0,0,0,0,0,0,-1,1672,1422,0,0
455,-398,0,0,0,0,0,0,0,0,0,-1,1679,1422,0,0
462,-398,0,0,0,0,0,0,0,0,0,-1,1686,1422,0,0
469,-398,0,0,0,0,0,0,0,0,0,-1,1693,1422,0,0
476,-398,0,0,0,0,0,0,0,0,0,-1,1700,1422,0,0
483,-398,0,0,0,0,0,0,0,0,0,-1,1707,1422,0,0
490,-398,0,0,0,0,0,0,0,0,0,-1,1714,1422,0,0
497,-398,0,0,0,0,0,0,0,0,0,-1,1721,1422,0,0
504,-398,0,0,0,0,0,0,0,0,0,-1,1728,1422,0,0
511,-398,0,0,0,0,0,0,0,0,0,-1,1735,1422,0,0
518,-398,0,0,0,0,0,0,0,0,0,-1,1742,1422,0,0
525,-398,0,0,0,0,0,0,0,0,0,-1,1749,1422,0,0
532,-398,28.4558,3.84094,0,0,0,0,0,0,0,-1,1756,1422,28.4558,-3.8409
539,-398,27.0594,3.33887,0,0,0,0,0,0,0,-1,1763,1422,27.0595,-3.3389
546,-398,31.6873,5.58582,0,0,0,0,0,0,0,-1,1770,1422,31.6872,-5.58585
553,-398,30.4392,5.92383,0,0,0,0,0,0,0,-1,1777,1422,30.4392,-5.92386
560,-398,29.1621,6.30469,0,0,0,0,0,0,0,-1,1784,1422,29.1621,-6.30469
567,-398,27.8411,6.55029,0,0,0,0,0,0,0,-1,1791,1422,27.8411,-6.55033
574,-398,26.411,6.8916,0,0,0,0,0,0,0,-1,1798,1422,26.411,-6.8916
581,-398,24.75,7.11145,0,0,0,0,0,0,0,-1,1805,1422,24.7499,-7.11142
588,-398,23.1649,7.67969,0,0,0,0,0,0,0,-1,1812,1422,23.1649,-7.67975
595,-398,21.4253,7.86023,0,0,0,0,0,0,0,-1,1819,1422,21.4253,-7.86029
602,-398,19.6857,8.04077,0,0,0,0,0,0,0,-1,1826,1422,19.6856,-8.04083
609,-398,21.1835,13.2628,0,0,0,0,0,0,0,-1,1833,1422,21.1835,-13.2628
616,-398,33.9792,20.3558,0,0,0,0,0,0,0,-1,1840,1422,33.9793,-20.3559
623,-398,34.1991,19.4606,0.000627071,-0.000771321,0.0004313,0.000749395,-0.000893645,0.276359,0.000949827,0.0472653,1847,1422,34.1991,-19.4606
630,-398,34.2206,18.7638,0.000522737,-0.000643775,0.000430075,0.000664155,-0.000785193,0.317684,0.000837753,0.0139675,1854,1422,34.2206,-18.7638
637,-398,34.1975,18.1141,0.000614237,-0.000417392,0.00019854,0.000651127,-0.000454282,0.183713,0.000641573,0.0150781,1861,1422,34.1975,-18.1141
644,-398,34.1183,17.4885,0.00068072,-0.00034482,9.89587e-05,0.000690182,-0.000354282,0.0953223,0.000613328,0.0225074,1868,1422,34.1183,-17.4885
651,-398,34.1591,16.8608,0.000890911,-0.000251458,7.85348e-05,0.000896285,-0.000256832,0.0683189,0.000699042,0.0300953,1875,1422,34.1591,-16.8608
658,-398,34.1198,16.21,0.00118279,-0.000216327,0.000103597,0.00119042,-0.000223956,0.0735102,0.00087784,0.0251482,1882,1422,34.1197,-16.2099
665,-398,34.0588,15.5229,0.00153769,-0.000229697,0.000230562,0.00156727,-0.000259279,0.127609,0.00114114,0.0166098,1889,1422,34.0588,-15.523
672,-398,34.0378,14.8625,0.00193347,-0.000340059,0.000528288,0.00205023,-0.000456819,0.217518,0.00154182,0.01337,1896,1422,34.0379,-14.8625
679,-398,34.0211,14.1981,0.00241749,-0.000587074,0.00100432,0.00272228,-0.000891861,0.294644,0.002174,0.0124233,1903,1422,34.0211,-14.1981
686,-398,33.9923,13.5626,0.00299891,-0.000971941,0.00170415,0.00362998,-0.00160301,0.354655,0.0030959,0.0207183,1910,1422,33.9923,-13.5626
693,-398,33.936,13.0597,0.00357252,-0.00141639,0.0027242,0.00477178,-0.00261566,0.414697,0.00432527,0.0473119,1917,1422,33.9361,-13.0597
700,-398,34.0623,12.5181,0,0,0,0,0,0,0,-1,1924,1422,34.0623,-12.518
707,-398,10.9731,5.479,0,0,0,0,0,0,0,-1,1931,1422,10.9732,-5.47896
714,-398,11.7313,6.17346,0,0,0,0,0,0,0,-1,1938,1422,11.7313,-6.17348
721,-398,13.9371,8.05103,0,0,0,0,0,0,0,-1,1945,1422,13.9372,-8.05102
728,-398,14.786,7.0282,0,0,0,0,0,0,0,-1,1952,1422,14.786,-7.0282
735,-398,0,0,0,0,0,0,0,0,0,-1,1959,1422,0,0
742,-398,0,0,0,0,0,0,0,0,0,-1,1966,1422,0,0
749,-398,0,0,0,0,0,0,0,0,0,-1,1973,1422,0,0
756,-398,0,0,0,0,0,0,0,0,0,-1,1980,1422,0,0
763,-398,0,0,0,0,0,0,0,0,0,-1,1987,1422,0,0
770,-398,0,0,0,0,0,0,0,0,0,-1,1994,1422,0,0
777,-398,0,0,0,0,0,0,0,0,0,-1,2001,1422,0,0
784,-398,0,0,0,0,0,0,0,0,0,-1,2008,1422,0,0
791,-398,0,0,0,0,0,0,0,0,0,-1,2015,1422,0,0
798,-398,0,0,0,0,0,0,0,0,0,-1,2022,1422,0,0
805,-398,0,0,0,0,0,0,0,0,0,-1,2029,1422,0,0
812,-398,0,0,0,0,0,0,0,0,0,-1,2036,1422,0,0
-700,-405,0,0,0,0,0,0,0,0,0,-1,524,1429,0,0
-693,-405,0,0,0,0,0,0,0,0,0,-1,531,1429,0,0
-686,-405,0,0,0,0,0,0,0,0,0,-1,538,1429,0,0
-679,-405,0,0,0,0,0,0,0,0,0,-1,545,1429,0,0
-672,-405,0,0,0,0,0,0,0,0,0,-1,552,1429,0,0
-665,-405,0,0,0,0,0,0,0,0,0,-1,559,1429,0,0
-658,-405,0,0,0,0,0,0,0,0,0,-1,566,1429,0,0
-651,-405,0,0,0,0,0,0,0,0,0,-1,573,1429,0,0
-644,-405,0,0,0,0,0,0,0,0,0,-1,580,1429,0,0
-637,-405,0,0,0,0,0,0,0,0,0,-1,587,1429,0,0
-630,-405,0,0,0,0,0,0,0,0,0,-1,594,1429,0,0
-623,-405,0,0,0,0,0,0,0,0,0,-1,601,1429,0,0
-616,-405,0,0,0,0,0,0,0,0,0,-1,608,1429,0,0
-609,-405,0,0,0,0,0,0,0,0,0,-1,615,1429,0,0
-602,-405,-5.80988,-3.46594,0,0,0,0,0,0,0,-1,622,1429,-5.80987,3.46592
-595,-405,-9.35413,2.01477,0,0,0,0,0,0,0,-1,629,1429,-9.35411,-2.01476
-588,-405,-7.35693,0.507202,0,0,0,0,0,0,0,-1,636,1429,-7.35696,-0.507187
-581,-405,-10.1284,1.62927,0,0,0,0,0,0,0,-1,643,1429,-10.1284,-1.62922
-574,-405,-9.32074,3.05896,0,0,0,0,0,0,0,-1,650,1429,-9.32077,-3.0589
-567,-405,-9.68781,6.92163,0,0,0,0,0,0,0,-1,657,1429,-9.68782,-6.92166
-560,-405,-9.28674,7.20886,0,0,0,0,0,0,0,-1,664,1429,-9.28675,-7.20885
-553,-405,-16.1077,11.8129,0,0,0,0,0,0,0,-1,671,1429,-16.1077,-11.8129
-546,-405,-16.1083,12.604,0.00761969,0.00431798,0.00454198,0.0108015,0.00113614,0.611088,0.00685376,0.045799,678,1429,-16.1083,-12.604
-539,-405,-16.1057,13.3639,0.00576636,0.00339223,0.00345452,0.00823209,0.000926509,0.619905,0.00520677,0.0133658,685,1429,-16.1056,-13.3639
-532,-405,-16.1111,14.0876,0.00427508,0.00249865,0.00252464,0.0060632,0.000710532,0.616252,0.00382734,0.0159271,692,1429,-16.1111,-14.0877
-525,-405,-16.1331,14.8102,0.00321655,0.00192846,0.0018948,0.00457377,0.000571245,0.621574,0.00287773,0.0146511,699,1429,-16.1331,-14.8102
-518,-405,-16.1749,15.5077,0.00245096,0.00152564,0.00144644,0.00350694,0.00046967,0.63061,0.00219819,0.015147,706,1429,-16.1749,-15.5077
-511,-405,-16.2217,16.2009,0.00191793,0.00125791,0.00113598,0.00277086,0.000404981,0.644035,0.00172814,0.0150186,713,1429,-16.2217,-16.201
-504,-405,-16.2321,16.9111,0.00162341,0.00114314,0.000973112,0.00238558,0.000380972,0.664429,0.00147983,0.0170409,720,1429,-16.2321,-16.9111
-497,-405,-16.2566,17.6295,0.00157507,0.00118647,0.000975876,0.0023758,0.000385742,0.687131,0.00147223,0.0148314,727,1429,-16.2566,-17.6295
-490,-405,-16.2932,18.3264,0.00182943,0.00142021,0.00114074,0.00278377,0.00046587,0.696657,0.0017217,0.0129657,734,1429,-16.2932,-18.3264
-483,-405,-16.2321,19.1248,0.00229929,0.00188009,0.00146355,0.00356817,0.000611202,0.714274,0.00220349,0.0330334,741,1429,-16.2321,-19.1247
-476,-405,-16.0119,20.1498,0,0,0,0,0,0,0,-1,748,1429,-16.0119,-20.1498
-469,-405,-9.65692,12.8171,0,0,0,0,0,0,0,-1,755,1429,-9.65691,-12.8172
-462,-405,-9.14862,11.3597,0,0,0,0,0,0,0,-1,762,1429,-9.14865,-11.3597
-455,-405,-9.021,9.51111,0,0,0,0,0,0,0,-1,769,1429,-9.021,-9.51109
-448,-405,-8.4649,6.82813,0,0,0,0,0,0,0,-1,776,1429,-8.46492,-6.82817
-441,-405,-6.6712,4.23767,0,0,0,0,0,0,0,-1,783,1429,-6.67121,-4.23764
-434,-405,-9.62549,3.94189,0,0,0,0,0,0,0,-1,790,1429,-9.62546,-3.94191
-427,-405,-10.9764,3.73926,0,0,0,0,0,0,0,-1,797,1429,-10.9764,-3.73923
-420,-405,-12.1187,3.68506,0,0,0,0,0,0,0,-1,804,1429,-12.1187,-3.68512
-413,-405,-13.5353,3.75659,0,0,0,0,0,0,0,-1,811,1429,-13.5353,-3.75655
-406,-405,-14.7374,3.99817,0,0,0,0,0,0,0,-1,818,1429,-14.7374,-3.99814
-399,-405,0,0,0,0,0,0,0,0,0,-1,825,1429,0,0
-392,-405,0,0,0,0,0,0,0,0,0,-1,832,1429,0,0
-385,-405,0,0,0,0,0,0,0,0,0,-1,839,1429,0,0
-378,-405,0,0,0,0,0,0,0,0,0,-1,846,1429,0,0
-371,-405,0,0,0,0,0,0,0,0,0,-1,853,1429,0,0
-364,-405,0,0,0,0,0,0,0,0,0,-1,860,1429,0,0
-357,-405,0,0,0,0,0,0,0,0,0,-1,867,1429,0,0
-350,-405,0,0,0,0,0,0,0,0,0,-1,874,1429,0,0
-343,-405,0,0,0,0,0,0,0,0,0,-1,881,1429,0,0
-336,-405,0,0,0,0,0,0,0,0,0,-1,888,1429,0,0
-329,-405,0,0,0,0,0,0,0,0,0,-1,895,1429,0,0
-322,-405,0,0,0,0,0,0,0,0,0,-1,902,1429,0,0
-315,-405,0,0,0,0,0,0,0,0,0,-1,909,1429,0,0
-308,-405,0,0,0,0,0,0,0,0,0,-1,916,1429,0,0
-301,-405,0,0,0,0,0,0,0,0,0,-1,923,1429,0,0
-294,-405,0,0,0,0,0,0,0,0,0,-1,930,1429,0,0
-287,-405,0,0,0,0,0,0,0,0,0,-1,937,1429,0,0
-280,-405,0,0,0,0,0,0,0,0,0,-1,944,1429,0,0
-273,-405,0,0,0,0,0,0,0,0,0,-1,951,1429,0,0
-266,-405,0,0,0,0,0,0,0,0,0,-1,958,1429,0,0
-259,-405,0,0,0,0,0,0,0,0,0,-1,965,1429,0,0
-252,-405,0,0,0,0,0,0,0,0,0,-1,972,1429,0,0
-245,-405,0,0,0,0,0,0,0,0,0,-1,979,1429,0,0
-238,-405,0,0,0,0,0,0,0,0,0,-1,986,1429,0,0
-231,-405,0,0,0,0,0,0,0,0,0,-1,993,1429,0,0
-224,-405,0,0,0,0,0,0,0,0,0,-1,1000,1429,0,0
-217,-405,0,0,0,0,0,0,0,0,0,-1,1007,1429,0,0
-210,-405,0,0,0,0,0,0,0,0,0,-1,1014,1429,0,0
-203,-405,0,0,0,0,0,0,0,0,0,-1,1021,1429,0,0
-196,-405,0,0,0,0,0,0,0,0,0,-1,1028,1429,0,0
-189,-405,0,0,0,0,0,0,0,0,0,-1,1035,1429,0,0
-182,-405,0,0,0,0,0,0,0,0,0,-1,1042,1429,0,0
-175,-405,0,0,0,0,0,0,0,0,0,-1,1049,1429,0,0
-168,-405,0,0,0,0,0,0,0,0,0,-1,1056,1429,0,0
-161,-405,0,0,0,0,0,0,0,0,0,-1,1063,1429,0,0
-154,-405,0,0,0,0,0,0,0,0,0,-1,1070,1429,0,0
-147,-405,0,0,0,0,0,0,0,0,0,-1,1077,1429,0,0
-140,-405,0,0,0,0,0,0,0,0,0,-1,1084,1429,0,0
-133,-405,0,0,0,0,0,0,0,0,0,-1,1091,1429,0,0
-126,-405,0,0,0,0,0,0,0,0,0,-1,1098,1429,0,0
-119,-405,0,0,0,0,0,0,0,0,0,-1,1105,1429,0,0
-112,-405,0,0,0,0,0,0,0,0,0,-1,1112,1429,0,0
-105,-405,0,0,0,0,0,0,0,0,0,-1,1119,1429,0,0
-98,-405,0,0,0,0,0,0,0,0,0,-1,1126,1429,0,0
-91,-405,0,0,0,0,0,0,0,0,0,-1,1133,1429,0,0
-84,-405,0,0,0,0,0,0,0,0,0,-1,1140,1429,0,0
-77,-405,0,0,0,0,0,0,0,0,0,-1,1147,1429,0,0
-70,-405,0,0,0,0,0,0,0,0,0,-1,1154,1429,0,0
-63,-405,0,0,0,0,0,0,0,0,0,-1,1161,1429,0,0
-56,-405,0,0,0,0,0,0,0,0,0,-1,1168,1429,0,0
-49,-405,0,0,0,0,0,0,0,0,0,-1,1175,1429,0,0
-42,-405,0,0,0,0,0,0,0,0,0,-1,1182,1429,0,0
-35,-405,0,0,0,0,0,0,0,0,0,-1,1189,1429,0,0
-28,-405,0,0,0,0,0,0,0,0,0,-1,1196,1429,0,0
-21,-405,0,0,0,0,0,0,0,0,0,-1,1203,1429,0,0
-14,-405,0,0,0,0,0,0,0,0,0,-1,1210,1429,0,0
-7,-405,0,0,0,0,0,0,0,0,0,-1,1217,1429,0,0
0,-405,0,0,0,0,0,0,0,0,0,-1,1224,1429,0,0
7,-405,0,0,0,0,0,0,0,0,0,-1,1231,1429,0,0
14,-405,0,0,0,0,0,0,0,0,0,-1,1238,1429,0,0
21,-405,0,0,0,0,0,0,0,0,0,-1,1245,1429,0,0
28,-405,0,0,0,0,0,0,0,0,0,-1,1252,1429,0,0
35,-405,0,0,0,0,0,0,0,0,0,-1,1259,1429,0,0
42,-405,0,0,0,0,0,0,0,0,0,-1,1266,1429,0,0
49,-405,0,0,0,0,0,0,0,0,0,-1,1273,1429,0,0
56,-405,0,0,0,0,0,0,0,0,0,-1,1280,1429,0,0
63,-405,0,0,0,0,0,0,0,0,0,-1,1287,1429,0,0
70,-405,0,0,0,0,0,0,0,0,0,-1,1294,1429,0,0
77,-405,0,0,0,0,0,0,0,0,0,-1,1301,1429,0,0
84,-405,0,0,0,0,0,0,0,0,0,-1,1308,1429,0,0
91,-405,0,0,0,0,0,0,0,0,0,-1,1315,1429,0,0
98,-405,0,0,0,0,0,0,0,0,0,-1,1322,1429,0,0
105,-405,0,0,0,0,0,0,0,0,0,-1,1329,1429,0,0
112,-405,0,0,0,0,0,0,0,0,0,-1,1336,1429,0,0
119,-405,0,0,0,0,0,0,0,0,0,-1,1343,1429,0,0
126,-405,0,0,0,0,0,0,0,0,0,-1,1350,1429,0,0
133,-405,0,0,0,0,0,0,0,0,0,-1,1357,1429,0,0
140,-405,0,0,0,0,0,0,0,0,0,-1,1364,1429,0,0
147,-405,0,0,0,0,0,0,0,0,0,-1,1371,1429,0,0
154,-405,0,0,0,0,0,0,0,0,0,-1,1378,1429,0,0
161,-405,0,0,0,0,0,0,0,0,0,-1,1385,1429,0,0
168,-405,0,0,0,0,0,0,0,0,0,-1,1392,1429,0,0
175,-405,0,0,0,0,0,0,0,0,0,-1,1399,1429,0,0
182,-405,0,0,0,0,0,0,0,0,0,-1,1406,1429,0,0
189,-405,0,0,0,0,0,0,0,0,0,-1,1413,1429,0,0
196,-405,0,0,0,0,0,0,0,0,0,-1,1420,1429,0,0
203,-405,0,0,0,0,0,0,0,0,0,-1,1427,1429,0,0
210,-405,0,0,0,0,0,0,0,0,0,-1,1434,1429,0,0
217,-405,0,0,0,0,0,0,0,0,0,-1,1441,1429,0,0
224,-405,0,0,0,0,0,0,0,0,0,-1,1448,1429,0,0
231,-405,0,0,0,0,0,0,0,0,0,-1,1455,1429,0,0
238,-405,0,0,0,0,0,0,0,0,0,-1,1462,1429,0,0
245,-405,0,0,0,0,0,0,0,0,0,-1,1469,1429,0,0
252,-405,0,0,0,0,0,0,0,0,0,-1,1476,1429,0,0
259,-405,0,0,0,0,0,0,0,0,0,-1,1483,1429,0,0
266,-405,0,0,0,0,0,0,0,0,0,-1,1490,1429,0,0
273,-405,0,0,0,0,0,0,0,0,0,-1,1497,1429,0,0
280,-405,0,0,0,0,0,0,0,0,0,-1,1504,1429,0,0
287,-405,0,0,0,0,0,0,0,0,0,-1,1511,1429,0,0
294,-405,0,0,0,0,0,0,0,0,0,-1,1518,1429,0,0
301,-405,0,0,0,0,0,0,0,0,0,-1,1525,1429,0,0
308,-405,0,0,0,0,0,0,0,0,0,-1,1532,1429,0,0
315,-405,0,0,0,0,0,0,0,0,0,-1,1539,1429,0,0
322,-405,0,0,0,0,0,0,0,0,0,-1,1546,1429,0,0
329,-405,0,0,0,0,0,0,0,0,0,-1,1553,1429,0,0
336,-405,0,0,0,0,0,0,0,0,0,-1,1560,1429,0,0
343,-405,0,0,0,0,0,0,0,0,0,-1,1567,1429,0,0
350,-405,0,0,0,0,0,0,0,0,0,-1,1574,1429,0,0
357,-405,0,0,0,0,0,0,0,0,0,-1,1581,1429,0,0
364,-405,0,0,0,0,0,0,0,0,0,-1,1588,1429,0,0
371,-405,0,0,0,0,0,0,0,0,0,-1,1595,1429,0,0
378,-405,0,0,0,0,0,0,0,0,0,-1,1602,1429,0,0
385,-405,0,0,0,0,0,0,0,0,0,-1,1609,1429,0,0
392,-405,0,0,0,0,0,0,0,0,0,-1,1616,1429,0,0
399,-405,0,0,0,0,0,0,0,0,0,-1,1623,1429,0,0
406,-405,0,0,0,0,0,0,0,0,0,-1,1630,1429,0,0
413,-405,0,0,0,0,0,0,0,0,0,-1,1637,1429,0,0
420,-405,0,0,0,0,0,0,0,0,0,-1,1644,1429,0,0
427,-405,0,0,0,0,0,0,0,0,0,-1,1651,1429,0,0
434,-405,0,0,0,0,0,0,0,0,0,-1,1658,1429,0,0
441,-405,0,0,0,0,0,0,0,0,0,-1,1665,1429,0,0
448,-405,0,0,0,0,0,0,0,0,0,-1,1672,1429,0,0
455,-405,0,0,0,0,0,0,0,0,0,-1,1679,1429,0,0
462,-405,0,0,0,0,0,0,0,0,0,-1,1686,1429,0,0
469,-405,0,0,0,0,0,0,0,0,0,-1,1693,1429,0,0
476,-405,0,0,0,0,0,0,0,0,0,-1,1700,1429,0,0
483,-405,0,0,0,0,0,0,0,0,0,-1,1707,1429,0,0
490,-405,0,0,0,0,0,0,0,0,0,-1,1714,1429,0,0
497,-405,0,0,0,0,0,0,0,0,0,-1,1721,1429,0,0
504,-405,0,0,0,0,0,0,0,0,0,-1,1728,1429,0,0
511,-405,0,0,0,0,0,0,0,0,0,-1,1735,1429,0,0
518,-405,0,0,0,0,0,0,0,0,0,-1,1742,1429,0,0
525,-405,31.1563,-1.40942,0,0,0,0,0,0,0,-1,1749,1429,31.1563,1.40937
532,-405,28.156,4.8783,0,0,0,0,0,0,0,-1,1756,1429,28.1561,-4.87833
539,-405,26.5133,3.02454,0,0,0,0,0,0,0,-1,1763,1429,26.5133,-3.0246
546,-405,29.5735,6.53052,0,0,0,0,0,0,0,-1,1770,1429,29.5735,-6.53049
553,-405,28.2911,6.70654,0,0,0,0,0,0,0,-1,1777,1429,28.2912,-6.70656
560,-405,26.9299,7.08472,0,0,0,0,0,0,0,-1,1784,1429,26.9299,-7.08469
567,-405,25.804,7.14661,0,0,0,0,0,0,0,-1,1791,1429,25.8039,-7.14665
574,-405,25.1151,8.07971,0,0,0,0,0,0,0,-1,1798,1429,25.1151,-8.07965
581,-405,23.5055,8.505,0,0,0,0,0,0,0,-1,1805,1429,23.5054,-8.50501
588,-405,21.7491,8.98254,0,0,0,0,0,0,0,-1,1812,1429,21.7491,-8.98254
595,-405,21.6327,10.7795,0,0,0,0,0,0,0,-1,1819,1429,21.6327,-10.7796
602,-405,21.6461,13.9199,0,0,0,0,0,0,0,-1,1826,1429,21.6461,-13.92
609,-405,33.5369,20.9738,0,0,0,0,0,0,0,-1,1833,1429,33.5368,-20.9737
616,-405,33.5437,20.2621,0,0,0,0,0,0,0,-1,1840,1429,33.5437,-20.2621
623,-405,33.5269,19.5457,0.00121161,-0.000466171,4.61521e-05,0.00121288,-0.000467439,0.0274802,0.00100145,0.0152227,1847,1429,33.5269,-19.5457
630,-405,33.5304,18.8378,0.00107211,-0.000452849,6.72229e-05,0.00107507,-0.000455807,0.0439681,0.000907636,0.0111062,1854,1429,33.5304,-18.8377
637,-405,33.5249,18.1742,0.00106712,-0.000347415,-6.34579e-05,0.00106996,-0.000350256,-0.0447416,0.000854336,0.0115549,1861,1429,33.5249,-18.1742
644,-405,33.4252,17.5782,0.00111709,-0.000290205,-0.000121804,0.00112755,-0.00030067,-0.0857027,0.000869429,0.0319599,1868,1429,33.4251,-17.5782
651,-405,33.3904,16.8962,0.00127048,-0.000159879,-0.000157287,0.00128757,-0.000176971,-0.10824,0.000923045,0.0357357,1875,1429,33.3904,-16.8962
658,-405,33.4313,16.2225,0.00145696,-7.42282e-05,-0.000132451,0.00146833,-8.56011e-05,-0.0856546,0.00100863,0.0270285,1882,1429,33.4313,-16.2225
665,-405,33.4076,15.5656,0.00167314,-3.62219e-05,2.03728e-05,0.00167338,-3.64647e-05,0.0119161,0.00112794,0.0208147,1889,1429,33.4076,-15.5656
672,-405,33.3961,14.9061,0.00186399,-0.000109627,0.000393074,0.0019394,-0.000185032,0.189532,0.00135881,0.0238263,1896,1429,33.3961,-14.9061
679,-405,33.4865,14.2631,0.00209339,-0.000360947,0.00100613,0.00245312,-0.000720677,0.343374,0.00192124,0.0265774,1903,1429,33.4864,-14.263
686,-405,33.2382,13.7468,0.00233149,-0.000807881,0.00196697,0.00327833,-0.00175472,0.448632,0.00294988,0.0435236,1910,1429,33.2381,-13.7468
693,-405,32.6849,13.0449,0,0,0,0,0,0,0,-1,1917,1429,32.6849,-13.0449
700,-405,9.1958,4.02026,0,0,0,0,0,0,0,-1,1924,1429,9.19579,-4.02025
707,-405,7.40308,3.83191,0,0,0,0,0,0,0,-1,1931,1429,7.40311,-3.83194
714,-405,7.33252,3.47388,0,0,0,0,0,0,0,-1,1938,1429,7.33255,-3.47383
721,-405,9.23523,0.993896,0,0,0,0,0,0,0,-1,1945,1429,9.23523,-0.993884
728,-405,0,0,0,0,0,0,0,0,0,-1,1952,1429,0,0
735,-405,0,0,0,0,0,0,0,0,0,-1,1959,1429,0,0
742,-405,0,0,0,0,0,0,0,0,0,-1,1966,1429,0,0
749,-405,0,0,0,0,0,0,0,0,0,-1,1973,1429,0,0
756,-405,0,0,0,0,0,0,0,0,0,-1,1980,1429,0,0
763,-405,0,0,0,0,0,0,0,0,0,-1,1987,1429,0,0
770,-405,0,0,0,0,0,0,0,0,0,-1,1994,1429,0,0
777,-405,0,0,0,0,0,0,0,0,0,-1,2001,1429,0,0
784,-405,0,0,0,0,0,0,0,0,0,-1,2008,1429,0,0
791,-405,0,0,0,0,0,0,0,0,0,-1,2015,1429,0,0
798,-405,0,0,0,0,0,0,0,0,0,-1,2022,1429,0,0
805,-405,0,0,0,0,0,0,0,0,0,-1,2029,1429,0,0
812,-405,0,0,0,0,0,0,0,0,0,-1,2036,1429,0,0
-700,-412,0,0,0,0,0,0,0,0,0,-1,524,1436,0,0
-693,-412,0,0,0,0,0,0,0,0,0,-1,531,1436,0,0
-686,-412,0,0,0,0,0,0,0,0,0,-1,538,1436,0,0
-679,-412,0,0,0,0,0,0,0,0,0,-1,545,1436,0,0
-672,-412,0,0,0,0,0,0,0,0,0,-1,552,1436,0,0
-665,-412,0,0,0,0,0,0,0,0,0,-1,559,1436,0,0
-658,-412,0,0,0,0,0,0,0,0,0,-1,566,1436,0,0
-651,-412,0,0,0,0,0,0,0,0,0,-1,573,1436,0,0
-644,-412,0,0,0,0,0,0,0,0,0,-1,580,1436,0,0
-637,-412,0,0,0,0,0,0,0,0,0,-1,587,1436,0,0
-630,-412,0,0,0,0,0,0,0,0,0,-1,594,1436,0,0
-623,-412,0,0,0,0,0,0,0,0,0,-1,601,1436,0,0
-616,-412,0,0,0,0,0,0,0,0,0,-1,608,1436,0,0
-609,-412,0,0,0,0,0,0,0,0,0,-1,615,1436,0,0
-602,-412,-3.72766,-3.50012,0,0,0,0,0,0,0,-1,622,1436,-3.72764,3.50017
-595,-412,-10.3706,0.65564,0,0,0,0,0,0,0,-1,629,1436,-10.3706,-0.655672
-588,-412,-8.17957,1.94934,0,0,0,0,0,0,0,-1,636,1436,-8.17956,-1.94939
-581,-412,-6.60065,-0.0554199,0,0,0,0,0,0,0,-1,643,1436,-6.60063,0.0554733
-574,-412,-8.34131,5.25012,0,0,0,0,0,0,0,-1,650,1436,-8.34129,-5.25012
-567,-412,-7.50354,3.65454,0,0,0,0,0,0,0,-1,657,1436,-7.50356,-3.65452
-560,-412,-8.52448,7.39014,0,0,0,0,0,0,0,-1,664,1436,-8.52447,-7.39019
-553,-412,-7.36761,6.54651,0,0,0,0,0,0,0,-1,671,1436,-7.36763,-6.54654
-546,-412,-15.3655,12.6635,0,0,0,0,0,0,0,-1,678,1436,-15.3655,-12.6634
-539,-412,-15.3643,13.3372,0.00625695,0.00434189,0.00407221,0.00948269,0.00111615,0.669927,0.00598454,0.0274622,685,1436,-15.3643,-13.3371
-532,-412,-15.4061,14.1393,0.00464837,0.00321839,0.00302029,0.00703714,0.000829611,0.669173,0.0044408,0.0149251,692,1436,-15.4061,-14.1393
-525,-412,-15.446,14.8555,0.00351905,0.00249668,0.0023005,0.00536447,0.00065126,0.676072,0.00338021,0.0159111,699,1436,-15.4461,-14.8554
-518,-412,-15.4809,15.5372,0.00269765,0.00197949,0.00177387,0.00414842,0.000528726,0.685534,0.00260731,0.0156667,706,1436,-15.4809,-15.5373
-511,-412,-15.5139,16.2377,0.00208902,0.00160321,0.00137372,0.00324115,0.000451077,0.697891,0.0020272,0.0177954,713,1436,-15.5139,-16.2377
-504,-412,-15.5353,16.9659,0.0016841,0.0013789,0.00109759,0.00263965,0.000423354,0.716324,0.001637,0.0178323,720,1436,-15.5353,-16.9659
-497,-412,-15.5727,17.6703,0.00151064,0.00131337,0.000965918,0.00238295,0.000441066,0.734517,0.00146393,0.0148369,727,1436,-15.5727,-17.6703
-490,-412,-15.6077,18.3531,0.00158881,0.00145346,0.00100937,0.00253278,0.000509497,0.751924,0.00154691,0.0128833,734,1436,-15.6077,-18.3532
-483,-412,-15.6348,19.0304,0.001851,0.00178933,0.00118489,0.00300546,0.000634872,0.772391,0.00182912,0.011345,741,1436,-15.6347,-19.0305
-476,-412,-15.6157,19.8141,0,0,0,0,0,0,0,-1,748,1436,-15.6157,-19.8141
-469,-412,-12.7646,18.4785,0,0,0,0,0,0,0,-1,755,1436,-12.7647,-18.4785
-462,-412,-8.94659,13.3385,0,0,0,0,0,0,0,-1,762,1436,-8.94657,-13.3385
-455,-412,-8.25006,11.2572,0,0,0,0,0,0,0,-1,769,1436,-8.25007,-11.2572
-448,-412,-7.38086,8.78186,0,0,0,0,0,0,0,-1,776,1436,-7.38088,-8.78183
-441,-412,-8.79523,9.05286,0,0,0,0,0,0,0,-1,783,1436,-8.79521,-9.0529
-434,-412,-10.6305,8.03577,0,0,0,0,0,0,0,-1,790,1436,-10.6305,-8.0358
-427,-412,-10.0004,5.15271,0,0,0,0,0,0,0,-1,797,1436,-10.0004,-5.15266
-420,-412,-10.4468,4.9043,0,0,0,0,0,0,0,-1,804,1436,-10.4468,-4.90429
-413,-412,-11.5704,4.97766,0,0,0,0,0,0,0,-1,811,1436,-11.5704,-4.97771
-406,-412,-13.1968,5.70093,0,0,0,0,0,0,0,-1,818,1436,-13.1968,-5.70096
-399,-412,-10.5506,0.771973,0,0,0,0,0,0,0,-1,825,1436,-10.5506,-0.771954
-392,-412,0,0,0,0,0,0,0,0,0,-1,832,1436,0,0
-385,-412,0,0,0,0,0,0,0,0,0,-1,839,1436,0,0
-378,-412,0,0,0,0,0,0,0,0,0,-1,846,1436,0,0
-371,-412,0,0,0,0,0,0,0,0,0,-1,853,1436,0,0
-364,-412,0,0,0,0,0,0,0,0,0,-1,860,1436,0,0
-357,-412,0,0,0,0,0,0,0,0,0,-1,867,1436,0,0
-350,-412,0,0,0,0,0,0,0,0,0,-1,874,1436,0,0
-343,-412,0,0,0,0,0,0,0,0,0,-1,881,1436,0,0
-336,-412,0,0,0,0,0,0,0,0,0,-1,888,1436,0,0
-329,-412,0,0,0,0,0,0,0,0,0,-1,895,1436,0,0
-322,-412,0,0,0,0,0,0,0,0,0,-1,902,1436,0,0
-315,-412,0,0,0,0,0,0,0,0,0,-1,909,1436,0,0
-308,-412,0,0,0,0,0,0,0,0,0,-1,916,1436,0,0
-301,-412,0,0,0,0,0,0,0,0,0,-1,923,1436,0,0
-294,-412,0,0,0,0,0,0,0,0,0,-1,930,1436,0,0
-287,-412,0,0,0,0,0,0,0,0,0,-1,937,1436,0,0
-280,-412,0,0,0,0,0,0,0,0,0,-1,944,1436,0,0
-273,-412,0,0,0,0,0,0,0,0,0,-1,951,1436,0,0
-266,-412,0,0,0,0,0,0,0,0,0,-1,958,1436,0,0
-259,-412,0,0,0,0,0,0,0,0,0,-1,965,1436,0,0
-252,-412,0,0,0,0,0,0,0,0,0,-1,972,1436,0,0
-245,-412,0,0,0,0,0,0,0,0,0,-1,979,1436,0,0
-238,-412,0,0,0,0,0,0,0,0,0,-1,986,1436,0,0
-231,-412,0,0,0,0,0,0,0,0,0,-1,993,1436,0,0
-224,-412,0,0,0,0,0,0,0,0,0,-1,1000,1436,0,0
-217,-412,0,0,0,0,0,0,0,0,0,-1,1007,1436,0,0
-210,-412,0,0,0,0,0,0,0,0,0,-1,1014,1436,0,0
-203,-412,0,0,0,0,0,0,0,0,0,-1,1021,1436,0,0
-196,-412,0,0,0,0,0,0,0,0,0,-1,1028,1436,0,0
-189,-412,0,0,0,0,0,0,0,0,0,-1,1035,1436,0,0
-182,-412,0,0,0,0,0,0,0,0,0,-1,1042,1436,0,0
-175,-412,0,0,0,0,0,0,0,0,0,-1,1049,1436,0,0
-168,-412,0,0,0,0,0,0,0,0,0,-1,1056,1436,0,0
-161,-412,0,0,0,0,0,0,0,0,0,-1,1063,1436,0,0
-154,-412,0,0,0,0,0,0,0,0,0,-1,1070,1436,0,0
-147,-412,0,0,0,0,0,0,0,0,0,-1,1077,1436,0,0
-140,-412,0,0,0,0,0,0,0,0,0,-1,1084,1436,0,0
-133,-412,0,0,0,0,0,0,0,0,0,-1,1091,1436,0,0
-126,-412,0,0,0,0,0,0,0,0,0,-1,1098,1436,0,0
-119,-412,0,0,0,0,0,0,0,0,0,-1,1105,1436,0,0
-112,-412,0,0,0,0,0,0,0,0,0,-1,1112,1436,0,0
-105,-412,0,0,0,0,0,0,0,0,0,-1,1119,1436,0,0
-98,-412,0,0,0,0,0,0,0,0,0,-1,1126,1436,0,0
-91,-412,0,0,0,0,0,0,0,0,0,-1,1133,1436,0,0
-84,-412,0,0,0,0,0,0,0,0,0,-1,1140,1436,0,0
-77,-412,0,0,0,0,0,0,0,0,0,-1,1147,1436,0,0
-70,-412,0,0,0,0,0,0,0,0,0,-1,1154,1436,0,0
-63,-412,0,0,0,0,0,0,0,0,0,-1,1161,1436,0,0
-56,-412,0,0,0,0,0,0,0,0,0,-1,1168,1436,0,0
-49,-412,0,0,0,0,0,0,0,0,0,-1,1175,1436,0,0
-42,-412,0,0,0,0,0,0,0,0,0,-1,1182,1436,0,0
-35,-412,0,0,0,0,0,0,0,0,0,-1,1189,1436,0,0
-28,-412,0,0,0,0,0,0,0,0,0,-1,1196,1436,0,0
-21,-412,0,0,0,0,0,0,0,0,0,-1,1203,1436,0,0
-14,-412,0,0,0,0,0,0,0,0,0,-1,1210,1436,0,0
-7,-412,0,0,0,0,0,0,0,0,0,-1,1217,1436,0,0
0,-412,0,0,0,0,0,0,0,0,0,-1,1224,1436,0,0
7,-412,0,0,0,0,0,0,0,0,0,-1,1231,1436,0,0
14,-412,0,0,0,0,0,0,0,0,0,-1,1238,1436,0,0
21,-412,0,0,0,0,0,0,0,0,0,-1,1245,1436,0,0
28,-412,0,0,0,0,0,0,0,0,0,-1,1252,1436,0,0
35,-412,0,0,0,0,0,0,0,0,0,-1,1259,1436,0,0
42,-412,0,0,0,0,0,0,0,0,0,-1,1266,1436,0,0
49,-412,0,0,0,0,0,0,0,0,0,-1,1273,1436,0,0
56,-412,0,0,0,0,0,0,0,0,0,-1,1280,1436,0,0
63,-412,0,0,0,0,0,0,0,0,0,-1,1287,1436,0,0
70,-412,0,0,0,0,0,0,0,0,0,-1,1294,1436,0,0
77,-412,0,0,0,0,0,0,0,0,0,-1,1301,1436,0,0
84,-412,0,0,0,0,0,0,0,0,0,-1,1308,1436,0,0
91,-412,0,0,0,0,0,0,0,0,0,-1,1315,1436,0,0
98,-412,0,0,0,0,0,0,0,0,0,-1,1322,1436,0,0
105,-412,0,0,0,0,0,0,0,0,0,-1,1329,1436,0,0
112,-412,0,0,0,0,0,0,0,0,0,-1,1336,1436,0,0
119,-412,0,0,0,0,0,0,0,0,0,-1,1343,1436,0,0
126,-412,0,0,0,0,0,0,0,0,0,-1,1350,1436,0,0
133,-412,0,0,0,0,0,0,0,0,0,-1,1357,1436,0,0
140,-412,0,0,0,0,0,0,0,0,0,-1,1364,1436,0,0
147,-412,0,0,0,0,0,0,0,0,0,-1,1371,1436,0,0
154,-412,0,0,0,0,0,0,0,0,0,-1,1378,1436,0,0
161,-412,0,0,0,0,0,0,0,0,0,-1,1385,1436,0,0
168,-412,0,0,0,0,0,0,0,0,0,-1,1392,1436,0,0
175,-412,0,0,0,0,0,0,0,0,0,-1,1399,1436,0,0
182,-412,0,0,0,0,0,0,0,0,0,-1,1406,1436,0,0
189,-412,0,0,0,0,0,0,0,0,0,-1,1413,1436,0,0
196,-412,0,0,0,0,0,0,0,0,0,-1,1420,1436,0,0
203,-412,0,0,0,0,0,0,0,0,0,-1,1427,1436,0,0
210,-412,0,0,0,0,0,0,0,0,0,-1,1434,1436,0,0
217,-412,0,0,0,0,0,0,0,0,0,-1,1441,1436,0,0
224,-412,0,0,0,0,0,0,0,0,0,-1,1448,1436,0,0
231,-412,0,0,0,0,0,0,0,0,0,-1,1455,1436,0,0
238,-412,0,0,0,0,0,0,0,0,0,-1,1462,1436,0,0
245,-412,0,0,0,0,0,0,0,0,0,-1,1469,1436,0,0
252,-412,0,0,0,0,0,0,0,0,0,-1,1476,1436,0,0
259,-412,0,0,0,0,0,0,0,0,0,-1,1483,1436,0,0
266,-412,0,0,0,0,0,0,0,0,0,-1,1490,1436,0,0
273,-412,0,0,0,0,0,0,0,0,0,-1,1497,1436,0,0
280,-412,0,0,0,0,0,0,0,0,0,-1,1504,1436,0,0
287,-412,0,0,0,0,0,0,0,0,0,-1,1511,1436,0,0
294,-412,0,0,0,0,0,0,0,0,0,-1,1518,1436,0,0
301,-412,0,0,0,0,0,0,0,0,0,-1,1525,1436,0,0
308,-412,0,0,0,0,0,0,0,0,0,-1,1532,1436,0,0
315,-412,0,0,0,0,0,0,0,0,0,-1,1539,1436,0,0
322,-412,0,0,0,0,0,0,0,0,0,-1,1546,1436,0,0
329,-412,0,0,0,0,0,0,0,0,0,-1,1553,1436,0,0
336,-412,0,0,0,0,0,0,0,0,0,-1,1560,1436,0,0
343,-412,0,0,0,0,0,0,0,0,0,-1,1567,1436,0,0
350,-412,0,0,0,0,0,0,0,0,0,-1,1574,1436,0,0
357,-412,0,0,0,0,0,0,0,0,0,-1,1581,1436,0,0
364,-412,0,0,0,0,0,0,0,0,0,-1,1588,1436,0,0
371,-412,0,0,0,0,0,0,0,0,0,-1,1595,1436,0,0
378,-412,0,0,0,0,0,0,0,0,0,-1,1602,1436,0,0
385,-412,0,0,0,0,0,0,0,0,0,-1,1609,1436,0,0
392,-412,0,0,0,0,0,0,0,0,0,-1,1616,1436,0,0
399,-412,0,0,0,0,0,0,0,0,0,-1,1623,1436,0,0
406,-412,0,0,0,0,0,0,0,0,0,-1,1630,1436,0,0
413,-412,0,0,0,0,0,0,0,0,0,-1,1637,1436,0,0
420,-412,0,0,0,0,0,0,0,0,0,-1,1644,1436,0,0
427,-412,0,0,0,0,0,0,0,0,0,-1,1651,1436,0,0
434,-412,0,0,0,0,0,0,0,0,0,-1,1658,1436,0,0
441,-412,0,0,0,0,0,0,0,0,0,-1,1665,1436,0,0
448,-412,0,0,0,0,0,0,0,0,0,-1,1672,1436,0,0
455,-412,0,0,0,0,0,0,0,0,0,-1,1679,1436,0,0
462,-412,0,0,0,0,0,0,0,0,0,-1,1686,1436,0,0
469,-412,0,0,0,0,0,0,0,0,0,-1,1693,1436,0,0
476,-412,0,0,0,0,0,0,0,0,0,-1,1700,1436,0,0
483,-412,0,0,0,0,0,0,0,0,0,-1,1707,1436,0,0
490,-412,0,0,0,0,0,0,0,0,0,-1,1714,1436,0,0
497,-412,0,0,0,0,0,0,0,0,0,-1,1721,1436,0,0
504,-412,0,0,0,0,0,0,0,0,0,-1,1728,1436,0,0
511,-412,0,0,0,0,0,0,0,0,0,-1,1735,1436,0,0
518,-412,30.1038,-2.43384,0,0,0,0,0,0,0,-1,1742,1436,30.1038,2.43383
525,-412,29.5283,-1.42493,0,0,0,0,0,0,0,-1,1749,1436,29.5283,1.42495
532,-412,28.8533,-0.386597,0,0,0,0,0,0,0,-1,1756,1436,28.8533,0.386632
539,-412,25.8654,2.74683,0,0,0,0,0,0,0,-1,1763,1436,25.8654,-2.74685
546,-412,25.4265,2.4342,0,0,0,0,0,0,0,-1,1770,1436,25.4265,-2.4342
553,-412,26.3595,7.49255,0,0,0,0,0,0,0,-1,1777,1436,26.3595,-7.4925
560,-412,24.9116,7.94324,0,0,0,0,0,0,0,-1,1784,1436,24.9116,-7.94327
567,-412,23.668,7.94531,0,0,0,0,0,0,0,-1,1791,1436,23.6679,-7.94534
574,-412,23.0142,9.17236,0,0,0,0,0,0,0,-1,1798,1436,23.0141,-9.17235
581,-412,22.2615,10.0349,0,0,0,0,0,0,0,-1,1805,1436,22.2615,-10.0349
588,-412,21.6893,10.8069,0,0,0,0,0,0,0,-1,1812,1436,21.6893,-10.8069
595,-412,21.5137,14.3157,0,0,0,0,0,0,0,-1,1819,1436,21.5137,-14.3157
602,-412,32.9235,21.5885,0,0,0,0,0,0,0,-1,1826,1436,32.9235,-21.5886
609,-412,32.9567,20.8402,0.00251595,0.000999852,-0.00112744,0.00311649,0.000399319,-0.489429,0.00195817,0.044164,1833,1436,32.9567,-20.8402
616,-412,32.9432,20.2064,0.0018288,0.00019809,-0.000512787,0.00197665,5.02451e-05,-0.280703,0.00130134,0.0133486,1840,1436,32.9432,-20.2064
623,-412,32.8771,19.5555,0.00142437,-8.80576e-05,-0.000255645,0.00146641,-0.0001301,-0.162999,0.00102374,0.0103396,1847,1436,32.8771,-19.5555
630,-412,32.8546,18.8593,0.0013208,-0.000173185,-0.000222844,0.00135333,-0.000205717,-0.144958,0.000978029,0.0123686,1854,1436,32.8546,-18.8593
637,-412,32.8514,18.2,0.00130102,-0.000169714,-0.000280248,0.00135262,-0.000221305,-0.182053,0.000983844,0.0146602,1861,1436,32.8515,-18.1999
644,-412,32.824,17.548,0.00138295,-0.000130032,-0.000317058,0.00144671,-0.000193788,-0.198438,0.00103513,0.016179,1868,1436,32.824,-17.5479
651,-412,32.7676,16.8484,0.00154129,1.01242e-05,-0.000379736,0.00163029,-7.88787e-05,-0.230225,0.00111408,0.0254227,1875,1436,32.7676,-16.8484
658,-412,32.7609,16.226,0.00171046,0.000135638,-0.000394972,0.00180397,4.21298e-05,-0.232466,0.00118885,0.0179053,1882,1436,32.7608,-16.226
665,-412,32.7612,15.604,0.00187029,0.000220341,-0.000263866,0.00191146,0.000179169,-0.154783,0.00121898,0.0236437,1889,1436,32.7612,-15.6041
672,-412,32.7518,14.8978,0.0019384,0.000186892,0.000115716,0.00194601,0.00017928,0.0656861,0.0012419,0.0330113,1896,1436,32.7518,-14.8979
679,-412,32.9935,14.3116,0,0,0,0,0,0,0,-1,1903,1436,32.9936,-14.3117
686,-412,32.6831,13.9788,0,0,0,0,0,0,0,-1,1910,1436,32.683,-13.9788
693,-412,11.9346,6.02344,0,0,0,0,0,0,0,-1,1917,1436,11.9346,-6.02343
700,-412,8.82764,5.8844,0,0,0,0,0,0,0,-1,1924,1436,8.82761,-5.88444
707,-412,6.59998,1.68994,0,0,0,0,0,0,0,-1,1931,1436,6.60002,-1.68995
714,-412,4.77283,-2.39832,0,0,0,0,0,0,0,-1,1938,1436,4.77288,2.39835
721,-412,0,0,0,0,0,0,0,0,0,-1,1945,1436,0,0
728,-412,0,0,0,0,0,0,0,0,0,-1,1952,1436,0,0
735,-412,0,0,0,0,0,0,0,0,0,-1,1959,1436,0,0
742,-412,0,0,0,0,0,0,0,0,0,-1,1966,1436,0,0
749,-412,0,0,0,0,0,0,0,0,0,-1,1973,1436,0,0
756,-412,0,0,0,0,0,0,0,0,0,-1,1980,1436,0,0
763,-412,0,0,0,0,0,0,0,0,0,-1,1987,1436,0,0
770,-412,0,0,0,0,0,0,0,0,0,-1,1994,1436,0,0
777,-412,0,0,0,0,0,0,0,0,0,-1,2001,1436,0,0
784,-412,0,0,0,0,0,0,0,0,0,-1,2008,1436,0,0
791,-412,0,0,0,0,0,0,0,0,0,-1,2015,1436,0,0
798,-412,0,0,0,0,0,0,0,0,0,-1,2022,1436,0,0
805,-412,0,0,0,0,0,0,0,0,0,-1,2029,1436,0,0
812,-412,0,0,0,0,0,0,0,0,0,-1,2036,1436,0,0
-700,-419,0,0,0,0,0,0,0,0,0,-1,524,1443,0,0
-693,-419,0,0,0,0,0,0,0,0,0,-1,531,1443,0,0
-686,-419,0,0,0,0,0,0,0,0,0,-1,538,1443,0,0
-679,-419,0,0,0,0,0,0,0,0,0,-1,545,1443,0,0
-672,-419,0,0,0,0,0,0,0,0,0,-1,552,1443,0,0
-665,-419,0,0,0,0,0,0,0,0,0,-1,559,1443,0,0
-658,-419,0,0,0,0,0,0,0,0,0,-1,566,1443,0,0
-651,-419,0,0,0,0,0,0,0,0,0,-1,573,1443,0,0
-644,-419,0,0,0,0,0,0,0,0,0,-1,580,1443,0,0
-637,-419,0,0,0,0,0,0,0,0,0,-1,587,1443,0,0
-630,-419,0,0,0,0,0,0,0,0,0,-1,594,1443,0,0
-623,-419,0,0,0,0,0,0,0,0,0,-1,601,1443,0,0
-616,-419,0,0,0,0,0,0,0,0,0,-1,608,1443,0,0
-609,-419,0,0,0,0,0,0,0,0,0,-1,615,1443,0,0
-602,-419,0,0,0,0,0,0,0,0,0,-1,622,1443,0,0
-595,-419,-11.4904,-0.622681,0,0,0,0,0,0,0,-1,629,1443,-11.4903,0.622714
-588,-419,-9.09369,0.742432,0,0,0,0,0,0,0,-1,636,1443,-9.09366,-0.742482
-581,-419,-6.39172,2.14673,0,0,0,0,0,0,0,-1,643,1443,-6.39175,-2.14668
-574,-419,-4.09772,3.54773,0,0,0,0,0,0,0,-1,650,1443,-4.09772,-3.54767
-567,-419,-6.14038,3.22498,0,0,0,0,0,0,0,-1,657,1443,-6.14037,-3.22497
-560,-419,-4.52814,5.22253,0,0,0,0,0,0,0,-1,664,1443,-4.52816,-5.22251
-553,-419,-5.08331,6.11829,0,0,0,0,0,0,0,-1,671,1443,-5.08331,-6.1183
-546,-419,-10.3732,9.23279,0,0,0,0,0,0,0,-1,678,1443,-10.3732,-9.23275
-539,-419,-14.6672,13.251,0,0,0,0,0,0,0,-1,685,1443,-14.6672,-13.251
-532,-419,-14.7191,14.1401,0.00512756,0.00404488,0.00366688,0.00829284,0.000879599,0.712113,0.00525993,0.0268601,692,1443,-14.7191,-14.1402
-525,-419,-14.7188,14.8856,0.0038711,0.00313066,0.00282361,0.00634866,0.000653099,0.720212,0.00403241,0.0134006,699,1443,-14.7188,-14.8856
-518,-419,-14.727,15.578,0.00297021,0.00248393,0.00220146,0.00494192,0.00051222,0.730398,0.00313784,0.0165986,706,1443,-14.727,-15.578
-511,-419,-14.7625,16.2822,0.00227709,0.00198412,0.00169644,0.00383336,0.000427848,0.74233,0.00242557,0.0187368,713,1443,-14.7624,-16.2822
-504,-419,-14.8277,16.986,0.00177024,0.00164556,0.00130449,0.00301388,0.000401917,0.761523,0.00188958,0.0183233,720,1443,-14.8277,-16.986
-497,-419,-14.8705,17.6775,0.00148196,0.0014693,0.00104234,0.00251799,0.000433265,0.782363,0.0015545,0.0136224,727,1443,-14.8706,-17.6775
-490,-419,-14.9019,18.3606,0.00140466,0.00150304,0.000960806,0.00241591,0.000491785,0.810975,0.00147428,0.0110568,734,1443,-14.9018,-18.3606
-483,-419,-14.9307,19.0487,0.00151384,0.00173783,0.00101682,0.0026488,0.000602862,0.840247,0.00160316,0.00953755,741,1443,-14.9307,-19.0487
-476,-419,-14.8953,19.8162,0.00177601,0.00212069,0.00121987,0.00318034,0.000716361,0.855573,0.00192636,0.020323,748,1443,-14.8953,-19.8161
-469,-419,-14.9084,20.4365,0,0,0,0,0,0,0,-1,755,1443,-14.9085,-20.4366
-462,-419,-11.5347,18.1563,0,0,0,0,0,0,0,-1,762,1443,-11.5347,-18.1562
-455,-419,-7.35645,11.9451,0,0,0,0,0,0,0,-1,769,1443,-7.35646,-11.9451
-448,-419,-7.49109,9.92444,0,0,0,0,0,0,0,-1,776,1443,-7.49109,-9.92442
-441,-419,-7.65527,8.75574,0,0,0,0,0,0,0,-1,783,1443,-7.65525,-8.75568
-434,-419,-11.3724,12.3643,0,0,0,0,0,0,0,-1,790,1443,-11.3724,-12.3643
-427,-419,-8.23193,7.89404,0,0,0,0,0,0,0,-1,797,1443,-8.23193,-7.89404
-420,-419,-8.74091,6.36597,0,0,0,0,0,0,0,-1,804,1443,-8.74089,-6.366
-413,-419,-9.88391,6.53955,0,0,0,0,0,0,0,-1,811,1443,-9.8839,-6.53955
-406,-419,-10.3372,2.75195,0,0,0,0,0,0,0,-1,818,1443,-10.3372,-2.75201
-399,-419,-11.5999,1.40002,0,0,0,0,0,0,0,-1,825,1443,-11.5999,-1.39998
-392,-419,0,0,0,0,0,0,0,0,0,-1,832,1443,0,0
-385,-419,0,0,0,0,0,0,0,0,0,-1,839,1443,0,0
-378,-419,0,0,0,0,0,0,0,0,0,-1,846,1443,0,0
-371,-419,0,0,0,0,0,0,0,0,0,-1,853,1443,0,0
-364,-419,0,0,0,0,0,0,0,0,0,-1,860,1443,0,0
-357,-419,0,0,0,0,0,0,0,0,0,-1,867,1443,0,0
-350,-419,0,0,0,0,0,0,0,0,0,-1,874,1443,0,0
-343,-419,0,0,0,0,0,0,0,0,0,-1,881,1443,0,0
-336,-419,0,0,0,0,0,0,0,0,0,-1,888,1443,0,0
-329,-419,0,0,0,0,0,0,0,0,0,-1,895,1443,0,0
-322,-419,0,0,0,0,0,0,0,0,0,-1,902,1443,0,0
-315,-419,0,0,0,0,0,0,0,0,0,-1,909,1443,0,0
-308,-419,0,0,0,0,0,0,0,0,0,-1,916,1443,0,0
-301,-419,0,0,0,0,0,0,0,0,0,-1,923,1443,0,0
-294,-419,0,0,0,0,0,0,0,0,0,-1,930,1443,0,0
-287,-419,0,0,0,0,0,0,0,0,0,-1,937,1443,0,0
-280,-419,0,0,0,0,0,0,0,0,0,-1,944,1443,0,0
-273,-419,0,0,0,0,0,0,0,0,0,-1,951,1443,0,0
-266,-419,0,0,0,0,0,0,0,0,0,-1,958,1443,0,0
-259,-419,0,0,0,0,0,0,0,0,0,-1,965,1443,0,0
-252,-419,0,0,0,0,0,0,0,0,0,-1,972,1443,0,0
-245,-419,0,0,0,0,0,0,0,0,0,-1,979,1443,0,0
-238,-419,0,0,0,0,0,0,0,0,0,-1,986,1443,0,0
-231,-419,0,0,0,0,0,0,0,0,0,-1,993,1443,0,0
-224,-419,0,0,0,0,0,0,0,0,0,-1,1000,1443,0,0
-217,-419,0,0,0,0,0,0,0,0,0,-1,1007,1443,0,0
-210,-419,0,0,0,0,0,0,0,0,0,-1,1014,1443,0,0
-203,-419,0,0,0,0,0,0,0,0,0,-1,1021,1443,0,0
-196,-419,0,0,0,0,0,0,0,0,0,-1,1028,1443,0,0
-189,-419,0,0,0,0,0,0,0,0,0,-1,1035,1443,0,0
-182,-419,0,0,0,0,0,0,0,0,0,-1,1042,1443,0,0
-175,-419,0,0,0,0,0,0,0,0,0,-1,1049,1443,0,0
-168,-419,0,0,0,0,0,0,0,0,0,-1,1056,1443,0,0
-161,-419,0,0,0,0,0,0,0,0,0,-1,1063,1443,0,0
-154,-419,0,0,0,0,0,0,0,0,0,-1,1070,1443,0,0
-147,-419,0,0,0,0,0,0,0,0,0,-1,1077,1443,0,0
-140,-419,0,0,0,0,0,0,0,0,0,-1,1084,1443,0,0
-133,-419,0,0,0,0,0,0,0,0,0,-1,1091,1443,0,0
-126,-419,0,0,0,0,0,0,0,0,0,-1,1098,1443,0,0
-119,-419,0,0,0,0,0,0,0,0,0,-1,1105,1443,0,0
-112,-419,0,0,0,0,0,0,0,0,0,-1,1112,1443,0,0
-105,-419,0,0,0,0,0,0,0,0,0,-1,1119,1443,0,0
-98,-419,0,0,0,0,0,0,0,0,0,-1,1126,1443,0,0
-91,-419,0,0,0,0,0,0,0,0,0,-1,1133,1443,0,0
-84,-419,0,0,0,0,0,0,0,0,0,-1,1140,1443,0,0
-77,-419,0,0,0,0,0,0,0,0,0,-1,1147,1443,0,0
-70,-419,0,0,0,0,0,0,0,0,0,-1,1154,1443,0,0
-63,-419,0,0,0,0,0,0,0,0,0,-1,1161,1443,0,0
-56,-419,0,0,0,0,0,0,0,0,0,-1,1168,1443,0,0
-49,-419,0,0,0,0,0,0,0,0,0,-1,1175,1443,0,0
-42,-419,0,0,0,0,0,0,0,0,0,-1,1182,1443,0,0
-35,-419,0,0,0,0,0,0,0,0,0,-1,1189,1443,0,0
-28,-419,0,0,0,0,0,0,0,0,0,-1,1196,1443,0,0
-21,-419,0,0,0,0,0,0,0,0,0,-1,1203,1443,0,0
-14,-419,0,0,0,0,0,0,0,0,0,-1,1210,1443,0,0
-7,-419,0,0,0,0,0,0,0,0,0,-1,1217,1443,0,0
0,-419,0,0,0,0,0,0,0,0,0,-1,1224,1443,0,0
7,-419,0,0,0,0,0,0,0,0,0,-1,1231,1443,0,0
14,-419,0,0,0,0,0,0,0,0,0,-1,1238,1443,0,0
21,-419,0,0,0,0,0,0,0,0,0,-1,1245,1443,0,0
28,-419,0,0,0,0,0,0,0,0,0,-1,1252,1443,0,0
35,-419,0,0,0,0,0,0,0,0,0,-1,1259,1443,0,0
42,-419,0,0,0,0,0,0,0,0,0,-1,1266,1443,0,0
49,-419,0,0,0,0,0,0,0,0,0,-1,1273,1443,0,0
56,-419,0,0,0,0,0,0,0,0,0,-1,1280,1443,0,0
63,-419,0,0,0,0,0,0,0,0,0,-1,1287,1443,0,0
70,-419,0,0,0,0,0,0,0,0,0,-1,1294,1443,0,0
77,-419,0,0,0,0,0,0,0,0,0,-1,1301,1443,0,0
84,-419,0,0,0,0,0,0,0,0,0,-1,1308,1443,0,0
91,-419,0,0,0,0,0,0,0,0,0,-1,1315,1443,0,0
98,-419,0,0,0,0,0,0,0,0,0,-1,1322,1443,0,0
105,-419,0,0,0,0,0,0,0,0,0,-1,1329,1443,0,0
112,-419,0,0,0,0,0,0,0,0,0,-1,1336,1443,0,0
119,-419,0,0,0,0,0,0,0,0,0,-1,1343,1443,0,0
126,-419,0,0,0,0,0,0,0,0,0,-1,1350,1443,0,0
133,-419,0,0,0,0,0,0,0,0,0,-1,1357,1443,0,0
140,-419,0,0,0,0,0,0,0,0,0,-1,1364,1443,0,0
147,-419,0,0,0,0,0,0,0,0,0,-1,1371,1443,0,0
154,-419,0,0,0,0,0,0,0,0,0,-1,1378,1443,0,0
161,-419,0,0,0,0,0,0,0,0,0,-1,1385,1443,0,0
168,-419,0,0,0,0,0,0,0,0,0,-1,1392,1443,0,0
175,-419,0,0,0,0,0,0,0,0,0,-1,1399,1443,0,0
182,-419,0,0,0,0,0,0,0,0,0,-1,1406,1443,0,0
189,-419,0,0,0,0,0,0,0,0,0,-1,1413,1443,0,0
196,-419,0,0,0,0,0,0,0,0,0,-1,1420,1443,0,0
203,-419,0,0,0,0,0,0,0,0,0,-1,1427,1443,0,0
210,-419,0,0,0,0,0,0,0,0,0,-1,1434,1443,0,0
217,-419,0,0,0,0,0,0,0,0,0,-1,1441,1443,0,0
224,-419,0,0,0,0,0,0,0,0,0,-1,1448,1443,0,0
231,-419,0,0,0,0,0,0,0,0,0,-1,1455,1443,0,0
238,-419,0,0,0,0,0,0,0,0,0,-1,1462,1443,0,0
245,-419,0,0,0,0,0,0,0,0,0,-1,1469,1443,0,0
252,-419,0,0,0,0,0,0,0,0,0,-1,1476,1443,0,0
259,-419,0,0,0,0,0,0,0,0,0,-1,1483,1443,0,0
266,-419,0,0,0,0,0,0,0,0,0,-1,1490,1443,0,0
273,-419,0,0,0,0,0,0,0,0,0,-1,1497,1443,0,0
280,-419,0,0,0,0,0,0,0,0,0,-1,1504,1443,0,0
287,-419,0,0,0,0,0,0,0,0,0,-1,1511,1443,0,0
294,-419,0,0,0,0,0,0,0,0,0,-1,1518,1443,0,0
301,-419,0,0,0,0,0,0,0,0,0,-1,1525,1443,0,0
308,-419,0,0,0,0,0,0,0,0,0,-1,1532,1443,0,0
315,-419,0,0,0,0,0,0,0,0,0,-1,1539,1443,0,0
322,-419,0,0,0,0,0,0,0,0,0,-1,1546,1443,0,0
329,-419,0,0,0,0,0,0,0,0,0,-1,1553,1443,0,0
336,-419,0,0,0,0,0,0,0,0,0,-1,1560,1443,0,0
343,-419,0,0,0,0,0,0,0,0,0,-1,1567,1443,0,0
350,-419,0,0,0,0,0,0,0,0,0,-1,1574,1443,0,0
357,-419,0,0,0,0,0,0,0,0,0,-1,1581,1443,0,0
364,-419,0,0,0,0,0,0,0,0,0,-1,1588,1443,0,0
371,-419,0,0,0,0,0,0,0,0,0,-1,1595,1443,0,0
378,-419,0,0,0,0,0,0,0,0,0,-1,1602,1443,0,0
385,-419,0,0,0,0,0,0,0,0,0,-1,1609,1443,0,0
392,-419,0,0,0,0,0,0,0,0,0,-1,1616,1443,0,0
399,-419,0,0,0,0,0,0,0,0,0,-1,1623,1443,0,0
406,-419,0,0,0,0,0,0,0,0,0,-1,1630,1443,0,0
413,-419,0,0,0,0,0,0,0,0,0,-1,1637,1443,0,0
420,-419,0,0,0,0,0,0,0,0,0,-1,1644,1443,0,0
427,-419,0,0,0,0,0,0,0,0,0,-1,1651,1443,0,0
434,-419,0,0,0,0,0,0,0,0,0,-1,1658,1443,0,0
441,-419,0,0,0,0,0,0,0,0,0,-1,1665,1443,0,0
448,-419,0,0,0,0,0,0,0,0,0,-1,1672,1443,0,0
455,-419,0,0,0,0,0,0,0,0,0,-1,1679,1443,0,0
462,-419,0,0,0,0,0,0,0,0,0,-1,1686,1443,0,0
469,-419,0,0,0,0,0,0,0,0,0,-1,1693,1443,0,0
476,-419,0,0,0,0,0,0,0,0,0,-1,1700,1443,0,0
483,-419,0,0,0,0,0,0,0,0,0,-1,1707,1443,0,0
490,-419,0,0,0,0,0,0,0,0,0,-1,1714,1443,0,0
497,-419,0,0,0,0,0,0,0,0,0,-1,1721,1443,0,0
504,-419,0,0,0,0,0,0,0,0,0,-1,1728,1443,0,0
511,-419,20.3005,3.7959,0,0,0,0,0,0,0,-1,1735,1443,20.3005,-3.79584
518,-419,21.3154,2.03027,0,0,0,0,0,0,0,-1,1742,1443,21.3155,-2.03029
525,-419,28.3439,-1.24475,0,0,0,0,0,0,0,-1,1749,1443,28.3438,1.24471
532,-419,27.5902,-0.272583,0,0,0,0,0,0,0,-1,1756,1443,27.5902,0.272526
539,-419,26.5278,1.60583,0,0,0,0,0,0,0,-1,1763,1443,26.5279,-1.60579
546,-419,24.9509,2.77539,0,0,0,0,0,0,0,-1,1770,1443,24.9509,-2.77537
553,-419,24.118,3.75525,0,0,0,0,0,0,0,-1,1777,1443,24.1181,-3.75526
560,-419,11.8199,8.26343,0,0,0,0,0,0,0,-1,1784,1443,11.82,-8.26341
567,-419,21.5143,8.74719,0,0,0,0,0,0,0,-1,1791,1443,21.5143,-8.74722
574,-419,19.5886,6.46155,0,0,0,0,0,0,0,-1,1798,1443,19.5886,-6.46157
581,-419,20.7926,11.4265,0,0,0,0,0,0,0,-1,1805,1443,20.7926,-11.4265
588,-419,19.4242,12.5363,0,0,0,0,0,0,0,-1,1812,1443,19.4242,-12.5362
595,-419,22.9375,16.0151,0,0,0,0,0,0,0,-1,1819,1443,22.9375,-16.0152
602,-419,32.3483,21.5431,0,0,0,0,0,0,0,-1,1826,1443,32.3483,-21.5431
609,-419,32.3088,20.8809,0.00231557,0.00100392,-0.0011743,0.00300477,0.000314717,-0.530733,0.00190695,0.0238319,1833,1443,32.3089,-20.8809
616,-419,32.2633,20.2563,0.00180798,0.000433285,-0.000701666,0.00210286,0.000138399,-0.397854,0.00135813,0.0125652,1840,1443,32.2634,-20.2564
623,-419,32.2296,19.587,0.00153447,0.000168312,-0.000461968,0.00167602,2.67627e-05,-0.297321,0.00110853,0.0109304,1847,1443,32.2296,-19.587
630,-419,32.2167,18.8927,0.00148701,3.03103e-05,-0.000410347,0.00159465,-7.7329e-05,-0.256533,0.00108979,0.0135208,1854,1443,32.2167,-18.8927
637,-419,32.1927,18.2571,0.00150106,-2.04574e-05,-0.000414788,0.00160679,-0.000126188,-0.249587,0.00111564,0.0145431,1861,1443,32.1928,-18.2571
644,-419,32.1678,17.6162,0.00164548,2.50151e-05,-0.0004411,0.00175777,-8.72741e-05,-0.249272,0.00120199,0.0127657,1868,1443,32.1679,-17.6162
651,-419,32.1434,16.9718,0.00184116,0.000184856,-0.000542151,0.00200284,2.31777e-05,-0.289819,0.00132757,0.0115241,1875,1443,32.1434,-16.9718
658,-419,32.1141,16.2993,0.00204487,0.000370923,-0.000620982,0.00225008,0.000165715,-0.319161,0.00144798,0.0124221,1882,1443,32.1141,-16.2994
665,-419,32.1038,15.6394,0.00219234,0.000527191,-0.000545084,0.0023549,0.000364629,-0.289835,0.00146361,0.0211373,1889,1443,32.1038,-15.6394
672,-419,32.1489,14.8864,0.00216652,0.000565111,-0.000208423,0.0021932,0.000538429,-0.127324,0.00131979,0.0396278,1896,1443,32.1489,-14.8864
679,-419,32.3665,14.1627,0,0,0,0,0,0,0,-1,1903,1443,32.3665,-14.1627
686,-419,17.4127,8.03076,0,0,0,0,0,0,0,-1,1910,1443,17.4127,-8.03071
693,-419,8.76086,5.60535,0,0,0,0,0,0,0,-1,1917,1443,8.76091,-5.6054
700,-419,11.0498,4.85156,0,0,0,0,0,0,0,-1,1924,1443,11.0498,-4.85153
707,-419,9.5752,1.80042,0,0,0,0,0,0,0,-1,1931,1443,9.57523,-1.80037
714,-419,5.77576,-1.25061,0,0,0,0,0,0,0,-1,1938,1443,5.7757,1.25056
721,-419,0,0,0,0,0,0,0,0,0,-1,1945,1443,0,0
728,-419,0,0,0,0,0,0,0,0,0,-1,1952,1443,0,0
735,-419,0,0,0,0,0,0,0,0,0,-1,1959,1443,0,0
742,-419,0,0,0,0,0,0,0,0,0,-1,1966,1443,0,0
749,-419,0,0,0,0,0,0,0,0,0,-1,1973,1443,0,0
756,-419,0,0,0,0,0,0,0,0,0,-1,1980,1443,0,0
763,-419,0,0,0,0,0,0,0,0,0,-1,1987,1443,0,0
770,-419,0,0,0,0,0,0,0,0,0,-1,1994,1443,0,0
777,-419,0,0,0,0,0,0,0,0,0,-1,2001,1443,0,0
784,-419,0,0,0,0,0,0,0,0,0,-1,2008,1443,0,0
791,-419,0,0,0,0,0,0,0,0,0,-1,2015,1443,0,0
798,-419,0,0,0,0,0,0,0,0,0,-1,2022,1443,0,0
805,-419,0,0,0,0,0,0,0,0,0,-1,2029,1443,0,0
812,-419,0,0,0,0,0,0,0,0,0,-1,2036,1443,0,0
-700,-426,0,0,0,0,0,0,0,0,0,-1,524,1450,0,0
-693,-426,0,0,0,0,0,0,0,0,0,-1,531,1450,0,0
-686,-426,0,0,0,0,0,0,0,0,0,-1,538,1450,0,0
-679,-426,0,0,0,0,0,0,0,0,0,-1,545,1450,0,0
-672,-426,0,0,0,0,0,0,0,0,0,-1,552,1450,0,0
-665,-426,0,0,0,0,0,0,0,0,0,-1,559,1450,0,0
-658,-426,0,0,0,0,0,0,0,0,0,-1,566,1450,0,0
-651,-426,0,0,0,0,0,0,0,0,0,-1,573,1450,0,0
-644,-426,0,0,0,0,0,0,0,0,0,-1,580,1450,0,0
-637,-426,0,0,0,0,0,0,0,0,0,-1,587,1450,0,0
-630,-426,0,0,0,0,0,0,0,0,0,-1,594,1450,0,0
-623,-426,0,0,0,0,0,0,0,0,0,-1,601,1450,0,0
-616,-426,0,0,0,0,0,0,0,0,0,-1,608,1450,0,0
-609,-426,0,0,0,0,0,0,0,0,0,-1,615,1450,0,0
-602,-426,0,0,0,0,0,0,0,0,0,-1,622,1450,0,0
-595,-426,0,0,0,0,0,0,0,0,0,-1,629,1450,0,0
-588,-426,-10.184,-0.554321,0,0,0,0,0,0,0,-1,636,1450,-10.184,0.554321
-581,-426,-7.3349,1.48157,0,0,0,0,0,0,0,-1,643,1450,-7.33491,-1.48152
-574,-426,-5.02856,2.89319,0,0,0,0,0,0,0,-1,650,1450,-5.02858,-2.89319
-567,-426,-3.04797,1.72644,0,0,0,0,0,0,0,-1,657,1450,-3.04797,-1.72639
-560,-426,-5.55682,3.44397,0,0,0,0,0,0,0,-1,664,1450,-5.55684,-3.44399
-553,-426,-4.67017,6.66614,0,0,0,0,0,0,0,-1,671,1450,-4.67015,-6.66619
-546,-426,-7.58752,8.28882,0,0,0,0,0,0,0,-1,678,1450,-7.58752,-8.28878
-539,-426,-10.436,10.7441,0,0,0,0,0,0,0,-1,685,1450,-10.436,-10.7441
-532,-426,-14.1121,14.1152,0,0,0,0,0,0,0,-1,692,1450,-14.1122,-14.1152
-525,-426,-14.0572,14.8453,0.00420874,0.00380242,0.00345945,0.00747099,0.000540174,0.756068,0.00481072,0.0213348,699,1450,-14.0572,-14.8454
-518,-426,-14.0318,15.6166,0.00328227,0.00301822,0.00273748,0.0058909,0.000409587,0.761302,0.00379811,0.0160882,706,1450,-14.0318,-15.6166
-511,-426,-14.0635,16.3295,0.00254845,0.00239052,0.00213182,0.00460277,0.000336201,0.766886,0.00296281,0.0160057,713,1450,-14.0635,-16.3295
-504,-426,-14.1156,17.0089,0.00197221,0.00193278,0.00163107,0.00358369,0.00032131,0.779355,0.00228955,0.016147,720,1450,-14.1156,-17.0089
-497,-426,-14.147,17.7039,0.00158353,0.00164457,0.0012472,0.00286162,0.000366474,0.797631,0.00179808,0.0129028,727,1450,-14.147,-17.7039
-490,-426,-14.1824,18.41,0.00137741,0.00156701,0.00104435,0.00252086,0.000423564,0.830659,0.00155869,0.0120511,734,1450,-14.1824,-18.41
-483,-426,-14.2257,19.0941,0.0013634,0.00169515,0.0009882,0.0025313,0.000527253,0.868552,0.00154213,0.0115915,741,1450,-14.2257,-19.0941
-476,-426,-14.2465,19.7764,0.00153273,0.00202562,0.00111654,0.00292259,0.000635761,0.894017,0.00177484,0.00933774,748,1450,-14.2465,-19.7764
-469,-426,-14.2858,20.4628,0.00191184,0.00261485,0.00142606,0.00373209,0.000794609,0.906233,0.00227003,0.0130216,755,1450,-14.2858,-20.4628
-462,-426,-14.2308,21.2106,0,0,0,0,0,0,0,-1,762,1450,-14.2308,-21.2105
-455,-426,-10.215,17.7007,0,0,0,0,0,0,0,-1,769,1450,-10.215,-17.7007
-448,-426,-6.46545,10.1322,0,0,0,0,0,0,0,-1,776,1450,-6.46543,-10.1322
-441,-426,-10.9547,11.4747,0,0,0,0,0,0,0,-1,783,1450,-10.9546,-11.4748
-434,-426,-10.4998,13.6189,0,0,0,0,0,0,0,-1,790,1450,-10.4997,-13.6189
-427,-426,-9.36627,13.7396,0,0,0,0,0,0,0,-1,797,1450,-9.36628,-13.7396
-420,-426,-5.33765,7.95044,0,0,0,0,0,0,0,-1,804,1450,-5.33766,-7.95041
-413,-426,-10.1148,5.0415,0,0,0,0,0,0,0,-1,811,1450,-10.1148,-5.04152
-406,-426,-11.4199,3.6438,0,0,0,0,0,0,0,-1,818,1450,-11.4198,-3.64382
-399,-426,-12.7595,2.29004,0,0,0,0,0,0,0,-1,825,1450,-12.7595,-2.29003
-392,-426,-12.4147,0.537354,0,0,0,0,0,0,0,-1,832,1450,-12.4147,-0.53731
-385,-426,0,0,0,0,0,0,0,0,0,-1,839,1450,0,0
-378,-426,0,0,0,0,0,0,0,0,0,-1,846,1450,0,0
-371,-426,0,0,0,0,0,0,0,0,0,-1,853,1450,0,0
-364,-426,0,0,0,0,0,0,0,0,0,-1,860,1450,0,0
-357,-426,0,0,0,0,0,0,0,0,0,-1,867,1450,0,0
-350,-426,0,0,0,0,0,0,0,0,0,-1,874,1450,0,0
-343,-426,0,0,0,0,0,0,0,0,0,-1,881,1450,0,0
-336,-426,0,0,0,0,0,0,0,0,0,-1,888,1450,0,0
-329,-426,0,0,0,0,0,0,0,0,0,-1,895,1450,0,0
-322,-426,0,0,0,0,0,0,0,0,0,-1,902,1450,0,0
-315,-426,0,0,0,0,0,0,0,0,0,-1,909,1450,0,0
-308,-426,0,0,0,0,0,0,0,0,0,-1,916,1450,0,0
-301,-426,0,0,0,0,0,0,0,0,0,-1,923,1450,0,0
-294,-426,0,0,0,0,0,0,0,0,0,-1,930,1450,0,0
-287,-426,0,0,0,0,0,0,0,0,0,-1,937,1450,0,0
-280,-426,0,0,0,0,0,0,0,0,0,-1,944,1450,0,0
-273,-426,0,0,0,0,0,0,0,0,0,-1,951,1450,0,0
-266,-426,0,0,0,0,0,0,0,0,0,-1,958,1450,0,0
-259,-426,0,0,0,0,0,0,0,0,0,-1,965,1450,0,0
-252,-426,0,0,0,0,0,0,0,0,0,-1,972,1450,0,0
-245,-426,0,0,0,0,0,0,0,0,0,-1,979,1450,0,0
-238,-426,0,0,0,0,0,0,0,0,0,-1,986,1450,0,0
-231,-426,0,0,0,0,0,0,0,0,0,-1,993,1450,0,0
-224,-426,0,0,0,0,0,0,0,0,0,-1,1000,1450,0,0
-217,-426,0,0,0,0,0,0,0,0,0,-1,1007,1450,0,0
-210,-426,0,0,0,0,0,0,0,0,0,-1,1014,1450,0,0
-203,-426,0,0,0,0,0,0,0,0,0,-1,1021,1450,0,0
-196,-426,0,0,0,0,0,0,0,0,0,-1,1028,1450,0,0
-189,-426,0,0,0,0,0,0,0,0,0,-1,1035,1450,0,0
-182,-426,0,0,0,0,0,0,0,0,0,-1,1042,1450,0,0
-175,-426,0,0,0,0,0,0,0,0,0,-1,1049,1450,0,0
-168,-426,0,0,0,0,0,0,0,0,0,-1,1056,1450,0,0
-161,-426,0,0,0,0,0,0,0,0,0,-1,1063,1450,0,0
-154,-426,0,0,0,0,0,0,0,0,0,-1,1070,1450,0,0
-147,-426,0,0,0,0,0,0,0,0,0,-1,1077,1450,0,0
-140,-426,0,0,0,0,0,0,0,0,0,-1,1084,1450,0,0
-133,-426,0,0,0,0,0,0,0,0,0,-1,1091,1450,0,0
-126,-426,0,0,0,0,0,0,0,0,0,-1,1098,1450,0,0
-119,-426,0,0,0,0,0,0,0,0,0,-1,1105,1450,0,0
-112,-426,0,0,0,0,0,0,0,0,0,-1,1112,1450,0,0
-105,-426,0,0,0,0,0,0,0,0,0,-1,1119,1450,0,0
-98,-426,0,0,0,0,0,0,0,0,0,-1,1126,1450,0,0
-91,-426,0,0,0,0,0,0,0,0,0,-1,1133,1450,0,0
-84,-426,0,0,0,0,0,0,0,0,0,-1,1140,1450,0,0
-77,-426,0,0,0,0,0,0,0,0,0,-1,1147,1450,0,0
-70,-426,0,0,0,0,0,0,0,0,0,-1,1154,1450,0,0
-63,-426,0,0,0,0,0,0,0,0,0,-1,1161,1450,0,0
-56,-426,0,0,0,0,0,0,0,0,0,-1,1168,1450,0,0
-49,-426,0,0,0,0,0,0,0,0,0,-1,1175,1450,0,0
-42,-426,0,0,0,0,0,0,0,0,0,-1,1182,1450,0,0
-35,-426,0,0,0,0,0,0,0,0,0,-1,1189,1450,0,0
-28,-426,0,0,0,0,0,0,0,0,0,-1,1196,1450,0,0
-21,-426,0,0,0,0,0,0,0,0,0,-1,1203,1450,0,0
-14,-426,0,0,0,0,0,0,0,0,0,-1,1210,1450,0,0
-7,-426,0,0,0,0,0,0,0,0,0,-1,1217,1450,0,0
0,-426,0,0,0,0,0,0,0,0,0,-1,1224,1450,0,0
7,-426,0,0,0,0,0,0,0,0,0,-1,1231,1450,0,0
14,-426,0,0,0,0,0,0,0,0,0,-1,1238,1450,0,0
21,-426,0,0,0,0,0,0,0,0,0,-1,1245,1450,0,0
28,-426,0,0,0,0,0,0,0,0,0,-1,1252,1450,0,0
35,-426,0,0,0,0,0,0,0,0,0,-1,1259,1450,0,0
42,-426,0,0,0,0,0,0,0,0,0,-1,1266,1450,0,0
49,-426,0,0,0,0,0,0,0,0,0,-1,1273,1450,0,0
56,-426,0,0,0,0,0,0,0,0,0,-1,1280,1450,0,0
63,-426,0,0,0,0,0,0,0,0,0,-1,1287,1450,0,0
70,-426,0,0,0,0,0,0,0,0,0,-1,1294,1450,0,0
77,-426,0,0,0,0,0,0,0,0,0,-1,1301,1450,0,0
84,-426,0,0,0,0,0,0,0,0,0,-1,1308,1450,0,0
91,-426,0,0,0,0,0,0,0,0,0,-1,1315,1450,0,0
98,-426,0,0,0,0,0,0,0,0,0,-1,1322,1450,0,0
105,-426,0,0,0,0,0,0,0,0,0,-1,1329,1450,0,0
112,-426,0,0,0,0,0,0,0,0,0,-1,1336,1450,0,0
119,-426,0,0,0,0,0,0,0,0,0,-1,1343,1450,0,0
126,-426,0,0,0,0,0,0,0,0,0,-1,1350,1450,0,0
133,-426,0,0,0,0,0,0,0,0,0,-1,1357,1450,0,0
140,-426,0,0,0,0,0,0,0,0,0,-1,1364,1450,0,0
147,-426,0,0,0,0,0,0,0,0,0,-1,1371,1450,0,0
154,-426,0,0,0,0,0,0,0,0,0,-1,1378,1450,0,0
161,-426,0,0,0,0,0,0,0,0,0,-1,1385,1450,0,0
168,-426,0,0,0,0,0,0,0,0,0,-1,1392,1450,0,0
175,-426,0,0,0,0,0,0,0,0,0,-1,1399,1450,0,0
182,-426,0,0,0,0,0,0,0,0,0,-1,1406,1450,0,0
189,-426,0,0,0,0,0,0,0,0,0,-1,1413,1450,0,0
196,-426,0,0,0,0,0,0,0,0,0,-1,1420,1450,0,0
203,-426,0,0,0,0,0,0,0,0,0,-1,1427,1450,0,0
210,-426,0,0,0,0,0,0,0,0,0,-1,1434,1450,0,0
217,-426,0,0,0,0,0,0,0,0,0,-1,1441,1450,0,0
224,-426,0,0,0,0,0,0,0,0,0,-1,1448,1450,0,0
231,-426,0,0,0,0,0,0,0,0,0,-1,1455,1450,0,0
238,-426,0,0,0,0,0,0,0,0,0,-1,1462,1450,0,0
245,-426,0,0,0,0,0,0,0,0,0,-1,1469,1450,0,0
252,-426,0,0,0,0,0,0,0,0,0,-1,1476,1450,0,0
259,-426,0,0,0,0,0,0,0,0,0,-1,1483,1450,0,0
266,-426,0,0,0,0,0,0,0,0,0,-1,1490,1450,0,0
273,-426,0,0,0,0,0,0,0,0,0,-1,1497,1450,0,0
280,-426,0,0,0,0,0,0,0,0,0,-1,1504,1450,0,0
287,-426,0,0,0,0,0,0,0,0,0,-1,1511,1450,0,0
294,-426,0,0,0,0,0,0,0,0,0,-1,1518,1450,0,0
301,-426,0,0,0,0,0,0,0,0,0,-1,1525,1450,0,0
308,-426,0,0,0,0,0,0,0,0,0,-1,1532,1450,0,0
315,-426,0,0,0,0,0,0,0,0,0,-1,1539,1450,0,0
322,-426,0,0,0,0,0,0,0,0,0,-1,1546,1450,0,0
329,-426,0,0,0,0,0,0,0,0,0,-1,1553,1450,0,0
336,-426,0,0,0,0,0,0,0,0,0,-1,1560,1450,0,0
343,-426,0,0,0,0,0,0,0,0,0,-1,1567,1450,0,0
350,-426,0,0,0,0,0,0,0,0,0,-1,1574,1450,0,0
357,-426,0,0,0,0,0,0,0,0,0,-1,1581,1450,0,0
364,-426,0,0,0,0,0,0,0,0,0,-1,1588,1450,0,0
371,-426,0,0,0,0,0,0,0,0,0,-1,1595,1450,0,0
378,-426,0,0,0,0,0,0,0,0,0,-1,1602,1450,0,0
385,-426,0,0,0,0,0,0,0,0,0,-1,1609,1450,0,0
392,-426,0,0,0,0,0,0,0,0,0,-1,1616,1450,0,0
399,-426,0,0,0,0,0,0,0,0,0,-1,1623,1450,0,0
406,-426,0,0,0,0,0,0,0,0,0,-1,1630,1450,0,0
413,-426,0,0,0,0,0,0,0,0,0,-1,1637,1450,0,0
420,-426,0,0,0,0,0,0,0,0,0,-1,1644,1450,0,0
427,-426,0,0,0,0,0,0,0,0,0,-1,1651,1450,0,0
434,-426,0,0,0,0,0,0,0,0,0,-1,1658,1450,0,0
441,-426,0,0,0,0,0,0,0,0,0,-1,1665,1450,0,0
448,-426,0,0,0,0,0,0,0,0,0,-1,1672,1450,0,0
455,-426,0,0,0,0,0,0,0,0,0,-1,1679,1450,0,0
462,-426,0,0,0,0,0,0,0,0,0,-1,1686,1450,0,0
469,-426,0,0,0,0,0,0,0,0,0,-1,1693,1450,0,0
476,-426,0,0,0,0,0,0,0,0,0,-1,1700,1450,0,0
483,-426,0,0,0,0,0,0,0,0,0,-1,1707,1450,0,0
490,-426,0,0,0,0,0,0,0,0,0,-1,1714,1450,0,0
497,-426,0,0,0,0,0,0,0,0,0,-1,1721,1450,0,0
504,-426,20.6873,3.38367,0,0,0,0,0,0,0,-1,1728,1450,20.6873,-3.38361
511,-426,19.6676,3.53748,0,0,0,0,0,0,0,-1,1735,1450,19.6676,-3.53749
518,-426,18.6853,3.32288,0,0,0,0,0,0,0,-1,1742,1450,18.6853,-3.3229
525,-426,18.9552,2.71033,0,0,0,0,0,0,0,-1,1749,1450,18.9552,-2.71034
532,-426,19.4333,2.70764,0,0,0,0,0,0,0,-1,1756,1450,19.4334,-2.70764
539,-426,25.1482,2.56287,0,0,0,0,0,0,0,-1,1763,1450,25.1482,-2.56286
546,-426,24.1136,3.75659,0,0,0,0,0,0,0,-1,1770,1450,24.1136,-3.7566
553,-426,23.0791,4.95032,0,0,0,0,0,0,0,-1,1777,1450,23.0791,-4.95034
560,-426,12.9688,11.8289,0,0,0,0,0,0,0,-1,1784,1450,12.9688,-11.8288
567,-426,13.6388,11.5623,0,0,0,0,0,0,0,-1,1791,1450,13.6388,-11.5623
574,-426,14.3943,11.0286,0,0,0,0,0,0,0,-1,1798,1450,14.3942,-11.0285
581,-426,16.3879,11.4653,0,0,0,0,0,0,0,-1,1805,1450,16.3879,-11.4653
588,-426,18.1212,12.5547,0,0,0,0,0,0,0,-1,1812,1450,18.1212,-12.5547
595,-426,30.0474,21.0964,0,0,0,0,0,0,0,-1,1819,1450,30.0474,-21.0965
602,-426,31.644,21.5437,0,0,0,0,0,0,0,-1,1826,1450,31.644,-21.5437
609,-426,31.6299,20.9113,0.00243126,0.00106228,-0.00124586,0.00316828,0.000325256,-0.534202,0.00201255,0.0140802,1833,1450,31.6299,-20.9113
616,-426,31.6033,20.2621,0.00193118,0.00060021,-0.000833028,0.00233191,0.000199484,-0.448371,0.00149256,0.0151712,1840,1450,31.6033,-20.2621
623,-426,31.5812,19.5953,0.00171668,0.000333606,-0.000611555,0.0019483,0.000101983,-0.362049,0.00126624,0.0124993,1847,1450,31.5812,-19.5953
630,-426,31.5933,18.9463,0.00170248,0.000152438,-0.000557246,0.00188201,-2.70992e-05,-0.311685,0.00126381,0.0133191,1854,1450,31.5933,-18.9463
637,-426,31.5626,18.3044,0.00173154,5.88961e-05,-0.000538128,0.00188971,-9.9275e-05,-0.285877,0.00129417,0.0137204,1861,1450,31.5627,-18.3045
644,-426,31.509,17.6392,0.00190811,0.000116834,-0.00056541,0.00207165,-4.6705e-05,-0.281556,0.00139693,0.0132226,1868,1450,31.509,-17.6392
651,-426,31.4625,16.9961,0.0021301,0.000302802,-0.000708896,0.00237287,6.00399e-05,-0.329934,0.00156228,0.0121294,1875,1450,31.4625,-16.996
658,-426,31.4741,16.3151,0.00237006,0.000571929,-0.000846459,0.00270582,0.000236162,-0.377635,0.00173054,0.0120367,1882,1450,31.4742,-16.3151
665,-426,31.4933,15.5032,0.00251037,0.000837661,-0.000811453,0.00283932,0.000508706,-0.385144,0.00174816,0.0333277,1889,1450,31.4933,-15.5032
672,-426,31.5922,14.6748,0,0,0,0,0,0,0,-1,1896,1450,31.5921,-14.6747
679,-426,17.1522,8.15784,0,0,0,0,0,0,0,-1,1903,1450,17.1522,-8.15784
686,-426,13.5326,8.03711,0,0,0,0,0,0,0,-1,1910,1450,13.5326,-8.03717
693,-426,11.8607,6.45215,0,0,0,0,0,0,0,-1,1917,1450,11.8607,-6.45215
700,-426,9.24304,2.95447,0,0,0,0,0,0,0,-1,1924,1450,9.24305,-2.95442
707,-426,8.44519,-1.21448,0,0,0,0,0,0,0,-1,1931,1450,8.44514,1.21454
714,-426,0,0,0,0,0,0,0,0,0,-1,1938,1450,0,0
721,-426,0,0,0,0,0,0,0,0,0,-1,1945,1450,0,0
728,-426,0,0,0,0,0,0,0,0,0,-1,1952,1450,0,0
735,-426,0,0,0,0,0,0,0,0,0,-1,1959,1450,0,0
742,-426,0,0,0,0,0,0,0,0,0,-1,1966,1450,0,0
749,-426,0,0,0,0,0,0,0,0,0,-1,1973,1450,0,0
756,-426,0,0,0,0,0,0,0,0,0,-1,1980,1450,0,0
763,-426,0,0,0,0,0,0,0,0,0,-1,1987,1450,0,0
770,-426,0,0,0,0,0,0,0,0,0,-1,1994,1450,0,0
777,-426,0,0,0,0,0,0,0,0,0,-1,2001,1450,0,0
784,-426,0,0,0,0,0,0,0,0,0,-1,2008,1450,0,0
791,-426,0,0,0,0,0,0,0,0,0,-1,2015,1450,0,0
798,-426,0,0,0,0,0,0,0,0,0,-1,2022,1450,0,0
805,-426,0,0,0,0,0,0,0,0,0,-1,2029,1450,0,0
812,-426,0,0,0,0,0,0,0,0,0,-1,2036,1450,0,0
-700,-433,0,0,0,0,0,0,0,0,0,-1,524,1457,0,0
-693,-433,0,0,0,0,0,0,0,0,0,-1,531,1457,0,0
-686,-433,0,0,0,0,0,0,0,0,0,-1,538,1457,0,0
-679,-433,0,0,0,0,0,0,0,0,0,-1,545,1457,0,0
-672,-433,0,0,0,0,0,0,0,0,0,-1,552,1457,0,0
-665,-433,0,0,0,0,0,0,0,0,0,-1,559,1457,0,0
-658,-433,0,0,0,0,0,0,0,0,0,-1,566,1457,0,0
-651,-433,0,0,0,0,0,0,0,0,0,-1,573,1457,0,0
-644,-433,0,0,0,0,0,0,0,0,0,-1,580,1457,0,0
-637,-433,0,0,0,0,0,0,0,0,0,-1,587,1457,0,0
-630,-433,0,0,0,0,0,0,0,0,0,-1,594,1457,0,0
-623,-433,0,0,0,0,0,0,0,0,0,-1,601,1457,0,0
-616,-433,0,0,0,0,0,0,0,0,0,-1,608,1457,0,0
-609,-433,0,0,0,0,0,0,0,0,0,-1,615,1457,0,0
-602,-433,0,0,0,0,0,0,0,0,0,-1,622,1457,0,0
-595,-433,0,0,0,0,0,0,0,0,0,-1,629,1457,0,0
-588,-433,-10.3756,-0.467041,0,0,0,0,0,0,0,-1,636,1457,-10.3756,0.467081
-581,-433,-8.12201,0.884033,0,0,0,0,0,0,0,-1,643,1457,-8.12204,-0.884056
-574,-433,-5.86847,2.23523,0,0,0,0,0,0,0,-1,650,1457,-5.86844,-2.23519
-567,-433,-5.42255,1.16833,0,0,0,0,0,0,0,-1,657,1457,-5.42254,-1.1683
-560,-433,-6.84027,1.86414,0,0,0,0,0,0,0,-1,664,1457,-6.84026,-1.86412
-553,-433,-5.74017,1.79163,0,0,0,0,0,0,0,-1,671,1457,-5.74015,-1.79166
-546,-433,-8.12451,7.35095,0,0,0,0,0,0,0,-1,678,1457,-8.12451,-7.35097
-539,-433,-7.3136,8.75659,0,0,0,0,0,0,0,-1,685,1457,-7.31362,-8.75659
-532,-433,-12.0881,12.7223,0,0,0,0,0,0,0,-1,692,1457,-12.0881,-12.7223
-525,-433,-13.3983,14.8782,0,0,0,0,0,0,0,-1,699,1457,-13.3983,-14.8782
-518,-433,-13.3574,15.6654,0.00380936,0.00367945,0.00348361,0.00722862,0.000260184,0.776076,0.00473474,0.0176356,706,1457,-13.3573,-15.6654
-511,-433,-13.3959,16.3616,0.00302451,0.00291567,0.00275611,0.00572674,0.000213447,0.775527,0.0037487,0.0168062,713,1457,-13.3958,-16.3616
-504,-433,-13.4092,17.0287,0.00235937,0.00232364,0.00211927,0.00446085,0.000222163,0.781184,0.00290268,0.0136179,720,1457,-13.4092,-17.0287
-497,-433,-13.4347,17.7177,0.00185405,0.00191098,0.00160147,0.00348424,0.000280789,0.794285,0.00223511,0.0139107,727,1457,-13.4347,-17.7176
-490,-433,-13.4838,18.4216,0.00151476,0.00170581,0.00125947,0.00287337,0.000347198,0.823247,0.00181098,0.0149342,734,1457,-13.4838,-18.4216
-483,-433,-13.5196,19.127,0.00135948,0.00170252,0.00107082,0.00261546,0.000446531,0.864812,0.0016155,0.0156032,741,1457,-13.5196,-19.1269
-476,-433,-13.5479,19.8461,0.00138464,0.00192915,0.00108096,0.00277161,0.000542177,0.908766,0.00169615,0.0110159,748,1457,-13.5479,-19.8461
-469,-433,-13.5924,20.5266,0.00159514,0.00236991,0.00126432,0.00330486,0.000660189,0.934055,0.00201948,0.0116552,755,1457,-13.5924,-20.5266
-462,-433,-13.6478,21.2075,0,0,0,0,0,0,0,-1,762,1457,-13.6478,-21.2076
-455,-433,-12.2162,21.0383,0,0,0,0,0,0,0,-1,769,1457,-12.2163,-21.0383
-448,-433,-6.94812,14.5563,0,0,0,0,0,0,0,-1,776,1457,-6.94809,-14.5562
-441,-433,-9.97485,14.0258,0,0,0,0,0,0,0,-1,783,1457,-9.97488,-14.0257
-434,-433,-9.41205,14.2297,0,0,0,0,0,0,0,-1,790,1457,-9.41205,-14.2297
-427,-433,-8.67419,13.6827,0,0,0,0,0,0,0,-1,797,1457,-8.67422,-13.6827
-420,-433,-5.74658,9.49121,0,0,0,0,0,0,0,-1,804,1457,-5.7466,-9.49119
-413,-433,-3.63074,5.5813,0,0,0,0,0,0,0,-1,811,1457,-3.63072,-5.58129
-406,-433,-12.3472,4.69373,0,0,0,0,0,0,0,-1,818,1457,-12.3472,-4.69374
-399,-433,-12.055,2.83594,0,0,0,0,0,0,0,-1,825,1457,-12.055,-2.83594
-392,-433,-12.9772,1.6228,0,0,0,0,0,0,0,-1,832,1457,-12.9772,-1.62282
-385,-433,-13.7999,0.514771,0,0,0,0,0,0,0,-1,839,1457,-13.7999,-0.514788
-378,-433,0,0,0,0,0,0,0,0,0,-1,846,1457,0,0
-371,-433,0,0,0,0,0,0,0,0,0,-1,853,1457,0,0
-364,-433,0,0,0,0,0,0,0,0,0,-1,860,1457,0,0
-357,-433,0,0,0,0,0,0,0,0,0,-1,867,1457,0,0
-350,-433,0,0,0,0,0,0,0,0,0,-1,874,1457,0,0
-343,-433,0,0,0,0,0,0,0,0,0,-1,881,1457,0,0
-336,-433,0,0,0,0,0,0,0,0,0,-1,888,1457,0,0
-329,-433,0,0,0,0,0,0,0,0,0,-1,895,1457,0,0
-322,-433,0,0,0,0,0,0,0,0,0,-1,902,1457,0,0
-315,-433,0,0,0,0,0,0,0,0,0,-1,909,1457,0,0
-308,-433,0,0,0,0,0,0,0,0,0,-1,916,1457,0,0
-301,-433,0,0,0,0,0,0,0,0,0,-1,923,1457,0,0
-294,-433,0,0,0,0,0,0,0,0,0,-1,930,1457,0,0
-287,-433,0,0,0,0,0,0,0,0,0,-1,937,1457,0,0
-280,-433,0,0,0,0,0,0,0,0,0,-1,944,1457,0,0
-273,-433,0,0,0,0,0,0,0,0,0,-1,951,1457,0,0
-266,-433,0,0,0,0,0,0,0,0,0,-1,958,1457,0,0
-259,-433,0,0,0,0,0,0,0,0,0,-1,965,1457,0,0
-252,-433,0,0,0,0,0,0,0,0,0,-1,972,1457,0,0
-245,-433,0,0,0,0,0,0,0,0,0,-1,979,1457,0,0
-238,-433,0,0,0,0,0,0,0,0,0,-1,986,1457,0,0
-231,-433,0,0,0,0,0,0,0,0,0,-1,993,1457,0,0
-224,-433,0,0,0,0,0,0,0,0,0,-1,1000,1457,0,0
-217,-433,0,0,0,0,0,0,0,0,0,-1,1007,1457,0,0
-210,-433,0,0,0,0,0,0,0,0,0,-1,1014,1457,0,0
-203,-433,0,0,0,0,0,0,0,0,0,-1,1021,1457,0,0
-196,-433,0,0,0,0,0,0,0,0,0,-1,1028,1457,0,0
-189,-433,0,0,0,0,0,0,0,0,0,-1,1035,1457,0,0
-182,-433,0,0,0,0,0,0,0,0,0,-1,1042,1457,0,0
-175,-433,0,0,0,0,0,0,0,0,0,-1,1049,1457,0,0
-168,-433,0,0,0,0,0,0,0,0,0,-1,1056,1457,0,0
-161,-433,0,0,0,0,0,0,0,0,0,-1,1063,1457,0,0
-154,-433,0,0,0,0,0,0,0,0,0,-1,1070,1457,0,0
-147,-433,0,0,0,0,0,0,0,0,0,-1,1077,1457,0,0
-140,-433,0,0,0,0,0,0,0,0,0,-1,1084,1457,0,0
-133,-433,0,0,0,0,0,0,0,0,0,-1,1091,1457,0,0
-126,-433,0,0,0,0,0,0,0,0,0,-1,1098,1457,0,0
-119,-433,0,0,0,0,0,0,0,0,0,-1,1105,1457,0,0
-112,-433,0,0,0,0,0,0,0,0,0,-1,1112,1457,0,0
-105,-433,0,0,0,0,0,0,0,0,0,-1,1119,1457,0,0
-98,-433,0,0,0,0,0,0,0,0,0,-1,1126,1457,0,0
-91,-433,0,0,0,0,0,0,0,0,0,-1,1133,1457,0,0
-84,-433,0,0,0,0,0,0,0,0,0,-1,1140,1457,0,0
-77,-433,0,0,0,0,0,0,0,0,0,-1,1147,1457,0,0
-70,-433,0,0,0,0,0,0,0,0,0,-1,1154,1457,0,0
-63,-433,0,0,0,0,0,0,0,0,0,-1,1161,1457,0,0
-56,-433,0,0,0,0,0,0,0,0,0,-1,1168,1457,0,0
-49,-433,0,0,0,0,0,0,0,0,0,-1,1175,1457,0,0
-42,-433,0,0,0,0,0,0,0,0,0,-1,1182,1457,0,0
-35,-433,0,0,0,0,0,0,0,0,0,-1,1189,1457,0,0
-28,-433,0,0,0,0,0,0,0,0,0,-1,1196,1457,0,0
-21,-433,0,0,0,0,0,0,0,0,0,-1,1203,1457,0,0
-14,-433,0,0,0,0,0,0,0,0,0,-1,1210,1457,0,0
-7,-433,0,0,0,0,0,0,0,0,0,-1,1217,1457,0,0
0,-433,0,0,0,0,0,0,0,0,0,-1,1224,1457,0,0
7,-433,0,0,0,0,0,0,0,0,0,-1,1231,1457,0,0
14,-433,0,0,0,0,0,0,0,0,0,-1,1238,1457,0,0
21,-433,0,0,0,0,0,0,0,0,0,-1,1245,1457,0,0
28,-433,0,0,0,0,0,0,0,0,0,-1,1252,1457,0,0
35,-433,0,0,0,0,0,0,0,0,0,-1,1259,1457,0,0
42,-433,0,0,0,0,0,0,0,0,0,-1,1266,1457,0,0
49,-433,0,0,0,0,0,0,0,0,0,-1,1273,1457,0,0
56,-433,0,0,0,0,0,0,0,0,0,-1,1280,1457,0,0
63,-433,0,0,0,0,0,0,0,0,0,-1,1287,1457,0,0
70,-433,0,0,0,0,0,0,0,0,0,-1,1294,1457,0,0
77,-433,0,0,0,0,0,0,0,0,0,-1,1301,1457,0,0
84,-433,0,0,0,0,0,0,0,0,0,-1,1308,1457,0,0
91,-433,0,0,0,0,0,0,0,0,0,-1,1315,1457,0,0
98,-433,0,0,0,0,0,0,0,0,0,-1,1322,1457,0,0
105,-433,0,0,0,0,0,0,0,0,0,-1,1329,1457,0,0
112,-433,0,0,0,0,0,0,0,0,0,-1,1336,1457,0,0
119,-433,0,0,0,0,0,0,0,0,0,-1,1343,1457,0,0
126,-433,0,0,0,0,0,0,0,0,0,-1,1350,1457,0,0
133,-433,0,0,0,0,0,0,0,0,0,-1,1357,1457,0,0
140,-433,0,0,0,0,0,0,0,0,0,-1,1364,1457,0,0
147,-433,0,0,0,0,0,0,0,0,0,-1,1371,1457,0,0
154,-433,0,0,0,0,0,0,0,0,0,-1,1378,1457,0,0
161,-433,0,0,0,0,0,0,0,0,0,-1,1385,1457,0,0
168,-433,0,0,0,0,0,0,0,0,0,-1,1392,1457,0,0
175,-433,0,0,0,0,0,0,0,0,0,-1,1399,1457,0,0
182,-433,0,0,0,0,0,0,0,0,0,-1,1406,1457,0,0
189,-433,0,0,0,0,0,0,0,0,0,-1,1413,1457,0,0
196,-433,0,0,0,0,0,0,0,0,0,-1,1420,1457,0,0
203,-433,0,0,0,0,0,0,0,0,0,-1,1427,1457,0,0
210,-433,0,0,0,0,0,0,0,0,0,-1,1434,1457,0,0
217,-433,0,0,0,0,0,0,0,0,0,-1,1441,1457,0,0
224,-433,0,0,0,0,0,0,0,0,0,-1,1448,1457,0,0
231,-433,0,0,0,0,0,0,0,0,0,-1,1455,1457,0,0
238,-433,0,0,0,0,0,0,0,0,0,-1,1462,1457,0,0
245,-433,0,0,0,0,0,0,0,0,0,-1,1469,1457,0,0
252,-433,0,0,0,0,0,0,0,0,0,-1,1476,1457,0,0
259,-433,0,0,0,0,0,0,0,0,0,-1,1483,1457,0,0
266,-433,0,0,0,0,0,0,0,0,0,-1,1490,1457,0,0
273,-433,0,0,0,0,0,0,0,0,0,-1,1497,1457,0,0
280,-433,0,0,0,0,0,0,0,0,0,-1,1504,1457,0,0
287,-433,0,0,0,0,0,0,0,0,0,-1,1511,1457,0,0
294,-433,0,0,0,0,0,0,0,0,0,-1,1518,1457,0,0
301,-433,0,0,0,0,0,0,0,0,0,-1,1525,1457,0,0
308,-433,0,0,0,0,0,0,0,0,0,-1,1532,1457,0,0
315,-433,0,0,0,0,0,0,0,0,0,-1,1539,1457,0,0
322,-433,0,0,0,0,0,0,0,0,0,-1,1546,1457,0,0
329,-433,0,0,0,0,0,0,0,0,0,-1,1553,1457,0,0
336,-433,0,0,0,0,0,0,0,0,0,-1,1560,1457,0,0
343,-433,0,0,0,0,0,0,0,0,0,-1,1567,1457,0,0
350,-433,0,0,0,0,0,0,0,0,0,-1,1574,1457,0,0
357,-433,0,0,0,0,0,0,0,0,0,-1,1581,1457,0,0
364,-433,0,0,0,0,0,0,0,0,0,-1,1588,1457,0,0
371,-433,0,0,0,0,0,0,0,0,0,-1,1595,1457,0,0
378,-433,0,0,0,0,0,0,0,0,0,-1,1602,1457,0,0
385,-433,0,0,0,0,0,0,0,0,0,-1,1609,1457,0,0
392,-433,0,0,0,0,0,0,0,0,0,-1,1616,1457,0,0
399,-433,0,0,0,0,0,0,0,0,0,-1,1623,1457,0,0
406,-433,0,0,0,0,0,0,0,0,0,-1,1630,1457,0,0
413,-433,0,0,0,0,0,0,0,0,0,-1,1637,1457,0,0
420,-433,0,0,0,0,0,0,0,0,0,-1,1644,1457,0,0
427,-433,0,0,0,0,0,0,0,0,0,-1,1651,1457,0,0
434,-433,0,0,0,0,0,0,0,0,0,-1,1658,1457,0,0
441,-433,0,0,0,0,0,0,0,0,0,-1,1665,1457,0,0
448,-433,0,0,0,0,0,0,0,0,0,-1,1672,1457,0,0
455,-433,0,0,0,0,0,0,0,0,0,-1,1679,1457,0,0
462,-433,0,0,0,0,0,0,0,0,0,-1,1686,1457,0,0
469,-433,0,0,0,0,0,0,0,0,0,-1,1693,1457,0,0
476,-433,0,0,0,0,0,0,0,0,0,-1,1700,1457,0,0
483,-433,0,0,0,0,0,0,0,0,0,-1,1707,1457,0,0
490,-433,0,0,0,0,0,0,0,0,0,-1,1714,1457,0,0
497,-433,0,0,0,0,0,0,0,0,0,-1,1721,1457,0,0
504,-433,19.9058,3.03662,0,0,0,0,0,0,0,-1,1728,1457,19.9058,-3.03656
511,-433,19.0145,3.07837,0,0,0,0,0,0,0,-1,1735,1457,19.0146,-3.07834
518,-433,18.071,3.06433,0,0,0,0,0,0,0,-1,1742,1457,18.071,-3.06432
525,-433,17.2048,3.37085,0,0,0,0,0,0,0,-1,1749,1457,17.2049,-3.37083
532,-433,16.5637,3.36646,0,0,0,0,0,0,0,-1,1756,1457,16.5637,-3.36643
539,-433,15.9193,3.30396,0,0,0,0,0,0,0,-1,1763,1457,15.9193,-3.30394
546,-433,23.1903,4.81775,0,0,0,0,0,0,0,-1,1770,1457,23.1903,-4.81775
553,-433,13.9674,11.5781,0,0,0,0,0,0,0,-1,1777,1457,13.9674,-11.5781
560,-433,13.9855,11.7341,0,0,0,0,0,0,0,-1,1784,1457,13.9855,-11.7341
567,-433,13.9264,11.3364,0,0,0,0,0,0,0,-1,1791,1457,13.9263,-11.3364
574,-433,15.5305,12.3673,0,0,0,0,0,0,0,-1,1798,1457,15.5305,-12.3673
581,-433,16.6405,12.1898,0,0,0,0,0,0,0,-1,1805,1457,16.6405,-12.1898
588,-433,26.4386,19.7478,0,0,0,0,0,0,0,-1,1812,1457,26.4386,-19.7478
595,-433,31.0723,22.3997,0,0,0,0,0,0,0,-1,1819,1457,31.0723,-22.3996
602,-433,30.9949,21.6211,0.00303043,0.00158541,-0.00173913,0.00419116,0.000424677,-0.588525,0.00266386,0.0277392,1826,1457,30.9949,-21.6212
609,-433,30.9982,20.8871,0.002434,0.00105031,-0.00124197,0.00316382,0.000320488,-0.531278,0.00201092,0.0176487,1833,1457,30.9981,-20.8871
616,-433,30.9999,20.2875,0.00199162,0.000635336,-0.00086079,0.0024093,0.000217651,-0.451765,0.00153879,0.015011,1840,1457,30.9999,-20.2875
623,-433,30.9501,19.621,0.00185402,0.000353498,-0.000641352,0.00209079,0.000116731,-0.353648,0.00135662,0.0113635,1847,1457,30.9501,-19.621
630,-433,30.9438,18.9791,0.00190299,0.000123229,-0.000567241,0.00206841,-4.21857e-05,-0.283745,0.00139321,0.0136084,1854,1457,30.9439,-18.9791
637,-433,30.9218,18.3306,0.00198522,-1.69998e-05,-0.000530339,0.00211702,-0.000148798,-0.243582,0.00146347,0.0149523,1861,1457,30.9217,-18.3306
644,-433,30.8606,17.6873,0.00222239,4.12932e-05,-0.000568143,0.00236151,-9.78261e-05,-0.240141,0.00160794,0.0160477,1868,1457,30.8607,-17.6873
651,-433,30.8141,16.9944,0.00253854,0.000258529,-0.000774693,0.00277685,2.02152e-05,-0.298436,0.00184453,0.0126274,1875,1457,30.8141,-16.9944
658,-433,30.7603,16.2933,0.00287875,0.000619901,-0.000986707,0.00324906,0.000249596,-0.359029,0.00208782,0.0371493,1882,1457,30.7603,-16.2933
665,-433,31.027,15.3534,0,0,0,0,0,0,0,-1,1889,1457,31.027,-15.3534
672,-433,18.115,8.7207,0,0,0,0,0,0,0,-1,1896,1457,18.115,-8.72074
679,-433,17.2969,9.6355,0,0,0,0,0,0,0,-1,1903,1457,17.2968,-9.63548
686,-433,13.6356,8.61694,0,0,0,0,0,0,0,-1,1910,1457,13.6356,-8.61694
693,-433,13.4081,8.39624,0,0,0,0,0,0,0,-1,1917,1457,13.4081,-8.39624
700,-433,7.16809,-1.5166,0,0,0,0,0,0,0,-1,1924,1457,7.16806,1.51656
707,-433,8.68359,-2.82202,0,0,0,0,0,0,0,-1,1931,1457,8.68359,2.82197
714,-433,0,0,0,0,0,0,0,0,0,-1,1938,1457,0,0
721,-433,0,0,0,0,0,0,0,0,0,-1,1945,1457,0,0
728,-433,0,0,0,0,0,0,0,0,0,-1,1952,1457,0,0
735,-433,0,0,0,0,0,0,0,0,0,-1,1959,1457,0,0
742,-433,0,0,0,0,0,0,0,0,0,-1,1966,1457,0,0
749,-433,0,0,0,0,0,0,0,0,0,-1,1973,1457,0,0
756,-433,0,0,0,0,0,0,0,0,0,-1,1980,1457,0,0
763,-433,0,0,0,0,0,0,0,0,0,-1,1987,1457,0,0
770,-433,0,0,0,0,0,0,0,0,0,-1,1994,1457,0,0
777,-433,0,0,0,0,0,0,0,0,0,-1,2001,1457,0,0
784,-433,0,0,0,0,0,0,0,0,0,-1,2008,1457,0,0
791,-433,0,0,0,0,0,0,0,0,0,-1,2015,1457,0,0
798,-433,0,0,0,0,0,0,0,0,0,-1,2022,1457,0,0
805,-433,0,0,0,0,0,0,0,0,0,-1,2029,1457,0,0
812,-433,0,0,0,0,0,0,0,0,0,-1,2036,1457,0,0
-700,-440,0,0,0,0,0,0,0,0,0,-1,524,1464,0,0
-693,-440,0,0,0,0,0,0,0,0,0,-1,531,1464,0,0
-686,-440,0,0,0,0,0,0,0,0,0,-1,538,1464,0,0
-679,-440,0,0,0,0,0,0,0,0,0,-1,545,1464,0,0
-672,-440,0,0,0,0,0,0,0,0,0,-1,552,1464,0,0
-665,-440,0,0,0,0,0,0,0,0,0,-1,559,1464,0,0
-658,-440,0,0,0,0,0,0,0,0,0,-1,566,1464,0,0
-651,-440,0,0,0,0,0,0,0,0,0,-1,573,1464,0,0
-644,-440,0,0,0,0,0,0,0,0,0,-1,580,1464,0,0
-637,-440,0,0,0,0,0,0,0,0,0,-1,587,1464,0,0
-630,-440,0,0,0,0,0,0,0,0,0,-1,594,1464,0,0
-623,-440,0,0,0,0,0,0,0,0,0,-1,601,1464,0,0
-616,-440,0,0,0,0,0,0,0,0,0,-1,608,1464,0,0
-609,-440,0,0,0,0,0,0,0,0,0,-1,615,1464,0,0
-602,-440,0,0,0,0,0,0,0,0,0,-1,622,1464,0,0
-595,-440,0,0,0,0,0,0,0,0,0,-1,629,1464,0,0
-588,-440,0,0,0,0,0,0,0,0,0,-1,636,1464,0,0
-581,-440,-8.97278,0.254517,0,0,0,0,0,0,0,-1,643,1464,-8.97276,-0.254526
-574,-440,-7.00818,-0.918579,0,0,0,0,0,0,0,-1,650,1464,-7.00817,0.918538
-567,-440,-6.12152,-0.0766602,0,0,0,0,0,0,0,-1,657,1464,-6.12151,0.0767097
-560,-440,-5.46747,0.82251,0,0,0,0,0,0,0,-1,664,1464,-5.46748,-0.822551
-553,-440,-6.84729,0.0831299,0,0,0,0,0,0,0,-1,671,1464,-6.84732,-0.083136
-546,-440,-5.63446,-0.153198,0,0,0,0,0,0,0,-1,678,1464,-5.63447,0.153147
-539,-440,-6.80017,8.58252,0,0,0,0,0,0,0,-1,685,1464,-6.80015,-8.58257
-532,-440,-9.69647,11.3262,0,0,0,0,0,0,0,-1,692,1464,-9.69649,-11.3262
-525,-440,-12.7677,14.7845,0,0,0,0,0,0,0,-1,699,1464,-12.7677,-14.7845
-518,-440,-12.7303,15.5846,0.00445524,0.00434142,0.00440834,0.00880703,-1.03768e-05,0.778944,0.00587482,0.0275711,706,1464,-12.7303,-15.5846
-511,-440,-12.6983,16.3816,0.00360365,0.00340385,0.00352406,0.00702923,-2.1728e-05,0.771228,0.00469341,0.0166341,713,1464,-12.6983,-16.3816
-504,-440,-12.7139,17.078,0.002833,0.00264769,0.002725,0.00546692,1.37666e-05,0.768404,0.00364003,0.0197629,720,1464,-12.7139,-17.078
-497,-440,-12.7557,17.7327,0.00219938,0.00209605,0.00205945,0.00420781,8.76163e-05,0.772857,0.00277646,0.0226708,727,1464,-12.7557,-17.7327
-490,-440,-12.7809,18.3372,0.00172923,0.00177286,0.00157403,0.00332522,0.000176866,0.792328,0.00216027,0.0223426,734,1464,-12.7809,-18.3372
-483,-440,-12.8181,19.0919,0.00145418,0.00167213,0.00126215,0.00283,0.000296313,0.828462,0.00179606,0.0196515,741,1464,-12.818,-19.0919
-476,-440,-12.8481,19.8568,0.00136753,0.00182878,0.00117515,0.00279572,0.000400585,0.882293,0.00174567,0.0137171,748,1464,-12.8481,-19.8568
-469,-440,-12.8927,20.5586,0.00144843,0.0022436,0.00128053,0.00318684,0.000505179,0.935922,0.00197779,0.012959,755,1464,-12.8927,-20.5586
-462,-440,-12.97,21.2234,0.00178201,0.0029757,0.00168193,0.00416354,0.000594168,0.955895,0.00260037,0.0181568,762,1464,-12.97,-21.2234
-455,-440,-12.9634,21.9661,0,0,0,0,0,0,0,-1,769,1464,-12.9634,-21.9661
-448,-440,-11.3019,21.765,0,0,0,0,0,0,0,-1,776,1464,-11.3019,-21.765
-441,-440,-7.28583,14.7465,0,0,0,0,0,0,0,-1,783,1464,-7.28584,-14.7464
-434,-440,-8.33636,14.5024,0,0,0,0,0,0,0,-1,790,1464,-8.33638,-14.5025
-427,-440,-8.28094,14.2512,0,0,0,0,0,0,0,-1,797,1464,-8.28094,-14.2512
-420,-440,-6.86603,8.09216,0,0,0,0,0,0,0,-1,804,1464,-6.86602,-8.09222
-413,-440,-3.46796,5.72278,0,0,0,0,0,0,0,-1,811,1464,-3.46797,-5.72276
-406,-440,-5.2887,5.20264,0,0,0,0,0,0,0,-1,818,1464,-5.2887,-5.20261
-399,-440,-12.7318,3.94421,0,0,0,0,0,0,0,-1,825,1464,-12.7318,-3.94419
-392,-440,-13.5565,2.51855,0,0,0,0,0,0,0,-1,832,1464,-13.5565,-2.51861
-385,-440,-14.6741,1.39795,0,0,0,0,0,0,0,-1,839,1464,-14.6741,-1.39801
-378,-440,-15.8063,0.293457,0,0,0,0,0,0,0,-1,846,1464,-15.8063,-0.293412
-371,-440,0,0,0,0,0,0,0,0,0,-1,853,1464,0,0
-364,-440,0,0,0,0,0,0,0,0,0,-1,860,1464,0,0
-357,-440,0,0,0,0,0,0,0,0,0,-1,867,1464,0,0
-350,-440,0,0,0,0,0,0,0,0,0,-1,874,1464,0,0
-343,-440,0,0,0,0,0,0,0,0,0,-1,881,1464,0,0
-336,-440,0,0,0,0,0,0,0,0,0,-1,888,1464,0,0
-329,-440,0,0,0,0,0,0,0,0,0,-1,895,1464,0,0
-322,-440,0,0,0,0,0,0,0,0,0,-1,902,1464,0,0
-315,-440,0,0,0,0,0,0,0,0,0,-1,909,1464,0,0
-308,-440,0,0,0,0,0,0,0,0,0,-1,916,1464,0,0
-301,-440,0,0,0,0,0,0,0,0,0,-1,923,1464,0,0
-294,-440,0,0,0,0,0,0,0,0,0,-1,930,1464,0,0
-287,-440,0,0,0,0,0,0,0,0,0,-1,937,1464,0,0
-280,-440,0,0,0,0,0,0,0,0,0,-1,944,1464,0,0
-273,-440,0,0,0,0,0,0,0,0,0,-1,951,1464,0,0
-266,-440,0,0,0,0,0,0,0,0,0,-1,958,1464,0,0
-259,-440,0,0,0,0,0,0,0,0,0,-1,965,1464,0,0
-252,-440,0,0,0,0,0,0,0,0,0,-1,972,1464,0,0
-245,-440,0,0,0,0,0,0,0,0,0,-1,979,1464,0,0
-238,-440,0,0,0,0,0,0,0,0,0,-1,986,1464,0,0
-231,-440,0,0,0,0,0,0,0,0,0,-1,993,1464,0,0
-224,-440,0,0,0,0,0,0,0,0,0,-1,1000,1464,0,0
-217,-440,0,0,0,0,0,0,0,0,0,-1,1007,1464,0,0
-210,-440,0,0,0,0,0,0,0,0,0,-1,1014,1464,0,0
-203,-440,0,0,0,0,0,0,0,0,0,-1,1021,1464,0,0
-196,-440,0,0,0,0,0,0,0,0,0,-1,1028,1464,0,0
-189,-440,0,0,0,0,0,0,0,0,0,-1,1035,1464,0,0
-182,-440,0,0,0,0,0,0,0,0,0,-1,1042,1464,0,0
-175,-440,0,0,0,0,0,0,0,0,0,-1,1049,1464,0,0
-168,-440,0,0,0,0,0,0,0,0,0,-1,1056,1464,0,0
-161,-440,0,0,0,0,0,0,0,0,0,-1,1063,1464,0,0
-154,-440,0,0,0,0,0,0,0,0,0,-1,1070,1464,0,0
-147,-440,0,0,0,0,0,0,0,0,0,-1,1077,1464,0,0
-140,-440,0,0,0,0,0,0,0,0,0,-1,1084,1464,0,0
-133,-440,0,0,0,0,0,0,0,0,0,-1,1091,1464,0,0
-126,-440,0,0,0,0,0,0,0,0,0,-1,1098,1464,0,0
-119,-440,0,0,0,0,0,0,0,0,0,-1,1105,1464,0,0
-112,-440,0,0,0,0,0,0,0,0,0,-1,1112,1464,0,0
-105,-440,0,0,0,0,0,0,0,0,0,-1,1119,1464,0,0
-98,-440,0,0,0,0,0,0,0,0,0,-1,1126,1464,0,0
-91,-440,0,0,0,0,0,0,0,0,0,-1,1133,1464,0,0
-84,-440,0,0,0,0,0,0,0,0,0,-1,1140,1464,0,0
-77,-440,0,0,0,0,0,0,0,0,0,-1,1147,1464,0,0
-70,-440,0,0,0,0,0,0,0,0,0,-1,1154,1464,0,0
-63,-440,0,0,0,0,0,0,0,0,0,-1,1161,1464,0,0
-56,-440,0,0,0,0,0,0,0,0,0,-1,1168,1464,0,0
-49,-440,0,0,0,0,0,0,0,0,0,-1,1175,1464,0,0
-42,-440,0,0,0,0,0,0,0,0,0,-1,1182,1464,0,0
-35,-440,0,0,0,0,0,0,0,0,0,-1,1189,1464,0,0
-28,-440,0,0,0,0,0,0,0,0,0,-1,1196,1464,0,0
-21,-440,0,0,0,0,0,0,0,0,0,-1,1203,1464,0,0
-14,-440,0,0,0,0,0,0,0,0,0,-1,1210,1464,0,0
-7,-440,0,0,0,0,0,0,0,0,0,-1,1217,1464,0,0
0,-440,0,0,0,0,0,0,0,0,0,-1,1224,1464,0,0
7,-440,0,0,0,0,0,0,0,0,0,-1,1231,1464,0,0
14,-440,0,0,0,0,0,0,0,0,0,-1,1238,1464,0,0
21,-440,0,0,0,0,0,0,0,0,0,-1,1245,1464,0,0
28,-440,0,0,0,0,0,0,0,0,0,-1,1252,1464,0,0
35,-440,0,0,0,0,0,0,0,0,0,-1,1259,1464,0,0
42,-440,0,0,0,0,0,0,0,0,0,-1,1266,1464,0,0
49,-440,0,0,0,0,0,0,0,0,0,-1,1273,1464,0,0
56,-440,0,0,0,0,0,0,0,0,0,-1,1280,1464,0,0
63,-440,0,0,0,0,0,0,0,0,0,-1,1287,1464,0,0
70,-440,0,0,0,0,0,0,0,0,0,-1,1294,1464,0,0
77,-440,0,0,0,0,0,0,0,0,0,-1,1301,1464,0,0
84,-440,0,0,0,0,0,0,0,0,0,-1,1308,1464,0,0
91,-440,0,0,0,0,0,0,0,0,0,-1,1315,1464,0,0
98,-440,0,0,0,0,0,0,0,0,0,-1,1322,1464,0,0
105,-440,0,0,0,0,0,0,0,0,0,-1,1329,1464,0,0
112,-440,0,0,0,0,0,0,0,0,0,-1,1336,1464,0,0
119,-440,0,0,0,0,0,0,0,0,0,-1,1343,1464,0,0
126,-440,0,0,0,0,0,0,0,0,0,-1,1350,1464,0,0
133,-440,0,0,0,0,0,0,0,0,0,-1,1357,1464,0,0
140,-440,0,0,0,0,0,0,0,0,0,-1,1364,1464,0,0
147,-440,0,0,0,0,0,0,0,0,0,-1,1371,1464,0,0
154,-440,0,0,0,0,0,0,0,0,0,-1,1378,1464,0,0
161,-440,0,0,0,0,0,0,0,0,0,-1,1385,1464,0,0
168,-440,0,0,0,0,0,0,0,0,0,-1,1392,1464,0,0
175,-440,0,0,0,0,0,0,0,0,0,-1,1399,1464,0,0
182,-440,0,0,0,0,0,0,0,0,0,-1,1406,1464,0,0
189,-440,0,0,0,0,0,0,0,0,0,-1,1413,1464,0,0
196,-440,0,0,0,0,0,0,0,0,0,-1,1420,1464,0,0
203,-440,0,0,0,0,0,0,0,0,0,-1,1427,1464,0,0
210,-440,0,0,0,0,0,0,0,0,0,-1,1434,1464,0,0
217,-440,0,0,0,0,0,0,0,0,0,-1,1441,1464,0,0
224,-440,0,0,0,0,0,0,0,0,0,-1,1448,1464,0,0
231,-440,0,0,0,0,0,0,0,0,0,-1,1455,1464,0,0
238,-440,0,0,0,0,0,0,0,0,0,-1,1462,1464,0,0
245,-440,0,0,0,0,0,0,0,0,0,-1,1469,1464,0,0
252,-440,0,0,0,0,0,0,0,0,0,-1,1476,1464,0,0
259,-440,0,0,0,0,0,0,0,0,0,-1,1483,1464,0,0
266,-440,0,0,0,0,0,0,0,0,0,-1,1490,1464,0,0
273,-440,0,0,0,0,0,0,0,0,0,-1,1497,1464,0,0
280,-440,0,0,0,0,0,0,0,0,0,-1,1504,1464,0,0
287,-440,0,0,0,0,0,0,0,0,0,-1,1511,1464,0,0
294,-440,0,0,0,0,0,0,0,0,0,-1,1518,1464,0,0
301,-440,0,0,0,0,0,0,0,0,0,-1,1525,1464,0,0
308,-440,0,0,0,0,0,0,0,0,0,-1,1532,1464,0,0
315,-440,0,0,0,0,0,0,0,0,0,-1,1539,1464,0,0
322,-440,0,0,0,0,0,0,0,0,0,-1,1546,1464,0,0
329,-440,0,0,0,0,0,0,0,0,0,-1,1553,1464,0,0
336,-440,0,0,0,0,0,0,0,0,0,-1,1560,1464,0,0
343,-440,0,0,0,0,0,0,0,0,0,-1,1567,1464,0,0
350,-440,0,0,0,0,0,0,0,0,0,-1,1574,1464,0,0
357,-440,0,0,0,0,0,0,0,0,0,-1,1581,1464,0,0
364,-440,0,0,0,0,0,0,0,0,0,-1,1588,1464,0,0
371,-440,0,0,0,0,0,0,0,0,0,-1,1595,1464,0,0
378,-440,0,0,0,0,0,0,0,0,0,-1,1602,1464,0,0
385,-440,0,0,0,0,0,0,0,0,0,-1,1609,1464,0,0
392,-440,0,0,0,0,0,0,0,0,0,-1,1616,1464,0,0
399,-440,0,0,0,0,0,0,0,0,0,-1,1623,1464,0,0
406,-440,0,0,0,0,0,0,0,0,0,-1,1630,1464,0,0
413,-440,0,0,0,0,0,0,0,0,0,-1,1637,1464,0,0
420,-440,0,0,0,0,0,0,0,0,0,-1,1644,1464,0,0
427,-440,0,0,0,0,0,0,0,0,0,-1,1651,1464,0,0
434,-440,0,0,0,0,0,0,0,0,0,-1,1658,1464,0,0
441,-440,0,0,0,0,0,0,0,0,0,-1,1665,1464,0,0
448,-440,0,0,0,0,0,0,0,0,0,-1,1672,1464,0,0
455,-440,0,0,0,0,0,0,0,0,0,-1,1679,1464,0,0
462,-440,0,0,0,0,0,0,0,0,0,-1,1686,1464,0,0
469,-440,0,0,0,0,0,0,0,0,0,-1,1693,1464,0,0
476,-440,0,0,0,0,0,0,0,0,0,-1,1700,1464,0,0
483,-440,0,0,0,0,0,0,0,0,0,-1,1707,1464,0,0
490,-440,0,0,0,0,0,0,0,0,0,-1,1714,1464,0,0
497,-440,16.965,-0.528442,0,0,0,0,0,0,0,-1,1721,1464,16.965,0.528492
504,-440,15.8052,0.670166,0,0,0,0,0,0,0,-1,1728,1464,15.8052,-0.670145
511,-440,17.5754,2.77832,0,0,0,0,0,0,0,-1,1735,1464,17.5754,-2.77826
518,-440,16.9017,3.07861,0,0,0,0,0,0,0,-1,1742,1464,16.9018,-3.07859
525,-440,18.4495,12.0867,0,0,0,0,0,0,0,-1,1749,1464,18.4495,-12.0867
532,-440,15.4319,3.64392,0,0,0,0,0,0,0,-1,1756,1464,15.4318,-3.64391
539,-440,14.8214,3.41321,0,0,0,0,0,0,0,-1,1763,1464,14.8214,-3.4132
546,-440,14.8651,10.7683,0,0,0,0,0,0,0,-1,1770,1464,14.8651,-10.7683
553,-440,15.1213,11.4121,0,0,0,0,0,0,0,-1,1777,1464,15.1213,-11.4121
560,-440,17.4325,12.5394,0,0,0,0,0,0,0,-1,1784,1464,17.4325,-12.5394
567,-440,16.9025,12.4249,0,0,0,0,0,0,0,-1,1791,1464,16.9025,-12.425
574,-440,19.2841,14.8679,0,0,0,0,0,0,0,-1,1798,1464,19.2841,-14.868
581,-440,26.4432,21.3477,0,0,0,0,0,0,0,-1,1805,1464,26.4432,-21.3476
588,-440,30.205,23.1351,0,0,0,0,0,0,0,-1,1812,1464,30.205,-23.1351
595,-440,30.2516,22.3243,0.00364271,0.0018451,-0.00206992,0.00500055,0.000487267,-0.580571,0.00318373,0.0312589,1819,1464,30.2516,-22.3244
602,-440,30.3435,21.5687,0.00290144,0.00133956,-0.00154729,0.0038537,0.000387303,-0.551692,0.00245026,0.0195106,1826,1464,30.3435,-21.5688
609,-440,30.3524,20.943,0.00238368,0.000861768,-0.00109795,0.0029586,0.000286853,-0.482368,0.00188407,0.0174512,1833,1464,30.3524,-20.943
616,-440,30.3071,20.3342,0.00201711,0.000520653,-0.000776914,0.00234751,0.000190252,-0.402103,0.0015056,0.0185509,1840,1464,30.3072,-20.3342
623,-440,30.2848,19.6594,0.00196283,0.000252139,-0.000584385,0.0021434,7.15689e-05,-0.299686,0.00140568,0.0142527,1847,1464,30.2848,-19.6594
630,-440,30.2568,18.9756,0.00208985,9.15077e-06,-0.000509087,0.00220773,-0.00010873,-0.227543,0.00150937,0.0121053,1854,1464,30.2568,-18.9756
637,-440,30.2402,18.3669,0.0022523,-0.000142992,-0.000480723,0.00234518,-0.00023587,-0.190852,0.00164771,0.0167029,1861,1464,30.2402,-18.3669
644,-440,30.2189,17.7289,0.00256341,-4.14552e-05,-0.000558533,0.00267812,-0.000156164,-0.202559,0.00183968,0.0157253,1868,1464,30.2189,-17.7289
651,-440,30.2118,17.0029,0.00299869,0.000237032,-0.000855474,0.00324221,-6.49283e-06,-0.27733,0.00216364,0.0214867,1875,1464,30.2118,-17.003
658,-440,30.3445,16.1823,0,0,0,0,0,0,0,-1,1882,1464,30.3445,-16.1822
665,-440,24.2067,12.5813,0,0,0,0,0,0,0,-1,1889,1464,24.2067,-12.5813
672,-440,18.9385,9.6394,0,0,0,0,0,0,0,-1,1896,1464,18.9384,-9.63939
679,-440,16.9508,10.2336,0,0,0,0,0,0,0,-1,1903,1464,16.9508,-10.2337
686,-440,15.2556,8.44177,0,0,0,0,0,0,0,-1,1910,1464,15.2556,-8.44177
693,-440,9.88635,2.89795,0,0,0,0,0,0,0,-1,1917,1464,9.88638,-2.89798
700,-440,7.07825,-2.62061,0,0,0,0,0,0,0,-1,1924,1464,7.07829,2.62057
707,-440,0,0,0,0,0,0,0,0,0,-1,1931,1464,0,0
714,-440,0,0,0,0,0,0,0,0,0,-1,1938,1464,0,0
721,-440,0,0,0,0,0,0,0,0,0,-1,1945,1464,0,0
728,-440,0,0,0,0,0,0,0,0,0,-1,1952,1464,0,0
735,-440,0,0,0,0,0,0,0,0,0,-1,1959,1464,0,0
742,-440,0,0,0,0,0,0,0,0,0,-1,1966,1464,0,0
749,-440,0,0,0,0,0,0,0,0,0,-1,1973,1464,0,0
756,-440,0,0,0,0,0,0,0,0,0,-1,1980,1464,0,0
763,-440,0,0,0,0,0,0,0,0,0,-1,1987,1464,0,0
770,-440,0,0,0,0,0,0,0,0,0,-1,1994,1464,0,0
777,-440,0,0,0,0,0,0,0,0,0,-1,2001,1464,0,0
784,-440,0,0,0,0,0,0,0,0,0,-1,2008,1464,0,0
791,-440,0,0,0,0,0,0,0,0,0,-1,2015,1464,0,0
798,-440,0,0,0,0,0,0,0,0,0,-1,2022,1464,0,0
805,-440,0,0,0,0,0,0,0,0,0,-1,2029,1464,0,0
812,-440,0,0,0,0,0,0,0,0,0,-1,2036,1464,0,0
-700,-447,0,0,0,0,0,0,0,0,0,-1,524,1471,0,0
-693,-447,0,0,0,0,0,0,0,0,0,-1,531,1471,0,0
-686,-447,0,0,0,0,0,0,0,0,0,-1,538,1471,0,0
-679,-447,0,0,0,0,0,0,0,0,0,-1,545,1471,0,0
-672,-447,0,0,0,0,0,0,0,0,0,-1,552,1471,0,0
-665,-447,0,0,0,0,0,0,0,0,0,-1,559,1471,0,0
-658,-447,0,0,0,0,0,0,0,0,0,-1,566,1471,0,0
-651,-447,0,0,0,0,0,0,0,0,0,-1,573,1471,0,0
-644,-447,0,0,0,0,0,0,0,0,0,-1,580,1471,0,0
-637,-447,0,0,0,0,0,0,0,0,0,-1,587,1471,0,0
-630,-447,0,0,0,0,0,0,0,0,0,-1,594,1471,0,0
-623,-447,0,0,0,0,0,0,0,0,0,-1,601,1471,0,0
-616,-447,0,0,0,0,0,0,0,0,0,-1,608,1471,0,0
-609,-447,0,0,0,0,0,0,0,0,0,-1,615,1471,0,0
-602,-447,0,0,0,0,0,0,0,0,0,-1,622,1471,0,0
-595,-447,0,0,0,0,0,0,0,0,0,-1,629,1471,0,0
-588,-447,0,0,0,0,0,0,0,0,0,-1,636,1471,0,0
-581,-447,-7.06482,-1.50476,0,0,0,0,0,0,0,-1,643,1471,-7.0648,1.50474
-574,-447,-6.88092,-0.00585938,0,0,0,0,0,0,0,-1,650,1471,-6.88095,0.00589852
-567,-447,-6.8205,-1.32178,0,0,0,0,0,0,0,-1,657,1471,-6.82047,1.32172
-560,-447,-8.85748,2.80774,0,0,0,0,0,0,0,-1,664,1471,-8.85748,-2.80775
-553,-447,-7.60486,3.26794,0,0,0,0,0,0,0,-1,671,1471,-7.60487,-3.26799
-546,-447,-3.94501,1.8656,0,0,0,0,0,0,0,-1,678,1471,-3.945,-1.86554
-539,-447,-5.35492,4.50024,0,0,0,0,0,0,0,-1,685,1471,-5.35492,-4.50018
-532,-447,-6.12781,8.81091,0,0,0,0,0,0,0,-1,692,1471,-6.12781,-8.81094
-525,-447,-9.44501,12.098,0,0,0,0,0,0,0,-1,699,1471,-9.44502,-12.098
-518,-447,-12.0835,15.3999,0,0,0,0,0,0,0,-1,706,1471,-12.0835,-15.3999
-511,-447,-12.0372,16.353,0.00404419,0.00355841,0.00412412,0.00793256,-0.000329963,0.755985,0.00540172,0.0254853,713,1471,-12.0372,-16.353
-504,-447,-12.0308,17.1567,0.00319187,0.00263142,0.00317039,0.0060944,-0.000271104,0.741319,0.00415625,0.0216427,720,1471,-12.0308,-17.1567
-497,-447,-12.1055,17.8207,0.00245113,0.00196514,0.00237504,0.00459557,-0.000179311,0.73442,0.0031252,0.0262568,727,1471,-12.1055,-17.8207
-490,-447,-12.09,18.3927,0.00190703,0.00156596,0.00179075,0.00353535,-6.23586e-05,0.737925,0.00237796,0.0256891,734,1471,-12.09,-18.3927
-483,-447,-12.138,19.1001,0.00158749,0.00144339,0.00142634,0.0029436,8.72777e-05,0.760162,0.00193397,0.022844,741,1471,-12.138,-19.1001
-476,-447,-12.1635,19.8425,0.00147661,0.00162063,0.00131972,0.0028703,0.000226935,0.812654,0.00184255,0.0145856,748,1471,-12.1635,-19.8426
-469,-447,-12.1918,20.5616,0.00154884,0.00210654,0.00141893,0.00327376,0.000381622,0.882423,0.00206707,0.0129077,755,1471,-12.1918,-20.5617
-462,-447,-12.2388,21.2639,0.00188926,0.0029108,0.00180667,0.00427751,0.000522547,0.92316,0.00269443,0.0133555,762,1471,-12.2389,-21.264
-455,-447,-12.291,21.9614,0.00250319,0.00405474,0.00249596,0.00589271,0.000665226,0.936071,0.00372657,0.024013,769,1471,-12.291,-21.9614
-448,-447,-12.302,22.6875,0,0,0,0,0,0,0,-1,776,1471,-12.302,-22.6875
-441,-447,-8.68506,19.0931,0,0,0,0,0,0,0,-1,783,1471,-8.68504,-19.0932
-434,-447,-7.43402,15.6273,0,0,0,0,0,0,0,-1,790,1471,-7.43404,-15.6274
-427,-447,-7.21832,14.691,0,0,0,0,0,0,0,-1,797,1471,-7.21834,-14.6911
-420,-447,-8.0545,12.8055,0,0,0,0,0,0,0,-1,804,1471,-8.05452,-12.8055
-413,-447,-4.27393,6.59705,0,0,0,0,0,0,0,-1,811,1471,-4.27392,-6.59707
-406,-447,-1.04279,6.18591,0,0,0,0,0,0,0,-1,818,1471,-1.04276,-6.18586
-399,-447,0.0134888,0.687622,0,0,0,0,0,0,0,-1,825,1471,0.0134841,-0.68767
-392,-447,-14.0646,3.76147,0,0,0,0,0,0,0,-1,832,1471,-14.0646,-3.7615
-385,-447,-15.1695,2.61865,0,0,0,0,0,0,0,-1,839,1471,-15.1695,-2.61871
-378,-447,-15.9424,1.49316,0,0,0,0,0,0,0,-1,846,1471,-15.9424,-1.49313
-371,-447,-17.3655,0.73291,0,0,0,0,0,0,0,-1,853,1471,-17.3655,-0.732946
-364,-447,0,0,0,0,0,0,0,0,0,-1,860,1471,0,0
-357,-447,0,0,0,0,0,0,0,0,0,-1,867,1471,0,0
-350,-447,0,0,0,0,0,0,0,0,0,-1,874,1471,0,0
-343,-447,0,0,0,0,0,0,0,0,0,-1,881,1471,0,0
-336,-447,0,0,0,0,0,0,0,0,0,-1,888,1471,0,0
-329,-447,0,0,0,0,0,0,0,0,0,-1,895,1471,0,0
-322,-447,0,0,0,0,0,0,0,0,0,-1,902,1471,0,0
-315,-447,0,0,0,0,0,0,0,0,0,-1,909,1471,0,0
-308,-447,0,0,0,0,0,0,0,0,0,-1,916,1471,0,0
-301,-447,0,0,0,0,0,0,0,0,0,-1,923,1471,0,0
-294,-447,0,0,0,0,0,0,0,0,0,-1,930,1471,0,0
-287,-447,0,0,0,0,0,0,0,0,0,-1,937,1471,0,0
-280,-447,0,0,0,0,0,0,0,0,0,-1,944,1471,0,0
-273,-447,0,0,0,0,0,0,0,0,0,-1,951,1471,0,0
-266,-447,0,0,0,0,0,0,0,0,0,-1,958,1471,0,0
-259,-447,0,0,0,0,0,0,0,0,0,-1,965,1471,0,0
-252,-447,0,0,0,0,0,0,0,0,0,-1,972,1471,0,0
-245,-447,0,0,0,0,0,0,0,0,0,-1,979,1471,0,0
-238,-447,0,0,0,0,0,0,0,0,0,-1,986,1471,0,0
-231,-447,0,0,0,0,0,0,0,0,0,-1,993,1471,0,0
-224,-447,0,0,0,0,0,0,0,0,0,-1,1000,1471,0,0
-217,-447,0,0,0,0,0,0,0,0,0,-1,1007,1471,0,0
-210,-447,0,0,0,0,0,0,0,0,0,-1,1014,1471,0,0
-203,-447,0,0,0,0,0,0,0,0,0,-1,1021,1471,0,0
-196,-447,0,0,0,0,0,0,0,0,0,-1,1028,1471,0,0
-189,-447,0,0,0,0,0,0,0,0,0,-1,1035,1471,0,0
-182,-447,0,0,0,0,0,0,0,0,0,-1,1042,1471,0,0
-175,-447,0,0,0,0,0,0,0,0,0,-1,1049,1471,0,0
-168,-447,0,0,0,0,0,0,0,0,0,-1,1056,1471,0,0
-161,-447,0,0,0,0,0,0,0,0,0,-1,1063,1471,0,0
-154,-447,0,0,0,0,0,0,0,0,0,-1,1070,1471,0,0
-147,-447,0,0,0,0,0,0,0,0,0,-1,1077,1471,0,0
-140,-447,0,0,0,0,0,0,0,0,0,-1,1084,1471,0,0
-133,-447,0,0,0,0,0,0,0,0,0,-1,1091,1471,0,0
-126,-447,0,0,0,0,0,0,0,0,0,-1,1098,1471,0,0
-119,-447,0,0,0,0,0,0,0,0,0,-1,1105,1471,0,0
-112,-447,0,0,0,0,0,0,0,0,0,-1,1112,1471,0,0
-105,-447,0,0,0,0,0,0,0,0,0,-1,1119,1471,0,0
-98,-447,0,0,0,0,0,0,0,0,0,-1,1126,1471,0,0
-91,-447,0,0,0,0,0,0,0,0,0,-1,1133,1471,0,0
-84,-447,0,0,0,0,0,0,0,0,0,-1,1140,1471,0,0
-77,-447,0,0,0,0,0,0,0,0,0,-1,1147,1471,0,0
-70,-447,0,0,0,0,0,0,0,0,0,-1,1154,1471,0,0
-63,-447,0,0,0,0,0,0,0,0,0,-1,1161,1471,0,0
-56,-447,0,0,0,0,0,0,0,0,0,-1,1168,1471,0,0
-49,-447,0,0,0,0,0,0,0,0,0,-1,1175,1471,0,0
-42,-447,0,0,0,0,0,0,0,0,0,-1,1182,1471,0,0
-35,-447,0,0,0,0,0,0,0,0,0,-1,1189,1471,0,0
-28,-447,0,0,0,0,0,0,0,0,0,-1,1196,1471,0,0
-21,-447,0,0,0,0,0,0,0,0,0,-1,1203,1471,0,0
-14,-447,0,0,0,0,0,0,0,0,0,-1,1210,1471,0,0
-7,-447,0,0,0,0,0,0,0,0,0,-1,1217,1471,0,0
0,-447,0,0,0,0,0,0,0,0,0,-1,1224,1471,0,0
7,-447,0,0,0,0,0,0,0,0,0,-1,1231,1471,0,0
14,-447,0,0,0,0,0,0,0,0,0,-1,1238,1471,0,0
21,-447,0,0,0,0,0,0,0,0,0,-1,1245,1471,0,0
28,-447,0,0,0,0,0,0,0,0,0,-1,1252,1471,0,0
35,-447,0,0,0,0,0,0,0,0,0,-1,1259,1471,0,0
42,-447,0,0,0,0,0,0,0,0,0,-1,1266,1471,0,0
49,-447,0,0,0,0,0,0,0,0,0,-1,1273,1471,0,0
56,-447,0,0,0,0,0,0,0,0,0,-1,1280,1471,0,0
63,-447,0,0,0,0,0,0,0,0,0,-1,1287,1471,0,0
70,-447,0,0,0,0,0,0,0,0,0,-1,1294,1471,0,0
77,-447,0,0,0,0,0,0,0,0,0,-1,1301,1471,0,0
84,-447,0,0,0,0,0,0,0,0,0,-1,1308,1471,0,0
91,-447,0,0,0,0,0,0,0,0,0,-1,1315,1471,0,0
98,-447,0,0,0,0,0,0,0,0,0,-1,1322,1471,0,0
105,-447,0,0,0,0,0,0,0,0,0,-1,1329,1471,0,0
112,-447,0,0,0,0,0,0,0,0,0,-1,1336,1471,0,0
119,-447,0,0,0,0,0,0,0,0,0,-1,1343,1471,0,0
126,-447,0,0,0,0,0,0,0,0,0,-1,1350,1471,0,0
133,-447,0,0,0,0,0,0,0,0,0,-1,1357,1471,0,0
140,-447,0,0,0,0,0,0,0,0,0,-1,1364,1471,0,0
147,-447,0,0,0,0,0,0,0,0,0,-1,1371,1471,0,0
154,-447,0,0,0,0,0,0,0,0,0,-1,1378,1471,0,0
161,-447,0,0,0,0,0,0,0,0,0,-1,1385,1471,0,0
168,-447,0,0,0,0,0,0,0,0,0,-1,1392,1471,0,0
175,-447,0,0,0,0,0,0,0,0,0,-1,1399,1471,0,0
182,-447,0,0,0,0,0,0,0,0,0,-1,1406,1471,0,0
189,-447,0,0,0,0,0,0,0,0,0,-1,1413,1471,0,0
196,-447,0,0,0,0,0,0,0,0,0,-1,1420,1471,0,0
203,-447,0,0,0,0,0,0,0,0,0,-1,1427,1471,0,0
210,-447,0,0,0,0,0,0,0,0,0,-1,1434,1471,0,0
217,-447,0,0,0,0,0,0,0,0,0,-1,1441,1471,0,0
224,-447,0,0,0,0,0,0,0,0,0,-1,1448,1471,0,0
231,-447,0,0,0,0,0,0,0,0,0,-1,1455,1471,0,0
238,-447,0,0,0,0,0,0,0,0,0,-1,1462,1471,0,0
245,-447,0,0,0,0,0,0,0,0,0,-1,1469,1471,0,0
252,-447,0,0,0,0,0,0,0,0,0,-1,1476,1471,0,0
259,-447,0,0,0,0,0,0,0,0,0,-1,1483,1471,0,0
266,-447,0,0,0,0,0,0,0,0,0,-1,1490,1471,0,0
273,-447,0,0,0,0,0,0,0,0,0,-1,1497,1471,0,0
280,-447,0,0,0,0,0,0,0,0,0,-1,1504,1471,0,0
287,-447,0,0,0,0,0,0,0,0,0,-1,1511,1471,0,0
294,-447,0,0,0,0,0,0,0,0,0,-1,1518,1471,0,0
301,-447,0,0,0,0,0,0,0,0,0,-1,1525,1471,0,0
308,-447,0,0,0,0,0,0,0,0,0,-1,1532,1471,0,0
315,-447,0,0,0,0,0,0,0,0,0,-1,1539,1471,0,0
322,-447,0,0,0,0,0,0,0,0,0,-1,1546,1471,0,0
329,-447,0,0,0,0,0,0,0,0,0,-1,1553,1471,0,0
336,-447,0,0,0,0,0,0,0,0,0,-1,1560,1471,0,0
343,-447,0,0,0,0,0,0,0,0,0,-1,1567,1471,0,0
350,-447,0,0,0,0,0,0,0,0,0,-1,1574,1471,0,0
357,-447,0,0,0,0,0,0,0,0,0,-1,1581,1471,0,0
364,-447,0,0,0,0,0,0,0,0,0,-1,1588,1471,0,0
371,-447,0,0,0,0,0,0,0,0,0,-1,1595,1471,0,0
378,-447,0,0,0,0,0,0,0,0,0,-1,1602,1471,0,0
385,-447,0,0,0,0,0,0,0,0,0,-1,1609,1471,0,0
392,-447,0,0,0,0,0,0,0,0,0,-1,1616,1471,0,0
399,-447,0,0,0,0,0,0,0,0,0,-1,1623,1471,0,0
406,-447,0,0,0,0,0,0,0,0,0,-1,1630,1471,0,0
413,-447,0,0,0,0,0,0,0,0,0,-1,1637,1471,0,0
420,-447,0,0,0,0,0,0,0,0,0,-1,1644,1471,0,0
427,-447,0,0,0,0,0,0,0,0,0,-1,1651,1471,0,0
434,-447,0,0,0,0,0,0,0,0,0,-1,1658,1471,0,0
441,-447,0,0,0,0,0,0,0,0,0,-1,1665,1471,0,0
448,-447,0,0,0,0,0,0,0,0,0,-1,1672,1471,0,0
455,-447,0,0,0,0,0,0,0,0,0,-1,1679,1471,0,0
462,-447,0,0,0,0,0,0,0,0,0,-1,1686,1471,0,0
469,-447,0,0,0,0,0,0,0,0,0,-1,1693,1471,0,0
476,-447,0,0,0,0,0,0,0,0,0,-1,1700,1471,0,0
483,-447,0,0,0,0,0,0,0,0,0,-1,1707,1471,0,0
490,-447,18.2214,-0.810303,0,0,0,0,0,0,0,-1,1714,1471,18.2215,0.810307
497,-447,17.0237,0.352417,0,0,0,0,0,0,0,-1,1721,1471,17.0237,-0.352442
504,-447,15.8998,1.53479,0,0,0,0,0,0,0,-1,1728,1471,15.8997,-1.53478
511,-447,14.7201,2.76111,0,0,0,0,0,0,0,-1,1735,1471,14.7201,-2.76107
518,-447,17.7618,13.2864,0,0,0,0,0,0,0,-1,1742,1471,17.7619,-13.2863
525,-447,17.1191,11.9014,0,0,0,0,0,0,0,-1,1749,1471,17.1191,-11.9013
532,-447,16.3959,10.0455,0,0,0,0,0,0,0,-1,1756,1471,16.3959,-10.0456
539,-447,14.1699,10.0204,0,0,0,0,0,0,0,-1,1763,1471,14.1699,-10.0204
546,-447,16.3715,11.8046,0,0,0,0,0,0,0,-1,1770,1471,16.3714,-11.8046
553,-447,17.5106,13.4012,0,0,0,0,0,0,0,-1,1777,1471,17.5107,-13.4012
560,-447,17.0187,13.168,0,0,0,0,0,0,0,-1,1784,1471,17.0187,-13.168
567,-447,18.9286,15.1703,0,0,0,0,0,0,0,-1,1791,1471,18.9286,-15.1703
574,-447,28.9933,24.4989,0,0,0,0,0,0,0,-1,1798,1471,28.9933,-24.4988
581,-447,29.6738,23.8745,0,0,0,0,0,0,0,-1,1805,1471,29.6738,-23.8745
588,-447,29.7067,23.0138,0.00442131,0.00171597,-0.00200823,0.00548994,0.000647334,-0.489017,0.0034644,0.0336467,1812,1471,29.7067,-23.0138
595,-447,29.7206,22.2926,0.00334396,0.00148527,-0.00165475,0.00431247,0.000516749,-0.529537,0.00271915,0.0138649,1819,1471,29.7205,-22.2926
602,-447,29.7013,21.6003,0.00271026,0.00104945,-0.00126645,0.00339427,0.000365433,-0.495213,0.00215141,0.0119806,1826,1471,29.7013,-21.6004
609,-447,29.6774,20.9622,0.00231894,0.000667999,-0.000916222,0.0027267,0.000260235,-0.418729,0.00173756,0.0136542,1833,1471,29.6773,-20.9622
616,-447,29.6484,20.3296,0.00208414,0.00040283,-0.000679369,0.00232434,0.000162632,-0.339843,0.00149829,0.0151199,1840,1471,29.6484,-20.3296
623,-447,29.6316,19.7008,0.00215287,0.000148394,-0.000525588,0.00228232,1.89415e-05,-0.241494,0.00151527,0.0163227,1847,1471,29.6316,-19.7008
630,-447,29.5934,19.0366,0.00239212,-0.000103462,-0.000451589,0.00247133,-0.000182666,-0.173623,0.00171169,0.0103942,1854,1471,29.5933,-19.0366
637,-447,29.5885,18.3834,0.00267478,-0.000271436,-0.000445488,0.00274067,-0.000337323,-0.146835,0.00194931,0.0110762,1861,1471,29.5886,-18.3835
644,-447,29.5818,17.728,0.00310068,-0.000161897,-0.000607671,0.00321019,-0.000271403,-0.178293,0.00223609,0.0119758,1868,1471,29.5818,-17.7281
651,-447,29.5975,16.988,0,0,0,0,0,0,0,-1,1875,1471,29.5975,-16.9881
658,-447,29.3623,16.0917,0,0,0,0,0,0,0,-1,1882,1471,29.3623,-16.0916
665,-447,18.4946,9.79919,0,0,0,0,0,0,0,-1,1889,1471,18.4946,-9.79922
672,-447,18.9784,9.66077,0,0,0,0,0,0,0,-1,1896,1471,18.9784,-9.66081
679,-447,14.844,7.4248,0,0,0,0,0,0,0,-1,1903,1471,14.844,-7.42477
686,-447,9.81079,4.30859,0,0,0,0,0,0,0,-1,1910,1471,9.8108,-4.30864
693,-447,10.48,2.08643,0,0,0,0,0,0,0,-1,1917,1471,10.48,-2.08642
700,-447,0,0,0,0,0,0,0,0,0,-1,1924,1471,0,0
707,-447,0,0,0,0,0,0,0,0,0,-1,1931,1471,0,0
714,-447,0,0,0,0,0,0,0,0,0,-1,1938,1471,0,0
721,-447,0,0,0,0,0,0,0,0,0,-1,1945,1471,0,0
728,-447,0,0,0,0,0,0,0,0,0,-1,1952,1471,0,0
735,-447,0,0,0,0,0,0,0,0,0,-1,1959,1471,0,0
742,-447,0,0,0,0,0,0,0,0,0,-1,1966,1471,0,0
749,-447,0,0,0,0,0,0,0,0,0,-1,1973,1471,0,0
756,-447,0,0,0,0,0,0,0,0,0,-1,1980,1471,0,0
763,-447,0,0,0,0,0,0,0,0,0,-1,1987,1471,0,0
770,-447,0,0,0,0,0,0,0,0,0,-1,1994,1471,0,0
777,-447,0,0,0,0,0,0,0,0,0,-1,2001,1471,0,0
784,-447,0,0,0,0,0,0,0,0,0,-1,2008,1471,0,0
791,-447,0,0,0,0,0,0,0,0,0,-1,2015,1471,0,0
798,-447,0,0,0,0,0,0,0,0,0,-1,2022,1471,0,0
805,-447,0,0,0,0,0,0,0,0,0,-1,2029,1471,0,0
812,-447,0,0,0,0,0,0,0,0,0,-1,2036,1471,0,0
-700,-454,0,0,0,0,0,0,0,0,0,-1,524,1478,0,0
-693,-454,0,0,0,0,0,0,0,0,0,-1,531,1478,0,0
-686,-454,0,0,0,0,0,0,0,0,0,-1,538,1478,0,0
-679,-454,0,0,0,0,0,0,0,0,0,-1,545,1478,0,0
-672,-454,0,0,0,0,0,0,0,0,0,-1,552,1478,0,0
-665,-454,0,0,0,0,0,0,0,0,0,-1,559,1478,0,0
-658,-454,0,0,0,0,0,0,0,0,0,-1,566,1478,0,0
-651,-454,0,0,0,0,0,0,0,0,0,-1,573,1478,0,0
-644,-454,0,0,0,0,0,0,0,0,0,-1,580,1478,0,0
-637,-454,0,0,0,0,0,0,0,0,0,-1,587,1478,0,0
-630,-454,0,0,0,0,0,0,0,0,0,-1,594,1478,0,0
-623,-454,0,0,0,0,0,0,0,0,0,-1,601,1478,0,0
-616,-454,0,0,0,0,0,0,0,0,0,-1,608,1478,0,0
-609,-454,0,0,0,0,0,0,0,0,0,-1,615,1478,0,0
-602,-454,0,0,0,0,0,0,0,0,0,-1,622,1478,0,0
-595,-454,0,0,0,0,0,0,0,0,0,-1,629,1478,0,0
-588,-454,0,0,0,0,0,0,0,0,0,-1,636,1478,0,0
-581,-454,0,0,0,0,0,0,0,0,0,-1,643,1478,0,0
-574,-454,-8.4881,-0.465942,0,0,0,0,0,0,0,-1,650,1478,-8.4881,0.465885
-567,-454,-8.10046,0.922974,0,0,0,0,0,0,0,-1,657,1478,-8.10047,-0.923034
-560,-454,-10.656,3.51172,0,0,0,0,0,0,0,-1,664,1478,-10.656,-3.51176
-553,-454,-9.01129,3.95251,0,0,0,0,0,0,0,-1,671,1478,-9.0113,-3.95256
-546,-454,-9.61896,6.05237,0,0,0,0,0,0,0,-1,678,1478,-9.61897,-6.05239
-539,-454,-7.72589,4.96533,0,0,0,0,0,0,0,-1,685,1478,-7.72592,-4.96532
-532,-454,-7.03931,7.59985,0,0,0,0,0,0,0,-1,692,1478,-7.03929,-7.59981
-525,-454,-5.78723,9.677,0,0,0,0,0,0,0,-1,699,1478,-5.78722,-9.67703
-518,-454,-9.82098,13.8295,0,0,0,0,0,0,0,-1,706,1478,-9.82098,-13.8295
-511,-454,-11.4203,16.3229,0,0,0,0,0,0,0,-1,713,1478,-11.4203,-16.3229
-504,-454,-11.3793,17.1132,0.00357117,0.00272987,0.00357909,0.00675424,-0.0004532,0.726901,0.00466124,0.0195441,720,1478,-11.3793,-17.1131
-497,-454,-11.4197,17.832,0.00269039,0.0019399,0.00262895,0.00497073,-0.00034045,0.714509,0.00343294,0.0206412,727,1478,-11.4197,-17.8321
-490,-454,-11.4519,18.5172,0.0020503,0.00142908,0.00192158,0.00368622,-0.000206832,0.70527,0.00252924,0.0192779,734,1478,-11.4519,-18.5172
-483,-454,-11.4778,19.2072,0.00166748,0.00124256,0.00149383,0.00296389,-5.38405e-05,0.714759,0.00199412,0.016912,741,1478,-11.4778,-19.2072
-476,-454,-11.5093,19.8717,0.00151941,0.00137769,0.00135519,0.0028056,9.15052e-05,0.759277,0.00184065,0.0133098,748,1478,-11.5093,-19.8718
-469,-454,-11.5182,20.5635,0.00157728,0.00183117,0.00144429,0.00315408,0.000254367,0.829233,0.00202327,0.00969854,755,1478,-11.5182,-20.5635
-462,-454,-11.566,21.2925,0.00189659,0.00257572,0.00181239,0.00408008,0.000392228,0.878004,0.0025992,0.0106968,762,1478,-11.566,-21.2924
-455,-454,-11.6097,21.9784,0.00250473,0.00363007,0.00248552,0.00561581,0.000518987,0.896712,0.00358343,0.0119736,769,1478,-11.6097,-21.9784
-448,-454,-11.5881,22.6947,0.00355495,0.00522886,0.00366664,0.00815286,0.000630957,0.897606,0.0052376,0.0241948,776,1478,-11.5881,-22.6947
-441,-454,-11.2814,23.9233,0,0,0,0,0,0,0,-1,783,1478,-11.2814,-23.9234
-434,-454,-7.55743,19.4857,0,0,0,0,0,0,0,-1,790,1478,-7.55746,-19.4858
-427,-454,-6.00183,15.8636,0,0,0,0,0,0,0,-1,797,1478,-6.00184,-15.8637
-420,-454,-6.28088,15.2135,0,0,0,0,0,0,0,-1,804,1478,-6.28087,-15.2135
-413,-454,-5.4408,13.674,0,0,0,0,0,0,0,-1,811,1478,-5.44079,-13.6739
-406,-454,-2.38208,10.0308,0,0,0,0,0,0,0,-1,818,1478,-2.38209,-10.0308
-399,-454,-1.21033,6.95447,0,0,0,0,0,0,0,-1,825,1478,-1.21035,-6.95452
-392,-454,0.0967407,0.985474,0,0,0,0,0,0,0,-1,832,1478,0.0967364,-0.985529
-385,-454,2.38629,3.297,0,0,0,0,0,0,0,-1,839,1478,2.38629,-3.29702
-378,-454,-15.9756,2.83997,0,0,0,0,0,0,0,-1,846,1478,-15.9756,-2.83994
-371,-454,-17.2753,2.01453,0,0,0,0,0,0,0,-1,853,1478,-17.2753,-2.01455
-364,-454,1.08124,0.819458,0,0,0,0,0,0,0,-1,860,1478,1.08124,-0.819513
-357,-454,0,0,0,0,0,0,0,0,0,-1,867,1478,0,0
-350,-454,0,0,0,0,0,0,0,0,0,-1,874,1478,0,0
-343,-454,0,0,0,0,0,0,0,0,0,-1,881,1478,0,0
-336,-454,0,0,0,0,0,0,0,0,0,-1,888,1478,0,0
-329,-454,0,0,0,0,0,0,0,0,0,-1,895,1478,0,0
-322,-454,0,0,0,0,0,0,0,0,0,-1,902,1478,0,0
-315,-454,0,0,0,0,0,0,0,0,0,-1,909,1478,0,0
-308,-454,0,0,0,0,0,0,0,0,0,-1,916,1478,0,0
-301,-454,0,0,0,0,0,0,0,0,0,-1,923,1478,0,0
-294,-454,0,0,0,0,0,0,0,0,0,-1,930,1478,0,0
-287,-454,0,0,0,0,0,0,0,0,0,-1,937,1478,0,0
-280,-454,0,0,0,0,0,0,0,0,0,-1,944,1478,0,0
-273,-454,0,0,0,0,0,0,0,0,0,-1,951,1478,0,0
-266,-454,0,0,0,0,0,0,0,0,0,-1,958,1478,0,0
-259,-454,0,0,0,0,0,0,0,0,0,-1,965,1478,0,0
-252,-454,0,0,0,0,0,0,0,0,0,-1,972,1478,0,0
-245,-454,0,0,0,0,0,0,0,0,0,-1,979,1478,0,0
-238,-454,0,0,0,0,0,0,0,0,0,-1,986,1478,0,0
-231,-454,0,0,0,0,0,0,0,0,0,-1,993,1478,0,0
-224,-454,0,0,0,0,0,0,0,0,0,-1,1000,1478,0,0
-217,-454,0,0,0,0,0,0,0,0,0,-1,1007,1478,0,0
-210,-454,0,0,0,0,0,0,0,0,0,-1,1014,1478,0,0
-203,-454,0,0,0,0,0,0,0,0,0,-1,1021,1478,0,0
-196,-454,0,0,0,0,0,0,0,0,0,-1,1028,1478,0,0
-189,-454,0,0,0,0,0,0,0,0,0,-1,1035,1478,0,0
-182,-454,0,0,0,0,0,0,0,0,0,-1,1042,1478,0,0
-175,-454,0,0,0,0,0,0,0,0,0,-1,1049,1478,0,0
-168,-454,0,0,0,0,0,0,0,0,0,-1,1056,1478,0,0
-161,-454,0,0,0,0,0,0,0,0,0,-1,1063,1478,0,0
-154,-454,0,0,0,0,0,0,0,0,0,-1,1070,1478,0,0
-147,-454,0,0,0,0,0,0,0,0,0,-1,1077,1478,0,0
-140,-454,0,0,0,0,0,0,0,0,0,-1,1084,1478,0,0
-133,-454,0,0,0,0,0,0,0,0,0,-1,1091,1478,0,0
-126,-454,0,0,0,0,0,0,0,0,0,-1,1098,1478,0,0
-119,-454,0,0,0,0,0,0,0,0,0,-1,1105,1478,0,0
-112,-454,0,0,0,0,0,0,0,0,0,-1,1112,1478,0,0
-105,-454,0,0,0,0,0,0,0,0,0,-1,1119,1478,0,0
-98,-454,0,0,0,0,0,0,0,0,0,-1,1126,1478,0,0
-91,-454,0,0,0,0,0,0,0,0,0,-1,1133,1478,0,0
-84,-454,0,0,0,0,0,0,0,0,0,-1,1140,1478,0,0
-77,-454,0,0,0,0,0,0,0,0,0,-1,1147,1478,0,0
-70,-454,0,0,0,0,0,0,0,0,0,-1,1154,1478,0,0
-63,-454,0,0,0,0,0,0,0,0,0,-1,1161,1478,0,0
-56,-454,0,0,0,0,0,0,0,0,0,-1,1168,1478,0,0
-49,-454,0,0,0,0,0,0,0,0,0,-1,1175,1478,0,0
-42,-454,0,0,0,0,0,0,0,0,0,-1,1182,1478,0,0
-35,-454,0,0,0,0,0,0,0,0,0,-1,1189,1478,0,0
-28,-454,0,0,0,0,0,0,0,0,0,-1,1196,1478,0,0
-21,-454,0,0,0,0,0,0,0,0,0,-1,1203,1478,0,0
-14,-454,0,0,0,0,0,0,0,0,0,-1,1210,1478,0,0
-7,-454,0,0,0,0,0,0,0,0,0,-1,1217,1478,0,0
0,-454,0,0,0,0,0,0,0,0,0,-1,1224,1478,0,0
7,-454,0,0,0,0,0,0,0,0,0,-1,1231,1478,0,0
14,-454,0,0,0,0,0,0,0,0,0,-1,1238,1478,0,0
21,-454,0,0,0,0,0,0,0,0,0,-1,1245,1478,0,0
28,-454,0,0,0,0,0,0,0,0,0,-1,1252,1478,0,0
35,-454,0,0,0,0,0,0,0,0,0,-1,1259,1478,0,0
42,-454,0,0,0,0,0,0,0,0,0,-1,1266,1478,0,0
49,-454,0,0,0,0,0,0,0,0,0,-1,1273,1478,0,0
56,-454,0,0,0,0,0,0,0,0,0,-1,1280,1478,0,0
63,-454,0,0,0,0,0,0,0,0,0,-1,1287,1478,0,0
70,-454,0,0,0,0,0,0,0,0,0,-1,1294,1478,0,0
77,-454,0,0,0,0,0,0,0,0,0,-1,1301,1478,0,0
84,-454,0,0,0,0,0,0,0,0,0,-1,1308,1478,0,0
91,-454,0,0,0,0,0,0,0,0,0,-1,1315,1478,0,0
98,-454,0,0,0,0,0,0,0,0,0,-1,1322,1478,0,0
105,-454,0,0,0,0,0,0,0,0,0,-1,1329,1478,0,0
112,-454,0,0,0,0,0,0,0,0,0,-1,1336,1478,0,0
119,-454,0,0,0,0,0,0,0,0,0,-1,1343,1478,0,0
126,-454,0,0,0,0,0,0,0,0,0,-1,1350,1478,0,0
133,-454,0,0,0,0,0,0,0,0,0,-1,1357,1478,0,0
140,-454,0,0,0,0,0,0,0,0,0,-1,1364,1478,0,0
147,-454,0,0,0,0,0,0,0,0,0,-1,1371,1478,0,0
154,-454,0,0,0,0,0,0,0,0,0,-1,1378,1478,0,0
161,-454,0,0,0,0,0,0,0,0,0,-1,1385,1478,0,0
168,-454,0,0,0,0,0,0,0,0,0,-1,1392,1478,0,0
175,-454,0,0,0,0,0,0,0,0,0,-1,1399,1478,0,0
182,-454,0,0,0,0,0,0,0,0,0,-1,1406,1478,0,0
189,-454,0,0,0,0,0,0,0,0,0,-1,1413,1478,0,0
196,-454,0,0,0,0,0,0,0,0,0,-1,1420,1478,0,0
203,-454,0,0,0,0,0,0,0,0,0,-1,1427,1478,0,0
210,-454,0,0,0,0,0,0,0,0,0,-1,1434,1478,0,0
217,-454,0,0,0,0,0,0,0,0,0,-1,1441,1478,0,0
224,-454,0,0,0,0,0,0,0,0,0,-1,1448,1478,0,0
231,-454,0,0,0,0,0,0,0,0,0,-1,1455,1478,0,0
238,-454,0,0,0,0,0,0,0,0,0,-1,1462,1478,0,0
245,-454,0,0,0,0,0,0,0,0,0,-1,1469,1478,0,0
252,-454,0,0,0,0,0,0,0,0,0,-1,1476,1478,0,0
259,-454,0,0,0,0,0,0,0,0,0,-1,1483,1478,0,0
266,-454,0,0,0,0,0,0,0,0,0,-1,1490,1478,0,0
273,-454,0,0,0,0,0,0,0,0,0,-1,1497,1478,0,0
280,-454,0,0,0,0,0,0,0,0,0,-1,1504,1478,0,0
287,-454,0,0,0,0,0,0,0,0,0,-1,1511,1478,0,0
294,-454,0,0,0,0,0,0,0,0,0,-1,1518,1478,0,0
301,-454,0,0,0,0,0,0,0,0,0,-1,1525,1478,0,0
308,-454,0,0,0,0,0,0,0,0,0,-1,1532,1478,0,0
315,-454,0,0,0,0,0,0,0,0,0,-1,1539,1478,0,0
322,-454,0,0,0,0,0,0,0,0,0,-1,1546,1478,0,0
329,-454,0,0,0,0,0,0,0,0,0,-1,1553,1478,0,0
336,-454,0,0,0,0,0,0,0,0,0,-1,1560,1478,0,0
343,-454,0,0,0,0,0,0,0,0,0,-1,1567,1478,0,0
350,-454,0,0,0,0,0,0,0,0,0,-1,1574,1478,0,0
357,-454,0,0,0,0,0,0,0,0,0,-1,1581,1478,0,0
364,-454,0,0,0,0,0,0,0,0,0,-1,1588,1478,0,0
371,-454,0,0,0,0,0,0,0,0,0,-1,1595,1478,0,0
378,-454,0,0,0,0,0,0,0,0,0,-1,1602,1478,0,0
385,-454,0,0,0,0,0,0,0,0,0,-1,1609,1478,0,0
392,-454,0,0,0,0,0,0,0,0,0,-1,1616,1478,0,0
399,-454,0,0,0,0,0,0,0,0,0,-1,1623,1478,0,0
406,-454,0,0,0,0,0,0,0,0,0,-1,1630,1478,0,0
413,-454,0,0,0,0,0,0,0,0,0,-1,1637,1478,0,0
420,-454,0,0,0,0,0,0,0,0,0,-1,1644,1478,0,0
427,-454,0,0,0,0,0,0,0,0,0,-1,1651,1478,0,0
434,-454,0,0,0,0,0,0,0,0,0,-1,1658,1478,0,0
441,-454,0,0,0,0,0,0,0,0,0,-1,1665,1478,0,0
448,-454,0,0,0,0,0,0,0,0,0,-1,1672,1478,0,0
455,-454,0,0,0,0,0,0,0,0,0,-1,1679,1478,0,0
462,-454,0,0,0,0,0,0,0,0,0,-1,1686,1478,0,0
469,-454,0,0,0,0,0,0,0,0,0,-1,1693,1478,0,0
476,-454,0,0,0,0,0,0,0,0,0,-1,1700,1478,0,0
483,-454,14.2399,3.97498,0,0,0,0,0,0,0,-1,1707,1478,14.2399,-3.97502
490,-454,18.1821,-0.175781,0,0,0,0,0,0,0,-1,1714,1478,18.1821,0.175822
497,-454,16.8854,1.01208,0,0,0,0,0,0,0,-1,1721,1478,16.8854,-1.01209
504,-454,15.587,2.05994,0,0,0,0,0,0,0,-1,1728,1478,15.5871,-2.05998
511,-454,17.0273,14.5258,0,0,0,0,0,0,0,-1,1735,1478,17.0273,-14.5258
518,-454,16.4158,13.1039,0,0,0,0,0,0,0,-1,1742,1478,16.4157,-13.1038
525,-454,15.7842,11.6628,0,0,0,0,0,0,0,-1,1749,1478,15.7841,-11.6629
532,-454,15.1094,10.2476,0,0,0,0,0,0,0,-1,1756,1478,15.1094,-10.2475
539,-454,13.7905,10.9373,0,0,0,0,0,0,0,-1,1763,1478,13.7906,-10.9372
546,-454,16.2002,13.2458,0,0,0,0,0,0,0,-1,1770,1478,16.2002,-13.2459
553,-454,15.6747,12.1868,0,0,0,0,0,0,0,-1,1777,1478,15.6747,-12.1868
560,-454,16.3895,14.0527,0,0,0,0,0,0,0,-1,1784,1478,16.3895,-14.0528
567,-454,29.2062,24.9147,0,0,0,0,0,0,0,-1,1791,1478,29.2062,-24.9147
574,-454,28.9839,24.3961,0,0,0,0,0,0,0,-1,1798,1478,28.9838,-24.3962
581,-454,29.0776,23.6602,0.00505658,0.00174921,-0.00193558,0.0059487,0.000857091,-0.431888,0.00371322,0.0302502,1805,1478,29.0776,-23.6602
588,-454,29.1232,22.9576,0.00393534,0.00149596,-0.00166123,0.00477656,0.00065475,-0.468739,0.00299011,0.0141578,1812,1478,29.1232,-22.9577
595,-454,29.0774,22.3101,0.00307091,0.00123834,-0.00136965,0.00380251,0.000506747,-0.490592,0.00238411,0.0130102,1819,1478,29.0774,-22.31
602,-454,29.0522,21.6407,0.00254666,0.000849197,-0.00106926,0.00306309,0.000332772,-0.449936,0.00194067,0.00973867,1826,1478,29.0523,-21.6407
609,-454,29.0317,20.9965,0.00227272,0.000522358,-0.000786579,0.00257425,0.000220828,-0.366066,0.0016475,0.0116841,1833,1478,29.0318,-20.9964
616,-454,29.0022,20.3645,0.00216137,0.000275755,-0.000588098,0.00232975,0.000107371,-0.278859,0.00151864,0.014086,1840,1478,29.0022,-20.3645
623,-454,28.9974,19.7305,0.00234767,-1.39221e-05,-0.000431774,0.00242414,-9.03881e-05,-0.17528,0.00164705,0.0146132,1847,1478,28.9975,-19.7304
630,-454,28.9791,19.0757,0.00270948,-0.000316646,-0.000315643,0.00274205,-0.000349219,-0.102831,0.00195486,0.0147111,1854,1478,28.9791,-19.0757
637,-454,28.9092,18.4207,0.00315716,-0.000536023,-0.00029011,0.00317981,-0.000558673,-0.0779158,0.00232855,0.0127996,1861,1478,28.9091,-18.4207
644,-454,28.9698,17.7454,0.00378076,-0.00053348,-0.000473355,0.00383208,-0.000584805,-0.108007,0.00277031,0.0227676,1868,1478,28.9699,-17.7454
651,-454,29.0547,17.0413,0,0,0,0,0,0,0,-1,1875,1478,29.0547,-17.0413
658,-454,17.2583,10.0765,0,0,0,0,0,0,0,-1,1882,1478,17.2583,-10.0765
665,-454,17.683,9.67566,0,0,0,0,0,0,0,-1,1889,1478,17.683,-9.67572
672,-454,16.5476,6.41931,0,0,0,0,0,0,0,-1,1896,1478,16.5476,-6.41929
679,-454,14.2161,5.45007,0,0,0,0,0,0,0,-1,1903,1478,14.2161,-5.45013
686,-454,10.3767,2.12842,0,0,0,0,0,0,0,-1,1910,1478,10.3767,-2.12839
693,-454,11.1857,1.48486,0,0,0,0,0,0,0,-1,1917,1478,11.1857,-1.48487
700,-454,0,0,0,0,0,0,0,0,0,-1,1924,1478,0,0
707,-454,0,0,0,0,0,0,0,0,0,-1,1931,1478,0,0
714,-454,0,0,0,0,0,0,0,0,0,-1,1938,1478,0,0
721,-454,0,0,0,0,0,0,0,0,0,-1,1945,1478,0,0
728,-454,0,0,0,0,0,0,0,0,0,-1,1952,1478,0,0
735,-454,0,0,0,0,0,0,0,0,0,-1,1959,1478,0,0
742,-454,0,0,0,0,0,0,0,0,0,-1,1966,1478,0,0
749,-454,0,0,0,0,0,0,0,0,0,-1,1973,1478,0,0
756,-454,0,0,0,0,0,0,0,0,0,-1,1980,1478,0,0
763,-454,0,0,0,0,0,0,0,0,0,-1,1987,1478,0,0
770,-454,0,0,0,0,0,0,0,0,0,-1,1994,1478,0,0
777,-454,0,0,0,0,0,0,0,0,0,-1,2001,1478,0,0
784,-454,0,0,0,0,0,0,0,0,0,-1,2008,1478,0,0
791,-454,0,0,0,0,0,0,0,0,0,-1,2015,1478,0,0
798,-454,0,0,0,0,0,0,0,0,0,-1,2022,1478,0,0
805,-454,0,0,0,0,0,0,0,0,0,-1,2029,1478,0,0
812,-454,0,0,0,0,0,0,0,0,0,-1,2036,1478,0,0
-700,-461,0,0,0,0,0,0,0,0,0,-1,524,1485,0,0
-693,-461,0,0,0,0,0,0,0,0,0,-1,531,1485,0,0
-686,-461,0,0,0,0,0,0,0,0,0,-1,538,1485,0,0
-679,-461,0,0,0,0,0,0,0,0,0,-1,545,1485,0,0
-672,-461,0,0,0,0,0,0,0,0,0,-1,552,1485,0,0
-665,-461,0,0,0,0,0,0,0,0,0,-1,559,1485,0,0
-658,-461,0,0,0,0,0,0,0,0,0,-1,566,1485,0,0
-651,-461,0,0,0,0,0,0,0,0,0,-1,573,1485,0,0
-644,-461,0,0,0,0,0,0,0,0,0,-1,580,1485,0,0
-637,-461,0,0,0,0,0,0,0,0,0,-1,587,1485,0,0
-630,-461,0,0,0,0,0,0,0,0,0,-1,594,1485,0,0
-623,-461,0,0,0,0,0,0,0,0,0,-1,601,1485,0,0
-616,-461,0,0,0,0,0,0,0,0,0,-1,608,1485,0,0
-609,-461,0,0,0,0,0,0,0,0,0,-1,615,1485,0,0
-602,-461,0,0,0,0,0,0,0,0,0,-1,622,1485,0,0
-595,-461,0,0,0,0,0,0,0,0,0,-1,629,1485,0,0
-588,-461,0,0,0,0,0,0,0,0,0,-1,636,1485,0,0
-581,-461,0,0,0,0,0,0,0,0,0,-1,643,1485,0,0
-574,-461,0,0,0,0,0,0,0,0,0,-1,650,1485,0,0
-567,-461,-9.69031,0.513306,0,0,0,0,0,0,0,-1,657,1485,-9.69032,-0.513305
-560,-461,-7.28815,1.54004,0,0,0,0,0,0,0,-1,664,1485,-7.28817,-1.54005
-553,-461,-11.9607,5.27783,0,0,0,0,0,0,0,-1,671,1485,-11.9607,-5.27778
-546,-461,-11.4215,4.44666,0,0,0,0,0,0,0,-1,678,1485,-11.4215,-4.4467
-539,-461,-9.36493,5.23438,0,0,0,0,0,0,0,-1,685,1485,-9.3649,-5.23432
-532,-461,-7.82898,6.78357,0,0,0,0,0,0,0,-1,692,1485,-7.829,-6.78363
-525,-461,-6.37878,8.75659,0,0,0,0,0,0,0,-1,699,1485,-6.3788,-8.75659
-518,-461,-6.49695,10.886,0,0,0,0,0,0,0,-1,706,1485,-6.49696,-10.8859
-511,-461,-11.0371,16.3022,0,0,0,0,0,0,0,-1,713,1485,-11.0371,-16.3023
-504,-461,-10.7875,17.0613,0.0032757,0.0038725,0.00418471,0.00776944,-0.000621235,0.820992,0.00539863,0.0375307,720,1485,-10.7875,-17.0612
-497,-461,-10.7078,17.8705,0.00225247,0.00276693,0.00298763,0.00550839,-0.000488982,0.828341,0.00384563,0.011848,727,1485,-10.7077,-17.8705
-490,-461,-10.7509,18.5682,0.0015595,0.00193578,0.00208049,0.00383662,-0.000341339,0.83049,0.00267878,0.013311,734,1485,-10.7509,-18.5683
-483,-461,-10.798,19.2621,0.00121369,0.00148076,0.00152953,0.00288257,-0.000188121,0.82894,0.00198739,0.0128501,741,1485,-10.798,-19.2621
-476,-461,-10.8491,19.9402,0.00115219,0.00135457,0.00129773,0.00255505,-4.82927e-05,0.824307,0.00171969,0.0110367,748,1485,-10.849,-19.9402
-469,-461,-10.8509,20.6208,0.00133308,0.00155138,0.00132125,0.00276798,0.00011648,0.826611,0.00180774,0.0125258,755,1485,-10.8509,-20.6208
-462,-461,-10.8712,21.3125,0.00176777,0.00202542,0.00160989,0.00351163,0.000281556,0.825323,0.00225311,0.019489,762,1485,-10.8711,-21.3125
-455,-461,-10.9373,21.9803,0.00246496,0.0027874,0.00218029,0.00481242,0.000439938,0.822304,0.00307215,0.0243185,769,1485,-10.9373,-21.9804
-448,-461,-10.9315,22.7035,0.00352912,0.00406138,0.00319573,0.00700204,0.000588458,0.826941,0.00448476,0.0225816,776,1485,-10.9315,-22.7035
-441,-461,-10.831,23.4937,0.00485831,0.00566624,0.00448866,0.00976907,0.000755477,0.830276,0.00627607,0.0435437,783,1485,-10.831,-23.4936
-434,-461,-10.6015,24.5244,0,0,0,0,0,0,0,-1,790,1485,-10.6015,-24.5244
-427,-461,-8.26154,21.546,0,0,0,0,0,0,0,-1,797,1485,-8.26153,-21.5461
-420,-461,-5.70355,16.6116,0,0,0,0,0,0,0,-1,804,1485,-5.70353,-16.6115
-413,-461,-5.98798,16.0605,0,0,0,0,0,0,0,-1,811,1485,-5.98796,-16.0605
-406,-461,-5.52667,14.839,0,0,0,0,0,0,0,-1,818,1485,-5.52666,-14.839
-399,-461,-1.93439,9.82849,0,0,0,0,0,0,0,-1,825,1485,-1.9344,-9.82846
-392,-461,-0.357544,5.55225,0,0,0,0,0,0,0,-1,832,1485,-0.357536,-5.55228
-385,-461,1.71509,3.35254,0,0,0,0,0,0,0,-1,839,1485,1.71511,-3.35255
-378,-461,1.95996,3.01111,0,0,0,0,0,0,0,-1,846,1485,1.95993,-3.01111
-371,-461,0.702881,2.33459,0,0,0,0,0,0,0,-1,853,1485,0.702859,-2.33459
-364,-461,-1.93097,2.56458,0,0,0,0,0,0,0,-1,860,1485,-1.93095,-2.56456
-357,-461,-2.41516,3.49487,0,0,0,0,0,0,0,-1,867,1485,-2.41517,-3.49487
-350,-461,0,0,0,0,0,0,0,0,0,-1,874,1485,0,0
-343,-461,0,0,0,0,0,0,0,0,0,-1,881,1485,0,0
-336,-461,0,0,0,0,0,0,0,0,0,-1,888,1485,0,0
-329,-461,0,0,0,0,0,0,0,0,0,-1,895,1485,0,0
-322,-461,0,0,0,0,0,0,0,0,0,-1,902,1485,0,0
-315,-461,0,0,0,0,0,0,0,0,0,-1,909,1485,0,0
-308,-461,0,0,0,0,0,0,0,0,0,-1,916,1485,0,0
-301,-461,0,0,0,0,0,0,0,0,0,-1,923,1485,0,0
-294,-461,0,0,0,0,0,0,0,0,0,-1,930,1485,0,0
-287,-461,0,0,0,0,0,0,0,0,0,-1,937,1485,0,0
-280,-461,0,0,0,0,0,0,0,0,0,-1,944,1485,0,0
-273,-461,0,0,0,0,0,0,0,0,0,-1,951,1485,0,0
-266,-461,0,0,0,0,0,0,0,0,0,-1,958,1485,0,0
-259,-461,0,0,0,0,0,0,0,0,0,-1,965,1485,0,0
-252,-461,0,0,0,0,0,0,0,0,0,-1,972,1485,0,0
-245,-461,0,0,0,0,0,0,0,0,0,-1,979,1485,0,0
-238,-461,0,0,0,0,0,0,0,0,0,-1,986,1485,0,0
-231,-461,0,0,0,0,0,0,0,0,0,-1,993,1485,0,0
-224,-461,0,0,0,0,0,0,0,0,0,-1,1000,1485,0,0
-217,-461,0,0,0,0,0,0,0,0,0,-1,1007,1485,0,0
-210,-461,0,0,0,0,0,0,0,0,0,-1,1014,1485,0,0
-203,-461,0,0,0,0,0,0,0,0,0,-1,1021,1485,0,0
-196,-461,0,0,0,0,0,0,0,0,0,-1,1028,1485,0,0
-189,-461,0,0,0,0,0,0,0,0,0,-1,1035,1485,0,0
-182,-461,0,0,0,0,0,0,0,0,0,-1,1042,1485,0,0
-175,-461,0,0,0,0,0,0,0,0,0,-1,1049,1485,0,0
-168,-461,0,0,0,0,0,0,0,0,0,-1,1056,1485,0,0
-161,-461,0,0,0,0,0,0,0,0,0,-1,1063,1485,0,0
-154,-461,0,0,0,0,0,0,0,0,0,-1,1070,1485,0,0
-147,-461,0,0,0,0,0,0,0,0,0,-1,1077,1485,0,0
-140,-461,0,0,0,0,0,0,0,0,0,-1,1084,1485,0,0
-133,-461,0,0,0,0,0,0,0,0,0,-1,1091,1485,0,0
-126,-461,0,0,0,0,0,0,0,0,0,-1,1098,1485,0,0
-119,-461,0,0,0,0,0,0,0,0,0,-1,1105,1485,0,0
-112,-461,0,0,0,0,0,0,0,0,0,-1,1112,1485,0,0
-105,-461,0,0,0,0,0,0,0,0,0,-1,1119,1485,0,0
-98,-461,0,0,0,0,0,0,0,0,0,-1,1126,1485,0,0
-91,-461,0,0,0,0,0,0,0,0,0,-1,1133,1485,0,0
-84,-461,0,0,0,0,0,0,0,0,0,-1,1140,1485,0,0
-77,-461,0,0,0,0,0,0,0,0,0,-1,1147,1485,0,0
-70,-461,0,0,0,0,0,0,0,0,0,-1,1154,1485,0,0
-63,-461,0,0,0,0,0,0,0,0,0,-1,1161,1485,0,0
-56,-461,0,0,0,0,0,0,0,0,0,-1,1168,1485,0,0
-49,-461,0,0,0,0,0,0,0,0,0,-1,1175,1485,0,0
-42,-461,0,0,0,0,0,0,0,0,0,-1,1182,1485,0,0
-35,-461,0,0,0,0,0,0,0,0,0,-1,1189,1485,0,0
-28,-461,0,0,0,0,0,0,0,0,0,-1,1196,1485,0,0
-21,-461,0,0,0,0,0,0,0,0,0,-1,1203,1485,0,0
-14,-461,0,0,0,0,0,0,0,0,0,-1,1210,1485,0,0
-7,-461,0,0,0,0,0,0,0,0,0,-1,1217,1485,0,0
0,-461,0,0,0,0,0,0,0,0,0,-1,1224,1485,0,0
7,-461,0,0,0,0,0,0,0,0,0,-1,1231,1485,0,0
14,-461,0,0,0,0,0,0,0,0,0,-1,1238,1485,0,0
21,-461,0,0,0,0,0,0,0,0,0,-1,1245,1485,0,0
28,-461,0,0,0,0,0,0,0,0,0,-1,1252,1485,0,0
35,-461,0,0,0,0,0,0,0,0,0,-1,1259,1485,0,0
42,-461,0,0,0,0,0,0,0,0,0,-1,1266,1485,0,0
49,-461,0,0,0,0,0,0,0,0,0,-1,1273,1485,0,0
56,-461,0,0,0,0,0,0,0,0,0,-1,1280,1485,0,0
63,-461,0,0,0,0,0,0,0,0,0,-1,1287,1485,0,0
70,-461,0,0,0,0,0,0,0,0,0,-1,1294,1485,0,0
77,-461,0,0,0,0,0,0,0,0,0,-1,1301,1485,0,0
84,-461,0,0,0,0,0,0,0,0,0,-1,1308,1485,0,0
91,-461,0,0,0,0,0,0,0,0,0,-1,1315,1485,0,0
98,-461,0,0,0,0,0,0,0,0,0,-1,1322,1485,0,0
105,-461,0,0,0,0,0,0,0,0,0,-1,1329,1485,0,0
112,-461,0,0,0,0,0,0,0,0,0,-1,1336,1485,0,0
119,-461,0,0,0,0,0,0,0,0,0,-1,1343,1485,0,0
126,-461,0,0,0,0,0,0,0,0,0,-1,1350,1485,0,0
133,-461,0,0,0,0,0,0,0,0,0,-1,1357,1485,0,0
140,-461,0,0,0,0,0,0,0,0,0,-1,1364,1485,0,0
147,-461,0,0,0,0,0,0,0,0,0,-1,1371,1485,0,0
154,-461,0,0,0,0,0,0,0,0,0,-1,1378,1485,0,0
161,-461,0,0,0,0,0,0,0,0,0,-1,1385,1485,0,0
168,-461,0,0,0,0,0,0,0,0,0,-1,1392,1485,0,0
175,-461,0,0,0,0,0,0,0,0,0,-1,1399,1485,0,0
182,-461,0,0,0,0,0,0,0,0,0,-1,1406,1485,0,0
189,-461,0,0,0,0,0,0,0,0,0,-1,1413,1485,0,0
196,-461,0,0,0,0,0,0,0,0,0,-1,1420,1485,0,0
203,-461,0,0,0,0,0,0,0,0,0,-1,1427,1485,0,0
210,-461,0,0,0,0,0,0,0,0,0,-1,1434,1485,0,0
217,-461,0,0,0,0,0,0,0,0,0,-1,1441,1485,0,0
224,-461,0,0,0,0,0,0,0,0,0,-1,1448,1485,0,0
231,-461,0,0,0,0,0,0,0,0,0,-1,1455,1485,0,0
238,-461,0,0,0,0,0,0,0,0,0,-1,1462,1485,0,0
245,-461,0,0,0,0,0,0,0,0,0,-1,1469,1485,0,0
252,-461,0,0,0,0,0,0,0,0,0,-1,1476,1485,0,0
259,-461,0,0,0,0,0,0,0,0,0,-1,1483,1485,0,0
266,-461,0,0,0,0,0,0,0,0,0,-1,1490,1485,0,0
273,-461,0,0,0,0,0,0,0,0,0,-1,1497,1485,0,0
280,-461,0,0,0,0,0,0,0,0,0,-1,1504,1485,0,0
287,-461,0,0,0,0,0,0,0,0,0,-1,1511,1485,0,0
294,-461,0,0,0,0,0,0,0,0,0,-1,1518,1485,0,0
301,-461,0,0,0,0,0,0,0,0,0,-1,1525,1485,0,0
308,-461,0,0,0,0,0,0,0,0,0,-1,1532,1485,0,0
315,-461,0,0,0,0,0,0,0,0,0,-1,1539,1485,0,0
322,-461,0,0,0,0,0,0,0,0,0,-1,1546,1485,0,0
329,-461,0,0,0,0,0,0,0,0,0,-1,1553,1485,0,0
336,-461,0,0,0,0,0,0,0,0,0,-1,1560,1485,0,0
343,-461,0,0,0,0,0,0,0,0,0,-1,1567,1485,0,0
350,-461,0,0,0,0,0,0,0,0,0,-1,1574,1485,0,0
357,-461,0,0,0,0,0,0,0,0,0,-1,1581,1485,0,0
364,-461,0,0,0,0,0,0,0,0,0,-1,1588,1485,0,0
371,-461,0,0,0,0,0,0,0,0,0,-1,1595,1485,0,0
378,-461,0,0,0,0,0,0,0,0,0,-1,1602,1485,0,0
385,-461,0,0,0,0,0,0,0,0,0,-1,1609,1485,0,0
392,-461,0,0,0,0,0,0,0,0,0,-1,1616,1485,0,0
399,-461,0,0,0,0,0,0,0,0,0,-1,1623,1485,0,0
406,-461,0,0,0,0,0,0,0,0,0,-1,1630,1485,0,0
413,-461,0,0,0,0,0,0,0,0,0,-1,1637,1485,0,0
420,-461,0,0,0,0,0,0,0,0,0,-1,1644,1485,0,0
427,-461,0,0,0,0,0,0,0,0,0,-1,1651,1485,0,0
434,-461,0,0,0,0,0,0,0,0,0,-1,1658,1485,0,0
441,-461,0,0,0,0,0,0,0,0,0,-1,1665,1485,0,0
448,-461,0,0,0,0,0,0,0,0,0,-1,1672,1485,0,0
455,-461,0,0,0,0,0,0,0,0,0,-1,1679,1485,0,0
462,-461,0,0,0,0,0,0,0,0,0,-1,1686,1485,0,0
469,-461,0,0,0,0,0,0,0,0,0,-1,1693,1485,0,0
476,-461,14.1906,0.690552,0,0,0,0,0,0,0,-1,1700,1485,14.1906,-0.690525
483,-461,10.6361,3.09106,0,0,0,0,0,0,0,-1,1707,1485,10.6361,-3.091
490,-461,17.9972,0.665894,0,0,0,0,0,0,0,-1,1714,1485,17.9972,-0.665876
497,-461,16.6829,1.87732,0,0,0,0,0,0,0,-1,1721,1485,16.6828,-1.87736
504,-461,15.3884,3.09216,0,0,0,0,0,0,0,-1,1728,1485,15.3885,-3.09212
511,-461,15.4292,14.3512,0,0,0,0,0,0,0,-1,1735,1485,15.4292,-14.3512
518,-461,14.8081,10.0085,0,0,0,0,0,0,0,-1,1742,1485,14.8081,-10.0086
525,-461,14.0022,10.8033,0,0,0,0,0,0,0,-1,1749,1485,14.0022,-10.8033
532,-461,17.1704,14.077,0,0,0,0,0,0,0,-1,1756,1485,17.1704,-14.077
539,-461,17.0229,14.7386,0,0,0,0,0,0,0,-1,1763,1485,17.0229,-14.7387
546,-461,16.2106,14.1372,0,0,0,0,0,0,0,-1,1770,1485,16.2106,-14.1372
553,-461,25.9354,24.2889,0,0,0,0,0,0,0,-1,1777,1485,25.9354,-24.2889
560,-461,28.5292,25.5723,0,0,0,0,0,0,0,-1,1784,1485,28.5291,-25.5723
567,-461,28.527,24.8556,0.00714909,0.00222593,-0.00206886,0.00790303,0.00147199,-0.349465,0.00485301,0.035088,1791,1485,28.527,-24.8556
574,-461,28.5319,24.2955,0.00559861,0.00183886,-0.00185257,0.00635804,0.00107943,-0.389041,0.00392863,0.0319226,1798,1485,28.5319,-24.2955
581,-461,28.5211,23.624,0.00440812,0.00157887,-0.00162973,0.00515154,0.00083544,-0.427969,0.00319253,0.0189013,1805,1485,28.5212,-23.6241
588,-461,28.488,22.9952,0.00349516,0.00126473,-0.00138615,0.00415902,0.000600872,-0.446646,0.00259567,0.0115318,1812,1485,28.488,-22.9953
595,-461,28.426,22.365,0.00286697,0.000957235,-0.00114768,0.00340506,0.000419135,-0.438425,0.00214403,0.00966433,1819,1485,28.426,-22.365
602,-461,28.4039,21.6886,0.00248604,0.000587937,-0.000920899,0.00285939,0.000214585,-0.385172,0.00183891,0.0103408,1826,1485,28.4039,-21.6886
609,-461,28.3738,21.0244,0.00233799,0.000288239,-0.00069624,0.00255211,7.41144e-05,-0.298363,0.00167725,0.0117188,1833,1485,28.3737,-21.0244
616,-461,28.3457,20.3855,0.00235807,3.5857e-05,-0.000522727,0.00247031,-7.63831e-05,-0.211509,0.00167292,0.0137429,1840,1485,28.3456,-20.3856
623,-461,28.3472,19.7755,0.00265348,-0.000299389,-0.000354501,0.00269545,-0.000341352,-0.117823,0.00192088,0.0166469,1847,1485,28.3471,-19.7755
630,-461,28.3245,19.1552,0.00313008,-0.000648266,-0.000187689,0.00313938,-0.000657567,-0.0495124,0.00234307,0.0171317,1854,1485,28.3244,-19.1551
637,-461,28.274,18.4794,0.00379427,-0.000896988,-0.000141975,0.00379857,-0.000901281,-0.0302269,0.0028802,0.0157612,1861,1485,28.2741,-18.4794
644,-461,28.3402,17.8802,0.00463589,-0.000938989,-0.00028076,0.00464999,-0.000953092,-0.0501924,0.0034617,0.0299392,1868,1485,28.3403,-17.8802
651,-461,28.4434,17.2463,0,0,0,0,0,0,0,-1,1875,1485,28.4434,-17.2463
658,-461,16.8987,10.1084,0,0,0,0,0,0,0,-1,1882,1485,16.8986,-10.1084
665,-461,17.2638,9.81384,0,0,0,0,0,0,0,-1,1889,1485,17.2638,-9.81385
672,-461,14.4877,6.89429,0,0,0,0,0,0,0,-1,1896,1485,14.4876,-6.89431
679,-461,10.0535,2.16321,0,0,0,0,0,0,0,-1,1903,1485,10.0535,-2.16317
686,-461,10.8195,1.84192,0,0,0,0,0,0,0,-1,1910,1485,10.8194,-1.84195
693,-461,0,0,0,0,0,0,0,0,0,-1,1917,1485,0,0
700,-461,0,0,0,0,0,0,0,0,0,-1,1924,1485,0,0
707,-461,0,0,0,0,0,0,0,0,0,-1,1931,1485,0,0
714,-461,0,0,0,0,0,0,0,0,0,-1,1938,1485,0,0
721,-461,0,0,0,0,0,0,0,0,0,-1,1945,1485,0,0
728,-461,0,0,0,0,0,0,0,0,0,-1,1952,1485,0,0
735,-461,0,0,0,0,0,0,0,0,0,-1,1959,1485,0,0
742,-461,0,0,0,0,0,0,0,0,0,-1,1966,1485,0,0
749,-461,0,0,0,0,0,0,0,0,0,-1,1973,1485,0,0
756,-461,0,0,0,0,0,0,0,0,0,-1,1980,1485,0,0
763,-461,0,0,0,0,0,0,0,0,0,-1,1987,1485,0,0
770,-461,0,0,0,0,0,0,0,0,0,-1,1994,1485,0,0
777,-461,0,0,0,0,0,0,0,0,0,-1,2001,1485,0,0
784,-461,0,0,0,0,0,0,0,0,0,-1,2008,1485,0,0
791,-461,0,0,0,0,0,0,0,0,0,-1,2015,1485,0,0
798,-461,0,0,0,0,0,0,0,0,0,-1,2022,1485,0,0
805,-461,0,0,0,0,0,0,0,0,0,-1,2029,1485,0,0
812,-461,0,0,0,0,0,0,0,0,0,-1,2036,1485,0,0
-700,-468,0,0,0,0,0,0,0,0,0,-1,524,1492,0,0
-693,-468,0,0,0,0,0,0,0,0,0,-1,531,1492,0,0
-686,-468,0,0,0,0,0,0,0,0,0,-1,538,1492,0,0
-679,-468,0,0,0,0,0,0,0,0,0,-1,545,1492,0,0
-672,-468,0,0,0,0,0,0,0,0,0,-1,552,1492,0,0
-665,-468,0,0,0,0,0,0,0,0,0,-1,559,1492,0,0
-658,-468,0,0,0,0,0,0,0,0,0,-1,566,1492,0,0
-651,-468,0,0,0,0,0,0,0,0,0,-1,573,1492,0,0
-644,-468,0,0,0,0,0,0,0,0,0,-1,580,1492,0,0
-637,-468,0,0,0,0,0,0,0,0,0,-1,587,1492,0,0
-630,-468,0,0,0,0,0,0,0,0,0,-1,594,1492,0,0
-623,-468,0,0,0,0,0,0,0,0,0,-1,601,1492,0,0
-616,-468,0,0,0,0,0,0,0,0,0,-1,608,1492,0,0
-609,-468,0,0,0,0,0,0,0,0,0,-1,615,1492,0,0
-602,-468,0,0,0,0,0,0,0,0,0,-1,622,1492,0,0
-595,-468,0,0,0,0,0,0,0,0,0,-1,629,1492,0,0
-588,-468,0,0,0,0,0,0,0,0,0,-1,636,1492,0,0
-581,-468,0,0,0,0,0,0,0,0,0,-1,643,1492,0,0
-574,-468,0,0,0,0,0,0,0,0,0,-1,650,1492,0,0
-567,-468,-11.2603,1.8042,0,0,0,0,0,0,0,-1,657,1492,-11.2603,-1.80424
-560,-468,-8.77441,2.23694,0,0,0,0,0,0,0,-1,664,1492,-8.77443,-2.23692
-553,-468,-5.94061,9.26318,0,0,0,0,0,0,0,-1,671,1492,-5.94062,-9.26322
-546,-468,-10.47,5.43237,0,0,0,0,0,0,0,-1,678,1492,-10.47,-5.4324
-539,-468,-10.2468,5.45203,0,0,0,0,0,0,0,-1,685,1492,-10.2468,-5.45197
-532,-468,-8.39795,6.02783,0,0,0,0,0,0,0,-1,692,1492,-8.39793,-6.02789
-525,-468,-6.59332,7.15405,0,0,0,0,0,0,0,-1,699,1492,-6.59331,-7.15411
-518,-468,-6.33588,8.65393,0,0,0,0,0,0,0,-1,706,1492,-6.33588,-8.65397
-511,-468,-8.05835,13.8282,0,0,0,0,0,0,0,-1,713,1492,-8.05835,-13.8283
-504,-468,-10.0951,16.9689,0,0,0,0,0,0,0,-1,720,1492,-10.0951,-16.9689
-497,-468,-10.0611,17.8181,0.000883112,0.0038163,0.00384039,0.0064606,-0.00176119,0.967795,0.00499865,0.0265269,727,1492,-10.0611,-17.8181
-490,-468,-10.058,18.6038,0.000301625,0.00258173,0.00267354,0.00434814,-0.00146479,0.986934,0.00349101,0.00824094,734,1492,-10.058,-18.6038
-483,-468,-10.1084,19.3008,0.000145841,0.00182379,0.00192018,0.00308028,-0.00111064,0.991363,0.00250712,0.00905346,741,1492,-10.1084,-19.3008
-476,-468,-10.1417,19.9891,0.000300406,0.00143393,0.00150313,0.00247359,-0.000739259,0.965684,0.00194294,0.00977923,748,1492,-10.1417,-19.9891
-469,-468,-10.1544,20.6654,0.000712113,0.00140529,0.00136182,0.00246393,-0.000346529,0.910004,0.00176947,0.0136597,755,1492,-10.1544,-20.6654
-462,-468,-10.1505,21.3379,0.00135193,0.00167747,0.00147339,0.00299705,3.23459e-05,0.840413,0.00198734,0.0244594,762,1492,-10.1505,-21.3379
-455,-468,-10.1984,21.9712,0.00220954,0.00223951,0.00184711,0.0040717,0.000377354,0.789454,0.00259783,0.0266199,769,1492,-10.1984,-21.9712
-448,-468,-10.2319,22.7017,0.00334718,0.00328933,0.00261107,0.00592949,0.000707023,0.779859,0.00373966,0.0157938,776,1492,-10.232,-22.7017
-441,-468,-10.26,23.3877,0.00469232,0.00463062,0.0036404,0.008302,0.00102094,0.781162,0.00522769,0.0164419,783,1492,-10.26,-23.3878
-434,-468,-10.2426,24.1536,0.00645241,0.00657045,0.00520761,0.0117194,0.00130349,0.791065,0.0074167,0.0338502,790,1492,-10.2425,-24.1535
-427,-468,-10.237,24.9471,0,0,0,0,0,0,0,-1,797,1492,-10.237,-24.9471
-420,-468,-7.57581,22.0538,0,0,0,0,0,0,0,-1,804,1492,-7.57582,-22.0538
-413,-468,-5.30328,17.3519,0,0,0,0,0,0,0,-1,811,1492,-5.30329,-17.352
-406,-468,-2.2356,9.396,0,0,0,0,0,0,0,-1,818,1492,-2.2356,-9.396
-399,-468,-0.940369,8.1936,0,0,0,0,0,0,0,-1,825,1492,-0.940365,-8.19357
-392,-468,-0.35144,8.14673,0,0,0,0,0,0,0,-1,832,1492,-0.351449,-8.14674
-385,-468,0.465759,5.35864,0,0,0,0,0,0,0,-1,839,1492,0.465732,-5.35864
-378,-468,1.99835,3.25391,0,0,0,0,0,0,0,-1,846,1492,1.99837,-3.2539
-371,-468,-0.31842,3.1532,0,0,0,0,0,0,0,-1,853,1492,-0.318441,-3.15324
-364,-468,-0.966736,2.14563,0,0,0,0,0,0,0,-1,860,1492,-0.966735,-2.14557
-357,-468,-3.06787,3.22742,0,0,0,0,0,0,0,-1,867,1492,-3.06784,-3.2274
-350,-468,-3.18658,4.12659,0,0,0,0,0,0,0,-1,874,1492,-3.18659,-4.12658
-343,-468,0,0,0,0,0,0,0,0,0,-1,881,1492,0,0
-336,-468,0,0,0,0,0,0,0,0,0,-1,888,1492,0,0
-329,-468,0,0,0,0,0,0,0,0,0,-1,895,1492,0,0
-322,-468,0,0,0,0,0,0,0,0,0,-1,902,1492,0,0
-315,-468,0,0,0,0,0,0,0,0,0,-1,909,1492,0,0
-308,-468,0,0,0,0,0,0,0,0,0,-1,916,1492,0,0
-301,-468,0,0,0,0,0,0,0,0,0,-1,923,1492,0,0
-294,-468,0,0,0,0,0,0,0,0,0,-1,930,1492,0,0
-287,-468,0,0,0,0,0,0,0,0,0,-1,937,1492,0,0
-280,-468,0,0,0,0,0,0,0,0,0,-1,944,1492,0,0
-273,-468,0,0,0,0,0,0,0,0,0,-1,951,1492,0,0
-266,-468,0,0,0,0,0,0,0,0,0,-1,958,1492,0,0
-259,-468,0,0,0,0,0,0,0,0,0,-1,965,1492,0,0
-252,-468,0,0,0,0,0,0,0,0,0,-1,972,1492,0,0
-245,-468,0,0,0,0,0,0,0,0,0,-1,979,1492,0,0
-238,-468,0,0,0,0,0,0,0,0,0,-1,986,1492,0,0
-231,-468,0,0,0,0,0,0,0,0,0,-1,993,1492,0,0
-224,-468,0,0,0,0,0,0,0,0,0,-1,1000,1492,0,0
-217,-468,0,0,0,0,0,0,0,0,0,-1,1007,1492,0,0
-210,-468,0,0,0,0,0,0,0,0,0,-1,1014,1492,0,0
-203,-468,0,0,0,0,0,0,0,0,0,-1,1021,1492,0,0
-196,-468,0,0,0,0,0,0,0,0,0,-1,1028,1492,0,0
-189,-468,0,0,0,0,0,0,0,0,0,-1,1035,1492,0,0
-182,-468,0,0,0,0,0,0,0,0,0,-1,1042,1492,0,0
-175,-468,0,0,0,0,0,0,0,0,0,-1,1049,1492,0,0
-168,-468,0,0,0,0,0,0,0,0,0,-1,1056,1492,0,0
-161,-468,0,0,0,0,0,0,0,0,0,-1,1063,1492,0,0
-154,-468,0,0,0,0,0,0,0,0,0,-1,1070,1492,0,0
-147,-468,0,0,0,0,0,0,0,0,0,-1,1077,1492,0,0
-140,-468,0,0,0,0,0,0,0,0,0,-1,1084,1492,0,0
-133,-468,0,0,0,0,0,0,0,0,0,-1,1091,1492,0,0
-126,-468,0,0,0,0,0,0,0,0,0,-1,1098,1492,0,0
-119,-468,0,0,0,0,0,0,0,0,0,-1,1105,1492,0,0
-112,-468,0,0,0,0,0,0,0,0,0,-1,1112,1492,0,0
-105,-468,0,0,0,0,0,0,0,0,0,-1,1119,1492,0,0
-98,-468,0,0,0,0,0,0,0,0,0,-1,1126,1492,0,0
-91,-468,0,0,0,0,0,0,0,0,0,-1,1133,1492,0,0
-84,-468,0,0,0,0,0,0,0,0,0,-1,1140,1492,0,0
-77,-468,0,0,0,0,0,0,0,0,0,-1,1147,1492,0,0
-70,-468,0,0,0,0,0,0,0,0,0,-1,1154,1492,0,0
-63,-468,0,0,0,0,0,0,0,0,0,-1,1161,1492,0,0
-56,-468,0,0,0,0,0,0,0,0,0,-1,1168,1492,0,0
-49,-468,0,0,0,0,0,0,0,0,0,-1,1175,1492,0,0
-42,-468,0,0,0,0,0,0,0,0,0,-1,1182,1492,0,0
-35,-468,0,0,0,0,0,0,0,0,0,-1,1189,1492,0,0
-28,-468,0,0,0,0,0,0,0,0,0,-1,1196,1492,0,0
-21,-468,0,0,0,0,0,0,0,0,0,-1,1203,1492,0,0
-14,-468,0,0,0,0,0,0,0,0,0,-1,1210,1492,0,0
-7,-468,0,0,0,0,0,0,0,0,0,-1,1217,1492,0,0
0,-468,0,0,0,0,0,0,0,0,0,-1,1224,1492,0,0
7,-468,0,0,0,0,0,0,0,0,0,-1,1231,1492,0,0
14,-468,0,0,0,0,0,0,0,0,0,-1,1238,1492,0,0
21,-468,0,0,0,0,0,0,0,0,0,-1,1245,1492,0,0
28,-468,0,0,0,0,0,0,0,0,0,-1,1252,1492,0,0
35,-468,0,0,0,0,0,0,0,0,0,-1,1259,1492,0,0
42,-468,0,0,0,0,0,0,0,0,0,-1,1266,1492,0,0
49,-468,0,0,0,0,0,0,0,0,0,-1,1273,1492,0,0
56,-468,0,0,0,0,0,0,0,0,0,-1,1280,1492,0,0
63,-468,0,0,0,0,0,0,0,0,0,-1,1287,1492,0,0
70,-468,0,0,0,0,0,0,0,0,0,-1,1294,1492,0,0
77,-468,0,0,0,0,0,0,0,0,0,-1,1301,1492,0,0
84,-468,0,0,0,0,0,0,0,0,0,-1,1308,1492,0,0
91,-468,0,0,0,0,0,0,0,0,0,-1,1315,1492,0,0
98,-468,0,0,0,0,0,0,0,0,0,-1,1322,1492,0,0
105,-468,0,0,0,0,0,0,0,0,0,-1,1329,1492,0,0
112,-468,0,0,0,0,0,0,0,0,0,-1,1336,1492,0,0
119,-468,0,0,0,0,0,0,0,0,0,-1,1343,1492,0,0
126,-468,0,0,0,0,0,0,0,0,0,-1,1350,1492,0,0
133,-468,0,0,0,0,0,0,0,0,0,-1,1357,1492,0,0
140,-468,0,0,0,0,0,0,0,0,0,-1,1364,1492,0,0
147,-468,0,0,0,0,0,0,0,0,0,-1,1371,1492,0,0
154,-468,0,0,0,0,0,0,0,0,0,-1,1378,1492,0,0
161,-468,0,0,0,0,0,0,0,0,0,-1,1385,1492,0,0
168,-468,0,0,0,0,0,0,0,0,0,-1,1392,1492,0,0
175,-468,0,0,0,0,0,0,0,0,0,-1,1399,1492,0,0
182,-468,0,0,0,0,0,0,0,0,0,-1,1406,1492,0,0
189,-468,0,0,0,0,0,0,0,0,0,-1,1413,1492,0,0
196,-468,0,0,0,0,0,0,0,0,0,-1,1420,1492,0,0
203,-468,0,0,0,0,0,0,0,0,0,-1,1427,1492,0,0
210,-468,0,0,0,0,0,0,0,0,0,-1,1434,1492,0,0
217,-468,0,0,0,0,0,0,0,0,0,-1,1441,1492,0,0
224,-468,0,0,0,0,0,0,0,0,0,-1,1448,1492,0,0
231,-468,0,0,0,0,0,0,0,0,0,-1,1455,1492,0,0
238,-468,0,0,0,0,0,0,0,0,0,-1,1462,1492,0,0
245,-468,0,0,0,0,0,0,0,0,0,-1,1469,1492,0,0
252,-468,0,0,0,0,0,0,0,0,0,-1,1476,1492,0,0
259,-468,0,0,0,0,0,0,0,0,0,-1,1483,1492,0,0
266,-468,0,0,0,0,0,0,0,0,0,-1,1490,1492,0,0
273,-468,0,0,0,0,0,0,0,0,0,-1,1497,1492,0,0
280,-468,0,0,0,0,0,0,0,0,0,-1,1504,1492,0,0
287,-468,0,0,0,0,0,0,0,0,0,-1,1511,1492,0,0
294,-468,0,0,0,0,0,0,0,0,0,-1,1518,1492,0,0
301,-468,0,0,0,0,0,0,0,0,0,-1,1525,1492,0,0
308,-468,0,0,0,0,0,0,0,0,0,-1,1532,1492,0,0
315,-468,0,0,0,0,0,0,0,0,0,-1,1539,1492,0,0
322,-468,0,0,0,0,0,0,0,0,0,-1,1546,1492,0,0
329,-468,0,0,0,0,0,0,0,0,0,-1,1553,1492,0,0
336,-468,0,0,0,0,0,0,0,0,0,-1,1560,1492,0,0
343,-468,0,0,0,0,0,0,0,0,0,-1,1567,1492,0,0
350,-468,0,0,0,0,0,0,0,0,0,-1,1574,1492,0,0
357,-468,0,0,0,0,0,0,0,0,0,-1,1581,1492,0,0
364,-468,0,0,0,0,0,0,0,0,0,-1,1588,1492,0,0
371,-468,0,0,0,0,0,0,0,0,0,-1,1595,1492,0,0
378,-468,0,0,0,0,0,0,0,0,0,-1,1602,1492,0,0
385,-468,0,0,0,0,0,0,0,0,0,-1,1609,1492,0,0
392,-468,0,0,0,0,0,0,0,0,0,-1,1616,1492,0,0
399,-468,0,0,0,0,0,0,0,0,0,-1,1623,1492,0,0
406,-468,0,0,0,0,0,0,0,0,0,-1,1630,1492,0,0
413,-468,0,0,0,0,0,0,0,0,0,-1,1637,1492,0,0
420,-468,0,0,0,0,0,0,0,0,0,-1,1644,1492,0,0
427,-468,0,0,0,0,0,0,0,0,0,-1,1651,1492,0,0
434,-468,0,0,0,0,0,0,0,0,0,-1,1658,1492,0,0
441,-468,0,0,0,0,0,0,0,0,0,-1,1665,1492,0,0
448,-468,0,0,0,0,0,0,0,0,0,-1,1672,1492,0,0
455,-468,0,0,0,0,0,0,0,0,0,-1,1679,1492,0,0
462,-468,0,0,0,0,0,0,0,0,0,-1,1686,1492,0,0
469,-468,15.6879,1.2677,0,0,0,0,0,0,0,-1,1693,1492,15.6879,-1.26772
476,-468,14.9318,1.61865,0,0,0,0,0,0,0,-1,1700,1492,14.9318,-1.61869
483,-468,11.265,4.64795,0,0,0,0,0,0,0,-1,1707,1492,11.265,-4.64798
490,-468,12.1316,3.51624,0,0,0,0,0,0,0,-1,1714,1492,12.1316,-3.51628
497,-468,16.5355,3.14587,0,0,0,0,0,0,0,-1,1721,1492,16.5356,-3.14583
504,-468,15.0642,4.10437,0,0,0,0,0,0,0,-1,1728,1492,15.0643,-4.10431
511,-468,15.6877,9.4801,0,0,0,0,0,0,0,-1,1735,1492,15.6878,-9.48007
518,-468,13.759,11.0887,0,0,0,0,0,0,0,-1,1742,1492,13.759,-11.0887
525,-468,16.6531,14.2238,0,0,0,0,0,0,0,-1,1749,1492,16.653,-14.2237
532,-468,16.9696,15.9641,0,0,0,0,0,0,0,-1,1756,1492,16.9696,-15.9641
539,-468,21.5308,20.7551,0,0,0,0,0,0,0,-1,1763,1492,21.5308,-20.7551
546,-468,25.5796,25.0283,0,0,0,0,0,0,0,-1,1770,1492,25.5796,-25.0284
553,-468,27.6841,26.2632,0,0,0,0,0,0,0,-1,1777,1492,27.6841,-26.2632
560,-468,27.8679,25.6044,0.00838373,0.0034376,-0.00290942,0.00972914,0.00209219,-0.433145,0.00591338,0.0413482,1784,1492,27.868,-25.6044
567,-468,27.8549,24.9781,0.00640927,0.00238365,-0.00209775,0.00730368,0.00148924,-0.40303,0.00445644,0.0221976,1791,1492,27.8548,-24.9781
574,-468,27.8916,24.298,0.00502841,0.00183609,-0.00176882,0.00581478,0.00104972,-0.418333,0.00357831,0.0168909,1798,1492,27.8916,-24.298
581,-468,27.8955,23.6727,0.00395222,0.00144575,-0.00148382,0.00464124,0.000756736,-0.434722,0.0028753,0.0172274,1805,1492,27.8955,-23.6727
588,-468,27.8295,23.0404,0.00318677,0.00108611,-0.00124685,0.00376672,0.000506157,-0.435369,0.00236059,0.0137939,1812,1492,27.8294,-23.0404
595,-468,27.7848,22.3882,0.00274486,0.000731068,-0.00103107,0.00317913,0.000296801,-0.39863,0.00202774,0.011151,1819,1492,27.7849,-22.3882
602,-468,27.7681,21.726,0.0024949,0.000373302,-0.000843622,0.00278946,7.87445e-05,-0.335925,0.00183395,0.00964679,1826,1492,27.768,-21.726
609,-468,27.7297,21.0592,0.00246687,9.15861e-05,-0.000654983,0.00263551,-7.70518e-05,-0.251996,0.00178325,0.010165,1833,1492,27.7297,-21.0592
616,-468,27.7014,20.4089,0.00262665,-0.000180781,-0.000486304,0.0027085,-0.000262632,-0.16675,0.00189927,0.0104004,1840,1492,27.7014,-20.409
623,-468,27.6876,19.8003,0.00304905,-0.000574344,-0.000282946,0.00307102,-0.000596306,-0.0774629,0.00227234,0.0114974,1847,1492,27.6876,-19.8003
630,-468,27.6733,19.165,0.00363301,-0.000986781,-4.49797e-05,0.00363345,-0.000987219,-0.00973507,0.00280979,0.0122815,1854,1492,27.6734,-19.1651
637,-468,27.6499,18.4933,0.00441841,-0.00135297,0.000100585,0.00442016,-0.00135472,0.0174213,0.00348719,0.0148833,1861,1492,27.6499,-18.4933
644,-468,27.7157,17.9766,0.00536971,-0.00157002,0.000116487,0.00537167,-0.00157197,0.0167792,0.00420423,0.0353303,1868,1492,27.7157,-17.9766
651,-468,27.9204,17.4474,0,0,0,0,0,0,0,-1,1875,1492,27.9204,-17.4474
658,-468,16.4969,10.0774,0,0,0,0,0,0,0,-1,1882,1492,16.497,-10.0774
665,-468,15.4673,8.59546,0,0,0,0,0,0,0,-1,1889,1492,15.4672,-8.59548
672,-468,9.96814,3.61133,0,0,0,0,0,0,0,-1,1896,1492,9.96817,-3.61139
679,-468,11.2191,1.91968,0,0,0,0,0,0,0,-1,1903,1492,11.2191,-1.91965
686,-468,11.9252,1.42285,0,0,0,0,0,0,0,-1,1910,1492,11.9252,-1.42291
693,-468,0,0,0,0,0,0,0,0,0,-1,1917,1492,0,0
700,-468,0,0,0,0,0,0,0,0,0,-1,1924,1492,0,0
707,-468,0,0,0,0,0,0,0,0,0,-1,1931,1492,0,0
714,-468,0,0,0,0,0,0,0,0,0,-1,1938,1492,0,0
721,-468,0,0,0,0,0,0,0,0,0,-1,1945,1492,0,0
728,-468,0,0,0,0,0,0,0,0,0,-1,1952,1492,0,0
735,-468,0,0,0,0,0,0,0,0,0,-1,1959,1492,0,0
742,-468,0,0,0,0,0,0,0,0,0,-1,1966,1492,0,0
749,-468,0,0,0,0,0,0,0,0,0,-1,1973,1492,0,0
756,-468,0,0,0,0,0,0,0,0,0,-1,1980,1492,0,0
763,-468,0,0,0,0,0,0,0,0,0,-1,1987,1492,0,0
770,-468,0,0,0,0,0,0,0,0,0,-1,1994,1492,0,0
777,-468,0,0,0,0,0,0,0,0,0,-1,2001,1492,0,0
784,-468,0,0,0,0,0,0,0,0,0,-1,2008,1492,0,0
791,-468,0,0,0,0,0,0,0,0,0,-1,2015,1492,0,0
798,-468,0,0,0,0,0,0,0,0,0,-1,2022,1492,0,0
805,-468,0,0,0,0,0,0,0,0,0,-1,2029,1492,0,0
812,-468,0,0,0,0,0,0,0,0,0,-1,2036,1492,0,0
-700,-475,0,0,0,0,0,0,0,0,0,-1,524,1499,0,0
-693,-475,0,0,0,0,0,0,0,0,0,-1,531,1499,0,0
-686,-475,0,0,0,0,0,0,0,0,0,-1,538,1499,0,0
-679,-475,0,0,0,0,0,0,0,0,0,-1,545,1499,0,0
-672,-475,0,0,0,0,0,0,0,0,0,-1,552,1499,0,0
-665,-475,0,0,0,0,0,0,0,0,0,-1,559,1499,0,0
-658,-475,0,0,0,0,0,0,0,0,0,-1,566,1499,0,0
-651,-475,0,0,0,0,0,0,0,0,0,-1,573,1499,0,0
-644,-475,0,0,0,0,0,0,0,0,0,-1,580,1499,0,0
-637,-475,0,0,0,0,0,0,0,0,0,-1,587,1499,0,0
-630,-475,0,0,0,0,0,0,0,0,0,-1,594,1499,0,0
-623,-475,0,0,0,0,0,0,0,0,0,-1,601,1499,0,0
-616,-475,0,0,0,0,0,0,0,0,0,-1,608,1499,0,0
-609,-475,0,0,0,0,0,0,0,0,0,-1,615,1499,0,0
-602,-475,0,0,0,0,0,0,0,0,0,-1,622,1499,0,0
-595,-475,0,0,0,0,0,0,0,0,0,-1,629,1499,0,0
-588,-475,0,0,0,0,0,0,0,0,0,-1,636,1499,0,0
-581,-475,0,0,0,0,0,0,0,0,0,-1,643,1499,0,0
-574,-475,0,0,0,0,0,0,0,0,0,-1,650,1499,0,0
-567,-475,0,0,0,0,0,0,0,0,0,-1,657,1499,0,0
-560,-475,-9.42731,9.29517,0,0,0,0,0,0,0,-1,664,1499,-9.42731,-9.29519
-553,-475,-8.15131,8.78369,0,0,0,0,0,0,0,-1,671,1499,-8.15131,-8.78367
-546,-475,-8.41254,8.20654,0,0,0,0,0,0,0,-1,678,1499,-8.41251,-8.20655
-539,-475,-4.7345,4.17419,0,0,0,0,0,0,0,-1,685,1499,-4.73449,-4.17418
-532,-475,-7.07379,4.25024,0,0,0,0,0,0,0,-1,692,1499,-7.07378,-4.2503
-525,-475,-6.13147,5.82166,0,0,0,0,0,0,0,-1,699,1499,-6.1315,-5.8216
-518,-475,-7.28784,9.31506,0,0,0,0,0,0,0,-1,706,1499,-7.28782,-9.315
-511,-475,-6.84851,12.4244,0,0,0,0,0,0,0,-1,713,1499,-6.84851,-12.4244
-504,-475,-8.80957,16.0863,0,0,0,0,0,0,0,-1,720,1499,-8.80954,-16.0862
-497,-475,-9.42908,17.796,0,0,0,0,0,0,0,-1,727,1499,-9.42909,-17.796
-490,-475,-9.4021,18.6198,-0.001005,0.00301437,0.00293687,0.00456334,-0.00255397,1.08545,0.00416341,0.0163,734,1499,-9.4021,-18.6198
-483,-475,-9.40515,19.3617,-0.00102803,0.00196734,0.00201863,0.0029832,-0.00204389,1.10456,0.00291924,0.00918119,741,1499,-9.40516,-19.3617
-476,-475,-9.42383,20.0225,-0.000738075,0.00136525,0.00147625,0.00212613,-0.00149896,1.09489,0.00210336,0.01148,748,1499,-9.42383,-20.0224
-469,-475,-9.45984,20.6937,-0.000188598,0.00118049,0.00125583,0.00192622,-0.000934335,1.03493,0.00168431,0.0144272,755,1499,-9.45981,-20.6937
-462,-475,-9.4519,21.3821,0.000562677,0.00133806,0.00129005,0.00229742,-0.000396675,0.931368,0.00167952,0.0194784,762,1499,-9.45189,-21.382
-455,-475,-9.50012,22.0557,0.00149179,0.00180213,0.00157818,0.00323275,6.11737e-05,0.834402,0.00213507,0.017333,769,1499,-9.50015,-22.0557
-448,-475,-9.57141,22.736,0.00263073,0.00275025,0.00222193,0.00491322,0.000467761,0.798842,0.00313123,0.0144738,776,1499,-9.5714,-22.736
-441,-475,-9.60327,23.408,0.00391867,0.00396377,0.00310271,0.00704402,0.000838428,0.789032,0.00444298,0.0168742,783,1499,-9.60326,-23.4079
-434,-475,-9.60681,24.0918,0.00549857,0.00581393,0.00445724,0.0101163,0.00119622,0.803079,0.00638292,0.0123298,790,1499,-9.60684,-24.0918
-427,-475,-9.55145,24.8929,0.00710324,0.00846566,0.00623493,0.0140565,0.00151242,0.839811,0.00890974,0.035516,797,1499,-9.55145,-24.8929
-420,-475,-9.43805,25.6606,0,0,0,0,0,0,0,-1,804,1499,-9.43807,-25.6607
-413,-475,-6.46777,20.8481,0,0,0,0,0,0,0,-1,811,1499,-6.46776,-20.8481
-406,-475,-2.56116,12.4956,0,0,0,0,0,0,0,-1,818,1499,-2.56116,-12.4956
-399,-475,-1.39667,6.1615,0,0,0,0,0,0,0,-1,825,1499,-1.39664,-6.16155
-392,-475,0.217163,8.61389,0,0,0,0,0,0,0,-1,832,1499,0.217167,-8.6139
-385,-475,1.18372,2.73999,0,0,0,0,0,0,0,-1,839,1499,1.18372,-2.73995
-378,-475,1.31409,2.90149,0,0,0,0,0,0,0,-1,846,1499,1.31411,-2.90151
-371,-475,2.3476,3.31116,0,0,0,0,0,0,0,-1,853,1499,2.34761,-3.31121
-364,-475,1.04462,9.05823,0,0,0,0,0,0,0,-1,860,1499,1.04461,-9.05825
-357,-475,-0.262756,7.97205,0,0,0,0,0,0,0,-1,867,1499,-0.262784,-7.97205
-350,-475,-2.77173,4.35486,0,0,0,0,0,0,0,-1,874,1499,-2.77175,-4.35491
-343,-475,-5.70062,-1.34241,0,0,0,0,0,0,0,-1,881,1499,-5.70063,1.34239
-336,-475,0,0,0,0,0,0,0,0,0,-1,888,1499,0,0
-329,-475,0,0,0,0,0,0,0,0,0,-1,895,1499,0,0
-322,-475,0,0,0,0,0,0,0,0,0,-1,902,1499,0,0
-315,-475,0,0,0,0,0,0,0,0,0,-1,909,1499,0,0
-308,-475,0,0,0,0,0,0,0,0,0,-1,916,1499,0,0
-301,-475,0,0,0,0,0,0,0,0,0,-1,923,1499,0,0
-294,-475,0,0,0,0,0,0,0,0,0,-1,930,1499,0,0
-287,-475,0,0,0,0,0,0,0,0,0,-1,937,1499,0,0
-280,-475,0,0,0,0,0,0,0,0,0,-1,944,1499,0,0
-273,-475,0,0,0,0,0,0,0,0,0,-1,951,1499,0,0
-266,-475,0,0,0,0,0,0,0,0,0,-1,958,1499,0,0
-259,-475,0,0,0,0,0,0,0,0,0,-1,965,1499,0,0
-252,-475,0,0,0,0,0,0,0,0,0,-1,972,1499,0,0
-245,-475,0,0,0,0,0,0,0,0,0,-1,979,1499,0,0
-238,-475,0,0,0,0,0,0,0,0,0,-1,986,1499,0,0
-231,-475,0,0,0,0,0,0,0,0,0,-1,993,1499,0,0
-224,-475,0,0,0,0,0,0,0,0,0,-1,1000,1499,0,0
-217,-475,0,0,0,0,0,0,0,0,0,-1,1007,1499,0,0
-210,-475,0,0,0,0,0,0,0,0,0,-1,1014,1499,0,0
-203,-475,0,0,0,0,0,0,0,0,0,-1,1021,1499,0,0
-196,-475,0,0,0,0,0,0,0,0,0,-1,1028,1499,0,0
-189,-475,0,0,0,0,0,0,0,0,0,-1,1035,1499,0,0
-182,-475,0,0,0,0,0,0,0,0,0,-1,1042,1499,0,0
-175,-475,0,0,0,0,0,0,0,0,0,-1,1049,1499,0,0
-168,-475,0,0,0,0,0,0,0,0,0,-1,1056,1499,0,0
-161,-475,0,0,0,0,0,0,0,0,0,-1,1063,1499,0,0
-154,-475,0,0,0,0,0,0,0,0,0,-1,1070,1499,0,0
-147,-475,0,0,0,0,0,0,0,0,0,-1,1077,1499,0,0
-140,-475,0,0,0,0,0,0,0,0,0,-1,1084,1499,0,0
-133,-475,0,0,0,0,0,0,0,0,0,-1,1091,1499,0,0
-126,-475,0,0,0,0,0,0,0,0,0,-1,1098,1499,0,0
-119,-475,0,0,0,0,0,0,0,0,0,-1,1105,1499,0,0
-112,-475,0,0,0,0,0,0,0,0,0,-1,1112,1499,0,0
-105,-475,0,0,0,0,0,0,0,0,0,-1,1119,1499,0,0
-98,-475,0,0,0,0,0,0,0,0,0,-1,1126,1499,0,0
-91,-475,0,0,0,0,0,0,0,0,0,-1,1133,1499,0,0
-84,-475,0,0,0,0,0,0,0,0,0,-1,1140,1499,0,0
-77,-475,0,0,0,0,0,0,0,0,0,-1,1147,1499,0,0
-70,-475,0,0,0,0,0,0,0,0,0,-1,1154,1499,0,0
-63,-475,0,0,0,0,0,0,0,0,0,-1,1161,1499,0,0
-56,-475,0,0,0,0,0,0,0,0,0,-1,1168,1499,0,0
-49,-475,0,0,0,0,0,0,0,0,0,-1,1175,1499,0,0
-42,-475,0,0,0,0,0,0,0,0,0,-1,1182,1499,0,0
-35,-475,0,0,0,0,0,0,0,0,0,-1,1189,1499,0,0
-28,-475,0,0,0,0,0,0,0,0,0,-1,1196,1499,0,0
-21,-475,0,0,0,0,0,0,0,0,0,-1,1203,1499,0,0
-14,-475,0,0,0,0,0,0,0,0,0,-1,1210,1499,0,0
-7,-475,0,0,0,0,0,0,0,0,0,-1,1217,1499,0,0
0,-475,0,0,0,0,0,0,0,0,0,-1,1224,1499,0,0
7,-475,0,0,0,0,0,0,0,0,0,-1,1231,1499,0,0
14,-475,0,0,0,0,0,0,0,0,0,-1,1238,1499,0,0
21,-475,0,0,0,0,0,0,0,0,0,-1,1245,1499,0,0
28,-475,0,0,0,0,0,0,0,0,0,-1,1252,1499,0,0
35,-475,0,0,0,0,0,0,0,0,0,-1,1259,1499,0,0
42,-475,0,0,0,0,0,0,0,0,0,-1,1266,1499,0,0
49,-475,0,0,0,0,0,0,0,0,0,-1,1273,1499,0,0
56,-475,0,0,0,0,0,0,0,0,0,-1,1280,1499,0,0
63,-475,0,0,0,0,0,0,0,0,0,-1,1287,1499,0,0
70,-475,0,0,0,0,0,0,0,0,0,-1,1294,1499,0,0
77,-475,0,0,0,0,0,0,0,0,0,-1,1301,1499,0,0
84,-475,0,0,0,0,0,0,0,0,0,-1,1308,1499,0,0
91,-475,0,0,0,0,0,0,0,0,0,-1,1315,1499,0,0
98,-475,0,0,0,0,0,0,0,0,0,-1,1322,1499,0,0
105,-475,0,0,0,0,0,0,0,0,0,-1,1329,1499,0,0
112,-475,0,0,0,0,0,0,0,0,0,-1,1336,1499,0,0
119,-475,0,0,0,0,0,0,0,0,0,-1,1343,1499,0,0
126,-475,0,0,0,0,0,0,0,0,0,-1,1350,1499,0,0
133,-475,0,0,0,0,0,0,0,0,0,-1,1357,1499,0,0
140,-475,0,0,0,0,0,0,0,0,0,-1,1364,1499,0,0
147,-475,0,0,0,0,0,0,0,0,0,-1,1371,1499,0,0
154,-475,0,0,0,0,0,0,0,0,0,-1,1378,1499,0,0
161,-475,0,0,0,0,0,0,0,0,0,-1,1385,1499,0,0
168,-475,0,0,0,0,0,0,0,0,0,-1,1392,1499,0,0
175,-475,0,0,0,0,0,0,0,0,0,-1,1399,1499,0,0
182,-475,0,0,0,0,0,0,0,0,0,-1,1406,1499,0,0
189,-475,0,0,0,0,0,0,0,0,0,-1,1413,1499,0,0
196,-475,0,0,0,0,0,0,0,0,0,-1,1420,1499,0,0
203,-475,0,0,0,0,0,0,0,0,0,-1,1427,1499,0,0
210,-475,0,0,0,0,0,0,0,0,0,-1,1434,1499,0,0
217,-475,0,0,0,0,0,0,0,0,0,-1,1441,1499,0,0
224,-475,0,0,0,0,0,0,0,0,0,-1,1448,1499,0,0
231,-475,0,0,0,0,0,0,0,0,0,-1,1455,1499,0,0
238,-475,0,0,0,0,0,0,0,0,0,-1,1462,1499,0,0
245,-475,0,0,0,0,0,0,0,0,0,-1,1469,1499,0,0
252,-475,0,0,0,0,0,0,0,0,0,-1,1476,1499,0,0
259,-475,0,0,0,0,0,0,0,0,0,-1,1483,1499,0,0
266,-475,0,0,0,0,0,0,0,0,0,-1,1490,1499,0,0
273,-475,0,0,0,0,0,0,0,0,0,-1,1497,1499,0,0
280,-475,0,0,0,0,0,0,0,0,0,-1,1504,1499,0,0
287,-475,0,0,0,0,0,0,0,0,0,-1,1511,1499,0,0
294,-475,0,0,0,0,0,0,0,0,0,-1,1518,1499,0,0
301,-475,0,0,0,0,0,0,0,0,0,-1,1525,1499,0,0
308,-475,0,0,0,0,0,0,0,0,0,-1,1532,1499,0,0
315,-475,0,0,0,0,0,0,0,0,0,-1,1539,1499,0,0
322,-475,0,0,0,0,0,0,0,0,0,-1,1546,1499,0,0
329,-475,0,0,0,0,0,0,0,0,0,-1,1553,1499,0,0
336,-475,0,0,0,0,0,0,0,0,0,-1,1560,1499,0,0
343,-475,0,0,0,0,0,0,0,0,0,-1,1567,1499,0,0
350,-475,0,0,0,0,0,0,0,0,0,-1,1574,1499,0,0
357,-475,0,0,0,0,0,0,0,0,0,-1,1581,1499,0,0
364,-475,0,0,0,0,0,0,0,0,0,-1,1588,1499,0,0
371,-475,0,0,0,0,0,0,0,0,0,-1,1595,1499,0,0
378,-475,0,0,0,0,0,0,0,0,0,-1,1602,1499,0,0
385,-475,0,0,0,0,0,0,0,0,0,-1,1609,1499,0,0
392,-475,0,0,0,0,0,0,0,0,0,-1,1616,1499,0,0
399,-475,0,0,0,0,0,0,0,0,0,-1,1623,1499,0,0
406,-475,0,0,0,0,0,0,0,0,0,-1,1630,1499,0,0
413,-475,0,0,0,0,0,0,0,0,0,-1,1637,1499,0,0
420,-475,0,0,0,0,0,0,0,0,0,-1,1644,1499,0,0
427,-475,0,0,0,0,0,0,0,0,0,-1,1651,1499,0,0
434,-475,0,0,0,0,0,0,0,0,0,-1,1658,1499,0,0
441,-475,0,0,0,0,0,0,0,0,0,-1,1665,1499,0,0
448,-475,0,0,0,0,0,0,0,0,0,-1,1672,1499,0,0
455,-475,0,0,0,0,0,0,0,0,0,-1,1679,1499,0,0
462,-475,12.6372,0.275391,0,0,0,0,0,0,0,-1,1686,1499,12.6372,-0.27536
469,-475,15.6437,2.28296,0,0,0,0,0,0,0,-1,1693,1499,15.6437,-2.28293
476,-475,15.3302,2.71436,0,0,0,0,0,0,0,-1,1700,1499,15.3303,-2.7143
483,-475,10.7461,5.91479,0,0,0,0,0,0,0,-1,1707,1499,10.7461,-5.91476
490,-475,11.9305,4.4364,0,0,0,0,0,0,0,-1,1714,1499,11.9305,-4.43644
497,-475,15.3451,4.3479,0,0,0,0,0,0,0,-1,1721,1499,15.3451,-4.34789
504,-475,16.9646,7.71265,0,0,0,0,0,0,0,-1,1728,1499,16.9646,-7.71265
511,-475,18.941,12.7572,0,0,0,0,0,0,0,-1,1735,1499,18.941,-12.7572
518,-475,17.0021,13.8564,0,0,0,0,0,0,0,-1,1742,1499,17.0021,-13.8564
525,-475,17.5637,15.2103,0,0,0,0,0,0,0,-1,1749,1499,17.5637,-15.2103
532,-475,20.8623,20.8413,0,0,0,0,0,0,0,-1,1756,1499,20.8623,-20.8413
539,-475,20.5494,20.8519,0,0,0,0,0,0,0,-1,1763,1499,20.5494,-20.852
546,-475,20.4524,19.8799,0,0,0,0,0,0,0,-1,1770,1499,20.4524,-19.8798
553,-475,26.9579,26.4865,0,0,0,0,0,0,0,-1,1777,1499,26.9579,-26.4865
560,-475,27.0952,25.7573,0.00725718,0.00334078,-0.00281193,0.00872557,0.00187239,-0.481249,0.00530424,0.0312994,1784,1499,27.0952,-25.7573
567,-475,27.2715,24.9558,0.00561761,0.00230469,-0.002042,0.00659053,0.00133177,-0.444633,0.00402391,0.0158694,1791,1499,27.2715,-24.9558
574,-475,27.2177,24.3119,0.00446877,0.0017182,-0.00168474,0.00526829,0.000918687,-0.443092,0.00324954,0.0153207,1798,1499,27.2176,-24.3119
581,-475,27.1926,23.701,0.00357099,0.0012841,-0.00139119,0.00422834,0.000626745,-0.441416,0.00263494,0.0126796,1805,1499,27.1927,-23.701
588,-475,27.168,23.0546,0.00296828,0.000935167,-0.00118489,0.00351292,0.00039052,-0.430858,0.00222324,0.0112694,1812,1499,27.1679,-23.0546
595,-475,27.1509,22.4087,0.00270113,0.000582719,-0.00101372,0.00310806,0.000175789,-0.38173,0.002016,0.0117391,1819,1499,27.1509,-22.4087
602,-475,27.1204,21.752,0.00259214,0.000275405,-0.000888042,0.00289338,-2.58274e-05,-0.32703,0.00193758,0.0126393,1826,1499,27.1203,-21.752
609,-475,27.0836,21.1077,0.00269315,4.03418e-05,-0.000751794,0.00289139,-0.000157899,-0.257822,0.00198232,0.0117394,1833,1499,27.0837,-21.1077
616,-475,27.0529,20.4673,0.00301656,-0.000246347,-0.000598196,0.00312278,-0.000352558,-0.175721,0.00220877,0.0116944,1840,1499,27.0529,-20.4673
623,-475,27.0516,19.793,0.00357071,-0.00070163,-0.000362445,0.00360124,-0.00073216,-0.0840351,0.00267844,0.0114789,1847,1499,27.0516,-19.793
630,-475,27.0414,19.1516,0.00424431,-0.00118853,-3.75902e-05,0.00424457,-0.00118879,-0.00691863,0.00329818,0.0137401,1854,1499,27.0414,-19.1517
637,-475,26.9989,18.5245,0.00511593,-0.00171614,0.000256715,0.00512556,-0.00172577,0.0375045,0.00411476,0.0248494,1861,1499,26.9989,-18.5245
644,-475,27.0225,18.0769,0,0,0,0,0,0,0,-1,1868,1499,27.0225,-18.0768
651,-475,11.7965,7.57593,0,0,0,0,0,0,0,-1,1875,1499,11.7965,-7.5759
658,-475,14.6708,8.80322,0,0,0,0,0,0,0,-1,1882,1499,14.6708,-8.8032
665,-475,9.33435,5.43335,0,0,0,0,0,0,0,-1,1889,1499,9.33439,-5.43332
672,-475,9.38635,1.10474,0,0,0,0,0,0,0,-1,1896,1499,9.38629,-1.10475
679,-475,12.2594,1.31079,0,0,0,0,0,0,0,-1,1903,1499,12.2594,-1.31077
686,-475,0,0,0,0,0,0,0,0,0,-1,1910,1499,0,0
693,-475,0,0,0,0,0,0,0,0,0,-1,1917,1499,0,0
700,-475,0,0,0,0,0,0,0,0,0,-1,1924,1499,0,0
707,-475,0,0,0,0,0,0,0,0,0,-1,1931,1499,0,0
714,-475,0,0,0,0,0,0,0,0,0,-1,1938,1499,0,0
721,-475,0,0,0,0,0,0,0,0,0,-1,1945,1499,0,0
728,-475,0,0,0,0,0,0,0,0,0,-1,1952,1499,0,0
735,-475,0,0,0,0,0,0,0,0,0,-1,1959,1499,0,0
742,-475,0,0,0,0,0,0,0,0,0,-1,1966,1499,0,0
749,-475,0,0,0,0,0,0,0,0,0,-1,1973,1499,0,0
756,-475,0,0,0,0,0,0,0,0,0,-1,1980,1499,0,0
763,-475,0,0,0,0,0,0,0,0,0,-1,1987,1499,0,0
770,-475,0,0,0,0,0,0,0,0,0,-1,1994,1499,0,0
777,-475,0,0,0,0,0,0,0,0,0,-1,2001,1499,0,0
784,-475,0,0,0,0,0,0,0,0,0,-1,2008,1499,0,0
791,-475,0,0,0,0,0,0,0,0,0,-1,2015,1499,0,0
798,-475,0,0,0,0,0,0,0,0,0,-1,2022,1499,0,0
805,-475,0,0,0,0,0,0,0,0,0,-1,2029,1499,0,0
812,-475,0,0,0,0,0,0,0,0,0,-1,2036,1499,0,0
-700,-482,0,0,0,0,0,0,0,0,0,-1,524,1506,0,0
-693,-482,0,0,0,0,0,0,0,0,0,-1,531,1506,0,0
-686,-482,0,0,0,0,0,0,0,0,0,-1,538,1506,0,0
-679,-482,0,0,0,0,0,0,0,0,0,-1,545,1506,0,0
-672,-482,0,0,0,0,0,0,0,0,0,-1,552,1506,0,0
-665,-482,0,0,0,0,0,0,0,0,0,-1,559,1506,0,0
-658,-482,0,0,0,0,0,0,0,0,0,-1,566,1506,0,0
-651,-482,0,0,0,0,0,0,0,0,0,-1,573,1506,0,0
-644,-482,0,0,0,0,0,0,0,0,0,-1,580,1506,0,0
-637,-482,0,0,0,0,0,0,0,0,0,-1,587,1506,0,0
-630,-482,0,0,0,0,0,0,0,0,0,-1,594,1506,0,0
-623,-482,0,0,0,0,0,0,0,0,0,-1,601,1506,0,0
-616,-482,0,0,0,0,0,0,0,0,0,-1,608,1506,0,0
-609,-482,0,0,0,0,0,0,0,0,0,-1,615,1506,0,0
-602,-482,0,0,0,0,0,0,0,0,0,-1,622,1506,0,0
-595,-482,0,0,0,0,0,0,0,0,0,-1,629,1506,0,0
-588,-482,0,0,0,0,0,0,0,0,0,-1,636,1506,0,0
-581,-482,0,0,0,0,0,0,0,0,0,-1,643,1506,0,0
-574,-482,0,0,0,0,0,0,0,0,0,-1,650,1506,0,0
-567,-482,0,0,0,0,0,0,0,0,0,-1,657,1506,0,0
-560,-482,0,0,0,0,0,0,0,0,0,-1,664,1506,0,0
-553,-482,-9.06055,9.34314,0,0,0,0,0,0,0,-1,671,1506,-9.06056,-9.34312
-546,-482,-4.08624,8.34241,0,0,0,0,0,0,0,-1,678,1506,-4.08624,-8.3424
-539,-482,-4.29877,2.73499,0,0,0,0,0,0,0,-1,685,1506,-4.29879,-2.73494
-532,-482,-3.63611,4.23987,0,0,0,0,0,0,0,-1,692,1506,-3.63609,-4.23983
-525,-482,-6.19116,5.24927,0,0,0,0,0,0,0,-1,699,1506,-6.19117,-5.24927
-518,-482,-5.92957,6.39807,0,0,0,0,0,0,0,-1,706,1506,-5.92958,-6.39806
-511,-482,-7.74634,11.9137,0,0,0,0,0,0,0,-1,713,1506,-7.74633,-11.9137
-504,-482,-6.42358,13.4211,0,0,0,0,0,0,0,-1,720,1506,-6.42356,-13.4212
-497,-482,-8.86163,17.7108,0,0,0,0,0,0,0,-1,727,1506,-8.86163,-17.7109
-490,-482,-8.79663,18.59,-0.00306083,0.00359137,0.00317676,0.00486469,-0.00433416,1.18958,0.0053139,0.0497265,734,1506,-8.79666,-18.5899
-483,-482,-8.73822,19.3601,-0.00277644,0.00218391,0.0021089,0.0029593,-0.00355183,1.21846,0.00376439,0.0108762,741,1506,-8.73822,-19.3602
-476,-482,-8.75177,20.0576,-0.00222247,0.00131588,0.001445,0.001831,-0.0027376,1.22836,0.00265494,0.0106725,748,1506,-8.75175,-20.0576
-469,-482,-8.7887,20.752,-0.00143307,0.000938313,0.00115108,0.00140515,-0.0018999,1.1855,0.00191529,0.0130739,755,1506,-8.78872,-20.752
-462,-482,-8.80963,21.4189,-0.000490238,0.000962954,0.00110953,0.00156263,-0.00108991,1.07529,0.00153953,0.0141218,762,1506,-8.80966,-21.4189
-455,-482,-8.83734,22.0623,0.000575075,0.00132551,0.00131207,0.00231496,-0.00041437,0.924669,0.00169836,0.014146,769,1506,-8.83735,-22.0623
-448,-482,-8.86737,22.7587,0.00177494,0.00217377,0.00183984,0.00382497,0.000123739,0.839381,0.00250975,0.0140619,776,1506,-8.8674,-22.7587
-441,-482,-8.89618,23.4346,0.00306174,0.00327342,0.0025818,0.00575154,0.000583611,0.805884,0.00365539,0.0127915,783,1506,-8.8962,-23.4346
-434,-482,-8.94727,24.1349,0.00452374,0.00499762,0.00373238,0.00850057,0.00102079,0.817097,0.00535929,0.0159878,790,1506,-8.94725,-24.1349
-427,-482,-8.96869,24.8409,0.00595464,0.00734932,0.00519557,0.0118941,0.00140982,0.852109,0.00750376,0.0203125,797,1506,-8.96871,-24.841
-420,-482,-9.0271,25.7675,0,0,0,0,0,0,0,-1,804,1506,-9.02708,-25.7674
-413,-482,-6.56415,22.3163,0,0,0,0,0,0,0,-1,811,1506,-6.56417,-22.3163
-406,-482,-2.51373,12.7556,0,0,0,0,0,0,0,-1,818,1506,-2.51376,-12.7556
-399,-482,-1.3822,9.22595,0,0,0,0,0,0,0,-1,825,1506,-1.38221,-9.22598
-392,-482,-1.06836,9.22729,0,0,0,0,0,0,0,-1,832,1506,-1.06835,-9.2273
-385,-482,0.0647583,8.90649,0,0,0,0,0,0,0,-1,839,1506,0.0647778,-8.90644
-378,-482,0.215698,5.96948,0,0,0,0,0,0,0,-1,846,1506,0.215681,-5.9695
-371,-482,-0.10907,8.10437,0,0,0,0,0,0,0,-1,853,1506,-0.109063,-8.10433
-364,-482,-0.154968,10.5032,0,0,0,0,0,0,0,-1,860,1506,-0.154976,-10.5032
-357,-482,2.14807,4.60144,0,0,0,0,0,0,0,-1,867,1506,2.14807,-4.60144
-350,-482,-7.5813,-1.45935,0,0,0,0,0,0,0,-1,874,1506,-7.58133,1.45937
-343,-482,-7.19983,-1.26416,0,0,0,0,0,0,0,-1,881,1506,-7.19981,1.26414
-336,-482,2.70288,-0.554932,0,0,0,0,0,0,0,-1,888,1506,2.70289,0.554992
-329,-482,0,0,0,0,0,0,0,0,0,-1,895,1506,0,0
-322,-482,0,0,0,0,0,0,0,0,0,-1,902,1506,0,0
-315,-482,0,0,0,0,0,0,0,0,0,-1,909,1506,0,0
-308,-482,0,0,0,0,0,0,0,0,0,-1,916,1506,0,0
-301,-482,0,0,0,0,0,0,0,0,0,-1,923,1506,0,0
-294,-482,0,0,0,0,0,0,0,0,0,-1,930,1506,0,0
-287,-482,0,0,0,0,0,0,0,0,0,-1,937,1506,0,0
-280,-482,0,0,0,0,0,0,0,0,0,-1,944,1506,0,0
-273,-482,0,0,0,0,0,0,0,0,0,-1,951,1506,0,0
-266,-482,0,0,0,0,0,0,0,0,0,-1,958,1506,0,0
-259,-482,0,0,0,0,0,0,0,0,0,-1,965,1506,0,0
-252,-482,0,0,0,0,0,0,0,0,0,-1,972,1506,0,0
-245,-482,0,0,0,0,0,0,0,0,0,-1,979,1506,0,0
-238,-482,0,0,0,0,0,0,0,0,0,-1,986,1506,0,0
-231,-482,0,0,0,0,0,0,0,0,0,-1,993,1506,0,0
-224,-482,0,0,0,0,0,0,0,0,0,-1,1000,1506,0,0
-217,-482,0,0,0,0,0,0,0,0,0,-1,1007,1506,0,0
-210,-482,0,0,0,0,0,0,0,0,0,-1,1014,1506,0,0
-203,-482,0,0,0,0,0,0,0,0,0,-1,1021,1506,0,0
-196,-482,0,0,0,0,0,0,0,0,0,-1,1028,1506,0,0
-189,-482,0,0,0,0,0,0,0,0,0,-1,1035,1506,0,0
-182,-482,0,0,0,0,0,0,0,0,0,-1,1042,1506,0,0
-175,-482,0,0,0,0,0,0,0,0,0,-1,1049,1506,0,0
-168,-482,0,0,0,0,0,0,0,0,0,-1,1056,1506,0,0
-161,-482,0,0,0,0,0,0,0,0,0,-1,1063,1506,0,0
-154,-482,0,0,0,0,0,0,0,0,0,-1,1070,1506,0,0
-147,-482,0,0,0,0,0,0,0,0,0,-1,1077,1506,0,0
-140,-482,0,0,0,0,0,0,0,0,0,-1,1084,1506,0,0
-133,-482,0,0,0,0,0,0,0,0,0,-1,1091,1506,0,0
-126,-482,0,0,0,0,0,0,0,0,0,-1,1098,1506,0,0
-119,-482,0,0,0,0,0,0,0,0,0,-1,1105,1506,0,0
-112,-482,0,0,0,0,0,0,0,0,0,-1,1112,1506,0,0
-105,-482,0,0,0,0,0,0,0,0,0,-1,1119,1506,0,0
-98,-482,0,0,0,0,0,0,0,0,0,-1,1126,1506,0,0
-91,-482,0,0,0,0,0,0,0,0,0,-1,1133,1506,0,0
-84,-482,0,0,0,0,0,0,0,0,0,-1,1140,1506,0,0
-77,-482,0,0,0,0,0,0,0,0,0,-1,1147,1506,0,0
-70,-482,0,0,0,0,0,0,0,0,0,-1,1154,1506,0,0
-63,-482,0,0,0,0,0,0,0,0,0,-1,1161,1506,0,0
-56,-482,0,0,0,0,0,0,0,0,0,-1,1168,1506,0,0
-49,-482,0,0,0,0,0,0,0,0,0,-1,1175,1506,0,0
-42,-482,0,0,0,0,0,0,0,0,0,-1,1182,1506,0,0
-35,-482,0,0,0,0,0,0,0,0,0,-1,1189,1506,0,0
-28,-482,0,0,0,0,0,0,0,0,0,-1,1196,1506,0,0
-21,-482,0,0,0,0,0,0,0,0,0,-1,1203,1506,0,0
-14,-482,0,0,0,0,0,0,0,0,0,-1,1210,1506,0,0
-7,-482,0,0,0,0,0,0,0,0,0,-1,1217,1506,0,0
0,-482,0,0,0,0,0,0,0,0,0,-1,1224,1506,0,0
7,-482,0,0,0,0,0,0,0,0,0,-1,1231,1506,0,0
14,-482,0,0,0,0,0,0,0,0,0,-1,1238,1506,0,0
21,-482,0,0,0,0,0,0,0,0,0,-1,1245,1506,0,0
28,-482,0,0,0,0,0,0,0,0,0,-1,1252,1506,0,0
35,-482,0,0,0,0,0,0,0,0,0,-1,1259,1506,0,0
42,-482,0,0,0,0,0,0,0,0,0,-1,1266,1506,0,0
49,-482,0,0,0,0,0,0,0,0,0,-1,1273,1506,0,0
56,-482,0,0,0,0,0,0,0,0,0,-1,1280,1506,0,0
63,-482,0,0,0,0,0,0,0,0,0,-1,1287,1506,0,0
70,-482,0,0,0,0,0,0,0,0,0,-1,1294,1506,0,0
77,-482,0,0,0,0,0,0,0,0,0,-1,1301,1506,0,0
84,-482,0,0,0,0,0,0,0,0,0,-1,1308,1506,0,0
91,-482,0,0,0,0,0,0,0,0,0,-1,1315,1506,0,0
98,-482,0,0,0,0,0,0,0,0,0,-1,1322,1506,0,0
105,-482,0,0,0,0,0,0,0,0,0,-1,1329,1506,0,0
112,-482,0,0,0,0,0,0,0,0,0,-1,1336,1506,0,0
119,-482,0,0,0,0,0,0,0,0,0,-1,1343,1506,0,0
126,-482,0,0,0,0,0,0,0,0,0,-1,1350,1506,0,0
133,-482,0,0,0,0,0,0,0,0,0,-1,1357,1506,0,0
140,-482,0,0,0,0,0,0,0,0,0,-1,1364,1506,0,0
147,-482,0,0,0,0,0,0,0,0,0,-1,1371,1506,0,0
154,-482,0,0,0,0,0,0,0,0,0,-1,1378,1506,0,0
161,-482,0,0,0,0,0,0,0,0,0,-1,1385,1506,0,0
168,-482,0,0,0,0,0,0,0,0,0,-1,1392,1506,0,0
175,-482,0,0,0,0,0,0,0,0,0,-1,1399,1506,0,0
182,-482,0,0,0,0,0,0,0,0,0,-1,1406,1506,0,0
189,-482,0,0,0,0,0,0,0,0,0,-1,1413,1506,0,0
196,-482,0,0,0,0,0,0,0,0,0,-1,1420,1506,0,0
203,-482,0,0,0,0,0,0,0,0,0,-1,1427,1506,0,0
210,-482,0,0,0,0,0,0,0,0,0,-1,1434,1506,0,0
217,-482,0,0,0,0,0,0,0,0,0,-1,1441,1506,0,0
224,-482,0,0,0,0,0,0,0,0,0,-1,1448,1506,0,0
231,-482,0,0,0,0,0,0,0,0,0,-1,1455,1506,0,0
238,-482,0,0,0,0,0,0,0,0,0,-1,1462,1506,0,0
245,-482,0,0,0,0,0,0,0,0,0,-1,1469,1506,0,0
252,-482,0,0,0,0,0,0,0,0,0,-1,1476,1506,0,0
259,-482,0,0,0,0,0,0,0,0,0,-1,1483,1506,0,0
266,-482,0,0,0,0,0,0,0,0,0,-1,1490,1506,0,0
273,-482,0,0,0,0,0,0,0,0,0,-1,1497,1506,0,0
280,-482,0,0,0,0,0,0,0,0,0,-1,1504,1506,0,0
287,-482,0,0,0,0,0,0,0,0,0,-1,1511,1506,0,0
294,-482,0,0,0,0,0,0,0,0,0,-1,1518,1506,0,0
301,-482,0,0,0,0,0,0,0,0,0,-1,1525,1506,0,0
308,-482,0,0,0,0,0,0,0,0,0,-1,1532,1506,0,0
315,-482,0,0,0,0,0,0,0,0,0,-1,1539,1506,0,0
322,-482,0,0,0,0,0,0,0,0,0,-1,1546,1506,0,0
329,-482,0,0,0,0,0,0,0,0,0,-1,1553,1506,0,0
336,-482,0,0,0,0,0,0,0,0,0,-1,1560,1506,0,0
343,-482,0,0,0,0,0,0,0,0,0,-1,1567,1506,0,0
350,-482,0,0,0,0,0,0,0,0,0,-1,1574,1506,0,0
357,-482,0,0,0,0,0,0,0,0,0,-1,1581,1506,0,0
364,-482,0,0,0,0,0,0,0,0,0,-1,1588,1506,0,0
371,-482,0,0,0,0,0,0,0,0,0,-1,1595,1506,0,0
378,-482,0,0,0,0,0,0,0,0,0,-1,1602,1506,0,0
385,-482,0,0,0,0,0,0,0,0,0,-1,1609,1506,0,0
392,-482,0,0,0,0,0,0,0,0,0,-1,1616,1506,0,0
399,-482,0,0,0,0,0,0,0,0,0,-1,1623,1506,0,0
406,-482,0,0,0,0,0,0,0,0,0,-1,1630,1506,0,0
413,-482,0,0,0,0,0,0,0,0,0,-1,1637,1506,0,0
420,-482,0,0,0,0,0,0,0,0,0,-1,1644,1506,0,0
427,-482,0,0,0,0,0,0,0,0,0,-1,1651,1506,0,0
434,-482,0,0,0,0,0,0,0,0,0,-1,1658,1506,0,0
441,-482,0,0,0,0,0,0,0,0,0,-1,1665,1506,0,0
448,-482,4.24146,1.55383,0,0,0,0,0,0,0,-1,1672,1506,4.24149,-1.55381
455,-482,12.4122,1.09729,0,0,0,0,0,0,0,-1,1679,1506,12.4122,-1.09734
462,-482,15.0673,3.13135,0,0,0,0,0,0,0,-1,1686,1506,15.0672,-3.13134
469,-482,15.3793,3.46301,0,0,0,0,0,0,0,-1,1693,1506,15.3793,-3.46307
476,-482,8.69751,9.18738,0,0,0,0,0,0,0,-1,1700,1506,8.69753,-9.18739
483,-482,10.0902,7.17432,0,0,0,0,0,0,0,-1,1707,1506,10.0902,-7.1743
490,-482,11.6289,5.4928,0,0,0,0,0,0,0,-1,1714,1506,11.6289,-5.49283
497,-482,15.9539,7.40222,0,0,0,0,0,0,0,-1,1721,1506,15.9538,-7.40219
504,-482,20.4233,12.006,0,0,0,0,0,0,0,-1,1728,1506,20.4233,-12.006
511,-482,18.4937,12.9175,0,0,0,0,0,0,0,-1,1735,1506,18.4936,-12.9174
518,-482,16.6002,13.9679,0,0,0,0,0,0,0,-1,1742,1506,16.6003,-13.9679
525,-482,18.495,15.9618,0,0,0,0,0,0,0,-1,1749,1506,18.495,-15.9618
532,-482,19.9375,21.0775,0,0,0,0,0,0,0,-1,1756,1506,19.9375,-21.0775
539,-482,20.2291,20.5577,0,0,0,0,0,0,0,-1,1763,1506,20.2291,-20.5578
546,-482,26.5273,27.3004,0,0,0,0,0,0,0,-1,1770,1506,26.5274,-27.3004
553,-482,26.3909,26.3895,0,0,0,0,0,0,0,-1,1777,1506,26.3908,-26.3895
560,-482,26.5388,25.6604,0.00628484,0.00320158,-0.00271466,0.00786507,0.00162135,-0.527161,0.00479519,0.0171399,1784,1506,26.5388,-25.6604
567,-482,26.6201,24.9982,0.00491087,0.00221028,-0.00199025,0.00596565,0.0011555,-0.487339,0.00365336,0.0152334,1791,1506,26.6202,-24.9981
574,-482,26.5828,24.3755,0.00396706,0.0016062,-0.00162212,0.00479279,0.000780468,-0.470858,0.00296943,0.0139496,1798,1506,26.5827,-24.3755
581,-482,26.5363,23.7319,0.00325,0.00114704,-0.00133766,0.00389997,0.000497068,-0.452307,0.00245115,0.0101718,1805,1506,26.5362,-23.7319
588,-482,26.5157,23.0713,0.00282035,0.000815102,-0.00117083,0.00335919,0.000276266,-0.431317,0.00215329,0.0114409,1812,1506,26.5157,-23.0713
595,-482,26.5032,22.4165,0.00273605,0.000491403,-0.00105845,0.00315643,7.10259e-05,-0.378058,0.00208101,0.0174209,1819,1506,26.5032,-22.4165
602,-482,26.4764,21.7673,0.00279237,0.000254841,-0.00101669,0.00314947,-0.000102256,-0.337774,0.00213455,0.021113,1826,1506,26.4764,-21.7673
609,-482,26.443,21.1357,0.00304082,7.70563e-05,-0.000959669,0.00332442,-0.000206548,-0.287344,0.00228824,0.0165064,1833,1506,26.443,-21.1357
616,-482,26.3958,20.5022,0.00358312,-0.000217526,-0.00084245,0.00376149,-0.000395892,-0.208642,0.0026495,0.0122691,1840,1506,26.3957,-20.5022
623,-482,26.3578,19.8544,0.00433275,-0.000712446,-0.000619109,0.00440761,-0.000787308,-0.120334,0.00323296,0.0175316,1847,1506,26.3578,-19.8543
630,-482,26.3795,19.2653,0.00511121,-0.00126154,-0.000247452,0.00512081,-0.00127114,-0.0387519,0.00390713,0.0398305,1854,1506,26.3796,-19.2652
637,-482,26.3738,18.5378,0,0,0,0,0,0,0,-1,1861,1506,26.3738,-18.5378
644,-482,17.5909,11.6163,0,0,0,0,0,0,0,-1,1868,1506,17.5909,-11.6163
651,-482,4.03845,7.05273,0,0,0,0,0,0,0,-1,1875,1506,4.03843,-7.05279
658,-482,10.0278,5.87903,0,0,0,0,0,0,0,-1,1882,1506,10.0279,-5.87902
665,-482,8.15198,3.22229,0,0,0,0,0,0,0,-1,1889,1506,8.15199,-3.22232
672,-482,9.87415,1.3147,0,0,0,0,0,0,0,-1,1896,1506,9.87416,-1.31473
679,-482,0,0,0,0,0,0,0,0,0,-1,1903,1506,0,0
686,-482,0,0,0,0,0,0,0,0,0,-1,1910,1506,0,0
693,-482,0,0,0,0,0,0,0,0,0,-1,1917,1506,0,0
700,-482,0,0,0,0,0,0,0,0,0,-1,1924,1506,0,0
707,-482,0,0,0,0,0,0,0,0,0,-1,1931,1506,0,0
714,-482,0,0,0,0,0,0,0,0,0,-1,1938,1506,0,0
721,-482,0,0,0,0,0,0,0,0,0,-1,1945,1506,0,0
728,-482,0,0,0,0,0,0,0,0,0,-1,1952,1506,0,0
735,-482,0,0,0,0,0,0,0,0,0,-1,1959,1506,0,0
742,-482,0,0,0,0,0,0,0,0,0,-1,1966,1506,0,0
749,-482,0,0,0,0,0,0,0,0,0,-1,1973,1506,0,0
756,-482,0,0,0,0,0,0,0,0,0,-1,1980,1506,0,0
763,-482,0,0,0,0,0,0,0,0,0,-1,1987,1506,0,0
770,-482,0,0,0,0,0,0,0,0,0,-1,1994,1506,0,0
777,-482,0,0,0,0,0,0,0,0,0,-1,2001,1506,0,0
784,-482,0,0,0,0,0,0,0,0,0,-1,2008,1506,0,0
791,-482,0,0,0,0,0,0,0,0,0,-1,2015,1506,0,0
798,-482,0,0,0,0,0,0,0,0,0,-1,2022,1506,0,0
805,-482,0,0,0,0,0,0,0,0,0,-1,2029,1506,0,0
812,-482,0,0,0,0,0,0,0,0,0,-1,2036,1506,0,0
-700,-489,0,0,0,0,0,0,0,0,0,-1,524,1513,0,0
-693,-489,0,0,0,0,0,0,0,0,0,-1,531,1513,0,0
-686,-489,0,0,0,0,0,0,0,0,0,-1,538,1513,0,0
-679,-489,0,0,0,0,0,0,0,0,0,-1,545,1513,0,0
-672,-489,0,0,0,0,0,0,0,0,0,-1,552,1513,0,0
-665,-489,0,0,0,0,0,0,0,0,0,-1,559,1513,0,0
-658,-489,0,0,0,0,0,0,0,0,0,-1,566,1513,0,0
-651,-489,0,0,0,0,0,0,0,0,0,-1,573,1513,0,0
-644,-489,0,0,0,0,0,0,0,0,0,-1,580,1513,0,0
-637,-489,0,0,0,0,0,0,0,0,0,-1,587,1513,0,0
-630,-489,0,0,0,0,0,0,0,0,0,-1,594,1513,0,0
-623,-489,0,0,0,0,0,0,0,0,0,-1,601,1513,0,0
-616,-489,0,0,0,0,0,0,0,0,0,-1,608,1513,0,0
-609,-489,0,0,0,0,0,0,0,0,0,-1,615,1513,0,0
-602,-489,0,0,0,0,0,0,0,0,0,-1,622,1513,0,0
-595,-489,0,0,0,0,0,0,0,0,0,-1,629,1513,0,0
-588,-489,0,0,0,0,0,0,0,0,0,-1,636,1513,0,0
-581,-489,0,0,0,0,0,0,0,0,0,-1,643,1513,0,0
-574,-489,0,0,0,0,0,0,0,0,0,-1,650,1513,0,0
-567,-489,0,0,0,0,0,0,0,0,0,-1,657,1513,0,0
-560,-489,0,0,0,0,0,0,0,0,0,-1,664,1513,0,0
-553,-489,-9.42206,8.5116,0,0,0,0,0,0,0,-1,671,1513,-9.42205,-8.51158
-546,-489,-7.80951,8.18506,0,0,0,0,0,0,0,-1,678,1513,-7.8095,-8.18503
-539,-489,-3.06879,2.82349,0,0,0,0,0,0,0,-1,685,1513,-3.06881,-2.82354
-532,-489,-3.14215,2.5835,0,0,0,0,0,0,0,-1,692,1513,-3.14213,-2.58353
-525,-489,-2.604,4.06274,0,0,0,0,0,0,0,-1,699,1513,-2.60399,-4.06274
-518,-489,-5.43774,7.48059,0,0,0,0,0,0,0,-1,706,1513,-5.43777,-7.48058
-511,-489,-7.52856,10.951,0,0,0,0,0,0,0,-1,713,1513,-7.52857,-10.951
-504,-489,-7.17352,12.8508,0,0,0,0,0,0,0,-1,720,1513,-7.17352,-12.8508
-497,-489,-5.51678,14.9254,0,0,0,0,0,0,0,-1,727,1513,-5.51681,-14.9254
-490,-489,-8.16168,18.5024,0,0,0,0,0,0,0,-1,734,1513,-8.16168,-18.5025
-483,-489,-8.08893,19.2695,-0.00454046,0.00270741,0.00225045,0.00334932,-0.00518237,1.29294,0.00496352,0.0270976,741,1513,-8.08895,-19.2695
-476,-489,-8.09344,20.068,-0.00364342,0.00146813,0.00142216,0.00183717,-0.00401245,1.31691,0.00345424,0.0104046,748,1513,-8.09345,-20.068
-469,-489,-8.1181,20.7793,-0.00259808,0.000801718,0.00101909,0.00108379,-0.00288015,1.30077,0.00236562,0.0112178,755,1513,-8.11812,-20.7792
-462,-489,-8.12994,21.4364,-0.00148213,0.000627675,0.000882503,0.000948138,-0.00180259,1.22247,0.00161347,0.016545,762,1513,-8.12993,-21.4365
-455,-489,-8.14551,22.0912,-0.000329691,0.000828385,0.00099141,0.00139747,-0.000898773,1.0497,0.00133612,0.0206297,769,1513,-8.14549,-22.0912
-448,-489,-8.19147,22.7732,0.000856118,0.00151593,0.00140621,0.00263042,-0.000258372,0.900617,0.00184577,0.0179354,776,1513,-8.19146,-22.7732
-441,-489,-8.22601,23.4868,0.00205058,0.00246106,0.00202686,0.00429305,0.000218598,0.835856,0.00279202,0.0145875,783,1513,-8.22601,-23.4868
-434,-489,-8.28101,24.1671,0.00331513,0.00402329,0.00301544,0.00670537,0.000633045,0.843842,0.00427488,0.0171328,790,1513,-8.281,-24.1672
-427,-489,-8.32019,24.8447,0.00450461,0.00603487,0.00423987,0.0095781,0.000961388,0.874668,0.00609028,0.0187756,797,1513,-8.32017,-24.8447
-420,-489,-8.36255,25.6536,0.00562371,0.00836937,0.00581413,0.0129705,0.00102254,0.901335,0.00832714,0.0260778,804,1513,-8.36256,-25.6536
-413,-489,-8.31805,26.5441,0,0,0,0,0,0,0,-1,811,1513,-8.31807,-26.5441
-406,-489,-3.10559,15.8143,0,0,0,0,0,0,0,-1,818,1513,-3.10556,-15.8143
-399,-489,-1.41241,9.10718,0,0,0,0,0,0,0,-1,825,1513,-1.41244,-9.10722
-392,-489,-1.0368,9.30469,0,0,0,0,0,0,0,-1,832,1513,-1.03682,-9.30466
-385,-489,-1.75165,10.6559,0,0,0,0,0,0,0,-1,839,1513,-1.75165,-10.6559
-378,-489,-0.401428,9.87048,0,0,0,0,0,0,0,-1,846,1513,-0.401415,-9.87047
-371,-489,-1.11633,10.6606,0,0,0,0,0,0,0,-1,853,1513,-1.11633,-10.6606
-364,-489,-0.503113,8.98486,0,0,0,0,0,0,0,-1,860,1513,-0.503097,-8.98482
-357,-489,-0.609924,10.9606,0,0,0,0,0,0,0,-1,867,1513,-0.609947,-10.9605
-350,-489,-7.94659,-0.358887,0,0,0,0,0,0,0,-1,874,1513,-7.94657,0.358912
-343,-489,-7.49323,-0.437866,0,0,0,0,0,0,0,-1,881,1513,-7.49322,0.437823
-336,-489,-7.02332,-0.53125,0,0,0,0,0,0,0,-1,888,1513,-7.0233,0.531295
-329,-489,-13.2786,4.96082,0,0,0,0,0,0,0,-1,895,1513,-13.2785,-4.96077
-322,-489,0,0,0,0,0,0,0,0,0,-1,902,1513,0,0
-315,-489,0,0,0,0,0,0,0,0,0,-1,909,1513,0,0
-308,-489,0,0,0,0,0,0,0,0,0,-1,916,1513,0,0
-301,-489,0,0,0,0,0,0,0,0,0,-1,923,1513,0,0
-294,-489,0,0,0,0,0,0,0,0,0,-1,930,1513,0,0
-287,-489,0,0,0,0,0,0,0,0,0,-1,937,1513,0,0
-280,-489,0,0,0,0,0,0,0,0,0,-1,944,1513,0,0
-273,-489,0,0,0,0,0,0,0,0,0,-1,951,1513,0,0
-266,-489,0,0,0,0,0,0,0,0,0,-1,958,1513,0,0
-259,-489,0,0,0,0,0,0,0,0,0,-1,965,1513,0,0
-252,-489,0,0,0,0,0,0,0,0,0,-1,972,1513,0,0
-245,-489,0,0,0,0,0,0,0,0,0,-1,979,1513,0,0
-238,-489,0,0,0,0,0,0,0,0,0,-1,986,1513,0,0
-231,-489,0,0,0,0,0,0,0,0,0,-1,993,1513,0,0
-224,-489,0,0,0,0,0,0,0,0,0,-1,1000,1513,0,0
-217,-489,0,0,0,0,0,0,0,0,0,-1,1007,1513,0,0
-210,-489,0,0,0,0,0,0,0,0,0,-1,1014,1513,0,0
-203,-489,0,0,0,0,0,0,0,0,0,-1,1021,1513,0,0
-196,-489,0,0,0,0,0,0,0,0,0,-1,1028,1513,0,0
-189,-489,0,0,0,0,0,0,0,0,0,-1,1035,1513,0,0
-182,-489,0,0,0,0,0,0,0,0,0,-1,1042,1513,0,0
-175,-489,0,0,0,0,0,0,0,0,0,-1,1049,1513,0,0
-168,-489,0,0,0,0,0,0,0,0,0,-1,1056,1513,0,0
-161,-489,0,0,0,0,0,0,0,0,0,-1,1063,1513,0,0
-154,-489,0,0,0,0,0,0,0,0,0,-1,1070,1513,0,0
-147,-489,0,0,0,0,0,0,0,0,0,-1,1077,1513,0,0
-140,-489,0,0,0,0,0,0,0,0,0,-1,1084,1513,0,0
-133,-489,0,0,0,0,0,0,0,0,0,-1,1091,1513,0,0
-126,-489,0,0,0,0,0,0,0,0,0,-1,1098,1513,0,0
-119,-489,0,0,0,0,0,0,0,0,0,-1,1105,1513,0,0
-112,-489,0,0,0,0,0,0,0,0,0,-1,1112,1513,0,0
-105,-489,0,0,0,0,0,0,0,0,0,-1,1119,1513,0,0
-98,-489,0,0,0,0,0,0,0,0,0,-1,1126,1513,0,0
-91,-489,0,0,0,0,0,0,0,0,0,-1,1133,1513,0,0
-84,-489,0,0,0,0,0,0,0,0,0,-1,1140,1513,0,0
-77,-489,0,0,0,0,0,0,0,0,0,-1,1147,1513,0,0
-70,-489,0,0,0,0,0,0,0,0,0,-1,1154,1513,0,0
-63,-489,0,0,0,0,0,0,0,0,0,-1,1161,1513,0,0
-56,-489,0,0,0,0,0,0,0,0,0,-1,1168,1513,0,0
-49,-489,0,0,0,0,0,0,0,0,0,-1,1175,1513,0,0
-42,-489,0,0,0,0,0,0,0,0,0,-1,1182,1513,0,0
-35,-489,0,0,0,0,0,0,0,0,0,-1,1189,1513,0,0
-28,-489,0,0,0,0,0,0,0,0,0,-1,1196,1513,0,0
-21,-489,0,0,0,0,0,0,0,0,0,-1,1203,1513,0,0
-14,-489,0,0,0,0,0,0,0,0,0,-1,1210,1513,0,0
-7,-489,0,0,0,0,0,0,0,0,0,-1,1217,1513,0,0
0,-489,0,0,0,0,0,0,0,0,0,-1,1224,1513,0,0
7,-489,0,0,0,0,0,0,0,0,0,-1,1231,1513,0,0
14,-489,0,0,0,0,0,0,0,0,0,-1,1238,1513,0,0
21,-489,0,0,0,0,0,0,0,0,0,-1,1245,1513,0,0
28,-489,0,0,0,0,0,0,0,0,0,-1,1252,1513,0,0
35,-489,0,0,0,0,0,0,0,0,0,-1,1259,1513,0,0
42,-489,0,0,0,0,0,0,0,0,0,-1,1266,1513,0,0
49,-489,0,0,0,0,0,0,0,0,0,-1,1273,1513,0,0
56,-489,0,0,0,0,0,0,0,0,0,-1,1280,1513,0,0
63,-489,0,0,0,0,0,0,0,0,0,-1,1287,1513,0,0
70,-489,0,0,0,0,0,0,0,0,0,-1,1294,1513,0,0
77,-489,0,0,0,0,0,0,0,0,0,-1,1301,1513,0,0
84,-489,0,0,0,0,0,0,0,0,0,-1,1308,1513,0,0
91,-489,0,0,0,0,0,0,0,0,0,-1,1315,1513,0,0
98,-489,0,0,0,0,0,0,0,0,0,-1,1322,1513,0,0
105,-489,0,0,0,0,0,0,0,0,0,-1,1329,1513,0,0
112,-489,0,0,0,0,0,0,0,0,0,-1,1336,1513,0,0
119,-489,0,0,0,0,0,0,0,0,0,-1,1343,1513,0,0
126,-489,0,0,0,0,0,0,0,0,0,-1,1350,1513,0,0
133,-489,0,0,0,0,0,0,0,0,0,-1,1357,1513,0,0
140,-489,0,0,0,0,0,0,0,0,0,-1,1364,1513,0,0
147,-489,0,0,0,0,0,0,0,0,0,-1,1371,1513,0,0
154,-489,0,0,0,0,0,0,0,0,0,-1,1378,1513,0,0
161,-489,0,0,0,0,0,0,0,0,0,-1,1385,1513,0,0
168,-489,0,0,0,0,0,0,0,0,0,-1,1392,1513,0,0
175,-489,0,0,0,0,0,0,0,0,0,-1,1399,1513,0,0
182,-489,0,0,0,0,0,0,0,0,0,-1,1406,1513,0,0
189,-489,0,0,0,0,0,0,0,0,0,-1,1413,1513,0,0
196,-489,0,0,0,0,0,0,0,0,0,-1,1420,1513,0,0
203,-489,0,0,0,0,0,0,0,0,0,-1,1427,1513,0,0
210,-489,0,0,0,0,0,0,0,0,0,-1,1434,1513,0,0
217,-489,0,0,0,0,0,0,0,0,0,-1,1441,1513,0,0
224,-489,0,0,0,0,0,0,0,0,0,-1,1448,1513,0,0
231,-489,0,0,0,0,0,0,0,0,0,-1,1455,1513,0,0
238,-489,0,0,0,0,0,0,0,0,0,-1,1462,1513,0,0
245,-489,0,0,0,0,0,0,0,0,0,-1,1469,1513,0,0
252,-489,0,0,0,0,0,0,0,0,0,-1,1476,1513,0,0
259,-489,0,0,0,0,0,0,0,0,0,-1,1483,1513,0,0
266,-489,0,0,0,0,0,0,0,0,0,-1,1490,1513,0,0
273,-489,0,0,0,0,0,0,0,0,0,-1,1497,1513,0,0
280,-489,0,0,0,0,0,0,0,0,0,-1,1504,1513,0,0
287,-489,0,0,0,0,0,0,0,0,0,-1,1511,1513,0,0
294,-489,0,0,0,0,0,0,0,0,0,-1,1518,1513,0,0
301,-489,0,0,0,0,0,0,0,0,0,-1,1525,1513,0,0
308,-489,0,0,0,0,0,0,0,0,0,-1,1532,1513,0,0
315,-489,0,0,0,0,0,0,0,0,0,-1,1539,1513,0,0
322,-489,0,0,0,0,0,0,0,0,0,-1,1546,1513,0,0
329,-489,0,0,0,0,0,0,0,0,0,-1,1553,1513,0,0
336,-489,0,0,0,0,0,0,0,0,0,-1,1560,1513,0,0
343,-489,0,0,0,0,0,0,0,0,0,-1,1567,1513,0,0
350,-489,0,0,0,0,0,0,0,0,0,-1,1574,1513,0,0
357,-489,0,0,0,0,0,0,0,0,0,-1,1581,1513,0,0
364,-489,0,0,0,0,0,0,0,0,0,-1,1588,1513,0,0
371,-489,0,0,0,0,0,0,0,0,0,-1,1595,1513,0,0
378,-489,0,0,0,0,0,0,0,0,0,-1,1602,1513,0,0
385,-489,0,0,0,0,0,0,0,0,0,-1,1609,1513,0,0
392,-489,0,0,0,0,0,0,0,0,0,-1,1616,1513,0,0
399,-489,0,0,0,0,0,0,0,0,0,-1,1623,1513,0,0
406,-489,0,0,0,0,0,0,0,0,0,-1,1630,1513,0,0
413,-489,0,0,0,0,0,0,0,0,0,-1,1637,1513,0,0
420,-489,0,0,0,0,0,0,0,0,0,-1,1644,1513,0,0
427,-489,0,0,0,0,0,0,0,0,0,-1,1651,1513,0,0
434,-489,0,0,0,0,0,0,0,0,0,-1,1658,1513,0,0
441,-489,11.4602,2.56787,0,0,0,0,0,0,0,-1,1665,1513,11.4602,-2.56786
448,-489,12.4425,1.72351,0,0,0,0,0,0,0,-1,1672,1513,12.4425,-1.72349
455,-489,12.5575,1.37463,0,0,0,0,0,0,0,-1,1679,1513,12.5575,-1.37469
462,-489,14.9784,3.84888,0,0,0,0,0,0,0,-1,1686,1513,14.9784,-3.84892
469,-489,15.1367,4.53101,0,0,0,0,0,0,0,-1,1693,1513,15.1368,-4.531
476,-489,15.5536,5.09338,0,0,0,0,0,0,0,-1,1700,1513,15.5536,-5.09339
483,-489,8.96912,8.37805,0,0,0,0,0,0,0,-1,1707,1513,8.96909,-8.37809
490,-489,10.5366,7.49561,0,0,0,0,0,0,0,-1,1714,1513,10.5367,-7.49558
497,-489,14.6051,11.8397,0,0,0,0,0,0,0,-1,1721,1513,14.6051,-11.8397
504,-489,16.7527,14.1735,0,0,0,0,0,0,0,-1,1728,1513,16.7527,-14.1735
511,-489,17.83,17.7993,0,0,0,0,0,0,0,-1,1735,1513,17.83,-17.7993
518,-489,16.4751,14.3682,0,0,0,0,0,0,0,-1,1742,1513,16.4751,-14.3682
525,-489,17.2606,17.4949,0,0,0,0,0,0,0,-1,1749,1513,17.2606,-17.4949
532,-489,19.397,21.0182,0,0,0,0,0,0,0,-1,1756,1513,19.397,-21.0182
539,-489,25.801,28.0342,0,0,0,0,0,0,0,-1,1763,1513,25.801,-28.0342
546,-489,25.9861,27.1749,0.00871481,0.005914,-0.00498744,0.0124947,0.00213409,-0.648529,0.00771744,0.0382048,1770,1513,25.986,-27.1749
553,-489,25.9658,26.3708,0.00682231,0.00430427,-0.00359467,0.00937207,0.00175451,-0.616951,0.00575309,0.0218674,1777,1513,25.9658,-26.3708
560,-489,25.9735,25.6685,0.00533908,0.00301627,-0.00255726,0.00698631,0.00136904,-0.572245,0.0042749,0.0145319,1784,1513,25.9735,-25.6685
567,-489,25.984,25.0426,0.00425013,0.0020835,-0.00188619,0.00534197,0.000991664,-0.524729,0.0032811,0.0155217,1791,1513,25.984,-25.0426
574,-489,25.9323,24.4313,0.0035334,0.0014668,-0.00151222,0.00433163,0.000668568,-0.485683,0.00269271,0.015395,1798,1513,25.9323,-24.4312
581,-489,25.9152,23.7656,0.00303186,0.000982085,-0.00124364,0.00361851,0.000395437,-0.440766,0.00229192,0.0111599,1805,1513,25.9152,-23.7656
588,-489,25.877,23.1088,0.00281301,0.000664452,-0.0011283,0.00329665,0.000180807,-0.404959,0.00214005,0.0133784,1812,1513,25.877,-23.1088
595,-489,25.8453,22.4752,0.00294267,0.000384658,-0.00109131,0.00334498,-1.76521e-05,-0.35319,0.00223589,0.0195519,1819,1513,25.8454,-22.4752
602,-489,25.8179,21.8346,0.00321832,0.000244329,-0.00115264,0.00361274,-0.000150094,-0.329701,0.00246005,0.025442,1826,1513,25.8178,-21.8346
609,-489,25.7927,21.1989,0.00367947,0.000137502,-0.00121605,0.00405677,-0.000239805,-0.300855,0.00278789,0.0183208,1833,1513,25.7928,-21.1989
616,-489,25.7793,20.5059,0.00454266,-9.93821e-05,-0.00121659,0.00484218,-0.000398901,-0.241395,0.00336897,0.0205032,1840,1513,25.7793,-20.5058
623,-489,25.8596,19.8547,0,0,0,0,0,0,0,-1,1847,1513,25.8597,-19.8547
630,-489,25.8995,19.2047,0,0,0,0,0,0,0,-1,1854,1513,25.8995,-19.2047
637,-489,17.2048,11.8091,0,0,0,0,0,0,0,-1,1861,1513,17.2048,-11.8091
644,-489,9.67578,8.45874,0,0,0,0,0,0,0,-1,1868,1513,9.67576,-8.45879
651,-489,6.13818,6.85095,0,0,0,0,0,0,0,-1,1875,1513,6.13823,-6.85097
658,-489,5.43848,7.75513,0,0,0,0,0,0,0,-1,1882,1513,5.43844,-7.75509
665,-489,5.48438,8.59912,0,0,0,0,0,0,0,-1,1889,1513,5.48434,-8.59907
672,-489,0,0,0,0,0,0,0,0,0,-1,1896,1513,0,0
679,-489,0,0,0,0,0,0,0,0,0,-1,1903,1513,0,0
686,-489,0,0,0,0,0,0,0,0,0,-1,1910,1513,0,0
693,-489,0,0,0,0,0,0,0,0,0,-1,1917,1513,0,0
700,-489,0,0,0,0,0,0,0,0,0,-1,1924,1513,0,0
707,-489,0,0,0,0,0,0,0,0,0,-1,1931,1513,0,0
714,-489,0,0,0,0,0,0,0,0,0,-1,1938,1513,0,0
721,-489,0,0,0,0,0,0,0,0,0,-1,1945,1513,0,0
728,-489,0,0,0,0,0,0,0,0,0,-1,1952,1513,0,0
735,-489,0,0,0,0,0,0,0,0,0,-1,1959,1513,0,0
742,-489,0,0,0,0,0,0,0,0,0,-1,1966,1513,0,0
749,-489,0,0,0,0,0,0,0,0,0,-1,1973,1513,0,0
756,-489,0,0,0,0,0,0,0,0,0,-1,1980,1513,0,0
763,-489,0,0,0,0,0,0,0,0,0,-1,1987,1513,0,0
770,-489,0,0,0,0,0,0,0,0,0,-1,1994,1513,0,0
777,-489,0,0,0,0,0,0,0,0,0,-1,2001,1513,0,0
784,-489,0,0,0,0,0,0,0,0,0,-1,2008,1513,0,0
791,-489,0,0,0,0,0,0,0,0,0,-1,2015,1513,0,0
798,-489,0,0,0,0,0,0,0,0,0,-1,2022,1513,0,0
805,-489,0,0,0,0,0,0,0,0,0,-1,2029,1513,0,0
812,-489,0,0,0,0,0,0,0,0,0,-1,2036,1513,0,0
-700,-496,0,0,0,0,0,0,0,0,0,-1,524,1520,0,0
-693,-496,0,0,0,0,0,0,0,0,0,-1,531,1520,0,0
-686,-496,0,0,0,0,0,0,0,0,0,-1,538,1520,0,0
-679,-496,0,0,0,0,0,0,0,0,0,-1,545,1520,0,0
-672,-496,0,0,0,0,0,0,0,0,0,-1,552,1520,0,0
-665,-496,0,0,0,0,0,0,0,0,0,-1,559,1520,0,0
-658,-496,0,0,0,0,0,0,0,0,0,-1,566,1520,0,0
-651,-496,0,0,0,0,0,0,0,0,0,-1,573,1520,0,0
-644,-496,0,0,0,0,0,0,0,0,0,-1,580,1520,0,0
-637,-496,0,0,0,0,0,0,0,0,0,-1,587,1520,0,0
-630,-496,0,0,0,0,0,0,0,0,0,-1,594,1520,0,0
-623,-496,0,0,0,0,0,0,0,0,0,-1,601,1520,0,0
-616,-496,0,0,0,0,0,0,0,0,0,-1,608,1520,0,0
-609,-496,0,0,0,0,0,0,0,0,0,-1,615,1520,0,0
-602,-496,0,0,0,0,0,0,0,0,0,-1,622,1520,0,0
-595,-496,0,0,0,0,0,0,0,0,0,-1,629,1520,0,0
-588,-496,0,0,0,0,0,0,0,0,0,-1,636,1520,0,0
-581,-496,0,0,0,0,0,0,0,0,0,-1,643,1520,0,0
-574,-496,0,0,0,0,0,0,0,0,0,-1,650,1520,0,0
-567,-496,0,0,0,0,0,0,0,0,0,-1,657,1520,0,0
-560,-496,0,0,0,0,0,0,0,0,0,-1,664,1520,0,0
-553,-496,0,0,0,0,0,0,0,0,0,-1,671,1520,0,0
-546,-496,-8.09711,7.94836,0,0,0,0,0,0,0,-1,678,1520,-8.09712,-7.94842
-539,-496,-3.20129,1.16052,0,0,0,0,0,0,0,-1,685,1520,-3.20131,-1.16054
-532,-496,-2.98279,2.62146,0,0,0,0,0,0,0,-1,692,1520,-2.98278,-2.62151
-525,-496,-2.75201,4.08032,0,0,0,0,0,0,0,-1,699,1520,-2.75201,-4.08031
-518,-496,-2.6333,5.36072,0,0,0,0,0,0,0,-1,706,1520,-2.63328,-5.36077
-511,-496,-7.92126,9.68604,0,0,0,0,0,0,0,-1,713,1520,-7.92127,-9.68598
-504,-496,-7.51044,11.6274,0,0,0,0,0,0,0,-1,720,1520,-7.51042,-11.6275
-497,-496,-5.30933,14.4291,0,0,0,0,0,0,0,-1,727,1520,-5.30932,-14.4291
-490,-496,-7.24823,18.7742,0,0,0,0,0,0,0,-1,734,1520,-7.2482,-18.7742
-483,-496,-7.28857,19.5703,-0.00709229,0.00356452,0.00252822,0.00413389,-0.00766167,1.34928,0.00691095,0.0469945,741,1520,-7.28859,-19.5703
-476,-496,-7.43518,20.0795,-0.00563632,0.00185167,0.00153911,0.00215568,-0.00594034,1.37578,0.00484149,0.0202706,748,1520,-7.43518,-20.0795
-469,-496,-7.43842,20.8093,-0.00417846,0.000827886,0.001024,0.00102924,-0.00437981,1.37664,0.00331662,0.0107452,755,1520,-7.4384,-20.8093
-462,-496,-7.4704,21.4902,-0.00274825,0.000413018,0.000786658,0.000597953,-0.00293319,1.3399,0.00218226,0.0160319,762,1520,-7.47042,-21.4902
-455,-496,-7.49469,22.1552,-0.00139015,0.000420546,0.000784671,0.000713265,-0.00168287,1.21374,0.00142066,0.0220018,769,1520,-7.49467,-22.1552
-448,-496,-7.53461,22.854,-0.000104197,0.000910923,0.00105888,0.00157761,-0.00077088,1.00889,0.00138231,0.0199482,776,1520,-7.5346,-22.854
-441,-496,-7.57019,23.5354,0.00112011,0.00168035,0.00153259,0.00295821,-0.000157743,0.875788,0.00202677,0.0145424,783,1520,-7.5702,-23.5355
-434,-496,-7.60248,24.2051,0.00232706,0.00304703,0.0023389,0.00505348,0.000320608,0.861756,0.00326737,0.014281,790,1520,-7.60249,-24.2051
-427,-496,-7.63812,24.879,0.00344439,0.00469968,0.00331478,0.00744571,0.000698361,0.878965,0.00474817,0.0178119,797,1520,-7.63814,-24.879
-420,-496,-7.63867,25.5253,0.00447869,0.00663863,0.00457948,0.0102638,0.000853563,0.901197,0.00657647,0.0184234,804,1520,-7.63865,-25.5253
-413,-496,-7.58881,26.2561,0.00558356,0.00889078,0.00609857,0.0135559,0.000918388,0.917788,0.00874725,0.0320556,811,1520,-7.58883,-26.2561
-406,-496,-7.45862,26.9873,0,0,0,0,0,0,0,-1,818,1520,-7.4586,-26.9873
-399,-496,-7.10388,28.1826,0,0,0,0,0,0,0,-1,825,1520,-7.10389,-28.1826
-392,-496,-1.49786,12.387,0,0,0,0,0,0,0,-1,832,1520,-1.49788,-12.387
-385,-496,-1.72437,11.4985,0,0,0,0,0,0,0,-1,839,1520,-1.72436,-11.4985
-378,-496,-1.45532,14.0719,0,0,0,0,0,0,0,-1,846,1520,-1.45533,-14.0719
-371,-496,0.0877075,12.5299,0,0,0,0,0,0,0,-1,853,1520,0.0876896,-12.5299
-364,-496,0.0881348,10.6422,0,0,0,0,0,0,0,-1,860,1520,0.0881368,-10.6423
-357,-496,0.323792,7.56812,0,0,0,0,0,0,0,-1,867,1520,0.323782,-7.56806
-350,-496,2.1535,7.18945,0,0,0,0,0,0,0,-1,874,1520,2.15348,-7.1894
-343,-496,-7.56244,0.335327,0,0,0,0,0,0,0,-1,881,1520,-7.56242,-0.335322
-336,-496,-3.99249,6.02222,0,0,0,0,0,0,0,-1,888,1520,-3.99246,-6.0222
-329,-496,-6.93689,-0.100342,0,0,0,0,0,0,0,-1,895,1520,-6.93686,0.1003
-322,-496,-6.17505,0.494385,0,0,0,0,0,0,0,-1,902,1520,-6.17507,-0.49437
-315,-496,-7.539,5.78638,0,0,0,0,0,0,0,-1,909,1520,-7.53898,-5.78633
-308,-496,0,0,0,0,0,0,0,0,0,-1,916,1520,0,0
-301,-496,0,0,0,0,0,0,0,0,0,-1,923,1520,0,0
-294,-496,0,0,0,0,0,0,0,0,0,-1,930,1520,0,0
-287,-496,0,0,0,0,0,0,0,0,0,-1,937,1520,0,0
-280,-496,0,0,0,0,0,0,0,0,0,-1,944,1520,0,0
-273,-496,0,0,0,0,0,0,0,0,0,-1,951,1520,0,0
-266,-496,0,0,0,0,0,0,0,0,0,-1,958,1520,0,0
-259,-496,0,0,0,0,0,0,0,0,0,-1,965,1520,0,0
-252,-496,0,0,0,0,0,0,0,0,0,-1,972,1520,0,0
-245,-496,0,0,0,0,0,0,0,0,0,-1,979,1520,0,0
-238,-496,0,0,0,0,0,0,0,0,0,-1,986,1520,0,0
-231,-496,0,0,0,0,0,0,0,0,0,-1,993,1520,0,0
-224,-496,0,0,0,0,0,0,0,0,0,-1,1000,1520,0,0
-217,-496,0,0,0,0,0,0,0,0,0,-1,1007,1520,0,0
-210,-496,0,0,0,0,0,0,0,0,0,-1,1014,1520,0,0
-203,-496,0,0,0,0,0,0,0,0,0,-1,1021,1520,0,0
-196,-496,0,0,0,0,0,0,0,0,0,-1,1028,1520,0,0
-189,-496,0,0,0,0,0,0,0,0,0,-1,1035,1520,0,0
-182,-496,0,0,0,0,0,0,0,0,0,-1,1042,1520,0,0
-175,-496,0,0,0,0,0,0,0,0,0,-1,1049,1520,0,0
-168,-496,0,0,0,0,0,0,0,0,0,-1,1056,1520,0,0
-161,-496,0,0,0,0,0,0,0,0,0,-1,1063,1520,0,0
-154,-496,0,0,0,0,0,0,0,0,0,-1,1070,1520,0,0
-147,-496,0,0,0,0,0,0,0,0,0,-1,1077,1520,0,0
-140,-496,0,0,0,0,0,0,0,0,0,-1,1084,1520,0,0
-133,-496,0,0,0,0,0,0,0,0,0,-1,1091,1520,0,0
-126,-496,0,0,0,0,0,0,0,0,0,-1,1098,1520,0,0
-119,-496,0,0,0,0,0,0,0,0,0,-1,1105,1520,0,0
-112,-496,0,0,0,0,0,0,0,0,0,-1,1112,1520,0,0
-105,-496,0,0,0,0,0,0,0,0,0,-1,1119,1520,0,0
-98,-496,0,0,0,0,0,0,0,0,0,-1,1126,1520,0,0
-91,-496,0,0,0,0,0,0,0,0,0,-1,1133,1520,0,0
-84,-496,0,0,0,0,0,0,0,0,0,-1,1140,1520,0,0
-77,-496,0,0,0,0,0,0,0,0,0,-1,1147,1520,0,0
-70,-496,0,0,0,0,0,0,0,0,0,-1,1154,1520,0,0
-63,-496,0,0,0,0,0,0,0,0,0,-1,1161,1520,0,0
-56,-496,0,0,0,0,0,0,0,0,0,-1,1168,1520,0,0
-49,-496,0,0,0,0,0,0,0,0,0,-1,1175,1520,0,0
-42,-496,0,0,0,0,0,0,0,0,0,-1,1182,1520,0,0
-35,-496,0,0,0,0,0,0,0,0,0,-1,1189,1520,0,0
-28,-496,0,0,0,0,0,0,0,0,0,-1,1196,1520,0,0
-21,-496,0,0,0,0,0,0,0,0,0,-1,1203,1520,0,0
-14,-496,0,0,0,0,0,0,0,0,0,-1,1210,1520,0,0
-7,-496,0,0,0,0,0,0,0,0,0,-1,1217,1520,0,0
0,-496,0,0,0,0,0,0,0,0,0,-1,1224,1520,0,0
7,-496,0,0,0,0,0,0,0,0,0,-1,1231,1520,0,0
14,-496,0,0,0,0,0,0,0,0,0,-1,1238,1520,0,0
21,-496,0,0,0,0,0,0,0,0,0,-1,1245,1520,0,0
28,-496,0,0,0,0,0,0,0,0,0,-1,1252,1520,0,0
35,-496,0,0,0,0,0,0,0,0,0,-1,1259,1520,0,0
42,-496,0,0,0,0,0,0,0,0,0,-1,1266,1520,0,0
49,-496,0,0,0,0,0,0,0,0,0,-1,1273,1520,0,0
56,-496,0,0,0,0,0,0,0,0,0,-1,1280,1520,0,0
63,-496,0,0,0,0,0,0,0,0,0,-1,1287,1520,0,0
70,-496,0,0,0,0,0,0,0,0,0,-1,1294,1520,0,0
77,-496,0,0,0,0,0,0,0,0,0,-1,1301,1520,0,0
84,-496,0,0,0,0,0,0,0,0,0,-1,1308,1520,0,0
91,-496,0,0,0,0,0,0,0,0,0,-1,1315,1520,0,0
98,-496,0,0,0,0,0,0,0,0,0,-1,1322,1520,0,0
105,-496,0,0,0,0,0,0,0,0,0,-1,1329,1520,0,0
112,-496,0,0,0,0,0,0,0,0,0,-1,1336,1520,0,0
119,-496,0,0,0,0,0,0,0,0,0,-1,1343,1520,0,0
126,-496,0,0,0,0,0,0,0,0,0,-1,1350,1520,0,0
133,-496,0,0,0,0,0,0,0,0,0,-1,1357,1520,0,0
140,-496,0,0,0,0,0,0,0,0,0,-1,1364,1520,0,0
147,-496,0,0,0,0,0,0,0,0,0,-1,1371,1520,0,0
154,-496,0,0,0,0,0,0,0,0,0,-1,1378,1520,0,0
161,-496,0,0,0,0,0,0,0,0,0,-1,1385,1520,0,0
168,-496,0,0,0,0,0,0,0,0,0,-1,1392,1520,0,0
175,-496,0,0,0,0,0,0,0,0,0,-1,1399,1520,0,0
182,-496,0,0,0,0,0,0,0,0,0,-1,1406,1520,0,0
189,-496,0,0,0,0,0,0,0,0,0,-1,1413,1520,0,0
196,-496,0,0,0,0,0,0,0,0,0,-1,1420,1520,0,0
203,-496,0,0,0,0,0,0,0,0,0,-1,1427,1520,0,0
210,-496,0,0,0,0,0,0,0,0,0,-1,1434,1520,0,0
217,-496,0,0,0,0,0,0,0,0,0,-1,1441,1520,0,0
224,-496,0,0,0,0,0,0,0,0,0,-1,1448,1520,0,0
231,-496,0,0,0,0,0,0,0,0,0,-1,1455,1520,0,0
238,-496,0,0,0,0,0,0,0,0,0,-1,1462,1520,0,0
245,-496,0,0,0,0,0,0,0,0,0,-1,1469,1520,0,0
252,-496,0,0,0,0,0,0,0,0,0,-1,1476,1520,0,0
259,-496,0,0,0,0,0,0,0,0,0,-1,1483,1520,0,0
266,-496,0,0,0,0,0,0,0,0,0,-1,1490,1520,0,0
273,-496,0,0,0,0,0,0,0,0,0,-1,1497,1520,0,0
280,-496,0,0,0,0,0,0,0,0,0,-1,1504,1520,0,0
287,-496,0,0,0,0,0,0,0,0,0,-1,1511,1520,0,0
294,-496,0,0,0,0,0,0,0,0,0,-1,1518,1520,0,0
301,-496,0,0,0,0,0,0,0,0,0,-1,1525,1520,0,0
308,-496,0,0,0,0,0,0,0,0,0,-1,1532,1520,0,0
315,-496,0,0,0,0,0,0,0,0,0,-1,1539,1520,0,0
322,-496,0,0,0,0,0,0,0,0,0,-1,1546,1520,0,0
329,-496,0,0,0,0,0,0,0,0,0,-1,1553,1520,0,0
336,-496,0,0,0,0,0,0,0,0,0,-1,1560,1520,0,0
343,-496,0,0,0,0,0,0,0,0,0,-1,1567,1520,0,0
350,-496,0,0,0,0,0,0,0,0,0,-1,1574,1520,0,0
357,-496,0,0,0,0,0,0,0,0,0,-1,1581,1520,0,0
364,-496,0,0,0,0,0,0,0,0,0,-1,1588,1520,0,0
371,-496,0,0,0,0,0,0,0,0,0,-1,1595,1520,0,0
378,-496,0,0,0,0,0,0,0,0,0,-1,1602,1520,0,0
385,-496,0,0,0,0,0,0,0,0,0,-1,1609,1520,0,0
392,-496,0,0,0,0,0,0,0,0,0,-1,1616,1520,0,0
399,-496,0,0,0,0,0,0,0,0,0,-1,1623,1520,0,0
406,-496,0,0,0,0,0,0,0,0,0,-1,1630,1520,0,0
413,-496,0,0,0,0,0,0,0,0,0,-1,1637,1520,0,0
420,-496,0,0,0,0,0,0,0,0,0,-1,1644,1520,0,0
427,-496,0,0,0,0,0,0,0,0,0,-1,1651,1520,0,0
434,-496,11.0457,3.37732,0,0,0,0,0,0,0,-1,1658,1520,11.0456,-3.37736
441,-496,11.788,2.75488,0,0,0,0,0,0,0,-1,1665,1520,11.7879,-2.75485
448,-496,12.2146,2.18494,0,0,0,0,0,0,0,-1,1672,1520,12.2146,-2.18489
455,-496,12.3489,1.65173,0,0,0,0,0,0,0,-1,1679,1520,12.3489,-1.65178
462,-496,12.1912,1.32361,0,0,0,0,0,0,0,-1,1686,1520,12.1911,-1.32357
469,-496,14.8138,5.77954,0,0,0,0,0,0,0,-1,1693,1520,14.8138,-5.77958
476,-496,15.2449,6.27942,0,0,0,0,0,0,0,-1,1700,1520,15.2449,-6.27936
483,-496,9.19812,6.88367,0,0,0,0,0,0,0,-1,1707,1520,9.19812,-6.88361
490,-496,10.2123,7.97144,0,0,0,0,0,0,0,-1,1714,1520,10.2122,-7.97145
497,-496,13.9297,12.2981,0,0,0,0,0,0,0,-1,1721,1520,13.9297,-12.2982
504,-496,16.3271,16.6501,0,0,0,0,0,0,0,-1,1728,1520,16.3272,-16.6502
511,-496,17.6753,18.0685,0,0,0,0,0,0,0,-1,1735,1520,17.6753,-18.0685
518,-496,17.0537,17.3118,0,0,0,0,0,0,0,-1,1742,1520,17.0538,-17.3118
525,-496,18.2721,19.3259,0,0,0,0,0,0,0,-1,1749,1520,18.2721,-19.3259
532,-496,25.4279,27.8551,0,0,0,0,0,0,0,-1,1756,1520,25.4279,-27.8552
539,-496,25.0756,27.9003,0,0,0,0,0,0,0,-1,1763,1520,25.0755,-27.9003
546,-496,25.2589,27.0626,0.00740217,0.00535703,-0.00451107,0.0110051,0.00175409,-0.673942,0.00682757,0.0215118,1770,1520,25.2589,-27.0626
553,-496,25.3772,26.3049,0.00575912,0.00387492,-0.00322192,0.00817385,0.00146019,-0.643162,0.0050336,0.0156412,1777,1520,25.3772,-26.3049
560,-496,25.3638,25.6943,0.00451852,0.0026852,-0.0022687,0.00604875,0.00115498,-0.593404,0.00370796,0.0148286,1784,1520,25.3637,-25.6943
567,-496,25.3372,25.0602,0.00368646,0.0018532,-0.00170583,0.00470634,0.000833319,-0.538858,0.00289998,0.0123691,1791,1520,25.3371,-25.0602
574,-496,25.2998,24.4003,0.00318376,0.00127147,-0.00138358,0.00390943,0.000545801,-0.483045,0.00244475,0.0124048,1798,1520,25.2998,-24.4003
581,-496,25.262,23.7693,0.00290395,0.000810886,-0.00118204,0.00343617,0.000278667,-0.423065,0.00220377,0.013564,1805,1520,25.262,-23.7693
588,-496,25.2445,23.1315,0.00291215,0.000543912,-0.00116201,0.00338707,6.89946e-05,-0.387987,0.0022354,0.0159306,1812,1520,25.2445,-23.1315
595,-496,25.2073,22.5192,0.00327445,0.000344289,-0.00124248,0.00373036,-0.000111626,-0.351685,0.00252494,0.0169698,1819,1520,25.2073,-22.5192
602,-496,25.1792,21.8927,0.00381305,0.000342419,-0.0014449,0.00433584,-0.000180371,-0.347165,0.00295252,0.0181396,1826,1520,25.1792,-21.8927
609,-496,25.1797,21.1903,0.00453547,0.000347152,-0.00166639,0.00511757,-0.000234947,-0.336067,0.00349267,0.0183897,1833,1520,25.1797,-21.1903
616,-496,25.2659,20.406,0.00582425,0.000216943,-0.00183443,0.00637106,-0.000329869,-0.289697,0.00436149,0.0448551,1840,1520,25.2659,-20.4061
623,-496,25.2692,19.7571,0,0,0,0,0,0,0,-1,1847,1520,25.2691,-19.757
630,-496,18.5656,13.8966,0,0,0,0,0,0,0,-1,1854,1520,18.5655,-13.8967
637,-496,14.6411,10.1016,0,0,0,0,0,0,0,-1,1861,1520,14.6411,-10.1016
644,-496,12.4537,10.087,0,0,0,0,0,0,0,-1,1868,1520,12.4537,-10.0871
651,-496,8.18506,5.47803,0,0,0,0,0,0,0,-1,1875,1520,8.18505,-5.47806
658,-496,7.79993,4.02563,0,0,0,0,0,0,0,-1,1882,1520,7.79997,-4.02568
665,-496,5.47583,7.90625,0,0,0,0,0,0,0,-1,1889,1520,5.47581,-7.90628
672,-496,0,0,0,0,0,0,0,0,0,-1,1896,1520,0,0
679,-496,0,0,0,0,0,0,0,0,0,-1,1903,1520,0,0
686,-496,0,0,0,0,0,0,0,0,0,-1,1910,1520,0,0
693,-496,0,0,0,0,0,0,0,0,0,-1,1917,1520,0,0
700,-496,0,0,0,0,0,0,0,0,0,-1,1924,1520,0,0
707,-496,0,0,0,0,0,0,0,0,0,-1,1931,1520,0,0
714,-496,0,0,0,0,0,0,0,0,0,-1,1938,1520,0,0
721,-496,0,0,0,0,0,0,0,0,0,-1,1945,1520,0,0
728,-496,0,0,0,0,0,0,0,0,0,-1,1952,1520,0,0
735,-496,0,0,0,0,0,0,0,0,0,-1,1959,1520,0,0
742,-496,0,0,0,0,0,0,0,0,0,-1,1966,1520,0,0
749,-496,0,0,0,0,0,0,0,0,0,-1,1973,1520,0,0
756,-496,0,0,0,0,0,0,0,0,0,-1,1980,1520,0,0
763,-496,0,0,0,0,0,0,0,0,0,-1,1987,1520,0,0
770,-496,0,0,0,0,0,0,0,0,0,-1,1994,1520,0,0
777,-496,0,0,0,0,0,0,0,0,0,-1,2001,1520,0,0
784,-496,0,0,0,0,0,0,0,0,0,-1,2008,1520,0,0
791,-496,0,0,0,0,0,0,0,0,0,-1,2015,1520,0,0
798,-496,0,0,0,0,0,0,0,0,0,-1,2022,1520,0,0
805,-496,0,0,0,0,0,0,0,0,0,-1,2029,1520,0,0
812,-496,0,0,0,0,0,0,0,0,0,-1,2036,1520,0,0
-700,-503,0,0,0,0,0,0,0,0,0,-1,524,1527,0,0
-693,-503,0,0,0,0,0,0,0,0,0,-1,531,1527,0,0
-686,-503,0,0,0,0,0,0,0,0,0,-1,538,1527,0,0
-679,-503,0,0,0,0,0,0,0,0,0,-1,545,1527,0,0
-672,-503,0,0,0,0,0,0,0,0,0,-1,552,1527,0,0
-665,-503,0,0,0,0,0,0,0,0,0,-1,559,1527,0,0
-658,-503,0,0,0,0,0,0,0,0,0,-1,566,1527,0,0
-651,-503,0,0,0,0,0,0,0,0,0,-1,573,1527,0,0
-644,-503,0,0,0,0,0,0,0,0,0,-1,580,1527,0,0
-637,-503,0,0,0,0,0,0,0,0,0,-1,587,1527,0,0
-630,-503,0,0,0,0,0,0,0,0,0,-1,594,1527,0,0
-623,-503,0,0,0,0,0,0,0,0,0,-1,601,1527,0,0
-616,-503,0,0,0,0,0,0,0,0,0,-1,608,1527,0,0
-609,-503,0,0,0,0,0,0,0,0,0,-1,615,1527,0,0
-602,-503,0,0,0,0,0,0,0,0,0,-1,622,1527,0,0
-595,-503,0,0,0,0,0,0,0,0,0,-1,629,1527,0,0
-588,-503,0,0,0,0,0,0,0,0,0,-1,636,1527,0,0
-581,-503,0,0,0,0,0,0,0,0,0,-1,643,1527,0,0
-574,-503,0,0,0,0,0,0,0,0,0,-1,650,1527,0,0
-567,-503,0,0,0,0,0,0,0,0,0,-1,657,1527,0,0
-560,-503,0,0,0,0,0,0,0,0,0,-1,664,1527,0,0
-553,-503,0,0,0,0,0,0,0,0,0,-1,671,1527,0,0
-546,-503,0,0,0,0,0,0,0,0,0,-1,678,1527,0,0
-539,-503,3.50177,4.26428,0,0,0,0,0,0,0,-1,685,1527,3.50177,-4.26424
-532,-503,-3.13196,1.05298,0,0,0,0,0,0,0,-1,692,1527,-3.13194,-1.05299
-525,-503,-2.94293,2.59314,0,0,0,0,0,0,0,-1,699,1527,-2.94296,-2.59314
-518,-503,-2.7395,4.05872,0,0,0,0,0,0,0,-1,706,1527,-2.73948,-4.05871
-511,-503,-1.60022,7.23877,0,0,0,0,0,0,0,-1,713,1527,-1.60023,-7.23872
-504,-503,-8.1402,10.1541,0,0,0,0,0,0,0,-1,720,1527,-8.14017,-10.1541
-497,-503,-4.51758,14.0781,0,0,0,0,0,0,0,-1,727,1527,-4.5176,-14.0782
-490,-503,-4.24194,16.1982,0,0,0,0,0,0,0,-1,734,1527,-4.24196,-16.1982
-483,-503,-6.77295,19.58,0,0,0,0,0,0,0,-1,741,1527,-6.77293,-19.5799
-476,-503,-6.65033,20.266,-0.00792307,0.00238294,0.00171221,0.00265996,-0.00820008,1.4104,0.00653634,0.0359369,748,1527,-6.6503,-20.2659
-469,-503,-6.7616,20.834,-0.00593192,0.000903639,0.00105071,0.0010615,-0.00608978,1.42167,0.00445603,0.0134343,755,1527,-6.76161,-20.8339
-462,-503,-6.80878,21.5466,-0.00410998,0.00018058,0.000688648,0.000288401,-0.0042178,1.41549,0.00291276,0.0123688,762,1527,-6.80876,-21.5466
-455,-503,-6.83893,22.2621,-0.00247583,-1.99789e-05,0.000584756,0.000112147,-0.00260796,1.34858,0.0017772,0.0191831,769,1527,-6.8389,-22.2621
-448,-503,-6.85938,22.9285,-0.00103997,0.000270545,0.000734041,0.000599248,-0.00136867,1.14977,0.00116477,0.0172477,776,1527,-6.85937,-22.9284
-441,-503,-6.86566,23.558,0.000248436,0.000885733,0.0010902,0.0017029,-0.00056873,0.92758,0.00136493,0.0130987,783,1527,-6.86567,-23.558
-434,-503,-6.92139,24.2114,0.00142842,0.00207743,0.00175196,0.00353468,-2.88385e-05,0.876972,0.00236613,0.0120338,790,1527,-6.92137,-24.2114
-427,-503,-6.97913,24.8655,0.00250118,0.00343221,0.0025303,0.00553947,0.000393933,0.876369,0.00356892,0.0189213,797,1527,-6.97913,-24.8654
-420,-503,-6.94269,25.509,0.00347023,0.0051168,0.00356285,0.00795025,0.000636788,0.898943,0.00510117,0.0188564,804,1527,-6.9427,-25.509
-413,-503,-6.96887,26.1951,0.00443284,0.00707808,0.00479422,0.0107288,0.000782148,0.919989,0.00690658,0.0171888,811,1527,-6.9689,-26.195
-406,-503,-6.99518,26.8783,0.00545533,0.00921667,0.00628145,0.0138929,0.000779058,0.930852,0.00901351,0.0263643,818,1527,-6.99518,-26.8783
-399,-503,-6.85907,27.7828,0.00735537,0.0117514,0.00821993,0.0180621,0.00104465,0.916042,0.0117087,0.0436061,825,1527,-6.85909,-27.7828
-392,-503,-6.5141,28.9388,0,0,0,0,0,0,0,-1,832,1527,-6.51411,-28.9388
-385,-503,-2.00403,14.1218,0,0,0,0,0,0,0,-1,839,1527,-2.00403,-14.1218
-378,-503,-2.07043,13.8632,0,0,0,0,0,0,0,-1,846,1527,-2.07043,-13.8631
-371,-503,-1.67285,13.8081,0,0,0,0,0,0,0,-1,853,1527,-1.67285,-13.8081
-364,-503,0.181396,12.3768,0,0,0,0,0,0,0,-1,860,1527,0.18138,-12.3768
-357,-503,0.558533,9.25452,0,0,0,0,0,0,0,-1,867,1527,0.558542,-9.25446
-350,-503,0.219971,6.84827,0,0,0,0,0,0,0,-1,874,1527,0.21996,-6.84831
-343,-503,-3.5802,4.43274,0,0,0,0,0,0,0,-1,881,1527,-3.58018,-4.43276
-336,-503,-3.2384,6.40637,0,0,0,0,0,0,0,-1,888,1527,-3.2384,-6.40643
-329,-503,-1.70691,11.886,0,0,0,0,0,0,0,-1,895,1527,-1.70689,-11.886
-322,-503,-3.31317,8.81519,0,0,0,0,0,0,0,-1,902,1527,-3.31315,-8.81524
-315,-503,-3.90265,7.73853,0,0,0,0,0,0,0,-1,909,1527,-3.90264,-7.73854
-308,-503,-1.70264,7.35413,0,0,0,0,0,0,0,-1,916,1527,-1.70262,-7.35416
-301,-503,0,0,0,0,0,0,0,0,0,-1,923,1527,0,0
-294,-503,0,0,0,0,0,0,0,0,0,-1,930,1527,0,0
-287,-503,0,0,0,0,0,0,0,0,0,-1,937,1527,0,0
-280,-503,0,0,0,0,0,0,0,0,0,-1,944,1527,0,0
-273,-503,0,0,0,0,0,0,0,0,0,-1,951,1527,0,0
-266,-503,0,0,0,0,0,0,0,0,0,-1,958,1527,0,0
-259,-503,0,0,0,0,0,0,0,0,0,-1,965,1527,0,0
-252,-503,0,0,0,0,0,0,0,0,0,-1,972,1527,0,0
-245,-503,0,0,0,0,0,0,0,0,0,-1,979,1527,0,0
-238,-503,0,0,0,0,0,0,0,0,0,-1,986,1527,0,0
-231,-503,0,0,0,0,0,0,0,0,0,-1,993,1527,0,0
-224,-503,0,0,0,0,0,0,0,0,0,-1,1000,1527,0,0
-217,-503,0,0,0,0,0,0,0,0,0,-1,1007,1527,0,0
-210,-503,0,0,0,0,0,0,0,0,0,-1,1014,1527,0,0
-203,-503,0,0,0,0,0,0,0,0,0,-1,1021,1527,0,0
-196,-503,0,0,0,0,0,0,0,0,0,-1,1028,1527,0,0
-189,-503,0,0,0,0,0,0,0,0,0,-1,1035,1527,0,0
-182,-503,0,0,0,0,0,0,0,0,0,-1,1042,1527,0,0
-175,-503,0,0,0,0,0,0,0,0,0,-1,1049,1527,0,0
-168,-503,0,0,0,0,0,0,0,0,0,-1,1056,1527,0,0
-161,-503,0,0,0,0,0,0,0,0,0,-1,1063,1527,0,0
-154,-503,0,0,0,0,0,0,0,0,0,-1,1070,1527,0,0
-147,-503,0,0,0,0,0,0,0,0,0,-1,1077,1527,0,0
-140,-503,0,0,0,0,0,0,0,0,0,-1,1084,1527,0,0
-133,-503,0,0,0,0,0,0,0,0,0,-1,1091,1527,0,0
-126,-503,0,0,0,0,0,0,0,0,0,-1,1098,1527,0,0
-119,-503,0,0,0,0,0,0,0,0,0,-1,1105,1527,0,0
-112,-503,0,0,0,0,0,0,0,0,0,-1,1112,1527,0,0
-105,-503,0,0,0,0,0,0,0,0,0,-1,1119,1527,0,0
-98,-503,0,0,0,0,0,0,0,0,0,-1,1126,1527,0,0
-91,-503,0,0,0,0,0,0,0,0,0,-1,1133,1527,0,0
-84,-503,0,0,0,0,0,0,0,0,0,-1,1140,1527,0,0
-77,-503,0,0,0,0,0,0,0,0,0,-1,1147,1527,0,0
-70,-503,0,0,0,0,0,0,0,0,0,-1,1154,1527,0,0
-63,-503,0,0,0,0,0,0,0,0,0,-1,1161,1527,0,0
-56,-503,0,0,0,0,0,0,0,0,0,-1,1168,1527,0,0
-49,-503,0,0,0,0,0,0,0,0,0,-1,1175,1527,0,0
-42,-503,0,0,0,0,0,0,0,0,0,-1,1182,1527,0,0
-35,-503,0,0,0,0,0,0,0,0,0,-1,1189,1527,0,0
-28,-503,0,0,0,0,0,0,0,0,0,-1,1196,1527,0,0
-21,-503,0,0,0,0,0,0,0,0,0,-1,1203,1527,0,0
-14,-503,0,0,0,0,0,0,0,0,0,-1,1210,1527,0,0
-7,-503,0,0,0,0,0,0,0,0,0,-1,1217,1527,0,0
0,-503,0,0,0,0,0,0,0,0,0,-1,1224,1527,0,0
7,-503,0,0,0,0,0,0,0,0,0,-1,1231,1527,0,0
14,-503,0,0,0,0,0,0,0,0,0,-1,1238,1527,0,0
21,-503,0,0,0,0,0,0,0,0,0,-1,1245,1527,0,0
28,-503,0,0,0,0,0,0,0,0,0,-1,1252,1527,0,0
35,-503,0,0,0,0,0,0,0,0,0,-1,1259,1527,0,0
42,-503,0,0,0,0,0,0,0,0,0,-1,1266,1527,0,0
49,-503,0,0,0,0,0,0,0,0,0,-1,1273,1527,0,0
56,-503,0,0,0,0,0,0,0,0,0,-1,1280,1527,0,0
63,-503,0,0,0,0,0,0,0,0,0,-1,1287,1527,0,0
70,-503,0,0,0,0,0,0,0,0,0,-1,1294,1527,0,0
77,-503,0,0,0,0,0,0,0,0,0,-1,1301,1527,0,0
84,-503,0,0,0,0,0,0,0,0,0,-1,1308,1527,0,0
91,-503,0,0,0,0,0,0,0,0,0,-1,1315,1527,0,0
98,-503,0,0,0,0,0,0,0,0,0,-1,1322,1527,0,0
105,-503,0,0,0,0,0,0,0,0,0,-1,1329,1527,0,0
112,-503,0,0,0,0,0,0,0,0,0,-1,1336,1527,0,0
119,-503,0,0,0,0,0,0,0,0,0,-1,1343,1527,0,0
126,-503,0,0,0,0,0,0,0,0,0,-1,1350,1527,0,0
133,-503,0,0,0,0,0,0,0,0,0,-1,1357,1527,0,0
140,-503,0,0,0,0,0,0,0,0,0,-1,1364,1527,0,0
147,-503,0,0,0,0,0,0,0,0,0,-1,1371,1527,0,0
154,-503,0,0,0,0,0,0,0,0,0,-1,1378,1527,0,0
161,-503,0,0,0,0,0,0,0,0,0,-1,1385,1527,0,0
168,-503,0,0,0,0,0,0,0,0,0,-1,1392,1527,0,0
175,-503,0,0,0,0,0,0,0,0,0,-1,1399,1527,0,0
182,-503,0,0,0,0,0,0,0,0,0,-1,1406,1527,0,0
189,-503,0,0,0,0,0,0,0,0,0,-1,1413,1527,0,0
196,-503,0,0,0,0,0,0,0,0,0,-1,1420,1527,0,0
203,-503,0,0,0,0,0,0,0,0,0,-1,1427,1527,0,0
210,-503,0,0,0,0,0,0,0,0,0,-1,1434,1527,0,0
217,-503,0,0,0,0,0,0,0,0,0,-1,1441,1527,0,0
224,-503,0,0,0,0,0,0,0,0,0,-1,1448,1527,0,0
231,-503,0,0,0,0,0,0,0,0,0,-1,1455,1527,0,0
238,-503,0,0,0,0,0,0,0,0,0,-1,1462,1527,0,0
245,-503,0,0,0,0,0,0,0,0,0,-1,1469,1527,0,0
252,-503,0,0,0,0,0,0,0,0,0,-1,1476,1527,0,0
259,-503,0,0,0,0,0,0,0,0,0,-1,1483,1527,0,0
266,-503,0,0,0,0,0,0,0,0,0,-1,1490,1527,0,0
273,-503,0,0,0,0,0,0,0,0,0,-1,1497,1527,0,0
280,-503,0,0,0,0,0,0,0,0,0,-1,1504,1527,0,0
287,-503,0,0,0,0,0,0,0,0,0,-1,1511,1527,0,0
294,-503,0,0,0,0,0,0,0,0,0,-1,1518,1527,0,0
301,-503,0,0,0,0,0,0,0,0,0,-1,1525,1527,0,0
308,-503,0,0,0,0,0,0,0,0,0,-1,1532,1527,0,0
315,-503,0,0,0,0,0,0,0,0,0,-1,1539,1527,0,0
322,-503,0,0,0,0,0,0,0,0,0,-1,1546,1527,0,0
329,-503,0,0,0,0,0,0,0,0,0,-1,1553,1527,0,0
336,-503,0,0,0,0,0,0,0,0,0,-1,1560,1527,0,0
343,-503,0,0,0,0,0,0,0,0,0,-1,1567,1527,0,0
350,-503,0,0,0,0,0,0,0,0,0,-1,1574,1527,0,0
357,-503,0,0,0,0,0,0,0,0,0,-1,1581,1527,0,0
364,-503,0,0,0,0,0,0,0,0,0,-1,1588,1527,0,0
371,-503,0,0,0,0,0,0,0,0,0,-1,1595,1527,0,0
378,-503,0,0,0,0,0,0,0,0,0,-1,1602,1527,0,0
385,-503,0,0,0,0,0,0,0,0,0,-1,1609,1527,0,0
392,-503,0,0,0,0,0,0,0,0,0,-1,1616,1527,0,0
399,-503,0,0,0,0,0,0,0,0,0,-1,1623,1527,0,0
406,-503,0,0,0,0,0,0,0,0,0,-1,1630,1527,0,0
413,-503,0,0,0,0,0,0,0,0,0,-1,1637,1527,0,0
420,-503,0,0,0,0,0,0,0,0,0,-1,1644,1527,0,0
427,-503,10.5968,4.9856,0,0,0,0,0,0,0,-1,1651,1527,10.5969,-4.98563
434,-503,11.4329,3.97217,0,0,0,0,0,0,0,-1,1658,1527,11.4328,-3.97222
441,-503,12.0957,2.96509,0,0,0,0,0,0,0,-1,1665,1527,12.0957,-2.96512
448,-503,12.3259,2.53894,0,0,0,0,0,0,0,-1,1672,1527,12.326,-2.53895
455,-503,12.1669,2.18762,0,0,0,0,0,0,0,-1,1679,1527,12.1668,-2.18767
462,-503,11.59,2.60791,0,0,0,0,0,0,0,-1,1686,1527,11.5899,-2.60794
469,-503,11.1625,1.61853,0,0,0,0,0,0,0,-1,1693,1527,11.1625,-1.61856
476,-503,9.07703,5.81042,0,0,0,0,0,0,0,-1,1700,1527,9.07699,-5.81047
483,-503,9.74414,6.92432,0,0,0,0,0,0,0,-1,1707,1527,9.74417,-6.9243
490,-503,10.5033,10.1071,0,0,0,0,0,0,0,-1,1714,1527,10.5032,-10.107
497,-503,15.0057,17.9476,0,0,0,0,0,0,0,-1,1721,1527,15.0058,-17.9476
504,-503,16.4764,18.4486,0,0,0,0,0,0,0,-1,1728,1527,16.4764,-18.4486
511,-503,16.8276,18.3271,0,0,0,0,0,0,0,-1,1735,1527,16.8276,-18.3272
518,-503,17.2533,18.2738,0,0,0,0,0,0,0,-1,1742,1527,17.2533,-18.2738
525,-503,21.2887,26.5785,0,0,0,0,0,0,0,-1,1749,1527,21.2887,-26.5785
532,-503,24.6525,28.3928,0,0,0,0,0,0,0,-1,1756,1527,24.6525,-28.3928
539,-503,24.6904,27.7039,0.00802219,0.0062233,-0.00535154,0.0125493,0.00169614,-0.70214,0.00786208,0.0289947,1763,1527,24.6904,-27.7038
546,-503,24.7297,26.9628,0.00619312,0.00469764,-0.00393862,0.00945435,0.00143642,-0.69159,0.00588284,0.0139949,1770,1527,24.7297,-26.9628
553,-503,24.733,26.3484,0.00481905,0.00333599,-0.00278071,0.0069554,0.00119963,-0.655096,0.00429329,0.0148565,1777,1527,24.7331,-26.3484
560,-503,24.6952,25.7328,0.00383182,0.00222684,-0.00192359,0.00511361,0.000945058,-0.587783,0.00314179,0.0139513,1784,1527,24.6952,-25.7328
567,-503,24.6741,25.0699,0.00325173,0.00148503,-0.00146498,0.00407907,0.000657687,-0.514096,0.00252882,0.0122841,1791,1527,24.6741,-25.07
574,-503,24.6665,24.4202,0.00297179,0.000945126,-0.00120381,0.00353199,0.000384926,-0.43555,0.00223742,0.0125641,1798,1527,24.6665,-24.4201
581,-503,24.6166,23.7999,0.00293132,0.000531242,-0.00108367,0.00334821,0.000114359,-0.367243,0.00219501,0.0140102,1805,1527,24.6166,-23.7999
588,-503,24.5909,23.1746,0.00318462,0.000339125,-0.00117237,0.00360542,-8.16709e-05,-0.344607,0.00243129,0.0183165,1812,1527,24.5909,-23.1746
595,-503,24.575,22.5416,0.0037876,0.000253643,-0.00139244,0.00427032,-0.000229069,-0.333701,0.00292622,0.0143105,1819,1527,24.5749,-22.5417
602,-503,24.6204,21.8535,0.00460987,0.000442548,-0.00177502,0.00526342,-0.000211008,-0.352792,0.00358136,0.0249179,1826,1527,24.6204,-21.8535
609,-503,24.666,21.0219,0,0,0,0,0,0,0,-1,1833,1527,24.666,-21.0219
616,-503,24.7585,20.486,0,0,0,0,0,0,0,-1,1840,1527,24.7586,-20.486
623,-503,18.7351,15.5999,0,0,0,0,0,0,0,-1,1847,1527,18.7351,-15.5999
630,-503,20.6721,13.9077,0,0,0,0,0,0,0,-1,1854,1527,20.6721,-13.9077
637,-503,14.5564,9.20496,0,0,0,0,0,0,0,-1,1861,1527,14.5564,-9.2049
644,-503,11.4802,7.57214,0,0,0,0,0,0,0,-1,1868,1527,11.4802,-7.57215
651,-503,11.5718,6.5448,0,0,0,0,0,0,0,-1,1875,1527,11.5718,-6.54476
658,-503,8.25635,3.10498,0,0,0,0,0,0,0,-1,1882,1527,8.2563,-3.10493
665,-503,0,0,0,0,0,0,0,0,0,-1,1889,1527,0,0
672,-503,0,0,0,0,0,0,0,0,0,-1,1896,1527,0,0
679,-503,0,0,0,0,0,0,0,0,0,-1,1903,1527,0,0
686,-503,0,0,0,0,0,0,0,0,0,-1,1910,1527,0,0
693,-503,0,0,0,0,0,0,0,0,0,-1,1917,1527,0,0
700,-503,0,0,0,0,0,0,0,0,0,-1,1924,1527,0,0
707,-503,0,0,0,0,0,0,0,0,0,-1,1931,1527,0,0
714,-503,0,0,0,0,0,0,0,0,0,-1,1938,1527,0,0
721,-503,0,0,0,0,0,0,0,0,0,-1,1945,1527,0,0
728,-503,0,0,0,0,0,0,0,0,0,-1,1952,1527,0,0
735,-503,0,0,0,0,0,0,0,0,0,-1,1959,1527,0,0
742,-503,0,0,0,0,0,0,0,0,0,-1,1966,1527,0,0
749,-503,0,0,0,0,0,0,0,0,0,-1,1973,1527,0,0
756,-503,0,0,0,0,0,0,0,0,0,-1,1980,1527,0,0
763,-503,0,0,0,0,0,0,0,0,0,-1,1987,1527,0,0
770,-503,0,0,0,0,0,0,0,0,0,-1,1994,1527,0,0
777,-503,0,0,0,0,0,0,0,0,0,-1,2001,1527,0,0
784,-503,0,0,0,0,0,0,0,0,0,-1,2008,1527,0,0
791,-503,0,0,0,0,0,0,0,0,0,-1,2015,1527,0,0
798,-503,0,0,0,0,0,0,0,0,0,-1,2022,1527,0,0
805,-503,0,0,0,0,0,0,0,0,0,-1,2029,1527,0,0
812,-503,0,0,0,0,0,0,0,0,0,-1,2036,1527,0,0
-700,-510,0,0,0,0,0,0,0,0,0,-1,524,1534,0,0
-693,-510,0,0,0,0,0,0,0,0,0,-1,531,1534,0,0
-686,-510,0,0,0,0,0,0,0,0,0,-1,538,1534,0,0
-679,-510,0,0,0,0,0,0,0,0,0,-1,545,1534,0,0
-672,-510,0,0,0,0,0,0,0,0,0,-1,552,1534,0,0
-665,-510,0,0,0,0,0,0,0,0,0,-1,559,1534,0,0
-658,-510,0,0,0,0,0,0,0,0,0,-1,566,1534,0,0
-651,-510,0,0,0,0,0,0,0,0,0,-1,573,1534,0,0
-644,-510,0,0,0,0,0,0,0,0,0,-1,580,1534,0,0
-637,-510,0,0,0,0,0,0,0,0,0,-1,587,1534,0,0
-630,-510,0,0,0,0,0,0,0,0,0,-1,594,1534,0,0
-623,-510,0,0,0,0,0,0,0,0,0,-1,601,1534,0,0
-616,-510,0,0,0,0,0,0,0,0,0,-1,608,1534,0,0
-609,-510,0,0,0,0,0,0,0,0,0,-1,615,1534,0,0
-602,-510,0,0,0,0,0,0,0,0,0,-1,622,1534,0,0
-595,-510,0,0,0,0,0,0,0,0,0,-1,629,1534,0,0
-588,-510,0,0,0,0,0,0,0,0,0,-1,636,1534,0,0
-581,-510,0,0,0,0,0,0,0,0,0,-1,643,1534,0,0
-574,-510,0,0,0,0,0,0,0,0,0,-1,650,1534,0,0
-567,-510,0,0,0,0,0,0,0,0,0,-1,657,1534,0,0
-560,-510,0,0,0,0,0,0,0,0,0,-1,664,1534,0,0
-553,-510,0,0,0,0,0,0,0,0,0,-1,671,1534,0,0
-546,-510,0,0,0,0,0,0,0,0,0,-1,678,1534,0,0
-539,-510,0,0,0,0,0,0,0,0,0,-1,685,1534,0,0
-532,-510,-3.95129,4.52014,0,0,0,0,0,0,0,-1,692,1534,-3.95131,-4.5202
-525,-510,-2.77411,0.316772,0,0,0,0,0,0,0,-1,699,1534,-2.77409,-0.3168
-518,-510,-2.86847,2.71423,0,0,0,0,0,0,0,-1,706,1534,-2.86849,-2.71424
-511,-510,-2.28571,4.48083,0,0,0,0,0,0,0,-1,713,1534,-2.28571,-4.48086
-504,-510,-4.86731,10.8224,0,0,0,0,0,0,0,-1,720,1534,-4.8673,-10.8224
-497,-510,-3.42352,15.5178,0,0,0,0,0,0,0,-1,727,1534,-3.42352,-15.5178
-490,-510,-5.55536,18.4905,0,0,0,0,0,0,0,-1,734,1534,-5.55536,-18.4905
-483,-510,-5.49274,19.2111,-0.0133212,0.00607802,0.00357332,0.00671529,-0.0139584,1.39431,0.0121777,0.0492256,741,1534,-5.49276,-19.211
-476,-510,-5.71643,20.1366,-0.0102914,0.00293358,0.00202018,0.00323529,-0.0105931,1.42254,0.00835206,0.0463817,748,1534,-5.71641,-20.1366
-469,-510,-6.05145,20.8821,-0.00772938,0.000927927,0.00114207,0.00107605,-0.00787751,1.44182,0.00564465,0.0183128,755,1534,-6.05144,-20.8821
-462,-510,-6.11798,21.549,-0.00550513,-0.00013844,0.000609675,-7.00506e-05,-0.00557352,1.45909,0.00369255,0.0124187,762,1534,-6.11796,-21.5489
-455,-510,-6.15771,22.271,-0.00361103,-0.00055854,0.000370395,-0.000514238,-0.00365533,1.45176,0.00228485,0.0154802,769,1534,-6.15774,-22.271
-448,-510,-6.16486,22.9338,-0.00202809,-0.000466711,0.000383266,-0.000377705,-0.0021171,1.34261,0.00130386,0.0138942,776,1534,-6.16486,-22.9339
-441,-510,-6.18951,23.5699,-0.000669667,1.56079e-05,0.000631463,0.000391404,-0.00104546,1.03397,0.000857746,0.0137883,783,1534,-6.18952,-23.57
-434,-510,-6.26178,24.23,0.000515788,0.00104697,0.00116717,0.00197838,-0.000415626,0.897269,0.00147709,0.0155223,790,1534,-6.26175,-24.23
-427,-510,-6.3233,24.8567,0.0016033,0.00214365,0.00178584,0.00367964,6.73174e-05,0.860472,0.00243096,0.0244881,797,1534,-6.3233,-24.8567
-420,-510,-6.31445,25.537,0.00258933,0.00363454,0.0026445,0.00580758,0.000416288,0.882951,0.00374069,0.022584,804,1534,-6.31447,-25.537
-413,-510,-6.32117,26.2205,0.00352924,0.00537473,0.00368384,0.00824963,0.000654338,0.908116,0.00529513,0.0119059,811,1534,-6.32118,-26.2204
-406,-510,-6.35901,26.8872,0.00447137,0.00727136,0.00490077,0.0109682,0.000774549,0.924527,0.00706809,0.0112514,818,1534,-6.35904,-26.8873
-399,-510,-6.39703,27.5497,0.00601538,0.00946089,0.00641041,0.014376,0.00110027,0.916668,0.00923911,0.0156345,825,1534,-6.39702,-27.5497
-392,-510,-6.34308,28.2936,0,0,0,0,0,0,0,-1,832,1534,-6.34311,-28.2936
-385,-510,-6.04858,29.5415,0,0,0,0,0,0,0,-1,839,1534,-6.04861,-29.5415
-378,-510,-1.78308,13.8044,0,0,0,0,0,0,0,-1,846,1534,-1.78309,-13.8044
-371,-510,-1.74982,13.8027,0,0,0,0,0,0,0,-1,853,1534,-1.74981,-13.8028
-364,-510,-1.3479,13.7771,0,0,0,0,0,0,0,-1,860,1534,-1.34791,-13.7771
-357,-510,-0.254395,8.89575,0,0,0,0,0,0,0,-1,867,1534,-0.254397,-8.89569
-350,-510,0.471191,6.06458,0,0,0,0,0,0,0,-1,874,1534,0.47118,-6.06453
-343,-510,-6.96869,26.3074,0,0,0,0,0,0,0,-1,881,1534,-6.9687,-26.3074
-336,-510,-5.60437,29.5996,0,0,0,0,0,0,0,-1,888,1534,-5.60435,-29.5996
-329,-510,-4.87781,20.6893,0,0,0,0,0,0,0,-1,895,1534,-4.87782,-20.6894
-322,-510,-0.251526,11.973,0,0,0,0,0,0,0,-1,902,1534,-0.251497,-11.9731
-315,-510,-1.73047,10.9796,0,0,0,0,0,0,0,-1,909,1534,-1.73049,-10.9796
-308,-510,-2.05328,9.72034,0,0,0,0,0,0,0,-1,916,1534,-2.05327,-9.72036
-301,-510,-1.85437,11.5869,0,0,0,0,0,0,0,-1,923,1534,-1.85437,-11.5869
-294,-510,0,0,0,0,0,0,0,0,0,-1,930,1534,0,0
-287,-510,0,0,0,0,0,0,0,0,0,-1,937,1534,0,0
-280,-510,0,0,0,0,0,0,0,0,0,-1,944,1534,0,0
-273,-510,0,0,0,0,0,0,0,0,0,-1,951,1534,0,0
-266,-510,0,0,0,0,0,0,0,0,0,-1,958,1534,0,0
-259,-510,0,0,0,0,0,0,0,0,0,-1,965,1534,0,0
-252,-510,0,0,0,0,0,0,0,0,0,-1,972,1534,0,0
-245,-510,0,0,0,0,0,0,0,0,0,-1,979,1534,0,0
-238,-510,0,0,0,0,0,0,0,0,0,-1,986,1534,0,0
-231,-510,0,0,0,0,0,0,0,0,0,-1,993,1534,0,0
-224,-510,0,0,0,0,0,0,0,0,0,-1,1000,1534,0,0
-217,-510,0,0,0,0,0,0,0,0,0,-1,1007,1534,0,0
-210,-510,0,0,0,0,0,0,0,0,0,-1,1014,1534,0,0
-203,-510,0,0,0,0,0,0,0,0,0,-1,1021,1534,0,0
-196,-510,0,0,0,0,0,0,0,0,0,-1,1028,1534,0,0
-189,-510,0,0,0,0,0,0,0,0,0,-1,1035,1534,0,0
-182,-510,0,0,0,0,0,0,0,0,0,-1,1042,1534,0,0
-175,-510,0,0,0,0,0,0,0,0,0,-1,1049,1534,0,0
-168,-510,0,0,0,0,0,0,0,0,0,-1,1056,1534,0,0
-161,-510,0,0,0,0,0,0,0,0,0,-1,1063,1534,0,0
-154,-510,0,0,0,0,0,0,0,0,0,-1,1070,1534,0,0
-147,-510,0,0,0,0,0,0,0,0,0,-1,1077,1534,0,0
-140,-510,0,0,0,0,0,0,0,0,0,-1,1084,1534,0,0
-133,-510,0,0,0,0,0,0,0,0,0,-1,1091,1534,0,0
-126,-510,0,0,0,0,0,0,0,0,0,-1,1098,1534,0,0
-119,-510,0,0,0,0,0,0,0,0,0,-1,1105,1534,0,0
-112,-510,0,0,0,0,0,0,0,0,0,-1,1112,1534,0,0
-105,-510,0,0,0,0,0,0,0,0,0,-1,1119,1534,0,0
-98,-510,0,0,0,0,0,0,0,0,0,-1,1126,1534,0,0
-91,-510,0,0,0,0,0,0,0,0,0,-1,1133,1534,0,0
-84,-510,0,0,0,0,0,0,0,0,0,-1,1140,1534,0,0
-77,-510,0,0,0,0,0,0,0,0,0,-1,1147,1534,0,0
-70,-510,0,0,0,0,0,0,0,0,0,-1,1154,1534,0,0
-63,-510,0,0,0,0,0,0,0,0,0,-1,1161,1534,0,0
-56,-510,0,0,0,0,0,0,0,0,0,-1,1168,1534,0,0
-49,-510,0,0,0,0,0,0,0,0,0,-1,1175,1534,0,0
-42,-510,0,0,0,0,0,0,0,0,0,-1,1182,1534,0,0
-35,-510,0,0,0,0,0,0,0,0,0,-1,1189,1534,0,0
-28,-510,0,0,0,0,0,0,0,0,0,-1,1196,1534,0,0
-21,-510,0,0,0,0,0,0,0,0,0,-1,1203,1534,0,0
-14,-510,0,0,0,0,0,0,0,0,0,-1,1210,1534,0,0
-7,-510,0,0,0,0,0,0,0,0,0,-1,1217,1534,0,0
0,-510,0,0,0,0,0,0,0,0,0,-1,1224,1534,0,0
7,-510,0,0,0,0,0,0,0,0,0,-1,1231,1534,0,0
14,-510,0,0,0,0,0,0,0,0,0,-1,1238,1534,0,0
21,-510,0,0,0,0,0,0,0,0,0,-1,1245,1534,0,0
28,-510,0,0,0,0,0,0,0,0,0,-1,1252,1534,0,0
35,-510,0,0,0,0,0,0,0,0,0,-1,1259,1534,0,0
42,-510,0,0,0,0,0,0,0,0,0,-1,1266,1534,0,0
49,-510,0,0,0,0,0,0,0,0,0,-1,1273,1534,0,0
56,-510,0,0,0,0,0,0,0,0,0,-1,1280,1534,0,0
63,-510,0,0,0,0,0,0,0,0,0,-1,1287,1534,0,0
70,-510,0,0,0,0,0,0,0,0,0,-1,1294,1534,0,0
77,-510,0,0,0,0,0,0,0,0,0,-1,1301,1534,0,0
84,-510,0,0,0,0,0,0,0,0,0,-1,1308,1534,0,0
91,-510,0,0,0,0,0,0,0,0,0,-1,1315,1534,0,0
98,-510,0,0,0,0,0,0,0,0,0,-1,1322,1534,0,0
105,-510,0,0,0,0,0,0,0,0,0,-1,1329,1534,0,0
112,-510,0,0,0,0,0,0,0,0,0,-1,1336,1534,0,0
119,-510,0,0,0,0,0,0,0,0,0,-1,1343,1534,0,0
126,-510,0,0,0,0,0,0,0,0,0,-1,1350,1534,0,0
133,-510,0,0,0,0,0,0,0,0,0,-1,1357,1534,0,0
140,-510,0,0,0,0,0,0,0,0,0,-1,1364,1534,0,0
147,-510,0,0,0,0,0,0,0,0,0,-1,1371,1534,0,0
154,-510,0,0,0,0,0,0,0,0,0,-1,1378,1534,0,0
161,-510,0,0,0,0,0,0,0,0,0,-1,1385,1534,0,0
168,-510,0,0,0,0,0,0,0,0,0,-1,1392,1534,0,0
175,-510,0,0,0,0,0,0,0,0,0,-1,1399,1534,0,0
182,-510,0,0,0,0,0,0,0,0,0,-1,1406,1534,0,0
189,-510,0,0,0,0,0,0,0,0,0,-1,1413,1534,0,0
196,-510,0,0,0,0,0,0,0,0,0,-1,1420,1534,0,0
203,-510,0,0,0,0,0,0,0,0,0,-1,1427,1534,0,0
210,-510,0,0,0,0,0,0,0,0,0,-1,1434,1534,0,0
217,-510,0,0,0,0,0,0,0,0,0,-1,1441,1534,0,0
224,-510,0,0,0,0,0,0,0,0,0,-1,1448,1534,0,0
231,-510,0,0,0,0,0,0,0,0,0,-1,1455,1534,0,0
238,-510,0,0,0,0,0,0,0,0,0,-1,1462,1534,0,0
245,-510,0,0,0,0,0,0,0,0,0,-1,1469,1534,0,0
252,-510,0,0,0,0,0,0,0,0,0,-1,1476,1534,0,0
259,-510,0,0,0,0,0,0,0,0,0,-1,1483,1534,0,0
266,-510,0,0,0,0,0,0,0,0,0,-1,1490,1534,0,0
273,-510,0,0,0,0,0,0,0,0,0,-1,1497,1534,0,0
280,-510,0,0,0,0,0,0,0,0,0,-1,1504,1534,0,0
287,-510,0,0,0,0,0,0,0,0,0,-1,1511,1534,0,0
294,-510,0,0,0,0,0,0,0,0,0,-1,1518,1534,0,0
301,-510,0,0,0,0,0,0,0,0,0,-1,1525,1534,0,0
308,-510,0,0,0,0,0,0,0,0,0,-1,1532,1534,0,0
315,-510,0,0,0,0,0,0,0,0,0,-1,1539,1534,0,0
322,-510,0,0,0,0,0,0,0,0,0,-1,1546,1534,0,0
329,-510,0,0,0,0,0,0,0,0,0,-1,1553,1534,0,0
336,-510,0,0,0,0,0,0,0,0,0,-1,1560,1534,0,0
343,-510,0,0,0,0,0,0,0,0,0,-1,1567,1534,0,0
350,-510,0,0,0,0,0,0,0,0,0,-1,1574,1534,0,0
357,-510,0,0,0,0,0,0,0,0,0,-1,1581,1534,0,0
364,-510,0,0,0,0,0,0,0,0,0,-1,1588,1534,0,0
371,-510,0,0,0,0,0,0,0,0,0,-1,1595,1534,0,0
378,-510,0,0,0,0,0,0,0,0,0,-1,1602,1534,0,0
385,-510,0,0,0,0,0,0,0,0,0,-1,1609,1534,0,0
392,-510,0,0,0,0,0,0,0,0,0,-1,1616,1534,0,0
399,-510,0,0,0,0,0,0,0,0,0,-1,1623,1534,0,0
406,-510,0,0,0,0,0,0,0,0,0,-1,1630,1534,0,0
413,-510,0,0,0,0,0,0,0,0,0,-1,1637,1534,0,0
420,-510,14.1888,6.71936,0,0,0,0,0,0,0,-1,1644,1534,14.1889,-6.71939
427,-510,10.2134,5.59485,0,0,0,0,0,0,0,-1,1651,1534,10.2134,-5.59485
434,-510,11.8219,4.07898,0,0,0,0,0,0,0,-1,1658,1534,11.8219,-4.07895
441,-510,12.6812,3.02991,0,0,0,0,0,0,0,-1,1665,1534,12.6811,-3.0299
448,-510,13.2379,2.2804,0,0,0,0,0,0,0,-1,1672,1534,13.2379,-2.28037
455,-510,9.76892,2.20642,0,0,0,0,0,0,0,-1,1679,1534,9.76894,-2.20647
462,-510,9.84692,2.49182,0,0,0,0,0,0,0,-1,1686,1534,9.84695,-2.49185
469,-510,16.6072,7.26941,0,0,0,0,0,0,0,-1,1693,1534,16.6072,-7.26945
476,-510,15.9199,7.8645,0,0,0,0,0,0,0,-1,1700,1534,15.9199,-7.86455
483,-510,13.0833,8.10938,0,0,0,0,0,0,0,-1,1707,1534,13.0833,-8.10932
490,-510,13.0841,15.3286,0,0,0,0,0,0,0,-1,1714,1534,13.0841,-15.3286
497,-510,15.5652,18.823,0,0,0,0,0,0,0,-1,1721,1534,15.5652,-18.823
504,-510,15.998,18.7478,0,0,0,0,0,0,0,-1,1728,1534,15.998,-18.7478
511,-510,15.9443,18.0476,0,0,0,0,0,0,0,-1,1735,1534,15.9443,-18.0476
518,-510,21.5343,27.1368,0,0,0,0,0,0,0,-1,1742,1534,21.5342,-27.1368
525,-510,23.8171,29.1766,0,0,0,0,0,0,0,-1,1749,1534,23.8171,-29.1766
532,-510,24.0977,28.314,0.00840872,0.00702816,-0.00603694,0.0137947,0.00164216,-0.728474,0.0087009,0.028024,1756,1534,24.0976,-28.314
539,-510,24.178,27.587,0.00655007,0.00531816,-0.00450868,0.0104847,0.00138356,-0.717511,0.00657728,0.0147385,1763,1534,24.178,-27.5871
546,-510,24.1324,27.024,0.00508966,0.00392307,-0.00329497,0.00785257,0.00116016,-0.697792,0.00489438,0.0129887,1770,1534,24.1324,-27.0241
553,-510,24.0826,26.3911,0.00397445,0.00268334,-0.00227225,0.00569107,0.000966717,-0.646993,0.00351638,0.0135957,1777,1534,24.0827,-26.3912
560,-510,24.0507,25.7323,0.00322932,0.00166059,-0.00151203,0.00414832,0.000741587,-0.54613,0.00255449,0.0138225,1784,1534,24.0506,-25.7323
567,-510,24.033,25.0796,0.00288694,0.00100089,-0.00114615,0.00342815,0.00045968,-0.44116,0.00214866,0.0131382,1791,1534,24.0329,-25.0796
574,-510,24.0151,24.4774,0.00283092,0.000502946,-0.000945409,0.00316649,0.000167378,-0.341073,0.00205747,0.0144981,1798,1534,24.0152,-24.4774
581,-510,23.9856,23.8896,0.00305656,0.000142328,-0.000916087,0.00332061,-0.000121719,-0.280627,0.00225541,0.0135601,1805,1534,23.9856,-23.8896
588,-510,23.9624,23.2495,0.00359482,3.32681e-05,-0.00111896,0.00391719,-0.000289107,-0.280505,0.00271297,0.0143862,1812,1534,23.9624,-23.2496
595,-510,24.0585,22.4932,0.0044666,8.79513e-05,-0.00148664,0.00492364,-0.000369089,-0.29826,0.00341212,0.0212263,1819,1534,24.0585,-22.4932
602,-510,24.1204,21.6888,0,0,0,0,0,0,0,-1,1826,1534,24.1204,-21.6888
609,-510,21.259,19.222,0,0,0,0,0,0,0,-1,1833,1534,21.259,-19.222
616,-510,18.7024,16.2474,0,0,0,0,0,0,0,-1,1840,1534,18.7024,-16.2474
623,-510,19.6013,14.6211,0,0,0,0,0,0,0,-1,1847,1534,19.6013,-14.6211
630,-510,13.7461,9.30334,0,0,0,0,0,0,0,-1,1854,1534,13.7461,-9.30335
637,-510,11.0155,7.38464,0,0,0,0,0,0,0,-1,1861,1534,11.0155,-7.38463
644,-510,11.5809,7.17126,0,0,0,0,0,0,0,-1,1868,1534,11.5809,-7.17123
651,-510,8.70471,3.5061,0,0,0,0,0,0,0,-1,1875,1534,8.70475,-3.50611
658,-510,0,0,0,0,0,0,0,0,0,-1,1882,1534,0,0
665,-510,0,0,0,0,0,0,0,0,0,-1,1889,1534,0,0
672,-510,0,0,0,0,0,0,0,0,0,-1,1896,1534,0,0
679,-510,0,0,0,0,0,0,0,0,0,-1,1903,1534,0,0
686,-510,0,0,0,0,0,0,0,0,0,-1,1910,1534,0,0
693,-510,0,0,0,0,0,0,0,0,0,-1,1917,1534,0,0
700,-510,0,0,0,0,0,0,0,0,0,-1,1924,1534,0,0
707,-510,0,0,0,0,0,0,0,0,0,-1,1931,1534,0,0
714,-510,0,0,0,0,0,0,0,0,0,-1,1938,1534,0,0
721,-510,0,0,0,0,0,0,0,0,0,-1,1945,1534,0,0
728,-510,0,0,0,0,0,0,0,0,0,-1,1952,1534,0,0
735,-510,0,0,0,0,0,0,0,0,0,-1,1959,1534,0,0
742,-510,0,0,0,0,0,0,0,0,0,-1,1966,1534,0,0
749,-510,0,0,0,0,0,0,0,0,0,-1,1973,1534,0,0
756,-510,0,0,0,0,0,0,0,0,0,-1,1980,1534,0,0
763,-510,0,0,0,0,0,0,0,0,0,-1,1987,1534,0,0
770,-510,0,0,0,0,0,0,0,0,0,-1,1994,1534,0,0
777,-510,0,0,0,0,0,0,0,0,0,-1,2001,1534,0,0
784,-510,0,0,0,0,0,0,0,0,0,-1,2008,1534,0,0
791,-510,0,0,0,0,0,0,0,0,0,-1,2015,1534,0,0
798,-510,0,0,0,0,0,0,0,0,0,-1,2022,1534,0,0
805,-510,0,0,0,0,0,0,0,0,0,-1,2029,1534,0,0
812,-510,0,0,0,0,0,0,0,0,0,-1,2036,1534,0,0
-700,-517,0,0,0,0,0,0,0,0,0,-1,524,1541,0,0
-693,-517,0,0,0,0,0,0,0,0,0,-1,531,1541,0,0
-686,-517,0,0,0,0,0,0,0,0,0,-1,538,1541,0,0
-679,-517,0,0,0,0,0,0,0,0,0,-1,545,1541,0,0
-672,-517,0,0,0,0,0,0,0,0,0,-1,552,1541,0,0
-665,-517,0,0,0,0,0,0,0,0,0,-1,559,1541,0,0
-658,-517,0,0,0,0,0,0,0,0,0,-1,566,1541,0,0
-651,-517,0,0,0,0,0,0,0,0,0,-1,573,1541,0,0
-644,-517,0,0,0,0,0,0,0,0,0,-1,580,1541,0,0
-637,-517,0,0,0,0,0,0,0,0,0,-1,587,1541,0,0
-630,-517,0,0,0,0,0,0,0,0,0,-1,594,1541,0,0
-623,-517,0,0,0,0,0,0,0,0,0,-1,601,1541,0,0
-616,-517,0,0,0,0,0,0,0,0,0,-1,608,1541,0,0
-609,-517,0,0,0,0,0,0,0,0,0,-1,615,1541,0,0
-602,-517,0,0,0,0,0,0,0,0,0,-1,622,1541,0,0
-595,-517,0,0,0,0,0,0,0,0,0,-1,629,1541,0,0
-588,-517,0,0,0,0,0,0,0,0,0,-1,636,1541,0,0
-581,-517,0,0,0,0,0,0,0,0,0,-1,643,1541,0,0
-574,-517,0,0,0,0,0,0,0,0,0,-1,650,1541,0,0
-567,-517,0,0,0,0,0,0,0,0,0,-1,657,1541,0,0
-560,-517,0,0,0,0,0,0,0,0,0,-1,664,1541,0,0
-553,-517,0,0,0,0,0,0,0,0,0,-1,671,1541,0,0
-546,-517,0,0,0,0,0,0,0,0,0,-1,678,1541,0,0
-539,-517,0,0,0,0,0,0,0,0,0,-1,685,1541,0,0
-532,-517,0,0,0,0,0,0,0,0,0,-1,692,1541,0,0
-525,-517,-3.62903,4.3606,0,0,0,0,0,0,0,-1,699,1541,-3.62904,-4.36056
-518,-517,-1.664,2.27209,0,0,0,0,0,0,0,-1,706,1541,-1.66399,-2.27207
-511,-517,-0.999146,5.52063,0,0,0,0,0,0,0,-1,713,1541,-0.999126,-5.52059
-504,-517,-1.06946,8.67432,0,0,0,0,0,0,0,-1,720,1541,-1.06947,-8.6743
-497,-517,-5.43036,17.4033,0,0,0,0,0,0,0,-1,727,1541,-5.43033,-17.4034
-490,-517,-4.52716,18.3591,0,0,0,0,0,0,0,-1,734,1541,-4.52718,-18.3591
-483,-517,-4.59674,18.8899,-0.0167945,0.00771152,0.00446657,0.00850023,-0.0175833,1.39602,0.0153607,0.0424214,741,1541,-4.59676,-18.8899
-476,-517,-4.90784,20.0603,-0.0126232,0.00358895,0.00251936,0.00397143,-0.0130057,1.42013,0.0102539,0.0499229,748,1541,-4.90782,-20.0603
-469,-517,-5.28717,20.9299,-0.00935039,0.000971737,0.00139078,0.00115584,-0.0095345,1.43919,0.00677456,0.0227999,755,1541,-5.28716,-20.93
-462,-517,-5.45886,21.5494,-0.00666252,-0.000465537,0.000665704,-0.000394831,-0.00673322,1.46498,0.00436316,0.0226881,762,1541,-5.45886,-21.5495
-455,-517,-5.47424,22.2645,-0.00449831,-0.00109831,0.000276145,-0.00107603,-0.0045206,1.49028,0.00272677,0.016192,769,1541,-5.47424,-22.2645
-448,-517,-5.48798,22.972,-0.00277652,-0.00120846,0.000140215,-0.00119602,-0.00278896,1.48231,0.00161563,0.0144172,776,1541,-5.48796,-22.9721
-441,-517,-5.55328,23.6157,-0.00137941,-0.000848216,0.000269562,-0.000735388,-0.00149224,1.17439,0.000861575,0.0117884,783,1541,-5.5533,-23.6157
-434,-517,-5.56946,24.2712,-0.000225242,1.04221e-05,0.000658734,0.000561779,-0.000776599,0.8739,0.000776024,0.0142603,790,1541,-5.56948,-24.2712
-427,-517,-5.61255,24.9279,0.000833171,0.000863774,0.00111204,0.00196062,-0.000263674,0.792278,0.00140325,0.0147296,797,1541,-5.61258,-24.9278
-420,-517,-5.67981,25.6229,0.00177829,0.0021743,0.00179239,0.00377958,0.000173,0.84041,0.00246408,0.0215721,804,1541,-5.67984,-25.6229
-413,-517,-5.68591,26.2415,0.00264082,0.0037002,0.00264586,0.00586887,0.000472151,0.88419,0.00376508,0.0114863,811,1541,-5.68592,-26.2414
-406,-517,-5.70239,26.9137,0.00346584,0.00537382,0.00362438,0.00816766,0.000672002,0.914087,0.0052355,0.0112378,818,1541,-5.7024,-26.9136
-399,-517,-5.71027,27.5847,0.0046467,0.00724618,0.0047856,0.0109054,0.00098748,0.917997,0.00696448,0.0110979,825,1541,-5.71029,-27.5847
-392,-517,-5.72632,28.2443,0.00602643,0.00943556,0.00597494,0.0139443,0.00151766,0.92435,0.00883389,0.0184944,832,1541,-5.72635,-28.2442
-385,-517,-5.62036,29.2562,0.00719386,0.0115548,0.00721943,0.0169158,0.0018328,0.932056,0.0107187,0.0470112,839,1541,-5.62038,-29.2563
-378,-517,-5.46478,30.4423,0,0,0,0,0,0,0,-1,846,1541,-5.4648,-30.4423
-371,-517,-1.37585,13.2646,0,0,0,0,0,0,0,-1,853,1541,-1.37586,-13.2647
-364,-517,-1.26245,12.6289,0,0,0,0,0,0,0,-1,860,1541,-1.26243,-12.6289
-357,-517,-1.23889,12.979,0,0,0,0,0,0,0,-1,867,1541,-1.23891,-12.979
-350,-517,-5.40198,23.8954,0,0,0,0,0,0,0,-1,874,1541,-5.40196,-23.8954
-343,-517,-5.45844,29.2598,0,0,0,0,0,0,0,-1,881,1541,-5.45842,-29.2598
-336,-517,-4.53223,29.6708,0,0,0,0,0,0,0,-1,888,1541,-4.53221,-29.6708
-329,-517,-3.60602,30.0817,0,0,0,0,0,0,0,-1,895,1541,-3.60601,-30.0817
-322,-517,-4.21246,19.5819,0,0,0,0,0,0,0,-1,902,1541,-4.21244,-19.5819
-315,-517,-0.987976,7.29749,0,0,0,0,0,0,0,-1,909,1541,-0.987993,-7.29743
-308,-517,3.27911,17.621,0,0,0,0,0,0,0,-1,916,1541,3.27913,-17.621
-301,-517,-1.69141,8.87488,0,0,0,0,0,0,0,-1,923,1541,-1.69141,-8.87485
-294,-517,-1.72583,9.92566,0,0,0,0,0,0,0,-1,930,1541,-1.72584,-9.92571
-287,-517,-3.09045,12.1472,0,0,0,0,0,0,0,-1,937,1541,-3.09043,-12.1472
-280,-517,0,0,0,0,0,0,0,0,0,-1,944,1541,0,0
-273,-517,0,0,0,0,0,0,0,0,0,-1,951,1541,0,0
-266,-517,0,0,0,0,0,0,0,0,0,-1,958,1541,0,0
-259,-517,0,0,0,0,0,0,0,0,0,-1,965,1541,0,0
-252,-517,0,0,0,0,0,0,0,0,0,-1,972,1541,0,0
-245,-517,0,0,0,0,0,0,0,0,0,-1,979,1541,0,0
-238,-517,0,0,0,0,0,0,0,0,0,-1,986,1541,0,0
-231,-517,0,0,0,0,0,0,0,0,0,-1,993,1541,0,0
-224,-517,0,0,0,0,0,0,0,0,0,-1,1000,1541,0,0
-217,-517,0,0,0,0,0,0,0,0,0,-1,1007,1541,0,0
-210,-517,0,0,0,0,0,0,0,0,0,-1,1014,1541,0,0
-203,-517,0,0,0,0,0,0,0,0,0,-1,1021,1541,0,0
-196,-517,0,0,0,0,0,0,0,0,0,-1,1028,1541,0,0
-189,-517,0,0,0,0,0,0,0,0,0,-1,1035,1541,0,0
-182,-517,0,0,0,0,0,0,0,0,0,-1,1042,1541,0,0
-175,-517,0,0,0,0,0,0,0,0,0,-1,1049,1541,0,0
-168,-517,0,0,0,0,0,0,0,0,0,-1,1056,1541,0,0
-161,-517,0,0,0,0,0,0,0,0,0,-1,1063,1541,0,0
-154,-517,0,0,0,0,0,0,0,0,0,-1,1070,1541,0,0
-147,-517,0,0,0,0,0,0,0,0,0,-1,1077,1541,0,0
-140,-517,0,0,0,0,0,0,0,0,0,-1,1084,1541,0,0
-133,-517,0,0,0,0,0,0,0,0,0,-1,1091,1541,0,0
-126,-517,0,0,0,0,0,0,0,0,0,-1,1098,1541,0,0
-119,-517,0,0,0,0,0,0,0,0,0,-1,1105,1541,0,0
-112,-517,0,0,0,0,0,0,0,0,0,-1,1112,1541,0,0
-105,-517,0,0,0,0,0,0,0,0,0,-1,1119,1541,0,0
-98,-517,0,0,0,0,0,0,0,0,0,-1,1126,1541,0,0
-91,-517,0,0,0,0,0,0,0,0,0,-1,1133,1541,0,0
-84,-517,0,0,0,0,0,0,0,0,0,-1,1140,1541,0,0
-77,-517,0,0,0,0,0,0,0,0,0,-1,1147,1541,0,0
-70,-517,0,0,0,0,0,0,0,0,0,-1,1154,1541,0,0
-63,-517,0,0,0,0,0,0,0,0,0,-1,1161,1541,0,0
-56,-517,0,0,0,0,0,0,0,0,0,-1,1168,1541,0,0
-49,-517,0,0,0,0,0,0,0,0,0,-1,1175,1541,0,0
-42,-517,0,0,0,0,0,0,0,0,0,-1,1182,1541,0,0
-35,-517,0,0,0,0,0,0,0,0,0,-1,1189,1541,0,0
-28,-517,0,0,0,0,0,0,0,0,0,-1,1196,1541,0,0
-21,-517,0,0,0,0,0,0,0,0,0,-1,1203,1541,0,0
-14,-517,0,0,0,0,0,0,0,0,0,-1,1210,1541,0,0
-7,-517,0,0,0,0,0,0,0,0,0,-1,1217,1541,0,0
0,-517,0,0,0,0,0,0,0,0,0,-1,1224,1541,0,0
7,-517,0,0,0,0,0,0,0,0,0,-1,1231,1541,0,0
14,-517,0,0,0,0,0,0,0,0,0,-1,1238,1541,0,0
21,-517,0,0,0,0,0,0,0,0,0,-1,1245,1541,0,0
28,-517,0,0,0,0,0,0,0,0,0,-1,1252,1541,0,0
35,-517,0,0,0,0,0,0,0,0,0,-1,1259,1541,0,0
42,-517,0,0,0,0,0,0,0,0,0,-1,1266,1541,0,0
49,-517,0,0,0,0,0,0,0,0,0,-1,1273,1541,0,0
56,-517,0,0,0,0,0,0,0,0,0,-1,1280,1541,0,0
63,-517,0,0,0,0,0,0,0,0,0,-1,1287,1541,0,0
70,-517,0,0,0,0,0,0,0,0,0,-1,1294,1541,0,0
77,-517,0,0,0,0,0,0,0,0,0,-1,1301,1541,0,0
84,-517,0,0,0,0,0,0,0,0,0,-1,1308,1541,0,0
91,-517,0,0,0,0,0,0,0,0,0,-1,1315,1541,0,0
98,-517,0,0,0,0,0,0,0,0,0,-1,1322,1541,0,0
105,-517,0,0,0,0,0,0,0,0,0,-1,1329,1541,0,0
112,-517,0,0,0,0,0,0,0,0,0,-1,1336,1541,0,0
119,-517,0,0,0,0,0,0,0,0,0,-1,1343,1541,0,0
126,-517,0,0,0,0,0,0,0,0,0,-1,1350,1541,0,0
133,-517,0,0,0,0,0,0,0,0,0,-1,1357,1541,0,0
140,-517,0,0,0,0,0,0,0,0,0,-1,1364,1541,0,0
147,-517,0,0,0,0,0,0,0,0,0,-1,1371,1541,0,0
154,-517,0,0,0,0,0,0,0,0,0,-1,1378,1541,0,0
161,-517,0,0,0,0,0,0,0,0,0,-1,1385,1541,0,0
168,-517,0,0,0,0,0,0,0,0,0,-1,1392,1541,0,0
175,-517,0,0,0,0,0,0,0,0,0,-1,1399,1541,0,0
182,-517,0,0,0,0,0,0,0,0,0,-1,1406,1541,0,0
189,-517,0,0,0,0,0,0,0,0,0,-1,1413,1541,0,0
196,-517,0,0,0,0,0,0,0,0,0,-1,1420,1541,0,0
203,-517,0,0,0,0,0,0,0,0,0,-1,1427,1541,0,0
210,-517,0,0,0,0,0,0,0,0,0,-1,1434,1541,0,0
217,-517,0,0,0,0,0,0,0,0,0,-1,1441,1541,0,0
224,-517,0,0,0,0,0,0,0,0,0,-1,1448,1541,0,0
231,-517,0,0,0,0,0,0,0,0,0,-1,1455,1541,0,0
238,-517,0,0,0,0,0,0,0,0,0,-1,1462,1541,0,0
245,-517,0,0,0,0,0,0,0,0,0,-1,1469,1541,0,0
252,-517,0,0,0,0,0,0,0,0,0,-1,1476,1541,0,0
259,-517,0,0,0,0,0,0,0,0,0,-1,1483,1541,0,0
266,-517,0,0,0,0,0,0,0,0,0,-1,1490,1541,0,0
273,-517,0,0,0,0,0,0,0,0,0,-1,1497,1541,0,0
280,-517,0,0,0,0,0,0,0,0,0,-1,1504,1541,0,0
287,-517,0,0,0,0,0,0,0,0,0,-1,1511,1541,0,0
294,-517,0,0,0,0,0,0,0,0,0,-1,1518,1541,0,0
301,-517,0,0,0,0,0,0,0,0,0,-1,1525,1541,0,0
308,-517,0,0,0,0,0,0,0,0,0,-1,1532,1541,0,0
315,-517,0,0,0,0,0,0,0,0,0,-1,1539,1541,0,0
322,-517,0,0,0,0,0,0,0,0,0,-1,1546,1541,0,0
329,-517,0,0,0,0,0,0,0,0,0,-1,1553,1541,0,0
336,-517,0,0,0,0,0,0,0,0,0,-1,1560,1541,0,0
343,-517,0,0,0,0,0,0,0,0,0,-1,1567,1541,0,0
350,-517,0,0,0,0,0,0,0,0,0,-1,1574,1541,0,0
357,-517,0,0,0,0,0,0,0,0,0,-1,1581,1541,0,0
364,-517,0,0,0,0,0,0,0,0,0,-1,1588,1541,0,0
371,-517,0,0,0,0,0,0,0,0,0,-1,1595,1541,0,0
378,-517,0,0,0,0,0,0,0,0,0,-1,1602,1541,0,0
385,-517,0,0,0,0,0,0,0,0,0,-1,1609,1541,0,0
392,-517,0,0,0,0,0,0,0,0,0,-1,1616,1541,0,0
399,-517,0,0,0,0,0,0,0,0,0,-1,1623,1541,0,0
406,-517,13.1395,7.01978,0,0,0,0,0,0,0,-1,1630,1541,13.1396,-7.01981
413,-517,12.8859,6.31592,0,0,0,0,0,0,0,-1,1637,1541,12.8858,-6.31588
420,-517,12.4789,6.20337,0,0,0,0,0,0,0,-1,1644,1541,12.4789,-6.20333
427,-517,11.647,4.66516,0,0,0,0,0,0,0,-1,1651,1541,11.647,-4.66519
434,-517,12.3719,3.92773,0,0,0,0,0,0,0,-1,1658,1541,12.3719,-3.92776
441,-517,13.146,3.14124,0,0,0,0,0,0,0,-1,1665,1541,13.146,-3.14121
448,-517,13.8861,2.36682,0,0,0,0,0,0,0,-1,1672,1541,13.8861,-2.36684
455,-517,13.6012,4.06335,0,0,0,0,0,0,0,-1,1679,1541,13.6012,-4.06335
462,-517,14.8956,7.0752,0,0,0,0,0,0,0,-1,1686,1541,14.8956,-7.07525
469,-517,13.6292,6.87744,0,0,0,0,0,0,0,-1,1693,1541,13.6292,-6.87739
476,-517,17.1632,14.1487,0,0,0,0,0,0,0,-1,1700,1541,17.1632,-14.1487
483,-517,16.5157,15.0776,0,0,0,0,0,0,0,-1,1707,1541,16.5157,-15.0777
490,-517,15.5439,18.0258,0,0,0,0,0,0,0,-1,1714,1541,15.5439,-18.0258
497,-517,16.0292,18.7786,0,0,0,0,0,0,0,-1,1721,1541,16.0291,-18.7786
504,-517,17.3815,22.3873,0,0,0,0,0,0,0,-1,1728,1541,17.3814,-22.3873
511,-517,16.9674,21.8491,0,0,0,0,0,0,0,-1,1735,1541,16.9674,-21.8491
518,-517,23.5469,29.5144,0,0,0,0,0,0,0,-1,1742,1541,23.5469,-29.5144
525,-517,23.3785,28.9553,0.00874616,0.00750501,-0.0066719,0.0148263,0.00142488,-0.739025,0.00944512,0.0265526,1749,1541,23.3786,-28.9553
532,-517,23.5504,28.2103,0.00676998,0.00585334,-0.00507386,0.0114062,0.00121714,-0.740355,0.00723262,0.0133526,1756,1541,23.5504,-28.2103
539,-517,23.5746,27.599,0.00531311,0.00443524,-0.00377621,0.00867581,0.00107254,-0.727539,0.00546158,0.0140178,1763,1541,23.5746,-27.599
546,-517,23.5365,27.0374,0.00415569,0.00316357,-0.00268057,0.00638571,0.000933542,-0.693905,0.0039826,0.0143199,1770,1541,23.5365,-27.0373
553,-517,23.4749,26.415,0.00327018,0.00203136,-0.00173139,0.00448962,0.000811918,-0.613615,0.00276251,0.0171974,1777,1541,23.4748,-26.415
560,-517,23.4519,25.7711,0.00274918,0.0010866,-0.00101948,0.00323333,0.000602444,-0.443367,0.00198544,0.0174032,1784,1541,23.452,-25.7711
567,-517,23.4366,25.1495,0.002621,0.000476436,-0.000686474,0.00282192,0.000275519,-0.284727,0.0017965,0.0137664,1791,1541,23.4367,-25.1495
574,-517,23.412,24.5166,0.00277688,-9.0574e-06,-0.000500108,0.00286393,-9.61123e-05,-0.172345,0.00194212,0.0150216,1798,1541,23.412,-24.5166
581,-517,23.3674,23.8876,0.00327723,-0.000347389,-0.000530836,0.00335337,-0.000423531,-0.142468,0.0023893,0.0167489,1805,1541,23.3675,-23.8875
588,-517,23.3333,23.2307,0.00412859,-0.000413429,-0.00081762,0.00427129,-0.000556128,-0.172789,0.00304985,0.0174433,1812,1541,23.3333,-23.2307
595,-517,23.3757,22.6432,0.00529388,-0.000237674,-0.00132661,0.00559558,-0.000539373,-0.223618,0.00392256,0.0446631,1819,1541,23.3757,-22.6432
602,-517,23.6525,21.7897,0,0,0,0,0,0,0,-1,1826,1541,23.6524,-21.7896
609,-517,12.6417,10.8751,0,0,0,0,0,0,0,-1,1833,1541,12.6417,-10.8751
616,-517,14.205,10.3193,0,0,0,0,0,0,0,-1,1840,1541,14.205,-10.3194
623,-517,12.578,10.0779,0,0,0,0,0,0,0,-1,1847,1541,12.578,-10.0779
630,-517,11.7035,7.47815,0,0,0,0,0,0,0,-1,1854,1541,11.7035,-7.47812
637,-517,11.5172,5.79822,0,0,0,0,0,0,0,-1,1861,1541,11.5173,-5.79825
644,-517,11.4232,3.30579,0,0,0,0,0,0,0,-1,1868,1541,11.4232,-3.30574
651,-517,0,0,0,0,0,0,0,0,0,-1,1875,1541,0,0
658,-517,0,0,0,0,0,0,0,0,0,-1,1882,1541,0,0
665,-517,0,0,0,0,0,0,0,0,0,-1,1889,1541,0,0
672,-517,0,0,0,0,0,0,0,0,0,-1,1896,1541,0,0
679,-517,0,0,0,0,0,0,0,0,0,-1,1903,1541,0,0
686,-517,0,0,0,0,0,0,0,0,0,-1,1910,1541,0,0
693,-517,0,0,0,0,0,0,0,0,0,-1,1917,1541,0,0
700,-517,0,0,0,0,0,0,0,0,0,-1,1924,1541,0,0
707,-517,0,0,0,0,0,0,0,0,0,-1,1931,1541,0,0
714,-517,0,0,0,0,0,0,0,0,0,-1,1938,1541,0,0
721,-517,0,0,0,0,0,0,0,0,0,-1,1945,1541,0,0
728,-517,0,0,0,0,0,0,0,0,0,-1,1952,1541,0,0
735,-517,0,0,0,0,0,0,0,0,0,-1,1959,1541,0,0
742,-517,0,0,0,0,0,0,0,0,0,-1,1966,1541,0,0
749,-517,0,0,0,0,0,0,0,0,0,-1,1973,1541,0,0
756,-517,0,0,0,0,0,0,0,0,0,-1,1980,1541,0,0
763,-517,0,0,0,0,0,0,0,0,0,-1,1987,1541,0,0
770,-517,0,0,0,0,0,0,0,0,0,-1,1994,1541,0,0
777,-517,0,0,0,0,0,0,0,0,0,-1,2001,1541,0,0
784,-517,0,0,0,0,0,0,0,0,0,-1,2008,1541,0,0
791,-517,0,0,0,0,0,0,0,0,0,-1,2015,1541,0,0
798,-517,0,0,0,0,0,0,0,0,0,-1,2022,1541,0,0
805,-517,0,0,0,0,0,0,0,0,0,-1,2029,1541,0,0
812,-517,0,0,0,0,0,0,0,0,0,-1,2036,1541,0,0
-700,-524,0,0,0,0,0,0,0,0,0,-1,524,1548,0,0
-693,-524,0,0,0,0,0,0,0,0,0,-1,531,1548,0,0
-686,-524,0,0,0,0,0,0,0,0,0,-1,538,1548,0,0
-679,-524,0,0,0,0,0,0,0,0,0,-1,545,1548,0,0
-672,-524,0,0,0,0,0,0,0,0,0,-1,552,1548,0,0
-665,-524,0,0,0,0,0,0,0,0,0,-1,559,1548,0,0
-658,-524,0,0,0,0,0,0,0,0,0,-1,566,1548,0,0
-651,-524,0,0,0,0,0,0,0,0,0,-1,573,1548,0,0
-644,-524,0,0,0,0,0,0,0,0,0,-1,580,1548,0,0
-637,-524,0,0,0,0,0,0,0,0,0,-1,587,1548,0,0
-630,-524,0,0,0,0,0,0,0,0,0,-1,594,1548,0,0
-623,-524,0,0,0,0,0,0,0,0,0,-1,601,1548,0,0
-616,-524,0,0,0,0,0,0,0,0,0,-1,608,1548,0,0
-609,-524,0,0,0,0,0,0,0,0,0,-1,615,1548,0,0
-602,-524,0,0,0,0,0,0,0,0,0,-1,622,1548,0,0
-595,-524,0,0,0,0,0,0,0,0,0,-1,629,1548,0,0
-588,-524,0,0,0,0,0,0,0,0,0,-1,636,1548,0,0
-581,-524,0,0,0,0,0,0,0,0,0,-1,643,1548,0,0
-574,-524,0,0,0,0,0,0,0,0,0,-1,650,1548,0,0
-567,-524,0,0,0,0,0,0,0,0,0,-1,657,1548,0,0
-560,-524,0,0,0,0,0,0,0,0,0,-1,664,1548,0,0
-553,-524,0,0,0,0,0,0,0,0,0,-1,671,1548,0,0
-546,-524,0,0,0,0,0,0,0,0,0,-1,678,1548,0,0
-539,-524,0,0,0,0,0,0,0,0,0,-1,685,1548,0,0
-532,-524,0,0,0,0,0,0,0,0,0,-1,692,1548,0,0
-525,-524,-0.215515,3.97131,0,0,0,0,0,0,0,-1,699,1548,-0.215501,-3.97136
-518,-524,-0.806274,4.35632,0,0,0,0,0,0,0,-1,706,1548,-0.806259,-4.35633
-511,-524,-1.08301,4.29004,0,0,0,0,0,0,0,-1,713,1548,-1.08301,-4.29006
-504,-524,-1.28821,3.98145,0,0,0,0,0,0,0,-1,720,1548,-1.28822,-3.98151
-497,-524,-0.328491,8.63416,0,0,0,0,0,0,0,-1,727,1548,-0.328487,-8.63411
-490,-524,-4.31104,18.693,0,0,0,0,0,0,0,-1,734,1548,-4.31101,-18.6929
-483,-524,-3.84692,18.2992,0,0,0,0,0,0,0,-1,741,1548,-3.84691,-18.2992
-476,-524,-4.45569,20.33,0,0,0,0,0,0,0,-1,748,1548,-4.4557,-20.33
-469,-524,-4.77008,21.4479,0,0,0,0,0,0,0,-1,755,1548,-4.77008,-21.4478
-462,-524,-4.72363,21.8015,-0.00748362,-0.000857418,0.000820825,-0.000757251,-0.00758379,1.44937,0.0048233,0.0351509,762,1548,-4.72362,-21.8015
-455,-524,-4.86835,22.3221,-0.00509385,-0.00165582,0.000284044,-0.00163252,-0.00511716,1.48892,0.00301821,0.0288674,769,1548,-4.86833,-22.3222
-448,-524,-4.84998,23.0038,-0.00328818,-0.00194988,-6.16614e-06,-0.00194986,-0.00328821,-1.56619,0.00190936,0.015225,776,1548,-4.84999,-23.0038
-441,-524,-4.87866,23.6573,-0.00187042,-0.00167114,2.22559e-05,-0.00166868,-0.00187287,1.46092,0.00118639,0.0111186,783,1548,-4.87868,-23.6574
-434,-524,-4.88458,24.2959,-0.000754825,-0.000970777,0.000273104,-0.000569126,-0.00115648,0.597145,0.000667719,0.0133911,790,1548,-4.8846,-24.296
-427,-524,-4.92352,24.9716,0.000271376,-0.000304765,0.000587883,0.000637974,-0.000671363,0.557585,0.000756028,0.0143588,797,1548,-4.92354,-24.9716
-420,-524,-4.99243,25.6438,0.00116874,0.000873228,0.00111377,0.00214451,-0.000102546,0.719453,0.00146505,0.0117587,804,1548,-4.99241,-25.6438
-413,-524,-5.00775,26.2928,0.00195617,0.00222618,0.00180506,0.00390128,0.000281071,0.822726,0.00251241,0.0109417,811,1548,-5.00778,-26.2928
-406,-524,-5.02399,26.9518,0.00269856,0.0037197,0.00258384,0.00584293,0.000575323,0.882942,0.00371838,0.0110768,818,1548,-5.02402,-26.9518
-399,-524,-5.0509,27.6041,0.0035841,0.00533017,0.00346167,0.00802719,0.000887073,0.908923,0.00508164,0.0102569,825,1548,-5.05091,-27.6042
-392,-524,-5.07782,28.2344,0.00461755,0.00705622,0.00432416,0.0103297,0.0013441,0.922821,0.00648501,0.0113086,832,1548,-5.07779,-28.2344
-385,-524,-5.09991,28.9176,0.00556935,0.00872578,0.00518199,0.0125645,0.00173058,0.933215,0.00786324,0.0173329,839,1548,-5.09993,-28.9176
-378,-524,-5.09357,29.6431,0,0,0,0,0,0,0,-1,846,1548,-5.09355,-29.6431
-371,-524,-4.20789,29.1592,0,0,0,0,0,0,0,-1,853,1548,-4.2079,-29.1592
-364,-524,-0.712097,14.9871,0,0,0,0,0,0,0,-1,860,1548,-0.712116,-14.9871
-357,-524,-1.34052,14.7448,0,0,0,0,0,0,0,-1,867,1548,-1.34054,-14.7447
-350,-524,-4.31909,25.032,0,0,0,0,0,0,0,-1,874,1548,-4.31906,-25.0319
-343,-524,-3.69696,28.6923,0,0,0,0,0,0,0,-1,881,1548,-3.69694,-28.6922
-336,-524,-3.4873,29.655,0,0,0,0,0,0,0,-1,888,1548,-3.48728,-29.6551
-329,-524,-3.21936,30.5509,0,0,0,0,0,0,0,-1,895,1548,-3.21933,-30.5509
-322,-524,-4.31378,25.6389,0,0,0,0,0,0,0,-1,902,1548,-4.31379,-25.639
-315,-524,-1.90839,19.4824,0,0,0,0,0,0,0,-1,909,1548,-1.90838,-19.4824
-308,-524,-2.36938,19.3059,0,0,0,0,0,0,0,-1,916,1548,-2.3694,-19.3058
-301,-524,2.72394,17.7618,0,0,0,0,0,0,0,-1,923,1548,2.72396,-17.7619
-294,-524,-1.52515,9.05408,0,0,0,0,0,0,0,-1,930,1548,-1.52512,-9.05411
-287,-524,-0.962219,10.3199,0,0,0,0,0,0,0,-1,937,1548,-0.962241,-10.32
-280,-524,-1.36255,10.3859,0,0,0,0,0,0,0,-1,944,1548,-1.36253,-10.3859
-273,-524,0,0,0,0,0,0,0,0,0,-1,951,1548,0,0
-266,-524,0,0,0,0,0,0,0,0,0,-1,958,1548,0,0
-259,-524,0,0,0,0,0,0,0,0,0,-1,965,1548,0,0
-252,-524,0,0,0,0,0,0,0,0,0,-1,972,1548,0,0
-245,-524,0,0,0,0,0,0,0,0,0,-1,979,1548,0,0
-238,-524,0,0,0,0,0,0,0,0,0,-1,986,1548,0,0
-231,-524,0,0,0,0,0,0,0,0,0,-1,993,1548,0,0
-224,-524,0,0,0,0,0,0,0,0,0,-1,1000,1548,0,0
-217,-524,0,0,0,0,0,0,0,0,0,-1,1007,1548,0,0
-210,-524,0,0,0,0,0,0,0,0,0,-1,1014,1548,0,0
-203,-524,0,0,0,0,0,0,0,0,0,-1,1021,1548,0,0
-196,-524,0,0,0,0,0,0,0,0,0,-1,1028,1548,0,0
-189,-524,0,0,0,0,0,0,0,0,0,-1,1035,1548,0,0
-182,-524,0,0,0,0,0,0,0,0,0,-1,1042,1548,0,0
-175,-524,0,0,0,0,0,0,0,0,0,-1,1049,1548,0,0
-168,-524,0,0,0,0,0,0,0,0,0,-1,1056,1548,0,0
-161,-524,0,0,0,0,0,0,0,0,0,-1,1063,1548,0,0
-154,-524,0,0,0,0,0,0,0,0,0,-1,1070,1548,0,0
-147,-524,0,0,0,0,0,0,0,0,0,-1,1077,1548,0,0
-140,-524,0,0,0,0,0,0,0,0,0,-1,1084,1548,0,0
-133,-524,0,0,0,0,0,0,0,0,0,-1,1091,1548,0,0
-126,-524,0,0,0,0,0,0,0,0,0,-1,1098,1548,0,0
-119,-524,0,0,0,0,0,0,0,0,0,-1,1105,1548,0,0
-112,-524,0,0,0,0,0,0,0,0,0,-1,1112,1548,0,0
-105,-524,0,0,0,0,0,0,0,0,0,-1,1119,1548,0,0
-98,-524,0,0,0,0,0,0,0,0,0,-1,1126,1548,0,0
-91,-524,0,0,0,0,0,0,0,0,0,-1,1133,1548,0,0
-84,-524,0,0,0,0,0,0,0,0,0,-1,1140,1548,0,0
-77,-524,0,0,0,0,0,0,0,0,0,-1,1147,1548,0,0
-70,-524,0,0,0,0,0,0,0,0,0,-1,1154,1548,0,0
-63,-524,0,0,0,0,0,0,0,0,0,-1,1161,1548,0,0
-56,-524,0,0,0,0,0,0,0,0,0,-1,1168,1548,0,0
-49,-524,0,0,0,0,0,0,0,0,0,-1,1175,1548,0,0
-42,-524,0,0,0,0,0,0,0,0,0,-1,1182,1548,0,0
-35,-524,0,0,0,0,0,0,0,0,0,-1,1189,1548,0,0
-28,-524,0,0,0,0,0,0,0,0,0,-1,1196,1548,0,0
-21,-524,0,0,0,0,0,0,0,0,0,-1,1203,1548,0,0
-14,-524,0,0,0,0,0,0,0,0,0,-1,1210,1548,0,0
-7,-524,0,0,0,0,0,0,0,0,0,-1,1217,1548,0,0
0,-524,0,0,0,0,0,0,0,0,0,-1,1224,1548,0,0
7,-524,0,0,0,0,0,0,0,0,0,-1,1231,1548,0,0
14,-524,0,0,0,0,0,0,0,0,0,-1,1238,1548,0,0
21,-524,0,0,0,0,0,0,0,0,0,-1,1245,1548,0,0
28,-524,0,0,0,0,0,0,0,0,0,-1,1252,1548,0,0
35,-524,0,0,0,0,0,0,0,0,0,-1,1259,1548,0,0
42,-524,0,0,0,0,0,0,0,0,0,-1,1266,1548,0,0
49,-524,0,0,0,0,0,0,0,0,0,-1,1273,1548,0,0
56,-524,0,0,0,0,0,0,0,0,0,-1,1280,1548,0,0
63,-524,0,0,0,0,0,0,0,0,0,-1,1287,1548,0,0
70,-524,0,0,0,0,0,0,0,0,0,-1,1294,1548,0,0
77,-524,0,0,0,0,0,0,0,0,0,-1,1301,1548,0,0
84,-524,0,0,0,0,0,0,0,0,0,-1,1308,1548,0,0
91,-524,0,0,0,0,0,0,0,0,0,-1,1315,1548,0,0
98,-524,0,0,0,0,0,0,0,0,0,-1,1322,1548,0,0
105,-524,0,0,0,0,0,0,0,0,0,-1,1329,1548,0,0
112,-524,0,0,0,0,0,0,0,0,0,-1,1336,1548,0,0
119,-524,0,0,0,0,0,0,0,0,0,-1,1343,1548,0,0
126,-524,0,0,0,0,0,0,0,0,0,-1,1350,1548,0,0
133,-524,0,0,0,0,0,0,0,0,0,-1,1357,1548,0,0
140,-524,0,0,0,0,0,0,0,0,0,-1,1364,1548,0,0
147,-524,0,0,0,0,0,0,0,0,0,-1,1371,1548,0,0
154,-524,0,0,0,0,0,0,0,0,0,-1,1378,1548,0,0
161,-524,0,0,0,0,0,0,0,0,0,-1,1385,1548,0,0
168,-524,0,0,0,0,0,0,0,0,0,-1,1392,1548,0,0
175,-524,0,0,0,0,0,0,0,0,0,-1,1399,1548,0,0
182,-524,0,0,0,0,0,0,0,0,0,-1,1406,1548,0,0
189,-524,0,0,0,0,0,0,0,0,0,-1,1413,1548,0,0
196,-524,0,0,0,0,0,0,0,0,0,-1,1420,1548,0,0
203,-524,0,0,0,0,0,0,0,0,0,-1,1427,1548,0,0
210,-524,0,0,0,0,0,0,0,0,0,-1,1434,1548,0,0
217,-524,0,0,0,0,0,0,0,0,0,-1,1441,1548,0,0
224,-524,0,0,0,0,0,0,0,0,0,-1,1448,1548,0,0
231,-524,0,0,0,0,0,0,0,0,0,-1,1455,1548,0,0
238,-524,0,0,0,0,0,0,0,0,0,-1,1462,1548,0,0
245,-524,0,0,0,0,0,0,0,0,0,-1,1469,1548,0,0
252,-524,0,0,0,0,0,0,0,0,0,-1,1476,1548,0,0
259,-524,0,0,0,0,0,0,0,0,0,-1,1483,1548,0,0
266,-524,0,0,0,0,0,0,0,0,0,-1,1490,1548,0,0
273,-524,0,0,0,0,0,0,0,0,0,-1,1497,1548,0,0
280,-524,0,0,0,0,0,0,0,0,0,-1,1504,1548,0,0
287,-524,0,0,0,0,0,0,0,0,0,-1,1511,1548,0,0
294,-524,0,0,0,0,0,0,0,0,0,-1,1518,1548,0,0
301,-524,0,0,0,0,0,0,0,0,0,-1,1525,1548,0,0
308,-524,0,0,0,0,0,0,0,0,0,-1,1532,1548,0,0
315,-524,0,0,0,0,0,0,0,0,0,-1,1539,1548,0,0
322,-524,0,0,0,0,0,0,0,0,0,-1,1546,1548,0,0
329,-524,0,0,0,0,0,0,0,0,0,-1,1553,1548,0,0
336,-524,0,0,0,0,0,0,0,0,0,-1,1560,1548,0,0
343,-524,0,0,0,0,0,0,0,0,0,-1,1567,1548,0,0
350,-524,0,0,0,0,0,0,0,0,0,-1,1574,1548,0,0
357,-524,0,0,0,0,0,0,0,0,0,-1,1581,1548,0,0
364,-524,0,0,0,0,0,0,0,0,0,-1,1588,1548,0,0
371,-524,0,0,0,0,0,0,0,0,0,-1,1595,1548,0,0
378,-524,0,0,0,0,0,0,0,0,0,-1,1602,1548,0,0
385,-524,0,0,0,0,0,0,0,0,0,-1,1609,1548,0,0
392,-524,0,0,0,0,0,0,0,0,0,-1,1616,1548,0,0
399,-524,8.81848,5.05774,0,0,0,0,0,0,0,-1,1623,1548,8.81843,-5.05769
406,-524,8.64294,6.06799,0,0,0,0,0,0,0,-1,1630,1548,8.6429,-6.06805
413,-524,11.677,6.41858,0,0,0,0,0,0,0,-1,1637,1548,11.677,-6.41864
420,-524,11.4913,6.36401,0,0,0,0,0,0,0,-1,1644,1548,11.4913,-6.36402
427,-524,7.68335,6.17249,0,0,0,0,0,0,0,-1,1651,1548,7.68341,-6.17245
434,-524,10.432,11.6801,0,0,0,0,0,0,0,-1,1658,1548,10.432,-11.68
441,-524,8.78552,4.12305,0,0,0,0,0,0,0,-1,1665,1548,8.78553,-4.12301
448,-524,14.1854,4.78674,0,0,0,0,0,0,0,-1,1672,1548,14.1854,-4.78674
455,-524,12.4784,3.65576,0,0,0,0,0,0,0,-1,1679,1548,12.4784,-3.65572
462,-524,14.7551,9.29395,0,0,0,0,0,0,0,-1,1686,1548,14.7552,-9.29397
469,-524,16.3314,14.3779,0,0,0,0,0,0,0,-1,1693,1548,16.3314,-14.3779
476,-524,15.9106,15.1875,0,0,0,0,0,0,0,-1,1700,1548,15.9107,-15.1876
483,-524,15.2776,16.2268,0,0,0,0,0,0,0,-1,1707,1548,15.2776,-16.2269
490,-524,15.2563,18.5848,0,0,0,0,0,0,0,-1,1714,1548,15.2564,-18.5848
497,-524,17.5173,22.6123,0,0,0,0,0,0,0,-1,1721,1548,17.5174,-22.6123
504,-524,22.501,31.2146,0,0,0,0,0,0,0,-1,1728,1548,22.5009,-31.2146
511,-524,22.9171,30.2677,0,0,0,0,0,0,0,-1,1735,1548,22.9171,-30.2677
518,-524,22.9568,29.4984,0.00906541,0.00767765,-0.0069067,0.015313,0.00143006,-0.735334,0.00976694,0.0279363,1742,1548,22.9567,-29.4985
525,-524,22.9441,28.9089,0.00719975,0.00613341,-0.00543548,0.0121281,0.00120502,-0.736509,0.00771519,0.0152525,1749,1548,22.944,-28.909
532,-524,22.9338,28.2712,0.00549602,0.0047183,-0.0040721,0.00919778,0.00101653,-0.737796,0.00582267,0.0109737,1756,1548,22.9339,-28.2712
539,-524,22.9226,27.6201,0.0041978,0.00352008,-0.00293902,0.00681743,0.000900454,-0.728003,0.00427652,0.0122196,1763,1548,22.9226,-27.6201
546,-524,22.8987,27.048,0.00313696,0.00234311,-0.00191269,0.00469348,0.000786588,-0.683089,0.00290254,0.0164705,1770,1548,22.8987,-27.0479
553,-524,22.8706,26.4358,0.00231928,0.00129379,-0.0010023,0.00293237,0.000680693,-0.54897,0.00177214,0.0267551,1777,1548,22.8706,-26.4357
560,-524,22.8804,25.7864,0.00189192,0.000409201,-0.000308911,0.0019537,0.000347417,-0.197402,0.0012035,0.0353117,1784,1548,22.8804,-25.7864
567,-524,22.8103,25.1815,0.00188176,-0.000183632,3.7624e-05,0.00188245,-0.000184317,0.0182083,0.0013207,0.0197756,1791,1548,22.8102,-25.1816
574,-524,22.7828,24.5387,0.00220345,-0.000687428,0.000251271,0.00222513,-0.000709106,0.0860585,0.00176785,0.0139617,1798,1548,22.7828,-24.5387
581,-524,22.7635,23.8699,0.00299105,-0.00103106,0.000188172,0.00299983,-0.00103985,0.0466485,0.00242209,0.0149982,1805,1548,22.7635,-23.8699
588,-524,22.7977,23.2238,0.00423687,-0.0010775,-0.000170658,0.00424234,-0.00108297,-0.0320685,0.00324993,0.0280357,1812,1548,22.7978,-23.2238
595,-524,22.9767,22.7853,0,0,0,0,0,0,0,-1,1819,1548,22.9767,-22.7853
602,-524,13.837,12.0682,0,0,0,0,0,0,0,-1,1826,1548,13.837,-12.0683
609,-524,13.0056,10.5138,0,0,0,0,0,0,0,-1,1833,1548,13.0056,-10.5138
616,-524,11.6941,8.65515,0,0,0,0,0,0,0,-1,1840,1548,11.6941,-8.65514
623,-524,9.38452,5.15356,0,0,0,0,0,0,0,-1,1847,1548,9.38456,-5.15359
630,-524,11.0541,3.57434,0,0,0,0,0,0,0,-1,1854,1548,11.0541,-3.57438
637,-524,11.6067,3.20728,0,0,0,0,0,0,0,-1,1861,1548,11.6067,-3.20724
644,-524,12.2134,0.727173,0,0,0,0,0,0,0,-1,1868,1548,12.2134,-0.727222
651,-524,0,0,0,0,0,0,0,0,0,-1,1875,1548,0,0
658,-524,0,0,0,0,0,0,0,0,0,-1,1882,1548,0,0
665,-524,0,0,0,0,0,0,0,0,0,-1,1889,1548,0,0
672,-524,0,0,0,0,0,0,0,0,0,-1,1896,1548,0,0
679,-524,0,0,0,0,0,0,0,0,0,-1,1903,1548,0,0
686,-524,0,0,0,0,0,0,0,0,0,-1,1910,1548,0,0
693,-524,0,0,0,0,0,0,0,0,0,-1,1917,1548,0,0
700,-524,0,0,0,0,0,0,0,0,0,-1,1924,1548,0,0
707,-524,0,0,0,0,0,0,0,0,0,-1,1931,1548,0,0
714,-524,0,0,0,0,0,0,0,0,0,-1,1938,1548,0,0
721,-524,0,0,0,0,0,0,0,0,0,-1,1945,1548,0,0
728,-524,0,0,0,0,0,0,0,0,0,-1,1952,1548,0,0
735,-524,0,0,0,0,0,0,0,0,0,-1,1959,1548,0,0
742,-524,0,0,0,0,0,0,0,0,0,-1,1966,1548,0,0
749,-524,0,0,0,0,0,0,0,0,0,-1,1973,1548,0,0
756,-524,0,0,0,0,0,0,0,0,0,-1,1980,1548,0,0
763,-524,0,0,0,0,0,0,0,0,0,-1,1987,1548,0,0
770,-524,0,0,0,0,0,0,0,0,0,-1,1994,1548,0,0
777,-524,0,0,0,0,0,0,0,0,0,-1,2001,1548,0,0
784,-524,0,0,0,0,0,0,0,0,0,-1,2008,1548,0,0
791,-524,0,0,0,0,0,0,0,0,0,-1,2015,1548,0,0
798,-524,0,0,0,0,0,0,0,0,0,-1,2022,1548,0,0
805,-524,0,0,0,0,0,0,0,0,0,-1,2029,1548,0,0
812,-524,0,0,0,0,0,0,0,0,0,-1,2036,1548,0,0
-700,-531,0,0,0,0,0,0,0,0,0,-1,524,1555,0,0
-693,-531,0,0,0,0,0,0,0,0,0,-1,531,1555,0,0
-686,-531,0,0,0,0,0,0,0,0,0,-1,538,1555,0,0
-679,-531,0,0,0,0,0,0,0,0,0,-1,545,1555,0,0
-672,-531,0,0,0,0,0,0,0,0,0,-1,552,1555,0,0
-665,-531,0,0,0,0,0,0,0,0,0,-1,559,1555,0,0
-658,-531,0,0,0,0,0,0,0,0,0,-1,566,1555,0,0
-651,-531,0,0,0,0,0,0,0,0,0,-1,573,1555,0,0
-644,-531,0,0,0,0,0,0,0,0,0,-1,580,1555,0,0
-637,-531,0,0,0,0,0,0,0,0,0,-1,587,1555,0,0
-630,-531,0,0,0,0,0,0,0,0,0,-1,594,1555,0,0
-623,-531,0,0,0,0,0,0,0,0,0,-1,601,1555,0,0
-616,-531,0,0,0,0,0,0,0,0,0,-1,608,1555,0,0
-609,-531,0,0,0,0,0,0,0,0,0,-1,615,1555,0,0
-602,-531,0,0,0,0,0,0,0,0,0,-1,622,1555,0,0
-595,-531,0,0,0,0,0,0,0,0,0,-1,629,1555,0,0
-588,-531,0,0,0,0,0,0,0,0,0,-1,636,1555,0,0
-581,-531,0,0,0,0,0,0,0,0,0,-1,643,1555,0,0
-574,-531,0,0,0,0,0,0,0,0,0,-1,650,1555,0,0
-567,-531,0,0,0,0,0,0,0,0,0,-1,657,1555,0,0
-560,-531,0,0,0,0,0,0,0,0,0,-1,664,1555,0,0
-553,-531,0,0,0,0,0,0,0,0,0,-1,671,1555,0,0
-546,-531,0,0,0,0,0,0,0,0,0,-1,678,1555,0,0
-539,-531,0,0,0,0,0,0,0,0,0,-1,685,1555,0,0
-532,-531,0,0,0,0,0,0,0,0,0,-1,692,1555,0,0
-525,-531,0,0,0,0,0,0,0,0,0,-1,699,1555,0,0
-518,-531,-1.63983,4.03821,0,0,0,0,0,0,0,-1,706,1555,-1.63982,-4.03821
-511,-531,-2.9682,8.07483,0,0,0,0,0,0,0,-1,713,1555,-2.9682,-8.07479
-504,-531,-2.95978,0.557861,0,0,0,0,0,0,0,-1,720,1555,-2.95978,-0.557917
-497,-531,-2.46039,8.07422,0,0,0,0,0,0,0,-1,727,1555,-2.46039,-8.07423
-490,-531,-0.423462,7.92065,0,0,0,0,0,0,0,-1,734,1555,-0.42344,-7.92066
-483,-531,-4.28247,19.4189,0,0,0,0,0,0,0,-1,741,1555,-4.28248,-19.4189
-476,-531,-3.98535,20.748,0,0,0,0,0,0,0,-1,748,1555,-3.98535,-20.7481
-469,-531,-3.80194,21.1051,0,0,0,0,0,0,0,-1,755,1555,-3.80194,-21.1051
-462,-531,-4.04163,21.9601,-0.00777204,-0.00136348,0.00110886,-0.00117705,-0.00795848,1.40422,0.00496008,0.0458518,762,1555,-4.04165,-21.9601
-455,-531,-4.29535,22.6627,-0.00527542,-0.00228421,0.00038676,-0.00223501,-0.00532462,1.44427,0.00308734,0.0429308,769,1555,-4.29535,-22.6628
-448,-531,-4.12024,23.0249,-0.00349862,-0.00272729,-8.26691e-05,-0.00271853,-0.00350738,-1.46522,0.00212469,0.0223684,776,1555,-4.12023,-23.0249
-441,-531,-4.23328,23.6586,-0.00214867,-0.00249422,-0.000169104,-0.00207968,-0.00256321,-0.387324,0.00157261,0.0131038,783,1555,-4.23326,-23.6586
-434,-531,-4.25793,24.3328,-0.00112352,-0.00192627,-5.94519e-05,-0.00111914,-0.00193065,-0.0735256,0.00111937,0.012726,790,1555,-4.25796,-24.3328
-427,-531,-4.29327,25.0135,-0.000166495,-0.00137793,0.000144747,-0.00014944,-0.00139498,0.117284,0.000884393,0.0141827,797,1555,-4.29325,-25.0135
-420,-531,-4.33777,25.6863,0.000650794,-0.000282227,0.000548213,0.000904123,-0.000535557,0.432871,0.00084023,0.0128042,804,1555,-4.3378,-25.6862
-413,-531,-4.35052,26.3334,0.00134491,0.000944294,0.0011128,0.00227529,1.39127e-05,0.696351,0.00151224,0.0108338,811,1555,-4.35051,-26.3333
-406,-531,-4.37927,26.9937,0.00201142,0.00230843,0.00174724,0.00391347,0.000406383,0.827792,0.00248462,0.0113781,818,1555,-4.37924,-26.9937
-399,-531,-4.4104,27.6414,0.00264927,0.00372467,0.00242628,0.00567212,0.000701824,0.894443,0.00357054,0.0145707,825,1555,-4.41039,-27.6413
-392,-531,-4.42462,28.2808,0.00342578,0.00510926,0.003062,0.00744311,0.00109192,0.919534,0.00464112,0.0189077,832,1555,-4.42462,-28.2808
-385,-531,-4.46844,28.9423,0.00424589,0.00647624,0.00366565,0.00919259,0.00152954,0.933061,0.00568752,0.014909,839,1555,-4.46846,-28.9422
-378,-531,-4.50098,29.51,0.00515437,0.00777542,0.00432249,0.0109817,0.00194811,0.932588,0.00676589,0.0184796,846,1555,-4.501,-29.51
-371,-531,-4.51318,30.2037,0,0,0,0,0,0,0,-1,853,1555,-4.51318,-30.2038
-364,-531,-4.31689,31.0889,0,0,0,0,0,0,0,-1,860,1555,-4.31687,-31.0888
-357,-531,-4.29193,31.5354,0,0,0,0,0,0,0,-1,867,1555,-4.29191,-31.5354
-350,-531,-3.16101,27.5791,0,0,0,0,0,0,0,-1,874,1555,-3.16099,-27.5791
-343,-531,-2.90552,28.561,0,0,0,0,0,0,0,-1,881,1555,-2.90549,-28.5611
-336,-531,-2.6698,29.5398,0,0,0,0,0,0,0,-1,888,1555,-2.66983,-29.5398
-329,-531,-2.45148,30.4781,0,0,0,0,0,0,0,-1,895,1555,-2.45148,-30.4781
-322,-531,-3.25092,28.4921,0,0,0,0,0,0,0,-1,902,1555,-3.25092,-28.4921
-315,-531,-5.51929,31.7814,0,0,0,0,0,0,0,-1,909,1555,-5.51928,-31.7813
-308,-531,-1.66455,19.0624,0,0,0,0,0,0,0,-1,916,1555,-1.66455,-19.0623
-301,-531,-2.02405,18.8912,0,0,0,0,0,0,0,-1,923,1555,-2.02407,-18.8913
-294,-531,-1.3244,8.1825,0,0,0,0,0,0,0,-1,930,1555,-1.3244,-8.18251
-287,-531,-1.78192,10.1661,0,0,0,0,0,0,0,-1,937,1555,-1.78192,-10.1661
-280,-531,-2.14508,10.3945,0,0,0,0,0,0,0,-1,944,1555,-2.14506,-10.3945
-273,-531,-2.50818,10.6229,0,0,0,0,0,0,0,-1,951,1555,-2.5082,-10.6229
-266,-531,-4.97742,17.9215,0,0,0,0,0,0,0,-1,958,1555,-4.97744,-17.9215
-259,-531,0,0,0,0,0,0,0,0,0,-1,965,1555,0,0
-252,-531,0,0,0,0,0,0,0,0,0,-1,972,1555,0,0
-245,-531,0,0,0,0,0,0,0,0,0,-1,979,1555,0,0
-238,-531,0,0,0,0,0,0,0,0,0,-1,986,1555,0,0
-231,-531,0,0,0,0,0,0,0,0,0,-1,993,1555,0,0
-224,-531,0,0,0,0,0,0,0,0,0,-1,1000,1555,0,0
-217,-531,0,0,0,0,0,0,0,0,0,-1,1007,1555,0,0
-210,-531,0,0,0,0,0,0,0,0,0,-1,1014,1555,0,0
-203,-531,0,0,0,0,0,0,0,0,0,-1,1021,1555,0,0
-196,-531,0,0,0,0,0,0,0,0,0,-1,1028,1555,0,0
-189,-531,0,0,0,0,0,0,0,0,0,-1,1035,1555,0,0
-182,-531,0,0,0,0,0,0,0,0,0,-1,1042,1555,0,0
-175,-531,0,0,0,0,0,0,0,0,0,-1,1049,1555,0,0
-168,-531,0,0,0,0,0,0,0,0,0,-1,1056,1555,0,0
-161,-531,0,0,0,0,0,0,0,0,0,-1,1063,1555,0,0
-154,-531,0,0,0,0,0,0,0,0,0,-1,1070,1555,0,0
-147,-531,0,0,0,0,0,0,0,0,0,-1,1077,1555,0,0
-140,-531,0,0,0,0,0,0,0,0,0,-1,1084,1555,0,0
-133,-531,0,0,0,0,0,0,0,0,0,-1,1091,1555,0,0
-126,-531,0,0,0,0,0,0,0,0,0,-1,1098,1555,0,0
-119,-531,0,0,0,0,0,0,0,0,0,-1,1105,1555,0,0
-112,-531,0,0,0,0,0,0,0,0,0,-1,1112,1555,0,0
-105,-531,0,0,0,0,0,0,0,0,0,-1,1119,1555,0,0
-98,-531,0,0,0,0,0,0,0,0,0,-1,1126,1555,0,0
-91,-531,0,0,0,0,0,0,0,0,0,-1,1133,1555,0,0
-84,-531,0,0,0,0,0,0,0,0,0,-1,1140,1555,0,0
-77,-531,0,0,0,0,0,0,0,0,0,-1,1147,1555,0,0
-70,-531,0,0,0,0,0,0,0,0,0,-1,1154,1555,0,0
-63,-531,0,0,0,0,0,0,0,0,0,-1,1161,1555,0,0
-56,-531,0,0,0,0,0,0,0,0,0,-1,1168,1555,0,0
-49,-531,0,0,0,0,0,0,0,0,0,-1,1175,1555,0,0
-42,-531,0,0,0,0,0,0,0,0,0,-1,1182,1555,0,0
-35,-531,0,0,0,0,0,0,0,0,0,-1,1189,1555,0,0
-28,-531,0,0,0,0,0,0,0,0,0,-1,1196,1555,0,0
-21,-531,0,0,0,0,0,0,0,0,0,-1,1203,1555,0,0
-14,-531,0,0,0,0,0,0,0,0,0,-1,1210,1555,0,0
-7,-531,0,0,0,0,0,0,0,0,0,-1,1217,1555,0,0
0,-531,0,0,0,0,0,0,0,0,0,-1,1224,1555,0,0
7,-531,0,0,0,0,0,0,0,0,0,-1,1231,1555,0,0
14,-531,0,0,0,0,0,0,0,0,0,-1,1238,1555,0,0
21,-531,0,0,0,0,0,0,0,0,0,-1,1245,1555,0,0
28,-531,0,0,0,0,0,0,0,0,0,-1,1252,1555,0,0
35,-531,0,0,0,0,0,0,0,0,0,-1,1259,1555,0,0
42,-531,0,0,0,0,0,0,0,0,0,-1,1266,1555,0,0
49,-531,0,0,0,0,0,0,0,0,0,-1,1273,1555,0,0
56,-531,0,0,0,0,0,0,0,0,0,-1,1280,1555,0,0
63,-531,0,0,0,0,0,0,0,0,0,-1,1287,1555,0,0
70,-531,0,0,0,0,0,0,0,0,0,-1,1294,1555,0,0
77,-531,0,0,0,0,0,0,0,0,0,-1,1301,1555,0,0
84,-531,0,0,0,0,0,0,0,0,0,-1,1308,1555,0,0
91,-531,0,0,0,0,0,0,0,0,0,-1,1315,1555,0,0
98,-531,0,0,0,0,0,0,0,0,0,-1,1322,1555,0,0
105,-531,0,0,0,0,0,0,0,0,0,-1,1329,1555,0,0
112,-531,0,0,0,0,0,0,0,0,0,-1,1336,1555,0,0
119,-531,0,0,0,0,0,0,0,0,0,-1,1343,1555,0,0
126,-531,0,0,0,0,0,0,0,0,0,-1,1350,1555,0,0
133,-531,0,0,0,0,0,0,0,0,0,-1,1357,1555,0,0
140,-531,0,0,0,0,0,0,0,0,0,-1,1364,1555,0,0
147,-531,0,0,0,0,0,0,0,0,0,-1,1371,1555,0,0
154,-531,0,0,0,0,0,0,0,0,0,-1,1378,1555,0,0
161,-531,0,0,0,0,0,0,0,0,0,-1,1385,1555,0,0
168,-531,0,0,0,0,0,0,0,0,0,-1,1392,1555,0,0
175,-531,0,0,0,0,0,0,0,0,0,-1,1399,1555,0,0
182,-531,0,0,0,0,0,0,0,0,0,-1,1406,1555,0,0
189,-531,0,0,0,0,0,0,0,0,0,-1,1413,1555,0,0
196,-531,0,0,0,0,0,0,0,0,0,-1,1420,1555,0,0
203,-531,0,0,0,0,0,0,0,0,0,-1,1427,1555,0,0
210,-531,0,0,0,0,0,0,0,0,0,-1,1434,1555,0,0
217,-531,0,0,0,0,0,0,0,0,0,-1,1441,1555,0,0
224,-531,0,0,0,0,0,0,0,0,0,-1,1448,1555,0,0
231,-531,0,0,0,0,0,0,0,0,0,-1,1455,1555,0,0
238,-531,0,0,0,0,0,0,0,0,0,-1,1462,1555,0,0
245,-531,0,0,0,0,0,0,0,0,0,-1,1469,1555,0,0
252,-531,0,0,0,0,0,0,0,0,0,-1,1476,1555,0,0
259,-531,0,0,0,0,0,0,0,0,0,-1,1483,1555,0,0
266,-531,0,0,0,0,0,0,0,0,0,-1,1490,1555,0,0
273,-531,0,0,0,0,0,0,0,0,0,-1,1497,1555,0,0
280,-531,0,0,0,0,0,0,0,0,0,-1,1504,1555,0,0
287,-531,0,0,0,0,0,0,0,0,0,-1,1511,1555,0,0
294,-531,0,0,0,0,0,0,0,0,0,-1,1518,1555,0,0
301,-531,0,0,0,0,0,0,0,0,0,-1,1525,1555,0,0
308,-531,0,0,0,0,0,0,0,0,0,-1,1532,1555,0,0
315,-531,0,0,0,0,0,0,0,0,0,-1,1539,1555,0,0
322,-531,0,0,0,0,0,0,0,0,0,-1,1546,1555,0,0
329,-531,0,0,0,0,0,0,0,0,0,-1,1553,1555,0,0
336,-531,0,0,0,0,0,0,0,0,0,-1,1560,1555,0,0
343,-531,0,0,0,0,0,0,0,0,0,-1,1567,1555,0,0
350,-531,0,0,0,0,0,0,0,0,0,-1,1574,1555,0,0
357,-531,0,0,0,0,0,0,0,0,0,-1,1581,1555,0,0
364,-531,0,0,0,0,0,0,0,0,0,-1,1588,1555,0,0
371,-531,0,0,0,0,0,0,0,0,0,-1,1595,1555,0,0
378,-531,0,0,0,0,0,0,0,0,0,-1,1602,1555,0,0
385,-531,3.48169,1.78625,0,0,0,0,0,0,0,-1,1609,1555,3.48165,-1.78624
392,-531,10.8781,9.09204,0,0,0,0,0,0,0,-1,1616,1555,10.8781,-9.09205
399,-531,8.26306,5.29602,0,0,0,0,0,0,0,-1,1623,1555,8.26302,-5.29607
406,-531,8.26147,5.42712,0,0,0,0,0,0,0,-1,1630,1555,8.26145,-5.42716
413,-531,8.20618,5.75012,0,0,0,0,0,0,0,-1,1637,1555,8.20619,-5.75017
420,-531,7.64868,7.09558,0,0,0,0,0,0,0,-1,1644,1555,7.64867,-7.09564
427,-531,9.93054,11.8412,0,0,0,0,0,0,0,-1,1651,1555,9.93059,-11.8412
434,-531,10.244,11.7072,0,0,0,0,0,0,0,-1,1658,1555,10.244,-11.7071
441,-531,11.4528,12.9397,0,0,0,0,0,0,0,-1,1665,1555,11.4528,-12.9397
448,-531,11.928,18.8029,0,0,0,0,0,0,0,-1,1672,1555,11.928,-18.8028
455,-531,14.4877,9.67065,0,0,0,0,0,0,0,-1,1679,1555,14.4876,-9.67066
462,-531,13.5253,12.2002,0,0,0,0,0,0,0,-1,1686,1555,13.5252,-12.2002
469,-531,15.5087,15.7894,0,0,0,0,0,0,0,-1,1693,1555,15.5086,-15.7895
476,-531,14.6582,16.2264,0,0,0,0,0,0,0,-1,1700,1555,14.6582,-16.2264
483,-531,14.755,18.5994,0,0,0,0,0,0,0,-1,1707,1555,14.7551,-18.5994
490,-531,16.9362,25.4943,0,0,0,0,0,0,0,-1,1714,1555,16.9362,-25.4942
497,-531,22.0436,31.8501,0,0,0,0,0,0,0,-1,1721,1555,22.0436,-31.8501
504,-531,22.1978,30.9225,0.0105632,0.00999992,-0.00865174,0.0189379,0.00162522,-0.769128,0.0121199,0.0436744,1728,1555,22.1978,-30.9225
511,-531,22.3104,30.1744,0.00864709,0.00799012,-0.00689105,0.0152175,0.00141973,-0.761582,0.00970642,0.0169067,1735,1555,22.3104,-30.1744
518,-531,22.347,29.5295,0.00694456,0.00613849,-0.0053032,0.01186,0.00122303,-0.747472,0.00753217,0.0152833,1742,1555,22.3471,-29.5295
525,-531,22.3593,28.9482,0.00536028,0.0047521,-0.00403187,0.00909951,0.00101287,-0.747759,0.00575849,0.0147728,1749,1555,22.3593,-28.9482
532,-531,22.3551,28.312,0.00394438,0.00347143,-0.00287373,0.00659135,0.000824455,-0.744347,0.00414683,0.0114218,1756,1555,22.3551,-28.3121
539,-531,22.3126,27.6672,0.00285072,0.00241829,-0.00190162,0.00454838,0.000720626,-0.728791,0.00282287,0.0131055,1763,1555,22.3126,-27.6672
546,-531,22.2539,27.0533,0.00196319,0.00132188,-0.000968774,0.002663,0.000622072,-0.625578,0.00160858,0.0175236,1770,1555,22.2539,-27.0533
553,-531,22.3169,26.5052,0.0013199,0.000361545,-0.000135643,0.00133872,0.000342716,-0.13793,0.000803004,0.0343766,1777,1555,22.3169,-26.5053
560,-531,22.3165,25.8718,0.00109187,-0.000436588,0.000492677,0.00123691,-0.000581632,0.286311,0.00107242,0.0376496,1784,1555,22.3165,-25.8718
567,-531,22.1208,25.1837,0.00129331,-0.000990755,0.000824161,0.00155964,-0.00125708,0.312558,0.00162936,0.0216206,1791,1555,22.1208,-25.1837
574,-531,22.1025,24.5603,0.00187587,-0.00148489,0.00104304,0.00217327,-0.00178229,0.277757,0.00228746,0.0153529,1798,1555,22.1026,-24.5604
581,-531,22.1532,23.8779,0.00308085,-0.00177532,0.000912254,0.00324657,-0.00194104,0.179696,0.00302652,0.0249663,1805,1555,22.1532,-23.8779
588,-531,22.1696,23.1805,0.00492952,-0.00173849,0.000455597,0.0049605,-0.00176948,0.0679052,0.00402851,0.041954,1812,1555,22.1695,-23.1805
595,-531,22.0729,22.4761,0,0,0,0,0,0,0,-1,1819,1555,22.0729,-22.4761
602,-531,13.701,11.8346,0,0,0,0,0,0,0,-1,1826,1555,13.701,-11.8347
609,-531,10.9072,8.50903,0,0,0,0,0,0,0,-1,1833,1555,10.9073,-8.50902
616,-531,10.5723,7.17859,0,0,0,0,0,0,0,-1,1840,1555,10.5723,-7.17855
623,-531,10.0674,5.08984,0,0,0,0,0,0,0,-1,1847,1555,10.0674,-5.08981
630,-531,11.672,3.18909,0,0,0,0,0,0,0,-1,1854,1555,11.672,-3.18904
637,-531,13.2546,1.38965,0,0,0,0,0,0,0,-1,1861,1555,13.2547,-1.3896
644,-531,0,0,0,0,0,0,0,0,0,-1,1868,1555,0,0
651,-531,0,0,0,0,0,0,0,0,0,-1,1875,1555,0,0
658,-531,0,0,0,0,0,0,0,0,0,-1,1882,1555,0,0
665,-531,0,0,0,0,0,0,0,0,0,-1,1889,1555,0,0
672,-531,0,0,0,0,0,0,0,0,0,-1,1896,1555,0,0
679,-531,0,0,0,0,0,0,0,0,0,-1,1903,1555,0,0
686,-531,0,0,0,0,0,0,0,0,0,-1,1910,1555,0,0
693,-531,0,0,0,0,0,0,0,0,0,-1,1917,1555,0,0
700,-531,0,0,0,0,0,0,0,0,0,-1,1924,1555,0,0
707,-531,0,0,0,0,0,0,0,0,0,-1,1931,1555,0,0
714,-531,0,0,0,0,0,0,0,0,0,-1,1938,1555,0,0
721,-531,0,0,0,0,0,0,0,0,0,-1,1945,1555,0,0
728,-531,0,0,0,0,0,0,0,0,0,-1,1952,1555,0,0
735,-531,0,0,0,0,0,0,0,0,0,-1,1959,1555,0,0
742,-531,0,0,0,0,0,0,0,0,0,-1,1966,1555,0,0
749,-531,0,0,0,0,0,0,0,0,0,-1,1973,1555,0,0
756,-531,0,0,0,0,0,0,0,0,0,-1,1980,1555,0,0
763,-531,0,0,0,0,0,0,0,0,0,-1,1987,1555,0,0
770,-531,0,0,0,0,0,0,0,0,0,-1,1994,1555,0,0
777,-531,0,0,0,0,0,0,0,0,0,-1,2001,1555,0,0
784,-531,0,0,0,0,0,0,0,0,0,-1,2008,1555,0,0
791,-531,0,0,0,0,0,0,0,0,0,-1,2015,1555,0,0
798,-531,0,0,0,0,0,0,0,0,0,-1,2022,1555,0,0
805,-531,0,0,0,0,0,0,0,0,0,-1,2029,1555,0,0
812,-531,0,0,0,0,0,0,0,0,0,-1,2036,1555,0,0
-700,-538,0,0,0,0,0,0,0,0,0,-1,524,1562,0,0
-693,-538,0,0,0,0,0,0,0,0,0,-1,531,1562,0,0
-686,-538,0,0,0,0,0,0,0,0,0,-1,538,1562,0,0
-679,-538,0,0,0,0,0,0,0,0,0,-1,545,1562,0,0
-672,-538,0,0,0,0,0,0,0,0,0,-1,552,1562,0,0
-665,-538,0,0,0,0,0,0,0,0,0,-1,559,1562,0,0
-658,-538,0,0,0,0,0,0,0,0,0,-1,566,1562,0,0
-651,-538,0,0,0,0,0,0,0,0,0,-1,573,1562,0,0
-644,-538,0,0,0,0,0,0,0,0,0,-1,580,1562,0,0
-637,-538,0,0,0,0,0,0,0,0,0,-1,587,1562,0,0
-630,-538,0,0,0,0,0,0,0,0,0,-1,594,1562,0,0
-623,-538,0,0,0,0,0,0,0,0,0,-1,601,1562,0,0
-616,-538,0,0,0,0,0,0,0,0,0,-1,608,1562,0,0
-609,-538,0,0,0,0,0,0,0,0,0,-1,615,1562,0,0
-602,-538,0,0,0,0,0,0,0,0,0,-1,622,1562,0,0
-595,-538,0,0,0,0,0,0,0,0,0,-1,629,1562,0,0
-588,-538,0,0,0,0,0,0,0,0,0,-1,636,1562,0,0
-581,-538,0,0,0,0,0,0,0,0,0,-1,643,1562,0,0
-574,-538,0,0,0,0,0,0,0,0,0,-1,650,1562,0,0
-567,-538,0,0,0,0,0,0,0,0,0,-1,657,1562,0,0
-560,-538,0,0,0,0,0,0,0,0,0,-1,664,1562,0,0
-553,-538,0,0,0,0,0,0,0,0,0,-1,671,1562,0,0
-546,-538,0,0,0,0,0,0,0,0,0,-1,678,1562,0,0
-539,-538,0,0,0,0,0,0,0,0,0,-1,685,1562,0,0
-532,-538,0,0,0,0,0,0,0,0,0,-1,692,1562,0,0
-525,-538,0,0,0,0,0,0,0,0,0,-1,699,1562,0,0
-518,-538,0,0,0,0,0,0,0,0,0,-1,706,1562,0,0
-511,-538,-2.6582,-1.54321,0,0,0,0,0,0,0,-1,713,1562,-2.65821,1.54327
-504,-538,-2.66455,-0.71167,0,0,0,0,0,0,0,-1,720,1562,-2.66456,0.711667
-497,-538,-0.763855,6.77747,0,0,0,0,0,0,0,-1,727,1562,-0.76385,-6.77743
-490,-538,-2.70453,8.01465,0,0,0,0,0,0,0,-1,734,1562,-2.70451,-8.0147
-483,-538,-0.933533,7.84644,0,0,0,0,0,0,0,-1,741,1562,-0.933548,-7.84638
-476,-538,-3.29962,15.8307,0,0,0,0,0,0,0,-1,748,1562,-3.29962,-15.8306
-469,-538,-4.18591,20.9452,0,0,0,0,0,0,0,-1,755,1562,-4.18588,-20.9452
-462,-538,-3.27704,22.1051,0,0,0,0,0,0,0,-1,762,1562,-3.27703,-22.1051
-455,-538,-3.7937,22.6693,-0.00516653,-0.00300044,0.00048918,-0.00289509,-0.00527188,1.35868,0.00304862,0.0426121,769,1562,-3.79368,-22.6694
-448,-538,-3.41754,23.2103,-0.00351509,-0.00355534,-0.000139168,-0.0033946,-0.00367583,-0.713593,0.0023624,0.0239903,776,1562,-3.41752,-23.2103
-441,-538,-3.54614,23.8181,-0.00227917,-0.00332941,-0.000317869,-0.00219045,-0.00341812,-0.272162,0.00199938,0.0275872,783,1562,-3.54615,-23.8181
-434,-538,-3.64679,24.3612,-0.00135712,-0.00288568,-0.000328155,-0.00128965,-0.00295315,-0.202781,0.00170955,0.0138866,790,1562,-3.64677,-24.3612
-427,-538,-3.70142,25.0718,-0.000469446,-0.00238385,-0.000180188,-0.000452634,-0.00240066,-0.0930338,0.00147293,0.0135414,797,1562,-3.70142,-25.0718
-420,-538,-3.71332,25.7168,0.000268879,-0.00133057,0.000143243,0.000281607,-0.0013433,0.0886175,0.00100267,0.0182743,804,1562,-3.71334,-25.7168
-413,-538,-3.70807,26.3461,0.000873806,-0.000193919,0.000610499,0.00115094,-0.000471055,0.426133,0.000963492,0.0187383,811,1562,-3.70804,-26.3461
-406,-538,-3.71436,27.0104,0.00147698,0.00107202,0.00113378,0.00242622,0.000122782,0.697036,0.00157815,0.0142615,818,1562,-3.71434,-27.0104
-399,-538,-3.7467,27.681,0.00191203,0.00233751,0.00166338,0.0038017,0.000447846,0.849002,0.00239916,0.0140213,825,1562,-3.74668,-27.681
-392,-538,-3.76257,28.3239,0.00249004,0.00347273,0.00213443,0.00517164,0.000791129,0.898527,0.00321665,0.0155373,832,1562,-3.76256,-28.3239
-385,-538,-3.81757,28.9619,0.00320582,0.00464275,0.0025679,0.0065908,0.00125777,0.921804,0.0040404,0.0130152,839,1562,-3.81754,-28.962
-378,-538,-3.8396,29.5842,0.0039705,0.00569746,0.00300172,0.00795743,0.00171053,0.925448,0.00483667,0.0101798,846,1562,-3.83961,-29.5843
-371,-538,-3.88074,30.1958,0.0048682,0.00677954,0.0035088,0.00946049,0.00218725,0.918355,0.00571907,0.0138259,853,1562,-3.88075,-30.1958
-364,-538,-3.82465,30.9293,0.00597821,0.0082629,0.00424446,0.0115161,0.00272506,0.916852,0.00694945,0.0205417,860,1562,-3.82463,-30.9293
-357,-538,-3.78625,31.785,0,0,0,0,0,0,0,-1,867,1562,-3.78625,-31.785
-350,-538,-3.55835,32.7747,0,0,0,0,0,0,0,-1,874,1562,-3.55837,-32.7747
-343,-538,-2.47339,28.3082,0,0,0,0,0,0,0,-1,881,1562,-2.47341,-28.3083
-336,-538,-2.40161,28.5409,0,0,0,0,0,0,0,-1,888,1562,-2.40163,-28.541
-329,-538,-2.57159,28.4905,0,0,0,0,0,0,0,-1,895,1562,-2.57161,-28.4905
-322,-538,-2.83783,28.2308,0,0,0,0,0,0,0,-1,902,1562,-2.83783,-28.2308
-315,-538,-2.91827,27.7609,0,0,0,0,0,0,0,-1,909,1562,-2.91829,-27.7608
-308,-538,-4.37433,31.7996,0,0,0,0,0,0,0,-1,916,1562,-4.3743,-31.7995
-301,-538,-0.452393,18.5101,0,0,0,0,0,0,0,-1,923,1562,-0.452367,-18.5102
-294,-538,1.23138,14.0757,0,0,0,0,0,0,0,-1,930,1562,1.23137,-14.0757
-287,-538,-2.60419,10.2361,0,0,0,0,0,0,0,-1,937,1562,-2.6042,-10.2361
-280,-538,-2.93475,10.5106,0,0,0,0,0,0,0,-1,944,1562,-2.93475,-10.5106
-273,-538,-3.26532,10.785,0,0,0,0,0,0,0,-1,951,1562,-3.26531,-10.785
-266,-538,-5.03412,15.9951,0,0,0,0,0,0,0,-1,958,1562,-5.03409,-15.9951
-259,-538,-5.89642,16.5184,0,0,0,0,0,0,0,-1,965,1562,-5.89644,-16.5184
-252,-538,0,0,0,0,0,0,0,0,0,-1,972,1562,0,0
-245,-538,0,0,0,0,0,0,0,0,0,-1,979,1562,0,0
-238,-538,0,0,0,0,0,0,0,0,0,-1,986,1562,0,0
-231,-538,0,0,0,0,0,0,0,0,0,-1,993,1562,0,0
-224,-538,0,0,0,0,0,0,0,0,0,-1,1000,1562,0,0
-217,-538,0,0,0,0,0,0,0,0,0,-1,1007,1562,0,0
-210,-538,0,0,0,0,0,0,0,0,0,-1,1014,1562,0,0
-203,-538,0,0,0,0,0,0,0,0,0,-1,1021,1562,0,0
-196,-538,0,0,0,0,0,0,0,0,0,-1,1028,1562,0,0
-189,-538,0,0,0,0,0,0,0,0,0,-1,1035,1562,0,0
-182,-538,0,0,0,0,0,0,0,0,0,-1,1042,1562,0,0
-175,-538,0,0,0,0,0,0,0,0,0,-1,1049,1562,0,0
-168,-538,0,0,0,0,0,0,0,0,0,-1,1056,1562,0,0
-161,-538,0,0,0,0,0,0,0,0,0,-1,1063,1562,0,0
-154,-538,0,0,0,0,0,0,0,0,0,-1,1070,1562,0,0
-147,-538,0,0,0,0,0,0,0,0,0,-1,1077,1562,0,0
-140,-538,0,0,0,0,0,0,0,0,0,-1,1084,1562,0,0
-133,-538,0,0,0,0,0,0,0,0,0,-1,1091,1562,0,0
-126,-538,0,0,0,0,0,0,0,0,0,-1,1098,1562,0,0
-119,-538,0,0,0,0,0,0,0,0,0,-1,1105,1562,0,0
-112,-538,0,0,0,0,0,0,0,0,0,-1,1112,1562,0,0
-105,-538,0,0,0,0,0,0,0,0,0,-1,1119,1562,0,0
-98,-538,0,0,0,0,0,0,0,0,0,-1,1126,1562,0,0
-91,-538,0,0,0,0,0,0,0,0,0,-1,1133,1562,0,0
-84,-538,0,0,0,0,0,0,0,0,0,-1,1140,1562,0,0
-77,-538,0,0,0,0,0,0,0,0,0,-1,1147,1562,0,0
-70,-538,0,0,0,0,0,0,0,0,0,-1,1154,1562,0,0
-63,-538,0,0,0,0,0,0,0,0,0,-1,1161,1562,0,0
-56,-538,0,0,0,0,0,0,0,0,0,-1,1168,1562,0,0
-49,-538,0,0,0,0,0,0,0,0,0,-1,1175,1562,0,0
-42,-538,0,0,0,0,0,0,0,0,0,-1,1182,1562,0,0
-35,-538,0,0,0,0,0,0,0,0,0,-1,1189,1562,0,0
-28,-538,0,0,0,0,0,0,0,0,0,-1,1196,1562,0,0
-21,-538,0,0,0,0,0,0,0,0,0,-1,1203,1562,0,0
-14,-538,0,0,0,0,0,0,0,0,0,-1,1210,1562,0,0
-7,-538,0,0,0,0,0,0,0,0,0,-1,1217,1562,0,0
0,-538,0,0,0,0,0,0,0,0,0,-1,1224,1562,0,0
7,-538,0,0,0,0,0,0,0,0,0,-1,1231,1562,0,0
14,-538,0,0,0,0,0,0,0,0,0,-1,1238,1562,0,0
21,-538,0,0,0,0,0,0,0,0,0,-1,1245,1562,0,0
28,-538,0,0,0,0,0,0,0,0,0,-1,1252,1562,0,0
35,-538,0,0,0,0,0,0,0,0,0,-1,1259,1562,0,0
42,-538,0,0,0,0,0,0,0,0,0,-1,1266,1562,0,0
49,-538,0,0,0,0,0,0,0,0,0,-1,1273,1562,0,0
56,-538,0,0,0,0,0,0,0,0,0,-1,1280,1562,0,0
63,-538,0,0,0,0,0,0,0,0,0,-1,1287,1562,0,0
70,-538,0,0,0,0,0,0,0,0,0,-1,1294,1562,0,0
77,-538,0,0,0,0,0,0,0,0,0,-1,1301,1562,0,0
84,-538,0,0,0,0,0,0,0,0,0,-1,1308,1562,0,0
91,-538,0,0,0,0,0,0,0,0,0,-1,1315,1562,0,0
98,-538,0,0,0,0,0,0,0,0,0,-1,1322,1562,0,0
105,-538,0,0,0,0,0,0,0,0,0,-1,1329,1562,0,0
112,-538,0,0,0,0,0,0,0,0,0,-1,1336,1562,0,0
119,-538,0,0,0,0,0,0,0,0,0,-1,1343,1562,0,0
126,-538,0,0,0,0,0,0,0,0,0,-1,1350,1562,0,0
133,-538,0,0,0,0,0,0,0,0,0,-1,1357,1562,0,0
140,-538,0,0,0,0,0,0,0,0,0,-1,1364,1562,0,0
147,-538,0,0,0,0,0,0,0,0,0,-1,1371,1562,0,0
154,-538,0,0,0,0,0,0,0,0,0,-1,1378,1562,0,0
161,-538,0,0,0,0,0,0,0,0,0,-1,1385,1562,0,0
168,-538,0,0,0,0,0,0,0,0,0,-1,1392,1562,0,0
175,-538,0,0,0,0,0,0,0,0,0,-1,1399,1562,0,0
182,-538,0,0,0,0,0,0,0,0,0,-1,1406,1562,0,0
189,-538,0,0,0,0,0,0,0,0,0,-1,1413,1562,0,0
196,-538,0,0,0,0,0,0,0,0,0,-1,1420,1562,0,0
203,-538,0,0,0,0,0,0,0,0,0,-1,1427,1562,0,0
210,-538,0,0,0,0,0,0,0,0,0,-1,1434,1562,0,0
217,-538,0,0,0,0,0,0,0,0,0,-1,1441,1562,0,0
224,-538,0,0,0,0,0,0,0,0,0,-1,1448,1562,0,0
231,-538,0,0,0,0,0,0,0,0,0,-1,1455,1562,0,0
238,-538,0,0,0,0,0,0,0,0,0,-1,1462,1562,0,0
245,-538,0,0,0,0,0,0,0,0,0,-1,1469,1562,0,0
252,-538,0,0,0,0,0,0,0,0,0,-1,1476,1562,0,0
259,-538,0,0,0,0,0,0,0,0,0,-1,1483,1562,0,0
266,-538,0,0,0,0,0,0,0,0,0,-1,1490,1562,0,0
273,-538,0,0,0,0,0,0,0,0,0,-1,1497,1562,0,0
280,-538,0,0,0,0,0,0,0,0,0,-1,1504,1562,0,0
287,-538,0,0,0,0,0,0,0,0,0,-1,1511,1562,0,0
294,-538,0,0,0,0,0,0,0,0,0,-1,1518,1562,0,0
301,-538,0,0,0,0,0,0,0,0,0,-1,1525,1562,0,0
308,-538,0,0,0,0,0,0,0,0,0,-1,1532,1562,0,0
315,-538,0,0,0,0,0,0,0,0,0,-1,1539,1562,0,0
322,-538,0,0,0,0,0,0,0,0,0,-1,1546,1562,0,0
329,-538,0,0,0,0,0,0,0,0,0,-1,1553,1562,0,0
336,-538,0,0,0,0,0,0,0,0,0,-1,1560,1562,0,0
343,-538,0,0,0,0,0,0,0,0,0,-1,1567,1562,0,0
350,-538,0,0,0,0,0,0,0,0,0,-1,1574,1562,0,0
357,-538,0,0,0,0,0,0,0,0,0,-1,1581,1562,0,0
364,-538,0,0,0,0,0,0,0,0,0,-1,1588,1562,0,0
371,-538,0,0,0,0,0,0,0,0,0,-1,1595,1562,0,0
378,-538,9.65479,5.82434,0,0,0,0,0,0,0,-1,1602,1562,9.6548,-5.82439
385,-538,10.5449,7.9502,0,0,0,0,0,0,0,-1,1609,1562,10.5449,-7.95014
392,-538,8.20361,7.07214,0,0,0,0,0,0,0,-1,1616,1562,8.20362,-7.07211
399,-538,7.85425,4.70508,0,0,0,0,0,0,0,-1,1623,1562,7.85425,-4.70512
406,-538,7.77734,4.96094,0,0,0,0,0,0,0,-1,1630,1562,7.77729,-4.96097
413,-538,13.0446,13.1765,0,0,0,0,0,0,0,-1,1637,1562,13.0446,-13.1765
420,-538,9.96216,12.7653,0,0,0,0,0,0,0,-1,1644,1562,9.96221,-12.7653
427,-538,10.1732,14.5863,0,0,0,0,0,0,0,-1,1651,1562,10.1732,-14.5863
434,-538,9.64331,14.7745,0,0,0,0,0,0,0,-1,1658,1562,9.64326,-14.7746
441,-538,11.5039,20.5195,0,0,0,0,0,0,0,-1,1665,1562,11.5039,-20.5195
448,-538,12.8766,22.4932,0,0,0,0,0,0,0,-1,1672,1562,12.8766,-22.4932
455,-538,12.5693,17.4128,0,0,0,0,0,0,0,-1,1679,1562,12.5694,-17.4128
462,-538,12.1389,17.017,0,0,0,0,0,0,0,-1,1686,1562,12.1389,-17.017
469,-538,14.3802,16.6945,0,0,0,0,0,0,0,-1,1693,1562,14.3803,-16.6945
476,-538,13.724,19.0608,0,0,0,0,0,0,0,-1,1700,1562,13.724,-19.0608
483,-538,17.088,25.2936,0,0,0,0,0,0,0,-1,1707,1562,17.088,-25.2936
490,-538,21.3951,32.5995,0,0,0,0,0,0,0,-1,1714,1562,21.3952,-32.5995
497,-538,21.6547,31.5616,0.00957693,0.0107325,-0.00814329,0.0183185,0.00199093,-0.820814,0.0116057,0.0429691,1721,1562,21.6547,-31.5617
504,-538,21.7571,30.7371,0.00812139,0.00811178,-0.00665464,0.0147712,0.00146195,-0.785037,0.00939814,0.0181613,1728,1562,21.757,-30.737
511,-538,21.7236,30.1434,0.00654221,0.0063198,-0.00521974,0.0116519,0.00121008,-0.774747,0.00739766,0.0106338,1735,1562,21.7236,-30.1435
518,-538,21.7316,29.5427,0.00506833,0.00464965,-0.003874,0.00873863,0.000979338,-0.758406,0.0055283,0.0114709,1742,1562,21.7315,-29.5427
525,-538,21.7291,28.9332,0.00376028,0.00342793,-0.00278168,0.00638074,0.000807472,-0.755564,0.00401185,0.0124607,1749,1562,21.7291,-28.9332
532,-538,21.7169,28.3207,0.00261417,0.00227827,-0.00178885,0.00424294,0.0006495,-0.738592,0.00263891,0.0140629,1756,1562,21.7169,-28.3207
539,-538,21.6754,27.731,0.0016933,0.00134556,-0.000934305,0.00246977,0.000569082,-0.693402,0.00149341,0.0168101,1763,1562,21.6754,-27.7309
546,-538,21.6268,27.0842,0.000936233,0.000326708,-6.45122e-05,0.000942986,0.000319955,-0.104301,0.000553727,0.0173683,1770,1562,21.6268,-27.0842
553,-538,21.6438,26.4706,0.000422122,-0.000552935,0.000718796,0.000803128,-0.000933941,0.487406,0.00100384,0.0282295,1777,1562,21.6438,-26.4706
560,-538,21.561,25.8954,0.000325489,-0.00127336,0.00131512,0.0010651,-0.00201297,0.512305,0.00180499,0.031937,1784,1562,21.561,-25.8954
567,-538,21.4377,25.27,0.000655079,-0.00181762,0.00168685,0.00151015,-0.00267269,0.469154,0.00244585,0.0248497,1791,1562,21.4377,-25.2701
574,-538,21.3086,24.6338,0.00141586,-0.00232767,0.00196051,0.00225465,-0.00316646,0.404275,0.0031446,0.0310091,1798,1562,21.3086,-24.6338
581,-538,21.4828,23.9657,0.00296259,-0.00256831,0.00178546,0.00348889,-0.00309461,0.286649,0.00380325,0.0456381,1805,1562,21.4828,-23.9657
588,-538,21.8152,23.3057,0,0,0,0,0,0,0,-1,1812,1562,21.8152,-23.3056
595,-538,15.9808,16.0894,0,0,0,0,0,0,0,-1,1819,1562,15.9808,-16.0893
602,-538,10.314,8.94238,0,0,0,0,0,0,0,-1,1826,1562,10.314,-8.94238
609,-538,10.1046,7.05713,0,0,0,0,0,0,0,-1,1833,1562,10.1046,-7.05719
616,-538,9.92249,5.43506,0,0,0,0,0,0,0,-1,1840,1562,9.92254,-5.43507
623,-538,11.1711,4.31604,0,0,0,0,0,0,0,-1,1847,1562,11.1711,-4.316
630,-538,12.6112,2.61633,0,0,0,0,0,0,0,-1,1854,1562,12.6112,-2.61637
637,-538,0,0,0,0,0,0,0,0,0,-1,1861,1562,0,0
644,-538,0,0,0,0,0,0,0,0,0,-1,1868,1562,0,0
651,-538,0,0,0,0,0,0,0,0,0,-1,1875,1562,0,0
658,-538,0,0,0,0,0,0,0,0,0,-1,1882,1562,0,0
665,-538,0,0,0,0,0,0,0,0,0,-1,1889,1562,0,0
672,-538,0,0,0,0,0,0,0,0,0,-1,1896,1562,0,0
679,-538,0,0,0,0,0,0,0,0,0,-1,1903,1562,0,0
686,-538,0,0,0,0,0,0,0,0,0,-1,1910,1562,0,0
693,-538,0,0,0,0,0,0,0,0,0,-1,1917,1562,0,0
700,-538,0,0,0,0,0,0,0,0,0,-1,1924,1562,0,0
707,-538,0,0,0,0,0,0,0,0,0,-1,1931,1562,0,0
714,-538,0,0,0,0,0,0,0,0,0,-1,1938,1562,0,0
721,-538,0,0,0,0,0,0,0,0,0,-1,1945,1562,0,0
728,-538,0,0,0,0,0,0,0,0,0,-1,1952,1562,0,0
735,-538,0,0,0,0,0,0,0,0,0,-1,1959,1562,0,0
742,-538,0,0,0,0,0,0,0,0,0,-1,1966,1562,0,0
749,-538,0,0,0,0,0,0,0,0,0,-1,1973,1562,0,0
756,-538,0,0,0,0,0,0,0,0,0,-1,1980,1562,0,0
763,-538,0,0,0,0,0,0,0,0,0,-1,1987,1562,0,0
770,-538,0,0,0,0,0,0,0,0,0,-1,1994,1562,0,0
777,-538,0,0,0,0,0,0,0,0,0,-1,2001,1562,0,0
784,-538,0,0,0,0,0,0,0,0,0,-1,2008,1562,0,0
791,-538,0,0,0,0,0,0,0,0,0,-1,2015,1562,0,0
798,-538,0,0,0,0,0,0,0,0,0,-1,2022,1562,0,0
805,-538,0,0,0,0,0,0,0,0,0,-1,2029,1562,0,0
812,-538,0,0,0,0,0,0,0,0,0,-1,2036,1562,0,0
-700,-545,0,0,0,0,0,0,0,0,0,-1,524,1569,0,0
-693,-545,0,0,0,0,0,0,0,0,0,-1,531,1569,0,0
-686,-545,0,0,0,0,0,0,0,0,0,-1,538,1569,0,0
-679,-545,0,0,0,0,0,0,0,0,0,-1,545,1569,0,0
-672,-545,0,0,0,0,0,0,0,0,0,-1,552,1569,0,0
-665,-545,0,0,0,0,0,0,0,0,0,-1,559,1569,0,0
-658,-545,0,0,0,0,0,0,0,0,0,-1,566,1569,0,0
-651,-545,0,0,0,0,0,0,0,0,0,-1,573,1569,0,0
-644,-545,0,0,0,0,0,0,0,0,0,-1,580,1569,0,0
-637,-545,0,0,0,0,0,0,0,0,0,-1,587,1569,0,0
-630,-545,0,0,0,0,0,0,0,0,0,-1,594,1569,0,0
-623,-545,0,0,0,0,0,0,0,0,0,-1,601,1569,0,0
-616,-545,0,0,0,0,0,0,0,0,0,-1,608,1569,0,0
-609,-545,0,0,0,0,0,0,0,0,0,-1,615,1569,0,0
-602,-545,0,0,0,0,0,0,0,0,0,-1,622,1569,0,0
-595,-545,0,0,0,0,0,0,0,0,0,-1,629,1569,0,0
-588,-545,0,0,0,0,0,0,0,0,0,-1,636,1569,0,0
-581,-545,0,0,0,0,0,0,0,0,0,-1,643,1569,0,0
-574,-545,0,0,0,0,0,0,0,0,0,-1,650,1569,0,0
-567,-545,0,0,0,0,0,0,0,0,0,-1,657,1569,0,0
-560,-545,0,0,0,0,0,0,0,0,0,-1,664,1569,0,0
-553,-545,0,0,0,0,0,0,0,0,0,-1,671,1569,0,0
-546,-545,0,0,0,0,0,0,0,0,0,-1,678,1569,0,0
-539,-545,0,0,0,0,0,0,0,0,0,-1,685,1569,0,0
-532,-545,0,0,0,0,0,0,0,0,0,-1,692,1569,0,0
-525,-545,0,0,0,0,0,0,0,0,0,-1,699,1569,0,0
-518,-545,0,0,0,0,0,0,0,0,0,-1,706,1569,0,0
-511,-545,0,0,0,0,0,0,0,0,0,-1,713,1569,0,0
-504,-545,-3.55237,-2.5354,0,0,0,0,0,0,0,-1,720,1569,-3.55236,2.53545
-497,-545,2.26575,5.69214,0,0,0,0,0,0,0,-1,727,1569,2.26573,-5.6922
-490,-545,-2.17334,7.81396,0,0,0,0,0,0,0,-1,734,1569,-2.17334,-7.81399
-483,-545,-1.88336,5.8446,0,0,0,0,0,0,0,-1,741,1569,-1.88334,-5.84466
-476,-545,-1.13147,6.5741,0,0,0,0,0,0,0,-1,748,1569,-1.13149,-6.57405
-469,-545,-1.03412,15.8353,0,0,0,0,0,0,0,-1,755,1569,-1.03414,-15.8353
-462,-545,-3.9234,20.9927,0,0,0,0,0,0,0,-1,762,1569,-3.92341,-20.9927
-455,-545,-2.8653,22.1533,0,0,0,0,0,0,0,-1,769,1569,-2.86527,-22.1534
-448,-545,-2.79907,23.0516,-0.00331202,-0.00422935,-5.42943e-05,-0.00330882,-0.00423255,-0.0589135,0.00256974,0.0359474,776,1569,-2.79907,-23.0516
-441,-545,-2.75116,23.9519,-0.0022852,-0.00400825,-0.000353509,-0.00221549,-0.00407795,-0.19469,0.00235735,0.0327864,783,1569,-2.75114,-23.9519
-434,-545,-3.06122,24.4707,-0.00161241,-0.00370527,-0.000553876,-0.00147487,-0.00384282,-0.243406,0.00223853,0.0288991,790,1569,-3.06124,-24.4707
-427,-545,-3.04297,25.0927,-0.000844251,-0.0032367,-0.000455478,-0.000760471,-0.00332048,-0.181907,0.00200873,0.0212457,797,1569,-3.04297,-25.0927
-420,-545,-3.0304,25.7327,-0.000195071,-0.00220342,-0.000194424,-0.000176422,-0.00222207,-0.0956248,0.00142621,0.0241791,804,1569,-3.03039,-25.7327
-413,-545,-3.0379,26.3593,0.000318151,-0.00114685,0.00018648,0.000341516,-0.00117022,0.124642,0.000915469,0.0235138,811,1569,-3.03793,-26.3592
-406,-545,-3.0506,27.0222,0.000870874,1.59302e-05,0.000622637,0.00119866,-0.000311852,0.484577,0.000920828,0.0167162,818,1569,-3.05062,-27.0223
-399,-545,-3.07928,27.6741,0.00116374,0.00113086,0.00104607,0.0021935,0.000101102,0.777541,0.00142983,0.0124188,825,1569,-3.07931,-27.674
-392,-545,-3.11084,28.3129,0.00163042,0.00205435,0.00141572,0.00327388,0.000410888,0.859708,0.00205933,0.0123413,832,1569,-3.11082,-28.3129
-385,-545,-3.15015,28.9688,0.00232385,0.00306395,0.00175917,0.00449157,0.000896238,0.889064,0.00274485,0.0100735,839,1569,-3.15017,-28.9687
-378,-545,-3.19849,29.6185,0.00305316,0.003928,0.00207148,0.00560775,0.00137342,0.889451,0.00337516,0.0118904,846,1569,-3.19849,-29.6185
-371,-545,-3.23163,30.2699,0.00388544,0.00481513,0.00247457,0.00686814,0.00183243,0.878241,0.00410657,0.0154847,853,1569,-3.2316,-30.2699
-364,-545,-3.23859,30.8839,0.00487541,0.00604269,0.00303716,0.00855178,0.00236632,0.880324,0.00509886,0.0118463,860,1569,-3.23858,-30.8839
-357,-545,-3.17389,31.6377,0.00608796,0.00738335,0.00362906,0.0104221,0.00304925,0.873706,0.00618736,0.0218583,867,1569,-3.17387,-31.6378
-350,-545,-3.09595,32.3566,0.00755382,0.00898706,0.00439338,0.0127219,0.003819,0.866244,0.00753794,0.0363864,874,1569,-3.09595,-32.3565
-343,-545,-3.01147,33.0031,0,0,0,0,0,0,0,-1,881,1569,-3.01146,-33.0031
-336,-545,-2.88739,33.2561,0,0,0,0,0,0,0,-1,888,1569,-2.88741,-33.2561
-329,-545,-2.03595,27.8694,0,0,0,0,0,0,0,-1,895,1569,-2.03592,-27.8694
-322,-545,-2.42474,27.9695,0,0,0,0,0,0,0,-1,902,1569,-2.42474,-27.9695
-315,-545,-2.52954,30.1711,0,0,0,0,0,0,0,-1,909,1569,-2.52951,-30.1712
-308,-545,-1.54358,21.4457,0,0,0,0,0,0,0,-1,916,1569,-1.54357,-21.4457
-301,-545,1.52191,17.5009,0,0,0,0,0,0,0,-1,923,1569,1.52192,-17.5008
-294,-545,-2.69287,8.42102,0,0,0,0,0,0,0,-1,930,1569,-2.69287,-8.42097
-287,-545,-3.47784,9.96021,0,0,0,0,0,0,0,-1,937,1569,-3.47785,-9.96021
-280,-545,-3.7879,10.5448,0,0,0,0,0,0,0,-1,944,1569,-3.78793,-10.5448
-273,-545,-5.10333,12.864,0,0,0,0,0,0,0,-1,951,1569,-5.10331,-12.864
-266,-545,-5.78955,13.3704,0,0,0,0,0,0,0,-1,958,1569,-5.78952,-13.3703
-259,-545,-6.32184,13.8101,0,0,0,0,0,0,0,-1,965,1569,-6.32182,-13.81
-252,-545,0.369263,7.54053,0,0,0,0,0,0,0,-1,972,1569,0.369276,-7.54056
-245,-545,-0.236633,6.65564,0,0,0,0,0,0,0,-1,979,1569,-0.236605,-6.65566
-238,-545,0,0,0,0,0,0,0,0,0,-1,986,1569,0,0
-231,-545,0,0,0,0,0,0,0,0,0,-1,993,1569,0,0
-224,-545,0,0,0,0,0,0,0,0,0,-1,1000,1569,0,0
-217,-545,0,0,0,0,0,0,0,0,0,-1,1007,1569,0,0
-210,-545,0,0,0,0,0,0,0,0,0,-1,1014,1569,0,0
-203,-545,0,0,0,0,0,0,0,0,0,-1,1021,1569,0,0
-196,-545,0,0,0,0,0,0,0,0,0,-1,1028,1569,0,0
-189,-545,0,0,0,0,0,0,0,0,0,-1,1035,1569,0,0
-182,-545,0,0,0,0,0,0,0,0,0,-1,1042,1569,0,0
-175,-545,0,0,0,0,0,0,0,0,0,-1,1049,1569,0,0
-168,-545,0,0,0,0,0,0,0,0,0,-1,1056,1569,0,0
-161,-545,0,0,0,0,0,0,0,0,0,-1,1063,1569,0,0
-154,-545,0,0,0,0,0,0,0,0,0,-1,1070,1569,0,0
-147,-545,0,0,0,0,0,0,0,0,0,-1,1077,1569,0,0
-140,-545,0,0,0,0,0,0,0,0,0,-1,1084,1569,0,0
-133,-545,0,0,0,0,0,0,0,0,0,-1,1091,1569,0,0
-126,-545,0,0,0,0,0,0,0,0,0,-1,1098,1569,0,0
-119,-545,0,0,0,0,0,0,0,0,0,-1,1105,1569,0,0
-112,-545,0,0,0,0,0,0,0,0,0,-1,1112,1569,0,0
-105,-545,0,0,0,0,0,0,0,0,0,-1,1119,1569,0,0
-98,-545,0,0,0,0,0,0,0,0,0,-1,1126,1569,0,0
-91,-545,0,0,0,0,0,0,0,0,0,-1,1133,1569,0,0
-84,-545,0,0,0,0,0,0,0,0,0,-1,1140,1569,0,0
-77,-545,0,0,0,0,0,0,0,0,0,-1,1147,1569,0,0
-70,-545,0,0,0,0,0,0,0,0,0,-1,1154,1569,0,0
-63,-545,0,0,0,0,0,0,0,0,0,-1,1161,1569,0,0
-56,-545,0,0,0,0,0,0,0,0,0,-1,1168,1569,0,0
-49,-545,0,0,0,0,0,0,0,0,0,-1,1175,1569,0,0
-42,-545,0,0,0,0,0,0,0,0,0,-1,1182,1569,0,0
-35,-545,0,0,0,0,0,0,0,0,0,-1,1189,1569,0,0
-28,-545,0,0,0,0,0,0,0,0,0,-1,1196,1569,0,0
-21,-545,0,0,0,0,0,0,0,0,0,-1,1203,1569,0,0
-14,-545,0,0,0,0,0,0,0,0,0,-1,1210,1569,0,0
-7,-545,0,0,0,0,0,0,0,0,0,-1,1217,1569,0,0
0,-545,0,0,0,0,0,0,0,0,0,-1,1224,1569,0,0
7,-545,0,0,0,0,0,0,0,0,0,-1,1231,1569,0,0
14,-545,0,0,0,0,0,0,0,0,0,-1,1238,1569,0,0
21,-545,0,0,0,0,0,0,0,0,0,-1,1245,1569,0,0
28,-545,0,0,0,0,0,0,0,0,0,-1,1252,1569,0,0
35,-545,0,0,0,0,0,0,0,0,0,-1,1259,1569,0,0
42,-545,0,0,0,0,0,0,0,0,0,-1,1266,1569,0,0
49,-545,0,0,0,0,0,0,0,0,0,-1,1273,1569,0,0
56,-545,0,0,0,0,0,0,0,0,0,-1,1280,1569,0,0
63,-545,0,0,0,0,0,0,0,0,0,-1,1287,1569,0,0
70,-545,0,0,0,0,0,0,0,0,0,-1,1294,1569,0,0
77,-545,0,0,0,0,0,0,0,0,0,-1,1301,1569,0,0
84,-545,0,0,0,0,0,0,0,0,0,-1,1308,1569,0,0
91,-545,0,0,0,0,0,0,0,0,0,-1,1315,1569,0,0
98,-545,0,0,0,0,0,0,0,0,0,-1,1322,1569,0,0
105,-545,0,0,0,0,0,0,0,0,0,-1,1329,1569,0,0
112,-545,0,0,0,0,0,0,0,0,0,-1,1336,1569,0,0
119,-545,0,0,0,0,0,0,0,0,0,-1,1343,1569,0,0
126,-545,0,0,0,0,0,0,0,0,0,-1,1350,1569,0,0
133,-545,0,0,0,0,0,0,0,0,0,-1,1357,1569,0,0
140,-545,0,0,0,0,0,0,0,0,0,-1,1364,1569,0,0
147,-545,0,0,0,0,0,0,0,0,0,-1,1371,1569,0,0
154,-545,0,0,0,0,0,0,0,0,0,-1,1378,1569,0,0
161,-545,0,0,0,0,0,0,0,0,0,-1,1385,1569,0,0
168,-545,0,0,0,0,0,0,0,0,0,-1,1392,1569,0,0
175,-545,0,0,0,0,0,0,0,0,0,-1,1399,1569,0,0
182,-545,0,0,0,0,0,0,0,0,0,-1,1406,1569,0,0
189,-545,0,0,0,0,0,0,0,0,0,-1,1413,1569,0,0
196,-545,0,0,0,0,0,0,0,0,0,-1,1420,1569,0,0
203,-545,0,0,0,0,0,0,0,0,0,-1,1427,1569,0,0
210,-545,0,0,0,0,0,0,0,0,0,-1,1434,1569,0,0
217,-545,0,0,0,0,0,0,0,0,0,-1,1441,1569,0,0
224,-545,0,0,0,0,0,0,0,0,0,-1,1448,1569,0,0
231,-545,0,0,0,0,0,0,0,0,0,-1,1455,1569,0,0
238,-545,0,0,0,0,0,0,0,0,0,-1,1462,1569,0,0
245,-545,0,0,0,0,0,0,0,0,0,-1,1469,1569,0,0
252,-545,0,0,0,0,0,0,0,0,0,-1,1476,1569,0,0
259,-545,0,0,0,0,0,0,0,0,0,-1,1483,1569,0,0
266,-545,0,0,0,0,0,0,0,0,0,-1,1490,1569,0,0
273,-545,0,0,0,0,0,0,0,0,0,-1,1497,1569,0,0
280,-545,0,0,0,0,0,0,0,0,0,-1,1504,1569,0,0
287,-545,0,0,0,0,0,0,0,0,0,-1,1511,1569,0,0
294,-545,0,0,0,0,0,0,0,0,0,-1,1518,1569,0,0
301,-545,0,0,0,0,0,0,0,0,0,-1,1525,1569,0,0
308,-545,0,0,0,0,0,0,0,0,0,-1,1532,1569,0,0
315,-545,0,0,0,0,0,0,0,0,0,-1,1539,1569,0,0
322,-545,0,0,0,0,0,0,0,0,0,-1,1546,1569,0,0
329,-545,0,0,0,0,0,0,0,0,0,-1,1553,1569,0,0
336,-545,0,0,0,0,0,0,0,0,0,-1,1560,1569,0,0
343,-545,0,0,0,0,0,0,0,0,0,-1,1567,1569,0,0
350,-545,0,0,0,0,0,0,0,0,0,-1,1574,1569,0,0
357,-545,0,0,0,0,0,0,0,0,0,-1,1581,1569,0,0
364,-545,7.19495,4.88098,0,0,0,0,0,0,0,-1,1588,1569,7.19497,-4.88095
371,-545,7.82324,3.84302,0,0,0,0,0,0,0,-1,1595,1569,7.82324,-3.84307
378,-545,7.65674,5.52673,0,0,0,0,0,0,0,-1,1602,1569,7.6567,-5.52667
385,-545,8.58447,1.16125,0,0,0,0,0,0,0,-1,1609,1569,8.5845,-1.1612
392,-545,12.5654,3.89526,0,0,0,0,0,0,0,-1,1616,1569,12.5655,-3.89532
399,-545,11.5869,5.6333,0,0,0,0,0,0,0,-1,1623,1569,11.5869,-5.63326
406,-545,11.234,6.36414,0,0,0,0,0,0,0,-1,1630,1569,11.234,-6.3641
413,-545,12.1521,13.4817,0,0,0,0,0,0,0,-1,1637,1569,12.1521,-13.4817
420,-545,11.1954,13.6047,0,0,0,0,0,0,0,-1,1644,1569,11.1954,-13.6047
427,-545,9.61072,14.9135,0,0,0,0,0,0,0,-1,1651,1569,9.61076,-14.9134
434,-545,13.1598,23.9921,0,0,0,0,0,0,0,-1,1658,1569,13.1598,-23.992
441,-545,12.2833,22.2238,0,0,0,0,0,0,0,-1,1665,1569,12.2833,-22.2237
448,-545,13.0082,21.941,0,0,0,0,0,0,0,-1,1672,1569,13.0082,-21.941
455,-545,13.733,21.6583,0,0,0,0,0,0,0,-1,1679,1569,13.733,-21.6583
462,-545,12.449,20.7413,0,0,0,0,0,0,0,-1,1686,1569,12.4489,-20.7413
469,-545,12.7837,17.7919,0,0,0,0,0,0,0,-1,1693,1569,12.7837,-17.7919
476,-545,15.7562,24.8708,0,0,0,0,0,0,0,-1,1700,1569,15.7563,-24.8709
483,-545,21.0433,32.7809,0,0,0,0,0,0,0,-1,1707,1569,21.0434,-32.7809
490,-545,21.1053,32.074,0.00885854,0.0111929,-0.00815003,0.0182589,0.00179252,-0.85652,0.0116213,0.0297088,1714,1569,21.1053,-32.0739
497,-545,21.1488,31.4429,0.0074745,0.0085992,-0.00630881,0.0143707,0.00170303,-0.829849,0.00906625,0.0246806,1721,1569,21.1488,-31.4429
504,-545,21.2278,30.7859,0.00625282,0.0063322,-0.00504592,0.0113386,0.00124644,-0.789331,0.00717974,0.0183061,1728,1569,21.2278,-30.7859
511,-545,21.1597,30.1575,0.00488001,0.00475899,-0.0038447,0.00866468,0.000974316,-0.77753,0.00548062,0.0129785,1735,1569,21.1597,-30.1575
518,-545,21.1433,29.549,0.00353664,0.00327854,-0.00267765,0.00608834,0.000726832,-0.761319,0.00383962,0.0137172,1742,1569,21.1433,-29.5489
525,-545,21.1068,28.9331,0.00237532,0.00221321,-0.00170217,0.00399837,0.000590165,-0.761608,0.00249226,0.0144013,1749,1569,21.1069,-28.9331
532,-545,21.064,28.3352,0.00137578,0.00119261,-0.000805077,0.00209447,0.000473926,-0.728761,0.0012682,0.0143944,1756,1569,21.064,-28.3352
539,-545,21.0272,27.7588,0.000525702,0.000365241,2.08667e-06,0.000525729,0.000365214,0.0130013,0.000311105,0.0174782,1763,1569,21.0273,-27.7588
546,-545,20.9867,27.1294,-0.000187207,-0.000563913,0.000862765,0.000507525,-0.00125865,0.677928,0.00104999,0.0189247,1770,1569,20.9866,-27.1294
553,-545,21.0098,26.4629,-0.000647915,-0.00135126,0.00164111,0.000678776,-0.00267795,0.679849,0.00204938,0.0269485,1777,1569,21.0098,-26.4629
560,-545,20.994,25.8142,-0.00070344,-0.00198883,0.00225143,0.000995229,-0.0036875,0.646365,0.00284863,0.0300842,1784,1569,20.994,-25.8142
567,-545,20.9626,25.104,0,0,0,0,0,0,0,-1,1791,1569,20.9627,-25.104
574,-545,20.7726,24.4744,0,0,0,0,0,0,0,-1,1798,1569,20.7725,-24.4744
581,-545,20.9528,23.8877,0,0,0,0,0,0,0,-1,1805,1569,20.9527,-23.8877
588,-545,15.4786,16.7035,0,0,0,0,0,0,0,-1,1812,1569,15.4786,-16.7035
595,-545,10.2859,9.11218,0,0,0,0,0,0,0,-1,1819,1569,10.2858,-9.11215
602,-545,8.82117,6.32214,0,0,0,0,0,0,0,-1,1826,1569,8.82121,-6.32217
609,-545,10.2406,5.22351,0,0,0,0,0,0,0,-1,1833,1569,10.2406,-5.22353
616,-545,11.701,3.93188,0,0,0,0,0,0,0,-1,1840,1569,11.701,-3.93191
623,-545,13.2139,2.32043,0,0,0,0,0,0,0,-1,1847,1569,13.2139,-2.32042
630,-545,0,0,0,0,0,0,0,0,0,-1,1854,1569,0,0
637,-545,0,0,0,0,0,0,0,0,0,-1,1861,1569,0,0
644,-545,0,0,0,0,0,0,0,0,0,-1,1868,1569,0,0
651,-545,0,0,0,0,0,0,0,0,0,-1,1875,1569,0,0
658,-545,0,0,0,0,0,0,0,0,0,-1,1882,1569,0,0
665,-545,0,0,0,0,0,0,0,0,0,-1,1889,1569,0,0
672,-545,0,0,0,0,0,0,0,0,0,-1,1896,1569,0,0
679,-545,0,0,0,0,0,0,0,0,0,-1,1903,1569,0,0
686,-545,0,0,0,0,0,0,0,0,0,-1,1910,1569,0,0
693,-545,0,0,0,0,0,0,0,0,0,-1,1917,1569,0,0
700,-545,0,0,0,0,0,0,0,0,0,-1,1924,1569,0,0
707,-545,0,0,0,0,0,0,0,0,0,-1,1931,1569,0,0
714,-545,0,0,0,0,0,0,0,0,0,-1,1938,1569,0,0
721,-545,0,0,0,0,0,0,0,0,0,-1,1945,1569,0,0
728,-545,0,0,0,0,0,0,0,0,0,-1,1952,1569,0,0
735,-545,0,0,0,0,0,0,0,0,0,-1,1959,1569,0,0
742,-545,0,0,0,0,0,0,0,0,0,-1,1966,1569,0,0
749,-545,0,0,0,0,0,0,0,0,0,-1,1973,1569,0,0
756,-545,0,0,0,0,0,0,0,0,0,-1,1980,1569,0,0
763,-545,0,0,0,0,0,0,0,0,0,-1,1987,1569,0,0
770,-545,0,0,0,0,0,0,0,0,0,-1,1994,1569,0,0
777,-545,0,0,0,0,0,0,0,0,0,-1,2001,1569,0,0
784,-545,0,0,0,0,0,0,0,0,0,-1,2008,1569,0,0
791,-545,0,0,0,0,0,0,0,0,0,-1,2015,1569,0,0
798,-545,0,0,0,0,0,0,0,0,0,-1,2022,1569,0,0
805,-545,0,0,0,0,0,0,0,0,0,-1,2029,1569,0,0
812,-545,0,0,0,0,0,0,0,0,0,-1,2036,1569,0,0
-700,-552,0,0,0,0,0,0,0,0,0,-1,524,1576,0,0
-693,-552,0,0,0,0,0,0,0,0,0,-1,531,1576,0,0
-686,-552,0,0,0,0,0,0,0,0,0,-1,538,1576,0,0
-679,-552,0,0,0,0,0,0,0,0,0,-1,545,1576,0,0
-672,-552,0,0,0,0,0,0,0,0,0,-1,552,1576,0,0
-665,-552,0,0,0,0,0,0,0,0,0,-1,559,1576,0,0
-658,-552,0,0,0,0,0,0,0,0,0,-1,566,1576,0,0
-651,-552,0,0,0,0,0,0,0,0,0,-1,573,1576,0,0
-644,-552,0,0,0,0,0,0,0,0,0,-1,580,1576,0,0
-637,-552,0,0,0,0,0,0,0,0,0,-1,587,1576,0,0
-630,-552,0,0,0,0,0,0,0,0,0,-1,594,1576,0,0
-623,-552,0,0,0,0,0,0,0,0,0,-1,601,1576,0,0
-616,-552,0,0,0,0,0,0,0,0,0,-1,608,1576,0,0
-609,-552,0,0,0,0,0,0,0,0,0,-1,615,1576,0,0
-602,-552,0,0,0,0,0,0,0,0,0,-1,622,1576,0,0
-595,-552,0,0,0,0,0,0,0,0,0,-1,629,1576,0,0
-588,-552,0,0,0,0,0,0,0,0,0,-1,636,1576,0,0
-581,-552,0,0,0,0,0,0,0,0,0,-1,643,1576,0,0
-574,-552,0,0,0,0,0,0,0,0,0,-1,650,1576,0,0
-567,-552,0,0,0,0,0,0,0,0,0,-1,657,1576,0,0
-560,-552,0,0,0,0,0,0,0,0,0,-1,664,1576,0,0
-553,-552,0,0,0,0,0,0,0,0,0,-1,671,1576,0,0
-546,-552,0,0,0,0,0,0,0,0,0,-1,678,1576,0,0
-539,-552,0,0,0,0,0,0,0,0,0,-1,685,1576,0,0
-532,-552,0,0,0,0,0,0,0,0,0,-1,692,1576,0,0
-525,-552,0,0,0,0,0,0,0,0,0,-1,699,1576,0,0
-518,-552,0,0,0,0,0,0,0,0,0,-1,706,1576,0,0
-511,-552,0,0,0,0,0,0,0,0,0,-1,713,1576,0,0
-504,-552,0,0,0,0,0,0,0,0,0,-1,720,1576,0,0
-497,-552,1.51282,3.96924,0,0,0,0,0,0,0,-1,727,1576,1.5128,-3.96924
-490,-552,-3.82312,6.32104,0,0,0,0,0,0,0,-1,734,1576,-3.82314,-6.3211
-483,-552,-3.50586,6.47986,0,0,0,0,0,0,0,-1,741,1576,-3.50587,-6.47983
-476,-552,-1.95129,4.43054,0,0,0,0,0,0,0,-1,748,1576,-1.95128,-4.43054
-469,-552,-1.40491,7.9895,0,0,0,0,0,0,0,-1,755,1576,-1.40491,-7.98947
-462,-552,0.0459595,16.3469,0,0,0,0,0,0,0,-1,762,1576,0.0459611,-16.3469
-455,-552,-1.9527,19.385,0,0,0,0,0,0,0,-1,769,1576,-1.95269,-19.385
-448,-552,-2.02704,23.0302,0,0,0,0,0,0,0,-1,776,1576,-2.02707,-23.0301
-441,-552,-2.12347,24.0045,0,0,0,0,0,0,0,-1,783,1576,-2.12347,-24.0045
-434,-552,-2.21991,24.9789,0,0,0,0,0,0,0,-1,790,1576,-2.21988,-24.9789
-427,-552,-2.4314,25.0085,-0.00123603,-0.0038042,-0.000570889,-0.00111485,-0.00392538,-0.209173,0.00233574,0.0353887,797,1576,-2.43142,-25.0086
-420,-552,-2.3924,25.7711,-0.000732551,-0.00275919,-0.000338416,-0.000677534,-0.00281421,-0.161161,0.00169602,0.0227939,804,1576,-2.39241,-25.7712
-413,-552,-2.40375,26.4181,-0.000346267,-0.00175743,-1.25869e-05,-0.000346155,-0.00175754,-0.00891858,0.00107505,0.0173333,811,1576,-2.40377,-26.4181
-406,-552,-2.4259,27.0591,0.000136867,-0.000698344,0.000359458,0.000270265,-0.000831742,0.355354,0.0006632,0.0138426,818,1576,-2.4259,-27.059
-399,-552,-2.46259,27.6906,0.000318066,0.000265439,0.00069522,0.00098747,-0.000403966,0.766483,0.000826557,0.0148771,825,1576,-2.46261,-27.6906
-392,-552,-2.50476,28.3187,0.000715535,0.00100954,0.000975863,0.00184941,-0.000124337,0.860155,0.0012764,0.0167262,832,1576,-2.50476,-28.3187
-385,-552,-2.54077,28.9866,0.00140766,0.00187161,0.00122912,0.00289045,0.00038882,0.878667,0.00181132,0.0152307,839,1576,-2.54076,-28.9866
-378,-552,-2.57312,29.618,0.00212848,0.00255525,0.00142393,0.0037817,0.000902032,0.859772,0.00228071,0.0164073,846,1576,-2.57314,-29.6181
-371,-552,-2.59766,30.2648,0.00293233,0.00325261,0.00171753,0.00481745,0.00136749,0.831883,0.00286667,0.0202181,853,1576,-2.59765,-30.2648
-364,-552,-2.59894,30.8871,0.00385496,0.00418481,0.0021092,0.00613553,0.00190424,0.824415,0.00362628,0.0158622,860,1576,-2.59896,-30.8871
-357,-552,-2.59631,31.516,0.00492426,0.00520199,0.00253749,0.00760442,0.00252184,0.812734,0.00447262,0.011403,867,1576,-2.59632,-31.516
-350,-552,-2.58221,32.1996,0.00621031,0.00635071,0.00308862,0.00936993,0.00319109,0.79676,0.00550064,0.014828,874,1576,-2.58221,-32.1995
-343,-552,-2.61023,32.778,0.00760713,0.00760455,0.0037925,0.0113983,0.00381334,0.785228,0.00669985,0.0245847,881,1576,-2.61022,-32.778
-336,-552,-2.54846,33.2476,0,0,0,0,0,0,0,-1,888,1576,-2.54847,-33.2475
-329,-552,-2.36981,33.9404,0,0,0,0,0,0,0,-1,895,1576,-2.36984,-33.9405
-322,-552,-1.23962,28.5371,0,0,0,0,0,0,0,-1,902,1576,-1.23964,-28.5371
-315,-552,-0.605347,28.994,0,0,0,0,0,0,0,-1,909,1576,-0.605331,-28.9941
-308,-552,-1.01624,30.3169,0,0,0,0,0,0,0,-1,916,1576,-1.01624,-30.3169
-301,-552,1.39453,18.4995,0,0,0,0,0,0,0,-1,923,1576,1.3945,-18.4995
-294,-552,0.842163,13.7863,0,0,0,0,0,0,0,-1,930,1576,0.842149,-13.7863
-287,-552,-0.663757,13.3474,0,0,0,0,0,0,0,-1,937,1576,-0.663744,-13.3474
-280,-552,-5.47241,8.96765,0,0,0,0,0,0,0,-1,944,1576,-5.47239,-8.96766
-273,-552,1.64587,10.6685,0,0,0,0,0,0,0,-1,951,1576,1.6459,-10.6685
-266,-552,-1.32678,8.05688,0,0,0,0,0,0,0,-1,958,1576,-1.32677,-8.05683
-259,-552,-5.54321,8.31213,0,0,0,0,0,0,0,-1,965,1576,-5.54324,-8.31214
-252,-552,-1.93445,7.81543,0,0,0,0,0,0,0,-1,972,1576,-1.93445,-7.81546
-245,-552,-2.53613,6.92212,0,0,0,0,0,0,0,-1,979,1576,-2.53614,-6.92216
-238,-552,-6.5365,2.81885,0,0,0,0,0,0,0,-1,986,1576,-6.53649,-2.8188
-231,-552,-4.32239,4.34583,0,0,0,0,0,0,0,-1,993,1576,-4.32239,-4.34587
-224,-552,0,0,0,0,0,0,0,0,0,-1,1000,1576,0,0
-217,-552,0,0,0,0,0,0,0,0,0,-1,1007,1576,0,0
-210,-552,0,0,0,0,0,0,0,0,0,-1,1014,1576,0,0
-203,-552,0,0,0,0,0,0,0,0,0,-1,1021,1576,0,0
-196,-552,0,0,0,0,0,0,0,0,0,-1,1028,1576,0,0
-189,-552,0,0,0,0,0,0,0,0,0,-1,1035,1576,0,0
-182,-552,0,0,0,0,0,0,0,0,0,-1,1042,1576,0,0
-175,-552,0,0,0,0,0,0,0,0,0,-1,1049,1576,0,0
-168,-552,0,0,0,0,0,0,0,0,0,-1,1056,1576,0,0
-161,-552,0,0,0,0,0,0,0,0,0,-1,1063,1576,0,0
-154,-552,0,0,0,0,0,0,0,0,0,-1,1070,1576,0,0
-147,-552,0,0,0,0,0,0,0,0,0,-1,1077,1576,0,0
-140,-552,0,0,0,0,0,0,0,0,0,-1,1084,1576,0,0
-133,-552,0,0,0,0,0,0,0,0,0,-1,1091,1576,0,0
-126,-552,0,0,0,0,0,0,0,0,0,-1,1098,1576,0,0
-119,-552,0,0,0,0,0,0,0,0,0,-1,1105,1576,0,0
-112,-552,0,0,0,0,0,0,0,0,0,-1,1112,1576,0,0
-105,-552,0,0,0,0,0,0,0,0,0,-1,1119,1576,0,0
-98,-552,0,0,0,0,0,0,0,0,0,-1,1126,1576,0,0
-91,-552,0,0,0,0,0,0,0,0,0,-1,1133,1576,0,0
-84,-552,0,0,0,0,0,0,0,0,0,-1,1140,1576,0,0
-77,-552,0,0,0,0,0,0,0,0,0,-1,1147,1576,0,0
-70,-552,0,0,0,0,0,0,0,0,0,-1,1154,1576,0,0
-63,-552,0,0,0,0,0,0,0,0,0,-1,1161,1576,0,0
-56,-552,0,0,0,0,0,0,0,0,0,-1,1168,1576,0,0
-49,-552,0,0,0,0,0,0,0,0,0,-1,1175,1576,0,0
-42,-552,0,0,0,0,0,0,0,0,0,-1,1182,1576,0,0
-35,-552,0,0,0,0,0,0,0,0,0,-1,1189,1576,0,0
-28,-552,0,0,0,0,0,0,0,0,0,-1,1196,1576,0,0
-21,-552,0,0,0,0,0,0,0,0,0,-1,1203,1576,0,0
-14,-552,0,0,0,0,0,0,0,0,0,-1,1210,1576,0,0
-7,-552,0,0,0,0,0,0,0,0,0,-1,1217,1576,0,0
0,-552,0,0,0,0,0,0,0,0,0,-1,1224,1576,0,0
7,-552,0,0,0,0,0,0,0,0,0,-1,1231,1576,0,0
14,-552,0,0,0,0,0,0,0,0,0,-1,1238,1576,0,0
21,-552,0,0,0,0,0,0,0,0,0,-1,1245,1576,0,0
28,-552,0,0,0,0,0,0,0,0,0,-1,1252,1576,0,0
35,-552,0,0,0,0,0,0,0,0,0,-1,1259,1576,0,0
42,-552,0,0,0,0,0,0,0,0,0,-1,1266,1576,0,0
49,-552,0,0,0,0,0,0,0,0,0,-1,1273,1576,0,0
56,-552,0,0,0,0,0,0,0,0,0,-1,1280,1576,0,0
63,-552,0,0,0,0,0,0,0,0,0,-1,1287,1576,0,0
70,-552,0,0,0,0,0,0,0,0,0,-1,1294,1576,0,0
77,-552,0,0,0,0,0,0,0,0,0,-1,1301,1576,0,0
84,-552,0,0,0,0,0,0,0,0,0,-1,1308,1576,0,0
91,-552,0,0,0,0,0,0,0,0,0,-1,1315,1576,0,0
98,-552,0,0,0,0,0,0,0,0,0,-1,1322,1576,0,0
105,-552,0,0,0,0,0,0,0,0,0,-1,1329,1576,0,0
112,-552,0,0,0,0,0,0,0,0,0,-1,1336,1576,0,0
119,-552,0,0,0,0,0,0,0,0,0,-1,1343,1576,0,0
126,-552,0,0,0,0,0,0,0,0,0,-1,1350,1576,0,0
133,-552,0,0,0,0,0,0,0,0,0,-1,1357,1576,0,0
140,-552,0,0,0,0,0,0,0,0,0,-1,1364,1576,0,0
147,-552,0,0,0,0,0,0,0,0,0,-1,1371,1576,0,0
154,-552,0,0,0,0,0,0,0,0,0,-1,1378,1576,0,0
161,-552,0,0,0,0,0,0,0,0,0,-1,1385,1576,0,0
168,-552,0,0,0,0,0,0,0,0,0,-1,1392,1576,0,0
175,-552,0,0,0,0,0,0,0,0,0,-1,1399,1576,0,0
182,-552,0,0,0,0,0,0,0,0,0,-1,1406,1576,0,0
189,-552,0,0,0,0,0,0,0,0,0,-1,1413,1576,0,0
196,-552,0,0,0,0,0,0,0,0,0,-1,1420,1576,0,0
203,-552,0,0,0,0,0,0,0,0,0,-1,1427,1576,0,0
210,-552,0,0,0,0,0,0,0,0,0,-1,1434,1576,0,0
217,-552,0,0,0,0,0,0,0,0,0,-1,1441,1576,0,0
224,-552,0,0,0,0,0,0,0,0,0,-1,1448,1576,0,0
231,-552,0,0,0,0,0,0,0,0,0,-1,1455,1576,0,0
238,-552,0,0,0,0,0,0,0,0,0,-1,1462,1576,0,0
245,-552,0,0,0,0,0,0,0,0,0,-1,1469,1576,0,0
252,-552,0,0,0,0,0,0,0,0,0,-1,1476,1576,0,0
259,-552,0,0,0,0,0,0,0,0,0,-1,1483,1576,0,0
266,-552,0,0,0,0,0,0,0,0,0,-1,1490,1576,0,0
273,-552,0,0,0,0,0,0,0,0,0,-1,1497,1576,0,0
280,-552,0,0,0,0,0,0,0,0,0,-1,1504,1576,0,0
287,-552,0,0,0,0,0,0,0,0,0,-1,1511,1576,0,0
294,-552,0,0,0,0,0,0,0,0,0,-1,1518,1576,0,0
301,-552,0,0,0,0,0,0,0,0,0,-1,1525,1576,0,0
308,-552,0,0,0,0,0,0,0,0,0,-1,1532,1576,0,0
315,-552,0,0,0,0,0,0,0,0,0,-1,1539,1576,0,0
322,-552,0,0,0,0,0,0,0,0,0,-1,1546,1576,0,0
329,-552,0,0,0,0,0,0,0,0,0,-1,1553,1576,0,0
336,-552,0,0,0,0,0,0,0,0,0,-1,1560,1576,0,0
343,-552,0,0,0,0,0,0,0,0,0,-1,1567,1576,0,0
350,-552,4.97876,4.09888,0,0,0,0,0,0,0,-1,1574,1576,4.97875,-4.09883
357,-552,5.18469,4.10706,0,0,0,0,0,0,0,-1,1581,1576,5.1847,-4.10702
364,-552,5.80872,5.07031,0,0,0,0,0,0,0,-1,1588,1576,5.80874,-5.07037
371,-552,7.10657,5.64783,0,0,0,0,0,0,0,-1,1595,1576,7.10651,-5.64786
378,-552,6.44446,4.91492,0,0,0,0,0,0,0,-1,1602,1576,6.44448,-4.91496
385,-552,12.8276,3.16504,0,0,0,0,0,0,0,-1,1609,1576,12.8276,-3.16503
392,-552,12.1301,4.3363,0,0,0,0,0,0,0,-1,1616,1576,12.1302,-4.33631
399,-552,11.3486,5.6012,0,0,0,0,0,0,0,-1,1623,1576,11.3486,-5.60115
406,-552,10.7863,6.42542,0,0,0,0,0,0,0,-1,1630,1576,10.7863,-6.42536
413,-552,8.39307,10.365,0,0,0,0,0,0,0,-1,1637,1576,8.3931,-10.365
420,-552,10.2306,12.7225,0,0,0,0,0,0,0,-1,1644,1576,10.2305,-12.7226
427,-552,9.73267,14.783,0,0,0,0,0,0,0,-1,1651,1576,9.73269,-14.783
434,-552,12.0377,20.1364,0,0,0,0,0,0,0,-1,1658,1576,12.0377,-20.1364
441,-552,12.4963,21.5277,0,0,0,0,0,0,0,-1,1665,1576,12.4964,-21.5277
448,-552,12.9141,21.5482,0,0,0,0,0,0,0,-1,1672,1576,12.9141,-21.5482
455,-552,13.3318,21.5687,0,0,0,0,0,0,0,-1,1679,1576,13.3317,-21.5687
462,-552,12.745,20.5947,0,0,0,0,0,0,0,-1,1686,1576,12.745,-20.5947
469,-552,17.7067,29.6902,0,0,0,0,0,0,0,-1,1693,1576,17.7067,-29.6902
476,-552,20.4363,33.4257,0,0,0,0,0,0,0,-1,1700,1576,20.4363,-33.4257
483,-552,20.6486,32.5258,0.00793143,0.0125608,-0.00801155,0.0185853,0.00190689,-0.926028,0.011806,0.0360442,1707,1576,20.6486,-32.5257
490,-552,20.5905,31.9913,0.00684116,0.00920272,-0.00630333,0.0144349,0.00160896,-0.877988,0.00913431,0.0152584,1714,1576,20.5905,-31.9914
497,-552,20.6853,31.3931,0.00566895,0.0069001,-0.00482525,0.0111489,0.00142017,-0.848842,0.00700733,0.0242351,1721,1576,20.6854,-31.3931
504,-552,20.6289,30.8058,0.00456651,0.00488689,-0.00372957,0.00845972,0.000993691,-0.806861,0.00533949,0.0268142,1728,1576,20.6289,-30.8057
511,-552,20.5754,30.1653,0.0033444,0.00344007,-0.00270727,0.00609993,0.00068454,-0.794232,0.00385873,0.0184857,1735,1576,20.5755,-30.1653
518,-552,20.5477,29.5549,0.00210041,0.00208145,-0.00168634,0.00377729,0.000404565,-0.782588,0.00239476,0.0153277,1742,1576,20.5477,-29.5549
525,-552,20.4957,28.9558,0.00103182,0.00109882,-0.00079976,0.00186578,0.000264857,-0.806328,0.00116564,0.0152979,1749,1576,20.4957,-28.9558
532,-552,20.4609,28.354,0.00012011,0.000148781,3.87869e-05,0.000175797,9.3094e-05,0.962413,0.000101555,0.0144416,1756,1576,20.4609,-28.354
539,-552,20.424,27.7725,-0.000709868,-0.000637608,0.000847586,0.000174618,-0.00152209,0.806699,0.00107766,0.0183752,1763,1576,20.4239,-27.7725
546,-552,20.368,27.1622,-0.00141703,-0.00151149,0.00174708,0.000283458,-0.00321198,0.771884,0.00224179,0.0234665,1770,1576,20.3681,-27.1622
553,-552,20.3892,26.4923,-0.00185798,-0.0022408,0.0025839,0.000541588,-0.00464037,0.748426,0.00328901,0.0270796,1777,1576,20.3891,-26.4923
560,-552,20.3804,25.9395,-0.00192742,-0.00283689,0.00329618,0.000945242,-0.00570956,0.716852,0.00415743,0.0466668,1784,1576,20.3804,-25.9395
567,-552,20.4081,25.0492,0,0,0,0,0,0,0,-1,1791,1576,20.4081,-25.0492
574,-552,12.8835,14.8463,0,0,0,0,0,0,0,-1,1798,1576,12.8836,-14.8463
581,-552,9.74841,9.98645,0,0,0,0,0,0,0,-1,1805,1576,9.74847,-9.9864
588,-552,10.5619,9.34924,0,0,0,0,0,0,0,-1,1812,1576,10.5619,-9.34921
595,-552,5.36194,6.62744,0,0,0,0,0,0,0,-1,1819,1576,5.36193,-6.62742
602,-552,10.6863,4.31616,0,0,0,0,0,0,0,-1,1826,1576,10.6862,-4.31619
609,-552,12.146,3.18286,0,0,0,0,0,0,0,-1,1833,1576,12.1459,-3.18281
616,-552,13.8762,2.08167,0,0,0,0,0,0,0,-1,1840,1576,13.8763,-2.08167
623,-552,0,0,0,0,0,0,0,0,0,-1,1847,1576,0,0
630,-552,0,0,0,0,0,0,0,0,0,-1,1854,1576,0,0
637,-552,0,0,0,0,0,0,0,0,0,-1,1861,1576,0,0
644,-552,0,0,0,0,0,0,0,0,0,-1,1868,1576,0,0
651,-552,0,0,0,0,0,0,0,0,0,-1,1875,1576,0,0
658,-552,0,0,0,0,0,0,0,0,0,-1,1882,1576,0,0
665,-552,0,0,0,0,0,0,0,0,0,-1,1889,1576,0,0
672,-552,0,0,0,0,0,0,0,0,0,-1,1896,1576,0,0
679,-552,0,0,0,0,0,0,0,0,0,-1,1903,1576,0,0
686,-552,0,0,0,0,0,0,0,0,0,-1,1910,1576,0,0
693,-552,0,0,0,0,0,0,0,0,0,-1,1917,1576,0,0
700,-552,0,0,0,0,0,0,0,0,0,-1,1924,1576,0,0
707,-552,0,0,0,0,0,0,0,0,0,-1,1931,1576,0,0
714,-552,0,0,0,0,0,0,0,0,0,-1,1938,1576,0,0
721,-552,0,0,0,0,0,0,0,0,0,-1,1945,1576,0,0
728,-552,0,0,0,0,0,0,0,0,0,-1,1952,1576,0,0
735,-552,0,0,0,0,0,0,0,0,0,-1,1959,1576,0,0
742,-552,0,0,0,0,0,0,0,0,0,-1,1966,1576,0,0
749,-552,0,0,0,0,0,0,0,0,0,-1,1973,1576,0,0
756,-552,0,0,0,0,0,0,0,0,0,-1,1980,1576,0,0
763,-552,0,0,0,0,0,0,0,0,0,-1,1987,1576,0,0
770,-552,0,0,0,0,0,0,0,0,0,-1,1994,1576,0,0
777,-552,0,0,0,0,0,0,0,0,0,-1,2001,1576,0,0
784,-552,0,0,0,0,0,0,0,0,0,-1,2008,1576,0,0
791,-552,0,0,0,0,0,0,0,0,0,-1,2015,1576,0,0
798,-552,0,0,0,0,0,0,0,0,0,-1,2022,1576,0,0
805,-552,0,0,0,0,0,0,0,0,0,-1,2029,1576,0,0
812,-552,0,0,0,0,0,0,0,0,0,-1,2036,1576,0,0
-700,-559,0,0,0,0,0,0,0,0,0,-1,524,1583,0,0
-693,-559,0,0,0,0,0,0,0,0,0,-1,531,1583,0,0
-686,-559,0,0,0,0,0,0,0,0,0,-1,538,1583,0,0
-679,-559,0,0,0,0,0,0,0,0,0,-1,545,1583,0,0
-672,-559,0,0,0,0,0,0,0,0,0,-1,552,1583,0,0
-665,-559,0,0,0,0,0,0,0,0,0,-1,559,1583,0,0
-658,-559,0,0,0,0,0,0,0,0,0,-1,566,1583,0,0
-651,-559,0,0,0,0,0,0,0,0,0,-1,573,1583,0,0
-644,-559,0,0,0,0,0,0,0,0,0,-1,580,1583,0,0
-637,-559,0,0,0,0,0,0,0,0,0,-1,587,1583,0,0
-630,-559,0,0,0,0,0,0,0,0,0,-1,594,1583,0,0
-623,-559,0,0,0,0,0,0,0,0,0,-1,601,1583,0,0
-616,-559,0,0,0,0,0,0,0,0,0,-1,608,1583,0,0
-609,-559,0,0,0,0,0,0,0,0,0,-1,615,1583,0,0
-602,-559,0,0,0,0,0,0,0,0,0,-1,622,1583,0,0
-595,-559,0,0,0,0,0,0,0,0,0,-1,629,1583,0,0
-588,-559,0,0,0,0,0,0,0,0,0,-1,636,1583,0,0
-581,-559,0,0,0,0,0,0,0,0,0,-1,643,1583,0,0
-574,-559,0,0,0,0,0,0,0,0,0,-1,650,1583,0,0
-567,-559,0,0,0,0,0,0,0,0,0,-1,657,1583,0,0
-560,-559,0,0,0,0,0,0,0,0,0,-1,664,1583,0,0
-553,-559,0,0,0,0,0,0,0,0,0,-1,671,1583,0,0
-546,-559,0,0,0,0,0,0,0,0,0,-1,678,1583,0,0
-539,-559,0,0,0,0,0,0,0,0,0,-1,685,1583,0,0
-532,-559,0,0,0,0,0,0,0,0,0,-1,692,1583,0,0
-525,-559,0,0,0,0,0,0,0,0,0,-1,699,1583,0,0
-518,-559,0,0,0,0,0,0,0,0,0,-1,706,1583,0,0
-511,-559,0,0,0,0,0,0,0,0,0,-1,713,1583,0,0
-504,-559,0,0,0,0,0,0,0,0,0,-1,720,1583,0,0
-497,-559,0,0,0,0,0,0,0,0,0,-1,727,1583,0,0
-490,-559,-5.49835,4.47424,0,0,0,0,0,0,0,-1,734,1583,-5.49833,-4.4743
-483,-559,-5.24078,4.74561,0,0,0,0,0,0,0,-1,741,1583,-5.24079,-4.74563
-476,-559,-4.98022,4.99316,0,0,0,0,0,0,0,-1,748,1583,-4.98024,-4.99321
-469,-559,-4.6424,5.38062,0,0,0,0,0,0,0,-1,755,1583,-4.64237,-5.38058
-462,-559,-0.161865,6.49438,0,0,0,0,0,0,0,-1,762,1583,-0.161835,-6.49444
-455,-559,1.08826,7.02527,0,0,0,0,0,0,0,-1,769,1583,1.08823,-7.02529
-448,-559,-2.86023,20.0852,0,0,0,0,0,0,0,-1,776,1583,-2.86025,-20.0852
-441,-559,-1.57074,23.9425,0,0,0,0,0,0,0,-1,783,1583,-1.57075,-23.9425
-434,-559,-1.51727,24.8354,0,0,0,0,0,0,0,-1,790,1583,-1.51725,-24.8354
-427,-559,-1.60254,25.2968,-0.00142855,-0.00406882,-0.000343943,-0.00138448,-0.00411289,-0.127435,0.00241646,0.0442696,797,1583,-1.60253,-25.2968
-420,-559,-1.83478,25.7729,-0.00111097,-0.00302538,-0.000191227,-0.00109205,-0.0030443,-0.0985899,0.00178086,0.0481821,804,1583,-1.83475,-25.7729
-413,-559,-1.79382,26.4521,-0.000927489,-0.00212502,3.55449e-05,-0.000926435,-0.00212607,0.0296471,0.00123086,0.0179802,811,1583,-1.79385,-26.4521
-406,-559,-1.797,27.1057,-0.000564034,-0.00123551,0.000295392,-0.000452585,-0.00134696,0.360779,0.000791488,0.0105118,818,1583,-1.79701,-27.1058
-399,-559,-1.81641,27.7498,-0.00050223,-0.000456199,0.000511193,3.24962e-05,-0.000990925,0.807895,0.000671711,0.0131121,825,1583,-1.81638,-27.7498
-392,-559,-1.87543,28.3795,-0.000177365,0.000135107,0.000694888,0.000691106,-0.000733364,0.895978,0.000822539,0.0174403,832,1583,-1.87542,-28.3795
-385,-559,-1.90472,29.0131,0.000479239,0.000886129,0.000869035,0.00157521,-0.000209848,0.90038,0.00112663,0.0180761,839,1583,-1.90473,-29.013
-378,-559,-1.92841,29.6453,0.00115759,0.00146104,0.000977465,0.00229849,0.000320144,0.862395,0.00143754,0.0161777,846,1583,-1.92838,-29.6452
-371,-559,-1.95355,30.2693,0.00191863,0.00206084,0.00119505,0.0031869,0.000792574,0.815113,0.00191586,0.0229686,853,1583,-1.95353,-30.2693
-364,-559,-1.94342,30.8713,0.00277347,0.00279863,0.00146633,0.00425243,0.00131967,0.789687,0.00251333,0.0200778,860,1583,-1.94343,-30.8714
-357,-559,-1.95636,31.5291,0.00372679,0.00362769,0.00177967,0.0054576,0.00189688,0.771482,0.00319938,0.0122241,867,1583,-1.95639,-31.529
-350,-559,-1.97736,32.1373,0.00490569,0.00450885,0.00219389,0.00691011,0.00250443,0.740301,0.00403958,0.0103304,874,1583,-1.97737,-32.1373
-343,-559,-2.01245,32.7458,0.00618942,0.00559834,0.00280985,0.00871922,0.00306853,0.733001,0.0051071,0.0117248,881,1583,-2.01245,-32.7459
-336,-559,-2.05194,33.3567,0,0,0,0,0,0,0,-1,888,1583,-2.05194,-33.3567
-329,-559,-1.95038,34.229,0,0,0,0,0,0,0,-1,895,1583,-1.95036,-34.2289
-322,-559,-1.46405,35.2532,0,0,0,0,0,0,0,-1,902,1583,-1.46404,-35.2532
-315,-559,-0.659607,29.1698,0,0,0,0,0,0,0,-1,909,1583,-0.659577,-29.1698
-308,-559,-0.755493,30.4624,0,0,0,0,0,0,0,-1,916,1583,-0.755509,-30.4625
-301,-559,-1.22174,31.0372,0,0,0,0,0,0,0,-1,923,1583,-1.22176,-31.0372
-294,-559,0.945129,18.5165,0,0,0,0,0,0,0,-1,930,1583,0.945117,-18.5165
-287,-559,-0.11792,15.4912,0,0,0,0,0,0,0,-1,937,1583,-0.117939,-15.4912
-280,-559,0.191467,13.5093,0,0,0,0,0,0,0,-1,944,1583,0.191441,-13.5093
-273,-559,2.12836,10.3059,0,0,0,0,0,0,0,-1,951,1583,2.12839,-10.3059
-266,-559,-0.597046,6.68933,0,0,0,0,0,0,0,-1,958,1583,-0.597031,-6.68937
-259,-559,-7.00311,8.62756,0,0,0,0,0,0,0,-1,965,1583,-7.00312,-8.6275
-252,-559,-9.4483,2.87805,0,0,0,0,0,0,0,-1,972,1583,-9.44829,-2.87805
-245,-559,-4.80804,7.1803,0,0,0,0,0,0,0,-1,979,1583,-4.80804,-7.18027
-238,-559,-8.45764,2.54858,0,0,0,0,0,0,0,-1,986,1583,-8.45763,-2.54862
-231,-559,-5.86914,4.34021,0,0,0,0,0,0,0,-1,993,1583,-5.86914,-4.34019
-224,-559,-3.30505,6.22864,0,0,0,0,0,0,0,-1,1000,1583,-3.30505,-6.22859
-217,-559,0,0,0,0,0,0,0,0,0,-1,1007,1583,0,0
-210,-559,0,0,0,0,0,0,0,0,0,-1,1014,1583,0,0
-203,-559,0,0,0,0,0,0,0,0,0,-1,1021,1583,0,0
-196,-559,0,0,0,0,0,0,0,0,0,-1,1028,1583,0,0
-189,-559,0,0,0,0,0,0,0,0,0,-1,1035,1583,0,0
-182,-559,0,0,0,0,0,0,0,0,0,-1,1042,1583,0,0
-175,-559,0,0,0,0,0,0,0,0,0,-1,1049,1583,0,0
-168,-559,0,0,0,0,0,0,0,0,0,-1,1056,1583,0,0
-161,-559,0,0,0,0,0,0,0,0,0,-1,1063,1583,0,0
-154,-559,0,0,0,0,0,0,0,0,0,-1,1070,1583,0,0
-147,-559,0,0,0,0,0,0,0,0,0,-1,1077,1583,0,0
-140,-559,0,0,0,0,0,0,0,0,0,-1,1084,1583,0,0
-133,-559,0,0,0,0,0,0,0,0,0,-1,1091,1583,0,0
-126,-559,0,0,0,0,0,0,0,0,0,-1,1098,1583,0,0
-119,-559,0,0,0,0,0,0,0,0,0,-1,1105,1583,0,0
-112,-559,0,0,0,0,0,0,0,0,0,-1,1112,1583,0,0
-105,-559,0,0,0,0,0,0,0,0,0,-1,1119,1583,0,0
-98,-559,0,0,0,0,0,0,0,0,0,-1,1126,1583,0,0
-91,-559,0,0,0,0,0,0,0,0,0,-1,1133,1583,0,0
-84,-559,0,0,0,0,0,0,0,0,0,-1,1140,1583,0,0
-77,-559,0,0,0,0,0,0,0,0,0,-1,1147,1583,0,0
-70,-559,0,0,0,0,0,0,0,0,0,-1,1154,1583,0,0
-63,-559,0,0,0,0,0,0,0,0,0,-1,1161,1583,0,0
-56,-559,0,0,0,0,0,0,0,0,0,-1,1168,1583,0,0
-49,-559,0,0,0,0,0,0,0,0,0,-1,1175,1583,0,0
-42,-559,0,0,0,0,0,0,0,0,0,-1,1182,1583,0,0
-35,-559,0,0,0,0,0,0,0,0,0,-1,1189,1583,0,0
-28,-559,0,0,0,0,0,0,0,0,0,-1,1196,1583,0,0
-21,-559,0,0,0,0,0,0,0,0,0,-1,1203,1583,0,0
-14,-559,0,0,0,0,0,0,0,0,0,-1,1210,1583,0,0
-7,-559,0,0,0,0,0,0,0,0,0,-1,1217,1583,0,0
0,-559,0,0,0,0,0,0,0,0,0,-1,1224,1583,0,0
7,-559,0,0,0,0,0,0,0,0,0,-1,1231,1583,0,0
14,-559,0,0,0,0,0,0,0,0,0,-1,1238,1583,0,0
21,-559,0,0,0,0,0,0,0,0,0,-1,1245,1583,0,0
28,-559,0,0,0,0,0,0,0,0,0,-1,1252,1583,0,0
35,-559,0,0,0,0,0,0,0,0,0,-1,1259,1583,0,0
42,-559,0,0,0,0,0,0,0,0,0,-1,1266,1583,0,0
49,-559,0,0,0,0,0,0,0,0,0,-1,1273,1583,0,0
56,-559,0,0,0,0,0,0,0,0,0,-1,1280,1583,0,0
63,-559,0,0,0,0,0,0,0,0,0,-1,1287,1583,0,0
70,-559,0,0,0,0,0,0,0,0,0,-1,1294,1583,0,0
77,-559,0,0,0,0,0,0,0,0,0,-1,1301,1583,0,0
84,-559,0,0,0,0,0,0,0,0,0,-1,1308,1583,0,0
91,-559,0,0,0,0,0,0,0,0,0,-1,1315,1583,0,0
98,-559,0,0,0,0,0,0,0,0,0,-1,1322,1583,0,0
105,-559,0,0,0,0,0,0,0,0,0,-1,1329,1583,0,0
112,-559,0,0,0,0,0,0,0,0,0,-1,1336,1583,0,0
119,-559,0,0,0,0,0,0,0,0,0,-1,1343,1583,0,0
126,-559,0,0,0,0,0,0,0,0,0,-1,1350,1583,0,0
133,-559,0,0,0,0,0,0,0,0,0,-1,1357,1583,0,0
140,-559,0,0,0,0,0,0,0,0,0,-1,1364,1583,0,0
147,-559,0,0,0,0,0,0,0,0,0,-1,1371,1583,0,0
154,-559,0,0,0,0,0,0,0,0,0,-1,1378,1583,0,0
161,-559,0,0,0,0,0,0,0,0,0,-1,1385,1583,0,0
168,-559,0,0,0,0,0,0,0,0,0,-1,1392,1583,0,0
175,-559,0,0,0,0,0,0,0,0,0,-1,1399,1583,0,0
182,-559,0,0,0,0,0,0,0,0,0,-1,1406,1583,0,0
189,-559,0,0,0,0,0,0,0,0,0,-1,1413,1583,0,0
196,-559,0,0,0,0,0,0,0,0,0,-1,1420,1583,0,0
203,-559,0,0,0,0,0,0,0,0,0,-1,1427,1583,0,0
210,-559,0,0,0,0,0,0,0,0,0,-1,1434,1583,0,0
217,-559,0,0,0,0,0,0,0,0,0,-1,1441,1583,0,0
224,-559,0,0,0,0,0,0,0,0,0,-1,1448,1583,0,0
231,-559,0,0,0,0,0,0,0,0,0,-1,1455,1583,0,0
238,-559,0,0,0,0,0,0,0,0,0,-1,1462,1583,0,0
245,-559,0,0,0,0,0,0,0,0,0,-1,1469,1583,0,0
252,-559,0,0,0,0,0,0,0,0,0,-1,1476,1583,0,0
259,-559,0,0,0,0,0,0,0,0,0,-1,1483,1583,0,0
266,-559,0,0,0,0,0,0,0,0,0,-1,1490,1583,0,0
273,-559,0,0,0,0,0,0,0,0,0,-1,1497,1583,0,0
280,-559,0,0,0,0,0,0,0,0,0,-1,1504,1583,0,0
287,-559,0,0,0,0,0,0,0,0,0,-1,1511,1583,0,0
294,-559,0,0,0,0,0,0,0,0,0,-1,1518,1583,0,0
301,-559,0,0,0,0,0,0,0,0,0,-1,1525,1583,0,0
308,-559,0,0,0,0,0,0,0,0,0,-1,1532,1583,0,0
315,-559,0,0,0,0,0,0,0,0,0,-1,1539,1583,0,0
322,-559,0,0,0,0,0,0,0,0,0,-1,1546,1583,0,0
329,-559,0,0,0,0,0,0,0,0,0,-1,1553,1583,0,0
336,-559,5.97668,3.09827,0,0,0,0,0,0,0,-1,1560,1583,5.97667,-3.09824
343,-559,5.44824,2.88696,0,0,0,0,0,0,0,-1,1567,1583,5.44819,-2.88693
350,-559,4.69775,3.27051,0,0,0,0,0,0,0,-1,1574,1583,4.69771,-3.27048
357,-559,3.88025,3.60999,0,0,0,0,0,0,0,-1,1581,1583,3.88027,-3.60998
364,-559,5.00928,5.32605,0,0,0,0,0,0,0,-1,1588,1583,5.00928,-5.32607
371,-559,1.84436,2.52441,0,0,0,0,0,0,0,-1,1595,1583,1.84441,-2.52447
378,-559,6.34753,1.53137,0,0,0,0,0,0,0,-1,1602,1583,6.34752,-1.53139
385,-559,6.95911,1.48181,0,0,0,0,0,0,0,-1,1609,1583,6.95916,-1.48175
392,-559,11.6949,4.77734,0,0,0,0,0,0,0,-1,1616,1583,11.6949,-4.77731
399,-559,11.1104,5.56909,0,0,0,0,0,0,0,-1,1623,1583,11.1103,-5.56905
406,-559,10.3385,6.48657,0,0,0,0,0,0,0,-1,1630,1583,10.3385,-6.48661
413,-559,9.76147,6.97571,0,0,0,0,0,0,0,-1,1637,1583,9.76143,-6.97574
420,-559,7.77124,10.5851,0,0,0,0,0,0,0,-1,1644,1583,7.77128,-10.585
427,-559,10.1022,12.5565,0,0,0,0,0,0,0,-1,1651,1583,10.1021,-12.5565
434,-559,9.62769,14.6309,0,0,0,0,0,0,0,-1,1658,1583,9.62771,-14.6309
441,-559,12.6149,21.3678,0,0,0,0,0,0,0,-1,1665,1583,12.6149,-21.3678
448,-559,13.7046,22.6677,0,0,0,0,0,0,0,-1,1672,1583,13.7046,-22.6677
455,-559,13.9427,23.0509,0,0,0,0,0,0,0,-1,1679,1583,13.9427,-23.0509
462,-559,19.6816,35.0789,0,0,0,0,0,0,0,-1,1686,1583,19.6817,-35.0789
469,-559,19.8019,33.9702,0,0,0,0,0,0,0,-1,1693,1583,19.8018,-33.9702
476,-559,19.9552,33.2789,0.00702695,0.0133958,-0.00800263,0.0188243,0.00159845,-0.974756,0.0120521,0.0251105,1700,1583,19.9552,-33.2789
483,-559,20.0221,32.5757,0.0060367,0.0102697,-0.00625751,0.014759,0.00154745,-0.948476,0.0093662,0.0137173,1707,1583,20.0221,-32.5757
490,-559,20.0126,31.9843,0.00515878,0.00731155,-0.00484409,0.0111974,0.00127293,-0.894725,0.00707887,0.0150327,1714,1583,20.0125,-31.9842
497,-559,20.0311,31.4274,0.00417015,0.00529098,-0.00363917,0.00841263,0.0010485,-0.861795,0.00529365,0.0191928,1721,1583,20.0311,-31.4273
504,-559,19.9789,30.8263,0.00315185,0.00352508,-0.0026576,0.00600261,0.000674324,-0.820451,0.00379698,0.024366,1728,1583,19.9789,-30.8263
511,-559,19.9509,30.1917,0.00205303,0.00220719,-0.00176248,0.00389427,0.000365947,-0.807251,0.0024832,0.0205129,1735,1583,19.9509,-30.1917
518,-559,19.9489,29.5847,0.000894353,0.000990276,-0.000859301,0.00180295,8.16761e-05,-0.813276,0.00117569,0.0136451,1742,1583,19.9488,-29.5847
525,-559,19.8984,28.9938,-0.000125682,9.33591e-05,-3.63397e-05,9.92306e-05,-0.000131553,-1.41061,0.000133678,0.0131757,1749,1583,19.8984,-28.9938
532,-559,19.8591,28.3936,-0.00101933,-0.00078154,0.000775884,-0.000115492,-0.00168537,0.861424,0.00108713,0.014055,1756,1583,19.8592,-28.3936
539,-559,19.8423,27.7828,-0.00191771,-0.00154431,0.0016287,-9.16396e-05,-0.00337038,0.842464,0.002217,0.0190027,1763,1583,19.8423,-27.7828
546,-559,19.7849,27.1785,-0.00273304,-0.00237303,0.00261537,6.85246e-05,-0.0051746,0.819757,0.0034728,0.017916,1770,1583,19.785,-27.1785
553,-559,19.8333,26.5343,-0.00330694,-0.00305499,0.00357131,0.000392571,-0.0067545,0.803028,0.0046394,0.0215558,1777,1583,19.8333,-26.5343
560,-559,19.8135,26.0713,-0.00355984,-0.00363401,0.00443372,0.000836947,-0.0080308,0.781216,0.00565353,0.0410333,1784,1583,19.8134,-26.0713
567,-559,19.752,25.4298,0,0,0,0,0,0,0,-1,1791,1583,19.752,-25.4298
574,-559,10.5109,10.7317,0,0,0,0,0,0,0,-1,1798,1583,10.5108,-10.7317
581,-559,5.97095,5.96179,0,0,0,0,0,0,0,-1,1805,1583,5.97093,-5.96181
588,-559,5.79102,5.89954,0,0,0,0,0,0,0,-1,1812,1583,5.79098,-5.89949
595,-559,5.79089,6.24231,0,0,0,0,0,0,0,-1,1819,1583,5.7909,-6.24227
602,-559,12.478,2.35669,0,0,0,0,0,0,0,-1,1826,1583,12.4781,-2.35675
609,-559,14.0479,1.22681,0,0,0,0,0,0,0,-1,1833,1583,14.0479,-1.22681
616,-559,0,0,0,0,0,0,0,0,0,-1,1840,1583,0,0
623,-559,0,0,0,0,0,0,0,0,0,-1,1847,1583,0,0
630,-559,0,0,0,0,0,0,0,0,0,-1,1854,1583,0,0
637,-559,0,0,0,0,0,0,0,0,0,-1,1861,1583,0,0
644,-559,0,0,0,0,0,0,0,0,0,-1,1868,1583,0,0
651,-559,0,0,0,0,0,0,0,0,0,-1,1875,1583,0,0
658,-559,0,0,0,0,0,0,0,0,0,-1,1882,1583,0,0
665,-559,0,0,0,0,0,0,0,0,0,-1,1889,1583,0,0
672,-559,0,0,0,0,0,0,0,0,0,-1,1896,1583,0,0
679,-559,0,0,0,0,0,0,0,0,0,-1,1903,1583,0,0
686,-559,0,0,0,0,0,0,0,0,0,-1,1910,1583,0,0
693,-559,0,0,0,0,0,0,0,0,0,-1,1917,1583,0,0
700,-559,0,0,0,0,0,0,0,0,0,-1,1924,1583,0,0
707,-559,0,0,0,0,0,0,0,0,0,-1,1931,1583,0,0
714,-559,0,0,0,0,0,0,0,0,0,-1,1938,1583,0,0
721,-559,0,0,0,0,0,0,0,0,0,-1,1945,1583,0,0
728,-559,0,0,0,0,0,0,0,0,0,-1,1952,1583,0,0
735,-559,0,0,0,0,0,0,0,0,0,-1,1959,1583,0,0
742,-559,0,0,0,0,0,0,0,0,0,-1,1966,1583,0,0
749,-559,0,0,0,0,0,0,0,0,0,-1,1973,1583,0,0
756,-559,0,0,0,0,0,0,0,0,0,-1,1980,1583,0,0
763,-559,0,0,0,0,0,0,0,0,0,-1,1987,1583,0,0
770,-559,0,0,0,0,0,0,0,0,0,-1,1994,1583,0,0
777,-559,0,0,0,0,0,0,0,0,0,-1,2001,1583,0,0
784,-559,0,0,0,0,0,0,0,0,0,-1,2008,1583,0,0
791,-559,0,0,0,0,0,0,0,0,0,-1,2015,1583,0,0
798,-559,0,0,0,0,0,0,0,0,0,-1,2022,1583,0,0
805,-559,0,0,0,0,0,0,0,0,0,-1,2029,1583,0,0
812,-559,0,0,0,0,0,0,0,0,0,-1,2036,1583,0,0
-700,-566,0,0,0,0,0,0,0,0,0,-1,524,1590,0,0
-693,-566,0,0,0,0,0,0,0,0,0,-1,531,1590,0,0
-686,-566,0,0,0,0,0,0,0,0,0,-1,538,1590,0,0
-679,-566,0,0,0,0,0,0,0,0,0,-1,545,1590,0,0
-672,-566,0,0,0,0,0,0,0,0,0,-1,552,1590,0,0
-665,-566,0,0,0,0,0,0,0,0,0,-1,559,1590,0,0
-658,-566,0,0,0,0,0,0,0,0,0,-1,566,1590,0,0
-651,-566,0,0,0,0,0,0,0,0,0,-1,573,1590,0,0
-644,-566,0,0,0,0,0,0,0,0,0,-1,580,1590,0,0
-637,-566,0,0,0,0,0,0,0,0,0,-1,587,1590,0,0
-630,-566,0,0,0,0,0,0,0,0,0,-1,594,1590,0,0
-623,-566,0,0,0,0,0,0,0,0,0,-1,601,1590,0,0
-616,-566,0,0,0,0,0,0,0,0,0,-1,608,1590,0,0
-609,-566,0,0,0,0,0,0,0,0,0,-1,615,1590,0,0
-602,-566,0,0,0,0,0,0,0,0,0,-1,622,1590,0,0
-595,-566,0,0,0,0,0,0,0,0,0,-1,629,1590,0,0
-588,-566,0,0,0,0,0,0,0,0,0,-1,636,1590,0,0
-581,-566,0,0,0,0,0,0,0,0,0,-1,643,1590,0,0
-574,-566,0,0,0,0,0,0,0,0,0,-1,650,1590,0,0
-567,-566,0,0,0,0,0,0,0,0,0,-1,657,1590,0,0
-560,-566,0,0,0,0,0,0,0,0,0,-1,664,1590,0,0
-553,-566,0,0,0,0,0,0,0,0,0,-1,671,1590,0,0
-546,-566,0,0,0,0,0,0,0,0,0,-1,678,1590,0,0
-539,-566,0,0,0,0,0,0,0,0,0,-1,685,1590,0,0
-532,-566,0,0,0,0,0,0,0,0,0,-1,692,1590,0,0
-525,-566,0,0,0,0,0,0,0,0,0,-1,699,1590,0,0
-518,-566,0,0,0,0,0,0,0,0,0,-1,706,1590,0,0
-511,-566,0,0,0,0,0,0,0,0,0,-1,713,1590,0,0
-504,-566,0,0,0,0,0,0,0,0,0,-1,720,1590,0,0
-497,-566,0,0,0,0,0,0,0,0,0,-1,727,1590,0,0
-490,-566,0,0,0,0,0,0,0,0,0,-1,734,1590,0,0
-483,-566,-7.17084,2.78613,0,0,0,0,0,0,0,-1,741,1590,-7.17083,-2.78618
-476,-566,-7.13971,2.87183,0,0,0,0,0,0,0,-1,748,1590,-7.13971,-2.87184
-469,-566,-6.43829,3.2998,0,0,0,0,0,0,0,-1,755,1590,-6.43829,-3.2998
-462,-566,-0.459106,3.89343,0,0,0,0,0,0,0,-1,762,1590,-0.459095,-3.89341
-455,-566,0.280212,4.74023,0,0,0,0,0,0,0,-1,769,1590,0.280207,-4.74023
-448,-566,0.436951,5.51306,0,0,0,0,0,0,0,-1,776,1590,0.436971,-5.51301
-441,-566,-0.440735,12.4063,0,0,0,0,0,0,0,-1,783,1590,-0.440753,-12.4062
-434,-566,-0.463257,24.7469,0,0,0,0,0,0,0,-1,790,1590,-0.463266,-24.747
-427,-566,-1.10144,26.0416,0,0,0,0,0,0,0,-1,797,1590,-1.10141,-26.0416
-420,-566,-1.33221,25.7538,0,0,0,0,0,0,0,-1,804,1590,-1.33221,-25.7537
-413,-566,-1.1748,26.4785,-0.00175193,-0.00238735,0.000190009,-0.00169944,-0.00243983,0.269495,0.00144446,0.0315983,811,1590,-1.17478,-26.4786
-406,-566,-1.15808,27.1144,-0.00138858,-0.00169855,0.000394681,-0.00111954,-0.00196759,0.598301,0.00113959,0.0131489,818,1590,-1.15808,-27.1144
-399,-566,-1.19177,27.7808,-0.00132884,-0.00108929,0.000536244,-0.000659608,-0.00175852,0.895275,0.00102579,0.0111296,825,1590,-1.19176,-27.7808
-392,-566,-1.23779,28.4258,-0.000974775,-0.00062176,0.000680041,-9.56937e-05,-0.00150084,0.912374,0.000970238,0.0148589,832,1590,-1.23781,-28.4257
-385,-566,-1.24261,29.068,-0.000305578,3.95932e-05,0.0008201,0.00070507,-0.000971055,0.889107,0.000971765,0.0170093,839,1590,-1.24264,-29.068
-378,-566,-1.25464,29.7085,0.000350369,0.00054059,0.000870359,0.00132102,-0.000430061,0.839821,0.00105371,0.0168685,846,1590,-1.25462,-29.7085
-371,-566,-1.32428,30.3081,0.00106954,0.00107486,0.00101944,0.00209165,5.27536e-05,0.786704,0.00137719,0.0220557,853,1590,-1.32426,-30.3081
-364,-566,-1.31171,30.9188,0.00184369,0.00167537,0.00118355,0.00294606,0.000572991,0.749904,0.00180364,0.0213,860,1590,-1.31172,-30.9188
-357,-566,-1.32471,31.5521,0.00267394,0.00240056,0.00139301,0.00393695,0.00113755,0.736492,0.00233953,0.0168469,867,1590,-1.32471,-31.5521
-350,-566,-1.36243,32.1753,0.00370308,0.00315509,0.00167905,0.00513035,0.00172782,0.70452,0.00301415,0.0197041,874,1590,-1.3624,-32.1753
-343,-566,-1.38129,32.7466,0.00479334,0.00415053,0.0021565,0.00665226,0.00229161,0.711424,0.00390212,0.0265296,881,1590,-1.38129,-32.7466
-336,-566,-1.50769,33.3184,0.00614065,0.00557343,0.00297206,0.0088426,0.00287148,0.73783,0.00520878,0.0287083,888,1590,-1.50771,-33.3183
-329,-566,-1.43304,33.9069,0.00790907,0.00828695,0.00454027,0.0126422,0.00355381,0.806193,0.00752852,0.0273157,895,1590,-1.43306,-33.9068
-322,-566,-1.33569,34.6912,0.00987747,0.0112347,0.00660852,0.0171994,0.00391282,0.836563,0.01041,0.0363417,902,1590,-1.33568,-34.6912
-315,-566,-1.2251,35.6458,0,0,0,0,0,0,0,-1,909,1590,-1.22512,-35.6458
-308,-566,-0.127258,29.7607,0,0,0,0,0,0,0,-1,916,1590,-0.12725,-29.7608
-301,-566,0.424011,30.6545,0,0,0,0,0,0,0,-1,923,1590,0.424036,-30.6546
-294,-566,-0.623474,37.1293,0,0,0,0,0,0,0,-1,930,1590,-0.623483,-37.1292
-287,-566,1.25391,23.4589,0,0,0,0,0,0,0,-1,937,1590,1.2539,-23.4589
-280,-566,1.59406,17.8762,0,0,0,0,0,0,0,-1,944,1590,1.59405,-17.8762
-273,-566,0.49762,11.2427,0,0,0,0,0,0,0,-1,951,1590,0.497591,-11.2426
-266,-566,0.392151,6.90295,0,0,0,0,0,0,0,-1,958,1590,0.392151,-6.90294
-259,-566,0.343628,6.47437,0,0,0,0,0,0,0,-1,965,1590,0.34363,-6.47438
-252,-566,-7.68311,1.01343,0,0,0,0,0,0,0,-1,972,1590,-7.68308,-1.01348
-245,-566,-11.1835,1.97522,0,0,0,0,0,0,0,-1,979,1590,-11.1835,-1.97527
-238,-566,-10.4883,2.40491,0,0,0,0,0,0,0,-1,986,1590,-10.4883,-2.40487
-231,-566,-7.41827,4.22803,0,0,0,0,0,0,0,-1,993,1590,-7.41827,-4.22803
-224,-566,-4.67188,6.30859,0,0,0,0,0,0,0,-1,1000,1590,-4.67185,-6.30853
-217,-566,-2.82867,7.52527,0,0,0,0,0,0,0,-1,1007,1590,-2.82869,-7.52531
-210,-566,-1.03436,8.67737,0,0,0,0,0,0,0,-1,1014,1590,-1.03439,-8.67733
-203,-566,0,0,0,0,0,0,0,0,0,-1,1021,1590,0,0
-196,-566,0,0,0,0,0,0,0,0,0,-1,1028,1590,0,0
-189,-566,0,0,0,0,0,0,0,0,0,-1,1035,1590,0,0
-182,-566,0,0,0,0,0,0,0,0,0,-1,1042,1590,0,0
-175,-566,0,0,0,0,0,0,0,0,0,-1,1049,1590,0,0
-168,-566,0,0,0,0,0,0,0,0,0,-1,1056,1590,0,0
-161,-566,0,0,0,0,0,0,0,0,0,-1,1063,1590,0,0
-154,-566,0,0,0,0,0,0,0,0,0,-1,1070,1590,0,0
-147,-566,0,0,0,0,0,0,0,0,0,-1,1077,1590,0,0
-140,-566,0,0,0,0,0,0,0,0,0,-1,1084,1590,0,0
-133,-566,0,0,0,0,0,0,0,0,0,-1,1091,1590,0,0
-126,-566,0,0,0,0,0,0,0,0,0,-1,1098,1590,0,0
-119,-566,0,0,0,0,0,0,0,0,0,-1,1105,1590,0,0
-112,-566,0,0,0,0,0,0,0,0,0,-1,1112,1590,0,0
-105,-566,0,0,0,0,0,0,0,0,0,-1,1119,1590,0,0
-98,-566,0,0,0,0,0,0,0,0,0,-1,1126,1590,0,0
-91,-566,0,0,0,0,0,0,0,0,0,-1,1133,1590,0,0
-84,-566,0,0,0,0,0,0,0,0,0,-1,1140,1590,0,0
-77,-566,0,0,0,0,0,0,0,0,0,-1,1147,1590,0,0
-70,-566,0,0,0,0,0,0,0,0,0,-1,1154,1590,0,0
-63,-566,0,0,0,0,0,0,0,0,0,-1,1161,1590,0,0
-56,-566,0,0,0,0,0,0,0,0,0,-1,1168,1590,0,0
-49,-566,0,0,0,0,0,0,0,0,0,-1,1175,1590,0,0
-42,-566,0,0,0,0,0,0,0,0,0,-1,1182,1590,0,0
-35,-566,0,0,0,0,0,0,0,0,0,-1,1189,1590,0,0
-28,-566,0,0,0,0,0,0,0,0,0,-1,1196,1590,0,0
-21,-566,0,0,0,0,0,0,0,0,0,-1,1203,1590,0,0
-14,-566,0,0,0,0,0,0,0,0,0,-1,1210,1590,0,0
-7,-566,0,0,0,0,0,0,0,0,0,-1,1217,1590,0,0
0,-566,0,0,0,0,0,0,0,0,0,-1,1224,1590,0,0
7,-566,0,0,0,0,0,0,0,0,0,-1,1231,1590,0,0
14,-566,0,0,0,0,0,0,0,0,0,-1,1238,1590,0,0
21,-566,0,0,0,0,0,0,0,0,0,-1,1245,1590,0,0
28,-566,0,0,0,0,0,0,0,0,0,-1,1252,1590,0,0
35,-566,0,0,0,0,0,0,0,0,0,-1,1259,1590,0,0
42,-566,0,0,0,0,0,0,0,0,0,-1,1266,1590,0,0
49,-566,0,0,0,0,0,0,0,0,0,-1,1273,1590,0,0
56,-566,0,0,0,0,0,0,0,0,0,-1,1280,1590,0,0
63,-566,0,0,0,0,0,0,0,0,0,-1,1287,1590,0,0
70,-566,0,0,0,0,0,0,0,0,0,-1,1294,1590,0,0
77,-566,0,0,0,0,0,0,0,0,0,-1,1301,1590,0,0
84,-566,0,0,0,0,0,0,0,0,0,-1,1308,1590,0,0
91,-566,0,0,0,0,0,0,0,0,0,-1,1315,1590,0,0
98,-566,0,0,0,0,0,0,0,0,0,-1,1322,1590,0,0
105,-566,0,0,0,0,0,0,0,0,0,-1,1329,1590,0,0
112,-566,0,0,0,0,0,0,0,0,0,-1,1336,1590,0,0
119,-566,0,0,0,0,0,0,0,0,0,-1,1343,1590,0,0
126,-566,0,0,0,0,0,0,0,0,0,-1,1350,1590,0,0
133,-566,0,0,0,0,0,0,0,0,0,-1,1357,1590,0,0
140,-566,0,0,0,0,0,0,0,0,0,-1,1364,1590,0,0
147,-566,0,0,0,0,0,0,0,0,0,-1,1371,1590,0,0
154,-566,0,0,0,0,0,0,0,0,0,-1,1378,1590,0,0
161,-566,0,0,0,0,0,0,0,0,0,-1,1385,1590,0,0
168,-566,0,0,0,0,0,0,0,0,0,-1,1392,1590,0,0
175,-566,0,0,0,0,0,0,0,0,0,-1,1399,1590,0,0
182,-566,0,0,0,0,0,0,0,0,0,-1,1406,1590,0,0
189,-566,0,0,0,0,0,0,0,0,0,-1,1413,1590,0,0
196,-566,0,0,0,0,0,0,0,0,0,-1,1420,1590,0,0
203,-566,0,0,0,0,0,0,0,0,0,-1,1427,1590,0,0
210,-566,0,0,0,0,0,0,0,0,0,-1,1434,1590,0,0
217,-566,0,0,0,0,0,0,0,0,0,-1,1441,1590,0,0
224,-566,0,0,0,0,0,0,0,0,0,-1,1448,1590,0,0
231,-566,0,0,0,0,0,0,0,0,0,-1,1455,1590,0,0
238,-566,0,0,0,0,0,0,0,0,0,-1,1462,1590,0,0
245,-566,0,0,0,0,0,0,0,0,0,-1,1469,1590,0,0
252,-566,0,0,0,0,0,0,0,0,0,-1,1476,1590,0,0
259,-566,0,0,0,0,0,0,0,0,0,-1,1483,1590,0,0
266,-566,0,0,0,0,0,0,0,0,0,-1,1490,1590,0,0
273,-566,0,0,0,0,0,0,0,0,0,-1,1497,1590,0,0
280,-566,0,0,0,0,0,0,0,0,0,-1,1504,1590,0,0
287,-566,0,0,0,0,0,0,0,0,0,-1,1511,1590,0,0
294,-566,0,0,0,0,0,0,0,0,0,-1,1518,1590,0,0
301,-566,0,0,0,0,0,0,0,0,0,-1,1525,1590,0,0
308,-566,0,0,0,0,0,0,0,0,0,-1,1532,1590,0,0
315,-566,0,0,0,0,0,0,0,0,0,-1,1539,1590,0,0
322,-566,6.07983,4.44873,0,0,0,0,0,0,0,-1,1546,1590,6.07983,-4.44873
329,-566,5.77026,3.47534,0,0,0,0,0,0,0,-1,1553,1590,5.77026,-3.47535
336,-566,5.41138,2.62915,0,0,0,0,0,0,0,-1,1560,1590,5.41138,-2.62909
343,-566,4.81873,1.79089,0,0,0,0,0,0,0,-1,1567,1590,4.81878,-1.79095
350,-566,4.41663,2.44214,0,0,0,0,0,0,0,-1,1574,1590,4.41666,-2.44214
357,-566,6.34058,5.18579,0,0,0,0,0,0,0,-1,1581,1590,6.34059,-5.1858
364,-566,6.06262,4.20251,0,0,0,0,0,0,0,-1,1588,1590,6.06259,-4.20246
371,-566,5.78455,3.21912,0,0,0,0,0,0,0,-1,1595,1590,5.7846,-3.21912
378,-566,5.7439,0.695557,0,0,0,0,0,0,0,-1,1602,1590,5.74392,-0.695531
385,-566,5.67615,-0.573975,0,0,0,0,0,0,0,-1,1609,1590,5.67612,0.573956
392,-566,5.78638,1.82434,0,0,0,0,0,0,0,-1,1616,1590,5.78637,-1.82439
399,-566,18.6853,38.6455,0,0,0,0,0,0,0,-1,1623,1590,18.6853,-38.6456
406,-566,4.30359,5.26868,0,0,0,0,0,0,0,-1,1630,1590,4.30364,-5.26867
413,-566,4.27124,5.79492,0,0,0,0,0,0,0,-1,1637,1590,4.27123,-5.7949
420,-566,18.0121,32.5314,0,0,0,0,0,0,0,-1,1644,1590,18.0121,-32.5313
427,-566,19.4491,36.9315,0,0,0,0,0,0,0,-1,1651,1590,19.4491,-36.9315
434,-566,19.338,36.7385,0,0,0,0,0,0,0,-1,1658,1590,19.338,-36.7386
441,-566,15.5841,27.5869,0,0,0,0,0,0,0,-1,1665,1590,15.5842,-27.587
448,-566,19.446,36.3781,0,0,0,0,0,0,0,-1,1672,1590,19.446,-36.3781
455,-566,19.0956,35.569,0,0,0,0,0,0,0,-1,1679,1590,19.0956,-35.569
462,-566,19.2455,34.7286,0.00700795,0.0172128,-0.00976908,0.0231317,0.00108904,-1.02606,0.0150712,0.0443203,1686,1590,19.2455,-34.7286
469,-566,19.369,33.8273,0.00612017,0.0137118,-0.00779679,0.0185877,0.0012443,-1.01193,0.0119985,0.0194413,1693,1590,19.369,-33.8273
476,-566,19.4154,33.1934,0.00537353,0.010731,-0.00624365,0.0148463,0.00125824,-0.988039,0.00950591,0.0108648,1700,1590,19.4154,-33.1934
483,-566,19.3969,32.5955,0.00451174,0.00810223,-0.00485218,0.0114806,0.00113335,-0.962583,0.00730533,0.0103622,1707,1590,19.3969,-32.5955
490,-566,19.3844,32.006,0.00377204,0.0055472,-0.00368291,0.00844798,0.000871266,-0.903643,0.0053652,0.0118214,1714,1590,19.3845,-32.006
497,-566,19.4376,31.4318,0.00290272,0.00378407,-0.0026947,0.00607389,0.000612899,-0.866448,0.00386121,0.0152265,1721,1590,19.4377,-31.4317
504,-566,19.384,30.8491,0.00191355,0.00224581,-0.00178616,0.00387355,0.000285807,-0.831769,0.00249256,0.0189418,1728,1590,19.3841,-30.8492
511,-566,19.3396,30.2515,0.000898433,0.00104775,-0.000984127,0.00196004,-1.38647e-05,-0.823256,0.00131134,0.0187315,1735,1590,19.3397,-30.2515
518,-566,19.3247,29.6484,-0.000196461,-2.12251e-05,-0.000180078,9.14196e-05,-0.000309105,-1.01181,0.000242361,0.0118489,1742,1590,19.3247,-29.6484
525,-566,19.29,29.0302,-0.00120747,-0.000846114,0.00060029,-0.000399899,-0.00165368,0.931576,0.000996276,0.0118168,1749,1590,19.29,-29.0302
532,-566,19.2676,28.3993,-0.00214191,-0.00165501,0.00141921,-0.000458522,-0.0033384,0.87034,0.0020896,0.0146716,1756,1590,19.2676,-28.3992
539,-566,19.2374,27.7657,-0.00318906,-0.00242883,0.00236409,-0.00041449,-0.0052034,0.865109,0.00333936,0.0192522,1763,1590,19.2374,-27.7658
546,-566,19.2722,27.1177,-0.00421754,-0.00321576,0.00348759,-0.000193275,-0.00724002,0.856721,0.00476356,0.0223307,1770,1590,19.2722,-27.1177
553,-566,19.2384,26.686,-0.0050423,-0.00379587,0.0045919,0.00021492,-0.00905308,0.852846,0.00610829,0.0341632,1777,1590,19.2384,-26.6861
560,-566,18.7186,26.2827,0,0,0,0,0,0,0,-1,1784,1590,18.7186,-26.2827
567,-566,18.8301,25.7301,0,0,0,0,0,0,0,-1,1791,1590,18.83,-25.7302
574,-566,7.99548,3.14514,0,0,0,0,0,0,0,-1,1798,1590,7.99543,-3.14511
581,-566,2.54102,5.1311,0,0,0,0,0,0,0,-1,1805,1590,2.54099,-5.13111
588,-566,-1.91321,8.39197,0,0,0,0,0,0,0,-1,1812,1590,-1.91316,-8.39199
595,-566,9.0271,4.66467,0,0,0,0,0,0,0,-1,1819,1590,9.02705,-4.66468
602,-566,9.953,3.54895,0,0,0,0,0,0,0,-1,1826,1590,9.953,-3.54898
609,-566,0,0,0,0,0,0,0,0,0,-1,1833,1590,0,0
616,-566,0,0,0,0,0,0,0,0,0,-1,1840,1590,0,0
623,-566,0,0,0,0,0,0,0,0,0,-1,1847,1590,0,0
630,-566,0,0,0,0,0,0,0,0,0,-1,1854,1590,0,0
637,-566,0,0,0,0,0,0,0,0,0,-1,1861,1590,0,0
644,-566,0,0,0,0,0,0,0,0,0,-1,1868,1590,0,0
651,-566,0,0,0,0,0,0,0,0,0,-1,1875,1590,0,0
658,-566,0,0,0,0,0,0,0,0,0,-1,1882,1590,0,0
665,-566,0,0,0,0,0,0,0,0,0,-1,1889,1590,0,0
672,-566,0,0,0,0,0,0,0,0,0,-1,1896,1590,0,0
679,-566,0,0,0,0,0,0,0,0,0,-1,1903,1590,0,0
686,-566,0,0,0,0,0,0,0,0,0,-1,1910,1590,0,0
693,-566,0,0,0,0,0,0,0,0,0,-1,1917,1590,0,0
700,-566,0,0,0,0,0,0,0,0,0,-1,1924,1590,0,0
707,-566,0,0,0,0,0,0,0,0,0,-1,1931,1590,0,0
714,-566,0,0,0,0,0,0,0,0,0,-1,1938,1590,0,0
721,-566,0,0,0,0,0,0,0,0,0,-1,1945,1590,0,0
728,-566,0,0,0,0,0,0,0,0,0,-1,1952,1590,0,0
735,-566,0,0,0,0,0,0,0,0,0,-1,1959,1590,0,0
742,-566,0,0,0,0,0,0,0,0,0,-1,1966,1590,0,0
749,-566,0,0,0,0,0,0,0,0,0,-1,1973,1590,0,0
756,-566,0,0,0,0,0,0,0,0,0,-1,1980,1590,0,0
763,-566,0,0,0,0,0,0,0,0,0,-1,1987,1590,0,0
770,-566,0,0,0,0,0,0,0,0,0,-1,1994,1590,0,0
777,-566,0,0,0,0,0,0,0,0,0,-1,2001,1590,0,0
784,-566,0,0,0,0,0,0,0,0,0,-1,2008,1590,0,0
791,-566,0,0,0,0,0,0,0,0,0,-1,2015,1590,0,0
798,-566,0,0,0,0,0,0,0,0,0,-1,2022,1590,0,0
805,-566,0,0,0,0,0,0,0,0,0,-1,2029,1590,0,0
812,-566,0,0,0,0,0,0,0,0,0,-1,2036,1590,0,0
-700,-573,0,0,0,0,0,0,0,0,0,-1,524,1597,0,0
-693,-573,0,0,0,0,0,0,0,0,0,-1,531,1597,0,0
-686,-573,0,0,0,0,0,0,0,0,0,-1,538,1597,0,0
-679,-573,0,0,0,0,0,0,0,0,0,-1,545,1597,0,0
-672,-573,0,0,0,0,0,0,0,0,0,-1,552,1597,0,0
-665,-573,0,0,0,0,0,0,0,0,0,-1,559,1597,0,0
-658,-573,0,0,0,0,0,0,0,0,0,-1,566,1597,0,0
-651,-573,0,0,0,0,0,0,0,0,0,-1,573,1597,0,0
-644,-573,0,0,0,0,0,0,0,0,0,-1,580,1597,0,0
-637,-573,0,0,0,0,0,0,0,0,0,-1,587,1597,0,0
-630,-573,0,0,0,0,0,0,0,0,0,-1,594,1597,0,0
-623,-573,0,0,0,0,0,0,0,0,0,-1,601,1597,0,0
-616,-573,0,0,0,0,0,0,0,0,0,-1,608,1597,0,0
-609,-573,0,0,0,0,0,0,0,0,0,-1,615,1597,0,0
-602,-573,0,0,0,0,0,0,0,0,0,-1,622,1597,0,0
-595,-573,0,0,0,0,0,0,0,0,0,-1,629,1597,0,0
-588,-573,0,0,0,0,0,0,0,0,0,-1,636,1597,0,0
-581,-573,0,0,0,0,0,0,0,0,0,-1,643,1597,0,0
-574,-573,0,0,0,0,0,0,0,0,0,-1,650,1597,0,0
-567,-573,0,0,0,0,0,0,0,0,0,-1,657,1597,0,0
-560,-573,0,0,0,0,0,0,0,0,0,-1,664,1597,0,0
-553,-573,0,0,0,0,0,0,0,0,0,-1,671,1597,0,0
-546,-573,0,0,0,0,0,0,0,0,0,-1,678,1597,0,0
-539,-573,0,0,0,0,0,0,0,0,0,-1,685,1597,0,0
-532,-573,0,0,0,0,0,0,0,0,0,-1,692,1597,0,0
-525,-573,0,0,0,0,0,0,0,0,0,-1,699,1597,0,0
-518,-573,0,0,0,0,0,0,0,0,0,-1,706,1597,0,0
-511,-573,0,0,0,0,0,0,0,0,0,-1,713,1597,0,0
-504,-573,0,0,0,0,0,0,0,0,0,-1,720,1597,0,0
-497,-573,0,0,0,0,0,0,0,0,0,-1,727,1597,0,0
-490,-573,0,0,0,0,0,0,0,0,0,-1,734,1597,0,0
-483,-573,0,0,0,0,0,0,0,0,0,-1,741,1597,0,0
-476,-573,-9.3327,0.972778,0,0,0,0,0,0,0,-1,748,1597,-9.33268,-0.972776
-469,-573,-1.41681,1.13379,0,0,0,0,0,0,0,-1,755,1597,-1.41681,-1.13382
-462,-573,-0.748535,2.02588,0,0,0,0,0,0,0,-1,762,1597,-0.748533,-2.02584
-455,-573,-0.112976,2.70703,0,0,0,0,0,0,0,-1,769,1597,-0.112988,-2.70697
-448,-573,-1.26172,3.33252,0,0,0,0,0,0,0,-1,776,1597,-1.26173,-3.33248
-441,-573,0.108582,5.06726,0,0,0,0,0,0,0,-1,783,1597,0.108584,-5.06721
-434,-573,1.61768,7.05444,0,0,0,0,0,0,0,-1,790,1597,1.61767,-7.05446
-427,-573,-1.37927,24.4124,0,0,0,0,0,0,0,-1,797,1597,-1.37928,-24.4124
-420,-573,-0.0675049,25.203,0,0,0,0,0,0,0,-1,804,1597,-0.06749,-25.203
-413,-573,-0.627563,26.2303,0,0,0,0,0,0,0,-1,811,1597,-0.627559,-26.2304
-406,-573,-0.537537,27.0658,-0.00230625,-0.00169638,0.000820569,-0.00112592,-0.00287671,0.963296,0.00167388,0.0366581,818,1597,-0.537535,-27.0658
-399,-573,-0.594116,27.8026,-0.00229094,-0.0013509,0.000801031,-0.000892172,-0.00274966,1.05071,0.0016198,0.0160668,825,1597,-0.594105,-27.8026
-392,-573,-0.594482,28.469,-0.00192134,-0.00107397,0.000850176,-0.000547756,-0.00244756,1.01656,0.00148322,0.0143872,832,1597,-0.594473,-28.469
-385,-573,-0.613098,29.1034,-0.00125067,-0.000566252,0.000905767,5.97945e-05,-0.00187672,0.966016,0.00127155,0.01569,839,1597,-0.613128,-29.1034
-378,-573,-0.624939,29.7269,-0.000614266,-0.000188215,0.000865206,0.000489804,-0.00129229,0.906104,0.00106309,0.0164265,846,1597,-0.624963,-29.7269
-371,-573,-0.671509,30.347,8.2105e-05,0.000228506,0.000923689,0.00108189,-0.00077128,0.824939,0.00107493,0.0168048,853,1597,-0.671528,-30.3471
-364,-573,-0.684631,30.9517,0.00081833,0.000657495,0.000981092,0.0017223,-0.00024647,0.744506,0.00123856,0.0186658,860,1597,-0.68461,-30.9516
-357,-573,-0.705017,31.5693,0.00159917,0.00125039,0.00110574,0.00254419,0.000305373,0.707187,0.00160405,0.0205967,867,1597,-0.705043,-31.5693
-350,-573,-0.723999,32.2224,0.00256101,0.00187322,0.00129905,0.00356091,0.000873317,0.656002,0.00214299,0.0164483,874,1597,-0.724013,-32.2224
-343,-573,-0.740967,32.8032,0.00355808,0.00274376,0.00166774,0.00486765,0.00143419,0.665671,0.00288827,0.0213761,881,1597,-0.740953,-32.8032
-336,-573,-0.783997,33.427,0.00476958,0.00400254,0.00235635,0.00677341,0.00199871,0.704726,0.00401862,0.0165003,888,1597,-0.783979,-33.427
-329,-573,-0.788025,34.0364,0.00636392,0.00645943,0.00374501,0.010157,0.00266637,0.791774,0.00608063,0.0174718,895,1597,-0.788054,-34.0364
-322,-573,-0.814819,34.6652,0.00801467,0.0089711,0.00540389,0.0139179,0.00306788,0.82953,0.00844383,0.0163826,902,1597,-0.814793,-34.6651
-315,-573,-0.6875,35.4797,0.00983897,0.0126921,0.00755637,0.0189554,0.00357569,0.878695,0.0116297,0.0379289,909,1597,-0.687486,-35.4797
-308,-573,-0.794006,36.4276,0,0,0,0,0,0,0,-1,916,1597,-0.79398,-36.4276
-301,-573,-0.53418,36.7003,0,0,0,0,0,0,0,-1,923,1597,-0.534207,-36.7003
-294,-573,-0.291504,36.5417,0,0,0,0,0,0,0,-1,930,1597,-0.291507,-36.5417
-287,-573,-0.118835,37.2726,0,0,0,0,0,0,0,-1,937,1597,-0.118816,-37.2726
-280,-573,1.19684,26.4906,0,0,0,0,0,0,0,-1,944,1597,1.19685,-26.4906
-273,-573,2.24805,25.4375,0,0,0,0,0,0,0,-1,951,1597,2.24803,-25.4374
-266,-573,1.31116,7.1814,0,0,0,0,0,0,0,-1,958,1597,1.31118,-7.18142
-259,-573,1.2514,6.70959,0,0,0,0,0,0,0,-1,965,1597,1.25137,-6.70965
-252,-573,2.07874,5.27161,0,0,0,0,0,0,0,-1,972,1597,2.07875,-5.27157
-245,-573,-10.2592,1.09827,0,0,0,0,0,0,0,-1,979,1597,-10.2592,-1.09823
-238,-573,-11.5463,4.44141,0,0,0,0,0,0,0,-1,986,1597,-11.5463,-4.44146
-231,-573,-9.23431,4.14539,0,0,0,0,0,0,0,-1,993,1597,-9.23431,-4.14534
-224,-573,-6.70044,7.40857,0,0,0,0,0,0,0,-1,1000,1597,-6.70045,-7.40851
-217,-573,-4.25824,8.59119,0,0,0,0,0,0,0,-1,1007,1597,-4.25824,-8.59122
-210,-573,-2.39661,9.73914,0,0,0,0,0,0,0,-1,1014,1597,-2.39658,-9.73915
-203,-573,-0.557373,10.9005,0,0,0,0,0,0,0,-1,1021,1597,-0.557387,-10.9006
-196,-573,-1.65344,9.02246,0,0,0,0,0,0,0,-1,1028,1597,-1.65349,-9.02241
-189,-573,-6.12915,6.66882,0,0,0,0,0,0,0,-1,1035,1597,-6.12913,-6.66884
-182,-573,0,0,0,0,0,0,0,0,0,-1,1042,1597,0,0
-175,-573,0,0,0,0,0,0,0,0,0,-1,1049,1597,0,0
-168,-573,0,0,0,0,0,0,0,0,0,-1,1056,1597,0,0
-161,-573,0,0,0,0,0,0,0,0,0,-1,1063,1597,0,0
-154,-573,0,0,0,0,0,0,0,0,0,-1,1070,1597,0,0
-147,-573,0,0,0,0,0,0,0,0,0,-1,1077,1597,0,0
-140,-573,0,0,0,0,0,0,0,0,0,-1,1084,1597,0,0
-133,-573,0,0,0,0,0,0,0,0,0,-1,1091,1597,0,0
-126,-573,0,0,0,0,0,0,0,0,0,-1,1098,1597,0,0
-119,-573,0,0,0,0,0,0,0,0,0,-1,1105,1597,0,0
-112,-573,0,0,0,0,0,0,0,0,0,-1,1112,1597,0,0
-105,-573,0,0,0,0,0,0,0,0,0,-1,1119,1597,0,0
-98,-573,0,0,0,0,0,0,0,0,0,-1,1126,1597,0,0
-91,-573,0,0,0,0,0,0,0,0,0,-1,1133,1597,0,0
-84,-573,0,0,0,0,0,0,0,0,0,-1,1140,1597,0,0
-77,-573,0,0,0,0,0,0,0,0,0,-1,1147,1597,0,0
-70,-573,0,0,0,0,0,0,0,0,0,-1,1154,1597,0,0
-63,-573,0,0,0,0,0,0,0,0,0,-1,1161,1597,0,0
-56,-573,0,0,0,0,0,0,0,0,0,-1,1168,1597,0,0
-49,-573,0,0,0,0,0,0,0,0,0,-1,1175,1597,0,0
-42,-573,0,0,0,0,0,0,0,0,0,-1,1182,1597,0,0
-35,-573,0,0,0,0,0,0,0,0,0,-1,1189,1597,0,0
-28,-573,0,0,0,0,0,0,0,0,0,-1,1196,1597,0,0
-21,-573,0,0,0,0,0,0,0,0,0,-1,1203,1597,0,0
-14,-573,0,0,0,0,0,0,0,0,0,-1,1210,1597,0,0
-7,-573,0,0,0,0,0,0,0,0,0,-1,1217,1597,0,0
0,-573,0,0,0,0,0,0,0,0,0,-1,1224,1597,0,0
7,-573,0,0,0,0,0,0,0,0,0,-1,1231,1597,0,0
14,-573,0,0,0,0,0,0,0,0,0,-1,1238,1597,0,0
21,-573,0,0,0,0,0,0,0,0,0,-1,1245,1597,0,0
28,-573,0,0,0,0,0,0,0,0,0,-1,1252,1597,0,0
35,-573,0,0,0,0,0,0,0,0,0,-1,1259,1597,0,0
42,-573,0,0,0,0,0,0,0,0,0,-1,1266,1597,0,0
49,-573,0,0,0,0,0,0,0,0,0,-1,1273,1597,0,0
56,-573,0,0,0,0,0,0,0,0,0,-1,1280,1597,0,0
63,-573,0,0,0,0,0,0,0,0,0,-1,1287,1597,0,0
70,-573,0,0,0,0,0,0,0,0,0,-1,1294,1597,0,0
77,-573,0,0,0,0,0,0,0,0,0,-1,1301,1597,0,0
84,-573,0,0,0,0,0,0,0,0,0,-1,1308,1597,0,0
91,-573,0,0,0,0,0,0,0,0,0,-1,1315,1597,0,0
98,-573,0,0,0,0,0,0,0,0,0,-1,1322,1597,0,0
105,-573,0,0,0,0,0,0,0,0,0,-1,1329,1597,0,0
112,-573,0,0,0,0,0,0,0,0,0,-1,1336,1597,0,0
119,-573,0,0,0,0,0,0,0,0,0,-1,1343,1597,0,0
126,-573,0,0,0,0,0,0,0,0,0,-1,1350,1597,0,0
133,-573,0,0,0,0,0,0,0,0,0,-1,1357,1597,0,0
140,-573,0,0,0,0,0,0,0,0,0,-1,1364,1597,0,0
147,-573,0,0,0,0,0,0,0,0,0,-1,1371,1597,0,0
154,-573,0,0,0,0,0,0,0,0,0,-1,1378,1597,0,0
161,-573,0,0,0,0,0,0,0,0,0,-1,1385,1597,0,0
168,-573,0,0,0,0,0,0,0,0,0,-1,1392,1597,0,0
175,-573,0,0,0,0,0,0,0,0,0,-1,1399,1597,0,0
182,-573,0,0,0,0,0,0,0,0,0,-1,1406,1597,0,0
189,-573,0,0,0,0,0,0,0,0,0,-1,1413,1597,0,0
196,-573,0,0,0,0,0,0,0,0,0,-1,1420,1597,0,0
203,-573,0,0,0,0,0,0,0,0,0,-1,1427,1597,0,0
210,-573,0,0,0,0,0,0,0,0,0,-1,1434,1597,0,0
217,-573,0,0,0,0,0,0,0,0,0,-1,1441,1597,0,0
224,-573,0,0,0,0,0,0,0,0,0,-1,1448,1597,0,0
231,-573,0,0,0,0,0,0,0,0,0,-1,1455,1597,0,0
238,-573,0,0,0,0,0,0,0,0,0,-1,1462,1597,0,0
245,-573,0,0,0,0,0,0,0,0,0,-1,1469,1597,0,0
252,-573,0,0,0,0,0,0,0,0,0,-1,1476,1597,0,0
259,-573,0,0,0,0,0,0,0,0,0,-1,1483,1597,0,0
266,-573,0,0,0,0,0,0,0,0,0,-1,1490,1597,0,0
273,-573,0,0,0,0,0,0,0,0,0,-1,1497,1597,0,0
280,-573,0,0,0,0,0,0,0,0,0,-1,1504,1597,0,0
287,-573,0,0,0,0,0,0,0,0,0,-1,1511,1597,0,0
294,-573,0,0,0,0,0,0,0,0,0,-1,1518,1597,0,0
301,-573,0,0,0,0,0,0,0,0,0,-1,1525,1597,0,0
308,-573,5.93042,9.71143,0,0,0,0,0,0,0,-1,1532,1597,5.93046,-9.71144
315,-573,4.34204,11.719,0,0,0,0,0,0,0,-1,1539,1597,4.34205,-11.719
322,-573,10.3269,7.77563,0,0,0,0,0,0,0,-1,1546,1597,10.327,-7.77565
329,-573,4.99573,3.80273,0,0,0,0,0,0,0,-1,1553,1597,4.9957,-3.80273
336,-573,4.85693,2.53455,0,0,0,0,0,0,0,-1,1560,1597,4.8569,-2.53459
343,-573,5.5946,2.15894,0,0,0,0,0,0,0,-1,1567,1597,5.59456,-2.1589
350,-573,2.53748,1.56433,0,0,0,0,0,0,0,-1,1574,1597,2.53753,-1.5643
357,-573,7.40247,4.03613,0,0,0,0,0,0,0,-1,1581,1597,7.40244,-4.03614
364,-573,7.14551,3.02087,0,0,0,0,0,0,0,-1,1588,1597,7.14556,-3.02084
371,-573,6.88867,2.00549,0,0,0,0,0,0,0,-1,1595,1597,6.88868,-2.00553
378,-573,8.62012,6.09106,0,0,0,0,0,0,0,-1,1602,1597,8.62012,-6.09103
385,-573,6.54346,-0.951904,0,0,0,0,0,0,0,-1,1609,1597,6.54349,0.951901
392,-573,17.5164,38.3645,0,0,0,0,0,0,0,-1,1616,1597,17.5164,-38.3645
399,-573,16.964,39.9358,0,0,0,0,0,0,0,-1,1623,1597,16.964,-39.9358
406,-573,19.4583,38.3304,0,0,0,0,0,0,0,-1,1630,1597,19.4582,-38.3304
413,-573,18.2855,33.5858,0,0,0,0,0,0,0,-1,1637,1597,18.2855,-33.5858
420,-573,18.8063,37.0011,0,0,0,0,0,0,0,-1,1644,1597,18.8063,-37.0011
427,-573,19.0479,37.3259,0,0,0,0,0,0,0,-1,1651,1597,19.0478,-37.326
434,-573,19.1031,37.8655,0,0,0,0,0,0,0,-1,1658,1597,19.1032,-37.8654
441,-573,18.6631,36.7651,0,0,0,0,0,0,0,-1,1665,1597,18.6631,-36.7651
448,-573,18.761,35.8661,0.00837961,0.0201662,-0.0115433,0.0272336,0.00131227,-1.02142,0.0177345,0.043362,1672,1597,18.761,-35.866
455,-573,18.7433,35.1312,0.00645561,0.0168409,-0.00932466,0.0223212,0.000975247,-1.03945,0.0145666,0.0336352,1679,1597,18.7433,-35.1312
462,-573,18.9087,34.3429,0.00529025,0.0135572,-0.00753808,0.0180207,0.000826727,-1.03618,0.0117479,0.0230439,1686,1597,18.9087,-34.3429
469,-573,18.8846,33.7546,0.00459935,0.0107277,-0.00602015,0.0144186,0.000908427,-1.0208,0.00932436,0.0157694,1693,1597,18.8847,-33.7546
476,-573,18.8531,33.1902,0.00396268,0.00830455,-0.00476665,0.0113713,0.000895878,-0.999084,0.00730062,0.0142923,1700,1597,18.8531,-33.1901
483,-573,18.8638,32.629,0.00321719,0.00608143,-0.00366986,0.00858871,0.000709917,-0.97143,0.00550445,0.0126196,1707,1597,18.8638,-32.629
490,-573,18.8298,32.0383,0.00258864,0.00389639,-0.0027183,0.00603835,0.000446674,-0.903429,0.00388524,0.0131779,1714,1597,18.8298,-32.0383
497,-573,18.8314,31.4165,0.00181171,0.00235922,-0.00192662,0.00403143,0.000139498,-0.855972,0.00264235,0.0201604,1721,1597,18.8314,-31.4165
504,-573,18.7883,30.818,0.0008368,0.00104124,-0.00109576,0.00203953,-0.000161496,-0.831906,0.00141659,0.0170356,1728,1597,18.7883,-30.818
511,-573,18.7443,30.2115,-0.000106598,-3.73237e-05,-0.000388559,0.000318139,-0.000462061,-0.829852,0.000452996,0.01776,1735,1597,18.7442,-30.2116
518,-573,18.7054,29.6516,-0.00113897,-0.000951438,0.00030879,-0.00072249,-0.00136791,0.932798,0.000790183,0.0144599,1742,1597,18.7055,-29.6517
525,-573,18.7032,29.0608,-0.00216016,-0.00171997,0.00105017,-0.000867078,-0.00301305,0.888692,0.00179106,0.0172257,1749,1597,18.7032,-29.0608
532,-573,18.6965,28.4109,-0.00317151,-0.00248308,0.00189818,-0.000898159,-0.00475643,0.875094,0.00291801,0.0191524,1756,1597,18.6965,-28.4109
539,-573,18.6013,27.8181,-0.00438484,-0.00330714,0.00296153,-0.00083584,-0.00685614,0.875388,0.00431919,0.0337347,1763,1597,18.6013,-27.8182
546,-573,18.7091,27.2429,-0.00565018,-0.00406734,0.00423943,-0.000546086,-0.00917143,0.877677,0.00594063,0.0479184,1770,1597,18.7091,-27.243
553,-573,18.1827,26.7151,-0.00679114,-0.00457534,0.00555092,-2.28421e-05,-0.0113436,0.883898,0.00755482,0.0490476,1777,1597,18.1827,-26.7151
560,-573,17.7032,26.1731,0,0,0,0,0,0,0,-1,1784,1597,17.7032,-26.1731
567,-573,17.2816,25.6726,0,0,0,0,0,0,0,-1,1791,1597,17.2816,-25.6727
574,-573,0.83374,5.7041,0,0,0,0,0,0,0,-1,1798,1597,0.833718,-5.70405
581,-573,-0.224854,7.41602,0,0,0,0,0,0,0,-1,1805,1597,-0.224904,-7.41596
588,-573,-0.134033,7.67065,0,0,0,0,0,0,0,-1,1812,1597,-0.134037,-7.67063
595,-573,-0.0825195,8.35083,0,0,0,0,0,0,0,-1,1819,1597,-0.0824684,-8.35088
602,-573,0,0,0,0,0,0,0,0,0,-1,1826,1597,0,0
609,-573,0,0,0,0,0,0,0,0,0,-1,1833,1597,0,0
616,-573,0,0,0,0,0,0,0,0,0,-1,1840,1597,0,0
623,-573,0,0,0,0,0,0,0,0,0,-1,1847,1597,0,0
630,-573,0,0,0,0,0,0,0,0,0,-1,1854,1597,0,0
637,-573,0,0,0,0,0,0,0,0,0,-1,1861,1597,0,0
644,-573,0,0,0,0,0,0,0,0,0,-1,1868,1597,0,0
651,-573,0,0,0,0,0,0,0,0,0,-1,1875,1597,0,0
658,-573,0,0,0,0,0,0,0,0,0,-1,1882,1597,0,0
665,-573,0,0,0,0,0,0,0,0,0,-1,1889,1597,0,0
672,-573,0,0,0,0,0,0,0,0,0,-1,1896,1597,0,0
679,-573,0,0,0,0,0,0,0,0,0,-1,1903,1597,0,0
686,-573,0,0,0,0,0,0,0,0,0,-1,1910,1597,0,0
693,-573,0,0,0,0,0,0,0,0,0,-1,1917,1597,0,0
700,-573,0,0,0,0,0,0,0,0,0,-1,1924,1597,0,0
707,-573,0,0,0,0,0,0,0,0,0,-1,1931,1597,0,0
714,-573,0,0,0,0,0,0,0,0,0,-1,1938,1597,0,0
721,-573,0,0,0,0,0,0,0,0,0,-1,1945,1597,0,0
728,-573,0,0,0,0,0,0,0,0,0,-1,1952,1597,0,0
735,-573,0,0,0,0,0,0,0,0,0,-1,1959,1597,0,0
742,-573,0,0,0,0,0,0,0,0,0,-1,1966,1597,0,0
749,-573,0,0,0,0,0,0,0,0,0,-1,1973,1597,0,0
756,-573,0,0,0,0,0,0,0,0,0,-1,1980,1597,0,0
763,-573,0,0,0,0,0,0,0,0,0,-1,1987,1597,0,0
770,-573,0,0,0,0,0,0,0,0,0,-1,1994,1597,0,0
777,-573,0,0,0,0,0,0,0,0,0,-1,2001,1597,0,0
784,-573,0,0,0,0,0,0,0,0,0,-1,2008,1597,0,0
791,-573,0,0,0,0,0,0,0,0,0,-1,2015,1597,0,0
798,-573,0,0,0,0,0,0,0,0,0,-1,2022,1597,0,0
805,-573,0,0,0,0,0,0,0,0,0,-1,2029,1597,0,0
812,-573,0,0,0,0,0,0,0,0,0,-1,2036,1597,0,0
-700,-580,0,0,0,0,0,0,0,0,0,-1,524,1604,0,0
-693,-580,0,0,0,0,0,0,0,0,0,-1,531,1604,0,0
-686,-580,0,0,0,0,0,0,0,0,0,-1,538,1604,0,0
-679,-580,0,0,0,0,0,0,0,0,0,-1,545,1604,0,0
-672,-580,0,0,0,0,0,0,0,0,0,-1,552,1604,0,0
-665,-580,0,0,0,0,0,0,0,0,0,-1,559,1604,0,0
-658,-580,0,0,0,0,0,0,0,0,0,-1,566,1604,0,0
-651,-580,0,0,0,0,0,0,0,0,0,-1,573,1604,0,0
-644,-580,0,0,0,0,0,0,0,0,0,-1,580,1604,0,0
-637,-580,0,0,0,0,0,0,0,0,0,-1,587,1604,0,0
-630,-580,0,0,0,0,0,0,0,0,0,-1,594,1604,0,0
-623,-580,0,0,0,0,0,0,0,0,0,-1,601,1604,0,0
-616,-580,0,0,0,0,0,0,0,0,0,-1,608,1604,0,0
-609,-580,0,0,0,0,0,0,0,0,0,-1,615,1604,0,0
-602,-580,0,0,0,0,0,0,0,0,0,-1,622,1604,0,0
-595,-580,0,0,0,0,0,0,0,0,0,-1,629,1604,0,0
-588,-580,0,0,0,0,0,0,0,0,0,-1,636,1604,0,0
-581,-580,0,0,0,0,0,0,0,0,0,-1,643,1604,0,0
-574,-580,0,0,0,0,0,0,0,0,0,-1,650,1604,0,0
-567,-580,0,0,0,0,0,0,0,0,0,-1,657,1604,0,0
-560,-580,0,0,0,0,0,0,0,0,0,-1,664,1604,0,0
-553,-580,0,0,0,0,0,0,0,0,0,-1,671,1604,0,0
-546,-580,0,0,0,0,0,0,0,0,0,-1,678,1604,0,0
-539,-580,0,0,0,0,0,0,0,0,0,-1,685,1604,0,0
-532,-580,0,0,0,0,0,0,0,0,0,-1,692,1604,0,0
-525,-580,0,0,0,0,0,0,0,0,0,-1,699,1604,0,0
-518,-580,0,0,0,0,0,0,0,0,0,-1,706,1604,0,0
-511,-580,0,0,0,0,0,0,0,0,0,-1,713,1604,0,0
-504,-580,0,0,0,0,0,0,0,0,0,-1,720,1604,0,0
-497,-580,0,0,0,0,0,0,0,0,0,-1,727,1604,0,0
-490,-580,0,0,0,0,0,0,0,0,0,-1,734,1604,0,0
-483,-580,0,0,0,0,0,0,0,0,0,-1,741,1604,0,0
-476,-580,0,0,0,0,0,0,0,0,0,-1,748,1604,0,0
-469,-580,-1.69189,-0.38916,0,0,0,0,0,0,0,-1,755,1604,-1.69192,0.389188
-462,-580,-0.859863,0.675293,0,0,0,0,0,0,0,-1,762,1604,-0.859834,-0.675245
-455,-580,-0.730164,0.651978,0,0,0,0,0,0,0,-1,769,1604,-0.730153,-0.651957
-448,-580,-3.31891,2.07544,0,0,0,0,0,0,0,-1,776,1604,-3.3189,-2.07539
-441,-580,-1.63843,3.9469,0,0,0,0,0,0,0,-1,783,1604,-1.63842,-3.94695
-434,-580,0.23291,5.97876,0,0,0,0,0,0,0,-1,790,1604,0.232901,-5.97878
-427,-580,1.62756,8.05493,0,0,0,0,0,0,0,-1,797,1604,1.62758,-8.05488
-420,-580,0.986572,11.2383,0,0,0,0,0,0,0,-1,804,1604,0.986544,-11.2382
-413,-580,0.922913,21.5701,0,0,0,0,0,0,0,-1,811,1604,0.922905,-21.5701
-406,-580,0.0570068,27.0516,0,0,0,0,0,0,0,-1,818,1604,0.0569896,-27.0516
-399,-580,0.0600586,27.8467,-0.00361774,-0.00156629,0.0010623,-0.00111533,-0.0040687,1.16934,0.00242765,0.0389324,825,1604,0.0600813,-27.8467
-392,-580,0.0220947,28.4904,-0.00300266,-0.00141002,0.00112099,-0.000831295,-0.00358139,1.09422,0.00216438,0.0187638,832,1604,0.022113,-28.4904
-385,-580,0.0184937,29.1154,-0.00218749,-0.000998029,0.00117896,-0.000272287,-0.00291323,1.019,0.00185805,0.0120143,839,1604,0.0184892,-29.1153
-378,-580,-0.022583,29.7457,-0.00147826,-0.000695159,0.00110565,8.62255e-05,-0.00225964,0.955575,0.00153598,0.0145457,846,1604,-0.0225995,-29.7457
-371,-580,-0.0579834,30.3993,-0.000744669,-0.000370969,0.00109999,0.000557928,-0.00167357,0.869528,0.00134095,0.0137562,853,1604,-0.0579729,-30.3993
-364,-580,-0.067688,31.0247,-9.27704e-06,-9.1908e-05,0.00106412,0.00101433,-0.00111551,0.765995,0.00123013,0.0196952,860,1604,-0.0676933,-31.0247
-357,-580,-0.097168,31.6,0.000743486,0.000379982,0.00110627,0.00168283,-0.000559364,0.703979,0.00134761,0.0139124,867,1604,-0.0971766,-31.5999
-350,-580,-0.121582,32.2429,0.00163176,0.000891983,0.0011988,0.00251644,7.29901e-06,0.635759,0.0016752,0.0108562,874,1604,-0.121604,-32.2429
-343,-580,-0.120483,32.8451,0.00251391,0.00164526,0.00144143,0.00358503,0.000574137,0.639067,0.00222349,0.0112385,881,1604,-0.120505,-32.8451
-336,-580,-0.110291,33.4141,0.0035418,0.00273623,0.00195394,0.00513404,0.00114399,0.683752,0.00311225,0.0195569,888,1604,-0.110269,-33.4141
-329,-580,-0.147461,34.066,0.004894,0.00483243,0.0030547,0.00791806,0.00180836,0.780359,0.00479107,0.0177598,895,1604,-0.147435,-34.066
-322,-580,-0.196411,34.6976,0.00623936,0.00697577,0.00433941,0.0109626,0.00225256,0.827723,0.00668524,0.0194293,902,1604,-0.196436,-34.6977
-315,-580,-0.187866,35.2606,0.00768046,0.0100934,0.00602724,0.0150337,0.00274012,0.884177,0.00924547,0.0215811,909,1604,-0.18786,-35.2606
-308,-580,-0.138611,36.0009,0.00921749,0.0142552,0.00807265,0.0201928,0.00327983,0.936622,0.0125127,0.0321272,916,1604,-0.138632,-36.0009
-301,-580,-0.0357666,36.4697,0.0112627,0.0185744,0.0106052,0.0261362,0.00370088,0.95138,0.0163309,0.0305417,923,1604,-0.0357739,-36.4698
-294,-580,-0.0848999,37.0414,0,0,0,0,0,0,0,-1,930,1604,-0.0849017,-37.0414
-287,-580,0.172058,38.3174,0,0,0,0,0,0,0,-1,937,1604,0.172053,-38.3174
-280,-580,0.439819,39.6427,0,0,0,0,0,0,0,-1,944,1604,0.439789,-39.6427
-273,-580,2.02692,40.757,0,0,0,0,0,0,0,-1,951,1604,2.0269,-40.7569
-266,-580,1.71777,25.6515,0,0,0,0,0,0,0,-1,958,1604,1.71775,-25.6515
-259,-580,1.31091,9.11536,0,0,0,0,0,0,0,-1,965,1604,1.31092,-9.11539
-252,-580,1.07629,7.74097,0,0,0,0,0,0,0,-1,972,1604,1.07627,-7.74101
-245,-580,3.80304,9.16028,0,0,0,0,0,0,0,-1,979,1604,3.80306,-9.16034
-238,-580,-10.3588,1.57556,0,0,0,0,0,0,0,-1,986,1604,-10.3588,-1.5755
-231,-580,-10.576,6.43787,0,0,0,0,0,0,0,-1,993,1604,-10.576,-6.43783
-224,-580,-8.27435,7.58972,0,0,0,0,0,0,0,-1,1000,1604,-8.27435,-7.5897
-217,-580,-5.85632,9.51221,0,0,0,0,0,0,0,-1,1007,1604,-5.85632,-9.5122
-210,-580,-3.6684,11.1569,0,0,0,0,0,0,0,-1,1014,1604,-3.66839,-11.1569
-203,-580,-1.92474,12.7845,0,0,0,0,0,0,0,-1,1021,1604,-1.92477,-12.7845
-196,-580,-2.28552,10.3289,0,0,0,0,0,0,0,-1,1028,1604,-2.28552,-10.3288
-189,-580,-4.58252,7.59058,0,0,0,0,0,0,0,-1,1035,1604,-4.58256,-7.59057
-182,-580,-5.45874,7.65942,0,0,0,0,0,0,0,-1,1042,1604,-5.45876,-7.65939
-175,-580,-6.38977,7.55005,0,0,0,0,0,0,0,-1,1049,1604,-6.38981,-7.5501
-168,-580,0,0,0,0,0,0,0,0,0,-1,1056,1604,0,0
-161,-580,0,0,0,0,0,0,0,0,0,-1,1063,1604,0,0
-154,-580,0,0,0,0,0,0,0,0,0,-1,1070,1604,0,0
-147,-580,0,0,0,0,0,0,0,0,0,-1,1077,1604,0,0
-140,-580,0,0,0,0,0,0,0,0,0,-1,1084,1604,0,0
-133,-580,0,0,0,0,0,0,0,0,0,-1,1091,1604,0,0
-126,-580,0,0,0,0,0,0,0,0,0,-1,1098,1604,0,0
-119,-580,0,0,0,0,0,0,0,0,0,-1,1105,1604,0,0
-112,-580,0,0,0,0,0,0,0,0,0,-1,1112,1604,0,0
-105,-580,0,0,0,0,0,0,0,0,0,-1,1119,1604,0,0
-98,-580,0,0,0,0,0,0,0,0,0,-1,1126,1604,0,0
-91,-580,0,0,0,0,0,0,0,0,0,-1,1133,1604,0,0
-84,-580,0,0,0,0,0,0,0,0,0,-1,1140,1604,0,0
-77,-580,0,0,0,0,0,0,0,0,0,-1,1147,1604,0,0
-70,-580,0,0,0,0,0,0,0,0,0,-1,1154,1604,0,0
-63,-580,0,0,0,0,0,0,0,0,0,-1,1161,1604,0,0
-56,-580,0,0,0,0,0,0,0,0,0,-1,1168,1604,0,0
-49,-580,0,0,0,0,0,0,0,0,0,-1,1175,1604,0,0
-42,-580,0,0,0,0,0,0,0,0,0,-1,1182,1604,0,0
-35,-580,0,0,0,0,0,0,0,0,0,-1,1189,1604,0,0
-28,-580,0,0,0,0,0,0,0,0,0,-1,1196,1604,0,0
-21,-580,0,0,0,0,0,0,0,0,0,-1,1203,1604,0,0
-14,-580,0,0,0,0,0,0,0,0,0,-1,1210,1604,0,0
-7,-580,0,0,0,0,0,0,0,0,0,-1,1217,1604,0,0
0,-580,0,0,0,0,0,0,0,0,0,-1,1224,1604,0,0
7,-580,0,0,0,0,0,0,0,0,0,-1,1231,1604,0,0
14,-580,0,0,0,0,0,0,0,0,0,-1,1238,1604,0,0
21,-580,0,0,0,0,0,0,0,0,0,-1,1245,1604,0,0
28,-580,0,0,0,0,0,0,0,0,0,-1,1252,1604,0,0
35,-580,0,0,0,0,0,0,0,0,0,-1,1259,1604,0,0
42,-580,0,0,0,0,0,0,0,0,0,-1,1266,1604,0,0
49,-580,0,0,0,0,0,0,0,0,0,-1,1273,1604,0,0
56,-580,0,0,0,0,0,0,0,0,0,-1,1280,1604,0,0
63,-580,0,0,0,0,0,0,0,0,0,-1,1287,1604,0,0
70,-580,0,0,0,0,0,0,0,0,0,-1,1294,1604,0,0
77,-580,0,0,0,0,0,0,0,0,0,-1,1301,1604,0,0
84,-580,0,0,0,0,0,0,0,0,0,-1,1308,1604,0,0
91,-580,0,0,0,0,0,0,0,0,0,-1,1315,1604,0,0
98,-580,0,0,0,0,0,0,0,0,0,-1,1322,1604,0,0
105,-580,0,0,0,0,0,0,0,0,0,-1,1329,1604,0,0
112,-580,0,0,0,0,0,0,0,0,0,-1,1336,1604,0,0
119,-580,0,0,0,0,0,0,0,0,0,-1,1343,1604,0,0
126,-580,0,0,0,0,0,0,0,0,0,-1,1350,1604,0,0
133,-580,0,0,0,0,0,0,0,0,0,-1,1357,1604,0,0
140,-580,0,0,0,0,0,0,0,0,0,-1,1364,1604,0,0
147,-580,0,0,0,0,0,0,0,0,0,-1,1371,1604,0,0
154,-580,0,0,0,0,0,0,0,0,0,-1,1378,1604,0,0
161,-580,0,0,0,0,0,0,0,0,0,-1,1385,1604,0,0
168,-580,0,0,0,0,0,0,0,0,0,-1,1392,1604,0,0
175,-580,0,0,0,0,0,0,0,0,0,-1,1399,1604,0,0
182,-580,0,0,0,0,0,0,0,0,0,-1,1406,1604,0,0
189,-580,0,0,0,0,0,0,0,0,0,-1,1413,1604,0,0
196,-580,0,0,0,0,0,0,0,0,0,-1,1420,1604,0,0
203,-580,0,0,0,0,0,0,0,0,0,-1,1427,1604,0,0
210,-580,0,0,0,0,0,0,0,0,0,-1,1434,1604,0,0
217,-580,0,0,0,0,0,0,0,0,0,-1,1441,1604,0,0
224,-580,0,0,0,0,0,0,0,0,0,-1,1448,1604,0,0
231,-580,0,0,0,0,0,0,0,0,0,-1,1455,1604,0,0
238,-580,0,0,0,0,0,0,0,0,0,-1,1462,1604,0,0
245,-580,0,0,0,0,0,0,0,0,0,-1,1469,1604,0,0
252,-580,0,0,0,0,0,0,0,0,0,-1,1476,1604,0,0
259,-580,0,0,0,0,0,0,0,0,0,-1,1483,1604,0,0
266,-580,0,0,0,0,0,0,0,0,0,-1,1490,1604,0,0
273,-580,0,0,0,0,0,0,0,0,0,-1,1497,1604,0,0
280,-580,0,0,0,0,0,0,0,0,0,-1,1504,1604,0,0
287,-580,0,0,0,0,0,0,0,0,0,-1,1511,1604,0,0
294,-580,4.0437,0.177368,0,0,0,0,0,0,0,-1,1518,1604,4.04369,-0.177371
301,-580,7.55164,8.05798,0,0,0,0,0,0,0,-1,1525,1604,7.55158,-8.05802
308,-580,5.9126,9.99341,0,0,0,0,0,0,0,-1,1532,1604,5.91255,-9.99337
315,-580,4.27356,11.9287,0,0,0,0,0,0,0,-1,1539,1604,4.27352,-11.9287
322,-580,10.2366,7.50281,0,0,0,0,0,0,0,-1,1546,1604,10.2366,-7.50282
329,-580,10.5962,8.69641,0,0,0,0,0,0,0,-1,1553,1604,10.5962,-8.69642
336,-580,3.66431,1.58862,0,0,0,0,0,0,0,-1,1560,1604,3.6643,-1.58864
343,-580,3.32227,1.39636,0,0,0,0,0,0,0,-1,1567,1604,3.32222,-1.39633
350,-580,8.71277,4.0564,0,0,0,0,0,0,0,-1,1574,1604,8.71271,-4.05638
357,-580,8.52332,3.08154,0,0,0,0,0,0,0,-1,1581,1604,8.52332,-3.08157
364,-580,8.25818,2.07605,0,0,0,0,0,0,0,-1,1588,1604,8.25812,-2.07608
371,-580,7.42114,7.14282,0,0,0,0,0,0,0,-1,1595,1604,7.42119,-7.14281
378,-580,7.9718,6.6731,0,0,0,0,0,0,0,-1,1602,1604,7.9718,-6.67307
385,-580,8.52246,6.20337,0,0,0,0,0,0,0,-1,1609,1604,8.52241,-6.20334
392,-580,16.5306,39.8687,0,0,0,0,0,0,0,-1,1616,1604,16.5307,-39.8686
399,-580,16.8063,39.8458,0,0,0,0,0,0,0,-1,1623,1604,16.8063,-39.8458
406,-580,17.0819,39.823,0,0,0,0,0,0,0,-1,1630,1604,17.0819,-39.823
413,-580,17.885,38.6931,0,0,0,0,0,0,0,-1,1637,1604,17.885,-38.6931
420,-580,17.8353,37.8678,0,0,0,0,0,0,0,-1,1644,1604,17.8354,-37.8678
427,-580,17.9562,37.4884,0,0,0,0,0,0,0,-1,1651,1604,17.9562,-37.4885
434,-580,18.4496,37.0576,0.0101185,0.0201612,-0.0126256,0.0287273,0.00155235,-0.974665,0.0186556,0.0425744,1658,1604,18.4495,-37.0576
441,-580,18.1945,36.1821,0.00818089,0.017806,-0.0104702,0.0245167,0.0014702,-1.00082,0.0158771,0.0249339,1665,1604,18.1945,-36.1821
448,-580,18.2626,35.4806,0.00661681,0.0155034,-0.00880671,0.0209242,0.00119599,-1.01903,0.0135684,0.0176247,1672,1604,18.2626,-35.4806
455,-580,18.3153,34.9247,0.00498548,0.0128999,-0.00710048,0.0170714,0.000813959,-1.03962,0.0111196,0.0208854,1679,1604,18.3153,-34.9247
462,-580,18.3441,34.3525,0.00399267,0.0102661,-0.00573455,0.0136657,0.000593021,-1.03566,0.0089194,0.0236821,1686,1604,18.3441,-34.3526
469,-580,18.3209,33.7688,0.00341761,0.0079948,-0.00458235,0.0108283,0.000584137,-1.017,0.00703223,0.0208106,1693,1604,18.3209,-33.7687
476,-580,18.2634,33.1899,0.00287221,0.00604551,-0.00359308,0.00838667,0.000531058,-0.993315,0.00542277,0.0156909,1700,1604,18.2634,-33.19
483,-580,18.2529,32.6295,0.00221992,0.00418535,-0.00274536,0.00611858,0.000286697,-0.95727,0.00398692,0.0137878,1707,1604,18.2529,-32.6295
490,-580,18.2201,32.0773,0.00166423,0.00235722,-0.00197856,0.00401939,2.05776e-06,-0.872082,0.00267891,0.0172382,1714,1604,18.2201,-32.0773
497,-580,18.196,31.4713,0.000950282,0.00102539,-0.0013549,0.00234326,-0.000367589,-0.799253,0.00169802,0.0138699,1721,1604,18.196,-31.4713
504,-580,18.1552,30.8392,-2.83347e-05,-8.48266e-05,-0.000593017,0.000537109,-0.00065027,-0.761601,0.00068657,0.0171681,1728,1604,18.1551,-30.8393
511,-580,18.1211,30.2614,-0.000928847,-0.00105525,3.47195e-05,-0.000919939,-0.00106416,0.251167,0.000666588,0.0176609,1735,1604,18.121,-30.2614
518,-580,18.1097,29.6865,-0.00193382,-0.00183242,0.00063559,-0.00124551,-0.00252073,0.8252,0.00145538,0.0169854,1742,1604,18.1097,-29.6865
525,-580,18.1113,29.0826,-0.00303836,-0.00258746,0.00136662,-0.00142782,-0.00419801,0.867147,0.00246468,0.0229683,1749,1604,18.1113,-29.0826
532,-580,18.017,28.5011,-0.0042443,-0.00334451,0.00228627,-0.00146429,-0.00612452,0.882547,0.00369298,0.0415171,1756,1604,18.017,-28.5011
539,-580,18.1833,27.7429,0,0,0,0,0,0,0,-1,1763,1604,18.1834,-27.743
546,-580,18.3297,27.2272,0,0,0,0,0,0,0,-1,1770,1604,18.3297,-27.2272
553,-580,17.1749,26.6359,0,0,0,0,0,0,0,-1,1777,1604,17.1749,-26.6358
560,-580,16.6879,26.0635,0,0,0,0,0,0,0,-1,1784,1604,16.6879,-26.0635
567,-580,3.87708,4.0647,0,0,0,0,0,0,0,-1,1791,1604,3.87711,-4.06471
574,-580,2.31653,5.62952,0,0,0,0,0,0,0,-1,1798,1604,2.31654,-5.62947
581,-580,1.60876,6.67664,0,0,0,0,0,0,0,-1,1805,1604,1.60873,-6.67667
588,-580,1.38684,7.14441,0,0,0,0,0,0,0,-1,1812,1604,1.38689,-7.14443
595,-580,0,0,0,0,0,0,0,0,0,-1,1819,1604,0,0
602,-580,0,0,0,0,0,0,0,0,0,-1,1826,1604,0,0
609,-580,0,0,0,0,0,0,0,0,0,-1,1833,1604,0,0
616,-580,0,0,0,0,0,0,0,0,0,-1,1840,1604,0,0
623,-580,0,0,0,0,0,0,0,0,0,-1,1847,1604,0,0
630,-580,0,0,0,0,0,0,0,0,0,-1,1854,1604,0,0
637,-580,0,0,0,0,0,0,0,0,0,-1,1861,1604,0,0
644,-580,0,0,0,0,0,0,0,0,0,-1,1868,1604,0,0
651,-580,0,0,0,0,0,0,0,0,0,-1,1875,1604,0,0
658,-580,0,0,0,0,0,0,0,0,0,-1,1882,1604,0,0
665,-580,0,0,0,0,0,0,0,0,0,-1,1889,1604,0,0
672,-580,0,0,0,0,0,0,0,0,0,-1,1896,1604,0,0
679,-580,0,0,0,0,0,0,0,0,0,-1,1903,1604,0,0
686,-580,0,0,0,0,0,0,0,0,0,-1,1910,1604,0,0
693,-580,0,0,0,0,0,0,0,0,0,-1,1917,1604,0,0
700,-580,0,0,0,0,0,0,0,0,0,-1,1924,1604,0,0
707,-580,0,0,0,0,0,0,0,0,0,-1,1931,1604,0,0
714,-580,0,0,0,0,0,0,0,0,0,-1,1938,1604,0,0
721,-580,0,0,0,0,0,0,0,0,0,-1,1945,1604,0,0
728,-580,0,0,0,0,0,0,0,0,0,-1,1952,1604,0,0
735,-580,0,0,0,0,0,0,0,0,0,-1,1959,1604,0,0
742,-580,0,0,0,0,0,0,0,0,0,-1,1966,1604,0,0
749,-580,0,0,0,0,0,0,0,0,0,-1,1973,1604,0,0
756,-580,0,0,0,0,0,0,0,0,0,-1,1980,1604,0,0
763,-580,0,0,0,0,0,0,0,0,0,-1,1987,1604,0,0
770,-580,0,0,0,0,0,0,0,0,0,-1,1994,1604,0,0
777,-580,0,0,0,0,0,0,0,0,0,-1,2001,1604,0,0
784,-580,0,0,0,0,0,0,0,0,0,-1,2008,1604,0,0
791,-580,0,0,0,0,0,0,0,0,0,-1,2015,1604,0,0
798,-580,0,0,0,0,0,0,0,0,0,-1,2022,1604,0,0
805,-580,0,0,0,0,0,0,0,0,0,-1,2029,1604,0,0
812,-580,0,0,0,0,0,0,0,0,0,-1,2036,1604,0,0
-700,-587,0,0,0,0,0,0,0,0,0,-1,524,1611,0,0
-693,-587,0,0,0,0,0,0,0,0,0,-1,531,1611,0,0
-686,-587,0,0,0,0,0,0,0,0,0,-1,538,1611,0,0
-679,-587,0,0,0,0,0,0,0,0,0,-1,545,1611,0,0
-672,-587,0,0,0,0,0,0,0,0,0,-1,552,1611,0,0
-665,-587,0,0,0,0,0,0,0,0,0,-1,559,1611,0,0
-658,-587,0,0,0,0,0,0,0,0,0,-1,566,1611,0,0
-651,-587,0,0,0,0,0,0,0,0,0,-1,573,1611,0,0
-644,-587,0,0,0,0,0,0,0,0,0,-1,580,1611,0,0
-637,-587,0,0,0,0,0,0,0,0,0,-1,587,1611,0,0
-630,-587,0,0,0,0,0,0,0,0,0,-1,594,1611,0,0
-623,-587,0,0,0,0,0,0,0,0,0,-1,601,1611,0,0
-616,-587,0,0,0,0,0,0,0,0,0,-1,608,1611,0,0
-609,-587,0,0,0,0,0,0,0,0,0,-1,615,1611,0,0
-602,-587,0,0,0,0,0,0,0,0,0,-1,622,1611,0,0
-595,-587,0,0,0,0,0,0,0,0,0,-1,629,1611,0,0
-588,-587,0,0,0,0,0,0,0,0,0,-1,636,1611,0,0
-581,-587,0,0,0,0,0,0,0,0,0,-1,643,1611,0,0
-574,-587,0,0,0,0,0,0,0,0,0,-1,650,1611,0,0
-567,-587,0,0,0,0,0,0,0,0,0,-1,657,1611,0,0
-560,-587,0,0,0,0,0,0,0,0,0,-1,664,1611,0,0
-553,-587,0,0,0,0,0,0,0,0,0,-1,671,1611,0,0
-546,-587,0,0,0,0,0,0,0,0,0,-1,678,1611,0,0
-539,-587,0,0,0,0,0,0,0,0,0,-1,685,1611,0,0
-532,-587,0,0,0,0,0,0,0,0,0,-1,692,1611,0,0
-525,-587,0,0,0,0,0,0,0,0,0,-1,699,1611,0,0
-518,-587,0,0,0,0,0,0,0,0,0,-1,706,1611,0,0
-511,-587,0,0,0,0,0,0,0,0,0,-1,713,1611,0,0
-504,-587,0,0,0,0,0,0,0,0,0,-1,720,1611,0,0
-497,-587,0,0,0,0,0,0,0,0,0,-1,727,1611,0,0
-490,-587,0,0,0,0,0,0,0,0,0,-1,734,1611,0,0
-483,-587,0,0,0,0,0,0,0,0,0,-1,741,1611,0,0
-476,-587,0,0,0,0,0,0,0,0,0,-1,748,1611,0,0
-469,-587,0,0,0,0,0,0,0,0,0,-1,755,1611,0,0
-462,-587,-0.714355,-0.418457,0,0,0,0,0,0,0,-1,762,1611,-0.714359,0.418483
-455,-587,-0.619812,-0.522461,0,0,0,0,0,0,0,-1,769,1611,-0.619802,0.522515
-448,-587,-0.461731,-0.686523,0,0,0,0,0,0,0,-1,776,1611,-0.461739,0.686559
-441,-587,-3.56555,2.72253,0,0,0,0,0,0,0,-1,783,1611,-3.56555,-2.72259
-434,-587,-1.77319,4.76318,0,0,0,0,0,0,0,-1,790,1611,-1.77318,-4.76323
-427,-587,0.0346069,6.92944,0,0,0,0,0,0,0,-1,797,1611,0.034587,-6.92941
-420,-587,-0.647156,10.1157,0,0,0,0,0,0,0,-1,804,1611,-0.647128,-10.1158
-413,-587,2.13971,10.3901,0,0,0,0,0,0,0,-1,811,1611,2.13971,-10.3902
-406,-587,2.2525,19.7814,0,0,0,0,0,0,0,-1,818,1611,2.25253,-19.7814
-399,-587,0.625977,27.8002,0,0,0,0,0,0,0,-1,825,1611,0.625973,-27.8001
-392,-587,0.549377,28.3937,0,0,0,0,0,0,0,-1,832,1611,0.549365,-28.3937
-385,-587,0.56073,29.0695,-0.00317259,-0.00137934,0.00154229,-0.000491988,-0.00405995,1.0487,0.00255845,0.0240281,839,1611,0.560739,-29.0695
-378,-587,0.554016,29.7688,-0.00229379,-0.00106961,0.00148435,-7.61077e-05,-0.0032873,0.980957,0.00216661,0.012777,846,1611,0.553997,-29.7688
-371,-587,0.524841,30.4464,-0.00145927,-0.000792615,0.00143931,0.000351464,-0.00260335,0.899187,0.0018638,0.0133749,853,1611,0.524838,-30.4464
-364,-587,0.525757,31.0448,-0.000669981,-0.000626162,0.00133074,0.000682845,-0.00197899,0.79363,0.00159639,0.0170442,860,1611,0.525745,-31.0448
-357,-587,0.491943,31.5934,0.000100911,-0.000246798,0.00130157,0.00124018,-0.00138607,0.719005,0.00151705,0.0163807,867,1611,0.49193,-31.5934
-350,-587,0.469299,32.2537,0.000942914,0.000186028,0.00130048,0.00191889,-0.000789952,0.643807,0.00160859,0.00951173,874,1611,0.469294,-32.2537
-343,-587,0.438354,32.8666,0.00173336,0.000833347,0.00141703,0.00277012,-0.000203412,0.631649,0.00191815,0.0125205,881,1611,0.438333,-32.8666
-336,-587,0.400452,33.4506,0.00259521,0.00175448,0.00174386,0.00396866,0.000381038,0.667127,0.00252835,0.013184,888,1611,0.40044,-33.4506
-329,-587,0.38269,34.0546,0.00372523,0.00345205,0.00253989,0.00613221,0.00104508,0.758535,0.00378814,0.014965,895,1611,0.382662,-34.0546
-322,-587,0.393372,34.6505,0.00478949,0.00524537,0.00347371,0.00849861,0.00153625,0.818161,0.00522942,0.0176218,902,1611,0.393356,-34.6506
-315,-587,0.365173,35.2286,0.00589415,0.00780041,0.00474365,0.0116857,0.00200883,0.884542,0.00721471,0.0142474,909,1611,0.365175,-35.2286
-308,-587,0.341248,35.8403,0.0070857,0.011183,0.00625679,0.015718,0.00255072,0.943612,0.00974041,0.0146456,916,1611,0.341235,-35.8404
-301,-587,0.406067,36.4554,0.00870488,0.0146395,0.00815978,0.0203548,0.00298965,0.959791,0.0126912,0.0159981,923,1611,0.406084,-36.4555
-294,-587,0.480042,37.0896,0.0106679,0.018773,0.0106664,0.0261308,0.00331012,0.966942,0.0164287,0.0264582,930,1611,0.480052,-37.0896
-287,-587,0.483765,37.8054,0.0128877,0.0243639,0.0137287,0.0335054,0.00374624,0.983346,0.0211988,0.0394956,937,1611,0.483761,-37.8054
-280,-587,0.737915,38.8629,0.0152238,0.0304607,0.0170363,0.0415044,0.00418009,0.995655,0.0263868,0.048109,944,1611,0.73794,-38.8629
-273,-587,0.976929,39.6801,0,0,0,0,0,0,0,-1,951,1611,0.976914,-39.68
-266,-587,0.810364,40.3416,0,0,0,0,0,0,0,-1,958,1611,0.810386,-40.3416
-259,-587,0.615845,41.068,0,0,0,0,0,0,0,-1,965,1611,0.615838,-41.0681
-252,-587,1.30188,10.3103,0,0,0,0,0,0,0,-1,972,1611,1.30188,-10.3104
-245,-587,1.52075,27.4791,0,0,0,0,0,0,0,-1,979,1611,1.52076,-27.4791
-238,-587,2.87799,9.53821,0,0,0,0,0,0,0,-1,986,1611,2.87797,-9.53823
-231,-587,2.49548,9.14465,0,0,0,0,0,0,0,-1,993,1611,2.49551,-9.14468
-224,-587,-9.72528,9.21069,0,0,0,0,0,0,0,-1,1000,1611,-9.72529,-9.21072
-217,-587,-7.07495,10.7847,0,0,0,0,0,0,0,-1,1007,1611,-7.07495,-10.7847
-210,-587,-4.72308,12.5889,0,0,0,0,0,0,0,-1,1014,1611,-4.72307,-12.5888
-203,-587,-3.2583,13.7289,0,0,0,0,0,0,0,-1,1021,1611,-3.25828,-13.7289
-196,-587,-1.953,14.8145,0,0,0,0,0,0,0,-1,1028,1611,-1.95302,-14.8144
-189,-587,-3.04138,8.66638,0,0,0,0,0,0,0,-1,1035,1611,-3.04136,-8.66635
-182,-587,-3.97095,9.7146,0,0,0,0,0,0,0,-1,1042,1611,-3.97093,-9.71461
-175,-587,-4.80969,8.37878,0,0,0,0,0,0,0,-1,1049,1611,-4.80964,-8.37883
-168,-587,-5.91394,8.72546,0,0,0,0,0,0,0,-1,1056,1611,-5.91398,-8.72542
-161,-587,-7.06946,8.88501,0,0,0,0,0,0,0,-1,1063,1611,-7.06947,-8.885
-154,-587,-2.24731,6.56519,0,0,0,0,0,0,0,-1,1070,1611,-2.24728,-6.56517
-147,-587,0,0,0,0,0,0,0,0,0,-1,1077,1611,0,0
-140,-587,0,0,0,0,0,0,0,0,0,-1,1084,1611,0,0
-133,-587,0,0,0,0,0,0,0,0,0,-1,1091,1611,0,0
-126,-587,0,0,0,0,0,0,0,0,0,-1,1098,1611,0,0
-119,-587,0,0,0,0,0,0,0,0,0,-1,1105,1611,0,0
-112,-587,0,0,0,0,0,0,0,0,0,-1,1112,1611,0,0
-105,-587,0,0,0,0,0,0,0,0,0,-1,1119,1611,0,0
-98,-587,0,0,0,0,0,0,0,0,0,-1,1126,1611,0,0
-91,-587,0,0,0,0,0,0,0,0,0,-1,1133,1611,0,0
-84,-587,0,0,0,0,0,0,0,0,0,-1,1140,1611,0,0
-77,-587,0,0,0,0,0,0,0,0,0,-1,1147,1611,0,0
-70,-587,0,0,0,0,0,0,0,0,0,-1,1154,1611,0,0
-63,-587,0,0,0,0,0,0,0,0,0,-1,1161,1611,0,0
-56,-587,0,0,0,0,0,0,0,0,0,-1,1168,1611,0,0
-49,-587,0,0,0,0,0,0,0,0,0,-1,1175,1611,0,0
-42,-587,0,0,0,0,0,0,0,0,0,-1,1182,1611,0,0
-35,-587,0,0,0,0,0,0,0,0,0,-1,1189,1611,0,0
-28,-587,0,0,0,0,0,0,0,0,0,-1,1196,1611,0,0
-21,-587,0,0,0,0,0,0,0,0,0,-1,1203,1611,0,0
-14,-587,0,0,0,0,0,0,0,0,0,-1,1210,1611,0,0
-7,-587,0,0,0,0,0,0,0,0,0,-1,1217,1611,0,0
0,-587,0,0,0,0,0,0,0,0,0,-1,1224,1611,0,0
7,-587,0,0,0,0,0,0,0,0,0,-1,1231,1611,0,0
14,-587,0,0,0,0,0,0,0,0,0,-1,1238,1611,0,0
21,-587,0,0,0,0,0,0,0,0,0,-1,1245,1611,0,0
28,-587,0,0,0,0,0,0,0,0,0,-1,1252,1611,0,0
35,-587,0,0,0,0,0,0,0,0,0,-1,1259,1611,0,0
42,-587,0,0,0,0,0,0,0,0,0,-1,1266,1611,0,0
49,-587,0,0,0,0,0,0,0,0,0,-1,1273,1611,0,0
56,-587,0,0,0,0,0,0,0,0,0,-1,1280,1611,0,0
63,-587,0,0,0,0,0,0,0,0,0,-1,1287,1611,0,0
70,-587,0,0,0,0,0,0,0,0,0,-1,1294,1611,0,0
77,-587,0,0,0,0,0,0,0,0,0,-1,1301,1611,0,0
84,-587,0,0,0,0,0,0,0,0,0,-1,1308,1611,0,0
91,-587,0,0,0,0,0,0,0,0,0,-1,1315,1611,0,0
98,-587,0,0,0,0,0,0,0,0,0,-1,1322,1611,0,0
105,-587,0,0,0,0,0,0,0,0,0,-1,1329,1611,0,0
112,-587,0,0,0,0,0,0,0,0,0,-1,1336,1611,0,0
119,-587,0,0,0,0,0,0,0,0,0,-1,1343,1611,0,0
126,-587,0,0,0,0,0,0,0,0,0,-1,1350,1611,0,0
133,-587,0,0,0,0,0,0,0,0,0,-1,1357,1611,0,0
140,-587,0,0,0,0,0,0,0,0,0,-1,1364,1611,0,0
147,-587,0,0,0,0,0,0,0,0,0,-1,1371,1611,0,0
154,-587,0,0,0,0,0,0,0,0,0,-1,1378,1611,0,0
161,-587,0,0,0,0,0,0,0,0,0,-1,1385,1611,0,0
168,-587,0,0,0,0,0,0,0,0,0,-1,1392,1611,0,0
175,-587,0,0,0,0,0,0,0,0,0,-1,1399,1611,0,0
182,-587,0,0,0,0,0,0,0,0,0,-1,1406,1611,0,0
189,-587,0,0,0,0,0,0,0,0,0,-1,1413,1611,0,0
196,-587,0,0,0,0,0,0,0,0,0,-1,1420,1611,0,0
203,-587,0,0,0,0,0,0,0,0,0,-1,1427,1611,0,0
210,-587,0,0,0,0,0,0,0,0,0,-1,1434,1611,0,0
217,-587,0,0,0,0,0,0,0,0,0,-1,1441,1611,0,0
224,-587,0,0,0,0,0,0,0,0,0,-1,1448,1611,0,0
231,-587,0,0,0,0,0,0,0,0,0,-1,1455,1611,0,0
238,-587,0,0,0,0,0,0,0,0,0,-1,1462,1611,0,0
245,-587,0,0,0,0,0,0,0,0,0,-1,1469,1611,0,0
252,-587,0,0,0,0,0,0,0,0,0,-1,1476,1611,0,0
259,-587,0,0,0,0,0,0,0,0,0,-1,1483,1611,0,0
266,-587,0,0,0,0,0,0,0,0,0,-1,1490,1611,0,0
273,-587,10.2936,6.35083,0,0,0,0,0,0,0,-1,1497,1611,10.2936,-6.35087
280,-587,2.09204,1.1217,0,0,0,0,0,0,0,-1,1504,1611,2.092,-1.12176
287,-587,3.2865,0.671509,0,0,0,0,0,0,0,-1,1511,1611,3.28656,-0.671538
294,-587,4.24646,1.58765,0,0,0,0,0,0,0,-1,1518,1611,4.24648,-1.58761
301,-587,7.60474,8.37085,0,0,0,0,0,0,0,-1,1525,1611,7.60478,-8.37084
308,-587,5.99316,10.2291,0,0,0,0,0,0,0,-1,1532,1611,5.99315,-10.2291
315,-587,4.34558,12.3289,0,0,0,0,0,0,0,-1,1539,1611,4.34556,-12.3288
322,-587,10.4526,6.38245,0,0,0,0,0,0,0,-1,1546,1611,10.4526,-6.38245
329,-587,10.7738,8.42444,0,0,0,0,0,0,0,-1,1553,1611,10.7738,-8.42438
336,-587,7.5531,5.96619,0,0,0,0,0,0,0,-1,1560,1611,7.55311,-5.96617
343,-587,9.57495,4.38391,0,0,0,0,0,0,0,-1,1567,1611,9.57494,-4.38397
350,-587,9.50378,3.45093,0,0,0,0,0,0,0,-1,1574,1611,9.50376,-3.4509
357,-587,9.40027,2.50806,0,0,0,0,0,0,0,-1,1581,1611,9.40022,-2.50803
364,-587,9.26477,1.34131,0,0,0,0,0,0,0,-1,1588,1611,9.26479,-1.34126
371,-587,6.98926,7.87561,0,0,0,0,0,0,0,-1,1595,1611,6.98928,-7.87564
378,-587,9.25146,13.8358,0,0,0,0,0,0,0,-1,1602,1611,9.2515,-13.8359
385,-587,16.8566,40.7716,0,0,0,0,0,0,0,-1,1609,1611,16.8566,-40.7716
392,-587,17.2877,40.1191,0,0,0,0,0,0,0,-1,1616,1611,17.2877,-40.1192
399,-587,16.9597,39.6786,0.0262679,0.0277959,-0.0245292,0.051573,0.00249083,-0.800966,0.0335825,0.0479191,1623,1611,16.9598,-39.6786
406,-587,17.3579,39.2354,0.0211994,0.0239752,-0.0201697,0.0428047,0.00236985,-0.819749,0.0277802,0.0405575,1630,1611,17.3579,-39.2354
413,-587,17.608,38.5117,0.0171596,0.0218504,-0.0170544,0.03672,0.00229007,-0.853732,0.0237535,0.0387059,1637,1611,17.608,-38.5117
420,-587,17.6014,37.7703,0.0136217,0.0196566,-0.0143032,0.0312572,0.0020211,-0.889355,0.0201981,0.0389137,1644,1611,17.6014,-37.7703
427,-587,17.6412,37.2661,0.0103814,0.0169716,-0.0114101,0.0255529,0.00180011,-0.925966,0.0164681,0.0326459,1651,1611,17.6412,-37.2662
434,-587,17.7507,36.5693,0.00802302,0.0149507,-0.00933148,0.0214405,0.00153324,-0.963116,0.013811,0.0227552,1658,1611,17.7507,-36.5693
441,-587,17.7614,35.9332,0.00644511,0.0132437,-0.00778156,0.0183361,0.00135278,-0.991327,0.011799,0.0252261,1665,1611,17.7614,-35.9332
448,-587,17.7549,35.4933,0.00513919,0.0115056,-0.00657153,0.0156243,0.00102048,-1.01094,0.0100932,0.0166361,1672,1611,17.7549,-35.4933
455,-587,17.7417,34.9421,0.00376723,0.0094655,-0.00528398,0.0126195,0.000613194,-1.03266,0.00821625,0.0152424,1679,1611,17.7417,-34.9422
462,-587,17.7552,34.3722,0.00292076,0.00736713,-0.00426582,0.00995432,0.000333571,-1.02562,0.00652787,0.0199247,1686,1611,17.7552,-34.3722
469,-587,17.7247,33.8212,0.00242433,0.00552656,-0.00340258,0.00771489,0.000235996,-0.999258,0.00506643,0.0176057,1693,1611,17.7247,-33.8212
476,-587,17.6829,33.2506,0.00194133,0.00395772,-0.00263595,0.0057717,0.000127347,-0.968054,0.00380606,0.0113981,1700,1611,17.6829,-33.2506
483,-587,17.6361,32.6555,0.00136616,0.00239403,-0.00200008,0.00394515,-0.000184956,-0.911157,0.00269387,0.0138157,1707,1611,17.6362,-32.6555
490,-587,17.6125,32.0801,0.000865322,0.000898478,-0.00139848,0.00228048,-0.000516683,-0.791325,0.00171864,0.0160753,1714,1611,17.6126,-32.08
497,-587,17.5927,31.5007,0.000207495,-0.000245534,-0.00093024,0.000938402,-0.00097644,-0.665972,0.00110561,0.0133722,1721,1611,17.5926,-31.5007
504,-587,17.5421,30.9448,-0.000751474,-0.00114952,-0.00025725,-0.000625247,-0.00127575,-0.456163,0.000736602,0.0130832,1728,1611,17.5421,-30.9449
511,-587,17.5205,30.3657,-0.00157537,-0.00199462,0.000270558,-0.00144273,-0.00212726,0.455808,0.00125391,0.0155004,1735,1611,17.5205,-30.3657
518,-587,17.5383,29.7509,-0.00251486,-0.00260479,0.000747794,-0.00181068,-0.00330897,0.755368,0.00191327,0.0159295,1742,1611,17.5383,-29.7509
525,-587,17.5637,29.2137,-0.00369755,-0.00332925,0.00144026,-0.00206141,-0.00496539,0.848982,0.0028805,0.0301416,1749,1611,17.5637,-29.2137
532,-587,17.5785,28.5745,-0.00509876,-0.00402639,0.00241537,-0.00208841,-0.00703674,0.894621,0.00417301,0.049113,1756,1611,17.5784,-28.5745
539,-587,17.7079,27.5923,0,0,0,0,0,0,0,-1,1763,1611,17.7079,-27.5923
546,-587,17.6716,25.2673,0,0,0,0,0,0,0,-1,1770,1611,17.6716,-25.2674
553,-587,7.5813,8.45068,0,0,0,0,0,0,0,-1,1777,1611,7.58125,-8.45068
560,-587,4.21179,5.23547,0,0,0,0,0,0,0,-1,1784,1611,4.21185,-5.23553
567,-587,4.03711,5.46387,0,0,0,0,0,0,0,-1,1791,1611,4.03715,-5.46382
574,-587,3.83142,5.68884,0,0,0,0,0,0,0,-1,1798,1611,3.83141,-5.68881
581,-587,3.47168,6.00977,0,0,0,0,0,0,0,-1,1805,1611,3.47167,-6.00983
588,-587,0,0,0,0,0,0,0,0,0,-1,1812,1611,0,0
595,-587,0,0,0,0,0,0,0,0,0,-1,1819,1611,0,0
602,-587,0,0,0,0,0,0,0,0,0,-1,1826,1611,0,0
609,-587,0,0,0,0,0,0,0,0,0,-1,1833,1611,0,0
616,-587,0,0,0,0,0,0,0,0,0,-1,1840,1611,0,0
623,-587,0,0,0,0,0,0,0,0,0,-1,1847,1611,0,0
630,-587,0,0,0,0,0,0,0,0,0,-1,1854,1611,0,0
637,-587,0,0,0,0,0,0,0,0,0,-1,1861,1611,0,0
644,-587,0,0,0,0,0,0,0,0,0,-1,1868,1611,0,0
651,-587,0,0,0,0,0,0,0,0,0,-1,1875,1611,0,0
658,-587,0,0,0,0,0,0,0,0,0,-1,1882,1611,0,0
665,-587,0,0,0,0,0,0,0,0,0,-1,1889,1611,0,0
672,-587,0,0,0,0,0,0,0,0,0,-1,1896,1611,0,0
679,-587,0,0,0,0,0,0,0,0,0,-1,1903,1611,0,0
686,-587,0,0,0,0,0,0,0,0,0,-1,1910,1611,0,0
693,-587,0,0,0,0,0,0,0,0,0,-1,1917,1611,0,0
700,-587,0,0,0,0,0,0,0,0,0,-1,1924,1611,0,0
707,-587,0,0,0,0,0,0,0,0,0,-1,1931,1611,0,0
714,-587,0,0,0,0,0,0,0,0,0,-1,1938,1611,0,0
721,-587,0,0,0,0,0,0,0,0,0,-1,1945,1611,0,0
728,-587,0,0,0,0,0,0,0,0,0,-1,1952,1611,0,0
735,-587,0,0,0,0,0,0,0,0,0,-1,1959,1611,0,0
742,-587,0,0,0,0,0,0,0,0,0,-1,1966,1611,0,0
749,-587,0,0,0,0,0,0,0,0,0,-1,1973,1611,0,0
756,-587,0,0,0,0,0,0,0,0,0,-1,1980,1611,0,0
763,-587,0,0,0,0,0,0,0,0,0,-1,1987,1611,0,0
770,-587,0,0,0,0,0,0,0,0,0,-1,1994,1611,0,0
777,-587,0,0,0,0,0,0,0,0,0,-1,2001,1611,0,0
784,-587,0,0,0,0,0,0,0,0,0,-1,2008,1611,0,0
791,-587,0,0,0,0,0,0,0,0,0,-1,2015,1611,0,0
798,-587,0,0,0,0,0,0,0,0,0,-1,2022,1611,0,0
805,-587,0,0,0,0,0,0,0,0,0,-1,2029,1611,0,0
812,-587,0,0,0,0,0,0,0,0,0,-1,2036,1611,0,0
-700,-594,0,0,0,0,0,0,0,0,0,-1,524,1618,0,0
-693,-594,0,0,0,0,0,0,0,0,0,-1,531,1618,0,0
-686,-594,0,0,0,0,0,0,0,0,0,-1,538,1618,0,0
-679,-594,0,0,0,0,0,0,0,0,0,-1,545,1618,0,0
-672,-594,0,0,0,0,0,0,0,0,0,-1,552,1618,0,0
-665,-594,0,0,0,0,0,0,0,0,0,-1,559,1618,0,0
-658,-594,0,0,0,0,0,0,0,0,0,-1,566,1618,0,0
-651,-594,0,0,0,0,0,0,0,0,0,-1,573,1618,0,0
-644,-594,0,0,0,0,0,0,0,0,0,-1,580,1618,0,0
-637,-594,0,0,0,0,0,0,0,0,0,-1,587,1618,0,0
-630,-594,0,0,0,0,0,0,0,0,0,-1,594,1618,0,0
-623,-594,0,0,0,0,0,0,0,0,0,-1,601,1618,0,0
-616,-594,0,0,0,0,0,0,0,0,0,-1,608,1618,0,0
-609,-594,0,0,0,0,0,0,0,0,0,-1,615,1618,0,0
-602,-594,0,0,0,0,0,0,0,0,0,-1,622,1618,0,0
-595,-594,0,0,0,0,0,0,0,0,0,-1,629,1618,0,0
-588,-594,0,0,0,0,0,0,0,0,0,-1,636,1618,0,0
-581,-594,0,0,0,0,0,0,0,0,0,-1,643,1618,0,0
-574,-594,0,0,0,0,0,0,0,0,0,-1,650,1618,0,0
-567,-594,0,0,0,0,0,0,0,0,0,-1,657,1618,0,0
-560,-594,0,0,0,0,0,0,0,0,0,-1,664,1618,0,0
-553,-594,0,0,0,0,0,0,0,0,0,-1,671,1618,0,0
-546,-594,0,0,0,0,0,0,0,0,0,-1,678,1618,0,0
-539,-594,0,0,0,0,0,0,0,0,0,-1,685,1618,0,0
-532,-594,0,0,0,0,0,0,0,0,0,-1,692,1618,0,0
-525,-594,0,0,0,0,0,0,0,0,0,-1,699,1618,0,0
-518,-594,0,0,0,0,0,0,0,0,0,-1,706,1618,0,0
-511,-594,0,0,0,0,0,0,0,0,0,-1,713,1618,0,0
-504,-594,0,0,0,0,0,0,0,0,0,-1,720,1618,0,0
-497,-594,0,0,0,0,0,0,0,0,0,-1,727,1618,0,0
-490,-594,0,0,0,0,0,0,0,0,0,-1,734,1618,0,0
-483,-594,0,0,0,0,0,0,0,0,0,-1,741,1618,0,0
-476,-594,0,0,0,0,0,0,0,0,0,-1,748,1618,0,0
-469,-594,0,0,0,0,0,0,0,0,0,-1,755,1618,0,0
-462,-594,0,0,0,0,0,0,0,0,0,-1,762,1618,0,0
-455,-594,-0.509216,-1.58411,0,0,0,0,0,0,0,-1,769,1618,-0.509245,1.58415
-448,-594,-7.71887,-0.0559082,0,0,0,0,0,0,0,-1,776,1618,-7.71885,0.055939
-441,-594,-5.78473,1.18298,0,0,0,0,0,0,0,-1,783,1618,-5.78474,-1.18295
-434,-594,-3.93628,3.06213,0,0,0,0,0,0,0,-1,790,1618,-3.93631,-3.06208
-427,-594,-3.97693,6.77759,0,0,0,0,0,0,0,-1,797,1618,-3.97695,-6.77764
-420,-594,-2.53046,7.71606,0,0,0,0,0,0,0,-1,804,1618,-2.53047,-7.71609
-413,-594,-0.860413,8.00391,0,0,0,0,0,0,0,-1,811,1618,-0.860423,-8.00389
-406,-594,2.45746,13.6218,0,0,0,0,0,0,0,-1,818,1618,2.45747,-13.6218
-399,-594,1.30414,24.9963,0,0,0,0,0,0,0,-1,825,1618,1.30415,-24.9963
-392,-594,1.5484,28.7433,0,0,0,0,0,0,0,-1,832,1618,1.54841,-28.7433
-385,-594,1.3504,29.2676,-0.00427761,-0.00177252,0.00206492,-0.000609954,-0.00544017,1.05802,0.00344153,0.0386071,839,1618,1.3504,-29.2676
-378,-594,1.13495,29.7826,-0.00317573,-0.00144171,0.00199758,-0.000131101,-0.00448634,0.990146,0.00294816,0.0176306,846,1618,1.13492,-29.7826
-371,-594,1.13794,30.4744,-0.00220691,-0.00122169,0.00189461,0.000243303,-0.0036719,0.912585,0.00253293,0.013257,853,1618,1.13791,-30.4743
-364,-594,1.12598,31.0544,-0.00132802,-0.00114659,0.00170976,0.000474855,-0.00294947,0.811901,0.00214221,0.0105821,860,1618,1.12599,-31.0545
-357,-594,1.10321,31.6538,-0.000495141,-0.000821534,0.00161155,0.000961458,-0.00227813,0.734937,0.00192118,0.0104779,867,1618,1.10319,-31.6538
-350,-594,1.06903,32.3092,0.000341069,-0.000422759,0.0015317,0.00153775,-0.00161944,0.66322,0.00182301,0.0148625,874,1618,1.06901,-32.3093
-343,-594,1.01727,32.9336,0.00109377,0.000161793,0.00154204,0.00223869,-0.000983129,0.638665,0.00190662,0.0176586,881,1618,1.01726,-32.9336
-336,-594,0.959106,33.5101,0.00185346,0.00095739,0.00170475,0.00316807,-0.000357216,0.656896,0.00224063,0.015588,888,1618,0.959106,-33.5102
-329,-594,0.96637,34.0997,0.00283134,0.00231068,0.00222819,0.00481436,0.000327668,0.727245,0.00310611,0.0148351,895,1618,0.966382,-34.0997
-322,-594,1.01379,34.7034,0.00370252,0.00383053,0.00287231,0.00663955,0.000893505,0.796538,0.00416064,0.0162342,902,1618,1.01382,-34.7034
-315,-594,0.99707,35.2836,0.00456377,0.00591073,0.00378642,0.0090831,0.0013914,0.873411,0.00564901,0.016411,909,1618,0.997068,-35.2835
-308,-594,0.973511,35.8602,0.00550471,0.00865428,0.00486301,0.0121911,0.00196786,0.941984,0.00755735,0.0154333,916,1618,0.973537,-35.8602
-301,-594,0.935364,36.4124,0.00679297,0.0114127,0.00625505,0.0157707,0.00243491,0.96227,0.00980351,0.0133982,923,1618,0.935385,-36.4123
-294,-594,0.95343,36.9696,0.0083618,0.0145847,0.00813204,0.0201802,0.0027663,0.968114,0.0126328,0.0148845,930,1618,0.953452,-36.9696
-287,-594,0.907776,37.5288,0.0100265,0.0187618,0.0103029,0.0255846,0.00320369,0.985876,0.0160951,0.0221466,937,1618,0.907781,-37.5288
-280,-594,1.00922,38.1697,0.0118421,0.0231808,0.0126733,0.031395,0.00362788,0.995721,0.0198316,0.0252129,944,1618,1.00923,-38.1697
-273,-594,1.10938,38.9484,0.0136907,0.0277785,0.0151216,0.0374163,0.00405289,1.00336,0.023709,0.0314264,951,1618,1.10937,-38.9483
-266,-594,1.15436,39.7867,0.0155083,0.0323644,0.0175873,0.0434388,0.00443389,1.00884,0.0276002,0.0388941,958,1618,1.15436,-39.7867
-259,-594,1.13605,40.4307,0.0174067,0.0363932,0.0200337,0.0490691,0.00473082,1.00666,0.0312554,0.0480217,965,1618,1.13605,-40.4307
-252,-594,1.0675,40.7156,0,0,0,0,0,0,0,-1,972,1618,1.06749,-40.7155
-245,-594,2.27759,35.1766,0,0,0,0,0,0,0,-1,979,1618,2.27756,-35.1766
-238,-594,2.09015,28.0121,0,0,0,0,0,0,0,-1,986,1618,2.09012,-28.0121
-231,-594,1.93774,9.35388,0,0,0,0,0,0,0,-1,993,1618,1.93776,-9.35393
-224,-594,1.81824,8.62744,0,0,0,0,0,0,0,-1,1000,1618,1.81822,-8.62745
-217,-594,-8.24066,12.0752,0,0,0,0,0,0,0,-1,1007,1618,-8.24068,-12.0751
-210,-594,-5.61438,14.2119,0,0,0,0,0,0,0,-1,1014,1618,-5.6144,-14.212
-203,-594,-3.94507,15.5768,0,0,0,0,0,0,0,-1,1021,1618,-3.94506,-15.5768
-196,-594,2.78613,10.5815,0,0,0,0,0,0,0,-1,1028,1618,2.78612,-10.5815
-189,-594,2.60913,9.48865,0,0,0,0,0,0,0,-1,1035,1618,2.6091,-9.48871
-182,-594,1.2395,9.38806,0,0,0,0,0,0,0,-1,1042,1618,1.23951,-9.38804
-175,-594,0.234863,8.73792,0,0,0,0,0,0,0,-1,1049,1618,0.234812,-8.73786
-168,-594,-0.495483,8.46289,0,0,0,0,0,0,0,-1,1056,1618,-0.495513,-8.46285
-161,-594,-1.39734,8.28699,0,0,0,0,0,0,0,-1,1063,1618,-1.39729,-8.28699
-154,-594,-0.000854492,7.68445,0,0,0,0,0,0,0,-1,1070,1618,-0.000805755,-7.6845
-147,-594,0.348267,9.3385,0,0,0,0,0,0,0,-1,1077,1618,0.348237,-9.33849
-140,-594,0.675171,11.5884,0,0,0,0,0,0,0,-1,1084,1618,0.675204,-11.5884
-133,-594,0,0,0,0,0,0,0,0,0,-1,1091,1618,0,0
-126,-594,0,0,0,0,0,0,0,0,0,-1,1098,1618,0,0
-119,-594,0,0,0,0,0,0,0,0,0,-1,1105,1618,0,0
-112,-594,0,0,0,0,0,0,0,0,0,-1,1112,1618,0,0
-105,-594,0,0,0,0,0,0,0,0,0,-1,1119,1618,0,0
-98,-594,0,0,0,0,0,0,0,0,0,-1,1126,1618,0,0
-91,-594,0,0,0,0,0,0,0,0,0,-1,1133,1618,0,0
-84,-594,0,0,0,0,0,0,0,0,0,-1,1140,1618,0,0
-77,-594,0,0,0,0,0,0,0,0,0,-1,1147,1618,0,0
-70,-594,0,0,0,0,0,0,0,0,0,-1,1154,1618,0,0
-63,-594,0,0,0,0,0,0,0,0,0,-1,1161,1618,0,0
-56,-594,0,0,0,0,0,0,0,0,0,-1,1168,1618,0,0
-49,-594,0,0,0,0,0,0,0,0,0,-1,1175,1618,0,0
-42,-594,0,0,0,0,0,0,0,0,0,-1,1182,1618,0,0
-35,-594,0,0,0,0,0,0,0,0,0,-1,1189,1618,0,0
-28,-594,0,0,0,0,0,0,0,0,0,-1,1196,1618,0,0
-21,-594,0,0,0,0,0,0,0,0,0,-1,1203,1618,0,0
-14,-594,0,0,0,0,0,0,0,0,0,-1,1210,1618,0,0
-7,-594,0,0,0,0,0,0,0,0,0,-1,1217,1618,0,0
0,-594,0,0,0,0,0,0,0,0,0,-1,1224,1618,0,0
7,-594,0,0,0,0,0,0,0,0,0,-1,1231,1618,0,0
14,-594,0,0,0,0,0,0,0,0,0,-1,1238,1618,0,0
21,-594,0,0,0,0,0,0,0,0,0,-1,1245,1618,0,0
28,-594,0,0,0,0,0,0,0,0,0,-1,1252,1618,0,0
35,-594,0,0,0,0,0,0,0,0,0,-1,1259,1618,0,0
42,-594,0,0,0,0,0,0,0,0,0,-1,1266,1618,0,0
49,-594,0,0,0,0,0,0,0,0,0,-1,1273,1618,0,0
56,-594,0,0,0,0,0,0,0,0,0,-1,1280,1618,0,0
63,-594,0,0,0,0,0,0,0,0,0,-1,1287,1618,0,0
70,-594,0,0,0,0,0,0,0,0,0,-1,1294,1618,0,0
77,-594,0,0,0,0,0,0,0,0,0,-1,1301,1618,0,0
84,-594,0,0,0,0,0,0,0,0,0,-1,1308,1618,0,0
91,-594,0,0,0,0,0,0,0,0,0,-1,1315,1618,0,0
98,-594,0,0,0,0,0,0,0,0,0,-1,1322,1618,0,0
105,-594,0,0,0,0,0,0,0,0,0,-1,1329,1618,0,0
112,-594,0,0,0,0,0,0,0,0,0,-1,1336,1618,0,0
119,-594,0,0,0,0,0,0,0,0,0,-1,1343,1618,0,0
126,-594,0,0,0,0,0,0,0,0,0,-1,1350,1618,0,0
133,-594,0,0,0,0,0,0,0,0,0,-1,1357,1618,0,0
140,-594,0,0,0,0,0,0,0,0,0,-1,1364,1618,0,0
147,-594,0,0,0,0,0,0,0,0,0,-1,1371,1618,0,0
154,-594,0,0,0,0,0,0,0,0,0,-1,1378,1618,0,0
161,-594,0,0,0,0,0,0,0,0,0,-1,1385,1618,0,0
168,-594,0,0,0,0,0,0,0,0,0,-1,1392,1618,0,0
175,-594,0,0,0,0,0,0,0,0,0,-1,1399,1618,0,0
182,-594,0,0,0,0,0,0,0,0,0,-1,1406,1618,0,0
189,-594,0,0,0,0,0,0,0,0,0,-1,1413,1618,0,0
196,-594,0,0,0,0,0,0,0,0,0,-1,1420,1618,0,0
203,-594,0,0,0,0,0,0,0,0,0,-1,1427,1618,0,0
210,-594,0,0,0,0,0,0,0,0,0,-1,1434,1618,0,0
217,-594,0,0,0,0,0,0,0,0,0,-1,1441,1618,0,0
224,-594,0,0,0,0,0,0,0,0,0,-1,1448,1618,0,0
231,-594,0,0,0,0,0,0,0,0,0,-1,1455,1618,0,0
238,-594,0,0,0,0,0,0,0,0,0,-1,1462,1618,0,0
245,-594,0,0,0,0,0,0,0,0,0,-1,1469,1618,0,0
252,-594,3.03674,1.20996,0,0,0,0,0,0,0,-1,1476,1618,3.0368,-1.20999
259,-594,4.79834,1.53113,0,0,0,0,0,0,0,-1,1483,1618,4.79837,-1.53118
266,-594,3.71606,2.68152,0,0,0,0,0,0,0,-1,1490,1618,3.71609,-2.68149
273,-594,9.7655,6.33557,0,0,0,0,0,0,0,-1,1497,1618,9.76555,-6.33554
280,-594,3.13281,0.911255,0,0,0,0,0,0,0,-1,1504,1618,3.13277,-0.911207
287,-594,4.42749,1.51563,0,0,0,0,0,0,0,-1,1511,1618,4.42747,-1.51564
294,-594,5.36475,3.34937,0,0,0,0,0,0,0,-1,1518,1618,5.36475,-3.3494
301,-594,7.97144,9.04333,0,0,0,0,0,0,0,-1,1525,1618,7.9714,-9.04328
308,-594,6.30347,10.4633,0,0,0,0,0,0,0,-1,1532,1618,6.30351,-10.4633
315,-594,4.62012,11.934,0,0,0,0,0,0,0,-1,1539,1618,4.62006,-11.934
322,-594,2.91528,13.3134,0,0,0,0,0,0,0,-1,1546,1618,2.91523,-13.3133
329,-594,4.19861,9.77258,0,0,0,0,0,0,0,-1,1553,1618,4.19865,-9.77264
336,-594,10.1353,4.66528,0,0,0,0,0,0,0,-1,1560,1618,10.1353,-4.66533
343,-594,10.5729,3.71228,0,0,0,0,0,0,0,-1,1567,1618,10.5729,-3.71232
350,-594,10.219,2.98792,0,0,0,0,0,0,0,-1,1574,1618,10.219,-2.98797
357,-594,9.83154,1.96326,0,0,0,0,0,0,0,-1,1581,1618,9.8315,-1.96321
364,-594,9.74939,0.700562,0,0,0,0,0,0,0,-1,1588,1618,9.74939,-0.700615
371,-594,8.54297,14.3988,0,0,0,0,0,0,0,-1,1595,1618,8.54296,-14.3989
378,-594,16.7395,40.6843,0,0,0,0,0,0,0,-1,1602,1618,16.7396,-40.6844
385,-594,16.6752,40.4919,0.0315869,0.034802,-0.029914,0.0631516,0.0032373,-0.812242,0.0410645,0.0497394,1609,1618,16.6751,-40.492
392,-594,16.8196,39.9281,0.0260901,0.0281201,-0.0243445,0.0514708,0.00273949,-0.806233,0.0334381,0.0486066,1616,1618,16.8196,-39.9282
399,-594,17.0668,39.4956,0.0212003,0.0234319,-0.0196674,0.0420151,0.00261708,-0.813734,0.0271797,0.0421177,1623,1618,17.0668,-39.4956
406,-594,17.192,38.9772,0.0170821,0.0192819,-0.0159181,0.0341381,0.002226,-0.819893,0.0220542,0.0268859,1630,1618,17.192,-38.9772
413,-594,17.2224,38.4038,0.0137891,0.0168972,-0.0131791,0.0286135,0.00207271,-0.844086,0.0184237,0.0196176,1637,1618,17.2224,-38.4038
420,-594,17.2164,37.8439,0.0109671,0.0148457,-0.0109034,0.0239809,0.00183188,-0.873408,0.0154129,0.0185188,1644,1618,17.2164,-37.8439
427,-594,17.2268,37.2579,0.00824848,0.0124066,-0.00847992,0.0190586,0.00159648,-0.905614,0.0122084,0.014634,1651,1618,17.2268,-37.2579
434,-594,17.2064,36.6802,0.00631337,0.0108572,-0.00688776,0.0158381,0.00133251,-0.944704,0.0101438,0.0187177,1658,1618,17.2064,-36.6802
441,-594,17.1812,36.0912,0.00502811,0.00958895,-0.00575821,0.0135019,0.00111521,-0.973937,0.00865349,0.0169057,1665,1618,17.1811,-36.0911
448,-594,17.1949,35.5249,0.00393278,0.00824818,-0.00485363,0.0114021,0.000778853,-0.994556,0.00735555,0.016837,1672,1618,17.1949,-35.5249
455,-594,17.1631,34.9553,0.00281481,0.00667015,-0.0038988,0.0090918,0.000393158,-1.01499,0.00593449,0.0124812,1679,1618,17.1631,-34.9553
462,-594,17.1415,34.4104,0.00211211,0.00501182,-0.00314803,0.00702782,9.61123e-05,-1.0012,0.00465351,0.0140183,1686,1618,17.1415,-34.4104
469,-594,17.1272,33.8643,0.00168023,0.00351582,-0.00250579,0.00526661,-7.05572e-05,-0.960945,0.00353483,0.0127592,1693,1618,17.1272,-33.8642
476,-594,17.1078,33.2841,0.00124523,0.00224686,-0.00191548,0.00372591,-0.000233822,-0.913264,0.00256543,0.013527,1700,1618,17.1078,-33.2841
483,-594,17.0797,32.696,0.00073542,0.000919055,-0.00145984,0.00228996,-0.000635488,-0.816805,0.00177677,0.0166168,1707,1618,17.0797,-32.696
490,-594,17.0524,32.1036,0.000266882,-0.000282744,-0.00101286,0.00104155,-0.00105741,-0.652925,0.00121184,0.0143165,1714,1618,17.0523,-32.1036
497,-594,17.0212,31.52,-0.000348134,-0.00127822,-0.000694057,2.22748e-05,-0.00164863,-0.490232,0.00110659,0.0107566,1721,1618,17.0213,-31.52
504,-594,16.996,30.9464,-0.00127538,-0.00201105,-0.000131931,-0.00125243,-0.00203399,-0.172188,0.00118477,0.0112478,1728,1618,16.9959,-30.9464
511,-594,16.9828,30.3414,-0.00203224,-0.00282557,0.000267417,-0.00195052,-0.00290729,0.296589,0.0017109,0.0173875,1735,1618,16.9828,-30.3414
518,-594,16.913,29.7275,-0.00292234,-0.00327381,0.000614757,-0.0024587,-0.00373746,0.646181,0.00219337,0.023376,1742,1618,16.913,-29.7275
525,-594,16.8383,29.109,-0.00423037,-0.00396894,0.00125432,-0.00283855,-0.00536076,0.837317,0.00309683,0.0432741,1749,1618,16.8383,-29.109
532,-594,16.8727,28.4857,0,0,0,0,0,0,0,-1,1756,1618,16.8726,-28.4858
539,-594,21.0237,24.9617,0,0,0,0,0,0,0,-1,1763,1618,21.0237,-24.9616
546,-594,7.48645,8.54785,0,0,0,0,0,0,0,-1,1770,1618,7.48639,-8.54789
553,-594,3.69714,5.68762,0,0,0,0,0,0,0,-1,1777,1618,3.69715,-5.68764
560,-594,6.06616,4.44482,0,0,0,0,0,0,0,-1,1784,1618,6.06621,-4.44477
567,-594,5.97266,4.73303,0,0,0,0,0,0,0,-1,1791,1618,5.97271,-4.73309
574,-594,5.9906,4.96326,0,0,0,0,0,0,0,-1,1798,1618,5.99065,-4.96326
581,-594,0,0,0,0,0,0,0,0,0,-1,1805,1618,0,0
588,-594,0,0,0,0,0,0,0,0,0,-1,1812,1618,0,0
595,-594,0,0,0,0,0,0,0,0,0,-1,1819,1618,0,0
602,-594,0,0,0,0,0,0,0,0,0,-1,1826,1618,0,0
609,-594,0,0,0,0,0,0,0,0,0,-1,1833,1618,0,0
616,-594,0,0,0,0,0,0,0,0,0,-1,1840,1618,0,0
623,-594,0,0,0,0,0,0,0,0,0,-1,1847,1618,0,0
630,-594,0,0,0,0,0,0,0,0,0,-1,1854,1618,0,0
637,-594,0,0,0,0,0,0,0,0,0,-1,1861,1618,0,0
644,-594,0,0,0,0,0,0,0,0,0,-1,1868,1618,0,0
651,-594,0,0,0,0,0,0,0,0,0,-1,1875,1618,0,0
658,-594,0,0,0,0,0,0,0,0,0,-1,1882,1618,0,0
665,-594,0,0,0,0,0,0,0,0,0,-1,1889,1618,0,0
672,-594,0,0,0,0,0,0,0,0,0,-1,1896,1618,0,0
679,-594,0,0,0,0,0,0,0,0,0,-1,1903,1618,0,0
686,-594,0,0,0,0,0,0,0,0,0,-1,1910,1618,0,0
693,-594,0,0,0,0,0,0,0,0,0,-1,1917,1618,0,0
700,-594,0,0,0,0,0,0,0,0,0,-1,1924,1618,0,0
707,-594,0,0,0,0,0,0,0,0,0,-1,1931,1618,0,0
714,-594,0,0,0,0,0,0,0,0,0,-1,1938,1618,0,0
721,-594,0,0,0,0,0,0,0,0,0,-1,1945,1618,0,0
728,-594,0,0,0,0,0,0,0,0,0,-1,1952,1618,0,0
735,-594,0,0,0,0,0,0,0,0,0,-1,1959,1618,0,0
742,-594,0,0,0,0,0,0,0,0,0,-1,1966,1618,0,0
749,-594,0,0,0,0,0,0,0,0,0,-1,1973,1618,0,0
756,-594,0,0,0,0,0,0,0,0,0,-1,1980,1618,0,0
763,-594,0,0,0,0,0,0,0,0,0,-1,1987,1618,0,0
770,-594,0,0,0,0,0,0,0,0,0,-1,1994,1618,0,0
777,-594,0,0,0,0,0,0,0,0,0,-1,2001,1618,0,0
784,-594,0,0,0,0,0,0,0,0,0,-1,2008,1618,0,0
791,-594,0,0,0,0,0,0,0,0,0,-1,2015,1618,0,0
798,-594,0,0,0,0,0,0,0,0,0,-1,2022,1618,0,0
805,-594,0,0,0,0,0,0,0,0,0,-1,2029,1618,0,0
812,-594,0,0,0,0,0,0,0,0,0,-1,2036,1618,0,0
-700,-601,0,0,0,0,0,0,0,0,0,-1,524,1625,0,0
-693,-601,0,0,0,0,0,0,0,0,0,-1,531,1625,0,0
-686,-601,0,0,0,0,0,0,0,0,0,-1,538,1625,0,0
-679,-601,0,0,0,0,0,0,0,0,0,-1,545,1625,0,0
-672,-601,0,0,0,0,0,0,0,0,0,-1,552,1625,0,0
-665,-601,0,0,0,0,0,0,0,0,0,-1,559,1625,0,0
-658,-601,0,0,0,0,0,0,0,0,0,-1,566,1625,0,0
-651,-601,0,0,0,0,0,0,0,0,0,-1,573,1625,0,0
-644,-601,0,0,0,0,0,0,0,0,0,-1,580,1625,0,0
-637,-601,0,0,0,0,0,0,0,0,0,-1,587,1625,0,0
-630,-601,0,0,0,0,0,0,0,0,0,-1,594,1625,0,0
-623,-601,0,0,0,0,0,0,0,0,0,-1,601,1625,0,0
-616,-601,0,0,0,0,0,0,0,0,0,-1,608,1625,0,0
-609,-601,0,0,0,0,0,0,0,0,0,-1,615,1625,0,0
-602,-601,0,0,0,0,0,0,0,0,0,-1,622,1625,0,0
-595,-601,0,0,0,0,0,0,0,0,0,-1,629,1625,0,0
-588,-601,0,0,0,0,0,0,0,0,0,-1,636,1625,0,0
-581,-601,0,0,0,0,0,0,0,0,0,-1,643,1625,0,0
-574,-601,0,0,0,0,0,0,0,0,0,-1,650,1625,0,0
-567,-601,0,0,0,0,0,0,0,0,0,-1,657,1625,0,0
-560,-601,0,0,0,0,0,0,0,0,0,-1,664,1625,0,0
-553,-601,0,0,0,0,0,0,0,0,0,-1,671,1625,0,0
-546,-601,0,0,0,0,0,0,0,0,0,-1,678,1625,0,0
-539,-601,0,0,0,0,0,0,0,0,0,-1,685,1625,0,0
-532,-601,0,0,0,0,0,0,0,0,0,-1,692,1625,0,0
-525,-601,0,0,0,0,0,0,0,0,0,-1,699,1625,0,0
-518,-601,0,0,0,0,0,0,0,0,0,-1,706,1625,0,0
-511,-601,0,0,0,0,0,0,0,0,0,-1,713,1625,0,0
-504,-601,0,0,0,0,0,0,0,0,0,-1,720,1625,0,0
-497,-601,0,0,0,0,0,0,0,0,0,-1,727,1625,0,0
-490,-601,0,0,0,0,0,0,0,0,0,-1,734,1625,0,0
-483,-601,0,0,0,0,0,0,0,0,0,-1,741,1625,0,0
-476,-601,0,0,0,0,0,0,0,0,0,-1,748,1625,0,0
-469,-601,0,0,0,0,0,0,0,0,0,-1,755,1625,0,0
-462,-601,0,0,0,0,0,0,0,0,0,-1,762,1625,0,0
-455,-601,0,0,0,0,0,0,0,0,0,-1,769,1625,0,0
-448,-601,-7.07623,2.7616,0,0,0,0,0,0,0,-1,776,1625,-7.07626,-2.76161
-441,-601,-6.06689,3.33447,0,0,0,0,0,0,0,-1,783,1625,-6.06691,-3.33448
-434,-601,-5.02655,3.8468,0,0,0,0,0,0,0,-1,790,1625,-5.02657,-3.84674
-427,-601,-5.78601,4.2406,0,0,0,0,0,0,0,-1,797,1625,-5.786,-4.24058
-420,-601,-5.5191,5.60364,0,0,0,0,0,0,0,-1,804,1625,-5.51907,-5.60368
-413,-601,-4.30756,5.86047,0,0,0,0,0,0,0,-1,811,1625,-4.30757,-5.86046
-406,-601,-1.67493,7.20422,0,0,0,0,0,0,0,-1,818,1625,-1.67493,-7.20428
-399,-601,1.40094,15.3108,0,0,0,0,0,0,0,-1,825,1625,1.40096,-15.3107
-392,-601,2.11139,28.2483,0,0,0,0,0,0,0,-1,832,1625,2.1114,-28.2482
-385,-601,2.02325,29.1429,-0.00526825,-0.00172929,0.00301552,-2.42586e-06,-0.00699511,1.05072,0.0046626,0.0495275,839,1625,2.02323,-29.1429
-378,-601,1.80585,29.9379,-0.0038957,-0.00150865,0.00283711,0.000375755,-0.00578011,0.984503,0.00398457,0.044851,846,1625,1.80584,-29.9379
-371,-601,1.74091,30.4301,-0.00279726,-0.00149457,0.00261996,0.000553795,-0.00484563,0.907233,0.00342995,0.0251193,853,1625,1.74088,-30.4301
-364,-601,1.7301,31.0785,-0.00180656,-0.00167869,0.00231943,0.000577692,-0.00406293,0.799177,0.0029203,0.0130526,860,1625,1.73008,-31.0785
-357,-601,1.67175,31.7081,-0.000886266,-0.00156102,0.00214499,0.000947717,-0.00339501,0.707394,0.00263664,0.0106399,867,1625,1.67175,-31.7081
-350,-601,1.6792,32.3835,-5.69399e-05,-0.00125816,0.00197899,0.00141057,-0.00272567,0.638069,0.00242796,0.0210826,874,1625,1.67922,-32.3836
-343,-601,1.60999,33.0322,0.000663903,-0.000775385,0.00188157,0.00195875,-0.00207023,0.602746,0.00232643,0.0246246,881,1625,1.61,-33.0322
-336,-601,1.53601,33.6016,0.00133354,-0.000108229,0.00188895,0.00263449,-0.00140917,0.603111,0.00237007,0.0218789,888,1625,1.53601,-33.6015
-329,-601,1.56451,34.1814,0.00217196,0.000948658,0.00216239,0.00380754,-0.000686919,0.647569,0.00279561,0.0178921,895,1625,1.5645,-34.1814
-322,-601,1.5874,34.7584,0.00287633,0.0022886,0.00255422,0.00515353,1.13933e-05,0.728125,0.0034319,0.0132217,902,1625,1.5874,-34.7584
-315,-601,1.58197,35.2959,0.00353018,0.00404844,0.00315561,0.00695553,0.00062308,0.826365,0.00444391,0.0133473,909,1625,1.58198,-35.2959
-308,-601,1.56055,35.8669,0.00425433,0.0063494,0.00385672,0.00929832,0.00130542,0.918005,0.00581281,0.0127397,916,1625,1.56055,-35.8669
-301,-601,1.53821,36.4294,0.00526319,0.00866956,0.00482706,0.0120851,0.00184764,0.955,0.00751693,0.0115521,923,1625,1.53822,-36.4294
-294,-601,1.50281,36.9952,0.00650798,0.0112148,0.00619182,0.0154853,0.00223739,0.967006,0.00966449,0.0112576,930,1625,1.5028,-36.9952
-287,-601,1.47009,37.5828,0.00773697,0.0144427,0.00767925,0.0194691,0.00271054,0.991231,0.0121769,0.0109372,937,1625,1.47012,-37.5828
-280,-601,1.48956,38.1617,0.0091343,0.0177428,0.00933448,0.0237176,0.00315951,1.00143,0.0148709,0.0137013,944,1625,1.48959,-38.1617
-273,-601,1.49261,38.7477,0.0105776,0.0209989,0.0110251,0.0279826,0.00359387,1.00615,0.01758,0.0147992,951,1625,1.49263,-38.7476
-266,-601,1.54327,39.3667,0.0119932,0.024201,0.0127805,0.0322604,0.00393383,1.00818,0.020323,0.0180891,958,1625,1.54325,-39.3667
-259,-601,1.56976,39.8804,0.0135743,0.0269644,0.014552,0.0362875,0.00425109,1.001,0.0229065,0.0293966,965,1625,1.56975,-39.8803
-252,-601,2.0296,40.3168,0,0,0,0,0,0,0,-1,972,1625,2.02963,-40.3168
-245,-601,2.46368,40.9442,0,0,0,0,0,0,0,-1,979,1625,2.46371,-40.9442
-238,-601,2.75482,35.777,0,0,0,0,0,0,0,-1,986,1625,2.75481,-35.777
-231,-601,2.66772,13.7051,0,0,0,0,0,0,0,-1,993,1625,2.6677,-13.7051
-224,-601,-0.0305176,9.13684,0,0,0,0,0,0,0,-1,1000,1625,-0.030498,-9.13681
-217,-601,3.39429,10.3898,0,0,0,0,0,0,0,-1,1007,1625,3.39431,-10.3898
-210,-601,-6.53699,15.7931,0,0,0,0,0,0,0,-1,1014,1625,-6.53697,-15.7931
-203,-601,2.69348,15.9099,0,0,0,0,0,0,0,-1,1021,1625,2.69351,-15.91
-196,-601,2.66992,16.1815,0,0,0,0,0,0,0,-1,1028,1625,2.66995,-16.1815
-189,-601,2.849,16.6105,0,0,0,0,0,0,0,-1,1035,1625,2.84902,-16.6104
-182,-601,1.82153,13.9752,0,0,0,0,0,0,0,-1,1042,1625,1.82155,-13.9752
-175,-601,0.544922,9.28687,0,0,0,0,0,0,0,-1,1049,1625,0.544879,-9.28685
-168,-601,-0.247559,8.97461,0,0,0,0,0,0,0,-1,1056,1625,-0.247598,-8.97466
-161,-601,-1.16833,8.80078,0,0,0,0,0,0,0,-1,1063,1625,-1.16837,-8.80081
-154,-601,1.12756,7.94861,0,0,0,0,0,0,0,-1,1070,1625,1.12762,-7.94855
-147,-601,1.35352,9.55432,0,0,0,0,0,0,0,-1,1077,1625,1.35351,-9.55429
-140,-601,1.72437,11.1498,0,0,0,0,0,0,0,-1,1084,1625,1.72432,-11.1498
-133,-601,2.13281,12.8347,0,0,0,0,0,0,0,-1,1091,1625,2.13287,-12.8348
-126,-601,3.09534,15.427,0,0,0,0,0,0,0,-1,1098,1625,3.0953,-15.4271
-119,-601,1.22485,9.43457,0,0,0,0,0,0,0,-1,1105,1625,1.22489,-9.43456
-112,-601,0,0,0,0,0,0,0,0,0,-1,1112,1625,0,0
-105,-601,0,0,0,0,0,0,0,0,0,-1,1119,1625,0,0
-98,-601,0,0,0,0,0,0,0,0,0,-1,1126,1625,0,0
-91,-601,0,0,0,0,0,0,0,0,0,-1,1133,1625,0,0
-84,-601,0,0,0,0,0,0,0,0,0,-1,1140,1625,0,0
-77,-601,0,0,0,0,0,0,0,0,0,-1,1147,1625,0,0
-70,-601,0,0,0,0,0,0,0,0,0,-1,1154,1625,0,0
-63,-601,0,0,0,0,0,0,0,0,0,-1,1161,1625,0,0
-56,-601,0,0,0,0,0,0,0,0,0,-1,1168,1625,0,0
-49,-601,0,0,0,0,0,0,0,0,0,-1,1175,1625,0,0
-42,-601,0,0,0,0,0,0,0,0,0,-1,1182,1625,0,0
-35,-601,0,0,0,0,0,0,0,0,0,-1,1189,1625,0,0
-28,-601,0,0,0,0,0,0,0,0,0,-1,1196,1625,0,0
-21,-601,0,0,0,0,0,0,0,0,0,-1,1203,1625,0,0
-14,-601,0,0,0,0,0,0,0,0,0,-1,1210,1625,0,0
-7,-601,0,0,0,0,0,0,0,0,0,-1,1217,1625,0,0
0,-601,0,0,0,0,0,0,0,0,0,-1,1224,1625,0,0
7,-601,0,0,0,0,0,0,0,0,0,-1,1231,1625,0,0
14,-601,0,0,0,0,0,0,0,0,0,-1,1238,1625,0,0
21,-601,0,0,0,0,0,0,0,0,0,-1,1245,1625,0,0
28,-601,0,0,0,0,0,0,0,0,0,-1,1252,1625,0,0
35,-601,0,0,0,0,0,0,0,0,0,-1,1259,1625,0,0
42,-601,0,0,0,0,0,0,0,0,0,-1,1266,1625,0,0
49,-601,0,0,0,0,0,0,0,0,0,-1,1273,1625,0,0
56,-601,0,0,0,0,0,0,0,0,0,-1,1280,1625,0,0
63,-601,0,0,0,0,0,0,0,0,0,-1,1287,1625,0,0
70,-601,0,0,0,0,0,0,0,0,0,-1,1294,1625,0,0
77,-601,0,0,0,0,0,0,0,0,0,-1,1301,1625,0,0
84,-601,0,0,0,0,0,0,0,0,0,-1,1308,1625,0,0
91,-601,0,0,0,0,0,0,0,0,0,-1,1315,1625,0,0
98,-601,0,0,0,0,0,0,0,0,0,-1,1322,1625,0,0
105,-601,0,0,0,0,0,0,0,0,0,-1,1329,1625,0,0
112,-601,0,0,0,0,0,0,0,0,0,-1,1336,1625,0,0
119,-601,0,0,0,0,0,0,0,0,0,-1,1343,1625,0,0
126,-601,0,0,0,0,0,0,0,0,0,-1,1350,1625,0,0
133,-601,0,0,0,0,0,0,0,0,0,-1,1357,1625,0,0
140,-601,0,0,0,0,0,0,0,0,0,-1,1364,1625,0,0
147,-601,0,0,0,0,0,0,0,0,0,-1,1371,1625,0,0
154,-601,0,0,0,0,0,0,0,0,0,-1,1378,1625,0,0
161,-601,0,0,0,0,0,0,0,0,0,-1,1385,1625,0,0
168,-601,0,0,0,0,0,0,0,0,0,-1,1392,1625,0,0
175,-601,0,0,0,0,0,0,0,0,0,-1,1399,1625,0,0
182,-601,0,0,0,0,0,0,0,0,0,-1,1406,1625,0,0
189,-601,0,0,0,0,0,0,0,0,0,-1,1413,1625,0,0
196,-601,0,0,0,0,0,0,0,0,0,-1,1420,1625,0,0
203,-601,0,0,0,0,0,0,0,0,0,-1,1427,1625,0,0
210,-601,0,0,0,0,0,0,0,0,0,-1,1434,1625,0,0
217,-601,0,0,0,0,0,0,0,0,0,-1,1441,1625,0,0
224,-601,0,0,0,0,0,0,0,0,0,-1,1448,1625,0,0
231,-601,-0.0371094,0.525879,0,0,0,0,0,0,0,-1,1455,1625,-0.0371518,-0.525824
238,-601,2.03369,-1.32861,0,0,0,0,0,0,0,-1,1462,1625,2.03364,1.32858
245,-601,2.71375,2.44983,0,0,0,0,0,0,0,-1,1469,1625,2.71371,-2.44979
252,-601,4.66943,2.28381,0,0,0,0,0,0,0,-1,1476,1625,4.66947,-2.28376
259,-601,6.42712,2.61987,0,0,0,0,0,0,0,-1,1483,1625,6.42711,-2.61985
266,-601,6.75317,1.68701,0,0,0,0,0,0,0,-1,1490,1625,6.75323,-1.687
273,-601,5.4314,2.92053,0,0,0,0,0,0,0,-1,1497,1625,5.43144,-2.92051
280,-601,4.64722,1.17786,0,0,0,0,0,0,0,-1,1504,1625,4.64722,-1.1779
287,-601,5.32532,2.6217,0,0,0,0,0,0,0,-1,1511,1625,5.32535,-2.62171
294,-601,5.97693,4.22693,0,0,0,0,0,0,0,-1,1518,1625,5.97697,-4.22694
301,-601,7.28162,9.50024,0,0,0,0,0,0,0,-1,1525,1625,7.28162,-9.50025
308,-601,6.53528,10.3927,0,0,0,0,0,0,0,-1,1532,1625,6.53529,-10.3927
315,-601,4.88013,11.7184,0,0,0,0,0,0,0,-1,1539,1625,4.88015,-11.7184
322,-601,3.38098,12.7864,0,0,0,0,0,0,0,-1,1546,1625,3.38104,-12.7864
329,-601,1.8772,13.8768,0,0,0,0,0,0,0,-1,1553,1625,1.87716,-13.8768
336,-601,4.67847,9.53308,0,0,0,0,0,0,0,-1,1560,1625,4.67848,-9.53309
343,-601,11.1404,3.14575,0,0,0,0,0,0,0,-1,1567,1625,11.1404,-3.1458
350,-601,10.9462,2.37769,0,0,0,0,0,0,0,-1,1574,1625,10.9461,-2.37764
357,-601,10.7518,1.6095,0,0,0,0,0,0,0,-1,1581,1625,10.7518,-1.60948
364,-601,5.33643,9.74426,0,0,0,0,0,0,0,-1,1588,1625,5.33637,-9.74429
371,-601,15.4205,43.3268,0,0,0,0,0,0,0,-1,1595,1625,15.4206,-43.3268
378,-601,16.1829,41.4242,0,0,0,0,0,0,0,-1,1602,1625,16.1828,-41.4242
385,-601,16.4362,40.4054,0.0250839,0.0297444,-0.0239471,0.0514744,0.0033539,-0.833899,0.0332547,0.0446122,1609,1625,16.4361,-40.4054
392,-601,16.4178,39.9419,0.0207927,0.0237926,-0.0193988,0.0417494,0.00283599,-0.823983,0.0269374,0.0384969,1616,1625,16.4178,-39.9419
399,-601,16.5758,39.421,0.0169294,0.0193477,-0.0155001,0.0336857,0.00259135,-0.824323,0.0216451,0.0208771,1623,1625,16.5758,-39.421
406,-601,16.6779,38.8311,0.0136492,0.0152773,-0.012343,0.026833,0.00209345,-0.818327,0.0172333,0.0145707,1630,1625,16.6779,-38.8311
413,-601,16.6705,38.2892,0.0110239,0.012956,-0.0100781,0.0221143,0.00186563,-0.833181,0.014162,0.0136326,1637,1625,16.6706,-38.2892
420,-601,16.6753,37.728,0.00877622,0.0111176,-0.0082401,0.0182698,0.00162407,-0.855963,0.0116762,0.0118968,1644,1625,16.6752,-37.7281
427,-601,16.6768,37.208,0.00650063,0.00896474,-0.00625307,0.014106,0.00135939,-0.882668,0.0089852,0.0156503,1651,1625,16.6767,-37.208
434,-601,16.6555,36.6566,0.00489152,0.00779034,-0.00506708,0.0116112,0.00107063,-0.924701,0.00740977,0.016192,1658,1625,16.6555,-36.6566
441,-601,16.6422,36.088,0.00381417,0.00686812,-0.00428723,0.00989219,0.000790107,-0.956478,0.00634783,0.0177821,1665,1625,16.6422,-36.088
448,-601,16.6377,35.5562,0.00288584,0.0058372,-0.00366278,0.00831039,0.000412649,-0.976893,0.00540796,0.0153446,1672,1625,16.6376,-35.5562
455,-601,16.6121,34.9823,0.00197098,0.00465341,-0.00302378,0.00662008,4.30807e-06,-0.994139,0.00441195,0.0137042,1679,1625,16.612,-34.9823
462,-601,16.5853,34.4261,0.00137525,0.00337214,-0.00251687,0.00508137,-0.000333977,-0.974228,0.00350421,0.0118771,1686,1625,16.5853,-34.4262
469,-601,16.5671,33.8937,0.000983391,0.0021563,-0.00206868,0.00372004,-0.000580352,-0.92352,0.00269439,0.0117562,1693,1625,16.5672,-33.8936
476,-601,16.5402,33.3221,0.000582263,0.00111414,-0.00162255,0.0024924,-0.000796001,-0.866626,0.00198098,0.0145909,1700,1625,16.5402,-33.3221
483,-601,16.4884,32.7349,0.000133048,-4.31826e-05,-0.00130272,0.00135063,-0.00126077,-0.75163,0.00150799,0.0181284,1707,1625,16.4883,-32.7349
490,-601,16.4784,32.1454,-0.000309295,-0.0010099,-0.00096576,0.000367731,-0.00168693,-0.611416,0.00126514,0.0132165,1714,1625,16.4784,-32.1453
497,-601,16.4723,31.5507,-0.00088197,-0.00191437,-0.000737219,-0.000498196,-0.00229815,-0.479968,0.00139599,0.0108068,1721,1625,16.4722,-31.5507
504,-601,16.4999,30.9468,-0.00174261,-0.00253491,-0.000224961,-0.00168319,-0.00259433,-0.258228,0.00151978,0.0218603,1728,1625,16.4999,-30.9468
511,-601,16.3956,30.4558,-0.00238209,-0.00356729,0.00013883,-0.00236605,-0.00358333,0.115062,0.00210398,0.0383332,1735,1625,16.3957,-30.4558
518,-601,16.3269,29.8624,-0.00328195,-0.00387821,0.000364418,-0.00310925,-0.00405091,0.442558,0.00244786,0.0464225,1742,1625,16.3269,-29.8625
525,-601,16.3372,29.2834,0,0,0,0,0,0,0,-1,1749,1625,16.3371,-29.2835
532,-601,16.3573,21.5406,0,0,0,0,0,0,0,-1,1756,1625,16.3573,-21.5406
539,-601,7.77112,11.4299,0,0,0,0,0,0,0,-1,1763,1625,7.77116,-11.4299
546,-601,6.56873,3.62354,0,0,0,0,0,0,0,-1,1770,1625,6.56867,-3.62352
553,-601,7.03015,4.25049,0,0,0,0,0,0,0,-1,1777,1625,7.03011,-4.25048
560,-601,7.50745,4.83374,0,0,0,0,0,0,0,-1,1784,1625,7.50744,-4.83376
567,-601,7.82043,3.83301,0,0,0,0,0,0,0,-1,1791,1625,7.82041,-3.83303
574,-601,0,0,0,0,0,0,0,0,0,-1,1798,1625,0,0
581,-601,0,0,0,0,0,0,0,0,0,-1,1805,1625,0,0
588,-601,0,0,0,0,0,0,0,0,0,-1,1812,1625,0,0
595,-601,0,0,0,0,0,0,0,0,0,-1,1819,1625,0,0
602,-601,0,0,0,0,0,0,0,0,0,-1,1826,1625,0,0
609,-601,0,0,0,0,0,0,0,0,0,-1,1833,1625,0,0
616,-601,0,0,0,0,0,0,0,0,0,-1,1840,1625,0,0
623,-601,0,0,0,0,0,0,0,0,0,-1,1847,1625,0,0
630,-601,0,0,0,0,0,0,0,0,0,-1,1854,1625,0,0
637,-601,0,0,0,0,0,0,0,0,0,-1,1861,1625,0,0
644,-601,0,0,0,0,0,0,0,0,0,-1,1868,1625,0,0
651,-601,0,0,0,0,0,0,0,0,0,-1,1875,1625,0,0
658,-601,0,0,0,0,0,0,0,0,0,-1,1882,1625,0,0
665,-601,0,0,0,0,0,0,0,0,0,-1,1889,1625,0,0
672,-601,0,0,0,0,0,0,0,0,0,-1,1896,1625,0,0
679,-601,0,0,0,0,0,0,0,0,0,-1,1903,1625,0,0
686,-601,0,0,0,0,0,0,0,0,0,-1,1910,1625,0,0
693,-601,0,0,0,0,0,0,0,0,0,-1,1917,1625,0,0
700,-601,0,0,0,0,0,0,0,0,0,-1,1924,1625,0,0
707,-601,0,0,0,0,0,0,0,0,0,-1,1931,1625,0,0
714,-601,0,0,0,0,0,0,0,0,0,-1,1938,1625,0,0
721,-601,0,0,0,0,0,0,0,0,0,-1,1945,1625,0,0
728,-601,0,0,0,0,0,0,0,0,0,-1,1952,1625,0,0
735,-601,0,0,0,0,0,0,0,0,0,-1,1959,1625,0,0
742,-601,0,0,0,0,0,0,0,0,0,-1,1966,1625,0,0
749,-601,0,0,0,0,0,0,0,0,0,-1,1973,1625,0,0
756,-601,0,0,0,0,0,0,0,0,0,-1,1980,1625,0,0
763,-601,0,0,0,0,0,0,0,0,0,-1,1987,1625,0,0
770,-601,0,0,0,0,0,0,0,0,0,-1,1994,1625,0,0
777,-601,0,0,0,0,0,0,0,0,0,-1,2001,1625,0,0
784,-601,0,0,0,0,0,0,0,0,0,-1,2008,1625,0,0
791,-601,0,0,0,0,0,0,0,0,0,-1,2015,1625,0,0
798,-601,0,0,0,0,0,0,0,0,0,-1,2022,1625,0,0
805,-601,0,0,0,0,0,0,0,0,0,-1,2029,1625,0,0
812,-601,0,0,0,0,0,0,0,0,0,-1,2036,1625,0,0
-700,-608,0,0,0,0,0,0,0,0,0,-1,524,1632,0,0
-693,-608,0,0,0,0,0,0,0,0,0,-1,531,1632,0,0
-686,-608,0,0,0,0,0,0,0,0,0,-1,538,1632,0,0
-679,-608,0,0,0,0,0,0,0,0,0,-1,545,1632,0,0
-672,-608,0,0,0,0,0,0,0,0,0,-1,552,1632,0,0
-665,-608,0,0,0,0,0,0,0,0,0,-1,559,1632,0,0
-658,-608,0,0,0,0,0,0,0,0,0,-1,566,1632,0,0
-651,-608,0,0,0,0,0,0,0,0,0,-1,573,1632,0,0
-644,-608,0,0,0,0,0,0,0,0,0,-1,580,1632,0,0
-637,-608,0,0,0,0,0,0,0,0,0,-1,587,1632,0,0
-630,-608,0,0,0,0,0,0,0,0,0,-1,594,1632,0,0
-623,-608,0,0,0,0,0,0,0,0,0,-1,601,1632,0,0
-616,-608,0,0,0,0,0,0,0,0,0,-1,608,1632,0,0
-609,-608,0,0,0,0,0,0,0,0,0,-1,615,1632,0,0
-602,-608,0,0,0,0,0,0,0,0,0,-1,622,1632,0,0
-595,-608,0,0,0,0,0,0,0,0,0,-1,629,1632,0,0
-588,-608,0,0,0,0,0,0,0,0,0,-1,636,1632,0,0
-581,-608,0,0,0,0,0,0,0,0,0,-1,643,1632,0,0
-574,-608,0,0,0,0,0,0,0,0,0,-1,650,1632,0,0
-567,-608,0,0,0,0,0,0,0,0,0,-1,657,1632,0,0
-560,-608,0,0,0,0,0,0,0,0,0,-1,664,1632,0,0
-553,-608,0,0,0,0,0,0,0,0,0,-1,671,1632,0,0
-546,-608,0,0,0,0,0,0,0,0,0,-1,678,1632,0,0
-539,-608,0,0,0,0,0,0,0,0,0,-1,685,1632,0,0
-532,-608,0,0,0,0,0,0,0,0,0,-1,692,1632,0,0
-525,-608,0,0,0,0,0,0,0,0,0,-1,699,1632,0,0
-518,-608,0,0,0,0,0,0,0,0,0,-1,706,1632,0,0
-511,-608,0,0,0,0,0,0,0,0,0,-1,713,1632,0,0
-504,-608,0,0,0,0,0,0,0,0,0,-1,720,1632,0,0
-497,-608,0,0,0,0,0,0,0,0,0,-1,727,1632,0,0
-490,-608,0,0,0,0,0,0,0,0,0,-1,734,1632,0,0
-483,-608,0,0,0,0,0,0,0,0,0,-1,741,1632,0,0
-476,-608,0,0,0,0,0,0,0,0,0,-1,748,1632,0,0
-469,-608,0,0,0,0,0,0,0,0,0,-1,755,1632,0,0
-462,-608,0,0,0,0,0,0,0,0,0,-1,762,1632,0,0
-455,-608,0,0,0,0,0,0,0,0,0,-1,769,1632,0,0
-448,-608,0,0,0,0,0,0,0,0,0,-1,776,1632,0,0
-441,-608,-7.34601,2.78052,0,0,0,0,0,0,0,-1,783,1632,-7.346,-2.78056
-434,-608,-6.34558,3.27405,0,0,0,0,0,0,0,-1,790,1632,-6.34555,-3.27406
-427,-608,-7.74335,4.17688,0,0,0,0,0,0,0,-1,797,1632,-7.74334,-4.17693
-420,-608,-6.82794,4.34839,0,0,0,0,0,0,0,-1,804,1632,-6.82794,-4.34838
-413,-608,-5.41919,5.66138,0,0,0,0,0,0,0,-1,811,1632,-5.41917,-5.66133
-406,-608,-4.79681,4.98999,0,0,0,0,0,0,0,-1,818,1632,-4.79684,-4.98997
-399,-608,-2.60645,6.34167,0,0,0,0,0,0,0,-1,825,1632,-2.60643,-6.34169
-392,-608,2.08356,15.437,0,0,0,0,0,0,0,-1,832,1632,2.08354,-15.437
-385,-608,2.68097,29.0485,0,0,0,0,0,0,0,-1,839,1632,2.68095,-29.0485
-378,-608,2.48041,29.9609,0,0,0,0,0,0,0,-1,846,1632,2.48039,-29.961
-371,-608,2.34021,30.2313,0,0,0,0,0,0,0,-1,853,1632,2.34018,-30.2313
-364,-608,2.39331,30.9897,-0.00172904,-0.00260109,0.00363703,0.001498,-0.00582814,0.72574,0.00446924,0.0292269,860,1632,2.3933,-30.9897
-357,-608,2.26959,31.6929,-0.000679144,-0.00293813,0.00351504,0.00188342,-0.00550069,0.629943,0.00443045,0.0194747,867,1632,2.26961,-31.6929
-350,-608,2.2558,32.3547,0.000159552,-0.00278621,0.00331524,0.00231437,-0.00494103,0.576356,0.00427944,0.0191484,874,1632,2.25582,-32.3547
-343,-608,2.23529,32.9735,0.000843967,-0.00244213,0.00312317,0.00272992,-0.00432808,0.54325,0.00410961,0.0260444,881,1632,2.2353,-32.9735
-336,-608,2.18793,33.6053,0.00139602,-0.00190849,0.00295638,0.00313053,-0.003643,0.530581,0.00391442,0.0188104,888,1632,2.18795,-33.6053
-329,-608,2.14337,34.2076,0.00205262,-0.0010959,0.00294518,0.00381788,-0.00286116,0.539958,0.00386931,0.0167124,895,1632,2.14334,-34.2076
-322,-608,2.12366,34.7633,0.0025469,0.000136462,0.00302665,0.00459947,-0.00191611,0.595921,0.00386665,0.0162496,902,1632,2.12369,-34.7633
-315,-608,2.146,35.3126,0.00295819,0.00170133,0.0032492,0.00563918,-0.000979653,0.689873,0.00412496,0.0153523,909,1632,2.146,-35.3126
-308,-608,2.12537,35.8989,0.00343382,0.00372014,0.00352638,0.00710627,4.76975e-05,0.805685,0.00472169,0.0154811,916,1632,2.12535,-35.8989
-301,-608,2.10931,36.4612,0.00414027,0.00579456,0.00403271,0.00908408,0.000850756,0.88655,0.00579333,0.0116125,923,1632,2.10933,-36.4612
-294,-608,2.09186,37.0042,0.00506742,0.00797221,0.0048808,0.0116121,0.0014275,0.930013,0.00731218,0.0115027,930,1632,2.09183,-37.0041
-287,-608,2.04871,37.5928,0.00592844,0.0106059,0.00576708,0.0144904,0.00204391,0.97803,0.00905618,0.0108937,937,1632,2.04873,-37.5927
-280,-608,2.05878,38.141,0.00697439,0.0132272,0.00682759,0.0176101,0.00259143,1.0001,0.0109787,0.00879489,944,1632,2.05879,-38.141
-273,-608,2.04535,38.6962,0.00812224,0.0156778,0.00796972,0.0207197,0.00308025,1.00672,0.0129095,0.0111132,951,1632,2.04537,-38.6962
-266,-608,2.05731,39.2913,0.00925628,0.0180367,0.00920819,0.0238477,0.00344528,1.00784,0.0148835,0.0121535,958,1632,2.05732,-39.2912
-259,-608,2.09998,39.8661,0.0105271,0.0199368,0.0104958,0.0267341,0.00372985,0.996102,0.0167187,0.0160746,965,1632,2.09999,-39.8661
-252,-608,2.29993,40.386,0.0119706,0.0215019,0.0117309,0.0293982,0.00407431,0.978339,0.0183917,0.0334227,972,1632,2.29991,-40.386
-245,-608,2.62219,41.0806,0.0132419,0.0231311,0.012668,0.0317853,0.00458776,0.971466,0.0198386,0.0473017,979,1632,2.62222,-41.0806
-238,-608,2.22021,42.4103,0,0,0,0,0,0,0,-1,986,1632,2.22019,-42.4102
-231,-608,3.26025,27.5262,0,0,0,0,0,0,0,-1,993,1632,3.26023,-27.5263
-224,-608,2.51642,15.3452,0,0,0,0,0,0,0,-1,1000,1632,2.5164,-15.3452
-217,-608,1.04419,12.8451,0,0,0,0,0,0,0,-1,1007,1632,1.04418,-12.8451
-210,-608,2.75903,15.9414,0,0,0,0,0,0,0,-1,1014,1632,2.75903,-15.9414
-203,-608,2.76776,16.217,0,0,0,0,0,0,0,-1,1021,1632,2.76773,-16.217
-196,-608,1.53955,18.6058,0,0,0,0,0,0,0,-1,1028,1632,1.53959,-18.6058
-189,-608,1.37634,19.119,0,0,0,0,0,0,0,-1,1035,1632,1.37634,-19.1191
-182,-608,2.89221,16.7092,0,0,0,0,0,0,0,-1,1042,1632,2.89224,-16.7093
-175,-608,0.219116,15.1643,0,0,0,0,0,0,0,-1,1049,1632,0.219173,-15.1644
-168,-608,0.000366211,9.48645,0,0,0,0,0,0,0,-1,1056,1632,0.000317105,-9.48648
-161,-608,2.27832,15.4423,0,0,0,0,0,0,0,-1,1063,1632,2.27826,-15.4423
-154,-608,1.3999,16.4037,0,0,0,0,0,0,0,-1,1070,1632,1.39987,-16.4037
-147,-608,2.4386,9.50317,0,0,0,0,0,0,0,-1,1077,1632,2.43858,-9.50313
-140,-608,2.60132,10.8401,0,0,0,0,0,0,0,-1,1084,1632,2.60134,-10.8401
-133,-608,3.2312,12.4738,0,0,0,0,0,0,0,-1,1091,1632,3.23116,-12.4738
-126,-608,3.76465,13.9644,0,0,0,0,0,0,0,-1,1098,1632,3.76466,-13.9644
-119,-608,4.28906,15.4196,0,0,0,0,0,0,0,-1,1105,1632,4.28911,-15.4195
-112,-608,0.745117,10.5587,0,0,0,0,0,0,0,-1,1112,1632,0.745145,-10.5587
-105,-608,-0.252319,1.42419,0,0,0,0,0,0,0,-1,1119,1632,-0.252331,-1.42418
-98,-608,-2.8595,3.0863,0,0,0,0,0,0,0,-1,1126,1632,-2.85948,-3.08625
-91,-608,-3.71948,1.73608,0,0,0,0,0,0,0,-1,1133,1632,-3.7195,-1.73607
-84,-608,0,0,0,0,0,0,0,0,0,-1,1140,1632,0,0
-77,-608,0,0,0,0,0,0,0,0,0,-1,1147,1632,0,0
-70,-608,0,0,0,0,0,0,0,0,0,-1,1154,1632,0,0
-63,-608,0,0,0,0,0,0,0,0,0,-1,1161,1632,0,0
-56,-608,0,0,0,0,0,0,0,0,0,-1,1168,1632,0,0
-49,-608,0,0,0,0,0,0,0,0,0,-1,1175,1632,0,0
-42,-608,0,0,0,0,0,0,0,0,0,-1,1182,1632,0,0
-35,-608,0,0,0,0,0,0,0,0,0,-1,1189,1632,0,0
-28,-608,0,0,0,0,0,0,0,0,0,-1,1196,1632,0,0
-21,-608,0,0,0,0,0,0,0,0,0,-1,1203,1632,0,0
-14,-608,0,0,0,0,0,0,0,0,0,-1,1210,1632,0,0
-7,-608,0,0,0,0,0,0,0,0,0,-1,1217,1632,0,0
0,-608,0,0,0,0,0,0,0,0,0,-1,1224,1632,0,0
7,-608,0,0,0,0,0,0,0,0,0,-1,1231,1632,0,0
14,-608,0,0,0,0,0,0,0,0,0,-1,1238,1632,0,0
21,-608,0,0,0,0,0,0,0,0,0,-1,1245,1632,0,0
28,-608,0,0,0,0,0,0,0,0,0,-1,1252,1632,0,0
35,-608,0,0,0,0,0,0,0,0,0,-1,1259,1632,0,0
42,-608,0,0,0,0,0,0,0,0,0,-1,1266,1632,0,0
49,-608,0,0,0,0,0,0,0,0,0,-1,1273,1632,0,0
56,-608,0,0,0,0,0,0,0,0,0,-1,1280,1632,0,0
63,-608,0,0,0,0,0,0,0,0,0,-1,1287,1632,0,0
70,-608,0,0,0,0,0,0,0,0,0,-1,1294,1632,0,0
77,-608,0,0,0,0,0,0,0,0,0,-1,1301,1632,0,0
84,-608,0,0,0,0,0,0,0,0,0,-1,1308,1632,0,0
91,-608,0,0,0,0,0,0,0,0,0,-1,1315,1632,0,0
98,-608,0,0,0,0,0,0,0,0,0,-1,1322,1632,0,0
105,-608,0,0,0,0,0,0,0,0,0,-1,1329,1632,0,0
112,-608,0,0,0,0,0,0,0,0,0,-1,1336,1632,0,0
119,-608,0,0,0,0,0,0,0,0,0,-1,1343,1632,0,0
126,-608,0,0,0,0,0,0,0,0,0,-1,1350,1632,0,0
133,-608,0,0,0,0,0,0,0,0,0,-1,1357,1632,0,0
140,-608,0,0,0,0,0,0,0,0,0,-1,1364,1632,0,0
147,-608,0,0,0,0,0,0,0,0,0,-1,1371,1632,0,0
154,-608,0,0,0,0,0,0,0,0,0,-1,1378,1632,0,0
161,-608,0,0,0,0,0,0,0,0,0,-1,1385,1632,0,0
168,-608,0,0,0,0,0,0,0,0,0,-1,1392,1632,0,0
175,-608,0,0,0,0,0,0,0,0,0,-1,1399,1632,0,0
182,-608,0,0,0,0,0,0,0,0,0,-1,1406,1632,0,0
189,-608,0,0,0,0,0,0,0,0,0,-1,1413,1632,0,0
196,-608,0,0,0,0,0,0,0,0,0,-1,1420,1632,0,0
203,-608,0,0,0,0,0,0,0,0,0,-1,1427,1632,0,0
210,-608,5.7157,-0.333008,0,0,0,0,0,0,0,-1,1434,1632,5.71566,0.333004
217,-608,4.49402,-0.831787,0,0,0,0,0,0,0,-1,1441,1632,4.49396,0.831738
224,-608,4.18018,-1.11792,0,0,0,0,0,0,0,-1,1448,1632,4.1802,1.11796
231,-608,0.361816,0.825195,0,0,0,0,0,0,0,-1,1455,1632,0.36185,-0.825226
238,-608,2.85388,-0.28833,0,0,0,0,0,0,0,-1,1462,1632,2.85391,0.288282
245,-608,3.87537,4.02173,0,0,0,0,0,0,0,-1,1469,1632,3.87538,-4.02168
252,-608,5.66956,3.5282,0,0,0,0,0,0,0,-1,1476,1632,5.6696,-3.52815
259,-608,7.47437,3.07178,0,0,0,0,0,0,0,-1,1483,1632,7.4744,-3.07172
266,-608,9.46936,2.34766,0,0,0,0,0,0,0,-1,1490,1632,9.46932,-2.34764
273,-608,6.03003,3.34241,0,0,0,0,0,0,0,-1,1497,1632,6.02997,-3.34245
280,-608,5.72461,2.0769,0,0,0,0,0,0,0,-1,1504,1632,5.72457,-2.07688
287,-608,6.20581,3.59338,0,0,0,0,0,0,0,-1,1511,1632,6.20585,-3.59341
294,-608,6.94922,5.17151,0,0,0,0,0,0,0,-1,1518,1632,6.94925,-5.17151
301,-608,7.60083,6.68018,0,0,0,0,0,0,0,-1,1525,1632,7.60086,-6.68013
308,-608,7.64746,9.93848,0,0,0,0,0,0,0,-1,1532,1632,7.64745,-9.93842
315,-608,5.30688,11.2054,0,0,0,0,0,0,0,-1,1539,1632,5.30694,-11.2054
322,-608,5.32617,13.7581,0,0,0,0,0,0,0,-1,1546,1632,5.32613,-13.758
329,-608,7.12231,13.9607,0,0,0,0,0,0,0,-1,1553,1632,7.12231,-13.9607
336,-608,5.48633,7.82446,0,0,0,0,0,0,0,-1,1560,1632,5.48634,-7.82446
343,-608,5.47192,5.61047,0,0,0,0,0,0,0,-1,1567,1632,5.47192,-5.61045
350,-608,11.6957,1.71387,0,0,0,0,0,0,0,-1,1574,1632,11.6957,-1.71388
357,-608,3.77002,5.10046,0,0,0,0,0,0,0,-1,1581,1632,3.77002,-5.10043
364,-608,15.0343,43.9663,0,0,0,0,0,0,0,-1,1588,1632,15.0343,-43.9664
371,-608,15.3806,42.808,0.0268256,0.0386425,-0.0273095,0.0606754,0.00479272,-0.891933,0.0389511,0.0439733,1595,1632,15.3806,-42.8079
378,-608,15.8589,41.2286,0.0231611,0.0309858,-0.0228343,0.0502405,0.00390637,-0.870242,0.0322704,0.0384929,1602,1632,15.8589,-41.2286
385,-608,15.9976,40.4941,0.0195966,0.0248124,-0.0187651,0.04115,0.00325898,-0.854443,0.0264141,0.0326304,1609,1632,15.9975,-40.4942
392,-608,16.0721,39.9365,0.0162628,0.0197216,-0.0151765,0.0332669,0.00271745,-0.842129,0.0213299,0.0217414,1616,1632,16.0722,-39.9365
399,-608,16.1135,39.3273,0.0132531,0.0157631,-0.0120898,0.0266629,0.00235337,-0.837116,0.017045,0.0105173,1623,1632,16.1135,-39.3273
406,-608,16.1555,38.7896,0.0106557,0.0121103,-0.00956355,0.0209742,0.00179185,-0.823351,0.0134254,0.00994076,1630,1632,16.1555,-38.7896
413,-608,16.1451,38.2787,0.0085946,0.00996667,-0.00774842,0.0170594,0.0015019,-0.829552,0.0109068,0.0112582,1637,1632,16.1451,-38.2787
420,-608,16.0841,37.7531,0.00683973,0.00834745,-0.00629785,0.0139364,0.00125078,-0.844965,0.00890334,0.0192704,1644,1632,16.0841,-37.7531
427,-608,16.0824,37.2249,0.00498871,0.00647663,-0.00470637,0.0104975,0.000967858,-0.863787,0.00669904,0.019724,1651,1632,16.0824,-37.2249
434,-608,16.0836,36.6707,0.00370435,0.00558014,-0.00385313,0.00860788,0.000676605,-0.904782,0.00552688,0.0157307,1658,1632,16.0836,-36.6707
441,-608,16.0834,36.1339,0.00284493,0.00488657,-0.00333907,0.00735738,0.000374128,-0.933747,0.00478509,0.0137865,1665,1632,16.0834,-36.1339
448,-608,16.0848,35.6097,0.0021077,0.00405743,-0.00292486,0.00616561,-4.78933e-07,-0.94626,0.00411057,0.016141,1672,1632,16.0848,-35.6098
455,-608,16.0872,35.0144,0.00141684,0.00315126,-0.00253345,0.00496181,-0.000393711,-0.950299,0.00344662,0.0129603,1679,1632,16.0872,-35.0144
462,-608,16.0521,34.4463,0.000947163,0.00214506,-0.00221126,0.00383705,-0.000744833,-0.917656,0.00283907,0.0121782,1686,1632,16.0522,-34.4462
469,-608,16.0107,33.903,0.000600423,0.00112071,-0.00190275,0.00278102,-0.00105989,-0.853337,0.00229056,0.00931405,1693,1632,16.0107,-33.903
476,-608,15.9661,33.3394,0.000218314,0.000220379,-0.00154977,0.00176911,-0.00133042,-0.785731,0.00179548,0.00942653,1700,1632,15.9661,-33.3393
483,-608,15.9495,32.7563,-0.00021088,-0.000822864,-0.00130994,0.000828334,-0.00186208,-0.67066,0.00159107,0.0089967,1707,1632,15.9494,-32.7564
490,-608,15.9539,32.1677,-0.000711321,-0.00160097,-0.00102963,-3.45339e-05,-0.00227776,-0.581497,0.00150713,0.0101672,1714,1632,15.9539,-32.1678
497,-608,15.9688,31.5542,-0.00136175,-0.00245069,-0.000797035,-0.00094097,-0.00287147,-0.485747,0.00169034,0.0227466,1721,1632,15.9687,-31.5542
504,-608,16.0793,30.8584,0,0,0,0,0,0,0,-1,1728,1632,16.0793,-30.8584
511,-608,15.8062,30.6158,0,0,0,0,0,0,0,-1,1735,1632,15.8062,-30.6159
518,-608,15.8807,29.9321,0,0,0,0,0,0,0,-1,1742,1632,15.8808,-29.9321
525,-608,11.2109,16.2579,0,0,0,0,0,0,0,-1,1749,1632,11.2109,-16.2579
532,-608,8.27917,11.6693,0,0,0,0,0,0,0,-1,1756,1632,8.27919,-11.6694
539,-608,9.40796,1.43457,0,0,0,0,0,0,0,-1,1763,1632,9.40801,-1.43463
546,-608,9.94031,2.1134,0,0,0,0,0,0,0,-1,1770,1632,9.94031,-2.11346
553,-608,10.363,2.81335,0,0,0,0,0,0,0,-1,1777,1632,10.3631,-2.81333
560,-608,9.23999,4.5636,0,0,0,0,0,0,0,-1,1784,1632,9.24,-4.56354
567,-608,0,0,0,0,0,0,0,0,0,-1,1791,1632,0,0
574,-608,0,0,0,0,0,0,0,0,0,-1,1798,1632,0,0
581,-608,0,0,0,0,0,0,0,0,0,-1,1805,1632,0,0
588,-608,0,0,0,0,0,0,0,0,0,-1,1812,1632,0,0
595,-608,0,0,0,0,0,0,0,0,0,-1,1819,1632,0,0
602,-608,0,0,0,0,0,0,0,0,0,-1,1826,1632,0,0
609,-608,0,0,0,0,0,0,0,0,0,-1,1833,1632,0,0
616,-608,0,0,0,0,0,0,0,0,0,-1,1840,1632,0,0
623,-608,0,0,0,0,0,0,0,0,0,-1,1847,1632,0,0
630,-608,0,0,0,0,0,0,0,0,0,-1,1854,1632,0,0
637,-608,0,0,0,0,0,0,0,0,0,-1,1861,1632,0,0
644,-608,0,0,0,0,0,0,0,0,0,-1,1868,1632,0,0
651,-608,0,0,0,0,0,0,0,0,0,-1,1875,1632,0,0
658,-608,0,0,0,0,0,0,0,0,0,-1,1882,1632,0,0
665,-608,0,0,0,0,0,0,0,0,0,-1,1889,1632,0,0
672,-608,0,0,0,0,0,0,0,0,0,-1,1896,1632,0,0
679,-608,0,0,0,0,0,0,0,0,0,-1,1903,1632,0,0
686,-608,0,0,0,0,0,0,0,0,0,-1,1910,1632,0,0
693,-608,0,0,0,0,0,0,0,0,0,-1,1917,1632,0,0
700,-608,0,0,0,0,0,0,0,0,0,-1,1924,1632,0,0
707,-608,0,0,0,0,0,0,0,0,0,-1,1931,1632,0,0
714,-608,0,0,0,0,0,0,0,0,0,-1,1938,1632,0,0
721,-608,0,0,0,0,0,0,0,0,0,-1,1945,1632,0,0
728,-608,0,0,0,0,0,0,0,0,0,-1,1952,1632,0,0
735,-608,0,0,0,0,0,0,0,0,0,-1,1959,1632,0,0
742,-608,0,0,0,0,0,0,0,0,0,-1,1966,1632,0,0
749,-608,0,0,0,0,0,0,0,0,0,-1,1973,1632,0,0
756,-608,0,0,0,0,0,0,0,0,0,-1,1980,1632,0,0
763,-608,0,0,0,0,0,0,0,0,0,-1,1987,1632,0,0
770,-608,0,0,0,0,0,0,0,0,0,-1,1994,1632,0,0
777,-608,0,0,0,0,0,0,0,0,0,-1,2001,1632,0,0
784,-608,0,0,0,0,0,0,0,0,0,-1,2008,1632,0,0
791,-608,0,0,0,0,0,0,0,0,0,-1,2015,1632,0,0
798,-608,0,0,0,0,0,0,0,0,0,-1,2022,1632,0,0
805,-608,0,0,0,0,0,0,0,0,0,-1,2029,1632,0,0
812,-608,0,0,0,0,0,0,0,0,0,-1,2036,1632,0,0
-700,-615,0,0,0,0,0,0,0,0,0,-1,524,1639,0,0
-693,-615,0,0,0,0,0,0,0,0,0,-1,531,1639,0,0
-686,-615,0,0,0,0,0,0,0,0,0,-1,538,1639,0,0
-679,-615,0,0,0,0,0,0,0,0,0,-1,545,1639,0,0
-672,-615,0,0,0,0,0,0,0,0,0,-1,552,1639,0,0
-665,-615,0,0,0,0,0,0,0,0,0,-1,559,1639,0,0
-658,-615,0,0,0,0,0,0,0,0,0,-1,566,1639,0,0
-651,-615,0,0,0,0,0,0,0,0,0,-1,573,1639,0,0
-644,-615,0,0,0,0,0,0,0,0,0,-1,580,1639,0,0
-637,-615,0,0,0,0,0,0,0,0,0,-1,587,1639,0,0
-630,-615,0,0,0,0,0,0,0,0,0,-1,594,1639,0,0
-623,-615,0,0,0,0,0,0,0,0,0,-1,601,1639,0,0
-616,-615,0,0,0,0,0,0,0,0,0,-1,608,1639,0,0
-609,-615,0,0,0,0,0,0,0,0,0,-1,615,1639,0,0
-602,-615,0,0,0,0,0,0,0,0,0,-1,622,1639,0,0
-595,-615,0,0,0,0,0,0,0,0,0,-1,629,1639,0,0
-588,-615,0,0,0,0,0,0,0,0,0,-1,636,1639,0,0
-581,-615,0,0,0,0,0,0,0,0,0,-1,643,1639,0,0
-574,-615,0,0,0,0,0,0,0,0,0,-1,650,1639,0,0
-567,-615,0,0,0,0,0,0,0,0,0,-1,657,1639,0,0
-560,-615,0,0,0,0,0,0,0,0,0,-1,664,1639,0,0
-553,-615,0,0,0,0,0,0,0,0,0,-1,671,1639,0,0
-546,-615,0,0,0,0,0,0,0,0,0,-1,678,1639,0,0
-539,-615,0,0,0,0,0,0,0,0,0,-1,685,1639,0,0
-532,-615,0,0,0,0,0,0,0,0,0,-1,692,1639,0,0
-525,-615,0,0,0,0,0,0,0,0,0,-1,699,1639,0,0
-518,-615,0,0,0,0,0,0,0,0,0,-1,706,1639,0,0
-511,-615,0,0,0,0,0,0,0,0,0,-1,713,1639,0,0
-504,-615,0,0,0,0,0,0,0,0,0,-1,720,1639,0,0
-497,-615,0,0,0,0,0,0,0,0,0,-1,727,1639,0,0
-490,-615,0,0,0,0,0,0,0,0,0,-1,734,1639,0,0
-483,-615,0,0,0,0,0,0,0,0,0,-1,741,1639,0,0
-476,-615,0,0,0,0,0,0,0,0,0,-1,748,1639,0,0
-469,-615,0,0,0,0,0,0,0,0,0,-1,755,1639,0,0
-462,-615,0,0,0,0,0,0,0,0,0,-1,762,1639,0,0
-455,-615,0,0,0,0,0,0,0,0,0,-1,769,1639,0,0
-448,-615,0,0,0,0,0,0,0,0,0,-1,776,1639,0,0
-441,-615,0,0,0,0,0,0,0,0,0,-1,783,1639,0,0
-434,-615,-7.64508,2.98596,0,0,0,0,0,0,0,-1,790,1639,-7.64505,-2.98594
-427,-615,-9.0011,2.89404,0,0,0,0,0,0,0,-1,797,1639,-9.00107,-2.89399
-420,-615,-8.07568,3.0752,0,0,0,0,0,0,0,-1,804,1639,-8.07569,-3.07514
-413,-615,-7.09149,3.396,0,0,0,0,0,0,0,-1,811,1639,-7.09147,-3.39599
-406,-615,-6.21368,3.7312,0,0,0,0,0,0,0,-1,818,1639,-6.21366,-3.73114
-399,-615,-4.84875,3.91907,0,0,0,0,0,0,0,-1,825,1639,-4.84877,-3.91901
-392,-615,1.7395,13.3127,0,0,0,0,0,0,0,-1,832,1639,1.73953,-13.3128
-385,-615,3.42297,14.9401,0,0,0,0,0,0,0,-1,839,1639,3.42296,-14.94
-378,-615,3.13977,29.6731,0,0,0,0,0,0,0,-1,846,1639,3.13975,-29.6731
-371,-615,3.09442,30.1963,0,0,0,0,0,0,0,-1,853,1639,3.09443,-30.1962
-364,-615,2.89886,31.1594,-0.00157386,-0.00399488,0.00518194,0.00253708,-0.00810582,0.670655,0.00641894,0.0393423,860,1639,2.89886,-31.1594
-357,-615,2.93005,31.9374,-0.000334697,-0.00501353,0.0051627,0.00299389,-0.00834212,0.572668,0.00678331,0.037887,867,1639,2.93007,-31.9374
-350,-615,2.83112,32.4406,0.000624187,-0.00523497,0.00492235,0.00342279,-0.00803357,0.516972,0.00679054,0.031683,874,1639,2.8311,-32.4406
-343,-615,2.81366,32.9392,0.00131242,-0.00509494,0.00464994,0.00375546,-0.00753798,0.483755,0.00664106,0.0212557,881,1639,2.81367,-32.9392
-336,-615,2.80029,33.5676,0.00177496,-0.00475124,0.00432094,0.0039265,-0.00690278,0.461993,0.00633051,0.0120096,888,1639,2.80031,-33.5676
-329,-615,2.74957,34.1758,0.00227665,-0.00420088,0.00405082,0.00422428,-0.00614851,0.44817,0.00602298,0.0115606,895,1639,2.74958,-34.1757
-322,-615,2.72559,34.7803,0.00259728,-0.00308489,0.00386771,0.00455525,-0.00504286,0.468624,0.00554386,0.0122609,902,1639,2.72559,-34.7803
-315,-615,2.73145,35.3774,0.00280437,-0.00166337,0.00377076,0.00495328,-0.00381229,0.517985,0.00507508,0.0149272,909,1639,2.73144,-35.3774
-308,-615,2.68152,35.9551,0.00305872,0.000195495,0.00370031,0.0055947,-0.00234048,0.600821,0.00470805,0.0217542,916,1639,2.68154,-35.9551
-301,-615,2.68353,36.486,0.00348328,0.00220335,0.00382271,0.00671923,-0.00103259,0.702461,0.00486038,0.0135447,923,1639,2.68351,-36.4859
-294,-615,2.67499,37.0406,0.00411117,0.00426741,0.00423927,0.00842928,-5.07063e-05,0.794611,0.0056365,0.0111087,930,1639,2.675,-37.0407
-287,-615,2.6236,37.6135,0.004643,0.00664985,0.00466076,0.010414,0.000878874,0.891425,0.00666902,0.00806434,937,1639,2.6236,-37.6136
-280,-615,2.61804,38.1688,0.00535724,0.00899,0.00524416,0.0127234,0.00162381,0.952114,0.00799617,0.00924611,944,1639,2.61807,-38.1688
-273,-615,2.59906,38.7266,0.00617161,0.0110777,0.00590302,0.0150171,0.00223224,0.982322,0.00935651,0.0121914,951,1639,2.59908,-38.7266
-266,-615,2.57727,39.2682,0.006999,0.0130506,0.00664124,0.0173228,0.00272674,0.99915,0.0107555,0.0130171,958,1639,2.57725,-39.2681
-259,-615,2.59027,39.7964,0.00794236,0.0145698,0.00750505,0.0194602,0.00305204,0.993294,0.0120852,0.0138291,965,1639,2.59027,-39.7964
-252,-615,2.61365,40.4015,0.00907304,0.0156822,0.0083482,0.021356,0.00339915,0.973856,0.0132505,0.0189722,972,1639,2.61363,-40.4015
-245,-615,2.75336,41.1326,0.0102072,0.016652,0.00894198,0.0229345,0.00392469,0.95834,0.0141638,0.0321674,979,1639,2.75334,-41.1325
-238,-615,2.69922,41.7869,0.0111607,0.0172874,0.00921135,0.0239314,0.00451671,0.945925,0.0146822,0.0443383,986,1639,2.6992,-41.7869
-231,-615,2.71802,42.4584,0,0,0,0,0,0,0,-1,993,1639,2.718,-42.4584
-224,-615,2.96344,42.4385,0,0,0,0,0,0,0,-1,1000,1639,2.96346,-42.4385
-217,-615,3.99097,27.3737,0,0,0,0,0,0,0,-1,1007,1639,3.99096,-27.3736
-210,-615,2.48901,18.9324,0,0,0,0,0,0,0,-1,1014,1639,2.48902,-18.9323
-203,-615,2.13684,18.6173,0,0,0,0,0,0,0,-1,1021,1639,2.13683,-18.6173
-196,-615,4.27161,21.3264,0,0,0,0,0,0,0,-1,1028,1639,4.27165,-21.3264
-189,-615,1.8269,19.6761,0,0,0,0,0,0,0,-1,1035,1639,1.82691,-19.6761
-182,-615,1.63489,20.2278,0,0,0,0,0,0,0,-1,1042,1639,1.63492,-20.2277
-175,-615,-0.609985,13.8434,0,0,0,0,0,0,0,-1,1049,1639,-0.610016,-13.8434
-168,-615,3.85754,15.472,0,0,0,0,0,0,0,-1,1056,1639,3.85757,-15.472
-161,-615,2.14307,46.5156,0,0,0,0,0,0,0,-1,1063,1639,2.14303,-46.5156
-154,-615,1.37329,47.9545,0,0,0,0,0,0,0,-1,1070,1639,1.37327,-47.9545
-147,-615,0.0180664,48.1396,0,0,0,0,0,0,0,-1,1077,1639,0.0180157,-48.1397
-140,-615,3.73401,10.2349,0,0,0,0,0,0,0,-1,1084,1639,3.73402,-10.2348
-133,-615,2.6178,17.45,0,0,0,0,0,0,0,-1,1091,1639,2.61776,-17.4499
-126,-615,4.43408,12.5017,0,0,0,0,0,0,0,-1,1098,1639,4.43403,-12.5018
-119,-615,4.82983,13.9279,0,0,0,0,0,0,0,-1,1105,1639,4.82986,-13.9278
-112,-615,3.65698,14.4874,0,0,0,0,0,0,0,-1,1112,1639,3.65695,-14.4875
-105,-615,0.958496,2.45398,0,0,0,0,0,0,0,-1,1119,1639,0.958452,-2.45398
-98,-615,-0.647705,2.12109,0,0,0,0,0,0,0,-1,1126,1639,-0.647756,-2.12105
-91,-615,-3.07983,2.97375,0,0,0,0,0,0,0,-1,1133,1639,-3.07989,-2.97376
-84,-615,-2.46509,0.703247,0,0,0,0,0,0,0,-1,1140,1639,-2.46505,-0.703273
-77,-615,-3.17859,1.23755,0,0,0,0,0,0,0,-1,1147,1639,-3.17865,-1.23752
-70,-615,-4.03943,1.43335,0,0,0,0,0,0,0,-1,1154,1639,-4.03942,-1.43339
-63,-615,-4.8877,1.45544,0,0,0,0,0,0,0,-1,1161,1639,-4.88766,-1.45549
-56,-615,0,0,0,0,0,0,0,0,0,-1,1168,1639,0,0
-49,-615,0,0,0,0,0,0,0,0,0,-1,1175,1639,0,0
-42,-615,0,0,0,0,0,0,0,0,0,-1,1182,1639,0,0
-35,-615,0,0,0,0,0,0,0,0,0,-1,1189,1639,0,0
-28,-615,0,0,0,0,0,0,0,0,0,-1,1196,1639,0,0
-21,-615,0,0,0,0,0,0,0,0,0,-1,1203,1639,0,0
-14,-615,0,0,0,0,0,0,0,0,0,-1,1210,1639,0,0
-7,-615,0,0,0,0,0,0,0,0,0,-1,1217,1639,0,0
0,-615,0,0,0,0,0,0,0,0,0,-1,1224,1639,0,0
7,-615,0,0,0,0,0,0,0,0,0,-1,1231,1639,0,0
14,-615,0,0,0,0,0,0,0,0,0,-1,1238,1639,0,0
21,-615,0,0,0,0,0,0,0,0,0,-1,1245,1639,0,0
28,-615,0,0,0,0,0,0,0,0,0,-1,1252,1639,0,0
35,-615,0,0,0,0,0,0,0,0,0,-1,1259,1639,0,0
42,-615,0,0,0,0,0,0,0,0,0,-1,1266,1639,0,0
49,-615,0,0,0,0,0,0,0,0,0,-1,1273,1639,0,0
56,-615,0,0,0,0,0,0,0,0,0,-1,1280,1639,0,0
63,-615,0,0,0,0,0,0,0,0,0,-1,1287,1639,0,0
70,-615,0,0,0,0,0,0,0,0,0,-1,1294,1639,0,0
77,-615,0,0,0,0,0,0,0,0,0,-1,1301,1639,0,0
84,-615,0,0,0,0,0,0,0,0,0,-1,1308,1639,0,0
91,-615,0,0,0,0,0,0,0,0,0,-1,1315,1639,0,0
98,-615,0,0,0,0,0,0,0,0,0,-1,1322,1639,0,0
105,-615,0,0,0,0,0,0,0,0,0,-1,1329,1639,0,0
112,-615,0,0,0,0,0,0,0,0,0,-1,1336,1639,0,0
119,-615,0,0,0,0,0,0,0,0,0,-1,1343,1639,0,0
126,-615,0,0,0,0,0,0,0,0,0,-1,1350,1639,0,0
133,-615,0,0,0,0,0,0,0,0,0,-1,1357,1639,0,0
140,-615,0,0,0,0,0,0,0,0,0,-1,1364,1639,0,0
147,-615,0,0,0,0,0,0,0,0,0,-1,1371,1639,0,0
154,-615,0,0,0,0,0,0,0,0,0,-1,1378,1639,0,0
161,-615,0,0,0,0,0,0,0,0,0,-1,1385,1639,0,0
168,-615,0,0,0,0,0,0,0,0,0,-1,1392,1639,0,0
175,-615,5.39648,-2.00879,0,0,0,0,0,0,0,-1,1399,1639,5.3965,2.00881
182,-615,5.65393,-1.51025,0,0,0,0,0,0,0,-1,1406,1639,5.65388,1.51028
189,-615,5.58972,-1.35608,0,0,0,0,0,0,0,-1,1413,1639,5.58967,1.35607
196,-615,5.49915,-0.693604,0,0,0,0,0,0,0,-1,1420,1639,5.4991,0.693602
203,-615,5.33411,-0.226685,0,0,0,0,0,0,0,-1,1427,1639,5.33414,0.226689
210,-615,5.60278,0.108276,0,0,0,0,0,0,0,-1,1434,1639,5.60284,-0.10831
217,-615,6.26331,-0.307373,0,0,0,0,0,0,0,-1,1441,1639,6.26331,0.307372
224,-615,5.45422,-0.333984,0,0,0,0,0,0,0,-1,1448,1639,5.45422,0.333992
231,-615,4.92542,1.80298,0,0,0,0,0,0,0,-1,1455,1639,4.92537,-1.80297
238,-615,4.76355,1.96729,0,0,0,0,0,0,0,-1,1462,1639,4.76357,-1.96734
245,-615,4.08643,3.15906,0,0,0,0,0,0,0,-1,1469,1639,4.08638,-3.159
252,-615,6.37805,3.73889,0,0,0,0,0,0,0,-1,1476,1639,6.37806,-3.73891
259,-615,8.35974,3.16443,0,0,0,0,0,0,0,-1,1483,1639,8.35975,-3.16444
266,-615,10.3414,2.58997,0,0,0,0,0,0,0,-1,1490,1639,10.3414,-2.58996
273,-615,6.57043,1.84766,0,0,0,0,0,0,0,-1,1497,1639,6.5704,-1.84771
280,-615,7.10449,3.23438,0,0,0,0,0,0,0,-1,1504,1639,7.10447,-3.23435
287,-615,7.35779,4.68542,0,0,0,0,0,0,0,-1,1511,1639,7.35776,-4.68546
294,-615,7.63733,6.29114,0,0,0,0,0,0,0,-1,1518,1639,7.63735,-6.29109
301,-615,8.47925,11.452,0,0,0,0,0,0,0,-1,1525,1639,8.47922,-11.452
308,-615,6.8114,10.9059,0,0,0,0,0,0,0,-1,1532,1639,6.81137,-10.9058
315,-615,5.1427,14.7251,0,0,0,0,0,0,0,-1,1539,1639,5.14269,-14.7251
322,-615,7.17981,17.6864,0,0,0,0,0,0,0,-1,1546,1639,7.17985,-17.6864
329,-615,7.62134,20.4354,0,0,0,0,0,0,0,-1,1553,1639,7.62139,-20.4354
336,-615,6.45007,14.1138,0,0,0,0,0,0,0,-1,1560,1639,6.45011,-14.1138
343,-615,2.40491,6.50134,0,0,0,0,0,0,0,-1,1567,1639,2.40489,-6.50137
350,-615,15.5283,44.6056,0,0,0,0,0,0,0,-1,1574,1639,15.5284,-44.6056
357,-615,15.6946,43.2667,0,0,0,0,0,0,0,-1,1581,1639,15.6946,-43.2667
364,-615,15.4962,42.4611,0,0,0,0,0,0,0,-1,1588,1639,15.4962,-42.4611
371,-615,15.3081,41.9636,0.0205564,0.0313105,-0.0207758,0.0473937,0.00447314,-0.912026,0.0302153,0.0372382,1595,1639,15.3081,-41.9636
378,-615,15.5961,40.9518,0.0178043,0.0253062,-0.0174945,0.0394474,0.00366309,-0.891003,0.0251662,0.0201796,1602,1639,15.5961,-40.9518
385,-615,15.5751,40.3583,0.0150877,0.0202473,-0.0144503,0.0323463,0.0029887,-0.873733,0.0206402,0.0122319,1609,1639,15.575,-40.3583
392,-615,15.6067,39.8262,0.0125295,0.0160133,-0.0117061,0.0261063,0.00243643,-0.859257,0.0166516,0.0108679,1616,1639,15.6067,-39.8262
399,-615,15.6056,39.2982,0.0102277,0.012586,-0.00931862,0.0207998,0.0020139,-0.848332,0.0132463,0.011547,1623,1639,15.6056,-39.2982
406,-615,15.6074,38.8121,0.0082216,0.00942063,-0.00735177,0.0161973,0.00144494,-0.826082,0.0103502,0.0115189,1630,1639,15.6074,-38.8122
413,-615,15.603,38.3091,0.00667348,0.00750844,-0.00594866,0.0130543,0.00112767,-0.820431,0.00835236,0.0133308,1637,1639,15.603,-38.309
420,-615,15.5831,37.7628,0.00537907,0.00610628,-0.00484712,0.0106034,0.000881939,-0.822836,0.00679407,0.0150857,1644,1639,15.5831,-37.7628
427,-615,15.569,37.2343,0.00396122,0.00452662,-0.00363082,0.00788573,0.000602105,-0.82425,0.00506839,0.0158314,1651,1639,15.5689,-37.2342
434,-615,15.5464,36.702,0.00300108,0.00384434,-0.00305612,0.00650778,0.00033764,-0.853947,0.00423047,0.0145222,1658,1639,15.5464,-36.7021
441,-615,15.5514,36.1403,0.00236834,0.00333713,-0.00276552,0.00566036,4.51137e-05,-0.872096,0.00375863,0.0144574,1665,1639,15.5514,-36.1403
448,-615,15.5367,35.6068,0.00182647,0.00268286,-0.00253128,0.0048219,-0.000312572,-0.869185,0.0033237,0.0156524,1672,1639,15.5367,-35.6068
455,-615,15.5214,35.0513,0.00134826,0.00203093,-0.00235503,0.00406924,-0.000690041,-0.857366,0.00296968,0.0153017,1679,1639,15.5213,-35.0513
462,-615,15.4928,34.4957,0.00100237,0.00128736,-0.00219947,0.00334894,-0.00105922,-0.817746,0.00265703,0.0154835,1686,1639,15.4928,-34.4957
469,-615,15.4695,33.9205,0.000698113,0.000456004,-0.00202095,0.00260163,-0.00144752,-0.755484,0.00236922,0.0126013,1693,1639,15.4695,-33.9206
476,-615,15.4263,33.3341,0.000337841,-0.000303677,-0.00176682,0.00181278,-0.00177862,-0.695603,0.00207352,0.0116664,1700,1639,15.4263,-33.3341
483,-615,15.4468,32.687,-7.53674e-05,-0.00121222,-0.00160787,0.0010616,-0.00234919,-0.615492,0.00201545,0.025866,1707,1639,15.4468,-32.687
490,-615,15.441,32.1437,-0.000725068,-0.00178794,-0.00138545,0.000227375,-0.00274039,-0.60226,0.00190724,0.0408979,1714,1639,15.441,-32.1437
497,-615,15.358,31.7333,-0.00168024,-0.002572,-0.0010656,-0.000970996,-0.00328125,-0.58725,0.00194632,0.049434,1721,1639,15.3581,-31.7333
504,-615,15.389,31.2102,0,0,0,0,0,0,0,-1,1728,1639,15.389,-31.2102
511,-615,15.2349,30.2052,0,0,0,0,0,0,0,-1,1735,1639,15.2348,-30.2052
518,-615,13.2416,9.81812,0,0,0,0,0,0,0,-1,1742,1639,13.2416,-9.81813
525,-615,4.37524,3.90491,0,0,0,0,0,0,0,-1,1749,1639,4.37518,-3.90495
532,-615,7.3645,0.848145,0,0,0,0,0,0,0,-1,1756,1639,7.36451,-0.848093
539,-615,12.8112,-0.0476074,0,0,0,0,0,0,0,-1,1763,1639,12.8111,0.0475553
546,-615,8.33813,2.94556,0,0,0,0,0,0,0,-1,1770,1639,8.33813,-2.9455
553,-615,5.82532,-2.04199,0,0,0,0,0,0,0,-1,1777,1639,5.82534,2.04195
560,-615,0,0,0,0,0,0,0,0,0,-1,1784,1639,0,0
567,-615,0,0,0,0,0,0,0,0,0,-1,1791,1639,0,0
574,-615,0,0,0,0,0,0,0,0,0,-1,1798,1639,0,0
581,-615,0,0,0,0,0,0,0,0,0,-1,1805,1639,0,0
588,-615,0,0,0,0,0,0,0,0,0,-1,1812,1639,0,0
595,-615,0,0,0,0,0,0,0,0,0,-1,1819,1639,0,0
602,-615,0,0,0,0,0,0,0,0,0,-1,1826,1639,0,0
609,-615,0,0,0,0,0,0,0,0,0,-1,1833,1639,0,0
616,-615,0,0,0,0,0,0,0,0,0,-1,1840,1639,0,0
623,-615,0,0,0,0,0,0,0,0,0,-1,1847,1639,0,0
630,-615,0,0,0,0,0,0,0,0,0,-1,1854,1639,0,0
637,-615,0,0,0,0,0,0,0,0,0,-1,1861,1639,0,0
644,-615,0,0,0,0,0,0,0,0,0,-1,1868,1639,0,0
651,-615,0,0,0,0,0,0,0,0,0,-1,1875,1639,0,0
658,-615,0,0,0,0,0,0,0,0,0,-1,1882,1639,0,0
665,-615,0,0,0,0,0,0,0,0,0,-1,1889,1639,0,0
672,-615,0,0,0,0,0,0,0,0,0,-1,1896,1639,0,0
679,-615,0,0,0,0,0,0,0,0,0,-1,1903,1639,0,0
686,-615,0,0,0,0,0,0,0,0,0,-1,1910,1639,0,0
693,-615,0,0,0,0,0,0,0,0,0,-1,1917,1639,0,0
700,-615,0,0,0,0,0,0,0,0,0,-1,1924,1639,0,0
707,-615,0,0,0,0,0,0,0,0,0,-1,1931,1639,0,0
714,-615,0,0,0,0,0,0,0,0,0,-1,1938,1639,0,0
721,-615,0,0,0,0,0,0,0,0,0,-1,1945,1639,0,0
728,-615,0,0,0,0,0,0,0,0,0,-1,1952,1639,0,0
735,-615,0,0,0,0,0,0,0,0,0,-1,1959,1639,0,0
742,-615,0,0,0,0,0,0,0,0,0,-1,1966,1639,0,0
749,-615,0,0,0,0,0,0,0,0,0,-1,1973,1639,0,0
756,-615,0,0,0,0,0,0,0,0,0,-1,1980,1639,0,0
763,-615,0,0,0,0,0,0,0,0,0,-1,1987,1639,0,0
770,-615,0,0,0,0,0,0,0,0,0,-1,1994,1639,0,0
777,-615,0,0,0,0,0,0,0,0,0,-1,2001,1639,0,0
784,-615,0,0,0,0,0,0,0,0,0,-1,2008,1639,0,0
791,-615,0,0,0,0,0,0,0,0,0,-1,2015,1639,0,0
798,-615,0,0,0,0,0,0,0,0,0,-1,2022,1639,0,0
805,-615,0,0,0,0,0,0,0,0,0,-1,2029,1639,0,0
812,-615,0,0,0,0,0,0,0,0,0,-1,2036,1639,0,0
-700,-622,0,0,0,0,0,0,0,0,0,-1,524,1646,0,0
-693,-622,0,0,0,0,0,0,0,0,0,-1,531,1646,0,0
-686,-622,0,0,0,0,0,0,0,0,0,-1,538,1646,0,0
-679,-622,0,0,0,0,0,0,0,0,0,-1,545,1646,0,0
-672,-622,0,0,0,0,0,0,0,0,0,-1,552,1646,0,0
-665,-622,0,0,0,0,0,0,0,0,0,-1,559,1646,0,0
-658,-622,0,0,0,0,0,0,0,0,0,-1,566,1646,0,0
-651,-622,0,0,0,0,0,0,0,0,0,-1,573,1646,0,0
-644,-622,0,0,0,0,0,0,0,0,0,-1,580,1646,0,0
-637,-622,0,0,0,0,0,0,0,0,0,-1,587,1646,0,0
-630,-622,0,0,0,0,0,0,0,0,0,-1,594,1646,0,0
-623,-622,0,0,0,0,0,0,0,0,0,-1,601,1646,0,0
-616,-622,0,0,0,0,0,0,0,0,0,-1,608,1646,0,0
-609,-622,0,0,0,0,0,0,0,0,0,-1,615,1646,0,0
-602,-622,0,0,0,0,0,0,0,0,0,-1,622,1646,0,0
-595,-622,0,0,0,0,0,0,0,0,0,-1,629,1646,0,0
-588,-622,0,0,0,0,0,0,0,0,0,-1,636,1646,0,0
-581,-622,0,0,0,0,0,0,0,0,0,-1,643,1646,0,0
-574,-622,0,0,0,0,0,0,0,0,0,-1,650,1646,0,0
-567,-622,0,0,0,0,0,0,0,0,0,-1,657,1646,0,0
-560,-622,0,0,0,0,0,0,0,0,0,-1,664,1646,0,0
-553,-622,0,0,0,0,0,0,0,0,0,-1,671,1646,0,0
-546,-622,0,0,0,0,0,0,0,0,0,-1,678,1646,0,0
-539,-622,0,0,0,0,0,0,0,0,0,-1,685,1646,0,0
-532,-622,0,0,0,0,0,0,0,0,0,-1,692,1646,0,0
-525,-622,0,0,0,0,0,0,0,0,0,-1,699,1646,0,0
-518,-622,0,0,0,0,0,0,0,0,0,-1,706,1646,0,0
-511,-622,0,0,0,0,0,0,0,0,0,-1,713,1646,0,0
-504,-622,0,0,0,0,0,0,0,0,0,-1,720,1646,0,0
-497,-622,0,0,0,0,0,0,0,0,0,-1,727,1646,0,0
-490,-622,0,0,0,0,0,0,0,0,0,-1,734,1646,0,0
-483,-622,0,0,0,0,0,0,0,0,0,-1,741,1646,0,0
-476,-622,0,0,0,0,0,0,0,0,0,-1,748,1646,0,0
-469,-622,0,0,0,0,0,0,0,0,0,-1,755,1646,0,0
-462,-622,0,0,0,0,0,0,0,0,0,-1,762,1646,0,0
-455,-622,0,0,0,0,0,0,0,0,0,-1,769,1646,0,0
-448,-622,0,0,0,0,0,0,0,0,0,-1,776,1646,0,0
-441,-622,0,0,0,0,0,0,0,0,0,-1,783,1646,0,0
-434,-622,0,0,0,0,0,0,0,0,0,-1,790,1646,0,0
-427,-622,-7.62891,3.48096,0,0,0,0,0,0,0,-1,797,1646,-7.62892,-3.48092
-420,-622,-9.35791,1.77185,0,0,0,0,0,0,0,-1,804,1646,-9.35789,-1.77183
-413,-622,-8.46075,1.96777,0,0,0,0,0,0,0,-1,811,1646,-8.46074,-1.96774
-406,-622,-4.44318,2.16858,0,0,0,0,0,0,0,-1,818,1646,-4.44315,-2.16859
-399,-622,-7.06976,1.51001,0,0,0,0,0,0,0,-1,825,1646,-7.06976,-1.51005
-392,-622,3.89551,5.85376,0,0,0,0,0,0,0,-1,832,1646,3.8955,-5.85379
-385,-622,2.00543,14.0448,0,0,0,0,0,0,0,-1,839,1646,2.00544,-14.0448
-378,-622,1.49036,15.3436,0,0,0,0,0,0,0,-1,846,1646,1.49033,-15.3436
-371,-622,3.01941,30.3768,0,0,0,0,0,0,0,-1,853,1646,3.01938,-30.3768
-364,-622,3.19098,31.0646,0,0,0,0,0,0,0,-1,860,1646,3.19098,-31.0646
-357,-622,3.56671,31.7681,0,0,0,0,0,0,0,-1,867,1646,3.56673,-31.7681
-350,-622,3.45184,32.4823,0.00196605,-0.00828638,0.00677152,0.00533286,-0.0116532,0.461407,0.0100306,0.0479358,874,1646,3.45183,-32.4823
-343,-622,3.3222,33.0507,0.00263709,-0.00825704,0.00631569,0.0055302,-0.0111501,0.429555,0.0098109,0.0258021,881,1646,3.32222,-33.0507
-336,-622,3.37427,33.6058,0.00297872,-0.00799645,0.00571269,0.00541252,-0.0104303,0.402747,0.00929849,0.0102937,888,1646,3.37425,-33.6059
-329,-622,3.33057,34.1816,0.00327558,-0.00760794,0.00509965,0.00529165,-0.009624,0.376478,0.0087318,0.00897737,895,1646,3.33057,-34.1817
-322,-622,3.30444,34.7781,0.00337858,-0.00655485,0.00459854,0.00518053,-0.0083568,0.373463,0.00788717,0.010292,902,1646,3.30442,-34.778
-315,-622,3.28766,35.3739,0.00334671,-0.00523861,0.00417255,0.00504046,-0.00693236,0.385606,0.00694122,0.0138492,909,1646,3.28764,-35.3739
-308,-622,3.27271,35.9423,0.00334244,-0.00349109,0.00378903,0.00502774,-0.00517639,0.418507,0.00589156,0.0142096,916,1646,3.27273,-35.9423
-301,-622,3.25616,36.5017,0.00344886,-0.00150746,0.00360477,0.00534513,-0.00340373,0.484266,0.00509244,0.0146777,923,1646,3.25618,-36.5017
-294,-622,3.22992,37.0752,0.00374052,0.000513605,0.00369891,0.00616256,-0.00190843,0.579739,0.00487077,0.0114447,930,1646,3.22992,-37.0752
-287,-622,3.19855,37.629,0.00392617,0.00275045,0.00381298,0.00719634,-0.000519717,0.708914,0.00497985,0.00807118,937,1646,3.19852,-37.6291
-280,-622,3.16559,38.1781,0.00428118,0.00493895,0.00409112,0.00871439,0.000505744,0.825507,0.00564856,0.00888078,944,1646,3.16559,-38.1781
-273,-622,3.15723,38.7148,0.00475205,0.00683725,0.00444811,0.0103633,0.00122599,0.900516,0.00653864,0.0144314,951,1646,3.15725,-38.7148
-266,-622,3.13208,39.2651,0.00528379,0.00862399,0.00487754,0.0121094,0.00179835,0.950345,0.00754528,0.0143422,958,1646,3.1321,-39.2651
-259,-622,3.13239,39.8372,0.00591856,0.0100796,0.00542441,0.0138088,0.00218936,0.968518,0.00856979,0.0123282,965,1646,3.13239,-39.8372
-252,-622,3.13782,40.3406,0.00671287,0.0111351,0.00594215,0.0152642,0.00258378,0.963514,0.00943356,0.0129865,972,1646,3.1378,-40.3406
-245,-622,3.18481,40.8616,0.00773944,0.0118019,0.0061913,0.0162867,0.00325468,0.943905,0.00995189,0.0121705,979,1646,3.18483,-40.8616
-238,-622,3.17853,41.3942,0.00853363,0.0122727,0.00628691,0.0169622,0.00384417,0.929919,0.0102694,0.0161671,986,1646,3.17855,-41.3942
-231,-622,3.26917,41.9946,0.00935888,0.0121937,0.00662941,0.0175556,0.00399706,0.890717,0.010625,0.0296714,993,1646,3.26915,-41.9946
-224,-622,3.32867,42.3804,0.0108362,0.0144341,0.00677071,0.0196408,0.00562951,0.915247,0.0116787,0.0440722,1000,1646,3.32867,-42.3804
-217,-622,3.3877,42.7769,0,0,0,0,0,0,0,-1,1007,1646,3.38769,-42.7768
-210,-622,3.87927,28.0903,0,0,0,0,0,0,0,-1,1014,1646,3.87925,-28.0903
-203,-622,4.21375,20.9574,0,0,0,0,0,0,0,-1,1021,1646,4.21375,-20.9574
-196,-622,4.18518,21.2491,0,0,0,0,0,0,0,-1,1028,1646,4.18521,-21.2491
-189,-622,4.98254,25.8979,0,0,0,0,0,0,0,-1,1035,1646,4.98255,-25.8979
-182,-622,2.21411,20.6752,0,0,0,0,0,0,0,-1,1042,1646,2.21416,-20.6751
-175,-622,3.39966,47.4795,0,0,0,0,0,0,0,-1,1049,1646,3.3996,-47.4795
-168,-622,3.61401,47.803,0,0,0,0,0,0,0,-1,1056,1646,3.61402,-47.803
-161,-622,4.19067,48.7421,0,0,0,0,0,0,0,-1,1063,1646,4.19069,-48.7421
-154,-622,4.00757,48.1962,0,0,0,0,0,0,0,-1,1070,1646,4.00753,-48.1962
-147,-622,1.85205,49.8027,0,0,0,0,0,0,0,-1,1077,1646,1.85208,-49.8027
-140,-622,0.546997,48.6783,0,0,0,0,0,0,0,-1,1084,1646,0.547022,-48.6784
-133,-622,3.09644,17.677,0,0,0,0,0,0,0,-1,1091,1646,3.09638,-17.677
-126,-622,3.5061,19.5251,0,0,0,0,0,0,0,-1,1098,1646,3.50616,-19.5252
-119,-622,4.06384,13.1715,0,0,0,0,0,0,0,-1,1105,1646,4.06379,-13.1716
-112,-622,4.33276,14.6605,0,0,0,0,0,0,0,-1,1112,1646,4.33281,-14.6605
-105,-622,0.306519,4.38159,0,0,0,0,0,0,0,-1,1119,1646,0.306536,-4.38159
-98,-622,-0.510376,3.5033,0,0,0,0,0,0,0,-1,1126,1646,-0.510393,-3.50324
-91,-622,-1.146,0.975952,0,0,0,0,0,0,0,-1,1133,1646,-1.14599,-0.97597
-84,-622,-2.04895,1.31787,0,0,0,0,0,0,0,-1,1140,1646,-2.0489,-1.31781
-77,-622,-1.80627,0.332275,0,0,0,0,0,0,0,-1,1147,1646,-1.80622,-0.33223
-70,-622,-3.65588,2.28149,0,0,0,0,0,0,0,-1,1154,1646,-3.65589,-2.28155
-63,-622,-2.49683,1.27087,0,0,0,0,0,0,0,-1,1161,1646,-2.49679,-1.27093
-56,-622,-2.44238,-0.575562,0,0,0,0,0,0,0,-1,1168,1646,-2.44242,0.575508
-49,-622,-2.41089,1.38818,0,0,0,0,0,0,0,-1,1175,1646,-2.41088,-1.38815
-42,-622,-2.71497,2.85242,0,0,0,0,0,0,0,-1,1182,1646,-2.71491,-2.85247
-35,-622,-3.0177,4.25842,0,0,0,0,0,0,0,-1,1189,1646,-3.01773,-4.25838
-28,-622,-0.896606,0.678833,0,0,0,0,0,0,0,-1,1196,1646,-0.89661,-0.678835
-21,-622,16.4141,36.2849,0,0,0,0,0,0,0,-1,1203,1646,16.4141,-36.285
-14,-622,9.30896,45.3215,0,0,0,0,0,0,0,-1,1210,1646,9.30899,-45.3215
-7,-622,9.65906,60.0006,0,0,0,0,0,0,0,-1,1217,1646,9.65905,-60.0007
0,-622,0,0,0,0,0,0,0,0,0,-1,1224,1646,0,0
7,-622,0,0,0,0,0,0,0,0,0,-1,1231,1646,0,0
14,-622,0,0,0,0,0,0,0,0,0,-1,1238,1646,0,0
21,-622,0,0,0,0,0,0,0,0,0,-1,1245,1646,0,0
28,-622,0,0,0,0,0,0,0,0,0,-1,1252,1646,0,0
35,-622,0,0,0,0,0,0,0,0,0,-1,1259,1646,0,0
42,-622,0,0,0,0,0,0,0,0,0,-1,1266,1646,0,0
49,-622,0,0,0,0,0,0,0,0,0,-1,1273,1646,0,0
56,-622,0,0,0,0,0,0,0,0,0,-1,1280,1646,0,0
63,-622,0,0,0,0,0,0,0,0,0,-1,1287,1646,0,0
70,-622,0,0,0,0,0,0,0,0,0,-1,1294,1646,0,0
77,-622,0,0,0,0,0,0,0,0,0,-1,1301,1646,0,0
84,-622,0,0,0,0,0,0,0,0,0,-1,1308,1646,0,0
91,-622,0,0,0,0,0,0,0,0,0,-1,1315,1646,0,0
98,-622,0,0,0,0,0,0,0,0,0,-1,1322,1646,0,0
105,-622,0,0,0,0,0,0,0,0,0,-1,1329,1646,0,0
112,-622,0,0,0,0,0,0,0,0,0,-1,1336,1646,0,0
119,-622,0,0,0,0,0,0,0,0,0,-1,1343,1646,0,0
126,-622,8.04163,49.9274,0,0,0,0,0,0,0,-1,1350,1646,8.04161,-49.9273
133,-622,6.93262,50.6796,0,0,0,0,0,0,0,-1,1357,1646,6.93258,-50.6796
140,-622,5.82861,51.1145,0,0,0,0,0,0,0,-1,1364,1646,5.8286,-51.1145
147,-622,4.62769,51.4435,0,0,0,0,0,0,0,-1,1371,1646,4.62773,-51.4435
154,-622,3.44043,52.036,0,0,0,0,0,0,0,-1,1378,1646,3.44038,-52.0361
161,-622,10.6884,6.46448,0,0,0,0,0,0,0,-1,1385,1646,10.6883,-6.46442
168,-622,12.2402,5.18091,0,0,0,0,0,0,0,-1,1392,1646,12.2403,-5.1809
175,-622,5.64355,-1.77075,0,0,0,0,0,0,0,-1,1399,1646,5.64351,1.77077
182,-622,5.88586,-1.32251,0,0,0,0,0,0,0,-1,1406,1646,5.88587,1.32256
189,-622,5.97986,-1.18005,0,0,0,0,0,0,0,-1,1413,1646,5.97986,1.18003
196,-622,5.85022,-0.244507,0,0,0,0,0,0,0,-1,1420,1646,5.85026,0.244478
203,-622,5.25159,0.138794,0,0,0,0,0,0,0,-1,1427,1646,5.25162,-0.138822
210,-622,6.66833,0.0397949,0,0,0,0,0,0,0,-1,1434,1646,6.6684,-0.0398278
217,-622,6.12061,0.0506592,0,0,0,0,0,0,0,-1,1441,1646,6.12058,-0.0507181
224,-622,5.57275,0.0616455,0,0,0,0,0,0,0,-1,1448,1646,5.57276,-0.0616084
231,-622,5.31348,1.3949,0,0,0,0,0,0,0,-1,1455,1646,5.31342,-1.39495
238,-622,3.76477,2.90686,0,0,0,0,0,0,0,-1,1462,1646,3.7648,-2.90686
245,-622,5.13794,2.67993,0,0,0,0,0,0,0,-1,1469,1646,5.13796,-2.67992
252,-622,6.66528,2.53992,0,0,0,0,0,0,0,-1,1476,1646,6.66522,-2.53991
259,-622,8.93787,3.31458,0,0,0,0,0,0,0,-1,1483,1646,8.93791,-3.31454
266,-622,5.72644,3.11926,0,0,0,0,0,0,0,-1,1490,1646,5.72647,-3.1192
273,-622,7.28076,3.61218,0,0,0,0,0,0,0,-1,1497,1646,7.28071,-3.61212
280,-622,8.43127,4.4447,0,0,0,0,0,0,0,-1,1504,1646,8.43123,-4.44467
287,-622,8.60315,5.94617,0,0,0,0,0,0,0,-1,1511,1646,8.60319,-5.94622
294,-622,7.62756,11.5143,0,0,0,0,0,0,0,-1,1518,1646,7.62762,-11.5143
301,-622,7.36548,11.6569,0,0,0,0,0,0,0,-1,1525,1646,7.36549,-11.6569
308,-622,7.10339,11.7994,0,0,0,0,0,0,0,-1,1532,1646,7.10335,-11.7995
315,-622,8.28687,16.5842,0,0,0,0,0,0,0,-1,1539,1646,8.28689,-16.5843
322,-622,7.43689,20.5786,0,0,0,0,0,0,0,-1,1546,1646,7.43685,-20.5786
329,-622,9.76477,26.4202,0,0,0,0,0,0,0,-1,1553,1646,9.7648,-26.4202
336,-622,10.4526,28.8552,0,0,0,0,0,0,0,-1,1560,1646,10.4526,-28.8552
343,-622,14.3196,43.9106,0,0,0,0,0,0,0,-1,1567,1646,14.3196,-43.9107
350,-622,14.9191,43.8977,0.0219049,0.0401612,-0.0222037,0.0550399,0.00702624,-0.980422,0.0345899,0.0435261,1574,1646,14.9191,-43.8977
357,-622,15.1589,42.8319,0.0194562,0.0346885,-0.0198184,0.0483038,0.00584085,-0.968846,0.0304429,0.038835,1581,1646,15.1589,-42.8319
364,-622,15.0615,42.1259,0.0174558,0.0297832,-0.0177396,0.0423994,0.00483956,-0.952601,0.0267991,0.0335401,1588,1646,15.0615,-42.1259
371,-622,15.0669,41.4424,0.0155407,0.0247145,-0.0154522,0.0362462,0.00400899,-0.929678,0.0229448,0.0211507,1595,1646,15.0669,-41.4424
378,-622,15.099,40.8813,0.0135173,0.0201176,-0.0131323,0.030358,0.00327686,-0.9085,0.0192397,0.0118366,1602,1646,15.099,-40.8814
385,-622,15.0868,40.3379,0.0115175,0.0160713,-0.0109263,0.0249554,0.0026334,-0.888123,0.0158323,0.0098335,1609,1646,15.0868,-40.3379
392,-622,15.0743,39.8391,0.00962811,0.0126282,-0.00891247,0.020166,0.00209034,-0.868772,0.0128042,0.0108373,1616,1646,15.0743,-39.8391
399,-622,15.0555,39.3287,0.00784766,0.00972812,-0.0071077,0.0159575,0.00161828,-0.851158,0.010142,0.0109314,1623,1646,15.0556,-39.3288
406,-622,15.0557,38.8062,0.00627829,0.0070919,-0.00562299,0.0123228,0.00104741,-0.821509,0.00788926,0.0146614,1630,1646,15.0557,-38.8062
413,-622,15.052,38.2765,0.00509567,0.00543473,-0.00456302,0.00983137,0.000699033,-0.803966,0.0063341,0.0168898,1637,1646,15.0521,-38.2764
420,-622,15.0466,37.7596,0.00412652,0.00426406,-0.00375672,0.00795263,0.000437939,-0.79455,0.00516197,0.017442,1644,1646,15.0466,-37.7596
427,-622,15.0524,37.2344,0.00306165,0.00300985,-0.0028967,0.00593256,0.000138933,-0.780928,0.00390955,0.0141953,1651,1646,15.0524,-37.2344
434,-622,15.0355,36.6918,0.00235406,0.00253262,-0.00256603,0.00501092,-0.000124241,-0.802788,0.00338279,0.0142588,1658,1646,15.0356,-36.6917
441,-622,15.0088,36.1472,0.00188679,0.00221408,-0.00246843,0.00452429,-0.000423417,-0.818497,0.00316678,0.015273,1665,1646,15.0088,-36.1472
448,-622,14.9852,35.6333,0.00149518,0.00175593,-0.00240049,0.00402959,-0.000778473,-0.812528,0.00297997,0.0140092,1672,1646,14.9853,-35.6332
455,-622,14.9524,35.0713,0.00120314,0.00139382,-0.00243876,0.00373911,-0.00114215,-0.804934,0.00294815,0.0163673,1679,1646,14.9523,-35.0712
462,-622,14.9492,34.5238,0.000996618,0.000970727,-0.00248465,0.00346836,-0.00150101,-0.782793,0.00294306,0.0178558,1686,1646,14.9493,-34.5238
469,-622,14.9204,33.9486,0.000790731,0.000421087,-0.00250037,0.0031131,-0.00190128,-0.748506,0.0029231,0.0187609,1693,1646,14.9204,-33.9487
476,-622,14.9825,33.3641,0.000546904,-8.77286e-05,-0.00243959,0.00268973,-0.00223055,-0.720726,0.00284485,0.0340543,1700,1646,14.9826,-33.3641
483,-622,14.9468,32.6222,0,0,0,0,0,0,0,-1,1707,1646,14.9468,-32.6222
490,-622,14.9596,32.2063,0,0,0,0,0,0,0,-1,1714,1646,14.9596,-32.2063
497,-622,14.9666,32.1024,0,0,0,0,0,0,0,-1,1721,1646,14.9665,-32.1024
504,-622,10.8306,19.8021,0,0,0,0,0,0,0,-1,1728,1646,10.8306,-19.8022
511,-622,5.29004,4.14587,0,0,0,0,0,0,0,-1,1735,1646,5.29008,-4.14589
518,-622,5.6001,1.55359,0,0,0,0,0,0,0,-1,1742,1646,5.60015,-1.5536
525,-622,5.83093,2.01807,0,0,0,0,0,0,0,-1,1749,1646,5.83097,-2.01802
532,-622,5.44202,0.57373,0,0,0,0,0,0,0,-1,1756,1646,5.44196,-0.573705
539,-622,9.32129,1.06116,0,0,0,0,0,0,0,-1,1763,1646,9.32131,-1.0612
546,-622,6.50977,-3.45618,0,0,0,0,0,0,0,-1,1770,1646,6.50981,3.4562
553,-622,0,0,0,0,0,0,0,0,0,-1,1777,1646,0,0
560,-622,0,0,0,0,0,0,0,0,0,-1,1784,1646,0,0
567,-622,0,0,0,0,0,0,0,0,0,-1,1791,1646,0,0
574,-622,0,0,0,0,0,0,0,0,0,-1,1798,1646,0,0
581,-622,0,0,0,0,0,0,0,0,0,-1,1805,1646,0,0
588,-622,0,0,0,0,0,0,0,0,0,-1,1812,1646,0,0
595,-622,0,0,0,0,0,0,0,0,0,-1,1819,1646,0,0
602,-622,0,0,0,0,0,0,0,0,0,-1,1826,1646,0,0
609,-622,0,0,0,0,0,0,0,0,0,-1,1833,1646,0,0
616,-622,0,0,0,0,0,0,0,0,0,-1,1840,1646,0,0
623,-622,0,0,0,0,0,0,0,0,0,-1,1847,1646,0,0
630,-622,0,0,0,0,0,0,0,0,0,-1,1854,1646,0,0
637,-622,0,0,0,0,0,0,0,0,0,-1,1861,1646,0,0
644,-622,0,0,0,0,0,0,0,0,0,-1,1868,1646,0,0
651,-622,0,0,0,0,0,0,0,0,0,-1,1875,1646,0,0
658,-622,0,0,0,0,0,0,0,0,0,-1,1882,1646,0,0
665,-622,0,0,0,0,0,0,0,0,0,-1,1889,1646,0,0
672,-622,0,0,0,0,0,0,0,0,0,-1,1896,1646,0,0
679,-622,0,0,0,0,0,0,0,0,0,-1,1903,1646,0,0
686,-622,0,0,0,0,0,0,0,0,0,-1,1910,1646,0,0
693,-622,0,0,0,0,0,0,0,0,0,-1,1917,1646,0,0
700,-622,0,0,0,0,0,0,0,0,0,-1,1924,1646,0,0
707,-622,0,0,0,0,0,0,0,0,0,-1,1931,1646,0,0
714,-622,0,0,0,0,0,0,0,0,0,-1,1938,1646,0,0
721,-622,0,0,0,0,0,0,0,0,0,-1,1945,1646,0,0
728,-622,0,0,0,0,0,0,0,0,0,-1,1952,1646,0,0
735,-622,0,0,0,0,0,0,0,0,0,-1,1959,1646,0,0
742,-622,0,0,0,0,0,0,0,0,0,-1,1966,1646,0,0
749,-622,0,0,0,0,0,0,0,0,0,-1,1973,1646,0,0
756,-622,0,0,0,0,0,0,0,0,0,-1,1980,1646,0,0
763,-622,0,0,0,0,0,0,0,0,0,-1,1987,1646,0,0
770,-622,0,0,0,0,0,0,0,0,0,-1,1994,1646,0,0
777,-622,0,0,0,0,0,0,0,0,0,-1,2001,1646,0,0
784,-622,0,0,0,0,0,0,0,0,0,-1,2008,1646,0,0
791,-622,0,0,0,0,0,0,0,0,0,-1,2015,1646,0,0
798,-622,0,0,0,0,0,0,0,0,0,-1,2022,1646,0,0
805,-622,0,0,0,0,0,0,0,0,0,-1,2029,1646,0,0
812,-622,0,0,0,0,0,0,0,0,0,-1,2036,1646,0,0
-700,-629,0,0,0,0,0,0,0,0,0,-1,524,1653,0,0
-693,-629,0,0,0,0,0,0,0,0,0,-1,531,1653,0,0
-686,-629,0,0,0,0,0,0,0,0,0,-1,538,1653,0,0
-679,-629,0,0,0,0,0,0,0,0,0,-1,545,1653,0,0
-672,-629,0,0,0,0,0,0,0,0,0,-1,552,1653,0,0
-665,-629,0,0,0,0,0,0,0,0,0,-1,559,1653,0,0
-658,-629,0,0,0,0,0,0,0,0,0,-1,566,1653,0,0
-651,-629,0,0,0,0,0,0,0,0,0,-1,573,1653,0,0
-644,-629,0,0,0,0,0,0,0,0,0,-1,580,1653,0,0
-637,-629,0,0,0,0,0,0,0,0,0,-1,587,1653,0,0
-630,-629,0,0,0,0,0,0,0,0,0,-1,594,1653,0,0
-623,-629,0,0,0,0,0,0,0,0,0,-1,601,1653,0,0
-616,-629,0,0,0,0,0,0,0,0,0,-1,608,1653,0,0
-609,-629,0,0,0,0,0,0,0,0,0,-1,615,1653,0,0
-602,-629,0,0,0,0,0,0,0,0,0,-1,622,1653,0,0
-595,-629,0,0,0,0,0,0,0,0,0,-1,629,1653,0,0
-588,-629,0,0,0,0,0,0,0,0,0,-1,636,1653,0,0
-581,-629,0,0,0,0,0,0,0,0,0,-1,643,1653,0,0
-574,-629,0,0,0,0,0,0,0,0,0,-1,650,1653,0,0
-567,-629,0,0,0,0,0,0,0,0,0,-1,657,1653,0,0
-560,-629,0,0,0,0,0,0,0,0,0,-1,664,1653,0,0
-553,-629,0,0,0,0,0,0,0,0,0,-1,671,1653,0,0
-546,-629,0,0,0,0,0,0,0,0,0,-1,678,1653,0,0
-539,-629,0,0,0,0,0,0,0,0,0,-1,685,1653,0,0
-532,-629,0,0,0,0,0,0,0,0,0,-1,692,1653,0,0
-525,-629,0,0,0,0,0,0,0,0,0,-1,699,1653,0,0
-518,-629,0,0,0,0,0,0,0,0,0,-1,706,1653,0,0
-511,-629,0,0,0,0,0,0,0,0,0,-1,713,1653,0,0
-504,-629,0,0,0,0,0,0,0,0,0,-1,720,1653,0,0
-497,-629,0,0,0,0,0,0,0,0,0,-1,727,1653,0,0
-490,-629,0,0,0,0,0,0,0,0,0,-1,734,1653,0,0
-483,-629,0,0,0,0,0,0,0,0,0,-1,741,1653,0,0
-476,-629,0,0,0,0,0,0,0,0,0,-1,748,1653,0,0
-469,-629,0,0,0,0,0,0,0,0,0,-1,755,1653,0,0
-462,-629,0,0,0,0,0,0,0,0,0,-1,762,1653,0,0
-455,-629,0,0,0,0,0,0,0,0,0,-1,769,1653,0,0
-448,-629,0,0,0,0,0,0,0,0,0,-1,776,1653,0,0
-441,-629,0,0,0,0,0,0,0,0,0,-1,783,1653,0,0
-434,-629,0,0,0,0,0,0,0,0,0,-1,790,1653,0,0
-427,-629,0,0,0,0,0,0,0,0,0,-1,797,1653,0,0
-420,-629,-3.87103,3.37634,0,0,0,0,0,0,0,-1,804,1653,-3.87101,-3.37633
-413,-629,-5.69751,1.33582,0,0,0,0,0,0,0,-1,811,1653,-5.69754,-1.3358
-406,-629,2.85406,6.01501,0,0,0,0,0,0,0,-1,818,1653,2.85405,-6.01507
-399,-629,-0.455627,10.8687,0,0,0,0,0,0,0,-1,825,1653,-0.455625,-10.8687
-392,-629,1.15369,11.1295,0,0,0,0,0,0,0,-1,832,1653,1.1537,-11.1295
-385,-629,1.81976,11.6935,0,0,0,0,0,0,0,-1,839,1653,1.81975,-11.6935
-378,-629,2.19452,14.7941,0,0,0,0,0,0,0,-1,846,1653,2.19451,-14.7941
-371,-629,3.60114,14.7299,0,0,0,0,0,0,0,-1,853,1653,3.60113,-14.7299
-364,-629,3.26898,21.0801,0,0,0,0,0,0,0,-1,860,1653,3.26895,-21.08
-357,-629,4.38782,16.3444,0,0,0,0,0,0,0,-1,867,1653,4.38783,-16.3443
-350,-629,4.06317,32.5117,0,0,0,0,0,0,0,-1,874,1653,4.06316,-32.5117
-343,-629,3.79688,33.0651,0.00445926,-0.0124784,0.00893403,0.0083005,-0.0163196,0.406061,0.0144636,0.0369051,881,1653,3.79686,-33.0651
-336,-629,3.91534,33.6436,0.00459108,-0.0123111,0.00797609,0.00776062,-0.0154806,0.378245,0.0136629,0.0184787,888,1653,3.91535,-33.6436
-329,-629,3.90802,34.2123,0.00460704,-0.0120401,0.00694748,0.00712549,-0.0145586,0.347765,0.0127621,0.0114488,895,1653,3.90801,-34.2123
-322,-629,3.87219,34.7981,0.00439873,-0.0109477,0.00604852,0.00649602,-0.013045,0.333772,0.0114913,0.012,902,1653,3.87219,-34.798
-315,-629,3.82843,35.3823,0.00406712,-0.00959914,0.00522421,0.00583539,-0.0113674,0.326371,0.0101018,0.0156114,909,1653,3.8284,-35.3823
-308,-629,3.80231,35.9591,0.00377209,-0.00778382,0.00445221,0.00528844,-0.00930018,0.328262,0.00852824,0.0131209,916,1653,3.8023,-35.9591
-301,-629,3.81769,36.5676,0.00355574,-0.00563349,0.00388842,0.00498028,-0.00705804,0.351171,0.00698475,0.0125908,923,1653,3.81771,-36.5677
-294,-629,3.79535,37.1222,0.00352233,-0.00344169,0.00359625,0.00504606,-0.00496542,0.400768,0.00578019,0.0135534,930,1653,3.79532,-37.1222
-287,-629,3.74481,37.6564,0.00340989,-0.00113702,0.00336874,0.00520055,-0.00292768,0.488568,0.0047536,0.0102948,937,1653,3.7448,-37.6564
-280,-629,3.72034,38.201,0.00346845,0.00112834,0.00332784,0.00582594,-0.00122915,0.61635,0.00435192,0.0103605,944,1653,3.72032,-38.201
-273,-629,3.71173,38.7399,0.00365968,0.00307371,0.00338217,0.00676154,-2.81453e-05,0.742193,0.0045171,0.0137908,951,1653,3.71176,-38.7399
-266,-629,3.69684,39.2892,0.00398507,0.00488334,0.00352182,0.00798455,0.000883861,0.84882,0.00505424,0.0139816,958,1653,3.69687,-39.2892
-259,-629,3.68109,39.8447,0.0044238,0.00645702,0.00380356,0.00937749,0.00150333,0.915985,0.00581568,0.0149576,965,1653,3.68112,-39.8447
-252,-629,3.67603,40.3566,0.00498169,0.0075966,0.0040711,0.010565,0.00201325,0.940774,0.00647742,0.0118924,972,1653,3.67605,-40.3566
-245,-629,3.6842,40.8821,0.00574575,0.00823365,0.0042179,0.0113872,0.00259219,0.928794,0.00689187,0.00857514,979,1653,3.68418,-40.8821
-238,-629,3.68018,41.3896,0.00644269,0.00863038,0.00422427,0.0119001,0.00317294,0.912087,0.00711563,0.0104925,986,1653,3.68018,-41.3897
-231,-629,3.65686,41.889,0.00716017,0.00860054,0.00445534,0.0123935,0.00336718,0.865528,0.00739988,0.0174696,993,1653,3.65686,-41.8891
-224,-629,3.7547,42.5317,0.00837863,0.0105379,0.00460484,0.014188,0.00472854,0.900545,0.00834184,0.0225216,1000,1653,3.75471,-42.5317
-217,-629,3.68756,42.9406,0.0105218,0.013774,0.00487906,0.0172908,0.00700501,0.946246,0.0100426,0.0362377,1007,1653,3.68753,-42.9406
-210,-629,3.87878,43.5662,0,0,0,0,0,0,0,-1,1014,1653,3.87881,-43.5662
-203,-629,3.72009,44.7794,0,0,0,0,0,0,0,-1,1021,1653,3.72004,-44.7795
-196,-629,4.16821,44.6305,0,0,0,0,0,0,0,-1,1028,1653,4.16816,-44.6305
-189,-629,4.05127,44.8391,0,0,0,0,0,0,0,-1,1035,1653,4.05132,-44.8391
-182,-629,4.13635,45.2457,0,0,0,0,0,0,0,-1,1042,1653,4.13639,-45.2457
-175,-629,3.92859,47.0591,0.0339294,0.0517612,0.0065782,0.0539253,0.0317653,1.25297,0.031298,0.0477782,1049,1653,3.92858,-47.0591
-168,-629,4.23926,47.5089,0.038554,0.0616983,0.00703383,0.0636683,0.036584,1.29772,0.036895,0.0453709,1056,1653,4.2392,-47.5089
-161,-629,4.70972,48.1614,0.04251,0.071155,0.00698555,0.0727677,0.0408973,1.3439,0.0421201,0.0427942,1063,1653,4.7097,-48.1614
-154,-629,5.06921,48.8759,0,0,0,0,0,0,0,-1,1070,1653,5.06923,-48.8758
-147,-629,4.69604,47.0325,0,0,0,0,0,0,0,-1,1077,1653,4.69606,-47.0324
-140,-629,2.10181,41.6577,0,0,0,0,0,0,0,-1,1084,1653,2.10175,-41.6577
-133,-629,3.41248,17.6686,0,0,0,0,0,0,0,-1,1091,1653,3.41243,-17.6686
-126,-629,4.01025,19.5328,0,0,0,0,0,0,0,-1,1098,1653,4.01022,-19.5328
-119,-629,4.94177,13.5525,0,0,0,0,0,0,0,-1,1105,1653,4.94172,-13.5525
-112,-629,5.63123,15.9187,0,0,0,0,0,0,0,-1,1112,1653,5.63118,-15.9187
-105,-629,2.15881,4.38342,0,0,0,0,0,0,0,-1,1119,1653,2.15878,-4.38347
-98,-629,0.825806,4.19385,0,0,0,0,0,0,0,-1,1126,1653,0.825779,-4.1939
-91,-629,-0.452271,3.64465,0,0,0,0,0,0,0,-1,1133,1653,-0.452278,-3.6446
-84,-629,-2.6084,0.466797,0,0,0,0,0,0,0,-1,1140,1653,-2.6084,-0.466786
-77,-629,-3.50903,2.10706,0,0,0,0,0,0,0,-1,1147,1653,-3.509,-2.10707
-70,-629,-1.20886,2.52502,0,0,0,0,0,0,0,-1,1154,1653,-1.20886,-2.525
-63,-629,-0.960693,4.30212,0,0,0,0,0,0,0,-1,1161,1653,-0.960691,-4.30215
-56,-629,-1.31934,5.64343,0,0,0,0,0,0,0,-1,1168,1653,-1.31928,-5.6434
-49,-629,-2.15662,2.57458,0,0,0,0,0,0,0,-1,1175,1653,-2.15656,-2.57459
-42,-629,-2.46326,3.91467,0,0,0,0,0,0,0,-1,1182,1653,-2.4633,-3.91466
-35,-629,-2.67261,5.24292,0,0,0,0,0,0,0,-1,1189,1653,-2.67257,-5.24298
-28,-629,-0.402954,-0.866577,0,0,0,0,0,0,0,-1,1196,1653,-0.402943,0.866612
-21,-629,3.45508,27.0596,0,0,0,0,0,0,0,-1,1203,1653,3.45508,-27.0596
-14,-629,9.2594,57.196,0,0,0,0,0,0,0,-1,1210,1653,9.25937,-57.196
-7,-629,9.71252,58.0475,0,0,0,0,0,0,0,-1,1217,1653,9.71251,-58.0475
0,-629,9.92676,59.1366,0.0735289,0.294879,0.100087,0.333423,0.0349848,1.20319,0.211587,0.0446585,1224,1653,9.92676,-59.1367
7,-629,10.379,59.6923,0.0636794,0.285761,0.100449,0.324454,0.0249873,1.20312,0.208473,0.0435991,1231,1653,10.379,-59.6923
14,-629,10.746,60.3348,0.0473798,0.275862,0.0947971,0.310071,0.0131704,1.22447,0.202467,0.0417529,1238,1653,10.746,-60.3349
21,-629,11.0814,60.9626,0.0323053,0.265882,0.0883511,0.295536,0.00265104,1.24697,0.196146,0.0434384,1245,1653,11.0814,-60.9626
28,-629,11.4326,61.7041,0.0275973,0.251049,0.0838211,0.278997,-0.000350162,1.24897,0.186115,0.047545,1252,1653,11.4326,-61.7041
35,-629,11.8926,62.283,0,0,0,0,0,0,0,-1,1259,1653,11.8926,-62.283
42,-629,11.7737,62.8929,0,0,0,0,0,0,0,-1,1266,1653,11.7737,-62.893
49,-629,11.6548,63.5029,0,0,0,0,0,0,0,-1,1273,1653,11.6548,-63.5029
56,-629,11.5721,64.0742,0,0,0,0,0,0,0,-1,1280,1653,11.5722,-64.0743
63,-629,11.5198,54.7162,0,0,0,0,0,0,0,-1,1287,1653,11.5198,-54.7162
70,-629,12.1255,53.6866,0,0,0,0,0,0,0,-1,1294,1653,12.1255,-53.6866
77,-629,10.1362,54.6847,0,0,0,0,0,0,0,-1,1301,1653,10.1362,-54.6847
84,-629,10.7031,54.442,0.0720656,0.058809,0.0359385,0.101982,0.0288927,0.694206,0.0606944,0.0476981,1308,1653,10.7031,-54.442
91,-629,11.2838,54.1758,0.0698749,0.0387466,0.0284747,0.0867615,0.02186,0.535285,0.0521059,0.0447827,1315,1653,11.2838,-54.1758
98,-629,11.8217,53.8367,0.0618478,0.0242085,0.0222549,0.0721736,0.0138826,0.434419,0.0442207,0.0458709,1322,1653,11.8216,-53.8366
105,-629,12.3936,53.4919,0,0,0,0,0,0,0,-1,1329,1653,12.3936,-53.4919
112,-629,9.96655,49.7439,0,0,0,0,0,0,0,-1,1336,1653,9.9666,-49.744
119,-629,8.99707,49.7667,0,0,0,0,0,0,0,-1,1343,1653,8.99713,-49.7667
126,-629,7.9436,50.2029,0,0,0,0,0,0,0,-1,1350,1653,7.94362,-50.2029
133,-629,6.66284,51.588,0,0,0,0,0,0,0,-1,1357,1653,6.6629,-51.588
140,-629,5.79138,51.2538,0,0,0,0,0,0,0,-1,1364,1653,5.7914,-51.2538
147,-629,4.75952,51.463,0,0,0,0,0,0,0,-1,1371,1653,4.7595,-51.463
154,-629,1.58569,52.5651,0,0,0,0,0,0,0,-1,1378,1653,1.58564,-52.5651
161,-629,10.5461,6.83752,0,0,0,0,0,0,0,-1,1385,1653,10.5461,-6.83758
168,-629,12.0059,5.56348,0,0,0,0,0,0,0,-1,1392,1653,12.0059,-5.56352
175,-629,5.84485,-1.78845,0,0,0,0,0,0,0,-1,1399,1653,5.84479,1.7884
182,-629,5.99036,-1.27783,0,0,0,0,0,0,0,-1,1406,1653,5.99041,1.27778
189,-629,5.97668,-0.748535,0,0,0,0,0,0,0,-1,1413,1653,5.97671,0.748544
196,-629,4.52869,9.24695,0,0,0,0,0,0,0,-1,1420,1653,4.52869,-9.2469
203,-629,3.75085,6.88037,0,0,0,0,0,0,0,-1,1427,1653,3.75087,-6.88032
210,-629,3.5907,6.52637,0,0,0,0,0,0,0,-1,1434,1653,3.59067,-6.52642
217,-629,2.4585,4.84448,0,0,0,0,0,0,0,-1,1441,1653,2.45855,-4.84448
224,-629,1.31982,3.68481,0,0,0,0,0,0,0,-1,1448,1653,1.31986,-3.68487
231,-629,3.63025,1.73499,0,0,0,0,0,0,0,-1,1455,1653,3.6303,-1.735
238,-629,4.26428,2.11255,0,0,0,0,0,0,0,-1,1462,1653,4.26429,-2.11253
245,-629,5.61816,1.95361,0,0,0,0,0,0,0,-1,1469,1653,5.61815,-1.95359
252,-629,7.27136,2.18982,0,0,0,0,0,0,0,-1,1476,1653,7.27131,-2.18985
259,-629,8.67334,2.18628,0,0,0,0,0,0,0,-1,1483,1653,8.6733,-2.18633
266,-629,6.86475,3.72058,0,0,0,0,0,0,0,-1,1490,1653,6.86479,-3.72063
273,-629,7.9021,3.8717,0,0,0,0,0,0,0,-1,1497,1653,7.90205,-3.87171
280,-629,9.70837,4.39087,0,0,0,0,0,0,0,-1,1504,1653,9.7084,-4.39082
287,-629,9.82947,7.19348,0,0,0,0,0,0,0,-1,1511,1653,9.8295,-7.19347
294,-629,6.56555,11.6359,0,0,0,0,0,0,0,-1,1518,1653,6.5656,-11.6358
301,-629,13.903,44.4862,0,0,0,0,0,0,0,-1,1525,1653,13.903,-44.4862
308,-629,6.08264,12.1423,0,0,0,0,0,0,0,-1,1532,1653,6.08263,-12.1423
315,-629,6.82043,18.2764,0,0,0,0,0,0,0,-1,1539,1653,6.82049,-18.2764
322,-629,14.1931,43.8071,0,0,0,0,0,0,0,-1,1546,1653,14.1931,-43.8071
329,-629,14.4969,44.7078,0,0,0,0,0,0,0,-1,1553,1653,14.4969,-44.7078
336,-629,14.3413,43.9696,0,0,0,0,0,0,0,-1,1560,1653,14.3413,-43.9697
343,-629,14.1742,43.6233,0.0177519,0.0340692,-0.0170033,0.0447699,0.00705119,-1.00909,0.0277959,0.0432692,1567,1653,14.1742,-43.6233
350,-629,14.5096,42.9263,0.0161928,0.0304064,-0.0157521,0.0405806,0.00601851,-0.997309,0.0252875,0.0255572,1574,1653,14.5097,-42.9263
357,-629,14.61,42.3728,0.0143324,0.0264071,-0.0141482,0.0357523,0.00498718,-0.987061,0.0223586,0.0150794,1581,1653,14.61,-42.3728
364,-629,14.5857,41.8677,0.0128666,0.022828,-0.0127946,0.0315771,0.00411744,-0.971015,0.019822,0.0130911,1588,1653,14.5857,-41.8676
371,-629,14.5615,41.3695,0.0115062,0.0190323,-0.0112645,0.0271456,0.00339283,-0.946601,0.0170788,0.0116541,1595,1653,14.5615,-41.3695
378,-629,14.5746,40.856,0.0100346,0.0155258,-0.00967606,0.0228382,0.00272212,-0.92364,0.0144041,0.0110474,1602,1653,14.5746,-40.856
385,-629,14.5764,40.3594,0.0085965,0.0123122,-0.00813138,0.0187952,0.00211342,-0.897709,0.0118885,0.0128758,1609,1653,14.5764,-40.3594
392,-629,14.5625,39.8693,0.00725662,0.00953601,-0.00672791,0.0152201,0.00157255,-0.869301,0.00966527,0.0110137,1616,1653,14.5626,-39.8692
399,-629,14.5461,39.3573,0.00591522,0.00709103,-0.00542498,0.0119599,0.00104638,-0.839372,0.00764834,0.0114684,1623,1653,14.5461,-39.3573
406,-629,14.5519,38.8474,0.00471456,0.00496301,-0.00436132,0.00920187,0.000475697,-0.799636,0.00598232,0.0154874,1630,1653,14.5518,-38.8474
413,-629,14.5159,38.3271,0.00385282,0.00359562,-0.00363059,0.00735708,9.13527e-05,-0.767695,0.00487455,0.0248938,1637,1653,14.5159,-38.3272
420,-629,14.4729,37.8141,0.0031754,0.00266809,-0.00310708,0.00603916,-0.00019567,-0.74467,0.00409289,0.0233902,1644,1653,14.4729,-37.8141
427,-629,14.5253,37.2888,0.00244878,0.0017704,-0.00259899,0.00473062,-0.00051144,-0.720511,0.00333731,0.0163586,1651,1653,14.5253,-37.2888
434,-629,14.5228,36.7437,0.00198793,0.00152028,-0.00250808,0.00427307,-0.000764852,-0.738918,0.00313492,0.014263,1658,1653,14.5228,-36.7436
441,-629,14.4706,36.2028,0.00168848,0.00143788,-0.0026062,0.00417239,-0.00104603,-0.761377,0.00318799,0.0168337,1665,1653,14.4706,-36.2028
448,-629,14.4604,35.6609,0.00144745,0.00126138,-0.00271759,0.0040736,-0.00136476,-0.768288,0.0032671,0.0155372,1672,1653,14.4605,-35.6609
455,-629,14.4153,35.0725,0.00133998,0.0012986,-0.00297897,0.00429833,-0.00165976,-0.781925,0.00355057,0.014871,1679,1653,14.4153,-35.0726
462,-629,14.4022,34.5458,0.00127171,0.00133344,-0.00324624,0.00454896,-0.00194381,-0.790152,0.00384787,0.0188241,1686,1653,14.4022,-34.5457
469,-629,14.3794,33.9812,0.00115778,0.00123185,-0.00347274,0.00466776,-0.00227812,-0.79073,0.00408855,0.0257247,1693,1653,14.3794,-33.9813
476,-629,14.4447,33.3997,0,0,0,0,0,0,0,-1,1700,1653,14.4447,-33.3997
483,-629,14.0381,30.967,0,0,0,0,0,0,0,-1,1707,1653,14.0381,-30.9671
490,-629,13.9072,28.8588,0,0,0,0,0,0,0,-1,1714,1653,13.9072,-28.8587
497,-629,10.3662,19.8605,0,0,0,0,0,0,0,-1,1721,1653,10.3662,-19.8605
504,-629,7.89453,15.5316,0,0,0,0,0,0,0,-1,1728,1653,7.89447,-15.5316
511,-629,6.29138,3.40295,0,0,0,0,0,0,0,-1,1735,1653,6.29137,-3.403
518,-629,5.84387,1.41858,0,0,0,0,0,0,0,-1,1742,1653,5.84391,-1.4186
525,-629,6.4729,1.02319,0,0,0,0,0,0,0,-1,1749,1653,6.47284,-1.02316
532,-629,6.86511,0.903687,0,0,0,0,0,0,0,-1,1756,1653,6.86514,-0.903691
539,-629,6.60803,0.746704,0,0,0,0,0,0,0,-1,1763,1653,6.60809,-0.746691
546,-629,0,0,0,0,0,0,0,0,0,-1,1770,1653,0,0
553,-629,0,0,0,0,0,0,0,0,0,-1,1777,1653,0,0
560,-629,0,0,0,0,0,0,0,0,0,-1,1784,1653,0,0
567,-629,0,0,0,0,0,0,0,0,0,-1,1791,1653,0,0
574,-629,0,0,0,0,0,0,0,0,0,-1,1798,1653,0,0
581,-629,0,0,0,0,0,0,0,0,0,-1,1805,1653,0,0
588,-629,0,0,0,0,0,0,0,0,0,-1,1812,1653,0,0
595,-629,0,0,0,0,0,0,0,0,0,-1,1819,1653,0,0
602,-629,0,0,0,0,0,0,0,0,0,-1,1826,1653,0,0
609,-629,0,0,0,0,0,0,0,0,0,-1,1833,1653,0,0
616,-629,0,0,0,0,0,0,0,0,0,-1,1840,1653,0,0
623,-629,0,0,0,0,0,0,0,0,0,-1,1847,1653,0,0
630,-629,0,0,0,0,0,0,0,0,0,-1,1854,1653,0,0
637,-629,0,0,0,0,0,0,0,0,0,-1,1861,1653,0,0
644,-629,0,0,0,0,0,0,0,0,0,-1,1868,1653,0,0
651,-629,0,0,0,0,0,0,0,0,0,-1,1875,1653,0,0
658,-629,0,0,0,0,0,0,0,0,0,-1,1882,1653,0,0
665,-629,0,0,0,0,0,0,0,0,0,-1,1889,1653,0,0
672,-629,0,0,0,0,0,0,0,0,0,-1,1896,1653,0,0
679,-629,0,0,0,0,0,0,0,0,0,-1,1903,1653,0,0
686,-629,0,0,0,0,0,0,0,0,0,-1,1910,1653,0,0
693,-629,0,0,0,0,0,0,0,0,0,-1,1917,1653,0,0
700,-629,0,0,0,0,0,0,0,0,0,-1,1924,1653,0,0
707,-629,0,0,0,0,0,0,0,0,0,-1,1931,1653,0,0
714,-629,0,0,0,0,0,0,0,0,0,-1,1938,1653,0,0
721,-629,0,0,0,0,0,0,0,0,0,-1,1945,1653,0,0
728,-629,0,0,0,0,0,0,0,0,0,-1,1952,1653,0,0
735,-629,0,0,0,0,0,0,0,0,0,-1,1959,1653,0,0
742,-629,0,0,0,0,0,0,0,0,0,-1,1966,1653,0,0
749,-629,0,0,0,0,0,0,0,0,0,-1,1973,1653,0,0
756,-629,0,0,0,0,0,0,0,0,0,-1,1980,1653,0,0
763,-629,0,0,0,0,0,0,0,0,0,-1,1987,1653,0,0
770,-629,0,0,0,0,0,0,0,0,0,-1,1994,1653,0,0
777,-629,0,0,0,0,0,0,0,0,0,-1,2001,1653,0,0
784,-629,0,0,0,0,0,0,0,0,0,-1,2008,1653,0,0
791,-629,0,0,0,0,0,0,0,0,0,-1,2015,1653,0,0
798,-629,0,0,0,0,0,0,0,0,0,-1,2022,1653,0,0
805,-629,0,0,0,0,0,0,0,0,0,-1,2029,1653,0,0
812,-629,0,0,0,0,0,0,0,0,0,-1,2036,1653,0,0
-700,-636,0,0,0,0,0,0,0,0,0,-1,524,1660,0,0
-693,-636,0,0,0,0,0,0,0,0,0,-1,531,1660,0,0
-686,-636,0,0,0,0,0,0,0,0,0,-1,538,1660,0,0
-679,-636,0,0,0,0,0,0,0,0,0,-1,545,1660,0,0
-672,-636,0,0,0,0,0,0,0,0,0,-1,552,1660,0,0
-665,-636,0,0,0,0,0,0,0,0,0,-1,559,1660,0,0
-658,-636,0,0,0,0,0,0,0,0,0,-1,566,1660,0,0
-651,-636,0,0,0,0,0,0,0,0,0,-1,573,1660,0,0
-644,-636,0,0,0,0,0,0,0,0,0,-1,580,1660,0,0
-637,-636,0,0,0,0,0,0,0,0,0,-1,587,1660,0,0
-630,-636,0,0,0,0,0,0,0,0,0,-1,594,1660,0,0
-623,-636,0,0,0,0,0,0,0,0,0,-1,601,1660,0,0
-616,-636,0,0,0,0,0,0,0,0,0,-1,608,1660,0,0
-609,-636,0,0,0,0,0,0,0,0,0,-1,615,1660,0,0
-602,-636,0,0,0,0,0,0,0,0,0,-1,622,1660,0,0
-595,-636,0,0,0,0,0,0,0,0,0,-1,629,1660,0,0
-588,-636,0,0,0,0,0,0,0,0,0,-1,636,1660,0,0
-581,-636,0,0,0,0,0,0,0,0,0,-1,643,1660,0,0
-574,-636,0,0,0,0,0,0,0,0,0,-1,650,1660,0,0
-567,-636,0,0,0,0,0,0,0,0,0,-1,657,1660,0,0
-560,-636,0,0,0,0,0,0,0,0,0,-1,664,1660,0,0
-553,-636,0,0,0,0,0,0,0,0,0,-1,671,1660,0,0
-546,-636,0,0,0,0,0,0,0,0,0,-1,678,1660,0,0
-539,-636,0,0,0,0,0,0,0,0,0,-1,685,1660,0,0
-532,-636,0,0,0,0,0,0,0,0,0,-1,692,1660,0,0
-525,-636,0,0,0,0,0,0,0,0,0,-1,699,1660,0,0
-518,-636,0,0,0,0,0,0,0,0,0,-1,706,1660,0,0
-511,-636,0,0,0,0,0,0,0,0,0,-1,713,1660,0,0
-504,-636,0,0,0,0,0,0,0,0,0,-1,720,1660,0,0
-497,-636,0,0,0,0,0,0,0,0,0,-1,727,1660,0,0
-490,-636,0,0,0,0,0,0,0,0,0,-1,734,1660,0,0
-483,-636,0,0,0,0,0,0,0,0,0,-1,741,1660,0,0
-476,-636,0,0,0,0,0,0,0,0,0,-1,748,1660,0,0
-469,-636,0,0,0,0,0,0,0,0,0,-1,755,1660,0,0
-462,-636,0,0,0,0,0,0,0,0,0,-1,762,1660,0,0
-455,-636,0,0,0,0,0,0,0,0,0,-1,769,1660,0,0
-448,-636,0,0,0,0,0,0,0,0,0,-1,776,1660,0,0
-441,-636,0,0,0,0,0,0,0,0,0,-1,783,1660,0,0
-434,-636,0,0,0,0,0,0,0,0,0,-1,790,1660,0,0
-427,-636,0,0,0,0,0,0,0,0,0,-1,797,1660,0,0
-420,-636,0,0,0,0,0,0,0,0,0,-1,804,1660,0,0
-413,-636,0,0,0,0,0,0,0,0,0,-1,811,1660,0,0
-406,-636,-0.591125,10.6943,0,0,0,0,0,0,0,-1,818,1660,-0.59115,-10.6943
-399,-636,0.0766602,11.2408,0,0,0,0,0,0,0,-1,825,1660,0.076685,-11.2409
-392,-636,0.75946,11.9233,0,0,0,0,0,0,0,-1,832,1660,0.759481,-11.9233
-385,-636,1.68878,12.517,0,0,0,0,0,0,0,-1,839,1660,1.6888,-12.5169
-378,-636,2.22107,13.0013,0,0,0,0,0,0,0,-1,846,1660,2.22107,-13.0014
-371,-636,2.52185,11.9684,0,0,0,0,0,0,0,-1,853,1660,2.52184,-11.9684
-364,-636,4.51947,14.8503,0,0,0,0,0,0,0,-1,860,1660,4.51949,-14.8504
-357,-636,4.55682,15.8809,0,0,0,0,0,0,0,-1,867,1660,4.55681,-15.8808
-350,-636,4.04156,32.3882,0,0,0,0,0,0,0,-1,874,1660,4.04155,-32.3882
-343,-636,4.21558,33.0206,0.00718082,-0.0183852,0.012476,0.01226,-0.0234644,0.386623,0.0209609,0.0495134,881,1660,4.2156,-33.0206
-336,-636,4.33075,33.6143,0.00702996,-0.0182994,0.0109991,0.0111395,-0.0224089,0.357564,0.0197301,0.0370973,888,1660,4.33076,-33.6143
-329,-636,4.44397,34.2286,0.00668793,-0.0180415,0.00941591,0.00986494,-0.0212186,0.325414,0.0183408,0.0195844,895,1660,4.444,-34.2287
-322,-636,4.42181,34.8207,0.00611195,-0.0167721,0.0079975,0.00862986,-0.01929,0.305013,0.0165066,0.012279,902,1660,4.42182,-34.8206
-315,-636,4.3739,35.4103,0.00546265,-0.0151392,0.00667404,0.00743576,-0.0171123,0.287451,0.0145353,0.0137167,909,1660,4.37389,-35.4103
-308,-636,4.36285,35.993,0.00484415,-0.012966,0.00542948,0.00636882,-0.0144906,0.273763,0.0123437,0.012376,916,1660,4.36284,-35.9931
-301,-636,4.37848,36.5828,0.00427093,-0.0103657,0.00443149,0.00550807,-0.0116028,0.27224,0.0100857,0.0116898,923,1660,4.37846,-36.5827
-294,-636,4.31995,37.1505,0.00387779,-0.00771401,0.00372399,0.00497105,-0.00880727,0.28555,0.00805704,0.015025,930,1660,4.31995,-37.1505
-287,-636,4.28424,37.682,0.00344285,-0.00508353,0.00315772,0.00448494,-0.00612562,0.318759,0.00615037,0.0142124,937,1660,4.28425,-37.682
-280,-636,4.28143,38.2183,0.00317358,-0.00250684,0.00281876,0.0043349,-0.00366816,0.390804,0.00462591,0.0136034,944,1660,4.28143,-38.2182
-273,-636,4.27484,38.7625,0.00304916,-0.000296976,0.00260582,0.00447278,-0.00172059,0.500015,0.00369155,0.01315,951,1660,4.27481,-38.7624
-266,-636,4.26135,39.3151,0.00312857,0.0017225,0.0025043,0.00502665,-0.000175574,0.648555,0.00341113,0.0141827,958,1660,4.26134,-39.315
-259,-636,4.24347,39.8517,0.00332254,0.003568,0.00257803,0.00602622,0.000864316,0.809183,0.00376261,0.0168789,965,1660,4.24349,-39.8517
-252,-636,4.21381,40.3634,0.00360553,0.00491505,0.0026824,0.00702144,0.00149914,0.905104,0.00426989,0.0128746,972,1660,4.21382,-40.3634
-245,-636,4.21332,40.9027,0.00405332,0.0056165,0.00282635,0.00776734,0.00190248,0.920295,0.00467493,0.0112998,979,1660,4.21334,-40.9028
-238,-636,4.22687,41.431,0.00462792,0.00597184,0.0028167,0.00819562,0.00240414,0.902491,0.0048646,0.0123257,986,1660,4.22686,-41.431
-231,-636,4.22241,41.9213,0.00523158,0.00599112,0.00300792,0.00864316,0.00257955,0.848194,0.00512349,0.0111406,993,1660,4.22243,-41.9212
-224,-636,4.22498,42.4034,0.00624348,0.00761501,0.00317752,0.0101799,0.00367857,0.891677,0.00595222,0.0102907,1000,1660,4.22497,-42.4034
-217,-636,4.20392,42.9613,0.00792695,0.0101679,0.00341499,0.0126415,0.00545331,0.943916,0.00732146,0.0197107,1007,1660,4.20394,-42.9613
-210,-636,4.19409,43.4626,0.0104903,0.0135371,0.00354527,0.0158724,0.00815499,0.988322,0.00916511,0.0324411,1014,1660,4.19408,-43.4627
-203,-636,4.17017,44.0602,0.0129058,0.0165454,0.00380063,0.0189394,0.0105117,1.00868,0.0109567,0.0343573,1021,1660,4.17018,-44.0601
-196,-636,4.39038,44.3971,0.0154906,0.021063,0.00408954,0.0232252,0.0133283,1.08443,0.0134578,0.0341507,1028,1660,4.39038,-44.3971
-189,-636,4.39307,44.7759,0.018394,0.0265684,0.00423899,0.0283697,0.0165927,1.16899,0.0164577,0.0306534,1035,1660,4.39311,-44.7759
-182,-636,4.50452,45.1705,0.0219261,0.0322984,0.00475866,0.0341508,0.0200737,1.19958,0.0198181,0.0418633,1042,1660,4.50456,-45.1705
-175,-636,4.4928,46.5332,0.0251937,0.0392425,0.00504226,0.0408649,0.0235713,1.2595,0.023686,0.0460972,1049,1660,4.4928,-46.5332
-168,-636,4.79529,47.1274,0.0284456,0.0468336,0.00537113,0.0482875,0.0269917,1.30644,0.0279434,0.0463705,1056,1660,4.79526,-47.1275
-161,-636,5.20947,47.4784,0.0312162,0.0542744,0.00532876,0.0554463,0.0300443,1.35432,0.0320493,0.044082,1063,1660,5.20952,-47.4784
-154,-636,5.61853,48.0455,0,0,0,0,0,0,0,-1,1070,1660,5.61859,-48.0455
-147,-636,5.1665,47.2334,0,0,0,0,0,0,0,-1,1077,1660,5.16646,-47.2333
-140,-636,3.4729,27.1271,0,0,0,0,0,0,0,-1,1084,1660,3.47287,-27.1271
-133,-636,4.68311,18.0922,0,0,0,0,0,0,0,-1,1091,1660,4.68316,-18.0921
-126,-636,3.79028,18.2225,0,0,0,0,0,0,0,-1,1098,1660,3.79025,-18.2226
-119,-636,1.8667,13.8916,0,0,0,0,0,0,0,-1,1105,1660,1.86668,-13.8916
-112,-636,-1.24963,9.7998,0,0,0,0,0,0,0,-1,1112,1660,-1.24968,-9.79978
-105,-636,3.51624,4.72791,0,0,0,0,0,0,0,-1,1119,1660,3.51618,-4.7279
-98,-636,1.54504,5.11914,0,0,0,0,0,0,0,-1,1126,1660,1.54503,-5.11912
-91,-636,-1.87964,-2.25012,0,0,0,0,0,0,0,-1,1133,1660,-1.87966,2.25016
-84,-636,-2.84143,0.133667,0,0,0,0,0,0,0,-1,1140,1660,-2.84144,-0.133701
-77,-636,-3.57349,2.45935,0,0,0,0,0,0,0,-1,1147,1660,-3.57345,-2.45939
-70,-636,-4.23682,4.82312,0,0,0,0,0,0,0,-1,1154,1660,-4.23681,-4.82307
-63,-636,-2.21033,6.97168,0,0,0,0,0,0,0,-1,1161,1660,-2.21034,-6.97165
-56,-636,-2.51917,8.80359,0,0,0,0,0,0,0,-1,1168,1660,-2.51916,-8.80361
-49,-636,-3.13,10.4113,0,0,0,0,0,0,0,-1,1175,1660,-3.12996,-10.4112
-42,-636,-2.27771,4.90173,0,0,0,0,0,0,0,-1,1182,1660,-2.27775,-4.90173
-35,-636,-2.27698,5.89685,0,0,0,0,0,0,0,-1,1189,1660,-2.27695,-5.89686
-28,-636,-1.70654,4.83936,0,0,0,0,0,0,0,-1,1196,1660,-1.70656,-4.8393
-21,-636,4.24683,27.7834,0,0,0,0,0,0,0,-1,1203,1660,4.24687,-27.7835
-14,-636,9.922,62.2584,0,0,0,0,0,0,0,-1,1210,1660,9.922,-62.2584
-7,-636,9.54138,56.1621,0,0,0,0,0,0,0,-1,1217,1660,9.54135,-56.1622
0,-636,9.98462,57.0859,0.0678803,0.273307,0.0956893,0.310973,0.0302139,1.19579,0.198014,0.0457497,1224,1660,9.98466,-57.0859
7,-636,10.4319,58.0824,0.0585928,0.266063,0.0945781,0.302706,0.0219499,1.20117,0.1949,0.0440289,1231,1660,10.4319,-58.0824
14,-636,10.6754,58.9479,0.0429561,0.257166,0.0877929,0.28855,0.0115726,1.22748,0.188627,0.0426491,1238,1660,10.6754,-58.9479
21,-636,10.8081,59.6833,0.0293442,0.24691,0.0801903,0.273273,0.00298204,1.25318,0.181196,0.0432516,1245,1660,10.8082,-59.6834
28,-636,11.1857,60.4132,0.0247974,0.232308,0.0734746,0.255689,0.00141625,1.26271,0.16999,0.0462641,1252,1660,11.1857,-60.4132
35,-636,11.5642,61.0934,0.0262613,0.212829,0.067218,0.234524,0.00456628,1.2586,0.15485,0.0446219,1259,1660,11.5642,-61.0934
42,-636,11.292,61.5688,0.0308163,0.1905,0.0611885,0.21125,0.0100662,1.24385,0.137601,0.0479209,1266,1660,11.292,-61.5689
49,-636,11.2006,62.234,0.0368339,0.167857,0.0554038,0.188144,0.0165472,1.2198,0.120294,0.0473534,1273,1660,11.2005,-62.234
56,-636,11.0958,62.8406,0,0,0,0,0,0,0,-1,1280,1660,11.0958,-62.8406
63,-636,8.35791,54.3904,0,0,0,0,0,0,0,-1,1287,1660,8.35787,-54.3903
70,-636,9.08264,54.1797,0,0,0,0,0,0,0,-1,1294,1660,9.08265,-54.1797
77,-636,9.72473,54.2896,0.065319,0.0742308,0.0278944,0.098023,0.0415268,0.8646,0.0568132,0.0458533,1301,1660,9.72476,-54.2895
84,-636,10.1523,54.2239,0.0669837,0.0529543,0.021288,0.0823829,0.0375551,0.626243,0.0476255,0.0454828,1308,1660,10.1523,-54.2239
91,-636,10.6132,54.0239,0.0638856,0.035275,0.0145676,0.0699973,0.0291632,0.39724,0.0405998,0.0427351,1315,1660,10.6132,-54.024
98,-636,10.9243,53.4492,0.055693,0.0221802,0.00879857,0.0578625,0.0200106,0.241758,0.0339322,0.0460522,1322,1660,10.9243,-53.4492
105,-636,11.3141,52.8218,0,0,0,0,0,0,0,-1,1329,1660,11.314,-52.8218
112,-636,10.7542,50.7142,0,0,0,0,0,0,0,-1,1336,1660,10.7542,-50.7142
119,-636,6.93237,52.3501,0,0,0,0,0,0,0,-1,1343,1660,6.9324,-52.35
126,-636,6.84106,51.9601,0,0,0,0,0,0,0,-1,1350,1660,6.84106,-51.9601
133,-636,6.51575,51.8519,0,0,0,0,0,0,0,-1,1357,1660,6.51573,-51.852
140,-636,5.86877,51.9287,0,0,0,0,0,0,0,-1,1364,1660,5.86873,-51.9287
147,-636,5.17114,59.1694,0,0,0,0,0,0,0,-1,1371,1660,5.17111,-59.1694
154,-636,4.98389,59.8845,0,0,0,0,0,0,0,-1,1378,1660,4.98385,-59.8845
161,-636,10.2961,7.13025,0,0,0,0,0,0,0,-1,1385,1660,10.2961,-7.13021
168,-636,11.7659,5.83899,0,0,0,0,0,0,0,-1,1392,1660,11.7658,-5.83899
175,-636,5.94592,-1.72888,0,0,0,0,0,0,0,-1,1399,1660,5.94598,1.72886
182,-636,5.93994,-1.11938,0,0,0,0,0,0,0,-1,1406,1660,5.93998,1.11936
189,-636,5.32544,11.9595,0,0,0,0,0,0,0,-1,1413,1660,5.32542,-11.9595
196,-636,5.3623,9.38025,0,0,0,0,0,0,0,-1,1420,1660,5.36225,-9.38027
203,-636,5.18542,9.02429,0,0,0,0,0,0,0,-1,1427,1660,5.18547,-9.0243
210,-636,4.09167,7.17041,0,0,0,0,0,0,0,-1,1434,1660,4.09173,-7.17041
217,-636,2.94897,5.28992,0,0,0,0,0,0,0,-1,1441,1660,2.94899,-5.28991
224,-636,1.49194,3.63916,0,0,0,0,0,0,0,-1,1448,1660,1.49197,-3.63918
231,-636,0.17749,2.24854,0,0,0,0,0,0,0,-1,1455,1660,0.177501,-2.24855
238,-636,-0.764648,1.00598,0,0,0,0,0,0,0,-1,1462,1660,-0.764704,-1.00595
245,-636,6.21204,1.18005,0,0,0,0,0,0,0,-1,1469,1660,6.21206,-1.18001
252,-636,7.70251,0.865723,0,0,0,0,0,0,0,-1,1476,1660,7.7025,-0.865692
259,-636,9.03601,0.787231,0,0,0,0,0,0,0,-1,1483,1660,9.03598,-0.787243
266,-636,10.1071,3.24109,0,0,0,0,0,0,0,-1,1490,1660,10.1071,-3.24103
273,-636,8.48535,5.02466,0,0,0,0,0,0,0,-1,1497,1660,8.48533,-5.02472
280,-636,11.908,32.0698,0,0,0,0,0,0,0,-1,1504,1660,11.9079,-32.0698
287,-636,12.1218,36.4158,0,0,0,0,0,0,0,-1,1511,1660,12.1218,-36.4158
294,-636,13.3706,44.9711,0,0,0,0,0,0,0,-1,1518,1660,13.3706,-44.9711
301,-636,13.7764,46.9003,0,0,0,0,0,0,0,-1,1525,1660,13.7763,-46.9003
308,-636,14.3455,45.6163,0,0,0,0,0,0,0,-1,1532,1660,14.3455,-45.6164
315,-636,14.0175,45.3479,0,0,0,0,0,0,0,-1,1539,1660,14.0174,-45.3479
322,-636,13.9742,44.7571,0,0,0,0,0,0,0,-1,1546,1660,13.9742,-44.757
329,-636,13.9945,44.4563,0.0157766,0.0295399,-0.0128278,0.0372153,0.00810113,-1.03159,0.0225991,0.037136,1553,1660,13.9946,-44.4563
336,-636,13.9303,43.845,0.0143593,0.0272565,-0.0123497,0.0347398,0.00687597,-1.02601,0.0212422,0.0261359,1560,1660,13.9303,-43.845
343,-636,14.0116,43.3519,0.0130359,0.0249699,-0.0117441,0.032176,0.00582988,-1.02045,0.0197956,0.0189769,1567,1660,14.0116,-43.3519
350,-636,14.0247,42.8502,0.0118253,0.0225194,-0.0110006,0.0294037,0.00494111,-1.01162,0.0181806,0.0119173,1574,1660,14.0247,-42.8502
357,-636,14.0735,42.3315,0.0103883,0.0196191,-0.00992912,0.0259531,0.0040543,-1.00296,0.0161215,0.0107308,1581,1660,14.0735,-42.3315
364,-636,14.0684,41.8501,0.00929317,0.0170156,-0.00909428,0.0230344,0.00327435,-0.986153,0.0143895,0.0107834,1588,1660,14.0684,-41.8501
371,-636,14.058,41.3734,0.00833966,0.014173,-0.00812901,0.0198927,0.0026199,-0.957643,0.0124805,0.00931886,1595,1660,14.058,-41.3734
378,-636,14.072,40.8696,0.00729962,0.0114328,-0.00707504,0.0167369,0.00199551,-0.927492,0.0105558,0.00986285,1602,1660,14.0721,-40.8697
385,-636,14.0872,40.3655,0.00634597,0.00878921,-0.00602425,0.0137145,0.00142072,-0.885434,0.00870811,0.0152141,1609,1660,14.0872,-40.3654
392,-636,14.0723,39.8698,0.00550154,0.0064734,-0.00509306,0.0111037,0.000871284,-0.83296,0.00712978,0.0156083,1616,1660,14.0722,-39.8697
399,-636,14.0447,39.3691,0.00456471,0.00439027,-0.00421068,0.00868907,0.000265907,-0.775043,0.00570615,0.0122572,1623,1660,14.0447,-39.3691
406,-636,14.0479,38.8662,0.00372372,0.00272164,-0.00352514,0.00678325,-0.000337891,-0.714804,0.0046389,0.0150185,1630,1660,14.0478,-38.8662
413,-636,14.021,38.3407,0.00317755,0.00163868,-0.00309888,0.00560108,-0.000784856,-0.663712,0.00402129,0.0241652,1637,1660,14.021,-38.3407
420,-636,13.9701,37.829,0.00277669,0.000968063,-0.00284276,0.0048555,-0.00111075,-0.631404,0.00366381,0.0251443,1644,1660,13.9701,-37.829
427,-636,14.0004,37.303,0.00237881,0.000482435,-0.00268327,0.0042765,-0.00141526,-0.615561,0.00342174,0.0167312,1651,1660,14.0004,-37.303
434,-636,13.9814,36.7625,0.00215818,0.000547763,-0.00284753,0.00431216,-0.00160621,-0.647608,0.00353402,0.0158358,1658,1660,13.9814,-36.7625
441,-636,13.9512,36.2174,0.00200656,0.000851516,-0.00317754,0.00465864,-0.00180056,-0.695504,0.00384899,0.0132909,1665,1660,13.9511,-36.2174
448,-636,13.9729,35.683,0.00187436,0.00112624,-0.00351184,0.00503201,-0.0020314,-0.732341,0.00419893,0.0143552,1672,1660,13.9729,-35.683
455,-636,13.8979,35.1216,0.0018979,0.00175894,-0.00402589,0.00585491,-0.00219807,-0.77677,0.00480652,0.0137397,1679,1660,13.898,-35.1216
462,-636,13.8356,34.5647,0.00187732,0.00248172,-0.00451168,0.00670131,-0.00234227,-0.818839,0.00541972,0.0186948,1686,1660,13.8355,-34.5647
469,-636,13.8663,33.9839,0.00167955,0.00306718,-0.00493739,0.00735926,-0.00261254,-0.855202,0.00597069,0.0351928,1693,1660,13.8663,-33.9839
476,-636,14.0057,33.413,0,0,0,0,0,0,0,-1,1700,1660,14.0057,-33.4129
483,-636,11.3833,24.3958,0,0,0,0,0,0,0,-1,1707,1660,11.3833,-24.3957
490,-636,10.8951,23.9569,0,0,0,0,0,0,0,-1,1714,1660,10.8951,-23.9569
497,-636,9.55579,18.0111,0,0,0,0,0,0,0,-1,1721,1660,9.55574,-18.0111
504,-636,6.26428,19.4268,0,0,0,0,0,0,0,-1,1728,1660,6.26433,-19.4268
511,-636,5.65466,9.23218,0,0,0,0,0,0,0,-1,1735,1660,5.65461,-9.23216
518,-636,6.72791,1.07605,0,0,0,0,0,0,0,-1,1742,1660,6.7279,-1.0761
525,-636,7.04309,0.93335,0,0,0,0,0,0,0,-1,1749,1660,7.04308,-0.933298
532,-636,0,0,0,0,0,0,0,0,0,-1,1756,1660,0,0
539,-636,0,0,0,0,0,0,0,0,0,-1,1763,1660,0,0
546,-636,0,0,0,0,0,0,0,0,0,-1,1770,1660,0,0
553,-636,0,0,0,0,0,0,0,0,0,-1,1777,1660,0,0
560,-636,0,0,0,0,0,0,0,0,0,-1,1784,1660,0,0
567,-636,0,0,0,0,0,0,0,0,0,-1,1791,1660,0,0
574,-636,0,0,0,0,0,0,0,0,0,-1,1798,1660,0,0
581,-636,0,0,0,0,0,0,0,0,0,-1,1805,1660,0,0
588,-636,0,0,0,0,0,0,0,0,0,-1,1812,1660,0,0
595,-636,0,0,0,0,0,0,0,0,0,-1,1819,1660,0,0
602,-636,0,0,0,0,0,0,0,0,0,-1,1826,1660,0,0
609,-636,0,0,0,0,0,0,0,0,0,-1,1833,1660,0,0
616,-636,0,0,0,0,0,0,0,0,0,-1,1840,1660,0,0
623,-636,0,0,0,0,0,0,0,0,0,-1,1847,1660,0,0
630,-636,0,0,0,0,0,0,0,0,0,-1,1854,1660,0,0
637,-636,0,0,0,0,0,0,0,0,0,-1,1861,1660,0,0
644,-636,0,0,0,0,0,0,0,0,0,-1,1868,1660,0,0
651,-636,0,0,0,0,0,0,0,0,0,-1,1875,1660,0,0
658,-636,0,0,0,0,0,0,0,0,0,-1,1882,1660,0,0
665,-636,0,0,0,0,0,0,0,0,0,-1,1889,1660,0,0
672,-636,0,0,0,0,0,0,0,0,0,-1,1896,1660,0,0
679,-636,0,0,0,0,0,0,0,0,0,-1,1903,1660,0,0
686,-636,0,0,0,0,0,0,0,0,0,-1,1910,1660,0,0
693,-636,0,0,0,0,0,0,0,0,0,-1,1917,1660,0,0
700,-636,0,0,0,0,0,0,0,0,0,-1,1924,1660,0,0
707,-636,0,0,0,0,0,0,0,0,0,-1,1931,1660,0,0
714,-636,0,0,0,0,0,0,0,0,0,-1,1938,1660,0,0
721,-636,0,0,0,0,0,0,0,0,0,-1,1945,1660,0,0
728,-636,0,0,0,0,0,0,0,0,0,-1,1952,1660,0,0
735,-636,0,0,0,0,0,0,0,0,0,-1,1959,1660,0,0
742,-636,0,0,0,0,0,0,0,0,0,-1,1966,1660,0,0
749,-636,0,0,0,0,0,0,0,0,0,-1,1973,1660,0,0
756,-636,0,0,0,0,0,0,0,0,0,-1,1980,1660,0,0
763,-636,0,0,0,0,0,0,0,0,0,-1,1987,1660,0,0
770,-636,0,0,0,0,0,0,0,0,0,-1,1994,1660,0,0
777,-636,0,0,0,0,0,0,0,0,0,-1,2001,1660,0,0
784,-636,0,0,0,0,0,0,0,0,0,-1,2008,1660,0,0
791,-636,0,0,0,0,0,0,0,0,0,-1,2015,1660,0,0
798,-636,0,0,0,0,0,0,0,0,0,-1,2022,1660,0,0
805,-636,0,0,0,0,0,0,0,0,0,-1,2029,1660,0,0
812,-636,0,0,0,0,0,0,0,0,0,-1,2036,1660,0,0
-700,-643,0,0,0,0,0,0,0,0,0,-1,524,1667,0,0
-693,-643,0,0,0,0,0,0,0,0,0,-1,531,1667,0,0
-686,-643,0,0,0,0,0,0,0,0,0,-1,538,1667,0,0
-679,-643,0,0,0,0,0,0,0,0,0,-1,545,1667,0,0
-672,-643,0,0,0,0,0,0,0,0,0,-1,552,1667,0,0
-665,-643,0,0,0,0,0,0,0,0,0,-1,559,1667,0,0
-658,-643,0,0,0,0,0,0,0,0,0,-1,566,1667,0,0
-651,-643,0,0,0,0,0,0,0,0,0,-1,573,1667,0,0
-644,-643,0,0,0,0,0,0,0,0,0,-1,580,1667,0,0
-637,-643,0,0,0,0,0,0,0,0,0,-1,587,1667,0,0
-630,-643,0,0,0,0,0,0,0,0,0,-1,594,1667,0,0
-623,-643,0,0,0,0,0,0,0,0,0,-1,601,1667,0,0
-616,-643,0,0,0,0,0,0,0,0,0,-1,608,1667,0,0
-609,-643,0,0,0,0,0,0,0,0,0,-1,615,1667,0,0
-602,-643,0,0,0,0,0,0,0,0,0,-1,622,1667,0,0
-595,-643,0,0,0,0,0,0,0,0,0,-1,629,1667,0,0
-588,-643,0,0,0,0,0,0,0,0,0,-1,636,1667,0,0
-581,-643,0,0,0,0,0,0,0,0,0,-1,643,1667,0,0
-574,-643,0,0,0,0,0,0,0,0,0,-1,650,1667,0,0
-567,-643,0,0,0,0,0,0,0,0,0,-1,657,1667,0,0
-560,-643,0,0,0,0,0,0,0,0,0,-1,664,1667,0,0
-553,-643,0,0,0,0,0,0,0,0,0,-1,671,1667,0,0
-546,-643,0,0,0,0,0,0,0,0,0,-1,678,1667,0,0
-539,-643,0,0,0,0,0,0,0,0,0,-1,685,1667,0,0
-532,-643,0,0,0,0,0,0,0,0,0,-1,692,1667,0,0
-525,-643,0,0,0,0,0,0,0,0,0,-1,699,1667,0,0
-518,-643,0,0,0,0,0,0,0,0,0,-1,706,1667,0,0
-511,-643,0,0,0,0,0,0,0,0,0,-1,713,1667,0,0
-504,-643,0,0,0,0,0,0,0,0,0,-1,720,1667,0,0
-497,-643,0,0,0,0,0,0,0,0,0,-1,727,1667,0,0
-490,-643,0,0,0,0,0,0,0,0,0,-1,734,1667,0,0
-483,-643,0,0,0,0,0,0,0,0,0,-1,741,1667,0,0
-476,-643,0,0,0,0,0,0,0,0,0,-1,748,1667,0,0
-469,-643,0,0,0,0,0,0,0,0,0,-1,755,1667,0,0
-462,-643,0,0,0,0,0,0,0,0,0,-1,762,1667,0,0
-455,-643,0,0,0,0,0,0,0,0,0,-1,769,1667,0,0
-448,-643,0,0,0,0,0,0,0,0,0,-1,776,1667,0,0
-441,-643,0,0,0,0,0,0,0,0,0,-1,783,1667,0,0
-434,-643,0,0,0,0,0,0,0,0,0,-1,790,1667,0,0
-427,-643,0,0,0,0,0,0,0,0,0,-1,797,1667,0,0
-420,-643,0,0,0,0,0,0,0,0,0,-1,804,1667,0,0
-413,-643,0,0,0,0,0,0,0,0,0,-1,811,1667,0,0
-406,-643,0,0,0,0,0,0,0,0,0,-1,818,1667,0,0
-399,-643,0.589417,11.6465,0,0,0,0,0,0,0,-1,825,1667,0.58939,-11.6465
-392,-643,0.865295,12.6523,0,0,0,0,0,0,0,-1,832,1667,0.865315,-12.6523
-385,-643,1.72968,13.2692,0,0,0,0,0,0,0,-1,839,1667,1.72967,-13.2692
-378,-643,2.66522,13.8193,0,0,0,0,0,0,0,-1,846,1667,2.66524,-13.8193
-371,-643,0.466125,3.35095,0,0,0,0,0,0,0,-1,853,1667,0.466148,-3.351
-364,-643,1.69513,9.922,0,0,0,0,0,0,0,-1,860,1667,1.69511,-9.92205
-357,-643,1.14227,10.8429,0,0,0,0,0,0,0,-1,867,1667,1.14228,-10.8429
-350,-643,2.50061,9.96948,0,0,0,0,0,0,0,-1,874,1667,2.50059,-9.96954
-343,-643,4.76263,32.9668,0,0,0,0,0,0,0,-1,881,1667,4.76262,-32.9668
-336,-643,4.73596,33.5863,0,0,0,0,0,0,0,-1,888,1667,4.73598,-33.5862
-329,-643,4.94635,34.1715,0.00991341,-0.0260245,0.0129515,0.0140945,-0.0302056,0.312265,0.0261344,0.0424559,895,1667,4.94633,-34.1715
-322,-643,4.97699,34.8478,0.00882521,-0.0243122,0.0107472,0.0120055,-0.0274926,0.287711,0.0233813,0.0286632,902,1667,4.97698,-34.8478
-315,-643,4.89874,35.4292,0.00769328,-0.0220824,0.00869754,0.0100477,-0.0244368,0.264362,0.0204792,0.0207417,909,1667,4.89875,-35.4292
-308,-643,4.93518,35.9897,0.00658867,-0.0192314,0.00680083,0.00827043,-0.0209131,0.242423,0.0173682,0.0145291,916,1667,4.9352,-35.9897
-301,-643,4.93555,36.5715,0.00551292,-0.0159058,0.00523319,0.00672316,-0.017116,0.227266,0.0141928,0.0143001,923,1667,4.93555,-36.5716
-294,-643,4.87415,37.1461,0.00460797,-0.0124883,0.00402347,0.00550753,-0.0133879,0.21996,0.0112211,0.0129541,930,1667,4.87412,-37.1461
-287,-643,4.84967,37.6991,0.0037295,-0.00929211,0.00307718,0.00442005,-0.00998267,0.220755,0.00851963,0.0113589,937,1667,4.84967,-37.6991
-280,-643,4.84113,38.2345,0.00303087,-0.00621237,0.00242797,0.00362982,-0.00681133,0.241861,0.00612077,0.015293,944,1667,4.84115,-38.2344
-273,-643,4.8089,38.7686,0.0025264,-0.00357169,0.00195446,0.00309904,-0.00414433,0.285013,0.00419645,0.0131036,951,1667,4.80891,-38.7686
-266,-643,4.78473,39.3242,0.00233948,-0.00119505,0.00164417,0.00298603,-0.0018416,0.374665,0.00281322,0.0124633,958,1667,4.78471,-39.3242
-259,-643,4.77313,39.8634,0.0023046,0.00106632,0.00155071,0.0033552,1.57175e-05,0.595464,0.00223158,0.0129454,965,1667,4.77313,-39.8634
-252,-643,4.74677,40.3983,0.00235719,0.00273841,0.00154772,0.00410721,0.000988388,0.846669,0.00247535,0.0144257,972,1667,4.74675,-40.3983
-245,-643,4.72546,40.9208,0.00253959,0.00362184,0.00176547,0.00492725,0.00123418,0.934105,0.00296047,0.0129552,979,1667,4.72548,-40.9208
-238,-643,4.76697,41.4346,0.00307865,0.00397813,0.0017698,0.00535445,0.00170234,0.909824,0.00315897,0.0158113,986,1667,4.76695,-41.4345
-231,-643,4.73395,41.9427,0.00365743,0.0040672,0.0019517,0.00582474,0.00189989,0.837696,0.00342998,0.0115679,993,1667,4.73392,-41.9427
-224,-643,4.72766,42.4164,0.00456223,0.00544919,0.00215891,0.0072097,0.00280172,0.886699,0.00419682,0.0105184,1000,1667,4.72764,-42.4163
-217,-643,4.71454,42.8767,0.00591697,0.00741649,0.00235255,0.00913586,0.0041976,0.93966,0.00528037,0.0100597,1007,1667,4.71453,-42.8768
-210,-643,4.70074,43.3816,0.00787112,0.00997065,0.00245267,0.0115888,0.006253,0.987607,0.00669776,0.0131158,1014,1667,4.70073,-43.3816
-203,-643,4.70593,43.9343,0.00969798,0.0122229,0.00266635,0.0139105,0.00801031,1.0065,0.008062,0.0171244,1021,1667,4.70593,-43.9344
-196,-643,4.73267,44.3892,0.0116693,0.0154572,0.00295703,0.0170748,0.0100517,1.07023,0.00990969,0.0169945,1028,1667,4.73263,-44.3892
-189,-643,4.82959,44.8048,0.0137955,0.0195233,0.0031926,0.0209482,0.0123705,1.15099,0.0121604,0.0160893,1035,1667,4.82954,-44.8048
-182,-643,4.8761,45.3208,0.0162425,0.0238958,0.00357577,0.0253065,0.0148319,1.19504,0.0146827,0.0229347,1042,1667,4.87605,-45.3208
-175,-643,4.96057,45.9353,0.0185553,0.0291578,0.00373663,0.0303423,0.0173707,1.26381,0.0175794,0.0344968,1049,1667,4.96063,-45.9353
-168,-643,5.03699,46.4197,0.0208286,0.0349113,0.00396827,0.0359525,0.0197874,1.3142,0.0207923,0.0407418,1056,1667,5.03697,-46.4197
-161,-643,5.6897,46.793,0,0,0,0,0,0,0,-1,1063,1667,5.6897,-46.793
-154,-643,5.24976,46.682,0,0,0,0,0,0,0,-1,1070,1667,5.24975,-46.682
-147,-643,5.12842,47.1154,0,0,0,0,0,0,0,-1,1077,1667,5.12846,-47.1154
-140,-643,4.30322,22.9166,0,0,0,0,0,0,0,-1,1084,1667,4.30327,-22.9167
-133,-643,3.66748,21.6034,0,0,0,0,0,0,0,-1,1091,1667,3.66743,-21.6034
-126,-643,3.13904,17.689,0,0,0,0,0,0,0,-1,1098,1667,3.13909,-17.689
-119,-643,3.76282,14.1458,0,0,0,0,0,0,0,-1,1105,1667,3.76283,-14.1458
-112,-643,3.81458,16.2069,0,0,0,0,0,0,0,-1,1112,1667,3.81463,-16.2069
-105,-643,-2.23413,10.0996,0,0,0,0,0,0,0,-1,1119,1667,-2.23415,-10.0996
-98,-643,3.11035,4.68066,0,0,0,0,0,0,0,-1,1126,1667,3.11041,-4.68071
-91,-643,-1.74146,-2.5885,0,0,0,0,0,0,0,-1,1133,1667,-1.74146,2.58856
-84,-643,-3.07446,-0.199341,0,0,0,0,0,0,0,-1,1140,1667,-3.07449,0.199383
-77,-643,-3.63794,2.81165,0,0,0,0,0,0,0,-1,1147,1667,-3.63791,-2.8117
-70,-643,-3.36938,4.45203,0,0,0,0,0,0,0,-1,1154,1667,-3.36941,-4.452
-63,-643,-3.67822,6.26855,0,0,0,0,0,0,0,-1,1161,1667,-3.67823,-6.26856
-56,-643,-3.95142,8.1073,0,0,0,0,0,0,0,-1,1168,1667,-3.95139,-8.10732
-49,-643,-4.23535,9.90552,0,0,0,0,0,0,0,-1,1175,1667,-4.23537,-9.90557
-42,-643,-4.25195,10.7059,0,0,0,0,0,0,0,-1,1182,1667,-4.25192,-10.706
-35,-643,-4.10986,11.6588,0,0,0,0,0,0,0,-1,1189,1667,-4.10982,-11.6589
-28,-643,-1.38513,5.604,0,0,0,0,0,0,0,-1,1196,1667,-1.3851,-5.60403
-21,-643,1.61011,23.1276,0,0,0,0,0,0,0,-1,1203,1667,1.61011,-23.1275
-14,-643,6.74866,48.6038,0,0,0,0,0,0,0,-1,1210,1667,6.74862,-48.6037
-7,-643,9.58484,54.1525,0,0,0,0,0,0,0,-1,1217,1667,9.58482,-54.1524
0,-643,10.0542,55.0522,0,0,0,0,0,0,0,-1,1224,1667,10.0542,-55.0522
7,-643,10.4529,56.631,0,0,0,0,0,0,0,-1,1231,1667,10.4529,-56.631
14,-643,10.7157,57.2146,0.0373478,0.23359,0.0775948,0.260563,0.0103741,1.23624,0.170356,0.0437545,1238,1667,10.7156,-57.2146
21,-643,10.6019,58.4857,0.0265519,0.224345,0.0699122,0.246561,0.00433592,1.26312,0.162948,0.0434546,1245,1667,10.6019,-58.4857
28,-643,10.9291,58.9142,0,0,0,0,0,0,0,-1,1252,1667,10.9291,-58.9142
35,-643,10.941,59.609,0.0239892,0.193552,0.054369,0.209488,0.00805382,1.28568,0.137053,0.0432981,1259,1667,10.9411,-59.6091
42,-643,10.833,60.2665,0.0280484,0.173523,0.0471909,0.18749,0.014081,1.28303,0.120574,0.0475185,1266,1667,10.833,-60.2664
49,-643,9.71729,58.8694,0.0337176,0.152574,0.0404302,0.165023,0.0212687,1.2721,0.103655,0.0479507,1273,1667,9.71725,-58.8693
56,-643,6.5188,54.6099,0,0,0,0,0,0,0,-1,1280,1667,6.51883,-54.6099
63,-643,7.36121,54.4344,0.04668,0.109286,0.0269771,0.119307,0.0366593,1.21514,0.0705668,0.0471451,1287,1667,7.36118,-54.4344
70,-643,8.21826,54.3202,0.0536569,0.0876141,0.0200113,0.0968791,0.0443919,1.13719,0.0559982,0.0434098,1294,1667,8.21825,-54.3202
77,-643,9.00708,54.1909,0.0598776,0.0690934,0.0123059,0.0776258,0.0513451,0.96454,0.0455894,0.0435102,1301,1667,9.00711,-54.1909
84,-643,9.62866,54.2137,0.0612225,0.0505843,0.00667495,0.0644385,0.0473683,0.448981,0.03855,0.0484989,1308,1667,9.62861,-54.2138
91,-643,10.12,53.8531,0.0579761,0.0347668,0.000903948,0.0580113,0.0347317,0.0388692,0.0337097,0.0483064,1315,1667,10.12,-53.8531
98,-643,10.75,53.3287,0.0504414,0.0227079,-0.00420721,0.0510656,0.0220837,-0.147288,0.0295723,0.0465148,1322,1667,10.7501,-53.3287
105,-643,11.1791,52.7163,0,0,0,0,0,0,0,-1,1329,1667,11.1791,-52.7163
112,-643,7.28796,53.2947,0,0,0,0,0,0,0,-1,1336,1667,7.288,-53.2947
119,-643,7.31958,52.5358,0,0,0,0,0,0,0,-1,1343,1667,7.31953,-52.5358
126,-643,7.03345,52.6531,0,0,0,0,0,0,0,-1,1350,1667,7.03347,-52.6531
133,-643,6.55237,52.283,-0.0437941,-0.00893213,-0.0236941,0.00305201,-0.0557782,-1.10253,0.0382434,0.0461138,1357,1667,6.55231,-52.283
140,-643,6.05334,52.2534,-0.0654727,-0.0169867,-0.0221459,-0.00839435,-0.0740651,-1.20069,0.0468301,0.0458766,1364,1667,6.05337,-52.2534
147,-643,5.56091,52.2714,0,0,0,0,0,0,0,-1,1371,1667,5.56092,-52.2713
154,-643,4.88708,58.9608,0,0,0,0,0,0,0,-1,1378,1667,4.88705,-58.9608
161,-643,5.57935,26.2754,0,0,0,0,0,0,0,-1,1385,1667,5.57931,-26.2754
168,-643,10.5563,10.9818,0,0,0,0,0,0,0,-1,1392,1667,10.5562,-10.9819
175,-643,5.88525,-1.1698,0,0,0,0,0,0,0,-1,1399,1667,5.88526,1.16977
182,-643,5.80945,-0.418701,0,0,0,0,0,0,0,-1,1406,1667,5.80949,0.418712
189,-643,5.42297,12.9208,0,0,0,0,0,0,0,-1,1413,1667,5.42298,-12.9208
196,-643,5.51953,11.2415,0,0,0,0,0,0,0,-1,1420,1667,5.51948,-11.2414
203,-643,5.60828,9.82153,0,0,0,0,0,0,0,-1,1427,1667,5.60833,-9.82148
210,-643,4.73218,7.58728,0,0,0,0,0,0,0,-1,1434,1667,4.73222,-7.58728
217,-643,3.8031,5.28955,0,0,0,0,0,0,0,-1,1441,1667,3.80305,-5.28955
224,-643,2.96436,2.97095,0,0,0,0,0,0,0,-1,1448,1667,2.96432,-2.97095
231,-643,2.13403,1.08472,0,0,0,0,0,0,0,-1,1455,1667,2.13403,-1.08467
238,-643,1.18152,-0.261963,0,0,0,0,0,0,0,-1,1462,1667,1.18152,0.26192
245,-643,-0.157471,-1.79016,0,0,0,0,0,0,0,-1,1469,1667,-0.157517,1.7901
252,-643,8.08789,0.0202637,0,0,0,0,0,0,0,-1,1476,1667,8.08791,-0.0203056
259,-643,9.02979,-0.46936,0,0,0,0,0,0,0,-1,1483,1667,9.02974,0.46933
266,-643,4.55066,5.17554,0,0,0,0,0,0,0,-1,1490,1667,4.55063,-5.17556
273,-643,10.74,31.432,0,0,0,0,0,0,0,-1,1497,1667,10.7399,-31.4319
280,-643,12.1675,42.5023,0,0,0,0,0,0,0,-1,1504,1667,12.1675,-42.5023
287,-643,12.9725,46.299,0,0,0,0,0,0,0,-1,1511,1667,12.9725,-46.299
294,-643,13.0217,46.6415,0,0,0,0,0,0,0,-1,1518,1667,13.0218,-46.6415
301,-643,13.2582,46.4753,0.0170431,0.0223423,-0.00861188,0.0287029,0.0106824,-0.934637,0.0167512,0.0382392,1525,1667,13.2582,-46.4753
308,-643,13.6729,45.5913,0.0152464,0.021961,-0.0081131,0.027384,0.00982337,-0.981578,0.0160192,0.0341973,1532,1667,13.6729,-45.5914
315,-643,13.5492,45.208,0.0133415,0.0211675,-0.00768104,0.0258749,0.0086342,-1.02098,0.0152118,0.0273107,1539,1667,13.5492,-45.208
322,-643,13.531,44.7012,0.0124856,0.021462,-0.00835874,0.0264613,0.00748631,-1.03178,0.0157501,0.0171829,1546,1667,13.531,-44.7012
329,-643,13.5376,44.199,0.0115971,0.0206281,-0.00854362,0.0257761,0.0064491,-1.0285,0.0154886,0.0130022,1553,1667,13.5376,-44.199
336,-643,13.5481,43.7546,0.010531,0.0193087,-0.00834307,0.0243469,0.00549281,-1.02753,0.0147454,0.0120197,1560,1667,13.5481,-43.7546
343,-643,13.5598,43.3224,0.00948294,0.0178721,-0.00802853,0.0227358,0.00461928,-1.02613,0.0138761,0.0133799,1567,1667,13.5599,-43.3224
350,-643,13.5953,42.8191,0.00845224,0.0162056,-0.00756956,0.0208334,0.0038244,-1.02205,0.012806,0.0124537,1574,1667,13.5953,-42.8191
357,-643,13.5885,42.3362,0.00730541,0.0140618,-0.00685158,0.0183227,0.00304447,-1.01444,0.0113374,0.0111863,1581,1667,13.5884,-42.3362
364,-643,13.5778,41.8683,0.00651864,0.0121271,-0.00636418,0.0162775,0.00236829,-0.992916,0.0101547,0.0103246,1588,1667,13.5777,-41.8683
371,-643,13.5781,41.3928,0.00585538,0.00994581,-0.00575692,0.01401,0.00179117,-0.956076,0.0088039,0.00837754,1595,1667,13.5781,-41.3928
378,-643,13.5768,40.9127,0.00514706,0.00772204,-0.0050574,0.0116533,0.00121584,-0.910038,0.00739694,0.010187,1602,1667,13.5768,-40.9128
385,-643,13.6012,40.4266,0.0045495,0.00550158,-0.00435661,0.00940808,0.000642995,-0.839817,0.00606909,0.0168533,1609,1667,13.6012,-40.4266
392,-643,13.5774,39.9106,0.00411019,0.00353174,-0.00379905,0.00763101,1.09165e-05,-0.747406,0.0050837,0.0176591,1616,1667,13.5773,-39.9106
399,-643,13.5308,39.4088,0.003538,0.00175494,-0.00327857,0.00604409,-0.000751151,-0.652645,0.0043017,0.0151939,1623,1667,13.5307,-39.4088
406,-643,13.5408,38.8762,0.00303941,0.000511303,-0.00294607,0.00498116,-0.00143045,-0.582744,0.00388635,0.0140066,1630,1667,13.5407,-38.8762
413,-643,13.5342,38.3517,0.00281618,-0.000297075,-0.00283184,0.00449102,-0.00197192,-0.534096,0.0038247,0.0207425,1637,1667,13.5342,-38.3517
420,-643,13.4813,37.8484,0.00272512,-0.000699249,-0.00288607,0.00436867,-0.0023428,-0.517675,0.00393327,0.0198355,1644,1667,13.4813,-37.8484
427,-643,13.4696,37.3169,0.00272522,-0.000742883,-0.00313527,0.00457403,-0.00259169,-0.532796,0.00418957,0.0158584,1651,1667,13.4695,-37.317
434,-643,13.455,36.7914,0.00287046,-0.000312419,-0.00364968,0.00526058,-0.00270254,-0.579802,0.00467592,0.0157952,1658,1667,13.4549,-36.7914
441,-643,13.4498,36.2482,0.00300926,0.00047174,-0.00430665,0.00623016,-0.00274915,-0.642148,0.00531247,0.0147035,1665,1667,13.4499,-36.2482
448,-643,13.4551,35.7029,0.00311842,0.00124052,-0.00492314,0.00719135,-0.00283241,-0.691169,0.00596683,0.0180294,1672,1667,13.4551,-35.7029
455,-643,13.3925,35.14,0.00328349,0.00244032,-0.00564791,0.00852552,-0.00280171,-0.748145,0.00681241,0.0262188,1679,1667,13.3925,-35.14
462,-643,13.3761,34.5602,0.00320901,0.00378533,-0.00617619,0.00968007,-0.00268574,-0.80871,0.00751044,0.0422431,1686,1667,13.376,-34.5602
469,-643,13.3896,33.9519,0,0,0,0,0,0,0,-1,1693,1667,13.3897,-33.9519
476,-643,10.5598,24.5066,0,0,0,0,0,0,0,-1,1700,1667,10.5598,-24.5065
483,-643,10.4502,24.3062,0,0,0,0,0,0,0,-1,1707,1667,10.4502,-24.3062
490,-643,10.6885,24.1522,0,0,0,0,0,0,0,-1,1714,1667,10.6884,-24.1522
497,-643,10.9073,23.9465,0,0,0,0,0,0,0,-1,1721,1667,10.9074,-23.9465
504,-643,8.05591,19.0656,0,0,0,0,0,0,0,-1,1728,1667,8.0559,-19.0655
511,-643,7.74719,18.1564,0,0,0,0,0,0,0,-1,1735,1667,7.74724,-18.1563
518,-643,7.40564,0.922607,0,0,0,0,0,0,0,-1,1742,1667,7.4057,-0.922598
525,-643,0,0,0,0,0,0,0,0,0,-1,1749,1667,0,0
532,-643,0,0,0,0,0,0,0,0,0,-1,1756,1667,0,0
539,-643,0,0,0,0,0,0,0,0,0,-1,1763,1667,0,0
546,-643,0,0,0,0,0,0,0,0,0,-1,1770,1667,0,0
553,-643,0,0,0,0,0,0,0,0,0,-1,1777,1667,0,0
560,-643,0,0,0,0,0,0,0,0,0,-1,1784,1667,0,0
567,-643,0,0,0,0,0,0,0,0,0,-1,1791,1667,0,0
574,-643,0,0,0,0,0,0,0,0,0,-1,1798,1667,0,0
581,-643,0,0,0,0,0,0,0,0,0,-1,1805,1667,0,0
588,-643,0,0,0,0,0,0,0,0,0,-1,1812,1667,0,0
595,-643,0,0,0,0,0,0,0,0,0,-1,1819,1667,0,0
602,-643,0,0,0,0,0,0,0,0,0,-1,1826,1667,0,0
609,-643,0,0,0,0,0,0,0,0,0,-1,1833,1667,0,0
616,-643,0,0,0,0,0,0,0,0,0,-1,1840,1667,0,0
623,-643,0,0,0,0,0,0,0,0,0,-1,1847,1667,0,0
630,-643,0,0,0,0,0,0,0,0,0,-1,1854,1667,0,0
637,-643,0,0,0,0,0,0,0,0,0,-1,1861,1667,0,0
644,-643,0,0,0,0,0,0,0,0,0,-1,1868,1667,0,0
651,-643,0,0,0,0,0,0,0,0,0,-1,1875,1667,0,0
658,-643,0,0,0,0,0,0,0,0,0,-1,1882,1667,0,0
665,-643,0,0,0,0,0,0,0,0,0,-1,1889,1667,0,0
672,-643,0,0,0,0,0,0,0,0,0,-1,1896,1667,0,0
679,-643,0,0,0,0,0,0,0,0,0,-1,1903,1667,0,0
686,-643,0,0,0,0,0,0,0,0,0,-1,1910,1667,0,0
693,-643,0,0,0,0,0,0,0,0,0,-1,1917,1667,0,0
700,-643,0,0,0,0,0,0,0,0,0,-1,1924,1667,0,0
707,-643,0,0,0,0,0,0,0,0,0,-1,1931,1667,0,0
714,-643,0,0,0,0,0,0,0,0,0,-1,1938,1667,0,0
721,-643,0,0,0,0,0,0,0,0,0,-1,1945,1667,0,0
728,-643,0,0,0,0,0,0,0,0,0,-1,1952,1667,0,0
735,-643,0,0,0,0,0,0,0,0,0,-1,1959,1667,0,0
742,-643,0,0,0,0,0,0,0,0,0,-1,1966,1667,0,0
749,-643,0,0,0,0,0,0,0,0,0,-1,1973,1667,0,0
756,-643,0,0,0,0,0,0,0,0,0,-1,1980,1667,0,0
763,-643,0,0,0,0,0,0,0,0,0,-1,1987,1667,0,0
770,-643,0,0,0,0,0,0,0,0,0,-1,1994,1667,0,0
777,-643,0,0,0,0,0,0,0,0,0,-1,2001,1667,0,0
784,-643,0,0,0,0,0,0,0,0,0,-1,2008,1667,0,0
791,-643,0,0,0,0,0,0,0,0,0,-1,2015,1667,0,0
798,-643,0,0,0,0,0,0,0,0,0,-1,2022,1667,0,0
805,-643,0,0,0,0,0,0,0,0,0,-1,2029,1667,0,0
812,-643,0,0,0,0,0,0,0,0,0,-1,2036,1667,0,0
-700,-650,0,0,0,0,0,0,0,0,0,-1,524,1674,0,0
-693,-650,0,0,0,0,0,0,0,0,0,-1,531,1674,0,0
-686,-650,0,0,0,0,0,0,0,0,0,-1,538,1674,0,0
-679,-650,0,0,0,0,0,0,0,0,0,-1,545,1674,0,0
-672,-650,0,0,0,0,0,0,0,0,0,-1,552,1674,0,0
-665,-650,0,0,0,0,0,0,0,0,0,-1,559,1674,0,0
-658,-650,0,0,0,0,0,0,0,0,0,-1,566,1674,0,0
-651,-650,0,0,0,0,0,0,0,0,0,-1,573,1674,0,0
-644,-650,0,0,0,0,0,0,0,0,0,-1,580,1674,0,0
-637,-650,0,0,0,0,0,0,0,0,0,-1,587,1674,0,0
-630,-650,0,0,0,0,0,0,0,0,0,-1,594,1674,0,0
-623,-650,0,0,0,0,0,0,0,0,0,-1,601,1674,0,0
-616,-650,0,0,0,0,0,0,0,0,0,-1,608,1674,0,0
-609,-650,0,0,0,0,0,0,0,0,0,-1,615,1674,0,0
-602,-650,0,0,0,0,0,0,0,0,0,-1,622,1674,0,0
-595,-650,0,0,0,0,0,0,0,0,0,-1,629,1674,0,0
-588,-650,0,0,0,0,0,0,0,0,0,-1,636,1674,0,0
-581,-650,0,0,0,0,0,0,0,0,0,-1,643,1674,0,0
-574,-650,0,0,0,0,0,0,0,0,0,-1,650,1674,0,0
-567,-650,0,0,0,0,0,0,0,0,0,-1,657,1674,0,0
-560,-650,0,0,0,0,0,0,0,0,0,-1,664,1674,0,0
-553,-650,0,0,0,0,0,0,0,0,0,-1,671,1674,0,0
-546,-650,0,0,0,0,0,0,0,0,0,-1,678,1674,0,0
-539,-650,0,0,0,0,0,0,0,0,0,-1,685,1674,0,0
-532,-650,0,0,0,0,0,0,0,0,0,-1,692,1674,0,0
-525,-650,0,0,0,0,0,0,0,0,0,-1,699,1674,0,0
-518,-650,0,0,0,0,0,0,0,0,0,-1,706,1674,0,0
-511,-650,0,0,0,0,0,0,0,0,0,-1,713,1674,0,0
-504,-650,0,0,0,0,0,0,0,0,0,-1,720,1674,0,0
-497,-650,0,0,0,0,0,0,0,0,0,-1,727,1674,0,0
-490,-650,0,0,0,0,0,0,0,0,0,-1,734,1674,0,0
-483,-650,0,0,0,0,0,0,0,0,0,-1,741,1674,0,0
-476,-650,0,0,0,0,0,0,0,0,0,-1,748,1674,0,0
-469,-650,0,0,0,0,0,0,0,0,0,-1,755,1674,0,0
-462,-650,0,0,0,0,0,0,0,0,0,-1,762,1674,0,0
-455,-650,0,0,0,0,0,0,0,0,0,-1,769,1674,0,0
-448,-650,0,0,0,0,0,0,0,0,0,-1,776,1674,0,0
-441,-650,0,0,0,0,0,0,0,0,0,-1,783,1674,0,0
-434,-650,0,0,0,0,0,0,0,0,0,-1,790,1674,0,0
-427,-650,0,0,0,0,0,0,0,0,0,-1,797,1674,0,0
-420,-650,0,0,0,0,0,0,0,0,0,-1,804,1674,0,0
-413,-650,0,0,0,0,0,0,0,0,0,-1,811,1674,0,0
-406,-650,0,0,0,0,0,0,0,0,0,-1,818,1674,0,0
-399,-650,0,0,0,0,0,0,0,0,0,-1,825,1674,0,0
-392,-650,5.44415,6.85669,0,0,0,0,0,0,0,-1,832,1674,5.44414,-6.85674
-385,-650,1.74451,14.0183,0,0,0,0,0,0,0,-1,839,1674,1.74453,-14.0183
-378,-650,0.997986,4.11108,0,0,0,0,0,0,0,-1,846,1674,0.998006,-4.11113
-371,-650,-1.80096,3.78625,0,0,0,0,0,0,0,-1,853,1674,-1.80094,-3.78625
-364,-650,-2.95679,2.57507,0,0,0,0,0,0,0,-1,860,1674,-2.95681,-2.57506
-357,-650,1.97833,10.8362,0,0,0,0,0,0,0,-1,867,1674,1.97835,-10.8362
-350,-650,-5.30243,0.159912,0,0,0,0,0,0,0,-1,874,1674,-5.30244,-0.159866
-343,-650,-6.21338,-1.4425,0,0,0,0,0,0,0,-1,881,1674,-6.21341,1.44248
-336,-650,4.6756,33.0721,0,0,0,0,0,0,0,-1,888,1674,4.67559,-33.0722
-329,-650,5.45245,34.1122,0,0,0,0,0,0,0,-1,895,1674,5.45244,-34.1122
-322,-650,5.3158,34.9602,0.0125041,-0.0345674,0.0139353,0.0163202,-0.0383835,0.267292,0.0324282,0.0473082,902,1674,5.3158,-34.9602
-315,-650,5.20508,35.4358,0.0108456,-0.0310871,0.0111285,0.0136159,-0.0338575,0.243983,0.028227,0.043839,909,1674,5.20509,-35.4358
-308,-650,5.4458,35.8989,0.00917903,-0.0269108,0.008534,0.0110953,-0.0288271,0.220879,0.0237949,0.0267974,916,1674,5.44581,-35.8989
-301,-650,5.46832,36.6157,0.00750191,-0.0223257,0.00634552,0.00879573,-0.0236195,0.201138,0.0193563,0.0143511,923,1674,5.46833,-36.6157
-294,-650,5.41388,37.1747,0.00598372,-0.0176996,0.0046058,0.00684789,-0.0185638,0.185472,0.0151823,0.0105693,930,1674,5.41386,-37.1746
-287,-650,5.40033,37.7218,0.00458745,-0.0136016,0.00327841,0.00516031,-0.0141745,0.172991,0.0115603,0.01326,937,1674,5.40033,-37.7218
-280,-650,5.37079,38.2588,0.00337093,-0.00976978,0.00232048,0.00376866,-0.0101675,0.16975,0.00832396,0.0155038,944,1674,5.3708,-38.2588
-273,-650,5.33063,38.8156,0.00242185,-0.00654426,0.00158903,0.00269513,-0.00681755,0.170318,0.00566145,0.014556,951,1674,5.33061,-38.8156
-266,-650,5.28876,39.3605,0.00192604,-0.00373187,0.00108207,0.00212593,-0.00393175,0.182663,0.00354883,0.0115644,958,1674,5.28873,-39.3605
-259,-650,5.28033,39.8812,0.00163592,-0.00100011,0.000832165,0.00187664,-0.00124083,0.281586,0.00181231,0.0144457,965,1674,5.28032,-39.8813
-252,-650,5.26117,40.4176,0.0014266,0.00101541,0.000730666,0.00198004,0.000461964,0.648256,0.00119616,0.013367,972,1674,5.26116,-40.4176
-245,-650,5.23346,40.9124,0.00128599,0.00212208,0.00104542,0.00282994,0.000578133,0.975602,0.00172649,0.0124227,979,1674,5.23348,-40.9123
-238,-650,5.24152,41.4341,0.00176151,0.00248877,0.00106542,0.0032509,0.000999368,0.94985,0.00192276,0.0138271,986,1674,5.24154,-41.434
-231,-650,5.21454,41.9762,0.00227523,0.00264404,0.00123052,0.0037039,0.00121537,0.859773,0.00218015,0.0181943,993,1674,5.21456,-41.9762
-224,-650,5.2113,42.464,0.00304028,0.00376389,0.00143173,0.00487882,0.00192535,0.909159,0.00283756,0.0156741,1000,1674,5.21133,-42.464
-217,-650,5.21075,42.9139,0.00414163,0.00528713,0.00161639,0.00642924,0.00299952,0.955667,0.00371469,0.0114687,1007,1674,5.21076,-42.914
-210,-650,5.21918,43.3844,0.00562479,0.00724571,0.00171021,0.00832778,0.00454272,1.00667,0.00481467,0.0108268,1014,1674,5.21918,-43.3844
-203,-650,5.25391,43.8723,0.0070141,0.00895012,0.00190075,0.0101152,0.00584906,1.02092,0.00586378,0.0154581,1021,1674,5.25396,-43.8723
-196,-650,5.25903,44.3179,0.00853454,0.0112106,0.00215317,0.0124076,0.00733752,1.06341,0.0072033,0.0137846,1028,1674,5.25899,-44.3179
-189,-650,5.24268,44.7681,0.0100978,0.014108,0.00237236,0.0152091,0.00899668,1.13624,0.00882987,0.0115408,1035,1674,5.24272,-44.7681
-182,-650,5.29578,45.2906,0.0118136,0.0173369,0.00261932,0.0183815,0.010769,1.19132,0.0106646,0.0114988,1042,1674,5.29578,-45.2906
-175,-650,5.31177,45.6962,0.0134874,0.0212535,0.00268153,0.0220894,0.0126515,1.26861,0.0127982,0.0178026,1049,1674,5.31171,-45.6961
-168,-650,5.30627,46.1523,0.0150971,0.0255482,0.00283295,0.0262668,0.0143786,1.32241,0.0151878,0.0224823,1056,1674,5.30628,-46.1524
-161,-650,5.31372,46.516,0.0164594,0.0299013,0.00278122,0.030454,0.0159067,1.37462,0.0175885,0.0314365,1063,1674,5.31376,-46.516
-154,-650,5.40698,46.8563,0.0173887,0.0344945,0.00243756,0.034835,0.0170481,1.43198,0.0201135,0.0365859,1070,1674,5.40704,-46.8563
-147,-650,5.4071,47.5586,0,0,0,0,0,0,0,-1,1077,1674,5.40706,-47.5586
-140,-650,5.27026,48.7794,0,0,0,0,0,0,0,-1,1084,1674,5.27023,-48.7794
-133,-650,4.89526,49.13,0,0,0,0,0,0,0,-1,1091,1674,4.89522,-49.1301
-126,-650,4.61597,49.6221,0,0,0,0,0,0,0,-1,1098,1674,4.61595,-49.6221
-119,-650,5.16663,20.6232,0,0,0,0,0,0,0,-1,1105,1674,5.16665,-20.6232
-112,-650,3.86292,14.4513,0,0,0,0,0,0,0,-1,1112,1674,3.8629,-14.4513
-105,-650,7.92102,38.1313,0,0,0,0,0,0,0,-1,1119,1674,7.92104,-38.1314
-98,-650,3.3761,6.78003,0,0,0,0,0,0,0,-1,1126,1674,3.37611,-6.78009
-91,-650,3.66809,7.04443,0,0,0,0,0,0,0,-1,1133,1674,3.66806,-7.04439
-84,-650,-3.82666,-1.59521,0,0,0,0,0,0,0,-1,1140,1674,-3.82661,1.59517
-77,-650,-4.70557,1.90198,0,0,0,0,0,0,0,-1,1147,1674,-4.7056,-1.90194
-70,-650,-4.88171,3.81653,0,0,0,0,0,0,0,-1,1154,1674,-4.88176,-3.81651
-63,-650,-5.14612,5.56543,0,0,0,0,0,0,0,-1,1161,1674,-5.14612,-5.56547
-56,-650,-5.38367,7.41101,0,0,0,0,0,0,0,-1,1168,1674,-5.38361,-7.41102
-49,-650,-5.11316,8.23706,0,0,0,0,0,0,0,-1,1175,1674,-5.11317,-8.23708
-42,-650,-4.99487,9.6792,0,0,0,0,0,0,0,-1,1182,1674,-4.99484,-9.67921
-35,-650,-4.77771,11.3369,0,0,0,0,0,0,0,-1,1189,1674,-4.77769,-11.3369
-28,-650,-4.1936,13.1501,0,0,0,0,0,0,0,-1,1196,1674,-4.19358,-13.1501
-21,-650,7.52466,48.5822,0,0,0,0,0,0,0,-1,1203,1674,7.52469,-48.5821
-14,-650,5.25244,53.3812,0,0,0,0,0,0,0,-1,1210,1674,5.25247,-53.3813
-7,-650,9.58032,52.0614,0,0,0,0,0,0,0,-1,1217,1674,9.58029,-52.0614
0,-650,10.3165,52.9401,0.0486672,0.213581,0.0745741,0.242302,0.0199466,1.20318,0.155313,0.0453626,1224,1674,10.3166,-52.94
7,-650,10.2533,54.943,0.0423339,0.210899,0.0723205,0.237674,0.0155589,1.21622,0.153526,0.0418546,1231,1674,10.2533,-54.943
14,-650,10.8036,55.3127,0.0318955,0.205851,0.0662428,0.228204,0.00954243,1.24535,0.149057,0.0420233,1238,1674,10.8036,-55.3127
21,-650,10.4008,57.9198,0.0241628,0.197863,0.0593028,0.216178,0.00584749,1.27125,0.14221,0.0412049,1245,1674,10.4007,-57.9198
28,-650,9.76831,58.5819,0,0,0,0,0,0,0,-1,1252,1674,9.7683,-58.5819
35,-650,10.428,58.4802,0.0227226,0.171313,0.0436737,0.183199,0.0108368,1.30508,0.118685,0.0436821,1259,1674,10.428,-58.4802
42,-650,10.3402,59.0472,0.0263592,0.153965,0.0364612,0.163648,0.0166758,1.31121,0.103987,0.0453351,1266,1674,10.3402,-59.0473
49,-650,9.79651,58.3409,0.0314384,0.13545,0.0296934,0.14333,0.0235585,1.3114,0.0887491,0.0472498,1273,1674,9.79656,-58.3409
56,-650,5.8512,54.4353,0,0,0,0,0,0,0,-1,1280,1674,5.8512,-54.4353
63,-650,6.61621,54.2233,0.0431458,0.0974203,0.0161624,0.101869,0.0386973,1.30221,0.059377,0.049021,1287,1674,6.61617,-54.2232
70,-650,7.40479,54.1289,0.0487249,0.07866,0.00966238,0.0815079,0.045877,1.28417,0.0471824,0.0469788,1294,1674,7.40484,-54.1289
77,-650,8.69153,54.8456,0,0,0,0,0,0,0,-1,1301,1674,8.6915,-54.8455
84,-650,9.33167,54.392,0.0547277,0.0470252,-0.00173072,0.0550987,0.0466542,-0.211175,0.0342662,0.0484477,1308,1674,9.33161,-54.3919
91,-650,9.95374,53.9202,0.0517763,0.0331244,-0.0066473,0.0539028,0.0309979,-0.309624,0.0312375,0.0469319,1315,1674,9.95371,-53.9201
98,-650,10.5875,53.4072,0.045421,0.0221031,-0.0109662,0.0497679,0.0177562,-0.377394,0.0291238,0.0467182,1322,1674,10.5875,-53.4072
105,-650,11.181,52.8489,0,0,0,0,0,0,0,-1,1329,1674,11.181,-52.8489
112,-650,7.93152,53.1378,0.0145717,0.00938418,-0.0193242,0.0314754,-0.00751949,-0.718684,0.0238879,0.0447467,1336,1674,7.93149,-53.1378
119,-650,8.02185,52.6707,-0.00412289,0.00512729,-0.0228022,0.0237688,-0.0227644,-0.885458,0.026868,0.0448218,1343,1674,8.02184,-52.6706
126,-650,7.55115,52.5382,-0.0181388,-0.000125395,-0.0233832,0.0159257,-0.0341899,-0.96923,0.0295679,0.047062,1350,1674,7.55116,-52.5382
133,-650,6.77429,52.5793,-0.0316975,-0.00381389,-0.024334,0.0102893,-0.0458007,-1.04554,0.0344791,0.047051,1357,1674,6.77431,-52.5793
140,-650,6.25305,52.6187,-0.0460977,-0.00813813,-0.0225257,0.00233778,-0.0565736,-1.13548,0.0385186,0.0462849,1364,1674,6.25306,-52.6187
147,-650,5.84717,53.0398,0,0,0,0,0,0,0,-1,1371,1674,5.84716,-53.0398
154,-650,5.51917,53.3815,0,0,0,0,0,0,0,-1,1378,1674,5.51923,-53.3815
161,-650,4.09106,30.3021,0,0,0,0,0,0,0,-1,1385,1674,4.09104,-30.3021
168,-650,11.2113,7.87231,0,0,0,0,0,0,0,-1,1392,1674,11.2113,-7.87236
175,-650,5.62537,-0.230713,0,0,0,0,0,0,0,-1,1399,1674,5.62538,0.230745
182,-650,5.56006,0.421631,0,0,0,0,0,0,0,-1,1406,1674,5.56,-0.421652
189,-650,4.81543,11.0654,0,0,0,0,0,0,0,-1,1413,1674,4.81542,-11.0654
196,-650,5.39575,11.9077,0,0,0,0,0,0,0,-1,1420,1674,5.39575,-11.9078
203,-650,3.93628,11.8215,0,0,0,0,0,0,0,-1,1427,1674,3.93624,-11.8216
210,-650,5.40955,8.08594,0,0,0,0,0,0,0,-1,1434,1674,5.40958,-8.086
217,-650,5.12451,4.69739,0,0,0,0,0,0,0,-1,1441,1674,5.12451,-4.69738
224,-650,4.79041,1.45813,0,0,0,0,0,0,0,-1,1448,1674,4.79046,-1.45816
231,-650,4.04102,-0.642212,0,0,0,0,0,0,0,-1,1455,1674,4.04101,0.642209
238,-650,3.23022,-1.43396,0,0,0,0,0,0,0,-1,1462,1674,3.23023,1.43394
245,-650,1.65894,-2.55042,0,0,0,0,0,0,0,-1,1469,1674,1.65889,2.55036
252,-650,8.75342,0.355103,0,0,0,0,0,0,0,-1,1476,1674,8.75337,-0.355147
259,-650,5.61255,3.17566,0,0,0,0,0,0,0,-1,1483,1674,5.61257,-3.17572
266,-650,4.00403,6.10229,0,0,0,0,0,0,0,-1,1490,1674,4.00401,-6.10225
273,-650,11.9524,42.7109,0,0,0,0,0,0,0,-1,1497,1674,11.9524,-42.7109
280,-650,12.3011,46.7283,0,0,0,0,0,0,0,-1,1504,1674,12.3011,-46.7283
287,-650,12.6318,47.0542,0,0,0,0,0,0,0,-1,1511,1674,12.6319,-47.0542
294,-650,12.8169,46.4967,0.013861,0.0152318,-0.00597722,0.0205628,0.00853,-0.842481,0.0119292,0.0434662,1518,1674,12.8168,-46.4968
301,-650,12.9624,46.0236,0.0128416,0.0155968,-0.00583544,0.0202151,0.00822337,-0.901312,0.0117386,0.0306442,1525,1674,12.9624,-46.0236
308,-650,13.037,45.5563,0.0115214,0.0152401,-0.00545849,0.0191472,0.00761425,-0.949555,0.0111316,0.0178079,1532,1674,13.0369,-45.5563
315,-650,13.0785,45.0941,0.0101243,0.0146334,-0.00517486,0.0180235,0.00673423,-0.990834,0.0105161,0.0109959,1539,1674,13.0785,-45.0941
322,-650,13.0735,44.6696,0.00929421,0.0147706,-0.00554083,0.0182129,0.00585191,-1.01489,0.0107367,0.01098,1546,1674,13.0735,-44.6696
329,-650,13.0835,44.1891,0.00849691,0.0142597,-0.00567814,0.0177457,0.0050109,-1.02019,0.010564,0.0169137,1553,1674,13.0835,-44.1891
336,-650,13.1052,43.76,0.00764947,0.0134596,-0.00558555,0.0168504,0.00425869,-1.0252,0.0101174,0.0147371,1560,1674,13.1052,-43.76
343,-650,13.1133,43.3142,0.00679268,0.0125653,-0.0054493,0.0158455,0.0035125,-1.02895,0.00960927,0.0145711,1567,1674,13.1132,-43.3142
350,-650,13.1143,42.8503,0.00594244,0.0113754,-0.00519179,0.0145184,0.0027994,-1.02642,0.00889389,0.0163786,1574,1674,13.1142,-42.8503
357,-650,13.0957,42.3505,0.00506821,0.00972494,-0.00476335,0.0126985,0.00209462,-1.01273,0.00786106,0.0135603,1581,1674,13.0958,-42.3505
364,-650,13.1046,41.8667,0.00449725,0.00821175,-0.00452147,0.0112426,0.00146644,-0.980273,0.00705719,0.00995817,1588,1674,13.1046,-41.8667
371,-650,13.101,41.3936,0.00401039,0.00646578,-0.00416759,0.00958274,0.000893433,-0.928638,0.00611249,0.0120494,1595,1674,13.101,-41.3935
378,-650,13.0685,40.9146,0.00354231,0.00459174,-0.00373236,0.00783609,0.000297965,-0.855233,0.00512762,0.0129085,1602,1674,13.0685,-40.9145
385,-650,13.0653,40.4347,0.00323476,0.0026957,-0.00330473,0.00628093,-0.000350468,-0.744708,0.00430886,0.0143712,1609,1674,13.0653,-40.4347
392,-650,13.0552,39.9285,0.0031491,0.000984705,-0.00305924,0.00531191,-0.00117811,-0.615394,0.00399234,0.0190845,1616,1674,13.0552,-39.9285
399,-650,13.0334,39.4303,0.00291618,-0.000557523,-0.00285345,0.00451981,-0.00216116,-0.512008,0.00393657,0.0181152,1623,1674,13.0334,-39.4303
406,-650,13.0159,38.9325,0.00276102,-0.00143806,-0.00283256,0.00418731,-0.00286435,-0.466471,0.00409509,0.0161641,1630,1674,13.0159,-38.9324
413,-650,13.0153,38.4242,0.00287342,-0.00202017,-0.00299728,0.0042958,-0.00344254,-0.443086,0.00447678,0.0163496,1637,1674,13.0152,-38.4241
420,-650,12.9791,37.8929,0.00311044,-0.00220449,-0.00334236,0.00472304,-0.00381709,-0.44953,0.00493989,0.0156982,1644,1674,12.9791,-37.8929
427,-650,12.9612,37.3435,0.00351444,-0.00182339,-0.00398248,0.00563961,-0.00394856,-0.490188,0.00556436,0.0142501,1651,1674,12.9612,-37.3435
434,-650,12.9391,36.8274,0.00403514,-0.00104749,-0.00482936,0.00695102,-0.00396337,-0.543196,0.00637963,0.0172518,1658,1674,12.9391,-36.8274
441,-650,12.9139,36.295,0.00445144,0.000178544,-0.00577238,0.00847005,-0.00384007,-0.608157,0.00727289,0.0269636,1665,1674,12.914,-36.295
448,-650,12.879,35.7324,0.00475741,0.00143768,-0.00666053,0.00996179,-0.00376669,-0.663281,0.00819073,0.0373362,1672,1674,12.8791,-35.7325
455,-650,12.6033,34.6938,0.00508322,0.00318439,-0.00759824,0.0117911,-0.00352352,-0.723244,0.00926144,0.0420669,1679,1674,12.6033,-34.6938
462,-650,12.8431,34.5582,0,0,0,0,0,0,0,-1,1686,1674,12.8431,-34.5583
469,-650,11.3628,29.8889,0,0,0,0,0,0,0,-1,1693,1674,11.3628,-29.8889
476,-650,10.9189,27.1289,0,0,0,0,0,0,0,-1,1700,1674,10.919,-27.1289
483,-650,10.2426,24.5127,0,0,0,0,0,0,0,-1,1707,1674,10.2425,-24.5127
490,-650,10.4818,24.3475,0,0,0,0,0,0,0,-1,1714,1674,10.4818,-24.3475
497,-650,10.4985,20.1362,0,0,0,0,0,0,0,-1,1721,1674,10.4986,-20.1362
504,-650,9.69458,18.7721,0,0,0,0,0,0,0,-1,1728,1674,9.6946,-18.772
511,-650,9.37158,17.7506,0,0,0,0,0,0,0,-1,1735,1674,9.37159,-17.7506
518,-650,0,0,0,0,0,0,0,0,0,-1,1742,1674,0,0
525,-650,0,0,0,0,0,0,0,0,0,-1,1749,1674,0,0
532,-650,0,0,0,0,0,0,0,0,0,-1,1756,1674,0,0
539,-650,0,0,0,0,0,0,0,0,0,-1,1763,1674,0,0
546,-650,0,0,0,0,0,0,0,0,0,-1,1770,1674,0,0
553,-650,0,0,0,0,0,0,0,0,0,-1,1777,1674,0,0
560,-650,0,0,0,0,0,0,0,0,0,-1,1784,1674,0,0
567,-650,0,0,0,0,0,0,0,0,0,-1,1791,1674,0,0
574,-650,0,0,0,0,0,0,0,0,0,-1,1798,1674,0,0
581,-650,0,0,0,0,0,0,0,0,0,-1,1805,1674,0,0
588,-650,0,0,0,0,0,0,0,0,0,-1,1812,1674,0,0
595,-650,0,0,0,0,0,0,0,0,0,-1,1819,1674,0,0
602,-650,0,0,0,0,0,0,0,0,0,-1,1826,1674,0,0
609,-650,0,0,0,0,0,0,0,0,0,-1,1833,1674,0,0
616,-650,0,0,0,0,0,0,0,0,0,-1,1840,1674,0,0
623,-650,0,0,0,0,0,0,0,0,0,-1,1847,1674,0,0
630,-650,0,0,0,0,0,0,0,0,0,-1,1854,1674,0,0
637,-650,0,0,0,0,0,0,0,0,0,-1,1861,1674,0,0
644,-650,0,0,0,0,0,0,0,0,0,-1,1868,1674,0,0
651,-650,0,0,0,0,0,0,0,0,0,-1,1875,1674,0,0
658,-650,0,0,0,0,0,0,0,0,0,-1,1882,1674,0,0
665,-650,0,0,0,0,0,0,0,0,0,-1,1889,1674,0,0
672,-650,0,0,0,0,0,0,0,0,0,-1,1896,1674,0,0
679,-650,0,0,0,0,0,0,0,0,0,-1,1903,1674,0,0
686,-650,0,0,0,0,0,0,0,0,0,-1,1910,1674,0,0
693,-650,0,0,0,0,0,0,0,0,0,-1,1917,1674,0,0
700,-650,0,0,0,0,0,0,0,0,0,-1,1924,1674,0,0
707,-650,0,0,0,0,0,0,0,0,0,-1,1931,1674,0,0
714,-650,0,0,0,0,0,0,0,0,0,-1,1938,1674,0,0
721,-650,0,0,0,0,0,0,0,0,0,-1,1945,1674,0,0
728,-650,0,0,0,0,0,0,0,0,0,-1,1952,1674,0,0
735,-650,0,0,0,0,0,0,0,0,0,-1,1959,1674,0,0
742,-650,0,0,0,0,0,0,0,0,0,-1,1966,1674,0,0
749,-650,0,0,0,0,0,0,0,0,0,-1,1973,1674,0,0
756,-650,0,0,0,0,0,0,0,0,0,-1,1980,1674,0,0
763,-650,0,0,0,0,0,0,0,0,0,-1,1987,1674,0,0
770,-650,0,0,0,0,0,0,0,0,0,-1,1994,1674,0,0
777,-650,0,0,0,0,0,0,0,0,0,-1,2001,1674,0,0
784,-650,0,0,0,0,0,0,0,0,0,-1,2008,1674,0,0
791,-650,0,0,0,0,0,0,0,0,0,-1,2015,1674,0,0
798,-650,0,0,0,0,0,0,0,0,0,-1,2022,1674,0,0
805,-650,0,0,0,0,0,0,0,0,0,-1,2029,1674,0,0
812,-650,0,0,0,0,0,0,0,0,0,-1,2036,1674,0,0
-700,-657,0,0,0,0,0,0,0,0,0,-1,524,1681,0,0
-693,-657,0,0,0,0,0,0,0,0,0,-1,531,1681,0,0
-686,-657,0,0,0,0,0,0,0,0,0,-1,538,1681,0,0
-679,-657,0,0,0,0,0,0,0,0,0,-1,545,1681,0,0
-672,-657,0,0,0,0,0,0,0,0,0,-1,552,1681,0,0
-665,-657,0,0,0,0,0,0,0,0,0,-1,559,1681,0,0
-658,-657,0,0,0,0,0,0,0,0,0,-1,566,1681,0,0
-651,-657,0,0,0,0,0,0,0,0,0,-1,573,1681,0,0
-644,-657,0,0,0,0,0,0,0,0,0,-1,580,1681,0,0
-637,-657,0,0,0,0,0,0,0,0,0,-1,587,1681,0,0
-630,-657,0,0,0,0,0,0,0,0,0,-1,594,1681,0,0
-623,-657,0,0,0,0,0,0,0,0,0,-1,601,1681,0,0
-616,-657,0,0,0,0,0,0,0,0,0,-1,608,1681,0,0
-609,-657,0,0,0,0,0,0,0,0,0,-1,615,1681,0,0
-602,-657,0,0,0,0,0,0,0,0,0,-1,622,1681,0,0
-595,-657,0,0,0,0,0,0,0,0,0,-1,629,1681,0,0
-588,-657,0,0,0,0,0,0,0,0,0,-1,636,1681,0,0
-581,-657,0,0,0,0,0,0,0,0,0,-1,643,1681,0,0
-574,-657,0,0,0,0,0,0,0,0,0,-1,650,1681,0,0
-567,-657,0,0,0,0,0,0,0,0,0,-1,657,1681,0,0
-560,-657,0,0,0,0,0,0,0,0,0,-1,664,1681,0,0
-553,-657,0,0,0,0,0,0,0,0,0,-1,671,1681,0,0
-546,-657,0,0,0,0,0,0,0,0,0,-1,678,1681,0,0
-539,-657,0,0,0,0,0,0,0,0,0,-1,685,1681,0,0
-532,-657,0,0,0,0,0,0,0,0,0,-1,692,1681,0,0
-525,-657,0,0,0,0,0,0,0,0,0,-1,699,1681,0,0
-518,-657,0,0,0,0,0,0,0,0,0,-1,706,1681,0,0
-511,-657,0,0,0,0,0,0,0,0,0,-1,713,1681,0,0
-504,-657,0,0,0,0,0,0,0,0,0,-1,720,1681,0,0
-497,-657,0,0,0,0,0,0,0,0,0,-1,727,1681,0,0
-490,-657,0,0,0,0,0,0,0,0,0,-1,734,1681,0,0
-483,-657,0,0,0,0,0,0,0,0,0,-1,741,1681,0,0
-476,-657,0,0,0,0,0,0,0,0,0,-1,748,1681,0,0
-469,-657,0,0,0,0,0,0,0,0,0,-1,755,1681,0,0
-462,-657,0,0,0,0,0,0,0,0,0,-1,762,1681,0,0
-455,-657,0,0,0,0,0,0,0,0,0,-1,769,1681,0,0
-448,-657,0,0,0,0,0,0,0,0,0,-1,776,1681,0,0
-441,-657,0,0,0,0,0,0,0,0,0,-1,783,1681,0,0
-434,-657,0,0,0,0,0,0,0,0,0,-1,790,1681,0,0
-427,-657,0,0,0,0,0,0,0,0,0,-1,797,1681,0,0
-420,-657,0,0,0,0,0,0,0,0,0,-1,804,1681,0,0
-413,-657,0,0,0,0,0,0,0,0,0,-1,811,1681,0,0
-406,-657,0,0,0,0,0,0,0,0,0,-1,818,1681,0,0
-399,-657,0,0,0,0,0,0,0,0,0,-1,825,1681,0,0
-392,-657,0,0,0,0,0,0,0,0,0,-1,832,1681,0,0
-385,-657,1.09814,6.18896,0,0,0,0,0,0,0,-1,839,1681,1.09814,-6.18894
-378,-657,0.31488,4.46753,0,0,0,0,0,0,0,-1,846,1681,0.31487,-4.46755
-371,-657,-0.519043,2.69421,0,0,0,0,0,0,0,-1,853,1681,-0.519064,-2.69422
-364,-657,-3.42017,4.18323,0,0,0,0,0,0,0,-1,860,1681,-3.42019,-4.18319
-357,-657,-4.41913,2.97168,0,0,0,0,0,0,0,-1,867,1681,-4.41913,-2.97165
-350,-657,-5.42291,1.70276,0,0,0,0,0,0,0,-1,874,1681,-5.42291,-1.70277
-343,-657,4.36414,33.4623,0,0,0,0,0,0,0,-1,881,1681,4.36411,-33.4623
-336,-657,5.14154,33.0094,0,0,0,0,0,0,0,-1,888,1681,5.14151,-33.0094
-329,-657,5.28564,34.0568,0.0196935,-0.0525961,0.0214477,0.0255779,-0.0584805,0.26777,0.0497549,0.0488732,895,1681,5.28567,-34.0568
-322,-657,5.43988,35.1866,0.0173685,-0.0485143,0.0172739,0.0216228,-0.0527687,0.241481,0.0441869,0.0475146,902,1681,5.43988,-35.1866
-315,-657,5.42346,36.0964,0.0150679,-0.0430321,0.013564,0.0180785,-0.0460428,0.218416,0.0381759,0.0447236,909,1681,5.42347,-36.0964
-308,-657,5.43921,36.7858,0.0127207,-0.0367844,0.0101938,0.0147375,-0.0388012,0.19533,0.0319344,0.0377935,916,1681,5.4392,-36.7858
-301,-657,5.52277,37.2335,0,0,0,0,0,0,0,-1,923,1681,5.52276,-37.2335
-294,-657,5.91461,37.2562,0.0079881,-0.0237107,0.00513447,0.00879902,-0.0245216,0.156643,0.0199388,0.017317,930,1681,5.91461,-37.2562
-287,-657,5.89374,37.7722,0.00594008,-0.0181901,0.00349411,0.00643585,-0.0186859,0.140947,0.0150679,0.011869,937,1681,5.89374,-37.7723
-280,-657,5.87122,38.2784,0.00410319,-0.0132175,0.00231143,0.00440634,-0.0135206,0.130409,0.0107868,0.014862,944,1681,5.87124,-38.2784
-273,-657,5.85846,38.8442,0.0026241,-0.00914773,0.00140313,0.00278903,-0.00931266,0.11701,0.00731749,0.0113488,951,1681,5.85844,-38.8442
-266,-657,5.82831,39.3766,0.00175134,-0.00570332,0.000777879,0.00183165,-0.00578362,0.102872,0.00458978,0.0150221,958,1681,5.82832,-39.3766
-259,-657,5.80603,39.8928,0.00117963,-0.00236001,0.000444002,0.00123448,-0.00241486,0.1229,0.00214337,0.0189525,965,1681,5.80603,-39.8928
-252,-657,5.75494,40.4092,0.00069775,5.88097e-05,0.000297716,0.000814967,-5.84075e-05,0.375082,0.00056379,0.0127934,972,1681,5.75497,-40.4092
-245,-657,5.73499,40.9374,0.000190044,0.00140457,0.000741085,0.00175542,-0.000160803,1.12863,0.0012274,0.0159804,979,1681,5.73498,-40.9373
-238,-657,5.75336,41.5,0.000584571,0.00176428,0.000782019,0.00215395,0.000194894,1.10851,0.00137562,0.0218833,986,1681,5.75338,-41.5
-231,-657,5.74225,41.9943,0.00102253,0.00195196,0.000925994,0.00252331,0.000451181,1.01797,0.0015538,0.021825,993,1681,5.74223,-41.9943
-224,-657,5.70709,42.4784,0.00165543,0.00279223,0.00109519,0.00345774,0.000989924,1.02476,0.00205621,0.0165308,1000,1681,5.70706,-42.4784
-217,-657,5.70026,42.9559,0.00255324,0.00391419,0.0012362,0.00464483,0.00182261,1.037,0.00270231,0.0110452,1007,1681,5.70029,-42.9559
-210,-657,5.71857,43.4249,0.00367633,0.00535151,0.00129525,0.0060564,0.00297144,1.07241,0.00349687,0.011802,1014,1681,5.71859,-43.4249
-203,-657,5.71851,43.8993,0.00475581,0.0065708,0.00144907,0.00737308,0.00395353,1.06515,0.00426057,0.0140367,1021,1681,5.71856,-43.8993
-196,-657,5.71362,44.3439,0.00594797,0.008115,0.00164753,0.00900337,0.00505959,1.07627,0.00521139,0.0138802,1028,1681,5.71368,-44.3439
-189,-657,5.71228,44.7848,0.00712468,0.0101323,0.00181053,0.0109821,0.00627489,1.13196,0.00636203,0.0102503,1035,1681,5.71226,-44.7848
-182,-657,5.71411,45.2566,0.00836527,0.0124699,0.00193799,0.0132403,0.00759486,1.19242,0.00767188,0.00900223,1042,1681,5.71414,-45.2566
-175,-657,5.73401,45.6946,0.00962525,0.0153147,0.00192228,0.0159033,0.00903666,1.27367,0.00921023,0.011489,1049,1681,5.73399,-45.6945
-168,-657,5.71436,46.1405,0.0107952,0.0184408,0.00199774,0.0189313,0.0103047,1.33002,0.0109443,0.0144445,1056,1681,5.71438,-46.1405
-161,-657,5.73267,46.6019,0.0117602,0.021643,0.00191355,0.0220005,0.0114026,1.38606,0.0127048,0.0149986,1063,1681,5.73269,-46.6019
-154,-657,5.79358,46.9523,0.0124766,0.0250824,0.00165318,0.0252956,0.0122634,1.44254,0.0146067,0.0170576,1070,1681,5.7936,-46.9523
-147,-657,5.80444,47.3986,0.0129657,0.0286884,0.00122887,0.0287838,0.0128703,1.49326,0.0166493,0.0315072,1077,1681,5.80448,-47.3985
-140,-657,5.77026,48.1642,0.0131446,0.0322793,0.000558125,0.0322956,0.0131284,1.54166,0.0187542,0.0457125,1084,1681,5.77029,-48.1642
-133,-657,5.55945,48.6593,0.0131612,0.0361192,-0.000111643,0.0361198,0.0131606,-1.56593,0.021108,0.0490259,1091,1681,5.55947,-48.6593
-126,-657,5.49316,49.1537,0.0130212,0.0400193,-0.00117493,0.0400703,0.0129701,-1.52739,0.0236092,0.0494485,1098,1681,5.49312,-49.1536
-119,-657,5.77246,49.5472,0,0,0,0,0,0,0,-1,1105,1681,5.77242,-49.5472
-112,-657,6.24219,42.9092,0,0,0,0,0,0,0,-1,1112,1681,6.24217,-42.9092
-105,-657,7.37256,41.0361,0,0,0,0,0,0,0,-1,1119,1681,7.37254,-41.0362
-98,-657,8.14404,38.4435,0,0,0,0,0,0,0,-1,1126,1681,8.14405,-38.4435
-91,-657,3.6521,16.6017,0,0,0,0,0,0,0,-1,1133,1681,3.65215,-16.6017
-84,-657,4.08008,10.4579,0,0,0,0,0,0,0,-1,1140,1681,4.08006,-10.4579
-77,-657,-5.29846,0.396606,0,0,0,0,0,0,0,-1,1147,1681,-5.29842,-0.396573
-70,-657,-4.14893,2.14575,0,0,0,0,0,0,0,-1,1154,1681,-4.14893,-2.1458
-63,-657,-4.1239,3.177,0,0,0,0,0,0,0,-1,1161,1681,-4.12391,-3.17698
-56,-657,-6.40576,5.73987,0,0,0,0,0,0,0,-1,1168,1681,-6.40577,-5.7399
-49,-657,-5.98462,7.54053,0,0,0,0,0,0,0,-1,1175,1681,-5.98466,-7.5405
-42,-657,-5.71948,9.28955,0,0,0,0,0,0,0,-1,1182,1681,-5.71951,-9.2895
-35,-657,-5.44556,11.015,0,0,0,0,0,0,0,-1,1189,1681,-5.44555,-11.015
-28,-657,-1.3446,8.92847,0,0,0,0,0,0,0,-1,1196,1681,-1.34459,-8.92848
-21,-657,3.86218,53.3218,0,0,0,0,0,0,0,-1,1203,1681,3.8622,-53.3218
-14,-657,9.59314,49.3301,0,0,0,0,0,0,0,-1,1210,1681,9.5931,-49.33
-7,-657,10.3451,50.1355,0.041266,0.18609,0.0613256,0.208569,0.0187868,1.21945,0.133226,0.0491862,1217,1681,10.3451,-50.1356
0,-657,11.049,50.9403,0.0401776,0.183098,0.0629043,0.20684,0.0164353,1.20989,0.132755,0.0467937,1224,1681,11.049,-50.9403
7,-657,10.3611,53.6666,0.0349958,0.181203,0.06037,0.202908,0.0132907,1.22565,0.131067,0.0458005,1231,1681,10.361,-53.6666
14,-657,10.6753,53.8302,0.0270658,0.177359,0.0551028,0.195396,0.00902805,1.25444,0.127362,0.0420302,1238,1681,10.6753,-53.8302
21,-657,9.43384,57.8511,0,0,0,0,0,0,0,-1,1245,1681,9.43385,-57.8511
28,-657,9.57019,57.5826,0,0,0,0,0,0,0,-1,1252,1681,9.57016,-57.5827
35,-657,9.70911,57.5798,0,0,0,0,0,0,0,-1,1259,1681,9.70906,-57.5799
42,-657,9.8407,57.771,0.0248158,0.133888,0.028189,0.140742,0.0179613,1.33226,0.088451,0.0428514,1266,1681,9.84073,-57.7709
49,-657,9.90552,57.7572,0.0291613,0.118003,0.0219536,0.123132,0.0240325,1.34129,0.0753654,0.0476599,1273,1681,9.9055,-57.7572
56,-657,3.4574,54.356,0.0343105,0.100446,0.0155666,0.103927,0.0308297,1.35081,0.0616341,0.0494129,1280,1681,3.45738,-54.3559
63,-657,5.5769,54.1968,0,0,0,0,0,0,0,-1,1287,1681,5.57692,-54.1968
70,-657,6.22205,54.2902,0.0433962,0.069243,0.00349812,0.0697081,0.0429311,1.43862,0.0406046,0.049361,1294,1681,6.22204,-54.2902
77,-657,7.55762,54.4747,0.0472132,0.0558417,-0.00217641,0.0563596,0.0466953,-1.33719,0.0348018,0.0456469,1301,1681,7.55761,-54.4747
84,-657,9.65332,54.8063,0,0,0,0,0,0,0,-1,1308,1681,9.65336,-54.8062
91,-657,9.87,54.0101,0.0454138,0.0303554,-0.0102332,0.0505893,0.0251799,-0.468235,0.0292078,0.0431277,1315,1681,9.86996,-54.0101
98,-657,10.4872,53.5194,0.0402107,0.0204817,-0.0138269,0.0473312,0.0133612,-0.475557,0.0281769,0.0458512,1322,1681,10.4872,-53.5194
105,-657,10.967,52.9261,0,0,0,0,0,0,0,-1,1329,1681,10.967,-52.9262
112,-657,8.5199,52.7548,0.0167814,0.00907501,-0.019775,0.0330751,-0.00721872,-0.689178,0.0248089,0.0463334,1336,1681,8.51988,-52.7548
119,-657,8.41467,52.4867,0.00134548,0.00550076,-0.0225079,0.0260267,-0.0191805,-0.831421,0.0262,0.0483002,1343,1681,8.41471,-52.4867
126,-657,8.31189,52.2865,-0.0106847,0.00166451,-0.0231056,0.0194063,-0.0284265,-0.915965,0.0277795,0.0496339,1350,1681,8.31185,-52.2865
133,-657,8.16943,52.0619,0,0,0,0,0,0,0,-1,1357,1681,8.16949,-52.0618
140,-657,6.50928,52.9276,0,0,0,0,0,0,0,-1,1364,1681,6.50922,-52.9276
147,-657,6.43726,52.7366,0,0,0,0,0,0,0,-1,1371,1681,6.43731,-52.7366
154,-657,10.9187,42.5811,0,0,0,0,0,0,0,-1,1378,1681,10.9187,-42.5811
161,-657,4.2926,24.9226,0,0,0,0,0,0,0,-1,1385,1681,4.29264,-24.9226
168,-657,5.21643,0.70105,0,0,0,0,0,0,0,-1,1392,1681,5.21648,-0.7011
175,-657,5.52771,0.649048,0,0,0,0,0,0,0,-1,1399,1681,5.52774,-0.649019
182,-657,5.73999,1.02612,0,0,0,0,0,0,0,-1,1406,1681,5.73995,-1.02611
189,-657,5.92126,1.44116,0,0,0,0,0,0,0,-1,1413,1681,5.92126,-1.44115
196,-657,4.92834,9.59021,0,0,0,0,0,0,0,-1,1420,1681,4.9284,-9.59018
203,-657,6.26343,5.16492,0,0,0,0,0,0,0,-1,1427,1681,6.26345,-5.16488
210,-657,3.9856,5.28088,0,0,0,0,0,0,0,-1,1434,1681,3.98555,-5.28084
217,-657,3.95178,5.2843,0,0,0,0,0,0,0,-1,1441,1681,3.95174,-5.28431
224,-657,6.66736,-0.250244,0,0,0,0,0,0,0,-1,1448,1681,6.66737,0.250229
231,-657,6.85498,-1.70752,0,0,0,0,0,0,0,-1,1455,1681,6.855,1.70758
238,-657,5.34143,-2.89819,0,0,0,0,0,0,0,-1,1462,1681,5.34143,2.89813
245,-657,8.66003,-0.102783,0,0,0,0,0,0,0,-1,1469,1681,8.66,0.102824
252,-657,4.78955,0.623779,0,0,0,0,0,0,0,-1,1476,1681,4.7895,-0.623826
259,-657,2.61523,4.31909,0,0,0,0,0,0,0,-1,1483,1681,2.61523,-4.31908
266,-657,5.35437,11.4742,0,0,0,0,0,0,0,-1,1490,1681,5.35441,-11.4742
273,-657,11.9164,46.0638,0,0,0,0,0,0,0,-1,1497,1681,11.9164,-46.0638
280,-657,12.3199,47.4927,0,0,0,0,0,0,0,-1,1504,1681,12.3199,-47.4927
287,-657,12.4338,46.7991,0.0112143,0.0111535,-0.00421963,0.0154036,0.00696414,-0.781798,0.00890687,0.0393214,1511,1681,12.4339,-46.7991
294,-657,12.4886,46.4019,0.0103907,0.0105476,-0.004084,0.0145539,0.00638442,-0.794999,0.00842375,0.0317589,1518,1681,12.4886,-46.4018
301,-657,12.5875,46.0259,0.00956771,0.0106374,-0.00396982,0.0141083,0.00609688,-0.852361,0.00817037,0.0225655,1525,1681,12.5876,-46.0259
308,-657,12.5977,45.556,0.00857305,0.0104263,-0.00373241,0.0133454,0.00565397,-0.907073,0.00773485,0.015115,1532,1681,12.5976,-45.5561
315,-657,12.6146,45.0919,0.00753751,0.0100984,-0.0035867,0.0126264,0.00500955,-0.956847,0.00734146,0.0119522,1539,1681,12.6147,-45.0919
322,-657,12.6404,44.6464,0.00679386,0.0102181,-0.00380709,0.0126804,0.00433163,-0.996709,0.00744246,0.0137599,1546,1681,12.6403,-44.6463
329,-657,12.6357,44.1887,0.00609243,0.00995355,-0.00392199,0.0123944,0.0036516,-1.01411,0.00735438,0.018796,1553,1681,12.6358,-44.1887
336,-657,12.6382,43.751,0.00542396,0.00942056,-0.00387719,0.0117841,0.0030604,-1.02334,0.00706061,0.0164826,1560,1681,12.6381,-43.751
343,-657,12.6555,43.317,0.00474634,0.0087918,-0.00381233,0.0110848,0.00245337,-1.0293,0.00672297,0.0141628,1567,1681,12.6556,-43.317
350,-657,12.6332,42.8523,0.00406918,0.00783189,-0.00366634,0.0100714,0.00182967,-1.02245,0.0061951,0.0154846,1574,1681,12.6331,-42.8523
357,-657,12.6243,42.3519,0.00345659,0.00643801,-0.00344442,0.00870047,0.00119414,-0.989623,0.00544608,0.0141809,1581,1681,12.6242,-42.3519
364,-657,12.6379,41.8802,0.00309249,0.00511235,-0.00336698,0.0076176,0.000587239,-0.931104,0.00489441,0.0112504,1588,1681,12.638,-41.8803
371,-657,12.6171,41.4277,0.00276162,0.00357772,-0.00319449,0.00639011,-5.07818e-05,-0.848922,0.0042771,0.015885,1595,1681,12.6171,-41.4277
378,-657,12.5787,40.9369,0.00250889,0.00185703,-0.00296584,0.00516666,-0.000800733,-0.730671,0.00374003,0.0157962,1602,1681,12.5788,-40.9369
385,-657,12.5371,40.4359,0.00246409,0.000105719,-0.00275764,0.00428408,-0.00171427,-0.58336,0.00356752,0.0133826,1609,1681,12.5372,-40.4359
392,-657,12.5212,39.9296,0.00270706,-0.00151645,-0.00277834,0.00408511,-0.00289449,-0.460438,0.00404917,0.0137428,1616,1681,12.5212,-39.9296
399,-657,12.5381,39.4343,0.00279724,-0.00296504,-0.00286755,0.00398105,-0.00414885,-0.391517,0.00469414,0.0139229,1623,1681,12.538,-39.4343
406,-657,12.5322,38.9431,0.00297933,-0.00359734,-0.00313691,0.00423559,-0.0048536,-0.380918,0.00525169,0.0152845,1630,1681,12.5323,-38.9431
413,-657,12.5142,38.4221,0.00343233,-0.00402351,-0.00355078,0.00485275,-0.00544394,-0.380533,0.00594806,0.0142032,1637,1681,12.5142,-38.4222
420,-657,12.4908,37.8486,0.00400947,-0.00402351,-0.00416958,0.00578242,-0.00579646,-0.402049,0.00668507,0.0146018,1644,1681,12.4909,-37.8486
427,-657,12.4622,37.2886,0.00485017,-0.00324622,-0.00517528,0.00737247,-0.00576852,-0.453496,0.00760577,0.0195192,1651,1681,12.4622,-37.2886
434,-657,12.5139,36.7755,0.00581443,-0.00211316,-0.00634319,0.00933046,-0.00562919,-0.506138,0.00872463,0.0276635,1658,1681,12.5139,-36.7755
441,-657,12.6591,36.3337,0.00660951,-0.000347626,-0.00756342,0.0114559,-0.00519406,-0.569862,0.00983689,0.0425457,1665,1681,12.6591,-36.3337
448,-657,12.7948,35.8807,0,0,0,0,0,0,0,-1,1672,1681,12.7948,-35.8807
455,-657,11.8708,34.3125,0,0,0,0,0,0,0,-1,1679,1681,11.8709,-34.3125
462,-657,10.2832,30.1719,0,0,0,0,0,0,0,-1,1686,1681,10.2831,-30.1718
469,-657,9.22205,26.4175,0,0,0,0,0,0,0,-1,1693,1681,9.2221,-26.4175
476,-657,8.9519,20.5712,0,0,0,0,0,0,0,-1,1700,1681,8.95194,-20.5712
483,-657,10.0663,21.8628,0,0,0,0,0,0,0,-1,1707,1681,10.0663,-21.8628
490,-657,11.6039,21.2185,0,0,0,0,0,0,0,-1,1714,1681,11.6038,-21.2185
497,-657,9.20862,17.8127,0,0,0,0,0,0,0,-1,1721,1681,9.2086,-17.8127
504,-657,0,0,0,0,0,0,0,0,0,-1,1728,1681,0,0
511,-657,0,0,0,0,0,0,0,0,0,-1,1735,1681,0,0
518,-657,0,0,0,0,0,0,0,0,0,-1,1742,1681,0,0
525,-657,0,0,0,0,0,0,0,0,0,-1,1749,1681,0,0
532,-657,0,0,0,0,0,0,0,0,0,-1,1756,1681,0,0
539,-657,0,0,0,0,0,0,0,0,0,-1,1763,1681,0,0
546,-657,0,0,0,0,0,0,0,0,0,-1,1770,1681,0,0
553,-657,0,0,0,0,0,0,0,0,0,-1,1777,1681,0,0
560,-657,0,0,0,0,0,0,0,0,0,-1,1784,1681,0,0
567,-657,0,0,0,0,0,0,0,0,0,-1,1791,1681,0,0
574,-657,0,0,0,0,0,0,0,0,0,-1,1798,1681,0,0
581,-657,0,0,0,0,0,0,0,0,0,-1,1805,1681,0,0
588,-657,0,0,0,0,0,0,0,0,0,-1,1812,1681,0,0
595,-657,0,0,0,0,0,0,0,0,0,-1,1819,1681,0,0
602,-657,0,0,0,0,0,0,0,0,0,-1,1826,1681,0,0
609,-657,0,0,0,0,0,0,0,0,0,-1,1833,1681,0,0
616,-657,0,0,0,0,0,0,0,0,0,-1,1840,1681,0,0
623,-657,0,0,0,0,0,0,0,0,0,-1,1847,1681,0,0
630,-657,0,0,0,0,0,0,0,0,0,-1,1854,1681,0,0
637,-657,0,0,0,0,0,0,0,0,0,-1,1861,1681,0,0
644,-657,0,0,0,0,0,0,0,0,0,-1,1868,1681,0,0
651,-657,0,0,0,0,0,0,0,0,0,-1,1875,1681,0,0
658,-657,0,0,0,0,0,0,0,0,0,-1,1882,1681,0,0
665,-657,0,0,0,0,0,0,0,0,0,-1,1889,1681,0,0
672,-657,0,0,0,0,0,0,0,0,0,-1,1896,1681,0,0
679,-657,0,0,0,0,0,0,0,0,0,-1,1903,1681,0,0
686,-657,0,0,0,0,0,0,0,0,0,-1,1910,1681,0,0
693,-657,0,0,0,0,0,0,0,0,0,-1,1917,1681,0,0
700,-657,0,0,0,0,0,0,0,0,0,-1,1924,1681,0,0
707,-657,0,0,0,0,0,0,0,0,0,-1,1931,1681,0,0
714,-657,0,0,0,0,0,0,0,0,0,-1,1938,1681,0,0
721,-657,0,0,0,0,0,0,0,0,0,-1,1945,1681,0,0
728,-657,0,0,0,0,0,0,0,0,0,-1,1952,1681,0,0
735,-657,0,0,0,0,0,0,0,0,0,-1,1959,1681,0,0
742,-657,0,0,0,0,0,0,0,0,0,-1,1966,1681,0,0
749,-657,0,0,0,0,0,0,0,0,0,-1,1973,1681,0,0
756,-657,0,0,0,0,0,0,0,0,0,-1,1980,1681,0,0
763,-657,0,0,0,0,0,0,0,0,0,-1,1987,1681,0,0
770,-657,0,0,0,0,0,0,0,0,0,-1,1994,1681,0,0
777,-657,0,0,0,0,0,0,0,0,0,-1,2001,1681,0,0
784,-657,0,0,0,0,0,0,0,0,0,-1,2008,1681,0,0
791,-657,0,0,0,0,0,0,0,0,0,-1,2015,1681,0,0
798,-657,0,0,0,0,0,0,0,0,0,-1,2022,1681,0,0
805,-657,0,0,0,0,0,0,0,0,0,-1,2029,1681,0,0
812,-657,0,0,0,0,0,0,0,0,0,-1,2036,1681,0,0
-700,-664,0,0,0,0,0,0,0,0,0,-1,524,1688,0,0
-693,-664,0,0,0,0,0,0,0,0,0,-1,531,1688,0,0
-686,-664,0,0,0,0,0,0,0,0,0,-1,538,1688,0,0
-679,-664,0,0,0,0,0,0,0,0,0,-1,545,1688,0,0
-672,-664,0,0,0,0,0,0,0,0,0,-1,552,1688,0,0
-665,-664,0,0,0,0,0,0,0,0,0,-1,559,1688,0,0
-658,-664,0,0,0,0,0,0,0,0,0,-1,566,1688,0,0
-651,-664,0,0,0,0,0,0,0,0,0,-1,573,1688,0,0
-644,-664,0,0,0,0,0,0,0,0,0,-1,580,1688,0,0
-637,-664,0,0,0,0,0,0,0,0,0,-1,587,1688,0,0
-630,-664,0,0,0,0,0,0,0,0,0,-1,594,1688,0,0
-623,-664,0,0,0,0,0,0,0,0,0,-1,601,1688,0,0
-616,-664,0,0,0,0,0,0,0,0,0,-1,608,1688,0,0
-609,-664,0,0,0,0,0,0,0,0,0,-1,615,1688,0,0
-602,-664,0,0,0,0,0,0,0,0,0,-1,622,1688,0,0
-595,-664,0,0,0,0,0,0,0,0,0,-1,629,1688,0,0
-588,-664,0,0,0,0,0,0,0,0,0,-1,636,1688,0,0
-581,-664,0,0,0,0,0,0,0,0,0,-1,643,1688,0,0
-574,-664,0,0,0,0,0,0,0,0,0,-1,650,1688,0,0
-567,-664,0,0,0,0,0,0,0,0,0,-1,657,1688,0,0
-560,-664,0,0,0,0,0,0,0,0,0,-1,664,1688,0,0
-553,-664,0,0,0,0,0,0,0,0,0,-1,671,1688,0,0
-546,-664,0,0,0,0,0,0,0,0,0,-1,678,1688,0,0
-539,-664,0,0,0,0,0,0,0,0,0,-1,685,1688,0,0
-532,-664,0,0,0,0,0,0,0,0,0,-1,692,1688,0,0
-525,-664,0,0,0,0,0,0,0,0,0,-1,699,1688,0,0
-518,-664,0,0,0,0,0,0,0,0,0,-1,706,1688,0,0
-511,-664,0,0,0,0,0,0,0,0,0,-1,713,1688,0,0
-504,-664,0,0,0,0,0,0,0,0,0,-1,720,1688,0,0
-497,-664,0,0,0,0,0,0,0,0,0,-1,727,1688,0,0
-490,-664,0,0,0,0,0,0,0,0,0,-1,734,1688,0,0
-483,-664,0,0,0,0,0,0,0,0,0,-1,741,1688,0,0
-476,-664,0,0,0,0,0,0,0,0,0,-1,748,1688,0,0
-469,-664,0,0,0,0,0,0,0,0,0,-1,755,1688,0,0
-462,-664,0,0,0,0,0,0,0,0,0,-1,762,1688,0,0
-455,-664,0,0,0,0,0,0,0,0,0,-1,769,1688,0,0
-448,-664,0,0,0,0,0,0,0,0,0,-1,776,1688,0,0
-441,-664,0,0,0,0,0,0,0,0,0,-1,783,1688,0,0
-434,-664,0,0,0,0,0,0,0,0,0,-1,790,1688,0,0
-427,-664,0,0,0,0,0,0,0,0,0,-1,797,1688,0,0
-420,-664,0,0,0,0,0,0,0,0,0,-1,804,1688,0,0
-413,-664,0,0,0,0,0,0,0,0,0,-1,811,1688,0,0
-406,-664,0,0,0,0,0,0,0,0,0,-1,818,1688,0,0
-399,-664,0,0,0,0,0,0,0,0,0,-1,825,1688,0,0
-392,-664,0,0,0,0,0,0,0,0,0,-1,832,1688,0,0
-385,-664,0,0,0,0,0,0,0,0,0,-1,839,1688,0,0
-378,-664,0,0,0,0,0,0,0,0,0,-1,846,1688,0,0
-371,-664,-1.61676,5.92737,0,0,0,0,0,0,0,-1,853,1688,-1.61675,-5.92735
-364,-664,-3.901,5.87024,0,0,0,0,0,0,0,-1,860,1688,-3.90097,-5.87027
-357,-664,-4.81012,4.53479,0,0,0,0,0,0,0,-1,867,1688,-4.81012,-4.5348
-350,-664,5.10297,32.1788,0,0,0,0,0,0,0,-1,874,1688,5.10296,-32.1788
-343,-664,5.2652,32.889,0,0,0,0,0,0,0,-1,881,1688,5.26517,-32.889
-336,-664,5.38037,33.5928,0,0,0,0,0,0,0,-1,888,1688,5.38037,-33.5927
-329,-664,5.78345,34.2806,0,0,0,0,0,0,0,-1,895,1688,5.78346,-34.2807
-322,-664,5.92395,35.3356,0,0,0,0,0,0,0,-1,902,1688,5.92396,-35.3355
-315,-664,5.53967,37.0389,0.0207131,-0.058305,0.015726,0.0237279,-0.0613197,0.189405,0.0506759,0.0475246,909,1688,5.53965,-37.0389
-308,-664,5.39465,37.8195,0.0175378,-0.0492333,0.0115101,0.0194662,-0.0511618,0.166,0.0421235,0.0448516,916,1688,5.39468,-37.8194
-301,-664,5.80554,38.1509,0.0142503,-0.0400121,0.00810616,0.0154354,-0.0411972,0.145167,0.0338057,0.0467262,923,1688,5.80552,-38.1509
-294,-664,6.04059,38.1898,0,0,0,0,0,0,0,-1,930,1688,6.04059,-38.1898
-287,-664,6.44666,37.8129,0.00809981,-0.0234831,0.00361621,0.00850857,-0.0238918,0.112558,0.0193965,0.0291287,937,1688,6.44666,-37.8129
-280,-664,6.37732,38.3212,0.00541613,-0.0169372,0.00227001,0.00564432,-0.0171654,0.100189,0.0137177,0.0202607,944,1688,6.37731,-38.3212
-273,-664,6.37207,38.8555,0.00323019,-0.0117132,0.00123586,0.00333171,-0.0118148,0.0819605,0.00919063,0.0160848,951,1688,6.37207,-38.8554
-266,-664,6.34009,39.3885,0.00184177,-0.0074304,0.000536145,0.00187267,-0.0074613,0.0575674,0.00570187,0.0224706,958,1688,6.34011,-39.3885
-259,-664,6.32587,39.9222,0.000882771,-0.00335361,0.000141808,0.000887513,-0.00335835,0.0334239,0.00258601,0.0200365,965,1688,6.32588,-39.9223
-252,-664,6.30646,40.4417,3.95391e-05,-0.000485623,-3.71326e-05,4.21516e-05,-0.000488235,-0.0702411,0.000340412,0.0161143,972,1688,6.30646,-40.4416
-245,-664,6.26044,40.9907,-0.00101219,0.00109366,0.000497026,0.00120507,-0.00112361,1.35028,0.00134474,0.0201972,979,1688,6.26046,-40.9907
-238,-664,6.28943,41.5542,-0.000801777,0.00143918,0.000534056,0.00155995,-0.000922543,1.34841,0.00144893,0.0244085,986,1688,6.28945,-41.5542
-231,-664,6.27484,42.0024,-0.000474596,0.00162387,0.000641393,0.00180438,-0.000655109,1.29645,0.00147076,0.0207246,993,1688,6.27482,-42.0024
-224,-664,6.21381,42.4713,3.90968e-05,0.00218758,0.000773851,0.00243728,-0.000210611,1.25866,0.00169942,0.0139777,1000,1688,6.21381,-42.4713
-217,-664,6.19458,42.96,0.000784926,0.00292509,0.000876482,0.00323822,0.000471787,1.22766,0.00202,0.0103089,1007,1688,6.19455,-42.9599
-210,-664,6.19373,43.4396,0.00163994,0.00391249,0.000924212,0.00424089,0.00131153,1.22938,0.00250717,0.0117242,1014,1688,6.1937,-43.4396
-203,-664,6.16248,43.8966,0.00253491,0.00473928,0.00107981,0.00518008,0.00209412,1.18322,0.00300894,0.0143676,1021,1688,6.16254,-43.8966
-196,-664,6.15356,44.3311,0.00356267,0.00576124,0.0012658,0.00633846,0.00298545,1.14295,0.00366156,0.0142697,1028,1688,6.1536,-44.331
-189,-664,6.15918,44.8009,0.00456319,0.00712721,0.00141572,0.00775512,0.00393527,1.15334,0.00447759,0.00991369,1035,1688,6.15918,-44.8009
-182,-664,6.16772,45.2709,0.00556442,0.00882293,0.00148029,0.00939498,0.00499237,1.20203,0.00542776,0.00970987,1042,1688,6.16771,-45.2709
-175,-664,6.16833,45.6855,0.00662547,0.0109071,0.00144188,0.0113474,0.00618517,1.27443,0.00656026,0.0131358,1049,1688,6.16838,-45.6856
-168,-664,6.17944,46.1006,0.00757286,0.0132107,0.00149091,0.0135807,0.00720287,1.32755,0.00784566,0.0145103,1056,1688,6.17945,-46.1006
-161,-664,6.1792,46.5286,0.00833719,0.015554,0.0014086,0.0158192,0.008072,1.38471,0.00913383,0.0107702,1063,1688,6.17923,-46.5286
-154,-664,6.23413,46.9266,0.00894964,0.0180914,0.00120977,0.0182488,0.00879225,1.44143,0.0105383,0.0114901,1070,1688,6.23413,-46.9266
-147,-664,6.24072,47.3358,0.00941051,0.0207167,0.00091136,0.0207897,0.00933752,1.49088,0.0120236,0.0193003,1077,1688,6.24071,-47.3358
-140,-664,6.25525,47.7731,0.00951898,0.0232452,0.000370284,0.0232552,0.009509,1.54385,0.0135005,0.0232405,1084,1688,6.25519,-47.773
-133,-664,6.22791,48.2316,0.00959048,0.0260114,-7.29693e-05,0.0260117,0.00959016,-1.56635,0.0151895,0.0226906,1091,1688,6.22796,-48.2316
-126,-664,6.40283,48.6827,0.00973221,0.0286867,-0.000794979,0.0287199,0.00969893,-1.52895,0.0168701,0.0356612,1098,1688,6.40288,-48.6828
-119,-664,6.66528,49.1014,0,0,0,0,0,0,0,-1,1105,1688,6.6653,-49.1015
-112,-664,6.91284,49.698,0,0,0,0,0,0,0,-1,1112,1688,6.91287,-49.698
-105,-664,6.87256,43.2527,0,0,0,0,0,0,0,-1,1119,1688,6.87258,-43.2527
-98,-664,7.69324,41.3359,0,0,0,0,0,0,0,-1,1126,1688,7.69321,-41.3359
-91,-664,5.41931,25.6302,0,0,0,0,0,0,0,-1,1133,1688,5.41932,-25.6302
-84,-664,3.48389,16.6913,0,0,0,0,0,0,0,-1,1140,1688,3.4839,-16.6913
-77,-664,4.52014,11.2122,0,0,0,0,0,0,0,-1,1147,1688,4.5202,-11.2122
-70,-664,4.20374,8.24524,0,0,0,0,0,0,0,-1,1154,1688,4.20379,-8.24519
-63,-664,-4.677,2.40503,0,0,0,0,0,0,0,-1,1161,1688,-4.67702,-2.40498
-56,-664,-4.66504,3.32727,0,0,0,0,0,0,0,-1,1168,1688,-4.6651,-3.32724
-49,-664,-2.54297,3.31848,0,0,0,0,0,0,0,-1,1175,1688,-2.54297,-3.31852
-42,-664,-0.359253,4.38684,0,0,0,0,0,0,0,-1,1182,1688,-0.359261,-4.38685
-35,-664,-0.705566,3.55017,0,0,0,0,0,0,0,-1,1189,1688,-0.705567,-3.55023
-28,-664,-1.54236,10.2538,0,0,0,0,0,0,0,-1,1196,1688,-1.54236,-10.2538
-21,-664,3.49109,53.3292,0,0,0,0,0,0,0,-1,1203,1688,3.49109,-53.3293
-14,-664,8.36841,53.1305,0,0,0,0,0,0,0,-1,1210,1688,8.36839,-53.1305
-7,-664,11.0049,48.4,0,0,0,0,0,0,0,-1,1217,1688,11.0049,-48.4
0,-664,11.4833,49.2344,0,0,0,0,0,0,0,-1,1224,1688,11.4833,-49.2344
7,-664,10.2773,52.0398,0,0,0,0,0,0,0,-1,1231,1688,10.2774,-52.0398
14,-664,9.09131,56.8424,0,0,0,0,0,0,0,-1,1238,1688,9.09127,-56.8424
21,-664,9.25732,56.7758,0.0201445,0.144091,0.0399865,0.155871,0.00836405,1.28429,0.101241,0.0473234,1245,1688,9.25737,-56.7757
28,-664,9.4126,56.6967,0.0197989,0.136748,0.0336424,0.145735,0.0108117,1.30975,0.0937607,0.0459914,1252,1688,9.41263,-56.6966
35,-664,9.54944,56.6814,0,0,0,0,0,0,0,-1,1259,1688,9.54945,-56.6814
42,-664,9.65796,56.64,0.0231772,0.114347,0.02167,0.119236,0.0182887,1.34892,0.07415,0.0446905,1266,1688,9.65792,-56.64
49,-664,9.78601,56.6768,0.0267589,0.101059,0.0162018,0.104438,0.0233797,1.36517,0.0632884,0.046398,1273,1688,9.78606,-56.6768
56,-664,2.48694,54.5061,0.0310174,0.0862386,0.0105391,0.0881816,0.0290744,1.38848,0.0518866,0.0485483,1280,1688,2.48699,-54.5062
63,-664,3.79883,54.571,0,0,0,0,0,0,0,-1,1287,1688,3.79879,-54.5711
70,-664,5.1958,54.5341,0.0380122,0.0598369,-0.000123993,0.0598376,0.0380114,-1.56512,0.034966,0.0466998,1294,1688,5.19583,-54.5341
77,-664,9.33472,54.5555,0.0408756,0.0484324,-0.00484908,0.0508013,0.0385066,-1.11636,0.0306039,0.0396174,1301,1688,9.33474,-54.5555
84,-664,9.5769,54.4642,0.0413896,0.0370778,-0.00803578,0.0475536,0.0309137,-0.65434,0.0278643,0.0444395,1308,1688,9.57687,-54.4642
91,-664,9.5271,53.9788,0.039157,0.026986,-0.0114859,0.0460699,0.0200731,-0.541788,0.0266717,0.0434908,1315,1688,9.52707,-53.9788
98,-664,9.11792,53.4344,0,0,0,0,0,0,0,-1,1322,1688,9.11787,-53.4344
105,-664,8.88794,52.9982,0,0,0,0,0,0,0,-1,1329,1688,8.88795,-52.9982
112,-664,8.65198,52.6469,0.0178981,0.00825751,-0.0185402,0.0322344,-0.00607878,-0.658218,0.0237763,0.0462687,1336,1688,8.65195,-52.6468
119,-664,8.53381,52.3796,0.00571749,0.0053083,-0.0206688,0.0261827,-0.0151569,-0.780449,0.0241487,0.0476379,1343,1688,8.53385,-52.3796
126,-664,8.32861,52.1042,0,0,0,0,0,0,0,-1,1350,1688,8.32861,-52.1042
133,-664,9.85852,52.2003,0,0,0,0,0,0,0,-1,1357,1688,9.85855,-52.2003
140,-664,9.63049,51.5742,0,0,0,0,0,0,0,-1,1364,1688,9.63049,-51.5742
147,-664,9.96594,51.7871,0,0,0,0,0,0,0,-1,1371,1688,9.96594,-51.7871
154,-664,11.9696,51.5223,0,0,0,0,0,0,0,-1,1378,1688,11.9696,-51.5223
161,-664,4.60132,1.56238,0,0,0,0,0,0,0,-1,1385,1688,4.60134,-1.56233
168,-664,5.172,1.25488,0,0,0,0,0,0,0,-1,1392,1688,5.17203,-1.25484
175,-664,5.58313,1.16467,0,0,0,0,0,0,0,-1,1399,1688,5.58317,-1.16466
182,-664,5.74268,1.41113,0,0,0,0,0,0,0,-1,1406,1688,5.74263,-1.41115
189,-664,5.87744,1.87061,0,0,0,0,0,0,0,-1,1413,1688,5.87745,-1.87065
196,-664,6.7594,5.97473,0,0,0,0,0,0,0,-1,1420,1688,6.75943,-5.97478
203,-664,5.38452,5.22034,0,0,0,0,0,0,0,-1,1427,1688,5.38453,-5.2203
210,-664,5.25549,6.45715,0,0,0,0,0,0,0,-1,1434,1688,5.25549,-6.45721
217,-664,5.72009,6.73975,0,0,0,0,0,0,0,-1,1441,1688,5.72014,-6.73972
224,-664,5.05725,7.42908,0,0,0,0,0,0,0,-1,1448,1688,5.05723,-7.42912
231,-664,5.13318,7.60864,0,0,0,0,0,0,0,-1,1455,1688,5.13313,-7.60862
238,-664,4.23193,6.45471,0,0,0,0,0,0,0,-1,1462,1688,4.23197,-6.45476
245,-664,4.42004,6.80896,0,0,0,0,0,0,0,-1,1469,1688,4.4201,-6.80901
252,-664,3.67346,6.85461,0,0,0,0,0,0,0,-1,1476,1688,3.6734,-6.85462
259,-664,4.55823,11.7435,0,0,0,0,0,0,0,-1,1483,1688,4.55826,-11.7435
266,-664,11.8138,47.5754,0,0,0,0,0,0,0,-1,1490,1688,11.8139,-47.5755
273,-664,12.0483,47.4669,0,0,0,0,0,0,0,-1,1497,1688,12.0484,-47.4669
280,-664,12.0244,47.2723,0.00904241,0.00811196,-0.00326056,0.0118708,0.00528361,-0.714535,0.00686735,0.0320572,1504,1688,12.0244,-47.2724
287,-664,11.9761,46.8159,0.00835147,0.00773977,-0.00304022,0.0111012,0.00499005,-0.735266,0.00642016,0.0299179,1511,1688,11.976,-46.8159
294,-664,12.1053,46.3754,0.0077352,0.00741702,-0.00295058,0.010531,0.00462124,-0.758465,0.00609521,0.0209149,1518,1688,12.1054,-46.3754
301,-664,12.1823,45.9316,0.00707655,0.00744757,-0.00287154,0.0101396,0.00438454,-0.817654,0.00587189,0.013159,1525,1688,12.1822,-45.9316
308,-664,12.1934,45.4963,0.00630811,0.0073612,-0.00274692,0.00963159,0.00403772,-0.880092,0.00558494,0.0119625,1532,1688,12.1933,-45.4964
315,-664,12.1849,45.0756,0.00550746,0.00720341,-0.00267415,0.00916081,0.00355006,-0.938934,0.00533341,0.0128252,1539,1688,12.1849,-45.0755
322,-664,12.2021,44.6639,0.00477555,0.00720302,-0.00270989,0.00895857,0.00302,-0.995948,0.00526293,0.015675,1546,1688,12.2022,-44.6639
329,-664,12.2074,44.2506,0.00408241,0.00700183,-0.00271618,0.00862569,0.00245855,-1.03196,0.00513118,0.0166759,1553,1688,12.2073,-44.2506
336,-664,12.1959,43.7914,0.00347177,0.00647445,-0.00261157,0.00798547,0.00196075,-1.04627,0.00480531,0.0141797,1560,1688,12.1959,-43.7913
343,-664,12.1877,43.3237,0.00288749,0.00584524,-0.00250982,0.00727948,0.00145325,-1.05163,0.00444842,0.0117511,1567,1688,12.1878,-43.3237
350,-664,12.1721,42.8667,0.00233138,0.00487952,-0.00237609,0.00630157,0.000909333,-1.03149,0.00393313,0.0134464,1574,1688,12.1721,-42.8667
357,-664,12.1694,42.3727,0.0019502,0.00353896,-0.00229451,0.0051727,0.000316452,-0.952045,0.00334797,0.0134948,1581,1688,12.1694,-42.3727
364,-664,12.1741,41.894,0.00178842,0.00224426,-0.00234368,0.00437107,-0.000338397,-0.83387,0.00303315,0.0119443,1588,1688,12.174,-41.894
371,-664,12.1592,41.4467,0.00162995,0.000798598,-0.00233848,0.00358941,-0.00116086,-0.697439,0.00285954,0.0144844,1595,1688,12.1592,-41.4466
378,-664,12.1201,40.9608,0.00164054,-0.000862708,-0.00233332,0.00303674,-0.0022589,-0.539222,0.00306841,0.0138883,1602,1688,12.1201,-40.9608
385,-664,12.0658,40.4611,0.00192331,-0.00254358,-0.00239229,0.00296268,-0.00358295,-0.409862,0.00378477,0.01473,1609,1688,12.0658,-40.4611
392,-664,12.0156,39.9912,0.00257153,-0.0041319,-0.00274049,0.00354928,-0.00510965,-0.342702,0.00502622,0.0169455,1616,1688,12.0156,-39.9912
399,-664,12.0503,39.4729,0.00309879,-0.00552793,-0.00320978,0.00416202,-0.00659117,-0.319872,0.00626094,0.0144974,1623,1688,12.0503,-39.4729
406,-664,12.0474,38.954,0.00374901,-0.00597858,-0.00386807,0.00509959,-0.00732916,-0.335927,0.00721413,0.0129,1630,1688,12.0474,-38.954
413,-664,12.0172,38.4058,0.004677,-0.00629034,-0.00463936,0.00637625,-0.00798959,-0.351093,0.00831154,0.0114604,1637,1688,12.0172,-38.4057
420,-664,11.983,37.8511,0.00572851,-0.0061438,-0.00563404,0.00797651,-0.00839179,-0.379646,0.00945126,0.0243995,1644,1688,11.9831,-37.8511
427,-664,11.941,37.4336,0.00698706,-0.00516896,-0.00691423,0.010115,-0.00829686,-0.424836,0.0106473,0.0428155,1651,1688,11.9411,-37.4335
434,-664,12.0134,36.8877,0.00838554,-0.00379333,-0.00832536,0.0126108,-0.00801859,-0.469643,0.0120083,0.0437183,1658,1688,12.0135,-36.8877
441,-664,12.4954,36.4189,0.00963133,-0.00148913,-0.00984874,0.015381,-0.0072388,-0.528421,0.0133386,0.0473864,1665,1688,12.4953,-36.4189
448,-664,12.4491,36.2385,0,0,0,0,0,0,0,-1,1672,1688,12.4492,-36.2385
455,-664,7.53198,11.3838,0,0,0,0,0,0,0,-1,1679,1688,7.53195,-11.3838
462,-664,4.3147,4.25439,0,0,0,0,0,0,0,-1,1686,1688,4.31467,-4.25435
469,-664,6.05469,7.49341,0,0,0,0,0,0,0,-1,1693,1688,6.05474,-7.49339
476,-664,10.2377,22.7128,0,0,0,0,0,0,0,-1,1700,1688,10.2377,-22.7128
483,-664,8.41895,10.9768,0,0,0,0,0,0,0,-1,1707,1688,8.41897,-10.9769
490,-664,3.90771,13.2842,0,0,0,0,0,0,0,-1,1714,1688,3.90776,-13.2841
497,-664,0,0,0,0,0,0,0,0,0,-1,1721,1688,0,0
504,-664,0,0,0,0,0,0,0,0,0,-1,1728,1688,0,0
511,-664,0,0,0,0,0,0,0,0,0,-1,1735,1688,0,0
518,-664,0,0,0,0,0,0,0,0,0,-1,1742,1688,0,0
525,-664,0,0,0,0,0,0,0,0,0,-1,1749,1688,0,0
532,-664,0,0,0,0,0,0,0,0,0,-1,1756,1688,0,0
539,-664,0,0,0,0,0,0,0,0,0,-1,1763,1688,0,0
546,-664,0,0,0,0,0,0,0,0,0,-1,1770,1688,0,0
553,-664,0,0,0,0,0,0,0,0,0,-1,1777,1688,0,0
560,-664,0,0,0,0,0,0,0,0,0,-1,1784,1688,0,0
567,-664,0,0,0,0,0,0,0,0,0,-1,1791,1688,0,0
574,-664,0,0,0,0,0,0,0,0,0,-1,1798,1688,0,0
581,-664,0,0,0,0,0,0,0,0,0,-1,1805,1688,0,0
588,-664,0,0,0,0,0,0,0,0,0,-1,1812,1688,0,0
595,-664,0,0,0,0,0,0,0,0,0,-1,1819,1688,0,0
602,-664,0,0,0,0,0,0,0,0,0,-1,1826,1688,0,0
609,-664,0,0,0,0,0,0,0,0,0,-1,1833,1688,0,0
616,-664,0,0,0,0,0,0,0,0,0,-1,1840,1688,0,0
623,-664,0,0,0,0,0,0,0,0,0,-1,1847,1688,0,0
630,-664,0,0,0,0,0,0,0,0,0,-1,1854,1688,0,0
637,-664,0,0,0,0,0,0,0,0,0,-1,1861,1688,0,0
644,-664,0,0,0,0,0,0,0,0,0,-1,1868,1688,0,0
651,-664,0,0,0,0,0,0,0,0,0,-1,1875,1688,0,0
658,-664,0,0,0,0,0,0,0,0,0,-1,1882,1688,0,0
665,-664,0,0,0,0,0,0,0,0,0,-1,1889,1688,0,0
672,-664,0,0,0,0,0,0,0,0,0,-1,1896,1688,0,0
679,-664,0,0,0,0,0,0,0,0,0,-1,1903,1688,0,0
686,-664,0,0,0,0,0,0,0,0,0,-1,1910,1688,0,0
693,-664,0,0,0,0,0,0,0,0,0,-1,1917,1688,0,0
700,-664,0,0,0,0,0,0,0,0,0,-1,1924,1688,0,0
707,-664,0,0,0,0,0,0,0,0,0,-1,1931,1688,0,0
714,-664,0,0,0,0,0,0,0,0,0,-1,1938,1688,0,0
721,-664,0,0,0,0,0,0,0,0,0,-1,1945,1688,0,0
728,-664,0,0,0,0,0,0,0,0,0,-1,1952,1688,0,0
735,-664,0,0,0,0,0,0,0,0,0,-1,1959,1688,0,0
742,-664,0,0,0,0,0,0,0,0,0,-1,1966,1688,0,0
749,-664,0,0,0,0,0,0,0,0,0,-1,1973,1688,0,0
756,-664,0,0,0,0,0,0,0,0,0,-1,1980,1688,0,0
763,-664,0,0,0,0,0,0,0,0,0,-1,1987,1688,0,0
770,-664,0,0,0,0,0,0,0,0,0,-1,1994,1688,0,0
777,-664,0,0,0,0,0,0,0,0,0,-1,2001,1688,0,0
784,-664,0,0,0,0,0,0,0,0,0,-1,2008,1688,0,0
791,-664,0,0,0,0,0,0,0,0,0,-1,2015,1688,0,0
798,-664,0,0,0,0,0,0,0,0,0,-1,2022,1688,0,0
805,-664,0,0,0,0,0,0,0,0,0,-1,2029,1688,0,0
812,-664,0,0,0,0,0,0,0,0,0,-1,2036,1688,0,0
-700,-671,0,0,0,0,0,0,0,0,0,-1,524,1695,0,0
-693,-671,0,0,0,0,0,0,0,0,0,-1,531,1695,0,0
-686,-671,0,0,0,0,0,0,0,0,0,-1,538,1695,0,0
-679,-671,0,0,0,0,0,0,0,0,0,-1,545,1695,0,0
-672,-671,0,0,0,0,0,0,0,0,0,-1,552,1695,0,0
-665,-671,0,0,0,0,0,0,0,0,0,-1,559,1695,0,0
-658,-671,0,0,0,0,0,0,0,0,0,-1,566,1695,0,0
-651,-671,0,0,0,0,0,0,0,0,0,-1,573,1695,0,0
-644,-671,0,0,0,0,0,0,0,0,0,-1,580,1695,0,0
-637,-671,0,0,0,0,0,0,0,0,0,-1,587,1695,0,0
-630,-671,0,0,0,0,0,0,0,0,0,-1,594,1695,0,0
-623,-671,0,0,0,0,0,0,0,0,0,-1,601,1695,0,0
-616,-671,0,0,0,0,0,0,0,0,0,-1,608,1695,0,0
-609,-671,0,0,0,0,0,0,0,0,0,-1,615,1695,0,0
-602,-671,0,0,0,0,0,0,0,0,0,-1,622,1695,0,0
-595,-671,0,0,0,0,0,0,0,0,0,-1,629,1695,0,0
-588,-671,0,0,0,0,0,0,0,0,0,-1,636,1695,0,0
-581,-671,0,0,0,0,0,0,0,0,0,-1,643,1695,0,0
-574,-671,0,0,0,0,0,0,0,0,0,-1,650,1695,0,0
-567,-671,0,0,0,0,0,0,0,0,0,-1,657,1695,0,0
-560,-671,0,0,0,0,0,0,0,0,0,-1,664,1695,0,0
-553,-671,0,0,0,0,0,0,0,0,0,-1,671,1695,0,0
-546,-671,0,0,0,0,0,0,0,0,0,-1,678,1695,0,0
-539,-671,0,0,0,0,0,0,0,0,0,-1,685,1695,0,0
-532,-671,0,0,0,0,0,0,0,0,0,-1,692,1695,0,0
-525,-671,0,0,0,0,0,0,0,0,0,-1,699,1695,0,0
-518,-671,0,0,0,0,0,0,0,0,0,-1,706,1695,0,0
-511,-671,0,0,0,0,0,0,0,0,0,-1,713,1695,0,0
-504,-671,0,0,0,0,0,0,0,0,0,-1,720,1695,0,0
-497,-671,0,0,0,0,0,0,0,0,0,-1,727,1695,0,0
-490,-671,0,0,0,0,0,0,0,0,0,-1,734,1695,0,0
-483,-671,0,0,0,0,0,0,0,0,0,-1,741,1695,0,0
-476,-671,0,0,0,0,0,0,0,0,0,-1,748,1695,0,0
-469,-671,0,0,0,0,0,0,0,0,0,-1,755,1695,0,0
-462,-671,0,0,0,0,0,0,0,0,0,-1,762,1695,0,0
-455,-671,0,0,0,0,0,0,0,0,0,-1,769,1695,0,0
-448,-671,0,0,0,0,0,0,0,0,0,-1,776,1695,0,0
-441,-671,0,0,0,0,0,0,0,0,0,-1,783,1695,0,0
-434,-671,0,0,0,0,0,0,0,0,0,-1,790,1695,0,0
-427,-671,0,0,0,0,0,0,0,0,0,-1,797,1695,0,0
-420,-671,0,0,0,0,0,0,0,0,0,-1,804,1695,0,0
-413,-671,0,0,0,0,0,0,0,0,0,-1,811,1695,0,0
-406,-671,0,0,0,0,0,0,0,0,0,-1,818,1695,0,0
-399,-671,0,0,0,0,0,0,0,0,0,-1,825,1695,0,0
-392,-671,0,0,0,0,0,0,0,0,0,-1,832,1695,0,0
-385,-671,0,0,0,0,0,0,0,0,0,-1,839,1695,0,0
-378,-671,0,0,0,0,0,0,0,0,0,-1,846,1695,0,0
-371,-671,0,0,0,0,0,0,0,0,0,-1,853,1695,0,0
-364,-671,-4.18738,7.51416,0,0,0,0,0,0,0,-1,860,1695,-4.18739,-7.51419
-357,-671,-5.02393,6.07129,0,0,0,0,0,0,0,-1,867,1695,-5.0239,-6.07135
-350,-671,6.93323,33.8943,0,0,0,0,0,0,0,-1,874,1695,6.93325,-33.8943
-343,-671,6.16626,32.3158,0,0,0,0,0,0,0,-1,881,1695,6.16623,-32.3158
-336,-671,5.67371,33.653,0,0,0,0,0,0,0,-1,888,1695,5.67369,-33.653
-329,-671,6.14716,34.5975,0,0,0,0,0,0,0,-1,895,1695,6.14716,-34.5976
-322,-671,7.50946,33.8042,0,0,0,0,0,0,0,-1,902,1695,7.50944,-33.8042
-315,-671,5.73102,37.8898,0,0,0,0,0,0,0,-1,909,1695,5.731,-37.8898
-308,-671,5.67218,38.7498,0,0,0,0,0,0,0,-1,916,1695,5.67216,-38.7497
-301,-671,6.04388,39.0994,0.0194056,-0.0516619,0.0082432,0.0203492,-0.0526055,0.113975,0.0434711,0.0452645,923,1695,6.0439,-39.0994
-294,-671,6.80212,37.4215,0,0,0,0,0,0,0,-1,930,1695,6.80211,-37.4215
-287,-671,7.02521,37.8036,0.0108761,-0.0292206,0.00350617,0.0111804,-0.0295249,0.0865673,0.0242837,0.0452659,937,1695,7.02521,-37.8036
-280,-671,7.04224,38.3809,0.00711426,-0.0206938,0.00211669,0.00727446,-0.020854,0.0755377,0.016859,0.03685,944,1695,7.04225,-38.3808
-273,-671,6.87646,38.9165,0.00408479,-0.0140882,0.00105729,0.00414609,-0.0141495,0.0579188,0.0110768,0.032653,951,1695,6.87646,-38.9165
-266,-671,6.8537,39.4706,0.00210831,-0.00883806,0.000369824,0.00212079,-0.00885054,0.0337338,0.00671979,0.0239763,958,1695,6.85367,-39.4705
-259,-671,6.77179,39.9567,0.000754281,-0.00398087,-1.51491e-05,0.000754329,-0.00398092,-0.00319923,0.00293785,0.0211347,965,1695,6.77178,-39.9567
-252,-671,6.78619,40.4615,-0.000427295,-0.00070291,-0.000176763,-0.000340969,-0.000789236,-0.454304,0.000457067,0.0165715,972,1695,6.78621,-40.4615
-245,-671,6.76514,40.9877,-0.00198982,0.00107167,0.000477342,0.00114437,-0.00206252,1.41966,0.00187662,0.0194142,979,1695,6.76515,-40.9876
-238,-671,6.78455,41.5127,-0.001933,0.0013506,0.000509943,0.00142797,-0.00201038,1.42022,0.0019946,0.0202424,986,1695,6.78453,-41.5126
-231,-671,6.74597,42.0029,-0.00167771,0.00145755,0.000563981,0.00155591,-0.00177607,1.39812,0.00192512,0.0153744,993,1695,6.74595,-42.003
-224,-671,6.68665,42.469,-0.00125358,0.00171892,0.000636886,0.00184963,-0.00138429,1.36837,0.00187354,0.0118151,1000,1695,6.68667,-42.469
-217,-671,6.66473,42.9493,-0.000648674,0.00208264,0.000677041,0.00224125,-0.000807289,1.34067,0.00182383,0.0113112,1007,1695,6.6647,-42.9494
-210,-671,6.65625,43.4518,-3.96789e-05,0.00268703,0.000697206,0.00285496,-0.000207608,1.33444,0.00197615,0.0112007,1014,1695,6.65623,-43.4518
-203,-671,6.59729,43.892,0.000683557,0.00320018,0.000836285,0.00345273,0.000431001,1.27751,0.00217245,0.0187196,1021,1695,6.59723,-43.892
-196,-671,6.60364,44.3545,0.00155501,0.00383626,0.00098503,0.00420272,0.00118855,1.21463,0.00250159,0.0157216,1028,1695,6.60362,-44.3545
-189,-671,6.6134,44.851,0.00240507,0.00470993,0.00109074,0.00514426,0.00197074,1.19184,0.00299698,0.0120512,1035,1695,6.61334,-44.8509
-182,-671,6.61292,45.2881,0.0032489,0.0059408,0.0011181,0.00634462,0.00284507,1.2242,0.00366956,0.00974835,1042,1695,6.61286,-45.2881
-175,-671,6.61108,45.6982,0.00418501,0.00746178,0.00107962,0.00778551,0.00386129,1.27947,0.00449502,0.0129704,1049,1695,6.61111,-45.6983
-168,-671,6.60291,46.1086,0.00498436,0.0091832,0.00112115,0.00946381,0.00470375,1.32555,0.00546396,0.0142701,1056,1695,6.60288,-46.1086
-161,-671,6.60022,46.5148,0.00561621,0.0109236,0.00105588,0.0111259,0.00541386,1.38145,0.00642432,0.00974763,1063,1695,6.60022,-46.5147
-154,-671,6.62549,46.9282,0.00616469,0.0128257,0.00091806,0.0129499,0.00604047,1.43631,0.00748224,0.00907835,1070,1695,6.6255,-46.9282
-147,-671,6.64221,47.3574,0.00662291,0.0147688,0.00073017,0.0148338,0.00655798,1.4821,0.0085834,0.0108754,1077,1695,6.64221,-47.3574
-140,-671,6.67578,47.7262,0.00684362,0.0165565,0.000364957,0.0165701,0.00682993,1.53329,0.00961584,0.0135282,1084,1695,6.67578,-47.7262
-133,-671,6.67798,48.0663,0.00704617,0.0184349,7.16081e-05,0.0184354,0.00704572,1.56451,0.0107417,0.0180148,1091,1695,6.67796,-48.0663
-126,-671,6.75623,48.5388,0.00736539,0.0201422,-0.000422264,0.0201562,0.00735145,-1.5378,0.0117783,0.0302992,1098,1695,6.75617,-48.5388
-119,-671,6.8645,49.1354,0,0,0,0,0,0,0,-1,1105,1695,6.86455,-49.1354
-112,-671,6.58704,44.6255,0,0,0,0,0,0,0,-1,1112,1695,6.58701,-44.6255
-105,-671,7.33252,41.3418,0,0,0,0,0,0,0,-1,1119,1695,7.33247,-41.3418
-98,-671,6.34534,45.6299,0,0,0,0,0,0,0,-1,1126,1695,6.34533,-45.6299
-91,-671,6.40063,38.2443,0,0,0,0,0,0,0,-1,1133,1695,6.40059,-38.2442
-84,-671,5.4209,26.2415,0,0,0,0,0,0,0,-1,1140,1695,5.42096,-26.2414
-77,-671,4.31763,16.489,0,0,0,0,0,0,0,-1,1147,1695,4.31757,-16.489
-70,-671,3.06067,10.7737,0,0,0,0,0,0,0,-1,1154,1695,3.0607,-10.7737
-63,-671,2.94592,6.90198,0,0,0,0,0,0,0,-1,1161,1695,2.94594,-6.90198
-56,-671,-3.07678,2.87976,0,0,0,0,0,0,0,-1,1168,1695,-3.07675,-2.87979
-49,-671,-1.05957,4.76917,0,0,0,0,0,0,0,-1,1175,1695,-1.05958,-4.76921
-42,-671,0.539307,3.7865,0,0,0,0,0,0,0,-1,1182,1695,0.539266,-3.78648
-35,-671,-0.272461,0.347534,0,0,0,0,0,0,0,-1,1189,1695,-0.272434,-0.347569
-28,-671,-10.4878,17.2009,0,0,0,0,0,0,0,-1,1196,1695,-10.4878,-17.2009
-21,-671,7.76563,52.3656,0,0,0,0,0,0,0,-1,1203,1695,7.76561,-52.3656
-14,-671,8.2926,53.0166,0,0,0,0,0,0,0,-1,1210,1695,8.29263,-53.0166
-7,-671,8.1543,52.8203,0,0,0,0,0,0,0,-1,1217,1695,8.15429,-52.8204
0,-671,8.51001,53.1243,0,0,0,0,0,0,0,-1,1224,1695,8.51002,-53.1243
7,-671,8.79785,55.6476,0,0,0,0,0,0,0,-1,1231,1695,8.7978,-55.6476
14,-671,8.96179,55.6833,0.0194987,0.122991,0.0352444,0.133854,0.00863635,1.27183,0.0865009,0.0462653,1238,1695,8.96178,-55.6834
21,-671,9.17407,55.7068,0.0183445,0.118915,0.0317133,0.12808,0.00917935,1.28946,0.0824973,0.0455609,1245,1695,9.17401,-55.7067
28,-671,9.3429,55.7413,0.018558,0.113433,0.0264548,0.120311,0.01168,1.31644,0.0766117,0.0477679,1252,1695,9.34285,-55.7414
35,-671,9.46826,55.8274,0,0,0,0,0,0,0,-1,1259,1695,9.46828,-55.8273
42,-671,9.24341,55.9698,0.0213338,0.0958182,0.0164772,0.0993005,0.0178516,1.36252,0.061125,0.0454978,1266,1695,9.24341,-55.9699
49,-671,9.59888,55.7916,0.024177,0.084995,0.0118561,0.0872246,0.0219474,1.38492,0.0523894,0.0473556,1273,1695,9.59889,-55.7917
56,-671,1.49243,54.6436,0,0,0,0,0,0,0,-1,1280,1695,1.49247,-54.6436
63,-671,2.78943,54.7509,0,0,0,0,0,0,0,-1,1287,1695,2.78946,-54.7508
70,-671,9.70483,54.7506,0,0,0,0,0,0,0,-1,1294,1695,9.70478,-54.7506
77,-671,9.57751,54.3999,0.0347954,0.0410722,-0.00597876,0.0446862,0.0311814,-1.02709,0.0264639,0.0468185,1301,1695,9.57748,-54.4
84,-671,9.48169,54.0789,0.0350621,0.0316631,-0.00853909,0.0420692,0.0246561,-0.687168,0.0244084,0.0466315,1308,1695,9.48164,-54.0789
91,-671,9.40137,53.7317,0.0331486,0.0233272,-0.0113282,0.0405847,0.0158912,-0.580876,0.0236146,0.045462,1315,1695,9.40139,-53.7317
98,-671,9.21924,53.3435,0.0298333,0.015866,-0.0137109,0.0382366,0.00746266,-0.549847,0.0234035,0.044137,1322,1695,9.21929,-53.3436
105,-671,8.97803,52.9764,0.0253943,0.00935137,-0.0151663,0.0345298,0.000215929,-0.542148,0.0229482,0.0453487,1329,1695,8.978,-52.9764
112,-671,8.7345,52.6107,0.01786,0.00716198,-0.0164446,0.0298037,-0.00478169,-0.628158,0.0216398,0.0459403,1336,1695,8.73449,-52.6107
119,-671,8.38513,52.0989,0.00862124,0.0047478,-0.0180648,0.0248529,-0.0114838,-0.731997,0.0214471,0.0467155,1343,1695,8.38516,-52.0989
126,-671,10.3096,52.5939,0,0,0,0,0,0,0,-1,1350,1695,10.3096,-52.5939
133,-671,10.2703,52.4801,0,0,0,0,0,0,0,-1,1357,1695,10.2702,-52.4802
140,-671,9.8855,51.6115,0,0,0,0,0,0,0,-1,1364,1695,9.88545,-51.6115
147,-671,9.80835,51.5853,0,0,0,0,0,0,0,-1,1371,1695,9.80837,-51.5853
154,-671,9.98901,51.4144,0,0,0,0,0,0,0,-1,1378,1695,9.98899,-51.4145
161,-671,4.49292,4.91272,0,0,0,0,0,0,0,-1,1385,1695,4.49297,-4.91273
168,-671,5.17639,6.1416,0,0,0,0,0,0,0,-1,1392,1695,5.1764,-6.14164
175,-671,5.6731,1.64685,0,0,0,0,0,0,0,-1,1399,1695,5.67313,-1.64691
182,-671,5.56812,1.71692,0,0,0,0,0,0,0,-1,1406,1695,5.56809,-1.71686
189,-671,6.98315,6.36169,0,0,0,0,0,0,0,-1,1413,1695,6.98312,-6.36175
196,-671,5.38123,5.69775,0,0,0,0,0,0,0,-1,1420,1695,5.38125,-5.69769
203,-671,5.95117,8.11658,0,0,0,0,0,0,0,-1,1427,1695,5.9512,-8.11662
210,-671,4.73596,8.39624,0,0,0,0,0,0,0,-1,1434,1695,4.736,-8.39618
217,-671,5.37097,11.863,0,0,0,0,0,0,0,-1,1441,1695,5.37094,-11.863
224,-671,5.08167,13.6694,0,0,0,0,0,0,0,-1,1448,1695,5.08165,-13.6695
231,-671,5.66663,15.3348,0,0,0,0,0,0,0,-1,1455,1695,5.66667,-15.3349
238,-671,6.32959,16.2036,0,0,0,0,0,0,0,-1,1462,1695,6.32961,-16.2037
245,-671,11.7313,48.673,0,0,0,0,0,0,0,-1,1469,1695,11.7313,-48.673
252,-671,11.5986,48.4863,0,0,0,0,0,0,0,-1,1476,1695,11.5986,-48.4864
259,-671,11.6069,48.3356,0,0,0,0,0,0,0,-1,1483,1695,11.607,-48.3355
266,-671,11.6281,47.8403,0.00733337,0.00527067,-0.00235509,0.00887304,0.003731,-0.579015,0.0051444,0.0350552,1490,1695,11.6281,-47.8403
273,-671,11.699,47.5055,0.00706485,0.00537905,-0.00238397,0.00875055,0.00369335,-0.615473,0.00507255,0.0107877,1497,1695,11.699,-47.5055
280,-671,11.7134,47.1261,0.00659558,0.005475,-0.00233615,0.00843769,0.00363289,-0.667705,0.00488714,0.0102798,1504,1695,11.7134,-47.1261
287,-671,11.7037,46.6732,0.00605563,0.00530461,-0.00221642,0.00792813,0.00343212,-0.701484,0.00459102,0.0123551,1511,1695,11.7037,-46.6733
294,-671,11.7078,46.2697,0.00555989,0.00517337,-0.00216036,0.00753562,0.00319765,-0.740788,0.00436726,0.0121696,1518,1695,11.7078,-46.2696
301,-671,11.7433,45.9092,0.00501269,0.00520695,-0.00212882,0.00724085,0.00297879,-0.808196,0.00420233,0.011086,1525,1695,11.7432,-45.9092
308,-671,11.7538,45.5085,0.00440115,0.00523799,-0.00211242,0.00697303,0.00266611,-0.883171,0.00406286,0.0122849,1532,1695,11.7537,-45.5085
315,-671,11.7494,45.0885,0.00377355,0.00524425,-0.00211295,0.00674616,0.00227165,-0.952854,0.00396351,0.0139792,1539,1695,11.7494,-45.0885
322,-671,11.7538,44.6854,0.00315117,0.00527419,-0.00214717,0.00660792,0.00181744,-1.01497,0.00394169,0.0156024,1546,1695,11.7538,-44.6854
329,-671,11.741,44.286,0.0025429,0.00518755,-0.0021639,0.00640116,0.00132929,-1.05966,0.00390059,0.0142726,1553,1695,11.741,-44.286
336,-671,11.7426,43.806,0.00203634,0.00466804,-0.00206896,0.00580414,0.000900234,-1.06863,0.00360699,0.0115996,1560,1695,11.7426,-43.806
343,-671,11.7664,43.3186,0.00158659,0.00402188,-0.00199091,0.00513798,0.000470486,-1.05985,0.00327976,0.0118162,1567,1695,11.7663,-43.3186
350,-671,11.7427,42.8823,0.00118782,0.00300524,-0.00190899,0.00421077,-1.771e-05,-1.00754,0.0028131,0.0129577,1574,1695,11.7427,-42.8823
357,-671,11.7083,42.3898,0.0010712,0.00163475,-0.00199289,0.00336568,-0.000659736,-0.855628,0.00249297,0.0119609,1581,1695,11.7083,-42.3897
364,-671,11.6914,41.9072,0.00113023,0.000257379,-0.00215601,0.00289354,-0.00150593,-0.685536,0.00258181,0.0134767,1588,1695,11.6914,-41.9072
371,-671,11.6635,41.4635,0.00114691,-0.00125389,-0.00227537,0.0025191,-0.00262609,-0.542671,0.00297079,0.0150863,1595,1695,11.6635,-41.4635
378,-671,11.6359,40.9783,0.00140917,-0.00304422,-0.00242917,0.00247778,-0.00411283,-0.41443,0.00384393,0.0128068,1602,1695,11.6358,-40.9783
385,-671,11.6007,40.4631,0.00199633,-0.00486379,-0.00268248,0.00292069,-0.00578816,-0.331849,0.0051181,0.0144238,1609,1695,11.6008,-40.4632
392,-671,11.5707,39.9985,0.00301933,-0.0066386,-0.00327619,0.0040258,-0.00764507,-0.298057,0.00684533,0.017578,1616,1695,11.5706,-39.9986
399,-671,11.5562,39.5145,0.00397501,-0.00820075,-0.00405733,0.00520315,-0.0094289,-0.29393,0.00856445,0.0142008,1623,1695,11.5561,-39.5145
406,-671,11.5519,38.9607,0.00510842,-0.00869567,-0.00504743,0.00675709,-0.0103443,-0.315711,0.00994566,0.0186322,1630,1695,11.5518,-38.9606
413,-671,11.509,38.4434,0.00655345,-0.00906302,-0.00614321,0.00868039,-0.01119,-0.333308,0.0115026,0.0269511,1637,1695,11.509,-38.4434
420,-671,11.3971,37.9326,0.0081543,-0.00887959,-0.00752355,0.0110014,-0.0117267,-0.361773,0.0131243,0.0408451,1644,1695,11.3971,-37.9326
427,-671,11.3358,37.3219,0,0,0,0,0,0,0,-1,1651,1695,11.3358,-37.3219
434,-671,11.5422,37.1736,0,0,0,0,0,0,0,-1,1658,1695,11.5423,-37.1736
441,-671,12.4391,36.3743,0,0,0,0,0,0,0,-1,1665,1695,12.4391,-36.3743
448,-671,7.44873,20.2306,0,0,0,0,0,0,0,-1,1672,1695,7.44872,-20.2306
455,-671,6.62805,19.8612,0,0,0,0,0,0,0,-1,1679,1695,6.62811,-19.8612
462,-671,5.86255,4.47961,0,0,0,0,0,0,0,-1,1686,1695,5.8625,-4.4796
469,-671,3.71301,3.76978,0,0,0,0,0,0,0,-1,1693,1695,3.71297,-3.76974
476,-671,3.75574,3.18848,0,0,0,0,0,0,0,-1,1700,1695,3.7558,-3.18847
483,-671,7.81824,12.1041,0,0,0,0,0,0,0,-1,1707,1695,7.81826,-12.1041
490,-671,0,0,0,0,0,0,0,0,0,-1,1714,1695,0,0
497,-671,0,0,0,0,0,0,0,0,0,-1,1721,1695,0,0
504,-671,0,0,0,0,0,0,0,0,0,-1,1728,1695,0,0
511,-671,0,0,0,0,0,0,0,0,0,-1,1735,1695,0,0
518,-671,0,0,0,0,0,0,0,0,0,-1,1742,1695,0,0
525,-671,0,0,0,0,0,0,0,0,0,-1,1749,1695,0,0
532,-671,0,0,0,0,0,0,0,0,0,-1,1756,1695,0,0
539,-671,0,0,0,0,0,0,0,0,0,-1,1763,1695,0,0
546,-671,0,0,0,0,0,0,0,0,0,-1,1770,1695,0,0
553,-671,0,0,0,0,0,0,0,0,0,-1,1777,1695,0,0
560,-671,0,0,0,0,0,0,0,0,0,-1,1784,1695,0,0
567,-671,0,0,0,0,0,0,0,0,0,-1,1791,1695,0,0
574,-671,0,0,0,0,0,0,0,0,0,-1,1798,1695,0,0
581,-671,0,0,0,0,0,0,0,0,0,-1,1805,1695,0,0
588,-671,0,0,0,0,0,0,0,0,0,-1,1812,1695,0,0
595,-671,0,0,0,0,0,0,0,0,0,-1,1819,1695,0,0
602,-671,0,0,0,0,0,0,0,0,0,-1,1826,1695,0,0
609,-671,0,0,0,0,0,0,0,0,0,-1,1833,1695,0,0
616,-671,0,0,0,0,0,0,0,0,0,-1,1840,1695,0,0
623,-671,0,0,0,0,0,0,0,0,0,-1,1847,1695,0,0
630,-671,0,0,0,0,0,0,0,0,0,-1,1854,1695,0,0
637,-671,0,0,0,0,0,0,0,0,0,-1,1861,1695,0,0
644,-671,0,0,0,0,0,0,0,0,0,-1,1868,1695,0,0
651,-671,0,0,0,0,0,0,0,0,0,-1,1875,1695,0,0
658,-671,0,0,0,0,0,0,0,0,0,-1,1882,1695,0,0
665,-671,0,0,0,0,0,0,0,0,0,-1,1889,1695,0,0
672,-671,0,0,0,0,0,0,0,0,0,-1,1896,1695,0,0
679,-671,0,0,0,0,0,0,0,0,0,-1,1903,1695,0,0
686,-671,0,0,0,0,0,0,0,0,0,-1,1910,1695,0,0
693,-671,0,0,0,0,0,0,0,0,0,-1,1917,1695,0,0
700,-671,0,0,0,0,0,0,0,0,0,-1,1924,1695,0,0
707,-671,0,0,0,0,0,0,0,0,0,-1,1931,1695,0,0
714,-671,0,0,0,0,0,0,0,0,0,-1,1938,1695,0,0
721,-671,0,0,0,0,0,0,0,0,0,-1,1945,1695,0,0
728,-671,0,0,0,0,0,0,0,0,0,-1,1952,1695,0,0
735,-671,0,0,0,0,0,0,0,0,0,-1,1959,1695,0,0
742,-671,0,0,0,0,0,0,0,0,0,-1,1966,1695,0,0
749,-671,0,0,0,0,0,0,0,0,0,-1,1973,1695,0,0
756,-671,0,0,0,0,0,0,0,0,0,-1,1980,1695,0,0
763,-671,0,0,0,0,0,0,0,0,0,-1,1987,1695,0,0
770,-671,0,0,0,0,0,0,0,0,0,-1,1994,1695,0,0
777,-671,0,0,0,0,0,0,0,0,0,-1,2001,1695,0,0
784,-671,0,0,0,0,0,0,0,0,0,-1,2008,1695,0,0
791,-671,0,0,0,0,0,0,0,0,0,-1,2015,1695,0,0
798,-671,0,0,0,0,0,0,0,0,0,-1,2022,1695,0,0
805,-671,0,0,0,0,0,0,0,0,0,-1,2029,1695,0,0
812,-671,0,0,0,0,0,0,0,0,0,-1,2036,1695,0,0
-700,-678,0,0,0,0,0,0,0,0,0,-1,524,1702,0,0
-693,-678,0,0,0,0,0,0,0,0,0,-1,531,1702,0,0
-686,-678,0,0,0,0,0,0,0,0,0,-1,538,1702,0,0
-679,-678,0,0,0,0,0,0,0,0,0,-1,545,1702,0,0
-672,-678,0,0,0,0,0,0,0,0,0,-1,552,1702,0,0
-665,-678,0,0,0,0,0,0,0,0,0,-1,559,1702,0,0
-658,-678,0,0,0,0,0,0,0,0,0,-1,566,1702,0,0
-651,-678,0,0,0,0,0,0,0,0,0,-1,573,1702,0,0
-644,-678,0,0,0,0,0,0,0,0,0,-1,580,1702,0,0
-637,-678,0,0,0,0,0,0,0,0,0,-1,587,1702,0,0
-630,-678,0,0,0,0,0,0,0,0,0,-1,594,1702,0,0
-623,-678,0,0,0,0,0,0,0,0,0,-1,601,1702,0,0
-616,-678,0,0,0,0,0,0,0,0,0,-1,608,1702,0,0
-609,-678,0,0,0,0,0,0,0,0,0,-1,615,1702,0,0
-602,-678,0,0,0,0,0,0,0,0,0,-1,622,1702,0,0
-595,-678,0,0,0,0,0,0,0,0,0,-1,629,1702,0,0
-588,-678,0,0,0,0,0,0,0,0,0,-1,636,1702,0,0
-581,-678,0,0,0,0,0,0,0,0,0,-1,643,1702,0,0
-574,-678,0,0,0,0,0,0,0,0,0,-1,650,1702,0,0
-567,-678,0,0,0,0,0,0,0,0,0,-1,657,1702,0,0
-560,-678,0,0,0,0,0,0,0,0,0,-1,664,1702,0,0
-553,-678,0,0,0,0,0,0,0,0,0,-1,671,1702,0,0
-546,-678,0,0,0,0,0,0,0,0,0,-1,678,1702,0,0
-539,-678,0,0,0,0,0,0,0,0,0,-1,685,1702,0,0
-532,-678,0,0,0,0,0,0,0,0,0,-1,692,1702,0,0
-525,-678,0,0,0,0,0,0,0,0,0,-1,699,1702,0,0
-518,-678,0,0,0,0,0,0,0,0,0,-1,706,1702,0,0
-511,-678,0,0,0,0,0,0,0,0,0,-1,713,1702,0,0
-504,-678,0,0,0,0,0,0,0,0,0,-1,720,1702,0,0
-497,-678,0,0,0,0,0,0,0,0,0,-1,727,1702,0,0
-490,-678,0,0,0,0,0,0,0,0,0,-1,734,1702,0,0
-483,-678,0,0,0,0,0,0,0,0,0,-1,741,1702,0,0
-476,-678,0,0,0,0,0,0,0,0,0,-1,748,1702,0,0
-469,-678,0,0,0,0,0,0,0,0,0,-1,755,1702,0,0
-462,-678,0,0,0,0,0,0,0,0,0,-1,762,1702,0,0
-455,-678,0,0,0,0,0,0,0,0,0,-1,769,1702,0,0
-448,-678,0,0,0,0,0,0,0,0,0,-1,776,1702,0,0
-441,-678,0,0,0,0,0,0,0,0,0,-1,783,1702,0,0
-434,-678,0,0,0,0,0,0,0,0,0,-1,790,1702,0,0
-427,-678,0,0,0,0,0,0,0,0,0,-1,797,1702,0,0
-420,-678,0,0,0,0,0,0,0,0,0,-1,804,1702,0,0
-413,-678,0,0,0,0,0,0,0,0,0,-1,811,1702,0,0
-406,-678,0,0,0,0,0,0,0,0,0,-1,818,1702,0,0
-399,-678,0,0,0,0,0,0,0,0,0,-1,825,1702,0,0
-392,-678,0,0,0,0,0,0,0,0,0,-1,832,1702,0,0
-385,-678,0,0,0,0,0,0,0,0,0,-1,839,1702,0,0
-378,-678,0,0,0,0,0,0,0,0,0,-1,846,1702,0,0
-371,-678,0,0,0,0,0,0,0,0,0,-1,853,1702,0,0
-364,-678,0,0,0,0,0,0,0,0,0,-1,860,1702,0,0
-357,-678,0,0,0,0,0,0,0,0,0,-1,867,1702,0,0
-350,-678,-5.79944,6.11865,0,0,0,0,0,0,0,-1,874,1702,-5.79942,-6.11864
-343,-678,8.79578,34.4388,0,0,0,0,0,0,0,-1,881,1702,8.79579,-34.4388
-336,-678,9.06317,34.813,0,0,0,0,0,0,0,-1,888,1702,9.06318,-34.8129
-329,-678,8.68359,35.6151,0,0,0,0,0,0,0,-1,895,1702,8.68362,-35.6152
-322,-678,8.50494,35.5048,0,0,0,0,0,0,0,-1,902,1702,8.50495,-35.5047
-315,-678,5.52985,40.8267,0,0,0,0,0,0,0,-1,909,1702,5.52984,-40.8267
-308,-678,5.57257,40.2454,0,0,0,0,0,0,0,-1,916,1702,5.57257,-40.2454
-301,-678,5.88879,39.8271,0,0,0,0,0,0,0,-1,923,1702,5.8888,-39.8271
-294,-678,7.56421,37.2118,0,0,0,0,0,0,0,-1,930,1702,7.56421,-37.2118
-287,-678,7.62421,37.7925,0,0,0,0,0,0,0,-1,937,1702,7.6242,-37.7925
-280,-678,7.6842,38.3732,0,0,0,0,0,0,0,-1,944,1702,7.68419,-38.3731
-273,-678,7.49908,38.8243,0.0053295,-0.0163799,0.000569803,0.00534445,-0.0163949,0.0262227,0.0130805,0.0448042,951,1702,7.4991,-38.8243
-266,-678,7.25177,39.5175,0.00258057,-0.00996914,3.81236e-05,0.00258068,-0.00996926,0.00303777,0.00765284,0.0362816,958,1702,7.25177,-39.5175
-259,-678,7.24982,40.0095,0.000732692,-0.00421247,-0.000210937,0.000741674,-0.00422145,-0.0425523,0.00309132,0.0228582,965,1702,7.24983,-40.0096
-252,-678,7.30505,40.488,-0.000846161,-0.00050181,-0.000248091,-0.000372003,-0.000975968,-1.08874,0.000568756,0.018567,972,1702,7.30508,-40.488
-245,-678,7.26123,41.0024,-0.00302202,0.00144695,0.000566112,0.00151755,-0.00309262,1.44673,0.00271297,0.0194554,979,1702,7.26126,-41.0024
-238,-678,7.23456,41.5024,-0.00317019,0.00165909,0.000628426,0.00173953,-0.00325063,1.44349,0.00292477,0.0157391,986,1702,7.23455,-41.5024
-231,-678,7.17969,41.9996,-0.00300097,0.00167196,0.000649905,0.00176066,-0.00308968,1.43515,0.00283517,0.0132573,993,1702,7.17971,-41.9997
-224,-678,7.12628,42.4802,-0.00265523,0.00165116,0.000672055,0.0017536,-0.00275768,1.41953,0.00262601,0.0135479,1000,1702,7.12627,-42.4803
-217,-678,7.11591,42.9792,-0.00215439,0.0016758,0.000650969,0.00178341,-0.00226201,1.40697,0.00234107,0.0140846,1007,1702,7.1159,-42.9793
-210,-678,7.08496,43.4941,-0.00173543,0.00195126,0.00063914,0.00205892,-0.00184309,1.40392,0.00225397,0.0144832,1014,1702,7.08497,-43.4941
-203,-678,7.06677,43.9297,-0.00115263,0.00220711,0.000735413,0.00236103,-0.00130655,1.36447,0.00214646,0.0184367,1021,1702,7.06683,-43.9297
-196,-678,7.05725,44.3839,-0.00040267,0.00255073,0.000818779,0.00276253,-0.000614473,1.31766,0.00207704,0.0180621,1028,1702,7.05726,-44.3839
-189,-678,7.04297,44.8676,0.000362865,0.00300869,0.000854243,0.00326052,0.00011103,1.28411,0.00213763,0.0104531,1035,1702,7.04291,-44.8675
-182,-678,7.04846,45.302,0.00112968,0.00384867,0.000840793,0.00408766,0.000890686,1.29386,0.00248206,0.00989019,1042,1702,7.04845,-45.302
-175,-678,7.04492,45.7139,0.00200172,0.00493155,0.000812128,0.00514161,0.00179166,1.31769,0.00301361,0.0113835,1049,1702,7.04491,-45.7139
-168,-678,7.02148,46.1412,0.00272621,0.00619976,0.000843569,0.00639379,0.00253218,1.34472,0.00371796,0.010686,1056,1702,7.02151,-46.1412
-161,-678,7.01941,46.5375,0.00330582,0.00748564,0.000792825,0.00763097,0.00316049,1.3895,0.00442733,0.00917675,1063,1702,7.01946,-46.5374
-154,-678,7.02673,46.9478,0.00385702,0.00890536,0.000705259,0.00900203,0.00376035,1.43457,0.00522073,0.008824,1070,1702,7.02672,-46.9478
-147,-678,7.03223,47.36,0.00437557,0.0103443,0.000611161,0.0104062,0.00431364,1.4698,0.00603722,0.0110408,1077,1702,7.03222,-47.3599
-140,-678,7.0675,47.7378,0.00477381,0.0116043,0.000396152,0.0116272,0.00475091,1.51306,0.00675025,0.0121289,1084,1702,7.06756,-47.7378
-133,-678,7.08154,48.1014,0.00514258,0.0128232,0.000207492,0.0128288,0.00513698,1.54381,0.00745553,0.0123145,1091,1702,7.08159,-48.1014
-126,-678,7.0874,48.4951,0.00558415,0.0138145,-0.000104894,0.0138158,0.00558281,-1.55805,0.00802535,0.0144329,1098,1702,7.08746,-48.4951
-119,-678,7.16077,49.1857,0.00597771,0.0140294,-0.000439716,0.0140534,0.00595377,-1.5164,0.00814518,0.0438858,1105,1702,7.16082,-49.1856
-112,-678,7.24829,49.8384,0,0,0,0,0,0,0,-1,1112,1702,7.24835,-49.8384
-105,-678,7.16833,49.5787,0,0,0,0,0,0,0,-1,1119,1702,7.16832,-49.5787
-98,-678,7.22192,49.9701,0,0,0,0,0,0,0,-1,1126,1702,7.22193,-49.9701
-91,-678,7.31909,50.1332,0,0,0,0,0,0,0,-1,1133,1702,7.31914,-50.1332
-84,-678,6.58545,36.5073,0,0,0,0,0,0,0,-1,1140,1702,6.58544,-36.5073
-77,-678,5.95154,29.1879,0,0,0,0,0,0,0,-1,1147,1702,5.95156,-29.1878
-70,-678,4.75891,19.6552,0,0,0,0,0,0,0,-1,1154,1702,4.75895,-19.6551
-63,-678,3.41687,11.0365,0,0,0,0,0,0,0,-1,1161,1702,3.41682,-11.0365
-56,-678,1.72388,6.13159,0,0,0,0,0,0,0,-1,1168,1702,1.72388,-6.13157
-49,-678,-0.241699,5.29895,0,0,0,0,0,0,0,-1,1175,1702,-0.241682,-5.29897
-42,-678,0.297119,3.90649,0,0,0,0,0,0,0,-1,1182,1702,0.297139,-3.90655
-35,-678,0.498413,3.64038,0,0,0,0,0,0,0,-1,1189,1702,0.498471,-3.64038
-28,-678,0.132446,3.55994,0,0,0,0,0,0,0,-1,1196,1702,0.132432,-3.55993
-21,-678,8.01294,52.3962,0,0,0,0,0,0,0,-1,1203,1702,8.0129,-52.3962
-14,-678,8.24109,52.6251,0.0255006,0.0967728,0.0320936,0.109094,0.0131791,1.20423,0.0687588,0.0427922,1210,1702,8.24103,-52.6251
-7,-678,8.28406,52.7299,0.0249403,0.0973066,0.03248,0.109746,0.0125007,1.20504,0.0693737,0.044718,1217,1702,8.28405,-52.7298
0,-678,8.50537,53.1007,0,0,0,0,0,0,0,-1,1224,1702,8.50535,-53.1007
7,-678,7.90454,52.7882,0.019734,0.0988117,0.0294655,0.108583,0.00996225,1.25058,0.0693073,0.0457184,1231,1702,7.90455,-52.7882
14,-678,8.67346,54.5186,0.0166638,0.0982599,0.0269884,0.106379,0.008545,1.27858,0.0682493,0.0457516,1238,1702,8.67345,-54.5185
21,-678,9.02295,54.5988,0.0165756,0.0955019,0.0244881,0.102482,0.0095951,1.29311,0.0653584,0.0454212,1245,1702,9.02301,-54.5988
28,-678,9.08521,54.5258,0,0,0,0,0,0,0,-1,1252,1702,9.08522,-54.5258
35,-678,8.71252,55.8134,0,0,0,0,0,0,0,-1,1259,1702,8.71256,-55.8134
42,-678,9.02625,55.2788,0.0192501,0.078492,0.0123417,0.0809603,0.0167818,1.37341,0.0493403,0.0471665,1266,1702,9.02619,-55.2788
49,-678,9.48621,54.9113,0.0214136,0.0699414,0.00856193,0.0714077,0.0199473,1.40118,0.0425444,0.0487718,1273,1702,9.48616,-54.9113
56,-678,9.32251,55.3795,0,0,0,0,0,0,0,-1,1280,1702,9.32256,-55.3795
63,-678,9.29358,55.498,0,0,0,0,0,0,0,-1,1287,1702,9.29362,-55.4981
70,-678,10.2291,53.1471,0,0,0,0,0,0,0,-1,1294,1702,10.2291,-53.1471
77,-678,9.94556,53.338,0.0290399,0.0339061,-0.00612705,0.0380655,0.0248805,-0.974406,0.0223202,0.045953,1301,1702,9.9456,-53.338
84,-678,9.5946,53.5781,0.0291016,0.0262293,-0.00814374,0.0359348,0.019396,-0.69812,0.0207688,0.0458937,1308,1702,9.59456,-53.5781
91,-678,9.46411,53.5284,0.0274787,0.0195015,-0.0103261,0.0345598,0.0124204,-0.601095,0.0202144,0.046308,1315,1702,9.46406,-53.5284
98,-678,9.36304,53.2256,0.0248671,0.0132353,-0.0122011,0.0325675,0.0055349,-0.562994,0.0201221,0.0448243,1322,1702,9.36302,-53.2255
105,-678,9.15161,52.911,0.0218571,0.00770915,-0.0131915,0.0297516,-0.00018537,-0.539284,0.0198965,0.0443013,1329,1702,9.15161,-52.9111
112,-678,9.05908,52.4938,0.0167582,0.00588824,-0.0139283,0.0262744,-0.00362787,-0.599377,0.0188423,0.0462554,1336,1702,9.05908,-52.4938
119,-678,10.2766,52.6544,0.0100113,0.00393814,-0.0150915,0.0223686,-0.00841923,-0.686118,0.0183735,0.0444933,1343,1702,10.2766,-52.6544
126,-678,10.2181,52.5249,0.00315573,0.00254278,-0.0159016,0.0187539,-0.0130553,-0.775763,0.018463,0.0458027,1350,1702,10.2181,-52.5249
133,-678,10.1761,52.0276,0,0,0,0,0,0,0,-1,1357,1702,10.1762,-52.0275
140,-678,9.83081,51.4795,0,0,0,0,0,0,0,-1,1364,1702,9.83078,-51.4795
147,-678,9.64648,51.3741,0,0,0,0,0,0,0,-1,1371,1702,9.64654,-51.3742
154,-678,9.8429,51.1383,0,0,0,0,0,0,0,-1,1378,1702,9.84292,-51.1383
161,-678,8.81226,34.8624,0,0,0,0,0,0,0,-1,1385,1702,8.81229,-34.8624
168,-678,4.21863,5.25781,0,0,0,0,0,0,0,-1,1392,1702,4.21865,-5.25781
175,-678,5.21899,5.9635,0,0,0,0,0,0,0,-1,1399,1702,5.21894,-5.96346
182,-678,7.31262,6.75122,0,0,0,0,0,0,0,-1,1406,1702,7.3126,-6.75123
189,-678,5.96021,6.36853,0,0,0,0,0,0,0,-1,1413,1702,5.96018,-6.36851
196,-678,5.01599,8.15771,0,0,0,0,0,0,0,-1,1420,1702,5.01596,-8.15767
203,-678,4.64771,13.0559,0,0,0,0,0,0,0,-1,1427,1702,4.64766,-13.0559
210,-678,5.6532,18.5957,0,0,0,0,0,0,0,-1,1434,1702,5.65318,-18.5958
217,-678,6.88049,23.4835,0,0,0,0,0,0,0,-1,1441,1702,6.88047,-23.4835
224,-678,8.521,32.0977,0,0,0,0,0,0,0,-1,1448,1702,8.52098,-32.0977
231,-678,9.96838,42.3734,0,0,0,0,0,0,0,-1,1455,1702,9.96844,-42.3734
238,-678,11.188,49.5465,0,0,0,0,0,0,0,-1,1462,1702,11.188,-49.5465
245,-678,11.2388,49.0406,0.00564665,0.00282398,-0.000246025,0.00566793,0.0028027,-0.0862933,0.00327245,0.0362909,1469,1702,11.2388,-49.0407
252,-678,11.2633,48.6119,0.00590646,0.00364866,-0.00107403,0.00633575,0.00321937,-0.380247,0.00365811,0.0257314,1476,1702,11.2633,-48.612
259,-678,11.2778,48.2799,0.00569068,0.00373393,-0.00141563,0.00643313,0.00299148,-0.483027,0.0037172,0.0172677,1483,1702,11.2779,-48.2799
266,-678,11.3149,47.9037,0.00532983,0.00377283,-0.00164516,0.00637139,0.00273127,-0.564406,0.00369098,0.0120372,1490,1702,11.3149,-47.9037
273,-678,11.3379,47.5294,0.00502239,0.00377981,-0.00172056,0.0062304,0.0025718,-0.612135,0.00361532,0.0114241,1497,1702,11.3379,-47.5294
280,-678,11.3281,47.1591,0.00458027,0.00376243,-0.00173121,0.00595019,0.0023925,-0.669422,0.00345723,0.0118345,1504,1702,11.3282,-47.1591
287,-678,11.3362,46.7611,0.00409799,0.00361493,-0.00167565,0.00554942,0.0021635,-0.71382,0.00322977,0.0118398,1511,1702,11.3362,-46.7611
294,-678,11.3353,46.3339,0.00366611,0.00354888,-0.00164173,0.00525027,0.00196473,-0.767554,0.00306305,0.0125682,1518,1702,11.3354,-46.3338
301,-678,11.3324,45.9265,0.00318004,0.00348577,-0.00162737,0.00496744,0.00169837,-0.832228,0.00291535,0.0120259,1525,1702,11.3324,-45.9265
308,-678,11.3212,45.5269,0.0026816,0.0035643,-0.00169794,0.00487731,0.00136859,-0.91255,0.00290487,0.0134843,1532,1702,11.3212,-45.5269
315,-678,11.2983,45.1124,0.00219374,0.00370777,-0.00175423,0.00486136,0.00104016,-0.989095,0.00295584,0.0147634,1539,1702,11.2984,-45.1124
322,-678,11.2969,44.7277,0.0017163,0.0038741,-0.00185452,0.00494072,0.000649675,-1.04885,0.00310003,0.0174267,1546,1702,11.2969,-44.7277
329,-678,11.2837,44.2714,0.00122918,0.00397513,-0.00193235,0.0049726,0.000231705,-1.09427,0.00324059,0.0150151,1553,1702,11.2837,-44.2713
336,-678,11.2666,43.7964,0.000859792,0.00356991,-0.00189468,0.00454422,-0.000114525,-1.09582,0.00306837,0.0125442,1560,1702,11.2666,-43.7964
343,-678,11.2866,43.3378,0.000560476,0.00297454,-0.00188538,0.00400617,-0.000471147,-1.07013,0.00284088,0.0130841,1567,1702,11.2866,-43.3378
350,-678,11.2899,42.8899,0.000337583,0.001964,-0.00188915,0.00320754,-0.00090595,-0.988643,0.00249577,0.0140156,1574,1702,11.29,-42.8899
357,-678,11.246,42.4183,0.00050691,0.00058076,-0.00216655,0.0027107,-0.00162303,-0.793919,0.00252822,0.0105109,1581,1702,11.2459,-42.4184
364,-678,11.2157,41.9489,0.000808768,-0.00090388,-0.00245758,0.00255494,-0.00265006,-0.617755,0.00300528,0.0114172,1588,1702,11.2157,-41.9489
371,-678,11.1743,41.49,0.00102624,-0.0025596,-0.0027012,0.0024754,-0.00400876,-0.492408,0.00377836,0.0124988,1595,1702,11.1744,-41.49
378,-678,11.147,40.9958,0.001571,-0.0046149,-0.00300112,0.0027877,-0.0058316,-0.385166,0.00507874,0.0131615,1602,1702,11.147,-40.9959
385,-678,11.1401,40.506,0.00249391,-0.00676999,-0.00343334,0.00362761,-0.0079037,-0.318932,0.00680848,0.012767,1609,1702,11.1402,-40.5059
392,-678,11.163,40.0498,0.00392772,-0.00898203,-0.00425281,0.00520278,-0.0102571,-0.291286,0.00908337,0.0200659,1616,1702,11.163,-40.0498
399,-678,11.1671,39.569,0.00537968,-0.0109924,-0.00534503,0.00697017,-0.0125829,-0.289221,0.011443,0.0292112,1623,1702,11.1671,-39.5689
406,-678,11.0924,38.9633,0.00702011,-0.0120074,-0.00658883,0.00907891,-0.0140662,-0.302857,0.0134659,0.0348043,1630,1702,11.0923,-38.9633
413,-678,11.198,38.3496,0.00905665,-0.0127997,-0.00796864,0.0116534,-0.0153965,-0.315022,0.015667,0.0410134,1637,1702,11.198,-38.3496
420,-678,11.0615,37.8741,0.0113377,-0.012853,-0.00973832,0.0147708,-0.016286,-0.338931,0.0179378,0.0464436,1644,1702,11.0615,-37.8742
427,-678,10.6089,37.3378,0,0,0,0,0,0,0,-1,1651,1702,10.6089,-37.3377
434,-678,9.48169,21.6665,0,0,0,0,0,0,0,-1,1658,1702,9.48169,-21.6665
441,-678,8.64539,21.1864,0,0,0,0,0,0,0,-1,1665,1702,8.64536,-21.1865
448,-678,7.62244,20.7195,0,0,0,0,0,0,0,-1,1672,1702,7.6224,-20.7195
455,-678,5.44678,5.54297,0,0,0,0,0,0,0,-1,1679,1702,5.44676,-5.54294
462,-678,3.86792,2.87402,0,0,0,0,0,0,0,-1,1686,1702,3.86796,-2.87406
469,-678,2.26587,1.98755,0,0,0,0,0,0,0,-1,1693,1702,2.26592,-1.98755
476,-678,0,0,0,0,0,0,0,0,0,-1,1700,1702,0,0
483,-678,0,0,0,0,0,0,0,0,0,-1,1707,1702,0,0
490,-678,0,0,0,0,0,0,0,0,0,-1,1714,1702,0,0
497,-678,0,0,0,0,0,0,0,0,0,-1,1721,1702,0,0
504,-678,0,0,0,0,0,0,0,0,0,-1,1728,1702,0,0
511,-678,0,0,0,0,0,0,0,0,0,-1,1735,1702,0,0
518,-678,0,0,0,0,0,0,0,0,0,-1,1742,1702,0,0
525,-678,0,0,0,0,0,0,0,0,0,-1,1749,1702,0,0
532,-678,0,0,0,0,0,0,0,0,0,-1,1756,1702,0,0
539,-678,0,0,0,0,0,0,0,0,0,-1,1763,1702,0,0
546,-678,0,0,0,0,0,0,0,0,0,-1,1770,1702,0,0
553,-678,0,0,0,0,0,0,0,0,0,-1,1777,1702,0,0
560,-678,0,0,0,0,0,0,0,0,0,-1,1784,1702,0,0
567,-678,0,0,0,0,0,0,0,0,0,-1,1791,1702,0,0
574,-678,0,0,0,0,0,0,0,0,0,-1,1798,1702,0,0
581,-678,0,0,0,0,0,0,0,0,0,-1,1805,1702,0,0
588,-678,0,0,0,0,0,0,0,0,0,-1,1812,1702,0,0
595,-678,0,0,0,0,0,0,0,0,0,-1,1819,1702,0,0
602,-678,0,0,0,0,0,0,0,0,0,-1,1826,1702,0,0
609,-678,0,0,0,0,0,0,0,0,0,-1,1833,1702,0,0
616,-678,0,0,0,0,0,0,0,0,0,-1,1840,1702,0,0
623,-678,0,0,0,0,0,0,0,0,0,-1,1847,1702,0,0
630,-678,0,0,0,0,0,0,0,0,0,-1,1854,1702,0,0
637,-678,0,0,0,0,0,0,0,0,0,-1,1861,1702,0,0
644,-678,0,0,0,0,0,0,0,0,0,-1,1868,1702,0,0
651,-678,0,0,0,0,0,0,0,0,0,-1,1875,1702,0,0
658,-678,0,0,0,0,0,0,0,0,0,-1,1882,1702,0,0
665,-678,0,0,0,0,0,0,0,0,0,-1,1889,1702,0,0
672,-678,0,0,0,0,0,0,0,0,0,-1,1896,1702,0,0
679,-678,0,0,0,0,0,0,0,0,0,-1,1903,1702,0,0
686,-678,0,0,0,0,0,0,0,0,0,-1,1910,1702,0,0
693,-678,0,0,0,0,0,0,0,0,0,-1,1917,1702,0,0
700,-678,0,0,0,0,0,0,0,0,0,-1,1924,1702,0,0
707,-678,0,0,0,0,0,0,0,0,0,-1,1931,1702,0,0
714,-678,0,0,0,0,0,0,0,0,0,-1,1938,1702,0,0
721,-678,0,0,0,0,0,0,0,0,0,-1,1945,1702,0,0
728,-678,0,0,0,0,0,0,0,0,0,-1,1952,1702,0,0
735,-678,0,0,0,0,0,0,0,0,0,-1,1959,1702,0,0
742,-678,0,0,0,0,0,0,0,0,0,-1,1966,1702,0,0
749,-678,0,0,0,0,0,0,0,0,0,-1,1973,1702,0,0
756,-678,0,0,0,0,0,0,0,0,0,-1,1980,1702,0,0
763,-678,0,0,0,0,0,0,0,0,0,-1,1987,1702,0,0
770,-678,0,0,0,0,0,0,0,0,0,-1,1994,1702,0,0
777,-678,0,0,0,0,0,0,0,0,0,-1,2001,1702,0,0
784,-678,0,0,0,0,0,0,0,0,0,-1,2008,1702,0,0
791,-678,0,0,0,0,0,0,0,0,0,-1,2015,1702,0,0
798,-678,0,0,0,0,0,0,0,0,0,-1,2022,1702,0,0
805,-678,0,0,0,0,0,0,0,0,0,-1,2029,1702,0,0
812,-678,0,0,0,0,0,0,0,0,0,-1,2036,1702,0,0
-700,-685,0,0,0,0,0,0,0,0,0,-1,524,1709,0,0
-693,-685,0,0,0,0,0,0,0,0,0,-1,531,1709,0,0
-686,-685,0,0,0,0,0,0,0,0,0,-1,538,1709,0,0
-679,-685,0,0,0,0,0,0,0,0,0,-1,545,1709,0,0
-672,-685,0,0,0,0,0,0,0,0,0,-1,552,1709,0,0
-665,-685,0,0,0,0,0,0,0,0,0,-1,559,1709,0,0
-658,-685,0,0,0,0,0,0,0,0,0,-1,566,1709,0,0
-651,-685,0,0,0,0,0,0,0,0,0,-1,573,1709,0,0
-644,-685,0,0,0,0,0,0,0,0,0,-1,580,1709,0,0
-637,-685,0,0,0,0,0,0,0,0,0,-1,587,1709,0,0
-630,-685,0,0,0,0,0,0,0,0,0,-1,594,1709,0,0
-623,-685,0,0,0,0,0,0,0,0,0,-1,601,1709,0,0
-616,-685,0,0,0,0,0,0,0,0,0,-1,608,1709,0,0
-609,-685,0,0,0,0,0,0,0,0,0,-1,615,1709,0,0
-602,-685,0,0,0,0,0,0,0,0,0,-1,622,1709,0,0
-595,-685,0,0,0,0,0,0,0,0,0,-1,629,1709,0,0
-588,-685,0,0,0,0,0,0,0,0,0,-1,636,1709,0,0
-581,-685,0,0,0,0,0,0,0,0,0,-1,643,1709,0,0
-574,-685,0,0,0,0,0,0,0,0,0,-1,650,1709,0,0
-567,-685,0,0,0,0,0,0,0,0,0,-1,657,1709,0,0
-560,-685,0,0,0,0,0,0,0,0,0,-1,664,1709,0,0
-553,-685,0,0,0,0,0,0,0,0,0,-1,671,1709,0,0
-546,-685,0,0,0,0,0,0,0,0,0,-1,678,1709,0,0
-539,-685,0,0,0,0,0,0,0,0,0,-1,685,1709,0,0
-532,-685,0,0,0,0,0,0,0,0,0,-1,692,1709,0,0
-525,-685,0,0,0,0,0,0,0,0,0,-1,699,1709,0,0
-518,-685,0,0,0,0,0,0,0,0,0,-1,706,1709,0,0
-511,-685,0,0,0,0,0,0,0,0,0,-1,713,1709,0,0
-504,-685,0,0,0,0,0,0,0,0,0,-1,720,1709,0,0
-497,-685,0,0,0,0,0,0,0,0,0,-1,727,1709,0,0
-490,-685,0,0,0,0,0,0,0,0,0,-1,734,1709,0,0
-483,-685,0,0,0,0,0,0,0,0,0,-1,741,1709,0,0
-476,-685,0,0,0,0,0,0,0,0,0,-1,748,1709,0,0
-469,-685,0,0,0,0,0,0,0,0,0,-1,755,1709,0,0
-462,-685,0,0,0,0,0,0,0,0,0,-1,762,1709,0,0
-455,-685,0,0,0,0,0,0,0,0,0,-1,769,1709,0,0
-448,-685,0,0,0,0,0,0,0,0,0,-1,776,1709,0,0
-441,-685,0,0,0,0,0,0,0,0,0,-1,783,1709,0,0
-434,-685,0,0,0,0,0,0,0,0,0,-1,790,1709,0,0
-427,-685,0,0,0,0,0,0,0,0,0,-1,797,1709,0,0
-420,-685,0,0,0,0,0,0,0,0,0,-1,804,1709,0,0
-413,-685,0,0,0,0,0,0,0,0,0,-1,811,1709,0,0
-406,-685,0,0,0,0,0,0,0,0,0,-1,818,1709,0,0
-399,-685,0,0,0,0,0,0,0,0,0,-1,825,1709,0,0
-392,-685,0,0,0,0,0,0,0,0,0,-1,832,1709,0,0
-385,-685,0,0,0,0,0,0,0,0,0,-1,839,1709,0,0
-378,-685,0,0,0,0,0,0,0,0,0,-1,846,1709,0,0
-371,-685,0,0,0,0,0,0,0,0,0,-1,853,1709,0,0
-364,-685,0,0,0,0,0,0,0,0,0,-1,860,1709,0,0
-357,-685,0,0,0,0,0,0,0,0,0,-1,867,1709,0,0
-350,-685,0,0,0,0,0,0,0,0,0,-1,874,1709,0,0
-343,-685,-5.98505,6.56335,0,0,0,0,0,0,0,-1,881,1709,-5.98505,-6.56329
-336,-685,-6.51312,5.10571,0,0,0,0,0,0,0,-1,888,1709,-6.51311,-5.10575
-329,-685,9.98907,36.2474,0,0,0,0,0,0,0,-1,895,1709,9.98909,-36.2475
-322,-685,3.83191,16.7219,0,0,0,0,0,0,0,-1,902,1709,3.8319,-16.7219
-315,-685,5.15784,21.4388,0,0,0,0,0,0,0,-1,909,1709,5.15783,-21.4389
-308,-685,5.03784,41.0051,0,0,0,0,0,0,0,-1,916,1709,5.03783,-41.0052
-301,-685,5.73462,40.625,0,0,0,0,0,0,0,-1,923,1709,5.73459,-40.625
-294,-685,6.77643,37.1445,0,0,0,0,0,0,0,-1,930,1709,6.77642,-37.1445
-287,-685,8.19733,37.7853,0,0,0,0,0,0,0,-1,937,1709,8.19733,-37.7853
-280,-685,8.59692,37.597,0,0,0,0,0,0,0,-1,944,1709,8.59694,-37.597
-273,-685,7.93915,38.8038,0,0,0,0,0,0,0,-1,951,1709,7.93916,-38.8038
-266,-685,7.59918,39.5853,0.00310238,-0.0110132,-0.000538483,0.00312289,-0.0110337,-0.0380743,0.00858818,0.0462398,958,1709,7.5992,-39.5853
-259,-685,7.83441,40.0458,0.000646752,-0.00420753,-0.000523801,0.000702629,-0.00426341,-0.106275,0.00310311,0.0452183,965,1709,7.83441,-40.0457
-252,-685,7.86353,40.4742,-0.00137122,-1.8175e-05,-0.000341512,6.31369e-05,-0.00145254,-1.33705,0.000990074,0.0411155,972,1709,7.8635,-40.4742
-245,-685,7.84521,41.0088,-0.00425861,0.00208658,0.000637974,0.00215009,-0.00432212,1.47158,0.00380623,0.0366694,979,1709,7.84523,-41.0088
-238,-685,7.77533,41.5688,-0.00463618,0.00225073,0.000756116,0.00233277,-0.00471822,1.46272,0.00414782,0.0282241,986,1709,7.77531,-41.5688
-231,-685,7.66998,42.069,-0.00450356,0.00213985,0.000753798,0.0022243,-0.00458801,1.45922,0.00401124,0.0181155,993,1709,7.67001,-42.0689
-224,-685,7.59766,42.507,-0.00415442,0.00187555,0.000723523,0.00196115,-0.00424002,1.45304,0.00365995,0.0160046,1000,1709,7.59763,-42.5069
-217,-685,7.58386,43.0186,-0.00369144,0.00158299,0.00064833,0.00166151,-0.00376996,1.45027,0.00321366,0.0121433,1007,1709,7.58386,-43.0186
-210,-685,7.56201,43.535,-0.00339896,0.00156574,0.000622954,0.00164271,-0.00347593,1.44786,0.00301777,0.0161283,1014,1709,7.56203,-43.5351
-203,-685,7.53491,43.9823,-0.00291481,0.00154964,0.000687177,0.00165302,-0.00301818,1.42148,0.00273504,0.0159378,1021,1709,7.53489,-43.9823
-196,-685,7.51526,44.4286,-0.00225525,0.00158142,0.000718383,0.00171152,-0.00238535,1.39164,0.00237597,0.0133492,1028,1709,7.51524,-44.4286
-189,-685,7.49878,44.8583,-0.0015551,0.00160481,0.000695272,0.00175102,-0.00170132,1.36352,0.00199328,0.00903417,1035,1709,7.49878,-44.8583
-182,-685,7.47339,45.2902,-0.000901504,0.00205708,0.000643878,0.00219114,-0.00103556,1.36553,0.00190234,0.0137188,1042,1709,7.47336,-45.2902
-175,-685,7.4541,45.7257,-0.000128737,0.00274988,0.000634344,0.00288346,-0.000262324,1.36324,0.00201545,0.0149223,1049,1709,7.45412,-45.7257
-168,-685,7.44543,46.1699,0.000498877,0.00365031,0.000667917,0.00378603,0.000363162,1.37034,0.00241209,0.0111861,1056,1709,7.44548,-46.17
-161,-685,7.45239,46.5715,0.000983885,0.00455111,0.000622512,0.00465662,0.000878372,1.4029,0.00285699,0.0114813,1063,1709,7.45235,-46.5716
-154,-685,7.44946,46.9818,0.00148804,0.00559645,0.000562476,0.00567207,0.00141242,1.43716,0.00340953,0.0107079,1070,1709,7.44943,-46.9818
-147,-685,7.43262,47.376,0.00201366,0.0066946,0.000530316,0.00675392,0.00195433,1.45938,0.00401306,0.0100962,1077,1709,7.43264,-47.376
-140,-685,7.45837,47.7297,0.00255834,0.00766333,0.000431461,0.00769954,0.00252213,1.48707,0.00453259,0.0119717,1084,1709,7.45833,-47.7297
-133,-685,7.4635,48.1123,0.00306034,0.00850193,0.000298527,0.00851826,0.00304401,1.51615,0.00498429,0.0112938,1091,1709,7.46345,-48.1124
-126,-685,7.46887,48.4893,0.00359554,0.00913098,0.00010524,0.00913298,0.00359354,1.55179,0.00531268,0.00930651,1098,1709,7.46887,-48.4892
-119,-685,7.50806,48.8383,0.00417605,0.00926399,-9.86289e-05,0.0092659,0.00417414,-1.55142,0.00535841,0.0131135,1105,1709,7.50803,-48.8382
-112,-685,7.51404,49.1844,0.00463202,0.00905392,-0.000349272,0.00908134,0.0046046,-1.49246,0.00524329,0.0143239,1112,1709,7.5141,-49.1845
-105,-685,7.50037,49.5308,0.00489558,0.00869553,-0.000480821,0.00875542,0.00483568,-1.44686,0.00506416,0.0156626,1119,1709,7.50039,-49.5307
-98,-685,7.58093,49.807,0.00517678,0.00851372,-0.000772341,0.00868381,0.00500669,-1.35403,0.00503315,0.0221182,1126,1709,7.58096,-49.807
-91,-685,7.57214,50.0027,0.00554043,0.00804236,-0.00120945,0.00853142,0.00505137,-1.18653,0.00495339,0.0426633,1133,1709,7.57215,-50.0027
-84,-685,7.56177,50.3591,0,0,0,0,0,0,0,-1,1140,1709,7.56182,-50.3591
-77,-685,7.62476,50.7915,0,0,0,0,0,0,0,-1,1147,1709,7.62472,-50.7915
-70,-685,7.71838,51.2295,0,0,0,0,0,0,0,-1,1154,1709,7.71836,-51.2295
-63,-685,6.03015,29.7728,0,0,0,0,0,0,0,-1,1161,1709,6.0302,-29.7728
-56,-685,3.93909,15.8704,0,0,0,0,0,0,0,-1,1168,1709,3.93905,-15.8704
-49,-685,3.07471,9.86011,0,0,0,0,0,0,0,-1,1175,1709,3.07467,-9.86009
-42,-685,2.70618,7.54504,0,0,0,0,0,0,0,-1,1182,1709,2.7062,-7.54504
-35,-685,2.95264,7.91516,0,0,0,0,0,0,0,-1,1189,1709,2.95262,-7.91517
-28,-685,8.11353,52.4509,0,0,0,0,0,0,0,-1,1196,1709,8.1135,-52.451
-21,-685,8.32776,52.2456,0,0,0,0,0,0,0,-1,1203,1709,8.32775,-52.2456
-14,-685,8.34485,52.4789,0.0206715,0.0695472,0.0241138,0.0794413,0.0107774,1.18143,0.049759,0.0307145,1210,1709,8.34479,-52.4789
-7,-685,8.34692,52.7097,0.0203831,0.0717326,0.0245339,0.0815699,0.0105458,1.18946,0.0512278,0.0457667,1217,1709,8.34698,-52.7097
0,-685,8.29041,52.7806,0,0,0,0,0,0,0,-1,1224,1709,8.29036,-52.7806
7,-685,8.34473,52.8728,0,0,0,0,0,0,0,-1,1231,1709,8.34478,-52.8728
14,-685,8.58618,53.0006,0,0,0,0,0,0,0,-1,1238,1709,8.58623,-53.0006
21,-685,8.95483,53.8453,0.0141936,0.0741472,0.0183222,0.0793032,0.00903764,1.29648,0.0501285,0.0477236,1245,1709,8.95485,-53.8453
28,-685,8.98914,53.8761,0.0149025,0.0718008,0.0150615,0.0755418,0.0111616,1.32734,0.0470837,0.0491355,1252,1709,8.9891,-53.876
35,-685,8.96741,53.5983,0,0,0,0,0,0,0,-1,1259,1709,8.96737,-53.5982
42,-685,9.06604,53.8756,0,0,0,0,0,0,0,-1,1266,1709,9.06609,-53.8756
49,-685,9.25049,53.8643,0,0,0,0,0,0,0,-1,1273,1709,9.25055,-53.8643
56,-685,9.13379,53.7208,0,0,0,0,0,0,0,-1,1280,1709,9.13383,-53.7208
63,-685,8.28406,52.985,0,0,0,0,0,0,0,-1,1287,1709,8.28405,-52.985
70,-685,9.42749,53.876,0,0,0,0,0,0,0,-1,1294,1709,9.42753,-53.876
77,-685,9.69507,53.921,0,0,0,0,0,0,0,-1,1301,1709,9.69506,-53.9211
84,-685,10.116,53.5819,0,0,0,0,0,0,0,-1,1308,1709,10.1159,-53.5819
91,-685,9.6366,53.1301,0,0,0,0,0,0,0,-1,1315,1709,9.63658,-53.1301
98,-685,9.55029,53.094,0,0,0,0,0,0,0,-1,1322,1709,9.55032,-53.094
105,-685,9.69189,52.9852,0,0,0,0,0,0,0,-1,1329,1709,9.69192,-52.9852
112,-685,9.79785,52.9691,0,0,0,0,0,0,0,-1,1336,1709,9.7978,-52.9692
119,-685,9.88855,52.5592,0.00973397,0.00273366,-0.0125959,0.0193069,-0.00683932,-0.649877,0.0156572,0.0446751,1343,1709,9.88854,-52.5592
126,-685,10.0806,52.4954,0.00428129,0.00169233,-0.0132411,0.016291,-0.0103174,-0.736672,0.0154909,0.0493672,1350,1709,10.0806,-52.4953
133,-685,10.2155,52.3119,0,0,0,0,0,0,0,-1,1357,1709,10.2155,-52.3118
140,-685,10.1631,52.6195,0,0,0,0,0,0,0,-1,1364,1709,10.1631,-52.6196
147,-685,10.2028,52.6807,0,0,0,0,0,0,0,-1,1371,1709,10.2028,-52.6807
154,-685,10.1639,52.4709,0,0,0,0,0,0,0,-1,1378,1709,10.1639,-52.471
161,-685,10.6299,52.3646,0,0,0,0,0,0,0,-1,1385,1709,10.6298,-52.3647
168,-685,4.37524,10.8778,0,0,0,0,0,0,0,-1,1392,1709,4.37525,-10.8778
175,-685,3.97522,8.94324,0,0,0,0,0,0,0,-1,1399,1709,3.97519,-8.94328
182,-685,3.98218,9.19739,0,0,0,0,0,0,0,-1,1406,1709,3.98221,-9.1974
189,-685,4.53479,15.2343,0,0,0,0,0,0,0,-1,1413,1709,4.53474,-15.2343
196,-685,10.6741,51.2944,0,0,0,0,0,0,0,-1,1420,1709,10.674,-51.2944
203,-685,10.7169,50.8724,0,0,0,0,0,0,0,-1,1427,1709,10.7169,-50.8724
210,-685,10.9541,50.5627,0,0,0,0,0,0,0,-1,1434,1709,10.9541,-50.5627
217,-685,10.8199,50.1626,0,0,0,0,0,0,0,-1,1441,1709,10.8199,-50.1627
224,-685,10.7491,49.9083,0,0,0,0,0,0,0,-1,1448,1709,10.7492,-49.9083
231,-685,10.7979,49.6326,0,0,0,0,0,0,0,-1,1455,1709,10.7978,-49.6326
238,-685,10.8715,49.2921,0.00419726,0.00220829,0.000173586,0.00421229,0.00219326,0.0864039,0.00243266,0.0291277,1462,1709,10.8715,-49.2921
245,-685,10.8652,48.9222,0.00411347,0.002262,-0.000254502,0.00414781,0.00222765,-0.134146,0.00239693,0.02035,1469,1709,10.8653,-48.9223
252,-685,10.9136,48.6293,0.00411581,0.00265298,-0.000817736,0.00448151,0.00228728,-0.420531,0.00258759,0.0148743,1476,1709,10.9135,-48.6292
259,-685,10.9185,48.2856,0.00384806,0.00261034,-0.00109131,0.00448377,0.00197463,-0.527468,0.00259483,0.0105249,1483,1709,10.9184,-48.2857
266,-685,10.9431,47.9216,0.00349606,0.00251917,-0.00127624,0.00437413,0.0016411,-0.602636,0.0025515,0.0123787,1490,1709,10.9431,-47.9216
273,-685,10.9575,47.531,0.00317868,0.00243974,-0.00133647,0.00419581,0.00142261,-0.650541,0.00246393,0.0149845,1497,1709,10.9575,-47.531
280,-685,10.9362,47.1444,0.00277603,0.00235855,-0.00135759,0.00394084,0.00119374,-0.709116,0.00233342,0.0160055,1504,1709,10.9362,-47.1444
287,-685,10.9259,46.7869,0.00235529,0.00227418,-0.00133141,0.00364677,0.000982703,-0.770174,0.00217878,0.0118037,1511,1709,10.9259,-46.7869
294,-685,10.9323,46.3895,0.00197382,0.0023091,-0.00128718,0.00343951,0.000843409,-0.850152,0.00206996,0.0103812,1518,1709,10.9322,-46.3895
301,-685,10.9431,45.9573,0.00157943,0.00235595,-0.00134389,0.00336654,0.000568845,-0.926023,0.00208083,0.0124431,1525,1709,10.9431,-45.9573
308,-685,10.9469,45.5433,0.0011951,0.00260986,-0.00154426,0.00360104,0.000203912,-1.00017,0.00233569,0.0135764,1532,1709,10.9469,-45.5433
315,-685,10.9274,45.1465,0.000827615,0.0029996,-0.0016982,0.00392936,-0.00010215,-1.06988,0.00265428,0.012912,1539,1709,10.9274,-45.1465
322,-685,10.9056,44.7167,0.000496889,0.00345239,-0.00192469,0.0044012,-0.000451918,-1.11279,0.00309579,0.0224552,1546,1709,10.9056,-44.7167
329,-685,10.873,44.275,0.000139987,0.00383794,-0.00210734,0.00479246,-0.000814533,-1.14549,0.00349824,0.0204834,1553,1709,10.873,-44.2751
336,-685,10.853,43.799,-8.3154e-05,0.00362874,-0.00216783,0.00462657,-0.00108098,-1.13942,0.00350079,0.0137039,1560,1709,10.853,-43.799
343,-685,10.8282,43.3253,-0.000219591,0.00313396,-0.00225467,0.004267,-0.00135264,-1.10512,0.00338681,0.0121239,1567,1709,10.8282,-43.3253
350,-685,10.8112,42.8804,-0.000248095,0.00213315,-0.00235024,0.00357715,-0.0016921,-1.01985,0.00310641,0.0121511,1574,1709,10.8111,-42.8803
357,-685,10.7863,42.4519,0.000236801,0.00068189,-0.00281856,0.00328668,-0.00236799,-0.824795,0.00327905,0.0100705,1581,1709,10.7862,-42.4519
364,-685,10.7548,42.0045,0.000812346,-0.00103679,-0.00320767,0.00322604,-0.00345048,-0.645083,0.00385541,0.0120541,1588,1709,10.7548,-42.0045
371,-685,10.7512,41.5255,0.00127453,-0.00304174,-0.00352984,0.0032537,-0.00502091,-0.511019,0.00481353,0.0206706,1595,1709,10.7513,-41.5255
378,-685,10.7483,41.0143,0.00216281,-0.0056456,-0.00392015,0.00379127,-0.00727406,-0.393719,0.0064932,0.0229288,1602,1709,10.7483,-41.0143
385,-685,10.6716,40.5702,0.00349264,-0.0084848,-0.00448508,0.00498594,-0.00997811,-0.321405,0.00879829,0.0314287,1609,1709,10.6716,-40.5702
392,-685,10.748,40.171,0.00542145,-0.0115366,-0.00549734,0.0070476,-0.0131627,-0.287606,0.0118451,0.0340179,1616,1709,10.7481,-40.171
399,-685,10.7229,39.8103,0.00738568,-0.0144618,-0.00682627,0.00934317,-0.0164193,-0.279265,0.0150598,0.0377748,1623,1709,10.7229,-39.8103
406,-685,10.6266,39.1471,0.00964018,-0.0164486,-0.0083564,0.0120873,-0.0188957,-0.284874,0.0180314,0.0424937,1630,1709,10.6265,-39.1471
413,-685,10.9027,38.5049,0.0124618,-0.0180132,-0.0101206,0.0155166,-0.021068,-0.293143,0.021203,0.0468442,1637,1709,10.9028,-38.5048
420,-685,11.606,38.4177,0,0,0,0,0,0,0,-1,1644,1709,11.606,-38.4178
427,-685,6.05151,9.21155,0,0,0,0,0,0,0,-1,1651,1709,6.05156,-9.21156
434,-685,4.87769,8.91418,0,0,0,0,0,0,0,-1,1658,1709,4.87768,-8.91413
441,-685,5.62,8.75549,0,0,0,0,0,0,0,-1,1665,1709,5.61996,-8.75545
448,-685,6.4043,8.58972,0,0,0,0,0,0,0,-1,1672,1709,6.40435,-8.58971
455,-685,2.31958,4.09802,0,0,0,0,0,0,0,-1,1679,1709,2.31957,-4.09803
462,-685,0,0,0,0,0,0,0,0,0,-1,1686,1709,0,0
469,-685,0,0,0,0,0,0,0,0,0,-1,1693,1709,0,0
476,-685,0,0,0,0,0,0,0,0,0,-1,1700,1709,0,0
483,-685,0,0,0,0,0,0,0,0,0,-1,1707,1709,0,0
490,-685,0,0,0,0,0,0,0,0,0,-1,1714,1709,0,0
497,-685,0,0,0,0,0,0,0,0,0,-1,1721,1709,0,0
504,-685,0,0,0,0,0,0,0,0,0,-1,1728,1709,0,0
511,-685,0,0,0,0,0,0,0,0,0,-1,1735,1709,0,0
518,-685,0,0,0,0,0,0,0,0,0,-1,1742,1709,0,0
525,-685,0,0,0,0,0,0,0,0,0,-1,1749,1709,0,0
532,-685,0,0,0,0,0,0,0,0,0,-1,1756,1709,0,0
539,-685,0,0,0,0,0,0,0,0,0,-1,1763,1709,0,0
546,-685,0,0,0,0,0,0,0,0,0,-1,1770,1709,0,0
553,-685,0,0,0,0,0,0,0,0,0,-1,1777,1709,0,0
560,-685,0,0,0,0,0,0,0,0,0,-1,1784,1709,0,0
567,-685,0,0,0,0,0,0,0,0,0,-1,1791,1709,0,0
574,-685,0,0,0,0,0,0,0,0,0,-1,1798,1709,0,0
581,-685,0,0,0,0,0,0,0,0,0,-1,1805,1709,0,0
588,-685,0,0,0,0,0,0,0,0,0,-1,1812,1709,0,0
595,-685,0,0,0,0,0,0,0,0,0,-1,1819,1709,0,0
602,-685,0,0,0,0,0,0,0,0,0,-1,1826,1709,0,0
609,-685,0,0,0,0,0,0,0,0,0,-1,1833,1709,0,0
616,-685,0,0,0,0,0,0,0,0,0,-1,1840,1709,0,0
623,-685,0,0,0,0,0,0,0,0,0,-1,1847,1709,0,0
630,-685,0,0,0,0,0,0,0,0,0,-1,1854,1709,0,0
637,-685,0,0,0,0,0,0,0,0,0,-1,1861,1709,0,0
644,-685,0,0,0,0,0,0,0,0,0,-1,1868,1709,0,0
651,-685,0,0,0,0,0,0,0,0,0,-1,1875,1709,0,0
658,-685,0,0,0,0,0,0,0,0,0,-1,1882,1709,0,0
665,-685,0,0,0,0,0,0,0,0,0,-1,1889,1709,0,0
672,-685,0,0,0,0,0,0,0,0,0,-1,1896,1709,0,0
679,-685,0,0,0,0,0,0,0,0,0,-1,1903,1709,0,0
686,-685,0,0,0,0,0,0,0,0,0,-1,1910,1709,0,0
693,-685,0,0,0,0,0,0,0,0,0,-1,1917,1709,0,0
700,-685,0,0,0,0,0,0,0,0,0,-1,1924,1709,0,0
707,-685,0,0,0,0,0,0,0,0,0,-1,1931,1709,0,0
714,-685,0,0,0,0,0,0,0,0,0,-1,1938,1709,0,0
721,-685,0,0,0,0,0,0,0,0,0,-1,1945,1709,0,0
728,-685,0,0,0,0,0,0,0,0,0,-1,1952,1709,0,0
735,-685,0,0,0,0,0,0,0,0,0,-1,1959,1709,0,0
742,-685,0,0,0,0,0,0,0,0,0,-1,1966,1709,0,0
749,-685,0,0,0,0,0,0,0,0,0,-1,1973,1709,0,0
756,-685,0,0,0,0,0,0,0,0,0,-1,1980,1709,0,0
763,-685,0,0,0,0,0,0,0,0,0,-1,1987,1709,0,0
770,-685,0,0,0,0,0,0,0,0,0,-1,1994,1709,0,0
777,-685,0,0,0,0,0,0,0,0,0,-1,2001,1709,0,0
784,-685,0,0,0,0,0,0,0,0,0,-1,2008,1709,0,0
791,-685,0,0,0,0,0,0,0,0,0,-1,2015,1709,0,0
798,-685,0,0,0,0,0,0,0,0,0,-1,2022,1709,0,0
805,-685,0,0,0,0,0,0,0,0,0,-1,2029,1709,0,0
812,-685,0,0,0,0,0,0,0,0,0,-1,2036,1709,0,0
-700,-692,0,0,0,0,0,0,0,0,0,-1,524,1716,0,0
-693,-692,0,0,0,0,0,0,0,0,0,-1,531,1716,0,0
-686,-692,0,0,0,0,0,0,0,0,0,-1,538,1716,0,0
-679,-692,0,0,0,0,0,0,0,0,0,-1,545,1716,0,0
-672,-692,0,0,0,0,0,0,0,0,0,-1,552,1716,0,0
-665,-692,0,0,0,0,0,0,0,0,0,-1,559,1716,0,0
-658,-692,0,0,0,0,0,0,0,0,0,-1,566,1716,0,0
-651,-692,0,0,0,0,0,0,0,0,0,-1,573,1716,0,0
-644,-692,0,0,0,0,0,0,0,0,0,-1,580,1716,0,0
-637,-692,0,0,0,0,0,0,0,0,0,-1,587,1716,0,0
-630,-692,0,0,0,0,0,0,0,0,0,-1,594,1716,0,0
-623,-692,0,0,0,0,0,0,0,0,0,-1,601,1716,0,0
-616,-692,0,0,0,0,0,0,0,0,0,-1,608,1716,0,0
-609,-692,0,0,0,0,0,0,0,0,0,-1,615,1716,0,0
-602,-692,0,0,0,0,0,0,0,0,0,-1,622,1716,0,0
-595,-692,0,0,0,0,0,0,0,0,0,-1,629,1716,0,0
-588,-692,0,0,0,0,0,0,0,0,0,-1,636,1716,0,0
-581,-692,0,0,0,0,0,0,0,0,0,-1,643,1716,0,0
-574,-692,0,0,0,0,0,0,0,0,0,-1,650,1716,0,0
-567,-692,0,0,0,0,0,0,0,0,0,-1,657,1716,0,0
-560,-692,0,0,0,0,0,0,0,0,0,-1,664,1716,0,0
-553,-692,0,0,0,0,0,0,0,0,0,-1,671,1716,0,0
-546,-692,0,0,0,0,0,0,0,0,0,-1,678,1716,0,0
-539,-692,0,0,0,0,0,0,0,0,0,-1,685,1716,0,0
-532,-692,0,0,0,0,0,0,0,0,0,-1,692,1716,0,0
-525,-692,0,0,0,0,0,0,0,0,0,-1,699,1716,0,0
-518,-692,0,0,0,0,0,0,0,0,0,-1,706,1716,0,0
-511,-692,0,0,0,0,0,0,0,0,0,-1,713,1716,0,0
-504,-692,0,0,0,0,0,0,0,0,0,-1,720,1716,0,0
-497,-692,0,0,0,0,0,0,0,0,0,-1,727,1716,0,0
-490,-692,0,0,0,0,0,0,0,0,0,-1,734,1716,0,0
-483,-692,0,0,0,0,0,0,0,0,0,-1,741,1716,0,0
-476,-692,0,0,0,0,0,0,0,0,0,-1,748,1716,0,0
-469,-692,0,0,0,0,0,0,0,0,0,-1,755,1716,0,0
-462,-692,0,0,0,0,0,0,0,0,0,-1,762,1716,0,0
-455,-692,0,0,0,0,0,0,0,0,0,-1,769,1716,0,0
-448,-692,0,0,0,0,0,0,0,0,0,-1,776,1716,0,0
-441,-692,0,0,0,0,0,0,0,0,0,-1,783,1716,0,0
-434,-692,0,0,0,0,0,0,0,0,0,-1,790,1716,0,0
-427,-692,0,0,0,0,0,0,0,0,0,-1,797,1716,0,0
-420,-692,0,0,0,0,0,0,0,0,0,-1,804,1716,0,0
-413,-692,0,0,0,0,0,0,0,0,0,-1,811,1716,0,0
-406,-692,0,0,0,0,0,0,0,0,0,-1,818,1716,0,0
-399,-692,0,0,0,0,0,0,0,0,0,-1,825,1716,0,0
-392,-692,0,0,0,0,0,0,0,0,0,-1,832,1716,0,0
-385,-692,0,0,0,0,0,0,0,0,0,-1,839,1716,0,0
-378,-692,0,0,0,0,0,0,0,0,0,-1,846,1716,0,0
-371,-692,0,0,0,0,0,0,0,0,0,-1,853,1716,0,0
-364,-692,0,0,0,0,0,0,0,0,0,-1,860,1716,0,0
-357,-692,0,0,0,0,0,0,0,0,0,-1,867,1716,0,0
-350,-692,0,0,0,0,0,0,0,0,0,-1,874,1716,0,0
-343,-692,0,0,0,0,0,0,0,0,0,-1,881,1716,0,0
-336,-692,0,0,0,0,0,0,0,0,0,-1,888,1716,0,0
-329,-692,3.03107,4.10266,0,0,0,0,0,0,0,-1,895,1716,3.03105,-4.10267
-322,-692,4.43713,18.5242,0,0,0,0,0,0,0,-1,902,1716,4.43711,-18.5241
-315,-692,5.38965,17.975,0,0,0,0,0,0,0,-1,909,1716,5.38963,-17.975
-308,-692,5.86938,17.4392,0,0,0,0,0,0,0,-1,916,1716,5.86937,-17.4392
-301,-692,8.65558,20.7662,0,0,0,0,0,0,0,-1,923,1716,8.65556,-20.7663
-294,-692,8.41125,35.4742,0,0,0,0,0,0,0,-1,930,1716,8.41125,-35.4742
-287,-692,6.8009,35.0042,0,0,0,0,0,0,0,-1,937,1716,6.80088,-35.0041
-280,-692,9.55341,37.0057,0,0,0,0,0,0,0,-1,944,1716,9.55343,-37.0057
-273,-692,8.33417,37.6238,0,0,0,0,0,0,0,-1,951,1716,8.33419,-37.6238
-266,-692,8.15076,39.6992,0,0,0,0,0,0,0,-1,958,1716,8.15078,-39.6992
-259,-692,8.48474,40.1021,0,0,0,0,0,0,0,-1,965,1716,8.48474,-40.1021
-252,-692,8.58673,40.3187,0,0,0,0,0,0,0,-1,972,1716,8.58674,-40.3188
-245,-692,8.51318,40.8438,-0.00568703,0.00324201,0.000640878,0.00328778,-0.0057328,1.49951,0.00527142,0.0497459,979,1716,8.51317,-40.8437
-238,-692,8.41083,41.571,-0.00636417,0.00330797,0.000838811,0.00338018,-0.00643638,1.48493,0.00575842,0.0463731,986,1716,8.41085,-41.571
-231,-692,8.24573,42.1361,-0.00621746,0.0029331,0.000872633,0.00301557,-0.00629993,1.47656,0.0054886,0.0411623,993,1716,8.24574,-42.1361
-224,-692,8.04523,42.5593,-0.00580553,0.00241797,0.000835108,0.00250192,-0.00588948,1.47061,0.00497463,0.0191276,1000,1716,8.04526,-42.5594
-217,-692,8.03088,43.0299,-0.0053107,0.00183454,0.000710529,0.00190451,-0.00538067,1.47264,0.00436279,0.0122197,1007,1716,8.03088,-43.0299
-210,-692,8.00818,43.5237,-0.00505188,0.00160642,0.000670216,0.00167321,-0.00511867,1.47147,0.00408602,0.0134604,1014,1716,8.00821,-43.5237
-203,-692,7.9989,43.9857,-0.00459349,0.00136697,0.000681093,0.00144381,-0.00467033,1.45846,0.00369021,0.0157557,1021,1716,7.9989,-43.9857
-196,-692,7.9729,44.4476,-0.00394872,0.00117309,0.000643067,0.0012526,-0.00402822,1.44779,0.00318617,0.0176123,1028,1716,7.97296,-44.4477
-189,-692,7.91931,44.8564,-0.00323299,0.000847015,0.000548323,0.000919421,-0.0033054,1.43951,0.00256559,0.00936788,1035,1716,7.91931,-44.8564
-182,-692,7.88513,45.3016,-0.00261448,0.0010061,0.000451006,0.00106143,-0.00266981,1.44871,0.00221994,0.0144345,1042,1716,7.88513,-45.3017
-175,-692,7.85803,45.7562,-0.00188636,0.00138954,0.000445981,0.00144917,-0.00194599,1.43788,0.00196718,0.0159728,1049,1716,7.85799,-45.7562
-168,-692,7.85925,46.1871,-0.00130744,0.00200233,0.000469375,0.00206761,-0.00137272,1.43261,0.00199974,0.0118357,1056,1716,7.85928,-46.1872
-161,-692,7.86877,46.6031,-0.000871426,0.00260264,0.000432275,0.00265562,-0.000924405,1.44884,0.00214597,0.0138027,1063,1716,7.86874,-46.6031
-154,-692,7.85242,47.016,-0.000413488,0.00334211,0.000398386,0.00338391,-0.000455283,1.46627,0.002422,0.0148693,1070,1716,7.85246,-47.016
-147,-692,7.82385,47.4003,9.79987e-05,0.0041802,0.000429711,0.00422494,5.32556e-05,1.46705,0.00279905,0.0137331,1077,1716,7.8239,-47.4003
-140,-692,7.80762,47.7672,0.000760777,0.00496525,0.000460974,0.0050152,0.000710829,1.46287,0.00313351,0.0102836,1084,1716,7.80759,-47.7672
-133,-692,7.82593,48.1289,0.0013197,0.00554434,0.000382119,0.00557863,0.00128542,1.48131,0.00337326,0.00975294,1091,1716,7.82593,-48.129
-126,-692,7.83875,48.4891,0.00183707,0.00597705,0.000321077,0.00600181,0.00181232,1.49385,0.00355459,0.00796718,1098,1716,7.83871,-48.4891
-119,-692,7.83667,48.8452,0.00243699,0.00613894,0.000264178,0.0061577,0.00241823,1.49991,0.00358232,0.0119538,1105,1716,7.83672,-48.8452
-112,-692,7.84741,49.1904,0.00302883,0.00605272,0.000134261,0.00605867,0.00302288,1.52651,0.00349798,0.0124915,1112,1716,7.84741,-49.1905
-105,-692,7.85083,49.5179,0.00348977,0.00584085,3.8975e-06,0.00584085,0.00348977,1.56914,0.00339351,0.0164964,1119,1716,7.85079,-49.5179
-98,-692,7.90088,49.8202,0.00383571,0.00558888,-0.000220193,0.00561611,0.00380847,-1.44775,0.00331034,0.018449,1126,1716,7.90082,-49.8202
-91,-692,7.89673,50.0936,0.0042096,0.00520379,-0.000562186,0.00545713,0.00395625,-1.14741,0.00325525,0.0213488,1133,1716,7.89669,-50.0936
-84,-692,7.95105,50.4036,0.00474696,0.00417014,-0.000962071,0.00546292,0.00345418,-0.63977,0.00319061,0.0246961,1140,1716,7.95105,-50.4035
-77,-692,7.9469,50.7498,0.00518687,0.00324839,-0.00148488,0.00599085,0.00244441,-0.496249,0.00347827,0.0200798,1147,1716,7.94684,-50.7498
-70,-692,8.00452,51.0968,0.00536341,0.00149127,-0.00172107,0.00601779,0.000836886,-0.363337,0.00376404,0.0355492,1154,1716,8.00447,-51.0968
-63,-692,8.06787,51.2236,0,0,0,0,0,0,0,-1,1161,1716,8.06791,-51.2237
-56,-692,8.04089,51.463,0,0,0,0,0,0,0,-1,1168,1716,8.04094,-51.4631
-49,-692,8.04736,51.7817,0,0,0,0,0,0,0,-1,1175,1716,8.04735,-51.7817
-42,-692,8.09021,52.1217,0,0,0,0,0,0,0,-1,1182,1716,8.09021,-52.1217
-35,-692,8.22095,52.2737,0,0,0,0,0,0,0,-1,1189,1716,8.221,-52.2737
-28,-692,8.27393,52.4164,0.0146662,0.0362936,0.0124844,0.0419965,0.00896336,1.1423,0.0255397,0.0492985,1196,1716,8.27392,-52.4164
-21,-692,8.39514,52.3898,0.0155594,0.0406895,0.0138678,0.046838,0.00941089,1.15347,0.0286091,0.0351016,1203,1716,8.39519,-52.3898
-14,-692,8.45789,52.5404,0.0161093,0.044294,0.0155349,0.0511761,0.00922718,1.15377,0.0314955,0.0178351,1210,1716,8.4579,-52.5403
-7,-692,8.47241,52.7321,0.0163073,0.0476322,0.0161922,0.0544975,0.00944198,1.16978,0.0336291,0.0168397,1217,1716,8.47246,-52.7321
0,-692,8.48901,52.8647,0.0148453,0.0507202,0.0154272,0.0564418,0.00912364,1.21564,0.0349855,0.0238127,1224,1716,8.48907,-52.8647
7,-692,8.59668,52.9297,0.0127675,0.0523617,0.0142566,0.0569608,0.00816836,1.25874,0.0355651,0.0314908,1231,1716,8.5967,-52.9297
14,-692,8.74329,53.2051,0.0112831,0.0535478,0.0130804,0.0572685,0.00756246,1.29367,0.0359245,0.0329138,1238,1716,8.74326,-53.2051
21,-692,8.87573,53.3569,0.0122899,0.0528786,0.0119793,0.0561505,0.00901807,1.30418,0.0348191,0.0318102,1245,1716,8.87571,-53.3569
28,-692,8.93994,53.3162,0.0130548,0.0518015,0.00951235,0.0540108,0.0108455,1.34258,0.0329917,0.0326207,1252,1716,8.93991,-53.3161
35,-692,8.96228,53.4646,0.0133634,0.0495062,0.00715817,0.0508723,0.0119974,1.38222,0.0307072,0.0302723,1259,1716,8.96227,-53.4646
42,-692,9.04553,53.5994,0.0143158,0.045955,0.00479809,0.0466666,0.0136042,1.42356,0.0277127,0.0282202,1266,1716,9.04555,-53.5993
49,-692,9.14844,53.6173,0.0154891,0.0413689,0.00247603,0.0416036,0.0152544,1.47626,0.0243029,0.0370228,1273,1716,9.14841,-53.6173
56,-692,9.19385,53.5789,0.0167921,0.0359033,0.00012569,0.0359041,0.0167912,1.56422,0.0207437,0.0492654,1280,1716,9.19382,-53.5789
63,-692,9.31067,53.5215,0,0,0,0,0,0,0,-1,1287,1716,9.31068,-53.5215
70,-692,9.32227,53.6133,0.0183784,0.0249594,-0.00459246,0.0273185,0.0160193,-1.09626,0.0158506,0.0409264,1294,1716,9.32222,-53.6132
77,-692,9.50684,53.6462,0.0188853,0.0198065,-0.00627461,0.0256374,0.0130544,-0.822034,0.0148026,0.0473242,1301,1716,9.5069,-53.6462
84,-692,9.49792,53.386,0,0,0,0,0,0,0,-1,1308,1716,9.49788,-53.386
91,-692,9.5614,53.2322,0.0173758,0.0114881,-0.00829035,0.0232294,0.00563446,-0.614797,0.0139916,0.0487955,1315,1716,9.56137,-53.2322
98,-692,9.67371,53.1522,0.0156557,0.00750968,-0.00923,0.0216714,0.00149395,-0.57761,0.0139762,0.0373926,1322,1716,9.67371,-53.1523
105,-692,9.651,53.119,0.014261,0.00415804,-0.00943777,0.0199142,-0.00149509,-0.539677,0.0138015,0.0445515,1329,1716,9.65097,-53.119
112,-692,9.75708,53.0654,0.0121344,0.00290337,-0.0094672,0.0180513,-0.00301348,-0.558588,0.0131542,0.0449422,1336,1716,9.7571,-53.0654
119,-692,9.78552,52.9044,0.00883624,0.00164555,-0.0098389,0.0157161,-0.00523434,-0.610225,0.0125903,0.0385312,1343,1716,9.78555,-52.9044
126,-692,9.89478,52.7286,0.00474411,0.000832196,-0.010217,0.0131907,-0.00761437,-0.690822,0.0121548,0.0413953,1350,1716,9.89482,-52.7286
133,-692,9.99707,52.6721,0.00240306,-0.000239032,-0.00924603,0.0104219,-0.00825792,-0.71444,0.0108089,0.0319491,1357,1716,9.99702,-52.6721
140,-692,9.96619,52.6704,0.00141996,-0.000593886,-0.00852743,0.00899971,-0.00817363,-0.72663,0.00991885,0.0334133,1364,1716,9.96625,-52.6705
147,-692,10.0491,52.5667,0.000499501,-0.000620573,-0.00750833,0.00746866,-0.00758973,-0.748173,0.00869406,0.0383914,1371,1716,10.0491,-52.5666
154,-692,10.0414,52.366,-0.000107847,-0.000434777,-0.00615259,0.00588345,-0.00642607,-0.772117,0.00710921,0.0342273,1378,1716,10.0413,-52.366
161,-692,10.2821,52.2654,0.000530359,-0.000220667,-0.00463633,0.00480636,-0.00449667,-0.74499,0.0053721,0.0437467,1385,1716,10.2821,-52.2654
168,-692,10.2476,52.049,0,0,0,0,0,0,0,-1,1392,1716,10.2475,-52.049
175,-692,10.381,51.8298,0,0,0,0,0,0,0,-1,1399,1716,10.381,-51.8299
182,-692,10.3535,51.547,0,0,0,0,0,0,0,-1,1406,1716,10.3535,-51.5469
189,-692,10.4602,51.3849,0,0,0,0,0,0,0,-1,1413,1716,10.4602,-51.3849
196,-692,10.3986,51.0592,0.00636444,0.00237982,0.00249743,0.00756689,0.00117738,0.448716,0.00470153,0.038144,1420,1716,10.3985,-51.0592
203,-692,10.4552,50.796,0.00564438,0.0019626,0.00218568,0.00666112,0.000945857,0.435409,0.00416145,0.0260815,1427,1716,10.4552,-50.796
210,-692,10.5374,50.538,0.00480538,0.00179216,0.00185509,0.00568859,0.000908954,0.444346,0.00352865,0.0209545,1434,1716,10.5373,-50.538
217,-692,10.4979,50.2135,0.00396366,0.00147504,0.00113196,0.00440151,0.00103719,0.369076,0.00265697,0.0180221,1441,1716,10.4979,-50.2135
224,-692,10.498,49.9371,0.00360721,0.00143839,0.000760542,0.00384732,0.00119828,0.305814,0.00227329,0.0141211,1448,1716,10.4981,-49.9371
231,-692,10.5172,49.6506,0.0032322,0.00171907,0.000289387,0.00328565,0.00166562,0.182666,0.00189703,0.012456,1455,1716,10.5172,-49.6506
238,-692,10.5212,49.2806,0.00295475,0.00170701,-7.88961e-05,0.00295972,0.00170204,-0.0628971,0.0017152,0.0188314,1462,1716,10.5212,-49.2807
245,-692,10.5339,48.9388,0.0027632,0.00166386,-0.000397218,0.0028917,0.00153536,-0.312882,0.00167059,0.0217494,1469,1716,10.5339,-48.9388
252,-692,10.5731,48.6201,0.00258075,0.00178269,-0.000765091,0.00304461,0.00131882,-0.545031,0.00176304,0.0187458,1476,1716,10.5731,-48.6201
259,-692,10.5692,48.2919,0.00225369,0.00165301,-0.000960552,0.00295976,0.000946941,-0.633877,0.00174536,0.00990266,1483,1716,10.5692,-48.2918
266,-692,10.5634,47.9359,0.001882,0.00148631,-0.00108957,0.00279155,0.000576766,-0.695588,0.00170168,0.0102053,1490,1716,10.5634,-47.9359
273,-692,10.568,47.5413,0.00153488,0.00135702,-0.00112553,0.00257498,0.000316913,-0.745973,0.00162138,0.0149092,1497,1716,10.568,-47.5412
280,-692,10.554,47.1429,0.00115586,0.00123561,-0.00114043,0.00233686,5.46071e-05,-0.802872,0.00154003,0.0143611,1504,1716,10.554,-47.143
287,-692,10.5341,46.7793,0.000778605,0.00123563,-0.00112663,0.00215668,-0.00014245,-0.885455,0.00148755,0.0112172,1511,1716,10.5341,-46.7793
294,-692,10.5299,46.4014,0.000482154,0.00142721,-0.00109916,0.00215111,-0.000241747,-0.988404,0.00152108,0.0104014,1518,1716,10.53,-46.4014
301,-692,10.5332,45.993,0.000208269,0.0016873,-0.00124128,0.00239266,-0.00049709,-1.05405,0.00178404,0.0133562,1525,1716,10.5332,-45.993
308,-692,10.5289,45.6018,-5.73555e-05,0.0021883,-0.00158375,0.00300686,-0.000875919,-1.09376,0.00235157,0.0162873,1532,1716,10.5289,-45.6018
315,-692,10.5288,45.1707,-0.000313197,0.00289684,-0.00185182,0.0037424,-0.00115875,-1.14246,0.00295784,0.0160497,1539,1716,10.5288,-45.1707
322,-692,10.4642,44.6967,-0.000503623,0.00370994,-0.00222682,0.00466866,-0.00146233,-1.16425,0.00369756,0.0236389,1546,1716,10.4643,-44.6966
329,-692,10.4503,44.259,-0.000735122,0.00445637,-0.00253867,0.00549143,-0.00177018,-1.18366,0.00437214,0.0208153,1553,1716,10.4504,-44.2591
336,-692,10.4191,43.8126,-0.000818237,0.00454361,-0.00273296,0.00569106,-0.00196568,-1.17329,0.00459173,0.013419,1560,1716,10.4191,-43.8126
343,-692,10.3915,43.3877,-0.000816974,0.00419029,-0.00294724,0.00555375,-0.00218043,-1.1375,0.00460473,0.0135734,1567,1716,10.3914,-43.3877
350,-692,10.3707,42.9532,-0.000667559,0.00319252,-0.0031535,0.00495973,-0.00243477,-1.06001,0.00435138,0.0175306,1574,1716,10.3708,-42.9532
357,-692,10.3394,42.4244,0.000139863,0.00160788,-0.00383441,0.0047779,-0.00303016,-0.879968,0.00454547,0.0277574,1581,1716,10.3394,-42.4244
364,-692,10.3196,41.8589,0.00100581,-0.000490198,-0.00432061,0.00464268,-0.00412707,-0.699685,0.00506614,0.0338741,1588,1716,10.3196,-41.8588
371,-692,10.3611,41.4686,0.00176187,-0.00307286,-0.00471399,0.00464219,-0.00595317,-0.548478,0.00613282,0.0429554,1595,1716,10.3611,-41.4686
378,-692,10.2947,41.0482,0.00308203,-0.00654253,-0.00517809,0.00533874,-0.00879925,-0.410999,0.00824367,0.0488657,1602,1716,10.2947,-41.0482
385,-692,10.0834,41.188,0.00492849,-0.0104922,-0.00584008,0.00689058,-0.0124543,-0.324121,0.0113217,0.048895,1609,1716,10.0834,-41.188
392,-692,10.235,40.4948,0.00746074,-0.0148233,-0.00701954,0.00948756,-0.0168501,-0.281095,0.0154028,0.0490259,1616,1716,10.235,-40.4947
399,-692,10.2844,40.0587,0.0101326,-0.0191458,-0.00864045,0.0124924,-0.0215055,-0.266601,0.0198573,0.0467693,1623,1716,10.2844,-40.0588
406,-692,10.6206,39.4344,0.0132398,-0.0224666,-0.0105355,0.0161166,-0.0253434,-0.266561,0.0241337,0.0481079,1630,1716,10.6206,-39.4344
413,-692,10.9196,38.8147,0,0,0,0,0,0,0,-1,1637,1716,10.9196,-38.8146
420,-692,9.37878,36.9653,0,0,0,0,0,0,0,-1,1644,1716,9.37872,-36.9654
427,-692,3.79578,8.60339,0,0,0,0,0,0,0,-1,1651,1716,3.79577,-8.6034
434,-692,4.78516,8.64636,0,0,0,0,0,0,0,-1,1658,1716,4.78512,-8.64634
441,-692,5.8208,8.74036,0,0,0,0,0,0,0,-1,1665,1716,5.82084,-8.7404
448,-692,6.73792,8.51013,0,0,0,0,0,0,0,-1,1672,1716,6.73793,-8.5101
455,-692,0,0,0,0,0,0,0,0,0,-1,1679,1716,0,0
462,-692,0,0,0,0,0,0,0,0,0,-1,1686,1716,0,0
469,-692,0,0,0,0,0,0,0,0,0,-1,1693,1716,0,0
476,-692,0,0,0,0,0,0,0,0,0,-1,1700,1716,0,0
483,-692,0,0,0,0,0,0,0,0,0,-1,1707,1716,0,0
490,-692,0,0,0,0,0,0,0,0,0,-1,1714,1716,0,0
497,-692,0,0,0,0,0,0,0,0,0,-1,1721,1716,0,0
504,-692,0,0,0,0,0,0,0,0,0,-1,1728,1716,0,0
511,-692,0,0,0,0,0,0,0,0,0,-1,1735,1716,0,0
518,-692,0,0,0,0,0,0,0,0,0,-1,1742,1716,0,0
525,-692,0,0,0,0,0,0,0,0,0,-1,1749,1716,0,0
532,-692,0,0,0,0,0,0,0,0,0,-1,1756,1716,0,0
539,-692,0,0,0,0,0,0,0,0,0,-1,1763,1716,0,0
546,-692,0,0,0,0,0,0,0,0,0,-1,1770,1716,0,0
553,-692,0,0,0,0,0,0,0,0,0,-1,1777,1716,0,0
560,-692,0,0,0,0,0,0,0,0,0,-1,1784,1716,0,0
567,-692,0,0,0,0,0,0,0,0,0,-1,1791,1716,0,0
574,-692,0,0,0,0,0,0,0,0,0,-1,1798,1716,0,0
581,-692,0,0,0,0,0,0,0,0,0,-1,1805,1716,0,0
588,-692,0,0,0,0,0,0,0,0,0,-1,1812,1716,0,0
595,-692,0,0,0,0,0,0,0,0,0,-1,1819,1716,0,0
602,-692,0,0,0,0,0,0,0,0,0,-1,1826,1716,0,0
609,-692,0,0,0,0,0,0,0,0,0,-1,1833,1716,0,0
616,-692,0,0,0,0,0,0,0,0,0,-1,1840,1716,0,0
623,-692,0,0,0,0,0,0,0,0,0,-1,1847,1716,0,0
630,-692,0,0,0,0,0,0,0,0,0,-1,1854,1716,0,0
637,-692,0,0,0,0,0,0,0,0,0,-1,1861,1716,0,0
644,-692,0,0,0,0,0,0,0,0,0,-1,1868,1716,0,0
651,-692,0,0,0,0,0,0,0,0,0,-1,1875,1716,0,0
658,-692,0,0,0,0,0,0,0,0,0,-1,1882,1716,0,0
665,-692,0,0,0,0,0,0,0,0,0,-1,1889,1716,0,0
672,-692,0,0,0,0,0,0,0,0,0,-1,1896,1716,0,0
679,-692,0,0,0,0,0,0,0,0,0,-1,1903,1716,0,0
686,-692,0,0,0,0,0,0,0,0,0,-1,1910,1716,0,0
693,-692,0,0,0,0,0,0,0,0,0,-1,1917,1716,0,0
700,-692,0,0,0,0,0,0,0,0,0,-1,1924,1716,0,0
707,-692,0,0,0,0,0,0,0,0,0,-1,1931,1716,0,0
714,-692,0,0,0,0,0,0,0,0,0,-1,1938,1716,0,0
721,-692,0,0,0,0,0,0,0,0,0,-1,1945,1716,0,0
728,-692,0,0,0,0,0,0,0,0,0,-1,1952,1716,0,0
735,-692,0,0,0,0,0,0,0,0,0,-1,1959,1716,0,0
742,-692,0,0,0,0,0,0,0,0,0,-1,1966,1716,0,0
749,-692,0,0,0,0,0,0,0,0,0,-1,1973,1716,0,0
756,-692,0,0,0,0,0,0,0,0,0,-1,1980,1716,0,0
763,-692,0,0,0,0,0,0,0,0,0,-1,1987,1716,0,0
770,-692,0,0,0,0,0,0,0,0,0,-1,1994,1716,0,0
777,-692,0,0,0,0,0,0,0,0,0,-1,2001,1716,0,0
784,-692,0,0,0,0,0,0,0,0,0,-1,2008,1716,0,0
791,-692,0,0,0,0,0,0,0,0,0,-1,2015,1716,0,0
798,-692,0,0,0,0,0,0,0,0,0,-1,2022,1716,0,0
805,-692,0,0,0,0,0,0,0,0,0,-1,2029,1716,0,0
812,-692,0,0,0,0,0,0,0,0,0,-1,2036,1716,0,0
-700,-699,0,0,0,0,0,0,0,0,0,-1,524,1723,0,0
-693,-699,0,0,0,0,0,0,0,0,0,-1,531,1723,0,0
-686,-699,0,0,0,0,0,0,0,0,0,-1,538,1723,0,0
-679,-699,0,0,0,0,0,0,0,0,0,-1,545,1723,0,0
-672,-699,0,0,0,0,0,0,0,0,0,-1,552,1723,0,0
-665,-699,0,0,0,0,0,0,0,0,0,-1,559,1723,0,0
-658,-699,0,0,0,0,0,0,0,0,0,-1,566,1723,0,0
-651,-699,0,0,0,0,0,0,0,0,0,-1,573,1723,0,0
-644,-699,0,0,0,0,0,0,0,0,0,-1,580,1723,0,0
-637,-699,0,0,0,0,0,0,0,0,0,-1,587,1723,0,0
-630,-699,0,0,0,0,0,0,0,0,0,-1,594,1723,0,0
-623,-699,0,0,0,0,0,0,0,0,0,-1,601,1723,0,0
-616,-699,0,0,0,0,0,0,0,0,0,-1,608,1723,0,0
-609,-699,0,0,0,0,0,0,0,0,0,-1,615,1723,0,0
-602,-699,0,0,0,0,0,0,0,0,0,-1,622,1723,0,0
-595,-699,0,0,0,0,0,0,0,0,0,-1,629,1723,0,0
-588,-699,0,0,0,0,0,0,0,0,0,-1,636,1723,0,0
-581,-699,0,0,0,0,0,0,0,0,0,-1,643,1723,0,0
-574,-699,0,0,0,0,0,0,0,0,0,-1,650,1723,0,0
-567,-699,0,0,0,0,0,0,0,0,0,-1,657,1723,0,0
-560,-699,0,0,0,0,0,0,0,0,0,-1,664,1723,0,0
-553,-699,0,0,0,0,0,0,0,0,0,-1,671,1723,0,0
-546,-699,0,0,0,0,0,0,0,0,0,-1,678,1723,0,0
-539,-699,0,0,0,0,0,0,0,0,0,-1,685,1723,0,0
-532,-699,0,0,0,0,0,0,0,0,0,-1,692,1723,0,0
-525,-699,0,0,0,0,0,0,0,0,0,-1,699,1723,0,0
-518,-699,0,0,0,0,0,0,0,0,0,-1,706,1723,0,0
-511,-699,0,0,0,0,0,0,0,0,0,-1,713,1723,0,0
-504,-699,0,0,0,0,0,0,0,0,0,-1,720,1723,0,0
-497,-699,0,0,0,0,0,0,0,0,0,-1,727,1723,0,0
-490,-699,0,0,0,0,0,0,0,0,0,-1,734,1723,0,0
-483,-699,0,0,0,0,0,0,0,0,0,-1,741,1723,0,0
-476,-699,0,0,0,0,0,0,0,0,0,-1,748,1723,0,0
-469,-699,0,0,0,0,0,0,0,0,0,-1,755,1723,0,0
-462,-699,0,0,0,0,0,0,0,0,0,-1,762,1723,0,0
-455,-699,0,0,0,0,0,0,0,0,0,-1,769,1723,0,0
-448,-699,0,0,0,0,0,0,0,0,0,-1,776,1723,0,0
-441,-699,0,0,0,0,0,0,0,0,0,-1,783,1723,0,0
-434,-699,0,0,0,0,0,0,0,0,0,-1,790,1723,0,0
-427,-699,0,0,0,0,0,0,0,0,0,-1,797,1723,0,0
-420,-699,0,0,0,0,0,0,0,0,0,-1,804,1723,0,0
-413,-699,0,0,0,0,0,0,0,0,0,-1,811,1723,0,0
-406,-699,0,0,0,0,0,0,0,0,0,-1,818,1723,0,0
-399,-699,0,0,0,0,0,0,0,0,0,-1,825,1723,0,0
-392,-699,0,0,0,0,0,0,0,0,0,-1,832,1723,0,0
-385,-699,0,0,0,0,0,0,0,0,0,-1,839,1723,0,0
-378,-699,0,0,0,0,0,0,0,0,0,-1,846,1723,0,0
-371,-699,0,0,0,0,0,0,0,0,0,-1,853,1723,0,0
-364,-699,0,0,0,0,0,0,0,0,0,-1,860,1723,0,0
-357,-699,0,0,0,0,0,0,0,0,0,-1,867,1723,0,0
-350,-699,0,0,0,0,0,0,0,0,0,-1,874,1723,0,0
-343,-699,0,0,0,0,0,0,0,0,0,-1,881,1723,0,0
-336,-699,0,0,0,0,0,0,0,0,0,-1,888,1723,0,0
-329,-699,0,0,0,0,0,0,0,0,0,-1,895,1723,0,0
-322,-699,0,0,0,0,0,0,0,0,0,-1,902,1723,0,0
-315,-699,6.20001,19.5193,0,0,0,0,0,0,0,-1,909,1723,6.20001,-19.5193
-308,-699,6.98151,18.9218,0,0,0,0,0,0,0,-1,916,1723,6.98151,-18.9217
-301,-699,4.72729,12.8752,0,0,0,0,0,0,0,-1,923,1723,4.72732,-12.8752
-294,-699,6.90332,19.8601,0,0,0,0,0,0,0,-1,930,1723,6.90332,-19.8601
-287,-699,9.0968,36.3315,0,0,0,0,0,0,0,-1,937,1723,9.09678,-36.3315
-280,-699,9.30219,35.7897,0,0,0,0,0,0,0,-1,944,1723,9.30221,-35.7896
-273,-699,10.2987,33.8755,0,0,0,0,0,0,0,-1,951,1723,10.2987,-33.8755
-266,-699,6.81915,20.8951,0,0,0,0,0,0,0,-1,958,1723,6.81914,-20.8952
-259,-699,5.39758,14.5466,0,0,0,0,0,0,0,-1,965,1723,5.39759,-14.5466
-252,-699,8.3866,31.6284,0,0,0,0,0,0,0,-1,972,1723,8.38657,-31.6284
-245,-699,9.22076,40.7968,0,0,0,0,0,0,0,-1,979,1723,9.22074,-40.7967
-238,-699,8.94525,41.7092,0,0,0,0,0,0,0,-1,986,1723,8.94528,-41.7092
-231,-699,8.67517,42.1139,-0.00831405,0.00402479,0.000918107,0.00409273,-0.00838199,1.49693,0.00734283,0.0496895,993,1723,8.67519,-42.1139
-224,-699,8.49377,42.4723,-0.00776292,0.00325911,0.000859343,0.00332571,-0.00782951,1.49345,0.00661313,0.0372046,1000,1723,8.4938,-42.4722
-217,-699,8.45911,42.9714,-0.0072017,0.00243464,0.000729344,0.00248953,-0.00725659,1.49568,0.00584699,0.0224661,1007,1723,8.45912,-42.9715
-210,-699,8.44153,43.469,-0.00692329,0.00195465,0.000717236,0.00201222,-0.00698086,1.4907,0.00544991,0.0165524,1014,1723,8.44152,-43.469
-203,-699,8.45374,43.9531,-0.00640227,0.0015264,0.000686285,0.00158536,-0.00646123,1.48509,0.0049218,0.0211727,1021,1723,8.45375,-43.9531
-196,-699,8.41638,44.4508,-0.00568576,0.00118319,0.000604296,0.00123595,-0.00573852,1.48371,0.00429732,0.0186385,1028,1723,8.41638,-44.4508
-189,-699,8.35144,44.894,-0.00486542,0.00057473,0.000462826,0.000613824,-0.00490452,1.48653,0.00349231,0.00986673,1035,1723,8.35145,-44.8941
-182,-699,8.31628,45.3313,-0.0042264,0.000545297,0.000339508,0.000569332,-0.00425043,1.50012,0.00304122,0.0129825,1042,1723,8.31633,-45.3313
-175,-699,8.30188,45.7684,-0.00349762,0.000731526,0.000358918,0.000761771,-0.00352786,1.48673,0.00264268,0.0146828,1049,1723,8.30187,-45.7684
-168,-699,8.30676,46.1771,-0.00291747,0.00116625,0.000378388,0.00120101,-0.00295224,1.47918,0.00246791,0.0153319,1056,1723,8.30677,-46.1771
-161,-699,8.28699,46.5895,-0.00249254,0.00158753,0.000349253,0.00161721,-0.00252222,1.48602,0.00240887,0.0136797,1063,1723,8.28694,-46.5895
-154,-699,8.24219,47.0105,-0.00206836,0.00212993,0.000333454,0.00215625,-0.00209468,1.49203,0.00245437,0.0134748,1070,1723,8.24221,-47.0105
-147,-699,8.20886,47.4071,-0.00158565,0.002801,0.000417685,0.00284042,-0.00162507,1.47671,0.00260979,0.0147148,1077,1723,8.20891,-47.4072
-140,-699,8.17932,47.7698,-0.000821748,0.00349376,0.000566515,0.00356689,-0.000894878,1.44242,0.00272563,0.0101879,1084,1723,8.17926,-47.7698
-133,-699,8.17688,48.1642,-0.000241813,0.00387943,0.000521809,0.00394447,-0.000306855,1.44679,0.00273767,0.00947593,1091,1723,8.17688,-48.1642
-126,-699,8.17676,48.5175,0.000199396,0.00418798,0.000543185,0.00426063,0.000126746,1.43784,0.00279913,0.0116596,1098,1723,8.17681,-48.5175
-119,-699,8.18042,48.8613,0.000753831,0.00430601,0.000576015,0.00439708,0.00066276,1.41399,0.00273734,0.0177156,1105,1723,8.18038,-48.8613
-112,-699,8.18237,49.1912,0.00139456,0.0042654,0.000554088,0.00436863,0.00129133,1.3866,0.00259154,0.0135171,1112,1723,8.18239,-49.1912
-105,-699,8.19238,49.5254,0.00193381,0.0040335,0.000448189,0.00412517,0.00184215,1.36905,0.0023862,0.0139331,1119,1723,8.19237,-49.5254
-98,-699,8.22021,49.8517,0.00235963,0.00375941,0.000306998,0.00382378,0.00229526,1.36411,0.0022224,0.0157939,1126,1723,8.22019,-49.8517
-91,-699,8.22742,50.1165,0.00277997,0.00344701,5.48586e-05,0.00345149,0.00277549,1.48928,0.00211203,0.0226034,1133,1723,8.22737,-50.1164
-84,-699,8.255,50.438,0.00324942,0.00285603,-0.000252315,0.00337265,0.0027328,-0.454318,0.00206841,0.0277954,1140,1723,8.25496,-50.438
-77,-699,8.2511,50.709,0.00364637,0.00235382,-0.000675496,0.00393496,0.00206524,-0.403751,0.00227278,0.0182773,1147,1723,8.25114,-50.709
-70,-699,8.26526,50.9965,0.00388371,0.00139085,-0.000952391,0.00420592,0.00106864,-0.32623,0.0025243,0.0167038,1154,1723,8.26524,-50.9965
-63,-699,8.29456,51.2704,0.00413714,0.0010493,-0.00104987,0.00446028,0.000726158,-0.298588,0.00276345,0.0142066,1161,1723,8.29459,-51.2704
-56,-699,8.30383,51.4775,0.00529994,0.0032546,-0.000515015,0.0054223,0.00313224,-0.23326,0.00314313,0.0111121,1168,1723,8.30381,-51.4776
-49,-699,8.3114,51.7478,0.00617349,0.00755918,0.00100785,0.00808936,0.00564331,1.08652,0.00479045,0.0248793,1175,1723,8.31145,-51.7478
-42,-699,8.33911,52.0054,0.00807076,0.0105602,0.0032209,0.0127685,0.00586244,0.969785,0.00738013,0.0292804,1182,1723,8.33911,-52.0054
-35,-699,8.39868,52.1696,0.0098189,0.0161212,0.00535786,0.0191859,0.00675422,1.05122,0.0112375,0.026781,1189,1723,8.3987,-52.1695
-28,-699,8.49512,52.3291,0.010823,0.0204461,0.00682789,0.0239874,0.00728165,1.09233,0.014201,0.0214773,1196,1723,8.49506,-52.3291
-21,-699,8.52246,52.4434,0.0116497,0.0238751,0.00784877,0.0277106,0.00781411,1.11624,0.0164979,0.014824,1203,1723,8.52245,-52.4433
-14,-699,8.56519,52.6222,0.0123754,0.0267627,0.00904071,0.0311226,0.0080156,1.12145,0.0186595,0.0130064,1210,1723,8.56518,-52.6222
-7,-699,8.61035,52.7942,0.0129613,0.0298861,0.0097546,0.0343375,0.00851001,1.14269,0.0206481,0.00939824,1217,1723,8.61031,-52.7942
0,-699,8.6759,52.9335,0.012334,0.0328284,0.0095763,0.0366066,0.00855584,1.19501,0.0221113,0.0139646,1224,1723,8.67586,-52.9334
7,-699,8.77539,52.9937,0.0110795,0.0346607,0.00897441,0.0376876,0.00805255,1.2455,0.0229174,0.0240215,1231,1723,8.7754,-52.9936
14,-699,8.85254,53.1176,0.0101535,0.0362254,0.00837716,0.038685,0.00769384,1.28521,0.0236464,0.0232789,1238,1723,8.8525,-53.1175
21,-699,8.85095,53.2144,0.0110856,0.036385,0.00782608,0.0386102,0.00886037,1.29378,0.0233538,0.0188375,1245,1723,8.85097,-53.2144
28,-699,8.91174,53.2533,0.0116635,0.0362771,0.00616537,0.0377351,0.0102055,1.33858,0.0225387,0.0174511,1252,1723,8.9118,-53.2533
35,-699,8.95984,53.3666,0.0117502,0.0352657,0.00455299,0.0361165,0.0108994,1.38607,0.0213911,0.0143635,1259,1723,8.95981,-53.3666
42,-699,9.03906,53.432,0.0122326,0.0331423,0.00285574,0.0335253,0.0118496,1.43747,0.019631,0.012813,1266,1723,9.03902,-53.432
49,-699,9.09973,53.4608,0.0127842,0.0301281,0.0011465,0.0302035,0.0127087,1.50507,0.0175108,0.0157664,1273,1723,9.09972,-53.4608
56,-699,9.18286,53.4985,0.013369,0.0263073,-0.000595997,0.0263347,0.0133416,-1.52486,0.0152048,0.0170996,1280,1723,9.18285,-53.4985
63,-699,9.23303,53.4877,0.0136623,0.0228813,-0.00244332,0.0234888,0.0130548,-1.32709,0.0135894,0.0155165,1287,1723,9.23307,-53.4877
70,-699,9.26892,53.4813,0.0138292,0.0183654,-0.00418209,0.0208548,0.0113397,-1.03387,0.0120559,0.0133018,1294,1723,9.26898,-53.4813
77,-699,9.34302,53.4629,0.0139095,0.0143861,-0.0053598,0.0195129,0.00878269,-0.807611,0.0112845,0.0134387,1301,1723,9.34303,-53.4629
84,-699,9.41772,53.4161,0.0136021,0.01105,-0.00607131,0.01853,0.00612208,-0.681818,0.0109015,0.0163213,1308,1723,9.41773,-53.4161
91,-699,9.48755,53.3788,0.0126556,0.0084405,-0.00669976,0.0175715,0.00352461,-0.633014,0.0107341,0.0147191,1315,1723,9.4876,-53.3788
98,-699,9.53137,53.3221,0.0113513,0.0054849,-0.00730809,0.0162928,0.000543331,-0.594558,0.0106854,0.0127002,1322,1723,9.53139,-53.3222
105,-699,9.57556,53.2598,0.0105025,0.00304552,-0.00737615,0.015039,-0.00149092,-0.551387,0.0105581,0.017051,1329,1723,9.5756,-53.2598
112,-699,9.63489,53.1747,0.00944458,0.00207658,-0.0071932,0.0138423,-0.00232113,-0.548738,0.0100913,0.0228225,1336,1723,9.63484,-53.1747
119,-699,9.65295,53.0559,0.00757391,0.00116263,-0.00722698,0.0122743,-0.00353777,-0.576653,0.00958234,0.0169487,1343,1723,9.65293,-53.0559
126,-699,9.72888,52.9264,0.00494127,0.00061356,-0.00732038,0.0104109,-0.00485608,-0.641694,0.00900678,0.0190141,1350,1723,9.72894,-52.9264
133,-699,9.82324,52.8087,0.00368846,-0.00021311,-0.00638243,0.00841158,-0.00493623,-0.637082,0.00779295,0.0173017,1357,1723,9.82329,-52.8087
140,-699,9.8562,52.6699,0.00349806,-0.000373094,-0.00566563,0.00754962,-0.00442465,-0.620797,0.00699138,0.0175927,1364,1723,9.85621,-52.6699
147,-699,9.90076,52.5012,0.00328553,-0.000170157,-0.00475523,0.0066171,-0.00350173,-0.611137,0.00593369,0.0148127,1371,1723,9.90077,-52.5012
154,-699,9.91724,52.3416,0.00325939,0.000211836,-0.00365962,0.00569979,-0.00222856,-0.588126,0.00472141,0.0151376,1378,1723,9.91719,-52.3415
161,-699,9.94543,52.1648,0.00371198,0.000581763,-0.00249951,0.00509596,-0.000802219,-0.50568,0.00369386,0.0115421,1385,1723,9.94541,-52.1648
168,-699,10.0073,51.9929,0.00379525,0.000398905,-0.000953,0.00404438,0.000149771,-0.255698,0.00264774,0.01222,1392,1723,10.0073,-51.993
175,-699,10.0598,51.8219,0.00392149,0.000763812,0.000949423,0.00418497,0.000500333,0.270703,0.00263906,0.017267,1399,1723,10.0599,-51.8219
182,-699,10.0942,51.5737,0.00439647,0.00103985,0.00185379,0.00521881,0.000217507,0.41752,0.00340902,0.0185947,1406,1723,10.0943,-51.5737
189,-699,10.0698,51.3263,0.00465091,0.0016355,0.00173948,0.00544515,0.000841257,0.428327,0.00338471,0.0183624,1413,1723,10.0698,-51.3263
196,-699,10.1041,51.0566,0.00465174,0.0020142,0.00156562,0.00538,0.00128594,0.435385,0.00324412,0.0187608,1420,1723,10.1041,-51.0566
203,-699,10.1504,50.7932,0.0040739,0.00172446,0.00131496,0.00466244,0.00113591,0.420834,0.00280733,0.0148146,1427,1723,10.1504,-50.7932
210,-699,10.1705,50.5217,0.00342595,0.00160834,0.00103517,0.00389464,0.00113965,0.425154,0.00231214,0.0142025,1434,1723,10.1706,-50.5217
217,-699,10.1924,50.2441,0.00276892,0.00137913,0.000500474,0.00293039,0.00121766,0.312081,0.00169989,0.0141832,1441,1723,10.1923,-50.2441
224,-699,10.2015,49.952,0.00241841,0.00132369,0.000193009,0.00245144,0.00129066,0.169503,0.001416,0.0150018,1448,1723,10.2016,-49.952
231,-699,10.204,49.6475,0.00203878,0.00136714,-0.000153466,0.00207219,0.00133374,-0.214325,0.00121272,0.0119832,1455,1723,10.2039,-49.6475
238,-699,10.1963,49.2968,0.00173298,0.00126013,-0.000425946,0.00198372,0.00100939,-0.532036,0.00114536,0.010862,1462,1723,10.1962,-49.2967
245,-699,10.202,48.9602,0.00146258,0.0011333,-0.00064952,0.001968,0.00062788,-0.661272,0.00116077,0.0130128,1469,1723,10.202,-48.9602
252,-699,10.2081,48.6384,0.00110544,0.00100785,-0.000831607,0.00188968,0.00022361,-0.756095,0.00119226,0.0109369,1476,1723,10.2081,-48.6385
259,-699,10.2047,48.2949,0.000713758,0.00078881,-0.000942099,0.00169413,-0.000191563,-0.805304,0.00119839,0.0107273,1483,1723,10.2047,-48.2949
266,-699,10.2008,47.9185,0.000324027,0.000553057,-0.00100597,0.00145101,-0.000573925,-0.842072,0.0012051,0.0122003,1490,1723,10.2008,-47.9184
273,-699,10.1901,47.556,-4.63344e-05,0.000386887,-0.00101209,0.00120529,-0.000864736,-0.890819,0.00120051,0.0117302,1497,1723,10.1901,-47.556
280,-699,10.1838,47.171,-0.000410693,0.000283108,-0.00102992,0.00102298,-0.00115056,-0.947842,0.00125562,0.0125718,1504,1723,10.1839,-47.171
287,-699,10.1576,46.7756,-0.000739816,0.000418828,-0.00104327,0.00103283,-0.00135382,-1.03885,0.00138208,0.011071,1511,1723,10.1576,-46.7757
294,-699,10.1382,46.3826,-0.000935435,0.000846509,-0.00105419,0.00133581,-0.00142473,-1.13624,0.00159407,0.0111487,1518,1723,10.1382,-46.3825
301,-699,10.1331,45.994,-0.00106253,0.00140571,-0.00130106,0.00196485,-0.00162168,-1.1649,0.00207384,0.0127083,1525,1723,10.1331,-45.9941
308,-699,10.1305,45.604,-0.00118421,0.00223454,-0.00180793,0.00301326,-0.00196292,-1.16409,0.00289425,0.0176006,1532,1723,10.1304,-45.604
315,-699,10.1301,45.1774,-0.00131217,0.00334881,-0.00220965,0.00422982,-0.00219318,-1.1914,0.00376995,0.0213388,1539,1723,10.1301,-45.1774
322,-699,10.0763,44.7247,-0.00133947,0.00464337,-0.00276104,0.00572281,-0.00241892,-1.19811,0.00482792,0.0231114,1546,1723,10.0762,-44.7248
329,-699,10.0137,44.2959,-0.00141315,0.00584865,-0.00322651,0.00707509,-0.0026396,-1.20755,0.00580038,0.0185359,1553,1723,10.0137,-44.2959
336,-699,9.99023,43.899,-0.00132196,0.00637079,-0.003591,0.00778653,-0.0027377,-1.19526,0.00630493,0.0209319,1560,1723,9.99018,-43.899
343,-699,10.0334,43.4681,-0.00117964,0.00620327,-0.0039606,0.00792598,-0.00290235,-1.16052,0.00647212,0.0317419,1567,1723,10.0335,-43.4681
350,-699,10.0229,42.915,-0.000834594,0.00519667,-0.00429284,0.00742723,-0.00306515,-1.09159,0.00622984,0.0458537,1574,1723,10.0229,-42.915
357,-699,9.98035,42.1786,0.000249789,0.00332682,-0.00515017,0.00716337,-0.00358675,-0.930544,0.00632005,0.0478098,1581,1723,9.9803,-42.1786
364,-699,9.84875,41.6935,0.00142427,0.000725148,-0.00574303,0.00682837,-0.00467895,-0.755002,0.00668227,0.0432687,1588,1723,9.84876,-41.6935
371,-699,9.84668,41.7583,0,0,0,0,0,0,0,-1,1595,1723,9.84674,-41.7584
378,-699,9.75635,41.2201,0,0,0,0,0,0,0,-1,1602,1723,9.75631,-41.2201
385,-699,9.50293,41.8431,0,0,0,0,0,0,0,-1,1609,1723,9.50288,-41.8432
392,-699,9.67224,40.9209,0,0,0,0,0,0,0,-1,1616,1723,9.67229,-40.9209
399,-699,9.81213,40.2299,0,0,0,0,0,0,0,-1,1623,1723,9.81207,-40.2298
406,-699,10.1492,39.6202,0,0,0,0,0,0,0,-1,1630,1723,10.1492,-39.6203
413,-699,8.81848,38.9709,0,0,0,0,0,0,0,-1,1637,1723,8.81852,-38.971
420,-699,8.41907,38.2246,0,0,0,0,0,0,0,-1,1644,1723,8.41902,-38.2247
427,-699,2.98743,11.8593,0,0,0,0,0,0,0,-1,1651,1723,2.98746,-11.8592
434,-699,4.66455,8.90222,0,0,0,0,0,0,0,-1,1658,1723,4.66456,-8.90223
441,-699,0,0,0,0,0,0,0,0,0,-1,1665,1723,0,0
448,-699,0,0,0,0,0,0,0,0,0,-1,1672,1723,0,0
455,-699,0,0,0,0,0,0,0,0,0,-1,1679,1723,0,0
462,-699,0,0,0,0,0,0,0,0,0,-1,1686,1723,0,0
469,-699,0,0,0,0,0,0,0,0,0,-1,1693,1723,0,0
476,-699,0,0,0,0,0,0,0,0,0,-1,1700,1723,0,0
483,-699,0,0,0,0,0,0,0,0,0,-1,1707,1723,0,0
490,-699,0,0,0,0,0,0,0,0,0,-1,1714,1723,0,0
497,-699,0,0,0,0,0,0,0,0,0,-1,1721,1723,0,0
504,-699,0,0,0,0,0,0,0,0,0,-1,1728,1723,0,0
511,-699,0,0,0,0,0,0,0,0,0,-1,1735,1723,0,0
518,-699,0,0,0,0,0,0,0,0,0,-1,1742,1723,0,0
525,-699,0,0,0,0,0,0,0,0,0,-1,1749,1723,0,0
532,-699,0,0,0,0,0,0,0,0,0,-1,1756,1723,0,0
539,-699,0,0,0,0,0,0,0,0,0,-1,1763,1723,0,0
546,-699,0,0,0,0,0,0,0,0,0,-1,1770,1723,0,0
553,-699,0,0,0,0,0,0,0,0,0,-1,1777,1723,0,0
560,-699,0,0,0,0,0,0,0,0,0,-1,1784,1723,0,0
567,-699,0,0,0,0,0,0,0,0,0,-1,1791,1723,0,0
574,-699,0,0,0,0,0,0,0,0,0,-1,1798,1723,0,0
581,-699,0,0,0,0,0,0,0,0,0,-1,1805,1723,0,0
588,-699,0,0,0,0,0,0,0,0,0,-1,1812,1723,0,0
595,-699,0,0,0,0,0,0,0,0,0,-1,1819,1723,0,0
602,-699,0,0,0,0,0,0,0,0,0,-1,1826,1723,0,0
609,-699,0,0,0,0,0,0,0,0,0,-1,1833,1723,0,0
616,-699,0,0,0,0,0,0,0,0,0,-1,1840,1723,0,0
623,-699,0,0,0,0,0,0,0,0,0,-1,1847,1723,0,0
630,-699,0,0,0,0,0,0,0,0,0,-1,1854,1723,0,0
637,-699,0,0,0,0,0,0,0,0,0,-1,1861,1723,0,0
644,-699,0,0,0,0,0,0,0,0,0,-1,1868,1723,0,0
651,-699,0,0,0,0,0,0,0,0,0,-1,1875,1723,0,0
658,-699,0,0,0,0,0,0,0,0,0,-1,1882,1723,0,0
665,-699,0,0,0,0,0,0,0,0,0,-1,1889,1723,0,0
672,-699,0,0,0,0,0,0,0,0,0,-1,1896,1723,0,0
679,-699,0,0,0,0,0,0,0,0,0,-1,1903,1723,0,0
686,-699,0,0,0,0,0,0,0,0,0,-1,1910,1723,0,0
693,-699,0,0,0,0,0,0,0,0,0,-1,1917,1723,0,0
700,-699,0,0,0,0,0,0,0,0,0,-1,1924,1723,0,0
707,-699,0,0,0,0,0,0,0,0,0,-1,1931,1723,0,0
714,-699,0,0,0,0,0,0,0,0,0,-1,1938,1723,0,0
721,-699,0,0,0,0,0,0,0,0,0,-1,1945,1723,0,0
728,-699,0,0,0,0,0,0,0,0,0,-1,1952,1723,0,0
735,-699,0,0,0,0,0,0,0,0,0,-1,1959,1723,0,0
742,-699,0,0,0,0,0,0,0,0,0,-1,1966,1723,0,0
749,-699,0,0,0,0,0,0,0,0,0,-1,1973,1723,0,0
756,-699,0,0,0,0,0,0,0,0,0,-1,1980,1723,0,0
763,-699,0,0,0,0,0,0,0,0,0,-1,1987,1723,0,0
770,-699,0,0,0,0,0,0,0,0,0,-1,1994,1723,0,0
777,-699,0,0,0,0,0,0,0,0,0,-1,2001,1723,0,0
784,-699,0,0,0,0,0,0,0,0,0,-1,2008,1723,0,0
791,-699,0,0,0,0,0,0,0,0,0,-1,2015,1723,0,0
798,-699,0,0,0,0,0,0,0,0,0,-1,2022,1723,0,0
805,-699,0,0,0,0,0,0,0,0,0,-1,2029,1723,0,0
812,-699,0,0,0,0,0,0,0,0,0,-1,2036,1723,0,0
-700,-706,0,0,0,0,0,0,0,0,0,-1,524,1730,0,0
-693,-706,0,0,0,0,0,0,0,0,0,-1,531,1730,0,0
-686,-706,0,0,0,0,0,0,0,0,0,-1,538,1730,0,0
-679,-706,0,0,0,0,0,0,0,0,0,-1,545,1730,0,0
-672,-706,0,0,0,0,0,0,0,0,0,-1,552,1730,0,0
-665,-706,0,0,0,0,0,0,0,0,0,-1,559,1730,0,0
-658,-706,0,0,0,0,0,0,0,0,0,-1,566,1730,0,0
-651,-706,0,0,0,0,0,0,0,0,0,-1,573,1730,0,0
-644,-706,0,0,0,0,0,0,0,0,0,-1,580,1730,0,0
-637,-706,0,0,0,0,0,0,0,0,0,-1,587,1730,0,0
-630,-706,0,0,0,0,0,0,0,0,0,-1,594,1730,0,0
-623,-706,0,0,0,0,0,0,0,0,0,-1,601,1730,0,0
-616,-706,0,0,0,0,0,0,0,0,0,-1,608,1730,0,0
-609,-706,0,0,0,0,0,0,0,0,0,-1,615,1730,0,0
-602,-706,0,0,0,0,0,0,0,0,0,-1,622,1730,0,0
-595,-706,0,0,0,0,0,0,0,0,0,-1,629,1730,0,0
-588,-706,0,0,0,0,0,0,0,0,0,-1,636,1730,0,0
-581,-706,0,0,0,0,0,0,0,0,0,-1,643,1730,0,0
-574,-706,0,0,0,0,0,0,0,0,0,-1,650,1730,0,0
-567,-706,0,0,0,0,0,0,0,0,0,-1,657,1730,0,0
-560,-706,0,0,0,0,0,0,0,0,0,-1,664,1730,0,0
-553,-706,0,0,0,0,0,0,0,0,0,-1,671,1730,0,0
-546,-706,0,0,0,0,0,0,0,0,0,-1,678,1730,0,0
-539,-706,0,0,0,0,0,0,0,0,0,-1,685,1730,0,0
-532,-706,0,0,0,0,0,0,0,0,0,-1,692,1730,0,0
-525,-706,0,0,0,0,0,0,0,0,0,-1,699,1730,0,0
-518,-706,0,0,0,0,0,0,0,0,0,-1,706,1730,0,0
-511,-706,0,0,0,0,0,0,0,0,0,-1,713,1730,0,0
-504,-706,0,0,0,0,0,0,0,0,0,-1,720,1730,0,0
-497,-706,0,0,0,0,0,0,0,0,0,-1,727,1730,0,0
-490,-706,0,0,0,0,0,0,0,0,0,-1,734,1730,0,0
-483,-706,0,0,0,0,0,0,0,0,0,-1,741,1730,0,0
-476,-706,0,0,0,0,0,0,0,0,0,-1,748,1730,0,0
-469,-706,0,0,0,0,0,0,0,0,0,-1,755,1730,0,0
-462,-706,0,0,0,0,0,0,0,0,0,-1,762,1730,0,0
-455,-706,0,0,0,0,0,0,0,0,0,-1,769,1730,0,0
-448,-706,0,0,0,0,0,0,0,0,0,-1,776,1730,0,0
-441,-706,0,0,0,0,0,0,0,0,0,-1,783,1730,0,0
-434,-706,0,0,0,0,0,0,0,0,0,-1,790,1730,0,0
-427,-706,0,0,0,0,0,0,0,0,0,-1,797,1730,0,0
-420,-706,0,0,0,0,0,0,0,0,0,-1,804,1730,0,0
-413,-706,0,0,0,0,0,0,0,0,0,-1,811,1730,0,0
-406,-706,0,0,0,0,0,0,0,0,0,-1,818,1730,0,0
-399,-706,0,0,0,0,0,0,0,0,0,-1,825,1730,0,0
-392,-706,0,0,0,0,0,0,0,0,0,-1,832,1730,0,0
-385,-706,0,0,0,0,0,0,0,0,0,-1,839,1730,0,0
-378,-706,0,0,0,0,0,0,0,0,0,-1,846,1730,0,0
-371,-706,0,0,0,0,0,0,0,0,0,-1,853,1730,0,0
-364,-706,0,0,0,0,0,0,0,0,0,-1,860,1730,0,0
-357,-706,0,0,0,0,0,0,0,0,0,-1,867,1730,0,0
-350,-706,0,0,0,0,0,0,0,0,0,-1,874,1730,0,0
-343,-706,0,0,0,0,0,0,0,0,0,-1,881,1730,0,0
-336,-706,0,0,0,0,0,0,0,0,0,-1,888,1730,0,0
-329,-706,0,0,0,0,0,0,0,0,0,-1,895,1730,0,0
-322,-706,0,0,0,0,0,0,0,0,0,-1,902,1730,0,0
-315,-706,0,0,0,0,0,0,0,0,0,-1,909,1730,0,0
-308,-706,5.08191,14.6245,0,0,0,0,0,0,0,-1,916,1730,5.08188,-14.6245
-301,-706,7.45007,21.1975,0,0,0,0,0,0,0,-1,923,1730,7.45005,-21.1976
-294,-706,11.8603,21.026,0,0,0,0,0,0,0,-1,930,1730,11.8603,-21.026
-287,-706,10.3292,20.8425,0,0,0,0,0,0,0,-1,937,1730,10.3292,-20.8425
-280,-706,7.9162,21.8951,0,0,0,0,0,0,0,-1,944,1730,7.9162,-21.8952
-273,-706,7.38953,20.6355,0,0,0,0,0,0,0,-1,951,1730,7.38955,-20.6355
-266,-706,9.66724,22.8231,0,0,0,0,0,0,0,-1,958,1730,9.66722,-22.8231
-259,-706,3.47852,20.7363,0,0,0,0,0,0,0,-1,965,1730,3.47851,-20.7364
-252,-706,3.84259,20.1979,0,0,0,0,0,0,0,-1,972,1730,3.84256,-20.1979
-245,-706,4.698,19.2992,0,0,0,0,0,0,0,-1,979,1730,4.69799,-19.2991
-238,-706,8.12567,36.8694,0,0,0,0,0,0,0,-1,986,1730,8.12568,-36.8694
-231,-706,8.995,41.993,0,0,0,0,0,0,0,-1,993,1730,8.99498,-41.993
-224,-706,8.95123,42.4268,-0.0101867,0.00401627,0.00064108,0.00404515,-0.0102156,1.52578,0.00848646,0.0452887,1000,1730,8.95126,-42.4268
-217,-706,8.88312,42.8929,-0.00955117,0.0029073,0.000508696,0.00292804,-0.00957191,1.53006,0.007549,0.0371947,1007,1730,8.88311,-42.893
-210,-706,8.72937,43.2955,-0.00919924,0.00214607,0.000550224,0.00217269,-0.00922586,1.52245,0.00698831,0.0367873,1014,1730,8.72937,-43.2955
-203,-706,8.91162,43.8685,-0.00854076,0.00156225,0.000472188,0.00158427,-0.00856278,1.52419,0.00630333,0.0325577,1021,1730,8.91157,-43.8686
-196,-706,8.87708,44.3822,-0.00769338,0.00116198,0.000377495,0.00117804,-0.00770944,1.52827,0.00557396,0.0251547,1028,1730,8.87705,-44.3821
-189,-706,8.73462,44.8794,-0.0067091,0.000337407,0.000226001,0.000344648,-0.00671635,1.53877,0.00459676,0.0212666,1035,1730,8.73459,-44.8794
-182,-706,8.69324,45.3558,-0.0060443,0.000238732,0.00011373,0.00024079,-0.00604636,1.5527,0.00411352,0.0168146,1042,1730,8.69326,-45.3559
-175,-706,8.70813,45.7823,-0.00530879,0.000357492,0.000205539,0.000364938,-0.00531623,1.53459,0.00367185,0.0162144,1049,1730,8.70809,-45.7824
-168,-706,8.69495,46.1819,-0.00471173,0.000731559,0.000258658,0.000743823,-0.004724,1.52342,0.00342431,0.0158276,1056,1730,8.6949,-46.1819
-161,-706,8.66553,46.5951,-0.00429016,0.00109358,0.00026668,0.00110676,-0.00430334,1.52142,0.00330026,0.0134964,1063,1730,8.6655,-46.5951
-154,-706,8.61169,47.0328,-0.00390268,0.00155143,0.000291458,0.00156696,-0.00391821,1.51756,0.00326241,0.0133171,1070,1730,8.61175,-47.0329
-147,-706,8.58533,47.4037,-0.00345244,0.00215228,0.000442321,0.00218697,-0.00348713,1.49252,0.00330449,0.0125861,1077,1730,8.58534,-47.4037
-140,-706,8.58069,47.786,-0.00258772,0.00284195,0.000715672,0.0029347,-0.00268047,1.44192,0.00324303,0.0115636,1084,1730,8.58063,-47.786
-133,-706,8.54712,48.1504,-0.00199416,0.00310905,0.000702237,0.00320392,-0.00208903,1.43651,0.0030784,0.00910728,1091,1730,8.54711,-48.1504
-126,-706,8.53857,48.4891,-0.00163347,0.00336328,0.000797339,0.00348742,-0.00175762,1.41633,0.00308263,0.0140321,1098,1730,8.53853,-48.4891
-119,-706,8.53284,48.8552,-0.00111357,0.00342216,0.000905397,0.00359622,-0.00128762,1.38088,0.00292281,0.0195288,1105,1730,8.53289,-48.8553
-112,-706,8.52917,49.2251,-0.000397668,0.0033988,0.000969994,0.00363227,-0.000631142,1.33459,0.002657,0.0141556,1112,1730,8.52913,-49.225
-105,-706,8.50928,49.5475,0.000244089,0.00316914,0.000898165,0.00342292,-9.68436e-06,1.29543,0.00228518,0.0104518,1119,1730,8.50928,-49.5475
-98,-706,8.53455,49.8625,0.00077552,0.00288382,0.000857377,0.00318847,0.000470873,1.22939,0.00198737,0.0117857,1126,1730,8.53454,-49.8626
-91,-706,8.53308,50.167,0.00128194,0.0026099,0.000694362,0.00290666,0.000985186,1.16692,0.00170693,0.0159253,1133,1730,8.53313,-50.167
-84,-706,8.5177,50.4591,0.00174178,0.00234118,0.000473782,0.00260209,0.00148087,1.06741,0.00150709,0.0186837,1140,1730,8.51771,-50.4592
-77,-706,8.5238,50.7024,0.00218487,0.00204987,0.000163632,0.00229438,0.00194036,0.589775,0.0014263,0.0167121,1147,1730,8.52375,-50.7024
-70,-706,8.52319,51.0198,0.00246446,0.00150709,-0.000134121,0.00248289,0.00148866,-0.136592,0.00144294,0.0171268,1154,1730,8.52322,-51.0198
-63,-706,8.51721,51.2809,0.00272914,0.0012139,-0.00029171,0.00278336,0.00115968,-0.18377,0.0016144,0.012774,1161,1730,8.5172,-51.2808
-56,-706,8.55957,51.4795,0.00341952,0.00207247,-0.000101949,0.00342719,0.0020648,-0.075113,0.0019925,0.0131619,1168,1730,8.55954,-51.4795
-49,-706,8.55383,51.712,0.00397585,0.0032139,0.000201235,0.00402574,0.00316401,0.242978,0.00244768,0.0141177,1175,1730,8.55382,-51.712
-42,-706,8.57739,51.9558,0.00514074,0.00408445,0.00106539,0.00580171,0.00342348,0.555287,0.00336769,0.0188225,1182,1730,8.57742,-51.9559
-35,-706,8.61707,52.1241,0.00632502,0.00660484,0.00203169,0.00850143,0.00442843,0.819776,0.00490973,0.0186668,1189,1730,8.61703,-52.1241
-28,-706,8.6571,52.3049,0.00715028,0.00922733,0.00258831,0.0109777,0.00539992,0.976185,0.00633825,0.0119018,1196,1730,8.65712,-52.305
-21,-706,8.6781,52.4839,0.00782122,0.0114879,0.00315596,0.0133044,0.00600475,1.04853,0.00769342,0.0121446,1203,1730,8.67805,-52.4838
-14,-706,8.72864,52.6531,0.00850679,0.0133761,0.00378717,0.0154437,0.00643921,1.07107,0.00895734,0.0115748,1210,1730,8.7286,-52.6531
-7,-706,8.771,52.8125,0.00918622,0.0158087,0.00429725,0.0179224,0.00707245,1.11366,0.0104239,0.00910746,1217,1730,8.77104,-52.8125
0,-706,8.82251,52.9608,0.00907431,0.0184704,0.00437658,0.0201931,0.00735161,1.1958,0.0118013,0.014657,1224,1730,8.82252,-52.9609
7,-706,8.83508,53.0618,0.00844741,0.0203219,0.00413444,0.0216196,0.00714971,1.26666,0.0127184,0.0175726,1231,1730,8.83504,-53.0618
14,-706,8.87219,53.1504,0.00795627,0.0220248,0.0038888,0.0230282,0.00695289,1.31829,0.0136386,0.0162906,1238,1730,8.8722,-53.1503
21,-706,8.93469,53.2443,0.00873757,0.0228179,0.00369869,0.0237304,0.00782511,1.32893,0.013963,0.0123393,1245,1730,8.93466,-53.2443
28,-706,8.96851,53.3191,0.00922378,0.0234108,0.00277637,0.0239348,0.0086998,1.38426,0.0139894,0.0124263,1252,1730,8.96854,-53.3191
35,-706,8.99866,53.3975,0.00923024,0.0234089,0.00187211,0.0236519,0.00898722,1.44171,0.013786,0.0137612,1259,1730,8.99867,-53.3974
42,-706,9.07092,53.4518,0.00943539,0.022477,0.000877666,0.0225358,0.00937659,1.5039,0.013072,0.0114175,1266,1730,9.07094,-53.4517
49,-706,9.12903,53.4795,0.00959243,0.0208073,-0.000146114,0.0208092,0.00959053,-1.55777,0.0120264,0.0140378,1273,1730,9.12903,-53.4794
56,-706,9.18774,53.4988,0.00973186,0.0185506,-0.00111255,0.0186888,0.00959367,-1.44722,0.0107912,0.0137171,1280,1730,9.18776,-53.4988
63,-706,9.22388,53.498,0.00969822,0.0163625,-0.00220906,0.0170282,0.00903247,-1.27808,0.00983732,0.0124294,1287,1730,9.22383,-53.498
70,-706,9.2522,53.4971,0.00966055,0.0132116,-0.00327546,0.0151618,0.00771033,-1.03377,0.00875411,0.0138666,1294,1730,9.25221,-53.4971
77,-706,9.28076,53.4908,0.00963087,0.0101893,-0.00386031,0.0137805,0.00603971,-0.821503,0.00797636,0.0128362,1301,1730,9.28079,-53.4909
84,-706,9.34106,53.4631,0.00942677,0.00772536,-0.0042867,0.0129464,0.00420577,-0.687445,0.0076259,0.00968839,1308,1730,9.34112,-53.4631
91,-706,9.38037,53.4198,0.00885102,0.00594246,-0.00457206,0.0121945,0.00259896,-0.631418,0.00741673,0.0101781,1315,1730,9.38032,-53.4197
98,-706,9.41748,53.3717,0.00803165,0.00377575,-0.00485597,0.0112055,0.000601946,-0.578893,0.00727795,0.0146135,1322,1730,9.41751,-53.3716
105,-706,9.46973,53.3173,0.00767309,0.00185488,-0.00480721,0.0103829,-0.000854924,-0.513297,0.00722379,0.0172609,1329,1730,9.46968,-53.3172
112,-706,9.49878,53.2368,0.00734844,0.00106211,-0.00452224,0.00971256,-0.00130201,-0.481701,0.00694982,0.0155886,1336,1730,9.4988,-53.2368
119,-706,9.52527,53.1519,0.00649607,0.000368423,-0.00436707,0.00876688,-0.00190238,-0.479507,0.00657116,0.0126255,1343,1730,9.52531,-53.1518
126,-706,9.57349,53.0164,0.0049814,-5.13883e-05,-0.00428143,0.00743118,-0.00250117,-0.519718,0.00596527,0.0139649,1350,1730,9.57351,-53.0164
133,-706,9.64819,52.8503,0.00439405,-0.000697648,-0.00353972,0.00620836,-0.00251196,-0.473643,0.00518325,0.0123289,1357,1730,9.64819,-52.8503
140,-706,9.67139,52.6682,0.00458386,-0.000735285,-0.00297169,0.0059123,-0.00206373,-0.420384,0.00478032,0.0122909,1364,1730,9.67133,-52.6683
147,-706,9.72644,52.4871,0.00464069,-0.000422221,-0.00231691,0.00554091,-0.00132244,-0.370588,0.00420465,0.0212273,1371,1730,9.72639,-52.4871
154,-706,9.78516,52.3649,0.0047076,4.00055e-05,-0.00160352,0.0052054,-0.000457787,-0.301004,0.00363249,0.0217661,1378,1730,9.78515,-52.3649
161,-706,9.75073,52.1826,0.00482067,0.00049897,-0.000889211,0.00499648,0.000323163,-0.195194,0.00322866,0.0113333,1385,1730,9.75075,-52.1827
168,-706,9.77795,51.9791,0.00459115,0.000678262,-9.6081e-05,0.00459351,0.000675904,-0.0245353,0.00286375,0.0104056,1392,1730,9.77795,-51.9791
175,-706,9.82544,51.785,0.0042396,0.00114626,0.000854906,0.00446015,0.000925711,0.252472,0.00271793,0.0108511,1399,1730,9.82549,-51.785
182,-706,9.82227,51.5579,0.00387046,0.00149839,0.00107474,0.00428497,0.00108388,0.368106,0.00257262,0.0114121,1406,1730,9.82224,-51.5579
189,-706,9.81921,51.3029,0.00339089,0.00166723,0.000853883,0.00374226,0.00131585,0.390384,0.00219208,0.0143332,1413,1730,9.81924,-51.3028
196,-706,9.84998,51.0405,0.00296901,0.00171145,0.000666533,0.00325654,0.00142392,0.407268,0.0018851,0.0132772,1420,1730,9.85003,-51.0405
203,-706,9.86475,50.791,0.00254062,0.00157032,0.000450151,0.00271729,0.00139365,0.373998,0.001569,0.0144978,1427,1730,9.86476,-50.791
210,-706,9.87683,50.5187,0.00208494,0.00153137,0.000196929,0.00214785,0.00146847,0.309199,0.00126765,0.0133413,1434,1730,9.87682,-50.5187
217,-706,9.88782,50.2546,0.00161584,0.00134386,-0.000189208,0.00171286,0.00124684,-0.47381,0.0010226,0.0140211,1441,1730,9.88784,-50.2546
224,-706,9.86609,49.9675,0.00127389,0.00125459,-0.000435402,0.00169975,0.00082873,-0.774321,0.000981451,0.0188449,1448,1730,9.86611,-49.9675
231,-706,9.88013,49.6355,0.000868409,0.00106271,-0.000674578,0.0016471,0.00028402,-0.856913,0.0010167,0.0138398,1455,1730,9.88017,-49.6355
238,-706,9.87817,49.306,0.000535762,0.000845025,-0.000858676,0.00156288,-0.000182094,-0.874484,0.00110762,0.00896468,1462,1730,9.87813,-49.306
245,-706,9.87512,48.9639,0.000199298,0.00062965,-0.000995574,0.00143304,-0.000604088,-0.891827,0.00120816,0.011825,1469,1730,9.87515,-48.9639
252,-706,9.87598,48.6337,-0.000206627,0.000394147,-0.00109012,0.00122451,-0.00103699,-0.919838,0.00130718,0.0120628,1476,1730,9.87601,-48.6337
259,-706,9.87805,48.2896,-0.00062306,0.000105214,-0.00112703,0.000925468,-0.00144331,-0.941652,0.00137847,0.0133516,1483,1730,9.87808,-48.2896
266,-706,9.84998,47.9398,-0.00103358,-0.000166042,-0.00112851,0.000609192,-0.00180881,-0.96888,0.00145218,0.0130075,1490,1730,9.84998,-47.9398
273,-706,9.81921,47.582,-0.00142254,-0.000344319,-0.00110798,0.000348746,-0.0021156,-1.01182,0.00153987,0.012136,1497,1730,9.81922,-47.582
280,-706,9.8092,47.1885,-0.00177472,-0.00039649,-0.0011202,0.000229588,-0.0024008,-1.06115,0.00168229,0.0103212,1504,1730,9.80916,-47.1885
287,-706,9.76733,46.796,-0.00207018,-9.76487e-05,-0.00114487,0.000427191,-0.00259502,-1.14096,0.00188859,0.0111743,1511,1730,9.76736,-46.796
294,-706,9.75854,46.4105,-0.00218394,0.000602284,-0.00117082,0.00102895,-0.0026106,-1.22134,0.00216643,0.0113999,1518,1730,9.75859,-46.4105
301,-706,9.75024,46.0037,-0.00217707,0.00150715,-0.0014956,0.00203785,-0.00270776,-1.22982,0.00274896,0.0110501,1525,1730,9.75023,-46.0036
308,-706,9.73877,45.5922,-0.00216923,0.0027032,-0.00214496,0.0035129,-0.00297893,-1.20984,0.00375229,0.0134963,1532,1730,9.73871,-45.5922
315,-706,9.72607,45.1792,-0.00219305,0.00426947,-0.00265713,0.00522168,-0.00314525,-1.22669,0.00487999,0.0217938,1539,1730,9.72608,-45.1792
322,-706,9.66443,44.7657,-0.00206735,0.00615444,-0.00338124,0.00736635,-0.00327926,-1.22664,0.00629542,0.0237244,1546,1730,9.66449,-44.7658
329,-706,9.66003,44.2604,-0.00196141,0.00790885,-0.00400978,0.00933248,-0.00338504,-1.22964,0.00760539,0.0264534,1553,1730,9.66005,-44.2604
336,-706,9.58252,43.6707,-0.00165003,0.00905826,-0.00459007,0.0107565,-0.00334823,-1.21644,0.00850953,0.0455643,1560,1730,9.58247,-43.6707
343,-706,9.56128,43.1484,-0.00135751,0.00916211,-0.00516883,0.0112767,-0.00347214,-1.18246,0.00890381,0.0453345,1567,1730,9.56123,-43.1484
350,-706,9.66821,42.7654,-0.000831611,0.00815931,-0.0056507,0.0108846,-0.00355692,-1.12141,0.00868824,0.0467814,1574,1730,9.66825,-42.7654
357,-706,9.65613,42.1469,0.000622628,0.00602444,-0.00677754,0.0106194,-0.00397235,-0.975008,0.00871106,0.0481136,1581,1730,9.65612,-42.1469
364,-706,9.46875,41.5243,0,0,0,0,0,0,0,-1,1588,1730,9.46875,-41.5243
371,-706,12.9121,42.2726,0,0,0,0,0,0,0,-1,1595,1730,12.9121,-42.2726
378,-706,7.25085,37.1644,0,0,0,0,0,0,0,-1,1602,1730,7.25091,-37.1644
385,-706,8.13733,39.9003,0,0,0,0,0,0,0,-1,1609,1730,8.13735,-39.9003
392,-706,6.43359,36.5219,0,0,0,0,0,0,0,-1,1616,1730,6.43354,-36.5218
399,-706,6.06824,36.3298,0,0,0,0,0,0,0,-1,1623,1730,6.06819,-36.3299
406,-706,8.80493,41.0588,0,0,0,0,0,0,0,-1,1630,1730,8.80494,-41.0588
413,-706,8.43433,40.3345,0,0,0,0,0,0,0,-1,1637,1730,8.43428,-40.3344
420,-706,8.0636,39.6101,0,0,0,0,0,0,0,-1,1644,1730,8.06362,-39.6101
427,-706,0,0,0,0,0,0,0,0,0,-1,1651,1730,0,0
434,-706,0,0,0,0,0,0,0,0,0,-1,1658,1730,0,0
441,-706,0,0,0,0,0,0,0,0,0,-1,1665,1730,0,0
448,-706,0,0,0,0,0,0,0,0,0,-1,1672,1730,0,0
455,-706,0,0,0,0,0,0,0,0,0,-1,1679,1730,0,0
462,-706,0,0,0,0,0,0,0,0,0,-1,1686,1730,0,0
469,-706,0,0,0,0,0,0,0,0,0,-1,1693,1730,0,0
476,-706,0,0,0,0,0,0,0,0,0,-1,1700,1730,0,0
483,-706,0,0,0,0,0,0,0,0,0,-1,1707,1730,0,0
490,-706,0,0,0,0,0,0,0,0,0,-1,1714,1730,0,0
497,-706,0,0,0,0,0,0,0,0,0,-1,1721,1730,0,0
504,-706,0,0,0,0,0,0,0,0,0,-1,1728,1730,0,0
511,-706,0,0,0,0,0,0,0,0,0,-1,1735,1730,0,0
518,-706,0,0,0,0,0,0,0,0,0,-1,1742,1730,0,0
525,-706,0,0,0,0,0,0,0,0,0,-1,1749,1730,0,0
532,-706,0,0,0,0,0,0,0,0,0,-1,1756,1730,0,0
539,-706,0,0,0,0,0,0,0,0,0,-1,1763,1730,0,0
546,-706,0,0,0,0,0,0,0,0,0,-1,1770,1730,0,0
553,-706,0,0,0,0,0,0,0,0,0,-1,1777,1730,0,0
560,-706,0,0,0,0,0,0,0,0,0,-1,1784,1730,0,0
567,-706,0,0,0,0,0,0,0,0,0,-1,1791,1730,0,0
574,-706,0,0,0,0,0,0,0,0,0,-1,1798,1730,0,0
581,-706,0,0,0,0,0,0,0,0,0,-1,1805,1730,0,0
588,-706,0,0,0,0,0,0,0,0,0,-1,1812,1730,0,0
595,-706,0,0,0,0,0,0,0,0,0,-1,1819,1730,0,0
602,-706,0,0,0,0,0,0,0,0,0,-1,1826,1730,0,0
609,-706,0,0,0,0,0,0,0,0,0,-1,1833,1730,0,0
616,-706,0,0,0,0,0,0,0,0,0,-1,1840,1730,0,0
623,-706,0,0,0,0,0,0,0,0,0,-1,1847,1730,0,0
630,-706,0,0,0,0,0,0,0,0,0,-1,1854,1730,0,0
637,-706,0,0,0,0,0,0,0,0,0,-1,1861,1730,0,0
644,-706,0,0,0,0,0,0,0,0,0,-1,1868,1730,0,0
651,-706,0,0,0,0,0,0,0,0,0,-1,1875,1730,0,0
658,-706,0,0,0,0,0,0,0,0,0,-1,1882,1730,0,0
665,-706,0,0,0,0,0,0,0,0,0,-1,1889,1730,0,0
672,-706,0,0,0,0,0,0,0,0,0,-1,1896,1730,0,0
679,-706,0,0,0,0,0,0,0,0,0,-1,1903,1730,0,0
686,-706,0,0,0,0,0,0,0,0,0,-1,1910,1730,0,0
693,-706,0,0,0,0,0,0,0,0,0,-1,1917,1730,0,0
700,-706,0,0,0,0,0,0,0,0,0,-1,1924,1730,0,0
707,-706,0,0,0,0,0,0,0,0,0,-1,1931,1730,0,0
714,-706,0,0,0,0,0,0,0,0,0,-1,1938,1730,0,0
721,-706,0,0,0,0,0,0,0,0,0,-1,1945,1730,0,0
728,-706,0,0,0,0,0,0,0,0,0,-1,1952,1730,0,0
735,-706,0,0,0,0,0,0,0,0,0,-1,1959,1730,0,0
742,-706,0,0,0,0,0,0,0,0,0,-1,1966,1730,0,0
749,-706,0,0,0,0,0,0,0,0,0,-1,1973,1730,0,0
756,-706,0,0,0,0,0,0,0,0,0,-1,1980,1730,0,0
763,-706,0,0,0,0,0,0,0,0,0,-1,1987,1730,0,0
770,-706,0,0,0,0,0,0,0,0,0,-1,1994,1730,0,0
777,-706,0,0,0,0,0,0,0,0,0,-1,2001,1730,0,0
784,-706,0,0,0,0,0,0,0,0,0,-1,2008,1730,0,0
791,-706,0,0,0,0,0,0,0,0,0,-1,2015,1730,0,0
798,-706,0,0,0,0,0,0,0,0,0,-1,2022,1730,0,0
805,-706,0,0,0,0,0,0,0,0,0,-1,2029,1730,0,0
812,-706,0,0,0,0,0,0,0,0,0,-1,2036,1730,0,0
-700,-713,0,0,0,0,0,0,0,0,0,-1,524,1737,0,0
-693,-713,0,0,0,0,0,0,0,0,0,-1,531,1737,0,0
-686,-713,0,0,0,0,0,0,0,0,0,-1,538,1737,0,0
-679,-713,0,0,0,0,0,0,0,0,0,-1,545,1737,0,0
-672,-713,0,0,0,0,0,0,0,0,0,-1,552,1737,0,0
-665,-713,0,0,0,0,0,0,0,0,0,-1,559,1737,0,0
-658,-713,0,0,0,0,0,0,0,0,0,-1,566,1737,0,0
-651,-713,0,0,0,0,0,0,0,0,0,-1,573,1737,0,0
-644,-713,0,0,0,0,0,0,0,0,0,-1,580,1737,0,0
-637,-713,0,0,0,0,0,0,0,0,0,-1,587,1737,0,0
-630,-713,0,0,0,0,0,0,0,0,0,-1,594,1737,0,0
-623,-713,0,0,0,0,0,0,0,0,0,-1,601,1737,0,0
-616,-713,0,0,0,0,0,0,0,0,0,-1,608,1737,0,0
-609,-713,0,0,0,0,0,0,0,0,0,-1,615,1737,0,0
-602,-713,0,0,0,0,0,0,0,0,0,-1,622,1737,0,0
-595,-713,0,0,0,0,0,0,0,0,0,-1,629,1737,0,0
-588,-713,0,0,0,0,0,0,0,0,0,-1,636,1737,0,0
-581,-713,0,0,0,0,0,0,0,0,0,-1,643,1737,0,0
-574,-713,0,0,0,0,0,0,0,0,0,-1,650,1737,0,0
-567,-713,0,0,0,0,0,0,0,0,0,-1,657,1737,0,0
-560,-713,0,0,0,0,0,0,0,0,0,-1,664,1737,0,0
-553,-713,0,0,0,0,0,0,0,0,0,-1,671,1737,0,0
-546,-713,0,0,0,0,0,0,0,0,0,-1,678,1737,0,0
-539,-713,0,0,0,0,0,0,0,0,0,-1,685,1737,0,0
-532,-713,0,0,0,0,0,0,0,0,0,-1,692,1737,0,0
-525,-713,0,0,0,0,0,0,0,0,0,-1,699,1737,0,0
-518,-713,0,0,0,0,0,0,0,0,0,-1,706,1737,0,0
-511,-713,0,0,0,0,0,0,0,0,0,-1,713,1737,0,0
-504,-713,0,0,0,0,0,0,0,0,0,-1,720,1737,0,0
-497,-713,0,0,0,0,0,0,0,0,0,-1,727,1737,0,0
-490,-713,0,0,0,0,0,0,0,0,0,-1,734,1737,0,0
-483,-713,0,0,0,0,0,0,0,0,0,-1,741,1737,0,0
-476,-713,0,0,0,0,0,0,0,0,0,-1,748,1737,0,0
-469,-713,0,0,0,0,0,0,0,0,0,-1,755,1737,0,0
-462,-713,0,0,0,0,0,0,0,0,0,-1,762,1737,0,0
-455,-713,0,0,0,0,0,0,0,0,0,-1,769,1737,0,0
-448,-713,0,0,0,0,0,0,0,0,0,-1,776,1737,0,0
-441,-713,0,0,0,0,0,0,0,0,0,-1,783,1737,0,0
-434,-713,0,0,0,0,0,0,0,0,0,-1,790,1737,0,0
-427,-713,0,0,0,0,0,0,0,0,0,-1,797,1737,0,0
-420,-713,0,0,0,0,0,0,0,0,0,-1,804,1737,0,0
-413,-713,0,0,0,0,0,0,0,0,0,-1,811,1737,0,0
-406,-713,0,0,0,0,0,0,0,0,0,-1,818,1737,0,0
-399,-713,0,0,0,0,0,0,0,0,0,-1,825,1737,0,0
-392,-713,0,0,0,0,0,0,0,0,0,-1,832,1737,0,0
-385,-713,0,0,0,0,0,0,0,0,0,-1,839,1737,0,0
-378,-713,0,0,0,0,0,0,0,0,0,-1,846,1737,0,0
-371,-713,0,0,0,0,0,0,0,0,0,-1,853,1737,0,0
-364,-713,0,0,0,0,0,0,0,0,0,-1,860,1737,0,0
-357,-713,0,0,0,0,0,0,0,0,0,-1,867,1737,0,0
-350,-713,0,0,0,0,0,0,0,0,0,-1,874,1737,0,0
-343,-713,0,0,0,0,0,0,0,0,0,-1,881,1737,0,0
-336,-713,0,0,0,0,0,0,0,0,0,-1,888,1737,0,0
-329,-713,0,0,0,0,0,0,0,0,0,-1,895,1737,0,0
-322,-713,0,0,0,0,0,0,0,0,0,-1,902,1737,0,0
-315,-713,0,0,0,0,0,0,0,0,0,-1,909,1737,0,0
-308,-713,0,0,0,0,0,0,0,0,0,-1,916,1737,0,0
-301,-713,0,0,0,0,0,0,0,0,0,-1,923,1737,0,0
-294,-713,7.17883,22.0453,0,0,0,0,0,0,0,-1,930,1737,7.17881,-22.0453
-287,-713,11.8916,21.5834,0,0,0,0,0,0,0,-1,937,1737,11.8916,-21.5833
-280,-713,10.2786,21.3551,0,0,0,0,0,0,0,-1,944,1737,10.2787,-21.3551
-273,-713,11.1981,23.8683,0,0,0,0,0,0,0,-1,951,1737,11.198,-23.8683
-266,-713,3.17981,19.8851,0,0,0,0,0,0,0,-1,958,1737,3.17983,-19.8851
-259,-713,3.5921,19.6868,0,0,0,0,0,0,0,-1,965,1737,3.59207,-19.6868
-252,-713,4.55469,20.5758,0,0,0,0,0,0,0,-1,972,1737,4.55466,-20.5758
-245,-713,3.89014,25.9825,0,0,0,0,0,0,0,-1,979,1737,3.89013,-25.9826
-238,-713,6.62506,30.5463,0,0,0,0,0,0,0,-1,986,1737,6.62509,-30.5462
-231,-713,9.13007,42.7439,0,0,0,0,0,0,0,-1,993,1737,9.13005,-42.7439
-224,-713,9.42334,42.7426,0,0,0,0,0,0,0,-1,1000,1737,9.42333,-42.7425
-217,-713,9.29926,42.8202,0,0,0,0,0,0,0,-1,1007,1737,9.29923,-42.8202
-210,-713,9.01208,43.1326,0,0,0,0,0,0,0,-1,1014,1737,9.01209,-43.1325
-203,-713,9.40979,43.8099,0,0,0,0,0,0,0,-1,1021,1737,9.40983,-43.8099
-196,-713,9.56445,44.6877,-0.0101329,0.000878454,-0.000134002,0.000880084,-0.0101345,-1.55863,0.00706797,0.0468239,1028,1737,9.56439,-44.6877
-189,-713,8.85559,44.7789,-0.00897858,5.569e-05,-0.00022883,6.14827e-05,-0.00898437,-1.54549,0.00601018,0.0442567,1035,1737,8.85563,-44.7789
-182,-713,8.95435,45.2322,-0.00835836,0.000161017,-0.000310039,0.000172285,-0.00836963,-1.53447,0.00563806,0.0279269,1042,1737,8.9544,-45.2322
-175,-713,9.09961,45.6605,-0.00764722,0.000477115,-0.0001306,0.000479213,-0.00764931,-1.55473,0.00526655,0.0258201,1049,1737,9.09964,-45.6605
-168,-713,9.19006,46.1096,-0.00701708,0.000920812,-1.28942e-05,0.000920834,-0.0070171,-1.56917,0.00501328,0.0306291,1056,1737,9.19005,-46.1096
-161,-713,9.05518,46.6042,-0.00658297,0.00133741,5.82388e-05,0.00133784,-0.0065834,1.56344,0.00489619,0.0143921,1063,1737,9.0552,-46.6042
-154,-713,8.97217,47.0092,-0.00621354,0.00179351,0.000153206,0.00179644,-0.00621647,1.55167,0.00485521,0.0116462,1070,1737,8.97217,-47.0092
-147,-713,8.94775,47.4189,-0.00576131,0.00237681,0.000397678,0.00239619,-0.0057807,1.52208,0.00485386,0.0183613,1077,1737,8.9477,-47.4189
-140,-713,8.9574,47.8118,-0.00475099,0.00309898,0.000820395,0.0031838,-0.00483582,1.46777,0.00466276,0.0182489,1084,1737,8.95745,-47.8118
-133,-713,8.90894,48.1512,-0.00410595,0.00326198,0.000857264,0.00336041,-0.00420438,1.45648,0.00437659,0.0121406,1091,1737,8.90894,-48.1513
-126,-713,8.8877,48.4827,-0.00378343,0.00347155,0.00104403,0.0036188,-0.00393068,1.43068,0.00435994,0.0191046,1098,1737,8.88769,-48.4826
-119,-713,8.89185,48.8046,-0.00324007,0.003455,0.0012363,0.003676,-0.00346106,1.39391,0.00412121,0.0281796,1105,1737,8.89187,-48.8045
-112,-713,8.82751,49.2196,-0.00238212,0.00343529,0.00139897,0.00375423,-0.00270106,1.34665,0.00374346,0.0149537,1112,1737,8.82757,-49.2196
-105,-713,8.81946,49.5441,-0.00159031,0.00319599,0.00138386,0.0035673,-0.00196162,1.30866,0.00323668,0.0116601,1119,1737,8.81943,-49.544
-98,-713,8.81921,49.8741,-0.000912445,0.00288149,0.00146543,0.0033816,-0.00141255,1.24192,0.00284466,0.0104891,1126,1737,8.81923,-49.8742
-91,-713,8.8092,50.1742,-0.000266331,0.00256205,0.00139578,0.00313485,-0.00083913,1.18137,0.00241863,0.0109635,1133,1737,8.80917,-50.1741
-84,-713,8.80237,50.4564,0.000242631,0.00246604,0.00126306,0.00303696,-0.000328287,1.14627,0.00214247,0.00998558,1140,1737,8.80233,-50.4564
-77,-713,8.81348,50.7295,0.000809188,0.002205,0.00107632,0.00278988,0.000224306,1.07303,0.00178984,0.0132707,1147,1737,8.81351,-50.7295
-70,-713,8.81445,51.0061,0.00112413,0.00184766,0.000752127,0.0023205,0.000651285,1.00956,0.00138204,0.0149042,1154,1737,8.81441,-51.0061
-63,-713,8.79053,51.2809,0.00131069,0.00156112,0.000495391,0.00194688,0.000924935,0.909188,0.0011245,0.0128045,1161,1737,8.79048,-51.2808
-56,-713,8.81372,51.5133,0.0016131,0.00147013,0.000402752,0.00195066,0.00113257,0.697564,0.00113108,0.0128212,1168,1737,8.81377,-51.5133
-49,-713,8.79041,51.7406,0.00190266,0.00130643,0.000243962,0.00198976,0.00121933,0.342915,0.00115849,0.0156593,1175,1737,8.79042,-51.7406
-42,-713,8.81323,51.9237,0.00251834,0.00107876,0.000341245,0.00259514,0.00100196,0.221352,0.00151121,0.0191594,1182,1737,8.81327,-51.9237
-35,-713,8.85608,52.1117,0.00319792,0.00163578,0.000678227,0.00345129,0.00138242,0.357521,0.0020057,0.0161424,1189,1737,8.85614,-52.1117
-28,-713,8.86865,52.308,0.00375815,0.00268999,0.000917233,0.00428546,0.00216267,0.521756,0.00247425,0.0137622,1196,1737,8.8687,-52.308
-21,-713,8.83704,52.5078,0.00425859,0.00374178,0.00121349,0.00524089,0.00275948,0.680494,0.00302725,0.00974342,1203,1737,8.83703,-52.5079
-14,-713,8.86584,52.6647,0.00478645,0.00468809,0.00158302,0.00632105,0.00315348,0.76987,0.00364947,0.0104985,1210,1737,8.86582,-52.6646
-7,-713,8.90002,52.8217,0.0053668,0.00616383,0.00194002,0.00774585,0.00378479,0.886698,0.00447245,0.00968391,1217,1737,8.90003,-52.8217
0,-713,8.93323,52.9567,0.00563964,0.00809433,0.00222405,0.00940721,0.00432675,1.03753,0.00543706,0.0159265,1224,1737,8.93328,-52.9567
7,-713,8.95508,53.0537,0.0057798,0.00970386,0.00243438,0.0108685,0.00461521,1.12458,0.00629862,0.0193166,1231,1737,8.95508,-53.0537
14,-713,8.97278,53.1683,0.00584725,0.0112182,0.00255708,0.0122409,0.00482457,1.19034,0.0071199,0.0134916,1238,1737,8.97283,-53.1683
21,-713,9.01233,53.2603,0.00658915,0.0123042,0.00264976,0.0133437,0.00554967,1.19695,0.00774021,0.0111087,1245,1737,9.0123,-53.2602
28,-713,9.01611,53.3418,0.00706008,0.0133393,0.00241932,0.0141633,0.00623607,1.24252,0.00819657,0.0119353,1252,1737,9.0161,-53.3418
35,-713,9.04565,53.4213,0.00726868,0.0139166,0.00207697,0.0145121,0.00667314,1.29155,0.00838757,0.0114537,1259,1737,9.04567,-53.4213
42,-713,9.11487,53.4756,0.0074488,0.0138135,0.00161794,0.0142012,0.00706112,1.33562,0.00819911,0.0106108,1266,1737,9.11485,-53.4756
49,-713,9.15332,53.4783,0.0074982,0.0132507,0.00110087,0.0134542,0.00729472,1.38802,0.00777699,0.0117273,1273,1737,9.15327,-53.4782
56,-713,9.1803,53.4906,0.00737361,0.0121891,0.000585211,0.0122592,0.00730351,1.45158,0.00712099,0.013124,1280,1737,9.18024,-53.4906
63,-713,9.21387,53.5109,0.0070882,0.0110005,-9.39793e-05,0.0110028,0.00708594,-1.54679,0.00643969,0.0129895,1287,1737,9.21387,-53.5108
70,-713,9.23853,53.5178,0.00683793,0.00899746,-0.00089919,0.00932284,0.00651255,-1.22359,0.0055222,0.0125684,1294,1737,9.23848,-53.5178
77,-713,9.25891,53.5225,0.00660539,0.0068165,-0.00136563,0.00808065,0.00534124,-0.823969,0.00474529,0.0131743,1301,1737,9.25896,-53.5224
84,-713,9.29016,53.5181,0.00623054,0.00501504,-0.00175609,0.00748107,0.00376451,-0.618808,0.00431923,0.0121544,1308,1737,9.29016,-53.5181
91,-713,9.32068,53.4584,0.00568597,0.00375201,-0.00206023,0.00699486,0.00244312,-0.565982,0.00409919,0.011833,1315,1737,9.32062,-53.4584
98,-713,9.33594,53.376,0.00505243,0.00228617,-0.00229245,0.00634668,0.000991912,-0.513962,0.0039423,0.0125085,1322,1737,9.33599,-53.376
105,-713,9.37097,53.313,0.00471781,0.000878694,-0.00237206,0.00584971,-0.000253197,-0.445224,0.00398688,0.0143166,1329,1737,9.37095,-53.3129
112,-713,9.39124,53.2429,0.00443301,0.000221,-0.00229629,0.00544281,-0.000788791,-0.414297,0.00391803,0.0139811,1336,1737,9.39122,-53.2429
119,-713,9.40222,53.1437,0.00408337,-0.000303882,-0.00216101,0.00496902,-0.00118953,-0.388954,0.00377224,0.0141255,1343,1737,9.40225,-53.1437
126,-713,9.4314,53.036,0.00334139,-0.000618255,-0.00200833,0.00418169,-0.00145855,-0.396273,0.00338054,0.013143,1350,1737,9.43142,-53.036
133,-713,9.46704,52.8778,0.00315255,-0.00101829,-0.00158675,0.00368757,-0.00155332,-0.325213,0.00310834,0.0118453,1357,1737,9.46704,-52.8778
140,-713,9.49976,52.6921,0.00326965,-0.000907823,-0.00120002,0.00358983,-0.001228,-0.260736,0.00289084,0.0131934,1364,1737,9.49978,-52.6921
147,-713,9.51392,52.5088,0.00330961,-0.000540006,-0.000799626,0.0034691,-0.000699494,-0.196869,0.00257773,0.0148831,1371,1737,9.51394,-52.5088
154,-713,9.52771,52.3967,0.00329573,-7.98601e-05,-0.000441698,0.00335257,-0.0001367,-0.12798,0.00228198,0.0152596,1378,1737,9.5277,-52.3967
161,-713,9.5448,52.1932,0.00320689,0.000373571,-0.000117954,0.00321179,0.000368669,-0.0415354,0.0020295,0.010841,1385,1737,9.54485,-52.1932
168,-713,9.56494,51.9851,0.00285511,0.000659394,0.000151733,0.00286554,0.000648958,0.0686692,0.00173498,0.00987622,1392,1737,9.565,-51.9851
175,-713,9.60022,51.7729,0.00243838,0.00106374,0.000427791,0.00256064,0.000941484,0.278365,0.00149554,0.0134384,1399,1737,9.60016,-51.7729
182,-713,9.58521,51.5564,0.0020667,0.00140242,0.000293909,0.00217807,0.00129105,0.362203,0.0012647,0.0120849,1406,1737,9.58524,-51.5564
189,-713,9.58667,51.3071,0.00173316,0.00158223,5.01847e-05,0.00174832,0.00156707,0.293425,0.00111007,0.0114875,1413,1737,9.58668,-51.3071
196,-713,9.59265,51.0609,0.00141535,0.00160743,-0.000182157,0.00171731,0.00130546,-1.028,0.00103527,0.013285,1420,1737,9.59266,-51.061
203,-713,9.58472,50.823,0.00107217,0.00146656,-0.000411438,0.00172562,0.000813112,-1.00887,0.000996838,0.0181238,1427,1737,9.5847,-50.823
210,-713,9.58948,50.5227,0.000790648,0.00154813,-0.000665598,0.0019352,0.000403579,-1.04406,0.00117886,0.014926,1434,1737,9.58945,-50.5227
217,-713,9.61426,50.2299,0.000506056,0.00135659,-0.000932172,0.00195592,-9.3273e-05,-0.999402,0.00133612,0.0122541,1441,1737,9.61427,-50.2299
224,-713,9.58936,49.9479,0.000174965,0.00121939,-0.00111979,0.00193275,-0.000538397,-1.00358,0.00150052,0.0129903,1448,1737,9.58937,-49.9479
231,-713,9.58179,49.6488,-0.000273032,0.000786914,-0.00126504,0.00162851,-0.00111462,-0.983761,0.00159298,0.0115829,1455,1737,9.58181,-49.6488
238,-713,9.57605,49.3074,-0.000631068,0.00043979,-0.00136827,0.00137366,-0.00156494,-0.971898,0.0016978,0.00838245,1462,1737,9.57605,-49.3074
245,-713,9.57043,48.9681,-0.00100125,0.000138656,-0.00144156,0.00111885,-0.00198144,-0.973653,0.0018129,0.0110676,1469,1737,9.57041,-48.9681
252,-713,9.56714,48.6332,-0.00144281,-0.000183217,-0.00146609,0.00078263,-0.00240866,-0.988267,0.00192056,0.0127801,1476,1737,9.56716,-48.6332
259,-713,9.55713,48.2784,-0.0018894,-0.000553305,-0.00142772,0.000354935,-0.00279764,-1.00422,0.00199396,0.0137073,1483,1737,9.55714,-48.2784
266,-713,9.50537,47.9496,-0.00232842,-0.000867089,-0.00135933,-5.44921e-05,-0.00314102,-1.032,0.00207609,0.0115475,1490,1737,9.50534,-47.9495
273,-713,9.47534,47.5962,-0.00274403,-0.00105836,-0.00130241,-0.000349857,-0.00345253,-1.07258,0.00219439,0.00937577,1497,1737,9.47535,-47.5963
280,-713,9.43591,47.2146,-0.00309517,-0.00106371,-0.00129018,-0.000437408,-0.00372147,-1.11886,0.00234879,0.010242,1504,1737,9.43594,-47.2146
287,-713,9.40283,46.8231,-0.00337216,-0.000603137,-0.00130415,-8.56253e-05,-0.00388967,-1.19304,0.00256505,0.0114606,1511,1737,9.40287,-46.8231
294,-713,9.38782,46.432,-0.00341949,0.000384466,-0.00132323,0.000799482,-0.0038345,-1.26687,0.00286032,0.0164467,1518,1737,9.38776,-46.432
301,-713,9.33667,46.0049,-0.00328,0.00167519,-0.00170594,0.0022057,-0.00381051,-1.2693,0.00351441,0.0207105,1525,1737,9.3367,-46.0049
308,-713,9.27612,45.583,-0.00313419,0.00328783,-0.00249578,0.0041437,-0.00399005,-1.24044,0.0046963,0.026441,1532,1737,9.27612,-45.583
315,-713,9.29541,45.1791,-0.00305736,0.0053742,-0.00312033,0.00640335,-0.0040865,-1.25221,0.00610536,0.0359021,1539,1737,9.29546,-45.1791
322,-713,9.19482,44.7633,0,0,0,0,0,0,0,-1,1546,1737,9.19484,-44.7632
329,-713,9.38159,44.1224,0,0,0,0,0,0,0,-1,1553,1737,9.38155,-44.1224
336,-713,9.37866,43.5508,0,0,0,0,0,0,0,-1,1560,1737,9.37868,-43.5508
343,-713,8.82922,43.0013,0,0,0,0,0,0,0,-1,1567,1737,8.82917,-43.0013
350,-713,8.88477,42.7078,0,0,0,0,0,0,0,-1,1574,1737,8.88477,-42.7078
357,-713,9.27222,42.1339,0,0,0,0,0,0,0,-1,1581,1737,9.27219,-42.1339
364,-713,10.9951,42.7886,0,0,0,0,0,0,0,-1,1588,1737,10.9951,-42.7886
371,-713,3.07507,25.4108,0,0,0,0,0,0,0,-1,1595,1737,3.07502,-25.4107
378,-713,5.16516,38.248,0,0,0,0,0,0,0,-1,1602,1737,5.16511,-38.248
385,-713,5.6416,36.8367,0,0,0,0,0,0,0,-1,1609,1737,5.64155,-36.8367
392,-713,5.11096,36.6809,0,0,0,0,0,0,0,-1,1616,1737,5.11091,-36.6809
399,-713,4.47375,36.4706,0,0,0,0,0,0,0,-1,1623,1737,4.47376,-36.4706
406,-713,2.30334,27.5551,0,0,0,0,0,0,0,-1,1630,1737,2.30332,-27.555
413,-713,8.05823,41.6907,0,0,0,0,0,0,0,-1,1637,1737,8.05819,-41.6907
420,-713,0,0,0,0,0,0,0,0,0,-1,1644,1737,0,0
427,-713,0,0,0,0,0,0,0,0,0,-1,1651,1737,0,0
434,-713,0,0,0,0,0,0,0,0,0,-1,1658,1737,0,0
441,-713,0,0,0,0,0,0,0,0,0,-1,1665,1737,0,0
448,-713,0,0,0,0,0,0,0,0,0,-1,1672,1737,0,0
455,-713,0,0,0,0,0,0,0,0,0,-1,1679,1737,0,0
462,-713,0,0,0,0,0,0,0,0,0,-1,1686,1737,0,0
469,-713,0,0,0,0,0,0,0,0,0,-1,1693,1737,0,0
476,-713,0,0,0,0,0,0,0,0,0,-1,1700,1737,0,0
483,-713,0,0,0,0,0,0,0,0,0,-1,1707,1737,0,0
490,-713,0,0,0,0,0,0,0,0,0,-1,1714,1737,0,0
497,-713,0,0,0,0,0,0,0,0,0,-1,1721,1737,0,0
504,-713,0,0,0,0,0,0,0,0,0,-1,1728,1737,0,0
511,-713,0,0,0,0,0,0,0,0,0,-1,1735,1737,0,0
518,-713,0,0,0,0,0,0,0,0,0,-1,1742,1737,0,0
525,-713,0,0,0,0,0,0,0,0,0,-1,1749,1737,0,0
532,-713,0,0,0,0,0,0,0,0,0,-1,1756,1737,0,0
539,-713,0,0,0,0,0,0,0,0,0,-1,1763,1737,0,0
546,-713,0,0,0,0,0,0,0,0,0,-1,1770,1737,0,0
553,-713,0,0,0,0,0,0,0,0,0,-1,1777,1737,0,0
560,-713,0,0,0,0,0,0,0,0,0,-1,1784,1737,0,0
567,-713,0,0,0,0,0,0,0,0,0,-1,1791,1737,0,0
574,-713,0,0,0,0,0,0,0,0,0,-1,1798,1737,0,0
581,-713,0,0,0,0,0,0,0,0,0,-1,1805,1737,0,0
588,-713,0,0,0,0,0,0,0,0,0,-1,1812,1737,0,0
595,-713,0,0,0,0,0,0,0,0,0,-1,1819,1737,0,0
602,-713,0,0,0,0,0,0,0,0,0,-1,1826,1737,0,0
609,-713,0,0,0,0,0,0,0,0,0,-1,1833,1737,0,0
616,-713,0,0,0,0,0,0,0,0,0,-1,1840,1737,0,0
623,-713,0,0,0,0,0,0,0,0,0,-1,1847,1737,0,0
630,-713,0,0,0,0,0,0,0,0,0,-1,1854,1737,0,0
637,-713,0,0,0,0,0,0,0,0,0,-1,1861,1737,0,0
644,-713,0,0,0,0,0,0,0,0,0,-1,1868,1737,0,0
651,-713,0,0,0,0,0,0,0,0,0,-1,1875,1737,0,0
658,-713,0,0,0,0,0,0,0,0,0,-1,1882,1737,0,0
665,-713,0,0,0,0,0,0,0,0,0,-1,1889,1737,0,0
672,-713,0,0,0,0,0,0,0,0,0,-1,1896,1737,0,0
679,-713,0,0,0,0,0,0,0,0,0,-1,1903,1737,0,0
686,-713,0,0,0,0,0,0,0,0,0,-1,1910,1737,0,0
693,-713,0,0,0,0,0,0,0,0,0,-1,1917,1737,0,0
700,-713,0,0,0,0,0,0,0,0,0,-1,1924,1737,0,0
707,-713,0,0,0,0,0,0,0,0,0,-1,1931,1737,0,0
714,-713,0,0,0,0,0,0,0,0,0,-1,1938,1737,0,0
721,-713,0,0,0,0,0,0,0,0,0,-1,1945,1737,0,0
728,-713,0,0,0,0,0,0,0,0,0,-1,1952,1737,0,0
735,-713,0,0,0,0,0,0,0,0,0,-1,1959,1737,0,0
742,-713,0,0,0,0,0,0,0,0,0,-1,1966,1737,0,0
749,-713,0,0,0,0,0,0,0,0,0,-1,1973,1737,0,0
756,-713,0,0,0,0,0,0,0,0,0,-1,1980,1737,0,0
763,-713,0,0,0,0,0,0,0,0,0,-1,1987,1737,0,0
770,-713,0,0,0,0,0,0,0,0,0,-1,1994,1737,0,0
777,-713,0,0,0,0,0,0,0,0,0,-1,2001,1737,0,0
784,-713,0,0,0,0,0,0,0,0,0,-1,2008,1737,0,0
791,-713,0,0,0,0,0,0,0,0,0,-1,2015,1737,0,0
798,-713,0,0,0,0,0,0,0,0,0,-1,2022,1737,0,0
805,-713,0,0,0,0,0,0,0,0,0,-1,2029,1737,0,0
812,-713,0,0,0,0,0,0,0,0,0,-1,2036,1737,0,0
-700,-720,0,0,0,0,0,0,0,0,0,-1,524,1744,0,0
-693,-720,0,0,0,0,0,0,0,0,0,-1,531,1744,0,0
-686,-720,0,0,0,0,0,0,0,0,0,-1,538,1744,0,0
-679,-720,0,0,0,0,0,0,0,0,0,-1,545,1744,0,0
-672,-720,0,0,0,0,0,0,0,0,0,-1,552,1744,0,0
-665,-720,0,0,0,0,0,0,0,0,0,-1,559,1744,0,0
-658,-720,0,0,0,0,0,0,0,0,0,-1,566,1744,0,0
-651,-720,0,0,0,0,0,0,0,0,0,-1,573,1744,0,0
-644,-720,0,0,0,0,0,0,0,0,0,-1,580,1744,0,0
-637,-720,0,0,0,0,0,0,0,0,0,-1,587,1744,0,0
-630,-720,0,0,0,0,0,0,0,0,0,-1,594,1744,0,0
-623,-720,0,0,0,0,0,0,0,0,0,-1,601,1744,0,0
-616,-720,0,0,0,0,0,0,0,0,0,-1,608,1744,0,0
-609,-720,0,0,0,0,0,0,0,0,0,-1,615,1744,0,0
-602,-720,0,0,0,0,0,0,0,0,0,-1,622,1744,0,0
-595,-720,0,0,0,0,0,0,0,0,0,-1,629,1744,0,0
-588,-720,0,0,0,0,0,0,0,0,0,-1,636,1744,0,0
-581,-720,0,0,0,0,0,0,0,0,0,-1,643,1744,0,0
-574,-720,0,0,0,0,0,0,0,0,0,-1,650,1744,0,0
-567,-720,0,0,0,0,0,0,0,0,0,-1,657,1744,0,0
-560,-720,0,0,0,0,0,0,0,0,0,-1,664,1744,0,0
-553,-720,0,0,0,0,0,0,0,0,0,-1,671,1744,0,0
-546,-720,0,0,0,0,0,0,0,0,0,-1,678,1744,0,0
-539,-720,0,0,0,0,0,0,0,0,0,-1,685,1744,0,0
-532,-720,0,0,0,0,0,0,0,0,0,-1,692,1744,0,0
-525,-720,0,0,0,0,0,0,0,0,0,-1,699,1744,0,0
-518,-720,0,0,0,0,0,0,0,0,0,-1,706,1744,0,0
-511,-720,0,0,0,0,0,0,0,0,0,-1,713,1744,0,0
-504,-720,0,0,0,0,0,0,0,0,0,-1,720,1744,0,0
-497,-720,0,0,0,0,0,0,0,0,0,-1,727,1744,0,0
-490,-720,0,0,0,0,0,0,0,0,0,-1,734,1744,0,0
-483,-720,0,0,0,0,0,0,0,0,0,-1,741,1744,0,0
-476,-720,0,0,0,0,0,0,0,0,0,-1,748,1744,0,0
-469,-720,0,0,0,0,0,0,0,0,0,-1,755,1744,0,0
-462,-720,0,0,0,0,0,0,0,0,0,-1,762,1744,0,0
-455,-720,0,0,0,0,0,0,0,0,0,-1,769,1744,0,0
-448,-720,0,0,0,0,0,0,0,0,0,-1,776,1744,0,0
-441,-720,0,0,0,0,0,0,0,0,0,-1,783,1744,0,0
-434,-720,0,0,0,0,0,0,0,0,0,-1,790,1744,0,0
-427,-720,0,0,0,0,0,0,0,0,0,-1,797,1744,0,0
-420,-720,0,0,0,0,0,0,0,0,0,-1,804,1744,0,0
-413,-720,0,0,0,0,0,0,0,0,0,-1,811,1744,0,0
-406,-720,0,0,0,0,0,0,0,0,0,-1,818,1744,0,0
-399,-720,0,0,0,0,0,0,0,0,0,-1,825,1744,0,0
-392,-720,0,0,0,0,0,0,0,0,0,-1,832,1744,0,0
-385,-720,0,0,0,0,0,0,0,0,0,-1,839,1744,0,0
-378,-720,0,0,0,0,0,0,0,0,0,-1,846,1744,0,0
-371,-720,0,0,0,0,0,0,0,0,0,-1,853,1744,0,0
-364,-720,0,0,0,0,0,0,0,0,0,-1,860,1744,0,0
-357,-720,0,0,0,0,0,0,0,0,0,-1,867,1744,0,0
-350,-720,0,0,0,0,0,0,0,0,0,-1,874,1744,0,0
-343,-720,0,0,0,0,0,0,0,0,0,-1,881,1744,0,0
-336,-720,0,0,0,0,0,0,0,0,0,-1,888,1744,0,0
-329,-720,0,0,0,0,0,0,0,0,0,-1,895,1744,0,0
-322,-720,0,0,0,0,0,0,0,0,0,-1,902,1744,0,0
-315,-720,0,0,0,0,0,0,0,0,0,-1,909,1744,0,0
-308,-720,0,0,0,0,0,0,0,0,0,-1,916,1744,0,0
-301,-720,0,0,0,0,0,0,0,0,0,-1,923,1744,0,0
-294,-720,0,0,0,0,0,0,0,0,0,-1,930,1744,0,0
-287,-720,0,0,0,0,0,0,0,0,0,-1,937,1744,0,0
-280,-720,6.46796,22.6417,0,0,0,0,0,0,0,-1,944,1744,6.46793,-22.6417
-273,-720,8.54633,13.262,0,0,0,0,0,0,0,-1,951,1744,8.54636,-13.2619
-266,-720,7.28027,13.3165,0,0,0,0,0,0,0,-1,958,1744,7.28026,-13.3166
-259,-720,3.70563,18.6372,0,0,0,0,0,0,0,-1,965,1744,3.70564,-18.6372
-252,-720,4.00989,18.5059,0,0,0,0,0,0,0,-1,972,1744,4.00988,-18.5058
-245,-720,7.05634,33.8489,0,0,0,0,0,0,0,-1,979,1744,7.05634,-33.8489
-238,-720,5.02216,24.1455,0,0,0,0,0,0,0,-1,986,1744,5.02217,-24.1455
-231,-720,9.41913,43.8226,0,0,0,0,0,0,0,-1,993,1744,9.41913,-43.8226
-224,-720,10.0883,43.5352,0,0,0,0,0,0,0,-1,1000,1744,10.0883,-43.5352
-217,-720,10.7575,43.2478,0,0,0,0,0,0,0,-1,1007,1744,10.7575,-43.2478
-210,-720,8.74036,38.6686,0,0,0,0,0,0,0,-1,1014,1744,8.74035,-38.6686
-203,-720,7.89978,34.8447,0,0,0,0,0,0,0,-1,1021,1744,7.89975,-34.8447
-196,-720,10.2157,45.0936,0,0,0,0,0,0,0,-1,1028,1744,10.2157,-45.0936
-189,-720,9.53918,44.9958,0,0,0,0,0,0,0,-1,1035,1744,9.53922,-44.9959
-182,-720,9.52869,45.4391,-0.0111293,0.000195604,-0.00123138,0.000327949,-0.0112616,-1.46373,0.0076194,0.0422195,1042,1744,9.52866,-45.439
-175,-720,9.64661,45.8699,-0.0103581,0.000990699,-0.000880007,0.00105853,-0.0104259,-1.49387,0.00732896,0.0404097,1049,1744,9.64662,-45.8698
-168,-720,9.61658,46.2192,-0.00964821,0.00168655,-0.000624768,0.00172088,-0.00968255,-1.5159,0.00709853,0.0426695,1056,1744,9.61662,-46.2192
-161,-720,9.31177,46.606,-0.0091891,0.00234736,-0.000428454,0.00236325,-0.00920499,-1.53373,0.00705756,0.0310886,1063,1744,9.31182,-46.6059
-154,-720,9.38879,47.0597,-0.00884233,0.00298001,-0.000196315,0.00298327,-0.00884559,-1.5542,0.00710346,0.0222262,1070,1744,9.38879,-47.0597
-147,-720,9.33789,47.5,-0.00838843,0.00369753,0.000199069,0.00370081,-0.0083917,1.55433,0.00715457,0.0208317,1077,1744,9.33788,-47.5001
-140,-720,9.31689,47.8955,-0.00722986,0.00456584,0.00081676,0.00462212,-0.00728615,1.50199,0.00693235,0.0188336,1084,1744,9.31687,-47.8956
-133,-720,9.24927,48.1815,-0.00653227,0.00471247,0.000942961,0.00479099,-0.0066108,1.48771,0.00661072,0.0150226,1091,1744,9.24923,-48.1815
-126,-720,9.22119,48.5369,-0.0062166,0.0049207,0.00125179,0.00505966,-0.00635557,1.46024,0.00660473,0.0146615,1098,1744,9.22113,-48.5369
-119,-720,9.18408,48.8837,-0.005595,0.0048189,0.00154278,0.00504265,-0.00581875,1.42677,0.00627617,0.0155371,1105,1744,9.18404,-48.8837
-112,-720,9.13965,49.2107,-0.00453797,0.004796,0.00182725,0.00514096,-0.00488293,1.38421,0.00578793,0.0146041,1112,1744,9.13966,-49.2107
-105,-720,9.1311,49.536,-0.00355834,0.00448811,0.00189548,0.00491226,-0.0039825,1.35065,0.00514473,0.0144345,1119,1744,9.13114,-49.536
-98,-720,9.12097,49.8585,-0.00269607,0.00406073,0.00212056,0.00467111,-0.00330645,1.29053,0.00462825,0.011691,1126,1744,9.12092,-49.8585
-91,-720,9.10376,50.1553,-0.00186676,0.00356698,0.00214529,0.00431185,-0.00261163,1.23661,0.00403725,0.0102655,1133,1744,9.10373,-50.1553
-84,-720,9.08582,50.4553,-0.00125925,0.00341029,0.00209107,0.0042098,-0.00205876,1.2056,0.0036895,0.0106544,1140,1744,9.08588,-50.4553
-77,-720,9.07324,50.7476,-0.000489572,0.00289742,0.00204027,0.00385545,-0.00144761,1.13179,0.00316518,0.01389,1147,1744,9.07326,-50.7476
-70,-720,9.05994,51.0197,-0.00013383,0.00240176,0.00170626,0.00325967,-0.00099174,1.10491,0.00256833,0.0120551,1154,1744,9.05996,-51.0196
-63,-720,9.03589,51.276,-9.12472e-05,0.00207904,0.00132121,0.00270361,-0.00071582,1.1292,0.00208243,0.0110255,1161,1744,9.03594,-51.276
-56,-720,9.04553,51.5222,9.24132e-05,0.0019213,0.00105011,0.00239931,-0.000385599,1.14362,0.00174236,0.013107,1168,1744,9.0455,-51.5222
-49,-720,9.03076,51.7598,0.000340991,0.00169895,0.000810699,0.00207744,-3.75017e-05,1.134,0.00139763,0.0187394,1175,1744,9.03081,-51.7597
-42,-720,9.05994,51.9287,0.000599725,0.00139654,0.000635186,0.00174793,0.00024834,1.0655,0.00109196,0.0219106,1182,1744,9.05997,-51.9287
-35,-720,9.07336,52.1136,0.000923066,0.00125587,0.000641779,0.00175247,0.000426468,0.912247,0.00105528,0.0198657,1189,1744,9.07334,-52.1136
-28,-720,9.04688,52.3159,0.00126587,0.00135945,0.000715594,0.00202978,0.000595537,0.818042,0.00120478,0.0111749,1196,1744,9.0469,-52.3159
-21,-720,9.01514,52.5187,0.0016396,0.00164553,0.000875601,0.00251817,0.000766958,0.787093,0.00149042,0.00912193,1203,1744,9.0151,-52.5187
-14,-720,9.00854,52.674,0.00203967,0.00203806,0.00112489,0.00316376,0.000913978,0.78504,0.00188008,0.0110401,1210,1744,9.00858,-52.6739
-7,-720,9.02954,52.849,0.00245725,0.00267843,0.00137048,0.00394277,0.0011929,0.825658,0.00233477,0.0120306,1217,1744,9.02959,-52.849
0,-720,9.05164,52.9846,0.00285369,0.00370783,0.00165476,0.00498974,0.00157178,0.911686,0.00294582,0.0131411,1224,1744,9.05162,-52.9847
7,-720,9.07129,53.071,0.00318561,0.00471843,0.00187928,0.00598157,0.00192247,0.979014,0.00352614,0.0160177,1231,1744,9.07124,-53.0711
14,-720,9.09253,53.179,0.00342873,0.00570654,0.00200707,0.00687532,0.00225994,1.04347,0.00404637,0.0145638,1238,1744,9.09251,-53.179
21,-720,9.09424,53.2821,0.00361954,0.00653255,0.00202914,0.0075738,0.00257828,1.09668,0.00444635,0.0115704,1245,1744,9.09427,-53.2821
28,-720,9.09387,53.358,0.00368866,0.00741199,0.00195654,0.00825103,0.00284962,1.16568,0.00483908,0.0120988,1252,1744,9.09383,-53.358
35,-720,9.10925,53.4355,0.00370119,0.00800646,0.00176474,0.00863738,0.00307028,1.22745,0.00505577,0.0117074,1259,1744,9.10922,-53.4356
42,-720,9.13708,53.4835,0.0035975,0.00816213,0.00147357,0.0085965,0.00316313,1.28414,0.00502055,0.0115071,1266,1744,9.1371,-53.4836
49,-720,9.16113,53.4895,0.00331707,0.00800922,0.00112996,0.00826716,0.00305913,1.34637,0.00482649,0.0121424,1273,1744,9.16108,-53.4895
56,-720,9.17871,53.5133,0.00290729,0.00754777,0.000780924,0.00767566,0.00277939,1.40847,0.00448737,0.0113235,1280,1744,9.17867,-53.5133
63,-720,9.20142,53.5248,0.00251429,0.00702766,0.000381214,0.00705963,0.00248232,1.48712,0.00413527,0.0126316,1287,1744,9.20139,-53.5247
70,-720,9.22705,53.5295,0.00229899,0.00584368,-0.000118629,0.00584764,0.00229503,-1.53738,0.00340206,0.0130956,1294,1744,9.22705,-53.5295
77,-720,9.23303,53.5116,0.00217418,0.00446917,-0.000392872,0.00453456,0.00210879,-1.40586,0.00262016,0.0148432,1301,1744,9.23299,-53.5117
84,-720,9.2406,53.464,0.00203134,0.00325452,-0.000605557,0.00350359,0.00178226,-1.18058,0.0020229,0.0140997,1308,1744,9.24062,-53.4639
91,-720,9.25354,53.4258,0.00193953,0.00238004,-0.000757181,0.00294835,0.00137122,-0.926937,0.00170362,0.0139348,1315,1744,9.25348,-53.4258
98,-720,9.24121,53.3705,0.00185038,0.0014438,-0.000842769,0.00251403,0.000780153,-0.66705,0.00148589,0.0129156,1322,1744,9.24126,-53.3705
105,-720,9.26465,53.3064,0.00188118,0.000500015,-0.00088422,0.00231254,6.86573e-05,-0.453872,0.00151932,0.0116179,1329,1744,9.26469,-53.3064
112,-720,9.2937,53.2231,0.00201422,-3.41074e-05,-0.000814441,0.00229857,-0.000318464,-0.335912,0.00164882,0.011162,1336,1744,9.29371,-53.2232
119,-720,9.30334,53.1243,0.0021026,-0.000425161,-0.000731033,0.00229879,-0.00062135,-0.262195,0.00177624,0.0120032,1343,1744,9.3033,-53.1242
126,-720,9.32715,53.0206,0.00211798,-0.000617948,-0.000614873,0.00224981,-0.000749782,-0.211211,0.00180255,0.0116265,1350,1744,9.32718,-53.0206
133,-720,9.33691,52.8768,0.00208906,-0.000755118,-0.000464112,0.00216287,-0.000828936,-0.157731,0.00178363,0.0121188,1357,1744,9.33694,-52.8769
140,-720,9.35095,52.7253,0.00197772,-0.000462289,-0.00029374,0.00201258,-0.000497153,-0.118136,0.00153452,0.0189543,1364,1744,9.35096,-52.7253
147,-720,9.34558,52.5414,0.0018388,-4.16134e-05,-0.000126804,0.00184731,-5.01259e-05,-0.0670298,0.00124859,0.0200971,1371,1744,9.34557,-52.5414
154,-720,9.33447,52.3646,0.00166833,0.000405024,-2.76092e-05,0.00166893,0.000404421,-0.0218409,0.0010053,0.0130238,1378,1744,9.33451,-52.3646
161,-720,9.36108,52.1816,0.00145867,0.000818424,1.38539e-05,0.00145897,0.000818124,0.021625,0.000844405,0.00921204,1385,1744,9.36107,-52.1816
168,-720,9.38184,51.9877,0.00107998,0.00106186,-6.27647e-05,0.00113433,0.0010075,-0.713742,0.000717691,0.00951507,1392,1744,9.38187,-51.9876
175,-720,9.36475,51.7616,0.000690018,0.00135103,-0.000200221,0.00140695,0.000634101,-1.29846,0.000813618,0.0150043,1399,1744,9.36477,-51.7615
182,-720,9.3656,51.5507,0.000388512,0.0016071,-0.000450652,0.00175565,0.000239962,-1.25238,0.00109921,0.0147866,1406,1744,9.36565,-51.5507
189,-720,9.37463,51.3292,0.000216653,0.00181949,-0.000711766,0.00208993,-5.37875e-05,-1.20769,0.00141156,0.0133299,1413,1744,9.37463,-51.3293
196,-720,9.36511,51.064,-1.38249e-05,0.00172311,-0.00100656,0.00218408,-0.000474796,-1.14134,0.00163743,0.0143312,1420,1744,9.36512,-51.0639
203,-720,9.31763,50.7872,-0.000337383,0.00141091,-0.00126922,0.00207788,-0.00100435,-1.08696,0.00181515,0.0161195,1427,1744,9.31759,-50.7872
210,-720,9.3075,50.5209,-0.000456609,0.00164449,-0.00154849,0.00246517,-0.00127729,-1.08345,0.00219669,0.0143566,1434,1744,9.30753,-50.5209
217,-720,9.32739,50.2238,-0.000557137,0.00140492,-0.00172468,0.00240807,-0.00156028,-1.04399,0.00230849,0.0136033,1441,1744,9.32737,-50.2238
224,-720,9.2981,49.9202,-0.000875283,0.00120583,-0.00185606,0.00229312,-0.00196257,-1.04088,0.00245949,0.0102003,1448,1744,9.29814,-49.9202
231,-720,9.28625,49.6316,-0.00138609,0.000538703,-0.00192772,0.00173091,-0.0025783,-1.01692,0.0025039,0.0100245,1455,1744,9.28631,-49.6316
238,-720,9.27734,49.2952,-0.00176716,5.55146e-05,-0.00196691,0.00131196,-0.00302361,-1.00234,0.00256734,0.00884231,1462,1744,9.2773,-49.2952
245,-720,9.24634,48.9845,-0.00215746,-0.000335602,-0.00199548,0.000947039,-0.0034401,-0.999519,0.00266576,0.0112251,1469,1744,9.2463,-48.9845
252,-720,9.23804,48.6558,-0.00263698,-0.000748477,-0.00196614,0.000488402,-0.00387386,-1.00926,0.00275982,0.0119143,1476,1744,9.23808,-48.6558
259,-720,9.21191,48.3053,-0.00313302,-0.00121243,-0.00186598,-7.4141e-05,-0.00427131,-1.02304,0.00282315,0.010708,1483,1744,9.21185,-48.3054
266,-720,9.16736,47.958,-0.00361993,-0.00157928,-0.00173565,-0.000586265,-0.00461295,-1.05112,0.0028997,0.00842576,1490,1744,9.16741,-47.958
273,-720,9.13074,47.5916,-0.00407846,-0.00177596,-0.00164934,-0.000915817,-0.0049386,-1.09009,0.00303356,0.0129529,1497,1744,9.13078,-47.5915
280,-720,9.05042,47.2222,-0.0044477,-0.00171594,-0.00161522,-0.000966505,-0.00519714,-1.13637,0.00319175,0.0162325,1504,1744,9.05036,-47.2221
287,-720,8.96326,46.8002,-0.00472458,-0.00105522,-0.00162266,-0.000440598,-0.0053392,-1.20872,0.00342207,0.0258026,1511,1744,8.96329,-46.8002
294,-720,8.95386,46.3093,-0.00471889,0.000293757,-0.00163762,0.000781335,-0.00520647,-1.28142,0.00375859,0.0368721,1518,1744,8.95387,-46.3094
301,-720,8.91931,45.952,-0.00443564,0.00208427,-0.00207307,0.0026876,-0.00503896,-1.28759,0.00452926,0.0483987,1525,1744,8.91929,-45.952
308,-720,8.8761,45.6074,0,0,0,0,0,0,0,-1,1532,1744,8.87608,-45.6074
315,-720,8.82898,45.1826,0,0,0,0,0,0,0,-1,1539,1744,8.82896,-45.1826
322,-720,8.98181,43.5223,0,0,0,0,0,0,0,-1,1546,1744,8.98176,-43.5223
329,-720,9.15906,34.7668,0,0,0,0,0,0,0,-1,1553,1744,9.1591,-34.7669
336,-720,6.14148,26.5682,0,0,0,0,0,0,0,-1,1560,1744,6.14151,-26.5683
343,-720,6.78552,21.3625,0,0,0,0,0,0,0,-1,1567,1744,6.78551,-21.3625
350,-720,4.0741,11.1836,0,0,0,0,0,0,0,-1,1574,1744,4.07412,-11.1836
357,-720,6.90833,21.4504,0,0,0,0,0,0,0,-1,1581,1744,6.90827,-21.4505
364,-720,5.83777,24.1599,0,0,0,0,0,0,0,-1,1588,1744,5.83773,-24.1599
371,-720,5.46997,23.6176,0,0,0,0,0,0,0,-1,1595,1744,5.47001,-23.6176
378,-720,3.88257,25.5404,0,0,0,0,0,0,0,-1,1602,1744,3.88262,-25.5404
385,-720,4.672,37.3854,0,0,0,0,0,0,0,-1,1609,1744,4.67202,-37.3854
392,-720,4.89319,36.2684,0,0,0,0,0,0,0,-1,1616,1744,4.89323,-36.2684
399,-720,2.37317,24.7166,0,0,0,0,0,0,0,-1,1623,1744,2.37317,-24.7166
406,-720,0,0,0,0,0,0,0,0,0,-1,1630,1744,0,0
413,-720,0,0,0,0,0,0,0,0,0,-1,1637,1744,0,0
420,-720,0,0,0,0,0,0,0,0,0,-1,1644,1744,0,0
427,-720,0,0,0,0,0,0,0,0,0,-1,1651,1744,0,0
434,-720,0,0,0,0,0,0,0,0,0,-1,1658,1744,0,0
441,-720,0,0,0,0,0,0,0,0,0,-1,1665,1744,0,0
448,-720,0,0,0,0,0,0,0,0,0,-1,1672,1744,0,0
455,-720,0,0,0,0,0,0,0,0,0,-1,1679,1744,0,0
462,-720,0,0,0,0,0,0,0,0,0,-1,1686,1744,0,0
469,-720,0,0,0,0,0,0,0,0,0,-1,1693,1744,0,0
476,-720,0,0,0,0,0,0,0,0,0,-1,1700,1744,0,0
483,-720,0,0,0,0,0,0,0,0,0,-1,1707,1744,0,0
490,-720,0,0,0,0,0,0,0,0,0,-1,1714,1744,0,0
497,-720,0,0,0,0,0,0,0,0,0,-1,1721,1744,0,0
504,-720,0,0,0,0,0,0,0,0,0,-1,1728,1744,0,0
511,-720,0,0,0,0,0,0,0,0,0,-1,1735,1744,0,0
518,-720,0,0,0,0,0,0,0,0,0,-1,1742,1744,0,0
525,-720,0,0,0,0,0,0,0,0,0,-1,1749,1744,0,0
532,-720,0,0,0,0,0,0,0,0,0,-1,1756,1744,0,0
539,-720,0,0,0,0,0,0,0,0,0,-1,1763,1744,0,0
546,-720,0,0,0,0,0,0,0,0,0,-1,1770,1744,0,0
553,-720,0,0,0,0,0,0,0,0,0,-1,1777,1744,0,0
560,-720,0,0,0,0,0,0,0,0,0,-1,1784,1744,0,0
567,-720,0,0,0,0,0,0,0,0,0,-1,1791,1744,0,0
574,-720,0,0,0,0,0,0,0,0,0,-1,1798,1744,0,0
581,-720,0,0,0,0,0,0,0,0,0,-1,1805,1744,0,0
588,-720,0,0,0,0,0,0,0,0,0,-1,1812,1744,0,0
595,-720,0,0,0,0,0,0,0,0,0,-1,1819,1744,0,0
602,-720,0,0,0,0,0,0,0,0,0,-1,1826,1744,0,0
609,-720,0,0,0,0,0,0,0,0,0,-1,1833,1744,0,0
616,-720,0,0,0,0,0,0,0,0,0,-1,1840,1744,0,0
623,-720,0,0,0,0,0,0,0,0,0,-1,1847,1744,0,0
630,-720,0,0,0,0,0,0,0,0,0,-1,1854,1744,0,0
637,-720,0,0,0,0,0,0,0,0,0,-1,1861,1744,0,0
644,-720,0,0,0,0,0,0,0,0,0,-1,1868,1744,0,0
651,-720,0,0,0,0,0,0,0,0,0,-1,1875,1744,0,0
658,-720,0,0,0,0,0,0,0,0,0,-1,1882,1744,0,0
665,-720,0,0,0,0,0,0,0,0,0,-1,1889,1744,0,0
672,-720,0,0,0,0,0,0,0,0,0,-1,1896,1744,0,0
679,-720,0,0,0,0,0,0,0,0,0,-1,1903,1744,0,0
686,-720,0,0,0,0,0,0,0,0,0,-1,1910,1744,0,0
693,-720,0,0,0,0,0,0,0,0,0,-1,1917,1744,0,0
700,-720,0,0,0,0,0,0,0,0,0,-1,1924,1744,0,0
707,-720,0,0,0,0,0,0,0,0,0,-1,1931,1744,0,0
714,-720,0,0,0,0,0,0,0,0,0,-1,1938,1744,0,0
721,-720,0,0,0,0,0,0,0,0,0,-1,1945,1744,0,0
728,-720,0,0,0,0,0,0,0,0,0,-1,1952,1744,0,0
735,-720,0,0,0,0,0,0,0,0,0,-1,1959,1744,0,0
742,-720,0,0,0,0,0,0,0,0,0,-1,1966,1744,0,0
749,-720,0,0,0,0,0,0,0,0,0,-1,1973,1744,0,0
756,-720,0,0,0,0,0,0,0,0,0,-1,1980,1744,0,0
763,-720,0,0,0,0,0,0,0,0,0,-1,1987,1744,0,0
770,-720,0,0,0,0,0,0,0,0,0,-1,1994,1744,0,0
777,-720,0,0,0,0,0,0,0,0,0,-1,2001,1744,0,0
784,-720,0,0,0,0,0,0,0,0,0,-1,2008,1744,0,0
791,-720,0,0,0,0,0,0,0,0,0,-1,2015,1744,0,0
798,-720,0,0,0,0,0,0,0,0,0,-1,2022,1744,0,0
805,-720,0,0,0,0,0,0,0,0,0,-1,2029,1744,0,0
812,-720,0,0,0,0,0,0,0,0,0,-1,2036,1744,0,0
-700,-727,0,0,0,0,0,0,0,0,0,-1,524,1751,0,0
-693,-727,0,0,0,0,0,0,0,0,0,-1,531,1751,0,0
-686,-727,0,0,0,0,0,0,0,0,0,-1,538,1751,0,0
-679,-727,0,0,0,0,0,0,0,0,0,-1,545,1751,0,0
-672,-727,0,0,0,0,0,0,0,0,0,-1,552,1751,0,0
-665,-727,0,0,0,0,0,0,0,0,0,-1,559,1751,0,0
-658,-727,0,0,0,0,0,0,0,0,0,-1,566,1751,0,0
-651,-727,0,0,0,0,0,0,0,0,0,-1,573,1751,0,0
-644,-727,0,0,0,0,0,0,0,0,0,-1,580,1751,0,0
-637,-727,0,0,0,0,0,0,0,0,0,-1,587,1751,0,0
-630,-727,0,0,0,0,0,0,0,0,0,-1,594,1751,0,0
-623,-727,0,0,0,0,0,0,0,0,0,-1,601,1751,0,0
-616,-727,0,0,0,0,0,0,0,0,0,-1,608,1751,0,0
-609,-727,0,0,0,0,0,0,0,0,0,-1,615,1751,0,0
-602,-727,0,0,0,0,0,0,0,0,0,-1,622,1751,0,0
-595,-727,0,0,0,0,0,0,0,0,0,-1,629,1751,0,0
-588,-727,0,0,0,0,0,0,0,0,0,-1,636,1751,0,0
-581,-727,0,0,0,0,0,0,0,0,0,-1,643,1751,0,0
-574,-727,0,0,0,0,0,0,0,0,0,-1,650,1751,0,0
-567,-727,0,0,0,0,0,0,0,0,0,-1,657,1751,0,0
-560,-727,0,0,0,0,0,0,0,0,0,-1,664,1751,0,0
-553,-727,0,0,0,0,0,0,0,0,0,-1,671,1751,0,0
-546,-727,0,0,0,0,0,0,0,0,0,-1,678,1751,0,0
-539,-727,0,0,0,0,0,0,0,0,0,-1,685,1751,0,0
-532,-727,0,0,0,0,0,0,0,0,0,-1,692,1751,0,0
-525,-727,0,0,0,0,0,0,0,0,0,-1,699,1751,0,0
-518,-727,0,0,0,0,0,0,0,0,0,-1,706,1751,0,0
-511,-727,0,0,0,0,0,0,0,0,0,-1,713,1751,0,0
-504,-727,0,0,0,0,0,0,0,0,0,-1,720,1751,0,0
-497,-727,0,0,0,0,0,0,0,0,0,-1,727,1751,0,0
-490,-727,0,0,0,0,0,0,0,0,0,-1,734,1751,0,0
-483,-727,0,0,0,0,0,0,0,0,0,-1,741,1751,0,0
-476,-727,0,0,0,0,0,0,0,0,0,-1,748,1751,0,0
-469,-727,0,0,0,0,0,0,0,0,0,-1,755,1751,0,0
-462,-727,0,0,0,0,0,0,0,0,0,-1,762,1751,0,0
-455,-727,0,0,0,0,0,0,0,0,0,-1,769,1751,0,0
-448,-727,0,0,0,0,0,0,0,0,0,-1,776,1751,0,0
-441,-727,0,0,0,0,0,0,0,0,0,-1,783,1751,0,0
-434,-727,0,0,0,0,0,0,0,0,0,-1,790,1751,0,0
-427,-727,0,0,0,0,0,0,0,0,0,-1,797,1751,0,0
-420,-727,0,0,0,0,0,0,0,0,0,-1,804,1751,0,0
-413,-727,0,0,0,0,0,0,0,0,0,-1,811,1751,0,0
-406,-727,0,0,0,0,0,0,0,0,0,-1,818,1751,0,0
-399,-727,0,0,0,0,0,0,0,0,0,-1,825,1751,0,0
-392,-727,0,0,0,0,0,0,0,0,0,-1,832,1751,0,0
-385,-727,0,0,0,0,0,0,0,0,0,-1,839,1751,0,0
-378,-727,0,0,0,0,0,0,0,0,0,-1,846,1751,0,0
-371,-727,0,0,0,0,0,0,0,0,0,-1,853,1751,0,0
-364,-727,0,0,0,0,0,0,0,0,0,-1,860,1751,0,0
-357,-727,0,0,0,0,0,0,0,0,0,-1,867,1751,0,0
-350,-727,0,0,0,0,0,0,0,0,0,-1,874,1751,0,0
-343,-727,0,0,0,0,0,0,0,0,0,-1,881,1751,0,0
-336,-727,0,0,0,0,0,0,0,0,0,-1,888,1751,0,0
-329,-727,0,0,0,0,0,0,0,0,0,-1,895,1751,0,0
-322,-727,0,0,0,0,0,0,0,0,0,-1,902,1751,0,0
-315,-727,0,0,0,0,0,0,0,0,0,-1,909,1751,0,0
-308,-727,0,0,0,0,0,0,0,0,0,-1,916,1751,0,0
-301,-727,0,0,0,0,0,0,0,0,0,-1,923,1751,0,0
-294,-727,0,0,0,0,0,0,0,0,0,-1,930,1751,0,0
-287,-727,0,0,0,0,0,0,0,0,0,-1,937,1751,0,0
-280,-727,0,0,0,0,0,0,0,0,0,-1,944,1751,0,0
-273,-727,0,0,0,0,0,0,0,0,0,-1,951,1751,0,0
-266,-727,4.24805,7.61145,0,0,0,0,0,0,0,-1,958,1751,4.24802,-7.6115
-259,-727,3.65228,5.4082,0,0,0,0,0,0,0,-1,965,1751,3.65229,-5.40818
-252,-727,5.8797,32.9292,0,0,0,0,0,0,0,-1,972,1751,5.87972,-32.9292
-245,-727,6.59198,32.2588,0,0,0,0,0,0,0,-1,979,1751,6.59195,-32.2587
-238,-727,6.6189,30.4597,0,0,0,0,0,0,0,-1,986,1751,6.61889,-30.4598
-231,-727,6.70105,28.9473,0,0,0,0,0,0,0,-1,993,1751,6.70103,-28.9472
-224,-727,10.508,44.4791,0,0,0,0,0,0,0,-1,1000,1751,10.508,-44.4791
-217,-727,9.07013,38.8207,0,0,0,0,0,0,0,-1,1007,1751,9.07015,-38.8207
-210,-727,5.0921,32.4524,0,0,0,0,0,0,0,-1,1014,1751,5.09209,-32.4523
-203,-727,9.05786,39.0233,0,0,0,0,0,0,0,-1,1021,1751,9.05789,-39.0233
-196,-727,9.35156,43.2854,0,0,0,0,0,0,0,-1,1028,1751,9.35156,-43.2854
-189,-727,6.93921,46.9668,0,0,0,0,0,0,0,-1,1035,1751,6.93924,-46.9668
-182,-727,10.0712,45.8092,0,0,0,0,0,0,0,-1,1042,1751,10.0711,-45.8093
-175,-727,10.239,46.1953,0,0,0,0,0,0,0,-1,1049,1751,10.239,-46.1953
-168,-727,9.95239,46.4774,0,0,0,0,0,0,0,-1,1056,1751,9.95245,-46.4774
-161,-727,9.49939,46.7854,0,0,0,0,0,0,0,-1,1063,1751,9.49944,-46.7854
-154,-727,9.95825,46.9474,-0.0120761,0.00456428,-0.000635844,0.00458854,-0.0121003,-1.53266,0.00995537,0.0494695,1070,1751,9.9582,-46.9474
-147,-727,9.73462,47.2671,-0.0115602,0.00556988,-7.51289e-06,0.00556989,-0.0115602,-1.57036,0.0100896,0.0452932,1077,1751,9.73458,-47.2671
-140,-727,9.30664,47.766,0,0,0,0,0,0,0,-1,1084,1751,9.30665,-47.766
-133,-727,9.58643,48.0503,-0.0093935,0.00686167,0.00113156,0.00694006,-0.0094719,1.50163,0.00951296,0.0242349,1091,1751,9.58644,-48.0503
-126,-727,9.4978,48.4933,-0.00898261,0.00707071,0.00160276,0.00722916,-0.00914106,1.47225,0.00947282,0.0170719,1098,1751,9.49774,-48.4933
-119,-727,9.47009,48.8937,-0.00817483,0.00684325,0.00200888,0.00710732,-0.00843891,1.44009,0.00898658,0.012942,1105,1751,9.47007,-48.8937
-112,-727,9.47034,49.1787,-0.00682789,0.00682105,0.00244015,0.00724418,-0.00725102,1.3991,0.00836881,0.0148286,1112,1751,9.47036,-49.1787
-105,-727,9.40918,49.5148,-0.00560173,0.00641135,0.00261197,0.00695469,-0.00614507,1.3657,0.00756796,0.0157509,1119,1751,9.40912,-49.5147
-98,-727,9.39099,49.8495,-0.00450669,0.00582818,0.00297669,0.00662423,-0.00530273,1.30949,0.00690011,0.0135182,1126,1751,9.39102,-49.8494
-91,-727,9.37744,50.1526,-0.00345289,0.00510141,0.00308451,0.00609761,-0.00444909,1.2584,0.00611388,0.0126747,1133,1751,9.37743,-50.1526
-84,-727,9.35022,50.4412,-0.0027153,0.00480196,0.00308777,0.00590765,-0.00382099,1.22694,0.00565974,0.0124515,1140,1751,9.35026,-50.4412
-77,-727,9.31396,50.7233,-0.00168973,0.00392921,0.00313298,0.00532791,-0.00308843,1.1509,0.00491618,0.0134044,1147,1751,9.31397,-50.7233
-70,-727,9.29309,51.0166,-0.001306,0.00315937,0.00272686,0.00445098,-0.00259761,1.12844,0.00411613,0.0141553,1154,1751,9.29306,-51.0166
-63,-727,9.27661,51.2828,-0.00147716,0.00277174,0.00217776,0.00368965,-0.00239507,1.1719,0.00353942,0.0112005,1161,1751,9.27666,-51.2829
-56,-727,9.25281,51.5172,-0.00143925,0.00256918,0.0017483,0.00322456,-0.00209463,1.21214,0.00309404,0.0111496,1168,1751,9.2528,-51.5172
-49,-727,9.23486,51.7538,-0.00121009,0.00227187,0.00144336,0.00279237,-0.00173059,1.22469,0.00263521,0.0135191,1175,1751,9.23486,-51.7538
-42,-727,9.23486,51.9534,-0.00120535,0.00184316,0.00107517,0.00218421,-0.00154639,1.26364,0.00216433,0.0173213,1182,1751,9.23486,-51.9534
-35,-727,9.2334,52.1322,-0.0012498,0.00123017,0.000853512,0.00149552,-0.00151515,1.26937,0.00173823,0.0154164,1189,1751,9.23334,-52.1322
-28,-727,9.20911,52.3234,-0.0011741,0.00070212,0.000770203,0.000977791,-0.00144977,1.22708,0.00141035,0.00889303,1196,1751,9.20916,-52.3234
-21,-727,9.18433,52.5073,-0.000950905,0.000465492,0.00079194,0.000819703,-0.00130512,1.15021,0.00123739,0.0110259,1203,1751,9.18436,-52.5073
-14,-727,9.17285,52.6758,-0.000742371,0.000362902,0.000906454,0.000871899,-0.00125137,1.05915,0.00123238,0.0124551,1210,1751,9.17282,-52.6757
-7,-727,9.18921,52.8636,-0.000568661,0.000327308,0.00101861,0.00099209,-0.00123344,0.992568,0.00128743,0.0149882,1217,1751,9.18917,-52.8636
0,-727,9.177,53.0107,-0.000354311,0.000641815,0.00118851,0.0014324,-0.0011449,0.983815,0.00149109,0.0147007,1224,1751,9.177,-53.0107
7,-727,9.17676,53.0867,-0.000129065,0.0011999,0.00129489,0.00199085,-0.000920018,1.02246,0.00171808,0.0142176,1231,1751,9.17678,-53.0867
14,-727,9.18835,53.1837,5.65082e-05,0.00188035,0.00130201,0.00255803,-0.000621175,1.09089,0.00194575,0.0135497,1238,1751,9.1883,-53.1838
21,-727,9.1825,53.3021,0.000218124,0.00251374,0.0012528,0.00306504,-0.000333175,1.15624,0.00216299,0.0119073,1245,1751,9.18248,-53.3022
28,-727,9.18958,53.371,0.000399023,0.00325705,0.00117828,0.00368017,-2.41025e-05,1.22603,0.00246152,0.0113647,1252,1751,9.18952,-53.371
35,-727,9.19702,53.4279,0.000622129,0.00385189,0.0010318,0.00415338,0.000320643,1.28652,0.00266847,0.0121315,1259,1751,9.197,-53.4279
42,-727,9.18591,53.4672,0.000764188,0.00420145,0.000826638,0.00438991,0.000575721,1.34664,0.00275483,0.0121544,1266,1751,9.18596,-53.4671
49,-727,9.18799,53.4937,0.000828888,0.00442865,0.000650154,0.00454248,0.000715063,1.39748,0.00282034,0.0113362,1273,1751,9.18798,-53.4937
56,-727,9.17932,53.5393,0.000797372,0.00446163,0.0004761,0.00452248,0.000736522,1.44368,0.00280193,0.0100458,1280,1751,9.17936,-53.5393
63,-727,9.18372,53.5452,0.000849093,0.00446054,0.000373401,0.00449875,0.00081089,1.46884,0.00276874,0.0115818,1287,1751,9.18372,-53.5452
70,-727,9.21411,53.5305,0.00111399,0.00403387,0.000282029,0.00406086,0.00108699,1.47538,0.00242744,0.0140632,1294,1751,9.21412,-53.5305
77,-727,9.22302,53.5144,0.00137294,0.00330078,0.000299161,0.00334614,0.00132758,1.42033,0.00194558,0.0166146,1301,1751,9.22308,-53.5144
84,-727,9.21179,53.4352,0.00144753,0.00247948,0.000341109,0.00258204,0.00134497,1.27873,0.00149117,0.0161961,1308,1751,9.21185,-53.4352
91,-727,9.19751,53.3682,0.00154575,0.0019057,0.000415012,0.00217808,0.00127337,0.98999,0.00126351,0.0172605,1315,1751,9.19757,-53.3682
98,-727,9.19055,53.3467,0.00164342,0.00138695,0.000511643,0.00204265,0.000987715,0.66261,0.00117954,0.0149811,1322,1751,9.19054,-53.3467
105,-727,9.20569,53.2753,0.00171209,0.000774939,0.000583866,0.00199215,0.000494874,0.447255,0.00119772,0.0135828,1329,1751,9.20574,-53.2753
112,-727,9.22241,53.1969,0.00175068,0.000305699,0.000682871,0.00202233,3.40542e-05,0.378607,0.00133701,0.0110462,1336,1751,9.22236,-53.1969
119,-727,9.23511,53.1119,0.00170872,-2.21313e-05,0.000719354,0.00196865,-0.000282064,0.346743,0.00141585,0.0090756,1343,1751,9.23511,-53.112
126,-727,9.22839,52.9875,0.00157734,-0.000102199,0.000690167,0.00182456,-0.000349418,0.343963,0.00134802,0.0111554,1350,1751,9.22842,-52.9876
133,-727,9.21411,52.8467,0.00132524,-3.95105e-05,0.000624158,0.00156764,-0.00028191,0.370434,0.00115063,0.0150617,1357,1751,9.21417,-52.8467
140,-727,9.2135,52.7179,0.000976861,0.00034835,0.000549595,0.0012957,2.95091e-05,0.525687,0.000854135,0.0222576,1364,1751,9.2135,-52.7179
147,-727,9.20935,52.5348,0.000664568,0.00077209,0.000468099,0.00118951,0.000247153,0.842572,0.000724804,0.0181781,1371,1751,9.20939,-52.5348
154,-727,9.20483,52.3441,0.000326554,0.00115102,0.000285424,0.00124019,0.000237386,1.268,0.000760119,0.0102526,1378,1751,9.20484,-52.3441
161,-727,9.17432,52.1692,1.74331e-05,0.00151737,7.53232e-05,0.00152115,1.366e-05,1.52075,0.00100958,0.00874081,1385,1751,9.17435,-52.1692
168,-727,9.16174,51.9911,-0.0003808,0.00167561,-0.00028427,0.00171419,-0.000419373,-1.43593,0.00130524,0.0111808,1392,1751,9.16173,-51.9911
175,-727,9.1488,51.7787,-0.000810655,0.00184281,-0.000722207,0.00202664,-0.000994486,-1.32155,0.00177786,0.0165486,1399,1751,9.14881,-51.7787
182,-727,9.16003,51.561,-0.00117373,0.00204632,-0.00113414,0.00240568,-0.00153308,-1.26395,0.00229257,0.0192415,1406,1751,9.16007,-51.561
189,-727,9.1322,51.3173,-0.00116547,0.00234543,-0.00141649,0.00284565,-0.00166569,-1.23133,0.00263415,0.0121824,1413,1751,9.13214,-51.3173
196,-727,9.1167,51.0618,-0.00131522,0.00205757,-0.00179507,0.00283414,-0.00209179,-1.16249,0.00285473,0.0131126,1420,1751,9.11672,-51.0617
203,-727,9.07886,50.7731,-0.00168901,0.00138102,-0.00211449,0.00245893,-0.00276691,-1.09936,0.00301888,0.0158737,1427,1751,9.07887,-50.773
210,-727,9.06238,50.5139,-0.00165567,0.00180849,-0.00244803,0.00307523,-0.00292242,-1.09328,0.00346312,0.0163151,1434,1751,9.0624,-50.5139
217,-727,9.05371,50.2399,-0.0015595,0.00146371,-0.00256987,0.00293358,-0.00302937,-1.05125,0.00344286,0.0126621,1441,1751,9.05368,-50.2399
224,-727,9.01135,49.9155,-0.00185203,0.00117802,-0.00265143,0.00271674,-0.00339075,-1.04496,0.00353331,0.0133661,1448,1751,9.01133,-49.9155
231,-727,8.98181,49.621,-0.00242418,0.000260343,-0.00266715,0.00190394,-0.00406778,-1.01852,0.00352241,0.0108824,1455,1751,8.98181,-49.621
238,-727,8.98291,49.2616,-0.00281837,-0.000391627,-0.00266573,0.00132389,-0.00453389,-0.998972,0.00354722,0.0124949,1462,1751,8.98296,-49.2616
245,-727,8.96277,48.9514,-0.00321826,-0.00092399,-0.00266361,0.000828999,-0.00497125,-0.98873,0.00362226,0.0136448,1469,1751,8.96274,-48.9515
252,-727,8.91064,48.6366,-0.00373726,-0.00149025,-0.00258765,0.000207275,-0.00543479,-0.990208,0.00369422,0.0130503,1476,1751,8.91068,-48.6367
259,-727,8.87976,48.2823,-0.00430318,-0.00212792,-0.00242573,-0.000557146,-0.00587395,-0.996148,0.0037441,0.0145515,1483,1751,8.87974,-48.2824
266,-727,8.8894,47.9751,-0.00486543,-0.00263558,-0.00222399,-0.00126269,-0.00623831,-1.01775,0.0038084,0.0190548,1490,1751,8.88936,-47.9752
273,-727,8.88196,47.6381,-0.0053939,-0.00290811,-0.00209191,-0.00171772,-0.00658429,-1.05345,0.00394368,0.0325091,1497,1751,8.8819,-47.638
280,-727,8.6814,47.3239,-0.00581366,-0.0028475,-0.00200325,-0.00183808,-0.00682308,-1.10404,0.00407658,0.048305,1504,1751,8.68139,-47.3239
287,-727,8.49133,46.8121,0,0,0,0,0,0,0,-1,1511,1751,8.49134,-46.8121
294,-727,8.46448,46.1222,0,0,0,0,0,0,0,-1,1518,1751,8.46452,-46.1222
301,-727,8.52405,45.9316,0,0,0,0,0,0,0,-1,1525,1751,8.52407,-45.9317
308,-727,8.77002,44.8007,0,0,0,0,0,0,0,-1,1532,1751,8.76996,-44.8006
315,-727,8.10571,41.24,0,0,0,0,0,0,0,-1,1539,1751,8.10567,-41.2399
322,-727,8.24133,40.2081,0,0,0,0,0,0,0,-1,1546,1751,8.24136,-40.2082
329,-727,5.54419,31.0325,0,0,0,0,0,0,0,-1,1553,1751,5.54425,-31.0325
336,-727,5.55823,20.2439,0,0,0,0,0,0,0,-1,1560,1751,5.55829,-20.2438
343,-727,2.41699,8.72095,0,0,0,0,0,0,0,-1,1567,1751,2.41702,-8.72098
350,-727,3.89783,7.50195,0,0,0,0,0,0,0,-1,1574,1751,3.89782,-7.50193
357,-727,4.48462,10.2948,0,0,0,0,0,0,0,-1,1581,1751,4.48464,-10.2948
364,-727,6.96729,17.2365,0,0,0,0,0,0,0,-1,1588,1751,6.96732,-17.2365
371,-727,5.04565,23.2227,0,0,0,0,0,0,0,-1,1595,1751,5.04564,-23.2227
378,-727,4.56726,23.0574,0,0,0,0,0,0,0,-1,1602,1751,4.56727,-23.0574
385,-727,3.52307,22.6431,0,0,0,0,0,0,0,-1,1609,1751,3.52303,-22.643
392,-727,0,0,0,0,0,0,0,0,0,-1,1616,1751,0,0
399,-727,0,0,0,0,0,0,0,0,0,-1,1623,1751,0,0
406,-727,0,0,0,0,0,0,0,0,0,-1,1630,1751,0,0
413,-727,0,0,0,0,0,0,0,0,0,-1,1637,1751,0,0
420,-727,0,0,0,0,0,0,0,0,0,-1,1644,1751,0,0
427,-727,0,0,0,0,0,0,0,0,0,-1,1651,1751,0,0
434,-727,0,0,0,0,0,0,0,0,0,-1,1658,1751,0,0
441,-727,0,0,0,0,0,0,0,0,0,-1,1665,1751,0,0
448,-727,0,0,0,0,0,0,0,0,0,-1,1672,1751,0,0
455,-727,0,0,0,0,0,0,0,0,0,-1,1679,1751,0,0
462,-727,0,0,0,0,0,0,0,0,0,-1,1686,1751,0,0
469,-727,0,0,0,0,0,0,0,0,0,-1,1693,1751,0,0
476,-727,0,0,0,0,0,0,0,0,0,-1,1700,1751,0,0
483,-727,0,0,0,0,0,0,0,0,0,-1,1707,1751,0,0
490,-727,0,0,0,0,0,0,0,0,0,-1,1714,1751,0,0
497,-727,0,0,0,0,0,0,0,0,0,-1,1721,1751,0,0
504,-727,0,0,0,0,0,0,0,0,0,-1,1728,1751,0,0
511,-727,0,0,0,0,0,0,0,0,0,-1,1735,1751,0,0
518,-727,0,0,0,0,0,0,0,0,0,-1,1742,1751,0,0
525,-727,0,0,0,0,0,0,0,0,0,-1,1749,1751,0,0
532,-727,0,0,0,0,0,0,0,0,0,-1,1756,1751,0,0
539,-727,0,0,0,0,0,0,0,0,0,-1,1763,1751,0,0
546,-727,0,0,0,0,0,0,0,0,0,-1,1770,1751,0,0
553,-727,0,0,0,0,0,0,0,0,0,-1,1777,1751,0,0
560,-727,0,0,0,0,0,0,0,0,0,-1,1784,1751,0,0
567,-727,0,0,0,0,0,0,0,0,0,-1,1791,1751,0,0
574,-727,0,0,0,0,0,0,0,0,0,-1,1798,1751,0,0
581,-727,0,0,0,0,0,0,0,0,0,-1,1805,1751,0,0
588,-727,0,0,0,0,0,0,0,0,0,-1,1812,1751,0,0
595,-727,0,0,0,0,0,0,0,0,0,-1,1819,1751,0,0
602,-727,0,0,0,0,0,0,0,0,0,-1,1826,1751,0,0
609,-727,0,0,0,0,0,0,0,0,0,-1,1833,1751,0,0
616,-727,0,0,0,0,0,0,0,0,0,-1,1840,1751,0,0
623,-727,0,0,0,0,0,0,0,0,0,-1,1847,1751,0,0
630,-727,0,0,0,0,0,0,0,0,0,-1,1854,1751,0,0
637,-727,0,0,0,0,0,0,0,0,0,-1,1861,1751,0,0
644,-727,0,0,0,0,0,0,0,0,0,-1,1868,1751,0,0
651,-727,0,0,0,0,0,0,0,0,0,-1,1875,1751,0,0
658,-727,0,0,0,0,0,0,0,0,0,-1,1882,1751,0,0
665,-727,0,0,0,0,0,0,0,0,0,-1,1889,1751,0,0
672,-727,0,0,0,0,0,0,0,0,0,-1,1896,1751,0,0
679,-727,0,0,0,0,0,0,0,0,0,-1,1903,1751,0,0
686,-727,0,0,0,0,0,0,0,0,0,-1,1910,1751,0,0
693,-727,0,0,0,0,0,0,0,0,0,-1,1917,1751,0,0
700,-727,0,0,0,0,0,0,0,0,0,-1,1924,1751,0,0
707,-727,0,0,0,0,0,0,0,0,0,-1,1931,1751,0,0
714,-727,0,0,0,0,0,0,0,0,0,-1,1938,1751,0,0
721,-727,0,0,0,0,0,0,0,0,0,-1,1945,1751,0,0
728,-727,0,0,0,0,0,0,0,0,0,-1,1952,1751,0,0
735,-727,0,0,0,0,0,0,0,0,0,-1,1959,1751,0,0
742,-727,0,0,0,0,0,0,0,0,0,-1,1966,1751,0,0
749,-727,0,0,0,0,0,0,0,0,0,-1,1973,1751,0,0
756,-727,0,0,0,0,0,0,0,0,0,-1,1980,1751,0,0
763,-727,0,0,0,0,0,0,0,0,0,-1,1987,1751,0,0
770,-727,0,0,0,0,0,0,0,0,0,-1,1994,1751,0,0
777,-727,0,0,0,0,0,0,0,0,0,-1,2001,1751,0,0
784,-727,0,0,0,0,0,0,0,0,0,-1,2008,1751,0,0
791,-727,0,0,0,0,0,0,0,0,0,-1,2015,1751,0,0
798,-727,0,0,0,0,0,0,0,0,0,-1,2022,1751,0,0
805,-727,0,0,0,0,0,0,0,0,0,-1,2029,1751,0,0
812,-727,0,0,0,0,0,0,0,0,0,-1,2036,1751,0,0
-700,-734,0,0,0,0,0,0,0,0,0,-1,524,1758,0,0
-693,-734,0,0,0,0,0,0,0,0,0,-1,531,1758,0,0
-686,-734,0,0,0,0,0,0,0,0,0,-1,538,1758,0,0
-679,-734,0,0,0,0,0,0,0,0,0,-1,545,1758,0,0
-672,-734,0,0,0,0,0,0,0,0,0,-1,552,1758,0,0
-665,-734,0,0,0,0,0,0,0,0,0,-1,559,1758,0,0
-658,-734,0,0,0,0,0,0,0,0,0,-1,566,1758,0,0
-651,-734,0,0,0,0,0,0,0,0,0,-1,573,1758,0,0
-644,-734,0,0,0,0,0,0,0,0,0,-1,580,1758,0,0
-637,-734,0,0,0,0,0,0,0,0,0,-1,587,1758,0,0
-630,-734,0,0,0,0,0,0,0,0,0,-1,594,1758,0,0
-623,-734,0,0,0,0,0,0,0,0,0,-1,601,1758,0,0
-616,-734,0,0,0,0,0,0,0,0,0,-1,608,1758,0,0
-609,-734,0,0,0,0,0,0,0,0,0,-1,615,1758,0,0
-602,-734,0,0,0,0,0,0,0,0,0,-1,622,1758,0,0
-595,-734,0,0,0,0,0,0,0,0,0,-1,629,1758,0,0
-588,-734,0,0,0,0,0,0,0,0,0,-1,636,1758,0,0
-581,-734,0,0,0,0,0,0,0,0,0,-1,643,1758,0,0
-574,-734,0,0,0,0,0,0,0,0,0,-1,650,1758,0,0
-567,-734,0,0,0,0,0,0,0,0,0,-1,657,1758,0,0
-560,-734,0,0,0,0,0,0,0,0,0,-1,664,1758,0,0
-553,-734,0,0,0,0,0,0,0,0,0,-1,671,1758,0,0
-546,-734,0,0,0,0,0,0,0,0,0,-1,678,1758,0,0
-539,-734,0,0,0,0,0,0,0,0,0,-1,685,1758,0,0
-532,-734,0,0,0,0,0,0,0,0,0,-1,692,1758,0,0
-525,-734,0,0,0,0,0,0,0,0,0,-1,699,1758,0,0
-518,-734,0,0,0,0,0,0,0,0,0,-1,706,1758,0,0
-511,-734,0,0,0,0,0,0,0,0,0,-1,713,1758,0,0
-504,-734,0,0,0,0,0,0,0,0,0,-1,720,1758,0,0
-497,-734,0,0,0,0,0,0,0,0,0,-1,727,1758,0,0
-490,-734,0,0,0,0,0,0,0,0,0,-1,734,1758,0,0
-483,-734,0,0,0,0,0,0,0,0,0,-1,741,1758,0,0
-476,-734,0,0,0,0,0,0,0,0,0,-1,748,1758,0,0
-469,-734,0,0,0,0,0,0,0,0,0,-1,755,1758,0,0
-462,-734,0,0,0,0,0,0,0,0,0,-1,762,1758,0,0
-455,-734,0,0,0,0,0,0,0,0,0,-1,769,1758,0,0
-448,-734,0,0,0,0,0,0,0,0,0,-1,776,1758,0,0
-441,-734,0,0,0,0,0,0,0,0,0,-1,783,1758,0,0
-434,-734,0,0,0,0,0,0,0,0,0,-1,790,1758,0,0
-427,-734,0,0,0,0,0,0,0,0,0,-1,797,1758,0,0
-420,-734,0,0,0,0,0,0,0,0,0,-1,804,1758,0,0
-413,-734,0,0,0,0,0,0,0,0,0,-1,811,1758,0,0
-406,-734,0,0,0,0,0,0,0,0,0,-1,818,1758,0,0
-399,-734,0,0,0,0,0,0,0,0,0,-1,825,1758,0,0
-392,-734,0,0,0,0,0,0,0,0,0,-1,832,1758,0,0
-385,-734,0,0,0,0,0,0,0,0,0,-1,839,1758,0,0
-378,-734,0,0,0,0,0,0,0,0,0,-1,846,1758,0,0
-371,-734,0,0,0,0,0,0,0,0,0,-1,853,1758,0,0
-364,-734,0,0,0,0,0,0,0,0,0,-1,860,1758,0,0
-357,-734,0,0,0,0,0,0,0,0,0,-1,867,1758,0,0
-350,-734,0,0,0,0,0,0,0,0,0,-1,874,1758,0,0
-343,-734,0,0,0,0,0,0,0,0,0,-1,881,1758,0,0
-336,-734,0,0,0,0,0,0,0,0,0,-1,888,1758,0,0
-329,-734,0,0,0,0,0,0,0,0,0,-1,895,1758,0,0
-322,-734,0,0,0,0,0,0,0,0,0,-1,902,1758,0,0
-315,-734,0,0,0,0,0,0,0,0,0,-1,909,1758,0,0
-308,-734,0,0,0,0,0,0,0,0,0,-1,916,1758,0,0
-301,-734,0,0,0,0,0,0,0,0,0,-1,923,1758,0,0
-294,-734,0,0,0,0,0,0,0,0,0,-1,930,1758,0,0
-287,-734,0,0,0,0,0,0,0,0,0,-1,937,1758,0,0
-280,-734,0,0,0,0,0,0,0,0,0,-1,944,1758,0,0
-273,-734,0,0,0,0,0,0,0,0,0,-1,951,1758,0,0
-266,-734,0,0,0,0,0,0,0,0,0,-1,958,1758,0,0
-259,-734,0,0,0,0,0,0,0,0,0,-1,965,1758,0,0
-252,-734,5.73883,31.5245,0,0,0,0,0,0,0,-1,972,1758,5.73884,-31.5246
-245,-734,6.32513,30.9761,0,0,0,0,0,0,0,-1,979,1758,6.32511,-30.9761
-238,-734,6.82385,30.0449,0,0,0,0,0,0,0,-1,986,1758,6.82387,-30.0449
-231,-734,7.1958,29.1666,0,0,0,0,0,0,0,-1,993,1758,7.19578,-29.1666
-224,-734,7.36169,28.5652,0,0,0,0,0,0,0,-1,1000,1758,7.36172,-28.5651
-217,-734,7.45984,28.4386,0,0,0,0,0,0,0,-1,1007,1758,7.45986,-28.4386
-210,-734,7.45483,28.4388,0,0,0,0,0,0,0,-1,1014,1758,7.45482,-28.4388
-203,-734,7.93079,29.6151,0,0,0,0,0,0,0,-1,1021,1758,7.93076,-29.6151
-196,-734,8.56799,45.7534,0,0,0,0,0,0,0,-1,1028,1758,8.56803,-45.7534
-189,-734,9.04846,45.9619,0,0,0,0,0,0,0,-1,1035,1758,9.04847,-45.9619
-182,-734,8.24573,47.5787,0,0,0,0,0,0,0,-1,1042,1758,8.2457,-47.5788
-175,-734,9.18091,47.0735,0,0,0,0,0,0,0,-1,1049,1758,9.18086,-47.0735
-168,-734,9.08081,46.9479,0,0,0,0,0,0,0,-1,1056,1758,9.08085,-46.9478
-161,-734,9.46082,46.7725,0,0,0,0,0,0,0,-1,1063,1758,9.46082,-46.7725
-154,-734,10.5056,47.1163,0,0,0,0,0,0,0,-1,1070,1758,10.5057,-47.1163
-147,-734,10.3104,47.2294,0,0,0,0,0,0,0,-1,1077,1758,10.3104,-47.2294
-140,-734,10.3397,47.7314,0,0,0,0,0,0,0,-1,1084,1758,10.3398,-47.7314
-133,-734,10.0946,47.9684,-0.0127757,0.0103711,0.00177907,0.0105071,-0.0129117,1.49453,0.0135446,0.0473454,1091,1758,10.0946,-47.9684
-126,-734,9.74805,48.3313,-0.0121132,0.0105265,0.00247437,0.0107938,-0.0123805,1.4632,0.0133901,0.0441237,1098,1758,9.74802,-48.3313
-119,-734,9.77271,48.7583,-0.0109632,0.0100782,0.00301355,0.0105013,-0.0113863,1.43131,0.0126402,0.0485056,1105,1758,9.77269,-48.7584
-112,-734,9.67761,49.0176,0,0,0,0,0,0,0,-1,1112,1758,9.67762,-49.0175
-105,-734,9.62158,49.4393,0,0,0,0,0,0,0,-1,1119,1758,9.62164,-49.4393
-98,-734,9.62903,49.8474,0,0,0,0,0,0,0,-1,1126,1758,9.62905,-49.8474
-91,-734,9.64612,50.1482,0,0,0,0,0,0,0,-1,1133,1758,9.64613,-50.1482
-84,-734,9.60693,50.4133,0,0,0,0,0,0,0,-1,1140,1758,9.60699,-50.4133
-77,-734,9.56738,50.7284,0,0,0,0,0,0,0,-1,1147,1758,9.56743,-50.7285
-70,-734,9.56006,51.0201,0,0,0,0,0,0,0,-1,1154,1758,9.56003,-51.0201
-63,-734,9.43152,51.0547,-0.00286609,0.00373319,0.00307525,0.00494407,-0.00407697,1.19569,0.00521631,0.036421,1161,1758,9.43157,-51.0547
-56,-734,9.47571,51.4606,-0.00297954,0.00354447,0.0025521,0.00442419,-0.00385926,1.23885,0.00478616,0.0170775,1168,1758,9.47569,-51.4606
-49,-734,9.44702,51.748,-0.00271753,0.00313611,0.00221426,0.00387934,-0.00346075,1.24696,0.0042401,0.012932,1175,1758,9.44705,-51.7481
-42,-734,9.41321,51.9772,-0.00281936,0.0021175,0.0017594,0.00268035,-0.0033822,1.26118,0.00350802,0.0141726,1182,1758,9.41318,-51.9772
-35,-734,9.41199,52.1654,-0.00322926,0.00116174,0.0014507,0.00159773,-0.00366525,1.27885,0.00311576,0.0135186,1189,1758,9.41205,-52.1654
-28,-734,9.38599,52.3458,-0.00348101,0.000196857,0.00116674,0.000535758,-0.00381991,1.28811,0.00274269,0.00972048,1196,1758,9.38597,-52.3459
-21,-734,9.41467,52.5092,-0.00351694,-0.000454878,0.000945013,-0.000186713,-0.0037851,1.2943,0.00246352,0.0166762,1203,1758,9.41466,-52.5092
-14,-734,9.36511,52.7147,-0.00363139,-0.000952623,0.000817157,-0.000723028,-0.00386098,1.29689,0.00237003,0.0171341,1210,1758,9.36516,-52.7147
-7,-734,9.33105,52.8837,-0.00380126,-0.00145181,0.000685288,-0.00126653,-0.00398653,1.30675,0.00235206,0.0179922,1217,1758,9.33103,-52.8836
0,-734,9.29871,52.9934,-0.0038452,-0.0015755,0.000651328,-0.00140187,-0.00401883,1.31028,0.00235536,0.0169167,1224,1758,9.29869,-52.9935
7,-734,9.28589,53.0939,-0.00376537,-0.00120233,0.000536903,-0.0010944,-0.0038733,1.37243,0.00230566,0.0128078,1231,1758,9.28593,-53.0938
14,-734,9.27393,53.2078,-0.00362587,-0.000521247,0.000342987,-0.000483806,-0.00366331,1.46207,0.00229798,0.0129736,1238,1758,9.27387,-53.2078
21,-734,9.24744,53.303,-0.0034631,0.000143825,0.000177711,0.000152559,-0.00347184,1.52169,0.00236705,0.0116445,1245,1758,9.24743,-53.3029
28,-734,9.24817,53.3849,-0.00313234,0.000953839,3.11068e-05,0.000954076,-0.00313258,1.56318,0.00246865,0.0114442,1252,1758,9.24814,-53.3848
35,-734,9.24536,53.4471,-0.00264184,0.00171008,-0.000129197,0.00171391,-0.00264568,-1.54114,0.0025361,0.0144193,1259,1758,9.24535,-53.4471
42,-734,9.24622,53.4677,-0.00219598,0.00235861,-0.000312733,0.00237998,-0.00221735,-1.50256,0.00265483,0.012052,1266,1758,9.2462,-53.4677
49,-734,9.23389,53.4982,-0.00174979,0.00297296,-0.000400242,0.00300664,-0.00178347,-1.48685,0.00279546,0.010491,1273,1758,9.2339,-53.4982
56,-734,9.18896,53.5413,-0.00140477,0.00343302,-0.00047773,0.00347975,-0.00145149,-1.4733,0.00292623,0.0100726,1280,1758,9.18892,-53.5412
63,-734,9.17603,53.5419,-0.000903824,0.00397369,-0.000272969,0.00398892,-0.000919053,-1.51506,0.00301272,0.0127341,1287,1758,9.17597,-53.5418
70,-734,9.1687,53.5427,-0.000218453,0.00412931,-9.12962e-06,0.00412933,-0.000218472,-1.5687,0.00282852,0.0134442,1294,1758,9.16867,-53.5427
77,-734,9.17297,53.5485,0.00041594,0.00384323,0.000306798,0.00387047,0.000388693,1.48222,0.002461,0.01813,1301,1758,9.17297,-53.5485
84,-734,9.16406,53.4708,0.000637729,0.0031989,0.000632142,0.00334643,0.000490203,1.34153,0.00208683,0.0165889,1308,1758,9.16411,-53.4708
91,-734,9.16626,53.4009,0.000879392,0.00283918,0.000977831,0.00324361,0.000474965,1.17862,0.00202276,0.0182395,1315,1758,9.16628,-53.4008
98,-734,9.17041,53.361,0.00113424,0.00262164,0.00130136,0.00337682,0.000379061,1.04499,0.0021361,0.0148012,1322,1758,9.17037,-53.3609
105,-734,9.14526,53.2993,0.00122624,0.00219524,0.0015547,0.00333918,8.22968e-05,0.936448,0.0021992,0.0159033,1329,1758,9.14528,-53.2993
112,-734,9.14539,53.1825,0.00123585,0.00170001,0.00178814,0.00327107,-0.000335209,0.849933,0.0023006,0.0123815,1336,1758,9.1454,-53.1824
119,-734,9.1488,53.0856,0.00115953,0.00132618,0.0018769,0.0031216,-0.000635896,0.807581,0.00232224,0.0124229,1343,1758,9.14875,-53.0855
126,-734,9.12329,52.9585,0.00101341,0.00132285,0.00175717,0.0029321,-0.000595837,0.829311,0.00218065,0.0164647,1350,1758,9.12328,-52.9585
133,-734,9.08325,52.808,0.000702476,0.00149524,0.00154016,0.00268921,-0.000491493,0.911347,0.00197711,0.0144436,1357,1758,9.08322,-52.8079
140,-734,9.05884,52.6561,0.000297592,0.0019063,0.00126616,0.002602,-0.000398105,1.06837,0.00188146,0.0189083,1364,1758,9.05879,-52.6562
147,-734,9.04956,52.4951,-2.6072e-05,0.00228174,0.00098086,0.00264229,-0.000386625,1.21854,0.00190353,0.0137364,1371,1758,9.04957,-52.4951
154,-734,9.0238,52.3621,-0.00039035,0.00255682,0.000581223,0.0026673,-0.000500833,1.38295,0.00196652,0.00961404,1378,1758,9.02374,-52.3621
161,-734,8.99512,52.1956,-0.000708291,0.00284059,0.000190073,0.00285074,-0.000718442,1.51744,0.0021798,0.00900172,1385,1758,8.99506,-52.1956
168,-734,8.96313,51.9822,-0.00122267,0.00274311,-0.000477401,0.00279977,-0.00127933,-1.45266,0.00240899,0.0140945,1392,1758,8.9631,-51.9821
175,-734,8.94727,51.7808,-0.00193762,0.00274162,-0.0011701,0.0030179,-0.00221391,-1.33892,0.00303245,0.0173155,1399,1758,8.94729,-51.7808
182,-734,8.95837,51.5353,-0.00261002,0.00278513,-0.00176727,0.00331248,-0.00313738,-1.28081,0.00372428,0.0164328,1406,1758,8.95839,-51.5352
189,-734,8.90125,51.2991,-0.00239475,0.00324416,-0.00206448,0.00391919,-0.00306978,-1.25478,0.004045,0.0120335,1413,1758,8.90126,-51.2991
196,-734,8.8656,51.0591,-0.00246508,0.00269511,-0.00254691,0.00374043,-0.0035104,-1.18133,0.00418697,0.0141963,1420,1758,8.86559,-51.0591
203,-734,8.88855,50.7622,-0.00298843,0.00138985,-0.00296235,0.00288417,-0.00448274,-1.10361,0.00428654,0.0207574,1427,1758,8.88855,-50.7622
210,-734,8.88855,50.4773,-0.00280948,0.00210342,-0.00341332,0.0038523,-0.00455837,-1.0973,0.00486161,0.0355703,1434,1758,8.8886,-50.4773
217,-734,8.79932,50.2668,0,0,0,0,0,0,0,-1,1441,1758,8.7993,-50.2668
224,-734,8.7428,49.9727,0,0,0,0,0,0,0,-1,1448,1758,8.74285,-49.9727
231,-734,8.66504,49.6257,0,0,0,0,0,0,0,-1,1455,1758,8.66501,-49.6257
238,-734,8.67566,49.2034,0,0,0,0,0,0,0,-1,1462,1758,8.67566,-49.2033
245,-734,8.70386,48.819,0,0,0,0,0,0,0,-1,1469,1758,8.70383,-48.819
252,-734,8.60303,48.5533,0,0,0,0,0,0,0,-1,1476,1758,8.60302,-48.5533
259,-734,8.76367,48.2645,-0.0054589,-0.00345217,-0.00318637,-0.00111492,-0.00779615,-0.937929,0.00486854,0.0473877,1483,1758,8.76372,-48.2645
266,-734,8.7655,48.0885,-0.00615921,-0.00429875,-0.00288946,-0.00219347,-0.00826449,-0.941128,0.00494347,0.049574,1490,1758,8.76545,-48.0885
273,-734,8.62,47.7635,0,0,0,0,0,0,0,-1,1497,1758,8.61998,-47.7636
280,-734,8.41675,47.89,0,0,0,0,0,0,0,-1,1504,1758,8.41678,-47.89
287,-734,7.75159,47.5864,0,0,0,0,0,0,0,-1,1511,1758,7.75164,-47.5864
294,-734,7.31262,42.9679,0,0,0,0,0,0,0,-1,1518,1758,7.31266,-42.9679
301,-734,7.21814,42.6078,0,0,0,0,0,0,0,-1,1525,1758,7.21809,-42.6078
308,-734,8.0509,41.5156,0,0,0,0,0,0,0,-1,1532,1758,8.05087,-41.5157
315,-734,7.93787,40.8274,0,0,0,0,0,0,0,-1,1539,1758,7.93784,-40.8273
322,-734,7.82483,40.139,0,0,0,0,0,0,0,-1,1546,1758,7.82481,-40.139
329,-734,5.73267,19.656,0,0,0,0,0,0,0,-1,1553,1758,5.73262,-19.656
336,-734,6.71375,23.7469,0,0,0,0,0,0,0,-1,1560,1758,6.71372,-23.7469
343,-734,5.54968,5.14221,0,0,0,0,0,0,0,-1,1567,1758,5.54973,-5.14225
350,-734,5.07397,6.73242,0,0,0,0,0,0,0,-1,1574,1758,5.07402,-6.73243
357,-734,5.05542,7.19189,0,0,0,0,0,0,0,-1,1581,1758,5.05541,-7.19184
364,-734,4.43896,10.4904,0,0,0,0,0,0,0,-1,1588,1758,4.43893,-10.4904
371,-734,7.36975,17.4751,0,0,0,0,0,0,0,-1,1595,1758,7.36972,-17.4752
378,-734,0,0,0,0,0,0,0,0,0,-1,1602,1758,0,0
385,-734,0,0,0,0,0,0,0,0,0,-1,1609,1758,0,0
392,-734,0,0,0,0,0,0,0,0,0,-1,1616,1758,0,0
399,-734,0,0,0,0,0,0,0,0,0,-1,1623,1758,0,0
406,-734,0,0,0,0,0,0,0,0,0,-1,1630,1758,0,0
413,-734,0,0,0,0,0,0,0,0,0,-1,1637,1758,0,0
420,-734,0,0,0,0,0,0,0,0,0,-1,1644,1758,0,0
427,-734,0,0,0,0,0,0,0,0,0,-1,1651,1758,0,0
434,-734,0,0,0,0,0,0,0,0,0,-1,1658,1758,0,0
441,-734,0,0,0,0,0,0,0,0,0,-1,1665,1758,0,0
448,-734,0,0,0,0,0,0,0,0,0,-1,1672,1758,0,0
455,-734,0,0,0,0,0,0,0,0,0,-1,1679,1758,0,0
462,-734,0,0,0,0,0,0,0,0,0,-1,1686,1758,0,0
469,-734,0,0,0,0,0,0,0,0,0,-1,1693,1758,0,0
476,-734,0,0,0,0,0,0,0,0,0,-1,1700,1758,0,0
483,-734,0,0,0,0,0,0,0,0,0,-1,1707,1758,0,0
490,-734,0,0,0,0,0,0,0,0,0,-1,1714,1758,0,0
497,-734,0,0,0,0,0,0,0,0,0,-1,1721,1758,0,0
504,-734,0,0,0,0,0,0,0,0,0,-1,1728,1758,0,0
511,-734,0,0,0,0,0,0,0,0,0,-1,1735,1758,0,0
518,-734,0,0,0,0,0,0,0,0,0,-1,1742,1758,0,0
525,-734,0,0,0,0,0,0,0,0,0,-1,1749,1758,0,0
532,-734,0,0,0,0,0,0,0,0,0,-1,1756,1758,0,0
539,-734,0,0,0,0,0,0,0,0,0,-1,1763,1758,0,0
546,-734,0,0,0,0,0,0,0,0,0,-1,1770,1758,0,0
553,-734,0,0,0,0,0,0,0,0,0,-1,1777,1758,0,0
560,-734,0,0,0,0,0,0,0,0,0,-1,1784,1758,0,0
567,-734,0,0,0,0,0,0,0,0,0,-1,1791,1758,0,0
574,-734,0,0,0,0,0,0,0,0,0,-1,1798,1758,0,0
581,-734,0,0,0,0,0,0,0,0,0,-1,1805,1758,0,0
588,-734,0,0,0,0,0,0,0,0,0,-1,1812,1758,0,0
595,-734,0,0,0,0,0,0,0,0,0,-1,1819,1758,0,0
602,-734,0,0,0,0,0,0,0,0,0,-1,1826,1758,0,0
609,-734,0,0,0,0,0,0,0,0,0,-1,1833,1758,0,0
616,-734,0,0,0,0,0,0,0,0,0,-1,1840,1758,0,0
623,-734,0,0,0,0,0,0,0,0,0,-1,1847,1758,0,0
630,-734,0,0,0,0,0,0,0,0,0,-1,1854,1758,0,0
637,-734,0,0,0,0,0,0,0,0,0,-1,1861,1758,0,0
644,-734,0,0,0,0,0,0,0,0,0,-1,1868,1758,0,0
651,-734,0,0,0,0,0,0,0,0,0,-1,1875,1758,0,0
658,-734,0,0,0,0,0,0,0,0,0,-1,1882,1758,0,0
665,-734,0,0,0,0,0,0,0,0,0,-1,1889,1758,0,0
672,-734,0,0,0,0,0,0,0,0,0,-1,1896,1758,0,0
679,-734,0,0,0,0,0,0,0,0,0,-1,1903,1758,0,0
686,-734,0,0,0,0,0,0,0,0,0,-1,1910,1758,0,0
693,-734,0,0,0,0,0,0,0,0,0,-1,1917,1758,0,0
700,-734,0,0,0,0,0,0,0,0,0,-1,1924,1758,0,0
707,-734,0,0,0,0,0,0,0,0,0,-1,1931,1758,0,0
714,-734,0,0,0,0,0,0,0,0,0,-1,1938,1758,0,0
721,-734,0,0,0,0,0,0,0,0,0,-1,1945,1758,0,0
728,-734,0,0,0,0,0,0,0,0,0,-1,1952,1758,0,0
735,-734,0,0,0,0,0,0,0,0,0,-1,1959,1758,0,0
742,-734,0,0,0,0,0,0,0,0,0,-1,1966,1758,0,0
749,-734,0,0,0,0,0,0,0,0,0,-1,1973,1758,0,0
756,-734,0,0,0,0,0,0,0,0,0,-1,1980,1758,0,0
763,-734,0,0,0,0,0,0,0,0,0,-1,1987,1758,0,0
770,-734,0,0,0,0,0,0,0,0,0,-1,1994,1758,0,0
777,-734,0,0,0,0,0,0,0,0,0,-1,2001,1758,0,0
784,-734,0,0,0,0,0,0,0,0,0,-1,2008,1758,0,0
791,-734,0,0,0,0,0,0,0,0,0,-1,2015,1758,0,0
798,-734,0,0,0,0,0,0,0,0,0,-1,2022,1758,0,0
805,-734,0,0,0,0,0,0,0,0,0,-1,2029,1758,0,0
812,-734,0,0,0,0,0,0,0,0,0,-1,2036,1758,0,0
-700,-741,0,0,0,0,0,0,0,0,0,-1,524,1765,0,0
-693,-741,0,0,0,0,0,0,0,0,0,-1,531,1765,0,0
-686,-741,0,0,0,0,0,0,0,0,0,-1,538,1765,0,0
-679,-741,0,0,0,0,0,0,0,0,0,-1,545,1765,0,0
-672,-741,0,0,0,0,0,0,0,0,0,-1,552,1765,0,0
-665,-741,0,0,0,0,0,0,0,0,0,-1,559,1765,0,0
-658,-741,0,0,0,0,0,0,0,0,0,-1,566,1765,0,0
-651,-741,0,0,0,0,0,0,0,0,0,-1,573,1765,0,0
-644,-741,0,0,0,0,0,0,0,0,0,-1,580,1765,0,0
-637,-741,0,0,0,0,0,0,0,0,0,-1,587,1765,0,0
-630,-741,0,0,0,0,0,0,0,0,0,-1,594,1765,0,0
-623,-741,0,0,0,0,0,0,0,0,0,-1,601,1765,0,0
-616,-741,0,0,0,0,0,0,0,0,0,-1,608,1765,0,0
-609,-741,0,0,0,0,0,0,0,0,0,-1,615,1765,0,0
-602,-741,0,0,0,0,0,0,0,0,0,-1,622,1765,0,0
-595,-741,0,0,0,0,0,0,0,0,0,-1,629,1765,0,0
-588,-741,0,0,0,0,0,0,0,0,0,-1,636,1765,0,0
-581,-741,0,0,0,0,0,0,0,0,0,-1,643,1765,0,0
-574,-741,0,0,0,0,0,0,0,0,0,-1,650,1765,0,0
-567,-741,0,0,0,0,0,0,0,0,0,-1,657,1765,0,0
-560,-741,0,0,0,0,0,0,0,0,0,-1,664,1765,0,0
-553,-741,0,0,0,0,0,0,0,0,0,-1,671,1765,0,0
-546,-741,0,0,0,0,0,0,0,0,0,-1,678,1765,0,0
-539,-741,0,0,0,0,0,0,0,0,0,-1,685,1765,0,0
-532,-741,0,0,0,0,0,0,0,0,0,-1,692,1765,0,0
-525,-741,0,0,0,0,0,0,0,0,0,-1,699,1765,0,0
-518,-741,0,0,0,0,0,0,0,0,0,-1,706,1765,0,0
-511,-741,0,0,0,0,0,0,0,0,0,-1,713,1765,0,0
-504,-741,0,0,0,0,0,0,0,0,0,-1,720,1765,0,0
-497,-741,0,0,0,0,0,0,0,0,0,-1,727,1765,0,0
-490,-741,0,0,0,0,0,0,0,0,0,-1,734,1765,0,0
-483,-741,0,0,0,0,0,0,0,0,0,-1,741,1765,0,0
-476,-741,0,0,0,0,0,0,0,0,0,-1,748,1765,0,0
-469,-741,0,0,0,0,0,0,0,0,0,-1,755,1765,0,0
-462,-741,0,0,0,0,0,0,0,0,0,-1,762,1765,0,0
-455,-741,0,0,0,0,0,0,0,0,0,-1,769,1765,0,0
-448,-741,0,0,0,0,0,0,0,0,0,-1,776,1765,0,0
-441,-741,0,0,0,0,0,0,0,0,0,-1,783,1765,0,0
-434,-741,0,0,0,0,0,0,0,0,0,-1,790,1765,0,0
-427,-741,0,0,0,0,0,0,0,0,0,-1,797,1765,0,0
-420,-741,0,0,0,0,0,0,0,0,0,-1,804,1765,0,0
-413,-741,0,0,0,0,0,0,0,0,0,-1,811,1765,0,0
-406,-741,0,0,0,0,0,0,0,0,0,-1,818,1765,0,0
-399,-741,0,0,0,0,0,0,0,0,0,-1,825,1765,0,0
-392,-741,0,0,0,0,0,0,0,0,0,-1,832,1765,0,0
-385,-741,0,0,0,0,0,0,0,0,0,-1,839,1765,0,0
-378,-741,0,0,0,0,0,0,0,0,0,-1,846,1765,0,0
-371,-741,0,0,0,0,0,0,0,0,0,-1,853,1765,0,0
-364,-741,0,0,0,0,0,0,0,0,0,-1,860,1765,0,0
-357,-741,0,0,0,0,0,0,0,0,0,-1,867,1765,0,0
-350,-741,0,0,0,0,0,0,0,0,0,-1,874,1765,0,0
-343,-741,0,0,0,0,0,0,0,0,0,-1,881,1765,0,0
-336,-741,0,0,0,0,0,0,0,0,0,-1,888,1765,0,0
-329,-741,0,0,0,0,0,0,0,0,0,-1,895,1765,0,0
-322,-741,0,0,0,0,0,0,0,0,0,-1,902,1765,0,0
-315,-741,0,0,0,0,0,0,0,0,0,-1,909,1765,0,0
-308,-741,0,0,0,0,0,0,0,0,0,-1,916,1765,0,0
-301,-741,0,0,0,0,0,0,0,0,0,-1,923,1765,0,0
-294,-741,0,0,0,0,0,0,0,0,0,-1,930,1765,0,0
-287,-741,0,0,0,0,0,0,0,0,0,-1,937,1765,0,0
-280,-741,0,0,0,0,0,0,0,0,0,-1,944,1765,0,0
-273,-741,0,0,0,0,0,0,0,0,0,-1,951,1765,0,0
-266,-741,0,0,0,0,0,0,0,0,0,-1,958,1765,0,0
-259,-741,0,0,0,0,0,0,0,0,0,-1,965,1765,0,0
-252,-741,0,0,0,0,0,0,0,0,0,-1,972,1765,0,0
-245,-741,0,0,0,0,0,0,0,0,0,-1,979,1765,0,0
-238,-741,7.13855,29.8348,0,0,0,0,0,0,0,-1,986,1765,7.13856,-29.8348
-231,-741,7.74182,29.3066,0,0,0,0,0,0,0,-1,993,1765,7.74183,-29.3066
-224,-741,7.80078,29.0964,0,0,0,0,0,0,0,-1,1000,1765,7.80079,-29.0964
-217,-741,8.15863,29.113,0,0,0,0,0,0,0,-1,1007,1765,8.15863,-29.1131
-210,-741,8.37024,29.3896,0,0,0,0,0,0,0,-1,1014,1765,8.37022,-29.3896
-203,-741,8.33801,29.8871,0,0,0,0,0,0,0,-1,1021,1765,8.33805,-29.8871
-196,-741,2.04846,42.2267,0,0,0,0,0,0,0,-1,1028,1765,2.04845,-42.2267
-189,-741,9.46558,46.8121,0,0,0,0,0,0,0,-1,1035,1765,9.46555,-46.8121
-182,-741,10.1244,46.8065,0,0,0,0,0,0,0,-1,1042,1765,10.1244,-46.8066
-175,-741,9.80457,47.8402,0,0,0,0,0,0,0,-1,1049,1765,9.80463,-47.8403
-168,-741,11.0044,47.1123,0,0,0,0,0,0,0,-1,1056,1765,11.0044,-47.1123
-161,-741,11.6957,47.6057,0,0,0,0,0,0,0,-1,1063,1765,11.6957,-47.6057
-154,-741,12.6467,48.1807,0,0,0,0,0,0,0,-1,1070,1765,12.6467,-48.1806
-147,-741,11.3824,46.1283,0,0,0,0,0,0,0,-1,1077,1765,11.3824,-46.1282
-140,-741,9.97888,47.2156,0,0,0,0,0,0,0,-1,1084,1765,9.97885,-47.2156
-133,-741,10.746,48.1193,0,0,0,0,0,0,0,-1,1091,1765,10.7459,-48.1193
-126,-741,10.038,48.3344,0,0,0,0,0,0,0,-1,1098,1765,10.038,-48.3343
-119,-741,10.0664,48.6525,0,0,0,0,0,0,0,-1,1105,1765,10.0665,-48.6524
-112,-741,9.6283,47.2815,0,0,0,0,0,0,0,-1,1112,1765,9.62827,-47.2815
-105,-741,9.61792,45.9158,0,0,0,0,0,0,0,-1,1119,1765,9.61797,-45.9158
-98,-741,9.19971,40.25,0,0,0,0,0,0,0,-1,1126,1765,9.19971,-40.25
-91,-741,8.40002,36.3687,0,0,0,0,0,0,0,-1,1133,1765,8.40002,-36.3687
-84,-741,7.8877,35.0892,0,0,0,0,0,0,0,-1,1140,1765,7.88776,-35.0892
-77,-741,7.73303,34.1174,0,0,0,0,0,0,0,-1,1147,1765,7.73304,-34.1174
-70,-741,7.5437,32.0275,0,0,0,0,0,0,0,-1,1154,1765,7.5437,-32.0275
-63,-741,9.4137,50.663,0,0,0,0,0,0,0,-1,1161,1765,9.41364,-50.6629
-56,-741,9.71851,51.3527,0,0,0,0,0,0,0,-1,1168,1765,9.71851,-51.3526
-49,-741,9.67102,51.7754,0,0,0,0,0,0,0,-1,1175,1765,9.67101,-51.7754
-42,-741,9.57678,52.0281,0,0,0,0,0,0,0,-1,1182,1765,9.57681,-52.028
-35,-741,9.57751,52.1533,-0.00607066,0.000342807,0.00167322,0.000753091,-0.00648095,1.33033,0.00459229,0.0247105,1189,1765,9.57751,-52.1533
-28,-741,9.57434,52.3439,-0.00659722,-0.000936943,0.00111367,-0.00072571,-0.00680845,1.38335,0.00431744,0.0151692,1196,1765,9.57431,-52.3439
-21,-741,9.59399,52.5134,-0.00673949,-0.00177197,0.000664377,-0.00168465,-0.00682681,1.44011,0.00410651,0.0194607,1203,1765,9.59395,-52.5134
-14,-741,9.53088,52.7014,-0.00701006,-0.00253146,0.000345081,-0.00250503,-0.00703649,1.49435,0.00411829,0.0193996,1210,1765,9.5309,-52.7014
-7,-741,9.46777,52.85,-0.00713071,-0.00331121,-5.64492e-05,-0.00331038,-0.00713154,-1.55602,0.00412092,0.0164159,1217,1765,9.46773,-52.85
0,-741,9.42749,52.9476,-0.00698509,-0.0035655,-0.000308925,-0.00353781,-0.00701278,-1.48142,0.00404888,0.0156183,1224,1765,9.42753,-52.9476
7,-741,9.40442,53.0726,-0.0067296,-0.00307869,-0.000669996,-0.00295962,-0.00684867,-1.39491,0.0039662,0.01673,1231,1765,9.40446,-53.0726
14,-741,9.36096,53.1906,-0.00636326,-0.00206911,-0.00113677,-0.00178675,-0.00664562,-1.32733,0.00397116,0.0159061,1238,1765,9.3609,-53.1905
21,-741,9.32495,53.2739,-0.00598228,-0.00111341,-0.00150481,-0.000685866,-0.00640983,-1.29397,0.00406394,0.0125971,1245,1765,9.32493,-53.274
28,-741,9.30103,53.374,-0.0057178,6.49168e-05,-0.00158758,0.000472098,-0.00612498,-1.31973,0.00424944,0.0129525,1252,1765,9.30108,-53.374
35,-741,9.30383,53.4244,-0.00519058,0.00129616,-0.00168307,0.00170685,-0.00560128,-1.33146,0.00441453,0.0151458,1259,1765,9.30387,-53.4244
42,-741,9.28125,53.4441,-0.00465291,0.0025131,-0.00175557,0.00292008,-0.00505988,-1.343,0.00466212,0.0157402,1266,1765,9.28121,-53.4441
49,-741,9.25696,53.4906,-0.00418082,0.00374966,-0.00160507,0.0040622,-0.00449336,-1.37848,0.00494164,0.0105456,1273,1765,9.25701,-53.4906
56,-741,9.20728,53.5321,-0.00389529,0.00476857,-0.00142779,0.0049978,-0.00412453,-1.4116,0.00527481,0.0107062,1280,1765,9.20724,-53.5321
63,-741,9.1731,53.5419,-0.00329208,0.00600358,-0.000719989,0.00605901,-0.00334752,-1.49395,0.00550556,0.0155656,1287,1765,9.17313,-53.5419
70,-741,9.14502,53.546,-0.00235207,0.00668909,9.2362e-05,0.00669004,-0.00235301,1.56058,0.00541746,0.0175318,1294,1765,9.14505,-53.546
77,-741,9.12427,53.5316,-0.00134459,0.00681676,0.000899916,0.00691481,-0.00144264,1.46227,0.00515844,0.0145103,1301,1765,9.1243,-53.5316
84,-741,9.10498,53.4819,-0.000881129,0.00633066,0.00167817,0.00670204,-0.00125251,1.353,0.00493876,0.0161281,1308,1765,9.10499,-53.4819
91,-741,9.09851,53.4281,-0.000239212,0.00609393,0.0023961,0.00689831,-0.00104359,1.24691,0.0049833,0.0130253,1315,1765,9.09847,-53.4281
98,-741,9.08313,53.3538,0.000418725,0.00599092,0.00302271,0.00731568,-0.000906034,1.15774,0.00520548,0.0107945,1322,1765,9.08316,-53.3537
105,-741,9.06055,53.2651,0.000904335,0.0055064,0.00343834,0.00734263,-0.000931893,1.08029,0.00523345,0.0114165,1329,1765,9.06051,-53.2652
112,-741,9.0658,53.157,0.00140917,0.0048288,0.00376705,0.00725591,-0.00101794,0.998439,0.00520984,0.010597,1336,1765,9.06574,-53.1569
119,-741,9.04309,53.0563,0.00179443,0.00422189,0.00384941,0.00704439,-0.00102806,0.938116,0.00507379,0.0131253,1343,1765,9.0431,-53.0563
126,-741,9.01392,52.9426,0.00201619,0.00416311,0.00349935,0.00674995,-0.000570651,0.934221,0.00470174,0.0189963,1350,1765,9.01394,-52.9427
133,-741,8.97412,52.7966,0.00220938,0.00430001,0.0028683,0.00630753,0.000201856,0.960137,0.00413938,0.0139777,1357,1765,8.97416,-52.7966
140,-741,8.91431,52.6555,0.00191629,0.00459761,0.002362,0.00597291,0.00054099,1.04352,0.00381442,0.0107668,1364,1765,8.91429,-52.6555
147,-741,8.89343,52.4985,0.00145429,0.00482255,0.00189002,0.00566992,0.000606925,1.14933,0.00359476,0.0102569,1371,1765,8.89344,-52.4986
154,-741,8.86414,52.359,0.000966627,0.00491589,0.00126772,0.0052878,0.000594713,1.28543,0.00334464,0.0089275,1378,1765,8.86408,-52.359
161,-741,8.83398,52.1903,0.000488947,0.00509001,0.000708468,0.00519663,0.000382328,1.42143,0.00334427,0.0109814,1385,1765,8.83401,-52.1902
168,-741,8.82703,51.9758,-0.000366159,0.00454982,-0.00039228,0.00458093,-0.000397265,-1.49167,0.00319462,0.0265374,1392,1765,8.82705,-51.9759
175,-741,8.80359,51.7815,0,0,0,0,0,0,0,-1,1399,1765,8.80357,-51.7815
182,-741,8.75183,51.5093,0,0,0,0,0,0,0,-1,1406,1765,8.75185,-51.5093
189,-741,8.66016,51.3091,0,0,0,0,0,0,0,-1,1413,1765,8.66019,-51.3091
196,-741,8.62622,51.0786,0,0,0,0,0,0,0,-1,1420,1765,8.62621,-51.0786
203,-741,8.63281,50.7095,0,0,0,0,0,0,0,-1,1427,1765,8.63276,-50.7095
210,-741,8.57068,50.2072,0,0,0,0,0,0,0,-1,1434,1765,8.57067,-50.2071
217,-741,8.4032,40.1213,0,0,0,0,0,0,0,-1,1441,1765,8.40325,-40.1214
224,-741,8.0719,38.4249,0,0,0,0,0,0,0,-1,1448,1765,8.07187,-38.4249
231,-741,7.95923,39.0671,0,0,0,0,0,0,0,-1,1455,1765,7.9592,-39.0671
238,-741,7.96619,42.4865,0,0,0,0,0,0,0,-1,1462,1765,7.96621,-42.4864
245,-741,8.53577,45.7744,0,0,0,0,0,0,0,-1,1469,1765,8.53581,-45.7744
252,-741,8.59167,47.473,0,0,0,0,0,0,0,-1,1476,1765,8.59162,-47.473
259,-741,8.63611,48.2952,0,0,0,0,0,0,0,-1,1483,1765,8.63617,-48.2952
266,-741,8.50134,48.3838,0,0,0,0,0,0,0,-1,1490,1765,8.50132,-48.3838
273,-741,8.81421,49.1227,0,0,0,0,0,0,0,-1,1497,1765,8.81426,-49.1227
280,-741,7.87891,48.6854,0,0,0,0,0,0,0,-1,1504,1765,7.87892,-48.6855
287,-741,6.29468,43.7202,0,0,0,0,0,0,0,-1,1511,1765,6.29464,-43.7202
294,-741,5.91187,43.7742,0,0,0,0,0,0,0,-1,1518,1765,5.91188,-43.7742
301,-741,6.20667,38.5165,0,0,0,0,0,0,0,-1,1525,1765,6.20667,-38.5165
308,-741,7.99036,42.5969,0,0,0,0,0,0,0,-1,1532,1765,7.99037,-42.5969
315,-741,7.83838,41.6693,0,0,0,0,0,0,0,-1,1539,1765,7.83835,-41.6694
322,-741,7.68628,40.7418,0,0,0,0,0,0,0,-1,1546,1765,7.68633,-40.7418
329,-741,4.74414,17.928,0,0,0,0,0,0,0,-1,1553,1765,4.74414,-17.928
336,-741,5.74304,22.0945,0,0,0,0,0,0,0,-1,1560,1765,5.74306,-22.0945
343,-741,7.09888,26.501,0,0,0,0,0,0,0,-1,1567,1765,7.09885,-26.501
350,-741,4.90369,5.44666,0,0,0,0,0,0,0,-1,1574,1765,4.90368,-5.44664
357,-741,4.02063,5.16626,0,0,0,0,0,0,0,-1,1581,1765,4.02058,-5.1662
364,-741,0,0,0,0,0,0,0,0,0,-1,1588,1765,0,0
371,-741,0,0,0,0,0,0,0,0,0,-1,1595,1765,0,0
378,-741,0,0,0,0,0,0,0,0,0,-1,1602,1765,0,0
385,-741,0,0,0,0,0,0,0,0,0,-1,1609,1765,0,0
392,-741,0,0,0,0,0,0,0,0,0,-1,1616,1765,0,0
399,-741,0,0,0,0,0,0,0,0,0,-1,1623,1765,0,0
406,-741,0,0,0,0,0,0,0,0,0,-1,1630,1765,0,0
413,-741,0,0,0,0,0,0,0,0,0,-1,1637,1765,0,0
420,-741,0,0,0,0,0,0,0,0,0,-1,1644,1765,0,0
427,-741,0,0,0,0,0,0,0,0,0,-1,1651,1765,0,0
434,-741,0,0,0,0,0,0,0,0,0,-1,1658,1765,0,0
441,-741,0,0,0,0,0,0,0,0,0,-1,1665,1765,0,0
448,-741,0,0,0,0,0,0,0,0,0,-1,1672,1765,0,0
455,-741,0,0,0,0,0,0,0,0,0,-1,1679,1765,0,0
462,-741,0,0,0,0,0,0,0,0,0,-1,1686,1765,0,0
469,-741,0,0,0,0,0,0,0,0,0,-1,1693,1765,0,0
476,-741,0,0,0,0,0,0,0,0,0,-1,1700,1765,0,0
483,-741,0,0,0,0,0,0,0,0,0,-1,1707,1765,0,0
490,-741,0,0,0,0,0,0,0,0,0,-1,1714,1765,0,0
497,-741,0,0,0,0,0,0,0,0,0,-1,1721,1765,0,0
504,-741,0,0,0,0,0,0,0,0,0,-1,1728,1765,0,0
511,-741,0,0,0,0,0,0,0,0,0,-1,1735,1765,0,0
518,-741,0,0,0,0,0,0,0,0,0,-1,1742,1765,0,0
525,-741,0,0,0,0,0,0,0,0,0,-1,1749,1765,0,0
532,-741,0,0,0,0,0,0,0,0,0,-1,1756,1765,0,0
539,-741,0,0,0,0,0,0,0,0,0,-1,1763,1765,0,0
546,-741,0,0,0,0,0,0,0,0,0,-1,1770,1765,0,0
553,-741,0,0,0,0,0,0,0,0,0,-1,1777,1765,0,0
560,-741,0,0,0,0,0,0,0,0,0,-1,1784,1765,0,0
567,-741,0,0,0,0,0,0,0,0,0,-1,1791,1765,0,0
574,-741,0,0,0,0,0,0,0,0,0,-1,1798,1765,0,0
581,-741,0,0,0,0,0,0,0,0,0,-1,1805,1765,0,0
588,-741,0,0,0,0,0,0,0,0,0,-1,1812,1765,0,0
595,-741,0,0,0,0,0,0,0,0,0,-1,1819,1765,0,0
602,-741,0,0,0,0,0,0,0,0,0,-1,1826,1765,0,0
609,-741,0,0,0,0,0,0,0,0,0,-1,1833,1765,0,0
616,-741,0,0,0,0,0,0,0,0,0,-1,1840,1765,0,0
623,-741,0,0,0,0,0,0,0,0,0,-1,1847,1765,0,0
630,-741,0,0,0,0,0,0,0,0,0,-1,1854,1765,0,0
637,-741,0,0,0,0,0,0,0,0,0,-1,1861,1765,0,0
644,-741,0,0,0,0,0,0,0,0,0,-1,1868,1765,0,0
651,-741,0,0,0,0,0,0,0,0,0,-1,1875,1765,0,0
658,-741,0,0,0,0,0,0,0,0,0,-1,1882,1765,0,0
665,-741,0,0,0,0,0,0,0,0,0,-1,1889,1765,0,0
672,-741,0,0,0,0,0,0,0,0,0,-1,1896,1765,0,0
679,-741,0,0,0,0,0,0,0,0,0,-1,1903,1765,0,0
686,-741,0,0,0,0,0,0,0,0,0,-1,1910,1765,0,0
693,-741,0,0,0,0,0,0,0,0,0,-1,1917,1765,0,0
700,-741,0,0,0,0,0,0,0,0,0,-1,1924,1765,0,0
707,-741,0,0,0,0,0,0,0,0,0,-1,1931,1765,0,0
714,-741,0,0,0,0,0,0,0,0,0,-1,1938,1765,0,0
721,-741,0,0,0,0,0,0,0,0,0,-1,1945,1765,0,0
728,-741,0,0,0,0,0,0,0,0,0,-1,1952,1765,0,0
735,-741,0,0,0,0,0,0,0,0,0,-1,1959,1765,0,0
742,-741,0,0,0,0,0,0,0,0,0,-1,1966,1765,0,0
749,-741,0,0,0,0,0,0,0,0,0,-1,1973,1765,0,0
756,-741,0,0,0,0,0,0,0,0,0,-1,1980,1765,0,0
763,-741,0,0,0,0,0,0,0,0,0,-1,1987,1765,0,0
770,-741,0,0,0,0,0,0,0,0,0,-1,1994,1765,0,0
777,-741,0,0,0,0,0,0,0,0,0,-1,2001,1765,0,0
784,-741,0,0,0,0,0,0,0,0,0,-1,2008,1765,0,0
791,-741,0,0,0,0,0,0,0,0,0,-1,2015,1765,0,0
798,-741,0,0,0,0,0,0,0,0,0,-1,2022,1765,0,0
805,-741,0,0,0,0,0,0,0,0,0,-1,2029,1765,0,0
812,-741,0,0,0,0,0,0,0,0,0,-1,2036,1765,0,0
-700,-748,0,0,0,0,0,0,0,0,0,-1,524,1772,0,0
-693,-748,0,0,0,0,0,0,0,0,0,-1,531,1772,0,0
-686,-748,0,0,0,0,0,0,0,0,0,-1,538,1772,0,0
-679,-748,0,0,0,0,0,0,0,0,0,-1,545,1772,0,0
-672,-748,0,0,0,0,0,0,0,0,0,-1,552,1772,0,0
-665,-748,0,0,0,0,0,0,0,0,0,-1,559,1772,0,0
-658,-748,0,0,0,0,0,0,0,0,0,-1,566,1772,0,0
-651,-748,0,0,0,0,0,0,0,0,0,-1,573,1772,0,0
-644,-748,0,0,0,0,0,0,0,0,0,-1,580,1772,0,0
-637,-748,0,0,0,0,0,0,0,0,0,-1,587,1772,0,0
-630,-748,0,0,0,0,0,0,0,0,0,-1,594,1772,0,0
-623,-748,0,0,0,0,0,0,0,0,0,-1,601,1772,0,0
-616,-748,0,0,0,0,0,0,0,0,0,-1,608,1772,0,0
-609,-748,0,0,0,0,0,0,0,0,0,-1,615,1772,0,0
-602,-748,0,0,0,0,0,0,0,0,0,-1,622,1772,0,0
-595,-748,0,0,0,0,0,0,0,0,0,-1,629,1772,0,0
-588,-748,0,0,0,0,0,0,0,0,0,-1,636,1772,0,0
-581,-748,0,0,0,0,0,0,0,0,0,-1,643,1772,0,0
-574,-748,0,0,0,0,0,0,0,0,0,-1,650,1772,0,0
-567,-748,0,0,0,0,0,0,0,0,0,-1,657,1772,0,0
-560,-748,0,0,0,0,0,0,0,0,0,-1,664,1772,0,0
-553,-748,0,0,0,0,0,0,0,0,0,-1,671,1772,0,0
-546,-748,0,0,0,0,0,0,0,0,0,-1,678,1772,0,0
-539,-748,0,0,0,0,0,0,0,0,0,-1,685,1772,0,0
-532,-748,0,0,0,0,0,0,0,0,0,-1,692,1772,0,0
-525,-748,0,0,0,0,0,0,0,0,0,-1,699,1772,0,0
-518,-748,0,0,0,0,0,0,0,0,0,-1,706,1772,0,0
-511,-748,0,0,0,0,0,0,0,0,0,-1,713,1772,0,0
-504,-748,0,0,0,0,0,0,0,0,0,-1,720,1772,0,0
-497,-748,0,0,0,0,0,0,0,0,0,-1,727,1772,0,0
-490,-748,0,0,0,0,0,0,0,0,0,-1,734,1772,0,0
-483,-748,0,0,0,0,0,0,0,0,0,-1,741,1772,0,0
-476,-748,0,0,0,0,0,0,0,0,0,-1,748,1772,0,0
-469,-748,0,0,0,0,0,0,0,0,0,-1,755,1772,0,0
-462,-748,0,0,0,0,0,0,0,0,0,-1,762,1772,0,0
-455,-748,0,0,0,0,0,0,0,0,0,-1,769,1772,0,0
-448,-748,0,0,0,0,0,0,0,0,0,-1,776,1772,0,0
-441,-748,0,0,0,0,0,0,0,0,0,-1,783,1772,0,0
-434,-748,0,0,0,0,0,0,0,0,0,-1,790,1772,0,0
-427,-748,0,0,0,0,0,0,0,0,0,-1,797,1772,0,0
-420,-748,0,0,0,0,0,0,0,0,0,-1,804,1772,0,0
-413,-748,0,0,0,0,0,0,0,0,0,-1,811,1772,0,0
-406,-748,0,0,0,0,0,0,0,0,0,-1,818,1772,0,0
-399,-748,0,0,0,0,0,0,0,0,0,-1,825,1772,0,0
-392,-748,0,0,0,0,0,0,0,0,0,-1,832,1772,0,0
-385,-748,0,0,0,0,0,0,0,0,0,-1,839,1772,0,0
-378,-748,0,0,0,0,0,0,0,0,0,-1,846,1772,0,0
-371,-748,0,0,0,0,0,0,0,0,0,-1,853,1772,0,0
-364,-748,0,0,0,0,0,0,0,0,0,-1,860,1772,0,0
-357,-748,0,0,0,0,0,0,0,0,0,-1,867,1772,0,0
-350,-748,0,0,0,0,0,0,0,0,0,-1,874,1772,0,0
-343,-748,0,0,0,0,0,0,0,0,0,-1,881,1772,0,0
-336,-748,0,0,0,0,0,0,0,0,0,-1,888,1772,0,0
-329,-748,0,0,0,0,0,0,0,0,0,-1,895,1772,0,0
-322,-748,0,0,0,0,0,0,0,0,0,-1,902,1772,0,0
-315,-748,0,0,0,0,0,0,0,0,0,-1,909,1772,0,0
-308,-748,0,0,0,0,0,0,0,0,0,-1,916,1772,0,0
-301,-748,0,0,0,0,0,0,0,0,0,-1,923,1772,0,0
-294,-748,0,0,0,0,0,0,0,0,0,-1,930,1772,0,0
-287,-748,0,0,0,0,0,0,0,0,0,-1,937,1772,0,0
-280,-748,0,0,0,0,0,0,0,0,0,-1,944,1772,0,0
-273,-748,0,0,0,0,0,0,0,0,0,-1,951,1772,0,0
-266,-748,0,0,0,0,0,0,0,0,0,-1,958,1772,0,0
-259,-748,0,0,0,0,0,0,0,0,0,-1,965,1772,0,0
-252,-748,0,0,0,0,0,0,0,0,0,-1,972,1772,0,0
-245,-748,0,0,0,0,0,0,0,0,0,-1,979,1772,0,0
-238,-748,0,0,0,0,0,0,0,0,0,-1,986,1772,0,0
-231,-748,0,0,0,0,0,0,0,0,0,-1,993,1772,0,0
-224,-748,0,0,0,0,0,0,0,0,0,-1,1000,1772,0,0
-217,-748,8.97742,29.9884,0,0,0,0,0,0,0,-1,1007,1772,8.97744,-29.9884
-210,-748,8.8941,30.14,0,0,0,0,0,0,0,-1,1014,1772,8.8941,-30.14
-203,-748,-0.821899,39.5326,0,0,0,0,0,0,0,-1,1021,1772,-0.821892,-39.5326
-196,-748,0.60083,40.5905,0,0,0,0,0,0,0,-1,1028,1772,0.600866,-40.5905
-189,-748,2.17188,41.5771,0,0,0,0,0,0,0,-1,1035,1772,2.17191,-41.5772
-182,-748,13.4258,44.5267,0,0,0,0,0,0,0,-1,1042,1772,13.4258,-44.5268
-175,-748,15.0717,44.8014,0,0,0,0,0,0,0,-1,1049,1772,15.0716,-44.8014
-168,-748,15.6296,44.9393,0,0,0,0,0,0,0,-1,1056,1772,15.6297,-44.9393
-161,-748,16.1071,45.1337,0,0,0,0,0,0,0,-1,1063,1772,16.107,-45.1337
-154,-748,11.72,45.9659,0,0,0,0,0,0,0,-1,1070,1772,11.7199,-45.966
-147,-748,12.1674,46.7341,0,0,0,0,0,0,0,-1,1077,1772,12.1673,-46.7341
-140,-748,10.4108,44.9001,0,0,0,0,0,0,0,-1,1084,1772,10.4107,-44.9001
-133,-748,7.44727,22.0308,0,0,0,0,0,0,0,-1,1091,1772,7.44728,-22.0308
-126,-748,5.98035,22.6067,0,0,0,0,0,0,0,-1,1098,1772,5.9803,-22.6067
-119,-748,6.63342,26.309,0,0,0,0,0,0,0,-1,1105,1772,6.6334,-26.3089
-112,-748,6.91333,24.923,0,0,0,0,0,0,0,-1,1112,1772,6.91339,-24.923
-105,-748,6.83313,25.0537,0,0,0,0,0,0,0,-1,1119,1772,6.83311,-25.0537
-98,-748,8.13623,30.8743,0,0,0,0,0,0,0,-1,1126,1772,8.13628,-30.8742
-91,-748,4.85352,15.3033,0,0,0,0,0,0,0,-1,1133,1772,4.85351,-15.3033
-84,-748,-0.192017,7.26196,0,0,0,0,0,0,0,-1,1140,1772,-0.192047,-7.26201
-77,-748,4.42615,13.5537,0,0,0,0,0,0,0,-1,1147,1772,4.4261,-13.5538
-70,-748,4.46191,13.7446,0,0,0,0,0,0,0,-1,1154,1772,4.4619,-13.7446
-63,-748,4.49768,13.9355,0,0,0,0,0,0,0,-1,1161,1772,4.49769,-13.9355
-56,-748,3.05762,7.87817,0,0,0,0,0,0,0,-1,1168,1772,3.05768,-7.87822
-49,-748,3.04102,7.82471,0,0,0,0,0,0,0,-1,1175,1772,3.04096,-7.82468
-42,-748,0.793457,14.9474,0,0,0,0,0,0,0,-1,1182,1772,0.793413,-14.9474
-35,-748,9.81213,52.0879,0,0,0,0,0,0,0,-1,1189,1772,9.81216,-52.0879
-28,-748,9.77148,52.3602,-0.0101171,-0.0033412,0.000161437,-0.00333736,-0.0101209,1.54699,0.00595516,0.0493791,1196,1772,9.77146,-52.3602
-21,-748,9.72766,52.5322,-0.0102971,-0.004159,-0.000596912,-0.00410149,-0.0103546,-1.47475,0.00602108,0.0238762,1203,1772,9.72766,-52.5322
-14,-748,9.65576,52.6368,-0.0106819,-0.00498798,-0.00101342,-0.00481298,-0.0108569,-1.39981,0.00628165,0.0172293,1210,1772,9.65581,-52.6368
-7,-748,9.60388,52.7935,-0.0107736,-0.00583846,-0.00154682,-0.00539372,-0.0112183,-1.29083,0.00647849,0.0175221,1217,1772,9.60394,-52.7934
0,-748,9.53699,52.9191,-0.010432,-0.00594202,-0.00195913,-0.00520738,-0.0111666,-1.21204,0.00645192,0.0169552,1224,1772,9.53702,-52.9191
7,-748,9.50574,53.0208,-0.00994069,-0.00509013,-0.00251358,-0.00402255,-0.0110083,-1.16916,0.00643192,0.015361,1231,1772,9.50577,-53.0208
14,-748,9.4552,53.1572,-0.00928821,-0.00354186,-0.00321071,-0.00210646,-0.0107236,-1.15039,0.00656062,0.0161671,1238,1772,9.45521,-53.1572
21,-748,9.40552,53.2484,-0.00877909,-0.00199182,-0.00365427,-0.000398427,-0.0103725,-1.15962,0.00678608,0.0117875,1245,1772,9.40546,-53.2484
28,-748,9.37976,53.3574,-0.00854423,-0.000231122,-0.00351436,0.00105545,-0.0098308,-1.21986,0.00693252,0.0118793,1252,1772,9.37972,-53.3575
35,-748,9.33813,53.4033,-0.00790991,0.00166577,-0.00344545,0.00277662,-0.00902076,-1.25891,0.00712214,0.0129402,1259,1772,9.33817,-53.4033
42,-748,9.3158,53.4344,-0.00726894,0.00362381,-0.00324625,0.00451787,-0.008163,-1.30205,0.00742144,0.0152597,1266,1772,9.31581,-53.4345
49,-748,9.28821,53.4585,-0.00672952,0.00561014,-0.00268564,0.00616931,-0.00728869,-1.36552,0.00777894,0.0117849,1273,1772,9.28824,-53.4585
56,-748,9.22754,53.5045,-0.00646836,0.00729187,-0.00207868,0.00759903,-0.00677552,-1.42409,0.00830369,0.0110364,1280,1772,9.22754,-53.5045
63,-748,9.1908,53.5067,-0.00567108,0.00929692,-0.000682922,0.00932801,-0.00570218,-1.5253,0.00876144,0.0128834,1287,1772,9.19084,-53.5067
70,-748,9.17053,53.4928,-0.00425133,0.0105306,0.000843418,0.0105786,-0.0042993,1.51398,0.00884108,0.0151621,1294,1772,9.17056,-53.4928
77,-748,9.12891,53.4801,-0.00251884,0.0110337,0.00220508,0.0113835,-0.00286859,1.41349,0.0087042,0.0138039,1301,1772,9.12885,-53.4801
84,-748,9.06897,53.4681,-0.00149922,0.0106832,0.00352472,0.0116295,-0.00244551,1.30851,0.00868373,0.0146299,1308,1772,9.06891,-53.4681
91,-748,9.04602,53.4276,-0.000116227,0.0105404,0.00462395,0.012267,-0.00184283,1.21343,0.00885644,0.0119471,1315,1772,9.04605,-53.4276
98,-748,8.99902,53.3453,0.00135111,0.0105126,0.00552119,0.0131059,-0.00124219,1.13168,0.00917938,0.0114859,1322,1772,8.99897,-53.3454
105,-748,8.97083,53.2386,0.00263896,0.0099525,0.00612248,0.0134271,-0.000835658,1.0546,0.00924256,0.0121057,1329,1772,8.97089,-53.2386
112,-748,8.95508,53.157,0.00401522,0.00909479,0.00655909,0.0135886,-0.000478635,0.970117,0.00922278,0.0147333,1336,1772,8.95503,-53.157
119,-748,8.93408,53.0472,0.00526134,0.00829935,0.00663064,0.0135828,-2.20644e-05,0.898,0.00906253,0.0139464,1343,1772,8.9341,-53.0472
126,-748,8.90442,52.9402,0.00634733,0.00813968,0.00592325,0.0132342,0.00125284,0.860478,0.00843623,0.0154968,1350,1772,8.90443,-52.9402
133,-748,8.82178,52.8075,0.00733039,0.00830834,0.00475921,0.0126036,0.00303511,0.83659,0.00759561,0.00917942,1357,1772,8.82176,-52.8075
140,-748,8.79956,52.675,0.0073809,0.00854998,0.00405257,0.0120599,0.00387093,0.857023,0.00711003,0.0120737,1364,1772,8.79961,-52.6751
147,-748,8.76965,52.507,0.00701684,0.00869314,0.00335934,0.0113173,0.00439267,0.907651,0.00658833,0.0138364,1371,1772,8.76965,-52.507
154,-748,8.70349,52.3385,0.00657614,0.00870823,0.00248738,0.0103484,0.00493599,0.987849,0.00597675,0.0118368,1378,1772,8.70345,-52.3385
161,-748,8.64136,52.1995,0.00592973,0.00886438,0.00173661,0.00967057,0.00512354,1.13617,0.00558661,0.0188827,1385,1772,8.64135,-52.1995
168,-748,8.60437,52.0566,0,0,0,0,0,0,0,-1,1392,1772,8.60437,-52.0566
175,-748,11.6235,16.8242,0,0,0,0,0,0,0,-1,1399,1772,11.6236,-16.8242
182,-748,7.62476,10.3058,0,0,0,0,0,0,0,-1,1406,1772,7.62476,-10.3058
189,-748,6.15857,6.95898,0,0,0,0,0,0,0,-1,1413,1772,6.15862,-6.95896
196,-748,3.9425,8.46021,0,0,0,0,0,0,0,-1,1420,1772,3.9425,-8.46026
203,-748,3.9668,12.9835,0,0,0,0,0,0,0,-1,1427,1772,3.96678,-12.9836
210,-748,4.71472,16.8318,0,0,0,0,0,0,0,-1,1434,1772,4.71471,-16.8317
217,-748,5.38452,21.5551,0,0,0,0,0,0,0,-1,1441,1772,5.38455,-21.555
224,-748,6.14258,25.2345,0,0,0,0,0,0,0,-1,1448,1772,6.14263,-25.2345
231,-748,6.46045,29.7867,0,0,0,0,0,0,0,-1,1455,1772,6.46049,-29.7867
238,-748,7.41565,32.8574,0,0,0,0,0,0,0,-1,1462,1772,7.41562,-32.8574
245,-748,7.84912,32.0914,0,0,0,0,0,0,0,-1,1469,1772,7.84914,-32.0914
252,-748,7.57336,29.4369,0,0,0,0,0,0,0,-1,1476,1772,7.57337,-29.4369
259,-748,9.47351,46.1896,0,0,0,0,0,0,0,-1,1483,1772,9.4735,-46.1895
266,-748,8.36536,48.6908,0,0,0,0,0,0,0,-1,1490,1772,8.36541,-48.6909
273,-748,7.31421,46.6743,0,0,0,0,0,0,0,-1,1497,1772,7.31415,-46.6743
280,-748,8.76538,40.4501,0,0,0,0,0,0,0,-1,1504,1772,8.76537,-40.45
287,-748,14.161,8.32813,0,0,0,0,0,0,0,-1,1511,1772,14.161,-8.32808
294,-748,6.38525,32.4724,0,0,0,0,0,0,0,-1,1518,1772,6.38521,-32.4725
301,-748,5.40393,38.9807,0,0,0,0,0,0,0,-1,1525,1772,5.40397,-38.9807
308,-748,5.95227,37.1827,0,0,0,0,0,0,0,-1,1532,1772,5.95229,-37.1827
315,-748,7.71741,42.637,0,0,0,0,0,0,0,-1,1539,1772,7.71738,-42.637
322,-748,4.26538,29.0557,0,0,0,0,0,0,0,-1,1546,1772,4.26537,-29.0556
329,-748,3.87256,16.1473,0,0,0,0,0,0,0,-1,1553,1772,3.87259,-16.1474
336,-748,4.81006,19.6141,0,0,0,0,0,0,0,-1,1560,1772,4.81011,-19.6141
343,-748,0,0,0,0,0,0,0,0,0,-1,1567,1772,0,0
350,-748,0,0,0,0,0,0,0,0,0,-1,1574,1772,0,0
357,-748,0,0,0,0,0,0,0,0,0,-1,1581,1772,0,0
364,-748,0,0,0,0,0,0,0,0,0,-1,1588,1772,0,0
371,-748,0,0,0,0,0,0,0,0,0,-1,1595,1772,0,0
378,-748,0,0,0,0,0,0,0,0,0,-1,1602,1772,0,0
385,-748,0,0,0,0,0,0,0,0,0,-1,1609,1772,0,0
392,-748,0,0,0,0,0,0,0,0,0,-1,1616,1772,0,0
399,-748,0,0,0,0,0,0,0,0,0,-1,1623,1772,0,0
406,-748,0,0,0,0,0,0,0,0,0,-1,1630,1772,0,0
413,-748,0,0,0,0,0,0,0,0,0,-1,1637,1772,0,0
420,-748,0,0,0,0,0,0,0,0,0,-1,1644,1772,0,0
427,-748,0,0,0,0,0,0,0,0,0,-1,1651,1772,0,0
434,-748,0,0,0,0,0,0,0,0,0,-1,1658,1772,0,0
441,-748,0,0,0,0,0,0,0,0,0,-1,1665,1772,0,0
448,-748,0,0,0,0,0,0,0,0,0,-1,1672,1772,0,0
455,-748,0,0,0,0,0,0,0,0,0,-1,1679,1772,0,0
462,-748,0,0,0,0,0,0,0,0,0,-1,1686,1772,0,0
469,-748,0,0,0,0,0,0,0,0,0,-1,1693,1772,0,0
476,-748,0,0,0,0,0,0,0,0,0,-1,1700,1772,0,0
483,-748,0,0,0,0,0,0,0,0,0,-1,1707,1772,0,0
490,-748,0,0,0,0,0,0,0,0,0,-1,1714,1772,0,0
497,-748,0,0,0,0,0,0,0,0,0,-1,1721,1772,0,0
504,-748,0,0,0,0,0,0,0,0,0,-1,1728,1772,0,0
511,-748,0,0,0,0,0,0,0,0,0,-1,1735,1772,0,0
518,-748,0,0,0,0,0,0,0,0,0,-1,1742,1772,0,0
525,-748,0,0,0,0,0,0,0,0,0,-1,1749,1772,0,0
532,-748,0,0,0,0,0,0,0,0,0,-1,1756,1772,0,0
539,-748,0,0,0,0,0,0,0,0,0,-1,1763,1772,0,0
546,-748,0,0,0,0,0,0,0,0,0,-1,1770,1772,0,0
553,-748,0,0,0,0,0,0,0,0,0,-1,1777,1772,0,0
560,-748,0,0,0,0,0,0,0,0,0,-1,1784,1772,0,0
567,-748,0,0,0,0,0,0,0,0,0,-1,1791,1772,0,0
574,-748,0,0,0,0,0,0,0,0,0,-1,1798,1772,0,0
581,-748,0,0,0,0,0,0,0,0,0,-1,1805,1772,0,0
588,-748,0,0,0,0,0,0,0,0,0,-1,1812,1772,0,0
595,-748,0,0,0,0,0,0,0,0,0,-1,1819,1772,0,0
602,-748,0,0,0,0,0,0,0,0,0,-1,1826,1772,0,0
609,-748,0,0,0,0,0,0,0,0,0,-1,1833,1772,0,0
616,-748,0,0,0,0,0,0,0,0,0,-1,1840,1772,0,0
623,-748,0,0,0,0,0,0,0,0,0,-1,1847,1772,0,0
630,-748,0,0,0,0,0,0,0,0,0,-1,1854,1772,0,0
637,-748,0,0,0,0,0,0,0,0,0,-1,1861,1772,0,0
644,-748,0,0,0,0,0,0,0,0,0,-1,1868,1772,0,0
651,-748,0,0,0,0,0,0,0,0,0,-1,1875,1772,0,0
658,-748,0,0,0,0,0,0,0,0,0,-1,1882,1772,0,0
665,-748,0,0,0,0,0,0,0,0,0,-1,1889,1772,0,0
672,-748,0,0,0,0,0,0,0,0,0,-1,1896,1772,0,0
679,-748,0,0,0,0,0,0,0,0,0,-1,1903,1772,0,0
686,-748,0,0,0,0,0,0,0,0,0,-1,1910,1772,0,0
693,-748,0,0,0,0,0,0,0,0,0,-1,1917,1772,0,0
700,-748,0,0,0,0,0,0,0,0,0,-1,1924,1772,0,0
707,-748,0,0,0,0,0,0,0,0,0,-1,1931,1772,0,0
714,-748,0,0,0,0,0,0,0,0,0,-1,1938,1772,0,0
721,-748,0,0,0,0,0,0,0,0,0,-1,1945,1772,0,0
728,-748,0,0,0,0,0,0,0,0,0,-1,1952,1772,0,0
735,-748,0,0,0,0,0,0,0,0,0,-1,1959,1772,0,0
742,-748,0,0,0,0,0,0,0,0,0,-1,1966,1772,0,0
749,-748,0,0,0,0,0,0,0,0,0,-1,1973,1772,0,0
756,-748,0,0,0,0,0,0,0,0,0,-1,1980,1772,0,0
763,-748,0,0,0,0,0,0,0,0,0,-1,1987,1772,0,0
770,-748,0,0,0,0,0,0,0,0,0,-1,1994,1772,0,0
777,-748,0,0,0,0,0,0,0,0,0,-1,2001,1772,0,0
784,-748,0,0,0,0,0,0,0,0,0,-1,2008,1772,0,0
791,-748,0,0,0,0,0,0,0,0,0,-1,2015,1772,0,0
798,-748,0,0,0,0,0,0,0,0,0,-1,2022,1772,0,0
805,-748,0,0,0,0,0,0,0,0,0,-1,2029,1772,0,0
812,-748,0,0,0,0,0,0,0,0,0,-1,2036,1772,0,0
-700,-755,0,0,0,0,0,0,0,0,0,-1,524,1779,0,0
-693,-755,0,0,0,0,0,0,0,0,0,-1,531,1779,0,0
-686,-755,0,0,0,0,0,0,0,0,0,-1,538,1779,0,0
-679,-755,0,0,0,0,0,0,0,0,0,-1,545,1779,0,0
-672,-755,0,0,0,0,0,0,0,0,0,-1,552,1779,0,0
-665,-755,0,0,0,0,0,0,0,0,0,-1,559,1779,0,0
-658,-755,0,0,0,0,0,0,0,0,0,-1,566,1779,0,0
-651,-755,0,0,0,0,0,0,0,0,0,-1,573,1779,0,0
-644,-755,0,0,0,0,0,0,0,0,0,-1,580,1779,0,0
-637,-755,0,0,0,0,0,0,0,0,0,-1,587,1779,0,0
-630,-755,0,0,0,0,0,0,0,0,0,-1,594,1779,0,0
-623,-755,0,0,0,0,0,0,0,0,0,-1,601,1779,0,0
-616,-755,0,0,0,0,0,0,0,0,0,-1,608,1779,0,0
-609,-755,0,0,0,0,0,0,0,0,0,-1,615,1779,0,0
-602,-755,0,0,0,0,0,0,0,0,0,-1,622,1779,0,0
-595,-755,0,0,0,0,0,0,0,0,0,-1,629,1779,0,0
-588,-755,0,0,0,0,0,0,0,0,0,-1,636,1779,0,0
-581,-755,0,0,0,0,0,0,0,0,0,-1,643,1779,0,0
-574,-755,0,0,0,0,0,0,0,0,0,-1,650,1779,0,0
-567,-755,0,0,0,0,0,0,0,0,0,-1,657,1779,0,0
-560,-755,0,0,0,0,0,0,0,0,0,-1,664,1779,0,0
-553,-755,0,0,0,0,0,0,0,0,0,-1,671,1779,0,0
-546,-755,0,0,0,0,0,0,0,0,0,-1,678,1779,0,0
-539,-755,0,0,0,0,0,0,0,0,0,-1,685,1779,0,0
-532,-755,0,0,0,0,0,0,0,0,0,-1,692,1779,0,0
-525,-755,0,0,0,0,0,0,0,0,0,-1,699,1779,0,0
-518,-755,0,0,0,0,0,0,0,0,0,-1,706,1779,0,0
-511,-755,0,0,0,0,0,0,0,0,0,-1,713,1779,0,0
-504,-755,0,0,0,0,0,0,0,0,0,-1,720,1779,0,0
-497,-755,0,0,0,0,0,0,0,0,0,-1,727,1779,0,0
-490,-755,0,0,0,0,0,0,0,0,0,-1,734,1779,0,0
-483,-755,0,0,0,0,0,0,0,0,0,-1,741,1779,0,0
-476,-755,0,0,0,0,0,0,0,0,0,-1,748,1779,0,0
-469,-755,0,0,0,0,0,0,0,0,0,-1,755,1779,0,0
-462,-755,0,0,0,0,0,0,0,0,0,-1,762,1779,0,0
-455,-755,0,0,0,0,0,0,0,0,0,-1,769,1779,0,0
-448,-755,0,0,0,0,0,0,0,0,0,-1,776,1779,0,0
-441,-755,0,0,0,0,0,0,0,0,0,-1,783,1779,0,0
-434,-755,0,0,0,0,0,0,0,0,0,-1,790,1779,0,0
-427,-755,0,0,0,0,0,0,0,0,0,-1,797,1779,0,0
-420,-755,0,0,0,0,0,0,0,0,0,-1,804,1779,0,0
-413,-755,0,0,0,0,0,0,0,0,0,-1,811,1779,0,0
-406,-755,0,0,0,0,0,0,0,0,0,-1,818,1779,0,0
-399,-755,0,0,0,0,0,0,0,0,0,-1,825,1779,0,0
-392,-755,0,0,0,0,0,0,0,0,0,-1,832,1779,0,0
-385,-755,0,0,0,0,0,0,0,0,0,-1,839,1779,0,0
-378,-755,0,0,0,0,0,0,0,0,0,-1,846,1779,0,0
-371,-755,0,0,0,0,0,0,0,0,0,-1,853,1779,0,0
-364,-755,0,0,0,0,0,0,0,0,0,-1,860,1779,0,0
-357,-755,0,0,0,0,0,0,0,0,0,-1,867,1779,0,0
-350,-755,0,0,0,0,0,0,0,0,0,-1,874,1779,0,0
-343,-755,0,0,0,0,0,0,0,0,0,-1,881,1779,0,0
-336,-755,0,0,0,0,0,0,0,0,0,-1,888,1779,0,0
-329,-755,0,0,0,0,0,0,0,0,0,-1,895,1779,0,0
-322,-755,0,0,0,0,0,0,0,0,0,-1,902,1779,0,0
-315,-755,0,0,0,0,0,0,0,0,0,-1,909,1779,0,0
-308,-755,0,0,0,0,0,0,0,0,0,-1,916,1779,0,0
-301,-755,0,0,0,0,0,0,0,0,0,-1,923,1779,0,0
-294,-755,0,0,0,0,0,0,0,0,0,-1,930,1779,0,0
-287,-755,0,0,0,0,0,0,0,0,0,-1,937,1779,0,0
-280,-755,0,0,0,0,0,0,0,0,0,-1,944,1779,0,0
-273,-755,0,0,0,0,0,0,0,0,0,-1,951,1779,0,0
-266,-755,0,0,0,0,0,0,0,0,0,-1,958,1779,0,0
-259,-755,0,0,0,0,0,0,0,0,0,-1,965,1779,0,0
-252,-755,0,0,0,0,0,0,0,0,0,-1,972,1779,0,0
-245,-755,0,0,0,0,0,0,0,0,0,-1,979,1779,0,0
-238,-755,0,0,0,0,0,0,0,0,0,-1,986,1779,0,0
-231,-755,0,0,0,0,0,0,0,0,0,-1,993,1779,0,0
-224,-755,0,0,0,0,0,0,0,0,0,-1,1000,1779,0,0
-217,-755,0,0,0,0,0,0,0,0,0,-1,1007,1779,0,0
-210,-755,0,0,0,0,0,0,0,0,0,-1,1014,1779,0,0
-203,-755,8.97363,30.5414,0,0,0,0,0,0,0,-1,1021,1779,8.97362,-30.5414
-196,-755,-0.84668,38.9543,0,0,0,0,0,0,0,-1,1028,1779,-0.84672,-38.9543
-189,-755,0.725098,39.8892,0,0,0,0,0,0,0,-1,1035,1779,0.725055,-39.8891
-182,-755,1.80835,40.9692,0,0,0,0,0,0,0,-1,1042,1779,1.80838,-40.9692
-175,-755,3.04749,41.9612,0,0,0,0,0,0,0,-1,1049,1779,3.0475,-41.9612
-168,-755,4.8302,42.7631,0,0,0,0,0,0,0,-1,1056,1779,4.8302,-42.7631
-161,-755,6.46777,44.0007,0,0,0,0,0,0,0,-1,1063,1779,6.46773,-44.0007
-154,-755,7.71094,44.9023,0,0,0,0,0,0,0,-1,1070,1779,7.71089,-44.9023
-147,-755,-6.45593,10.2422,0,0,0,0,0,0,0,-1,1077,1779,-6.45594,-10.2422
-140,-755,1.33521,21.3856,0,0,0,0,0,0,0,-1,1084,1779,1.33522,-21.3857
-133,-755,2.89417,21.0964,0,0,0,0,0,0,0,-1,1091,1779,2.89422,-21.0964
-126,-755,3.26404,20.9304,0,0,0,0,0,0,0,-1,1098,1779,3.26399,-20.9305
-119,-755,5.17761,21.9325,0,0,0,0,0,0,0,-1,1105,1779,5.17761,-21.9325
-112,-755,5.40247,24.5646,0,0,0,0,0,0,0,-1,1112,1779,5.40244,-24.5646
-105,-755,7.01294,20.1539,0,0,0,0,0,0,0,-1,1119,1779,7.01295,-20.154
-98,-755,5.50708,16.9628,0,0,0,0,0,0,0,-1,1126,1779,5.5071,-16.9628
-91,-755,5.51025,12.0438,0,0,0,0,0,0,0,-1,1133,1779,5.51022,-12.0439
-84,-755,0.169312,8.66443,0,0,0,0,0,0,0,-1,1140,1779,0.16932,-8.66446
-77,-755,-0.0491943,6.87439,0,0,0,0,0,0,0,-1,1147,1779,-0.0491385,-6.87443
-70,-755,4.5686,13.2169,0,0,0,0,0,0,0,-1,1154,1779,4.56865,-13.2169
-63,-755,-1.36316,7.3147,0,0,0,0,0,0,0,-1,1161,1779,-1.36312,-7.31473
-56,-755,0.0483398,5.06079,0,0,0,0,0,0,0,-1,1168,1779,0.0483138,-5.06084
-49,-755,-1.32263,5.33716,0,0,0,0,0,0,0,-1,1175,1779,-1.32264,-5.33718
-42,-755,-2.03613,4.01672,0,0,0,0,0,0,0,-1,1182,1779,-2.0361,-4.01671
-35,-755,-2.72498,2.37476,0,0,0,0,0,0,0,-1,1189,1779,-2.72502,-2.37473
-28,-755,9.85193,52.4219,0,0,0,0,0,0,0,-1,1196,1779,9.85191,-52.4219
-21,-755,9.84253,52.6135,0,0,0,0,0,0,0,-1,1203,1779,9.84257,-52.6135
-14,-755,9.84216,52.5917,-0.0149377,-0.00844783,-0.00261351,-0.00752622,-0.0158593,-1.23178,0.00916032,0.0346041,1210,1779,9.84218,-52.5917
-7,-755,9.677,52.7065,-0.0149351,-0.00921705,-0.00321147,-0.00777636,-0.0163758,-1.1491,0.00945856,0.0260051,1217,1779,9.67701,-52.7065
0,-755,9.62842,52.8473,-0.0143685,-0.00904735,-0.00370717,-0.00714484,-0.016271,-1.09665,0.00941727,0.0159317,1224,1779,9.62845,-52.8473
7,-755,9.59387,52.9767,-0.0136176,-0.00772732,-0.00441763,-0.0053631,-0.0159818,-1.0794,0.00939194,0.013944,1231,1779,9.59386,-52.9767
14,-755,9.56787,53.1125,-0.0125904,-0.00537499,-0.00540887,-0.00248104,-0.0154843,-1.07951,0.00960329,0.0128417,1238,1779,9.56783,-53.1126
21,-755,9.47876,53.2472,-0.0119529,-0.00292593,-0.00587338,-3.21213e-05,-0.0148467,-1.11301,0.00988714,0.0178294,1245,1779,9.47872,-53.2472
28,-755,9.43066,53.3041,-0.0118372,-0.000344725,-0.00536902,0.00177325,-0.0139551,-1.19506,0.00994732,0.0205247,1252,1779,9.43068,-53.3041
35,-755,9.40808,53.4008,-0.011102,0.00243413,-0.00502844,0.00409766,-0.0127655,-1.2513,0.0101556,0.0211203,1259,1779,9.40808,-53.4008
42,-755,9.35547,53.4087,-0.0103975,0.00528115,-0.00446732,0.00646468,-0.011581,-1.31181,0.0105574,0.0164414,1266,1779,9.35547,-53.4087
49,-755,9.32935,53.4103,-0.0098536,0.0081064,-0.00339466,0.00872661,-0.0104738,-1.39009,0.0111007,0.0115376,1273,1779,9.32933,-53.4103
56,-755,9.24829,53.4602,-0.00970093,0.010506,-0.00223344,0.0107499,-0.00994484,-1.46202,0.0119512,0.0100573,1280,1779,9.24835,-53.4602
63,-755,9.22021,53.4801,-0.00880654,0.0132414,-8.97091e-05,0.0132418,-0.0088069,-1.56673,0.0128154,0.00985945,1287,1779,9.22025,-53.4801
70,-755,9.20544,53.4485,-0.00702961,0.0149266,0.00215435,0.015136,-0.007239,1.47391,0.0131837,0.0146332,1294,1779,9.20541,-53.4484
77,-755,9.12866,53.4103,-0.00469243,0.015698,0.00407709,0.016483,-0.00547743,1.38059,0.0131989,0.0139572,1301,1779,9.12864,-53.4102
84,-755,9.09204,53.4301,-0.00314748,0.0154128,0.0059653,0.0171647,-0.00489938,1.28515,0.0133787,0.0139923,1308,1779,9.09206,-53.4301
91,-755,9.03723,53.3667,-0.0010072,0.0153212,0.00747494,0.0182263,-0.00391228,1.20012,0.0136432,0.0142357,1315,1779,9.03726,-53.3666
98,-755,8.9386,53.3075,0.00133478,0.0153412,0.00866771,0.0194813,-0.00280536,1.12519,0.0140166,0.0152365,1322,1779,8.93856,-53.3075
105,-755,8.89307,53.2385,0.00356331,0.0146849,0.00943833,0.0200787,-0.00183057,1.05161,0.0140359,0.0183301,1329,1779,8.89303,-53.2386
112,-755,8.85339,53.1401,0.00602612,0.0136646,0.0099752,0.0205267,-0.000836001,0.968225,0.0139715,0.0238985,1336,1779,8.85334,-53.1402
119,-755,8.83167,53.014,0.00841824,0.0126765,0.0101084,0.0208775,0.000217194,0.889196,0.0138465,0.0244237,1343,1779,8.83161,-53.014
126,-755,8.78784,52.9987,0.0108127,0.0124425,0.0088919,0.0205568,0.00269844,0.831094,0.0128995,0.0271475,1350,1779,8.78783,-52.9986
133,-755,8.66223,52.8696,0.0130623,0.0127929,0.00702662,0.0199555,0.0058997,0.775812,0.0118378,0.0271046,1357,1779,8.66228,-52.8696
140,-755,8.50867,52.7131,0.0137336,0.0131361,0.00608427,0.0195264,0.00734325,0.760863,0.0113884,0.0343969,1364,1779,8.50867,-52.7132
147,-755,8.59631,52.5333,0.0137336,0.0134143,0.00514763,0.0187241,0.00842385,0.769898,0.0108284,0.0373458,1371,1779,8.59631,-52.5333
154,-755,8.58496,52.4573,0.0136824,0.0136129,0.00402003,0.0176678,0.00962747,0.781081,0.0102142,0.0371759,1378,1779,8.58498,-52.4573
161,-755,8.43689,52.3849,0,0,0,0,0,0,0,-1,1385,1779,8.43689,-52.3848
168,-755,3.98181,7.35901,0,0,0,0,0,0,0,-1,1392,1779,3.98184,-7.35904
175,-755,8.17065,1.34363,0,0,0,0,0,0,0,-1,1399,1779,8.1706,-1.34368
182,-755,8.09216,2.96924,0,0,0,0,0,0,0,-1,1406,1779,8.09213,-2.9693
189,-755,8.04419,4.68042,0,0,0,0,0,0,0,-1,1413,1779,8.04419,-4.68046
196,-755,7.74841,7.4541,0,0,0,0,0,0,0,-1,1420,1779,7.74842,-7.45405
203,-755,4.80554,6.88696,0,0,0,0,0,0,0,-1,1427,1779,4.80554,-6.88697
210,-755,25.1694,7.35693,0,0,0,0,0,0,0,-1,1434,1779,25.1694,-7.35688
217,-755,5.01648,16.411,0,0,0,0,0,0,0,-1,1441,1779,5.01646,-16.411
224,-755,5.18103,22.6283,0,0,0,0,0,0,0,-1,1448,1779,5.18101,-22.6283
231,-755,5.7489,30.15,0,0,0,0,0,0,0,-1,1455,1779,5.74885,-30.15
238,-755,6.56323,29.2726,0,0,0,0,0,0,0,-1,1462,1779,6.56327,-29.2726
245,-755,8.29639,28.2113,0,0,0,0,0,0,0,-1,1469,1779,8.29639,-28.2113
252,-755,6.8877,28.8699,0,0,0,0,0,0,0,-1,1476,1779,6.88774,-28.8698
259,-755,6.42676,30.8574,0,0,0,0,0,0,0,-1,1483,1779,6.42677,-30.8575
266,-755,17.255,7.86096,0,0,0,0,0,0,0,-1,1490,1779,17.255,-7.86092
273,-755,15.7932,7.59778,0,0,0,0,0,0,0,-1,1497,1779,15.7932,-7.59777
280,-755,14.6255,7.34802,0,0,0,0,0,0,0,-1,1504,1779,14.6254,-7.34806
287,-755,13.8279,7.83105,0,0,0,0,0,0,0,-1,1511,1779,13.8279,-7.83104
294,-755,12.5695,7.96814,0,0,0,0,0,0,0,-1,1518,1779,12.5694,-7.9682
301,-755,11.2659,8.27087,0,0,0,0,0,0,0,-1,1525,1779,11.2658,-8.27087
308,-755,5.17737,37.2896,0,0,0,0,0,0,0,-1,1532,1779,5.17742,-37.2896
315,-755,0.828613,31.032,0,0,0,0,0,0,0,-1,1539,1779,0.828668,-31.032
322,-755,0,0,0,0,0,0,0,0,0,-1,1546,1779,0,0
329,-755,0,0,0,0,0,0,0,0,0,-1,1553,1779,0,0
336,-755,0,0,0,0,0,0,0,0,0,-1,1560,1779,0,0
343,-755,0,0,0,0,0,0,0,0,0,-1,1567,1779,0,0
350,-755,0,0,0,0,0,0,0,0,0,-1,1574,1779,0,0
357,-755,0,0,0,0,0,0,0,0,0,-1,1581,1779,0,0
364,-755,0,0,0,0,0,0,0,0,0,-1,1588,1779,0,0
371,-755,0,0,0,0,0,0,0,0,0,-1,1595,1779,0,0
378,-755,0,0,0,0,0,0,0,0,0,-1,1602,1779,0,0
385,-755,0,0,0,0,0,0,0,0,0,-1,1609,1779,0,0
392,-755,0,0,0,0,0,0,0,0,0,-1,1616,1779,0,0
399,-755,0,0,0,0,0,0,0,0,0,-1,1623,1779,0,0
406,-755,0,0,0,0,0,0,0,0,0,-1,1630,1779,0,0
413,-755,0,0,0,0,0,0,0,0,0,-1,1637,1779,0,0
420,-755,0,0,0,0,0,0,0,0,0,-1,1644,1779,0,0
427,-755,0,0,0,0,0,0,0,0,0,-1,1651,1779,0,0
434,-755,0,0,0,0,0,0,0,0,0,-1,1658,1779,0,0
441,-755,0,0,0,0,0,0,0,0,0,-1,1665,1779,0,0
448,-755,0,0,0,0,0,0,0,0,0,-1,1672,1779,0,0
455,-755,0,0,0,0,0,0,0,0,0,-1,1679,1779,0,0
462,-755,0,0,0,0,0,0,0,0,0,-1,1686,1779,0,0
469,-755,0,0,0,0,0,0,0,0,0,-1,1693,1779,0,0
476,-755,0,0,0,0,0,0,0,0,0,-1,1700,1779,0,0
483,-755,0,0,0,0,0,0,0,0,0,-1,1707,1779,0,0
490,-755,0,0,0,0,0,0,0,0,0,-1,1714,1779,0,0
497,-755,0,0,0,0,0,0,0,0,0,-1,1721,1779,0,0
504,-755,0,0,0,0,0,0,0,0,0,-1,1728,1779,0,0
511,-755,0,0,0,0,0,0,0,0,0,-1,1735,1779,0,0
518,-755,0,0,0,0,0,0,0,0,0,-1,1742,1779,0,0
525,-755,0,0,0,0,0,0,0,0,0,-1,1749,1779,0,0
532,-755,0,0,0,0,0,0,0,0,0,-1,1756,1779,0,0
539,-755,0,0,0,0,0,0,0,0,0,-1,1763,1779,0,0
546,-755,0,0,0,0,0,0,0,0,0,-1,1770,1779,0,0
553,-755,0,0,0,0,0,0,0,0,0,-1,1777,1779,0,0
560,-755,0,0,0,0,0,0,0,0,0,-1,1784,1779,0,0
567,-755,0,0,0,0,0,0,0,0,0,-1,1791,1779,0,0
574,-755,0,0,0,0,0,0,0,0,0,-1,1798,1779,0,0
581,-755,0,0,0,0,0,0,0,0,0,-1,1805,1779,0,0
588,-755,0,0,0,0,0,0,0,0,0,-1,1812,1779,0,0
595,-755,0,0,0,0,0,0,0,0,0,-1,1819,1779,0,0
602,-755,0,0,0,0,0,0,0,0,0,-1,1826,1779,0,0
609,-755,0,0,0,0,0,0,0,0,0,-1,1833,1779,0,0
616,-755,0,0,0,0,0,0,0,0,0,-1,1840,1779,0,0
623,-755,0,0,0,0,0,0,0,0,0,-1,1847,1779,0,0
630,-755,0,0,0,0,0,0,0,0,0,-1,1854,1779,0,0
637,-755,0,0,0,0,0,0,0,0,0,-1,1861,1779,0,0
644,-755,0,0,0,0,0,0,0,0,0,-1,1868,1779,0,0
651,-755,0,0,0,0,0,0,0,0,0,-1,1875,1779,0,0
658,-755,0,0,0,0,0,0,0,0,0,-1,1882,1779,0,0
665,-755,0,0,0,0,0,0,0,0,0,-1,1889,1779,0,0
672,-755,0,0,0,0,0,0,0,0,0,-1,1896,1779,0,0
679,-755,0,0,0,0,0,0,0,0,0,-1,1903,1779,0,0
686,-755,0,0,0,0,0,0,0,0,0,-1,1910,1779,0,0
693,-755,0,0,0,0,0,0,0,0,0,-1,1917,1779,0,0
700,-755,0,0,0,0,0,0,0,0,0,-1,1924,1779,0,0
707,-755,0,0,0,0,0,0,0,0,0,-1,1931,1779,0,0
714,-755,0,0,0,0,0,0,0,0,0,-1,1938,1779,0,0
721,-755,0,0,0,0,0,0,0,0,0,-1,1945,1779,0,0
728,-755,0,0,0,0,0,0,0,0,0,-1,1952,1779,0,0
735,-755,0,0,0,0,0,0,0,0,0,-1,1959,1779,0,0
742,-755,0,0,0,0,0,0,0,0,0,-1,1966,1779,0,0
749,-755,0,0,0,0,0,0,0,0,0,-1,1973,1779,0,0
756,-755,0,0,0,0,0,0,0,0,0,-1,1980,1779,0,0
763,-755,0,0,0,0,0,0,0,0,0,-1,1987,1779,0,0
770,-755,0,0,0,0,0,0,0,0,0,-1,1994,1779,0,0
777,-755,0,0,0,0,0,0,0,0,0,-1,2001,1779,0,0
784,-755,0,0,0,0,0,0,0,0,0,-1,2008,1779,0,0
791,-755,0,0,0,0,0,0,0,0,0,-1,2015,1779,0,0
798,-755,0,0,0,0,0,0,0,0,0,-1,2022,1779,0,0
805,-755,0,0,0,0,0,0,0,0,0,-1,2029,1779,0,0
812,-755,0,0,0,0,0,0,0,0,0,-1,2036,1779,0,0
-700,-762,0,0,0,0,0,0,0,0,0,-1,524,1786,0,0
-693,-762,0,0,0,0,0,0,0,0,0,-1,531,1786,0,0
-686,-762,0,0,0,0,0,0,0,0,0,-1,538,1786,0,0
-679,-762,0,0,0,0,0,0,0,0,0,-1,545,1786,0,0
-672,-762,0,0,0,0,0,0,0,0,0,-1,552,1786,0,0
-665,-762,0,0,0,0,0,0,0,0,0,-1,559,1786,0,0
-658,-762,0,0,0,0,0,0,0,0,0,-1,566,1786,0,0
-651,-762,0,0,0,0,0,0,0,0,0,-1,573,1786,0,0
-644,-762,0,0,0,0,0,0,0,0,0,-1,580,1786,0,0
-637,-762,0,0,0,0,0,0,0,0,0,-1,587,1786,0,0
-630,-762,0,0,0,0,0,0,0,0,0,-1,594,1786,0,0
-623,-762,0,0,0,0,0,0,0,0,0,-1,601,1786,0,0
-616,-762,0,0,0,0,0,0,0,0,0,-1,608,1786,0,0
-609,-762,0,0,0,0,0,0,0,0,0,-1,615,1786,0,0
-602,-762,0,0,0,0,0,0,0,0,0,-1,622,1786,0,0
-595,-762,0,0,0,0,0,0,0,0,0,-1,629,1786,0,0
-588,-762,0,0,0,0,0,0,0,0,0,-1,636,1786,0,0
-581,-762,0,0,0,0,0,0,0,0,0,-1,643,1786,0,0
-574,-762,0,0,0,0,0,0,0,0,0,-1,650,1786,0,0
-567,-762,0,0,0,0,0,0,0,0,0,-1,657,1786,0,0
-560,-762,0,0,0,0,0,0,0,0,0,-1,664,1786,0,0
-553,-762,0,0,0,0,0,0,0,0,0,-1,671,1786,0,0
-546,-762,0,0,0,0,0,0,0,0,0,-1,678,1786,0,0
-539,-762,0,0,0,0,0,0,0,0,0,-1,685,1786,0,0
-532,-762,0,0,0,0,0,0,0,0,0,-1,692,1786,0,0
-525,-762,0,0,0,0,0,0,0,0,0,-1,699,1786,0,0
-518,-762,0,0,0,0,0,0,0,0,0,-1,706,1786,0,0
-511,-762,0,0,0,0,0,0,0,0,0,-1,713,1786,0,0
-504,-762,0,0,0,0,0,0,0,0,0,-1,720,1786,0,0
-497,-762,0,0,0,0,0,0,0,0,0,-1,727,1786,0,0
-490,-762,0,0,0,0,0,0,0,0,0,-1,734,1786,0,0
-483,-762,0,0,0,0,0,0,0,0,0,-1,741,1786,0,0
-476,-762,0,0,0,0,0,0,0,0,0,-1,748,1786,0,0
-469,-762,0,0,0,0,0,0,0,0,0,-1,755,1786,0,0
-462,-762,0,0,0,0,0,0,0,0,0,-1,762,1786,0,0
-455,-762,0,0,0,0,0,0,0,0,0,-1,769,1786,0,0
-448,-762,0,0,0,0,0,0,0,0,0,-1,776,1786,0,0
-441,-762,0,0,0,0,0,0,0,0,0,-1,783,1786,0,0
-434,-762,0,0,0,0,0,0,0,0,0,-1,790,1786,0,0
-427,-762,0,0,0,0,0,0,0,0,0,-1,797,1786,0,0
-420,-762,0,0,0,0,0,0,0,0,0,-1,804,1786,0,0
-413,-762,0,0,0,0,0,0,0,0,0,-1,811,1786,0,0
-406,-762,0,0,0,0,0,0,0,0,0,-1,818,1786,0,0
-399,-762,0,0,0,0,0,0,0,0,0,-1,825,1786,0,0
-392,-762,0,0,0,0,0,0,0,0,0,-1,832,1786,0,0
-385,-762,0,0,0,0,0,0,0,0,0,-1,839,1786,0,0
-378,-762,0,0,0,0,0,0,0,0,0,-1,846,1786,0,0
-371,-762,0,0,0,0,0,0,0,0,0,-1,853,1786,0,0
-364,-762,0,0,0,0,0,0,0,0,0,-1,860,1786,0,0
-357,-762,0,0,0,0,0,0,0,0,0,-1,867,1786,0,0
-350,-762,0,0,0,0,0,0,0,0,0,-1,874,1786,0,0
-343,-762,0,0,0,0,0,0,0,0,0,-1,881,1786,0,0
-336,-762,0,0,0,0,0,0,0,0,0,-1,888,1786,0,0
-329,-762,0,0,0,0,0,0,0,0,0,-1,895,1786,0,0
-322,-762,0,0,0,0,0,0,0,0,0,-1,902,1786,0,0
-315,-762,0,0,0,0,0,0,0,0,0,-1,909,1786,0,0
-308,-762,0,0,0,0,0,0,0,0,0,-1,916,1786,0,0
-301,-762,0,0,0,0,0,0,0,0,0,-1,923,1786,0,0
-294,-762,0,0,0,0,0,0,0,0,0,-1,930,1786,0,0
-287,-762,0,0,0,0,0,0,0,0,0,-1,937,1786,0,0
-280,-762,0,0,0,0,0,0,0,0,0,-1,944,1786,0,0
-273,-762,0,0,0,0,0,0,0,0,0,-1,951,1786,0,0
-266,-762,0,0,0,0,0,0,0,0,0,-1,958,1786,0,0
-259,-762,0,0,0,0,0,0,0,0,0,-1,965,1786,0,0
-252,-762,0,0,0,0,0,0,0,0,0,-1,972,1786,0,0
-245,-762,0,0,0,0,0,0,0,0,0,-1,979,1786,0,0
-238,-762,0,0,0,0,0,0,0,0,0,-1,986,1786,0,0
-231,-762,0,0,0,0,0,0,0,0,0,-1,993,1786,0,0
-224,-762,0,0,0,0,0,0,0,0,0,-1,1000,1786,0,0
-217,-762,0,0,0,0,0,0,0,0,0,-1,1007,1786,0,0
-210,-762,0,0,0,0,0,0,0,0,0,-1,1014,1786,0,0
-203,-762,0,0,0,0,0,0,0,0,0,-1,1021,1786,0,0
-196,-762,0,0,0,0,0,0,0,0,0,-1,1028,1786,0,0
-189,-762,0,0,0,0,0,0,0,0,0,-1,1035,1786,0,0
-182,-762,4.44226,13.2462,0,0,0,0,0,0,0,-1,1042,1786,4.44227,-13.2462
-175,-762,1.14465,40.1932,0,0,0,0,0,0,0,-1,1049,1786,1.1447,-40.1932
-168,-762,3.26794,41.3881,0,0,0,0,0,0,0,-1,1056,1786,3.26794,-41.388
-161,-762,-3.29077,11.9508,0,0,0,0,0,0,0,-1,1063,1786,-3.29076,-11.9508
-154,-762,-4.55823,11.1176,0,0,0,0,0,0,0,-1,1070,1786,-4.55828,-11.1175
-147,-762,-6.52454,9.41418,0,0,0,0,0,0,0,-1,1077,1786,-6.52458,-9.41419
-140,-762,4.99792,5.28589,0,0,0,0,0,0,0,-1,1084,1786,4.99793,-5.28587
-133,-762,0.689819,19.2172,0,0,0,0,0,0,0,-1,1091,1786,0.689867,-19.2171
-126,-762,1.48743,19.9288,0,0,0,0,0,0,0,-1,1098,1786,1.48738,-19.9289
-119,-762,2.65637,20.208,0,0,0,0,0,0,0,-1,1105,1786,2.65632,-20.208
-112,-762,6.84705,25.5554,0,0,0,0,0,0,0,-1,1112,1786,6.84706,-25.5554
-105,-762,5.57947,21.618,0,0,0,0,0,0,0,-1,1119,1786,5.57948,-21.618
-98,-762,5.0636,17.9901,0,0,0,0,0,0,0,-1,1126,1786,5.06361,-17.9901
-91,-762,4.54773,14.3622,0,0,0,0,0,0,0,-1,1133,1786,4.54774,-14.3622
-84,-762,3.96375,10.4547,0,0,0,0,0,0,0,-1,1140,1786,3.96371,-10.4548
-77,-762,0.305054,8.49365,0,0,0,0,0,0,0,-1,1147,1786,0.305008,-8.49362
-70,-762,0.183716,6.74622,0,0,0,0,0,0,0,-1,1154,1786,0.183696,-6.74621
-63,-762,-0.883057,9.08813,0,0,0,0,0,0,0,-1,1161,1786,-0.88311,-9.08808
-56,-762,-0.578979,5.10254,0,0,0,0,0,0,0,-1,1168,1786,-0.578951,-5.10249
-49,-762,-2.04541,3.66321,0,0,0,0,0,0,0,-1,1175,1786,-2.0454,-3.66319
-42,-762,-2.23462,3.474,0,0,0,0,0,0,0,-1,1182,1786,-2.23459,-3.47399
-35,-762,-3.28992,1.68164,0,0,0,0,0,0,0,-1,1189,1786,-3.28998,-1.68164
-28,-762,-3.75378,1.37769,0,0,0,0,0,0,0,-1,1196,1786,-3.75373,-1.37767
-21,-762,10.4202,52.4292,0,0,0,0,0,0,0,-1,1203,1786,10.4202,-52.4292
-14,-762,10.1256,52.4272,0,0,0,0,0,0,0,-1,1210,1786,10.1256,-52.4272
-7,-762,9.83093,52.4252,0,0,0,0,0,0,0,-1,1217,1786,9.83092,-52.4251
0,-762,9.6593,52.9073,-0.0188373,-0.0132148,-0.00627354,-0.00915144,-0.0229007,-0.996037,0.0133102,0.037965,1224,1786,9.65935,-52.9074
7,-762,9.71729,53.0109,-0.0177193,-0.011318,-0.00709302,-0.00673692,-0.0223004,-0.997342,0.013207,0.0228967,1231,1786,9.71729,-53.0109
14,-762,9.63281,53.3181,-0.0162026,-0.00802058,-0.00833144,-0.00282994,-0.0213933,-1.01362,0.0134187,0.0397906,1238,1786,9.63284,-53.3181
21,-762,9.36304,53.3625,-0.0152619,-0.00444499,-0.00885967,0.000526586,-0.0202335,-1.05944,0.0136679,0.0492607,1245,1786,9.36303,-53.3625
28,-762,9.20105,53.4745,0,0,0,0,0,0,0,-1,1252,1786,9.2011,-53.4744
35,-762,9.24304,53.4094,0,0,0,0,0,0,0,-1,1259,1786,9.2431,-53.4094
42,-762,9.33142,53.4141,0,0,0,0,0,0,0,-1,1266,1786,9.3314,-53.4141
49,-762,9.38953,53.4756,-0.0129233,0.0108986,-0.00455451,0.0117397,-0.0137644,-1.38818,0.0147402,0.0449134,1273,1786,9.3895,-53.4755
56,-762,9.31348,53.5118,-0.0128922,0.0141529,-0.00267394,0.0144147,-0.0131541,-1.47319,0.0159224,0.0313315,1280,1786,9.31343,-53.5118
63,-762,9.24792,53.5315,-0.0118637,0.0177489,0.000419062,0.0177548,-0.0118697,1.55665,0.0172158,0.0286107,1287,1786,9.24797,-53.5315
70,-762,9.13123,53.4995,-0.00961488,0.0199569,0.00356609,0.0203809,-0.0100388,1.45247,0.017898,0.0300946,1294,1786,9.13122,-53.4995
77,-762,9.11047,53.3436,-0.00648562,0.0210736,0.006185,0.022398,-0.00781005,1.35985,0.0181058,0.0397195,1301,1786,9.11043,-53.3437
84,-762,9.21289,53.4348,-0.00425788,0.020927,0.00882847,0.0237135,-0.00704437,1.26507,0.018607,0.0472576,1308,1786,9.21287,-53.4349
91,-762,9.12634,53.2886,0,0,0,0,0,0,0,-1,1315,1786,9.12633,-53.2885
98,-762,8.82678,53.2448,0,0,0,0,0,0,0,-1,1322,1786,8.82684,-53.2448
105,-762,8.76367,53.2399,0.0058167,0.020386,0.0135057,0.0284464,-0.0022437,1.03272,0.0197547,0.0473086,1329,1786,8.7637,-53.2399
112,-762,8.65564,53.0103,0.00976012,0.0192966,0.0141755,0.0294843,-0.000427648,0.947639,0.0198003,0.046495,1336,1786,8.65568,-53.0102
119,-762,8.63501,53.1312,0.0137406,0.0182823,0.014311,0.0305015,0.00152136,0.864082,0.0198466,0.0480986,1343,1786,8.63504,-53.1312
126,-762,8.58789,53.3865,0.0178854,0.018184,0.0125078,0.0305435,0.00552601,0.791366,0.0187931,0.0485535,1350,1786,8.58792,-53.3865
133,-762,8.51416,53.2618,0.0218697,0.0189532,0.00987226,0.0303908,0.010432,0.712072,0.0178312,0.0472204,1357,1786,8.51412,-53.2619
140,-762,8.03198,52.4504,0.0236696,0.0196181,0.00863825,0.0305164,0.0127713,0.670227,0.0176965,0.0411046,1364,1786,8.03192,-52.4505
147,-762,8.17603,51.9114,0.0245492,0.0202984,0.00740611,0.0301289,0.0147188,0.645664,0.0173964,0.0414062,1371,1786,8.17598,-51.9113
154,-762,8.40808,52.6434,0,0,0,0,0,0,0,-1,1378,1786,8.40807,-52.6434
161,-762,8.65051,34.8102,0,0,0,0,0,0,0,-1,1385,1786,8.65054,-34.8101
168,-762,8.19287,0.880615,0,0,0,0,0,0,0,-1,1392,1786,8.19291,-0.880603
175,-762,8.33997,1.95947,0,0,0,0,0,0,0,-1,1399,1786,8.33997,-1.95942
182,-762,8.28418,3.56482,0,0,0,0,0,0,0,-1,1406,1786,8.28415,-3.56485
189,-762,8.21179,5.23389,0,0,0,0,0,0,0,-1,1413,1786,8.21183,-5.23383
196,-762,8.05969,6.95483,0,0,0,0,0,0,0,-1,1420,1786,8.05972,-6.9548
203,-762,24.0077,7.10425,0,0,0,0,0,0,0,-1,1427,1786,24.0077,-7.10426
210,-762,23.8073,7.6499,0,0,0,0,0,0,0,-1,1434,1786,23.8073,-7.64987
217,-762,23.3193,8.24426,0,0,0,0,0,0,0,-1,1441,1786,23.3194,-8.2442
224,-762,2.65149,20.6106,0,0,0,0,0,0,0,-1,1448,1786,2.65153,-20.6106
231,-762,5.46655,23.521,0,0,0,0,0,0,0,-1,1455,1786,5.46653,-23.521
238,-762,5.35632,29.7203,0,0,0,0,0,0,0,-1,1462,1786,5.35629,-29.7203
245,-762,6.93054,27.8312,0,0,0,0,0,0,0,-1,1469,1786,6.93058,-27.8312
252,-762,6.20215,28.3027,0,0,0,0,0,0,0,-1,1476,1786,6.20211,-28.3027
259,-762,5.46472,28.8762,0,0,0,0,0,0,0,-1,1483,1786,5.46476,-28.8762
266,-762,16.451,7.67773,0,0,0,0,0,0,0,-1,1490,1786,16.4511,-7.67773
273,-762,15.287,7.5304,0,0,0,0,0,0,0,-1,1497,1786,15.2869,-7.53044
280,-762,14.1501,7.38379,0,0,0,0,0,0,0,-1,1504,1786,14.1502,-7.38376
287,-762,12.6891,7.99133,0,0,0,0,0,0,0,-1,1511,1786,12.6891,-7.99135
294,-762,12.6959,8.30371,0,0,0,0,0,0,0,-1,1518,1786,12.6959,-8.30368
301,-762,11.4222,8.84143,0,0,0,0,0,0,0,-1,1525,1786,11.4223,-8.84149
308,-762,0,0,0,0,0,0,0,0,0,-1,1532,1786,0,0
315,-762,0,0,0,0,0,0,0,0,0,-1,1539,1786,0,0
322,-762,0,0,0,0,0,0,0,0,0,-1,1546,1786,0,0
329,-762,0,0,0,0,0,0,0,0,0,-1,1553,1786,0,0
336,-762,0,0,0,0,0,0,0,0,0,-1,1560,1786,0,0
343,-762,0,0,0,0,0,0,0,0,0,-1,1567,1786,0,0
350,-762,0,0,0,0,0,0,0,0,0,-1,1574,1786,0,0
357,-762,0,0,0,0,0,0,0,0,0,-1,1581,1786,0,0
364,-762,0,0,0,0,0,0,0,0,0,-1,1588,1786,0,0
371,-762,0,0,0,0,0,0,0,0,0,-1,1595,1786,0,0
378,-762,0,0,0,0,0,0,0,0,0,-1,1602,1786,0,0
385,-762,0,0,0,0,0,0,0,0,0,-1,1609,1786,0,0
392,-762,0,0,0,0,0,0,0,0,0,-1,1616,1786,0,0
399,-762,0,0,0,0,0,0,0,0,0,-1,1623,1786,0,0
406,-762,0,0,0,0,0,0,0,0,0,-1,1630,1786,0,0
413,-762,0,0,0,0,0,0,0,0,0,-1,1637,1786,0,0
420,-762,0,0,0,0,0,0,0,0,0,-1,1644,1786,0,0
427,-762,0,0,0,0,0,0,0,0,0,-1,1651,1786,0,0
434,-762,0,0,0,0,0,0,0,0,0,-1,1658,1786,0,0
441,-762,0,0,0,0,0,0,0,0,0,-1,1665,1786,0,0
448,-762,0,0,0,0,0,0,0,0,0,-1,1672,1786,0,0
455,-762,0,0,0,0,0,0,0,0,0,-1,1679,1786,0,0
462,-762,0,0,0,0,0,0,0,0,0,-1,1686,1786,0,0
469,-762,0,0,0,0,0,0,0,0,0,-1,1693,1786,0,0
476,-762,0,0,0,0,0,0,0,0,0,-1,1700,1786,0,0
483,-762,0,0,0,0,0,0,0,0,0,-1,1707,1786,0,0
490,-762,0,0,0,0,0,0,0,0,0,-1,1714,1786,0,0
497,-762,0,0,0,0,0,0,0,0,0,-1,1721,1786,0,0
504,-762,0,0,0,0,0,0,0,0,0,-1,1728,1786,0,0
511,-762,0,0,0,0,0,0,0,0,0,-1,1735,1786,0,0
518,-762,0,0,0,0,0,0,0,0,0,-1,1742,1786,0,0
525,-762,0,0,0,0,0,0,0,0,0,-1,1749,1786,0,0
532,-762,0,0,0,0,0,0,0,0,0,-1,1756,1786,0,0
539,-762,0,0,0,0,0,0,0,0,0,-1,1763,1786,0,0
546,-762,0,0,0,0,0,0,0,0,0,-1,1770,1786,0,0
553,-762,0,0,0,0,0,0,0,0,0,-1,1777,1786,0,0
560,-762,0,0,0,0,0,0,0,0,0,-1,1784,1786,0,0
567,-762,0,0,0,0,0,0,0,0,0,-1,1791,1786,0,0
574,-762,0,0,0,0,0,0,0,0,0,-1,1798,1786,0,0
581,-762,0,0,0,0,0,0,0,0,0,-1,1805,1786,0,0
588,-762,0,0,0,0,0,0,0,0,0,-1,1812,1786,0,0
595,-762,0,0,0,0,0,0,0,0,0,-1,1819,1786,0,0
602,-762,0,0,0,0,0,0,0,0,0,-1,1826,1786,0,0
609,-762,0,0,0,0,0,0,0,0,0,-1,1833,1786,0,0
616,-762,0,0,0,0,0,0,0,0,0,-1,1840,1786,0,0
623,-762,0,0,0,0,0,0,0,0,0,-1,1847,1786,0,0
630,-762,0,0,0,0,0,0,0,0,0,-1,1854,1786,0,0
637,-762,0,0,0,0,0,0,0,0,0,-1,1861,1786,0,0
644,-762,0,0,0,0,0,0,0,0,0,-1,1868,1786,0,0
651,-762,0,0,0,0,0,0,0,0,0,-1,1875,1786,0,0
658,-762,0,0,0,0,0,0,0,0,0,-1,1882,1786,0,0
665,-762,0,0,0,0,0,0,0,0,0,-1,1889,1786,0,0
672,-762,0,0,0,0,0,0,0,0,0,-1,1896,1786,0,0
679,-762,0,0,0,0,0,0,0,0,0,-1,1903,1786,0,0
686,-762,0,0,0,0,0,0,0,0,0,-1,1910,1786,0,0
693,-762,0,0,0,0,0,0,0,0,0,-1,1917,1786,0,0
700,-762,0,0,0,0,0,0,0,0,0,-1,1924,1786,0,0
707,-762,0,0,0,0,0,0,0,0,0,-1,1931,1786,0,0
714,-762,0,0,0,0,0,0,0,0,0,-1,1938,1786,0,0
721,-762,0,0,0,0,0,0,0,0,0,-1,1945,1786,0,0
728,-762,0,0,0,0,0,0,0,0,0,-1,1952,1786,0,0
735,-762,0,0,0,0,0,0,0,0,0,-1,1959,1786,0,0
742,-762,0,0,0,0,0,0,0,0,0,-1,1966,1786,0,0
749,-762,0,0,0,0,0,0,0,0,0,-1,1973,1786,0,0
756,-762,0,0,0,0,0,0,0,0,0,-1,1980,1786,0,0
763,-762,0,0,0,0,0,0,0,0,0,-1,1987,1786,0,0
770,-762,0,0,0,0,0,0,0,0,0,-1,1994,1786,0,0
777,-762,0,0,0,0,0,0,0,0,0,-1,2001,1786,0,0
784,-762,0,0,0,0,0,0,0,0,0,-1,2008,1786,0,0
791,-762,0,0,0,0,0,0,0,0,0,-1,2015,1786,0,0
798,-762,0,0,0,0,0,0,0,0,0,-1,2022,1786,0,0
805,-762,0,0,0,0,0,0,0,0,0,-1,2029,1786,0,0
812,-762,0,0,0,0,0,0,0,0,0,-1,2036,1786,0,0
-700,-769,0,0,0,0,0,0,0,0,0,-1,524,1793,0,0
-693,-769,0,0,0,0,0,0,0,0,0,-1,531,1793,0,0
-686,-769,0,0,0,0,0,0,0,0,0,-1,538,1793,0,0
-679,-769,0,0,0,0,0,0,0,0,0,-1,545,1793,0,0
-672,-769,0,0,0,0,0,0,0,0,0,-1,552,1793,0,0
-665,-769,0,0,0,0,0,0,0,0,0,-1,559,1793,0,0
-658,-769,0,0,0,0,0,0,0,0,0,-1,566,1793,0,0
-651,-769,0,0,0,0,0,0,0,0,0,-1,573,1793,0,0
-644,-769,0,0,0,0,0,0,0,0,0,-1,580,1793,0,0
-637,-769,0,0,0,0,0,0,0,0,0,-1,587,1793,0,0
-630,-769,0,0,0,0,0,0,0,0,0,-1,594,1793,0,0
-623,-769,0,0,0,0,0,0,0,0,0,-1,601,1793,0,0
-616,-769,0,0,0,0,0,0,0,0,0,-1,608,1793,0,0
-609,-769,0,0,0,0,0,0,0,0,0,-1,615,1793,0,0
-602,-769,0,0,0,0,0,0,0,0,0,-1,622,1793,0,0
-595,-769,0,0,0,0,0,0,0,0,0,-1,629,1793,0,0
-588,-769,0,0,0,0,0,0,0,0,0,-1,636,1793,0,0
-581,-769,0,0,0,0,0,0,0,0,0,-1,643,1793,0,0
-574,-769,0,0,0,0,0,0,0,0,0,-1,650,1793,0,0
-567,-769,0,0,0,0,0,0,0,0,0,-1,657,1793,0,0
-560,-769,0,0,0,0,0,0,0,0,0,-1,664,1793,0,0
-553,-769,0,0,0,0,0,0,0,0,0,-1,671,1793,0,0
-546,-769,0,0,0,0,0,0,0,0,0,-1,678,1793,0,0
-539,-769,0,0,0,0,0,0,0,0,0,-1,685,1793,0,0
-532,-769,0,0,0,0,0,0,0,0,0,-1,692,1793,0,0
-525,-769,0,0,0,0,0,0,0,0,0,-1,699,1793,0,0
-518,-769,0,0,0,0,0,0,0,0,0,-1,706,1793,0,0
-511,-769,0,0,0,0,0,0,0,0,0,-1,713,1793,0,0
-504,-769,0,0,0,0,0,0,0,0,0,-1,720,1793,0,0
-497,-769,0,0,0,0,0,0,0,0,0,-1,727,1793,0,0
-490,-769,0,0,0,0,0,0,0,0,0,-1,734,1793,0,0
-483,-769,0,0,0,0,0,0,0,0,0,-1,741,1793,0,0
-476,-769,0,0,0,0,0,0,0,0,0,-1,748,1793,0,0
-469,-769,0,0,0,0,0,0,0,0,0,-1,755,1793,0,0
-462,-769,0,0,0,0,0,0,0,0,0,-1,762,1793,0,0
-455,-769,0,0,0,0,0,0,0,0,0,-1,769,1793,0,0
-448,-769,0,0,0,0,0,0,0,0,0,-1,776,1793,0,0
-441,-769,0,0,0,0,0,0,0,0,0,-1,783,1793,0,0
-434,-769,0,0,0,0,0,0,0,0,0,-1,790,1793,0,0
-427,-769,0,0,0,0,0,0,0,0,0,-1,797,1793,0,0
-420,-769,0,0,0,0,0,0,0,0,0,-1,804,1793,0,0
-413,-769,0,0,0,0,0,0,0,0,0,-1,811,1793,0,0
-406,-769,0,0,0,0,0,0,0,0,0,-1,818,1793,0,0
-399,-769,0,0,0,0,0,0,0,0,0,-1,825,1793,0,0
-392,-769,0,0,0,0,0,0,0,0,0,-1,832,1793,0,0
-385,-769,0,0,0,0,0,0,0,0,0,-1,839,1793,0,0
-378,-769,0,0,0,0,0,0,0,0,0,-1,846,1793,0,0
-371,-769,0,0,0,0,0,0,0,0,0,-1,853,1793,0,0
-364,-769,0,0,0,0,0,0,0,0,0,-1,860,1793,0,0
-357,-769,0,0,0,0,0,0,0,0,0,-1,867,1793,0,0
-350,-769,0,0,0,0,0,0,0,0,0,-1,874,1793,0,0
-343,-769,0,0,0,0,0,0,0,0,0,-1,881,1793,0,0
-336,-769,0,0,0,0,0,0,0,0,0,-1,888,1793,0,0
-329,-769,0,0,0,0,0,0,0,0,0,-1,895,1793,0,0
-322,-769,0,0,0,0,0,0,0,0,0,-1,902,1793,0,0
-315,-769,0,0,0,0,0,0,0,0,0,-1,909,1793,0,0
-308,-769,0,0,0,0,0,0,0,0,0,-1,916,1793,0,0
-301,-769,0,0,0,0,0,0,0,0,0,-1,923,1793,0,0
-294,-769,0,0,0,0,0,0,0,0,0,-1,930,1793,0,0
-287,-769,0,0,0,0,0,0,0,0,0,-1,937,1793,0,0
-280,-769,0,0,0,0,0,0,0,0,0,-1,944,1793,0,0
-273,-769,0,0,0,0,0,0,0,0,0,-1,951,1793,0,0
-266,-769,0,0,0,0,0,0,0,0,0,-1,958,1793,0,0
-259,-769,0,0,0,0,0,0,0,0,0,-1,965,1793,0,0
-252,-769,0,0,0,0,0,0,0,0,0,-1,972,1793,0,0
-245,-769,0,0,0,0,0,0,0,0,0,-1,979,1793,0,0
-238,-769,0,0,0,0,0,0,0,0,0,-1,986,1793,0,0
-231,-769,0,0,0,0,0,0,0,0,0,-1,993,1793,0,0
-224,-769,0,0,0,0,0,0,0,0,0,-1,1000,1793,0,0
-217,-769,0,0,0,0,0,0,0,0,0,-1,1007,1793,0,0
-210,-769,0,0,0,0,0,0,0,0,0,-1,1014,1793,0,0
-203,-769,0,0,0,0,0,0,0,0,0,-1,1021,1793,0,0
-196,-769,0,0,0,0,0,0,0,0,0,-1,1028,1793,0,0
-189,-769,0,0,0,0,0,0,0,0,0,-1,1035,1793,0,0
-182,-769,0,0,0,0,0,0,0,0,0,-1,1042,1793,0,0
-175,-769,0,0,0,0,0,0,0,0,0,-1,1049,1793,0,0
-168,-769,0,0,0,0,0,0,0,0,0,-1,1056,1793,0,0
-161,-769,-3.61145,12.4761,0,0,0,0,0,0,0,-1,1063,1793,-3.6114,-12.476
-154,-769,-0.813232,5.32874,0,0,0,0,0,0,0,-1,1070,1793,-0.813269,-5.32872
-147,-769,4.26587,4.7002,0,0,0,0,0,0,0,-1,1077,1793,4.26593,-4.70022
-140,-769,4.10376,5.28589,0,0,0,0,0,0,0,-1,1084,1793,4.10371,-5.28584
-133,-769,6.422,8.21777,0,0,0,0,0,0,0,-1,1091,1793,6.42198,-8.21773
-126,-769,-0.352295,19.326,0,0,0,0,0,0,0,-1,1098,1793,-0.352235,-19.326
-119,-769,6.01685,16.2577,0,0,0,0,0,0,0,-1,1105,1793,6.01689,-16.2576
-112,-769,5.76416,27.2615,0,0,0,0,0,0,0,-1,1112,1793,5.7642,-27.2615
-105,-769,4.97009,22.8479,0,0,0,0,0,0,0,-1,1119,1793,4.97006,-22.8479
-98,-769,4.69373,18.9142,0,0,0,0,0,0,0,-1,1126,1793,4.69376,-18.9142
-91,-769,4.41748,14.9805,0,0,0,0,0,0,0,-1,1133,1793,4.41746,-14.9805
-84,-769,3.2207,12.4565,0,0,0,0,0,0,0,-1,1140,1793,3.22066,-12.4565
-77,-769,2.48816,8.98486,0,0,0,0,0,0,0,-1,1147,1793,2.48815,-8.98489
-70,-769,1.04944,11.9852,0,0,0,0,0,0,0,-1,1154,1793,1.04947,-11.9852
-63,-769,-2.39709,9.60339,0,0,0,0,0,0,0,-1,1161,1793,-2.39706,-9.6034
-56,-769,-5.84363,7.22156,0,0,0,0,0,0,0,-1,1168,1793,-5.84359,-7.22157
-49,-769,-2.41443,3.95471,0,0,0,0,0,0,0,-1,1175,1793,-2.41446,-3.95471
-42,-769,-3.1991,2.64941,0,0,0,0,0,0,0,-1,1182,1793,-3.19914,-2.64944
-35,-769,-3.50183,1.73389,0,0,0,0,0,0,0,-1,1189,1793,-3.50189,-1.7339
-28,-769,-3.96985,1.14075,0,0,0,0,0,0,0,-1,1196,1793,-3.96985,-1.14078
-21,-769,9.71558,46.531,0,0,0,0,0,0,0,-1,1203,1793,9.71561,-46.5311
-14,-769,10.286,52.1881,0,0,0,0,0,0,0,-1,1210,1793,10.286,-52.1881
-7,-769,9.64551,52.8251,0,0,0,0,0,0,0,-1,1217,1793,9.64549,-52.825
0,-769,9.70032,52.9442,-0.0239109,-0.0184118,-0.00974958,-0.0110315,-0.0312913,-0.922838,0.018326,0.0493901,1224,1793,9.70031,-52.9442
7,-769,9.76978,53.2885,-0.0222998,-0.0159362,-0.0106163,-0.00803514,-0.0302009,-0.930994,0.0180615,0.0437716,1231,1793,9.76978,-53.2885
14,-769,9.51135,53.4337,-0.0201154,-0.0115443,-0.0120979,-0.00299533,-0.0286643,-0.95562,0.0181935,0.0433528,1238,1793,9.51139,-53.4337
21,-769,9.25598,53.5586,0,0,0,0,0,0,0,-1,1245,1793,9.25596,-53.5587
28,-769,8.4989,53.6407,0,0,0,0,0,0,0,-1,1252,1793,8.49886,-53.6408
35,-769,8.2887,53.8297,0,0,0,0,0,0,0,-1,1259,1793,8.28869,-53.8297
42,-769,8.099,54.0369,0,0,0,0,0,0,0,-1,1266,1793,8.09896,-54.0369
49,-769,9.5072,53.6111,-0.0162899,0.0141203,-0.00578128,0.0151823,-0.0173519,-1.38913,0.0187975,0.0448968,1273,1793,9.5072,-53.6111
56,-769,9.39087,53.4244,-0.0164875,0.0183797,-0.00290075,0.0186194,-0.0167271,-1.48836,0.0204171,0.0435371,1280,1793,9.39089,-53.4244
63,-769,9.32104,53.1013,-0.0153814,0.0229216,0.00136926,0.0229705,-0.0154303,1.53511,0.0223127,0.0430376,1287,1793,9.32107,-53.1013
70,-769,9.03699,53.1699,-0.0126479,0.0256981,0.00559545,0.0264979,-0.0134477,1.42882,0.0234693,0.0437616,1294,1793,9.03696,-53.17
77,-769,9.05603,53.092,-0.00861442,0.0272213,0.00900872,0.0293585,-0.0107517,1.33786,0.0239738,0.0450151,1301,1793,9.05604,-53.092
84,-769,9.42346,53.5625,-0.00554143,0.0273039,0.0125451,0.0315472,-0.00978474,1.24463,0.0249412,0.0437344,1308,1793,9.4235,-53.5625
91,-769,9.68604,54.2983,0,0,0,0,0,0,0,-1,1315,1793,9.68608,-54.2983
98,-769,9.99072,53.6283,0,0,0,0,0,0,0,-1,1322,1793,9.99077,-53.6283
105,-769,8.00537,52.6332,0,0,0,0,0,0,0,-1,1329,1793,8.00542,-52.6332
112,-769,8.23425,52.9093,0.0149801,0.0261592,0.0192506,0.0406153,0.000523927,0.926691,0.026904,0.0497859,1336,1793,8.23425,-52.9093
119,-769,8.51831,53.2083,0.0212187,0.0253488,0.0192684,0.0426625,0.003905,0.83878,0.0272335,0.0465998,1343,1793,8.51832,-53.2083
126,-769,8.76965,53.5203,0.0279259,0.0256164,0.0166714,0.0434824,0.0100598,0.75082,0.0262847,0.0468155,1350,1793,8.7697,-53.5203
133,-769,8.98694,53.7668,0,0,0,0,0,0,0,-1,1357,1793,8.987,-53.7669
140,-769,7.77698,52.2354,0,0,0,0,0,0,0,-1,1364,1793,7.77694,-52.2353
147,-769,7.65186,51.3281,0,0,0,0,0,0,0,-1,1371,1793,7.65182,-51.3281
154,-769,7.76904,34.4832,0,0,0,0,0,0,0,-1,1378,1793,7.7691,-34.4832
161,-769,6.57019,1.53223,0,0,0,0,0,0,0,-1,1385,1793,6.57019,-1.53226
168,-769,8.27637,0.756958,0,0,0,0,0,0,0,-1,1392,1793,8.27639,-0.756944
175,-769,8.47144,2.41174,0,0,0,0,0,0,0,-1,1399,1793,8.47147,-2.4118
182,-769,8.41479,4.05994,0,0,0,0,0,0,0,-1,1406,1793,8.41479,-4.05997
189,-769,8.25049,5.68433,0,0,0,0,0,0,0,-1,1413,1793,8.25054,-5.68428
196,-769,7.97729,7.42847,0,0,0,0,0,0,0,-1,1420,1793,7.9773,-7.42848
203,-769,22.0977,6.73889,0,0,0,0,0,0,0,-1,1427,1793,22.0977,-6.7389
210,-769,22.1115,7.77246,0,0,0,0,0,0,0,-1,1434,1793,22.1115,-7.77248
217,-769,22.4723,8.79102,0,0,0,0,0,0,0,-1,1441,1793,22.4723,-8.79099
224,-769,22.1348,9.35278,0,0,0,0,0,0,0,-1,1448,1793,22.1348,-9.35283
231,-769,3.13318,19.7184,0,0,0,0,0,0,0,-1,1455,1793,3.13323,-19.7184
238,-769,5.74512,18.6597,0,0,0,0,0,0,0,-1,1462,1793,5.74512,-18.6596
245,-769,5.80798,22.87,0,0,0,0,0,0,0,-1,1469,1793,5.80796,-22.87
252,-769,6.20837,28.394,0,0,0,0,0,0,0,-1,1476,1793,6.20833,-28.3941
259,-769,10.974,17.7698,0,0,0,0,0,0,0,-1,1483,1793,10.974,-17.7698
266,-769,15.8488,7.3905,0,0,0,0,0,0,0,-1,1490,1793,15.8488,-7.39046
273,-769,14.8075,7.56152,0,0,0,0,0,0,0,-1,1497,1793,14.8075,-7.56152
280,-769,13.6519,7.43054,0,0,0,0,0,0,0,-1,1504,1793,13.6518,-7.43058
287,-769,0,0,0,0,0,0,0,0,0,-1,1511,1793,0,0
294,-769,0,0,0,0,0,0,0,0,0,-1,1518,1793,0,0
301,-769,0,0,0,0,0,0,0,0,0,-1,1525,1793,0,0
308,-769,0,0,0,0,0,0,0,0,0,-1,1532,1793,0,0
315,-769,0,0,0,0,0,0,0,0,0,-1,1539,1793,0,0
322,-769,0,0,0,0,0,0,0,0,0,-1,1546,1793,0,0
329,-769,0,0,0,0,0,0,0,0,0,-1,1553,1793,0,0
336,-769,0,0,0,0,0,0,0,0,0,-1,1560,1793,0,0
343,-769,0,0,0,0,0,0,0,0,0,-1,1567,1793,0,0
350,-769,0,0,0,0,0,0,0,0,0,-1,1574,1793,0,0
357,-769,0,0,0,0,0,0,0,0,0,-1,1581,1793,0,0
364,-769,0,0,0,0,0,0,0,0,0,-1,1588,1793,0,0
371,-769,0,0,0,0,0,0,0,0,0,-1,1595,1793,0,0
378,-769,0,0,0,0,0,0,0,0,0,-1,1602,1793,0,0
385,-769,0,0,0,0,0,0,0,0,0,-1,1609,1793,0,0
392,-769,0,0,0,0,0,0,0,0,0,-1,1616,1793,0,0
399,-769,0,0,0,0,0,0,0,0,0,-1,1623,1793,0,0
406,-769,0,0,0,0,0,0,0,0,0,-1,1630,1793,0,0
413,-769,0,0,0,0,0,0,0,0,0,-1,1637,1793,0,0
420,-769,0,0,0,0,0,0,0,0,0,-1,1644,1793,0,0
427,-769,0,0,0,0,0,0,0,0,0,-1,1651,1793,0,0
434,-769,0,0,0,0,0,0,0,0,0,-1,1658,1793,0,0
441,-769,0,0,0,0,0,0,0,0,0,-1,1665,1793,0,0
448,-769,0,0,0,0,0,0,0,0,0,-1,1672,1793,0,0
455,-769,0,0,0,0,0,0,0,0,0,-1,1679,1793,0,0
462,-769,0,0,0,0,0,0,0,0,0,-1,1686,1793,0,0
469,-769,0,0,0,0,0,0,0,0,0,-1,1693,1793,0,0
476,-769,0,0,0,0,0,0,0,0,0,-1,1700,1793,0,0
483,-769,0,0,0,0,0,0,0,0,0,-1,1707,1793,0,0
490,-769,0,0,0,0,0,0,0,0,0,-1,1714,1793,0,0
497,-769,0,0,0,0,0,0,0,0,0,-1,1721,1793,0,0
504,-769,0,0,0,0,0,0,0,0,0,-1,1728,1793,0,0
511,-769,0,0,0,0,0,0,0,0,0,-1,1735,1793,0,0
518,-769,0,0,0,0,0,0,0,0,0,-1,1742,1793,0,0
525,-769,0,0,0,0,0,0,0,0,0,-1,1749,1793,0,0
532,-769,0,0,0,0,0,0,0,0,0,-1,1756,1793,0,0
539,-769,0,0,0,0,0,0,0,0,0,-1,1763,1793,0,0
546,-769,0,0,0,0,0,0,0,0,0,-1,1770,1793,0,0
553,-769,0,0,0,0,0,0,0,0,0,-1,1777,1793,0,0
560,-769,0,0,0,0,0,0,0,0,0,-1,1784,1793,0,0
567,-769,0,0,0,0,0,0,0,0,0,-1,1791,1793,0,0
574,-769,0,0,0,0,0,0,0,0,0,-1,1798,1793,0,0
581,-769,0,0,0,0,0,0,0,0,0,-1,1805,1793,0,0
588,-769,0,0,0,0,0,0,0,0,0,-1,1812,1793,0,0
595,-769,0,0,0,0,0,0,0,0,0,-1,1819,1793,0,0
602,-769,0,0,0,0,0,0,0,0,0,-1,1826,1793,0,0
609,-769,0,0,0,0,0,0,0,0,0,-1,1833,1793,0,0
616,-769,0,0,0,0,0,0,0,0,0,-1,1840,1793,0,0
623,-769,0,0,0,0,0,0,0,0,0,-1,1847,1793,0,0
630,-769,0,0,0,0,0,0,0,0,0,-1,1854,1793,0,0
637,-769,0,0,0,0,0,0,0,0,0,-1,1861,1793,0,0
644,-769,0,0,0,0,0,0,0,0,0,-1,1868,1793,0,0
651,-769,0,0,0,0,0,0,0,0,0,-1,1875,1793,0,0
658,-769,0,0,0,0,0,0,0,0,0,-1,1882,1793,0,0
665,-769,0,0,0,0,0,0,0,0,0,-1,1889,1793,0,0
672,-769,0,0,0,0,0,0,0,0,0,-1,1896,1793,0,0
679,-769,0,0,0,0,0,0,0,0,0,-1,1903,1793,0,0
686,-769,0,0,0,0,0,0,0,0,0,-1,1910,1793,0,0
693,-769,0,0,0,0,0,0,0,0,0,-1,1917,1793,0,0
700,-769,0,0,0,0,0,0,0,0,0,-1,1924,1793,0,0
707,-769,0,0,0,0,0,0,0,0,0,-1,1931,1793,0,0
714,-769,0,0,0,0,0,0,0,0,0,-1,1938,1793,0,0
721,-769,0,0,0,0,0,0,0,0,0,-1,1945,1793,0,0
728,-769,0,0,0,0,0,0,0,0,0,-1,1952,1793,0,0
735,-769,0,0,0,0,0,0,0,0,0,-1,1959,1793,0,0
742,-769,0,0,0,0,0,0,0,0,0,-1,1966,1793,0,0
749,-769,0,0,0,0,0,0,0,0,0,-1,1973,1793,0,0
756,-769,0,0,0,0,0,0,0,0,0,-1,1980,1793,0,0
763,-769,0,0,0,0,0,0,0,0,0,-1,1987,1793,0,0
770,-769,0,0,0,0,0,0,0,0,0,-1,1994,1793,0,0
777,-769,0,0,0,0,0,0,0,0,0,-1,2001,1793,0,0
784,-769,0,0,0,0,0,0,0,0,0,-1,2008,1793,0,0
791,-769,0,0,0,0,0,0,0,0,0,-1,2015,1793,0,0
798,-769,0,0,0,0,0,0,0,0,0,-1,2022,1793,0,0
805,-769,0,0,0,0,0,0,0,0,0,-1,2029,1793,0,0
812,-769,0,0,0,0,0,0,0,0,0,-1,2036,1793,0,0
-700,-776,0,0,0,0,0,0,0,0,0,-1,524,1800,0,0
-693,-776,0,0,0,0,0,0,0,0,0,-1,531,1800,0,0
-686,-776,0,0,0,0,0,0,0,0,0,-1,538,1800,0,0
-679,-776,0,0,0,0,0,0,0,0,0,-1,545,1800,0,0
-672,-776,0,0,0,0,0,0,0,0,0,-1,552,1800,0,0
-665,-776,0,0,0,0,0,0,0,0,0,-1,559,1800,0,0
-658,-776,0,0,0,0,0,0,0,0,0,-1,566,1800,0,0
-651,-776,0,0,0,0,0,0,0,0,0,-1,573,1800,0,0
-644,-776,0,0,0,0,0,0,0,0,0,-1,580,1800,0,0
-637,-776,0,0,0,0,0,0,0,0,0,-1,587,1800,0,0
-630,-776,0,0,0,0,0,0,0,0,0,-1,594,1800,0,0
-623,-776,0,0,0,0,0,0,0,0,0,-1,601,1800,0,0
-616,-776,0,0,0,0,0,0,0,0,0,-1,608,1800,0,0
-609,-776,0,0,0,0,0,0,0,0,0,-1,615,1800,0,0
-602,-776,0,0,0,0,0,0,0,0,0,-1,622,1800,0,0
-595,-776,0,0,0,0,0,0,0,0,0,-1,629,1800,0,0
-588,-776,0,0,0,0,0,0,0,0,0,-1,636,1800,0,0
-581,-776,0,0,0,0,0,0,0,0,0,-1,643,1800,0,0
-574,-776,0,0,0,0,0,0,0,0,0,-1,650,1800,0,0
-567,-776,0,0,0,0,0,0,0,0,0,-1,657,1800,0,0
-560,-776,0,0,0,0,0,0,0,0,0,-1,664,1800,0,0
-553,-776,0,0,0,0,0,0,0,0,0,-1,671,1800,0,0
-546,-776,0,0,0,0,0,0,0,0,0,-1,678,1800,0,0
-539,-776,0,0,0,0,0,0,0,0,0,-1,685,1800,0,0
-532,-776,0,0,0,0,0,0,0,0,0,-1,692,1800,0,0
-525,-776,0,0,0,0,0,0,0,0,0,-1,699,1800,0,0
-518,-776,0,0,0,0,0,0,0,0,0,-1,706,1800,0,0
-511,-776,0,0,0,0,0,0,0,0,0,-1,713,1800,0,0
-504,-776,0,0,0,0,0,0,0,0,0,-1,720,1800,0,0
-497,-776,0,0,0,0,0,0,0,0,0,-1,727,1800,0,0
-490,-776,0,0,0,0,0,0,0,0,0,-1,734,1800,0,0
-483,-776,0,0,0,0,0,0,0,0,0,-1,741,1800,0,0
-476,-776,0,0,0,0,0,0,0,0,0,-1,748,1800,0,0
-469,-776,0,0,0,0,0,0,0,0,0,-1,755,1800,0,0
-462,-776,0,0,0,0,0,0,0,0,0,-1,762,1800,0,0
-455,-776,0,0,0,0,0,0,0,0,0,-1,769,1800,0,0
-448,-776,0,0,0,0,0,0,0,0,0,-1,776,1800,0,0
-441,-776,0,0,0,0,0,0,0,0,0,-1,783,1800,0,0
-434,-776,0,0,0,0,0,0,0,0,0,-1,790,1800,0,0
-427,-776,0,0,0,0,0,0,0,0,0,-1,797,1800,0,0
-420,-776,0,0,0,0,0,0,0,0,0,-1,804,1800,0,0
-413,-776,0,0,0,0,0,0,0,0,0,-1,811,1800,0,0
-406,-776,0,0,0,0,0,0,0,0,0,-1,818,1800,0,0
-399,-776,0,0,0,0,0,0,0,0,0,-1,825,1800,0,0
-392,-776,0,0,0,0,0,0,0,0,0,-1,832,1800,0,0
-385,-776,0,0,0,0,0,0,0,0,0,-1,839,1800,0,0
-378,-776,0,0,0,0,0,0,0,0,0,-1,846,1800,0,0
-371,-776,0,0,0,0,0,0,0,0,0,-1,853,1800,0,0
-364,-776,0,0,0,0,0,0,0,0,0,-1,860,1800,0,0
-357,-776,0,0,0,0,0,0,0,0,0,-1,867,1800,0,0
-350,-776,0,0,0,0,0,0,0,0,0,-1,874,1800,0,0
-343,-776,0,0,0,0,0,0,0,0,0,-1,881,1800,0,0
-336,-776,0,0,0,0,0,0,0,0,0,-1,888,1800,0,0
-329,-776,0,0,0,0,0,0,0,0,0,-1,895,1800,0,0
-322,-776,0,0,0,0,0,0,0,0,0,-1,902,1800,0,0
-315,-776,0,0,0,0,0,0,0,0,0,-1,909,1800,0,0
-308,-776,0,0,0,0,0,0,0,0,0,-1,916,1800,0,0
-301,-776,0,0,0,0,0,0,0,0,0,-1,923,1800,0,0
-294,-776,0,0,0,0,0,0,0,0,0,-1,930,1800,0,0
-287,-776,0,0,0,0,0,0,0,0,0,-1,937,1800,0,0
-280,-776,0,0,0,0,0,0,0,0,0,-1,944,1800,0,0
-273,-776,0,0,0,0,0,0,0,0,0,-1,951,1800,0,0
-266,-776,0,0,0,0,0,0,0,0,0,-1,958,1800,0,0
-259,-776,0,0,0,0,0,0,0,0,0,-1,965,1800,0,0
-252,-776,0,0,0,0,0,0,0,0,0,-1,972,1800,0,0
-245,-776,0,0,0,0,0,0,0,0,0,-1,979,1800,0,0
-238,-776,0,0,0,0,0,0,0,0,0,-1,986,1800,0,0
-231,-776,0,0,0,0,0,0,0,0,0,-1,993,1800,0,0
-224,-776,0,0,0,0,0,0,0,0,0,-1,1000,1800,0,0
-217,-776,0,0,0,0,0,0,0,0,0,-1,1007,1800,0,0
-210,-776,0,0,0,0,0,0,0,0,0,-1,1014,1800,0,0
-203,-776,0,0,0,0,0,0,0,0,0,-1,1021,1800,0,0
-196,-776,0,0,0,0,0,0,0,0,0,-1,1028,1800,0,0
-189,-776,0,0,0,0,0,0,0,0,0,-1,1035,1800,0,0
-182,-776,0,0,0,0,0,0,0,0,0,-1,1042,1800,0,0
-175,-776,0,0,0,0,0,0,0,0,0,-1,1049,1800,0,0
-168,-776,0,0,0,0,0,0,0,0,0,-1,1056,1800,0,0
-161,-776,0,0,0,0,0,0,0,0,0,-1,1063,1800,0,0
-154,-776,0,0,0,0,0,0,0,0,0,-1,1070,1800,0,0
-147,-776,0,0,0,0,0,0,0,0,0,-1,1077,1800,0,0
-140,-776,2.98499,5.20911,0,0,0,0,0,0,0,-1,1084,1800,2.98493,-5.2091
-133,-776,6.72363,9.35828,0,0,0,0,0,0,0,-1,1091,1800,6.72358,-9.35824
-126,-776,6.55029,13.7832,0,0,0,0,0,0,0,-1,1098,1800,6.55029,-13.7832
-119,-776,5.72107,13.7787,0,0,0,0,0,0,0,-1,1105,1800,5.72106,-13.7787
-112,-776,6.84998,20.4421,0,0,0,0,0,0,0,-1,1112,1800,6.84993,-20.4421
-105,-776,4.46863,24.6742,0,0,0,0,0,0,0,-1,1119,1800,4.46868,-24.6742
-98,-776,4.31616,19.7659,0,0,0,0,0,0,0,-1,1126,1800,4.31619,-19.7659
-91,-776,3.30225,18.134,0,0,0,0,0,0,0,-1,1133,1800,3.30222,-18.134
-84,-776,2.67932,14.3162,0,0,0,0,0,0,0,-1,1140,1800,2.67926,-14.3161
-77,-776,0.580078,11.1272,0,0,0,0,0,0,0,-1,1147,1800,0.58002,-11.1272
-70,-776,-0.562866,12.3163,0,0,0,0,0,0,0,-1,1154,1800,-0.562897,-12.3163
-63,-776,-3.96106,9.97656,0,0,0,0,0,0,0,-1,1161,1800,-3.961,-9.97654
-56,-776,-7.35913,7.63672,0,0,0,0,0,0,0,-1,1168,1800,-7.3591,-7.63676
-49,-776,-7.62952,3.1908,0,0,0,0,0,0,0,-1,1175,1800,-7.62955,-3.19076
-42,-776,-3.41272,3.0249,0,0,0,0,0,0,0,-1,1182,1800,-3.41269,-3.02488
-35,-776,-3.71753,1.63635,0,0,0,0,0,0,0,-1,1189,1800,-3.71755,-1.63631
-28,-776,-4.03979,0.716064,0,0,0,0,0,0,0,-1,1196,1800,-4.03977,-0.716055
-21,-776,10.446,50.6422,0,0,0,0,0,0,0,-1,1203,1800,10.4461,-50.6422
-14,-776,9.45532,50.5637,0,0,0,0,0,0,0,-1,1210,1800,9.4553,-50.5638
-7,-776,9.51624,50.9768,0,0,0,0,0,0,0,-1,1217,1800,9.5162,-50.9769
0,-776,10.2878,53.1129,0,0,0,0,0,0,0,-1,1224,1800,10.2878,-53.1129
7,-776,9.84424,53.4813,0,0,0,0,0,0,0,-1,1231,1800,9.84428,-53.4813
14,-776,9.50061,53.6033,-0.0243361,-0.0160234,-0.0167933,-0.00287972,-0.0374798,-0.906711,0.0240841,0.0459815,1238,1800,9.50064,-53.6032
21,-776,9.06763,53.5691,-0.0223326,-0.00912418,-0.0173718,0.00285644,-0.0343132,-0.967045,0.0238846,0.0441784,1245,1800,9.06764,-53.5691
28,-776,8.9447,53.5935,0,0,0,0,0,0,0,-1,1252,1800,8.94469,-53.5935
35,-776,8.47546,53.8953,-0.0211908,0.00455298,-0.0134299,0.0102835,-0.0269213,-1.16749,0.0221846,0.0447358,1259,1800,8.4755,-53.8952
42,-776,8.07849,53.9783,-0.0203209,0.0114454,-0.0107934,0.0147657,-0.0236412,-1.27236,0.0223707,0.042962,1266,1800,8.07851,-53.9782
49,-776,7.75134,53.9332,0,0,0,0,0,0,0,-1,1273,1800,7.75134,-53.9332
56,-776,9.32849,52.8456,-0.0205498,0.0231852,-0.00280807,0.0233648,-0.0207293,-1.50694,0.0254729,0.0444051,1280,1800,9.32848,-52.8456
63,-776,9.42468,52.5243,-0.0194512,0.0287293,0.00285769,0.0288982,-0.0196201,1.51176,0.0281822,0.045876,1287,1800,9.42464,-52.5243
70,-776,8.97388,52.6768,0,0,0,0,0,0,0,-1,1294,1800,8.97384,-52.6768
77,-776,9.00635,52.6975,0,0,0,0,0,0,0,-1,1301,1800,9.00638,-52.6975
84,-776,9.18604,53.2957,0,0,0,0,0,0,0,-1,1308,1800,9.18598,-53.2957
91,-776,9.11108,53.5269,0,0,0,0,0,0,0,-1,1315,1800,9.1111,-53.5269
98,-776,9.1532,53.1287,0.00562514,0.0354515,0.023013,0.047961,-0.00688435,1.07289,0.0344985,0.0474308,1322,1800,9.15321,-53.1286
105,-776,9.20996,52.7632,0,0,0,0,0,0,0,-1,1329,1800,9.20996,-52.7631
112,-776,8.21069,52.9719,0,0,0,0,0,0,0,-1,1336,1800,8.21067,-52.9719
119,-776,8.55261,53.2378,0.0313003,0.0339918,0.0247287,0.0574114,0.00788074,0.812582,0.0359365,0.0421275,1343,1800,8.5526,-53.2378
126,-776,8.85522,53.4948,0.0416073,0.0349272,0.0210732,0.0596035,0.016931,0.706803,0.0354657,0.0432213,1350,1800,8.85524,-53.4947
133,-776,9.13416,53.7494,0,0,0,0,0,0,0,-1,1357,1800,9.1342,-53.7494
140,-776,9.79456,49.4994,0,0,0,0,0,0,0,-1,1364,1800,9.7945,-49.4994
147,-776,9.96863,47.0739,0,0,0,0,0,0,0,-1,1371,1800,9.96859,-47.0739
154,-776,38.4338,21.854,0,0,0,0,0,0,0,-1,1378,1800,38.4339,-21.854
161,-776,6.50293,1.1731,0,0,0,0,0,0,0,-1,1385,1800,6.5029,-1.17313
168,-776,8.44971,1.22913,0,0,0,0,0,0,0,-1,1392,1800,8.44974,-1.22915
175,-776,8.61523,2.87061,0,0,0,0,0,0,0,-1,1399,1800,8.6152,-2.87063
182,-776,8.54065,4.60645,0,0,0,0,0,0,0,-1,1406,1800,8.5407,-4.60643
189,-776,8.35303,6.28223,0,0,0,0,0,0,0,-1,1413,1800,8.35297,-6.28225
196,-776,8.0387,8.21704,0,0,0,0,0,0,0,-1,1420,1800,8.03865,-8.217
203,-776,7.91736,9.79919,0,0,0,0,0,0,0,-1,1427,1800,7.91735,-9.79922
210,-776,20.2479,7.85718,0,0,0,0,0,0,0,-1,1434,1800,20.248,-7.85719
217,-776,21.5171,9.3418,0,0,0,0,0,0,0,-1,1441,1800,21.5171,-9.34182
224,-776,3.09253,14.9313,0,0,0,0,0,0,0,-1,1448,1800,3.09254,-14.9313
231,-776,20.8671,9.21057,0,0,0,0,0,0,0,-1,1455,1800,20.867,-9.21054
238,-776,20.7511,9.05847,0,0,0,0,0,0,0,-1,1462,1800,20.7511,-9.05848
245,-776,3.80823,15.4108,0,0,0,0,0,0,0,-1,1469,1800,3.80826,-15.4108
252,-776,8.57837,20.2009,0,0,0,0,0,0,0,-1,1476,1800,8.57841,-20.2009
259,-776,14.1882,7.69055,0,0,0,0,0,0,0,-1,1483,1800,14.1882,-7.69061
266,-776,0,0,0,0,0,0,0,0,0,-1,1490,1800,0,0
273,-776,0,0,0,0,0,0,0,0,0,-1,1497,1800,0,0
280,-776,0,0,0,0,0,0,0,0,0,-1,1504,1800,0,0
287,-776,0,0,0,0,0,0,0,0,0,-1,1511,1800,0,0
294,-776,0,0,0,0,0,0,0,0,0,-1,1518,1800,0,0
301,-776,0,0,0,0,0,0,0,0,0,-1,1525,1800,0,0
308,-776,0,0,0,0,0,0,0,0,0,-1,1532,1800,0,0
315,-776,0,0,0,0,0,0,0,0,0,-1,1539,1800,0,0
322,-776,0,0,0,0,0,0,0,0,0,-1,1546,1800,0,0
329,-776,0,0,0,0,0,0,0,0,0,-1,1553,1800,0,0
336,-776,0,0,0,0,0,0,0,0,0,-1,1560,1800,0,0
343,-776,0,0,0,0,0,0,0,0,0,-1,1567,1800,0,0
350,-776,0,0,0,0,0,0,0,0,0,-1,1574,1800,0,0
357,-776,0,0,0,0,0,0,0,0,0,-1,1581,1800,0,0
364,-776,0,0,0,0,0,0,0,0,0,-1,1588,1800,0,0
371,-776,0,0,0,0,0,0,0,0,0,-1,1595,1800,0,0
378,-776,0,0,0,0,0,0,0,0,0,-1,1602,1800,0,0
385,-776,0,0,0,0,0,0,0,0,0,-1,1609,1800,0,0
392,-776,0,0,0,0,0,0,0,0,0,-1,1616,1800,0,0
399,-776,0,0,0,0,0,0,0,0,0,-1,1623,1800,0,0
406,-776,0,0,0,0,0,0,0,0,0,-1,1630,1800,0,0
413,-776,0,0,0,0,0,0,0,0,0,-1,1637,1800,0,0
420,-776,0,0,0,0,0,0,0,0,0,-1,1644,1800,0,0
427,-776,0,0,0,0,0,0,0,0,0,-1,1651,1800,0,0
434,-776,0,0,0,0,0,0,0,0,0,-1,1658,1800,0,0
441,-776,0,0,0,0,0,0,0,0,0,-1,1665,1800,0,0
448,-776,0,0,0,0,0,0,0,0,0,-1,1672,1800,0,0
455,-776,0,0,0,0,0,0,0,0,0,-1,1679,1800,0,0
462,-776,0,0,0,0,0,0,0,0,0,-1,1686,1800,0,0
469,-776,0,0,0,0,0,0,0,0,0,-1,1693,1800,0,0
476,-776,0,0,0,0,0,0,0,0,0,-1,1700,1800,0,0
483,-776,0,0,0,0,0,0,0,0,0,-1,1707,1800,0,0
490,-776,0,0,0,0,0,0,0,0,0,-1,1714,1800,0,0
497,-776,0,0,0,0,0,0,0,0,0,-1,1721,1800,0,0
504,-776,0,0,0,0,0,0,0,0,0,-1,1728,1800,0,0
511,-776,0,0,0,0,0,0,0,0,0,-1,1735,1800,0,0
518,-776,0,0,0,0,0,0,0,0,0,-1,1742,1800,0,0
525,-776,0,0,0,0,0,0,0,0,0,-1,1749,1800,0,0
532,-776,0,0,0,0,0,0,0,0,0,-1,1756,1800,0,0
539,-776,0,0,0,0,0,0,0,0,0,-1,1763,1800,0,0
546,-776,0,0,0,0,0,0,0,0,0,-1,1770,1800,0,0
553,-776,0,0,0,0,0,0,0,0,0,-1,1777,1800,0,0
560,-776,0,0,0,0,0,0,0,0,0,-1,1784,1800,0,0
567,-776,0,0,0,0,0,0,0,0,0,-1,1791,1800,0,0
574,-776,0,0,0,0,0,0,0,0,0,-1,1798,1800,0,0
581,-776,0,0,0,0,0,0,0,0,0,-1,1805,1800,0,0
588,-776,0,0,0,0,0,0,0,0,0,-1,1812,1800,0,0
595,-776,0,0,0,0,0,0,0,0,0,-1,1819,1800,0,0
602,-776,0,0,0,0,0,0,0,0,0,-1,1826,1800,0,0
609,-776,0,0,0,0,0,0,0,0,0,-1,1833,1800,0,0
616,-776,0,0,0,0,0,0,0,0,0,-1,1840,1800,0,0
623,-776,0,0,0,0,0,0,0,0,0,-1,1847,1800,0,0
630,-776,0,0,0,0,0,0,0,0,0,-1,1854,1800,0,0
637,-776,0,0,0,0,0,0,0,0,0,-1,1861,1800,0,0
644,-776,0,0,0,0,0,0,0,0,0,-1,1868,1800,0,0
651,-776,0,0,0,0,0,0,0,0,0,-1,1875,1800,0,0
658,-776,0,0,0,0,0,0,0,0,0,-1,1882,1800,0,0
665,-776,0,0,0,0,0,0,0,0,0,-1,1889,1800,0,0
672,-776,0,0,0,0,0,0,0,0,0,-1,1896,1800,0,0
679,-776,0,0,0,0,0,0,0,0,0,-1,1903,1800,0,0
686,-776,0,0,0,0,0,0,0,0,0,-1,1910,1800,0,0
693,-776,0,0,0,0,0,0,0,0,0,-1,1917,1800,0,0
700,-776,0,0,0,0,0,0,0,0,0,-1,1924,1800,0,0
707,-776,0,0,0,0,0,0,0,0,0,-1,1931,1800,0,0
714,-776,0,0,0,0,0,0,0,0,0,-1,1938,1800,0,0
721,-776,0,0,0,0,0,0,0,0,0,-1,1945,1800,0,0
728,-776,0,0,0,0,0,0,0,0,0,-1,1952,1800,0,0
735,-776,0,0,0,0,0,0,0,0,0,-1,1959,1800,0,0
742,-776,0,0,0,0,0,0,0,0,0,-1,1966,1800,0,0
749,-776,0,0,0,0,0,0,0,0,0,-1,1973,1800,0,0
756,-776,0,0,0,0,0,0,0,0,0,-1,1980,1800,0,0
763,-776,0,0,0,0,0,0,0,0,0,-1,1987,1800,0,0
770,-776,0,0,0,0,0,0,0,0,0,-1,1994,1800,0,0
777,-776,0,0,0,0,0,0,0,0,0,-1,2001,1800,0,0
784,-776,0,0,0,0,0,0,0,0,0,-1,2008,1800,0,0
791,-776,0,0,0,0,0,0,0,0,0,-1,2015,1800,0,0
798,-776,0,0,0,0,0,0,0,0,0,-1,2022,1800,0,0
805,-776,0,0,0,0,0,0,0,0,0,-1,2029,1800,0,0
812,-776,0,0,0,0,0,0,0,0,0,-1,2036,1800,0,0
-700,-783,0,0,0,0,0,0,0,0,0,-1,524,1807,0,0
-693,-783,0,0,0,0,0,0,0,0,0,-1,531,1807,0,0
-686,-783,0,0,0,0,0,0,0,0,0,-1,538,1807,0,0
-679,-783,0,0,0,0,0,0,0,0,0,-1,545,1807,0,0
-672,-783,0,0,0,0,0,0,0,0,0,-1,552,1807,0,0
-665,-783,0,0,0,0,0,0,0,0,0,-1,559,1807,0,0
-658,-783,0,0,0,0,0,0,0,0,0,-1,566,1807,0,0
-651,-783,0,0,0,0,0,0,0,0,0,-1,573,1807,0,0
-644,-783,0,0,0,0,0,0,0,0,0,-1,580,1807,0,0
-637,-783,0,0,0,0,0,0,0,0,0,-1,587,1807,0,0
-630,-783,0,0,0,0,0,0,0,0,0,-1,594,1807,0,0
-623,-783,0,0,0,0,0,0,0,0,0,-1,601,1807,0,0
-616,-783,0,0,0,0,0,0,0,0,0,-1,608,1807,0,0
-609,-783,0,0,0,0,0,0,0,0,0,-1,615,1807,0,0
-602,-783,0,0,0,0,0,0,0,0,0,-1,622,1807,0,0
-595,-783,0,0,0,0,0,0,0,0,0,-1,629,1807,0,0
-588,-783,0,0,0,0,0,0,0,0,0,-1,636,1807,0,0
-581,-783,0,0,0,0,0,0,0,0,0,-1,643,1807,0,0
-574,-783,0,0,0,0,0,0,0,0,0,-1,650,1807,0,0
-567,-783,0,0,0,0,0,0,0,0,0,-1,657,1807,0,0
-560,-783,0,0,0,0,0,0,0,0,0,-1,664,1807,0,0
-553,-783,0,0,0,0,0,0,0,0,0,-1,671,1807,0,0
-546,-783,0,0,0,0,0,0,0,0,0,-1,678,1807,0,0
-539,-783,0,0,0,0,0,0,0,0,0,-1,685,1807,0,0
-532,-783,0,0,0,0,0,0,0,0,0,-1,692,1807,0,0
-525,-783,0,0,0,0,0,0,0,0,0,-1,699,1807,0,0
-518,-783,0,0,0,0,0,0,0,0,0,-1,706,1807,0,0
-511,-783,0,0,0,0,0,0,0,0,0,-1,713,1807,0,0
-504,-783,0,0,0,0,0,0,0,0,0,-1,720,1807,0,0
-497,-783,0,0,0,0,0,0,0,0,0,-1,727,1807,0,0
-490,-783,0,0,0,0,0,0,0,0,0,-1,734,1807,0,0
-483,-783,0,0,0,0,0,0,0,0,0,-1,741,1807,0,0
-476,-783,0,0,0,0,0,0,0,0,0,-1,748,1807,0,0
-469,-783,0,0,0,0,0,0,0,0,0,-1,755,1807,0,0
-462,-783,0,0,0,0,0,0,0,0,0,-1,762,1807,0,0
-455,-783,0,0,0,0,0,0,0,0,0,-1,769,1807,0,0
-448,-783,0,0,0,0,0,0,0,0,0,-1,776,1807,0,0
-441,-783,0,0,0,0,0,0,0,0,0,-1,783,1807,0,0
-434,-783,0,0,0,0,0,0,0,0,0,-1,790,1807,0,0
-427,-783,0,0,0,0,0,0,0,0,0,-1,797,1807,0,0
-420,-783,0,0,0,0,0,0,0,0,0,-1,804,1807,0,0
-413,-783,0,0,0,0,0,0,0,0,0,-1,811,1807,0,0
-406,-783,0,0,0,0,0,0,0,0,0,-1,818,1807,0,0
-399,-783,0,0,0,0,0,0,0,0,0,-1,825,1807,0,0
-392,-783,0,0,0,0,0,0,0,0,0,-1,832,1807,0,0
-385,-783,0,0,0,0,0,0,0,0,0,-1,839,1807,0,0
-378,-783,0,0,0,0,0,0,0,0,0,-1,846,1807,0,0
-371,-783,0,0,0,0,0,0,0,0,0,-1,853,1807,0,0
-364,-783,0,0,0,0,0,0,0,0,0,-1,860,1807,0,0
-357,-783,0,0,0,0,0,0,0,0,0,-1,867,1807,0,0
-350,-783,0,0,0,0,0,0,0,0,0,-1,874,1807,0,0
-343,-783,0,0,0,0,0,0,0,0,0,-1,881,1807,0,0
-336,-783,0,0,0,0,0,0,0,0,0,-1,888,1807,0,0
-329,-783,0,0,0,0,0,0,0,0,0,-1,895,1807,0,0
-322,-783,0,0,0,0,0,0,0,0,0,-1,902,1807,0,0
-315,-783,0,0,0,0,0,0,0,0,0,-1,909,1807,0,0
-308,-783,0,0,0,0,0,0,0,0,0,-1,916,1807,0,0
-301,-783,0,0,0,0,0,0,0,0,0,-1,923,1807,0,0
-294,-783,0,0,0,0,0,0,0,0,0,-1,930,1807,0,0
-287,-783,0,0,0,0,0,0,0,0,0,-1,937,1807,0,0
-280,-783,0,0,0,0,0,0,0,0,0,-1,944,1807,0,0
-273,-783,0,0,0,0,0,0,0,0,0,-1,951,1807,0,0
-266,-783,0,0,0,0,0,0,0,0,0,-1,958,1807,0,0
-259,-783,0,0,0,0,0,0,0,0,0,-1,965,1807,0,0
-252,-783,0,0,0,0,0,0,0,0,0,-1,972,1807,0,0
-245,-783,0,0,0,0,0,0,0,0,0,-1,979,1807,0,0
-238,-783,0,0,0,0,0,0,0,0,0,-1,986,1807,0,0
-231,-783,0,0,0,0,0,0,0,0,0,-1,993,1807,0,0
-224,-783,0,0,0,0,0,0,0,0,0,-1,1000,1807,0,0
-217,-783,0,0,0,0,0,0,0,0,0,-1,1007,1807,0,0
-210,-783,0,0,0,0,0,0,0,0,0,-1,1014,1807,0,0
-203,-783,0,0,0,0,0,0,0,0,0,-1,1021,1807,0,0
-196,-783,0,0,0,0,0,0,0,0,0,-1,1028,1807,0,0
-189,-783,0,0,0,0,0,0,0,0,0,-1,1035,1807,0,0
-182,-783,0,0,0,0,0,0,0,0,0,-1,1042,1807,0,0
-175,-783,0,0,0,0,0,0,0,0,0,-1,1049,1807,0,0
-168,-783,0,0,0,0,0,0,0,0,0,-1,1056,1807,0,0
-161,-783,0,0,0,0,0,0,0,0,0,-1,1063,1807,0,0
-154,-783,0,0,0,0,0,0,0,0,0,-1,1070,1807,0,0
-147,-783,0,0,0,0,0,0,0,0,0,-1,1077,1807,0,0
-140,-783,0,0,0,0,0,0,0,0,0,-1,1084,1807,0,0
-133,-783,0,0,0,0,0,0,0,0,0,-1,1091,1807,0,0
-126,-783,0,0,0,0,0,0,0,0,0,-1,1098,1807,0,0
-119,-783,0,0,0,0,0,0,0,0,0,-1,1105,1807,0,0
-112,-783,5.33936,14.7699,0,0,0,0,0,0,0,-1,1112,1807,5.33931,-14.7699
-105,-783,6.44263,21.2224,0,0,0,0,0,0,0,-1,1119,1807,6.44263,-21.2224
-98,-783,5.54773,20.5695,0,0,0,0,0,0,0,-1,1126,1807,5.54772,-20.5695
-91,-783,2.6106,20.2491,0,0,0,0,0,0,0,-1,1133,1807,2.61056,-20.2492
-84,-783,-0.0491943,14.5743,0,0,0,0,0,0,0,-1,1140,1807,-0.0491562,-14.5743
-77,-783,0.332764,12.7788,0,0,0,0,0,0,0,-1,1147,1807,0.332743,-12.7788
-70,-783,-1.93176,5.12817,0,0,0,0,0,0,0,-1,1154,1807,-1.93171,-5.12813
-63,-783,-5.31702,10.54,0,0,0,0,0,0,0,-1,1161,1807,-5.31703,-10.54
-56,-783,-6.26135,6.9679,0,0,0,0,0,0,0,-1,1168,1807,-6.26136,-6.96785
-49,-783,-3.17688,4.59705,0,0,0,0,0,0,0,-1,1175,1807,-3.17685,-4.5971
-42,-783,-3.72876,3.1405,0,0,0,0,0,0,0,-1,1182,1807,-3.72874,-3.14055
-35,-783,-3.97046,1.59399,0,0,0,0,0,0,0,-1,1189,1807,-3.97041,-1.59401
-28,-783,-4.12195,0.270386,0,0,0,0,0,0,0,-1,1196,1807,-4.12197,-0.270408
-21,-783,10.2384,50.5275,0,0,0,0,0,0,0,-1,1203,1807,10.2384,-50.5274
-14,-783,9.26831,50.5885,0,0,0,0,0,0,0,-1,1210,1807,9.26829,-50.5885
-7,-783,10.6865,53.7267,0,0,0,0,0,0,0,-1,1217,1807,10.6865,-53.7267
0,-783,10.2205,53.7493,0,0,0,0,0,0,0,-1,1224,1807,10.2205,-53.7493
7,-783,9.94373,53.8706,-0.0332007,-0.0286592,-0.0204962,-0.0103084,-0.0515515,-0.840568,0.0314989,0.0464003,1231,1807,9.94368,-53.8706
14,-783,9.55762,53.892,-0.0288406,-0.0214958,-0.0225263,-0.00234452,-0.0479919,-0.8662,0.0312424,0.0486727,1238,1807,9.55766,-53.8919
21,-783,9.16235,53.8667,-0.0259853,-0.012254,-0.0230808,0.00496064,-0.0431999,-0.929961,0.0305879,0.0484882,1245,1807,9.1623,-53.8667
28,-783,8.94946,53.9281,-0.0258606,-0.00352391,-0.0200673,0.0082736,-0.0376581,-1.03932,0.0282697,0.0477696,1252,1807,8.94944,-53.9281
35,-783,8.73401,54.0537,-0.0247891,0.00546049,-0.0172788,0.0132991,-0.0326276,-1.14491,0.0272873,0.0465496,1259,1807,8.73398,-54.0537
42,-783,8.39307,54.1707,-0.0240547,0.0141242,-0.0134013,0.0183586,-0.0282891,-1.26475,0.0271347,0.0441985,1266,1807,8.39304,-54.1707
49,-783,8.11829,54.1984,0,0,0,0,0,0,0,-1,1273,1807,8.1183,-54.1984
56,-783,9.58948,52.1934,-0.0251512,0.0285332,-0.00230218,0.0286317,-0.0252498,-1.52802,0.0311289,0.0458366,1280,1807,9.58951,-52.1934
63,-783,9.61121,52.0135,-0.0241789,0.0351094,0.00496175,0.0355217,-0.0245912,1.48788,0.034897,0.0455742,1287,1807,9.61123,-52.0136
70,-783,9.8252,51.6925,0,0,0,0,0,0,0,-1,1294,1807,9.8252,-51.6925
77,-783,9.80847,51.5532,0,0,0,0,0,0,0,-1,1301,1807,9.80841,-51.5532
84,-783,9.14648,52.9979,0,0,0,0,0,0,0,-1,1308,1807,9.14653,-52.9979
91,-783,8.21655,53.1942,0,0,0,0,0,0,0,-1,1315,1807,8.21651,-53.1942
98,-783,8.26367,52.7863,0,0,0,0,0,0,0,-1,1322,1807,8.26365,-52.7862
105,-783,8.35339,53.1544,0,0,0,0,0,0,0,-1,1329,1807,8.35341,-53.1544
112,-783,8.4342,53.1077,0.0310158,0.0436072,0.0314483,0.0693837,0.00523924,0.884189,0.0446121,0.0452733,1336,1807,8.43418,-53.1077
119,-783,8.4801,53.0349,0.0446901,0.0442259,0.0303446,0.0748035,0.0141125,0.781573,0.0458939,0.0387515,1343,1807,8.48015,-53.0349
126,-783,8.86646,53.1727,0.0599165,0.0461893,0.0252724,0.0792408,0.026865,0.652804,0.0465333,0.042186,1350,1807,8.86651,-53.1727
133,-783,9.46973,53.4075,0,0,0,0,0,0,0,-1,1357,1807,9.46968,-53.4075
140,-783,11.1628,51.3999,0,0,0,0,0,0,0,-1,1364,1807,11.1629,-51.3999
147,-783,11.1248,51.0695,0,0,0,0,0,0,0,-1,1371,1807,11.1248,-51.0694
154,-783,38.2109,17.545,0,0,0,0,0,0,0,-1,1378,1807,38.2109,-17.545
161,-783,39.5087,17.5449,0,0,0,0,0,0,0,-1,1385,1807,39.5087,-17.545
168,-783,8.62561,1.79944,0,0,0,0,0,0,0,-1,1392,1807,8.62561,-1.79946
175,-783,8.78699,3.40857,0,0,0,0,0,0,0,-1,1399,1807,8.78697,-3.40854
182,-783,8.70984,5.14661,0,0,0,0,0,0,0,-1,1406,1807,8.70989,-5.14666
189,-783,8.55762,6.79871,0,0,0,0,0,0,0,-1,1413,1807,8.55766,-6.79872
196,-783,8.25488,8.66626,0,0,0,0,0,0,0,-1,1420,1807,8.25492,-8.66628
203,-783,7.86755,10.5735,0,0,0,0,0,0,0,-1,1427,1807,7.8676,-10.5734
210,-783,5.6969,8.99231,0,0,0,0,0,0,0,-1,1434,1807,5.69693,-8.99234
217,-783,5.28503,3.80872,0,0,0,0,0,0,0,-1,1441,1807,5.285,-3.80868
224,-783,3.22571,6.62903,0,0,0,0,0,0,0,-1,1448,1807,3.2257,-6.62907
231,-783,4.27942,4.56262,0,0,0,0,0,0,0,-1,1455,1807,4.27948,-4.56267
238,-783,0,0,0,0,0,0,0,0,0,-1,1462,1807,0,0
245,-783,0,0,0,0,0,0,0,0,0,-1,1469,1807,0,0
252,-783,0,0,0,0,0,0,0,0,0,-1,1476,1807,0,0
259,-783,0,0,0,0,0,0,0,0,0,-1,1483,1807,0,0
266,-783,0,0,0,0,0,0,0,0,0,-1,1490,1807,0,0
273,-783,0,0,0,0,0,0,0,0,0,-1,1497,1807,0,0
280,-783,0,0,0,0,0,0,0,0,0,-1,1504,1807,0,0
287,-783,0,0,0,0,0,0,0,0,0,-1,1511,1807,0,0
294,-783,0,0,0,0,0,0,0,0,0,-1,1518,1807,0,0
301,-783,0,0,0,0,0,0,0,0,0,-1,1525,1807,0,0
308,-783,0,0,0,0,0,0,0,0,0,-1,1532,1807,0,0
315,-783,0,0,0,0,0,0,0,0,0,-1,1539,1807,0,0
322,-783,0,0,0,0,0,0,0,0,0,-1,1546,1807,0,0
329,-783,0,0,0,0,0,0,0,0,0,-1,1553,1807,0,0
336,-783,0,0,0,0,0,0,0,0,0,-1,1560,1807,0,0
343,-783,0,0,0,0,0,0,0,0,0,-1,1567,1807,0,0
350,-783,0,0,0,0,0,0,0,0,0,-1,1574,1807,0,0
357,-783,0,0,0,0,0,0,0,0,0,-1,1581,1807,0,0
364,-783,0,0,0,0,0,0,0,0,0,-1,1588,1807,0,0
371,-783,0,0,0,0,0,0,0,0,0,-1,1595,1807,0,0
378,-783,0,0,0,0,0,0,0,0,0,-1,1602,1807,0,0
385,-783,0,0,0,0,0,0,0,0,0,-1,1609,1807,0,0
392,-783,0,0,0,0,0,0,0,0,0,-1,1616,1807,0,0
399,-783,0,0,0,0,0,0,0,0,0,-1,1623,1807,0,0
406,-783,0,0,0,0,0,0,0,0,0,-1,1630,1807,0,0
413,-783,0,0,0,0,0,0,0,0,0,-1,1637,1807,0,0
420,-783,0,0,0,0,0,0,0,0,0,-1,1644,1807,0,0
427,-783,0,0,0,0,0,0,0,0,0,-1,1651,1807,0,0
434,-783,0,0,0,0,0,0,0,0,0,-1,1658,1807,0,0
441,-783,0,0,0,0,0,0,0,0,0,-1,1665,1807,0,0
448,-783,0,0,0,0,0,0,0,0,0,-1,1672,1807,0,0
455,-783,0,0,0,0,0,0,0,0,0,-1,1679,1807,0,0
462,-783,0,0,0,0,0,0,0,0,0,-1,1686,1807,0,0
469,-783,0,0,0,0,0,0,0,0,0,-1,1693,1807,0,0
476,-783,0,0,0,0,0,0,0,0,0,-1,1700,1807,0,0
483,-783,0,0,0,0,0,0,0,0,0,-1,1707,1807,0,0
490,-783,0,0,0,0,0,0,0,0,0,-1,1714,1807,0,0
497,-783,0,0,0,0,0,0,0,0,0,-1,1721,1807,0,0
504,-783,0,0,0,0,0,0,0,0,0,-1,1728,1807,0,0
511,-783,0,0,0,0,0,0,0,0,0,-1,1735,1807,0,0
518,-783,0,0,0,0,0,0,0,0,0,-1,1742,1807,0,0
525,-783,0,0,0,0,0,0,0,0,0,-1,1749,1807,0,0
532,-783,0,0,0,0,0,0,0,0,0,-1,1756,1807,0,0
539,-783,0,0,0,0,0,0,0,0,0,-1,1763,1807,0,0
546,-783,0,0,0,0,0,0,0,0,0,-1,1770,1807,0,0
553,-783,0,0,0,0,0,0,0,0,0,-1,1777,1807,0,0
560,-783,0,0,0,0,0,0,0,0,0,-1,1784,1807,0,0
567,-783,0,0,0,0,0,0,0,0,0,-1,1791,1807,0,0
574,-783,0,0,0,0,0,0,0,0,0,-1,1798,1807,0,0
581,-783,0,0,0,0,0,0,0,0,0,-1,1805,1807,0,0
588,-783,0,0,0,0,0,0,0,0,0,-1,1812,1807,0,0
595,-783,0,0,0,0,0,0,0,0,0,-1,1819,1807,0,0
602,-783,0,0,0,0,0,0,0,0,0,-1,1826,1807,0,0
609,-783,0,0,0,0,0,0,0,0,0,-1,1833,1807,0,0
616,-783,0,0,0,0,0,0,0,0,0,-1,1840,1807,0,0
623,-783,0,0,0,0,0,0,0,0,0,-1,1847,1807,0,0
630,-783,0,0,0,0,0,0,0,0,0,-1,1854,1807,0,0
637,-783,0,0,0,0,0,0,0,0,0,-1,1861,1807,0,0
644,-783,0,0,0,0,0,0,0,0,0,-1,1868,1807,0,0
651,-783,0,0,0,0,0,0,0,0,0,-1,1875,1807,0,0
658,-783,0,0,0,0,0,0,0,0,0,-1,1882,1807,0,0
665,-783,0,0,0,0,0,0,0,0,0,-1,1889,1807,0,0
672,-783,0,0,0,0,0,0,0,0,0,-1,1896,1807,0,0
679,-783,0,0,0,0,0,0,0,0,0,-1,1903,1807,0,0
686,-783,0,0,0,0,0,0,0,0,0,-1,1910,1807,0,0
693,-783,0,0,0,0,0,0,0,0,0,-1,1917,1807,0,0
700,-783,0,0,0,0,0,0,0,0,0,-1,1924,1807,0,0
707,-783,0,0,0,0,0,0,0,0,0,-1,1931,1807,0,0
714,-783,0,0,0,0,0,0,0,0,0,-1,1938,1807,0,0
721,-783,0,0,0,0,0,0,0,0,0,-1,1945,1807,0,0
728,-783,0,0,0,0,0,0,0,0,0,-1,1952,1807,0,0
735,-783,0,0,0,0,0,0,0,0,0,-1,1959,1807,0,0
742,-783,0,0,0,0,0,0,0,0,0,-1,1966,1807,0,0
749,-783,0,0,0,0,0,0,0,0,0,-1,1973,1807,0,0
756,-783,0,0,0,0,0,0,0,0,0,-1,1980,1807,0,0
763,-783,0,0,0,0,0,0,0,0,0,-1,1987,1807,0,0
770,-783,0,0,0,0,0,0,0,0,0,-1,1994,1807,0,0
777,-783,0,0,0,0,0,0,0,0,0,-1,2001,1807,0,0
784,-783,0,0,0,0,0,0,0,0,0,-1,2008,1807,0,0
791,-783,0,0,0,0,0,0,0,0,0,-1,2015,1807,0,0
798,-783,0,0,0,0,0,0,0,0,0,-1,2022,1807,0,0
805,-783,0,0,0,0,0,0,0,0,0,-1,2029,1807,0,0
812,-783,0,0,0,0,0,0,0,0,0,-1,2036,1807,0,0
-700,-790,0,0,0,0,0,0,0,0,0,-1,524,1814,0,0
-693,-790,0,0,0,0,0,0,0,0,0,-1,531,1814,0,0
-686,-790,0,0,0,0,0,0,0,0,0,-1,538,1814,0,0
-679,-790,0,0,0,0,0,0,0,0,0,-1,545,1814,0,0
-672,-790,0,0,0,0,0,0,0,0,0,-1,552,1814,0,0
-665,-790,0,0,0,0,0,0,0,0,0,-1,559,1814,0,0
-658,-790,0,0,0,0,0,0,0,0,0,-1,566,1814,0,0
-651,-790,0,0,0,0,0,0,0,0,0,-1,573,1814,0,0
-644,-790,0,0,0,0,0,0,0,0,0,-1,580,1814,0,0
-637,-790,0,0,0,0,0,0,0,0,0,-1,587,1814,0,0
-630,-790,0,0,0,0,0,0,0,0,0,-1,594,1814,0,0
-623,-790,0,0,0,0,0,0,0,0,0,-1,601,1814,0,0
-616,-790,0,0,0,0,0,0,0,0,0,-1,608,1814,0,0
-609,-790,0,0,0,0,0,0,0,0,0,-1,615,1814,0,0
-602,-790,0,0,0,0,0,0,0,0,0,-1,622,1814,0,0
-595,-790,0,0,0,0,0,0,0,0,0,-1,629,1814,0,0
-588,-790,0,0,0,0,0,0,0,0,0,-1,636,1814,0,0
-581,-790,0,0,0,0,0,0,0,0,0,-1,643,1814,0,0
-574,-790,0,0,0,0,0,0,0,0,0,-1,650,1814,0,0
-567,-790,0,0,0,0,0,0,0,0,0,-1,657,1814,0,0
-560,-790,0,0,0,0,0,0,0,0,0,-1,664,1814,0,0
-553,-790,0,0,0,0,0,0,0,0,0,-1,671,1814,0,0
-546,-790,0,0,0,0,0,0,0,0,0,-1,678,1814,0,0
-539,-790,0,0,0,0,0,0,0,0,0,-1,685,1814,0,0
-532,-790,0,0,0,0,0,0,0,0,0,-1,692,1814,0,0
-525,-790,0,0,0,0,0,0,0,0,0,-1,699,1814,0,0
-518,-790,0,0,0,0,0,0,0,0,0,-1,706,1814,0,0
-511,-790,0,0,0,0,0,0,0,0,0,-1,713,1814,0,0
-504,-790,0,0,0,0,0,0,0,0,0,-1,720,1814,0,0
-497,-790,0,0,0,0,0,0,0,0,0,-1,727,1814,0,0
-490,-790,0,0,0,0,0,0,0,0,0,-1,734,1814,0,0
-483,-790,0,0,0,0,0,0,0,0,0,-1,741,1814,0,0
-476,-790,0,0,0,0,0,0,0,0,0,-1,748,1814,0,0
-469,-790,0,0,0,0,0,0,0,0,0,-1,755,1814,0,0
-462,-790,0,0,0,0,0,0,0,0,0,-1,762,1814,0,0
-455,-790,0,0,0,0,0,0,0,0,0,-1,769,1814,0,0
-448,-790,0,0,0,0,0,0,0,0,0,-1,776,1814,0,0
-441,-790,0,0,0,0,0,0,0,0,0,-1,783,1814,0,0
-434,-790,0,0,0,0,0,0,0,0,0,-1,790,1814,0,0
-427,-790,0,0,0,0,0,0,0,0,0,-1,797,1814,0,0
-420,-790,0,0,0,0,0,0,0,0,0,-1,804,1814,0,0
-413,-790,0,0,0,0,0,0,0,0,0,-1,811,1814,0,0
-406,-790,0,0,0,0,0,0,0,0,0,-1,818,1814,0,0
-399,-790,0,0,0,0,0,0,0,0,0,-1,825,1814,0,0
-392,-790,0,0,0,0,0,0,0,0,0,-1,832,1814,0,0
-385,-790,0,0,0,0,0,0,0,0,0,-1,839,1814,0,0
-378,-790,0,0,0,0,0,0,0,0,0,-1,846,1814,0,0
-371,-790,0,0,0,0,0,0,0,0,0,-1,853,1814,0,0
-364,-790,0,0,0,0,0,0,0,0,0,-1,860,1814,0,0
-357,-790,0,0,0,0,0,0,0,0,0,-1,867,1814,0,0
-350,-790,0,0,0,0,0,0,0,0,0,-1,874,1814,0,0
-343,-790,0,0,0,0,0,0,0,0,0,-1,881,1814,0,0
-336,-790,0,0,0,0,0,0,0,0,0,-1,888,1814,0,0
-329,-790,0,0,0,0,0,0,0,0,0,-1,895,1814,0,0
-322,-790,0,0,0,0,0,0,0,0,0,-1,902,1814,0,0
-315,-790,0,0,0,0,0,0,0,0,0,-1,909,1814,0,0
-308,-790,0,0,0,0,0,0,0,0,0,-1,916,1814,0,0
-301,-790,0,0,0,0,0,0,0,0,0,-1,923,1814,0,0
-294,-790,0,0,0,0,0,0,0,0,0,-1,930,1814,0,0
-287,-790,0,0,0,0,0,0,0,0,0,-1,937,1814,0,0
-280,-790,0,0,0,0,0,0,0,0,0,-1,944,1814,0,0
-273,-790,0,0,0,0,0,0,0,0,0,-1,951,1814,0,0
-266,-790,0,0,0,0,0,0,0,0,0,-1,958,1814,0,0
-259,-790,0,0,0,0,0,0,0,0,0,-1,965,1814,0,0
-252,-790,0,0,0,0,0,0,0,0,0,-1,972,1814,0,0
-245,-790,0,0,0,0,0,0,0,0,0,-1,979,1814,0,0
-238,-790,0,0,0,0,0,0,0,0,0,-1,986,1814,0,0
-231,-790,0,0,0,0,0,0,0,0,0,-1,993,1814,0,0
-224,-790,0,0,0,0,0,0,0,0,0,-1,1000,1814,0,0
-217,-790,0,0,0,0,0,0,0,0,0,-1,1007,1814,0,0
-210,-790,0,0,0,0,0,0,0,0,0,-1,1014,1814,0,0
-203,-790,0,0,0,0,0,0,0,0,0,-1,1021,1814,0,0
-196,-790,0,0,0,0,0,0,0,0,0,-1,1028,1814,0,0
-189,-790,0,0,0,0,0,0,0,0,0,-1,1035,1814,0,0
-182,-790,0,0,0,0,0,0,0,0,0,-1,1042,1814,0,0
-175,-790,0,0,0,0,0,0,0,0,0,-1,1049,1814,0,0
-168,-790,0,0,0,0,0,0,0,0,0,-1,1056,1814,0,0
-161,-790,0,0,0,0,0,0,0,0,0,-1,1063,1814,0,0
-154,-790,0,0,0,0,0,0,0,0,0,-1,1070,1814,0,0
-147,-790,0,0,0,0,0,0,0,0,0,-1,1077,1814,0,0
-140,-790,0,0,0,0,0,0,0,0,0,-1,1084,1814,0,0
-133,-790,0,0,0,0,0,0,0,0,0,-1,1091,1814,0,0
-126,-790,0,0,0,0,0,0,0,0,0,-1,1098,1814,0,0
-119,-790,0,0,0,0,0,0,0,0,0,-1,1105,1814,0,0
-112,-790,0,0,0,0,0,0,0,0,0,-1,1112,1814,0,0
-105,-790,0,0,0,0,0,0,0,0,0,-1,1119,1814,0,0
-98,-790,0,0,0,0,0,0,0,0,0,-1,1126,1814,0,0
-91,-790,0,0,0,0,0,0,0,0,0,-1,1133,1814,0,0
-84,-790,0,0,0,0,0,0,0,0,0,-1,1140,1814,0,0
-77,-790,-0.969238,5.30847,0,0,0,0,0,0,0,-1,1147,1814,-0.969277,-5.3085
-70,-790,-1.23169,4.98914,0,0,0,0,0,0,0,-1,1154,1814,-1.23163,-4.98916
-63,-790,-1.69128,4.32263,0,0,0,0,0,0,0,-1,1161,1814,-1.69128,-4.32258
-56,-790,-2.24756,3.75305,0,0,0,0,0,0,0,-1,1168,1814,-2.24758,-3.75302
-49,-790,-3.11011,3.35779,0,0,0,0,0,0,0,-1,1175,1814,-3.11006,-3.35781
-42,-790,0.593262,1.19165,0,0,0,0,0,0,0,-1,1182,1814,0.593225,-1.19165
-35,-790,0.307129,-0.20105,0,0,0,0,0,0,0,-1,1189,1814,0.307178,0.201006
-28,-790,-2.78467,0.785156,0,0,0,0,0,0,0,-1,1196,1814,-2.78471,-0.785183
-21,-790,7.6814,50.5602,0,0,0,0,0,0,0,-1,1203,1814,7.68145,-50.5602
-14,-790,8.42151,50.6047,0,0,0,0,0,0,0,-1,1210,1814,8.42153,-50.6047
-7,-790,9.04456,50.7338,0,0,0,0,0,0,0,-1,1217,1814,9.04461,-50.7338
0,-790,10.1532,54.3857,0,0,0,0,0,0,0,-1,1224,1814,10.1532,-54.3857
7,-790,10.3186,54.5273,-0.0396477,-0.0368753,-0.0270386,-0.0111874,-0.0653356,-0.811009,0.0403483,0.0442379,1231,1814,10.3186,-54.5274
14,-790,9.67798,54.2087,-0.0334777,-0.0278176,-0.0295041,-0.00100817,-0.0602871,-0.833212,0.0398596,0.0462327,1238,1814,9.67803,-54.2087
21,-790,9.38489,53.8684,-0.0295476,-0.0156837,-0.029934,0.00811047,-0.0533418,-0.89918,0.0385501,0.0444647,1245,1814,9.38488,-53.8684
28,-790,9.38892,54.0149,-0.0294124,-0.00453592,-0.0256681,0.0115489,-0.0454972,-1.01102,0.0348253,0.0430281,1252,1814,9.38894,-54.0148
35,-790,9.22839,54.1895,-0.028425,0.00664605,-0.0215914,0.0169256,-0.0387046,-1.12645,0.0329284,0.0446824,1259,1814,9.22841,-54.1894
42,-790,8.81946,54.2963,-0.0280015,0.0171813,-0.0161279,0.0223474,-0.0331677,-1.2608,0.032254,0.043817,1266,1814,8.81947,-54.2962
49,-790,10.1627,52.5758,-0.0285274,0.0263847,-0.00916229,0.0278731,-0.0300159,-1.40975,0.0334299,0.0472313,1273,1814,10.1628,-52.5759
56,-790,10.0969,51.9647,-0.0303721,0.0343248,-0.00126839,0.0343497,-0.030397,-1.5512,0.0374047,0.0454982,1280,1814,10.0969,-51.9648
63,-790,9.97266,51.2338,-0.029697,0.0419228,0.00777449,0.042757,-0.0305312,1.4639,0.0425088,0.0422538,1287,1814,9.97262,-51.2338
70,-790,9.95361,50.754,0,0,0,0,0,0,0,-1,1294,1814,9.95365,-50.7541
77,-790,10.4041,51.451,-0.0187106,0.0496476,0.0226732,0.0564842,-0.0255472,1.27794,0.0484706,0.0440819,1301,1814,10.404,-51.451
84,-790,6.71155,53.2615,-0.012001,0.0509158,0.029454,0.0625523,-0.0236375,1.19454,0.0514246,0.0416427,1308,1814,6.7115,-53.2615
91,-790,7.26331,52.9485,-0.00180415,0.0518722,0.0341607,0.0684765,-0.0184084,1.11836,0.0528664,0.0458407,1315,1814,7.26332,-52.9485
98,-790,7.3186,52.4901,0.0105467,0.0529604,0.0373204,0.0746784,-0.0111713,1.04377,0.0538967,0.0456245,1322,1814,7.31854,-52.4901
105,-790,7.23108,52.4053,0,0,0,0,0,0,0,-1,1329,1814,7.23103,-52.4052
112,-790,7.60803,52.5795,0.042804,0.0540692,0.0382356,0.0870849,0.00978835,0.858528,0.0550844,0.0452206,1336,1814,7.60806,-52.5794
119,-790,7.92444,52.59,0.0624658,0.0561433,0.0357348,0.0951789,0.0234303,0.741281,0.0572633,0.0409076,1343,1814,7.92447,-52.59
126,-790,8.96375,52.6724,0.0843602,0.0595989,0.0287599,0.103291,0.040668,0.582146,0.0600825,0.0434853,1350,1814,8.96376,-52.6723
133,-790,9.82947,52.9064,0,0,0,0,0,0,0,-1,1357,1814,9.82952,-52.9064
140,-790,10.4464,50.0532,0,0,0,0,0,0,0,-1,1364,1814,10.4464,-50.0532
147,-790,9.98438,50.9987,0,0,0,0,0,0,0,-1,1371,1814,9.98438,-50.9986
154,-790,40.215,13.2396,0,0,0,0,0,0,0,-1,1378,1814,40.2149,-13.2396
161,-790,39.3429,13.0336,0,0,0,0,0,0,0,-1,1385,1814,39.3429,-13.0336
168,-790,7.04077,2.23279,0,0,0,0,0,0,0,-1,1392,1814,7.04082,-2.23275
175,-790,9.03918,3.98535,0,0,0,0,0,0,0,-1,1399,1814,9.0392,-3.98535
182,-790,8.96997,5.67896,0,0,0,0,0,0,0,-1,1406,1814,8.97001,-5.6789
189,-790,8.59729,6.86975,0,0,0,0,0,0,0,-1,1413,1814,8.59728,-6.86972
196,-790,8.21924,9.29053,0,0,0,0,0,0,0,-1,1420,1814,8.21924,-9.29048
203,-790,0,0,0,0,0,0,0,0,0,-1,1427,1814,0,0
210,-790,0,0,0,0,0,0,0,0,0,-1,1434,1814,0,0
217,-790,0,0,0,0,0,0,0,0,0,-1,1441,1814,0,0
224,-790,0,0,0,0,0,0,0,0,0,-1,1448,1814,0,0
231,-790,0,0,0,0,0,0,0,0,0,-1,1455,1814,0,0
238,-790,0,0,0,0,0,0,0,0,0,-1,1462,1814,0,0
245,-790,0,0,0,0,0,0,0,0,0,-1,1469,1814,0,0
252,-790,0,0,0,0,0,0,0,0,0,-1,1476,1814,0,0
259,-790,0,0,0,0,0,0,0,0,0,-1,1483,1814,0,0
266,-790,0,0,0,0,0,0,0,0,0,-1,1490,1814,0,0
273,-790,0,0,0,0,0,0,0,0,0,-1,1497,1814,0,0
280,-790,0,0,0,0,0,0,0,0,0,-1,1504,1814,0,0
287,-790,0,0,0,0,0,0,0,0,0,-1,1511,1814,0,0
294,-790,0,0,0,0,0,0,0,0,0,-1,1518,1814,0,0
301,-790,0,0,0,0,0,0,0,0,0,-1,1525,1814,0,0
308,-790,0,0,0,0,0,0,0,0,0,-1,1532,1814,0,0
315,-790,0,0,0,0,0,0,0,0,0,-1,1539,1814,0,0
322,-790,0,0,0,0,0,0,0,0,0,-1,1546,1814,0,0
329,-790,0,0,0,0,0,0,0,0,0,-1,1553,1814,0,0
336,-790,0,0,0,0,0,0,0,0,0,-1,1560,1814,0,0
343,-790,0,0,0,0,0,0,0,0,0,-1,1567,1814,0,0
350,-790,0,0,0,0,0,0,0,0,0,-1,1574,1814,0,0
357,-790,0,0,0,0,0,0,0,0,0,-1,1581,1814,0,0
364,-790,0,0,0,0,0,0,0,0,0,-1,1588,1814,0,0
371,-790,0,0,0,0,0,0,0,0,0,-1,1595,1814,0,0
378,-790,0,0,0,0,0,0,0,0,0,-1,1602,1814,0,0
385,-790,0,0,0,0,0,0,0,0,0,-1,1609,1814,0,0
392,-790,0,0,0,0,0,0,0,0,0,-1,1616,1814,0,0
399,-790,0,0,0,0,0,0,0,0,0,-1,1623,1814,0,0
406,-790,0,0,0,0,0,0,0,0,0,-1,1630,1814,0,0
413,-790,0,0,0,0,0,0,0,0,0,-1,1637,1814,0,0
420,-790,0,0,0,0,0,0,0,0,0,-1,1644,1814,0,0
427,-790,0,0,0,0,0,0,0,0,0,-1,1651,1814,0,0
434,-790,0,0,0,0,0,0,0,0,0,-1,1658,1814,0,0
441,-790,0,0,0,0,0,0,0,0,0,-1,1665,1814,0,0
448,-790,0,0,0,0,0,0,0,0,0,-1,1672,1814,0,0
455,-790,0,0,0,0,0,0,0,0,0,-1,1679,1814,0,0
462,-790,0,0,0,0,0,0,0,0,0,-1,1686,1814,0,0
469,-790,0,0,0,0,0,0,0,0,0,-1,1693,1814,0,0
476,-790,0,0,0,0,0,0,0,0,0,-1,1700,1814,0,0
483,-790,0,0,0,0,0,0,0,0,0,-1,1707,1814,0,0
490,-790,0,0,0,0,0,0,0,0,0,-1,1714,1814,0,0
497,-790,0,0,0,0,0,0,0,0,0,-1,1721,1814,0,0
504,-790,0,0,0,0,0,0,0,0,0,-1,1728,1814,0,0
511,-790,0,0,0,0,0,0,0,0,0,-1,1735,1814,0,0
518,-790,0,0,0,0,0,0,0,0,0,-1,1742,1814,0,0
525,-790,0,0,0,0,0,0,0,0,0,-1,1749,1814,0,0
532,-790,0,0,0,0,0,0,0,0,0,-1,1756,1814,0,0
539,-790,0,0,0,0,0,0,0,0,0,-1,1763,1814,0,0
546,-790,0,0,0,0,0,0,0,0,0,-1,1770,1814,0,0
553,-790,0,0,0,0,0,0,0,0,0,-1,1777,1814,0,0
560,-790,0,0,0,0,0,0,0,0,0,-1,1784,1814,0,0
567,-790,0,0,0,0,0,0,0,0,0,-1,1791,1814,0,0
574,-790,0,0,0,0,0,0,0,0,0,-1,1798,1814,0,0
581,-790,0,0,0,0,0,0,0,0,0,-1,1805,1814,0,0
588,-790,0,0,0,0,0,0,0,0,0,-1,1812,1814,0,0
595,-790,0,0,0,0,0,0,0,0,0,-1,1819,1814,0,0
602,-790,0,0,0,0,0,0,0,0,0,-1,1826,1814,0,0
609,-790,0,0,0,0,0,0,0,0,0,-1,1833,1814,0,0
616,-790,0,0,0,0,0,0,0,0,0,-1,1840,1814,0,0
623,-790,0,0,0,0,0,0,0,0,0,-1,1847,1814,0,0
630,-790,0,0,0,0,0,0,0,0,0,-1,1854,1814,0,0
637,-790,0,0,0,0,0,0,0,0,0,-1,1861,1814,0,0
644,-790,0,0,0,0,0,0,0,0,0,-1,1868,1814,0,0
651,-790,0,0,0,0,0,0,0,0,0,-1,1875,1814,0,0
658,-790,0,0,0,0,0,0,0,0,0,-1,1882,1814,0,0
665,-790,0,0,0,0,0,0,0,0,0,-1,1889,1814,0,0
672,-790,0,0,0,0,0,0,0,0,0,-1,1896,1814,0,0
679,-790,0,0,0,0,0,0,0,0,0,-1,1903,1814,0,0
686,-790,0,0,0,0,0,0,0,0,0,-1,1910,1814,0,0
693,-790,0,0,0,0,0,0,0,0,0,-1,1917,1814,0,0
700,-790,0,0,0,0,0,0,0,0,0,-1,1924,1814,0,0
707,-790,0,0,0,0,0,0,0,0,0,-1,1931,1814,0,0
714,-790,0,0,0,0,0,0,0,0,0,-1,1938,1814,0,0
721,-790,0,0,0,0,0,0,0,0,0,-1,1945,1814,0,0
728,-790,0,0,0,0,0,0,0,0,0,-1,1952,1814,0,0
735,-790,0,0,0,0,0,0,0,0,0,-1,1959,1814,0,0
742,-790,0,0,0,0,0,0,0,0,0,-1,1966,1814,0,0
749,-790,0,0,0,0,0,0,0,0,0,-1,1973,1814,0,0
756,-790,0,0,0,0,0,0,0,0,0,-1,1980,1814,0,0
763,-790,0,0,0,0,0,0,0,0,0,-1,1987,1814,0,0
770,-790,0,0,0,0,0,0,0,0,0,-1,1994,1814,0,0
777,-790,0,0,0,0,0,0,0,0,0,-1,2001,1814,0,0
784,-790,0,0,0,0,0,0,0,0,0,-1,2008,1814,0,0
791,-790,0,0,0,0,0,0,0,0,0,-1,2015,1814,0,0
798,-790,0,0,0,0,0,0,0,0,0,-1,2022,1814,0,0
805,-790,0,0,0,0,0,0,0,0,0,-1,2029,1814,0,0
812,-790,0,0,0,0,0,0,0,0,0,-1,2036,1814,0,0
-700,-797,0,0,0,0,0,0,0,0,0,-1,524,1821,0,0
-693,-797,0,0,0,0,0,0,0,0,0,-1,531,1821,0,0
-686,-797,0,0,0,0,0,0,0,0,0,-1,538,1821,0,0
-679,-797,0,0,0,0,0,0,0,0,0,-1,545,1821,0,0
-672,-797,0,0,0,0,0,0,0,0,0,-1,552,1821,0,0
-665,-797,0,0,0,0,0,0,0,0,0,-1,559,1821,0,0
-658,-797,0,0,0,0,0,0,0,0,0,-1,566,1821,0,0
-651,-797,0,0,0,0,0,0,0,0,0,-1,573,1821,0,0
-644,-797,0,0,0,0,0,0,0,0,0,-1,580,1821,0,0
-637,-797,0,0,0,0,0,0,0,0,0,-1,587,1821,0,0
-630,-797,0,0,0,0,0,0,0,0,0,-1,594,1821,0,0
-623,-797,0,0,0,0,0,0,0,0,0,-1,601,1821,0,0
-616,-797,0,0,0,0,0,0,0,0,0,-1,608,1821,0,0
-609,-797,0,0,0,0,0,0,0,0,0,-1,615,1821,0,0
-602,-797,0,0,0,0,0,0,0,0,0,-1,622,1821,0,0
-595,-797,0,0,0,0,0,0,0,0,0,-1,629,1821,0,0
-588,-797,0,0,0,0,0,0,0,0,0,-1,636,1821,0,0
-581,-797,0,0,0,0,0,0,0,0,0,-1,643,1821,0,0
-574,-797,0,0,0,0,0,0,0,0,0,-1,650,1821,0,0
-567,-797,0,0,0,0,0,0,0,0,0,-1,657,1821,0,0
-560,-797,0,0,0,0,0,0,0,0,0,-1,664,1821,0,0
-553,-797,0,0,0,0,0,0,0,0,0,-1,671,1821,0,0
-546,-797,0,0,0,0,0,0,0,0,0,-1,678,1821,0,0
-539,-797,0,0,0,0,0,0,0,0,0,-1,685,1821,0,0
-532,-797,0,0,0,0,0,0,0,0,0,-1,692,1821,0,0
-525,-797,0,0,0,0,0,0,0,0,0,-1,699,1821,0,0
-518,-797,0,0,0,0,0,0,0,0,0,-1,706,1821,0,0
-511,-797,0,0,0,0,0,0,0,0,0,-1,713,1821,0,0
-504,-797,0,0,0,0,0,0,0,0,0,-1,720,1821,0,0
-497,-797,0,0,0,0,0,0,0,0,0,-1,727,1821,0,0
-490,-797,0,0,0,0,0,0,0,0,0,-1,734,1821,0,0
-483,-797,0,0,0,0,0,0,0,0,0,-1,741,1821,0,0
-476,-797,0,0,0,0,0,0,0,0,0,-1,748,1821,0,0
-469,-797,0,0,0,0,0,0,0,0,0,-1,755,1821,0,0
-462,-797,0,0,0,0,0,0,0,0,0,-1,762,1821,0,0
-455,-797,0,0,0,0,0,0,0,0,0,-1,769,1821,0,0
-448,-797,0,0,0,0,0,0,0,0,0,-1,776,1821,0,0
-441,-797,0,0,0,0,0,0,0,0,0,-1,783,1821,0,0
-434,-797,0,0,0,0,0,0,0,0,0,-1,790,1821,0,0
-427,-797,0,0,0,0,0,0,0,0,0,-1,797,1821,0,0
-420,-797,0,0,0,0,0,0,0,0,0,-1,804,1821,0,0
-413,-797,0,0,0,0,0,0,0,0,0,-1,811,1821,0,0
-406,-797,0,0,0,0,0,0,0,0,0,-1,818,1821,0,0
-399,-797,0,0,0,0,0,0,0,0,0,-1,825,1821,0,0
-392,-797,0,0,0,0,0,0,0,0,0,-1,832,1821,0,0
-385,-797,0,0,0,0,0,0,0,0,0,-1,839,1821,0,0
-378,-797,0,0,0,0,0,0,0,0,0,-1,846,1821,0,0
-371,-797,0,0,0,0,0,0,0,0,0,-1,853,1821,0,0
-364,-797,0,0,0,0,0,0,0,0,0,-1,860,1821,0,0
-357,-797,0,0,0,0,0,0,0,0,0,-1,867,1821,0,0
-350,-797,0,0,0,0,0,0,0,0,0,-1,874,1821,0,0
-343,-797,0,0,0,0,0,0,0,0,0,-1,881,1821,0,0
-336,-797,0,0,0,0,0,0,0,0,0,-1,888,1821,0,0
-329,-797,0,0,0,0,0,0,0,0,0,-1,895,1821,0,0
-322,-797,0,0,0,0,0,0,0,0,0,-1,902,1821,0,0
-315,-797,0,0,0,0,0,0,0,0,0,-1,909,1821,0,0
-308,-797,0,0,0,0,0,0,0,0,0,-1,916,1821,0,0
-301,-797,0,0,0,0,0,0,0,0,0,-1,923,1821,0,0
-294,-797,0,0,0,0,0,0,0,0,0,-1,930,1821,0,0
-287,-797,0,0,0,0,0,0,0,0,0,-1,937,1821,0,0
-280,-797,0,0,0,0,0,0,0,0,0,-1,944,1821,0,0
-273,-797,0,0,0,0,0,0,0,0,0,-1,951,1821,0,0
-266,-797,0,0,0,0,0,0,0,0,0,-1,958,1821,0,0
-259,-797,0,0,0,0,0,0,0,0,0,-1,965,1821,0,0
-252,-797,0,0,0,0,0,0,0,0,0,-1,972,1821,0,0
-245,-797,0,0,0,0,0,0,0,0,0,-1,979,1821,0,0
-238,-797,0,0,0,0,0,0,0,0,0,-1,986,1821,0,0
-231,-797,0,0,0,0,0,0,0,0,0,-1,993,1821,0,0
-224,-797,0,0,0,0,0,0,0,0,0,-1,1000,1821,0,0
-217,-797,0,0,0,0,0,0,0,0,0,-1,1007,1821,0,0
-210,-797,0,0,0,0,0,0,0,0,0,-1,1014,1821,0,0
-203,-797,0,0,0,0,0,0,0,0,0,-1,1021,1821,0,0
-196,-797,0,0,0,0,0,0,0,0,0,-1,1028,1821,0,0
-189,-797,0,0,0,0,0,0,0,0,0,-1,1035,1821,0,0
-182,-797,0,0,0,0,0,0,0,0,0,-1,1042,1821,0,0
-175,-797,0,0,0,0,0,0,0,0,0,-1,1049,1821,0,0
-168,-797,0,0,0,0,0,0,0,0,0,-1,1056,1821,0,0
-161,-797,0,0,0,0,0,0,0,0,0,-1,1063,1821,0,0
-154,-797,0,0,0,0,0,0,0,0,0,-1,1070,1821,0,0
-147,-797,0,0,0,0,0,0,0,0,0,-1,1077,1821,0,0
-140,-797,0,0,0,0,0,0,0,0,0,-1,1084,1821,0,0
-133,-797,0,0,0,0,0,0,0,0,0,-1,1091,1821,0,0
-126,-797,0,0,0,0,0,0,0,0,0,-1,1098,1821,0,0
-119,-797,0,0,0,0,0,0,0,0,0,-1,1105,1821,0,0
-112,-797,0,0,0,0,0,0,0,0,0,-1,1112,1821,0,0
-105,-797,0,0,0,0,0,0,0,0,0,-1,1119,1821,0,0
-98,-797,0,0,0,0,0,0,0,0,0,-1,1126,1821,0,0
-91,-797,0,0,0,0,0,0,0,0,0,-1,1133,1821,0,0
-84,-797,0,0,0,0,0,0,0,0,0,-1,1140,1821,0,0
-77,-797,0,0,0,0,0,0,0,0,0,-1,1147,1821,0,0
-70,-797,0,0,0,0,0,0,0,0,0,-1,1154,1821,0,0
-63,-797,0,0,0,0,0,0,0,0,0,-1,1161,1821,0,0
-56,-797,0,0,0,0,0,0,0,0,0,-1,1168,1821,0,0
-49,-797,0,0,0,0,0,0,0,0,0,-1,1175,1821,0,0
-42,-797,0.579834,0.692871,0,0,0,0,0,0,0,-1,1182,1821,0.579856,-0.692816
-35,-797,-0.185425,5.55396,0,0,0,0,0,0,0,-1,1189,1821,-0.18542,-5.55396
-28,-797,-0.310181,4.71509,0,0,0,0,0,0,0,-1,1196,1821,-0.310228,-4.71503
-21,-797,7.15015,50.1357,0,0,0,0,0,0,0,-1,1203,1821,7.1501,-50.1358
-14,-797,8.00085,50.2369,0,0,0,0,0,0,0,-1,1210,1821,8.00084,-50.2369
-7,-797,8.82263,50.5653,0,0,0,0,0,0,0,-1,1217,1821,8.82258,-50.5653
0,-797,10.9365,55.2338,0,0,0,0,0,0,0,-1,1224,1821,10.9365,-55.2337
7,-797,10.4464,54.8282,-0.0464744,-0.0458052,-0.0351875,-0.0109507,-0.0813289,-0.790153,0.0509627,0.0443277,1231,1821,10.4465,-54.8282
14,-797,9.92407,54.5503,-0.0377852,-0.0343152,-0.0381962,0.0021854,-0.0742857,-0.808094,0.0502681,0.042469,1238,1821,9.92408,-54.5503
21,-797,9.96497,54.1639,-0.0327073,-0.018701,-0.0381789,0.0131117,-0.06452,-0.876105,0.0479848,0.0431513,1245,1821,9.96498,-54.1639
28,-797,9.91541,53.9448,-0.03277,-0.00491408,-0.0320511,0.0161045,-0.0537885,-0.990366,0.0422626,0.0442073,1252,1821,9.9154,-53.9448
35,-797,9.78015,53.869,0,0,0,0,0,0,0,-1,1259,1821,9.78016,-53.8691
42,-797,9.81323,52.8596,0,0,0,0,0,0,0,-1,1266,1821,9.81321,-52.8596
49,-797,9.85632,52.2839,-0.0335106,0.031346,-0.00982031,0.0328004,-0.034965,-1.42377,0.039131,0.0474628,1273,1821,9.85631,-52.284
56,-797,9.9248,51.2958,-0.0363364,0.0405268,0.000447326,0.0405294,-0.036339,1.56498,0.044402,0.0437758,1280,1821,9.92483,-51.2958
63,-797,10.0735,50.5632,-0.0362268,0.0490729,0.0114218,0.0505758,-0.0377298,1.43996,0.0511628,0.0418928,1287,1821,10.0735,-50.5632
70,-797,10.0671,50.0511,-0.0325207,0.0544707,0.0218907,0.0596687,-0.0377188,1.33766,0.0567007,0.0410965,1294,1821,10.0671,-50.0511
77,-797,6.30579,53.01,-0.02434,0.0580225,0.0295292,0.0675154,-0.0338329,1.25976,0.0595809,0.0398734,1301,1821,6.30583,-53.0101
84,-797,6.43164,52.9993,-0.0159576,0.0597942,0.0374631,0.0751918,-0.0313552,1.18084,0.0632266,0.0448548,1308,1821,6.43161,-52.9992
91,-797,6.43066,52.6741,-0.00282104,0.0610228,0.0427683,0.0824688,-0.024267,1.10599,0.0646057,0.0432673,1315,1821,6.43066,-52.6741
98,-797,6.47437,52.2412,0.0135455,0.0624313,0.0459977,0.0900772,-0.0141004,1.02962,0.0652613,0.0427997,1322,1821,6.47431,-52.2412
105,-797,6.31506,51.8287,0,0,0,0,0,0,0,-1,1329,1821,6.31503,-51.8287
112,-797,6.89258,51.8606,0.0581089,0.0657287,0.0451835,0.107263,0.0165749,0.827459,0.0666738,0.0454616,1336,1821,6.89253,-51.8606
119,-797,7.26953,52.1179,0.0862702,0.0700784,0.0403107,0.11929,0.0370587,0.686298,0.0704989,0.0432825,1343,1821,7.26953,-52.1179
126,-797,9.38416,52.2286,0.117043,0.0756562,0.0309147,0.133551,0.0591482,0.490464,0.0772729,0.0463838,1350,1821,9.38418,-52.2286
133,-797,10.6534,52.118,0,0,0,0,0,0,0,-1,1357,1821,10.6534,-52.118
140,-797,12.0164,52.3127,0,0,0,0,0,0,0,-1,1364,1821,12.0164,-52.3128
147,-797,10.1891,50.5966,0,0,0,0,0,0,0,-1,1371,1821,10.189,-50.5965
154,-797,40.2623,8.88733,0,0,0,0,0,0,0,-1,1378,1821,40.2623,-8.88731
161,-797,42.2798,8.17371,0,0,0,0,0,0,0,-1,1385,1821,42.2798,-8.17367
168,-797,0,0,0,0,0,0,0,0,0,-1,1392,1821,0,0
175,-797,0,0,0,0,0,0,0,0,0,-1,1399,1821,0,0
182,-797,0,0,0,0,0,0,0,0,0,-1,1406,1821,0,0
189,-797,0,0,0,0,0,0,0,0,0,-1,1413,1821,0,0
196,-797,0,0,0,0,0,0,0,0,0,-1,1420,1821,0,0
203,-797,0,0,0,0,0,0,0,0,0,-1,1427,1821,0,0
210,-797,0,0,0,0,0,0,0,0,0,-1,1434,1821,0,0
217,-797,0,0,0,0,0,0,0,0,0,-1,1441,1821,0,0
224,-797,0,0,0,0,0,0,0,0,0,-1,1448,1821,0,0
231,-797,0,0,0,0,0,0,0,0,0,-1,1455,1821,0,0
238,-797,0,0,0,0,0,0,0,0,0,-1,1462,1821,0,0
245,-797,0,0,0,0,0,0,0,0,0,-1,1469,1821,0,0
252,-797,0,0,0,0,0,0,0,0,0,-1,1476,1821,0,0
259,-797,0,0,0,0,0,0,0,0,0,-1,1483,1821,0,0
266,-797,0,0,0,0,0,0,0,0,0,-1,1490,1821,0,0
273,-797,0,0,0,0,0,0,0,0,0,-1,1497,1821,0,0
280,-797,0,0,0,0,0,0,0,0,0,-1,1504,1821,0,0
287,-797,0,0,0,0,0,0,0,0,0,-1,1511,1821,0,0
294,-797,0,0,0,0,0,0,0,0,0,-1,1518,1821,0,0
301,-797,0,0,0,0,0,0,0,0,0,-1,1525,1821,0,0
308,-797,0,0,0,0,0,0,0,0,0,-1,1532,1821,0,0
315,-797,0,0,0,0,0,0,0,0,0,-1,1539,1821,0,0
322,-797,0,0,0,0,0,0,0,0,0,-1,1546,1821,0,0
329,-797,0,0,0,0,0,0,0,0,0,-1,1553,1821,0,0
336,-797,0,0,0,0,0,0,0,0,0,-1,1560,1821,0,0
343,-797,0,0,0,0,0,0,0,0,0,-1,1567,1821,0,0
350,-797,0,0,0,0,0,0,0,0,0,-1,1574,1821,0,0
357,-797,0,0,0,0,0,0,0,0,0,-1,1581,1821,0,0
364,-797,0,0,0,0,0,0,0,0,0,-1,1588,1821,0,0
371,-797,0,0,0,0,0,0,0,0,0,-1,1595,1821,0,0
378,-797,0,0,0,0,0,0,0,0,0,-1,1602,1821,0,0
385,-797,0,0,0,0,0,0,0,0,0,-1,1609,1821,0,0
392,-797,0,0,0,0,0,0,0,0,0,-1,1616,1821,0,0
399,-797,0,0,0,0,0,0,0,0,0,-1,1623,1821,0,0
406,-797,0,0,0,0,0,0,0,0,0,-1,1630,1821,0,0
413,-797,0,0,0,0,0,0,0,0,0,-1,1637,1821,0,0
420,-797,0,0,0,0,0,0,0,0,0,-1,1644,1821,0,0
427,-797,0,0,0,0,0,0,0,0,0,-1,1651,1821,0,0
434,-797,0,0,0,0,0,0,0,0,0,-1,1658,1821,0,0
441,-797,0,0,0,0,0,0,0,0,0,-1,1665,1821,0,0
448,-797,0,0,0,0,0,0,0,0,0,-1,1672,1821,0,0
455,-797,0,0,0,0,0,0,0,0,0,-1,1679,1821,0,0
462,-797,0,0,0,0,0,0,0,0,0,-1,1686,1821,0,0
469,-797,0,0,0,0,0,0,0,0,0,-1,1693,1821,0,0
476,-797,0,0,0,0,0,0,0,0,0,-1,1700,1821,0,0
483,-797,0,0,0,0,0,0,0,0,0,-1,1707,1821,0,0
490,-797,0,0,0,0,0,0,0,0,0,-1,1714,1821,0,0
497,-797,0,0,0,0,0,0,0,0,0,-1,1721,1821,0,0
504,-797,0,0,0,0,0,0,0,0,0,-1,1728,1821,0,0
511,-797,0,0,0,0,0,0,0,0,0,-1,1735,1821,0,0
518,-797,0,0,0,0,0,0,0,0,0,-1,1742,1821,0,0
525,-797,0,0,0,0,0,0,0,0,0,-1,1749,1821,0,0
532,-797,0,0,0,0,0,0,0,0,0,-1,1756,1821,0,0
539,-797,0,0,0,0,0,0,0,0,0,-1,1763,1821,0,0
546,-797,0,0,0,0,0,0,0,0,0,-1,1770,1821,0,0
553,-797,0,0,0,0,0,0,0,0,0,-1,1777,1821,0,0
560,-797,0,0,0,0,0,0,0,0,0,-1,1784,1821,0,0
567,-797,0,0,0,0,0,0,0,0,0,-1,1791,1821,0,0
574,-797,0,0,0,0,0,0,0,0,0,-1,1798,1821,0,0
581,-797,0,0,0,0,0,0,0,0,0,-1,1805,1821,0,0
588,-797,0,0,0,0,0,0,0,0,0,-1,1812,1821,0,0
595,-797,0,0,0,0,0,0,0,0,0,-1,1819,1821,0,0
602,-797,0,0,0,0,0,0,0,0,0,-1,1826,1821,0,0
609,-797,0,0,0,0,0,0,0,0,0,-1,1833,1821,0,0
616,-797,0,0,0,0,0,0,0,0,0,-1,1840,1821,0,0
623,-797,0,0,0,0,0,0,0,0,0,-1,1847,1821,0,0
630,-797,0,0,0,0,0,0,0,0,0,-1,1854,1821,0,0
637,-797,0,0,0,0,0,0,0,0,0,-1,1861,1821,0,0
644,-797,0,0,0,0,0,0,0,0,0,-1,1868,1821,0,0
651,-797,0,0,0,0,0,0,0,0,0,-1,1875,1821,0,0
658,-797,0,0,0,0,0,0,0,0,0,-1,1882,1821,0,0
665,-797,0,0,0,0,0,0,0,0,0,-1,1889,1821,0,0
672,-797,0,0,0,0,0,0,0,0,0,-1,1896,1821,0,0
679,-797,0,0,0,0,0,0,0,0,0,-1,1903,1821,0,0
686,-797,0,0,0,0,0,0,0,0,0,-1,1910,1821,0,0
693,-797,0,0,0,0,0,0,0,0,0,-1,1917,1821,0,0
700,-797,0,0,0,0,0,0,0,0,0,-1,1924,1821,0,0
707,-797,0,0,0,0,0,0,0,0,0,-1,1931,1821,0,0
714,-797,0,0,0,0,0,0,0,0,0,-1,1938,1821,0,0
721,-797,0,0,0,0,0,0,0,0,0,-1,1945,1821,0,0
728,-797,0,0,0,0,0,0,0,0,0,-1,1952,1821,0,0
735,-797,0,0,0,0,0,0,0,0,0,-1,1959,1821,0,0
742,-797,0,0,0,0,0,0,0,0,0,-1,1966,1821,0,0
749,-797,0,0,0,0,0,0,0,0,0,-1,1973,1821,0,0
756,-797,0,0,0,0,0,0,0,0,0,-1,1980,1821,0,0
763,-797,0,0,0,0,0,0,0,0,0,-1,1987,1821,0,0
770,-797,0,0,0,0,0,0,0,0,0,-1,1994,1821,0,0
777,-797,0,0,0,0,0,0,0,0,0,-1,2001,1821,0,0
784,-797,0,0,0,0,0,0,0,0,0,-1,2008,1821,0,0
791,-797,0,0,0,0,0,0,0,0,0,-1,2015,1821,0,0
798,-797,0,0,0,0,0,0,0,0,0,-1,2022,1821,0,0
805,-797,0,0,0,0,0,0,0,0,0,-1,2029,1821,0,0
812,-797,0,0,0,0,0,0,0,0,0,-1,2036,1821,0,0
-700,-804,0,0,0,0,0,0,0,0,0,-1,524,1828,0,0
-693,-804,0,0,0,0,0,0,0,0,0,-1,531,1828,0,0
-686,-804,0,0,0,0,0,0,0,0,0,-1,538,1828,0,0
-679,-804,0,0,0,0,0,0,0,0,0,-1,545,1828,0,0
-672,-804,0,0,0,0,0,0,0,0,0,-1,552,1828,0,0
-665,-804,0,0,0,0,0,0,0,0,0,-1,559,1828,0,0
-658,-804,0,0,0,0,0,0,0,0,0,-1,566,1828,0,0
-651,-804,0,0,0,0,0,0,0,0,0,-1,573,1828,0,0
-644,-804,0,0,0,0,0,0,0,0,0,-1,580,1828,0,0
-637,-804,0,0,0,0,0,0,0,0,0,-1,587,1828,0,0
-630,-804,0,0,0,0,0,0,0,0,0,-1,594,1828,0,0
-623,-804,0,0,0,0,0,0,0,0,0,-1,601,1828,0,0
-616,-804,0,0,0,0,0,0,0,0,0,-1,608,1828,0,0
-609,-804,0,0,0,0,0,0,0,0,0,-1,615,1828,0,0
-602,-804,0,0,0,0,0,0,0,0,0,-1,622,1828,0,0
-595,-804,0,0,0,0,0,0,0,0,0,-1,629,1828,0,0
-588,-804,0,0,0,0,0,0,0,0,0,-1,636,1828,0,0
-581,-804,0,0,0,0,0,0,0,0,0,-1,643,1828,0,0
-574,-804,0,0,0,0,0,0,0,0,0,-1,650,1828,0,0
-567,-804,0,0,0,0,0,0,0,0,0,-1,657,1828,0,0
-560,-804,0,0,0,0,0,0,0,0,0,-1,664,1828,0,0
-553,-804,0,0,0,0,0,0,0,0,0,-1,671,1828,0,0
-546,-804,0,0,0,0,0,0,0,0,0,-1,678,1828,0,0
-539,-804,0,0,0,0,0,0,0,0,0,-1,685,1828,0,0
-532,-804,0,0,0,0,0,0,0,0,0,-1,692,1828,0,0
-525,-804,0,0,0,0,0,0,0,0,0,-1,699,1828,0,0
-518,-804,0,0,0,0,0,0,0,0,0,-1,706,1828,0,0
-511,-804,0,0,0,0,0,0,0,0,0,-1,713,1828,0,0
-504,-804,0,0,0,0,0,0,0,0,0,-1,720,1828,0,0
-497,-804,0,0,0,0,0,0,0,0,0,-1,727,1828,0,0
-490,-804,0,0,0,0,0,0,0,0,0,-1,734,1828,0,0
-483,-804,0,0,0,0,0,0,0,0,0,-1,741,1828,0,0
-476,-804,0,0,0,0,0,0,0,0,0,-1,748,1828,0,0
-469,-804,0,0,0,0,0,0,0,0,0,-1,755,1828,0,0
-462,-804,0,0,0,0,0,0,0,0,0,-1,762,1828,0,0
-455,-804,0,0,0,0,0,0,0,0,0,-1,769,1828,0,0
-448,-804,0,0,0,0,0,0,0,0,0,-1,776,1828,0,0
-441,-804,0,0,0,0,0,0,0,0,0,-1,783,1828,0,0
-434,-804,0,0,0,0,0,0,0,0,0,-1,790,1828,0,0
-427,-804,0,0,0,0,0,0,0,0,0,-1,797,1828,0,0
-420,-804,0,0,0,0,0,0,0,0,0,-1,804,1828,0,0
-413,-804,0,0,0,0,0,0,0,0,0,-1,811,1828,0,0
-406,-804,0,0,0,0,0,0,0,0,0,-1,818,1828,0,0
-399,-804,0,0,0,0,0,0,0,0,0,-1,825,1828,0,0
-392,-804,0,0,0,0,0,0,0,0,0,-1,832,1828,0,0
-385,-804,0,0,0,0,0,0,0,0,0,-1,839,1828,0,0
-378,-804,0,0,0,0,0,0,0,0,0,-1,846,1828,0,0
-371,-804,0,0,0,0,0,0,0,0,0,-1,853,1828,0,0
-364,-804,0,0,0,0,0,0,0,0,0,-1,860,1828,0,0
-357,-804,0,0,0,0,0,0,0,0,0,-1,867,1828,0,0
-350,-804,0,0,0,0,0,0,0,0,0,-1,874,1828,0,0
-343,-804,0,0,0,0,0,0,0,0,0,-1,881,1828,0,0
-336,-804,0,0,0,0,0,0,0,0,0,-1,888,1828,0,0
-329,-804,0,0,0,0,0,0,0,0,0,-1,895,1828,0,0
-322,-804,0,0,0,0,0,0,0,0,0,-1,902,1828,0,0
-315,-804,0,0,0,0,0,0,0,0,0,-1,909,1828,0,0
-308,-804,0,0,0,0,0,0,0,0,0,-1,916,1828,0,0
-301,-804,0,0,0,0,0,0,0,0,0,-1,923,1828,0,0
-294,-804,0,0,0,0,0,0,0,0,0,-1,930,1828,0,0
-287,-804,0,0,0,0,0,0,0,0,0,-1,937,1828,0,0
-280,-804,0,0,0,0,0,0,0,0,0,-1,944,1828,0,0
-273,-804,0,0,0,0,0,0,0,0,0,-1,951,1828,0,0
-266,-804,0,0,0,0,0,0,0,0,0,-1,958,1828,0,0
-259,-804,0,0,0,0,0,0,0,0,0,-1,965,1828,0,0
-252,-804,0,0,0,0,0,0,0,0,0,-1,972,1828,0,0
-245,-804,0,0,0,0,0,0,0,0,0,-1,979,1828,0,0
-238,-804,0,0,0,0,0,0,0,0,0,-1,986,1828,0,0
-231,-804,0,0,0,0,0,0,0,0,0,-1,993,1828,0,0
-224,-804,0,0,0,0,0,0,0,0,0,-1,1000,1828,0,0
-217,-804,0,0,0,0,0,0,0,0,0,-1,1007,1828,0,0
-210,-804,0,0,0,0,0,0,0,0,0,-1,1014,1828,0,0
-203,-804,0,0,0,0,0,0,0,0,0,-1,1021,1828,0,0
-196,-804,0,0,0,0,0,0,0,0,0,-1,1028,1828,0,0
-189,-804,0,0,0,0,0,0,0,0,0,-1,1035,1828,0,0
-182,-804,0,0,0,0,0,0,0,0,0,-1,1042,1828,0,0
-175,-804,0,0,0,0,0,0,0,0,0,-1,1049,1828,0,0
-168,-804,0,0,0,0,0,0,0,0,0,-1,1056,1828,0,0
-161,-804,0,0,0,0,0,0,0,0,0,-1,1063,1828,0,0
-154,-804,0,0,0,0,0,0,0,0,0,-1,1070,1828,0,0
-147,-804,0,0,0,0,0,0,0,0,0,-1,1077,1828,0,0
-140,-804,0,0,0,0,0,0,0,0,0,-1,1084,1828,0,0
-133,-804,0,0,0,0,0,0,0,0,0,-1,1091,1828,0,0
-126,-804,0,0,0,0,0,0,0,0,0,-1,1098,1828,0,0
-119,-804,0,0,0,0,0,0,0,0,0,-1,1105,1828,0,0
-112,-804,0,0,0,0,0,0,0,0,0,-1,1112,1828,0,0
-105,-804,0,0,0,0,0,0,0,0,0,-1,1119,1828,0,0
-98,-804,0,0,0,0,0,0,0,0,0,-1,1126,1828,0,0
-91,-804,0,0,0,0,0,0,0,0,0,-1,1133,1828,0,0
-84,-804,0,0,0,0,0,0,0,0,0,-1,1140,1828,0,0
-77,-804,0,0,0,0,0,0,0,0,0,-1,1147,1828,0,0
-70,-804,0,0,0,0,0,0,0,0,0,-1,1154,1828,0,0
-63,-804,0,0,0,0,0,0,0,0,0,-1,1161,1828,0,0
-56,-804,0,0,0,0,0,0,0,0,0,-1,1168,1828,0,0
-49,-804,0,0,0,0,0,0,0,0,0,-1,1175,1828,0,0
-42,-804,0,0,0,0,0,0,0,0,0,-1,1182,1828,0,0
-35,-804,0,0,0,0,0,0,0,0,0,-1,1189,1828,0,0
-28,-804,0,0,0,0,0,0,0,0,0,-1,1196,1828,0,0
-21,-804,0,0,0,0,0,0,0,0,0,-1,1203,1828,0,0
-14,-804,0,0,0,0,0,0,0,0,0,-1,1210,1828,0,0
-7,-804,0,0,0,0,0,0,0,0,0,-1,1217,1828,0,0
0,-804,0,0,0,0,0,0,0,0,0,-1,1224,1828,0,0
7,-804,0,0,0,0,0,0,0,0,0,-1,1231,1828,0,0
14,-804,0,0,0,0,0,0,0,0,0,-1,1238,1828,0,0
21,-804,0,0,0,0,0,0,0,0,0,-1,1245,1828,0,0
28,-804,0,0,0,0,0,0,0,0,0,-1,1252,1828,0,0
35,-804,9.15283,53.4906,0,0,0,0,0,0,0,-1,1259,1828,9.15278,-53.4906
42,-804,9.30933,52.3781,0,0,0,0,0,0,0,-1,1266,1828,9.30935,-52.3781
49,-804,9.48035,51.642,0,0,0,0,0,0,0,-1,1273,1828,9.48031,-51.6419
56,-804,9.54028,50.9453,0,0,0,0,0,0,0,-1,1280,1828,9.54029,-50.9453
63,-804,10.371,50.0303,-0.0441954,0.0563244,0.0160335,0.0588199,-0.0466909,1.41639,0.0610507,0.045595,1287,1828,10.371,-50.0303
70,-804,10.3468,49.3282,-0.0413369,0.0624354,0.0288478,0.0699157,-0.0488171,1.31708,0.0689102,0.0448762,1294,1828,10.3467,-49.3283
77,-804,6.00061,52.8788,-0.0324233,0.0664344,0.0380986,0.0794131,-0.0454021,1.24246,0.0729484,0.0454928,1301,1828,6.00059,-52.8788
84,-804,6.15857,52.795,-0.0220563,0.0686868,0.0470935,0.0887093,-0.0420788,1.16879,0.0770937,0.0460738,1308,1828,6.15857,-52.7951
91,-804,0,0,0,0,0,0,0,0,0,-1,1315,1828,0,0
98,-804,0,0,0,0,0,0,0,0,0,-1,1322,1828,0,0
105,-804,0,0,0,0,0,0,0,0,0,-1,1329,1828,0,0
112,-804,0,0,0,0,0,0,0,0,0,-1,1336,1828,0,0
119,-804,0,0,0,0,0,0,0,0,0,-1,1343,1828,0,0
126,-804,0,0,0,0,0,0,0,0,0,-1,1350,1828,0,0
133,-804,0,0,0,0,0,0,0,0,0,-1,1357,1828,0,0
140,-804,0,0,0,0,0,0,0,0,0,-1,1364,1828,0,0
147,-804,0,0,0,0,0,0,0,0,0,-1,1371,1828,0,0
154,-804,0,0,0,0,0,0,0,0,0,-1,1378,1828,0,0
161,-804,0,0,0,0,0,0,0,0,0,-1,1385,1828,0,0
168,-804,0,0,0,0,0,0,0,0,0,-1,1392,1828,0,0
175,-804,0,0,0,0,0,0,0,0,0,-1,1399,1828,0,0
182,-804,0,0,0,0,0,0,0,0,0,-1,1406,1828,0,0
189,-804,0,0,0,0,0,0,0,0,0,-1,1413,1828,0,0
196,-804,0,0,0,0,0,0,0,0,0,-1,1420,1828,0,0
203,-804,0,0,0,0,0,0,0,0,0,-1,1427,1828,0,0
210,-804,0,0,0,0,0,0,0,0,0,-1,1434,1828,0,0
217,-804,0,0,0,0,0,0,0,0,0,-1,1441,1828,0,0
224,-804,0,0,0,0,0,0,0,0,0,-1,1448,1828,0,0
231,-804,0,0,0,0,0,0,0,0,0,-1,1455,1828,0,0
238,-804,0,0,0,0,0,0,0,0,0,-1,1462,1828,0,0
245,-804,0,0,0,0,0,0,0,0,0,-1,1469,1828,0,0
252,-804,0,0,0,0,0,0,0,0,0,-1,1476,1828,0,0
259,-804,0,0,0,0,0,0,0,0,0,-1,1483,1828,0,0
266,-804,0,0,0,0,0,0,0,0,0,-1,1490,1828,0,0
273,-804,0,0,0,0,0,0,0,0,0,-1,1497,1828,0,0
280,-804,0,0,0,0,0,0,0,0,0,-1,1504,1828,0,0
287,-804,0,0,0,0,0,0,0,0,0,-1,1511,1828,0,0
294,-804,0,0,0,0,0,0,0,0,0,-1,1518,1828,0,0
301,-804,0,0,0,0,0,0,0,0,0,-1,1525,1828,0,0
308,-804,0,0,0,0,0,0,0,0,0,-1,1532,1828,0,0
315,-804,0,0,0,0,0,0,0,0,0,-1,1539,1828,0,0
322,-804,0,0,0,0,0,0,0,0,0,-1,1546,1828,0,0
329,-804,0,0,0,0,0,0,0,0,0,-1,1553,1828,0,0
336,-804,0,0,0,0,0,0,0,0,0,-1,1560,1828,0,0
343,-804,0,0,0,0,0,0,0,0,0,-1,1567,1828,0,0
350,-804,0,0,0,0,0,0,0,0,0,-1,1574,1828,0,0
357,-804,0,0,0,0,0,0,0,0,0,-1,1581,1828,0,0
364,-804,0,0,0,0,0,0,0,0,0,-1,1588,1828,0,0
371,-804,0,0,0,0,0,0,0,0,0,-1,1595,1828,0,0
378,-804,0,0,0,0,0,0,0,0,0,-1,1602,1828,0,0
385,-804,0,0,0,0,0,0,0,0,0,-1,1609,1828,0,0
392,-804,0,0,0,0,0,0,0,0,0,-1,1616,1828,0,0
399,-804,0,0,0,0,0,0,0,0,0,-1,1623,1828,0,0
406,-804,0,0,0,0,0,0,0,0,0,-1,1630,1828,0,0
413,-804,0,0,0,0,0,0,0,0,0,-1,1637,1828,0,0
420,-804,0,0,0,0,0,0,0,0,0,-1,1644,1828,0,0
427,-804,0,0,0,0,0,0,0,0,0,-1,1651,1828,0,0
434,-804,0,0,0,0,0,0,0,0,0,-1,1658,1828,0,0
441,-804,0,0,0,0,0,0,0,0,0,-1,1665,1828,0,0
448,-804,0,0,0,0,0,0,0,0,0,-1,1672,1828,0,0
455,-804,0,0,0,0,0,0,0,0,0,-1,1679,1828,0,0
462,-804,0,0,0,0,0,0,0,0,0,-1,1686,1828,0,0
469,-804,0,0,0,0,0,0,0,0,0,-1,1693,1828,0,0
476,-804,0,0,0,0,0,0,0,0,0,-1,1700,1828,0,0
483,-804,0,0,0,0,0,0,0,0,0,-1,1707,1828,0,0
490,-804,0,0,0,0,0,0,0,0,0,-1,1714,1828,0,0
497,-804,0,0,0,0,0,0,0,0,0,-1,1721,1828,0,0
504,-804,0,0,0,0,0,0,0,0,0,-1,1728,1828,0,0
511,-804,0,0,0,0,0,0,0,0,0,-1,1735,1828,0,0
518,-804,0,0,0,0,0,0,0,0,0,-1,1742,1828,0,0
525,-804,0,0,0,0,0,0,0,0,0,-1,1749,1828,0,0
532,-804,0,0,0,0,0,0,0,0,0,-1,1756,1828,0,0
539,-804,0,0,0,0,0,0,0,0,0,-1,1763,1828,0,0
546,-804,0,0,0,0,0,0,0,0,0,-1,1770,1828,0,0
553,-804,0,0,0,0,0,0,0,0,0,-1,1777,1828,0,0
560,-804,0,0,0,0,0,0,0,0,0,-1,1784,1828,0,0
567,-804,0,0,0,0,0,0,0,0,0,-1,1791,1828,0,0
574,-804,0,0,0,0,0,0,0,0,0,-1,1798,1828,0,0
581,-804,0,0,0,0,0,0,0,0,0,-1,1805,1828,0,0
588,-804,0,0,0,0,0,0,0,0,0,-1,1812,1828,0,0
595,-804,0,0,0,0,0,0,0,0,0,-1,1819,1828,0,0
602,-804,0,0,0,0,0,0,0,0,0,-1,1826,1828,0,0
609,-804,0,0,0,0,0,0,0,0,0,-1,1833,1828,0,0
616,-804,0,0,0,0,0,0,0,0,0,-1,1840,1828,0,0
623,-804,0,0,0,0,0,0,0,0,0,-1,1847,1828,0,0
630,-804,0,0,0,0,0,0,0,0,0,-1,1854,1828,0,0
637,-804,0,0,0,0,0,0,0,0,0,-1,1861,1828,0,0
644,-804,0,0,0,0,0,0,0,0,0,-1,1868,1828,0,0
651,-804,0,0,0,0,0,0,0,0,0,-1,1875,1828,0,0
658,-804,0,0,0,0,0,0,0,0,0,-1,1882,1828,0,0
665,-804,0,0,0,0,0,0,0,0,0,-1,1889,1828,0,0
672,-804,0,0,0,0,0,0,0,0,0,-1,1896,1828,0,0
679,-804,0,0,0,0,0,0,0,0,0,-1,1903,1828,0,0
686,-804,0,0,0,0,0,0,0,0,0,-1,1910,1828,0,0
693,-804,0,0,0,0,0,0,0,0,0,-1,1917,1828,0,0
700,-804,0,0,0,0,0,0,0,0,0,-1,1924,1828,0,0
707,-804,0,0,0,0,0,0,0,0,0,-1,1931,1828,0,0
714,-804,0,0,0,0,0,0,0,0,0,-1,1938,1828,0,0
721,-804,0,0,0,0,0,0,0,0,0,-1,1945,1828,0,0
728,-804,0,0,0,0,0,0,0,0,0,-1,1952,1828,0,0
735,-804,0,0,0,0,0,0,0,0,0,-1,1959,1828,0,0
742,-804,0,0,0,0,0,0,0,0,0,-1,1966,1828,0,0
749,-804,0,0,0,0,0,0,0,0,0,-1,1973,1828,0,0
756,-804,0,0,0,0,0,0,0,0,0,-1,1980,1828,0,0
763,-804,0,0,0,0,0,0,0,0,0,-1,1987,1828,0,0
770,-804,0,0,0,0,0,0,0,0,0,-1,1994,1828,0,0
777,-804,0,0,0,0,0,0,0,0,0,-1,2001,1828,0,0
784,-804,0,0,0,0,0,0,0,0,0,-1,2008,1828,0,0
791,-804,0,0,0,0,0,0,0,0,0,-1,2015,1828,0,0
798,-804,0,0,0,0,0,0,0,0,0,-1,2022,1828,0,0
805,-804,0,0,0,0,0,0,0,0,0,-1,2029,1828,0,0
812,-804,0,0,0,0,0,0,0,0,0,-1,2036,1828,0,0

